##TITLE=SODIUM PHOSPHATE, DIBASIC
$$ C.P.
##JCAMP-DX=4.24
##DATA TYPE=INFRARED SPECTRUM
##CLASS=COBLENTZ
##ORIGIN=MELLON INSTITUTE
##OWNER=COBLENTZ SOCIETY
Collection (C) 2018 copyright by the U.S. Secretary of Commerce
on behalf of the United States of America. All rights reserved.
##DATE=Not specified, most likely prior to 1970
##MOLFORM=Na2 H P O4  * 12 H2 O
##SOURCE REFERENCE=COBLENTZ NO. 578
##$NIST ID=B6000578
##$NIST SOURCE=COBLENTZ
##$NIST IMAGE=cob578
##SPECTROMETER/DATA SYSTEM=Not specified, most likely a prism, grating, or hybrid spectrometer.
##STATE=SOLID (NUJOL MULL)
##PATH LENGTH=
$$SPECTRAL CONTAMINATION DUE TO OIL AROUND 2900, 1450, 1380 CM^-^1
##SAMPLING PROCEDURE=TRANSMISSION
##RESOLUTION=4
##DATA PROCESSING=DIGITIZED BY NIST FROM HARD COPY
##XUNITS=MICROMETERS
##YUNITS=TRANSMITTANCE
##XFACTOR=1.000000
##YFACTOR=1
##DELTAX=000.006647
##FIRSTX=2.043
##LASTX=15.9938
##FIRSTY=0.911
##MAXX=15.9938
##MINX=2.043
##MAXY=0.928
##MINY=0.01
##NPOINTS=2100
##XYDATA=(X++(Y..Y))
2.043000 0.9110 0.9110 0.9130 0.9130 0.9140
2.076248 0.9140 0.9140 0.9180 0.9180 0.9190
2.109000 0.9190 0.9210 0.9210 0.9210 0.9210
2.142248 0.9210 0.9210 0.9230 0.9240 0.9240
2.176000 0.9260 0.9280 0.9280 0.9280 0.9280
2.209248 0.9280 0.9260 0.9240 0.9230 0.9210
2.242000 0.9210 0.9210 0.9190 0.9190 0.9180
2.275248 0.9180 0.9140 0.9140 0.9130 0.9110
2.309000 0.9080 0.9060 0.9040 0.9040 0.9040
2.342248 0.9030 0.9030 0.9030 0.9030 0.9030
2.375000 0.9030 0.9030 0.9030 0.9030 0.9030
2.408248 0.9010 0.9010 0.8990 0.8990 0.8990
2.442000 0.8970 0.8970 0.8940 0.8940 0.8940
2.475248 0.8920 0.8920 0.8920 0.8920 0.8910
2.508000 0.8870 0.8840 0.8820 0.8820 0.8820
2.541248 0.8820 0.8810 0.8810 0.8790 0.8760
2.575000 0.8740 0.8720 0.8690 0.8670 0.8660
2.608248 0.8620 0.8590 0.8540 0.8470 0.8420
2.641000 0.8320 0.8270 0.8220 0.8170 0.8120
2.674248 0.8010 0.7990 0.7950 0.7850 0.7740
2.708000 0.7570 0.7370 0.6870 0.6750 0.6630
2.741248 0.5780 0.5050 0.4790 0.4530 0.3740
2.774000 0.3670 0.3360 0.3160 0.2940 0.2550
2.807248 0.2190 0.2040 0.1920 0.1800 0.1670
2.840000 0.1470 0.1280 0.1220 0.1180 0.0960
2.873248 0.0850 0.0810 0.0780 0.0750 0.0710
2.907000 0.0660 0.0630 0.0600 0.0600 0.0580
2.940248 0.0580 0.0560 0.0560 0.0550 0.0530
2.973000 0.0510 0.0510 0.0500 0.0480 0.0500
3.006248 0.0480 0.0460 0.0450 0.0450 0.0450
3.040000 0.0450 0.0450 0.0450 0.0450 0.0450
3.073248 0.0450 0.0450 0.0450 0.0450 0.0450
3.106000 0.0460 0.0480 0.0510 0.0530 0.0550
3.139248 0.0580 0.0600 0.0600 0.0610 0.0630
3.173000 0.0650 0.0660 0.0710 0.0730 0.0760
3.206248 0.0800 0.0810 0.0880 0.0960 0.1050
3.239000 0.1170 0.1300 0.1400 0.1570 0.1630
3.272248 0.1680 0.1770 0.1850 0.1880 0.1900
3.306000 0.1770 0.1670 0.1600 0.1480 0.1300
3.339248 0.1120 0.0910 0.0810 0.0750 0.0730
3.372000 0.0750 0.0800 0.1020 0.1220 0.1400
3.405248 0.1550 0.1630 0.1750 0.1770 0.1780
3.439000 0.1850 0.1980 0.2050 0.2250 0.3120
3.472248 0.3740 0.3890 0.4390 0.4580 0.5060
3.505000 0.5480 0.5580 0.6000 0.6150 0.6520
3.538248 0.6620 0.7040 0.7170 0.7290 0.7400
3.572000 0.7490 0.7500 0.7550 0.7600 0.7650
3.605248 0.7700 0.7820 0.7900 0.7990 0.7990
3.638000 0.8010 0.8020 0.8040 0.8060 0.8140
3.671248 0.8210 0.8240 0.8270 0.8320 0.8360
3.705000 0.8410 0.8470 0.8490 0.8520 0.8540
3.738248 0.8590 0.8620 0.8640 0.8660 0.8690
3.771000 0.8690 0.8690 0.8710 0.8720 0.8740
3.804248 0.8760 0.8790 0.8820 0.8840 0.8870
3.837000 0.8910 0.8920 0.8920 0.8940 0.8940
3.870248 0.8940 0.8940 0.8940 0.8940 0.8940
3.904000 0.8940 0.8940 0.8940 0.8940 0.8940
3.937248 0.8940 0.8920 0.8920 0.8920 0.8910
3.970000 0.8910 0.8890 0.8870 0.8860 0.8840
4.003248 0.8820 0.8790 0.8770 0.8740 0.8720
4.037000 0.8710 0.8690 0.8660 0.8640 0.8620
4.070248 0.8610 0.8610 0.8590 0.8590 0.8560
4.103000 0.8540 0.8540 0.8520 0.8520 0.8510
4.136248 0.8470 0.8460 0.8440 0.8420 0.8410
4.170000 0.8370 0.8360 0.8360 0.8360 0.8360
4.203248 0.8340 0.8340 0.8340 0.8340 0.8320
4.236000 0.8320 0.8320 0.8320 0.8310 0.8310
4.269248 0.8290 0.8290 0.8310 0.8310 0.8310
4.303000 0.8310 0.8290 0.8290 0.8290 0.8270
4.336248 0.8270 0.8260 0.8260 0.8240 0.8240
4.369000 0.8220 0.8220 0.8210 0.8210 0.8210
4.402248 0.8190 0.8170 0.8170 0.8160 0.8160
4.436000 0.8140 0.8140 0.8140 0.8120 0.8120
4.469248 0.8110 0.8110 0.8110 0.8090 0.8090
4.502000 0.8090 0.8070 0.8090 0.8090 0.8090
4.535248 0.8090 0.8110 0.8110 0.8110 0.8090
4.569000 0.8090 0.8090 0.8110 0.8110 0.8120
4.602248 0.8120 0.8170 0.8170 0.8190 0.8190
4.635000 0.8190 0.8210 0.8210 0.8220 0.8220
4.668248 0.8240 0.8240 0.8260 0.8290 0.8320
4.702000 0.8320 0.8320 0.8320 0.8340 0.8340
4.735248 0.8340 0.8340 0.8340 0.8360 0.8370
4.768000 0.8390 0.8410 0.8420 0.8420 0.8420
4.801248 0.8420 0.8490 0.8510 0.8520 0.8540
4.834000 0.8560 0.8590 0.8590 0.8610 0.8610
4.867248 0.8610 0.8640 0.8640 0.8670 0.8690
4.901000 0.8690 0.8710 0.8710 0.8710 0.8710
4.934248 0.8710 0.8720 0.8740 0.8760 0.8810
4.967000 0.8820 0.8820 0.8820 0.8840 0.8840
5.000248 0.8840 0.8840 0.8860 0.8860 0.8870
5.034000 0.8870 0.8890 0.8890 0.8910 0.8910
5.067248 0.8920 0.8920 0.8940 0.8940 0.8970
5.100000 0.8970 0.8970 0.8970 0.8970 0.8990
5.133248 0.8990 0.9010 0.9030 0.9030 0.9030
5.167000 0.9040 0.9060 0.9060 0.9060 0.9060
5.200248 0.9080 0.9060 0.9080 0.9080 0.9080
5.233000 0.9090 0.9090 0.9090 0.9110 0.9130
5.266248 0.9130 0.9140 0.9140 0.9160 0.9160
5.300000 0.9180 0.9180 0.9190 0.9180 0.9180
5.333248 0.9180 0.9160 0.9160 0.9160 0.9140
5.366000 0.9140 0.9140 0.9140 0.9140 0.9140
5.399248 0.9130 0.9140 0.9130 0.9130 0.9110
5.433000 0.9110 0.9090 0.9080 0.9080 0.9060
5.466248 0.9060 0.9060 0.9060 0.9040 0.9060
5.499000 0.9060 0.9080 0.9080 0.9090 0.9090
5.532248 0.9090 0.9110 0.9090 0.9110 0.9110
5.566000 0.9130 0.9130 0.9130 0.9130 0.9130
5.599248 0.9130 0.9130 0.9130 0.9110 0.9110
5.632000 0.9110 0.9110 0.9110 0.9090 0.9090
5.665248 0.9110 0.9110 0.9110 0.9110 0.9090
5.698000 0.9080 0.9060 0.9030 0.9040 0.9030
5.731248 0.9040 0.9040 0.9030 0.9030 0.9010
5.765000 0.8990 0.8990 0.8970 0.8920 0.8890
5.798248 0.8860 0.8770 0.8640 0.8570 0.8540
5.831000 0.8510 0.8460 0.8410 0.8310 0.8240
5.864248 0.8160 0.8090 0.8040 0.8010 0.8010
5.898000 0.7900 0.7840 0.7720 0.7570 0.7500
5.931248 0.7450 0.7420 0.7290 0.7070 0.6980
5.964000 0.6920 0.6900 0.6870 0.6850 0.6820
5.997248 0.6770 0.6720 0.6670 0.6630 0.6600
6.031000 0.6580 0.6530 0.6520 0.6480 0.6400
6.064248 0.6280 0.6230 0.6100 0.6020 0.6000
6.097000 0.5980 0.5850 0.5780 0.5760 0.5730
6.130248 0.5710 0.5730 0.5760 0.5780 0.5850
6.164000 0.5950 0.6030 0.6480 0.6950 0.7050
6.197248 0.7140 0.7220 0.7340 0.7420 0.7490
6.230000 0.7590 0.7650 0.7690 0.7700 0.7750
6.263248 0.7790 0.7820 0.7870 0.7890 0.7900
6.297000 0.7900 0.7920 0.7970 0.7990 0.8010
6.330248 0.8090 0.8090 0.8070 0.8060 0.8040
6.363000 0.8020 0.8020 0.8020 0.8010 0.8010
6.396248 0.8020 0.8040 0.8070 0.8120 0.8160
6.430000 0.8190 0.8210 0.8210 0.8210 0.8210
6.463248 0.8210 0.8210 0.8210 0.8210 0.8210
6.496000 0.8210 0.8210 0.8220 0.8220 0.8220
6.529248 0.8240 0.8240 0.8260 0.8260 0.8260
6.563000 0.8240 0.8240 0.8220 0.8210 0.8220
6.596248 0.8220 0.8240 0.8270 0.8320 0.8340
6.629000 0.8340 0.8360 0.8360 0.8360 0.8340
6.662248 0.8340 0.8320 0.8310 0.8290 0.8260
6.695000 0.8220 0.8190 0.8120 0.8020 0.7970
6.728248 0.7820 0.7600 0.7450 0.7090 0.6820
6.762000 0.6700 0.6580 0.6450 0.6300 0.6180
6.795248 0.6070 0.6030 0.5980 0.5850 0.5800
6.828000 0.5760 0.5760 0.5780 0.5830 0.5950
6.861248 0.6020 0.6050 0.6200 0.6300 0.6420
6.895000 0.6550 0.6770 0.6820 0.6880 0.6980
6.928248 0.7090 0.7270 0.7400 0.7540 0.7670
6.961000 0.7720 0.7790 0.7800 0.7820 0.7840
6.994248 0.7840 0.7870 0.7920 0.7950 0.7970
7.028000 0.7990 0.8010 0.8020 0.8060 0.8110
7.061248 0.8140 0.8160 0.8170 0.8170 0.8170
7.094000 0.8170 0.8170 0.8170 0.8160 0.8140
7.127248 0.8110 0.8090 0.7990 0.7820 0.7690
7.161000 0.7590 0.7520 0.7350 0.7190 0.7020
7.194248 0.6920 0.6900 0.6870 0.6880 0.6920
7.227000 0.6950 0.7000 0.7070 0.7120 0.7250
7.260248 0.7300 0.7340 0.7370 0.7420 0.7490
7.294000 0.7550 0.7620 0.7690 0.7770 0.7790
7.327248 0.7790 0.7800 0.7820 0.7820 0.7840
7.360000 0.7840 0.7850 0.7870 0.7890 0.7900
7.393248 0.7920 0.7940 0.7940 0.7940 0.7940
7.427000 0.7950 0.7950 0.7950 0.7950 0.7950
7.460248 0.7970 0.7970 0.7990 0.7990 0.7990
7.493000 0.7990 0.7990 0.7990 0.7970 0.7970
7.526248 0.7950 0.7950 0.7940 0.7940 0.7940
7.560000 0.7920 0.7920 0.7900 0.7900 0.7890
7.593248 0.7870 0.7850 0.7850 0.7840 0.7840
7.626000 0.7820 0.7820 0.7820 0.7820 0.7820
7.659248 0.7800 0.7800 0.7790 0.7770 0.7740
7.692000 0.7720 0.7700 0.7700 0.7670 0.7620
7.725248 0.7600 0.7570 0.7520 0.7500 0.7490
7.759000 0.7450 0.7440 0.7390 0.7350 0.7320
7.792248 0.7290 0.7240 0.7200 0.7170 0.7140
7.825000 0.7050 0.6970 0.6900 0.6820 0.6770
7.858248 0.6720 0.6680 0.6670 0.6650 0.6570
7.892000 0.6530 0.6530 0.6520 0.6500 0.6500
7.925248 0.6480 0.6480 0.6480 0.6480 0.6500
7.958000 0.6520 0.6520 0.6570 0.6600 0.6650
7.991248 0.6720 0.6750 0.6770 0.6770 0.6770
8.025000 0.6780 0.6820 0.6830 0.6850 0.6880
8.058248 0.6900 0.6900 0.6900 0.6900 0.6900
8.091000 0.6920 0.6930 0.6930 0.6930 0.6930
8.124248 0.6920 0.6900 0.6900 0.6880 0.6870
8.158000 0.6850 0.6820 0.6820 0.6770 0.6730
8.191248 0.6670 0.6620 0.6570 0.6500 0.6480
8.224000 0.6450 0.6420 0.6400 0.6380 0.6350
8.257248 0.6330 0.6300 0.6280 0.6270 0.6230
8.291000 0.6220 0.6180 0.6150 0.6120 0.6030
8.324248 0.6000 0.5960 0.5850 0.5810 0.5760
8.357000 0.5710 0.5680 0.5650 0.5630 0.5610
8.390248 0.5600 0.5560 0.5550 0.5550 0.5550
8.424000 0.5550 0.5550 0.5530 0.5530 0.5530
8.457248 0.5530 0.5530 0.5550 0.5560 0.5580
8.490000 0.5630 0.5650 0.5680 0.5700 0.5710
8.523248 0.5750 0.5760 0.5780 0.5800 0.5800
8.556000 0.5810 0.5830 0.5830 0.5830 0.5810
8.589248 0.5800 0.5780 0.5760 0.5750 0.5710
8.623000 0.5680 0.5650 0.5630 0.5600 0.5550
8.656248 0.5480 0.5410 0.5360 0.5280 0.5200
8.689000 0.5060 0.4980 0.4740 0.4210 0.4010
8.722248 0.3970 0.3790 0.3710 0.3640 0.3610
8.756000 0.3590 0.3570 0.3560 0.3540 0.3520
8.789248 0.3490 0.3440 0.3410 0.3390 0.3360
8.822000 0.3320 0.3270 0.3220 0.3160 0.3110
8.855248 0.3040 0.2990 0.2990 0.2940 0.2920
8.889000 0.2900 0.2900 0.2890 0.2870 0.2870
8.922248 0.2850 0.2840 0.2820 0.2820 0.2800
8.955000 0.2750 0.2740 0.2700 0.2670 0.2650
8.988248 0.2570 0.2490 0.2400 0.2290 0.2170
9.022000 0.2120 0.2020 0.1950 0.1680 0.1550
9.055248 0.1430 0.1400 0.1380 0.1300 0.1270
9.088000 0.1170 0.1030 0.0910 0.0810 0.0730
9.121248 0.0680 0.0610 0.0600 0.0560 0.0550
9.155000 0.0510 0.0480 0.0450 0.0430 0.0410
9.188248 0.0380 0.0360 0.0350 0.0330 0.0310
9.221000 0.0300 0.0280 0.0260 0.0250 0.0250
9.254248 0.0250 0.0230 0.0230 0.0210 0.0210
9.288000 0.0200 0.0150 0.0150 0.0130 0.0130
9.321248 0.0130 0.0110 0.0110 0.0110 0.0100
9.354000 0.0100 0.0100 0.0100 0.0100 0.0100
9.387248 0.0100 0.0100 0.0100 0.0110 0.0110
9.421000 0.0110 0.0130 0.0150 0.0150 0.0160
9.454248 0.0180 0.0200 0.0210 0.0250 0.0280
9.487000 0.0330 0.0400 0.0480 0.0530 0.0600
9.520248 0.0660 0.0730 0.0800 0.0910 0.0980
9.553000 0.1030 0.1130 0.1250 0.1430 0.1520
9.586248 0.1570 0.1720 0.1880 0.2220 0.2370
9.620000 0.2550 0.2700 0.2770 0.2850 0.3070
9.653248 0.3320 0.3520 0.3610 0.3720 0.3910
9.686000 0.4080 0.4310 0.4360 0.4430 0.4540
9.719248 0.4590 0.4680 0.4740 0.4780 0.4880
9.753000 0.4890 0.4940 0.5010 0.5100 0.5150
9.786248 0.5180 0.5230 0.5260 0.5300 0.5330
9.819000 0.5380 0.5400 0.5450 0.5450 0.5410
9.852248 0.5410 0.5380 0.5350 0.5330 0.5280
9.886000 0.5260 0.5230 0.5150 0.5030 0.5000
9.919248 0.4930 0.4890 0.4840 0.4790 0.4730
9.952000 0.4660 0.4580 0.4490 0.4380 0.4290
9.985248 0.4190 0.4090 0.3960 0.3770 0.3440
10.019000 0.3360 0.3260 0.2820 0.2740 0.2570
10.052248 0.2440 0.2140 0.2040 0.1880 0.1830
10.085000 0.1780 0.1720 0.1670 0.1620 0.1570
10.118248 0.1530 0.1500 0.1400 0.1350 0.1330
10.152000 0.1330 0.1330 0.1350 0.1370 0.1370
10.185248 0.1430 0.1520 0.1630 0.1720 0.1830
10.218000 0.1950 0.2000 0.2100 0.2200 0.2270
10.251248 0.2320 0.2390 0.2440 0.2550 0.2690
10.285000 0.2820 0.2870 0.2920 0.3040 0.3170
10.318248 0.3210 0.3260 0.3270 0.3290 0.3320
10.351000 0.3370 0.3370 0.3390 0.3410 0.3440
10.384248 0.3460 0.3460 0.3470 0.3490 0.3490
10.418000 0.3510 0.3510 0.3510 0.3520 0.3520
10.451248 0.3560 0.3620 0.3720 0.3790 0.3910
10.484000 0.4010 0.4060 0.4160 0.4280 0.4340
10.517248 0.4430 0.4560 0.4630 0.4730 0.4860
10.550000 0.5000 0.5180 0.5300 0.5330 0.5410
10.583248 0.5660 0.5850 0.5960 0.5980 0.6050
10.617000 0.6120 0.6180 0.6220 0.6270 0.6380
10.650248 0.6430 0.6550 0.6620 0.6770 0.6820
10.683000 0.6880 0.6900 0.6980 0.6980 0.7020
10.716248 0.7100 0.7140 0.7170 0.7220 0.7270
10.750000 0.7290 0.7320 0.7350 0.7400 0.7440
10.783248 0.7450 0.7490 0.7500 0.7540 0.7550
10.816000 0.7590 0.7620 0.7640 0.7640 0.7650
10.849248 0.7650 0.7670 0.7670 0.7690 0.7690
10.883000 0.7690 0.7720 0.7720 0.7740 0.7740
10.916248 0.7750 0.7750 0.7770 0.7790 0.7790
10.949000 0.7790 0.7790 0.7790 0.7790 0.7790
10.982248 0.7790 0.7790 0.7790 0.7790 0.7790
11.016000 0.7770 0.7770 0.7750 0.7750 0.7750
11.049248 0.7740 0.7740 0.7740 0.7720 0.7700
11.082000 0.7700 0.7690 0.7690 0.7670 0.7670
11.115248 0.7640 0.7620 0.7600 0.7590 0.7550
11.149000 0.7540 0.7500 0.7490 0.7440 0.7400
11.182248 0.7350 0.7290 0.7220 0.7190 0.7140
11.215000 0.7040 0.7000 0.6970 0.6870 0.6830
11.248248 0.6770 0.6720 0.6680 0.6630 0.6600
11.282000 0.6550 0.6530 0.6420 0.6350 0.6220
11.315248 0.6170 0.5950 0.5800 0.5730 0.5650
11.348000 0.5550 0.5480 0.5380 0.5300 0.5210
11.381248 0.5080 0.5010 0.4910 0.4510 0.4430
11.415000 0.4290 0.4210 0.4160 0.4090 0.4030
11.448248 0.4010 0.3970 0.3870 0.3840 0.3770
11.481000 0.3720 0.3690 0.3640 0.3540 0.3510
11.514248 0.3420 0.3360 0.3340 0.3310 0.3290
11.547000 0.3260 0.3240 0.3220 0.3210 0.3190
11.580248 0.3190 0.3210 0.3220 0.3220 0.3260
11.614000 0.3290 0.3320 0.3390 0.3510 0.3590
11.647248 0.3660 0.3710 0.3760 0.3810 0.3860
11.680000 0.3890 0.3990 0.4040 0.4110 0.4160
11.713248 0.4330 0.4480 0.4530 0.4580 0.4610
11.747000 0.4680 0.4740 0.4810 0.4890 0.4930
11.780248 0.5050 0.5150 0.5200 0.5210 0.5260
11.813000 0.5300 0.5350 0.5400 0.5410 0.5450
11.846248 0.5510 0.5530 0.5580 0.5610 0.5650
11.880000 0.5700 0.5710 0.5750 0.5750 0.5780
11.913248 0.5810 0.5850 0.5860 0.5880 0.5880
11.946000 0.5880 0.5860 0.5860 0.5850 0.5850
11.979248 0.5850 0.5830 0.5830 0.5830 0.5850
12.013000 0.5880 0.5900 0.5910 0.5910 0.5910
12.046248 0.5910 0.5910 0.5910 0.5910 0.5910
12.079000 0.5910 0.5900 0.5900 0.5900 0.5900
12.112248 0.5900 0.5910 0.5910 0.5930 0.5930
12.146000 0.5950 0.5950 0.5950 0.5980 0.5980
12.179248 0.6000 0.6000 0.6000 0.6000 0.6000
12.212000 0.6000 0.6000 0.6000 0.5980 0.6000
12.245248 0.6000 0.6000 0.6000 0.6000 0.6000
12.279000 0.6000 0.6020 0.6020 0.6030 0.6050
12.312248 0.6050 0.6080 0.6100 0.6120 0.6130
12.345000 0.6130 0.6150 0.6150 0.6170 0.6170
12.378248 0.6170 0.6180 0.6200 0.6200 0.6200
12.411000 0.6220 0.6230 0.6250 0.6250 0.6250
12.444248 0.6250 0.6250 0.6270 0.6280 0.6280
12.478000 0.6280 0.6270 0.6270 0.6270 0.6250
12.511248 0.6250 0.6250 0.6250 0.6250 0.6250
12.544000 0.6250 0.6250 0.6250 0.6250 0.6250
12.577248 0.6230 0.6220 0.6180 0.6170 0.6150
12.611000 0.6150 0.6130 0.6120 0.6100 0.6080
12.644248 0.6080 0.6070 0.6050 0.6030 0.6020
12.677000 0.6020 0.6020 0.6020 0.6020 0.6000
12.710248 0.6000 0.5980 0.5980 0.5950 0.5930
12.744000 0.5910 0.5900 0.5880 0.5860 0.5850
12.777248 0.5810 0.5800 0.5800 0.5780 0.5750
12.810000 0.5730 0.5710 0.5700 0.5680 0.5650
12.843248 0.5650 0.5630 0.5630 0.5630 0.5610
12.877000 0.5610 0.5610 0.5610 0.5610 0.5610
12.910248 0.5600 0.5600 0.5550 0.5510 0.5480
12.943000 0.5430 0.5410 0.5380 0.5360 0.5360
12.976248 0.5350 0.5330 0.5330 0.5310 0.5300
13.010000 0.5280 0.5250 0.5250 0.5230 0.5210
13.043248 0.5180 0.5160 0.5150 0.5130 0.5130
13.076000 0.5110 0.5100 0.5060 0.5060 0.5060
13.109248 0.5060 0.5060 0.5060 0.5050 0.5030
13.143000 0.5030 0.5030 0.5030 0.5030 0.5030
13.176248 0.5010 0.5010 0.5000 0.4980 0.4980
13.209000 0.4980 0.4930 0.4930 0.4910 0.4890
13.242248 0.4880 0.4880 0.4880 0.4860 0.4840
13.276000 0.4840 0.4830 0.4830 0.4790 0.4780
13.309248 0.4760 0.4730 0.4730 0.4710 0.4690
13.342000 0.4690 0.4680 0.4660 0.4640 0.4640
13.375248 0.4630 0.4630 0.4630 0.4610 0.4590
13.408000 0.4560 0.4540 0.4540 0.4530 0.4530
13.441248 0.4510 0.4490 0.4490 0.4480 0.4460
13.475000 0.4440 0.4430 0.4430 0.4430 0.4410
13.508248 0.4390 0.4390 0.4380 0.4380 0.4340
13.541000 0.4330 0.4330 0.4330 0.4330 0.4310
13.574248 0.4290 0.4290 0.4280 0.4260 0.4260
13.608000 0.4240 0.4260 0.4260 0.4260 0.4260
13.641248 0.4240 0.4230 0.4230 0.4230 0.4210
13.674000 0.4190 0.4190 0.4160 0.4140 0.4140
13.707248 0.4130 0.4110 0.4110 0.4090 0.4090
13.741000 0.4080 0.4080 0.4060 0.4040 0.4040
13.774248 0.4030 0.4030 0.4030 0.4030 0.4030
13.807000 0.3990 0.4010 0.4010 0.4010 0.4010
13.840248 0.4010 0.4010 0.4010 0.4010 0.4010
13.874000 0.4010 0.4010 0.3990 0.3990 0.3990
13.907248 0.3990 0.3970 0.3970 0.3970 0.3960
13.940000 0.3960 0.3960 0.3960 0.3960 0.3960
13.973248 0.3960 0.3960 0.3970 0.3970 0.3970
14.007000 0.3970 0.3970 0.3970 0.3970 0.3970
14.040248 0.3970 0.3960 0.3960 0.3940 0.3920
14.073000 0.3940 0.3920 0.3920 0.3910 0.3910
14.106248 0.3910 0.3910 0.3910 0.3920 0.3940
14.140000 0.3940 0.3940 0.3940 0.3940 0.3940
14.173248 0.3920 0.3910 0.3890 0.3870 0.3860
14.206000 0.3840 0.3840 0.3820 0.3820 0.3840
14.239248 0.3840 0.3840 0.3840 0.3820 0.3820
14.273000 0.3820 0.3810 0.3810 0.3790 0.3790
14.306248 0.3790 0.3790 0.3790 0.3810 0.3810
14.339000 0.3820 0.3820 0.3810 0.3810 0.3810
14.372248 0.3810 0.3790 0.3790 0.3790 0.3790
14.405000 0.3790 0.3790 0.3790 0.3790 0.3790
14.438248 0.3790 0.3790 0.3790 0.3790 0.3790
14.472000 0.3790 0.3790 0.3770 0.3770 0.3770
14.505248 0.3770 0.3770 0.3760 0.3760 0.3740
14.538000 0.3740 0.3740 0.3740 0.3740 0.3740
14.571248 0.3720 0.3720 0.3710 0.3710 0.3690
14.605000 0.3710 0.3710 0.3710 0.3690 0.3690
14.638248 0.3690 0.3690 0.3690 0.3690 0.3710
14.671000 0.3710 0.3710 0.3710 0.3710 0.3710
14.704248 0.3720 0.3720 0.3710 0.3710 0.3710
14.738000 0.3710 0.3720 0.3720 0.3720 0.3720
14.771248 0.3720 0.3740 0.3770 0.3820 0.3870
14.804000 0.3920 0.3970 0.3970 0.3990 0.4010
14.837248 0.4010 0.4030 0.4030 0.4040 0.4040
14.871000 0.4040 0.3990 0.3960 0.3920 0.3910
14.904248 0.3890 0.3860 0.3820 0.3820 0.3790
14.937000 0.3770 0.3770 0.3770 0.3790 0.3810
14.970248 0.3810 0.3820 0.3820 0.3820 0.3820
15.004000 0.3820 0.3840 0.3840 0.3840 0.3840
15.037248 0.3820 0.3820 0.3820 0.3840 0.3840
15.070000 0.3840 0.3860 0.3860 0.3870 0.3890
15.103248 0.3890 0.3890 0.3910 0.3910 0.3910
15.137000 0.3910 0.3910 0.3920 0.3920 0.3960
15.170248 0.3960 0.3990 0.4030 0.4030 0.4040
15.203000 0.4040 0.4060 0.4060 0.4090 0.4090
15.236248 0.4110 0.4110 0.4110 0.4110 0.4110
15.269000 0.4110 0.4130 0.4130 0.4130 0.4140
15.302248 0.4130 0.4130 0.4140 0.4160 0.4190
15.336000 0.4210 0.4230 0.4260 0.4280 0.4290
15.369248 0.4290 0.4290 0.4290 0.4290 0.4310
15.402000 0.4310 0.4310 0.4310 0.4330 0.4330
15.435248 0.4330 0.4330 0.4340 0.4360 0.4360
15.469000 0.4380 0.4380 0.4390 0.4390 0.4390
15.502248 0.4390 0.4410 0.4430 0.4440 0.4480
15.535000 0.4490 0.4510 0.4530 0.4530 0.4540
15.568248 0.4580 0.4590 0.4610 0.4610 0.4630
15.602000 0.4640 0.4660 0.4680 0.4690 0.4710
15.635248 0.4710 0.4730 0.4730 0.4740 0.4740
15.668000 0.4760 0.4780 0.4790 0.4810 0.4830
15.701248 0.4840 0.4860 0.4890 0.4910 0.4940
15.735000 0.4960 0.4980 0.5010 0.5030 0.5050
15.768248 0.5100 0.5130 0.5150 0.5180 0.5210
15.801000 0.5230 0.5280 0.5300 0.5310 0.5330
15.834248 0.5330 0.5350 0.5360 0.5380 0.5400
15.868000 0.5410 0.5430 0.5450 0.5450 0.5460
15.901248 0.5480 0.5500 0.5500 0.5510 0.5530
15.934000 0.5530 0.5560 0.5560 0.5560 0.5580
15.967248 0.5580 0.5600 0.5600 0.5610 0.5600
##END=
