##TITLE=3-Hydroxy-2,6-piperidinedimethanol, hydrochloride
##JCAMP-DX=4.24
$$ By DXEDIT 1.05 (RS McDonald)
##DATA TYPE=INFRARED SPECTRUM
##CLASS=COBLENTZ III
##ORIGIN=DOW CHEMICAL COMPANY
##OWNER=COPYRIGHT (C) 1988 by COBLENTZ SOCIETY INC.
Collection (C) 2018 copyright by the U.S. Secretary of Commerce
on behalf of the United States of America. All rights reserved.
##DATE=1965/12/07
##NAMES=2,6-bis(hydroxymethyl)-3-piperidinol hydrochloride
##MOLFORM=C7 H16 Cl N O3
##MP=145 C
##SOURCE REFERENCE=COBLENTZ NO. 08898
##$NIST ID=B6008898
##$NIST SOURCE=COBLENTZ
##$NIST IMAGE=cob8898
##SPECTROMETER/DATA SYSTEM=DOW KBr FOREPRISM-GRATING
##INSTRUMENT PARAMETERS=BLAZED AT 3.5, 12.0, 20.0 MICRON AND CHANGED AT 5.0, 7.5, 14.9 MICRON
##STATE=SOLID (SPLIT MULL), FLUOROLUBE FOR 3800-1330 CM^-^1, NUJOL FOR 1330-400 CM^-^1
$$ SPECTRAL FEATURE AT 1335 CM^-^1 IS AFFECTED BY SOLVENT CHANGE
$$ STRUCTURE VERIFIED, CLASS II TECHNICAL QUALITY; VERIFYING SPECTRUM MAY BE FROM SAME SOURCE
##SAMPLING PROCEDURE=TRANSMISSION
##RESOLUTION=2
##DATA PROCESSING=DIGITIZED BY COBLENTZ SOCIETY (BATCH I) FROM HARD COPY
##XUNITS=1/CM
##YUNITS=TRANSMITTANCE
##XFACTOR=1
##YFACTOR=1
##DELTAX=1
##FIRSTX=3810
##LASTX=400
##FIRSTY=0.7432
##MAXX=3810
##MINX=400
##MAXY=0.8811
##MINY=0.0365
##NPOINTS=3411
##XYDATA=(X++(Y..Y))
3810.000000 0.7432 0.7433 0.7435 0.7437 0.7440
3805.000000 0.7443 0.7446 0.7449 0.7451 0.7455
3800.000000 0.7458 0.7461 0.7464 0.7465 0.7468
3795.000000 0.7471 0.7475 0.7478 0.7484 0.7488
3790.000000 0.7492 0.7496 0.7501 0.7505 0.7510
3785.000000 0.7514 0.7501 0.7521 0.7526 0.7531
3780.000000 0.7536 0.7539 0.7543 0.7547 0.7551
3775.000000 0.7554 0.7558 0.7561 0.7565 0.7569
3770.000000 0.7574 0.7576 0.7581 0.7584 0.7587
3765.000000 0.7589 0.7591 0.7593 0.7595 0.7597
3760.000000 0.7599 0.7601 0.7603 0.7605 0.7607
3755.000000 0.7608 0.7611 0.7611 0.7611 0.7611
3750.000000 0.7611 0.7611 0.7612 0.7612 0.7614
3745.000000 0.7614 0.7614 0.7614 0.7615 0.7615
3740.000000 0.7615 0.7615 0.7617 0.7617 0.7617
3735.000000 0.7617 0.7617 0.7615 0.7615 0.7615
3730.000000 0.7615 0.7615 0.7615 0.7618 0.7621
3725.000000 0.7624 0.7626 0.7630 0.7633 0.7635
3720.000000 0.7638 0.7641 0.7644 0.7647 0.7650
3715.000000 0.7651 0.7655 0.7658 0.7661 0.7665
3710.000000 0.7668 0.7674 0.7680 0.7685 0.7690
3705.000000 0.7695 0.7700 0.7705 0.7711 0.7715
3700.000000 0.7721 0.7725 0.7731 0.7736 0.7742
3695.000000 0.7745 0.7749 0.7751 0.7755 0.7758
3690.000000 0.7761 0.7764 0.7768 0.7771 0.7774
3685.000000 0.7776 0.7780 0.7783 0.7787 0.7790
3680.000000 0.7793 0.7796 0.7799 0.7801 0.7803
3675.000000 0.7805 0.7807 0.7808 0.7811 0.7814
3670.000000 0.7815 0.7818 0.7819 0.7821 0.7824
3665.000000 0.7825 0.7828 0.7830 0.7832 0.7834
3660.000000 0.7837 0.7839 0.7841 0.7843 0.7845
3655.000000 0.7847 0.7849 0.7851 0.7853 0.7855
3650.000000 0.7857 0.7858 0.7861 0.7862 0.7865
3645.000000 0.7867 0.7868 0.7869 0.7871 0.7872
3640.000000 0.7875 0.7876 0.7878 0.7880 0.7882
3635.000000 0.7884 0.7886 0.7887 0.7889 0.7890
3630.000000 0.7892 0.7894 0.7896 0.7897 0.7899
3625.000000 0.7900 0.7901 0.7903 0.7904 0.7904
3620.000000 0.7905 0.7906 0.7907 0.7907 0.7908
3615.000000 0.7908 0.7908 0.7908 0.7908 0.7908
3610.000000 0.7908 0.7908 0.7908 0.7908 0.7908
3605.000000 0.7905 0.7889 0.7889 0.7890 0.7878
3600.000000 0.7867 0.7853 0.7839 0.7825 0.7811
3595.000000 0.7814 0.7815 0.7818 0.7821 0.7822
3590.000000 0.7825 0.7828 0.7832 0.7834 0.7837
3585.000000 0.7839 0.7841 0.7843 0.7845 0.7847
3580.000000 0.7847 0.7848 0.7848 0.7846 0.7845
3575.000000 0.7843 0.7841 0.7839 0.7838 0.7835
3570.000000 0.7833 0.7828 0.7824 0.7818 0.7814
3565.000000 0.7808 0.7805 0.7800 0.7795 0.7790
3560.000000 0.7786 0.7778 0.7772 0.7765 0.7758
3555.000000 0.7751 0.7745 0.7737 0.7730 0.7722
3550.000000 0.7715 0.7708 0.7701 0.7695 0.7688
3545.000000 0.7678 0.7671 0.7661 0.7651 0.7642
3540.000000 0.7633 0.7622 0.7614 0.7604 0.7595
3535.000000 0.7585 0.7575 0.7565 0.7556 0.7544
3530.000000 0.7532 0.7518 0.7505 0.7491 0.7478
3525.000000 0.7464 0.7450 0.7436 0.7422 0.7408
3520.000000 0.7396 0.7382 0.7368 0.7355 0.7342
3515.000000 0.7325 0.7308 0.7290 0.7271 0.7254
3510.000000 0.7236 0.7218 0.7200 0.7182 0.7164
3505.000000 0.7141 0.7118 0.7093 0.7067 0.7041
3500.000000 0.7015 0.6990 0.6964 0.6938 0.6912
3495.000000 0.6887 0.6861 0.6836 0.6810 0.6784
3490.000000 0.6758 0.6733 0.6708 0.6682 0.6657
3485.000000 0.6631 0.6606 0.6575 0.6544 0.6508
3480.000000 0.6472 0.6437 0.6401 0.6366 0.6331
3475.000000 0.6295 0.6259 0.6223 0.6188 0.6152
3470.000000 0.6116 0.6079 0.6043 0.6006 0.5970
3465.000000 0.5933 0.5897 0.5860 0.5824 0.5787
3460.000000 0.5750 0.5712 0.5677 0.5645 0.5612
3455.000000 0.5581 0.5550 0.5518 0.5487 0.5455
3450.000000 0.5424 0.5392 0.5360 0.5329 0.5298
3445.000000 0.5264 0.5230 0.5190 0.5150 0.5109
3440.000000 0.5069 0.5029 0.4989 0.4948 0.4908
3435.000000 0.4868 0.4828 0.4789 0.4750 0.4710
3430.000000 0.4672 0.4633 0.4594 0.4555 0.4517
3425.000000 0.4478 0.4439 0.4398 0.4358 0.4310
3420.000000 0.4262 0.4214 0.4167 0.4119 0.4071
3415.000000 0.4023 0.3976 0.3900 0.3826 0.3718
3410.000000 0.3610 0.3409 0.3209 0.3151 0.3092
3405.000000 0.3032 0.2973 0.2918 0.2864 0.2810
3400.000000 0.2757 0.2703 0.2650 0.2578 0.2507
3395.000000 0.2444 0.2381 0.2330 0.2279 0.2133
3390.000000 0.1987 0.1927 0.1867 0.1806 0.1745
3385.000000 0.1684 0.1625 0.1613 0.1584 0.1600
3380.000000 0.1599 0.1606 0.1613 0.1622 0.1631
3375.000000 0.1653 0.1675 0.1698 0.1722 0.1743
3370.000000 0.1765 0.1785 0.1808 0.1826 0.1844
3365.000000 0.1856 0.1868 0.1876 0.1884 0.1884
3360.000000 0.1885 0.1885 0.1921 0.1881 0.1877
3355.000000 0.1872 0.1867 0.1846 0.1827 0.1770
3350.000000 0.1713 0.1629 0.1546 0.1463 0.1380
3345.000000 0.1296 0.1214 0.1131 0.1048 0.0979
3340.000000 0.0911 0.0882 0.0853 0.0835 0.0817
3335.000000 0.0806 0.0755 0.0788 0.0781 0.0777
3330.000000 0.0776 0.0775 0.0777 0.0785 0.0794
3325.000000 0.0808 0.0822 0.0856 0.0889 0.0942
3320.000000 0.0995 0.1056 0.1118 0.1162 0.1206
3315.000000 0.1267 0.1328 0.1410 0.1492 0.1574
3310.000000 0.1656 0.1737 0.1820 0.1902 0.1984
3305.000000 0.2066 0.2148 0.2210 0.2273 0.2301
3300.000000 0.2330 0.2351 0.2372 0.2389 0.2407
3295.000000 0.2424 0.2442 0.2458 0.2475 0.2490
3290.000000 0.2506 0.2517 0.2528 0.2534 0.2541
3285.000000 0.2547 0.2553 0.2555 0.2558 0.2560
3280.000000 0.2589 0.2564 0.2564 0.2564 0.2563
3275.000000 0.2561 0.2559 0.2557 0.2555 0.2552
3270.000000 0.2549 0.2539 0.2530 0.2521 0.2512
3265.000000 0.2502 0.2493 0.2477 0.2461 0.2442
3260.000000 0.2423 0.2404 0.2384 0.2363 0.2342
3255.000000 0.2276 0.2210 0.2174 0.2139 0.2109
3250.000000 0.2079 0.2049 0.2020 0.1985 0.1952
3245.000000 0.1918 0.1884 0.1848 0.1813 0.1776
3240.000000 0.1740 0.1696 0.1654 0.1590 0.1525
3235.000000 0.1463 0.1401 0.1342 0.1284 0.1205
3230.000000 0.1126 0.1055 0.0985 0.0949 0.0913
3225.000000 0.0901 0.0889 0.0884 0.0878 0.0872
3220.000000 0.0869 0.0870 0.0846 0.0876 0.0882
3215.000000 0.0889 0.0896 0.0915 0.0934 0.0957
3210.000000 0.0980 0.1013 0.1046 0.1079 0.1112
3205.000000 0.1148 0.1184 0.1222 0.1261 0.1299
3200.000000 0.1338 0.1382 0.1426 0.1473 0.1520
3195.000000 0.1586 0.1653 0.1746 0.1841 0.1906
3190.000000 0.1971 0.2035 0.2101 0.2154 0.2208
3185.000000 0.2257 0.2307 0.2356 0.2406 0.2455
3180.000000 0.2505 0.2537 0.2569 0.2601 0.2633
3175.000000 0.2665 0.2697 0.2729 0.2761 0.2793
3170.000000 0.2825 0.2895 0.2965 0.3052 0.3139
3165.000000 0.3189 0.3240 0.3290 0.3340 0.3390
3160.000000 0.3441 0.3484 0.3529 0.3573 0.3616
3155.000000 0.3650 0.3684 0.3712 0.3740 0.3766
3150.000000 0.3794 0.3821 0.3849 0.3874 0.3900
3145.000000 0.3923 0.3946 0.3968 0.3991 0.4012
3140.000000 0.4036 0.4050 0.4066 0.4079 0.4091
3135.000000 0.4098 0.4105 0.4112 0.4119 0.4125
3130.000000 0.4132 0.4138 0.4145 0.4148 0.4152
3125.000000 0.4155 0.4158 0.4160 0.4165 0.4168
3120.000000 0.4172 0.4173 0.4174 0.4174 0.4175
3115.000000 0.4175 0.4176 0.4176 0.4176 0.4175
3110.000000 0.4174 0.4172 0.4170 0.4165 0.4160
3105.000000 0.4156 0.4151 0.4143 0.4136 0.4128
3100.000000 0.4120 0.4109 0.4099 0.4084 0.4071
3095.000000 0.4057 0.4044 0.4030 0.4016 0.4002
3090.000000 0.3988 0.3962 0.3938 0.3912 0.3888
3085.000000 0.3862 0.3837 0.3803 0.3768 0.3730
3080.000000 0.3692 0.3659 0.3627 0.3603 0.3580
3075.000000 0.3557 0.3534 0.3499 0.3464 0.3434
3070.000000 0.3403 0.3386 0.3368 0.3366 0.3362
3065.000000 0.3359 0.3356 0.3355 0.3354 0.3354
3060.000000 0.3354 0.3354 0.3355 0.3356 0.3357
3055.000000 0.3358 0.3359 0.3364 0.3368 0.3394
3050.000000 0.3418 0.3448 0.3478 0.3512 0.3546
3045.000000 0.3580 0.3614 0.3649 0.3684 0.3718
3040.000000 0.3755 0.3790 0.3825 0.3859 0.3894
3035.000000 0.3929 0.3964 0.4052 0.4140 0.4184
3030.000000 0.4229 0.4272 0.4316 0.4348 0.4381
3025.000000 0.4410 0.4440 0.4454 0.4469 0.4480
3020.000000 0.4491 0.4501 0.4512 0.4512 0.4514
3015.000000 0.4515 0.4516 0.4517 0.4519 0.4520
3010.000000 0.4521 0.4521 0.4521 0.4520 0.4519
3005.000000 0.4519 0.4519 0.4518 0.4518 0.4514
3000.000000 0.4510 0.4506 0.4502 0.4494 0.4486
2995.000000 0.4476 0.4467 0.4457 0.4447 0.4427
2990.000000 0.4408 0.4385 0.4362 0.4340 0.4317
2985.000000 0.4293 0.4270 0.4246 0.4222 0.4197
2980.000000 0.4172 0.4127 0.4082 0.4024 0.3964
2975.000000 0.3647 0.3329 0.3357 0.3384 0.3442
2970.000000 0.3500 0.3557 0.3614 0.3605 0.3596
2965.000000 0.3568 0.3542 0.3509 0.3479 0.3423
2960.000000 0.3368 0.3252 0.3137 0.3022 0.2907
2955.000000 0.2791 0.2676 0.2560 0.2445 0.2330
2950.000000 0.2215 0.2192 0.2207 0.2169 0.2169
2945.000000 0.2264 0.2360 0.2461 0.2563 0.2664
2940.000000 0.2765 0.2855 0.2946 0.2965 0.2984
2935.000000 0.2994 0.3005 0.3024 0.3043 0.3193
2930.000000 0.3344 0.3403 0.3462 0.3468 0.3473
2925.000000 0.3477 0.3480 0.3482 0.3486 0.3486
2920.000000 0.3486 0.3484 0.3482 0.3446 0.3409
2915.000000 0.3298 0.3187 0.3075 0.2964 0.2939
2910.000000 0.2915 0.2914 0.2914 0.3000 0.3083
2905.000000 0.3172 0.3260 0.3314 0.3368 0.3375
2900.000000 0.3382 0.3384 0.3389 0.3393 0.3397
2895.000000 0.3405 0.3414 0.3425 0.3436 0.3464
2890.000000 0.3494 0.3530 0.3566 0.3603 0.3640
2885.000000 0.3660 0.3724 0.3691 0.3699 0.3697
2880.000000 0.3695 0.3660 0.3628 0.3542 0.3456
2875.000000 0.3380 0.3304 0.3262 0.3223 0.3200
2870.000000 0.3178 0.3169 0.3160 0.3159 0.3158
2865.000000 0.3157 0.3156 0.3154 0.3153 0.3150
2860.000000 0.3148 0.3145 0.3143 0.3138 0.3134
2855.000000 0.3118 0.3103 0.3058 0.3013 0.2963
2850.000000 0.2913 0.2870 0.2827 0.2807 0.2788
2845.000000 0.2771 0.2755 0.2742 0.2729 0.2726
2840.000000 0.2723 0.2720 0.2718 0.2716 0.2715
2835.000000 0.2713 0.2711 0.2709 0.2708 0.2706
2830.000000 0.2704 0.2702 0.2701 0.2699 0.2697
2825.000000 0.2695 0.2695 0.2695 0.2698 0.2701
2820.000000 0.2705 0.2713 0.2722 0.2732 0.2742
2815.000000 0.2752 0.2762 0.2778 0.2794 0.2810
2810.000000 0.2826 0.2841 0.2857 0.2872 0.2888
2805.000000 0.2903 0.2918 0.2933 0.2949 0.2965
2800.000000 0.2982 0.2999 0.3017 0.3037 0.3058
2795.000000 0.3085 0.3115 0.3143 0.3172 0.3199
2790.000000 0.3227 0.3254 0.3280 0.3314 0.3347
2785.000000 0.3366 0.3387 0.3396 0.3406 0.3408
2780.000000 0.3410 0.3409 0.3409 0.3408 0.3408
2775.000000 0.3408 0.3408 0.3409 0.3412 0.3416
2770.000000 0.3420 0.3427 0.3434 0.3442 0.3450
2765.000000 0.3462 0.3474 0.3488 0.3503 0.3516
2760.000000 0.3530 0.3543 0.3555 0.3562 0.3572
2755.000000 0.3580 0.3589 0.3596 0.3603 0.3604
2750.000000 0.3605 0.3605 0.3604 0.3603 0.3600
2745.000000 0.3550 0.3499 0.3428 0.3357 0.3286
2740.000000 0.3216 0.3203 0.3191 0.3192 0.3194
2735.000000 0.3197 0.3200 0.3220 0.3239 0.3278
2730.000000 0.3318 0.3359 0.3403 0.3474 0.3546
2725.000000 0.3606 0.3666 0.3728 0.3789 0.3850
2720.000000 0.3910 0.3971 0.4032 0.4093 0.4154
2715.000000 0.4214 0.4275 0.4336 0.4397 0.4418
2710.000000 0.4440 0.4442 0.4445 0.4421 0.4398
2705.000000 0.4357 0.4317 0.4277 0.4237 0.4197
2700.000000 0.4157 0.4116 0.4076 0.4036 0.3996
2695.000000 0.3955 0.3914 0.3898 0.3862 0.3882
2690.000000 0.3884 0.3894 0.3904 0.3916 0.3930
2685.000000 0.3950 0.3971 0.3991 0.4010 0.4050
2680.000000 0.4091 0.4134 0.4178 0.4223 0.4268
2675.000000 0.4312 0.4359 0.4402 0.4445 0.4487
2670.000000 0.4529 0.4562 0.4598 0.4627 0.4656
2665.000000 0.4685 0.4714 0.4742 0.4771 0.4800
2660.000000 0.4830 0.4859 0.4888 0.4915 0.4943
2655.000000 0.4968 0.4993 0.5018 0.5043 0.5073
2650.000000 0.5103 0.5138 0.5174 0.5187 0.5201
2645.000000 0.5210 0.5222 0.5231 0.5241 0.5249
2640.000000 0.5257 0.5262 0.5267 0.5268 0.5268
2635.000000 0.5268 0.5265 0.5245 0.5225 0.5190
2630.000000 0.5156 0.5154 0.5153 0.5158 0.5164
2625.000000 0.5180 0.5196 0.5221 0.5247 0.5279
2620.000000 0.5312 0.5344 0.5376 0.5410 0.5446
2615.000000 0.5483 0.5520 0.5544 0.5569 0.5591
2610.000000 0.5612 0.5634 0.5655 0.5668 0.5697
2605.000000 0.5696 0.5695 0.5698 0.5701 0.5704
2600.000000 0.5708 0.5700 0.5693 0.5666 0.5639
2595.000000 0.5596 0.5554 0.5449 0.5345 0.5328
2590.000000 0.5312 0.5304 0.5275 0.5295 0.5294
2585.000000 0.5299 0.5304 0.5310 0.5316 0.5326
2580.000000 0.5336 0.5370 0.5404 0.5434 0.5464
2575.000000 0.5492 0.5521 0.5555 0.5590 0.5632
2570.000000 0.5674 0.5727 0.5781 0.5830 0.5880
2565.000000 0.5884 0.5889 0.5896 0.5903 0.5912
2560.000000 0.5924 0.5942 0.5960 0.5982 0.6003
2555.000000 0.6036 0.6069 0.6096 0.6124 0.6145
2550.000000 0.6167 0.6179 0.6192 0.6201 0.6258
2545.000000 0.6215 0.6220 0.6218 0.6216 0.6182
2540.000000 0.6149 0.6107 0.6065 0.6017 0.5969
2535.000000 0.5919 0.5870 0.5817 0.5764 0.5722
2530.000000 0.5680 0.5641 0.5602 0.5555 0.5508
2525.000000 0.5469 0.5431 0.5419 0.5408 0.5406
2520.000000 0.5405 0.5403 0.5403 0.5403 0.5404
2515.000000 0.5406 0.5409 0.5438 0.5468 0.5540
2510.000000 0.5612 0.5670 0.5728 0.5757 0.5786
2505.000000 0.5822 0.5859 0.5915 0.5972 0.6030
2500.000000 0.6089 0.6147 0.6205 0.6262 0.6321
2495.000000 0.6366 0.6411 0.6435 0.6458 0.6476
2490.000000 0.6496 0.6510 0.6524 0.6533 0.6543
2485.000000 0.6549 0.6555 0.6561 0.6568 0.6571
2480.000000 0.6575 0.6578 0.6581 0.6582 0.6584
2475.000000 0.6578 0.6575 0.6550 0.6525 0.6490
2470.000000 0.6456 0.6382 0.6309 0.6256 0.6204
2465.000000 0.6177 0.6150 0.6141 0.6133 0.6127
2460.000000 0.6127 0.6126 0.6130 0.6144 0.6159
2455.000000 0.6209 0.6259 0.6337 0.6415 0.6468
2450.000000 0.6524 0.6575 0.6626 0.6662 0.6700
2445.000000 0.6728 0.6758 0.6775 0.6795 0.6810
2440.000000 0.6825 0.6839 0.6853 0.6867 0.6882
2435.000000 0.6889 0.6896 0.6898 0.6900 0.6901
2430.000000 0.6901 0.6901 0.6901 0.6900 0.6898
2425.000000 0.6895 0.6892 0.6888 0.6885 0.6882
2420.000000 0.6878 0.6875 0.6875 0.6876 0.6880
2415.000000 0.6885 0.6890 0.6895 0.6901 0.6907
2410.000000 0.6914 0.6921 0.6921 0.6921 0.6915
2405.000000 0.6892 0.6868 0.6844 0.6818 0.6795
2400.000000 0.6771 0.6769 0.6768 0.6765 0.6765
2395.000000 0.6762 0.6761 0.6784 0.6806 0.6834
2390.000000 0.6861 0.6890 0.6918 0.6946 0.6974
2385.000000 0.7005 0.7036 0.7071 0.7106 0.7140
2380.000000 0.7175 0.7194 0.7214 0.7228 0.7245
2375.000000 0.7261 0.7276 0.7295 0.7312 0.7312
2370.000000 0.7314 0.7314 0.7315 0.7315 0.7315
2365.000000 0.7315 0.7315 0.7315 0.7317 0.7317
2360.000000 0.7318 0.7318 0.7318 0.7318 0.7318
2355.000000 0.7318 0.7319 0.7319 0.7319 0.7319
2350.000000 0.7321 0.7321 0.7321 0.7321 0.7321
2345.000000 0.7321 0.7319 0.7317 0.7315 0.7312
2340.000000 0.7311 0.7308 0.7307 0.7305 0.7304
2335.000000 0.7301 0.7301 0.7299 0.7297 0.7295
2330.000000 0.7294 0.7292 0.7291 0.7289 0.7288
2325.000000 0.7288 0.7288 0.7288 0.7289 0.7289
2320.000000 0.7290 0.7290 0.7290 0.7290 0.7291
2315.000000 0.7291 0.7292 0.7292 0.7293 0.7293
2310.000000 0.7293 0.7296 0.7299 0.7304 0.7310
2305.000000 0.7315 0.7321 0.7325 0.7332 0.7337
2300.000000 0.7343 0.7348 0.7354 0.7358 0.7365
2295.000000 0.7369 0.7375 0.7381 0.7387 0.7392
2290.000000 0.7398 0.7404 0.7410 0.7415 0.7422
2285.000000 0.7428 0.7435 0.7441 0.7448 0.7454
2280.000000 0.7460 0.7465 0.7472 0.7478 0.7485
2275.000000 0.7491 0.7497 0.7503 0.7510 0.7515
2270.000000 0.7521 0.7528 0.7535 0.7541 0.7547
2265.000000 0.7553 0.7560 0.7565 0.7572 0.7580
2260.000000 0.7587 0.7593 0.7600 0.7607 0.7614
2255.000000 0.7621 0.7628 0.7634 0.7641 0.7648
2250.000000 0.7655 0.7661 0.7668 0.7675 0.7682
2245.000000 0.7688 0.7695 0.7699 0.7704 0.7708
2240.000000 0.7714 0.7718 0.7722 0.7715 0.7708
2235.000000 0.7700 0.7693 0.7687 0.7682 0.7678
2230.000000 0.7674 0.7671 0.7669 0.7668 0.7668
2225.000000 0.7672 0.7678 0.7689 0.7700 0.7711
2220.000000 0.7721 0.7731 0.7741 0.7748 0.7756
2215.000000 0.7760 0.7765 0.7769 0.7775 0.7778
2210.000000 0.7784 0.7788 0.7793 0.7798 0.7803
2205.000000 0.7807 0.7811 0.7815 0.7821 0.7825
2200.000000 0.7830 0.7835 0.7840 0.7844 0.7849
2195.000000 0.7853 0.7857 0.7860 0.7864 0.7867
2190.000000 0.7869 0.7872 0.7876 0.7880 0.7883
2185.000000 0.7886 0.7889 0.7892 0.7896 0.7899
2180.000000 0.7901 0.7905 0.7908 0.7911 0.7915
2175.000000 0.7918 0.7921 0.7925 0.7928 0.7931
2170.000000 0.7935 0.7938 0.7942 0.7945 0.7949
2165.000000 0.7951 0.7956 0.7960 0.7964 0.7968
2160.000000 0.7971 0.7975 0.7978 0.7983 0.7987
2155.000000 0.7990 0.7994 0.7998 0.8001 0.8006
2150.000000 0.8010 0.8012 0.8017 0.8021 0.8025
2145.000000 0.8028 0.8032 0.8036 0.8040 0.8044
2140.000000 0.8048 0.8051 0.8054 0.8056 0.8058
2135.000000 0.8061 0.8065 0.8068 0.8071 0.8074
2130.000000 0.8076 0.8080 0.8083 0.8086 0.8089
2125.000000 0.8092 0.8095 0.8098 0.8101 0.8104
2120.000000 0.8107 0.8110 0.8112 0.8115 0.8118
2115.000000 0.8121 0.8124 0.8125 0.8128 0.8128
2110.000000 0.8131 0.8133 0.8135 0.8136 0.8138
2105.000000 0.8139 0.8141 0.8143 0.8145 0.8146
2100.000000 0.8148 0.8148 0.8149 0.8149 0.8150
2095.000000 0.8150 0.8150 0.8150 0.8151 0.8151
2090.000000 0.8151 0.8151 0.8151 0.8150 0.8150
2085.000000 0.8149 0.8148 0.8147 0.8147 0.8146
2080.000000 0.8145 0.8144 0.8144 0.8142 0.8140
2075.000000 0.8138 0.8137 0.8135 0.8134 0.8132
2070.000000 0.8131 0.8128 0.8128 0.8126 0.8125
2065.000000 0.8125 0.8124 0.8122 0.8121 0.8121
2060.000000 0.8119 0.8125 0.8131 0.8138 0.8145
2055.000000 0.8151 0.8158 0.8168 0.8178 0.8190
2050.000000 0.8202 0.8214 0.8225 0.8235 0.8245
2045.000000 0.8250 0.8255 0.8259 0.8264 0.8268
2040.000000 0.8274 0.8278 0.8284 0.8289 0.8294
2035.000000 0.8297 0.8301 0.8304 0.8308 0.8310
2030.000000 0.8313 0.8314 0.8315 0.8316 0.8318
2025.000000 0.8318 0.8320 0.8321 0.8321 0.8321
2020.000000 0.8321 0.8321 0.8321 0.8321 0.8321
2015.000000 0.8321 0.8321 0.8321 0.8321 0.8320
2010.000000 0.8318 0.8317 0.8315 0.8313 0.8312
2005.000000 0.8310 0.8309 0.8307 0.8306 0.8300
2000.000000 0.8295 0.8295 0.8295 0.8296 0.8296
1995.000000 0.8300 0.8320 0.8339 0.8358 0.8378
1990.000000 0.8397 0.8406 0.8415 0.8421 0.8425
1985.000000 0.8428 0.8434 0.8438 0.8442 0.8446
1980.000000 0.8451 0.8455 0.8459 0.8464 0.8468
1975.000000 0.8473 0.8478 0.8482 0.8487 0.8492
1970.000000 0.8497 0.8501 0.8506 0.8506 0.8505
1965.000000 0.8502 0.8500 0.8498 0.8495 0.8493
1960.000000 0.8490 0.8488 0.8486 0.8484 0.8482
1955.000000 0.8480 0.8478 0.8475 0.8473 0.8471
1950.000000 0.8468 0.8467 0.8465 0.8464 0.8462
1945.000000 0.8460 0.8458 0.8456 0.8455 0.8454
1940.000000 0.8453 0.8452 0.8451 0.8450 0.8449
1935.000000 0.8448 0.8448 0.8448 0.8449 0.8449
1930.000000 0.8449 0.8450 0.8450 0.8453 0.8456
1925.000000 0.8460 0.8464 0.8467 0.8471 0.8474
1920.000000 0.8478 0.8481 0.8484 0.8487 0.8490
1915.000000 0.8493 0.8496 0.8500 0.8503 0.8504
1910.000000 0.8504 0.8503 0.8503 0.8503 0.8503
1905.000000 0.8503 0.8503 0.8502 0.8500 0.8497
1900.000000 0.8493 0.8490 0.8486 0.8483 0.8478
1895.000000 0.8475 0.8471 0.8468 0.8465 0.8462
1890.000000 0.8458 0.8458 0.8458 0.8460 0.8462
1885.000000 0.8464 0.8466 0.8468 0.8468 0.8471
1880.000000 0.8473 0.8475 0.8477 0.8478 0.8481
1875.000000 0.8483 0.8485 0.8487 0.8488 0.8490
1870.000000 0.8493 0.8497 0.8500 0.8503 0.8506
1865.000000 0.8509 0.8512 0.8515 0.8518 0.8521
1860.000000 0.8525 0.8528 0.8531 0.8534 0.8538
1855.000000 0.8541 0.8545 0.8548 0.8552 0.8555
1850.000000 0.8559 0.8562 0.8565 0.8568 0.8571
1845.000000 0.8575 0.8578 0.8580 0.8582 0.8584
1840.000000 0.8586 0.8586 0.8586 0.8586 0.8585
1835.000000 0.8585 0.8583 0.8581 0.8578 0.8577
1830.000000 0.8575 0.8573 0.8570 0.8568 0.8564
1825.000000 0.8560 0.8557 0.8553 0.8549 0.8546
1820.000000 0.8545 0.8543 0.8542 0.8541 0.8539
1815.000000 0.8538 0.8543 0.8551 0.8559 0.8567
1810.000000 0.8575 0.8583 0.8591 0.8599 0.8607
1805.000000 0.8615 0.8621 0.8625 0.8630 0.8634
1800.000000 0.8639 0.8643 0.8648 0.8652 0.8657
1795.000000 0.8661 0.8664 0.8668 0.8671 0.8674
1790.000000 0.8677 0.8681 0.8684 0.8687 0.8690
1785.000000 0.8693 0.8695 0.8697 0.8699 0.8700
1780.000000 0.8702 0.8704 0.8706 0.8706 0.8705
1775.000000 0.8703 0.8702 0.8701 0.8699 0.8698
1770.000000 0.8696 0.8695 0.8693 0.8692 0.8691
1765.000000 0.8690 0.8689 0.8687 0.8686 0.8683
1760.000000 0.8680 0.8675 0.8673 0.8668 0.8666
1755.000000 0.8662 0.8659 0.8659 0.8658 0.8658
1750.000000 0.8658 0.8658 0.8658 0.8658 0.8659
1745.000000 0.8660 0.8662 0.8663 0.8664 0.8666
1740.000000 0.8667 0.8668 0.8670 0.8670 0.8670
1735.000000 0.8668 0.8668 0.8668 0.8667 0.8657
1730.000000 0.8645 0.8625 0.8607 0.8589 0.8568
1725.000000 0.8549 0.8520 0.8533 0.8533 0.8533
1720.000000 0.8534 0.8542 0.8552 0.8562 0.8571
1715.000000 0.8582 0.8593 0.8604 0.8615 0.8625
1710.000000 0.8635 0.8640 0.8645 0.8649 0.8654
1705.000000 0.8659 0.8663 0.8664 0.8666 0.8667
1700.000000 0.8668 0.8670 0.8671 0.8671 0.8667
1695.000000 0.8664 0.8660 0.8657 0.8653 0.8650
1690.000000 0.8647 0.8643 0.8640 0.8636 0.8633
1685.000000 0.8630 0.8625 0.8623 0.8620 0.8617
1680.000000 0.8614 0.8611 0.8608 0.8604 0.8601
1675.000000 0.8598 0.8596 0.8593 0.8591 0.8588
1670.000000 0.8585 0.8583 0.8580 0.8578 0.8577
1665.000000 0.8575 0.8575 0.8574 0.8571 0.8571
1660.000000 0.8570 0.8568 0.8567 0.8565 0.8564
1655.000000 0.8562 0.8560 0.8559 0.8557 0.8556
1650.000000 0.8554 0.8553 0.8553 0.8552 0.8551
1645.000000 0.8551 0.8550 0.8549 0.8549 0.8548
1640.000000 0.8547 0.8547 0.8546 0.8545 0.8545
1635.000000 0.8545 0.8545 0.8546 0.8547 0.8548
1630.000000 0.8548 0.8549 0.8549 0.8549 0.8547
1625.000000 0.8545 0.8542 0.8540 0.8538 0.8534
1620.000000 0.8531 0.8527 0.8524 0.8520 0.8513
1615.000000 0.8503 0.8493 0.8483 0.8471 0.8457
1610.000000 0.8443 0.8428 0.8413 0.8399 0.8384
1605.000000 0.8368 0.8349 0.8325 0.8301 0.8239
1600.000000 0.8165 0.8008 0.7904 0.7546 0.7030
1595.000000 0.6515 0.5999 0.5483 0.4968 0.4452
1590.000000 0.3936 0.3420 0.2905 0.2646 0.2683
1585.000000 0.2854 0.3302 0.3749 0.4197 0.4645
1580.000000 0.5092 0.5540 0.5988 0.6436 0.6803
1575.000000 0.7008 0.7171 0.7340 0.7526 0.7630
1570.000000 0.7695 0.7760 0.7815 0.7851 0.7887
1565.000000 0.7921 0.7957 0.7993 0.8028 0.8053
1560.000000 0.8072 0.8094 0.8114 0.8134 0.8155
1555.000000 0.8175 0.8196 0.8211 0.8224 0.8236
1550.000000 0.8248 0.8260 0.8271 0.8285 0.8297
1545.000000 0.8304 0.8309 0.8313 0.8318 0.8323
1540.000000 0.8328 0.8333 0.8338 0.8343 0.8345
1535.000000 0.8347 0.8349 0.8351 0.8353 0.8355
1530.000000 0.8357 0.8359 0.8361 0.8362 0.8362
1525.000000 0.8363 0.8362 0.8361 0.8360 0.8359
1520.000000 0.8358 0.8357 0.8356 0.8355 0.8354
1515.000000 0.8353 0.8352 0.8350 0.8349 0.8347
1510.000000 0.8345 0.8343 0.8342 0.8340 0.8338
1505.000000 0.8336 0.8335 0.8332 0.8328 0.8325
1500.000000 0.8321 0.8318 0.8316 0.8311 0.8304
1495.000000 0.8297 0.8290 0.8283 0.8275 0.8268
1490.000000 0.8258 0.8246 0.8234 0.8221 0.8210
1485.000000 0.8193 0.8176 0.8160 0.8144 0.8126
1480.000000 0.8107 0.8086 0.8065 0.8032 0.7987
1475.000000 0.7943 0.7875 0.7744 0.7699 0.7687
1470.000000 0.7675 0.7642 0.7591 0.7541 0.7491
1465.000000 0.7421 0.7258 0.7040 0.6945 0.6675
1460.000000 0.6384 0.6097 0.5810 0.5537 0.5535
1455.000000 0.5532 0.5529 0.5526 0.5439 0.5175
1450.000000 0.4910 0.4647 0.4490 0.4490 0.4756
1445.000000 0.5053 0.5351 0.5648 0.5946 0.6243
1440.000000 0.6541 0.6560 0.6568 0.6506 0.6355
1435.000000 0.6204 0.6054 0.5903 0.5752 0.5602
1430.000000 0.5451 0.5300 0.5149 0.4999 0.4848
1425.000000 0.4697 0.4547 0.4455 0.4438 0.4458
1420.000000 0.4797 0.5136 0.5475 0.5812 0.6055
1415.000000 0.6210 0.6350 0.6425 0.6501 0.6578
1410.000000 0.6650 0.6721 0.6793 0.6860 0.6921
1405.000000 0.6981 0.7041 0.7086 0.7132 0.7169
1400.000000 0.7207 0.7234 0.7248 0.7268 0.7251
1395.000000 0.7241 0.7210 0.7180 0.7094 0.6985
1390.000000 0.6841 0.6474 0.6009 0.5642 0.5635
1385.000000 0.5756 0.5893 0.6030 0.6166 0.6281
1380.000000 0.6180 0.6001 0.5823 0.5654 0.5614
1375.000000 0.5729 0.5910 0.6093 0.6276 0.6458
1370.000000 0.6640 0.6822 0.6982 0.7015 0.7028
1365.000000 0.7026 0.7025 0.7011 0.6974 0.6908
1360.000000 0.6824 0.6547 0.6109 0.5397 0.4599
1355.000000 0.4608 0.4696 0.4962 0.5230 0.5496
1350.000000 0.5762 0.6030 0.6045 0.5920 0.5686
1345.000000 0.5451 0.5217 0.5000 0.4975 0.4950
1340.000000 0.4928 0.4900 0.4766 0.4565 0.4532
1335.000000 0.4521 0.4564 0.4631 0.4697 0.4764
1330.000000 0.4830 0.4893 0.4922 0.4918 0.4887
1325.000000 0.4775 0.4662 0.4551 0.4439 0.4207
1320.000000 0.3934 0.3664 0.3393 0.3376 0.3375
1315.000000 0.3456 0.3607 0.3768 0.3932 0.4102
1310.000000 0.4288 0.4664 0.4846 0.4925 0.4946
1305.000000 0.4967 0.4998 0.5036 0.5079 0.5153
1300.000000 0.5227 0.5456 0.5685 0.5914 0.6095
1295.000000 0.6162 0.6243 0.6305 0.6339 0.6375
1290.000000 0.6377 0.6378 0.6370 0.6375 0.6240
1285.000000 0.6166 0.6103 0.6040 0.5956 0.5873
1280.000000 0.5789 0.5706 0.5623 0.5539 0.5456
1275.000000 0.5372 0.5289 0.5205 0.5124 0.5050
1270.000000 0.5051 0.5045 0.5162 0.5390 0.5508
1265.000000 0.5625 0.5743 0.5860 0.5977 0.6095
1260.000000 0.6212 0.6330 0.6447 0.6564 0.6682
1255.000000 0.6787 0.6812 0.6839 0.6865 0.6892
1250.000000 0.6919 0.6943 0.6986 0.6964 0.6964
1245.000000 0.6965 0.6958 0.6951 0.6928 0.6906
1240.000000 0.6867 0.6825 0.6628 0.6308 0.5988
1235.000000 0.5762 0.5753 0.5751 0.5755 0.5880
1230.000000 0.6020 0.6160 0.6301 0.6442 0.6582
1225.000000 0.6695 0.6721 0.6728 0.6730 0.6725
1220.000000 0.6719 0.6692 0.6651 0.6594 0.6515
1215.000000 0.6474 0.6434 0.6403 0.6376 0.6339
1210.000000 0.6286 0.6240 0.6114 0.5988 0.5860
1205.000000 0.5730 0.5739 0.5752 0.5915 0.5991
1200.000000 0.6048 0.6106 0.6164 0.6221 0.6279
1195.000000 0.6337 0.6491 0.6451 0.6461 0.6421
1190.000000 0.6342 0.6178 0.5860 0.5509 0.5157
1185.000000 0.4806 0.4454 0.4103 0.3750 0.3400
1180.000000 0.3177 0.3218 0.3382 0.3548 0.3712
1175.000000 0.3879 0.4044 0.4209 0.4374 0.4539
1170.000000 0.4705 0.4870 0.5035 0.5200 0.5236
1165.000000 0.5240 0.5229 0.5209 0.5184 0.5060
1160.000000 0.4790 0.4519 0.4248 0.3977 0.3706
1155.000000 0.3690 0.3702 0.3958 0.4152 0.4249
1150.000000 0.4271 0.4305 0.4473 0.4954 0.5435
1145.000000 0.5916 0.5991 0.6015 0.6039 0.6062
1140.000000 0.6081 0.6094 0.6108 0.6117 0.6126
1135.000000 0.6130 0.6130 0.6130 0.6129 0.6126
1130.000000 0.6119 0.6105 0.6091 0.6077 0.6042
1125.000000 0.6006 0.5946 0.5867 0.5784 0.5620
1120.000000 0.5507 0.5426 0.5344 0.5264 0.5037
1115.000000 0.4766 0.4495 0.4224 0.3953 0.3682
1110.000000 0.3410 0.3140 0.2869 0.2839 0.2838
1105.000000 0.3039 0.3266 0.3494 0.3721 0.3948
1100.000000 0.4175 0.4402 0.4629 0.4856 0.5083
1095.000000 0.5310 0.5537 0.5583 0.5602 0.5601
1090.000000 0.5600 0.5588 0.5560 0.5529 0.5491
1085.000000 0.5429 0.5367 0.5283 0.5162 0.5012
1080.000000 0.4652 0.3329 0.3326 0.3403 0.3572
1075.000000 0.3741 0.3909 0.4099 0.4080 0.4050
1070.000000 0.3697 0.2984 0.2274 0.1562 0.0851
1065.000000 0.0595 0.0581 0.0591 0.0807 0.1096
1060.000000 0.1385 0.1674 0.1964 0.2253 0.2542
1055.000000 0.2831 0.3120 0.3409 0.3679 0.3684
1050.000000 0.3686 0.3377 0.2909 0.2441 0.1973
1045.000000 0.1505 0.1037 0.0570 0.0370 0.0365
1040.000000 0.0376 0.0664 0.0989 0.1313 0.1636
1035.000000 0.1962 0.2285 0.2611 0.2934 0.3259
1030.000000 0.3584 0.3908 0.4232 0.4557 0.4881
1025.000000 0.5205 0.5530 0.5828 0.5978 0.6101
1020.000000 0.6193 0.6238 0.6308 0.6269 0.6269
1015.000000 0.6230 0.6186 0.6143 0.6014 0.5702
1010.000000 0.5471 0.4924 0.3773 0.2622 0.1599
1005.000000 0.1613 0.1628 0.1649 0.1890 0.2280
1000.000000 0.2670 0.3060 0.3450 0.3840 0.4231
995.000000 0.4574 0.4796 0.5016 0.5251 0.5486
990.000000 0.5721 0.5956 0.6191 0.6425 0.6661
985.000000 0.6896 0.7037 0.7068 0.7086 0.7118
980.000000 0.7110 0.6925 0.6469 0.6014 0.5557
975.000000 0.5101 0.4645 0.4385 0.4407 0.4625
970.000000 0.4981 0.5337 0.5694 0.6050 0.6406
965.000000 0.6762 0.7118 0.7274 0.7381 0.7464
960.000000 0.7544 0.7596 0.7648 0.7699 0.7730
955.000000 0.7757 0.7755 0.7743 0.7724 0.7691
950.000000 0.7571 0.7415 0.7225 0.7065 0.6946
945.000000 0.6834 0.5712 0.4870 0.4027 0.4005
940.000000 0.4080 0.4146 0.3896 0.2104 0.2045
935.000000 0.2043 0.2013 0.2035 0.2054 0.2204
930.000000 0.2725 0.3247 0.3768 0.4289 0.4810
925.000000 0.5332 0.5853 0.6497 0.6755 0.6955
920.000000 0.7138 0.7308 0.7448 0.7576 0.7685
915.000000 0.7780 0.7848 0.7915 0.7984 0.8040
910.000000 0.8090 0.8141 0.8191 0.8234 0.8277
905.000000 0.8321 0.8367 0.8403 0.8433 0.8423
900.000000 0.8438 0.8428 0.8408 0.8387 0.8351
895.000000 0.8313 0.8268 0.8225 0.8187 0.8168
890.000000 0.8161 0.8200 0.8250 0.8277 0.8303
885.000000 0.8324 0.8324 0.8273 0.8190 0.8086
880.000000 0.7865 0.7362 0.6861 0.6360 0.6014
875.000000 0.6015 0.6138 0.6431 0.6724 0.7015
870.000000 0.7308 0.7601 0.7895 0.8188 0.8380
865.000000 0.8468 0.8534 0.8575 0.8617 0.8655
860.000000 0.8678 0.8701 0.8723 0.8735 0.8745
855.000000 0.8756 0.8766 0.8775 0.8780 0.8785
850.000000 0.8790 0.8795 0.8797 0.8799 0.8800
845.000000 0.8800 0.8801 0.8806 0.8808 0.8809
840.000000 0.8810 0.8811 0.8811 0.8809 0.8807
835.000000 0.8805 0.8803 0.8793 0.8784 0.8774
830.000000 0.8745 0.8586 0.8268 0.7950 0.7799
825.000000 0.7801 0.7932 0.8078 0.8225 0.8371
820.000000 0.8518 0.8646 0.8682 0.8705 0.8707
815.000000 0.8697 0.8673 0.8645 0.8568 0.8489
810.000000 0.8338 0.8026 0.7493 0.7497 0.7568
805.000000 0.7708 0.7848 0.7987 0.8126 0.8266
800.000000 0.8371 0.8439 0.8500 0.8555 0.8601
795.000000 0.8615 0.8630 0.8645 0.8646 0.8646
790.000000 0.8635 0.8618 0.8603 0.8588 0.8571
785.000000 0.8556 0.8540 0.8523 0.8506 0.8490
780.000000 0.8473 0.8456 0.8440 0.8423 0.8406
775.000000 0.8385 0.8363 0.8341 0.8318 0.8297
770.000000 0.8275 0.8248 0.8217 0.8186 0.8155
765.000000 0.8124 0.8093 0.8061 0.8018 0.7974
760.000000 0.7930 0.7887 0.7843 0.7799 0.7755
755.000000 0.7711 0.7668 0.7625 0.7582 0.7538
750.000000 0.7494 0.7446 0.7399 0.7351 0.7304
745.000000 0.7235 0.7140 0.7046 0.6926 0.6782
740.000000 0.6650 0.6521 0.6400 0.6289 0.6178
735.000000 0.6038 0.5855 0.5687 0.5424 0.5235
730.000000 0.5060 0.4884 0.4709 0.4533 0.4358
725.000000 0.4182 0.4007 0.3859 0.3864 0.3894
720.000000 0.4143 0.4391 0.4640 0.4772 0.4775
715.000000 0.4785 0.4778 0.4737 0.4693 0.4654
710.000000 0.4627 0.4615 0.4612 0.4606 0.4618
705.000000 0.4637 0.4656 0.4693 0.4730 0.4773
700.000000 0.4822 0.4872 0.4921 0.4991 0.5065
695.000000 0.5139 0.5224 0.5312 0.5400 0.5520
690.000000 0.5620 0.5731 0.5841 0.5952 0.6062
685.000000 0.6173 0.6284 0.6395 0.6506 0.6615
680.000000 0.6696 0.6743 0.6789 0.6835 0.6878
675.000000 0.6911 0.6946 0.6981 0.7015 0.7039
670.000000 0.7057 0.7075 0.7094 0.7111 0.7124
665.000000 0.7137 0.7149 0.7158 0.7168 0.7176
660.000000 0.7187 0.7196 0.7206 0.7210 0.7214
655.000000 0.7217 0.7217 0.7217 0.7211 0.7201
650.000000 0.7184 0.7164 0.7118 0.7074 0.7003
645.000000 0.6925 0.6847 0.6772 0.6700 0.6551
640.000000 0.6082 0.5569 0.5057 0.4231 0.4238
635.000000 0.4262 0.4596 0.4930 0.5262 0.5597
630.000000 0.5931 0.6264 0.6598 0.6932 0.7150
625.000000 0.7193 0.7219 0.7242 0.7244 0.7248
620.000000 0.7247 0.7246 0.7221 0.7171 0.7071
615.000000 0.6976 0.6889 0.6806 0.6721 0.6641
610.000000 0.6562 0.6485 0.6408 0.6203 0.5935
605.000000 0.5666 0.5458 0.5310 0.5208 0.5148
600.000000 0.5076 0.4744 0.4401 0.4057 0.3712
595.000000 0.3368 0.3038 0.2974 0.2946 0.2935
590.000000 0.2949 0.3032 0.3152 0.3258 0.3340
585.000000 0.3471 0.3642 0.3791 0.3939 0.4079
580.000000 0.4218 0.4353 0.4487 0.4620 0.4746
575.000000 0.4873 0.4996 0.5116 0.5235 0.5460
570.000000 0.5771 0.6226 0.6680 0.7084 0.7161
565.000000 0.7232 0.7269 0.7308 0.7346 0.7364
560.000000 0.7376 0.7381 0.7383 0.7386 0.7396
555.000000 0.7395 0.7394 0.7393 0.7393 0.7391
550.000000 0.7389 0.7387 0.7385 0.7378 0.7361
545.000000 0.7346 0.7330 0.7314 0.7295 0.7276
540.000000 0.7258 0.7239 0.7215 0.7191 0.7165
535.000000 0.7143 0.7128 0.7115 0.7104 0.7108
530.000000 0.7094 0.7094 0.7101 0.7107 0.7114
525.000000 0.7122 0.7141 0.7160 0.7178 0.7199
520.000000 0.7224 0.7240 0.7244 0.7248 0.7275
515.000000 0.7231 0.7221 0.7201 0.7158 0.7115
510.000000 0.7015 0.6871 0.6342 0.5782 0.5221
505.000000 0.5116 0.5096 0.5096 0.5116 0.5157
500.000000 0.5429 0.5753 0.6078 0.6403 0.6705
495.000000 0.6774 0.6843 0.6906 0.6968 0.7030
490.000000 0.7084 0.7137 0.7181 0.7222 0.7243
485.000000 0.7258 0.7258 0.7258 0.7255 0.7242
480.000000 0.7218 0.7143 0.7064 0.6974 0.6883
475.000000 0.6792 0.6701 0.6578 0.6396 0.6199
470.000000 0.5220 0.4014 0.4024 0.4155 0.4448
465.000000 0.4741 0.5033 0.5326 0.5619 0.5912
460.000000 0.6205 0.6497 0.6701 0.6788 0.6849
455.000000 0.6903 0.6941 0.6968 0.6983 0.6997
450.000000 0.7001 0.7018 0.7010 0.7001 0.6995
445.000000 0.6988 0.6972 0.6951 0.6930 0.6908
440.000000 0.6882 0.6845 0.6808 0.6771 0.6732
435.000000 0.6681 0.6630 0.6578 0.6528 0.6461
430.000000 0.6383 0.6305 0.6224 0.6137 0.6049
425.000000 0.5955 0.5720 0.5554 0.5262 0.4952
420.000000 0.4535 0.4062 0.3706 0.3703 0.3709
415.000000 0.3786 0.3920 0.4055 0.4189 0.4323
410.000000 0.4457 0.4592 0.4726 0.4794 0.4846
405.000000 0.4888 0.4929 0.4952 0.4973 0.4985
400.000000 0.4997
##END=
