##TITLE=4-CHLOROANILINOMETHANE SULFONIC ACID, SODIUM SALT
##JCAMP-DX=4.24
##DATA TYPE=INFRARED SPECTRUM
##CLASS=COBLENTZ
##ORIGIN=DOW CHEMICAL COMPANY
##OWNER=COBLENTZ SOCIETY
Collection (C) 2018 copyright by the U.S. Secretary of Commerce
on behalf of the United States of America. All rights reserved.
##DATE=Not specified, most likely prior to 1970
##MOLFORM=C7 H7 Cl N Na O3 S
##SOURCE REFERENCE=COBLENTZ NO. 4200
##$NIST ID=B6004200
##$NIST SOURCE=COBLENTZ
##$NIST IMAGE=cob4200
##SPECTROMETER/DATA SYSTEM=Not specified, most likely a prism, grating, or hybrid spectrometer.
##STATE=SOLID (MINERAL OIL MULL)
##PATH LENGTH=
$$SPECTRAL CONTAMINATION DUE TO OIL AROUND 292 CM^-^1
##SAMPLING PROCEDURE=TRANSMISSION
##RESOLUTION=4
##DATA PROCESSING=DIGITIZED BY NIST FROM HARD COPY
##XUNITS=MICROMETERS
##YUNITS=TRANSMITTANCE
##XFACTOR=1.000000
##YFACTOR=1
##DELTAX=000.006523
##FIRSTX=2.022
##LASTX=15.8826
##FIRSTY=0.491
##MAXX=15.8826
##MINX=2.022
##MAXY=0.931
##MINY=0.038
##NPOINTS=2126
##XYDATA=(X++(Y..Y))
2.022000 0.4910 0.4910 0.4910 0.4930 0.4930
2.054629 0.4950 0.4950 0.4960 0.4980 0.5000
2.087000 0.5010 0.5030 0.5040 0.5060 0.5060
2.119629 0.5080 0.5080 0.5090 0.5110 0.5120
2.152000 0.5140 0.5160 0.5170 0.5190 0.5190
2.184629 0.5190 0.5190 0.5210 0.5210 0.5210
2.217000 0.5210 0.5220 0.5220 0.5220 0.5220
2.249629 0.5220 0.5220 0.5220 0.5220 0.5220
2.282000 0.5220 0.5210 0.5210 0.5210 0.5210
2.314629 0.5210 0.5210 0.5220 0.5240 0.5250
2.348000 0.5270 0.5290 0.5300 0.5320 0.5340
2.380629 0.5350 0.5370 0.5380 0.5400 0.5420
2.413000 0.5430 0.5450 0.5470 0.5480 0.5480
2.445629 0.5500 0.5500 0.5510 0.5530 0.5530
2.478000 0.5550 0.5550 0.5560 0.5560 0.5580
2.510629 0.5600 0.5610 0.5610 0.5630 0.5640
2.543000 0.5680 0.5690 0.5690 0.5690 0.5710
2.575629 0.5710 0.5710 0.5730 0.5740 0.5760
2.609000 0.5790 0.5810 0.5820 0.5820 0.5860
2.641629 0.5870 0.5890 0.5890 0.5890 0.5890
2.674000 0.5890 0.5890 0.5890 0.5900 0.5920
2.706629 0.5990 0.6000 0.6000 0.6020 0.6030
2.739000 0.6050 0.6050 0.6030 0.6020 0.5950
2.771629 0.5870 0.5740 0.5600 0.5420 0.5110
2.804000 0.4950 0.4850 0.4750 0.4720 0.4750
2.836629 0.4910 0.5010 0.5110 0.5240 0.5300
2.870000 0.5320 0.5300 0.5170 0.5030 0.4780
2.902629 0.4510 0.4220 0.3960 0.3660 0.3450
2.935000 0.3400 0.3440 0.3710 0.4040 0.4360
2.967629 0.4620 0.4850 0.4930 0.5010 0.5060
3.000000 0.5140 0.5220 0.5270 0.5340 0.5380
3.032629 0.5400 0.5430 0.5450 0.5480 0.5480
3.065000 0.5500 0.5500 0.5500 0.5500 0.5500
3.097629 0.5510 0.5530 0.5580 0.5600 0.5610
3.130000 0.5630 0.5640 0.5660 0.5660 0.5660
3.162629 0.5680 0.5690 0.5710 0.5710 0.5730
3.196000 0.5740 0.5740 0.5740 0.5760 0.5760
3.228629 0.5760 0.5740 0.5740 0.5730 0.5710
3.261000 0.5690 0.5680 0.5630 0.5600 0.5580
3.293629 0.5510 0.5500 0.5420 0.5380 0.5270
3.326000 0.5160 0.5010 0.4830 0.4570 0.4250
3.358629 0.3890 0.2750 0.2400 0.1990 0.1600
3.391000 0.1200 0.0810 0.0400 0.0380 0.0380
3.423629 0.0380 0.0400 0.0450 0.0530 0.0640
3.457000 0.0730 0.0860 0.0950 0.1000 0.1020
3.489629 0.1050 0.1100 0.1210 0.1410 0.1730
3.522000 0.2200 0.2870 0.3650 0.4390 0.5060
3.554629 0.5600 0.5860 0.6030 0.6160 0.6280
3.587000 0.6360 0.6520 0.6620 0.6680 0.6720
3.619629 0.6750 0.6760 0.6780 0.6800 0.6800
3.652000 0.6780 0.6780 0.6760 0.6750 0.6750
3.684629 0.6750 0.6750 0.6750 0.6760 0.6810
3.718000 0.6850 0.6860 0.6880 0.6880 0.6880
3.750629 0.6880 0.6880 0.6890 0.6910 0.6930
3.783000 0.6940 0.6960 0.6980 0.6980 0.6990
3.815629 0.7010 0.7020 0.7020 0.7060 0.7070
3.848000 0.7070 0.7090 0.7090 0.7110 0.7140
3.880629 0.7170 0.7190 0.7200 0.7270 0.7280
3.913000 0.7300 0.7320 0.7330 0.7350 0.7370
3.945629 0.7380 0.7400 0.7460 0.7500 0.7530
3.978000 0.7560 0.7580 0.7580 0.7590 0.7590
4.010629 0.7590 0.7590 0.7590 0.7590 0.7590
4.044000 0.7610 0.7610 0.7610 0.7610 0.7610
4.076629 0.7610 0.7610 0.7610 0.7610 0.7610
4.109000 0.7610 0.7620 0.7620 0.7620 0.7620
4.141629 0.7620 0.7620 0.7640 0.7620 0.7620
4.174000 0.7610 0.7610 0.7610 0.7610 0.7590
4.206629 0.7590 0.7610 0.7610 0.7610 0.7620
4.239000 0.7620 0.7640 0.7640 0.7640 0.7660
4.271629 0.7670 0.7690 0.7690 0.7710 0.7710
4.305000 0.7720 0.7720 0.7740 0.7750 0.7770
4.337629 0.7770 0.7790 0.7790 0.7790 0.7800
4.370000 0.7820 0.7840 0.7850 0.7870 0.7880
4.402629 0.7900 0.7900 0.7900 0.7900 0.7900
4.435000 0.7900 0.7880 0.7880 0.7880 0.7880
4.467629 0.7880 0.7880 0.7880 0.7880 0.7900
4.500000 0.7900 0.7900 0.7920 0.7920 0.7920
4.532629 0.7920 0.7920 0.7930 0.7930 0.7930
4.565000 0.7970 0.7970 0.7970 0.7980 0.7980
4.597629 0.7980 0.8000 0.8000 0.8000 0.8010
4.631000 0.8010 0.8030 0.8030 0.8050 0.8050
4.663629 0.8060 0.8080 0.8080 0.8100 0.8100
4.696000 0.8110 0.8110 0.8110 0.8110 0.8110
4.728629 0.8110 0.8110 0.8130 0.8140 0.8160
4.761000 0.8160 0.8160 0.8180 0.8180 0.8180
4.793629 0.8190 0.8190 0.8190 0.8190 0.8190
4.826000 0.8190 0.8190 0.8190 0.8190 0.8210
4.858629 0.8210 0.8210 0.8210 0.8210 0.8230
4.892000 0.8230 0.8240 0.8260 0.8270 0.8270
4.924629 0.8270 0.8270 0.8290 0.8290 0.8290
4.957000 0.8310 0.8320 0.8320 0.8360 0.8370
4.989629 0.8390 0.8390 0.8390 0.8390 0.8390
5.022000 0.8390 0.8400 0.8400 0.8420 0.8420
5.054629 0.8420 0.8440 0.8440 0.8440 0.8440
5.087000 0.8440 0.8450 0.8470 0.8470 0.8470
5.119629 0.8490 0.8490 0.8490 0.8500 0.8500
5.153000 0.8520 0.8520 0.8530 0.8550 0.8570
5.185629 0.8570 0.8580 0.8580 0.8600 0.8600
5.218000 0.8600 0.8600 0.8600 0.8600 0.8600
5.250629 0.8600 0.8600 0.8600 0.8600 0.8600
5.283000 0.8600 0.8600 0.8600 0.8600 0.8600
5.315629 0.8600 0.8600 0.8600 0.8580 0.8570
5.348000 0.8570 0.8570 0.8550 0.8550 0.8550
5.380629 0.8570 0.8570 0.8620 0.8650 0.8660
5.413000 0.8660 0.8660 0.8660 0.8660 0.8660
5.445629 0.8680 0.8700 0.8700 0.8700 0.8700
5.479000 0.8710 0.8710 0.8710 0.8730 0.8730
5.511629 0.8730 0.8730 0.8730 0.8730 0.8730
5.544000 0.8710 0.8710 0.8710 0.8710 0.8710
5.576629 0.8710 0.8710 0.8730 0.8750 0.8750
5.609000 0.8760 0.8780 0.8780 0.8780 0.8780
5.641629 0.8780 0.8780 0.8780 0.8780 0.8760
5.674000 0.8760 0.8750 0.8730 0.8730 0.8710
5.706629 0.8700 0.8700 0.8700 0.8680 0.8680
5.740000 0.8680 0.8680 0.8680 0.8700 0.8710
5.772629 0.8730 0.8750 0.8760 0.8760 0.8780
5.805000 0.8780 0.8790 0.8790 0.8790 0.8790
5.837629 0.8790 0.8790 0.8790 0.8780 0.8780
5.870000 0.8760 0.8750 0.8750 0.8750 0.8750
5.902629 0.8750 0.8750 0.8730 0.8730 0.8710
5.935000 0.8700 0.8660 0.8650 0.8620 0.8600
5.967629 0.8570 0.8530 0.8490 0.8440 0.8360
6.001000 0.8240 0.8130 0.8000 0.7850 0.7740
6.033629 0.7620 0.7530 0.7410 0.7320 0.7170
6.066000 0.7010 0.6760 0.6570 0.6370 0.6260
6.098629 0.6160 0.6130 0.6130 0.6180 0.6330
6.131000 0.6490 0.6730 0.6910 0.7060 0.7200
6.163629 0.7320 0.7400 0.7500 0.7500 0.7510
6.196000 0.7410 0.7200 0.6880 0.6550 0.6250
6.228629 0.5900 0.5530 0.5220 0.4980 0.4900
6.261000 0.4900 0.5010 0.5600 0.6100 0.6520
6.293629 0.6880 0.7150 0.7380 0.7530 0.7690
6.327000 0.7820 0.7920 0.8010 0.8130 0.8230
6.359629 0.8310 0.8340 0.8370 0.8390 0.8400
6.392000 0.8420 0.8420 0.8440 0.8450 0.8500
6.424629 0.8520 0.8530 0.8550 0.8570 0.8570
6.457000 0.8570 0.8570 0.8530 0.8500 0.8490
6.489629 0.8400 0.8320 0.8240 0.8160 0.8050
6.522000 0.7970 0.7770 0.7620 0.7410 0.7240
6.554629 0.6960 0.6620 0.6250 0.5820 0.5380
6.588000 0.4910 0.4460 0.3990 0.3520 0.3210
6.620629 0.3110 0.3100 0.3110 0.3420 0.3790
6.653000 0.4220 0.4560 0.4870 0.5160 0.5380
6.685629 0.5560 0.5740 0.5790 0.5790 0.5730
6.718000 0.5660 0.5560 0.5470 0.5400 0.5370
6.750629 0.5340 0.5320 0.5220 0.5060 0.4870
6.783000 0.4570 0.4360 0.3920 0.3400 0.3160
6.815629 0.2970 0.2870 0.2820 0.2820 0.2880
6.848000 0.3050 0.3240 0.3490 0.3700 0.3960
6.880629 0.4130 0.4310 0.4480 0.4690 0.4870
6.914000 0.5010 0.5160 0.5300 0.5470 0.5600
6.946629 0.5760 0.5950 0.6080 0.6370 0.6720
6.979000 0.6960 0.7060 0.7220 0.7410 0.7610
7.011629 0.7790 0.7920 0.7950 0.7970 0.8010
7.044000 0.8030 0.8100 0.8130 0.8140 0.8160
7.076629 0.8140 0.8130 0.8110 0.8060 0.8010
7.109000 0.7980 0.7970 0.7950 0.7950 0.7970
7.141629 0.8000 0.8010 0.8030 0.8030 0.8010
7.175000 0.7970 0.7790 0.7610 0.7430 0.7170
7.207629 0.6800 0.6250 0.6100 0.5860 0.5630
7.240000 0.5470 0.5300 0.5270 0.5270 0.5370
7.272629 0.5580 0.5950 0.6160 0.6410 0.6620
7.305000 0.6750 0.6860 0.6980 0.7110 0.7220
7.337629 0.7400 0.7530 0.7710 0.7770 0.7790
7.370000 0.7790 0.7790 0.7790 0.7790 0.7750
7.402629 0.7720 0.7690 0.7670 0.7640 0.7610
7.436000 0.7610 0.7590 0.7590 0.7560 0.7540
7.468629 0.7510 0.7410 0.7300 0.7120 0.6960
7.501000 0.6730 0.6570 0.6470 0.6370 0.6330
7.533629 0.6330 0.6370 0.6420 0.6500 0.6590
7.566000 0.6620 0.6670 0.6700 0.6730 0.6800
7.598629 0.6890 0.7040 0.7200 0.7330 0.7460
7.631000 0.7620 0.7720 0.7750 0.7770 0.7750
7.663629 0.7710 0.7610 0.7510 0.7450 0.7430
7.696000 0.7410 0.7430 0.7530 0.7610 0.7710
7.728629 0.7770 0.7980 0.8010 0.8010 0.8030
7.762000 0.8030 0.8010 0.8000 0.7980 0.7920
7.794629 0.7840 0.7770 0.7640 0.7530 0.7460
7.827000 0.7380 0.7280 0.7140 0.6980 0.6750
7.859629 0.6490 0.6160 0.5870 0.5600 0.5300
7.892000 0.5160 0.5000 0.4930 0.4950 0.5080
7.924629 0.5300 0.5560 0.5870 0.6100 0.6280
7.957000 0.6470 0.6600 0.6630 0.6630 0.6620
7.989629 0.6420 0.6180 0.5970 0.5810 0.5630
8.023000 0.5610 0.5010 0.4720 0.4670 0.4670
8.055629 0.4740 0.4980 0.5220 0.5550 0.5820
8.088000 0.6030 0.6160 0.6280 0.6330 0.6360
8.120629 0.6410 0.6420 0.6490 0.6500 0.6540
8.153000 0.6590 0.6600 0.6620 0.6630 0.6630
8.185629 0.6600 0.6550 0.6460 0.6340 0.6180
8.218000 0.5990 0.5870 0.5690 0.5510 0.5340
8.250629 0.5210 0.5030 0.4900 0.4770 0.4620
8.283000 0.4480 0.4330 0.4150 0.3970 0.3730
8.315629 0.3440 0.3160 0.2950 0.2690 0.2670
8.349000 0.2170 0.2150 0.1730 0.1720 0.1490
8.381629 0.1470 0.1420 0.1360 0.1310 0.1290
8.414000 0.1260 0.1210 0.1200 0.1160 0.1160
8.446629 0.1150 0.1130 0.1120 0.1120 0.1120
8.479000 0.1120 0.1120 0.1100 0.1100 0.1100
8.511629 0.1100 0.1100 0.1120 0.1210 0.1290
8.544000 0.1410 0.1520 0.1650 0.1780 0.1940
8.576629 0.2090 0.2250 0.2430 0.2590 0.2740
8.610000 0.2930 0.3110 0.3270 0.3420 0.3570
8.642629 0.3710 0.3860 0.4000 0.4170 0.4310
8.675000 0.4440 0.4570 0.4720 0.4850 0.4980
8.707629 0.5090 0.5210 0.5300 0.5430 0.5500
8.740000 0.5580 0.5660 0.5740 0.5810 0.5840
8.772629 0.5860 0.5870 0.5870 0.5860 0.5820
8.805000 0.5640 0.5550 0.5450 0.5370 0.5290
8.837629 0.5210 0.5030 0.5010 0.5010 0.5030
8.871000 0.5210 0.5380 0.5560 0.5740 0.5900
8.903629 0.6050 0.6180 0.6280 0.6340 0.6410
8.936000 0.6470 0.6500 0.6540 0.6590 0.6620
8.968629 0.6680 0.6720 0.6760 0.6810 0.6860
9.001000 0.6910 0.6980 0.7010 0.7040 0.7040
9.033629 0.7090 0.7120 0.7170 0.7200 0.7240
9.066000 0.7300 0.7330 0.7380 0.7430 0.7480
9.098629 0.7510 0.7540 0.7540 0.7540 0.7510
9.131000 0.7450 0.7370 0.7240 0.7140 0.7010
9.163629 0.6890 0.6800 0.6730 0.6720 0.6700
9.197000 0.6720 0.6830 0.7070 0.7270 0.7370
9.229629 0.7510 0.7660 0.7740 0.7800 0.7840
9.262000 0.7870 0.7900 0.7920 0.7930 0.7970
9.294629 0.8000 0.8010 0.8010 0.8030 0.8050
9.327000 0.8050 0.8050 0.8050 0.8050 0.8050
9.359629 0.8030 0.8010 0.8000 0.8000 0.7980
9.392000 0.7970 0.7950 0.7930 0.7920 0.7900
9.424629 0.7870 0.7840 0.7800 0.7740 0.7670
9.458000 0.7560 0.7480 0.7370 0.7250 0.7070
9.490629 0.6830 0.6500 0.6160 0.5770 0.5340
9.523000 0.4880 0.4390 0.3960 0.3630 0.3240
9.555629 0.2950 0.2690 0.2480 0.2400 0.2330
9.588000 0.2320 0.2320 0.2370 0.2430 0.2480
9.620629 0.2510 0.2530 0.2590 0.2670 0.2790
9.653000 0.2970 0.3240 0.3530 0.3910 0.4200
9.685629 0.4560 0.4880 0.5160 0.5420 0.5660
9.719000 0.5870 0.6050 0.6210 0.6360 0.6490
9.751629 0.6620 0.6720 0.6810 0.6890 0.6980
9.784000 0.7040 0.7120 0.7190 0.7280 0.7400
9.816629 0.7430 0.7460 0.7500 0.7530 0.7590
9.849000 0.7610 0.7610 0.7610 0.7620 0.7640
9.881629 0.7640 0.7660 0.7690 0.7710 0.7740
9.914000 0.7770 0.7790 0.7800 0.7800 0.7800
9.946629 0.7790 0.7720 0.7670 0.7620 0.7610
9.979000 0.7590 0.7590 0.7640 0.7710 0.7790
10.011629 0.7840 0.7920 0.7980 0.8010 0.8030
10.045000 0.8100 0.8130 0.8160 0.8180 0.8190
10.077629 0.8210 0.8230 0.8240 0.8260 0.8270
10.110000 0.8290 0.8310 0.8310 0.8310 0.8320
10.142629 0.8320 0.8320 0.8320 0.8340 0.8340
10.175000 0.8340 0.8340 0.8340 0.8340 0.8340
10.207629 0.8360 0.8360 0.8360 0.8360 0.8360
10.240000 0.8360 0.8360 0.8360 0.8360 0.8360
10.272629 0.8370 0.8370 0.8370 0.8370 0.8370
10.306000 0.8390 0.8390 0.8400 0.8400 0.8420
10.338629 0.8440 0.8470 0.8490 0.8500 0.8500
10.371000 0.8520 0.8530 0.8570 0.8580 0.8620
10.403629 0.8630 0.8680 0.8700 0.8700 0.8710
10.436000 0.8710 0.8730 0.8750 0.8760 0.8780
10.468629 0.8780 0.8790 0.8790 0.8790 0.8810
10.501000 0.8830 0.8840 0.8870 0.8890 0.8890
10.533629 0.8910 0.8920 0.8920 0.8920 0.8920
10.566000 0.8920 0.8920 0.8920 0.8920 0.8920
10.598629 0.8920 0.8940 0.8970 0.8990 0.8990
10.632000 0.9000 0.9000 0.9000 0.9000 0.9000
10.664629 0.9000 0.9000 0.9000 0.9000 0.9000
10.697000 0.9000 0.9000 0.9000 0.9000 0.9000
10.729629 0.9000 0.8990 0.8970 0.8920 0.8910
10.762000 0.8890 0.8890 0.8870 0.8860 0.8860
10.794629 0.8860 0.8870 0.8890 0.8920 0.8940
10.827000 0.8970 0.9000 0.9000 0.9020 0.9020
10.859629 0.9020 0.9020 0.9020 0.9020 0.9020
10.893000 0.9020 0.9040 0.9040 0.9050 0.9050
10.925629 0.9070 0.9070 0.9090 0.9090 0.9090
10.958000 0.9090 0.9100 0.9100 0.9100 0.9100
10.990629 0.9100 0.9100 0.9100 0.9120 0.9120
11.023000 0.9120 0.9120 0.9120 0.9120 0.9120
11.055629 0.9120 0.9100 0.9100 0.9100 0.9100
11.088000 0.9100 0.9100 0.9100 0.9100 0.9100
11.120629 0.9100 0.9100 0.9090 0.9070 0.9070
11.154000 0.9050 0.9050 0.9050 0.9050 0.9050
11.186629 0.9040 0.9020 0.9020 0.9040 0.9040
11.219000 0.9050 0.9050 0.9070 0.9070 0.9070
11.251629 0.9070 0.9070 0.9070 0.9070 0.9070
11.284000 0.9020 0.9020 0.9020 0.9020 0.9020
11.316629 0.9020 0.9020 0.9020 0.9020 0.9020
11.349000 0.9020 0.9020 0.9020 0.9020 0.9020
11.381629 0.9040 0.9050 0.9050 0.9070 0.9070
11.414000 0.9070 0.9050 0.9040 0.9020 0.9020
11.446629 0.9020 0.9020 0.9020 0.9020 0.9020
11.480000 0.9020 0.9020 0.9020 0.9020 0.9040
11.512629 0.9020 0.9020 0.9020 0.9020 0.9020
11.545000 0.9020 0.9020 0.9020 0.9020 0.9020
11.577629 0.9020 0.9000 0.9000 0.9000 0.9000
11.610000 0.9000 0.9000 0.9000 0.9000 0.9000
11.642629 0.9000 0.8990 0.8990 0.8970 0.8960
11.675000 0.8960 0.8940 0.8920 0.8920 0.8920
11.707629 0.8920 0.8920 0.8910 0.8910 0.8910
11.741000 0.8890 0.8890 0.8870 0.8860 0.8840
11.773629 0.8830 0.8810 0.8790 0.8790 0.8760
11.806000 0.8750 0.8750 0.8750 0.8730 0.8730
11.838629 0.8730 0.8710 0.8710 0.8700 0.8700
11.871000 0.8680 0.8660 0.8660 0.8660 0.8660
11.903629 0.8660 0.8660 0.8660 0.8680 0.8680
11.936000 0.8700 0.8700 0.8700 0.8700 0.8700
11.968629 0.8700 0.8680 0.8660 0.8650 0.8630
12.002000 0.8600 0.8580 0.8550 0.8500 0.8470
12.034629 0.8400 0.8340 0.8270 0.8180 0.8060
12.067000 0.8010 0.7970 0.7800 0.7710 0.7640
12.099629 0.7510 0.7450 0.7320 0.7200 0.7060
12.132000 0.6880 0.6680 0.6470 0.6250 0.6000
12.164629 0.5770 0.5510 0.5270 0.5010 0.4720
12.197000 0.4590 0.4220 0.3760 0.3570 0.3400
12.229629 0.3270 0.3160 0.3140 0.3160 0.3270
12.262000 0.3470 0.3710 0.4020 0.4360 0.4720
12.294629 0.5080 0.5430 0.5740 0.6020 0.6210
12.328000 0.6370 0.6550 0.6670 0.6760 0.6830
12.360629 0.6910 0.6980 0.7010 0.7020 0.7090
12.393000 0.7120 0.7150 0.7200 0.7250 0.7300
12.425629 0.7350 0.7400 0.7450 0.7500 0.7500
12.458000 0.7510 0.7530 0.7540 0.7580 0.7590
12.490629 0.7620 0.7660 0.7710 0.7740 0.7820
12.523000 0.7880 0.7930 0.8000 0.8050 0.8130
12.555629 0.8210 0.8240 0.8310 0.8340 0.8400
12.589000 0.8420 0.8440 0.8450 0.8470 0.8490
12.621629 0.8500 0.8500 0.8520 0.8520 0.8530
12.654000 0.8530 0.8550 0.8570 0.8570 0.8570
12.686629 0.8570 0.8570 0.8570 0.8570 0.8570
12.719000 0.8570 0.8570 0.8570 0.8570 0.8570
12.751629 0.8570 0.8580 0.8580 0.8580 0.8580
12.784000 0.8580 0.8580 0.8580 0.8580 0.8600
12.816629 0.8600 0.8620 0.8620 0.8620 0.8620
12.849000 0.8620 0.8620 0.8630 0.8630 0.8630
12.881629 0.8630 0.8630 0.8630 0.8630 0.8630
12.915000 0.8630 0.8630 0.8630 0.8630 0.8620
12.947629 0.8620 0.8620 0.8620 0.8620 0.8620
12.980000 0.8620 0.8620 0.8600 0.8600 0.8600
13.012629 0.8580 0.8570 0.8550 0.8530 0.8520
13.045000 0.8500 0.8450 0.8420 0.8400 0.8390
13.077629 0.8360 0.8340 0.8320 0.8290 0.8240
13.110000 0.8230 0.8210 0.8190 0.8160 0.8130
13.142629 0.8100 0.8060 0.8060 0.8030 0.7980
13.176000 0.7970 0.7930 0.7920 0.7880 0.7880
13.208629 0.7870 0.7870 0.7870 0.7880 0.7880
13.241000 0.7920 0.7930 0.7950 0.7970 0.8000
13.273629 0.8030 0.8060 0.8080 0.8110 0.8130
13.306000 0.8160 0.8190 0.8210 0.8240 0.8260
13.338629 0.8290 0.8310 0.8310 0.8320 0.8320
13.371000 0.8340 0.8340 0.8340 0.8360 0.8370
13.403629 0.8390 0.8390 0.8400 0.8420 0.8420
13.437000 0.8420 0.8420 0.8440 0.8440 0.8440
13.469629 0.8440 0.8440 0.8440 0.8440 0.8440
13.502000 0.8440 0.8440 0.8440 0.8440 0.8440
13.534629 0.8440 0.8440 0.8440 0.8440 0.8440
13.567000 0.8440 0.8440 0.8440 0.8440 0.8440
13.599629 0.8440 0.8440 0.8440 0.8440 0.8440
13.632000 0.8440 0.8450 0.8450 0.8450 0.8450
13.664629 0.8450 0.8450 0.8450 0.8450 0.8450
13.697000 0.8450 0.8440 0.8440 0.8420 0.8420
13.729629 0.8420 0.8400 0.8390 0.8390 0.8370
13.763000 0.8370 0.8370 0.8360 0.8360 0.8360
13.795629 0.8360 0.8340 0.8340 0.8320 0.8320
13.828000 0.8310 0.8310 0.8310 0.8320 0.8320
13.860629 0.8340 0.8370 0.8400 0.8420 0.8440
13.893000 0.8470 0.8520 0.8530 0.8600 0.8620
13.925629 0.8630 0.8650 0.8680 0.8710 0.8730
13.958000 0.8750 0.8780 0.8810 0.8830 0.8830
13.990629 0.8840 0.8860 0.8890 0.8890 0.8910
14.024000 0.8910 0.8910 0.8920 0.8920 0.8960
14.056629 0.8970 0.8970 0.8990 0.9000 0.9000
14.089000 0.9000 0.9020 0.9020 0.9020 0.9040
14.121629 0.9040 0.9040 0.9040 0.9040 0.9040
14.154000 0.9040 0.9040 0.9040 0.9020 0.9020
14.186629 0.9020 0.9000 0.9000 0.8990 0.8990
14.219000 0.8970 0.8970 0.8970 0.8970 0.8970
14.251629 0.8970 0.8970 0.8970 0.8990 0.8990
14.284000 0.9000 0.9000 0.9020 0.9040 0.9040
14.316629 0.9050 0.9070 0.9090 0.9100 0.9120
14.350000 0.9120 0.9130 0.9150 0.9170 0.9170
14.382629 0.9180 0.9180 0.9200 0.9200 0.9220
14.415000 0.9230 0.9230 0.9230 0.9230 0.9230
14.447629 0.9230 0.9230 0.9230 0.9230 0.9230
14.480000 0.9230 0.9230 0.9230 0.9230 0.9230
14.512629 0.9230 0.9230 0.9230 0.9250 0.9260
14.545000 0.9260 0.9260 0.9280 0.9280 0.9300
14.577629 0.9300 0.9300 0.9300 0.9300 0.9310
14.611000 0.9310 0.9310 0.9310 0.9310 0.9310
14.643629 0.9310 0.9310 0.9310 0.9310 0.9310
14.676000 0.9300 0.9300 0.9300 0.9300 0.9300
14.708629 0.9280 0.9260 0.9250 0.9230 0.9220
14.741000 0.9220 0.9220 0.9220 0.9220 0.9200
14.773629 0.9200 0.9200 0.9200 0.9200 0.9180
14.806000 0.9180 0.9170 0.9170 0.9150 0.9130
14.838629 0.9120 0.9100 0.9090 0.9090 0.9070
14.872000 0.9040 0.9040 0.9020 0.9020 0.9000
14.904629 0.8970 0.8960 0.8940 0.8920 0.8910
14.937000 0.8910 0.8890 0.8870 0.8860 0.8840
14.969629 0.8830 0.8830 0.8830 0.8830 0.8830
15.002000 0.8810 0.8810 0.8790 0.8760 0.8750
15.034629 0.8750 0.8730 0.8710 0.8700 0.8660
15.067000 0.8650 0.8620 0.8600 0.8580 0.8550
15.099629 0.8530 0.8500 0.8500 0.8490 0.8470
15.132000 0.8450 0.8450 0.8440 0.8420 0.8400
15.164629 0.8390 0.8370 0.8360 0.8340 0.8340
15.198000 0.8340 0.8320 0.8310 0.8290 0.8270
15.230629 0.8260 0.8260 0.8240 0.8230 0.8210
15.263000 0.8210 0.8180 0.8140 0.8110 0.8110
15.295629 0.8060 0.8050 0.8030 0.8010 0.8000
15.328000 0.7980 0.7920 0.7900 0.7850 0.7820
15.360629 0.7790 0.7740 0.7710 0.7640 0.7620
15.393000 0.7610 0.7540 0.7480 0.7400 0.7330
15.425629 0.7280 0.7220 0.7140 0.7060 0.7010
15.459000 0.6930 0.6830 0.6750 0.6670 0.6570
15.491629 0.6500 0.6420 0.6340 0.6280 0.6210
15.524000 0.6150 0.6070 0.6020 0.5970 0.5900
15.556629 0.5860 0.5810 0.5790 0.5740 0.5710
15.589000 0.5710 0.5690 0.5690 0.5690 0.5680
15.621629 0.5680 0.5680 0.5680 0.5680 0.5690
15.654000 0.5690 0.5710 0.5730 0.5740 0.5740
15.686629 0.5760 0.5770 0.5810 0.5820 0.5840
15.720000 0.5890 0.5900 0.5920 0.5950 0.5970
15.752629 0.5990 0.6020 0.6030 0.6080 0.6130
15.785000 0.6150 0.6210 0.6230 0.6260 0.6290
15.817629 0.6330 0.6370 0.6370 0.6420 0.6440
15.850000 0.6440 0.6460 0.6460 0.6460 0.6440
15.882629 0.6440
##END=
