##TITLE=BENZENESULFONIC ACID, p-CHLORO-,SODIUM SALT
##JCAMP-DX=4.24
$$ By DXEDIT 1.05 (RS McDonald)
##DATA TYPE=INFRARED SPECTRUM
##CLASS=COBLENTZ III
##ORIGIN=DOW CHEMICAL COMPANY
##OWNER=COBLENTZ SOC.
Collection (C) 2018 copyright by the U.S. Secretary of Commerce
on behalf of the United States of America. All rights reserved.
##DATE=1963/12/02
##MOLFORM=C6 H4 Cl Na O3 S
##SOURCE REFERENCE=COBLENTZ NO. 05725
##$NIST ID=B6005725
##$NIST SOURCE=COBLENTZ
##$NIST IMAGE=cob5725
##SPECTROMETER/DATA SYSTEM=DOW KBr FOREPRISM-GRATING
##INSTRUMENT PARAMETERS=BLAZED AT 3.5, 12.0, 20.0 MICRON AND CHANGED AT 5.0, 7.5, 14.9 MICRON
##STATE=SOLID (SPLIT MULL)
##SAMPLING PROCEDURE=TRANSMISSION
##RESOLUTION=2
##DATA PROCESSING=DIGITIZED BY COBLENTZ SOCIETY (BATCH I) FROM HARD COPY
##XUNITS=1/CM
##YUNITS=TRANSMITTANCE
##XLABEL=Wavenumbers (cm-1)
##YLABEL=% Transmission
##XFACTOR=1
##YFACTOR=1
##DELTAX=1
##FIRSTX=3800
##LASTX=451
##FIRSTY=0.7358
##MAXX=3800
##MINX=451
##MAXY=0.8936
##MINY=0.0052
##NPOINTS=3350
##XYDATA=(X++(Y..Y))
3800.000000 0.7358 0.7358 0.7358 0.7361 0.7362
3795.000000 0.7364 0.7365 0.7367 0.7368 0.7369
3790.000000 0.7371 0.7374 0.7375 0.7376 0.7378
3785.000000 0.7380 0.7382 0.7383 0.7385 0.7386
3780.000000 0.7388 0.7390 0.7392 0.7393 0.7395
3775.000000 0.7396 0.7398 0.7399 0.7401 0.7401
3770.000000 0.7404 0.7406 0.7408 0.7408 0.7411
3765.000000 0.7411 0.7414 0.7415 0.7417 0.7418
3760.000000 0.7419 0.7421 0.7422 0.7424 0.7425
3755.000000 0.7426 0.7428 0.7428 0.7431 0.7432
3750.000000 0.7434 0.7435 0.7436 0.7437 0.7439
3745.000000 0.7440 0.7442 0.7443 0.7445 0.7446
3740.000000 0.7448 0.7449 0.7451 0.7451 0.7454
3735.000000 0.7455 0.7457 0.7458 0.7458 0.7458
3730.000000 0.7458 0.7458 0.7457 0.7456 0.7456
3725.000000 0.7455 0.7454 0.7453 0.7453 0.7451
3720.000000 0.7451 0.7451 0.7450 0.7449 0.7449
3715.000000 0.7448 0.7447 0.7445 0.7443 0.7441
3710.000000 0.7440 0.7438 0.7437 0.7435 0.7434
3705.000000 0.7432 0.7430 0.7428 0.7426 0.7425
3700.000000 0.7424 0.7422 0.7421 0.7421 0.7421
3695.000000 0.7421 0.7421 0.7421 0.7421 0.7421
3690.000000 0.7421 0.7422 0.7424 0.7431 0.7438
3685.000000 0.7445 0.7451 0.7458 0.7465 0.7467
3680.000000 0.7469 0.7471 0.7475 0.7476 0.7480
3675.000000 0.7482 0.7485 0.7487 0.7488 0.7489
3670.000000 0.7489 0.7489 0.7489 0.7489 0.7489
3665.000000 0.7489 0.7489 0.7489 0.7489 0.7489
3660.000000 0.7489 0.7488 0.7487 0.7485 0.7484
3655.000000 0.7482 0.7481 0.7478 0.7478 0.7476
3650.000000 0.7476 0.7476 0.7476 0.7475 0.7475
3645.000000 0.7475 0.7475 0.7475 0.7475 0.7475
3640.000000 0.7475 0.7474 0.7474 0.7474 0.7474
3635.000000 0.7472 0.7472 0.7472 0.7474 0.7475
3630.000000 0.7475 0.7476 0.7478 0.7478 0.7480
3625.000000 0.7481 0.7482 0.7483 0.7484 0.7485
3620.000000 0.7486 0.7487 0.7488 0.7489 0.7490
3615.000000 0.7491 0.7492 0.7493 0.7494 0.7496
3610.000000 0.7498 0.7500 0.7501 0.7504 0.7506
3605.000000 0.7508 0.7510 0.7511 0.7514 0.7515
3600.000000 0.7518 0.7519 0.7521 0.7524 0.7525
3595.000000 0.7526 0.7528 0.7528 0.7530 0.7530
3590.000000 0.7531 0.7531 0.7532 0.7532 0.7533
3585.000000 0.7533 0.7534 0.7534 0.7535 0.7535
3580.000000 0.7536 0.7536 0.7537 0.7537 0.7538
3575.000000 0.7538 0.7539 0.7539 0.7540 0.7541
3570.000000 0.7542 0.7542 0.7543 0.7544 0.7545
3565.000000 0.7546 0.7547 0.7547 0.7548 0.7549
3560.000000 0.7550 0.7551 0.7551 0.7553 0.7554
3555.000000 0.7554 0.7555 0.7556 0.7557 0.7558
3550.000000 0.7558 0.7558 0.7560 0.7561 0.7561
3545.000000 0.7562 0.7564 0.7564 0.7565 0.7565
3540.000000 0.7567 0.7568 0.7568 0.7569 0.7571
3535.000000 0.7571 0.7574 0.7575 0.7575 0.7576
3530.000000 0.7578 0.7578 0.7580 0.7581 0.7582
3525.000000 0.7583 0.7584 0.7585 0.7586 0.7587
3520.000000 0.7588 0.7589 0.7590 0.7592 0.7594
3515.000000 0.7595 0.7597 0.7599 0.7601 0.7601
3510.000000 0.7604 0.7606 0.7608 0.7608 0.7611
3505.000000 0.7611 0.7614 0.7615 0.7618 0.7618
3500.000000 0.7621 0.7622 0.7625 0.7625 0.7628
3495.000000 0.7630 0.7632 0.7633 0.7635 0.7637
3490.000000 0.7639 0.7640 0.7642 0.7644 0.7646
3485.000000 0.7647 0.7649 0.7651 0.7653 0.7654
3480.000000 0.7656 0.7657 0.7658 0.7658 0.7661
3475.000000 0.7661 0.7664 0.7665 0.7665 0.7667
3470.000000 0.7668 0.7669 0.7671 0.7672 0.7674
3465.000000 0.7675 0.7676 0.7678 0.7680 0.7681
3460.000000 0.7682 0.7683 0.7685 0.7686 0.7688
3455.000000 0.7689 0.7690 0.7691 0.7693 0.7695
3450.000000 0.7697 0.7699 0.7701 0.7704 0.7706
3445.000000 0.7708 0.7710 0.7711 0.7714 0.7715
3440.000000 0.7718 0.7719 0.7721 0.7724 0.7726
3435.000000 0.7728 0.7731 0.7733 0.7735 0.7737
3430.000000 0.7739 0.7741 0.7743 0.7745 0.7747
3425.000000 0.7749 0.7751 0.7755 0.7758 0.7761
3420.000000 0.7764 0.7765 0.7768 0.7771 0.7775
3415.000000 0.7776 0.7780 0.7783 0.7786 0.7788
3410.000000 0.7791 0.7794 0.7797 0.7799 0.7801
3405.000000 0.7805 0.7808 0.7811 0.7814 0.7815
3400.000000 0.7818 0.7818 0.7819 0.7819 0.7821
3395.000000 0.7821 0.7821 0.7821 0.7821 0.7821
3390.000000 0.7821 0.7821 0.7821 0.7821 0.7821
3385.000000 0.7821 0.7821 0.7821 0.7821 0.7821
3380.000000 0.7821 0.7821 0.7822 0.7822 0.7822
3375.000000 0.7822 0.7822 0.7822 0.7822 0.7822
3370.000000 0.7822 0.7822 0.7822 0.7822 0.7822
3365.000000 0.7822 0.7822 0.7822 0.7822 0.7822
3360.000000 0.7822 0.7822 0.7824 0.7824 0.7824
3355.000000 0.7824 0.7824 0.7824 0.7824 0.7824
3350.000000 0.7824 0.7824 0.7824 0.7824 0.7824
3345.000000 0.7824 0.7824 0.7824 0.7824 0.7824
3340.000000 0.7825 0.7825 0.7825 0.7825 0.7826
3335.000000 0.7826 0.7828 0.7828 0.7830 0.7830
3330.000000 0.7831 0.7831 0.7832 0.7832 0.7833
3325.000000 0.7834 0.7835 0.7835 0.7836 0.7836
3320.000000 0.7837 0.7837 0.7838 0.7839 0.7840
3315.000000 0.7840 0.7841 0.7842 0.7843 0.7843
3310.000000 0.7844 0.7845 0.7846 0.7847 0.7848
3305.000000 0.7849 0.7850 0.7850 0.7851 0.7851
3300.000000 0.7853 0.7854 0.7855 0.7856 0.7857
3295.000000 0.7857 0.7858 0.7858 0.7860 0.7861
3290.000000 0.7861 0.7862 0.7864 0.7864 0.7865
3285.000000 0.7865 0.7867 0.7868 0.7868 0.7869
3280.000000 0.7871 0.7871 0.7871 0.7872 0.7874
3275.000000 0.7875 0.7875 0.7875 0.7875 0.7875
3270.000000 0.7876 0.7876 0.7876 0.7876 0.7878
3265.000000 0.7878 0.7878 0.7878 0.7878 0.7878
3260.000000 0.7878 0.7878 0.7880 0.7880 0.7880
3255.000000 0.7880 0.7881 0.7881 0.7881 0.7881
3250.000000 0.7882 0.7882 0.7883 0.7883 0.7883
3245.000000 0.7883 0.7884 0.7884 0.7884 0.7884
3240.000000 0.7885 0.7885 0.7885 0.7885 0.7886
3235.000000 0.7886 0.7886 0.7886 0.7887 0.7887
3230.000000 0.7888 0.7888 0.7888 0.7888 0.7889
3225.000000 0.7889 0.7889 0.7889 0.7890 0.7890
3220.000000 0.7890 0.7890 0.7891 0.7891 0.7892
3215.000000 0.7892 0.7892 0.7892 0.7893 0.7893
3210.000000 0.7894 0.7894 0.7894 0.7894 0.7894
3205.000000 0.7893 0.7893 0.7893 0.7894 0.7894
3200.000000 0.7894 0.7894 0.7895 0.7895 0.7896
3195.000000 0.7896 0.7896 0.7896 0.7896 0.7895
3190.000000 0.7894 0.7893 0.7893 0.7892 0.7891
3185.000000 0.7890 0.7890 0.7889 0.7888 0.7886
3180.000000 0.7885 0.7883 0.7882 0.7878 0.7875
3175.000000 0.7871 0.7867 0.7862 0.7858 0.7854
3170.000000 0.7850 0.7841 0.7833 0.7824 0.7815
3165.000000 0.7811 0.7807 0.7804 0.7801 0.7799
3160.000000 0.7798 0.7797 0.7796 0.7795 0.7794
3155.000000 0.7794 0.7795 0.7797 0.7800 0.7801
3150.000000 0.7804 0.7806 0.7808 0.7811 0.7812
3145.000000 0.7817 0.7821 0.7815 0.7808 0.7801
3140.000000 0.7796 0.7789 0.7782 0.7775 0.7768
3135.000000 0.7768 0.7768 0.7774 0.7778 0.7781
3130.000000 0.7784 0.7786 0.7788 0.7790 0.7793
3125.000000 0.7795 0.7797 0.7798 0.7799 0.7800
3120.000000 0.7801 0.7801 0.7803 0.7803 0.7803
3115.000000 0.7803 0.7801 0.7798 0.7795 0.7791
3110.000000 0.7788 0.7780 0.7772 0.7758 0.7743
3105.000000 0.7724 0.7706 0.7683 0.7661 0.7639
3100.000000 0.7617 0.7592 0.7568 0.7543 0.7518
3095.000000 0.7493 0.7467 0.7431 0.7395 0.7321
3090.000000 0.7248 0.7078 0.6910 0.6741 0.6401
3085.000000 0.6488 0.6405 0.6400 0.6395 0.6478
3080.000000 0.6562 0.6757 0.6951 0.7146 0.7341
3075.000000 0.7382 0.7451 0.7424 0.7425 0.7274
3070.000000 0.7124 0.6908 0.6514 0.6514 0.6514
3065.000000 0.6515 0.6517 0.6589 0.6661 0.6733
3060.000000 0.6805 0.6876 0.6950 0.7015 0.7080
3055.000000 0.7122 0.7165 0.7203 0.7240 0.7328
3050.000000 0.7415 0.7534 0.7653 0.7676 0.7701
3045.000000 0.7701 0.7725 0.7695 0.7687 0.7671
3040.000000 0.7658 0.7635 0.7611 0.7594 0.7576
3035.000000 0.7578 0.7578 0.7575 0.7571 0.7556
3030.000000 0.7541 0.7504 0.7467 0.7464 0.7441
3025.000000 0.7458 0.7456 0.7454 0.7451 0.7484
3020.000000 0.7515 0.7551 0.7588 0.7624 0.7661
3015.000000 0.7697 0.7734 0.7756 0.7778 0.7794
3010.000000 0.7811 0.7819 0.7828 0.7838 0.7848
3005.000000 0.7857 0.7867 0.7875 0.7885 0.7894
3000.000000 0.7904 0.7911 0.7918 0.7922 0.7928
2995.000000 0.7932 0.7937 0.7937 0.7938 0.7938
2990.000000 0.7938 0.7938 0.7939 0.7939 0.7940
2985.000000 0.7937 0.7935 0.7932 0.7928 0.7925
2980.000000 0.7924 0.7921 0.7918 0.7912 0.7908
2975.000000 0.7901 0.7894 0.7887 0.7880 0.7872
2970.000000 0.7865 0.7858 0.7851 0.7843 0.7835
2965.000000 0.7826 0.7819 0.7808 0.7798 0.7786
2960.000000 0.7774 0.7761 0.7751 0.7738 0.7725
2955.000000 0.7732 0.7739 0.7750 0.7761 0.7769
2950.000000 0.7778 0.7784 0.7789 0.7793 0.7798
2945.000000 0.7799 0.7801 0.7801 0.7801 0.7801
2940.000000 0.7803 0.7799 0.7796 0.7790 0.7785
2935.000000 0.7778 0.7771 0.7762 0.7755 0.7746
2930.000000 0.7738 0.7728 0.7719 0.7711 0.7701
2925.000000 0.7699 0.7697 0.7697 0.7697 0.7699
2920.000000 0.7701 0.7705 0.7708 0.7710 0.7712
2915.000000 0.7725 0.7737 0.7751 0.7767 0.7783
2910.000000 0.7799 0.7815 0.7833 0.7849 0.7865
2905.000000 0.7882 0.7898 0.7912 0.7928 0.7945
2900.000000 0.7961 0.7975 0.7989 0.7996 0.8004
2895.000000 0.8011 0.8018 0.8025 0.8033 0.8036
2890.000000 0.8039 0.8040 0.8041 0.8042 0.8044
2885.000000 0.8045 0.8045 0.8045 0.8044 0.8041
2880.000000 0.8039 0.8036 0.8033 0.8030 0.8028
2875.000000 0.8024 0.8019 0.8014 0.8008 0.8003
2870.000000 0.7998 0.7991 0.7985 0.7978 0.7971
2865.000000 0.7965 0.7958 0.7953 0.7947 0.7941
2860.000000 0.7936 0.7931 0.7925 0.7925 0.7925
2855.000000 0.7925 0.7925 0.7925 0.7925 0.7925
2850.000000 0.7926 0.7931 0.7936 0.7945 0.7955
2845.000000 0.7965 0.7975 0.7985 0.7995 0.8005
2840.000000 0.8015 0.8028 0.8041 0.8058 0.8078
2835.000000 0.8093 0.8108 0.8121 0.8135 0.8148
2830.000000 0.8161 0.8164 0.8168 0.8169 0.8172
2825.000000 0.8175 0.8178 0.8180 0.8182 0.8184
2820.000000 0.8187 0.8189 0.8192 0.8193 0.8195
2815.000000 0.8196 0.8198 0.8199 0.8200 0.8201
2810.000000 0.8203 0.8204 0.8205 0.8206 0.8208
2805.000000 0.8209 0.8211 0.8212 0.8213 0.8214
2800.000000 0.8216 0.8217 0.8218 0.8218 0.8218
2795.000000 0.8220 0.8221 0.8221 0.8221 0.8223
2790.000000 0.8224 0.8225 0.8227 0.8228 0.8231
2785.000000 0.8212 0.8193 0.8122 0.8053 0.8031
2780.000000 0.8010 0.8004 0.7998 0.7998 0.7998
2775.000000 0.8001 0.8004 0.8028 0.8054 0.8088
2770.000000 0.8121 0.8136 0.8151 0.8165 0.8181
2765.000000 0.8193 0.8205 0.8214 0.8223 0.8232
2760.000000 0.8241 0.8240 0.8239 0.8236 0.8234
2755.000000 0.8231 0.8228 0.8225 0.8223 0.8220
2750.000000 0.8218 0.8218 0.8218 0.8221 0.8225
2745.000000 0.8230 0.8235 0.8239 0.8244 0.8248
2740.000000 0.8252 0.8256 0.8261 0.8264 0.8268
2735.000000 0.8270 0.8273 0.8275 0.8278 0.8281
2730.000000 0.8284 0.8286 0.8288 0.8289 0.8290
2725.000000 0.8291 0.8293 0.8294 0.8296 0.8297
2720.000000 0.8298 0.8298 0.8297 0.8297 0.8296
2715.000000 0.8294 0.8292 0.8290 0.8289 0.8286
2710.000000 0.8284 0.8280 0.8277 0.8274 0.8271
2705.000000 0.8266 0.8262 0.8255 0.8249 0.8242
2700.000000 0.8236 0.8230 0.8225 0.8224 0.8223
2695.000000 0.8228 0.8236 0.8243 0.8250 0.8256
2690.000000 0.8263 0.8270 0.8277 0.8282 0.8287
2685.000000 0.8291 0.8295 0.8299 0.8304 0.8308
2680.000000 0.8312 0.8314 0.8317 0.8318 0.8320
2675.000000 0.8321 0.8323 0.8324 0.8325 0.8325
2670.000000 0.8328 0.8328 0.8330 0.8331 0.8333
2665.000000 0.8333 0.8334 0.8334 0.8335 0.8335
2660.000000 0.8336 0.8336 0.8337 0.8337 0.8338
2655.000000 0.8338 0.8339 0.8340 0.8341 0.8343
2650.000000 0.8346 0.8348 0.8351 0.8353 0.8356
2645.000000 0.8358 0.8361 0.8363 0.8366 0.8368
2640.000000 0.8370 0.8371 0.8375 0.8377 0.8380
2635.000000 0.8382 0.8385 0.8385 0.8386 0.8386
2630.000000 0.8386 0.8386 0.8386 0.8386 0.8386
2625.000000 0.8386 0.8386 0.8386 0.8386 0.8385
2620.000000 0.8385 0.8385 0.8385 0.8385 0.8385
2615.000000 0.8384 0.8383 0.8382 0.8381 0.8380
2610.000000 0.8378 0.8378 0.8377 0.8375 0.8374
2605.000000 0.8373 0.8371 0.8371 0.8370 0.8368
2600.000000 0.8368 0.8366 0.8365 0.8362 0.8360
2595.000000 0.8358 0.8356 0.8354 0.8352 0.8349
2590.000000 0.8347 0.8345 0.8343 0.8341 0.8339
2585.000000 0.8336 0.8334 0.8332 0.8330 0.8327
2580.000000 0.8325 0.8323 0.8321 0.8320 0.8318
2575.000000 0.8317 0.8316 0.8315 0.8314 0.8312
2570.000000 0.8311 0.8310 0.8309 0.8307 0.8306
2565.000000 0.8304 0.8303 0.8301 0.8300 0.8298
2560.000000 0.8297 0.8295 0.8294 0.8293 0.8293
2555.000000 0.8297 0.8301 0.8305 0.8309 0.8313
2550.000000 0.8317 0.8321 0.8325 0.8328 0.8332
2545.000000 0.8334 0.8336 0.8338 0.8340 0.8342
2540.000000 0.8344 0.8346 0.8348 0.8350 0.8353
2535.000000 0.8355 0.8357 0.8359 0.8361 0.8361
2530.000000 0.8362 0.8362 0.8362 0.8361 0.8361
2525.000000 0.8361 0.8361 0.8360 0.8360 0.8360
2520.000000 0.8360 0.8359 0.8359 0.8359 0.8359
2515.000000 0.8358 0.8358 0.8357 0.8357 0.8356
2510.000000 0.8355 0.8354 0.8354 0.8353 0.8352
2505.000000 0.8351 0.8351 0.8350 0.8350 0.8349
2500.000000 0.8348 0.8347 0.8347 0.8345 0.8343
2495.000000 0.8341 0.8339 0.8336 0.8334 0.8332
2490.000000 0.8330 0.8327 0.8325 0.8323 0.8321
2485.000000 0.8320 0.8318 0.8318 0.8317 0.8316
2480.000000 0.8315 0.8314 0.8313 0.8312 0.8311
2475.000000 0.8310 0.8310 0.8309 0.8308 0.8307
2470.000000 0.8306 0.8305 0.8305 0.8304 0.8304
2465.000000 0.8303 0.8303 0.8303 0.8303 0.8302
2460.000000 0.8302 0.8301 0.8301 0.8301 0.8301
2455.000000 0.8300 0.8300 0.8299 0.8299 0.8298
2450.000000 0.8298 0.8298 0.8298 0.8297 0.8297
2445.000000 0.8296 0.8295 0.8293 0.8292 0.8291
2440.000000 0.8290 0.8282 0.8274 0.8263 0.8252
2435.000000 0.8241 0.8231 0.8227 0.8224 0.8221
2430.000000 0.8221 0.8218 0.8218 0.8218 0.8218
2425.000000 0.8227 0.8235 0.8239 0.8243 0.8247
2420.000000 0.8251 0.8255 0.8259 0.8263 0.8267
2415.000000 0.8271 0.8275 0.8277 0.8280 0.8280
2410.000000 0.8281 0.8281 0.8281 0.8281 0.8282
2405.000000 0.8282 0.8282 0.8282 0.8283 0.8283
2400.000000 0.8283 0.8278 0.8275 0.8273 0.8270
2395.000000 0.8267 0.8264 0.8261 0.8258 0.8255
2390.000000 0.8253 0.8251 0.8250 0.8249 0.8248
2385.000000 0.8248 0.8249 0.8253 0.8258 0.8263
2380.000000 0.8268 0.8275 0.8284 0.8293 0.8303
2375.000000 0.8312 0.8321 0.8334 0.8347 0.8362
2370.000000 0.8378 0.8390 0.8403 0.8411 0.8418
2365.000000 0.8421 0.8421 0.8423 0.8421 0.8418
2360.000000 0.8417 0.8407 0.8397 0.8383 0.8368
2355.000000 0.8354 0.8339 0.8321 0.8306 0.8289
2350.000000 0.8273 0.8255 0.8238 0.8220 0.8202
2345.000000 0.8202 0.8203 0.8206 0.8209 0.8213
2340.000000 0.8217 0.8221 0.8225 0.8228 0.8232
2335.000000 0.8232 0.8232 0.8225 0.8221 0.8216
2330.000000 0.8211 0.8206 0.8201 0.8196 0.8191
2325.000000 0.8186 0.8182 0.8176 0.8172 0.8168
2320.000000 0.8164 0.8158 0.8155 0.8150 0.8146
2315.000000 0.8141 0.8137 0.8132 0.8128 0.8122
2310.000000 0.8118 0.8114 0.8110 0.8106 0.8101
2305.000000 0.8097 0.8093 0.8088 0.8084 0.8084
2300.000000 0.8084 0.8084 0.8085 0.8086 0.8087
2295.000000 0.8087 0.8087 0.8083 0.8082 0.8076
2290.000000 0.8075 0.8072 0.8071 0.8068 0.8067
2285.000000 0.8065 0.8062 0.8061 0.8061 0.8062
2280.000000 0.8065 0.8068 0.8072 0.8076 0.8081
2275.000000 0.8084 0.8088 0.8092 0.8096 0.8099
2270.000000 0.8103 0.8106 0.8108 0.8111 0.8115
2265.000000 0.8118 0.8121 0.8125 0.8128 0.8132
2260.000000 0.8136 0.8138 0.8141 0.8143 0.8145
2255.000000 0.8147 0.8150 0.8151 0.8155 0.8157
2250.000000 0.8158 0.8161 0.8164 0.8165 0.8168
2245.000000 0.8171 0.8172 0.8175 0.8178 0.8184
2240.000000 0.8190 0.8195 0.8200 0.8205 0.8210
2235.000000 0.8215 0.8220 0.8225 0.8231 0.8236
2230.000000 0.8241 0.8249 0.8257 0.8265 0.8273
2225.000000 0.8281 0.8289 0.8296 0.8304 0.8311
2220.000000 0.8318 0.8327 0.8335 0.8342 0.8350
2215.000000 0.8357 0.8365 0.8371 0.8380 0.8387
2210.000000 0.8395 0.8399 0.8404 0.8407 0.8410
2205.000000 0.8413 0.8416 0.8418 0.8421 0.8425
2200.000000 0.8428 0.8431 0.8434 0.8437 0.8440
2195.000000 0.8443 0.8446 0.8449 0.8452 0.8455
2190.000000 0.8458 0.8460 0.8463 0.8465 0.8467
2185.000000 0.8468 0.8471 0.8473 0.8475 0.8477
2180.000000 0.8478 0.8481 0.8483 0.8485 0.8487
2175.000000 0.8489 0.8491 0.8493 0.8495 0.8497
2170.000000 0.8499 0.8501 0.8503 0.8506 0.8509
2165.000000 0.8511 0.8514 0.8516 0.8518 0.8521
2160.000000 0.8525 0.8527 0.8530 0.8532 0.8535
2155.000000 0.8538 0.8541 0.8543 0.8546 0.8549
2150.000000 0.8552 0.8554 0.8557 0.8560 0.8564
2145.000000 0.8567 0.8571 0.8574 0.8577 0.8580
2140.000000 0.8584 0.8587 0.8591 0.8594 0.8598
2135.000000 0.8601 0.8605 0.8608 0.8611 0.8614
2130.000000 0.8618 0.8621 0.8625 0.8628 0.8632
2125.000000 0.8635 0.8639 0.8642 0.8646 0.8649
2120.000000 0.8652 0.8655 0.8659 0.8662 0.8665
2115.000000 0.8665 0.8666 0.8667 0.8668 0.8668
2110.000000 0.8670 0.8671 0.8671 0.8673 0.8674
2105.000000 0.8675 0.8675 0.8675 0.8677 0.8678
2100.000000 0.8678 0.8680 0.8681 0.8682 0.8683
2095.000000 0.8684 0.8685 0.8686 0.8688 0.8690
2090.000000 0.8692 0.8693 0.8695 0.8697 0.8699
2085.000000 0.8700 0.8702 0.8704 0.8706 0.8707
2080.000000 0.8709 0.8711 0.8713 0.8714 0.8716
2075.000000 0.8718 0.8720 0.8721 0.8723 0.8725
2070.000000 0.8727 0.8728 0.8730 0.8732 0.8734
2065.000000 0.8735 0.8737 0.8738 0.8740 0.8742
2060.000000 0.8744 0.8745 0.8747 0.8749 0.8751
2055.000000 0.8752 0.8754 0.8755 0.8757 0.8759
2050.000000 0.8761 0.8762 0.8764 0.8765 0.8767
2045.000000 0.8768 0.8768 0.8768 0.8768 0.8768
2040.000000 0.8768 0.8768 0.8768 0.8768 0.8768
2035.000000 0.8768 0.8768 0.8768 0.8770 0.8771
2030.000000 0.8771 0.8771 0.8773 0.8773 0.8774
2025.000000 0.8775 0.8777 0.8780 0.8783 0.8786
2020.000000 0.8789 0.8792 0.8795 0.8798 0.8801
2015.000000 0.8804 0.8807 0.8810 0.8813 0.8821
2010.000000 0.8831 0.8842 0.8853 0.8862 0.8871
2005.000000 0.8880 0.8880 0.8880 0.8871 0.8838
2000.000000 0.8805 0.8765 0.8721 0.8673 0.8660
1995.000000 0.8668 0.8735 0.8768 0.8778 0.8788
1990.000000 0.8797 0.8801 0.8800 0.8798 0.8797
1985.000000 0.8795 0.8793 0.8792 0.8790 0.8789
1980.000000 0.8787 0.8785 0.8783 0.8781 0.8780
1975.000000 0.8778 0.8775 0.8774 0.8771 0.8771
1970.000000 0.8768 0.8768 0.8766 0.8764 0.8763
1965.000000 0.8763 0.8763 0.8763 0.8763 0.8765
1960.000000 0.8770 0.8777 0.8785 0.8790 0.8793
1955.000000 0.8796 0.8784 0.8792 0.8787 0.8782
1950.000000 0.8777 0.8771 0.8759 0.8746 0.8733
1945.000000 0.8720 0.8709 0.8699 0.8698 0.8697
1940.000000 0.8696 0.8695 0.8706 0.8721 0.8730
1935.000000 0.8737 0.8718 0.8696 0.8665 0.8606
1930.000000 0.8495 0.8384 0.8271 0.8161 0.8050
1925.000000 0.7939 0.7872 0.7884 0.7984 0.8086
1920.000000 0.8188 0.8290 0.8382 0.8454 0.8514
1915.000000 0.8543 0.8564 0.8571 0.8578 0.8587
1910.000000 0.8602 0.8618 0.8634 0.8657 0.8682
1905.000000 0.8707 0.8725 0.8737 0.8750 0.8763
1900.000000 0.8773 0.8784 0.8795 0.8806 0.8810
1895.000000 0.8810 0.8806 0.8802 0.8799 0.8795
1890.000000 0.8792 0.8792 0.8793 0.8793 0.8794
1885.000000 0.8794 0.8794 0.8793 0.8792 0.8792
1880.000000 0.8791 0.8791 0.8792 0.8792 0.8793
1875.000000 0.8794 0.8794 0.8795 0.8796 0.8797
1870.000000 0.8799 0.8801 0.8804 0.8806 0.8808
1865.000000 0.8811 0.8813 0.8816 0.8818 0.8821
1860.000000 0.8824 0.8827 0.8830 0.8832 0.8832
1855.000000 0.8833 0.8830 0.8821 0.8808 0.8794
1850.000000 0.8780 0.8770 0.8764 0.8764 0.8765
1845.000000 0.8773 0.8781 0.8789 0.8798 0.8809
1840.000000 0.8818 0.8830 0.8841 0.8852 0.8860
1835.000000 0.8864 0.8868 0.8873 0.8877 0.8882
1830.000000 0.8883 0.8883 0.8883 0.8883 0.8883
1825.000000 0.8883 0.8883 0.8882 0.8882 0.8881
1820.000000 0.8880 0.8878 0.8877 0.8875 0.8875
1815.000000 0.8873 0.8868 0.8862 0.8856 0.8851
1810.000000 0.8845 0.8835 0.8824 0.8814 0.8804
1805.000000 0.8793 0.8782 0.8771 0.8752 0.8732
1800.000000 0.8712 0.8695 0.8680 0.8675 0.8686
1795.000000 0.8697 0.8725 0.8744 0.8740 0.8736
1790.000000 0.8733 0.8728 0.8725 0.8724 0.8721
1785.000000 0.8718 0.8717 0.8717 0.8717 0.8720
1780.000000 0.8723 0.8725 0.8728 0.8735 0.8743
1775.000000 0.8752 0.8761 0.8768 0.8778 0.8787
1770.000000 0.8796 0.8804 0.8808 0.8812 0.8815
1765.000000 0.8818 0.8823 0.8825 0.8830 0.8834
1760.000000 0.8837 0.8841 0.8845 0.8848 0.8852
1755.000000 0.8856 0.8858 0.8859 0.8861 0.8863
1750.000000 0.8864 0.8866 0.8867 0.8868 0.8870
1745.000000 0.8871 0.8873 0.8875 0.8875 0.8877
1740.000000 0.8878 0.8880 0.8881 0.8883 0.8884
1735.000000 0.8886 0.8887 0.8888 0.8890 0.8891
1730.000000 0.8892 0.8893 0.8894 0.8895 0.8896
1725.000000 0.8897 0.8898 0.8899 0.8900 0.8901
1720.000000 0.8902 0.8903 0.8904 0.8905 0.8906
1715.000000 0.8907 0.8907 0.8906 0.8906 0.8905
1710.000000 0.8905 0.8904 0.8904 0.8903 0.8903
1705.000000 0.8903 0.8903 0.8903 0.8902 0.8902
1700.000000 0.8902 0.8901 0.8899 0.8898 0.8896
1695.000000 0.8894 0.8886 0.8878 0.8870 0.8868
1690.000000 0.8875 0.8882 0.8890 0.8894 0.8899
1685.000000 0.8846 0.8827 0.8804 0.8785 0.8766
1680.000000 0.8775 0.8786 0.8786 0.8785 0.8783
1675.000000 0.8759 0.8734 0.8707 0.8666 0.8624
1670.000000 0.8584 0.8547 0.8510 0.8457 0.8308
1665.000000 0.8135 0.7961 0.7940 0.8039 0.8189
1660.000000 0.8339 0.8489 0.8607 0.8666 0.8720
1655.000000 0.8755 0.8790 0.8825 0.8857 0.8873
1650.000000 0.8890 0.8903 0.8915 0.8927 0.8936
1645.000000 0.8935 0.8935 0.8934 0.8933 0.8921
1640.000000 0.8927 0.8924 0.8921 0.8917 0.8916
1635.000000 0.8914 0.8913 0.8911 0.8909 0.8899
1630.000000 0.8889 0.8878 0.8868 0.8856 0.8841
1625.000000 0.8825 0.8811 0.8784 0.8746 0.8721
1620.000000 0.8706 0.8710 0.8718 0.8728 0.8737
1615.000000 0.8746 0.8754 0.8761 0.8768 0.8775
1610.000000 0.8781 0.8783 0.8785 0.8787 0.8789
1605.000000 0.8791 0.8791 0.8790 0.8775 0.8757
1600.000000 0.8739 0.8709 0.8678 0.8648 0.8618
1595.000000 0.8540 0.8438 0.7765 0.6930 0.5819
1590.000000 0.5806 0.5824 0.5988 0.6151 0.6314
1585.000000 0.6476 0.6640 0.6714 0.6751 0.6781
1580.000000 0.6799 0.6808 0.6811 0.6644 0.6359
1575.000000 0.6074 0.5571 0.5578 0.5688 0.6171
1570.000000 0.6655 0.7138 0.7621 0.7862 0.7969
1565.000000 0.8092 0.8182 0.8247 0.8308 0.8350
1560.000000 0.8392 0.8433 0.8471 0.8505 0.8538
1555.000000 0.8551 0.8564 0.8577 0.8590 0.8599
1550.000000 0.8607 0.8615 0.8621 0.8630 0.8634
1545.000000 0.8635 0.8640 0.8642 0.8638 0.8634
1540.000000 0.8628 0.8625 0.8618 0.8610 0.8602
1535.000000 0.8594 0.8587 0.8578 0.8571 0.8563
1530.000000 0.8555 0.8549 0.8542 0.8536 0.8528
1525.000000 0.8523 0.8516 0.8509 0.8501 0.8493
1520.000000 0.8485 0.8478 0.8470 0.8463 0.8456
1515.000000 0.8449 0.8445 0.8442 0.8442 0.8442
1510.000000 0.8445 0.8448 0.8454 0.8460 0.8428
1505.000000 0.8393 0.8373 0.8353 0.8334 0.8315
1500.000000 0.8300 0.8285 0.8270 0.8244 0.8197
1495.000000 0.8156 0.8128 0.8088 0.8036 0.7926
1490.000000 0.7761 0.7590 0.7321 0.6851 0.5273
1485.000000 0.1993 0.1993 0.2301 0.3491 0.4681
1480.000000 0.5516 0.5621 0.5739 0.5972 0.6144
1475.000000 0.6278 0.6411 0.6710 0.7096 0.7251
1470.000000 0.7349 0.7403 0.7428 0.7455 0.7440
1465.000000 0.7478 0.7485 0.7491 0.7489 0.7478
1460.000000 0.7461 0.7438 0.7414 0.7389 0.7351
1455.000000 0.7312 0.7276 0.7241 0.7205 0.7172
1450.000000 0.7176 0.7176 0.7176 0.7191 0.7205
1445.000000 0.7218 0.7232 0.7247 0.7261 0.7276
1440.000000 0.7292 0.7308 0.7322 0.7338 0.7353
1435.000000 0.7368 0.7384 0.7400 0.7415 0.7432
1430.000000 0.7448 0.7464 0.7480 0.7496 0.7517
1425.000000 0.7542 0.7567 0.7589 0.7608 0.7631
1420.000000 0.7621 0.7628 0.7638 0.7618 0.7600
1415.000000 0.7580 0.7546 0.7489 0.7430 0.7368
1410.000000 0.7306 0.7241 0.7151 0.7061 0.6905
1405.000000 0.6767 0.6647 0.6327 0.5842 0.5357
1400.000000 0.4872 0.4616 0.4612 0.4599 0.4594
1395.000000 0.4625 0.4677 0.4781 0.4897 0.5102
1390.000000 0.5371 0.5644 0.5918 0.6191 0.6464
1385.000000 0.6738 0.7011 0.7285 0.7396 0.7501
1380.000000 0.7606 0.7661 0.7711 0.7748 0.7778
1375.000000 0.7790 0.7798 0.7806 0.7811 0.7815
1370.000000 0.7818 0.7818 0.7818 0.7810 0.7794
1365.000000 0.7756 0.7678 0.7541 0.7408 0.7275
1360.000000 0.7281 0.7349 0.7417 0.7475 0.7499
1355.000000 0.7498 0.7495 0.7472 0.7437 0.7399
1350.000000 0.7358 0.7315 0.7255 0.7200 0.7169
1345.000000 0.7141 0.7071 0.7106 0.7100 0.7101
1340.000000 0.7110 0.7158 0.7195 0.7215 0.7224
1335.000000 0.7231 0.7238 0.7239 0.7241 0.7242
1330.000000 0.7244 0.7245 0.7246 0.7247 0.7248
1325.000000 0.7269 0.7291 0.7312 0.7335 0.7350
1320.000000 0.7360 0.7369 0.7375 0.7375 0.7378
1315.000000 0.7380 0.7381 0.7381 0.7381 0.7374
1310.000000 0.7367 0.7360 0.7351 0.7334 0.7318
1305.000000 0.7286 0.7217 0.7053 0.7053 0.7078
1300.000000 0.7182 0.7271 0.7310 0.7319 0.7325
1295.000000 0.7331 0.7332 0.7333 0.7331 0.7317
1290.000000 0.7303 0.7283 0.7254 0.7225 0.7197
1285.000000 0.7168 0.7117 0.7043 0.6811 0.6667
1280.000000 0.6511 0.6475 0.6471 0.6508 0.6580
1275.000000 0.6640 0.6661 0.6678 0.6678 0.6678
1270.000000 0.6645 0.6590 0.6504 0.6408 0.6195
1265.000000 0.5972 0.5490 0.5008 0.5006 0.5027
1260.000000 0.5156 0.5286 0.5405 0.5378 0.5352
1255.000000 0.5323 0.5288 0.5253 0.5210 0.5158
1250.000000 0.4688 0.4256 0.3823 0.3390 0.2958
1245.000000 0.2525 0.2092 0.1660 0.1227 0.0795
1240.000000 0.0196 0.0218 0.0208 0.0211 0.0226
1235.000000 0.0492 0.0811 0.1130 0.1450 0.1769
1230.000000 0.2088 0.2366 0.2415 0.2455 0.2487
1225.000000 0.2514 0.2531 0.2557 0.2611 0.2735
1220.000000 0.2863 0.2990 0.3117 0.3244 0.3371
1215.000000 0.3497 0.3624 0.3750 0.3790 0.3755
1210.000000 0.3725 0.3679 0.3622 0.3564 0.3454
1205.000000 0.3250 0.3088 0.2904 0.2123 0.1375
1200.000000 0.0895 0.0812 0.0644 0.0509 0.0417
1195.000000 0.0342 0.0266 0.0202 0.0139 0.0098
1190.000000 0.0079 0.0069 0.0052 0.0052 0.0052
1185.000000 0.0062 0.0081 0.0129 0.0216 0.0352
1180.000000 0.0461 0.0578 0.0729 0.1894 0.2024
1175.000000 0.2122 0.2181 0.2247 0.2324 0.2435
1170.000000 0.2770 0.3105 0.3439 0.3774 0.4109
1165.000000 0.4443 0.4778 0.5112 0.5371 0.5540
1160.000000 0.5662 0.5744 0.5818 0.5876 0.5934
1155.000000 0.5991 0.6028 0.6049 0.6035 0.6062
1150.000000 0.6053 0.6040 0.6027 0.5986 0.5945
1145.000000 0.5874 0.5778 0.5595 0.5439 0.4472
1140.000000 0.3041 0.1610 0.0911 0.0889 0.1304
1135.000000 0.1740 0.2175 0.2611 0.3047 0.3482
1130.000000 0.3918 0.4354 0.4790 0.5226 0.5662
1125.000000 0.6097 0.6360 0.6521 0.6625 0.6698
1120.000000 0.6738 0.6765 0.6784 0.6798 0.6811
1115.000000 0.6836 0.6869 0.6918 0.6974 0.7049
1110.000000 0.7087 0.7090 0.7115 0.7097 0.7058
1105.000000 0.6974 0.6867 0.6739 0.6569 0.5969
1100.000000 0.5362 0.4756 0.4150 0.3543 0.2937
1095.000000 0.2331 0.1724 0.0968 0.0975 0.0981
1090.000000 0.1413 0.2062 0.2710 0.3359 0.4008
1085.000000 0.4657 0.5305 0.5954 0.6812 0.6919
1080.000000 0.6992 0.7021 0.7049 0.7071 0.7085
1075.000000 0.7099 0.7107 0.7111 0.7115 0.7117
1070.000000 0.7118 0.7112 0.7106 0.7094 0.7078
1065.000000 0.7056 0.7034 0.7008 0.6972 0.6925
1060.000000 0.6861 0.6751 0.6578 0.6318 0.6005
1055.000000 0.5600 0.4490 0.3379 0.2268 0.1242
1050.000000 0.1236 0.1414 0.2114 0.2815 0.3516
1045.000000 0.4217 0.4515 0.4553 0.4581 0.4608
1040.000000 0.4918 0.5736 0.6200 0.6255 0.6309
1035.000000 0.6360 0.6582 0.6876 0.7171 0.7465
1030.000000 0.7536 0.7591 0.7625 0.7658 0.7690
1025.000000 0.7706 0.7721 0.7743 0.7758 0.7761
1020.000000 0.7800 0.7755 0.7735 0.7706 0.7672
1015.000000 0.7557 0.7419 0.7282 0.1072 0.1029
1010.000000 0.1042 0.1476 0.2567 0.3657 0.4748
1005.000000 0.5283 0.5304 0.5456 0.6365 0.7217
1000.000000 0.7319 0.7411 0.7484 0.7550 0.7599
995.000000 0.7625 0.7653 0.7680 0.7706 0.7730
990.000000 0.7753 0.7768 0.7775 0.7784 0.7792
985.000000 0.7795 0.7796 0.7800 0.7801 0.7796
980.000000 0.7785 0.7774 0.7761 0.7744 0.7726
975.000000 0.7681 0.7632 0.7582 0.7534 0.7421
970.000000 0.7419 0.7417 0.7508 0.7705 0.7742
965.000000 0.7760 0.7771 0.7771 0.7772 0.7765
960.000000 0.7722 0.7668 0.7641 0.7636 0.7630
955.000000 0.7628 0.7628 0.7662 0.7730 0.7817
950.000000 0.7843 0.7868 0.7885 0.7898 0.7911
945.000000 0.7924 0.7936 0.7947 0.7957 0.7968
940.000000 0.7978 0.7989 0.8000 0.8010 0.8021
935.000000 0.8031 0.8037 0.8044 0.8050 0.8056
930.000000 0.8061 0.8068 0.8075 0.8081 0.8088
925.000000 0.8094 0.8099 0.8103 0.8106 0.8108
920.000000 0.8111 0.8115 0.8118 0.8121 0.8125
915.000000 0.8128 0.8131 0.8134 0.8137 0.8141
910.000000 0.8143 0.8145 0.8148 0.8150 0.8151
905.000000 0.8155 0.8157 0.8158 0.8158 0.8158
900.000000 0.8158 0.8157 0.8157 0.8155 0.8151
895.000000 0.8150 0.8148 0.8146 0.8143 0.8140
890.000000 0.8133 0.8125 0.8119 0.8111 0.8104
885.000000 0.8095 0.8085 0.8061 0.8039 0.8007
880.000000 0.7997 0.7994 0.8001 0.8022 0.8044
875.000000 0.8065 0.8086 0.8108 0.8125 0.8140
870.000000 0.8151 0.8151 0.8151 0.8151 0.8151
865.000000 0.8149 0.8146 0.8168 0.8141 0.8138
860.000000 0.8134 0.8130 0.8125 0.8121 0.8118
855.000000 0.8107 0.8091 0.8074 0.8057 0.8035
850.000000 0.8014 0.7992 0.7969 0.7941 0.7897
845.000000 0.7851 0.7783 0.7712 0.7545 0.6617
840.000000 0.5901 0.5186 0.4470 0.3754 0.3038
835.000000 0.2322 0.1607 0.0891 0.0429 0.0465
830.000000 0.0703 0.1713 0.2724 0.3734 0.4604
825.000000 0.4838 0.5633 0.6410 0.7188 0.7715
820.000000 0.7806 0.7878 0.7884 0.7891 0.7897
815.000000 0.7906 0.7925 0.7946 0.7965 0.7985
810.000000 0.8008 0.8033 0.8058 0.8084 0.8108
805.000000 0.8131 0.8140 0.8149 0.8157 0.8165
800.000000 0.8175 0.8183 0.8189 0.8193 0.8196
795.000000 0.8200 0.8190 0.8207 0.8205 0.8202
790.000000 0.8199 0.8195 0.8192 0.8189 0.8185
785.000000 0.8172 0.8161 0.8150 0.8138 0.8125
780.000000 0.8112 0.8083 0.8051 0.8021 0.7992
775.000000 0.7955 0.7917 0.7878 0.7825 0.7751
770.000000 0.7665 0.7564 0.7436 0.7261 0.5657
765.000000 0.4030 0.2403 0.1178 0.1155 0.1302
760.000000 0.2044 0.2787 0.3529 0.4272 0.5014
755.000000 0.5229 0.5320 0.5497 0.6365 0.7233
750.000000 0.7603 0.7675 0.7726 0.7760 0.7778
745.000000 0.7783 0.7785 0.7787 0.7788 0.7792
740.000000 0.7775 0.7768 0.7761 0.7753 0.7742
735.000000 0.7728 0.7714 0.7700 0.7686 0.7668
730.000000 0.7646 0.7625 0.7601 0.7571 0.7543
725.000000 0.7510 0.7468 0.7428 0.7372 0.7301
720.000000 0.7289 0.7368 0.7447 0.7525 0.7605
715.000000 0.7639 0.7522 0.7098 0.6674 0.6039
710.000000 0.6017 0.6357 0.7168 0.7917 0.7980
705.000000 0.8043 0.8091 0.8112 0.8134 0.8156
700.000000 0.8178 0.8199 0.8212 0.8225 0.8238
695.000000 0.8251 0.8260 0.8266 0.8271 0.8278
690.000000 0.8284 0.8290 0.8295 0.8300 0.8304
685.000000 0.8309 0.8327 0.8316 0.8318 0.8318
680.000000 0.8320 0.8313 0.8306 0.8295 0.8275
675.000000 0.8258 0.8239 0.8220 0.8190 0.8142
670.000000 0.8095 0.7045 0.5680 0.4316 0.2951
665.000000 0.1586 0.1406 0.1426 0.1435 0.1993
660.000000 0.2551 0.3108 0.3666 0.4224 0.4782
655.000000 0.5339 0.5897 0.6455 0.7012 0.7569
650.000000 0.7917 0.7942 0.7778 0.7495 0.7211
645.000000 0.6928 0.6457 0.6461 0.6461 0.6549
640.000000 0.6894 0.7238 0.7583 0.7926 0.8239
635.000000 0.8286 0.8293 0.8310 0.8135 0.7875
630.000000 0.7548 0.7537 0.7642 0.7757 0.7871
625.000000 0.7987 0.8101 0.8217 0.8309 0.8323
620.000000 0.8337 0.8350 0.8364 0.8378 0.8396
615.000000 0.8412 0.8428 0.8439 0.8447 0.8454
610.000000 0.8461 0.8457 0.8458 0.8459 0.8458
605.000000 0.8458 0.8457 0.8446 0.8434 0.8421
600.000000 0.8409 0.8395 0.8378 0.8363 0.8348
595.000000 0.8331 0.8291 0.8251 0.8208 0.8157
590.000000 0.8105 0.8056 0.8012 0.7969 0.7921
585.000000 0.7836 0.7749 0.7640 0.7492 0.7332
580.000000 0.6362 0.4862 0.3364 0.2805 0.2953
575.000000 0.3308 0.3662 0.4018 0.4373 0.4728
570.000000 0.4903 0.4896 0.4068 0.2884 0.2477
565.000000 0.2458 0.2764 0.3888 0.5010 0.6134
560.000000 0.6997 0.7081 0.7128 0.7197 0.7265
555.000000 0.7332 0.7478 0.7701 0.7774 0.7847
550.000000 0.7921 0.7993 0.8045 0.8086 0.8108
545.000000 0.8132 0.8156 0.8178 0.8197 0.8214
540.000000 0.8232 0.8249 0.8266 0.8274 0.8280
535.000000 0.8286 0.8291 0.8293 0.8296 0.8298
530.000000 0.8301 0.8303 0.8306 0.8306 0.8306
525.000000 0.8305 0.8304 0.8304 0.8301 0.8295
520.000000 0.8290 0.8285 0.8278 0.8274 0.8267
515.000000 0.8252 0.8237 0.8221 0.8207 0.8187
510.000000 0.8167 0.8147 0.8126 0.8089 0.8041
505.000000 0.7994 0.7946 0.7841 0.7725 0.6783
500.000000 0.4398 0.4416 0.4416 0.4417 0.4428
495.000000 0.4439 0.4469 0.4505 0.4555 0.4632
490.000000 0.5091 0.5309 0.5527 0.5745 0.5962
485.000000 0.6180 0.6398 0.6615 0.6834 0.7051
480.000000 0.7269 0.7488 0.7706 0.7818 0.7834
475.000000 0.7848 0.7861 0.7876 0.7891 0.7901
470.000000 0.7912 0.7924 0.7934 0.7945 0.7955
465.000000 0.7965 0.7976 0.7986 0.7993 0.8001
460.000000 0.8008 0.8015 0.8024 0.8028 0.8037
455.000000 0.8044 0.8049 0.8053 0.8057 0.8061
##END=
