##TITLE=LANTHANUM OXALATE
##JCAMP-DX=4.24
##DATA TYPE=INFRARED SPECTRUM
##CLASS=COBLENTZ
##OWNER=COBLENTZ SOCIETY
Collection (C) 2018 copyright by the U.S. Secretary of Commerce
on behalf of the United States of America. All rights reserved.
##DATE=Not specified, most likely prior to 1970
##MOLFORM=La2 ( C2 O4)3  * 9 H2 O
##SOURCE REFERENCE=COBLENTZ NO. 80
##$NIST ID=B6000080
##$NIST SOURCE=COBLENTZ
##$NIST IMAGE=cob80
##SPECTROMETER/DATA SYSTEM=Not specified, most likely a prism, grating, or hybrid spectrometer.
##STATE=SOLID (KBr DISC)
##SAMPLING PROCEDURE=TRANSMISSION
##RESOLUTION=4
##DATA PROCESSING=DIGITIZED BY NIST FROM HARD COPY
##XUNITS=MICROMETERS
##YUNITS=TRANSMITTANCE
##XFACTOR=1.000000
##YFACTOR=1
##DELTAX=000.007582
##FIRSTX=2.006
##LASTX=14.9491
##FIRSTY=0.961
##MAXX=14.9491
##MINX=2.006
##MAXY=0.97
##MINY=0.166
##NPOINTS=1708
##XYDATA=(X++(Y..Y))
2.006000 0.9610 0.9610 0.9610 0.9610 0.9610
2.043933 0.9610 0.9610 0.9610 0.9610 0.9630
2.082000 0.9630 0.9630 0.9630 0.9630 0.9630
2.119933 0.9640 0.9640 0.9630 0.9630 0.9630
2.158000 0.9630 0.9630 0.9630 0.9640 0.9640
2.195933 0.9640 0.9660 0.9660 0.9640 0.9640
2.233000 0.9640 0.9640 0.9640 0.9660 0.9660
2.270933 0.9660 0.9660 0.9660 0.9670 0.9670
2.309000 0.9670 0.9670 0.9680 0.9680 0.9680
2.346933 0.9680 0.9680 0.9680 0.9680 0.9680
2.385000 0.9680 0.9680 0.9680 0.9680 0.9680
2.422933 0.9680 0.9680 0.9680 0.9700 0.9700
2.461000 0.9700 0.9700 0.9700 0.9700 0.9700
2.498933 0.9700 0.9700 0.9700 0.9700 0.9680
2.537000 0.9680 0.9680 0.9680 0.9680 0.9680
2.574933 0.9680 0.9680 0.9680 0.9680 0.9680
2.612000 0.9680 0.9680 0.9680 0.9680 0.9680
2.649933 0.9680 0.9680 0.9680 0.9680 0.9680
2.688000 0.9680 0.9670 0.9670 0.9670 0.9670
2.725933 0.9670 0.9640 0.9610 0.9570 0.9510
2.764000 0.9400 0.9270 0.9080 0.8890 0.8670
2.801933 0.8360 0.8180 0.7970 0.7680 0.7410
2.840000 0.7140 0.6910 0.6720 0.6390 0.6140
2.877933 0.5990 0.5830 0.5650 0.5420 0.5250
2.916000 0.5090 0.5000 0.4910 0.4780 0.4680
2.953933 0.4650 0.4620 0.4600 0.4600 0.4600
2.992000 0.4620 0.4660 0.4740 0.4840 0.5140
3.029933 0.5280 0.5430 0.5560 0.5730 0.5760
3.067000 0.5920 0.5990 0.6070 0.6140 0.6230
3.104933 0.6320 0.6420 0.6520 0.6640 0.6750
3.143000 0.6830 0.7040 0.7090 0.7200 0.7310
3.180933 0.7350 0.7480 0.7560 0.7660 0.7710
3.219000 0.7750 0.7850 0.7900 0.7960 0.7990
3.256933 0.8020 0.8070 0.8150 0.8210 0.8240
3.295000 0.8270 0.8310 0.8340 0.8380 0.8400
3.332933 0.8460 0.8520 0.8560 0.8610 0.8640
3.371000 0.8640 0.8640 0.8670 0.8680 0.8700
3.408933 0.8720 0.8740 0.8750 0.8800 0.8840
3.447000 0.8900 0.8930 0.8980 0.9010 0.9030
3.484933 0.9050 0.9060 0.9090 0.9110 0.9120
3.522000 0.9140 0.9170 0.9180 0.9210 0.9230
3.559933 0.9240 0.9260 0.9290 0.9300 0.9320
3.598000 0.9320 0.9330 0.9330 0.9330 0.9330
3.635933 0.9350 0.9350 0.9360 0.9360 0.9360
3.674000 0.9370 0.9370 0.9390 0.9400 0.9430
3.711933 0.9450 0.9460 0.9480 0.9490 0.9490
3.750000 0.9510 0.9510 0.9520 0.9540 0.9540
3.787933 0.9540 0.9540 0.9540 0.9540 0.9540
3.826000 0.9540 0.9540 0.9540 0.9550 0.9550
3.863933 0.9570 0.9570 0.9550 0.9550 0.9570
3.901000 0.9570 0.9550 0.9550 0.9550 0.9570
3.938933 0.9570 0.9570 0.9570 0.9570 0.9570
3.977000 0.9570 0.9570 0.9570 0.9570 0.9570
4.014933 0.9580 0.9580 0.9580 0.9600 0.9600
4.053000 0.9600 0.9610 0.9610 0.9610 0.9610
4.090933 0.9610 0.9610 0.9610 0.9610 0.9610
4.129000 0.9610 0.9610 0.9630 0.9610 0.9610
4.166933 0.9610 0.9610 0.9630 0.9610 0.9610
4.205000 0.9610 0.9610 0.9610 0.9630 0.9630
4.242933 0.9630 0.9630 0.9610 0.9610 0.9610
4.281000 0.9610 0.9630 0.9630 0.9610 0.9610
4.318933 0.9630 0.9630 0.9630 0.9630 0.9630
4.356000 0.9630 0.9640 0.9640 0.9640 0.9640
4.393933 0.9640 0.9640 0.9640 0.9640 0.9640
4.432000 0.9630 0.9630 0.9630 0.9610 0.9600
4.469933 0.9600 0.9600 0.9600 0.9600 0.9580
4.508000 0.9580 0.9580 0.9580 0.9580 0.9600
4.545933 0.9600 0.9600 0.9600 0.9580 0.9580
4.584000 0.9580 0.9580 0.9580 0.9600 0.9600
4.621933 0.9600 0.9600 0.9580 0.9580 0.9580
4.660000 0.9580 0.9580 0.9580 0.9580 0.9580
4.697933 0.9580 0.9580 0.9580 0.9580 0.9580
4.735000 0.9580 0.9580 0.9580 0.9600 0.9600
4.772933 0.9600 0.9600 0.9600 0.9600 0.9600
4.811000 0.9600 0.9600 0.9600 0.9600 0.9600
4.848933 0.9600 0.9600 0.9610 0.9610 0.9610
4.887000 0.9610 0.9610 0.9610 0.9610 0.9610
4.924933 0.9610 0.9610 0.9610 0.9610 0.9610
4.963000 0.9610 0.9610 0.9610 0.9610 0.9610
5.000933 0.9630 0.9630 0.9630 0.9630 0.9640
5.039000 0.9640 0.9640 0.9640 0.9640 0.9640
5.076933 0.9640 0.9640 0.9640 0.9640 0.9640
5.115000 0.9640 0.9640 0.9630 0.9630 0.9630
5.152933 0.9630 0.9630 0.9630 0.9630 0.9610
5.190000 0.9610 0.9610 0.9610 0.9610 0.9600
5.227933 0.9610 0.9610 0.9610 0.9610 0.9600
5.266000 0.9600 0.9600 0.9610 0.9610 0.9600
5.303933 0.9600 0.9580 0.9570 0.9550 0.9550
5.342000 0.9550 0.9550 0.9550 0.9550 0.9550
5.379933 0.9550 0.9550 0.9550 0.9550 0.9550
5.418000 0.9550 0.9550 0.9550 0.9550 0.9550
5.455933 0.9550 0.9550 0.9550 0.9540 0.9520
5.494000 0.9510 0.9490 0.9490 0.9490 0.9490
5.531933 0.9490 0.9490 0.9490 0.9490 0.9490
5.570000 0.9490 0.9490 0.9480 0.9480 0.9460
5.607933 0.9450 0.9430 0.9430 0.9420 0.9400
5.645000 0.9370 0.9360 0.9330 0.9300 0.9290
5.682933 0.9260 0.9240 0.9230 0.9210 0.9200
5.721000 0.9180 0.9140 0.9060 0.9020 0.9010
5.758933 0.8960 0.8870 0.8700 0.8550 0.8410
5.797000 0.8300 0.8180 0.8000 0.7840 0.7620
5.834933 0.7370 0.6950 0.6800 0.6610 0.6440
5.873000 0.6240 0.5870 0.5610 0.5250 0.4770
5.910933 0.4380 0.4280 0.4130 0.3980 0.3880
5.949000 0.3450 0.3190 0.2890 0.2710 0.2480
5.986933 0.2330 0.2120 0.1960 0.1860 0.1720
6.024000 0.1690 0.1680 0.1680 0.1660 0.1660
6.061933 0.1660 0.1660 0.1660 0.1660 0.1680
6.100000 0.1680 0.1710 0.1860 0.1930 0.2000
6.137933 0.2090 0.2180 0.2240 0.2300 0.2360
6.176000 0.2450 0.2540 0.2650 0.2710 0.2800
6.213933 0.2860 0.2900 0.2960 0.3070 0.3190
6.252000 0.3320 0.3530 0.3810 0.4120 0.4350
6.289933 0.4510 0.4870 0.5270 0.5450 0.5620
6.328000 0.5760 0.5920 0.6200 0.6390 0.6540
6.365933 0.6700 0.6860 0.7000 0.7130 0.7190
6.404000 0.7220 0.7290 0.7350 0.7560 0.7710
6.441933 0.7840 0.7880 0.7990 0.8030 0.8050
6.479000 0.8070 0.8160 0.8210 0.8270 0.8370
6.516933 0.8410 0.8460 0.8470 0.8500 0.8500
6.555000 0.8520 0.8530 0.8550 0.8560 0.8580
6.592933 0.8590 0.8610 0.8620 0.8620 0.8640
6.631000 0.8640 0.8620 0.8620 0.8620 0.8610
6.668933 0.8580 0.8520 0.8460 0.8380 0.8330
6.707000 0.8310 0.8310 0.8280 0.8270 0.8250
6.744933 0.8250 0.8240 0.8240 0.8240 0.8240
6.783000 0.8250 0.8250 0.8250 0.8270 0.8270
6.820933 0.8270 0.8270 0.8270 0.8270 0.8270
6.858000 0.8280 0.8340 0.8400 0.8430 0.8470
6.895933 0.8500 0.8550 0.8580 0.8640 0.8670
6.934000 0.8720 0.8740 0.8750 0.8780 0.8810
6.971933 0.8840 0.8860 0.8890 0.8920 0.8920
7.010000 0.8920 0.8920 0.8930 0.8950 0.8960
7.047933 0.8980 0.8980 0.8990 0.8990 0.8990
7.086000 0.9010 0.9010 0.9010 0.9020 0.9020
7.123933 0.9020 0.9020 0.9020 0.9030 0.9030
7.162000 0.9030 0.9030 0.9050 0.9050 0.9050
7.199933 0.9050 0.9030 0.9030 0.9010 0.8960
7.238000 0.8920 0.8870 0.8840 0.8800 0.8750
7.275933 0.8720 0.8710 0.8640 0.8590 0.8460
7.313000 0.8430 0.8370 0.8360 0.8340 0.8330
7.350933 0.8250 0.8210 0.8150 0.8130 0.8120
7.389000 0.8100 0.8090 0.8090 0.8090 0.8060
7.426933 0.8000 0.7970 0.7940 0.7930 0.7900
7.465000 0.7840 0.7780 0.7720 0.7660 0.7530
7.502933 0.7380 0.7110 0.6910 0.6570 0.6420
7.541000 0.6150 0.6020 0.5840 0.5640 0.5520
7.578933 0.5480 0.5460 0.5460 0.5450 0.5450
7.617000 0.5450 0.5430 0.5430 0.5450 0.5460
7.654933 0.5590 0.5770 0.5930 0.6270 0.6440
7.693000 0.6550 0.6860 0.7070 0.7250 0.7400
7.730933 0.7630 0.7790 0.7880 0.7970 0.8030
7.768000 0.8130 0.8250 0.8330 0.8360 0.8400
7.805933 0.8440 0.8530 0.8560 0.8590 0.8650
7.844000 0.8700 0.8770 0.8780 0.8800 0.8810
7.881933 0.8840 0.8860 0.8870 0.8890 0.8900
7.920000 0.8920 0.8930 0.8950 0.8960 0.8980
7.957933 0.8990 0.9010 0.9010 0.9010 0.9020
7.996000 0.9020 0.9030 0.9050 0.9050 0.9050
8.033933 0.9060 0.9060 0.9080 0.9080 0.9080
8.072000 0.9080 0.9090 0.9090 0.9090 0.9090
8.109933 0.9110 0.9110 0.9090 0.9090 0.9090
8.147000 0.9110 0.9110 0.9110 0.9120 0.9140
8.184933 0.9140 0.9150 0.9150 0.9170 0.9170
8.223000 0.9170 0.9170 0.9170 0.9180 0.9200
8.260933 0.9200 0.9180 0.9180 0.9180 0.9200
8.299000 0.9200 0.9200 0.9200 0.9200 0.9210
8.336933 0.9210 0.9210 0.9210 0.9210 0.9210
8.375000 0.9210 0.9210 0.9210 0.9210 0.9210
8.412933 0.9210 0.9210 0.9230 0.9230 0.9230
8.451000 0.9230 0.9230 0.9230 0.9230 0.9230
8.488933 0.9230 0.9230 0.9230 0.9230 0.9230
8.527000 0.9230 0.9230 0.9230 0.9230 0.9230
8.564933 0.9230 0.9230 0.9230 0.9230 0.9230
8.602000 0.9230 0.9230 0.9230 0.9230 0.9230
8.639933 0.9230 0.9230 0.9230 0.9230 0.9230
8.678000 0.9240 0.9240 0.9240 0.9240 0.9240
8.715933 0.9240 0.9240 0.9240 0.9240 0.9240
8.754000 0.9240 0.9240 0.9260 0.9260 0.9260
8.791933 0.9260 0.9270 0.9270 0.9270 0.9270
8.830000 0.9270 0.9270 0.9270 0.9270 0.9270
8.867933 0.9270 0.9270 0.9290 0.9290 0.9290
8.906000 0.9270 0.9270 0.9270 0.9270 0.9270
8.943933 0.9270 0.9260 0.9260 0.9260 0.9260
8.981000 0.9260 0.9260 0.9270 0.9260 0.9260
9.018933 0.9260 0.9270 0.9270 0.9270 0.9270
9.057000 0.9270 0.9260 0.9260 0.9260 0.9260
9.094933 0.9260 0.9260 0.9240 0.9240 0.9240
9.133000 0.9240 0.9240 0.9240 0.9240 0.9240
9.170933 0.9240 0.9240 0.9240 0.9260 0.9270
9.209000 0.9270 0.9270 0.9270 0.9260 0.9260
9.246933 0.9260 0.9260 0.9240 0.9240 0.9240
9.285000 0.9240 0.9240 0.9240 0.9240 0.9240
9.322933 0.9240 0.9240 0.9240 0.9240 0.9240
9.361000 0.9240 0.9240 0.9240 0.9260 0.9240
9.398933 0.9240 0.9240 0.9240 0.9240 0.9230
9.436000 0.9230 0.9230 0.9230 0.9230 0.9230
9.473933 0.9230 0.9230 0.9230 0.9230 0.9230
9.512000 0.9230 0.9230 0.9230 0.9230 0.9230
9.549933 0.9230 0.9230 0.9230 0.9230 0.9210
9.588000 0.9210 0.9210 0.9210 0.9210 0.9210
9.625933 0.9210 0.9200 0.9200 0.9200 0.9200
9.664000 0.9200 0.9200 0.9200 0.9200 0.9180
9.701933 0.9180 0.9180 0.9180 0.9180 0.9200
9.740000 0.9200 0.9200 0.9200 0.9210 0.9210
9.777933 0.9210 0.9210 0.9210 0.9210 0.9210
9.816000 0.9210 0.9210 0.9210 0.9210 0.9210
9.853933 0.9210 0.9210 0.9210 0.9210 0.9230
9.891000 0.9230 0.9240 0.9240 0.9240 0.9240
9.928933 0.9240 0.9240 0.9240 0.9240 0.9240
9.967000 0.9240 0.9240 0.9240 0.9240 0.9240
10.004933 0.9230 0.9210 0.9210 0.9210 0.9210
10.043000 0.9210 0.9210 0.9230 0.9230 0.9230
10.080933 0.9230 0.9230 0.9230 0.9230 0.9240
10.119000 0.9240 0.9240 0.9240 0.9260 0.9260
10.156933 0.9240 0.9240 0.9240 0.9240 0.9240
10.195000 0.9240 0.9240 0.9240 0.9240 0.9240
10.232933 0.9240 0.9240 0.9240 0.9240 0.9260
10.270000 0.9260 0.9260 0.9260 0.9260 0.9260
10.307933 0.9260 0.9260 0.9260 0.9260 0.9260
10.346000 0.9260 0.9260 0.9260 0.9260 0.9260
10.383933 0.9260 0.9260 0.9260 0.9260 0.9260
10.422000 0.9260 0.9260 0.9260 0.9260 0.9260
10.459933 0.9260 0.9260 0.9260 0.9260 0.9260
10.498000 0.9260 0.9260 0.9260 0.9260 0.9260
10.535933 0.9260 0.9260 0.9260 0.9270 0.9260
10.574000 0.9260 0.9260 0.9260 0.9260 0.9260
10.611933 0.9260 0.9260 0.9260 0.9260 0.9260
10.650000 0.9260 0.9260 0.9260 0.9260 0.9260
10.687933 0.9260 0.9260 0.9260 0.9260 0.9240
10.725000 0.9240 0.9240 0.9240 0.9240 0.9240
10.762933 0.9240 0.9240 0.9240 0.9240 0.9230
10.801000 0.9230 0.9230 0.9230 0.9210 0.9210
10.838933 0.9210 0.9200 0.9200 0.9200 0.9180
10.877000 0.9180 0.9170 0.9150 0.9150 0.9140
10.914933 0.9140 0.9140 0.9140 0.9140 0.9140
10.953000 0.9140 0.9140 0.9140 0.9140 0.9140
10.990933 0.9120 0.9120 0.9120 0.9120 0.9140
11.029000 0.9140 0.9120 0.9120 0.9140 0.9140
11.066933 0.9140 0.9140 0.9140 0.9140 0.9140
11.104000 0.9140 0.9140 0.9140 0.9140 0.9150
11.141933 0.9150 0.9150 0.9170 0.9180 0.9180
11.180000 0.9180 0.9180 0.9180 0.9180 0.9180
11.217933 0.9180 0.9180 0.9180 0.9180 0.9180
11.256000 0.9180 0.9180 0.9180 0.9180 0.9180
11.293933 0.9200 0.9200 0.9200 0.9200 0.9200
11.332000 0.9200 0.9210 0.9210 0.9210 0.9210
11.369933 0.9210 0.9210 0.9210 0.9210 0.9210
11.408000 0.9210 0.9210 0.9210 0.9210 0.9210
11.445933 0.9210 0.9210 0.9210 0.9210 0.9210
11.484000 0.9210 0.9210 0.9210 0.9210 0.9210
11.521933 0.9210 0.9200 0.9200 0.9200 0.9180
11.559000 0.9180 0.9180 0.9180 0.9180 0.9180
11.596933 0.9170 0.9170 0.9170 0.9170 0.9150
11.635000 0.9150 0.9140 0.9140 0.9140 0.9140
11.672933 0.9140 0.9140 0.9150 0.9150 0.9150
11.711000 0.9150 0.9150 0.9150 0.9140 0.9140
11.748933 0.9140 0.9140 0.9140 0.9150 0.9150
11.787000 0.9150 0.9150 0.9150 0.9150 0.9150
11.824933 0.9150 0.9150 0.9150 0.9150 0.9150
11.863000 0.9140 0.9140 0.9120 0.9120 0.9120
11.900933 0.9120 0.9120 0.9110 0.9110 0.9090
11.939000 0.9090 0.9090 0.9090 0.9090 0.9090
11.976933 0.9090 0.9080 0.9080 0.9080 0.9050
12.014000 0.9030 0.9030 0.9030 0.9020 0.9020
12.051933 0.9010 0.9010 0.9010 0.8990 0.8990
12.090000 0.8990 0.8980 0.8960 0.8950 0.8950
12.127933 0.8950 0.8930 0.8920 0.8900 0.8870
12.166000 0.8840 0.8810 0.8800 0.8770 0.8750
12.203933 0.8720 0.8700 0.8650 0.8610 0.8580
12.242000 0.8530 0.8490 0.8460 0.8410 0.8400
12.279933 0.8370 0.8310 0.8240 0.8180 0.8100
12.318000 0.7970 0.7940 0.7840 0.7780 0.7710
12.355933 0.7650 0.7560 0.7440 0.7400 0.7340
12.393000 0.7260 0.7110 0.7000 0.6950 0.6890
12.430933 0.6830 0.6750 0.6660 0.6610 0.6540
12.469000 0.6460 0.6380 0.6290 0.6270 0.6260
12.506933 0.6230 0.6200 0.6170 0.6170 0.6150
12.545000 0.6140 0.6140 0.6140 0.6140 0.6140
12.582933 0.6150 0.6200 0.6230 0.6270 0.6360
12.621000 0.6420 0.6460 0.6540 0.6600 0.6660
12.658933 0.6770 0.6830 0.6880 0.6920 0.6980
12.697000 0.7030 0.7070 0.7140 0.7190 0.7260
12.734933 0.7280 0.7310 0.7380 0.7410 0.7470
12.773000 0.7500 0.7530 0.7540 0.7590 0.7630
12.810933 0.7660 0.7690 0.7720 0.7760 0.7790
12.848000 0.7820 0.7840 0.7880 0.7900 0.7940
12.885933 0.7970 0.7990 0.8060 0.8070 0.8100
12.924000 0.8120 0.8130 0.8150 0.8160 0.8180
12.961933 0.8190 0.8210 0.8240 0.8250 0.8270
13.000000 0.8270 0.8280 0.8310 0.8360 0.8360
13.037933 0.8370 0.8370 0.8380 0.8380 0.8400
13.076000 0.8410 0.8430 0.8430 0.8430 0.8440
13.113933 0.8440 0.8440 0.8460 0.8460 0.8460
13.152000 0.8470 0.8490 0.8500 0.8520 0.8530
13.189933 0.8550 0.8550 0.8560 0.8560 0.8560
13.227000 0.8560 0.8560 0.8580 0.8580 0.8580
13.264933 0.8590 0.8590 0.8590 0.8590 0.8590
13.303000 0.8610 0.8610 0.8610 0.8610 0.8620
13.340933 0.8620 0.8620 0.8620 0.8620 0.8620
13.379000 0.8620 0.8620 0.8620 0.8620 0.8620
13.416933 0.8620 0.8620 0.8620 0.8620 0.8640
13.455000 0.8640 0.8650 0.8650 0.8650 0.8650
13.492933 0.8640 0.8640 0.8640 0.8640 0.8650
13.531000 0.8650 0.8650 0.8650 0.8650 0.8670
13.568933 0.8670 0.8670 0.8670 0.8670 0.8650
13.607000 0.8650 0.8650 0.8640 0.8640 0.8640
13.644933 0.8640 0.8640 0.8640 0.8640 0.8640
13.682000 0.8640 0.8640 0.8640 0.8640 0.8640
13.719933 0.8640 0.8650 0.8650 0.8650 0.8640
13.758000 0.8640 0.8640 0.8640 0.8640 0.8640
13.795933 0.8620 0.8620 0.8620 0.8620 0.8620
13.834000 0.8620 0.8620 0.8620 0.8620 0.8620
13.871933 0.8620 0.8620 0.8620 0.8620 0.8620
13.910000 0.8620 0.8620 0.8620 0.8620 0.8620
13.947933 0.8620 0.8640 0.8640 0.8620 0.8620
13.986000 0.8620 0.8620 0.8620 0.8610 0.8610
14.023933 0.8590 0.8590 0.8590 0.8590 0.8590
14.061000 0.8590 0.8590 0.8590 0.8590 0.8590
14.098933 0.8590 0.8590 0.8590 0.8590 0.8590
14.137000 0.8590 0.8590 0.8590 0.8590 0.8590
14.174933 0.8590 0.8590 0.8590 0.8590 0.8590
14.213000 0.8590 0.8590 0.8590 0.8580 0.8560
14.250933 0.8560 0.8550 0.8550 0.8550 0.8550
14.289000 0.8530 0.8530 0.8530 0.8530 0.8550
14.326933 0.8550 0.8550 0.8560 0.8560 0.8560
14.365000 0.8560 0.8560 0.8550 0.8550 0.8550
14.402933 0.8560 0.8560 0.8580 0.8580 0.8580
14.441000 0.8580 0.8580 0.8580 0.8580 0.8580
14.478933 0.8580 0.8580 0.8580 0.8560 0.8560
14.516000 0.8560 0.8560 0.8560 0.8580 0.8580
14.553933 0.8580 0.8590 0.8590 0.8590 0.8590
14.592000 0.8590 0.8590 0.8590 0.8590 0.8590
14.629933 0.8590 0.8590 0.8590 0.8590 0.8590
14.668000 0.8590 0.8590 0.8590 0.8590 0.8590
14.705933 0.8590 0.8590 0.8610 0.8610 0.8590
14.744000 0.8590 0.8590 0.8610 0.8610 0.8610
14.781933 0.8610 0.8610 0.8610 0.8610 0.8610
14.820000 0.8620 0.8620 0.8620 0.8620 0.8620
14.857933 0.8620 0.8620 0.8620 0.8620 0.8640
14.896000 0.8620 0.8620 0.8620 0.8620 0.8620
14.933933 0.8620 0.8620 0.8620
##END=
