##TITLE=Guanosine
##JCAMP-DX=4.24
##DATA TYPE=INFRARED SPECTRUM
##CLASS=COBLENTZ III
##ORIGIN=SOUTHERN RESEARCH INSTITUTE
##OWNER=Copyright (C) 1987 by the Coblentz Society
Collection (C) 2018 copyright by the U.S. Secretary of Commerce
on behalf of the United States of America. All rights reserved.
##DATE=1955/12/07
##MOLFORM=C10 H13 N5 O5
##SOURCE REFERENCE=COBLENTZ NO. 6804
##$NIST ID=B6006804
##$NIST SOURCE=COBLENTZ
##$NIST IMAGE=cob6804
##SPECTROMETER/DATA SYSTEM=PERKIN-ELMER 21 (GRATING)
##INSTRUMENT PARAMETERS=FILTER CHANGE ABOUT 1020 CM^-^1
##STATE=SOLID (0.8 mg / 650 mg KBr DISC)
##RESOLUTION=2
##DATA PROCESSING=(ADJUSTED \addcm-1\10-5-2\)
##XUNITS=1/CM
##YUNITS=TRANSMITTANCE
##XFACTOR=1.0
##YFACTOR=1
##DELTAX=1.007570
##FIRSTX=602.02
##LASTX=3925.99
##FIRSTY=0.3632
##MAXX=3925.99
##MINX=602.02
##MAXY=0.8011
##MINY=0.0355165
##NPOINTS=3300
##XYDATA=(X++(Y..Y))
602.020000 0.3632 0.3634 0.3636 0.3638 0.3641
607.057848 0.3645 0.3648 0.3651 0.3655 0.3658
612.095697 0.3662 0.3665 0.3668 0.3672 0.3674
617.133545 0.3676 0.3679 0.3682 0.3684 0.3687
622.171394 0.3689 0.3690 0.3691 0.3692 0.3692
627.209242 0.3693 0.3694 0.3696 0.3700 0.3703
632.247091 0.3708 0.3717 0.3726 0.3736 0.3746
637.284939 0.3755 0.3765 0.3776 0.3788 0.3800
642.322788 0.3812 0.3822 0.3829 0.3835 0.3840
647.360636 0.3845 0.3847 0.3852 0.3848 0.3826
652.398485 0.3811 0.3793 0.3773 0.3752 0.3728
657.436333 0.3698 0.3667 0.3635 0.3604 0.3569
662.474182 0.3526 0.3480 0.3434 0.3387 0.3341
667.512030 0.3295 0.3250 0.3205 0.3159 0.3117
672.549879 0.3083 0.3047 0.3014 0.2997 0.2989
677.587727 0.2988 0.3002 0.3018 0.3043 0.3082
682.625576 0.3134 0.3196 0.3261 0.3326 0.3407
687.663424 0.3479 0.3520 0.3561 0.3605 0.3650
692.701273 0.3696 0.3729 0.3756 0.3782 0.3808
697.739121 0.3834 0.3860 0.3885 0.3911 0.3937
702.776970 0.3962 0.3988 0.4016 0.4051 0.4084
707.814818 0.4115 0.4149 0.4192 0.4222 0.4239
712.852667 0.4247 0.4253 0.4258 0.4262 0.4266
717.890515 0.4271 0.4275 0.4278 0.4281 0.4283
722.928364 0.4286 0.4288 0.4291 0.4303 0.4328
727.966212 0.4356 0.4384 0.4412 0.4439 0.4467
733.004061 0.4494 0.4521 0.4549 0.4576 0.4603
738.041909 0.4630 0.4656 0.4683 0.4703 0.4714
743.079758 0.4725 0.4747 0.4785 0.4829 0.4881
748.117606 0.4916 0.4952 0.4988 0.5024 0.5058
753.155455 0.5084 0.5099 0.5113 0.5121 0.5130
758.193303 0.5112 0.5107 0.5095 0.5082 0.5068
763.231152 0.5055 0.5034 0.5012 0.4991 0.4968
768.269000 0.4914 0.4668 0.4419 0.4170 0.3922
773.306848 0.3673 0.3425 0.3176 0.3142 0.3135
778.344697 0.3604 0.3980 0.4298 0.4363 0.4382
783.382545 0.4392 0.4393 0.4392 0.4388 0.4382
788.420394 0.4375 0.4360 0.4342 0.4324 0.4307
793.458242 0.4299 0.4294 0.4289 0.4290 0.4293
798.496091 0.4300 0.4351 0.4456 0.4577 0.4698
803.533939 0.4774 0.4796 0.4800 0.4803 0.4804
808.571788 0.4805 0.4805 0.4804 0.4802 0.4801
813.609636 0.4798 0.4793 0.4789 0.4787 0.4786
818.647485 0.4788 0.4791 0.4794 0.4799 0.4812
823.685333 0.4831 0.4853 0.4881 0.4919 0.4964
828.723182 0.5004 0.5040 0.5074 0.5107 0.5129
833.761030 0.5138 0.5147 0.5157 0.5150 0.5146
838.798879 0.5142 0.5131 0.5104 0.5074 0.5044
843.836727 0.5012 0.4959 0.4905 0.4861 0.4817
848.874576 0.4772 0.4728 0.4683 0.4639 0.4596
853.912424 0.4553 0.4520 0.4488 0.4456 0.4428
858.950273 0.4401 0.4373 0.4350 0.4327 0.4304
863.988121 0.4281 0.4260 0.4240 0.4219 0.4207
869.025970 0.4186 0.4195 0.4204 0.4210 0.4216
874.063818 0.4226 0.4237 0.4249 0.4259 0.4270
879.101667 0.4283 0.4298 0.4312 0.4327 0.4341
884.139515 0.4355 0.4369 0.4383 0.4397 0.4409
889.177364 0.4421 0.4433 0.4445 0.4458 0.4472
894.215212 0.4486 0.4497 0.4503 0.4508 0.4512
899.253061 0.4512 0.4511 0.4509 0.4506 0.4505
904.290909 0.4507 0.4516 0.4529 0.4555 0.4584
909.328758 0.4618 0.4657 0.4708 0.4761 0.4803
914.366606 0.4843 0.4884 0.4924 0.4966 0.5007
919.404455 0.5048 0.5089 0.5130 0.5171 0.5212
924.442303 0.5252 0.5281 0.5293 0.5304 0.5311
929.480152 0.5318 0.5321 0.5323 0.5326 0.5330
934.518000 0.5333 0.5336 0.5338 0.5341 0.5343
939.555848 0.5359 0.5375 0.5391 0.5411 0.5436
944.593697 0.5460 0.5477 0.5492 0.5500 0.5505
949.631545 0.5510 0.5509 0.5502 0.5501 0.5497
954.669394 0.5492 0.5484 0.5472 0.5460 0.5445
959.707242 0.5429 0.5414 0.5399 0.5378 0.5354
964.745091 0.5330 0.5296 0.5250 0.5177 0.5084
969.782939 0.4993 0.4906 0.4826 0.4764 0.4712
974.820788 0.4660 0.4611 0.4565 0.4521 0.4483
979.858636 0.4458 0.4448 0.4448 0.4450 0.4454
984.896485 0.4461 0.4469 0.4477 0.4488 0.4501
989.934333 0.4515 0.4527 0.4538 0.4547 0.4554
994.972182 0.4557 0.4556 0.4550 0.4510 0.4379
1000.010030 0.4248 0.4117 0.3986 0.3855 0.3725
1005.047879 0.3598 0.3480 0.3344 0.3278 0.3212
1010.085727 0.3167 0.3125 0.3084 0.3046 0.3010
1015.123576 0.2977 0.2957 0.2942 0.2926 0.2903
1020.161424 0.2869 0.2830 0.2781 0.2722 0.2660
1025.199273 0.2601 0.2550 0.2489 0.2428 0.2370
1030.237121 0.2314 0.2265 0.2219 0.2183 0.2153
1035.274970 0.2129 0.2115 0.2101 0.2088 0.2082
1040.312818 0.2079 0.2076 0.2075 0.2074 0.2074
1045.350667 0.2073 0.2072 0.2072 0.2072 0.2071
1050.388515 0.2071 0.2070 0.2070 0.2069 0.2068
1055.426364 0.2067 0.2066 0.2066 0.2065 0.2063
1060.464212 0.2061 0.2059 0.2057 0.2055 0.2053
1065.502061 0.2051 0.2046 0.2037 0.2026 0.2012
1070.539909 0.1987 0.1952 0.1916 0.1879 0.1842
1075.577758 0.1812 0.1790 0.1772 0.1764 0.1762
1080.615606 0.1762 0.1764 0.1769 0.1773 0.1778
1085.653455 0.1782 0.1787 0.1791 0.1795 0.1799
1090.691303 0.1803 0.1808 0.1814 0.1820 0.1826
1095.729152 0.1830 0.1835 0.1839 0.1844 0.1849
1100.767000 0.1854 0.1861 0.1869 0.1878 0.1886
1105.804848 0.1895 0.1904 0.1913 0.1923 0.1934
1110.842697 0.1944 0.1956 0.1968 0.1982 0.1995
1115.880545 0.2008 0.2021 0.2034 0.2046 0.2069
1120.918394 0.2097 0.2137 0.2198 0.2264 0.2328
1125.956242 0.2402 0.2525 0.2635 0.2717 0.2811
1130.994091 0.2917 0.3022 0.3128 0.3234 0.3340
1136.031939 0.3446 0.3551 0.3658 0.3763 0.3869
1141.069788 0.3975 0.4081 0.4187 0.4292 0.4399
1146.107636 0.4505 0.4705 0.4805 0.4824 0.4828
1151.145485 0.4822 0.4842 0.4802 0.4784 0.4767
1156.183333 0.4747 0.4716 0.4630 0.4514 0.4395
1161.221182 0.4275 0.4155 0.4036 0.3917 0.3797
1166.259030 0.3678 0.3559 0.3439 0.3320 0.3211
1171.296879 0.3118 0.3052 0.2998 0.2981 0.2979
1176.334727 0.2979 0.2987 0.2950 0.3008 0.3038
1181.372576 0.3084 0.3128 0.3242 0.3363 0.3485
1186.410424 0.3607 0.3728 0.3849 0.3971 0.4086
1191.448273 0.4124 0.4125 0.4125 0.4126 0.4145
1196.486121 0.4117 0.4112 0.4108 0.4103 0.4095
1201.523970 0.4088 0.4081 0.4071 0.4062 0.4054
1206.561818 0.4046 0.4043 0.4041 0.4039 0.4038
1211.599667 0.4038 0.4038 0.4038 0.4039 0.4041
1216.637515 0.4042 0.4040 0.4038 0.4031 0.4006
1221.675364 0.3966 0.3912 0.3863 0.3825 0.3796
1226.713212 0.3773 0.3762 0.3754 0.3753 0.3747
1231.751061 0.3739 0.3758 0.3771 0.3796 0.3832
1236.788909 0.3881 0.3931 0.3981 0.4029 0.4068
1241.826758 0.4101 0.4123 0.4137 0.4146 0.4158
1246.864606 0.4178 0.4215 0.4265 0.4327 0.4400
1251.902455 0.4474 0.4538 0.4586 0.4619 0.4647
1256.940303 0.4673 0.4695 0.4716 0.4735 0.4753
1261.978152 0.4771 0.4789 0.4807 0.4825 0.4844
1267.016000 0.4868 0.4912 0.4964 0.5002 0.5035
1272.053848 0.5065 0.5090 0.5114 0.5133 0.5148
1277.091697 0.5160 0.5166 0.5179 0.5180 0.5174
1282.129545 0.5175 0.5173 0.5168 0.5160 0.5153
1287.167394 0.5142 0.5129 0.5116 0.5102 0.5086
1292.205242 0.5070 0.5053 0.5035 0.5017 0.4999
1297.243091 0.4984 0.4969 0.4904 0.4811 0.4715
1302.280939 0.4620 0.4524 0.4428 0.4332 0.4236
1307.318788 0.4140 0.4045 0.3949 0.3853 0.3757
1312.356636 0.3662 0.3566 0.3470 0.3374 0.3280
1317.394485 0.3166 0.3089 0.3036 0.3002 0.2994
1322.432333 0.2995 0.3003 0.3013 0.3029 0.3048
1327.470182 0.3067 0.3086 0.3104 0.3116 0.3120
1332.508030 0.3121 0.3120 0.3118 0.3107 0.3084
1337.545879 0.3060 0.3033 0.3004 0.2998 0.2997
1342.583727 0.2996 0.2995 0.2994 0.2993 0.2993
1347.621576 0.2993 0.2993 0.2994 0.2986 0.2971
1352.659424 0.2943 0.2915 0.2883 0.2854 0.2826
1357.697273 0.2798 0.2768 0.2731 0.2699 0.2672
1362.735121 0.2655 0.2649 0.2650 0.2651 0.2653
1367.772970 0.2654 0.2655 0.2657 0.2659 0.2661
1372.810818 0.2662 0.2664 0.2665 0.2666 0.2664
1377.848667 0.2659 0.2653 0.2648 0.2641 0.2625
1382.886515 0.2605 0.2578 0.2550 0.2516 0.2454
1387.924364 0.2396 0.2342 0.2287 0.2229 0.2182
1392.962212 0.2176 0.2170 0.2169 0.2169 0.2169
1398.000061 0.2171 0.2173 0.2175 0.2179 0.2186
1403.037909 0.2196 0.2205 0.2217 0.2236 0.2260
1408.075758 0.2287 0.2319 0.2353 0.2390 0.2429
1413.113606 0.2472 0.2515 0.2555 0.2588 0.2625
1418.151455 0.2675 0.2731 0.2787 0.2843 0.2899
1423.189303 0.2955 0.3011 0.3067 0.3123 0.3179
1428.227152 0.3244 0.3335 0.3450 0.3563 0.3645
1433.265000 0.3715 0.3785 0.3849 0.3904 0.3955
1438.302848 0.4005 0.4056 0.4106 0.4158 0.4211
1443.340697 0.4265 0.4318 0.4360 0.4390 0.4420
1448.378545 0.4451 0.4481 0.4504 0.4519 0.4535
1453.416394 0.4551 0.4563 0.4571 0.4577 0.4583
1458.454242 0.4588 0.4592 0.4596 0.4600 0.4589
1463.492091 0.4584 0.4582 0.4574 0.4563 0.4541
1468.529939 0.4516 0.4483 0.4437 0.4388 0.4322
1473.567788 0.4248 0.4096 0.3890 0.3678 0.3466
1478.605636 0.3255 0.3043 0.2831 0.2619 0.2451
1483.643485 0.2335 0.2225 0.2158 0.2131 0.2125
1488.681333 0.2124 0.2087 0.2118 0.2152 0.2180
1493.719182 0.2211 0.2255 0.2351 0.2516 0.2758
1498.757030 0.3019 0.3279 0.3540 0.3800 0.4061
1503.794879 0.4321 0.4582 0.4842 0.5103 0.5286
1508.832727 0.5357 0.5394 0.5415 0.5444 0.5417
1513.870576 0.5403 0.5393 0.5378 0.5240 0.5035
1518.908424 0.4824 0.4613 0.4401 0.4190 0.3979
1523.946273 0.3767 0.3556 0.3344 0.3133 0.2922
1528.984121 0.2672 0.2585 0.2527 0.2490 0.2457
1534.021970 0.2437 0.2430 0.2430 0.2432 0.2443
1539.059818 0.2464 0.2497 0.2528 0.2562 0.2595
1544.097667 0.2630 0.2669 0.2843 0.2983 0.3114
1549.135515 0.3245 0.3376 0.3507 0.3638 0.3768
1554.173364 0.3789 0.3787 0.3699 0.3554 0.3405
1559.211212 0.3255 0.3106 0.2956 0.2807 0.2657
1564.249061 0.2507 0.2377 0.2306 0.2187 0.2098
1569.286909 0.1982 0.1890 0.1867 0.1859 0.1855
1574.324758 0.1853 0.1853 0.1853 0.1851 0.1830
1579.362606 0.1801 0.1784 0.1745 0.1693 0.1637
1584.400455 0.1587 0.1542 0.1499 0.1450 0.1401
1589.438303 0.1340 0.1267 0.1191 0.1114 0.1045
1594.476152 0.0982 0.0935 0.0905 0.0877 0.0850
1599.514000 0.0827 0.0804 0.0787 0.0779 0.0770
1604.551848 0.0763 0.0760 0.0757 0.0753 0.0750
1609.589697 0.0746 0.0742 0.0733 0.0708 0.0676
1614.627545 0.0635 0.0595 0.0555 0.0517 0.0481
1619.665394 0.0445 0.0417 0.0399 0.0382 0.0371
1624.703242 0.0375 0.0355 0.0381 0.0386 0.0391
1629.741091 0.0397 0.0407 0.0419 0.0430 0.0441
1634.778939 0.0452 0.0470 0.0488 0.0505 0.0523
1639.816788 0.0549 0.0578 0.0606 0.0634 0.0663
1644.854636 0.0702 0.0760 0.0873 0.1123 0.1304
1649.892485 0.1425 0.1482 0.1499 0.1505 0.1504
1654.930333 0.1520 0.1500 0.1494 0.1490 0.1485
1659.968182 0.1474 0.1463 0.1440 0.1415 0.1385
1665.006030 0.1359 0.1333 0.1301 0.1193 0.1006
1670.043879 0.0923 0.0860 0.0843 0.0828 0.0814
1675.081727 0.0802 0.0789 0.0783 0.0779 0.0775
1680.119576 0.0776 0.0776 0.0776 0.0776 0.0769
1685.157424 0.0783 0.0787 0.0795 0.0808 0.0820
1690.195273 0.0832 0.0846 0.0861 0.0875 0.0890
1695.233121 0.0908 0.0926 0.0946 0.1020 0.1090
1700.270970 0.1154 0.1206 0.1243 0.1268 0.1291
1705.308818 0.1306 0.1320 0.1334 0.1346 0.1357
1710.346667 0.1367 0.1374 0.1380 0.1386 0.1391
1715.384515 0.1395 0.1389 0.1383 0.1375 0.1365
1720.422364 0.1366 0.1369 0.1373 0.1378 0.1385
1725.460212 0.1403 0.1426 0.1454 0.1480 0.1508
1730.498061 0.1563 0.1766 0.1796 0.1810 0.1822
1735.535909 0.1839 0.1969 0.2108 0.2246 0.2384
1740.573758 0.2522 0.2662 0.2800 0.2938 0.3076
1745.611606 0.3215 0.3353 0.3511 0.3998 0.4115
1750.649455 0.4213 0.4315 0.4473 0.4657 0.4761
1755.687303 0.4865 0.4978 0.5101 0.5204 0.5292
1760.725152 0.5382 0.5484 0.5590 0.5691 0.5782
1765.763000 0.5863 0.5936 0.5990 0.6045 0.6099
1770.800848 0.6148 0.6192 0.6237 0.6284 0.6338
1775.838697 0.6392 0.6445 0.6478 0.6511 0.6544
1780.876545 0.6577 0.6607 0.6634 0.6662 0.6689
1785.914394 0.6714 0.6731 0.6748 0.6765 0.6782
1790.952242 0.6801 0.6819 0.6836 0.6852 0.6865
1795.990091 0.6878 0.6892 0.6907 0.6921 0.6934
1801.027939 0.6945 0.6950 0.6955 0.6959 0.6963
1806.065788 0.6967 0.6970 0.6971 0.6972 0.6972
1811.103636 0.6972 0.6972 0.6972 0.6972 0.6972
1816.141485 0.6971 0.6971 0.6970 0.6970 0.6969
1821.179333 0.6968 0.6967 0.6966 0.6965 0.6965
1826.217182 0.6964 0.6964 0.6964 0.6964 0.6964
1831.255030 0.6964 0.6965 0.6965 0.6967 0.6968
1836.292879 0.6970 0.6976 0.6982 0.6988 0.6997
1841.330727 0.7008 0.7020 0.7032 0.7043 0.7055
1846.368576 0.7068 0.7082 0.7096 0.7110 0.7127
1851.406424 0.7144 0.7161 0.7178 0.7195 0.7212
1856.444273 0.7228 0.7244 0.7259 0.7272 0.7286
1861.482121 0.7300 0.7313 0.7327 0.7340 0.7353
1866.519970 0.7365 0.7378 0.7389 0.7401 0.7413
1871.557818 0.7424 0.7436 0.7447 0.7459 0.7474
1876.595667 0.7490 0.7504 0.7512 0.7520 0.7527
1881.633515 0.7535 0.7542 0.7550 0.7559 0.7568
1886.671364 0.7577 0.7587 0.7596 0.7605 0.7614
1891.709212 0.7624 0.7633 0.7642 0.7652 0.7665
1896.747061 0.7677 0.7690 0.7703 0.7715 0.7724
1901.784909 0.7732 0.7740 0.7748 0.7755 0.7763
1906.822758 0.7770 0.7778 0.7785 0.7793 0.7800
1911.860606 0.7807 0.7814 0.7822 0.7829 0.7836
1916.898455 0.7843 0.7850 0.7858 0.7865 0.7872
1921.936303 0.7877 0.7882 0.7888 0.7893 0.7898
1926.974152 0.7904 0.7907 0.7911 0.7915 0.7919
1932.012000 0.7923 0.7927 0.7931 0.7934 0.7938
1937.049848 0.7942 0.7945 0.7948 0.7950 0.7950
1942.087697 0.7951 0.7951 0.7951 0.7951 0.7953
1947.125545 0.7955 0.7957 0.7959 0.7961 0.7963
1952.163394 0.7965 0.7967 0.7969 0.7971 0.7973
1957.201242 0.7976 0.7978 0.7980 0.7982 0.7984
1962.239091 0.7986 0.7988 0.7990 0.7992 0.7994
1967.276939 0.7996 0.7998 0.8001 0.8003 0.8005
1972.314788 0.8008 0.8009 0.8009 0.8010 0.8010
1977.352636 0.8010 0.8010 0.8010 0.8011 0.8011
1982.390485 0.8011 0.8011 0.8011 0.8010 0.8008
1987.428333 0.8006 0.8004 0.8003 0.8001 0.7999
1992.466182 0.7998 0.7996 0.7994 0.7993 0.7991
1997.504030 0.7982 0.7968 0.7986 0.7985 0.7983
2002.541879 0.7982 0.7981 0.7979 0.7978 0.7976
2007.579727 0.7975 0.7974 0.7972 0.7971 0.7969
2012.617576 0.7968 0.7967 0.7965 0.7964 0.7963
2017.655424 0.7962 0.7960 0.7959 0.7958 0.7957
2022.693273 0.7955 0.7954 0.7953 0.7951 0.7950
2027.731121 0.7948 0.7946 0.7945 0.7943 0.7941
2032.768970 0.7939 0.7938 0.7936 0.7934 0.7933
2037.806818 0.7931 0.7929 0.7928 0.7926 0.7925
2042.844667 0.7923 0.7922 0.7920 0.7919 0.7917
2047.882515 0.7916 0.7914 0.7913 0.7911 0.7910
2052.920364 0.7908 0.7907 0.7905 0.7904 0.7903
2057.958212 0.7901 0.7900 0.7898 0.7896 0.7893
2062.996061 0.7890 0.7887 0.7884 0.7881 0.7878
2068.033909 0.7875 0.7872 0.7869 0.7867 0.7865
2073.071758 0.7863 0.7861 0.7858 0.7856 0.7854
2078.109606 0.7852 0.7849 0.7847 0.7845 0.7843
2083.147455 0.7840 0.7839 0.7838 0.7837 0.7836
2088.185303 0.7835 0.7834 0.7833 0.7832 0.7831
2093.223152 0.7830 0.7829 0.7828 0.7828 0.7827
2098.261000 0.7827 0.7827 0.7826 0.7826 0.7825
2103.298848 0.7824 0.7824 0.7823 0.7823 0.7822
2108.336697 0.7821 0.7821 0.7819 0.7817 0.7815
2113.374545 0.7814 0.7812 0.7810 0.7808 0.7807
2118.412394 0.7805 0.7803 0.7801 0.7800 0.7798
2123.450242 0.7796 0.7794 0.7793 0.7791 0.7790
2128.488091 0.7789 0.7787 0.7786 0.7784 0.7783
2133.525939 0.7782 0.7780 0.7779 0.7777 0.7776
2138.563788 0.7775 0.7773 0.7772 0.7770 0.7768
2143.601636 0.7766 0.7764 0.7762 0.7761 0.7759
2148.639485 0.7757 0.7755 0.7753 0.7751 0.7749
2153.677333 0.7746 0.7743 0.7741 0.7738 0.7735
2158.715182 0.7732 0.7729 0.7726 0.7724 0.7721
2163.753030 0.7718 0.7714 0.7710 0.7706 0.7701
2168.790879 0.7696 0.7691 0.7686 0.7681 0.7676
2173.828727 0.7671 0.7666 0.7661 0.7656 0.7652
2178.866576 0.7646 0.7640 0.7635 0.7629 0.7623
2183.904424 0.7618 0.7612 0.7607 0.7601 0.7595
2188.942273 0.7590 0.7584 0.7579 0.7573 0.7567
2193.980121 0.7561 0.7555 0.7548 0.7540 0.7533
2199.017970 0.7526 0.7519 0.7511 0.7504 0.7497
2204.055818 0.7490 0.7482 0.7474 0.7466 0.7456
2209.093667 0.7446 0.7437 0.7427 0.7417 0.7408
2214.131515 0.7398 0.7388 0.7379 0.7369 0.7360
2219.169364 0.7350 0.7339 0.7329 0.7318 0.7307
2224.207212 0.7297 0.7286 0.7276 0.7265 0.7254
2229.245061 0.7244 0.7233 0.7223 0.7212 0.7201
2234.282909 0.7191 0.7180 0.7169 0.7158 0.7147
2239.320758 0.7136 0.7125 0.7114 0.7104 0.7093
2244.358606 0.7082 0.7071 0.7060 0.7049 0.7038
2249.396455 0.7027 0.7016 0.7006 0.6995 0.6985
2254.434303 0.6975 0.6964 0.6954 0.6944 0.6933
2259.472152 0.6923 0.6913 0.6902 0.6892 0.6882
2264.510000 0.6871 0.6861 0.6851 0.6841 0.6831
2269.547848 0.6820 0.6810 0.6800 0.6790 0.6780
2274.585697 0.6771 0.6762 0.6753 0.6744 0.6735
2279.623545 0.6726 0.6717 0.6708 0.6699 0.6690
2284.661394 0.6681 0.6673 0.6666 0.6659 0.6652
2289.699242 0.6646 0.6639 0.6632 0.6625 0.6618
2294.737091 0.6612 0.6607 0.6602 0.6597 0.6592
2299.774939 0.6587 0.6582 0.6577 0.6573 0.6570
2304.812788 0.6566 0.6563 0.6559 0.6555 0.6552
2309.850636 0.6548 0.6544 0.6540 0.6536 0.6531
2314.888485 0.6527 0.6523 0.6519 0.6515 0.6511
2319.926333 0.6507 0.6503 0.6498 0.6494 0.6490
2324.964182 0.6486 0.6481 0.6476 0.6470 0.6464
2330.002030 0.6458 0.6449 0.6439 0.6427 0.6416
2335.039879 0.6404 0.6392 0.6381 0.6369 0.6357
2340.077727 0.6346 0.6334 0.6322 0.6310 0.6298
2345.115576 0.6286 0.6274 0.6262 0.6250 0.6238
2350.153424 0.6224 0.6209 0.6194 0.6178 0.6163
2355.191273 0.6147 0.6133 0.6120 0.6106 0.6093
2360.229121 0.6079 0.6066 0.6053 0.6039 0.6026
2365.266970 0.6013 0.5999 0.5985 0.5971 0.5957
2370.304818 0.5942 0.5928 0.5914 0.5900 0.5886
2375.342667 0.5872 0.5858 0.5846 0.5834 0.5821
2380.380515 0.5809 0.5797 0.5785 0.5773 0.5761
2385.418364 0.5748 0.5736 0.5725 0.5715 0.5706
2390.456212 0.5697 0.5688 0.5679 0.5670 0.5661
2395.494061 0.5652 0.5643 0.5634 0.5625 0.5615
2400.531909 0.5606 0.5595 0.5585 0.5574 0.5563
2405.569758 0.5553 0.5542 0.5532 0.5521 0.5511
2410.607606 0.5500 0.5490 0.5479 0.5469 0.5458
2415.645455 0.5448 0.5437 0.5426 0.5416 0.5405
2420.683303 0.5395 0.5384 0.5373 0.5363 0.5352
2425.721152 0.5342 0.5331 0.5321 0.5310 0.5300
2430.759000 0.5288 0.5277 0.5266 0.5255 0.5243
2435.796848 0.5232 0.5221 0.5209 0.5198 0.5187
2440.834697 0.5175 0.5164 0.5153 0.5142 0.5132
2445.872545 0.5121 0.5111 0.5100 0.5090 0.5080
2450.910394 0.5069 0.5059 0.5048 0.5038 0.5027
2455.948242 0.5017 0.5006 0.4996 0.4986 0.4975
2460.986091 0.4965 0.4954 0.4944 0.4934 0.4923
2466.023939 0.4913 0.4903 0.4892 0.4882 0.4871
2471.061788 0.4861 0.4851 0.4840 0.4830 0.4820
2476.099636 0.4809 0.4799 0.4788 0.4778 0.4768
2481.137485 0.4757 0.4747 0.4737 0.4726 0.4715
2486.175333 0.4703 0.4692 0.4680 0.4671 0.4663
2491.213182 0.4654 0.4646 0.4638 0.4629 0.4621
2496.251030 0.4613 0.4604 0.4593 0.4581 0.4569
2501.288879 0.4558 0.4546 0.4534 0.4523 0.4511
2506.326727 0.4499 0.4487 0.4476 0.4464 0.4452
2511.364576 0.4441 0.4429 0.4416 0.4404 0.4391
2516.402424 0.4379 0.4366 0.4354 0.4341 0.4329
2521.440273 0.4316 0.4304 0.4292 0.4279 0.4267
2526.478121 0.4254 0.4241 0.4227 0.4212 0.4198
2531.515970 0.4183 0.4165 0.4147 0.4129 0.4115
2536.553818 0.4102 0.4089 0.4076 0.4063 0.4051
2541.591667 0.4038 0.4025 0.4012 0.3999 0.3986
2546.629515 0.3973 0.3960 0.3947 0.3934 0.3921
2551.667364 0.3908 0.3895 0.3884 0.3873 0.3861
2556.705212 0.3849 0.3838 0.3827 0.3815 0.3804
2561.743061 0.3793 0.3781 0.3770 0.3758 0.3745
2566.780909 0.3732 0.3720 0.3707 0.3695 0.3683
2571.818758 0.3672 0.3661 0.3651 0.3640 0.3629
2576.856606 0.3618 0.3608 0.3597 0.3586 0.3575
2581.894455 0.3565 0.3554 0.3543 0.3532 0.3521
2586.932303 0.3511 0.3500 0.3489 0.3479 0.3471
2591.970152 0.3464 0.3458 0.3451 0.3444 0.3438
2597.008000 0.3431 0.3424 0.3419 0.3415 0.3412
2602.045848 0.3408 0.3404 0.3401 0.3397 0.3393
2607.083697 0.3390 0.3386 0.3383 0.3379 0.3375
2612.121545 0.3372 0.3368 0.3365 0.3361 0.3357
2617.159394 0.3353 0.3349 0.3345 0.3342 0.3338
2622.197242 0.3334 0.3330 0.3326 0.3321 0.3317
2627.235091 0.3313 0.3309 0.3305 0.3301 0.3296
2632.272939 0.3292 0.3289 0.3288 0.3287 0.3286
2637.310788 0.3285 0.3284 0.3283 0.3282 0.3280
2642.348636 0.3279 0.3278 0.3277 0.3276 0.3275
2647.386485 0.3274 0.3273 0.3272 0.3270 0.3268
2652.424333 0.3265 0.3263 0.3261 0.3259 0.3256
2657.462182 0.3254 0.3252 0.3250 0.3247 0.3247
2662.500030 0.3244 0.3241 0.3238 0.3236 0.3234
2667.537879 0.3231 0.3229 0.3226 0.3224 0.3221
2672.575727 0.3218 0.3216 0.3213 0.3211 0.3209
2677.613576 0.3207 0.3205 0.3203 0.3201 0.3199
2682.651424 0.3197 0.3195 0.3193 0.3191 0.3189
2687.689273 0.3187 0.3185 0.3183 0.3181 0.3180
2692.727121 0.3178 0.3176 0.3174 0.3173 0.3171
2697.764970 0.3169 0.3167 0.3166 0.3164 0.3162
2702.802818 0.3160 0.3157 0.3155 0.3153 0.3151
2707.840667 0.3149 0.3146 0.3144 0.3143 0.3142
2712.878515 0.3142 0.3141 0.3141 0.3141 0.3140
2717.916364 0.3142 0.3143 0.3145 0.3146 0.3147
2722.954212 0.3149 0.3151 0.3154 0.3157 0.3160
2727.992061 0.3164 0.3167 0.3170 0.3173 0.3175
2733.029909 0.3178 0.3181 0.3183 0.3186 0.3188
2738.067758 0.3192 0.3197 0.3203 0.3207 0.3211
2743.105606 0.3215 0.3220 0.3225 0.3225 0.3225
2748.143455 0.3226 0.3227 0.3228 0.3229 0.3230
2753.181303 0.3232 0.3233 0.3234 0.3238 0.3247
2758.219152 0.3257 0.3268 0.3280 0.3291 0.3302
2763.257000 0.3314 0.3327 0.3340 0.3352 0.3362
2768.294848 0.3373 0.3373 0.3372 0.3372 0.3371
2773.332697 0.3370 0.3370 0.3368 0.3378 0.3363
2778.370545 0.3362 0.3361 0.3361 0.3360 0.3355
2783.408394 0.3349 0.3344 0.3338 0.3331 0.3324
2788.446242 0.3318 0.3314 0.3309 0.3305 0.3300
2793.484091 0.3298 0.3297 0.3296 0.3295 0.3294
2798.521939 0.3293 0.3292 0.3292 0.3291 0.3291
2803.559788 0.3291 0.3290 0.3290 0.3290 0.3290
2808.597636 0.3288 0.3285 0.3282 0.3280 0.3277
2813.635485 0.3275 0.3272 0.3269 0.3266 0.3263
2818.673333 0.3260 0.3256 0.3253 0.3250 0.3247
2823.711182 0.3244 0.3241 0.3237 0.3234 0.3231
2828.749030 0.3228 0.3225 0.3221 0.3218 0.3215
2833.786879 0.3212 0.3209 0.3205 0.3202 0.3199
2838.824727 0.3195 0.3191 0.3186 0.3182 0.3177
2843.862576 0.3173 0.3169 0.3164 0.3160 0.3155
2848.900424 0.3151 0.3147 0.3142 0.3138 0.3133
2853.938273 0.3129 0.3125 0.3120 0.3116 0.3112
2858.976121 0.3109 0.3106 0.3102 0.3099 0.3096
2864.013970 0.3093 0.3089 0.3086 0.3083 0.3080
2869.051818 0.3076 0.3073 0.3070 0.3066 0.3063
2874.089667 0.3060 0.3057 0.3053 0.3049 0.3045
2879.127515 0.3041 0.3037 0.3033 0.3028 0.3024
2884.165364 0.3020 0.3016 0.3012 0.3008 0.3004
2889.203212 0.3000 0.2995 0.2991 0.2987 0.2983
2894.241061 0.2979 0.2975 0.2972 0.2968 0.2964
2899.278909 0.2961 0.2957 0.2953 0.2950 0.2946
2904.316758 0.2942 0.2938 0.2935 0.2931 0.2927
2909.354606 0.2924 0.2919 0.2915 0.2910 0.2906
2914.392455 0.2902 0.2897 0.2893 0.2888 0.2884
2919.430303 0.2880 0.2878 0.2876 0.2874 0.2872
2924.468152 0.2870 0.2868 0.2867 0.2867 0.2866
2929.506000 0.2866 0.2866 0.2866 0.2865 0.2865
2934.543848 0.2865 0.2868 0.2870 0.2872 0.2874
2939.581697 0.2878 0.2882 0.2886 0.2890 0.2895
2944.619545 0.2901 0.2917 0.2932 0.2947 0.2962
2949.657394 0.2978 0.2993 0.3008 0.3023 0.3040
2954.695242 0.3058 0.3077 0.3095 0.3114 0.3133
2959.733091 0.3153 0.3174 0.3194 0.3212 0.3225
2964.770939 0.3238 0.3251 0.3264 0.3274 0.3284
2969.808788 0.3293 0.3298 0.3303 0.3309 0.3314
2974.846636 0.3319 0.3324 0.3331 0.3339 0.3346
2979.884485 0.3354 0.3361 0.3369 0.3376 0.3384
2984.922333 0.3391 0.3398 0.3402 0.3407 0.3411
2989.960182 0.3412 0.3413 0.3419 0.3434 0.3414
2994.998030 0.3413 0.3413 0.3411 0.3407 0.3403
3000.035879 0.3399 0.3395 0.3389 0.3382 0.3376
3005.073727 0.3369 0.3363 0.3355 0.3346 0.3336
3010.111576 0.3326 0.3316 0.3306 0.3295 0.3285
3015.149424 0.3273 0.3261 0.3248 0.3236 0.3224
3020.187273 0.3212 0.3200 0.3187 0.3175 0.3162
3025.225121 0.3150 0.3137 0.3125 0.3113 0.3102
3030.262970 0.3092 0.3081 0.3072 0.3065 0.3058
3035.300818 0.3051 0.3045 0.3038 0.3034 0.3030
3040.338667 0.3026 0.3022 0.3018 0.3014 0.3010
3045.376515 0.3004 0.2994 0.2979 0.2961 0.2943
3050.414364 0.2923 0.2903 0.2881 0.2858 0.2836
3055.452212 0.2813 0.2791 0.2765 0.2740 0.2714
3060.490061 0.2688 0.2662 0.2638 0.2615 0.2592
3065.527909 0.2569 0.2545 0.2522 0.2500 0.2483
3070.565758 0.2466 0.2449 0.2432 0.2415 0.2399
3075.603606 0.2382 0.2365 0.2348 0.2331 0.2315
3080.641455 0.2298 0.2283 0.2269 0.2256 0.2242
3085.679303 0.2228 0.2214 0.2200 0.2186 0.2172
3090.717152 0.2158 0.2144 0.2129 0.2115 0.2102
3095.755000 0.2090 0.2078 0.2066 0.2055 0.2043
3100.792848 0.2031 0.2020 0.2008 0.1996 0.1984
3105.830697 0.1973 0.1961 0.1949 0.1938 0.1926
3110.868545 0.1914 0.1902 0.1891 0.1879 0.1867
3115.906394 0.1856 0.1844 0.1833 0.1823 0.1812
3120.944242 0.1802 0.1791 0.1781 0.1770 0.1759
3125.982091 0.1749 0.1738 0.1728 0.1717 0.1707
3131.019939 0.1696 0.1686 0.1675 0.1664 0.1654
3136.057788 0.1643 0.1633 0.1622 0.1610 0.1597
3141.095636 0.1585 0.1574 0.1562 0.1550 0.1538
3146.133485 0.1526 0.1515 0.1503 0.1491 0.1479
3151.171333 0.1467 0.1455 0.1444 0.1432 0.1420
3156.209182 0.1408 0.1397 0.1385 0.1373 0.1362
3161.247030 0.1350 0.1338 0.1327 0.1315 0.1304
3166.284879 0.1292 0.1280 0.1268 0.1257 0.1245
3171.322727 0.1232 0.1216 0.1196 0.1177 0.1150
3176.360576 0.1109 0.1075 0.1055 0.1034 0.1017
3181.398424 0.1007 0.0998 0.0988 0.0978 0.0972
3186.436273 0.0968 0.0964 0.0959 0.0955 0.0951
3191.474121 0.0946 0.0942 0.0939 0.0935 0.0932
3196.511970 0.0928 0.0925 0.0922 0.0918 0.0915
3201.549818 0.0915 0.0917 0.0919 0.0921 0.0915
3206.587667 0.0911 0.0927 0.0929 0.0932 0.0934
3211.625515 0.0937 0.0939 0.0942 0.0945 0.0947
3216.663364 0.0948 0.0949 0.0950 0.0951 0.0953
3221.701212 0.0954 0.0955 0.0957 0.0960 0.0962
3226.739061 0.0964 0.0966 0.0968 0.0971 0.0973
3231.776909 0.0977 0.0982 0.0986 0.0990 0.0994
3236.814758 0.0998 0.1002 0.1005 0.1007 0.1010
3241.852606 0.1013 0.1016 0.1018 0.1021 0.1023
3246.890455 0.1025 0.1028 0.1030 0.1032 0.1034
3251.928303 0.1037 0.1042 0.1047 0.1053 0.1058
3256.966152 0.1064 0.1069 0.1072 0.1079 0.1082
3262.004000 0.1073 0.1069 0.1065 0.1062 0.1059
3267.041848 0.1055 0.1052 0.1048 0.1044 0.1040
3272.079697 0.1035 0.1031 0.1027 0.1025 0.1023
3277.117545 0.1021 0.1020 0.1018 0.1016 0.1015
3282.155394 0.1013 0.1011 0.1008 0.1005 0.1002
3287.193242 0.0998 0.0995 0.0992 0.0989 0.0985
3292.231091 0.0981 0.0977 0.0972 0.0960 0.0942
3297.268939 0.0923 0.0902 0.0882 0.0864 0.0846
3302.306788 0.0833 0.0828 0.0824 0.0819 0.0814
3307.344636 0.0810 0.0807 0.0805 0.0803 0.0802
3312.382485 0.0800 0.0799 0.0799 0.0799 0.0798
3317.420333 0.0798 0.0798 0.0798 0.0798 0.0797
3322.458182 0.0797 0.0796 0.0796 0.0795 0.0793
3327.496030 0.0787 0.0778 0.0769 0.0761 0.0754
3332.533879 0.0746 0.0739 0.0732 0.0728 0.0728
3337.571727 0.0728 0.0729 0.0729 0.0729 0.0730
3342.609576 0.0731 0.0731 0.0732 0.0733 0.0733
3347.647424 0.0734 0.0734 0.0734 0.0734 0.0733
3352.685273 0.0733 0.0733 0.0733 0.0732 0.0732
3357.723121 0.0733 0.0735 0.0736 0.0738 0.0739
3362.760970 0.0740 0.0742 0.0743 0.0745 0.0746
3367.798818 0.0747 0.0749 0.0750 0.0752 0.0753
3372.836667 0.0755 0.0757 0.0758 0.0760 0.0761
3377.874515 0.0763 0.0765 0.0766 0.0768 0.0770
3382.912364 0.0771 0.0773 0.0774 0.0776 0.0777
3387.950212 0.0778 0.0779 0.0780 0.0781 0.0782
3392.988061 0.0783 0.0784 0.0785 0.0786 0.0787
3398.025909 0.0788 0.0783 0.0784 0.0790 0.0791
3403.063758 0.0791 0.0792 0.0793 0.0793 0.0794
3408.101606 0.0794 0.0795 0.0794 0.0793 0.0791
3413.139455 0.0790 0.0788 0.0786 0.0785 0.0783
3418.177303 0.0782 0.0780 0.0778 0.0779 0.0779
3423.215152 0.0780 0.0780 0.0781 0.0781 0.0782
3428.253000 0.0782 0.0783 0.0783 0.0784 0.0784
3433.290848 0.0785 0.0786 0.0786 0.0787 0.0787
3438.328697 0.0788 0.0789 0.0789 0.0790 0.0791
3443.366545 0.0791 0.0792 0.0792 0.0793 0.0794
3448.404394 0.0794 0.0795 0.0796 0.0797 0.0798
3453.442242 0.0800 0.0801 0.0803 0.0804 0.0805
3458.480091 0.0807 0.0808 0.0810 0.0811 0.0812
3463.517939 0.0814 0.0815 0.0816 0.0819 0.0822
3468.555788 0.0825 0.0828 0.0831 0.0835 0.0838
3473.593636 0.0842 0.0849 0.0857 0.0866 0.0877
3478.631485 0.0894 0.0914 0.0933 0.0957 0.0984
3483.669333 0.1011 0.1037 0.1064 0.1088 0.1109
3488.707182 0.1128 0.1147 0.1166 0.1186 0.1205
3493.745030 0.1224 0.1244 0.1265 0.1286 0.1307
3498.782879 0.1328 0.1349 0.1371 0.1400 0.1431
3503.820727 0.1463 0.1494 0.1526 0.1557 0.1589
3508.858576 0.1623 0.1656 0.1689 0.1722 0.1750
3513.896424 0.1774 0.1798 0.1822 0.1846 0.1869
3518.934273 0.1891 0.1913 0.1934 0.1956 0.1977
3523.972121 0.1999 0.2021 0.2046 0.2071 0.2096
3529.009970 0.2121 0.2146 0.2171 0.2200 0.2236
3534.047818 0.2274 0.2313 0.2357 0.2398 0.2419
3539.085667 0.2435 0.2455 0.2476 0.2502 0.2606
3544.123515 0.2687 0.2732 0.2766 0.2792 0.2816
3549.161364 0.2841 0.2865 0.2889 0.2908 0.2925
3554.199212 0.2943 0.2960 0.2977 0.2994 0.3011
3559.237061 0.3030 0.3050 0.3069 0.3089 0.3108
3564.274909 0.3128 0.3147 0.3166 0.3187 0.3207
3569.312758 0.3227 0.3250 0.3274 0.3299 0.3320
3574.350606 0.3335 0.3351 0.3378 0.3410 0.3441
3579.388455 0.3473 0.3508 0.3544 0.3580 0.3616
3584.426303 0.3667 0.3724 0.3781 0.3831 0.3879
3589.464152 0.3926 0.3973 0.4019 0.4059 0.4097
3594.502000 0.4136 0.4175 0.4213 0.4255 0.4301
3599.539848 0.4347 0.4393 0.4447 0.4506 0.4572
3604.577697 0.4648 0.4708 0.4753 0.4797 0.4841
3609.615545 0.4887 0.4934 0.4980 0.5024 0.5067
3614.653394 0.5111 0.5148 0.5181 0.5212 0.5243
3619.691242 0.5275 0.5303 0.5325 0.5346 0.5367
3624.729091 0.5387 0.5408 0.5429 0.5449 0.5472
3629.766939 0.5512 0.5559 0.5606 0.5648 0.5685
3634.804788 0.5721 0.5771 0.5812 0.5848 0.5884
3639.842636 0.5919 0.5955 0.5999 0.6056 0.6113
3644.880485 0.6152 0.6186 0.6217 0.6246 0.6275
3649.918333 0.6303 0.6326 0.6347 0.6368 0.6389
3654.956182 0.6411 0.6435 0.6461 0.6487 0.6512
3659.994030 0.6538 0.6564 0.6589 0.6615 0.6641
3665.031879 0.6663 0.6675 0.6683 0.6691 0.6738
3670.069727 0.6845 0.6916 0.6967 0.7015 0.7054
3675.107576 0.7087 0.7119 0.7148 0.7173 0.7197
3680.145424 0.7221 0.7239 0.7252 0.7264 0.7276
3685.183273 0.7288 0.7300 0.7317 0.7342 0.7372
3690.221121 0.7402 0.7432 0.7460 0.7482 0.7500
3695.258970 0.7513 0.7524 0.7537 0.7551 0.7564
3700.296818 0.7578 0.7592 0.7606 0.7620 0.7633
3705.334667 0.7640 0.7646 0.7650 0.7653 0.7656
3710.372515 0.7659 0.7663 0.7666 0.7669 0.7672
3715.410364 0.7675 0.7678 0.7680 0.7683 0.7686
3720.448212 0.7689 0.7692 0.7694 0.7697 0.7700
3725.486061 0.7703 0.7705 0.7708 0.7711 0.7715
3730.523909 0.7725 0.7735 0.7745 0.7757 0.7768
3735.561758 0.7780 0.7787 0.7790 0.7794 0.7797
3740.599606 0.7800 0.7803 0.7807 0.7812 0.7817
3745.637455 0.7823 0.7828 0.7833 0.7842 0.7852
3750.675303 0.7861 0.7870 0.7871 0.7870 0.7868
3755.713152 0.7867 0.7866 0.7864 0.7863 0.7862
3760.751000 0.7863 0.7863 0.7863 0.7863 0.7863
3765.788848 0.7864 0.7864 0.7864 0.7864 0.7865
3770.826697 0.7866 0.7866 0.7867 0.7868 0.7868
3775.864545 0.7869 0.7870 0.7871 0.7871 0.7872
3780.902394 0.7873 0.7873 0.7874 0.7875 0.7875
3785.940242 0.7876 0.7876 0.7877 0.7877 0.7879
3790.978091 0.7878 0.7878 0.7879 0.7879 0.7880
3796.015939 0.7880 0.7881 0.7881 0.7881 0.7881
3801.053788 0.7882 0.7882 0.7882 0.7882 0.7882
3806.091636 0.7883 0.7883 0.7883 0.7883 0.7883
3811.129485 0.7884 0.7884 0.7884 0.7884 0.7885
3816.167333 0.7886 0.7887 0.7888 0.7889 0.7890
3821.205182 0.7891 0.7892 0.7893 0.7893 0.7894
3826.243030 0.7895 0.7896 0.7897 0.7898 0.7898
3831.280879 0.7898 0.7897 0.7897 0.7897 0.7896
3836.318727 0.7896 0.7896 0.7896 0.7895 0.7895
3841.356576 0.7895 0.7894 0.7894 0.7894 0.7893
3846.394424 0.7891 0.7890 0.7888 0.7886 0.7884
3851.432273 0.7882 0.7881 0.7876 0.7871 0.7866
3856.470121 0.7861 0.7856 0.7851 0.7844 0.7837
3861.507970 0.7829 0.7822 0.7815 0.7808 0.7800
3866.545818 0.7793 0.7786 0.7784 0.7784 0.7783
3871.583667 0.7782 0.7781 0.7781 0.7780 0.7779
3876.621515 0.7779 0.7780 0.7781 0.7782 0.7783
3881.659364 0.7784 0.7785 0.7786 0.7788 0.7789
3886.697212 0.7790 0.7792 0.7793 0.7794 0.7796
3891.735061 0.7797 0.7797 0.7797 0.7798 0.7798
3896.772909 0.7798 0.7798 0.7798 0.7799 0.7800
3901.810758 0.7801 0.7802 0.7804 0.7805 0.7806
3906.848606 0.7807 0.7808 0.7808 0.7808 0.7808
3911.886455 0.7808 0.7806 0.7803 0.7801 0.7799
3916.924303 0.7796 0.7792 0.7785 0.7778 0.7772
3921.962152 0.7765 0.7758 0.7751 0.7744 0.7739
##END=
