##TITLE=Glutamine, N-hydroxy-
##JCAMP-DX=4.24
##DATA TYPE=INFRARED SPECTRUM
##CLASS=COBLENTZ III
##ORIGIN=SOUTHERN RESEARCH INSTITUTE
##OWNER=Copyright (C) 1987 by the Coblentz Society
Collection (C) 2018 copyright by the U.S. Secretary of Commerce
on behalf of the United States of America. All rights reserved.
##DATE=1956/12/05
##NAMES=N<5>-hydroxyglutamine
##MOLFORM=C5 H10 N2 O4
##SOURCE REFERENCE=COBLENTZ NO. 8350
##$NIST ID=B6008350
##$NIST SOURCE=COBLENTZ
##$NIST IMAGE=cob8350
##SPECTROMETER/DATA SYSTEM=PERKIN-ELMER 21 (GRATING)
##INSTRUMENT PARAMETERS=FILTER CHANGE ABOUT 1075 CM^-^1
##STATE=SOLID (0.7 mg / 650 mg KBr DISC)
##SAMPLING PROCEDURE=TRANSMISSION
##RESOLUTION=2
##DATA PROCESSING=DIGITIZED BY COBLENTZ SOCIETY (BATCH II) FROM HARD COPY (ADJUSTED \addcm-1\10-8-2\)
##XUNITS=1/CM
##YUNITS=TRANSMITTANCE
##XFACTOR=1.0
##YFACTOR=1
##DELTAX=1.004699
##FIRSTX=608.06
##LASTX=4015
##FIRSTY=0.9949
##MAXX=4015
##MINX=608.06
##MAXY=1.01203
##MINY=0.222073
##NPOINTS=3392
##XYDATA=(X++(Y..Y))
608.060000 0.9949 0.9936 0.9925 0.9914 0.9898
613.083496 0.9882 0.9866 0.9848 0.9830 0.9813
618.106993 0.9795 0.9778 0.9760 0.9741 0.9721
623.130489 0.9701 0.9681 0.9663 0.9644 0.9630
628.153986 0.9620 0.9609 0.9599 0.9589 0.9581
633.177482 0.9575 0.9570 0.9569 0.9567 0.9567
638.200979 0.9567 0.9567 0.9548 0.9569 0.9574
643.224475 0.9577 0.9579 0.9582 0.9586 0.9589
648.247972 0.9592 0.9596 0.9601 0.9605 0.9610
653.271468 0.9614 0.9619 0.9627 0.9634 0.9642
658.294965 0.9657 0.9673 0.9696 0.9725 0.9758
663.318461 0.9790 0.9829 0.9871 0.9925 0.9974
668.341958 1.0022 1.0060 1.0082 1.0096 1.0106
673.365454 1.0111 1.0115 1.0120 1.0111 1.0108
678.388950 1.0102 1.0095 1.0088 1.0081 1.0074
683.412447 1.0064 1.0052 1.0040 1.0027 1.0009
688.435943 0.9989 0.9967 0.9933 0.9896 0.9858
693.459440 0.9821 0.9783 0.9746 0.9709 0.9671
698.482936 0.9634 0.9597 0.9559 0.9521 0.9484
703.506433 0.9446 0.9409 0.9371 0.9334 0.9296
708.529929 0.9259 0.9222 0.9184 0.9147 0.9110
713.553426 0.9072 0.9035 0.8997 0.8959 0.8922
718.576922 0.8884 0.8832 0.8784 0.8748 0.8715
723.600419 0.8681 0.8648 0.8616 0.8585 0.8553
728.623915 0.8522 0.8487 0.8449 0.8412 0.8367
733.647412 0.8317 0.8258 0.8187 0.8141 0.8105
738.670908 0.8077 0.8054 0.8044 0.8037 0.8030
743.694404 0.8025 0.8021 0.8018 0.8014 0.8009
748.717901 0.8004 0.7999 0.7994 0.7988 0.7975
753.741397 0.7959 0.7914 0.7850 0.7788 0.7743
758.764894 0.7698 0.7646 0.7591 0.7524 0.7440
763.788390 0.7348 0.7240 0.6900 0.6712 0.6650
768.811887 0.6614 0.6604 0.6600 0.6614 0.6644
773.835383 0.6676 0.6802 0.7075 0.7397 0.7610
778.858880 0.7716 0.7780 0.7833 0.7887 0.7942
783.882376 0.8007 0.8071 0.8123 0.8167 0.8207
788.905873 0.8238 0.8263 0.8283 0.8297 0.8307
793.929369 0.8313 0.8317 0.8319 0.8319 0.8318
798.952866 0.8316 0.8315 0.8314 0.8310 0.8306
803.976362 0.8301 0.8296 0.8288 0.8279 0.8269
808.999858 0.8256 0.8240 0.8223 0.8210 0.8204
814.023355 0.8201 0.8201 0.8202 0.8203 0.8205
819.046851 0.8209 0.8214 0.8218 0.8223 0.8228
824.070348 0.8237 0.8251 0.8266 0.8281 0.8296
829.093844 0.8311 0.8326 0.8344 0.8363 0.8383
834.117341 0.8409 0.8431 0.8444 0.8452 0.8455
839.140837 0.8456 0.8457 0.8458 0.8458 0.8458
844.164334 0.8457 0.8457 0.8456 0.8455 0.8454
849.187830 0.8452 0.8450 0.8448 0.8445 0.8441
854.211327 0.8436 0.8432 0.8428 0.8428 0.8429
859.234823 0.8433 0.8440 0.8449 0.8457 0.8458
864.258320 0.8457 0.8457 0.8457 0.8458 0.8457
869.281816 0.8453 0.8449 0.8445 0.8439 0.8433
874.305313 0.8424 0.8410 0.8393 0.8375 0.8358
879.328809 0.8341 0.8327 0.8315 0.8306 0.8300
884.352305 0.8299 0.8304 0.8308 0.8320 0.8340
889.375802 0.8365 0.8391 0.8418 0.8446 0.8483
894.399298 0.8529 0.8571 0.8606 0.8640 0.8668
899.422795 0.8687 0.8696 0.8701 0.8702 0.8702
904.446291 0.8702 0.8698 0.8696 0.8694 0.8692
909.469788 0.8690 0.8687 0.8683 0.8680 0.8677
914.493284 0.8673 0.8671 0.8668 0.8665 0.8662
919.516781 0.8658 0.8654 0.8649 0.8645 0.8641
924.540277 0.8637 0.8633 0.8628 0.8623 0.8618
929.563774 0.8613 0.8608 0.8604 0.8595 0.8585
934.587270 0.8574 0.8558 0.8533 0.8502 0.8472
939.610767 0.8441 0.8410 0.8378 0.8343 0.8300
944.634263 0.8249 0.8192 0.8122 0.8033 0.7935
949.657759 0.7840 0.7771 0.7710 0.7668 0.7632
954.681256 0.7602 0.7582 0.7568 0.7562 0.7582
959.704752 0.7601 0.7628 0.7677 0.7719 0.7767
964.728249 0.7830 0.7896 0.7962 0.8036 0.8117
969.751745 0.8199 0.8263 0.8281 0.8302 0.8292
974.775242 0.8279 0.8276 0.8265 0.8247 0.8226
979.798738 0.8205 0.8181 0.8151 0.8100 0.8040
984.822235 0.7996 0.7945 0.7897 0.7876 0.7872
989.845731 0.7868 0.7870 0.7887 0.7918 0.7950
994.869228 0.7984 0.8017 0.8053 0.8101 0.8157
999.892724 0.8223 0.8321 0.8372 0.8394 0.8411
1004.916221 0.8421 0.8429 0.8427 0.8423 0.8416
1009.939717 0.8409 0.8397 0.8382 0.8364 0.8345
1014.963213 0.8324 0.8303 0.8280 0.8253 0.8221
1019.986710 0.8187 0.8153 0.8115 0.8070 0.8021
1025.010206 0.7972 0.7927 0.7889 0.7850 0.7810
1030.033703 0.7772 0.7742 0.7724 0.7716 0.7704
1035.057199 0.7688 0.7656 0.7614 0.7561 0.7488
1040.080696 0.7317 0.7131 0.6853 0.6592 0.6331
1045.104192 0.6071 0.5810 0.5549 0.5289 0.5056
1050.127689 0.4986 0.4972 0.4982 0.4997 0.5031
1055.151185 0.5146 0.5423 0.5767 0.6110 0.6454
1060.174682 0.6798 0.7141 0.7485 0.7797 0.8030
1065.198178 0.8185 0.8287 0.8356 0.8426 0.8520
1070.221675 0.8617 0.8690 0.8739 0.8768 0.8774
1075.245171 0.8746 0.8578 0.8450 0.8323 0.8197
1080.268667 0.8085 0.8049 0.8009 0.7964 0.7910
1085.292164 0.7837 0.7783 0.7723 0.7589 0.7263
1090.315660 0.6904 0.6634 0.6563 0.6556 0.6561
1095.339157 0.6566 0.6597 0.6773 0.7058 0.7367
1100.362653 0.7676 0.7929 0.8053 0.8090 0.8110
1105.386150 0.8118 0.8119 0.8126 0.8129 0.8114
1110.409646 0.8110 0.8104 0.8096 0.8084 0.8064
1115.433143 0.8036 0.8006 0.7975 0.7941 0.7901
1120.456639 0.7840 0.7759 0.7641 0.7506 0.7405
1125.480136 0.7286 0.7083 0.6769 0.6463 0.6228
1130.503632 0.6198 0.6190 0.6193 0.6213 0.6407
1135.527129 0.6585 0.6762 0.6940 0.7117 0.7295
1140.550625 0.7472 0.7649 0.7734 0.7752 0.7760
1145.574121 0.7764 0.7768 0.7775 0.7782 0.7805
1150.597618 0.7849 0.7937 0.8230 0.8383 0.8455
1155.621114 0.8478 0.8493 0.8506 0.8517 0.8527
1160.644611 0.8533 0.8546 0.8540 0.8537 0.8536
1165.668107 0.8532 0.8527 0.8521 0.8515 0.8507
1170.691604 0.8499 0.8490 0.8480 0.8470 0.8459
1175.715100 0.8446 0.8430 0.8412 0.8391 0.8365
1180.738597 0.8334 0.8298 0.8258 0.8214 0.8167
1185.762093 0.8120 0.8067 0.8014 0.7968 0.7915
1190.785590 0.7698 0.7343 0.7025 0.6806 0.6752
1195.809086 0.6743 0.6768 0.6890 0.7068 0.7247
1200.832583 0.7425 0.7604 0.7782 0.7956 0.8087
1205.856079 0.8146 0.8203 0.8262 0.8316 0.8353
1210.879575 0.8382 0.8399 0.8410 0.8415 0.8419
1215.903072 0.8421 0.8420 0.8419 0.8416 0.8409
1220.926568 0.8403 0.8397 0.8389 0.8381 0.8372
1225.950065 0.8363 0.8355 0.8344 0.8335 0.8324
1230.973561 0.8313 0.8303 0.8292 0.8281 0.8267
1235.997058 0.8254 0.8241 0.8227 0.8213 0.8199
1241.020554 0.8178 0.8154 0.8128 0.8104 0.8080
1246.044051 0.8056 0.8033 0.8009 0.7984 0.7958
1251.067547 0.7932 0.7906 0.7871 0.7835 0.7800
1256.091044 0.7755 0.7706 0.7650 0.7593 0.7535
1261.114540 0.7455 0.7353 0.7196 0.7011 0.6822
1266.138037 0.6634 0.6446 0.6258 0.6100 0.6044
1271.161533 0.6044 0.6094 0.6217 0.6368 0.6518
1276.185029 0.6669 0.6819 0.6970 0.7061 0.7086
1281.208526 0.7109 0.7132 0.7154 0.7173 0.7197
1286.232022 0.7239 0.7326 0.7441 0.7514 0.7545
1291.255519 0.7554 0.7556 0.7541 0.7532 0.7516
1296.279015 0.7498 0.7471 0.7429 0.7384 0.7337
1301.302512 0.7283 0.7226 0.7168 0.7103 0.7000
1306.326008 0.6885 0.6825 0.6759 0.6611 0.6359
1311.349505 0.6104 0.5849 0.5595 0.5340 0.5085
1316.373001 0.4835 0.4665 0.4621 0.4601 0.4554
1321.396498 0.4601 0.4610 0.4654 0.4860 0.5067
1326.419994 0.5274 0.5978 0.6255 0.6511 0.6767
1331.443491 0.6865 0.6895 0.6900 0.6900 0.6896
1336.466987 0.6886 0.6856 0.6806 0.6704 0.6468
1341.490483 0.6123 0.5759 0.5556 0.5495 0.5477
1346.513980 0.5467 0.5464 0.5468 0.5457 0.5495
1351.537476 0.5564 0.5633 0.5730 0.5829 0.5920
1356.560973 0.6070 0.6262 0.6459 0.6656 0.6800
1361.584469 0.6852 0.6858 0.6859 0.6860 0.6852
1366.607966 0.6838 0.6824 0.6805 0.6780 0.6747
1371.631462 0.6710 0.6678 0.6648 0.6607 0.6553
1376.654959 0.6501 0.6456 0.6406 0.6280 0.5963
1381.678455 0.5608 0.5463 0.5316 0.5238 0.5214
1386.701952 0.5201 0.5191 0.5184 0.5268 0.5452
1391.725448 0.5637 0.5821 0.5998 0.6126 0.6158
1396.748945 0.6161 0.6166 0.6184 0.6148 0.6137
1401.772441 0.6125 0.6109 0.6091 0.6073 0.6054
1406.795938 0.6033 0.6011 0.5977 0.5946 0.5914
1411.819434 0.5881 0.5838 0.5787 0.5720 0.5649
1416.842930 0.5581 0.5515 0.5437 0.5346 0.5234
1421.866427 0.5117 0.4569 0.4477 0.4464 0.4460
1426.889923 0.4459 0.4460 0.4426 0.4645 0.4793
1431.913420 0.4912 0.5032 0.5152 0.5271 0.5391
1436.936916 0.5510 0.5629 0.5748 0.5871 0.5936
1441.960413 0.5956 0.5962 0.5963 0.5959 0.5954
1446.983909 0.5949 0.5944 0.5933 0.5916 0.5874
1452.007406 0.5639 0.5436 0.5347 0.5274 0.5223
1457.030902 0.5097 0.4813 0.4449 0.4233 0.4201
1462.054399 0.4203 0.4209 0.4241 0.4277 0.4281
1467.077895 0.4282 0.4279 0.4273 0.4223 0.4097
1472.101392 0.3955 0.3813 0.3672 0.3530 0.3389
1477.124888 0.3247 0.3102 0.2962 0.2851 0.2734
1482.148384 0.2650 0.2573 0.2447 0.2344 0.2266
1487.171881 0.2236 0.2230 0.2229 0.2221 0.2275
1492.195377 0.2353 0.2412 0.2450 0.2484 0.2517
1497.218874 0.2557 0.2602 0.2645 0.2709 0.2877
1502.242370 0.3074 0.3270 0.3467 0.3664 0.3861
1507.265867 0.4058 0.4255 0.4452 0.4649 0.4763
1512.289363 0.4885 0.5022 0.5127 0.5226 0.5308
1517.312860 0.5385 0.5432 0.5477 0.5528 0.5586
1522.336356 0.5648 0.5732 0.5827 0.5926 0.6018
1527.359853 0.6089 0.6155 0.6222 0.6285 0.6327
1532.383349 0.6360 0.6390 0.6415 0.6436 0.6450
1537.406846 0.6461 0.6469 0.6472 0.6475 0.6477
1542.430342 0.6491 0.6486 0.6472 0.6467 0.6460
1547.453838 0.6451 0.6442 0.6432 0.6421 0.6396
1552.477335 0.6354 0.6317 0.6289 0.6261 0.6227
1557.500831 0.6186 0.6141 0.6095 0.6048 0.6003
1562.524328 0.5967 0.5941 0.5916 0.5894 0.5874
1567.547824 0.5841 0.5732 0.5546 0.5438 0.5314
1572.571321 0.5187 0.5097 0.4967 0.4739 0.4628
1577.594817 0.4527 0.4427 0.4327 0.4226 0.4126
1582.618314 0.4041 0.3969 0.3897 0.3825 0.3754
1587.641810 0.3710 0.3667 0.3637 0.3611 0.3602
1592.665307 0.3592 0.3583 0.3575 0.3569 0.3564
1597.688803 0.3555 0.3541 0.3509 0.3462 0.3411
1602.712300 0.3354 0.3285 0.3209 0.3127 0.3037
1607.735796 0.2966 0.2902 0.2827 0.2638 0.2589
1612.759292 0.2586 0.2571 0.2593 0.2617 0.2648
1617.782789 0.2680 0.2707 0.2729 0.2746 0.2751
1622.806285 0.2751 0.2755 0.2742 0.2735 0.2726
1627.829782 0.2699 0.2681 0.2667 0.2653 0.2646
1632.853278 0.2645 0.2652 0.2633 0.2687 0.2726
1637.876775 0.2759 0.2798 0.2871 0.2973 0.3091
1642.900271 0.3215 0.3306 0.3390 0.3473 0.3557
1647.923768 0.3706 0.3905 0.4017 0.4062 0.4079
1652.947264 0.4094 0.4097 0.4111 0.4097 0.4088
1657.970761 0.4078 0.4063 0.4046 0.4023 0.3943
1662.994257 0.3877 0.3710 0.3552 0.3491 0.3408
1668.017754 0.3289 0.3214 0.3160 0.3140 0.3135
1673.041250 0.3135 0.3137 0.3128 0.3145 0.3155
1678.064746 0.3169 0.3195 0.3248 0.3371 0.3543
1683.088243 0.3720 0.3936 0.4002 0.4085 0.4212
1688.111739 0.4387 0.4505 0.4690 0.4977 0.5063
1693.135236 0.5165 0.5340 0.5422 0.5509 0.5633
1698.158732 0.5766 0.5857 0.5943 0.6021 0.6078
1703.182229 0.6136 0.6196 0.6258 0.6320 0.6379
1708.205725 0.6435 0.6491 0.6550 0.6618 0.6686
1713.229222 0.6752 0.6809 0.6861 0.6913 0.6964
1718.252718 0.7015 0.7068 0.7131 0.7198 0.7263
1723.276215 0.7314 0.7358 0.7403 0.7447 0.7488
1728.299711 0.7518 0.7542 0.7566 0.7591 0.7615
1733.323208 0.7639 0.7665 0.7694 0.7724 0.7754
1738.346704 0.7784 0.7812 0.7840 0.7867 0.7891
1743.370200 0.7910 0.7929 0.7948 0.7967 0.7986
1748.393697 0.8005 0.8024 0.8043 0.8062 0.8081
1753.417193 0.8103 0.8124 0.8140 0.8155 0.8171
1758.440690 0.8187 0.8202 0.8216 0.8230 0.8245
1763.464186 0.8259 0.8274 0.8286 0.8298 0.8309
1768.487683 0.8320 0.8332 0.8343 0.8354 0.8363
1773.511179 0.8372 0.8382 0.8391 0.8401 0.8410
1778.534676 0.8419 0.8427 0.8436 0.8445 0.8453
1783.558172 0.8462 0.8470 0.8479 0.8487 0.8495
1788.581669 0.8502 0.8510 0.8518 0.8526 0.8533
1793.605165 0.8540 0.8546 0.8552 0.8558 0.8564
1798.628662 0.8570 0.8576 0.8582 0.8588 0.8594
1803.652158 0.8600 0.8606 0.8611 0.8617 0.8622
1808.675654 0.8627 0.8632 0.8638 0.8643 0.8648
1813.699151 0.8653 0.8659 0.8665 0.8670 0.8675
1818.722647 0.8680 0.8684 0.8688 0.8691 0.8695
1823.746144 0.8699 0.8703 0.8707 0.8710 0.8714
1828.769640 0.8717 0.8719 0.8721 0.8723 0.8725
1833.793137 0.8727 0.8730 0.8732 0.8734 0.8736
1838.816633 0.8738 0.8740 0.8742 0.8744 0.8746
1843.840130 0.8748 0.8750 0.8752 0.8754 0.8756
1848.863626 0.8758 0.8760 0.8762 0.8764 0.8766
1853.887123 0.8768 0.8770 0.8771 0.8771 0.8772
1858.910619 0.8773 0.8773 0.8774 0.8774 0.8775
1863.934116 0.8775 0.8776 0.8777 0.8777 0.8778
1868.957612 0.8739 0.8775 0.8776 0.8776 0.8775
1873.981108 0.8775 0.8774 0.8774 0.8773 0.8773
1879.004605 0.8772 0.8772 0.8771 0.8771 0.8770
1884.028101 0.8769 0.8769 0.8768 0.8767 0.8766
1889.051598 0.8765 0.8764 0.8763 0.8762 0.8761
1894.075094 0.8760 0.8760 0.8759 0.8758 0.8756
1899.098591 0.8755 0.8753 0.8752 0.8750 0.8749
1904.122087 0.8748 0.8746 0.8745 0.8743 0.8742
1909.145584 0.8740 0.8739 0.8737 0.8736 0.8734
1914.169080 0.8733 0.8731 0.8730 0.8728 0.8727
1919.192577 0.8725 0.8724 0.8722 0.8720 0.8719
1924.216073 0.8717 0.8716 0.8714 0.8712 0.8711
1929.239570 0.8709 0.8708 0.8706 0.8704 0.8703
1934.263066 0.8702 0.8701 0.8701 0.8699 0.8697
1939.286563 0.8691 0.8686 0.8680 0.8674 0.8667
1944.310059 0.8661 0.8655 0.8655 0.8656 0.8657
1949.333555 0.8658 0.8658 0.8659 0.8659 0.8659
1954.357052 0.8660 0.8660 0.8659 0.8658 0.8657
1959.380548 0.8654 0.8651 0.8648 0.8644 0.8641
1964.404045 0.8637 0.8634 0.8630 0.8626 0.8622
1969.427541 0.8618 0.8614 0.8609 0.8605 0.8601
1974.451038 0.8597 0.8592 0.8587 0.8582 0.8576
1979.474534 0.8571 0.8566 0.8561 0.8555 0.8550
1984.498031 0.8545 0.8539 0.8534 0.8530 0.8526
1989.521527 0.8522 0.8517 0.8513 0.8509 0.8505
1994.545024 0.8500 0.8496 0.8492 0.8488 0.8484
1999.568520 0.8478 0.8471 0.8464 0.8458 0.8451
2004.592017 0.8444 0.8437 0.8430 0.8423 0.8417
2009.615513 0.8411 0.8405 0.8399 0.8394 0.8388
2014.639009 0.8382 0.8376 0.8370 0.8364 0.8358
2019.662506 0.8351 0.8344 0.8336 0.8328 0.8320
2024.686002 0.8311 0.8302 0.8294 0.8286 0.8279
2029.709499 0.8273 0.8268 0.8264 0.8259 0.8254
2034.732995 0.8249 0.8245 0.8244 0.8244 0.8244
2039.756492 0.8244 0.8243 0.8243 0.8243 0.8243
2044.779988 0.8236 0.8241 0.8244 0.8246 0.8248
2049.803485 0.8249 0.8251 0.8253 0.8254 0.8256
2054.826981 0.8258 0.8261 0.8266 0.8270 0.8275
2059.850478 0.8279 0.8284 0.8289 0.8296 0.8302
2064.873974 0.8309 0.8316 0.8323 0.8331 0.8339
2069.897471 0.8347 0.8355 0.8363 0.8371 0.8379
2074.920967 0.8388 0.8396 0.8404 0.8413 0.8422
2079.944463 0.8430 0.8439 0.8447 0.8456 0.8464
2084.967960 0.8473 0.8481 0.8487 0.8492 0.8496
2089.991456 0.8500 0.8504 0.8507 0.8507 0.8506
2095.014953 0.8506 0.8516 0.8506 0.8505 0.8505
2100.038449 0.8505 0.8504 0.8504 0.8504 0.8503
2105.061946 0.8503 0.8502 0.8501 0.8499 0.8498
2110.085442 0.8496 0.8495 0.8493 0.8492 0.8490
2115.108939 0.8489 0.8487 0.8486 0.8484 0.8482
2120.132435 0.8481 0.8479 0.8478 0.8476 0.8474
2125.155932 0.8473 0.8471 0.8469 0.8468 0.8466
2130.179428 0.8465 0.8463 0.8461 0.8460 0.8458
2135.202925 0.8457 0.8455 0.8454 0.8452 0.8451
2140.226421 0.8450 0.8448 0.8447 0.8445 0.8444
2145.249917 0.8442 0.8440 0.8439 0.8437 0.8436
2150.273414 0.8435 0.8433 0.8432 0.8430 0.8429
2155.296910 0.8428 0.8427 0.8426 0.8425 0.8424
2160.320407 0.8423 0.8422 0.8421 0.8420 0.8419
2165.343903 0.8418 0.8417 0.8417 0.8416 0.8416
2170.367400 0.8415 0.8415 0.8414 0.8414 0.8413
2175.390896 0.8413 0.8412 0.8411 0.8410 0.8409
2180.414393 0.8407 0.8406 0.8405 0.8404 0.8403
2185.437889 0.8401 0.8400 0.8398 0.8395 0.8392
2190.461386 0.8389 0.8387 0.8384 0.8381 0.8378
2195.484882 0.8375 0.8371 0.8368 0.8365 0.8361
2200.508379 0.8357 0.8354 0.8350 0.8347 0.8343
2205.531875 0.8340 0.8336 0.8333 0.8330 0.8327
2210.555371 0.8324 0.8321 0.8318 0.8315 0.8312
2215.578868 0.8309 0.8306 0.8303 0.8300 0.8297
2220.602364 0.8294 0.8290 0.8287 0.8284 0.8281
2225.625861 0.8278 0.8275 0.8271 0.8268 0.8265
2230.649357 0.8262 0.8259 0.8256 0.8253 0.8249
2235.672854 0.8245 0.8241 0.8237 0.8233 0.8229
2240.696350 0.8225 0.8221 0.8216 0.8212 0.8208
2245.719847 0.8204 0.8200 0.8196 0.8192 0.8188
2250.743343 0.8184 0.8180 0.8176 0.8172 0.8169
2255.766840 0.8165 0.8162 0.8158 0.8155 0.8151
2260.790336 0.8148 0.8144 0.8141 0.8137 0.8134
2265.813833 0.8130 0.8126 0.8125 0.8125 0.8125
2270.837329 0.8124 0.8124 0.8124 0.8124 0.8124
2275.860825 0.8123 0.8121 0.8119 0.8117 0.8113
2280.884322 0.8108 0.8101 0.8094 0.8086 0.8076
2285.907818 0.8066 0.8055 0.8045 0.8034 0.8023
2290.931315 0.8012 0.8001 0.7990 0.7978 0.7967
2295.954811 0.7955 0.7943 0.7932 0.7920 0.7908
2300.978308 0.7894 0.7881 0.7868 0.7855 0.7841
2306.001804 0.7828 0.7815 0.7801 0.7788 0.7774
2311.025301 0.7760 0.7747 0.7733 0.7718 0.7703
2316.048797 0.7687 0.7671 0.7655 0.7639 0.7622
2321.072294 0.7606 0.7592 0.7581 0.7570 0.7560
2326.095790 0.7555 0.7551 0.7547 0.7544 0.7541
2331.119287 0.7538 0.7536 0.7535 0.7535 0.7535
2336.142783 0.7537 0.7540 0.7540 0.7540 0.7539
2341.166279 0.7539 0.7539 0.7538 0.7538 0.7538
2346.189776 0.7537 0.7537 0.7537 0.7536 0.7536
2351.213272 0.7536 0.7535 0.7535 0.7535 0.7534
2356.236769 0.7534 0.7534 0.7533 0.7533 0.7533
2361.260265 0.7532 0.7526 0.7516 0.7531 0.7531
2366.283762 0.7531 0.7530 0.7530 0.7530 0.7529
2371.307258 0.7529 0.7528 0.7527 0.7527 0.7526
2376.330755 0.7525 0.7524 0.7523 0.7522 0.7521
2381.354251 0.7519 0.7516 0.7512 0.7508 0.7504
2386.377748 0.7499 0.7494 0.7489 0.7485 0.7480
2391.401244 0.7472 0.7461 0.7449 0.7439 0.7429
2396.424741 0.7419 0.7409 0.7398 0.7388 0.7377
2401.448237 0.7366 0.7355 0.7344 0.7333 0.7322
2406.471733 0.7310 0.7298 0.7286 0.7274 0.7262
2411.495230 0.7250 0.7238 0.7225 0.7211 0.7197
2416.518726 0.7184 0.7170 0.7156 0.7142 0.7128
2421.542223 0.7114 0.7099 0.7083 0.7067 0.7052
2426.565719 0.7036 0.7020 0.7005 0.6990 0.6975
2431.589216 0.6961 0.6946 0.6931 0.6917 0.6901
2436.612712 0.6885 0.6868 0.6851 0.6835 0.6819
2441.636209 0.6802 0.6786 0.6770 0.6753 0.6737
2446.659705 0.6718 0.6698 0.6679 0.6660 0.6640
2451.683202 0.6620 0.6602 0.6584 0.6565 0.6546
2456.706698 0.6528 0.6510 0.6492 0.6474 0.6456
2461.730195 0.6441 0.6431 0.6424 0.6417 0.6410
2466.753691 0.6402 0.6395 0.6388 0.6381 0.6375
2471.777187 0.6372 0.6368 0.6365 0.6362 0.6358
2476.800684 0.6355 0.6352 0.6348 0.6346 0.6345
2481.824180 0.6345 0.6344 0.6344 0.6344 0.6344
2486.847677 0.6347 0.6349 0.6349 0.6348 0.6348
2491.871173 0.6348 0.6347 0.6347 0.6347 0.6347
2496.894670 0.6346 0.6346 0.6345 0.6344 0.6342
2501.918166 0.6336 0.6330 0.6324 0.6318 0.6308
2506.941663 0.6296 0.6284 0.6272 0.6259 0.6246
2511.965159 0.6232 0.6217 0.6201 0.6186 0.6170
2516.988656 0.6153 0.6135 0.6118 0.6100 0.6083
2522.012152 0.6065 0.6048 0.6030 0.6013 0.5995
2527.035649 0.5978 0.5961 0.5944 0.5927 0.5909
2532.059145 0.5894 0.5878 0.5863 0.5848 0.5832
2537.082642 0.5817 0.5802 0.5787 0.5772 0.5757
2542.106138 0.5743 0.5728 0.5713 0.5699 0.5684
2547.129634 0.5670 0.5655 0.5639 0.5623 0.5607
2552.153131 0.5591 0.5574 0.5558 0.5542 0.5526
2557.176627 0.5512 0.5501 0.5490 0.5480 0.5469
2562.200124 0.5458 0.5447 0.5437 0.5426 0.5415
2567.223620 0.5407 0.5398 0.5390 0.5382 0.5373
2572.247117 0.5365 0.5357 0.5348 0.5340 0.5332
2577.270613 0.5323 0.5315 0.5306 0.5297 0.5288
2582.294110 0.5279 0.5270 0.5262 0.5253 0.5244
2587.317606 0.5235 0.5226 0.5217 0.5209 0.5201
2592.341103 0.5194 0.5187 0.5179 0.5172 0.5164
2597.364599 0.5156 0.5149 0.5142 0.5134 0.5127
2602.388096 0.5120 0.5112 0.5105 0.5098 0.5090
2607.411592 0.5084 0.5077 0.5070 0.5064 0.5058
2612.435088 0.5051 0.5045 0.5039 0.5032 0.5026
2617.458585 0.5020 0.5013 0.5007 0.5001 0.4994
2622.482081 0.4988 0.4982 0.4976 0.4970 0.4964
2627.505578 0.4957 0.4950 0.4944 0.4937 0.4930
2632.529074 0.4924 0.4917 0.4911 0.4904 0.4897
2637.552571 0.4891 0.4884 0.4876 0.4865 0.4852
2642.576067 0.4840 0.4827 0.4815 0.4803 0.4790
2647.599564 0.4774 0.4757 0.4741 0.4725 0.4708
2652.623060 0.4692 0.4677 0.4663 0.4650 0.4636
2657.646557 0.4622 0.4609 0.4595 0.4581 0.4570
2662.670053 0.4558 0.4546 0.4535 0.4523 0.4513
2667.693550 0.4507 0.4500 0.4494 0.4487 0.4480
2672.717046 0.4474 0.4469 0.4464 0.4459 0.4455
2677.740542 0.4448 0.4433 0.4415 0.4396 0.4380
2682.764039 0.4364 0.4348 0.4331 0.4315 0.4298
2687.787535 0.4284 0.4271 0.4257 0.4244 0.4230
2692.811032 0.4216 0.4202 0.4189 0.4175 0.4163
2697.834528 0.4152 0.4140 0.4129 0.4117 0.4106
2702.858025 0.4094 0.4083 0.4071 0.4059 0.4046
2707.881521 0.4034 0.4022 0.4010 0.3998 0.3985
2712.905018 0.3973 0.3961 0.3949 0.3937 0.3925
2717.928514 0.3912 0.3900 0.3886 0.3872 0.3858
2722.952011 0.3844 0.3830 0.3816 0.3802 0.3788
2727.975507 0.3774 0.3760 0.3746 0.3732 0.3718
2732.999004 0.3704 0.3690 0.3678 0.3665 0.3652
2738.022500 0.3640 0.3627 0.3614 0.3602 0.3588
2743.045996 0.3575 0.3563 0.3550 0.3537 0.3523
2748.069493 0.3509 0.3496 0.3482 0.3468 0.3454
2753.092989 0.3440 0.3426 0.3412 0.3398 0.3383
2758.116486 0.3368 0.3354 0.3339 0.3325 0.3311
2763.139982 0.3296 0.3282 0.3267 0.3256 0.3247
2768.163479 0.3238 0.3228 0.3218 0.3209 0.3200
2773.186975 0.3191 0.3181 0.3172 0.3163 0.3154
2778.210472 0.3144 0.3136 0.3129 0.3121 0.3114
2783.233968 0.3108 0.3104 0.3102 0.3100 0.3097
2788.257465 0.3095 0.3093 0.3091 0.3089 0.3088
2793.280961 0.3086 0.3083 0.3080 0.3078 0.3075
2798.304458 0.3072 0.3070 0.3068 0.3067 0.3066
2803.327954 0.3065 0.3063 0.3062 0.3061 0.3060
2808.351450 0.3059 0.3058 0.3057 0.3056 0.3055
2813.374947 0.3055 0.3054 0.3054 0.3053 0.3053
2818.398443 0.3053 0.3054 0.3055 0.3052 0.3051
2823.421940 0.3051 0.3050 0.3050 0.3050 0.3049
2828.445436 0.3049 0.3049 0.3048 0.3048 0.3048
2833.468933 0.3048 0.3048 0.3048 0.3048 0.3047
2838.492429 0.3047 0.3047 0.3047 0.3048 0.3050
2843.515926 0.3052 0.3054 0.3056 0.3058 0.3060
2848.539422 0.3061 0.3063 0.3065 0.3067 0.3069
2853.562919 0.3071 0.3073 0.3075 0.3077 0.3079
2858.586415 0.3081 0.3083 0.3085 0.3088 0.3091
2863.609912 0.3094 0.3097 0.3100 0.3104 0.3107
2868.633408 0.3110 0.3113 0.3116 0.3119 0.3123
2873.656904 0.3126 0.3130 0.3134 0.3138 0.3142
2878.680401 0.3145 0.3149 0.3153 0.3155 0.3157
2883.703897 0.3158 0.3159 0.3160 0.3161 0.3163
2888.727394 0.3166 0.3169 0.3172 0.3178 0.3187
2893.750890 0.3196 0.3207 0.3221 0.3236 0.3252
2898.774387 0.3265 0.3277 0.3289 0.3301 0.3313
2903.797883 0.3326 0.3338 0.3351 0.3360 0.3366
2908.821380 0.3372 0.3378 0.3383 0.3387 0.3390
2913.844876 0.3392 0.3394 0.3396 0.3398 0.3400
2918.868373 0.3402 0.3403 0.3404 0.3404 0.3405
2923.891869 0.3406 0.3406 0.3405 0.3405 0.3404
2928.915366 0.3404 0.3403 0.3402 0.3402 0.3401
2933.938862 0.3400 0.3399 0.3398 0.3398 0.3397
2938.962358 0.3396 0.3395 0.3394 0.3393 0.3391
2943.985855 0.3390 0.3389 0.3388 0.3386 0.3385
2949.009351 0.3384 0.3383 0.3381 0.3380 0.3379
2954.032848 0.3377 0.3376 0.3375 0.3374 0.3372
2959.056344 0.3371 0.3370 0.3369 0.3367 0.3364
2964.079841 0.3362 0.3360 0.3358 0.3356 0.3353
2969.103337 0.3351 0.3349 0.3347 0.3347 0.3343
2974.126834 0.3341 0.3340 0.3340 0.3341 0.3342
2979.150330 0.3343 0.3344 0.3345 0.3346 0.3347
2984.173827 0.3348 0.3349 0.3350 0.3351 0.3352
2989.197323 0.3352 0.3353 0.3354 0.3355 0.3355
2994.220820 0.3356 0.3358 0.3361 0.3365 0.3369
2999.244316 0.3373 0.3376 0.3380 0.3384 0.3388
3004.267812 0.3392 0.3396 0.3400 0.3404 0.3408
3009.291309 0.3412 0.3416 0.3420 0.3424 0.3427
3014.314805 0.3431 0.3435 0.3438 0.3442 0.3448
3019.338302 0.3455 0.3462 0.3470 0.3477 0.3485
3024.361798 0.3493 0.3500 0.3508 0.3515 0.3523
3029.385295 0.3530 0.3538 0.3545 0.3553 0.3562
3034.408791 0.3574 0.3584 0.3595 0.3604 0.3612
3039.432288 0.3620 0.3629 0.3637 0.3645 0.3652
3044.455784 0.3658 0.3664 0.3668 0.3670 0.3672
3049.479281 0.3675 0.3677 0.3679 0.3681 0.3684
3054.502777 0.3688 0.3691 0.3695 0.3701 0.3710
3059.526274 0.3721 0.3733 0.3745 0.3756 0.3769
3064.549770 0.3781 0.3790 0.3796 0.3803 0.3810
3069.573267 0.3816 0.3821 0.3825 0.3829 0.3832
3074.596763 0.3836 0.3842 0.3849 0.3856 0.3863
3079.620259 0.3870 0.3879 0.3887 0.3896 0.3904
3084.643756 0.3913 0.3923 0.3934 0.3944 0.3955
3089.667252 0.3965 0.3977 0.3990 0.4004 0.4018
3094.690749 0.4031 0.4044 0.4058 0.4071 0.4084
3099.714245 0.4100 0.4121 0.4141 0.4160 0.4178
3104.737742 0.4195 0.4211 0.4226 0.4240 0.4249
3109.761238 0.4256 0.4264 0.4272 0.4280 0.4287
3114.784735 0.4291 0.4296 0.4300 0.4305 0.4309
3119.808231 0.4312 0.4315 0.4317 0.4319 0.4321
3124.831728 0.4323 0.4329 0.4327 0.4326 0.4326
3129.855224 0.4325 0.4325 0.4325 0.4325 0.4324
3134.878721 0.4323 0.4321 0.4318 0.4316 0.4314
3139.902217 0.4312 0.4310 0.4307 0.4305 0.4303
3144.925713 0.4300 0.4298 0.4296 0.4293 0.4291
3149.949210 0.4288 0.4285 0.4282 0.4278 0.4275
3154.972706 0.4272 0.4268 0.4265 0.4261 0.4257
3159.996203 0.4253 0.4249 0.4244 0.4240 0.4236
3165.019699 0.4232 0.4227 0.4223 0.4221 0.4218
3170.043196 0.4216 0.4214 0.4211 0.4209 0.4206
3175.066692 0.4204 0.4202 0.4199 0.4198 0.4198
3180.090189 0.4198 0.4198 0.4198 0.4198 0.4198
3185.113685 0.4198 0.4197 0.4197 0.4197 0.4197
3190.137182 0.4198 0.4198 0.4199 0.4199 0.4202
3195.160678 0.4209 0.4201 0.4201 0.4202 0.4202
3200.184175 0.4203 0.4203 0.4204 0.4204 0.4205
3205.207671 0.4205 0.4206 0.4206 0.4207 0.4207
3210.231167 0.4207 0.4207 0.4208 0.4208 0.4208
3215.254664 0.4209 0.4209 0.4209 0.4209 0.4210
3220.278160 0.4211 0.4212 0.4214 0.4216 0.4217
3225.301657 0.4219 0.4221 0.4222 0.4224 0.4226
3230.325153 0.4227 0.4229 0.4232 0.4236 0.4240
3235.348650 0.4245 0.4252 0.4260 0.4267 0.4273
3240.372146 0.4280 0.4287 0.4294 0.4301 0.4310
3245.395643 0.4319 0.4328 0.4337 0.4346 0.4356
3250.419139 0.4367 0.4379 0.4390 0.4402 0.4413
3255.442636 0.4424 0.4434 0.4445 0.4458 0.4471
3260.466132 0.4483 0.4496 0.4509 0.4523 0.4537
3265.489629 0.4551 0.4565 0.4579 0.4593 0.4609
3270.513125 0.4626 0.4644 0.4662 0.4680 0.4699
3275.536621 0.4717 0.4734 0.4749 0.4761 0.4774
3280.560118 0.4787 0.4800 0.4813 0.4826 0.4839
3285.583614 0.4852 0.4864 0.4876 0.4888 0.4900
3290.607111 0.4912 0.4924 0.4935 0.4944 0.4951
3295.630607 0.4959 0.4967 0.4975 0.4983 0.4988
3300.654104 0.4993 0.4999 0.5004 0.5011 0.5017
3305.677600 0.5020 0.5022 0.5023 0.5023 0.5024
3310.701097 0.5025 0.5026 0.5026 0.5027 0.5027
3315.724593 0.5027 0.5028 0.5028 0.5028 0.5027
3320.748090 0.5055 0.5035 0.5024 0.5023 0.5021
3325.771586 0.5020 0.5019 0.5018 0.5016 0.5015
3330.795083 0.5014 0.5012 0.5010 0.5008 0.5007
3335.818579 0.5005 0.5003 0.5002 0.5000 0.4998
3340.842075 0.4995 0.4992 0.4988 0.4985 0.4981
3345.865572 0.4977 0.4974 0.4970 0.4965 0.4962
3350.889068 0.4958 0.4954 0.4949 0.4943 0.4939
3355.912565 0.4934 0.4929 0.4925 0.4920 0.4915
3360.936061 0.4910 0.4904 0.4898 0.4892 0.4885
3365.959558 0.4879 0.4873 0.4866 0.4860 0.4854
3370.983054 0.4848 0.4841 0.4833 0.4824 0.4815
3376.006551 0.4806 0.4797 0.4788 0.4779 0.4767
3381.030047 0.4754 0.4743 0.4737 0.4731 0.4724
3386.053544 0.4720 0.4717 0.4715 0.4712 0.4709
3391.077040 0.4707 0.4706 0.4705 0.4704 0.4703
3396.100537 0.4702 0.4701 0.4700 0.4699 0.4698
3401.124033 0.4698 0.4698 0.4698 0.4698 0.4698
3406.147529 0.4697 0.4697 0.4697 0.4697 0.4697
3411.171026 0.4697 0.4698 0.4700 0.4698 0.4699
3416.194522 0.4700 0.4702 0.4703 0.4704 0.4705
3421.218019 0.4707 0.4708 0.4709 0.4710 0.4711
3426.241515 0.4713 0.4715 0.4718 0.4720 0.4723
3431.265012 0.4725 0.4727 0.4730 0.4732 0.4734
3436.288508 0.4737 0.4739 0.4741 0.4744 0.4746
3441.312005 0.4750 0.4755 0.4759 0.4764 0.4768
3446.335501 0.4772 0.4777 0.4781 0.4786 0.4790
3451.358998 0.4794 0.4799 0.4803 0.4808 0.4813
3456.382494 0.4817 0.4821 0.4826 0.4831 0.4837
3461.405991 0.4844 0.4850 0.4857 0.4864 0.4870
3466.429487 0.4876 0.4883 0.4889 0.4895 0.4901
3471.452983 0.4906 0.4912 0.4917 0.4923 0.4928
3476.476480 0.4934 0.4939 0.4945 0.4950 0.4956
3481.499976 0.4962 0.4969 0.4976 0.4982 0.4989
3486.523473 0.4996 0.5003 0.5010 0.5017 0.5024
3491.546969 0.5031 0.5037 0.5044 0.5051 0.5058
3496.570466 0.5065 0.5072 0.5079 0.5086 0.5094
3501.593962 0.5102 0.5110 0.5118 0.5127 0.5135
3506.617459 0.5143 0.5151 0.5159 0.5167 0.5175
3511.640955 0.5183 0.5191 0.5200 0.5208 0.5216
3516.664452 0.5224 0.5232 0.5240 0.5248 0.5257
3521.687948 0.5265 0.5274 0.5283 0.5291 0.5300
3526.711445 0.5308 0.5317 0.5325 0.5334 0.5343
3531.734941 0.5351 0.5359 0.5368 0.5376 0.5385
3536.758437 0.5394 0.5403 0.5411 0.5420 0.5429
3541.781934 0.5438 0.5446 0.5455 0.5464 0.5475
3546.805430 0.5489 0.5504 0.5520 0.5535 0.5550
3551.828927 0.5572 0.5595 0.5621 0.5647 0.5664
3556.852423 0.5679 0.5694 0.5709 0.5724 0.5738
3561.875920 0.5751 0.5762 0.5771 0.5780 0.5789
3566.899416 0.5798 0.5807 0.5815 0.5823 0.5831
3571.922913 0.5838 0.5846 0.5854 0.5862 0.5870
3576.946409 0.5878 0.5886 0.5894 0.5902 0.5910
3581.969906 0.5918 0.5925 0.5933 0.5940 0.5947
3586.993402 0.5957 0.5966 0.5976 0.5986 0.5997
3592.016899 0.6010 0.6023 0.6037 0.6051 0.6068
3597.040395 0.6087 0.6106 0.6122 0.6136 0.6152
3602.063892 0.6173 0.6193 0.6214 0.6238 0.6261
3607.087388 0.6278 0.6297 0.6318 0.6340 0.6356
3612.110884 0.6368 0.6381 0.6393 0.6405 0.6417
3617.134381 0.6425 0.6432 0.6440 0.6448 0.6456
3622.157877 0.6464 0.6472 0.6480 0.6488 0.6496
3627.181374 0.6504 0.6512 0.6519 0.6525 0.6532
3632.204870 0.6538 0.6545 0.6552 0.6559 0.6566
3637.228367 0.6573 0.6581 0.6588 0.6595 0.6601
3642.251863 0.6608 0.6614 0.6621 0.6627 0.6632
3647.275360 0.6635 0.6639 0.6643 0.6646 0.6650
3652.298856 0.6653 0.6657 0.6660 0.6664 0.6667
3657.322353 0.6671 0.6674 0.6677 0.6680 0.6683
3662.345849 0.6686 0.6689 0.6692 0.6695 0.6698
3667.369346 0.6701 0.6705 0.6708 0.6711 0.6712
3672.392842 0.6714 0.6715 0.6717 0.6719 0.6720
3677.416338 0.6722 0.6723 0.6725 0.6727 0.6728
3682.439835 0.6730 0.6731 0.6731 0.6732 0.6733
3687.463331 0.6734 0.6735 0.6736 0.6737 0.6737
3692.486828 0.6738 0.6739 0.6741 0.6742 0.6743
3697.510324 0.6743 0.6744 0.6744 0.6745 0.6746
3702.533821 0.6746 0.6747 0.6748 0.6748 0.6749
3707.557317 0.6749 0.6749 0.6749 0.6749 0.6749
3712.580814 0.6749 0.6749 0.6749 0.6749 0.6749
3717.604310 0.6749 0.6748 0.6749 0.6749 0.6749
3722.627807 0.6750 0.6750 0.6750 0.6750 0.6751
3727.651303 0.6751 0.6751 0.6751 0.6752 0.6752
3732.674800 0.6752 0.6752 0.6752 0.6752 0.6753
3737.698296 0.6753 0.6753 0.6753 0.6753 0.6753
3742.721792 0.6753 0.6753 0.6753 0.6753 0.6753
3747.745289 0.6753 0.6753 0.6753 0.6753 0.6753
3752.768785 0.6753 0.6753 0.6753 0.6753 0.6753
3757.792282 0.6753 0.6753 0.6753 0.6753 0.6752
3762.815778 0.6752 0.6752 0.6752 0.6752 0.6752
3767.839275 0.6752 0.6752 0.6752 0.6752 0.6752
3772.862771 0.6751 0.6751 0.6750 0.6750 0.6749
3777.886268 0.6748 0.6747 0.6747 0.6746 0.6745
3782.909764 0.6744 0.6744 0.6743 0.6742 0.6741
3787.933261 0.6741 0.6740 0.6739 0.6738 0.6738
3792.956757 0.6737 0.6736 0.6735 0.6735 0.6734
3797.980254 0.6733 0.6733 0.6732 0.6732 0.6731
3803.003750 0.6731 0.6730 0.6730 0.6730 0.6729
3808.027246 0.6729 0.6728 0.6728 0.6727 0.6727
3813.050743 0.6726 0.6726 0.6725 0.6725 0.6724
3818.074239 0.6724 0.6723 0.6722 0.6721 0.6720
3823.097736 0.6719 0.6718 0.6717 0.6716 0.6715
3828.121232 0.6714 0.6713 0.6712 0.6711 0.6710
3833.144729 0.6709 0.6708 0.6707 0.6706 0.6705
3838.168225 0.6704 0.6703 0.6701 0.6700 0.6698
3843.191722 0.6697 0.6695 0.6694 0.6692 0.6691
3848.215218 0.6689 0.6688 0.6686 0.6685 0.6683
3853.238715 0.6682 0.6680 0.6679 0.6678 0.6677
3858.262211 0.6676 0.6676 0.6676 0.6675 0.6675
3863.285708 0.6675 0.6674 0.6674 0.6674 0.6673
3868.309204 0.6673 0.6673 0.6673 0.6673 0.6674
3873.332700 0.6676 0.6677 0.6678 0.6679 0.6680
3878.356197 0.6681 0.6682 0.6683 0.6684 0.6685
3883.379693 0.6687 0.6688 0.6689 0.6690 0.6691
3888.403190 0.6692 0.6693 0.6694 0.6695 0.6696
3893.426686 0.6697 0.6698 0.6699 0.6700 0.6701
3898.450183 0.6702 0.6703 0.6704 0.6704 0.6705
3903.473679 0.6706 0.6707 0.6708 0.6709 0.6710
3908.497176 0.6711 0.6711 0.6711 0.6711 0.6712
3913.520672 0.6712 0.6712 0.6712 0.6712 0.6712
3918.544169 0.6712 0.6712 0.6712 0.6712 0.6712
3923.567665 0.6712 0.6712 0.6712 0.6712 0.6713
3928.591162 0.6713 0.6713 0.6714 0.6714 0.6714
3933.614658 0.6714 0.6715 0.6715 0.6715 0.6715
3938.638154 0.6716 0.6716 0.6716 0.6717 0.6717
3943.661651 0.6717 0.6717 0.6718 0.6718 0.6718
3948.685147 0.6719 0.6719 0.6719 0.6730 0.6724
3953.708644 0.6720 0.6720 0.6720 0.6721 0.6721
3958.732140 0.6721 0.6722 0.6721 0.6721 0.6721
3963.755637 0.6721 0.6720 0.6720 0.6720 0.6719
3968.779133 0.6719 0.6719 0.6719 0.6718 0.6718
3973.802630 0.6718 0.6717 0.6717 0.6716 0.6715
3978.826126 0.6714 0.6714 0.6713 0.6712 0.6711
3983.849623 0.6710 0.6710 0.6709 0.6709 0.6710
3988.873119 0.6710 0.6711 0.6711 0.6712 0.6713
3993.896616 0.6713 0.6714 0.6715 0.6716 0.6719
3998.920112 0.6722 0.6726 0.6729 0.6736 0.6742
4003.943608 0.6749 0.6758 0.6768 0.6777 0.6781
4008.967105 0.6784 0.6788 0.6791 0.6794 0.6797
4013.990601 0.6800 0.6801
##END=
