##TITLE=Phenethylguanidine, nitrate
##JCAMP-DX=4.24
$$ By DXEDIT 1.05 (RS McDonald)
##DATA TYPE=INFRARED SPECTRUM
##CLASS=COBLENTZ III
##ORIGIN=DOW CHEMICAL COMPANY
##OWNER=COPYRIGHT (C) 1988 by COBLENTZ SOCIETY INC.
Collection (C) 2018 copyright by the U.S. Secretary of Commerce
on behalf of the United States of America. All rights reserved.
##DATE=1965/03/10
##NAMES=nitric acid compound with N-(2-phenylethyl)guanidine (1:1)
##MOLFORM=C9 H14 N4 O3
##SOURCE REFERENCE=COBLENTZ NO. 06687
##$NIST ID=B6006687
##$NIST SOURCE=COBLENTZ
##$NIST IMAGE=cob6687
##SPECTROMETER/DATA SYSTEM=DOW KBr FOREPRISM-GRATING
##INSTRUMENT PARAMETERS=BLAZED AT 3.5, 12.0, 20.0 MICRON AND CHANGED AT 5.0, 7.5, 14.9 MICRON
##STATE=SOLID (SPLIT MULL)
##SAMPLING PROCEDURE=TRANSMISSION
##RESOLUTION=2
##DATA PROCESSING=DIGITIZED BY COBLENTZ SOCIETY (BATCH I) FROM HARD COPY
##XUNITS=1/CM
##YUNITS=TRANSMITTANCE
##XFACTOR=1
##YFACTOR=1
##DELTAX=1
##FIRSTX=3800
##LASTX=454
##FIRSTY=0.8149
##MAXX=3800
##MINX=454
##MAXY=0.9989
##MINY=0.0518
##NPOINTS=3347
##XYDATA=(X++(Y..Y))
3800.000000 0.8149 0.8150 0.8151 0.8154 0.8158
3795.000000 0.8161 0.8164 0.8167 0.8171 0.8174
3790.000000 0.8178 0.8181 0.8185 0.8188 0.8192
3785.000000 0.8195 0.8199 0.8202 0.8206 0.8209
3780.000000 0.8212 0.8215 0.8218 0.8221 0.8225
3775.000000 0.8228 0.8233 0.8236 0.8240 0.8243
3770.000000 0.8247 0.8250 0.8254 0.8257 0.8261
3765.000000 0.8264 0.8267 0.8270 0.8274 0.8277
3760.000000 0.8281 0.8284 0.8288 0.8291 0.8295
3755.000000 0.8298 0.8302 0.8305 0.8309 0.8312
3750.000000 0.8315 0.8318 0.8321 0.8324 0.8327
3745.000000 0.8330 0.8333 0.8336 0.8339 0.8341
3740.000000 0.8344 0.8347 0.8350 0.8353 0.8356
3735.000000 0.8359 0.8362 0.8365 0.8368 0.8371
3730.000000 0.8375 0.8378 0.8381 0.8384 0.8387
3725.000000 0.8390 0.8393 0.8396 0.8399 0.8402
3720.000000 0.8405 0.8408 0.8411 0.8414 0.8418
3715.000000 0.8421 0.8424 0.8427 0.8430 0.8433
3710.000000 0.8436 0.8439 0.8442 0.8445 0.8449
3705.000000 0.8452 0.8456 0.8459 0.8463 0.8466
3700.000000 0.8470 0.8473 0.8477 0.8480 0.8483
3695.000000 0.8486 0.8490 0.8493 0.8497 0.8500
3690.000000 0.8504 0.8507 0.8511 0.8514 0.8518
3685.000000 0.8521 0.8525 0.8528 0.8532 0.8535
3680.000000 0.8539 0.8543 0.8547 0.8550 0.8554
3675.000000 0.8558 0.8562 0.8565 0.8568 0.8571
3670.000000 0.8575 0.8580 0.8584 0.8587 0.8591
3665.000000 0.8594 0.8598 0.8602 0.8606 0.8609
3660.000000 0.8613 0.8617 0.8621 0.8624 0.8628
3655.000000 0.8631 0.8635 0.8639 0.8643 0.8647
3650.000000 0.8651 0.8655 0.8659 0.8663 0.8667
3645.000000 0.8671 0.8675 0.8680 0.8684 0.8688
3640.000000 0.8692 0.8696 0.8701 0.8705 0.8709
3635.000000 0.8713 0.8717 0.8721 0.8725 0.8730
3630.000000 0.8734 0.8738 0.8742 0.8746 0.8751
3625.000000 0.8754 0.8758 0.8761 0.8765 0.8768
3620.000000 0.8771 0.8775 0.8778 0.8782 0.8786
3615.000000 0.8789 0.8793 0.8796 0.8800 0.8803
3610.000000 0.8807 0.8810 0.8814 0.8818 0.8821
3605.000000 0.8825 0.8828 0.8832 0.8836 0.8839
3600.000000 0.8843 0.8846 0.8849 0.8852 0.8855
3595.000000 0.8858 0.8861 0.8864 0.8867 0.8870
3590.000000 0.8873 0.8875 0.8878 0.8882 0.8885
3585.000000 0.8888 0.8891 0.8894 0.8898 0.8900
3580.000000 0.8903 0.8906 0.8909 0.8911 0.8914
3575.000000 0.8917 0.8920 0.8921 0.8925 0.8928
3570.000000 0.8931 0.8933 0.8936 0.8939 0.8942
3565.000000 0.8945 0.8949 0.8952 0.8956 0.8959
3560.000000 0.8963 0.8966 0.8970 0.8973 0.8977
3555.000000 0.8980 0.8984 0.8988 0.8992 0.8996
3550.000000 0.9001 0.9005 0.9009 0.9013 0.9017
3545.000000 0.9021 0.9025 0.9028 0.9033 0.9037
3540.000000 0.9042 0.9045 0.9049 0.9052 0.9056
3535.000000 0.9060 0.9064 0.9067 0.9071 0.9075
3530.000000 0.9078 0.9082 0.9086 0.9090 0.9094
3525.000000 0.9098 0.9102 0.9105 0.9109 0.9113
3520.000000 0.9117 0.9120 0.9124 0.9125 0.9128
3515.000000 0.9130 0.9132 0.9134 0.9136 0.9137
3510.000000 0.9139 0.9139 0.9140 0.9140 0.9141
3505.000000 0.9141 0.9140 0.9140 0.9140 0.9139
3500.000000 0.9138 0.9136 0.9135 0.9128 0.9124
3495.000000 0.9118 0.9113 0.9105 0.9098 0.9089
3490.000000 0.9081 0.9071 0.9061 0.9049 0.9038
3485.000000 0.9021 0.9007 0.8990 0.8974 0.8954
3480.000000 0.8934 0.8902 0.8870 0.8837 0.8805
3475.000000 0.8755 0.8705 0.8654 0.8604 0.8551
3470.000000 0.8498 0.8444 0.8391 0.8334 0.8278
3465.000000 0.8220 0.8162 0.8105 0.8048 0.7996
3460.000000 0.7944 0.7892 0.7840 0.7788 0.7736
3455.000000 0.7645 0.7555 0.7445 0.7335 0.7241
3450.000000 0.7148 0.7049 0.6951 0.6844 0.6738
3445.000000 0.6611 0.6487 0.6351 0.6215 0.6132
3440.000000 0.6050 0.5970 0.5891 0.5773 0.5656
3435.000000 0.5133 0.4610 0.4458 0.4307 0.4166
3430.000000 0.4025 0.3894 0.3764 0.3632 0.3503
3425.000000 0.3372 0.3242 0.3111 0.2981 0.2851
3420.000000 0.2721 0.2590 0.2460 0.2292 0.2125
3415.000000 0.2059 0.1994 0.1937 0.1882 0.1823
3410.000000 0.1764 0.1737 0.1713 0.1689 0.1665
3405.000000 0.1657 0.1636 0.1644 0.1644 0.1644
3400.000000 0.1649 0.1654 0.1660 0.1675 0.1691
3395.000000 0.1710 0.1729 0.1750 0.1771 0.1791
3390.000000 0.1811 0.1853 0.1894 0.1949 0.2004
3385.000000 0.2071 0.2138 0.2200 0.2263 0.2322
3380.000000 0.2382 0.2434 0.2485 0.2524 0.2562
3375.000000 0.2602 0.2642 0.2684 0.2727 0.2756
3370.000000 0.2785 0.2812 0.2839 0.2860 0.2882
3365.000000 0.2893 0.2904 0.2907 0.2911 0.2914
3360.000000 0.2944 0.2921 0.2924 0.2924 0.2925
3355.000000 0.2920 0.2916 0.2893 0.2871 0.2845
3350.000000 0.2820 0.2794 0.2768 0.2741 0.2715
3345.000000 0.2689 0.2663 0.2638 0.2614 0.2590
3340.000000 0.2567 0.2548 0.2530 0.2511 0.2493
3335.000000 0.2478 0.2464 0.2450 0.2437 0.2426
3330.000000 0.2416 0.2406 0.2397 0.2394 0.2377
3325.000000 0.2389 0.2389 0.2388 0.2390 0.2393
3320.000000 0.2396 0.2403 0.2410 0.2423 0.2435
3315.000000 0.2451 0.2467 0.2485 0.2506 0.2525
3310.000000 0.2545 0.2576 0.2607 0.2634 0.2662
3305.000000 0.2684 0.2709 0.2733 0.2757 0.2773
3300.000000 0.2790 0.2806 0.2823 0.2839 0.2855
3295.000000 0.2870 0.2884 0.2898 0.2911 0.2919
3290.000000 0.2927 0.2934 0.2943 0.2951 0.3012
3285.000000 0.2965 0.2971 0.2976 0.2981 0.2984
3280.000000 0.2987 0.2985 0.2984 0.2972 0.2959
3275.000000 0.2945 0.2932 0.2909 0.2885 0.2864
3270.000000 0.2842 0.2823 0.2805 0.2787 0.2769
3265.000000 0.2754 0.2740 0.2727 0.2682 0.2704
3260.000000 0.2695 0.2693 0.2692 0.2691 0.2690
3255.000000 0.2694 0.2698 0.2705 0.2712 0.2719
3250.000000 0.2726 0.2733 0.2740 0.2747 0.2755
3245.000000 0.2762 0.2770 0.2774 0.2779 0.2782
3240.000000 0.2782 0.2782 0.2780 0.2777 0.2775
3235.000000 0.2770 0.2765 0.2758 0.2752 0.2745
3230.000000 0.2739 0.2718 0.2697 0.2676 0.2655
3225.000000 0.2626 0.2597 0.2557 0.2518 0.2461
3220.000000 0.2404 0.2294 0.2184 0.2098 0.2012
3215.000000 0.1950 0.1889 0.1824 0.1760 0.1635
3210.000000 0.1512 0.1457 0.1402 0.1371 0.1341
3205.000000 0.1314 0.1288 0.1268 0.1248 0.1228
3200.000000 0.1209 0.1177 0.1145 0.1123 0.1101
3195.000000 0.1085 0.1070 0.1061 0.1029 0.1049
3190.000000 0.1046 0.1042 0.1041 0.1040 0.1040
3185.000000 0.1042 0.1046 0.1062 0.1078 0.1105
3180.000000 0.1132 0.1159 0.1187 0.1221 0.1256
3175.000000 0.1307 0.1359 0.1438 0.1518 0.1601
3170.000000 0.1684 0.1837 0.1991 0.2238 0.2485
3165.000000 0.2580 0.2675 0.2752 0.2829 0.2883
3160.000000 0.2937 0.2991 0.3045 0.3106 0.3168
3155.000000 0.3229 0.3290 0.3353 0.3416 0.3482
3150.000000 0.3549 0.3610 0.3673 0.3730 0.3788
3145.000000 0.3843 0.3899 0.3950 0.4004 0.4057
3140.000000 0.4110 0.4156 0.4202 0.4234 0.4267
3135.000000 0.4299 0.4332 0.4364 0.4396 0.4426
3130.000000 0.4456 0.4485 0.4515 0.4544 0.4574
3125.000000 0.4603 0.4632 0.4660 0.4689 0.4712
3120.000000 0.4736 0.4752 0.4768 0.4784 0.4801
3115.000000 0.4817 0.4834 0.4847 0.4860 0.4872
3110.000000 0.4885 0.4897 0.4910 0.4920 0.4930
3105.000000 0.4937 0.4945 0.4953 0.4960 0.4969
3100.000000 0.4977 0.4985 0.4993 0.4999 0.5005
3095.000000 0.5010 0.5015 0.5020 0.5026 0.5031
3090.000000 0.5036 0.5041 0.5047 0.5052 0.5057
3085.000000 0.5060 0.5139 0.5067 0.5070 0.5071
3080.000000 0.5072 0.4889 0.4706 0.4710 0.4712
3075.000000 0.4742 0.4770 0.4798 0.4827 0.4847
3070.000000 0.4868 0.4882 0.4896 0.4905 0.4934
3065.000000 0.4918 0.4923 0.4924 0.4925 0.4919
3060.000000 0.4914 0.4900 0.4887 0.4860 0.4825
3055.000000 0.4831 0.4829 0.4910 0.4992 0.5087
3050.000000 0.5183 0.5258 0.5334 0.5356 0.5378
3045.000000 0.5391 0.5404 0.5415 0.5427 0.5434
3040.000000 0.5441 0.5447 0.5453 0.5459 0.5493
3035.000000 0.5471 0.5476 0.5476 0.5476 0.5443
3030.000000 0.5410 0.5068 0.4727 0.4437 0.4148
3025.000000 0.4147 0.4135 0.4204 0.4260 0.4434
3020.000000 0.4607 0.4780 0.4954 0.5057 0.5160
3015.000000 0.5208 0.5256 0.5308 0.5360 0.5440
3010.000000 0.5520 0.5569 0.5618 0.5660 0.5703
3005.000000 0.5738 0.5774 0.5785 0.5797 0.5807
3000.000000 0.5818 0.5826 0.5835 0.5843 0.5852
2995.000000 0.5862 0.5873 0.5884 0.5895 0.5915
2990.000000 0.5936 0.5973 0.6010 0.6053 0.6097
2985.000000 0.6138 0.6179 0.6206 0.6234 0.6260
2980.000000 0.6287 0.6314 0.6341 0.6371 0.6401
2975.000000 0.6432 0.6461 0.6490 0.6518 0.6547
2970.000000 0.6575 0.6597 0.6618 0.6637 0.6656
2965.000000 0.6662 0.6671 0.6672 0.6675 0.6676
2960.000000 0.6678 0.6681 0.6684 0.6686 0.6689
2955.000000 0.6692 0.6695 0.6703 0.6711 0.6731
2950.000000 0.6751 0.6768 0.6784 0.6804 0.6824
2945.000000 0.6835 0.6847 0.6851 0.6851 0.6853
2940.000000 0.6850 0.6843 0.6836 0.6826 0.6818
2935.000000 0.6806 0.6794 0.6768 0.6744 0.6641
2930.000000 0.6538 0.6442 0.6310 0.6345 0.6345
2925.000000 0.6344 0.6345 0.6356 0.6367 0.6388
2920.000000 0.6408 0.6433 0.6458 0.6487 0.6515
2915.000000 0.6544 0.6571 0.6585 0.6599 0.6611
2910.000000 0.6625 0.6639 0.6653 0.6668 0.6685
2905.000000 0.6699 0.6712 0.6719 0.6728 0.6735
2900.000000 0.6743 0.6750 0.6758 0.6765 0.6772
2895.000000 0.6783 0.6794 0.6811 0.6828 0.6846
2890.000000 0.6864 0.6882 0.6900 0.6917 0.6935
2885.000000 0.6953 0.6971 0.6991 0.7011 0.7030
2880.000000 0.7050 0.7068 0.7086 0.7104 0.7121
2875.000000 0.7147 0.7171 0.7184 0.7197 0.7201
2870.000000 0.7205 0.7208 0.7212 0.7215 0.7219
2865.000000 0.7221 0.7221 0.7212 0.7204 0.7183
2860.000000 0.7162 0.7134 0.7106 0.7074 0.7043
2855.000000 0.7012 0.6984 0.6980 0.6978 0.6978
2850.000000 0.6978 0.6991 0.7003 0.7019 0.7037
2845.000000 0.7065 0.7095 0.7124 0.7153 0.7175
2840.000000 0.7199 0.7221 0.7245 0.7268 0.7291
2835.000000 0.7308 0.7326 0.7342 0.7358 0.7372
2830.000000 0.7389 0.7404 0.7419 0.7435 0.7450
2825.000000 0.7465 0.7481 0.7496 0.7511 0.7522
2820.000000 0.7535 0.7546 0.7558 0.7569 0.7582
2815.000000 0.7594 0.7607 0.7622 0.7639 0.7651
2810.000000 0.7665 0.7678 0.7691 0.7704 0.7717
2805.000000 0.7728 0.7742 0.7754 0.7765 0.7778
2800.000000 0.7791 0.7803 0.7815 0.7825 0.7838
2795.000000 0.7849 0.7860 0.7871 0.7882 0.7891
2790.000000 0.7901 0.7908 0.7915 0.7912 0.7911
2785.000000 0.7907 0.7903 0.7899 0.7895 0.7890
2780.000000 0.7885 0.7880 0.7875 0.7871 0.7867
2775.000000 0.7864 0.7861 0.7858 0.7857 0.7854
2770.000000 0.7851 0.7849 0.7847 0.7844 0.7842
2765.000000 0.7839 0.7837 0.7835 0.7833 0.7831
2760.000000 0.7828 0.7826 0.7825 0.7822 0.7821
2755.000000 0.7818 0.7817 0.7815 0.7815 0.7815
2750.000000 0.7817 0.7817 0.7818 0.7818 0.7818
2745.000000 0.7818 0.7819 0.7821 0.7822 0.7828
2740.000000 0.7834 0.7839 0.7845 0.7850 0.7856
2735.000000 0.7861 0.7867 0.7871 0.7878 0.7883
2730.000000 0.7889 0.7894 0.7900 0.7905 0.7910
2725.000000 0.7915 0.7921 0.7925 0.7932 0.7937
2720.000000 0.7943 0.7948 0.7954 0.7958 0.7965
2715.000000 0.7969 0.7975 0.7981 0.7987 0.7992
2710.000000 0.7998 0.8003 0.8008 0.8014 0.8019
2705.000000 0.8025 0.8031 0.8036 0.8042 0.8047
2700.000000 0.8053 0.8058 0.8064 0.8068 0.8075
2695.000000 0.8080 0.8086 0.8091 0.8097 0.8101
2690.000000 0.8108 0.8112 0.8118 0.8124 0.8130
2685.000000 0.8135 0.8141 0.8146 0.8151 0.8157
2680.000000 0.8162 0.8168 0.8174 0.8178 0.8185
2675.000000 0.8190 0.8196 0.8201 0.8207 0.8212
2670.000000 0.8218 0.8223 0.8228 0.8234 0.8240
2665.000000 0.8245 0.8251 0.8256 0.8262 0.8267
2660.000000 0.8273 0.8278 0.8284 0.8289 0.8295
2655.000000 0.8300 0.8306 0.8311 0.8317 0.8321
2650.000000 0.8328 0.8333 0.8339 0.8343 0.8347
2645.000000 0.8350 0.8353 0.8357 0.8361 0.8365
2640.000000 0.8368 0.8373 0.8378 0.8382 0.8387
2635.000000 0.8391 0.8395 0.8403 0.8411 0.8421
2630.000000 0.8432 0.8448 0.8464 0.8490 0.8517
2625.000000 0.8539 0.8562 0.8568 0.8575 0.8573
2620.000000 0.8571 0.8568 0.8568 0.8567 0.8567
2615.000000 0.8566 0.8565 0.8564 0.8563 0.8562
2610.000000 0.8562 0.8561 0.8560 0.8560 0.8560
2605.000000 0.8562 0.8565 0.8568 0.8571 0.8573
2600.000000 0.8575 0.8578 0.8581 0.8584 0.8587
2595.000000 0.8589 0.8592 0.8594 0.8597 0.8600
2590.000000 0.8603 0.8605 0.8608 0.8611 0.8614
2585.000000 0.8617 0.8621 0.8624 0.8628 0.8632
2580.000000 0.8636 0.8639 0.8643 0.8646 0.8650
2575.000000 0.8653 0.8657 0.8661 0.8665 0.8668
2570.000000 0.8671 0.8675 0.8678 0.8682 0.8686
2565.000000 0.8690 0.8694 0.8697 0.8701 0.8704
2560.000000 0.8708 0.8711 0.8715 0.8718 0.8723
2555.000000 0.8725 0.8730 0.8733 0.8737 0.8740
2550.000000 0.8744 0.8747 0.8750 0.8752 0.8755
2545.000000 0.8757 0.8759 0.8761 0.8764 0.8766
2540.000000 0.8768 0.8771 0.8774 0.8775 0.8778
2535.000000 0.8781 0.8784 0.8786 0.8788 0.8790
2530.000000 0.8793 0.8795 0.8798 0.8800 0.8803
2525.000000 0.8805 0.8808 0.8810 0.8812 0.8814
2520.000000 0.8817 0.8818 0.8821 0.8823 0.8825
2515.000000 0.8825 0.8828 0.8830 0.8832 0.8833
2510.000000 0.8835 0.8836 0.8838 0.8839 0.8841
2505.000000 0.8842 0.8844 0.8844 0.8845 0.8845
2500.000000 0.8845 0.8845 0.8846 0.8846 0.8846
2495.000000 0.8846 0.8847 0.8847 0.8847 0.8847
2490.000000 0.8848 0.8848 0.8848 0.8848 0.8849
2485.000000 0.8849 0.8849 0.8849 0.8849 0.8849
2480.000000 0.8849 0.8848 0.8848 0.8848 0.8848
2475.000000 0.8847 0.8847 0.8847 0.8847 0.8846
2470.000000 0.8846 0.8842 0.8839 0.8836 0.8833
2465.000000 0.8830 0.8827 0.8824 0.8821 0.8818
2460.000000 0.8815 0.8811 0.8808 0.8803 0.8799
2455.000000 0.8794 0.8790 0.8786 0.8786 0.8786
2450.000000 0.8790 0.8793 0.8797 0.8800 0.8804
2445.000000 0.8806 0.8806 0.8806 0.8804 0.8802
2440.000000 0.8800 0.8798 0.8796 0.8789 0.8783
2435.000000 0.8775 0.8770 0.8760 0.8751 0.8739
2430.000000 0.8727 0.8715 0.8704 0.8697 0.8691
2425.000000 0.8688 0.8685 0.8682 0.8682 0.8681
2420.000000 0.8683 0.8687 0.8692 0.8696 0.8700
2415.000000 0.8704 0.8709 0.8713 0.8718 0.8721
2410.000000 0.8727 0.8732 0.8737 0.8741 0.8746
2405.000000 0.8751 0.8756 0.8760 0.8765 0.8768
2400.000000 0.8774 0.8778 0.8782 0.8786 0.8791
2395.000000 0.8789 0.8787 0.8775 0.8765 0.8753
2390.000000 0.8741 0.8721 0.8701 0.8680 0.8660
2385.000000 0.8646 0.8633 0.8623 0.8613 0.8603
2380.000000 0.8594 0.8588 0.8583 0.8580 0.8577
2375.000000 0.8575 0.8575 0.8575 0.8574 0.8573
2370.000000 0.8573 0.8575 0.8578 0.8583 0.8587
2365.000000 0.8590 0.8594 0.8598 0.8602 0.8606
2360.000000 0.8610 0.8614 0.8618 0.8621 0.8625
2355.000000 0.8632 0.8639 0.8645 0.8651 0.8657
2350.000000 0.8664 0.8670 0.8675 0.8682 0.8689
2345.000000 0.8695 0.8701 0.8708 0.8716 0.8724
2340.000000 0.8732 0.8740 0.8749 0.8757 0.8765
2335.000000 0.8773 0.8781 0.8789 0.8798 0.8807
2330.000000 0.8816 0.8825 0.8835 0.8839 0.8844
2325.000000 0.8847 0.8850 0.8852 0.8855 0.8858
2320.000000 0.8861 0.8863 0.8865 0.8866 0.8868
2315.000000 0.8868 0.8871 0.8871 0.8873 0.8874
2310.000000 0.8875 0.8877 0.8878 0.8880 0.8882
2305.000000 0.8883 0.8884 0.8885 0.8887 0.8888
2300.000000 0.8890 0.8891 0.8892 0.8893 0.8895
2295.000000 0.8896 0.8898 0.8899 0.8900 0.8901
2290.000000 0.8903 0.8904 0.8905 0.8906 0.8908
2285.000000 0.8909 0.8911 0.8912 0.8913 0.8914
2280.000000 0.8916 0.8917 0.8918 0.8921 0.8924
2275.000000 0.8925 0.8928 0.8930 0.8933 0.8935
2270.000000 0.8938 0.8940 0.8943 0.8945 0.8948
2265.000000 0.8950 0.8952 0.8954 0.8957 0.8959
2260.000000 0.8962 0.8964 0.8967 0.8968 0.8971
2255.000000 0.8974 0.8977 0.8981 0.8986 0.8990
2250.000000 0.8995 0.8999 0.9004 0.9008 0.9013
2245.000000 0.9017 0.9021 0.9025 0.9030 0.9034
2240.000000 0.9039 0.9043 0.9048 0.9052 0.9057
2235.000000 0.9061 0.9066 0.9070 0.9074 0.9078
2230.000000 0.9084 0.9088 0.9093 0.9097 0.9102
2225.000000 0.9106 0.9111 0.9115 0.9120 0.9124
2220.000000 0.9128 0.9134 0.9139 0.9143 0.9148
2215.000000 0.9152 0.9157 0.9161 0.9166 0.9170
2210.000000 0.9175 0.9178 0.9184 0.9189 0.9194
2205.000000 0.9198 0.9203 0.9207 0.9212 0.9216
2200.000000 0.9221 0.9224 0.9227 0.9230 0.9234
2195.000000 0.9237 0.9240 0.9243 0.9246 0.9249
2190.000000 0.9252 0.9255 0.9259 0.9262 0.9265
2185.000000 0.9268 0.9271 0.9274 0.9278 0.9281
2180.000000 0.9284 0.9287 0.9290 0.9293 0.9296
2175.000000 0.9299 0.9303 0.9306 0.9309 0.9312
2170.000000 0.9315 0.9318 0.9321 0.9325 0.9328
2165.000000 0.9331 0.9334 0.9337 0.9340 0.9343
2160.000000 0.9346 0.9348 0.9351 0.9354 0.9357
2155.000000 0.9359 0.9362 0.9365 0.9368 0.9370
2150.000000 0.9373 0.9375 0.9378 0.9381 0.9384
2145.000000 0.9387 0.9390 0.9392 0.9395 0.9398
2140.000000 0.9401 0.9403 0.9406 0.9409 0.9412
2135.000000 0.9414 0.9417 0.9420 0.9423 0.9425
2130.000000 0.9428 0.9431 0.9434 0.9436 0.9439
2125.000000 0.9442 0.9445 0.9447 0.9450 0.9453
2120.000000 0.9456 0.9458 0.9461 0.9464 0.9467
2115.000000 0.9468 0.9471 0.9475 0.9478 0.9480
2110.000000 0.9483 0.9486 0.9489 0.9491 0.9494
2105.000000 0.9497 0.9500 0.9502 0.9505 0.9508
2100.000000 0.9511 0.9513 0.9516 0.9518 0.9521
2095.000000 0.9525 0.9528 0.9532 0.9536 0.9540
2090.000000 0.9544 0.9548 0.9552 0.9555 0.9559
2085.000000 0.9563 0.9567 0.9570 0.9574 0.9578
2080.000000 0.9582 0.9585 0.9589 0.9593 0.9597
2075.000000 0.9601 0.9605 0.9609 0.9613 0.9617
2070.000000 0.9621 0.9625 0.9631 0.9635 0.9639
2065.000000 0.9643 0.9648 0.9652 0.9656 0.9660
2060.000000 0.9665 0.9668 0.9673 0.9677 0.9682
2055.000000 0.9686 0.9691 0.9695 0.9699 0.9703
2050.000000 0.9707 0.9709 0.9712 0.9715 0.9718
2045.000000 0.9720 0.9723 0.9725 0.9728 0.9732
2040.000000 0.9735 0.9737 0.9740 0.9743 0.9746
2035.000000 0.9748 0.9751 0.9754 0.9757 0.9760
2030.000000 0.9763 0.9765 0.9768 0.9771 0.9774
2025.000000 0.9777 0.9780 0.9783 0.9786 0.9788
2020.000000 0.9791 0.9794 0.9797 0.9800 0.9803
2015.000000 0.9806 0.9809 0.9812 0.9815 0.9818
2010.000000 0.9821 0.9825 0.9830 0.9833 0.9837
2005.000000 0.9841 0.9845 0.9849 0.9853 0.9860
2000.000000 0.9868 0.9875 0.9882 0.9889 0.9895
1995.000000 0.9894 0.9887 0.9873 0.9860 0.9846
1990.000000 0.9832 0.9824 0.9818 0.9815 0.9810
1985.000000 0.9811 0.9812 0.9814 0.9816 0.9817
1980.000000 0.9818 0.9818 0.9818 0.9820 0.9821
1975.000000 0.9821 0.9824 0.9825 0.9827 0.9828
1970.000000 0.9830 0.9832 0.9832 0.9832 0.9833
1965.000000 0.9833 0.9833 0.9833 0.9831 0.9821
1960.000000 0.9810 0.9796 0.9782 0.9774 0.9774
1955.000000 0.9775 0.9775 0.9775 0.9775 0.9778
1950.000000 0.9786 0.9794 0.9802 0.9807 0.9808
1945.000000 0.9809 0.9810 0.9780 0.9756 0.9736
1940.000000 0.9717 0.9706 0.9697 0.9685 0.9674
1935.000000 0.9667 0.9668 0.9668 0.9682 0.9706
1930.000000 0.9730 0.9751 0.9771 0.9791 0.9811
1925.000000 0.9827 0.9842 0.9856 0.9860 0.9865
1920.000000 0.9868 0.9873 0.9877 0.9882 0.9886
1915.000000 0.9890 0.9894 0.9898 0.9901 0.9903
1910.000000 0.9905 0.9908 0.9910 0.9912 0.9915
1905.000000 0.9917 0.9918 0.9921 0.9924 0.9927
1900.000000 0.9930 0.9932 0.9935 0.9938 0.9940
1895.000000 0.9942 0.9944 0.9946 0.9947 0.9940
1890.000000 0.9933 0.9925 0.9913 0.9901 0.9889
1885.000000 0.9878 0.9868 0.9860 0.9852 0.9846
1880.000000 0.9840 0.9840 0.9839 0.9847 0.9856
1875.000000 0.9865 0.9873 0.9878 0.9885 0.9892
1870.000000 0.9895 0.9896 0.9897 0.9893 0.9885
1865.000000 0.9874 0.9859 0.9847 0.9837 0.9828
1860.000000 0.9821 0.9814 0.9810 0.9807 0.9815
1855.000000 0.9832 0.9852 0.9871 0.9893 0.9913
1850.000000 0.9933 0.9947 0.9960 0.9974 0.9977
1845.000000 0.9977 0.9978 0.9978 0.9978 0.9980
1840.000000 0.9980 0.9981 0.9982 0.9982 0.9983
1835.000000 0.9984 0.9984 0.9985 0.9986 0.9987
1830.000000 0.9987 0.9988 0.9989 0.9989 0.9989
1825.000000 0.9989 0.9988 0.9988 0.9987 0.9987
1820.000000 0.9987 0.9986 0.9985 0.9983 0.9982
1815.000000 0.9981 0.9978 0.9978 0.9975 0.9975
1810.000000 0.9971 0.9970 0.9967 0.9964 0.9962
1805.000000 0.9957 0.9952 0.9946 0.9940 0.9934
1800.000000 0.9925 0.9916 0.9902 0.9886 0.9866
1795.000000 0.9847 0.9832 0.9827 0.9839 0.9850
1790.000000 0.9863 0.9875 0.9889 0.9902 0.9914
1785.000000 0.9921 0.9928 0.9934 0.9940 0.9939
1780.000000 0.9933 0.9924 0.9914 0.9975 0.9893
1775.000000 0.9878 0.9858 0.9838 0.9818 0.9795
1770.000000 0.9771 0.9745 0.9716 0.9668 0.9525
1765.000000 0.9368 0.9210 0.9158 0.9153 0.9251
1760.000000 0.9356 0.9454 0.9543 0.9620 0.9680
1755.000000 0.9735 0.9768 0.9794 0.9810 0.9825
1750.000000 0.9841 0.9855 0.9868 0.9882 0.9943
1745.000000 0.9909 0.9900 0.9889 0.9878 0.9866
1740.000000 0.9861 0.9856 0.9851 0.9846 0.9841
1735.000000 0.9837 0.9831 0.9825 0.9820 0.9814
1730.000000 0.9809 0.9804 0.9799 0.9793 0.9780
1725.000000 0.9767 0.9747 0.9727 0.9698 0.9665
1720.000000 0.9618 0.9568 0.9490 0.9411 0.9331
1715.000000 0.9259 0.9191 0.9118 0.9033 0.8940
1710.000000 0.8835 0.8735 0.8645 0.8556 0.8471
1705.000000 0.8390 0.8306 0.8212 0.8118 0.8025
1700.000000 0.7915 0.7799 0.7681 0.7562 0.7391
1695.000000 0.6983 0.6297 0.6004 0.5793 0.5348
1690.000000 0.5210 0.5108 0.4818 0.4314 0.3809
1685.000000 0.3304 0.2800 0.2295 0.1791 0.1286
1680.000000 0.0847 0.0735 0.0636 0.0568 0.0540
1675.000000 0.0518 0.0522 0.0521 0.0526 0.0531
1670.000000 0.0567 0.0679 0.0742 0.0754 0.0759
1665.000000 0.0764 0.0773 0.0786 0.0802 0.0820
1660.000000 0.0839 0.0857 0.0891 0.0926 0.0960
1655.000000 0.1021 0.1084 0.1164 0.1246 0.1335
1650.000000 0.1423 0.1515 0.1609 0.1913 0.2187
1645.000000 0.2461 0.2734 0.3009 0.3282 0.3557
1640.000000 0.3830 0.3864 0.3846 0.3836 0.3797
1635.000000 0.3732 0.3182 0.2855 0.2528 0.2200
1630.000000 0.1873 0.1546 0.1306 0.1298 0.1233
1625.000000 0.1291 0.1292 0.1309 0.1395 0.1734
1620.000000 0.2328 0.2901 0.3009 0.3118 0.3274
1615.000000 0.3434 0.3602 0.3930 0.4262 0.4596
1610.000000 0.4929 0.5260 0.5342 0.5353 0.5303
1605.000000 0.5221 0.5139 0.5090 0.5102 0.5260
1600.000000 0.5417 0.5575 0.5733 0.5890 0.6048
1595.000000 0.6212 0.6386 0.6522 0.6630 0.6718
1590.000000 0.6801 0.6869 0.6901 0.6915 0.6926
1585.000000 0.6940 0.6951 0.6964 0.7022 0.7138
1580.000000 0.7245 0.7330 0.7395 0.7458 0.7524
1575.000000 0.7572 0.7621 0.7668 0.7701 0.7736
1570.000000 0.7769 0.7800 0.7830 0.7858 0.7889
1565.000000 0.7918 0.7948 0.7978 0.8007 0.8037
1560.000000 0.8065 0.8093 0.8121 0.8150 0.8178
1555.000000 0.8207 0.8230 0.8254 0.8277 0.8300
1550.000000 0.8324 0.8343 0.8360 0.8378 0.8395
1545.000000 0.8413 0.8430 0.8448 0.8465 0.8480
1540.000000 0.8495 0.8510 0.8525 0.8540 0.8555
1535.000000 0.8570 0.8583 0.8594 0.8605 0.8615
1530.000000 0.8625 0.8637 0.8648 0.8659 0.8666
1525.000000 0.8671 0.8677 0.8682 0.8687 0.8693
1520.000000 0.8697 0.8698 0.8698 0.8699 0.8700
1515.000000 0.8701 0.8701 0.8702 0.8700 0.8699
1510.000000 0.8698 0.8697 0.8694 0.8691 0.8687
1505.000000 0.8684 0.8675 0.8664 0.8631 0.8587
1500.000000 0.7651 0.6145 0.6009 0.5984 0.6318
1495.000000 0.6614 0.6908 0.7204 0.7500 0.7795
1490.000000 0.7928 0.8019 0.8081 0.8118 0.8144
1485.000000 0.8165 0.8176 0.8204 0.8183 0.8176
1480.000000 0.8155 0.8122 0.8088 0.8031 0.7972
1475.000000 0.7860 0.7621 0.7132 0.6450 0.5797
1470.000000 0.5797 0.5887 0.6071 0.6254 0.6438
1465.000000 0.6621 0.6701 0.6744 0.6785 0.6840
1460.000000 0.6828 0.6821 0.6801 0.6775 0.6734
1455.000000 0.6675 0.5940 0.5555 0.5542 0.5810
1450.000000 0.6396 0.6876 0.6901 0.6922 0.6943
1445.000000 0.6965 0.6993 0.7021 0.7053 0.7111
1440.000000 0.7155 0.7191 0.7211 0.7211 0.7210
1435.000000 0.7188 0.7144 0.7101 0.7058 0.7010
1430.000000 0.6974 0.6953 0.6940 0.6918 0.6872
1425.000000 0.6790 0.6698 0.6578 0.6460 0.5460
1420.000000 0.5274 0.5138 0.5001 0.4853 0.4698
1415.000000 0.4528 0.4326 0.3766 0.3559 0.3236
1410.000000 0.2850 0.2464 0.2079 0.1693 0.1307
1405.000000 0.0976 0.0835 0.0765 0.0702 0.0677
1400.000000 0.0642 0.0661 0.0662 0.0685 0.0713
1395.000000 0.0765 0.0833 0.0922 0.1016 0.1144
1390.000000 0.1254 0.1546 0.1882 0.2217 0.2403
1385.000000 0.2498 0.2598 0.2730 0.2872 0.3056
1380.000000 0.3198 0.3298 0.3248 0.3242 0.3225
1375.000000 0.3200 0.3172 0.3130 0.3061 0.2970
1370.000000 0.2795 0.2699 0.2653 0.2609 0.2592
1365.000000 0.2576 0.2550 0.2457 0.2299 0.2153
1360.000000 0.2009 0.1875 0.1740 0.1583 0.1425
1355.000000 0.1239 0.1104 0.1021 0.0981 0.0949
1350.000000 0.0916 0.0884 0.0849 0.0810 0.0771
1345.000000 0.0733 0.0700 0.0669 0.0651 0.0633
1340.000000 0.0619 0.0616 0.0578 0.0613 0.0622
1335.000000 0.0642 0.0669 0.0703 0.0738 0.0777
1330.000000 0.0817 0.0857 0.0895 0.0933 0.0971
1325.000000 0.1032 0.1098 0.1214 0.1359 0.1523
1320.000000 0.1829 0.2162 0.2349 0.2483 0.2584
1315.000000 0.2685 0.2793 0.2902 0.3022 0.3151
1310.000000 0.3250 0.3312 0.3334 0.3382 0.3360
1305.000000 0.3370 0.3366 0.3316 0.3087 0.2819
1300.000000 0.2550 0.2282 0.2237 0.2239 0.2355
1295.000000 0.2543 0.2732 0.2921 0.3110 0.3299
1290.000000 0.3488 0.3743 0.4022 0.4144 0.4267
1285.000000 0.4390 0.4519 0.4654 0.4774 0.4881
1280.000000 0.4988 0.5087 0.5183 0.5279 0.5374
1275.000000 0.5469 0.5560 0.5643 0.5726 0.5781
1270.000000 0.5831 0.5880 0.5930 0.5980 0.6015
1265.000000 0.6050 0.6085 0.6120 0.6155 0.6184
1260.000000 0.6210 0.6239 0.6266 0.6293 0.6320
1255.000000 0.6348 0.6375 0.6401 0.6421 0.6441
1250.000000 0.6461 0.6480 0.6499 0.6518 0.6538
1245.000000 0.6557 0.6572 0.6587 0.6600 0.6612
1240.000000 0.6625 0.6639 0.6651 0.6665 0.6678
1235.000000 0.6692 0.6704 0.6717 0.6728 0.6742
1230.000000 0.6751 0.6760 0.6768 0.6775 0.6784
1225.000000 0.6789 0.6792 0.6796 0.6799 0.6804
1220.000000 0.6803 0.6800 0.6796 0.6793 0.6785
1215.000000 0.6768 0.6753 0.6725 0.6693 0.6649
1210.000000 0.6592 0.6534 0.6458 0.6367 0.6216
1205.000000 0.6123 0.6038 0.5967 0.5901 0.5860
1200.000000 0.5849 0.5837 0.5826 0.5814 0.5798
1195.000000 0.5777 0.5742 0.5698 0.5624 0.5528
1190.000000 0.5421 0.5314 0.5208 0.5101 0.4994
1185.000000 0.4887 0.4781 0.4674 0.4567 0.4474
1180.000000 0.4448 0.4449 0.4458 0.4487 0.4559
1175.000000 0.4723 0.4912 0.5101 0.5290 0.5478
1170.000000 0.5667 0.5856 0.6045 0.6197 0.6259
1165.000000 0.6323 0.6397 0.6469 0.6544 0.6618
1160.000000 0.6692 0.6758 0.6810 0.6864 0.6949
1155.000000 0.6980 0.6978 0.6961 0.6947 0.6939
1150.000000 0.6932 0.6931 0.6976 0.7058 0.7119
1145.000000 0.7150 0.7161 0.7174 0.7185 0.7194
1140.000000 0.7203 0.7211 0.7218 0.7226 0.7235
1135.000000 0.7244 0.7253 0.7264 0.7274 0.7285
1130.000000 0.7295 0.7304 0.7310 0.7317 0.7322
1125.000000 0.7328 0.7334 0.7337 0.7339 0.7342
1120.000000 0.7344 0.7365 0.7347 0.7344 0.7341
1115.000000 0.7339 0.7336 0.7332 0.7321 0.7311
1110.000000 0.7301 0.7291 0.7281 0.7269 0.7256
1105.000000 0.7243 0.7228 0.7215 0.7200 0.7183
1100.000000 0.7165 0.7149 0.7131 0.7114 0.7097
1095.000000 0.7075 0.7053 0.7031 0.7008 0.6986
1090.000000 0.6965 0.6945 0.6924 0.6904 0.6886
1085.000000 0.6869 0.6853 0.6844 0.6835 0.6810
1080.000000 0.6825 0.6828 0.6844 0.6880 0.6925
1075.000000 0.6971 0.7015 0.7054 0.7092 0.7130
1070.000000 0.7168 0.7205 0.7242 0.7278 0.7315
1065.000000 0.7348 0.7380 0.7411 0.7443 0.7468
1060.000000 0.7496 0.7518 0.7533 0.7546 0.7554
1055.000000 0.7558 0.7558 0.7583 0.7555 0.6541
1050.000000 0.5389 0.5667 0.6100 0.6533 0.6965
1045.000000 0.7395 0.7468 0.7542 0.7594 0.7631
1040.000000 0.7665 0.7698 0.7725 0.7739 0.7746
1035.000000 0.7761 0.7749 0.7749 0.7746 0.7724
1030.000000 0.7685 0.7553 0.7285 0.7021 0.7019
1025.000000 0.7018 0.7085 0.7176 0.7268 0.7371
1020.000000 0.7472 0.7571 0.7669 0.7741 0.7811
1015.000000 0.7878 0.7939 0.8000 0.8045 0.8085
1010.000000 0.8125 0.8165 0.8207 0.8249 0.8290
1005.000000 0.8327 0.8358 0.8390 0.8421 0.8452
1000.000000 0.8481 0.8510 0.8539 0.8568 0.8595
995.000000 0.8621 0.8647 0.8674 0.8695 0.8716
990.000000 0.8736 0.8757 0.8774 0.8788 0.8802
985.000000 0.8816 0.8824 0.8830 0.8835 0.8836
980.000000 0.8825 0.8806 0.8786 0.8764 0.8745
975.000000 0.8738 0.8732 0.8728 0.8728 0.8751
970.000000 0.8778 0.8806 0.8832 0.8847 0.8862
965.000000 0.8877 0.8886 0.8895 0.8903 0.8907
960.000000 0.8908 0.8909 0.8911 0.8912 0.8915
955.000000 0.8918 0.8925 0.8942 0.8959 0.8975
950.000000 0.8993 0.9010 0.9028 0.9045 0.9062
945.000000 0.9078 0.9094 0.9109 0.9124 0.9139
940.000000 0.9152 0.9162 0.9171 0.9182 0.9192
935.000000 0.9197 0.9196 0.9194 0.9193 0.9191
930.000000 0.9184 0.9178 0.9171 0.9166 0.9161
925.000000 0.9161 0.9160 0.9164 0.9168 0.9173
920.000000 0.9181 0.9193 0.9205 0.9217 0.9234
915.000000 0.9256 0.9278 0.9304 0.9334 0.9375
910.000000 0.9427 0.9471 0.9500 0.9505 0.9489
905.000000 0.9466 0.9439 0.9403 0.9360 0.9309
900.000000 0.9250 0.9202 0.9190 0.9197 0.9245
895.000000 0.9310 0.9370 0.9423 0.9455 0.9484
890.000000 0.9511 0.9528 0.9545 0.9562 0.9577
885.000000 0.9586 0.9594 0.9603 0.9612 0.9621
880.000000 0.9628 0.9632 0.9637 0.9642 0.9646
875.000000 0.9651 0.9656 0.9660 0.9664 0.9668
870.000000 0.9671 0.9675 0.9680 0.9684 0.9689
865.000000 0.9693 0.9698 0.9702 0.9707 0.9711
860.000000 0.9716 0.9721 0.9728 0.9733 0.9739
855.000000 0.9744 0.9750 0.9752 0.9753 0.9754
850.000000 0.9754 0.9770 0.9757 0.9757 0.9757
845.000000 0.9740 0.9721 0.9710 0.9699 0.9688
840.000000 0.9680 0.9671 0.9663 0.9655 0.9650
835.000000 0.9646 0.9641 0.9638 0.9634 0.9621
830.000000 0.9598 0.9575 0.9550 0.9513 0.9461
825.000000 0.9403 0.9304 0.9166 0.8724 0.7519
820.000000 0.6316 0.5286 0.5282 0.6333 0.7111
815.000000 0.7890 0.8668 0.9030 0.9178 0.9308
810.000000 0.9402 0.9474 0.9546 0.9597 0.9632
805.000000 0.9658 0.9668 0.9674 0.9678 0.9671
800.000000 0.9660 0.9665 0.9627 0.9625 0.9625
795.000000 0.9631 0.9637 0.9637 0.9638 0.9628
790.000000 0.9618 0.9609 0.9596 0.9575 0.9556
785.000000 0.9536 0.9509 0.9481 0.9452 0.9424
780.000000 0.9392 0.9357 0.9321 0.9286 0.9249
775.000000 0.9212 0.9177 0.9147 0.9117 0.9097
770.000000 0.9078 0.9061 0.9051 0.9043 0.9036
765.000000 0.9018 0.8999 0.8981 0.8955 0.8923
760.000000 0.8891 0.8842 0.8778 0.8709 0.8611
755.000000 0.8511 0.8385 0.8258 0.8121 0.7990
750.000000 0.7868 0.7561 0.6655 0.6233 0.6188
745.000000 0.6199 0.6216 0.6237 0.6257 0.6270
740.000000 0.6276 0.6278 0.6272 0.6262 0.6242
735.000000 0.6222 0.6202 0.6197 0.6193 0.6188
730.000000 0.6183 0.6177 0.6165 0.6153 0.6128
725.000000 0.6090 0.6017 0.5840 0.5853 0.5852
720.000000 0.5982 0.6167 0.6325 0.6347 0.6365
715.000000 0.6395 0.6424 0.6450 0.6569 0.6721
710.000000 0.6872 0.7025 0.7092 0.7071 0.7067
705.000000 0.7030 0.6765 0.5982 0.5199 0.4416
700.000000 0.3632 0.3209 0.3198 0.3591 0.4026
695.000000 0.4460 0.4895 0.5329 0.5762 0.6198
690.000000 0.6632 0.6908 0.7017 0.7089 0.7126
685.000000 0.7133 0.7154 0.7137 0.7125 0.7114
680.000000 0.7101 0.7086 0.7068 0.7051 0.7039
675.000000 0.7028 0.7015 0.6998 0.6971 0.6945
670.000000 0.6924 0.6897 0.6853 0.6801 0.6807
665.000000 0.6824 0.6825 0.6825 0.6815 0.6805
660.000000 0.6793 0.6778 0.6761 0.6747 0.6728
655.000000 0.6708 0.6690 0.6668 0.6646 0.6622
650.000000 0.6601 0.6568 0.6531 0.6493 0.6446
645.000000 0.6394 0.6342 0.6289 0.6236 0.6181
640.000000 0.6126 0.6071 0.6010 0.5951 0.5891
635.000000 0.5825 0.5758 0.5691 0.5623 0.5514
630.000000 0.5400 0.5285 0.5159 0.4972 0.4843
625.000000 0.4725 0.4692 0.4596 0.4482 0.4416
620.000000 0.4360 0.4307 0.4260 0.4212 0.4170
615.000000 0.4129 0.4056 0.3982 0.3884 0.3810
610.000000 0.3754 0.3692 0.3654 0.3622 0.3590
605.000000 0.3564 0.3546 0.3532 0.3521 0.3509
600.000000 0.3502 0.3496 0.3490 0.3486 0.3484
595.000000 0.3480 0.3489 0.3500 0.3512 0.3532
590.000000 0.3550 0.3570 0.3591 0.3612 0.3634
585.000000 0.3655 0.3677 0.3699 0.3720 0.3742
580.000000 0.3762 0.3780 0.3799 0.3816 0.3837
575.000000 0.3856 0.3876 0.3905 0.3942 0.4002
570.000000 0.4080 0.4152 0.4222 0.4292 0.4381
565.000000 0.4487 0.4593 0.4707 0.4820 0.5005
560.000000 0.5166 0.5301 0.5431 0.5562 0.5692
555.000000 0.5822 0.5953 0.6083 0.6214 0.6344
550.000000 0.6474 0.6544 0.6603 0.6662 0.6724
545.000000 0.6800 0.6875 0.6951 0.7026 0.7099
540.000000 0.7171 0.7236 0.7301 0.7357 0.7407
535.000000 0.7456 0.7492 0.7526 0.7548 0.7568
530.000000 0.7590 0.7608 0.7628 0.7643 0.7655
525.000000 0.7667 0.7696 0.7678 0.7678 0.7661
520.000000 0.7646 0.7625 0.7601 0.7578 0.7555
515.000000 0.7535 0.7507 0.7511 0.7519 0.7544
510.000000 0.7618 0.7671 0.7725 0.7784 0.7843
505.000000 0.7878 0.7894 0.7911 0.7951 0.7919
500.000000 0.7915 0.7906 0.7881 0.7855 0.7826
495.000000 0.7808 0.7799 0.7796 0.7796 0.7804
490.000000 0.7818 0.7832 0.7846 0.7861 0.7878
485.000000 0.7895 0.7911 0.7928 0.7944 0.7961
480.000000 0.7976 0.7992 0.8007 0.8021 0.8037
475.000000 0.8051 0.8067 0.8081 0.8094 0.8107
470.000000 0.8119 0.8133 0.8146 0.8158 0.8171
465.000000 0.8183 0.8193 0.8203 0.8212 0.8221
460.000000 0.8232 0.8242 0.8251 0.8260 0.8268
455.000000 0.8277 0.8283
##END=
