##TITLE=N-METHYL-Beta-CARBOHYDRAZIDOPYRIDINIUM-P-TOLUENE SULFONATE
##JCAMP-DX=4.24
##DATA TYPE=INFRARED SPECTRUM
##CLASS=COBLENTZ
##ORIGIN=DOW CHEMICAL COMPANY
##OWNER=COBLENTZ SOCIETY
Collection (C) 2018 copyright by the U.S. Secretary of Commerce
on behalf of the United States of America. All rights reserved.
##DATE=Not specified, most likely prior to 1970
##MOLFORM=C14 H17 N3 O4 S
##SOURCE REFERENCE=COBLENTZ NO. 2283
##$NIST ID=B6002283
##$NIST SOURCE=COBLENTZ
##$NIST IMAGE=cob2283
##SPECTROMETER/DATA SYSTEM=Not specified, most likely a prism, grating, or hybrid spectrometer.
##STATE=SOLID (MINERAL OIL MULL)
##PATH LENGTH=
$$SPECTRAL CONTAMINATION DUE TO OIL AROUND 2900 CM^-^1
##SAMPLING PROCEDURE=TRANSMISSION
##RESOLUTION=4
##DATA PROCESSING=DIGITIZED BY NIST FROM HARD COPY
##XUNITS=MICROMETERS
##YUNITS=TRANSMITTANCE
##XFACTOR=1.000000
##YFACTOR=1
##DELTAX=000.006718
##FIRSTX=2.02
##LASTX=15.9128
##FIRSTY=0.348
##MAXX=15.9128
##MINX=2.02
##MAXY=0.841
##MINY=0.011
##NPOINTS=2069
##XYDATA=(X++(Y..Y))
2.020000 0.3480 0.3500 0.3530 0.3550 0.3550
2.053605 0.3570 0.3580 0.3580 0.3600 0.3620
2.087000 0.3630 0.3630 0.3650 0.3670 0.3670
2.120605 0.3680 0.3700 0.3720 0.3730 0.3730
2.155000 0.3750 0.3770 0.3780 0.3800 0.3800
2.188605 0.3820 0.3830 0.3850 0.3870 0.3870
2.222000 0.3880 0.3900 0.3930 0.3950 0.3950
2.255605 0.3950 0.3950 0.3950 0.3950 0.3950
2.289000 0.3950 0.3970 0.3970 0.3980 0.4000
2.322605 0.4000 0.4040 0.4070 0.4090 0.4100
2.356000 0.4120 0.4150 0.4170 0.4190 0.4200
2.389605 0.4220 0.4220 0.4240 0.4250 0.4290
2.423000 0.4300 0.4300 0.4340 0.4370 0.4390
2.456605 0.4400 0.4420 0.4470 0.4470 0.4490
2.490000 0.4500 0.4520 0.4540 0.4550 0.4570
2.523605 0.4590 0.4590 0.4600 0.4600 0.4640
2.558000 0.4650 0.4700 0.4700 0.4750 0.4790
2.591605 0.4800 0.4800 0.4820 0.4840 0.4850
2.625000 0.4850 0.4870 0.4870 0.4870 0.4870
2.658605 0.4870 0.4890 0.4900 0.4920 0.4940
2.692000 0.4950 0.4950 0.4950 0.4970 0.4970
2.725605 0.4990 0.4990 0.4970 0.4940 0.4870
2.759000 0.4740 0.4620 0.4390 0.4140 0.3920
2.792605 0.3730 0.3550 0.3350 0.3180 0.3150
2.826000 0.3170 0.3230 0.3350 0.3480 0.3650
2.859605 0.3780 0.3850 0.3880 0.3930 0.3970
2.893000 0.4040 0.4140 0.4290 0.4470 0.4620
2.926605 0.4790 0.4900 0.4970 0.4990 0.4990
2.961000 0.4970 0.4690 0.4490 0.4220 0.3930
2.994605 0.3620 0.3330 0.3070 0.2830 0.2670
3.028000 0.2580 0.2430 0.2280 0.2200 0.2200
3.061605 0.2200 0.2280 0.2430 0.2700 0.2880
3.095000 0.3030 0.3170 0.3220 0.3270 0.3300
3.128605 0.3370 0.3520 0.3580 0.3670 0.3730
3.162000 0.3770 0.3800 0.3870 0.3950 0.3980
3.195605 0.4040 0.4040 0.4050 0.4050 0.4050
3.229000 0.4000 0.3930 0.3770 0.3480 0.3300
3.262605 0.3130 0.2980 0.2870 0.2780 0.2700
3.297000 0.2620 0.2550 0.2520 0.2480 0.2470
3.330605 0.2330 0.2220 0.1880 0.1450 0.0950
3.364000 0.0510 0.0180 0.0110 0.0110 0.0110
3.397605 0.0130 0.0130 0.0180 0.0230 0.0280
3.431000 0.0360 0.0450 0.0530 0.0580 0.0600
3.464605 0.0610 0.0680 0.0710 0.0830 0.0950
3.498000 0.1380 0.1900 0.2450 0.3620 0.4140
3.531605 0.4550 0.4870 0.5100 0.5190 0.5270
3.565000 0.5370 0.5470 0.5550 0.5640 0.5700
3.598605 0.5740 0.5770 0.5790 0.5790 0.5790
3.632000 0.5790 0.5790 0.5790 0.5800 0.5820
3.665605 0.5820 0.5840 0.5840 0.5850 0.5870
3.700000 0.5870 0.5890 0.5890 0.5900 0.5920
3.733605 0.5950 0.5950 0.5970 0.5970 0.5990
3.767000 0.6010 0.6040 0.6070 0.6090 0.6120
3.800605 0.6170 0.6190 0.6190 0.6210 0.6210
3.834000 0.6220 0.6220 0.6240 0.6240 0.6270
3.867605 0.6270 0.6310 0.6320 0.6360 0.6370
3.901000 0.6390 0.6390 0.6420 0.6460 0.6470
3.934605 0.6510 0.6560 0.6590 0.6590 0.6610
3.968000 0.6620 0.6660 0.6660 0.6670 0.6670
4.001605 0.6690 0.6710 0.6720 0.6760 0.6760
4.036000 0.6770 0.6770 0.6790 0.6790 0.6790
4.069605 0.6810 0.6810 0.6820 0.6840 0.6860
4.103000 0.6870 0.6870 0.6870 0.6890 0.6890
4.136605 0.6890 0.6910 0.6910 0.6920 0.6960
4.170000 0.6970 0.6970 0.6970 0.6990 0.6990
4.203605 0.6990 0.6990 0.7010 0.7010 0.7010
4.237000 0.7020 0.7020 0.7020 0.7040 0.7040
4.270605 0.7060 0.7060 0.7070 0.7070 0.7090
4.304000 0.7110 0.7120 0.7140 0.7160 0.7170
4.337605 0.7190 0.7190 0.7210 0.7210 0.7210
4.371000 0.7220 0.7220 0.7220 0.7220 0.7240
4.404605 0.7240 0.7260 0.7260 0.7260 0.7260
4.439000 0.7270 0.7270 0.7270 0.7270 0.7270
4.472605 0.7270 0.7270 0.7290 0.7290 0.7310
4.506000 0.7310 0.7310 0.7290 0.7290 0.7290
4.539605 0.7290 0.7290 0.7320 0.7320 0.7360
4.573000 0.7360 0.7370 0.7390 0.7390 0.7390
4.606605 0.7410 0.7410 0.7410 0.7410 0.7420
4.640000 0.7420 0.7440 0.7460 0.7460 0.7460
4.673605 0.7460 0.7460 0.7460 0.7460 0.7460
4.707000 0.7460 0.7460 0.7460 0.7460 0.7470
4.740605 0.7470 0.7470 0.7470 0.7490 0.7520
4.774000 0.7540 0.7570 0.7610 0.7640 0.7660
4.807605 0.7670 0.7670 0.7670 0.7670 0.7670
4.842000 0.7670 0.7670 0.7670 0.7670 0.7670
4.875605 0.7690 0.7690 0.7690 0.7720 0.7720
4.909000 0.7740 0.7740 0.7760 0.7760 0.7760
4.942605 0.7770 0.7770 0.7770 0.7770 0.7790
4.976000 0.7790 0.7790 0.7790 0.7790 0.7790
5.009605 0.7790 0.7790 0.7790 0.7790 0.7790
5.043000 0.7790 0.7790 0.7790 0.7790 0.7810
5.076605 0.7840 0.7870 0.7870 0.7870 0.7870
5.110000 0.7890 0.7890 0.7890 0.7890 0.7890
5.143605 0.7870 0.7870 0.7860 0.7810 0.7790
5.178000 0.7790 0.7770 0.7770 0.7770 0.7790
5.211605 0.7810 0.7860 0.7870 0.7890 0.7970
5.245000 0.7990 0.8010 0.8030 0.8060 0.8060
5.278605 0.8060 0.8080 0.8080 0.8080 0.8090
5.312000 0.8110 0.8130 0.8130 0.8140 0.8190
5.345605 0.8190 0.8190 0.8210 0.8210 0.8210
5.379000 0.8210 0.8210 0.8230 0.8230 0.8230
5.412605 0.8230 0.8230 0.8230 0.8230 0.8230
5.446000 0.8230 0.8230 0.8230 0.8230 0.8230
5.479605 0.8240 0.8240 0.8240 0.8240 0.8240
5.513000 0.8260 0.8260 0.8280 0.8290 0.8290
5.546605 0.8290 0.8290 0.8290 0.8290 0.8290
5.581000 0.8310 0.8310 0.8310 0.8310 0.8310
5.614605 0.8310 0.8310 0.8310 0.8330 0.8340
5.648000 0.8340 0.8360 0.8360 0.8380 0.8380
5.681605 0.8390 0.8410 0.8410 0.8410 0.8410
5.715000 0.8410 0.8410 0.8410 0.8410 0.8410
5.748605 0.8390 0.8390 0.8390 0.8380 0.8380
5.782000 0.8340 0.8310 0.8280 0.8230 0.8190
5.815605 0.8180 0.8160 0.8140 0.8110 0.8080
5.849000 0.8040 0.7970 0.7890 0.7810 0.7670
5.882605 0.7520 0.7440 0.7340 0.7060 0.6760
5.917000 0.6490 0.6190 0.5800 0.5140 0.4800
5.950605 0.4470 0.3800 0.3150 0.2700 0.2420
5.984000 0.2120 0.1930 0.1930 0.1930 0.2100
6.017605 0.2280 0.2870 0.3120 0.3370 0.3680
6.051000 0.3950 0.4040 0.4140 0.4190 0.4190
6.084605 0.4190 0.4100 0.4000 0.3950 0.3850
6.118000 0.3680 0.3530 0.3280 0.3270 0.3250
6.151605 0.3250 0.3270 0.3330 0.3400 0.3630
6.185000 0.3780 0.3820 0.4170 0.4440 0.4890
6.218605 0.4970 0.5170 0.5190 0.5190 0.5170
6.252000 0.5150 0.5150 0.5150 0.5170 0.5240
6.285605 0.5340 0.5450 0.5640 0.5800 0.5950
6.320000 0.6110 0.6240 0.6340 0.6460 0.6540
6.353605 0.6610 0.6670 0.6710 0.6710 0.6710
6.387000 0.6640 0.6570 0.6420 0.6170 0.5900
6.420605 0.5650 0.5490 0.5250 0.5090 0.5040
6.454000 0.4990 0.4840 0.4700 0.4470 0.4400
6.487605 0.4400 0.4400 0.4400 0.4420 0.4470
6.521000 0.4520 0.4590 0.4670 0.4740 0.4800
6.554605 0.4890 0.4940 0.4970 0.4990 0.5020
6.588000 0.5020 0.5000 0.4990 0.4890 0.4790
6.621605 0.4600 0.4370 0.4200 0.4070 0.4020
6.655000 0.4000 0.4020 0.4050 0.4090 0.4190
6.688605 0.4320 0.4440 0.4550 0.4650 0.4790
6.723000 0.4870 0.4890 0.4900 0.4890 0.4750
6.756605 0.4390 0.4000 0.3550 0.3180 0.3000
6.790000 0.2700 0.2570 0.2430 0.2270 0.2250
6.823605 0.2250 0.2270 0.2280 0.2330 0.2420
6.857000 0.2700 0.2880 0.3050 0.3200 0.3380
6.890605 0.3580 0.3780 0.4000 0.4240 0.4470
6.924000 0.4700 0.4920 0.5320 0.5490 0.5640
6.957605 0.5750 0.5840 0.5940 0.5950 0.6020
6.991000 0.6070 0.6140 0.6220 0.6290 0.6370
7.024605 0.6440 0.6490 0.6570 0.6570 0.6610
7.059000 0.6620 0.6620 0.6620 0.6620 0.6610
7.092605 0.6590 0.6570 0.6570 0.6520 0.6510
7.126000 0.6490 0.6470 0.6440 0.6390 0.6270
7.159605 0.6140 0.5950 0.5700 0.5490 0.5220
7.193000 0.5070 0.4900 0.4320 0.4100 0.4050
7.226605 0.4040 0.4040 0.4050 0.4090 0.4170
7.260000 0.4350 0.4500 0.4650 0.4820 0.4990
7.293605 0.5140 0.5300 0.5390 0.5490 0.5520
7.327000 0.5590 0.5620 0.5670 0.5670 0.5620
7.360605 0.5590 0.5550 0.5490 0.5420 0.5390
7.394000 0.5320 0.5300 0.5320 0.5350 0.5400
7.427605 0.5470 0.5540 0.5590 0.5650 0.5720
7.462000 0.5770 0.5770 0.5770 0.5790 0.5790
7.495605 0.5790 0.5770 0.5770 0.5750 0.5750
7.529000 0.5750 0.5770 0.5790 0.5790 0.5800
7.562605 0.5820 0.5840 0.5850 0.5850 0.5840
7.596000 0.5840 0.5790 0.5650 0.5620 0.5620
7.629605 0.5600 0.5600 0.5590 0.5570 0.5540
7.663000 0.5520 0.5500 0.5490 0.5470 0.5450
7.696605 0.5440 0.5420 0.5400 0.5400 0.5400
7.730000 0.5400 0.5420 0.5420 0.5450 0.5500
7.763605 0.5590 0.5640 0.5690 0.5740 0.5800
7.798000 0.5890 0.5950 0.5990 0.6040 0.6090
7.831605 0.6160 0.6210 0.6240 0.6290 0.6320
7.865000 0.6340 0.6370 0.6390 0.6420 0.6440
7.898605 0.6460 0.6460 0.6470 0.6470 0.6470
7.932000 0.6470 0.6470 0.6470 0.6460 0.6420
7.965605 0.6410 0.6370 0.6360 0.6310 0.6290
7.999000 0.6090 0.5900 0.5720 0.5540 0.5350
8.032605 0.5150 0.5040 0.4900 0.4620 0.4290
8.066000 0.3870 0.3530 0.3230 0.2770 0.2580
8.099605 0.2400 0.2120 0.1910 0.1660 0.1500
8.133000 0.1430 0.1430 0.1430 0.1450 0.1480
8.166605 0.1530 0.1650 0.1760 0.1860 0.2000
8.201000 0.2120 0.2270 0.2430 0.2650 0.2720
8.234605 0.2800 0.2950 0.3030 0.3130 0.3220
8.268000 0.3280 0.3370 0.3450 0.3500 0.3520
8.301605 0.3530 0.3570 0.3570 0.3530 0.3480
8.335000 0.3380 0.3230 0.3070 0.2930 0.2680
8.368605 0.2520 0.2430 0.2330 0.2270 0.2230
8.402000 0.2080 0.1810 0.1600 0.1550 0.1460
8.435605 0.1400 0.1350 0.1310 0.1310 0.1300
8.469000 0.1300 0.1300 0.1310 0.1330 0.1380
8.502605 0.1410 0.1500 0.1560 0.1610 0.1680
8.536000 0.1710 0.1780 0.1810 0.1900 0.1960
8.569605 0.2020 0.2130 0.2230 0.2370 0.2730
8.604000 0.3020 0.3250 0.3380 0.3520 0.3720
8.637605 0.3850 0.3980 0.4120 0.4290 0.4490
8.671000 0.4570 0.4690 0.4800 0.4900 0.5090
8.704605 0.5170 0.5220 0.5290 0.5300 0.5370
8.738000 0.5400 0.5470 0.5490 0.5500 0.5570
8.771605 0.5570 0.5590 0.5590 0.5600 0.5590
8.805000 0.5540 0.5450 0.5440 0.5320 0.5150
8.838605 0.5070 0.4970 0.4800 0.4600 0.4490
8.872000 0.4240 0.4000 0.3720 0.3580 0.3020
8.905605 0.2880 0.2680 0.2480 0.2230 0.2150
8.940000 0.2020 0.2000 0.2000 0.2030 0.2200
8.973605 0.2370 0.2700 0.2900 0.3150 0.3380
9.007000 0.3620 0.3830 0.4020 0.4190 0.4290
9.040605 0.4400 0.4540 0.4670 0.4800 0.4940
9.074000 0.5190 0.5290 0.5370 0.5500 0.5550
9.107605 0.5690 0.5770 0.5870 0.5950 0.5990
9.141000 0.6010 0.6090 0.6120 0.6160 0.6190
9.174605 0.6210 0.6220 0.6240 0.6260 0.6290
9.208000 0.6290 0.6310 0.6310 0.6340 0.6390
9.241605 0.6390 0.6410 0.6440 0.6490 0.6540
9.275000 0.6590 0.6620 0.6670 0.6710 0.6740
9.308605 0.6770 0.6790 0.6820 0.6890 0.6890
9.343000 0.6920 0.6990 0.7010 0.7020 0.7060
9.376605 0.7090 0.7090 0.7110 0.7120 0.7140
9.410000 0.7160 0.7170 0.7190 0.7210 0.7220
9.443605 0.7270 0.7270 0.7310 0.7310 0.7320
9.477000 0.7360 0.7390 0.7390 0.7390 0.7410
9.510605 0.7420 0.7420 0.7420 0.7420 0.7420
9.544000 0.7410 0.7390 0.7320 0.7240 0.7090
9.577605 0.6910 0.6660 0.6310 0.5890 0.5400
9.611000 0.5150 0.4890 0.4300 0.3650 0.3380
9.644605 0.3120 0.2730 0.2350 0.2120 0.2120
9.679000 0.2120 0.2170 0.2320 0.2420 0.3050
9.712605 0.3370 0.3620 0.4290 0.4750 0.5350
9.746000 0.5540 0.5750 0.5990 0.6220 0.6410
9.779605 0.6570 0.6670 0.6710 0.6770 0.6810
9.813000 0.6840 0.6840 0.6810 0.6740 0.6510
9.846605 0.6210 0.5820 0.5700 0.5200 0.4700
9.880000 0.4140 0.3600 0.3180 0.2880 0.2870
9.913605 0.2880 0.3050 0.3270 0.3480 0.3850
9.947000 0.4320 0.4770 0.5340 0.5440 0.5650
9.980605 0.5800 0.5940 0.6060 0.6170 0.6270
10.014000 0.6360 0.6440 0.6490 0.6520 0.6590
10.047605 0.6620 0.6670 0.6690 0.6710 0.6710
10.082000 0.6720 0.6720 0.6720 0.6720 0.6720
10.115605 0.6720 0.6710 0.6690 0.6670 0.6620
10.149000 0.6590 0.6570 0.6490 0.6490 0.6440
10.182605 0.6370 0.6320 0.6210 0.6090 0.5970
10.216000 0.5890 0.5800 0.5700 0.5590 0.5540
10.249605 0.5440 0.5300 0.5240 0.5100 0.5040
10.283000 0.4970 0.4900 0.4800 0.4720 0.4590
10.316605 0.4540 0.4450 0.4390 0.4300 0.4270
10.350000 0.4270 0.4240 0.4240 0.4240 0.4240
10.383605 0.4240 0.4250 0.4290 0.4320 0.4390
10.417000 0.4440 0.4470 0.4520 0.4600 0.4670
10.450605 0.4740 0.4800 0.4890 0.4990 0.5190
10.485000 0.5300 0.5440 0.5540 0.5640 0.5770
10.518605 0.5890 0.5970 0.6040 0.6110 0.6210
10.552000 0.6290 0.6320 0.6420 0.6490 0.6520
10.585605 0.6610 0.6690 0.6720 0.6760 0.6770
10.619000 0.6890 0.6910 0.6960 0.6990 0.7040
10.652605 0.7070 0.7110 0.7120 0.7170 0.7190
10.686000 0.7210 0.7240 0.7270 0.7290 0.7290
10.719605 0.7320 0.7340 0.7390 0.7390 0.7410
10.753000 0.7410 0.7420 0.7440 0.7490 0.7510
10.786605 0.7520 0.7540 0.7560 0.7570 0.7570
10.821000 0.7590 0.7590 0.7610 0.7610 0.7610
10.854605 0.7610 0.7610 0.7610 0.7610 0.7610
10.888000 0.7610 0.7620 0.7620 0.7610 0.7610
10.921605 0.7610 0.7620 0.7620 0.7620 0.7620
10.955000 0.7620 0.7620 0.7620 0.7620 0.7620
10.988605 0.7620 0.7620 0.7620 0.7610 0.7590
11.022000 0.7590 0.7590 0.7590 0.7590 0.7540
11.055605 0.7540 0.7520 0.7510 0.7510 0.7490
11.089000 0.7440 0.7420 0.7410 0.7390 0.7340
11.122605 0.7320 0.7310 0.7310 0.7310 0.7310
11.156000 0.7310 0.7310 0.7310 0.7310 0.7310
11.189605 0.7310 0.7310 0.7320 0.7340 0.7360
11.224000 0.7370 0.7390 0.7410 0.7440 0.7490
11.257605 0.7490 0.7590 0.7610 0.7660 0.7690
11.291000 0.7710 0.7720 0.7740 0.7760 0.7760
11.324605 0.7770 0.7790 0.7790 0.7810 0.7810
11.358000 0.7820 0.7840 0.7870 0.7890 0.7890
11.391605 0.7910 0.7920 0.7920 0.7940 0.7940
11.425000 0.7960 0.7970 0.7970 0.7970 0.7990
11.458605 0.7990 0.7990 0.7990 0.7990 0.7990
11.492000 0.8010 0.8010 0.8010 0.8010 0.8010
11.525605 0.8010 0.8010 0.8010 0.8030 0.8030
11.560000 0.8030 0.8030 0.8030 0.8040 0.8040
11.593605 0.8040 0.8040 0.8040 0.8040 0.8040
11.627000 0.8040 0.8040 0.8040 0.8040 0.8040
11.660605 0.8040 0.8040 0.8030 0.8010 0.8010
11.694000 0.7990 0.7970 0.7910 0.7890 0.7820
11.727605 0.7810 0.7760 0.7710 0.7640 0.7610
11.761000 0.7560 0.7510 0.7490 0.7470 0.7420
11.794605 0.7390 0.7340 0.7290 0.7240 0.7210
11.828000 0.7190 0.7170 0.7170 0.7160 0.7140
11.861605 0.7140 0.7120 0.7110 0.7110 0.7090
11.895000 0.7070 0.7070 0.7060 0.7040 0.7010
11.928605 0.6970 0.6960 0.6940 0.6910 0.6890
11.963000 0.6820 0.6790 0.6720 0.6690 0.6620
11.996605 0.6610 0.6540 0.6470 0.6420 0.6360
12.030000 0.6310 0.6240 0.6160 0.6040 0.5890
12.063605 0.5690 0.5540 0.5340 0.5140 0.5070
12.097000 0.4990 0.4800 0.4600 0.4450 0.4390
12.130605 0.4370 0.4390 0.4420 0.4540 0.4640
12.164000 0.4840 0.5250 0.5470 0.5670 0.5840
12.197605 0.6010 0.6170 0.6310 0.6440 0.6540
12.231000 0.6640 0.6740 0.6840 0.6940 0.7060
12.264605 0.7170 0.7270 0.7390 0.7590 0.7670
12.298000 0.7720 0.7790 0.7820 0.7870 0.7910
12.331605 0.7940 0.7970 0.8010 0.8040 0.8060
12.366000 0.8110 0.8130 0.8140 0.8140 0.8180
12.399605 0.8180 0.8190 0.8190 0.8190 0.8190
12.433000 0.8190 0.8180 0.8130 0.8090 0.8060
12.466605 0.7990 0.7960 0.7890 0.7820 0.7770
12.500000 0.7720 0.7720 0.7720 0.7720 0.7740
12.533605 0.7790 0.7810 0.7840 0.7910 0.7970
12.567000 0.8010 0.8060 0.8130 0.8140 0.8190
12.600605 0.8210 0.8230 0.8240 0.8260 0.8280
12.634000 0.8280 0.8290 0.8290 0.8310 0.8310
12.667605 0.8310 0.8310 0.8330 0.8330 0.8330
12.702000 0.8330 0.8330 0.8330 0.8330 0.8330
12.735605 0.8330 0.8330 0.8330 0.8330 0.8330
12.769000 0.8330 0.8330 0.8330 0.8330 0.8330
12.802605 0.8330 0.8330 0.8330 0.8330 0.8330
12.836000 0.8330 0.8310 0.8310 0.8310 0.8310
12.869605 0.8290 0.8290 0.8240 0.8230 0.8230
12.903000 0.8230 0.8230 0.8230 0.8230 0.8230
12.936605 0.8230 0.8230 0.8230 0.8230 0.8230
12.970000 0.8230 0.8230 0.8230 0.8230 0.8240
13.003605 0.8240 0.8240 0.8230 0.8230 0.8230
13.037000 0.8230 0.8230 0.8230 0.8230 0.8230
13.070605 0.8230 0.8230 0.8230 0.8230 0.8230
13.105000 0.8230 0.8230 0.8230 0.8230 0.8210
13.138605 0.8190 0.8180 0.8160 0.8140 0.8130
13.172000 0.8130 0.8130 0.8130 0.8130 0.8130
13.205605 0.8110 0.8110 0.8090 0.8080 0.8060
13.239000 0.8040 0.8030 0.8030 0.8030 0.8010
13.272605 0.8010 0.8010 0.7990 0.7990 0.7990
13.306000 0.7970 0.7970 0.7960 0.7960 0.7940
13.339605 0.7940 0.7920 0.7920 0.7910 0.7910
13.373000 0.7910 0.7890 0.7890 0.7890 0.7870
13.406605 0.7870 0.7840 0.7820 0.7810 0.7790
13.440000 0.7790 0.7770 0.7760 0.7740 0.7740
13.473605 0.7720 0.7710 0.7690 0.7670 0.7660
13.508000 0.7660 0.7640 0.7620 0.7620 0.7610
13.541605 0.7590 0.7570 0.7560 0.7560 0.7520
13.575000 0.7510 0.7510 0.7490 0.7490 0.7470
13.608605 0.7460 0.7440 0.7420 0.7410 0.7390
13.642000 0.7390 0.7370 0.7320 0.7320 0.7310
13.675605 0.7290 0.7270 0.7240 0.7220 0.7210
13.709000 0.7190 0.7190 0.7160 0.7120 0.7120
13.742605 0.7110 0.7110 0.7090 0.7070 0.7040
13.776000 0.7020 0.7010 0.6990 0.6990 0.6970
13.809605 0.6970 0.6940 0.6910 0.6870 0.6870
13.844000 0.6860 0.6840 0.6820 0.6810 0.6810
13.877605 0.6810 0.6810 0.6810 0.6810 0.6810
13.911000 0.6810 0.6790 0.6790 0.6790 0.6770
13.944605 0.6770 0.6770 0.6720 0.6710 0.6690
13.978000 0.6670 0.6640 0.6620 0.6590 0.6560
14.011605 0.6510 0.6460 0.6410 0.6370 0.6320
14.045000 0.6290 0.6270 0.6220 0.6190 0.6170
14.078605 0.6170 0.6120 0.6090 0.6070 0.6040
14.112000 0.5990 0.5970 0.5940 0.5900 0.5870
14.145605 0.5790 0.5740 0.5700 0.5600 0.5590
14.179000 0.5570 0.5490 0.5390 0.5270 0.5170
14.212605 0.5090 0.5040 0.4990 0.4920 0.4820
14.247000 0.4740 0.4640 0.4520 0.4400 0.4300
14.280605 0.4170 0.4050 0.3930 0.3820 0.3700
14.314000 0.3570 0.3450 0.3330 0.3220 0.3100
14.347605 0.2970 0.2850 0.2750 0.2670 0.2570
14.381000 0.2500 0.2480 0.2450 0.2370 0.2330
14.414605 0.2280 0.2220 0.2200 0.2180 0.2180
14.448000 0.2170 0.2170 0.2170 0.2170 0.2170
14.481605 0.2180 0.2220 0.2280 0.2350 0.2380
14.515000 0.2400 0.2430 0.2480 0.2550 0.2570
14.548605 0.2580 0.2600 0.2600 0.2620 0.2620
14.583000 0.2620 0.2600 0.2570 0.2520 0.2500
14.616605 0.2470 0.2400 0.2330 0.2230 0.2150
14.650000 0.2050 0.1960 0.1850 0.1810 0.1730
14.683605 0.1660 0.1580 0.1530 0.1500 0.1460
14.717000 0.1410 0.1400 0.1380 0.1380 0.1380
14.750605 0.1380 0.1380 0.1380 0.1400 0.1550
14.784000 0.1600 0.1660 0.1750 0.1850 0.1960
14.817605 0.2070 0.2200 0.2320 0.2430 0.2670
14.851000 0.2780 0.2880 0.2970 0.3030 0.3120
14.884605 0.3180 0.3250 0.3320 0.3380 0.3470
14.918000 0.3550 0.3670 0.3770 0.3850 0.3950
14.951605 0.4050 0.4140 0.4240 0.4340 0.4440
14.986000 0.4540 0.4590 0.4650 0.4740 0.4820
15.019605 0.4890 0.4920 0.4970 0.4990 0.5020
15.053000 0.5040 0.5070 0.5070 0.5090 0.5090
15.086605 0.5100 0.5100 0.5140 0.5140 0.5150
15.120000 0.5150 0.5150 0.5170 0.5170 0.5170
15.153605 0.5170 0.5170 0.5170 0.5170 0.5170
15.187000 0.5170 0.5170 0.5150 0.5150 0.5150
15.220605 0.5140 0.5140 0.5120 0.5100 0.5090
15.254000 0.5090 0.5090 0.5070 0.5050 0.5040
15.287605 0.5040 0.5000 0.5000 0.5000 0.4990
15.321000 0.4990 0.4990 0.4970 0.4950 0.4950
15.354605 0.4920 0.4900 0.4900 0.4900 0.4890
15.389000 0.4890 0.4870 0.4870 0.4870 0.4870
15.422605 0.4870 0.4870 0.4870 0.4870 0.4870
15.456000 0.4870 0.4870 0.4870 0.4870 0.4870
15.489605 0.4870 0.4870 0.4870 0.4870 0.4870
15.523000 0.4870 0.4870 0.4870 0.4870 0.4870
15.556605 0.4870 0.4890 0.4890 0.4900 0.4900
15.590000 0.4900 0.4900 0.4920 0.4920 0.4940
15.623605 0.4950 0.4950 0.4950 0.4950 0.4970
15.657000 0.4970 0.4970 0.4970 0.4990 0.4990
15.690605 0.5000 0.5000 0.5000 0.5000 0.5000
15.725000 0.5000 0.5000 0.5020 0.5020 0.5020
15.758605 0.5020 0.5020 0.5020 0.5040 0.5040
15.792000 0.5040 0.5040 0.5040 0.5040 0.5040
15.825605 0.5040 0.5040 0.5040 0.5050 0.5050
15.859000 0.5050 0.5050 0.5070 0.5070 0.5070
15.892605 0.5070 0.5070 0.6520 0.5070
##END=
