##TITLE=M-TOLUIDINE, N-(P-METHOXYBENZYLIDENE)-4-(P-METHOXYPHENYLAZO)-, HYDROGEN TETRAFLUOROBORATE
##JCAMP-DX=4.24
##DATA TYPE=INFRARED SPECTRUM
##CLASS=COBLENTZ III
##ORIGIN=HUNGARIAN ACAD. OF SCI., VIA SCIENTIFIC DOC. CENTRE LTD.
##OWNER=COBLENTZ SOCIETY
Collection (C) 2018 copyright by the U.S. Secretary of Commerce
on behalf of the United States of America. All rights reserved.
##DATE=1967
##MOLFORM=C22 H22 B F4 N3 O2
##SOURCE REFERENCE=COBLENTZ NO. 5838
##$NIST ID=B6005838
##$NIST SOURCE=COBLENTZ
##$NIST IMAGE=cob5838
##SPECTROMETER/DATA SYSTEM=UNICAM SP-200
##STATE=SOLID (KBr DISC)
##SAMPLING PROCEDURE=TRANSMISSION
##RESOLUTION=4
##DATA PROCESSING=DIGITIZED BY NIST FROM HARD COPY (FROM TWO SEGMENTS)
##XUNITS=1/CM
##YUNITS=TRANSMITTANCE
##XFACTOR=1.000000
##YFACTOR=1
##DELTAX=0.794586
##FIRSTX=650.795
##LASTX=4967.78
##FIRSTY=0.842
##MAXX=4967.78
##MINX=650.795
##MAXY=0.866
##MINY=0.053
##NPOINTS=5434
##XYDATA=(X++(Y..Y))
650.795000 0.8420 0.8420 0.8440 0.8460 0.8470
654.767930 0.8490 0.8510 0.8520 0.8530 0.8530
658.740861 0.8530 0.8540 0.8540 0.8550 0.8560
662.713791 0.8560 0.8560 0.8560 0.8560 0.8550
666.686721 0.8540 0.8540 0.8530 0.8540 0.8540
670.659652 0.8550 0.8560 0.8560 0.8560 0.8560
674.632582 0.8560 0.8560 0.8560 0.8560 0.8570
678.605513 0.8580 0.8590 0.8590 0.8590 0.8600
682.578443 0.8620 0.8640 0.8630 0.8610 0.8580
686.551373 0.8560 0.8510 0.8450 0.8450 0.8510
690.524304 0.8530 0.8580 0.8600 0.8650 0.8660
694.497234 0.8660 0.8630 0.8620 0.8600 0.8600
698.470164 0.8600 0.8590 0.8590 0.8590 0.8590
702.443095 0.8580 0.8580 0.8580 0.8580 0.8580
706.416025 0.8570 0.8570 0.8560 0.8550 0.8540
710.388956 0.8420 0.8350 0.8260 0.8330 0.8420
714.361886 0.8440 0.8460 0.8480 0.8490 0.8490
718.334816 0.8500 0.8510 0.8550 0.8560 0.8570
722.307747 0.8580 0.8580 0.8580 0.8580 0.8550
726.280677 0.8530 0.8510 0.8480 0.8450 0.8440
730.253607 0.8430 0.8420 0.8410 0.8390 0.8380
734.226538 0.8330 0.8310 0.8290 0.8270 0.8260
738.199468 0.8250 0.8260 0.8280 0.8330 0.8420
742.172399 0.8460 0.8460 0.8400 0.8400 0.8400
746.145329 0.8390 0.8390 0.8470 0.8500 0.8500
750.118259 0.8450 0.8390 0.8360 0.8320 0.8310
754.091190 0.8240 0.8150 0.8070 0.8000 0.7910
758.064120 0.7810 0.7720 0.7720 0.7720 0.7720
762.037050 0.7740 0.7740 0.7770 0.7820 0.7830
766.009981 0.7860 0.7900 0.7930 0.8000 0.8060
769.982911 0.8140 0.8160 0.8200 0.8210 0.8210
773.955842 0.8240 0.8260 0.8280 0.8300 0.8330
777.928772 0.8340 0.8350 0.8330 0.8330 0.8320
781.901702 0.8320 0.8300 0.8280 0.8250 0.8250
785.874633 0.8210 0.8190 0.8160 0.8150 0.8140
789.847563 0.8130 0.8010 0.7950 0.7910 0.7910
793.820493 0.7910 0.7920 0.7950 0.7950 0.7960
797.793424 0.7980 0.7980 0.7930 0.7910 0.7870
801.766354 0.7810 0.7760 0.7700 0.7640 0.7540
805.739285 0.7440 0.7350 0.7250 0.7160 0.7060
809.712215 0.6940 0.6780 0.6770 0.6780 0.6820
813.685145 0.6890 0.6950 0.7050 0.7150 0.7259
817.658076 0.7260 0.7250 0.7240 0.7210 0.7140
821.631006 0.6980 0.6890 0.6820 0.6750 0.6680
825.603936 0.6610 0.6380 0.6360 0.6350 0.6310
829.576867 0.6310 0.6170 0.6080 0.5871 0.5521
833.549797 0.5300 0.5010 0.4720 0.4220 0.3611
837.522728 0.3450 0.3290 0.3031 0.2910 0.2571
841.495658 0.2550 0.2570 0.2840 0.3370 0.3430
845.468588 0.3590 0.3869 0.4099 0.4369 0.4629
849.441519 0.4770 0.4840 0.4840 0.4850 0.4850
853.414449 0.4770 0.4770 0.5119 0.5329 0.5569
857.387379 0.5730 0.5870 0.6010 0.6240 0.6979
861.360310 0.7160 0.7369 0.7509 0.7570 0.7620
865.333240 0.7650 0.7660 0.7680 0.7700 0.7710
869.306170 0.7720 0.7680 0.7670 0.7670 0.7660
873.279101 0.7650 0.7610 0.7580 0.7580 0.7570
877.252031 0.7560 0.7540 0.7490 0.7450 0.7420
881.224962 0.7360 0.7350 0.7350 0.7320 0.7300
885.197892 0.7270 0.7250 0.7250 0.7310 0.7360
889.170822 0.7360 0.7310 0.7300 0.7280 0.7240
893.143753 0.7150 0.7110 0.7070 0.7050 0.7000
897.116683 0.6980 0.7000 0.7030 0.7050 0.7070
901.089613 0.7090 0.7080 0.7070 0.7070 0.7030
905.062544 0.7000 0.6930 0.6960 0.7050 0.7090
909.035474 0.7120 0.7150 0.7180 0.7190 0.7210
913.008405 0.7230 0.7260 0.7260 0.7270 0.7290
916.981335 0.7310 0.7330 0.7350 0.7360 0.7370
920.954265 0.7400 0.7440 0.7490 0.7490 0.7510
924.927196 0.7430 0.7420 0.7400 0.7360 0.7340
928.900126 0.7410 0.7470 0.7480 0.7490 0.7510
932.873056 0.7510 0.7490 0.7380 0.7370 0.7360
936.845987 0.7350 0.7310 0.7260 0.7160 0.7140
940.818917 0.7140 0.7250 0.7250 0.7220 0.7170
944.791848 0.7090 0.7050 0.7000 0.6960 0.6910
948.764778 0.6910 0.6880 0.6870 0.6880 0.6890
952.737708 0.6910 0.6910 0.6930 0.6930 0.6900
956.710639 0.6890 0.6840 0.6820 0.6760 0.6720
960.683569 0.6710 0.6700 0.6680 0.6670 0.6660
964.656499 0.6630 0.6600 0.6580 0.6560 0.6371
968.629430 0.6310 0.6280 0.6280 0.6260 0.6070
972.602360 0.5980 0.5930 0.5860 0.5820 0.5790
976.575291 0.5760 0.5750 0.5660 0.5570 0.5530
980.548221 0.5490 0.5450 0.5370 0.5240 0.5031
984.521151 0.4950 0.4870 0.4700 0.4680 0.4610
988.494082 0.4570 0.4540 0.4530 0.4410 0.4330
992.467012 0.4260 0.4260 0.4220 0.4170 0.4020
996.439942 0.3990 0.3940 0.3870 0.3780 0.3680
1000.412873 0.3580 0.3500 0.3420 0.3360 0.3310
1004.385803 0.3270 0.3210 0.3190 0.3170 0.3160
1008.358734 0.3150 0.3130 0.3100 0.3080 0.3080
1012.331664 0.3040 0.2900 0.2760 0.2680 0.2630
1016.304594 0.2620 0.2530 0.2420 0.2360 0.2240
1020.277525 0.2090 0.1990 0.1950 0.1830 0.1800
1024.250455 0.1780 0.1770 0.1750 0.1740 0.1730
1028.223385 0.1700 0.1670 0.1660 0.1640 0.1610
1032.196316 0.1570 0.1540 0.1520 0.1500 0.1490
1036.169246 0.1500 0.1500 0.1530 0.1560 0.1600
1040.142176 0.1680 0.1730 0.1780 0.1820 0.1830
1044.115107 0.1880 0.1970 0.1990 0.2000 0.2010
1048.088037 0.2040 0.2050 0.2060 0.2060 0.2010
1052.060968 0.1950 0.1880 0.1830 0.1820 0.1790
1056.033898 0.1760 0.1740 0.1690 0.1680 0.1670
1060.006828 0.1660 0.1650 0.1640 0.1650 0.1680
1063.979759 0.1690 0.1690 0.1700 0.1700 0.1690
1067.952689 0.1680 0.1690 0.1690 0.1700 0.1710
1071.925619 0.1710 0.1710 0.1710 0.1710 0.1700
1075.898550 0.1690 0.1670 0.1660 0.1640 0.1620
1079.871480 0.1590 0.1440 0.1410 0.1340 0.1340
1083.844411 0.1390 0.1480 0.1550 0.1739 0.1780
1087.817341 0.1810 0.1880 0.1980 0.2000 0.2010
1091.790271 0.2000 0.1990 0.1990 0.1990 0.1990
1095.763202 0.2000 0.2010 0.2010 0.2020 0.2040
1099.736132 0.2040 0.2050 0.2050 0.2060 0.2060
1103.709062 0.2050 0.2050 0.2040 0.2020 0.2000
1107.681993 0.2000 0.2010 0.2040 0.2060 0.2080
1111.654923 0.2110 0.2160 0.2200 0.2220 0.2270
1115.627854 0.2290 0.2310 0.2330 0.2470 0.2570
1119.600784 0.2590 0.2660 0.2730 0.2800 0.2860
1123.573714 0.2880 0.2970 0.3030 0.3110 0.3200
1127.546645 0.3260 0.3380 0.3490 0.3510 0.3510
1131.519575 0.3500 0.3470 0.3470 0.3420 0.3370
1135.492505 0.3320 0.3270 0.3120 0.3030 0.2780
1139.465436 0.2350 0.2080 0.1990 0.1920 0.1820
1143.438366 0.1720 0.1670 0.1620 0.1620 0.1730
1147.411297 0.1860 0.1940 0.2010 0.2080 0.2140
1151.384227 0.2280 0.2480 0.2660 0.2730 0.2820
1155.357157 0.2890 0.2970 0.3030 0.3090 0.3239
1159.330088 0.3410 0.3520 0.3610 0.3700 0.3710
1163.303018 0.3710 0.3670 0.3481 0.3370 0.3131
1167.275948 0.2869 0.2400 0.1960 0.1650 0.1340
1171.248879 0.1041 0.0880 0.0780 0.0640 0.0590
1175.221809 0.0540 0.0530 0.0530 0.0530 0.0630
1179.194740 0.0710 0.0750 0.0850 0.0989 0.1119
1183.167670 0.1270 0.1710 0.1960 0.2170 0.2490
1187.140600 0.2819 0.3458 0.3799 0.4218 0.4469
1191.113531 0.4681 0.5320 0.5530 0.5790 0.5970
1195.086461 0.6150 0.6260 0.6330 0.6450 0.6510
1199.059391 0.6610 0.6750 0.6760 0.6760 0.6740
1203.032322 0.6700 0.6650 0.6580 0.6520 0.6311
1207.005252 0.6070 0.5850 0.5690 0.5630 0.5570
1210.978183 0.5330 0.5320 0.5330 0.5370 0.5420
1214.951113 0.5470 0.5560 0.5610 0.5660 0.5760
1218.924043 0.5920 0.6000 0.6070 0.6090 0.6090
1222.896974 0.6080 0.6070 0.6000 0.5960 0.5910
1226.869904 0.5850 0.5760 0.5581 0.5560 0.5500
1230.842834 0.5280 0.5030 0.4900 0.4770 0.4550
1234.815765 0.4500 0.4380 0.4021 0.3781 0.3551
1238.788695 0.3380 0.3220 0.3100 0.2700 0.2440
1242.761625 0.2180 0.1890 0.1710 0.1680 0.1640
1246.734556 0.1570 0.1500 0.1450 0.1390 0.1340
1250.707486 0.1290 0.1290 0.1300 0.1360 0.1420
1254.680417 0.1480 0.1540 0.1600 0.1850 0.1940
1258.653347 0.1990 0.2020 0.2080 0.2240 0.2539
1262.626277 0.2730 0.2870 0.2990 0.3070 0.3100
1266.599208 0.3180 0.3210 0.3240 0.3240 0.3190
1270.572138 0.3120 0.2950 0.2790 0.2630 0.2470
1274.545068 0.2310 0.2140 0.2020 0.1940 0.1940
1278.517999 0.1900 0.1890 0.1870 0.1840 0.1800
1282.490929 0.1780 0.1770 0.1690 0.1670 0.1660
1286.463860 0.1640 0.1640 0.1630 0.1680 0.1710
1290.436790 0.1790 0.1970 0.2139 0.2230 0.2379
1294.409720 0.2611 0.2940 0.3171 0.3670 0.3840
1298.382651 0.3850 0.3940 0.4030 0.4140 0.4409
1302.355581 0.4540 0.4730 0.4790 0.5020 0.5030
1306.328511 0.5020 0.5010 0.5000 0.4980 0.4970
1310.301442 0.4820 0.4690 0.4660 0.4600 0.4490
1314.274372 0.4430 0.4380 0.4360 0.4210 0.4100
1318.247303 0.3970 0.3800 0.3590 0.3480 0.3470
1322.220233 0.3460 0.3470 0.3480 0.3570 0.3680
1326.193163 0.3820 0.4010 0.4170 0.4290 0.4500
1330.166094 0.4730 0.5119 0.5270 0.5360 0.5390
1334.139024 0.5390 0.5380 0.5330 0.5160 0.5040
1338.111954 0.4930 0.4810 0.4621 0.4540 0.4460
1342.084885 0.4450 0.4450 0.4580 0.4710 0.4820
1346.057815 0.5090 0.5349 0.5609 0.5819 0.6049
1350.030746 0.6210 0.6380 0.6490 0.6670 0.6690
1354.003676 0.6700 0.6720 0.6740 0.6750 0.6770
1357.976606 0.6760 0.6750 0.6700 0.6650 0.6580
1361.949537 0.6510 0.6480 0.6360 0.6161 0.5981
1365.922467 0.5770 0.5580 0.5380 0.5220 0.5090
1369.895397 0.4960 0.4651 0.4361 0.3991 0.3771
1373.868328 0.3520 0.3400 0.3270 0.3080 0.3040
1377.841258 0.3030 0.3040 0.3060 0.3130 0.3469
1381.814189 0.3620 0.3750 0.3880 0.4080 0.4170
1385.787119 0.4290 0.4430 0.4580 0.4730 0.5119
1389.760049 0.5250 0.5420 0.5540 0.5650 0.5700
1393.732980 0.5780 0.5870 0.6000 0.6030 0.6070
1397.705910 0.6070 0.6050 0.5970 0.5940 0.5860
1401.678840 0.5790 0.5700 0.5660 0.5590 0.5560
1405.651771 0.5560 0.5550 0.5540 0.5540 0.5530
1409.624701 0.5530 0.5520 0.5370 0.5270 0.5021
1413.597631 0.4970 0.4920 0.4820 0.4690 0.4520
1417.570562 0.4380 0.4180 0.4170 0.4180 0.4310
1421.543492 0.4430 0.4470 0.4610 0.4750 0.5030
1425.516423 0.5150 0.5170 0.5170 0.5160 0.5011
1429.489353 0.4850 0.4750 0.4730 0.4610 0.4500
1433.462283 0.4390 0.4280 0.4100 0.4060 0.4040
1437.435214 0.4040 0.4060 0.4080 0.4140 0.4150
1441.408144 0.4290 0.4290 0.4330 0.4390 0.4440
1445.381074 0.4480 0.4520 0.4570 0.4580 0.4600
1449.354005 0.4630 0.4670 0.4730 0.4770 0.4840
1453.326935 0.4890 0.4950 0.4970 0.5050 0.5080
1457.299866 0.5080 0.5100 0.5100 0.5080 0.5080
1461.272796 0.5040 0.5000 0.4980 0.4970 0.4950
1465.245726 0.4940 0.4930 0.4910 0.4890 0.4870
1469.218657 0.4850 0.4850 0.4840 0.4830 0.4820
1473.191587 0.4820 0.4820 0.4820 0.4820 0.4830
1477.164517 0.4860 0.4890 0.4910 0.5020 0.5160
1481.137448 0.5250 0.5350 0.5450 0.5490 0.5530
1485.110378 0.5610 0.5680 0.5790 0.5810 0.5870
1489.083309 0.5870 0.5880 0.5870 0.5870 0.5860
1493.056239 0.5810 0.5730 0.5520 0.5240 0.5010
1497.029169 0.4870 0.4730 0.4451 0.4081 0.3681
1501.002100 0.3350 0.3280 0.3200 0.3070 0.2880
1504.975030 0.2690 0.2680 0.2690 0.2800 0.2900
1508.947960 0.3110 0.3221 0.3540 0.3760 0.3980
1512.920891 0.4190 0.4290 0.4380 0.4450 0.4550
1516.893821 0.4550 0.4379 0.3870 0.3750 0.3610
1520.866752 0.3480 0.3340 0.3340 0.3559 0.3779
1524.839682 0.3990 0.4090 0.4190 0.4540 0.5210
1528.812612 0.5510 0.5790 0.6049 0.6230 0.6350
1532.785543 0.6510 0.6760 0.6820 0.6850 0.6860
1536.758473 0.6870 0.6870 0.6880 0.6880 0.6870
1540.731403 0.6860 0.6860 0.6800 0.6770 0.6760
1544.704334 0.6730 0.6720 0.6680 0.6630 0.6580
1548.677264 0.6500 0.6480 0.6460 0.6380 0.6280
1552.650195 0.6190 0.6170 0.6070 0.6030 0.5980
1556.623125 0.5840 0.5630 0.5330 0.5010 0.4820
1560.596055 0.4640 0.4530 0.4430 0.4370 0.4081
1564.568986 0.3890 0.3770 0.3610 0.3380 0.3260
1568.541916 0.3130 0.2980 0.2970 0.2900 0.2711
1572.514846 0.2520 0.2380 0.2180 0.1890 0.1690
1576.487777 0.1610 0.1530 0.1390 0.1230 0.1110
1580.460707 0.0990 0.0920 0.0880 0.0810 0.0760
1584.433638 0.0730 0.0710 0.0710 0.0710 0.0730
1588.406568 0.0760 0.0780 0.0810 0.0830 0.0850
1592.379498 0.0850 0.0850 0.0850 0.0850 0.0840
1596.352429 0.0830 0.0820 0.0810 0.0790 0.0780
1600.325359 0.0780 0.0800 0.0860 0.0920 0.0980
1604.298289 0.1040 0.1110 0.1130 0.1190 0.1740
1608.271220 0.1990 0.2140 0.2479 0.2689 0.2939
1612.244150 0.3440 0.3660 0.3870 0.4100 0.4380
1616.217080 0.4590 0.5029 0.5220 0.5489 0.5769
1620.190011 0.5941 0.6160 0.6270 0.6420 0.6500
1624.162941 0.6600 0.6750 0.6820 0.6840 0.6870
1628.135872 0.6880 0.6870 0.6820 0.6770 0.6770
1632.108802 0.6700 0.6600 0.6490 0.6420 0.6171
1636.081732 0.5889 0.5630 0.5470 0.5240 0.5000
1640.054663 0.4800 0.4590 0.4221 0.3721 0.3401
1644.027593 0.3200 0.3000 0.2730 0.2520 0.2480
1648.000523 0.2460 0.2480 0.2590 0.2710 0.2820
1651.973454 0.2911 0.3410 0.3530 0.3590 0.3630
1655.946384 0.3820 0.4179 0.4390 0.4629 0.5029
1659.919315 0.5260 0.5470 0.5790 0.5860 0.5960
1663.892245 0.6080 0.6190 0.6300 0.6430 0.6569
1667.865175 0.6680 0.6770 0.6790 0.6830 0.6880
1671.838106 0.6920 0.6980 0.7000 0.7020 0.7060
1675.811036 0.7070 0.7090 0.7160 0.7200 0.7230
1679.783966 0.7270 0.7300 0.7340 0.7370 0.7370
1683.756897 0.7380 0.7400 0.7420 0.7420 0.7430
1687.729827 0.7430 0.7470 0.7470 0.7490 0.7530
1691.702758 0.7570 0.7570 0.7580 0.7590 0.7640
1695.675688 0.7650 0.7660 0.7670 0.7670 0.7680
1699.648618 0.7700 0.7720 0.7730 0.7740 0.7750
1703.621549 0.7750 0.7760 0.7760 0.7750 0.7740
1707.594479 0.7740 0.7740 0.7740 0.7750 0.7760
1711.567409 0.7770 0.7770 0.7780 0.7790 0.7790
1715.540340 0.7800 0.7800 0.7810 0.7820 0.7820
1719.513270 0.7830 0.7830 0.7840 0.7840 0.7840
1723.486201 0.7840 0.7840 0.7840 0.7840 0.7840
1727.459131 0.7840 0.7840 0.7840 0.7840 0.7840
1731.432061 0.7840 0.7830 0.7830 0.7830 0.7830
1735.404992 0.7840 0.7840 0.7840 0.7850 0.7850
1739.377922 0.7860 0.7860 0.7860 0.7870 0.7870
1743.350852 0.7870 0.7880 0.7880 0.7880 0.7880
1747.323783 0.7880 0.7890 0.7890 0.7900 0.7910
1751.296713 0.7920 0.7930 0.7930 0.7930 0.7930
1755.269644 0.7930 0.7930 0.7940 0.7940 0.7940
1759.242574 0.7930 0.7930 0.7930 0.7930 0.7920
1763.215504 0.7910 0.7900 0.7880 0.7880 0.7880
1767.188435 0.7880 0.7880 0.7890 0.7890 0.7890
1771.161365 0.7880 0.7880 0.7880 0.7880 0.7910
1775.134295 0.7910 0.7880 0.7880 0.7880 0.7870
1779.107226 0.7870 0.7880 0.7880 0.7890 0.7900
1783.080156 0.7910 0.7920 0.7930 0.7940 0.7940
1787.053086 0.7960 0.7970 0.7980 0.7980 0.7980
1791.026017 0.7970 0.7960 0.7950 0.7940 0.7940
1794.998947 0.7970 0.7980 0.7980 0.7990 0.7990
1798.971878 0.8000 0.8000 0.8000 0.7990 0.7980
1802.944808 0.7970 0.7950 0.7960 0.7950 0.7950
1806.917738 0.7950 0.7950 0.7960 0.7960 0.7970
1810.890669 0.7970 0.7970 0.7960 0.7950 0.7950
1814.863599 0.7950 0.7950 0.7940 0.7940 0.7950
1818.836529 0.7970 0.7990 0.7990 0.8000 0.8000
1822.809460 0.8000 0.8000 0.8010 0.8020 0.8020
1826.782390 0.8020 0.8020 0.8020 0.8020 0.8020
1830.755321 0.8020 0.8010 0.8010 0.8010 0.8010
1834.728251 0.8000 0.8000 0.8000 0.7990 0.7980
1838.701181 0.7980 0.7980 0.7970 0.7970 0.7960
1842.674112 0.7960 0.7970 0.7970 0.7960 0.7950
1846.647042 0.7950 0.7950 0.7940 0.7940 0.7930
1850.619972 0.7930 0.7930 0.7920 0.7920 0.7910
1854.592903 0.7910 0.7910 0.7900 0.7890 0.7890
1858.565833 0.7880 0.7860 0.7860 0.7850 0.7840
1862.538764 0.7840 0.7840 0.7830 0.7830 0.7810
1866.511694 0.7810 0.7800 0.7790 0.7790 0.7780
1870.484624 0.7770 0.7770 0.7760 0.7770 0.7760
1874.457555 0.7760 0.7760 0.7750 0.7750 0.7740
1878.430485 0.7740 0.7740 0.7740 0.7730 0.7730
1882.403415 0.7690 0.7670 0.7670 0.7680 0.7700
1886.376346 0.7700 0.7700 0.7700 0.7700 0.7680
1890.349276 0.7680 0.7650 0.7640 0.7640 0.7630
1894.322207 0.7630 0.7600 0.7600 0.7610 0.7610
1898.295137 0.7620 0.7630 0.7640 0.7650 0.7650
1902.268067 0.7640 0.7630 0.7630 0.7630 0.7630
1906.240998 0.7640 0.7650 0.7650 0.7620 0.7620
1910.213928 0.7630 0.7630 0.7630 0.7620 0.7620
1914.186858 0.7610 0.7610 0.7610 0.7610 0.7610
1918.159789 0.7610 0.7620 0.7620 0.7620 0.7630
1922.132719 0.7630 0.7630 0.7630 0.7630 0.7620
1926.105650 0.7620 0.7620 0.7610 0.7590 0.7590
1930.078580 0.7610 0.7610 0.7620 0.7630 0.7640
1934.051510 0.7620 0.7610 0.7610 0.7610 0.7620
1938.024441 0.7620 0.7600 0.7600 0.7590 0.7590
1941.997371 0.7600 0.7610 0.7630 0.7630 0.7630
1945.970301 0.7640 0.7650 0.7650 0.7650 0.7650
1949.943232 0.7640 0.7650 0.7640 0.7640 0.7640
1953.916162 0.7640 0.7640 0.7630 0.7630 0.7630
1957.889093 0.7630 0.7630 0.7620 0.7620 0.7620
1961.862023 0.7620 0.7620 0.7620 0.7620 0.7620
1965.834953 0.7620 0.7620 0.7610 0.7600 0.7590
1969.807884 0.7580 0.7530 0.7530 0.7560 0.7580
1973.780814 0.7580 0.7590 0.7600 0.7610 0.7610
1977.753744 0.7610 0.7610 0.7610 0.7610 0.7600
1981.726675 0.7610 0.7610 0.7610 0.7610 0.7610
1985.699605 0.7610 0.7620 0.7630 0.7630 0.7630
1989.672535 0.7630 0.7630 0.7630 0.7610 0.7610
1993.645466 0.7600 0.7600 0.7590 0.7580 0.7580
1997.618396 0.7590 0.7590 0.7590 0.7580 0.7580
2001.591327 0.7580 0.7580 0.7580 0.7580 0.7580
2005.564257 0.7580 0.7490 0.7487 0.7485 0.7482
2009.537187 0.7479 0.7474 0.7469 0.7464 0.7460
2013.510118 0.7457 0.7455 0.7452 0.7450 0.7450
2017.483048 0.7450 0.7450 0.7450 0.7450 0.7450
2021.455978 0.7450 0.7449 0.7447 0.7444 0.7442
2025.428909 0.7440 0.7440 0.7440 0.7440 0.7439
2029.401839 0.7437 0.7434 0.7432 0.7430 0.7430
2033.374770 0.7430 0.7430 0.7429 0.7426 0.7424
2037.347700 0.7421 0.7420 0.7420 0.7420 0.7420
2041.320630 0.7418 0.7412 0.7407 0.7402 0.7397
2045.293561 0.7392 0.7387 0.7382 0.7377 0.7372
2049.266491 0.7367 0.7362 0.7360 0.7360 0.7360
2053.239421 0.7360 0.7360 0.7360 0.7360 0.7360
2057.212352 0.7360 0.7360 0.7360 0.7360 0.7360
2061.185282 0.7360 0.7360 0.7360 0.7360 0.7360
2065.158213 0.7360 0.7360 0.7360 0.7360 0.7360
2069.131143 0.7360 0.7358 0.7355 0.7353 0.7350
2073.104073 0.7348 0.7345 0.7343 0.7340 0.7338
2077.077004 0.7335 0.7333 0.7330 0.7330 0.7330
2081.049934 0.7330 0.7330 0.7335 0.7340 0.7345
2085.022864 0.7350 0.7353 0.7355 0.7358 0.7360
2088.995795 0.7365 0.7370 0.7375 0.7380 0.7383
2092.968725 0.7385 0.7388 0.7390 0.7390 0.7390
2096.941656 0.7390 0.7390 0.7393 0.7395 0.7398
2100.914586 0.7400 0.7400 0.7400 0.7400 0.7400
2104.887516 0.7400 0.7400 0.7400 0.7400 0.7400
2108.860447 0.7400 0.7400 0.7400 0.7400 0.7400
2112.833377 0.7400 0.7400 0.7400 0.7400 0.7400
2116.806307 0.7399 0.7396 0.7394 0.7391 0.7389
2120.779238 0.7386 0.7384 0.7381 0.7380 0.7380
2124.752168 0.7380 0.7380 0.7380 0.7380 0.7380
2128.725099 0.7380 0.7379 0.7376 0.7374 0.7371
2132.698029 0.7368 0.7366 0.7363 0.7361 0.7360
2136.670959 0.7360 0.7360 0.7360 0.7360 0.7360
2140.643890 0.7360 0.7360 0.7358 0.7356 0.7353
2144.616820 0.7351 0.7346 0.7341 0.7336 0.7331
2148.589750 0.7330 0.7330 0.7330 0.7330 0.7328
2152.562681 0.7325 0.7323 0.7320 0.7320 0.7320
2156.535611 0.7320 0.7320 0.7320 0.7320 0.7320
2160.508542 0.7320 0.7318 0.7315 0.7313 0.7310
2164.481472 0.7303 0.7295 0.7287 0.7280 0.7277
2168.454402 0.7275 0.7272 0.7270 0.7267 0.7265
2172.427333 0.7262 0.7260 0.7257 0.7255 0.7252
2176.400263 0.7250 0.7250 0.7250 0.7250 0.7250
2180.373193 0.7247 0.7245 0.7242 0.7240 0.7240
2184.346124 0.7240 0.7240 0.7240 0.7240 0.7240
2188.319054 0.7240 0.7240 0.7240 0.7240 0.7240
2192.291984 0.7241 0.7243 0.7246 0.7248 0.7250
2196.264915 0.7250 0.7250 0.7250 0.7249 0.7246
2200.237845 0.7244 0.7241 0.7240 0.7240 0.7240
2204.210776 0.7240 0.7240 0.7240 0.7240 0.7240
2208.183706 0.7240 0.7240 0.7240 0.7240 0.7237
2212.156636 0.7232 0.7227 0.7222 0.7219 0.7216
2216.129567 0.7214 0.7211 0.7208 0.7206 0.7203
2220.102497 0.7201 0.7200 0.7200 0.7200 0.7200
2224.075427 0.7200 0.7200 0.7200 0.7200 0.7198
2228.048358 0.7196 0.7193 0.7191 0.7188 0.7185
2232.021288 0.7183 0.7180 0.7180 0.7180 0.7180
2235.994219 0.7180 0.7180 0.7180 0.7180 0.7180
2239.967149 0.7180 0.7180 0.7180 0.7180 0.7178
2243.940079 0.7175 0.7173 0.7170 0.7170 0.7170
2247.913010 0.7170 0.7170 0.7170 0.7170 0.7170
2251.885940 0.7170 0.7165 0.7160 0.7155 0.7150
2255.858870 0.7147 0.7145 0.7142 0.7140 0.7137
2259.831801 0.7135 0.7132 0.7129 0.7124 0.7119
2263.804731 0.7114 0.7110 0.7110 0.7110 0.7110
2267.777662 0.7110 0.7110 0.7110 0.7110 0.7109
2271.750592 0.7104 0.7099 0.7093 0.7090 0.7090
2275.723522 0.7090 0.7090 0.7089 0.7087 0.7084
2279.696453 0.7082 0.7080 0.7080 0.7080 0.7080
2283.669383 0.7080 0.7080 0.7080 0.7080 0.7080
2287.642313 0.7080 0.7080 0.7080 0.7079 0.7076
2291.615244 0.7074 0.7071 0.7070 0.7070 0.7070
2295.588174 0.7070 0.7069 0.7066 0.7063 0.7061
2299.561105 0.7060 0.7060 0.7060 0.7060 0.7060
2303.534035 0.7060 0.7060 0.7060 0.7060 0.7060
2307.506965 0.7060 0.7060 0.7060 0.7060 0.7060
2311.479896 0.7060 0.7056 0.7051 0.7046 0.7041
2315.452826 0.7040 0.7040 0.7040 0.7040 0.7038
2319.425756 0.7035 0.7033 0.7030 0.7028 0.7025
2323.398687 0.7023 0.7020 0.7018 0.7015 0.7013
2327.371617 0.7010 0.7010 0.7010 0.7010 0.7010
2331.344548 0.7010 0.7010 0.7010 0.7010 0.7007
2335.317478 0.7005 0.7002 0.7000 0.6995 0.6990
2339.290408 0.6985 0.6980 0.6977 0.6975 0.6972
2343.263339 0.6969 0.6964 0.6959 0.6954 0.6950
2347.236269 0.6947 0.6945 0.6942 0.6939 0.6934
2351.209199 0.6929 0.6924 0.6919 0.6917 0.6914
2355.182130 0.6912 0.6911 0.6913 0.6916 0.6918
2359.155060 0.6920 0.6920 0.6920 0.6920 0.6922
2363.127990 0.6927 0.6932 0.6937 0.6940 0.6940
2367.100921 0.6940 0.6940 0.6940 0.6940 0.6940
2371.073851 0.6940 0.6939 0.6936 0.6934 0.6931
2375.046782 0.6929 0.6926 0.6924 0.6921 0.6913
2379.019712 0.6900 0.6888 0.6875 0.6864 0.6854
2382.992642 0.6844 0.6833 0.6822 0.6809 0.6796
2386.965573 0.6784 0.6778 0.6776 0.6773 0.6771
2390.938503 0.6766 0.6761 0.6756 0.6751 0.6748
2394.911433 0.6746 0.6743 0.6740 0.6740 0.6740
2398.884364 0.6740 0.6740 0.6742 0.6745 0.6747
2402.857294 0.6750 0.6752 0.6755 0.6757 0.6760
2406.830225 0.6760 0.6760 0.6760 0.6760 0.6760
2410.803155 0.6760 0.6760 0.6760 0.6758 0.6755
2414.776085 0.6752 0.6750 0.6745 0.6740 0.6735
2418.749016 0.6730 0.6727 0.6725 0.6722 0.6720
2422.721946 0.6720 0.6720 0.6720 0.6720 0.6717
2426.694876 0.6715 0.6712 0.6710 0.6707 0.6704
2430.667807 0.6702 0.6699 0.6697 0.6694 0.6692
2434.640737 0.6689 0.6684 0.6679 0.6674 0.6670
2438.613668 0.6670 0.6670 0.6670 0.6669 0.6667
2442.586598 0.6664 0.6662 0.6659 0.6657 0.6654
2446.559528 0.6651 0.6650 0.6650 0.6650 0.6650
2450.532459 0.6646 0.6639 0.6631 0.6624 0.6617
2454.505389 0.6612 0.6607 0.6602 0.6591 0.6573
2458.478319 0.6555 0.6538 0.6529 0.6526 0.6524
2462.451250 0.6521 0.6518 0.6516 0.6513 0.6511
2466.424180 0.6508 0.6506 0.6503 0.6501 0.6493
2470.397111 0.6483 0.6473 0.6463 0.6456 0.6451
2474.370041 0.6446 0.6441 0.6432 0.6422 0.6412
2478.342971 0.6402 0.6398 0.6395 0.6393 0.6390
2482.315902 0.6390 0.6390 0.6390 0.6390 0.6388
2486.288832 0.6385 0.6383 0.6380 0.6380 0.6380
2490.261762 0.6380 0.6380 0.6380 0.6380 0.6380
2494.234693 0.6380 0.6378 0.6375 0.6372 0.6370
2498.207623 0.6367 0.6365 0.6362 0.6360 0.6355
2502.180554 0.6350 0.6345 0.6340 0.6335 0.6329
2506.153484 0.6324 0.6319 0.6314 0.6309 0.6304
2510.126414 0.6299 0.6294 0.6289 0.6284 0.6279
2514.099345 0.6274 0.6269 0.6264 0.6260 0.6260
2518.072275 0.6260 0.6260 0.6258 0.6250 0.6243
2522.045205 0.6235 0.6227 0.6220 0.6212 0.6205
2526.018136 0.6198 0.6193 0.6188 0.6183 0.6174
2529.991066 0.6159 0.6144 0.6129 0.6115 0.6102
2533.963997 0.6089 0.6077 0.6059 0.6037 0.6014
2537.936927 0.5991 0.5972 0.5957 0.5942 0.5926
2541.909857 0.5916 0.5908 0.5900 0.5893 0.5888
2545.882788 0.5886 0.5883 0.5881 0.5878 0.5876
2549.855718 0.5873 0.5871 0.5868 0.5866 0.5863
2553.828648 0.5861 0.5858 0.5856 0.5853 0.5851
2557.801579 0.5844 0.5837 0.5829 0.5822 0.5814
2561.774509 0.5806 0.5799 0.5791 0.5782 0.5772
2565.747439 0.5762 0.5751 0.5741 0.5731 0.5721
2569.720370 0.5711 0.5705 0.5700 0.5695 0.5690
2573.693300 0.5683 0.5675 0.5668 0.5660 0.5652
2577.666231 0.5645 0.5637 0.5630 0.5625 0.5620
2581.639161 0.5615 0.5610 0.5607 0.5605 0.5602
2585.612091 0.5600 0.5597 0.5595 0.5592 0.5590
2589.585022 0.5590 0.5590 0.5590 0.5590 0.5587
2593.557952 0.5585 0.5582 0.5580 0.5580 0.5580
2597.530882 0.5580 0.5579 0.5577 0.5574 0.5572
2601.503813 0.5569 0.5567 0.5564 0.5562 0.5556
2605.476743 0.5543 0.5530 0.5518 0.5507 0.5500
2609.449674 0.5492 0.5484 0.5480 0.5480 0.5480
2613.422604 0.5480 0.5479 0.5476 0.5474 0.5471
2617.395534 0.5469 0.5466 0.5464 0.5461 0.5456
2621.368465 0.5449 0.5441 0.5433 0.5423 0.5410
2625.341395 0.5398 0.5385 0.5371 0.5356 0.5341
2629.314325 0.5326 0.5312 0.5300 0.5287 0.5274
2633.287256 0.5270 0.5270 0.5270 0.5270 0.5268
2637.260186 0.5266 0.5263 0.5261 0.5258 0.5256
2641.233117 0.5253 0.5251 0.5244 0.5236 0.5229
2645.206047 0.5221 0.5218 0.5215 0.5213 0.5210
2649.178977 0.5208 0.5205 0.5203 0.5200 0.5198
2653.151908 0.5195 0.5193 0.5190 0.5188 0.5185
2657.124838 0.5183 0.5180 0.5178 0.5175 0.5173
2661.097768 0.5170 0.5150 0.5130 0.5109 0.5089
2665.070699 0.5074 0.5059 0.5044 0.5029 0.5022
2669.043629 0.5014 0.5006 0.4999 0.4991 0.4984
2673.016560 0.4976 0.4970 0.4970 0.4970 0.4970
2676.989490 0.4967 0.4955 0.4942 0.4929 0.4918
2680.962420 0.4907 0.4897 0.4887 0.4879 0.4874
2684.935351 0.4868 0.4863 0.4855 0.4840 0.4825
2688.908281 0.4810 0.4799 0.4797 0.4794 0.4792
2692.881211 0.4788 0.4783 0.4778 0.4773 0.4769
2696.854142 0.4766 0.4764 0.4761 0.4758 0.4752
2700.827072 0.4747 0.4742 0.4739 0.4736 0.4734
2704.800003 0.4731 0.4729 0.4726 0.4724 0.4721
2708.772933 0.4717 0.4712 0.4707 0.4702 0.4695
2712.745863 0.4688 0.4680 0.4673 0.4667 0.4662
2716.718794 0.4657 0.4652 0.4650 0.4650 0.4650
2720.691724 0.4650 0.4648 0.4646 0.4643 0.4641
2724.664654 0.4638 0.4636 0.4633 0.4631 0.4630
2728.637585 0.4630 0.4630 0.4630 0.4632 0.4635
2732.610515 0.4637 0.4640 0.4640 0.4640 0.4640
2736.583445 0.4640 0.4642 0.4645 0.4647 0.4650
2740.556376 0.4657 0.4665 0.4673 0.4680 0.4685
2744.529306 0.4690 0.4695 0.4700 0.4703 0.4705
2748.502237 0.4708 0.4710 0.4713 0.4715 0.4718
2752.475167 0.4720 0.4723 0.4725 0.4728 0.4730
2756.448097 0.4733 0.4735 0.4738 0.4740 0.4737
2760.421028 0.4734 0.4732 0.4729 0.4727 0.4724
2764.393958 0.4722 0.4719 0.4713 0.4708 0.4703
2768.366888 0.4698 0.4690 0.4682 0.4675 0.4668
2772.339819 0.4663 0.4658 0.4653 0.4646 0.4636
2776.312749 0.4626 0.4616 0.4609 0.4606 0.4604
2780.285680 0.4601 0.4595 0.4585 0.4575 0.4565
2784.258610 0.4554 0.4541 0.4529 0.4516 0.4505
2788.231540 0.4495 0.4484 0.4474 0.4463 0.4450
2792.204471 0.4437 0.4425 0.4417 0.4412 0.4407
2796.177401 0.4402 0.4400 0.4400 0.4400 0.4400
2800.150331 0.4400 0.4400 0.4400 0.4400 0.4402
2804.123262 0.4404 0.4407 0.4409 0.4412 0.4414
2808.096192 0.4417 0.4420 0.4422 0.4425 0.4427
2812.069123 0.4430 0.4432 0.4435 0.4437 0.4440
2816.042053 0.4442 0.4445 0.4447 0.4450 0.4455
2820.014983 0.4460 0.4465 0.4470 0.4472 0.4475
2823.987914 0.4478 0.4480 0.4483 0.4485 0.4488
2827.960844 0.4490 0.4490 0.4490 0.4490 0.4491
2831.933774 0.4498 0.4506 0.4513 0.4521 0.4531
2835.906705 0.4541 0.4552 0.4560 0.4560 0.4560
2839.879635 0.4560 0.4561 0.4566 0.4571 0.4576
2843.852566 0.4580 0.4580 0.4580 0.4580 0.4579
2847.825496 0.4574 0.4569 0.4564 0.4556 0.4540
2851.798426 0.4525 0.4510 0.4498 0.4493 0.4488
2855.771357 0.4483 0.4479 0.4476 0.4474 0.4471
2859.744287 0.4462 0.4445 0.4427 0.4409 0.4394
2863.717217 0.4381 0.4369 0.4356 0.4344 0.4331
2867.690148 0.4318 0.4306 0.4297 0.4292 0.4287
2871.663078 0.4282 0.4280 0.4280 0.4280 0.4280
2875.636009 0.4280 0.4280 0.4280 0.4280 0.4278
2879.608939 0.4276 0.4273 0.4271 0.4265 0.4257
2883.581869 0.4250 0.4242 0.4236 0.4231 0.4226
2887.554800 0.4221 0.4220 0.4220 0.4220 0.4220
2891.527730 0.4218 0.4215 0.4213 0.4210 0.4208
2895.500660 0.4205 0.4203 0.4200 0.4202 0.4205
2899.473591 0.4207 0.4210 0.4212 0.4215 0.4217
2903.446521 0.4220 0.4220 0.4220 0.4220 0.4220
2907.419452 0.4223 0.4225 0.4228 0.4230 0.4235
2911.392382 0.4240 0.4245 0.4250 0.4253 0.4255
2915.365312 0.4258 0.4260 0.4266 0.4271 0.4276
2919.338243 0.4280 0.4283 0.4285 0.4288 0.4290
2923.311173 0.4290 0.4290 0.4290 0.4291 0.4296
2927.284103 0.4301 0.4306 0.4310 0.4310 0.4310
2931.257034 0.4310 0.4312 0.4317 0.4322 0.4327
2935.229964 0.4332 0.4337 0.4342 0.4347 0.4351
2939.202894 0.4353 0.4356 0.4359 0.4361 0.4364
2943.175825 0.4366 0.4369 0.4371 0.4374 0.4376
2947.148755 0.4379 0.4380 0.4380 0.4380 0.4380
2951.121686 0.4381 0.4384 0.4386 0.4389 0.4391
2955.094616 0.4394 0.4397 0.4399 0.4403 0.4408
2959.067546 0.4413 0.4418 0.4423 0.4428 0.4433
2963.040477 0.4438 0.4442 0.4444 0.4447 0.4449
2967.013407 0.4450 0.4450 0.4450 0.4450 0.4448
2970.986337 0.4446 0.4443 0.4441 0.4440 0.4440
2974.959268 0.4440 0.4440 0.4436 0.4431 0.4426
2978.932198 0.4421 0.4418 0.4415 0.4413 0.4410
2982.905129 0.4408 0.4405 0.4403 0.4400 0.4400
2986.878059 0.4400 0.4400 0.4400 0.4395 0.4390
2990.850989 0.4385 0.4380 0.4380 0.4380 0.4380
2994.823920 0.4380 0.4380 0.4380 0.4380 0.4380
2998.796850 0.4380 0.4380 0.4380 0.4380 0.4380
3002.769780 0.4380 0.4380 0.4380 0.4380 0.4380
3006.742711 0.4380 0.4381 0.4383 0.4386 0.4388
3010.715641 0.4392 0.4399 0.4407 0.4415 0.4422
3014.688572 0.4427 0.4432 0.4437 0.4443 0.4450
3018.661502 0.4458 0.4465 0.4471 0.4474 0.4476
3022.634432 0.4479 0.4482 0.4487 0.4492 0.4497
3026.607363 0.4507 0.4522 0.4537 0.4552 0.4561
3030.580293 0.4564 0.4566 0.4569 0.4577 0.4589
3034.553223 0.4602 0.4614 0.4626 0.4636 0.4646
3038.526154 0.4656 0.4666 0.4676 0.4686 0.4696
3042.499084 0.4703 0.4708 0.4713 0.4718 0.4729
3046.472015 0.4741 0.4754 0.4767 0.4772 0.4774
3050.444945 0.4777 0.4779 0.4784 0.4789 0.4794
3054.417875 0.4799 0.4806 0.4814 0.4821 0.4829
3058.390806 0.4832 0.4835 0.4837 0.4840 0.4844
3062.363736 0.4849 0.4854 0.4860 0.4860 0.4860
3066.336666 0.4860 0.4860 0.4860 0.4860 0.4860
3070.309597 0.4860 0.4862 0.4865 0.4868 0.4870
3074.282527 0.4870 0.4870 0.4870 0.4870 0.4870
3078.255458 0.4870 0.4870 0.4870 0.4873 0.4875
3082.228388 0.4878 0.4880 0.4880 0.4880 0.4880
3086.201318 0.4880 0.4883 0.4886 0.4888 0.4891
3090.174249 0.4893 0.4896 0.4898 0.4900 0.4900
3094.147179 0.4900 0.4900 0.4900 0.4900 0.4900
3098.120109 0.4900 0.4900 0.4900 0.4900 0.4900
3102.093040 0.4900 0.4900 0.4900 0.4900 0.4898
3106.065970 0.4893 0.4888 0.4883 0.4878 0.4873
3110.038900 0.4868 0.4863 0.4859 0.4856 0.4854
3114.011831 0.4851 0.4847 0.4842 0.4837 0.4832
3117.984761 0.4830 0.4830 0.4830 0.4830 0.4828
3121.957692 0.4826 0.4823 0.4821 0.4817 0.4812
3125.930622 0.4807 0.4802 0.4798 0.4796 0.4793
3129.903552 0.4791 0.4788 0.4786 0.4783 0.4781
3133.876483 0.4778 0.4776 0.4773 0.4771 0.4768
3137.849413 0.4765 0.4763 0.4760 0.4758 0.4755
3141.822343 0.4753 0.4750 0.4741 0.4731 0.4721
3145.795274 0.4711 0.4696 0.4681 0.4666 0.4651
3149.768204 0.4640 0.4630 0.4620 0.4610 0.4610
3153.741135 0.4610 0.4610 0.4610 0.4610 0.4610
3157.714065 0.4610 0.4610 0.4615 0.4620 0.4625
3161.686995 0.4630 0.4635 0.4641 0.4646 0.4651
3165.659926 0.4658 0.4666 0.4674 0.4680 0.4683
3169.632856 0.4685 0.4688 0.4692 0.4699 0.4707
3173.605786 0.4714 0.4720 0.4720 0.4720 0.4720
3177.578717 0.4722 0.4727 0.4732 0.4737 0.4743
3181.551647 0.4750 0.4758 0.4765 0.4770 0.4770
3185.524578 0.4770 0.4770 0.4772 0.4777 0.4782
3189.497508 0.4787 0.4791 0.4794 0.4796 0.4799
3193.470438 0.4801 0.4804 0.4806 0.4809 0.4813
3197.443369 0.4818 0.4823 0.4828 0.4831 0.4834
3201.416299 0.4836 0.4839 0.4843 0.4848 0.4853
3205.389229 0.4858 0.4862 0.4864 0.4867 0.4869
3209.362160 0.4872 0.4874 0.4877 0.4879 0.4882
3213.335090 0.4884 0.4887 0.4889 0.4898 0.4908
3217.308021 0.4918 0.4928 0.4938 0.4948 0.4958
3221.280951 0.4968 0.4972 0.4975 0.4977 0.4980
3225.253881 0.4984 0.4989 0.4994 0.4999 0.5004
3229.226812 0.5010 0.5015 0.5020 0.5022 0.5025
3233.199742 0.5027 0.5030 0.5033 0.5035 0.5038
3237.172672 0.5040 0.5040 0.5040 0.5040 0.5040
3241.145603 0.5040 0.5040 0.5040 0.5040 0.5040
3245.118533 0.5040 0.5040 0.5040 0.5040 0.5040
3249.091464 0.5040 0.5040 0.5037 0.5035 0.5032
3253.064394 0.5030 0.5027 0.5024 0.5022 0.5019
3257.037324 0.5014 0.5009 0.5004 0.5000 0.5000
3261.010255 0.5000 0.5000 0.5000 0.5000 0.5000
3264.983185 0.5000 0.5000 0.5000 0.5000 0.5000
3268.956115 0.5001 0.5004 0.5006 0.5009 0.5010
3272.929046 0.5010 0.5010 0.5010 0.5011 0.5014
3276.901976 0.5016 0.5019 0.5020 0.5020 0.5020
3280.874907 0.5020 0.5021 0.5024 0.5026 0.5029
3284.847837 0.5031 0.5034 0.5037 0.5039 0.5040
3288.820767 0.5040 0.5040 0.5040 0.5042 0.5044
3292.793698 0.5047 0.5049 0.5053 0.5059 0.5064
3296.766628 0.5069 0.5074 0.5079 0.5084 0.5089
3300.739558 0.5090 0.5090 0.5090 0.5090 0.5094
3304.712489 0.5099 0.5104 0.5109 0.5110 0.5110
3308.685419 0.5110 0.5110 0.5115 0.5120 0.5125
3312.658349 0.5130 0.5130 0.5130 0.5130 0.5130
3316.631280 0.5137 0.5145 0.5152 0.5160 0.5163
3320.604210 0.5165 0.5168 0.5170 0.5170 0.5170
3324.577141 0.5170 0.5170 0.5175 0.5181 0.5186
3328.550071 0.5190 0.5193 0.5195 0.5198 0.5201
3332.523001 0.5206 0.5211 0.5216 0.5220 0.5220
3336.495932 0.5220 0.5220 0.5220 0.5220 0.5220
3340.468862 0.5220 0.5221 0.5223 0.5226 0.5228
3344.441792 0.5230 0.5230 0.5230 0.5230 0.5231
3348.414723 0.5233 0.5236 0.5238 0.5241 0.5243
3352.387653 0.5246 0.5249 0.5250 0.5250 0.5250
3356.360584 0.5250 0.5252 0.5257 0.5262 0.5268
3360.333514 0.5273 0.5278 0.5283 0.5288 0.5291
3364.306444 0.5294 0.5296 0.5299 0.5303 0.5308
3368.279375 0.5313 0.5318 0.5322 0.5324 0.5327
3372.252305 0.5329 0.5333 0.5338 0.5343 0.5348
3376.225235 0.5352 0.5354 0.5357 0.5359 0.5362
3380.198166 0.5364 0.5367 0.5369 0.5370 0.5370
3384.171096 0.5370 0.5370 0.5370 0.5370 0.5370
3388.144027 0.5370 0.5370 0.5370 0.5370 0.5370
3392.116957 0.5368 0.5365 0.5363 0.5360 0.5360
3396.089887 0.5360 0.5360 0.5360 0.5360 0.5360
3400.062818 0.5360 0.5360 0.5355 0.5350 0.5345
3404.035748 0.5340 0.5337 0.5335 0.5332 0.5330
3408.008678 0.5327 0.5325 0.5322 0.5320 0.5320
3411.981609 0.5320 0.5320 0.5320 0.5317 0.5315
3415.954539 0.5312 0.5310 0.5310 0.5310 0.5310
3419.927470 0.5310 0.5310 0.5310 0.5310 0.5311
3423.900400 0.5313 0.5316 0.5318 0.5321 0.5323
3427.873330 0.5326 0.5328 0.5331 0.5333 0.5336
3431.846261 0.5338 0.5342 0.5347 0.5352 0.5357
3435.819191 0.5360 0.5360 0.5360 0.5360 0.5360
3439.792121 0.5360 0.5360 0.5360 0.5360 0.5360
3443.765052 0.5360 0.5360 0.5360 0.5360 0.5360
3447.737982 0.5360 0.5360 0.5360 0.5360 0.5360
3451.710913 0.5360 0.5360 0.5360 0.5360 0.5362
3455.683843 0.5364 0.5367 0.5369 0.5370 0.5370
3459.656773 0.5370 0.5370 0.5370 0.5370 0.5370
3463.629704 0.5370 0.5368 0.5366 0.5363 0.5360
3467.602634 0.5360 0.5360 0.5360 0.5360 0.5358
3471.575564 0.5355 0.5353 0.5350 0.5350 0.5350
3475.548495 0.5350 0.5350 0.5348 0.5345 0.5343
3479.521425 0.5340 0.5340 0.5340 0.5340 0.5340
3483.494355 0.5340 0.5340 0.5340 0.5340 0.5340
3487.467286 0.5340 0.5340 0.5339 0.5329 0.5319
3491.440216 0.5309 0.5300 0.5300 0.5300 0.5300
3495.413147 0.5300 0.5297 0.5295 0.5292 0.5290
3499.386077 0.5290 0.5290 0.5290 0.5290 0.5290
3503.359007 0.5290 0.5290 0.5290 0.5290 0.5290
3507.331938 0.5290 0.5290 0.5290 0.5290 0.5290
3511.304868 0.5290 0.5290 0.5290 0.5290 0.5291
3515.277798 0.5293 0.5296 0.5299 0.5300 0.5300
3519.250729 0.5300 0.5300 0.5301 0.5304 0.5306
3523.223659 0.5309 0.5311 0.5314 0.5316 0.5319
3527.196590 0.5320 0.5320 0.5320 0.5320 0.5321
3531.169520 0.5324 0.5326 0.5329 0.5330 0.5330
3535.142450 0.5330 0.5330 0.5322 0.5309 0.5297
3539.115381 0.5284 0.5275 0.5267 0.5260 0.5252
3543.088311 0.5246 0.5241 0.5236 0.5231 0.5222
3547.061241 0.5212 0.5202 0.5192 0.5188 0.5185
3551.034172 0.5183 0.5180 0.5180 0.5180 0.5180
3555.007102 0.5180 0.5180 0.5180 0.5180 0.5180
3558.980033 0.5178 0.5175 0.5173 0.5170 0.5170
3562.952963 0.5170 0.5170 0.5170 0.5168 0.5165
3566.925893 0.5162 0.5160 0.5160 0.5160 0.5160
3570.898824 0.5160 0.5160 0.5160 0.5160 0.5160
3574.871754 0.5160 0.5160 0.5160 0.5159 0.5154
3578.844684 0.5149 0.5144 0.5139 0.5137 0.5134
3582.817615 0.5132 0.5130 0.5130 0.5130 0.5130
3586.790545 0.5130 0.5130 0.5130 0.5130 0.5132
3590.763476 0.5140 0.5147 0.5155 0.5163 0.5170
3594.736406 0.5178 0.5185 0.5191 0.5193 0.5196
3598.709336 0.5199 0.5200 0.5200 0.5200 0.5200
3602.682267 0.5199 0.5196 0.5194 0.5191 0.5189
3606.655197 0.5186 0.5184 0.5181 0.5180 0.5180
3610.628127 0.5180 0.5180 0.5177 0.5172 0.5167
3614.601058 0.5162 0.5160 0.5160 0.5160 0.5160
3618.573988 0.5157 0.5152 0.5147 0.5142 0.5138
3622.546919 0.5136 0.5133 0.5131 0.5126 0.5121
3626.519849 0.5116 0.5111 0.5108 0.5106 0.5103
3630.492779 0.5101 0.5100 0.5100 0.5100 0.5100
3634.465710 0.5102 0.5105 0.5107 0.5110 0.5110
3638.438640 0.5110 0.5110 0.5110 0.5117 0.5124
3642.411570 0.5132 0.5140 0.5145 0.5150 0.5155
3646.384501 0.5160 0.5165 0.5170 0.5175 0.5180
3650.357431 0.5183 0.5185 0.5188 0.5190 0.5187
3654.330362 0.5185 0.5182 0.5180 0.5177 0.5175
3658.303292 0.5172 0.5170 0.5167 0.5165 0.5162
3662.276222 0.5160 0.5160 0.5160 0.5160 0.5160
3666.249153 0.5160 0.5160 0.5160 0.5160 0.5160
3670.222083 0.5160 0.5160 0.5160 0.5160 0.5160
3674.195013 0.5160 0.5160 0.5160 0.5160 0.5160
3678.167944 0.5159 0.5157 0.5154 0.5151 0.5149
3682.140874 0.5146 0.5144 0.5141 0.5140 0.5140
3686.113804 0.5140 0.5140 0.5139 0.5136 0.5134
3690.086735 0.5131 0.5127 0.5122 0.5117 0.5112
3694.059665 0.5107 0.5102 0.5097 0.5092 0.5087
3698.032596 0.5082 0.5077 0.5072 0.5068 0.5066
3702.005526 0.5063 0.5061 0.5058 0.5056 0.5053
3705.978456 0.5051 0.5048 0.5046 0.5043 0.5041
3709.951387 0.5038 0.5036 0.5033 0.5031 0.5028
3713.924317 0.5025 0.5023 0.5020 0.5020 0.5020
3717.897247 0.5020 0.5020 0.5020 0.5020 0.5020
3721.870178 0.5020 0.5020 0.5020 0.5020 0.5020
3725.843108 0.5025 0.5030 0.5035 0.5040 0.5040
3729.816039 0.5040 0.5040 0.5040 0.5040 0.5040
3733.788969 0.5040 0.5040 0.5040 0.5040 0.5040
3737.761899 0.5040 0.5040 0.5040 0.5040 0.5040
3741.734830 0.5040 0.5040 0.5040 0.5040 0.5040
3745.707760 0.5040 0.5040 0.5040 0.5040 0.5040
3749.680690 0.5040 0.5040 0.5040 0.5040 0.5040
3753.653621 0.5039 0.5034 0.5028 0.5023 0.5020
3757.626551 0.5020 0.5020 0.5020 0.5020 0.5020
3761.599482 0.5020 0.5020 0.5020 0.5020 0.5020
3765.572412 0.5020 0.5020 0.5020 0.5020 0.5020
3769.545342 0.5019 0.5016 0.5014 0.5011 0.5010
3773.518273 0.5010 0.5010 0.5010 0.5009 0.5006
3777.491203 0.5004 0.5001 0.5000 0.5000 0.5000
3781.464133 0.5000 0.5000 0.5000 0.5000 0.5000
3785.437064 0.4998 0.4996 0.4993 0.4991 0.4986
3789.409994 0.4981 0.4976 0.4971 0.4970 0.4970
3793.382925 0.4970 0.4970 0.4968 0.4966 0.4963
3797.355855 0.4960 0.4958 0.4955 0.4953 0.4950
3801.328785 0.4950 0.4950 0.4950 0.4950 0.4950
3805.301716 0.4950 0.4950 0.4950 0.4950 0.4950
3809.274646 0.4950 0.4950 0.4952 0.4955 0.4958
3813.247576 0.4960 0.4960 0.4960 0.4960 0.4960
3817.220507 0.4963 0.4965 0.4968 0.4970 0.4970
3821.193437 0.4970 0.4970 0.4970 0.4970 0.4970
3825.166368 0.4970 0.4970 0.4967 0.4965 0.4962
3829.139298 0.4960 0.4957 0.4954 0.4952 0.4950
3833.112228 0.4950 0.4950 0.4950 0.4949 0.4943
3837.085159 0.4938 0.4933 0.4929 0.4927 0.4924
3841.058089 0.4922 0.4917 0.4910 0.4902 0.4895
3845.031019 0.4889 0.4886 0.4884 0.4881 0.4879
3849.003950 0.4876 0.4874 0.4871 0.4869 0.4866
3852.976880 0.4864 0.4861 0.4859 0.4856 0.4854
3856.949811 0.4851 0.4849 0.4846 0.4844 0.4841
3860.922741 0.4841 0.4844 0.4847 0.4849 0.4850
3864.895671 0.4850 0.4850 0.4850 0.4852 0.4854
3868.868602 0.4857 0.4859 0.4860 0.4860 0.4860
3872.841532 0.4860 0.4860 0.4860 0.4860 0.4860
3876.814462 0.4858 0.4856 0.4853 0.4850 0.4850
3880.787393 0.4850 0.4850 0.4850 0.4848 0.4845
3884.760323 0.4843 0.4840 0.4838 0.4835 0.4833
3888.733253 0.4830 0.4830 0.4830 0.4830 0.4830
3892.706184 0.4830 0.4830 0.4830 0.4830 0.4830
3896.679114 0.4830 0.4830 0.4830 0.4830 0.4830
3900.652045 0.4830 0.4830 0.4830 0.4830 0.4830
3904.624975 0.4830 0.4830 0.4830 0.4830 0.4830
3908.597905 0.4827 0.4825 0.4822 0.4820 0.4820
3912.570836 0.4820 0.4820 0.4820 0.4820 0.4820
3916.543766 0.4820 0.4820 0.4820 0.4820 0.4820
3920.516696 0.4819 0.4817 0.4814 0.4812 0.4810
3924.489627 0.4810 0.4810 0.4810 0.4810 0.4810
3928.462557 0.4810 0.4810 0.4810 0.4810 0.4810
3932.435488 0.4810 0.4810 0.4810 0.4810 0.4810
3936.408418 0.4807 0.4802 0.4797 0.4792 0.4790
3940.381348 0.4790 0.4790 0.4790 0.4793 0.4798
3944.354279 0.4803 0.4808 0.4812 0.4814 0.4817
3948.327209 0.4819 0.4820 0.4820 0.4820 0.4820
3952.300139 0.4818 0.4816 0.4813 0.4811 0.4806
3956.273070 0.4801 0.4796 0.4791 0.4786 0.4781
3960.246000 0.4776 0.4771 0.4762 0.4752 0.4741
3964.218931 0.4731 0.4730 0.4730 0.4730 0.4730
3968.191861 0.4723 0.4716 0.4708 0.4701 0.4700
3972.164791 0.4700 0.4700 0.4700 0.4700 0.4700
3976.137722 0.4700 0.4700 0.4700 0.4700 0.4700
3980.110652 0.4700 0.4700 0.4700 0.4700 0.4700
3984.083582 0.4703 0.4705 0.4708 0.4710 0.4713
3988.056513 0.4715 0.4718 0.4720 0.4720 0.4720
3992.029443 0.4720 0.4720 0.4720 0.4720 0.4720
3996.002374 0.4721 0.4723 0.4726 0.4728 0.4730
3999.975304 0.4730 0.4730 0.4730 0.4731 0.4733
4003.948234 0.4736 0.4738 0.4740 0.4740 0.4740
4007.921165 0.4740 0.4740 0.4740 0.4740 0.4740
4011.894095 0.4740 0.4740 0.4740 0.4740 0.4740
4015.867025 0.4740 0.4740 0.4740 0.4740 0.4740
4019.839956 0.4740 0.4740 0.4739 0.4736 0.4734
4023.812886 0.4731 0.4729 0.4726 0.4723 0.4721
4027.785817 0.4717 0.4712 0.4707 0.4702 0.4698
4031.758747 0.4696 0.4693 0.4691 0.4688 0.4686
4035.731677 0.4683 0.4681 0.4680 0.4680 0.4680
4039.704608 0.4680 0.4678 0.4676 0.4673 0.4671
4043.677538 0.4670 0.4670 0.4670 0.4670 0.4670
4047.650468 0.4670 0.4670 0.4670 0.4666 0.4661
4051.623399 0.4655 0.4650 0.4650 0.4650 0.4650
4055.596329 0.4650 0.4650 0.4650 0.4650 0.4650
4059.569259 0.4650 0.4650 0.4650 0.4650 0.4650
4063.542190 0.4650 0.4650 0.4650 0.4647 0.4645
4067.515120 0.4642 0.4640 0.4640 0.4640 0.4640
4071.488051 0.4640 0.4637 0.4635 0.4632 0.4630
4075.460981 0.4630 0.4630 0.4630 0.4630 0.4630
4079.433911 0.4630 0.4630 0.4630 0.4630 0.4630
4083.406842 0.4630 0.4630 0.4630 0.4630 0.4630
4087.379772 0.4630 0.4630 0.4630 0.4630 0.4630
4091.352702 0.4630 0.4630 0.4630 0.4630 0.4630
4095.325633 0.4630 0.4630 0.4630 0.4630 0.4630
4099.298563 0.4630 0.4630 0.4630 0.4630 0.4630
4103.271494 0.4630 0.4630 0.4630 0.4630 0.4630
4107.244424 0.4630 0.4630 0.4630 0.4630 0.4630
4111.217354 0.4630 0.4630 0.4630 0.4630 0.4630
4115.190285 0.4630 0.4630 0.4630 0.4630 0.4630
4119.163215 0.4628 0.4626 0.4623 0.4621 0.4620
4123.136145 0.4620 0.4620 0.4620 0.4618 0.4615
4127.109076 0.4613 0.4610 0.4608 0.4605 0.4603
4131.082006 0.4600 0.4598 0.4595 0.4593 0.4590
4135.054937 0.4590 0.4590 0.4590 0.4590 0.4590
4139.027867 0.4590 0.4590 0.4590 0.4588 0.4585
4143.000797 0.4582 0.4580 0.4580 0.4580 0.4580
4146.973728 0.4580 0.4580 0.4580 0.4580 0.4580
4150.946658 0.4580 0.4580 0.4580 0.4580 0.4577
4154.919588 0.4575 0.4572 0.4570 0.4567 0.4564
4158.892519 0.4562 0.4560 0.4560 0.4560 0.4560
4162.865449 0.4560 0.4560 0.4560 0.4560 0.4559
4166.838380 0.4553 0.4548 0.4543 0.4539 0.4537
4170.811310 0.4534 0.4532 0.4529 0.4527 0.4524
4174.784240 0.4522 0.4520 0.4520 0.4520 0.4520
4178.757171 0.4519 0.4516 0.4514 0.4511 0.4510
4182.730101 0.4510 0.4510 0.4510 0.4510 0.4510
4186.703031 0.4510 0.4510 0.4510 0.4510 0.4510
4190.675962 0.4510 0.4510 0.4510 0.4510 0.4510
4194.648892 0.4510 0.4510 0.4510 0.4510 0.4510
4198.621823 0.4510 0.4510 0.4510 0.4512 0.4514
4202.594753 0.4517 0.4519 0.4522 0.4524 0.4527
4206.567683 0.4529 0.4530 0.4530 0.4530 0.4530
4210.540614 0.4528 0.4525 0.4523 0.4520 0.4520
4214.513544 0.4520 0.4520 0.4520 0.4518 0.4515
4218.486474 0.4513 0.4510 0.4510 0.4510 0.4510
4222.459405 0.4510 0.4510 0.4510 0.4510 0.4510
4226.432335 0.4510 0.4510 0.4510 0.4510 0.4507
4230.405266 0.4505 0.4502 0.4500 0.4497 0.4495
4234.378196 0.4492 0.4490 0.4490 0.4490 0.4490
4238.351126 0.4489 0.4484 0.4479 0.4474 0.4470
4242.324057 0.4470 0.4470 0.4470 0.4469 0.4464
4246.296987 0.4459 0.4454 0.4449 0.4447 0.4444
4250.269917 0.4442 0.4439 0.4437 0.4434 0.4432
4254.242848 0.4430 0.4430 0.4430 0.4430 0.4430
4258.215778 0.4430 0.4430 0.4430 0.4429 0.4426
4262.188708 0.4424 0.4421 0.4418 0.4413 0.4408
4266.161639 0.4402 0.4397 0.4392 0.4387 0.4382
4270.134569 0.4379 0.4376 0.4374 0.4371 0.4368
4274.107500 0.4366 0.4363 0.4361 0.4358 0.4356
4278.080430 0.4353 0.4351 0.4350 0.4350 0.4350
4282.053360 0.4350 0.4350 0.4350 0.4350 0.4350
4286.026291 0.4350 0.4350 0.4350 0.4350 0.4350
4289.999221 0.4350 0.4350 0.4350 0.4350 0.4350
4293.972151 0.4350 0.4350 0.4350 0.4350 0.4350
4297.945082 0.4350 0.4350 0.4350 0.4350 0.4350
4301.918012 0.4348 0.4345 0.4343 0.4340 0.4337
4305.890943 0.4335 0.4332 0.4330 0.4327 0.4325
4309.863873 0.4322 0.4320 0.4317 0.4315 0.4312
4313.836803 0.4310 0.4310 0.4310 0.4310 0.4310
4317.809734 0.4310 0.4310 0.4310 0.4310 0.4310
4321.782664 0.4310 0.4310 0.4310 0.4310 0.4310
4325.755594 0.4310 0.4309 0.4307 0.4304 0.4302
4329.728525 0.4299 0.4297 0.4294 0.4292 0.4290
4333.701455 0.4290 0.4290 0.4290 0.4290 0.4290
4337.674386 0.4290 0.4290 0.4290 0.4290 0.4290
4341.647316 0.4290 0.4289 0.4286 0.4284 0.4281
4345.620246 0.4280 0.4280 0.4280 0.4280 0.4280
4349.593177 0.4280 0.4280 0.4280 0.4280 0.4280
4353.566107 0.4280 0.4280 0.4280 0.4280 0.4280
4357.539037 0.4280 0.4278 0.4276 0.4273 0.4271
4361.511968 0.4270 0.4270 0.4270 0.4270 0.4270
4365.484898 0.4270 0.4270 0.4270 0.4270 0.4270
4369.457829 0.4270 0.4270 0.4268 0.4265 0.4263
4373.430759 0.4260 0.4260 0.4260 0.4260 0.4260
4377.403689 0.4260 0.4260 0.4260 0.4260 0.4258
4381.376620 0.4255 0.4253 0.4250 0.4250 0.4250
4385.349550 0.4250 0.4250 0.4252 0.4255 0.4257
4389.322480 0.4260 0.4260 0.4260 0.4260 0.4260
4393.295411 0.4260 0.4260 0.4260 0.4260 0.4260
4397.268341 0.4260 0.4260 0.4260 0.4260 0.4260
4401.241272 0.4260 0.4260 0.4260 0.4260 0.4260
4405.214202 0.4259 0.4257 0.4254 0.4252 0.4249
4409.187132 0.4247 0.4244 0.4242 0.4240 0.4240
4413.160063 0.4240 0.4240 0.4240 0.4240 0.4240
4417.132993 0.4240 0.4240 0.4240 0.4240 0.4240
4421.105923 0.4239 0.4237 0.4234 0.4231 0.4229
4425.078854 0.4226 0.4224 0.4221 0.4220 0.4220
4429.051784 0.4220 0.4220 0.4219 0.4216 0.4214
4433.024714 0.4211 0.4209 0.4206 0.4204 0.4201
4436.997645 0.4200 0.4200 0.4200 0.4200 0.4200
4440.970575 0.4200 0.4200 0.4200 0.4200 0.4200
4444.943506 0.4200 0.4200 0.4200 0.4200 0.4200
4448.916436 0.4200 0.4202 0.4204 0.4207 0.4209
4452.889366 0.4210 0.4210 0.4210 0.4210 0.4210
4456.862297 0.4210 0.4210 0.4210 0.4210 0.4210
4460.835227 0.4210 0.4210 0.4210 0.4210 0.4210
4464.808157 0.4210 0.4212 0.4215 0.4217 0.4220
4468.781088 0.4220 0.4220 0.4220 0.4220 0.4223
4472.754018 0.4225 0.4228 0.4230 0.4230 0.4230
4476.726949 0.4230 0.4230 0.4233 0.4235 0.4238
4480.699879 0.4240 0.4240 0.4240 0.4240 0.4240
4484.672809 0.4240 0.4240 0.4240 0.4240 0.4240
4488.645740 0.4240 0.4240 0.4240 0.4240 0.4240
4492.618670 0.4240 0.4240 0.4240 0.4240 0.4240
4496.591600 0.4239 0.4237 0.4234 0.4232 0.4229
4500.564531 0.4227 0.4224 0.4222 0.4220 0.4220
4504.537461 0.4220 0.4220 0.4220 0.4220 0.4220
4508.510392 0.4220 0.4220 0.4220 0.4220 0.4220
4512.483322 0.4219 0.4216 0.4214 0.4211 0.4209
4516.456252 0.4206 0.4204 0.4201 0.4197 0.4192
4520.429183 0.4187 0.4182 0.4178 0.4176 0.4173
4524.402113 0.4171 0.4167 0.4162 0.4156 0.4151
4528.375043 0.4148 0.4146 0.4143 0.4141 0.4138
4532.347974 0.4136 0.4133 0.4131 0.4128 0.4126
4536.320904 0.4123 0.4120 0.4120 0.4120 0.4120
4540.293835 0.4120 0.4120 0.4120 0.4120 0.4120
4544.266765 0.4118 0.4115 0.4113 0.4110 0.4110
4548.239695 0.4110 0.4110 0.4110 0.4108 0.4105
4552.212626 0.4103 0.4100 0.4100 0.4100 0.4100
4556.185556 0.4100 0.4100 0.4100 0.4100 0.4100
4560.158486 0.4100 0.4100 0.4100 0.4100 0.4100
4564.131417 0.4100 0.4100 0.4100 0.4100 0.4100
4568.104347 0.4100 0.4100 0.4100 0.4100 0.4100
4572.077278 0.4100 0.4100 0.4100 0.4100 0.4099
4576.050208 0.4097 0.4094 0.4092 0.4090 0.4090
4580.023138 0.4090 0.4090 0.4090 0.4090 0.4090
4583.996069 0.4090 0.4090 0.4090 0.4090 0.4090
4587.968999 0.4090 0.4090 0.4090 0.4090 0.4090
4591.941929 0.4090 0.4090 0.4090 0.4089 0.4086
4595.914860 0.4084 0.4081 0.4080 0.4080 0.4080
4599.887790 0.4080 0.4080 0.4080 0.4080 0.4080
4603.860721 0.4080 0.4080 0.4080 0.4080 0.4078
4607.833651 0.4076 0.4073 0.4071 0.4070 0.4070
4611.806581 0.4070 0.4070 0.4068 0.4066 0.4063
4615.779512 0.4061 0.4058 0.4056 0.4053 0.4050
4619.752442 0.4046 0.4041 0.4036 0.4031 0.4026
4623.725372 0.4021 0.4016 0.4011 0.4006 0.4000
4627.698303 0.3995 0.3990 0.3988 0.3985 0.3983
4631.671233 0.3980 0.3975 0.3970 0.3965 0.3960
4635.644163 0.3957 0.3955 0.3952 0.3950 0.3947
4639.617094 0.3945 0.3942 0.3940 0.3943 0.3945
4643.590024 0.3948 0.3950 0.3953 0.3955 0.3958
4647.562955 0.3960 0.3960 0.3960 0.3960 0.3961
4651.535885 0.3963 0.3966 0.3968 0.3971 0.3976
4655.508815 0.3981 0.3986 0.3990 0.3990 0.3990
4659.481746 0.3990 0.3990 0.3990 0.3990 0.3990
4663.454676 0.3990 0.3990 0.3990 0.3990 0.3991
4667.427606 0.3993 0.3996 0.3999 0.4000 0.4000
4671.400537 0.4000 0.4000 0.4000 0.4000 0.4000
4675.373467 0.4000 0.4000 0.4000 0.4000 0.4000
4679.346398 0.3999 0.3996 0.3994 0.3991 0.3990
4683.319328 0.3990 0.3990 0.3990 0.3990 0.3990
4687.292258 0.3990 0.3990 0.3987 0.3982 0.3977
4691.265189 0.3972 0.3970 0.3970 0.3970 0.3970
4695.238119 0.3968 0.3966 0.3963 0.3961 0.3960
4699.211049 0.3960 0.3960 0.3960 0.3960 0.3960
4703.183980 0.3960 0.3960 0.3958 0.3955 0.3953
4707.156910 0.3950 0.3950 0.3950 0.3950 0.3950
4711.129841 0.3950 0.3950 0.3950 0.3950 0.3950
4715.102771 0.3950 0.3950 0.3950 0.3950 0.3950
4719.075701 0.3950 0.3950 0.3953 0.3955 0.3958
4723.048632 0.3960 0.3960 0.3960 0.3960 0.3960
4727.021562 0.3960 0.3960 0.3960 0.3960 0.3960
4730.994492 0.3960 0.3960 0.3960 0.3960 0.3960
4734.967423 0.3960 0.3960 0.3960 0.3960 0.3960
4738.940353 0.3960 0.3960 0.3960 0.3960 0.3961
4742.913284 0.3963 0.3966 0.3968 0.3970 0.3970
4746.886214 0.3970 0.3970 0.3969 0.3967 0.3964
4750.859144 0.3961 0.3960 0.3960 0.3960 0.3960
4754.832075 0.3959 0.3956 0.3954 0.3951 0.3949
4758.805005 0.3946 0.3944 0.3941 0.3939 0.3936
4762.777935 0.3934 0.3931 0.3929 0.3926 0.3924
4766.750866 0.3921 0.3919 0.3916 0.3913 0.3911
4770.723796 0.3908 0.3906 0.3903 0.3901 0.3898
4774.696727 0.3896 0.3893 0.3891 0.3890 0.3890
4778.669657 0.3890 0.3890 0.3890 0.3890 0.3890
4782.642587 0.3890 0.3890 0.3890 0.3890 0.3890
4786.615518 0.3890 0.3890 0.3890 0.3890 0.3888
4790.588448 0.3885 0.3883 0.3880 0.3880 0.3880
4794.561378 0.3880 0.3880 0.3878 0.3875 0.3873
4798.534309 0.3870 0.3870 0.3870 0.3870 0.3870
4802.507239 0.3870 0.3870 0.3870 0.3870 0.3870
4806.480169 0.3870 0.3870 0.3870 0.3870 0.3870
4810.453100 0.3870 0.3870 0.3867 0.3865 0.3862
4814.426030 0.3860 0.3860 0.3860 0.3860 0.3859
4818.398961 0.3857 0.3854 0.3852 0.3850 0.3850
4822.371891 0.3850 0.3850 0.3850 0.3850 0.3850
4826.344821 0.3850 0.3849 0.3847 0.3844 0.3842
4830.317752 0.3839 0.3837 0.3834 0.3832 0.3830
4834.290682 0.3830 0.3830 0.3830 0.3829 0.3826
4838.263612 0.3824 0.3821 0.3820 0.3820 0.3820
4842.236543 0.3820 0.3819 0.3816 0.3814 0.3811
4846.209473 0.3810 0.3810 0.3810 0.3810 0.3810
4850.182404 0.3810 0.3810 0.3810 0.3810 0.3810
4854.155334 0.3810 0.3810 0.3808 0.3806 0.3803
4858.128264 0.3801 0.3800 0.3800 0.3800 0.3800
4862.101195 0.3800 0.3800 0.3800 0.3800 0.3800
4866.074125 0.3800 0.3800 0.3800 0.3800 0.3800
4870.047055 0.3800 0.3800 0.3800 0.3800 0.3800
4874.019986 0.3800 0.3800 0.3800 0.3800 0.3800
4877.992916 0.3798 0.3795 0.3793 0.3790 0.3790
4881.965847 0.3790 0.3790 0.3790 0.3790 0.3790
4885.938777 0.3790 0.3790 0.3790 0.3790 0.3790
4889.911707 0.3790 0.3790 0.3790 0.3790 0.3790
4893.884638 0.3790 0.3790 0.3790 0.3790 0.3787
4897.857568 0.3785 0.3782 0.3780 0.3780 0.3780
4901.830498 0.3780 0.3780 0.3780 0.3780 0.3780
4905.803429 0.3780 0.3780 0.3780 0.3780 0.3780
4909.776359 0.3780 0.3780 0.3780 0.3780 0.3780
4913.749290 0.3780 0.3780 0.3780 0.3780 0.3780
4917.722220 0.3780 0.3780 0.3780 0.3780 0.3780
4921.695150 0.3780 0.3780 0.3780 0.3780 0.3780
4925.668081 0.3780 0.3780 0.3780 0.3780 0.3780
4929.641011 0.3780 0.3780 0.3779 0.3776 0.3773
4933.613941 0.3771 0.3770 0.3770 0.3770 0.3770
4937.586872 0.3768 0.3766 0.3763 0.3761 0.3760
4941.559802 0.3760 0.3760 0.3760 0.3760 0.3760
4945.532733 0.3760 0.3760 0.3758 0.3755 0.3753
4949.505663 0.3750 0.3750 0.3750 0.3750 0.3750
4953.478593 0.3748 0.3745 0.3743 0.3740 0.3738
4957.451524 0.3735 0.3733 0.3730 0.3730 0.3730
4961.424454 0.3730 0.3730 0.3730 0.3730 0.3730
4965.397384 0.3730 0.3730 0.3730 0.3730
##END=
