##TITLE=3',3'',5',5''-TETRABROMOPHENOL SULFONE PHTHALEIN, SODIUM SALT
$$ E.K. (W.L.) NO. 6137
##JCAMP-DX=4.24
##DATA TYPE=INFRARED SPECTRUM
##CLASS=COBLENTZ
##ORIGIN=WYANDOTTE CHEMICALS CORP., WYANDOTTE, MICHIGAN, USA
##OWNER=COBLENTZ SOCIETY
Collection (C) 2018 copyright by the U.S. Secretary of Commerce
on behalf of the United States of America. All rights reserved.
##DATE=Not specified, most likely prior to 1970
##MOLFORM=C19 H9 Br4 O5 S Na
##SOURCE REFERENCE=COBLENTZ NO. 229
##$NIST ID=B6000229
##$NIST SOURCE=COBLENTZ
##$NIST IMAGE=cob229
##SPECTROMETER/DATA SYSTEM=Not specified, most likely a prism, grating, or hybrid spectrometer.
##STATE=SOLID (MULL)
##SAMPLING PROCEDURE=TRANSMISSION
##RESOLUTION=4
##DATA PROCESSING=DIGITIZED BY NIST FROM HARD COPY
##XUNITS=MICROMETERS
##YUNITS=TRANSMITTANCE
##XFACTOR=1.000000
##YFACTOR=1
##DELTAX=000.006489
##FIRSTX=2.007
##LASTX=15.985
##FIRSTY=0.245
##MAXX=15.985
##MINX=2.007
##MAXY=0.961
##MINY=0.04
##NPOINTS=2155
##XYDATA=(X++(Y..Y))
2.007000 0.2450 0.2470 0.2440 0.2440 0.2440
2.039462 0.2450 0.2490 0.2490 0.2520 0.2540
2.072000 0.2550 0.2550 0.2570 0.2600 0.2620
2.104462 0.2620 0.2630 0.2660 0.2680 0.2680
2.137000 0.2700 0.2710 0.2730 0.2760 0.2790
2.169462 0.2790 0.2810 0.2810 0.2810 0.2810
2.202000 0.2830 0.2830 0.2830 0.2840 0.2840
2.234462 0.2840 0.2840 0.2840 0.2840 0.2840
2.267000 0.2840 0.2860 0.2860 0.2880 0.2890
2.299462 0.2890 0.2910 0.2910 0.2940 0.2970
2.332000 0.3000 0.3020 0.3040 0.3040 0.3050
2.364462 0.3050 0.3050 0.3050 0.3070 0.3050
2.396000 0.3050 0.3090 0.3130 0.3150 0.3170
2.428462 0.3180 0.3200 0.3250 0.3260 0.3280
2.461000 0.3300 0.3330 0.3340 0.3360 0.3360
2.493462 0.3380 0.3390 0.3390 0.3390 0.3390
2.526000 0.3410 0.3440 0.3460 0.3490 0.3520
2.558462 0.3540 0.3590 0.3620 0.3640 0.3670
2.591000 0.3700 0.3720 0.3780 0.3800 0.3810
2.623462 0.3830 0.3850 0.3890 0.3960 0.3980
2.656000 0.4020 0.4110 0.4170 0.4230 0.4250
2.688462 0.4250 0.4270 0.4250 0.4200 0.4150
2.721000 0.4070 0.4010 0.3930 0.3810 0.3680
2.753462 0.3590 0.3490 0.3430 0.3390 0.3360
2.786000 0.3300 0.3250 0.3170 0.3090 0.2960
2.818462 0.2890 0.2810 0.2750 0.2680 0.2650
2.851000 0.2600 0.2570 0.2520 0.2450 0.2420
2.883462 0.2370 0.2340 0.2330 0.2290 0.2260
2.916000 0.2210 0.2160 0.2100 0.2070 0.2070
2.948462 0.2030 0.2020 0.2020 0.2020 0.2000
2.981000 0.1990 0.1950 0.1920 0.1900 0.1900
3.013462 0.1900 0.1900 0.1920 0.1970 0.1970
3.045000 0.1990 0.2000 0.2000 0.2020 0.2030
3.077462 0.2070 0.2110 0.2130 0.2130 0.2150
3.110000 0.2160 0.2160 0.2160 0.2160 0.2180
3.142462 0.2160 0.2160 0.2180 0.2180 0.2200
3.175000 0.2230 0.2260 0.2280 0.2310 0.2370
3.207462 0.2420 0.2450 0.2450 0.2490 0.2500
3.240000 0.2520 0.2580 0.2600 0.2620 0.2520
3.272462 0.2470 0.2450 0.2410 0.2410 0.2410
3.305000 0.2390 0.2390 0.2390 0.2360 0.2260
3.337462 0.2130 0.1950 0.1740 0.1520 0.1290
3.370000 0.1050 0.0800 0.0590 0.0430 0.0400
3.402462 0.0400 0.0420 0.0420 0.0420 0.0430
3.435000 0.0430 0.0450 0.0450 0.0460 0.0460
3.467462 0.0460 0.0450 0.0430 0.0430 0.0460
3.500000 0.0480 0.0500 0.0500 0.0510 0.0510
3.532462 0.0510 0.0450 0.0450 0.0580 0.0850
3.565000 0.1290 0.1840 0.2440 0.3020 0.3540
3.597462 0.3910 0.4200 0.4400 0.4540 0.4660
3.629000 0.4780 0.4910 0.4980 0.5010 0.5030
3.661462 0.5080 0.5090 0.5090 0.5090 0.5090
3.694000 0.5060 0.5040 0.5010 0.5010 0.5010
3.726462 0.5000 0.5010 0.5120 0.5170 0.5210
3.759000 0.5220 0.5220 0.5210 0.5220 0.5220
3.791462 0.5220 0.5250 0.5320 0.5370 0.5420
3.824000 0.5420 0.5430 0.5450 0.5430 0.5460
3.856462 0.5480 0.5510 0.5530 0.5560 0.5580
3.889000 0.5590 0.5640 0.5690 0.5740 0.5800
3.921462 0.5850 0.5880 0.5930 0.5980 0.6000
3.954000 0.6000 0.6030 0.6080 0.6100 0.6080
3.986462 0.6110 0.6130 0.6160 0.6190 0.6240
4.019000 0.6270 0.6310 0.6340 0.6350 0.6350
4.051462 0.6370 0.6370 0.6370 0.6390 0.6390
4.084000 0.6390 0.6390 0.6400 0.6400 0.6420
4.116462 0.6420 0.6420 0.6420 0.6450 0.6450
4.149000 0.6470 0.6470 0.6480 0.6520 0.6530
4.181462 0.6550 0.6560 0.6550 0.6550 0.6530
4.213000 0.6550 0.6560 0.6600 0.6630 0.6630
4.245462 0.6650 0.6660 0.6680 0.6660 0.6660
4.278000 0.6630 0.6630 0.6650 0.6710 0.6740
4.310462 0.6790 0.6810 0.6840 0.6870 0.6900
4.343000 0.6940 0.6990 0.7000 0.7000 0.7020
4.375462 0.7030 0.7050 0.7080 0.7130 0.7180
4.408000 0.7230 0.7240 0.7240 0.7260 0.7260
4.440462 0.7260 0.7280 0.7280 0.7280 0.7280
4.473000 0.7280 0.7290 0.7280 0.7290 0.7310
4.505462 0.7310 0.7330 0.7340 0.7360 0.7370
4.538000 0.7390 0.7390 0.7410 0.7410 0.7420
4.570462 0.7440 0.7450 0.7450 0.7470 0.7500
4.603000 0.7540 0.7550 0.7570 0.7570 0.7570
4.635462 0.7570 0.7570 0.7580 0.7580 0.7580
4.668000 0.7570 0.7570 0.7550 0.7550 0.7570
4.700462 0.7630 0.7650 0.7650 0.7680 0.7700
4.733000 0.7700 0.7710 0.7730 0.7750 0.7760
4.765462 0.7790 0.7810 0.7830 0.7810 0.7810
4.798000 0.7810 0.7810 0.7810 0.7830 0.7830
4.830462 0.7860 0.7880 0.7940 0.7970 0.7990
4.862000 0.8000 0.8040 0.8070 0.8090 0.8090
4.894462 0.8100 0.8120 0.8120 0.8120 0.8120
4.927000 0.8120 0.8130 0.8150 0.8130 0.8170
4.959462 0.8180 0.8200 0.8200 0.8200 0.8200
4.992000 0.8220 0.8220 0.8230 0.8250 0.8250
5.024462 0.8260 0.8310 0.8330 0.8340 0.8340
5.057000 0.8330 0.8340 0.8340 0.8390 0.8430
5.089462 0.8460 0.8490 0.8470 0.8510 0.8520
5.122000 0.8520 0.8510 0.8520 0.8540 0.8550
5.154462 0.8550 0.8550 0.8550 0.8570 0.8570
5.187000 0.8520 0.8570 0.8600 0.8620 0.8640
5.219462 0.8650 0.8670 0.8680 0.8700 0.8730
5.252000 0.8750 0.8730 0.8750 0.8770 0.8780
5.284462 0.8800 0.8810 0.8830 0.8810 0.8830
5.317000 0.8830 0.8830 0.8830 0.8830 0.8850
5.349462 0.8860 0.8860 0.8850 0.8850 0.8850
5.382000 0.8830 0.8830 0.8850 0.8880 0.8940
5.414462 0.9020 0.9040 0.9040 0.9040 0.9040
5.446000 0.9020 0.8990 0.8990 0.9010 0.9060
5.478462 0.9120 0.9140 0.9140 0.9090 0.8990
5.511000 0.8990 0.9010 0.9020 0.9110 0.9120
5.543462 0.9140 0.9140 0.9120 0.9120 0.9120
5.576000 0.9120 0.9110 0.9090 0.9090 0.9090
5.608462 0.9120 0.9190 0.9270 0.9320 0.9320
5.641000 0.9280 0.9270 0.9250 0.9220 0.9200
5.673462 0.9190 0.9200 0.9200 0.9220 0.9220
5.706000 0.9220 0.9220 0.9220 0.9220 0.9200
5.738462 0.9220 0.9230 0.9300 0.9330 0.9380
5.771000 0.9410 0.9460 0.9490 0.9570 0.9610
5.803462 0.9610 0.9590 0.9490 0.9440 0.9430
5.836000 0.9430 0.9430 0.9380 0.9350 0.9300
5.868462 0.9270 0.9230 0.9230 0.9250 0.9360
5.901000 0.9480 0.9510 0.9490 0.9380 0.9320
5.933462 0.9280 0.9270 0.9250 0.9230 0.9200
5.966000 0.9150 0.9110 0.9020 0.8940 0.8850
5.998462 0.8720 0.8570 0.8410 0.8220 0.8000
6.030000 0.7780 0.7500 0.7230 0.6900 0.6560
6.062462 0.6180 0.5770 0.5320 0.4830 0.4620
6.095000 0.4460 0.4320 0.4110 0.3780 0.3250
6.127462 0.2470 0.2230 0.2110 0.2080 0.2080
6.160000 0.2180 0.2360 0.2390 0.2390 0.2370
6.192462 0.2490 0.2730 0.2880 0.2880 0.2830
6.225000 0.2330 0.2180 0.2150 0.2160 0.2840
6.257462 0.3460 0.3850 0.4220 0.4510 0.4530
6.290000 0.4490 0.4120 0.3810 0.3430 0.2960
6.322462 0.2240 0.2020 0.2000 0.2000 0.2160
6.355000 0.2860 0.3360 0.3650 0.3850 0.4070
6.387462 0.4380 0.4770 0.5250 0.5840 0.6110
6.420000 0.6310 0.6320 0.6290 0.6160 0.6010
6.452462 0.5980 0.5870 0.5670 0.5460 0.5210
6.485000 0.4930 0.4670 0.4410 0.4350 0.4300
6.517462 0.4250 0.4200 0.4140 0.4090 0.4040
6.550000 0.4010 0.3980 0.3940 0.3880 0.3830
6.582462 0.3810 0.3800 0.3800 0.3810 0.3940
6.615000 0.3990 0.4090 0.4280 0.4320 0.4320
6.647462 0.4280 0.4110 0.3980 0.3830 0.3590
6.679000 0.3410 0.3390 0.3410 0.3600 0.3650
6.711462 0.3650 0.3620 0.3250 0.2960 0.2520
6.744000 0.2230 0.1970 0.1730 0.1530 0.1350
6.776462 0.1190 0.1010 0.0850 0.0670 0.0550
6.809000 0.0480 0.0460 0.0460 0.0500 0.0510
6.841462 0.0550 0.0590 0.0660 0.0720 0.0790
6.874000 0.0850 0.0900 0.0980 0.1100 0.1240
6.906462 0.1400 0.1610 0.1820 0.2070 0.2340
6.939000 0.2620 0.2910 0.3200 0.3490 0.3800
6.971462 0.4090 0.4400 0.4670 0.4950 0.5220
7.004000 0.5460 0.5670 0.5870 0.6030 0.6160
7.036462 0.6240 0.6340 0.6400 0.6450 0.6470
7.069000 0.6470 0.6450 0.6400 0.6390 0.6370
7.101462 0.6340 0.6320 0.6310 0.6270 0.6130
7.134000 0.5970 0.5800 0.5590 0.5380 0.5140
7.166462 0.4980 0.4850 0.4800 0.4740 0.4660
7.199000 0.4510 0.4270 0.3890 0.3360 0.2970
7.231462 0.2570 0.2360 0.2110 0.2000 0.1730
7.263000 0.1600 0.1600 0.1650 0.2180 0.2370
7.295462 0.2780 0.3250 0.3600 0.3670 0.3750
7.328000 0.3940 0.4270 0.4690 0.5220 0.5850
7.360462 0.5970 0.6010 0.6050 0.6080 0.6100
7.393000 0.6130 0.6180 0.6220 0.6270 0.6320
7.425462 0.6390 0.6400 0.6400 0.6370 0.6270
7.458000 0.6160 0.6030 0.5880 0.5690 0.5430
7.490462 0.5110 0.4690 0.4140 0.3770 0.3310
7.523000 0.2890 0.2550 0.2330 0.2310 0.2310
7.555462 0.2330 0.2490 0.2520 0.2520 0.2500
7.588000 0.2280 0.2100 0.1840 0.1560 0.1370
7.620462 0.1290 0.1270 0.1240 0.1240 0.1220
7.653000 0.1220 0.1220 0.1290 0.1420 0.1530
7.685462 0.1680 0.1860 0.2070 0.2280 0.2500
7.718000 0.2700 0.2860 0.2970 0.3070 0.3100
7.750462 0.3100 0.3100 0.3070 0.3020 0.3000
7.783000 0.2970 0.2960 0.2960 0.2960 0.2990
7.815462 0.3430 0.3620 0.3810 0.4010 0.4220
7.848000 0.4410 0.4590 0.4770 0.4930 0.5040
7.880462 0.5170 0.5250 0.5250 0.5250 0.5250
7.912000 0.5220 0.5110 0.5000 0.4870 0.4750
7.944462 0.4620 0.4460 0.4300 0.4120 0.3930
7.977000 0.3750 0.3570 0.3390 0.3250 0.3090
8.009462 0.2970 0.2890 0.2840 0.2830 0.2700
8.042000 0.2600 0.2500 0.2410 0.2290 0.2240
8.074462 0.2150 0.2070 0.1970 0.1900 0.1820
8.107000 0.1740 0.1660 0.1600 0.1560 0.1530
8.139462 0.1520 0.1500 0.1500 0.1480 0.1480
8.172000 0.1470 0.1470 0.1450 0.1440 0.1420
8.204462 0.1440 0.1440 0.1470 0.1470 0.1470
8.237000 0.1450 0.1440 0.1440 0.1440 0.1440
8.269462 0.1440 0.1420 0.1420 0.1400 0.1370
8.302000 0.1340 0.1320 0.1320 0.1320 0.1320
8.334462 0.1320 0.1340 0.1400 0.1480 0.1550
8.367000 0.1580 0.1660 0.1680 0.1740 0.1840
8.399462 0.1950 0.2080 0.2230 0.2360 0.2470
8.432000 0.2580 0.2680 0.2790 0.2910 0.2990
8.464462 0.3090 0.3170 0.3220 0.3300 0.3340
8.496000 0.3390 0.3430 0.3470 0.3510 0.3520
8.528462 0.3550 0.3570 0.3570 0.3540 0.3460
8.561000 0.3430 0.3360 0.3340 0.3300 0.3220
8.593462 0.3150 0.3090 0.3040 0.2970 0.2920
8.626000 0.2860 0.2790 0.2730 0.2650 0.2540
8.658462 0.2420 0.2260 0.2200 0.2150 0.2100
8.691000 0.2030 0.1970 0.1870 0.1760 0.1650
8.723462 0.1550 0.1480 0.1310 0.1240 0.1240
8.756000 0.1220 0.1220 0.1270 0.1390 0.1520
8.788462 0.1690 0.1860 0.2030 0.2180 0.2260
8.821000 0.2340 0.2420 0.2500 0.2600 0.2700
8.853462 0.2780 0.2880 0.2990 0.3090 0.3180
8.886000 0.3300 0.3390 0.3490 0.3600 0.3720
8.918462 0.3810 0.3930 0.4020 0.4140 0.4230
8.951000 0.4320 0.4400 0.4490 0.4570 0.4690
8.983462 0.4780 0.4880 0.4980 0.5080 0.5160
9.016000 0.5240 0.5300 0.5370 0.5400 0.5450
9.048462 0.5450 0.5450 0.5450 0.5430 0.5320
9.080000 0.5140 0.5010 0.4830 0.4590 0.4380
9.112462 0.4010 0.3750 0.3490 0.3250 0.3090
9.145000 0.2890 0.2860 0.2860 0.2920 0.3100
9.177462 0.3280 0.3470 0.3670 0.3860 0.4070
9.210000 0.4270 0.4480 0.4670 0.4870 0.5040
9.242462 0.5210 0.5370 0.5510 0.5630 0.5740
9.275000 0.5800 0.5850 0.5950 0.5980 0.5980
9.307462 0.6030 0.6110 0.6210 0.6320 0.6400
9.340000 0.6450 0.6450 0.6480 0.6500 0.6500
9.372462 0.6480 0.6520 0.6560 0.6630 0.6690
9.405000 0.6770 0.6860 0.6920 0.6990 0.7030
9.437462 0.7070 0.7070 0.7100 0.7110 0.7160
9.470000 0.7180 0.7180 0.7160 0.7130 0.7080
9.502462 0.7000 0.6900 0.6760 0.6550 0.6260
9.535000 0.5880 0.5590 0.5380 0.5090 0.5030
9.567462 0.5030 0.5120 0.5370 0.5580 0.5790
9.600000 0.5970 0.6110 0.6190 0.6290 0.6310
9.632462 0.6310 0.6270 0.6130 0.5980 0.5800
9.665000 0.5580 0.5300 0.4980 0.4590 0.4110
9.697462 0.3510 0.2790 0.2410 0.2100 0.1860
9.729000 0.1650 0.1480 0.1470 0.1450 0.1470
9.761462 0.1650 0.1820 0.2030 0.2260 0.2500
9.794000 0.2760 0.3040 0.3310 0.3600 0.3910
9.826462 0.4200 0.4490 0.4780 0.5060 0.5320
9.859000 0.5580 0.5800 0.6010 0.6190 0.6350
9.891462 0.6470 0.6580 0.6680 0.6770 0.6860
9.924000 0.6940 0.7000 0.7100 0.7160 0.7240
9.956462 0.7310 0.7360 0.7410 0.7440 0.7450
9.989000 0.7470 0.7520 0.7570 0.7630 0.7650
10.021462 0.7700 0.7710 0.7710 0.7710 0.7710
10.054000 0.7700 0.7710 0.7730 0.7750 0.7730
10.086462 0.7710 0.7680 0.7660 0.7660 0.7650
10.119000 0.7620 0.7620 0.7600 0.7580 0.7550
10.151462 0.7520 0.7500 0.7470 0.7410 0.7310
10.184000 0.7200 0.7050 0.6870 0.6680 0.6450
10.216462 0.6190 0.5900 0.5580 0.5220 0.4820
10.249000 0.4610 0.4400 0.4200 0.4060 0.3940
10.281462 0.3860 0.3850 0.3810 0.3780 0.3780
10.313000 0.3770 0.3770 0.3800 0.3940 0.4120
10.345462 0.4330 0.4560 0.4780 0.5010 0.5240
10.378000 0.5420 0.5550 0.5690 0.5820 0.5930
10.410462 0.6030 0.6130 0.6220 0.6310 0.6390
10.443000 0.6470 0.6550 0.6610 0.6680 0.6760
10.475462 0.6820 0.6860 0.6870 0.6900 0.6950
10.508000 0.6990 0.7030 0.7050 0.7080 0.7100
10.540462 0.7100 0.7130 0.7150 0.7160 0.7180
10.573000 0.7180 0.7160 0.7110 0.7050 0.6900
10.605462 0.6610 0.6390 0.6190 0.6010 0.5660
10.638000 0.5250 0.4850 0.4410 0.4040 0.3720
10.670462 0.3490 0.3260 0.3200 0.3180 0.3200
10.703000 0.3510 0.3910 0.4330 0.4590 0.4850
10.735462 0.5220 0.5530 0.5760 0.5950 0.6110
10.768000 0.6240 0.6340 0.6440 0.6520 0.6630
10.800462 0.6710 0.6770 0.6820 0.6890 0.6920
10.833000 0.6970 0.7020 0.7020 0.7030 0.7050
10.865462 0.7080 0.7100 0.7110 0.7110 0.7100
10.897000 0.7110 0.7110 0.7130 0.7150 0.7200
10.929462 0.7280 0.7390 0.7450 0.7520 0.7550
10.962000 0.7600 0.7620 0.7650 0.7680 0.7710
10.994462 0.7730 0.7760 0.7790 0.7790 0.7780
11.027000 0.7760 0.7750 0.7710 0.7660 0.7620
11.059462 0.7520 0.7410 0.7290 0.7130 0.6970
11.092000 0.6790 0.6660 0.6550 0.6450 0.6340
11.124462 0.6320 0.6310 0.6320 0.6520 0.6710
11.157000 0.6860 0.7000 0.7110 0.7230 0.7340
11.189462 0.7450 0.7550 0.7680 0.7790 0.7810
11.222000 0.7880 0.7910 0.7920 0.7920 0.7940
11.254462 0.7940 0.7940 0.7910 0.7840 0.7810
11.287000 0.7760 0.7700 0.7620 0.7540 0.7420
11.319462 0.7330 0.7210 0.7070 0.6920 0.6820
11.352000 0.6740 0.6650 0.6630 0.6610 0.6630
11.384462 0.6680 0.6760 0.6860 0.6970 0.7100
11.417000 0.7230 0.7330 0.7420 0.7540 0.7630
11.449462 0.7750 0.7860 0.7970 0.8050 0.8150
11.482000 0.8220 0.8280 0.8310 0.8360 0.8410
11.514462 0.8490 0.8510 0.8540 0.8600 0.8620
11.546000 0.8640 0.8650 0.8680 0.8700 0.8720
11.578462 0.8750 0.8750 0.8770 0.8770 0.8770
11.611000 0.8780 0.8770 0.8770 0.8780 0.8800
11.643462 0.8800 0.8800 0.8810 0.8810 0.8810
11.676000 0.8800 0.8800 0.8800 0.8750 0.8720
11.708462 0.8720 0.8700 0.8670 0.8620 0.8570
11.741000 0.8490 0.8380 0.8250 0.8090 0.7860
11.773462 0.7750 0.7550 0.7330 0.7070 0.6810
11.806000 0.6520 0.6400 0.6290 0.6270 0.6290
11.838462 0.6340 0.6470 0.6690 0.6940 0.7130
11.871000 0.7290 0.7450 0.7580 0.7700 0.7830
11.903462 0.7920 0.8040 0.8090 0.8170 0.8220
11.936000 0.8280 0.8340 0.8430 0.8490 0.8550
11.968462 0.8590 0.8590 0.8620 0.8720 0.8750
12.001000 0.8780 0.8850 0.8880 0.8880 0.8890
12.033462 0.8910 0.8910 0.8910 0.8890 0.8890
12.066000 0.8880 0.8860 0.8860 0.8850 0.8860
12.098462 0.8860 0.8890 0.8880 0.8850 0.8810
12.130000 0.8770 0.8700 0.8650 0.8600 0.8570
12.162462 0.8520 0.8490 0.8470 0.8470 0.8470
12.195000 0.8470 0.8520 0.8670 0.8720 0.8770
12.227462 0.8780 0.8800 0.8810 0.8830 0.8860
12.260000 0.8890 0.8940 0.8980 0.9020 0.9040
12.292462 0.9040 0.9040 0.9040 0.9020 0.9020
12.325000 0.9010 0.9020 0.9040 0.9090 0.9110
12.357462 0.9120 0.9120 0.9140 0.9140 0.9150
12.390000 0.9150 0.9170 0.9190 0.9200 0.9200
12.422462 0.9170 0.9150 0.9140 0.9140 0.9140
12.455000 0.9140 0.9170 0.9200 0.9200 0.9200
12.487462 0.9220 0.9220 0.9190 0.9170 0.9140
12.520000 0.9140 0.9150 0.9150 0.9150 0.9140
12.552462 0.9140 0.9120 0.9140 0.9190 0.9190
12.585000 0.9190 0.9190 0.9120 0.9140 0.9140
12.617462 0.9150 0.9170 0.9190 0.9200 0.9200
12.650000 0.9190 0.9170 0.9190 0.9190 0.9170
12.682462 0.9170 0.9170 0.9150 0.9150 0.9140
12.714000 0.9110 0.9090 0.9070 0.9040 0.9040
12.746462 0.9020 0.9040 0.9040 0.9060 0.9090
12.779000 0.9090 0.9060 0.9020 0.8990 0.8960
12.811462 0.8930 0.8890 0.8850 0.8830 0.8810
12.844000 0.8780 0.8720 0.8680 0.8640 0.8570
12.876462 0.8490 0.8390 0.8300 0.8170 0.8020
12.909000 0.7860 0.7660 0.7470 0.7240 0.7000
12.941462 0.6740 0.6450 0.6220 0.6010 0.5720
12.974000 0.5640 0.5560 0.5500 0.5420 0.5320
13.006462 0.5290 0.5290 0.5300 0.5320 0.5330
13.039000 0.5350 0.5370 0.5350 0.5290 0.5240
13.071462 0.5170 0.5080 0.5060 0.5060 0.5110
13.104000 0.5300 0.5460 0.5630 0.5790 0.5950
13.136462 0.6080 0.6220 0.6350 0.6470 0.6580
13.169000 0.6680 0.6760 0.6840 0.6920 0.6970
13.201462 0.7020 0.7050 0.7070 0.7070 0.7030
13.234000 0.6990 0.6890 0.6770 0.6650 0.6500
13.266462 0.6320 0.6160 0.5970 0.5770 0.5660
13.299000 0.5560 0.5480 0.5460 0.5420 0.5380
13.331462 0.5350 0.5330 0.5320 0.5290 0.5240
13.363000 0.5210 0.5140 0.5060 0.4980 0.4900
13.395462 0.4780 0.4690 0.4570 0.4440 0.4400
13.428000 0.4330 0.4280 0.4170 0.4070 0.4020
13.460462 0.3990 0.3960 0.3930 0.3940 0.3980
13.493000 0.4040 0.4120 0.4230 0.4360 0.4510
13.525462 0.4670 0.4850 0.5040 0.5170 0.5330
13.558000 0.5460 0.5580 0.5690 0.5800 0.5920
13.590462 0.6030 0.6130 0.6240 0.6340 0.6420
13.623000 0.6520 0.6600 0.6660 0.6730 0.6790
13.655462 0.6820 0.6860 0.6920 0.6970 0.7020
13.688000 0.7050 0.7100 0.7100 0.7130 0.7180
13.720462 0.7200 0.7210 0.7210 0.7230 0.7240
13.753000 0.7240 0.7240 0.7240 0.7230 0.7200
13.785462 0.7160 0.7130 0.7100 0.7050 0.6990
13.818000 0.6920 0.6860 0.6770 0.6690 0.6580
13.850462 0.6470 0.6340 0.6190 0.6030 0.5920
13.883000 0.5800 0.5670 0.5560 0.5450 0.5330
13.915462 0.5240 0.5160 0.5080 0.5010 0.4950
13.947000 0.4880 0.4830 0.4800 0.4770 0.4750
13.979462 0.4700 0.4660 0.4620 0.4590 0.4560
14.012000 0.4480 0.4430 0.4430 0.4430 0.4430
14.044462 0.4440 0.4480 0.4540 0.4660 0.4720
14.077000 0.4900 0.5010 0.5120 0.5220 0.5290
14.109462 0.5370 0.5420 0.5460 0.5510 0.5550
14.142000 0.5560 0.5550 0.5550 0.5530 0.5510
14.174462 0.5480 0.5430 0.5420 0.5370 0.5320
14.207000 0.5290 0.5240 0.5210 0.5160 0.5140
14.239462 0.5140 0.5110 0.5090 0.5080 0.5090
14.272000 0.5120 0.5190 0.5290 0.5350 0.5460
14.304462 0.5550 0.5630 0.5710 0.5770 0.5840
14.337000 0.5900 0.5970 0.6050 0.6110 0.6140
14.369462 0.6160 0.6180 0.6210 0.6190 0.6160
14.402000 0.6130 0.6100 0.6050 0.6000 0.5970
14.434462 0.5920 0.5880 0.5840 0.5770 0.5690
14.467000 0.5670 0.5670 0.5670 0.5690 0.5740
14.499462 0.5770 0.5840 0.5870 0.5930 0.6030
14.531000 0.6100 0.6180 0.6260 0.6340 0.6440
14.563462 0.6530 0.6630 0.6710 0.6810 0.6890
14.596000 0.6970 0.7030 0.7130 0.7180 0.7240
14.628462 0.7280 0.7330 0.7370 0.7420 0.7500
14.661000 0.7520 0.7520 0.7540 0.7540 0.7570
14.693462 0.7580 0.7620 0.7630 0.7680 0.7700
14.726000 0.7700 0.7700 0.7700 0.7710 0.7710
14.758462 0.7710 0.7710 0.7710 0.7710 0.7710
14.791000 0.7710 0.7710 0.7710 0.7710 0.7700
14.823462 0.7710 0.7700 0.7700 0.7700 0.7700
14.856000 0.7700 0.7700 0.7700 0.7710 0.7730
14.888462 0.7750 0.7750 0.7750 0.7750 0.7750
14.921000 0.7730 0.7710 0.7700 0.7680 0.7680
14.953462 0.7660 0.7660 0.7650 0.7650 0.7630
14.986000 0.7620 0.7580 0.7550 0.7500 0.7440
15.018462 0.7360 0.7330 0.7260 0.7200 0.7110
15.051000 0.7050 0.7000 0.7000 0.6970 0.6940
15.083462 0.6890 0.6870 0.6870 0.6870 0.6870
15.116000 0.6890 0.6920 0.6990 0.7000 0.7030
15.148462 0.7050 0.7130 0.7160 0.7180 0.7200
15.180000 0.7210 0.7210 0.7210 0.7210 0.7230
15.212462 0.7230 0.7230 0.7230 0.7230 0.7230
15.245000 0.7210 0.7200 0.7180 0.7160 0.7150
15.277462 0.7110 0.7100 0.7100 0.7080 0.7080
15.310000 0.7080 0.7050 0.7020 0.7000 0.7000
15.342462 0.6990 0.6990 0.6950 0.6940 0.6920
15.375000 0.6890 0.6820 0.6810 0.6790 0.6760
15.407462 0.6770 0.6760 0.6740 0.6710 0.6680
15.440000 0.6650 0.6630 0.6600 0.6560 0.6530
15.472462 0.6520 0.6500 0.6440 0.6390 0.6340
15.505000 0.6290 0.6270 0.6260 0.6220 0.6160
15.537462 0.6060 0.6010 0.5970 0.5880 0.5820
15.570000 0.5770 0.5720 0.5670 0.5660 0.5640
15.602462 0.5590 0.5580 0.5580 0.5580 0.5590
15.635000 0.5610 0.5630 0.5640 0.5640 0.5660
15.667462 0.5670 0.5710 0.5740 0.5770 0.5800
15.700000 0.5840 0.5870 0.5900 0.5920 0.5950
15.732462 0.5950 0.5970 0.5970 0.5970 0.5970
15.764000 0.5970 0.5970 0.5970 0.5970 0.5970
15.796462 0.5970 0.5950 0.5950 0.5920 0.5900
15.829000 0.5880 0.5850 0.5820 0.5800 0.5790
15.861462 0.5790 0.5790 0.5770 0.5770 0.5740
15.894000 0.5710 0.5690 0.5660 0.5640 0.5610
15.926462 0.5590 0.5580 0.5560 0.5530 0.5510
15.959000 0.5480 0.5430 0.5400 0.5400 0.5350
##END=
