##TITLE=2-Imidazoline, 2,2'-[dithiobis(ethyleneimino)]di-, dihydroiodide
##JCAMP-DX=4.24
##DATA TYPE=INFRARED SPECTRUM
##CLASS=COBLENTZ III
##ORIGIN=SOUTHERN RESEARCH INSTITUTE
##OWNER=Copyright (C) 1987 by the Coblentz Society
Collection (C) 2018 copyright by the U.S. Secretary of Commerce
on behalf of the United States of America. All rights reserved.
##DATE=1960/07/15
##MOLFORM=C10 H22 I2 N6 S2
##SOURCE REFERENCE=COBLENTZ NO. 8708
##$NIST ID=B6008708
##$NIST SOURCE=COBLENTZ
##$NIST IMAGE=cob8708
##SPECTROMETER/DATA SYSTEM=PERKIN-ELMER 221 (GRATING)
##INSTRUMENT PARAMETERS=FILTER AT 2490, 980 CM^-^1. GRATING 4000-1428 CM^-^1, NaCl PRISM 1428-650 CM^-^1
##STATE=SOLID (0.8 mg / 650 mg KBr DISC)
##SAMPLING PROCEDURE=TRANSMISSION
##RESOLUTION=2
##DATA PROCESSING=DIGITIZED BY COBLENTZ SOCIETY (BATCH II) FROM HARD COPY (ADJUSTED \addcm-1\10-8-2\)
##XUNITS=1/CM
##YUNITS=TRANSMITTANCE
##XFACTOR=1.0
##YFACTOR=1
##DELTAX=1.006255
##FIRSTX=576.6
##LASTX=4017.99
##FIRSTY=0.9908
##MAXX=4017.99
##MINX=576.6
##MAXY=0.98382
##MINY=0.123624
##NPOINTS=3421
##XYDATA=(X++(Y..Y))
576.600000 0.9908 0.9900 0.9892 0.9883 0.9874
581.631277 0.9865 0.9859 0.9856 0.9854 0.9851
586.662555 0.9848 0.9845 0.9842 0.9827 0.9836
591.693832 0.9838 0.9837 0.9837 0.9836 0.9835
596.725110 0.9834 0.9833 0.9832 0.9829 0.9826
601.756387 0.9823 0.9821 0.9818 0.9815 0.9813
606.787664 0.9810 0.9807 0.9804 0.9802 0.9800
611.818942 0.9799 0.9798 0.9798 0.9797 0.9797
616.850219 0.9795 0.9793 0.9790 0.9788 0.9785
621.881497 0.9782 0.9780 0.9777 0.9774 0.9772
626.912774 0.9769 0.9767 0.9765 0.9763 0.9761
631.944051 0.9759 0.9758 0.9754 0.9744 0.9735
636.975329 0.9725 0.9716 0.9706 0.9696 0.9686
642.006606 0.9676 0.9665 0.9654 0.9643 0.9633
647.037884 0.9618 0.9601 0.9585 0.9569 0.9552
652.069161 0.9535 0.9519 0.9500 0.9477 0.9455
657.100438 0.9433 0.9406 0.9374 0.9342 0.9309
662.131716 0.9279 0.9250 0.9221 0.9192 0.9156
667.162993 0.9111 0.9082 0.9065 0.9049 0.9035
672.194271 0.9020 0.9031 0.9042 0.9048 0.9055
677.225548 0.9068 0.9085 0.9103 0.9122 0.9142
682.256825 0.9163 0.9182 0.9195 0.9205 0.9206
687.288103 0.9200 0.9193 0.9183 0.9170 0.9157
692.319380 0.9140 0.9121 0.9102 0.9080 0.9052
697.350658 0.9016 0.8982 0.8951 0.8919 0.8887
702.381935 0.8833 0.8650 0.8383 0.8372 0.8365
707.413213 0.8370 0.8376 0.8383 0.8391 0.8401
712.444490 0.8411 0.8415 0.8404 0.8390 0.8363
717.475767 0.8367 0.8388 0.8627 0.8746 0.8919
722.507045 0.9006 0.9090 0.9170 0.9197 0.9217
727.538322 0.9237 0.9251 0.9264 0.9277 0.9290
732.569600 0.9302 0.9308 0.9314 0.9320 0.9326
737.600877 0.9332 0.9338 0.9343 0.9346 0.9360
742.632154 0.9354 0.9352 0.9351 0.9350 0.9348
747.663432 0.9347 0.9345 0.9344 0.9340 0.9329
752.694709 0.9308 0.9283 0.9221 0.9117 0.8995
757.725987 0.8901 0.8837 0.8772 0.8691 0.8631
762.757264 0.8613 0.8613 0.8602 0.8642 0.8733
767.788541 0.8832 0.8924 0.9008 0.9093 0.9193
772.819819 0.9277 0.9327 0.9351 0.9366 0.9379
777.851096 0.9386 0.9391 0.9395 0.9400 0.9404
782.882374 0.9409 0.9413 0.9417 0.9420 0.9423
787.913651 0.9426 0.9429 0.9432 0.9435 0.9438
792.944928 0.9440 0.9441 0.9442 0.9444 0.9445
797.976206 0.9446 0.9448 0.9448 0.9447 0.9446
803.007483 0.9446 0.9446 0.9446 0.9445 0.9445
808.038761 0.9444 0.9444 0.9443 0.9443 0.9442
813.070038 0.9441 0.9440 0.9439 0.9438 0.9438
818.101315 0.9437 0.9435 0.9432 0.9429 0.9427
823.132593 0.9424 0.9421 0.9418 0.9416 0.9413
828.163870 0.9412 0.9411 0.9410 0.9409 0.9408
833.195148 0.9407 0.9406 0.9404 0.9400 0.9396
838.226425 0.9393 0.9389 0.9385 0.9381 0.9378
843.257702 0.9373 0.9368 0.9362 0.9357 0.9351
848.288980 0.9346 0.9340 0.9335 0.9330 0.9324
853.320257 0.9319 0.9313 0.9307 0.9300 0.9292
858.351535 0.9285 0.9277 0.9270 0.9262 0.9254
863.382812 0.9247 0.9239 0.9232 0.9224 0.9216
868.414089 0.9208 0.9200 0.9192 0.9184 0.9176
873.445367 0.9168 0.9160 0.9152 0.9144 0.9135
878.476644 0.9124 0.9115 0.9105 0.9096 0.9086
883.507922 0.9077 0.9067 0.9058 0.9048 0.9039
888.539199 0.9029 0.9019 0.9009 0.8998 0.8987
893.570476 0.8976 0.8965 0.8954 0.8943 0.8932
898.601754 0.8922 0.8912 0.8903 0.8893 0.8884
903.633031 0.8872 0.8858 0.8844 0.8830 0.8816
908.664309 0.8802 0.8788 0.8774 0.8759 0.8741
913.695586 0.8724 0.8707 0.8690 0.8672 0.8655
918.726863 0.8636 0.8613 0.8588 0.8564 0.8539
923.758141 0.8512 0.8489 0.8478 0.8469 0.8459
928.789418 0.8456 0.8463 0.8474 0.8485 0.8495
933.820696 0.8506 0.8516 0.8518 0.8515 0.8507
938.851973 0.8495 0.8483 0.8470 0.8456 0.8444
943.883251 0.8436 0.8433 0.8430 0.8421 0.8408
948.914528 0.8391 0.8375 0.8357 0.8330 0.8299
953.945805 0.8266 0.8220 0.8166 0.8114 0.8063
958.977083 0.8017 0.7973 0.7928 0.7879 0.7828
964.008360 0.7759 0.7646 0.7416 0.7301 0.7184
969.039638 0.7060 0.6894 0.6909 0.6912 0.6953
974.070915 0.7132 0.7312 0.7490 0.7670 0.7842
979.102192 0.7925 0.7934 0.7935 0.7930 0.7923
984.133470 0.7911 0.7898 0.7884 0.7870 0.7856
989.164747 0.7843 0.7829 0.7815 0.7801 0.7787
994.196025 0.7773 0.7759 0.7741 0.7723 0.7704
999.227302 0.7682 0.7657 0.7632 0.7602 0.7566
1004.258579 0.7529 0.7493 0.7458 0.7422 0.7385
1009.289857 0.7347 0.7302 0.7249 0.7209 0.7181
1014.321134 0.7181 0.7185 0.7178 0.7195 0.7200
1019.352412 0.7210 0.7219 0.7229 0.7249 0.7275
1024.383689 0.7324 0.7467 0.7562 0.7594 0.7599
1029.414966 0.7603 0.7599 0.7600 0.7594 0.7585
1034.446244 0.7576 0.7556 0.7532 0.7505 0.7466
1039.477521 0.7415 0.7344 0.7260 0.7161 0.7034
1044.508799 0.6892 0.6762 0.6636 0.6491 0.6231
1049.540076 0.5878 0.5674 0.5631 0.5656 0.5671
1054.571353 0.5709 0.5869 0.6006 0.6177 0.6300
1059.602631 0.6723 0.7357 0.7663 0.7754 0.7836
1064.633908 0.7978 0.8064 0.8108 0.8146 0.8172
1069.665186 0.8189 0.8206 0.8218 0.8230 0.8242
1074.696463 0.8252 0.8254 0.8256 0.8257 0.8258
1079.727740 0.8257 0.8255 0.8252 0.8250 0.8244
1084.759018 0.8236 0.8226 0.8217 0.8207 0.8197
1089.790295 0.8185 0.8173 0.8162 0.8150 0.8138
1094.821573 0.8129 0.8119 0.8113 0.8115 0.8118
1099.852850 0.8122 0.8126 0.8130 0.8134 0.8141
1104.884127 0.8151 0.8160 0.8170 0.8176 0.8176
1109.915405 0.8174 0.8189 0.8176 0.8167 0.8158
1114.946682 0.8148 0.8138 0.8127 0.8117 0.8108
1119.977960 0.8100 0.8092 0.8083 0.8075 0.8067
1125.009237 0.8061 0.8057 0.8054 0.8058 0.8071
1130.040514 0.8088 0.8107 0.8127 0.8147 0.8175
1135.071792 0.8203 0.8213 0.8215 0.8218 0.8221
1140.103069 0.8223 0.8223 0.8224 0.8224 0.8223
1145.134347 0.8221 0.8218 0.8214 0.8211 0.8208
1150.165624 0.8202 0.8193 0.8184 0.8174 0.8156
1155.196901 0.8135 0.8117 0.8105 0.8095 0.8086
1160.228179 0.8076 0.8072 0.8070 0.8069 0.8066
1165.259456 0.8062 0.8058 0.8053 0.8044 0.8031
1170.290734 0.8017 0.8003 0.7985 0.7961 0.7935
1175.322011 0.7909 0.7880 0.7848 0.7816 0.7783
1180.353289 0.7749 0.7711 0.7672 0.7632 0.7592
1185.384566 0.7547 0.7500 0.7453 0.7389 0.7343
1190.415843 0.7331 0.7328 0.7342 0.7347 0.7347
1195.447121 0.7371 0.7421 0.7507 0.7616 0.7721
1200.478398 0.7797 0.7849 0.7886 0.7912 0.7924
1205.509676 0.7924 0.7924 0.7921 0.7914 0.7910
1210.540953 0.7898 0.7874 0.7838 0.7795 0.7741
1215.572230 0.7671 0.7472 0.7165 0.6901 0.6684
1220.603508 0.6588 0.6697 0.6920 0.7076 0.7232
1225.634785 0.7388 0.7544 0.7700 0.7856 0.7972
1230.666063 0.8028 0.8075 0.8098 0.8099 0.8095
1235.697340 0.8092 0.8096 0.8094 0.8088 0.8078
1240.728617 0.8068 0.8057 0.8047 0.8034 0.8015
1245.759895 0.7996 0.7974 0.7943 0.7907 0.7866
1250.791172 0.7819 0.7754 0.7668 0.7572 0.7498
1255.822450 0.7407 0.7291 0.7218 0.7162 0.7107
1260.853727 0.7052 0.6992 0.6918 0.6836 0.6753
1265.885004 0.6665 0.6562 0.6457 0.6357 0.6269
1270.916282 0.5747 0.4377 0.4336 0.4323 0.4324
1275.947559 0.4419 0.4742 0.5093 0.5443 0.5794
1280.978837 0.6144 0.6494 0.6851 0.7160 0.7198
1286.010114 0.7218 0.7230 0.7241 0.7247 0.7249
1291.041391 0.7251 0.7254 0.7257 0.7261 0.7266
1296.072669 0.7277 0.7295 0.7326 0.7395 0.7596
1301.103946 0.7703 0.7811 0.7980 0.8191 0.8480
1306.135224 0.8532 0.8549 0.8562 0.8560 0.8557
1311.166501 0.8547 0.8537 0.8517 0.8499 0.8483
1316.197778 0.8479 0.8474 0.8469 0.8464 0.8458
1321.229056 0.8452 0.8435 0.8389 0.8131 0.8086
1326.260333 0.8058 0.8024 0.7663 0.7119 0.6700
1331.291611 0.6665 0.6869 0.7055 0.7239 0.7424
1336.322888 0.7608 0.7792 0.8016 0.8085 0.8104
1341.354165 0.8111 0.8109 0.8104 0.8097 0.8084
1346.385443 0.8050 0.7981 0.7905 0.7836 0.7823
1351.416720 0.7821 0.7890 0.8004 0.8101 0.8136
1356.447998 0.8156 0.8173 0.8181 0.8184 0.8181
1361.479275 0.8184 0.8181 0.8175 0.8165 0.8154
1366.510552 0.8142 0.8128 0.8114 0.8095 0.8073
1371.541830 0.8050 0.8027 0.7999 0.7961 0.7919
1376.573107 0.7883 0.7850 0.7816 0.7757 0.7395
1381.604385 0.6929 0.6517 0.6105 0.5693 0.5300
1386.635662 0.5136 0.5286 0.5244 0.5862 0.6962
1391.666939 0.7426 0.7526 0.7587 0.7621 0.7643
1396.698217 0.7660 0.7675 0.7687 0.7699 0.7711
1401.729494 0.7724 0.7739 0.7754 0.7771 0.7800
1406.760772 0.7905 0.8075 0.8205 0.8288 0.8320
1411.792049 0.8327 0.8325 0.8321 0.8316 0.8309
1416.823327 0.8298 0.8287 0.8283 0.8284 0.8345
1421.854604 0.8522 0.8653 0.8651 0.8660 0.8674
1426.885881 0.8641 0.8633 0.8618 0.8593 0.8557
1431.917159 0.8532 0.8508 0.8490 0.8473 0.8456
1436.948436 0.8440 0.8429 0.8416 0.8404 0.8391
1441.979714 0.8377 0.8359 0.8341 0.8322 0.8295
1447.010991 0.8264 0.8232 0.8193 0.8151 0.8090
1452.042268 0.7958 0.7429 0.7272 0.7083 0.6969
1457.073546 0.6939 0.6930 0.6921 0.6915 0.6912
1462.104823 0.6897 0.7128 0.7277 0.7426 0.7575
1467.136101 0.7724 0.7873 0.8022 0.8171 0.8250
1472.167378 0.8277 0.8290 0.8298 0.8301 0.8304
1477.198655 0.8303 0.8302 0.8301 0.8294 0.8300
1482.229933 0.8302 0.8302 0.8302 0.8303 0.8303
1487.261210 0.8303 0.8303 0.8303 0.8299 0.8295
1492.292488 0.8291 0.8287 0.8279 0.8270 0.8260
1497.323765 0.8251 0.8241 0.8231 0.8217 0.8200
1502.355042 0.8184 0.8167 0.8150 0.8134 0.8118
1507.386320 0.8102 0.8086 0.8070 0.8053 0.8029
1512.417597 0.8001 0.7974 0.7952 0.7933 0.7913
1517.448875 0.7894 0.7875 0.7855 0.7832 0.7808
1522.480152 0.7784 0.7760 0.7738 0.7722 0.7712
1527.511429 0.7703 0.7696 0.7637 0.7545 0.7462
1532.542707 0.7405 0.7366 0.7329 0.7293 0.7261
1537.573984 0.7231 0.7204 0.7185 0.7170 0.7154
1542.605262 0.7140 0.7128 0.7117 0.7107 0.7097
1547.636539 0.7086 0.7071 0.7053 0.7035 0.7008
1552.667816 0.6968 0.6917 0.6845 0.6776 0.6723
1557.699094 0.6675 0.6626 0.6574 0.6517 0.6462
1562.730371 0.6414 0.6376 0.6338 0.6299 0.6260
1567.761649 0.6220 0.6176 0.6122 0.6060 0.5979
1572.792926 0.5800 0.5472 0.5239 0.5059 0.4889
1577.824203 0.4759 0.4664 0.4547 0.4322 0.3845
1582.855481 0.3458 0.3072 0.2685 0.2299 0.1949
1587.886758 0.1789 0.1705 0.1638 0.1582 0.1526
1592.918036 0.1474 0.1459 0.1451 0.1433 0.1463
1597.949313 0.1503 0.1771 0.2309 0.2847 0.3384
1602.980590 0.3922 0.4460 0.4982 0.5196 0.5281
1608.011868 0.5368 0.5514 0.5830 0.5961 0.6009
1613.043145 0.6056 0.6104 0.6151 0.6199 0.6224
1618.074423 0.6235 0.6262 0.6231 0.6222 0.6217
1623.105700 0.6212 0.6201 0.6189 0.6177 0.6155
1628.136977 0.6128 0.6102 0.6074 0.6048 0.6015
1633.168255 0.5978 0.5941 0.5886 0.5819 0.5751
1638.199532 0.5685 0.5619 0.5544 0.5461 0.5360
1643.230810 0.5243 0.5155 0.5092 0.5030 0.4869
1648.262087 0.4475 0.3938 0.3396 0.3061 0.3006
1653.293365 0.2993 0.2978 0.2963 0.2938 0.2781
1658.324642 0.2430 0.2129 0.1955 0.1900 0.1875
1663.355919 0.1866 0.1860 0.1856 0.1855 0.1858
1668.387197 0.1861 0.1860 0.1866 0.1874 0.1883
1673.418474 0.1897 0.1916 0.1942 0.1973 0.2023
1678.449752 0.2164 0.2445 0.2728 0.3012 0.3294
1683.481029 0.3577 0.3860 0.4144 0.4427 0.4709
1688.512306 0.4993 0.5276 0.5559 0.5842 0.6125
1693.543584 0.6408 0.6691 0.6967 0.7163 0.7223
1698.574861 0.7346 0.7540 0.7627 0.7692 0.7753
1703.606139 0.7823 0.7912 0.8032 0.8169 0.8208
1708.637416 0.8248 0.8288 0.8327 0.8363 0.8396
1713.668693 0.8460 0.8638 0.8876 0.8995 0.9054
1718.699971 0.9083 0.9112 0.9139 0.9163 0.9186
1723.731248 0.9210 0.9234 0.9257 0.9279 0.9302
1728.762526 0.9324 0.9346 0.9367 0.9389 0.9410
1733.793803 0.9429 0.9446 0.9464 0.9482 0.9498
1738.825080 0.9513 0.9527 0.9542 0.9556 0.9571
1743.856358 0.9585 0.9599 0.9613 0.9626 0.9640
1748.887635 0.9653 0.9666 0.9678 0.9689 0.9696
1753.918913 0.9700 0.9704 0.9708 0.9713 0.9717
1758.950190 0.9721 0.9725 0.9730 0.9731 0.9731
1763.981467 0.9731 0.9731 0.9730 0.9726 0.9732
1769.012745 0.9733 0.9731 0.9725 0.9717 0.9710
1774.044022 0.9700 0.9689 0.9679 0.9669 0.9663
1779.075300 0.9656 0.9650 0.9644 0.9638 0.9631
1784.106577 0.9625 0.9619 0.9613 0.9607 0.9603
1789.137854 0.9598 0.9594 0.9590 0.9585 0.9581
1794.169132 0.9577 0.9572 0.9568 0.9564 0.9559
1799.200409 0.9555 0.9551 0.9547 0.9542 0.9538
1804.231687 0.9534 0.9529 0.9525 0.9521 0.9516
1809.262964 0.9511 0.9506 0.9501 0.9495 0.9490
1814.294241 0.9485 0.9480 0.9475 0.9472 0.9469
1819.325519 0.9466 0.9463 0.9460 0.9457 0.9454
1824.356796 0.9451 0.9448 0.9445 0.9442 0.9438
1829.388074 0.9435 0.9432 0.9429 0.9426 0.9423
1834.419351 0.9419 0.9416 0.9413 0.9410 0.9407
1839.450628 0.9402 0.9397 0.9393 0.9388 0.9383
1844.481906 0.9378 0.9373 0.9368 0.9363 0.9358
1849.513183 0.9354 0.9350 0.9345 0.9341 0.9337
1854.544461 0.9332 0.9328 0.9324 0.9320 0.9315
1859.575738 0.9311 0.9307 0.9303 0.9298 0.9293
1864.607015 0.9287 0.9282 0.9276 0.9271 0.9267
1869.638293 0.9263 0.9259 0.9255 0.9251 0.9247
1874.669570 0.9243 0.9239 0.9235 0.9231 0.9227
1879.700848 0.9223 0.9218 0.9214 0.9209 0.9204
1884.732125 0.9200 0.9195 0.9191 0.9186 0.9182
1889.763403 0.9177 0.9173 0.9168 0.9163 0.9159
1894.794680 0.9154 0.9150 0.9145 0.9141 0.9136
1899.825957 0.9132 0.9127 0.9122 0.9118 0.9113
1904.857235 0.9109 0.9104 0.9100 0.9096 0.9093
1909.888512 0.9091 0.9089 0.9086 0.9084 0.9081
1914.919790 0.9079 0.9076 0.9074 0.9072 0.9068
1919.951067 0.9061 0.9051 0.9042 0.9032 0.9022
1924.982344 0.9012 0.9002 0.8992 0.8982 0.8973
1930.013622 0.8963 0.8953 0.8943 0.8933 0.8924
1935.044899 0.8916 0.8912 0.8909 0.8906 0.8902
1940.076177 0.8899 0.8896 0.8892 0.8889 0.8886
1945.107454 0.8883 0.8881 0.8879 0.8878 0.8876
1950.138731 0.8874 0.8873 0.8871 0.8869 0.8867
1955.170009 0.8866 0.8864 0.8862 0.8862 0.8862
1960.201286 0.8862 0.8861 0.8861 0.8861 0.8861
1965.232564 0.8861 0.8859 0.8856 0.8853 0.8850
1970.263841 0.8847 0.8844 0.8841 0.8839 0.8837
1975.295118 0.8836 0.8835 0.8833 0.8832 0.8831
1980.326396 0.8829 0.8828 0.8826 0.8825 0.8824
1985.357673 0.8822 0.8823 0.8824 0.8825 0.8827
1990.388951 0.8828 0.8829 0.8830 0.8831 0.8831
1995.420228 0.8824 0.8817 0.8809 0.8800 0.8786
2000.451505 0.8773 0.8759 0.8746 0.8732 0.8719
2005.482783 0.8705 0.8692 0.8679 0.8668 0.8667
2010.514060 0.8665 0.8664 0.8662 0.8661 0.8660
2015.545338 0.8658 0.8657 0.8655 0.8654 0.8651
2020.576615 0.8649 0.8647 0.8645 0.8643 0.8640
2025.607892 0.8638 0.8636 0.8634 0.8631 0.8629
2030.639170 0.8626 0.8623 0.8619 0.8616 0.8613
2035.670447 0.8610 0.8607 0.8603 0.8600 0.8597
2040.701725 0.8594 0.8591 0.8588 0.8584 0.8581
2045.733002 0.8578 0.8575 0.8572 0.8569 0.8565
2050.764279 0.8562 0.8559 0.8556 0.8553 0.8550
2055.795557 0.8546 0.8543 0.8540 0.8537 0.8534
2060.826834 0.8531 0.8527 0.8524 0.8521 0.8518
2065.858112 0.8515 0.8512 0.8509 0.8506 0.8503
2070.889389 0.8500 0.8497 0.8495 0.8494 0.8492
2075.920666 0.8491 0.8489 0.8487 0.8486 0.8484
2080.951944 0.8483 0.8481 0.8480 0.8478 0.8476
2085.983221 0.8475 0.8473 0.8472 0.8470 0.8468
2091.014499 0.8467 0.8465 0.8464 0.8462 0.8460
2096.045776 0.8459 0.8457 0.8456 0.8454 0.8453
2101.077053 0.8451 0.8449 0.8448 0.8446 0.8445
2106.108331 0.8443 0.8441 0.8439 0.8437 0.8435
2111.139608 0.8433 0.8432 0.8430 0.8428 0.8426
2116.170886 0.8424 0.8422 0.8420 0.8418 0.8416
2121.202163 0.8414 0.8412 0.8410 0.8408 0.8407
2126.233441 0.8405 0.8403 0.8401 0.8399 0.8397
2131.264718 0.8395 0.8393 0.8391 0.8389 0.8387
2136.295995 0.8385 0.8383 0.8382 0.8380 0.8377
2141.327273 0.8375 0.8373 0.8370 0.8368 0.8366
2146.358550 0.8363 0.8361 0.8359 0.8356 0.8354
2151.389828 0.8352 0.8349 0.8347 0.8345 0.8342
2156.421105 0.8340 0.8338 0.8336 0.8333 0.8331
2161.452382 0.8329 0.8326 0.8324 0.8322 0.8319
2166.483660 0.8317 0.8315 0.8312 0.8310 0.8308
2171.514937 0.8306 0.8304 0.8302 0.8300 0.8298
2176.546215 0.8297 0.8295 0.8293 0.8291 0.8289
2181.577492 0.8287 0.8286 0.8284 0.8282 0.8280
2186.608769 0.8278 0.8276 0.8274 0.8273 0.8271
2191.640047 0.8269 0.8267 0.8265 0.8263 0.8262
2196.671324 0.8260 0.8258 0.8256 0.8254 0.8252
2201.702602 0.8250 0.8249 0.8247 0.8245 0.8243
2206.733879 0.8241 0.8239 0.8238 0.8236 0.8234
2211.765156 0.8233 0.8231 0.8230 0.8228 0.8227
2216.796434 0.8225 0.8224 0.8223 0.8221 0.8220
2221.827711 0.8218 0.8217 0.8215 0.8214 0.8212
2226.858989 0.8211 0.8210 0.8208 0.8207 0.8205
2231.890266 0.8204 0.8202 0.8201 0.8199 0.8198
2236.921543 0.8197 0.8195 0.8193 0.8190 0.8187
2241.952821 0.8183 0.8180 0.8177 0.8174 0.8171
2246.984098 0.8168 0.8165 0.8162 0.8159 0.8155
2252.015376 0.8152 0.8149 0.8146 0.8143 0.8140
2257.046653 0.8137 0.8134 0.8131 0.8128 0.8124
2262.077930 0.8121 0.8118 0.8116 0.8115 0.8114
2267.109208 0.8113 0.8112 0.8111 0.8110 0.8109
2272.140485 0.8107 0.8106 0.8105 0.8104 0.8103
2277.171763 0.8102 0.8101 0.8100 0.8098 0.8097
2282.203040 0.8096 0.8095 0.8093 0.8090 0.8088
2287.234317 0.8085 0.8083 0.8080 0.8078 0.8074
2292.265595 0.8066 0.8058 0.8050 0.8043 0.8035
2297.296872 0.8027 0.8020 0.8014 0.8007 0.8000
2302.328150 0.7993 0.7986 0.7979 0.7972 0.7966
2307.359427 0.7959 0.7951 0.7942 0.7934 0.7926
2312.390704 0.7917 0.7909 0.7901 0.7893 0.7884
2317.421982 0.7877 0.7872 0.7866 0.7860 0.7855
2322.453259 0.7849 0.7844 0.7841 0.7838 0.7835
2327.484537 0.7832 0.7830 0.7827 0.7824 0.7821
2332.515814 0.7818 0.7815 0.7813 0.7811 0.7810
2337.547091 0.7808 0.7807 0.7806 0.7805 0.7803
2342.578369 0.7802 0.7801 0.7799 0.7798 0.7797
2347.609646 0.7796 0.7794 0.7793 0.7792 0.7790
2352.640924 0.7789 0.7788 0.7786 0.7785 0.7784
2357.672201 0.7783 0.7782 0.7781 0.7780 0.7779
2362.703479 0.7778 0.7777 0.7776 0.7775 0.7774
2367.734756 0.7773 0.7771 0.7770 0.7769 0.7768
2372.766033 0.7767 0.7767 0.7769 0.7771 0.7772
2377.797311 0.7774 0.7775 0.7777 0.7778 0.7780
2382.828588 0.7781 0.7783 0.7784 0.7786 0.7787
2387.859866 0.7789 0.7790 0.7792 0.7792 0.7793
2392.891143 0.7794 0.7794 0.7795 0.7796 0.7797
2397.922420 0.7797 0.7797 0.7792 0.7785 0.7779
2402.953698 0.7773 0.7766 0.7760 0.7755 0.7751
2407.984975 0.7746 0.7741 0.7737 0.7734 0.7732
2413.016253 0.7729 0.7727 0.7725 0.7722 0.7720
2418.047530 0.7717 0.7715 0.7712 0.7710 0.7707
2423.078807 0.7704 0.7702 0.7699 0.7697 0.7694
2428.110085 0.7692 0.7690 0.7687 0.7685 0.7683
2433.141362 0.7681 0.7678 0.7676 0.7674 0.7672
2438.172640 0.7670 0.7668 0.7666 0.7664 0.7662
2443.203917 0.7660 0.7657 0.7655 0.7653 0.7651
2448.235194 0.7649 0.7647 0.7645 0.7643 0.7641
2453.266472 0.7639 0.7636 0.7633 0.7629 0.7625
2458.297749 0.7621 0.7617 0.7613 0.7609 0.7605
2463.329027 0.7601 0.7598 0.7594 0.7590 0.7586
2468.360304 0.7583 0.7580 0.7578 0.7576 0.7574
2473.391581 0.7571 0.7569 0.7567 0.7566 0.7566
2478.422859 0.7566 0.7566 0.7566 0.7566 0.7566
2483.454136 0.7566 0.7566 0.7566 0.7566 0.7566
2488.485414 0.7566 0.7566 0.7567 0.7566 0.7566
2493.516691 0.7565 0.7565 0.7564 0.7563 0.7561
2498.547968 0.7559 0.7556 0.7554 0.7551 0.7546
2503.579246 0.7542 0.7538 0.7533 0.7529 0.7524
2508.610523 0.7521 0.7518 0.7514 0.7511 0.7507
2513.641801 0.7504 0.7501 0.7497 0.7494 0.7490
2518.673078 0.7487 0.7485 0.7483 0.7481 0.7479
2523.704355 0.7477 0.7476 0.7474 0.7472 0.7470
2528.735633 0.7467 0.7463 0.7460 0.7457 0.7453
2533.766910 0.7450 0.7447 0.7443 0.7440 0.7437
2538.798188 0.7433 0.7429 0.7425 0.7421 0.7417
2543.829465 0.7413 0.7409 0.7405 0.7400 0.7397
2548.860742 0.7393 0.7389 0.7385 0.7381 0.7377
2553.892020 0.7373 0.7370 0.7366 0.7362 0.7358
2558.923297 0.7354 0.7350 0.7345 0.7341 0.7337
2563.954575 0.7332 0.7328 0.7324 0.7319 0.7315
2568.985852 0.7310 0.7306 0.7302 0.7297 0.7293
2574.017129 0.7289 0.7284 0.7280 0.7276 0.7271
2579.048407 0.7267 0.7263 0.7258 0.7254 0.7250
2584.079684 0.7245 0.7241 0.7236 0.7232 0.7228
2589.110962 0.7223 0.7219 0.7215 0.7211 0.7207
2594.142239 0.7203 0.7199 0.7195 0.7191 0.7187
2599.173517 0.7183 0.7179 0.7175 0.7171 0.7167
2604.204794 0.7163 0.7159 0.7155 0.7151 0.7147
2609.236071 0.7143 0.7139 0.7135 0.7131 0.7127
2614.267349 0.7123 0.7119 0.7115 0.7111 0.7107
2619.298626 0.7103 0.7099 0.7094 0.7090 0.7086
2624.329904 0.7082 0.7077 0.7073 0.7069 0.7065
2629.361181 0.7061 0.7056 0.7052 0.7048 0.7044
2634.392458 0.7040 0.7035 0.7031 0.7027 0.7023
2639.423736 0.7019 0.7016 0.7013 0.7010 0.7007
2644.455013 0.7004 0.7001 0.6998 0.6995 0.6992
2649.486291 0.6989 0.6986 0.6983 0.6980 0.6977
2654.517568 0.6974 0.6971 0.6968 0.6965 0.6963
2659.548845 0.6961 0.6960 0.6958 0.6957 0.6955
2664.580123 0.6954 0.6953 0.6951 0.6950 0.6948
2669.611400 0.6947 0.6945 0.6944 0.6943 0.6943
2674.642678 0.6943 0.6943 0.6943 0.6943 0.6943
2679.673955 0.6943 0.6942 0.6942 0.6942 0.6943
2684.705232 0.6943 0.6943 0.6943 0.6944 0.6944
2689.736510 0.6944 0.6945 0.6945 0.6945 0.6945
2694.767787 0.6946 0.6946 0.6946 0.6946 0.6946
2699.799065 0.6945 0.6944 0.6944 0.6943 0.6943
2704.830342 0.6942 0.6942 0.6941 0.6937 0.6929
2709.861619 0.6920 0.6911 0.6903 0.6894 0.6885
2714.892897 0.6876 0.6867 0.6858 0.6849 0.6840
2719.924174 0.6831 0.6822 0.6813 0.6804 0.6795
2724.955452 0.6786 0.6777 0.6767 0.6756 0.6743
2729.986729 0.6729 0.6721 0.6717 0.6714 0.6710
2735.018006 0.6706 0.6703 0.6699 0.6695 0.6692
2740.049284 0.6688 0.6684 0.6681 0.6677 0.6673
2745.080561 0.6670 0.6667 0.6664 0.6661 0.6658
2750.111839 0.6652 0.6643 0.6632 0.6622 0.6609
2755.143116 0.6597 0.6584 0.6572 0.6560 0.6547
2760.174393 0.6535 0.6522 0.6510 0.6497 0.6485
2765.205671 0.6474 0.6462 0.6450 0.6438 0.6426
2770.236948 0.6419 0.6414 0.6410 0.6406 0.6402
2775.268226 0.6398 0.6396 0.6394 0.6394 0.6396
2780.299503 0.6398 0.6403 0.6408 0.6420 0.6437
2785.330780 0.6454 0.6468 0.6480 0.6490 0.6502
2790.362058 0.6514 0.6518 0.6516 0.6514 0.6511
2795.393335 0.6508 0.6504 0.6501 0.6497 0.6494
2800.424613 0.6490 0.6486 0.6481 0.6475 0.6470
2805.455890 0.6464 0.6458 0.6451 0.6443 0.6436
2810.487167 0.6428 0.6421 0.6413 0.6404 0.6393
2815.518445 0.6382 0.6371 0.6361 0.6350 0.6339
2820.549722 0.6328 0.6316 0.6305 0.6294 0.6279
2825.581000 0.6259 0.6239 0.6220 0.6200 0.6180
2830.612277 0.6161 0.6141 0.6120 0.6100 0.6081
2835.643555 0.6061 0.6041 0.6023 0.6006 0.5989
2840.674832 0.5973 0.5956 0.5939 0.5922 0.5906
2845.706109 0.5889 0.5873 0.5856 0.5839 0.5824
2850.737387 0.5808 0.5793 0.5778 0.5762 0.5753
2855.768664 0.5746 0.5741 0.5735 0.5720 0.5702
2860.799942 0.5684 0.5670 0.5656 0.5642 0.5629
2865.831219 0.5617 0.5606 0.5593 0.5575 0.5556
2870.862496 0.5537 0.5517 0.5498 0.5479 0.5465
2875.893774 0.5450 0.5439 0.5433 0.5429 0.5424
2880.925051 0.5419 0.5415 0.5410 0.5406 0.5404
2885.956329 0.5402 0.5400 0.5399 0.5397 0.5395
2890.987606 0.5393 0.5391 0.5389 0.5387 0.5385
2896.018883 0.5383 0.5381 0.5379 0.5377 0.5375
2901.050161 0.5373 0.5371 0.5368 0.5365 0.5361
2906.081438 0.5357 0.5341 0.5351 0.5348 0.5344
2911.112716 0.5341 0.5337 0.5333 0.5328 0.5323
2916.143993 0.5319 0.5315 0.5311 0.5306 0.5302
2921.175270 0.5298 0.5294 0.5289 0.5285 0.5282
2926.206548 0.5282 0.5283 0.5284 0.5285 0.5286
2931.237825 0.5289 0.5294 0.5299 0.5304 0.5309
2936.269103 0.5314 0.5314 0.5309 0.5305 0.5301
2941.300380 0.5296 0.5292 0.5289 0.5285 0.5282
2946.331657 0.5278 0.5276 0.5279 0.5282 0.5285
2951.362935 0.5289 0.5295 0.5301 0.5308 0.5314
2956.394212 0.5319 0.5324 0.5329 0.5333 0.5338
2961.425490 0.5343 0.5347 0.5348 0.5348 0.5348
2966.456767 0.5349 0.5346 0.5341 0.5336 0.5332
2971.488044 0.5326 0.5317 0.5305 0.5295 0.5284
2976.519322 0.5274 0.5263 0.5254 0.5247 0.5242
2981.550599 0.5238 0.5233 0.5228 0.5223 0.5218
2986.581877 0.5213 0.5208 0.5202 0.5197 0.5192
2991.613154 0.5186 0.5180 0.5173 0.5167 0.5160
2996.644431 0.5153 0.5147 0.5140 0.5133 0.5125
3001.675709 0.5116 0.5108 0.5099 0.5090 0.5081
3006.706986 0.5073 0.5072 0.5072 0.5072 0.5073
3011.738264 0.5074 0.5075 0.5078 0.5080 0.5081
3016.769541 0.5081 0.5080 0.5078 0.5076 0.5075
3021.800818 0.5073 0.5071 0.5062 0.5053 0.5043
3026.832096 0.5031 0.5000 0.4965 0.4928 0.4888
3031.863373 0.4851 0.4817 0.4783 0.4749 0.4712
3036.894651 0.4676 0.4608 0.4549 0.4507 0.4484
3041.925928 0.4471 0.4458 0.4445 0.4441 0.4441
3046.957205 0.4441 0.4443 0.4447 0.4454 0.4461
3051.988483 0.4470 0.4480 0.4489 0.4496 0.4497
3057.019760 0.4499 0.4499 0.4497 0.4495 0.4492
3062.051038 0.4490 0.4482 0.4473 0.4464 0.4455
3067.082315 0.4446 0.4432 0.4417 0.4401 0.4384
3072.113593 0.4359 0.4335 0.4311 0.4286 0.4261
3077.144870 0.4236 0.4212 0.4191 0.4171 0.4151
3082.176147 0.4130 0.4109 0.4088 0.4065 0.4041
3087.207425 0.4018 0.3995 0.3972 0.3948 0.3923
3092.238702 0.3896 0.3868 0.3841 0.3814 0.3787
3097.269980 0.3758 0.3726 0.3692 0.3658 0.3624
3102.301257 0.3587 0.3548 0.3510 0.3471 0.3432
3107.332534 0.3393 0.3355 0.3321 0.3293 0.3265
3112.363812 0.3237 0.3209 0.3180 0.3152 0.3125
3117.395089 0.3102 0.3082 0.3062 0.3042 0.3021
3122.426367 0.3000 0.2980 0.2960 0.2940 0.2920
3127.457644 0.2899 0.2876 0.2850 0.2825 0.2799
3132.488921 0.2773 0.2748 0.2722 0.2696 0.2671
3137.520199 0.2645 0.2619 0.2594 0.2568 0.2542
3142.551476 0.2517 0.2490 0.2464 0.2437 0.2409
3147.582754 0.2382 0.2355 0.2328 0.2301 0.2274
3152.614031 0.2246 0.2219 0.2193 0.2167 0.2140
3157.645308 0.2114 0.2088 0.2062 0.2036 0.2010
3162.676586 0.1983 0.1957 0.1930 0.1897 0.1864
3167.707863 0.1830 0.1796 0.1762 0.1728 0.1694
3172.739141 0.1663 0.1637 0.1613 0.1589 0.1565
3177.770418 0.1541 0.1516 0.1492 0.1468 0.1444
3182.801695 0.1420 0.1397 0.1379 0.1361 0.1343
3187.832973 0.1326 0.1308 0.1291 0.1283 0.1276
3192.864250 0.1270 0.1264 0.1257 0.1251 0.1249
3197.895528 0.1247 0.1246 0.1245 0.1244 0.1242
3202.926805 0.1241 0.1240 0.1236 0.1243 0.1244
3207.958082 0.1246 0.1247 0.1249 0.1251 0.1257
3212.989360 0.1263 0.1269 0.1282 0.1298 0.1315
3218.020637 0.1338 0.1364 0.1390 0.1431 0.1477
3223.051915 0.1521 0.1567 0.1611 0.1666 0.1723
3228.083192 0.1786 0.1901 0.2047 0.2136 0.2209
3233.114469 0.2273 0.2339 0.2403 0.2468 0.2540
3238.145747 0.2613 0.2670 0.2700 0.2729 0.2758
3243.177024 0.2787 0.2818 0.2851 0.2883 0.2900
3248.208302 0.2918 0.2935 0.2952 0.2969 0.2983
3253.239579 0.2994 0.3005 0.3016 0.3028 0.3040
3258.270856 0.3051 0.3061 0.3071 0.3081 0.3091
3263.302134 0.3100 0.3108 0.3116 0.3123 0.3128
3268.333411 0.3132 0.3137 0.3141 0.3145 0.3149
3273.364689 0.3153 0.3157 0.3162 0.3166 0.3170
3278.395966 0.3174 0.3178 0.3182 0.3186 0.3194
3283.427243 0.3207 0.3219 0.3231 0.3243 0.3260
3288.458521 0.3282 0.3305 0.3340 0.3404 0.3467
3293.489798 0.3514 0.3559 0.3605 0.3650 0.3695
3298.521076 0.3739 0.3786 0.3837 0.3891 0.3945
3303.552353 0.4000 0.4047 0.4080 0.4106 0.4132
3308.583631 0.4158 0.4184 0.4222 0.4276 0.4337
3313.614908 0.4399 0.4463 0.4529 0.4595 0.4651
3318.646185 0.4699 0.4746 0.4793 0.4840 0.4890
3323.677463 0.4946 0.5005 0.5062 0.5098 0.5127
3328.708740 0.5157 0.5186 0.5214 0.5246 0.5296
3333.740018 0.5352 0.5408 0.5463 0.5519 0.5574
3338.771295 0.5629 0.5683 0.5738 0.5793 0.5837
3343.802572 0.5875 0.5912 0.5949 0.5986 0.6024
3348.833850 0.6062 0.6112 0.6166 0.6219 0.6267
3353.865127 0.6308 0.6347 0.6387 0.6425 0.6452
3358.896405 0.6478 0.6504 0.6531 0.6557 0.6583
3363.927682 0.6608 0.6634 0.6660 0.6687 0.6713
3368.958959 0.6749 0.6785 0.6821 0.6857 0.6889
3373.990237 0.6915 0.6940 0.6965 0.6990 0.7014
3379.021514 0.7028 0.7043 0.7059 0.7074 0.7087
3384.052792 0.7094 0.7102 0.7110 0.7117 0.7125
3389.084069 0.7133 0.7139 0.7144 0.7146 0.7147
3394.115346 0.7148 0.7149 0.7151 0.7152 0.7153
3399.146624 0.7155 0.7158 0.7161 0.7165 0.7168
3404.177901 0.7172 0.7175 0.7178 0.7181 0.7184
3409.209179 0.7188 0.7191 0.7194 0.7197 0.7201
3414.240456 0.7203 0.7203 0.7203 0.7204 0.7204
3419.271733 0.7204 0.7204 0.7205 0.7205 0.7205
3424.303011 0.7205 0.7206 0.7206 0.7206 0.7207
3429.334288 0.7207 0.7208 0.7210 0.7211 0.7212
3434.365566 0.7213 0.7215 0.7216 0.7217 0.7218
3439.396843 0.7220 0.7221 0.7222 0.7224 0.7225
3444.428120 0.7226 0.7228 0.7229 0.7230 0.7232
3449.459398 0.7233 0.7234 0.7236 0.7237 0.7238
3454.490675 0.7238 0.7239 0.7239 0.7240 0.7241
3459.521953 0.7241 0.7242 0.7242 0.7243 0.7243
3464.553230 0.7244 0.7244 0.7245 0.7245 0.7246
3469.584507 0.7246 0.7247 0.7248 0.7248 0.7249
3474.615785 0.7250 0.7251 0.7251 0.7252 0.7253
3479.647062 0.7253 0.7254 0.7255 0.7255 0.7256
3484.678340 0.7257 0.7257 0.7258 0.7259 0.7260
3489.709617 0.7261 0.7262 0.7263 0.7265 0.7266
3494.740894 0.7268 0.7270 0.7272 0.7273 0.7275
3499.772172 0.7276 0.7278 0.7279 0.7281 0.7284
3504.803449 0.7286 0.7288 0.7290 0.7293 0.7295
3509.834727 0.7297 0.7300 0.7302 0.7304 0.7306
3514.866004 0.7309 0.7311 0.7315 0.7319 0.7324
3519.897281 0.7329 0.7335 0.7340 0.7346 0.7351
3524.928559 0.7356 0.7361 0.7366 0.7371 0.7376
3529.959836 0.7381 0.7386 0.7391 0.7396 0.7401
3534.991114 0.7406 0.7411 0.7415 0.7419 0.7424
3540.022391 0.7428 0.7432 0.7436 0.7440 0.7445
3545.053669 0.7449 0.7453 0.7457 0.7461 0.7466
3550.084946 0.7470 0.7474 0.7478 0.7482 0.7486
3555.116223 0.7490 0.7493 0.7497 0.7501 0.7504
3560.147501 0.7507 0.7511 0.7514 0.7518 0.7522
3565.178778 0.7525 0.7529 0.7532 0.7535 0.7539
3570.210056 0.7542 0.7546 0.7549 0.7553 0.7556
3575.241333 0.7559 0.7562 0.7565 0.7568 0.7571
3580.272610 0.7573 0.7576 0.7579 0.7581 0.7584
3585.303888 0.7586 0.7589 0.7592 0.7594 0.7597
3590.335165 0.7600 0.7602 0.7605 0.7608 0.7610
3595.366443 0.7613 0.7616 0.7618 0.7621 0.7624
3600.397720 0.7626 0.7628 0.7631 0.7633 0.7635
3605.428997 0.7637 0.7640 0.7642 0.7644 0.7646
3610.460275 0.7649 0.7651 0.7653 0.7655 0.7658
3615.491552 0.7660 0.7662 0.7662 0.7663 0.7664
3620.522830 0.7665 0.7666 0.7667 0.7668 0.7669
3625.554107 0.7670 0.7671 0.7672 0.7670 0.7671
3630.585384 0.7675 0.7676 0.7677 0.7677 0.7677
3635.616662 0.7676 0.7675 0.7674 0.7674 0.7673
3640.647939 0.7672 0.7672 0.7671 0.7670 0.7669
3645.679217 0.7669 0.7668 0.7667 0.7667 0.7666
3650.710494 0.7665 0.7663 0.7662 0.7660 0.7658
3655.741771 0.7656 0.7653 0.7652 0.7650 0.7648
3660.773049 0.7646 0.7644 0.7643 0.7641 0.7639
3665.804326 0.7637 0.7635 0.7634 0.7632 0.7630
3670.835604 0.7628 0.7627 0.7625 0.7623 0.7621
3675.866881 0.7619 0.7618 0.7616 0.7614 0.7612
3680.898158 0.7611 0.7609 0.7607 0.7605 0.7604
3685.929436 0.7602 0.7600 0.7598 0.7597 0.7595
3690.960713 0.7593 0.7591 0.7590 0.7588 0.7586
3695.991991 0.7584 0.7582 0.7580 0.7578 0.7576
3701.023268 0.7574 0.7572 0.7570 0.7568 0.7566
3706.054545 0.7564 0.7563 0.7561 0.7559 0.7557
3711.085823 0.7555 0.7553 0.7551 0.7549 0.7547
3716.117100 0.7545 0.7542 0.7537 0.7533 0.7529
3721.148378 0.7525 0.7521 0.7517 0.7513 0.7509
3726.179655 0.7505 0.7501 0.7497 0.7492 0.7488
3731.210932 0.7484 0.7480 0.7477 0.7474 0.7472
3736.242210 0.7469 0.7466 0.7463 0.7460 0.7457
3741.273487 0.7455 0.7452 0.7449 0.7447 0.7448
3746.304765 0.7448 0.7448 0.7449 0.7449 0.7449
3751.336042 0.7449 0.7450 0.7450 0.7450 0.7451
3756.367319 0.7451 0.7450 0.7450 0.7450 0.7450
3761.398597 0.7449 0.7449 0.7448 0.7446 0.7444
3766.429874 0.7441 0.7438 0.7436 0.7433 0.7430
3771.461152 0.7428 0.7425 0.7422 0.7420 0.7417
3776.492429 0.7414 0.7411 0.7408 0.7405 0.7402
3781.523707 0.7400 0.7397 0.7394 0.7391 0.7389
3786.554984 0.7386 0.7383 0.7380 0.7378 0.7376
3791.586261 0.7374 0.7373 0.7372 0.7371 0.7370
3796.617539 0.7369 0.7368 0.7367 0.7365 0.7364
3801.648816 0.7363 0.7362 0.7361 0.7360 0.7359
3806.680094 0.7358 0.7357 0.7356 0.7354 0.7353
3811.711371 0.7353 0.7352 0.7351 0.7351 0.7350
3816.742648 0.7349 0.7349 0.7348 0.7347 0.7346
3821.773926 0.7346 0.7345 0.7344 0.7344 0.7343
3826.805203 0.7342 0.7342 0.7341 0.7340 0.7339
3831.836481 0.7339 0.7338 0.7337 0.7337 0.7336
3836.867758 0.7335 0.7335 0.7334 0.7333 0.7332
3841.899035 0.7331 0.7329 0.7328 0.7327 0.7326
3846.930313 0.7325 0.7324 0.7322 0.7321 0.7320
3851.961590 0.7319 0.7318 0.7317 0.7316 0.7314
3856.992868 0.7313 0.7312 0.7311 0.7310 0.7309
3862.024145 0.7307 0.7306 0.7305 0.7304 0.7303
3867.055422 0.7302 0.7300 0.7299 0.7298 0.7297
3872.086700 0.7296 0.7295 0.7293 0.7291 0.7289
3877.117977 0.7287 0.7286 0.7284 0.7282 0.7280
3882.149255 0.7278 0.7277 0.7275 0.7273 0.7271
3887.180532 0.7270 0.7268 0.7266 0.7264 0.7262
3892.211809 0.7261 0.7259 0.7257 0.7255 0.7253
3897.243087 0.7252 0.7249 0.7252 0.7262 0.7239
3902.274364 0.7235 0.7232 0.7229 0.7225 0.7222
3907.305642 0.7219 0.7215 0.7212 0.7209 0.7206
3912.336919 0.7205 0.7204 0.7203 0.7203 0.7202
3917.368196 0.7201 0.7201 0.7200 0.7199 0.7198
3922.399474 0.7198 0.7197 0.7196 0.7195 0.7195
3927.430751 0.7194 0.7193 0.7193 0.7192 0.7191
3932.462029 0.7190 0.7190 0.7189 0.7188 0.7188
3937.493306 0.7188 0.7188 0.7189 0.7189 0.7189
3942.524583 0.7189 0.7189 0.7189 0.7190 0.7190
3947.555861 0.7190 0.7190 0.7190 0.7190 0.7190
3952.587138 0.7190 0.7191 0.7191 0.7191 0.7191
3957.618416 0.7191 0.7191 0.7191 0.7191 0.7192
3962.649693 0.7192 0.7191 0.7191 0.7191 0.7191
3967.680970 0.7191 0.7191 0.7191 0.7191 0.7191
3972.712248 0.7191 0.7191 0.7191 0.7190 0.7190
3977.743525 0.7190 0.7190 0.7190 0.7190 0.7190
3982.774803 0.7190 0.7190 0.7189 0.7189 0.7188
3987.806080 0.7187 0.7187 0.7186 0.7185 0.7185
3992.837357 0.7184 0.7183 0.7182 0.7182 0.7181
3997.868635 0.7180 0.7180 0.7179 0.7178 0.7178
4002.899912 0.7177 0.7176 0.7175 0.7175 0.7174
4007.931190 0.7173 0.7173 0.7172 0.7171 0.7171
4012.962467 0.7170 0.7169 0.7168 0.7168 0.7167
4017.993745 0.7167
##END=
