##TITLE=DL-LYSINE DIHYDROCHLORIDE
##JCAMP-DX=4.24
##DATA TYPE=INFRARED SPECTRUM
##CLASS=COBLENTZ
##ORIGIN=DOW CHEMICAL COMPANY
##OWNER=COBLENTZ SOCIETY
Collection (C) 2018 copyright by the U.S. Secretary of Commerce
on behalf of the United States of America. All rights reserved.
##DATE=Not specified, most likely prior to 1970
##MOLFORM=C6 H14 N2 O2  * 2 H Cl
##SOURCE REFERENCE=COBLENTZ NO. 3181
##$NIST ID=B6003181
##$NIST SOURCE=COBLENTZ
##$NIST IMAGE=cob3181
##SPECTROMETER/DATA SYSTEM=Not specified, most likely a prism, grating, or hybrid spectrometer.
##STATE=SOLID (MINERAL OIL MULL)
##PATH LENGTH=
$$SPECTRAL CONTAMINATION DUE TO OIL AROUND 2900 CM^-^1
##SAMPLING PROCEDURE=TRANSMISSION
##RESOLUTION=4
##DATA PROCESSING=DIGITIZED BY NIST FROM HARD COPY
##XUNITS=MICROMETERS
##YUNITS=TRANSMITTANCE
##XFACTOR=1.000000
##YFACTOR=1
##DELTAX=000.006836
##FIRSTX=2.034
##LASTX=15.9178
##FIRSTY=0.77
##MAXX=15.9178
##MINX=2.034
##MAXY=0.91
##MINY=0.023
##NPOINTS=2032
##XYDATA=(X++(Y..Y))
2.034000 0.7700 0.7700 0.7720 0.7720 0.7730
2.068197 0.7730 0.7730 0.7730 0.7750 0.7790
2.103000 0.7790 0.7790 0.7800 0.7800 0.7800
2.137197 0.7800 0.7820 0.7820 0.7840 0.7870
2.171000 0.7890 0.7910 0.7910 0.7920 0.7920
2.205197 0.7920 0.7920 0.7910 0.7870 0.7840
2.239000 0.7820 0.7800 0.7790 0.7790 0.7770
2.273197 0.7770 0.7770 0.7770 0.7790 0.7800
2.308000 0.7820 0.7850 0.7910 0.7920 0.7940
2.342197 0.7970 0.8010 0.8030 0.8080 0.8110
2.376000 0.8130 0.8150 0.8200 0.8210 0.8230
2.410197 0.8270 0.8280 0.8300 0.8300 0.8330
2.444000 0.8350 0.8400 0.8420 0.8470 0.8520
2.478197 0.8560 0.8610 0.8630 0.8640 0.8660
2.513000 0.8690 0.8690 0.8710 0.8710 0.8730
2.547197 0.8730 0.8730 0.8750 0.8750 0.8760
2.581000 0.8760 0.8780 0.8800 0.8830 0.8850
2.615197 0.8860 0.8880 0.8880 0.8880 0.8920
2.649000 0.8920 0.8950 0.8970 0.8980 0.8980
2.683197 0.9000 0.9000 0.9020 0.9040 0.9050
2.718000 0.9070 0.9070 0.9090 0.9090 0.9090
2.752197 0.9090 0.9090 0.9090 0.9090 0.9090
2.786000 0.9090 0.9090 0.9090 0.9090 0.9090
2.820197 0.9100 0.9100 0.9100 0.9090 0.9090
2.854000 0.9070 0.9050 0.9020 0.9000 0.8970
2.888197 0.8930 0.8930 0.8980 0.9000 0.9020
2.923000 0.9020 0.8980 0.8950 0.8930 0.8900
2.957197 0.8860 0.8760 0.8710 0.8680 0.8630
2.991000 0.8520 0.8420 0.8350 0.8230 0.8030
3.025197 0.7890 0.7820 0.7700 0.7530 0.7360
3.060000 0.7140 0.6910 0.6670 0.6430 0.6190
3.094197 0.5940 0.5660 0.5460 0.5270 0.5080
3.128000 0.4880 0.4620 0.4400 0.4140 0.3860
3.162197 0.3610 0.3350 0.3110 0.2870 0.2670
3.196000 0.2480 0.2260 0.2140 0.2020 0.1930
3.230197 0.1810 0.1690 0.1590 0.1480 0.1380
3.265000 0.1330 0.1280 0.1280 0.1230 0.1190
3.299197 0.1160 0.1070 0.1020 0.0970 0.0890
3.333000 0.0820 0.0770 0.0510 0.0490 0.0440
3.367197 0.0350 0.0300 0.0250 0.0230 0.0230
3.401000 0.0230 0.0250 0.0250 0.0250 0.0270
3.435197 0.0270 0.0290 0.0300 0.0300 0.0320
3.470000 0.0320 0.0320 0.0340 0.0370 0.0420
3.504197 0.0530 0.0580 0.0680 0.0780 0.0890
3.538000 0.1060 0.1090 0.1210 0.1250 0.1310
3.572197 0.1380 0.1480 0.1590 0.1690 0.1810
3.606000 0.1910 0.2000 0.2050 0.2100 0.2150
3.640197 0.2200 0.2260 0.2340 0.2410 0.2500
3.675000 0.2600 0.2720 0.2800 0.2800 0.2800
3.709197 0.2730 0.2630 0.2610 0.2600 0.2610
3.743000 0.2650 0.2730 0.2820 0.2910 0.2990
3.777197 0.3060 0.3110 0.3150 0.3180 0.3210
3.812000 0.3270 0.3330 0.3420 0.3610 0.3730
3.846197 0.3800 0.3850 0.3880 0.3930 0.3980
3.880000 0.4050 0.4100 0.4140 0.4280 0.4480
3.914197 0.4500 0.4500 0.4500 0.4480 0.4450
3.948000 0.4380 0.4360 0.4380 0.4450 0.4600
3.982197 0.4760 0.4880 0.5010 0.5220 0.5350
4.017000 0.5470 0.5560 0.5650 0.5730 0.5820
4.051197 0.5890 0.5970 0.6020 0.6130 0.6210
4.085000 0.6250 0.6300 0.6350 0.6430 0.6500
4.119197 0.6540 0.6600 0.6640 0.6710 0.6740
4.153000 0.6810 0.6830 0.6900 0.6910 0.6950
4.187197 0.6950 0.6960 0.7000 0.7030 0.7030
4.222000 0.7070 0.7070 0.7140 0.7200 0.7220
4.256197 0.7290 0.7340 0.7430 0.7510 0.7600
4.290000 0.7610 0.7680 0.7700 0.7700 0.7730
4.324197 0.7750 0.7770 0.7790 0.7800 0.7820
4.358000 0.7850 0.7960 0.7960 0.7970 0.8010
4.392197 0.8030 0.8030 0.8060 0.8090 0.8090
4.427000 0.8110 0.8130 0.8130 0.8150 0.8160
4.461197 0.8180 0.8200 0.8210 0.8210 0.8210
4.495000 0.8210 0.8210 0.8210 0.8210 0.8230
4.529197 0.8270 0.8320 0.8330 0.8350 0.8370
4.563000 0.8390 0.8400 0.8420 0.8440 0.8440
4.597197 0.8450 0.8470 0.8470 0.8470 0.8470
4.632000 0.8470 0.8490 0.8490 0.8490 0.8490
4.666197 0.8490 0.8490 0.8490 0.8510 0.8510
4.700000 0.8520 0.8520 0.8540 0.8560 0.8610
4.734197 0.8610 0.8630 0.8630 0.8640 0.8660
4.769000 0.8680 0.8690 0.8690 0.8690 0.8710
4.803197 0.8730 0.8730 0.8730 0.8730 0.8710
4.837000 0.8710 0.8710 0.8710 0.8710 0.8690
4.871197 0.8690 0.8640 0.8610 0.8570 0.8540
4.905000 0.8520 0.8510 0.8420 0.8400 0.8350
4.939197 0.8330 0.8280 0.8210 0.8130 0.7990
4.974000 0.7870 0.7730 0.7550 0.7340 0.7140
5.008197 0.6960 0.6840 0.6670 0.6620 0.6600
5.042000 0.6600 0.6620 0.6660 0.6710 0.6760
5.076197 0.6810 0.6910 0.6980 0.7120 0.7200
5.110000 0.7240 0.7340 0.7430 0.7530 0.7610
5.144197 0.7700 0.7770 0.7800 0.7890 0.7940
5.179000 0.8010 0.8130 0.8280 0.8350 0.8400
5.213197 0.8450 0.8540 0.8570 0.8630 0.8710
5.247000 0.8730 0.8750 0.8750 0.8750 0.8760
5.281197 0.8760 0.8780 0.8810 0.8830 0.8830
5.315000 0.8850 0.8860 0.8900 0.8920 0.8930
5.349197 0.9000 0.9000 0.9020 0.9020 0.9040
5.384000 0.9040 0.9040 0.9040 0.9000 0.8970
5.418197 0.8950 0.8930 0.8930 0.8930 0.8920
5.452000 0.8920 0.8900 0.8900 0.8850 0.8830
5.486197 0.8830 0.8830 0.8850 0.8860 0.8880
5.521000 0.8880 0.8900 0.8900 0.8900 0.8900
5.555197 0.8900 0.8900 0.8880 0.8830 0.8830
5.589000 0.8780 0.8750 0.8710 0.8660 0.8590
5.623197 0.8470 0.8320 0.8080 0.7890 0.7720
5.657000 0.7580 0.7460 0.7310 0.7100 0.6860
5.691197 0.6520 0.6070 0.5660 0.5170 0.4690
5.726000 0.4280 0.3630 0.3080 0.2600 0.2120
5.760197 0.1780 0.1740 0.1780 0.1880 0.1980
5.794000 0.2120 0.3330 0.4170 0.4360 0.4720
5.828197 0.5080 0.5470 0.5770 0.5970 0.6140
5.862000 0.6280 0.6450 0.6670 0.6840 0.7020
5.896197 0.7170 0.7270 0.7410 0.7510 0.7630
5.931000 0.7720 0.7820 0.7850 0.7910 0.7940
5.965197 0.8010 0.8040 0.8080 0.8090 0.8110
5.999000 0.8160 0.8200 0.8200 0.8160 0.8130
6.033197 0.8110 0.8130 0.8180 0.8200 0.8210
6.067000 0.8230 0.8250 0.8230 0.8160 0.8090
6.101197 0.7970 0.7840 0.7670 0.7410 0.7080
6.136000 0.6720 0.6230 0.5890 0.5530 0.5420
6.170197 0.5420 0.5440 0.5660 0.5820 0.5990
6.204000 0.6110 0.6110 0.5920 0.5770 0.5730
6.238197 0.5700 0.5660 0.5560 0.5460 0.5270
6.272000 0.5080 0.4960 0.4790 0.4740 0.4790
6.306197 0.4940 0.5230 0.5580 0.5990 0.6380
6.341000 0.6620 0.6830 0.6960 0.7020 0.7070
6.375197 0.7100 0.7120 0.7190 0.7200 0.7260
6.409000 0.7290 0.7310 0.7290 0.7240 0.7150
6.443197 0.7050 0.6810 0.6480 0.6060 0.5590
6.478000 0.5100 0.4580 0.4100 0.3680 0.3320
6.512197 0.3010 0.2910 0.2910 0.2990 0.3370
6.546000 0.3680 0.4070 0.4520 0.4880 0.5410
6.580197 0.5540 0.5610 0.5630 0.5610 0.5230
6.614000 0.5170 0.4930 0.4720 0.4410 0.4340
6.648197 0.4340 0.4430 0.4880 0.5270 0.5530
6.683000 0.5870 0.6110 0.6310 0.6420 0.6450
6.717197 0.6480 0.6450 0.6350 0.6130 0.5920
6.751000 0.5470 0.5110 0.4720 0.4210 0.4020
6.785197 0.3560 0.3230 0.2970 0.2840 0.2790
6.819000 0.2800 0.2820 0.2910 0.2970 0.3060
6.853197 0.3160 0.3230 0.3320 0.3370 0.3440
6.888000 0.3570 0.3710 0.3970 0.4330 0.4720
6.922197 0.5150 0.5530 0.5850 0.6180 0.6480
6.956000 0.6710 0.6830 0.6900 0.6900 0.6810
6.990197 0.6710 0.6540 0.6360 0.6140 0.5920
7.024000 0.5800 0.5580 0.5420 0.5410 0.5410
7.058197 0.5490 0.5820 0.6110 0.6470 0.6720
7.093000 0.6930 0.7070 0.7140 0.7170 0.7190
7.127197 0.7150 0.7070 0.7000 0.6880 0.6810
7.161000 0.6760 0.6670 0.6570 0.6520 0.6300
7.195197 0.6070 0.5850 0.5680 0.5530 0.5410
7.229000 0.5270 0.5220 0.5200 0.5220 0.5420
7.263197 0.5630 0.5950 0.6180 0.6470 0.6620
7.298000 0.6780 0.6910 0.7070 0.7170 0.7320
7.332197 0.7440 0.7510 0.7550 0.7580 0.7580
7.366000 0.7550 0.7530 0.7560 0.7600 0.7680
7.400197 0.7770 0.7840 0.7840 0.7870 0.7870
7.435000 0.7840 0.7800 0.7720 0.7670 0.7630
7.469197 0.7610 0.7630 0.7680 0.7720 0.7790
7.503000 0.7800 0.7870 0.7940 0.8010 0.8110
7.537197 0.8130 0.8160 0.8200 0.8210 0.8210
7.571000 0.8200 0.8130 0.8110 0.8060 0.7790
7.605197 0.7720 0.7720 0.7890 0.8110 0.8250
7.640000 0.8300 0.8300 0.8300 0.8280 0.8270
7.674197 0.8250 0.8230 0.8210 0.8180 0.8150
7.708000 0.8090 0.8060 0.8030 0.8010 0.8030
7.742197 0.8090 0.8160 0.8250 0.8330 0.8370
7.776000 0.8400 0.8420 0.8420 0.8440 0.8440
7.810197 0.8420 0.8420 0.8330 0.8300 0.8230
7.845000 0.8160 0.8130 0.8090 0.8080 0.8040
7.879197 0.8080 0.8130 0.8230 0.8330 0.8400
7.913000 0.8420 0.8420 0.8420 0.8440 0.8420
7.947197 0.8400 0.8350 0.8320 0.8270 0.8230
7.981000 0.8160 0.8130 0.8030 0.7910 0.7840
8.015197 0.7730 0.7670 0.7610 0.7560 0.7550
8.050000 0.7550 0.7530 0.7510 0.7440 0.7380
8.084197 0.7200 0.7070 0.6960 0.6740 0.6550
8.118000 0.6310 0.6010 0.5680 0.5370 0.5050
8.152197 0.4720 0.4410 0.4120 0.3850 0.3570
8.187000 0.3160 0.2770 0.2500 0.2380 0.2190
8.221197 0.2140 0.2070 0.2030 0.2020 0.2000
8.255000 0.2020 0.2150 0.2320 0.2530 0.2770
8.289197 0.3090 0.3420 0.3760 0.4100 0.4430
8.323000 0.4700 0.5000 0.5250 0.5530 0.5770
8.357197 0.6010 0.6210 0.6330 0.6470 0.6570
8.392000 0.6620 0.6760 0.6840 0.6830 0.6810
8.426197 0.6720 0.6620 0.6470 0.6260 0.5990
8.460000 0.5750 0.5470 0.5270 0.5080 0.4980
8.494197 0.4940 0.4930 0.5000 0.5110 0.5290
8.528000 0.5540 0.5770 0.5970 0.6060 0.6190
8.562197 0.6210 0.6230 0.6190 0.5970 0.5870
8.597000 0.5650 0.5410 0.5150 0.5050 0.4880
8.631197 0.4790 0.4740 0.4740 0.4820 0.4980
8.665000 0.5110 0.5270 0.5470 0.5560 0.5630
8.699197 0.5650 0.5610 0.5510 0.5370 0.5230
8.733000 0.5000 0.4770 0.4480 0.4330 0.4210
8.767197 0.4140 0.4140 0.4240 0.4430 0.4720
8.802000 0.4960 0.5250 0.5610 0.5920 0.6160
8.836197 0.6420 0.6690 0.6760 0.7070 0.7220
8.870000 0.7320 0.7430 0.7510 0.7600 0.7670
8.904197 0.7720 0.7790 0.7800 0.7890 0.7910
8.938000 0.7960 0.7990 0.8010 0.8010 0.8040
8.972197 0.8060 0.8090 0.8090 0.8090 0.8090
9.007000 0.8080 0.8060 0.8030 0.7970 0.7970
9.041197 0.7960 0.7960 0.7970 0.7990 0.8060
9.075000 0.8160 0.8230 0.8320 0.8350 0.8400
9.109197 0.8420 0.8450 0.8510 0.8520 0.8590
9.144000 0.8610 0.8630 0.8660 0.8690 0.8690
9.178197 0.8710 0.8710 0.8730 0.8730 0.8730
9.212000 0.8730 0.8750 0.8750 0.8750 0.8750
9.246197 0.8750 0.8750 0.8750 0.8750 0.8750
9.280000 0.8750 0.8760 0.8760 0.8780 0.8780
9.314197 0.8780 0.8780 0.8780 0.8780 0.8780
9.349000 0.8760 0.8750 0.8750 0.8750 0.8730
9.383197 0.8730 0.8710 0.8690 0.8660 0.8630
9.417000 0.8630 0.8630 0.8640 0.8660 0.8680
9.451197 0.8690 0.8690 0.8690 0.8690 0.8690
9.485000 0.8640 0.8590 0.8510 0.8370 0.8250
9.519197 0.8110 0.8030 0.7970 0.7960 0.7960
9.554000 0.7990 0.8160 0.8270 0.8390 0.8470
9.588197 0.8520 0.8590 0.8660 0.8680 0.8690
9.622000 0.8690 0.8690 0.8640 0.8590 0.8510
9.656197 0.8420 0.8270 0.8150 0.7970 0.7820
9.690000 0.7720 0.7670 0.7670 0.7700 0.7820
9.724197 0.7960 0.8160 0.8350 0.8470 0.8630
9.759000 0.8730 0.8800 0.8810 0.8830 0.8830
9.793197 0.8850 0.8850 0.8850 0.8830 0.8800
9.827000 0.8760 0.8690 0.8630 0.8520 0.8370
9.861197 0.8210 0.8040 0.7960 0.7820 0.7790
9.896000 0.7750 0.7770 0.7960 0.8060 0.8230
9.930197 0.8320 0.8400 0.8420 0.8440 0.8400
9.964000 0.8350 0.8300 0.8270 0.8210 0.8180
9.998197 0.8210 0.8330 0.8450 0.8610 0.8690
10.032000 0.8760 0.8800 0.8830 0.8860 0.8880
10.066197 0.8920 0.8980 0.8980 0.9000 0.9000
10.101000 0.9020 0.9040 0.9040 0.9040 0.9050
10.135197 0.9050 0.9050 0.9070 0.9070 0.9070
10.169000 0.9090 0.9090 0.9090 0.9090 0.9090
10.203197 0.9070 0.9050 0.9040 0.9020 0.9000
10.237000 0.9000 0.9000 0.8980 0.8970 0.8970
10.271197 0.8950 0.8920 0.8880 0.8850 0.8810
10.306000 0.8780 0.8710 0.8640 0.8610 0.8510
10.340197 0.8350 0.8160 0.8010 0.7850 0.7700
10.374000 0.7510 0.7500 0.7480 0.7480 0.7480
10.408197 0.7510 0.7680 0.7820 0.7960 0.8060
10.442000 0.8210 0.8420 0.8520 0.8610 0.8690
10.476197 0.8750 0.8780 0.8800 0.8800 0.8830
10.511000 0.8880 0.8900 0.8920 0.8930 0.8970
10.545197 0.8970 0.8970 0.8970 0.8970 0.8970
10.579000 0.8970 0.8950 0.8930 0.8920 0.8880
10.613197 0.8880 0.8830 0.8800 0.8730 0.8680
10.647000 0.8630 0.8560 0.8490 0.8400 0.8330
10.681197 0.8280 0.8250 0.8270 0.8280 0.8350
10.716000 0.8440 0.8510 0.8590 0.8660 0.8750
10.750197 0.8810 0.8830 0.8860 0.8860 0.8880
10.784000 0.8880 0.8920 0.8930 0.8950 0.8970
10.818197 0.8970 0.8980 0.8980 0.8980 0.8980
10.853000 0.9000 0.8980 0.8980 0.8980 0.8980
10.887197 0.9000 0.9000 0.9000 0.9000 0.9000
10.921000 0.9020 0.9020 0.9020 0.9040 0.9040
10.955197 0.9050 0.9050 0.9070 0.9090 0.9090
10.989000 0.9090 0.9090 0.9090 0.9090 0.9090
11.023197 0.9090 0.9090 0.9090 0.9090 0.9090
11.058000 0.9090 0.9090 0.9090 0.9070 0.9050
11.092197 0.9050 0.9050 0.9050 0.9050 0.9040
11.126000 0.9040 0.9020 0.9000 0.8980 0.8980
11.160197 0.8970 0.8950 0.8930 0.8920 0.8920
11.194000 0.8900 0.8900 0.8860 0.8850 0.8830
11.228197 0.8800 0.8730 0.8690 0.8640 0.8590
11.263000 0.8510 0.8420 0.8280 0.8150 0.8030
11.297197 0.7850 0.7730 0.7560 0.7500 0.7440
11.331000 0.7440 0.7480 0.7600 0.7750 0.7910
11.365197 0.8010 0.8180 0.8350 0.8400 0.8510
11.399000 0.8610 0.8690 0.8760 0.8780 0.8780
11.433197 0.8780 0.8800 0.8800 0.8810 0.8810
11.468000 0.8830 0.8830 0.8830 0.8850 0.8850
11.502197 0.8850 0.8830 0.8830 0.8810 0.8810
11.536000 0.8810 0.8810 0.8800 0.8800 0.8780
11.570197 0.8780 0.8760 0.8750 0.8730 0.8730
11.604000 0.8710 0.8690 0.8690 0.8690 0.8680
11.638197 0.8660 0.8640 0.8640 0.8630 0.8610
11.673000 0.8590 0.8590 0.8570 0.8570 0.8540
11.707197 0.8520 0.8510 0.8490 0.8490 0.8470
11.741000 0.8450 0.8450 0.8440 0.8420 0.8390
11.775197 0.8370 0.8350 0.8350 0.8330 0.8300
11.810000 0.8280 0.8270 0.8250 0.8230 0.8210
11.844197 0.8180 0.8130 0.8090 0.8040 0.8010
11.878000 0.7960 0.7890 0.7820 0.7750 0.7680
11.912197 0.7610 0.7550 0.7480 0.7390 0.7340
11.946000 0.7260 0.7170 0.7050 0.6950 0.6830
11.980197 0.6690 0.6540 0.6380 0.6090 0.5850
12.015000 0.5630 0.5460 0.5300 0.5170 0.5050
12.049197 0.4930 0.4790 0.4700 0.4620 0.4550
12.083000 0.4460 0.4380 0.4310 0.4290 0.4260
12.117197 0.4220 0.4210 0.4190 0.4190 0.4160
12.151000 0.4120 0.4090 0.4070 0.4050 0.4040
12.185197 0.4040 0.4070 0.4090 0.4120 0.4170
12.220000 0.4240 0.4330 0.4430 0.4530 0.4650
12.254197 0.4770 0.4940 0.5050 0.5180 0.5290
12.288000 0.5420 0.5540 0.5700 0.5850 0.5970
12.322197 0.6110 0.6210 0.6330 0.6450 0.6550
12.356000 0.6670 0.6760 0.6840 0.6950 0.7000
12.390197 0.7070 0.7170 0.7240 0.7310 0.7340
12.425000 0.7390 0.7430 0.7500 0.7510 0.7530
12.459197 0.7580 0.7600 0.7630 0.7680 0.7680
12.493000 0.7700 0.7720 0.7770 0.7790 0.7790
12.527197 0.7800 0.7840 0.7870 0.7890 0.7890
12.562000 0.7910 0.7920 0.7920 0.7940 0.7940
12.596197 0.7960 0.7990 0.8010 0.8010 0.8030
12.630000 0.8040 0.8040 0.8040 0.8040 0.8040
12.664197 0.8040 0.8030 0.7990 0.7960 0.7940
12.698000 0.7870 0.7820 0.7790 0.7750 0.7720
12.732197 0.7680 0.7670 0.7670 0.7670 0.7680
12.767000 0.7700 0.7720 0.7790 0.7820 0.7870
12.801197 0.7920 0.7970 0.7990 0.8010 0.8030
12.835000 0.8080 0.8090 0.8110 0.8130 0.8160
12.869197 0.8180 0.8200 0.8200 0.8210 0.8230
12.903000 0.8250 0.8250 0.8270 0.8270 0.8280
12.937197 0.8280 0.8300 0.8300 0.8300 0.8300
12.972000 0.8300 0.8300 0.8300 0.8300 0.8320
13.006197 0.8320 0.8320 0.8320 0.8320 0.8320
13.040000 0.8320 0.8300 0.8300 0.8270 0.8280
13.074197 0.8250 0.8210 0.8180 0.8160 0.8130
13.108000 0.8090 0.8040 0.8010 0.7960 0.7850
13.142197 0.7750 0.7650 0.7550 0.7440 0.7340
13.177000 0.7150 0.7030 0.6860 0.6690 0.6480
13.211197 0.6300 0.6130 0.5970 0.5850 0.5780
13.245000 0.5750 0.5680 0.5660 0.5680 0.5780
13.279197 0.5850 0.5990 0.6140 0.6330 0.6540
13.313000 0.6720 0.6880 0.7020 0.7150 0.7260
13.347197 0.7340 0.7410 0.7480 0.7530 0.7580
13.382000 0.7600 0.7630 0.7680 0.7700 0.7730
13.416197 0.7750 0.7770 0.7770 0.7790 0.7790
13.450000 0.7790 0.7790 0.7790 0.7790 0.7790
13.484197 0.7790 0.7790 0.7790 0.7790 0.7770
13.519000 0.7750 0.7730 0.7720 0.7700 0.7680
13.553197 0.7630 0.7610 0.7580 0.7550 0.7550
13.587000 0.7460 0.7390 0.7310 0.7220 0.7140
13.621197 0.7030 0.6950 0.6840 0.6760 0.6660
13.655000 0.6590 0.6540 0.6500 0.6470 0.6450
13.689197 0.6450 0.6470 0.6540 0.6590 0.6660
13.724000 0.6740 0.6840 0.6900 0.6960 0.7020
13.758197 0.7080 0.7120 0.7170 0.7190 0.7200
13.792000 0.7240 0.7260 0.7260 0.7270 0.7290
13.826197 0.7310 0.7320 0.7340 0.7390 0.7410
13.860000 0.7430 0.7440 0.7480 0.7500 0.7510
13.894197 0.7510 0.7530 0.7550 0.7560 0.7580
13.929000 0.7580 0.7600 0.7600 0.7610 0.7630
13.963197 0.7650 0.7670 0.7680 0.7680 0.7700
13.997000 0.7700 0.7720 0.7720 0.7720 0.7720
14.031197 0.7720 0.7720 0.7720 0.7720 0.7720
14.065000 0.7730 0.7730 0.7730 0.7730 0.7730
14.099197 0.7720 0.7720 0.7720 0.7720 0.7720
14.134000 0.7720 0.7720 0.7720 0.7720 0.7720
14.168197 0.7720 0.7720 0.7700 0.7680 0.7680
14.202000 0.7680 0.7670 0.7670 0.7650 0.7650
14.236197 0.7650 0.7630 0.7630 0.7630 0.7630
14.271000 0.7610 0.7610 0.7610 0.7600 0.7600
14.305197 0.7600 0.7600 0.7580 0.7560 0.7560
14.339000 0.7550 0.7550 0.7530 0.7530 0.7510
14.373197 0.7510 0.7510 0.7510 0.7500 0.7500
14.407000 0.7500 0.7480 0.7480 0.7460 0.7440
14.441197 0.7440 0.7430 0.7430 0.7410 0.7390
14.476000 0.7390 0.7380 0.7380 0.7360 0.7360
14.510197 0.7340 0.7340 0.7340 0.7320 0.7310
14.544000 0.7290 0.7290 0.7290 0.7270 0.7270
14.578197 0.7260 0.7240 0.7220 0.7220 0.7200
14.612000 0.7200 0.7190 0.7170 0.7150 0.7140
14.646197 0.7120 0.7100 0.7070 0.7050 0.7030
14.681000 0.7030 0.7030 0.7030 0.7020 0.7020
14.715197 0.7000 0.6980 0.6960 0.6950 0.6950
14.749000 0.6910 0.6910 0.6900 0.6900 0.6900
14.783197 0.6880 0.6860 0.6860 0.6840 0.6830
14.817000 0.6810 0.6790 0.6780 0.6780 0.6760
14.851197 0.6740 0.6720 0.6690 0.6670 0.6660
14.886000 0.6660 0.6640 0.6620 0.6600 0.6590
14.920197 0.6550 0.6550 0.6540 0.6520 0.6520
14.954000 0.6520 0.6520 0.6500 0.6500 0.6480
14.988197 0.6480 0.6480 0.6470 0.6470 0.6430
15.022000 0.6430 0.6400 0.6360 0.6330 0.6330
15.056197 0.6310 0.6310 0.6280 0.6250 0.6250
15.091000 0.6210 0.6210 0.6190 0.6180 0.6160
15.125197 0.6140 0.6130 0.6110 0.6090 0.6070
15.159000 0.6060 0.6040 0.6010 0.6010 0.5990
15.193197 0.5990 0.5970 0.5970 0.5950 0.5940
15.228000 0.5940 0.5920 0.5900 0.5890 0.5890
15.262197 0.5870 0.5850 0.5820 0.5800 0.5780
15.296000 0.5770 0.5770 0.5730 0.5710 0.5710
15.330197 0.5700 0.5660 0.5650 0.5650 0.5610
15.364000 0.5610 0.5590 0.5580 0.5580 0.5530
15.398197 0.5530 0.5510 0.5490 0.5460 0.5440
15.433000 0.5420 0.5410 0.5410 0.5390 0.5390
15.467197 0.5370 0.5340 0.5320 0.5300 0.5300
15.501000 0.5290 0.5270 0.5270 0.5230 0.5220
15.535197 0.5200 0.5180 0.5170 0.5150 0.5150
15.569000 0.5150 0.5110 0.5110 0.5100 0.5100
15.603197 0.5080 0.5050 0.5050 0.5030 0.5030
15.638000 0.5030 0.5030 0.5030 0.5010 0.5010
15.672197 0.5000 0.5000 0.4980 0.4980 0.4980
15.706000 0.4960 0.4940 0.4930 0.4910 0.4910
15.740197 0.4890 0.4880 0.4880 0.4860 0.4840
15.774000 0.4840 0.4840 0.4820 0.4820 0.4820
15.808197 0.4810 0.4810 0.4790 0.4770 0.4760
15.843000 0.4760 0.4760 0.4760 0.4760 0.4760
15.877197 0.4760 0.4770 0.4790 0.4810 0.4820
15.911000 0.4820 0.4840
##END=
