##TITLE=ALUMINUM CHROMATE
$$ C.P. (BUT CONTAINS H2O)
##JCAMP-DX=4.24
##DATA TYPE=INFRARED SPECTRUM
##CLASS=COBLENTZ
##ORIGIN=MELLON INSTITUTE
##OWNER=COBLENTZ SOCIETY
Collection (C) 2018 copyright by the U.S. Secretary of Commerce
on behalf of the United States of America. All rights reserved.
##DATE=Not specified, most likely prior to 1970
##MOLFORM=Al2 ( Cr O4)3
##SOURCE REFERENCE=COBLENTZ NO. 464
##$NIST ID=B6000464
##$NIST SOURCE=COBLENTZ
##$NIST IMAGE=cob464
##SPECTROMETER/DATA SYSTEM=Not specified, most likely a prism, grating, or hybrid spectrometer.
##STATE=SOLID (NUJOL MULL)
##PATH LENGTH=
$$SPECTRAL CONTAMINATION DUE TO OIL AROUND 2900, 1450, 1380 CM^-^1
##SAMPLING PROCEDURE=TRANSMISSION
##RESOLUTION=4
##DATA PROCESSING=DIGITIZED BY NIST FROM HARD COPY
##XUNITS=MICROMETERS
##YUNITS=TRANSMITTANCE
##XFACTOR=1.000000
##YFACTOR=1
##DELTAX=000.006837
##FIRSTX=2.022
##LASTX=15.9895
##FIRSTY=0.728
##MAXX=15.9895
##MINX=2.022
##MAXY=0.984
##MINY=0.037
##NPOINTS=2044
##XYDATA=(X++(Y..Y))
2.022000 0.7280 0.7320 0.7340 0.7350 0.7370
2.056199 0.7400 0.7420 0.7440 0.7460 0.7490
2.091000 0.7510 0.7540 0.7540 0.7580 0.7610
2.125199 0.7630 0.7650 0.7680 0.7700 0.7710
2.159000 0.7730 0.7750 0.7770 0.7800 0.7820
2.193199 0.7830 0.7850 0.7870 0.7900 0.7920
2.227000 0.7920 0.7920 0.7940 0.7940 0.7950
2.261199 0.7950 0.7950 0.7940 0.7940 0.7940
2.296000 0.7940 0.7940 0.7950 0.7950 0.7970
2.330199 0.7990 0.8010 0.8040 0.8040 0.8070
2.364000 0.8090 0.8130 0.8130 0.8180 0.8190
2.398199 0.8190 0.8210 0.8260 0.8300 0.8310
2.433000 0.8330 0.8350 0.8380 0.8400 0.8430
2.467199 0.8450 0.8490 0.8500 0.8520 0.8540
2.501000 0.8550 0.8610 0.8620 0.8640 0.8670
2.535199 0.8690 0.8710 0.8730 0.8740 0.8780
2.569000 0.8790 0.8810 0.8850 0.8880 0.8900
2.603199 0.8910 0.8970 0.9000 0.9020 0.9020
2.638000 0.9030 0.9030 0.9020 0.9000 0.9000
2.672199 0.9000 0.9000 0.9000 0.9000 0.8950
2.706000 0.8860 0.8790 0.8710 0.8520 0.8210
2.740199 0.7830 0.7540 0.7230 0.6500 0.6030
2.774000 0.5720 0.5450 0.5240 0.5000 0.4390
2.808199 0.4160 0.3940 0.3600 0.2690 0.2410
2.843000 0.2220 0.2220 0.2220 0.2220 0.2170
2.877199 0.2140 0.2040 0.2020 0.2020 0.2210
2.911000 0.2340 0.2480 0.2570 0.2670 0.2760
2.945199 0.2830 0.2860 0.2890 0.2930 0.3000
2.979000 0.3070 0.3150 0.3250 0.3360 0.3390
3.013199 0.3480 0.3530 0.3580 0.3610 0.3650
3.048000 0.3680 0.3720 0.3770 0.3840 0.3850
3.082199 0.3890 0.3940 0.3990 0.4010 0.4040
3.116000 0.4110 0.4130 0.4160 0.4200 0.4210
3.150199 0.4250 0.4280 0.4320 0.4330 0.4370
3.185000 0.4390 0.4400 0.4400 0.4440 0.4470
3.219199 0.4490 0.4490 0.4510 0.4520 0.4540
3.253000 0.4540 0.4560 0.4560 0.4560 0.4520
3.287199 0.4490 0.4320 0.4010 0.3870 0.3580
3.321000 0.2360 0.1930 0.1690 0.1440 0.1230
3.355199 0.0990 0.0800 0.0490 0.0390 0.0370
3.390000 0.0410 0.0750 0.0890 0.1040 0.1210
3.424199 0.1520 0.1520 0.1490 0.1490 0.1260
3.458000 0.1260 0.1350 0.1660 0.2190 0.2770
3.492199 0.3550 0.4320 0.4920 0.5210 0.5600
3.526000 0.5900 0.6310 0.6410 0.6530 0.6630
3.560199 0.6720 0.6790 0.6890 0.6920 0.6990
3.595000 0.7040 0.7100 0.7160 0.7200 0.7220
3.629199 0.7250 0.7300 0.7340 0.7370 0.7400
3.663000 0.7440 0.7460 0.7510 0.7530 0.7540
3.697199 0.7580 0.7610 0.7630 0.7660 0.7700
3.732000 0.7730 0.7770 0.7800 0.7820 0.7830
3.766199 0.7870 0.7900 0.7920 0.7970 0.7970
3.800000 0.7990 0.8010 0.8020 0.8060 0.8090
3.834199 0.8130 0.8140 0.8160 0.8190 0.8210
3.868000 0.8250 0.8260 0.8280 0.8300 0.8310
3.902199 0.8330 0.8350 0.8370 0.8400 0.8400
3.937000 0.8420 0.8430 0.8450 0.8450 0.8470
3.971199 0.8490 0.8500 0.8520 0.8540 0.8540
4.005000 0.8550 0.8550 0.8570 0.8590 0.8610
4.039199 0.8610 0.8620 0.8620 0.8640 0.8640
4.073000 0.8660 0.8670 0.8670 0.8690 0.8710
4.107199 0.8710 0.8730 0.8730 0.8730 0.8740
4.142000 0.8760 0.8760 0.8780 0.8780 0.8790
4.176199 0.8790 0.8790 0.8810 0.8810 0.8830
4.210000 0.8830 0.8850 0.8850 0.8860 0.8860
4.244199 0.8880 0.8900 0.8900 0.8900 0.8900
4.278000 0.8910 0.8910 0.8930 0.8950 0.8950
4.312199 0.8970 0.8970 0.8980 0.9000 0.9000
4.347000 0.9000 0.9000 0.9000 0.9020 0.9030
4.381199 0.9030 0.9050 0.9050 0.9070 0.9070
4.415000 0.9090 0.9090 0.9090 0.9100 0.9100
4.449199 0.9100 0.9100 0.9120 0.9120 0.9120
4.484000 0.9140 0.9140 0.9140 0.9140 0.9150
4.518199 0.9150 0.9150 0.9170 0.9190 0.9190
4.552000 0.9190 0.9210 0.9210 0.9210 0.9210
4.586199 0.9240 0.9240 0.9240 0.9240 0.9240
4.620000 0.9240 0.9240 0.9240 0.9260 0.9260
4.654199 0.9260 0.9270 0.9260 0.9260 0.9260
4.689000 0.9270 0.9270 0.9270 0.9290 0.9290
4.723199 0.9290 0.9290 0.9290 0.9290 0.9310
4.757000 0.9310 0.9310 0.9310 0.9310 0.9310
4.791199 0.9310 0.9310 0.9310 0.9310 0.9310
4.825000 0.9310 0.9310 0.9330 0.9330 0.9330
4.859199 0.9330 0.9330 0.9330 0.9330 0.9330
4.894000 0.9330 0.9330 0.9330 0.9330 0.9340
4.928199 0.9340 0.9340 0.9340 0.9340 0.9340
4.962000 0.9340 0.9340 0.9340 0.9360 0.9360
4.996199 0.9360 0.9360 0.9380 0.9390 0.9390
5.030000 0.9390 0.9390 0.9390 0.9410 0.9410
5.064199 0.9410 0.9430 0.9430 0.9430 0.9450
5.099000 0.9450 0.9450 0.9460 0.9460 0.9460
5.133199 0.9480 0.9500 0.9500 0.9500 0.9510
5.167000 0.9510 0.9510 0.9510 0.9530 0.9530
5.201199 0.9550 0.9550 0.9550 0.9550 0.9550
5.236000 0.9550 0.9550 0.9550 0.9570 0.9570
5.270199 0.9580 0.9580 0.9600 0.9600 0.9600
5.304000 0.9600 0.9600 0.9620 0.9620 0.9620
5.338199 0.9620 0.9620 0.9620 0.9620 0.9630
5.372000 0.9630 0.9630 0.9630 0.9650 0.9650
5.406199 0.9650 0.9650 0.9670 0.9670 0.9670
5.441000 0.9670 0.9670 0.9670 0.9670 0.9670
5.475199 0.9690 0.9690 0.9700 0.9700 0.9700
5.509000 0.9700 0.9700 0.9700 0.9720 0.9720
5.543199 0.9720 0.9720 0.9720 0.9740 0.9740
5.577000 0.9750 0.9750 0.9750 0.9750 0.9770
5.611199 0.9790 0.9790 0.9790 0.9790 0.9790
5.646000 0.9810 0.9810 0.9810 0.9820 0.9820
5.680199 0.9820 0.9820 0.9840 0.9840 0.9840
5.714000 0.9840 0.9840 0.9840 0.9840 0.9840
5.748199 0.9840 0.9840 0.9840 0.9840 0.9840
5.782000 0.9840 0.9840 0.9840 0.9820 0.9810
5.816199 0.9810 0.9790 0.9790 0.9750 0.9750
5.851000 0.9720 0.9700 0.9670 0.9630 0.9620
5.885199 0.9580 0.9550 0.9510 0.9500 0.9450
5.919000 0.9410 0.9360 0.9340 0.9290 0.9260
5.953199 0.9220 0.9210 0.9150 0.9140 0.9100
5.988000 0.9050 0.9050 0.8970 0.8930 0.8900
6.022199 0.8860 0.8810 0.8760 0.8690 0.8660
6.056000 0.8610 0.8590 0.8520 0.8490 0.8430
6.090199 0.8370 0.8330 0.8280 0.8230 0.8190
6.124000 0.8160 0.8140 0.8130 0.8110 0.8110
6.158199 0.8110 0.8110 0.8130 0.8160 0.8210
6.193000 0.8230 0.8250 0.8250 0.8310 0.8380
6.227199 0.8430 0.8500 0.8590 0.8670 0.8760
6.261000 0.8830 0.8880 0.8910 0.8950 0.8980
6.295199 0.9000 0.9030 0.9030 0.9050 0.9090
6.329000 0.9120 0.9140 0.9150 0.9190 0.9210
6.363199 0.9220 0.9240 0.9240 0.9260 0.9270
6.398000 0.9290 0.9310 0.9330 0.9330 0.9340
6.432199 0.9340 0.9360 0.9380 0.9390 0.9390
6.466000 0.9410 0.9410 0.9430 0.9430 0.9450
6.500199 0.9450 0.9460 0.9460 0.9480 0.9480
6.534000 0.9500 0.9500 0.9500 0.9500 0.9510
6.568199 0.9510 0.9510 0.9510 0.9530 0.9510
6.603000 0.9530 0.9530 0.9530 0.9530 0.9530
6.637199 0.9530 0.9530 0.9530 0.9510 0.9510
6.671000 0.9510 0.9480 0.9450 0.9430 0.9410
6.705199 0.9360 0.9340 0.9290 0.9190 0.9140
6.740000 0.9050 0.8910 0.8860 0.8730 0.8620
6.774199 0.8400 0.8210 0.7680 0.7010 0.6320
6.808000 0.5830 0.5670 0.5480 0.5330 0.5210
6.842199 0.5180 0.5120 0.5110 0.5140 0.5160
6.876000 0.5210 0.5260 0.5350 0.5400 0.5590
6.910199 0.6050 0.6190 0.6430 0.6650 0.6860
6.945000 0.7060 0.7280 0.7530 0.7750 0.7950
6.979199 0.8160 0.8330 0.8450 0.8620 0.8740
7.013000 0.8850 0.8930 0.9050 0.9070 0.9090
7.047199 0.9190 0.9220 0.9290 0.9390 0.9390
7.081000 0.9430 0.9480 0.9500 0.9530 0.9550
7.115199 0.9550 0.9550 0.9550 0.9530 0.9530
7.150000 0.9510 0.9430 0.9390 0.9330 0.9240
7.184199 0.9090 0.8880 0.8540 0.8060 0.7680
7.218000 0.7560 0.7340 0.7160 0.7150 0.7130
7.252199 0.7160 0.7220 0.7340 0.7440 0.7580
7.287000 0.7630 0.7710 0.7830 0.7950 0.8020
7.321199 0.8090 0.8310 0.8430 0.8500 0.8570
7.355000 0.8690 0.8760 0.8790 0.8850 0.8850
7.389199 0.8860 0.8900 0.8930 0.8970 0.8980
7.423000 0.9000 0.9020 0.9030 0.9050 0.9090
7.457199 0.9100 0.9140 0.9150 0.9190 0.9220
7.492000 0.9220 0.9240 0.9240 0.9270 0.9310
7.526199 0.9330 0.9330 0.9330 0.9340 0.9340
7.560000 0.9340 0.9340 0.9340 0.9360 0.9360
7.594199 0.9360 0.9340 0.9340 0.9340 0.9360
7.628000 0.9360 0.9360 0.9340 0.9360 0.9360
7.662199 0.9360 0.9360 0.9340 0.9340 0.9360
7.697000 0.9360 0.9380 0.9380 0.9380 0.9380
7.731199 0.9390 0.9390 0.9390 0.9390 0.9390
7.765000 0.9390 0.9390 0.9390 0.9390 0.9390
7.799199 0.9390 0.9390 0.9390 0.9390 0.9390
7.833000 0.9390 0.9390 0.9380 0.9380 0.9380
7.867199 0.9380 0.9380 0.9380 0.9360 0.9360
7.902000 0.9360 0.9360 0.9360 0.9340 0.9340
7.936199 0.9330 0.9330 0.9330 0.9330 0.9310
7.970000 0.9310 0.9310 0.9290 0.9290 0.9290
8.004199 0.9270 0.9290 0.9270 0.9270 0.9260
8.039000 0.9240 0.9240 0.9220 0.9220 0.9210
8.073199 0.9190 0.9190 0.9170 0.9170 0.9150
8.107000 0.9150 0.9140 0.9120 0.9120 0.9070
8.141199 0.9050 0.9050 0.9030 0.9030 0.9020
8.175000 0.9000 0.8980 0.8980 0.8970 0.8950
8.209199 0.8930 0.8910 0.8900 0.8880 0.8860
8.244000 0.8850 0.8850 0.8830 0.8810 0.8790
8.278199 0.8780 0.8760 0.8740 0.8740 0.8730
8.312000 0.8710 0.8710 0.8690 0.8660 0.8640
8.346199 0.8640 0.8620 0.8620 0.8570 0.8570
8.380000 0.8550 0.8550 0.8540 0.8520 0.8520
8.414199 0.8500 0.8500 0.8490 0.8470 0.8450
8.449000 0.8430 0.8420 0.8400 0.8400 0.8370
8.483199 0.8370 0.8350 0.8330 0.8330 0.8300
8.517000 0.8280 0.8280 0.8250 0.8230 0.8210
8.551199 0.8190 0.8160 0.8140 0.8140 0.8110
8.585000 0.8070 0.8040 0.8020 0.8010 0.7990
8.619199 0.7990 0.7940 0.7940 0.7920 0.7900
8.654000 0.7890 0.7850 0.7830 0.7820 0.7800
8.688199 0.7780 0.7750 0.7750 0.7730 0.7710
8.722000 0.7700 0.7660 0.7660 0.7650 0.7630
8.756199 0.7630 0.7590 0.7580 0.7560 0.7560
8.791000 0.7540 0.7530 0.7530 0.7510 0.7510
8.825199 0.7470 0.7460 0.7460 0.7460 0.7460
8.859000 0.7440 0.7420 0.7420 0.7400 0.7400
8.893199 0.7390 0.7390 0.7370 0.7350 0.7350
8.927000 0.7340 0.7340 0.7320 0.7320 0.7300
8.961199 0.7300 0.7280 0.7280 0.7270 0.7250
8.996000 0.7250 0.7230 0.7230 0.7230 0.7220
9.030199 0.7220 0.7200 0.7200 0.7160 0.7130
9.064000 0.7110 0.7100 0.7100 0.7080 0.7060
9.098199 0.7040 0.7040 0.7040 0.7030 0.7010
9.132000 0.6990 0.6990 0.6960 0.6920 0.6890
9.166199 0.6890 0.6870 0.6870 0.6860 0.6840
9.201000 0.6820 0.6790 0.6790 0.6770 0.6750
9.235199 0.6740 0.6740 0.6720 0.6700 0.6680
9.269000 0.6670 0.6630 0.6620 0.6600 0.6560
9.303199 0.6560 0.6550 0.6530 0.6500 0.6480
9.337000 0.6460 0.6440 0.6430 0.6410 0.6380
9.371199 0.6340 0.6340 0.6320 0.6290 0.6240
9.406000 0.6220 0.6200 0.6190 0.6150 0.6140
9.440199 0.6120 0.6070 0.6050 0.6030 0.6030
9.474000 0.6020 0.6000 0.5960 0.5930 0.5900
9.508199 0.5880 0.5840 0.5810 0.5790 0.5760
9.543000 0.5720 0.5710 0.5690 0.5660 0.5620
9.577199 0.5600 0.5570 0.5520 0.5470 0.5430
9.611000 0.5420 0.5400 0.5350 0.5300 0.5240
9.645199 0.5160 0.5110 0.5060 0.5000 0.4930
9.679000 0.4830 0.4710 0.4590 0.4510 0.4330
9.713199 0.4270 0.4150 0.4040 0.4030 0.3990
9.748000 0.3840 0.3800 0.3750 0.3700 0.3650
9.782199 0.3600 0.3560 0.3530 0.3490 0.3460
9.816000 0.3440 0.3430 0.3410 0.3410 0.3390
9.850199 0.3390 0.3360 0.3360 0.3360 0.3360
9.884000 0.3360 0.3360 0.3370 0.3370 0.3390
9.918199 0.3410 0.3410 0.3430 0.3440 0.3440
9.953000 0.3460 0.3490 0.3530 0.3550 0.3580
9.987199 0.3600 0.3610 0.3630 0.3650 0.3680
10.021000 0.3720 0.3720 0.3750 0.3750 0.3770
10.055199 0.3770 0.3790 0.3800 0.3800 0.3800
10.089000 0.3800 0.3800 0.3820 0.3820 0.3820
10.123199 0.3800 0.3800 0.3790 0.3770 0.3730
10.158000 0.3720 0.3720 0.3700 0.3700 0.3680
10.192199 0.3650 0.3650 0.3630 0.3610 0.3610
10.226000 0.3600 0.3580 0.3560 0.3550 0.3530
10.260199 0.3510 0.3490 0.3460 0.3440 0.3430
10.295000 0.3410 0.3370 0.3340 0.3340 0.3340
10.329199 0.3320 0.3290 0.3290 0.3270 0.3270
10.363000 0.3250 0.3250 0.3240 0.3240 0.3220
10.397199 0.3200 0.3200 0.3200 0.3200 0.3200
10.431000 0.3200 0.3200 0.3200 0.3190 0.3190
10.465199 0.3170 0.3170 0.3170 0.3170 0.3170
10.500000 0.3170 0.3170 0.3170 0.3170 0.3170
10.534199 0.3170 0.3190 0.3190 0.3190 0.3200
10.568000 0.3190 0.3190 0.3190 0.3190 0.3190
10.602199 0.3190 0.3190 0.3200 0.3200 0.3200
10.636000 0.3220 0.3220 0.3240 0.3250 0.3250
10.670199 0.3250 0.3270 0.3310 0.3360 0.3410
10.705000 0.3440 0.3460 0.3480 0.3480 0.3490
10.739199 0.3490 0.3510 0.3510 0.3510 0.3510
10.773000 0.3510 0.3510 0.3530 0.3530 0.3530
10.807199 0.3550 0.3550 0.3550 0.3550 0.3550
10.842000 0.3600 0.3610 0.3630 0.3630 0.3650
10.876199 0.3650 0.3650 0.3670 0.3680 0.3680
10.910000 0.3700 0.3730 0.3730 0.3750 0.3750
10.944199 0.3770 0.3800 0.3800 0.3820 0.3840
10.978000 0.3850 0.3850 0.3870 0.3910 0.3940
11.012199 0.3960 0.3960 0.4010 0.4010 0.4030
11.047000 0.4040 0.4040 0.4060 0.4090 0.4110
11.081199 0.4130 0.4130 0.4130 0.4130 0.4150
11.115000 0.4150 0.4150 0.4150 0.4150 0.4160
11.149199 0.4160 0.4180 0.4180 0.4180 0.4180
11.183000 0.4180 0.4180 0.4180 0.4180 0.4180
11.217199 0.4180 0.4180 0.4200 0.4200 0.4210
11.252000 0.4210 0.4200 0.4200 0.4210 0.4210
11.286199 0.4210 0.4210 0.4210 0.4210 0.4210
11.320000 0.4230 0.4230 0.4230 0.4230 0.4230
11.354199 0.4230 0.4230 0.4230 0.4230 0.4230
11.388000 0.4230 0.4210 0.4210 0.4230 0.4230
11.422199 0.4230 0.4230 0.4230 0.4230 0.4230
11.457000 0.4230 0.4230 0.4230 0.4230 0.4230
11.491199 0.4230 0.4230 0.4230 0.4230 0.4230
11.525000 0.4230 0.4230 0.4230 0.4230 0.4230
11.559199 0.4230 0.4230 0.4250 0.4250 0.4250
11.594000 0.4230 0.4230 0.4230 0.4250 0.4230
11.628199 0.4230 0.4230 0.4230 0.4230 0.4230
11.662000 0.4210 0.4210 0.4210 0.4210 0.4200
11.696199 0.4200 0.4200 0.4210 0.4210 0.4200
11.730000 0.4200 0.4200 0.4180 0.4180 0.4210
11.764199 0.4200 0.4200 0.4200 0.4200 0.4200
11.799000 0.4200 0.4200 0.4180 0.4160 0.4160
11.833199 0.4150 0.4150 0.4150 0.4130 0.4130
11.867000 0.4110 0.4090 0.4090 0.4080 0.4040
11.901199 0.4060 0.4040 0.4040 0.4040 0.4030
11.935000 0.4030 0.4010 0.3990 0.3990 0.3970
11.969199 0.3990 0.3970 0.3960 0.3940 0.3920
12.004000 0.3910 0.3910 0.3890 0.3890 0.3870
12.038199 0.3850 0.3840 0.3840 0.3840 0.3800
12.072000 0.3800 0.3790 0.3790 0.3770 0.3770
12.106199 0.3750 0.3730 0.3730 0.3720 0.3720
12.140000 0.3700 0.3700 0.3700 0.3680 0.3670
12.174199 0.3670 0.3670 0.3650 0.3650 0.3630
12.209000 0.3610 0.3610 0.3600 0.3580 0.3560
12.243199 0.3550 0.3550 0.3530 0.3510 0.3480
12.277000 0.3460 0.3440 0.3440 0.3410 0.3410
12.311199 0.3390 0.3370 0.3360 0.3340 0.3340
12.346000 0.3320 0.3310 0.3290 0.3270 0.3250
12.380199 0.3240 0.3240 0.3220 0.3200 0.3190
12.414000 0.3190 0.3170 0.3170 0.3150 0.3150
12.448199 0.3130 0.3120 0.3120 0.3120 0.3100
12.482000 0.3100 0.3050 0.3050 0.3050 0.3050
12.516199 0.3050 0.3030 0.3030 0.3010 0.3010
12.551000 0.3000 0.3000 0.3000 0.2980 0.2960
12.585199 0.2950 0.2950 0.2950 0.2930 0.2910
12.619000 0.2910 0.2910 0.2910 0.2910 0.2890
12.653199 0.2890 0.2890 0.2890 0.2890 0.2880
12.687000 0.2880 0.2860 0.2860 0.2860 0.2860
12.721199 0.2860 0.2840 0.2840 0.2840 0.2840
12.756000 0.2840 0.2830 0.2830 0.2830 0.2830
12.790199 0.2830 0.2790 0.2790 0.2810 0.2810
12.824000 0.2810 0.2790 0.2790 0.2790 0.2790
12.858199 0.2770 0.2770 0.2770 0.2770 0.2770
12.892000 0.2770 0.2770 0.2770 0.2770 0.2760
12.926199 0.2760 0.2760 0.2760 0.2760 0.2760
12.961000 0.2760 0.2740 0.2740 0.2740 0.2740
12.995199 0.2740 0.2740 0.2740 0.2720 0.2720
13.029000 0.2720 0.2720 0.2720 0.2710 0.2710
13.063199 0.2710 0.2710 0.2710 0.2710 0.2710
13.098000 0.2690 0.2690 0.2690 0.2690 0.2690
13.132199 0.2690 0.2690 0.2690 0.2690 0.2690
13.166000 0.2690 0.2690 0.2690 0.2690 0.2690
13.200199 0.2650 0.2670 0.2670 0.2670 0.2670
13.234000 0.2670 0.2670 0.2670 0.2650 0.2650
13.268199 0.2650 0.2650 0.2640 0.2640 0.2640
13.303000 0.2640 0.2640 0.2640 0.2620 0.2620
13.337199 0.2620 0.2620 0.2620 0.2620 0.2620
13.371000 0.2620 0.2620 0.2620 0.2600 0.2600
13.405199 0.2600 0.2590 0.2600 0.2600 0.2600
13.439000 0.2600 0.2600 0.2600 0.2600 0.2600
13.473199 0.2600 0.2600 0.2620 0.2620 0.2620
13.508000 0.2620 0.2640 0.2640 0.2640 0.2650
13.542199 0.2650 0.2650 0.2670 0.2670 0.2690
13.576000 0.2690 0.2710 0.2710 0.2720 0.2720
13.610199 0.2740 0.2740 0.2760 0.2760 0.2770
13.644000 0.2770 0.2790 0.2810 0.2810 0.2810
13.678199 0.2830 0.2830 0.2830 0.2840 0.2840
13.713000 0.2860 0.2880 0.2890 0.2890 0.2890
13.747199 0.2890 0.2910 0.2930 0.2930 0.2950
13.781000 0.2950 0.2960 0.2960 0.2980 0.3000
13.815199 0.3010 0.3010 0.3010 0.3030 0.3030
13.850000 0.3030 0.3030 0.3050 0.3080 0.3080
13.884199 0.3100 0.3120 0.3120 0.3120 0.3130
13.918000 0.3170 0.3190 0.3190 0.3200 0.3200
13.952199 0.3220 0.3240 0.3240 0.3250 0.3250
13.986000 0.3250 0.3250 0.3250 0.3250 0.3290
14.020199 0.3310 0.3310 0.3320 0.3340 0.3340
14.055000 0.3360 0.3360 0.3370 0.3370 0.3370
14.089199 0.3390 0.3390 0.3410 0.3410 0.3410
14.123000 0.3410 0.3430 0.3430 0.3440 0.3440
14.157199 0.3440 0.3440 0.3440 0.3440 0.3440
14.191000 0.3440 0.3430 0.3430 0.3430 0.3440
14.225199 0.3440 0.3440 0.3440 0.3440 0.3430
14.260000 0.3430 0.3430 0.3430 0.3440 0.3440
14.294199 0.3440 0.3430 0.3430 0.3430 0.3430
14.328000 0.3430 0.3430 0.3430 0.3430 0.3430
14.362199 0.3430 0.3430 0.3430 0.3430 0.3430
14.397000 0.3430 0.3440 0.3440 0.3440 0.3440
14.431199 0.3440 0.3460 0.3460 0.3460 0.3480
14.465000 0.3480 0.3480 0.3480 0.3490 0.3490
14.499199 0.3490 0.3510 0.3510 0.3510 0.3510
14.533000 0.3510 0.3510 0.3530 0.3530 0.3530
14.567199 0.3550 0.3560 0.3560 0.3560 0.3560
14.602000 0.3560 0.3560 0.3550 0.3550 0.3560
14.636199 0.3560 0.3560 0.3550 0.3530 0.3510
14.670000 0.3510 0.3510 0.3510 0.3490 0.3480
14.704199 0.3480 0.3480 0.3480 0.3480 0.3480
14.738000 0.3460 0.3460 0.3460 0.3480 0.3480
14.772199 0.3480 0.3480 0.3480 0.3480 0.3480
14.807000 0.3490 0.3490 0.3490 0.3490 0.3510
14.841199 0.3510 0.3510 0.3510 0.3530 0.3530
14.875000 0.3550 0.3550 0.3550 0.3560 0.3560
14.909199 0.3560 0.3560 0.3560 0.3580 0.3580
14.943000 0.3580 0.3580 0.3580 0.3580 0.3580
14.977199 0.3580 0.3580 0.3580 0.3600 0.3600
15.012000 0.3610 0.3610 0.3610 0.3610 0.3610
15.046199 0.3610 0.3610 0.3630 0.3650 0.3650
15.080000 0.3650 0.3650 0.3670 0.3670 0.3670
15.114199 0.3670 0.3680 0.3680 0.3700 0.3700
15.149000 0.3720 0.3730 0.3730 0.3730 0.3750
15.183199 0.3750 0.3750 0.3750 0.3750 0.3750
15.217000 0.3770 0.3770 0.3790 0.3790 0.3790
15.251199 0.3800 0.3800 0.3820 0.3820 0.3820
15.285000 0.3840 0.3850 0.3850 0.3870 0.3870
15.319199 0.3890 0.3910 0.3910 0.3910 0.3910
15.354000 0.3910 0.3910 0.3910 0.3920 0.3920
15.388199 0.3940 0.3940 0.3960 0.3940 0.3940
15.422000 0.3940 0.3960 0.3970 0.3960 0.3940
15.456199 0.3960 0.3960 0.3960 0.3970 0.3970
15.490000 0.3970 0.3970 0.3990 0.3990 0.3990
15.524199 0.3990 0.3990 0.3990 0.3990 0.3990
15.559000 0.3990 0.4010 0.4030 0.4030 0.4030
15.593199 0.4040 0.4040 0.4060 0.4060 0.4080
15.627000 0.4080 0.4090 0.4090 0.4090 0.4110
15.661199 0.4110 0.4110 0.4130 0.4130 0.4150
15.695000 0.4150 0.4160 0.4160 0.4160 0.4180
15.729199 0.4180 0.4200 0.4200 0.4210 0.4210
15.764000 0.4230 0.4230 0.4230 0.4230 0.4250
15.798199 0.4270 0.4250 0.4270 0.4270 0.4280
15.832000 0.4280 0.4280 0.4300 0.4300 0.4320
15.866199 0.4330 0.4350 0.4350 0.4370 0.4390
15.901000 0.4390 0.4390 0.4400 0.4420 0.4440
15.935199 0.4450 0.4470 0.4490 0.4490 0.4510
15.969000 0.4520 0.4520 0.4540 0.4560
##END=
