##TITLE=BUTYLATED HYDROXYANISOL (BHA)
##JCAMP-DX=4.24
##DATA TYPE=INFRARED SPECTRUM
##CLASS=COBLENTZ
##ORIGIN=HORMEL INSTITUTE
##OWNER=COBLENTZ SOCIETY
Collection (C) 2018 copyright by the U.S. Secretary of Commerce
on behalf of the United States of America. All rights reserved.
##DATE=Not specified, most likely prior to 1970
##NAMES=A MIXTURE OF 3-TERT-BUTYL-4-METHOXYPHENOL AND 2-TERT-BUTYL-4-METHOXYPHENOL
##MOLFORM=C11 H16 O2
##SOURCE REFERENCE=COBLENTZ NO. 2024
##$NIST ID=B6002024
##$NIST SOURCE=COBLENTZ
##$NIST IMAGE=cob2024
##SPECTROMETER/DATA SYSTEM=PERKIN-ELMER
##STATE=SOLID (KBr PELLET)
##SAMPLING PROCEDURE=TRANSMISSION
##RESOLUTION=4
##DATA PROCESSING=DIGITIZED BY NIST FROM HARD COPY
##XUNITS=MICROMETERS
##YUNITS=TRANSMITTANCE
##XFACTOR=1.000000
##YFACTOR=1
##DELTAX=000.006760
##FIRSTX=2.041
##LASTX=15.3715
##FIRSTY=0.95
##MAXX=15.3715
##MINX=2.041
##MAXY=0.952
##MINY=0.008
##NPOINTS=1973
##XYDATA=(X++(Y..Y))
2.041000 0.9500 0.9500 0.9520 0.9520 0.9520
2.074818 0.9520 0.9500 0.9500 0.9490 0.9470
2.108000 0.9450 0.9440 0.9440 0.9440 0.9440
2.141818 0.9440 0.9440 0.9440 0.9440 0.9440
2.176000 0.9440 0.9440 0.9440 0.9450 0.9450
2.209818 0.9450 0.9440 0.9440 0.9440 0.9440
2.243000 0.9420 0.9400 0.9400 0.9330 0.9300
2.276818 0.9230 0.9220 0.9180 0.9180 0.9180
2.311000 0.9200 0.9200 0.9200 0.9200 0.9200
2.344818 0.9220 0.9230 0.9230 0.9230 0.9230
2.379000 0.9230 0.9230 0.9230 0.9230 0.9230
2.412818 0.9230 0.9230 0.9230 0.9220 0.9220
2.446000 0.9200 0.9200 0.9200 0.9200 0.9200
2.479818 0.9200 0.9200 0.9200 0.9200 0.9200
2.514000 0.9200 0.9220 0.9220 0.9230 0.9230
2.547818 0.9250 0.9250 0.9250 0.9250 0.9270
2.581000 0.9270 0.9270 0.9300 0.9320 0.9320
2.614818 0.9320 0.9330 0.9330 0.9350 0.9350
2.649000 0.9370 0.9370 0.9380 0.9380 0.9380
2.682818 0.9380 0.9380 0.9380 0.9350 0.9330
2.717000 0.9320 0.9300 0.9300 0.9230 0.9160
2.750818 0.9030 0.8930 0.8840 0.8720 0.8570
2.784000 0.8280 0.8010 0.7720 0.7420 0.7110
2.817818 0.6790 0.6450 0.6130 0.5770 0.5420
2.852000 0.5150 0.5050 0.4930 0.4640 0.4300
2.885818 0.3960 0.3620 0.3270 0.2840 0.2490
2.919000 0.2200 0.1790 0.1540 0.1380 0.1100
2.952818 0.0940 0.0880 0.0880 0.0930 0.1280
2.987000 0.1610 0.1940 0.2270 0.2640 0.2980
3.020818 0.3200 0.3640 0.3830 0.4150 0.4350
3.055000 0.4690 0.5320 0.5500 0.5670 0.5890
3.088818 0.6100 0.6300 0.6470 0.6710 0.6840
3.122000 0.6980 0.7060 0.7220 0.7330 0.7470
3.155818 0.7610 0.7660 0.7760 0.7830 0.7930
3.190000 0.8000 0.8050 0.8080 0.8110 0.8150
3.223818 0.8200 0.8200 0.8220 0.8270 0.8300
3.257000 0.8320 0.8320 0.8330 0.8330 0.8250
3.290818 0.8150 0.8050 0.7760 0.7520 0.7300
3.325000 0.6720 0.5710 0.5060 0.5030 0.4980
3.358818 0.4930 0.4720 0.4200 0.2960 0.2370
3.393000 0.1980 0.1960 0.2000 0.2500 0.3050
3.426818 0.3250 0.3320 0.3400 0.3610 0.3930
3.460000 0.4300 0.4550 0.4570 0.4570 0.4570
3.493818 0.4610 0.5000 0.5590 0.6200 0.6230
3.528000 0.6320 0.6520 0.6930 0.7320 0.7690
3.561818 0.7830 0.8030 0.8200 0.8330 0.8420
3.595000 0.8490 0.8540 0.8610 0.8610 0.8640
3.628818 0.8710 0.8720 0.8790 0.8790 0.8790
3.663000 0.8790 0.8790 0.8770 0.8760 0.8760
3.696818 0.8760 0.8740 0.8710 0.8670 0.8640
3.731000 0.8640 0.8670 0.8690 0.8740 0.8760
3.764818 0.8770 0.8790 0.8810 0.8830 0.8860
3.798000 0.8880 0.8890 0.8910 0.8910 0.8910
3.831818 0.8910 0.8910 0.8910 0.8910 0.8910
3.866000 0.8910 0.8910 0.8890 0.8890 0.8890
3.899818 0.8890 0.8840 0.8810 0.8810 0.8810
3.933000 0.8740 0.8710 0.8670 0.8670 0.8670
3.966818 0.8710 0.8760 0.8770 0.8790 0.8790
4.001000 0.8790 0.8790 0.8790 0.8810 0.8810
4.034818 0.8810 0.8810 0.8810 0.8810 0.8830
4.069000 0.8840 0.8840 0.8830 0.8790 0.8790
4.102818 0.8790 0.8810 0.8810 0.8830 0.8840
4.136000 0.8860 0.8860 0.8890 0.8910 0.8930
4.169818 0.8940 0.8940 0.8940 0.8940 0.8940
4.204000 0.8940 0.8940 0.8940 0.8940 0.8940
4.237818 0.8940 0.8940 0.8940 0.8940 0.8940
4.271000 0.8960 0.8960 0.8960 0.8960 0.8980
4.304818 0.9000 0.9010 0.9050 0.9100 0.9110
4.339000 0.9130 0.9130 0.9130 0.9130 0.9130
4.372818 0.9110 0.9110 0.9110 0.9110 0.9110
4.407000 0.9130 0.9150 0.9160 0.9200 0.9200
4.440818 0.9200 0.9200 0.9200 0.9200 0.9200
4.474000 0.9200 0.9200 0.9150 0.9150 0.9150
4.507818 0.9200 0.9200 0.9200 0.9200 0.9200
4.542000 0.9180 0.9150 0.9150 0.9150 0.9150
4.575818 0.9150 0.9130 0.9130 0.9130 0.9110
4.609000 0.9110 0.9110 0.9130 0.9150 0.9180
4.642818 0.9180 0.9150 0.9130 0.9110 0.9100
4.677000 0.9100 0.9080 0.9080 0.9080 0.9080
4.710818 0.9080 0.9080 0.9080 0.9080 0.9080
4.745000 0.9080 0.9080 0.9080 0.9080 0.9080
4.778818 0.9080 0.9080 0.9100 0.9100 0.9100
4.812000 0.9100 0.9060 0.9050 0.9030 0.8960
4.845818 0.8910 0.8890 0.8840 0.8810 0.8790
4.880000 0.8770 0.8790 0.8810 0.8830 0.8840
4.913818 0.8860 0.8860 0.8860 0.8810 0.8810
4.947000 0.8790 0.8790 0.8790 0.8810 0.8830
4.980818 0.8830 0.8840 0.8890 0.8910 0.8930
5.015000 0.8930 0.8960 0.9000 0.9010 0.9010
5.048818 0.9030 0.9030 0.9030 0.9030 0.9030
5.083000 0.9010 0.9010 0.9000 0.9000 0.8980
5.116818 0.8980 0.8980 0.9000 0.9010 0.9030
5.150000 0.9030 0.9010 0.9030 0.9030 0.9050
5.183818 0.9050 0.9060 0.9080 0.9100 0.9100
5.218000 0.9100 0.9060 0.9030 0.9030 0.9030
5.251818 0.9030 0.9030 0.9030 0.9060 0.9080
5.285000 0.9100 0.9100 0.9100 0.9100 0.9100
5.318818 0.9100 0.9080 0.9080 0.9060 0.9060
5.353000 0.9050 0.9030 0.9010 0.8930 0.8910
5.386818 0.8760 0.8710 0.8640 0.8590 0.8520
5.421000 0.8550 0.8610 0.8770 0.8810 0.8840
5.454818 0.8880 0.8910 0.8930 0.8940 0.8960
5.488000 0.8960 0.8980 0.8980 0.9000 0.9010
5.521818 0.9010 0.9010 0.9010 0.9010 0.9030
5.556000 0.9010 0.9010 0.9010 0.9010 0.9010
5.589818 0.8940 0.8930 0.8940 0.8940 0.8940
5.624000 0.8940 0.8940 0.8960 0.8960 0.8980
5.657818 0.9000 0.9010 0.9010 0.9010 0.9000
5.691000 0.8980 0.8960 0.8930 0.8910 0.8910
5.724818 0.8910 0.8910 0.8860 0.8830 0.8790
5.759000 0.8790 0.8790 0.8790 0.8810 0.8810
5.792818 0.8810 0.8810 0.8810 0.8810 0.8810
5.826000 0.8760 0.8710 0.8610 0.8550 0.8570
5.859818 0.8590 0.8640 0.8670 0.8710 0.8740
5.894000 0.8740 0.8740 0.8760 0.8760 0.8770
5.927818 0.8770 0.8770 0.8760 0.8720 0.8710
5.962000 0.8690 0.8670 0.8640 0.8640 0.8610
5.995818 0.8570 0.8540 0.8500 0.8470 0.8440
6.029000 0.8440 0.8420 0.8400 0.8300 0.8220
6.062818 0.8200 0.8110 0.8010 0.7980 0.7880
6.097000 0.7670 0.7540 0.7420 0.7400 0.7370
6.130818 0.7350 0.7350 0.7330 0.7220 0.7130
6.164000 0.7030 0.6940 0.6810 0.6520 0.5930
6.197818 0.5660 0.5640 0.5640 0.5670 0.5710
6.232000 0.5740 0.5810 0.6010 0.6030 0.6030
6.265818 0.5830 0.5690 0.5570 0.5570 0.5890
6.300000 0.6250 0.6570 0.6860 0.7110 0.7320
6.333818 0.7520 0.7720 0.7910 0.8000 0.8060
6.367000 0.8100 0.8130 0.8200 0.8200 0.8200
6.400818 0.8200 0.8180 0.8160 0.8160 0.8130
6.435000 0.8130 0.8110 0.8030 0.8000 0.8010
6.468818 0.7960 0.7910 0.7880 0.7830 0.7770
6.502000 0.7720 0.7660 0.7610 0.7550 0.7450
6.535818 0.7380 0.7350 0.6910 0.6710 0.6160
6.570000 0.5840 0.5380 0.4910 0.3670 0.2320
6.603818 0.1520 0.1150 0.0790 0.0710 0.0690
6.638000 0.0520 0.0500 0.0520 0.0810 0.1010
6.671818 0.1660 0.1860 0.2200 0.2640 0.2770
6.705000 0.2770 0.2690 0.2520 0.2520 0.2910
6.738818 0.3200 0.3450 0.3640 0.3790 0.3520
6.773000 0.3150 0.2670 0.2160 0.1760 0.1500
6.806818 0.1380 0.1500 0.1720 0.2150 0.2470
6.840000 0.2620 0.2770 0.2770 0.2710 0.2620
6.873818 0.2520 0.2520 0.2710 0.2840 0.3280
6.908000 0.3640 0.3710 0.4030 0.4200 0.4330
6.941818 0.4440 0.4500 0.4420 0.4220 0.4010
6.976000 0.3710 0.3470 0.2930 0.2520 0.2010
7.009818 0.1660 0.1300 0.1200 0.0890 0.0760
7.043000 0.0610 0.0500 0.0370 0.0370 0.0500
7.076818 0.1010 0.1590 0.2110 0.2540 0.2980
7.111000 0.3400 0.3840 0.4930 0.5590 0.5590
7.144818 0.5350 0.5030 0.4710 0.4080 0.3690
7.178000 0.3690 0.3930 0.4610 0.5960 0.6050
7.211818 0.6520 0.6720 0.6790 0.6810 0.6810
7.246000 0.6660 0.6570 0.6320 0.5910 0.5400
7.279818 0.5110 0.4320 0.3520 0.2740 0.2540
7.314000 0.2520 0.2550 0.2890 0.3250 0.3350
7.347818 0.3370 0.3380 0.3400 0.3620 0.3910
7.381000 0.4200 0.4200 0.4080 0.4000 0.3890
7.414818 0.3810 0.3810 0.3830 0.4030 0.4230
7.449000 0.4400 0.4640 0.4880 0.5320 0.5400
7.482818 0.5520 0.5660 0.5840 0.5980 0.6100
7.516000 0.6180 0.6220 0.6320 0.6420 0.6500
7.549818 0.6610 0.6660 0.6690 0.6720 0.6760
7.584000 0.6790 0.6830 0.6860 0.6880 0.6890
7.617818 0.6890 0.6890 0.6890 0.6890 0.6890
7.652000 0.6890 0.6890 0.6810 0.6760 0.6710
7.685818 0.6400 0.6100 0.5740 0.5280 0.4960
7.719000 0.4640 0.4030 0.3710 0.3300 0.3010
7.752818 0.2960 0.2910 0.2930 0.3010 0.3150
7.787000 0.3300 0.3300 0.3300 0.3130 0.3130
7.820818 0.3130 0.3180 0.3300 0.3500 0.3710
7.854000 0.4030 0.4350 0.4440 0.4720 0.4930
7.887818 0.5230 0.5300 0.5490 0.5640 0.5640
7.922000 0.5620 0.5550 0.5370 0.5130 0.4930
7.955818 0.4720 0.4320 0.3790 0.3420 0.3130
7.990000 0.3130 0.3300 0.3500 0.3660 0.3890
8.023818 0.4100 0.4220 0.4300 0.4320 0.4300
8.057000 0.4180 0.4060 0.3830 0.3590 0.3300
8.090818 0.2910 0.2520 0.2180 0.1770 0.1500
8.125000 0.1200 0.0960 0.0740 0.0520 0.0490
8.158818 0.0400 0.0400 0.0470 0.0500 0.0550
8.192000 0.0590 0.0610 0.0620 0.0640 0.0640
8.225818 0.0620 0.0620 0.0570 0.0520 0.0400
8.260000 0.0300 0.0230 0.0200 0.0200 0.0150
8.293818 0.0130 0.0100 0.0100 0.0100 0.0080
8.328000 0.0080 0.0080 0.0080 0.0100 0.0100
8.361818 0.0110 0.0110 0.0150 0.0230 0.0280
8.395000 0.0320 0.0590 0.0810 0.0890 0.1000
8.428818 0.1130 0.1230 0.1230 0.1160 0.1160
8.463000 0.1180 0.1220 0.1330 0.1380 0.1570
8.496818 0.1720 0.1940 0.2160 0.2380 0.2610
8.530000 0.2810 0.3000 0.3280 0.3520 0.3770
8.563818 0.4000 0.4150 0.4320 0.4450 0.4620
8.598000 0.4740 0.4910 0.5220 0.5350 0.5420
8.631818 0.5490 0.5590 0.5660 0.5740 0.5810
8.666000 0.5810 0.5910 0.5930 0.5930 0.5960
8.699818 0.5960 0.5940 0.5880 0.5770 0.5710
8.733000 0.5610 0.5520 0.5440 0.5320 0.5230
8.766818 0.5050 0.4940 0.4840 0.4610 0.4450
8.801000 0.4440 0.4640 0.5000 0.5620 0.5840
8.834818 0.6080 0.6320 0.6520 0.6720 0.6910
8.868000 0.6930 0.7030 0.7080 0.7150 0.7220
8.901818 0.7330 0.7370 0.7400 0.7420 0.7440
8.936000 0.7450 0.7450 0.7470 0.7500 0.7520
8.969818 0.7540 0.7540 0.7550 0.7570 0.7610
9.004000 0.7620 0.7620 0.7640 0.7640 0.7640
9.037818 0.7660 0.7660 0.7660 0.7670 0.7690
9.071000 0.7670 0.7670 0.7670 0.7670 0.7660
9.104818 0.7660 0.7620 0.7610 0.7540 0.7520
9.139000 0.7500 0.7350 0.7220 0.7110 0.7030
9.172818 0.6930 0.6830 0.6790 0.6720 0.6620
9.206000 0.6440 0.6370 0.6350 0.6280 0.6220
9.239818 0.5980 0.5720 0.5540 0.5320 0.5220
9.274000 0.5050 0.4980 0.4890 0.4640 0.4620
9.307818 0.4660 0.5370 0.5910 0.6230 0.6400
9.342000 0.6670 0.6810 0.6960 0.7110 0.7150
9.375818 0.7150 0.7130 0.7100 0.6980 0.6810
9.409000 0.6710 0.6520 0.6220 0.5930 0.5720
9.442818 0.5440 0.5080 0.4960 0.4830 0.4620
9.477000 0.4440 0.4320 0.4110 0.4000 0.3960
9.510818 0.3940 0.3910 0.3890 0.3890 0.3880
9.544000 0.3860 0.3830 0.3810 0.3810 0.3790
9.577818 0.3770 0.3760 0.3740 0.3550 0.3420
9.612000 0.3150 0.2940 0.2520 0.2160 0.1930
9.645818 0.1520 0.1350 0.1160 0.1110 0.1110
9.680000 0.1110 0.1130 0.1490 0.1710 0.2030
9.713818 0.2330 0.2550 0.2910 0.3110 0.3280
9.747000 0.3420 0.3500 0.3420 0.3300 0.3110
9.780818 0.3010 0.2940 0.2940 0.3220 0.3520
9.815000 0.3810 0.4220 0.4420 0.4710 0.4980
9.848818 0.5450 0.5760 0.6060 0.6150 0.6300
9.882000 0.6440 0.6610 0.6770 0.6890 0.7000
9.915818 0.7060 0.7150 0.7230 0.7280 0.7350
9.950000 0.7420 0.7470 0.7520 0.7610 0.7640
9.983818 0.7660 0.7740 0.7810 0.7840 0.7910
10.018000 0.7930 0.7940 0.7960 0.8030 0.8050
10.051818 0.8110 0.8150 0.8180 0.8200 0.8200
10.085000 0.8220 0.8230 0.8250 0.8280 0.8320
10.118818 0.8320 0.8330 0.8330 0.8330 0.8350
10.153000 0.8400 0.8400 0.8400 0.8420 0.8440
10.186818 0.8440 0.8440 0.8450 0.8470 0.8500
10.220000 0.8500 0.8500 0.8520 0.8540 0.8570
10.253818 0.8590 0.8610 0.8610 0.8610 0.8610
10.288000 0.8610 0.8610 0.8620 0.8620 0.8620
10.321818 0.8640 0.8640 0.8620 0.8620 0.8620
10.356000 0.8620 0.8620 0.8620 0.8640 0.8640
10.389818 0.8620 0.8620 0.8620 0.8620 0.8640
10.423000 0.8640 0.8670 0.8690 0.8690 0.8670
10.456818 0.8670 0.8660 0.8640 0.8640 0.8640
10.491000 0.8640 0.8620 0.8610 0.8610 0.8570
10.524818 0.8570 0.8570 0.8550 0.8540 0.8540
10.559000 0.8520 0.8500 0.8500 0.8500 0.8470
10.592818 0.8450 0.8440 0.8420 0.8400 0.8350
10.626000 0.8320 0.8300 0.8220 0.8110 0.8010
10.659818 0.8000 0.7840 0.7710 0.7610 0.7470
10.694000 0.7380 0.7200 0.7030 0.6940 0.6860
10.727818 0.6810 0.6770 0.6720 0.6710 0.6740
10.761000 0.6810 0.6940 0.7030 0.7110 0.7220
10.794818 0.7330 0.7440 0.7500 0.7570 0.7610
10.829000 0.7620 0.7620 0.7620 0.7610 0.7520
10.862818 0.7420 0.7200 0.6910 0.6720 0.6160
10.897000 0.5520 0.5220 0.4910 0.4540 0.4320
10.930818 0.4270 0.4230 0.4230 0.4720 0.5760
10.964000 0.5880 0.6130 0.6490 0.6710 0.6890
10.997818 0.7050 0.7100 0.7250 0.7400 0.7450
11.032000 0.7570 0.7640 0.7710 0.7840 0.7930
11.065818 0.8010 0.8050 0.8100 0.8200 0.8200
11.099000 0.8220 0.8250 0.8320 0.8370 0.8380
11.132818 0.8400 0.8400 0.8420 0.8440 0.8470
11.167000 0.8500 0.8500 0.8500 0.8500 0.8500
11.200818 0.8500 0.8500 0.8490 0.8470 0.8450
11.235000 0.8440 0.8420 0.8400 0.8380 0.8330
11.268818 0.8330 0.8300 0.8300 0.8250 0.8200
11.302000 0.8130 0.8050 0.7980 0.7940 0.7910
11.335818 0.7880 0.7760 0.7640 0.7520 0.7450
11.370000 0.7370 0.7200 0.7200 0.7110 0.7030
11.403818 0.6910 0.6890 0.6860 0.6810 0.6810
11.437000 0.6790 0.6790 0.6810 0.6810 0.6810
11.470818 0.6840 0.6910 0.6940 0.7010 0.7050
11.505000 0.7080 0.7110 0.7160 0.7180 0.7200
11.538818 0.7220 0.7230 0.7250 0.7250 0.7250
11.573000 0.7220 0.7200 0.7160 0.7000 0.6790
11.606818 0.6550 0.6160 0.5640 0.5030 0.4890
11.640000 0.4740 0.3980 0.3110 0.3050 0.3030
11.673818 0.3060 0.3320 0.3620 0.3720 0.3790
11.708000 0.4130 0.4470 0.4810 0.5860 0.6280
11.741818 0.6590 0.6910 0.7150 0.7420 0.7500
11.775000 0.7610 0.7640 0.7740 0.7840 0.7910
11.808818 0.8000 0.8030 0.8100 0.8130 0.8160
11.843000 0.8180 0.8220 0.8270 0.8300 0.8320
11.876818 0.8320 0.8330 0.8350 0.8350 0.8330
11.911000 0.8330 0.8320 0.8320 0.8330 0.8330
11.944818 0.8320 0.8300 0.8250 0.8230 0.8230
11.978000 0.8220 0.8200 0.8200 0.8180 0.8160
12.011818 0.8100 0.8060 0.8030 0.8010 0.8010
12.046000 0.7940 0.7890 0.7830 0.7740 0.7710
12.079818 0.7640 0.7610 0.7500 0.7400 0.7180
12.113000 0.6980 0.6930 0.6620 0.6380 0.6200
12.146818 0.5610 0.5280 0.4940 0.4330 0.3980
12.181000 0.3440 0.3010 0.2620 0.2280 0.2010
12.214818 0.1890 0.1790 0.1790 0.1660 0.1520
12.249000 0.1450 0.1400 0.1380 0.1420 0.2110
12.282818 0.2400 0.2880 0.3200 0.3550 0.4150
12.316000 0.4320 0.4400 0.4520 0.4690 0.4710
12.349818 0.4790 0.4810 0.4840 0.4880 0.4890
12.384000 0.4910 0.4910 0.4910 0.4930 0.4930
12.417818 0.4930 0.4930 0.4930 0.4930 0.4940
12.451000 0.4980 0.5060 0.5080 0.5110 0.5200
12.484818 0.5300 0.5380 0.5500 0.5640 0.5770
12.519000 0.5890 0.6030 0.6060 0.6300 0.6400
12.552818 0.6500 0.6640 0.6830 0.6890 0.7010
12.587000 0.7100 0.7130 0.7180 0.7220 0.7370
12.620818 0.7500 0.7520 0.7540 0.7550 0.7570
12.654000 0.7570 0.7610 0.7610 0.7610 0.7610
12.687818 0.7610 0.7610 0.7590 0.7590 0.7520
12.722000 0.7500 0.7490 0.7440 0.7350 0.7320
12.755818 0.7300 0.7200 0.7110 0.7050 0.7010
12.789000 0.6860 0.6740 0.6550 0.6350 0.6030
12.822818 0.5810 0.5640 0.5400 0.5010 0.4740
12.857000 0.4470 0.4010 0.3610 0.3150 0.2830
12.890818 0.2660 0.2320 0.2050 0.2010 0.2000
12.925000 0.2010 0.2200 0.2380 0.2490 0.2690
12.958818 0.2840 0.2940 0.3000 0.3000 0.3000
12.992000 0.2880 0.2710 0.2620 0.2540 0.2470
13.025818 0.2470 0.2520 0.2690 0.2810 0.3150
13.060000 0.3640 0.3670 0.3710 0.3980 0.4300
13.093818 0.4380 0.4500 0.4570 0.4830 0.5220
13.127000 0.5300 0.5330 0.5370 0.5420 0.5490
13.160818 0.5490 0.5380 0.5300 0.5180 0.5100
13.195000 0.5010 0.4960 0.4910 0.4810 0.4710
13.228818 0.4620 0.4570 0.4540 0.4520 0.4520
13.263000 0.4550 0.4610 0.4620 0.4710 0.4760
13.296818 0.4880 0.4960 0.5250 0.5400 0.5490
13.330000 0.5590 0.5620 0.5720 0.5790 0.5830
13.363818 0.5860 0.5880 0.5910 0.6000 0.6010
13.398000 0.6080 0.6160 0.6230 0.6300 0.6380
13.431818 0.6440 0.6550 0.6670 0.6790 0.6890
13.465000 0.7000 0.7080 0.7110 0.7150 0.7150
13.498818 0.7180 0.7180 0.7200 0.7200 0.7200
13.533000 0.7200 0.7200 0.7200 0.7180 0.7080
13.566818 0.7060 0.7060 0.7060 0.7100 0.7130
13.601000 0.7160 0.7270 0.7320 0.7400 0.7490
13.634818 0.7500 0.7520 0.7590 0.7620 0.7670
13.668000 0.7710 0.7740 0.7760 0.7770 0.7790
13.701818 0.7830 0.7840 0.7880 0.7890 0.7930
13.736000 0.7940 0.7980 0.8000 0.8010 0.8010
13.769818 0.8010 0.8010 0.8030 0.8050 0.8060
13.803000 0.8100 0.8130 0.8130 0.8130 0.8130
13.836818 0.8130 0.8130 0.8130 0.8150 0.8150
13.871000 0.8160 0.8180 0.8180 0.8180 0.8180
13.904818 0.8180 0.8180 0.8180 0.8180 0.8180
13.939000 0.8180 0.8180 0.8180 0.8160 0.8160
13.972818 0.8150 0.8150 0.8130 0.8130 0.8130
14.006000 0.8130 0.8130 0.8130 0.8130 0.8130
14.039818 0.8130 0.8130 0.8130 0.8110 0.8100
14.074000 0.8080 0.8080 0.8080 0.8060 0.8050
14.107818 0.8050 0.8050 0.8030 0.8030 0.8010
14.141000 0.8010 0.8010 0.8010 0.8010 0.8030
14.174818 0.8030 0.8030 0.8010 0.8010 0.8000
14.209000 0.8000 0.8000 0.7980 0.7960 0.7940
14.242818 0.7940 0.7930 0.7910 0.7890 0.7880
14.277000 0.7830 0.7810 0.7790 0.7760 0.7720
14.310818 0.7710 0.7690 0.7640 0.7590 0.7570
14.344000 0.7520 0.7490 0.7400 0.7330 0.7280
14.377818 0.7200 0.7100 0.7060 0.7010 0.7000
14.412000 0.6980 0.6960 0.6940 0.6960 0.6960
14.445818 0.6980 0.7010 0.7060 0.7100 0.7130
14.479000 0.7180 0.7200 0.7230 0.7280 0.7300
14.512818 0.7330 0.7380 0.7400 0.7400 0.7380
14.547000 0.7350 0.7320 0.7280 0.7230 0.7180
14.580818 0.7130 0.7100 0.6940 0.6810 0.6670
14.615000 0.6450 0.6280 0.6130 0.6000 0.5770
14.648818 0.5610 0.5540 0.5500 0.5500 0.5500
14.682000 0.5500 0.5610 0.5770 0.6010 0.6110
14.715818 0.6220 0.6380 0.6520 0.6640 0.6760
14.750000 0.6810 0.6960 0.7100 0.7100 0.7180
14.783818 0.7220 0.7270 0.7280 0.7320 0.7330
14.817000 0.7380 0.7400 0.7420 0.7440 0.7440
14.850818 0.7450 0.7470 0.7490 0.7490 0.7500
14.885000 0.7520 0.7520 0.7520 0.7520 0.7520
14.918818 0.7500 0.7500 0.7500 0.7470 0.7470
14.953000 0.7470 0.7450 0.7450 0.7450 0.7470
14.986818 0.7470 0.7500 0.7520 0.7570 0.7610
15.020000 0.7620 0.7660 0.7670 0.7660 0.7620
15.053818 0.7590 0.7540 0.7520 0.7500 0.7500
15.088000 0.7470 0.7470 0.7450 0.7450 0.7450
15.121818 0.7450 0.7450 0.7440 0.7440 0.7440
15.155000 0.7420 0.7400 0.7400 0.7400 0.7420
15.188818 0.7420 0.7380 0.7380 0.7370 0.7370
15.223000 0.7350 0.7330 0.7330 0.7330 0.7330
15.256818 0.7330 0.7320 0.7320 0.7300 0.7300
15.291000 0.7280 0.7280 0.7280 0.7270 0.7250
15.324818 0.7230 0.7230 0.7230 0.7220 0.7200
15.358000 0.7160 0.7130 0.7160
##END=
