##TITLE=Triazolo[4,5-d]pyrimidine, 1H-v-, 5,7-dichloro
##JCAMP-DX=4.24
##DATA TYPE=INFRARED SPECTRUM
##CLASS=COBLENTZ III
##ORIGIN=SOUTHERN RESEARCH INSTITUTE
##OWNER=Copyright (C) 1987 by the Coblentz Society
Collection (C) 2018 copyright by the U.S. Secretary of Commerce
on behalf of the United States of America. All rights reserved.
##DATE=1959/02/23
##NAMES=5,7-dichloro-1H-[1,2,3]triazolo[4,5-d]pyrimidine
##MOLFORM=C4 H Cl2 N5
##SOURCE REFERENCE=COBLENTZ NO. 8681
##$NIST ID=B6008681
##$NIST SOURCE=COBLENTZ
##$NIST IMAGE=cob8681
##SPECTROMETER/DATA SYSTEM=PERKIN-ELMER 21 (GRATING)
##INSTRUMENT PARAMETERS=FILTER CHANGE ABOUT 1090 CM^-^1
##STATE=SOLID (1.0 mg / 650 mg KBr DISC)
##SAMPLING PROCEDURE=TRANSMISSION
##RESOLUTION=2
##DATA PROCESSING=DIGITIZED BY COBLENTZ SOCIETY (BATCH II) FROM HARD COPY
##XUNITS=1/CM
##YUNITS=TRANSMITTANCE
##XFACTOR=1.0
##YFACTOR=1
##FIRSTX=604
##LASTX=4000
##FIRSTY=0.7648
##MAXX=4000
##MINX=604
##MAXY=0.9399
##MINY=0.1671
##NPOINTS=3397
##XYDATA=(X++(Y..Y))
604.000000 0.7648 0.7522 0.7411 0.7284 0.7163
609.000000 0.7062 0.6962 0.6864 0.6777 0.6732
614.000000 0.6707 0.6693 0.6723 0.6706 0.6724
619.000000 0.6746 0.6773 0.6828 0.6900 0.6991
624.000000 0.7100 0.7305 0.7576 0.7847 0.8118
629.000000 0.8388 0.8659 0.8930 0.9266 0.9395
634.000000 0.9397 0.9399 0.9398 0.9396 0.9395
639.000000 0.9389 0.9389 0.9385 0.9377 0.9365
644.000000 0.9352 0.9329 0.9306 0.9283 0.9260
649.000000 0.9236 0.9209 0.9182 0.9149 0.9105
654.000000 0.9061 0.9031 0.9000 0.8995 0.8990
659.000000 0.8985 0.8980 0.8891 0.8819 0.8788
664.000000 0.8769 0.8751 0.8742 0.8743 0.8743
669.000000 0.8814 0.8890 0.8941 0.8947 0.8953
674.000000 0.8953 0.8945 0.8934 0.8910 0.8860
679.000000 0.8759 0.8692 0.8544 0.8331 0.8118
684.000000 0.7905 0.7692 0.7479 0.7266 0.7053
689.000000 0.6840 0.6627 0.6446 0.6476 0.6476
694.000000 0.6986 0.7730 0.8473 0.9206 0.9232
699.000000 0.9229 0.9233 0.9209 0.9187 0.9172
704.000000 0.9138 0.9103 0.9067 0.9031 0.8995
709.000000 0.8959 0.8923 0.8887 0.8851 0.8815
714.000000 0.8779 0.8743 0.8707 0.8671 0.8635
719.000000 0.8600 0.8564 0.8528 0.8492 0.8456
724.000000 0.8420 0.8384 0.8355 0.8337 0.8315
729.000000 0.8289 0.8263 0.8243 0.8223 0.8203
734.000000 0.8184 0.8164 0.8144 0.8124 0.8104
739.000000 0.8084 0.8064 0.8043 0.8022 0.8002
744.000000 0.7981 0.7960 0.7939 0.7918 0.7897
749.000000 0.7876 0.7855 0.7834 0.7811 0.7788
754.000000 0.7766 0.7743 0.7720 0.7691 0.7659
759.000000 0.7628 0.7597 0.7566 0.7535 0.7493
764.000000 0.7439 0.7385 0.7330 0.7275 0.7220
769.000000 0.7129 0.7017 0.6895 0.6819 0.6760
774.000000 0.6701 0.6594 0.6475 0.6325 0.6035
779.000000 0.5990 0.5975 0.5963 0.6053 0.6184
784.000000 0.6314 0.6444 0.6537 0.6547 0.6555
789.000000 0.6548 0.6533 0.6382 0.6301 0.6135
794.000000 0.5941 0.5747 0.5577 0.5588 0.5594
799.000000 0.5781 0.6105 0.6428 0.6752 0.6953
804.000000 0.6990 0.7004 0.7018 0.7032 0.7039
809.000000 0.7046 0.7053 0.7060 0.7067 0.7072
814.000000 0.7076 0.7079 0.7083 0.7087 0.7091
819.000000 0.7095 0.7098 0.7103 0.7112 0.7121
824.000000 0.7133 0.7147 0.7160 0.7174 0.7185
829.000000 0.7196 0.7202 0.7206 0.7189 0.7181
834.000000 0.7171 0.7153 0.7136 0.7122 0.7107
839.000000 0.7093 0.7078 0.7064 0.7044 0.7021
844.000000 0.6997 0.6973 0.6949 0.6925 0.6901
849.000000 0.6877 0.6853 0.6829 0.6803 0.6772
854.000000 0.6742 0.6712 0.6681 0.6654 0.6626
859.000000 0.6599 0.6572 0.6545 0.6542 0.6543
864.000000 0.6545 0.6553 0.6566 0.6581 0.6581
869.000000 0.6576 0.6572 0.6515 0.6150 0.5785
874.000000 0.5420 0.5056 0.4691 0.4326 0.3961
879.000000 0.3596 0.3232 0.2978 0.2981 0.3001
884.000000 0.3494 0.3972 0.4450 0.4928 0.5406
889.000000 0.5884 0.6108 0.6123 0.6113 0.6088
894.000000 0.6045 0.5844 0.5548 0.5253 0.4957
899.000000 0.4662 0.4366 0.4239 0.4262 0.4866
904.000000 0.5441 0.6016 0.6591 0.7165 0.7740
909.000000 0.8290 0.8401 0.8419 0.8410 0.8440
914.000000 0.8445 0.8444 0.8442 0.8437 0.8430
919.000000 0.8423 0.8415 0.8402 0.8389 0.8376
924.000000 0.8364 0.8351 0.8338 0.8325 0.8313
929.000000 0.8300 0.8287 0.8274 0.8259 0.8243
934.000000 0.8228 0.8212 0.8197 0.8181 0.8166
939.000000 0.8150 0.8135 0.8114 0.8092 0.8071
944.000000 0.8050 0.8029 0.8009 0.7990 0.7972
949.000000 0.7953 0.7934 0.7904 0.7873 0.7834
954.000000 0.7794 0.7748 0.7692 0.7636 0.7580
959.000000 0.7524 0.7468 0.7413 0.7359 0.7306
964.000000 0.7252 0.7142 0.7014 0.6711 0.6531
969.000000 0.6434 0.6295 0.5919 0.5542 0.5166
974.000000 0.4789 0.4413 0.4036 0.3783 0.3776
979.000000 0.3793 0.4180 0.4469 0.4758 0.5047
984.000000 0.5336 0.5625 0.5914 0.6203 0.6277
989.000000 0.6233 0.6191 0.5870 0.5548 0.5226
994.000000 0.4904 0.4582 0.4260 0.3939 0.3810
999.000000 0.3812 0.3803 0.4502 0.5218 0.5934
1004.000000 0.6650 0.7671 0.7756 0.7772 0.7770
1009.000000 0.7768 0.7774 0.7765 0.7763 0.7755
1014.000000 0.7744 0.7733 0.7715 0.7694 0.7667
1019.000000 0.7627 0.7588 0.7547 0.7502 0.7458
1024.000000 0.7389 0.7217 0.7044 0.6872 0.6699
1029.000000 0.6527 0.6355 0.6137 0.6041 0.5949
1034.000000 0.5863 0.5779 0.5722 0.5669 0.5611
1039.000000 0.5530 0.5483 0.5474 0.5468 0.5535
1044.000000 0.5574 0.5711 0.5891 0.6675 0.7300
1049.000000 0.7438 0.7471 0.7496 0.7514 0.7532
1054.000000 0.7549 0.7567 0.7584 0.7602 0.7620
1059.000000 0.7639 0.7657 0.7683 0.7743 0.7915
1064.000000 0.8062 0.8110 0.8136 0.8155 0.8160
1069.000000 0.8165 0.8170 0.8173 0.8171 0.8169
1074.000000 0.8167 0.8161 0.8154 0.8147 0.8141
1079.000000 0.8135 0.8129 0.8140 0.8158 0.8177
1084.000000 0.8299 0.8448 0.8597 0.8747 0.8896
1089.000000 0.9045 0.8255 0.9087 0.8167 0.8137
1094.000000 0.8105 0.8073 0.8041 0.8010 0.7982
1099.000000 0.7964 0.7947 0.7926 0.7912 0.7899
1104.000000 0.7886 0.7873 0.7860 0.7845 0.7829
1109.000000 0.7813 0.7797 0.7778 0.7760 0.7741
1114.000000 0.7723 0.7706 0.7689 0.7673 0.7657
1119.000000 0.7635 0.7582 0.7531 0.7481 0.7424
1124.000000 0.7367 0.7317 0.7268 0.7220 0.7171
1129.000000 0.7130 0.7103 0.7076 0.7048 0.7021
1134.000000 0.6988 0.6947 0.6905 0.6864 0.6764
1139.000000 0.6648 0.6530 0.6438 0.6366 0.6295
1144.000000 0.6210 0.6065 0.5920 0.5776 0.5631
1149.000000 0.5487 0.5342 0.5197 0.5053 0.4027
1154.000000 0.3701 0.3519 0.3261 0.2820 0.2617
1159.000000 0.2458 0.2257 0.2147 0.2093 0.2038
1164.000000 0.2015 0.2004 0.1996 0.1990 0.1985
1169.000000 0.1971 0.1956 0.1933 0.1895 0.1849
1174.000000 0.1794 0.1737 0.1681 0.1674 0.1671
1179.000000 0.1674 0.2277 0.2427 0.2639 0.2847
1184.000000 0.2995 0.3247 0.3499 0.3751 0.4003
1189.000000 0.4255 0.4507 0.4759 0.5011 0.5263
1194.000000 0.5515 0.5767 0.6019 0.6617 0.7035
1199.000000 0.7158 0.7238 0.7318 0.7388 0.7457
1204.000000 0.7504 0.7540 0.7576 0.7581 0.7584
1209.000000 0.7586 0.7571 0.7548 0.7568 0.7456
1214.000000 0.7415 0.7152 0.6860 0.6569 0.6277
1219.000000 0.5985 0.5693 0.5401 0.5109 0.5009
1224.000000 0.5030 0.5001 0.5001 0.5169 0.5520
1229.000000 0.5871 0.6222 0.6573 0.6924 0.7275
1234.000000 0.7626 0.7977 0.8300 0.8358 0.8385
1239.000000 0.8398 0.8409 0.8406 0.8404 0.8410
1244.000000 0.8389 0.8377 0.8362 0.8348 0.8333
1249.000000 0.8310 0.8286 0.8259 0.8232 0.8205
1254.000000 0.8163 0.8122 0.8096 0.8073 0.8051
1259.000000 0.8031 0.8022 0.8032 0.8038 0.8043
1264.000000 0.8049 0.8046 0.8043 0.8040 0.8029
1269.000000 0.8007 0.7978 0.7943 0.7886 0.7810
1274.000000 0.7624 0.7420 0.7364 0.7308 0.7194
1279.000000 0.7006 0.6818 0.6629 0.6441 0.6253
1284.000000 0.6065 0.5877 0.5689 0.5501 0.5313
1289.000000 0.5125 0.4936 0.4773 0.4522 0.4467
1294.000000 0.4550 0.4632 0.4714 0.4797 0.4277
1299.000000 0.4962 0.5030 0.5027 0.4732 0.4279
1304.000000 0.4030 0.4027 0.4030 0.4264 0.4551
1309.000000 0.4837 0.4985 0.5028 0.5057 0.5080
1314.000000 0.5143 0.5691 0.6240 0.6719 0.6819
1319.000000 0.6883 0.6947 0.7026 0.7109 0.7175
1324.000000 0.7229 0.7265 0.7269 0.7267 0.7264
1329.000000 0.7274 0.7212 0.7177 0.7111 0.7048
1334.000000 0.6982 0.6895 0.6823 0.6760 0.6713
1339.000000 0.6640 0.6567 0.6500 0.6418 0.6274
1344.000000 0.5953 0.5827 0.5723 0.5625 0.4641
1349.000000 0.3779 0.3324 0.3143 0.3021 0.2899
1354.000000 0.2803 0.2708 0.2622 0.2551 0.2480
1359.000000 0.2409 0.2321 0.2246 0.2216 0.2204
1364.000000 0.2198 0.2195 0.2198 0.2195 0.2824
1369.000000 0.3151 0.3477 0.3804 0.4131 0.4457
1374.000000 0.4784 0.5111 0.5437 0.5764 0.6091
1379.000000 0.6457 0.6499 0.6516 0.6533 0.6548
1384.000000 0.6560 0.6572 0.6583 0.6599 0.6615
1389.000000 0.7298 0.7331 0.7351 0.7366 0.7370
1394.000000 0.7375 0.7379 0.7382 0.7383 0.7384
1399.000000 0.7386 0.7386 0.7386 0.7386 0.7387
1404.000000 0.7387 0.7387 0.7388 0.7393 0.7398
1409.000000 0.7405 0.7425 0.7445 0.7463 0.7472
1414.000000 0.7480 0.7489 0.7496 0.7496 0.7470
1419.000000 0.7495 0.7494 0.7486 0.7473 0.7459
1424.000000 0.7429 0.7092 0.6855 0.6673 0.6544
1429.000000 0.6428 0.6329 0.6238 0.6148 0.6057
1434.000000 0.5943 0.5830 0.5695 0.5572 0.5552
1439.000000 0.5547 0.5529 0.5563 0.5592 0.5614
1444.000000 0.5634 0.5650 0.5651 0.5650 0.5647
1449.000000 0.5639 0.5631 0.5622 0.5610 0.5612
1454.000000 0.5702 0.5826 0.5927 0.6007 0.6084
1459.000000 0.6160 0.6235 0.6327 0.6428 0.7006
1464.000000 0.7123 0.7182 0.7223 0.7246 0.7269
1469.000000 0.7292 0.7305 0.7318 0.7332 0.7345
1474.000000 0.7357 0.7368 0.7378 0.7389 0.7400
1479.000000 0.7413 0.7431 0.7448 0.7460 0.7469
1484.000000 0.7475 0.7490 0.7472 0.7464 0.7456
1489.000000 0.7448 0.7440 0.7437 0.7441 0.7445
1494.000000 0.7454 0.7463 0.7470 0.7466 0.7461
1499.000000 0.7454 0.7438 0.7421 0.7403 0.7386
1504.000000 0.7368 0.7350 0.7333 0.7315 0.7297
1509.000000 0.7280 0.7262 0.7244 0.7226 0.7209
1514.000000 0.7191 0.7173 0.7155 0.7104 0.7036
1519.000000 0.6965 0.6899 0.6843 0.6794 0.6753
1524.000000 0.6712 0.6676 0.6640 0.6605 0.6579
1529.000000 0.6554 0.6529 0.6504 0.6478 0.6450
1534.000000 0.6421 0.6392 0.6360 0.6320 0.6127
1539.000000 0.5935 0.5743 0.5551 0.5359 0.5167
1544.000000 0.4980 0.4880 0.4734 0.4564 0.4446
1549.000000 0.4334 0.4224 0.4114 0.3828 0.3723
1554.000000 0.3617 0.3487 0.3316 0.3130 0.2802
1559.000000 0.2622 0.2457 0.2312 0.2182 0.2069
1564.000000 0.1969 0.1928 0.1902 0.1913 0.1939
1569.000000 0.1971 0.2027 0.2099 0.2235 0.2396
1574.000000 0.2487 0.2533 0.2569 0.2591 0.2612
1579.000000 0.2637 0.2684 0.2747 0.2870 0.2947
1584.000000 0.3377 0.4261 0.4319 0.4344 0.4359
1589.000000 0.4360 0.4353 0.4371 0.4247 0.3997
1594.000000 0.3748 0.3499 0.3250 0.3001 0.2827
1599.000000 0.2669 0.2586 0.2492 0.2430 0.2389
1604.000000 0.2375 0.2364 0.2367 0.2353 0.2424
1609.000000 0.2553 0.2656 0.2726 0.2755 0.2784
1614.000000 0.2815 0.2858 0.3126 0.3394 0.3662
1619.000000 0.3930 0.4199 0.4817 0.5054 0.5161
1624.000000 0.5257 0.5349 0.5473 0.5639 0.6223
1629.000000 0.6922 0.7055 0.7134 0.7213 0.7286
1634.000000 0.7351 0.7415 0.7480 0.7519 0.7542
1639.000000 0.7566 0.7589 0.7612 0.7628 0.7641
1644.000000 0.7654 0.7700 0.7867 0.7920 0.7969
1649.000000 0.7993 0.8016 0.8040 0.8057 0.8068
1654.000000 0.8079 0.8091 0.8102 0.8113 0.8122
1659.000000 0.8130 0.8139 0.8148 0.8156 0.8167
1664.000000 0.8185 0.8204 0.8223 0.8241 0.8260
1669.000000 0.8275 0.8289 0.8304 0.8318 0.8332
1674.000000 0.8347 0.8361 0.8374 0.8385 0.8397
1679.000000 0.8408 0.8420 0.8431 0.8443 0.8454
1684.000000 0.8466 0.8474 0.8482 0.8489 0.8497
1689.000000 0.8504 0.8512 0.8518 0.8523 0.8529
1694.000000 0.8534 0.8540 0.8545 0.8550 0.8556
1699.000000 0.8561 0.8565 0.8568 0.8572 0.8575
1704.000000 0.8578 0.8581 0.8584 0.8587 0.8591
1709.000000 0.8594 0.8597 0.8606 0.8614 0.8622
1714.000000 0.8631 0.8639 0.8648 0.8656 0.8664
1719.000000 0.8672 0.8681 0.8689 0.8694 0.8692
1724.000000 0.8689 0.8686 0.8684 0.8681 0.8678
1729.000000 0.8675 0.8676 0.8680 0.8683 0.8686
1734.000000 0.8689 0.8695 0.8706 0.8716 0.8727
1739.000000 0.8737 0.8748 0.8759 0.8769 0.8780
1744.000000 0.8790 0.8801 0.8808 0.8809 0.8811
1749.000000 0.8812 0.8813 0.8811 0.8810 0.8809
1754.000000 0.8808 0.8807 0.8806 0.8805 0.8804
1759.000000 0.8805 0.8806 0.8807 0.8808 0.8809
1764.000000 0.8811 0.8817 0.8823 0.8829 0.8834
1769.000000 0.8840 0.8846 0.8847 0.8843 0.8839
1774.000000 0.8834 0.8829 0.8821 0.8812 0.8804
1779.000000 0.8796 0.8788 0.8779 0.8768 0.8757
1784.000000 0.8746 0.8735 0.8729 0.8724 0.8720
1789.000000 0.8745 0.8743 0.8757 0.8772 0.8787
1794.000000 0.8802 0.8811 0.8818 0.8814 0.8809
1799.000000 0.8805 0.8800 0.8795 0.8793 0.8792
1804.000000 0.8791 0.8789 0.8788 0.8787 0.8785
1809.000000 0.8784 0.8783 0.8781 0.8779 0.8778
1814.000000 0.8776 0.8775 0.8773 0.8772 0.8773
1819.000000 0.8773 0.8773 0.8773 0.8774 0.8775
1824.000000 0.8779 0.8782 0.8785 0.8789 0.8792
1829.000000 0.8796 0.8799 0.8802 0.8806 0.8809
1834.000000 0.8812 0.8816 0.8819 0.8822 0.8826
1839.000000 0.8829 0.8832 0.8836 0.8839 0.8842
1844.000000 0.8846 0.8849 0.8853 0.8856 0.8857
1849.000000 0.8854 0.8852 0.8849 0.8847 0.8844
1854.000000 0.8842 0.8841 0.8839 0.8838 0.8836
1859.000000 0.8834 0.8833 0.8831 0.8829 0.8827
1864.000000 0.8825 0.8823 0.8821 0.8819 0.8817
1869.000000 0.8814 0.8812 0.8810 0.8808 0.8806
1874.000000 0.8805 0.8803 0.8802 0.8801 0.8799
1879.000000 0.8798 0.8796 0.8795 0.8793 0.8792
1884.000000 0.8790 0.8789 0.8787 0.8786 0.8784
1889.000000 0.8783 0.8781 0.8778 0.8775 0.8773
1894.000000 0.8770 0.8767 0.8764 0.8761 0.8759
1899.000000 0.8756 0.8753 0.8750 0.8748 0.8745
1904.000000 0.8742 0.8739 0.8737 0.8734 0.8731
1909.000000 0.8728 0.8725 0.8723 0.8720 0.8717
1914.000000 0.8714 0.8711 0.8708 0.8705 0.8702
1919.000000 0.8699 0.8696 0.8693 0.8690 0.8687
1924.000000 0.8684 0.8681 0.8678 0.8676 0.8674
1929.000000 0.8672 0.8671 0.8669 0.8667 0.8666
1934.000000 0.8664 0.8662 0.8661 0.8659 0.8657
1939.000000 0.8656 0.8654 0.8652 0.8651 0.8649
1944.000000 0.8647 0.8646 0.8644 0.8642 0.8641
1949.000000 0.8639 0.8637 0.8636 0.8634 0.8632
1954.000000 0.8631 0.8629 0.8627 0.8626 0.8625
1959.000000 0.8623 0.8622 0.8621 0.8619 0.8618
1964.000000 0.8617 0.8615 0.8614 0.8613 0.8611
1969.000000 0.8610 0.8609 0.8607 0.8606 0.8605
1974.000000 0.8603 0.8602 0.8601 0.8599 0.8598
1979.000000 0.8597 0.8595 0.8594 0.8593 0.8591
1984.000000 0.8590 0.8589 0.8587 0.8586 0.8586
1989.000000 0.8585 0.8584 0.8583 0.8582 0.8582
1994.000000 0.8581 0.8580 0.8579 0.8578 0.8578
1999.000000 0.8577 0.8577 0.8577 0.8577 0.8577
2004.000000 0.8578 0.8575 0.8573 0.8571 0.8568
2009.000000 0.8566 0.8563 0.8560 0.8555 0.8549
2014.000000 0.8544 0.8539 0.8534 0.8528 0.8523
2019.000000 0.8518 0.8513 0.8510 0.8508 0.8506
2024.000000 0.8505 0.8503 0.8501 0.8500 0.8498
2029.000000 0.8496 0.8494 0.8493 0.8491 0.8489
2034.000000 0.8488 0.8486 0.8484 0.8483 0.8481
2039.000000 0.8479 0.8478 0.8476 0.8475 0.8473
2044.000000 0.8472 0.8471 0.8469 0.8468 0.8466
2049.000000 0.8465 0.8463 0.8462 0.8461 0.8460
2054.000000 0.8459 0.8458 0.8457 0.8456 0.8455
2059.000000 0.8454 0.8452 0.8451 0.8450 0.8449
2064.000000 0.8448 0.8445 0.8442 0.8439 0.8436
2069.000000 0.8432 0.8429 0.8426 0.8423 0.8420
2074.000000 0.8416 0.8413 0.8410 0.8407 0.8404
2079.000000 0.8401 0.8399 0.8397 0.8394 0.8392
2084.000000 0.8390 0.8388 0.8385 0.8383 0.8381
2089.000000 0.8379 0.8376 0.8374 0.8372 0.8370
2094.000000 0.8367 0.8365 0.8363 0.8361 0.8358
2099.000000 0.8356 0.8354 0.8352 0.8349 0.8347
2104.000000 0.8345 0.8343 0.8341 0.8339 0.8337
2109.000000 0.8335 0.8333 0.8331 0.8329 0.8327
2114.000000 0.8325 0.8323 0.8327 0.8330 0.8334
2119.000000 0.8338 0.8342 0.8350 0.8361 0.8370
2124.000000 0.8378 0.8387 0.8395 0.8404 0.8412
2129.000000 0.8411 0.8405 0.8400 0.8394 0.8388
2134.000000 0.8382 0.8376 0.8370 0.8365 0.8359
2139.000000 0.8353 0.8347 0.8341 0.8335 0.8328
2144.000000 0.8322 0.8316 0.8310 0.8304 0.8299
2149.000000 0.8293 0.8288 0.8282 0.8277 0.8271
2154.000000 0.8266 0.8260 0.8255 0.8249 0.8243
2159.000000 0.8238 0.8232 0.8227 0.8222 0.8217
2164.000000 0.8212 0.8206 0.8201 0.8196 0.8191
2169.000000 0.8185 0.8180 0.8174 0.8167 0.8161
2174.000000 0.8155 0.8149 0.8143 0.8137 0.8131
2179.000000 0.8125 0.8119 0.8113 0.8107 0.8101
2184.000000 0.8097 0.8095 0.8093 0.8091 0.8089
2189.000000 0.8087 0.8086 0.8084 0.8082 0.8080
2194.000000 0.8078 0.8076 0.8074 0.8073 0.8072
2199.000000 0.8072 0.8072 0.8072 0.8073 0.8073
2204.000000 0.8073 0.8074 0.8074 0.8074 0.8080
2209.000000 0.8085 0.8091 0.8097 0.8102 0.8108
2214.000000 0.8114 0.8118 0.8123 0.8127 0.8131
2219.000000 0.8136 0.8140 0.8145 0.8149 0.8154
2224.000000 0.8158 0.8163 0.8168 0.8172 0.8174
2229.000000 0.8174 0.8173 0.8172 0.8161 0.8150
2234.000000 0.8131 0.8110 0.8088 0.8068 0.8062
2239.000000 0.8057 0.8051 0.8046 0.8041 0.8037
2244.000000 0.8033 0.8029 0.8025 0.8022 0.8020
2249.000000 0.8019 0.8017 0.8016 0.8015 0.8013
2254.000000 0.8012 0.8010 0.8009 0.8007 0.8006
2259.000000 0.8004 0.8002 0.7999 0.7996 0.7993
2264.000000 0.7990 0.7987 0.7984 0.7981 0.7978
2269.000000 0.7976 0.7973 0.7971 0.7968 0.7966
2274.000000 0.7963 0.7961 0.7958 0.7955 0.7952
2279.000000 0.7949 0.7941 0.7930 0.7919 0.7909
2284.000000 0.7898 0.7888 0.7877 0.7869 0.7860
2289.000000 0.7852 0.7843 0.7840 0.7839 0.7837
2294.000000 0.7835 0.7835 0.7835 0.7834 0.7834
2299.000000 0.7834 0.7833 0.7833 0.7834 0.7834
2304.000000 0.7834 0.7835 0.7835 0.7835 0.7836
2309.000000 0.7836 0.7836 0.7837 0.7839 0.7841
2314.000000 0.7843 0.7844 0.7846 0.7847 0.7848
2319.000000 0.7849 0.7850 0.7851 0.7852 0.7854
2324.000000 0.7855 0.7856 0.7859 0.7863 0.7866
2329.000000 0.7870 0.7874 0.7877 0.7881 0.7884
2334.000000 0.7888 0.7891 0.7895 0.7898 0.7900
2339.000000 0.7902 0.7904 0.7905 0.7901 0.7898
2344.000000 0.7894 0.7891 0.7888 0.7884 0.7880
2349.000000 0.7876 0.7872 0.7867 0.7861 0.7855
2354.000000 0.7850 0.7844 0.7838 0.7832 0.7825
2359.000000 0.7818 0.7812 0.7805 0.7798 0.7792
2364.000000 0.7785 0.7779 0.7774 0.7768 0.7762
2369.000000 0.7757 0.7751 0.7745 0.7740 0.7734
2374.000000 0.7728 0.7723 0.7717 0.7711 0.7706
2379.000000 0.7700 0.7696 0.7692 0.7688 0.7684
2384.000000 0.7680 0.7676 0.7673 0.7669 0.7665
2389.000000 0.7661 0.7657 0.7653 0.7649 0.7645
2394.000000 0.7642 0.7640 0.7637 0.7635 0.7632
2399.000000 0.7630 0.7627 0.7624 0.7621 0.7618
2404.000000 0.7613 0.7578 0.7538 0.7498 0.7490
2409.000000 0.7482 0.7474 0.7467 0.7461 0.7455
2414.000000 0.7450 0.7444 0.7439 0.7433 0.7428
2419.000000 0.7422 0.7417 0.7411 0.7406 0.7400
2424.000000 0.7395 0.7389 0.7384 0.7378 0.7373
2429.000000 0.7367 0.7361 0.7356 0.7350 0.7343
2434.000000 0.7336 0.7329 0.7322 0.7316 0.7309
2439.000000 0.7302 0.7296 0.7292 0.7287 0.7283
2444.000000 0.7279 0.7274 0.7270 0.7265 0.7261
2449.000000 0.7256 0.7252 0.7249 0.7246 0.7244
2454.000000 0.7242 0.7239 0.7237 0.7235 0.7232
2459.000000 0.7230 0.7228 0.7225 0.7223 0.7221
2464.000000 0.7218 0.7216 0.7216 0.7215 0.7215
2469.000000 0.7214 0.7214 0.7213 0.7213 0.7212
2474.000000 0.7212 0.7212 0.7214 0.7216 0.7213
2479.000000 0.7199 0.7182 0.7164 0.7152 0.7141
2484.000000 0.7130 0.7119 0.7112 0.7109 0.7106
2489.000000 0.7103 0.7100 0.7098 0.7095 0.7092
2494.000000 0.7088 0.7085 0.7082 0.7079 0.7077
2499.000000 0.7076 0.7073 0.7069 0.7066 0.7062
2504.000000 0.7059 0.7055 0.7052 0.7049 0.7046
2509.000000 0.7043 0.7041 0.7038 0.7035 0.7032
2514.000000 0.7030 0.7027 0.7026 0.7024 0.7023
2519.000000 0.7022 0.7020 0.7019 0.7018 0.7015
2524.000000 0.7012 0.7009 0.7005 0.7002 0.6996
2529.000000 0.6987 0.6975 0.6963 0.6951 0.6938
2534.000000 0.6927 0.6916 0.6904 0.6893 0.6883
2539.000000 0.6874 0.6864 0.6854 0.6844 0.6835
2544.000000 0.6825 0.6815 0.6805 0.6796 0.6786
2549.000000 0.6780 0.6773 0.6766 0.6760 0.6753
2554.000000 0.6747 0.6740 0.6733 0.6727 0.6720
2559.000000 0.6712 0.6704 0.6696 0.6688 0.6679
2564.000000 0.6671 0.6663 0.6654 0.6646 0.6638
2569.000000 0.6630 0.6621 0.6613 0.6604 0.6594
2574.000000 0.6585 0.6578 0.6571 0.6564 0.6557
2579.000000 0.6549 0.6542 0.6533 0.6521 0.6510
2584.000000 0.6499 0.6488 0.6477 0.6466 0.6455
2589.000000 0.6443 0.6432 0.6421 0.6410 0.6400
2594.000000 0.6389 0.6378 0.6367 0.6359 0.6353
2599.000000 0.6347 0.6340 0.6334 0.6328 0.6323
2604.000000 0.6319 0.6315 0.6311 0.6306 0.6300
2609.000000 0.6291 0.6281 0.6270 0.6260 0.6249
2614.000000 0.6238 0.6227 0.6216 0.6205 0.6194
2619.000000 0.6183 0.6172 0.6161 0.6150 0.6138
2624.000000 0.6130 0.6122 0.6114 0.6106 0.6098
2629.000000 0.6090 0.6082 0.6074 0.6066 0.6058
2634.000000 0.6050 0.6042 0.6034 0.6026 0.6018
2639.000000 0.6011 0.6003 0.5996 0.5989 0.5981
2644.000000 0.5974 0.5967 0.5959 0.5952 0.5944
2649.000000 0.5937 0.5930 0.5922 0.5915 0.5908
2654.000000 0.5900 0.5891 0.5882 0.5873 0.5863
2659.000000 0.5854 0.5844 0.5835 0.5824 0.5814
2664.000000 0.5803 0.5792 0.5781 0.5770 0.5760
2669.000000 0.5749 0.5738 0.5727 0.5717 0.5705
2674.000000 0.5694 0.5682 0.5670 0.5659 0.5652
2679.000000 0.5647 0.5641 0.5636 0.5631 0.5628
2684.000000 0.5625 0.5623 0.5620 0.5618 0.5617
2689.000000 0.5616 0.5615 0.5615 0.5614 0.5613
2694.000000 0.5613 0.5610 0.5606 0.5602 0.5598
2699.000000 0.5594 0.5589 0.5582 0.5575 0.5567
2704.000000 0.5555 0.5543 0.5531 0.5519 0.5507
2709.000000 0.5495 0.5483 0.5469 0.5456 0.5442
2714.000000 0.5428 0.5417 0.5408 0.5398 0.5388
2719.000000 0.5378 0.5368 0.5358 0.5348 0.5338
2724.000000 0.5328 0.5318 0.5308 0.5298 0.5288
2729.000000 0.5278 0.5272 0.5266 0.5259 0.5253
2734.000000 0.5246 0.5240 0.5233 0.5227 0.5220
2739.000000 0.5214 0.5208 0.5201 0.5196 0.5191
2744.000000 0.5187 0.5180 0.5173 0.5166 0.5158
2749.000000 0.5151 0.5143 0.5136 0.5129 0.5121
2754.000000 0.5114 0.5107 0.5095 0.5082 0.5068
2759.000000 0.5055 0.5042 0.5029 0.5019 0.5009
2764.000000 0.4999 0.4989 0.4979 0.4970 0.4960
2769.000000 0.4950 0.4940 0.4931 0.4922 0.4914
2774.000000 0.4905 0.4896 0.4891 0.4892 0.4892
2779.000000 0.4892 0.4893 0.4896 0.4901 0.4909
2784.000000 0.4923 0.4937 0.4948 0.4958 0.4969
2789.000000 0.4979 0.4987 0.4994 0.4998 0.4997
2794.000000 0.4996 0.4993 0.4987 0.4982 0.4976
2799.000000 0.4971 0.4965 0.4960 0.4954 0.4948
2804.000000 0.4942 0.4937 0.4931 0.4928 0.4935
2809.000000 0.4924 0.4921 0.4923 0.4925 0.4928
2814.000000 0.4931 0.4934 0.4940 0.4945 0.4951
2819.000000 0.4956 0.4961 0.4965 0.4970 0.4975
2824.000000 0.4979 0.4980 0.4977 0.4974 0.4970
2829.000000 0.4965 0.4959 0.4953 0.4947 0.4942
2834.000000 0.4936 0.4931 0.4926 0.4921 0.4916
2839.000000 0.4910 0.4905 0.4901 0.4896 0.4891
2844.000000 0.4886 0.4881 0.4876 0.4872 0.4867
2849.000000 0.4865 0.4863 0.4861 0.4859 0.4857
2854.000000 0.4855 0.4849 0.4841 0.4833 0.4825
2859.000000 0.4817 0.4809 0.4801 0.4793 0.4786
2864.000000 0.4779 0.4775 0.4777 0.4785 0.4794
2869.000000 0.4803 0.4812 0.4821 0.4830 0.4840
2874.000000 0.4850 0.4859 0.4869 0.4879 0.4889
2879.000000 0.4898 0.4908 0.4918 0.4927 0.4937
2884.000000 0.4946 0.4954 0.4963 0.4972 0.4979
2889.000000 0.4984 0.4989 0.4993 0.4986 0.4979
2894.000000 0.4971 0.4960 0.4946 0.4932 0.4917
2899.000000 0.4903 0.4888 0.4871 0.4855 0.4839
2904.000000 0.4823 0.4807 0.4791 0.4775 0.4757
2909.000000 0.4739 0.4722 0.4704 0.4687 0.4669
2914.000000 0.4651 0.4636 0.4621 0.4606 0.4591
2919.000000 0.4576 0.4561 0.4546 0.4531 0.4517
2924.000000 0.4503 0.4489 0.4474 0.4460 0.4446
2929.000000 0.4432 0.4417 0.4405 0.4393 0.4381
2934.000000 0.4369 0.4357 0.4344 0.4331 0.4318
2939.000000 0.4306 0.4293 0.4283 0.4273 0.4263
2944.000000 0.4254 0.4244 0.4234 0.4224 0.4214
2949.000000 0.4205 0.4196 0.4187 0.4178 0.4170
2954.000000 0.4161 0.4156 0.4143 0.4152 0.4151
2959.000000 0.4149 0.4147 0.4145 0.4145 0.4145
2964.000000 0.4145 0.4145 0.4146 0.4146 0.4146
2969.000000 0.4147 0.4148 0.4148 0.4149 0.4150
2974.000000 0.4150 0.4151 0.4152 0.4152 0.4153
2979.000000 0.4155 0.4157 0.4159 0.4161 0.4163
2984.000000 0.4168 0.4173 0.4177 0.4182 0.4186
2989.000000 0.4191 0.4196 0.4202 0.4210 0.4217
2994.000000 0.4225 0.4233 0.4241 0.4249 0.4257
2999.000000 0.4265 0.4277 0.4290 0.4303 0.4315
3004.000000 0.4328 0.4343 0.4361 0.4378 0.4396
3009.000000 0.4413 0.4431 0.4450 0.4472 0.4493
3014.000000 0.4509 0.4514 0.4510 0.4506 0.4502
3019.000000 0.4497 0.4492 0.4491 0.4491 0.4492
3024.000000 0.4494 0.4500 0.4507 0.4514 0.4521
3029.000000 0.4546 0.4534 0.4541 0.4548 0.4551
3034.000000 0.4554 0.4554 0.4552 0.4549 0.4546
3039.000000 0.4544 0.4541 0.4539 0.4531 0.4524
3044.000000 0.4517 0.4510 0.4503 0.4492 0.4482
3049.000000 0.4471 0.4459 0.4446 0.4433 0.4420
3054.000000 0.4408 0.4397 0.4386 0.4375 0.4364
3059.000000 0.4354 0.4343 0.4332 0.4325 0.4317
3064.000000 0.4310 0.4302 0.4295 0.4287 0.4280
3069.000000 0.4272 0.4265 0.4261 0.4258 0.4255
3074.000000 0.4252 0.4249 0.4246 0.4243 0.4243
3079.000000 0.4243 0.4244 0.4244 0.4244 0.4244
3084.000000 0.4244 0.4243 0.4243 0.4234 0.4242
3089.000000 0.4242 0.4241 0.4241 0.4240 0.4242
3094.000000 0.4247 0.4254 0.4264 0.4275 0.4287
3099.000000 0.4303 0.4319 0.4341 0.4362 0.4385
3104.000000 0.4407 0.4430 0.4452 0.4474 0.4492
3109.000000 0.4511 0.4530 0.4549 0.4570 0.4592
3114.000000 0.4613 0.4635 0.4654 0.4671 0.4687
3119.000000 0.4703 0.4719 0.4736 0.4754 0.4778
3124.000000 0.4802 0.4826 0.4847 0.4867 0.4887
3129.000000 0.4906 0.4926 0.4946 0.4966 0.4987
3134.000000 0.5010 0.5032 0.5055 0.5075 0.5091
3139.000000 0.5107 0.5122 0.5138 0.5154 0.5170
3144.000000 0.5186 0.5202 0.5219 0.5236 0.5253
3149.000000 0.5271 0.5288 0.5306 0.5324 0.5343
3154.000000 0.5361 0.5376 0.5390 0.5404 0.5418
3159.000000 0.5431 0.5445 0.5459 0.5473 0.5487
3164.000000 0.5500 0.5510 0.5519 0.5529 0.5538
3169.000000 0.5548 0.5558 0.5567 0.5576 0.5577
3174.000000 0.5578 0.5579 0.5581 0.5580 0.5580
3179.000000 0.5579 0.5579 0.5579 0.5586 0.5593
3184.000000 0.5600 0.5614 0.5632 0.5649 0.5666
3189.000000 0.5683 0.5699 0.5716 0.5732 0.5749
3194.000000 0.5765 0.5779 0.5793 0.5808 0.5822
3199.000000 0.5836 0.5850 0.5862 0.5873 0.5885
3204.000000 0.5896 0.5907 0.5919 0.5930 0.5941
3209.000000 0.5952 0.5964 0.5975 0.5987 0.5998
3214.000000 0.6009 0.6021 0.6035 0.6053 0.6071
3219.000000 0.6089 0.6107 0.6125 0.6145 0.6166
3224.000000 0.6186 0.6207 0.6229 0.6250 0.6272
3229.000000 0.6299 0.6329 0.6359 0.6374 0.6386
3234.000000 0.6398 0.6411 0.6424 0.6438 0.6451
3239.000000 0.6465 0.6478 0.6492 0.6508 0.6522
3244.000000 0.6533 0.6545 0.6557 0.6571 0.6587
3249.000000 0.6602 0.6617 0.6632 0.6647 0.6662
3254.000000 0.6677 0.6691 0.6701 0.6710 0.6719
3259.000000 0.6729 0.6738 0.6748 0.6757 0.6765
3264.000000 0.6774 0.6782 0.6791 0.6799 0.6806
3269.000000 0.6813 0.6819 0.6826 0.6832 0.6838
3274.000000 0.6844 0.6850 0.6856 0.6861 0.6867
3279.000000 0.6873 0.6879 0.6885 0.6891 0.6897
3284.000000 0.6903 0.6909 0.6914 0.6920 0.6926
3289.000000 0.6932 0.6938 0.6944 0.6950 0.6956
3294.000000 0.6961 0.6967 0.6973 0.6979 0.6984
3299.000000 0.6988 0.6992 0.6995 0.6999 0.7003
3304.000000 0.7007 0.7011 0.7014 0.7018 0.7022
3309.000000 0.7026 0.7030 0.7034 0.7037 0.7041
3314.000000 0.7047 0.7057 0.7066 0.7081 0.7097
3319.000000 0.7112 0.7126 0.7133 0.7134 0.7135
3324.000000 0.7136 0.7137 0.7130 0.7135 0.7134
3329.000000 0.7133 0.7132 0.7131 0.7129 0.7128
3334.000000 0.7126 0.7124 0.7123 0.7120 0.7116
3339.000000 0.7112 0.7109 0.7103 0.7096 0.7090
3344.000000 0.7084 0.7077 0.7071 0.7064 0.7058
3349.000000 0.7051 0.7043 0.7034 0.7026 0.7017
3354.000000 0.7009 0.7000 0.6992 0.6983 0.6973
3359.000000 0.6964 0.6954 0.6945 0.6936 0.6926
3364.000000 0.6917 0.6907 0.6895 0.6883 0.6871
3369.000000 0.6859 0.6847 0.6835 0.6823 0.6814
3374.000000 0.6804 0.6795 0.6785 0.6776 0.6766
3379.000000 0.6757 0.6748 0.6743 0.6741 0.6739
3384.000000 0.6736 0.6734 0.6733 0.6732 0.6730
3389.000000 0.6729 0.6727 0.6726 0.6724 0.6722
3394.000000 0.6720 0.6717 0.6711 0.6704 0.6697
3399.000000 0.6690 0.6684 0.6675 0.6665 0.6656
3404.000000 0.6646 0.6637 0.6628 0.6621 0.6613
3409.000000 0.6605 0.6598 0.6590 0.6583 0.6579
3414.000000 0.6574 0.6569 0.6565 0.6560 0.6555
3419.000000 0.6551 0.6546 0.6545 0.6544 0.6543
3424.000000 0.6542 0.6541 0.6541 0.6540 0.6537
3429.000000 0.6535 0.6532 0.6529 0.6527 0.6524
3434.000000 0.6522 0.6519 0.6517 0.6514 0.6511
3439.000000 0.6509 0.6506 0.6504 0.6501 0.6500
3444.000000 0.6498 0.6496 0.6494 0.6493 0.6494
3449.000000 0.6495 0.6482 0.6497 0.6501 0.6512
3454.000000 0.6527 0.6544 0.6562 0.6581 0.6596
3459.000000 0.6606 0.6605 0.6604 0.6604 0.6603
3464.000000 0.6600 0.6597 0.6594 0.6591 0.6588
3469.000000 0.6586 0.6585 0.6584 0.6584 0.6583
3474.000000 0.6582 0.6581 0.6581 0.6581 0.6581
3479.000000 0.6582 0.6582 0.6591 0.6613 0.6629
3484.000000 0.6640 0.6640 0.6642 0.6644 0.6646
3489.000000 0.6648 0.6651 0.6653 0.6656 0.6661
3494.000000 0.6666 0.6671 0.6676 0.6680 0.6685
3499.000000 0.6689 0.6694 0.6698 0.6702 0.6706
3504.000000 0.6705 0.6705 0.6705 0.6704 0.6704
3509.000000 0.6705 0.6716 0.6745 0.6774 0.6804
3514.000000 0.6838 0.6853 0.6863 0.6869 0.6875
3519.000000 0.6881 0.6889 0.6899 0.6907 0.6913
3524.000000 0.6916 0.6919 0.6922 0.6925 0.6928
3529.000000 0.6931 0.6935 0.6938 0.6941 0.6945
3534.000000 0.6948 0.6952 0.6955 0.6958 0.6962
3539.000000 0.6964 0.6967 0.6970 0.6973 0.6975
3544.000000 0.6978 0.6983 0.6993 0.7007 0.7022
3549.000000 0.7042 0.7061 0.7077 0.7083 0.7084
3554.000000 0.7080 0.7074 0.7069 0.7068 0.7066
3559.000000 0.7065 0.7064 0.7062 0.7061 0.7059
3564.000000 0.7057 0.7054 0.7052 0.7050 0.7050
3569.000000 0.7050 0.7049 0.7049 0.7049 0.7049
3574.000000 0.7048 0.7051 0.7053 0.7056 0.7059
3579.000000 0.7061 0.7064 0.7067 0.7069 0.7074
3584.000000 0.7079 0.7084 0.7089 0.7094 0.7102
3589.000000 0.7115 0.7133 0.7184 0.7235 0.7290
3594.000000 0.7327 0.7349 0.7363 0.7374 0.7386
3599.000000 0.7397 0.7405 0.7411 0.7418 0.7424
3604.000000 0.7431 0.7436 0.7438 0.7441 0.7443
3609.000000 0.7446 0.7449 0.7452 0.7455 0.7458
3614.000000 0.7461 0.7464 0.7467 0.7470 0.7473
3619.000000 0.7477 0.7483 0.7488 0.7494 0.7499
3624.000000 0.7503 0.7505 0.7507 0.7509 0.7511
3629.000000 0.7513 0.7515 0.7517 0.7519 0.7521
3634.000000 0.7523 0.7526 0.7529 0.7533 0.7536
3639.000000 0.7540 0.7544 0.7547 0.7551 0.7554
3644.000000 0.7558 0.7561 0.7562 0.7564 0.7565
3649.000000 0.7566 0.7567 0.7569 0.7570 0.7571
3654.000000 0.7572 0.7573 0.7573 0.7574 0.7575
3659.000000 0.7576 0.7577 0.7577 0.7577 0.7578
3664.000000 0.7578 0.7578 0.7579 0.7579 0.7579
3669.000000 0.7579 0.7580 0.7581 0.7581 0.7582
3674.000000 0.7582 0.7583 0.7584 0.7584 0.7585
3679.000000 0.7585 0.7586 0.7587 0.7587 0.7588
3684.000000 0.7589 0.7591 0.7592 0.7593 0.7594
3689.000000 0.7595 0.7596 0.7597 0.7598 0.7599
3694.000000 0.7600 0.7601 0.7602 0.7604 0.7607
3699.000000 0.7610 0.7614 0.7617 0.7620 0.7623
3704.000000 0.7627 0.7630 0.7636 0.7647 0.7659
3709.000000 0.7670 0.7681 0.7692 0.7703 0.7714
3714.000000 0.7720 0.7724 0.7729 0.7733 0.7737
3719.000000 0.7734 0.7729 0.7724 0.7720 0.7715
3724.000000 0.7712 0.7708 0.7705 0.7701 0.7698
3729.000000 0.7693 0.7689 0.7685 0.7681 0.7676
3734.000000 0.7672 0.7668 0.7664 0.7660 0.7655
3739.000000 0.7651 0.7646 0.7642 0.7638 0.7633
3744.000000 0.7629 0.7625 0.7622 0.7618 0.7615
3749.000000 0.7611 0.7607 0.7604 0.7606 0.7608
3754.000000 0.7610 0.7613 0.7615 0.7618 0.7622
3759.000000 0.7626 0.7630 0.7635 0.7636 0.7633
3764.000000 0.7630 0.7627 0.7624 0.7621 0.7625
3769.000000 0.7632 0.7639 0.7646 0.7654 0.7666
3774.000000 0.7678 0.7689 0.7698 0.7698 0.7699
3779.000000 0.7699 0.7699 0.7694 0.7690 0.7686
3784.000000 0.7681 0.7677 0.7672 0.7668 0.7664
3789.000000 0.7655 0.7647 0.7639 0.7631 0.7623
3794.000000 0.7615 0.7607 0.7601 0.7597 0.7594
3799.000000 0.7591 0.7587 0.7584 0.7581 0.7577
3804.000000 0.7574 0.7571 0.7567 0.7564 0.7564
3809.000000 0.7564 0.7565 0.7566 0.7566 0.7567
3814.000000 0.7567 0.7568 0.7568 0.7569 0.7569
3819.000000 0.7570 0.7571 0.7571 0.7572 0.7573
3824.000000 0.7574 0.7575 0.7576 0.7577 0.7578
3829.000000 0.7579 0.7580 0.7581 0.7583 0.7585
3834.000000 0.7588 0.7591 0.7593 0.7596 0.7599
3839.000000 0.7601 0.7604 0.7606 0.7608 0.7610
3844.000000 0.7611 0.7612 0.7614 0.7615 0.7617
3849.000000 0.7618 0.7619 0.7621 0.7622 0.7625
3854.000000 0.7628 0.7630 0.7633 0.7636 0.7639
3859.000000 0.7642 0.7645 0.7647 0.7652 0.7656
3864.000000 0.7660 0.7665 0.7669 0.7673 0.7678
3869.000000 0.7682 0.7686 0.7691 0.7695 0.7698
3874.000000 0.7701 0.7704 0.7707 0.7710 0.7713
3879.000000 0.7716 0.7714 0.7710 0.7705 0.7688
3884.000000 0.7663 0.7651 0.7639 0.7628 0.7621
3889.000000 0.7620 0.7618 0.7617 0.7616 0.7615
3894.000000 0.7616 0.7616 0.7614 0.7609 0.7602
3899.000000 0.7577 0.7557 0.7536 0.7518 0.7502
3904.000000 0.7504 0.7508 0.7517 0.7527 0.7535
3909.000000 0.7542 0.7549 0.7553 0.7553 0.7545
3914.000000 0.7537 0.7526 0.7510 0.7493 0.7477
3919.000000 0.7463 0.7455 0.7451 0.7448 0.7444
3924.000000 0.7441 0.7440 0.7441 0.7443 0.7444
3929.000000 0.7446 0.7448 0.7451 0.7453 0.7455
3934.000000 0.7457 0.7457 0.7458 0.7458 0.7458
3939.000000 0.7457 0.7449 0.7442 0.7435 0.7428
3944.000000 0.7422 0.7415 0.7408 0.7406 0.7403
3949.000000 0.7401 0.7398 0.7402 0.7408 0.7413
3954.000000 0.7419 0.7425 0.7437 0.7450 0.7463
3959.000000 0.7474 0.7482 0.7491 0.7500 0.7508
3964.000000 0.7514 0.7519 0.7524 0.7526 0.7522
3969.000000 0.7519 0.7514 0.7507 0.7500 0.7493
3974.000000 0.7486 0.7475 0.7463 0.7450 0.7438
3979.000000 0.7421 0.7402 0.7383 0.7365 0.7349
3984.000000 0.7333 0.7317 0.7302 0.7287 0.7272
3989.000000 0.7257 0.7241 0.7223 0.7205 0.7188
3994.000000 0.7170 0.7152 0.7134 0.7116 0.7098
3999.000000 0.7080 0.7076
##END=
