##TITLE=Octadecane-1-sulfonic acid, sodium salt
##JCAMP-DX=4.24
##DATA TYPE=INFRARED SPECTRUM
##CLASS=COBLENTZ III
##ORIGIN=DOW CHEMICAL COMPANY
##OWNER=COBLENTZ SOC.
Collection (C) 2018 copyright by the U.S. Secretary of Commerce
on behalf of the United States of America. All rights reserved.
##DATE=1970/06/25
##MOLFORM=C18 H37 O3 S Na
##SOURCE REFERENCE=COBLENTZ NO. 09742
##$NIST ID=B6009742
##$NIST SOURCE=COBLENTZ
##$NIST IMAGE=cob9742
##SPECTROMETER/DATA SYSTEM=DOW KBr FOREPRISM-GRATING
##INSTRUMENT PARAMETERS=BLAZED AT 3.5, 12.0, 20.0 MICRON AND CHANGED AT 5.0, 7.5, 14.9 MICRON
##STATE=SOLID (SPLIT MULL), FLUOROLUBE FOR 3800-1330 CM^-^1, NUJOL FOR 1330-400 CM^-^1
$$ SEE SPECTRUM NO. 9744 FOR "KBr DISC" RUN
$$SPECTRAL CONTAMINATION DUE TO H2O AROUND 3420 CM^-^1
##SAMPLING PROCEDURE=TRANSMISSION
##RESOLUTION=2
##DATA PROCESSING=DIGITIZED BY COBLENTZ SOCIETY (BATCH I) FROM HARD COPY
##XUNITS=1/CM
##YUNITS=TRANSMITTANCE
##XLABEL=Wavenumbers (cm-1)
##YLABEL=% Transmission
##XFACTOR=1
##YFACTOR=1
##DELTAX=1
##FIRSTX=396
##LASTX=3798
##FIRSTY=0.8135
##MAXX=3798
##MINX=396
##MAXY=0.8814
##MINY=0.0258
##NPOINTS=3403
##XYDATA=(X++(Y..Y))
396.000000 0.8135 0.8136 0.8138 0.8139 0.8140
401.000000 0.8141 0.8142 0.8143 0.8145 0.8146
406.000000 0.8147 0.8149 0.8150 0.8151 0.8154
411.000000 0.8155 0.8157 0.8158 0.8160 0.8161
416.000000 0.8164 0.8165 0.8165 0.8165 0.8165
421.000000 0.8165 0.8167 0.8167 0.8168 0.8168
426.000000 0.8168 0.8168 0.8168 0.8168 0.8169
431.000000 0.8171 0.8171 0.8171 0.8171 0.8172
436.000000 0.8174 0.8174 0.8175 0.8175 0.8175
441.000000 0.8176 0.8176 0.8178 0.8178 0.8178
446.000000 0.8178 0.8178 0.8178 0.8178 0.8178
451.000000 0.8178 0.8178 0.8178 0.8178 0.8178
456.000000 0.8178 0.8178 0.8178 0.8178 0.8178
461.000000 0.8178 0.8178 0.8178 0.8180 0.8180
466.000000 0.8181 0.8182 0.8183 0.8184 0.8185
471.000000 0.8186 0.8186 0.8187 0.8187 0.8186
476.000000 0.8185 0.8185 0.8184 0.8184 0.8184
481.000000 0.8187 0.8196 0.8204 0.8213 0.8221
486.000000 0.8235 0.8251 0.8270 0.8302 0.8333
491.000000 0.8362 0.8378 0.8390 0.8394 0.8398
496.000000 0.8402 0.8406 0.8410 0.8413 0.8416
501.000000 0.8416 0.8410 0.8411 0.8411 0.8411
506.000000 0.8403 0.8389 0.8363 0.8338 0.8312
511.000000 0.8283 0.8244 0.8205 0.8165 0.8122
516.000000 0.8078 0.8035 0.7995 0.7968 0.7941
521.000000 0.7925 0.7915 0.7904 0.7882 0.7837
526.000000 0.7785 0.7728 0.7668 0.7612 0.7560
531.000000 0.7400 0.7018 0.6635 0.6252 0.5870
536.000000 0.5522 0.5512 0.5525 0.5664 0.5808
541.000000 0.5953 0.6098 0.6186 0.6249 0.6369
546.000000 0.6489 0.6608 0.6728 0.6849 0.6968
551.000000 0.7089 0.7208 0.7260 0.7260 0.7260
556.000000 0.7261 0.7264 0.7369 0.7482 0.7593
561.000000 0.7705 0.7815 0.7926 0.8039 0.8150
566.000000 0.8262 0.8373 0.8444 0.8487 0.8501
571.000000 0.8512 0.8518 0.8523 0.8523 0.8523
576.000000 0.8523 0.8523 0.8521 0.8521 0.8521
581.000000 0.8518 0.8512 0.8507 0.8501 0.8495
586.000000 0.8490 0.8483 0.8475 0.8467 0.8459
591.000000 0.8450 0.8442 0.8427 0.8412 0.8397
596.000000 0.8361 0.8324 0.8288 0.8235 0.8180
601.000000 0.8125 0.8069 0.8012 0.7950 0.7886
606.000000 0.7821 0.7722 0.7587 0.7457 0.7338
611.000000 0.7218 0.7081 0.6931 0.6794 0.6672
616.000000 0.6571 0.6485 0.6398 0.6298 0.6104
621.000000 0.5712 0.5504 0.5505 0.5510 0.6316
626.000000 0.6797 0.7276 0.7758 0.8238 0.8436
631.000000 0.8512 0.8564 0.8599 0.8621 0.8645
636.000000 0.8658 0.8668 0.8680 0.8691 0.8700
641.000000 0.8705 0.8709 0.8714 0.8718 0.8723
646.000000 0.8728 0.8732 0.8732 0.8732 0.8732
651.000000 0.8732 0.8732 0.8732 0.8732 0.8732
656.000000 0.8732 0.8732 0.8733 0.8733 0.8733
661.000000 0.8733 0.8733 0.8733 0.8731 0.8728
666.000000 0.8725 0.8724 0.8721 0.8720 0.8718
671.000000 0.8715 0.8713 0.8710 0.8707 0.8705
676.000000 0.8702 0.8699 0.8691 0.8682 0.8671
681.000000 0.8663 0.8653 0.8642 0.8628 0.8617
686.000000 0.8605 0.8593 0.8581 0.8568 0.8558
691.000000 0.8546 0.8534 0.8525 0.8516 0.8507
696.000000 0.8498 0.8487 0.8475 0.8464 0.8451
701.000000 0.8425 0.8401 0.8375 0.8351 0.8318
706.000000 0.8283 0.8240 0.8186 0.8132 0.8075
711.000000 0.8014 0.7951 0.7889 0.7818 0.7746
716.000000 0.7668 0.7557 0.7446 0.7271 0.7050
721.000000 0.6500 0.5528 0.4799 0.4816 0.4962
726.000000 0.5300 0.5637 0.5974 0.6310 0.6648
731.000000 0.6985 0.7321 0.7471 0.7554 0.7621
736.000000 0.7698 0.7783 0.7840 0.7890 0.7939
741.000000 0.7976 0.8005 0.8034 0.8046 0.8042
746.000000 0.8035 0.8025 0.8014 0.8007 0.8001
751.000000 0.8024 0.8061 0.8104 0.8161 0.8202
756.000000 0.8232 0.8252 0.8266 0.8278 0.8275
761.000000 0.8275 0.8258 0.8245 0.8228 0.8208
766.000000 0.8188 0.8171 0.8155 0.8155 0.8158
771.000000 0.8165 0.8178 0.8190 0.8202 0.8213
776.000000 0.8208 0.8200 0.8183 0.8111 0.8033
781.000000 0.7956 0.7878 0.7801 0.7724 0.7647
786.000000 0.7569 0.7493 0.7415 0.7338 0.7261
791.000000 0.7238 0.7225 0.7231 0.7240 0.7248
796.000000 0.7261 0.7278 0.7298 0.7317 0.7334
801.000000 0.7351 0.7369 0.7389 0.7411 0.7458
806.000000 0.7506 0.7619 0.7745 0.7869 0.7994
811.000000 0.8118 0.8244 0.8296 0.8335 0.8362
816.000000 0.8380 0.8396 0.8412 0.8424 0.8431
821.000000 0.8434 0.8438 0.8441 0.8444 0.8448
826.000000 0.8448 0.8447 0.8447 0.8447 0.8446
831.000000 0.8446 0.8445 0.8445 0.8445 0.8444
836.000000 0.8444 0.8444 0.8443 0.8443 0.8443
841.000000 0.8439 0.8436 0.8432 0.8428 0.8424
846.000000 0.8421 0.8417 0.8417 0.8417 0.8417
851.000000 0.8417 0.8418 0.8418 0.8421 0.8428
856.000000 0.8434 0.8441 0.8450 0.8459 0.8458
861.000000 0.8457 0.8456 0.8456 0.8453 0.8450
866.000000 0.8447 0.8444 0.8441 0.8436 0.8431
871.000000 0.8425 0.8421 0.8415 0.8405 0.8396
876.000000 0.8386 0.8377 0.8367 0.8358 0.8347
881.000000 0.8335 0.8321 0.8310 0.8297 0.8281
886.000000 0.8264 0.8248 0.8236 0.8233 0.8231
891.000000 0.8237 0.8244 0.8250 0.8255 0.8260
896.000000 0.8265 0.8268 0.8273 0.8275 0.8278
901.000000 0.8278 0.8280 0.8280 0.8278 0.8275
906.000000 0.8274 0.8271 0.8268 0.8264 0.8259
911.000000 0.8254 0.8241 0.8228 0.8216 0.8204
916.000000 0.8193 0.8182 0.8171 0.8165 0.8161
921.000000 0.8157 0.8151 0.8148 0.8144 0.8140
926.000000 0.8136 0.8133 0.8128 0.8125 0.8121
931.000000 0.8118 0.8115 0.8111 0.8108 0.8106
936.000000 0.8103 0.8100 0.8097 0.8094 0.8089
941.000000 0.8085 0.8081 0.8076 0.8072 0.8068
946.000000 0.8061 0.8053 0.8043 0.8034 0.8025
951.000000 0.8015 0.8007 0.7997 0.7989 0.7981
956.000000 0.7972 0.7964 0.7956 0.7948 0.7939
961.000000 0.7931 0.7926 0.7925 0.7924 0.7921
966.000000 0.7921 0.7919 0.7919 0.7919 0.7925
971.000000 0.7932 0.7938 0.7945 0.7958 0.7972
976.000000 0.7987 0.8000 0.8012 0.8025 0.8028
981.000000 0.8031 0.8035 0.8038 0.8038 0.8038
986.000000 0.8037 0.8036 0.8034 0.8033 0.8032
991.000000 0.8031 0.8030 0.8028 0.8026 0.8025
996.000000 0.8025 0.8022 0.8021 0.8021 0.8018
1001.000000 0.8015 0.8011 0.8008 0.8004 0.8000
1006.000000 0.7995 0.7989 0.7983 0.7976 0.7971
1011.000000 0.7961 0.7949 0.7936 0.7922 0.7906
1016.000000 0.7882 0.7857 0.7832 0.7805 0.7775
1021.000000 0.7747 0.7718 0.7684 0.7642 0.7599
1026.000000 0.7557 0.7514 0.7461 0.7396 0.7328
1031.000000 0.7257 0.7180 0.7095 0.6965 0.6819
1036.000000 0.6574 0.6196 0.5818 0.5579 0.5602
1041.000000 0.5874 0.6145 0.6379 0.6375 0.6360
1046.000000 0.6337 0.6236 0.6117 0.5998 0.5879
1051.000000 0.5760 0.5641 0.5525 0.5505 0.5475
1056.000000 0.5443 0.5402 0.5237 0.4958 0.4680
1061.000000 0.4402 0.4124 0.3846 0.3568 0.3290
1066.000000 0.3012 0.2768 0.2789 0.3141 0.4274
1071.000000 0.5407 0.6433 0.6582 0.6756 0.6869
1076.000000 0.6967 0.7017 0.7068 0.7101 0.7118
1081.000000 0.7136 0.7151 0.7165 0.7178 0.7191
1086.000000 0.7211 0.7233 0.7254 0.7284 0.7326
1091.000000 0.7362 0.7387 0.7411 0.7434 0.7451
1096.000000 0.7461 0.7465 0.7468 0.7471 0.7472
1101.000000 0.7472 0.7485 0.7471 0.7468 0.7465
1106.000000 0.7462 0.7461 0.7456 0.7451 0.7442
1111.000000 0.7428 0.7414 0.7401 0.7378 0.7355
1116.000000 0.7332 0.7308 0.7285 0.7260 0.7236
1121.000000 0.7211 0.7174 0.7132 0.7090 0.7049
1126.000000 0.7000 0.6950 0.6900 0.6850 0.6800
1131.000000 0.6747 0.6688 0.6630 0.6571 0.6507
1136.000000 0.6421 0.6336 0.6250 0.6169 0.6088
1141.000000 0.6008 0.5927 0.5834 0.5732 0.5629
1146.000000 0.5526 0.5384 0.5206 0.5024 0.4759
1151.000000 0.4526 0.4295 0.3925 0.3546 0.3170
1156.000000 0.2794 0.2418 0.2042 0.1666 0.1426
1161.000000 0.1311 0.1196 0.1083 0.0937 0.0853
1166.000000 0.0824 0.0820 0.0837 0.0837 0.0892
1171.000000 0.0980 0.1069 0.1157 0.1246 0.1334
1176.000000 0.1423 0.1511 0.1599 0.1687 0.1776
1181.000000 0.1865 0.1944 0.1953 0.1953 0.1953
1186.000000 0.1968 0.1904 0.1773 0.1601 0.1428
1191.000000 0.1273 0.1250 0.1241 0.1240 0.1240
1196.000000 0.1245 0.1223 0.1120 0.1016 0.1001
1201.000000 0.1003 0.1020 0.1058 0.1126 0.1292
1206.000000 0.1457 0.1622 0.1786 0.1883 0.1910
1211.000000 0.1918 0.1925 0.1927 0.2013 0.2195
1216.000000 0.2377 0.2559 0.2741 0.2923 0.3041
1221.000000 0.3032 0.3023 0.3025 0.3078 0.3178
1226.000000 0.3277 0.3377 0.3476 0.3576 0.3660
1231.000000 0.3716 0.3744 0.3771 0.3792 0.3809
1236.000000 0.3814 0.3768 0.3691 0.3612 0.3550
1241.000000 0.3550 0.3550 0.3766 0.4009 0.4254
1246.000000 0.4498 0.4743 0.4987 0.5231 0.5475
1251.000000 0.5568 0.5560 0.5536 0.5505 0.5482
1256.000000 0.5477 0.5614 0.5810 0.6007 0.6203
1261.000000 0.6399 0.6486 0.6518 0.6524 0.6522
1266.000000 0.6518 0.6511 0.6506 0.6507 0.6515
1271.000000 0.6543 0.6574 0.6606 0.6640 0.6671
1276.000000 0.6689 0.6701 0.6701 0.6701 0.6700
1281.000000 0.6698 0.6696 0.6693 0.6691 0.6690
1286.000000 0.6688 0.6686 0.6685 0.6685 0.6686
1291.000000 0.6687 0.6703 0.6728 0.6758 0.6788
1296.000000 0.6817 0.6847 0.6876 0.6904 0.6925
1301.000000 0.6947 0.6968 0.6990 0.6998 0.7005
1306.000000 0.7005 0.7005 0.7005 0.7011 0.7019
1311.000000 0.7040 0.7065 0.7094 0.7131 0.7168
1316.000000 0.7194 0.7208 0.7211 0.7211 0.7211
1321.000000 0.7208 0.7206 0.7194 0.7183 0.7171
1326.000000 0.7157 0.7142 0.7128 0.7112 0.7099
1331.000000 0.7086 0.7071 0.7058 0.7049 0.7040
1336.000000 0.7031 0.7047 0.7106 0.7165 0.7225
1341.000000 0.7286 0.7346 0.7405 0.7465 0.7475
1346.000000 0.7485 0.7496 0.7508 0.7518 0.7519
1351.000000 0.7521 0.7524 0.7515 0.7507 0.7498
1356.000000 0.7489 0.7478 0.7467 0.7455 0.7444
1361.000000 0.7432 0.7419 0.7408 0.7397 0.7385
1366.000000 0.7372 0.7362 0.7354 0.7345 0.7336
1371.000000 0.7330 0.7328 0.7325 0.7324 0.7335
1376.000000 0.7346 0.7357 0.7374 0.7394 0.7421
1381.000000 0.7449 0.7475 0.7506 0.7538 0.7558
1386.000000 0.7571 0.7580 0.7584 0.7584 0.7584
1391.000000 0.7581 0.7578 0.7575 0.7571 0.7564
1396.000000 0.7557 0.7551 0.7544 0.7537 0.7524
1401.000000 0.7511 0.7499 0.7487 0.7474 0.7457
1406.000000 0.7434 0.7411 0.7389 0.7365 0.7342
1411.000000 0.7318 0.7298 0.7276 0.7274 0.7282
1416.000000 0.7299 0.7318 0.7340 0.7367 0.7394
1421.000000 0.7424 0.7453 0.7483 0.7512 0.7540
1426.000000 0.7554 0.7568 0.7581 0.7583 0.7585
1431.000000 0.7587 0.7587 0.7584 0.7582 0.7601
1436.000000 0.7574 0.7567 0.7561 0.7554 0.7543
1441.000000 0.7531 0.7519 0.7501 0.7480 0.7460
1446.000000 0.7426 0.7389 0.7328 0.7267 0.7191
1451.000000 0.7086 0.6982 0.6865 0.6742 0.6621
1456.000000 0.6515 0.6408 0.6308 0.6209 0.6131
1461.000000 0.6055 0.5976 0.5889 0.5731 0.5259
1466.000000 0.4787 0.4315 0.3843 0.3534 0.3534
1471.000000 0.3534 0.3716 0.4326 0.4936 0.5547
1476.000000 0.6157 0.6767 0.7376 0.7765 0.7851
1481.000000 0.7921 0.7992 0.8061 0.8085 0.8107
1486.000000 0.8125 0.8140 0.8154 0.8168 0.8178
1491.000000 0.8189 0.8199 0.8209 0.8218 0.8228
1496.000000 0.8239 0.8249 0.8259 0.8268 0.8278
1501.000000 0.8286 0.8291 0.8297 0.8302 0.8307
1506.000000 0.8313 0.8318 0.8324 0.8328 0.8334
1511.000000 0.8338 0.8342 0.8345 0.8349 0.8353
1516.000000 0.8357 0.8360 0.8364 0.8368 0.8371
1521.000000 0.8375 0.8377 0.8378 0.8381 0.8383
1526.000000 0.8385 0.8387 0.8389 0.8391 0.8393
1531.000000 0.8395 0.8396 0.8397 0.8398 0.8399
1536.000000 0.8400 0.8401 0.8402 0.8403 0.8404
1541.000000 0.8404 0.8405 0.8406 0.8407 0.8408
1546.000000 0.8409 0.8410 0.8410 0.8411 0.8412
1551.000000 0.8413 0.8414 0.8415 0.8415 0.8416
1556.000000 0.8417 0.8418 0.8418 0.8420 0.8420
1561.000000 0.8421 0.8421 0.8423 0.8423 0.8424
1566.000000 0.8425 0.8425 0.8427 0.8427 0.8428
1571.000000 0.8428 0.8430 0.8431 0.8431 0.8431
1576.000000 0.8430 0.8430 0.8428 0.8428 0.8428
1581.000000 0.8427 0.8425 0.8425 0.8425 0.8424
1586.000000 0.8424 0.8423 0.8423 0.8421 0.8421
1591.000000 0.8421 0.8420 0.8420 0.8418 0.8418
1596.000000 0.8418 0.8417 0.8417 0.8416 0.8414
1601.000000 0.8410 0.8407 0.8403 0.8399 0.8395
1606.000000 0.8392 0.8388 0.8384 0.8378 0.8374
1611.000000 0.8368 0.8363 0.8358 0.8353 0.8348
1616.000000 0.8342 0.8335 0.8328 0.8321 0.8315
1621.000000 0.8308 0.8302 0.8295 0.8288 0.8278
1626.000000 0.8268 0.8259 0.8250 0.8240 0.8230
1631.000000 0.8220 0.8209 0.8196 0.8183 0.8169
1636.000000 0.8157 0.8138 0.8117 0.8096 0.8175
1641.000000 0.8273 0.8331 0.8291 0.8188 0.8071
1646.000000 0.8054 0.8054 0.8060 0.8069 0.8082
1651.000000 0.8093 0.8107 0.8122 0.8144 0.8168
1656.000000 0.8193 0.8220 0.8249 0.8277 0.8298
1661.000000 0.8320 0.8341 0.8363 0.8381 0.8397
1666.000000 0.8414 0.8425 0.8432 0.8433 0.8405
1671.000000 0.8340 0.8275 0.8211 0.8146 0.8114
1676.000000 0.8205 0.8336 0.8466 0.8502 0.8508
1681.000000 0.8512 0.8516 0.8518 0.8521 0.8524
1686.000000 0.8527 0.8530 0.8531 0.8532 0.8532
1691.000000 0.8533 0.8535 0.8540 0.8545 0.8549
1696.000000 0.8554 0.8558 0.8563 0.8568 0.8571
1701.000000 0.8577 0.8581 0.8585 0.8588 0.8591
1706.000000 0.8594 0.8597 0.8601 0.8603 0.8605
1711.000000 0.8607 0.8609 0.8612 0.8615 0.8617
1716.000000 0.8620 0.8623 0.8625 0.8628 0.8632
1721.000000 0.8635 0.8638 0.8641 0.8644 0.8646
1726.000000 0.8648 0.8650 0.8653 0.8655 0.8657
1731.000000 0.8659 0.8661 0.8664 0.8667 0.8668
1736.000000 0.8671 0.8675 0.8677 0.8680 0.8683
1741.000000 0.8685 0.8687 0.8687 0.8688 0.8688
1746.000000 0.8688 0.8688 0.8688 0.8688 0.8688
1751.000000 0.8688 0.8690 0.8691 0.8692 0.8693
1756.000000 0.8694 0.8695 0.8696 0.8698 0.8699
1761.000000 0.8700 0.8701 0.8702 0.8703 0.8704
1766.000000 0.8705 0.8705 0.8706 0.8707 0.8707
1771.000000 0.8708 0.8709 0.8709 0.8710 0.8710
1776.000000 0.8711 0.8712 0.8712 0.8713 0.8714
1781.000000 0.8714 0.8715 0.8716 0.8716 0.8716
1786.000000 0.8716 0.8716 0.8716 0.8716 0.8716
1791.000000 0.8715 0.8714 0.8713 0.8713 0.8712
1796.000000 0.8711 0.8710 0.8709 0.8708 0.8708
1801.000000 0.8707 0.8706 0.8705 0.8704 0.8703
1806.000000 0.8703 0.8702 0.8701 0.8700 0.8699
1811.000000 0.8698 0.8698 0.8697 0.8696 0.8696
1816.000000 0.8695 0.8694 0.8694 0.8693 0.8693
1821.000000 0.8692 0.8691 0.8691 0.8690 0.8690
1826.000000 0.8689 0.8688 0.8688 0.8687 0.8687
1831.000000 0.8686 0.8686 0.8685 0.8684 0.8684
1836.000000 0.8683 0.8683 0.8682 0.8681 0.8680
1841.000000 0.8678 0.8678 0.8675 0.8675 0.8674
1846.000000 0.8673 0.8671 0.8671 0.8668 0.8668
1851.000000 0.8667 0.8666 0.8665 0.8663 0.8662
1856.000000 0.8661 0.8660 0.8659 0.8665 0.8656
1861.000000 0.8655 0.8654 0.8653 0.8652 0.8651
1866.000000 0.8649 0.8648 0.8646 0.8645 0.8643
1871.000000 0.8642 0.8640 0.8638 0.8637 0.8635
1876.000000 0.8634 0.8632 0.8630 0.8628 0.8627
1881.000000 0.8625 0.8625 0.8624 0.8624 0.8623
1886.000000 0.8623 0.8621 0.8621 0.8621 0.8620
1891.000000 0.8620 0.8618 0.8618 0.8623 0.8628
1896.000000 0.8633 0.8638 0.8643 0.8649 0.8655
1901.000000 0.8662 0.8668 0.8675 0.8681 0.8681
1906.000000 0.8681 0.8678 0.8677 0.8675 0.8673
1911.000000 0.8671 0.8668 0.8667 0.8665 0.8663
1916.000000 0.8661 0.8660 0.8658 0.8656 0.8654
1921.000000 0.8653 0.8651 0.8649 0.8647 0.8646
1926.000000 0.8646 0.8646 0.8645 0.8645 0.8645
1931.000000 0.8645 0.8645 0.8644 0.8644 0.8644
1936.000000 0.8644 0.8645 0.8646 0.8647 0.8648
1941.000000 0.8649 0.8650 0.8651 0.8654 0.8656
1946.000000 0.8659 0.8662 0.8664 0.8667 0.8670
1951.000000 0.8671 0.8675 0.8678 0.8680 0.8683
1956.000000 0.8686 0.8689 0.8691 0.8694 0.8697
1961.000000 0.8700 0.8702 0.8703 0.8703 0.8703
1966.000000 0.8703 0.8703 0.8703 0.8703 0.8704
1971.000000 0.8704 0.8702 0.8699 0.8696 0.8694
1976.000000 0.8691 0.8688 0.8685 0.8682 0.8675
1981.000000 0.8668 0.8661 0.8662 0.8667 0.8671
1986.000000 0.8692 0.8715 0.8735 0.8751 0.8758
1991.000000 0.8757 0.8756 0.8753 0.8749 0.8746
1996.000000 0.8743 0.8739 0.8736 0.8733 0.8731
2001.000000 0.8728 0.8725 0.8725 0.8725 0.8725
2006.000000 0.8728 0.8731 0.8734 0.8736 0.8738
2011.000000 0.8744 0.8751 0.8757 0.8763 0.8771
2016.000000 0.8778 0.8793 0.8808 0.8811 0.8814
2021.000000 0.8814 0.8814 0.8814 0.8814 0.8814
2026.000000 0.8814 0.8813 0.8813 0.8812 0.8812
2031.000000 0.8811 0.8811 0.8810 0.8810 0.8810
2036.000000 0.8810 0.8809 0.8809 0.8808 0.8808
2041.000000 0.8807 0.8807 0.8806 0.8806 0.8805
2046.000000 0.8805 0.8805 0.8805 0.8804 0.8804
2051.000000 0.8803 0.8803 0.8803 0.8803 0.8802
2056.000000 0.8802 0.8801 0.8801 0.8800 0.8799
2061.000000 0.8797 0.8796 0.8794 0.8793 0.8792
2066.000000 0.8791 0.8789 0.8788 0.8787 0.8786
2071.000000 0.8784 0.8783 0.8782 0.8781 0.8778
2076.000000 0.8778 0.8775 0.8775 0.8773 0.8771
2081.000000 0.8768 0.8767 0.8765 0.8763 0.8761
2086.000000 0.8759 0.8757 0.8756 0.8754 0.8752
2091.000000 0.8750 0.8748 0.8746 0.8744 0.8742
2096.000000 0.8740 0.8738 0.8736 0.8733 0.8731
2101.000000 0.8728 0.8725 0.8721 0.8720 0.8717
2106.000000 0.8715 0.8712 0.8710 0.8707 0.8705
2111.000000 0.8702 0.8700 0.8697 0.8695 0.8692
2116.000000 0.8690 0.8687 0.8685 0.8682 0.8680
2121.000000 0.8677 0.8674 0.8671 0.8668 0.8665
2126.000000 0.8662 0.8659 0.8656 0.8653 0.8650
2131.000000 0.8647 0.8644 0.8641 0.8638 0.8634
2136.000000 0.8631 0.8628 0.8625 0.8621 0.8618
2141.000000 0.8615 0.8612 0.8609 0.8606 0.8602
2146.000000 0.8599 0.8595 0.8592 0.8589 0.8586
2151.000000 0.8582 0.8578 0.8575 0.8573 0.8568
2156.000000 0.8566 0.8562 0.8559 0.8556 0.8553
2161.000000 0.8549 0.8546 0.8542 0.8539 0.8536
2166.000000 0.8533 0.8528 0.8525 0.8525 0.8527
2171.000000 0.8528 0.8528 0.8535 0.8542 0.8551
2176.000000 0.8560 0.8568 0.8578 0.8571 0.8565
2181.000000 0.8553 0.8541 0.8528 0.8516 0.8504
2186.000000 0.8492 0.8482 0.8471 0.8462 0.8453
2191.000000 0.8444 0.8436 0.8431 0.8425 0.8420
2196.000000 0.8415 0.8411 0.8407 0.8403 0.8400
2201.000000 0.8397 0.8394 0.8390 0.8386 0.8382
2206.000000 0.8378 0.8373 0.8368 0.8364 0.8359
2211.000000 0.8353 0.8348 0.8343 0.8338 0.8332
2216.000000 0.8327 0.8321 0.8316 0.8310 0.8305
2221.000000 0.8298 0.8292 0.8284 0.8277 0.8268
2226.000000 0.8262 0.8254 0.8246 0.8238 0.8231
2231.000000 0.8225 0.8221 0.8215 0.8210 0.8204
2236.000000 0.8199 0.8193 0.8188 0.8182 0.8176
2241.000000 0.8171 0.8165 0.8160 0.8155 0.8150
2246.000000 0.8145 0.8139 0.8134 0.8128 0.8122
2251.000000 0.8117 0.8111 0.8107 0.8101 0.8097
2256.000000 0.8093 0.8089 0.8085 0.8080 0.8075
2261.000000 0.8071 0.8068 0.8065 0.8061 0.8057
2266.000000 0.8054 0.8050 0.8046 0.8042 0.8039
2271.000000 0.8035 0.8032 0.8031 0.8031 0.8030
2276.000000 0.8028 0.8028 0.8028 0.8026 0.8026
2281.000000 0.8025 0.8025 0.8024 0.8024 0.8022
2286.000000 0.8022 0.8024 0.8005 0.8025 0.8028
2291.000000 0.8030 0.8032 0.8033 0.8035 0.8037
2296.000000 0.8039 0.8040 0.8042 0.8044 0.8046
2301.000000 0.8048 0.8050 0.8051 0.8055 0.8057
2306.000000 0.8060 0.8061 0.8065 0.8067 0.8069
2311.000000 0.8071 0.8075 0.8078 0.8081 0.8083
2316.000000 0.8086 0.8089 0.8092 0.8095 0.8098
2321.000000 0.8100 0.8103 0.8106 0.8108 0.8111
2326.000000 0.8115 0.8118 0.8121 0.8124 0.8128
2331.000000 0.8131 0.8135 0.8138 0.8142 0.8146
2336.000000 0.8150 0.8153 0.8157 0.8160 0.8164
2341.000000 0.8167 0.8171 0.8175 0.8178 0.8182
2346.000000 0.8186 0.8189 0.8193 0.8197 0.8201
2351.000000 0.8204 0.8207 0.8210 0.8213 0.8215
2356.000000 0.8218 0.8221 0.8224 0.8227 0.8230
2361.000000 0.8232 0.8234 0.8236 0.8239 0.8241
2366.000000 0.8243 0.8245 0.8247 0.8249 0.8251
2371.000000 0.8253 0.8255 0.8257 0.8259 0.8261
2376.000000 0.8264 0.8266 0.8268 0.8268 0.8268
2381.000000 0.8270 0.8271 0.8271 0.8271 0.8273
2386.000000 0.8274 0.8274 0.8275 0.8275 0.8277
2391.000000 0.8277 0.8278 0.8278 0.8280 0.8281
2396.000000 0.8282 0.8283 0.8285 0.8286 0.8287
2401.000000 0.8288 0.8289 0.8291 0.8293 0.8295
2406.000000 0.8297 0.8299 0.8302 0.8304 0.8306
2411.000000 0.8308 0.8311 0.8313 0.8316 0.8318
2416.000000 0.8321 0.8325 0.8328 0.8331 0.8334
2421.000000 0.8337 0.8340 0.8342 0.8345 0.8348
2426.000000 0.8351 0.8353 0.8356 0.8358 0.8360
2431.000000 0.8362 0.8364 0.8365 0.8367 0.8368
2436.000000 0.8371 0.8373 0.8375 0.8375 0.8378
2441.000000 0.8380 0.8382 0.8384 0.8386 0.8387
2446.000000 0.8389 0.8390 0.8392 0.8392 0.8393
2451.000000 0.8394 0.8395 0.8395 0.8396 0.8396
2456.000000 0.8397 0.8398 0.8399 0.8399 0.8400
2461.000000 0.8400 0.8401 0.8402 0.8403 0.8403
2466.000000 0.8404 0.8404 0.8405 0.8406 0.8407
2471.000000 0.8407 0.8408 0.8408 0.8408 0.8408
2476.000000 0.8409 0.8409 0.8410 0.8410 0.8411
2481.000000 0.8411 0.8412 0.8412 0.8413 0.8413
2486.000000 0.8413 0.8413 0.8414 0.8414 0.8415
2491.000000 0.8415 0.8416 0.8416 0.8417 0.8417
2496.000000 0.8418 0.8418 0.8418 0.8418 0.8418
2501.000000 0.8418 0.8418 0.8418 0.8420 0.8420
2506.000000 0.8420 0.8420 0.8420 0.8420 0.8421
2511.000000 0.8421 0.8421 0.8421 0.8421 0.8421
2516.000000 0.8421 0.8421 0.8421 0.8421 0.8421
2521.000000 0.8421 0.8423 0.8423 0.8423 0.8423
2526.000000 0.8423 0.8423 0.8423 0.8421 0.8421
2531.000000 0.8421 0.8421 0.8420 0.8420 0.8418
2536.000000 0.8418 0.8417 0.8417 0.8416 0.8416
2541.000000 0.8415 0.8414 0.8413 0.8413 0.8412
2546.000000 0.8412 0.8411 0.8411 0.8410 0.8409
2551.000000 0.8408 0.8408 0.8407 0.8406 0.8403
2556.000000 0.8401 0.8398 0.8396 0.8393 0.8391
2561.000000 0.8388 0.8385 0.8382 0.8380 0.8377
2566.000000 0.8375 0.8371 0.8370 0.8367 0.8365
2571.000000 0.8362 0.8360 0.8357 0.8355 0.8352
2576.000000 0.8350 0.8347 0.8344 0.8340 0.8337
2581.000000 0.8333 0.8330 0.8325 0.8323 0.8318
2586.000000 0.8315 0.8311 0.8308 0.8304 0.8301
2591.000000 0.8297 0.8294 0.8290 0.8286 0.8282
2596.000000 0.8278 0.8275 0.8271 0.8268 0.8264
2601.000000 0.8260 0.8257 0.8253 0.8250 0.8246
2606.000000 0.8243 0.8239 0.8236 0.8232 0.8228
2611.000000 0.8225 0.8221 0.8218 0.8215 0.8211
2616.000000 0.8208 0.8204 0.8200 0.8197 0.8194
2621.000000 0.8191 0.8189 0.8186 0.8183 0.8180
2626.000000 0.8178 0.8175 0.8171 0.8168 0.8167
2631.000000 0.8164 0.8161 0.8160 0.8160 0.8158
2636.000000 0.8158 0.8157 0.8156 0.8155 0.8155
2641.000000 0.8155 0.8155 0.8155 0.8155 0.8155
2646.000000 0.8155 0.8155 0.8155 0.8155 0.8155
2651.000000 0.8154 0.8154 0.8153 0.8153 0.8153
2656.000000 0.8153 0.8151 0.8151 0.8151 0.8151
2661.000000 0.8150 0.8150 0.8150 0.8150 0.8149
2666.000000 0.8149 0.8147 0.8146 0.8145 0.8144
2671.000000 0.8142 0.8141 0.8140 0.8139 0.8137
2676.000000 0.8136 0.8135 0.8134 0.8132 0.8131
2681.000000 0.8130 0.8128 0.8125 0.8124 0.8121
2686.000000 0.8119 0.8117 0.8115 0.8112 0.8111
2691.000000 0.8108 0.8106 0.8104 0.8101 0.8097
2696.000000 0.8092 0.8086 0.8080 0.8072 0.8067
2701.000000 0.8061 0.8055 0.8049 0.8043 0.8036
2706.000000 0.8028 0.8021 0.8015 0.8008 0.8003
2711.000000 0.7996 0.7990 0.7983 0.7975 0.7968
2716.000000 0.7962 0.7956 0.7950 0.7943 0.7936
2721.000000 0.7928 0.7922 0.7915 0.7910 0.7903
2726.000000 0.7897 0.7890 0.7884 0.7876 0.7869
2731.000000 0.7862 0.7857 0.7850 0.7844 0.7837
2736.000000 0.7831 0.7824 0.7818 0.7811 0.7805
2741.000000 0.7798 0.7791 0.7783 0.7775 0.7765
2746.000000 0.7758 0.7750 0.7742 0.7733 0.7725
2751.000000 0.7717 0.7708 0.7698 0.7688 0.7676
2756.000000 0.7667 0.7656 0.7646 0.7635 0.7625
2761.000000 0.7614 0.7604 0.7593 0.7583 0.7567
2766.000000 0.7551 0.7535 0.7519 0.7504 0.7489
2771.000000 0.7472 0.7457 0.7441 0.7425 0.7408
2776.000000 0.7390 0.7369 0.7351 0.7331 0.7311
2781.000000 0.7291 0.7271 0.7250 0.7228 0.7205
2786.000000 0.7182 0.7158 0.7136 0.7111 0.7089
2791.000000 0.7065 0.7043 0.7012 0.6983 0.6953
2796.000000 0.6924 0.6894 0.6865 0.6835 0.6806
2801.000000 0.6775 0.6746 0.6715 0.6687 0.6658
2806.000000 0.6628 0.6599 0.6569 0.6540 0.6511
2811.000000 0.6481 0.6451 0.6410 0.6369 0.6326
2816.000000 0.6283 0.6239 0.6196 0.6133 0.6071
2821.000000 0.6006 0.5942 0.5874 0.5806 0.5737
2826.000000 0.5668 0.5595 0.5522 0.5442 0.5362
2831.000000 0.5272 0.5182 0.5037 0.4893 0.4758
2836.000000 0.4623 0.4390 0.4158 0.3843 0.3529
2841.000000 0.3307 0.3085 0.2864 0.2642 0.2420
2846.000000 0.2198 0.1976 0.1754 0.1533 0.1311
2851.000000 0.1089 0.0868 0.0646 0.0423 0.0381
2856.000000 0.0377 0.0341 0.0344 0.0935 0.1526
2861.000000 0.2290 0.3055 0.3677 0.4300 0.4304
2866.000000 0.4309 0.4307 0.4307 0.4297 0.4290
2871.000000 0.4276 0.4262 0.4241 0.4219 0.4195
2876.000000 0.4171 0.4148 0.4126 0.4103 0.4080
2881.000000 0.4021 0.3962 0.3849 0.3736 0.3623
2886.000000 0.3510 0.3398 0.3284 0.3172 0.3060
2891.000000 0.2947 0.2834 0.2721 0.2609 0.2496
2896.000000 0.2383 0.2270 0.2158 0.2044 0.1932
2901.000000 0.1819 0.1707 0.1594 0.1481 0.1368
2906.000000 0.1256 0.1142 0.1030 0.0917 0.0805
2911.000000 0.0692 0.0579 0.0465 0.0351 0.0314
2916.000000 0.0277 0.0267 0.0259 0.0258 0.0270
2921.000000 0.0261 0.0264 0.0267 0.0272 0.0280
2926.000000 0.0289 0.0316 0.0344 0.0560 0.0777
2931.000000 0.1024 0.1271 0.1518 0.1765 0.2012
2936.000000 0.2259 0.2506 0.2753 0.3000 0.3247
2941.000000 0.3494 0.3741 0.3988 0.4235 0.4482
2946.000000 0.4815 0.4764 0.4799 0.4801 0.4804
2951.000000 0.4655 0.4507 0.4331 0.4155 0.4000
2956.000000 0.3845 0.3846 0.3848 0.4070 0.3866
2961.000000 0.4555 0.4818 0.5080 0.5342 0.5604
2966.000000 0.5867 0.6129 0.6392 0.6654 0.6917
2971.000000 0.7150 0.7384 0.7448 0.7511 0.7558
2976.000000 0.7605 0.7646 0.7688 0.7718 0.7748
2981.000000 0.7818 0.7889 0.7975 0.8061 0.8164
2986.000000 0.8266 0.8291 0.8316 0.8335 0.8354
2991.000000 0.8371 0.8388 0.8398 0.8408 0.8418
2996.000000 0.8430 0.8441 0.8452 0.8458 0.8464
3001.000000 0.8468 0.8471 0.8475 0.8480 0.8484
3006.000000 0.8488 0.8492 0.8496 0.8499 0.8503
3011.000000 0.8506 0.8509 0.8511 0.8514 0.8517
3016.000000 0.8520 0.8521 0.8525 0.8528 0.8531
3021.000000 0.8533 0.8536 0.8538 0.8541 0.8543
3026.000000 0.8546 0.8548 0.8551 0.8553 0.8556
3031.000000 0.8558 0.8561 0.8563 0.8565 0.8567
3036.000000 0.8570 0.8571 0.8575 0.8577 0.8580
3041.000000 0.8582 0.8584 0.8586 0.8588 0.8590
3046.000000 0.8593 0.8595 0.8597 0.8599 0.8634
3051.000000 0.8603 0.8606 0.8608 0.8610 0.8612
3056.000000 0.8614 0.8616 0.8618 0.8618 0.8620
3061.000000 0.8621 0.8621 0.8623 0.8624 0.8625
3066.000000 0.8625 0.8627 0.8628 0.8628 0.8631
3071.000000 0.8632 0.8633 0.8634 0.8635 0.8636
3076.000000 0.8637 0.8638 0.8639 0.8640 0.8641
3081.000000 0.8642 0.8644 0.8645 0.8647 0.8649
3086.000000 0.8651 0.8652 0.8654 0.8655 0.8657
3091.000000 0.8659 0.8661 0.8662 0.8664 0.8666
3096.000000 0.8667 0.8667 0.8667 0.8666 0.8666
3101.000000 0.8665 0.8665 0.8664 0.8664 0.8663
3106.000000 0.8663 0.8662 0.8662 0.8661 0.8661
3111.000000 0.8661 0.8661 0.8660 0.8660 0.8659
3116.000000 0.8659 0.8658 0.8658 0.8657 0.8657
3121.000000 0.8656 0.8656 0.8655 0.8654 0.8653
3126.000000 0.8652 0.8651 0.8650 0.8648 0.8647
3131.000000 0.8646 0.8645 0.8644 0.8643 0.8641
3136.000000 0.8640 0.8639 0.8638 0.8637 0.8636
3141.000000 0.8634 0.8633 0.8632 0.8631 0.8630
3146.000000 0.8628 0.8627 0.8625 0.8621 0.8620
3151.000000 0.8618 0.8616 0.8614 0.8612 0.8609
3156.000000 0.8607 0.8605 0.8603 0.8600 0.8598
3161.000000 0.8596 0.8594 0.8591 0.8589 0.8587
3166.000000 0.8585 0.8582 0.8580 0.8578 0.8575
3171.000000 0.8574 0.8571 0.8568 0.8567 0.8565
3176.000000 0.8563 0.8560 0.8558 0.8556 0.8554
3181.000000 0.8551 0.8549 0.8547 0.8545 0.8542
3186.000000 0.8540 0.8538 0.8536 0.8533 0.8531
3191.000000 0.8528 0.8527 0.8524 0.8521 0.8518
3196.000000 0.8516 0.8513 0.8511 0.8508 0.8506
3201.000000 0.8503 0.8501 0.8498 0.8496 0.8493
3206.000000 0.8491 0.8488 0.8486 0.8483 0.8480
3211.000000 0.8477 0.8475 0.8471 0.8470 0.8467
3216.000000 0.8465 0.8462 0.8460 0.8457 0.8455
3221.000000 0.8452 0.8450 0.8447 0.8444 0.8440
3226.000000 0.8436 0.8432 0.8428 0.8424 0.8420
3231.000000 0.8416 0.8412 0.8408 0.8404 0.8400
3236.000000 0.8397 0.8393 0.8389 0.8385 0.8381
3241.000000 0.8377 0.8373 0.8368 0.8365 0.8361
3246.000000 0.8357 0.8353 0.8349 0.8345 0.8341
3251.000000 0.8337 0.8334 0.8328 0.8325 0.8321
3256.000000 0.8317 0.8313 0.8309 0.8305 0.8301
3261.000000 0.8297 0.8293 0.8289 0.8285 0.8280
3266.000000 0.8275 0.8271 0.8268 0.8264 0.8260
3271.000000 0.8256 0.8252 0.8248 0.8244 0.8240
3276.000000 0.8236 0.8232 0.8228 0.8223 0.8218
3281.000000 0.8215 0.8211 0.8207 0.8203 0.8199
3286.000000 0.8195 0.8191 0.8187 0.8183 0.8180
3291.000000 0.8176 0.8174 0.8169 0.8167 0.8162
3296.000000 0.8160 0.8156 0.8153 0.8150 0.8147
3301.000000 0.8143 0.8140 0.8136 0.8133 0.8128
3306.000000 0.8125 0.8122 0.8119 0.8115 0.8112
3311.000000 0.8108 0.8106 0.8101 0.8099 0.8096
3316.000000 0.8093 0.8089 0.8086 0.8082 0.8078
3321.000000 0.8072 0.8068 0.8062 0.8058 0.8051
3326.000000 0.8047 0.8042 0.8037 0.8032 0.8026
3331.000000 0.8021 0.8017 0.8011 0.8006 0.8001
3336.000000 0.7996 0.7991 0.7986 0.7981 0.7975
3341.000000 0.7969 0.7965 0.7960 0.7955 0.7950
3346.000000 0.7945 0.7939 0.7934 0.7925 0.7918
3351.000000 0.7911 0.7904 0.7896 0.7889 0.7882
3356.000000 0.7875 0.7867 0.7860 0.7851 0.7845
3361.000000 0.7837 0.7830 0.7822 0.7815 0.7808
3366.000000 0.7801 0.7793 0.7786 0.7775 0.7767
3371.000000 0.7757 0.7747 0.7737 0.7726 0.7715
3376.000000 0.7706 0.7696 0.7686 0.7675 0.7665
3381.000000 0.7655 0.7645 0.7631 0.7618 0.7603
3386.000000 0.7589 0.7574 0.7560 0.7545 0.7531
3391.000000 0.7515 0.7501 0.7486 0.7471 0.7456
3396.000000 0.7440 0.7422 0.7407 0.7390 0.7374
3401.000000 0.7357 0.7341 0.7324 0.7308 0.7291
3406.000000 0.7274 0.7255 0.7236 0.7217 0.7198
3411.000000 0.7182 0.7167 0.7156 0.7145 0.7133
3416.000000 0.7121 0.7114 0.7107 0.7101 0.7095
3421.000000 0.7094 0.7094 0.7094 0.7095 0.7097
3426.000000 0.7099 0.7101 0.7103 0.7105 0.7108
3431.000000 0.7111 0.7117 0.7121 0.7126 0.7132
3436.000000 0.7137 0.7142 0.7148 0.7155 0.7161
3441.000000 0.7168 0.7175 0.7183 0.7191 0.7198
3446.000000 0.7206 0.7212 0.7221 0.7228 0.7235
3451.000000 0.7242 0.7250 0.7258 0.7265 0.7278
3456.000000 0.7290 0.7301 0.7312 0.7325 0.7338
3461.000000 0.7353 0.7368 0.7385 0.7401 0.7415
3466.000000 0.7432 0.7447 0.7462 0.7478 0.7494
3471.000000 0.7508 0.7525 0.7540 0.7556 0.7571
3476.000000 0.7587 0.7601 0.7617 0.7631 0.7645
3481.000000 0.7658 0.7674 0.7688 0.7701 0.7715
3486.000000 0.7730 0.7744 0.7758 0.7771 0.7785
3491.000000 0.7796 0.7808 0.7818 0.7830 0.7841
3496.000000 0.7851 0.7862 0.7875 0.7884 0.7894
3501.000000 0.7901 0.7910 0.7918 0.7925 0.7934
3506.000000 0.7942 0.7950 0.7958 0.7965 0.7974
3511.000000 0.7978 0.7984 0.7987 0.7991 0.7994
3516.000000 0.7998 0.8001 0.8005 0.8008 0.8011
3521.000000 0.8015 0.8018 0.8021 0.8025 0.8028
3526.000000 0.8033 0.8036 0.8039 0.8041 0.8043
3531.000000 0.8044 0.8046 0.8048 0.8050 0.8051
3536.000000 0.8054 0.8056 0.8058 0.8058 0.8061
3541.000000 0.8062 0.8065 0.8067 0.8068 0.8069
3546.000000 0.8071 0.8071 0.8071 0.8071 0.8072
3551.000000 0.8074 0.8075 0.8075 0.8075 0.8075
3556.000000 0.8076 0.8076 0.8078 0.8078 0.8080
3561.000000 0.8080 0.8081 0.8081 0.8082 0.8082
3566.000000 0.8083 0.8083 0.8084 0.8084 0.8085
3571.000000 0.8085 0.8086 0.8086 0.8086 0.8086
3576.000000 0.8087 0.8087 0.8088 0.8089 0.8090
3581.000000 0.8091 0.8093 0.8094 0.8096 0.8097
3586.000000 0.8099 0.8100 0.8101 0.8103 0.8105
3591.000000 0.8106 0.8108 0.8108 0.8110 0.8111
3596.000000 0.8112 0.8114 0.8115 0.8117 0.8118
3601.000000 0.8119 0.8121 0.8121 0.8122 0.8124
3606.000000 0.8125 0.8125 0.8128 0.8128 0.8130
3611.000000 0.8131 0.8132 0.8133 0.8134 0.8135
3616.000000 0.8136 0.8137 0.8139 0.8140 0.8141
3621.000000 0.8142 0.8143 0.8144 0.8145 0.8145
3626.000000 0.8146 0.8146 0.8147 0.8148 0.8149
3631.000000 0.8149 0.8150 0.8151 0.8151 0.8151
3636.000000 0.8153 0.8153 0.8154 0.8155 0.8156
3641.000000 0.8156 0.8157 0.8157 0.8158 0.8158
3646.000000 0.8158 0.8158 0.8158 0.8158 0.8158
3651.000000 0.8158 0.8158 0.8158 0.8158 0.8158
3656.000000 0.8158 0.8157 0.8157 0.8157 0.8157
3661.000000 0.8157 0.8157 0.8156 0.8156 0.8156
3666.000000 0.8156 0.8156 0.8156 0.8156 0.8156
3671.000000 0.8155 0.8155 0.8155 0.8155 0.8155
3676.000000 0.8155 0.8154 0.8154 0.8154 0.8154
3681.000000 0.8154 0.8154 0.8153 0.8151 0.8151
3686.000000 0.8150 0.8149 0.8148 0.8147 0.8146
3691.000000 0.8145 0.8144 0.8143 0.8142 0.8141
3696.000000 0.8141 0.8140 0.8139 0.8138 0.8137
3701.000000 0.8136 0.8135 0.8134 0.8133 0.8132
3706.000000 0.8131 0.8130 0.8128 0.8128 0.8126
3711.000000 0.8125 0.8125 0.8124 0.8122 0.8121
3716.000000 0.8121 0.8119 0.8118 0.8118 0.8117
3721.000000 0.8115 0.8115 0.8114 0.8112 0.8111
3726.000000 0.8111 0.8110 0.8108 0.8108 0.8107
3731.000000 0.8106 0.8105 0.8103 0.8101 0.8100
3736.000000 0.8099 0.8097 0.8096 0.8094 0.8093
3741.000000 0.8092 0.8091 0.8089 0.8088 0.8086
3746.000000 0.8085 0.8083 0.8082 0.8080 0.8078
3751.000000 0.8078 0.8076 0.8075 0.8074 0.8071
3756.000000 0.8071 0.8069 0.8068 0.8067 0.8065
3761.000000 0.8065 0.8064 0.8061 0.8061 0.8060
3766.000000 0.8058 0.8058 0.8057 0.8055 0.8054
3771.000000 0.8053 0.8051 0.8050 0.8049 0.8048
3776.000000 0.8047 0.8046 0.8045 0.8044 0.8043
3781.000000 0.8042 0.8041 0.8040 0.8039 0.8038
3786.000000 0.8037 0.8036 0.8035 0.8034 0.8033
3791.000000 0.8032 0.8031 0.8030 0.8028 0.8028
3796.000000 0.8026 0.8026 0.8026
##END=
