##TITLE=METHYL P-NITRO BENZOATE
$$ E.K. (W.L.)
##JCAMP-DX=4.24
##DATA TYPE=INFRARED SPECTRUM
##CLASS=COBLENTZ
##ORIGIN=WYANDOTTE CHEMICALS CORP., WYANDOTTE, MICHIGAN, USA
##OWNER=COBLENTZ SOCIETY
Collection (C) 2018 copyright by the U.S. Secretary of Commerce
on behalf of the United States of America. All rights reserved.
##DATE=Not specified, most likely prior to 1970
##MOLFORM=C8 H9 N O4
##MP=94.5-96 C
##SOURCE REFERENCE=COBLENTZ NO. 343
##$NIST ID=B6000343
##$NIST SOURCE=COBLENTZ
##$NIST IMAGE=cob343
##SPECTROMETER/DATA SYSTEM=Not specified, most likely a prism, grating, or hybrid spectrometer.
##STATE=SOLID (MULL)
##SAMPLING PROCEDURE=TRANSMISSION
##RESOLUTION=4
##DATA PROCESSING=DIGITIZED BY NIST FROM HARD COPY
##XUNITS=MICROMETERS
##YUNITS=TRANSMITTANCE
##XFACTOR=1.000000
##YFACTOR=1
##DELTAX=000.006627
##FIRSTX=2.032
##LASTX=15.9822
##FIRSTY=0.529
##MAXX=15.9822
##MINX=2.032
##MAXY=0.97
##MINY=0.014
##NPOINTS=2106
##XYDATA=(X++(Y..Y))
2.032000 0.5290 0.5310 0.5310 0.5330 0.5330
2.065150 0.5330 0.5360 0.5380 0.5380 0.5390
2.099000 0.5410 0.5410 0.5430 0.5430 0.5440
2.132150 0.5460 0.5460 0.5460 0.5460 0.5460
2.165000 0.5460 0.5460 0.5460 0.5460 0.5460
2.198150 0.5460 0.5460 0.5460 0.5480 0.5480
2.231000 0.5490 0.5490 0.5490 0.5520 0.5540
2.264150 0.5540 0.5560 0.5560 0.5570 0.5570
2.298000 0.5560 0.5540 0.5560 0.5560 0.5590
2.331150 0.5610 0.5690 0.5710 0.5670 0.5660
2.364000 0.5620 0.5610 0.5620 0.5640 0.5670
2.397150 0.5690 0.5720 0.5760 0.5810 0.5870
2.430000 0.5920 0.5940 0.5990 0.5990 0.6000
2.463150 0.6000 0.6000 0.6040 0.6050 0.6070
2.496000 0.6090 0.6120 0.6140 0.6140 0.6100
2.529150 0.6100 0.6090 0.6100 0.6150 0.6240
2.563000 0.6240 0.6290 0.6340 0.6390 0.6420
2.596150 0.6450 0.6490 0.6490 0.6490 0.6500
2.629000 0.6500 0.6500 0.6530 0.6570 0.6570
2.662150 0.6520 0.6520 0.6520 0.6500 0.6500
2.695000 0.6550 0.6630 0.6650 0.6650 0.6650
2.728150 0.6620 0.6600 0.6580 0.6570 0.6580
2.761000 0.6580 0.6600 0.6580 0.6600 0.6620
2.794150 0.6670 0.6680 0.6700 0.6720 0.6720
2.828000 0.6720 0.6720 0.6720 0.6720 0.6700
2.861150 0.6700 0.6680 0.6670 0.6630 0.6630
2.894000 0.6620 0.6600 0.6600 0.6600 0.6580
2.927150 0.6530 0.6490 0.6440 0.6420 0.6390
2.960000 0.6400 0.6400 0.6450 0.6470 0.6470
2.993150 0.6500 0.6530 0.6570 0.6570 0.6580
3.027000 0.6580 0.6600 0.6600 0.6630 0.6700
3.060150 0.6750 0.6750 0.6800 0.6870 0.6870
3.093000 0.6880 0.6900 0.6900 0.6900 0.6900
3.126150 0.6880 0.6880 0.6880 0.6880 0.6880
3.159000 0.6830 0.6780 0.6720 0.6650 0.6650
3.192150 0.6570 0.6400 0.6220 0.6140 0.5910
3.225000 0.5340 0.5090 0.4830 0.4660 0.4630
3.258150 0.4500 0.4370 0.4000 0.3990 0.4070
3.292000 0.4380 0.4800 0.4880 0.4880 0.4810
3.325150 0.4480 0.4280 0.4100 0.3770 0.3270
3.358000 0.1930 0.1250 0.0290 0.0140 0.0140
3.391150 0.0190 0.0210 0.0280 0.0290 0.0330
3.424000 0.0360 0.0360 0.0410 0.0460 0.0460
3.457150 0.0480 0.0480 0.0490 0.0490 0.0510
3.490000 0.0510 0.0510 0.0510 0.0510 0.0690
3.523150 0.0970 0.1340 0.1830 0.2200 0.3020
3.557000 0.3360 0.3840 0.4130 0.4320 0.4420
3.590150 0.4480 0.4550 0.4650 0.4730 0.4780
3.623000 0.4830 0.4880 0.4950 0.5040 0.5080
3.656150 0.5080 0.5080 0.5060 0.5040 0.5010
3.689000 0.4960 0.4950 0.4960 0.4980 0.5000
3.722150 0.5080 0.5110 0.5130 0.5140 0.5140
3.755000 0.5160 0.5180 0.5190 0.5190 0.5240
3.788150 0.5280 0.5290 0.5310 0.5310 0.5330
3.822000 0.5340 0.5340 0.5340 0.5360 0.5360
3.855150 0.5380 0.5380 0.5380 0.5390 0.5410
3.888000 0.5460 0.5490 0.5510 0.5540 0.5590
3.921150 0.5640 0.5690 0.5720 0.5740 0.5760
3.954000 0.5770 0.5760 0.5710 0.5710 0.5690
3.987150 0.5720 0.5760 0.5810 0.5840 0.5870
4.021000 0.5910 0.5960 0.5990 0.6000 0.6020
4.054150 0.6020 0.6020 0.5990 0.6020 0.6040
4.087000 0.6050 0.6070 0.6070 0.6000 0.5990
4.120150 0.5940 0.5920 0.5920 0.5920 0.5960
4.153000 0.5970 0.5990 0.6000 0.6040 0.6070
4.186150 0.6100 0.6140 0.6140 0.6150 0.6140
4.219000 0.6120 0.6090 0.6090 0.6040 0.6020
4.252150 0.5960 0.5920 0.5860 0.5820 0.5810
4.286000 0.5790 0.5820 0.5860 0.5910 0.5960
4.319150 0.6000 0.6040 0.6090 0.6120 0.6190
4.352000 0.6250 0.6340 0.6370 0.6450 0.6520
4.385150 0.6570 0.6600 0.6600 0.6580 0.6580
4.418000 0.6580 0.6570 0.6550 0.6550 0.6500
4.451150 0.6500 0.6500 0.6500 0.6520 0.6620
4.484000 0.6670 0.6700 0.6720 0.6750 0.6780
4.517150 0.6800 0.6800 0.6830 0.6850 0.6850
4.551000 0.6850 0.6850 0.6850 0.6850 0.6830
4.584150 0.6830 0.6820 0.6820 0.6800 0.6800
4.617000 0.6820 0.6870 0.6900 0.6950 0.7000
4.650150 0.7050 0.7100 0.7110 0.7130 0.7150
4.683000 0.7180 0.7210 0.7230 0.7250 0.7250
4.716150 0.7260 0.7280 0.7280 0.7300 0.7330
4.750000 0.7360 0.7380 0.7400 0.7400 0.7410
4.783150 0.7430 0.7430 0.7450 0.7480 0.7480
4.816000 0.7480 0.7460 0.7480 0.7480 0.7500
4.849150 0.7500 0.7510 0.7510 0.7530 0.7560
4.882000 0.7580 0.7560 0.7480 0.7480 0.7480
4.915150 0.7480 0.7500 0.7560 0.7630 0.7710
4.948000 0.7760 0.7810 0.7830 0.7890 0.7910
4.981150 0.7940 0.7980 0.7980 0.8010 0.8010
5.015000 0.8020 0.8020 0.8040 0.8040 0.8070
5.048150 0.8110 0.8120 0.8140 0.8160 0.8170
5.081000 0.8190 0.8220 0.8270 0.8310 0.8310
5.114150 0.8270 0.8270 0.8240 0.8190 0.8140
5.147000 0.7990 0.7740 0.7610 0.7500 0.7300
5.180150 0.7260 0.7260 0.7330 0.7540 0.7730
5.213000 0.7890 0.8020 0.8140 0.8240 0.8320
5.246150 0.8370 0.8410 0.8410 0.8410 0.8460
5.280000 0.8500 0.8590 0.8690 0.8790 0.8850
5.313150 0.8920 0.8950 0.8970 0.9030 0.9100
5.346000 0.9130 0.9130 0.9170 0.9180 0.9180
5.379150 0.9220 0.9230 0.9230 0.9280 0.9280
5.412000 0.9280 0.9280 0.9250 0.9200 0.9150
5.445150 0.9120 0.9070 0.9120 0.9170 0.9250
5.478000 0.9330 0.9500 0.9530 0.9530 0.9500
5.511150 0.9280 0.9150 0.9030 0.8850 0.8700
5.545000 0.8670 0.8690 0.8850 0.9020 0.9150
5.578150 0.9280 0.9380 0.9510 0.9660 0.9700
5.611000 0.9700 0.9700 0.9700 0.9630 0.9420
5.644150 0.9380 0.9230 0.9170 0.9080 0.9030
5.677000 0.8970 0.8920 0.8850 0.8650 0.8340
5.710150 0.7960 0.7500 0.6980 0.6440 0.5840
5.744000 0.5210 0.4900 0.4580 0.3940 0.3320
5.777150 0.2710 0.2130 0.1600 0.1120 0.0610
5.810000 0.0520 0.0490 0.0480 0.0490 0.0520
5.843150 0.0570 0.0610 0.0640 0.0790 0.1000
5.876000 0.1240 0.1440 0.1670 0.1900 0.2150
5.909150 0.2400 0.2630 0.2830 0.2980 0.3090
5.942000 0.3210 0.3220 0.3240 0.3240 0.3270
5.975150 0.3440 0.3600 0.3890 0.4130 0.4380
6.009000 0.4580 0.4760 0.4880 0.4900 0.4910
6.042150 0.4910 0.4950 0.5510 0.5890 0.5990
6.075000 0.6020 0.6040 0.6070 0.6100 0.6730
6.108150 0.6750 0.6770 0.6780 0.6800 0.6800
6.141000 0.6870 0.7030 0.7030 0.7030 0.6290
6.174150 0.5640 0.4980 0.2580 0.2310 0.2130
6.207000 0.2110 0.2130 0.2210 0.2300 0.2360
6.240150 0.2450 0.2530 0.2590 0.3490 0.4020
6.274000 0.4330 0.4510 0.4680 0.4960 0.5610
6.307150 0.5740 0.5740 0.5740 0.5740 0.5740
6.340000 0.5770 0.5990 0.6090 0.6200 0.6270
6.373150 0.6340 0.6440 0.6570 0.6770 0.7050
6.406000 0.7260 0.7360 0.7380 0.7380 0.7380
6.439150 0.7250 0.7100 0.6870 0.6500 0.5890
6.472000 0.5130 0.4350 0.3600 0.2930 0.2210
6.505150 0.1500 0.0740 0.0310 0.0310 0.0310
6.539000 0.0340 0.0380 0.0410 0.0430 0.0460
6.572150 0.0510 0.0610 0.0720 0.0790 0.0920
6.605000 0.0990 0.1070 0.1200 0.1390 0.1630
6.638150 0.1930 0.2280 0.2350 0.2430 0.2510
6.671000 0.2630 0.2740 0.2860 0.2980 0.3090
6.704150 0.3210 0.3310 0.3390 0.3410 0.3410
6.738000 0.3390 0.3340 0.3240 0.3140 0.3070
6.771150 0.2960 0.2790 0.2530 0.2180 0.1720
6.804000 0.1550 0.1450 0.1390 0.1320 0.1270
6.837150 0.1250 0.1270 0.1390 0.1390 0.1390
6.870000 0.1290 0.1090 0.0990 0.0910 0.0720
6.903150 0.0560 0.0380 0.0360 0.0380 0.0430
6.936000 0.0560 0.0860 0.1420 0.1870 0.2250
6.969150 0.2590 0.2940 0.3290 0.3670 0.4120
7.003000 0.4650 0.4950 0.5210 0.5360 0.5360
7.036150 0.5090 0.5010 0.4930 0.4730 0.4150
7.069000 0.3920 0.3920 0.4470 0.4800 0.5280
7.102150 0.5480 0.5660 0.5660 0.5670 0.5670
7.135000 0.5590 0.5340 0.5230 0.5110 0.5030
7.168150 0.5000 0.4950 0.4860 0.4750 0.4600
7.201000 0.4330 0.4200 0.4120 0.3990 0.3840
7.234150 0.3650 0.3460 0.3270 0.3110 0.2960
7.268000 0.2830 0.2760 0.2730 0.2710 0.2660
7.301150 0.2450 0.2230 0.2080 0.1770 0.1520
7.334000 0.1520 0.1520 0.1520 0.1880 0.1880
7.367150 0.1870 0.1830 0.1630 0.1370 0.0960
7.400000 0.0660 0.0410 0.0310 0.0310 0.0330
7.433150 0.0330 0.0330 0.0380 0.0460 0.0490
7.467000 0.0510 0.0540 0.0660 0.0890 0.1040
7.500150 0.1200 0.1320 0.1390 0.1340 0.1200
7.533000 0.1070 0.1000 0.0910 0.0890 0.0890
7.566150 0.0890 0.0910 0.0940 0.1000 0.1070
7.599000 0.1170 0.1270 0.1370 0.1390 0.1390
7.632150 0.1390 0.1390 0.1350 0.1090 0.0960
7.665000 0.0890 0.0820 0.0790 0.0790 0.0840
7.698150 0.0960 0.1050 0.1050 0.1000 0.0870
7.732000 0.0760 0.0620 0.0540 0.0440 0.0390
7.765150 0.0330 0.0310 0.0310 0.0330 0.0340
7.798000 0.0340 0.0340 0.0360 0.0340 0.0340
7.831150 0.0330 0.0310 0.0310 0.0310 0.0340
7.864000 0.0380 0.0390 0.0410 0.0440 0.0520
7.897150 0.0590 0.0660 0.0720 0.0810 0.0890
7.930000 0.0970 0.1050 0.1140 0.1240 0.1290
7.963150 0.1340 0.1390 0.1400 0.1420 0.1440
7.997000 0.1420 0.1420 0.1440 0.1450 0.1470
8.030150 0.1500 0.1530 0.1600 0.1670 0.1770
8.063000 0.1880 0.2010 0.2180 0.2260 0.2350
8.096150 0.2430 0.2510 0.2610 0.2690 0.2780
8.129000 0.2860 0.2940 0.2990 0.3120 0.3260
8.162150 0.3370 0.3440 0.3500 0.3570 0.3640
8.195000 0.3740 0.3870 0.3940 0.3950 0.3970
8.228150 0.4000 0.4000 0.4030 0.4070 0.4150
8.262000 0.4230 0.4280 0.4330 0.4370 0.4380
8.295150 0.4380 0.4330 0.4220 0.4070 0.3890
8.328000 0.3690 0.3470 0.3240 0.2980 0.2940
8.361150 0.2940 0.2980 0.3110 0.3290 0.3490
8.394000 0.3690 0.3900 0.4080 0.4230 0.4420
8.427150 0.4560 0.4680 0.4800 0.4880 0.4960
8.461000 0.5060 0.5080 0.5080 0.5060 0.5030
8.494150 0.4980 0.4910 0.4760 0.4630 0.4560
8.527000 0.4470 0.4400 0.4400 0.4420 0.4530
8.560150 0.4610 0.4680 0.4730 0.4760 0.4810
8.593000 0.4850 0.4880 0.4910 0.4960 0.5060
8.626150 0.5140 0.5240 0.5340 0.5360 0.5390
8.659000 0.5430 0.5490 0.5540 0.5610 0.5690
8.692150 0.5770 0.5840 0.5920 0.5990 0.6040
8.726000 0.6100 0.6190 0.6290 0.6390 0.6470
8.759150 0.6550 0.6620 0.6630 0.6650 0.6700
8.792000 0.6780 0.6900 0.6980 0.6980 0.6980
8.825150 0.6980 0.6980 0.6980 0.6870 0.6820
8.858000 0.6730 0.6620 0.6490 0.6340 0.6100
8.891150 0.5690 0.5110 0.4930 0.4730 0.4150
8.924000 0.3590 0.3260 0.2310 0.1470 0.1340
8.957150 0.1300 0.1340 0.1900 0.2160 0.2410
8.991000 0.2880 0.2840 0.2540 0.2030 0.1350
9.024150 0.0920 0.0710 0.0560 0.0430 0.0410
9.057000 0.0440 0.0590 0.0720 0.0890 0.1070
9.090150 0.1290 0.1520 0.1750 0.2000 0.2230
9.123000 0.2450 0.2640 0.2810 0.2980 0.3110
9.156150 0.3240 0.3360 0.3470 0.3570 0.3670
9.190000 0.3750 0.3840 0.3920 0.3990 0.4030
9.223150 0.4100 0.4100 0.4100 0.4100 0.4100
9.256000 0.4100 0.4100 0.4100 0.4120 0.4170
9.289150 0.4250 0.4330 0.4430 0.4550 0.4630
9.322000 0.4710 0.4760 0.4850 0.4900 0.4950
9.355150 0.4980 0.5060 0.5110 0.5140 0.5210
9.388000 0.5280 0.5340 0.5360 0.5410 0.5460
9.421150 0.5510 0.5510 0.5520 0.5560 0.5560
9.455000 0.5570 0.5620 0.5690 0.5710 0.5720
9.488150 0.5720 0.5740 0.5760 0.5790 0.5790
9.521000 0.5820 0.5890 0.5920 0.5940 0.5960
9.554150 0.5970 0.5970 0.5990 0.6000 0.6000
9.587000 0.6020 0.6050 0.6070 0.6090 0.6120
9.620150 0.6120 0.6140 0.6170 0.6190 0.6220
9.653000 0.6250 0.6290 0.6320 0.6390 0.6400
9.686150 0.6400 0.6320 0.6320 0.6340 0.6390
9.720000 0.6400 0.6400 0.6440 0.6470 0.6490
9.753150 0.6500 0.6520 0.6530 0.6550 0.6550
9.786000 0.6570 0.6580 0.6570 0.6570 0.6570
9.819150 0.6570 0.6530 0.6400 0.6170 0.5720
9.852000 0.5340 0.5060 0.4780 0.3890 0.3500
9.885150 0.3500 0.3620 0.4130 0.4550 0.4910
9.918000 0.5440 0.5640 0.5790 0.5910 0.6000
9.951150 0.6070 0.6140 0.6190 0.6240 0.6290
9.985000 0.6370 0.6450 0.6520 0.6550 0.6580
10.018150 0.6600 0.6620 0.6620 0.6630 0.6630
10.051000 0.6650 0.6670 0.6700 0.6730 0.6770
10.084150 0.6820 0.6850 0.6870 0.6850 0.6820
10.117000 0.6800 0.6800 0.6750 0.6650 0.6370
10.150150 0.6150 0.6000 0.5810 0.5790 0.5860
10.184000 0.6000 0.6050 0.6200 0.6420 0.6580
10.217150 0.6620 0.6670 0.6680 0.6720 0.6720
10.250000 0.6680 0.6580 0.6490 0.6390 0.6150
10.283150 0.5860 0.5620 0.5560 0.5570 0.5760
10.316000 0.5990 0.6000 0.6000 0.6000 0.5990
10.349150 0.5640 0.5310 0.5140 0.4980 0.4680
10.382000 0.4380 0.4100 0.3820 0.3550 0.3310
10.415150 0.3170 0.3040 0.2940 0.2810 0.2690
10.449000 0.2530 0.2400 0.2400 0.2360 0.2380
10.482150 0.2530 0.2580 0.2710 0.2930 0.3190
10.515000 0.3490 0.3770 0.4020 0.4220 0.4400
10.548150 0.4560 0.4710 0.4850 0.4980 0.5230
10.581000 0.5330 0.5430 0.5510 0.5590 0.5670
10.614150 0.5740 0.5790 0.5840 0.5910 0.5960
10.647000 0.6000 0.6050 0.6100 0.6150 0.6200
10.680150 0.6250 0.6300 0.6350 0.6390 0.6400
10.714000 0.6420 0.6450 0.6450 0.6470 0.6490
10.747150 0.6520 0.6530 0.6570 0.6580 0.6620
10.780000 0.6650 0.6670 0.6680 0.6680 0.6700
10.813150 0.6720 0.6730 0.6730 0.6750 0.6780
10.846000 0.6850 0.6870 0.6880 0.6880 0.6880
10.879150 0.6900 0.6900 0.6900 0.6930 0.6930
10.913000 0.6950 0.6950 0.6950 0.6950 0.6970
10.946150 0.6970 0.6980 0.6980 0.7000 0.7000
10.979000 0.7010 0.7010 0.7010 0.7030 0.7030
11.012150 0.7050 0.7060 0.7060 0.7060 0.7080
11.045000 0.7080 0.7100 0.7110 0.7130 0.7130
11.078150 0.7130 0.7110 0.7100 0.7060 0.7060
11.111000 0.7050 0.7030 0.7030 0.7010 0.7010
11.144150 0.7010 0.6980 0.6950 0.6950 0.6920
11.178000 0.6880 0.6850 0.6780 0.6720 0.6650
11.211150 0.6600 0.6570 0.6530 0.6520 0.6500
11.244000 0.6450 0.6420 0.6350 0.6320 0.6270
11.277150 0.6220 0.6170 0.6120 0.6050 0.5970
11.310000 0.5870 0.5760 0.5590 0.5410 0.5190
11.343150 0.5090 0.4980 0.4800 0.4600 0.4400
11.376000 0.4170 0.3870 0.3500 0.3040 0.2460
11.409150 0.2300 0.2060 0.1880 0.1850 0.1870
11.443000 0.2100 0.2350 0.2780 0.3120 0.3440
11.476150 0.3850 0.4020 0.4450 0.5560 0.5990
11.509000 0.6420 0.6780 0.7110 0.7380 0.7630
11.542150 0.7860 0.8070 0.8270 0.8490 0.8720
11.575000 0.8790 0.8820 0.8820 0.8790 0.8690
11.608150 0.8590 0.8440 0.8210 0.7830 0.7230
11.641000 0.6400 0.5240 0.4960 0.4680 0.4150
11.674150 0.3690 0.3310 0.3040 0.2890 0.2710
11.708000 0.2690 0.2730 0.3390 0.3970 0.4470
11.741150 0.4750 0.5920 0.6090 0.6400 0.6550
11.774000 0.6570 0.6680 0.7050 0.7300 0.7330
11.807150 0.7350 0.7410 0.7450 0.7500 0.7530
11.840000 0.7590 0.7640 0.7680 0.7680 0.7690
11.873150 0.7690 0.7680 0.7610 0.7530 0.7460
11.907000 0.7380 0.7260 0.7110 0.6930 0.6670
11.940150 0.6150 0.5770 0.5570 0.5360 0.5190
11.973000 0.5140 0.5140 0.5210 0.5620 0.5970
12.006150 0.6290 0.6580 0.6820 0.7050 0.7230
12.039000 0.7380 0.7510 0.7630 0.7710 0.7780
12.072150 0.7810 0.7840 0.7860 0.7860 0.7840
12.105000 0.7760 0.7590 0.7330 0.7010 0.6650
12.138150 0.6220 0.5740 0.5230 0.4960 0.4700
12.172000 0.4130 0.3550 0.2980 0.2410 0.1830
12.205150 0.1620 0.1400 0.1300 0.1270 0.1270
12.238000 0.1300 0.1490 0.1600 0.1750 0.1920
12.271150 0.2100 0.2310 0.2540 0.2780 0.3020
12.304000 0.3290 0.3570 0.3850 0.4120 0.4200
12.337150 0.4380 0.4630 0.4900 0.5290 0.5340
12.370000 0.5440 0.5560 0.5640 0.5740 0.5840
12.403150 0.5920 0.6020 0.6090 0.6150 0.6190
12.437000 0.6220 0.6270 0.6340 0.6390 0.6440
12.470150 0.6490 0.6520 0.6520 0.6570 0.6580
12.503000 0.6600 0.6620 0.6620 0.6650 0.6670
12.536150 0.6680 0.6700 0.6700 0.6680 0.6680
12.569000 0.6670 0.6670 0.6670 0.6650 0.6620
12.602150 0.6580 0.6550 0.6530 0.6530 0.6500
12.636000 0.6470 0.6440 0.6400 0.6370 0.6370
12.669150 0.6340 0.6290 0.6170 0.5940 0.5610
12.702000 0.5490 0.5340 0.5160 0.5040 0.4910
12.735150 0.4600 0.4200 0.3690 0.3160 0.3010
12.768000 0.3090 0.3940 0.4350 0.4780 0.5660
12.801150 0.6070 0.7130 0.7250 0.7380 0.7400
12.834000 0.7450 0.7500 0.7560 0.7630 0.7690
12.867150 0.7740 0.7760 0.7760 0.7760 0.7740
12.901000 0.7680 0.7660 0.7640 0.7630 0.7610
12.934150 0.7630 0.7680 0.7680 0.7640 0.7610
12.967000 0.7560 0.7540 0.7540 0.7530 0.7500
13.000150 0.7460 0.7430 0.7430 0.7410 0.7410
13.033000 0.7500 0.7500 0.7500 0.7480 0.7480
13.066150 0.7450 0.7430 0.7430 0.7460 0.7460
13.099000 0.7460 0.7450 0.7450 0.7410 0.7360
13.132150 0.7310 0.7300 0.7300 0.7330 0.7330
13.166000 0.7330 0.7300 0.7260 0.7230 0.7210
13.199150 0.7200 0.7180 0.7130 0.7110 0.7130
13.232000 0.7130 0.7110 0.7080 0.7080 0.7050
13.265150 0.7030 0.7010 0.7000 0.6970 0.6920
13.298000 0.6870 0.6870 0.6830 0.6820 0.6770
13.331150 0.6720 0.6650 0.6650 0.6630 0.6620
13.364000 0.6580 0.6570 0.6550 0.6520 0.6500
13.397150 0.6470 0.6450 0.6440 0.6370 0.6320
13.431000 0.6290 0.6270 0.6240 0.6150 0.6100
13.464150 0.6070 0.6050 0.6020 0.6000 0.6000
13.497000 0.5970 0.5860 0.5760 0.5710 0.5660
13.530150 0.5620 0.5570 0.5540 0.5490 0.5440
13.563000 0.5390 0.5310 0.5230 0.5160 0.5090
13.596150 0.5040 0.5010 0.5000 0.4960 0.4900
13.630000 0.4810 0.4660 0.4630 0.4550 0.4470
13.663150 0.4380 0.4300 0.4220 0.4150 0.4050
13.696000 0.3970 0.3890 0.3800 0.3700 0.3620
13.729150 0.3520 0.3420 0.3310 0.3190 0.3070
13.762000 0.2960 0.2830 0.2680 0.2530 0.2400
13.795150 0.2230 0.2080 0.1920 0.1750 0.1600
13.828000 0.1450 0.1340 0.1240 0.1100 0.1000
13.861150 0.0920 0.0870 0.0840 0.0790 0.0770
13.895000 0.0720 0.0670 0.0620 0.0620 0.0610
13.928150 0.0610 0.0620 0.0620 0.0670 0.0740
13.961000 0.0790 0.0840 0.0890 0.0940 0.1000
13.994150 0.1090 0.1190 0.1300 0.1440 0.1600
14.027000 0.1780 0.2010 0.2250 0.2360 0.2660
14.060150 0.2990 0.3170 0.3470 0.3590 0.3720
14.093000 0.3850 0.4020 0.4150 0.4280 0.4380
14.126150 0.4400 0.4430 0.4430 0.4320 0.4200
14.160000 0.4170 0.4120 0.4100 0.4070 0.4100
14.193150 0.4270 0.4530 0.4850 0.5490 0.5720
14.226000 0.5960 0.6170 0.6370 0.6570 0.6750
14.259150 0.6920 0.7060 0.7210 0.7360 0.7500
14.292000 0.7610 0.7730 0.7830 0.7930 0.8010
14.325150 0.8090 0.8160 0.8220 0.8290 0.8340
14.359000 0.8390 0.8420 0.8440 0.8470 0.8500
14.392150 0.8550 0.8600 0.8640 0.8690 0.8720
14.425000 0.8740 0.8750 0.8790 0.8790 0.8800
14.458150 0.8800 0.8840 0.8840 0.8870 0.8890
14.491000 0.8900 0.8940 0.8950 0.8950 0.8990
14.524150 0.9000 0.9000 0.9000 0.9000 0.9000
14.557000 0.8990 0.8990 0.8990 0.8990 0.8970
14.590150 0.8990 0.8990 0.9000 0.8990 0.8990
14.624000 0.8970 0.8990 0.8990 0.9030 0.9050
14.657150 0.9030 0.9030 0.9020 0.9020 0.9020
14.690000 0.9000 0.9020 0.9020 0.9020 0.9000
14.723150 0.9020 0.9000 0.9000 0.9000 0.9000
14.756000 0.8970 0.8950 0.8940 0.8940 0.8920
14.789150 0.8920 0.8920 0.8900 0.8870 0.8850
14.822000 0.8840 0.8840 0.8840 0.8820 0.8840
14.855150 0.8840 0.8820 0.8800 0.8790 0.8770
14.889000 0.8790 0.8770 0.8770 0.8790 0.8790
14.922150 0.8790 0.8790 0.8790 0.8790 0.8750
14.955000 0.8720 0.8700 0.8690 0.8670 0.8600
14.988150 0.8570 0.8500 0.8440 0.8360 0.8270
15.021000 0.8190 0.8090 0.7990 0.7910 0.7810
15.054150 0.7710 0.7630 0.7540 0.7480 0.7430
15.087000 0.7430 0.7430 0.7460 0.7580 0.7680
15.120150 0.7760 0.7840 0.7930 0.7990 0.8060
15.154000 0.8110 0.8170 0.8220 0.8260 0.8290
15.187150 0.8310 0.8360 0.8370 0.8370 0.8360
15.220000 0.8290 0.8240 0.8220 0.8190 0.8170
15.253150 0.8140 0.8110 0.8090 0.8070 0.8060
15.286000 0.7990 0.7890 0.7840 0.7830 0.7840
15.319150 0.7840 0.7840 0.7830 0.7810 0.7790
15.353000 0.7760 0.7730 0.7710 0.7690 0.7680
15.386150 0.7630 0.7590 0.7580 0.7580 0.7540
15.419000 0.7540 0.7530 0.7510 0.7480 0.7430
15.452150 0.7410 0.7350 0.7330 0.7310 0.7280
15.485000 0.7260 0.7250 0.7230 0.7230 0.7160
15.518150 0.7130 0.7110 0.7080 0.7050 0.7030
15.551000 0.7010 0.7010 0.7010 0.7010 0.7100
15.584150 0.7080 0.7060 0.7050 0.7010 0.7000
15.618000 0.6970 0.6930 0.6900 0.6870 0.6830
15.651150 0.6820 0.6780 0.6770 0.6750 0.6720
15.684000 0.6700 0.6680 0.6670 0.6630 0.6600
15.717150 0.6550 0.6500 0.6490 0.6450 0.6420
15.750000 0.6390 0.6370 0.6350 0.6350 0.6350
15.783150 0.6350 0.6340 0.6340 0.6320 0.6320
15.816000 0.6290 0.6290 0.6270 0.6250 0.6220
15.849150 0.6190 0.6170 0.6140 0.6100 0.6070
15.883000 0.6020 0.5990 0.5960 0.5920 0.5890
15.916150 0.5860 0.5840 0.5770 0.5740 0.5690
15.949000 0.5640 0.5640 0.5610 0.5570 0.5540
15.982150 0.5570
##END=
