##TITLE=HEXAMETHYLENE TETRAAMINE ETHIODIDE
$$ E.K. (W.L.)
##JCAMP-DX=4.24
##DATA TYPE=INFRARED SPECTRUM
##CLASS=COBLENTZ
##ORIGIN=WYANDOTTE CHEMICALS CORP., WYANDOTTE, MICHIGAN, USA
##OWNER=COBLENTZ SOCIETY
Collection (C) 2018 copyright by the U.S. Secretary of Commerce
on behalf of the United States of America. All rights reserved.
##DATE=Not specified, most likely prior to 1970
##NAMES=1-iodoethane compound with 1,3,5,7-tetraazatricyclo[3.3.1.1<3,7>]decane (1:1)
##MOLFORM=C8 H17 I N4
##MP=150-152 C DECOMPOSES
##SOURCE REFERENCE=COBLENTZ NO. 431
##$NIST ID=B6000431
##$NIST SOURCE=COBLENTZ
##$NIST IMAGE=cob431
##SPECTROMETER/DATA SYSTEM=Not specified, most likely a prism, grating, or hybrid spectrometer.
##STATE=SOLID (MINERAL OIL MULL)
##SAMPLING PROCEDURE=TRANSMISSION
##RESOLUTION=4
##DATA PROCESSING=DIGITIZED BY NIST FROM HARD COPY
##XUNITS=MICROMETERS
##YUNITS=TRANSMITTANCE
##XFACTOR=1.000000
##YFACTOR=1
##DELTAX=000.006636
##FIRSTX=2.038
##LASTX=15.9995
##FIRSTY=0.378
##MAXX=15.9995
##MINX=2.038
##MAXY=0.968
##MINY=0.025
##NPOINTS=2105
##XYDATA=(X++(Y..Y))
2.038000 0.3780 0.3780 0.3800 0.3800 0.3800
2.071194 0.3820 0.3820 0.3820 0.3820 0.3820
2.104000 0.3800 0.3770 0.3720 0.3650 0.3620
2.137194 0.3600 0.3580 0.3580 0.3580 0.3580
2.171000 0.3570 0.3570 0.3570 0.3570 0.3570
2.204194 0.3570 0.3570 0.3570 0.3570 0.3570
2.237000 0.3570 0.3580 0.3600 0.3630 0.3650
2.270194 0.3670 0.3700 0.3730 0.3780 0.3800
2.303000 0.3820 0.3830 0.3830 0.3830 0.3870
2.336194 0.3870 0.3880 0.3900 0.3900 0.3920
2.370000 0.3930 0.3930 0.3950 0.3970 0.3970
2.403194 0.3970 0.3970 0.3970 0.3970 0.3970
2.436000 0.3970 0.3980 0.4000 0.4020 0.4020
2.469194 0.4040 0.4050 0.4050 0.4070 0.4090
2.502000 0.4100 0.4120 0.4140 0.4140 0.4140
2.535194 0.4140 0.4140 0.4150 0.4170 0.4170
2.569000 0.4190 0.4190 0.4190 0.4200 0.4220
2.602194 0.4220 0.4240 0.4270 0.4290 0.4300
2.635000 0.4320 0.4320 0.4340 0.4340 0.4340
2.668194 0.4350 0.4370 0.4370 0.4370 0.4370
2.701000 0.4390 0.4390 0.4400 0.4420 0.4420
2.734194 0.4420 0.4420 0.4420 0.4420 0.4420
2.768000 0.4400 0.4390 0.4340 0.4320 0.4270
2.801194 0.4100 0.4050 0.4020 0.4000 0.4000
2.834000 0.4000 0.4000 0.4000 0.4000 0.4000
2.867194 0.4020 0.4000 0.4000 0.4000 0.4000
2.900000 0.4020 0.4020 0.4040 0.4040 0.4050
2.933194 0.4070 0.4090 0.4100 0.4100 0.4120
2.967000 0.4120 0.4140 0.4140 0.4190 0.4220
3.000194 0.4220 0.4270 0.4290 0.4300 0.4320
3.033000 0.4350 0.4350 0.4350 0.4350 0.4350
3.066194 0.4350 0.4350 0.4350 0.4370 0.4370
3.100000 0.4370 0.4370 0.4370 0.4370 0.4350
3.133194 0.4350 0.4350 0.4350 0.4350 0.4340
3.166000 0.4340 0.4340 0.4320 0.4320 0.4300
3.199194 0.4300 0.4220 0.4140 0.4040 0.3930
3.232000 0.3800 0.3630 0.3420 0.3280 0.3130
3.265194 0.2800 0.2050 0.1630 0.1210 0.0750
3.299000 0.0450 0.0330 0.0280 0.0260 0.0260
3.332194 0.0250 0.0260 0.0260 0.0260 0.0280
3.365000 0.0280 0.0260 0.0280 0.0280 0.0300
3.398194 0.0310 0.0350 0.0360 0.0360 0.0360
3.431000 0.0360 0.0400 0.0460 0.0560 0.0660
3.464194 0.1030 0.1430 0.2370 0.2850 0.3820
3.498000 0.4270 0.4650 0.4970 0.5290 0.5450
3.531194 0.5570 0.5690 0.5750 0.5840 0.5870
3.564000 0.5920 0.5990 0.6010 0.6010 0.6010
3.597194 0.6010 0.5990 0.5870 0.5840 0.5790
3.630000 0.5770 0.5750 0.5740 0.5720 0.5720
3.663194 0.5700 0.5700 0.5700 0.5700 0.5700
3.697000 0.5700 0.5720 0.5720 0.5740 0.5770
3.730194 0.5790 0.5800 0.5840 0.5900 0.5950
3.763000 0.5990 0.6010 0.6020 0.6040 0.6060
3.796194 0.6060 0.6110 0.6140 0.6190 0.6220
3.829000 0.6270 0.6310 0.6340 0.6370 0.6390
3.862194 0.6390 0.6390 0.6390 0.6390 0.6390
3.896000 0.6410 0.6410 0.6410 0.6410 0.6390
3.929194 0.6390 0.6390 0.6390 0.6390 0.6390
3.962000 0.6420 0.6460 0.6470 0.6490 0.6510
3.995194 0.6510 0.6520 0.6520 0.6520 0.6510
4.029000 0.6520 0.6520 0.6540 0.6540 0.6540
4.062194 0.6560 0.6560 0.6560 0.6560 0.6570
4.095000 0.6570 0.6570 0.6570 0.6570 0.6570
4.128194 0.6570 0.6570 0.6570 0.6590 0.6610
4.161000 0.6610 0.6610 0.6620 0.6620 0.6660
4.194194 0.6690 0.6690 0.6690 0.6710 0.6710
4.228000 0.6710 0.6710 0.6720 0.6720 0.6760
4.261194 0.6770 0.6810 0.6840 0.6860 0.6860
4.294000 0.6890 0.6920 0.6990 0.7010 0.7010
4.327194 0.7020 0.7040 0.7040 0.7060 0.7070
4.360000 0.7090 0.7120 0.7140 0.7170 0.7170
4.393194 0.7210 0.7210 0.7220 0.7220 0.7240
4.427000 0.7240 0.7270 0.7290 0.7290 0.7290
4.460194 0.7290 0.7310 0.7290 0.7310 0.7310
4.493000 0.7360 0.7360 0.7360 0.7360 0.7360
4.526194 0.7360 0.7370 0.7370 0.7370 0.7370
4.559000 0.7390 0.7390 0.7390 0.7410 0.7420
4.592194 0.7440 0.7440 0.7440 0.7440 0.7440
4.626000 0.7440 0.7420 0.7440 0.7440 0.7440
4.659194 0.7440 0.7440 0.7440 0.7460 0.7440
4.692000 0.7440 0.7440 0.7460 0.7490 0.7510
4.725194 0.7490 0.7510 0.7520 0.7540 0.7570
4.758000 0.7610 0.7610 0.7620 0.7640 0.7640
4.791194 0.7660 0.7690 0.7710 0.7720 0.7740
4.825000 0.7770 0.7790 0.7810 0.7820 0.7820
4.858194 0.7820 0.7820 0.7810 0.7820 0.7820
4.891000 0.7820 0.7820 0.7820 0.7820 0.7840
4.924194 0.7820 0.7840 0.7860 0.7890 0.7920
4.958000 0.7940 0.7940 0.7960 0.7970 0.7970
4.991194 0.7990 0.7990 0.7990 0.7990 0.7990
5.024000 0.7990 0.7990 0.7970 0.7960 0.7960
5.057194 0.7960 0.7960 0.7960 0.7960 0.7970
5.090000 0.7970 0.7990 0.8010 0.8010 0.8030
5.123194 0.8010 0.8040 0.8040 0.8080 0.8080
5.157000 0.8090 0.8090 0.8110 0.8110 0.8130
5.190194 0.8160 0.8210 0.8230 0.8230 0.8230
5.223000 0.8230 0.8210 0.8210 0.8180 0.8160
5.256194 0.8140 0.8140 0.8140 0.8180 0.8230
5.289000 0.8240 0.8260 0.8280 0.8280 0.8280
5.322194 0.8260 0.8280 0.8280 0.8280 0.8280
5.356000 0.8290 0.8310 0.8310 0.8330 0.8330
5.389194 0.8330 0.8330 0.8330 0.8330 0.8330
5.422000 0.8340 0.8360 0.8340 0.8360 0.8390
5.455194 0.8440 0.8480 0.8480 0.8490 0.8490
5.488000 0.8510 0.8510 0.8510 0.8490 0.8510
5.521194 0.8510 0.8510 0.8510 0.8510 0.8510
5.555000 0.8530 0.8510 0.8510 0.8490 0.8480
5.588194 0.8480 0.8480 0.8480 0.8490 0.8510
5.621000 0.8510 0.8530 0.8530 0.8540 0.8540
5.654194 0.8540 0.8540 0.8560 0.8580 0.8610
5.687000 0.8630 0.8640 0.8640 0.8640 0.8660
5.720194 0.8660 0.8660 0.8660 0.8640 0.8630
5.754000 0.8630 0.8630 0.8610 0.8610 0.8610
5.787194 0.8590 0.8580 0.8540 0.8530 0.8510
5.820000 0.8510 0.8460 0.8390 0.8340 0.8340
5.853194 0.8330 0.8290 0.8260 0.8240 0.8230
5.887000 0.8230 0.8210 0.8180 0.8110 0.8090
5.920194 0.8090 0.8110 0.8140 0.8210 0.8240
5.953000 0.8290 0.8290 0.8310 0.8310 0.8330
5.986194 0.8330 0.8390 0.8460 0.8530 0.8540
6.019000 0.8560 0.8580 0.8610 0.8640 0.8680
6.052194 0.8690 0.8710 0.8730 0.8740 0.8760
6.086000 0.8790 0.8830 0.8860 0.8880 0.8860
6.119194 0.8860 0.8860 0.8830 0.8830 0.8830
6.152000 0.8830 0.8840 0.8890 0.8960 0.8990
6.185194 0.9040 0.9080 0.9080 0.9080 0.9060
6.218000 0.9040 0.9030 0.8990 0.8990 0.8990
6.251194 0.8990 0.9030 0.9030 0.9030 0.9030
6.285000 0.9010 0.9010 0.8990 0.8980 0.8980
6.318194 0.8980 0.8980 0.8990 0.9010 0.9030
6.351000 0.9060 0.9080 0.9080 0.9080 0.9060
6.384194 0.9040 0.8990 0.8990 0.9010 0.9010
6.417000 0.9010 0.9010 0.9030 0.9030 0.9030
6.450194 0.9010 0.8990 0.8960 0.8960 0.8940
6.484000 0.8930 0.8940 0.8930 0.8930 0.8890
6.517194 0.8860 0.8810 0.8780 0.8780 0.8760
6.550000 0.8740 0.8660 0.8580 0.8410 0.8310
6.583194 0.8210 0.7960 0.7690 0.7410 0.7110
6.616000 0.6820 0.6690 0.6560 0.5990 0.5500
6.649194 0.5340 0.5320 0.5270 0.5140 0.5000
6.683000 0.4850 0.4240 0.3680 0.3200 0.2720
6.716194 0.1800 0.1430 0.1060 0.0950 0.0860
6.749000 0.0850 0.0830 0.0830 0.0830 0.0830
6.782194 0.0830 0.0850 0.0860 0.0980 0.1130
6.816000 0.1360 0.1530 0.1960 0.2270 0.2520
6.849194 0.2850 0.2980 0.3300 0.3850 0.4140
6.882000 0.4490 0.4890 0.5540 0.5800 0.6040
6.915194 0.6140 0.6220 0.6260 0.6270 0.6290
6.948000 0.6310 0.6340 0.6410 0.6470 0.6470
6.981194 0.7160 0.7390 0.7560 0.7560 0.7540
7.015000 0.7510 0.7390 0.7270 0.7160 0.6920
7.048194 0.6790 0.6660 0.6340 0.6040 0.5770
7.081000 0.5240 0.5050 0.4850 0.3930 0.3570
7.114194 0.3180 0.2770 0.2730 0.2730 0.2830
7.147000 0.3030 0.3150 0.3180 0.3180 0.3170
7.180194 0.2720 0.2380 0.2180 0.2100 0.2130
7.214000 0.2680 0.3080 0.4070 0.4390 0.4400
7.247194 0.4390 0.4250 0.4090 0.4000 0.4070
7.280000 0.4350 0.4570 0.5470 0.5840 0.6140
7.313194 0.6390 0.6560 0.6660 0.6810 0.6890
7.346000 0.7060 0.7270 0.7410 0.7470 0.7490
7.379194 0.7490 0.7490 0.7510 0.7510 0.7570
7.413000 0.7710 0.7840 0.8010 0.8140 0.8260
7.446194 0.8330 0.8360 0.8130 0.7870 0.7770
7.479000 0.6720 0.6020 0.5320 0.4900 0.4470
7.512194 0.4440 0.4540 0.5500 0.5920 0.6420
7.545000 0.7090 0.7290 0.7410 0.7510 0.7640
7.578194 0.7720 0.7840 0.7870 0.7860 0.7640
7.612000 0.7360 0.6860 0.6520 0.6170 0.5270
7.645194 0.5000 0.4740 0.4250 0.4240 0.4300
7.678000 0.4720 0.5340 0.5670 0.5950 0.6120
7.711194 0.6170 0.6170 0.6170 0.6120 0.5700
7.745000 0.5190 0.4840 0.4490 0.3630 0.3270
7.778194 0.2880 0.2020 0.1960 0.1950 0.2200
7.811000 0.2620 0.3020 0.3720 0.4020 0.4340
7.844194 0.4650 0.4990 0.5620 0.5890 0.6140
7.877000 0.6320 0.6440 0.6470 0.6510 0.6510
7.910194 0.6490 0.6420 0.6420 0.6460 0.6520
7.944000 0.6590 0.6620 0.6620 0.6540 0.5720
7.977194 0.5150 0.4890 0.4620 0.4090 0.3700
8.010000 0.3300 0.2620 0.2220 0.1860 0.1660
8.043194 0.1630 0.1580 0.1480 0.1350 0.1200
8.076000 0.1080 0.1000 0.0980 0.0960 0.1000
8.109194 0.1210 0.1600 0.2450 0.2770 0.3120
8.143000 0.3800 0.4120 0.4440 0.4740 0.5320
8.176194 0.5570 0.5820 0.6040 0.6260 0.6420
8.209000 0.6590 0.6820 0.6910 0.6940 0.6970
8.242194 0.7010 0.7090 0.7170 0.7260 0.7370
8.275000 0.7460 0.7560 0.7620 0.7660 0.7740
8.308194 0.7860 0.7940 0.7970 0.8040 0.8060
8.342000 0.8110 0.8140 0.8190 0.8230 0.8280
8.375194 0.8330 0.8390 0.8440 0.8480 0.8510
8.408000 0.8530 0.8530 0.8540 0.8540 0.8540
8.441194 0.8530 0.8490 0.8430 0.8380 0.8360
8.474000 0.8330 0.8280 0.8260 0.8230 0.8230
8.507194 0.8240 0.8280 0.8310 0.8440 0.8510
8.541000 0.8560 0.8610 0.8630 0.8630 0.8640
8.574194 0.8640 0.8630 0.8510 0.8460 0.8390
8.607000 0.8360 0.8330 0.8240 0.8140 0.8040
8.640194 0.7960 0.7840 0.7740 0.7620 0.7510
8.674000 0.7310 0.6990 0.6620 0.6240 0.5370
8.707194 0.4950 0.4540 0.3880 0.3220 0.2470
8.740000 0.1780 0.1730 0.1730 0.1980 0.2400
8.773194 0.2780 0.3180 0.3970 0.4370 0.4750
8.806000 0.5520 0.5870 0.6070 0.6260 0.6470
8.839194 0.6870 0.7060 0.7240 0.7410 0.7540
8.873000 0.7710 0.7840 0.7990 0.8090 0.8190
8.906194 0.8230 0.8230 0.8230 0.8240 0.8240
8.939000 0.8230 0.8190 0.8140 0.8140 0.8190
8.972194 0.8330 0.8580 0.8660 0.8730 0.8780
9.005000 0.8830 0.8840 0.8860 0.8880 0.8880
9.038194 0.8890 0.8910 0.8890 0.8910 0.8930
9.072000 0.8960 0.9030 0.9080 0.9090 0.9110
9.105194 0.9110 0.9110 0.9110 0.9130 0.9110
9.138000 0.9040 0.8980 0.8960 0.8940 0.8940
9.171194 0.8940 0.8960 0.8990 0.9030 0.9060
9.204000 0.9090 0.9110 0.9140 0.9210 0.9240
9.237194 0.9260 0.9290 0.9290 0.9290 0.9290
9.271000 0.9280 0.9190 0.9090 0.8890 0.8640
9.304194 0.8410 0.8290 0.8180 0.8040 0.7940
9.337000 0.7840 0.7670 0.7440 0.7160 0.6840
9.370194 0.6520 0.5620 0.5150 0.4670 0.4200
9.403000 0.3980 0.3980 0.4000 0.4290 0.4420
9.436194 0.4500 0.4540 0.4590 0.4650 0.4750
9.470000 0.4940 0.5590 0.5790 0.5950 0.6160
9.503194 0.6360 0.6610 0.6990 0.7090 0.7190
9.536000 0.7260 0.7340 0.7390 0.7410 0.7420
9.569194 0.7420 0.7440 0.7420 0.7140 0.6760
9.603000 0.6590 0.6410 0.6120 0.5850 0.5640
9.636194 0.5440 0.5300 0.5170 0.5040 0.4990
9.669000 0.4940 0.4750 0.4300 0.3650 0.3250
9.702194 0.2830 0.2120 0.1730 0.1580 0.1410
9.735000 0.1280 0.1250 0.1250 0.1300 0.1580
9.768194 0.2180 0.2570 0.3000 0.3870 0.4270
9.802000 0.4640 0.4940 0.5120 0.5140 0.5140
9.835194 0.4890 0.4620 0.3880 0.3580 0.3280
9.868000 0.2520 0.1950 0.1680 0.1400 0.1150
9.901194 0.0950 0.0710 0.0600 0.0550 0.0500
9.934000 0.0450 0.0430 0.0430 0.0430 0.0450
9.967194 0.0450 0.0460 0.0460 0.0480 0.0480
10.001000 0.0480 0.0500 0.0500 0.0500 0.0510
10.034194 0.0510 0.0510 0.0510 0.0510 0.0500
10.067000 0.0500 0.0480 0.0480 0.0500 0.0580
10.100194 0.0660 0.0780 0.0910 0.1100 0.1280
10.133000 0.1500 0.2000 0.2250 0.2470 0.2650
10.166194 0.2820 0.2980 0.3130 0.3300 0.3650
10.200000 0.3870 0.3980 0.4100 0.4250 0.4390
10.233194 0.4540 0.4650 0.4790 0.4870 0.4940
10.266000 0.5020 0.5050 0.5120 0.5140 0.5150
10.299194 0.5190 0.5250 0.5340 0.5400 0.5490
10.332000 0.5540 0.5570 0.5570 0.5590 0.5590
10.365194 0.5620 0.5600 0.5640 0.5650 0.5670
10.399000 0.5700 0.5720 0.5740 0.5770 0.5840
10.432194 0.5940 0.5950 0.6040 0.6210 0.6340
10.465000 0.6460 0.6540 0.6640 0.6770 0.6860
10.498194 0.6910 0.6970 0.7010 0.7070 0.7170
10.532000 0.7240 0.7270 0.7320 0.7340 0.7370
10.565194 0.7390 0.7420 0.7420 0.7460 0.7490
10.598000 0.7540 0.7560 0.7560 0.7560 0.7560
10.631194 0.7520 0.7460 0.7420 0.7440 0.7470
10.664000 0.7520 0.7570 0.7660 0.7720 0.7790
10.697194 0.7820 0.7840 0.7890 0.7940 0.7990
10.731000 0.8010 0.8030 0.8030 0.8080 0.8130
10.764194 0.8140 0.8180 0.8190 0.8190 0.8190
10.797000 0.8210 0.8210 0.8210 0.8230 0.8230
10.830194 0.8260 0.8260 0.8260 0.8260 0.8290
10.863000 0.8310 0.8380 0.8430 0.8440 0.8460
10.896194 0.8480 0.8490 0.8510 0.8510 0.8540
10.930000 0.8540 0.8540 0.8540 0.8540 0.8530
10.963194 0.8480 0.8380 0.8290 0.8210 0.8010
10.996000 0.7790 0.7520 0.7240 0.6890 0.6690
11.029194 0.6490 0.6020 0.5750 0.5650 0.5600
11.062000 0.5570 0.5570 0.5620 0.5740 0.5820
11.095194 0.5950 0.6160 0.6320 0.6520 0.6790
11.129000 0.6890 0.6970 0.7070 0.7160 0.7240
11.162194 0.7340 0.7470 0.7610 0.7770 0.7970
11.195000 0.8060 0.8130 0.8190 0.8260 0.8310
11.228194 0.8410 0.8440 0.8490 0.8530 0.8560
11.261000 0.8610 0.8630 0.8630 0.8630 0.8630
11.294194 0.8630 0.8640 0.8630 0.8640 0.8660
11.328000 0.8680 0.8690 0.8690 0.8710 0.8710
11.361194 0.8710 0.8690 0.8680 0.8640 0.8610
11.394000 0.8590 0.8580 0.8580 0.8580 0.8590
11.427194 0.8610 0.8610 0.8640 0.8660 0.8660
11.461000 0.8630 0.8560 0.8480 0.8360 0.8190
11.494194 0.8010 0.7590 0.7070 0.6820 0.6560
11.527000 0.6260 0.6060 0.5970 0.5950 0.5940
11.560194 0.5950 0.5950 0.5970 0.5990 0.5990
11.593000 0.5990 0.6010 0.6010 0.6020 0.6060
11.626194 0.6110 0.6320 0.6520 0.6660 0.7110
11.660000 0.7340 0.7590 0.7790 0.7940 0.8080
11.693194 0.8190 0.8280 0.8440 0.8510 0.8590
11.726000 0.8610 0.8610 0.8610 0.8610 0.8590
11.759194 0.8560 0.8540 0.8510 0.8440 0.8380
11.792000 0.8340 0.8310 0.8260 0.8180 0.8080
11.825194 0.7960 0.7810 0.7590 0.7410 0.7270
11.859000 0.7140 0.6970 0.6710 0.6590 0.6460
11.892194 0.6170 0.5900 0.5640 0.5350 0.5090
11.925000 0.4940 0.4790 0.4490 0.4240 0.4050
11.958194 0.3850 0.3750 0.3550 0.3430 0.3320
11.991000 0.3020 0.2700 0.2350 0.2080 0.1910
12.024194 0.1710 0.1580 0.1430 0.1210 0.1150
12.058000 0.1030 0.0950 0.0910 0.0880 0.0850
12.091194 0.0800 0.0780 0.0750 0.0750 0.0730
12.124000 0.0710 0.0680 0.0650 0.0630 0.0630
12.157194 0.0630 0.0630 0.0660 0.0700 0.0760
12.190000 0.0830 0.0930 0.1010 0.1110 0.1210
12.223194 0.1330 0.1510 0.1910 0.2100 0.2280
12.257000 0.2450 0.2620 0.2800 0.2950 0.3100
12.290194 0.3230 0.3670 0.3850 0.4000 0.4140
12.323000 0.4250 0.4350 0.4440 0.4500 0.4570
12.356194 0.4640 0.4690 0.4740 0.4790 0.4850
12.390000 0.4900 0.4970 0.5140 0.5240 0.5350
12.423194 0.5490 0.5620 0.5800 0.5890 0.5990
12.456000 0.6040 0.6060 0.6160 0.6240 0.6310
12.489194 0.6360 0.6410 0.6440 0.6470 0.6490
12.522000 0.6520 0.6560 0.6590 0.6620 0.6670
12.555194 0.6690 0.6690 0.6690 0.6620 0.6540
12.589000 0.6520 0.6490 0.6370 0.6120 0.5640
12.622194 0.5120 0.5000 0.4870 0.4290 0.3880
12.655000 0.3400 0.3230 0.3050 0.2650 0.2500
12.688194 0.2420 0.2380 0.2370 0.2380 0.2420
12.721000 0.2480 0.2520 0.2550 0.2570 0.2550
12.754194 0.2520 0.2450 0.2370 0.2250 0.2070
12.788000 0.1950 0.1800 0.1710 0.1610 0.1550
12.821194 0.1460 0.1400 0.1360 0.1360 0.1380
12.854000 0.1410 0.1500 0.1610 0.2030 0.2250
12.887194 0.2450 0.2650 0.2850 0.3070 0.3280
12.920000 0.3720 0.3930 0.4120 0.4250 0.4470
12.953194 0.4570 0.4740 0.4920 0.5240 0.5370
12.987000 0.5470 0.5590 0.5670 0.5750 0.5840
13.020194 0.5920 0.5990 0.6060 0.6140 0.6220
13.053000 0.6310 0.6390 0.6460 0.6510 0.6560
13.086194 0.6620 0.6740 0.6770 0.6820 0.6860
13.119000 0.6910 0.6960 0.6990 0.7010 0.7040
13.152194 0.7060 0.7090 0.7110 0.7140 0.7170
13.186000 0.7220 0.7260 0.7260 0.7270 0.7320
13.219194 0.7370 0.7440 0.7510 0.7560 0.7570
13.252000 0.7590 0.7620 0.7640 0.7660 0.7670
13.285194 0.7670 0.7690 0.7710 0.7740 0.7770
13.319000 0.7810 0.7860 0.7860 0.7870 0.7910
13.352194 0.7940 0.7960 0.7970 0.7990 0.7990
13.385000 0.7990 0.7990 0.7970 0.7990 0.7990
13.418194 0.7990 0.7990 0.7990 0.7990 0.7990
13.451000 0.7990 0.7990 0.7990 0.7990 0.7990
13.484194 0.7990 0.7990 0.7990 0.7990 0.8010
13.518000 0.8010 0.8030 0.8030 0.8030 0.8040
13.551194 0.8060 0.8060 0.8060 0.8060 0.8080
13.584000 0.8090 0.8130 0.8140 0.8180 0.8190
13.617194 0.8210 0.8210 0.8230 0.8240 0.8280
13.650000 0.8290 0.8290 0.8290 0.8310 0.8310
13.683194 0.8310 0.8330 0.8330 0.8380 0.8390
13.717000 0.8410 0.8410 0.8410 0.8410 0.8430
13.750194 0.8430 0.8440 0.8440 0.8440 0.8430
13.783000 0.8440 0.8440 0.8440 0.8430 0.8430
13.816194 0.8430 0.8430 0.8430 0.8430 0.8440
13.849000 0.8480 0.8530 0.8560 0.8610 0.8630
13.882194 0.8680 0.8710 0.8740 0.8780 0.8810
13.916000 0.8830 0.8860 0.8880 0.8910 0.8910
13.949194 0.8940 0.8980 0.8990 0.8990 0.8990
13.982000 0.8980 0.8930 0.8930 0.8840 0.8710
14.015194 0.8530 0.8430 0.8330 0.8130 0.7920
14.048000 0.7740 0.7610 0.7510 0.7440 0.7420
14.081194 0.7440 0.7470 0.7570 0.7690 0.7820
14.115000 0.7940 0.8080 0.8230 0.8480 0.8590
14.148194 0.8710 0.8790 0.8860 0.8890 0.8910
14.181000 0.8940 0.8980 0.9030 0.9080 0.9110
14.214194 0.9160 0.9180 0.9190 0.9190 0.9210
14.248000 0.9230 0.9240 0.9260 0.9280 0.9290
14.281194 0.9330 0.9360 0.9390 0.9410 0.9410
14.314000 0.9440 0.9460 0.9490 0.9510 0.9540
14.347194 0.9560 0.9580 0.9580 0.9580 0.9590
14.380000 0.9590 0.9610 0.9630 0.9640 0.9640
14.413194 0.9660 0.9660 0.9660 0.9680 0.9680
14.447000 0.9680 0.9680 0.9680 0.9680 0.9680
14.480194 0.9680 0.9680 0.9680 0.9680 0.9680
14.513000 0.9680 0.9680 0.9680 0.9680 0.9680
14.546194 0.9680 0.9660 0.9640 0.9630 0.9630
14.579000 0.9610 0.9610 0.9610 0.9610 0.9610
14.612194 0.9610 0.9610 0.9610 0.9630 0.9640
14.646000 0.9640 0.9640 0.9640 0.9640 0.9660
14.679194 0.9660 0.9660 0.9640 0.9640 0.9640
14.712000 0.9640 0.9630 0.9630 0.9630 0.9630
14.745194 0.9610 0.9610 0.9610 0.9590 0.9580
14.778000 0.9560 0.9560 0.9540 0.9530 0.9510
14.811194 0.9510 0.9510 0.9510 0.9530 0.9540
14.845000 0.9530 0.9530 0.9530 0.9530 0.9530
14.878194 0.9540 0.9530 0.9530 0.9530 0.9510
14.911000 0.9490 0.9480 0.9440 0.9390 0.9330
14.944194 0.9260 0.9190 0.9110 0.8990 0.8910
14.977000 0.8840 0.8810 0.8760 0.8710 0.8630
15.010194 0.8590 0.8590 0.8580 0.8590 0.8630
15.044000 0.8680 0.8730 0.8780 0.8830 0.8890
15.077194 0.8940 0.8980 0.9010 0.9030 0.9030
15.110000 0.9060 0.9080 0.9090 0.9090 0.9060
15.143194 0.9010 0.8940 0.8890 0.8830 0.8780
15.177000 0.8690 0.8640 0.8560 0.8460 0.8340
15.210194 0.8290 0.8230 0.8090 0.7940 0.7770
15.243000 0.7570 0.7460 0.7260 0.6990 0.6710
15.276194 0.6560 0.6410 0.6090 0.5800 0.5540
15.309000 0.5300 0.5070 0.4950 0.4820 0.4600
15.342194 0.4440 0.4300 0.4190 0.4070 0.3980
15.376000 0.3920 0.3880 0.3830 0.3800 0.3780
15.409194 0.3780 0.3780 0.3800 0.3830 0.3880
15.442000 0.3970 0.4040 0.4170 0.4250 0.4340
15.475194 0.4450 0.4550 0.4690 0.4820 0.4990
15.508000 0.5340 0.5440 0.5540 0.5620 0.5700
15.541194 0.5790 0.5870 0.5950 0.6020 0.6090
15.575000 0.6160 0.6220 0.6290 0.6340 0.6390
15.608194 0.6440 0.6490 0.6520 0.6520 0.6540
15.641000 0.6570 0.6610 0.6620 0.6640 0.6670
15.674194 0.6690 0.6690 0.6690 0.6690 0.6690
15.707000 0.6690 0.6690 0.6670 0.6670 0.6660
15.740194 0.6660 0.6620 0.6620 0.6610 0.6620
15.774000 0.6620 0.6620 0.6660 0.6660 0.6660
15.807194 0.6660 0.6660 0.6640 0.6640 0.6620
15.840000 0.6620 0.6620 0.6610 0.6610 0.6590
15.873194 0.6590 0.6560 0.6520 0.6510 0.6490
15.906000 0.6460 0.6440 0.6410 0.6390 0.6370
15.939194 0.6360 0.6320 0.6320 0.6310 0.6310
15.973000 0.6290 0.6270 0.6310 0.6310 0.6290
##END=
