##TITLE=Formimidic acid, N-6-(chloropurin-2-yl), ethyl ester
##JCAMP-DX=4.24
##DATA TYPE=INFRARED SPECTRUM
##CLASS=COBLENTZ III
##ORIGIN=SOUTHERN RESEARCH INSTITUTE
##OWNER=Copyright (C) 1987 by the Coblentz Society
Collection (C) 2018 copyright by the U.S. Secretary of Commerce
on behalf of the United States of America. All rights reserved.
##DATE=1958/06/25
##NAMES=ethyl 6-chloro-7H-purin-2-ylimidoformate
##MOLFORM=C8 H8 Cl N5 O
##SOURCE REFERENCE=COBLENTZ NO. 8266
##$NIST ID=B6008266
##$NIST SOURCE=COBLENTZ
##$NIST IMAGE=cob8266
##SPECTROMETER/DATA SYSTEM=PERKIN-ELMER 21 (GRATING)
##INSTRUMENT PARAMETERS=FILTER CHANGE ABOUT 1090 CM^-^1
##STATE=SOLID (KBr DISC)
##SAMPLING PROCEDURE=TRANSMISSION
##RESOLUTION=2
##DATA PROCESSING=DIGITIZED BY COBLENTZ SOCIETY (BATCH II) FROM HARD COPY (ADJUSTED \addcm-1\20-10-2\)
##XUNITS=1/CM
##YUNITS=TRANSMITTANCE
##XFACTOR=1.0
##YFACTOR=1
##DELTAX=1.006770
##FIRSTX=595.97
##LASTX=4019.99
##FIRSTY=0.8576
##MAXX=4019.99
##MINX=595.97
##MAXY=0.949648
##MINY=0.203526
##NPOINTS=3402
##XYDATA=(X++(Y..Y))
595.970000 0.8576 0.8631 0.8663 0.8695 0.8723
601.003848 0.8732 0.8739 0.8737 0.8730 0.8723
606.037695 0.8738 0.8714 0.8692 0.8675 0.8658
611.071543 0.8628 0.8589 0.8533 0.8343 0.8155
616.105391 0.8039 0.7951 0.7879 0.7809 0.7747
621.139239 0.7707 0.7684 0.7662 0.7641 0.7623
626.173086 0.7615 0.7612 0.7609 0.7606 0.7600
631.206934 0.7594 0.7623 0.7632 0.7643 0.7667
636.240782 0.7701 0.7847 0.8023 0.8191 0.8356
641.274630 0.8476 0.8572 0.8695 0.9165 0.9238
646.308477 0.9235 0.9223 0.9211 0.9201 0.9212
651.342325 0.9189 0.9173 0.9167 0.9160 0.9155
656.376173 0.9152 0.9151 0.9150 0.9148 0.9147
661.410021 0.9147 0.9147 0.9147 0.9146 0.9146
666.443868 0.9146 0.9144 0.9141 0.9137 0.9133
671.477716 0.9129 0.9118 0.9083 0.9019 0.8950
676.511564 0.8896 0.8842 0.8787 0.8731 0.8674
681.545412 0.8617 0.8560 0.8489 0.8417 0.8345
686.579259 0.8267 0.8175 0.8006 0.7993 0.7993
691.613107 0.7994 0.7994 0.7997 0.7997 0.7998
696.646955 0.8007 0.8055 0.8142 0.8291 0.8445
701.680802 0.8544 0.8581 0.8595 0.8600 0.8597
706.714650 0.8609 0.8604 0.8581 0.8573 0.8566
711.748498 0.8548 0.8513 0.8476 0.8440 0.8406
716.782346 0.8368 0.8326 0.8281 0.8226 0.8128
721.816193 0.7986 0.7833 0.7732 0.7631 0.7530
726.850041 0.7445 0.7445 0.7451 0.7474 0.7564
731.883889 0.7653 0.7743 0.7832 0.7922 0.7977
736.917737 0.7984 0.7984 0.7982 0.8000 0.7973
741.951584 0.7956 0.7945 0.7933 0.7921 0.7909
746.985432 0.7894 0.7877 0.7860 0.7843 0.7826
752.019280 0.7809 0.7792 0.7776 0.7761 0.7746
757.053128 0.7731 0.7715 0.7701 0.7686 0.7670
762.086975 0.7656 0.7641 0.7629 0.7623 0.7616
767.120823 0.7609 0.7600 0.7576 0.7515 0.7432
772.154671 0.7361 0.7294 0.7230 0.7174 0.7118
777.188519 0.7062 0.7010 0.6959 0.6907 0.6866
782.222366 0.6837 0.6821 0.6809 0.6798 0.6781
787.256214 0.6648 0.6474 0.6299 0.6182 0.6150
792.290062 0.6141 0.6149 0.6182 0.6314 0.6519
797.323909 0.6725 0.6930 0.7106 0.7173 0.7156
802.357757 0.7150 0.7146 0.7143 0.7138 0.7132
807.391605 0.7124 0.7116 0.7104 0.7090 0.7075
812.425453 0.7057 0.7040 0.7022 0.7005 0.6990
817.459300 0.6976 0.6961 0.6947 0.6933 0.6917
822.493148 0.6899 0.6878 0.6857 0.6836 0.6814
827.526996 0.6786 0.6756 0.6727 0.6692 0.6652
832.560844 0.6609 0.6550 0.6485 0.6433 0.6389
837.594691 0.6355 0.6343 0.6331 0.6330 0.6330
842.628539 0.6334 0.6338 0.6347 0.6363 0.6389
847.662387 0.6423 0.6468 0.6524 0.6595 0.6671
852.696235 0.6750 0.6830 0.6877 0.6921 0.6965
857.730082 0.7004 0.7041 0.7078 0.7115 0.7151
862.763930 0.7188 0.7216 0.7235 0.7252 0.7268
867.797778 0.7285 0.7302 0.7317 0.7333 0.7349
872.831626 0.7364 0.7383 0.7403 0.7423 0.7442
877.865473 0.7471 0.7507 0.7544 0.7560 0.7568
882.899321 0.7576 0.7556 0.7564 0.7565 0.7558
887.933169 0.7549 0.7539 0.7529 0.7519 0.7509
892.967016 0.7494 0.7473 0.7451 0.7430 0.7408
898.000864 0.7379 0.7338 0.7292 0.7247 0.7184
903.034712 0.7104 0.6998 0.6759 0.6531 0.6419
908.068560 0.6325 0.6226 0.6123 0.6028 0.5942
913.102407 0.5874 0.5826 0.5783 0.5742 0.5715
918.136255 0.5707 0.5705 0.5702 0.5708 0.5716
923.170103 0.5711 0.5720 0.5736 0.5759 0.5794
928.203951 0.5839 0.5882 0.5923 0.5965 0.6009
933.237798 0.6054 0.6105 0.6168 0.6281 0.6514
938.271646 0.6756 0.6997 0.7238 0.7434 0.7498
943.305494 0.7545 0.7599 0.7658 0.7707 0.7726
948.339342 0.7742 0.7753 0.7764 0.7775 0.7785
953.373189 0.7796 0.7807 0.7824 0.7840 0.7856
958.407037 0.7872 0.7889 0.7905 0.7924 0.7948
963.440885 0.7973 0.7998 0.8028 0.8074 0.8121
968.474733 0.8168 0.8217 0.8267 0.8310 0.8346
973.508580 0.8382 0.8417 0.8452 0.8473 0.8495
978.542428 0.8517 0.8530 0.8528 0.8526 0.8524
983.576276 0.8522 0.8539 0.8510 0.8498 0.8488
988.610123 0.8479 0.8469 0.8458 0.8445 0.8433
993.643971 0.8421 0.8409 0.8397 0.8385 0.8373
998.677819 0.8361 0.8348 0.8336 0.8323 0.8311
1003.711667 0.8298 0.8286 0.8274 0.8261 0.8245
1008.745514 0.8228 0.8211 0.8194 0.8176 0.8159
1013.779362 0.8141 0.8124 0.8106 0.8088 0.8071
1018.813210 0.8050 0.8027 0.8003 0.7980 0.7955
1023.847058 0.7931 0.7907 0.7883 0.7858 0.7829
1028.880905 0.7799 0.7768 0.7738 0.7708 0.7676
1033.914753 0.7642 0.7608 0.7573 0.7540 0.7511
1038.948601 0.7485 0.7462 0.7449 0.7444 0.7443
1043.982449 0.7459 0.7493 0.7533 0.7568 0.7604
1049.016296 0.7638 0.7659 0.7663 0.7667 0.7668
1054.050144 0.7670 0.7671 0.7672 0.7670 0.7668
1059.083992 0.7667 0.7667 0.7668 0.7670 0.7672
1064.117840 0.7673 0.7675 0.7682 0.7698 0.7711
1069.151687 0.7713 0.7713 0.7713 0.7713 0.7714
1074.185535 0.7714 0.7716 0.7717 0.7719 0.7721
1079.219383 0.7722 0.7725 0.7733 0.7741 0.7748
1084.253230 0.7756 0.7764 0.7775 0.7788 0.7801
1089.287078 0.7803 0.7797 0.7787 0.7764 0.7733
1094.320926 0.7689 0.7627 0.7581 0.7550 0.7524
1099.354774 0.7510 0.7495 0.7482 0.7471 0.7462
1104.388621 0.7454 0.7445 0.7437 0.7430 0.7424
1109.422469 0.7422 0.7423 0.7424 0.7425 0.7426
1114.456317 0.7427 0.7429 0.7431 0.7432 0.7435
1119.490165 0.7439 0.7444 0.7455 0.7464 0.7471
1124.524012 0.7477 0.7483 0.7486 0.7488 0.7489
1129.557860 0.7491 0.7492 0.7491 0.7486 0.7479
1134.591708 0.7473 0.7468 0.7464 0.7460 0.7456
1139.625556 0.7452 0.7448 0.7443 0.7435 0.7426
1144.659403 0.7417 0.7408 0.7399 0.7390 0.7382
1149.693251 0.7375 0.7368 0.7360 0.7352 0.7344
1154.727099 0.7335 0.7326 0.7317 0.7309 0.7301
1159.760947 0.7292 0.7277 0.7252 0.7218 0.7181
1164.794794 0.7143 0.7103 0.7064 0.7024 0.6981
1169.828642 0.6937 0.6893 0.6849 0.6806 0.6764
1174.862490 0.6723 0.6681 0.6639 0.6588 0.6526
1179.896337 0.6462 0.6395 0.6296 0.6145 0.5995
1184.930185 0.5845 0.5695 0.5544 0.5394 0.5255
1189.964033 0.5164 0.5112 0.5066 0.5021 0.4978
1194.997881 0.4935 0.4894 0.4850 0.4800 0.4752
1200.031728 0.4702 0.4650 0.4596 0.4541 0.4483
1205.065576 0.4421 0.4360 0.4303 0.4252 0.4199
1210.099424 0.4147 0.4094 0.4021 0.3942 0.3863
1215.133272 0.3784 0.3711 0.3639 0.3568 0.3495
1220.167119 0.3395 0.3292 0.3192 0.3096 0.2995
1225.200967 0.2879 0.2781 0.2716 0.2652 0.2589
1230.234815 0.2529 0.2473 0.2417 0.2363 0.2320
1235.268663 0.2278 0.2230 0.2179 0.2140 0.2107
1240.302510 0.2091 0.2058 0.2073 0.2080 0.2086
1245.336358 0.2092 0.2102 0.2129 0.2167 0.2227
1250.370206 0.2330 0.2404 0.2466 0.2526 0.2584
1255.404053 0.2634 0.2665 0.2689 0.2712 0.2740
1260.437901 0.2775 0.2898 0.3067 0.3237 0.3408
1265.471749 0.3579 0.3749 0.3920 0.4090 0.4261
1270.505597 0.4432 0.4602 0.4773 0.4914 0.4994
1275.539444 0.5023 0.5032 0.5041 0.5044 0.5041
1280.573292 0.5034 0.5023 0.5009 0.4990 0.4949
1285.607140 0.4889 0.4835 0.4789 0.4751 0.4715
1290.640988 0.4675 0.4638 0.4614 0.4606 0.4610
1295.674835 0.4621 0.4669 0.4775 0.4894 0.5013
1300.708683 0.5132 0.5251 0.5370 0.5489 0.5609
1305.742531 0.5728 0.5847 0.5966 0.6140 0.6383
1310.776379 0.6467 0.6569 0.6683 0.6773 0.6837
1315.810226 0.6897 0.6942 0.6978 0.6999 0.7013
1320.844074 0.7021 0.7011 0.7021 0.7017 0.7011
1325.877922 0.7005 0.6996 0.6982 0.6969 0.6949
1330.911770 0.6920 0.6884 0.6846 0.6809 0.6770
1335.945617 0.6727 0.6684 0.6642 0.6598 0.6535
1340.979465 0.6467 0.6305 0.6025 0.5746 0.5466
1346.013313 0.5409 0.5375 0.5371 0.5375 0.5378
1351.047160 0.5388 0.5467 0.5564 0.5662 0.5762
1356.081008 0.5860 0.5902 0.5908 0.5916 0.5887
1361.114856 0.5860 0.5804 0.5719 0.5560 0.5389
1366.148704 0.5217 0.5045 0.4873 0.4701 0.4530
1371.182551 0.4358 0.4186 0.4015 0.3843 0.3672
1376.216399 0.3499 0.3322 0.3126 0.2912 0.2752
1381.250247 0.2618 0.2511 0.2419 0.2349 0.2299
1386.284095 0.2255 0.2211 0.2175 0.2152 0.2142
1391.317942 0.2146 0.2157 0.2170 0.2183 0.2199
1396.351790 0.2220 0.2357 0.2559 0.2747 0.2936
1401.385638 0.3124 0.3312 0.3500 0.3688 0.3877
1406.419486 0.4065 0.4254 0.4442 0.4631 0.4819
1411.453333 0.5008 0.5197 0.5388 0.5596 0.5803
1416.487181 0.5980 0.6158 0.6292 0.6362 0.6429
1421.521029 0.6475 0.6491 0.6494 0.6496 0.6490
1426.554877 0.6475 0.6455 0.6419 0.6368 0.6311
1431.588724 0.6253 0.6192 0.6131 0.6070 0.6009
1436.622572 0.5949 0.5888 0.5827 0.5766 0.5661
1441.656420 0.5479 0.5262 0.5045 0.4828 0.4643
1446.690267 0.4564 0.4568 0.4574 0.4657 0.4813
1451.724115 0.4965 0.5118 0.5271 0.5423 0.5576
1456.757963 0.5728 0.5854 0.6020 0.6178 0.6268
1461.791811 0.6358 0.6434 0.6470 0.6486 0.6491
1466.825658 0.6491 0.6494 0.6483 0.6461 0.6431
1471.859506 0.6392 0.6356 0.6320 0.6270 0.6172
1476.893354 0.6044 0.5916 0.5789 0.5687 0.5622
1481.927202 0.5579 0.5540 0.5503 0.5467 0.5430
1486.961049 0.5389 0.5343 0.5293 0.5243 0.5193
1491.994897 0.5066 0.4941 0.4894 0.4877 0.4860
1497.028745 0.4846 0.4834 0.4802 0.4728 0.4637
1502.062593 0.4546 0.4455 0.4364 0.4273 0.4191
1507.096440 0.4130 0.4086 0.4050 0.4015 0.3984
1512.130288 0.3960 0.3938 0.3929 0.3916 0.3923
1517.164136 0.3941 0.3957 0.3972 0.4006 0.4055
1522.197984 0.4142 0.4259 0.4393 0.4531 0.4652
1527.231831 0.4745 0.4823 0.4886 0.4944 0.4990
1532.265679 0.5023 0.5054 0.5084 0.5109 0.5133
1537.299527 0.5158 0.5189 0.5221 0.5261 0.5308
1542.333374 0.5361 0.5429 0.5503 0.5556 0.5595
1547.367222 0.5633 0.5663 0.5686 0.5707 0.5728
1552.401070 0.5728 0.5718 0.5707 0.5691 0.5609
1557.434918 0.5396 0.5141 0.4886 0.4699 0.4626
1562.468765 0.4585 0.4541 0.4487 0.4426 0.4357
1567.502613 0.4149 0.3975 0.3861 0.3766 0.3685
1572.536461 0.3606 0.3496 0.3362 0.3222 0.3113
1577.570309 0.3016 0.2920 0.2831 0.2767 0.2729
1582.604156 0.2716 0.2704 0.2703 0.2712 0.2723
1587.638004 0.2734 0.2760 0.2792 0.2827 0.3095
1592.671852 0.3493 0.3643 0.3696 0.3732 0.3759
1597.705700 0.3770 0.3777 0.3774 0.3774 0.3771
1602.739547 0.3757 0.3737 0.3636 0.3488 0.3334
1607.773395 0.3180 0.3026 0.2872 0.2741 0.2677
1612.807243 0.2627 0.2576 0.2521 0.2467 0.2446
1617.841091 0.2433 0.2421 0.2417 0.2393 0.2411
1622.874938 0.2421 0.2429 0.2437 0.2446 0.2464
1627.908786 0.2489 0.2516 0.2564 0.2617 0.2693
1632.942634 0.2773 0.2923 0.3129 0.3370 0.3603
1637.976481 0.3855 0.4112 0.4530 0.4720 0.4831
1643.010329 0.4876 0.4911 0.4945 0.4972 0.4996
1648.044177 0.5020 0.5030 0.5037 0.5041 0.5025
1653.078025 0.5029 0.5023 0.5013 0.5002 0.4992
1658.111872 0.4971 0.4942 0.4883 0.4768 0.4632
1663.145720 0.4495 0.4357 0.4220 0.4082 0.3945
1668.179568 0.3807 0.3670 0.3533 0.3394 0.3257
1673.213416 0.3120 0.2982 0.2844 0.2707 0.2569
1678.247263 0.2439 0.2357 0.2288 0.2233 0.2183
1683.281111 0.2137 0.2108 0.2085 0.2064 0.2053
1688.314959 0.2043 0.2041 0.2040 0.2040 0.2035
1693.348807 0.2042 0.2046 0.2051 0.2055 0.2059
1698.382654 0.2071 0.2089 0.2106 0.2123 0.2142
1703.416502 0.2162 0.2181 0.2203 0.2228 0.2253
1708.450350 0.2293 0.2342 0.2438 0.2602 0.2802
1713.484198 0.3003 0.3203 0.3404 0.3604 0.3804
1718.518045 0.4005 0.4206 0.4406 0.4607 0.4807
1723.551893 0.5007 0.5208 0.5408 0.5609 0.5811
1728.585741 0.6141 0.6257 0.6422 0.6600 0.6723
1733.619588 0.6846 0.7011 0.7231 0.7367 0.7478
1738.653436 0.7570 0.7635 0.7700 0.7766 0.7831
1743.687284 0.7875 0.7916 0.7956 0.7997 0.8037
1748.721132 0.8077 0.8110 0.8138 0.8166 0.8193
1753.754979 0.8222 0.8250 0.8278 0.8305 0.8330
1758.788827 0.8354 0.8377 0.8401 0.8424 0.8448
1763.822675 0.8471 0.8494 0.8514 0.8530 0.8546
1768.856523 0.8561 0.8577 0.8593 0.8609 0.8624
1773.890370 0.8640 0.8653 0.8665 0.8678 0.8691
1778.924218 0.8703 0.8716 0.8726 0.8733 0.8740
1783.958066 0.8746 0.8753 0.8760 0.8767 0.8774
1788.991914 0.8781 0.8788 0.8793 0.8798 0.8803
1794.025761 0.8809 0.8814 0.8819 0.8826 0.8834
1799.059609 0.8842 0.8851 0.8864 0.8880 0.8895
1804.093457 0.8911 0.8926 0.8942 0.8955 0.8966
1809.127305 0.8978 0.8990 0.9001 0.9013 0.9024
1814.161152 0.9036 0.9047 0.9056 0.9063 0.9070
1819.195000 0.9077 0.9084 0.9091 0.9099 0.9106
1824.228848 0.9108 0.9111 0.9113 0.9115 0.9118
1829.262695 0.9120 0.9122 0.9124 0.9127 0.9129
1834.296543 0.9130 0.9132 0.9133 0.9134 0.9136
1839.330391 0.9137 0.9138 0.9139 0.9140 0.9141
1844.364239 0.9141 0.9141 0.9142 0.9142 0.9142
1849.398086 0.9143 0.9143 0.9145 0.9147 0.9149
1854.431934 0.9151 0.9153 0.9155 0.9158 0.9162
1859.465782 0.9166 0.9170 0.9175 0.9179 0.9183
1864.499630 0.9188 0.9192 0.9196 0.9201 0.9205
1869.533477 0.9209 0.9214 0.9218 0.9223 0.9227
1874.567325 0.9231 0.9236 0.9240 0.9245 0.9249
1879.601173 0.9253 0.9258 0.9261 0.9264 0.9267
1884.635021 0.9271 0.9274 0.9277 0.9280 0.9284
1889.668868 0.9287 0.9290 0.9293 0.9297 0.9301
1894.702716 0.9305 0.9309 0.9313 0.9317 0.9320
1899.736564 0.9324 0.9327 0.9330 0.9333 0.9336
1904.770412 0.9338 0.9341 0.9344 0.9347 0.9350
1909.804259 0.9353 0.9356 0.9358 0.9361 0.9364
1914.838107 0.9367 0.9369 0.9370 0.9372 0.9373
1919.871955 0.9375 0.9376 0.9378 0.9379 0.9380
1924.905802 0.9382 0.9383 0.9385 0.9386 0.9388
1929.939650 0.9389 0.9391 0.9392 0.9394 0.9395
1934.973498 0.9397 0.9398 0.9398 0.9399 0.9399
1940.007346 0.9399 0.9400 0.9400 0.9400 0.9401
1945.041193 0.9401 0.9401 0.9402 0.9402 0.9402
1950.075041 0.9403 0.9403 0.9403 0.9404 0.9404
1955.108889 0.9404 0.9405 0.9407 0.9408 0.9410
1960.142737 0.9412 0.9413 0.9415 0.9417 0.9418
1965.176584 0.9420 0.9422 0.9424 0.9425 0.9427
1970.210432 0.9429 0.9430 0.9432 0.9433 0.9435
1975.244280 0.9436 0.9437 0.9438 0.9439 0.9440
1980.278128 0.9441 0.9443 0.9444 0.9445 0.9446
1985.311975 0.9447 0.9448 0.9449 0.9453 0.9459
1990.345823 0.9465 0.9471 0.9478 0.9484 0.9490
1995.379671 0.9493 0.9494 0.9495 0.9496 0.9486
2000.413519 0.9485 0.9496 0.9495 0.9493 0.9491
2005.447366 0.9489 0.9486 0.9483 0.9479 0.9476
2010.481214 0.9473 0.9469 0.9465 0.9461 0.9457
2015.515062 0.9453 0.9449 0.9445 0.9444 0.9443
2020.548909 0.9443 0.9443 0.9442 0.9442 0.9443
2025.582757 0.9443 0.9443 0.9443 0.9444 0.9443
2030.616605 0.9442 0.9441 0.9440 0.9438 0.9435
2035.650453 0.9433 0.9431 0.9428 0.9426 0.9423
2040.684300 0.9421 0.9418 0.9416 0.9414 0.9419
2045.718148 0.9430 0.9441 0.9450 0.9458 0.9464
2050.751996 0.9465 0.9464 0.9463 0.9462 0.9461
2055.785844 0.9460 0.9459 0.9459 0.9458 0.9458
2060.819691 0.9457 0.9456 0.9456 0.9455 0.9456
2065.853539 0.9457 0.9458 0.9459 0.9460 0.9461
2070.887387 0.9460 0.9459 0.9457 0.9455 0.9452
2075.921235 0.9450 0.9448 0.9446 0.9444 0.9442
2080.955082 0.9440 0.9438 0.9436 0.9434 0.9432
2085.988930 0.9429 0.9426 0.9423 0.9420 0.9417
2091.022778 0.9414 0.9411 0.9408 0.9405 0.9402
2096.056626 0.9399 0.9397 0.9395 0.9393 0.9391
2101.090473 0.9389 0.9387 0.9386 0.9384 0.9382
2106.124321 0.9380 0.9378 0.9376 0.9374 0.9372
2111.158169 0.9370 0.9368 0.9367 0.9365 0.9363
2116.192016 0.9361 0.9359 0.9357 0.9355 0.9353
2121.225864 0.9351 0.9350 0.9348 0.9347 0.9346
2126.259712 0.9344 0.9343 0.9342 0.9341 0.9340
2131.293560 0.9339 0.9337 0.9336 0.9335 0.9334
2136.327407 0.9333 0.9332 0.9331 0.9329 0.9328
2141.361255 0.9327 0.9326 0.9325 0.9324 0.9322
2146.395103 0.9321 0.9320 0.9318 0.9317 0.9315
2151.428951 0.9313 0.9312 0.9309 0.9308 0.9306
2156.462798 0.9304 0.9303 0.9301 0.9299 0.9298
2161.496646 0.9296 0.9294 0.9293 0.9291 0.9289
2166.530494 0.9288 0.9286 0.9284 0.9283 0.9281
2171.564342 0.9279 0.9278 0.9276 0.9274 0.9273
2176.598189 0.9271 0.9269 0.9268 0.9266 0.9264
2181.632037 0.9263 0.9261 0.9259 0.9258 0.9256
2186.665885 0.9253 0.9251 0.9248 0.9246 0.9243
2191.699733 0.9240 0.9238 0.9235 0.9233 0.9230
2196.733580 0.9228 0.9225 0.9222 0.9220 0.9217
2201.767428 0.9214 0.9212 0.9209 0.9205 0.9202
2206.801276 0.9198 0.9195 0.9192 0.9188 0.9185
2211.835123 0.9182 0.9178 0.9175 0.9171 0.9168
2216.868971 0.9165 0.9161 0.9158 0.9155 0.9151
2221.902819 0.9148 0.9144 0.9141 0.9137 0.9134
2226.936667 0.9131 0.9127 0.9124 0.9121 0.9117
2231.970514 0.9114 0.9110 0.9107 0.9104 0.9100
2237.004362 0.9097 0.9094 0.9090 0.9087 0.9083
2242.038210 0.9080 0.9077 0.9073 0.9070 0.9067
2247.072058 0.9064 0.9061 0.9058 0.9055 0.9052
2252.105905 0.9049 0.9047 0.9044 0.9041 0.9038
2257.139753 0.9035 0.9033 0.9030 0.9027 0.9024
2262.173601 0.9021 0.9018 0.9016 0.9013 0.9010
2267.207449 0.9007 0.9004 0.8999 0.8994 0.8990
2272.241296 0.8985 0.8980 0.8975 0.8970 0.8965
2277.275144 0.8960 0.8956 0.8951 0.8946 0.8941
2282.308992 0.8936 0.8931 0.8926 0.8922 0.8913
2287.342840 0.8893 0.8874 0.8854 0.8838 0.8826
2292.376687 0.8814 0.8802 0.8789 0.8777 0.8765
2297.410535 0.8753 0.8745 0.8738 0.8730 0.8722
2302.444383 0.8714 0.8706 0.8698 0.8690 0.8682
2307.478230 0.8674 0.8666 0.8658 0.8650 0.8642
2312.512078 0.8633 0.8625 0.8616 0.8608 0.8600
2317.545926 0.8591 0.8580 0.8569 0.8557 0.8545
2322.579774 0.8533 0.8523 0.8521 0.8519 0.8517
2327.613621 0.8515 0.8513 0.8511 0.8509 0.8506
2332.647469 0.8494 0.8503 0.8501 0.8498 0.8499
2337.681317 0.8500 0.8501 0.8502 0.8503 0.8504
2342.715165 0.8507 0.8513 0.8520 0.8526 0.8532
2347.749012 0.8538 0.8545 0.8551 0.8558 0.8564
2352.782860 0.8570 0.8576 0.8579 0.8582 0.8584
2357.816708 0.8587 0.8590 0.8593 0.8596 0.8599
2362.850556 0.8601 0.8602 0.8604 0.8606 0.8608
2367.884403 0.8610 0.8612 0.8614 0.8616 0.8617
2372.918251 0.8620 0.8622 0.8624 0.8626 0.8628
2377.952099 0.8631 0.8632 0.8634 0.8635 0.8636
2382.985947 0.8638 0.8636 0.8622 0.8641 0.8640
2388.019794 0.8633 0.8626 0.8619 0.8612 0.8605
2393.053642 0.8599 0.8594 0.8589 0.8585 0.8580
2398.087490 0.8573 0.8565 0.8556 0.8547 0.8538
2403.121337 0.8530 0.8524 0.8519 0.8514 0.8509
2408.155185 0.8504 0.8500 0.8495 0.8490 0.8486
2413.189033 0.8485 0.8483 0.8481 0.8479 0.8477
2418.222881 0.8476 0.8474 0.8472 0.8470 0.8469
2423.256728 0.8465 0.8457 0.8445 0.8433 0.8422
2428.290576 0.8410 0.8398 0.8385 0.8373 0.8360
2433.324424 0.8348 0.8338 0.8330 0.8322 0.8314
2438.358272 0.8306 0.8297 0.8289 0.8281 0.8273
2443.392119 0.8265 0.8257 0.8249 0.8240 0.8232
2448.425967 0.8224 0.8216 0.8208 0.8200 0.8191
2453.459815 0.8183 0.8175 0.8167 0.8159 0.8150
2458.493663 0.8142 0.8134 0.8126 0.8119 0.8112
2463.527510 0.8105 0.8098 0.8091 0.8084 0.8077
2468.561358 0.8070 0.8063 0.8056 0.8050 0.8044
2473.595206 0.8037 0.8031 0.8024 0.8018 0.8011
2478.629053 0.8004 0.7996 0.7988 0.7979 0.7970
2483.662901 0.7962 0.7953 0.7944 0.7936 0.7927
2488.696749 0.7918 0.7910 0.7901 0.7893 0.7885
2493.730597 0.7877 0.7869 0.7861 0.7852 0.7844
2498.764444 0.7836 0.7828 0.7820 0.7812 0.7804
2503.798292 0.7796 0.7788 0.7780 0.7773 0.7765
2508.832140 0.7757 0.7749 0.7741 0.7734 0.7726
2513.865988 0.7718 0.7710 0.7704 0.7699 0.7693
2518.899835 0.7687 0.7682 0.7676 0.7670 0.7665
2523.933683 0.7659 0.7653 0.7648 0.7642 0.7636
2528.967531 0.7631 0.7625 0.7620 0.7618 0.7616
2534.001379 0.7613 0.7611 0.7609 0.7607 0.7604
2539.035226 0.7602 0.7600 0.7598 0.7597 0.7596
2544.069074 0.7595 0.7595 0.7594 0.7594 0.7593
2549.102922 0.7592 0.7592 0.7591 0.7591 0.7590
2554.136770 0.7589 0.7589 0.7588 0.7588 0.7587
2559.170617 0.7586 0.7588 0.7590 0.7591 0.7593
2564.204465 0.7595 0.7597 0.7598 0.7600 0.7605
2569.238313 0.7613 0.7621 0.7629 0.7636 0.7639
2574.272160 0.7640 0.7641 0.7643 0.7640 0.7628
2579.306008 0.7614 0.7600 0.7585 0.7570 0.7556
2584.339856 0.7546 0.7543 0.7543 0.7543 0.7543
2589.373704 0.7542 0.7540 0.7538 0.7536 0.7534
2594.407551 0.7531 0.7527 0.7523 0.7519 0.7515
2599.441399 0.7511 0.7506 0.7499 0.7492 0.7485
2604.475247 0.7478 0.7471 0.7464 0.7457 0.7450
2609.509095 0.7443 0.7436 0.7430 0.7423 0.7416
2614.542942 0.7410 0.7403 0.7396 0.7390 0.7383
2619.576790 0.7377 0.7370 0.7362 0.7353 0.7345
2624.610638 0.7336 0.7328 0.7319 0.7310 0.7302
2629.644486 0.7293 0.7284 0.7276 0.7267 0.7259
2634.678333 0.7250 0.7241 0.7233 0.7224 0.7216
2639.712181 0.7207 0.7198 0.7189 0.7180 0.7170
2644.746029 0.7161 0.7152 0.7143 0.7134 0.7125
2649.779877 0.7116 0.7107 0.7098 0.7089 0.7080
2654.813724 0.7071 0.7062 0.7053 0.7044 0.7033
2659.847572 0.7022 0.7012 0.7001 0.6990 0.6980
2664.881420 0.6969 0.6958 0.6948 0.6937 0.6926
2669.915267 0.6916 0.6905 0.6893 0.6882 0.6870
2674.949115 0.6858 0.6847 0.6835 0.6823 0.6812
2679.982963 0.6800 0.6788 0.6776 0.6765 0.6754
2685.016811 0.6743 0.6732 0.6721 0.6710 0.6700
2690.050658 0.6689 0.6678 0.6667 0.6657 0.6646
2695.084506 0.6635 0.6624 0.6614 0.6604 0.6594
2700.118354 0.6585 0.6575 0.6566 0.6556 0.6547
2705.152202 0.6537 0.6528 0.6518 0.6508 0.6499
2710.186049 0.6490 0.6480 0.6471 0.6461 0.6451
2715.219897 0.6441 0.6431 0.6421 0.6412 0.6402
2720.253745 0.6392 0.6382 0.6372 0.6361 0.6352
2725.287593 0.6342 0.6332 0.6322 0.6312 0.6302
2730.321440 0.6292 0.6282 0.6272 0.6263 0.6253
2735.355288 0.6243 0.6233 0.6223 0.6213 0.6203
2740.389136 0.6193 0.6183 0.6172 0.6162 0.6152
2745.422984 0.6141 0.6131 0.6121 0.6110 0.6100
2750.456831 0.6089 0.6079 0.6069 0.6058 0.6047
2755.490679 0.6036 0.6025 0.6014 0.6003 0.5992
2760.524527 0.5981 0.5970 0.5959 0.5948 0.5937
2765.558374 0.5927 0.5919 0.5912 0.5905 0.5898
2770.592222 0.5891 0.5884 0.5877 0.5872 0.5868
2775.626070 0.5864 0.5860 0.5857 0.5853 0.5849
2780.659918 0.5846 0.5842 0.5838 0.5835 0.5831
2785.693765 0.5827 0.5824 0.5820 0.5816 0.5812
2790.727613 0.5808 0.5804 0.5800 0.5796 0.5792
2795.761461 0.5787 0.5784 0.5780 0.5776 0.5772
2800.795309 0.5767 0.5762 0.5758 0.5753 0.5748
2805.829156 0.5744 0.5739 0.5734 0.5729 0.5723
2810.863004 0.5717 0.5711 0.5705 0.5699 0.5693
2815.896852 0.5688 0.5682 0.5676 0.5671 0.5667
2820.930700 0.5662 0.5658 0.5654 0.5649 0.5645
2825.964547 0.5640 0.5636 0.5634 0.5631 0.5628
2830.998395 0.5626 0.5623 0.5620 0.5618 0.5615
2836.032243 0.5612 0.5610 0.5607 0.5605 0.5603
2841.066091 0.5602 0.5601 0.5600 0.5598 0.5597
2846.099938 0.5596 0.5595 0.5593 0.5592 0.5591
2851.133786 0.5590 0.5588 0.5587 0.5586 0.5585
2856.167634 0.5583 0.5582 0.5581 0.5580 0.5578
2861.201481 0.5577 0.5575 0.5574 0.5573 0.5571
2866.235329 0.5570 0.5568 0.5567 0.5566 0.5564
2871.269177 0.5563 0.5561 0.5560 0.5555 0.5550
2876.303025 0.5544 0.5539 0.5534 0.5529 0.5524
2881.336872 0.5507 0.5488 0.5468 0.5449 0.5430
2886.370720 0.5411 0.5392 0.5372 0.5353 0.5334
2891.404568 0.5315 0.5295 0.5276 0.5254 0.5223
2896.438416 0.5194 0.5169 0.5147 0.5126 0.5104
2901.472263 0.5082 0.5061 0.5039 0.5016 0.4993
2906.506111 0.4971 0.4948 0.4926 0.4909 0.4895
2911.539959 0.4880 0.4866 0.4851 0.4834 0.4816
2916.573807 0.4798 0.4786 0.4777 0.4771 0.4770
2921.607654 0.4769 0.4768 0.4767 0.4765 0.4766
2926.641502 0.4767 0.4759 0.4771 0.4772 0.4773
2931.675350 0.4775 0.4776 0.4777 0.4779 0.4780
2936.709198 0.4781 0.4782 0.4784 0.4785 0.4786
2941.743045 0.4787 0.4789 0.4790 0.4791 0.4792
2946.776893 0.4794 0.4795 0.4797 0.4798 0.4800
2951.810741 0.4801 0.4803 0.4804 0.4806 0.4807
2956.844588 0.4808 0.4809 0.4811 0.4812 0.4813
2961.878436 0.4815 0.4816 0.4819 0.4829 0.4843
2966.912284 0.4857 0.4872 0.4887 0.4901 0.4915
2971.946132 0.4929 0.4943 0.4957 0.4971 0.4985
2976.979979 0.4999 0.5013 0.5027 0.5040 0.5054
2982.013827 0.5068 0.5081 0.5094 0.5107 0.5120
2987.047675 0.5133 0.5146 0.5157 0.5163 0.5169
2992.081523 0.5175 0.5181 0.5186 0.5192 0.5195
2997.115370 0.5196 0.5196 0.5196 0.5197 0.5196
3002.149218 0.5194 0.5192 0.5190 0.5189 0.5187
3007.183066 0.5193 0.5210 0.5182 0.5180 0.5177
3012.216914 0.5176 0.5174 0.5172 0.5170 0.5169
3017.250761 0.5167 0.5165 0.5163 0.5162 0.5160
3022.284609 0.5158 0.5157 0.5155 0.5153 0.5152
3027.318457 0.5150 0.5148 0.5145 0.5143 0.5140
3032.352305 0.5137 0.5135 0.5132 0.5130 0.5127
3037.386152 0.5125 0.5121 0.5115 0.5105 0.5094
3042.420000 0.5084 0.5074 0.5063 0.5053 0.5043
3047.453848 0.5032 0.5023 0.5014 0.5005 0.4997
3052.487695 0.4986 0.4968 0.4945 0.4923 0.4900
3057.521543 0.4877 0.4855 0.4834 0.4814 0.4793
3062.555391 0.4774 0.4756 0.4740 0.4724 0.4708
3067.589239 0.4692 0.4675 0.4659 0.4642 0.4626
3072.623086 0.4610 0.4595 0.4581 0.4567 0.4553
3077.656934 0.4539 0.4524 0.4512 0.4506 0.4502
3082.690782 0.4498 0.4494 0.4489 0.4485 0.4481
3087.724630 0.4476 0.4472 0.4470 0.4468 0.4468
3092.758477 0.4467 0.4466 0.4465 0.4464 0.4466
3097.792325 0.4469 0.4472 0.4476 0.4479 0.4482
3102.826173 0.4485 0.4489 0.4492 0.4495 0.4498
3107.860021 0.4501 0.4469 0.4502 0.4511 0.4514
3112.893868 0.4518 0.4522 0.4525 0.4529 0.4533
3117.927716 0.4537 0.4544 0.4550 0.4556 0.4562
3122.961564 0.4569 0.4575 0.4581 0.4587 0.4593
3127.995412 0.4600 0.4606 0.4612 0.4619 0.4625
3133.029259 0.4632 0.4639 0.4646 0.4653 0.4659
3138.063107 0.4666 0.4673 0.4680 0.4687 0.4694
3143.096955 0.4701 0.4712 0.4724 0.4735 0.4746
3148.130802 0.4757 0.4769 0.4780 0.4791 0.4802
3153.164650 0.4813 0.4826 0.4838 0.4851 0.4864
3158.198498 0.4877 0.4889 0.4902 0.4913 0.4924
3163.232346 0.4936 0.4947 0.4959 0.4970 0.4981
3168.266193 0.4990 0.4998 0.5006 0.5014 0.5022
3173.300041 0.5030 0.5037 0.5043 0.5049 0.5055
3178.333889 0.5062 0.5068 0.5074 0.5080 0.5086
3183.367737 0.5092 0.5098 0.5104 0.5111 0.5117
3188.401584 0.5123 0.5128 0.5133 0.5138 0.5143
3193.435432 0.5148 0.5153 0.5158 0.5163 0.5168
3198.469280 0.5173 0.5178 0.5185 0.5194 0.5203
3203.503128 0.5213 0.5223 0.5232 0.5242 0.5251
3208.536975 0.5261 0.5270 0.5280 0.5289 0.5299
3213.570823 0.5312 0.5327 0.5342 0.5356 0.5371
3218.604671 0.5385 0.5400 0.5415 0.5430 0.5444
3223.638519 0.5459 0.5473 0.5487 0.5501 0.5515
3228.672366 0.5529 0.5544 0.5558 0.5572 0.5585
3233.706214 0.5599 0.5613 0.5627 0.5641 0.5655
3238.740062 0.5669 0.5683 0.5698 0.5712 0.5726
3243.773909 0.5740 0.5754 0.5768 0.5782 0.5796
3248.807757 0.5809 0.5822 0.5834 0.5847 0.5859
3253.841605 0.5872 0.5884 0.5896 0.5909 0.5921
3258.875453 0.5934 0.5947 0.5959 0.5972 0.5984
3263.909300 0.5996 0.6009 0.6021 0.6033 0.6046
3268.943148 0.6058 0.6070 0.6087 0.6105 0.6122
3273.976996 0.6141 0.6159 0.6177 0.6194 0.6210
3279.010844 0.6225 0.6241 0.6257 0.6272 0.6289
3284.044691 0.6304 0.6316 0.6326 0.6337 0.6347
3289.078539 0.6357 0.6368 0.6378 0.6388 0.6399
3294.112387 0.6409 0.6418 0.6427 0.6435 0.6444
3299.146235 0.6453 0.6462 0.6470 0.6480 0.6489
3304.180082 0.6497 0.6506 0.6515 0.6524 0.6532
3309.213930 0.6541 0.6549 0.6558 0.6567 0.6575
3314.247778 0.6584 0.6592 0.6601 0.6610 0.6618
3319.281626 0.6627 0.6636 0.6644 0.6652 0.6661
3324.315473 0.6670 0.6678 0.6686 0.6694 0.6703
3329.349321 0.6711 0.6719 0.6728 0.6736 0.6744
3334.383169 0.6752 0.6760 0.6767 0.6774 0.6782
3339.417016 0.6789 0.6796 0.6804 0.6811 0.6819
3344.450864 0.6826 0.6834 0.6841 0.6848 0.6855
3349.484712 0.6862 0.6867 0.6873 0.6879 0.6885
3354.518560 0.6891 0.6897 0.6903 0.6909 0.6914
3359.552407 0.6920 0.6926 0.6932 0.6938 0.6944
3364.586255 0.6949 0.6954 0.6959 0.6964 0.6969
3369.620103 0.6974 0.6979 0.6984 0.6989 0.6991
3374.653951 0.6991 0.6992 0.6992 0.6992 0.6993
3379.687798 0.6993 0.6993 0.6994 0.6995 0.6996
3384.721646 0.6996 0.6997 0.6998 0.6999 0.7000
3389.755494 0.7001 0.7002 0.7003 0.7004 0.7005
3394.789342 0.7005 0.7007 0.7012 0.7016 0.7021
3399.823189 0.7025 0.7030 0.7034 0.7039 0.7043
3404.857037 0.7048 0.7052 0.7060 0.7068 0.7076
3409.890885 0.7084 0.7092 0.7100 0.7108 0.7116
3414.924733 0.7123 0.7128 0.7131 0.7135 0.7138
3419.958580 0.7141 0.7146 0.7150 0.7155 0.7160
3424.992428 0.7164 0.7169 0.7173 0.7178 0.7182
3430.026276 0.7187 0.7191 0.7196 0.7200 0.7210
3435.060123 0.7221 0.7234 0.7251 0.7268 0.7279
3440.093971 0.7289 0.7299 0.7309 0.7318 0.7328
3445.127819 0.7338 0.7348 0.7357 0.7367 0.7377
3450.161667 0.7387 0.7397 0.7405 0.7414 0.7423
3455.195514 0.7432 0.7443 0.7454 0.7464 0.7475
3460.229362 0.7486 0.7496 0.7506 0.7517 0.7528
3465.263210 0.7538 0.7548 0.7558 0.7569 0.7579
3470.297058 0.7589 0.7599 0.7610 0.7620 0.7631
3475.330905 0.7641 0.7651 0.7661 0.7670 0.7679
3480.364753 0.7687 0.7696 0.7705 0.7713 0.7722
3485.398601 0.7731 0.7740 0.7748 0.7757 0.7766
3490.432449 0.7774 0.7783 0.7792 0.7801 0.7809
3495.466296 0.7818 0.7826 0.7835 0.7844 0.7854
3500.500144 0.7864 0.7875 0.7885 0.7896 0.7906
3505.533992 0.7917 0.7927 0.7937 0.7948 0.7959
3510.567840 0.7969 0.7980 0.7992 0.8004 0.8016
3515.601687 0.8027 0.8039 0.8050 0.8062 0.8074
3520.635535 0.8086 0.8097 0.8109 0.8121 0.8133
3525.669383 0.8146 0.8158 0.8168 0.8178 0.8188
3530.703230 0.8198 0.8208 0.8218 0.8228 0.8238
3535.737078 0.8248 0.8258 0.8269 0.8279 0.8289
3540.770926 0.8300 0.8310 0.8320 0.8329 0.8338
3545.804774 0.8346 0.8355 0.8364 0.8372 0.8381
3550.838621 0.8390 0.8398 0.8407 0.8415 0.8423
3555.872469 0.8431 0.8440 0.8448 0.8456 0.8465
3560.906317 0.8473 0.8481 0.8489 0.8498 0.8506
3565.940165 0.8515 0.8524 0.8532 0.8540 0.8548
3570.974012 0.8557 0.8565 0.8573 0.8582 0.8590
3576.007860 0.8598 0.8606 0.8615 0.8623 0.8631
3581.041708 0.8640 0.8648 0.8656 0.8665 0.8674
3586.075556 0.8682 0.8690 0.8699 0.8707 0.8715
3591.109403 0.8724 0.8733 0.8741 0.8750 0.8758
3596.143251 0.8766 0.8772 0.8777 0.8783 0.8788
3601.177099 0.8794 0.8799 0.8804 0.8810 0.8815
3606.210947 0.8821 0.8826 0.8832 0.8837 0.8842
3611.244794 0.8847 0.8850 0.8853 0.8856 0.8861
3616.278642 0.8867 0.8872 0.8877 0.8881 0.8885
3621.312490 0.8889 0.8892 0.8896 0.8901 0.8908
3626.346337 0.8919 0.8930 0.8940 0.8951 0.8962
3631.380185 0.8974 0.8989 0.9004 0.9019 0.9028
3636.414033 0.9032 0.9037 0.9041 0.9046 0.9049
3641.447881 0.9052 0.9055 0.9057 0.9059 0.9061
3646.481728 0.9063 0.9066 0.9072 0.9078 0.9083
3651.515576 0.9089 0.9095 0.9099 0.9101 0.9104
3656.549424 0.9106 0.9108 0.9110 0.9112 0.9114
3661.583272 0.9115 0.9116 0.9116 0.9117 0.9118
3666.617119 0.9121 0.9129 0.9137 0.9146 0.9155
3671.650967 0.9163 0.9170 0.9178 0.9183 0.9184
3676.684815 0.9182 0.9181 0.9180 0.9178 0.9177
3681.718663 0.9176 0.9171 0.9166 0.9162 0.9157
3686.752510 0.9153 0.9148 0.9143 0.9139 0.9135
3691.786358 0.9132 0.9129 0.9126 0.9123 0.9121
3696.820206 0.9118 0.9115 0.9113 0.9110 0.9110
3701.854053 0.9111 0.9111 0.9112 0.9113 0.9113
3706.887901 0.9114 0.9115 0.9115 0.9116 0.9117
3711.921749 0.9118 0.9119 0.9121 0.9123 0.9125
3716.955597 0.9126 0.9129 0.9132 0.9135 0.9138
3721.989444 0.9142 0.9145 0.9148 0.9151 0.9154
3727.023292 0.9155 0.9157 0.9158 0.9160 0.9161
3732.057140 0.9163 0.9164 0.9166 0.9167 0.9169
3737.090988 0.9171 0.9173 0.9175 0.9176 0.9178
3742.124835 0.9180 0.9183 0.9186 0.9188 0.9188
3747.158683 0.9187 0.9187 0.9187 0.9187 0.9187
3752.192531 0.9187 0.9187 0.9187 0.9188 0.9189
3757.226379 0.9190 0.9191 0.9192 0.9193 0.9194
3762.260226 0.9195 0.9196 0.9197 0.9199 0.9201
3767.294074 0.9202 0.9204 0.9206 0.9207 0.9209
3772.327922 0.9211 0.9212 0.9214 0.9215 0.9216
3777.361770 0.9217 0.9219 0.9220 0.9221 0.9223
3782.395617 0.9225 0.9229 0.9233 0.9236 0.9238
3787.429465 0.9239 0.9241 0.9241 0.9238 0.9236
3792.463313 0.9233 0.9230 0.9227 0.9224 0.9221
3797.497160 0.9217 0.9213 0.9208 0.9204 0.9200
3802.531008 0.9195 0.9191 0.9187 0.9183 0.9178
3807.564856 0.9174 0.9169 0.9164 0.9158 0.9153
3812.598704 0.9147 0.9142 0.9137 0.9132 0.9126
3817.632551 0.9121 0.9116 0.9110 0.9107 0.9105
3822.666399 0.9102 0.9100 0.9098 0.9095 0.9093
3827.700247 0.9091 0.9089 0.9089 0.9091 0.9094
3832.734095 0.9097 0.9100 0.9103 0.9106 0.9109
3837.767942 0.9113 0.9116 0.9120 0.9125 0.9131
3842.801790 0.9136 0.9142 0.9147 0.9150 0.9149
3847.835638 0.9146 0.9144 0.9142 0.9139 0.9137
3852.869486 0.9134 0.9132 0.9129 0.9126 0.9122
3857.903333 0.9116 0.9110 0.9105 0.9099 0.9094
3862.937181 0.9089 0.9083 0.9079 0.9076 0.9072
3867.971029 0.9068 0.9065 0.9061 0.9058 0.9054
3873.004877 0.9051 0.9049 0.9050 0.9050 0.9050
3878.038724 0.9051 0.9051 0.9051 0.9051 0.9052
3883.072572 0.9052 0.9052 0.9056 0.9063 0.9069
3888.106420 0.9076 0.9082 0.9088 0.9095 0.9105
3893.140267 0.9116 0.9127 0.9138 0.9148 0.9157
3898.174115 0.9165 0.9173 0.9181 0.9186 0.9186
3903.207963 0.9186 0.9187 0.9187 0.9186 0.9185
3908.241811 0.9185 0.9184 0.9183 0.9182 0.9181
3913.275658 0.9178 0.9175 0.9172 0.9169 0.9166
3918.309506 0.9163 0.9160 0.9157 0.9155 0.9154
3923.343354 0.9153 0.9152 0.9150 0.9149 0.9148
3928.377202 0.9147 0.9146 0.9145 0.9144 0.9143
3933.411049 0.9142 0.9142 0.9124 0.9118 0.9140
3938.444897 0.9139 0.9139 0.9139 0.9138 0.9138
3943.478745 0.9138 0.9137 0.9137 0.9136 0.9136
3948.512593 0.9135 0.9135 0.9134 0.9134 0.9135
3953.546440 0.9136 0.9137 0.9138 0.9139 0.9140
3958.580288 0.9141 0.9142 0.9143 0.9144 0.9145
3963.614136 0.9146 0.9147 0.9149 0.9151 0.9153
3968.647984 0.9155 0.9158 0.9160 0.9162 0.9164
3973.681831 0.9166 0.9167 0.9168 0.9169 0.9170
3978.715679 0.9171 0.9169 0.9167 0.9165 0.9163
3983.749527 0.9160 0.9157 0.9155 0.9153 0.9150
3988.783374 0.9147 0.9142 0.9138 0.9133 0.9128
3993.817222 0.9124 0.9119 0.9116 0.9114 0.9112
3998.851070 0.9111 0.9109 0.9108 0.9107 0.9105
4003.884918 0.9104 0.9102 0.9101 0.9096 0.9089
4008.918765 0.9080 0.9072 0.9063 0.9044 0.9024
4013.952613 0.9005 0.8985 0.8965 0.8946 0.8925
4018.986461 0.8906 0.8904
##END=
