##TITLE=2-BIPHENYLYLPENICILLIN, SODIUM SALT
##JCAMP-DX=4.24
##DATA TYPE=INFRARED SPECTRUM
##CLASS=COBLENTZ III
##ORIGIN=SMITH KLINE & FRENCH LABS.
##OWNER=COBLENTZ SOCIETY
Collection (C) 2018 copyright by the U.S. Secretary of Commerce
on behalf of the United States of America. All rights reserved.
##DATE=1961/08/23
##MOLFORM=C21 H19 N2 O4 S Na
##SOURCE REFERENCE=COBLENTZ NO. 9139
##$NIST ID=B6009139
##$NIST SOURCE=COBLENTZ
##$NIST IMAGE=cob9139
##SPECTROMETER/DATA SYSTEM=Not specified, most likely a prism spectrometer.
##INSTRUMENT PARAMETERS=NaCl PRISM
##STATE=SOLID (OIL MULL)
$$ PURITY - 99%
$$SPECTRAL CONTAMINATION DUE TO OIL AROUND 2900, 1450, 1380 CM^-^1
##SAMPLING PROCEDURE=TRANSMISSION
##RESOLUTION=2
##DATA PROCESSING=DIGITIZED BY NIST FROM HARD COPY
##XUNITS=MICROMETERS
##YUNITS=TRANSMITTANCE
##XFACTOR=1.000000
##YFACTOR=1
##DELTAX=000.004894
##FIRSTX=1.997
##LASTX=14.8141
##FIRSTY=0.716
##MAXX=14.8141
##MINX=1.997
##MAXY=0.916
##MINY=0.056
##NPOINTS=2620
##XYDATA=(X++(Y..Y))
1.997000 0.7160 0.7170 0.7170 0.7160 0.7170
2.021479 0.7170 0.7190 0.7190 0.7200 0.7200
2.046000 0.7200 0.7210 0.7220 0.7220 0.7240
2.070479 0.7240 0.7240 0.7250 0.7250 0.7260
2.095000 0.7260 0.7270 0.7270 0.7270 0.7300
2.119479 0.7310 0.7310 0.7320 0.7320 0.7330
2.144000 0.7330 0.7350 0.7350 0.7360 0.7360
2.168479 0.7370 0.7370 0.7370 0.7380 0.7380
2.192000 0.7390 0.7390 0.7390 0.7410 0.7410
2.216479 0.7410 0.7410 0.7420 0.7420 0.7420
2.241000 0.7420 0.7420 0.7420 0.7420 0.7420
2.265479 0.7420 0.7360 0.7350 0.7330 0.7210
2.290000 0.7140 0.7080 0.7030 0.6970 0.6910
2.314479 0.6880 0.6860 0.6800 0.6730 0.6720
2.339000 0.6720 0.6720 0.6720 0.6720 0.6720
2.363479 0.6720 0.6720 0.6730 0.6750 0.6750
2.388000 0.6770 0.6800 0.6810 0.6840 0.6870
2.412479 0.6880 0.6910 0.6920 0.6930 0.6930
2.437000 0.6930 0.6940 0.6940 0.6940 0.6950
2.461479 0.6950 0.6970 0.6990 0.6990 0.7000
2.486000 0.7040 0.7080 0.7080 0.7110 0.7240
2.510479 0.7260 0.7280 0.7310 0.7350 0.7360
2.535000 0.7370 0.7380 0.7380 0.7390 0.7390
2.559479 0.7390 0.7390 0.7420 0.7420 0.7420
2.584000 0.7430 0.7430 0.7460 0.7470 0.7480
2.608479 0.7480 0.7490 0.7490 0.7490 0.7500
2.633000 0.7500 0.7520 0.7520 0.7540 0.7540
2.657479 0.7550 0.7540 0.7550 0.7570 0.7580
2.682000 0.7600 0.7610 0.7630 0.7630 0.7640
2.706479 0.7640 0.7640 0.7640 0.7650 0.7650
2.731000 0.7650 0.7650 0.7660 0.7660 0.7660
2.755479 0.7660 0.7660 0.7660 0.7680 0.7680
2.780000 0.7680 0.7680 0.7680 0.7680 0.7680
2.804479 0.7680 0.7680 0.7680 0.7680 0.7660
2.829000 0.7660 0.7640 0.7610 0.7590 0.7570
2.853479 0.7550 0.7550 0.7540 0.7530 0.7530
2.878000 0.7520 0.7520 0.7500 0.7500 0.7470
2.902479 0.7430 0.7410 0.7390 0.7380 0.7310
2.927000 0.7240 0.7110 0.6970 0.6750 0.6520
2.951479 0.6360 0.6230 0.6140 0.6120 0.6140
2.976000 0.6170 0.6260 0.6360 0.6490 0.6650
3.000479 0.6830 0.7030 0.7240 0.7240 0.7250
3.024000 0.7270 0.7270 0.7280 0.7300 0.7300
3.048479 0.7300 0.7310 0.7310 0.7310 0.7310
3.073000 0.7310 0.7310 0.7310 0.7310 0.7310
3.097479 0.7310 0.7310 0.7310 0.7300 0.7300
3.122000 0.7300 0.7300 0.7300 0.7300 0.7300
3.146479 0.7300 0.7280 0.7270 0.7220 0.7190
3.171000 0.7190 0.7190 0.7190 0.7190 0.7190
3.195479 0.7190 0.7190 0.7190 0.7190 0.7190
3.220000 0.7190 0.7160 0.7140 0.7080 0.7030
3.244479 0.6970 0.6910 0.6840 0.6780 0.6730
3.269000 0.6660 0.6600 0.6540 0.6470 0.6390
3.293479 0.6310 0.6220 0.6140 0.6030 0.5820
3.318000 0.5700 0.5560 0.5420 0.5270 0.5110
3.342479 0.4930 0.4540 0.4170 0.3580 0.3330
3.367000 0.3100 0.2880 0.2680 0.2470 0.2270
3.391479 0.2050 0.1570 0.1290 0.0970 0.0610
3.416000 0.0590 0.0570 0.0570 0.0570 0.0570
3.440479 0.0570 0.0570 0.0570 0.0570 0.0570
3.465000 0.0570 0.0570 0.0570 0.0570 0.0570
3.489479 0.0570 0.0570 0.0570 0.0570 0.0570
3.514000 0.0570 0.0570 0.0570 0.0570 0.0570
3.538479 0.0560 0.0560 0.0570 0.0590 0.1960
3.563000 0.2410 0.2850 0.3610 0.3930 0.4230
3.587479 0.4730 0.5160 0.5500 0.5770 0.5890
3.612000 0.6000 0.6210 0.6410 0.6590 0.6800
3.636479 0.6870 0.6910 0.6920 0.6930 0.6940
3.661000 0.6940 0.6940 0.6940 0.6920 0.6910
3.685479 0.6880 0.6870 0.6860 0.6820 0.6810
3.710000 0.6810 0.6810 0.6810 0.6830 0.6860
3.734479 0.6870 0.6880 0.6890 0.6950 0.6990
3.759000 0.7000 0.7020 0.7020 0.7030 0.7040
3.783479 0.7040 0.7060 0.7080 0.7080 0.7080
3.808000 0.7090 0.7090 0.7100 0.7110 0.7110
3.832479 0.7140 0.7160 0.7160 0.7190 0.7210
3.856000 0.7260 0.7310 0.7370 0.7430 0.7480
3.880479 0.7520 0.7550 0.7550 0.7590 0.7610
3.905000 0.7650 0.7680 0.7700 0.7720 0.7750
3.929479 0.7770 0.7800 0.7820 0.7850 0.7870
3.954000 0.7890 0.7910 0.7920 0.7920 0.7930
3.978479 0.7960 0.7960 0.7970 0.7980 0.7980
4.003000 0.7990 0.7990 0.8000 0.8000 0.8020
4.027479 0.8020 0.8030 0.8050 0.8090 0.8130
4.052000 0.8150 0.8160 0.8200 0.8210 0.8240
4.076479 0.8250 0.8260 0.8270 0.8270 0.8290
4.101000 0.8290 0.8290 0.8290 0.8290 0.8290
4.125479 0.8290 0.8290 0.8290 0.8290 0.8290
4.150000 0.8290 0.8290 0.8290 0.8290 0.8290
4.174479 0.8290 0.8290 0.8290 0.8290 0.8290
4.199000 0.8290 0.8290 0.8290 0.8290 0.8290
4.223479 0.8270 0.8270 0.8270 0.8270 0.8270
4.248000 0.8290 0.8290 0.8290 0.8300 0.8300
4.272479 0.8300 0.8300 0.8300 0.8310 0.8310
4.297000 0.8320 0.8320 0.8330 0.8330 0.8330
4.321479 0.8350 0.8350 0.8350 0.8360 0.8360
4.346000 0.8360 0.8360 0.8360 0.8360 0.8370
4.370479 0.8380 0.8400 0.8410 0.8410 0.8410
4.395000 0.8420 0.8430 0.8440 0.8470 0.8480
4.419479 0.8480 0.8490 0.8490 0.8510 0.8510
4.444000 0.8520 0.8520 0.8520 0.8530 0.8530
4.468479 0.8530 0.8540 0.8540 0.8570 0.8580
4.493000 0.8590 0.8600 0.8600 0.8620 0.8620
4.517479 0.8630 0.8630 0.8640 0.8640 0.8650
4.542000 0.8650 0.8660 0.8660 0.8680 0.8680
4.566479 0.8690 0.8690 0.8690 0.8700 0.8700
4.591000 0.8700 0.8700 0.8700 0.8710 0.8730
4.615479 0.8730 0.8740 0.8740 0.8740 0.8750
4.639000 0.8750 0.8750 0.8760 0.8760 0.8760
4.663479 0.8760 0.8770 0.8770 0.8770 0.8770
4.688000 0.8770 0.8790 0.8800 0.8800 0.8810
4.712479 0.8810 0.8820 0.8820 0.8840 0.8840
4.737000 0.8850 0.8850 0.8860 0.8860 0.8880
4.761479 0.8880 0.8900 0.8910 0.8910 0.8920
4.786000 0.8920 0.8930 0.8930 0.8930 0.8930
4.810479 0.8930 0.8940 0.8940 0.8960 0.8940
4.835000 0.8940 0.8940 0.8940 0.8940 0.8940
4.859479 0.8930 0.8930 0.8930 0.8930 0.8930
4.884000 0.8930 0.8930 0.8930 0.8940 0.8940
4.908479 0.8940 0.8940 0.8940 0.8940 0.8940
4.933000 0.8940 0.8960 0.8960 0.8970 0.8970
4.957479 0.8970 0.8970 0.8980 0.8980 0.8980
4.982000 0.8980 0.8980 0.8980 0.8980 0.8990
5.006479 0.8990 0.9010 0.9010 0.9010 0.9010
5.031000 0.9010 0.9010 0.9010 0.9010 0.9020
5.055479 0.9020 0.9020 0.9020 0.9020 0.9020
5.080000 0.9030 0.9030 0.9030 0.9030 0.9040
5.104479 0.9040 0.9040 0.9040 0.9040 0.9030
5.129000 0.9030 0.9010 0.8990 0.8980 0.8970
5.153479 0.8970 0.8960 0.8970 0.8990 0.9010
5.178000 0.9030 0.9040 0.9070 0.9090 0.9130
5.202479 0.9140 0.9140 0.9140 0.9140 0.9140
5.227000 0.9140 0.9140 0.9140 0.9130 0.9120
5.251479 0.9090 0.9120 0.9080 0.9070 0.9070
5.276000 0.9070 0.9070 0.9070 0.9070 0.9070
5.300479 0.9090 0.9100 0.9100 0.9120 0.9120
5.325000 0.9130 0.9120 0.9120 0.9120 0.9120
5.349479 0.9120 0.9120 0.9120 0.9120 0.9120
5.374000 0.9120 0.9120 0.9120 0.9120 0.9120
5.398479 0.9120 0.9120 0.9120 0.9120 0.9120
5.423000 0.9100 0.9100 0.9100 0.9100 0.9100
5.447479 0.9100 0.9100 0.9100 0.9100 0.9090
5.471000 0.9080 0.9080 0.9070 0.9070 0.9050
5.495479 0.9040 0.9030 0.9030 0.9020 0.9010
5.520000 0.8980 0.8910 0.8860 0.8820 0.8800
5.544479 0.8790 0.8760 0.8740 0.8700 0.8640
5.569000 0.8540 0.8420 0.8260 0.8040 0.7710
5.593479 0.7590 0.7480 0.7380 0.7260 0.7110
5.618000 0.6940 0.6720 0.6440 0.6090 0.5140
5.642479 0.4500 0.2860 0.2020 0.1790 0.1770
5.667000 0.1740 0.1740 0.1610 0.1530 0.1520
5.691479 0.0850 0.0840 0.0850 0.0870 0.1530
5.716000 0.1880 0.2050 0.2220 0.2530 0.2740
5.740479 0.3170 0.3690 0.4210 0.4720 0.5360
5.765000 0.5840 0.6090 0.6330 0.6690 0.6770
5.789479 0.7000 0.7220 0.7250 0.7270 0.7300
5.814000 0.7330 0.7350 0.7490 0.7700 0.7810
5.838479 0.7910 0.7980 0.7990 0.8020 0.8030
5.863000 0.8070 0.8090 0.8100 0.8100 0.8100
5.887479 0.8100 0.8100 0.8100 0.8100 0.8100
5.912000 0.8100 0.8100 0.8090 0.8080 0.8080
5.936479 0.8070 0.8030 0.7890 0.7810 0.7710
5.961000 0.7590 0.7460 0.7320 0.7160 0.7000
5.985479 0.6830 0.6800 0.6710 0.6670 0.6250
6.010000 0.5200 0.4760 0.4310 0.3330 0.2740
6.034479 0.2070 0.1500 0.1480 0.1460 0.1470
6.059000 0.1480 0.1750 0.2010 0.3210 0.3780
6.083479 0.4340 0.4890 0.5430 0.5980 0.5990
6.108000 0.5980 0.5980 0.5980 0.5510 0.4510
6.132479 0.4200 0.3570 0.3130 0.3050 0.3040
6.157000 0.3020 0.3050 0.3900 0.4040 0.4170
6.181479 0.4440 0.4720 0.4730 0.4760 0.4770
6.206000 0.4340 0.3470 0.2800 0.2250 0.1020
6.230479 0.0980 0.0810 0.0800 0.0800 0.0800
6.254000 0.0800 0.0800 0.0830 0.0960 0.1530
6.278479 0.2100 0.3000 0.3680 0.3940 0.4200
6.303000 0.4550 0.4780 0.4930 0.5000 0.5050
6.327479 0.5090 0.5110 0.5170 0.5260 0.5390
6.352000 0.5540 0.5700 0.5870 0.5970 0.6050
6.376479 0.6220 0.6380 0.6470 0.6540 0.6590
6.401000 0.6630 0.6660 0.6700 0.6720 0.6750
6.425479 0.6780 0.6820 0.6870 0.6930 0.6970
6.450000 0.6980 0.6990 0.7000 0.7000 0.7000
6.474479 0.7000 0.7000 0.7000 0.7000 0.7000
6.499000 0.7000 0.6950 0.6870 0.6770 0.6600
6.523479 0.6420 0.6190 0.5760 0.5550 0.5340
6.548000 0.5140 0.4930 0.4700 0.4460 0.4210
6.572479 0.3620 0.3280 0.2910 0.2500 0.2050
6.597000 0.1770 0.1730 0.1730 0.1730 0.1730
6.621479 0.1730 0.1740 0.1750 0.1830 0.1960
6.646000 0.2100 0.2490 0.2880 0.3220 0.3380
6.670479 0.3460 0.3610 0.3800 0.3910 0.4010
6.695000 0.4210 0.4350 0.4430 0.4460 0.4500
6.719479 0.4500 0.4500 0.4500 0.4280 0.4070
6.744000 0.3660 0.3450 0.3240 0.3040 0.2820
6.768479 0.2550 0.2280 0.2230 0.2180 0.2160
6.793000 0.2140 0.1900 0.1810 0.1730 0.1720
6.817479 0.1400 0.0960 0.0890 0.0870 0.0860
6.842000 0.0850 0.0840 0.0840 0.0840 0.0840
6.866479 0.0840 0.0850 0.0850 0.0850 0.0850
6.891000 0.0850 0.0850 0.0850 0.0860 0.0870
6.915479 0.0910 0.1170 0.1180 0.1180 0.1200
6.940000 0.1240 0.1450 0.1640 0.1830 0.1910
6.964479 0.2000 0.2170 0.2330 0.2470 0.2620
6.989000 0.2750 0.2890 0.3020 0.3150 0.3280
7.013479 0.3400 0.3680 0.3720 0.3720 0.3690
7.038000 0.3610 0.3390 0.3220 0.3080 0.2960
7.062479 0.2840 0.2690 0.2360 0.2340 0.2340
7.086000 0.2330 0.2310 0.2350 0.2790 0.3040
7.110479 0.3270 0.3490 0.3720 0.3940 0.4050
7.135000 0.4160 0.4370 0.4600 0.4820 0.5040
7.159479 0.5060 0.5070 0.5090 0.5090 0.5090
7.184000 0.5090 0.5090 0.5030 0.4950 0.4700
7.208479 0.4430 0.4160 0.3610 0.2560 0.2450
7.233000 0.2350 0.2240 0.2140 0.2070 0.2000
7.257479 0.1860 0.1790 0.1720 0.1660 0.1580
7.282000 0.1510 0.1510 0.1530 0.1640 0.1730
7.306479 0.1840 0.1960 0.2080 0.2420 0.2440
7.331000 0.2440 0.2450 0.2450 0.2460 0.2460
7.355479 0.2490 0.2850 0.3500 0.3790 0.4090
7.380000 0.4310 0.4560 0.4770 0.4830 0.4930
7.404479 0.4940 0.4950 0.4950 0.4940 0.4930
7.429000 0.4920 0.4880 0.4850 0.4830 0.4820
7.453479 0.4740 0.4610 0.4440 0.4260 0.4090
7.478000 0.4000 0.3900 0.3830 0.3830 0.3830
7.502479 0.3830 0.3940 0.4040 0.4040 0.4020
7.527000 0.3690 0.3490 0.3240 0.2960 0.2680
7.551479 0.2410 0.2240 0.2170 0.2120 0.2140
7.576000 0.2140 0.2140 0.2140 0.2140 0.2160
7.600479 0.2170 0.2360 0.2490 0.2690 0.2950
7.625000 0.3240 0.3560 0.3880 0.4040 0.4200
7.649479 0.4490 0.4720 0.4780 0.4840 0.4920
7.674000 0.5000 0.5090 0.5170 0.5260 0.5340
7.698479 0.5420 0.5490 0.5540 0.5560 0.5590
7.723000 0.5640 0.5720 0.5760 0.5790 0.5810
7.747479 0.5810 0.5820 0.5820 0.5820 0.5790
7.772000 0.5770 0.5450 0.5440 0.5440 0.5470
7.796479 0.5560 0.5610 0.5660 0.5700 0.5750
7.821000 0.5760 0.5770 0.5770 0.5770 0.5770
7.845479 0.5750 0.5720 0.5710 0.5510 0.5090
7.869000 0.4660 0.4230 0.3460 0.3130 0.3010
7.893479 0.3000 0.3020 0.3360 0.3710 0.3980
7.918000 0.4230 0.4450 0.4680 0.5070 0.5250
7.942479 0.5430 0.5600 0.5680 0.5750 0.5860
7.967000 0.5890 0.5930 0.5980 0.5990 0.6000
7.991479 0.6060 0.6110 0.6110 0.6110 0.6110
8.016000 0.6110 0.6110 0.6110 0.6110 0.6110
8.040479 0.6110 0.6110 0.6110 0.6120 0.6160
8.065000 0.6220 0.6300 0.6380 0.6490 0.6610
8.089479 0.6690 0.6750 0.6800 0.6840 0.6890
8.114000 0.6930 0.6970 0.7000 0.7040 0.7080
8.138479 0.7100 0.7140 0.7160 0.7200 0.7210
8.163000 0.7220 0.7240 0.7240 0.7250 0.7260
8.187479 0.7270 0.7280 0.7320 0.7330 0.7350
8.212000 0.7350 0.7350 0.7360 0.7360 0.7360
8.236479 0.7360 0.7360 0.7360 0.7360 0.7360
8.261000 0.7360 0.7350 0.7330 0.7310 0.7270
8.285479 0.7210 0.7150 0.7060 0.7000 0.6940
8.310000 0.6910 0.6840 0.6780 0.6770 0.6760
8.334479 0.6730 0.6730 0.6720 0.6710 0.6710
8.359000 0.6710 0.6710 0.6710 0.6710 0.6710
8.383479 0.6720 0.6730 0.6800 0.6910 0.7020
8.408000 0.7040 0.7080 0.7090 0.7110 0.7110
8.432479 0.7110 0.7110 0.7110 0.7090 0.7060
8.457000 0.7030 0.6910 0.6800 0.6650 0.6560
8.481479 0.6550 0.6540 0.6540 0.6540 0.6540
8.506000 0.6540 0.6540 0.6540 0.6540 0.6540
8.530479 0.6530 0.6530 0.6530 0.6530 0.6520
8.555000 0.6500 0.6490 0.6480 0.6390 0.6370
8.579479 0.6340 0.6320 0.6270 0.6230 0.6170
8.604000 0.6100 0.6000 0.5770 0.5610 0.5530
8.628479 0.5440 0.5370 0.5360 0.5340 0.5360
8.653000 0.5370 0.5540 0.5700 0.5860 0.5990
8.677479 0.6050 0.6110 0.6220 0.6320 0.6410
8.701000 0.6490 0.6560 0.6650 0.6710 0.6780
8.725479 0.6860 0.6930 0.6980 0.7020 0.7040
8.750000 0.7050 0.7060 0.7090 0.7100 0.7130
8.774479 0.7170 0.7220 0.7250 0.7260 0.7260
8.799000 0.7270 0.7270 0.7270 0.7280 0.7280
8.823479 0.7280 0.7280 0.7280 0.7220 0.7200
8.848000 0.7140 0.7090 0.7000 0.6910 0.6810
8.872479 0.6700 0.6550 0.6390 0.6260 0.6250
8.897000 0.6220 0.6210 0.6190 0.6170 0.6170
8.921479 0.6160 0.6150 0.6170 0.6200 0.6280
8.946000 0.6470 0.6640 0.6780 0.6920 0.7030
8.970479 0.7130 0.7200 0.7220 0.7250 0.7260
8.995000 0.7280 0.7310 0.7330 0.7350 0.7350
9.019479 0.7350 0.7380 0.7390 0.7410 0.7420
9.044000 0.7430 0.7440 0.7440 0.7470 0.7500
9.068479 0.7520 0.7530 0.7540 0.7550 0.7570
9.093000 0.7580 0.7580 0.7590 0.7590 0.7590
9.117479 0.7590 0.7590 0.7590 0.7590 0.7590
9.142000 0.7590 0.7590 0.7520 0.7440 0.7320
9.166479 0.7080 0.6810 0.6530 0.6270 0.6060
9.191000 0.5720 0.5550 0.5470 0.5420 0.5390
9.215479 0.5390 0.5400 0.5610 0.5830 0.5940
9.240000 0.6050 0.6210 0.6330 0.6450 0.6590
9.264479 0.6670 0.6760 0.6890 0.6980 0.7020
9.289000 0.7020 0.7020 0.7020 0.7020 0.7020
9.313479 0.7020 0.7040 0.7060 0.7080 0.7130
9.338000 0.7140 0.7160 0.7210 0.7270 0.7350
9.362479 0.7430 0.7500 0.7570 0.7630 0.7650
9.387000 0.7660 0.7690 0.7690 0.7700 0.7700
9.411479 0.7710 0.7710 0.7740 0.7750 0.7750
9.436000 0.7760 0.7760 0.7760 0.7770 0.7770
9.460479 0.7780 0.7780 0.7800 0.7800 0.7800
9.485000 0.7810 0.7810 0.7810 0.7810 0.7810
9.509479 0.7810 0.7810 0.7810 0.7810 0.7810
9.533000 0.7810 0.7810 0.7800 0.7800 0.7800
9.557479 0.7800 0.7800 0.7800 0.7800 0.7800
9.582000 0.7780 0.7780 0.7780 0.7780 0.7780
9.606479 0.7780 0.7780 0.7770 0.7770 0.7770
9.631000 0.7770 0.7770 0.7770 0.7770 0.7760
9.655479 0.7760 0.7760 0.7760 0.7760 0.7760
9.680000 0.7750 0.7750 0.7750 0.7750 0.7740
9.704479 0.7740 0.7740 0.7740 0.7720 0.7720
9.729000 0.7710 0.7710 0.7690 0.7660 0.7630
9.753479 0.7590 0.7570 0.7540 0.7520 0.7490
9.778000 0.7480 0.7480 0.7480 0.7480 0.7480
9.802479 0.7480 0.7490 0.7540 0.7580 0.7610
9.827000 0.7640 0.7660 0.7680 0.7690 0.7710
9.851479 0.7720 0.7750 0.7760 0.7800 0.7820
9.876000 0.7830 0.7830 0.7830 0.7830 0.7830
9.900479 0.7820 0.7800 0.7740 0.7660 0.7570
9.925000 0.7470 0.7370 0.7270 0.7200 0.7150
9.949479 0.7140 0.7130 0.7130 0.7150 0.7240
9.974000 0.7350 0.7360 0.7380 0.7380 0.7390
9.998479 0.7390 0.7390 0.7390 0.7380 0.7380
10.023000 0.7360 0.7350 0.7330 0.7310 0.7300
10.047479 0.7280 0.7280 0.7260 0.7260 0.7250
10.072000 0.7250 0.7250 0.7250 0.7250 0.7250
10.096479 0.7250 0.7250 0.7250 0.7250 0.7240
10.121000 0.7240 0.7240 0.7220 0.7210 0.7200
10.145479 0.7190 0.7170 0.7170 0.7160 0.7160
10.170000 0.7150 0.7150 0.7150 0.7150 0.7160
10.194479 0.7170 0.7170 0.7220 0.7250 0.7270
10.219000 0.7280 0.7300 0.7300 0.7310 0.7310
10.243479 0.7320 0.7330 0.7330 0.7350 0.7350
10.268000 0.7360 0.7370 0.7370 0.7380 0.7380
10.292479 0.7380 0.7390 0.7390 0.7390 0.7390
10.316000 0.7410 0.7410 0.7410 0.7410 0.7420
10.340479 0.7420 0.7420 0.7420 0.7430 0.7430
10.365000 0.7430 0.7430 0.7420 0.7420 0.7370
10.389479 0.7350 0.7310 0.7280 0.7280 0.7260
10.414000 0.7250 0.7250 0.7240 0.7240 0.7220
10.438479 0.7210 0.7210 0.7200 0.7200 0.7190
10.463000 0.7170 0.7160 0.7150 0.7140 0.7130
10.487479 0.7130 0.7130 0.7130 0.7150 0.7190
10.512000 0.7250 0.7390 0.7470 0.7520 0.7540
10.536479 0.7590 0.7650 0.7700 0.7760 0.7770
10.561000 0.7780 0.7780 0.7800 0.7800 0.7780
10.585479 0.7800 0.7800 0.7800 0.7810 0.7810
10.610000 0.7810 0.7820 0.7820 0.7830 0.7830
10.634479 0.7830 0.7850 0.7850 0.7850 0.7860
10.659000 0.7860 0.7860 0.7870 0.7870 0.7870
10.683479 0.7880 0.7880 0.7880 0.7880 0.7880
10.708000 0.7880 0.7880 0.7880 0.7880 0.7880
10.732479 0.7880 0.7880 0.7880 0.7880 0.7880
10.757000 0.7880 0.7880 0.7880 0.7870 0.7860
10.781479 0.7850 0.7830 0.7810 0.7760 0.7700
10.806000 0.7640 0.7550 0.7460 0.7360 0.7250
10.830479 0.7110 0.7040 0.7030 0.7000 0.7000
10.855000 0.7000 0.7000 0.7000 0.7030 0.7100
10.879479 0.7160 0.7310 0.7540 0.7590 0.7640
10.904000 0.7690 0.7740 0.7780 0.7810 0.7810
10.928479 0.7870 0.7920 0.7970 0.7990 0.8000
10.953000 0.8040 0.8090 0.8110 0.8150 0.8180
10.977479 0.8210 0.8240 0.8250 0.8270 0.8300
11.002000 0.8310 0.8320 0.8330 0.8350 0.8360
11.026479 0.8360 0.8370 0.8380 0.8380 0.8400
11.051000 0.8410 0.8420 0.8430 0.8440 0.8460
11.075479 0.8480 0.8490 0.8490 0.8490 0.8480
11.100000 0.8480 0.8490 0.8480 0.8480 0.8470
11.124479 0.8470 0.8470 0.8470 0.8470 0.8470
11.148000 0.8470 0.8470 0.8470 0.8460 0.8440
11.172479 0.8430 0.8410 0.8370 0.8330 0.8330
11.197000 0.8320 0.8310 0.8240 0.8150 0.8030
11.221479 0.7770 0.7680 0.7600 0.7530 0.7500
11.246000 0.7440 0.7420 0.7410 0.7410 0.7410
11.270479 0.7410 0.7420 0.7440 0.7530 0.7640
11.295000 0.7690 0.7760 0.7830 0.7910 0.7920
11.319479 0.7940 0.7970 0.7970 0.7970 0.7980
11.344000 0.7980 0.7980 0.7990 0.7990 0.7990
11.368479 0.8000 0.8000 0.8020 0.8030 0.8030
11.393000 0.8040 0.8050 0.8050 0.8070 0.8080
11.417479 0.8090 0.8090 0.8100 0.8110 0.8130
11.442000 0.8140 0.8150 0.8160 0.8180 0.8190
11.466479 0.8200 0.8220 0.8240 0.8240 0.8250
11.491000 0.8260 0.8260 0.8270 0.8290 0.8290
11.515479 0.8300 0.8300 0.8300 0.8300 0.8300
11.540000 0.8300 0.8270 0.8250 0.8160 0.8100
11.564479 0.8030 0.7920 0.7890 0.7830 0.7820
11.589000 0.7820 0.7820 0.7820 0.7830 0.7850
11.613479 0.7870 0.7930 0.7990 0.8030 0.8050
11.638000 0.8080 0.8130 0.8180 0.8210 0.8250
11.662479 0.8290 0.8310 0.8350 0.8370 0.8400
11.687000 0.8410 0.8430 0.8440 0.8470 0.8480
11.711479 0.8490 0.8510 0.8520 0.8520 0.8530
11.736000 0.8530 0.8540 0.8540 0.8540 0.8550
11.760479 0.8550 0.8550 0.8570 0.8580 0.8580
11.785000 0.8590 0.8590 0.8600 0.8600 0.8620
11.809479 0.8620 0.8630 0.8630 0.8650 0.8660
11.834000 0.8660 0.8680 0.8690 0.8700 0.8700
11.858479 0.8710 0.8730 0.8740 0.8740 0.8750
11.883000 0.8760 0.8760 0.8770 0.8790 0.8790
11.907479 0.8800 0.8800 0.8800 0.8810 0.8810
11.931000 0.8820 0.8820 0.8840 0.8840 0.8840
11.955479 0.8860 0.8860 0.8870 0.8880 0.8880
11.980000 0.8900 0.8900 0.8910 0.8920 0.8920
12.004479 0.8930 0.8930 0.8940 0.8940 0.8960
12.029000 0.8970 0.8970 0.8980 0.8980 0.8990
12.053479 0.8990 0.8990 0.9010 0.9010 0.9020
12.078000 0.9020 0.9030 0.9030 0.9030 0.9040
12.102479 0.9040 0.9040 0.9040 0.9040 0.9040
12.127000 0.9040 0.9040 0.9040 0.9040 0.9050
12.151479 0.9040 0.9050 0.9050 0.9030 0.9030
12.176000 0.9020 0.8990 0.8980 0.8960 0.8940
12.200479 0.8880 0.8810 0.8750 0.8660 0.8570
12.225000 0.8530 0.8470 0.8460 0.8460 0.8440
12.249479 0.8430 0.8420 0.8430 0.8430 0.8430
12.274000 0.8430 0.8430 0.8440 0.8440 0.8460
12.298479 0.8460 0.8460 0.8470 0.8470 0.8470
12.323000 0.8480 0.8490 0.8510 0.8510 0.8520
12.347479 0.8530 0.8530 0.8580 0.8630 0.8650
12.372000 0.8680 0.8710 0.8740 0.8760 0.8800
12.396479 0.8840 0.8840 0.8860 0.8870 0.8880
12.421000 0.8900 0.8910 0.8920 0.8930 0.8940
12.445479 0.8960 0.8980 0.9010 0.9020 0.9030
12.470000 0.9040 0.9050 0.9070 0.9080 0.9090
12.494479 0.9090 0.9100 0.9100 0.9100 0.9120
12.519000 0.9120 0.9130 0.9130 0.9130 0.9140
12.543479 0.9140 0.9150 0.9150 0.9150 0.9160
12.568000 0.9160 0.9160 0.9160 0.9160 0.9160
12.592479 0.9160 0.9160 0.9160 0.9160 0.9160
12.617000 0.9160 0.9150 0.9150 0.9150 0.9150
12.641479 0.9150 0.9150 0.9150 0.9150 0.9150
12.666000 0.9150 0.9150 0.9140 0.9140 0.9140
12.690479 0.9140 0.9140 0.9130 0.9100 0.9010
12.715000 0.8860 0.8680 0.8490 0.8290 0.8080
12.739479 0.7710 0.7550 0.7380 0.7330 0.7320
12.763000 0.7330 0.7330 0.7350 0.7350 0.7370
12.787479 0.7420 0.7440 0.7460 0.7460 0.7440
12.812000 0.7430 0.7370 0.7310 0.7240 0.7220
12.836479 0.7240 0.7250 0.7280 0.7350 0.7420
12.861000 0.7460 0.7550 0.7660 0.7780 0.7890
12.885479 0.7980 0.7990 0.8000 0.8000 0.8030
12.910000 0.8070 0.8100 0.8110 0.8110 0.8130
12.934479 0.8130 0.8140 0.8130 0.8130 0.8130
12.959000 0.8130 0.8130 0.8090 0.8080 0.8070
12.983479 0.8040 0.8040 0.8030 0.7920 0.7850
13.008000 0.7770 0.7690 0.7590 0.7470 0.7330
13.032479 0.7170 0.6990 0.6780 0.6550 0.6280
13.057000 0.5940 0.5930 0.5940 0.5940 0.5940
13.081479 0.5940 0.5950 0.5980 0.5990 0.6000
13.106000 0.6050 0.6110 0.6200 0.6300 0.6420
13.130479 0.6450 0.6490 0.6550 0.6550 0.6560
13.155000 0.6580 0.6580 0.6560 0.6490 0.6390
13.179479 0.6300 0.6170 0.6050 0.5760 0.5590
13.204000 0.5420 0.5220 0.5010 0.4780 0.4710
13.228479 0.4570 0.4510 0.4500 0.4500 0.4500
13.253000 0.4510 0.4520 0.4680 0.5030 0.5320
13.277479 0.5570 0.5810 0.5900 0.6000 0.6190
13.302000 0.6360 0.6520 0.6660 0.6800 0.6840
13.326479 0.6950 0.6990 0.7020 0.7030 0.7030
13.351000 0.7040 0.7040 0.7040 0.7040 0.7040
13.375479 0.6980 0.6970 0.6940 0.6920 0.6830
13.400000 0.6600 0.6410 0.6210 0.6010 0.5610
13.424479 0.5400 0.5200 0.4990 0.4770 0.4550
13.449000 0.4320 0.4090 0.3580 0.3320 0.3050
13.473479 0.2750 0.2450 0.2130 0.1990 0.2000
13.498000 0.2000 0.2000 0.2010 0.2010 0.2220
13.522479 0.2450 0.2670 0.2900 0.3120 0.3350
13.546000 0.3580 0.3820 0.3930 0.4040 0.4270
13.570479 0.4480 0.4700 0.4890 0.5090 0.5280
13.595000 0.5450 0.5610 0.5760 0.5900 0.5970
13.619479 0.6010 0.6120 0.6210 0.6270 0.6320
13.644000 0.6340 0.6340 0.6390 0.6430 0.6470
13.668479 0.6490 0.6500 0.6530 0.6540 0.6550
13.693000 0.6560 0.6560 0.6580 0.6600 0.6610
13.717479 0.6640 0.6670 0.6700 0.6720 0.6760
13.742000 0.6780 0.6820 0.6840 0.6870 0.6880
13.766479 0.6910 0.6910 0.6920 0.6940 0.6990
13.791000 0.7040 0.7100 0.7150 0.7200 0.7220
13.815479 0.7210 0.7220 0.7240 0.7240 0.7240
13.840000 0.7240 0.7250 0.7250 0.7250 0.7250
13.864479 0.7250 0.7260 0.7270 0.7270 0.7280
13.889000 0.7300 0.7310 0.7320 0.7350 0.7350
13.913479 0.7360 0.7370 0.7380 0.7420 0.7460
13.938000 0.7490 0.7530 0.7570 0.7590 0.7610
13.962479 0.7640 0.7650 0.7650 0.7680 0.7700
13.987000 0.7720 0.7760 0.7810 0.7850 0.7860
14.011479 0.7870 0.7880 0.7910 0.7940 0.7970
14.036000 0.7970 0.7990 0.8030 0.8070 0.8080
14.060479 0.8100 0.8100 0.8110 0.8110 0.8130
14.085000 0.8130 0.8130 0.8130 0.8130 0.8130
14.109479 0.8130 0.8130 0.8130 0.8130 0.8130
14.134000 0.8130 0.8130 0.8050 0.7930 0.7860
14.158479 0.7800 0.7740 0.7680 0.7610 0.7550
14.183000 0.7490 0.7440 0.7380 0.7270 0.7200
14.207479 0.7130 0.7050 0.7040 0.6650 0.6440
14.232000 0.6440 0.6410 0.6360 0.6170 0.6000
14.256479 0.5620 0.5400 0.5200 0.4960 0.4740
14.281000 0.4520 0.4320 0.4120 0.3760 0.3600
14.305479 0.3460 0.3390 0.3360 0.3340 0.3340
14.330000 0.3340 0.3360 0.3380 0.3670 0.3870
14.354479 0.4060 0.4420 0.4760 0.5060 0.5360
14.378000 0.5640 0.5880 0.6000 0.6110 0.6320
14.402479 0.6520 0.6700 0.6860 0.7000 0.7140
14.427000 0.7260 0.7360 0.7460 0.7540 0.7600
14.451479 0.7660 0.7720 0.7760 0.7780 0.7810
14.476000 0.7830 0.7860 0.7880 0.7910 0.7930
14.500479 0.7960 0.7980 0.8000 0.8020 0.8040
14.525000 0.8070 0.8090 0.8130 0.8150 0.8190
14.549479 0.8210 0.8220 0.8240 0.8240 0.8240
14.574000 0.8240 0.8250 0.8250 0.8250 0.8250
14.598479 0.8260 0.8260 0.8270 0.8270 0.8300
14.623000 0.8320 0.8330 0.8350 0.8350 0.8360
14.647479 0.8360 0.8370 0.8380 0.8400 0.8400
14.672000 0.8400 0.8400 0.8400 0.8400 0.8400
14.696479 0.8400 0.8400 0.8400 0.8400 0.8400
14.721000 0.8400 0.8400 0.8400 0.8380 0.8380
14.745479 0.8370 0.8370 0.8360 0.8360 0.8350
14.770000 0.8350 0.8350 0.8350 0.8350 0.8330
14.794479 0.8330 0.8330 0.8330 0.8330 0.8330
##END=
