##TITLE=Indole, 2-methyl-, hydrochloride
##JCAMP-DX=4.24
##DATA TYPE=INFRARED SPECTRUM
##CLASS=COBLENTZ III
##ORIGIN=BRITISH PETROLEUM CO. LTD., ENGLAND
##OWNER=Copyright (C) 1987 by the Coblentz Society
Collection (C) 2018 copyright by the U.S. Secretary of Commerce
on behalf of the United States of America. All rights reserved.
##DATE=1972/07/10
##NAMES=2-methyl-1H-indole hydrochloride
##MOLFORM=C9 H10 Cl N
##SOURCE REFERENCE=COBLENTZ NO. 9398
##$NIST ID=B6009398
##$NIST SOURCE=COBLENTZ
##$NIST IMAGE=cob9398
##SPECTROMETER/DATA SYSTEM=PERKIN-ELMER 157
##STATE=SOLID (KBr DISC, 0.9% WT.)
$$ HCl RUN IN KBr MAY CONTAIN SOME HBr
$$ REF. Can. J. Spec., 18,4,101, '73 C. S. DOUSE and P. B. TOOKE
##SAMPLING PROCEDURE=TRANSMISSION
##RESOLUTION=2
##DATA PROCESSING=DIGITIZED BY COBLENTZ SOCIETY (BATCH II) FROM HARD COPY
##XUNITS=1/CM
##YUNITS=TRANSMITTANCE
##XFACTOR=1.0
##YFACTOR=1
##FIRSTX=668
##LASTX=4000
##FIRSTY=0.4556
##MAXX=4000
##MINX=668
##MAXY=0.7489
##MINY=0.0404
##NPOINTS=3333
##XYDATA=(X++(Y..Y))
668.000000 0.4556 0.4561 0.4561 0.4568 0.4574
673.000000 0.4583 0.4628 0.4669 0.4690 0.4706
678.000000 0.4718 0.4730 0.4743 0.4772 0.4841
683.000000 0.4903 0.4938 0.4971 0.5021 0.5054
688.000000 0.5082 0.5107 0.5130 0.5149 0.5162
693.000000 0.5172 0.5181 0.5187 0.5191 0.5194
698.000000 0.5221 0.5197 0.5199 0.5199 0.5200
703.000000 0.5196 0.5187 0.5178 0.5160 0.5141
708.000000 0.5119 0.5100 0.5087 0.5080 0.5078
713.000000 0.5081 0.5085 0.5091 0.5097 0.5103
718.000000 0.5113 0.5119 0.5107 0.5065 0.4986
723.000000 0.4879 0.4739 0.4577 0.4469 0.4204
728.000000 0.3976 0.3611 0.3358 0.3098 0.2830
733.000000 0.2550 0.1956 0.1749 0.1576 0.1344
738.000000 0.1112 0.0870 0.0718 0.0607 0.0523
743.000000 0.0465 0.0433 0.0430 0.0414 0.0487
748.000000 0.0548 0.0563 0.0590 0.0641 0.0699
753.000000 0.0749 0.0798 0.0872 0.0957 0.1043
758.000000 0.1118 0.1204 0.1299 0.1388 0.1490
763.000000 0.1611 0.1734 0.1839 0.1951 0.2143
768.000000 0.2302 0.2864 0.3048 0.3234 0.3418
773.000000 0.3602 0.3786 0.3969 0.4153 0.4313
778.000000 0.4432 0.4537 0.4606 0.4675 0.4759
783.000000 0.4842 0.4934 0.5024 0.5109 0.5201
788.000000 0.5278 0.5324 0.5348 0.5364 0.5376
793.000000 0.5385 0.5394 0.5407 0.5418 0.5428
798.000000 0.5440 0.5462 0.5491 0.5565 0.5673
803.000000 0.5758 0.5855 0.5898 0.5904 0.5906
808.000000 0.5907 0.5926 0.5909 0.5903 0.5881
813.000000 0.5833 0.5780 0.5726 0.5671 0.5612
818.000000 0.5551 0.5484 0.5378 0.5324 0.5310
823.000000 0.5368 0.5459 0.5565 0.5714 0.5790
828.000000 0.5847 0.5889 0.5991 0.6023 0.6027
833.000000 0.6025 0.6008 0.5989 0.5964 0.5934
838.000000 0.5901 0.5854 0.5771 0.5689 0.5536
843.000000 0.5350 0.5326 0.5314 0.5301 0.5318
848.000000 0.5329 0.5341 0.5368 0.5421 0.5496
853.000000 0.5505 0.5506 0.5507 0.5494 0.5478
858.000000 0.5444 0.5400 0.5341 0.5271 0.5214
863.000000 0.5117 0.5003 0.4978 0.4977 0.4989
868.000000 0.4983 0.4992 0.5000 0.5011 0.5025
873.000000 0.5049 0.5088 0.5126 0.5161 0.5186
878.000000 0.5207 0.5215 0.5222 0.5219 0.5211
883.000000 0.5198 0.5184 0.5166 0.5164 0.5178
888.000000 0.5197 0.5232 0.5293 0.5422 0.5549
893.000000 0.5645 0.5731 0.5807 0.5865 0.5912
898.000000 0.5941 0.5973 0.6007 0.6037 0.6047
903.000000 0.6048 0.6045 0.6038 0.6023 0.6003
908.000000 0.5981 0.5947 0.5973 0.5999 0.6026
913.000000 0.6039 0.6036 0.6039 0.6002 0.5975
918.000000 0.5938 0.5896 0.5860 0.5825 0.5799
923.000000 0.5778 0.5773 0.5773 0.5765 0.5795
928.000000 0.5823 0.5858 0.5892 0.5923 0.5954
933.000000 0.5977 0.5999 0.6021 0.6032 0.6032
938.000000 0.6032 0.6039 0.6065 0.6134 0.6215
943.000000 0.6228 0.6241 0.6254 0.6268 0.6284
948.000000 0.6290 0.6292 0.6284 0.6278 0.6262
953.000000 0.6245 0.6225 0.6205 0.6184 0.6164
958.000000 0.6144 0.6131 0.6122 0.6122 0.6123
963.000000 0.6124 0.6125 0.6126 0.6126 0.6122
968.000000 0.6114 0.6103 0.6086 0.6069 0.6052
973.000000 0.6035 0.6015 0.5987 0.5958 0.5928
978.000000 0.5894 0.5860 0.5812 0.5760 0.5712
983.000000 0.5636 0.5496 0.5350 0.5204 0.5105
988.000000 0.5023 0.4944 0.4914 0.4897 0.4944
993.000000 0.4995 0.5056 0.5139 0.5220 0.5279
998.000000 0.5306 0.5321 0.5282 0.5211 0.5097
1003.000000 0.5012 0.4913 0.4761 0.4609 0.4458
1008.000000 0.4306 0.4146 0.4066 0.4048 0.4054
1013.000000 0.4036 0.4113 0.4166 0.4230 0.4294
1018.000000 0.4358 0.4420 0.4484 0.4547 0.4612
1023.000000 0.4676 0.4725 0.4775 0.4836 0.4957
1028.000000 0.5044 0.5102 0.5176 0.5264 0.5339
1033.000000 0.5406 0.5457 0.5500 0.5526 0.5549
1038.000000 0.5560 0.5570 0.5575 0.5578 0.5577
1043.000000 0.5574 0.5582 0.5556 0.5535 0.5508
1048.000000 0.5463 0.5304 0.5092 0.4881 0.4670
1053.000000 0.4460 0.4250 0.4040 0.3865 0.3780
1058.000000 0.3744 0.3761 0.3796 0.3874 0.4096
1063.000000 0.4333 0.4569 0.4790 0.5095 0.5282
1068.000000 0.5369 0.5463 0.5556 0.5632 0.5723
1073.000000 0.5812 0.5850 0.5867 0.5871 0.5870
1078.000000 0.5853 0.5851 0.5845 0.5843 0.5838
1083.000000 0.5831 0.5818 0.5800 0.5776 0.5744
1088.000000 0.5694 0.5646 0.5584 0.5503 0.5415
1093.000000 0.5262 0.5084 0.4970 0.4832 0.4815
1098.000000 0.4811 0.4808 0.4806 0.4795 0.4714
1103.000000 0.4648 0.4637 0.4616 0.4565 0.4516
1108.000000 0.4484 0.4469 0.4469 0.4478 0.4492
1113.000000 0.4507 0.4520 0.4527 0.4530 0.4530
1118.000000 0.4524 0.4495 0.4310 0.4120 0.3841
1123.000000 0.3743 0.3733 0.3731 0.3717 0.3841
1128.000000 0.3936 0.4032 0.4127 0.4222 0.4300
1133.000000 0.4323 0.4326 0.4318 0.4344 0.4286
1138.000000 0.4254 0.4216 0.4166 0.4107 0.4042
1143.000000 0.3991 0.3953 0.3904 0.3849 0.3804
1148.000000 0.3759 0.3703 0.3639 0.3617 0.3608
1153.000000 0.3605 0.3605 0.3584 0.3615 0.3631
1158.000000 0.3700 0.3808 0.3856 0.3877 0.3879
1163.000000 0.3877 0.3892 0.3860 0.3825 0.3773
1168.000000 0.3729 0.3689 0.3650 0.3619 0.3605
1173.000000 0.3600 0.3598 0.3598 0.3596 0.3594
1178.000000 0.3589 0.3563 0.3523 0.3471 0.3417
1183.000000 0.3331 0.3242 0.3172 0.3032 0.2982
1188.000000 0.2975 0.2973 0.2986 0.3016 0.3064
1193.000000 0.3076 0.3083 0.3090 0.3097 0.3125
1198.000000 0.3212 0.3243 0.3254 0.3259 0.3261
1203.000000 0.3260 0.3257 0.3254 0.3248 0.3238
1208.000000 0.3220 0.3140 0.3042 0.2945 0.2848
1213.000000 0.2702 0.2656 0.2585 0.2517 0.2414
1218.000000 0.2223 0.2140 0.2131 0.2129 0.2134
1223.000000 0.2147 0.2166 0.2185 0.2201 0.2210
1228.000000 0.2216 0.2219 0.2222 0.2221 0.2220
1233.000000 0.2217 0.2212 0.2208 0.2222 0.2201
1238.000000 0.2197 0.2193 0.2185 0.2167 0.2130
1243.000000 0.2091 0.2052 0.2013 0.1979 0.1954
1248.000000 0.1942 0.1939 0.1946 0.1943 0.1952
1253.000000 0.1978 0.2011 0.2045 0.2095 0.2250
1258.000000 0.2361 0.2453 0.2530 0.2603 0.2696
1263.000000 0.2783 0.2862 0.2921 0.2988 0.3069
1268.000000 0.3096 0.3109 0.3116 0.3122 0.3125
1273.000000 0.3115 0.3107 0.3090 0.3056 0.3023
1278.000000 0.2986 0.2948 0.2914 0.2882 0.2864
1283.000000 0.2856 0.2850 0.2847 0.2845 0.2820
1288.000000 0.2724 0.2608 0.2540 0.2492 0.2444
1293.000000 0.2393 0.2349 0.2320 0.2303 0.2297
1298.000000 0.2301 0.2287 0.2349 0.2411 0.2487
1303.000000 0.2549 0.2594 0.2628 0.2644 0.2659
1308.000000 0.2665 0.2666 0.2667 0.2608 0.2523
1313.000000 0.2439 0.2354 0.2270 0.2185 0.2100
1318.000000 0.2017 0.1933 0.1835 0.1820 0.1814
1323.000000 0.1814 0.1819 0.1830 0.1843 0.1855
1328.000000 0.1857 0.1853 0.1834 0.1785 0.1758
1333.000000 0.1750 0.1748 0.1748 0.1752 0.1772
1338.000000 0.1831 0.1876 0.1916 0.1957 0.1993
1343.000000 0.2011 0.2013 0.2008 0.2002 0.1989
1348.000000 0.1956 0.1911 0.1851 0.1777 0.1709
1353.000000 0.1651 0.1587 0.1518 0.1437 0.1344
1358.000000 0.1284 0.1267 0.1262 0.1264 0.1271
1363.000000 0.1241 0.1309 0.1341 0.1382 0.1421
1368.000000 0.1460 0.1499 0.1526 0.1544 0.1551
1373.000000 0.1550 0.1545 0.1537 0.1558 0.1492
1378.000000 0.1452 0.1399 0.1360 0.1355 0.1356
1383.000000 0.1353 0.1406 0.1504 0.1766 0.2005
1388.000000 0.2139 0.2307 0.2453 0.2496 0.2536
1393.000000 0.2565 0.2590 0.2604 0.2614 0.2621
1398.000000 0.2626 0.2627 0.2627 0.2630 0.2622
1403.000000 0.2615 0.2606 0.2593 0.2572 0.2548
1408.000000 0.2522 0.2472 0.2380 0.2281 0.2183
1413.000000 0.2084 0.1996 0.1928 0.1857 0.1791
1418.000000 0.1734 0.1661 0.1559 0.1481 0.1424
1423.000000 0.1386 0.1368 0.1361 0.1356 0.1355
1428.000000 0.1355 0.1355 0.1356 0.1358 0.1360
1433.000000 0.1363 0.1358 0.1347 0.1332 0.1309
1438.000000 0.1285 0.1258 0.1225 0.1180 0.1101
1443.000000 0.1037 0.0985 0.0935 0.0879 0.0767
1448.000000 0.0660 0.0570 0.0502 0.0457 0.0435
1453.000000 0.0423 0.0419 0.0421 0.0426 0.0436
1458.000000 0.0404 0.0470 0.0495 0.0641 0.0832
1463.000000 0.1022 0.1213 0.1404 0.1593 0.1784
1468.000000 0.1973 0.2023 0.2040 0.2044 0.2046
1473.000000 0.2056 0.2042 0.2033 0.1974 0.1836
1478.000000 0.1696 0.1558 0.1468 0.1440 0.1431
1483.000000 0.1428 0.1428 0.1430 0.1449 0.1598
1488.000000 0.1711 0.1764 0.1809 0.1978 0.2547
1493.000000 0.3146 0.3417 0.3452 0.3468 0.3473
1498.000000 0.3476 0.3475 0.3470 0.3473 0.3445
1503.000000 0.3426 0.3408 0.3391 0.3375 0.3359
1508.000000 0.3344 0.3322 0.3291 0.3254 0.3214
1513.000000 0.3176 0.3138 0.3098 0.3059 0.3022
1518.000000 0.2987 0.2953 0.2922 0.2902 0.2892
1523.000000 0.2889 0.2888 0.2885 0.2881 0.2876
1528.000000 0.2858 0.2833 0.2806 0.2778 0.2748
1533.000000 0.2717 0.2684 0.2649 0.2612 0.2570
1538.000000 0.2524 0.2483 0.2448 0.2415 0.2376
1543.000000 0.2322 0.2263 0.2204 0.2146 0.2087
1548.000000 0.2021 0.1946 0.1854 0.1604 0.1433
1553.000000 0.1295 0.1156 0.0999 0.0843 0.0815
1558.000000 0.0801 0.0796 0.0794 0.0794 0.0794
1563.000000 0.0794 0.0798 0.0809 0.0848 0.0898
1568.000000 0.0936 0.0992 0.1074 0.1161 0.1248
1573.000000 0.1335 0.1422 0.1508 0.1594 0.1681
1578.000000 0.1767 0.1853 0.1940 0.2026 0.2112
1583.000000 0.2183 0.2230 0.2254 0.2264 0.2270
1588.000000 0.2276 0.2276 0.2275 0.2274 0.2272
1593.000000 0.2270 0.2268 0.2268 0.2273 0.2285
1598.000000 0.2303 0.2328 0.2356 0.2381 0.2409
1603.000000 0.2442 0.2477 0.2510 0.2534 0.2546
1608.000000 0.2549 0.2542 0.2533 0.2523 0.2513
1613.000000 0.2504 0.2503 0.2503 0.2505 0.2508
1618.000000 0.2515 0.2561 0.2614 0.2719 0.2797
1623.000000 0.2894 0.2985 0.3059 0.3122 0.3170
1628.000000 0.3210 0.3247 0.3281 0.3306 0.3330
1633.000000 0.3355 0.3380 0.3399 0.3413 0.3468
1638.000000 0.3553 0.3644 0.3735 0.3825 0.3916
1643.000000 0.4007 0.4097 0.4187 0.4277 0.4367
1648.000000 0.4453 0.4498 0.4538 0.4572 0.4602
1653.000000 0.4629 0.4668 0.4727 0.4803 0.4892
1658.000000 0.4990 0.5048 0.5103 0.5145 0.5187
1663.000000 0.5228 0.5299 0.5375 0.5431 0.5467
1668.000000 0.5493 0.5513 0.5528 0.5538 0.5547
1673.000000 0.5552 0.5554 0.5547 0.5545 0.5532
1678.000000 0.5511 0.5477 0.5437 0.5399 0.5362
1683.000000 0.5316 0.5269 0.5229 0.5189 0.5128
1688.000000 0.5009 0.4930 0.4849 0.4768 0.4687
1693.000000 0.4607 0.4530 0.4471 0.4471 0.4474
1698.000000 0.4478 0.4461 0.4486 0.4518 0.4593
1703.000000 0.4629 0.4662 0.4699 0.4912 0.5167
1708.000000 0.5385 0.5602 0.5820 0.6036 0.6253
1713.000000 0.6470 0.6686 0.6902 0.7103 0.7218
1718.000000 0.7255 0.7288 0.7323 0.7359 0.7396
1723.000000 0.7431 0.7462 0.7474 0.7482 0.7486
1728.000000 0.7475 0.7489 0.7489 0.7488 0.7487
1733.000000 0.7486 0.7485 0.7481 0.7474 0.7467
1738.000000 0.7457 0.7447 0.7438 0.7431 0.7426
1743.000000 0.7423 0.7420 0.7418 0.7416 0.7415
1748.000000 0.7413 0.7411 0.7410 0.7408 0.7406
1753.000000 0.7406 0.7405 0.7404 0.7402 0.7401
1758.000000 0.7400 0.7399 0.7398 0.7397 0.7395
1763.000000 0.7395 0.7395 0.7394 0.7394 0.7394
1768.000000 0.7394 0.7393 0.7393 0.7392 0.7392
1773.000000 0.7392 0.7391 0.7390 0.7390 0.7389
1778.000000 0.7389 0.7388 0.7388 0.7387 0.7386
1783.000000 0.7386 0.7385 0.7385 0.7384 0.7384
1788.000000 0.7384 0.7383 0.7382 0.7382 0.7382
1793.000000 0.7381 0.7380 0.7380 0.7379 0.7379
1798.000000 0.7378 0.7378 0.7378 0.7378 0.7377
1803.000000 0.7377 0.7377 0.7377 0.7376 0.7376
1808.000000 0.7375 0.7374 0.7374 0.7373 0.7372
1813.000000 0.7371 0.7371 0.7370 0.7369 0.7367
1818.000000 0.7366 0.7364 0.7363 0.7361 0.7355
1823.000000 0.7350 0.7345 0.7339 0.7333 0.7328
1828.000000 0.7323 0.7317 0.7311 0.7304 0.7298
1833.000000 0.7291 0.7285 0.7278 0.7271 0.7262
1838.000000 0.7254 0.7245 0.7237 0.7229 0.7215
1843.000000 0.7202 0.7188 0.7174 0.7161 0.7146
1848.000000 0.7130 0.7114 0.7099 0.7083 0.7067
1853.000000 0.7049 0.7031 0.7013 0.6994 0.6975
1858.000000 0.6956 0.6937 0.6916 0.6898 0.6888
1863.000000 0.6886 0.6884 0.6882 0.6880 0.6878
1868.000000 0.6875 0.6871 0.6866 0.6859 0.6850
1873.000000 0.6839 0.6825 0.6813 0.6801 0.6790
1878.000000 0.6780 0.6769 0.6759 0.6749 0.6740
1883.000000 0.6731 0.6722 0.6718 0.6714 0.6710
1888.000000 0.6705 0.6701 0.6697 0.6694 0.6691
1893.000000 0.6689 0.6687 0.6686 0.6685 0.6683
1898.000000 0.6681 0.6678 0.6675 0.6671 0.6668
1903.000000 0.6664 0.6661 0.6657 0.6653 0.6649
1908.000000 0.6645 0.6639 0.6630 0.6623 0.6615
1913.000000 0.6607 0.6602 0.6598 0.6595 0.6591
1918.000000 0.6588 0.6584 0.6581 0.6578 0.6576
1923.000000 0.6574 0.6571 0.6568 0.6566 0.6563
1928.000000 0.6560 0.6558 0.6557 0.6556 0.6555
1933.000000 0.6555 0.6554 0.6553 0.6552 0.6551
1938.000000 0.6550 0.6550 0.6550 0.6550 0.6550
1943.000000 0.6549 0.6549 0.6549 0.6548 0.6548
1948.000000 0.6548 0.6548 0.6548 0.6548 0.6548
1953.000000 0.6548 0.6549 0.6549 0.6549 0.6550
1958.000000 0.6550 0.6550 0.6551 0.6551 0.6551
1963.000000 0.6552 0.6553 0.6553 0.6554 0.6556
1968.000000 0.6556 0.6557 0.6558 0.6559 0.6560
1973.000000 0.6561 0.6562 0.6563 0.6563 0.6563
1978.000000 0.6563 0.6563 0.6563 0.6563 0.6563
1983.000000 0.6562 0.6560 0.6557 0.6555 0.6553
1988.000000 0.6551 0.6549 0.6547 0.6545 0.6543
1993.000000 0.6539 0.6536 0.6531 0.6527 0.6523
1998.000000 0.6518 0.6514 0.6510 0.6505 0.6501
2003.000000 0.6497 0.6493 0.6489 0.6485 0.6481
2008.000000 0.6478 0.6473 0.6469 0.6465 0.6461
2013.000000 0.6457 0.6455 0.6453 0.6451 0.6449
2018.000000 0.6447 0.6446 0.6445 0.6445 0.6445
2023.000000 0.6444 0.6444 0.6443 0.6443 0.6443
2028.000000 0.6442 0.6440 0.6438 0.6436 0.6435
2033.000000 0.6434 0.6432 0.6429 0.6426 0.6421
2038.000000 0.6416 0.6411 0.6406 0.6400 0.6392
2043.000000 0.6384 0.6376 0.6368 0.6360 0.6350
2048.000000 0.6341 0.6331 0.6321 0.6312 0.6305
2053.000000 0.6299 0.6292 0.6285 0.6278 0.6271
2058.000000 0.6265 0.6258 0.6249 0.6238 0.6226
2063.000000 0.6215 0.6204 0.6196 0.6189 0.6187
2068.000000 0.6185 0.6183 0.6182 0.6180 0.6178
2073.000000 0.6176 0.6175 0.6173 0.6172 0.6170
2078.000000 0.6169 0.6167 0.6165 0.6164 0.6163
2083.000000 0.6161 0.6159 0.6156 0.6152 0.6149
2088.000000 0.6146 0.6143 0.6140 0.6137 0.6134
2093.000000 0.6126 0.6119 0.6110 0.6102 0.6094
2098.000000 0.6086 0.6077 0.6069 0.6061 0.6054
2103.000000 0.6047 0.6040 0.6034 0.6027 0.6026
2108.000000 0.6024 0.6023 0.6021 0.6019 0.6018
2113.000000 0.6017 0.6015 0.6014 0.6012 0.6011
2118.000000 0.6010 0.6008 0.6006 0.6005 0.6004
2123.000000 0.6002 0.6001 0.5997 0.5993 0.5988
2128.000000 0.5984 0.5979 0.5974 0.5968 0.5962
2133.000000 0.5956 0.5950 0.5944 0.5938 0.5932
2138.000000 0.5926 0.5920 0.5914 0.5908 0.5903
2143.000000 0.5897 0.5892 0.5886 0.5880 0.5875
2148.000000 0.5869 0.5863 0.5857 0.5852 0.5846
2153.000000 0.5840 0.5835 0.5829 0.5824 0.5818
2158.000000 0.5812 0.5806 0.5800 0.5794 0.5788
2163.000000 0.5782 0.5776 0.5770 0.5762 0.5755
2168.000000 0.5748 0.5741 0.5734 0.5727 0.5720
2173.000000 0.5712 0.5705 0.5698 0.5691 0.5684
2178.000000 0.5676 0.5669 0.5662 0.5654 0.5647
2183.000000 0.5639 0.5631 0.5624 0.5616 0.5609
2188.000000 0.5602 0.5595 0.5588 0.5581 0.5575
2193.000000 0.5568 0.5562 0.5555 0.5549 0.5542
2198.000000 0.5536 0.5528 0.5519 0.5509 0.5499
2203.000000 0.5489 0.5479 0.5468 0.5458 0.5448
2208.000000 0.5437 0.5428 0.5419 0.5411 0.5402
2213.000000 0.5393 0.5384 0.5375 0.5366 0.5355
2218.000000 0.5343 0.5327 0.5311 0.5294 0.5278
2223.000000 0.5262 0.5245 0.5228 0.5211 0.5195
2228.000000 0.5178 0.5162 0.5145 0.5128 0.5112
2233.000000 0.5095 0.5079 0.5062 0.5046 0.5029
2238.000000 0.5013 0.4996 0.4980 0.4963 0.4947
2243.000000 0.4931 0.4914 0.4883 0.4850 0.4828
2248.000000 0.4809 0.4791 0.4773 0.4754 0.4735
2253.000000 0.4719 0.4703 0.4691 0.4681 0.4670
2258.000000 0.4660 0.4650 0.4640 0.4629 0.4619
2263.000000 0.4609 0.4598 0.4587 0.4577 0.4565
2268.000000 0.4551 0.4537 0.4521 0.4506 0.4491
2273.000000 0.4475 0.4460 0.4445 0.4430 0.4415
2278.000000 0.4400 0.4385 0.4370 0.4355 0.4340
2283.000000 0.4325 0.4311 0.4297 0.4283 0.4269
2288.000000 0.4255 0.4241 0.4227 0.4213 0.4200
2293.000000 0.4187 0.4174 0.4161 0.4148 0.4136
2298.000000 0.4123 0.4110 0.4097 0.4085 0.4073
2303.000000 0.4049 0.4025 0.3985 0.3943 0.3917
2308.000000 0.3897 0.3878 0.3859 0.3839 0.3820
2313.000000 0.3802 0.3789 0.3776 0.3763 0.3750
2318.000000 0.3737 0.3725 0.3712 0.3699 0.3685
2323.000000 0.3670 0.3649 0.3625 0.3599 0.3573
2328.000000 0.3538 0.3477 0.3415 0.3354 0.3292
2333.000000 0.3269 0.3250 0.3233 0.3217 0.3205
2338.000000 0.3196 0.3187 0.3181 0.3174 0.3168
2343.000000 0.3162 0.3155 0.3148 0.3142 0.3135
2348.000000 0.3129 0.3122 0.3117 0.3112 0.3108
2353.000000 0.3103 0.3099 0.3094 0.3090 0.3085
2358.000000 0.3080 0.3075 0.3071 0.3066 0.3061
2363.000000 0.3056 0.3051 0.3046 0.3034 0.3020
2368.000000 0.3005 0.2990 0.2976 0.2962 0.2947
2373.000000 0.2925 0.2904 0.2882 0.2861 0.2846
2378.000000 0.2836 0.2826 0.2817 0.2807 0.2797
2383.000000 0.2788 0.2778 0.2768 0.2759 0.2749
2388.000000 0.2739 0.2726 0.2713 0.2698 0.2684
2393.000000 0.2669 0.2655 0.2639 0.2619 0.2599
2398.000000 0.2567 0.2535 0.2504 0.2473 0.2444
2403.000000 0.2417 0.2390 0.2364 0.2337 0.2318
2408.000000 0.2302 0.2285 0.2270 0.2254 0.2238
2413.000000 0.2223 0.2207 0.2191 0.2145 0.2075
2418.000000 0.2015 0.1996 0.1977 0.1958 0.1939
2423.000000 0.1922 0.1907 0.1892 0.1880 0.1868
2428.000000 0.1856 0.1844 0.1832 0.1820 0.1808
2433.000000 0.1797 0.1785 0.1773 0.1762 0.1751
2438.000000 0.1740 0.1729 0.1725 0.1721 0.1717
2443.000000 0.1713 0.1710 0.1706 0.1702 0.1700
2448.000000 0.1698 0.1697 0.1697 0.1688 0.1697
2453.000000 0.1697 0.1698 0.1701 0.1703 0.1708
2458.000000 0.1713 0.1718 0.1723 0.1728 0.1734
2463.000000 0.1739 0.1745 0.1750 0.1756 0.1762
2468.000000 0.1768 0.1776 0.1784 0.1790 0.1797
2473.000000 0.1802 0.1803 0.1805 0.1807 0.1808
2478.000000 0.1810 0.1811 0.1812 0.1813 0.1813
2483.000000 0.1812 0.1812 0.1812 0.1812 0.1812
2488.000000 0.1830 0.1810 0.1809 0.1806 0.1803
2493.000000 0.1800 0.1797 0.1795 0.1792 0.1789
2498.000000 0.1784 0.1778 0.1772 0.1765 0.1759
2503.000000 0.1752 0.1745 0.1738 0.1730 0.1723
2508.000000 0.1716 0.1709 0.1702 0.1695 0.1688
2513.000000 0.1680 0.1673 0.1665 0.1658 0.1651
2518.000000 0.1644 0.1636 0.1629 0.1620 0.1612
2523.000000 0.1603 0.1594 0.1586 0.1577 0.1568
2528.000000 0.1560 0.1550 0.1541 0.1531 0.1522
2533.000000 0.1512 0.1502 0.1493 0.1484 0.1475
2538.000000 0.1466 0.1457 0.1448 0.1438 0.1429
2543.000000 0.1420 0.1410 0.1400 0.1390 0.1379
2548.000000 0.1369 0.1358 0.1348 0.1338 0.1327
2553.000000 0.1316 0.1305 0.1294 0.1283 0.1278
2558.000000 0.1274 0.1271 0.1267 0.1263 0.1260
2563.000000 0.1257 0.1254 0.1253 0.1252 0.1251
2568.000000 0.1251 0.1250 0.1249 0.1248 0.1248
2573.000000 0.1247 0.1246 0.1245 0.1244 0.1243
2578.000000 0.1242 0.1242 0.1241 0.1241 0.1241
2583.000000 0.1240 0.1239 0.1239 0.1238 0.1238
2588.000000 0.1237 0.1237 0.1237 0.1236 0.1236
2593.000000 0.1236 0.1235 0.1235 0.1235 0.1234
2598.000000 0.1234 0.1234 0.1234 0.1234 0.1234
2603.000000 0.1234 0.1234 0.1233 0.1233 0.1233
2608.000000 0.1233 0.1233 0.1233 0.1233 0.1233
2613.000000 0.1232 0.1232 0.1232 0.1231 0.1231
2618.000000 0.1230 0.1229 0.1228 0.1227 0.1226
2623.000000 0.1226 0.1225 0.1224 0.1223 0.1222
2628.000000 0.1221 0.1220 0.1218 0.1216 0.1213
2633.000000 0.1209 0.1205 0.1200 0.1196 0.1191
2638.000000 0.1185 0.1179 0.1173 0.1167 0.1161
2643.000000 0.1155 0.1149 0.1143 0.1136 0.1129
2648.000000 0.1122 0.1115 0.1108 0.1101 0.1091
2653.000000 0.1080 0.1070 0.1062 0.1054 0.1047
2658.000000 0.1044 0.1040 0.1037 0.1034 0.1031
2663.000000 0.1029 0.1028 0.1027 0.1026 0.1025
2668.000000 0.1024 0.1023 0.1021 0.1020 0.1020
2673.000000 0.1019 0.1019 0.1019 0.1019 0.1019
2678.000000 0.1019 0.1019 0.1020 0.1020 0.1020
2683.000000 0.1021 0.1021 0.1021 0.1022 0.1022
2688.000000 0.1022 0.1023 0.1023 0.1023 0.1023
2693.000000 0.1023 0.1024 0.1024 0.1024 0.1025
2698.000000 0.1025 0.1025 0.1026 0.1026 0.1026
2703.000000 0.1027 0.1027 0.1027 0.1026 0.1026
2708.000000 0.1026 0.1025 0.1025 0.1025 0.1024
2713.000000 0.1024 0.1024 0.1023 0.1023 0.1023
2718.000000 0.1022 0.1021 0.1021 0.1019 0.1018
2723.000000 0.1016 0.1014 0.1013 0.1011 0.1009
2728.000000 0.1008 0.1006 0.1003 0.1000 0.0996
2733.000000 0.0993 0.0990 0.0986 0.0982 0.0977
2738.000000 0.0972 0.0966 0.0960 0.0955 0.0949
2743.000000 0.0944 0.0939 0.0933 0.0927 0.0921
2748.000000 0.0915 0.0909 0.0902 0.0896 0.0890
2753.000000 0.0883 0.0878 0.0872 0.0866 0.0861
2758.000000 0.0856 0.0851 0.0847 0.0842 0.0837
2763.000000 0.0834 0.0830 0.0827 0.0824 0.0823
2768.000000 0.0821 0.0818 0.0816 0.0814 0.0812
2773.000000 0.0811 0.0810 0.0809 0.0809 0.0809
2778.000000 0.0809 0.0809 0.0809 0.0808 0.0808
2783.000000 0.0808 0.0808 0.0808 0.0808 0.0808
2788.000000 0.0807 0.0807 0.0807 0.0807 0.0807
2793.000000 0.0807 0.0807 0.0807 0.0807 0.0806
2798.000000 0.0806 0.0806 0.0806 0.0806 0.0806
2803.000000 0.0805 0.0805 0.0805 0.0805 0.0805
2808.000000 0.0805 0.0805 0.0805 0.0805 0.0805
2813.000000 0.0804 0.0804 0.0804 0.0804 0.0804
2818.000000 0.0804 0.0804 0.0804 0.0804 0.0804
2823.000000 0.0804 0.0804 0.0803 0.0803 0.0803
2828.000000 0.0803 0.0803 0.0803 0.0803 0.0803
2833.000000 0.0803 0.0803 0.0803 0.0803 0.0803
2838.000000 0.0803 0.0803 0.0803 0.0804 0.0804
2843.000000 0.0804 0.0804 0.0805 0.0805 0.0805
2848.000000 0.0805 0.0805 0.0805 0.0806 0.0806
2853.000000 0.0806 0.0813 0.0807 0.0807 0.0807
2858.000000 0.0807 0.0807 0.0807 0.0808 0.0808
2863.000000 0.0808 0.0809 0.0809 0.0809 0.0810
2868.000000 0.0810 0.0810 0.0810 0.0811 0.0811
2873.000000 0.0811 0.0812 0.0812 0.0812 0.0813
2878.000000 0.0813 0.0814 0.0814 0.0815 0.0815
2883.000000 0.0815 0.0816 0.0816 0.0816 0.0817
2888.000000 0.0817 0.0817 0.0817 0.0818 0.0819
2893.000000 0.0819 0.0820 0.0820 0.0821 0.0822
2898.000000 0.0823 0.0824 0.0825 0.0826 0.0828
2903.000000 0.0829 0.0830 0.0831 0.0832 0.0834
2908.000000 0.0835 0.0836 0.0837 0.0838 0.0840
2913.000000 0.0841 0.0843 0.0845 0.0846 0.0848
2918.000000 0.0850 0.0853 0.0855 0.0857 0.0859
2923.000000 0.0861 0.0864 0.0866 0.0868 0.0871
2928.000000 0.0879 0.0891 0.0903 0.0916 0.0928
2933.000000 0.0941 0.0954 0.0967 0.0981 0.0994
2938.000000 0.1009 0.1028 0.1047 0.1066 0.1086
2943.000000 0.1105 0.1125 0.1145 0.1166 0.1188
2948.000000 0.1209 0.1227 0.1245 0.1262 0.1277
2953.000000 0.1289 0.1301 0.1313 0.1318 0.1323
2958.000000 0.1329 0.1333 0.1337 0.1341 0.1345
2963.000000 0.1349 0.1353 0.1356 0.1359 0.1361
2968.000000 0.1363 0.1364 0.1365 0.1367 0.1368
2973.000000 0.1369 0.1369 0.1369 0.1369 0.1370
2978.000000 0.1371 0.1371 0.1372 0.1372 0.1372
2983.000000 0.1372 0.1373 0.1373 0.1373 0.1374
2988.000000 0.1374 0.1374 0.1374 0.1375 0.1375
2993.000000 0.1375 0.1375 0.1375 0.1375 0.1375
2998.000000 0.1376 0.1376 0.1376 0.1376 0.1376
3003.000000 0.1376 0.1376 0.1377 0.1377 0.1377
3008.000000 0.1377 0.1377 0.1377 0.1377 0.1377
3013.000000 0.1377 0.1377 0.1377 0.1378 0.1378
3018.000000 0.1379 0.1379 0.1381 0.1383 0.1385
3023.000000 0.1387 0.1393 0.1399 0.1405 0.1412
3028.000000 0.1422 0.1432 0.1442 0.1452 0.1463
3033.000000 0.1475 0.1486 0.1496 0.1506 0.1517
3038.000000 0.1524 0.1527 0.1530 0.1533 0.1536
3043.000000 0.1539 0.1542 0.1544 0.1545 0.1545
3048.000000 0.1545 0.1568 0.1545 0.1545 0.1545
3053.000000 0.1544 0.1544 0.1544 0.1544 0.1543
3058.000000 0.1543 0.1542 0.1541 0.1541 0.1540
3063.000000 0.1540 0.1539 0.1538 0.1537 0.1536
3068.000000 0.1534 0.1530 0.1527 0.1523 0.1520
3073.000000 0.1516 0.1512 0.1509 0.1504 0.1500
3078.000000 0.1495 0.1491 0.1487 0.1482 0.1478
3083.000000 0.1474 0.1470 0.1465 0.1461 0.1456
3088.000000 0.1451 0.1445 0.1440 0.1433 0.1426
3093.000000 0.1419 0.1412 0.1405 0.1398 0.1392
3098.000000 0.1385 0.1379 0.1373 0.1367 0.1361
3103.000000 0.1355 0.1350 0.1344 0.1338 0.1332
3108.000000 0.1327 0.1321 0.1315 0.1310 0.1304
3113.000000 0.1298 0.1292 0.1286 0.1279 0.1273
3118.000000 0.1266 0.1260 0.1254 0.1247 0.1241
3123.000000 0.1234 0.1228 0.1222 0.1215 0.1208
3128.000000 0.1201 0.1194 0.1187 0.1180 0.1173
3133.000000 0.1166 0.1158 0.1149 0.1141 0.1132
3138.000000 0.1122 0.1112 0.1102 0.1090 0.1073
3143.000000 0.1055 0.1037 0.1019 0.1000 0.0980
3148.000000 0.0961 0.0945 0.0933 0.0921 0.0909
3153.000000 0.0898 0.0889 0.0880 0.0871 0.0864
3158.000000 0.0859 0.0854 0.0849 0.0845 0.0842
3163.000000 0.0839 0.0835 0.0833 0.0832 0.0831
3168.000000 0.0830 0.0829 0.0828 0.0827 0.0826
3173.000000 0.0825 0.0825 0.0825 0.0825 0.0824
3178.000000 0.0824 0.0824 0.0824 0.0823 0.0823
3183.000000 0.0823 0.0823 0.0822 0.0822 0.0822
3188.000000 0.0822 0.0822 0.0822 0.0822 0.0822
3193.000000 0.0822 0.0822 0.0823 0.0823 0.0822
3198.000000 0.0824 0.0824 0.0824 0.0824 0.0825
3203.000000 0.0825 0.0826 0.0826 0.0827 0.0827
3208.000000 0.0828 0.0828 0.0829 0.0829 0.0830
3213.000000 0.0830 0.0831 0.0832 0.0832 0.0833
3218.000000 0.0834 0.0834 0.0835 0.0835 0.0836
3223.000000 0.0836 0.0837 0.0838 0.0839 0.0839
3228.000000 0.0840 0.0841 0.0842 0.0842 0.0843
3233.000000 0.0844 0.0844 0.0846 0.0848 0.0850
3238.000000 0.0852 0.0854 0.0856 0.0858 0.0859
3243.000000 0.0863 0.0870 0.0876 0.0882 0.0889
3248.000000 0.0901 0.0913 0.0925 0.0937 0.0946
3253.000000 0.0955 0.0964 0.0974 0.0980 0.0986
3258.000000 0.0993 0.0999 0.1004 0.1010 0.1015
3263.000000 0.1021 0.1026 0.1031 0.1037 0.1042
3268.000000 0.1048 0.1052 0.1056 0.1060 0.1064
3273.000000 0.1068 0.1072 0.1076 0.1080 0.1084
3278.000000 0.1088 0.1092 0.1096 0.1100 0.1104
3283.000000 0.1108 0.1112 0.1116 0.1119 0.1122
3288.000000 0.1126 0.1129 0.1132 0.1135 0.1138
3293.000000 0.1141 0.1144 0.1147 0.1150 0.1152
3298.000000 0.1155 0.1156 0.1157 0.1157 0.1158
3303.000000 0.1159 0.1159 0.1160 0.1160 0.1161
3308.000000 0.1161 0.1161 0.1162 0.1162 0.1161
3313.000000 0.1160 0.1159 0.1157 0.1189 0.1153
3318.000000 0.1151 0.1149 0.1147 0.1145 0.1143
3323.000000 0.1140 0.1138 0.1136 0.1134 0.1132
3328.000000 0.1130 0.1127 0.1125 0.1123 0.1121
3333.000000 0.1118 0.1116 0.1114 0.1112 0.1109
3338.000000 0.1107 0.1105 0.1103 0.1100 0.1098
3343.000000 0.1096 0.1093 0.1091 0.1088 0.1086
3348.000000 0.1084 0.1082 0.1080 0.1078 0.1076
3353.000000 0.1075 0.1073 0.1072 0.1070 0.1070
3358.000000 0.1069 0.1068 0.1068 0.1068 0.1068
3363.000000 0.1069 0.1069 0.1070 0.1070 0.1070
3368.000000 0.1071 0.1071 0.1085 0.1074 0.1076
3373.000000 0.1077 0.1079 0.1084 0.1089 0.1094
3378.000000 0.1099 0.1112 0.1132 0.1151 0.1170
3383.000000 0.1190 0.1212 0.1235 0.1258 0.1280
3388.000000 0.1301 0.1320 0.1338 0.1357 0.1375
3393.000000 0.1394 0.1413 0.1432 0.1451 0.1469
3398.000000 0.1488 0.1507 0.1525 0.1544 0.1562
3403.000000 0.1580 0.1597 0.1615 0.1633 0.1683
3408.000000 0.1733 0.1783 0.1832 0.1879 0.1919
3413.000000 0.1959 0.1999 0.2039 0.2072 0.2102
3418.000000 0.2132 0.2162 0.2192 0.2207 0.2222
3423.000000 0.2237 0.2253 0.2266 0.2276 0.2285
3428.000000 0.2295 0.2305 0.2313 0.2320 0.2327
3433.000000 0.2334 0.2341 0.2346 0.2351 0.2356
3438.000000 0.2361 0.2367 0.2372 0.2377 0.2382
3443.000000 0.2387 0.2397 0.2412 0.2427 0.2442
3448.000000 0.2457 0.2475 0.2494 0.2513 0.2532
3453.000000 0.2551 0.2570 0.2588 0.2607 0.2626
3458.000000 0.2645 0.2664 0.2683 0.2702 0.2721
3463.000000 0.2740 0.2759 0.2777 0.2796 0.2815
3468.000000 0.2834 0.2852 0.2871 0.2890 0.2908
3473.000000 0.2927 0.2946 0.2964 0.2983 0.3002
3478.000000 0.3020 0.3039 0.3057 0.3076 0.3094
3483.000000 0.3113 0.3132 0.3151 0.3169 0.3188
3488.000000 0.3207 0.3225 0.3244 0.3262 0.3281
3493.000000 0.3299 0.3317 0.3336 0.3354 0.3373
3498.000000 0.3391 0.3409 0.3428 0.3446 0.3476
3503.000000 0.3514 0.3552 0.3590 0.3628 0.3658
3508.000000 0.3684 0.3710 0.3736 0.3762 0.3783
3513.000000 0.3802 0.3822 0.3841 0.3860 0.3882
3518.000000 0.3904 0.3926 0.3948 0.3970 0.3992
3523.000000 0.4015 0.4038 0.4061 0.4083 0.4098
3528.000000 0.4112 0.4126 0.4140 0.4154 0.4169
3533.000000 0.4183 0.4197 0.4211 0.4226 0.4246
3538.000000 0.4267 0.4288 0.4309 0.4330 0.4369
3543.000000 0.4409 0.4449 0.4489 0.4530 0.4551
3548.000000 0.4570 0.4589 0.4609 0.4628 0.4645
3553.000000 0.4663 0.4680 0.4697 0.4714 0.4731
3558.000000 0.4748 0.4764 0.4781 0.4797 0.4810
3563.000000 0.4821 0.4832 0.4844 0.4855 0.4866
3568.000000 0.4877 0.4888 0.4900 0.4911 0.4922
3573.000000 0.4933 0.4944 0.4955 0.4967 0.4978
3578.000000 0.4989 0.5000 0.5011 0.5022 0.5037
3583.000000 0.5059 0.5081 0.5104 0.5126 0.5148
3588.000000 0.5170 0.5193 0.5215 0.5237 0.5259
3593.000000 0.5281 0.5302 0.5323 0.5345 0.5366
3598.000000 0.5391 0.5416 0.5441 0.5467 0.5492
3603.000000 0.5525 0.5563 0.5600 0.5637 0.5675
3608.000000 0.5707 0.5733 0.5760 0.5787 0.5813
3613.000000 0.5837 0.5851 0.5865 0.5879 0.5893
3618.000000 0.5907 0.5919 0.5930 0.5941 0.5953
3623.000000 0.5964 0.5976 0.5987 0.5998 0.6009
3628.000000 0.6020 0.6033 0.6047 0.6061 0.6075
3633.000000 0.6089 0.6121 0.6202 0.6283 0.6364
3638.000000 0.6445 0.6526 0.6536 0.6545 0.6554
3643.000000 0.6563 0.6573 0.6580 0.6587 0.6593
3648.000000 0.6600 0.6606 0.6612 0.6617 0.6622
3653.000000 0.6627 0.6632 0.6637 0.6640 0.6643
3658.000000 0.6646 0.6649 0.6652 0.6653 0.6654
3663.000000 0.6655 0.6657 0.6658 0.6659 0.6659
3668.000000 0.6659 0.6660 0.6660 0.6660 0.6661
3673.000000 0.6661 0.6661 0.6661 0.6661 0.6660
3678.000000 0.6659 0.6658 0.6657 0.6655 0.6659
3683.000000 0.6653 0.6651 0.6650 0.6648 0.6647
3688.000000 0.6644 0.6642 0.6639 0.6636 0.6633
3693.000000 0.6630 0.6626 0.6621 0.6617 0.6613
3698.000000 0.6609 0.6605 0.6599 0.6594 0.6589
3703.000000 0.6584 0.6579 0.6574 0.6569 0.6564
3708.000000 0.6559 0.6554 0.6550 0.6545 0.6540
3713.000000 0.6536 0.6531 0.6526 0.6519 0.6513
3718.000000 0.6506 0.6500 0.6493 0.6490 0.6489
3723.000000 0.6487 0.6485 0.6484 0.6482 0.6481
3728.000000 0.6480 0.6479 0.6478 0.6477 0.6476
3733.000000 0.6475 0.6474 0.6473 0.6472 0.6471
3738.000000 0.6471 0.6471 0.6471 0.6471 0.6471
3743.000000 0.6471 0.6471 0.6471 0.6471 0.6471
3748.000000 0.6471 0.6472 0.6472 0.6472 0.6472
3753.000000 0.6472 0.6473 0.6473 0.6473 0.6473
3758.000000 0.6473 0.6473 0.6474 0.6474 0.6474
3763.000000 0.6475 0.6475 0.6475 0.6476 0.6476
3768.000000 0.6477 0.6477 0.6477 0.6477 0.6476
3773.000000 0.6476 0.6475 0.6474 0.6473 0.6472
3778.000000 0.6471 0.6470 0.6469 0.6468 0.6467
3783.000000 0.6464 0.6460 0.6457 0.6454 0.6450
3788.000000 0.6447 0.6442 0.6438 0.6433 0.6429
3793.000000 0.6424 0.6420 0.6416 0.6411 0.6407
3798.000000 0.6403 0.6398 0.6393 0.6388 0.6383
3803.000000 0.6378 0.6373 0.6368 0.6363 0.6358
3808.000000 0.6353 0.6348 0.6343 0.6338 0.6333
3813.000000 0.6327 0.6321 0.6316 0.6310 0.6304
3818.000000 0.6297 0.6290 0.6284 0.6277 0.6270
3823.000000 0.6263 0.6258 0.6253 0.6247 0.6242
3828.000000 0.6236 0.6231 0.6227 0.6223 0.6219
3833.000000 0.6215 0.6211 0.6207 0.6203 0.6199
3838.000000 0.6195 0.6191 0.6187 0.6183 0.6179
3843.000000 0.6175 0.6171 0.6167 0.6163 0.6159
3848.000000 0.6155 0.6151 0.6148 0.6144 0.6140
3853.000000 0.6136 0.6132 0.6129 0.6125 0.6121
3858.000000 0.6118 0.6114 0.6110 0.6106 0.6102
3863.000000 0.6098 0.6094 0.6090 0.6085 0.6081
3868.000000 0.6076 0.6072 0.6067 0.6063 0.6058
3873.000000 0.6053 0.6048 0.6043 0.6038 0.6034
3878.000000 0.6029 0.6024 0.6020 0.6015 0.6010
3883.000000 0.6006 0.6002 0.5998 0.5994 0.5990
3888.000000 0.5986 0.5981 0.5977 0.5973 0.5969
3893.000000 0.5965 0.5961 0.5957 0.5954 0.5951
3898.000000 0.5948 0.5944 0.5941 0.5939 0.5936
3903.000000 0.5934 0.5932 0.5929 0.5927 0.5925
3908.000000 0.5922 0.5920 0.5917 0.5915 0.5912
3913.000000 0.5910 0.5908 0.5905 0.5903 0.5901
3918.000000 0.5899 0.5896 0.5894 0.5892 0.5890
3923.000000 0.5888 0.5886 0.5884 0.5882 0.5880
3928.000000 0.5879 0.5877 0.5875 0.5873 0.5872
3933.000000 0.5871 0.5870 0.5869 0.5868 0.5867
3938.000000 0.5866 0.5865 0.5864 0.5863 0.5862
3943.000000 0.5861 0.5860 0.5859 0.5858 0.5857
3948.000000 0.5856 0.5855 0.5854 0.5853 0.5852
3953.000000 0.5851 0.5850 0.5849 0.5848 0.5847
3958.000000 0.5846 0.5845 0.5844 0.5843 0.5842
3963.000000 0.5842 0.5841 0.5840 0.5839 0.5838
3968.000000 0.5837 0.5836 0.5835 0.5834 0.5834
3973.000000 0.5833 0.5832 0.5831 0.5830 0.5829
3978.000000 0.5828 0.5827 0.5826 0.5825 0.5824
3983.000000 0.5824 0.5823 0.5822 0.5821 0.5820
3988.000000 0.5819 0.5818 0.5817 0.5816 0.5815
3993.000000 0.5814 0.5813 0.5813 0.5812 0.5811
3998.000000 0.5811 0.5810 0.5810
##END=
