##TITLE=SODIUM CARBOXYMETHYL CELLULOSE
##JCAMP-DX=4.24
##DATA TYPE=INFRARED SPECTRUM
##CLASS=COBLENTZ
##ORIGIN=WYANDOTTE CHEMICALS CORP., WYANDOTTE, MICHIGAN, USA
##OWNER=COBLENTZ SOCIETY
Collection (C) 2018 copyright by the U.S. Secretary of Commerce
on behalf of the United States of America. All rights reserved.
##DATE=Not specified, most likely prior to 1970
##MOLFORM=C17 H26 Na2 O14 X2
##SOURCE REFERENCE=COBLENTZ NO. 2711
##$NIST ID=B6002711
##$NIST SOURCE=COBLENTZ
##$NIST IMAGE=cob2711
##SPECTROMETER/DATA SYSTEM=Not specified, most likely a prism, grating, or hybrid spectrometer.
##STATE=SOLID (KBr PELLET)
$$ PURIFIED, WYANDOTTE CHEM. CO.
##SAMPLING PROCEDURE=TRANSMISSION
##RESOLUTION=4
##DATA PROCESSING=DIGITIZED BY NIST FROM HARD COPY
##XUNITS=MICROMETERS
##YUNITS=TRANSMITTANCE
##XFACTOR=1.000000
##YFACTOR=1
##DELTAX=000.006632
##FIRSTX=2.033
##LASTX=16.0064
##FIRSTY=0.983
##MAXX=16.0064
##MINX=2.033
##MAXY=0.981
##MINY=0.066
##NPOINTS=2108
##XYDATA=(X++(Y..Y))
2.033000 0.9830 0.9810 0.9810 0.9800 0.9760
2.066175 0.9730 0.9730 0.9710 0.9710 0.9730
2.099000 0.9730 0.9750 0.9750 0.9760 0.9760
2.132175 0.9760 0.9760 0.9760 0.9750 0.9750
2.166000 0.9730 0.9730 0.9710 0.9710 0.9710
2.199175 0.9710 0.9710 0.9730 0.9730 0.9730
2.232000 0.9710 0.9710 0.9710 0.9710 0.9680
2.265175 0.9680 0.9680 0.9680 0.9700 0.9710
2.298000 0.9750 0.9780 0.9780 0.9800 0.9800
2.331175 0.9810 0.9810 0.9810 0.9800 0.9800
2.365000 0.9760 0.9750 0.9730 0.9710 0.9710
2.398175 0.9700 0.9700 0.9700 0.9680 0.9680
2.431000 0.9660 0.9660 0.9660 0.9680 0.9680
2.464175 0.9680 0.9700 0.9710 0.9710 0.9710
2.497000 0.9700 0.9700 0.9700 0.9680 0.9680
2.530175 0.9660 0.9650 0.9650 0.9630 0.9630
2.564000 0.9630 0.9630 0.9630 0.9630 0.9650
2.597175 0.9660 0.9660 0.9660 0.9660 0.9660
2.630000 0.9660 0.9660 0.9650 0.9630 0.9610
2.663175 0.9600 0.9550 0.9480 0.9410 0.9310
2.696000 0.9180 0.9050 0.8870 0.8650 0.8430
2.729175 0.8070 0.7700 0.7320 0.6910 0.6470
2.763000 0.6060 0.5660 0.5280 0.4950 0.4650
2.796175 0.4380 0.4130 0.3970 0.3720 0.3480
2.829000 0.3280 0.3120 0.2970 0.2820 0.2690
2.862175 0.2540 0.2350 0.2250 0.2150 0.2040
2.895000 0.1940 0.1840 0.1760 0.1710 0.1670
2.928175 0.1640 0.1590 0.1560 0.1540 0.1510
2.962000 0.1490 0.1470 0.1470 0.1460 0.1460
2.995175 0.1470 0.1520 0.1560 0.1610 0.1670
3.028000 0.1740 0.1820 0.1920 0.2040 0.2150
3.061175 0.2270 0.2390 0.2520 0.2640 0.2770
3.094000 0.2890 0.2990 0.3100 0.3300 0.3450
3.127175 0.3570 0.3700 0.3830 0.4010 0.4210
3.161000 0.4330 0.4500 0.4700 0.4850 0.4960
3.194175 0.5060 0.5210 0.5380 0.5530 0.5660
3.227000 0.5790 0.5910 0.6020 0.6160 0.6290
3.260175 0.6420 0.6490 0.6590 0.6690 0.6760
3.293000 0.6860 0.6940 0.6970 0.7000 0.7020
3.326175 0.6990 0.6970 0.6870 0.6760 0.6640
3.360000 0.6490 0.6270 0.6090 0.5940 0.5880
3.393175 0.5780 0.5640 0.5630 0.5630 0.5640
3.426000 0.5660 0.5690 0.5710 0.5760 0.5790
3.459175 0.5840 0.5890 0.5940 0.6010 0.6120
3.492000 0.6260 0.6410 0.6560 0.6690 0.6760
3.525175 0.6860 0.6960 0.7020 0.7150 0.7240
3.559000 0.7350 0.7450 0.7490 0.7540 0.7590
3.592175 0.7650 0.7700 0.7750 0.7770 0.7790
3.625000 0.7820 0.7850 0.7950 0.7990 0.8020
3.658175 0.8050 0.8050 0.8050 0.8080 0.8080
3.691000 0.8130 0.8180 0.8180 0.8200 0.8220
3.724175 0.8220 0.8220 0.8230 0.8270 0.8300
3.757000 0.8370 0.8420 0.8470 0.8480 0.8500
3.790175 0.8530 0.8570 0.8580 0.8600 0.8620
3.824000 0.8620 0.8630 0.8650 0.8680 0.8700
3.857175 0.8730 0.8750 0.8770 0.8800 0.8830
3.890000 0.8830 0.8830 0.8830 0.8850 0.8850
3.923175 0.8850 0.8850 0.8870 0.8870 0.8900
3.956000 0.8920 0.8930 0.8950 0.8970 0.8970
3.989175 0.8980 0.8980 0.9000 0.9000 0.9010
4.023000 0.9010 0.9030 0.9030 0.9030 0.9050
4.056175 0.9050 0.9060 0.9080 0.9100 0.9100
4.089000 0.9100 0.9110 0.9110 0.9110 0.9130
4.122175 0.9130 0.9130 0.9130 0.9130 0.9150
4.155000 0.9160 0.9160 0.9160 0.9180 0.9200
4.188175 0.9200 0.9210 0.9210 0.9210 0.9230
4.222000 0.9230 0.9230 0.9260 0.9310 0.9360
4.255175 0.9400 0.9410 0.9430 0.9430 0.9450
4.288000 0.9450 0.9450 0.9450 0.9450 0.9450
4.321175 0.9450 0.9430 0.9410 0.9400 0.9380
4.354000 0.9310 0.9260 0.9230 0.9210 0.9210
4.387175 0.9200 0.9200 0.9180 0.9180 0.9180
4.421000 0.9200 0.9200 0.9210 0.9230 0.9260
4.454175 0.9300 0.9300 0.9280 0.9260 0.9260
4.487000 0.9250 0.9230 0.9230 0.9230 0.9210
4.520175 0.9210 0.9210 0.9230 0.9230 0.9250
4.553000 0.9260 0.9260 0.9260 0.9250 0.9210
4.586175 0.9200 0.9180 0.9160 0.9150 0.9150
4.620000 0.9130 0.9130 0.9130 0.9130 0.9110
4.653175 0.9110 0.9110 0.9100 0.9100 0.9100
4.686000 0.9100 0.9100 0.9100 0.9100 0.9100
4.719175 0.9100 0.9100 0.9110 0.9110 0.9110
4.752000 0.9130 0.9130 0.9130 0.9130 0.9130
4.785175 0.9130 0.9130 0.9080 0.9080 0.9080
4.819000 0.9080 0.9100 0.9110 0.9130 0.9150
4.852175 0.9150 0.9130 0.9130 0.9130 0.9130
4.885000 0.9130 0.9130 0.9110 0.9100 0.9080
4.918175 0.9060 0.9060 0.9050 0.9050 0.9060
4.951000 0.9060 0.9100 0.9130 0.9130 0.9150
4.984175 0.9150 0.9160 0.9160 0.9160 0.9160
5.018000 0.9160 0.9160 0.9150 0.9130 0.9130
5.051175 0.9150 0.9150 0.9160 0.9200 0.9200
5.084000 0.9200 0.9210 0.9210 0.9210 0.9210
5.117175 0.9210 0.9210 0.9200 0.9180 0.9180
5.150000 0.9200 0.9210 0.9210 0.9210 0.9210
5.183175 0.9200 0.9200 0.9210 0.9210 0.9210
5.216000 0.9230 0.9230 0.9250 0.9250 0.9260
5.249175 0.9280 0.9300 0.9300 0.9280 0.9250
5.283000 0.9250 0.9250 0.9260 0.9260 0.9300
5.316175 0.9300 0.9310 0.9310 0.9310 0.9310
5.349000 0.9310 0.9330 0.9330 0.9350 0.9350
5.382175 0.9330 0.9280 0.9260 0.9230 0.9210
5.415000 0.9210 0.9230 0.9230 0.9230 0.9230
5.448175 0.9250 0.9250 0.9250 0.9250 0.9250
5.482000 0.9230 0.9230 0.9210 0.9210 0.9210
5.515175 0.9210 0.9210 0.9210 0.9210 0.9210
5.548000 0.9210 0.9210 0.9210 0.9230 0.9230
5.581175 0.9250 0.9260 0.9260 0.9280 0.9280
5.614000 0.9280 0.9280 0.9260 0.9230 0.9180
5.647175 0.9160 0.9150 0.9130 0.9130 0.9110
5.681000 0.9110 0.9100 0.9080 0.9060 0.9050
5.714175 0.9030 0.9010 0.9000 0.8980 0.8930
5.747000 0.8920 0.8880 0.8850 0.8820 0.8780
5.780175 0.8750 0.8720 0.8680 0.8650 0.8630
5.813000 0.8600 0.8570 0.8530 0.8480 0.8450
5.846175 0.8420 0.8380 0.8330 0.8280 0.8230
5.880000 0.8180 0.8130 0.8080 0.8050 0.8000
5.913175 0.7950 0.7890 0.7820 0.7720 0.7590
5.946000 0.7440 0.7340 0.7220 0.7070 0.6920
5.979175 0.6770 0.6590 0.6420 0.6260 0.6070
6.012000 0.5990 0.5840 0.5640 0.5430 0.5160
6.045175 0.4880 0.4580 0.4280 0.3950 0.3770
6.079000 0.3520 0.3250 0.2990 0.2700 0.2440
6.112175 0.2220 0.2040 0.1910 0.1760 0.1640
6.145000 0.1520 0.1440 0.1360 0.1270 0.1260
6.178175 0.1260 0.1260 0.1260 0.1260 0.1270
6.211000 0.1290 0.1360 0.1460 0.1620 0.1810
6.244175 0.2020 0.2270 0.2540 0.2800 0.3080
6.278000 0.3370 0.3630 0.3950 0.4310 0.4750
6.311175 0.5030 0.5280 0.5480 0.5680 0.5890
6.344000 0.6010 0.6110 0.6190 0.6270 0.6360
6.377175 0.6460 0.6570 0.6710 0.6870 0.7050
6.410000 0.7120 0.7200 0.7250 0.7300 0.7350
6.443175 0.7390 0.7400 0.7400 0.7420 0.7440
6.477000 0.7490 0.7520 0.7590 0.7640 0.7670
6.510175 0.7670 0.7690 0.7720 0.7770 0.7770
6.543000 0.7790 0.7790 0.7800 0.7800 0.7800
6.576175 0.7840 0.7870 0.7870 0.7870 0.7850
6.609000 0.7840 0.7820 0.7770 0.7720 0.7700
6.642175 0.7690 0.7650 0.7650 0.7640 0.7620
6.676000 0.7600 0.7570 0.7540 0.7520 0.7450
6.709175 0.7350 0.7270 0.7200 0.7150 0.7100
6.742000 0.7040 0.6940 0.6840 0.6690 0.6590
6.775175 0.6490 0.6390 0.6310 0.6220 0.6160
6.808000 0.6060 0.5980 0.5880 0.5740 0.5680
6.841175 0.5630 0.5560 0.5460 0.5380 0.5330
6.874000 0.5280 0.5240 0.5190 0.5140 0.5040
6.907175 0.4960 0.4860 0.4750 0.4630 0.4510
6.941000 0.4360 0.4230 0.4080 0.3930 0.3820
6.974175 0.3750 0.3680 0.3570 0.3500 0.3350
7.007000 0.3300 0.3270 0.3250 0.3250 0.3270
7.040175 0.3300 0.3330 0.3400 0.3520 0.3620
7.073000 0.3720 0.3770 0.3830 0.3970 0.4100
7.106175 0.4210 0.4330 0.4410 0.4510 0.4660
7.140000 0.4710 0.4800 0.4880 0.4910 0.4950
7.173175 0.4980 0.5030 0.5060 0.5130 0.5190
7.206000 0.5260 0.5280 0.5290 0.5290 0.5260
7.239175 0.5260 0.5260 0.5280 0.5290 0.5310
7.272000 0.5340 0.5410 0.5460 0.5480 0.5490
7.305175 0.5530 0.5560 0.5590 0.5610 0.5610
7.339000 0.5610 0.5610 0.5610 0.5610 0.5590
7.372175 0.5590 0.5560 0.5530 0.5490 0.5410
7.405000 0.5330 0.5280 0.5240 0.5190 0.5160
7.438175 0.5130 0.5030 0.4960 0.4900 0.4860
7.471000 0.4830 0.4780 0.4730 0.4680 0.4610
7.504175 0.4560 0.4550 0.4530 0.4510 0.4510
7.538000 0.4530 0.4550 0.4560 0.4610 0.4700
7.571175 0.4800 0.4850 0.4950 0.5040 0.5090
7.604000 0.5180 0.5230 0.5260 0.5290 0.5340
7.637175 0.5380 0.5430 0.5490 0.5530 0.5590
7.670000 0.5610 0.5690 0.5760 0.5790 0.5810
7.703175 0.5830 0.5830 0.5860 0.5890 0.5930
7.737000 0.5940 0.5980 0.5990 0.6010 0.6060
7.770175 0.6070 0.6090 0.6090 0.6110 0.6110
7.803000 0.6110 0.6110 0.6110 0.6110 0.6090
7.836175 0.6090 0.6090 0.6090 0.6090 0.6090
7.869000 0.6060 0.6020 0.5990 0.5980 0.5980
7.902175 0.5980 0.5990 0.6010 0.6060 0.6070
7.936000 0.6090 0.6120 0.6170 0.6190 0.6190
7.969175 0.6210 0.6240 0.6260 0.6270 0.6270
8.002000 0.6310 0.6310 0.6320 0.6320 0.6320
8.035175 0.6340 0.6340 0.6340 0.6340 0.6360
8.068000 0.6360 0.6340 0.6320 0.6320 0.6310
8.101175 0.6310 0.6310 0.6320 0.6320 0.6340
8.135000 0.6360 0.6370 0.6390 0.6390 0.6390
8.168175 0.6370 0.6360 0.6360 0.6360 0.6340
8.201000 0.6320 0.6320 0.6310 0.6310 0.6290
8.234175 0.6290 0.6270 0.6260 0.6210 0.6160
8.267000 0.6140 0.6110 0.6070 0.6060 0.6020
8.300175 0.6010 0.5990 0.5990 0.5980 0.5960
8.333000 0.5960 0.5960 0.5980 0.5980 0.5990
8.366175 0.5990 0.5990 0.5990 0.5990 0.5980
8.400000 0.5980 0.5980 0.5980 0.5980 0.5960
8.433175 0.5930 0.5880 0.5790 0.5680 0.5610
8.466000 0.5540 0.5480 0.5390 0.5330 0.5240
8.499175 0.5180 0.5090 0.5010 0.4930 0.4850
8.532000 0.4750 0.4660 0.4560 0.4460 0.4360
8.565175 0.4250 0.4130 0.4050 0.3980 0.3920
8.599000 0.3820 0.3630 0.3500 0.3450 0.3350
8.632175 0.3280 0.3200 0.3100 0.3070 0.3020
8.665000 0.3000 0.2990 0.2970 0.2970 0.2950
8.698175 0.2940 0.2920 0.2890 0.2850 0.2840
8.731000 0.2820 0.2790 0.2740 0.2690 0.2670
8.764175 0.2650 0.2620 0.2590 0.2550 0.2500
8.798000 0.2470 0.2440 0.2400 0.2350 0.2320
8.831175 0.2290 0.2250 0.2200 0.2070 0.2040
8.864000 0.1970 0.1940 0.1860 0.1840 0.1820
8.897175 0.1810 0.1790 0.1770 0.1720 0.1670
8.930000 0.1610 0.1590 0.1570 0.1560 0.1520
8.963175 0.1470 0.1440 0.1390 0.1370 0.1360
8.997000 0.1340 0.1340 0.1320 0.1320 0.1310
9.030175 0.1290 0.1290 0.1290 0.1290 0.1290
9.063000 0.1270 0.1270 0.1270 0.1270 0.1260
9.096175 0.1240 0.1240 0.1220 0.1220 0.1220
9.129000 0.1220 0.1220 0.1220 0.1220 0.1220
9.162175 0.1210 0.1210 0.1190 0.1160 0.1120
9.196000 0.1120 0.1110 0.1070 0.1060 0.1060
9.229175 0.1040 0.1040 0.1040 0.1020 0.0990
9.262000 0.0980 0.0960 0.0910 0.0860 0.0830
9.295175 0.0810 0.0810 0.0790 0.0790 0.0790
9.328000 0.0790 0.0790 0.0780 0.0780 0.0760
9.361175 0.0740 0.0730 0.0730 0.0710 0.0710
9.395000 0.0690 0.0680 0.0680 0.0660 0.0660
9.428175 0.0660 0.0660 0.0660 0.0660 0.0660
9.461000 0.0680 0.0680 0.0680 0.0680 0.0690
9.494175 0.0690 0.0740 0.0740 0.0760 0.0780
9.527000 0.0790 0.0830 0.0840 0.0860 0.0880
9.560175 0.0880 0.0880 0.0890 0.0930 0.0960
9.594000 0.0990 0.0990 0.1040 0.1060 0.1070
9.627175 0.1070 0.1070 0.1070 0.1070 0.1070
9.660000 0.1070 0.1070 0.1060 0.1020 0.0990
9.693175 0.0990 0.0990 0.1010 0.1070 0.1070
9.726000 0.1090 0.1090 0.1060 0.1020 0.1010
9.759175 0.0990 0.0990 0.1010 0.1040 0.1070
9.793000 0.1110 0.1110 0.1120 0.1120 0.1140
9.826175 0.1170 0.1220 0.1310 0.1360 0.1390
9.859000 0.1420 0.1440 0.1460 0.1490 0.1520
9.892175 0.1560 0.1620 0.1720 0.1820 0.1870
9.925000 0.1920 0.1940 0.1960 0.1990 0.2000
9.958175 0.2050 0.2100 0.2140 0.2150 0.2170
9.991000 0.2200 0.2250 0.2350 0.2400 0.2470
10.024175 0.2520 0.2540 0.2620 0.2670 0.2690
10.058000 0.2700 0.2700 0.2720 0.2750 0.2800
10.091175 0.2890 0.3020 0.3180 0.3320 0.3420
10.124000 0.3450 0.3520 0.3630 0.3770 0.3870
10.157175 0.3980 0.4080 0.4160 0.4250 0.4330
10.190000 0.4400 0.4480 0.4580 0.4680 0.4760
10.223175 0.4810 0.4860 0.4900 0.4950 0.4980
10.257000 0.5040 0.5110 0.5190 0.5290 0.5330
10.290175 0.5380 0.5430 0.5480 0.5530 0.5590
10.323000 0.5640 0.5690 0.5730 0.5760 0.5790
10.356175 0.5810 0.5830 0.5840 0.5860 0.5880
10.389000 0.5910 0.5910 0.5930 0.5940 0.5940
10.422175 0.5960 0.5980 0.5980 0.5990 0.6010
10.456000 0.6010 0.6020 0.6020 0.6060 0.6060
10.489175 0.6090 0.6110 0.6140 0.6140 0.6160
10.522000 0.6160 0.6170 0.6170 0.6190 0.6210
10.555175 0.6210 0.6220 0.6220 0.6240 0.6270
10.588000 0.6320 0.6340 0.6360 0.6390 0.6410
10.621175 0.6420 0.6440 0.6460 0.6470 0.6470
10.655000 0.6490 0.6490 0.6490 0.6460 0.6460
10.688175 0.6460 0.6420 0.6420 0.6420 0.6420
10.721000 0.6440 0.6440 0.6470 0.6490 0.6510
10.754175 0.6520 0.6520 0.6490 0.6470 0.6460
10.787000 0.6460 0.6460 0.6510 0.6520 0.6540
10.820175 0.6540 0.6570 0.6570 0.6560 0.6540
10.854000 0.6520 0.6520 0.6510 0.6510 0.6510
10.887175 0.6510 0.6510 0.6510 0.6510 0.6510
10.920000 0.6510 0.6510 0.6490 0.6490 0.6490
10.953175 0.6490 0.6490 0.6490 0.6490 0.6490
10.986000 0.6490 0.6490 0.6490 0.6490 0.6490
11.019175 0.6490 0.6470 0.6470 0.6470 0.6470
11.053000 0.6470 0.6470 0.6470 0.6470 0.6470
11.086175 0.6470 0.6470 0.6470 0.6470 0.6470
11.119000 0.6470 0.6470 0.6470 0.6470 0.6470
11.152175 0.6470 0.6470 0.6470 0.6490 0.6490
11.185000 0.6490 0.6490 0.6510 0.6520 0.6520
11.218175 0.6540 0.6540 0.6560 0.6570 0.6610
11.252000 0.6620 0.6660 0.6670 0.6690 0.6690
11.285175 0.6720 0.6760 0.6810 0.6840 0.6890
11.318000 0.6910 0.6920 0.6940 0.6970 0.6970
11.351175 0.6990 0.7020 0.7040 0.7050 0.7090
11.384000 0.7100 0.7120 0.7120 0.7150 0.7200
11.417175 0.7240 0.7250 0.7270 0.7290 0.7300
11.450000 0.7300 0.7320 0.7320 0.7320 0.7320
11.483175 0.7340 0.7350 0.7370 0.7390 0.7390
11.517000 0.7400 0.7420 0.7420 0.7420 0.7420
11.550175 0.7420 0.7440 0.7440 0.7450 0.7470
11.583000 0.7470 0.7470 0.7470 0.7470 0.7470
11.616175 0.7470 0.7490 0.7490 0.7500 0.7500
11.649000 0.7500 0.7500 0.7500 0.7500 0.7500
11.682175 0.7500 0.7500 0.7500 0.7500 0.7500
11.716000 0.7520 0.7520 0.7520 0.7520 0.7520
11.749175 0.7520 0.7520 0.7520 0.7520 0.7520
11.782000 0.7520 0.7500 0.7500 0.7500 0.7500
11.815175 0.7520 0.7520 0.7520 0.7520 0.7500
11.848000 0.7500 0.7490 0.7490 0.7470 0.7470
11.881175 0.7470 0.7450 0.7450 0.7450 0.7450
11.915000 0.7450 0.7450 0.7450 0.7450 0.7450
11.948175 0.7470 0.7470 0.7470 0.7470 0.7470
11.981000 0.7490 0.7500 0.7500 0.7500 0.7490
12.014175 0.7490 0.7490 0.7490 0.7470 0.7470
12.047000 0.7470 0.7470 0.7440 0.7440 0.7420
12.080175 0.7390 0.7390 0.7370 0.7370 0.7370
12.114000 0.7350 0.7340 0.7340 0.7340 0.7340
12.147175 0.7340 0.7340 0.7340 0.7340 0.7340
12.180000 0.7350 0.7370 0.7370 0.7370 0.7370
12.213175 0.7370 0.7370 0.7370 0.7370 0.7370
12.246000 0.7350 0.7350 0.7350 0.7350 0.7340
12.279175 0.7340 0.7320 0.7320 0.7300 0.7300
12.313000 0.7300 0.7290 0.7250 0.7240 0.7240
12.346175 0.7220 0.7220 0.7220 0.7220 0.7220
12.379000 0.7220 0.7220 0.7220 0.7200 0.7200
12.412175 0.7200 0.7200 0.7190 0.7190 0.7170
12.445000 0.7150 0.7140 0.7140 0.7100 0.7040
12.478175 0.6990 0.6960 0.6860 0.6790 0.6740
12.512000 0.6690 0.6660 0.6620 0.6610 0.6560
12.545175 0.6510 0.6440 0.6370 0.6320 0.6290
12.578000 0.6260 0.6210 0.6160 0.6110 0.6040
12.611175 0.6010 0.5940 0.5930 0.5910 0.5880
12.644000 0.5860 0.5860 0.5840 0.5830 0.5810
12.677175 0.5810 0.5790 0.5780 0.5740 0.5730
12.711000 0.5710 0.5690 0.5690 0.5690 0.5690
12.744175 0.5690 0.5690 0.5710 0.5710 0.5730
12.777000 0.5730 0.5740 0.5740 0.5760 0.5780
12.810175 0.5790 0.5840 0.5890 0.5930 0.5960
12.843000 0.5980 0.5990 0.5990 0.6010 0.6040
12.876175 0.6090 0.6110 0.6140 0.6140 0.6140
12.910000 0.6120 0.6090 0.6070 0.6070 0.6070
12.943175 0.6070 0.6070 0.6090 0.6110 0.6110
12.976000 0.6110 0.6110 0.6110 0.6110 0.6090
13.009175 0.6070 0.6060 0.6010 0.5980 0.5980
13.042000 0.5960 0.5930 0.5910 0.5910 0.5890
13.075175 0.5890 0.5890 0.5890 0.5890 0.5890
13.108000 0.5890 0.5890 0.5880 0.5880 0.5860
13.141175 0.5860 0.5860 0.5840 0.5840 0.5840
13.175000 0.5840 0.5840 0.5860 0.5860 0.5880
13.208175 0.5910 0.5910 0.5930 0.5930 0.5940
13.241000 0.5980 0.5980 0.5990 0.5990 0.5990
13.274175 0.6010 0.6020 0.6040 0.6040 0.6040
13.307000 0.6040 0.6040 0.6040 0.6060 0.6090
13.340175 0.6170 0.6210 0.6220 0.6240 0.6260
13.374000 0.6270 0.6270 0.6270 0.6290 0.6290
13.407175 0.6290 0.6310 0.6320 0.6320 0.6320
13.440000 0.6320 0.6320 0.6320 0.6320 0.6340
13.473175 0.6340 0.6340 0.6360 0.6370 0.6370
13.506000 0.6370 0.6360 0.6320 0.6320 0.6310
13.539175 0.6310 0.6310 0.6310 0.6290 0.6290
13.573000 0.6310 0.6310 0.6320 0.6320 0.6320
13.606175 0.6320 0.6310 0.6310 0.6290 0.6270
13.639000 0.6270 0.6260 0.6260 0.6260 0.6260
13.672175 0.6260 0.6260 0.6260 0.6240 0.6220
13.705000 0.6210 0.6210 0.6210 0.6210 0.6220
13.738175 0.6220 0.6220 0.6220 0.6220 0.6220
13.772000 0.6190 0.6170 0.6170 0.6160 0.6160
13.805175 0.6160 0.6140 0.6140 0.6140 0.6140
13.838000 0.6140 0.6140 0.6140 0.6120 0.6110
13.871175 0.6110 0.6090 0.6090 0.6070 0.6070
13.904000 0.6070 0.6070 0.6060 0.6060 0.6060
13.937175 0.6060 0.6060 0.6060 0.6060 0.6060
13.971000 0.6060 0.6070 0.6070 0.6090 0.6090
14.004175 0.6090 0.6090 0.6110 0.6110 0.6110
14.037000 0.6120 0.6140 0.6140 0.6120 0.6120
14.070175 0.6110 0.6110 0.6110 0.6090 0.6090
14.103000 0.6090 0.6090 0.6070 0.6070 0.6070
14.136175 0.6070 0.6070 0.6070 0.6070 0.6090
14.170000 0.6090 0.6090 0.6090 0.6090 0.6090
14.203175 0.6090 0.6090 0.6090 0.6110 0.6110
14.236000 0.6110 0.6120 0.6120 0.6120 0.6120
14.269175 0.6120 0.6140 0.6140 0.6140 0.6160
14.302000 0.6160 0.6160 0.6160 0.6160 0.6160
14.335175 0.6160 0.6160 0.6160 0.6160 0.6170
14.369000 0.6190 0.6210 0.6210 0.6220 0.6220
14.402175 0.6220 0.6240 0.6240 0.6240 0.6240
14.435000 0.6240 0.6240 0.6220 0.6220 0.6220
14.468175 0.6220 0.6220 0.6240 0.6240 0.6240
14.501000 0.6260 0.6270 0.6270 0.6290 0.6290
14.534175 0.6290 0.6290 0.6290 0.6290 0.6290
14.568000 0.6290 0.6290 0.6310 0.6320 0.6320
14.601175 0.6320 0.6320 0.6340 0.6340 0.6340
14.634000 0.6340 0.6360 0.6360 0.6360 0.6360
14.667175 0.6360 0.6360 0.6360 0.6360 0.6360
14.700000 0.6360 0.6360 0.6360 0.6370 0.6370
14.733175 0.6370 0.6370 0.6370 0.6370 0.6370
14.766000 0.6370 0.6370 0.6370 0.6370 0.6360
14.799175 0.6360 0.6340 0.6320 0.6310 0.6290
14.833000 0.6290 0.6290 0.6290 0.6290 0.6290
14.866175 0.6290 0.6290 0.6290 0.6310 0.6310
14.899000 0.6310 0.6310 0.6320 0.6320 0.6340
14.932175 0.6340 0.6340 0.6320 0.6290 0.6270
14.965000 0.6240 0.6220 0.6190 0.6160 0.6110
14.998175 0.6090 0.6060 0.6040 0.5980 0.5930
15.032000 0.5910 0.5910 0.5910 0.5940 0.5960
15.065175 0.5960 0.5960 0.5960 0.5940 0.5930
15.098000 0.5930 0.5940 0.5960 0.5990 0.6020
15.131175 0.6060 0.6070 0.6090 0.6110 0.6110
15.164000 0.6110 0.6110 0.6110 0.6090 0.6090
15.197175 0.6090 0.6070 0.6070 0.6070 0.6070
15.231000 0.6070 0.6090 0.6090 0.6110 0.6110
15.264175 0.6110 0.6110 0.6110 0.6110 0.6110
15.297000 0.6110 0.6110 0.6090 0.6090 0.6070
15.330175 0.6060 0.6060 0.6060 0.6070 0.6070
15.363000 0.6090 0.6090 0.6090 0.6090 0.6090
15.396175 0.6090 0.6090 0.6090 0.6090 0.6090
15.430000 0.6090 0.6090 0.6090 0.6090 0.6070
15.463175 0.6070 0.6070 0.6070 0.6090 0.6110
15.496000 0.6110 0.6120 0.6120 0.6110 0.6090
15.529175 0.6070 0.6070 0.6070 0.6070 0.6110
15.562000 0.6110 0.6090 0.6070 0.6070 0.6070
15.595175 0.6060 0.6060 0.6060 0.6070 0.6070
15.629000 0.6110 0.6120 0.6120 0.6110 0.6090
15.662175 0.6090 0.6070 0.6070 0.6070 0.6070
15.695000 0.6060 0.6060 0.6060 0.6060 0.6060
15.728175 0.6060 0.6060 0.6040 0.6020 0.6020
15.761000 0.6020 0.6020 0.6020 0.6020 0.6020
15.794175 0.6020 0.6020 0.6020 0.6020 0.6040
15.828000 0.6040 0.6040 0.6040 0.6040 0.6040
15.861175 0.6040 0.6020 0.6020 0.6010 0.6010
15.894000 0.5990 0.5990 0.5980 0.5960 0.5930
15.927175 0.5930 0.5910 0.5910 0.5890 0.5880
15.960000 0.5880 0.5860 0.5860 0.5840 0.5840
15.993175 0.5840 0.5830 0.5790
##END=
