##TITLE=1,1'-BIS-[3-(P-BIPHENYLYL)-1,1,3,3-TETRAMETHYL DISILOXANYL] FERROCENE
##JCAMP-DX=4.24
##DATA TYPE=INFRARED SPECTRUM
##CLASS=COBLENTZ
##ORIGIN=WYANDOTTE CHEMICALS CORP., WYANDOTTE, MICHIGAN, USA
##OWNER=COBLENTZ SOCIETY
Collection (C) 2018 copyright by the U.S. Secretary of Commerce
on behalf of the United States of America. All rights reserved.
##DATE=Not specified, most likely prior to 1970
##NAMES=bis[2-(3-[1,1'-biphenyl]-4-yl-1,1,3,3-tetramethyldisiloxanyl)-1,4-cyclopentadien-1-yl]iron
##MOLFORM=C42 H50 O2 Si4 Fe
##SOURCE REFERENCE=COBLENTZ NO. 2801
##$NIST ID=B6002801
##$NIST SOURCE=COBLENTZ
##$NIST IMAGE=cob2801
##SPECTROMETER/DATA SYSTEM=Not specified, most likely a prism, grating, or hybrid spectrometer.
##STATE=SOLID (MINERAL OIL MULL)
##PATH LENGTH=
$$SPECTRAL CONTAMINATION DUE TO OIL AROUND 2900 CM^-^1
##SAMPLING PROCEDURE=TRANSMISSION
##RESOLUTION=4
##DATA PROCESSING=DIGITIZED BY NIST FROM HARD COPY
##XUNITS=MICROMETERS
##YUNITS=TRANSMITTANCE
##XFACTOR=1.000000
##YFACTOR=1
##DELTAX=000.006619
##FIRSTX=2.04
##LASTX=15.9996
##FIRSTY=0.547
##MAXX=15.9996
##MINX=2.04
##MAXY=0.965
##MINY=0.028
##NPOINTS=2110
##XYDATA=(X++(Y..Y))
2.040000 0.5470 0.5480 0.5520 0.5530 0.5550
2.073113 0.5550 0.5570 0.5580 0.5580 0.5600
2.106000 0.5610 0.5630 0.5630 0.5650 0.5650
2.139113 0.5660 0.5660 0.5660 0.5680 0.5680
2.172000 0.5680 0.5700 0.5700 0.5710 0.5710
2.205113 0.5730 0.5730 0.5760 0.5760 0.5780
2.238000 0.5810 0.5830 0.5830 0.5850 0.5850
2.271113 0.5860 0.5860 0.5900 0.5900 0.5910
2.304000 0.5930 0.5930 0.5950 0.5950 0.5980
2.337113 0.6000 0.6000 0.6000 0.6010 0.6010
2.371000 0.6030 0.6030 0.6040 0.6040 0.6040
2.404113 0.6040 0.6060 0.6080 0.6090 0.6090
2.437000 0.6110 0.6140 0.6180 0.6180 0.6190
2.470113 0.6210 0.6230 0.6230 0.6240 0.6240
2.503000 0.6280 0.6310 0.6330 0.6340 0.6360
2.536113 0.6390 0.6410 0.6420 0.6460 0.6460
2.569000 0.6470 0.6470 0.6490 0.6490 0.6510
2.602113 0.6510 0.6510 0.6510 0.6510 0.6520
2.635000 0.6560 0.6560 0.6560 0.6560 0.6560
2.668113 0.6570 0.6570 0.6570 0.6570 0.6570
2.702000 0.6590 0.6590 0.6590 0.6590 0.6590
2.735113 0.6610 0.6610 0.6620 0.6640 0.6660
2.768000 0.6710 0.6710 0.6710 0.6710 0.6720
2.801113 0.6720 0.6720 0.6720 0.6720 0.6720
2.834000 0.6720 0.6720 0.6710 0.6710 0.6690
2.867113 0.6690 0.6690 0.6690 0.6710 0.6710
2.900000 0.6710 0.6710 0.6710 0.6710 0.6710
2.933113 0.6720 0.6740 0.6740 0.6740 0.6740
2.966000 0.6760 0.6760 0.6790 0.6800 0.6800
2.999113 0.6800 0.6820 0.6840 0.6840 0.6840
3.033000 0.6840 0.6850 0.6850 0.6850 0.6850
3.066113 0.6850 0.6850 0.6850 0.6850 0.6840
3.099000 0.6840 0.6820 0.6820 0.6820 0.6800
3.132113 0.6800 0.6790 0.6770 0.6760 0.6760
3.165000 0.6740 0.6720 0.6720 0.6690 0.6670
3.198113 0.6660 0.6610 0.6540 0.6390 0.6140
3.231000 0.5750 0.5660 0.5550 0.5530 0.5570
3.264113 0.5850 0.5850 0.5830 0.5500 0.5200
3.297000 0.4900 0.4890 0.4180 0.3470 0.3230
3.330113 0.2990 0.2510 0.2000 0.1200 0.0590
3.364000 0.0460 0.0440 0.0420 0.0410 0.0410
3.397113 0.0420 0.0510 0.0610 0.0760 0.0940
3.430000 0.1170 0.1400 0.1550 0.1700 0.1750
3.463113 0.1760 0.1730 0.1630 0.1610 0.1650
3.496000 0.1800 0.1950 0.2090 0.2260 0.4840
3.529113 0.5500 0.6210 0.7050 0.7230 0.7320
3.562000 0.7370 0.7400 0.7430 0.7470 0.7520
3.595113 0.7570 0.7650 0.7750 0.7810 0.7850
3.628000 0.7880 0.7880 0.7900 0.7900 0.7910
3.661113 0.7910 0.7910 0.7900 0.7900 0.7910
3.695000 0.7930 0.7980 0.8000 0.8010 0.8010
3.728113 0.8010 0.8030 0.8040 0.8060 0.8080
3.761000 0.8080 0.8090 0.8130 0.8130 0.8140
3.794113 0.8180 0.8210 0.8210 0.8230 0.8230
3.827000 0.8240 0.8240 0.8240 0.8260 0.8260
3.860113 0.8280 0.8290 0.8310 0.8330 0.8340
3.893000 0.8390 0.8410 0.8420 0.8440 0.8460
3.926113 0.8470 0.8490 0.8510 0.8510 0.8520
3.959000 0.8520 0.8520 0.8520 0.8520 0.8520
3.992113 0.8520 0.8560 0.8570 0.8570 0.8570
4.026000 0.8570 0.8570 0.8570 0.8570 0.8560
4.059113 0.8560 0.8560 0.8590 0.8590 0.8610
4.092000 0.8640 0.8640 0.8660 0.8660 0.8660
4.125113 0.8610 0.8610 0.8610 0.8620 0.8620
4.158000 0.8620 0.8640 0.8640 0.8640 0.8660
4.191113 0.8670 0.8690 0.8690 0.8690 0.8690
4.224000 0.8660 0.8620 0.8560 0.8510 0.8470
4.257113 0.8440 0.8420 0.8420 0.8460 0.8510
4.290000 0.8560 0.8610 0.8620 0.8640 0.8640
4.323113 0.8690 0.8710 0.8760 0.8800 0.8850
4.357000 0.8920 0.8970 0.9020 0.9040 0.9050
4.390113 0.9050 0.9040 0.9020 0.9000 0.8990
4.423000 0.8970 0.8970 0.8970 0.8970 0.8970
4.456113 0.8970 0.8950 0.8950 0.8950 0.8950
4.489000 0.8950 0.8950 0.8950 0.8950 0.8950
4.522113 0.8970 0.8970 0.8970 0.8970 0.8990
4.555000 0.9000 0.9020 0.9020 0.9020 0.9040
4.588113 0.9040 0.9040 0.9050 0.9050 0.9070
4.621000 0.9070 0.9070 0.9070 0.9070 0.9070
4.654113 0.9090 0.9090 0.9100 0.9120 0.9150
4.687000 0.9150 0.9170 0.9190 0.9190 0.9200
4.720113 0.9200 0.9200 0.9220 0.9220 0.9220
4.754000 0.9230 0.9270 0.9270 0.9270 0.9270
4.787113 0.9270 0.9280 0.9280 0.9280 0.9300
4.820000 0.9300 0.9300 0.9300 0.9300 0.9300
4.853113 0.9300 0.9300 0.9300 0.9300 0.9300
4.886000 0.9300 0.9300 0.9300 0.9300 0.9300
4.919113 0.9300 0.9300 0.9300 0.9300 0.9300
4.952000 0.9300 0.9300 0.9300 0.9300 0.9300
4.985113 0.9330 0.9370 0.9380 0.9380 0.9380
5.018000 0.9380 0.9400 0.9400 0.9400 0.9380
5.051113 0.9380 0.9370 0.9370 0.9370 0.9380
5.085000 0.9400 0.9420 0.9430 0.9420 0.9380
5.118113 0.9350 0.9350 0.9330 0.9330 0.9330
5.151000 0.9330 0.9320 0.9300 0.9270 0.9250
5.184113 0.9270 0.9270 0.9300 0.9320 0.9320
5.217000 0.9300 0.9280 0.9230 0.9090 0.8970
5.250113 0.8950 0.8950 0.8990 0.9120 0.9250
5.283000 0.9300 0.9320 0.9330 0.9330 0.9350
5.316113 0.9350 0.9350 0.9350 0.9330 0.9320
5.349000 0.9320 0.9300 0.9300 0.9350 0.9450
5.382113 0.9520 0.9580 0.9600 0.9600 0.9600
5.416000 0.9600 0.9600 0.9600 0.9570 0.9570
5.449113 0.9570 0.9580 0.9610 0.9610 0.9500
5.482000 0.9500 0.9500 0.9500 0.9520 0.9600
5.515113 0.9650 0.9650 0.9650 0.9520 0.9330
5.548000 0.9250 0.9220 0.9200 0.9220 0.9350
5.581113 0.9380 0.9420 0.9450 0.9470 0.9480
5.614000 0.9480 0.9470 0.9450 0.9420 0.9370
5.647113 0.9320 0.9330 0.9330 0.9400 0.9420
5.680000 0.9400 0.9300 0.9280 0.9270 0.9270
5.713113 0.9300 0.9320 0.9330 0.9330 0.9270
5.747000 0.9230 0.9220 0.9190 0.9190 0.9170
5.780113 0.9100 0.8990 0.8800 0.8790 0.8790
5.813000 0.8820 0.8840 0.8890 0.8940 0.8970
5.846113 0.8990 0.9020 0.9050 0.9120 0.9190
5.879000 0.9270 0.9350 0.9370 0.9350 0.9220
5.912113 0.9190 0.9190 0.9200 0.9280 0.9300
5.945000 0.9300 0.9200 0.9120 0.9090 0.9040
5.978113 0.9020 0.9020 0.9000 0.9000 0.9000
6.011000 0.9020 0.9020 0.9050 0.9120 0.9170
6.044113 0.9250 0.9330 0.9370 0.9350 0.9320
6.078000 0.9300 0.9330 0.9430 0.9480 0.9480
6.111113 0.9480 0.9480 0.9480 0.9470 0.9450
6.144000 0.9430 0.9430 0.9370 0.9250 0.9100
6.177113 0.8900 0.8390 0.7480 0.6710 0.5930
6.210000 0.5910 0.5930 0.6240 0.7330 0.7660
6.243113 0.7900 0.8060 0.8240 0.8360 0.8460
6.276000 0.8520 0.8610 0.8690 0.8890 0.9040
6.309113 0.9120 0.9190 0.9250 0.9280 0.9280
6.342000 0.9230 0.9200 0.9190 0.9190 0.9220
6.375113 0.9330 0.9380 0.9420 0.9400 0.9330
6.409000 0.9200 0.9020 0.8900 0.8770 0.8620
6.442113 0.8610 0.8610 0.8710 0.9050 0.9200
6.475000 0.9330 0.9370 0.9380 0.9350 0.9330
6.508113 0.9300 0.9300 0.9280 0.9250 0.9230
6.541000 0.9230 0.9230 0.9230 0.9230 0.9220
6.574113 0.9150 0.9140 0.9100 0.9070 0.9040
6.607000 0.9040 0.9040 0.9040 0.9020 0.9000
6.640113 0.9000 0.8970 0.8900 0.8660 0.8440
6.673000 0.8160 0.7610 0.7100 0.6590 0.6330
6.706113 0.6260 0.6210 0.6180 0.6180 0.6180
6.739000 0.6190 0.6190 0.6190 0.5960 0.5700
6.772113 0.5320 0.5020 0.4800 0.4420 0.4390
6.806000 0.4380 0.4380 0.4410 0.4570 0.4670
6.839113 0.4760 0.4870 0.5040 0.5120 0.5170
6.872000 0.5230 0.5300 0.5420 0.5580 0.5800
6.905113 0.6090 0.6490 0.6900 0.7140 0.7350
6.938000 0.7580 0.7800 0.7950 0.8040 0.8080
6.971113 0.8080 0.7830 0.7470 0.7050 0.6770
7.004000 0.6760 0.6790 0.6970 0.7200 0.7520
7.037113 0.7570 0.7570 0.7480 0.7330 0.7270
7.070000 0.7200 0.7170 0.7140 0.7120 0.7140
7.103113 0.7220 0.7330 0.7450 0.7570 0.7610
7.137000 0.7750 0.7980 0.8010 0.8010 0.8000
7.170113 0.7550 0.6940 0.6620 0.6310 0.5850
7.203000 0.5400 0.5070 0.5050 0.5050 0.5070
7.236113 0.5140 0.5250 0.5400 0.5600 0.6000
7.269000 0.6330 0.6460 0.6460 0.6410 0.6390
7.302113 0.6390 0.6420 0.6970 0.7370 0.7760
7.335000 0.8180 0.8330 0.8440 0.8490 0.8540
7.368113 0.8640 0.8690 0.8710 0.8690 0.8670
7.401000 0.8660 0.8610 0.8590 0.8590 0.8610
7.434113 0.8690 0.8760 0.8800 0.8840 0.8850
7.468000 0.8870 0.8900 0.8950 0.8970 0.8990
7.501113 0.9020 0.9020 0.9070 0.9120 0.9170
7.534000 0.9170 0.9070 0.8890 0.8760 0.8720
7.567113 0.8710 0.8720 0.8800 0.8890 0.8920
7.600000 0.8920 0.8890 0.8890 0.8840 0.8820
7.633113 0.8800 0.8800 0.8790 0.8790 0.8740
7.666000 0.8710 0.8690 0.8710 0.8800 0.8890
7.699113 0.8970 0.9000 0.9040 0.9070 0.9090
7.732000 0.9100 0.9140 0.9150 0.9170 0.9170
7.765113 0.9170 0.9170 0.9150 0.9100 0.9050
7.799000 0.8990 0.8970 0.8950 0.8940 0.8920
7.832113 0.8900 0.8890 0.8850 0.8800 0.8740
7.865000 0.8670 0.8560 0.8390 0.8190 0.7910
7.898113 0.7550 0.7040 0.6510 0.5980 0.5100
7.931000 0.4190 0.3750 0.3280 0.2620 0.1950
7.964113 0.0820 0.0640 0.0620 0.0660 0.1090
7.997000 0.1530 0.2060 0.2660 0.3280 0.4610
8.030113 0.5250 0.5860 0.6420 0.7300 0.7580
8.063000 0.7860 0.8080 0.8280 0.8440 0.8540
8.096113 0.8660 0.8720 0.8800 0.8850 0.8920
8.130000 0.8970 0.8990 0.9040 0.9090 0.9120
8.163113 0.9140 0.9150 0.9170 0.9190 0.9190
8.196000 0.9200 0.9220 0.9230 0.9250 0.9280
8.229113 0.9300 0.9300 0.9320 0.9320 0.9320
8.262000 0.9320 0.9320 0.9320 0.9320 0.9320
8.295113 0.9320 0.9300 0.9300 0.9280 0.9280
8.328000 0.9280 0.9300 0.9300 0.9300 0.9300
8.361113 0.9320 0.9330 0.9330 0.9330 0.9250
8.394000 0.9190 0.8970 0.8670 0.8290 0.7900
8.427113 0.7480 0.7140 0.7120 0.7140 0.7270
8.461000 0.7470 0.7580 0.7680 0.7700 0.7680
8.494113 0.7480 0.7170 0.6900 0.6640 0.5730
8.527000 0.4740 0.3450 0.2850 0.2260 0.2190
8.560113 0.2180 0.2210 0.4080 0.4720 0.5370
8.593000 0.5960 0.6490 0.7320 0.7550 0.7580
8.626113 0.7610 0.7680 0.7800 0.7930 0.8080
8.659000 0.8230 0.8340 0.8440 0.8540 0.8610
8.692113 0.8660 0.8740 0.8840 0.8940 0.9000
8.725000 0.9000 0.9040 0.9070 0.9090 0.9120
8.758113 0.9150 0.9140 0.9140 0.9120 0.9090
8.791000 0.9040 0.9000 0.8940 0.8850 0.8770
8.824113 0.8640 0.8490 0.8180 0.7760 0.7230
8.858000 0.6940 0.6620 0.5760 0.4820 0.3750
8.891113 0.3400 0.3040 0.2110 0.2090 0.2110
8.924000 0.2670 0.4180 0.4770 0.5230 0.5570
8.957113 0.5810 0.5980 0.6090 0.6180 0.6260
8.990000 0.6380 0.6490 0.6870 0.7070 0.7270
9.023113 0.7450 0.7610 0.7760 0.7880 0.7960
9.056000 0.8010 0.8040 0.8060 0.8060 0.8060
9.089113 0.8040 0.8030 0.8030 0.8030 0.8030
9.122000 0.8040 0.8040 0.8040 0.8030 0.8000
9.155113 0.7960 0.7930 0.7880 0.7850 0.7800
9.189000 0.7750 0.7660 0.7600 0.7550 0.7470
9.222113 0.7330 0.7090 0.6900 0.6760 0.6690
9.255000 0.6670 0.6670 0.6710 0.6920 0.6990
9.288113 0.7070 0.7100 0.7120 0.7120 0.7100
9.321000 0.7100 0.7040 0.7000 0.6990 0.6950
9.354113 0.6900 0.6840 0.6770 0.6740 0.6670
9.387000 0.6620 0.6570 0.6490 0.6420 0.6360
9.420113 0.6280 0.6140 0.5960 0.5710 0.5350
9.453000 0.5120 0.4990 0.4970 0.4970 0.4990
9.486113 0.5040 0.5050 0.5040 0.4940 0.4840
9.520000 0.4740 0.4640 0.4490 0.4360 0.4240
9.553113 0.4080 0.3880 0.3600 0.3450 0.3300
9.586000 0.2870 0.2460 0.2040 0.1250 0.1170
9.619113 0.1150 0.1170 0.1200 0.1250 0.1330
9.652000 0.1380 0.1430 0.1430 0.1380 0.1190
9.685113 0.1050 0.0940 0.0800 0.0670 0.0560
9.718000 0.0490 0.0410 0.0380 0.0380 0.0390
9.751113 0.0460 0.0510 0.0590 0.0610 0.0620
9.784000 0.0610 0.0520 0.0360 0.0280 0.0280
9.817113 0.0280 0.0290 0.0340 0.0380 0.0390
9.851000 0.0420 0.0460 0.0540 0.0660 0.0800
9.884113 0.0970 0.1090 0.1170 0.1200 0.1230
9.917000 0.1330 0.1450 0.1650 0.2030 0.2410
9.950113 0.2720 0.3000 0.3270 0.3650 0.3810
9.983000 0.3930 0.4010 0.4130 0.4190 0.4240
10.016113 0.4340 0.4460 0.4540 0.4640 0.4740
10.049000 0.4850 0.4990 0.5140 0.5300 0.5450
10.082113 0.5550 0.5650 0.5730 0.5830 0.6010
10.115000 0.6110 0.6210 0.6280 0.6340 0.6410
10.148113 0.6470 0.6560 0.6790 0.6950 0.7140
10.182000 0.7270 0.7320 0.7430 0.7530 0.7630
10.215113 0.7660 0.7730 0.7810 0.7880 0.7910
10.248000 0.7930 0.7960 0.7980 0.8010 0.8030
10.281113 0.8040 0.8040 0.8000 0.7910 0.7750
10.314000 0.7630 0.7580 0.7570 0.7570 0.7700
10.347113 0.7830 0.8000 0.8180 0.8340 0.8390
10.380000 0.8490 0.8560 0.8620 0.8670 0.8710
10.413113 0.8760 0.8770 0.8800 0.8820 0.8870
10.446000 0.8890 0.8920 0.8920 0.8900 0.8890
10.479113 0.8870 0.8820 0.8790 0.8740 0.8720
10.513000 0.8710 0.8770 0.8850 0.8890 0.8900
10.546113 0.8950 0.8970 0.8990 0.9020 0.9090
10.579000 0.9100 0.9120 0.9140 0.9150 0.9170
10.612113 0.9170 0.9170 0.9170 0.9190 0.9190
10.645000 0.9200 0.9220 0.9230 0.9230 0.9250
10.678113 0.9250 0.9250 0.9250 0.9270 0.9270
10.711000 0.9300 0.9320 0.9330 0.9350 0.9370
10.744113 0.9370 0.9370 0.9380 0.9380 0.9380
10.777000 0.9400 0.9420 0.9430 0.9430 0.9450
10.810113 0.9470 0.9470 0.9470 0.9470 0.9450
10.843000 0.9430 0.9430 0.9380 0.9330 0.9280
10.876113 0.9270 0.9250 0.9250 0.9300 0.9300
10.910000 0.9280 0.9280 0.9270 0.9230 0.9190
10.943113 0.9150 0.9140 0.9150 0.9170 0.9220
10.976000 0.9250 0.9300 0.9380 0.9400 0.9400
11.009113 0.9400 0.9380 0.9380 0.9380 0.9350
11.042000 0.9330 0.9320 0.9280 0.9270 0.9230
11.075113 0.9230 0.9220 0.9190 0.9170 0.9100
11.108000 0.9040 0.8940 0.8840 0.8740 0.8640
11.141113 0.8490 0.8340 0.8190 0.8040 0.7850
11.174000 0.7580 0.7270 0.6870 0.6620 0.6380
11.207113 0.5980 0.5680 0.5660 0.5680 0.5860
11.241000 0.6160 0.6520 0.7350 0.7700 0.7960
11.274113 0.8080 0.8230 0.8290 0.8390 0.8470
11.307000 0.8510 0.8520 0.8560 0.8570 0.8570
11.340113 0.8570 0.8570 0.8560 0.8510 0.8470
11.373000 0.8410 0.8310 0.8210 0.8080 0.7910
11.406113 0.7750 0.7570 0.7370 0.7140 0.6890
11.439000 0.6760 0.6610 0.6290 0.6060 0.5780
11.472113 0.5580 0.5380 0.5370 0.5380 0.5480
11.505000 0.5680 0.5900 0.6090 0.6280 0.6460
11.538113 0.6610 0.6900 0.7040 0.7150 0.7280
11.572000 0.7350 0.7420 0.7450 0.7500 0.7520
11.605113 0.7530 0.7550 0.7570 0.7570 0.7570
11.638000 0.7570 0.7570 0.7580 0.7580 0.7600
11.671113 0.7600 0.7600 0.7600 0.7600 0.7580
11.704000 0.7550 0.7500 0.7470 0.7380 0.7330
11.737113 0.7220 0.7050 0.6900 0.6770 0.6710
11.770000 0.6640 0.6540 0.6440 0.6340 0.6230
11.803113 0.6130 0.6000 0.5850 0.5680 0.5450
11.836000 0.5200 0.4950 0.4720 0.4470 0.4240
11.869113 0.4030 0.3830 0.3630 0.3450 0.3350
11.903000 0.3250 0.3090 0.2900 0.2740 0.2560
11.936113 0.2390 0.2230 0.2040 0.1860 0.1660
11.969000 0.1430 0.1320 0.1120 0.0950 0.0800
12.002113 0.0720 0.0690 0.0670 0.0670 0.0660
12.035000 0.0640 0.0610 0.0570 0.0510 0.0470
12.068113 0.0420 0.0380 0.0340 0.0330 0.0330
12.101000 0.0340 0.0380 0.0380 0.0410 0.0440
12.134113 0.0470 0.0510 0.0560 0.0610 0.0640
12.167000 0.0660 0.0670 0.0690 0.0720 0.0770
12.200113 0.0840 0.0940 0.0950 0.1020 0.1140
12.234000 0.1270 0.1430 0.1610 0.1780 0.2000
12.267113 0.2240 0.2420 0.2610 0.2720 0.2840
12.300000 0.3020 0.3140 0.3250 0.3430 0.3500
12.333113 0.3570 0.3580 0.3580 0.3580 0.3570
12.366000 0.3500 0.3430 0.3370 0.3300 0.3220
12.399113 0.2990 0.2850 0.2690 0.2490 0.2260
12.432000 0.2030 0.1780 0.1550 0.1330 0.1120
12.465113 0.0950 0.0770 0.0640 0.0570 0.0510
12.498000 0.0490 0.0470 0.0440 0.0420 0.0420
12.531113 0.0440 0.0560 0.0620 0.0720 0.0890
12.565000 0.1020 0.1170 0.1300 0.1420 0.1570
12.598113 0.1700 0.1830 0.1980 0.2010 0.2040
12.631000 0.2060 0.2060 0.2010 0.1850 0.1650
12.664113 0.1430 0.1230 0.1000 0.0840 0.0690
12.697000 0.0560 0.0470 0.0460 0.0440 0.0460
12.730113 0.0510 0.0570 0.0620 0.0760 0.0850
12.763000 0.0970 0.1150 0.1400 0.1600 0.1810
12.796113 0.2080 0.2330 0.2590 0.2840 0.3000
12.829000 0.3250 0.3600 0.3760 0.3960 0.4140
12.862113 0.4340 0.4520 0.4720 0.4920 0.5040
12.896000 0.5200 0.5350 0.5500 0.5580 0.5660
12.929113 0.5730 0.5800 0.5810 0.5810 0.5810
12.962000 0.5810 0.5780 0.5730 0.5630 0.5470
12.995113 0.5250 0.5000 0.4690 0.4360 0.3980
13.028000 0.3570 0.3350 0.3140 0.2640 0.2210
13.061113 0.1850 0.1550 0.1270 0.1000 0.0900
13.094000 0.0820 0.0800 0.0790 0.0800 0.0870
13.127113 0.0950 0.1040 0.1150 0.1220 0.1280
13.160000 0.1380 0.1570 0.1750 0.1950 0.2260
13.193113 0.2570 0.2900 0.3250 0.3950 0.4310
13.226000 0.4640 0.4970 0.5300 0.5600 0.5880
13.259113 0.6160 0.6410 0.6640 0.7020 0.7170
13.293000 0.7320 0.7430 0.7550 0.7650 0.7750
13.326113 0.7850 0.7930 0.8030 0.8110 0.8180
13.359000 0.8190 0.8230 0.8260 0.8360 0.8380
13.392113 0.8410 0.8440 0.8460 0.8470 0.8490
13.425000 0.8490 0.8510 0.8510 0.8520 0.8520
13.458113 0.8510 0.8510 0.8490 0.8490 0.8490
13.491000 0.8490 0.8510 0.8540 0.8570 0.8590
13.524113 0.8620 0.8670 0.8710 0.8720 0.8740
13.557000 0.8760 0.8770 0.8770 0.8790 0.8790
13.590113 0.8820 0.8840 0.8840 0.8840 0.8840
13.624000 0.8840 0.8820 0.8820 0.8800 0.8770
13.657113 0.8720 0.8710 0.8670 0.8610 0.8570
13.690000 0.8510 0.8470 0.8410 0.8310 0.8190
13.723113 0.8040 0.7860 0.7630 0.7380 0.7120
13.756000 0.6800 0.6660 0.6490 0.6140 0.6030
13.789113 0.5750 0.5730 0.5750 0.5900 0.5980
13.822000 0.6190 0.6390 0.6610 0.7050 0.7270
13.855113 0.7450 0.7630 0.7780 0.7880 0.7950
13.888000 0.8030 0.8130 0.8210 0.8280 0.8360
13.921113 0.8420 0.8490 0.8560 0.8610 0.8670
13.955000 0.8720 0.8770 0.8770 0.8790 0.8790
13.988113 0.8820 0.8850 0.8890 0.8900 0.8920
14.021000 0.8940 0.8940 0.8950 0.8950 0.8970
14.054113 0.8970 0.8990 0.8990 0.8970 0.8950
14.087000 0.8950 0.8940 0.8940 0.8900 0.8900
14.120113 0.8900 0.8890 0.8870 0.8800 0.8740
14.153000 0.8670 0.8610 0.8540 0.8440 0.8330
14.186113 0.8180 0.8000 0.7810 0.7610 0.7400
14.219000 0.7190 0.6950 0.6710 0.6590 0.6460
14.252113 0.6190 0.5960 0.5710 0.5470 0.5200
14.286000 0.4950 0.4690 0.4390 0.4140 0.3960
14.319113 0.3750 0.3550 0.3400 0.3330 0.3250
14.352000 0.3190 0.3120 0.3100 0.3100 0.3140
14.385113 0.3170 0.3200 0.3580 0.3750 0.3930
14.418000 0.4110 0.4290 0.4490 0.4710 0.4900
14.451113 0.5100 0.5300 0.5500 0.5700 0.5880
14.484000 0.6060 0.6230 0.6390 0.6520 0.6640
14.517113 0.6890 0.7020 0.7140 0.7250 0.7330
14.550000 0.7430 0.7500 0.7580 0.7650 0.7700
14.583113 0.7760 0.7810 0.7880 0.7930 0.7980
14.617000 0.8000 0.8010 0.8060 0.8080 0.8090
14.650113 0.8130 0.8160 0.8180 0.8190 0.8210
14.683000 0.8210 0.8230 0.8240 0.8240 0.8240
14.716113 0.8240 0.8240 0.8240 0.8230 0.8210
14.749000 0.8190 0.8160 0.8110 0.8080 0.8060
14.782113 0.8030 0.8010 0.7960 0.7900 0.7810
14.815000 0.7710 0.7650 0.7570 0.7470 0.7420
14.848113 0.7280 0.7150 0.7020 0.6890 0.6770
14.881000 0.6660 0.6460 0.6240 0.6030 0.5830
14.914113 0.5610 0.5420 0.5190 0.4950 0.4710
14.948000 0.4540 0.4440 0.4330 0.4160 0.4030
14.981113 0.3950 0.3860 0.3780 0.3760 0.3780
15.014000 0.3810 0.3900 0.4000 0.4140 0.4290
15.047113 0.4460 0.4690 0.4950 0.5200 0.5430
15.080000 0.5680 0.5900 0.6110 0.6330 0.6520
15.113113 0.6820 0.6890 0.6990 0.7090 0.7170
15.146000 0.7270 0.7350 0.7430 0.7520 0.7580
15.179113 0.7630 0.7660 0.7700 0.7750 0.7810
15.212000 0.7850 0.7880 0.7910 0.7960 0.7960
15.245113 0.7980 0.7980 0.8000 0.8010 0.8010
15.278000 0.8010 0.8010 0.8010 0.8010 0.8010
15.311113 0.8010 0.8010 0.8010 0.8010 0.8010
15.345000 0.8010 0.8000 0.8000 0.7980 0.7980
15.378113 0.7960 0.7910 0.7900 0.7880 0.7880
15.411000 0.7860 0.7860 0.7830 0.7810 0.7800
15.444113 0.7750 0.7680 0.7650 0.7600 0.7570
15.477000 0.7520 0.7500 0.7470 0.7420 0.7380
15.510113 0.7330 0.7270 0.7220 0.7190 0.7100
15.543000 0.7040 0.6970 0.6890 0.6800 0.6770
15.576113 0.6760 0.6720 0.6710 0.6710 0.6720
15.609000 0.6720 0.6740 0.6740 0.6740 0.6760
15.642113 0.6760 0.6790 0.6820 0.6890 0.6950
15.676000 0.6990 0.7000 0.7040 0.7070 0.7070
15.709113 0.7090 0.7090 0.7100 0.7100 0.7100
15.742000 0.7120 0.7120 0.7120 0.7120 0.7100
15.775113 0.7100 0.7090 0.7090 0.7090 0.7090
15.808000 0.7090 0.7070 0.7070 0.7050 0.7040
15.841113 0.7020 0.7000 0.6990 0.6990 0.6990
15.874000 0.6990 0.6970 0.6950 0.6900 0.6870
15.907113 0.6820 0.6800 0.6790 0.6770 0.6720
15.940000 0.6720 0.6690 0.6670 0.6670 0.6660
15.973113 0.6640 0.6620 0.6590 0.6560 0.6590
##END=
