##TITLE=POTASSIUM TETRABORATE
$$ C. P.
##JCAMP-DX=4.24
##DATA TYPE=INFRARED SPECTRUM
##CLASS=COBLENTZ
##ORIGIN=MELLON INSTITUTE
##OWNER=COBLENTZ SOCIETY
Collection (C) 2018 copyright by the U.S. Secretary of Commerce
on behalf of the United States of America. All rights reserved.
##DATE=Not specified, most likely prior to 1970
##MOLFORM=K2 B4 O7  * 5 H2 O
##SOURCE REFERENCE=COBLENTZ NO. 454
##$NIST ID=B6000454
##$NIST SOURCE=COBLENTZ
##$NIST IMAGE=cob454
##SPECTROMETER/DATA SYSTEM=Not specified, most likely a prism, grating, or hybrid spectrometer.
##STATE=SOLID (NUJOL MULL)
##PATH LENGTH=
$$SPECTRAL CONTAMINATION DUE TO OIL AROUND 2900 CM^-^1
##SAMPLING PROCEDURE=TRANSMISSION
##RESOLUTION=4
##DATA PROCESSING=DIGITIZED BY NIST FROM HARD COPY
##XUNITS=MICROMETERS
##YUNITS=TRANSMITTANCE
##XFACTOR=1.000000
##YFACTOR=1
##DELTAX=000.006659
##FIRSTX=2.068
##LASTX=16.004
##FIRSTY=0.991
##MAXX=16.004
##MINX=2.068
##MAXY=0.991
##MINY=0.09
##NPOINTS=2094
##XYDATA=(X++(Y..Y))
2.068000 0.9910 0.9910 0.9910 0.9910 0.9910
2.101309 0.9910 0.9910 0.9910 0.9910 0.9890
2.134000 0.9890 0.9890 0.9890 0.9890 0.9880
2.167309 0.9890 0.9890 0.9890 0.9890 0.9910
2.201000 0.9910 0.9910 0.9910 0.9910 0.9890
2.234309 0.9890 0.9880 0.9880 0.9880 0.9860
2.268000 0.9840 0.9830 0.9790 0.9790 0.9760
2.301309 0.9730 0.9710 0.9710 0.9710 0.9710
2.334000 0.9730 0.9740 0.9740 0.9740 0.9740
2.367309 0.9740 0.9730 0.9730 0.9690 0.9690
2.401000 0.9680 0.9680 0.9680 0.9680 0.9690
2.434309 0.9690 0.9690 0.9690 0.9710 0.9710
2.467000 0.9740 0.9760 0.9780 0.9780 0.9760
2.500309 0.9780 0.9780 0.9780 0.9780 0.9780
2.534000 0.9760 0.9760 0.9740 0.9730 0.9710
2.567309 0.9710 0.9710 0.9690 0.9710 0.9690
2.600000 0.9690 0.9680 0.9680 0.9660 0.9660
2.633309 0.9640 0.9640 0.9630 0.9610 0.9580
2.667000 0.9560 0.9530 0.9530 0.9480 0.9480
2.700309 0.9430 0.9380 0.9280 0.9230 0.9140
2.734000 0.9010 0.8870 0.8790 0.8690 0.8490
2.767309 0.8220 0.7840 0.7670 0.7490 0.6300
2.800000 0.5110 0.4960 0.4790 0.4710 0.4740
2.833309 0.4880 0.5210 0.5450 0.5480 0.5450
2.867000 0.5310 0.5100 0.4860 0.4630 0.4430
2.900309 0.4210 0.3970 0.3760 0.3660 0.3540
2.933000 0.3360 0.3020 0.2850 0.2820 0.2840
2.966309 0.2900 0.3260 0.3390 0.3570 0.3720
3.000000 0.3810 0.3760 0.3760 0.3740 0.3640
3.033309 0.3560 0.3460 0.3440 0.3460 0.3510
3.067000 0.3640 0.3960 0.4140 0.4310 0.4490
3.100309 0.4680 0.4880 0.5180 0.5330 0.5430
3.133000 0.5510 0.5580 0.5680 0.5760 0.5800
3.166309 0.5810 0.5850 0.5880 0.5900 0.5900
3.200000 0.5900 0.5900 0.5910 0.5900 0.5900
3.233309 0.5900 0.5900 0.5880 0.5880 0.5880
3.266000 0.5880 0.5860 0.5860 0.5860 0.5850
3.299309 0.5260 0.4960 0.4640 0.4030 0.3720
3.333000 0.3410 0.2800 0.2500 0.2190 0.1570
3.366309 0.1250 0.0910 0.0900 0.0930 0.1120
3.400000 0.1630 0.1980 0.2320 0.2690 0.2750
3.433309 0.2820 0.2740 0.2640 0.2600 0.2550
3.466000 0.2570 0.2800 0.3470 0.4640 0.5310
3.499309 0.5580 0.6680 0.6920 0.7140 0.7250
3.533000 0.7400 0.7670 0.7750 0.7820 0.7900
3.566309 0.7990 0.8020 0.8040 0.8090 0.8160
3.599000 0.8190 0.8260 0.8320 0.8340 0.8360
3.632309 0.8370 0.8390 0.8410 0.8440 0.8490
3.666000 0.8490 0.8510 0.8520 0.8540 0.8560
3.699309 0.8570 0.8590 0.8590 0.8610 0.8610
3.732000 0.8620 0.8640 0.8640 0.8640 0.8640
3.765309 0.8660 0.8660 0.8670 0.8670 0.8690
3.799000 0.8710 0.8720 0.8720 0.8740 0.8790
3.832309 0.8790 0.8820 0.8860 0.8890 0.8920
3.866000 0.8940 0.8970 0.8990 0.9010 0.9010
3.899309 0.9010 0.9030 0.9010 0.9010 0.9010
3.932000 0.8990 0.8970 0.8970 0.8940 0.8940
3.965309 0.8920 0.8890 0.8870 0.8840 0.8840
3.999000 0.8810 0.8790 0.8770 0.8770 0.8760
4.032309 0.8760 0.8760 0.8760 0.8790 0.8820
4.065000 0.8860 0.8870 0.8910 0.8940 0.8940
4.098309 0.8970 0.8990 0.8990 0.9030 0.9040
4.132000 0.9040 0.9060 0.9060 0.9060 0.9060
4.165309 0.9060 0.9060 0.9040 0.9040 0.9040
4.199000 0.9030 0.9010 0.8990 0.8990 0.8960
4.232309 0.8940 0.8920 0.8920 0.8910 0.8890
4.265000 0.8870 0.8870 0.8860 0.8860 0.8840
4.298309 0.8840 0.8840 0.8840 0.8840 0.8840
4.332000 0.8860 0.8890 0.8910 0.8910 0.8920
4.365309 0.8940 0.8940 0.8990 0.9010 0.9040
4.398000 0.9080 0.9090 0.9110 0.9130 0.9140
4.431309 0.9140 0.9140 0.9140 0.9140 0.9140
4.465000 0.9130 0.9110 0.9110 0.9130 0.9130
4.498309 0.9140 0.9140 0.9140 0.9160 0.9190
4.531000 0.9190 0.9190 0.9210 0.9210 0.9210
4.564309 0.9210 0.9210 0.9210 0.9210 0.9210
4.598000 0.9210 0.9210 0.9230 0.9230 0.9230
4.631309 0.9240 0.9240 0.9240 0.9240 0.9240
4.665000 0.9240 0.9240 0.9240 0.9240 0.9230
4.698309 0.9240 0.9240 0.9240 0.9230 0.9230
4.731000 0.9230 0.9230 0.9230 0.9240 0.9240
4.764309 0.9240 0.9240 0.9260 0.9260 0.9260
4.798000 0.9260 0.9260 0.9290 0.9290 0.9310
4.831309 0.9330 0.9330 0.9340 0.9340 0.9340
4.864000 0.9340 0.9330 0.9330 0.9330 0.9330
4.897309 0.9330 0.9330 0.9330 0.9310 0.9310
4.931000 0.9310 0.9310 0.9310 0.9330 0.9330
4.964309 0.9340 0.9340 0.9340 0.9330 0.9330
4.998000 0.9330 0.9330 0.9330 0.9310 0.9290
5.031309 0.9280 0.9280 0.9260 0.9260 0.9280
5.064000 0.9280 0.9290 0.9290 0.9280 0.9290
5.097309 0.9290 0.9310 0.9310 0.9310 0.9310
5.131000 0.9310 0.9330 0.9330 0.9330 0.9330
5.164309 0.9330 0.9340 0.9340 0.9340 0.9330
5.197000 0.9330 0.9330 0.9330 0.9330 0.9330
5.230309 0.9330 0.9310 0.9310 0.9290 0.9290
5.264000 0.9290 0.9290 0.9260 0.9260 0.9260
5.297309 0.9240 0.9260 0.9260 0.9260 0.9260
5.331000 0.9260 0.9260 0.9260 0.9260 0.9260
5.364309 0.9280 0.9280 0.9280 0.9260 0.9260
5.397000 0.9240 0.9240 0.9230 0.9210 0.9210
5.430309 0.9180 0.9160 0.9160 0.9180 0.9180
5.464000 0.9160 0.9140 0.9140 0.9130 0.9130
5.497309 0.9130 0.9110 0.9110 0.9110 0.9090
5.530000 0.9080 0.9080 0.9080 0.9090 0.9110
5.563309 0.9110 0.9110 0.9130 0.9140 0.9130
5.597000 0.9130 0.9130 0.9130 0.9130 0.9130
5.630309 0.9130 0.9130 0.9130 0.9140 0.9140
5.663000 0.9140 0.9140 0.9140 0.9140 0.9140
5.696309 0.9140 0.9140 0.9140 0.9140 0.9140
5.730000 0.9130 0.9130 0.9130 0.9130 0.9130
5.763309 0.9130 0.9130 0.9130 0.9130 0.9130
5.797000 0.9130 0.9110 0.9090 0.9080 0.9060
5.830309 0.9040 0.8990 0.8960 0.8960 0.8940
5.863000 0.8910 0.8870 0.8840 0.8790 0.8760
5.896309 0.8740 0.8720 0.8690 0.8640 0.8610
5.930000 0.8560 0.8490 0.8470 0.8390 0.8340
5.963309 0.8310 0.8270 0.8240 0.8220 0.8220
5.996000 0.8220 0.8220 0.8220 0.8220 0.8220
6.029309 0.8210 0.8220 0.8220 0.8220 0.8220
6.063000 0.8240 0.8260 0.8260 0.8270 0.8290
6.096309 0.8320 0.8320 0.8340 0.8360 0.8410
6.130000 0.8440 0.8490 0.8490 0.8520 0.8520
6.163309 0.8540 0.8560 0.8560 0.8590 0.8620
6.196000 0.8660 0.8670 0.8710 0.8720 0.8740
6.229309 0.8790 0.8810 0.8840 0.8860 0.8860
6.263000 0.8860 0.8860 0.8860 0.8860 0.8840
6.296309 0.8840 0.8820 0.8810 0.8790 0.8760
6.329000 0.8740 0.8720 0.8690 0.8640 0.8640
6.362309 0.8610 0.8570 0.8540 0.8520 0.8490
6.396000 0.8470 0.8420 0.8370 0.8340 0.8310
6.429309 0.8260 0.8260 0.8210 0.8170 0.8120
6.462000 0.8110 0.8110 0.8090 0.8070 0.8060
6.495309 0.8040 0.8020 0.7970 0.7940 0.7920
6.529000 0.7870 0.7800 0.7790 0.7700 0.7650
6.562309 0.7570 0.7500 0.7490 0.7450 0.7390
6.596000 0.7340 0.7290 0.7220 0.7120 0.7020
6.629309 0.6870 0.6700 0.6570 0.6450 0.6320
6.662000 0.6180 0.6020 0.5760 0.5480 0.5180
6.695309 0.5050 0.4890 0.4590 0.4290 0.3960
6.729000 0.3820 0.3670 0.3520 0.3440 0.3260
6.762309 0.3120 0.3020 0.2850 0.2670 0.2570
6.795000 0.2450 0.2250 0.2070 0.2040 0.2000
6.828309 0.1980 0.1980 0.1930 0.1880 0.1880
6.862000 0.1850 0.1830 0.1820 0.1820 0.1800
6.895309 0.1780 0.1770 0.1750 0.1750 0.1750
6.929000 0.1730 0.1730 0.1730 0.1720 0.1720
6.962309 0.1730 0.1730 0.1730 0.1770 0.1800
6.995000 0.1870 0.1920 0.2000 0.2050 0.2090
7.028309 0.2170 0.2240 0.2350 0.2440 0.2570
7.062000 0.2750 0.2850 0.2950 0.3010 0.3040
7.095309 0.3070 0.3090 0.3160 0.3220 0.3220
7.128000 0.3240 0.3240 0.3220 0.3220 0.3210
7.161309 0.3190 0.3140 0.3110 0.3090 0.3040
7.195000 0.2950 0.2870 0.2770 0.2690 0.2620
7.228309 0.2500 0.2490 0.2470 0.2420 0.2400
7.262000 0.2370 0.2350 0.2320 0.2300 0.2220
7.295309 0.2190 0.2140 0.2100 0.2020 0.2000
7.328000 0.1950 0.1880 0.1830 0.1820 0.1780
7.361309 0.1750 0.1720 0.1720 0.1700 0.1670
7.395000 0.1650 0.1650 0.1630 0.1620 0.1600
7.428309 0.1600 0.1580 0.1580 0.1580 0.1580
7.461000 0.1580 0.1580 0.1600 0.1600 0.1620
7.494309 0.1620 0.1650 0.1680 0.1700 0.1730
7.528000 0.1770 0.1800 0.1850 0.1900 0.1920
7.561309 0.1930 0.1930 0.1950 0.1950 0.1980
7.594000 0.2020 0.2040 0.2040 0.2070 0.2120
7.627309 0.2170 0.2220 0.2240 0.2270 0.2300
7.661000 0.2340 0.2490 0.3040 0.3140 0.3340
7.694309 0.3490 0.3620 0.3910 0.4080 0.4240
7.728000 0.4430 0.4490 0.4610 0.4740 0.4880
7.761309 0.5110 0.5160 0.5210 0.5260 0.5280
7.794000 0.5300 0.5330 0.5360 0.5400 0.5450
7.827309 0.5460 0.5460 0.5460 0.5480 0.5480
7.861000 0.5480 0.5480 0.5480 0.5480 0.5460
7.894309 0.5460 0.5460 0.5460 0.5460 0.5450
7.927000 0.5430 0.5430 0.5400 0.5360 0.5300
7.960309 0.5230 0.5200 0.5160 0.5150 0.5080
7.994000 0.5050 0.5030 0.5010 0.5000 0.4960
8.027309 0.4910 0.4890 0.4880 0.4880 0.4880
8.061000 0.4890 0.4890 0.4910 0.4910 0.4930
8.094309 0.4930 0.4960 0.5000 0.5030 0.5100
8.127000 0.5150 0.5200 0.5250 0.5280 0.5380
8.160309 0.5430 0.5480 0.5500 0.5560 0.5630
8.194000 0.5660 0.5710 0.5800 0.5860 0.5930
8.227309 0.5930 0.5960 0.6000 0.6020 0.6070
8.260000 0.6120 0.6130 0.6170 0.6200 0.6230
8.293309 0.6230 0.6270 0.6280 0.6300 0.6300
8.327000 0.6320 0.6320 0.6320 0.6320 0.6320
8.360309 0.6320 0.6300 0.6300 0.6300 0.6280
8.393000 0.6270 0.6270 0.6250 0.6230 0.6200
8.426309 0.6180 0.6150 0.6050 0.5980 0.5950
8.460000 0.5880 0.5810 0.5750 0.5650 0.5550
8.493309 0.5460 0.5360 0.5260 0.5180 0.5080
8.527000 0.5010 0.4960 0.4910 0.4810 0.4730
8.560309 0.4640 0.4580 0.4490 0.4380 0.4290
8.593000 0.4230 0.4180 0.4140 0.4140 0.4140
8.626309 0.4130 0.4130 0.4110 0.4110 0.4090
8.660000 0.4090 0.4090 0.4080 0.4060 0.4060
8.693309 0.4040 0.4040 0.4030 0.4030 0.4010
8.726000 0.4010 0.3990 0.3990 0.3970 0.3920
8.759309 0.3890 0.3860 0.3840 0.3810 0.3760
8.793000 0.3740 0.3720 0.3690 0.3640 0.3620
8.826309 0.3620 0.3590 0.3590 0.3570 0.3560
8.860000 0.3560 0.3560 0.3560 0.3540 0.3540
8.893309 0.3540 0.3520 0.3520 0.3520 0.3490
8.926000 0.3490 0.3470 0.3460 0.3440 0.3420
8.959309 0.3420 0.3390 0.3370 0.3360 0.3340
8.993000 0.3310 0.3270 0.3190 0.3160 0.3120
9.026309 0.3060 0.3020 0.2990 0.2970 0.2900
9.059000 0.2870 0.2840 0.2770 0.2740 0.2690
9.092309 0.2670 0.2640 0.2620 0.2600 0.2590
9.126000 0.2590 0.2570 0.2540 0.2540 0.2540
9.159309 0.2540 0.2520 0.2520 0.2500 0.2500
9.192000 0.2500 0.2500 0.2500 0.2520 0.2540
9.225309 0.2540 0.2570 0.2600 0.2600 0.2640
9.259000 0.2650 0.2690 0.2700 0.2740 0.2770
9.292309 0.2790 0.2790 0.2800 0.2800 0.2820
9.326000 0.2850 0.2900 0.2920 0.2920 0.2940
9.359309 0.2970 0.2970 0.2990 0.2990 0.3010
9.392000 0.3020 0.3040 0.3040 0.3040 0.3060
9.425309 0.3040 0.3060 0.3060 0.3090 0.3090
9.459000 0.3110 0.3140 0.3160 0.3190 0.3210
9.492309 0.3240 0.3260 0.3270 0.3290 0.3310
9.525000 0.3320 0.3340 0.3420 0.3470 0.3510
9.558309 0.3520 0.3570 0.3610 0.3640 0.3660
9.592000 0.3670 0.3670 0.3670 0.3660 0.3640
9.625309 0.3640 0.3610 0.3570 0.3520 0.3520
9.659000 0.3510 0.3490 0.3470 0.3470 0.3410
9.692309 0.3390 0.3370 0.3340 0.3290 0.3220
9.725000 0.3170 0.3140 0.3120 0.3090 0.3070
9.758309 0.3020 0.3010 0.2970 0.2970 0.2940
9.792000 0.2900 0.2890 0.2850 0.2840 0.2800
9.825309 0.2750 0.2720 0.2670 0.2620 0.2550
9.858000 0.2520 0.2470 0.2450 0.2390 0.2350
9.891309 0.2340 0.2300 0.2300 0.2270 0.2240
9.925000 0.2220 0.2220 0.2220 0.2190 0.2190
9.958309 0.2190 0.2170 0.2150 0.2150 0.2170
9.992000 0.2190 0.2170 0.2190 0.2190 0.2200
10.025309 0.2200 0.2220 0.2220 0.2220 0.2240
10.058000 0.2300 0.2320 0.2340 0.2400 0.2440
10.091309 0.2490 0.2570 0.2620 0.2650 0.2720
10.125000 0.2770 0.2820 0.2920 0.2970 0.3010
10.158309 0.3090 0.3210 0.3310 0.3360 0.3410
10.191000 0.3440 0.3470 0.3570 0.3870 0.3940
10.224309 0.3990 0.4040 0.4090 0.4110 0.4290
10.258000 0.4440 0.4490 0.4560 0.4640 0.4690
10.291309 0.4740 0.4790 0.4880 0.4930 0.4980
10.324000 0.5080 0.5130 0.5180 0.5230 0.5300
10.357309 0.5330 0.5380 0.5410 0.5460 0.5460
10.391000 0.5510 0.5550 0.5580 0.5610 0.5610
10.424309 0.5650 0.5680 0.5710 0.5710 0.5730
10.458000 0.5730 0.5730 0.5750 0.5750 0.5750
10.491309 0.5750 0.5750 0.5730 0.5700 0.5660
10.524000 0.5630 0.5600 0.5530 0.5500 0.5450
10.557309 0.5400 0.5380 0.5330 0.5280 0.5160
10.591000 0.5060 0.5010 0.4980 0.4930 0.4880
10.624309 0.4840 0.4760 0.4710 0.4660 0.4590
10.657000 0.4540 0.4510 0.4490 0.4480 0.4440
10.690309 0.4430 0.4380 0.4340 0.4330 0.4290
10.724000 0.4210 0.4130 0.3990 0.3990 0.3940
10.757309 0.3860 0.3790 0.3760 0.3710 0.3660
10.791000 0.3640 0.3570 0.3510 0.3510 0.3470
10.824309 0.3440 0.3410 0.3420 0.3410 0.3410
10.857000 0.3410 0.3410 0.3410 0.3390 0.3390
10.890309 0.3390 0.3390 0.3390 0.3410 0.3410
10.924000 0.3410 0.3420 0.3440 0.3460 0.3470
10.957309 0.3510 0.3590 0.3660 0.3670 0.3720
10.990000 0.3860 0.3920 0.3990 0.4060 0.4080
11.023309 0.4110 0.4190 0.4260 0.4410 0.4510
11.057000 0.4610 0.4660 0.4690 0.4780 0.4830
11.090309 0.4910 0.4930 0.5060 0.5110 0.5160
11.123000 0.5210 0.5250 0.5280 0.5310 0.5360
11.156309 0.5400 0.5460 0.5500 0.5510 0.5550
11.190000 0.5610 0.5680 0.5730 0.5780 0.5800
11.223309 0.5810 0.5850 0.5880 0.5910 0.5930
11.257000 0.6000 0.6050 0.6070 0.6100 0.6120
11.290309 0.6130 0.6130 0.6150 0.6150 0.6170
11.323000 0.6170 0.6170 0.6180 0.6200 0.6200
11.356309 0.6200 0.6220 0.6220 0.6220 0.6220
11.390000 0.6220 0.6220 0.6200 0.6200 0.6180
11.423309 0.6180 0.6180 0.6170 0.6150 0.6130
11.456000 0.6120 0.6100 0.6100 0.6080 0.6070
11.489309 0.6030 0.6020 0.6020 0.6000 0.5950
11.523000 0.5930 0.5900 0.5830 0.5760 0.5730
11.556309 0.5700 0.5630 0.5610 0.5600 0.5550
11.590000 0.5500 0.5460 0.5380 0.5350 0.5330
11.623309 0.5280 0.5250 0.5180 0.5150 0.5100
11.656000 0.5030 0.5010 0.5010 0.5000 0.4980
11.689309 0.4940 0.4910 0.4880 0.4840 0.4830
11.723000 0.4810 0.4780 0.4730 0.4710 0.4690
11.756309 0.4680 0.4640 0.4630 0.4540 0.4510
11.789000 0.4510 0.4490 0.4480 0.4440 0.4410
11.822309 0.4390 0.4380 0.4360 0.4360 0.4290
11.856000 0.4240 0.4230 0.4190 0.4160 0.4040
11.889309 0.4010 0.4010 0.3970 0.3960 0.3940
11.923000 0.3940 0.3920 0.3920 0.3890 0.3870
11.956309 0.3860 0.3860 0.3860 0.3840 0.3840
11.989000 0.3820 0.3820 0.3820 0.3810 0.3810
12.022309 0.3810 0.3810 0.3810 0.3820 0.3820
12.056000 0.3840 0.3860 0.3870 0.3870 0.3890
12.089309 0.3910 0.3910 0.3940 0.4010 0.4090
12.122000 0.4130 0.4160 0.4190 0.4230 0.4290
12.155309 0.4330 0.4360 0.4430 0.4490 0.4540
12.189000 0.4590 0.4680 0.4730 0.4810 0.4890
12.222309 0.4910 0.5000 0.5060 0.5110 0.5150
12.255000 0.5200 0.5210 0.5250 0.5280 0.5310
12.288309 0.5400 0.5410 0.5450 0.5500 0.5530
12.322000 0.5560 0.5610 0.5630 0.5680 0.5710
12.355309 0.5760 0.5810 0.5830 0.5880 0.5900
12.389000 0.5960 0.6000 0.6030 0.6070 0.6100
12.422309 0.6130 0.6170 0.6200 0.6230 0.6300
12.455000 0.6320 0.6330 0.6380 0.6420 0.6450
12.488309 0.6470 0.6480 0.6520 0.6520 0.6530
12.522000 0.6570 0.6580 0.6580 0.6600 0.6620
12.555309 0.6620 0.6630 0.6630 0.6650 0.6650
12.588000 0.6670 0.6670 0.6680 0.6700 0.6700
12.621309 0.6700 0.6700 0.6700 0.6700 0.6720
12.655000 0.6700 0.6700 0.6700 0.6700 0.6680
12.688309 0.6680 0.6680 0.6670 0.6670 0.6670
12.722000 0.6650 0.6630 0.6620 0.6600 0.6580
12.755309 0.6570 0.6550 0.6550 0.6550 0.6550
12.788000 0.6580 0.6600 0.6620 0.6620 0.6630
12.821309 0.6650 0.6670 0.6670 0.6680 0.6730
12.855000 0.6780 0.6830 0.6830 0.6870 0.6880
12.888309 0.6900 0.6920 0.6930 0.6930 0.6930
12.921000 0.6950 0.6970 0.6970 0.6970 0.6980
12.954309 0.7000 0.7020 0.7020 0.7020 0.7040
12.988000 0.7040 0.7040 0.7050 0.7050 0.7050
13.021309 0.7070 0.7070 0.7070 0.7090 0.7090
13.054000 0.7090 0.7100 0.7100 0.7100 0.7120
13.087309 0.7120 0.7120 0.7120 0.7140 0.7140
13.121000 0.7140 0.7140 0.7140 0.7150 0.7150
13.154309 0.7150 0.7150 0.7170 0.7190 0.7190
13.188000 0.7190 0.7200 0.7200 0.7200 0.7200
13.221309 0.7200 0.7220 0.7220 0.7220 0.7220
13.254000 0.7240 0.7240 0.7240 0.7240 0.7240
13.287309 0.7250 0.7250 0.7250 0.7250 0.7250
13.321000 0.7250 0.7270 0.7270 0.7270 0.7270
13.354309 0.7270 0.7290 0.7290 0.7290 0.7290
13.387000 0.7290 0.7290 0.7290 0.7300 0.7300
13.420309 0.7320 0.7300 0.7300 0.7300 0.7300
13.454000 0.7290 0.7250 0.7250 0.7240 0.7240
13.487309 0.7220 0.7220 0.7220 0.7190 0.7170
13.521000 0.7140 0.7140 0.7120 0.7070 0.7050
13.554309 0.7040 0.7020 0.7020 0.7020 0.7000
13.587000 0.7000 0.7000 0.6980 0.6950 0.6930
13.620309 0.6930 0.6930 0.6920 0.6920 0.6920
13.654000 0.6920 0.6920 0.6920 0.6900 0.6900
13.687309 0.6880 0.6880 0.6880 0.6870 0.6850
13.720000 0.6850 0.6850 0.6830 0.6820 0.6820
13.753309 0.6800 0.6800 0.6780 0.6770 0.6770
13.787000 0.6750 0.6730 0.6720 0.6720 0.6700
13.820309 0.6680 0.6670 0.6670 0.6670 0.6650
13.854000 0.6650 0.6650 0.6630 0.6620 0.6620
13.887309 0.6600 0.6580 0.6570 0.6570 0.6550
13.920000 0.6530 0.6530 0.6530 0.6530 0.6530
13.953309 0.6530 0.6530 0.6530 0.6530 0.6520
13.987000 0.6520 0.6520 0.6500 0.6500 0.6500
14.020309 0.6500 0.6500 0.6500 0.6500 0.6500
14.053000 0.6520 0.6520 0.6520 0.6530 0.6520
14.086309 0.6520 0.6500 0.6520 0.6520 0.6520
14.120000 0.6530 0.6520 0.6520 0.6520 0.6520
14.153309 0.6520 0.6520 0.6530 0.6530 0.6530
14.186000 0.6520 0.6520 0.6500 0.6500 0.6500
14.219309 0.6500 0.6480 0.6480 0.6480 0.6480
14.253000 0.6470 0.6480 0.6480 0.6480 0.6480
14.286309 0.6500 0.6500 0.6520 0.6520 0.6520
14.320000 0.6520 0.6550 0.6550 0.6550 0.6570
14.353309 0.6570 0.6580 0.6580 0.6580 0.6600
14.386000 0.6600 0.6600 0.6630 0.6630 0.6650
14.419309 0.6650 0.6670 0.6680 0.6700 0.6720
14.453000 0.6720 0.6730 0.6730 0.6730 0.6750
14.486309 0.6750 0.6770 0.6770 0.6780 0.6800
14.519000 0.6800 0.6820 0.6830 0.6830 0.6830
14.552309 0.6830 0.6850 0.6850 0.6870 0.6870
14.586000 0.6880 0.6880 0.6880 0.6880 0.6880
14.619309 0.6900 0.6920 0.6920 0.6930 0.6930
14.653000 0.6930 0.6930 0.6930 0.6930 0.6930
14.686309 0.6930 0.6930 0.6930 0.6950 0.6950
14.719000 0.6970 0.6970 0.6950 0.6950 0.6970
14.752309 0.6970 0.6980 0.6980 0.7000 0.7000
14.786000 0.6980 0.6980 0.6970 0.6980 0.6980
14.819309 0.7000 0.7000 0.7000 0.7000 0.7020
14.852000 0.7020 0.7020 0.7040 0.7040 0.7040
14.885309 0.7040 0.7040 0.7020 0.7040 0.7040
14.919000 0.7040 0.7050 0.7050 0.7070 0.7070
14.952309 0.7070 0.7070 0.7070 0.7090 0.7070
14.985000 0.7090 0.7070 0.7070 0.7090 0.7090
15.018309 0.7090 0.7100 0.7100 0.7100 0.7100
15.052000 0.7100 0.7100 0.7100 0.7100 0.7100
15.085309 0.7100 0.7100 0.7120 0.7120 0.7120
15.119000 0.7120 0.7120 0.7120 0.7120 0.7120
15.152309 0.7120 0.7120 0.7120 0.7120 0.7120
15.185000 0.7120 0.7140 0.7120 0.7120 0.7120
15.218309 0.7120 0.7120 0.7120 0.7120 0.7120
15.252000 0.7140 0.7120 0.7100 0.7100 0.7100
15.285309 0.7100 0.7100 0.7100 0.7100 0.7100
15.318000 0.7100 0.7100 0.7100 0.7100 0.7090
15.351309 0.7070 0.7070 0.7070 0.7050 0.7050
15.385000 0.7050 0.7050 0.7050 0.7040 0.7040
15.418309 0.7040 0.7040 0.7020 0.7020 0.7020
15.452000 0.7020 0.7020 0.7040 0.7040 0.7040
15.485309 0.7020 0.7020 0.7020 0.7020 0.7020
15.518000 0.7000 0.7020 0.7040 0.7050 0.7040
15.551309 0.7040 0.7050 0.7040 0.7040 0.7040
15.585000 0.7040 0.7040 0.7040 0.7050 0.7050
15.618309 0.7050 0.7050 0.7040 0.7040 0.7020
15.651000 0.7020 0.7020 0.7020 0.7000 0.7000
15.684309 0.6980 0.6980 0.6980 0.6980 0.7000
15.718000 0.7000 0.7000 0.7000 0.7020 0.7020
15.751309 0.7020 0.7020 0.7020 0.7020 0.7020
15.785000 0.7020 0.7020 0.7020 0.7020 0.7020
15.818309 0.7050 0.7050 0.7050 0.7050 0.7050
15.851000 0.7050 0.7050 0.7050 0.7050 0.7050
15.884309 0.7050 0.7050 0.7050 0.7050 0.7050
15.918000 0.7050 0.7070 0.7070 0.7070 0.7070
15.951309 0.7070 0.7090 0.7090 0.7090 0.7070
15.984000 0.7070 0.7070 0.7090 0.7090
##END=
