##TITLE=3-THIOMORPHOLINEMETHANOL, S-HYDROGENTHIOSULFATE
##JCAMP-DX=4.24
##DATA TYPE=INFRARED SPECTRUM
##CLASS=COBLENTZ III
##ORIGIN=SOUTHERN RESEARCH INSTITUTE
##OWNER=Copyright (C) 1987 by the Coblentz Society
Collection (C) 2018 copyright by the U.S. Secretary of Commerce
on behalf of the United States of America. All rights reserved.
##DATE=1962/01/25
##NAMES=S-(3-thiomorpholinylmethyl) hydrogen thiosulfate
THIOSULFURIC ACID, S-(3-THIOMORPHOLINEMETHYL) ESTER
##MOLFORM=C5 H11 N O3 S3
##SOURCE REFERENCE=COBLENTZ NO. 6861
##$NIST ID=B6006861
##$NIST SOURCE=COBLENTZ
##$NIST IMAGE=cob6861
##SPECTROMETER/DATA SYSTEM=PERKIN-ELMER 221 (GRATING)
##INSTRUMENT PARAMETERS=FILTER AT 980 CM^-^1. GRATING 4000-1428 CM^-^1, NaCl PRISM 1428-650 CM^-^1
##STATE=SOLID (1 mg / 650 mg KBr DISC)
$$SPECTRAL CONTAMINATION DUE TO H2O AROUND 3400 CM^-^1
##RESOLUTION=2
##XUNITS=1/CM
##YUNITS=TRANSMITTANCE
##XFACTOR=1.0
##YFACTOR=1
##FIRSTX=638
##LASTX=3900
##FIRSTY=0.3221
##MAXX=3900
##MINX=638
##MAXY=0.9116
##MINY=0.1007
##NPOINTS=3263
##XYDATA=(X++(Y..Y))
638.000000 0.3221 0.3233 0.3245 0.3456 0.3697
643.000000 0.3939 0.4181 0.4423 0.4664 0.4906
648.000000 0.5148 0.5390 0.5631 0.5873 0.6115
653.000000 0.6357 0.6598 0.6762 0.6847 0.6920
658.000000 0.6987 0.7049 0.7096 0.7141 0.7183
663.000000 0.7208 0.7214 0.7221 0.7120 0.7016
668.000000 0.6912 0.6807 0.6751 0.6758 0.6774
673.000000 0.7102 0.7631 0.8160 0.8376 0.8459
678.000000 0.8555 0.8636 0.8673 0.8691 0.8694
683.000000 0.8697 0.8701 0.8698 0.8692 0.8684
688.000000 0.8636 0.8510 0.8384 0.8258 0.8132
693.000000 0.8007 0.7881 0.7801 0.7802 0.7805
698.000000 0.7823 0.7917 0.8107 0.8297 0.8487
703.000000 0.8677 0.8866 0.9028 0.9079 0.9109
708.000000 0.9114 0.9115 0.9116 0.9084 0.9112
713.000000 0.9106 0.9096 0.9086 0.9076 0.9067
718.000000 0.9057 0.9045 0.9033 0.9021 0.9006
723.000000 0.8990 0.8973 0.8955 0.8934 0.8906
728.000000 0.8879 0.8852 0.8827 0.8802 0.8777
733.000000 0.8752 0.8719 0.8684 0.8649 0.8614
738.000000 0.8576 0.8537 0.8497 0.8473 0.8457
743.000000 0.8441 0.8426 0.8410 0.8398 0.8386
748.000000 0.8374 0.8362 0.8351 0.8340 0.8330
753.000000 0.8318 0.8295 0.8273 0.8251 0.8229
758.000000 0.8207 0.8148 0.8060 0.7966 0.7833
763.000000 0.7691 0.7548 0.7406 0.7263 0.7121
768.000000 0.7067 0.7082 0.7091 0.7245 0.7424
773.000000 0.7602 0.7780 0.7959 0.8060 0.8043
778.000000 0.8038 0.8004 0.7952 0.7900 0.7848
783.000000 0.7796 0.7744 0.7692 0.7640 0.7588
788.000000 0.7536 0.7484 0.7432 0.7380 0.7334
793.000000 0.7331 0.7331 0.7390 0.7453 0.7515
798.000000 0.7577 0.7639 0.7664 0.7659 0.7580
803.000000 0.7480 0.7379 0.7279 0.7178 0.7083
808.000000 0.7097 0.7149 0.7421 0.7679 0.7701
813.000000 0.7706 0.7709 0.7706 0.7721 0.7697
818.000000 0.7689 0.7680 0.7668 0.7655 0.7637
823.000000 0.7617 0.7593 0.7568 0.7544 0.7520
828.000000 0.7492 0.7465 0.7436 0.7406 0.7376
833.000000 0.7345 0.7315 0.7285 0.7256 0.7228
838.000000 0.7200 0.7171 0.7143 0.7114 0.7085
843.000000 0.7055 0.7024 0.6996 0.6968 0.6929
848.000000 0.6835 0.6741 0.6647 0.6554 0.6460
853.000000 0.6392 0.6331 0.6280 0.6245 0.6229
858.000000 0.6215 0.6212 0.6209 0.6227 0.6231
863.000000 0.6294 0.6396 0.6497 0.6599 0.6700
868.000000 0.6763 0.6780 0.6792 0.6797 0.6793
873.000000 0.6784 0.6766 0.6726 0.6688 0.6650
878.000000 0.6609 0.6567 0.6526 0.6476 0.6426
883.000000 0.6379 0.6333 0.6288 0.6247 0.6237
888.000000 0.6228 0.6234 0.6242 0.6251 0.6290
893.000000 0.6318 0.6336 0.6354 0.6372 0.6391
898.000000 0.6409 0.6428 0.6439 0.6440 0.6436
903.000000 0.6433 0.6423 0.6399 0.6365 0.6326
908.000000 0.6285 0.6241 0.6198 0.6161 0.6124
913.000000 0.6089 0.6056 0.6022 0.5989 0.5954
918.000000 0.5914 0.5874 0.5834 0.5793 0.5753
923.000000 0.5704 0.5652 0.5600 0.5538 0.5473
928.000000 0.5407 0.5327 0.5237 0.5136 0.5027
933.000000 0.4871 0.4669 0.4468 0.4266 0.4209
938.000000 0.4219 0.4217 0.4455 0.4736 0.5018
943.000000 0.5292 0.5282 0.5184 0.5027 0.4870
948.000000 0.4713 0.4556 0.4399 0.4241 0.4228
953.000000 0.4365 0.4610 0.4855 0.5100 0.5345
958.000000 0.5590 0.5738 0.5774 0.5765 0.5760
963.000000 0.5749 0.5695 0.5618 0.5548 0.5482
968.000000 0.5430 0.5383 0.5353 0.5327 0.5300
973.000000 0.5274 0.5248 0.5226 0.5208 0.5190
978.000000 0.5170 0.5147 0.5077 0.4946 0.4814
983.000000 0.4674 0.4629 0.4560 0.4467 0.4375
988.000000 0.4282 0.4190 0.4097 0.4005 0.3912
993.000000 0.3819 0.3727 0.3634 0.3542 0.3449
998.000000 0.3356 0.3264 0.3171 0.3079 0.2986
1003.000000 0.2893 0.2801 0.2708 0.2616 0.2523
1008.000000 0.2431 0.2338 0.2245 0.2153 0.2060
1013.000000 0.1968 0.1875 0.1782 0.1657 0.1562
1018.000000 0.1463 0.1309 0.1210 0.1117 0.1067
1023.000000 0.1023 0.1012 0.1009 0.1007 0.1022
1028.000000 0.1044 0.1345 0.1660 0.1975 0.2290
1033.000000 0.2605 0.2920 0.3235 0.3550 0.3865
1038.000000 0.4180 0.4495 0.4810 0.5124 0.5459
1043.000000 0.5604 0.5776 0.5994 0.6126 0.6239
1048.000000 0.6333 0.6371 0.6403 0.6432 0.6439
1053.000000 0.6447 0.6452 0.6446 0.6446 0.6428
1058.000000 0.6398 0.6260 0.6102 0.5943 0.5785
1063.000000 0.5627 0.5468 0.5310 0.5152 0.5057
1068.000000 0.5060 0.5025 0.5111 0.5327 0.5542
1073.000000 0.5758 0.5974 0.6210 0.6249 0.6270
1078.000000 0.6284 0.6295 0.6308 0.6292 0.6290
1083.000000 0.6284 0.6278 0.6263 0.6244 0.6226
1088.000000 0.6188 0.6148 0.6084 0.6041 0.5998
1093.000000 0.5955 0.5912 0.5858 0.5803 0.5748
1098.000000 0.5700 0.5653 0.5607 0.5560 0.5514
1103.000000 0.5471 0.5427 0.5383 0.5340 0.5296
1108.000000 0.5249 0.5199 0.5148 0.5094 0.5000
1113.000000 0.4906 0.4812 0.4717 0.4623 0.4529
1118.000000 0.4435 0.4341 0.4247 0.4153 0.4059
1123.000000 0.3964 0.3870 0.3746 0.3712 0.3700
1128.000000 0.3702 0.3703 0.3757 0.3859 0.3962
1133.000000 0.4064 0.4166 0.4166 0.4189 0.4155
1138.000000 0.4078 0.4001 0.3924 0.3847 0.3770
1143.000000 0.3694 0.3617 0.3540 0.3463 0.3386
1148.000000 0.3309 0.3232 0.3155 0.3078 0.3001
1153.000000 0.2924 0.2847 0.2770 0.2693 0.2617
1158.000000 0.2551 0.2515 0.2480 0.2467 0.2460
1163.000000 0.2452 0.2445 0.2434 0.2423 0.2388
1168.000000 0.2297 0.2197 0.2096 0.1996 0.1895
1173.000000 0.1795 0.1694 0.1595 0.1531 0.1469
1178.000000 0.1405 0.1332 0.1252 0.1192 0.1164
1183.000000 0.1147 0.1134 0.1121 0.1113 0.1125
1188.000000 0.1143 0.1189 0.1254 0.1320 0.1387
1193.000000 0.1454 0.1521 0.1588 0.1655 0.1720
1198.000000 0.1769 0.1805 0.1820 0.1825 0.1831
1203.000000 0.1837 0.1841 0.1846 0.1851 0.2073
1208.000000 0.2260 0.2340 0.2355 0.2362 0.2369
1213.000000 0.2357 0.2347 0.2333 0.2312 0.2284
1218.000000 0.2251 0.2203 0.2147 0.2062 0.1971
1223.000000 0.1881 0.1791 0.1700 0.1612 0.1566
1228.000000 0.1540 0.1532 0.1534 0.1521 0.1549
1233.000000 0.1567 0.1594 0.1619 0.1642 0.1666
1238.000000 0.1692 0.1718 0.1747 0.1788 0.1834
1243.000000 0.1874 0.1932 0.2087 0.2318 0.2548
1248.000000 0.2778 0.3008 0.3212 0.3287 0.3355
1253.000000 0.3412 0.3458 0.3487 0.3516 0.3580
1258.000000 0.3807 0.3968 0.4129 0.4290 0.4451
1263.000000 0.4611 0.4772 0.4933 0.5094 0.5254
1268.000000 0.5422 0.5496 0.5508 0.5519 0.5514
1273.000000 0.5520 0.5497 0.5484 0.5415 0.5271
1278.000000 0.5128 0.4985 0.4842 0.4646 0.4630
1283.000000 0.4614 0.4597 0.4588 0.4578 0.4575
1288.000000 0.4573 0.4575 0.4569 0.4585 0.4596
1293.000000 0.4624 0.4661 0.4779 0.4936 0.5093
1298.000000 0.5250 0.5407 0.5564 0.5721 0.5878
1303.000000 0.6035 0.6192 0.6349 0.6506 0.6685
1308.000000 0.6784 0.6948 0.7074 0.7297 0.7517
1313.000000 0.7611 0.7699 0.7740 0.7781 0.7805
1318.000000 0.7822 0.7835 0.7832 0.7857 0.7824
1323.000000 0.7818 0.7805 0.7791 0.7768 0.7705
1328.000000 0.7578 0.7452 0.7325 0.7198 0.7081
1333.000000 0.7042 0.7051 0.7046 0.7068 0.7197
1338.000000 0.7326 0.7454 0.7583 0.7712 0.7840
1343.000000 0.7969 0.8098 0.8139 0.8177 0.8219
1348.000000 0.8275 0.8299 0.8298 0.8297 0.8296
1353.000000 0.8314 0.8279 0.8267 0.8143 0.8015
1358.000000 0.7887 0.7759 0.7631 0.7503 0.7375
1363.000000 0.7247 0.7122 0.7064 0.7016 0.6996
1368.000000 0.6991 0.6986 0.6984 0.6982 0.6980
1373.000000 0.6970 0.6958 0.6864 0.6617 0.6370
1378.000000 0.6122 0.5875 0.5628 0.5381 0.5134
1383.000000 0.4887 0.4684 0.4664 0.4652 0.4671
1388.000000 0.4656 0.4761 0.4888 0.5014 0.5141
1393.000000 0.5267 0.5394 0.5490 0.5476 0.5480
1398.000000 0.5468 0.5365 0.5202 0.5038 0.4874
1403.000000 0.4710 0.4547 0.4383 0.4219 0.4056
1408.000000 0.3892 0.3852 0.3856 0.3834 0.4524
1413.000000 0.4532 0.4540 0.4547 0.4556 0.4568
1418.000000 0.4678 0.4917 0.4980 0.5042 0.5091
1423.000000 0.5163 0.5273 0.5382 0.5492 0.5601
1428.000000 0.5711 0.5820 0.5930 0.6041 0.6117
1433.000000 0.6148 0.6162 0.6154 0.6161 0.6130
1438.000000 0.5895 0.5660 0.5426 0.5191 0.5094
1443.000000 0.5100 0.5106 0.5149 0.5413 0.5703
1448.000000 0.5993 0.6284 0.6359 0.6374 0.6324
1453.000000 0.6234 0.6143 0.6053 0.5962 0.5872
1458.000000 0.5781 0.5691 0.5643 0.5636 0.5649
1463.000000 0.5793 0.5973 0.6153 0.6333 0.6513
1468.000000 0.6694 0.6946 0.7121 0.7192 0.7262
1473.000000 0.7348 0.7442 0.7527 0.7598 0.7668
1478.000000 0.7738 0.7807 0.7859 0.7883 0.7906
1483.000000 0.7929 0.7952 0.7976 0.7993 0.8007
1488.000000 0.8022 0.8036 0.8052 0.8069 0.8086
1493.000000 0.8103 0.8120 0.8139 0.8159 0.8180
1498.000000 0.8201 0.8222 0.8244 0.8269 0.8293
1503.000000 0.8310 0.8319 0.8327 0.8336 0.8343
1508.000000 0.8345 0.8346 0.8347 0.8349 0.8365
1513.000000 0.8348 0.8341 0.8334 0.8327 0.8321
1518.000000 0.8314 0.8306 0.8298 0.8289 0.8280
1523.000000 0.8271 0.8262 0.8252 0.8243 0.8234
1528.000000 0.8224 0.8215 0.8199 0.8180 0.8160
1533.000000 0.8141 0.8121 0.8103 0.8085 0.8070
1538.000000 0.8064 0.8058 0.8052 0.8041 0.8026
1543.000000 0.8011 0.7991 0.7967 0.7942 0.7907
1548.000000 0.7869 0.7829 0.7789 0.7746 0.7703
1553.000000 0.7677 0.7651 0.7626 0.7600 0.7576
1558.000000 0.7554 0.7532 0.7509 0.7487 0.7461
1563.000000 0.7428 0.7396 0.7363 0.7330 0.7298
1568.000000 0.7260 0.7221 0.7182 0.7144 0.7105
1573.000000 0.7056 0.7005 0.6954 0.6903 0.6848
1578.000000 0.6777 0.6706 0.6635 0.6564 0.6424
1583.000000 0.6293 0.6175 0.6053 0.5878 0.5499
1588.000000 0.5356 0.5214 0.5071 0.4928 0.4785
1593.000000 0.4642 0.4499 0.4357 0.4214 0.4071
1598.000000 0.3792 0.3754 0.3745 0.3745 0.3752
1603.000000 0.3756 0.3790 0.3837 0.4059 0.4431
1608.000000 0.4804 0.5176 0.5548 0.5921 0.6324
1613.000000 0.6431 0.6537 0.6625 0.6684 0.6742
1618.000000 0.6800 0.6857 0.6915 0.6972 0.7064
1623.000000 0.7157 0.7265 0.7369 0.7435 0.7502
1628.000000 0.7569 0.7637 0.7692 0.7727 0.7762
1633.000000 0.7794 0.7819 0.7844 0.7869 0.7894
1638.000000 0.7917 0.7936 0.7954 0.7972 0.7988
1643.000000 0.7998 0.8008 0.8019 0.8032 0.8052
1648.000000 0.8291 0.8342 0.8396 0.8423 0.8447
1653.000000 0.8462 0.8477 0.8492 0.8507 0.8522
1658.000000 0.8537 0.8551 0.8563 0.8574 0.8586
1663.000000 0.8598 0.8609 0.8620 0.8630 0.8647
1668.000000 0.8673 0.8719 0.8743 0.8766 0.8778
1673.000000 0.8786 0.8795 0.8801 0.8801 0.8801
1678.000000 0.8802 0.8802 0.8796 0.8784 0.8773
1683.000000 0.8762 0.8750 0.8831 0.8756 0.8761
1688.000000 0.8766 0.8770 0.8775 0.8779 0.8786
1693.000000 0.8794 0.8802 0.8810 0.8818 0.8823
1698.000000 0.8827 0.8832 0.8835 0.8838 0.8840
1703.000000 0.8843 0.8840 0.8831 0.8821 0.8811
1708.000000 0.8801 0.8791 0.8782 0.8769 0.8756
1713.000000 0.8742 0.8729 0.8716 0.8707 0.8701
1718.000000 0.8694 0.8688 0.8681 0.8675 0.8668
1723.000000 0.8663 0.8658 0.8653 0.8647 0.8651
1728.000000 0.8666 0.8681 0.8695 0.8709 0.8723
1733.000000 0.8735 0.8739 0.8738 0.8737 0.8735
1738.000000 0.8733 0.8728 0.8724 0.8719 0.8715
1743.000000 0.8710 0.8706 0.8702 0.8698 0.8694
1748.000000 0.8688 0.8683 0.8677 0.8671 0.8666
1753.000000 0.8661 0.8657 0.8652 0.8648 0.8644
1758.000000 0.8641 0.8644 0.8647 0.8650 0.8653
1763.000000 0.8656 0.8659 0.8662 0.8665 0.8668
1768.000000 0.8670 0.8673 0.8675 0.8676 0.8677
1773.000000 0.8678 0.8677 0.8667 0.8657 0.8647
1778.000000 0.8637 0.8626 0.8614 0.8603 0.8592
1783.000000 0.8589 0.8595 0.8601 0.8606 0.8612
1788.000000 0.8617 0.8623 0.8629 0.8634 0.8640
1793.000000 0.8645 0.8643 0.8642 0.8641 0.8639
1798.000000 0.8636 0.8629 0.8622 0.8616 0.8609
1803.000000 0.8601 0.8591 0.8582 0.8573 0.8564
1808.000000 0.8556 0.8552 0.8548 0.8545 0.8541
1813.000000 0.8537 0.8534 0.8530 0.8526 0.8522
1818.000000 0.8518 0.8515 0.8512 0.8511 0.8509
1823.000000 0.8507 0.8505 0.8504 0.8504 0.8505
1828.000000 0.8506 0.8506 0.8507 0.8508 0.8510
1833.000000 0.8515 0.8520 0.8525 0.8531 0.8536
1838.000000 0.8541 0.8546 0.8550 0.8555 0.8560
1843.000000 0.8563 0.8566 0.8569 0.8572 0.8575
1848.000000 0.8579 0.8579 0.8579 0.8580 0.8580
1853.000000 0.8579 0.8575 0.8572 0.8568 0.8564
1858.000000 0.8560 0.8556 0.8552 0.8548 0.8545
1863.000000 0.8543 0.8540 0.8538 0.8535 0.8533
1868.000000 0.8530 0.8528 0.8525 0.8523 0.8520
1873.000000 0.8517 0.8515 0.8512 0.8509 0.8506
1878.000000 0.8503 0.8501 0.8498 0.8495 0.8492
1883.000000 0.8489 0.8485 0.8482 0.8478 0.8475
1888.000000 0.8471 0.8467 0.8464 0.8460 0.8456
1893.000000 0.8453 0.8449 0.8446 0.8442 0.8438
1898.000000 0.8435 0.8431 0.8427 0.8420 0.8411
1903.000000 0.8401 0.8392 0.8383 0.8373 0.8364
1908.000000 0.8354 0.8344 0.8331 0.8317 0.8304
1913.000000 0.8290 0.8277 0.8263 0.8250 0.8236
1918.000000 0.8226 0.8220 0.8214 0.8208 0.8203
1923.000000 0.8201 0.8199 0.8197 0.8195 0.8193
1928.000000 0.8191 0.8189 0.8187 0.8185 0.8183
1933.000000 0.8181 0.8179 0.8177 0.8175 0.8173
1938.000000 0.8171 0.8169 0.8167 0.8165 0.8163
1943.000000 0.8162 0.8160 0.8158 0.8156 0.8154
1948.000000 0.8151 0.8148 0.8144 0.8141 0.8138
1953.000000 0.8136 0.8134 0.8132 0.8129 0.8127
1958.000000 0.8125 0.8123 0.8120 0.8117 0.8115
1963.000000 0.8112 0.8109 0.8106 0.8103 0.8100
1968.000000 0.8097 0.8096 0.8094 0.8092 0.8091
1973.000000 0.8089 0.8088 0.8086 0.8085 0.8083
1978.000000 0.8081 0.8079 0.8078 0.8076 0.8074
1983.000000 0.8073 0.8071 0.8069 0.8067 0.8065
1988.000000 0.8061 0.8058 0.8054 0.8051 0.8048
1993.000000 0.8044 0.8039 0.8033 0.8026 0.8020
1998.000000 0.8013 0.8006 0.8000 0.7993 0.7986
2003.000000 0.7980 0.7973 0.7966 0.7959 0.7951
2008.000000 0.7943 0.7936 0.7928 0.7920 0.7913
2013.000000 0.7905 0.7898 0.7890 0.7882 0.7875
2018.000000 0.7867 0.7859 0.7851 0.7841 0.7831
2023.000000 0.7821 0.7810 0.7800 0.7790 0.7780
2028.000000 0.7770 0.7760 0.7749 0.7737 0.7724
2033.000000 0.7711 0.7699 0.7686 0.7673 0.7660
2038.000000 0.7632 0.7598 0.7563 0.7529 0.7500
2043.000000 0.7472 0.7444 0.7425 0.7413 0.7400
2048.000000 0.7387 0.7377 0.7367 0.7358 0.7352
2053.000000 0.7350 0.7347 0.7344 0.7342 0.7343
2058.000000 0.7337 0.7358 0.7372 0.7385 0.7401
2063.000000 0.7423 0.7446 0.7468 0.7492 0.7516
2068.000000 0.7549 0.7578 0.7606 0.7648 0.7689
2073.000000 0.7711 0.7733 0.7750 0.7759 0.7767
2078.000000 0.7775 0.7763 0.7778 0.7778 0.7778
2083.000000 0.7778 0.7778 0.7778 0.7778 0.7777
2088.000000 0.7777 0.7777 0.7776 0.7776 0.7775
2093.000000 0.7773 0.7770 0.7767 0.7764 0.7761
2098.000000 0.7758 0.7755 0.7752 0.7750 0.7747
2103.000000 0.7744 0.7740 0.7737 0.7734 0.7730
2108.000000 0.7727 0.7724 0.7720 0.7717 0.7714
2113.000000 0.7704 0.7692 0.7680 0.7664 0.7642
2118.000000 0.7621 0.7599 0.7577 0.7557 0.7540
2123.000000 0.7523 0.7506 0.7489 0.7473 0.7457
2128.000000 0.7441 0.7426 0.7410 0.7395 0.7379
2133.000000 0.7370 0.7368 0.7365 0.7363 0.7361
2138.000000 0.7358 0.7356 0.7354 0.7352 0.7349
2143.000000 0.7347 0.7345 0.7344 0.7346 0.7347
2148.000000 0.7349 0.7350 0.7352 0.7353 0.7355
2153.000000 0.7358 0.7362 0.7366 0.7371 0.7381
2158.000000 0.7391 0.7401 0.7412 0.7422 0.7427
2163.000000 0.7433 0.7438 0.7444 0.7449 0.7455
2168.000000 0.7457 0.7459 0.7461 0.7463 0.7465
2173.000000 0.7466 0.7464 0.7462 0.7460 0.7459
2178.000000 0.7457 0.7453 0.7448 0.7444 0.7439
2183.000000 0.7434 0.7430 0.7422 0.7412 0.7402
2188.000000 0.7393 0.7383 0.7373 0.7363 0.7354
2193.000000 0.7344 0.7334 0.7323 0.7311 0.7298
2198.000000 0.7286 0.7274 0.7261 0.7249 0.7237
2203.000000 0.7224 0.7206 0.7188 0.7170 0.7152
2208.000000 0.7133 0.7105 0.7114 0.7122 0.7131
2213.000000 0.7140 0.7152 0.7164 0.7174 0.7184
2218.000000 0.7189 0.7193 0.7198 0.7202 0.7207
2223.000000 0.7212 0.7217 0.7223 0.7230 0.7237
2228.000000 0.7241 0.7243 0.7245 0.7247 0.7249
2233.000000 0.7249 0.7249 0.7248 0.7248 0.7247
2238.000000 0.7246 0.7245 0.7244 0.7243 0.7243
2243.000000 0.7242 0.7241 0.7240 0.7239 0.7238
2248.000000 0.7238 0.7237 0.7236 0.7235 0.7234
2253.000000 0.7233 0.7232 0.7230 0.7229 0.7228
2258.000000 0.7227 0.7226 0.7225 0.7224 0.7223
2263.000000 0.7222 0.7222 0.7221 0.7220 0.7220
2268.000000 0.7219 0.7218 0.7217 0.7217 0.7216
2273.000000 0.7215 0.7215 0.7214 0.7212 0.7211
2278.000000 0.7210 0.7209 0.7207 0.7206 0.7205
2283.000000 0.7204 0.7204 0.7203 0.7203 0.7202
2288.000000 0.7202 0.7200 0.7195 0.7190 0.7186
2293.000000 0.7181 0.7176 0.7172 0.7169 0.7167
2298.000000 0.7164 0.7160 0.7156 0.7153 0.7149
2303.000000 0.7145 0.7136 0.7126 0.7116 0.7105
2308.000000 0.7095 0.7085 0.7075 0.7065 0.7055
2313.000000 0.7045 0.7035 0.7024 0.7012 0.7001
2318.000000 0.6989 0.6978 0.6966 0.6954 0.6943
2323.000000 0.6931 0.6920 0.6911 0.6906 0.6901
2328.000000 0.6896 0.6891 0.6886 0.6881 0.6876
2333.000000 0.6871 0.6866 0.6861 0.6856 0.6851
2338.000000 0.6846 0.6843 0.6841 0.6839 0.6837
2343.000000 0.6835 0.6830 0.6825 0.6819 0.6813
2348.000000 0.6808 0.6802 0.6797 0.6789 0.6774
2353.000000 0.6760 0.6751 0.6742 0.6733 0.6725
2358.000000 0.6716 0.6707 0.6699 0.6692 0.6686
2363.000000 0.6680 0.6674 0.6668 0.6662 0.6656
2368.000000 0.6652 0.6649 0.6645 0.6642 0.6638
2373.000000 0.6635 0.6631 0.6628 0.6625 0.6622
2378.000000 0.6619 0.6616 0.6613 0.6608 0.6600
2383.000000 0.6592 0.6584 0.6573 0.6559 0.6545
2388.000000 0.6532 0.6518 0.6503 0.6488 0.6474
2393.000000 0.6459 0.6444 0.6430 0.6415 0.6400
2398.000000 0.6383 0.6365 0.6347 0.6330 0.6312
2403.000000 0.6294 0.6277 0.6259 0.6241 0.6223
2408.000000 0.6205 0.6187 0.6169 0.6151 0.6133
2413.000000 0.6114 0.6096 0.6078 0.6060 0.6042
2418.000000 0.6026 0.6017 0.6008 0.5999 0.5990
2423.000000 0.5981 0.5968 0.5937 0.5911 0.5896
2428.000000 0.5881 0.5866 0.5851 0.5836 0.5821
2433.000000 0.5805 0.5790 0.5774 0.5759 0.5743
2438.000000 0.5728 0.5712 0.5696 0.5673 0.5650
2443.000000 0.5626 0.5603 0.5579 0.5553 0.5527
2448.000000 0.5501 0.5475 0.5451 0.5432 0.5432
2453.000000 0.5434 0.5436 0.5437 0.5442 0.5447
2458.000000 0.5453 0.5458 0.5464 0.5474 0.5484
2463.000000 0.5495 0.5515 0.5536 0.5556 0.5579
2468.000000 0.5621 0.5663 0.5733 0.5812 0.5845
2473.000000 0.5878 0.5896 0.5913 0.5928 0.5935
2478.000000 0.5960 0.5948 0.5950 0.5929 0.5908
2483.000000 0.5894 0.5886 0.5878 0.5869 0.5861
2488.000000 0.5857 0.5859 0.5860 0.5867 0.5873
2493.000000 0.5824 0.5891 0.5902 0.5914 0.5925
2498.000000 0.5941 0.5956 0.5972 0.5987 0.6003
2503.000000 0.6019 0.6034 0.6050 0.6066 0.6082
2508.000000 0.6090 0.6098 0.6105 0.6102 0.6100
2513.000000 0.6097 0.6094 0.6113 0.6089 0.6086
2518.000000 0.6081 0.6072 0.6063 0.6055 0.6046
2523.000000 0.6037 0.6028 0.6013 0.5997 0.5981
2528.000000 0.5965 0.5949 0.5933 0.5916 0.5900
2533.000000 0.5886 0.5873 0.5861 0.5849 0.5837
2538.000000 0.5824 0.5814 0.5804 0.5794 0.5784
2543.000000 0.5774 0.5765 0.5755 0.5746 0.5738
2548.000000 0.5730 0.5722 0.5713 0.5705 0.5697
2553.000000 0.5685 0.5674 0.5663 0.5651 0.5640
2558.000000 0.5629 0.5617 0.5606 0.5594 0.5581
2563.000000 0.5567 0.5553 0.5539 0.5525 0.5511
2568.000000 0.5497 0.5486 0.5475 0.5464 0.5452
2573.000000 0.5441 0.5430 0.5419 0.5408 0.5397
2578.000000 0.5387 0.5377 0.5366 0.5356 0.5346
2583.000000 0.5340 0.5336 0.5331 0.5327 0.5323
2588.000000 0.5319 0.5315 0.5311 0.5310 0.5309
2593.000000 0.5308 0.5307 0.5307 0.5306 0.5305
2598.000000 0.5304 0.5303 0.5302 0.5300 0.5296
2603.000000 0.5292 0.5288 0.5284 0.5280 0.5276
2608.000000 0.5268 0.5259 0.5251 0.5243 0.5235
2613.000000 0.5226 0.5217 0.5199 0.5182 0.5160
2618.000000 0.5121 0.5106 0.5093 0.5091 0.5090
2623.000000 0.5088 0.5086 0.5084 0.5083 0.5083
2628.000000 0.5082 0.5081 0.5081 0.5079 0.5076
2633.000000 0.5073 0.5070 0.5065 0.5046 0.5029
2638.000000 0.5012 0.4994 0.4947 0.4918 0.4892
2643.000000 0.4874 0.4862 0.4849 0.4836 0.4823
2648.000000 0.4810 0.4797 0.4788 0.4781 0.4773
2653.000000 0.4766 0.4758 0.4751 0.4743 0.4736
2658.000000 0.4729 0.4717 0.4704 0.4690 0.4676
2663.000000 0.4660 0.4643 0.4631 0.4628 0.4625
2668.000000 0.4622 0.4619 0.4620 0.4582 0.4624
2673.000000 0.4630 0.4640 0.4650 0.4675 0.4704
2678.000000 0.4737 0.4760 0.4768 0.4772 0.4772
2683.000000 0.4772 0.4772 0.4769 0.4790 0.4760
2688.000000 0.4755 0.4751 0.4746 0.4738 0.4730
2693.000000 0.4722 0.4712 0.4701 0.4689 0.4677
2698.000000 0.4665 0.4653 0.4641 0.4629 0.4618
2703.000000 0.4607 0.4596 0.4584 0.4573 0.4562
2708.000000 0.4550 0.4539 0.4528 0.4516 0.4504
2713.000000 0.4492 0.4481 0.4469 0.4457 0.4445
2718.000000 0.4419 0.4389 0.4359 0.4332 0.4310
2723.000000 0.4288 0.4272 0.4258 0.4244 0.4229
2728.000000 0.4215 0.4207 0.4198 0.4189 0.4166
2733.000000 0.4096 0.4053 0.4022 0.3996 0.3971
2738.000000 0.3947 0.3923 0.3899 0.3877 0.3860
2743.000000 0.3842 0.3824 0.3809 0.3795 0.3782
2748.000000 0.3768 0.3754 0.3740 0.3726 0.3705
2753.000000 0.3681 0.3657 0.3633 0.3608 0.3583
2758.000000 0.3563 0.3544 0.3525 0.3507 0.3488
2763.000000 0.3469 0.3456 0.3444 0.3432 0.3420
2768.000000 0.3409 0.3402 0.3395 0.3388 0.3381
2773.000000 0.3374 0.3367 0.3359 0.3351 0.3342
2778.000000 0.3334 0.3326 0.3318 0.3309 0.3302
2783.000000 0.3294 0.3286 0.3278 0.3271 0.3263
2788.000000 0.3255 0.3247 0.3241 0.3237 0.3233
2793.000000 0.3228 0.3224 0.3220 0.3216 0.3213
2798.000000 0.3211 0.3209 0.3207 0.3205 0.3204
2803.000000 0.3202 0.3200 0.3199 0.3198 0.3199
2808.000000 0.3204 0.3210 0.3215 0.3221 0.3227
2813.000000 0.3232 0.3238 0.3244 0.3252 0.3260
2818.000000 0.3268 0.3276 0.3287 0.3298 0.3309
2823.000000 0.3321 0.3337 0.3352 0.3371 0.3389
2828.000000 0.3407 0.3412 0.3415 0.3418 0.3421
2833.000000 0.3424 0.3427 0.3430 0.3433 0.3435
2838.000000 0.3437 0.3439 0.3441 0.3443 0.3458
2843.000000 0.3474 0.3506 0.3543 0.3580 0.3617
2848.000000 0.3693 0.3768 0.3808 0.3849 0.3878
2853.000000 0.3907 0.3936 0.3953 0.3967 0.3981
2858.000000 0.3985 0.3989 0.3993 0.3997 0.4002
2863.000000 0.4006 0.4024 0.4055 0.4087 0.4120
2868.000000 0.4145 0.4152 0.4159 0.4166 0.4164
2873.000000 0.4158 0.4153 0.4139 0.4139 0.4129
2878.000000 0.4119 0.4109 0.4097 0.4084 0.4061
2883.000000 0.4027 0.3962 0.3903 0.3874 0.3855
2888.000000 0.3836 0.3818 0.3795 0.3795 0.3797
2893.000000 0.3799 0.3801 0.3776 0.3808 0.3836
2898.000000 0.3872 0.3944 0.3985 0.4012 0.4024
2903.000000 0.4035 0.4041 0.4046 0.4052 0.4057
2908.000000 0.4063 0.4067 0.4071 0.4075 0.4079
2913.000000 0.4082 0.4086 0.4088 0.4089 0.4091
2918.000000 0.4093 0.4094 0.4096 0.4098 0.4097
2923.000000 0.4096 0.4095 0.4094 0.4093 0.4109
2928.000000 0.4086 0.4074 0.4044 0.3997 0.3934
2933.000000 0.3876 0.3826 0.3789 0.3753 0.3716
2938.000000 0.3680 0.3642 0.3604 0.3566 0.3529
2943.000000 0.3494 0.3458 0.3422 0.3388 0.3355
2948.000000 0.3322 0.3294 0.3280 0.3267 0.3254
2953.000000 0.3241 0.3231 0.3220 0.3210 0.3200
2958.000000 0.3189 0.3179 0.3163 0.3145 0.3126
2963.000000 0.3107 0.3085 0.3051 0.3018 0.2982
2968.000000 0.2938 0.2904 0.2891 0.2880 0.2879
2973.000000 0.2878 0.2877 0.2877 0.2878 0.2879
2978.000000 0.2880 0.2881 0.2877 0.2884 0.2885
2983.000000 0.2885 0.2886 0.2887 0.2887 0.2888
2988.000000 0.2888 0.2889 0.2890 0.2890 0.2891
2993.000000 0.2892 0.2893 0.2894 0.2895 0.2896
2998.000000 0.2896 0.2897 0.2899 0.2901 0.2903
3003.000000 0.2904 0.2906 0.2908 0.2910 0.2913
3008.000000 0.2915 0.2918 0.2920 0.2934 0.2950
3013.000000 0.2964 0.2975 0.2985 0.2997 0.3010
3018.000000 0.3023 0.3037 0.3050 0.3060 0.3069
3023.000000 0.3077 0.3085 0.3094 0.3102 0.3111
3028.000000 0.3120 0.3129 0.3138 0.3147 0.3155
3033.000000 0.3162 0.3170 0.3177 0.3185 0.3195
3038.000000 0.3236 0.3268 0.3294 0.3320 0.3338
3043.000000 0.3356 0.3366 0.3375 0.3384 0.3393
3048.000000 0.3402 0.3411 0.3413 0.3416 0.3419
3053.000000 0.3421 0.3424 0.3433 0.3455 0.3477
3058.000000 0.3499 0.3520 0.3542 0.3563 0.3583
3063.000000 0.3599 0.3614 0.3630 0.3645 0.3660
3068.000000 0.3675 0.3690 0.3705 0.3719 0.3734
3073.000000 0.3751 0.3769 0.3787 0.3805 0.3823
3078.000000 0.3841 0.3858 0.3875 0.3891 0.3908
3083.000000 0.3925 0.3942 0.3958 0.3976 0.3995
3088.000000 0.4014 0.4033 0.4051 0.4070 0.4089
3093.000000 0.4108 0.4133 0.4159 0.4186 0.4212
3098.000000 0.4239 0.4268 0.4297 0.4327 0.4348
3103.000000 0.4368 0.4388 0.4408 0.4420 0.4431
3108.000000 0.4443 0.4455 0.4466 0.4479 0.4498
3113.000000 0.4523 0.4557 0.4619 0.4690 0.4766
3118.000000 0.4822 0.4870 0.4918 0.4940 0.4962
3123.000000 0.4985 0.5007 0.5035 0.5071 0.5106
3128.000000 0.5142 0.5181 0.5219 0.5255 0.5290
3133.000000 0.5324 0.5345 0.5365 0.5386 0.5406
3138.000000 0.5425 0.5443 0.5462 0.5484 0.5528
3143.000000 0.5576 0.5616 0.5650 0.5685 0.5722
3148.000000 0.5758 0.5794 0.5840 0.5898 0.6010
3153.000000 0.6032 0.6054 0.6073 0.6084 0.6095
3158.000000 0.6106 0.6117 0.6129 0.6141 0.6152
3163.000000 0.6164 0.6176 0.6191 0.6208 0.6226
3168.000000 0.6243 0.6260 0.6283 0.6316 0.6349
3173.000000 0.6367 0.6383 0.6399 0.6405 0.6411
3178.000000 0.6418 0.6424 0.6430 0.6436 0.6442
3183.000000 0.6441 0.6440 0.6439 0.6438 0.6437
3188.000000 0.6434 0.6429 0.6424 0.6420 0.6415
3193.000000 0.6411 0.6406 0.6398 0.6388 0.6378
3198.000000 0.6369 0.6359 0.6352 0.6344 0.6337
3203.000000 0.6329 0.6329 0.6335 0.6341 0.6358
3208.000000 0.6374 0.6391 0.6411 0.6447 0.6483
3213.000000 0.6519 0.6588 0.6676 0.6774 0.6834
3218.000000 0.6896 0.6979 0.7054 0.7105 0.7155
3223.000000 0.7184 0.7202 0.7220 0.7239 0.7256
3228.000000 0.7265 0.7273 0.7282 0.7290 0.7299
3233.000000 0.7308 0.7313 0.7316 0.7318 0.7322
3238.000000 0.7325 0.7326 0.7358 0.7329 0.7330
3243.000000 0.7331 0.7332 0.7333 0.7334 0.7333
3248.000000 0.7333 0.7332 0.7332 0.7331 0.7331
3253.000000 0.7328 0.7324 0.7321 0.7318 0.7315
3258.000000 0.7311 0.7308 0.7305 0.7301 0.7298
3263.000000 0.7295 0.7291 0.7288 0.7284 0.7281
3268.000000 0.7277 0.7273 0.7270 0.7266 0.7263
3273.000000 0.7259 0.7256 0.7252 0.7249 0.7245
3278.000000 0.7241 0.7237 0.7233 0.7230 0.7226
3283.000000 0.7221 0.7207 0.7193 0.7179 0.7166
3288.000000 0.7152 0.7138 0.7124 0.7110 0.7095
3293.000000 0.7081 0.7067 0.7053 0.7038 0.7025
3298.000000 0.7012 0.6999 0.6986 0.6973 0.6960
3303.000000 0.6947 0.6934 0.6920 0.6907 0.6897
3308.000000 0.6889 0.6881 0.6872 0.6864 0.6855
3313.000000 0.6847 0.6839 0.6830 0.6822 0.6813
3318.000000 0.6805 0.6797 0.6788 0.6780 0.6771
3323.000000 0.6763 0.6754 0.6747 0.6739 0.6732
3328.000000 0.6724 0.6717 0.6709 0.6702 0.6694
3333.000000 0.6687 0.6679 0.6671 0.6664 0.6656
3338.000000 0.6649 0.6637 0.6623 0.6609 0.6595
3343.000000 0.6580 0.6566 0.6552 0.6538 0.6524
3348.000000 0.6509 0.6495 0.6482 0.6470 0.6458
3353.000000 0.6446 0.6434 0.6422 0.6410 0.6398
3358.000000 0.6386 0.6374 0.6363 0.6351 0.6339
3363.000000 0.6327 0.6309 0.6289 0.6269 0.6249
3368.000000 0.6229 0.6206 0.6182 0.6158 0.6133
3373.000000 0.6109 0.6088 0.6074 0.6060 0.6046
3378.000000 0.6032 0.6018 0.6004 0.5992 0.5979
3383.000000 0.5971 0.5963 0.5955 0.5947 0.5939
3388.000000 0.5932 0.5924 0.5918 0.5914 0.5910
3393.000000 0.5906 0.5902 0.5898 0.5894 0.5890
3398.000000 0.5886 0.5882 0.5878 0.5875 0.5874
3403.000000 0.5873 0.5872 0.5871 0.5870 0.5869
3408.000000 0.5868 0.5867 0.5866 0.5865 0.5867
3413.000000 0.5869 0.5871 0.5873 0.5874 0.5876
3418.000000 0.5878 0.5880 0.5882 0.5884 0.5886
3423.000000 0.5888 0.5889 0.5891 0.5894 0.5896
3428.000000 0.5899 0.5902 0.5905 0.5908 0.5910
3433.000000 0.5913 0.5916 0.5919 0.5922 0.5925
3438.000000 0.5929 0.5934 0.5938 0.5942 0.5946
3443.000000 0.5950 0.5954 0.5958 0.5962 0.5966
3448.000000 0.5970 0.5975 0.5979 0.5984 0.5990
3453.000000 0.5995 0.6001 0.6006 0.6012 0.6017
3458.000000 0.6023 0.6029 0.6034 0.6040 0.6045
3463.000000 0.6051 0.6056 0.6062 0.6067 0.6073
3468.000000 0.6079 0.6086 0.6092 0.6099 0.6106
3473.000000 0.6113 0.6118 0.6122 0.6126 0.6129
3478.000000 0.6133 0.6136 0.6139 0.6143 0.6146
3483.000000 0.6150 0.6153 0.6156 0.6158 0.6159
3488.000000 0.6160 0.6162 0.6163 0.6164 0.6170
3493.000000 0.6179 0.6189 0.6196 0.6201 0.6206
3498.000000 0.6210 0.6215 0.6220 0.6224 0.6229
3503.000000 0.6233 0.6238 0.6242 0.6246 0.6250
3508.000000 0.6255 0.6259 0.6263 0.6268 0.6272
3513.000000 0.6274 0.6277 0.6279 0.6282 0.6284
3518.000000 0.6286 0.6289 0.6292 0.6299 0.6307
3523.000000 0.6315 0.6323 0.6331 0.6339 0.6346
3528.000000 0.6355 0.6363 0.6371 0.6379 0.6386
3533.000000 0.6392 0.6399 0.6406 0.6412 0.6419
3538.000000 0.6426 0.6433 0.6440 0.6447 0.6454
3543.000000 0.6462 0.6469 0.6476 0.6483 0.6490
3548.000000 0.6497 0.6504 0.6511 0.6517 0.6522
3553.000000 0.6527 0.6532 0.6537 0.6542 0.6547
3558.000000 0.6552 0.6558 0.6564 0.6571 0.6577
3563.000000 0.6591 0.6607 0.6626 0.6647 0.6669
3568.000000 0.6691 0.6697 0.6698 0.6700 0.6702
3573.000000 0.6704 0.6706 0.6708 0.6710 0.6712
3578.000000 0.6714 0.6713 0.6712 0.6710 0.6709
3583.000000 0.6711 0.6719 0.6742 0.6775 0.6816
3588.000000 0.6867 0.6917 0.6952 0.6972 0.6977
3593.000000 0.6982 0.6987 0.6992 0.6995 0.6997
3598.000000 0.7000 0.7002 0.7005 0.7008 0.7012
3603.000000 0.7015 0.7018 0.7022 0.7025 0.7029
3608.000000 0.7032 0.7048 0.7065 0.7081 0.7095
3613.000000 0.7108 0.7122 0.7133 0.7144 0.7156
3618.000000 0.7167 0.7172 0.7177 0.7182 0.7187
3623.000000 0.7191 0.7193 0.7195 0.7197 0.7199
3628.000000 0.7201 0.7203 0.7205 0.7205 0.7205
3633.000000 0.7205 0.7204 0.7204 0.7203 0.7203
3638.000000 0.7202 0.7202 0.7201 0.7201 0.7200
3643.000000 0.7201 0.7205 0.7208 0.7211 0.7214
3648.000000 0.7218 0.7221 0.7224 0.7227 0.7231
3653.000000 0.7234 0.7237 0.7243 0.7248 0.7254
3658.000000 0.7260 0.7257 0.7255 0.7252 0.7250
3663.000000 0.7247 0.7245 0.7242 0.7240 0.7238
3668.000000 0.7235 0.7233 0.7230 0.7228 0.7226
3673.000000 0.7223 0.7222 0.7222 0.7222 0.7222
3678.000000 0.7222 0.7223 0.7223 0.7223 0.7223
3683.000000 0.7224 0.7225 0.7226 0.7227 0.7226
3688.000000 0.7225 0.7224 0.7223 0.7222 0.7220
3693.000000 0.7219 0.7218 0.7216 0.7215 0.7214
3698.000000 0.7212 0.7211 0.7210 0.7208 0.7207
3703.000000 0.7205 0.7204 0.7203 0.7201 0.7200
3708.000000 0.7199 0.7197 0.7196 0.7195 0.7193
3713.000000 0.7192 0.7191 0.7189 0.7188 0.7187
3718.000000 0.7185 0.7184 0.7183 0.7181 0.7180
3723.000000 0.7179 0.7177 0.7176 0.7175 0.7172
3728.000000 0.7168 0.7163 0.7159 0.7154 0.7149
3733.000000 0.7145 0.7142 0.7142 0.7141 0.7141
3738.000000 0.7141 0.7140 0.7140 0.7139 0.7141
3743.000000 0.7144 0.7147 0.7149 0.7152 0.7154
3748.000000 0.7157 0.7159 0.7163 0.7167 0.7171
3753.000000 0.7175 0.7179 0.7182 0.7185 0.7186
3758.000000 0.7187 0.7188 0.7189 0.7190 0.7191
3763.000000 0.7192 0.7193 0.7192 0.7191 0.7190
3768.000000 0.7189 0.7189 0.7188 0.7187 0.7186
3773.000000 0.7185 0.7184 0.7184 0.7183 0.7181
3778.000000 0.7180 0.7179 0.7178 0.7177 0.7176
3783.000000 0.7175 0.7174 0.7172 0.7171 0.7170
3788.000000 0.7167 0.7165 0.7162 0.7159 0.7156
3793.000000 0.7154 0.7151 0.7148 0.7145 0.7143
3798.000000 0.7140 0.7137 0.7134 0.7132 0.7129
3803.000000 0.7126 0.7123 0.7120 0.7117 0.7114
3808.000000 0.7111 0.7109 0.7106 0.7102 0.7097
3813.000000 0.7092 0.7087 0.7082 0.7077 0.7073
3818.000000 0.7068 0.7063 0.7055 0.7046 0.7037
3823.000000 0.7031 0.7027 0.7023 0.7019 0.7015
3828.000000 0.7011 0.7008 0.7008 0.7007 0.7006
3833.000000 0.7005 0.7005 0.7004 0.7003 0.7003
3838.000000 0.7002 0.7002 0.7001 0.7001 0.7000
3843.000000 0.7000 0.6999 0.6999 0.6998 0.6998
3848.000000 0.6997 0.6997 0.6997 0.6997 0.6997
3853.000000 0.6997 0.6997 0.6997 0.6997 0.6998
3858.000000 0.6998 0.6998 0.6998 0.6998 0.6998
3863.000000 0.6999 0.6999 0.6999 0.7000 0.7000
3868.000000 0.7001 0.7001 0.7002 0.7002 0.7002
3873.000000 0.7003 0.7003 0.7002 0.7001 0.7001
3878.000000 0.7000 0.6999 0.6999 0.6998 0.6997
3883.000000 0.6996 0.6996 0.6995 0.6994 0.6993
3888.000000 0.6993 0.6992 0.6991 0.6991 0.6990
3893.000000 0.6989 0.6988 0.6988 0.6987 0.6986
3898.000000 0.6985 0.6985 0.6984
##END=
