##TITLE=DIMETHYLAMINE BORANE
$$ CALLERY CHEM.
##JCAMP-DX=4.24
##DATA TYPE=INFRARED SPECTRUM
##CLASS=COBLENTZ
##ORIGIN=WYANDOTTE CHEMICALS CORP., WYANDOTTE, MICHIGAN, USA
##OWNER=COBLENTZ SOCIETY
Collection (C) 2018 copyright by the U.S. Secretary of Commerce
on behalf of the United States of America. All rights reserved.
##DATE=Not specified, most likely prior to 1970
##MOLFORM=C2 H10 N B
##SOURCE REFERENCE=COBLENTZ NO. 359
##$NIST ID=B6000359
##$NIST SOURCE=COBLENTZ
##$NIST IMAGE=cob359
##SPECTROMETER/DATA SYSTEM=Not specified, most likely a prism, grating, or hybrid spectrometer.
##STATE=SOLID (MULL, KEL-F OIL FOR 2-7.5 AND MINERAL OIL FOR 7.5-16 MICRONS)
##SAMPLING PROCEDURE=TRANSMISSION
##RESOLUTION=4
##DATA PROCESSING=DIGITIZED BY NIST FROM HARD COPY
##XUNITS=MICROMETERS
##YUNITS=TRANSMITTANCE
##XFACTOR=1.000000
##YFACTOR=1
##DELTAX=000.006636
##FIRSTX=2.031
##LASTX=15.9992
##FIRSTY=0.958
##MAXX=15.9992
##MINX=2.031
##MAXY=0.988
##MINY=0.131
##NPOINTS=2106
##XYDATA=(X++(Y..Y))
2.031000 0.9580 0.9580 0.9560 0.9550 0.9530
2.064194 0.9530 0.9500 0.9480 0.9450 0.9430
2.098000 0.9380 0.9380 0.9410 0.9410 0.9410
2.131194 0.9360 0.9350 0.9310 0.9300 0.9210
2.164000 0.9110 0.9010 0.8900 0.8810 0.8760
2.197194 0.8760 0.8910 0.9110 0.9210 0.9260
2.230000 0.9350 0.9410 0.9430 0.9430 0.9430
2.263194 0.9430 0.9430 0.9430 0.9410 0.9400
2.297000 0.9400 0.9410 0.9430 0.9460 0.9480
2.330194 0.9480 0.9480 0.9480 0.9480 0.9500
2.363000 0.9510 0.9550 0.9580 0.9580 0.9580
2.396194 0.9560 0.9530 0.9530 0.9550 0.9550
2.429000 0.9530 0.9530 0.9530 0.9530 0.9530
2.462194 0.9550 0.9550 0.9530 0.9530 0.9530
2.496000 0.9510 0.9500 0.9500 0.9500 0.9500
2.529194 0.9510 0.9600 0.9630 0.9650 0.9700
2.562000 0.9730 0.9760 0.9800 0.9810 0.9830
2.595194 0.9810 0.9700 0.9510 0.9500 0.9500
2.628000 0.9580 0.9780 0.9850 0.9880 0.9880
2.661194 0.9830 0.9780 0.9760 0.9730 0.9710
2.695000 0.9700 0.9680 0.9630 0.9560 0.9510
2.728194 0.9480 0.9430 0.9400 0.9380 0.9380
2.761000 0.9380 0.9380 0.9360 0.9360 0.9350
2.794194 0.9350 0.9330 0.9310 0.9310 0.9310
2.827000 0.9300 0.9300 0.9300 0.9310 0.9310
2.860194 0.9300 0.9260 0.9250 0.9180 0.9110
2.894000 0.9030 0.9010 0.9000 0.9000 0.8980
2.927194 0.8980 0.8960 0.8930 0.8910 0.8900
2.960000 0.8830 0.8710 0.8650 0.8580 0.8550
2.993194 0.8530 0.8530 0.8650 0.8650 0.8600
3.027000 0.8550 0.8480 0.8410 0.8330 0.8100
3.060194 0.7750 0.7230 0.6580 0.5750 0.5060
3.093000 0.4730 0.4380 0.3600 0.2630 0.1980
3.126194 0.1910 0.1910 0.2210 0.2980 0.3550
3.159000 0.4210 0.4750 0.5600 0.5810 0.6000
3.192194 0.6180 0.6380 0.6580 0.6810 0.7080
3.226000 0.7210 0.7250 0.7300 0.7310 0.7330
3.259194 0.7380 0.7480 0.7730 0.7910 0.7980
3.292000 0.7980 0.7580 0.6660 0.5860 0.5200
3.325194 0.5180 0.5260 0.6280 0.7130 0.7300
3.358000 0.7300 0.6810 0.5380 0.5210 0.5210
3.391194 0.5500 0.6060 0.6050 0.6000 0.5710
3.425000 0.5710 0.5850 0.6100 0.6400 0.6710
3.458194 0.6900 0.7010 0.7200 0.7300 0.7310
3.491000 0.7280 0.7100 0.6960 0.6880 0.6760
3.524194 0.6700 0.6700 0.6710 0.6730 0.6850
3.557000 0.7080 0.7380 0.7680 0.7950 0.8080
3.590194 0.8180 0.8360 0.8560 0.8750 0.8830
3.624000 0.8860 0.8860 0.8860 0.8860 0.8880
3.657194 0.8900 0.8930 0.8960 0.8980 0.8980
3.690000 0.8980 0.8980 0.8980 0.8980 0.8960
3.723194 0.8910 0.8880 0.8850 0.8830 0.8760
3.756000 0.8650 0.8550 0.8450 0.8260 0.8130
3.789194 0.7880 0.7700 0.7480 0.7460 0.7500
3.823000 0.7910 0.8210 0.8500 0.8700 0.8750
3.856194 0.8800 0.8830 0.8850 0.8850 0.8830
3.889000 0.8810 0.8810 0.8810 0.8830 0.8860
3.922194 0.8880 0.8900 0.8930 0.9000 0.9000
3.956000 0.9010 0.9010 0.9010 0.9030 0.9030
3.989194 0.8980 0.8910 0.8780 0.8680 0.8580
4.022000 0.8500 0.8400 0.8280 0.8100 0.7950
4.055194 0.7760 0.7530 0.7410 0.7250 0.7100
4.088000 0.6950 0.6860 0.6750 0.6630 0.6500
4.121194 0.6350 0.6230 0.6100 0.6000 0.5900
4.155000 0.5580 0.5310 0.5080 0.5000 0.4900
4.188194 0.4700 0.4500 0.4280 0.4000 0.3650
4.221000 0.3280 0.2810 0.2450 0.2080 0.1910
4.254194 0.1650 0.1500 0.1400 0.1380 0.1430
4.287000 0.1510 0.1610 0.1700 0.1810 0.1950
4.320194 0.1980 0.2060 0.2160 0.2200 0.2260
4.354000 0.2330 0.2400 0.2460 0.2530 0.2580
4.387194 0.2600 0.2610 0.2560 0.2360 0.2300
4.420000 0.2230 0.2160 0.2130 0.2110 0.2050
4.453194 0.1960 0.1830 0.1680 0.1550 0.1380
4.486000 0.1310 0.1380 0.1430 0.1580 0.1730
4.519194 0.1930 0.2080 0.2250 0.2410 0.2650
4.553000 0.2960 0.3110 0.3250 0.3410 0.3560
4.586194 0.3660 0.3810 0.4060 0.4300 0.4500
4.619000 0.4680 0.5210 0.5400 0.5530 0.5680
4.652194 0.5910 0.6010 0.6130 0.6250 0.6400
4.685000 0.6530 0.6650 0.6700 0.6830 0.6900
4.718194 0.6950 0.6980 0.7030 0.7100 0.7160
4.752000 0.7200 0.7250 0.7300 0.7350 0.7380
4.785194 0.7380 0.7400 0.7300 0.7180 0.7060
4.818000 0.7010 0.7010 0.7010 0.7130 0.7230
4.851194 0.7280 0.7330 0.7310 0.7300 0.7250
4.885000 0.7180 0.7150 0.7110 0.7100 0.7080
4.918194 0.7030 0.6910 0.6710 0.6700 0.6750
4.951000 0.6960 0.7180 0.7410 0.7500 0.7580
4.984194 0.7660 0.7800 0.7880 0.7960 0.8000
5.017000 0.8030 0.8050 0.8100 0.8130 0.8180
5.050194 0.8200 0.8230 0.8230 0.8250 0.8310
5.084000 0.8380 0.8430 0.8450 0.8460 0.8480
5.117194 0.8480 0.8500 0.8500 0.8500 0.8500
5.150000 0.8500 0.8510 0.8550 0.8550 0.8530
5.183194 0.8510 0.8500 0.8500 0.8460 0.8500
5.216000 0.8530 0.8550 0.8560 0.8560 0.8580
5.249194 0.8630 0.8680 0.8750 0.8760 0.8730
5.283000 0.8750 0.8750 0.8750 0.8750 0.8730
5.316194 0.8730 0.8710 0.8750 0.8750 0.8730
5.349000 0.8660 0.8630 0.8580 0.8500 0.8430
5.382194 0.8410 0.8480 0.8560 0.8600 0.8580
5.415000 0.8600 0.8610 0.8610 0.8610 0.8530
5.448194 0.8530 0.8600 0.8680 0.8710 0.8710
5.482000 0.8630 0.8460 0.8400 0.8380 0.8410
5.515194 0.8430 0.8430 0.8430 0.8450 0.8510
5.548000 0.8600 0.8630 0.8610 0.8600 0.8600
5.581194 0.8600 0.8560 0.8550 0.8480 0.8550
5.614000 0.8460 0.8360 0.8330 0.8360 0.8410
5.647194 0.8480 0.8530 0.8630 0.8710 0.8810
5.681000 0.8830 0.8780 0.8760 0.8730 0.8700
5.714194 0.8610 0.8600 0.8600 0.8630 0.8680
5.747000 0.8630 0.8600 0.8650 0.8650 0.8600
5.780194 0.8550 0.8510 0.8460 0.8360 0.8360
5.814000 0.8380 0.8510 0.8510 0.8460 0.8330
5.847194 0.8280 0.8260 0.8260 0.8280 0.8360
5.880000 0.8450 0.8460 0.8430 0.8330 0.8280
5.913194 0.8250 0.8210 0.8200 0.8210 0.8200
5.946000 0.8180 0.8130 0.8100 0.8100 0.8060
5.979194 0.8050 0.8050 0.8030 0.8000 0.7910
6.013000 0.7880 0.7860 0.7850 0.7860 0.7880
6.046194 0.8030 0.8110 0.8160 0.8180 0.8180
6.079000 0.8110 0.8130 0.8200 0.8360 0.8400
6.112194 0.8330 0.8330 0.8330 0.8380 0.8410
6.145000 0.8430 0.8460 0.8500 0.8500 0.8460
6.178194 0.8450 0.8430 0.8430 0.8430 0.8430
6.212000 0.8430 0.8460 0.8480 0.8500 0.8510
6.245194 0.8550 0.8580 0.8600 0.8580 0.8530
6.278000 0.8510 0.8510 0.8510 0.8530 0.8580
6.311194 0.8630 0.8660 0.8650 0.8630 0.8580
6.344000 0.8530 0.8460 0.8410 0.8380 0.8360
6.377194 0.8380 0.8410 0.8450 0.8450 0.8410
6.411000 0.8400 0.8330 0.8260 0.8180 0.8110
6.444194 0.8100 0.8100 0.8110 0.8150 0.8150
6.477000 0.8180 0.8210 0.8210 0.8200 0.8160
6.510194 0.8110 0.8060 0.8010 0.8000 0.8000
6.543000 0.8000 0.8000 0.8010 0.8050 0.8060
6.576194 0.8030 0.8010 0.8000 0.8010 0.8010
6.610000 0.8050 0.8060 0.8060 0.8010 0.8000
6.643194 0.7950 0.7930 0.7900 0.7810 0.7750
6.676000 0.7660 0.7630 0.7550 0.7450 0.7280
6.709194 0.6980 0.6650 0.6330 0.6080 0.5700
6.743000 0.5410 0.5100 0.4780 0.4030 0.3560
6.776194 0.2930 0.2610 0.2300 0.2310 0.2330
6.809000 0.2360 0.2430 0.2530 0.2780 0.3080
6.842194 0.3610 0.4080 0.4310 0.4550 0.4680
6.875000 0.4930 0.5480 0.5600 0.5630 0.5650
6.908194 0.5660 0.5680 0.5750 0.5780 0.5780
6.942000 0.5780 0.5760 0.5680 0.5560 0.5310
6.975194 0.5260 0.5210 0.5410 0.5550 0.5660
7.008000 0.5730 0.5780 0.5850 0.5980 0.6080
7.041194 0.6100 0.6050 0.5960 0.5880 0.5750
7.074000 0.5600 0.5380 0.5280 0.5280 0.5510
7.107194 0.5760 0.5900 0.6000 0.6030 0.6080
7.141000 0.6150 0.6210 0.6300 0.6360 0.6380
7.174194 0.6400 0.6400 0.6400 0.6380 0.6380
7.207000 0.6430 0.6430 0.6360 0.6350 0.6350
7.240194 0.6330 0.6330 0.6330 0.6350 0.6400
7.273000 0.6460 0.6500 0.6500 0.6510 0.6510
7.306194 0.6500 0.6500 0.6500 0.6510 0.6600
7.340000 0.6630 0.6630 0.6600 0.6580 0.6560
7.373194 0.6560 0.6560 0.6560 0.6530 0.6510
7.406000 0.6500 0.6480 0.6400 0.6260 0.6150
7.439194 0.6000 0.5850 0.5560 0.5350 0.5200
7.472000 0.5050 0.4980 0.4900 0.4830 0.4760
7.505194 0.4700 0.4630 0.4560 0.4500 0.4430
7.539000 0.4360 0.4300 0.4260 0.4260 0.4280
7.572194 0.4360 0.4430 0.4500 0.4660 0.4960
7.605000 0.5680 0.6000 0.6210 0.6360 0.6510
7.638194 0.6600 0.6750 0.6930 0.7010 0.7080
7.672000 0.7130 0.7160 0.7200 0.7230 0.7280
7.705194 0.7350 0.7360 0.7380 0.7380 0.7360
7.738000 0.7360 0.7360 0.7380 0.7380 0.7360
7.771194 0.7310 0.7300 0.7260 0.7250 0.7250
7.804000 0.7250 0.7250 0.7250 0.7250 0.7230
7.837194 0.7230 0.7210 0.7210 0.7210 0.7230
7.871000 0.7260 0.7260 0.7250 0.7230 0.7200
7.904194 0.7160 0.7160 0.7160 0.7150 0.7150
7.937000 0.7100 0.7060 0.7010 0.7000 0.7000
7.970194 0.6980 0.6960 0.6930 0.6830 0.6800
8.003000 0.6750 0.6700 0.6650 0.6600 0.6550
8.036194 0.6430 0.6330 0.6210 0.6060 0.6000
8.070000 0.5910 0.5830 0.5760 0.5800 0.5850
8.103194 0.5860 0.5860 0.5860 0.5900 0.5910
8.136000 0.5900 0.5880 0.5810 0.5750 0.5680
8.169194 0.5630 0.5530 0.5450 0.5280 0.5060
8.202000 0.5030 0.4980 0.4780 0.4650 0.4530
8.235194 0.4360 0.4200 0.4050 0.3900 0.3780
8.269000 0.3680 0.3650 0.3530 0.3500 0.3450
8.302194 0.3410 0.3360 0.3360 0.3380 0.3380
8.335000 0.3400 0.3380 0.3380 0.3360 0.3350
8.368194 0.3330 0.3260 0.3210 0.3200 0.3200
8.401000 0.3200 0.3180 0.3150 0.3130 0.3100
8.434194 0.3080 0.3060 0.3030 0.3010 0.3010
8.468000 0.3000 0.3000 0.2980 0.2950 0.2930
8.501194 0.2880 0.2810 0.2780 0.2750 0.2730
8.534000 0.2700 0.2630 0.2580 0.2480 0.2400
8.567194 0.2310 0.2230 0.2100 0.1950 0.1830
8.601000 0.1700 0.1650 0.1610 0.1600 0.1600
8.634194 0.1600 0.1600 0.1610 0.1700 0.1750
8.667000 0.1810 0.1860 0.1930 0.2010 0.2030
8.700194 0.2100 0.2200 0.2280 0.2360 0.2450
8.733000 0.2530 0.2560 0.2650 0.2700 0.2760
8.766194 0.2880 0.2960 0.3060 0.3210 0.3350
8.800000 0.3480 0.3550 0.3650 0.3750 0.4000
8.833194 0.4100 0.4150 0.4250 0.4360 0.4480
8.866000 0.4650 0.4760 0.4860 0.5150 0.5250
8.899194 0.5300 0.5410 0.5500 0.5560 0.5650
8.932000 0.5750 0.5810 0.5860 0.5900 0.5930
8.965194 0.6000 0.6050 0.6100 0.6160 0.6230
8.999000 0.6300 0.6360 0.6380 0.6430 0.6450
9.032194 0.6450 0.6480 0.6500 0.6530 0.6560
9.065000 0.6600 0.6610 0.6630 0.6650 0.6700
9.098194 0.6750 0.6800 0.6810 0.6830 0.6880
9.131000 0.6910 0.6930 0.6930 0.6950 0.7000
9.164194 0.7030 0.7050 0.7060 0.7100 0.7130
9.198000 0.7150 0.7160 0.7180 0.7180 0.7210
9.231194 0.7230 0.7260 0.7280 0.7310 0.7310
9.264000 0.7350 0.7360 0.7380 0.7380 0.7400
9.297194 0.7400 0.7410 0.7410 0.7410 0.7410
9.330000 0.7410 0.7410 0.7430 0.7450 0.7500
9.363194 0.7510 0.7510 0.7510 0.7510 0.7510
9.397000 0.7510 0.7510 0.7500 0.7500 0.7500
9.430194 0.7480 0.7450 0.7410 0.7400 0.7350
9.463000 0.7300 0.7210 0.7150 0.7150 0.7160
9.496194 0.7160 0.7200 0.7280 0.7350 0.7400
9.530000 0.7430 0.7500 0.7500 0.7480 0.7460
9.563194 0.7410 0.7330 0.7280 0.7250 0.7110
9.596000 0.7030 0.6950 0.6810 0.6680 0.6500
9.629194 0.6300 0.6160 0.6000 0.5780 0.5630
9.662000 0.5460 0.5300 0.5210 0.5130 0.5130
9.695194 0.5180 0.5300 0.5430 0.5630 0.5850
9.729000 0.6060 0.6230 0.6400 0.6560 0.6750
9.762194 0.6860 0.6930 0.7010 0.7080 0.7200
9.795000 0.7310 0.7380 0.7500 0.7530 0.7580
9.828194 0.7610 0.7630 0.7660 0.7680 0.7710
9.861000 0.7800 0.7850 0.7880 0.7910 0.7950
9.894194 0.7960 0.7980 0.8010 0.8030 0.8030
9.928000 0.8050 0.8050 0.8050 0.8050 0.8060
9.961194 0.8080 0.8080 0.8100 0.8100 0.8100
9.994000 0.8100 0.8100 0.8100 0.8100 0.8100
10.027194 0.8100 0.8100 0.8100 0.8100 0.8100
10.060000 0.8100 0.8100 0.8100 0.8100 0.8100
10.093194 0.8080 0.8080 0.8080 0.8080 0.8080
10.127000 0.8080 0.8080 0.8060 0.8060 0.8060
10.160194 0.8050 0.8050 0.8050 0.8030 0.8030
10.193000 0.8010 0.8010 0.8010 0.8010 0.8010
10.226194 0.8000 0.8000 0.7980 0.7980 0.7980
10.259000 0.7980 0.7980 0.7980 0.7980 0.7980
10.292194 0.7960 0.7960 0.7950 0.7950 0.7950
10.326000 0.7950 0.7930 0.7910 0.7900 0.7900
10.359194 0.7900 0.7900 0.7900 0.7900 0.7900
10.392000 0.7880 0.7880 0.7850 0.7830 0.7810
10.425194 0.7810 0.7810 0.7800 0.7800 0.7780
10.459000 0.7760 0.7710 0.7680 0.7660 0.7630
10.492194 0.7610 0.7580 0.7550 0.7550 0.7510
10.525000 0.7450 0.7410 0.7350 0.7300 0.7200
10.558194 0.7060 0.7000 0.6880 0.6760 0.6530
10.591000 0.6300 0.6060 0.5810 0.5550 0.5250
10.624194 0.5080 0.4900 0.4480 0.4000 0.3600
10.658000 0.3080 0.2800 0.2600 0.2360 0.2200
10.691194 0.2110 0.2100 0.2080 0.2130 0.2210
10.724000 0.2350 0.2550 0.2800 0.2980 0.3310
10.757194 0.3580 0.3830 0.4160 0.4550 0.4880
10.790000 0.5250 0.5630 0.5760 0.5980 0.6210
10.823194 0.6310 0.6430 0.6530 0.6610 0.6700
10.857000 0.6760 0.6810 0.6860 0.6910 0.6930
10.890194 0.6960 0.7000 0.7000 0.7010 0.7050
10.923000 0.7050 0.7030 0.7000 0.6960 0.6910
10.956194 0.6850 0.6800 0.6780 0.6760 0.6700
10.989000 0.6560 0.6460 0.6430 0.6400 0.6350
11.022194 0.6260 0.6160 0.6010 0.5900 0.5760
11.056000 0.5580 0.5400 0.5100 0.4950 0.4800
11.089194 0.4600 0.4450 0.4200 0.4080 0.3980
11.122000 0.3900 0.3880 0.3860 0.3830 0.3800
11.155194 0.3730 0.3680 0.3530 0.3400 0.3300
11.188000 0.3200 0.3050 0.2960 0.2850 0.2780
11.221194 0.2760 0.2750 0.2730 0.2730 0.2810
11.255000 0.2860 0.2960 0.3080 0.3250 0.3380
11.288194 0.3530 0.3710 0.3850 0.4000 0.4260
11.321000 0.4480 0.4660 0.4860 0.5180 0.5330
11.354194 0.5500 0.5650 0.5800 0.5930 0.6060
11.388000 0.6160 0.6230 0.6310 0.6380 0.6450
11.421194 0.6500 0.6580 0.6700 0.6760 0.6810
11.454000 0.6830 0.6880 0.6930 0.7000 0.7030
11.487194 0.7050 0.7080 0.7130 0.7180 0.7210
11.520000 0.7250 0.7280 0.7310 0.7330 0.7330
11.553194 0.7360 0.7380 0.7400 0.7410 0.7430
11.587000 0.7450 0.7510 0.7510 0.7530 0.7530
11.620194 0.7530 0.7550 0.7560 0.7580 0.7580
11.653000 0.7580 0.7600 0.7630 0.7630 0.7630
11.686194 0.7630 0.7650 0.7660 0.7680 0.7710
11.719000 0.7730 0.7760 0.7760 0.7780 0.7780
11.752194 0.7780 0.7800 0.7800 0.7800 0.7800
11.786000 0.7800 0.7810 0.7830 0.7850 0.7860
11.819194 0.7900 0.7910 0.7930 0.7950 0.7950
11.852000 0.7960 0.7960 0.7950 0.7950 0.7980
11.885194 0.8010 0.8030 0.8050 0.8050 0.8050
11.918000 0.8050 0.8050 0.8050 0.8050 0.8050
11.951194 0.8060 0.8060 0.8060 0.8060 0.8060
11.985000 0.8060 0.8080 0.8080 0.8100 0.8100
12.018194 0.8100 0.8100 0.8110 0.8130 0.8130
12.051000 0.8130 0.8150 0.8150 0.8150 0.8150
12.084194 0.8150 0.8150 0.8160 0.8180 0.8180
12.117000 0.8160 0.8150 0.8130 0.8130 0.8150
12.150194 0.8160 0.8180 0.8180 0.8180 0.8180
12.184000 0.8180 0.8180 0.8180 0.8180 0.8180
12.217194 0.8200 0.8210 0.8230 0.8250 0.8250
12.250000 0.8250 0.8250 0.8230 0.8210 0.8210
12.283194 0.8210 0.8210 0.8230 0.8230 0.8250
12.317000 0.8250 0.8250 0.8250 0.8250 0.8260
12.350194 0.8260 0.8260 0.8260 0.8260 0.8280
12.383000 0.8300 0.8300 0.8310 0.8310 0.8310
12.416194 0.8350 0.8360 0.8360 0.8380 0.8380
12.449000 0.8400 0.8400 0.8410 0.8410 0.8410
12.482194 0.8410 0.8430 0.8430 0.8430 0.8450
12.516000 0.8450 0.8450 0.8460 0.8460 0.8460
12.549194 0.8480 0.8480 0.8500 0.8510 0.8510
12.582000 0.8500 0.8500 0.8480 0.8500 0.8510
12.615194 0.8530 0.8550 0.8550 0.8560 0.8560
12.648000 0.8560 0.8580 0.8580 0.8580 0.8580
12.681194 0.8580 0.8580 0.8630 0.8630 0.8600
12.715000 0.8580 0.8580 0.8560 0.8600 0.8600
12.748194 0.8610 0.8610 0.8630 0.8630 0.8630
12.781000 0.8630 0.8630 0.8630 0.8630 0.8610
12.814194 0.8600 0.8560 0.8550 0.8550 0.8560
12.847000 0.8580 0.8580 0.8580 0.8580 0.8560
12.880194 0.8560 0.8550 0.8550 0.8550 0.8550
12.914000 0.8550 0.8560 0.8560 0.8560 0.8550
12.947194 0.8530 0.8510 0.8510 0.8500 0.8500
12.980000 0.8510 0.8530 0.8550 0.8560 0.8560
13.013194 0.8550 0.8530 0.8530 0.8530 0.8530
13.046000 0.8530 0.8530 0.8530 0.8530 0.8530
13.079194 0.8500 0.8500 0.8550 0.8550 0.8530
13.113000 0.8500 0.8480 0.8500 0.8510 0.8550
13.146194 0.8550 0.8530 0.8530 0.8530 0.8510
13.179000 0.8510 0.8510 0.8510 0.8510 0.8510
13.212194 0.8500 0.8460 0.8460 0.8450 0.8430
13.246000 0.8430 0.8430 0.8430 0.8460 0.8460
13.279194 0.8480 0.8460 0.8450 0.8450 0.8460
13.312000 0.8500 0.8510 0.8500 0.8460 0.8450
13.345194 0.8430 0.8430 0.8430 0.8430 0.8430
13.378000 0.8430 0.8410 0.8410 0.8380 0.8330
13.411194 0.8350 0.8360 0.8360 0.8380 0.8380
13.445000 0.8350 0.8330 0.8330 0.8330 0.8350
13.478194 0.8350 0.8350 0.8350 0.8350 0.8330
13.511000 0.8330 0.8330 0.8330 0.8330 0.8330
13.544194 0.8330 0.8310 0.8300 0.8300 0.8310
13.577000 0.8310 0.8310 0.8310 0.8300 0.8300
13.610194 0.8280 0.8280 0.8280 0.8280 0.8260
13.644000 0.8260 0.8260 0.8260 0.8260 0.8260
13.677194 0.8260 0.8260 0.8250 0.8230 0.8200
13.710000 0.8180 0.8180 0.8180 0.8160 0.8130
13.743194 0.8130 0.8130 0.8110 0.8110 0.8110
13.776000 0.8110 0.8100 0.8080 0.8060 0.8060
13.809194 0.8060 0.8050 0.8050 0.8050 0.8050
13.843000 0.8030 0.8050 0.8030 0.8030 0.8030
13.876194 0.8010 0.8000 0.8000 0.7950 0.7930
13.909000 0.7910 0.7860 0.7830 0.7810 0.7760
13.942194 0.7710 0.7650 0.7630 0.7610 0.7600
13.975000 0.7580 0.7530 0.7530 0.7530 0.7560
14.008194 0.7580 0.7600 0.7610 0.7630 0.7700
14.042000 0.7730 0.7760 0.7800 0.7830 0.7830
14.075194 0.7860 0.7900 0.7910 0.7930 0.7950
14.108000 0.7950 0.8000 0.8010 0.8030 0.8050
14.141194 0.8100 0.8130 0.8130 0.8150 0.8150
14.175000 0.8150 0.8130 0.8130 0.8130 0.8160
14.208194 0.8180 0.8180 0.8200 0.8210 0.8210
14.241000 0.8210 0.8210 0.8210 0.8230 0.8260
14.274194 0.8280 0.8280 0.8260 0.8260 0.8250
14.307000 0.8260 0.8260 0.8260 0.8280 0.8280
14.340194 0.8280 0.8280 0.8260 0.8260 0.8250
14.374000 0.8250 0.8260 0.8300 0.8300 0.8260
14.407194 0.8260 0.8250 0.8210 0.8200 0.8200
14.440000 0.8210 0.8230 0.8230 0.8200 0.8200
14.473194 0.8210 0.8210 0.8230 0.8230 0.8230
14.506000 0.8230 0.8230 0.8210 0.8210 0.8210
14.539194 0.8210 0.8210 0.8200 0.8200 0.8210
14.573000 0.8210 0.8200 0.8200 0.8200 0.8200
14.606194 0.8200 0.8200 0.8180 0.8180 0.8180
14.639000 0.8180 0.8180 0.8160 0.8160 0.8160
14.672194 0.8160 0.8160 0.8160 0.8160 0.8160
14.705000 0.8180 0.8180 0.8200 0.8200 0.8200
14.738194 0.8200 0.8180 0.8180 0.8180 0.8200
14.772000 0.8200 0.8180 0.8180 0.8160 0.8150
14.805194 0.8150 0.8150 0.8150 0.8150 0.8130
14.838000 0.8110 0.8100 0.8080 0.8080 0.8100
14.871194 0.8100 0.8130 0.8150 0.8150 0.8150
14.904000 0.8130 0.8110 0.8100 0.8080 0.8080
14.937194 0.8080 0.8060 0.8050 0.8030 0.8010
14.971000 0.8010 0.8000 0.8000 0.7960 0.7910
15.004194 0.7850 0.7780 0.7730 0.7650 0.7600
15.037000 0.7580 0.7560 0.7560 0.7550 0.7550
15.070194 0.7530 0.7530 0.7560 0.7610 0.7680
15.104000 0.7750 0.7780 0.7810 0.7830 0.7850
15.137194 0.7880 0.7900 0.7900 0.7900 0.7910
15.170000 0.7930 0.7950 0.7950 0.7950 0.7930
15.203194 0.7930 0.7900 0.7880 0.7880 0.7860
15.236000 0.7850 0.7810 0.7780 0.7760 0.7760
15.269194 0.7780 0.7760 0.7760 0.7760 0.7730
15.303000 0.7730 0.7710 0.7700 0.7660 0.7650
15.336194 0.7650 0.7660 0.7680 0.7660 0.7660
15.369000 0.7650 0.7610 0.7600 0.7600 0.7600
15.402194 0.7580 0.7560 0.7560 0.7550 0.7550
15.435000 0.7530 0.7530 0.7510 0.7500 0.7500
15.468194 0.7480 0.7480 0.7480 0.7460 0.7460
15.502000 0.7460 0.7460 0.7460 0.7450 0.7450
15.535194 0.7430 0.7430 0.7430 0.7430 0.7430
15.568000 0.7430 0.7410 0.7410 0.7410 0.7410
15.601194 0.7400 0.7380 0.7360 0.7350 0.7350
15.634000 0.7350 0.7330 0.7330 0.7310 0.7300
15.667194 0.7300 0.7300 0.7300 0.7300 0.7300
15.701000 0.7310 0.7300 0.7300 0.7300 0.7300
15.734194 0.7280 0.7260 0.7260 0.7250 0.7230
15.767000 0.7210 0.7200 0.7160 0.7130 0.7100
15.800194 0.7080 0.7060 0.7060 0.7060 0.7060
15.833000 0.7060 0.7060 0.7060 0.7060 0.7060
15.866194 0.7080 0.7080 0.7080 0.7080 0.7060
15.900000 0.7030 0.7030 0.7050 0.7050 0.7030
15.933194 0.7030 0.7010 0.7010 0.6980 0.6950
15.966000 0.6950 0.6930 0.6930 0.6930 0.6930
15.999194 0.6930
##END=
