##TITLE=FERROUS SULFATE
##JCAMP-DX=4.24
##DATA TYPE=INFRARED SPECTRUM
##CLASS=COBLENTZ
##ORIGIN=MELLON INSTITUTE
##OWNER=COBLENTZ SOCIETY
Collection (C) 2018 copyright by the U.S. Secretary of Commerce
on behalf of the United States of America. All rights reserved.
##DATE=Not specified, most likely prior to 1970
##MOLFORM=Fe S O4  * 7 H2 O
##SOURCE REFERENCE=COBLENTZ NO. 547
##$NIST ID=B6000547
##$NIST SOURCE=COBLENTZ
##$NIST IMAGE=cob547
##SPECTROMETER/DATA SYSTEM=Not specified, most likely a prism, grating, or hybrid spectrometer.
##STATE=SOLID (NUJOL MULL)
$$PURITY UNKNOWN
##PATH LENGTH=
$$SPECTRAL CONTAMINATION DUE TO OIL AROUND 2900, 1450, 1380 CM^-^1
##SAMPLING PROCEDURE=TRANSMISSION
##RESOLUTION=4
##DATA PROCESSING=DIGITIZED BY NIST FROM HARD COPY
##XUNITS=MICROMETERS
##YUNITS=TRANSMITTANCE
##XFACTOR=1.000000
##YFACTOR=1
##DELTAX=000.006659
##FIRSTX=2.048
##LASTX=15.9973
##FIRSTY=0.914
##MAXX=15.9973
##MINX=2.048
##MAXY=0.973
##MINY=0.267
##NPOINTS=2096
##XYDATA=(X++(Y..Y))
2.048000 0.9140 0.9140 0.9180 0.9190 0.9190
2.081309 0.9190 0.9210 0.9230 0.9230 0.9240
2.114000 0.9240 0.9240 0.9260 0.9280 0.9290
2.147309 0.9310 0.9310 0.9310 0.9310 0.9290
2.181000 0.9290 0.9310 0.9310 0.9330 0.9330
2.214309 0.9330 0.9330 0.9340 0.9360 0.9390
2.248000 0.9390 0.9390 0.9390 0.9390 0.9390
2.281309 0.9390 0.9390 0.9390 0.9410 0.9410
2.314000 0.9410 0.9410 0.9390 0.9390 0.9360
2.347309 0.9360 0.9380 0.9380 0.9390 0.9390
2.381000 0.9390 0.9390 0.9390 0.9390 0.9410
2.414309 0.9390 0.9410 0.9410 0.9410 0.9430
2.447000 0.9430 0.9440 0.9440 0.9440 0.9440
2.480309 0.9490 0.9490 0.9490 0.9510 0.9510
2.514000 0.9510 0.9510 0.9490 0.9490 0.9490
2.547309 0.9490 0.9480 0.9460 0.9460 0.9460
2.581000 0.9460 0.9460 0.9460 0.9490 0.9490
2.614309 0.9490 0.9490 0.9460 0.9440 0.9430
2.647000 0.9430 0.9410 0.9390 0.9360 0.9360
2.680309 0.9340 0.9330 0.9290 0.9240 0.9210
2.714000 0.9180 0.9080 0.9010 0.8890 0.8780
2.747309 0.8580 0.8390 0.8090 0.7590 0.7360
2.780000 0.6940 0.6710 0.6520 0.6340 0.6060
2.813309 0.5650 0.5490 0.5300 0.5190 0.5000
2.847000 0.4820 0.4720 0.4520 0.4400 0.4250
2.880309 0.4200 0.4140 0.4090 0.4020 0.4000
2.913000 0.3980 0.3930 0.3900 0.3880 0.3830
2.946309 0.3830 0.3820 0.3800 0.3800 0.3780
2.980000 0.3770 0.3750 0.3750 0.3750 0.3750
3.013309 0.3750 0.3770 0.3770 0.3770 0.3780
3.047000 0.3780 0.3820 0.3830 0.3850 0.3850
3.080309 0.3880 0.3920 0.3920 0.3970 0.3980
3.113000 0.4020 0.4090 0.4170 0.4240 0.4340
3.146309 0.4490 0.4640 0.4740 0.4820 0.4950
3.180000 0.5170 0.5220 0.5400 0.5570 0.5740
3.213309 0.5950 0.6010 0.6160 0.6170 0.6260
3.246000 0.6340 0.6370 0.6410 0.6470 0.6520
3.279309 0.6670 0.6640 0.6610 0.6560 0.6290
3.313000 0.6020 0.5940 0.4790 0.4170 0.3630
3.346309 0.3380 0.3330 0.3270 0.3050 0.2930
3.380000 0.2880 0.2870 0.2880 0.2900 0.3220
3.413309 0.3830 0.4120 0.4150 0.4150 0.4140
3.446000 0.4120 0.4100 0.4120 0.4690 0.5000
3.479309 0.5300 0.5770 0.6320 0.7710 0.7960
3.513000 0.8230 0.8340 0.8510 0.8660 0.8780
3.546309 0.8840 0.8990 0.9090 0.9160 0.9230
3.579000 0.9240 0.9280 0.9330 0.9360 0.9390
3.612309 0.9410 0.9430 0.9460 0.9480 0.9480
3.646000 0.9480 0.9480 0.9480 0.9480 0.9490
3.679309 0.9490 0.9490 0.9490 0.9490 0.9490
3.712000 0.9490 0.9510 0.9510 0.9510 0.9510
3.745309 0.9510 0.9510 0.9510 0.9530 0.9530
3.779000 0.9530 0.9530 0.9530 0.9530 0.9540
3.812309 0.9530 0.9530 0.9530 0.9530 0.9530
3.846000 0.9530 0.9530 0.9530 0.9540 0.9580
3.879309 0.9590 0.9610 0.9610 0.9630 0.9630
3.912000 0.9630 0.9630 0.9630 0.9630 0.9630
3.945309 0.9630 0.9630 0.9630 0.9630 0.9630
3.979000 0.9630 0.9640 0.9640 0.9640 0.9640
4.012309 0.9640 0.9640 0.9640 0.9640 0.9640
4.045000 0.9640 0.9630 0.9610 0.9590 0.9590
4.078309 0.9580 0.9560 0.9540 0.9540 0.9530
4.112000 0.9510 0.9510 0.9510 0.9490 0.9480
4.145309 0.9440 0.9440 0.9410 0.9390 0.9360
4.179000 0.9340 0.9330 0.9310 0.9290 0.9260
4.212309 0.9240 0.9240 0.9230 0.9230 0.9230
4.245000 0.9210 0.9210 0.9190 0.9180 0.9160
4.278309 0.9140 0.9140 0.9130 0.9130 0.9130
4.312000 0.9130 0.9130 0.9130 0.9130 0.9140
4.345309 0.9140 0.9140 0.9180 0.9180 0.9180
4.378000 0.9190 0.9190 0.9210 0.9210 0.9230
4.411309 0.9230 0.9240 0.9240 0.9260 0.9240
4.445000 0.9240 0.9240 0.9240 0.9240 0.9260
4.478309 0.9260 0.9260 0.9260 0.9260 0.9260
4.512000 0.9260 0.9240 0.9240 0.9240 0.9240
4.545309 0.9240 0.9240 0.9230 0.9230 0.9230
4.578000 0.9230 0.9240 0.9240 0.9240 0.9230
4.611309 0.9230 0.9230 0.9230 0.9240 0.9240
4.645000 0.9240 0.9240 0.9240 0.9240 0.9240
4.678309 0.9240 0.9240 0.9240 0.9240 0.9240
4.711000 0.9240 0.9240 0.9240 0.9240 0.9240
4.744309 0.9240 0.9240 0.9240 0.9240 0.9280
4.778000 0.9280 0.9280 0.9280 0.9280 0.9290
4.811309 0.9310 0.9310 0.9310 0.9310 0.9310
4.844000 0.9330 0.9330 0.9330 0.9330 0.9340
4.877309 0.9340 0.9340 0.9340 0.9340 0.9340
4.911000 0.9340 0.9340 0.9340 0.9340 0.9340
4.944309 0.9340 0.9340 0.9340 0.9360 0.9360
4.978000 0.9360 0.9360 0.9360 0.9360 0.9360
5.011309 0.9360 0.9360 0.9360 0.9360 0.9380
5.044000 0.9380 0.9390 0.9410 0.9410 0.9410
5.077309 0.9430 0.9430 0.9440 0.9440 0.9430
5.111000 0.9430 0.9440 0.9440 0.9440 0.9460
5.144309 0.9460 0.9490 0.9490 0.9510 0.9510
5.177000 0.9510 0.9530 0.9510 0.9510 0.9510
5.210309 0.9510 0.9510 0.9530 0.9530 0.9530
5.244000 0.9530 0.9530 0.9530 0.9530 0.9530
5.277309 0.9540 0.9540 0.9540 0.9540 0.9540
5.311000 0.9540 0.9540 0.9540 0.9540 0.9560
5.344309 0.9560 0.9560 0.9560 0.9540 0.9560
5.377000 0.9560 0.9560 0.9590 0.9590 0.9590
5.410309 0.9610 0.9630 0.9630 0.9630 0.9640
5.444000 0.9640 0.9640 0.9640 0.9630 0.9630
5.477309 0.9630 0.9630 0.9630 0.9640 0.9640
5.510000 0.9640 0.9640 0.9640 0.9660 0.9680
5.543309 0.9690 0.9690 0.9690 0.9690 0.9690
5.577000 0.9710 0.9710 0.9710 0.9710 0.9690
5.610309 0.9690 0.9710 0.9730 0.9730 0.9730
5.643000 0.9730 0.9730 0.9730 0.9710 0.9710
5.676309 0.9730 0.9730 0.9730 0.9730 0.9710
5.710000 0.9710 0.9710 0.9710 0.9710 0.9710
5.743309 0.9710 0.9690 0.9690 0.9690 0.9690
5.777000 0.9690 0.9690 0.9690 0.9690 0.9680
5.810309 0.9660 0.9640 0.9630 0.9630 0.9630
5.843000 0.9610 0.9610 0.9590 0.9560 0.9540
5.876309 0.9540 0.9540 0.9540 0.9530 0.9490
5.910000 0.9490 0.9430 0.9410 0.9360 0.9310
5.943309 0.9230 0.9230 0.9190 0.9180 0.9130
5.976000 0.9060 0.8990 0.8910 0.8830 0.8710
6.009309 0.8580 0.8380 0.8190 0.8010 0.7990
6.043000 0.7970 0.7960 0.7910 0.7860 0.7790
6.076309 0.7710 0.7660 0.7570 0.7510 0.7410
6.110000 0.7270 0.7140 0.6990 0.6910 0.6820
6.143309 0.6810 0.6820 0.6890 0.6940 0.7020
6.176000 0.7110 0.7210 0.7270 0.7360 0.7410
6.209309 0.7510 0.7570 0.7670 0.7710 0.7860
6.243000 0.7990 0.8130 0.8260 0.8310 0.8360
6.276309 0.8460 0.8490 0.8510 0.8560 0.8610
6.309000 0.8640 0.8680 0.8690 0.8730 0.8740
6.342309 0.8780 0.8830 0.8840 0.8880 0.8910
6.376000 0.8910 0.8930 0.8930 0.8940 0.8960
6.409309 0.8990 0.9040 0.9040 0.9040 0.9090
6.442000 0.9130 0.9160 0.9190 0.9230 0.9230
6.475309 0.9230 0.9240 0.9240 0.9240 0.9230
6.509000 0.9240 0.9240 0.9260 0.9260 0.9260
6.542309 0.9290 0.9310 0.9330 0.9330 0.9340
6.576000 0.9340 0.9340 0.9340 0.9340 0.9360
6.609309 0.9360 0.9360 0.9360 0.9390 0.9390
6.642000 0.9430 0.9410 0.9410 0.9410 0.9410
6.675309 0.9410 0.9390 0.9390 0.9380 0.9340
6.709000 0.9330 0.9310 0.9280 0.9240 0.9140
6.742309 0.9010 0.8960 0.8760 0.8560 0.8390
6.775000 0.8190 0.7890 0.7640 0.7310 0.7190
6.808309 0.7090 0.7010 0.7010 0.7010 0.7020
6.842000 0.7070 0.7140 0.7260 0.7340 0.7420
6.875309 0.7490 0.7520 0.7590 0.7690 0.7820
6.909000 0.7960 0.7990 0.8080 0.8140 0.8230
6.942309 0.8340 0.8490 0.8540 0.8630 0.8760
6.975000 0.8830 0.8840 0.8880 0.8890 0.8980
7.008309 0.9010 0.9060 0.9060 0.9090 0.9130
7.042000 0.9140 0.9180 0.9190 0.9210 0.9230
7.075309 0.9230 0.9260 0.9280 0.9290 0.9290
7.108000 0.9290 0.9290 0.9290 0.9280 0.9280
7.141309 0.9240 0.9210 0.9180 0.9140 0.9090
7.175000 0.9040 0.8960 0.8590 0.8440 0.8040
7.208309 0.7890 0.7870 0.7870 0.7910 0.8040
7.242000 0.8110 0.8190 0.8260 0.8290 0.8380
7.275309 0.8430 0.8560 0.8610 0.8660 0.8740
7.308000 0.8790 0.8830 0.8880 0.8980 0.9030
7.341309 0.9080 0.9090 0.9110 0.9140 0.9180
7.375000 0.9190 0.9190 0.9190 0.9190 0.9190
7.408309 0.9190 0.9190 0.9210 0.9210 0.9210
7.441000 0.9230 0.9230 0.9230 0.9240 0.9240
7.474309 0.9260 0.9280 0.9260 0.9280 0.9280
7.508000 0.9280 0.9290 0.9290 0.9310 0.9310
7.541309 0.9310 0.9310 0.9310 0.9310 0.9310
7.574000 0.9310 0.9310 0.9330 0.9330 0.9330
7.607309 0.9330 0.9330 0.9330 0.9330 0.9330
7.641000 0.9330 0.9330 0.9330 0.9330 0.9330
7.674309 0.9330 0.9330 0.9330 0.9310 0.9310
7.708000 0.9310 0.9290 0.9280 0.9240 0.9240
7.741309 0.9240 0.9240 0.9240 0.9260 0.9280
7.774000 0.9280 0.9280 0.9280 0.9280 0.9280
7.807309 0.9280 0.9280 0.9260 0.9240 0.9240
7.841000 0.9230 0.9230 0.9230 0.9210 0.9210
7.874309 0.9190 0.9190 0.9180 0.9180 0.9160
7.907000 0.9140 0.9160 0.9160 0.9140 0.9130
7.940309 0.9130 0.9130 0.9130 0.9130 0.9130
7.974000 0.9130 0.9140 0.9160 0.9160 0.9160
8.007309 0.9140 0.9140 0.9130 0.9130 0.9090
8.041000 0.9060 0.9040 0.9030 0.8990 0.8990
8.074309 0.8980 0.8960 0.8960 0.8940 0.8940
8.107000 0.8940 0.8930 0.8910 0.8880 0.8860
8.140309 0.8840 0.8830 0.8810 0.8810 0.8790
8.174000 0.8760 0.8760 0.8730 0.8710 0.8660
8.207309 0.8660 0.8610 0.8590 0.8560 0.8530
8.240000 0.8510 0.8490 0.8440 0.8410 0.8390
8.273309 0.8360 0.8310 0.8260 0.8230 0.8190
8.307000 0.8140 0.8090 0.8040 0.8030 0.8010
8.340309 0.7990 0.7970 0.7910 0.7820 0.7770
8.373000 0.7710 0.7690 0.7590 0.7540 0.7460
8.406309 0.7340 0.7240 0.7210 0.7120 0.7090
8.440000 0.7010 0.6960 0.6870 0.6690 0.6620
8.473309 0.6540 0.6420 0.6270 0.6160 0.6020
8.507000 0.5940 0.5850 0.5720 0.5650 0.5520
8.540309 0.5370 0.5220 0.5090 0.4950 0.4850
8.573000 0.4770 0.4690 0.4590 0.4540 0.4450
8.606309 0.4320 0.4270 0.4240 0.4150 0.4100
8.640000 0.4070 0.4020 0.4000 0.3980 0.3950
8.673309 0.3920 0.3880 0.3880 0.3870 0.3850
8.706000 0.3830 0.3800 0.3800 0.3780 0.3780
8.739309 0.3780 0.3770 0.3770 0.3750 0.3750
8.773000 0.3730 0.3730 0.3720 0.3720 0.3700
8.806309 0.3670 0.3650 0.3630 0.3630 0.3620
8.840000 0.3600 0.3570 0.3530 0.3520 0.3500
8.873309 0.3470 0.3450 0.3430 0.3420 0.3420
8.906000 0.3400 0.3370 0.3330 0.3320 0.3300
8.939309 0.3280 0.3230 0.3220 0.3200 0.3180
8.973000 0.3150 0.3120 0.3100 0.3080 0.3050
9.006309 0.3020 0.2980 0.2980 0.2970 0.2970
9.039000 0.2930 0.2920 0.2900 0.2870 0.2870
9.072309 0.2850 0.2850 0.2830 0.2830 0.2820
9.106000 0.2780 0.2770 0.2770 0.2750 0.2750
9.139309 0.2750 0.2730 0.2730 0.2730 0.2720
9.173000 0.2700 0.2700 0.2680 0.2680 0.2670
9.206309 0.2670 0.2670 0.2670 0.2670 0.2670
9.239000 0.2670 0.2670 0.2680 0.2680 0.2680
9.272309 0.2700 0.2700 0.2720 0.2730 0.2730
9.306000 0.2730 0.2750 0.2780 0.2800 0.2820
9.339309 0.2830 0.2850 0.2880 0.2920 0.2950
9.372000 0.2950 0.2970 0.2980 0.3000 0.3020
9.405309 0.3030 0.3050 0.3100 0.3150 0.3200
9.439000 0.3250 0.3280 0.3470 0.3480 0.3580
9.472309 0.3670 0.3720 0.3770 0.3820 0.3850
9.505000 0.3900 0.3980 0.4020 0.4120 0.4170
9.538309 0.4250 0.4290 0.4320 0.4390 0.4470
9.572000 0.4520 0.4550 0.4600 0.4720 0.4790
9.605309 0.4840 0.4970 0.5000 0.5040 0.5050
9.639000 0.5120 0.5170 0.5240 0.5300 0.5390
9.672309 0.5490 0.5520 0.5570 0.5640 0.5700
9.705000 0.5750 0.5790 0.5840 0.5900 0.6010
9.738309 0.6010 0.6040 0.6160 0.6210 0.6240
9.772000 0.6270 0.6320 0.6360 0.6370 0.6420
9.805309 0.6510 0.6540 0.6560 0.6610 0.6610
9.838000 0.6640 0.6720 0.6770 0.6820 0.6840
9.871309 0.6920 0.6960 0.6990 0.7010 0.7020
9.905000 0.7040 0.7090 0.7120 0.7140 0.7160
9.938309 0.7160 0.7190 0.7190 0.7220 0.7240
9.972000 0.7270 0.7310 0.7320 0.7340 0.7340
10.005309 0.7340 0.7340 0.7340 0.7320 0.7320
10.038000 0.7310 0.7290 0.7290 0.7260 0.7260
10.071309 0.7260 0.7260 0.7270 0.7290 0.7310
10.105000 0.7340 0.7360 0.7390 0.7390 0.7410
10.138309 0.7420 0.7440 0.7460 0.7490 0.7510
10.171000 0.7520 0.7540 0.7540 0.7590 0.7620
10.204309 0.7660 0.7660 0.7690 0.7710 0.7720
10.238000 0.7740 0.7740 0.7760 0.7790 0.7790
10.271309 0.7810 0.7820 0.7840 0.7840 0.7840
10.304000 0.7840 0.7860 0.7820 0.7840 0.7860
10.337309 0.7890 0.7920 0.7940 0.7960 0.7960
10.371000 0.7970 0.7970 0.7970 0.7990 0.7990
10.404309 0.8010 0.8010 0.8010 0.8030 0.8030
10.438000 0.8010 0.8030 0.8040 0.8080 0.8090
10.471309 0.8110 0.8130 0.8130 0.8130 0.8140
10.504000 0.8140 0.8140 0.8160 0.8180 0.8190
10.537309 0.8190 0.8210 0.8210 0.8230 0.8280
10.571000 0.8310 0.8330 0.8360 0.8360 0.8390
10.604309 0.8430 0.8440 0.8480 0.8490 0.8490
10.637000 0.8510 0.8530 0.8530 0.8530 0.8530
10.670309 0.8540 0.8540 0.8580 0.8590 0.8610
10.704000 0.8610 0.8630 0.8630 0.8630 0.8640
10.737309 0.8640 0.8680 0.8690 0.8690 0.8710
10.771000 0.8730 0.8730 0.8730 0.8730 0.8740
10.804309 0.8790 0.8790 0.8790 0.8810 0.8810
10.837000 0.8830 0.8830 0.8830 0.8860 0.8860
10.870309 0.8880 0.8890 0.8910 0.8910 0.8930
10.904000 0.8930 0.8940 0.8940 0.8960 0.8980
10.937309 0.8980 0.8990 0.8990 0.9010 0.9010
10.970000 0.9030 0.9030 0.9040 0.9040 0.9060
11.003309 0.9080 0.9090 0.9110 0.9130 0.9130
11.037000 0.9140 0.9140 0.9140 0.9160 0.9180
11.070309 0.9180 0.9190 0.9190 0.9210 0.9210
11.104000 0.9210 0.9230 0.9230 0.9230 0.9230
11.137309 0.9240 0.9240 0.9240 0.9240 0.9240
11.170000 0.9240 0.9240 0.9240 0.9260 0.9280
11.203309 0.9280 0.9290 0.9310 0.9310 0.9310
11.237000 0.9330 0.9330 0.9330 0.9340 0.9340
11.270309 0.9340 0.9340 0.9340 0.9340 0.9340
11.303000 0.9360 0.9360 0.9390 0.9390 0.9410
11.336309 0.9410 0.9410 0.9430 0.9430 0.9430
11.370000 0.9440 0.9440 0.9440 0.9460 0.9460
11.403309 0.9460 0.9480 0.9480 0.9480 0.9480
11.436000 0.9490 0.9490 0.9510 0.9490 0.9490
11.469309 0.9490 0.9490 0.9490 0.9490 0.9510
11.503000 0.9510 0.9510 0.9510 0.9510 0.9510
11.536309 0.9490 0.9490 0.9510 0.9510 0.9510
11.570000 0.9510 0.9510 0.9510 0.9510 0.9490
11.603309 0.9510 0.9510 0.9510 0.9510 0.9510
11.636000 0.9510 0.9510 0.9510 0.9510 0.9510
11.669309 0.9510 0.9510 0.9510 0.9510 0.9510
11.703000 0.9530 0.9530 0.9530 0.9530 0.9530
11.736309 0.9530 0.9530 0.9540 0.9540 0.9540
11.769000 0.9540 0.9540 0.9540 0.9540 0.9540
11.802309 0.9540 0.9540 0.9540 0.9540 0.9540
11.836000 0.9540 0.9540 0.9540 0.9560 0.9560
11.869309 0.9560 0.9560 0.9560 0.9560 0.9560
11.903000 0.9560 0.9560 0.9560 0.9560 0.9560
11.936309 0.9560 0.9560 0.9560 0.9580 0.9590
11.969000 0.9590 0.9610 0.9610 0.9590 0.9610
12.002309 0.9610 0.9610 0.9630 0.9630 0.9630
12.036000 0.9630 0.9630 0.9630 0.9630 0.9630
12.069309 0.9630 0.9630 0.9610 0.9610 0.9610
12.102000 0.9630 0.9630 0.9630 0.9610 0.9610
12.135309 0.9610 0.9630 0.9630 0.9630 0.9630
12.169000 0.9630 0.9640 0.9640 0.9640 0.9630
12.202309 0.9630 0.9640 0.9640 0.9640 0.9640
12.235000 0.9630 0.9630 0.9630 0.9630 0.9610
12.268309 0.9610 0.9610 0.9610 0.9590 0.9590
12.302000 0.9580 0.9560 0.9540 0.9540 0.9540
12.335309 0.9540 0.9530 0.9510 0.9510 0.9510
12.369000 0.9510 0.9510 0.9510 0.9490 0.9490
12.402309 0.9490 0.9490 0.9490 0.9490 0.9490
12.435000 0.9510 0.9510 0.9490 0.9490 0.9490
12.468309 0.9510 0.9490 0.9490 0.9490 0.9490
12.502000 0.9490 0.9490 0.9490 0.9490 0.9460
12.535309 0.9440 0.9440 0.9440 0.9430 0.9430
12.568000 0.9410 0.9410 0.9410 0.9380 0.9380
12.601309 0.9360 0.9380 0.9360 0.9360 0.9360
12.635000 0.9360 0.9340 0.9330 0.9330 0.9330
12.668309 0.9310 0.9280 0.9260 0.9240 0.9240
12.702000 0.9240 0.9240 0.9230 0.9230 0.9210
12.735309 0.9210 0.9210 0.9210 0.9190 0.9190
12.768000 0.9180 0.9180 0.9180 0.9140 0.9160
12.801309 0.9140 0.9140 0.9140 0.9130 0.9130
12.835000 0.9130 0.9130 0.9130 0.9130 0.9130
12.868309 0.9110 0.9080 0.9060 0.9040 0.9040
12.901000 0.9010 0.9030 0.9030 0.9010 0.9010
12.934309 0.9010 0.9010 0.9010 0.8990 0.8990
12.968000 0.8990 0.8990 0.8980 0.8980 0.8960
13.001309 0.8930 0.8930 0.8910 0.8890 0.8890
13.035000 0.8890 0.8840 0.8840 0.8840 0.8840
13.068309 0.8840 0.8840 0.8830 0.8810 0.8810
13.101000 0.8790 0.8780 0.8760 0.8740 0.8740
13.134309 0.8740 0.8740 0.8740 0.8740 0.8740
13.168000 0.8740 0.8710 0.8710 0.8690 0.8690
13.201309 0.8690 0.8640 0.8630 0.8590 0.8590
13.234000 0.8560 0.8540 0.8540 0.8540 0.8540
13.267309 0.8530 0.8490 0.8480 0.8440 0.8440
13.301000 0.8430 0.8410 0.8390 0.8380 0.8360
13.334309 0.8340 0.8330 0.8310 0.8290 0.8280
13.367000 0.8240 0.8230 0.8230 0.8210 0.8190
13.400309 0.8180 0.8140 0.8130 0.8090 0.8060
13.434000 0.8030 0.7990 0.7940 0.7940 0.7920
13.467309 0.7910 0.7910 0.7890 0.7890 0.7890
13.501000 0.7870 0.7860 0.7820 0.7810 0.7790
13.534309 0.7770 0.7770 0.7760 0.7740 0.7740
13.567000 0.7720 0.7710 0.7670 0.7660 0.7640
13.600309 0.7620 0.7620 0.7620 0.7610 0.7610
13.634000 0.7610 0.7590 0.7590 0.7540 0.7540
13.667309 0.7540 0.7520 0.7510 0.7490 0.7470
13.700000 0.7470 0.7440 0.7420 0.7420 0.7410
13.733309 0.7370 0.7320 0.7310 0.7290 0.7290
13.767000 0.7260 0.7260 0.7240 0.7240 0.7220
13.800309 0.7190 0.7190 0.7160 0.7140 0.7140
13.834000 0.7120 0.7110 0.7110 0.7090 0.7090
13.867309 0.7090 0.7090 0.7070 0.7070 0.7070
13.900000 0.7060 0.7060 0.7060 0.7040 0.7040
13.933309 0.7020 0.7040 0.7020 0.7020 0.7020
13.967000 0.7010 0.6990 0.6970 0.6970 0.6960
14.000309 0.6960 0.6940 0.6920 0.6910 0.6910
14.033000 0.6890 0.6870 0.6870 0.6860 0.6870
14.066309 0.6870 0.6870 0.6890 0.6870 0.6870
14.100000 0.6860 0.6840 0.6820 0.6820 0.6820
14.133309 0.6820 0.6810 0.6810 0.6790 0.6790
14.166000 0.6790 0.6770 0.6770 0.6770 0.6770
14.199309 0.6760 0.6760 0.6740 0.6740 0.6740
14.233000 0.6740 0.6740 0.6720 0.6720 0.6710
14.266309 0.6710 0.6710 0.6710 0.6710 0.6710
14.300000 0.6690 0.6670 0.6670 0.6670 0.6660
14.333309 0.6640 0.6640 0.6620 0.6620 0.6620
14.366000 0.6620 0.6620 0.6620 0.6620 0.6610
14.399309 0.6610 0.6620 0.6620 0.6610 0.6610
14.433000 0.6590 0.6570 0.6570 0.6560 0.6570
14.466309 0.6570 0.6560 0.6560 0.6540 0.6520
14.499000 0.6520 0.6510 0.6510 0.6510 0.6490
14.532309 0.6470 0.6460 0.6470 0.6470 0.6470
14.566000 0.6470 0.6470 0.6490 0.6490 0.6490
14.599309 0.6490 0.6490 0.6490 0.6490 0.6470
14.633000 0.6470 0.6470 0.6460 0.6440 0.6420
14.666309 0.6410 0.6390 0.6370 0.6360 0.6340
14.699000 0.6340 0.6340 0.6360 0.6360 0.6360
14.732309 0.6340 0.6340 0.6360 0.6360 0.6360
14.766000 0.6370 0.6370 0.6390 0.6370 0.6370
14.799309 0.6370 0.6390 0.6410 0.6410 0.6420
14.832000 0.6420 0.6440 0.6440 0.6440 0.6420
14.865309 0.6420 0.6410 0.6370 0.6340 0.6320
14.899000 0.6310 0.6310 0.6290 0.6290 0.6270
14.932309 0.6270 0.6270 0.6270 0.6260 0.6260
14.965000 0.6240 0.6240 0.6220 0.6220 0.6220
14.998309 0.6220 0.6220 0.6220 0.6220 0.6210
15.032000 0.6220 0.6210 0.6210 0.6190 0.6190
15.065309 0.6190 0.6190 0.6190 0.6190 0.6190
15.099000 0.6170 0.6170 0.6170 0.6160 0.6160
15.132309 0.6160 0.6160 0.6160 0.6160 0.6160
15.165000 0.6160 0.6160 0.6160 0.6160 0.6140
15.198309 0.6140 0.6140 0.6120 0.6140 0.6140
15.232000 0.6140 0.6140 0.6140 0.6140 0.6120
15.265309 0.6120 0.6120 0.6120 0.6120 0.6120
15.298000 0.6120 0.6110 0.6120 0.6120 0.6120
15.331309 0.6110 0.6110 0.6120 0.6120 0.6120
15.365000 0.6120 0.6120 0.6120 0.6120 0.6120
15.398309 0.6120 0.6120 0.6120 0.6110 0.6110
15.432000 0.6110 0.6110 0.6110 0.6110 0.6110
15.465309 0.6110 0.6120 0.6120 0.6120 0.6120
15.498000 0.6120 0.6120 0.6120 0.6120 0.6120
15.531309 0.6120 0.6140 0.6170 0.6190 0.6190
15.565000 0.6190 0.6190 0.6190 0.6190 0.6190
15.598309 0.6210 0.6220 0.6220 0.6220 0.6220
15.631000 0.6220 0.6240 0.6240 0.6260 0.6270
15.664309 0.6270 0.6290 0.6310 0.6320 0.6320
15.698000 0.6320 0.6340 0.6340 0.6370 0.6390
15.731309 0.6410 0.6410 0.6420 0.6440 0.6470
15.765000 0.6510 0.6520 0.6520 0.6520 0.6540
15.798309 0.6540 0.6570 0.6590 0.6610 0.6620
15.831000 0.6620 0.6620 0.6640 0.6660 0.6690
15.864309 0.6710 0.6710 0.6720 0.6740 0.6790
15.898000 0.6790 0.6790 0.6790 0.6790 0.6790
15.931309 0.6790 0.6790 0.6810 0.6840 0.6860
15.964000 0.6860 0.6870 0.6870 0.6890 0.6870
15.997309 0.6870
##END=
