##TITLE=2-(2,2,4-TRIMETHYLPENTOXY)-3-(n-PENTYL) PYRAZINE
##JCAMP-DX=4.24
##DATA TYPE=INFRARED SPECTRUM
##CLASS=COBLENTZ
##ORIGIN=WYANDOTTE CHEMICALS CORP., WYANDOTTE, MICHIGAN, USA
##OWNER=COBLENTZ SOCIETY
Collection (C) 2018 copyright by the U.S. Secretary of Commerce
on behalf of the United States of America. All rights reserved.
##DATE=Not specified, most likely prior to 1970
##NAMES=3-pentyl-2-pyrazinyl 2,2,4-trimethylpentyl ether
2-pentyl-3-[(2,2,4-trimethylpentyl)oxy]pyrazine
##MOLFORM=C17 H30 N2 O
##SOURCE REFERENCE=COBLENTZ NO. 3302
##$NIST ID=B6003302
##$NIST SOURCE=COBLENTZ
##$NIST IMAGE=cob3302
##SPECTROMETER/DATA SYSTEM=Not specified, most likely a prism, grating, or hybrid spectrometer.
##STATE=LIQUID
##PATH LENGTH=0.003 CM
##SAMPLING PROCEDURE=TRANSMISSION
##RESOLUTION=4
##DATA PROCESSING=DIGITIZED BY NIST FROM HARD COPY
##XUNITS=MICROMETERS
##YUNITS=TRANSMITTANCE
##XFACTOR=1.000000
##YFACTOR=1
##DELTAX=000.006816
##FIRSTX=2.014
##LASTX=15.9928
##FIRSTY=0.984
##MAXX=15.9928
##MINX=2.014
##MAXY=0.984
##MINY=0.052
##NPOINTS=2052
##XYDATA=(X++(Y..Y))
2.014000 0.9840 0.9840 0.9820 0.9820 0.9810
2.048096 0.9810 0.9790 0.9760 0.9760 0.9740
2.082000 0.9740 0.9720 0.9720 0.9670 0.9650
2.116096 0.9640 0.9640 0.9620 0.9600 0.9590
2.150000 0.9450 0.9400 0.9350 0.9240 0.9210
2.184096 0.9160 0.9160 0.9120 0.9110 0.9070
2.218000 0.9070 0.9040 0.8990 0.8970 0.8900
2.252096 0.8870 0.8870 0.8890 0.8900 0.8940
2.286000 0.8970 0.9010 0.9020 0.9040 0.9070
2.320096 0.9070 0.9110 0.9140 0.9140 0.9140
2.354000 0.9140 0.9120 0.9120 0.9120 0.9140
2.388096 0.9160 0.9190 0.9240 0.9260 0.9280
2.423000 0.9280 0.9280 0.9260 0.9240 0.9230
2.457096 0.9210 0.9230 0.9260 0.9300 0.9330
2.491000 0.9350 0.9360 0.9380 0.9380 0.9380
2.525096 0.9380 0.9380 0.9380 0.9400 0.9410
2.559000 0.9410 0.9410 0.9410 0.9410 0.9430
2.593096 0.9450 0.9470 0.9480 0.9520 0.9530
2.627000 0.9530 0.9570 0.9570 0.9590 0.9590
2.661096 0.9590 0.9590 0.9570 0.9570 0.9570
2.695000 0.9570 0.9570 0.9550 0.9550 0.9530
2.729096 0.9530 0.9520 0.9500 0.9480 0.9450
2.763000 0.9410 0.9380 0.9380 0.9330 0.9300
2.797096 0.9260 0.9260 0.9230 0.9210 0.9190
2.832000 0.9180 0.9120 0.9110 0.9090 0.9090
2.866096 0.9070 0.9060 0.9060 0.9020 0.9020
2.900000 0.9020 0.9020 0.9010 0.8920 0.8870
2.934096 0.8850 0.8820 0.8820 0.8800 0.8800
2.968000 0.8780 0.8770 0.8770 0.8750 0.8750
3.002096 0.8730 0.8730 0.8730 0.8730 0.8730
3.036000 0.8730 0.8730 0.8720 0.8720 0.8720
3.070096 0.8700 0.8700 0.8650 0.8600 0.8530
3.104000 0.8460 0.8370 0.8320 0.8320 0.8290
3.138096 0.8290 0.8250 0.8250 0.8240 0.8220
3.172000 0.8220 0.8240 0.8270 0.8290 0.8290
3.206096 0.8220 0.8170 0.8050 0.7880 0.7450
3.241000 0.6700 0.5200 0.4770 0.4770 0.5170
3.275096 0.6190 0.6310 0.6310 0.5900 0.4840
3.309000 0.3890 0.2730 0.1720 0.0950 0.0580
3.343096 0.0520 0.0520 0.0560 0.0590 0.0610
3.377000 0.0610 0.0610 0.0630 0.0630 0.0640
3.411096 0.0660 0.0680 0.0690 0.0710 0.0730
3.445000 0.0730 0.0730 0.0750 0.0830 0.1000
3.479096 0.1380 0.1750 0.2160 0.2660 0.3270
3.513000 0.3870 0.4450 0.5010 0.5510 0.5970
3.547096 0.6330 0.6620 0.6800 0.7010 0.7160
3.581000 0.7210 0.7400 0.7550 0.7640 0.7670
3.615096 0.7710 0.7730 0.7740 0.7730 0.7690
3.649000 0.7670 0.7610 0.7590 0.7570 0.7610
3.683096 0.7710 0.7790 0.7900 0.8000 0.8100
3.718000 0.8120 0.8130 0.8200 0.8240 0.8250
3.752096 0.8270 0.8290 0.8310 0.8320 0.8340
3.786000 0.8360 0.8390 0.8430 0.8480 0.8560
3.820096 0.8600 0.8610 0.8630 0.8630 0.8650
3.854000 0.8650 0.8650 0.8650 0.8660 0.8680
3.888096 0.8680 0.8700 0.8700 0.8720 0.8730
3.922000 0.8770 0.8780 0.8800 0.8890 0.8920
3.956096 0.8950 0.8970 0.8990 0.8990 0.8970
3.990000 0.8970 0.8920 0.8870 0.8800 0.8770
4.024096 0.8700 0.8680 0.8680 0.8680 0.8680
4.058000 0.8680 0.8700 0.8700 0.8720 0.8780
4.092096 0.8780 0.8800 0.8820 0.8830 0.8850
4.127000 0.8850 0.8870 0.8890 0.8890 0.8900
4.161096 0.8900 0.8900 0.8900 0.8890 0.8890
4.195000 0.8890 0.8890 0.8890 0.8900 0.8900
4.229096 0.8920 0.8940 0.8990 0.8990 0.8990
4.263000 0.8970 0.8950 0.8950 0.8950 0.8940
4.297096 0.8940 0.8940 0.8940 0.8940 0.8950
4.331000 0.8950 0.8950 0.8970 0.8990 0.9020
4.365096 0.9060 0.9090 0.9110 0.9110 0.9110
4.399000 0.9110 0.9070 0.9070 0.9090 0.9110
4.433096 0.9120 0.9120 0.9140 0.9140 0.9140
4.467000 0.9140 0.9140 0.9160 0.9180 0.9190
4.501096 0.9190 0.9190 0.9190 0.9190 0.9180
4.536000 0.9180 0.9160 0.9160 0.9160 0.9140
4.570096 0.9140 0.9120 0.9120 0.9120 0.9210
4.604000 0.9210 0.9190 0.9190 0.9120 0.9110
4.638096 0.9110 0.9110 0.9110 0.9120 0.9180
4.672000 0.9190 0.9190 0.9190 0.9210 0.9210
4.706096 0.9210 0.9180 0.9180 0.9210 0.9240
4.740000 0.9310 0.9310 0.9350 0.9360 0.9380
4.774096 0.9400 0.9400 0.9410 0.9410 0.9410
4.808000 0.9430 0.9450 0.9450 0.9480 0.9480
4.842096 0.9500 0.9500 0.9500 0.9520 0.9500
4.876000 0.9480 0.9430 0.9410 0.9410 0.9430
4.910096 0.9500 0.9500 0.9430 0.9400 0.9330
4.944000 0.9310 0.9310 0.9330 0.9330 0.9330
4.978096 0.9310 0.9310 0.9300 0.9300 0.9300
5.013000 0.9300 0.9300 0.9300 0.9310 0.9330
5.047096 0.9310 0.9230 0.9230 0.9310 0.9310
5.081000 0.9400 0.9400 0.9330 0.9330 0.9330
5.115096 0.9350 0.9350 0.9380 0.9360 0.9360
5.149000 0.9400 0.9410 0.9430 0.9450 0.9430
5.183096 0.9410 0.9380 0.9360 0.9350 0.9330
5.217000 0.9330 0.9330 0.9350 0.9350 0.9360
5.251096 0.9380 0.9360 0.9310 0.9300 0.9230
5.285000 0.9210 0.9190 0.9120 0.9070 0.9070
5.319096 0.9060 0.9070 0.9120 0.9160 0.9210
5.353000 0.9260 0.9310 0.9400 0.9410 0.9410
5.387096 0.9430 0.9410 0.9410 0.9470 0.9480
5.422000 0.9500 0.9500 0.9500 0.9500 0.9480
5.456096 0.9470 0.9430 0.9430 0.9430 0.9430
5.490000 0.9430 0.9430 0.9410 0.9400 0.9380
5.524096 0.9380 0.9310 0.9310 0.9280 0.9260
5.558000 0.9260 0.9230 0.9230 0.9260 0.9260
5.592096 0.9190 0.9090 0.8950 0.8800 0.8750
5.626000 0.8750 0.8780 0.8820 0.8900 0.8920
5.660096 0.8970 0.9060 0.9190 0.9210 0.9240
5.694000 0.9280 0.9280 0.9240 0.9230 0.9190
5.728096 0.9190 0.9180 0.9140 0.9120 0.9120
5.762000 0.9060 0.8900 0.8870 0.8870 0.8890
5.796096 0.8890 0.8870 0.8850 0.8800 0.8800
5.831000 0.8780 0.8750 0.8700 0.8680 0.8680
5.865096 0.8610 0.8530 0.8460 0.8390 0.8370
5.899000 0.8320 0.8360 0.8390 0.8360 0.8320
5.933096 0.8270 0.8240 0.8220 0.8220 0.8220
5.967000 0.8220 0.8220 0.8220 0.8220 0.8240
6.001096 0.8240 0.8240 0.8240 0.8240 0.8240
6.035000 0.8240 0.8220 0.8220 0.8220 0.8220
6.069096 0.8220 0.8220 0.8220 0.8200 0.8170
6.103000 0.8170 0.8190 0.8190 0.8190 0.8190
6.137096 0.8200 0.8190 0.8190 0.8190 0.8130
6.171000 0.8100 0.8030 0.8020 0.8020 0.7980
6.205096 0.7860 0.7760 0.7670 0.7550 0.7380
6.240000 0.7110 0.6940 0.6550 0.6160 0.5880
6.274096 0.5590 0.5510 0.5510 0.5660 0.5850
6.308000 0.6090 0.6380 0.6620 0.6740 0.6820
6.342096 0.6840 0.6820 0.6800 0.6720 0.6510
6.376000 0.6090 0.5540 0.4860 0.4160 0.3490
6.410096 0.2950 0.2570 0.2300 0.2060 0.1820
6.444000 0.1620 0.1330 0.1260 0.1260 0.1310
6.478096 0.1770 0.2370 0.2790 0.3200 0.3600
6.512000 0.3900 0.4190 0.4470 0.5030 0.5610
6.546096 0.6070 0.6430 0.6550 0.6630 0.6700
6.580000 0.6720 0.6790 0.6800 0.6840 0.6820
6.614096 0.6790 0.6750 0.6720 0.6680 0.6600
6.648000 0.6460 0.6310 0.6210 0.5950 0.5490
6.682096 0.5000 0.4570 0.4110 0.3240 0.2620
6.717000 0.2210 0.2010 0.1890 0.1800 0.1700
6.751096 0.1430 0.1170 0.1000 0.0930 0.0930
6.785000 0.0930 0.0930 0.0950 0.1020 0.1160
6.819096 0.1210 0.1240 0.1290 0.1290 0.1290
6.853000 0.1330 0.1410 0.1450 0.1500 0.1510
6.887096 0.1500 0.1500 0.1500 0.1450 0.1430
6.921000 0.1310 0.1170 0.1000 0.0870 0.0800
6.955096 0.0710 0.0660 0.0630 0.0610 0.0610
6.989000 0.0630 0.0640 0.0640 0.0630 0.0630
7.023096 0.0610 0.0610 0.0610 0.0630 0.0710
7.057000 0.0760 0.0900 0.1020 0.1260 0.1510
7.091096 0.1770 0.1940 0.2370 0.2520 0.2620
7.126000 0.2690 0.2710 0.2640 0.1920 0.1270
7.160096 0.0880 0.0630 0.0610 0.0610 0.0610
7.194000 0.0610 0.0610 0.0630 0.0830 0.0950
7.228096 0.1140 0.1270 0.1410 0.1560 0.1800
7.262000 0.1840 0.1820 0.1480 0.1270 0.0980
7.296096 0.0970 0.0980 0.1210 0.1360 0.1360
7.330000 0.1310 0.1210 0.1100 0.1020 0.0920
7.364096 0.0830 0.0810 0.0760 0.0750 0.0750
7.398000 0.0750 0.0730 0.0730 0.0730 0.0750
7.432096 0.0760 0.0780 0.0800 0.0800 0.0800
7.466000 0.0830 0.0920 0.1020 0.1100 0.1140
7.500096 0.1210 0.1220 0.1220 0.1210 0.1120
7.535000 0.1000 0.0930 0.0880 0.0830 0.0830
7.569096 0.0830 0.0850 0.0900 0.0920 0.0980
7.603000 0.1070 0.1100 0.1100 0.1090 0.1100
7.637096 0.1100 0.1120 0.1190 0.1210 0.1210
7.671000 0.1210 0.1240 0.1310 0.1340 0.1390
7.705096 0.1430 0.1550 0.1620 0.1720 0.1800
7.739000 0.1820 0.1840 0.1910 0.1970 0.2110
7.773096 0.2200 0.2230 0.2300 0.2400 0.2500
7.807000 0.2640 0.2780 0.2830 0.2900 0.2910
7.841096 0.2950 0.3020 0.3100 0.3200 0.3290
7.875000 0.3310 0.3410 0.3530 0.3720 0.3900
7.909096 0.4010 0.4120 0.4240 0.4360 0.4430
7.944000 0.4500 0.4430 0.4350 0.4210 0.4020
7.978096 0.3890 0.3730 0.3730 0.3820 0.3890
8.012000 0.3950 0.4060 0.4180 0.4310 0.4520
8.046096 0.4720 0.4810 0.4890 0.4930 0.5000
8.080000 0.5030 0.5130 0.5220 0.5320 0.5440
8.114096 0.5560 0.5610 0.5630 0.5640 0.5690
8.148000 0.5690 0.5660 0.5610 0.5510 0.5340
8.182096 0.5200 0.5110 0.4880 0.4650 0.4470
8.216000 0.4280 0.4090 0.3870 0.3610 0.3340
8.250096 0.3120 0.2880 0.2730 0.2710 0.2730
8.284000 0.2810 0.2840 0.3000 0.3170 0.3410
8.318096 0.3560 0.3650 0.3700 0.3700 0.3700
8.352000 0.3650 0.3630 0.3610 0.3540 0.3370
8.386096 0.3220 0.2960 0.2710 0.2400 0.1970
8.421000 0.1720 0.1510 0.1310 0.1040 0.0870
8.455096 0.0810 0.0800 0.0800 0.0800 0.0800
8.489000 0.0750 0.0750 0.0730 0.0730 0.0730
8.523096 0.0730 0.0760 0.0780 0.0800 0.0800
8.557000 0.0800 0.0800 0.0800 0.0800 0.0750
8.591096 0.0750 0.0810 0.0930 0.0980 0.1050
8.625000 0.1120 0.1210 0.1220 0.1240 0.1260
8.659096 0.1290 0.1310 0.1310 0.1310 0.1310
8.693000 0.1310 0.1330 0.1340 0.1410 0.1500
8.727096 0.1600 0.1800 0.2040 0.2280 0.2540
8.761000 0.2880 0.3120 0.3460 0.3730 0.3830
8.795096 0.4070 0.4330 0.4480 0.4650 0.4700
8.830000 0.4720 0.4790 0.4810 0.4820 0.4840
8.864096 0.4890 0.4930 0.4940 0.5010 0.5100
8.898000 0.5150 0.5170 0.5200 0.5250 0.5300
8.932096 0.5340 0.5350 0.5350 0.5320 0.5300
8.966000 0.5220 0.5200 0.5200 0.5200 0.5170
9.000096 0.5130 0.5100 0.5080 0.5050 0.5030
9.034000 0.5000 0.4960 0.4890 0.4690 0.4590
9.068096 0.4520 0.4500 0.4480 0.4480 0.4480
9.102000 0.4430 0.4410 0.4400 0.4380 0.4300
9.136096 0.4280 0.4260 0.4230 0.4210 0.4210
9.170000 0.4190 0.4190 0.4190 0.4190 0.4210
9.204096 0.4240 0.4300 0.4310 0.4350 0.4380
9.239000 0.4410 0.4410 0.4350 0.4310 0.4300
9.273096 0.4310 0.4350 0.4380 0.4400 0.4410
9.307000 0.4500 0.4590 0.4590 0.4590 0.4500
9.341096 0.4430 0.4410 0.4400 0.4360 0.4350
9.375000 0.4330 0.4380 0.4410 0.4570 0.4690
9.409096 0.4930 0.5170 0.5230 0.5400 0.5520
9.443000 0.5710 0.5830 0.6000 0.6090 0.6190
9.477096 0.6190 0.6220 0.6290 0.6290 0.6310
9.511000 0.6310 0.6290 0.6210 0.6090 0.6000
9.545096 0.5800 0.5610 0.5340 0.5130 0.4890
9.579000 0.4700 0.4470 0.4260 0.4020 0.3940
9.613096 0.3830 0.3720 0.3680 0.3680 0.3700
9.648000 0.3700 0.3800 0.3890 0.3920 0.3990
9.682096 0.3990 0.3890 0.3800 0.3700 0.3510
9.716000 0.3320 0.3120 0.2910 0.2790 0.2500
9.750096 0.2230 0.2030 0.1800 0.1600 0.1500
9.784000 0.1410 0.1390 0.1330 0.1220 0.1190
9.818096 0.1160 0.1100 0.1090 0.1040 0.1000
9.852000 0.0920 0.0920 0.0900 0.0880 0.0870
9.886096 0.0870 0.0870 0.0880 0.0900 0.0920
9.920000 0.1000 0.1100 0.1260 0.1410 0.1600
9.954096 0.1800 0.2010 0.2090 0.2210 0.2420
9.988000 0.2490 0.2520 0.2570 0.2640 0.2670
10.022096 0.2710 0.2710 0.2730 0.2730 0.2730
10.056000 0.2740 0.2740 0.2740 0.2740 0.2740
10.090096 0.2740 0.2740 0.2830 0.2930 0.3100
10.125000 0.3240 0.3430 0.3630 0.3830 0.4010
10.159096 0.4110 0.4300 0.4430 0.4600 0.4720
10.193000 0.4770 0.4840 0.4890 0.4890 0.4810
10.227096 0.4790 0.4740 0.4700 0.4620 0.4590
10.261000 0.4430 0.4410 0.4400 0.4380 0.4330
10.295096 0.4300 0.4230 0.4210 0.4210 0.4210
10.329000 0.4210 0.4300 0.4350 0.4480 0.4600
10.363096 0.4720 0.4910 0.5100 0.5220 0.5340
10.397000 0.5510 0.5640 0.5760 0.5850 0.5980
10.431096 0.6090 0.6190 0.6290 0.6310 0.6330
10.465000 0.6390 0.6410 0.6510 0.6550 0.6580
10.499096 0.6600 0.6650 0.6680 0.6700 0.6800
10.534000 0.6840 0.6860 0.6860 0.6910 0.6920
10.568096 0.6990 0.7010 0.7030 0.7030 0.7030
10.602000 0.7010 0.6990 0.6940 0.6920 0.6920
10.636096 0.6890 0.6870 0.6820 0.6820 0.6800
10.670000 0.6790 0.6770 0.6750 0.6770 0.6790
10.704096 0.6800 0.6890 0.6910 0.6990 0.7010
10.738000 0.7040 0.7090 0.7090 0.7080 0.7080
10.772096 0.7040 0.6990 0.6990 0.6890 0.6790
10.806000 0.6650 0.6530 0.6460 0.6390 0.6390
10.840096 0.6340 0.6330 0.6330 0.6340 0.6390
10.874000 0.6390 0.6410 0.6530 0.6620 0.6650
10.908096 0.6680 0.6680 0.6720 0.6820 0.6910
10.943000 0.6990 0.7010 0.7090 0.7150 0.7200
10.977096 0.7210 0.7250 0.7250 0.7180 0.7150
11.011000 0.7090 0.7080 0.7060 0.7030 0.7010
11.045096 0.6940 0.6800 0.6790 0.6740 0.6700
11.079000 0.6600 0.6530 0.6500 0.6450 0.6390
11.113096 0.6340 0.6330 0.6310 0.6290 0.6290
11.147000 0.6270 0.6290 0.6390 0.6410 0.6480
11.181096 0.6510 0.6560 0.6650 0.6720 0.6860
11.215000 0.6910 0.6920 0.6940 0.6920 0.6920
11.249096 0.6910 0.6890 0.6840 0.6800 0.6790
11.283000 0.6790 0.6740 0.6740 0.6790 0.6840
11.317096 0.6910 0.6990 0.7040 0.7200 0.7250
11.352000 0.7280 0.7300 0.7320 0.7350 0.7350
11.386096 0.7380 0.7400 0.7450 0.7450 0.7440
11.420000 0.7440 0.7420 0.7400 0.7300 0.7230
11.454096 0.7150 0.7110 0.7030 0.6910 0.6800
11.488000 0.6720 0.6600 0.6410 0.6220 0.6020
11.522096 0.5900 0.5730 0.5610 0.5490 0.5420
11.556000 0.5340 0.5300 0.5230 0.5230 0.5340
11.590096 0.5400 0.5460 0.5520 0.5640 0.5760
11.624000 0.5830 0.5920 0.6020 0.6100 0.6190
11.658096 0.6220 0.6290 0.6390 0.6390 0.6390
11.692000 0.6390 0.6380 0.6380 0.6360 0.6310
11.726096 0.6190 0.6140 0.6100 0.6020 0.5980
11.760000 0.5830 0.5640 0.5440 0.5320 0.5250
11.794096 0.5130 0.4980 0.4770 0.4570 0.4500
11.829000 0.4350 0.4210 0.4110 0.3900 0.3700
11.863096 0.3530 0.3340 0.3200 0.3100 0.2930
11.897000 0.2790 0.2610 0.2540 0.2500 0.2400
11.931096 0.2320 0.2280 0.2210 0.2210 0.2300
11.965000 0.2400 0.2520 0.2690 0.2780 0.3050
11.999096 0.3360 0.3720 0.4040 0.4330 0.4520
12.033000 0.4810 0.5060 0.5400 0.5690 0.5980
12.067096 0.6210 0.6310 0.6500 0.6630 0.6800
12.101000 0.6990 0.7040 0.7130 0.7230 0.7300
12.135096 0.7400 0.7500 0.7540 0.7620 0.7730
12.169000 0.7790 0.7840 0.7900 0.7900 0.7950
12.203096 0.8000 0.8020 0.8030 0.8030 0.8050
12.238000 0.8070 0.8100 0.8130 0.8150 0.8170
12.272096 0.8200 0.8200 0.8220 0.8220 0.8220
12.306000 0.8220 0.8240 0.8240 0.8220 0.8200
12.340096 0.8200 0.8310 0.8320 0.8340 0.8320
12.374000 0.8320 0.8310 0.8310 0.8310 0.8310
12.408096 0.8310 0.8320 0.8320 0.8340 0.8410
12.442000 0.8410 0.8430 0.8430 0.8410 0.8410
12.476096 0.8410 0.8410 0.8430 0.8440 0.8480
12.510000 0.8490 0.8510 0.8530 0.8510 0.8480
12.544096 0.8480 0.8480 0.8490 0.8490 0.8490
12.578000 0.8490 0.8490 0.8490 0.8490 0.8490
12.612096 0.8490 0.8480 0.8410 0.8410 0.8410
12.647000 0.8390 0.8390 0.8340 0.8310 0.8290
12.681096 0.8310 0.8310 0.8290 0.8240 0.8200
12.715000 0.8190 0.8170 0.8190 0.8150 0.8120
12.749096 0.8100 0.8080 0.8100 0.8120 0.8100
12.783000 0.8080 0.8080 0.8070 0.8020 0.8000
12.817096 0.8020 0.8020 0.8000 0.8000 0.8000
12.851000 0.8000 0.8000 0.7980 0.7960 0.7980
12.885096 0.8030 0.8030 0.8000 0.7910 0.7910
12.919000 0.7910 0.7910 0.7910 0.7900 0.7880
12.953096 0.7840 0.7840 0.7830 0.7830 0.7810
12.987000 0.7810 0.7790 0.7780 0.7730 0.7710
13.021096 0.7670 0.7670 0.7610 0.7590 0.7540
13.056000 0.7520 0.7500 0.7500 0.7490 0.7490
13.090096 0.7420 0.7400 0.7380 0.7300 0.7280
13.124000 0.7260 0.7260 0.7260 0.7230 0.7210
13.158096 0.7200 0.7200 0.7210 0.7200 0.7180
13.192000 0.7180 0.7180 0.7160 0.7150 0.7150
13.226096 0.7130 0.7110 0.7110 0.7110 0.7110
13.260000 0.7110 0.7110 0.7110 0.7110 0.7110
13.294096 0.7110 0.7110 0.7130 0.7150 0.7180
13.328000 0.7200 0.7230 0.7250 0.7250 0.7280
13.362096 0.7280 0.7250 0.7250 0.7210 0.7230
13.396000 0.7250 0.7280 0.7320 0.7370 0.7370
13.430096 0.7320 0.7320 0.7320 0.7320 0.7320
13.464000 0.7330 0.7350 0.7350 0.7350 0.7350
13.498096 0.7350 0.7370 0.7380 0.7370 0.7350
13.533000 0.7320 0.7320 0.7320 0.7320 0.7320
13.567096 0.7320 0.7320 0.7320 0.7300 0.7280
13.601000 0.7230 0.7180 0.7150 0.7090 0.7040
13.635096 0.7010 0.6990 0.6970 0.6960 0.6920
13.669000 0.6920 0.6890 0.6840 0.6800 0.6790
13.703096 0.6790 0.6750 0.6720 0.6680 0.6680
13.737000 0.6650 0.6630 0.6600 0.6580 0.6550
13.771096 0.6510 0.6500 0.6480 0.6460 0.6450
13.805000 0.6450 0.6450 0.6460 0.6480 0.6510
13.839096 0.6580 0.6580 0.6600 0.6620 0.6630
13.873000 0.6700 0.6790 0.6840 0.6870 0.6910
13.907096 0.6920 0.6990 0.7040 0.7090 0.7180
13.942000 0.7200 0.7210 0.7280 0.7280 0.7300
13.976096 0.7380 0.7400 0.7450 0.7490 0.7500
14.010000 0.7570 0.7640 0.7640 0.7640 0.7660
14.044096 0.7660 0.7670 0.7690 0.7740 0.7760
14.078000 0.7780 0.7780 0.7790 0.7880 0.7910
14.112096 0.7950 0.7960 0.7960 0.7950 0.7950
14.146000 0.7960 0.7960 0.7980 0.7980 0.8000
14.180096 0.8020 0.8020 0.8030 0.8030 0.8030
14.214000 0.8020 0.8020 0.8000 0.8000 0.8000
14.248096 0.8000 0.8000 0.8000 0.7980 0.7980
14.282000 0.7930 0.7910 0.7910 0.7930 0.7960
14.316096 0.7980 0.7980 0.7980 0.7980 0.7980
14.351000 0.7950 0.7910 0.7900 0.7900 0.7880
14.385096 0.7880 0.7880 0.7880 0.7880 0.7830
14.419000 0.7810 0.7830 0.7810 0.7790 0.7780
14.453096 0.7780 0.7780 0.7780 0.7760 0.7730
14.487000 0.7710 0.7710 0.7710 0.7710 0.7710
14.521096 0.7710 0.7710 0.7690 0.7690 0.7690
14.555000 0.7670 0.7640 0.7620 0.7620 0.7610
14.589096 0.7620 0.7620 0.7610 0.7550 0.7520
14.623000 0.7570 0.7590 0.7610 0.7590 0.7570
14.657096 0.7570 0.7520 0.7490 0.7490 0.7470
14.691000 0.7450 0.7440 0.7440 0.7420 0.7420
14.725096 0.7400 0.7380 0.7380 0.7380 0.7370
14.759000 0.7330 0.7320 0.7280 0.7280 0.7260
14.793096 0.7210 0.7210 0.7280 0.7300 0.7280
14.828000 0.7280 0.7260 0.7210 0.7180 0.7150
14.862096 0.7110 0.7090 0.7080 0.7060 0.7060
14.896000 0.7060 0.7060 0.7060 0.7040 0.7030
14.930096 0.6990 0.6990 0.6960 0.6960 0.6990
14.964000 0.6990 0.6990 0.6990 0.6990 0.6970
14.998096 0.6970 0.6920 0.6840 0.6790 0.6790
15.032000 0.6740 0.6670 0.6580 0.6500 0.6330
15.066096 0.6240 0.6120 0.6000 0.5880 0.5800
15.100000 0.5750 0.5730 0.5710 0.5710 0.5730
15.134096 0.5750 0.5780 0.5810 0.5880 0.5980
15.168000 0.6020 0.6090 0.6120 0.6160 0.6190
15.202096 0.6220 0.6260 0.6290 0.6290 0.6310
15.237000 0.6340 0.6380 0.6410 0.6410 0.6390
15.271096 0.6390 0.6390 0.6390 0.6390 0.6410
15.305000 0.6450 0.6480 0.6480 0.6480 0.6450
15.339096 0.6430 0.6390 0.6290 0.6270 0.6270
15.373000 0.6290 0.6290 0.6290 0.6270 0.6270
15.407096 0.6270 0.6260 0.6240 0.6220 0.6190
15.441000 0.6190 0.6160 0.6140 0.6120 0.6100
15.475096 0.6100 0.6100 0.6090 0.6090 0.6090
15.509000 0.6020 0.5980 0.5980 0.5930 0.5920
15.543096 0.5920 0.5920 0.5920 0.5920 0.5920
15.577000 0.5920 0.5900 0.5900 0.5900 0.5880
15.611096 0.5810 0.5780 0.5780 0.5780 0.5730
15.646000 0.5690 0.5690 0.5690 0.5690 0.5680
15.680096 0.5590 0.5510 0.5470 0.5460 0.5440
15.714000 0.5440 0.5440 0.5440 0.5420 0.5420
15.748096 0.5420 0.5400 0.5390 0.5340 0.5320
15.782000 0.5320 0.5320 0.5300 0.5270 0.5270
15.816096 0.5250 0.5250 0.5220 0.5200 0.5180
15.850000 0.5180 0.5150 0.5150 0.5150 0.5130
15.884096 0.5100 0.5050 0.5010 0.5000 0.5000
15.918000 0.4980 0.4930 0.4910 0.4910 0.4910
15.952096 0.4890 0.4880 0.4880 0.4890 0.4890
15.986000 0.4880 0.4860
##END=
