##TITLE=COBALTOUS NITRATE
$$ A.R.
##JCAMP-DX=4.24
##DATA TYPE=INFRARED SPECTRUM
##CLASS=COBLENTZ
##ORIGIN=MELLON INSTITUTE
##OWNER=COBLENTZ SOCIETY
Collection (C) 2018 copyright by the U.S. Secretary of Commerce
on behalf of the United States of America. All rights reserved.
##DATE=Not specified, most likely prior to 1970
##MOLFORM=Co ( N O3)2  * 6 H2 O
##SOURCE REFERENCE=COBLENTZ NO. 534
##$NIST ID=B6000534
##$NIST SOURCE=COBLENTZ
##$NIST IMAGE=cob534
##SPECTROMETER/DATA SYSTEM=Not specified, most likely a prism, grating, or hybrid spectrometer.
##STATE=SOLID (NUJOL MULL)
##PATH LENGTH=
$$SPECTRAL CONTAMINATION DUE TO OIL AROUND 2900, 1450 CM^-^1
##SAMPLING PROCEDURE=TRANSMISSION
##RESOLUTION=4
##DATA PROCESSING=DIGITIZED BY NIST FROM HARD COPY
##XUNITS=MICROMETERS
##YUNITS=TRANSMITTANCE
##XFACTOR=1.000000
##YFACTOR=1
##DELTAX=000.006647
##FIRSTX=2.03
##LASTX=16.0069
##FIRSTY=0.841
##MAXX=16.0069
##MINX=2.03
##MAXY=0.919
##MINY=0.225
##NPOINTS=2104
##XYDATA=(X++(Y..Y))
2.030000 0.8410 0.8410 0.8420 0.8420 0.8420
2.063248 0.8440 0.8440 0.8440 0.8440 0.8440
2.096000 0.8440 0.8460 0.8470 0.8490 0.8490
2.129248 0.8490 0.8510 0.8520 0.8520 0.8510
2.163000 0.8510 0.8510 0.8510 0.8520 0.8520
2.196248 0.8540 0.8520 0.8540 0.8540 0.8540
2.229000 0.8540 0.8540 0.8540 0.8540 0.8540
2.262248 0.8540 0.8540 0.8540 0.8560 0.8560
2.295000 0.8560 0.8560 0.8540 0.8520 0.8510
2.328248 0.8510 0.8510 0.8510 0.8510 0.8510
2.362000 0.8510 0.8510 0.8510 0.8510 0.8510
2.395248 0.8510 0.8510 0.8490 0.8490 0.8470
2.428000 0.8460 0.8440 0.8440 0.8440 0.8440
2.461248 0.8420 0.8420 0.8420 0.8410 0.8410
2.495000 0.8410 0.8410 0.8420 0.8420 0.8420
2.528248 0.8440 0.8460 0.8460 0.8460 0.8470
2.561000 0.8470 0.8470 0.8470 0.8470 0.8470
2.594248 0.8470 0.8490 0.8470 0.8470 0.8470
2.628000 0.8470 0.8490 0.8470 0.8470 0.8460
2.661248 0.8440 0.8420 0.8420 0.8420 0.8420
2.694000 0.8410 0.8370 0.8360 0.8320 0.8240
2.727248 0.8210 0.8110 0.8020 0.7990 0.7800
2.761000 0.7750 0.7590 0.7500 0.7400 0.7320
2.794248 0.7070 0.6880 0.6530 0.6200 0.5810
2.827000 0.5780 0.5750 0.5710 0.5630 0.5560
2.860248 0.5460 0.5160 0.5080 0.4860 0.4630
2.894000 0.4480 0.4140 0.3990 0.3840 0.3740
2.927248 0.3710 0.3610 0.3590 0.3570 0.3590
2.960000 0.3640 0.3710 0.3790 0.3920 0.3990
2.993248 0.4080 0.4290 0.4380 0.4390 0.4390
3.027000 0.4430 0.4460 0.4480 0.4480 0.4490
3.060248 0.4490 0.4510 0.4510 0.4510 0.4510
3.093000 0.4510 0.4510 0.4510 0.4510 0.4530
3.126248 0.4560 0.4610 0.4710 0.4830 0.5000
3.160000 0.5250 0.5360 0.5430 0.5550 0.5650
3.193248 0.5810 0.6020 0.6100 0.6200 0.6330
3.226000 0.6420 0.6480 0.6570 0.6630 0.6680
3.259248 0.6720 0.6730 0.6780 0.6780 0.6730
3.292000 0.6580 0.6230 0.6000 0.5330 0.5010
3.325248 0.4880 0.4740 0.4190 0.3990 0.3540
3.359000 0.3410 0.3160 0.3090 0.3060 0.3090
3.392248 0.3360 0.3920 0.4430 0.4510 0.4610
3.425000 0.4810 0.4810 0.4740 0.4690 0.4640
3.458248 0.4590 0.4580 0.4580 0.4610 0.6120
3.492000 0.6600 0.6900 0.7150 0.7390 0.7690
3.525248 0.7790 0.8010 0.8160 0.8210 0.8270
3.558000 0.8340 0.8390 0.8460 0.8490 0.8560
3.591248 0.8570 0.8610 0.8620 0.8660 0.8670
3.625000 0.8690 0.8710 0.8710 0.8720 0.8720
3.658248 0.8720 0.8740 0.8740 0.8760 0.8760
3.691000 0.8760 0.8770 0.8790 0.8810 0.8820
3.724248 0.8840 0.8860 0.8860 0.8860 0.8870
3.758000 0.8870 0.8860 0.8860 0.8860 0.8860
3.791248 0.8860 0.8860 0.8870 0.8890 0.8890
3.824000 0.8890 0.8890 0.8910 0.8910 0.8910
3.857248 0.8910 0.8920 0.8920 0.8940 0.8940
3.891000 0.8940 0.8940 0.8940 0.8940 0.8940
3.924248 0.8940 0.8920 0.8890 0.8860 0.8860
3.957000 0.8860 0.8860 0.8870 0.8870 0.8870
3.990248 0.8870 0.8860 0.8860 0.8860 0.8860
4.024000 0.8860 0.8840 0.8840 0.8840 0.8840
4.057248 0.8840 0.8820 0.8820 0.8810 0.8810
4.090000 0.8790 0.8790 0.8810 0.8810 0.8810
4.123248 0.8820 0.8820 0.8820 0.8840 0.8840
4.156000 0.8840 0.8840 0.8840 0.8860 0.8860
4.189248 0.8860 0.8860 0.8870 0.8870 0.8890
4.223000 0.8890 0.8890 0.8890 0.8890 0.8870
4.256248 0.8870 0.8870 0.8870 0.8860 0.8860
4.289000 0.8860 0.8860 0.8840 0.8840 0.8840
4.322248 0.8820 0.8820 0.8820 0.8820 0.8820
4.356000 0.8820 0.8840 0.8840 0.8840 0.8860
4.389248 0.8860 0.8840 0.8840 0.8840 0.8840
4.422000 0.8860 0.8860 0.8860 0.8860 0.8860
4.455248 0.8860 0.8860 0.8860 0.8860 0.8860
4.489000 0.8860 0.8860 0.8860 0.8870 0.8870
4.522248 0.8870 0.8870 0.8870 0.8860 0.8860
4.555000 0.8860 0.8860 0.8860 0.8860 0.8860
4.588248 0.8860 0.8860 0.8860 0.8860 0.8840
4.622000 0.8840 0.8860 0.8840 0.8840 0.8840
4.655248 0.8820 0.8820 0.8820 0.8820 0.8820
4.688000 0.8840 0.8840 0.8840 0.8840 0.8840
4.721248 0.8860 0.8860 0.8870 0.8870 0.8870
4.755000 0.8890 0.8890 0.8890 0.8910 0.8890
4.788248 0.8890 0.8870 0.8870 0.8870 0.8870
4.821000 0.8870 0.8870 0.8870 0.8870 0.8870
4.854248 0.8870 0.8890 0.8890 0.8890 0.8890
4.888000 0.8910 0.8910 0.8940 0.8940 0.8940
4.921248 0.8940 0.8940 0.8940 0.8940 0.8940
4.954000 0.8960 0.8960 0.8960 0.8960 0.8960
4.987248 0.8960 0.8960 0.8960 0.8960 0.8990
5.021000 0.8990 0.8990 0.8990 0.8990 0.8990
5.054248 0.8990 0.8990 0.8990 0.9010 0.9010
5.087000 0.9010 0.9010 0.9030 0.9040 0.9040
5.120248 0.9040 0.9040 0.9040 0.9040 0.9040
5.153000 0.9040 0.9040 0.9040 0.9040 0.9040
5.186248 0.9040 0.9040 0.9030 0.9030 0.9040
5.220000 0.9040 0.9040 0.9040 0.9040 0.9040
5.253248 0.9040 0.9040 0.9040 0.9040 0.9060
5.286000 0.9060 0.9060 0.9060 0.9080 0.9080
5.319248 0.9080 0.9080 0.9080 0.9080 0.9080
5.353000 0.9060 0.9060 0.9060 0.9040 0.9060
5.386248 0.9060 0.9040 0.9040 0.9040 0.9030
5.419000 0.9030 0.9030 0.9030 0.9030 0.9030
5.452248 0.9030 0.9040 0.9040 0.9040 0.9040
5.486000 0.9060 0.9080 0.9090 0.9090 0.9080
5.519248 0.9080 0.9060 0.9060 0.9060 0.9040
5.552000 0.9040 0.9040 0.9060 0.9060 0.9060
5.585248 0.9060 0.9060 0.9080 0.9080 0.9060
5.619000 0.9040 0.9040 0.9040 0.9040 0.9040
5.652248 0.9040 0.9040 0.9040 0.9040 0.9080
5.685000 0.9090 0.9090 0.9090 0.9090 0.9090
5.718248 0.9090 0.9090 0.9090 0.9090 0.9090
5.752000 0.9080 0.9060 0.9060 0.9040 0.9060
5.785248 0.9060 0.9060 0.9060 0.9040 0.9040
5.818000 0.9030 0.9010 0.8970 0.8940 0.8920
5.851248 0.8910 0.8890 0.8840 0.8810 0.8770
5.885000 0.8760 0.8740 0.8740 0.8720 0.8690
5.918248 0.8640 0.8620 0.8520 0.8440 0.8410
5.951000 0.8360 0.8290 0.8210 0.8040 0.7890
5.984248 0.7850 0.7650 0.7440 0.7350 0.7290
6.018000 0.7240 0.7200 0.7170 0.7140 0.7050
6.051248 0.7040 0.7000 0.6970 0.6950 0.6930
6.084000 0.6930 0.6950 0.6950 0.6970 0.6980
6.117248 0.7000 0.7000 0.7000 0.7040 0.7040
6.150000 0.7070 0.7120 0.7200 0.7250 0.7440
6.183248 0.7620 0.7700 0.7750 0.7840 0.7900
6.217000 0.8020 0.8140 0.8210 0.8260 0.8290
6.250248 0.8310 0.8320 0.8340 0.8360 0.8360
6.283000 0.8370 0.8390 0.8390 0.8410 0.8420
6.316248 0.8420 0.8440 0.8510 0.8540 0.8560
6.350000 0.8570 0.8570 0.8570 0.8560 0.8560
6.383248 0.8560 0.8540 0.8540 0.8540 0.8590
6.416000 0.8610 0.8620 0.8640 0.8660 0.8660
6.449248 0.8670 0.8670 0.8670 0.8670 0.8670
6.483000 0.8690 0.8670 0.8660 0.8660 0.8640
6.516248 0.8660 0.8660 0.8670 0.8690 0.8710
6.549000 0.8710 0.8710 0.8710 0.8690 0.8690
6.582248 0.8690 0.8670 0.8670 0.8640 0.8640
6.616000 0.8620 0.8620 0.8620 0.8620 0.8610
6.649248 0.8610 0.8610 0.8570 0.8560 0.8560
6.682000 0.8540 0.8490 0.8470 0.8440 0.8370
6.715248 0.8320 0.8290 0.8240 0.8160 0.8070
6.749000 0.8010 0.7750 0.7620 0.7520 0.7320
6.782248 0.7240 0.7050 0.6750 0.6620 0.6470
6.815000 0.6430 0.6420 0.6380 0.6370 0.6350
6.848248 0.6330 0.6300 0.6270 0.6270 0.6250
6.882000 0.6250 0.6250 0.6250 0.6250 0.6250
6.915248 0.6280 0.6320 0.6320 0.6320 0.6320
6.948000 0.6280 0.6220 0.6130 0.6050 0.6030
6.981248 0.5980 0.5910 0.5850 0.5650 0.5500
7.015000 0.5130 0.5010 0.4890 0.4760 0.4690
7.048248 0.4640 0.4530 0.4380 0.4330 0.4240
7.081000 0.4140 0.4030 0.3890 0.3820 0.3740
7.114248 0.3620 0.3560 0.3490 0.3410 0.3270
7.147000 0.3210 0.3010 0.2950 0.2870 0.2770
7.180248 0.2640 0.2570 0.2520 0.2420 0.2320
7.214000 0.2250 0.2250 0.2270 0.2290 0.2290
7.247248 0.2320 0.2340 0.2370 0.2400 0.2450
7.280000 0.2520 0.2540 0.2570 0.2620 0.2670
7.313248 0.2700 0.2740 0.2820 0.2850 0.2900
7.347000 0.2990 0.3020 0.3110 0.3310 0.3760
7.380248 0.4210 0.4390 0.4590 0.4930 0.5410
7.413000 0.5510 0.5600 0.5660 0.5760 0.5810
7.446248 0.5900 0.6020 0.6100 0.6180 0.6280
7.480000 0.6330 0.6450 0.6530 0.6600 0.6650
7.513248 0.6730 0.6830 0.6900 0.6970 0.7040
7.546000 0.7050 0.7120 0.7170 0.7220 0.7270
7.579248 0.7340 0.7390 0.7440 0.7470 0.7520
7.613000 0.7550 0.7590 0.7620 0.7640 0.7690
7.646248 0.7700 0.7740 0.7740 0.7750 0.7750
7.679000 0.7800 0.7820 0.7850 0.7870 0.7900
7.712248 0.7950 0.8010 0.8010 0.8020 0.8040
7.746000 0.8040 0.8090 0.8110 0.8140 0.8160
7.779248 0.8170 0.8190 0.8210 0.8220 0.8240
7.812000 0.8260 0.8270 0.8290 0.8310 0.8320
7.845248 0.8340 0.8360 0.8360 0.8370 0.8390
7.879000 0.8410 0.8420 0.8440 0.8440 0.8460
7.912248 0.8470 0.8510 0.8510 0.8520 0.8520
7.945000 0.8520 0.8540 0.8540 0.8540 0.8560
7.978248 0.8570 0.8570 0.8590 0.8610 0.8620
8.011000 0.8640 0.8640 0.8640 0.8620 0.8640
8.044248 0.8640 0.8640 0.8640 0.8670 0.8690
8.078000 0.8710 0.8720 0.8740 0.8740 0.8760
8.111248 0.8760 0.8760 0.8770 0.8770 0.8790
8.144000 0.8810 0.8810 0.8810 0.8810 0.8810
8.177248 0.8810 0.8810 0.8810 0.8820 0.8820
8.211000 0.8820 0.8820 0.8820 0.8820 0.8820
8.244248 0.8820 0.8820 0.8820 0.8820 0.8820
8.277000 0.8840 0.8820 0.8820 0.8820 0.8820
8.310248 0.8820 0.8840 0.8840 0.8860 0.8870
8.344000 0.8890 0.8890 0.8890 0.8890 0.8890
8.377248 0.8890 0.8890 0.8890 0.8910 0.8910
8.410000 0.8910 0.8910 0.8910 0.8890 0.8860
8.443248 0.8860 0.8860 0.8860 0.8860 0.8870
8.477000 0.8910 0.8920 0.8920 0.8910 0.8910
8.510248 0.8910 0.8910 0.8910 0.8910 0.8910
8.543000 0.8910 0.8910 0.8870 0.8870 0.8860
8.576248 0.8860 0.8870 0.8870 0.8870 0.8890
8.610000 0.8890 0.8890 0.8910 0.8910 0.8910
8.643248 0.8910 0.8910 0.8910 0.8910 0.8910
8.676000 0.8910 0.8890 0.8890 0.8890 0.8890
8.709248 0.8890 0.8870 0.8870 0.8870 0.8870
8.743000 0.8870 0.8870 0.8890 0.8890 0.8890
8.776248 0.8890 0.8890 0.8870 0.8870 0.8860
8.809000 0.8860 0.8840 0.8820 0.8820 0.8820
8.842248 0.8820 0.8810 0.8810 0.8810 0.8810
8.876000 0.8810 0.8820 0.8820 0.8840 0.8840
8.909248 0.8860 0.8860 0.8860 0.8870 0.8870
8.942000 0.8870 0.8890 0.8890 0.8890 0.8910
8.975248 0.8910 0.8910 0.8920 0.8920 0.8920
9.008000 0.8960 0.8920 0.8920 0.8920 0.8920
9.041248 0.8920 0.8910 0.8910 0.8910 0.8910
9.075000 0.8910 0.8910 0.8910 0.8910 0.8910
9.108248 0.8910 0.8910 0.8920 0.8920 0.8920
9.141000 0.8920 0.8940 0.8940 0.8940 0.8940
9.174248 0.8940 0.8920 0.8920 0.8920 0.8920
9.208000 0.8920 0.8910 0.8920 0.8920 0.8920
9.241248 0.8920 0.8920 0.8920 0.8920 0.8910
9.274000 0.8910 0.8910 0.8910 0.8920 0.8960
9.307248 0.8960 0.8970 0.8960 0.8960 0.8960
9.341000 0.8960 0.8960 0.8960 0.8960 0.8960
9.374248 0.8960 0.8960 0.8960 0.8960 0.8970
9.407000 0.8960 0.8940 0.8940 0.8940 0.8940
9.440248 0.8940 0.8940 0.8920 0.8920 0.8920
9.474000 0.8920 0.8920 0.8920 0.8940 0.8960
9.507248 0.8960 0.8970 0.9010 0.9010 0.9010
9.540000 0.9010 0.9010 0.9010 0.9010 0.9010
9.573248 0.8990 0.8970 0.8960 0.8960 0.8960
9.607000 0.8970 0.8990 0.9010 0.9030 0.9040
9.640248 0.9040 0.9040 0.9040 0.9040 0.9040
9.673000 0.9040 0.9040 0.9040 0.9040 0.9040
9.706248 0.9040 0.9060 0.9060 0.9060 0.9060
9.740000 0.9060 0.9060 0.9040 0.9060 0.9060
9.773248 0.9080 0.9080 0.9080 0.9080 0.9060
9.806000 0.9080 0.9060 0.9060 0.9040 0.9040
9.839248 0.9040 0.9040 0.9060 0.9090 0.9090
9.873000 0.9110 0.9110 0.9110 0.9110 0.9110
9.906248 0.9110 0.9110 0.9090 0.9090 0.9090
9.939000 0.9090 0.9090 0.9110 0.9110 0.9130
9.972248 0.9130 0.9130 0.9140 0.9140 0.9140
10.005000 0.9140 0.9140 0.9140 0.9140 0.9130
10.038248 0.9130 0.9130 0.9140 0.9140 0.9160
10.072000 0.9180 0.9180 0.9180 0.9160 0.9160
10.105248 0.9140 0.9140 0.9160 0.9140 0.9140
10.138000 0.9160 0.9160 0.9160 0.9160 0.9180
10.171248 0.9180 0.9180 0.9180 0.9180 0.9180
10.205000 0.9180 0.9180 0.9180 0.9190 0.9190
10.238248 0.9190 0.9190 0.9190 0.9190 0.9190
10.271000 0.9190 0.9180 0.9180 0.9160 0.9160
10.304248 0.9160 0.9140 0.9140 0.9180 0.9180
10.338000 0.9190 0.9190 0.9190 0.9180 0.9180
10.371248 0.9180 0.9160 0.9160 0.9160 0.9160
10.404000 0.9140 0.9140 0.9140 0.9140 0.9140
10.437248 0.9140 0.9130 0.9130 0.9130 0.9130
10.471000 0.9130 0.9130 0.9130 0.9130 0.9130
10.504248 0.9130 0.9140 0.9140 0.9140 0.9140
10.537000 0.9140 0.9140 0.9140 0.9140 0.9140
10.570248 0.9140 0.9140 0.9160 0.9160 0.9160
10.604000 0.9160 0.9160 0.9160 0.9140 0.9140
10.637248 0.9140 0.9160 0.9160 0.9180 0.9180
10.670000 0.9180 0.9180 0.9180 0.9180 0.9160
10.703248 0.9160 0.9140 0.9140 0.9130 0.9130
10.737000 0.9130 0.9130 0.9130 0.9130 0.9140
10.770248 0.9140 0.9140 0.9140 0.9140 0.9140
10.803000 0.9140 0.9140 0.9140 0.9140 0.9160
10.836248 0.9160 0.9180 0.9180 0.9180 0.9180
10.869000 0.9180 0.9160 0.9160 0.9160 0.9160
10.902248 0.9140 0.9130 0.9130 0.9140 0.9140
10.936000 0.9140 0.9160 0.9160 0.9180 0.9190
10.969248 0.9190 0.9180 0.9180 0.9180 0.9160
11.002000 0.9140 0.9130 0.9130 0.9130 0.9130
11.035248 0.9130 0.9130 0.9130 0.9140 0.9140
11.069000 0.9160 0.9180 0.9190 0.9190 0.9160
11.102248 0.9160 0.9160 0.9180 0.9180 0.9190
11.135000 0.9190 0.9180 0.9160 0.9160 0.9140
11.168248 0.9140 0.9140 0.9130 0.9130 0.9130
11.202000 0.9130 0.9130 0.9130 0.9110 0.9110
11.235248 0.9060 0.9060 0.9060 0.9040 0.9040
11.268000 0.9040 0.9040 0.9060 0.9060 0.9060
11.301248 0.9080 0.9060 0.9060 0.9040 0.9040
11.335000 0.9040 0.9040 0.9040 0.9040 0.9040
11.368248 0.9060 0.9060 0.9060 0.9080 0.9080
11.401000 0.9090 0.9090 0.9090 0.9080 0.9080
11.434248 0.9060 0.9080 0.9080 0.9080 0.9060
11.468000 0.9080 0.9060 0.9060 0.9060 0.9040
11.501248 0.9040 0.9030 0.9030 0.9010 0.9010
11.534000 0.9010 0.8990 0.8990 0.8990 0.9010
11.567248 0.9010 0.9010 0.8990 0.8990 0.8970
11.601000 0.8970 0.8960 0.8940 0.8960 0.8960
11.634248 0.8970 0.8970 0.8990 0.8990 0.8990
11.667000 0.8970 0.8970 0.8960 0.8960 0.8960
11.700248 0.8960 0.8960 0.8940 0.8940 0.8920
11.734000 0.8920 0.8910 0.8910 0.8910 0.8890
11.767248 0.8870 0.8860 0.8840 0.8820 0.8810
11.800000 0.8810 0.8790 0.8790 0.8790 0.8770
11.833248 0.8760 0.8760 0.8740 0.8720 0.8720
11.866000 0.8710 0.8690 0.8660 0.8620 0.8540
11.899248 0.8490 0.8370 0.8270 0.8160 0.7540
11.933000 0.7500 0.7470 0.7450 0.7470 0.7520
11.966248 0.7540 0.7620 0.7670 0.7720 0.7790
11.999000 0.7820 0.7890 0.7900 0.7950 0.7990
12.032248 0.7990 0.7990 0.8010 0.8020 0.8040
12.066000 0.8040 0.8040 0.8040 0.8040 0.8040
12.099248 0.8040 0.8020 0.8020 0.8020 0.8020
12.132000 0.8020 0.8040 0.8020 0.8020 0.8010
12.165248 0.8010 0.8010 0.8010 0.8010 0.7990
12.199000 0.7990 0.7990 0.7970 0.7970 0.7970
12.232248 0.7970 0.7950 0.7940 0.7920 0.7900
12.265000 0.7900 0.7890 0.7890 0.7870 0.7850
12.298248 0.7840 0.7820 0.7820 0.7800 0.7800
12.332000 0.7790 0.7790 0.7770 0.7750 0.7750
12.365248 0.7750 0.7750 0.7740 0.7740 0.7740
12.398000 0.7750 0.7750 0.7750 0.7750 0.7750
12.431248 0.7750 0.7750 0.7750 0.7750 0.7750
12.465000 0.7770 0.7770 0.7750 0.7750 0.7770
12.498248 0.7770 0.7770 0.7770 0.7790 0.7790
12.531000 0.7790 0.7790 0.7800 0.7800 0.7820
12.564248 0.7820 0.7820 0.7820 0.7820 0.7820
12.598000 0.7820 0.7820 0.7840 0.7840 0.7840
12.631248 0.7840 0.7840 0.7850 0.7850 0.7850
12.664000 0.7850 0.7870 0.7890 0.7900 0.7900
12.697248 0.7900 0.7900 0.7920 0.7940 0.7940
12.731000 0.7950 0.7950 0.7970 0.7990 0.7990
12.764248 0.7990 0.8010 0.8010 0.8010 0.8020
12.797000 0.8020 0.8020 0.8020 0.8020 0.8020
12.830248 0.8010 0.8010 0.8010 0.8010 0.8010
12.863000 0.8010 0.8010 0.8010 0.8010 0.8010
12.896248 0.8010 0.8010 0.8020 0.8020 0.8020
12.930000 0.8020 0.8020 0.8020 0.8040 0.8040
12.963248 0.8040 0.8040 0.8040 0.8060 0.8060
12.996000 0.8060 0.8060 0.8060 0.8060 0.8060
13.029248 0.8070 0.8070 0.8070 0.8070 0.8070
13.063000 0.8070 0.8070 0.8070 0.8070 0.8070
13.096248 0.8070 0.8070 0.8070 0.8070 0.8070
13.129000 0.8070 0.8070 0.8070 0.8070 0.8070
13.162248 0.8070 0.8070 0.8070 0.8070 0.8060
13.196000 0.8070 0.8070 0.8070 0.8090 0.8090
13.229248 0.8090 0.8090 0.8110 0.8110 0.8110
13.262000 0.8110 0.8110 0.8120 0.8110 0.8110
13.295248 0.8110 0.8110 0.8090 0.8090 0.8090
13.329000 0.8110 0.8110 0.8120 0.8140 0.8160
13.362248 0.8140 0.8140 0.8140 0.8120 0.8120
13.395000 0.8120 0.8110 0.8090 0.8090 0.8070
13.428248 0.8070 0.8060 0.8060 0.8060 0.8060
13.462000 0.8040 0.8040 0.8040 0.8040 0.8020
13.495248 0.8020 0.8010 0.8010 0.8010 0.8010
13.528000 0.8010 0.7970 0.7970 0.7950 0.7940
13.561248 0.7940 0.7920 0.7900 0.7890 0.7870
13.595000 0.7870 0.7850 0.7840 0.7820 0.7820
13.628248 0.7800 0.7790 0.7790 0.7770 0.7770
13.661000 0.7770 0.7770 0.7750 0.7740 0.7720
13.694248 0.7720 0.7700 0.7690 0.7690 0.7670
13.727000 0.7650 0.7640 0.7640 0.7620 0.7600
13.760248 0.7600 0.7600 0.7600 0.7590 0.7550
13.794000 0.7550 0.7540 0.7520 0.7520 0.7520
13.827248 0.7500 0.7490 0.7490 0.7490 0.7490
13.860000 0.7490 0.7490 0.7500 0.7490 0.7490
13.893248 0.7490 0.7490 0.7490 0.7490 0.7490
13.927000 0.7470 0.7470 0.7470 0.7450 0.7450
13.960248 0.7450 0.7440 0.7440 0.7440 0.7450
13.993000 0.7450 0.7440 0.7440 0.7420 0.7420
14.026248 0.7400 0.7400 0.7390 0.7370 0.7370
14.060000 0.7350 0.7350 0.7340 0.7340 0.7320
14.093248 0.7320 0.7300 0.7300 0.7290 0.7270
14.126000 0.7250 0.7240 0.7220 0.7220 0.7200
14.159248 0.7190 0.7170 0.7150 0.7140 0.7140
14.193000 0.7120 0.7120 0.7100 0.7090 0.7050
14.226248 0.7050 0.7020 0.7000 0.6980 0.6950
14.259000 0.6930 0.6930 0.6920 0.6900 0.6900
14.292248 0.6900 0.6880 0.6880 0.6870 0.6870
14.326000 0.6850 0.6850 0.6850 0.6820 0.6820
14.359248 0.6780 0.6750 0.6730 0.6730 0.6720
14.392000 0.6720 0.6730 0.6730 0.6720 0.6720
14.425248 0.6720 0.6700 0.6700 0.6700 0.6680
14.459000 0.6670 0.6650 0.6630 0.6630 0.6620
14.492248 0.6600 0.6600 0.6580 0.6580 0.6580
14.525000 0.6570 0.6570 0.6550 0.6550 0.6550
14.558248 0.6530 0.6520 0.6520 0.6520 0.6520
14.592000 0.6500 0.6480 0.6480 0.6470 0.6480
14.625248 0.6470 0.6470 0.6470 0.6470 0.6450
14.658000 0.6450 0.6430 0.6420 0.6400 0.6400
14.691248 0.6380 0.6370 0.6370 0.6350 0.6350
14.724000 0.6350 0.6350 0.6330 0.6330 0.6330
14.757248 0.6330 0.6330 0.6330 0.6330 0.6320
14.791000 0.6320 0.6320 0.6330 0.6350 0.6350
14.824248 0.6350 0.6350 0.6370 0.6400 0.6420
14.857000 0.6450 0.6470 0.6480 0.6470 0.6450
14.890248 0.6420 0.6400 0.6350 0.6350 0.6330
14.924000 0.6320 0.6320 0.6300 0.6280 0.6280
14.957248 0.6270 0.6270 0.6250 0.6230 0.6220
14.990000 0.6220 0.6220 0.6220 0.6200 0.6200
15.023248 0.6180 0.6180 0.6180 0.6180 0.6180
15.057000 0.6180 0.6180 0.6180 0.6180 0.6180
15.090248 0.6170 0.6180 0.6180 0.6200 0.6220
15.123000 0.6220 0.6220 0.6220 0.6220 0.6220
15.156248 0.6220 0.6220 0.6220 0.6220 0.6220
15.190000 0.6220 0.6220 0.6230 0.6250 0.6250
15.223248 0.6250 0.6250 0.6250 0.6250 0.6250
15.256000 0.6250 0.6250 0.6250 0.6230 0.6250
15.289248 0.6250 0.6270 0.6280 0.6280 0.6280
15.323000 0.6280 0.6270 0.6270 0.6270 0.6270
15.356248 0.6280 0.6280 0.6280 0.6280 0.6300
15.389000 0.6280 0.6300 0.6300 0.6320 0.6320
15.422248 0.6330 0.6330 0.6350 0.6350 0.6350
15.456000 0.6370 0.6370 0.6380 0.6380 0.6400
15.489248 0.6400 0.6420 0.6400 0.6380 0.6380
15.522000 0.6380 0.6400 0.6400 0.6420 0.6420
15.555248 0.6420 0.6430 0.6430 0.6430 0.6450
15.589000 0.6450 0.6450 0.6450 0.6450 0.6450
15.622248 0.6450 0.6450 0.6450 0.6450 0.6450
15.655000 0.6450 0.6450 0.6450 0.6470 0.6480
15.688248 0.6500 0.6500 0.6500 0.6500 0.6500
15.721000 0.6500 0.6500 0.6500 0.6480 0.6480
15.754248 0.6480 0.6480 0.6470 0.6470 0.6470
15.788000 0.6470 0.6480 0.6480 0.6520 0.6530
15.821248 0.6550 0.6570 0.6600 0.6630 0.6670
15.854000 0.6700 0.6700 0.6720 0.6720 0.6720
15.887248 0.6720 0.6720 0.6720 0.6730 0.6730
15.921000 0.6750 0.6770 0.6780 0.6800 0.6820
15.954248 0.6830 0.6830 0.6850 0.6850 0.6850
15.987000 0.6870 0.6850 0.6850 0.6850
##END=
