##TITLE=Succinic anhydride, bromo-
##JCAMP-DX=4.24
##DATA TYPE=INFRARED SPECTRUM
##CLASS=COBLENTZ III
##ORIGIN=SOUTHERN RESEARCH INSTITUTE
##OWNER=Copyright (C) 1987 by the Coblentz Society
Collection (C) 2018 copyright by the U.S. Secretary of Commerce
on behalf of the United States of America. All rights reserved.
##DATE=1957/10/25
##NAMES=3-bromodihydro-2,5-furandione
##MOLFORM=C4 H3 Br O3
##SOURCE REFERENCE=COBLENTZ NO. 6842
##$NIST ID=B6006842
##$NIST SOURCE=COBLENTZ
##$NIST IMAGE=cob6842
##SPECTROMETER/DATA SYSTEM=PERKIN-ELMER 21 (GRATING)
##INSTRUMENT PARAMETERS=FILTER CHANGE ABOUT 1085 CM^-^1
##STATE=LIQUID (NEAT)
##PATH LENGTH=CAPILLARY
##RESOLUTION=2
##DATA PROCESSING=(ADJUSTED \addcm-1\15-5-2\)
##XUNITS=1/CM
##YUNITS=TRANSMITTANCE
##XFACTOR=1.0
##YFACTOR=1
##DELTAX=1.004162
##FIRSTX=603.232
##LASTX=3812.53
##FIRSTY=0.4641
##MAXX=3812.53
##MINX=603.232
##MAXY=0.76885
##MINY=0.0112281
##NPOINTS=3197
##XYDATA=(X++(Y..Y))
603.232000 0.4641 0.4647 0.4652 0.4657 0.4662
608.252811 0.4667 0.4672 0.4678 0.4684 0.4690
613.273622 0.4696 0.4701 0.4707 0.4713 0.4722
618.294433 0.4730 0.4738 0.4745 0.4753 0.4762
623.315243 0.4770 0.4779 0.4789 0.4798 0.4808
628.336054 0.4817 0.4827 0.4846 0.4866 0.4887
633.356865 0.4907 0.4928 0.4957 0.5001 0.5048
638.377676 0.5088 0.5122 0.5157 0.5170 0.5174
643.398487 0.5178 0.5181 0.5178 0.5174 0.5172
648.419298 0.5192 0.5170 0.5163 0.5160 0.5156
653.440109 0.5147 0.5138 0.5123 0.5099 0.5073
658.460919 0.5040 0.5005 0.4970 0.4932 0.4885
663.481730 0.4835 0.4786 0.4734 0.4682 0.4629
668.502541 0.4576 0.4523 0.4444 0.4351 0.4250
673.523352 0.4141 0.3994 0.3834 0.3674 0.3514
678.544163 0.3355 0.3195 0.3014 0.2830 0.2663
683.564974 0.2566 0.2495 0.2445 0.2419 0.2416
688.585785 0.2411 0.2433 0.2462 0.2506 0.2570
693.606595 0.2635 0.2690 0.2735 0.2769 0.2798
698.627406 0.2826 0.2853 0.2880 0.2918 0.2961
703.648217 0.3004 0.3050 0.3097 0.3137 0.3172
708.669028 0.3207 0.3241 0.3276 0.3319 0.3383
713.689839 0.3466 0.3761 0.4049 0.4221 0.4393
718.710650 0.4565 0.4737 0.4909 0.5081 0.5259
723.731461 0.5439 0.5579 0.5681 0.5771 0.5845
728.752271 0.5902 0.5949 0.5983 0.6001 0.6013
733.773082 0.6017 0.6023 0.6016 0.5996 0.5977
738.793893 0.5950 0.5913 0.5866 0.5751 0.5534
743.814704 0.5284 0.5033 0.4783 0.4567 0.4477
748.835515 0.4486 0.4578 0.4799 0.5044 0.5288
753.856326 0.5532 0.5777 0.6021 0.6272 0.6457
758.877137 0.6522 0.6549 0.6563 0.6576 0.6586
763.897947 0.6592 0.6599 0.6606 0.6614 0.6624
768.918758 0.6635 0.6652 0.6678 0.6712 0.6752
773.939569 0.6799 0.6857 0.6907 0.6949 0.6987
778.960380 0.7019 0.7046 0.7071 0.7090 0.7102
783.981191 0.7113 0.7125 0.7136 0.7146 0.7155
789.002002 0.7164 0.7172 0.7175 0.7178 0.7181
794.022813 0.7184 0.7185 0.7183 0.7180 0.7178
799.043623 0.7181 0.7188 0.7170 0.7162 0.7154
804.064434 0.7145 0.7137 0.7126 0.7115 0.7103
809.085245 0.7091 0.7080 0.7068 0.7054 0.7038
814.106056 0.7022 0.7006 0.6989 0.6969 0.6944
819.126867 0.6918 0.6893 0.6867 0.6839 0.6807
824.147678 0.6774 0.6736 0.6669 0.6601 0.6526
829.168489 0.6366 0.5772 0.5379 0.5336 0.5316
834.189299 0.5306 0.5310 0.5320 0.5340 0.5368
839.210110 0.5419 0.5516 0.5718 0.5795 0.5823
844.230921 0.5844 0.5855 0.5867 0.5881 0.5900
849.251732 0.5953 0.6179 0.6337 0.6444 0.6516
854.272543 0.6564 0.6611 0.6638 0.6659 0.6670
859.293354 0.6676 0.6682 0.6687 0.6686 0.6676
864.314165 0.6658 0.6640 0.6623 0.6603 0.6583
869.334975 0.6564 0.6542 0.6517 0.6493 0.6467
874.355786 0.6438 0.6408 0.6378 0.6348 0.6317
879.376597 0.6286 0.6255 0.6223 0.6175 0.6126
884.397408 0.6064 0.5991 0.5930 0.5828 0.5694
889.418219 0.5558 0.5420 0.5284 0.5153 0.5044
894.439030 0.4936 0.4849 0.4781 0.4715 0.4646
899.459841 0.4578 0.4511 0.4426 0.4334 0.3468
904.480651 0.3141 0.2569 0.2170 0.1601 0.1286
909.501462 0.0838 0.0576 0.0481 0.0394 0.0327
914.522273 0.0299 0.0278 0.0261 0.0252 0.0244
919.543084 0.0263 0.0293 0.0318 0.0355 0.0418
924.563895 0.0478 0.0524 0.0566 0.0607 0.0647
929.584706 0.0687 0.0750 0.0858 0.1332 0.1770
934.605517 0.2125 0.2469 0.2814 0.2964 0.2998
939.626327 0.2937 0.2858 0.2783 0.2707 0.2632
944.647138 0.2556 0.2481 0.2419 0.2406 0.2406
949.667949 0.2729 0.3290 0.3893 0.4498 0.4826
954.688760 0.4925 0.4976 0.5022 0.5065 0.5106
959.709571 0.5148 0.5190 0.5233 0.5370 0.5524
964.730382 0.5627 0.5709 0.5806 0.5946 0.6039
969.751193 0.6095 0.6134 0.6153 0.6166 0.6177
974.772003 0.6189 0.6201 0.6213 0.6220 0.6224
979.792814 0.6228 0.6230 0.6231 0.6233 0.6230
984.813625 0.6224 0.6218 0.6212 0.6205 0.6193
989.834436 0.6166 0.6128 0.6088 0.6049 0.6009
994.855247 0.5969 0.5931 0.5898 0.5867 0.5836
999.876058 0.5805 0.5773 0.5742 0.5710 0.5676
1004.896869 0.5641 0.5605 0.5570 0.5535 0.5499
1009.917679 0.5462 0.5421 0.5378 0.5335 0.5291
1014.938490 0.5241 0.5184 0.5128 0.5068 0.5002
1019.959301 0.4932 0.4848 0.4689 0.4514 0.4380
1024.980112 0.4218 0.4041 0.3863 0.3667 0.3471
1030.000923 0.3275 0.3079 0.2883 0.2687 0.2491
1035.021734 0.2294 0.2099 0.1904 0.1781 0.1757
1040.042545 0.1756 0.1758 0.1766 0.1779 0.1803
1045.063355 0.1835 0.1866 0.1890 0.1904 0.1909
1050.084166 0.1911 0.1908 0.1824 0.1633 0.1429
1055.104977 0.1225 0.1021 0.0837 0.0700 0.0600
1060.125788 0.0525 0.0461 0.0417 0.0388 0.0371
1065.146599 0.0362 0.0361 0.0372 0.0378 0.0384
1070.167410 0.0406 0.0454 0.0499 0.0547 0.0598
1075.188220 0.0650 0.0708 0.0793 0.1032 0.1427
1080.209031 0.1752 0.2076 0.2401 0.2726 0.3050
1085.229842 0.3375 0.3699 0.4024 0.4328 0.4572
1090.250653 0.4750 0.4871 0.4967 0.5058 0.5147
1095.271464 0.5246 0.5380 0.5522 0.5602 0.5663
1100.292275 0.5722 0.5779 0.5828 0.5866 0.5899
1105.313086 0.5930 0.5961 0.5992 0.6027 0.6067
1110.333896 0.6109 0.6165 0.6223 0.6244 0.6266
1115.354707 0.6283 0.6288 0.6288 0.6283 0.6298
1120.375518 0.6298 0.6296 0.6293 0.6286 0.6280
1125.396329 0.6273 0.6266 0.6259 0.6252 0.6242
1130.417140 0.6228 0.6214 0.6200 0.6186 0.6168
1135.437951 0.6140 0.6112 0.6083 0.6055 0.6026
1140.458762 0.5994 0.5943 0.5882 0.5837 0.5798
1145.479572 0.5756 0.5705 0.5643 0.5568 0.5452
1150.500383 0.5375 0.5331 0.5321 0.5310 0.5297
1155.521194 0.5315 0.5321 0.5329 0.5364 0.5468
1160.542005 0.5539 0.5638 0.5716 0.5766 0.5789
1165.562816 0.5789 0.5789 0.5787 0.5788 0.5778
1170.583627 0.5773 0.5767 0.5761 0.5752 0.5738
1175.604438 0.5723 0.5694 0.5659 0.5618 0.5572
1180.625248 0.5526 0.5477 0.5406 0.5332 0.5263
1185.646059 0.5194 0.5128 0.5071 0.5013 0.4955
1190.666870 0.4883 0.4794 0.4705 0.4615 0.4524
1195.687681 0.4435 0.4361 0.4289 0.4217 0.4143
1200.708492 0.4015 0.3873 0.3763 0.3659 0.3549
1205.729303 0.3400 0.2569 0.2381 0.2229 0.2096
1210.750114 0.1977 0.1862 0.1752 0.1680 0.1608
1215.770924 0.1553 0.1518 0.1514 0.1515 0.1529
1220.791735 0.1540 0.1556 0.1570 0.1590 0.1679
1225.812546 0.1809 0.1888 0.1967 0.2022 0.2076
1230.833357 0.2130 0.2183 0.2236 0.2301 0.2376
1235.854168 0.2508 0.2717 0.2978 0.3347 0.3484
1240.874979 0.3548 0.3609 0.3668 0.3733 0.3804
1245.895790 0.3875 0.3946 0.4022 0.4107 0.4194
1250.916600 0.4279 0.4361 0.4442 0.4512 0.4570
1255.937411 0.4624 0.4652 0.4672 0.4679 0.4683
1260.958222 0.4671 0.4640 0.4605 0.4567 0.4526
1265.979033 0.4410 0.4228 0.4027 0.3621 0.3451
1270.999844 0.3400 0.3390 0.3388 0.3392 0.3405
1276.020655 0.3405 0.3421 0.3457 0.3675 0.3947
1281.041466 0.4223 0.4498 0.4782 0.4893 0.4960
1286.062276 0.5010 0.5058 0.5095 0.5127 0.5160
1291.083087 0.5192 0.5220 0.5248 0.5275 0.5303
1296.103898 0.5330 0.5370 0.5802 0.6103 0.6313
1301.124709 0.6385 0.6429 0.6472 0.6506 0.6533
1306.145520 0.6559 0.6585 0.6597 0.6603 0.6608
1311.166331 0.6612 0.6617 0.6620 0.6618 0.6616
1316.187142 0.6615 0.6613 0.6611 0.6609 0.6597
1321.207952 0.6583 0.6572 0.6565 0.6557 0.6550
1326.228763 0.6551 0.6559 0.6567 0.6575 0.6593
1331.249574 0.6615 0.6642 0.6661 0.6673 0.6685
1336.270385 0.6696 0.6710 0.6724 0.6739 0.6753
1341.291196 0.6778 0.6807 0.6872 0.6979 0.7031
1346.312007 0.7055 0.7072 0.7085 0.7097 0.7109
1351.332818 0.7121 0.7133 0.7144 0.7153 0.7162
1356.353628 0.7172 0.7181 0.7190 0.7199 0.7208
1361.374439 0.7216 0.7223 0.7230 0.7237 0.7244
1366.395250 0.7251 0.7261 0.7281 0.7304 0.7322
1371.416061 0.7338 0.7344 0.7342 0.7347 0.7335
1376.436872 0.7315 0.7297 0.7267 0.7240 0.7216
1381.457683 0.7194 0.7174 0.7158 0.7145 0.7131
1386.478494 0.7115 0.7099 0.7081 0.7064 0.7043
1391.499304 0.7020 0.6997 0.6972 0.6945 0.6919
1396.520115 0.6885 0.6714 0.6398 0.6047 0.5695
1401.540926 0.5344 0.4949 0.4721 0.4657 0.4603
1406.561737 0.4566 0.4549 0.4545 0.4565 0.4587
1411.582548 0.4648 0.4758 0.4845 0.4899 0.4937
1416.603359 0.4976 0.5023 0.5186 0.5536 0.5848
1421.624170 0.6055 0.6297 0.6499 0.6625 0.6731
1426.644980 0.6820 0.6875 0.6911 0.6945 0.6978
1431.665791 0.7010 0.7042 0.7075 0.7106 0.7135
1436.686602 0.7163 0.7180 0.7190 0.7198 0.7207
1441.707413 0.7215 0.7224 0.7232 0.7238 0.7243
1446.728224 0.7247 0.7252 0.7257 0.7261 0.7262
1451.749035 0.7262 0.7261 0.7261 0.7260 0.7260
1456.769846 0.7259 0.7260 0.7264 0.7278 0.7295
1461.790656 0.7307 0.7311 0.7313 0.7310 0.7306
1466.811467 0.7302 0.7298 0.7294 0.7290 0.7286
1471.832278 0.7281 0.7277 0.7273 0.7269 0.7265
1476.853089 0.7260 0.7254 0.7247 0.7241 0.7235
1481.873900 0.7228 0.7223 0.7222 0.7222 0.7222
1486.894711 0.7222 0.7229 0.7245 0.7268 0.7293
1491.915522 0.7317 0.7338 0.7359 0.7376 0.7389
1496.936332 0.7401 0.7412 0.7420 0.7421 0.7419
1501.957143 0.7417 0.7416 0.7415 0.7415 0.7416
1506.977954 0.7416 0.7432 0.7454 0.7474 0.7494
1511.998765 0.7504 0.7505 0.7505 0.7501 0.7493
1517.019576 0.7484 0.7475 0.7467 0.7461 0.7472
1522.040387 0.7490 0.7500 0.7505 0.7508 0.7510
1527.061198 0.7511 0.7512 0.7512 0.7513 0.7514
1532.082008 0.7515 0.7516 0.7517 0.7518 0.7519
1537.102819 0.7520 0.7521 0.7521 0.7520 0.7519
1542.123630 0.7517 0.7516 0.7515 0.7513 0.7511
1547.144441 0.7509 0.7507 0.7504 0.7502 0.7494
1552.165252 0.7497 0.7496 0.7495 0.7494 0.7493
1557.186063 0.7492 0.7491 0.7490 0.7489 0.7487
1562.206874 0.7486 0.7484 0.7482 0.7480 0.7478
1567.227684 0.7477 0.7475 0.7474 0.7473 0.7472
1572.248495 0.7471 0.7470 0.7469 0.7465 0.7459
1577.269306 0.7454 0.7448 0.7443 0.7437 0.7432
1582.290117 0.7427 0.7424 0.7421 0.7418 0.7414
1587.310928 0.7411 0.7410 0.7410 0.7410 0.7410
1592.331739 0.7410 0.7410 0.7410 0.7410 0.7408
1597.352550 0.7406 0.7403 0.7401 0.7399 0.7392
1602.373360 0.7386 0.7379 0.7373 0.7366 0.7360
1607.394171 0.7353 0.7347 0.7344 0.7342 0.7340
1612.414982 0.7338 0.7335 0.7333 0.7331 0.7329
1617.435793 0.7326 0.7324 0.7322 0.7320 0.7317
1622.456604 0.7314 0.7311 0.7308 0.7305 0.7302
1627.477415 0.7299 0.7297 0.7294 0.7291 0.7288
1632.498226 0.7285 0.7282 0.7279 0.7275 0.7272
1637.519036 0.7269 0.7265 0.7262 0.7258 0.7255
1642.539847 0.7252 0.7248 0.7245 0.7242 0.7238
1647.560658 0.7235 0.7236 0.7237 0.7238 0.7239
1652.581469 0.7240 0.7241 0.7242 0.7240 0.7236
1657.602280 0.7232 0.7228 0.7220 0.7206 0.7191
1662.623091 0.7177 0.7163 0.7149 0.7133 0.7118
1667.643902 0.7103 0.7088 0.7073 0.7057 0.7040
1672.664712 0.7024 0.7007 0.6990 0.6974 0.6957
1677.685523 0.6940 0.6923 0.6907 0.6892 0.6877
1682.706334 0.6862 0.6847 0.6831 0.6816 0.6806
1687.727145 0.6800 0.6794 0.6788 0.6782 0.6776
1692.747956 0.6770 0.6765 0.6762 0.6760 0.6759
1697.768767 0.6757 0.6755 0.6753 0.6752 0.6750
1702.789578 0.6747 0.6745 0.6743 0.6739 0.6728
1707.810388 0.6712 0.6696 0.6678 0.6656 0.6633
1712.831199 0.6609 0.6578 0.6547 0.6517 0.6485
1717.852010 0.6449 0.6414 0.6379 0.6344 0.6305
1722.872821 0.6258 0.6210 0.6162 0.6114 0.6053
1727.893632 0.5933 0.5851 0.5769 0.5687 0.5605
1732.914443 0.5523 0.5440 0.5358 0.5276 0.5194
1737.935254 0.5104 0.4997 0.4947 0.4897 0.4848
1742.956064 0.4802 0.4757 0.4712 0.4663 0.4595
1747.976875 0.4511 0.4430 0.4361 0.4302 0.4243
1752.997686 0.4183 0.4123 0.4064 0.4012 0.3969
1758.018497 0.3927 0.3878 0.3808 0.3738 0.3659
1763.039308 0.3573 0.3472 0.3315 0.3147 0.3046
1768.060119 0.2945 0.2820 0.2510 0.2016 0.1927
1773.080930 0.1818 0.1601 0.1264 0.1089 0.0902
1778.101740 0.0698 0.0535 0.0414 0.0306 0.0203
1783.122551 0.0122 0.0115 0.0117 0.0119 0.0121
1788.143362 0.0117 0.0112 0.0133 0.0137 0.0141
1793.164173 0.0146 0.0152 0.0159 0.0165 0.0175
1798.184984 0.0187 0.0200 0.0213 0.0226 0.0243
1803.205795 0.0259 0.0277 0.0297 0.0325 0.0364
1808.226606 0.0437 0.0551 0.0693 0.0828 0.1034
1813.247416 0.1316 0.1448 0.1696 0.2033 0.2327
1818.268227 0.2512 0.2657 0.2841 0.3013 0.3180
1823.289038 0.3366 0.3510 0.3595 0.3693 0.3818
1828.309849 0.3928 0.4004 0.4056 0.4083 0.4111
1833.330660 0.4134 0.4147 0.4152 0.4157 0.4161
1838.351471 0.4149 0.4140 0.4126 0.4108 0.4086
1843.372282 0.4058 0.4029 0.3983 0.3920 0.3870
1848.393092 0.3821 0.3765 0.3699 0.3636 0.3579
1853.413903 0.3526 0.3475 0.3369 0.3183 0.2998
1858.434714 0.2813 0.2628 0.2443 0.2258 0.2073
1863.455525 0.1888 0.1703 0.1538 0.1400 0.1296
1868.476336 0.1267 0.1264 0.1269 0.1269 0.1284
1873.497147 0.1304 0.1334 0.1377 0.1434 0.1539
1878.517958 0.1739 0.1963 0.2188 0.2411 0.2635
1883.538768 0.2859 0.3083 0.3307 0.3531 0.3750
1888.559579 0.4070 0.4540 0.4748 0.4840 0.4932
1893.580390 0.5024 0.5119 0.5254 0.5455 0.5554
1898.601201 0.5625 0.5702 0.5795 0.5898 0.6011
1903.622012 0.6109 0.6162 0.6216 0.6270 0.6318
1908.642823 0.6353 0.6388 0.6422 0.6456 0.6489
1913.663634 0.6522 0.6555 0.6588 0.6621 0.6652
1918.684444 0.6683 0.6710 0.6737 0.6764 0.6791
1923.705255 0.6817 0.6841 0.6859 0.6876 0.6894
1928.726066 0.6911 0.6929 0.6946 0.6962 0.6973
1933.746877 0.6983 0.6993 0.7003 0.7010 0.7013
1938.767688 0.7016 0.7019 0.7024 0.7035 0.7049
1943.788499 0.7068 0.7091 0.7113 0.7120 0.7125
1948.809309 0.7130 0.7134 0.7135 0.7135 0.7135
1953.830120 0.7135 0.7137 0.7143 0.7150 0.7156
1958.850931 0.7160 0.7161 0.7162 0.7163 0.7164
1963.871742 0.7161 0.7157 0.7153 0.7169 0.7184
1968.892553 0.7201 0.7223 0.7246 0.7268 0.7270
1973.913364 0.7272 0.7273 0.7275 0.7276 0.7277
1978.934175 0.7278 0.7282 0.7293 0.7304 0.7315
1983.954985 0.7321 0.7325 0.7328 0.7332 0.7336
1988.975796 0.7334 0.7332 0.7329 0.7327 0.7324
1993.996607 0.7322 0.7317 0.7313 0.7308 0.7303
1999.017418 0.7301 0.7300 0.7300 0.7299 0.7298
2004.038229 0.7303 0.7313 0.7323 0.7337 0.7352
2009.059040 0.7366 0.7389 0.7410 0.7417 0.7422
2014.079851 0.7426 0.7431 0.7435 0.7436 0.7437
2019.100661 0.7439 0.7440 0.7441 0.7443 0.7444
2024.121472 0.7445 0.7447 0.7448 0.7449 0.7451
2029.142283 0.7453 0.7455 0.7457 0.7458 0.7460
2034.163094 0.7462 0.7464 0.7466 0.7467 0.7469
2039.183905 0.7471 0.7472 0.7473 0.7473 0.7474
2044.204716 0.7475 0.7474 0.7473 0.7472 0.7472
2049.225527 0.7471 0.7470 0.7469 0.7468 0.7468
2054.246337 0.7467 0.7466 0.7465 0.7464 0.7464
2059.267148 0.7463 0.7462 0.7461 0.7461 0.7460
2064.287959 0.7459 0.7458 0.7457 0.7456 0.7455
2069.308770 0.7453 0.7452 0.7451 0.7449 0.7448
2074.329581 0.7447 0.7445 0.7444 0.7443 0.7441
2079.350392 0.7440 0.7439 0.7437 0.7432 0.7426
2084.371203 0.7420 0.7415 0.7410 0.7406 0.7403
2089.392013 0.7400 0.7397 0.7394 0.7391 0.7389
2094.412824 0.7389 0.7389 0.7390 0.7390 0.7390
2099.433635 0.7390 0.7391 0.7391 0.7391 0.7392
2104.454446 0.7392 0.7392 0.7392 0.7393 0.7393
2109.475257 0.7392 0.7392 0.7391 0.7390 0.7390
2114.496068 0.7389 0.7389 0.7388 0.7382 0.7359
2119.516879 0.7332 0.7322 0.7322 0.7323 0.7323
2124.537689 0.7323 0.7323 0.7323 0.7325 0.7327
2129.558500 0.7330 0.7333 0.7335 0.7338 0.7340
2134.579311 0.7343 0.7345 0.7346 0.7348 0.7349
2139.600122 0.7350 0.7352 0.7353 0.7355 0.7357
2144.620933 0.7361 0.7366 0.7369 0.7373 0.7378
2149.641744 0.7383 0.7389 0.7398 0.7408 0.7417
2154.662555 0.7426 0.7434 0.7439 0.7444 0.7449
2159.683365 0.7454 0.7460 0.7463 0.7463 0.7462
2164.704176 0.7461 0.7460 0.7459 0.7458 0.7457
2169.724987 0.7456 0.7455 0.7454 0.7453 0.7453
2174.745798 0.7452 0.7451 0.7450 0.7449 0.7448
2179.766609 0.7447 0.7447 0.7448 0.7449 0.7449
2184.787420 0.7450 0.7451 0.7450 0.7449 0.7448
2189.808231 0.7446 0.7445 0.7443 0.7442 0.7440
2194.829041 0.7439 0.7437 0.7436 0.7434 0.7434
2199.849852 0.7434 0.7434 0.7434 0.7434 0.7434
2204.870663 0.7435 0.7437 0.7439 0.7441 0.7444
2209.891474 0.7448 0.7455 0.7462 0.7470 0.7478
2214.912285 0.7486 0.7494 0.7500 0.7505 0.7511
2219.933096 0.7516 0.7521 0.7521 0.7522 0.7522
2224.953907 0.7523 0.7523 0.7524 0.7524 0.7518
2229.974717 0.7508 0.7499 0.7490 0.7480 0.7472
2234.995528 0.7465 0.7460 0.7454 0.7449 0.7444
2240.016339 0.7440 0.7436 0.7433 0.7429 0.7425
2245.037150 0.7422 0.7418 0.7417 0.7416 0.7415
2250.057961 0.7414 0.7413 0.7412 0.7411 0.7410
2255.078772 0.7409 0.7405 0.7402 0.7399 0.7395
2260.099583 0.7392 0.7389 0.7385 0.7382 0.7379
2265.120393 0.7376 0.7372 0.7371 0.7375 0.7379
2270.141204 0.7382 0.7386 0.7390 0.7394 0.7397
2275.162015 0.7399 0.7401 0.7404 0.7406 0.7404
2280.182826 0.7402 0.7400 0.7398 0.7395 0.7393
2285.203637 0.7390 0.7386 0.7381 0.7376 0.7372
2290.224448 0.7371 0.7371 0.7371 0.7372 0.7372
2295.245259 0.7373 0.7375 0.7377 0.7380 0.7382
2300.266069 0.7385 0.7387 0.7389 0.7392 0.7396
2305.286880 0.7400 0.7404 0.7408 0.7411 0.7415
2310.307691 0.7419 0.7422 0.7425 0.7426 0.7428
2315.328502 0.7430 0.7431 0.7433 0.7435 0.7436
2320.349313 0.7437 0.7439 0.7440 0.7440 0.7439
2325.370124 0.7439 0.7438 0.7440 0.7437 0.7436
2330.390935 0.7435 0.7434 0.7433 0.7431 0.7430
2335.411745 0.7428 0.7427 0.7425 0.7424 0.7422
2340.432556 0.7420 0.7419 0.7417 0.7416 0.7415
2345.453367 0.7414 0.7417 0.7425 0.7433 0.7441
2350.474178 0.7448 0.7456 0.7463 0.7471 0.7478
2355.494989 0.7482 0.7484 0.7486 0.7487 0.7489
2360.515800 0.7490 0.7492 0.7493 0.7492 0.7492
2365.536611 0.7492 0.7491 0.7491 0.7490 0.7490
2370.557421 0.7488 0.7484 0.7479 0.7475 0.7471
2375.578232 0.7467 0.7463 0.7459 0.7456 0.7453
2380.599043 0.7450 0.7446 0.7443 0.7440 0.7438
2385.619854 0.7438 0.7438 0.7439 0.7439 0.7439
2390.640665 0.7440 0.7440 0.7441 0.7441 0.7441
2395.661476 0.7441 0.7442 0.7442 0.7442 0.7442
2400.682287 0.7442 0.7442 0.7442 0.7441 0.7441
2405.703097 0.7441 0.7441 0.7440 0.7440 0.7440
2410.723908 0.7440 0.7439 0.7439 0.7441 0.7442
2415.744719 0.7444 0.7445 0.7447 0.7448 0.7450
2420.765530 0.7452 0.7455 0.7457 0.7460 0.7463
2425.786341 0.7465 0.7468 0.7471 0.7474 0.7476
2430.807152 0.7481 0.7485 0.7489 0.7492 0.7495
2435.827963 0.7498 0.7501 0.7504 0.7508 0.7511
2440.848773 0.7514 0.7515 0.7514 0.7513 0.7512
2445.869584 0.7512 0.7511 0.7509 0.7507 0.7505
2450.890395 0.7504 0.7502 0.7500 0.7498 0.7495
2455.911206 0.7493 0.7490 0.7488 0.7486 0.7484
2460.932017 0.7482 0.7480 0.7478 0.7476 0.7474
2465.952828 0.7472 0.7470 0.7468 0.7467 0.7467
2470.973639 0.7466 0.7466 0.7466 0.7465 0.7465
2475.994449 0.7465 0.7464 0.7464 0.7462 0.7460
2481.015260 0.7457 0.7454 0.7452 0.7449 0.7448
2486.036071 0.7454 0.7460 0.7468 0.7478 0.7490
2491.056882 0.7501 0.7511 0.7520 0.7529 0.7539
2496.077693 0.7545 0.7551 0.7557 0.7562 0.7566
2501.098504 0.7567 0.7568 0.7569 0.7567 0.7566
2506.119315 0.7564 0.7563 0.7560 0.7556 0.7552
2511.140125 0.7548 0.7543 0.7534 0.7519 0.7505
2516.160936 0.7488 0.7462 0.7438 0.7448 0.7466
2521.181747 0.7488 0.7504 0.7514 0.7526 0.7539
2526.202558 0.7549 0.7551 0.7553 0.7555 0.7557
2531.223369 0.7558 0.7559 0.7560 0.7561 0.7561
2536.244180 0.7562 0.7563 0.7563 0.7563 0.7561
2541.264991 0.7560 0.7558 0.7557 0.7555 0.7554
2546.285801 0.7561 0.7571 0.7582 0.7601 0.7597
2551.306612 0.7589 0.7582 0.7574 0.7566 0.7556
2556.327423 0.7546 0.7537 0.7534 0.7531 0.7529
2561.348234 0.7527 0.7524 0.7522 0.7523 0.7524
2566.369045 0.7525 0.7526 0.7527 0.7528 0.7529
2571.389856 0.7530 0.7534 0.7540 0.7546 0.7551
2576.410667 0.7557 0.7562 0.7568 0.7576 0.7585
2581.431477 0.7594 0.7603 0.7612 0.7621 0.7636
2586.452288 0.7657 0.7676 0.7689 0.7688 0.7684
2591.473099 0.7680 0.7675 0.7669 0.7663 0.7656
2596.493910 0.7649 0.7642 0.7632 0.7621 0.7609
2601.514721 0.7602 0.7595 0.7594 0.7596 0.7599
2606.535532 0.7600 0.7600 0.7600 0.7600 0.7600
2611.556343 0.7599 0.7598 0.7597 0.7595 0.7594
2616.577153 0.7592 0.7586 0.7580 0.7574 0.7568
2621.597964 0.7564 0.7560 0.7556 0.7552 0.7555
2626.618775 0.7561 0.7568 0.7574 0.7581 0.7588
2631.639586 0.7596 0.7603 0.7610 0.7617 0.7623
2636.660397 0.7627 0.7631 0.7635 0.7639 0.7643
2641.681208 0.7641 0.7636 0.7632 0.7627 0.7620
2646.702019 0.7611 0.7602 0.7593 0.7587 0.7585
2651.722829 0.7586 0.7587 0.7588 0.7589 0.7590
2656.743640 0.7592 0.7595 0.7597 0.7600 0.7602
2661.764451 0.7605 0.7608 0.7611 0.7613 0.7615
2666.785262 0.7618 0.7621 0.7624 0.7627 0.7630
2671.806073 0.7633 0.7634 0.7632 0.7629 0.7626
2676.826884 0.7620 0.7604 0.7577 0.7551 0.7525
2681.847695 0.7507 0.7501 0.7502 0.7503 0.7505
2686.868505 0.7508 0.7510 0.7512 0.7515 0.7517
2691.889316 0.7519 0.7522 0.7525 0.7529 0.7532
2696.910127 0.7529 0.7519 0.7509 0.7499 0.7489
2701.930938 0.7479 0.7469 0.7462 0.7459 0.7460
2706.951749 0.7461 0.7461 0.7462 0.7463 0.7464
2711.972560 0.7465 0.7466 0.7468 0.7469 0.7470
2716.993371 0.7471 0.7471 0.7472 0.7472 0.7473
2722.014181 0.7473 0.7474 0.7474 0.7475 0.7475
2727.034992 0.7475 0.7476 0.7476 0.7477 0.7477
2732.055803 0.7478 0.7478 0.7479 0.7484 0.7491
2737.076614 0.7497 0.7503 0.7509 0.7512 0.7516
2742.097425 0.7519 0.7521 0.7522 0.7522 0.7522
2747.118236 0.7521 0.7518 0.7516 0.7514 0.7512
2752.139047 0.7514 0.7514 0.7512 0.7509 0.7507
2757.159857 0.7504 0.7502 0.7499 0.7497 0.7494
2762.180668 0.7491 0.7489 0.7486 0.7483 0.7481
2767.201479 0.7479 0.7478 0.7476 0.7475 0.7474
2772.222290 0.7474 0.7475 0.7475 0.7476 0.7476
2777.243101 0.7476 0.7477 0.7477 0.7478 0.7479
2782.263912 0.7480 0.7481 0.7485 0.7490 0.7495
2787.284723 0.7500 0.7508 0.7516 0.7524 0.7532
2792.305533 0.7540 0.7543 0.7546 0.7549 0.7549
2797.326344 0.7547 0.7545 0.7543 0.7541 0.7538
2802.347155 0.7532 0.7525 0.7519 0.7513 0.7510
2807.367966 0.7507 0.7505 0.7503 0.7501 0.7503
2812.388777 0.7505 0.7507 0.7509 0.7511 0.7513
2817.409588 0.7515 0.7509 0.7500 0.7490 0.7477
2822.430398 0.7463 0.7452 0.7451 0.7450 0.7449
2827.451209 0.7448 0.7447 0.7447 0.7446 0.7445
2832.472020 0.7445 0.7445 0.7445 0.7445 0.7446
2837.492831 0.7449 0.7452 0.7456 0.7451 0.7446
2842.513642 0.7440 0.7434 0.7428 0.7423 0.7415
2847.534453 0.7406 0.7394 0.7384 0.7375 0.7366
2852.555264 0.7358 0.7351 0.7348 0.7345 0.7343
2857.576074 0.7341 0.7338 0.7336 0.7334 0.7331
2862.596885 0.7329 0.7330 0.7330 0.7331 0.7331
2867.617696 0.7332 0.7332 0.7333 0.7333 0.7335
2872.638507 0.7338 0.7343 0.7347 0.7351 0.7355
2877.659318 0.7359 0.7363 0.7367 0.7370 0.7373
2882.680129 0.7376 0.7379 0.7378 0.7376 0.7373
2887.700940 0.7370 0.7367 0.7365 0.7358 0.7348
2892.721750 0.7337 0.7325 0.7314 0.7303 0.7291
2897.742561 0.7280 0.7268 0.7257 0.7246 0.7235
2902.763372 0.7224 0.7213 0.7202 0.7191 0.7181
2907.784183 0.7170 0.7161 0.7153 0.7145 0.7137
2912.804994 0.7129 0.7122 0.7114 0.7106 0.7100
2917.825805 0.7096 0.7092 0.7088 0.7084 0.7066
2922.846616 0.7041 0.7015 0.6990 0.6964 0.6937
2927.867426 0.6911 0.6884 0.6857 0.6823 0.6783
2932.888237 0.6743 0.6706 0.6677 0.6651 0.6625
2937.909048 0.6600 0.6576 0.6556 0.6538 0.6519
2942.929859 0.6501 0.6483 0.6465 0.6447 0.6430
2947.950670 0.6415 0.6404 0.6393 0.6382 0.6371
2952.971481 0.6360 0.6351 0.6346 0.6345 0.6343
2957.992292 0.6342 0.6340 0.6339 0.6337 0.6335
2963.013102 0.6333 0.6330 0.6328 0.6325 0.6320
2968.033913 0.6310 0.6297 0.6284 0.6272 0.6260
2973.054724 0.6248 0.6236 0.6225 0.6214 0.6202
2978.075535 0.6191 0.6180 0.6169 0.6157 0.6146
2983.096346 0.6135 0.6124 0.6113 0.6102 0.6091
2988.117157 0.6080 0.6069 0.6058 0.6043 0.6029
2993.137968 0.6014 0.6000 0.5986 0.5972 0.5960
2998.158778 0.5950 0.5944 0.5940 0.5939 0.5940
3003.179589 0.5962 0.5973 0.5984 0.5995 0.6006
3008.200400 0.6016 0.6026 0.6036 0.6047 0.6057
3013.221211 0.6068 0.6079 0.6090 0.6101 0.6114
3018.242022 0.6126 0.6139 0.6152 0.6169 0.6189
3023.262833 0.6208 0.6231 0.6261 0.6290 0.6325
3028.283644 0.6368 0.6410 0.6448 0.6484 0.6521
3033.304454 0.6557 0.6588 0.6613 0.6639 0.6664
3038.325265 0.6689 0.6714 0.6738 0.6761 0.6777
3043.346076 0.6783 0.6788 0.6794 0.6800 0.6806
3048.366887 0.6811 0.6817 0.6826 0.6835 0.6845
3053.387698 0.6855 0.6864 0.6876 0.6891 0.6908
3058.408509 0.6926 0.6944 0.6963 0.6981 0.7000
3063.429320 0.7020 0.7040 0.7061 0.7082 0.7102
3068.450130 0.7119 0.7133 0.7147 0.7160 0.7174
3073.470941 0.7186 0.7195 0.7203 0.7212 0.7220
3078.491752 0.7228 0.7235 0.7241 0.7245 0.7250
3083.512563 0.7254 0.7259 0.7263 0.7268 0.7272
3088.533374 0.7276 0.7279 0.7281 0.7284 0.7287
3093.554185 0.7289 0.7289 0.7289 0.7289 0.7289
3098.574996 0.7289 0.7274 0.7286 0.7289 0.7287
3103.595806 0.7284 0.7282 0.7280 0.7278 0.7275
3108.616617 0.7273 0.7271 0.7269 0.7267 0.7263
3113.637428 0.7256 0.7248 0.7241 0.7238 0.7240
3118.658239 0.7242 0.7244 0.7245 0.7247 0.7254
3123.679050 0.7263 0.7271 0.7279 0.7288 0.7297
3128.699861 0.7309 0.7322 0.7334 0.7347 0.7353
3133.720672 0.7355 0.7357 0.7359 0.7360 0.7361
3138.741482 0.7361 0.7362 0.7363 0.7363 0.7363
3143.762293 0.7363 0.7363 0.7363 0.7363 0.7364
3148.783104 0.7368 0.7375 0.7381 0.7389 0.7397
3153.803915 0.7406 0.7413 0.7414 0.7414 0.7414
3158.824726 0.7413 0.7410 0.7408 0.7405 0.7403
3163.845537 0.7400 0.7397 0.7395 0.7393 0.7392
3168.866348 0.7391 0.7390 0.7389 0.7388 0.7387
3173.887158 0.7388 0.7390 0.7393 0.7395 0.7397
3178.907969 0.7400 0.7402 0.7404 0.7403 0.7402
3183.928780 0.7401 0.7399 0.7397 0.7394 0.7390
3188.949591 0.7386 0.7382 0.7379 0.7377 0.7377
3193.970402 0.7377 0.7377 0.7377 0.7377 0.7377
3198.991213 0.7377 0.7377 0.7377 0.7378 0.7378
3204.012024 0.7379 0.7379 0.7379 0.7380 0.7380
3209.032834 0.7381 0.7381 0.7381 0.7380 0.7377
3214.053645 0.7375 0.7373 0.7371 0.7369 0.7367
3219.074456 0.7365 0.7362 0.7360 0.7358 0.7356
3224.095267 0.7354 0.7351 0.7349 0.7348 0.7347
3229.116078 0.7347 0.7346 0.7345 0.7344 0.7344
3234.136889 0.7344 0.7345 0.7345 0.7346 0.7346
3239.157700 0.7347 0.7347 0.7348 0.7352 0.7357
3244.178510 0.7361 0.7366 0.7370 0.7373 0.7377
3249.199321 0.7380 0.7376 0.7373 0.7369 0.7365
3254.220132 0.7361 0.7357 0.7351 0.7344 0.7338
3259.240943 0.7332 0.7326 0.7319 0.7313 0.7307
3264.261754 0.7300 0.7296 0.7292 0.7288 0.7284
3269.282565 0.7280 0.7276 0.7272 0.7271 0.7272
3274.303376 0.7272 0.7273 0.7274 0.7274 0.7276
3279.324186 0.7280 0.7284 0.7288 0.7293 0.7299
3284.344997 0.7305 0.7311 0.7317 0.7324 0.7330
3289.365808 0.7336 0.7342 0.7348 0.7353 0.7359
3294.386619 0.7364 0.7370 0.7376 0.7382 0.7388
3299.407430 0.7395 0.7403 0.7407 0.7406 0.7404
3304.428241 0.7402 0.7401 0.7399 0.7397 0.7394
3309.449052 0.7391 0.7387 0.7383 0.7378 0.7375
3314.469862 0.7371 0.7367 0.7362 0.7358 0.7353
3319.490673 0.7351 0.7351 0.7354 0.7356 0.7359
3324.511484 0.7362 0.7364 0.7369 0.7375 0.7382
3329.532295 0.7390 0.7397 0.7404 0.7410 0.7414
3334.553106 0.7416 0.7417 0.7418 0.7420 0.7419
3339.573917 0.7418 0.7415 0.7412 0.7409 0.7406
3344.594728 0.7403 0.7400 0.7397 0.7396 0.7395
3349.615538 0.7394 0.7394 0.7393 0.7392 0.7392
3354.636349 0.7391 0.7391 0.7390 0.7391 0.7392
3359.657160 0.7402 0.7414 0.7427 0.7433 0.7438
3364.677971 0.7442 0.7441 0.7438 0.7435 0.7433
3369.698782 0.7432 0.7431 0.7430 0.7429 0.7422
3374.719593 0.7414 0.7407 0.7399 0.7391 0.7385
3379.740404 0.7378 0.7372 0.7365 0.7359 0.7352
3384.761214 0.7346 0.7345 0.7344 0.7344 0.7343
3389.782025 0.7343 0.7343 0.7342 0.7342 0.7345
3394.802836 0.7348 0.7351 0.7355 0.7358 0.7361
3399.823647 0.7365 0.7370 0.7376 0.7381 0.7387
3404.844458 0.7392 0.7398 0.7404 0.7407 0.7408
3409.865269 0.7408 0.7409 0.7409 0.7410 0.7411
3414.886080 0.7411 0.7411 0.7410 0.7410 0.7410
3419.906890 0.7409 0.7409 0.7409 0.7409 0.7408
3424.927701 0.7408 0.7409 0.7409 0.7410 0.7411
3429.948512 0.7412 0.7413 0.7414 0.7415 0.7416
3434.969323 0.7417 0.7418 0.7420 0.7422 0.7428
3439.990134 0.7434 0.7439 0.7444 0.7450 0.7455
3445.010945 0.7460 0.7464 0.7467 0.7469 0.7472
3450.031756 0.7474 0.7477 0.7480 0.7482 0.7485
3455.052566 0.7487 0.7488 0.7487 0.7487 0.7486
3460.073377 0.7486 0.7485 0.7485 0.7484 0.7484
3465.094188 0.7483 0.7483 0.7481 0.7479 0.7477
3470.114999 0.7474 0.7472 0.7469 0.7466 0.7464
3475.135810 0.7461 0.7458 0.7456 0.7454 0.7452
3480.156621 0.7450 0.7448 0.7447 0.7445 0.7443
3485.177432 0.7441 0.7440 0.7438 0.7437 0.7438
3490.198242 0.7439 0.7440 0.7441 0.7442 0.7443
3495.219053 0.7444 0.7442 0.7437 0.7432 0.7426
3500.239864 0.7421 0.7415 0.7410 0.7407 0.7406
3505.260675 0.7404 0.7403 0.7401 0.7400 0.7399
3510.281486 0.7400 0.7401 0.7402 0.7403 0.7404
3515.302297 0.7405 0.7406 0.7405 0.7404 0.7403
3520.323108 0.7401 0.7400 0.7399 0.7397 0.7396
3525.343918 0.7395 0.7393 0.7391 0.7386 0.7381
3530.364729 0.7376 0.7371 0.7366 0.7361 0.7356
3535.385540 0.7351 0.7342 0.7340 0.7340 0.7340
3540.406351 0.7340 0.7340 0.7342 0.7345 0.7349
3545.427162 0.7353 0.7357 0.7360 0.7365 0.7371
3550.447973 0.7378 0.7384 0.7391 0.7396 0.7397
3555.468784 0.7395 0.7394 0.7393 0.7392 0.7390
3560.489594 0.7389 0.7388 0.7387 0.7386 0.7385
3565.510405 0.7383 0.7382 0.7381 0.7384 0.7390
3570.531216 0.7396 0.7400 0.7403 0.7405 0.7405
3575.552027 0.7403 0.7400 0.7398 0.7395 0.7393
3580.572838 0.7390 0.7388 0.7384 0.7374 0.7360
3585.593649 0.7342 0.7324 0.7321 0.7321 0.7321
3590.614460 0.7321 0.7321 0.7322 0.7325 0.7327
3595.635270 0.7330 0.7332 0.7332 0.7332 0.7331
3600.656081 0.7331 0.7330 0.7330 0.7330 0.7327
3605.676892 0.7322 0.7318 0.7314 0.7309 0.7305
3610.697703 0.7301 0.7295 0.7285 0.7274 0.7264
3615.718514 0.7253 0.7243 0.7232 0.7222 0.7212
3620.739325 0.7202 0.7192 0.7182 0.7172 0.7163
3625.760136 0.7154 0.7145 0.7137 0.7128 0.7123
3630.780946 0.7123 0.7126 0.7129 0.7132 0.7134
3635.801757 0.7137 0.7140 0.7140 0.7135 0.7129
3640.822568 0.7122 0.7116 0.7106 0.7092 0.7077
3645.843379 0.7062 0.7046 0.7038 0.7035 0.7032
3650.864190 0.7029 0.7026 0.7038 0.7037 0.7042
3655.885001 0.7047 0.7053 0.7058 0.7064 0.7069
3660.905812 0.7075 0.7081 0.7086 0.7091 0.7096
3665.926622 0.7101 0.7106 0.7112 0.7113 0.7115
3670.947433 0.7116 0.7118 0.7119 0.7121 0.7122
3675.968244 0.7127 0.7136 0.7144 0.7152 0.7161
3680.989055 0.7169 0.7178 0.7187 0.7196 0.7205
3686.009866 0.7215 0.7224 0.7234 0.7243 0.7253
3691.030677 0.7262 0.7272 0.7281 0.7292 0.7305
3696.051488 0.7320 0.7335 0.7350 0.7365 0.7380
3701.072298 0.7395 0.7409 0.7424 0.7439 0.7453
3706.093109 0.7468 0.7483 0.7498 0.7512 0.7524
3711.113920 0.7535 0.7546 0.7556 0.7567 0.7578
3716.134731 0.7586 0.7592 0.7597 0.7602 0.7606
3721.155542 0.7611 0.7615 0.7619 0.7621 0.7623
3726.176353 0.7625 0.7628 0.7630 0.7632 0.7634
3731.197163 0.7635 0.7637 0.7638 0.7639 0.7640
3736.217974 0.7641 0.7642 0.7643 0.7644 0.7646
3741.238785 0.7647 0.7648 0.7648 0.7650 0.7650
3746.259596 0.7651 0.7652 0.7652 0.7653 0.7654
3751.280407 0.7654 0.7655 0.7656 0.7656 0.7657
3756.301218 0.7658 0.7659 0.7659 0.7660 0.7661
3761.322029 0.7661 0.7662 0.7663 0.7662 0.7661
3766.342839 0.7660 0.7659 0.7658 0.7657 0.7656
3771.363650 0.7654 0.7647 0.7640 0.7632 0.7625
3776.384461 0.7617 0.7610 0.7603 0.7596 0.7589
3781.405272 0.7582 0.7575 0.7570 0.7567 0.7565
3786.426083 0.7562 0.7560 0.7558 0.7555 0.7554
3791.446894 0.7555 0.7555 0.7556 0.7557 0.7557
3796.467705 0.7561 0.7565 0.7569 0.7574 0.7579
3801.488515 0.7584 0.7589 0.7593 0.7599 0.7609
3806.509326 0.7620 0.7631 0.7642 0.7652 0.7663
3811.530137 0.7674 0.7680
##END=
