##TITLE=ESTRADIOL MONOBENZOATE
##JCAMP-DX=4.24
##DATA TYPE=INFRARED SPECTRUM
##CLASS=COBLENTZ
##ORIGIN=DEPARTMENT OF PHARMACOLOGY, THE STATE UNIVERSITY OF IOWA, IOWA
##OWNER=COBLENTZ SOCIETY
Collection (C) 2018 copyright by the U.S. Secretary of Commerce
on behalf of the United States of America. All rights reserved.
##DATE=Not specified, most likely prior to 1970
##MOLFORM=C52 H60 O6
##MP=195-197 C (CORR.)
##SOURCE REFERENCE=COBLENTZ NO. 102
##$NIST ID=B6000102
##$NIST SOURCE=COBLENTZ
##$NIST IMAGE=cob102
##SPECTROMETER/DATA SYSTEM=Not specified, most likely a prism, grating, or hybrid spectrometer.
##STATE=SOLUTION (1.9% IN CS2)
##PATH LENGTH=0.1 CM
##SAMPLING PROCEDURE=TRANSMISSION
##RESOLUTION=4
##DATA PROCESSING=DIGITIZED BY NIST FROM HARD COPY
##XUNITS=MICROMETERS
##YUNITS=TRANSMITTANCE
##XFACTOR=1.000000
##YFACTOR=1
##DELTAX=000.007457
##FIRSTX=2.031
##LASTX=15.2588
##FIRSTY=0.636
##MAXX=15.2588
##MINX=2.031
##MAXY=0.647
##MINY=0.008
##NPOINTS=1775
##XYDATA=(X++(Y..Y))
2.031000 0.6360 0.6370 0.6370 0.6370 0.6370
2.068304 0.6370 0.6360 0.6360 0.6360 0.6340
2.106000 0.6340 0.6340 0.6340 0.6340 0.6360
2.143304 0.6360 0.6360 0.6360 0.6360 0.6340
2.181000 0.6360 0.6360 0.6360 0.6360 0.6360
2.218304 0.6340 0.6340 0.6340 0.6330 0.6330
2.255000 0.6330 0.6330 0.6310 0.6310 0.6300
2.292304 0.6300 0.6280 0.6280 0.6280 0.6280
2.330000 0.6280 0.6280 0.6280 0.6270 0.6270
2.367304 0.6270 0.6270 0.6270 0.6270 0.6270
2.404000 0.6270 0.6270 0.6270 0.6270 0.6270
2.441304 0.6270 0.6270 0.6270 0.6270 0.6280
2.479000 0.6280 0.6300 0.6300 0.6300 0.6300
2.516304 0.6300 0.6300 0.6300 0.6300 0.6300
2.553000 0.6300 0.6300 0.6300 0.6310 0.6310
2.590304 0.6310 0.6310 0.6310 0.6310 0.6300
2.628000 0.6300 0.6300 0.6280 0.6280 0.6280
2.665304 0.6270 0.6250 0.6250 0.6220 0.6120
2.703000 0.6000 0.5730 0.4920 0.4850 0.4800
2.740304 0.4790 0.4800 0.4860 0.4980 0.5130
2.777000 0.5200 0.5290 0.5340 0.5360 0.5440
2.814304 0.5530 0.5590 0.5630 0.5660 0.5690
2.852000 0.5720 0.5730 0.5750 0.5810 0.5820
2.889304 0.5850 0.5900 0.5940 0.5940 0.5960
2.926000 0.5960 0.5970 0.5970 0.5990 0.5990
2.963304 0.6000 0.6000 0.6030 0.6030 0.6030
3.001000 0.6050 0.6050 0.6050 0.6050 0.6060
3.038304 0.6070 0.6070 0.6090 0.6090 0.6100
3.075000 0.6100 0.6120 0.6120 0.6150 0.6150
3.112304 0.6160 0.6160 0.6160 0.6160 0.6160
3.150000 0.6160 0.6160 0.6160 0.6090 0.6060
3.187304 0.6030 0.5990 0.5940 0.5840 0.5650
3.225000 0.5510 0.5380 0.5310 0.5310 0.5290
3.262304 0.5280 0.5260 0.5250 0.5230 0.5220
3.299000 0.5200 0.5190 0.5160 0.4830 0.4140
3.336304 0.3440 0.2850 0.2260 0.1580 0.1440
3.374000 0.1300 0.1270 0.1210 0.1210 0.1250
3.411304 0.1580 0.1590 0.1620 0.1670 0.1680
3.448000 0.1700 0.1710 0.1760 0.1870 0.1980
3.485304 0.2230 0.2450 0.2730 0.2850 0.3860
3.523000 0.3970 0.4030 0.4120 0.4390 0.5140
3.560304 0.5390 0.5470 0.5540 0.5570 0.5590
3.597000 0.5600 0.5680 0.5710 0.5730 0.5760
3.634304 0.5790 0.5820 0.5850 0.5880 0.5910
3.672000 0.5990 0.6000 0.6000 0.6050 0.6050
3.709304 0.6060 0.6060 0.6070 0.6070 0.6090
3.746000 0.6090 0.6090 0.6100 0.6100 0.6120
3.783304 0.6120 0.6120 0.6130 0.6130 0.6150
3.821000 0.6150 0.6160 0.6160 0.6160 0.6180
3.858304 0.6180 0.6190 0.6210 0.6210 0.6220
3.896000 0.6220 0.6240 0.6240 0.6250 0.6250
3.933304 0.6250 0.6250 0.6250 0.6270 0.6270
3.970000 0.6280 0.6300 0.6300 0.6310 0.6310
4.007304 0.6330 0.6330 0.6330 0.6330 0.6330
4.045000 0.6330 0.6340 0.6340 0.6360 0.6360
4.082304 0.6360 0.6360 0.6360 0.6360 0.6360
4.119000 0.6360 0.6360 0.6360 0.6360 0.6360
4.156304 0.6360 0.6360 0.6360 0.6360 0.6360
4.194000 0.6360 0.6360 0.6360 0.6340 0.6360
4.231304 0.6360 0.6360 0.6360 0.6360 0.6360
4.268000 0.6360 0.6360 0.6360 0.6360 0.6360
4.305304 0.6370 0.6370 0.6360 0.6360 0.6360
4.343000 0.6360 0.6360 0.6360 0.6370 0.6370
4.380304 0.6370 0.6370 0.6370 0.6370 0.6370
4.418000 0.6370 0.6390 0.6400 0.6400 0.6400
4.455304 0.6400 0.6400 0.6420 0.6420 0.6420
4.492000 0.6420 0.6420 0.6420 0.6420 0.6420
4.529304 0.6400 0.6400 0.6400 0.6400 0.6400
4.567000 0.6400 0.6400 0.6400 0.6400 0.6400
4.604304 0.6400 0.6420 0.6420 0.6420 0.6420
4.641000 0.6420 0.6420 0.6420 0.6420 0.6420
4.678304 0.6420 0.6420 0.6400 0.6400 0.6400
4.716000 0.6390 0.6390 0.6390 0.6390 0.6390
4.753304 0.6390 0.6390 0.6390 0.6390 0.6390
4.790000 0.6390 0.6390 0.6400 0.6400 0.6400
4.827304 0.6400 0.6400 0.6400 0.6400 0.6400
4.865000 0.6400 0.6420 0.6420 0.6430 0.6430
4.902304 0.6430 0.6430 0.6440 0.6440 0.6460
4.940000 0.6460 0.6460 0.6460 0.6460 0.6470
4.977304 0.6470 0.6460 0.6460 0.6440 0.6440
5.014000 0.6430 0.6430 0.6430 0.6420 0.6420
5.051304 0.6400 0.6390 0.6360 0.6340 0.6340
5.089000 0.6330 0.6310 0.6330 0.6330 0.6340
5.126304 0.6340 0.6360 0.6360 0.6360 0.6360
5.163000 0.6360 0.6340 0.6340 0.6340 0.6330
5.200304 0.6330 0.6330 0.6310 0.6310 0.6310
5.238000 0.6310 0.6300 0.6310 0.6310 0.6310
5.275304 0.6300 0.6300 0.6300 0.6300 0.6300
5.312000 0.6280 0.6280 0.6300 0.6300 0.6310
5.349304 0.6340 0.6340 0.6370 0.6400 0.6400
5.387000 0.6420 0.6400 0.6390 0.6370 0.6360
5.424304 0.6310 0.6270 0.6220 0.6180 0.6130
5.461000 0.6090 0.6060 0.6060 0.6060 0.6060
5.498304 0.6060 0.6060 0.6060 0.6060 0.6050
5.536000 0.6050 0.6030 0.6020 0.6000 0.5990
5.573304 0.5960 0.5930 0.5880 0.5780 0.5710
5.611000 0.5620 0.5510 0.5480 0.5380 0.5260
5.648304 0.5200 0.5100 0.4940 0.4820 0.4490
5.685000 0.4150 0.3350 0.2550 0.1520 0.0480
5.722304 0.0480 0.0510 0.0570 0.0600 0.0780
5.760000 0.0850 0.1330 0.2260 0.2320 0.2600
5.797304 0.2850 0.3520 0.3690 0.3740 0.3930
5.834000 0.4090 0.4260 0.4330 0.4390 0.4430
5.871304 0.4450 0.4480 0.4710 0.4770 0.4910
5.909000 0.5000 0.5070 0.5130 0.5200 0.5220
5.946304 0.5280 0.5310 0.5350 0.5380 0.5420
5.983000 0.5500 0.5510 0.5560 0.5560 0.5590
6.020304 0.5590 0.5590 0.5570 0.5560 0.5560
6.058000 0.5560 0.5540 0.5540 0.5540 0.5530
6.095304 0.5530 0.5530 0.5510 0.5510 0.5510
6.133000 0.5500 0.5500 0.5500 0.5500 0.5500
6.170304 0.5500 0.5500 0.5500 0.5500 0.5500
6.207000 0.5500 0.5500 0.5500 0.5480 0.5480
6.244304 0.5480 0.5480 0.5480 0.5480 0.5480
6.282000 0.5480 0.5480 0.5470 0.5470 0.5470
6.319304 0.5470 0.5450 0.5450 0.5450 0.5450
6.356000 0.5440 0.5440 0.5440 0.5440 0.5440
6.393304 0.5440 0.5440 0.5440 0.5420 0.5420
6.431000 0.5420 0.5420 0.5420 0.5420 0.5420
6.468304 0.5420 0.5420 0.5420 0.5420 0.5420
6.505000 0.5420 0.5420 0.5410 0.5410 0.5410
6.542304 0.5420 0.5420 0.5420 0.5420 0.5410
6.580000 0.5410 0.5410 0.5410 0.5410 0.5410
6.617304 0.5390 0.5390 0.5390 0.5390 0.5390
6.655000 0.5390 0.5390 0.5380 0.5380 0.5380
6.692304 0.5380 0.5380 0.5380 0.5390 0.5390
6.729000 0.5390 0.5390 0.5390 0.5390 0.5390
6.766304 0.5390 0.5380 0.5380 0.5380 0.5380
6.804000 0.5380 0.5380 0.5380 0.5380 0.5380
6.841304 0.5380 0.5360 0.5360 0.5360 0.5360
6.878000 0.5360 0.5360 0.5360 0.5360 0.5360
6.915304 0.5360 0.5350 0.5350 0.5340 0.5350
6.953000 0.5350 0.5350 0.5350 0.5350 0.5340
6.990304 0.5340 0.5340 0.5320 0.5320 0.5320
7.027000 0.5310 0.5310 0.5310 0.5290 0.5310
7.064304 0.5310 0.5310 0.5310 0.5310 0.5310
7.102000 0.5290 0.5290 0.5290 0.5290 0.5290
7.139304 0.5290 0.5280 0.5280 0.5260 0.5230
7.176000 0.5200 0.5160 0.5110 0.5080 0.5020
7.213304 0.4940 0.4850 0.4760 0.4700 0.4630
7.251000 0.4600 0.4550 0.4520 0.4490 0.4480
7.288304 0.4450 0.4430 0.4430 0.4430 0.4460
7.326000 0.4460 0.4490 0.4510 0.4520 0.4540
7.363304 0.4570 0.4580 0.4630 0.4640 0.4640
7.400000 0.4650 0.4650 0.4650 0.4650 0.4650
7.437304 0.4630 0.4600 0.4550 0.4520 0.4510
7.475000 0.4490 0.4460 0.4390 0.4340 0.4300
7.512304 0.4280 0.4260 0.4240 0.4230 0.4230
7.549000 0.4230 0.4210 0.4210 0.4200 0.4110
7.586304 0.3940 0.3710 0.3590 0.3410 0.3340
7.624000 0.3280 0.3220 0.3180 0.3130 0.3100
7.661304 0.3100 0.3100 0.3100 0.3100 0.3100
7.698000 0.3100 0.3100 0.3090 0.3070 0.3070
7.735304 0.3040 0.3000 0.2980 0.2890 0.2820
7.773000 0.2780 0.2700 0.2630 0.2520 0.2320
7.810304 0.2170 0.2080 0.1810 0.1620 0.1560
7.848000 0.1490 0.1330 0.1250 0.1130 0.1030
7.885304 0.0910 0.0810 0.0690 0.0590 0.0470
7.922000 0.0450 0.0360 0.0320 0.0260 0.0250
7.959304 0.0200 0.0160 0.0140 0.0130 0.0100
7.997000 0.0100 0.0080 0.0080 0.0080 0.0080
8.034304 0.0080 0.0110 0.0130 0.0140 0.0170
8.071000 0.0230 0.0250 0.0340 0.0380 0.0510
8.108304 0.0570 0.0630 0.0680 0.0660 0.0650
8.146000 0.0600 0.0540 0.0540 0.0440 0.0380
8.183304 0.0320 0.0310 0.0260 0.0190 0.0170
8.220000 0.0140 0.0130 0.0130 0.0140 0.0140
8.257304 0.0140 0.0170 0.0360 0.0470 0.0710
8.295000 0.0820 0.0940 0.1060 0.1180 0.1310
8.332304 0.1770 0.1920 0.1980 0.2180 0.2480
8.370000 0.2540 0.2880 0.3100 0.3180 0.3220
8.407304 0.3310 0.3410 0.3560 0.3630 0.3660
8.444000 0.3690 0.3720 0.3720 0.3690 0.3680
8.481304 0.3660 0.3590 0.3150 0.2890 0.2640
8.519000 0.2480 0.1930 0.1520 0.1100 0.1100
8.556304 0.1300 0.1360 0.2130 0.2450 0.2500
8.593000 0.2600 0.2670 0.2720 0.2750 0.2780
8.630304 0.2810 0.2820 0.2820 0.2790 0.2760
8.668000 0.2690 0.2630 0.2020 0.1530 0.1490
8.705304 0.1440 0.1220 0.1180 0.1050 0.1050
8.742000 0.1430 0.1640 0.1700 0.1780 0.1830
8.779304 0.1890 0.1930 0.1980 0.2020 0.2050
8.817000 0.2070 0.2070 0.2070 0.2070 0.2080
8.854304 0.2080 0.1960 0.1990 0.1990 0.2070
8.891000 0.2150 0.2260 0.2390 0.2540 0.2610
8.928304 0.2690 0.2750 0.2790 0.2820 0.2850
8.966000 0.2860 0.2880 0.2880 0.2890 0.2890
9.003304 0.2880 0.2880 0.2880 0.2860 0.2860
9.041000 0.2850 0.2850 0.2840 0.2840 0.2820
9.078304 0.2810 0.2750 0.2750 0.2720 0.2700
9.115000 0.2720 0.2730 0.2780 0.2860 0.3180
9.152304 0.3290 0.3430 0.3470 0.3520 0.3550
9.190000 0.3560 0.3590 0.3620 0.3570 0.3220
9.227304 0.2860 0.2520 0.2040 0.1870 0.1490
9.264000 0.1100 0.1020 0.0960 0.0910 0.0910
9.301304 0.0900 0.0900 0.0910 0.0930 0.0930
9.339000 0.0940 0.0970 0.0990 0.1020 0.1020
9.376304 0.1030 0.1020 0.0970 0.0910 0.0820
9.413000 0.0750 0.0710 0.0660 0.0600 0.0540
9.450304 0.0510 0.0480 0.0470 0.0450 0.0470
9.488000 0.0510 0.0590 0.0630 0.0660 0.0780
9.525304 0.0850 0.0960 0.1020 0.1100 0.1190
9.563000 0.1270 0.1330 0.1390 0.1440 0.1610
9.600304 0.1740 0.1920 0.2260 0.2450 0.2540
9.637000 0.2640 0.2730 0.2790 0.2860 0.2970
9.674304 0.3070 0.3150 0.3190 0.3220 0.3230
9.712000 0.3280 0.3280 0.3210 0.3180 0.3060
9.749304 0.2360 0.1650 0.1370 0.1090 0.1070
9.786000 0.1050 0.1090 0.1120 0.1440 0.1800
9.823304 0.2020 0.2100 0.2290 0.2350 0.2390
9.861000 0.2440 0.2480 0.2580 0.2660 0.2720
9.898304 0.2750 0.2810 0.2840 0.2860 0.2890
9.935000 0.2920 0.2950 0.2970 0.2970 0.2980
9.972304 0.3060 0.3090 0.3180 0.3260 0.3380
10.010000 0.3460 0.3530 0.3710 0.3740 0.3750
10.047304 0.3900 0.3990 0.4050 0.4180 0.4300
10.085000 0.4360 0.4420 0.4550 0.4610 0.4650
10.122304 0.4700 0.4730 0.4770 0.4820 0.4850
10.159000 0.4880 0.4940 0.4970 0.5000 0.5040
10.196304 0.5080 0.5110 0.5140 0.5160 0.5170
10.234000 0.5170 0.5170 0.5170 0.5190 0.5200
10.271304 0.5220 0.5220 0.5230 0.5250 0.5250
10.308000 0.5260 0.5280 0.5280 0.5280 0.5280
10.345304 0.5290 0.5290 0.5280 0.5280 0.5280
10.383000 0.5260 0.5260 0.5230 0.5200 0.5110
10.420304 0.5110 0.5160 0.5190 0.5200 0.5230
10.457000 0.5250 0.5260 0.5290 0.5310 0.5320
10.494304 0.5340 0.5360 0.5360 0.5360 0.5380
10.532000 0.5390 0.5410 0.5410 0.5410 0.5410
10.569304 0.5410 0.5410 0.5420 0.5420 0.5420
10.606000 0.5420 0.5420 0.5420 0.5420 0.5420
10.643304 0.5420 0.5420 0.5410 0.5410 0.5410
10.681000 0.5390 0.5380 0.5350 0.5320 0.5290
10.718304 0.5250 0.5200 0.5140 0.5110 0.5110
10.756000 0.5070 0.5050 0.5040 0.5020 0.5000
10.793304 0.4980 0.4940 0.4880 0.4830 0.4830
10.830000 0.4800 0.4790 0.4800 0.4820 0.4850
10.867304 0.4850 0.4890 0.4920 0.4920 0.4940
10.905000 0.4920 0.4910 0.4880 0.4850 0.4790
10.942304 0.4710 0.4640 0.4580 0.4540 0.4540
10.979000 0.4550 0.4570 0.4580 0.4630 0.4670
11.016304 0.4730 0.4740 0.4740 0.4740 0.4740
11.054000 0.4740 0.4730 0.4730 0.4680 0.4640
11.091304 0.4600 0.4550 0.4520 0.4490 0.4460
11.128000 0.4430 0.4420 0.4390 0.4340 0.4310
11.165304 0.4270 0.3600 0.3430 0.3340 0.3260
11.203000 0.3160 0.3060 0.3030 0.3000 0.2970
11.240304 0.2950 0.2940 0.2940 0.2940 0.2940
11.278000 0.2940 0.2940 0.2950 0.2970 0.3000
11.315304 0.3150 0.3230 0.3320 0.3410 0.3500
11.352000 0.3620 0.3680 0.3780 0.3870 0.3940
11.389304 0.4020 0.4050 0.4140 0.4200 0.4260
11.427000 0.4300 0.4370 0.4420 0.4450 0.4490
11.464304 0.4550 0.4580 0.4630 0.4640 0.4680
11.501000 0.4710 0.4730 0.4740 0.4770 0.4790
11.538304 0.4800 0.4820 0.4830 0.4830 0.4850
11.576000 0.4850 0.4850 0.4860 0.4880 0.4880
11.613304 0.4880 0.4890 0.4890 0.4890 0.4890
11.650000 0.4890 0.4910 0.4910 0.4910 0.4910
11.687304 0.4920 0.4920 0.4940 0.4940 0.4940
11.725000 0.4940 0.4950 0.4950 0.4950 0.4950
11.762304 0.4950 0.4950 0.4970 0.4970 0.4980
11.800000 0.4980 0.5000 0.5010 0.5040 0.5050
11.837304 0.5070 0.5080 0.5100 0.5110 0.5130
11.874000 0.5160 0.5170 0.5190 0.5190 0.5200
11.911304 0.5200 0.5200 0.5220 0.5220 0.5230
11.949000 0.5230 0.5250 0.5250 0.5260 0.5260
11.986304 0.5280 0.5280 0.5280 0.5290 0.5310
12.023000 0.5320 0.5340 0.5360 0.5390 0.5390
12.060304 0.5410 0.5410 0.5410 0.5410 0.5410
12.098000 0.5410 0.5410 0.5410 0.5410 0.5410
12.135304 0.5410 0.5410 0.5410 0.5410 0.5410
12.172000 0.5390 0.5380 0.5360 0.5320 0.5260
12.209304 0.5230 0.5170 0.5140 0.5100 0.5040
12.247000 0.4940 0.4830 0.4730 0.4610 0.4520
12.284304 0.4510 0.4510 0.4490 0.4460 0.4450
12.321000 0.4460 0.4480 0.4540 0.4610 0.4700
12.358304 0.4790 0.4830 0.4920 0.5000 0.5070
12.396000 0.5130 0.5200 0.5260 0.5380 0.5440
12.433304 0.5470 0.5500 0.5540 0.5590 0.5600
12.471000 0.5630 0.5630 0.5650 0.5650 0.5650
12.508304 0.5630 0.5630 0.5620 0.5590 0.5560
12.545000 0.5530 0.5530 0.5510 0.5530 0.5560
12.582304 0.5590 0.5600 0.5600 0.5600 0.5620
12.620000 0.5620 0.5620 0.5620 0.5600 0.5590
12.657304 0.5560 0.5530 0.5470 0.5410 0.5380
12.694000 0.5350 0.5200 0.5170 0.5100 0.5040
12.731304 0.5000 0.4910 0.4740 0.4710 0.4640
12.769000 0.4630 0.4600 0.4610 0.4630 0.4630
12.806304 0.4640 0.4650 0.4670 0.4680 0.4680
12.843000 0.4700 0.4730 0.4760 0.4790 0.4880
12.880304 0.5000 0.5070 0.5130 0.5200 0.5290
12.918000 0.5360 0.5440 0.5500 0.5540 0.5570
12.955304 0.5620 0.5650 0.5710 0.5720 0.5730
12.993000 0.5760 0.5810 0.5850 0.5900 0.5940
13.030304 0.5990 0.6030 0.6050 0.6060 0.6090
13.067000 0.6120 0.6150 0.6190 0.6210 0.6220
13.104304 0.6240 0.6250 0.6270 0.6280 0.6310
13.142000 0.6330 0.6330 0.6340 0.6340 0.6360
13.179304 0.6360 0.6360 0.6360 0.6370 0.6370
13.216000 0.6370 0.6390 0.6390 0.6390 0.6390
13.253304 0.6390 0.6390 0.6390 0.6390 0.6390
13.291000 0.6390 0.6370 0.6370 0.6360 0.6360
13.328304 0.6340 0.6330 0.6310 0.6310 0.6300
13.365000 0.6280 0.6270 0.6250 0.6240 0.6240
13.402304 0.6220 0.6210 0.6130 0.6070 0.6060
13.440000 0.6050 0.6030 0.6020 0.6020 0.6000
13.477304 0.5970 0.5870 0.5810 0.5750 0.5680
13.514000 0.5620 0.5600 0.5570 0.5560 0.5540
13.551304 0.5530 0.5510 0.5500 0.5500 0.5480
13.589000 0.5480 0.5500 0.5500 0.5500 0.5530
13.626304 0.5540 0.5560 0.5620 0.5650 0.5680
13.664000 0.5730 0.5780 0.5810 0.5840 0.5850
13.701304 0.5880 0.5880 0.5900 0.5900 0.5910
13.738000 0.5910 0.5940 0.5940 0.5960 0.5960
13.775304 0.5970 0.5970 0.5990 0.5990 0.5990
13.813000 0.6000 0.6000 0.6000 0.6000 0.6020
13.850304 0.6020 0.6030 0.6020 0.6020 0.6020
13.887000 0.6020 0.6000 0.5990 0.5970 0.5940
13.924304 0.5910 0.5880 0.5840 0.5790 0.5750
13.962000 0.5680 0.5620 0.5480 0.5360 0.5200
13.999304 0.5170 0.4890 0.4670 0.4540 0.4460
14.036000 0.4390 0.4310 0.4170 0.4000 0.3780
14.073304 0.3500 0.3010 0.2840 0.2640 0.2240
14.111000 0.1930 0.1610 0.1550 0.1490 0.1420
14.148304 0.1250 0.1180 0.1050 0.0910 0.0840
14.186000 0.0730 0.0660 0.0630 0.0600 0.0590
14.223304 0.0560 0.0540 0.0510 0.0500 0.0510
14.260000 0.0540 0.0590 0.0630 0.0760 0.1030
14.297304 0.1050 0.1120 0.1300 0.1420 0.1670
14.335000 0.2100 0.2450 0.2780 0.2890 0.3000
14.372304 0.3320 0.3520 0.3680 0.3720 0.3750
14.409000 0.3920 0.4020 0.4050 0.4150 0.4180
14.446304 0.4230 0.4280 0.4330 0.4360 0.4390
14.484000 0.4450 0.4570 0.4630 0.4650 0.4700
14.521304 0.4700 0.4700 0.4700 0.4700 0.4700
14.558000 0.4680 0.4670 0.4650 0.4610 0.4580
14.595304 0.4550 0.4540 0.4520 0.4490 0.4430
14.633000 0.4370 0.4340 0.4330 0.4300 0.4300
14.670304 0.4300 0.4300 0.4330 0.4360 0.4370
14.708000 0.4370 0.4420 0.4460 0.4580 0.4630
14.745304 0.4650 0.4670 0.4680 0.4680 0.4680
14.782000 0.4680 0.4680 0.4700 0.4700 0.4700
14.819304 0.4700 0.4700 0.4710 0.4710 0.4710
14.857000 0.4730 0.4760 0.4820 0.4880 0.4950
14.894304 0.5000 0.5040 0.5050 0.5070 0.5080
14.931000 0.5100 0.5110 0.5110 0.5130 0.5140
14.968304 0.5200 0.5250 0.5350 0.5470 0.5510
15.006000 0.5690 0.5780 0.5940 0.5990 0.6000
15.043304 0.6050 0.6090 0.6100 0.6120 0.6130
15.080000 0.6150 0.6160 0.6180 0.6180 0.6190
15.117304 0.6190 0.6210 0.6210 0.6220 0.6220
15.155000 0.6240 0.6240 0.6240 0.6250 0.6250
15.192304 0.6270 0.6270 0.6280 0.6280 0.6300
15.229000 0.6300 0.6270 0.6280 0.6280 0.6300
##END=
