##TITLE=2-HYDROXY-4-METHOXY BENZOYL FERROCENE
##JCAMP-DX=4.24
##DATA TYPE=INFRARED SPECTRUM
##CLASS=COBLENTZ
##ORIGIN=WYANDOTTE CHEMICALS CORP., WYANDOTTE, MICHIGAN, USA
##OWNER=COBLENTZ SOCIETY
Collection (C) 2018 copyright by the U.S. Secretary of Commerce
on behalf of the United States of America. All rights reserved.
##DATE=Not specified, most likely prior to 1970
##MOLFORM=C18 H16 O3 Fe
##SOURCE REFERENCE=COBLENTZ NO. 3004
##$NIST ID=B6003004
##$NIST SOURCE=COBLENTZ
##$NIST IMAGE=cob3004
##SPECTROMETER/DATA SYSTEM=Not specified, most likely a prism, grating, or hybrid spectrometer.
##STATE=SOLID (MINERAL OIL MULL)
##PATH LENGTH=
$$SPECTRAL CONTAMINATION DUE TO OIL AROUND 2900 CM^-^1
##SAMPLING PROCEDURE=TRANSMISSION
##RESOLUTION=4
##DATA PROCESSING=DIGITIZED BY NIST FROM HARD COPY
##XUNITS=MICROMETERS
##YUNITS=TRANSMITTANCE
##XFACTOR=1.000000
##YFACTOR=1
##DELTAX=000.006806
##FIRSTX=2.007
##LASTX=15.9862
##FIRSTY=0.429
##MAXX=15.9862
##MINX=2.007
##MAXY=0.936
##MINY=0.042
##NPOINTS=2055
##XYDATA=(X++(Y..Y))
2.007000 0.4290 0.4340 0.4370 0.4370 0.4390
2.041047 0.4390 0.4390 0.4420 0.4440 0.4460
2.075000 0.4470 0.4490 0.4490 0.4490 0.4510
2.109047 0.4520 0.4520 0.4540 0.4540 0.4560
2.143000 0.4560 0.4580 0.4580 0.4580 0.4580
2.177047 0.4580 0.4580 0.4580 0.4580 0.4580
2.211000 0.4580 0.4590 0.4590 0.4590 0.4590
2.245047 0.4590 0.4640 0.4680 0.4710 0.4730
2.279000 0.4780 0.4820 0.4820 0.4830 0.4830
2.313047 0.4830 0.4830 0.4850 0.4870 0.4880
2.347000 0.4900 0.4900 0.4920 0.4920 0.4940
2.381047 0.4940 0.4970 0.4990 0.5000 0.5000
2.415000 0.5020 0.5040 0.5050 0.5070 0.5090
2.449047 0.5090 0.5090 0.5070 0.5070 0.5070
2.483000 0.5090 0.5090 0.5120 0.5160 0.5170
2.517047 0.5210 0.5240 0.5280 0.5290 0.5290
2.551000 0.5290 0.5290 0.5290 0.5290 0.5310
2.585047 0.5350 0.5360 0.5380 0.5400 0.5400
2.619000 0.5400 0.5400 0.5400 0.5400 0.5400
2.653047 0.5410 0.5430 0.5430 0.5430 0.5430
2.687000 0.5450 0.5480 0.5500 0.5520 0.5520
2.721047 0.5520 0.5530 0.5530 0.5550 0.5550
2.755000 0.5550 0.5570 0.5570 0.5570 0.5570
2.789047 0.5550 0.5570 0.5620 0.5640 0.5650
2.824000 0.5670 0.5670 0.5650 0.5640 0.5620
2.858047 0.5620 0.5620 0.5640 0.5640 0.5640
2.892000 0.5650 0.5650 0.5650 0.5650 0.5650
2.926047 0.5650 0.5640 0.5620 0.5600 0.5620
2.960000 0.5650 0.5670 0.5690 0.5700 0.5700
2.994047 0.5690 0.5650 0.5650 0.5650 0.5650
3.028000 0.5650 0.5670 0.5700 0.5720 0.5700
3.062047 0.5690 0.5650 0.5650 0.5640 0.5620
3.096000 0.5600 0.5580 0.5580 0.5600 0.5600
3.130047 0.5600 0.5580 0.5530 0.5500 0.5480
3.164000 0.5480 0.5470 0.5450 0.5430 0.5410
3.198047 0.5330 0.5190 0.5070 0.4950 0.4750
3.232000 0.4700 0.4700 0.4730 0.4950 0.5040
3.266047 0.5070 0.5050 0.4970 0.4820 0.4560
3.300000 0.4230 0.3940 0.3670 0.3410 0.2880
3.334047 0.2290 0.1860 0.1310 0.0830 0.0760
3.368000 0.0700 0.0630 0.0590 0.0510 0.0440
3.402047 0.0440 0.0510 0.0580 0.0680 0.0880
3.436000 0.1110 0.1350 0.1530 0.1670 0.1690
3.470047 0.1690 0.1620 0.1500 0.1450 0.1450
3.504000 0.1500 0.2050 0.2560 0.3600 0.4460
3.538047 0.5110 0.5520 0.5770 0.5890 0.5980
3.572000 0.6000 0.6010 0.6050 0.6110 0.6130
3.606047 0.6130 0.6110 0.6110 0.6110 0.6100
3.640000 0.6100 0.6050 0.6030 0.6010 0.6000
3.674047 0.5980 0.5960 0.5960 0.6000 0.6060
3.708000 0.6150 0.6220 0.6290 0.6320 0.6340
3.742047 0.6340 0.6340 0.6320 0.6320 0.6320
3.776000 0.6320 0.6350 0.6370 0.6390 0.6410
3.810047 0.6420 0.6460 0.6490 0.6540 0.6580
3.844000 0.6630 0.6680 0.6700 0.6750 0.6780
3.878047 0.6800 0.6820 0.6820 0.6870 0.6880
3.912000 0.6920 0.6950 0.6990 0.7000 0.7000
3.946047 0.7020 0.7020 0.7050 0.7070 0.7140
3.981000 0.7160 0.7160 0.7170 0.7190 0.7210
4.015047 0.7210 0.7210 0.7210 0.7210 0.7230
4.049000 0.7230 0.7230 0.7230 0.7230 0.7240
4.083047 0.7280 0.7290 0.7310 0.7310 0.7350
4.117000 0.7360 0.7380 0.7400 0.7400 0.7410
4.151047 0.7450 0.7480 0.7470 0.7430 0.7410
4.185000 0.7400 0.7400 0.7430 0.7480 0.7480
4.219047 0.7520 0.7520 0.7520 0.7500 0.7480
4.253000 0.7470 0.7450 0.7450 0.7480 0.7480
4.287047 0.7480 0.7480 0.7500 0.7500 0.7500
4.321000 0.7520 0.7520 0.7530 0.7550 0.7570
4.355047 0.7600 0.7650 0.7700 0.7760 0.7790
4.389000 0.7820 0.7840 0.7910 0.7930 0.7930
4.423047 0.7910 0.7890 0.7890 0.7910 0.7930
4.457000 0.7940 0.7960 0.7960 0.7980 0.7980
4.491047 0.8000 0.8000 0.8010 0.8030 0.8030
4.525000 0.8050 0.8050 0.8080 0.8080 0.8100
4.559047 0.8130 0.8150 0.8150 0.8170 0.8170
4.593000 0.8180 0.8180 0.8170 0.8170 0.8170
4.627047 0.8180 0.8180 0.8200 0.8220 0.8250
4.661000 0.8300 0.8320 0.8340 0.8350 0.8370
4.695047 0.8390 0.8390 0.8410 0.8410 0.8410
4.729000 0.8440 0.8510 0.8520 0.8520 0.8520
4.763047 0.8510 0.8510 0.8510 0.8510 0.8510
4.797000 0.8520 0.8540 0.8560 0.8580 0.8610
4.831047 0.8630 0.8640 0.8640 0.8640 0.8660
4.865000 0.8660 0.8660 0.8660 0.8680 0.8700
4.899047 0.8710 0.8750 0.8760 0.8760 0.8750
4.933000 0.8730 0.8700 0.8630 0.8590 0.8580
4.967047 0.8630 0.8680 0.8710 0.8750 0.8780
5.001000 0.8820 0.8830 0.8850 0.8850 0.8870
5.035047 0.8870 0.8870 0.8850 0.8850 0.8870
5.070000 0.8880 0.8940 0.8990 0.9000 0.9000
5.104047 0.9020 0.9040 0.9050 0.9040 0.9040
5.138000 0.9040 0.9050 0.9040 0.9020 0.9020
5.172047 0.9000 0.8990 0.8970 0.8940 0.8920
5.206000 0.8920 0.8920 0.8950 0.8970 0.9000
5.240047 0.8990 0.9040 0.9070 0.9110 0.9160
5.274000 0.9160 0.9120 0.9120 0.9120 0.9140
5.308047 0.9170 0.9210 0.9240 0.9260 0.9280
5.342000 0.9290 0.9310 0.9310 0.9310 0.9310
5.376047 0.9330 0.9330 0.9350 0.9350 0.9350
5.410000 0.9350 0.9350 0.9350 0.9330 0.9330
5.444047 0.9310 0.9310 0.9330 0.9350 0.9350
5.478000 0.9350 0.9350 0.9350 0.9360 0.9330
5.512047 0.9290 0.9210 0.9140 0.9110 0.9090
5.546000 0.9090 0.9090 0.9070 0.9070 0.9090
5.580047 0.9090 0.9090 0.9070 0.9040 0.9040
5.614000 0.9050 0.9090 0.9140 0.9210 0.9260
5.648047 0.9280 0.9290 0.9290 0.9290 0.9290
5.682000 0.9310 0.9290 0.9290 0.9280 0.9260
5.716047 0.9240 0.9240 0.9240 0.9240 0.9230
5.750000 0.9210 0.9210 0.9170 0.9140 0.9110
5.784047 0.9070 0.9070 0.9040 0.9020 0.9000
5.818000 0.9000 0.8990 0.8940 0.8920 0.8900
5.852047 0.8880 0.8880 0.8900 0.8920 0.8880
5.886000 0.8830 0.8760 0.8660 0.8560 0.8540
5.920047 0.8510 0.8540 0.8470 0.8410 0.8350
5.954000 0.8340 0.8300 0.8230 0.8170 0.8130
5.988047 0.8100 0.7910 0.7740 0.7520 0.7330
6.022000 0.7110 0.6940 0.6490 0.6060 0.5820
6.056047 0.5580 0.5310 0.4850 0.4350 0.2950
6.090000 0.2340 0.2030 0.1890 0.1790 0.1670
6.124047 0.1480 0.1470 0.1470 0.1520 0.1720
6.158000 0.1840 0.1980 0.2110 0.2350 0.2490
6.192047 0.2590 0.2730 0.2820 0.2820 0.2780
6.227000 0.2660 0.2490 0.2060 0.1620 0.1410
6.261047 0.1110 0.0950 0.0880 0.0850 0.0870
6.295000 0.1120 0.1650 0.1980 0.2200 0.2560
6.329047 0.2820 0.3110 0.3410 0.3760 0.4100
6.363000 0.4410 0.4710 0.4950 0.5140 0.5310
6.397047 0.5480 0.5740 0.5980 0.6180 0.6290
6.431000 0.6420 0.6510 0.6560 0.6730 0.6900
6.465047 0.7020 0.7040 0.7120 0.7160 0.7190
6.499000 0.7190 0.7170 0.7120 0.7110 0.7110
6.533047 0.7090 0.7020 0.6870 0.6660 0.6350
6.567000 0.5940 0.5500 0.5040 0.4590 0.4170
6.601047 0.3890 0.3810 0.3790 0.3790 0.3650
6.635000 0.3310 0.3120 0.3120 0.3190 0.3410
6.669047 0.3600 0.4010 0.4640 0.5110 0.5310
6.703000 0.5360 0.5430 0.5520 0.5550 0.5550
6.737047 0.5500 0.5190 0.4820 0.4320 0.3770
6.771000 0.3470 0.3110 0.2800 0.2460 0.2180
6.805047 0.2150 0.2100 0.2010 0.1820 0.1740
6.839000 0.1580 0.1470 0.1350 0.1240 0.1190
6.873047 0.1110 0.1090 0.1110 0.1170 0.1290
6.907000 0.1600 0.1910 0.2220 0.2870 0.3550
6.941047 0.4080 0.4640 0.5160 0.5530 0.5890
6.975000 0.6100 0.6180 0.6350 0.6510 0.6660
7.009047 0.6730 0.6760 0.6700 0.6460 0.6250
7.043000 0.6010 0.5980 0.5980 0.6000 0.6150
7.077047 0.6290 0.6490 0.6540 0.6560 0.6510
7.111000 0.6150 0.5910 0.5520 0.5480 0.5480
7.145047 0.5520 0.5700 0.5690 0.5520 0.5230
7.179000 0.4710 0.4410 0.3450 0.2390 0.1760
7.213047 0.1280 0.1070 0.0820 0.0630 0.0590
7.247000 0.0630 0.0900 0.1260 0.1690 0.2010
7.281047 0.2270 0.2660 0.3050 0.3400 0.3720
7.316000 0.4030 0.4490 0.4590 0.4590 0.4510
7.350047 0.4150 0.4000 0.3980 0.4000 0.4610
7.384000 0.5050 0.5480 0.5890 0.5940 0.6000
7.418047 0.6000 0.5640 0.5230 0.4780 0.4230
7.452000 0.3500 0.2610 0.2390 0.2030 0.2340
7.486047 0.2510 0.2850 0.3380 0.3910 0.4170
7.520000 0.4300 0.4460 0.4750 0.5090 0.5400
7.554047 0.5580 0.5890 0.6080 0.6270 0.6390
7.588000 0.6470 0.6610 0.6680 0.6680 0.6630
7.622047 0.6460 0.6200 0.5890 0.5580 0.5330
7.656000 0.5110 0.5000 0.5000 0.5000 0.5210
7.690047 0.5620 0.5910 0.6100 0.6300 0.6560
7.724000 0.6730 0.6820 0.6880 0.6900 0.6880
7.758047 0.6820 0.6760 0.6700 0.6560 0.6410
7.792000 0.6180 0.5890 0.5550 0.5140 0.4630
7.826047 0.4080 0.3530 0.2780 0.2060 0.1620
7.860000 0.1170 0.0780 0.0580 0.0470 0.0420
7.894047 0.0420 0.0460 0.0700 0.0950 0.1350
7.928000 0.1600 0.1910 0.2100 0.2350 0.2700
7.962047 0.2950 0.3110 0.3310 0.3450 0.3640
7.996000 0.3890 0.4110 0.4290 0.4410 0.4520
8.030047 0.4590 0.4640 0.4700 0.4730 0.4750
8.064000 0.4710 0.4560 0.4440 0.4200 0.3810
8.098047 0.3720 0.3690 0.3690 0.3790 0.4250
8.132000 0.4660 0.5040 0.5400 0.5650 0.5790
8.166047 0.5860 0.5860 0.5810 0.5620 0.5160
8.200000 0.4700 0.4230 0.3670 0.3110 0.2560
8.234047 0.2110 0.1810 0.1600 0.1480 0.1430
8.268000 0.1430 0.1480 0.1700 0.1940 0.2220
8.302047 0.2680 0.3140 0.3600 0.4010 0.4370
8.336000 0.4610 0.4950 0.5240 0.5520 0.5700
8.370047 0.5860 0.5960 0.6050 0.6110 0.6200
8.404000 0.6300 0.6420 0.6460 0.6510 0.6540
8.438047 0.6590 0.6680 0.6750 0.6820 0.6830
8.473000 0.6850 0.6870 0.6850 0.6820 0.6760
8.507047 0.6680 0.6540 0.6350 0.6150 0.5980
8.541000 0.5910 0.5890 0.5910 0.6110 0.6440
8.575047 0.6710 0.7000 0.7070 0.7290 0.7530
8.609000 0.7620 0.7700 0.7770 0.7860 0.7930
8.643047 0.8000 0.8060 0.8100 0.8110 0.8110
8.677000 0.8130 0.8130 0.8150 0.8170 0.8180
8.711047 0.8170 0.8180 0.8220 0.8270 0.8390
8.745000 0.8490 0.8540 0.8590 0.8630 0.8610
8.779047 0.8590 0.8580 0.8520 0.8440 0.8340
8.813000 0.8220 0.8010 0.7740 0.7350 0.6780
8.847047 0.6230 0.5700 0.5110 0.4460 0.3690
8.881000 0.2870 0.2180 0.1980 0.1860 0.1810
8.915047 0.1770 0.1770 0.1840 0.2030 0.2110
8.949000 0.2390 0.2820 0.3050 0.3190 0.3410
8.983047 0.3410 0.3410 0.3410 0.3400 0.4440
9.017000 0.5190 0.5580 0.5910 0.6130 0.6300
9.051047 0.6440 0.6590 0.6730 0.6830 0.6920
9.085000 0.7000 0.7070 0.7170 0.7260 0.7330
9.119047 0.7410 0.7480 0.7530 0.7580 0.7620
9.153000 0.7640 0.7670 0.7690 0.7720 0.7760
9.187047 0.7770 0.7810 0.7840 0.7910 0.7930
9.221000 0.7940 0.7960 0.7980 0.7980 0.8000
9.255047 0.8000 0.8000 0.8000 0.8000 0.8010
9.289000 0.8010 0.8050 0.8100 0.8150 0.8180
9.323047 0.8180 0.8220 0.8200 0.8180 0.8180
9.357000 0.8170 0.8130 0.8130 0.8110 0.8050
9.391047 0.8010 0.7890 0.7690 0.7570 0.7400
9.425000 0.7140 0.6850 0.6470 0.6200 0.5980
9.459047 0.5840 0.5840 0.5890 0.6250 0.6640
9.493000 0.7040 0.7290 0.7520 0.7650 0.7790
9.527047 0.7960 0.8050 0.8170 0.8220 0.8250
9.561000 0.8290 0.8290 0.8290 0.8230 0.8100
9.595047 0.7880 0.7550 0.7140 0.6750 0.6510
9.630000 0.6110 0.6000 0.6000 0.6110 0.6390
9.664047 0.6510 0.6700 0.6850 0.6880 0.6880
9.698000 0.6780 0.6520 0.6200 0.5840 0.5290
9.732047 0.4780 0.4200 0.3600 0.3280 0.3280
9.766000 0.3360 0.3810 0.4340 0.4850 0.5240
9.800047 0.5600 0.6300 0.6640 0.6750 0.6900
9.834000 0.7050 0.7170 0.7260 0.7350 0.7400
9.868047 0.7480 0.7480 0.7480 0.7400 0.7280
9.902000 0.7090 0.6950 0.6850 0.6700 0.6610
9.936047 0.6520 0.6510 0.6470 0.6350 0.6130
9.970000 0.6060 0.6060 0.6100 0.6370 0.6640
10.004047 0.6920 0.7260 0.7530 0.7620 0.7740
10.038000 0.7890 0.8010 0.8130 0.8220 0.8300
10.072047 0.8370 0.8420 0.8470 0.8490 0.8520
10.106000 0.8580 0.8590 0.8630 0.8680 0.8710
10.140047 0.8730 0.8710 0.8730 0.8730 0.8750
10.174000 0.8760 0.8750 0.8680 0.8610 0.8510
10.208047 0.8420 0.8350 0.8230 0.8050 0.7960
10.242000 0.7840 0.7790 0.7770 0.7770 0.7790
10.276047 0.7840 0.7940 0.8000 0.8060 0.8100
10.310000 0.8110 0.8110 0.8030 0.7860 0.7720
10.344047 0.7500 0.7280 0.7050 0.6870 0.6850
10.378000 0.6830 0.6870 0.6990 0.7050 0.7410
10.412047 0.7640 0.7810 0.7980 0.8100 0.8220
10.446000 0.8320 0.8390 0.8470 0.8520 0.8560
10.480047 0.8580 0.8590 0.8630 0.8680 0.8710
10.514000 0.8750 0.8760 0.8760 0.8760 0.8750
10.548047 0.8730 0.8700 0.8630 0.8590 0.8510
10.582000 0.8350 0.8180 0.7960 0.7700 0.7450
10.616047 0.7160 0.6850 0.6560 0.6420 0.6410
10.650000 0.6420 0.6630 0.6870 0.7170 0.7470
10.684047 0.7740 0.7940 0.8110 0.8200 0.8300
10.719000 0.8440 0.8540 0.8630 0.8700 0.8750
10.753047 0.8760 0.8820 0.8880 0.8900 0.8940
10.787000 0.8950 0.8950 0.8970 0.8970 0.8990
10.821047 0.9000 0.9040 0.9050 0.9090 0.9110
10.855000 0.9110 0.9070 0.9070 0.9050 0.9070
10.889047 0.9070 0.9070 0.9070 0.9070 0.9070
10.923000 0.9070 0.9070 0.9070 0.9050 0.9020
10.957047 0.8990 0.8970 0.8950 0.8900 0.8900
10.991000 0.8870 0.8820 0.8730 0.8640 0.8560
11.025047 0.8440 0.8290 0.8220 0.8060 0.8050
11.059000 0.8050 0.8060 0.8080 0.8130 0.8170
11.093047 0.8290 0.8370 0.8470 0.8580 0.8630
11.127000 0.8680 0.8710 0.8780 0.8820 0.8820
11.161047 0.8820 0.8800 0.8780 0.8760 0.8760
11.195000 0.8760 0.8780 0.8760 0.8750 0.8750
11.229047 0.8750 0.8750 0.8730 0.8710 0.8680
11.263000 0.8640 0.8610 0.8540 0.8440 0.8340
11.297047 0.8220 0.8050 0.7840 0.7600 0.7400
11.331000 0.7090 0.6880 0.6520 0.6320 0.6170
11.365047 0.6150 0.6170 0.6290 0.6420 0.6490
11.399000 0.6710 0.6940 0.7110 0.7230 0.7310
11.433047 0.7360 0.7380 0.7380 0.7360 0.7350
11.467000 0.7310 0.7230 0.7140 0.7020 0.6900
11.501047 0.6750 0.6630 0.6460 0.6320 0.6170
11.535000 0.6000 0.5840 0.5650 0.5470 0.5280
11.569047 0.5070 0.4850 0.4700 0.4460 0.4350
11.603000 0.4130 0.3940 0.3810 0.3720 0.3690
11.637047 0.3670 0.3690 0.3760 0.3880 0.4030
11.671000 0.4230 0.4440 0.4560 0.4700 0.4820
11.705047 0.4950 0.5040 0.5050 0.5020 0.4940
11.739000 0.4730 0.4540 0.4420 0.4250 0.4110
11.773047 0.4010 0.3980 0.3910 0.3840 0.3600
11.807000 0.3400 0.2970 0.2490 0.2300 0.2100
11.841047 0.1890 0.1690 0.1480 0.1310 0.1160
11.876000 0.1050 0.0990 0.0950 0.0950 0.0970
11.910047 0.1070 0.1210 0.1360 0.1520 0.1740
11.944000 0.1930 0.2100 0.2250 0.2420 0.2610
11.978047 0.2820 0.3020 0.3280 0.3550 0.3930
12.012000 0.4290 0.4660 0.4940 0.5160 0.5290
12.046047 0.5410 0.5520 0.5580 0.5640 0.5640
12.080000 0.5620 0.5520 0.5380 0.5240 0.5070
12.114047 0.4950 0.4830 0.4820 0.4800 0.4780
12.148000 0.4780 0.4760 0.4710 0.4580 0.4420
12.182047 0.4110 0.3890 0.3570 0.3170 0.2830
12.216000 0.2560 0.2460 0.2320 0.2290 0.2290
12.250047 0.2320 0.2410 0.2470 0.2560 0.2630
12.284000 0.2710 0.2800 0.2900 0.3040 0.3280
12.318047 0.3500 0.3700 0.3930 0.4130 0.4320
12.352000 0.4520 0.4700 0.4870 0.5040 0.5210
12.386047 0.5350 0.5450 0.5550 0.5650 0.5770
12.420000 0.5910 0.6000 0.6130 0.6250 0.6350
12.454047 0.6470 0.6520 0.6640 0.6730 0.6820
12.488000 0.6900 0.7000 0.7110 0.7240 0.7310
12.522047 0.7400 0.7430 0.7470 0.7520 0.7550
12.556000 0.7600 0.7690 0.7740 0.7790 0.7810
12.590047 0.7810 0.7820 0.7840 0.7880 0.7930
12.624000 0.7980 0.8000 0.8010 0.8060 0.8110
12.658047 0.8130 0.8170 0.8180 0.8200 0.8250
12.692000 0.8300 0.8370 0.8390 0.8420 0.8440
12.726047 0.8460 0.8490 0.8560 0.8610 0.8610
12.760000 0.8630 0.8640 0.8640 0.8640 0.8660
12.794047 0.8660 0.8700 0.8700 0.8680 0.8680
12.828000 0.8660 0.8610 0.8560 0.8490 0.8420
12.862047 0.8300 0.8170 0.7960 0.7840 0.7740
12.896000 0.7600 0.7570 0.7570 0.7600 0.7720
12.930047 0.7840 0.7960 0.8060 0.8180 0.8300
12.965000 0.8390 0.8510 0.8660 0.8700 0.8760
12.999047 0.8800 0.8830 0.8870 0.8880 0.8880
13.033000 0.8880 0.8880 0.8880 0.8880 0.8900
13.067047 0.8940 0.8990 0.8990 0.8990 0.8990
13.101000 0.8970 0.8970 0.8990 0.9000 0.9020
13.135047 0.9020 0.9040 0.9040 0.9040 0.9040
13.169000 0.9040 0.9040 0.9040 0.9050 0.9050
13.203047 0.9050 0.9050 0.9050 0.9050 0.9050
13.237000 0.9070 0.9090 0.9110 0.9120 0.9120
13.271047 0.9110 0.9110 0.9110 0.9110 0.9110
13.305000 0.9120 0.9160 0.9170 0.9190 0.9190
13.339047 0.9190 0.9170 0.9170 0.9170 0.9170
13.373000 0.9170 0.9190 0.9230 0.9230 0.9210
13.407047 0.9210 0.9170 0.9170 0.9230 0.9230
13.441000 0.9170 0.9090 0.9090 0.9090 0.9110
13.475047 0.9160 0.9190 0.9190 0.9190 0.9190
13.509000 0.9190 0.9190 0.9170 0.9170 0.9170
13.543047 0.9170 0.9170 0.9120 0.9090 0.9020
13.577000 0.8970 0.8880 0.8780 0.8700 0.8610
13.611047 0.8520 0.8460 0.8410 0.8390 0.8370
13.645000 0.8370 0.8390 0.8460 0.8510 0.8560
13.679047 0.8660 0.8730 0.8800 0.8870 0.8950
13.713000 0.8990 0.9000 0.9040 0.9090 0.9090
13.747047 0.9110 0.9110 0.9090 0.9090 0.9090
13.781000 0.9090 0.9090 0.9090 0.9110 0.9140
13.815047 0.9140 0.9140 0.9170 0.9170 0.9140
13.849000 0.9140 0.9140 0.9140 0.9120 0.9120
13.883047 0.9110 0.9090 0.9070 0.9090 0.9140
13.917000 0.9170 0.9170 0.9190 0.9190 0.9240
13.951047 0.9260 0.9280 0.9280 0.9280 0.9290
13.985000 0.9310 0.9310 0.9330 0.9330 0.9310
14.019047 0.9310 0.9280 0.9240 0.9170 0.9090
14.053000 0.8970 0.8800 0.8660 0.8470 0.8250
14.087047 0.8010 0.7760 0.7500 0.7240 0.7000
14.122000 0.6780 0.6590 0.6440 0.6420 0.6440
14.156047 0.6560 0.6700 0.6870 0.7090 0.7280
14.190000 0.7480 0.7670 0.7880 0.8080 0.8270
14.224047 0.8420 0.8580 0.8700 0.8760 0.8780
14.258000 0.8830 0.8940 0.8970 0.9000 0.9020
14.292047 0.9050 0.9090 0.9140 0.9170 0.9210
14.326000 0.9230 0.9240 0.9260 0.9260 0.9290
14.360047 0.9310 0.9310 0.9290 0.9290 0.9280
14.394000 0.9280 0.9290 0.9330 0.9330 0.9330
14.428047 0.9330 0.9330 0.9330 0.9350 0.9330
14.462000 0.9290 0.9280 0.9280 0.9280 0.9280
14.496047 0.9280 0.9280 0.9290 0.9290 0.9280
14.530000 0.9280 0.9280 0.9260 0.9230 0.9210
14.564047 0.9230 0.9260 0.9260 0.9260 0.9260
14.598000 0.9260 0.9260 0.9240 0.9190 0.9170
14.632047 0.9170 0.9190 0.9210 0.9230 0.9230
14.666000 0.9210 0.9190 0.9190 0.9170 0.9170
14.700047 0.9170 0.9160 0.9120 0.9110 0.9090
14.734000 0.9090 0.9090 0.9070 0.9050 0.9050
14.768047 0.9050 0.9050 0.9040 0.9040 0.9020
14.802000 0.9040 0.9040 0.9050 0.9050 0.9050
14.836047 0.9050 0.9020 0.9000 0.8990 0.8990
14.870000 0.8990 0.9000 0.9000 0.9000 0.8990
14.904047 0.8950 0.8970 0.8950 0.8900 0.8880
14.938000 0.8900 0.8900 0.8880 0.8820 0.8710
14.972047 0.8640 0.8590 0.8510 0.8440 0.8350
15.006000 0.8290 0.8220 0.8170 0.8030 0.8010
15.040047 0.8000 0.7940 0.7910 0.7910 0.7930
15.074000 0.8050 0.8130 0.8180 0.8250 0.8320
15.108047 0.8410 0.8470 0.8510 0.8520 0.8580
15.142000 0.8590 0.8610 0.8630 0.8640 0.8640
15.176047 0.8640 0.8640 0.8640 0.8630 0.8580
15.211000 0.8520 0.8510 0.8460 0.8410 0.8390
15.245047 0.8370 0.8370 0.8320 0.8290 0.8250
15.279000 0.8180 0.8130 0.8080 0.8000 0.7940
15.313047 0.7880 0.7820 0.7810 0.7790 0.7770
15.347000 0.7720 0.7650 0.7580 0.7550 0.7520
15.381047 0.7470 0.7450 0.7430 0.7410 0.7400
15.415000 0.7380 0.7380 0.7400 0.7400 0.7430
15.449047 0.7430 0.7410 0.7400 0.7400 0.7380
15.483000 0.7350 0.7330 0.7310 0.7310 0.7310
15.517047 0.7310 0.7330 0.7350 0.7350 0.7360
15.551000 0.7350 0.7330 0.7290 0.7280 0.7260
15.585047 0.7240 0.7240 0.7230 0.7230 0.7240
15.619000 0.7260 0.7260 0.7240 0.7210 0.7170
15.653047 0.7160 0.7120 0.7110 0.7070 0.7020
15.687000 0.6990 0.6970 0.6970 0.6940 0.6880
15.721047 0.6830 0.6780 0.6750 0.6730 0.6680
15.755000 0.6610 0.6520 0.6490 0.6390 0.6300
15.789047 0.6230 0.6150 0.6010 0.5980 0.5940
15.823000 0.5860 0.5770 0.5700 0.5600 0.5520
15.857047 0.5470 0.5410 0.5380 0.5380 0.5350
15.891000 0.5350 0.5330 0.5330 0.5310 0.5310
15.925047 0.5330 0.5330 0.5330 0.5350 0.5380
15.959000 0.5450 0.5500 0.5550 0.5550 0.5570
##END=
