##TITLE=METHANEARSONIC ACID, COPPER (II) SALT
##JCAMP-DX=4.24
##DATA TYPE=INFRARED SPECTRUM
##CLASS=COBLENTZ
##ORIGIN=ANSUL CHEMICAL COMPANY, MARINETTE, WISCONSIN
##OWNER=COBLENTZ SOCIETY
Collection (C) 2018 copyright by the U.S. Secretary of Commerce
on behalf of the United States of America. All rights reserved.
##DATE=Not specified, most likely prior to 1970
##MOLFORM=C H3 As Cu O3
##MP=299-307 C (DECOMPOSE)
$$ MW 201.48
##SOURCE REFERENCE=COBLENTZ NO. 4906
##$NIST ID=B6004906
##$NIST SOURCE=COBLENTZ
##$NIST IMAGE=cob4906
##SPECTROMETER/DATA SYSTEM=BECKMAN IR-4 (HYBRID PRISM-GRATING)
##STATE=SOLID (KBr WAFER)
##SAMPLING PROCEDURE=TRANSMISSION
##RESOLUTION=4
##DATA PROCESSING=DIGITIZED BY NIST FROM HARD COPY
##XUNITS=MICROMETERS
##YUNITS=TRANSMITTANCE
##XFACTOR=1.000000
##YFACTOR=1
##DELTAX=000.004985
##FIRSTX=2.01
##LASTX=15.0069
##FIRSTY=0.785
##MAXX=15.0069
##MINX=2.01
##MAXY=0.892
##MINY=0.099
##NPOINTS=2608
##XYDATA=(X++(Y..Y))
2.010000 0.7850 0.7860 0.7870 0.7870 0.7890
2.034937 0.7910 0.7910 0.7950 0.8000 0.8020
2.060000 0.8070 0.8100 0.8130 0.8130 0.8150
2.084937 0.8160 0.8160 0.8170 0.8200 0.8210
2.110000 0.8220 0.8220 0.8230 0.8250 0.8260
2.134937 0.8260 0.8260 0.8260 0.8230 0.8220
2.160000 0.8210 0.8170 0.8130 0.8100 0.8080
2.184937 0.8080 0.8070 0.8070 0.8060 0.8050
2.209000 0.8030 0.8030 0.8030 0.8020 0.8020
2.233937 0.8020 0.8010 0.8010 0.8010 0.8000
2.259000 0.8000 0.8000 0.8000 0.8000 0.7990
2.283937 0.7990 0.8000 0.8000 0.8000 0.8000
2.309000 0.8000 0.7970 0.7970 0.7910 0.7910
2.333937 0.7890 0.7870 0.7870 0.7860 0.7850
2.359000 0.7840 0.7840 0.7820 0.7820 0.7810
2.383937 0.7810 0.7800 0.7800 0.7800 0.7800
2.409000 0.7790 0.7770 0.7770 0.7770 0.7770
2.433937 0.7770 0.7760 0.7750 0.7720 0.7710
2.459000 0.7670 0.7650 0.7620 0.7610 0.7610
2.483937 0.7600 0.7590 0.7550 0.7520 0.7510
2.509000 0.7510 0.7450 0.7420 0.7360 0.7300
2.533937 0.7260 0.7210 0.7160 0.7110 0.7070
2.558000 0.7060 0.7020 0.6990 0.6950 0.6920
2.582937 0.6890 0.6820 0.6770 0.6720 0.6700
2.608000 0.6670 0.6660 0.6620 0.6610 0.6610
2.632937 0.6600 0.6570 0.6500 0.6400 0.6310
2.658000 0.6270 0.6190 0.6070 0.6000 0.5930
2.682937 0.5900 0.5890 0.5860 0.5810 0.5810
2.708000 0.5780 0.5690 0.5610 0.5580 0.5490
2.732937 0.5390 0.5290 0.5180 0.5090 0.4990
2.758000 0.4880 0.4780 0.4690 0.4600 0.4580
2.782937 0.4580 0.4530 0.4460 0.4300 0.4260
2.808000 0.4190 0.4100 0.4080 0.4010 0.4000
2.832937 0.3980 0.3890 0.3870 0.3800 0.3770
2.857000 0.3740 0.3720 0.3720 0.3700 0.3700
2.881937 0.3700 0.3680 0.3680 0.3670 0.3650
2.907000 0.3640 0.3640 0.3650 0.3680 0.3720
2.931937 0.3740 0.3780 0.3800 0.3820 0.3820
2.957000 0.3830 0.3830 0.3850 0.3870 0.3890
2.981937 0.3940 0.3970 0.4000 0.4080 0.4080
3.007000 0.4110 0.4140 0.4180 0.4180 0.4200
3.031937 0.4210 0.4280 0.4310 0.4390 0.4430
3.057000 0.4430 0.4460 0.4490 0.4490 0.4510
3.081937 0.4530 0.4550 0.4580 0.4610 0.4650
3.107000 0.4680 0.4690 0.4700 0.4700 0.4710
3.131937 0.4780 0.4790 0.4860 0.4890 0.4980
3.157000 0.5010 0.5040 0.5060 0.5090 0.5130
3.181937 0.5150 0.5160 0.5200 0.5240 0.5300
3.206000 0.5330 0.5360 0.5400 0.5410 0.5410
3.230937 0.5480 0.5500 0.5580 0.5580 0.5610
3.256000 0.5680 0.5690 0.5690 0.5700 0.5710
3.280937 0.5730 0.5780 0.5790 0.5800 0.5810
3.306000 0.5880 0.5890 0.5910 0.5910 0.5930
3.330937 0.5980 0.5990 0.6000 0.6010 0.6070
3.356000 0.6110 0.6190 0.6220 0.6270 0.6290
3.380937 0.6290 0.6290 0.6300 0.6310 0.6370
3.406000 0.6390 0.6410 0.6440 0.6450 0.6460
3.430937 0.6490 0.6500 0.6510 0.6570 0.6600
3.456000 0.6690 0.6720 0.6800 0.6860 0.6900
3.480937 0.6920 0.6970 0.6990 0.6990 0.7000
3.506000 0.7000 0.7070 0.7110 0.7170 0.7210
3.530937 0.7290 0.7310 0.7360 0.7370 0.7390
3.555000 0.7400 0.7410 0.7470 0.7490 0.7570
3.579937 0.7590 0.7620 0.7650 0.7670 0.7710
3.605000 0.7740 0.7770 0.7800 0.7800 0.7820
3.629937 0.7870 0.7920 0.7960 0.7990 0.8000
3.655000 0.8010 0.8010 0.8010 0.8020 0.8030
3.679937 0.8050 0.8060 0.8110 0.8120 0.8130
3.705000 0.8170 0.8200 0.8210 0.8220 0.8270
3.729937 0.8280 0.8310 0.8310 0.8380 0.8400
3.755000 0.8410 0.8410 0.8410 0.8410 0.8410
3.779937 0.8420 0.8450 0.8460 0.8480 0.8510
3.805000 0.8530 0.8560 0.8580 0.8600 0.8610
3.829937 0.8610 0.8620 0.8620 0.8660 0.8680
3.855000 0.8700 0.8710 0.8710 0.8710 0.8710
3.879937 0.8710 0.8710 0.8720 0.8720 0.8720
3.904000 0.8730 0.8780 0.8800 0.8800 0.8800
3.928937 0.8780 0.8780 0.8780 0.8770 0.8770
3.954000 0.8770 0.8770 0.8760 0.8750 0.8720
3.978937 0.8720 0.8710 0.8710 0.8710 0.8730
4.004000 0.8750 0.8750 0.8770 0.8780 0.8780
4.028937 0.8780 0.8780 0.8780 0.8800 0.8800
4.054000 0.8810 0.8810 0.8800 0.8780 0.8770
4.078937 0.8760 0.8750 0.8730 0.8730 0.8720
4.104000 0.8720 0.8720 0.8720 0.8720 0.8720
4.128937 0.8710 0.8710 0.8710 0.8710 0.8700
4.154000 0.8700 0.8700 0.8700 0.8700 0.8700
4.178937 0.8700 0.8680 0.8680 0.8670 0.8670
4.204000 0.8680 0.8700 0.8730 0.8750 0.8760
4.228937 0.8760 0.8760 0.8770 0.8770 0.8800
4.253000 0.8820 0.8830 0.8850 0.8870 0.8900
4.277937 0.8900 0.8900 0.8880 0.8880 0.8900
4.303000 0.8900 0.8910 0.8920 0.8920 0.8920
4.327937 0.8920 0.8910 0.8910 0.8910 0.8910
4.353000 0.8910 0.8920 0.8920 0.8900 0.8880
4.377937 0.8880 0.8870 0.8860 0.8860 0.8830
4.403000 0.8830 0.8830 0.8830 0.8830 0.8820
4.427937 0.8820 0.8810 0.8780 0.8770 0.8760
4.453000 0.8760 0.8760 0.8760 0.8760 0.8750
4.477937 0.8750 0.8730 0.8720 0.8710 0.8710
4.503000 0.8710 0.8700 0.8700 0.8710 0.8710
4.527937 0.8700 0.8680 0.8680 0.8680 0.8670
4.553000 0.8670 0.8670 0.8670 0.8670 0.8670
4.577937 0.8660 0.8660 0.8650 0.8650 0.8630
4.602000 0.8620 0.8610 0.8610 0.8620 0.8620
4.626937 0.8630 0.8620 0.8620 0.8620 0.8610
4.652000 0.8610 0.8610 0.8620 0.8650 0.8670
4.676937 0.8670 0.8670 0.8660 0.8610 0.8580
4.702000 0.8530 0.8520 0.8520 0.8520 0.8520
4.726937 0.8520 0.8510 0.8500 0.8500 0.8500
4.752000 0.8480 0.8480 0.8480 0.8470 0.8460
4.776937 0.8430 0.8430 0.8420 0.8420 0.8420
4.802000 0.8420 0.8420 0.8420 0.8420 0.8420
4.826937 0.8410 0.8410 0.8410 0.8410 0.8410
4.852000 0.8410 0.8420 0.8420 0.8430 0.8430
4.876937 0.8430 0.8430 0.8430 0.8430 0.8430
4.902000 0.8430 0.8420 0.8410 0.8410 0.8410
4.926937 0.8420 0.8420 0.8410 0.8400 0.8370
4.951000 0.8360 0.8330 0.8320 0.8320 0.8330
4.975937 0.8360 0.8370 0.8370 0.8370 0.8360
5.001000 0.8350 0.8330 0.8320 0.8310 0.8310
5.025937 0.8310 0.8310 0.8310 0.8310 0.8310
5.051000 0.8310 0.8310 0.8310 0.8310 0.8310
5.075937 0.8310 0.8310 0.8300 0.8300 0.8270
5.101000 0.8210 0.8180 0.8170 0.8170 0.8160
5.125937 0.8160 0.8160 0.8170 0.8170 0.8170
5.151000 0.8170 0.8150 0.8120 0.8100 0.8070
5.175937 0.8030 0.8010 0.8010 0.8010 0.8010
5.201000 0.8000 0.8000 0.8000 0.8000 0.7990
5.225937 0.7990 0.7990 0.7970 0.7970 0.7970
5.251000 0.7970 0.7970 0.7990 0.8000 0.8000
5.275937 0.8000 0.8000 0.8010 0.8010 0.8010
5.300000 0.8010 0.8010 0.8020 0.8030 0.8030
5.324937 0.8030 0.8030 0.8030 0.8030 0.8030
5.350000 0.8030 0.8030 0.8030 0.8030 0.8030
5.374937 0.8020 0.8010 0.8010 0.8020 0.8020
5.400000 0.8020 0.8020 0.8020 0.8030 0.8030
5.424937 0.8030 0.8030 0.8030 0.8030 0.8030
5.450000 0.8030 0.8030 0.8030 0.8030 0.8030
5.474937 0.8030 0.8020 0.8020 0.8020 0.8010
5.500000 0.8000 0.7990 0.7970 0.7920 0.7920
5.524937 0.7920 0.7920 0.7920 0.7910 0.7900
5.550000 0.7900 0.7890 0.7890 0.7890 0.7890
5.574937 0.7890 0.7890 0.7890 0.7890 0.7890
5.600000 0.7870 0.7850 0.7820 0.7800 0.7800
5.624937 0.7790 0.7790 0.7790 0.7770 0.7770
5.649000 0.7770 0.7760 0.7760 0.7760 0.7720
5.673937 0.7700 0.7670 0.7610 0.7590 0.7570
5.699000 0.7520 0.7510 0.7510 0.7500 0.7490
5.723937 0.7460 0.7420 0.7420 0.7410 0.7400
5.749000 0.7390 0.7390 0.7390 0.7370 0.7360
5.773937 0.7350 0.7320 0.7320 0.7320 0.7310
5.799000 0.7300 0.7240 0.7200 0.7170 0.7100
5.823937 0.7070 0.7070 0.7070 0.7020 0.7020
5.849000 0.7000 0.6990 0.6970 0.6890 0.6810
5.873937 0.6790 0.6760 0.6750 0.6710 0.6710
5.899000 0.6710 0.6710 0.6700 0.6670 0.6610
5.923937 0.6600 0.6590 0.6550 0.6550 0.6520
5.948000 0.6520 0.6510 0.6510 0.6490 0.6470
5.972937 0.6450 0.6410 0.6410 0.6400 0.6370
5.998000 0.6350 0.6320 0.6300 0.6270 0.6260
6.022937 0.6220 0.6210 0.6200 0.6190 0.6190
6.048000 0.6170 0.6170 0.6190 0.6200 0.6200
6.072937 0.6200 0.6200 0.6200 0.6200 0.6210
6.098000 0.6210 0.6210 0.6210 0.6220 0.6220
6.122937 0.6240 0.6250 0.6260 0.6300 0.6310
6.148000 0.6340 0.6350 0.6360 0.6360 0.6370
6.172937 0.6370 0.6390 0.6390 0.6420 0.6470
6.198000 0.6490 0.6520 0.6570 0.6590 0.6600
6.222937 0.6610 0.6610 0.6620 0.6670 0.6690
6.248000 0.6710 0.6720 0.6760 0.6770 0.6800
6.272937 0.6870 0.6870 0.6900 0.6920 0.6970
6.297000 0.6990 0.7000 0.7010 0.7010 0.7020
6.321937 0.7070 0.7090 0.7110 0.7140 0.7190
6.347000 0.7220 0.7270 0.7290 0.7310 0.7310
6.371937 0.7350 0.7360 0.7390 0.7400 0.7410
6.397000 0.7440 0.7460 0.7500 0.7510 0.7520
6.421937 0.7520 0.7550 0.7560 0.7560 0.7570
6.447000 0.7570 0.7570 0.7600 0.7610 0.7620
6.471937 0.7650 0.7660 0.7670 0.7690 0.7690
6.497000 0.7690 0.7690 0.7690 0.7690 0.7690
6.521937 0.7700 0.7700 0.7710 0.7710 0.7720
6.547000 0.7740 0.7750 0.7760 0.7760 0.7760
6.571937 0.7760 0.7760 0.7760 0.7760 0.7770
6.597000 0.7770 0.7770 0.7770 0.7770 0.7770
6.621937 0.7770 0.7770 0.7770 0.7770 0.7770
6.646000 0.7770 0.7770 0.7770 0.7790 0.7790
6.670937 0.7790 0.7790 0.7790 0.7790 0.7790
6.696000 0.7790 0.7790 0.7790 0.7790 0.7790
6.720937 0.7790 0.7790 0.7790 0.7770 0.7770
6.746000 0.7770 0.7760 0.7750 0.7750 0.7750
6.770937 0.7750 0.7740 0.7740 0.7740 0.7740
6.796000 0.7740 0.7740 0.7720 0.7710 0.7710
6.820937 0.7700 0.7700 0.7700 0.7700 0.7690
6.846000 0.7670 0.7670 0.7690 0.7690 0.7690
6.870937 0.7690 0.7670 0.7670 0.7670 0.7660
6.896000 0.7660 0.7650 0.7640 0.7620 0.7600
6.920937 0.7570 0.7520 0.7500 0.7490 0.7410
6.946000 0.7400 0.7400 0.7390 0.7390 0.7370
6.970937 0.7360 0.7340 0.7320 0.7300 0.7290
6.995000 0.7260 0.7250 0.7240 0.7210 0.7190
7.019937 0.7150 0.7140 0.7120 0.7120 0.7120
7.045000 0.7120 0.7120 0.7120 0.7120 0.7120
7.069937 0.7120 0.7120 0.7140 0.7160 0.7200
7.095000 0.7210 0.7220 0.7270 0.7310 0.7360
7.119937 0.7390 0.7400 0.7420 0.7490 0.7500
7.145000 0.7520 0.7590 0.7620 0.7620 0.7660
7.169937 0.7670 0.7690 0.7690 0.7700 0.7720
7.195000 0.7750 0.7760 0.7760 0.7770 0.7790
7.219937 0.7790 0.7800 0.7800 0.7800 0.7800
7.245000 0.7810 0.7810 0.7810 0.7810 0.7820
7.269937 0.7820 0.7840 0.7840 0.7840 0.7840
7.295000 0.7840 0.7840 0.7840 0.7840 0.7840
7.319937 0.7840 0.7840 0.7850 0.7850 0.7860
7.344000 0.7860 0.7860 0.7860 0.7860 0.7860
7.368937 0.7860 0.7860 0.7860 0.7860 0.7850
7.394000 0.7850 0.7840 0.7840 0.7840 0.7840
7.418937 0.7850 0.7850 0.7850 0.7850 0.7850
7.444000 0.7850 0.7850 0.7860 0.7860 0.7860
7.468937 0.7860 0.7860 0.7860 0.7870 0.7870
7.494000 0.7870 0.7870 0.7890 0.7890 0.7890
7.518937 0.7890 0.7890 0.7890 0.7870 0.7870
7.544000 0.7860 0.7840 0.7840 0.7820 0.7820
7.568937 0.7800 0.7800 0.7800 0.7790 0.7790
7.594000 0.7790 0.7790 0.7790 0.7770 0.7770
7.618937 0.7770 0.7770 0.7760 0.7760 0.7750
7.644000 0.7710 0.7690 0.7670 0.7660 0.7640
7.668937 0.7640 0.7620 0.7620 0.7600 0.7590
7.693000 0.7540 0.7520 0.7520 0.7520 0.7510
7.717937 0.7500 0.7500 0.7490 0.7420 0.7410
7.743000 0.7390 0.7360 0.7320 0.7320 0.7300
7.767937 0.7290 0.7270 0.7250 0.7220 0.7210
7.793000 0.7210 0.7200 0.7170 0.7150 0.7150
7.817937 0.7140 0.7140 0.7140 0.7140 0.7140
7.843000 0.7140 0.7150 0.7150 0.7150 0.7160
7.867937 0.7160 0.7160 0.7170 0.7190 0.7200
7.893000 0.7210 0.7220 0.7240 0.7270 0.7300
7.917937 0.7310 0.7310 0.7320 0.7320 0.7340
7.943000 0.7390 0.7400 0.7440 0.7490 0.7500
7.967937 0.7520 0.7520 0.7540 0.7540 0.7540
7.993000 0.7550 0.7550 0.7550 0.7600 0.7610
8.017937 0.7650 0.7670 0.7690 0.7690 0.7690
8.042000 0.7690 0.7690 0.7700 0.7710 0.7710
8.066937 0.7720 0.7720 0.7740 0.7720 0.7720
8.092000 0.7720 0.7710 0.7710 0.7720 0.7720
8.116937 0.7760 0.7770 0.7790 0.7790 0.7790
8.142000 0.7790 0.7790 0.7790 0.7790 0.7790
8.166937 0.7790 0.7790 0.7790 0.7800 0.7800
8.192000 0.7800 0.7810 0.7840 0.7850 0.7850
8.216937 0.7850 0.7840 0.7840 0.7840 0.7820
8.242000 0.7810 0.7800 0.7800 0.7790 0.7770
8.266937 0.7770 0.7770 0.7760 0.7760 0.7760
8.292000 0.7750 0.7750 0.7750 0.7740 0.7720
8.316937 0.7720 0.7720 0.7720 0.7720 0.7740
8.342000 0.7740 0.7740 0.7740 0.7740 0.7740
8.366937 0.7740 0.7720 0.7720 0.7720 0.7720
8.391000 0.7720 0.7720 0.7720 0.7740 0.7740
8.415937 0.7720 0.7720 0.7720 0.7720 0.7710
8.441000 0.7710 0.7700 0.7700 0.7690 0.7690
8.465937 0.7690 0.7690 0.7670 0.7670 0.7670
8.491000 0.7650 0.7650 0.7620 0.7620 0.7620
8.515937 0.7620 0.7610 0.7610 0.7620 0.7620
8.541000 0.7620 0.7610 0.7600 0.7590 0.7570
8.565937 0.7570 0.7560 0.7550 0.7540 0.7540
8.591000 0.7520 0.7510 0.7510 0.7500 0.7500
8.615937 0.7490 0.7490 0.7470 0.7470 0.7420
8.641000 0.7410 0.7410 0.7410 0.7400 0.7400
8.665937 0.7400 0.7390 0.7390 0.7390 0.7390
8.690000 0.7390 0.7390 0.7390 0.7390 0.7370
8.714937 0.7370 0.7370 0.7370 0.7370 0.7360
8.740000 0.7350 0.7350 0.7320 0.7310 0.7310
8.764937 0.7310 0.7310 0.7300 0.7300 0.7300
8.790000 0.7290 0.7290 0.7270 0.7270 0.7260
8.814937 0.7260 0.7270 0.7260 0.7250 0.7250
8.840000 0.7250 0.7250 0.7250 0.7250 0.7250
8.864937 0.7250 0.7250 0.7250 0.7250 0.7250
8.890000 0.7250 0.7250 0.7250 0.7250 0.7240
8.914937 0.7220 0.7220 0.7220 0.7220 0.7220
8.940000 0.7220 0.7220 0.7220 0.7220 0.7220
8.964937 0.7220 0.7220 0.7220 0.7240 0.7250
8.990000 0.7270 0.7270 0.7270 0.7290 0.7300
9.014937 0.7310 0.7340 0.7370 0.7390 0.7390
9.039000 0.7390 0.7400 0.7400 0.7400 0.7400
9.063937 0.7410 0.7420 0.7420 0.7470 0.7490
9.089000 0.7490 0.7490 0.7490 0.7500 0.7500
9.113937 0.7500 0.7500 0.7500 0.7500 0.7500
9.139000 0.7500 0.7500 0.7500 0.7490 0.7490
9.163937 0.7500 0.7500 0.7500 0.7500 0.7490
9.189000 0.7490 0.7490 0.7490 0.7470 0.7470
9.213937 0.7490 0.7490 0.7490 0.7490 0.7490
9.239000 0.7490 0.7490 0.7490 0.7490 0.7490
9.263937 0.7490 0.7470 0.7460 0.7450 0.7450
9.289000 0.7440 0.7440 0.7440 0.7440 0.7440
9.313937 0.7440 0.7450 0.7450 0.7450 0.7450
9.339000 0.7460 0.7470 0.7470 0.7460 0.7450
9.363937 0.7450 0.7450 0.7440 0.7440 0.7440
9.388000 0.7440 0.7440 0.7440 0.7440 0.7440
9.412937 0.7440 0.7440 0.7440 0.7450 0.7440
9.438000 0.7440 0.7450 0.7440 0.7420 0.7440
9.462937 0.7440 0.7440 0.7440 0.7440 0.7440
9.488000 0.7440 0.7440 0.7440 0.7420 0.7420
9.512937 0.7420 0.7410 0.7410 0.7400 0.7400
9.538000 0.7400 0.7400 0.7400 0.7400 0.7400
9.562937 0.7400 0.7390 0.7390 0.7390 0.7390
9.588000 0.7390 0.7390 0.7370 0.7360 0.7370
9.612937 0.7370 0.7390 0.7390 0.7370 0.7370
9.638000 0.7370 0.7370 0.7370 0.7370 0.7370
9.662937 0.7370 0.7370 0.7370 0.7390 0.7390
9.688000 0.7390 0.7390 0.7390 0.7390 0.7400
9.712937 0.7400 0.7400 0.7400 0.7400 0.7390
9.737000 0.7390 0.7390 0.7390 0.7370 0.7370
9.761937 0.7390 0.7390 0.7390 0.7390 0.7400
9.787000 0.7400 0.7400 0.7400 0.7400 0.7400
9.811937 0.7400 0.7400 0.7400 0.7390 0.7390
9.837000 0.7390 0.7390 0.7390 0.7390 0.7390
9.861937 0.7390 0.7390 0.7390 0.7390 0.7370
9.887000 0.7390 0.7390 0.7390 0.7390 0.7370
9.911937 0.7370 0.7360 0.7360 0.7360 0.7360
9.937000 0.7360 0.7360 0.7360 0.7360 0.7360
9.961937 0.7370 0.7360 0.7360 0.7360 0.7360
9.987000 0.7360 0.7360 0.7360 0.7360 0.7350
10.011937 0.7350 0.7350 0.7350 0.7340 0.7340
10.037000 0.7340 0.7340 0.7320 0.7320 0.7320
10.061937 0.7320 0.7310 0.7310 0.7310 0.7310
10.086000 0.7300 0.7300 0.7300 0.7290 0.7300
10.110937 0.7270 0.7270 0.7260 0.7260 0.7260
10.136000 0.7250 0.7250 0.7250 0.7250 0.7240
10.160937 0.7240 0.7240 0.7240 0.7220 0.7220
10.186000 0.7220 0.7210 0.7210 0.7200 0.7200
10.210937 0.7190 0.7150 0.7140 0.7120 0.7120
10.236000 0.7120 0.7120 0.7110 0.7100 0.7100
10.260937 0.7090 0.7090 0.7070 0.7070 0.7070
10.286000 0.7060 0.7050 0.7050 0.7040 0.7040
10.310937 0.7040 0.7020 0.7010 0.7010 0.7010
10.336000 0.7010 0.7000 0.7000 0.7000 0.7000
10.360937 0.6990 0.6990 0.6960 0.6940 0.6920
10.386000 0.6920 0.6910 0.6910 0.6900 0.6900
10.410937 0.6900 0.6890 0.6890 0.6870 0.6870
10.435000 0.6860 0.6820 0.6820 0.6800 0.6800
10.459937 0.6790 0.6790 0.6770 0.6760 0.6720
10.485000 0.6720 0.6720 0.6710 0.6700 0.6700
10.509937 0.6700 0.6690 0.6690 0.6690 0.6690
10.535000 0.6690 0.6670 0.6660 0.6620 0.6620
10.559937 0.6620 0.6610 0.6600 0.6590 0.6560
10.585000 0.6520 0.6520 0.6510 0.6500 0.6490
10.609937 0.6490 0.6440 0.6410 0.6410 0.6400
10.635000 0.6390 0.6390 0.6370 0.6360 0.6320
10.659937 0.6310 0.6300 0.6240 0.6220 0.6210
10.685000 0.6190 0.6120 0.6120 0.6110 0.6090
10.709937 0.6090 0.6020 0.6010 0.6000 0.5940
10.735000 0.5930 0.5910 0.5890 0.5860 0.5830
10.759937 0.5810 0.5740 0.5730 0.5710 0.5690
10.784000 0.5630 0.5630 0.5590 0.5540 0.5500
10.808937 0.5490 0.5440 0.5390 0.5360 0.5310
10.834000 0.5300 0.5240 0.5210 0.5200 0.5190
10.858937 0.5180 0.5130 0.5090 0.5040 0.5010
10.884000 0.4990 0.4910 0.4880 0.4810 0.4790
10.908937 0.4730 0.4700 0.4680 0.4600 0.4580
10.934000 0.4510 0.4490 0.4410 0.4400 0.4360
10.958937 0.4330 0.4280 0.4210 0.4180 0.4110
10.984000 0.4090 0.4050 0.4000 0.3990 0.3930
11.008937 0.3880 0.3870 0.3780 0.3730 0.3700
11.034000 0.3680 0.3620 0.3590 0.3580 0.3500
11.058937 0.3480 0.3480 0.3390 0.3380 0.3290
11.084000 0.3280 0.3240 0.3180 0.3120 0.3090
11.108937 0.3080 0.3020 0.2990 0.2980 0.2890
11.133000 0.2880 0.2880 0.2830 0.2800 0.2780
11.157937 0.2730 0.2720 0.2700 0.2680 0.2620
11.183000 0.2600 0.2570 0.2530 0.2490 0.2480
11.207937 0.2420 0.2390 0.2380 0.2330 0.2320
11.233000 0.2290 0.2280 0.2220 0.2180 0.2120
11.257937 0.2090 0.2080 0.2030 0.2020 0.2000
11.283000 0.1980 0.1980 0.1930 0.1920 0.1890
11.307937 0.1870 0.1860 0.1830 0.1810 0.1780
11.333000 0.1770 0.1760 0.1730 0.1720 0.1710
11.357937 0.1690 0.1680 0.1630 0.1610 0.1580
11.383000 0.1560 0.1540 0.1540 0.1530 0.1520
11.407937 0.1520 0.1510 0.1510 0.1510 0.1510
11.432000 0.1510 0.1510 0.1510 0.1510 0.1510
11.456937 0.1490 0.1490 0.1490 0.1480 0.1480
11.482000 0.1470 0.1430 0.1420 0.1420 0.1420
11.506937 0.1410 0.1410 0.1390 0.1390 0.1390
11.532000 0.1390 0.1380 0.1370 0.1360 0.1340
11.556937 0.1330 0.1320 0.1310 0.1290 0.1290
11.582000 0.1290 0.1280 0.1280 0.1280 0.1280
11.606937 0.1280 0.1280 0.1280 0.1270 0.1270
11.632000 0.1270 0.1270 0.1270 0.1270 0.1260
11.656937 0.1260 0.1260 0.1260 0.1260 0.1240
11.682000 0.1240 0.1230 0.1230 0.1220 0.1220
11.706937 0.1210 0.1190 0.1190 0.1180 0.1180
11.732000 0.1180 0.1180 0.1180 0.1170 0.1160
11.756937 0.1160 0.1160 0.1140 0.1140 0.1130
11.781000 0.1130 0.1130 0.1130 0.1120 0.1120
11.805937 0.1120 0.1120 0.1120 0.1120 0.1130
11.831000 0.1130 0.1130 0.1140 0.1160 0.1160
11.855937 0.1140 0.1130 0.1120 0.1110 0.1080
11.881000 0.1070 0.1060 0.1040 0.1030 0.1030
11.905937 0.1030 0.1030 0.1030 0.1030 0.1020
11.931000 0.1020 0.1020 0.1020 0.1020 0.1020
11.955937 0.1020 0.1020 0.1020 0.1020 0.1020
11.981000 0.1020 0.1020 0.1020 0.1020 0.1020
12.005937 0.1010 0.1010 0.1010 0.1010 0.1010
12.031000 0.0990 0.0990 0.0990 0.0990 0.0990
12.055937 0.0990 0.0990 0.0990 0.0990 0.1010
12.081000 0.1010 0.1020 0.1020 0.1020 0.1020
12.105937 0.1020 0.1020 0.1020 0.1020 0.1020
12.130000 0.1020 0.1020 0.1020 0.1020 0.1030
12.154937 0.1030 0.1030 0.1020 0.1020 0.1020
12.180000 0.1020 0.1020 0.1020 0.1020 0.1020
12.204937 0.1020 0.1020 0.1020 0.1020 0.1020
12.230000 0.1020 0.1020 0.1020 0.1020 0.1020
12.254937 0.1020 0.1030 0.1030 0.1030 0.1030
12.280000 0.1030 0.1040 0.1040 0.1060 0.1070
12.304937 0.1080 0.1080 0.1090 0.1090 0.1110
12.330000 0.1110 0.1120 0.1120 0.1140 0.1140
12.354937 0.1160 0.1160 0.1160 0.1160 0.1160
12.380000 0.1170 0.1170 0.1170 0.1170 0.1180
12.404937 0.1190 0.1190 0.1210 0.1220 0.1220
12.430000 0.1230 0.1230 0.1240 0.1240 0.1240
12.454937 0.1260 0.1270 0.1280 0.1280 0.1290
12.479000 0.1290 0.1290 0.1290 0.1310 0.1310
12.503937 0.1310 0.1320 0.1330 0.1330 0.1340
12.529000 0.1340 0.1370 0.1370 0.1380 0.1390
12.553937 0.1390 0.1390 0.1410 0.1410 0.1410
12.579000 0.1410 0.1410 0.1420 0.1420 0.1420
12.603937 0.1420 0.1430 0.1430 0.1430 0.1430
12.629000 0.1440 0.1440 0.1460 0.1470 0.1470
12.653937 0.1480 0.1490 0.1510 0.1510 0.1520
12.679000 0.1520 0.1530 0.1540 0.1580 0.1580
12.703937 0.1610 0.1620 0.1640 0.1660 0.1660
12.729000 0.1670 0.1680 0.1680 0.1690 0.1690
12.753937 0.1710 0.1710 0.1720 0.1760 0.1770
12.779000 0.1780 0.1780 0.1790 0.1790 0.1810
12.803937 0.1820 0.1830 0.1870 0.1870 0.1890
12.828000 0.1910 0.1910 0.1920 0.1920 0.1930
12.852937 0.1940 0.1960 0.1960 0.1970 0.1980
12.878000 0.1990 0.2000 0.2020 0.2020 0.2030
12.902937 0.2030 0.2040 0.2070 0.2080 0.2080
12.928000 0.2090 0.2100 0.2120 0.2130 0.2130
12.952937 0.2130 0.2150 0.2150 0.2170 0.2170
12.978000 0.2180 0.2180 0.2190 0.2190 0.2200
13.002937 0.2200 0.2200 0.2220 0.2230 0.2240
13.028000 0.2240 0.2280 0.2290 0.2290 0.2300
13.052937 0.2300 0.2300 0.2320 0.2320 0.2320
13.078000 0.2320 0.2320 0.2320 0.2330 0.2330
13.102937 0.2330 0.2330 0.2340 0.2350 0.2350
13.128000 0.2370 0.2380 0.2380 0.2390 0.2400
13.152937 0.2420 0.2420 0.2430 0.2440 0.2450
13.177000 0.2470 0.2480 0.2480 0.2490 0.2490
13.201937 0.2500 0.2520 0.2530 0.2550 0.2570
13.227000 0.2580 0.2590 0.2600 0.2620 0.2640
13.251937 0.2680 0.2690 0.2690 0.2700 0.2700
13.277000 0.2730 0.2780 0.2800 0.2820 0.2830
13.301937 0.2880 0.2900 0.2980 0.2990 0.3000
13.327000 0.3020 0.3080 0.3080 0.3100 0.3120
13.351937 0.3180 0.3190 0.3220 0.3230 0.3240
13.377000 0.3280 0.3290 0.3320 0.3330 0.3340
13.401937 0.3380 0.3400 0.3440 0.3480 0.3520
13.427000 0.3520 0.3540 0.3590 0.3600 0.3620
13.451937 0.3630 0.3690 0.3690 0.3720 0.3770
13.477000 0.3780 0.3800 0.3820 0.3830 0.3880
13.501937 0.3900 0.3930 0.3970 0.3980 0.3990
13.526000 0.4000 0.4030 0.4050 0.4080 0.4100
13.550937 0.4130 0.4140 0.4190 0.4210 0.4230
13.576000 0.4230 0.4260 0.4290 0.4310 0.4340
13.600937 0.4360 0.4380 0.4390 0.4400 0.4400
13.626000 0.4410 0.4430 0.4430 0.4450 0.4500
13.650937 0.4530 0.4530 0.4540 0.4590 0.4600
13.676000 0.4610 0.4630 0.4650 0.4690 0.4690
13.700937 0.4700 0.4710 0.4730 0.4730 0.4790
13.726000 0.4790 0.4800 0.4810 0.4810 0.4810
13.750937 0.4830 0.4830 0.4850 0.4850 0.4890
13.776000 0.4900 0.4910 0.4930 0.4940 0.4960
13.800937 0.4980 0.5000 0.5000 0.5010 0.5010
13.826000 0.5030 0.5030 0.5040 0.5050 0.5060
13.850937 0.5080 0.5080 0.5090 0.5100 0.5110
13.875000 0.5130 0.5130 0.5150 0.5190 0.5190
13.899937 0.5200 0.5200 0.5210 0.5210 0.5230
13.925000 0.5230 0.5250 0.5290 0.5290 0.5300
13.949937 0.5300 0.5310 0.5330 0.5330 0.5330
13.975000 0.5340 0.5390 0.5400 0.5400 0.5410
13.999937 0.5400 0.5410 0.5440 0.5450 0.5480
14.025000 0.5480 0.5480 0.5490 0.5490 0.5490
14.049937 0.5500 0.5510 0.5510 0.5530 0.5530
14.075000 0.5530 0.5530 0.5530 0.5530 0.5530
14.099937 0.5530 0.5530 0.5540 0.5540 0.5540
14.125000 0.5550 0.5560 0.5580 0.5580 0.5590
14.149937 0.5590 0.5600 0.5610 0.5610 0.5630
14.174000 0.5630 0.5630 0.5650 0.5660 0.5680
14.198937 0.5690 0.5700 0.5700 0.5710 0.5730
14.224000 0.5740 0.5740 0.5740 0.5750 0.5750
14.248937 0.5760 0.5760 0.5760 0.5760 0.5760
14.274000 0.5760 0.5780 0.5780 0.5780 0.5780
14.298937 0.5790 0.5790 0.5790 0.5790 0.5790
14.324000 0.5800 0.5810 0.5830 0.5840 0.5850
14.348937 0.5850 0.5880 0.5880 0.5890 0.5900
14.374000 0.5910 0.5930 0.5940 0.5940 0.5940
14.398937 0.5950 0.5950 0.5950 0.5960 0.5960
14.424000 0.5960 0.5980 0.5980 0.5980 0.5990
14.448937 0.5990 0.5990 0.6000 0.6000 0.6000
14.474000 0.6010 0.6010 0.6020 0.6040 0.6040
14.498937 0.6050 0.6060 0.6060 0.6060 0.6070
14.523000 0.6070 0.6070 0.6090 0.6090 0.6090
14.547937 0.6090 0.6090 0.6090 0.6090 0.6100
14.573000 0.6100 0.6110 0.6120 0.6120 0.6120
14.597937 0.6120 0.6110 0.6110 0.6140 0.6150
14.623000 0.6150 0.6170 0.6170 0.6170 0.6190
14.647937 0.6190 0.6190 0.6190 0.6200 0.6200
14.673000 0.6200 0.6200 0.6190 0.6190 0.6190
14.697937 0.6190 0.6200 0.6200 0.6200 0.6200
14.723000 0.6200 0.6200 0.6200 0.6200 0.6200
14.747937 0.6200 0.6200 0.6200 0.6200 0.6200
14.773000 0.6210 0.6210 0.6210 0.6210 0.6210
14.797937 0.6220 0.6220 0.6220 0.6220 0.6220
14.823000 0.6220 0.6220 0.6220 0.6220 0.6210
14.847937 0.6210 0.6210 0.6200 0.6200 0.6200
14.872000 0.6200 0.6200 0.6190 0.6160 0.6150
14.896937 0.6150 0.6140 0.6120 0.6110 0.6110
14.922000 0.6110 0.6110 0.6110 0.6110 0.6110
14.946937 0.6110 0.6110 0.6110 0.6110 0.6110
14.972000 0.6110 0.6110 0.6100 0.6100 0.6090
14.996937 0.6070 0.6060 0.6050
##END=
