##TITLE=Ethomeen T/25 hydrochloride
##JCAMP-DX=4.24
##DATA TYPE=INFRARED SPECTRUM
##CLASS=COBLENTZ III
##ORIGIN=BRITISH PETROLEUM CO. LTD., ENGLAND
##OWNER=Copyright (C) 1987 by the Coblentz Society
Collection (C) 2018 copyright by the U.S. Secretary of Commerce
on behalf of the United States of America. All rights reserved.
##DATE=1972/07/31
##MOLFORM=C46-48 H96-100 Cl N O15
##SOURCE REFERENCE=COBLENTZ NO. 9073
##$NIST ID=B6009073
##$NIST SOURCE=COBLENTZ
##$NIST IMAGE=cob9073
##SPECTROMETER/DATA SYSTEM=PERKIN-ELMER 157
##STATE=LIQUID (NEAT)
$$ R - DERIVED FROM TALLOW FATTY ACID SOURCE
$$ REF. Can. J. Spec., 18,4,101, '73 C. S. DOUSE and P. B. TOOKE
##SAMPLING PROCEDURE=TRANSMISSION
##RESOLUTION=2
##DATA PROCESSING=DIGITIZED BY COBLENTZ SOCIETY (BATCH II) FROM HARD COPY
##XUNITS=1/CM
##YUNITS=TRANSMITTANCE
##XFACTOR=1.0
##YFACTOR=1
##FIRSTX=668
##LASTX=4000
##FIRSTY=0.5523
##MAXX=4000
##MINX=668
##MAXY=0.7663
##MINY=0
##NPOINTS=3333
##XYDATA=(X++(Y..Y))
668.000000 0.5523 0.5550 0.5598 0.5648 0.5701
673.000000 0.5733 0.5739 0.5761 0.5829 0.5885
678.000000 0.5906 0.5917 0.5934 0.5952 0.5972
683.000000 0.5991 0.6010 0.6021 0.6034 0.6045
688.000000 0.6055 0.6060 0.6065 0.6070 0.6085
693.000000 0.6075 0.6075 0.6073 0.6070 0.6065
698.000000 0.6054 0.6043 0.6023 0.6002 0.5977
703.000000 0.5950 0.5922 0.5883 0.5843 0.5801
708.000000 0.5757 0.5707 0.5658 0.5597 0.5530
713.000000 0.5463 0.5386 0.5305 0.5205 0.5102
718.000000 0.5025 0.4952 0.4907 0.4891 0.4879
723.000000 0.4944 0.5015 0.5102 0.5182 0.5265
728.000000 0.5353 0.5415 0.5487 0.5557 0.5577
733.000000 0.5636 0.5703 0.5741 0.5753 0.5763
738.000000 0.5772 0.5801 0.5861 0.5893 0.5910
743.000000 0.5921 0.5930 0.5936 0.5942 0.5950
748.000000 0.5957 0.5965 0.5973 0.5981 0.5997
753.000000 0.6035 0.6060 0.6077 0.6087 0.6096
758.000000 0.6100 0.6105 0.6108 0.6106 0.6105
763.000000 0.6103 0.6102 0.6117 0.6094 0.6089
768.000000 0.6084 0.6078 0.6073 0.6060 0.6048
773.000000 0.6035 0.6022 0.6005 0.5987 0.5969
778.000000 0.5939 0.5909 0.5869 0.5816 0.5780
783.000000 0.5748 0.5718 0.5660 0.5610 0.5565
788.000000 0.5529 0.5492 0.5439 0.5386 0.5335
793.000000 0.5284 0.5232 0.5181 0.5138 0.5097
798.000000 0.5071 0.5042 0.4983 0.4847 0.4724
803.000000 0.4642 0.4580 0.4539 0.4498 0.4456
808.000000 0.4415 0.4374 0.4333 0.4292 0.4251
813.000000 0.4206 0.4158 0.4110 0.4062 0.4014
818.000000 0.3964 0.3913 0.3861 0.3774 0.3713
823.000000 0.3660 0.3607 0.3555 0.3502 0.3450
828.000000 0.3397 0.3340 0.3282 0.3224 0.3159
833.000000 0.3094 0.3033 0.2976 0.2919 0.2864
838.000000 0.2812 0.2765 0.2738 0.2710 0.2687
843.000000 0.2669 0.2654 0.2648 0.2669 0.2655
848.000000 0.2666 0.2682 0.2698 0.2713 0.2732
853.000000 0.2753 0.2788 0.2816 0.2837 0.2854
858.000000 0.2865 0.2876 0.2886 0.2894 0.2902
863.000000 0.2913 0.2925 0.2937 0.2949 0.2958
868.000000 0.2966 0.2975 0.2982 0.2988 0.2994
873.000000 0.3008 0.2961 0.2930 0.2894 0.2853
878.000000 0.2811 0.2770 0.2728 0.2685 0.2643
883.000000 0.2601 0.2558 0.2542 0.2550 0.2557
888.000000 0.2586 0.2623 0.2673 0.2725 0.2778
893.000000 0.2831 0.2890 0.2965 0.3027 0.3072
898.000000 0.3101 0.3121 0.3112 0.3123 0.3111
903.000000 0.3089 0.3063 0.3036 0.2995 0.2943
908.000000 0.2859 0.2782 0.2712 0.2644 0.2575
913.000000 0.2506 0.2438 0.2405 0.2376 0.2339
918.000000 0.2285 0.2219 0.2132 0.2038 0.2001
923.000000 0.1985 0.1965 0.1869 0.1793 0.1739
928.000000 0.1684 0.1624 0.1577 0.1541 0.1505
933.000000 0.1470 0.1431 0.1393 0.1378 0.1364
938.000000 0.1351 0.1346 0.1342 0.1338 0.1334
943.000000 0.1333 0.1319 0.1328 0.1325 0.1326
948.000000 0.1328 0.1332 0.1335 0.1348 0.1374
953.000000 0.1414 0.1462 0.1505 0.1546 0.1610
958.000000 0.1681 0.1797 0.1934 0.2014 0.2091
963.000000 0.2152 0.2208 0.2263 0.2325 0.2389
968.000000 0.2448 0.2500 0.2535 0.2554 0.2559
973.000000 0.2561 0.2554 0.2550 0.2539 0.2522
978.000000 0.2502 0.2480 0.2456 0.2431 0.2405
983.000000 0.2374 0.2342 0.2311 0.2279 0.2242
988.000000 0.2205 0.2167 0.2111 0.2048 0.2020
993.000000 0.2015 0.2011 0.2006 0.2004 0.2002
998.000000 0.2000 0.1998 0.1996 0.1994 0.1994
1003.000000 0.1993 0.1992 0.1991 0.1990 0.1988
1008.000000 0.1985 0.1950 0.1906 0.1852 0.1801
1013.000000 0.1750 0.1693 0.1636 0.1567 0.1497
1018.000000 0.1416 0.1333 0.1251 0.1169 0.1087
1023.000000 0.1005 0.0924 0.0843 0.0761 0.0683
1028.000000 0.0639 0.0596 0.0546 0.0516 0.0497
1033.000000 0.0484 0.0479 0.0474 0.0470 0.0465
1038.000000 0.0459 0.0454 0.0441 0.0423 0.0405
1043.000000 0.0393 0.0382 0.0378 0.0376 0.0373
1048.000000 0.0372 0.0365 0.0357 0.0345 0.0304
1053.000000 0.0265 0.0231 0.0198 0.0164 0.0131
1058.000000 0.0098 0.0066 0.0043 0.0033 0.0028
1063.000000 0.0023 0.0018 0.0012 0.0008 0.0006
1068.000000 0.0005 0.0005 0.0005 0.0005 0.0005
1073.000000 0.0005 0.0005 0.0005 0.0005 0.0005
1078.000000 0.0005 0.0004 0.0004 0.0004 0.0004
1083.000000 0.0004 0.0004 0.0004 0.0004 0.0004
1088.000000 0.0004 0.0004 0.0003 0.0003 0.0003
1093.000000 0.0003 0.0003 0.0003 0.0003 0.0003
1098.000000 0.0003 0.0003 0.0003 0.0002 0.0002
1103.000000 0.0002 0.0002 0.0002 0.0002 0.0002
1108.000000 0.0002 0.0002 0.0002 0.0001 0.0002
1113.000000 0.0001 0.0001 0.0001 0.0001 0.0001
1118.000000 0.0001 0.0001 0.0001 0.0001 0.0001
1123.000000 0.0001 0.0001 0.0000 0.0000 0.0000
1128.000000 0.0000 0.0000 0.0000 0.0000 0.0000
1133.000000 0.0000 0.0000 0.0000 0.0000 0.0000
1138.000000 0.0000 0.0000 0.0000 0.0006 0.0018
1143.000000 0.0031 0.0045 0.0064 0.0087 0.0112
1148.000000 0.0136 0.0158 0.0178 0.0199 0.0220
1153.000000 0.0240 0.0260 0.0277 0.0291 0.0306
1158.000000 0.0332 0.0569 0.0714 0.0854 0.0993
1163.000000 0.1132 0.1270 0.1409 0.1547 0.1685
1168.000000 0.1823 0.1969 0.2078 0.2158 0.2253
1173.000000 0.2385 0.2517 0.2630 0.2719 0.2803
1178.000000 0.2930 0.3032 0.3123 0.3204 0.3280
1183.000000 0.3338 0.3396 0.3459 0.3516 0.3558
1188.000000 0.3597 0.3620 0.3639 0.3659 0.3670
1193.000000 0.3680 0.3687 0.3691 0.3695 0.3707
1198.000000 0.3697 0.3697 0.3695 0.3692 0.3689
1203.000000 0.3681 0.3669 0.3646 0.3602 0.3539
1208.000000 0.3483 0.3428 0.3375 0.3320 0.3262
1213.000000 0.3203 0.3157 0.3111 0.3064 0.3013
1218.000000 0.2960 0.2898 0.2833 0.2787 0.2741
1223.000000 0.2678 0.2580 0.2508 0.2442 0.2357
1228.000000 0.2265 0.2172 0.2079 0.1986 0.1894
1233.000000 0.1801 0.1709 0.1616 0.1524 0.1446
1238.000000 0.1370 0.1317 0.1277 0.1239 0.1208
1243.000000 0.1179 0.1167 0.1164 0.1153 0.1176
1248.000000 0.1187 0.1206 0.1234 0.1274 0.1314
1253.000000 0.1383 0.1473 0.1563 0.1653 0.1742
1258.000000 0.1832 0.1895 0.1942 0.1973 0.1985
1263.000000 0.1995 0.2000 0.2015 0.2004 0.2003
1268.000000 0.1997 0.1979 0.1924 0.1858 0.1787
1273.000000 0.1721 0.1629 0.1567 0.1527 0.1489
1278.000000 0.1456 0.1431 0.1406 0.1382 0.1359
1283.000000 0.1336 0.1313 0.1292 0.1275 0.1260
1288.000000 0.1252 0.1245 0.1241 0.1242 0.1225
1293.000000 0.1243 0.1246 0.1252 0.1263 0.1280
1298.000000 0.1305 0.1341 0.1385 0.1434 0.1486
1303.000000 0.1554 0.1623 0.1692 0.1754 0.1803
1308.000000 0.1863 0.1960 0.2104 0.2129 0.2140
1313.000000 0.2143 0.2146 0.2143 0.2139 0.2135
1318.000000 0.2132 0.2134 0.2136 0.2145 0.2162
1323.000000 0.2205 0.2355 0.2467 0.2526 0.2557
1328.000000 0.2584 0.2596 0.2596 0.2603 0.2465
1333.000000 0.2331 0.2196 0.2062 0.1928 0.1794
1338.000000 0.1660 0.1527 0.1393 0.1260 0.1127
1343.000000 0.0995 0.0894 0.0881 0.0883 0.0871
1348.000000 0.0903 0.0952 0.1043 0.1136 0.1230
1353.000000 0.1324 0.1417 0.1510 0.1607 0.1713
1358.000000 0.1814 0.1887 0.1932 0.1969 0.1991
1363.000000 0.2012 0.2033 0.2056 0.2085 0.2114
1368.000000 0.2143 0.2170 0.2197 0.2229 0.2296
1373.000000 0.2374 0.2420 0.2465 0.2514 0.2586
1378.000000 0.2657 0.2726 0.2793 0.2855 0.2913
1383.000000 0.2942 0.2969 0.2980 0.2987 0.2993
1388.000000 0.2998 0.3002 0.3005 0.3008 0.3011
1393.000000 0.3012 0.3014 0.3015 0.3017 0.3019
1398.000000 0.3020 0.3019 0.3037 0.3018 0.3018
1403.000000 0.3016 0.3014 0.3011 0.3008 0.3005
1408.000000 0.3002 0.2999 0.2996 0.2990 0.2983
1413.000000 0.2969 0.2953 0.2937 0.2918 0.2891
1418.000000 0.2856 0.2813 0.2740 0.2640 0.2540
1423.000000 0.2439 0.2340 0.2240 0.2140 0.2041
1428.000000 0.1941 0.1847 0.1763 0.1692 0.1624
1433.000000 0.1548 0.1464 0.1345 0.1188 0.1122
1438.000000 0.1062 0.1014 0.0969 0.0924 0.0883
1443.000000 0.0841 0.0801 0.0783 0.0772 0.0767
1448.000000 0.0763 0.0760 0.0758 0.0754 0.0753
1453.000000 0.0753 0.0753 0.0754 0.0753 0.0760
1458.000000 0.0764 0.0773 0.0787 0.0801 0.0816
1463.000000 0.0834 0.0853 0.0874 0.0895 0.0923
1468.000000 0.0953 0.1123 0.1860 0.1910 0.1959
1473.000000 0.2007 0.2051 0.2095 0.2145 0.2197
1478.000000 0.2311 0.2440 0.2680 0.2930 0.3170
1483.000000 0.3409 0.3648 0.3886 0.4125 0.4363
1488.000000 0.4600 0.4838 0.5075 0.5311 0.5548
1493.000000 0.5770 0.5889 0.5946 0.6003 0.6060
1498.000000 0.6162 0.6289 0.6462 0.6502 0.6514
1503.000000 0.6524 0.6533 0.6541 0.6552 0.6569
1508.000000 0.6634 0.6690 0.6725 0.6750 0.6766
1513.000000 0.6782 0.6791 0.6797 0.6803 0.6809
1518.000000 0.6815 0.6817 0.6818 0.6820 0.6821
1523.000000 0.6823 0.6823 0.6824 0.6824 0.6829
1528.000000 0.6834 0.6839 0.6846 0.6851 0.6859
1533.000000 0.6866 0.6872 0.6880 0.6888 0.6899
1538.000000 0.6912 0.6924 0.6935 0.6943 0.6951
1543.000000 0.6958 0.6964 0.6972 0.6977 0.6981
1548.000000 0.6987 0.6991 0.6996 0.6998 0.6998
1553.000000 0.6998 0.6986 0.6998 0.6998 0.6998
1558.000000 0.6998 0.6998 0.6997 0.6996 0.6995
1563.000000 0.6994 0.6993 0.6991 0.6990 0.6989
1568.000000 0.6988 0.6986 0.6984 0.6982 0.6980
1573.000000 0.6979 0.6977 0.6975 0.6973 0.6971
1578.000000 0.6968 0.6965 0.6962 0.6959 0.6957
1583.000000 0.6954 0.6951 0.6948 0.6945 0.6943
1588.000000 0.6940 0.6937 0.6934 0.6932 0.6928
1593.000000 0.6924 0.6920 0.6916 0.6912 0.6908
1598.000000 0.6905 0.6901 0.6898 0.6894 0.6890
1603.000000 0.6885 0.6881 0.6876 0.6871 0.6866
1608.000000 0.6861 0.6856 0.6851 0.6847 0.6842
1613.000000 0.6837 0.6832 0.6827 0.6823 0.6819
1618.000000 0.6814 0.6809 0.6805 0.6800 0.6795
1623.000000 0.6791 0.6788 0.6788 0.6787 0.6787
1628.000000 0.6785 0.6792 0.6794 0.6796 0.6800
1633.000000 0.6803 0.6806 0.6809 0.6813 0.6817
1638.000000 0.6820 0.6824 0.6829 0.6833 0.6836
1643.000000 0.6840 0.6845 0.6851 0.6857 0.6863
1648.000000 0.6869 0.6875 0.6881 0.6887 0.6896
1653.000000 0.6906 0.6916 0.6926 0.6937 0.6947
1658.000000 0.6958 0.6968 0.6980 0.6991 0.7003
1663.000000 0.7014 0.7025 0.7033 0.7037 0.7041
1668.000000 0.7044 0.7048 0.7051 0.7053 0.7048
1673.000000 0.7055 0.7033 0.7026 0.7019 0.7012
1678.000000 0.7005 0.6998 0.6991 0.6983 0.6973
1683.000000 0.6963 0.6953 0.6942 0.6929 0.6916
1688.000000 0.6902 0.6889 0.6873 0.6856 0.6840
1693.000000 0.6823 0.6805 0.6784 0.6762 0.6740
1698.000000 0.6718 0.6694 0.6669 0.6643 0.6618
1703.000000 0.6598 0.6581 0.6564 0.6547 0.6530
1708.000000 0.6515 0.6506 0.6499 0.6499 0.6498
1713.000000 0.6502 0.6482 0.6516 0.6525 0.6537
1718.000000 0.6559 0.6587 0.6613 0.6635 0.6656
1723.000000 0.6678 0.6699 0.6720 0.6740 0.6760
1728.000000 0.6779 0.6798 0.6819 0.6841 0.6863
1733.000000 0.6883 0.6900 0.6915 0.6929 0.6943
1738.000000 0.6954 0.6963 0.6969 0.6973 0.6975
1743.000000 0.6976 0.6978 0.6984 0.6997 0.7014
1748.000000 0.7038 0.7063 0.7086 0.7108 0.7131
1753.000000 0.7153 0.7244 0.7318 0.7357 0.7371
1758.000000 0.7385 0.7399 0.7407 0.7412 0.7416
1763.000000 0.7420 0.7424 0.7428 0.7431 0.7435
1768.000000 0.7439 0.7443 0.7446 0.7449 0.7452
1773.000000 0.7455 0.7458 0.7461 0.7464 0.7466
1778.000000 0.7469 0.7472 0.7474 0.7476 0.7477
1783.000000 0.7477 0.7479 0.7480 0.7481 0.7482
1788.000000 0.7482 0.7484 0.7485 0.7486 0.7486
1793.000000 0.7488 0.7489 0.7490 0.7491 0.7491
1798.000000 0.7492 0.7479 0.7491 0.7491 0.7491
1803.000000 0.7490 0.7490 0.7490 0.7489 0.7489
1808.000000 0.7488 0.7488 0.7488 0.7487 0.7487
1813.000000 0.7486 0.7486 0.7484 0.7481 0.7478
1818.000000 0.7476 0.7473 0.7470 0.7467 0.7465
1823.000000 0.7462 0.7459 0.7457 0.7453 0.7449
1828.000000 0.7444 0.7439 0.7433 0.7428 0.7423
1833.000000 0.7419 0.7413 0.7408 0.7403 0.7398
1838.000000 0.7394 0.7389 0.7383 0.7378 0.7371
1843.000000 0.7363 0.7356 0.7348 0.7340 0.7332
1848.000000 0.7323 0.7315 0.7307 0.7301 0.7297
1853.000000 0.7293 0.7289 0.7285 0.7283 0.7283
1858.000000 0.7283 0.7282 0.7282 0.7282 0.7281
1863.000000 0.7279 0.7279 0.7277 0.7276 0.7275
1868.000000 0.7273 0.7272 0.7270 0.7266 0.7261
1873.000000 0.7255 0.7249 0.7232 0.7213 0.7192
1878.000000 0.7169 0.7146 0.7124 0.7101 0.7078
1883.000000 0.7056 0.7037 0.7018 0.6999 0.6980
1888.000000 0.6961 0.6943 0.6927 0.6911 0.6895
1893.000000 0.6878 0.6862 0.6846 0.6832 0.6819
1898.000000 0.6807 0.6795 0.6783 0.6771 0.6759
1903.000000 0.6747 0.6735 0.6723 0.6711 0.6699
1908.000000 0.6687 0.6675 0.6663 0.6650 0.6639
1913.000000 0.6627 0.6614 0.6602 0.6590 0.6578
1918.000000 0.6567 0.6557 0.6547 0.6536 0.6525
1923.000000 0.6515 0.6505 0.6495 0.6485 0.6476
1928.000000 0.6468 0.6462 0.6455 0.6448 0.6441
1933.000000 0.6435 0.6429 0.6422 0.6418 0.6414
1938.000000 0.6410 0.6406 0.6402 0.6398 0.6394
1943.000000 0.6391 0.6388 0.6386 0.6386 0.6386
1948.000000 0.6389 0.6391 0.6393 0.6383 0.6402
1953.000000 0.6407 0.6412 0.6416 0.6421 0.6425
1958.000000 0.6430 0.6435 0.6445 0.6456 0.6468
1963.000000 0.6478 0.6487 0.6496 0.6504 0.6513
1968.000000 0.6522 0.6530 0.6538 0.6546 0.6554
1973.000000 0.6561 0.6569 0.6576 0.6582 0.6587
1978.000000 0.6592 0.6598 0.6604 0.6610 0.6615
1983.000000 0.6620 0.6626 0.6631 0.6636 0.6642
1988.000000 0.6648 0.6654 0.6661 0.6669 0.6676
1993.000000 0.6684 0.6692 0.6700 0.6707 0.6714
1998.000000 0.6721 0.6729 0.6737 0.6742 0.6747
2003.000000 0.6752 0.6757 0.6761 0.6766 0.6770
2008.000000 0.6774 0.6779 0.6784 0.6788 0.6793
2013.000000 0.6798 0.6802 0.6803 0.6801 0.6799
2018.000000 0.6797 0.6794 0.6790 0.6785 0.6822
2023.000000 0.6769 0.6761 0.6753 0.6746 0.6739
2028.000000 0.6732 0.6725 0.6718 0.6712 0.6704
2033.000000 0.6697 0.6691 0.6684 0.6676 0.6670
2038.000000 0.6663 0.6656 0.6649 0.6642 0.6634
2043.000000 0.6627 0.6620 0.6612 0.6605 0.6598
2048.000000 0.6591 0.6584 0.6577 0.6569 0.6562
2053.000000 0.6554 0.6547 0.6540 0.6533 0.6525
2058.000000 0.6518 0.6511 0.6504 0.6497 0.6489
2063.000000 0.6481 0.6474 0.6467 0.6460 0.6453
2068.000000 0.6445 0.6438 0.6431 0.6424 0.6418
2073.000000 0.6411 0.6405 0.6398 0.6391 0.6385
2078.000000 0.6378 0.6372 0.6366 0.6359 0.6353
2083.000000 0.6346 0.6339 0.6333 0.6327 0.6320
2088.000000 0.6313 0.6305 0.6296 0.6288 0.6280
2093.000000 0.6271 0.6263 0.6254 0.6246 0.6238
2098.000000 0.6230 0.6221 0.6213 0.6205 0.6193
2103.000000 0.6182 0.6171 0.6159 0.6147 0.6135
2108.000000 0.6124 0.6112 0.6100 0.6089 0.6078
2113.000000 0.6068 0.6058 0.6048 0.6038 0.6028
2118.000000 0.6018 0.6008 0.5998 0.5988 0.5977
2123.000000 0.5967 0.5957 0.5947 0.5937 0.5927
2128.000000 0.5917 0.5907 0.5897 0.5887 0.5876
2133.000000 0.5867 0.5857 0.5847 0.5843 0.5838
2138.000000 0.5833 0.5829 0.5824 0.5820 0.5816
2143.000000 0.5811 0.5807 0.5803 0.5798 0.5795
2148.000000 0.5792 0.5788 0.5785 0.5782 0.5777
2153.000000 0.5771 0.5765 0.5758 0.5750 0.5743
2158.000000 0.5736 0.5729 0.5723 0.5717 0.5711
2163.000000 0.5704 0.5698 0.5693 0.5687 0.5681
2168.000000 0.5674 0.5668 0.5661 0.5653 0.5644
2173.000000 0.5635 0.5627 0.5618 0.5610 0.5601
2178.000000 0.5592 0.5584 0.5575 0.5566 0.5557
2183.000000 0.5548 0.5539 0.5530 0.5521 0.5513
2188.000000 0.5503 0.5494 0.5485 0.5476 0.5467
2193.000000 0.5457 0.5449 0.5440 0.5431 0.5422
2198.000000 0.5414 0.5405 0.5397 0.5388 0.5379
2203.000000 0.5370 0.5362 0.5353 0.5344 0.5335
2208.000000 0.5327 0.5318 0.5309 0.5300 0.5291
2213.000000 0.5280 0.5269 0.5257 0.5245 0.5233
2218.000000 0.5222 0.5210 0.5198 0.5187 0.5175
2223.000000 0.5163 0.5150 0.5135 0.5119 0.5104
2228.000000 0.5089 0.5073 0.5058 0.5042 0.5027
2233.000000 0.5014 0.5002 0.4994 0.4986 0.4977
2238.000000 0.4969 0.4961 0.4953 0.4944 0.4936
2243.000000 0.4928 0.4920 0.4911 0.4903 0.4895
2248.000000 0.4887 0.4879 0.4871 0.4863 0.4855
2253.000000 0.4847 0.4839 0.4831 0.4823 0.4815
2258.000000 0.4807 0.4799 0.4791 0.4783 0.4775
2263.000000 0.4766 0.4756 0.4744 0.4732 0.4720
2268.000000 0.4708 0.4695 0.4683 0.4670 0.4658
2273.000000 0.4646 0.4634 0.4621 0.4603 0.4584
2278.000000 0.4560 0.4535 0.4511 0.4486 0.4461
2283.000000 0.4436 0.4415 0.4394 0.4378 0.4362
2288.000000 0.4347 0.4331 0.4316 0.4300 0.4285
2293.000000 0.4269 0.4254 0.4238 0.4223 0.4211
2298.000000 0.4198 0.4186 0.4174 0.4163 0.4151
2303.000000 0.4139 0.4127 0.4115 0.4104 0.4092
2308.000000 0.4080 0.4068 0.4057 0.4045 0.4033
2313.000000 0.4022 0.4011 0.3999 0.3988 0.3976
2318.000000 0.3964 0.3953 0.3943 0.3934 0.3926
2323.000000 0.3918 0.3910 0.3903 0.3895 0.3888
2328.000000 0.3881 0.3873 0.3865 0.3850 0.3835
2333.000000 0.3819 0.3804 0.3794 0.3788 0.3781
2338.000000 0.3774 0.3767 0.3761 0.3754 0.3748
2343.000000 0.3742 0.3735 0.3728 0.3722 0.3717
2348.000000 0.3712 0.3707 0.3703 0.3698 0.3694
2353.000000 0.3689 0.3684 0.3677 0.3671 0.3665
2358.000000 0.3659 0.3641 0.3613 0.3587 0.3569
2363.000000 0.3551 0.3534 0.3518 0.3506 0.3495
2368.000000 0.3485 0.3474 0.3464 0.3453 0.3443
2373.000000 0.3433 0.3424 0.3416 0.3407 0.3399
2378.000000 0.3391 0.3383 0.3374 0.3366 0.3358
2383.000000 0.3350 0.3342 0.3334 0.3326 0.3318
2388.000000 0.3310 0.3303 0.3297 0.3290 0.3284
2393.000000 0.3277 0.3271 0.3264 0.3258 0.3251
2398.000000 0.3245 0.3239 0.3233 0.3226 0.3219
2403.000000 0.3211 0.3203 0.3196 0.3188 0.3180
2408.000000 0.3173 0.3165 0.3158 0.3149 0.3138
2413.000000 0.3127 0.3115 0.3103 0.3096 0.3094
2418.000000 0.3091 0.3089 0.3087 0.3084 0.3082
2423.000000 0.3079 0.3077 0.3075 0.3073 0.3070
2428.000000 0.3068 0.3066 0.3063 0.3061 0.3058
2433.000000 0.3057 0.3055 0.3054 0.3052 0.3051
2438.000000 0.3050 0.3049 0.3048 0.3047 0.3046
2443.000000 0.3044 0.3043 0.3042 0.3042 0.3040
2448.000000 0.3039 0.3039 0.3039 0.3040 0.3040
2453.000000 0.3040 0.3041 0.3041 0.3042 0.3042
2458.000000 0.3042 0.3043 0.3043 0.3044 0.3044
2463.000000 0.3044 0.3044 0.3045 0.3046 0.3046
2468.000000 0.3047 0.3047 0.3047 0.3048 0.3048
2473.000000 0.3049 0.3049 0.3049 0.3050 0.3050
2478.000000 0.3051 0.3051 0.3051 0.3052 0.3053
2483.000000 0.3054 0.3055 0.3055 0.3057 0.3058
2488.000000 0.3059 0.3060 0.3060 0.3062 0.3063
2493.000000 0.3064 0.3065 0.3066 0.3067 0.3068
2498.000000 0.3069 0.3070 0.3072 0.3072 0.3073
2503.000000 0.3074 0.3075 0.3075 0.3076 0.3077
2508.000000 0.3078 0.3079 0.3080 0.3081 0.3082
2513.000000 0.3083 0.3084 0.3084 0.3083 0.3085
2518.000000 0.3085 0.3085 0.3085 0.3086 0.3086
2523.000000 0.3086 0.3086 0.3086 0.3086 0.3086
2528.000000 0.3086 0.3086 0.3086 0.3085 0.3084
2533.000000 0.3083 0.3083 0.3082 0.3081 0.3080
2538.000000 0.3080 0.3078 0.3077 0.3076 0.3075
2543.000000 0.3075 0.3073 0.3071 0.3069 0.3067
2548.000000 0.3064 0.3062 0.3060 0.3058 0.3056
2553.000000 0.3054 0.3052 0.3049 0.3047 0.3045
2558.000000 0.3043 0.3041 0.3040 0.3038 0.3037
2563.000000 0.3035 0.3033 0.3031 0.3030 0.3029
2568.000000 0.3029 0.3030 0.3031 0.3033 0.3034
2573.000000 0.3037 0.3040 0.3044 0.3047 0.3050
2578.000000 0.3054 0.3057 0.3060 0.3067 0.3075
2583.000000 0.3083 0.3094 0.3105 0.3115 0.3124
2588.000000 0.3134 0.3143 0.3152 0.3161 0.3170
2593.000000 0.3179 0.3188 0.3198 0.3207 0.3215
2598.000000 0.3223 0.3231 0.3239 0.3246 0.3253
2603.000000 0.3260 0.3267 0.3274 0.3281 0.3288
2608.000000 0.3294 0.3299 0.3304 0.3307 0.3310
2613.000000 0.3314 0.3317 0.3320 0.3324 0.3327
2618.000000 0.3330 0.3330 0.3331 0.3332 0.3333
2623.000000 0.3333 0.3334 0.3335 0.3335 0.3336
2628.000000 0.3336 0.3337 0.3337 0.3338 0.3338
2633.000000 0.3338 0.3338 0.3336 0.3335 0.3333
2638.000000 0.3349 0.3328 0.3326 0.3323 0.3321
2643.000000 0.3317 0.3313 0.3309 0.3303 0.3296
2648.000000 0.3289 0.3273 0.3254 0.3235 0.3199
2653.000000 0.3161 0.3124 0.3099 0.3073 0.3051
2658.000000 0.3036 0.3022 0.3008 0.2994 0.2981
2663.000000 0.2969 0.2959 0.2949 0.2939 0.2929
2668.000000 0.2919 0.2910 0.2900 0.2890 0.2880
2673.000000 0.2870 0.2861 0.2852 0.2842 0.2834
2678.000000 0.2826 0.2818 0.2810 0.2802 0.2795
2683.000000 0.2787 0.2779 0.2771 0.2764 0.2757
2688.000000 0.2750 0.2744 0.2740 0.2735 0.2730
2693.000000 0.2725 0.2720 0.2716 0.2711 0.2706
2698.000000 0.2701 0.2696 0.2691 0.2687 0.2682
2703.000000 0.2677 0.2673 0.2668 0.2664 0.2658
2708.000000 0.2653 0.2648 0.2643 0.2638 0.2633
2713.000000 0.2628 0.2623 0.2618 0.2613 0.2607
2718.000000 0.2602 0.2597 0.2592 0.2585 0.2578
2723.000000 0.2570 0.2561 0.2551 0.2541 0.2531
2728.000000 0.2522 0.2512 0.2503 0.2494 0.2485
2733.000000 0.2476 0.2467 0.2458 0.2450 0.2441
2738.000000 0.2432 0.2423 0.2414 0.2405 0.2396
2743.000000 0.2387 0.2378 0.2368 0.2359 0.2349
2748.000000 0.2332 0.2312 0.2293 0.2273 0.2254
2753.000000 0.2234 0.2215 0.2196 0.2177 0.2158
2758.000000 0.2138 0.2119 0.2089 0.2052 0.2014
2763.000000 0.1977 0.1938 0.1900 0.1865 0.1833
2768.000000 0.1801 0.1775 0.1755 0.1735 0.1715
2773.000000 0.1696 0.1676 0.1657 0.1637 0.1618
2778.000000 0.1597 0.1574 0.1551 0.1525 0.1480
2783.000000 0.1435 0.1391 0.1345 0.1300 0.1255
2788.000000 0.1192 0.1127 0.1063 0.0994 0.0925
2793.000000 0.0855 0.0786 0.0718 0.0649 0.0607
2798.000000 0.0585 0.0562 0.0541 0.0521 0.0502
2803.000000 0.0483 0.0464 0.0445 0.0427 0.0410
2808.000000 0.0393 0.0376 0.0362 0.0348 0.0334
2813.000000 0.0325 0.0317 0.0309 0.0303 0.0297
2818.000000 0.0292 0.0288 0.0286 0.0284 0.0282
2823.000000 0.0280 0.0278 0.0276 0.0274 0.0272
2828.000000 0.0271 0.0269 0.0268 0.0267 0.0266
2833.000000 0.0265 0.0264 0.0263 0.0262 0.0261
2838.000000 0.0260 0.0260 0.0259 0.0259 0.0259
2843.000000 0.0259 0.0259 0.0259 0.0259 0.0259
2848.000000 0.0260 0.0260 0.0260 0.0260 0.0260
2853.000000 0.0260 0.0261 0.0261 0.0261 0.0261
2858.000000 0.0266 0.0262 0.0262 0.0263 0.0263
2863.000000 0.0263 0.0264 0.0264 0.0265 0.0266
2868.000000 0.0266 0.0266 0.0266 0.0267 0.0267
2873.000000 0.0267 0.0268 0.0268 0.0269 0.0270
2878.000000 0.0270 0.0271 0.0271 0.0272 0.0273
2883.000000 0.0274 0.0275 0.0276 0.0277 0.0278
2888.000000 0.0279 0.0279 0.0280 0.0281 0.0282
2893.000000 0.0283 0.0284 0.0285 0.0286 0.0288
2898.000000 0.0290 0.0291 0.0293 0.0295 0.0297
2903.000000 0.0299 0.0303 0.0308 0.0313 0.0319
2908.000000 0.0328 0.0336 0.0345 0.0357 0.0371
2913.000000 0.0385 0.0404 0.0438 0.0473 0.0507
2918.000000 0.0562 0.0621 0.0680 0.0738 0.0797
2923.000000 0.0856 0.0915 0.0973 0.1032 0.1090
2928.000000 0.1148 0.1207 0.1265 0.1323 0.1382
2933.000000 0.1440 0.1499 0.1582 0.1675 0.1768
2938.000000 0.1845 0.1878 0.1911 0.1945 0.2004
2943.000000 0.2068 0.2132 0.2197 0.2261 0.2325
2948.000000 0.2389 0.2453 0.2517 0.2581 0.2645
2953.000000 0.2709 0.2773 0.2837 0.2901 0.2965
2958.000000 0.3029 0.3092 0.3156 0.3219 0.3283
2963.000000 0.3347 0.3410 0.3473 0.3537 0.3600
2968.000000 0.3663 0.3726 0.3789 0.3852 0.3915
2973.000000 0.3978 0.4041 0.4104 0.4168 0.4230
2978.000000 0.4293 0.4356 0.4418 0.4475 0.4533
2983.000000 0.4591 0.4621 0.4641 0.4660 0.4679
2988.000000 0.4699 0.4718 0.4738 0.4753 0.4764
2993.000000 0.4775 0.4786 0.4790 0.4794 0.4798
2998.000000 0.4801 0.4803 0.4804 0.4806 0.4808
3003.000000 0.4809 0.4811 0.4813 0.4814 0.4816
3008.000000 0.4818 0.4819 0.4821 0.4823 0.4824
3013.000000 0.4826 0.4828 0.4829 0.4831 0.4831
3018.000000 0.4832 0.4832 0.4833 0.4833 0.4833
3023.000000 0.4833 0.4833 0.4833 0.4833 0.4834
3028.000000 0.4834 0.4834 0.4834 0.4833 0.4833
3033.000000 0.4833 0.4832 0.4832 0.4832 0.4832
3038.000000 0.4831 0.4831 0.4831 0.4831 0.4830
3043.000000 0.4830 0.4829 0.4829 0.4828 0.4828
3048.000000 0.4828 0.4827 0.4826 0.4825 0.4823
3053.000000 0.4822 0.4820 0.4818 0.4817 0.4815
3058.000000 0.4814 0.4812 0.4810 0.4809 0.4807
3063.000000 0.4805 0.4803 0.4800 0.4797 0.4794
3068.000000 0.4791 0.4788 0.4785 0.4782 0.4778
3073.000000 0.4774 0.4769 0.4765 0.4757 0.4748
3078.000000 0.4740 0.4732 0.4723 0.4714 0.4705
3083.000000 0.4696 0.4688 0.4680 0.4672 0.4661
3088.000000 0.4648 0.4635 0.4623 0.4607 0.4590
3093.000000 0.4574 0.4557 0.4541 0.4524 0.4507
3098.000000 0.4491 0.4474 0.4458 0.4442 0.4425
3103.000000 0.4409 0.4392 0.4376 0.4360 0.4343
3108.000000 0.4327 0.4310 0.4294 0.4277 0.4261
3113.000000 0.4245 0.4229 0.4212 0.4196 0.4180
3118.000000 0.4163 0.4147 0.4131 0.4114 0.4098
3123.000000 0.4082 0.4066 0.4050 0.4033 0.4017
3128.000000 0.4001 0.3985 0.3969 0.3952 0.3936
3133.000000 0.3920 0.3904 0.3888 0.3872 0.3856
3138.000000 0.3840 0.3824 0.3808 0.3792 0.3775
3143.000000 0.3759 0.3743 0.3727 0.3711 0.3695
3148.000000 0.3679 0.3663 0.3648 0.3632 0.3616
3153.000000 0.3600 0.3584 0.3568 0.3552 0.3536
3158.000000 0.3520 0.3504 0.3488 0.3473 0.3457
3163.000000 0.3441 0.3425 0.3409 0.3393 0.3378
3168.000000 0.3362 0.3346 0.3330 0.3314 0.3299
3173.000000 0.3282 0.3265 0.3248 0.3230 0.3213
3178.000000 0.3196 0.3179 0.3162 0.3146 0.3134
3183.000000 0.3122 0.3109 0.3097 0.3085 0.3073
3188.000000 0.3061 0.3049 0.3036 0.3024 0.3012
3193.000000 0.3000 0.2987 0.2975 0.2963 0.2951
3198.000000 0.2938 0.2926 0.2914 0.2902 0.2889
3203.000000 0.2877 0.2865 0.2852 0.2840 0.2828
3208.000000 0.2816 0.2803 0.2791 0.2779 0.2767
3213.000000 0.2755 0.2732 0.2704 0.2675 0.2646
3218.000000 0.2617 0.2588 0.2559 0.2529 0.2504
3223.000000 0.2486 0.2469 0.2451 0.2433 0.2415
3228.000000 0.2398 0.2380 0.2362 0.2345 0.2329
3233.000000 0.2312 0.2295 0.2279 0.2263 0.2246
3238.000000 0.2230 0.2214 0.2198 0.2182 0.2166
3243.000000 0.2149 0.2130 0.2111 0.2093 0.2074
3248.000000 0.2057 0.2039 0.2022 0.2004 0.1993
3253.000000 0.1981 0.1969 0.1958 0.1947 0.1937
3258.000000 0.1927 0.1917 0.1910 0.1905 0.1900
3263.000000 0.1895 0.1890 0.1885 0.1880 0.1875
3268.000000 0.1870 0.1865 0.1861 0.1856 0.1851
3273.000000 0.1848 0.1846 0.1844 0.1842 0.1840
3278.000000 0.1838 0.1836 0.1834 0.1832 0.1830
3283.000000 0.1828 0.1826 0.1824 0.1822 0.1821
3288.000000 0.1820 0.1818 0.1817 0.1816 0.1816
3293.000000 0.1815 0.1814 0.1814 0.1813 0.1812
3298.000000 0.1812 0.1811 0.1810 0.1810 0.1809
3303.000000 0.1808 0.1807 0.1807 0.1806 0.1805
3308.000000 0.1805 0.1805 0.1804 0.1804 0.1803
3313.000000 0.1803 0.1802 0.1802 0.1801 0.1801
3318.000000 0.1800 0.1800 0.1800 0.1799 0.1799
3323.000000 0.1798 0.1798 0.1798 0.1798 0.1798
3328.000000 0.1798 0.1798 0.1798 0.1798 0.1799
3333.000000 0.1799 0.1795 0.1800 0.1800 0.1800
3338.000000 0.1801 0.1802 0.1802 0.1803 0.1804
3343.000000 0.1806 0.1807 0.1808 0.1810 0.1811
3348.000000 0.1813 0.1815 0.1816 0.1818 0.1820
3353.000000 0.1822 0.1824 0.1826 0.1829 0.1832
3358.000000 0.1836 0.1840 0.1844 0.1849 0.1855
3363.000000 0.1861 0.1867 0.1873 0.1880 0.1886
3368.000000 0.1893 0.1900 0.1907 0.1914 0.1921
3373.000000 0.1929 0.1936 0.1946 0.1956 0.1965
3378.000000 0.1975 0.1984 0.1994 0.2003 0.2013
3383.000000 0.2022 0.2031 0.2041 0.2050 0.2059
3388.000000 0.2069 0.2079 0.2090 0.2100 0.2110
3393.000000 0.2121 0.2131 0.2141 0.2152 0.2162
3398.000000 0.2170 0.2178 0.2186 0.2194 0.2201
3403.000000 0.2209 0.2216 0.2223 0.2231 0.2240
3408.000000 0.2249 0.2259 0.2268 0.2279 0.2292
3413.000000 0.2305 0.2318 0.2332 0.2343 0.2354
3418.000000 0.2366 0.2377 0.2388 0.2397 0.2406
3423.000000 0.2415 0.2424 0.2434 0.2443 0.2452
3428.000000 0.2461 0.2470 0.2485 0.2502 0.2519
3433.000000 0.2536 0.2553 0.2575 0.2597 0.2620
3438.000000 0.2642 0.2663 0.2678 0.2694 0.2709
3443.000000 0.2724 0.2741 0.2759 0.2777 0.2795
3448.000000 0.2814 0.2832 0.2851 0.2871 0.2890
3453.000000 0.2909 0.2926 0.2944 0.2961 0.2978
3458.000000 0.2996 0.3012 0.3029 0.3046 0.3062
3463.000000 0.3079 0.3095 0.3110 0.3126 0.3142
3468.000000 0.3216 0.3330 0.3444 0.3558 0.3672
3473.000000 0.3734 0.3782 0.3829 0.3877 0.3924
3478.000000 0.3972 0.4019 0.4067 0.4114 0.4161
3483.000000 0.4209 0.4256 0.4303 0.4350 0.4397
3488.000000 0.4444 0.4491 0.4538 0.4585 0.4647
3493.000000 0.4734 0.4821 0.4907 0.4994 0.5047
3498.000000 0.5066 0.5085 0.5105 0.5124 0.5143
3503.000000 0.5162 0.5182 0.5201 0.5220 0.5251
3508.000000 0.5288 0.5324 0.5360 0.5396 0.5437
3513.000000 0.5480 0.5523 0.5566 0.5609 0.5639
3518.000000 0.5667 0.5695 0.5722 0.5750 0.5764
3523.000000 0.5775 0.5787 0.5799 0.5810 0.5822
3528.000000 0.5833 0.5845 0.5856 0.5868 0.5883
3533.000000 0.5899 0.5914 0.5930 0.5945 0.6080
3538.000000 0.6224 0.6368 0.6512 0.6656 0.6685
3543.000000 0.6704 0.6724 0.6743 0.6763 0.6777
3548.000000 0.6792 0.6806 0.6820 0.6835 0.6850
3553.000000 0.6865 0.6880 0.6895 0.6911 0.6929
3558.000000 0.6947 0.6966 0.6984 0.7003 0.7023
3563.000000 0.7044 0.7065 0.7086 0.7107 0.7129
3568.000000 0.7152 0.7176 0.7199 0.7222 0.7266
3573.000000 0.7325 0.7384 0.7443 0.7502 0.7538
3578.000000 0.7549 0.7559 0.7569 0.7580 0.7588
3583.000000 0.7594 0.7599 0.7605 0.7610 0.7615
3588.000000 0.7616 0.7617 0.7618 0.7619 0.7620
3593.000000 0.7621 0.7621 0.7622 0.7623 0.7624
3598.000000 0.7625 0.7625 0.7626 0.7626 0.7626
3603.000000 0.7627 0.7627 0.7628 0.7628 0.7628
3608.000000 0.7629 0.7629 0.7629 0.7630 0.7630
3613.000000 0.7631 0.7631 0.7631 0.7632 0.7632
3618.000000 0.7633 0.7633 0.7634 0.7634 0.7635
3623.000000 0.7635 0.7636 0.7636 0.7636 0.7636
3628.000000 0.7636 0.7637 0.7637 0.7637 0.7637
3633.000000 0.7637 0.7638 0.7638 0.7638 0.7638
3638.000000 0.7638 0.7638 0.7638 0.7638 0.7638
3643.000000 0.7638 0.7638 0.7638 0.7638 0.7638
3648.000000 0.7638 0.7638 0.7639 0.7639 0.7639
3653.000000 0.7639 0.7639 0.7639 0.7639 0.7639
3658.000000 0.7639 0.7639 0.7639 0.7639 0.7639
3663.000000 0.7639 0.7639 0.7639 0.7640 0.7640
3668.000000 0.7640 0.7640 0.7640 0.7640 0.7639
3673.000000 0.7639 0.7639 0.7639 0.7639 0.7639
3678.000000 0.7639 0.7639 0.7639 0.7639 0.7663
3683.000000 0.7638 0.7638 0.7638 0.7638 0.7638
3688.000000 0.7638 0.7638 0.7638 0.7638 0.7638
3693.000000 0.7637 0.7637 0.7637 0.7637 0.7637
3698.000000 0.7637 0.7637 0.7637 0.7637 0.7637
3703.000000 0.7637 0.7636 0.7636 0.7636 0.7636
3708.000000 0.7636 0.7636 0.7635 0.7635 0.7635
3713.000000 0.7635 0.7635 0.7634 0.7634 0.7634
3718.000000 0.7634 0.7634 0.7634 0.7633 0.7633
3723.000000 0.7633 0.7633 0.7633 0.7632 0.7632
3728.000000 0.7632 0.7632 0.7632 0.7632 0.7631
3733.000000 0.7631 0.7631 0.7630 0.7630 0.7629
3738.000000 0.7628 0.7627 0.7626 0.7624 0.7623
3743.000000 0.7622 0.7621 0.7619 0.7618 0.7617
3748.000000 0.7616 0.7614 0.7612 0.7610 0.7608
3753.000000 0.7606 0.7604 0.7602 0.7601 0.7599
3758.000000 0.7597 0.7595 0.7593 0.7591 0.7589
3763.000000 0.7588 0.7586 0.7584 0.7581 0.7579
3768.000000 0.7577 0.7574 0.7572 0.7570 0.7568
3773.000000 0.7565 0.7563 0.7561 0.7558 0.7556
3778.000000 0.7554 0.7552 0.7549 0.7547 0.7545
3783.000000 0.7543 0.7541 0.7539 0.7536 0.7534
3788.000000 0.7532 0.7530 0.7527 0.7524 0.7522
3793.000000 0.7519 0.7516 0.7513 0.7510 0.7507
3798.000000 0.7504 0.7501 0.7498 0.7495 0.7492
3803.000000 0.7489 0.7486 0.7483 0.7480 0.7477
3808.000000 0.7474 0.7471 0.7468 0.7464 0.7461
3813.000000 0.7458 0.7455 0.7452 0.7449 0.7446
3818.000000 0.7443 0.7440 0.7437 0.7434 0.7431
3823.000000 0.7428 0.7425 0.7422 0.7419 0.7416
3828.000000 0.7413 0.7410 0.7407 0.7404 0.7401
3833.000000 0.7398 0.7396 0.7393 0.7390 0.7387
3838.000000 0.7384 0.7381 0.7378 0.7375 0.7372
3843.000000 0.7369 0.7366 0.7363 0.7360 0.7357
3848.000000 0.7354 0.7351 0.7348 0.7346 0.7343
3853.000000 0.7340 0.7336 0.7333 0.7330 0.7327
3858.000000 0.7324 0.7321 0.7318 0.7315 0.7311
3863.000000 0.7308 0.7305 0.7302 0.7299 0.7296
3868.000000 0.7293 0.7290 0.7286 0.7283 0.7280
3873.000000 0.7277 0.7274 0.7271 0.7267 0.7264
3878.000000 0.7261 0.7258 0.7255 0.7252 0.7249
3883.000000 0.7246 0.7243 0.7240 0.7237 0.7234
3888.000000 0.7231 0.7227 0.7224 0.7221 0.7218
3893.000000 0.7215 0.7212 0.7208 0.7205 0.7201
3898.000000 0.7198 0.7194 0.7191 0.7188 0.7184
3903.000000 0.7181 0.7177 0.7174 0.7170 0.7167
3908.000000 0.7163 0.7160 0.7156 0.7152 0.7149
3913.000000 0.7146 0.7143 0.7141 0.7139 0.7136
3918.000000 0.7134 0.7131 0.7129 0.7126 0.7124
3923.000000 0.7122 0.7119 0.7117 0.7114 0.7112
3928.000000 0.7110 0.7108 0.7105 0.7103 0.7100
3933.000000 0.7098 0.7095 0.7093 0.7090 0.7088
3938.000000 0.7086 0.7084 0.7082 0.7080 0.7079
3943.000000 0.7077 0.7075 0.7074 0.7072 0.7071
3948.000000 0.7070 0.7068 0.7067 0.7065 0.7064
3953.000000 0.7062 0.7061 0.7060 0.7058 0.7057
3958.000000 0.7055 0.7054 0.7052 0.7051 0.7049
3963.000000 0.7048 0.7047 0.7045 0.7044 0.7042
3968.000000 0.7041 0.7040 0.7038 0.7037 0.7036
3973.000000 0.7034 0.7033 0.7032 0.7030 0.7029
3978.000000 0.7028 0.7026 0.7025 0.7023 0.7022
3983.000000 0.7021 0.7019 0.7018 0.7016 0.7015
3988.000000 0.7013 0.7012 0.7011 0.7009 0.7008
3993.000000 0.7006 0.7005 0.7005 0.7005 0.7004
3998.000000 0.7004 0.7004 0.7004
##END=
