##TITLE=N,N'-BIS(S-ACETYLMERCAPTOSUCCINIC ACID) HYDRAZINE
##JCAMP-DX=4.24
##DATA TYPE=INFRARED SPECTRUM
##CLASS=COBLENTZ
##ORIGIN=ARTHUR D. LITTLE, INC.
##OWNER=COBLENTZ SOCIETY
Collection (C) 2018 copyright by the U.S. Secretary of Commerce
on behalf of the United States of America. All rights reserved.
##DATE=Not specified, most likely prior to 1970
##MOLFORM=C12 H16 N2 O8 S2
##MP=200 C (DECOMPOSE)
##SOURCE REFERENCE=COBLENTZ NO. 4567
##$NIST ID=B6004567
##$NIST SOURCE=COBLENTZ
##$NIST IMAGE=cob4567
##SPECTROMETER/DATA SYSTEM=Not specified, most likely a prism, grating, or hybrid spectrometer.
##STATE=SOLID(MINERAL OIL MULL)
##PATH LENGTH=
$$SPECTRAL CONTAMINATIN DUE TO OIL AROUND 2920 CM^-^1
##SAMPLING PROCEDURE=TRANSMISSION
##RESOLUTION=4
##DATA PROCESSING=DIGITIZED BY NIST FROM HARD COPY
##XUNITS=1/CM
##YUNITS=TRANSMITTANCE
##XFACTOR=1.000000
##YFACTOR=1
##DELTAX=001.410579
##FIRSTX=598.438
##LASTX=3549.37
##FIRSTY=0.419
##MAXX=3549.37
##MINX=598.438
##MAXY=0.903
##MINY=0.005
##NPOINTS=2093
##XYDATA=(X++(Y..Y))
598.438000 0.4190 0.4190 0.4180 0.4180 0.4170
605.494269 0.4150 0.4150 0.4150 0.4170 0.4180
612.544000 0.4210 0.4240 0.4250 0.4250 0.4260
619.600269 0.4260 0.4260 0.4260 0.4260 0.4260
626.650000 0.4260 0.4260 0.4260 0.4250 0.4250
633.706269 0.4250 0.4250 0.4260 0.4350 0.4490
640.756000 0.4660 0.4760 0.4930 0.5040 0.5370
647.812269 0.5570 0.5740 0.5910 0.6080 0.6240
654.861000 0.6360 0.6490 0.6620 0.6700 0.6790
661.917269 0.6800 0.6780 0.6730 0.6730 0.6660
668.967000 0.6580 0.6530 0.6480 0.6420 0.6380
676.023269 0.6380 0.6580 0.6780 0.6950 0.7120
683.073000 0.7290 0.7540 0.7580 0.7560 0.7510
690.129269 0.7430 0.7310 0.7200 0.7120 0.7090
697.179000 0.7120 0.7230 0.7340 0.7510 0.7710
704.235269 0.7810 0.7850 0.7900 0.7950 0.7970
711.285000 0.7970 0.7950 0.7920 0.7900 0.7900
718.341269 0.7920 0.7970 0.8020 0.8080 0.8150
725.390000 0.8180 0.8190 0.8210 0.8250 0.8280
732.446269 0.8320 0.8360 0.8430 0.8450 0.8490
739.496000 0.8510 0.8510 0.8530 0.8530 0.8510
746.552269 0.8480 0.8430 0.8380 0.8180 0.8040
753.602000 0.7910 0.7780 0.7610 0.7570 0.7610
760.658269 0.7740 0.7940 0.8210 0.8480 0.8560
767.708000 0.8650 0.8680 0.8690 0.8690 0.8690
774.764269 0.8700 0.8720 0.8720 0.8750 0.8780
781.814000 0.8790 0.8780 0.8760 0.8750 0.8750
788.870269 0.8730 0.8730 0.8730 0.8720 0.8700
795.919000 0.8700 0.8700 0.8700 0.8700 0.8700
802.975269 0.8690 0.8680 0.8680 0.8660 0.8650
810.025000 0.8650 0.8630 0.8620 0.8600 0.8560
817.081269 0.8550 0.8530 0.8520 0.8510 0.8460
824.131000 0.8430 0.8410 0.8390 0.8380 0.8320
831.187269 0.8280 0.8260 0.8290 0.8320 0.8340
838.237000 0.8340 0.8320 0.8310 0.8260 0.8250
845.293269 0.8240 0.8240 0.8220 0.8190 0.8150
852.343000 0.8090 0.8050 0.8020 0.8010 0.8000
859.399269 0.7970 0.7920 0.7850 0.7810 0.7750
866.448000 0.7670 0.7560 0.7310 0.7240 0.7130
873.504269 0.7020 0.6920 0.6900 0.6920 0.7030
880.554000 0.7200 0.7230 0.7240 0.7240 0.7210
887.610269 0.7200 0.7140 0.6990 0.6870 0.6790
894.660000 0.6730 0.6680 0.6580 0.6530 0.6430
901.716269 0.6340 0.6250 0.6150 0.6070 0.5950
908.766000 0.5840 0.5710 0.5560 0.5440 0.5370
915.822269 0.5360 0.5340 0.5340 0.5330 0.5330
922.872000 0.5310 0.5310 0.5300 0.5290 0.5270
929.928269 0.5260 0.5260 0.5240 0.5230 0.5190
936.977000 0.5130 0.5060 0.4970 0.4860 0.4790
944.033269 0.4720 0.4630 0.4620 0.4660 0.4760
951.083000 0.4890 0.5040 0.5210 0.5400 0.5600
958.139269 0.5780 0.5950 0.6150 0.6320 0.6490
965.189000 0.6630 0.6750 0.6860 0.6970 0.7060
972.245269 0.7130 0.7160 0.7230 0.7270 0.7290
979.295000 0.7300 0.7340 0.7340 0.7300 0.7260
986.351269 0.7200 0.7130 0.7020 0.6870 0.6730
993.401000 0.6580 0.6340 0.5980 0.5980 0.6250
1000.457269 0.6410 0.6660 0.6930 0.7200 0.7460
1007.506000 0.7580 0.7680 0.7740 0.7780 0.7840
1014.562269 0.7850 0.7870 0.7870 0.7900 0.7920
1021.612000 0.7940 0.7970 0.7980 0.8000 0.8020
1028.668269 0.8040 0.8040 0.8050 0.8050 0.8070
1035.718000 0.8070 0.8070 0.8050 0.8050 0.8020
1042.774269 0.8020 0.8000 0.7980 0.7980 0.7970
1049.824000 0.7940 0.7900 0.7850 0.7820 0.7810
1056.880269 0.7710 0.7670 0.7640 0.7570 0.7540
1063.929000 0.7530 0.7500 0.7410 0.7310 0.7230
1070.985269 0.7160 0.7130 0.7120 0.7070 0.7000
1078.035000 0.6900 0.6830 0.6720 0.6560 0.6410
1085.091269 0.6220 0.6020 0.5840 0.5640 0.5460
1092.141000 0.5300 0.5140 0.4990 0.4960 0.4970
1099.197269 0.5020 0.5090 0.5120 0.5160 0.5170
1106.247000 0.5170 0.5160 0.5120 0.5030 0.4960
1113.303269 0.4830 0.4620 0.4460 0.4210 0.3950
1120.353000 0.3710 0.3410 0.2990 0.2900 0.2900
1127.409269 0.2930 0.3040 0.3160 0.3410 0.3700
1134.458000 0.4110 0.4460 0.4780 0.5000 0.5160
1141.514269 0.5240 0.5270 0.5270 0.5230 0.5130
1148.564000 0.5020 0.4850 0.4620 0.4240 0.4040
1155.620269 0.3980 0.3970 0.3980 0.4120 0.4480
1162.670000 0.4700 0.5100 0.5310 0.5410 0.5460
1169.726269 0.5460 0.5400 0.5300 0.5100 0.4960
1176.776000 0.4600 0.4420 0.4420 0.4720 0.5020
1183.832269 0.5290 0.5560 0.5840 0.6110 0.6580
1190.882000 0.6650 0.6660 0.6660 0.6600 0.6560
1197.938269 0.6520 0.6450 0.6390 0.6280 0.6180
1204.987000 0.6070 0.6010 0.5980 0.5850 0.5740
1212.043269 0.5650 0.5560 0.5470 0.5390 0.5270
1219.093000 0.5160 0.5000 0.4590 0.4410 0.4180
1226.149269 0.3950 0.3730 0.3480 0.3460 0.3480
1233.199000 0.3900 0.4360 0.4850 0.5160 0.5460
1240.255269 0.5670 0.5730 0.5730 0.5700 0.5580
1247.305000 0.5290 0.4970 0.4850 0.4800 0.4530
1254.361269 0.4150 0.4000 0.3910 0.3880 0.3910
1261.411000 0.4050 0.4260 0.4550 0.4920 0.5130
1268.467269 0.5570 0.5910 0.6180 0.6380 0.6530
1275.516000 0.6630 0.6700 0.6730 0.6780 0.6820
1282.572269 0.6830 0.6800 0.6750 0.6700 0.6650
1289.622000 0.6590 0.6530 0.6510 0.6420 0.6390
1296.678269 0.6380 0.6380 0.6380 0.6380 0.6360
1303.728000 0.6360 0.6350 0.6320 0.6280 0.6210
1310.784269 0.6120 0.6010 0.5880 0.5710 0.5540
1317.834000 0.5330 0.5100 0.4850 0.4550 0.4260
1324.890269 0.3980 0.3750 0.3570 0.3540 0.3570
1331.940000 0.3680 0.3850 0.4000 0.4150 0.4310
1338.996269 0.4480 0.4530 0.4600 0.4660 0.4730
1346.045000 0.4760 0.4820 0.4870 0.4920 0.4960
1353.101269 0.4990 0.4990 0.4950 0.4890 0.4860
1360.151000 0.4820 0.4750 0.4700 0.4630 0.4530
1367.207269 0.4390 0.4180 0.4020 0.4010 0.4020
1374.257000 0.4170 0.4320 0.4460 0.4580 0.4780
1381.313269 0.4820 0.4830 0.4800 0.4690 0.4560
1388.363000 0.4420 0.4140 0.3950 0.3920 0.3950
1395.419269 0.4150 0.4360 0.4530 0.4800 0.5190
1402.469000 0.5570 0.5650 0.5670 0.5650 0.5600
1409.525269 0.5530 0.5470 0.5360 0.5210 0.5130
1416.574000 0.5030 0.4920 0.4850 0.4820 0.4800
1423.630269 0.3510 0.3340 0.3160 0.2990 0.2760
1430.680000 0.2510 0.2090 0.1980 0.1910 0.1850
1437.736269 0.1780 0.1650 0.1630 0.1630 0.1670
1444.786000 0.1680 0.1730 0.1740 0.1740 0.1750
1451.842269 0.1750 0.1770 0.1770 0.1770 0.1780
1458.892000 0.1800 0.1880 0.2010 0.2040 0.2150
1465.948269 0.2280 0.2510 0.2530 0.2550 0.2550
1472.997000 0.2550 0.2530 0.2520 0.2420 0.2340
1480.053269 0.2310 0.2290 0.2290 0.2310 0.2350
1487.103000 0.2360 0.2510 0.2520 0.2690 0.2970
1494.159269 0.3240 0.3500 0.3650 0.3840 0.4140
1501.209000 0.4430 0.4850 0.5340 0.5750 0.5840
1508.265269 0.5870 0.5970 0.6050 0.6190 0.6290
1515.315000 0.6360 0.6430 0.6430 0.6490 0.6510
1522.371269 0.6510 0.6520 0.6520 0.6520 0.6490
1529.421000 0.6450 0.6410 0.6380 0.6360 0.6320
1536.477269 0.6220 0.6190 0.6180 0.6180 0.6190
1543.526000 0.6190 0.6180 0.6110 0.5980 0.5900
1550.582269 0.5740 0.5530 0.5260 0.5190 0.5030
1557.632000 0.4920 0.4900 0.4900 0.4870 0.4700
1564.688269 0.4560 0.4290 0.4180 0.3980 0.3880
1571.738000 0.3670 0.3330 0.3240 0.3040 0.2970
1578.794269 0.2760 0.2550 0.2310 0.2220 0.2000
1585.844000 0.1810 0.1700 0.1610 0.1510 0.1290
1592.900269 0.1130 0.0990 0.0930 0.0900 0.0800
1599.950000 0.0780 0.0750 0.0750 0.0730 0.0730
1607.006269 0.0750 0.0760 0.0790 0.0820 0.1070
1614.055000 0.1160 0.1290 0.1510 0.1610 0.1950
1621.111269 0.2240 0.2660 0.2790 0.2900 0.3130
1628.161000 0.3370 0.3530 0.3670 0.4050 0.4360
1635.217269 0.4550 0.4600 0.4650 0.4730 0.4870
1642.267000 0.4930 0.5000 0.5020 0.5020 0.5000
1649.323269 0.4970 0.4950 0.4900 0.4870 0.4860
1656.373000 0.4820 0.4690 0.4530 0.4360 0.4180
1663.429269 0.4110 0.4070 0.3650 0.3240 0.3090
1670.479000 0.3020 0.2760 0.2600 0.2310 0.2220
1677.535269 0.2090 0.1600 0.1130 0.0990 0.0790
1684.584000 0.0760 0.0750 0.0720 0.0700 0.0690
1691.640269 0.0680 0.0680 0.0680 0.0690 0.0700
1698.690000 0.0720 0.0760 0.0790 0.0800 0.0900
1705.746269 0.0990 0.1070 0.1160 0.1230 0.1500
1712.796000 0.1840 0.2070 0.2080 0.2310 0.2320
1719.852269 0.2430 0.2860 0.2870 0.2990 0.3200
1726.902000 0.3210 0.3670 0.3940 0.4070 0.4220
1733.958269 0.4250 0.4310 0.4410 0.4520 0.4630
1741.008000 0.4650 0.4830 0.4850 0.4990 0.5260
1748.064269 0.5290 0.5400 0.5510 0.5630 0.5740
1755.113000 0.5850 0.5970 0.6170 0.6320 0.6600
1762.169269 0.6620 0.6680 0.6690 0.6860 0.7000
1769.219000 0.7210 0.7300 0.7400 0.7430 0.7460
1776.275269 0.7500 0.7530 0.7570 0.7640 0.7670
1783.325000 0.7700 0.7710 0.7780 0.7810 0.7810
1790.381269 0.7820 0.7940 0.8000 0.8010 0.8020
1797.431000 0.8040 0.8050 0.8110 0.8150 0.8170
1804.487269 0.8190 0.8210 0.8210 0.8220 0.8240
1811.536000 0.8260 0.8290 0.8310 0.8340 0.8350
1818.592269 0.8350 0.8360 0.8380 0.8390 0.8390
1825.642000 0.8410 0.8410 0.8410 0.8410 0.8420
1832.698269 0.8420 0.8430 0.8450 0.8510 0.8510
1839.748000 0.8520 0.8520 0.8550 0.8560 0.8590
1846.804269 0.8600 0.8630 0.8650 0.8660 0.8660
1853.854000 0.8680 0.8690 0.8700 0.8700 0.8700
1860.910269 0.8700 0.8700 0.8700 0.8720 0.8720
1867.960000 0.8720 0.8720 0.8720 0.8730 0.8730
1875.016269 0.8730 0.8730 0.8750 0.8750 0.8750
1882.065000 0.8750 0.8750 0.8760 0.8760 0.8760
1889.121269 0.8760 0.8780 0.8780 0.8780 0.8780
1896.171000 0.8780 0.8780 0.8780 0.8790 0.8790
1903.227269 0.8790 0.8790 0.8790 0.8790 0.8800
1910.277000 0.8820 0.8820 0.8820 0.8830 0.8850
1917.333269 0.8860 0.8860 0.8860 0.8870 0.8890
1924.383000 0.8890 0.8900 0.8900 0.8920 0.8920
1931.439269 0.8930 0.8950 0.8950 0.8960 0.8960
1938.489000 0.8970 0.8970 0.8990 0.8990 0.8990
1945.545269 0.9000 0.9000 0.9000 0.9020 0.9020
1952.594000 0.9020 0.9020 0.9030 0.9030 0.9030
1959.650269 0.9030 0.9030 0.9030 0.9030 0.9030
1966.700000 0.9030 0.9030 0.9030 0.9030 0.9020
1973.756269 0.9020 0.9020 0.9000 0.9000 0.8990
1980.806000 0.8990 0.8970 0.8960 0.8960 0.8950
1987.862269 0.8950 0.8950 0.8950 0.8950 0.8960
1994.912000 0.8960 0.8970 0.8970 0.8970 0.8990
2001.968269 0.8990 0.8990 0.9000 0.9000 0.9000
2009.018000 0.9020 0.9020 0.9020 0.9020 0.9020
2016.074269 0.9030 0.9030 0.9030 0.9030 0.9030
2023.123000 0.9030 0.9030 0.9030 0.9030 0.9030
2030.179269 0.9020 0.9020 0.9000 0.9000 0.8990
2037.229000 0.8990 0.8970 0.8970 0.8970 0.8970
2044.285269 0.8960 0.8960 0.8950 0.8950 0.8930
2051.335000 0.8930 0.8920 0.8900 0.8900 0.8890
2058.391269 0.8890 0.8870 0.8870 0.8860 0.8860
2065.441000 0.8860 0.8860 0.8850 0.8830 0.8830
2072.497269 0.8830 0.8820 0.8820 0.8820 0.8800
2079.547000 0.8790 0.8790 0.8790 0.8790 0.8790
2086.603269 0.8790 0.8780 0.8780 0.8780 0.8780
2093.652000 0.8780 0.8790 0.8790 0.8790 0.8790
2100.708269 0.8800 0.8820 0.8820 0.8820 0.8820
2107.758000 0.8820 0.8800 0.8790 0.8790 0.8790
2114.814269 0.8790 0.8780 0.8780 0.8780 0.8780
2121.864000 0.8780 0.8780 0.8780 0.8780 0.8760
2128.920269 0.8750 0.8750 0.8750 0.8730 0.8730
2135.970000 0.8720 0.8700 0.8680 0.8650 0.8630
2143.026269 0.8630 0.8630 0.8630 0.8620 0.8620
2150.075000 0.8620 0.8600 0.8590 0.8590 0.8580
2157.131269 0.8580 0.8580 0.8560 0.8560 0.8550
2164.181000 0.8530 0.8530 0.8520 0.8520 0.8520
2171.237269 0.8510 0.8510 0.8510 0.8510 0.8510
2178.287000 0.8520 0.8520 0.8520 0.8520 0.8530
2185.343269 0.8550 0.8550 0.8550 0.8550 0.8550
2192.393000 0.8550 0.8550 0.8550 0.8530 0.8520
2199.449269 0.8520 0.8510 0.8510 0.8510 0.8510
2206.499000 0.8490 0.8490 0.8490 0.8480 0.8480
2213.555269 0.8460 0.8460 0.8450 0.8450 0.8430
2220.604000 0.8420 0.8420 0.8420 0.8420 0.8410
2227.660269 0.8410 0.8410 0.8410 0.8390 0.8390
2234.710000 0.8390 0.8380 0.8360 0.8340 0.8320
2241.766269 0.8310 0.8260 0.8250 0.8250 0.8240
2248.816000 0.8240 0.8220 0.8220 0.8210 0.8210
2255.872269 0.8210 0.8210 0.8190 0.8190 0.8190
2262.922000 0.8190 0.8190 0.8180 0.8180 0.8180
2269.978269 0.8180 0.8180 0.8180 0.8180 0.8180
2277.028000 0.8180 0.8180 0.8180 0.8170 0.8170
2284.084269 0.8150 0.8150 0.8140 0.8140 0.8120
2291.134000 0.8120 0.8120 0.8110 0.8110 0.8110
2298.190269 0.8110 0.8110 0.8110 0.8090 0.8090
2305.239000 0.8090 0.8090 0.8080 0.8080 0.8070
2312.295269 0.8070 0.8050 0.8040 0.8020 0.8020
2319.345000 0.8010 0.8000 0.7920 0.7900 0.7870
2326.401269 0.7850 0.7820 0.7820 0.7810 0.7810
2333.451000 0.7800 0.7800 0.7800 0.7800 0.7800
2340.507269 0.7800 0.7800 0.7800 0.7800 0.7780
2347.557000 0.7780 0.7780 0.7780 0.7770 0.7770
2354.613269 0.7750 0.7750 0.7750 0.7740 0.7740
2361.662000 0.7740 0.7740 0.7740 0.7740 0.7750
2368.718269 0.7750 0.7750 0.7740 0.7740 0.7730
2375.768000 0.7730 0.7710 0.7700 0.7700 0.7680
2382.824269 0.7670 0.7650 0.7640 0.7640 0.7630
2389.874000 0.7610 0.7600 0.7580 0.7570 0.7560
2396.930269 0.7540 0.7530 0.7510 0.7500 0.7480
2403.980000 0.7470 0.7470 0.7460 0.7440 0.7430
2411.036269 0.7410 0.7400 0.7390 0.7370 0.7360
2418.086000 0.7340 0.7330 0.7310 0.7300 0.7290
2425.142269 0.7270 0.7260 0.7240 0.7230 0.7210
2432.191000 0.7200 0.7190 0.7170 0.7160 0.7140
2439.247269 0.7130 0.7120 0.7100 0.7090 0.7070
2446.297000 0.7040 0.7030 0.7020 0.7000 0.6990
2453.353269 0.6970 0.6960 0.6950 0.6930 0.6900
2460.403000 0.6870 0.6860 0.6850 0.6830 0.6820
2467.459269 0.6800 0.6780 0.6750 0.6730 0.6720
2474.509000 0.6690 0.6680 0.6660 0.6650 0.6630
2481.565269 0.6600 0.6560 0.6530 0.6510 0.6480
2488.615000 0.6450 0.6420 0.6410 0.6390 0.6380
2495.671269 0.6360 0.6350 0.6340 0.6320 0.6320
2502.720000 0.6310 0.6290 0.6280 0.6260 0.6250
2509.776269 0.6250 0.6240 0.6220 0.6220 0.6210
2516.826000 0.6190 0.6180 0.6140 0.6110 0.6090
2523.882269 0.6090 0.6080 0.6070 0.6020 0.6010
2530.932000 0.6000 0.5980 0.5920 0.5910 0.5880
2537.988269 0.5870 0.5870 0.5810 0.5780 0.5770
2545.038000 0.5700 0.5680 0.5670 0.5630 0.5540
2552.094269 0.5500 0.5470 0.5410 0.5400 0.5370
2559.144000 0.5360 0.5340 0.5340 0.5360 0.5360
2566.200269 0.5370 0.5390 0.5400 0.5400 0.5400
2573.249000 0.5410 0.5410 0.5410 0.5390 0.5360
2580.305269 0.5340 0.5310 0.5300 0.5270 0.5270
2587.355000 0.5260 0.5240 0.5240 0.5260 0.5260
2594.411269 0.5260 0.5270 0.5270 0.5270 0.5270
2601.461000 0.5260 0.5260 0.5240 0.5240 0.5210
2608.517269 0.5200 0.5200 0.5200 0.5190 0.5190
2615.567000 0.5170 0.5160 0.5140 0.5140 0.5130
2622.623269 0.5130 0.5120 0.5120 0.5120 0.5090
2629.673000 0.5090 0.5060 0.5030 0.5020 0.4930
2636.729269 0.4900 0.4870 0.4860 0.4850 0.4760
2643.778000 0.4750 0.4720 0.4660 0.4650 0.4620
2650.834269 0.4590 0.4580 0.4560 0.4580 0.4600
2657.884000 0.4620 0.4680 0.4700 0.4790 0.4820
2664.940269 0.4830 0.4920 0.4990 0.5000 0.5030
2671.990000 0.5060 0.5100 0.5100 0.5120 0.5120
2679.046269 0.5130 0.5130 0.5120 0.5120 0.5120
2686.096000 0.5130 0.5130 0.5130 0.5130 0.5130
2693.152269 0.5130 0.5140 0.5160 0.5160 0.5170
2700.201000 0.5170 0.5170 0.5160 0.5140 0.5140
2707.257269 0.5130 0.5120 0.5070 0.5060 0.5030
2714.307000 0.5020 0.5020 0.5000 0.4990 0.4970
2721.363269 0.4960 0.4950 0.4950 0.4930 0.4920
2728.413000 0.4900 0.4860 0.4850 0.4830 0.4820
2735.469269 0.4820 0.4800 0.4800 0.4790 0.4730
2742.519000 0.4690 0.4680 0.4660 0.4650 0.4630
2749.575269 0.4620 0.4590 0.4580 0.4560 0.4560
2756.625000 0.4560 0.4580 0.4600 0.4630 0.4650
2763.681269 0.4660 0.4690 0.4720 0.4730 0.4780
2770.730000 0.4820 0.4830 0.4850 0.4850 0.4830
2777.786269 0.4820 0.4800 0.4790 0.4780 0.4760
2784.836000 0.4750 0.4720 0.4690 0.4690 0.4680
2791.892269 0.4630 0.4590 0.4560 0.4530 0.4510
2798.942000 0.4430 0.4390 0.4340 0.4260 0.4220
2805.998269 0.4190 0.4170 0.4090 0.4040 0.4000
2813.048000 0.3950 0.3910 0.3870 0.3810 0.3740
2820.104269 0.3610 0.3500 0.3360 0.3200 0.3120
2827.154000 0.3030 0.2900 0.2700 0.2480 0.2210
2834.210269 0.2020 0.1820 0.1570 0.1240 0.1000
2841.260000 0.0860 0.0700 0.0600 0.0490 0.0390
2848.316269 0.0340 0.0290 0.0260 0.0250 0.0250
2855.365000 0.0250 0.0260 0.0280 0.0290 0.0310
2862.421269 0.0340 0.0360 0.0380 0.0430 0.0460
2869.471000 0.0480 0.0520 0.0530 0.0550 0.0560
2876.527269 0.0580 0.0590 0.0590 0.0560 0.0550
2883.577000 0.0520 0.0490 0.0450 0.0390 0.0380
2890.633269 0.0340 0.0310 0.0260 0.0250 0.0240
2897.683000 0.0210 0.0180 0.0170 0.0150 0.0120
2904.739269 0.0110 0.0110 0.0090 0.0080 0.0080
2911.788000 0.0080 0.0070 0.0070 0.0070 0.0050
2918.844269 0.0050 0.0050 0.0050 0.0050 0.0070
2925.894000 0.0070 0.0070 0.0080 0.0090 0.0110
2932.950269 0.0110 0.0120 0.0140 0.0140 0.0150
2940.000000 0.0150 0.0170 0.0170 0.0170 0.0170
2947.056269 0.0170 0.0170 0.0170 0.0170 0.0170
2954.106000 0.0180 0.0180 0.0180 0.0190 0.0220
2961.162269 0.0250 0.0310 0.0410 0.0490 0.0530
2968.212000 0.0600 0.0700 0.0790 0.0990 0.1120
2975.268269 0.1190 0.1270 0.1390 0.1530 0.1670
2982.317000 0.1770 0.1880 0.1980 0.2010 0.2120
2989.373269 0.2220 0.2250 0.2260 0.2280 0.2320
2996.423000 0.2380 0.2450 0.2510 0.2550 0.2590
3003.479269 0.2630 0.2660 0.2690 0.2700 0.2720
3010.529000 0.2720 0.2730 0.2730 0.2750 0.2750
3017.585269 0.2750 0.2750 0.2730 0.2730 0.2720
3024.635000 0.2700 0.2700 0.2690 0.2680 0.2660
3031.691269 0.2660 0.2650 0.2630 0.2620 0.2600
3038.740000 0.2580 0.2550 0.2510 0.2480 0.2460
3045.796269 0.2450 0.2450 0.2460 0.2480 0.2510
3052.846000 0.2530 0.2550 0.2580 0.2600 0.2650
3059.902269 0.2690 0.2730 0.2830 0.2900 0.2970
3066.952000 0.3000 0.3020 0.3090 0.3140 0.3170
3074.008269 0.3190 0.3230 0.3240 0.3290 0.3330
3081.058000 0.3340 0.3360 0.3360 0.3370 0.3370
3088.114269 0.3370 0.3360 0.3360 0.3340 0.3340
3095.164000 0.3340 0.3340 0.3330 0.3330 0.3310
3102.220269 0.3300 0.3300 0.3290 0.3290 0.3260
3109.270000 0.3260 0.3240 0.3240 0.3230 0.3210
3116.326269 0.3200 0.3200 0.3190 0.3170 0.3170
3123.375000 0.3160 0.3140 0.3130 0.3090 0.3040
3130.431269 0.3030 0.3000 0.2990 0.2960 0.2930
3137.481000 0.2870 0.2870 0.2820 0.2750 0.2700
3144.537269 0.2680 0.2650 0.2650 0.2590 0.2550
3151.587000 0.2520 0.2510 0.2480 0.2430 0.2360
3158.643269 0.2290 0.2190 0.2150 0.2110 0.2010
3165.693000 0.1980 0.1970 0.1900 0.1820 0.1750
3172.749269 0.1700 0.1650 0.1630 0.1600 0.1570
3179.798000 0.1560 0.1540 0.1530 0.1510 0.1510
3186.854269 0.1500 0.1500 0.1500 0.1500 0.1500
3193.904000 0.1500 0.1500 0.1510 0.1510 0.1530
3200.960269 0.1540 0.1560 0.1570 0.1600 0.1610
3208.010000 0.1630 0.1650 0.1670 0.1700 0.1740
3215.066269 0.1780 0.1820 0.1880 0.1970 0.2010
3222.116000 0.2050 0.2090 0.2180 0.2290 0.2420
3229.172269 0.2480 0.2510 0.2590 0.2650 0.2700
3236.222000 0.2790 0.2890 0.2970 0.3000 0.3100
3243.278269 0.3170 0.3270 0.3340 0.3460 0.3500
3250.327000 0.3580 0.3670 0.3740 0.3870 0.3880
3257.383269 0.3980 0.4020 0.4080 0.4120 0.4190
3264.433000 0.4280 0.4340 0.4420 0.4510 0.4560
3271.489269 0.4620 0.4690 0.4780 0.4870 0.4920
3278.539000 0.4990 0.5020 0.5040 0.5130 0.5140
3285.595269 0.5210 0.5240 0.5290 0.5330 0.5470
3292.645000 0.5510 0.5530 0.5540 0.5560 0.5610
3299.701269 0.5680 0.5740 0.5780 0.5820 0.5850
3306.750000 0.5870 0.5900 0.5940 0.6010 0.6020
3313.806269 0.6040 0.6120 0.6150 0.6170 0.6170
3320.856000 0.6190 0.6210 0.6220 0.6250 0.6280
3327.912269 0.6290 0.6320 0.6350 0.6380 0.6410
3334.962000 0.6450 0.6490 0.6510 0.6520 0.6580
3342.018269 0.6620 0.6650 0.6680 0.6680 0.6690
3349.068000 0.6700 0.6700 0.6720 0.6730 0.6730
3356.124269 0.6750 0.6750 0.6780 0.6790 0.6800
3363.174000 0.6830 0.6850 0.6860 0.6860 0.6850
3370.230269 0.6850 0.6850 0.6850 0.6850 0.6860
3377.280000 0.6860 0.6860 0.6860 0.6860 0.6860
3384.336269 0.6850 0.6850 0.6830 0.6820 0.6830
3391.385000 0.6860 0.6920 0.6970 0.7000 0.7030
3398.441269 0.7040 0.7070 0.7100 0.7130 0.7160
3405.491000 0.7190 0.7200 0.7200 0.7210 0.7210
3412.547269 0.7230 0.7230 0.7240 0.7260 0.7290
3419.597000 0.7310 0.7330 0.7340 0.7340 0.7360
3426.653269 0.7360 0.7370 0.7370 0.7370 0.7390
3433.703000 0.7390 0.7390 0.7390 0.7400 0.7400
3440.759269 0.7400 0.7400 0.7400 0.7400 0.7410
3447.809000 0.7410 0.7440 0.7470 0.7470 0.7480
3454.865269 0.7480 0.7500 0.7510 0.7530 0.7540
3461.914000 0.7560 0.7570 0.7580 0.7600 0.7600
3468.970269 0.7630 0.7630 0.7640 0.7640 0.7650
3476.020000 0.7650 0.7670 0.7670 0.7670 0.7670
3483.076269 0.7670 0.7670 0.7670 0.7670 0.7680
3490.126000 0.7680 0.7680 0.7700 0.7700 0.7700
3497.182269 0.7700 0.7700 0.7700 0.7700 0.7700
3504.232000 0.7710 0.7710 0.7710 0.7710 0.7710
3511.288269 0.7710 0.7710 0.7710 0.7710 0.7710
3518.337000 0.7710 0.7710 0.7710 0.7710 0.7730
3525.393269 0.7730 0.7730 0.7730 0.7730 0.7730
3532.443000 0.7730 0.7730 0.7730 0.7730 0.7730
3539.499269 0.7730 0.7730 0.7730 0.7730 0.7740
3546.549000 0.7740 0.7740 0.7750
##END=
