##TITLE=CIS-POLYBUTADIENE
$$ PHILLIPS PETROLEUM CO.
##JCAMP-DX=4.24
##DATA TYPE=INFRARED SPECTRUM
##CLASS=COBLENTZ
##ORIGIN=WYANDOTTE CHEMICALS CORP., WYANDOTTE, MICHIGAN, USA
##OWNER=COBLENTZ SOCIETY
Collection (C) 2018 copyright by the U.S. Secretary of Commerce
on behalf of the United States of America. All rights reserved.
##DATE=Not specified, most likely prior to 1970
##MOLFORM=C4 H6 X2
##SOURCE REFERENCE=COBLENTZ NO. 2924
##$NIST ID=B6002924
##$NIST SOURCE=COBLENTZ
##$NIST IMAGE=cob2924
##SPECTROMETER/DATA SYSTEM=Not specified, most likely a prism, grating, or hybrid spectrometer.
##STATE=SOLUTION (CS2)
$$ 90% PURE
##PATH LENGTH=SMEAR
##SAMPLING PROCEDURE=TRANSMISSION
##RESOLUTION=4
##DATA PROCESSING=DIGITIZED BY NIST FROM HARD COPY
##XUNITS=MICROMETERS
##YUNITS=TRANSMITTANCE
##XFACTOR=1.000000
##YFACTOR=1
##DELTAX=000.006645
##FIRSTX=2.04
##LASTX=15.9868
##FIRSTY=0.961
##MAXX=15.9868
##MINX=2.04
##MAXY=0.956
##MINY=0.087
##NPOINTS=2100
##XYDATA=(X++(Y..Y))
2.040000 0.9610 0.9600 0.9580 0.9560 0.9560
2.073238 0.9450 0.9430 0.9430 0.9430 0.9430
2.106000 0.9450 0.9450 0.9470 0.9470 0.9470
2.139238 0.9480 0.9480 0.9500 0.9500 0.9500
2.173000 0.9500 0.9480 0.9470 0.9420 0.9380
2.206238 0.9170 0.9020 0.8900 0.8770 0.8640
2.239000 0.8500 0.8490 0.8490 0.8500 0.8540
2.272238 0.8540 0.8500 0.8460 0.8440 0.8410
2.306000 0.8410 0.8420 0.8440 0.8470 0.8520
2.339238 0.8570 0.8620 0.8670 0.8720 0.8770
2.372000 0.8800 0.8820 0.8820 0.8840 0.8850
2.405238 0.8850 0.8870 0.8870 0.8870 0.8890
2.439000 0.8900 0.8920 0.8940 0.8940 0.8950
2.472238 0.8970 0.8990 0.8990 0.9000 0.9020
2.505000 0.9020 0.9030 0.9030 0.9050 0.9050
2.538238 0.9050 0.9070 0.9070 0.9080 0.9100
2.571000 0.9130 0.9200 0.9220 0.9230 0.9250
2.604238 0.9270 0.9270 0.9250 0.9250 0.9230
2.638000 0.9170 0.9150 0.9130 0.9150 0.9170
2.671238 0.9200 0.9200 0.9200 0.9200 0.9200
2.704000 0.9200 0.9180 0.9180 0.9170 0.9150
2.737238 0.9120 0.9120 0.9100 0.9080 0.9070
2.771000 0.9050 0.9020 0.9000 0.8990 0.8990
2.804238 0.8950 0.8940 0.8920 0.8900 0.8890
2.837000 0.8870 0.8820 0.8820 0.8800 0.8790
2.870238 0.8790 0.8790 0.8790 0.8770 0.8750
2.904000 0.8750 0.8720 0.8720 0.8700 0.8690
2.937238 0.8690 0.8690 0.8690 0.8690 0.8690
2.970000 0.8690 0.8690 0.8690 0.8670 0.8670
3.003238 0.8650 0.8640 0.8640 0.8640 0.8640
3.037000 0.8620 0.8620 0.8590 0.8520 0.8490
3.070238 0.8490 0.8490 0.8500 0.8540 0.8570
3.103000 0.8600 0.8620 0.8620 0.8640 0.8640
3.136238 0.8640 0.8640 0.8640 0.8640 0.8640
3.169000 0.8620 0.8600 0.8590 0.8570 0.8570
3.202238 0.8550 0.8540 0.8440 0.8440 0.8340
3.236000 0.8120 0.7840 0.7450 0.6980 0.6420
3.269238 0.6120 0.5990 0.5920 0.5740 0.4320
3.302000 0.2790 0.1900 0.1140 0.1070 0.1050
3.335238 0.1070 0.1250 0.1400 0.1420 0.1370
3.369000 0.1250 0.1050 0.1020 0.0960 0.0910
3.402238 0.0890 0.0870 0.0870 0.0870 0.0870
3.435000 0.0870 0.0870 0.0890 0.0940 0.0990
3.468238 0.1040 0.1100 0.1120 0.1120 0.1090
3.502000 0.1050 0.1040 0.1050 0.1140 0.1290
3.535238 0.1570 0.1980 0.2460 0.2840 0.3340
3.568000 0.4050 0.4730 0.5280 0.5790 0.6170
3.601238 0.6470 0.6730 0.6930 0.7100 0.7230
3.635000 0.7330 0.7430 0.7510 0.7590 0.7690
3.668238 0.7790 0.7930 0.7980 0.8060 0.8110
3.701000 0.8110 0.8120 0.8120 0.8160 0.8210
3.734238 0.8270 0.8320 0.8340 0.8360 0.8340
3.767000 0.8290 0.8260 0.8240 0.8240 0.8240
3.800238 0.8260 0.8260 0.8270 0.8270 0.8290
3.834000 0.8320 0.8370 0.8420 0.8490 0.8540
3.867238 0.8590 0.8640 0.8690 0.8720 0.8770
3.900000 0.8800 0.8840 0.8870 0.8890 0.8890
3.933238 0.8870 0.8850 0.8850 0.8840 0.8820
3.967000 0.8820 0.8820 0.8840 0.8840 0.8850
4.000238 0.8850 0.8840 0.8820 0.8800 0.8790
4.033000 0.8770 0.8770 0.8790 0.8800 0.8840
4.066238 0.8870 0.8900 0.8900 0.8890 0.8890
4.100000 0.8890 0.8900 0.8920 0.8920 0.8940
4.133238 0.8950 0.8970 0.8970 0.9000 0.9000
4.166000 0.9050 0.9080 0.9100 0.9130 0.9150
4.199238 0.9170 0.9170 0.9180 0.9180 0.9200
4.233000 0.9200 0.9180 0.9180 0.9170 0.9120
4.266238 0.9000 0.8920 0.8840 0.8800 0.8790
4.299000 0.8790 0.8790 0.8800 0.8850 0.8890
4.332238 0.8920 0.8990 0.8990 0.9020 0.9050
4.365000 0.9070 0.9100 0.9150 0.9230 0.9250
4.398238 0.9270 0.9330 0.9420 0.9430 0.9430
4.432000 0.9420 0.9370 0.9330 0.9300 0.9270
4.465238 0.9250 0.9220 0.9150 0.9130 0.9130
4.498000 0.9130 0.9130 0.9150 0.9150 0.9170
4.531238 0.9180 0.9200 0.9200 0.9200 0.9220
4.565000 0.9220 0.9220 0.9220 0.9220 0.9230
4.598238 0.9250 0.9270 0.9280 0.9280 0.9300
4.631000 0.9300 0.9320 0.9330 0.9330 0.9330
4.664238 0.9330 0.9350 0.9350 0.9350 0.9350
4.698000 0.9330 0.9330 0.9330 0.9320 0.9320
4.731238 0.9330 0.9330 0.9330 0.9330 0.9330
4.764000 0.9330 0.9350 0.9350 0.9370 0.9370
4.797238 0.9380 0.9380 0.9380 0.9380 0.9380
4.831000 0.9380 0.9380 0.9370 0.9350 0.9330
4.864238 0.9300 0.9270 0.9230 0.9200 0.9170
4.897000 0.9130 0.9120 0.9100 0.9100 0.9100
4.930238 0.9100 0.9100 0.9080 0.9080 0.9080
4.963000 0.9080 0.9100 0.9120 0.9130 0.9130
4.996238 0.9150 0.9180 0.9200 0.9220 0.9230
5.030000 0.9230 0.9220 0.9220 0.9200 0.9180
5.063238 0.9170 0.9120 0.9080 0.9030 0.9030
5.096000 0.9000 0.9000 0.9000 0.9020 0.9050
5.129238 0.9050 0.9030 0.9000 0.8950 0.8940
5.163000 0.8890 0.8890 0.8850 0.8840 0.8820
5.196238 0.8820 0.8820 0.8850 0.8870 0.8900
5.229000 0.8950 0.8970 0.8990 0.9000 0.9020
5.262238 0.9030 0.9070 0.9080 0.9120 0.9150
5.296000 0.9180 0.9200 0.9200 0.9220 0.9230
5.329238 0.9250 0.9250 0.9270 0.9280 0.9280
5.362000 0.9300 0.9300 0.9300 0.9280 0.9280
5.395238 0.9270 0.9270 0.9270 0.9280 0.9300
5.429000 0.9300 0.9280 0.9230 0.9200 0.9170
5.462238 0.9130 0.9100 0.9100 0.9080 0.9030
5.495000 0.9030 0.8950 0.8940 0.8870 0.8850
5.528238 0.8850 0.8850 0.8850 0.8850 0.8850
5.561000 0.8850 0.8870 0.8890 0.8890 0.8890
5.594238 0.8890 0.8870 0.8870 0.8850 0.8850
5.628000 0.8840 0.8840 0.8820 0.8800 0.8790
5.661238 0.8790 0.8770 0.8740 0.8700 0.8690
5.694000 0.8650 0.8620 0.8520 0.8420 0.8290
5.727238 0.8170 0.8060 0.7990 0.7890 0.7860
5.761000 0.7760 0.7740 0.7740 0.7740 0.7730
5.794238 0.7640 0.7590 0.7530 0.7380 0.7310
5.827000 0.7300 0.7260 0.7210 0.7130 0.7030
5.860238 0.6950 0.6930 0.6880 0.6870 0.6870
5.894000 0.6850 0.6820 0.6800 0.6770 0.6750
5.927238 0.6750 0.6770 0.6800 0.6830 0.6830
5.960000 0.6820 0.6780 0.6670 0.6520 0.5960
5.993238 0.5860 0.5710 0.5410 0.4830 0.3900
6.027000 0.3890 0.3890 0.3970 0.4400 0.4760
6.060238 0.5080 0.5330 0.5560 0.5760 0.5960
6.093000 0.6170 0.6440 0.6770 0.7150 0.7230
6.126238 0.7300 0.7380 0.7460 0.7540 0.7630
6.159000 0.7730 0.7810 0.7860 0.7810 0.7790
6.192238 0.7690 0.7510 0.7400 0.7350 0.7350
6.226000 0.7360 0.7510 0.7630 0.7710 0.7780
6.259238 0.7830 0.7840 0.7880 0.7930 0.7940
6.292000 0.7940 0.7960 0.7980 0.8040 0.8070
6.325238 0.8110 0.8120 0.8160 0.8170 0.8190
6.359000 0.8190 0.8190 0.8190 0.8220 0.8310
6.392238 0.8320 0.8370 0.8390 0.8490 0.8490
6.425000 0.8470 0.8390 0.8320 0.8270 0.8260
6.458238 0.8260 0.8270 0.8310 0.8310 0.8340
6.492000 0.8370 0.8370 0.8360 0.8320 0.8310
6.525238 0.8270 0.8270 0.8260 0.8260 0.8260
6.558000 0.8240 0.8240 0.8240 0.8220 0.8210
6.591238 0.8190 0.8170 0.8160 0.8120 0.8090
6.625000 0.8060 0.8010 0.7960 0.7880 0.7830
6.658238 0.7760 0.7740 0.7730 0.7710 0.7640
6.691000 0.7580 0.7530 0.7450 0.7330 0.7210
6.724238 0.7080 0.6950 0.6800 0.6630 0.6440
6.757000 0.6240 0.6020 0.5770 0.5490 0.5210
6.790238 0.4530 0.3690 0.2880 0.2330 0.2250
6.824000 0.2130 0.1900 0.1750 0.1600 0.1420
6.857238 0.1400 0.1400 0.1400 0.1450 0.1500
6.890000 0.1520 0.1530 0.1580 0.1600 0.1630
6.923238 0.1670 0.1680 0.1680 0.1680 0.1700
6.957000 0.1750 0.1920 0.2100 0.2310 0.2560
6.990238 0.2840 0.3160 0.3490 0.3850 0.4250
7.023000 0.4430 0.4560 0.4750 0.4900 0.4960
7.056238 0.4980 0.4980 0.4880 0.4510 0.3620
7.090000 0.3590 0.3520 0.3500 0.3500 0.3520
7.123238 0.3670 0.3840 0.4080 0.4400 0.4910
7.156000 0.5340 0.5690 0.5990 0.6250 0.6450
7.189238 0.6620 0.6750 0.6880 0.6980 0.7080
7.223000 0.7180 0.7230 0.7260 0.7280 0.7300
7.256238 0.7310 0.7360 0.7400 0.7450 0.7460
7.289000 0.7500 0.7500 0.7510 0.7510 0.7510
7.322238 0.7510 0.7500 0.7480 0.7480 0.7480
7.355000 0.7500 0.7500 0.7510 0.7510 0.7500
7.388238 0.7500 0.7480 0.7460 0.7450 0.7430
7.422000 0.7400 0.7360 0.7330 0.7280 0.7210
7.455238 0.7130 0.7030 0.6920 0.6800 0.6670
7.488000 0.6530 0.6390 0.6250 0.6100 0.5970
7.521238 0.5820 0.5690 0.5540 0.5390 0.5260
7.555000 0.5130 0.4980 0.4830 0.4580 0.4300
7.588238 0.4000 0.3740 0.3540 0.3420 0.3370
7.621000 0.3360 0.3340 0.3360 0.3370 0.3440
7.654238 0.3540 0.3670 0.3850 0.4150 0.4530
7.688000 0.4860 0.5180 0.5490 0.5790 0.6070
7.721238 0.6290 0.6450 0.6550 0.6630 0.6700
7.754000 0.6720 0.6730 0.6730 0.6720 0.6700
7.787238 0.6670 0.6630 0.6600 0.6570 0.6530
7.821000 0.6490 0.6420 0.6350 0.6290 0.6190
7.854238 0.6070 0.5940 0.5810 0.5710 0.5610
7.887000 0.5540 0.5480 0.5460 0.5440 0.5440
7.920238 0.5460 0.5480 0.5520 0.5560 0.5610
7.953000 0.5660 0.5710 0.5720 0.5760 0.5790
7.986238 0.5840 0.5860 0.5860 0.5820 0.5720
8.020000 0.5590 0.5440 0.5240 0.5000 0.4710
8.053238 0.4350 0.4150 0.4100 0.4150 0.4280
8.086000 0.4430 0.4650 0.4880 0.5110 0.5310
8.119238 0.5510 0.5660 0.5790 0.5840 0.5970
8.153000 0.6000 0.6000 0.6000 0.6000 0.5990
8.186238 0.5970 0.5940 0.5920 0.5920 0.5890
8.219000 0.5870 0.5860 0.5840 0.5820 0.5810
8.252238 0.5810 0.5810 0.5790 0.5790 0.5810
8.286000 0.5810 0.5820 0.5820 0.5840 0.5910
8.319238 0.6000 0.6020 0.6050 0.6090 0.6120
8.352000 0.6170 0.6220 0.6290 0.6320 0.6370
8.385238 0.6400 0.6400 0.6420 0.6470 0.6490
8.419000 0.6500 0.6520 0.6530 0.6550 0.6570
8.452238 0.6570 0.6570 0.6570 0.6570 0.6570
8.485000 0.6550 0.6550 0.6530 0.6520 0.6500
8.518238 0.6500 0.6470 0.6450 0.6450 0.6440
8.551000 0.6440 0.6450 0.6450 0.6470 0.6500
8.584238 0.6520 0.6550 0.6600 0.6650 0.6700
8.618000 0.6730 0.6730 0.6750 0.6770 0.6800
8.651238 0.6830 0.6870 0.6920 0.6970 0.7000
8.684000 0.7050 0.7100 0.7130 0.7160 0.7230
8.717238 0.7300 0.7350 0.7400 0.7460 0.7510
8.751000 0.7560 0.7590 0.7640 0.7690 0.7740
8.784238 0.7790 0.7810 0.7830 0.7860 0.7890
8.817000 0.7890 0.7910 0.7910 0.7930 0.7930
8.850238 0.7910 0.7890 0.7880 0.7880 0.7860
8.884000 0.7860 0.7860 0.7830 0.7810 0.7790
8.917238 0.7760 0.7730 0.7710 0.7680 0.7640
8.950000 0.7590 0.7560 0.7560 0.7530 0.7510
8.983238 0.7500 0.7480 0.7450 0.7430 0.7400
9.017000 0.7380 0.7350 0.7310 0.7310 0.7300
9.050238 0.7260 0.7230 0.7180 0.7150 0.7130
9.083000 0.7110 0.7100 0.7030 0.6980 0.6970
9.116238 0.6950 0.6920 0.6900 0.6900 0.6870
9.150000 0.6850 0.6800 0.6750 0.6650 0.6600
9.183238 0.6550 0.6520 0.6490 0.6470 0.6420
9.216000 0.6390 0.6340 0.6300 0.6290 0.6270
9.249238 0.6270 0.6250 0.6220 0.6200 0.6190
9.282000 0.6150 0.6120 0.6100 0.6090 0.6070
9.315238 0.6070 0.6050 0.6050 0.6050 0.6040
9.349000 0.6040 0.6020 0.6000 0.5990 0.5960
9.382238 0.5940 0.5920 0.5920 0.5910 0.5890
9.415000 0.5840 0.5820 0.5820 0.5770 0.5720
9.448238 0.5690 0.5620 0.5570 0.5560 0.5540
9.482000 0.5520 0.5510 0.5490 0.5480 0.5430
9.515238 0.5430 0.5410 0.5390 0.5380 0.5380
9.548000 0.5380 0.5380 0.5380 0.5360 0.5360
9.581238 0.5360 0.5340 0.5340 0.5290 0.5260
9.615000 0.5230 0.5190 0.5180 0.5160 0.5160
9.648238 0.5130 0.5110 0.5080 0.5060 0.5040
9.681000 0.5010 0.4980 0.4910 0.4850 0.4750
9.714238 0.4680 0.4630 0.4580 0.4530 0.4500
9.748000 0.4480 0.4470 0.4430 0.4400 0.4350
9.781238 0.4330 0.4300 0.4280 0.4270 0.4230
9.814000 0.4220 0.4200 0.4200 0.4180 0.4170
9.847238 0.4170 0.4170 0.4170 0.4180 0.4180
9.880000 0.4180 0.4200 0.4200 0.4220 0.4220
9.913238 0.4220 0.4220 0.4200 0.4130 0.4120
9.947000 0.4030 0.3920 0.3770 0.3640 0.3490
9.980238 0.3340 0.3210 0.3090 0.2980 0.2860
10.013000 0.2760 0.2680 0.2580 0.2480 0.2460
10.046238 0.2460 0.2460 0.2480 0.2510 0.2560
10.080000 0.2630 0.2660 0.2710 0.2780 0.2840
10.113238 0.2930 0.2990 0.3060 0.3110 0.3160
10.146000 0.3220 0.3270 0.3320 0.3360 0.3390
10.179238 0.3420 0.3460 0.3500 0.3540 0.3590
10.213000 0.3640 0.3690 0.3740 0.3790 0.3800
10.246238 0.3800 0.3800 0.3800 0.3800 0.3800
10.279000 0.3800 0.3790 0.3770 0.3750 0.3740
10.312238 0.3700 0.3690 0.3670 0.3650 0.3620
10.346000 0.3600 0.3600 0.3600 0.3620 0.3650
10.379238 0.3690 0.3720 0.3770 0.3840 0.3900
10.412000 0.3970 0.4030 0.4120 0.4200 0.4280
10.445238 0.4370 0.4430 0.4500 0.4560 0.4630
10.478000 0.4710 0.4780 0.4860 0.4930 0.5000
10.511238 0.5060 0.5080 0.5110 0.5140 0.5210
10.545000 0.5260 0.5330 0.5410 0.5480 0.5510
10.578238 0.5540 0.5590 0.5620 0.5670 0.5720
10.611000 0.5770 0.5820 0.5870 0.5920 0.5960
10.644238 0.5990 0.6020 0.6020 0.6090 0.6100
10.678000 0.6100 0.6150 0.6170 0.6200 0.6220
10.711238 0.6240 0.6250 0.6270 0.6270 0.6290
10.744000 0.6290 0.6300 0.6320 0.6350 0.6370
10.777238 0.6390 0.6390 0.6400 0.6440 0.6450
10.811000 0.6470 0.6470 0.6490 0.6500 0.6500
10.844238 0.6490 0.6450 0.6400 0.6340 0.6240
10.877000 0.6140 0.6040 0.5910 0.5770 0.5620
10.910238 0.5480 0.5290 0.5130 0.4950 0.4760
10.944000 0.4600 0.4430 0.4280 0.4130 0.3890
10.977238 0.3850 0.3850 0.3850 0.3870 0.3870
11.010000 0.3920 0.3990 0.4100 0.4230 0.4400
11.043238 0.4580 0.4760 0.4960 0.5140 0.5330
11.076000 0.5560 0.5760 0.5920 0.6090 0.6220
11.109238 0.6320 0.6420 0.6490 0.6530 0.6570
11.143000 0.6630 0.6700 0.6730 0.6780 0.6800
11.176238 0.6820 0.6850 0.6900 0.6930 0.6970
11.209000 0.6980 0.6980 0.6980 0.6980 0.6980
11.242238 0.6980 0.6980 0.6970 0.6970 0.6970
11.276000 0.6970 0.6950 0.6930 0.6930 0.6920
11.309238 0.6920 0.6920 0.6920 0.6920 0.6920
11.342000 0.6920 0.6900 0.6900 0.6880 0.6880
11.375238 0.6880 0.6870 0.6850 0.6850 0.6850
11.409000 0.6850 0.6830 0.6830 0.6830 0.6830
11.442238 0.6830 0.6830 0.6830 0.6820 0.6820
11.475000 0.6820 0.6820 0.6800 0.6800 0.6800
11.508238 0.6800 0.6800 0.6800 0.6800 0.6800
11.542000 0.6800 0.6800 0.6800 0.6800 0.6800
11.575238 0.6800 0.6800 0.6780 0.6780 0.6770
11.608000 0.6750 0.6730 0.6720 0.6700 0.6670
11.641238 0.6630 0.6630 0.6600 0.6580 0.6570
11.674000 0.6550 0.6530 0.6520 0.6500 0.6450
11.707238 0.6370 0.6350 0.6320 0.6300 0.6290
11.741000 0.6270 0.6240 0.6220 0.6190 0.6170
11.774238 0.6140 0.6100 0.6070 0.6050 0.6050
11.807000 0.6050 0.6050 0.6050 0.6070 0.6070
11.840238 0.6070 0.6090 0.6100 0.6120 0.6140
11.874000 0.6140 0.6140 0.6150 0.6150 0.6170
11.907238 0.6170 0.6170 0.6190 0.6200 0.6200
11.940000 0.6190 0.6170 0.6150 0.6140 0.6100
11.973238 0.6070 0.6020 0.6020 0.5990 0.5970
12.007000 0.5940 0.5940 0.5910 0.5910 0.5890
12.040238 0.5870 0.5870 0.5860 0.5860 0.5840
12.073000 0.5840 0.5840 0.5820 0.5820 0.5820
12.106238 0.5820 0.5820 0.5820 0.5820 0.5820
12.140000 0.5840 0.5860 0.5890 0.5910 0.5920
12.173238 0.5940 0.5940 0.5940 0.5920 0.5920
12.206000 0.5920 0.5910 0.5910 0.5890 0.5890
12.239238 0.5890 0.5890 0.5890 0.5910 0.5910
12.272000 0.5910 0.5910 0.5920 0.5920 0.5920
12.305238 0.5940 0.5940 0.5940 0.5960 0.5960
12.339000 0.5960 0.5970 0.5970 0.5970 0.5990
12.372238 0.5990 0.5990 0.5990 0.5990 0.6000
12.405000 0.6000 0.6000 0.6000 0.6000 0.6000
12.438238 0.6000 0.6000 0.6000 0.6000 0.6000
12.472000 0.6000 0.5990 0.5990 0.5970 0.5970
12.505238 0.5960 0.5940 0.5920 0.5910 0.5890
12.538000 0.5870 0.5840 0.5810 0.5760 0.5720
12.571238 0.5690 0.5670 0.5660 0.5620 0.5560
12.605000 0.5440 0.5410 0.5340 0.5290 0.5230
12.638238 0.5160 0.5090 0.5030 0.4950 0.4860
12.671000 0.4800 0.4710 0.4630 0.4550 0.4470
12.704238 0.4400 0.4320 0.4230 0.4170 0.4080
12.738000 0.4020 0.3940 0.3840 0.3750 0.3720
12.771238 0.3640 0.3590 0.3520 0.3490 0.3440
12.804000 0.3410 0.3340 0.3340 0.3320 0.3290
12.837238 0.3270 0.3260 0.3220 0.3210 0.3190
12.870000 0.3190 0.3170 0.3170 0.3170 0.3170
12.903238 0.3170 0.3190 0.3190 0.3190 0.3210
12.937000 0.3210 0.3220 0.3240 0.3240 0.3260
12.970238 0.3260 0.3270 0.3290 0.3310 0.3310
13.003000 0.3310 0.3310 0.3310 0.3310 0.3320
13.036238 0.3320 0.3320 0.3320 0.3310 0.3290
13.070000 0.3270 0.3240 0.3220 0.3190 0.3140
13.103238 0.3120 0.3090 0.3060 0.3020 0.2990
13.136000 0.2960 0.2910 0.2860 0.2810 0.2760
13.169238 0.2690 0.2630 0.2580 0.2510 0.2450
13.203000 0.2360 0.2300 0.2230 0.2160 0.2130
13.236238 0.2080 0.2030 0.1970 0.1880 0.1770
13.269000 0.1730 0.1680 0.1650 0.1620 0.1580
13.302238 0.1530 0.1520 0.1520 0.1500 0.1470
13.336000 0.1420 0.1370 0.1370 0.1350 0.1340
13.369238 0.1340 0.1320 0.1300 0.1300 0.1300
13.402000 0.1290 0.1270 0.1250 0.1250 0.1250
13.435238 0.1240 0.1240 0.1220 0.1220 0.1220
13.468000 0.1200 0.1200 0.1200 0.1190 0.1190
13.501238 0.1190 0.1190 0.1190 0.1190 0.1190
13.535000 0.1190 0.1190 0.1190 0.1190 0.1190
13.568238 0.1190 0.1190 0.1190 0.1190 0.1190
13.601000 0.1190 0.1190 0.1190 0.1190 0.1200
13.634238 0.1200 0.1220 0.1220 0.1220 0.1220
13.668000 0.1220 0.1220 0.1220 0.1220 0.1220
13.701238 0.1240 0.1240 0.1240 0.1240 0.1240
13.734000 0.1240 0.1250 0.1250 0.1270 0.1290
13.767238 0.1290 0.1300 0.1300 0.1300 0.1320
13.801000 0.1320 0.1320 0.1340 0.1340 0.1340
13.834238 0.1350 0.1350 0.1350 0.1370 0.1370
13.867000 0.1370 0.1390 0.1390 0.1390 0.1400
13.900238 0.1420 0.1420 0.1420 0.1440 0.1440
13.934000 0.1450 0.1470 0.1470 0.1490 0.1490
13.967238 0.1500 0.1500 0.1500 0.1520 0.1520
14.000000 0.1530 0.1530 0.1550 0.1550 0.1550
14.033238 0.1550 0.1570 0.1570 0.1580 0.1600
14.066000 0.1600 0.1630 0.1650 0.1650 0.1670
14.099238 0.1670 0.1670 0.1680 0.1680 0.1680
14.133000 0.1700 0.1700 0.1720 0.1720 0.1730
14.166238 0.1730 0.1750 0.1750 0.1750 0.1770
14.199000 0.1770 0.1800 0.1830 0.1830 0.1850
14.232238 0.1850 0.1870 0.1870 0.1870 0.1880
14.266000 0.1880 0.1880 0.1900 0.1920 0.1920
14.299238 0.1920 0.1920 0.1930 0.1950 0.1950
14.332000 0.1970 0.1970 0.1980 0.1980 0.2000
14.365238 0.2010 0.2050 0.2060 0.2080 0.2100
14.399000 0.2100 0.2130 0.2130 0.2130 0.2150
14.432238 0.2150 0.2150 0.2160 0.2180 0.2180
14.465000 0.2200 0.2200 0.2210 0.2210 0.2230
14.498238 0.2250 0.2280 0.2300 0.2330 0.2350
14.532000 0.2350 0.2360 0.2360 0.2380 0.2380
14.565238 0.2400 0.2400 0.2430 0.2430 0.2460
14.598000 0.2500 0.2500 0.2510 0.2530 0.2540
14.631238 0.2560 0.2590 0.2630 0.2640 0.2640
14.664000 0.2660 0.2660 0.2680 0.2680 0.2690
14.697238 0.2710 0.2730 0.2760 0.2810 0.2880
14.731000 0.2890 0.2910 0.2940 0.2980 0.2980
14.764238 0.3010 0.3010 0.3020 0.3040 0.3060
14.797000 0.3090 0.3140 0.3140 0.3160 0.3170
14.830238 0.3170 0.3220 0.3240 0.3260 0.3290
14.864000 0.3360 0.3370 0.3390 0.3390 0.3410
14.897238 0.3420 0.3460 0.3470 0.3490 0.3540
14.930000 0.3570 0.3600 0.3640 0.3650 0.3690
14.963238 0.3720 0.3740 0.3750 0.3770 0.3790
14.997000 0.3800 0.3850 0.3920 0.3990 0.4030
15.030238 0.4100 0.4150 0.4220 0.4250 0.4280
15.063000 0.4330 0.4380 0.4400 0.4470 0.4500
15.096238 0.4500 0.4510 0.4530 0.4530 0.4530
15.130000 0.4530 0.4550 0.4560 0.4560 0.4560
15.163238 0.4560 0.4580 0.4580 0.4580 0.4580
15.196000 0.4600 0.4610 0.4650 0.4700 0.4730
15.229238 0.4780 0.4800 0.4800 0.4830 0.4850
15.262000 0.4860 0.4880 0.4910 0.4950 0.5000
15.295238 0.5030 0.5060 0.5080 0.5110 0.5130
15.329000 0.5160 0.5210 0.5240 0.5280 0.5290
15.362238 0.5310 0.5330 0.5340 0.5340 0.5360
15.395000 0.5380 0.5410 0.5430 0.5440 0.5460
15.428238 0.5490 0.5520 0.5540 0.5570 0.5610
15.462000 0.5640 0.5660 0.5690 0.5720 0.5740
15.495238 0.5760 0.5760 0.5760 0.5790 0.5810
15.528000 0.5820 0.5840 0.5860 0.5860 0.5870
15.561238 0.5890 0.5910 0.5940 0.5970 0.5990
15.595000 0.6000 0.6000 0.6000 0.6000 0.6020
15.628238 0.6020 0.6040 0.6040 0.6070 0.6070
15.661000 0.6090 0.6090 0.6100 0.6100 0.6120
15.694238 0.6150 0.6150 0.6170 0.6190 0.6200
15.728000 0.6220 0.6240 0.6250 0.6250 0.6250
15.761238 0.6250 0.6250 0.6250 0.6250 0.6270
15.794000 0.6270 0.6300 0.6340 0.6340 0.6350
15.827238 0.6350 0.6370 0.6370 0.6390 0.6400
15.860000 0.6400 0.6420 0.6420 0.6450 0.6450
15.893238 0.6470 0.6470 0.6470 0.6470 0.6490
15.927000 0.6490 0.6490 0.6490 0.6500 0.6500
15.960238 0.6520 0.6530 0.6550 0.6570 0.6570
##END=
