##TITLE=Alpha,Alpha-DICHLOROPROPIONIC ACID, ISOPROPYL AMINE SALT
##JCAMP-DX=4.24
##DATA TYPE=INFRARED SPECTRUM
##CLASS=COBLENTZ
##ORIGIN=DOW CHEMICAL COMPANY
##OWNER=COBLENTZ SOCIETY
Collection (C) 2018 copyright by the U.S. Secretary of Commerce
on behalf of the United States of America. All rights reserved.
##DATE=Not specified, most likely prior to 1970
##NAMES=2,2-dichloropropanoic acid compound with 2-propanamine (1:1)
##MOLFORM=C6 H13 Cl2 N O2
##SOURCE REFERENCE=COBLENTZ NO. 1872
##$NIST ID=B6001872
##$NIST SOURCE=COBLENTZ
##$NIST IMAGE=cob1872
##SPECTROMETER/DATA SYSTEM=Not specified, most likely a prism, grating, or hybrid spectrometer.
##STATE=SOLID (MINERAL OIL MULL)
##SAMPLING PROCEDURE=TRANSMISSION
##RESOLUTION=4
##DATA PROCESSING=DIGITIZED BY NIST FROM HARD COPY
##XUNITS=MICROMETERS
##YUNITS=TRANSMITTANCE
##XFACTOR=1.000000
##YFACTOR=1
##DELTAX=000.006839
##FIRSTX=2.041
##LASTX=15.8834
##FIRSTY=0.8
##MAXX=15.8834
##MINX=2.041
##MAXY=0.958
##MINY=0.02
##NPOINTS=2025
##XYDATA=(X++(Y..Y))
2.041000 0.8000 0.8000 0.8000 0.8000 0.8000
2.075213 0.8000 0.8010 0.8010 0.8030 0.8030
2.109000 0.8030 0.8030 0.8050 0.8050 0.8060
2.143213 0.8060 0.8080 0.8100 0.8110 0.8110
2.178000 0.8110 0.8110 0.8100 0.8050 0.8030
2.212213 0.8000 0.7930 0.7890 0.7880 0.7820
2.246000 0.7810 0.7810 0.7810 0.7840 0.7880
2.280213 0.7890 0.7910 0.7930 0.7940 0.7940
2.315000 0.7980 0.7980 0.7980 0.8000 0.8000
2.349213 0.8000 0.8010 0.8030 0.8050 0.8060
2.383000 0.8060 0.8080 0.8100 0.8130 0.8150
2.417213 0.8180 0.8200 0.8220 0.8220 0.8230
2.451000 0.8270 0.8300 0.8320 0.8340 0.8350
2.485213 0.8370 0.8370 0.8390 0.8390 0.8410
2.520000 0.8410 0.8420 0.8420 0.8440 0.8440
2.554213 0.8460 0.8460 0.8470 0.8490 0.8510
2.588000 0.8520 0.8520 0.8520 0.8540 0.8540
2.622213 0.8560 0.8560 0.8560 0.8560 0.8560
2.657000 0.8560 0.8560 0.8560 0.8540 0.8520
2.691213 0.8510 0.8490 0.8470 0.8440 0.8390
2.725000 0.8320 0.8250 0.8220 0.8150 0.8110
2.759213 0.8100 0.8050 0.8030 0.8000 0.7940
2.793000 0.7930 0.7860 0.7770 0.7690 0.7600
2.827213 0.7550 0.7480 0.7450 0.7400 0.7380
2.862000 0.7350 0.7290 0.7260 0.7240 0.7210
2.896213 0.7190 0.7170 0.7140 0.7120 0.7110
2.930000 0.7110 0.7110 0.7110 0.7120 0.7140
2.964213 0.7160 0.7160 0.7170 0.7160 0.7140
2.999000 0.7050 0.6990 0.6920 0.6850 0.6780
3.033213 0.6710 0.6630 0.6540 0.6440 0.6340
3.067000 0.6220 0.6100 0.5960 0.5810 0.5640
3.101213 0.5450 0.5230 0.5040 0.4850 0.4640
3.135000 0.4440 0.4220 0.4000 0.3760 0.3530
3.169213 0.3310 0.3090 0.2870 0.2660 0.2460
3.204000 0.2270 0.2100 0.1940 0.1790 0.1670
3.238213 0.1550 0.1470 0.1360 0.1240 0.1140
3.272000 0.1050 0.0990 0.0920 0.0880 0.0880
3.306213 0.0870 0.0800 0.0760 0.0700 0.0610
3.340000 0.0560 0.0470 0.0420 0.0390 0.0370
3.374213 0.0340 0.0300 0.0270 0.0220 0.0200
3.409000 0.0200 0.0200 0.0200 0.0220 0.0300
3.443213 0.0370 0.0410 0.0440 0.0490 0.0510
3.477000 0.0520 0.0560 0.0700 0.0970 0.1230
3.511213 0.1470 0.1720 0.1940 0.2170 0.2390
3.546000 0.2580 0.2750 0.2850 0.2920 0.2950
3.580213 0.2940 0.2900 0.2850 0.2750 0.2560
3.614000 0.2460 0.2440 0.2470 0.2750 0.3110
3.648213 0.3410 0.3650 0.3810 0.3960 0.3980
3.682000 0.4050 0.4100 0.4130 0.4150 0.4150
3.716213 0.4170 0.4170 0.4200 0.4220 0.4230
3.751000 0.4290 0.4340 0.4420 0.4520 0.4630
3.785213 0.4760 0.4920 0.5070 0.5230 0.5330
3.819000 0.5400 0.5350 0.5210 0.5110 0.4920
3.853213 0.4660 0.4460 0.4150 0.4000 0.3980
3.888000 0.4000 0.4150 0.4610 0.5070 0.5450
3.922213 0.5770 0.6030 0.6230 0.6420 0.6560
3.956000 0.6680 0.6760 0.6800 0.6870 0.6950
3.990213 0.7070 0.7190 0.7280 0.7380 0.7480
4.024000 0.7530 0.7550 0.7640 0.7690 0.7740
4.058213 0.7790 0.7840 0.7880 0.7940 0.8000
4.093000 0.8050 0.8080 0.8130 0.8150 0.8170
4.127213 0.8180 0.8200 0.8220 0.8230 0.8250
4.161000 0.8270 0.8270 0.8300 0.8350 0.8370
4.195213 0.8390 0.8420 0.8460 0.8510 0.8540
4.230000 0.8560 0.8560 0.8590 0.8630 0.8640
4.264213 0.8680 0.8710 0.8730 0.8750 0.8760
4.298000 0.8760 0.8760 0.8750 0.8730 0.8700
4.332213 0.8660 0.8610 0.8580 0.8560 0.8540
4.366000 0.8520 0.8520 0.8540 0.8560 0.8580
4.400213 0.8590 0.8610 0.8610 0.8630 0.8660
4.435000 0.8660 0.8660 0.8660 0.8640 0.8610
4.469213 0.8610 0.8590 0.8580 0.8510 0.8470
4.503000 0.8460 0.8440 0.8390 0.8340 0.8300
4.537213 0.8270 0.8250 0.8200 0.8150 0.8130
4.572000 0.8130 0.8130 0.8130 0.8130 0.8060
4.606213 0.7980 0.7960 0.7940 0.7880 0.7860
4.640000 0.7860 0.7860 0.7880 0.7880 0.7880
4.674213 0.7890 0.7890 0.7890 0.7890 0.7890
4.708000 0.7890 0.7910 0.7910 0.7930 0.7940
4.742213 0.7940 0.7980 0.8000 0.8010 0.8030
4.777000 0.8060 0.8080 0.8080 0.8100 0.8100
4.811213 0.8110 0.8150 0.8180 0.8200 0.8230
4.845000 0.8270 0.8320 0.8390 0.8440 0.8510
4.879213 0.8580 0.8640 0.8700 0.8710 0.8780
4.914000 0.8780 0.8800 0.8800 0.8820 0.8870
4.948213 0.8920 0.8950 0.8990 0.9000 0.9040
4.982000 0.9070 0.9110 0.9110 0.9110 0.9110
5.016213 0.9120 0.9120 0.9120 0.9120 0.9140
5.050000 0.9160 0.9170 0.9190 0.9210 0.9230
5.084213 0.9260 0.9260 0.9280 0.9280 0.9290
5.119000 0.9290 0.9310 0.9350 0.9360 0.9380
5.153213 0.9400 0.9430 0.9450 0.9450 0.9470
5.187000 0.9470 0.9480 0.9480 0.9480 0.9470
5.221213 0.9450 0.9450 0.9430 0.9430 0.9410
5.255000 0.9410 0.9410 0.9430 0.9430 0.9450
5.289213 0.9450 0.9450 0.9470 0.9480 0.9480
5.324000 0.9470 0.9470 0.9470 0.9450 0.9430
5.358213 0.9430 0.9410 0.9410 0.9410 0.9410
5.392000 0.9410 0.9410 0.9410 0.9410 0.9410
5.426213 0.9410 0.9410 0.9400 0.9380 0.9350
5.461000 0.9330 0.9310 0.9280 0.9230 0.9210
5.495213 0.9190 0.9160 0.9160 0.9120 0.9110
5.529000 0.9110 0.9090 0.9040 0.9000 0.8990
5.563213 0.8970 0.8970 0.8940 0.8920 0.8900
5.597000 0.8880 0.8870 0.8800 0.8760 0.8710
5.631213 0.8680 0.8640 0.8630 0.8610 0.8590
5.666000 0.8580 0.8510 0.8460 0.8410 0.8350
5.700213 0.8320 0.8270 0.8230 0.8200 0.8170
5.734000 0.8110 0.8050 0.7980 0.7890 0.7770
5.768213 0.7720 0.7650 0.7580 0.7520 0.7430
5.803000 0.7360 0.7280 0.7170 0.7090 0.6990
5.837213 0.6870 0.6760 0.6630 0.6490 0.6350
5.871000 0.6200 0.6050 0.5860 0.5670 0.5450
5.905213 0.5240 0.5000 0.4780 0.4560 0.4290
5.939000 0.4010 0.3760 0.3520 0.3280 0.3040
5.973213 0.2800 0.2540 0.2250 0.2050 0.1980
6.008000 0.1740 0.1480 0.1360 0.1260 0.1210
6.042213 0.1140 0.1070 0.1000 0.0990 0.0750
6.076000 0.0660 0.0540 0.0460 0.0410 0.0410
6.110213 0.0410 0.0410 0.0420 0.0510 0.0590
6.145000 0.0660 0.0750 0.0870 0.0990 0.1110
6.179213 0.1190 0.1280 0.1280 0.1290 0.1290
6.213000 0.1280 0.1160 0.1140 0.1040 0.0990
6.247213 0.0970 0.0950 0.0920 0.0920 0.0900
6.281000 0.0900 0.0900 0.0900 0.0900 0.0950
6.315213 0.0990 0.1040 0.1110 0.1190 0.1280
6.350000 0.1360 0.1430 0.1500 0.1550 0.1600
6.384213 0.1650 0.1690 0.1720 0.1760 0.1770
6.418000 0.1790 0.1790 0.1810 0.1820 0.1840
6.452213 0.1880 0.1910 0.1960 0.2030 0.2100
6.487000 0.2250 0.2390 0.2590 0.2700 0.2830
6.521213 0.2950 0.3000 0.3090 0.3210 0.3330
6.555000 0.3500 0.3650 0.3820 0.4000 0.4170
6.589213 0.4320 0.4460 0.4560 0.4700 0.4820
6.623000 0.4950 0.5090 0.5230 0.5330 0.5430
6.657213 0.5500 0.5530 0.5570 0.5580 0.5600
6.692000 0.5600 0.5600 0.5580 0.5530 0.5450
6.726213 0.5330 0.5190 0.5040 0.4870 0.4660
6.760000 0.4440 0.4220 0.3960 0.3690 0.3380
6.794213 0.3190 0.3070 0.2970 0.2820 0.2800
6.829000 0.2780 0.2800 0.2850 0.2950 0.3050
6.863213 0.3090 0.3160 0.3170 0.3190 0.3190
6.897000 0.3190 0.3190 0.3240 0.3400 0.3700
6.931213 0.4250 0.4850 0.5290 0.5600 0.5840
6.965000 0.6010 0.6130 0.6220 0.6290 0.6300
6.999213 0.6300 0.6300 0.6290 0.6290 0.6200
7.034000 0.6170 0.6080 0.5980 0.5860 0.5700
7.068213 0.5550 0.5360 0.5160 0.4940 0.4700
7.102000 0.4460 0.4220 0.3960 0.3690 0.3410
7.136213 0.3210 0.3040 0.2990 0.2900 0.2880
7.170000 0.2880 0.2850 0.2800 0.2640 0.2420
7.204213 0.2050 0.1760 0.1530 0.1260 0.1110
7.239000 0.1090 0.1110 0.1430 0.1690 0.1930
7.273213 0.2300 0.2640 0.2780 0.2800 0.2730
7.307000 0.2640 0.2490 0.2290 0.1910 0.1700
7.341213 0.1500 0.1410 0.1400 0.1400 0.1810
7.376000 0.2000 0.2170 0.2290 0.2510 0.2560
7.410213 0.3280 0.4050 0.4610 0.4880 0.5160
7.444000 0.5450 0.5720 0.6000 0.6230 0.6460
7.478213 0.6590 0.6700 0.6800 0.6880 0.6970
7.512000 0.7040 0.7090 0.7160 0.7210 0.7260
7.546213 0.7330 0.7380 0.7430 0.7500 0.7550
7.581000 0.7620 0.7670 0.7720 0.7770 0.7840
7.615213 0.7880 0.7930 0.7980 0.8010 0.8060
7.649000 0.8100 0.8130 0.8150 0.8180 0.8200
7.683213 0.8220 0.8220 0.8230 0.8250 0.8270
7.718000 0.8290 0.8300 0.8320 0.8350 0.8370
7.752213 0.8370 0.8390 0.8390 0.8390 0.8390
7.786000 0.8410 0.8460 0.8460 0.8470 0.8470
7.820213 0.8460 0.8300 0.8290 0.8290 0.8320
7.854000 0.8460 0.8490 0.8520 0.8560 0.8560
7.888213 0.8540 0.8540 0.8520 0.8510 0.8470
7.923000 0.8460 0.8460 0.8440 0.8420 0.8390
7.957213 0.8370 0.8350 0.8340 0.8250 0.8180
7.991000 0.8110 0.8030 0.7890 0.7790 0.7650
8.025213 0.7520 0.7350 0.7170 0.6990 0.6780
8.060000 0.6540 0.6390 0.6230 0.6130 0.5980
8.094213 0.5960 0.5960 0.5960 0.5980 0.6100
8.128000 0.6340 0.6540 0.6750 0.6990 0.7190
8.162213 0.7380 0.7500 0.7620 0.7720 0.7820
8.196000 0.7890 0.7960 0.8010 0.8030 0.8060
8.230213 0.8100 0.8130 0.8170 0.8220 0.8230
8.265000 0.8250 0.8270 0.8290 0.8300 0.8320
8.299213 0.8340 0.8370 0.8410 0.8440 0.8460
8.333000 0.8460 0.8470 0.8470 0.8470 0.8460
8.367213 0.8460 0.8440 0.8420 0.8410 0.8320
8.402000 0.8250 0.8200 0.8130 0.8100 0.8050
8.436213 0.7980 0.7910 0.7840 0.7740 0.7600
8.470000 0.7450 0.7350 0.7210 0.7040 0.6880
8.504213 0.6730 0.6560 0.6420 0.6320 0.6220
8.538000 0.6130 0.6060 0.6050 0.6030 0.6050
8.572213 0.6060 0.6110 0.6220 0.6420 0.6730
8.607000 0.7000 0.7210 0.7380 0.7520 0.7640
8.641213 0.7770 0.7930 0.7960 0.8030 0.8130
8.675000 0.8180 0.8200 0.8220 0.8220 0.8220
8.709213 0.8220 0.8170 0.8110 0.8080 0.8050
8.744000 0.7980 0.7930 0.7820 0.7720 0.7580
8.778213 0.7500 0.7450 0.7380 0.7350 0.7290
8.812000 0.7280 0.7290 0.7310 0.7380 0.7530
8.846213 0.7740 0.7890 0.8030 0.8110 0.8180
8.880000 0.8230 0.8290 0.8300 0.8340 0.8350
8.914213 0.8350 0.8350 0.8350 0.8350 0.8350
8.949000 0.8350 0.8350 0.8350 0.8350 0.8340
8.983213 0.8320 0.8300 0.8300 0.8290 0.8270
9.017000 0.8220 0.8180 0.8180 0.8150 0.8130
9.051213 0.8100 0.8080 0.8050 0.8000 0.7980
9.085000 0.7930 0.7910 0.7880 0.7820 0.7770
9.119213 0.7650 0.7570 0.7520 0.7450 0.7350
9.154000 0.7240 0.7140 0.7000 0.6870 0.6710
9.188213 0.6520 0.6340 0.6130 0.5930 0.5690
9.222000 0.5430 0.5160 0.4870 0.4560 0.4250
9.256213 0.3890 0.3620 0.3360 0.3120 0.2880
9.291000 0.2700 0.2510 0.2370 0.2290 0.2220
9.325213 0.2200 0.2200 0.2200 0.2200 0.2200
9.359000 0.2220 0.2290 0.2350 0.2460 0.2560
9.393213 0.2900 0.3210 0.3280 0.3310 0.3980
9.427000 0.4510 0.4970 0.5360 0.5700 0.6010
9.461213 0.6250 0.6470 0.6660 0.6820 0.6950
9.496000 0.7090 0.7190 0.7290 0.7400 0.7480
9.530213 0.7520 0.7530 0.7570 0.7580 0.7580
9.564000 0.7600 0.7620 0.7620 0.7640 0.7640
9.598213 0.7640 0.7640 0.7620 0.7620 0.7600
9.633000 0.7600 0.7580 0.7570 0.7550 0.7530
9.667213 0.7520 0.7500 0.7500 0.7500 0.7520
9.701000 0.7520 0.7520 0.7550 0.7650 0.7720
9.735213 0.7760 0.7820 0.7840 0.7930 0.8010
9.769000 0.8060 0.8110 0.8170 0.8220 0.8270
9.803213 0.8320 0.8350 0.8410 0.8460 0.8510
9.838000 0.8560 0.8590 0.8640 0.8680 0.8710
9.872213 0.8760 0.8800 0.8820 0.8850 0.8870
9.906000 0.8880 0.8900 0.8920 0.8920 0.8940
9.940213 0.8950 0.8970 0.8990 0.8990 0.9000
9.975000 0.9000 0.9020 0.9020 0.9020 0.8990
10.009213 0.8990 0.8950 0.8880 0.8830 0.8830
10.043000 0.8780 0.8730 0.8710 0.8700 0.8680
10.077213 0.8660 0.8660 0.8660 0.8700 0.8700
10.111000 0.8730 0.8760 0.8780 0.8800 0.8820
10.145213 0.8830 0.8850 0.8870 0.8880 0.8920
10.180000 0.8940 0.8990 0.9020 0.9070 0.9090
10.214213 0.9110 0.9140 0.9140 0.9160 0.9190
10.248000 0.9210 0.9230 0.9230 0.9240 0.9240
10.282213 0.9240 0.9240 0.9240 0.9240 0.9240
10.317000 0.9230 0.9210 0.9210 0.9210 0.9210
10.351213 0.9210 0.9210 0.9210 0.9210 0.9210
10.385000 0.9210 0.9210 0.9210 0.9210 0.9210
10.419213 0.9210 0.9210 0.9230 0.9230 0.9240
10.453000 0.9240 0.9240 0.9240 0.9240 0.9260
10.487213 0.9280 0.9280 0.9280 0.9280 0.9280
10.522000 0.9280 0.9260 0.9240 0.9230 0.9190
10.556213 0.9140 0.9110 0.9050 0.8990 0.8940
10.590000 0.8880 0.8820 0.8750 0.8680 0.8610
10.624213 0.8580 0.8490 0.8410 0.8350 0.8320
10.659000 0.8320 0.8300 0.8320 0.8390 0.8470
10.693213 0.8560 0.8660 0.8760 0.8850 0.8950
10.727000 0.9050 0.9120 0.9190 0.9240 0.9280
10.761213 0.9310 0.9330 0.9360 0.9380 0.9410
10.795000 0.9430 0.9450 0.9450 0.9480 0.9480
10.829213 0.9500 0.9500 0.9530 0.9530 0.9550
10.864000 0.9550 0.9570 0.9570 0.9570 0.9570
10.898213 0.9570 0.9570 0.9570 0.9570 0.9570
10.932000 0.9570 0.9570 0.9570 0.9570 0.9570
10.966213 0.9570 0.9570 0.9570 0.9570 0.9570
11.000000 0.9580 0.9580 0.9580 0.9580 0.9580
11.034213 0.9580 0.9580 0.9580 0.9580 0.9580
11.069000 0.9570 0.9570 0.9570 0.9550 0.9550
11.103213 0.9550 0.9530 0.9520 0.9520 0.9500
11.137000 0.9500 0.9480 0.9450 0.9430 0.9430
11.171213 0.9410 0.9400 0.9380 0.9380 0.9330
11.206000 0.9290 0.9240 0.9190 0.9160 0.9090
11.240213 0.9040 0.8990 0.8920 0.8850 0.8780
11.274000 0.8700 0.8640 0.8540 0.8410 0.8290
11.308213 0.8200 0.8100 0.7980 0.7820 0.7600
11.342000 0.7500 0.7400 0.7280 0.7240 0.7160
11.376213 0.7110 0.7070 0.7070 0.7090 0.7140
11.411000 0.7210 0.7310 0.7400 0.7620 0.7810
11.445213 0.8000 0.8150 0.8270 0.8340 0.8440
11.479000 0.8520 0.8580 0.8680 0.8750 0.8830
11.513213 0.8900 0.8920 0.8950 0.8970 0.9040
11.548000 0.9110 0.9190 0.9210 0.9240 0.9280
11.582213 0.9280 0.9280 0.9310 0.9330 0.9330
11.616000 0.9350 0.9350 0.9360 0.9360 0.9400
11.650213 0.9410 0.9430 0.9470 0.9480 0.9480
11.684000 0.9500 0.9500 0.9500 0.9500 0.9500
11.718213 0.9480 0.9480 0.9470 0.9430 0.9430
11.753000 0.9410 0.9410 0.9410 0.9410 0.9400
11.787213 0.9360 0.9330 0.9280 0.9230 0.9210
11.821000 0.9170 0.9160 0.9160 0.9160 0.9140
11.855213 0.9140 0.9120 0.9120 0.9120 0.9140
11.890000 0.9140 0.9160 0.9160 0.9170 0.9190
11.924213 0.9210 0.9230 0.9240 0.9240 0.9260
11.958000 0.9260 0.9260 0.9260 0.9260 0.9260
11.992213 0.9260 0.9260 0.9240 0.9240 0.9230
12.026000 0.9230 0.9230 0.9210 0.9210 0.9210
12.060213 0.9210 0.9210 0.9210 0.9210 0.9210
12.095000 0.9210 0.9190 0.9170 0.9160 0.9140
12.129213 0.9120 0.9110 0.9090 0.9070 0.9020
12.163000 0.8990 0.8950 0.8850 0.8800 0.8750
12.197213 0.8700 0.8680 0.8580 0.8490 0.8340
12.232000 0.8250 0.8150 0.8060 0.7960 0.7860
12.266213 0.7760 0.7640 0.7530 0.7430 0.7350
12.300000 0.7290 0.7280 0.7210 0.7140 0.7090
12.334213 0.7050 0.7050 0.7040 0.7040 0.7040
12.368000 0.7050 0.7070 0.7110 0.7160 0.7230
12.402213 0.7310 0.7410 0.7470 0.7520 0.7580
12.437000 0.7640 0.7700 0.7770 0.7840 0.7890
12.471213 0.7960 0.8010 0.8050 0.8080 0.8100
12.505000 0.8110 0.8180 0.8230 0.8250 0.8270
12.539213 0.8290 0.8320 0.8390 0.8410 0.8440
12.574000 0.8460 0.8460 0.8490 0.8510 0.8510
12.608213 0.8520 0.8540 0.8580 0.8590 0.8610
12.642000 0.8630 0.8640 0.8660 0.8680 0.8680
12.676213 0.8680 0.8700 0.8700 0.8700 0.8700
12.710000 0.8710 0.8710 0.8710 0.8710 0.8710
12.744213 0.8710 0.8710 0.8710 0.8710 0.8710
12.779000 0.8700 0.8680 0.8680 0.8680 0.8660
12.813213 0.8660 0.8640 0.8640 0.8630 0.8630
12.847000 0.8610 0.8610 0.8590 0.8590 0.8580
12.881213 0.8580 0.8560 0.8560 0.8540 0.8540
12.915000 0.8520 0.8520 0.8510 0.8510 0.8510
12.949213 0.8510 0.8490 0.8490 0.8490 0.8490
12.984000 0.8490 0.8470 0.8470 0.8460 0.8460
13.018213 0.8440 0.8440 0.8440 0.8410 0.8410
13.052000 0.8390 0.8390 0.8390 0.8350 0.8350
13.086213 0.8320 0.8290 0.8290 0.8270 0.8250
13.121000 0.8230 0.8220 0.8170 0.8150 0.8110
13.155213 0.8110 0.8100 0.8080 0.8080 0.8060
13.189000 0.8030 0.8010 0.7980 0.7960 0.7960
13.223213 0.7940 0.7930 0.7910 0.7860 0.7840
13.257000 0.7820 0.7810 0.7790 0.7760 0.7740
13.291213 0.7700 0.7670 0.7640 0.7600 0.7600
13.326000 0.7580 0.7570 0.7550 0.7530 0.7500
13.360213 0.7480 0.7450 0.7450 0.7400 0.7380
13.394000 0.7350 0.7330 0.7290 0.7280 0.7230
13.428213 0.7170 0.7160 0.7140 0.7110 0.7070
13.463000 0.7020 0.7000 0.6990 0.6990 0.6920
13.497213 0.6900 0.6850 0.6820 0.6800 0.6750
13.531000 0.6710 0.6700 0.6660 0.6640 0.6590
13.565213 0.6560 0.6520 0.6490 0.6460 0.6440
13.599000 0.6410 0.6340 0.6300 0.6270 0.6230
13.633213 0.6200 0.6110 0.6080 0.6000 0.5980
13.668000 0.5910 0.5840 0.5760 0.5690 0.5600
13.702213 0.5550 0.5450 0.5360 0.5260 0.5170
13.736000 0.5070 0.4970 0.4870 0.4750 0.4610
13.770213 0.4470 0.4390 0.4270 0.4150 0.4010
13.805000 0.3860 0.3700 0.3530 0.3380 0.3230
13.839213 0.3070 0.2920 0.2780 0.2630 0.2490
13.873000 0.2350 0.2170 0.2060 0.1960 0.1820
13.907213 0.1770 0.1670 0.1570 0.1520 0.1430
13.941000 0.1400 0.1330 0.1290 0.1280 0.1280
13.975213 0.1280 0.1310 0.1350 0.1400 0.1580
14.010000 0.1810 0.1940 0.2100 0.2270 0.2440
14.044213 0.2610 0.2730 0.2820 0.2990 0.3210
14.078000 0.3430 0.3580 0.3790 0.3930 0.4050
14.112213 0.4150 0.4270 0.4390 0.4460 0.4540
14.147000 0.4640 0.4700 0.4750 0.4820 0.4870
14.181213 0.4970 0.4990 0.5020 0.5050 0.5090
14.215000 0.5110 0.5120 0.5170 0.5210 0.5230
14.249213 0.5240 0.5260 0.5260 0.5280 0.5290
14.283000 0.5310 0.5310 0.5330 0.5330 0.5350
14.317213 0.5350 0.5350 0.5350 0.5350 0.5350
14.352000 0.5330 0.5330 0.5310 0.5310 0.5290
14.386213 0.5280 0.5280 0.5240 0.5240 0.5230
14.420000 0.5210 0.5170 0.5170 0.5160 0.5140
14.454213 0.5120 0.5090 0.5090 0.5070 0.5020
14.489000 0.5000 0.4970 0.4920 0.4900 0.4880
14.523213 0.4870 0.4850 0.4830 0.4820 0.4780
14.557000 0.4760 0.4730 0.4710 0.4710 0.4660
14.591213 0.4630 0.4590 0.4560 0.4520 0.4510
14.625000 0.4490 0.4470 0.4460 0.4420 0.4390
14.659213 0.4350 0.4340 0.4300 0.4290 0.4250
14.694000 0.4220 0.4220 0.4200 0.4180 0.4130
14.728213 0.4110 0.4080 0.4050 0.4010 0.4000
14.762000 0.3960 0.3930 0.3910 0.3880 0.3860
14.796213 0.3840 0.3820 0.3790 0.3760 0.3700
14.830000 0.3690 0.3650 0.3640 0.3620 0.3600
14.864213 0.3550 0.3530 0.3480 0.3470 0.3430
14.899000 0.3430 0.3410 0.3410 0.3400 0.3400
14.933213 0.3380 0.3360 0.3330 0.3310 0.3290
14.967000 0.3290 0.3280 0.3280 0.3260 0.3240
15.001213 0.3210 0.3210 0.3190 0.3170 0.3160
15.036000 0.3140 0.3120 0.3120 0.3110 0.3090
15.070213 0.3090 0.3070 0.3050 0.3050 0.3040
15.104000 0.3040 0.3020 0.3020 0.3020 0.3020
15.138213 0.3020 0.3040 0.3040 0.3050 0.3050
15.172000 0.3070 0.3070 0.3090 0.3110 0.3120
15.206213 0.3120 0.3140 0.3160 0.3170 0.3190
15.241000 0.3210 0.3230 0.3240 0.3260 0.3280
15.275213 0.3280 0.3290 0.3310 0.3330 0.3350
15.309000 0.3380 0.3400 0.3410 0.3430 0.3450
15.343213 0.3470 0.3500 0.3520 0.3530 0.3550
15.378000 0.3570 0.3580 0.3620 0.3650 0.3670
15.412213 0.3700 0.3720 0.3740 0.3760 0.3770
15.446000 0.3790 0.3820 0.3840 0.3860 0.3880
15.480213 0.3890 0.3890 0.3910 0.3940 0.3960
15.514000 0.3980 0.4000 0.4010 0.4010 0.4030
15.548213 0.4050 0.4060 0.4060 0.4080 0.4110
15.583000 0.4110 0.4130 0.4150 0.4150 0.4170
15.617213 0.4170 0.4200 0.4200 0.4200 0.4200
15.651000 0.4220 0.4220 0.4220 0.4220 0.4220
15.685213 0.4220 0.4220 0.4220 0.4230 0.4230
15.720000 0.4230 0.4250 0.4270 0.4270 0.4290
15.754213 0.4290 0.4290 0.4300 0.4300 0.4300
15.788000 0.4320 0.4320 0.4320 0.4320 0.4320
15.822213 0.4320 0.4320 0.4320 0.4320 0.4320
15.856000 0.4320 0.4320 0.4320 0.4320 0.4320
##END=
