##TITLE=3-HYDROXY-16,17-SECOESTRA-1,3,5(10)-TRIENE=16,17-DIOIC ACID
##JCAMP-DX=4.24
##DATA TYPE=INFRARED SPECTRUM
##CLASS=COBLENTZ III
##ORIGIN=THE WORCESTER FOUNDATION FOR EXPERIMENTAL BIOLOGY, Neal L. McNiven
##OWNER=COBLENTZ SOCIETY
Collection (C) 2018 copyright by the U.S. Secretary of Commerce
on behalf of the United States of America. All rights reserved.
##DATE=1964/07/25
##NAMES=1-(carboxymethyl)-7-hydroxy-2-methyl-1,2,3,4,4a,9,10,10a-octahydro-2-phenanthrenecarboxylic acid
##MOLFORM=C18 H22 O5
##SOURCE REFERENCE=COBLENTZ NO. 5477
##$NIST ID=B6005477
##$NIST SOURCE=COBLENTZ
##$NIST IMAGE=cob5477
##SPECTROMETER/DATA SYSTEM=BECKMAN IR-7
##STATE=SOLID (KBr DISC)
##SAMPLING PROCEDURE=TRANSMISSION
##RESOLUTION=4
##DATA PROCESSING=DIGITIZED BY NIST FROM HARD COPY (FROM TWO SEGMENTS)
##XUNITS=1/CM
##YUNITS=TRANSMITTANCE
##XFACTOR=1.000000
##YFACTOR=1
##DELTAX=0.729547
##FIRSTX=605.836
##LASTX=4012.09
##FIRSTY=1.027
##MAXX=4012.09
##MINX=605.836
##MAXY=1.027
##MINY=0.085
##NPOINTS=4670
##XYDATA=(X++(Y..Y))
605.836000 1.0270 1.0270 1.0270 1.0270 1.0270
609.483737 1.0270 1.0270 1.0270 1.0270 1.0270
613.131473 1.0270 1.0270 1.0270 1.0270 1.0270
616.779210 1.0270 1.0270 1.0270 1.0270 1.0270
620.426946 1.0270 1.0270 1.0270 1.0270 1.0270
624.074683 1.0270 1.0270 1.0270 1.0270 1.0270
627.722420 1.0270 1.0270 1.0270 1.0270 1.0270
631.370156 1.0270 1.0270 1.0270 1.0270 1.0260
635.017893 1.0260 1.0230 1.0210 1.0160 1.0090
638.665629 1.0010 1.0000 0.9980 0.9930 0.9860
642.313366 0.9810 0.9710 0.9670 0.9620 0.9600
645.961103 0.9540 0.9530 0.9520 0.9520 0.9510
649.608839 0.9510 0.9520 0.9570 0.9610 0.9650
653.256576 0.9690 0.9760 0.9820 0.9860 1.0019
656.904312 1.0050 1.0070 1.0100 1.0100 1.0110
660.552049 1.0120 1.0140 1.0150 1.0160 1.0160
664.199786 1.0140 1.0080 1.0020 0.9970 0.9820
667.847522 0.9650 0.9491 0.9490 0.9490 0.9679
671.495259 0.9820 1.0040 1.0030 1.0010 0.9980
675.142995 0.9940 0.9900 0.9810 0.9760 0.9651
678.790732 0.9470 0.9350 0.9250 0.9200 0.9050
682.438469 0.9020 0.8930 0.8820 0.8720 0.8621
686.086205 0.8600 0.8520 0.8450 0.8380 0.8370
689.733942 0.8370 0.8540 0.8689 0.8730 0.9009
693.381678 0.9120 0.9320 0.9400 0.9500 0.9610
697.029415 0.9680 0.9800 0.9860 0.9870 0.9920
700.677152 0.9920 0.9920 0.9920 0.9920 0.9920
704.324888 0.9920 0.9920 0.9920 0.9910 0.9890
707.972625 0.9880 0.9870 0.9860 0.9860 0.9850
711.620361 0.9750 0.9660 0.9570 0.9421 0.9281
715.268098 0.9140 0.9010 0.9010 0.9220 0.9390
718.915835 0.9420 0.9520 0.9520 0.9530 0.9530
722.563571 0.9540 0.9540 0.9540 0.9540 0.9520
726.211308 0.9510 0.9490 0.9420 0.9380 0.9330
729.859044 0.9290 0.9240 0.9180 0.9080 0.9040
733.506781 0.8950 0.8850 0.8720 0.8581 0.8560
737.154518 0.8510 0.8510 0.8560 0.8720 0.8750
740.802254 0.8820 0.8850 0.8880 0.8900 0.8930
744.449991 0.8950 0.9010 0.9010 0.9020 0.9040
748.097727 0.9050 0.9060 0.9060 0.9040 0.9010
751.745464 0.9000 0.8970 0.8950 0.8930 0.8930
755.393201 0.8920 0.8910 0.8910 0.8930 0.8930
759.040937 0.8930 0.8930 0.8930 0.8930 0.8920
762.688674 0.8920 0.8910 0.8900 0.8900 0.8860
766.336410 0.8840 0.8820 0.8800 0.8740 0.8640
769.984147 0.8600 0.8530 0.8510 0.8341 0.8241
773.631884 0.8220 0.8210 0.8180 0.8150 0.8150
777.279620 0.8140 0.8130 0.8130 0.8130 0.8130
780.927357 0.8130 0.8130 0.8130 0.8130 0.8110
784.575093 0.8030 0.8000 0.7970 0.7821 0.7701
788.222830 0.7550 0.7370 0.7280 0.7210 0.7050
791.870567 0.6910 0.6691 0.6610 0.6540 0.6321
795.518303 0.5700 0.5700 0.6210 0.6320 0.6859
799.166040 0.7089 0.7329 0.7629 0.7809 0.7989
802.813776 0.8010 0.8020 0.8030 0.8050 0.8060
806.461513 0.8070 0.8080 0.8070 0.8060 0.8050
810.109250 0.8020 0.8000 0.7940 0.7920 0.7870
813.756986 0.7810 0.7790 0.7730 0.7680 0.7640
817.404723 0.7520 0.7420 0.7360 0.7160 0.7100
821.052459 0.7030 0.6900 0.6701 0.6660 0.6620
824.700196 0.6530 0.6430 0.6340 0.6240 0.6150
828.347933 0.6050 0.5970 0.5970 0.6080 0.6180
831.995669 0.6290 0.6800 0.6970 0.7130 0.7220
835.643406 0.7300 0.7320 0.7330 0.7340 0.7340
839.291142 0.7320 0.7310 0.7300 0.7240 0.7220
842.938879 0.7190 0.7110 0.7040 0.6970 0.6880
846.586616 0.6690 0.6600 0.6500 0.6320 0.6150
850.234352 0.6140 0.6150 0.6260 0.6290 0.6449
853.882089 0.6690 0.6760 0.6800 0.6800 0.6770
857.529825 0.6740 0.6680 0.6610 0.6540 0.6391
861.177562 0.5920 0.5650 0.5440 0.5201 0.4971
864.825299 0.4751 0.4750 0.4899 0.5029 0.5169
868.473035 0.5280 0.5380 0.5670 0.5790 0.5870
872.120772 0.5880 0.5860 0.5860 0.5860 0.5800
875.768508 0.5800 0.5810 0.5870 0.5960 0.6149
879.416245 0.6230 0.6509 0.6570 0.6610 0.6610
883.063982 0.6620 0.6620 0.6620 0.6620 0.6610
886.711718 0.6600 0.6550 0.6500 0.6440 0.6340
890.359455 0.6210 0.6120 0.5970 0.5960 0.5960
894.007191 0.5970 0.5980 0.6060 0.6080 0.6170
897.654928 0.6260 0.6360 0.6460 0.6530 0.6570
901.302665 0.6610 0.6610 0.6610 0.6600 0.6580
904.950401 0.6580 0.6580 0.6560 0.6530 0.6510
908.598138 0.6490 0.6480 0.6470 0.6460 0.6460
912.245874 0.6460 0.6470 0.6480 0.6480 0.6490
915.893611 0.6480 0.6470 0.6341 0.6221 0.6061
919.541348 0.6040 0.6030 0.6040 0.6090 0.6100
923.189084 0.6160 0.6190 0.6210 0.6210 0.6021
926.836821 0.5890 0.5780 0.5680 0.5530 0.5360
930.484557 0.5210 0.5140 0.4821 0.4820 0.4850
934.132294 0.5140 0.5200 0.5500 0.5710 0.5920
937.780031 0.6159 0.6718 0.6810 0.6830 0.6840
941.427767 0.6850 0.6850 0.6850 0.6900 0.7010
945.075504 0.7060 0.7070 0.7170 0.7280 0.7399
948.723240 0.7470 0.7520 0.7540 0.7570 0.7600
952.370977 0.7620 0.7620 0.7650 0.7660 0.7680
956.018714 0.7700 0.7700 0.7710 0.7710 0.7700
959.666450 0.7650 0.7640 0.7630 0.7620 0.7491
963.314187 0.7400 0.7300 0.7290 0.7200 0.7100
966.961923 0.7010 0.6910 0.6900 0.6910 0.7069
970.609660 0.7150 0.7210 0.7290 0.7370 0.7450
974.257397 0.7520 0.7699 0.7760 0.7840 0.7890
977.905133 0.7930 0.7970 0.8000 0.8020 0.8030
981.552870 0.8040 0.8070 0.8080 0.8100 0.8100
985.200606 0.8100 0.8110 0.8110 0.8120 0.8110
988.848343 0.8110 0.8100 0.8100 0.8100 0.8090
992.496080 0.8080 0.8080 0.8070 0.8060 0.8050
996.143816 0.8030 0.8010 0.7970 0.7940 0.7920
999.791553 0.7900 0.7890 0.7890 0.7890 0.7890
1003.439289 0.7890 0.7890 0.7900 0.7900 0.7910
1007.087026 0.7910 0.7910 0.7910 0.7910 0.7910
1010.734763 0.7900 0.7900 0.7860 0.7830 0.7810
1014.382499 0.7790 0.7770 0.7730 0.7680 0.7590
1018.030236 0.7490 0.7470 0.7460 0.7470 0.7480
1021.677972 0.7520 0.7570 0.7620 0.7660 0.7720
1025.325709 0.7730 0.7740 0.7750 0.7740 0.7700
1028.973446 0.7680 0.7680 0.7620 0.7610 0.7610
1032.621182 0.7620 0.7670 0.7700 0.7730 0.7770
1036.268919 0.7780 0.7790 0.7800 0.7810 0.7810
1039.916655 0.7800 0.7790 0.7780 0.7790 0.7800
1043.564392 0.7820 0.7860 0.7910 0.7920 0.7950
1047.212129 0.7980 0.7980 0.8000 0.8000 0.8000
1050.859865 0.8010 0.8020 0.8020 0.8020 0.8020
1054.507602 0.8020 0.8010 0.8000 0.8000 0.8000
1058.155338 0.8000 0.7990 0.7970 0.7960 0.7940
1061.803075 0.7930 0.7910 0.7890 0.7880 0.7870
1065.450812 0.7860 0.7860 0.7860 0.7870 0.7870
1069.098548 0.7880 0.7880 0.7890 0.7890 0.7890
1072.746285 0.7890 0.7890 0.7890 0.7890 0.7890
1076.394021 0.7890 0.7890 0.7890 0.7890 0.7880
1080.041758 0.7880 0.7880 0.7880 0.7880 0.7880
1083.689495 0.7870 0.7870 0.7860 0.7840 0.7840
1087.337231 0.7810 0.7810 0.7770 0.7730 0.7700
1090.984968 0.7660 0.7620 0.7590 0.7530 0.7500
1094.632704 0.7480 0.7440 0.7390 0.7330 0.7250
1098.280441 0.7170 0.7090 0.7010 0.6930 0.6870
1101.928178 0.6810 0.6720 0.6610 0.6450 0.6260
1105.575914 0.6190 0.6011 0.6010 0.6189 0.6190
1109.223651 0.6190 0.6180 0.6170 0.6140 0.6110
1112.871387 0.6050 0.6020 0.6020 0.6020 0.6020
1116.519124 0.6000 0.5920 0.5830 0.5700 0.5580
1120.166861 0.5470 0.5380 0.5320 0.5300 0.5290
1123.814597 0.5290 0.5300 0.5300 0.5300 0.5340
1127.462334 0.5370 0.5390 0.5410 0.5460 0.5470
1131.110070 0.5490 0.5490 0.5510 0.5510 0.5500
1134.757807 0.5500 0.5440 0.5440 0.5530 0.5570
1138.405544 0.5620 0.5670 0.5710 0.5760 0.5860
1142.053280 0.5870 0.5870 0.5870 0.5860 0.5850
1145.701017 0.5840 0.5820 0.5810 0.5780 0.5770
1149.348753 0.5760 0.5740 0.5720 0.5700 0.5690
1152.996490 0.5680 0.5650 0.5610 0.5570 0.5530
1156.644227 0.5440 0.5410 0.5310 0.5230 0.5170
1160.291963 0.4750 0.4620 0.4420 0.4310 0.4260
1163.939700 0.4220 0.4120 0.4000 0.3990 0.3990
1167.587436 0.3990 0.4000 0.4070 0.4160 0.4200
1171.235173 0.4210 0.4469 0.4719 0.4969 0.5139
1174.882910 0.5360 0.5460 0.5540 0.5620 0.5700
1178.530646 0.5700 0.5710 0.5720 0.5720 0.5650
1182.178383 0.5490 0.5410 0.5310 0.5160 0.5040
1185.826119 0.4910 0.4721 0.4610 0.4451 0.4321
1189.473856 0.4160 0.4000 0.4000 0.3990 0.4000
1193.121593 0.4010 0.4060 0.4100 0.4170 0.4170
1196.769329 0.4160 0.4160 0.4010 0.3860 0.3700
1200.417066 0.3480 0.3380 0.3290 0.3141 0.2981
1204.064802 0.2820 0.2750 0.2700 0.2570 0.2510
1207.712539 0.2500 0.2500 0.2500 0.2510 0.2560
1211.360276 0.2660 0.2800 0.2960 0.3100 0.3200
1215.008012 0.3410 0.3460 0.3560 0.3610 0.3670
1218.655749 0.3700 0.3710 0.3720 0.3730 0.3710
1222.303485 0.3451 0.3360 0.3280 0.3210 0.3041
1225.951222 0.2810 0.2610 0.2430 0.2350 0.2280
1229.598959 0.2120 0.2110 0.2110 0.2130 0.2180
1233.246695 0.2290 0.2320 0.2340 0.2390 0.2400
1236.894432 0.2400 0.2400 0.2420 0.2420 0.2450
1240.542168 0.2490 0.2560 0.2660 0.2770 0.2950
1244.189905 0.2970 0.3020 0.3120 0.3220 0.3519
1247.837642 0.3610 0.3700 0.3770 0.3890 0.4020
1251.485378 0.4130 0.4250 0.4340 0.4400 0.4420
1255.133115 0.4500 0.4520 0.4550 0.4570 0.4610
1258.780851 0.4660 0.4730 0.4820 0.4930 0.5069
1262.428588 0.5090 0.5200 0.5200 0.5210 0.5200
1266.076325 0.5200 0.5130 0.5080 0.5050 0.5010
1269.724061 0.4870 0.4800 0.4800 0.4760 0.4750
1273.371798 0.4740 0.4740 0.4720 0.4640 0.4600
1277.019534 0.4500 0.4340 0.4240 0.4050 0.3980
1280.667271 0.3960 0.3950 0.3960 0.3970 0.4000
1284.315008 0.4060 0.4100 0.4130 0.4140 0.4150
1287.962744 0.4130 0.4080 0.4000 0.3950 0.3880
1291.610481 0.3860 0.3830 0.3820 0.3830 0.3840
1295.258217 0.3880 0.3930 0.3990 0.4040 0.4090
1298.905954 0.4150 0.4200 0.4250 0.4310 0.4360
1302.553691 0.4400 0.4649 0.4720 0.4740 0.4969
1306.201427 0.5100 0.5180 0.5290 0.5450 0.5819
1309.849164 0.5920 0.6110 0.6160 0.6170 0.6170
1313.496900 0.6170 0.6170 0.6170 0.6170 0.6170
1317.144637 0.6180 0.6180 0.6210 0.6220 0.6349
1320.792374 0.6420 0.6460 0.6480 0.6530 0.6530
1324.440110 0.6520 0.6510 0.6450 0.6400 0.6350
1328.087847 0.6300 0.6290 0.6270 0.6270 0.6290
1331.735583 0.6509 0.6570 0.6580 0.6719 0.6810
1335.383320 0.6880 0.6940 0.6960 0.6960 0.6970
1339.031057 0.6960 0.6820 0.6690 0.6640 0.6580
1342.678793 0.6480 0.6400 0.6350 0.6340 0.6340
1346.326530 0.6330 0.6340 0.6380 0.6410 0.6450
1349.974266 0.6470 0.6470 0.6480 0.6490 0.6500
1353.622003 0.6500 0.6500 0.6500 0.6500 0.6500
1357.269740 0.6490 0.6480 0.6480 0.6460 0.6430
1360.917476 0.6410 0.6330 0.6320 0.6320 0.6320
1364.565213 0.6310 0.6310 0.6310 0.6310 0.6300
1368.212949 0.6290 0.6220 0.6170 0.6140 0.6100
1371.860686 0.6100 0.6080 0.6060 0.5900 0.5840
1375.508423 0.5830 0.5810 0.5750 0.5670 0.5560
1379.156159 0.5450 0.5320 0.5200 0.5070 0.4960
1382.803896 0.4910 0.4900 0.4860 0.4850 0.4800
1386.451632 0.4720 0.4630 0.4530 0.4450 0.4450
1390.099369 0.4670 0.4790 0.4800 0.4800 0.4780
1393.747106 0.4710 0.4680 0.4660 0.4650 0.4670
1397.394842 0.4690 0.4710 0.4740 0.4760 0.4770
1401.042579 0.4800 0.4840 0.4880 0.4920 0.4940
1404.690315 0.4960 0.4990 0.5000 0.5000 0.5000
1408.338052 0.5010 0.5020 0.5030 0.5030 0.5030
1411.985789 0.5030 0.5010 0.4930 0.4910 0.4900
1415.633525 0.4820 0.4790 0.4720 0.4680 0.4580
1419.281262 0.4570 0.4560 0.4570 0.4650 0.4730
1422.928998 0.4810 0.4860 0.4880 0.4980 0.5090
1426.576735 0.5210 0.5270 0.5290 0.5330 0.5370
1430.224472 0.5380 0.5410 0.5490 0.5520 0.5520
1433.872208 0.5520 0.5540 0.5540 0.5530 0.5221
1437.519945 0.5070 0.4900 0.4680 0.4430 0.4220
1441.167681 0.4210 0.4369 0.4370 0.4380 0.4370
1444.815418 0.4200 0.4100 0.3860 0.3760 0.3710
1448.463155 0.3570 0.3550 0.3570 0.3710 0.3949
1452.110891 0.4130 0.4240 0.4260 0.4310 0.4400
1455.758628 0.4450 0.4540 0.4600 0.4690 0.4820
1459.406364 0.5030 0.5170 0.5290 0.5370 0.5380
1463.054101 0.5380 0.5380 0.5360 0.5360 0.5380
1466.701838 0.5400 0.5480 0.5610 0.5810 0.5970
1470.349574 0.6180 0.6370 0.6530 0.6630 0.6829
1473.997311 0.6930 0.7020 0.7110 0.7180 0.7240
1477.645047 0.7290 0.7330 0.7360 0.7380 0.7400
1481.292784 0.7410 0.7420 0.7430 0.7440 0.7440
1484.940521 0.7440 0.7420 0.7410 0.7310 0.7220
1488.588257 0.7170 0.7060 0.6930 0.6850 0.6740
1492.235994 0.6640 0.6610 0.6610 0.6560 0.6421
1495.883730 0.6350 0.6260 0.6130 0.5990 0.5830
1499.531467 0.5670 0.5490 0.5380 0.5260 0.5220
1503.179204 0.5210 0.5180 0.5180 0.5160 0.5120
1506.826940 0.5110 0.5120 0.5200 0.5310 0.5539
1510.474677 0.5670 0.5780 0.6010 0.6310 0.6730
1514.122413 0.6810 0.7000 0.7110 0.7269 0.7439
1517.770150 0.7490 0.7510 0.7520 0.7560 0.7600
1521.417887 0.7640 0.7680 0.7710 0.7740 0.7810
1525.065623 0.7880 0.7910 0.7920 0.7960 0.7970
1528.713360 0.7980 0.7990 0.7990 0.8000 0.8000
1532.361096 0.8000 0.8000 0.8000 0.7990 0.7990
1536.008833 0.7990 0.7990 0.7980 0.7970 0.7970
1539.656570 0.7970 0.7970 0.7960 0.7960 0.7950
1543.304306 0.7950 0.7940 0.7940 0.7940 0.7940
1546.952043 0.7940 0.7940 0.7940 0.7940 0.7920
1550.599779 0.7920 0.7920 0.7920 0.7920 0.7920
1554.247516 0.7910 0.7900 0.7900 0.7870 0.7840
1557.895253 0.7790 0.7730 0.7690 0.7650 0.7650
1561.542989 0.7640 0.7630 0.7620 0.7610 0.7600
1565.190726 0.7580 0.7560 0.7530 0.7490 0.7430
1568.838462 0.7400 0.7390 0.7380 0.7380 0.7360
1572.486199 0.7360 0.7330 0.7260 0.7200 0.7130
1576.133936 0.7070 0.7020 0.6970 0.6910 0.6860
1579.781672 0.6820 0.6770 0.6720 0.6690 0.6660
1583.429409 0.6600 0.6530 0.6490 0.6420 0.6350
1587.077145 0.6340 0.6240 0.6130 0.6020 0.5910
1590.724882 0.5810 0.5730 0.5660 0.5600 0.5440
1594.372619 0.5410 0.5360 0.5300 0.5240 0.5250
1598.020355 0.5180 0.5050 0.4870 0.4660 0.4430
1601.668092 0.4210 0.3991 0.3811 0.3671 0.3580
1605.315828 0.3570 0.3500 0.3490 0.3480 0.3490
1608.963565 0.3520 0.3680 0.3919 0.4080 0.4180
1612.611302 0.4230 0.4280 0.4330 0.4460 0.4500
1616.259038 0.4610 0.4720 0.4800 0.4820 0.4870
1619.906775 0.4920 0.4940 0.4990 0.5010 0.5100
1623.554511 0.5160 0.5230 0.5300 0.5330 0.5380
1627.202248 0.5440 0.5470 0.5500 0.5520 0.5540
1630.849985 0.5570 0.5580 0.5600 0.5600 0.5610
1634.497721 0.5600 0.5600 0.5600 0.5590 0.5590
1638.145458 0.5570 0.5550 0.5520 0.5490 0.5490
1641.793194 0.5480 0.5470 0.5460 0.5460 0.5440
1645.440931 0.5440 0.5410 0.5390 0.5370 0.5360
1649.088668 0.5330 0.5330 0.5330 0.5310 0.5300
1652.736404 0.5250 0.5220 0.5180 0.5110 0.5040
1656.384141 0.5010 0.4980 0.4960 0.4940 0.4930
1660.031877 0.4880 0.4780 0.4740 0.4680 0.4620
1663.679614 0.4610 0.4610 0.4590 0.4540 0.4510
1667.327351 0.4460 0.4410 0.4380 0.4330 0.4240
1670.975087 0.4150 0.4100 0.4050 0.4050 0.3960
1674.622824 0.3810 0.3690 0.3560 0.3530 0.3470
1678.270560 0.3390 0.3360 0.3310 0.3220 0.3160
1681.918297 0.3120 0.3110 0.3060 0.2721 0.2501
1685.566034 0.2360 0.2210 0.2050 0.1890 0.1720
1689.213770 0.1460 0.1270 0.1200 0.1200 0.1200
1692.861507 0.1190 0.1190 0.1190 0.1180 0.1180
1696.509243 0.1170 0.1170 0.1100 0.1060 0.1020
1700.156980 0.1010 0.0980 0.0960 0.0920 0.0880
1703.804717 0.0870 0.0860 0.0850 0.0850 0.0850
1707.452453 0.0850 0.0850 0.0860 0.0860 0.0870
1711.100190 0.0880 0.0880 0.0910 0.0940 0.0970
1714.747926 0.1000 0.1030 0.1100 0.1170 0.1180
1718.395663 0.1280 0.1470 0.1729 0.1989 0.2189
1722.043400 0.2350 0.2470 0.2560 0.2620 0.2750
1725.691136 0.2880 0.2980 0.3050 0.3160 0.3439
1729.338873 0.3550 0.3630 0.3700 0.3780 0.3860
1732.986609 0.3980 0.4160 0.4389 0.4510 0.4610
1736.634346 0.4700 0.4740 0.4870 0.5020 0.5120
1740.282083 0.5290 0.5380 0.5470 0.5550 0.5610
1743.929819 0.5700 0.5730 0.5790 0.5890 0.5890
1747.577556 0.5980 0.6040 0.6170 0.6300 0.6420
1751.225292 0.6510 0.6580 0.6700 0.6730 0.6740
1754.873029 0.6810 0.6860 0.6900 0.6920 0.6950
1758.520766 0.7000 0.7050 0.7090 0.7120 0.7130
1762.168502 0.7140 0.7140 0.7180 0.7210 0.7230
1765.816239 0.7250 0.7260 0.7280 0.7300 0.7320
1769.463975 0.7350 0.7360 0.7370 0.7380 0.7400
1773.111712 0.7420 0.7440 0.7470 0.7490 0.7510
1776.759449 0.7530 0.7540 0.7540 0.7580 0.7600
1780.407185 0.7620 0.7620 0.7630 0.7650 0.7660
1784.054922 0.7680 0.7710 0.7730 0.7750 0.7760
1787.702658 0.7770 0.7790 0.7790 0.7800 0.7830
1791.350395 0.7850 0.7870 0.7880 0.7890 0.7890
1794.998132 0.7900 0.7910 0.7910 0.7920 0.7920
1798.645868 0.7920 0.7920 0.7930 0.7930 0.7930
1802.293605 0.7940 0.7940 0.7940 0.7940 0.7940
1805.941341 0.7940 0.7940 0.7950 0.7970 0.7970
1809.589078 0.7980 0.7980 0.7990 0.7990 0.8000
1813.236815 0.8010 0.8020 0.8020 0.8020 0.8030
1816.884551 0.8030 0.8050 0.8060 0.8070 0.8080
1820.532288 0.8080 0.8080 0.8080 0.8080 0.8080
1824.180024 0.8080 0.8090 0.8100 0.8100 0.8110
1827.827761 0.8120 0.8130 0.8130 0.8140 0.8140
1831.475498 0.8140 0.8150 0.8150 0.8150 0.8140
1835.123234 0.8150 0.8160 0.8160 0.8160 0.8170
1838.770971 0.8170 0.8180 0.8180 0.8180 0.8190
1842.418707 0.8200 0.8200 0.8210 0.8220 0.8230
1846.066444 0.8230 0.8230 0.8240 0.8240 0.8240
1849.714181 0.8240 0.8240 0.8240 0.8240 0.8240
1853.361917 0.8240 0.8240 0.8240 0.8240 0.8240
1857.009654 0.8240 0.8240 0.8240 0.8240 0.8230
1860.657390 0.8230 0.8230 0.8230 0.8230 0.8220
1864.305127 0.8220 0.8220 0.8220 0.8210 0.8210
1867.952864 0.8210 0.8190 0.8180 0.8160 0.8160
1871.600600 0.8140 0.8130 0.8130 0.8120 0.8110
1875.248337 0.8100 0.8100 0.8100 0.8100 0.8110
1878.896073 0.8120 0.8120 0.8130 0.8150 0.8180
1882.543810 0.8210 0.8220 0.8240 0.8240 0.8250
1886.191547 0.8260 0.8270 0.8280 0.8290 0.8300
1889.839283 0.8300 0.8300 0.8310 0.8310 0.8310
1893.487020 0.8320 0.8320 0.8320 0.8320 0.8330
1897.134756 0.8330 0.8330 0.8330 0.8330 0.8330
1900.782493 0.8330 0.8330 0.8340 0.8340 0.8340
1904.430230 0.8340 0.8340 0.8340 0.8340 0.8340
1908.077966 0.8340 0.8340 0.8340 0.8340 0.8340
1911.725703 0.8340 0.8340 0.8340 0.8340 0.8340
1915.373439 0.8340 0.8340 0.8340 0.8340 0.8340
1919.021176 0.8340 0.8340 0.8340 0.8340 0.8340
1922.668913 0.8340 0.8340 0.8340 0.8340 0.8340
1926.316649 0.8340 0.8340 0.8340 0.8340 0.8340
1929.964386 0.8340 0.8340 0.8340 0.8340 0.8340
1933.612122 0.8340 0.8340 0.8340 0.8340 0.8340
1937.259859 0.8340 0.8340 0.8340 0.8330 0.8330
1940.907596 0.8330 0.8330 0.8330 0.8330 0.8330
1944.555332 0.8330 0.8330 0.8330 0.8320 0.8320
1948.203069 0.8320 0.8330 0.8330 0.8320 0.8320
1951.850805 0.8320 0.8320 0.8320 0.8320 0.8320
1955.498542 0.8320 0.8320 0.8320 0.8320 0.8320
1959.146279 0.8320 0.8320 0.8320 0.8320 0.8320
1962.794015 0.8320 0.8320 0.8320 0.8320 0.8320
1966.441752 0.8320 0.8320 0.8320 0.8320 0.8320
1970.089488 0.8320 0.8320 0.8320 0.8320 0.8320
1973.737225 0.8320 0.8320 0.8320 0.8320 0.8320
1977.384962 0.8320 0.8320 0.8320 0.8320 0.8320
1981.032698 0.8320 0.8320 0.8320 0.8320 0.8320
1984.680435 0.8320 0.8320 0.8310 0.8310 0.8310
1988.328171 0.8300 0.8300 0.8300 0.8300 0.8290
1991.975908 0.8290 0.8290 0.8290 0.8290 0.8290
1995.623645 0.8290 0.8280 0.8280 0.8280 0.8280
1999.271381 0.8270 0.8270 0.8270 0.8270 0.8270
2002.919118 0.8270 0.8267 0.8265 0.8262 0.8260
2006.566854 0.8260 0.8260 0.8260 0.8260 0.8260
2010.214591 0.8260 0.8260 0.8260 0.8260 0.8260
2013.862328 0.8260 0.8260 0.8260 0.8260 0.8260
2017.510064 0.8260 0.8260 0.8260 0.8260 0.8260
2021.157801 0.8260 0.8260 0.8260 0.8260 0.8260
2024.805537 0.8260 0.8260 0.8260 0.8257 0.8255
2028.453274 0.8252 0.8250 0.8250 0.8250 0.8250
2032.101011 0.8250 0.8250 0.8250 0.8250 0.8249
2035.748747 0.8247 0.8244 0.8242 0.8240 0.8240
2039.396484 0.8240 0.8240 0.8240 0.8240 0.8240
2043.044220 0.8240 0.8239 0.8237 0.8234 0.8232
2046.691957 0.8229 0.8227 0.8224 0.8222 0.8220
2050.339694 0.8220 0.8220 0.8220 0.8219 0.8217
2053.987430 0.8214 0.8212 0.8210 0.8210 0.8210
2057.635167 0.8210 0.8210 0.8210 0.8210 0.8210
2061.282903 0.8209 0.8206 0.8204 0.8201 0.8200
2064.930640 0.8200 0.8200 0.8200 0.8199 0.8196
2068.578377 0.8194 0.8191 0.8189 0.8186 0.8184
2072.226113 0.8181 0.8180 0.8180 0.8180 0.8180
2075.873850 0.8180 0.8180 0.8180 0.8180 0.8180
2079.521586 0.8180 0.8180 0.8180 0.8179 0.8176
2083.169323 0.8174 0.8171 0.8169 0.8166 0.8164
2086.817060 0.8161 0.8160 0.8160 0.8160 0.8160
2090.464796 0.8160 0.8160 0.8160 0.8160 0.8158
2094.112533 0.8156 0.8153 0.8151 0.8150 0.8150
2097.760269 0.8150 0.8150 0.8148 0.8146 0.8143
2101.408006 0.8141 0.8140 0.8140 0.8140 0.8140
2105.055743 0.8138 0.8136 0.8133 0.8131 0.8130
2108.703479 0.8130 0.8130 0.8130 0.8130 0.8130
2112.351216 0.8130 0.8130 0.8128 0.8126 0.8123
2115.998952 0.8121 0.8120 0.8120 0.8120 0.8120
2119.646689 0.8118 0.8115 0.8113 0.8110 0.8108
2123.294426 0.8105 0.8103 0.8100 0.8100 0.8100
2126.942162 0.8100 0.8100 0.8100 0.8100 0.8100
2130.589899 0.8100 0.8098 0.8095 0.8093 0.8090
2134.237635 0.8090 0.8090 0.8090 0.8090 0.8088
2137.885372 0.8085 0.8083 0.8080 0.8080 0.8080
2141.533109 0.8080 0.8080 0.8080 0.8080 0.8080
2145.180845 0.8080 0.8078 0.8075 0.8073 0.8070
2148.828582 0.8070 0.8070 0.8070 0.8070 0.8065
2152.476318 0.8060 0.8055 0.8050 0.8047 0.8045
2156.124055 0.8042 0.8040 0.8037 0.8035 0.8032
2159.771792 0.8030 0.8027 0.8025 0.8022 0.8020
2163.419528 0.8020 0.8020 0.8020 0.8020 0.8017
2167.067265 0.8015 0.8012 0.8010 0.8007 0.8005
2170.715001 0.8002 0.8000 0.8000 0.8000 0.8000
2174.362738 0.7999 0.7994 0.7989 0.7984 0.7980
2178.010475 0.7977 0.7974 0.7972 0.7970 0.7970
2181.658211 0.7970 0.7970 0.7969 0.7967 0.7964
2185.305948 0.7962 0.7959 0.7957 0.7954 0.7952
2188.953684 0.7949 0.7947 0.7944 0.7942 0.7940
2192.601421 0.7940 0.7940 0.7940 0.7939 0.7937
2196.249158 0.7934 0.7932 0.7929 0.7927 0.7924
2199.896894 0.7922 0.7920 0.7920 0.7920 0.7920
2203.544631 0.7919 0.7917 0.7914 0.7912 0.7909
2207.192367 0.7906 0.7904 0.7901 0.7899 0.7896
2210.840104 0.7894 0.7891 0.7890 0.7890 0.7890
2214.487841 0.7890 0.7889 0.7886 0.7884 0.7881
2218.135577 0.7879 0.7876 0.7874 0.7871 0.7869
2221.783314 0.7866 0.7864 0.7861 0.7860 0.7860
2225.431050 0.7860 0.7860 0.7859 0.7856 0.7854
2229.078787 0.7851 0.7849 0.7846 0.7844 0.7841
2232.726524 0.7840 0.7840 0.7840 0.7840 0.7837
2236.374260 0.7832 0.7827 0.7822 0.7820 0.7820
2240.021997 0.7820 0.7820 0.7818 0.7816 0.7813
2243.669733 0.7811 0.7810 0.7810 0.7810 0.7810
2247.317470 0.7807 0.7802 0.7797 0.7792 0.7788
2250.965207 0.7786 0.7783 0.7781 0.7777 0.7772
2254.612943 0.7767 0.7762 0.7760 0.7760 0.7760
2258.260680 0.7760 0.7760 0.7760 0.7760 0.7760
2261.908417 0.7758 0.7756 0.7753 0.7751 0.7748
2265.556153 0.7746 0.7743 0.7740 0.7740 0.7740
2269.203890 0.7740 0.7740 0.7738 0.7735 0.7733
2272.851626 0.7730 0.7730 0.7730 0.7730 0.7730
2276.499363 0.7728 0.7725 0.7723 0.7720 0.7718
2280.147100 0.7715 0.7713 0.7710 0.7708 0.7705
2283.794836 0.7703 0.7700 0.7700 0.7700 0.7700
2287.442573 0.7700 0.7698 0.7695 0.7693 0.7690
2291.090309 0.7688 0.7685 0.7683 0.7680 0.7680
2294.738046 0.7680 0.7680 0.7680 0.7677 0.7675
2298.385783 0.7672 0.7670 0.7670 0.7670 0.7670
2302.033519 0.7670 0.7667 0.7665 0.7662 0.7660
2305.681256 0.7657 0.7655 0.7652 0.7650 0.7650
2309.328992 0.7650 0.7650 0.7650 0.7650 0.7650
2312.976729 0.7650 0.7650 0.7647 0.7645 0.7642
2316.624466 0.7640 0.7637 0.7635 0.7632 0.7630
2320.272202 0.7627 0.7625 0.7622 0.7620 0.7620
2323.919939 0.7620 0.7620 0.7620 0.7620 0.7620
2327.567675 0.7620 0.7619 0.7617 0.7614 0.7612
2331.215412 0.7610 0.7610 0.7610 0.7610 0.7609
2334.863149 0.7607 0.7604 0.7602 0.7598 0.7591
2338.510885 0.7583 0.7576 0.7569 0.7567 0.7564
2342.158622 0.7562 0.7559 0.7554 0.7549 0.7544
2345.806358 0.7539 0.7537 0.7534 0.7532 0.7529
2349.454095 0.7527 0.7524 0.7522 0.7520 0.7520
2353.101832 0.7520 0.7520 0.7519 0.7517 0.7514
2356.749568 0.7511 0.7508 0.7503 0.7498 0.7493
2360.397305 0.7487 0.7479 0.7472 0.7464 0.7459
2364.045041 0.7456 0.7454 0.7451 0.7449 0.7446
2367.692778 0.7444 0.7441 0.7440 0.7440 0.7440
2371.340515 0.7440 0.7438 0.7433 0.7428 0.7423
2374.988251 0.7419 0.7416 0.7414 0.7411 0.7407
2378.635988 0.7402 0.7397 0.7392 0.7389 0.7386
2382.283724 0.7384 0.7381 0.7377 0.7372 0.7367
2385.931461 0.7362 0.7357 0.7352 0.7347 0.7342
2389.579198 0.7338 0.7336 0.7333 0.7331 0.7325
2393.226934 0.7318 0.7310 0.7303 0.7297 0.7292
2396.874671 0.7287 0.7282 0.7277 0.7272 0.7267
2400.522407 0.7262 0.7255 0.7247 0.7240 0.7232
2404.170144 0.7225 0.7217 0.7209 0.7202 0.7200
2407.817881 0.7200 0.7200 0.7200 0.7196 0.7191
2411.465617 0.7186 0.7181 0.7176 0.7171 0.7166
2415.113354 0.7161 0.7156 0.7151 0.7146 0.7141
2418.761090 0.7138 0.7135 0.7133 0.7130 0.7128
2422.408827 0.7125 0.7123 0.7120 0.7120 0.7120
2426.056564 0.7120 0.7120 0.7120 0.7120 0.7120
2429.704300 0.7120 0.7113 0.7106 0.7098 0.7091
2433.352037 0.7083 0.7076 0.7068 0.7060 0.7055
2436.999773 0.7050 0.7045 0.7040 0.7030 0.7020
2440.647510 0.7010 0.7000 0.6995 0.6990 0.6985
2444.295247 0.6980 0.6975 0.6970 0.6965 0.6960
2447.942983 0.6952 0.6945 0.6937 0.6930 0.6930
2451.590720 0.6930 0.6930 0.6930 0.6927 0.6925
2455.238456 0.6922 0.6920 0.6915 0.6910 0.6905
2458.886193 0.6900 0.6895 0.6890 0.6885 0.6879
2462.533930 0.6872 0.6864 0.6856 0.6849 0.6841
2466.181666 0.6834 0.6826 0.6818 0.6808 0.6798
2469.829403 0.6788 0.6778 0.6768 0.6758 0.6748
2473.477139 0.6738 0.6728 0.6718 0.6708 0.6699
2477.124876 0.6694 0.6689 0.6684 0.6679 0.6674
2480.772613 0.6669 0.6664 0.6658 0.6648 0.6638
2484.420349 0.6628 0.6617 0.6607 0.6597 0.6587
2488.068086 0.6579 0.6574 0.6569 0.6564 0.6558
2491.715822 0.6550 0.6543 0.6535 0.6528 0.6523
2495.363559 0.6518 0.6513 0.6509 0.6507 0.6504
2499.011296 0.6502 0.6499 0.6497 0.6494 0.6492
2502.659032 0.6487 0.6480 0.6472 0.6464 0.6456
2506.306769 0.6446 0.6436 0.6426 0.6415 0.6402
2509.954505 0.6390 0.6377 0.6361 0.6341 0.6321
2513.602242 0.6301 0.6281 0.6261 0.6241 0.6221
2517.249979 0.6205 0.6195 0.6185 0.6175 0.6168
2520.897715 0.6162 0.6157 0.6152 0.6147 0.6142
2524.545452 0.6137 0.6132 0.6127 0.6122 0.6117
2528.193188 0.6112 0.6109 0.6106 0.6104 0.6101
2531.840925 0.6097 0.6092 0.6087 0.6082 0.6080
2535.488662 0.6080 0.6080 0.6080 0.6078 0.6076
2539.136398 0.6073 0.6071 0.6068 0.6066 0.6063
2542.784135 0.6061 0.6058 0.6056 0.6053 0.6051
2546.431871 0.6050 0.6050 0.6050 0.6050 0.6047
2550.079608 0.6041 0.6036 0.6031 0.6030 0.6030
2553.727345 0.6030 0.6030 0.6028 0.6026 0.6023
2557.375081 0.6021 0.6020 0.6020 0.6020 0.6020
2561.022818 0.6020 0.6020 0.6020 0.6020 0.6012
2564.670554 0.6002 0.5992 0.5982 0.5972 0.5962
2568.318291 0.5952 0.5942 0.5932 0.5922 0.5912
2571.966028 0.5902 0.5892 0.5881 0.5871 0.5861
2575.613764 0.5858 0.5855 0.5853 0.5850 0.5848
2579.261501 0.5845 0.5843 0.5840 0.5838 0.5835
2582.909237 0.5833 0.5830 0.5828 0.5825 0.5823
2586.556974 0.5820 0.5820 0.5820 0.5820 0.5820
2590.204711 0.5818 0.5815 0.5813 0.5810 0.5807
2593.852447 0.5805 0.5802 0.5800 0.5792 0.5785
2597.500184 0.5777 0.5770 0.5765 0.5760 0.5755
2601.147920 0.5750 0.5745 0.5740 0.5735 0.5730
2604.795657 0.5722 0.5715 0.5707 0.5700 0.5697
2608.443394 0.5695 0.5692 0.5690 0.5687 0.5685
2612.091130 0.5682 0.5680 0.5680 0.5680 0.5680
2615.738867 0.5680 0.5680 0.5680 0.5680 0.5680
2619.386603 0.5677 0.5675 0.5672 0.5669 0.5664
2623.034340 0.5659 0.5654 0.5650 0.5650 0.5650
2626.682077 0.5650 0.5649 0.5647 0.5644 0.5642
2630.329813 0.5640 0.5640 0.5640 0.5640 0.5639
2633.977550 0.5637 0.5634 0.5632 0.5630 0.5630
2637.625286 0.5630 0.5630 0.5630 0.5630 0.5630
2641.273023 0.5630 0.5630 0.5630 0.5630 0.5630
2644.920760 0.5630 0.5630 0.5630 0.5630 0.5630
2648.568496 0.5630 0.5630 0.5630 0.5630 0.5630
2652.216233 0.5630 0.5630 0.5630 0.5630 0.5630
2655.863969 0.5630 0.5630 0.5630 0.5630 0.5630
2659.511706 0.5631 0.5634 0.5636 0.5639 0.5640
2663.159443 0.5640 0.5640 0.5640 0.5640 0.5640
2666.807179 0.5640 0.5640 0.5640 0.5640 0.5640
2670.454916 0.5640 0.5640 0.5640 0.5640 0.5640
2674.102652 0.5640 0.5640 0.5640 0.5640 0.5639
2677.750389 0.5636 0.5634 0.5631 0.5630 0.5630
2681.398126 0.5630 0.5630 0.5630 0.5630 0.5630
2685.045862 0.5630 0.5630 0.5630 0.5630 0.5630
2688.693599 0.5628 0.5626 0.5623 0.5621 0.5620
2692.341335 0.5620 0.5620 0.5620 0.5620 0.5620
2695.989072 0.5620 0.5620 0.5620 0.5620 0.5620
2699.636809 0.5620 0.5620 0.5620 0.5620 0.5620
2703.284545 0.5618 0.5616 0.5613 0.5611 0.5610
2706.932282 0.5610 0.5610 0.5610 0.5608 0.5606
2710.580018 0.5603 0.5600 0.5600 0.5600 0.5600
2714.227755 0.5600 0.5598 0.5595 0.5593 0.5590
2717.875492 0.5590 0.5590 0.5590 0.5590 0.5588
2721.523228 0.5585 0.5583 0.5580 0.5580 0.5580
2725.170965 0.5580 0.5580 0.5578 0.5575 0.5573
2728.818701 0.5570 0.5565 0.5560 0.5555 0.5550
2732.466438 0.5548 0.5545 0.5543 0.5540 0.5540
2736.114175 0.5540 0.5540 0.5540 0.5538 0.5535
2739.761911 0.5533 0.5530 0.5527 0.5525 0.5522
2743.409648 0.5520 0.5512 0.5505 0.5497 0.5490
2747.057384 0.5487 0.5485 0.5482 0.5480 0.5475
2750.705121 0.5470 0.5465 0.5460 0.5455 0.5450
2754.352858 0.5444 0.5439 0.5432 0.5424 0.5416
2758.000594 0.5409 0.5401 0.5394 0.5386 0.5379
2761.648331 0.5371 0.5364 0.5356 0.5349 0.5344
2765.296067 0.5339 0.5334 0.5329 0.5324 0.5319
2768.943804 0.5314 0.5310 0.5307 0.5304 0.5302
2772.591541 0.5297 0.5282 0.5267 0.5252 0.5239
2776.239277 0.5234 0.5229 0.5224 0.5219 0.5217
2779.887014 0.5214 0.5212 0.5206 0.5188 0.5170
2783.534750 0.5152 0.5137 0.5127 0.5117 0.5107
2787.182487 0.5092 0.5070 0.5047 0.5025 0.5007
2790.830224 0.5000 0.4992 0.4985 0.4975 0.4959
2794.477960 0.4944 0.4929 0.4918 0.4913 0.4908
2798.125697 0.4903 0.4900 0.4900 0.4900 0.4900
2801.773433 0.4887 0.4854 0.4822 0.4789 0.4755
2805.421170 0.4720 0.4685 0.4650 0.4625 0.4612
2809.068907 0.4599 0.4587 0.4571 0.4551 0.4530
2812.716643 0.4510 0.4491 0.4473 0.4456 0.4438
2816.364380 0.4421 0.4403 0.4386 0.4368 0.4348
2820.012116 0.4325 0.4302 0.4280 0.4264 0.4254
2823.659853 0.4244 0.4234 0.4227 0.4222 0.4217
2827.307590 0.4212 0.4210 0.4210 0.4210 0.4210
2830.955326 0.4202 0.4190 0.4177 0.4165 0.4148
2834.603063 0.4128 0.4107 0.4087 0.4058 0.4023
2838.250799 0.3988 0.3952 0.3917 0.3881 0.3846
2841.898536 0.3810 0.3778 0.3748 0.3718 0.3688
2845.546273 0.3645 0.3597 0.3550 0.3502 0.3469
2849.194009 0.3442 0.3414 0.3387 0.3361 0.3336
2852.841746 0.3311 0.3286 0.3243 0.3196 0.3148
2856.489482 0.3100 0.3090 0.3090 0.3090 0.3090
2860.137219 0.3110 0.3135 0.3160 0.3185 0.3233
2863.784956 0.3286 0.3338 0.3391 0.3421 0.3446
2867.432692 0.3471 0.3496 0.3521 0.3547 0.3572
2871.080429 0.3598 0.3618 0.3638 0.3658 0.3679
2874.728165 0.3680 0.3680 0.3680 0.3680 0.3678
2878.375902 0.3675 0.3673 0.3670 0.3656 0.3641
2882.023639 0.3626 0.3610 0.3598 0.3585 0.3573
2885.671375 0.3560 0.3543 0.3525 0.3508 0.3490
2889.319112 0.3480 0.3470 0.3460 0.3450 0.3440
2892.966848 0.3430 0.3420 0.3410 0.3402 0.3395
2896.614585 0.3387 0.3379 0.3359 0.3338 0.3318
2900.262322 0.3298 0.3278 0.3258 0.3238 0.3218
2903.910058 0.3203 0.3188 0.3173 0.3159 0.3151
2907.557795 0.3144 0.3136 0.3127 0.3110 0.3092
2911.205531 0.3075 0.3055 0.3022 0.2989 0.2957
2914.853268 0.2920 0.2862 0.2804 0.2746 0.2693
2918.501005 0.2658 0.2623 0.2588 0.2556 0.2539
2922.148741 0.2521 0.2504 0.2487 0.2472 0.2457
2925.796478 0.2441 0.2427 0.2414 0.2402 0.2389
2929.444214 0.2373 0.2350 0.2328 0.2305 0.2288
2933.091951 0.2280 0.2273 0.2265 0.2260 0.2260
2936.739688 0.2260 0.2260 0.2267 0.2287 0.2307
2940.387424 0.2327 0.2342 0.2347 0.2352 0.2357
2944.035161 0.2372 0.2405 0.2438 0.2470 0.2518
2947.682897 0.2588 0.2658 0.2728 0.2794 0.2855
2951.330634 0.2915 0.2975 0.3049 0.3142 0.3235
2954.978371 0.3327 0.3391 0.3417 0.3442 0.3467
2958.626107 0.3483 0.3488 0.3493 0.3498 0.3501
2962.273844 0.3504 0.3506 0.3509 0.3510 0.3510
2965.921580 0.3510 0.3510 0.3509 0.3506 0.3504
2969.569317 0.3501 0.3499 0.3496 0.3494 0.3491
2973.217054 0.3483 0.3470 0.3458 0.3445 0.3433
2976.864790 0.3420 0.3408 0.3395 0.3385 0.3378
2980.512527 0.3370 0.3363 0.3360 0.3360 0.3360
2984.160263 0.3360 0.3357 0.3352 0.3347 0.3342
2987.808000 0.3336 0.3331 0.3326 0.3321 0.3316
2991.455737 0.3311 0.3306 0.3301 0.3298 0.3296
2995.103473 0.3293 0.3291 0.3288 0.3286 0.3283
2998.751210 0.3281 0.3274 0.3267 0.3259 0.3252
3002.398946 0.3242 0.3232 0.3222 0.3212 0.3208
3006.046683 0.3206 0.3203 0.3201 0.3188 0.3173
3009.694420 0.3158 0.3143 0.3136 0.3131 0.3126
3013.342156 0.3121 0.3116 0.3111 0.3106 0.3101
3016.989893 0.3091 0.3081 0.3071 0.3061 0.3055
3020.637629 0.3050 0.3045 0.3040 0.3038 0.3035
3024.285366 0.3033 0.3030 0.3025 0.3020 0.3015
3027.933103 0.3010 0.3010 0.3010 0.3010 0.3010
3031.580839 0.3012 0.3015 0.3017 0.3020 0.3032
3035.228576 0.3045 0.3057 0.3070 0.3088 0.3105
3038.876312 0.3123 0.3140 0.3148 0.3155 0.3163
3042.524049 0.3170 0.3175 0.3180 0.3185 0.3190
3046.171786 0.3190 0.3190 0.3190 0.3190 0.3190
3049.819522 0.3190 0.3190 0.3190 0.3190 0.3190
3053.467259 0.3190 0.3190 0.3190 0.3190 0.3190
3057.114995 0.3190 0.3190 0.3190 0.3190 0.3190
3060.762732 0.3190 0.3190 0.3190 0.3190 0.3187
3064.410469 0.3185 0.3182 0.3180 0.3180 0.3180
3068.058205 0.3180 0.3179 0.3177 0.3174 0.3172
3071.705942 0.3170 0.3170 0.3170 0.3170 0.3169
3075.353678 0.3164 0.3158 0.3153 0.3149 0.3147
3079.001415 0.3144 0.3142 0.3138 0.3130 0.3123
3082.649152 0.3115 0.3109 0.3107 0.3104 0.3102
3086.296888 0.3099 0.3097 0.3094 0.3092 0.3090
3089.944625 0.3090 0.3090 0.3090 0.3090 0.3090
3093.592361 0.3090 0.3090 0.3090 0.3090 0.3090
3097.240098 0.3090 0.3090 0.3090 0.3090 0.3090
3100.887835 0.3090 0.3090 0.3090 0.3090 0.3090
3104.535571 0.3090 0.3090 0.3090 0.3090 0.3090
3108.183308 0.3090 0.3090 0.3090 0.3090 0.3090
3111.831044 0.3090 0.3090 0.3090 0.3090 0.3090
3115.478781 0.3090 0.3090 0.3090 0.3090 0.3091
3119.126518 0.3094 0.3096 0.3099 0.3100 0.3100
3122.774254 0.3100 0.3100 0.3101 0.3104 0.3106
3126.421991 0.3109 0.3110 0.3110 0.3110 0.3110
3130.069727 0.3110 0.3110 0.3110 0.3110 0.3110
3133.717464 0.3110 0.3110 0.3110 0.3110 0.3110
3137.365201 0.3110 0.3110 0.3112 0.3114 0.3117
3141.012937 0.3119 0.3120 0.3120 0.3120 0.3120
3144.660674 0.3120 0.3120 0.3120 0.3120 0.3122
3148.308410 0.3124 0.3127 0.3129 0.3132 0.3134
3151.956147 0.3137 0.3139 0.3140 0.3140 0.3140
3155.603884 0.3140 0.3142 0.3145 0.3147 0.3150
3159.251620 0.3152 0.3155 0.3157 0.3160 0.3162
3162.899357 0.3165 0.3167 0.3170 0.3170 0.3170
3166.547093 0.3170 0.3170 0.3172 0.3175 0.3177
3170.194830 0.3180 0.3180 0.3180 0.3180 0.3180
3173.842567 0.3182 0.3185 0.3187 0.3190 0.3192
3177.490303 0.3195 0.3197 0.3200 0.3202 0.3205
3181.138040 0.3207 0.3210 0.3212 0.3215 0.3217
3184.785776 0.3220 0.3220 0.3220 0.3220 0.3220
3188.433513 0.3225 0.3230 0.3235 0.3240 0.3243
3192.081250 0.3245 0.3248 0.3251 0.3258 0.3266
3195.728986 0.3273 0.3281 0.3294 0.3306 0.3319
3199.376723 0.3331 0.3338 0.3346 0.3354 0.3361
3203.024459 0.3369 0.3376 0.3384 0.3390 0.3393
3206.672196 0.3395 0.3398 0.3400 0.3403 0.3405
3210.319933 0.3408 0.3410 0.3413 0.3415 0.3418
3213.967669 0.3421 0.3426 0.3431 0.3436 0.3441
3217.615406 0.3443 0.3446 0.3448 0.3451 0.3453
3221.263142 0.3456 0.3458 0.3461 0.3463 0.3466
3224.910879 0.3468 0.3472 0.3480 0.3487 0.3495
3228.558616 0.3502 0.3507 0.3512 0.3517 0.3522
3232.206352 0.3527 0.3532 0.3537 0.3540 0.3540
3235.854089 0.3540 0.3540 0.3541 0.3543 0.3546
3239.501825 0.3548 0.3551 0.3553 0.3556 0.3558
3243.149562 0.3560 0.3560 0.3560 0.3560 0.3561
3246.797299 0.3564 0.3566 0.3569 0.3570 0.3570
3250.445035 0.3570 0.3570 0.3570 0.3570 0.3570
3254.092772 0.3570 0.3571 0.3574 0.3576 0.3579
3257.740508 0.3581 0.3584 0.3586 0.3589 0.3590
3261.388245 0.3590 0.3590 0.3590 0.3590 0.3590
3265.035982 0.3590 0.3590 0.3589 0.3586 0.3584
3268.683718 0.3581 0.3580 0.3580 0.3580 0.3580
3272.331455 0.3579 0.3576 0.3574 0.3571 0.3570
3275.979191 0.3570 0.3570 0.3570 0.3567 0.3562
3279.626928 0.3557 0.3552 0.3547 0.3542 0.3537
3283.274665 0.3531 0.3528 0.3526 0.3523 0.3521
3286.922401 0.3518 0.3516 0.3513 0.3511 0.3506
3290.570138 0.3501 0.3496 0.3491 0.3483 0.3473
3294.217874 0.3462 0.3452 0.3444 0.3437 0.3429
3297.865611 0.3422 0.3418 0.3416 0.3413 0.3411
3301.513348 0.3402 0.3392 0.3382 0.3372 0.3366
3305.161084 0.3361 0.3356 0.3351 0.3343 0.3336
3308.808821 0.3328 0.3321 0.3311 0.3301 0.3291
3312.456557 0.3281 0.3273 0.3266 0.3258 0.3251
3316.104294 0.3218 0.3183 0.3148 0.3113 0.3094
3319.752031 0.3076 0.3059 0.3041 0.3019 0.2996
3323.399767 0.2974 0.2951 0.2926 0.2901 0.2876
3327.047504 0.2851 0.2826 0.2801 0.2776 0.2750
3330.695240 0.2735 0.2720 0.2705 0.2690 0.2667
3334.342977 0.2644 0.2621 0.2597 0.2546 0.2496
3337.990714 0.2446 0.2398 0.2376 0.2353 0.2330
3341.638450 0.2308 0.2285 0.2263 0.2240 0.2217
3345.286187 0.2192 0.2167 0.2142 0.2120 0.2117
3348.933923 0.2115 0.2112 0.2110 0.2107 0.2105
3352.581660 0.2102 0.2100 0.2103 0.2105 0.2108
3356.229397 0.2111 0.2116 0.2121 0.2126 0.2131
3359.877133 0.2139 0.2146 0.2154 0.2163 0.2181
3363.524870 0.2199 0.2217 0.2234 0.2249 0.2264
3367.172606 0.2279 0.2296 0.2316 0.2336 0.2356
3370.820343 0.2374 0.2389 0.2405 0.2420 0.2435
3374.468080 0.2453 0.2471 0.2488 0.2507 0.2530
3378.115816 0.2552 0.2575 0.2594 0.2607 0.2619
3381.763553 0.2632 0.2647 0.2667 0.2687 0.2707
3385.411289 0.2723 0.2730 0.2738 0.2745 0.2757
3389.059026 0.2774 0.2792 0.2809 0.2828 0.2848
3392.706763 0.2869 0.2889 0.2913 0.2940 0.2968
3396.354499 0.2996 0.3020 0.3040 0.3060 0.3080
3400.002236 0.3101 0.3124 0.3146 0.3169 0.3185
3403.649972 0.3195 0.3205 0.3215 0.3238 0.3273
3407.297709 0.3308 0.3344 0.3367 0.3379 0.3392
3410.945446 0.3404 0.3421 0.3441 0.3461 0.3481
3414.593182 0.3494 0.3502 0.3509 0.3517 0.3523
3418.240919 0.3528 0.3533 0.3538 0.3543 0.3548
3421.888655 0.3553 0.3558 0.3567 0.3577 0.3587
3425.536392 0.3597 0.3608 0.3621 0.3634 0.3646
3429.184129 0.3659 0.3671 0.3684 0.3696 0.3704
3432.831865 0.3709 0.3714 0.3719 0.3725 0.3733
3436.479602 0.3740 0.3748 0.3755 0.3763 0.3771
3440.127338 0.3778 0.3786 0.3793 0.3801 0.3808
3443.775075 0.3816 0.3823 0.3831 0.3838 0.3848
3447.422812 0.3858 0.3868 0.3878 0.3882 0.3885
3451.070548 0.3887 0.3890 0.3894 0.3899 0.3904
3454.718285 0.3909 0.3917 0.3924 0.3932 0.3939
3458.366021 0.3949 0.3959 0.3969 0.3979 0.3984
3462.013758 0.3990 0.3995 0.4000 0.4000 0.4000
3465.661495 0.4000 0.4000 0.4005 0.4010 0.4015
3469.309231 0.4020 0.4027 0.4035 0.4042 0.4050
3472.956968 0.4052 0.4055 0.4057 0.4060 0.4065
3476.604704 0.4070 0.4075 0.4080 0.4083 0.4085
3480.252441 0.4088 0.4090 0.4087 0.4085 0.4082
3483.900178 0.4080 0.4080 0.4080 0.4080 0.4080
3487.547914 0.4077 0.4075 0.4072 0.4070 0.4065
3491.195651 0.4059 0.4054 0.4049 0.4042 0.4034
3494.843387 0.4027 0.4020 0.4017 0.4015 0.4012
3498.491124 0.4010 0.4007 0.4005 0.4002 0.3999
3502.138861 0.3991 0.3984 0.3976 0.3969 0.3961
3505.786597 0.3954 0.3946 0.3939 0.3931 0.3923
3509.434334 0.3916 0.3909 0.3904 0.3899 0.3894
3513.082070 0.3888 0.3880 0.3873 0.3865 0.3859
3516.729807 0.3854 0.3849 0.3844 0.3839 0.3837
3520.377544 0.3834 0.3832 0.3829 0.3827 0.3824
3524.025280 0.3822 0.3819 0.3817 0.3814 0.3812
3527.673017 0.3810 0.3810 0.3810 0.3810 0.3810
3531.320753 0.3810 0.3810 0.3810 0.3811 0.3813
3534.968490 0.3816 0.3818 0.3825 0.3838 0.3850
3538.616227 0.3863 0.3881 0.3906 0.3931 0.3956
3542.263963 0.3971 0.3974 0.3976 0.3979 0.3990
3545.911700 0.4010 0.4030 0.4050 0.4066 0.4079
3549.559436 0.4091 0.4104 0.4113 0.4118 0.4123
3553.207173 0.4128 0.4140 0.4160 0.4181 0.4201
3556.854910 0.4223 0.4248 0.4273 0.4299 0.4322
3560.502646 0.4345 0.4367 0.4390 0.4411 0.4431
3564.150383 0.4451 0.4471 0.4487 0.4500 0.4513
3567.798119 0.4525 0.4538 0.4551 0.4563 0.4576
3571.445856 0.4585 0.4592 0.4600 0.4608 0.4617
3575.093593 0.4627 0.4637 0.4647 0.4653 0.4658
3578.741329 0.4663 0.4668 0.4672 0.4674 0.4677
3582.389066 0.4679 0.4682 0.4684 0.4687 0.4689
3586.036802 0.4694 0.4699 0.4704 0.4709 0.4716
3589.684539 0.4723 0.4731 0.4738 0.4746 0.4753
3593.332276 0.4761 0.4768 0.4776 0.4784 0.4791
3596.980012 0.4799 0.4804 0.4809 0.4814 0.4819
3600.627749 0.4829 0.4839 0.4849 0.4859 0.4864
3604.275485 0.4869 0.4874 0.4879 0.4884 0.4889
3607.923222 0.4894 0.4899 0.4905 0.4910 0.4915
3611.570959 0.4920 0.4931 0.4944 0.4957 0.4969
3615.218695 0.4972 0.4975 0.4977 0.4980 0.4989
3618.866432 0.4999 0.5009 0.5020 0.5039 0.5059
3622.514168 0.5079 0.5099 0.5110 0.5120 0.5130
3626.161905 0.5140 0.5148 0.5155 0.5163 0.5171
3629.809642 0.5199 0.5227 0.5254 0.5283 0.5336
3633.457378 0.5389 0.5442 0.5492 0.5520 0.5547
3637.105115 0.5575 0.5603 0.5638 0.5674 0.5709
3640.752851 0.5744 0.5782 0.5819 0.5857 0.5891
3644.400588 0.5896 0.5901 0.5906 0.5910 0.5913
3648.048325 0.5915 0.5918 0.5923 0.5943 0.5963
3651.696061 0.5983 0.6005 0.6039 0.6072 0.6105
3655.343798 0.6134 0.6152 0.6169 0.6187 0.6208
3658.991534 0.6238 0.6268 0.6298 0.6332 0.6377
3662.639271 0.6422 0.6467 0.6513 0.6558 0.6603
3666.287008 0.6648 0.6681 0.6683 0.6686 0.6688
3669.934744 0.6692 0.6700 0.6707 0.6715 0.6726
3673.582481 0.6743 0.6761 0.6778 0.6799 0.6827
3677.230217 0.6854 0.6882 0.6907 0.6927 0.6947
3680.877954 0.6967 0.6983 0.6990 0.6998 0.7006
3684.525691 0.7010 0.7010 0.7010 0.7010 0.7010
3688.173427 0.7010 0.7010 0.7010 0.7017 0.7032
3691.821164 0.7047 0.7062 0.7072 0.7077 0.7082
3695.468900 0.7087 0.7092 0.7097 0.7102 0.7107
3699.116637 0.7114 0.7121 0.7129 0.7136 0.7143
3702.764374 0.7148 0.7153 0.7158 0.7161 0.7164
3706.412110 0.7166 0.7169 0.7170 0.7170 0.7170
3710.059847 0.7170 0.7173 0.7178 0.7183 0.7188
3713.707583 0.7193 0.7198 0.7203 0.7208 0.7212
3717.355320 0.7214 0.7217 0.7219 0.7223 0.7228
3721.003057 0.7233 0.7238 0.7242 0.7244 0.7247
3724.650793 0.7249 0.7252 0.7254 0.7257 0.7259
3728.298530 0.7264 0.7269 0.7274 0.7279 0.7280
3731.946266 0.7280 0.7280 0.7280 0.7280 0.7280
3735.594003 0.7280 0.7280 0.7282 0.7284 0.7287
3739.241740 0.7289 0.7290 0.7290 0.7290 0.7290
3742.889476 0.7290 0.7290 0.7290 0.7290 0.7290
3746.537213 0.7290 0.7290 0.7290 0.7292 0.7295
3750.184949 0.7297 0.7300 0.7300 0.7300 0.7300
3753.832686 0.7300 0.7302 0.7305 0.7307 0.7310
3757.480423 0.7310 0.7310 0.7310 0.7310 0.7310
3761.128159 0.7310 0.7310 0.7310 0.7312 0.7315
3764.775896 0.7317 0.7320 0.7320 0.7320 0.7320
3768.423632 0.7320 0.7320 0.7320 0.7320 0.7320
3772.071369 0.7323 0.7325 0.7328 0.7330 0.7330
3775.719106 0.7330 0.7330 0.7330 0.7330 0.7330
3779.366842 0.7330 0.7330 0.7330 0.7330 0.7330
3783.014579 0.7330 0.7330 0.7330 0.7330 0.7330
3786.662315 0.7330 0.7330 0.7330 0.7330 0.7333
3790.310052 0.7335 0.7338 0.7340 0.7340 0.7340
3793.957789 0.7340 0.7340 0.7340 0.7340 0.7340
3797.605525 0.7340 0.7340 0.7340 0.7340 0.7340
3801.253262 0.7340 0.7340 0.7340 0.7340 0.7340
3804.900998 0.7340 0.7340 0.7340 0.7340 0.7340
3808.548735 0.7340 0.7340 0.7340 0.7340 0.7340
3812.196472 0.7340 0.7340 0.7340 0.7340 0.7340
3815.844208 0.7340 0.7340 0.7340 0.7340 0.7340
3819.491945 0.7340 0.7340 0.7340 0.7340 0.7340
3823.139681 0.7340 0.7340 0.7340 0.7340 0.7340
3826.787418 0.7340 0.7340 0.7340 0.7340 0.7340
3830.435155 0.7340 0.7340 0.7340 0.7340 0.7340
3834.082891 0.7340 0.7340 0.7341 0.7344 0.7346
3837.730628 0.7349 0.7350 0.7350 0.7350 0.7350
3841.378364 0.7351 0.7354 0.7356 0.7359 0.7360
3845.026101 0.7360 0.7360 0.7360 0.7360 0.7360
3848.673838 0.7360 0.7360 0.7360 0.7360 0.7360
3852.321574 0.7360 0.7360 0.7360 0.7360 0.7360
3855.969311 0.7361 0.7364 0.7366 0.7369 0.7370
3859.617047 0.7370 0.7370 0.7370 0.7372 0.7374
3863.264784 0.7377 0.7379 0.7380 0.7380 0.7380
3866.912521 0.7380 0.7380 0.7380 0.7380 0.7380
3870.560257 0.7380 0.7380 0.7380 0.7380 0.7380
3874.207994 0.7380 0.7380 0.7380 0.7378 0.7376
3877.855730 0.7373 0.7371 0.7370 0.7370 0.7370
3881.503467 0.7370 0.7370 0.7370 0.7370 0.7370
3885.151204 0.7370 0.7370 0.7370 0.7370 0.7370
3888.798940 0.7370 0.7370 0.7370 0.7368 0.7365
3892.446677 0.7363 0.7360 0.7360 0.7360 0.7360
3896.094413 0.7360 0.7360 0.7360 0.7360 0.7360
3899.742150 0.7360 0.7360 0.7360 0.7360 0.7360
3903.389887 0.7360 0.7360 0.7360 0.7360 0.7360
3907.037623 0.7360 0.7360 0.7360 0.7360 0.7360
3910.685360 0.7360 0.7360 0.7360 0.7360 0.7360
3914.333096 0.7360 0.7360 0.7360 0.7360 0.7360
3917.980833 0.7360 0.7360 0.7360 0.7360 0.7360
3921.628570 0.7360 0.7360 0.7360 0.7360 0.7360
3925.276306 0.7360 0.7363 0.7365 0.7368 0.7370
3928.924043 0.7373 0.7375 0.7378 0.7380 0.7380
3932.571779 0.7380 0.7380 0.7380 0.7380 0.7380
3936.219516 0.7380 0.7380 0.7380 0.7380 0.7380
3939.867253 0.7380 0.7380 0.7380 0.7380 0.7380
3943.514989 0.7380 0.7380 0.7380 0.7380 0.7380
3947.162726 0.7380 0.7380 0.7380 0.7380 0.7380
3950.810462 0.7380 0.7380 0.7380 0.7380 0.7380
3954.458199 0.7381 0.7383 0.7386 0.7388 0.7390
3958.105936 0.7390 0.7390 0.7390 0.7391 0.7393
3961.753672 0.7396 0.7398 0.7400 0.7400 0.7400
3965.401409 0.7400 0.7400 0.7400 0.7400 0.7400
3969.049145 0.7400 0.7400 0.7400 0.7400 0.7400
3972.696882 0.7400 0.7400 0.7400 0.7400 0.7400
3976.344619 0.7400 0.7400 0.7400 0.7400 0.7400
3979.992355 0.7400 0.7400 0.7400 0.7400 0.7400
3983.640092 0.7400 0.7400 0.7400 0.7400 0.7400
3987.287828 0.7400 0.7400 0.7400 0.7400 0.7400
3990.935565 0.7400 0.7400 0.7400 0.7400 0.7400
3994.583302 0.7400 0.7399 0.7396 0.7394 0.7391
3998.231038 0.7390 0.7390 0.7390 0.7390 0.7390
4001.878775 0.7390 0.7390 0.7390 0.7390 0.7390
4005.526511 0.7390 0.7390 0.7390 0.7390 0.7390
4009.174248 0.7390 0.7390 0.7390 0.7390 0.7390
##END=
