##TITLE=ZINC YELLOW
##JCAMP-DX=4.24
##DATA TYPE=INFRARED SPECTRUM
##CLASS=COBLENTZ
##ORIGIN=DESOTO CHEMICAL COATINGS, INC.
##OWNER=COBLENTZ SOCIETY
Collection (C) 2018 copyright by the U.S. Secretary of Commerce
on behalf of the United States of America. All rights reserved.
##DATE=Not specified, most likely prior to 1970
##MOLFORM=4 Zn O  * 4 Cr O3  * K2 O  * 3 H2 O
$$ ZnO 35-40%, CrO3 43%, K2O 13%, H2O 8%
##SOURCE REFERENCE=COBLENTZ NO. 4691
##$NIST ID=B6004691
##$NIST SOURCE=COBLENTZ
##$NIST IMAGE=cob4691
##SPECTROMETER/DATA SYSTEM=Not specified, most likely a grating spectrometer.
##STATE=SOLID (0.7 mg / 300 mg CsI PELLET)
##SAMPLING PROCEDURE=TRANSMISSION
##RESOLUTION=4
##DATA PROCESSING=DIGITIZED BY NIST FROM HARD COPY (FROM TWO SEGMENTS)
##XUNITS=1/CM
##YUNITS=TRANSMITTANCE
##XFACTOR=1.000000
##YFACTOR=1
##DELTAX=1.330378
##FIRSTX=201.33
##LASTX=3986.26
##FIRSTY=0.648
##MAXX=3986.26
##MINX=201.33
##MAXY=0.966
##MINY=0.0640007
##NPOINTS=2846
##XYDATA=(X++(Y..Y))
201.330000 0.6480 0.6480 0.6480 0.6480 0.6470
207.981892 0.6470 0.6480 0.6480 0.6500 0.6540
214.633785 0.6580 0.6600 0.6640 0.6670 0.6700
221.285677 0.6710 0.6750 0.6800 0.6899 0.6940
227.937570 0.7020 0.7100 0.7180 0.7250 0.7340
234.589462 0.7430 0.7520 0.7560 0.7610 0.7650
241.241355 0.7690 0.7730 0.7800 0.7840 0.7900
247.893247 0.7900 0.7930 0.7960 0.8010 0.8010
254.545140 0.8040 0.8060 0.8100 0.8120 0.8130
261.197032 0.8160 0.8200 0.8210 0.8230 0.8230
267.848925 0.8270 0.8280 0.8280 0.8270 0.8250
274.500817 0.8240 0.8230 0.8200 0.8170 0.8160
281.152710 0.8150 0.8130 0.8120 0.8120 0.8100
287.804602 0.8060 0.8050 0.8050 0.8040 0.8000
294.456495 0.7980 0.7970 0.7930 0.7900 0.7900
301.108387 0.7880 0.7880 0.7850 0.7840 0.7840
307.760279 0.7820 0.7810 0.7810 0.7820 0.7820
314.412172 0.7840 0.7850 0.7860 0.7890 0.7900
321.064064 0.7920 0.7930 0.7940 0.8000 0.8000
327.715957 0.8010 0.8010 0.8020 0.8020 0.8040
334.367849 0.8080 0.8100 0.8100 0.8120 0.8120
341.019742 0.8130 0.8130 0.8160 0.8160 0.8160
347.671634 0.8150 0.8120 0.8100 0.8090 0.8080
354.323527 0.8080 0.8080 0.8080 0.8090 0.8090
360.975419 0.8100 0.8100 0.8130 0.8130 0.8130
367.627312 0.8100 0.8100 0.8090 0.8060 0.8040
374.279204 0.8020 0.8010 0.8000 0.7920 0.7850
380.931097 0.7810 0.7651 0.7431 0.7211 0.7061
387.582989 0.7050 0.7050 0.7060 0.7110 0.7130
394.234882 0.7180 0.7220 0.7300 0.7340 0.7370
400.886774 0.7370 0.7420 0.7470 0.7520 0.7560
407.538667 0.7570 0.7600 0.7640 0.7690 0.7720
414.190559 0.7760 0.7800 0.7820 0.7850 0.7880
420.842451 0.7890 0.7890 0.7900 0.7900 0.7900
427.494344 0.7900 0.7920 0.7920 0.7920 0.7930
434.146236 0.8000 0.8020 0.8080 0.8100 0.8130
440.798129 0.8170 0.8210 0.8250 0.8310 0.8360
447.450021 0.8410 0.8510 0.8530 0.8570 0.8600
454.101914 0.8650 0.8680 0.8710 0.8730 0.8760
460.753806 0.8800 0.8830 0.8840 0.8870 0.8880
467.405699 0.8900 0.8910 0.8920 0.8950 0.8960
474.057591 0.8990 0.9000 0.9020 0.9020 0.9030
480.709484 0.9030 0.9060 0.9070 0.9080 0.9100
487.361376 0.9110 0.9120 0.9120 0.9120 0.9120
494.013269 0.9140 0.9140 0.9140 0.9140 0.9140
500.665161 0.9140 0.9140 0.9140 0.9150 0.9160
507.317054 0.9160 0.9180 0.9180 0.9190 0.9190
513.968946 0.9200 0.9220 0.9230 0.9230 0.9240
520.620838 0.9260 0.9260 0.9270 0.9280 0.9300
527.272731 0.9320 0.9320 0.9320 0.9320 0.9340
533.924623 0.9350 0.9350 0.9350 0.9350 0.9350
540.576516 0.9360 0.9360 0.9350 0.9350 0.9360
547.228408 0.9360 0.9380 0.9410 0.9410 0.9410
553.880301 0.9420 0.9430 0.9430 0.9430 0.9450
560.532193 0.9450 0.9450 0.9460 0.9470 0.9500
567.184086 0.9510 0.9510 0.9510 0.9490 0.9490
573.835978 0.9490 0.9500 0.9510 0.9510 0.9530
580.487871 0.9540 0.9540 0.9540 0.9550 0.9570
587.139763 0.9570 0.9580 0.9590 0.9590 0.9590
593.791656 0.9610 0.9610 0.9590 0.9590 0.9610
600.443548 0.9610 0.9620 0.9630 0.9630 0.9630
607.095441 0.9630 0.9630 0.9630 0.9630 0.9630
613.747333 0.9630 0.9630 0.9630 0.9630 0.9620
620.399225 0.9620 0.9620 0.9620 0.9620 0.9620
627.051118 0.9620 0.9630 0.9630 0.9650 0.9650
633.703010 0.9660 0.9660 0.9660 0.9660 0.9660
640.354903 0.9650 0.9650 0.9630 0.9630 0.9630
647.006795 0.9630 0.9630 0.9630 0.9650 0.9660
653.658688 0.9660 0.9650 0.9590 0.9550 0.9510
660.310580 0.9510 0.9470 0.9470 0.9430 0.9420
666.962473 0.9420 0.9420 0.9410 0.9390 0.9360
673.614365 0.9360 0.9340 0.9320 0.9320 0.9320
680.266258 0.9320 0.9310 0.9310 0.9260 0.9240
686.918150 0.9220 0.9160 0.9150 0.9120 0.9110
693.570043 0.9080 0.8980 0.8950 0.8860 0.8820
700.221935 0.8760 0.8720 0.8601 0.8451 0.8390
706.873828 0.8330 0.8230 0.8090 0.8060 0.8010
713.525720 0.7920 0.7801 0.7760 0.7720 0.7680
720.177613 0.7660 0.7660 0.7680 0.7690 0.7720
726.829505 0.7730 0.7760 0.7810 0.7860 0.7940
733.481397 0.8020 0.8060 0.8090 0.8100 0.8120
740.133290 0.8160 0.8210 0.8210 0.8230 0.8230
746.785182 0.8230 0.8230 0.8230 0.8210 0.8150
753.437075 0.8090 0.8060 0.8020 0.7940 0.7880
760.088967 0.7820 0.7760 0.7720 0.7640 0.7560
766.740860 0.7500 0.7331 0.7231 0.7180 0.7051
773.392752 0.6930 0.6830 0.6630 0.6540 0.6500
780.044645 0.6341 0.6151 0.5971 0.5731 0.5641
786.696537 0.5500 0.5290 0.5020 0.4900 0.4661
793.348430 0.4241 0.4021 0.3821 0.3611 0.3431
800.000322 0.3250 0.3060 0.2890 0.2740 0.2600
806.652215 0.2490 0.2390 0.2340 0.2300 0.2270
813.304107 0.2250 0.2230 0.2230 0.2230 0.2250
819.956000 0.2330 0.2489 0.2719 0.2819 0.2999
826.607892 0.3130 0.3290 0.3400 0.3719 0.3959
833.259784 0.4139 0.4240 0.4339 0.4539 0.4788
839.911677 0.4930 0.5020 0.5300 0.5450 0.5500
846.563569 0.5560 0.5650 0.5710 0.5809 0.5909
853.215462 0.5960 0.5990 0.6000 0.5990 0.5960
859.867354 0.5920 0.5830 0.5711 0.5491 0.5212
866.519247 0.5020 0.4770 0.4221 0.3651 0.2723
873.171139 0.2451 0.1484 0.1092 0.0891 0.0761
879.823032 0.0650 0.0640 0.0650 0.0690 0.0730
886.474924 0.0790 0.0840 0.0910 0.1009 0.1089
893.126817 0.1190 0.1240 0.1310 0.1400 0.1590
899.778709 0.1750 0.1949 0.2059 0.2150 0.2309
906.430602 0.2520 0.2720 0.2900 0.3130 0.3349
913.082494 0.3529 0.3879 0.4099 0.4229 0.4300
919.734387 0.4360 0.4530 0.4710 0.4830 0.4860
926.386279 0.4980 0.5040 0.5080 0.5100 0.5100
933.038171 0.5060 0.5010 0.4900 0.4730 0.4261
939.690064 0.4101 0.3761 0.3432 0.3102 0.2891
946.341956 0.2560 0.2250 0.1820 0.1560 0.1480
952.993849 0.1301 0.1230 0.1230 0.1300 0.1896
959.645741 0.2210 0.2500 0.3099 0.3749 0.4159
966.297634 0.4569 0.5606 0.6108 0.6389 0.6668
972.949526 0.7210 0.7520 0.7820 0.8060 0.8250
979.601419 0.8409 0.8490 0.8709 0.8800 0.8899
986.253311 0.8910 0.8950 0.8960 0.8990 0.9020
992.905204 0.9020 0.9040 0.9060 0.9080 0.9080
999.557096 0.9100 0.9110 0.9110 0.9120 0.9120
1006.208989 0.9110 0.9110 0.9110 0.9110 0.9110
1012.860881 0.9110 0.9110 0.9110 0.9100 0.9080
1019.512774 0.9080 0.9080 0.9070 0.9070 0.9060
1026.164666 0.9060 0.9040 0.9040 0.9030 0.9030
1032.816558 0.9020 0.9020 0.9000 0.8990 0.8990
1039.468451 0.8980 0.8980 0.8960 0.8950 0.8940
1046.120343 0.8940 0.8920 0.8920 0.8910 0.8910
1052.772236 0.8900 0.8880 0.8870 0.8870 0.8860
1059.424128 0.8840 0.8840 0.8830 0.8830 0.8820
1066.076021 0.8820 0.8820 0.8800 0.8800 0.8800
1072.727913 0.8800 0.8790 0.8790 0.8790 0.8790
1079.379806 0.8790 0.8790 0.8790 0.8800 0.8800
1086.031698 0.8800 0.8800 0.8800 0.8820 0.8820
1092.683591 0.8820 0.8820 0.8830 0.8830 0.8830
1099.335483 0.8840 0.8840 0.8840 0.8860 0.8870
1105.987376 0.8880 0.8880 0.8880 0.8880 0.8900
1112.639268 0.8900 0.8910 0.8910 0.8920 0.8920
1119.291161 0.8920 0.8920 0.8940 0.8950 0.8960
1125.943053 0.8960 0.8980 0.8980 0.8980 0.8980
1132.594946 0.8980 0.8990 0.9000 0.9000 0.9020
1139.246838 0.9020 0.9020 0.9020 0.9030 0.9030
1145.898730 0.9040 0.9060 0.9070 0.9080 0.9080
1152.550623 0.9080 0.9100 0.9100 0.9100 0.9110
1159.202515 0.9110 0.9110 0.9110 0.9110 0.9110
1165.854408 0.9110 0.9110 0.9110 0.9110 0.9110
1172.506300 0.9120 0.9140 0.9140 0.9140 0.9140
1179.158193 0.9150 0.9150 0.9140 0.9140 0.9150
1185.810085 0.9160 0.9180 0.9180 0.9180 0.9190
1192.461978 0.9190 0.9200 0.9200 0.9200 0.9200
1199.113870 0.9200 0.9220 0.9220 0.9220 0.9240
1205.765763 0.9240 0.9240 0.9230 0.9230 0.9230
1212.417655 0.9230 0.9230 0.9240 0.9260 0.9260
1219.069548 0.9240 0.9240 0.9240 0.9260 0.9260
1225.721440 0.9260 0.9260 0.9260 0.9260 0.9240
1232.373333 0.9240 0.9230 0.9230 0.9240 0.9260
1239.025225 0.9260 0.9260 0.9260 0.9240 0.9240
1245.677117 0.9260 0.9260 0.9260 0.9270 0.9280
1252.329010 0.9280 0.9270 0.9270 0.9270 0.9270
1258.980902 0.9260 0.9260 0.9260 0.9240 0.9240
1265.632795 0.9240 0.9260 0.9260 0.9260 0.9270
1272.284687 0.9280 0.9280 0.9270 0.9270 0.9270
1278.936580 0.9270 0.9270 0.9280 0.9280 0.9260
1285.588472 0.9240 0.9240 0.9240 0.9240 0.9240
1292.240365 0.9260 0.9260 0.9270 0.9270 0.9270
1298.892257 0.9270 0.9270 0.9270 0.9270 0.9270
1305.544150 0.9270 0.9270 0.9260 0.9240 0.9240
1312.196042 0.9240 0.9270 0.9270 0.9240 0.9240
1318.847935 0.9240 0.9240 0.9240 0.9240 0.9240
1325.499827 0.9240 0.9240 0.9240 0.9240 0.9240
1332.151720 0.9240 0.9230 0.9220 0.9220 0.9230
1338.803612 0.9230 0.9220 0.9220 0.9220 0.9220
1345.455504 0.9230 0.9230 0.9230 0.9220 0.9190
1352.107397 0.9190 0.9190 0.9200 0.9200 0.9220
1358.759289 0.9220 0.9220 0.9220 0.9220 0.9180
1365.411182 0.9180 0.9180 0.9180 0.9180 0.9180
1372.063074 0.9180 0.9180 0.9180 0.9160 0.9160
1378.714967 0.9160 0.9160 0.9160 0.9160 0.9160
1385.366859 0.9160 0.9160 0.9160 0.9160 0.9180
1392.018752 0.9180 0.9160 0.9160 0.9150 0.9150
1398.670644 0.9150 0.9150 0.9150 0.9150 0.9150
1405.322537 0.9150 0.9140 0.9140 0.9140 0.9140
1411.974429 0.9140 0.9150 0.9150 0.9150 0.9150
1418.626322 0.9150 0.9160 0.9150 0.9150 0.9140
1425.278214 0.9140 0.9140 0.9140 0.9140 0.9140
1431.930107 0.9140 0.9140 0.9150 0.9160 0.9160
1438.581999 0.9160 0.9160 0.9160 0.9160 0.9160
1445.233892 0.9180 0.9180 0.9190 0.9190 0.9190
1451.885784 0.9190 0.9190 0.9180 0.9160 0.9160
1458.537676 0.9160 0.9160 0.9160 0.9160 0.9160
1465.189569 0.9180 0.9180 0.9180 0.9180 0.9180
1471.841461 0.9180 0.9190 0.9180 0.9190 0.9190
1478.493354 0.9190 0.9190 0.9200 0.9200 0.9220
1485.145246 0.9200 0.9200 0.9200 0.9200 0.9200
1491.797139 0.9200 0.9200 0.9200 0.9200 0.9200
1498.449031 0.9200 0.9200 0.9190 0.9220 0.9200
1505.100924 0.9190 0.9190 0.9190 0.9190 0.9190
1511.752816 0.9190 0.9180 0.9160 0.9150 0.9140
1518.404709 0.9140 0.9140 0.9140 0.9140 0.9120
1525.056601 0.9110 0.9110 0.9110 0.9110 0.9110
1531.708494 0.9110 0.9110 0.9100 0.9100 0.9100
1538.360386 0.9100 0.9100 0.9080 0.9060 0.9040
1545.012279 0.9030 0.9030 0.9030 0.9020 0.9020
1551.664171 0.9020 0.8990 0.8980 0.8960 0.8950
1558.316063 0.8920 0.8920 0.8910 0.8910 0.8880
1564.967956 0.8870 0.8870 0.8870 0.8860 0.8840
1571.619848 0.8840 0.8830 0.8820 0.8820 0.8800
1578.271741 0.8790 0.8790 0.8790 0.8780 0.8760
1584.923633 0.8750 0.8710 0.8710 0.8680 0.8650
1591.575526 0.8630 0.8610 0.8570 0.8530 0.8520
1598.227418 0.8510 0.8480 0.8470 0.8410 0.8360
1604.879311 0.8320 0.8280 0.8240 0.8210 0.8190
1611.531203 0.8170 0.8160 0.8120 0.8090 0.8080
1618.183096 0.8080 0.8080 0.8090 0.8090 0.8100
1624.834988 0.8120 0.8130 0.8160 0.8170 0.8210
1631.486881 0.8240 0.8310 0.8320 0.8330 0.8360
1638.138773 0.8410 0.8470 0.8510 0.8520 0.8530
1644.790666 0.8550 0.8590 0.8610 0.8640 0.8650
1651.442558 0.8680 0.8690 0.8690 0.8710 0.8710
1658.094450 0.8720 0.8720 0.8720 0.8720 0.8720
1664.746343 0.8730 0.8750 0.8790 0.8820 0.8820
1671.398235 0.8820 0.8820 0.8820 0.8830 0.8830
1678.050128 0.8830 0.8840 0.8860 0.8870 0.8880
1684.702020 0.8910 0.8910 0.8910 0.8910 0.8920
1691.353913 0.8920 0.8940 0.8950 0.8960 0.8960
1698.005805 0.8980 0.8980 0.8980 0.8980 0.8980
1704.657698 0.8980 0.8990 0.8990 0.8990 0.8990
1711.309590 0.9000 0.9000 0.9000 0.9000 0.9000
1717.961483 0.9000 0.9000 0.9000 0.9000 0.9000
1724.613375 0.9000 0.9000 0.8990 0.8990 0.8990
1731.265268 0.8990 0.9000 0.9000 0.9000 0.9000
1737.917160 0.9000 0.9000 0.9000 0.9000 0.9000
1744.569053 0.9020 0.9020 0.9020 0.9020 0.9020
1751.220945 0.9020 0.9020 0.9020 0.9030 0.9030
1757.872838 0.9030 0.9030 0.9030 0.9030 0.9030
1764.524730 0.9030 0.9030 0.9030 0.9030 0.9030
1771.176622 0.9020 0.9020 0.9020 0.9030 0.9030
1777.828515 0.9030 0.9030 0.9030 0.9030 0.9030
1784.480407 0.9030 0.9030 0.9020 0.9020 0.9020
1791.132300 0.9020 0.9020 0.9020 0.9020 0.9020
1797.784192 0.9020 0.9020 0.9020 0.9020 0.9020
1804.436085 0.9030 0.9030 0.9030 0.9030 0.9030
1811.087977 0.9030 0.9020 0.9020 0.9020 0.9020
1817.739870 0.9020 0.9000 0.9000 0.9000 0.9000
1824.391762 0.9000 0.9000 0.9000 0.9000 0.9000
1831.043655 0.9020 0.9020 0.9020 0.9020 0.9020
1837.695547 0.9020 0.9020 0.9020 0.9020 0.9020
1844.347440 0.9020 0.9020 0.9020 0.9020 0.9030
1850.999332 0.9030 0.9020 0.9020 0.9020 0.9020
1857.651225 0.9020 0.9020 0.9020 0.9020 0.9020
1864.303117 0.9000 0.9020 0.9020 0.9020 0.9020
1870.955009 0.9020 0.9020 0.8990 0.8990 0.8990
1877.606902 0.9000 0.9000 0.9000 0.9000 0.9000
1884.258794 0.9000 0.9000 0.9020 0.9020 0.9020
1890.910687 0.9020 0.9020 0.9020 0.9020 0.9020
1897.562579 0.9020 0.9030 0.9040 0.9040 0.9040
1904.214472 0.9040 0.9040 0.9040 0.9040 0.9030
1910.866364 0.9030 0.9030 0.9030 0.9020 0.9020
1917.518257 0.9020 0.9030 0.9030 0.9030 0.9030
1924.170149 0.9030 0.9040 0.9060 0.9040 0.9060
1930.822042 0.9060 0.9060 0.9060 0.9060 0.9070
1937.473934 0.9070 0.9070 0.9070 0.9080 0.9080
1944.125827 0.9080 0.9080 0.9080 0.9080 0.9080
1950.777719 0.9080 0.9080 0.9080 0.9080 0.9070
1957.429612 0.9070 0.9080 0.9070 0.9070 0.9070
1964.081504 0.9080 0.9080 0.9080 0.9080 0.9080
1970.733396 0.9100 0.9100 0.9100 0.9100 0.9100
1977.385289 0.9100 0.9100 0.9110 0.9110 0.9120
1984.037181 0.9120 0.9120 0.9120 0.9120 0.9120
1990.689074 0.9120 0.9120 0.9140 0.9140 0.9120
1997.340966 0.9120 0.9120 0.9120 0.9120 0.9120
2003.992859 0.9120 0.9120 0.9130 0.9140 0.9145
2010.644751 0.9150 0.9150 0.9150 0.9150 0.9150
2017.296644 0.9145 0.9140 0.9140 0.9140 0.9140
2023.948536 0.9140 0.9130 0.9120 0.9120 0.9120
2030.600429 0.9130 0.9140 0.9140 0.9140 0.9145
2037.252321 0.9150 0.9155 0.9160 0.9160 0.9160
2043.904214 0.9160 0.9160 0.9170 0.9180 0.9180
2050.556106 0.9180 0.9180 0.9180 0.9180 0.9180
2057.207999 0.9185 0.9190 0.9185 0.9180 0.9180
2063.859891 0.9180 0.9180 0.9180 0.9180 0.9180
2070.511784 0.9180 0.9180 0.9180 0.9180 0.9185
2077.163676 0.9190 0.9190 0.9190 0.9190 0.9190
2083.815568 0.9190 0.9190 0.9190 0.9190 0.9190
2090.467461 0.9190 0.9190 0.9190 0.9190 0.9190
2097.119353 0.9195 0.9200 0.9200 0.9200 0.9210
2103.771246 0.9220 0.9220 0.9220 0.9220 0.9220
2110.423138 0.9220 0.9220 0.9220 0.9220 0.9225
2117.075031 0.9230 0.9230 0.9230 0.9230 0.9230
2123.726923 0.9225 0.9220 0.9220 0.9220 0.9220
2130.378816 0.9220 0.9210 0.9200 0.9200 0.9200
2137.030708 0.9200 0.9200 0.9195 0.9190 0.9190
2143.682601 0.9190 0.9190 0.9190 0.9190 0.9190
2150.334493 0.9185 0.9180 0.9180 0.9180 0.9180
2156.986386 0.9180 0.9180 0.9180 0.9180 0.9180
2163.638278 0.9180 0.9179 0.9164 0.9150 0.9150
2170.290171 0.9150 0.9155 0.9160 0.9160 0.9160
2176.942063 0.9160 0.9160 0.9160 0.9160 0.9160
2183.593955 0.9160 0.9160 0.9160 0.9155 0.9150
2190.245848 0.9150 0.9150 0.9155 0.9160 0.9160
2196.897740 0.9160 0.9160 0.9160 0.9160 0.9160
2203.549633 0.9160 0.9160 0.9155 0.9150 0.9150
2210.201525 0.9150 0.9145 0.9140 0.9140 0.9140
2216.853418 0.9140 0.9139 0.9129 0.9120 0.9120
2223.505310 0.9120 0.9120 0.9120 0.9115 0.9110
2230.157203 0.9110 0.9110 0.9110 0.9110 0.9110
2236.809095 0.9110 0.9110 0.9110 0.9110 0.9110
2243.460988 0.9110 0.9110 0.9110 0.9110 0.9110
2250.112880 0.9110 0.9115 0.9120 0.9115 0.9110
2256.764773 0.9110 0.9110 0.9110 0.9110 0.9110
2263.416665 0.9110 0.9110 0.9110 0.9105 0.9100
2270.068558 0.9105 0.9110 0.9105 0.9100 0.9100
2276.720450 0.9099 0.9089 0.9080 0.9080 0.9080
2283.372342 0.9080 0.9080 0.9080 0.9080 0.9075
2290.024235 0.9070 0.9070 0.9070 0.9070 0.9070
2296.676127 0.9070 0.9070 0.9065 0.9059 0.9049
2303.328020 0.9040 0.9040 0.9040 0.9040 0.9040
2309.979912 0.9040 0.9040 0.9040 0.9040 0.9040
2316.631805 0.9040 0.9040 0.9040 0.9040 0.9040
2323.283697 0.9040 0.9040 0.9040 0.9039 0.9034
2329.935590 0.9030 0.9030 0.9030 0.9030 0.9030
2336.587482 0.9025 0.9020 0.9020 0.9018 0.8998
2343.239375 0.8980 0.8980 0.8980 0.8980 0.8981
2349.891267 0.8986 0.8990 0.8990 0.8991 0.8996
2356.543160 0.9000 0.9000 0.9000 0.9000 0.9000
2363.195052 0.9000 0.9000 0.9000 0.8999 0.8994
2369.846945 0.8990 0.8990 0.8990 0.8990 0.8991
2376.498837 0.8996 0.9000 0.9000 0.9000 0.9000
2383.150729 0.8999 0.8994 0.8990 0.8990 0.8990
2389.802622 0.8990 0.8990 0.8990 0.8990 0.8990
2396.454514 0.8989 0.8984 0.8979 0.8969 0.8960
2403.106407 0.8960 0.8959 0.8954 0.8950 0.8950
2409.758299 0.8950 0.8950 0.8949 0.8944 0.8940
2416.410192 0.8940 0.8940 0.8940 0.8940 0.8940
2423.062084 0.8939 0.8929 0.8919 0.8914 0.8910
2429.713977 0.8910 0.8910 0.8910 0.8910 0.8910
2436.365869 0.8909 0.8904 0.8900 0.8900 0.8900
2443.017762 0.8900 0.8900 0.8900 0.8900 0.8900
2449.669654 0.8899 0.8889 0.8880 0.8880 0.8879
2456.321547 0.8874 0.8870 0.8870 0.8870 0.8870
2462.973439 0.8869 0.8864 0.8859 0.8849 0.8839
2469.625332 0.8834 0.8828 0.8813 0.8800 0.8800
2476.277224 0.8799 0.8794 0.8790 0.8790 0.8790
2482.929117 0.8790 0.8790 0.8790 0.8790 0.8790
2489.581009 0.8790 0.8790 0.8790 0.8790 0.8790
2496.232901 0.8790 0.8790 0.8790 0.8790 0.8790
2502.884794 0.8789 0.8784 0.8778 0.8768 0.8759
2509.536686 0.8754 0.8750 0.8750 0.8750 0.8750
2516.188579 0.8750 0.8750 0.8748 0.8738 0.8730
2522.840471 0.8730 0.8730 0.8730 0.8729 0.8724
2529.492364 0.8720 0.8720 0.8719 0.8714 0.8710
2536.144256 0.8710 0.8708 0.8698 0.8690 0.8690
2542.796149 0.8690 0.8690 0.8690 0.8690 0.8689
2549.448041 0.8684 0.8680 0.8680 0.8679 0.8674
2556.099934 0.8668 0.8658 0.8650 0.8650 0.8650
2562.751826 0.8650 0.8649 0.8644 0.8640 0.8640
2569.403719 0.8640 0.8640 0.8639 0.8634 0.8631
2576.055611 0.8636 0.8640 0.8640 0.8639 0.8634
2582.707504 0.8628 0.8618 0.8610 0.8610 0.8610
2589.359396 0.8610 0.8610 0.8610 0.8610 0.8610
2596.011288 0.8610 0.8610 0.8610 0.8610 0.8609
2602.663181 0.8604 0.8600 0.8600 0.8600 0.8600
2609.315073 0.8600 0.8600 0.8601 0.8606 0.8610
2615.966966 0.8610 0.8610 0.8610 0.8610 0.8610
2622.618858 0.8610 0.8610 0.8609 0.8604 0.8600
2629.270751 0.8600 0.8600 0.8600 0.8600 0.8600
2635.922643 0.8600 0.8600 0.8600 0.8600 0.8600
2642.574536 0.8600 0.8600 0.8600 0.8600 0.8600
2649.226428 0.8600 0.8600 0.8600 0.8600 0.8600
2655.878321 0.8600 0.8599 0.8594 0.8590 0.8590
2662.530213 0.8590 0.8590 0.8588 0.8578 0.8570
2669.182106 0.8570 0.8569 0.8564 0.8559 0.8554
2675.833998 0.8550 0.8550 0.8550 0.8550 0.8548
2682.485891 0.8538 0.8530 0.8530 0.8530 0.8530
2689.137783 0.8530 0.8530 0.8529 0.8524 0.8520
2695.789675 0.8520 0.8520 0.8520 0.8520 0.8520
2702.441568 0.8520 0.8520 0.8520 0.8520 0.8520
2709.093460 0.8520 0.8520 0.8520 0.8520 0.8520
2715.745353 0.8520 0.8520 0.8520 0.8520 0.8520
2722.397245 0.8520 0.8521 0.8526 0.8530 0.8530
2729.049138 0.8530 0.8530 0.8529 0.8524 0.8520
2735.701030 0.8520 0.8520 0.8520 0.8520 0.8520
2742.352923 0.8519 0.8514 0.8510 0.8510 0.8510
2749.004815 0.8510 0.8510 0.8510 0.8510 0.8510
2755.656708 0.8508 0.8498 0.8490 0.8490 0.8492
2762.308600 0.8502 0.8510 0.8510 0.8510 0.8510
2768.960493 0.8510 0.8510 0.8510 0.8510 0.8510
2775.612385 0.8510 0.8507 0.8497 0.8490 0.8490
2782.264278 0.8490 0.8490 0.8490 0.8490 0.8490
2788.916170 0.8490 0.8492 0.8502 0.8510 0.8510
2795.568063 0.8510 0.8510 0.8507 0.8497 0.8490
2802.219955 0.8490 0.8490 0.8490 0.8490 0.8490
2808.871847 0.8489 0.8484 0.8480 0.8480 0.8480
2815.523740 0.8480 0.8479 0.8474 0.8467 0.8457
2822.175632 0.8449 0.8444 0.8439 0.8434 0.8430
2828.827525 0.8430 0.8430 0.8430 0.8427 0.8417
2835.479417 0.8410 0.8410 0.8410 0.8410 0.8409
2842.131310 0.8404 0.8400 0.8400 0.8395 0.8375
2848.783202 0.8360 0.8360 0.8360 0.8360 0.8359
2855.435095 0.8354 0.8350 0.8350 0.8347 0.8337
2862.086987 0.8329 0.8324 0.8320 0.8320 0.8320
2868.738880 0.8320 0.8320 0.8320 0.8320 0.8320
2875.390772 0.8319 0.8314 0.8310 0.8310 0.8311
2882.042665 0.8316 0.8320 0.8320 0.8320 0.8320
2888.694557 0.8319 0.8314 0.8310 0.8310 0.8310
2895.346450 0.8310 0.8310 0.8310 0.8307 0.8297
2901.998342 0.8289 0.8284 0.8278 0.8273 0.8265
2908.650234 0.8250 0.8239 0.8234 0.8230 0.8230
2915.302127 0.8230 0.8230 0.8230 0.8230 0.8227
2921.954019 0.8217 0.8204 0.8184 0.8169 0.8164
2928.605912 0.8159 0.8153 0.8145 0.8130 0.8120
2935.257804 0.8120 0.8117 0.8107 0.8100 0.8100
2941.909697 0.8100 0.8100 0.8100 0.8100 0.8100
2948.561589 0.8100 0.8103 0.8113 0.8120 0.8120
2955.213482 0.8120 0.8120 0.8117 0.8107 0.8100
2961.865374 0.8100 0.8100 0.8100 0.8100 0.8100
2968.517267 0.8098 0.8093 0.8090 0.8090 0.8090
2975.169159 0.8090 0.8090 0.8090 0.8090 0.8090
2981.821052 0.8088 0.8083 0.8077 0.8067 0.8060
2988.472944 0.8060 0.8060 0.8060 0.8060 0.8060
2995.124837 0.8060 0.8060 0.8058 0.8053 0.8050
3001.776729 0.8050 0.8050 0.8050 0.8048 0.8043
3008.428621 0.8040 0.8040 0.8037 0.8027 0.8020
3015.080514 0.8020 0.8018 0.8013 0.8008 0.8003
3021.732406 0.7997 0.7987 0.7980 0.7980 0.7978
3028.384299 0.7973 0.7968 0.7963 0.7957 0.7947
3035.036191 0.7937 0.7927 0.7917 0.7907 0.7897
3041.688084 0.7887 0.7877 0.7867 0.7858 0.7853
3048.339976 0.7850 0.7850 0.7848 0.7843 0.7840
3054.991869 0.7840 0.7840 0.7840 0.7837 0.7827
3061.643761 0.7818 0.7813 0.7803 0.7783 0.7768
3068.295654 0.7763 0.7756 0.7746 0.7738 0.7733
3074.947546 0.7730 0.7730 0.7728 0.7723 0.7717
3081.599439 0.7707 0.7698 0.7693 0.7688 0.7683
3088.251331 0.7677 0.7666 0.7656 0.7646 0.7636
3094.903224 0.7626 0.7618 0.7613 0.7605 0.7590
3101.555116 0.7573 0.7553 0.7538 0.7533 0.7528
3108.207009 0.7523 0.7516 0.7506 0.7495 0.7480
3114.858901 0.7468 0.7463 0.7460 0.7460 0.7454
3121.510793 0.7439 0.7426 0.7416 0.7406 0.7396
3128.162686 0.7390 0.7390 0.7386 0.7376 0.7366
3134.814578 0.7356 0.7346 0.7336 0.7326 0.7316
3141.466471 0.7306 0.7296 0.7286 0.7276 0.7268
3148.118363 0.7263 0.7258 0.7253 0.7244 0.7229
3154.770256 0.7218 0.7213 0.7206 0.7196 0.7188
3161.422148 0.7183 0.7171 0.7146 0.7123 0.7103
3168.074041 0.7084 0.7069 0.7054 0.7039 0.7026
3174.725933 0.7016 0.7004 0.6989 0.6978 0.6973
3181.377826 0.6962 0.6942 0.6922 0.6902 0.6884
3188.029718 0.6869 0.6852 0.6832 0.6816 0.6806
3194.681611 0.6798 0.6793 0.6788 0.6783 0.6772
3201.333503 0.6752 0.6734 0.6719 0.6700 0.6675
3207.985396 0.6654 0.6639 0.6628 0.6623 0.6616
3214.637288 0.6606 0.6598 0.6593 0.6588 0.6583
3221.289180 0.6572 0.6552 0.6536 0.6526 0.6518
3227.941073 0.6513 0.6508 0.6503 0.6492 0.6472
3234.592965 0.6456 0.6446 0.6438 0.6433 0.6428
3241.244858 0.6423 0.6416 0.6406 0.6398 0.6393
3247.896750 0.6382 0.6362 0.6348 0.6343 0.6336
3254.548643 0.6326 0.6318 0.6313 0.6308 0.6303
3261.200535 0.6300 0.6300 0.6296 0.6286 0.6280
3267.852428 0.6280 0.6280 0.6280 0.6278 0.6273
3274.504320 0.6270 0.6270 0.6268 0.6263 0.6256
3281.156213 0.6246 0.6238 0.6233 0.6226 0.6216
3287.808105 0.6210 0.6210 0.6210 0.6210 0.6208
3294.459998 0.6203 0.6200 0.6200 0.6194 0.6179
3301.111890 0.6170 0.6170 0.6166 0.6156 0.6150
3307.763783 0.6150 0.6150 0.6150 0.6146 0.6136
3314.415675 0.6130 0.6130 0.6130 0.6130 0.6130
3321.067567 0.6130 0.6130 0.6130 0.6128 0.6123
3327.719460 0.6120 0.6120 0.6120 0.6120 0.6120
3334.371352 0.6120 0.6118 0.6113 0.6110 0.6110
3341.023245 0.6106 0.6096 0.6090 0.6090 0.6086
3347.675137 0.6076 0.6066 0.6056 0.6046 0.6036
3354.327030 0.6026 0.6016 0.6008 0.6003 0.5993
3360.978922 0.5978 0.5968 0.5963 0.5951 0.5931
3367.630815 0.5918 0.5913 0.5906 0.5896 0.5886
3374.282707 0.5876 0.5863 0.5848 0.5833 0.5818
3380.934600 0.5799 0.5774 0.5758 0.5753 0.5743
3387.586492 0.5728 0.5713 0.5698 0.5690 0.5690
3394.238385 0.5681 0.5661 0.5645 0.5635 0.5616
3400.890277 0.5586 0.5559 0.5534 0.5513 0.5498
3407.542170 0.5479 0.5453 0.5433 0.5418 0.5408
3414.194062 0.5403 0.5381 0.5341 0.5313 0.5298
3420.845955 0.5281 0.5261 0.5241 0.5221 0.5194
3427.497847 0.5159 0.5135 0.5125 0.5097 0.5047
3434.149739 0.5015 0.5005 0.4983 0.4948 0.4920
3440.801632 0.4900 0.4873 0.4838 0.4810 0.4791
3447.453524 0.4768 0.4743 0.4723 0.4708 0.4693
3454.105417 0.4678 0.4668 0.4663 0.4658 0.4653
3460.757309 0.4652 0.4657 0.4667 0.4682 0.4695
3467.409202 0.4705 0.4720 0.4740 0.4765 0.4794
3474.061094 0.4832 0.4877 0.4917 0.4952 0.4987
3480.712987 0.5022 0.5059 0.5099 0.5144 0.5194
3487.364879 0.5246 0.5302 0.5347 0.5382 0.5425
3494.016772 0.5475 0.5515 0.5545 0.5577 0.5612
3500.668664 0.5652 0.5697 0.5732 0.5757 0.5785
3507.320557 0.5815 0.5845 0.5875 0.5905 0.5935
3513.972449 0.5970 0.6010 0.6043 0.6068 0.6093
3520.624342 0.6118 0.6145 0.6175 0.6200 0.6220
3527.276234 0.6248 0.6282 0.6310 0.6330 0.6345
3533.928126 0.6355 0.6370 0.6390 0.6420 0.6460
3540.580019 0.6487 0.6503 0.6523 0.6548 0.6575
3547.231911 0.6605 0.6625 0.6635 0.6648 0.6663
3553.883804 0.6678 0.6693 0.6710 0.6730 0.6750
3560.535696 0.6770 0.6785 0.6795 0.6810 0.6830
3567.187589 0.6855 0.6886 0.6903 0.6908 0.6920
3573.839481 0.6940 0.6966 0.6996 0.7015 0.7025
3580.491374 0.7040 0.7060 0.7075 0.7085 0.7100
3587.143266 0.7120 0.7135 0.7145 0.7155 0.7165
3593.795159 0.7180 0.7201 0.7215 0.7225 0.7259
3600.447051 0.7314 0.7343 0.7348 0.7358 0.7373
3607.098944 0.7388 0.7403 0.7410 0.7410 0.7410
3613.750836 0.7410 0.7413 0.7418 0.7420 0.7420
3620.402729 0.7430 0.7451 0.7463 0.7468 0.7478
3627.054621 0.7493 0.7505 0.7515 0.7525 0.7535
3633.706513 0.7548 0.7563 0.7573 0.7578 0.7585
3640.358406 0.7595 0.7603 0.7608 0.7618 0.7633
3647.010298 0.7643 0.7648 0.7653 0.7658 0.7665
3653.662191 0.7675 0.7683 0.7688 0.7693 0.7698
3660.314083 0.7705 0.7715 0.7720 0.7720 0.7720
3666.965976 0.7720 0.7720 0.7720 0.7720 0.7720
3673.617868 0.7715 0.7704 0.7700 0.7700 0.7700
3680.269761 0.7700 0.7700 0.7700 0.7700 0.7700
3686.921653 0.7700 0.7700 0.7700 0.7700 0.7700
3693.573546 0.7700 0.7700 0.7700 0.7700 0.7700
3700.225438 0.7700 0.7700 0.7700 0.7700 0.7697
3706.877331 0.7692 0.7690 0.7690 0.7690 0.7690
3713.529223 0.7690 0.7690 0.7690 0.7690 0.7687
3720.181116 0.7682 0.7680 0.7680 0.7680 0.7680
3726.833008 0.7680 0.7680 0.7674 0.7664 0.7660
3733.484900 0.7660 0.7660 0.7660 0.7660 0.7660
3740.136793 0.7657 0.7652 0.7650 0.7650 0.7650
3746.788685 0.7650 0.7650 0.7650 0.7647 0.7642
3753.440578 0.7634 0.7624 0.7620 0.7620 0.7617
3760.092470 0.7612 0.7610 0.7610 0.7610 0.7610
3766.744363 0.7610 0.7610 0.7610 0.7610 0.7610
3773.396255 0.7610 0.7610 0.7610 0.7610 0.7610
3780.048148 0.7610 0.7610 0.7607 0.7602 0.7600
3786.700040 0.7600 0.7600 0.7600 0.7600 0.7600
3793.351933 0.7594 0.7584 0.7580 0.7580 0.7580
3800.003825 0.7580 0.7580 0.7580 0.7580 0.7580
3806.655718 0.7577 0.7572 0.7570 0.7570 0.7567
3813.307610 0.7562 0.7560 0.7560 0.7551 0.7536
3819.959503 0.7530 0.7530 0.7527 0.7522 0.7520
3826.611395 0.7520 0.7520 0.7520 0.7520 0.7520
3833.263288 0.7514 0.7504 0.7500 0.7500 0.7500
3839.915180 0.7500 0.7500 0.7500 0.7500 0.7500
3846.567072 0.7500 0.7500 0.7497 0.7492 0.7490
3853.218965 0.7490 0.7490 0.7490 0.7490 0.7490
3859.870857 0.7490 0.7490 0.7484 0.7474 0.7470
3866.522750 0.7470 0.7467 0.7462 0.7460 0.7460
3873.174642 0.7457 0.7452 0.7444 0.7434 0.7430
3879.826535 0.7430 0.7430 0.7430 0.7427 0.7422
3886.478427 0.7420 0.7420 0.7420 0.7420 0.7420
3893.130320 0.7420 0.7417 0.7412 0.7410 0.7410
3899.782212 0.7410 0.7410 0.7404 0.7394 0.7387
3906.434105 0.7382 0.7380 0.7380 0.7380 0.7380
3913.085997 0.7380 0.7380 0.7380 0.7380 0.7380
3919.737890 0.7380 0.7380 0.7380 0.7377 0.7372
3926.389782 0.7370 0.7370 0.7364 0.7354 0.7347
3933.041675 0.7342 0.7337 0.7332 0.7330 0.7330
3939.693567 0.7330 0.7330 0.7324 0.7314 0.7310
3946.345459 0.7310 0.7316 0.7326 0.7330 0.7330
3952.997352 0.7324 0.7314 0.7310 0.7310 0.7316
3959.649244 0.7326 0.7330 0.7330 0.7324 0.7314
3966.301137 0.7310 0.7310 0.7310 0.7310 0.7307
3972.953029 0.7302 0.7300 0.7300 0.7300 0.7300
3979.604922 0.7297 0.7292 0.7290 0.7290 0.7284
3986.256814 0.7274
##END=
