##TITLE=4,5-DIHYDROXY-3-(p-NITROPHENYLAZO)-2,7-NAPHTHALENEDISULFONIC ACID, DISODIUM SALT
##JCAMP-DX=4.24
##DATA TYPE=INFRARED SPECTRUM
##CLASS=COBLENTZ
##ORIGIN=WYANDOTTE CHEMICALS CORP., WYANDOTTE, MICHIGAN, USA
##OWNER=COBLENTZ SOCIETY
Collection (C) 2018 copyright by the U.S. Secretary of Commerce
on behalf of the United States of America. All rights reserved.
##DATE=Not specified, most likely prior to 1970
##MOLFORM=C16 H9 N3 O10 S2 Na2
##SOURCE REFERENCE=COBLENTZ NO. 3788
##$NIST ID=B6003788
##$NIST SOURCE=COBLENTZ
##$NIST IMAGE=cob3788
##SPECTROMETER/DATA SYSTEM=Not specified, most likely a prism, grating, or hybrid spectrometer.
##STATE=SOLID (MINERAL OIL MULL)
##PATH LENGTH=
$$SPECTRAL CONTAMINATION DUE TO OIL AROUND 2900 CM^-^1
##SAMPLING PROCEDURE=TRANSMISSION
##RESOLUTION=4
##DATA PROCESSING=DIGITIZED BY NIST FROM HARD COPY
##XUNITS=MICROMETERS
##YUNITS=TRANSMITTANCE
##XFACTOR=1.000000
##YFACTOR=1
##DELTAX=000.006192
##FIRSTX=2.019
##LASTX=16.0057
##FIRSTY=0.26
##MAXX=16.0057
##MINX=2.019
##MAXY=0.951
##MINY=0.021
##NPOINTS=2260
##XYDATA=(X++(Y..Y))
2.019000 0.2600 0.2600 0.2600 0.2620 0.2620
2.049973 0.2650 0.2660 0.2660 0.2660 0.2660
2.080000 0.2650 0.2630 0.2620 0.2620 0.2630
2.110973 0.2650 0.2680 0.2690 0.2710 0.2710
2.142000 0.2710 0.2680 0.2660 0.2580 0.2580
2.172973 0.2540 0.2520 0.2520 0.2540 0.2550
2.204000 0.2570 0.2580 0.2600 0.2600 0.2600
2.234973 0.2600 0.2620 0.2630 0.2650 0.2650
2.266000 0.2650 0.2650 0.2660 0.2660 0.2680
2.296973 0.2690 0.2750 0.2790 0.2850 0.2890
2.328000 0.2890 0.2910 0.2910 0.2910 0.2890
2.358973 0.2890 0.2850 0.2830 0.2850 0.2890
2.390000 0.2960 0.3000 0.3030 0.3060 0.3060
2.420973 0.3080 0.3100 0.3110 0.3130 0.3140
2.452000 0.3160 0.3170 0.3170 0.3190 0.3190
2.482973 0.3200 0.3220 0.3240 0.3240 0.3250
2.514000 0.3270 0.3300 0.3330 0.3370 0.3420
2.544973 0.3450 0.3480 0.3500 0.3510 0.3530
2.576000 0.3550 0.3560 0.3560 0.3560 0.3510
2.606973 0.3500 0.3480 0.3480 0.3500 0.3560
2.638000 0.3620 0.3670 0.3670 0.3730 0.3760
2.668973 0.3790 0.3810 0.3840 0.3860 0.3860
2.700000 0.3840 0.3640 0.3560 0.3470 0.3360
2.730973 0.3220 0.3130 0.3020 0.2890 0.2740
2.762000 0.2650 0.2540 0.2510 0.2430 0.2370
2.792973 0.2340 0.2310 0.2270 0.2240 0.2180
2.824000 0.2150 0.2130 0.2100 0.2090 0.2060
2.854973 0.2030 0.2010 0.2000 0.1980 0.1950
2.885000 0.1890 0.1870 0.1840 0.1820 0.1820
2.915973 0.1840 0.1860 0.1890 0.1900 0.1920
2.947000 0.1930 0.1950 0.1980 0.2000 0.2010
2.977973 0.2030 0.2040 0.2070 0.2130 0.2200
3.009000 0.2310 0.2370 0.2410 0.2440 0.2490
3.039973 0.2540 0.2570 0.2620 0.2660 0.2680
3.071000 0.2690 0.2710 0.2740 0.2790 0.2800
3.101973 0.2820 0.2820 0.2850 0.2850 0.2860
3.133000 0.2860 0.2880 0.2890 0.2890 0.2890
3.163973 0.2910 0.2910 0.2940 0.2960 0.2960
3.195000 0.2910 0.2890 0.2860 0.2820 0.2740
3.225973 0.2710 0.2650 0.2540 0.2510 0.2490
3.257000 0.2510 0.2520 0.2550 0.2580 0.2600
3.287973 0.2620 0.2600 0.2440 0.2340 0.2180
3.319000 0.1890 0.1500 0.1190 0.0960 0.0680
3.349973 0.0410 0.0380 0.0260 0.0230 0.0230
3.381000 0.0210 0.0210 0.0210 0.0210 0.0210
3.411973 0.0210 0.0210 0.0230 0.0230 0.0240
3.443000 0.0240 0.0240 0.0260 0.0270 0.0270
3.473973 0.0290 0.0290 0.0290 0.0310 0.0340
3.505000 0.0380 0.0400 0.0600 0.0940 0.1390
3.535973 0.2130 0.2630 0.3000 0.3280 0.3480
3.567000 0.3780 0.3960 0.4100 0.4180 0.4240
3.597973 0.4290 0.4440 0.4570 0.4630 0.4650
3.628000 0.4710 0.4770 0.4690 0.4680 0.4650
3.658973 0.4630 0.4620 0.4620 0.4630 0.4630
3.690000 0.4680 0.4690 0.4710 0.4720 0.4740
3.720973 0.4790 0.4790 0.4740 0.4710 0.4710
3.752000 0.4690 0.4690 0.4710 0.4720 0.4740
3.782973 0.4770 0.4820 0.4880 0.4970 0.5100
3.814000 0.5140 0.5170 0.5190 0.5200 0.5200
3.844973 0.5220 0.5240 0.5250 0.5270 0.5280
3.876000 0.5310 0.5370 0.5440 0.5470 0.5480
3.906973 0.5550 0.5560 0.5560 0.5580 0.5590
3.938000 0.5590 0.5610 0.5620 0.5670 0.5700
3.968973 0.5720 0.5750 0.5780 0.5780 0.5780
4.000000 0.5780 0.5790 0.5790 0.5810 0.5860
4.030973 0.5870 0.5890 0.5900 0.5890 0.5840
4.062000 0.5810 0.5810 0.5820 0.5840 0.5870
4.092973 0.5920 0.5950 0.5930 0.5900 0.5860
4.124000 0.5790 0.5730 0.5730 0.5750 0.5790
4.154973 0.5810 0.5860 0.5890 0.5900 0.5900
4.186000 0.5920 0.5930 0.5950 0.5960 0.6000
4.216973 0.6010 0.6030 0.6000 0.5930 0.5900
4.248000 0.5890 0.5870 0.5870 0.5890 0.5900
4.278973 0.5960 0.6070 0.6200 0.6260 0.6270
4.310000 0.6310 0.6370 0.6410 0.6490 0.6520
4.340973 0.6570 0.6620 0.6690 0.6710 0.6720
4.372000 0.6750 0.6720 0.6720 0.6680 0.6620
4.402973 0.6550 0.6540 0.6510 0.6490 0.6490
4.433000 0.6510 0.6520 0.6540 0.6540 0.6540
4.463973 0.6550 0.6570 0.6600 0.6630 0.6680
4.495000 0.6690 0.6710 0.6720 0.6740 0.6750
4.525973 0.6750 0.6750 0.6770 0.6770 0.6770
4.557000 0.6790 0.6790 0.6800 0.6820 0.6820
4.587973 0.6830 0.6850 0.6860 0.6880 0.6910
4.619000 0.6930 0.6940 0.6970 0.6990 0.7000
4.649973 0.7030 0.7060 0.7080 0.7080 0.7100
4.681000 0.7110 0.7140 0.7170 0.7200 0.7220
4.711973 0.7270 0.7280 0.7280 0.7300 0.7310
4.743000 0.7310 0.7310 0.7310 0.7330 0.7330
4.773973 0.7330 0.7340 0.7340 0.7360 0.7370
4.805000 0.7410 0.7420 0.7440 0.7450 0.7480
4.835973 0.7500 0.7510 0.7550 0.7610 0.7620
4.867000 0.7640 0.7650 0.7670 0.7700 0.7730
4.897973 0.7750 0.7750 0.7750 0.7750 0.7730
4.929000 0.7720 0.7720 0.7720 0.7730 0.7780
4.959973 0.7810 0.7840 0.7860 0.7860 0.7840
4.991000 0.7820 0.7860 0.7920 0.8060 0.8060
5.021973 0.8060 0.8030 0.8010 0.8030 0.8070
5.053000 0.8090 0.8100 0.8120 0.8100 0.8070
5.083973 0.8070 0.8090 0.8100 0.8100 0.8120
5.115000 0.8120 0.8120 0.8130 0.8130 0.8170
5.145973 0.8180 0.8180 0.8200 0.8200 0.8200
5.176000 0.8210 0.8230 0.8230 0.8240 0.8260
5.206973 0.8270 0.8270 0.8270 0.8290 0.8290
5.238000 0.8320 0.8370 0.8440 0.8490 0.8600
5.268973 0.8630 0.8630 0.8600 0.8600 0.8600
5.300000 0.8600 0.8620 0.8680 0.8690 0.8720
5.330973 0.8740 0.8770 0.8770 0.8750 0.8740
5.362000 0.8720 0.8710 0.8720 0.8800 0.8860
5.392973 0.8930 0.8970 0.9020 0.9060 0.9030
5.424000 0.8970 0.8970 0.8990 0.9030 0.9080
5.454973 0.9050 0.9000 0.9050 0.9050 0.9060
5.486000 0.9080 0.9130 0.9140 0.9130 0.9110
5.516973 0.9020 0.8970 0.8940 0.8970 0.9000
5.548000 0.9030 0.9060 0.9060 0.9060 0.9050
5.578973 0.9030 0.9060 0.9110 0.9200 0.9200
5.610000 0.9220 0.9220 0.9220 0.9240 0.9240
5.640973 0.9240 0.9250 0.9310 0.9390 0.9370
5.672000 0.9370 0.9280 0.9220 0.9200 0.9190
5.702973 0.9160 0.9170 0.9220 0.9280 0.9330
5.734000 0.9370 0.9390 0.9390 0.9440 0.9500
5.764973 0.9510 0.9500 0.9410 0.9170 0.9100
5.796000 0.9110 0.9170 0.9340 0.9340 0.9280
5.826973 0.9190 0.9110 0.9080 0.9060 0.9080
5.858000 0.9130 0.9190 0.9250 0.9280 0.9050
5.888973 0.8970 0.8880 0.8790 0.8690 0.8600
5.920000 0.8680 0.8680 0.8540 0.8520 0.8380
5.950973 0.8210 0.8090 0.8010 0.8000 0.7760
5.981000 0.7650 0.7550 0.7420 0.7310 0.6990
6.011973 0.6970 0.6960 0.6960 0.6940 0.6930
6.043000 0.6860 0.6770 0.6720 0.6570 0.6460
6.073973 0.6430 0.6410 0.6270 0.5930 0.5720
6.105000 0.5590 0.5480 0.5470 0.5500 0.5590
6.135973 0.5720 0.5790 0.5810 0.5780 0.5580
6.167000 0.5330 0.4960 0.4740 0.4580 0.4400
6.197973 0.4100 0.3810 0.3300 0.3110 0.2580
6.229000 0.2440 0.2440 0.2690 0.3170 0.3300
6.259973 0.3500 0.3530 0.3580 0.3610 0.3680
6.291000 0.3790 0.4090 0.4930 0.5170 0.5500
6.321973 0.5790 0.6030 0.6060 0.6060 0.6070
6.353000 0.6100 0.6210 0.6400 0.6600 0.6820
6.383973 0.6890 0.6890 0.6860 0.6710 0.6710
6.415000 0.6650 0.6540 0.6480 0.6460 0.6490
6.445973 0.6550 0.6570 0.6570 0.6310 0.6180
6.477000 0.5820 0.5280 0.5190 0.4690 0.4310
6.507973 0.3890 0.3480 0.3080 0.2740 0.2400
6.539000 0.1950 0.1480 0.1190 0.0990 0.0800
6.569973 0.0720 0.0680 0.0650 0.0620 0.0620
6.601000 0.0600 0.0580 0.0580 0.0600 0.0600
6.631973 0.0620 0.0650 0.0740 0.0860 0.0960
6.663000 0.1050 0.1160 0.1280 0.1470 0.1680
6.693973 0.1870 0.1950 0.2010 0.2060 0.2060
6.724000 0.2060 0.2000 0.1900 0.1810 0.1750
6.754973 0.1680 0.1530 0.1200 0.0890 0.0740
6.786000 0.0720 0.0660 0.0580 0.0570 0.0580
6.816973 0.0630 0.0710 0.0800 0.0910 0.1000
6.848000 0.1050 0.1130 0.1240 0.1340 0.1470
6.878973 0.1580 0.1820 0.1930 0.2000 0.2100
6.910000 0.2240 0.2410 0.2600 0.2790 0.2960
6.940973 0.3110 0.3220 0.3330 0.3420 0.3470
6.972000 0.3530 0.3640 0.3730 0.3840 0.3900
7.002973 0.4060 0.4100 0.4060 0.4000 0.3900
7.034000 0.3730 0.3580 0.3440 0.3390 0.3240
7.064973 0.3140 0.3130 0.3140 0.3240 0.3420
7.096000 0.3870 0.4090 0.4310 0.4370 0.4480
7.126973 0.4790 0.5000 0.5190 0.5270 0.5280
7.158000 0.5270 0.5030 0.4910 0.4690 0.4520
7.188973 0.4030 0.3530 0.3110 0.2690 0.2520
7.220000 0.2270 0.2070 0.1890 0.1680 0.1670
7.250973 0.1680 0.1890 0.2090 0.2570 0.2970
7.282000 0.3160 0.3330 0.3510 0.3590 0.3720
7.312973 0.3890 0.4070 0.4480 0.4660 0.4660
7.344000 0.4570 0.4320 0.4180 0.3890 0.3480
7.374973 0.3190 0.2880 0.2480 0.2100 0.1780
7.406000 0.1500 0.1130 0.1020 0.0890 0.0740
7.436973 0.0680 0.0600 0.0600 0.0630 0.0690
7.467000 0.0720 0.0720 0.0710 0.0690 0.0710
7.497973 0.0740 0.0910 0.1030 0.1140 0.1270
7.529000 0.1420 0.1580 0.1730 0.1980 0.2130
7.559973 0.2230 0.2480 0.2710 0.2990 0.3030
7.591000 0.3220 0.3480 0.3620 0.3700 0.3730
7.621973 0.3810 0.3930 0.4030 0.4100 0.4120
7.653000 0.4130 0.4180 0.4240 0.4380 0.4410
7.683973 0.4430 0.4430 0.4430 0.4410 0.4410
7.715000 0.4400 0.4400 0.4410 0.4410 0.4430
7.745973 0.4460 0.4490 0.4520 0.4550 0.4550
7.777000 0.4550 0.4540 0.4480 0.4440 0.4410
7.807973 0.4380 0.4340 0.4270 0.4210 0.4130
7.839000 0.4040 0.3920 0.3790 0.3720 0.3590
7.869973 0.3440 0.3220 0.3030 0.2860 0.2660
7.901000 0.2440 0.2240 0.2030 0.1860 0.1680
7.931973 0.1580 0.1500 0.1470 0.1420 0.1410
7.963000 0.1390 0.1390 0.1370 0.1360 0.1270
7.993973 0.1250 0.1200 0.1160 0.1100 0.1050
8.025000 0.1020 0.0990 0.0970 0.0940 0.0890
8.055973 0.0860 0.0820 0.0800 0.0790 0.0770
8.087000 0.0740 0.0720 0.0710 0.0690 0.0680
8.117973 0.0680 0.0660 0.0660 0.0680 0.0690
8.149000 0.0690 0.0680 0.0660 0.0630 0.0620
8.179973 0.0600 0.0580 0.0570 0.0520 0.0510
8.211000 0.0490 0.0490 0.0480 0.0480 0.0490
8.241973 0.0510 0.0550 0.0570 0.0600 0.0620
8.272000 0.0580 0.0540 0.0490 0.0480 0.0440
8.302973 0.0440 0.0430 0.0430 0.0440 0.0440
8.334000 0.0440 0.0460 0.0460 0.0460 0.0460
8.364973 0.0480 0.0490 0.0510 0.0540 0.0550
8.396000 0.0580 0.0600 0.0620 0.0630 0.0660
8.426973 0.0680 0.0690 0.0710 0.0710 0.0690
8.458000 0.0690 0.0680 0.0680 0.0680 0.0690
8.488973 0.0740 0.0790 0.0860 0.0940 0.0960
8.520000 0.0970 0.1000 0.1060 0.1080 0.1080
8.550973 0.1080 0.1060 0.0940 0.0890 0.0850
8.582000 0.0830 0.0800 0.0770 0.0660 0.0650
8.612973 0.0660 0.0740 0.0790 0.0860 0.0960
8.644000 0.1080 0.1220 0.1340 0.1500 0.1620
8.674973 0.1750 0.1950 0.2090 0.2240 0.2380
8.706000 0.2540 0.2720 0.2890 0.3100 0.3280
8.736973 0.3370 0.3390 0.3440 0.3500 0.3610
8.768000 0.3720 0.3840 0.4000 0.4130 0.4290
8.798973 0.4430 0.4570 0.4660 0.4770 0.4850
8.830000 0.4940 0.5020 0.5100 0.5160 0.5190
8.860973 0.5240 0.5220 0.5200 0.5140 0.5030
8.892000 0.4930 0.4690 0.4440 0.4150 0.3840
8.922973 0.3500 0.3300 0.2910 0.2600 0.2380
8.954000 0.2170 0.2030 0.1920 0.1900 0.1920
8.984973 0.1980 0.2060 0.2370 0.2580 0.2820
9.015000 0.3080 0.3270 0.3420 0.3560 0.3650
9.045973 0.3670 0.3750 0.3870 0.4040 0.4180
9.077000 0.4270 0.4430 0.4570 0.4630 0.4690
9.107973 0.4770 0.4850 0.4930 0.5000 0.5110
9.139000 0.5240 0.5360 0.5420 0.5510 0.5700
9.169973 0.5820 0.5930 0.5950 0.6070 0.6180
9.201000 0.6290 0.6400 0.6460 0.6520 0.6570
9.231973 0.6620 0.6660 0.6680 0.6690 0.6770
9.263000 0.6800 0.6880 0.6890 0.6880 0.6860
9.293973 0.6830 0.6770 0.6740 0.6660 0.6520
9.325000 0.6370 0.6170 0.5930 0.5700 0.5440
9.355973 0.5170 0.4880 0.4540 0.4230 0.3960
9.387000 0.3580 0.2990 0.2630 0.2410 0.2270
9.417973 0.1890 0.1530 0.1240 0.1030 0.0970
9.449000 0.0860 0.0740 0.0660 0.0570 0.0520
9.479973 0.0490 0.0460 0.0440 0.0440 0.0430
9.511000 0.0430 0.0410 0.0400 0.0400 0.0400
9.541973 0.0410 0.0490 0.0580 0.0660 0.0710
9.573000 0.0770 0.0930 0.1030 0.1330 0.1530
9.603973 0.1760 0.1980 0.2120 0.2340 0.2460
9.635000 0.2720 0.2830 0.2970 0.3130 0.3310
9.665973 0.3500 0.3670 0.3790 0.3950 0.4030
9.697000 0.4170 0.4240 0.4380 0.4440 0.4580
9.727973 0.4680 0.4770 0.4860 0.4940 0.4970
9.759000 0.4990 0.5030 0.5130 0.5190 0.5250
9.789973 0.5300 0.5340 0.5440 0.5510 0.5620
9.820000 0.5700 0.5730 0.5780 0.5840 0.5900
9.850973 0.5960 0.6010 0.6030 0.6070 0.6100
9.882000 0.6180 0.6270 0.6310 0.6350 0.6380
9.912973 0.6410 0.6440 0.6480 0.6480 0.6490
9.944000 0.6490 0.6490 0.6490 0.6490 0.6480
9.974973 0.6460 0.6380 0.6240 0.6030 0.5790
10.006000 0.5450 0.5080 0.4940 0.4630 0.4260
10.036973 0.3900 0.3550 0.3250 0.3020 0.2740
10.068000 0.2580 0.2490 0.2440 0.2400 0.2380
10.098973 0.2400 0.2440 0.2480 0.2540 0.2630
10.130000 0.2690 0.2750 0.2830 0.2990 0.3190
10.160973 0.3330 0.3480 0.3620 0.3780 0.3960
10.192000 0.4150 0.4270 0.4370 0.4480 0.4600
10.222973 0.4710 0.4770 0.4880 0.4960 0.5000
10.254000 0.5060 0.5110 0.5160 0.5220 0.5300
10.284973 0.5370 0.5410 0.5420 0.5470 0.5580
10.316000 0.5680 0.5720 0.5780 0.5790 0.5790
10.346973 0.5810 0.5810 0.5840 0.5860 0.5870
10.378000 0.5890 0.5900 0.5920 0.5930 0.5950
10.408973 0.5980 0.6010 0.6030 0.6060 0.6090
10.440000 0.6120 0.6150 0.6170 0.6200 0.6210
10.470973 0.6260 0.6270 0.6320 0.6350 0.6380
10.502000 0.6410 0.6490 0.6570 0.6620 0.6710
10.532973 0.6710 0.6720 0.6720 0.6740 0.6790
10.563000 0.6830 0.6880 0.6940 0.6970 0.6990
10.593973 0.6990 0.7020 0.7030 0.7100 0.7170
10.625000 0.7190 0.7200 0.7220 0.7220 0.7220
10.655973 0.7220 0.7220 0.7240 0.7240 0.7240
10.687000 0.7240 0.7240 0.7240 0.7240 0.7240
10.717973 0.7240 0.7240 0.7240 0.7240 0.7220
10.749000 0.7220 0.7200 0.7170 0.7140 0.7030
10.779973 0.6910 0.6750 0.6580 0.6410 0.6240
10.811000 0.6150 0.5980 0.5840 0.5650 0.5580
10.841973 0.5510 0.5480 0.5470 0.5470 0.5470
10.873000 0.5470 0.5480 0.5510 0.5590 0.5780
10.903973 0.5870 0.5950 0.5980 0.6000 0.6150
10.935000 0.6240 0.6350 0.6410 0.6440 0.6490
10.965973 0.6510 0.6520 0.6540 0.6550 0.6370
10.997000 0.6260 0.6170 0.6090 0.6000 0.5950
11.027973 0.5870 0.5790 0.5780 0.5780 0.5790
11.059000 0.5860 0.5930 0.6000 0.6000 0.6010
11.089973 0.6040 0.6040 0.6060 0.6070 0.6090
11.121000 0.6150 0.6240 0.6380 0.6460 0.6570
11.151973 0.6620 0.6720 0.6820 0.6910 0.6990
11.183000 0.7080 0.7140 0.7250 0.7360 0.7390
11.213973 0.7410 0.7450 0.7530 0.7580 0.7610
11.245000 0.7670 0.7680 0.7680 0.7700 0.7720
11.275973 0.7750 0.7790 0.7840 0.7890 0.7900
11.307000 0.7890 0.7820 0.7820 0.7790 0.7750
11.337973 0.7700 0.7670 0.7640 0.7550 0.7450
11.368000 0.7370 0.7360 0.7360 0.7360 0.7340
11.398973 0.7310 0.7240 0.7110 0.6990 0.6970
11.430000 0.6880 0.6860 0.6860 0.6930 0.6960
11.460973 0.6970 0.6960 0.6910 0.6790 0.6510
11.492000 0.6130 0.5700 0.5370 0.4990 0.4490
11.522973 0.4230 0.3730 0.3360 0.3030 0.2880
11.554000 0.2690 0.2650 0.2600 0.2650 0.2750
11.584973 0.2940 0.3220 0.3480 0.3700 0.3960
11.616000 0.4150 0.4290 0.4430 0.4580 0.4680
11.646973 0.4710 0.4790 0.4830 0.4940 0.4970
11.678000 0.4990 0.5000 0.4990 0.5030 0.5050
11.708973 0.5080 0.5160 0.5300 0.5360 0.5440
11.740000 0.5580 0.5720 0.5810 0.5900 0.5980
11.770973 0.6060 0.6130 0.6150 0.6350 0.6490
11.802000 0.6520 0.6570 0.6570 0.6620 0.6750
11.832973 0.6800 0.6830 0.6890 0.6970 0.7060
11.864000 0.7100 0.7110 0.7110 0.7170 0.7220
11.894973 0.7270 0.7280 0.7280 0.7270 0.7220
11.926000 0.7190 0.7170 0.7140 0.7110 0.7080
11.956973 0.7030 0.7000 0.7000 0.6990 0.6970
11.988000 0.6890 0.6830 0.6750 0.6720 0.6650
12.018973 0.6620 0.6600 0.6580 0.6540 0.6460
12.050000 0.6370 0.6310 0.6270 0.6230 0.6210
12.080973 0.6180 0.6120 0.6010 0.5930 0.5870
12.111000 0.5810 0.5780 0.5720 0.5640 0.5580
12.141973 0.5510 0.5470 0.5440 0.5390 0.5360
12.173000 0.5340 0.5340 0.5360 0.5390 0.5420
12.203973 0.5440 0.5440 0.5440 0.5450 0.5500
12.235000 0.5620 0.5750 0.6000 0.6200 0.6440
12.265973 0.6740 0.6880 0.7100 0.7440 0.7590
12.297000 0.7700 0.7790 0.7890 0.7980 0.8040
12.327973 0.8090 0.8100 0.8150 0.8210 0.8270
12.359000 0.8310 0.8340 0.8350 0.8350 0.8350
12.389973 0.8370 0.8370 0.8400 0.8400 0.8410
12.421000 0.8440 0.8490 0.8520 0.8540 0.8570
12.451973 0.8580 0.8580 0.8580 0.8580 0.8580
12.483000 0.8580 0.8570 0.8550 0.8540 0.8520
12.513973 0.8490 0.8440 0.8440 0.8480 0.8480
12.545000 0.8480 0.8460 0.8410 0.8400 0.8380
12.575973 0.8370 0.8350 0.8340 0.8310 0.8290
12.607000 0.8270 0.8270 0.8260 0.8240 0.8200
12.637973 0.8180 0.8130 0.8120 0.8100 0.8090
12.669000 0.8030 0.8010 0.8000 0.8000 0.7980
12.699973 0.7900 0.7860 0.7840 0.7820 0.7820
12.731000 0.7820 0.7820 0.7790 0.7760 0.7720
12.761973 0.7680 0.7670 0.7670 0.7650 0.7610
12.793000 0.7580 0.7550 0.7500 0.7470 0.7420
12.823973 0.7410 0.7370 0.7330 0.7330 0.7280
12.854000 0.7280 0.7240 0.7220 0.7190 0.7170
12.884973 0.7160 0.7140 0.7110 0.7110 0.7100
12.916000 0.7100 0.7080 0.7030 0.7020 0.7020
12.946973 0.7000 0.7000 0.6970 0.6960 0.6910
12.978000 0.6890 0.6860 0.6860 0.6850 0.6850
13.008973 0.6820 0.6800 0.6800 0.6790 0.6770
13.040000 0.6770 0.6770 0.6750 0.6740 0.6720
13.070973 0.6710 0.6710 0.6690 0.6690 0.6690
13.102000 0.6690 0.6690 0.6690 0.6690 0.6690
13.132973 0.6690 0.6690 0.6690 0.6690 0.6690
13.164000 0.6710 0.6720 0.6710 0.6710 0.6710
13.194973 0.6690 0.6660 0.6660 0.6680 0.6680
13.226000 0.6680 0.6680 0.6650 0.6620 0.6580
13.256973 0.6480 0.6230 0.5960 0.5620 0.5390
13.288000 0.5140 0.4860 0.4660 0.4430 0.4100
13.318973 0.3920 0.3720 0.3650 0.3610 0.3590
13.350000 0.3590 0.3590 0.3610 0.3700 0.3840
13.380973 0.3950 0.4000 0.4120 0.4200 0.4340
13.412000 0.4440 0.4510 0.4580 0.4660 0.4720
13.442973 0.4790 0.4800 0.4850 0.4880 0.4910
13.474000 0.5000 0.5000 0.5030 0.5060 0.5080
13.504973 0.5130 0.5200 0.5250 0.5270 0.5270
13.536000 0.5280 0.5280 0.5280 0.5300 0.5310
13.566973 0.5370 0.5410 0.5440 0.5450 0.5500
13.598000 0.5580 0.5620 0.5640 0.5650 0.5680
13.628973 0.5720 0.5780 0.5780 0.5790 0.5820
13.659000 0.5840 0.5900 0.5900 0.5900 0.5900
13.689973 0.5900 0.5920 0.5980 0.6000 0.6030
13.721000 0.6070 0.6100 0.6090 0.6040 0.6040
13.751973 0.6070 0.6120 0.6120 0.6090 0.6070
13.783000 0.6040 0.6030 0.6010 0.6010 0.6010
13.813973 0.6030 0.6040 0.6060 0.6060 0.6060
13.845000 0.6060 0.6070 0.6070 0.6090 0.6150
13.875973 0.6170 0.6180 0.6210 0.6240 0.6270
13.907000 0.6380 0.6490 0.6510 0.6520 0.6580
13.937973 0.6680 0.6750 0.6800 0.6850 0.6880
13.969000 0.6940 0.6990 0.7050 0.7100 0.7140
13.999973 0.7200 0.7250 0.7300 0.7310 0.7330
14.031000 0.7340 0.7340 0.7360 0.7360 0.7370
14.061973 0.7370 0.7370 0.7390 0.7390 0.7410
14.093000 0.7420 0.7450 0.7480 0.7510 0.7510
14.123973 0.7530 0.7550 0.7560 0.7580 0.7580
14.155000 0.7580 0.7580 0.7580 0.7580 0.7580
14.185973 0.7580 0.7590 0.7610 0.7610 0.7620
14.217000 0.7620 0.7610 0.7610 0.7620 0.7620
14.247973 0.7620 0.7640 0.7640 0.7620 0.7620
14.279000 0.7610 0.7610 0.7610 0.7590 0.7580
14.309973 0.7560 0.7530 0.7500 0.7480 0.7470
14.341000 0.7450 0.7420 0.7410 0.7390 0.7370
14.371973 0.7340 0.7330 0.7310 0.7270 0.7220
14.402000 0.7170 0.7140 0.7110 0.7050 0.7000
14.432973 0.6970 0.6880 0.6820 0.6770 0.6710
14.464000 0.6650 0.6580 0.6510 0.6460 0.6400
14.494973 0.6350 0.6240 0.6120 0.5960 0.5860
14.526000 0.5790 0.5680 0.5550 0.5450 0.5340
14.556973 0.5220 0.5000 0.4910 0.4830 0.4770
14.588000 0.4740 0.4690 0.4650 0.4550 0.4480
14.618973 0.4460 0.4400 0.4370 0.4350 0.4340
14.650000 0.4350 0.4370 0.4400 0.4410 0.4440
14.680973 0.4480 0.4510 0.4540 0.4570 0.4620
14.712000 0.4650 0.4690 0.4710 0.4720 0.4750
14.742973 0.4720 0.4690 0.4660 0.4660 0.4660
14.774000 0.4650 0.4620 0.4580 0.4540 0.4430
14.804973 0.4320 0.4200 0.4090 0.4000 0.3980
14.836000 0.3980 0.3980 0.3950 0.3920 0.3790
14.866973 0.3730 0.3720 0.3700 0.3680 0.3680
14.898000 0.3670 0.3620 0.3530 0.3470 0.3440
14.928973 0.3420 0.3390 0.3370 0.3370 0.3390
14.960000 0.3390 0.3390 0.3410 0.3410 0.3410
14.990973 0.3410 0.3410 0.3420 0.3420 0.3440
15.022000 0.3450 0.3450 0.3450 0.3450 0.3450
15.052973 0.3470 0.3480 0.3510 0.3550 0.3590
15.084000 0.3650 0.3720 0.3750 0.3790 0.3820
15.114973 0.3870 0.3900 0.3950 0.3980 0.4030
15.146000 0.4040 0.4090 0.4100 0.4120 0.4200
15.176973 0.4210 0.4260 0.4320 0.4350 0.4410
15.207000 0.4440 0.4460 0.4480 0.4490 0.4510
15.237973 0.4550 0.4580 0.4580 0.4600 0.4580
15.269000 0.4550 0.4510 0.4490 0.4490 0.4490
15.299973 0.4510 0.4580 0.4520 0.4510 0.4480
15.331000 0.4440 0.4430 0.4410 0.4430 0.4430
15.361973 0.4430 0.4430 0.4410 0.4380 0.4340
15.393000 0.4270 0.4210 0.4170 0.4060 0.4040
15.423973 0.4030 0.4030 0.4010 0.3980 0.3860
15.455000 0.3820 0.3820 0.3760 0.3680 0.3610
15.485973 0.3580 0.3560 0.3550 0.3550 0.3530
15.517000 0.3510 0.3480 0.3470 0.3440 0.3440
15.547973 0.3420 0.3420 0.3420 0.3410 0.3410
15.579000 0.3410 0.3390 0.3360 0.3270 0.3220
15.609973 0.3220 0.3200 0.3200 0.3280 0.3280
15.641000 0.3250 0.3200 0.3130 0.3110 0.3110
15.671973 0.3160 0.3160 0.3160 0.3170 0.3200
15.703000 0.3220 0.3240 0.3280 0.3360 0.3410
15.733973 0.3440 0.3450 0.3450 0.3450 0.3450
15.765000 0.3470 0.3470 0.3500 0.3530 0.3580
15.795973 0.3620 0.3650 0.3670 0.3680 0.3700
15.827000 0.3700 0.3720 0.3730 0.3760 0.3780
15.857973 0.3810 0.3820 0.3820 0.3820 0.3840
15.889000 0.3860 0.3860 0.3890 0.3920 0.3930
15.919973 0.3950 0.3950 0.3980 0.4000 0.4000
15.950000 0.4010 0.4030 0.4030 0.4010 0.4010
15.980973 0.4010 0.4010 0.4010 0.4000 0.3980
##END=
