##TITLE=N-(3-HYDROXYPROPYL) TRIMETHYL-AMMONIUM TETRAPHENYL-BORIDE
##JCAMP-DX=4.24
##DATA TYPE=INFRARED SPECTRUM
##CLASS=COBLENTZ
##ORIGIN=EASTMAN KODAK COMPANY, RESEARCH LABORATORIES, ROCHESTER, N.Y.
##OWNER=COBLENTZ SOCIETY
Collection (C) 2018 copyright by the U.S. Secretary of Commerce
on behalf of the United States of America. All rights reserved.
##DATE=Not specified, most likely prior to 1970
##MOLFORM=C30 H36 B N O
##MP=229 C
##SOURCE REFERENCE=COBLENTZ NO. 4440
##$NIST ID=B6004440
##$NIST SOURCE=COBLENTZ
##$NIST IMAGE=cob4440
##SPECTROMETER/DATA SYSTEM=Not specified, most likely a prism, grating, or hybrid spectrometer.
##STATE=SOLID (KBr PELLET)
##PATH LENGTH=
$$ SEE J. ORG. CHEM., VOL. 29, PAGE 1862 (1964)
##SAMPLING PROCEDURE=TRANSMISSION
##RESOLUTION=4
##DATA PROCESSING=DIGITIZED BY NIST FROM HARD COPY
##XUNITS=MICROMETERS
##YUNITS=TRANSMITTANCE
##XFACTOR=1.000000
##YFACTOR=1
##DELTAX=000.006683
##FIRSTX=2
##LASTX=16.0138
##FIRSTY=0.44
##MAXX=16.0138
##MINX=2
##MAXY=0.945
##MINY=0.041
##NPOINTS=2098
##XYDATA=(X++(Y..Y))
2.000000 0.4400 0.4420 0.4440 0.4440 0.4450
2.033429 0.4450 0.4450 0.4450 0.4450 0.4450
2.067000 0.4450 0.4450 0.4450 0.4450 0.4470
2.100429 0.4470 0.4470 0.4490 0.4490 0.4500
2.134000 0.4520 0.4530 0.4530 0.4530 0.4550
2.167429 0.4550 0.4550 0.4550 0.4550 0.4570
2.200000 0.4570 0.4570 0.4580 0.4580 0.4580
2.233429 0.4600 0.4620 0.4630 0.4630 0.4650
2.267000 0.4670 0.4670 0.4670 0.4680 0.4680
2.300429 0.4680 0.4700 0.4700 0.4700 0.4700
2.334000 0.4700 0.4720 0.4730 0.4760 0.4760
2.367429 0.4780 0.4780 0.4780 0.4780 0.4780
2.401000 0.4800 0.4800 0.4800 0.4800 0.4800
2.434429 0.4800 0.4800 0.4800 0.4780 0.4780
2.468000 0.4760 0.4760 0.4760 0.4780 0.4810
2.501429 0.4860 0.4860 0.4900 0.4950 0.4980
2.535000 0.5000 0.5040 0.5080 0.5080 0.5080
2.568429 0.5090 0.5090 0.5110 0.5130 0.5160
2.601000 0.5160 0.5180 0.5180 0.5180 0.5190
2.634429 0.5190 0.5230 0.5290 0.5320 0.5340
2.668000 0.5360 0.5370 0.5370 0.5360 0.5340
2.701429 0.5340 0.5340 0.5320 0.5320 0.5320
2.735000 0.5320 0.5320 0.5310 0.5290 0.5240
2.768429 0.5180 0.5060 0.5000 0.4860 0.4720
2.802000 0.4490 0.4220 0.3710 0.3250 0.3020
2.835429 0.2610 0.2070 0.2070 0.2200 0.2450
2.869000 0.2580 0.2730 0.2860 0.2910 0.2970
2.902429 0.3040 0.3100 0.3190 0.3250 0.3300
2.936000 0.3400 0.3500 0.3600 0.3680 0.3750
2.969429 0.3830 0.3910 0.3980 0.4060 0.4160
3.002000 0.4250 0.4370 0.4490 0.4580 0.4620
3.035429 0.4680 0.4720 0.4780 0.4780 0.4800
3.069000 0.4810 0.4880 0.4910 0.4980 0.5000
3.102429 0.5010 0.5080 0.5090 0.5110 0.5180
3.136000 0.5190 0.5230 0.5270 0.5290 0.5310
3.169429 0.5310 0.5320 0.5320 0.5360 0.5370
3.203000 0.5390 0.5410 0.5410 0.5440 0.5440
3.236429 0.5440 0.5410 0.5320 0.5090 0.4570
3.270000 0.3840 0.2500 0.2230 0.2230 0.2500
3.303429 0.2710 0.2960 0.3000 0.3020 0.3020
3.337000 0.3070 0.3150 0.3280 0.3420 0.3600
3.370429 0.3760 0.3930 0.3990 0.4040 0.4070
3.403000 0.4120 0.4210 0.4350 0.4400 0.4530
3.436429 0.4600 0.4630 0.4630 0.4570 0.4520
3.470000 0.4500 0.4520 0.4630 0.4760 0.4950
3.503429 0.5040 0.5160 0.5210 0.5310 0.5390
3.537000 0.5420 0.5490 0.5520 0.5590 0.5590
3.570429 0.5600 0.5600 0.5640 0.5650 0.5690
3.604000 0.5720 0.5740 0.5750 0.5750 0.5750
3.637429 0.5770 0.5770 0.5780 0.5780 0.5780
3.671000 0.5800 0.5820 0.5830 0.5850 0.5850
3.704429 0.5880 0.5880 0.5880 0.5900 0.5900
3.737000 0.5930 0.6000 0.6010 0.6030 0.6100
3.770429 0.6100 0.6100 0.6110 0.6110 0.6110
3.804000 0.6130 0.6130 0.6130 0.6130 0.6130
3.837429 0.6130 0.6130 0.6130 0.6150 0.6160
3.871000 0.6180 0.6180 0.6200 0.6210 0.6210
3.904429 0.6230 0.6230 0.6230 0.6250 0.6280
3.938000 0.6290 0.6290 0.6290 0.6290 0.6310
3.971429 0.6310 0.6330 0.6340 0.6340 0.6340
4.005000 0.6340 0.6340 0.6340 0.6340 0.6360
4.038429 0.6360 0.6360 0.6360 0.6390 0.6410
4.072000 0.6410 0.6440 0.6440 0.6460 0.6460
4.105429 0.6480 0.6480 0.6480 0.6490 0.6490
4.138000 0.6490 0.6490 0.6490 0.6510 0.6510
4.171429 0.6510 0.6520 0.6520 0.6540 0.6540
4.205000 0.6540 0.6520 0.6520 0.6520 0.6520
4.238429 0.6520 0.6520 0.6520 0.6520 0.6510
4.272000 0.6510 0.6510 0.6510 0.6510 0.6520
4.305429 0.6520 0.6520 0.6540 0.6610 0.6640
4.339000 0.6710 0.6720 0.6800 0.6820 0.6850
4.372429 0.6870 0.6890 0.6900 0.6900 0.6900
4.406000 0.6920 0.6920 0.6940 0.6950 0.6950
4.439429 0.6970 0.6970 0.6990 0.6990 0.7000
4.473000 0.7000 0.7000 0.7000 0.7000 0.7000
4.506429 0.7000 0.7000 0.7000 0.7020 0.7020
4.539000 0.7020 0.7030 0.7030 0.7030 0.7050
4.572429 0.7050 0.7050 0.7050 0.7050 0.7070
4.606000 0.7080 0.7080 0.7100 0.7100 0.7100
4.639429 0.7100 0.7100 0.7100 0.7100 0.7100
4.673000 0.7100 0.7100 0.7100 0.7100 0.7120
4.706429 0.7120 0.7120 0.7130 0.7150 0.7150
4.740000 0.7150 0.7150 0.7150 0.7150 0.7170
4.773429 0.7180 0.7180 0.7180 0.7180 0.7200
4.807000 0.7200 0.7200 0.7200 0.7220 0.7220
4.840429 0.7230 0.7250 0.7250 0.7260 0.7260
4.874000 0.7260 0.7260 0.7280 0.7280 0.7280
4.907429 0.7280 0.7300 0.7300 0.7300 0.7310
4.940000 0.7310 0.7330 0.7330 0.7330 0.7330
4.973429 0.7330 0.7360 0.7360 0.7380 0.7380
5.007000 0.7380 0.7360 0.7360 0.7360 0.7330
5.040429 0.7310 0.7230 0.7150 0.7080 0.7020
5.074000 0.6920 0.6820 0.6750 0.6740 0.6750
5.107429 0.6820 0.6870 0.6950 0.7020 0.7050
5.141000 0.7120 0.7150 0.7230 0.7310 0.7330
5.174429 0.7410 0.7410 0.7430 0.7450 0.7450
5.208000 0.7450 0.7430 0.7430 0.7410 0.7400
5.241429 0.7360 0.7330 0.7310 0.7250 0.7230
5.274000 0.7200 0.7200 0.7180 0.7180 0.7220
5.307429 0.7250 0.7300 0.7330 0.7410 0.7450
5.341000 0.7460 0.7480 0.7480 0.7510 0.7510
5.374429 0.7510 0.7510 0.7510 0.7500 0.7480
5.408000 0.7450 0.7400 0.7330 0.7300 0.7230
5.441429 0.7220 0.7200 0.7200 0.7200 0.7220
5.475000 0.7230 0.7260 0.7330 0.7410 0.7450
5.508429 0.7530 0.7540 0.7610 0.7630 0.7680
5.542000 0.7710 0.7730 0.7740 0.7740 0.7730
5.575429 0.7730 0.7710 0.7710 0.7680 0.7640
5.609000 0.7630 0.7610 0.7590 0.7560 0.7560
5.642429 0.7540 0.7540 0.7560 0.7560 0.7580
5.675000 0.7580 0.7590 0.7610 0.7640 0.7660
5.708429 0.7660 0.7640 0.7640 0.7640 0.7640
5.742000 0.7640 0.7640 0.7610 0.7610 0.7590
5.775429 0.7590 0.7590 0.7590 0.7610 0.7630
5.809000 0.7630 0.7630 0.7630 0.7630 0.7630
5.842429 0.7630 0.7640 0.7640 0.7640 0.7630
5.876000 0.7630 0.7610 0.7610 0.7610 0.7630
5.909429 0.7630 0.7630 0.7630 0.7630 0.7630
5.943000 0.7630 0.7610 0.7610 0.7610 0.7610
5.976429 0.7610 0.7590 0.7590 0.7580 0.7580
6.010000 0.7560 0.7540 0.7540 0.7530 0.7530
6.043429 0.7530 0.7510 0.7480 0.7450 0.7430
6.076000 0.7430 0.7410 0.7410 0.7360 0.7310
6.109429 0.7300 0.7260 0.7260 0.7260 0.7250
6.143000 0.7250 0.7250 0.7250 0.7250 0.7230
6.176429 0.7230 0.7220 0.7200 0.7200 0.7180
6.210000 0.7180 0.7180 0.7200 0.7200 0.7220
6.243429 0.7230 0.7260 0.7310 0.7350 0.7380
6.277000 0.7430 0.7430 0.7460 0.7500 0.7500
6.310429 0.7450 0.7330 0.6900 0.6430 0.5520
6.344000 0.5130 0.5130 0.5240 0.5500 0.5780
6.377429 0.5980 0.6230 0.6260 0.6410 0.6590
6.411000 0.6740 0.6790 0.6790 0.6840 0.6940
6.444429 0.7030 0.7230 0.7400 0.7430 0.7450
6.477000 0.7460 0.7480 0.7500 0.7530 0.7560
6.510429 0.7590 0.7630 0.7660 0.7730 0.7740
6.544000 0.7760 0.7770 0.7790 0.7810 0.7810
6.577429 0.7810 0.7820 0.7820 0.7820 0.7820
6.611000 0.7840 0.7840 0.7820 0.7820 0.7820
6.644429 0.7810 0.7790 0.7770 0.7740 0.7690
6.678000 0.7590 0.7450 0.7260 0.7000 0.6740
6.711429 0.6390 0.5830 0.2730 0.1520 0.1520
6.745000 0.1770 0.1800 0.1800 0.1820 0.1890
6.778429 0.2030 0.2180 0.2690 0.3120 0.3470
6.811000 0.3760 0.4010 0.4270 0.4530 0.4830
6.844429 0.4930 0.4950 0.5010 0.5040 0.5190
6.878000 0.5390 0.5600 0.5750 0.5780 0.5780
6.911429 0.5780 0.5800 0.5820 0.5900 0.5970
6.945000 0.6030 0.6100 0.6150 0.6210 0.6210
6.978429 0.6160 0.6050 0.5980 0.5620 0.5310
7.012000 0.3910 0.2920 0.2920 0.3330 0.3630
7.045429 0.4070 0.4490 0.4680 0.4880 0.5080
7.079000 0.5290 0.5570 0.5780 0.6000 0.6180
7.112429 0.6380 0.6540 0.6640 0.6670 0.6720
7.146000 0.6750 0.6770 0.6790 0.6790 0.6770
7.179429 0.6750 0.6720 0.6670 0.6640 0.6560
7.212000 0.6460 0.6430 0.6390 0.6380 0.6380
7.245429 0.6360 0.6340 0.6290 0.6200 0.6050
7.279000 0.5920 0.5820 0.5750 0.5830 0.5930
7.312429 0.6200 0.6380 0.6520 0.6660 0.6750
7.346000 0.6840 0.6850 0.6870 0.6870 0.6920
7.379429 0.6950 0.7000 0.7070 0.7130 0.7170
7.413000 0.7200 0.7250 0.7330 0.7360 0.7430
7.446429 0.7450 0.7450 0.7450 0.7450 0.7450
7.480000 0.7430 0.7430 0.7350 0.7260 0.7180
7.513429 0.7080 0.7030 0.6970 0.6950 0.6970
7.547000 0.7100 0.7170 0.7250 0.7360 0.7500
7.580429 0.7560 0.7610 0.7640 0.7660 0.7680
7.613000 0.7730 0.7740 0.7740 0.7740 0.7730
7.646429 0.7730 0.7690 0.7660 0.7640 0.7640
7.680000 0.7630 0.7630 0.7640 0.7680 0.7710
7.713429 0.7740 0.7810 0.7870 0.7940 0.8000
7.747000 0.8040 0.8040 0.8050 0.8140 0.8140
7.780429 0.8150 0.8150 0.8170 0.8170 0.8140
7.814000 0.8100 0.8050 0.8000 0.7920 0.7840
7.847429 0.7760 0.7660 0.7580 0.7460 0.7250
7.881000 0.7050 0.6800 0.6590 0.6340 0.6130
7.914429 0.6000 0.5850 0.5830 0.5850 0.5930
7.947000 0.6060 0.6160 0.6230 0.6280 0.6310
7.980429 0.6340 0.6340 0.6330 0.6310 0.6310
8.014000 0.6290 0.6290 0.6310 0.6360 0.6390
8.047429 0.6540 0.6710 0.6890 0.7000 0.7170
8.081000 0.7300 0.7460 0.7560 0.7640 0.7730
8.114429 0.7740 0.7770 0.7840 0.7840 0.7860
8.148000 0.7860 0.7870 0.7870 0.7890 0.7890
8.181429 0.7890 0.7870 0.7810 0.7740 0.7660
8.215000 0.7590 0.7450 0.7410 0.7430 0.7460
8.248429 0.7530 0.7630 0.7730 0.7820 0.7940
8.282000 0.8020 0.8090 0.8150 0.8190 0.8220
8.315429 0.8220 0.8220 0.8200 0.8190 0.8150
8.348000 0.8150 0.8150 0.8140 0.8140 0.8090
8.381429 0.8050 0.8000 0.7910 0.7860 0.7680
8.415000 0.7480 0.7350 0.7130 0.6940 0.6790
8.448429 0.6560 0.6390 0.6310 0.6290 0.6330
8.482000 0.6390 0.6510 0.6560 0.6640 0.6740
8.515429 0.6840 0.7000 0.7100 0.7300 0.7460
8.549000 0.7590 0.7760 0.7860 0.7940 0.7940
8.582429 0.7970 0.7990 0.7970 0.7890 0.7810
8.616000 0.7710 0.7640 0.7590 0.7540 0.7450
8.649429 0.7350 0.7220 0.7050 0.6900 0.6740
8.683000 0.6590 0.6480 0.6390 0.6340 0.6330
8.716429 0.6330 0.6250 0.6150 0.6000 0.5700
8.749000 0.5420 0.5190 0.5060 0.5010 0.5030
8.782429 0.5130 0.5240 0.5420 0.5640 0.5830
8.816000 0.5950 0.6030 0.6050 0.6130 0.6130
8.849429 0.6160 0.6180 0.6210 0.6210 0.6200
8.883000 0.6180 0.6160 0.6150 0.6060 0.6050
8.916429 0.6030 0.6010 0.6010 0.6030 0.6200
8.950000 0.6290 0.6440 0.6570 0.6710 0.6840
8.983429 0.6970 0.7080 0.7200 0.7310 0.7400
9.017000 0.7500 0.7590 0.7610 0.7640 0.7730
9.050429 0.7760 0.7840 0.7840 0.7870 0.7890
9.084000 0.7940 0.7940 0.7960 0.8040 0.8050
9.117429 0.8070 0.8100 0.8100 0.8120 0.8140
9.150000 0.8140 0.8140 0.8140 0.8150 0.8170
9.183429 0.8170 0.8190 0.8190 0.8200 0.8200
9.217000 0.8200 0.8190 0.8170 0.8150 0.8140
9.250429 0.8070 0.8050 0.8000 0.7920 0.7840
9.284000 0.7760 0.7660 0.7510 0.7310 0.7100
9.317429 0.6800 0.6510 0.6210 0.5970 0.5780
9.351000 0.5600 0.5370 0.5090 0.4810 0.4500
9.384429 0.4170 0.3860 0.3560 0.3280 0.3050
9.418000 0.2840 0.2790 0.2690 0.2630 0.2540
9.451429 0.2500 0.2450 0.2430 0.2450 0.2590
9.484000 0.2760 0.2940 0.3140 0.3450 0.3730
9.517429 0.3990 0.4250 0.4530 0.4800 0.5030
9.551000 0.5260 0.5470 0.5690 0.5870 0.6050
9.584429 0.6200 0.6260 0.6440 0.6570 0.6690
9.618000 0.6770 0.6840 0.6840 0.6820 0.6710
9.651429 0.6560 0.6340 0.6030 0.5650 0.5240
9.685000 0.5040 0.5040 0.5130 0.5340 0.5570
9.718429 0.5820 0.6050 0.6290 0.6540 0.6750
9.752000 0.6940 0.7080 0.7250 0.7350 0.7430
9.785429 0.7480 0.7530 0.7540 0.7630 0.7660
9.819000 0.7690 0.7730 0.7760 0.7770 0.7840
9.852429 0.7840 0.7860 0.7890 0.7940 0.7940
9.885000 0.7970 0.8020 0.8050 0.8050 0.8140
9.918429 0.8140 0.8150 0.8190 0.8170 0.8200
9.952000 0.8220 0.8240 0.8250 0.8250 0.8270
9.985429 0.8270 0.8280 0.8280 0.8300 0.8320
10.019000 0.8320 0.8300 0.8300 0.8300 0.8280
10.052429 0.8280 0.8280 0.8280 0.8280 0.8280
10.086000 0.8270 0.8270 0.8270 0.8270 0.8270
10.119429 0.8270 0.8280 0.8300 0.8300 0.8300
10.153000 0.8330 0.8330 0.8330 0.8350 0.8350
10.186429 0.8350 0.8370 0.8370 0.8380 0.8380
10.220000 0.8380 0.8380 0.8380 0.8370 0.8370
10.253429 0.8370 0.8350 0.8330 0.8330 0.8270
10.286000 0.8250 0.8240 0.8190 0.8150 0.8050
10.319429 0.8040 0.7940 0.7840 0.7740 0.7640
10.353000 0.7540 0.7460 0.7450 0.7460 0.7480
10.386429 0.7540 0.7560 0.7590 0.7660 0.7660
10.420000 0.7630 0.7630 0.7580 0.7540 0.7450
10.453429 0.7310 0.7180 0.7130 0.7070 0.7050
10.487000 0.7050 0.7080 0.7150 0.7260 0.7380
10.520429 0.7540 0.7710 0.7840 0.7960 0.8050
10.554000 0.8150 0.8250 0.8280 0.8350 0.8370
10.587429 0.8450 0.8470 0.8510 0.8550 0.8560
10.621000 0.8560 0.8560 0.8560 0.8560 0.8550
10.654429 0.8550 0.8550 0.8480 0.8470 0.8430
10.687000 0.8320 0.8250 0.8140 0.7990 0.7810
10.720429 0.7630 0.7410 0.7220 0.7020 0.6850
10.754000 0.6720 0.6620 0.6560 0.6560 0.6640
10.787429 0.6740 0.6850 0.6990 0.7130 0.7260
10.821000 0.7400 0.7500 0.7540 0.7660 0.7740
10.854429 0.7770 0.7820 0.7840 0.7840 0.7820
10.888000 0.7770 0.7730 0.7590 0.7410 0.7180
10.921429 0.6920 0.6610 0.6210 0.5930 0.5490
10.955000 0.5090 0.4850 0.4810 0.4830 0.4980
10.988429 0.5090 0.5310 0.5540 0.5800 0.6060
11.021000 0.6310 0.6520 0.6720 0.6900 0.7080
11.054429 0.7260 0.7410 0.7580 0.7730 0.7870
11.088000 0.8000 0.8140 0.8200 0.8280 0.8370
11.121429 0.8450 0.8510 0.8560 0.8650 0.8660
11.155000 0.8700 0.8750 0.8780 0.8840 0.8840
11.188429 0.8860 0.8880 0.8930 0.8960 0.8980
11.222000 0.9010 0.9020 0.9040 0.9040 0.9040
11.255429 0.9040 0.9040 0.9040 0.9040 0.9040
11.289000 0.9040 0.9040 0.9020 0.8980 0.8940
11.322429 0.8860 0.8780 0.8700 0.8580 0.8470
11.356000 0.8300 0.8120 0.7890 0.7660 0.7450
11.389429 0.7260 0.7100 0.7030 0.7020 0.7030
11.422000 0.7120 0.7260 0.7400 0.7530 0.7690
11.455429 0.7840 0.7990 0.8050 0.8170 0.8250
11.489000 0.8280 0.8320 0.8350 0.8350 0.8330
11.522429 0.8330 0.8300 0.8250 0.8240 0.8150
11.556000 0.8050 0.8020 0.8000 0.7970 0.7970
11.589429 0.7960 0.7960 0.7960 0.7960 0.7960
11.623000 0.7960 0.7970 0.7970 0.7990 0.7990
11.656429 0.8000 0.8000 0.8040 0.8040 0.8040
11.690000 0.8040 0.8040 0.8020 0.8020 0.8000
11.723429 0.7990 0.7940 0.7920 0.7840 0.7760
11.757000 0.7730 0.7640 0.7630 0.7560 0.7560
11.790429 0.7540 0.7540 0.7530 0.7430 0.7280
11.823000 0.7180 0.7050 0.7030 0.6970 0.6940
11.856429 0.6920 0.6920 0.6940 0.6970 0.6990
11.890000 0.7020 0.7020 0.7030 0.7030 0.7030
11.923429 0.7050 0.7130 0.7170 0.7260 0.7360
11.957000 0.7500 0.7610 0.7760 0.7890 0.8000
11.990429 0.8100 0.8150 0.8240 0.8370 0.8500
12.024000 0.8630 0.8750 0.8810 0.8830 0.8840
12.057429 0.8880 0.8940 0.8940 0.8940 0.8960
12.091000 0.8960 0.8980 0.8990 0.9020 0.9040
12.124429 0.9040 0.9040 0.9060 0.9060 0.9070
12.158000 0.9140 0.9140 0.9140 0.9160 0.9160
12.191429 0.9160 0.9160 0.9160 0.9170 0.9170
12.224000 0.9210 0.9220 0.9220 0.9240 0.9240
12.257429 0.9250 0.9270 0.9290 0.9340 0.9340
12.291000 0.9340 0.9350 0.9350 0.9350 0.9350
12.324429 0.9350 0.9350 0.9350 0.9350 0.9350
12.358000 0.9350 0.9350 0.9350 0.9350 0.9350
12.391429 0.9370 0.9370 0.9370 0.9370 0.9370
12.425000 0.9370 0.9390 0.9390 0.9400 0.9400
12.458429 0.9440 0.9440 0.9440 0.9440 0.9440
12.492000 0.9440 0.9440 0.9440 0.9440 0.9440
12.525429 0.9440 0.9440 0.9440 0.9450 0.9450
12.558000 0.9450 0.9450 0.9450 0.9450 0.9450
12.591429 0.9450 0.9450 0.9450 0.9450 0.9450
12.625000 0.9440 0.9420 0.9420 0.9420 0.9420
12.658429 0.9420 0.9420 0.9400 0.9400 0.9400
12.692000 0.9400 0.9400 0.9420 0.9420 0.9420
12.725429 0.9400 0.9400 0.9390 0.9390 0.9390
12.759000 0.9390 0.9390 0.9390 0.9390 0.9390
12.792429 0.9390 0.9390 0.9390 0.9390 0.9390
12.826000 0.9370 0.9370 0.9350 0.9350 0.9340
12.859429 0.9320 0.9320 0.9300 0.9250 0.9240
12.893000 0.9170 0.9140 0.9140 0.9060 0.9020
12.926429 0.8940 0.8860 0.8830 0.8760 0.8680
12.959000 0.8630 0.8550 0.8450 0.8350 0.8270
12.992429 0.8170 0.8090 0.8050 0.7990 0.7960
13.026000 0.7920 0.7890 0.7870 0.7870 0.7890
13.059429 0.7910 0.7910 0.7920 0.7920 0.7920
13.093000 0.7890 0.7870 0.7860 0.7820 0.7740
13.126429 0.7730 0.7590 0.7540 0.7400 0.7280
13.160000 0.7150 0.7020 0.6890 0.6770 0.6620
13.193429 0.6490 0.6330 0.6150 0.5950 0.5700
13.227000 0.5440 0.5130 0.4810 0.4370 0.3980
13.260429 0.3510 0.3020 0.2530 0.2070 0.1640
13.294000 0.1280 0.0970 0.0740 0.0600 0.0550
13.327429 0.0540 0.0540 0.0540 0.0540 0.0520
13.360000 0.0520 0.0520 0.0520 0.0490 0.0490
13.393429 0.0470 0.0460 0.0440 0.0420 0.0410
13.427000 0.0410 0.0410 0.0420 0.0440 0.0520
13.460429 0.0620 0.0720 0.0820 0.0930 0.1060
13.494000 0.1180 0.1380 0.1570 0.1720 0.1940
13.527429 0.2170 0.2380 0.2580 0.2790 0.2990
13.561000 0.3170 0.3380 0.3580 0.3780 0.3960
13.594429 0.4140 0.4320 0.4500 0.4680 0.4850
13.628000 0.5010 0.5180 0.5320 0.5470 0.5620
13.661429 0.5750 0.5870 0.5980 0.6060 0.6180
13.695000 0.6310 0.6430 0.6520 0.6620 0.6740
13.728429 0.6840 0.6920 0.6990 0.7030 0.7120
13.761000 0.7120 0.7130 0.7130 0.7130 0.7130
13.794429 0.7130 0.7120 0.7100 0.7070 0.7030
13.828000 0.7000 0.6940 0.6900 0.6840 0.6800
13.861429 0.6720 0.6620 0.6520 0.6430 0.6280
13.895000 0.6080 0.5970 0.5720 0.5460 0.5110
13.928429 0.4800 0.4400 0.3930 0.3430 0.2920
13.962000 0.2430 0.1990 0.1620 0.1330 0.1080
13.995429 0.1010 0.0880 0.0770 0.0700 0.0670
14.029000 0.0670 0.0650 0.0650 0.0650 0.0670
14.062429 0.0670 0.0690 0.0690 0.0720 0.0740
14.095000 0.0820 0.0880 0.0950 0.1030 0.1130
14.128429 0.1250 0.1340 0.1480 0.1670 0.1850
14.162000 0.2050 0.2230 0.2410 0.2680 0.2860
14.195429 0.3020 0.3150 0.3330 0.3580 0.3790
14.229000 0.3980 0.4140 0.4270 0.4420 0.4530
14.262429 0.4630 0.4730 0.4830 0.4910 0.5000
14.296000 0.5060 0.5130 0.5210 0.5290 0.5370
14.329429 0.5420 0.5500 0.5540 0.5620 0.5700
14.363000 0.5770 0.5830 0.5920 0.5980 0.6060
14.396429 0.6150 0.6230 0.6330 0.6430 0.6540
14.430000 0.6620 0.6720 0.6800 0.6870 0.6940
14.463429 0.7020 0.7070 0.7120 0.7200 0.7230
14.496000 0.7310 0.7330 0.7410 0.7410 0.7450
14.529429 0.7510 0.7510 0.7530 0.7540 0.7560
14.563000 0.7610 0.7640 0.7690 0.7730 0.7770
14.596429 0.7810 0.7820 0.7840 0.7860 0.7860
14.630000 0.7870 0.7890 0.7910 0.7920 0.7960
14.663429 0.8000 0.8020 0.8050 0.8070 0.8090
14.697000 0.8090 0.8100 0.8100 0.8120 0.8120
14.730429 0.8120 0.8120 0.8140 0.8150 0.8170
14.764000 0.8170 0.8170 0.8190 0.8190 0.8190
14.797429 0.8200 0.8200 0.8220 0.8220 0.8220
14.831000 0.8220 0.8220 0.8220 0.8240 0.8240
14.864429 0.8250 0.8300 0.8300 0.8320 0.8330
14.897000 0.8330 0.8330 0.8330 0.8330 0.8330
14.930429 0.8320 0.8320 0.8300 0.8300 0.8280
14.964000 0.8250 0.8240 0.8240 0.8240 0.8220
14.997429 0.8220 0.8220 0.8220 0.8240 0.8240
15.031000 0.8270 0.8280 0.8330 0.8330 0.8350
15.064429 0.8350 0.8350 0.8350 0.8350 0.8370
15.098000 0.8380 0.8380 0.8380 0.8400 0.8420
15.131429 0.8420 0.8420 0.8420 0.8420 0.8400
15.165000 0.8400 0.8420 0.8420 0.8420 0.8420
15.198429 0.8420 0.8420 0.8420 0.8420 0.8420
15.232000 0.8430 0.8430 0.8430 0.8420 0.8420
15.265429 0.8420 0.8420 0.8420 0.8420 0.8420
15.298000 0.8420 0.8420 0.8420 0.8420 0.8400
15.331429 0.8400 0.8400 0.8400 0.8400 0.8380
15.365000 0.8380 0.8380 0.8380 0.8380 0.8380
15.398429 0.8370 0.8370 0.8370 0.8370 0.8350
15.432000 0.8350 0.8350 0.8350 0.8350 0.8350
15.465429 0.8350 0.8330 0.8330 0.8330 0.8330
15.499000 0.8330 0.8320 0.8320 0.8320 0.8320
15.532429 0.8300 0.8300 0.8300 0.8300 0.8300
15.566000 0.8300 0.8300 0.8300 0.8300 0.8280
15.599429 0.8280 0.8270 0.8270 0.8250 0.8250
15.632000 0.8240 0.8240 0.8240 0.8240 0.8240
15.665429 0.8220 0.8220 0.8200 0.8200 0.8200
15.699000 0.8200 0.8200 0.8190 0.8190 0.8190
15.732429 0.8170 0.8150 0.8150 0.8150 0.8150
15.766000 0.8150 0.8140 0.8120 0.8120 0.8100
15.799429 0.8100 0.8090 0.8070 0.8070 0.8050
15.833000 0.8050 0.8050 0.8040 0.8040 0.8040
15.866429 0.8040 0.8020 0.8020 0.8020 0.8020
15.900000 0.8000 0.8000 0.7990 0.7990 0.7970
15.933429 0.7970 0.7960 0.7960 0.7940 0.7920
15.967000 0.7890 0.7870 0.7860 0.7820 0.7810
16.000429 0.7770 0.7770 0.7760
##END=
