##TITLE=MONOCHLORODECABORANE
##JCAMP-DX=4.24
##DATA TYPE=INFRARED SPECTRUM
##CLASS=COBLENTZ
##ORIGIN=KALLERY CHEMICAL COMPANY
##OWNER=COBLENTZ SOCIETY
Collection (C) 2018 copyright by the U.S. Secretary of Commerce
on behalf of the United States of America. All rights reserved.
##DATE=1960
##NAMES=8-chloro-1.lambda.<5>,2.lambda.<5>,3.lambda.<5>,4.lambda.<5>,5.lambda.<5>,6.lambda.<5>,7.lambda.<5>,8.lambda.<5>,9.lambda.<5>,10.lambda.<5>-nonacyclo[4.4.0.0<1,3>.0<2,4>.0<2,6>.0<3,10>.0<4,9>.0<5,7>.0<5,8>]decaborane
##MOLFORM=B10 H13 Cl
##SOURCE REFERENCE=COBLENTZ NO. 843
##$NIST ID=B6000843
##$NIST SOURCE=COBLENTZ
##$NIST IMAGE=cob843
##SPECTROMETER/DATA SYSTEM=Not specified, most likely a prism, grating, or hybrid spectrometer.
##STATE=SOLID (KBr PELLET)
$$ RESEARCH PURITY
##SAMPLING PROCEDURE=TRANSMISSION
##RESOLUTION=4
##DATA PROCESSING=DIGITIZED BY NIST FROM HARD COPY
##XUNITS=MICROMETERS
##YUNITS=TRANSMITTANCE
##XFACTOR=1.000000
##YFACTOR=1
##DELTAX=000.006757
##FIRSTX=2.034
##LASTX=15.5003
##FIRSTY=0.794
##MAXX=15.5003
##MINX=2.034
##MAXY=0.922
##MINY=0.27
##NPOINTS=1994
##XYDATA=(X++(Y..Y))
2.034000 0.7940 0.7940 0.7940 0.7940 0.7930
2.067801 0.7930 0.7930 0.7910 0.7890 0.7890
2.101000 0.7880 0.7860 0.7840 0.7840 0.7840
2.134801 0.7830 0.7830 0.7830 0.7830 0.7830
2.169000 0.7830 0.7830 0.7830 0.7830 0.7830
2.202801 0.7830 0.7830 0.7810 0.7810 0.7810
2.236000 0.7810 0.7810 0.7810 0.7810 0.7810
2.269801 0.7810 0.7810 0.7810 0.7810 0.7810
2.304000 0.7830 0.7830 0.7830 0.7830 0.7830
2.337801 0.7840 0.7840 0.7840 0.7840 0.7840
2.372000 0.7840 0.7860 0.7840 0.7860 0.7860
2.405801 0.7880 0.7880 0.7880 0.7880 0.7880
2.439000 0.7890 0.7880 0.7880 0.7880 0.7880
2.472801 0.7860 0.7880 0.7860 0.7860 0.7880
2.507000 0.7860 0.7860 0.7860 0.7860 0.7860
2.540801 0.7840 0.7840 0.7840 0.7860 0.7860
2.574000 0.7860 0.7860 0.7860 0.7880 0.7860
2.607801 0.7880 0.7880 0.7880 0.7880 0.7880
2.642000 0.7880 0.7880 0.7880 0.7890 0.7890
2.675801 0.7890 0.7890 0.7890 0.7880 0.7880
2.709000 0.7880 0.7860 0.7860 0.7840 0.7840
2.742801 0.7830 0.7790 0.7760 0.7740 0.7730
2.777000 0.7710 0.7660 0.7610 0.7560 0.7470
2.810801 0.7390 0.7340 0.7260 0.7190 0.7120
2.845000 0.7070 0.7000 0.6900 0.6800 0.6770
2.878801 0.6720 0.6670 0.6650 0.6630 0.6630
2.912000 0.6620 0.6600 0.6600 0.6600 0.6600
2.945801 0.6620 0.6620 0.6630 0.6630 0.6670
2.980000 0.6680 0.6730 0.6770 0.6800 0.6840
3.013801 0.6870 0.6890 0.6920 0.6940 0.6990
3.047000 0.7020 0.7050 0.7090 0.7120 0.7140
3.080801 0.7190 0.7220 0.7220 0.7260 0.7290
3.115000 0.7320 0.7360 0.7390 0.7420 0.7460
3.148801 0.7470 0.7510 0.7540 0.7560 0.7590
3.182000 0.7610 0.7660 0.7680 0.7710 0.7730
3.215801 0.7810 0.7830 0.7840 0.7860 0.7890
3.250000 0.7890 0.7910 0.7930 0.7940 0.7960
3.283801 0.7960 0.7960 0.7980 0.7980 0.7980
3.318000 0.8000 0.8000 0.8000 0.8000 0.8000
3.351801 0.8000 0.8000 0.8000 0.7980 0.7980
3.385000 0.7980 0.7980 0.8000 0.8000 0.8010
3.418801 0.8010 0.8030 0.8050 0.8060 0.8060
3.453000 0.8080 0.8080 0.8100 0.8110 0.8130
3.486801 0.8150 0.8180 0.8180 0.8210 0.8250
3.520000 0.8260 0.8300 0.8330 0.8350 0.8380
3.553801 0.8420 0.8430 0.8450 0.8470 0.8500
3.588000 0.8520 0.8530 0.8570 0.8600 0.8630
3.621801 0.8670 0.8680 0.8720 0.8750 0.8780
3.655000 0.8780 0.8820 0.8850 0.8870 0.8900
3.688801 0.8920 0.8940 0.9000 0.9050 0.9090
3.723000 0.9120 0.9170 0.9170 0.9190 0.9190
3.756801 0.9220 0.9220 0.9220 0.9220 0.9070
3.791000 0.8920 0.7910 0.7050 0.6180 0.5310
3.824801 0.4770 0.3860 0.3740 0.3570 0.3310
3.858000 0.3260 0.3190 0.3120 0.3020 0.2940
3.891801 0.2940 0.2970 0.3040 0.3540 0.3690
3.926000 0.3810 0.3930 0.4060 0.4200 0.4420
3.959801 0.4580 0.4670 0.4870 0.5000 0.5070
3.993000 0.5260 0.5490 0.5760 0.5890 0.6160
4.026801 0.6200 0.6280 0.6360 0.6450 0.6520
4.061000 0.6600 0.6770 0.6800 0.6850 0.6850
4.094801 0.6870 0.6900 0.6900 0.6920 0.6940
4.128000 0.6950 0.6970 0.6990 0.7000 0.7020
4.161801 0.7050 0.7070 0.7090 0.7100 0.7120
4.196000 0.7140 0.7140 0.7140 0.7150 0.7140
4.229801 0.7140 0.7140 0.7150 0.7150 0.7170
4.264000 0.7170 0.7170 0.7190 0.7210 0.7220
4.297801 0.7220 0.7220 0.7240 0.7240 0.7260
4.331000 0.7270 0.7270 0.7290 0.7290 0.7310
4.364801 0.7320 0.7320 0.7360 0.7360 0.7390
4.399000 0.7390 0.7410 0.7420 0.7420 0.7440
4.432801 0.7460 0.7470 0.7470 0.7490 0.7510
4.466000 0.7520 0.7520 0.7540 0.7560 0.7570
4.499801 0.7570 0.7590 0.7590 0.7610 0.7630
4.534000 0.7640 0.7640 0.7660 0.7680 0.7680
4.567801 0.7690 0.7710 0.7710 0.7710 0.7730
4.601000 0.7740 0.7760 0.7760 0.7790 0.7790
4.634801 0.7810 0.7830 0.7830 0.7840 0.7860
4.669000 0.7860 0.7860 0.7880 0.7890 0.7910
4.702801 0.7910 0.7910 0.7930 0.7930 0.7930
4.736000 0.7940 0.7960 0.7960 0.7960 0.7980
4.769801 0.7980 0.7980 0.7980 0.8000 0.8000
4.804000 0.8000 0.8010 0.8010 0.8030 0.8030
4.837801 0.8050 0.8050 0.8060 0.8060 0.8060
4.872000 0.8060 0.8060 0.8060 0.8080 0.8100
4.905801 0.8100 0.8100 0.8100 0.8100 0.8110
4.939000 0.8110 0.8130 0.8130 0.8150 0.8150
4.972801 0.8150 0.8150 0.8150 0.8150 0.8150
5.007000 0.8160 0.8160 0.8160 0.8160 0.8160
5.040801 0.8160 0.8160 0.8160 0.8150 0.8130
5.074000 0.8130 0.8130 0.8110 0.8100 0.8080
5.107801 0.8060 0.8030 0.8000 0.7980 0.7960
5.142000 0.7940 0.7910 0.7890 0.7880 0.7860
5.175801 0.7840 0.7810 0.7790 0.7760 0.7740
5.209000 0.7710 0.7660 0.7630 0.7570 0.7470
5.242801 0.7390 0.7370 0.7360 0.7340 0.7320
5.277000 0.7310 0.7310 0.7320 0.7320 0.7340
5.310801 0.7360 0.7390 0.7410 0.7440 0.7460
5.345000 0.7490 0.7510 0.7510 0.7520 0.7540
5.378801 0.7560 0.7590 0.7610 0.7640 0.7660
5.412000 0.7680 0.7690 0.7710 0.7730 0.7780
5.445801 0.7780 0.7790 0.7790 0.7810 0.7810
5.480000 0.7810 0.7830 0.7830 0.7830 0.7830
5.513801 0.7840 0.7840 0.7840 0.7860 0.7860
5.547000 0.7880 0.7880 0.7880 0.7890 0.7890
5.580801 0.7890 0.7910 0.7910 0.7910 0.7930
5.615000 0.7940 0.7940 0.7960 0.7960 0.7980
5.648801 0.7980 0.8000 0.8000 0.8000 0.8010
5.682000 0.8010 0.8030 0.8030 0.8050 0.8050
5.715801 0.8060 0.8060 0.8060 0.8080 0.8080
5.750000 0.8080 0.8080 0.8100 0.8080 0.8080
5.783801 0.8100 0.8100 0.8100 0.8100 0.8100
5.818000 0.8100 0.8100 0.8100 0.8100 0.8100
5.851801 0.8110 0.8110 0.8110 0.8110 0.8110
5.885000 0.8110 0.8110 0.8110 0.8100 0.8100
5.918801 0.8100 0.8100 0.8080 0.8080 0.8060
5.953000 0.8060 0.8050 0.8050 0.8050 0.8030
5.986801 0.8010 0.8000 0.8000 0.7980 0.7960
6.020000 0.7960 0.7960 0.7960 0.7940 0.7940
6.053801 0.7940 0.7940 0.7940 0.7930 0.7930
6.088000 0.7930 0.7930 0.7930 0.7910 0.7910
6.121801 0.7910 0.7910 0.7910 0.7910 0.7910
6.155000 0.7910 0.7910 0.7910 0.7910 0.7910
6.188801 0.7910 0.7910 0.7890 0.7910 0.7910
6.223000 0.7890 0.7880 0.7860 0.7830 0.7810
6.256801 0.7760 0.7740 0.7710 0.7680 0.7570
6.291000 0.7460 0.7340 0.7270 0.7050 0.6990
6.324801 0.6950 0.6900 0.6890 0.6850 0.6840
6.358000 0.6820 0.6800 0.6800 0.6780 0.6770
6.391801 0.6750 0.6720 0.6700 0.6670 0.6620
6.426000 0.6570 0.6530 0.6480 0.6400 0.6350
6.459801 0.6300 0.6210 0.6130 0.6080 0.6030
6.493000 0.5910 0.5810 0.5760 0.5590 0.5510
6.526801 0.5460 0.5390 0.5190 0.5020 0.4940
6.561000 0.4780 0.4670 0.4520 0.4420 0.4280
6.594801 0.4230 0.4210 0.4180 0.4160 0.4180
6.628000 0.4200 0.4250 0.4310 0.4400 0.4450
6.661801 0.4550 0.4600 0.4670 0.4750 0.4820
6.696000 0.4870 0.4920 0.4920 0.4940 0.4950
6.729801 0.4950 0.4970 0.4970 0.5000 0.5020
6.764000 0.5050 0.5070 0.5070 0.5090 0.5090
6.797801 0.5090 0.5090 0.5100 0.5120 0.5120
6.831000 0.5170 0.5210 0.5240 0.5260 0.5310
6.864801 0.5370 0.5420 0.5470 0.5570 0.5660
6.899000 0.5710 0.5780 0.5810 0.5930 0.5960
6.932801 0.6000 0.6010 0.6010 0.6010 0.6030
6.966000 0.6050 0.6060 0.6080 0.6150 0.6200
6.999801 0.6210 0.6230 0.6280 0.6300 0.6350
7.034000 0.6360 0.6430 0.6480 0.6520 0.6550
7.067801 0.6580 0.6600 0.6630 0.6650 0.6670
7.101000 0.6680 0.6700 0.6720 0.6730 0.6770
7.134801 0.6780 0.6780 0.6800 0.6820 0.6820
7.169000 0.6840 0.6840 0.6840 0.6850 0.6870
7.202801 0.6890 0.6900 0.6900 0.6900 0.6900
7.236000 0.6920 0.6940 0.6940 0.6940 0.6950
7.269801 0.6950 0.6970 0.6990 0.6990 0.7000
7.304000 0.7020 0.7020 0.7020 0.7020 0.7040
7.337801 0.7040 0.7050 0.7050 0.7070 0.7070
7.372000 0.7070 0.7070 0.7070 0.7090 0.7090
7.405801 0.7100 0.7120 0.7120 0.7120 0.7140
7.439000 0.7120 0.7140 0.7140 0.7150 0.7150
7.472801 0.7150 0.7170 0.7190 0.7190 0.7210
7.507000 0.7210 0.7210 0.7220 0.7220 0.7220
7.540801 0.7240 0.7240 0.7260 0.7270 0.7270
7.574000 0.7290 0.7290 0.7290 0.7290 0.7290
7.607801 0.7310 0.7320 0.7340 0.7340 0.7340
7.642000 0.7340 0.7360 0.7360 0.7360 0.7370
7.675801 0.7390 0.7390 0.7390 0.7390 0.7410
7.709000 0.7410 0.7410 0.7420 0.7440 0.7440
7.742801 0.7440 0.7460 0.7460 0.7460 0.7460
7.777000 0.7470 0.7470 0.7470 0.7470 0.7490
7.810801 0.7490 0.7490 0.7490 0.7490 0.7510
7.845000 0.7490 0.7490 0.7470 0.7470 0.7460
7.878801 0.7470 0.7470 0.7470 0.7470 0.7460
7.912000 0.7460 0.7460 0.7460 0.7470 0.7470
7.945801 0.7470 0.7470 0.7470 0.7490 0.7510
7.980000 0.7520 0.7520 0.7520 0.7540 0.7540
8.013801 0.7560 0.7560 0.7570 0.7570 0.7570
8.047000 0.7570 0.7610 0.7610 0.7630 0.7640
8.080801 0.7660 0.7680 0.7680 0.7690 0.7730
8.115000 0.7730 0.7740 0.7790 0.7790 0.7810
8.148801 0.7830 0.7840 0.7840 0.7840 0.7860
8.182000 0.7860 0.7860 0.7860 0.7860 0.7880
8.215801 0.7860 0.7860 0.7860 0.7840 0.7840
8.250000 0.7840 0.7840 0.7830 0.7830 0.7830
8.283801 0.7830 0.7830 0.7830 0.7840 0.7830
8.318000 0.7840 0.7840 0.7840 0.7840 0.7860
8.351801 0.7860 0.7860 0.7860 0.7880 0.7880
8.385000 0.7890 0.7890 0.7890 0.7890 0.7890
8.418801 0.7890 0.7890 0.7910 0.7910 0.7910
8.453000 0.7910 0.7910 0.7910 0.7930 0.7930
8.486801 0.7940 0.7940 0.7940 0.7940 0.7940
8.520000 0.7940 0.7940 0.7940 0.7940 0.7940
8.553801 0.7940 0.7940 0.7940 0.7940 0.7940
8.588000 0.7960 0.7940 0.7940 0.7960 0.7960
8.621801 0.7980 0.7980 0.7980 0.8010 0.8010
8.655000 0.8010 0.8030 0.8030 0.8050 0.8050
8.688801 0.8060 0.8080 0.8080 0.8100 0.8100
8.723000 0.8130 0.8150 0.8160 0.8180 0.8180
8.756801 0.8200 0.8200 0.8200 0.8200 0.8200
8.791000 0.8200 0.8200 0.8200 0.8200 0.8200
8.824801 0.8200 0.8200 0.8200 0.8210 0.8210
8.858000 0.8210 0.8210 0.8200 0.8200 0.8210
8.891801 0.8210 0.8210 0.8210 0.8210 0.8210
8.926000 0.8210 0.8200 0.8200 0.8180 0.8180
8.959801 0.8160 0.8160 0.8150 0.8130 0.8130
8.993000 0.8100 0.8050 0.8000 0.7940 0.7940
9.026801 0.7930 0.7910 0.7910 0.7890 0.7890
9.061000 0.7890 0.7880 0.7880 0.7880 0.7880
9.094801 0.7880 0.7890 0.7890 0.7910 0.7910
9.128000 0.7910 0.7930 0.7930 0.7940 0.7940
9.161801 0.7940 0.7940 0.7940 0.7940 0.7940
9.196000 0.7940 0.7960 0.7960 0.7960 0.7960
9.229801 0.7980 0.7980 0.8000 0.8000 0.8010
9.264000 0.8010 0.8050 0.8050 0.8060 0.8060
9.297801 0.8060 0.8060 0.8060 0.8060 0.8030
9.331000 0.7980 0.7940 0.7880 0.7760 0.7740
9.364801 0.7710 0.7630 0.7490 0.7390 0.7240
9.399000 0.7170 0.7070 0.7040 0.7040 0.6970
9.432801 0.6950 0.6890 0.6780 0.6700 0.6350
9.466000 0.6280 0.6010 0.5860 0.5740 0.5660
9.499801 0.5570 0.5520 0.5510 0.5510 0.5490
9.534000 0.5470 0.5470 0.5540 0.5570 0.5610
9.567801 0.5660 0.5710 0.5780 0.5860 0.5910
9.601000 0.5940 0.6010 0.6060 0.6180 0.6280
9.634801 0.6300 0.6360 0.6450 0.6530 0.6620
9.669000 0.6720 0.6750 0.6820 0.6870 0.6920
9.702801 0.6990 0.7020 0.7050 0.7090 0.7120
9.736000 0.7170 0.7190 0.7240 0.7270 0.7310
9.769801 0.7320 0.7360 0.7370 0.7390 0.7420
9.804000 0.7460 0.7490 0.7510 0.7510 0.7510
9.837801 0.7510 0.7510 0.7490 0.7390 0.7360
9.872000 0.7310 0.7220 0.7170 0.7070 0.7000
9.905801 0.6920 0.6770 0.6720 0.6620 0.6550
9.939000 0.6430 0.6350 0.6210 0.6130 0.6130
9.972801 0.6150 0.6160 0.6200 0.6230 0.6360
10.007000 0.6470 0.6520 0.6650 0.6770 0.6890
10.040801 0.7020 0.7090 0.7210 0.7290 0.7460
10.074000 0.7560 0.7640 0.7710 0.7910 0.7960
10.107801 0.8050 0.8100 0.8150 0.8180 0.8230
10.142000 0.8260 0.8300 0.8300 0.8310 0.8310
10.175801 0.8330 0.8330 0.8330 0.8330 0.8310
10.209000 0.8280 0.8260 0.8250 0.8230 0.8200
10.242801 0.8110 0.8060 0.7960 0.7890 0.7810
10.277000 0.7730 0.7640 0.7410 0.7210 0.7020
10.310801 0.6680 0.6480 0.6360 0.6250 0.6130
10.345000 0.5940 0.5790 0.5560 0.5460 0.5360
10.378801 0.5260 0.5140 0.5050 0.4990 0.4900
10.412000 0.4700 0.4630 0.4520 0.4430 0.4400
10.445801 0.4360 0.4350 0.4310 0.4300 0.4280
10.480000 0.4260 0.4250 0.4230 0.4250 0.4330
10.513801 0.4430 0.4530 0.4630 0.4750 0.4990
10.547000 0.5210 0.5270 0.6030 0.6200 0.6620
10.580801 0.6850 0.7000 0.7070 0.7150 0.7310
10.615000 0.7370 0.7420 0.7440 0.7440 0.7460
10.648801 0.7440 0.7420 0.7410 0.7320 0.7040
10.682000 0.6770 0.6480 0.6180 0.5840 0.5570
10.715801 0.5440 0.5310 0.4970 0.4480 0.4400
10.750000 0.4180 0.3960 0.3790 0.3690 0.3560
10.783801 0.3460 0.3320 0.3270 0.3260 0.3240
10.818000 0.3220 0.3210 0.3210 0.3220 0.3240
10.851801 0.3290 0.3310 0.3370 0.3440 0.3490
10.885000 0.3560 0.3590 0.3640 0.3680 0.3730
10.918801 0.3730 0.3760 0.3760 0.3780 0.3790
10.953000 0.3790 0.3790 0.3790 0.3810 0.3810
10.986801 0.3830 0.3830 0.3840 0.3840 0.3860
11.020000 0.3880 0.3910 0.3980 0.4050 0.4150
11.053801 0.4210 0.4300 0.4350 0.4360 0.4380
11.088000 0.4400 0.4400 0.4400 0.4380 0.4380
11.121801 0.4360 0.4330 0.4310 0.4280 0.4230
11.155000 0.4180 0.4110 0.4050 0.3960 0.3860
11.188801 0.3740 0.3680 0.3660 0.3640 0.3610
11.223000 0.3590 0.3590 0.3590 0.3610 0.3630
11.256801 0.3680 0.3740 0.3840 0.3910 0.4030
11.291000 0.4130 0.4230 0.4310 0.4430 0.4500
11.324801 0.4580 0.4650 0.4670 0.4680 0.4700
11.358000 0.4720 0.4720 0.4730 0.4730 0.4730
11.391801 0.4750 0.4750 0.4770 0.4770 0.4770
11.426000 0.4750 0.4730 0.4720 0.4630 0.4550
11.459801 0.4450 0.4420 0.4360 0.4310 0.4250
11.493000 0.4230 0.4210 0.4160 0.4160 0.4210
11.526801 0.4230 0.4300 0.4350 0.4400 0.4570
11.561000 0.4730 0.4840 0.4900 0.4940 0.5000
11.594801 0.5170 0.5260 0.5390 0.5440 0.5570
11.628000 0.5640 0.5690 0.5740 0.5810 0.5860
11.661801 0.5910 0.5960 0.6030 0.6060 0.6110
11.696000 0.6180 0.6210 0.6260 0.6300 0.6310
11.729801 0.6360 0.6380 0.6420 0.6430 0.6450
11.764000 0.6470 0.6470 0.6480 0.6480 0.6480
11.797801 0.6500 0.6500 0.6500 0.6500 0.6500
11.831000 0.6500 0.6500 0.6500 0.6500 0.6480
11.864801 0.6480 0.6470 0.6450 0.6430 0.6420
11.899000 0.6400 0.6400 0.6400 0.6380 0.6380
11.932801 0.6360 0.6360 0.6360 0.6360 0.6360
11.966000 0.6350 0.6310 0.6330 0.6300 0.6260
11.999801 0.6200 0.6050 0.5960 0.5880 0.5740
12.034000 0.5640 0.5570 0.5510 0.5420 0.5320
12.067801 0.5220 0.5040 0.4950 0.4720 0.4480
12.101000 0.4470 0.4380 0.4100 0.4030 0.4000
12.134801 0.3960 0.3910 0.3890 0.3910 0.3930
12.169000 0.3980 0.4050 0.4110 0.4210 0.4330
12.202801 0.4470 0.4600 0.4820 0.5140 0.5210
12.236000 0.5260 0.5310 0.5370 0.5440 0.5590
12.269801 0.5640 0.5660 0.5710 0.5730 0.5780
12.304000 0.5780 0.5780 0.5760 0.5760 0.5730
12.337801 0.5710 0.5660 0.5610 0.5570 0.5540
12.372000 0.5490 0.5420 0.5390 0.5170 0.4990
12.405801 0.4890 0.4730 0.4600 0.4010 0.3910
12.439000 0.3710 0.3610 0.3520 0.3370 0.3310
12.472801 0.3150 0.2990 0.2920 0.2850 0.2800
12.507000 0.2770 0.2730 0.2720 0.2700 0.2720
12.540801 0.2720 0.2730 0.2750 0.2770 0.2820
12.574000 0.2870 0.2920 0.2990 0.3020 0.3100
12.607801 0.3170 0.3520 0.3560 0.3660 0.3740
12.642000 0.3790 0.3890 0.3960 0.4010 0.4130
12.675801 0.4280 0.4400 0.4480 0.4480 0.4570
12.709000 0.4600 0.4630 0.4700 0.4820 0.4940
12.742801 0.5020 0.5120 0.5210 0.5260 0.5340
12.777000 0.5390 0.5410 0.5440 0.5460 0.5570
12.810801 0.5610 0.5630 0.5640 0.5640 0.5690
12.845000 0.5730 0.5760 0.5780 0.5790 0.5810
12.878801 0.5840 0.5860 0.5880 0.5890 0.5910
12.912000 0.5930 0.5930 0.5940 0.5960 0.5960
12.945801 0.5980 0.5980 0.6000 0.6000 0.6000
12.980000 0.6000 0.6000 0.6000 0.5980 0.5960
13.013801 0.5960 0.5940 0.5910 0.5840 0.5790
13.047000 0.5730 0.5640 0.5610 0.5560 0.5520
13.080801 0.5470 0.5410 0.5370 0.5290 0.5240
13.115000 0.5170 0.5090 0.5040 0.4990 0.4920
13.148801 0.4870 0.4800 0.4720 0.4670 0.4580
13.182000 0.4530 0.4470 0.4380 0.4310 0.4280
13.215801 0.4280 0.4260 0.4260 0.4260 0.4260
13.250000 0.4280 0.4300 0.4330 0.4450 0.4520
13.283801 0.4580 0.4650 0.4700 0.4780 0.4840
13.318000 0.4920 0.4950 0.4990 0.5100 0.5120
13.351801 0.5150 0.5220 0.5240 0.5290 0.5320
13.385000 0.5340 0.5360 0.5370 0.5370 0.5390
13.418801 0.5410 0.5420 0.5420 0.5440 0.5470
13.453000 0.5490 0.5560 0.5560 0.5590 0.5630
13.486801 0.5640 0.5710 0.5760 0.5780 0.5780
13.520000 0.5810 0.5830 0.5830 0.5840 0.5840
13.553801 0.5840 0.5840 0.5830 0.5810 0.5810
13.588000 0.5780 0.5760 0.5730 0.5710 0.5690
13.621801 0.5660 0.5630 0.5590 0.5570 0.5560
13.655000 0.5560 0.5520 0.5520 0.5510 0.5510
13.688801 0.5490 0.5490 0.5470 0.5460 0.5460
13.723000 0.5440 0.5440 0.5440 0.5440 0.5440
13.756801 0.5440 0.5440 0.5440 0.5440 0.5440
13.791000 0.5440 0.5440 0.5440 0.5440 0.5420
13.824801 0.5420 0.5390 0.5370 0.5360 0.5320
13.858000 0.5290 0.5260 0.5220 0.5170 0.5120
13.891801 0.5090 0.5040 0.5000 0.4950 0.4920
13.926000 0.4890 0.4820 0.4780 0.4720 0.4670
13.959801 0.4630 0.4580 0.4530 0.4470 0.4420
13.993000 0.4310 0.4230 0.4150 0.4100 0.4000
14.026801 0.3940 0.3860 0.3780 0.3680 0.3640
14.061000 0.3560 0.3520 0.3510 0.3470 0.3460
14.094801 0.3440 0.3440 0.3440 0.3440 0.3460
14.128000 0.3490 0.3510 0.3570 0.3660 0.3760
14.161801 0.3880 0.4000 0.4110 0.4210 0.4280
14.196000 0.4380 0.4450 0.4480 0.4580 0.4630
14.229801 0.4700 0.4730 0.4780 0.4850 0.4900
14.264000 0.4950 0.5000 0.5050 0.5120 0.5150
14.297801 0.5190 0.5240 0.5270 0.5310 0.5370
14.331000 0.5410 0.5440 0.5470 0.5520 0.5540
14.364801 0.5560 0.5590 0.5610 0.5630 0.5680
14.399000 0.5690 0.5710 0.5740 0.5780 0.5790
14.432801 0.5830 0.5860 0.5860 0.5890 0.5930
14.466000 0.5940 0.5960 0.6000 0.6010 0.6050
14.499801 0.6060 0.6100 0.6130 0.6180 0.6210
14.534000 0.6250 0.6310 0.6330 0.6360 0.6380
14.567801 0.6380 0.6400 0.6420 0.6430 0.6450
14.601000 0.6450 0.6470 0.6500 0.6520 0.6520
14.634801 0.6530 0.6530 0.6550 0.6550 0.6570
14.669000 0.6570 0.6580 0.6580 0.6580 0.6580
14.702801 0.6580 0.6580 0.6570 0.6570 0.6570
14.736000 0.6550 0.6550 0.6530 0.6520 0.6500
14.769801 0.6480 0.6470 0.6450 0.6430 0.6350
14.804000 0.6330 0.6310 0.6280 0.6260 0.6210
14.837801 0.6150 0.6110 0.6050 0.6000 0.5960
14.872000 0.5910 0.5860 0.5840 0.5760 0.5730
14.905801 0.5680 0.5630 0.5590 0.5540 0.5520
14.939000 0.5510 0.5490 0.5460 0.5460 0.5440
14.972801 0.5440 0.5460 0.5460 0.5470 0.5490
15.007000 0.5540 0.5570 0.5610 0.5630 0.5680
15.040801 0.5730 0.5780 0.5810 0.5860 0.5880
15.074000 0.5940 0.5960 0.6010 0.6050 0.6100
15.107801 0.6130 0.6180 0.6230 0.6250 0.6280
15.142000 0.6310 0.6330 0.6360 0.6380 0.6400
15.175801 0.6450 0.6480 0.6500 0.6530 0.6550
15.209000 0.6570 0.6580 0.6600 0.6620 0.6620
15.242801 0.6630 0.6630 0.6630 0.6650 0.6670
15.277000 0.6680 0.6720 0.6750 0.6750 0.6770
15.310801 0.6770 0.6780 0.6800 0.6800 0.6800
15.345000 0.6800 0.6820 0.6820 0.6840 0.6840
15.378801 0.6850 0.6870 0.6870 0.6890 0.6890
15.412000 0.6900 0.6940 0.6950 0.6970 0.6990
15.445801 0.7000 0.7020 0.7040 0.7050 0.7070
15.480000 0.7100 0.7120 0.7070 0.7100
##END=
