##TITLE=MERCAPTOACETHYDRAZIDE HYDRAZINIUM SALT
##JCAMP-DX=4.24
##DATA TYPE=INFRARED SPECTRUM
##CLASS=COBLENTZ
##ORIGIN=ARTHUR D. LITTLE, INC.
##OWNER=COBLENTZ SOCIETY
Collection (C) 2018 copyright by the U.S. Secretary of Commerce
on behalf of the United States of America. All rights reserved.
##DATE=Not specified, most likely prior to 1970
##MOLFORM=C2 H10 N4 S O
##MP=76-78 C
##SOURCE REFERENCE=COBLENTZ NO. 4593
##$NIST ID=B6004593
##$NIST SOURCE=COBLENTZ
##$NIST IMAGE=cob4593
##SPECTROMETER/DATA SYSTEM=Not specified, most likely a prism, grating, or hybrid spectrometer.
##STATE=SOLID (MINERAL OIL MULL)
##PATH LENGTH=
$$SPECTRAL CONTAMINATIN DUE TO OIL AROUND 2900 CM^-^1
##SAMPLING PROCEDURE=TRANSMISSION
##RESOLUTION=4
##DATA PROCESSING=DIGITIZED BY NIST FROM HARD COPY
##XUNITS=MICROMETERS
##YUNITS=TRANSMITTANCE
##XFACTOR=1.000000
##YFACTOR=1
##DELTAX=000.006033
##FIRSTX=2.505
##LASTX=15.0061
##FIRSTY=0.694
##MAXX=15.0061
##MINX=2.505
##MAXY=0.708
##MINY=0.066
##NPOINTS=2073
##XYDATA=(X++(Y..Y))
2.505000 0.6940 0.6950 0.6960 0.6970 0.6990
2.535180 0.7000 0.7010 0.7010 0.7020 0.7030
2.566000 0.7050 0.7060 0.7070 0.7070 0.7080
2.596180 0.7080 0.7070 0.7050 0.7020 0.7010
2.626000 0.6990 0.6970 0.6960 0.6950 0.6930
2.656180 0.6900 0.6870 0.6840 0.6810 0.6770
2.686000 0.6750 0.6710 0.6670 0.6650 0.6610
2.716180 0.6590 0.6570 0.6530 0.6510 0.6490
2.747000 0.6470 0.6460 0.6450 0.6430 0.6410
2.777180 0.6400 0.6380 0.6370 0.6360 0.6360
2.807000 0.6350 0.6340 0.6320 0.6300 0.6290
2.837180 0.6280 0.6250 0.6240 0.6230 0.6200
2.867000 0.6170 0.6130 0.6070 0.6060 0.6020
2.897180 0.5990 0.5930 0.5870 0.5780 0.5690
2.928000 0.5570 0.5450 0.5300 0.5130 0.4950
2.958180 0.4750 0.4530 0.4280 0.4120 0.3980
2.988000 0.3790 0.3560 0.2690 0.2110 0.2020
3.018180 0.1880 0.1750 0.1620 0.1490 0.1350
3.048000 0.1230 0.1210 0.1220 0.1290 0.1390
3.078180 0.1480 0.1560 0.1660 0.1760 0.1850
3.109000 0.1930 0.2020 0.2050 0.2080 0.2100
3.139180 0.2110 0.2140 0.2150 0.2220 0.2390
3.169000 0.2470 0.2550 0.2630 0.2700 0.2810
3.199180 0.2970 0.2980 0.2960 0.2830 0.2750
3.229000 0.2670 0.2570 0.2470 0.2380 0.2260
3.259180 0.2140 0.2080 0.2060 0.2080 0.2190
3.290000 0.2330 0.2330 0.2320 0.2250 0.2160
3.320180 0.2060 0.1970 0.1860 0.1750 0.1640
3.350000 0.1540 0.1430 0.1320 0.1220 0.1130
3.380180 0.1030 0.0950 0.0870 0.0810 0.0770
3.410000 0.0720 0.0690 0.0680 0.0680 0.0680
3.440180 0.0690 0.0700 0.0700 0.0700 0.0700
3.471000 0.0720 0.0720 0.0730 0.0730 0.0750
3.501180 0.0980 0.1200 0.1350 0.1450 0.1510
3.531000 0.1560 0.1600 0.1610 0.1620 0.1630
3.561180 0.1630 0.1640 0.1660 0.1670 0.1670
3.591000 0.1640 0.1600 0.1560 0.1500 0.1440
3.621180 0.1370 0.1310 0.1280 0.1280 0.1370
3.652000 0.1500 0.1620 0.1730 0.1840 0.1900
3.682180 0.1920 0.1970 0.1980 0.1980 0.1980
3.712000 0.1980 0.1970 0.1970 0.1960 0.1960
3.742180 0.1960 0.1960 0.1940 0.1940 0.1940
3.772000 0.1920 0.1880 0.1850 0.1790 0.1740
3.802180 0.1670 0.1570 0.1480 0.1350 0.1200
3.833000 0.1170 0.1130 0.1080 0.1040 0.1020
3.863180 0.1010 0.1020 0.1040 0.1090 0.1150
3.893000 0.1200 0.1260 0.1320 0.1400 0.1500
3.923180 0.1610 0.1680 0.1810 0.1910 0.2000
3.953000 0.2110 0.2230 0.2320 0.2440 0.2530
3.983180 0.2670 0.2670 0.2760 0.2930 0.3100
4.014000 0.3210 0.3290 0.3360 0.3420 0.3510
4.044180 0.3640 0.3750 0.3810 0.3880 0.3970
4.074000 0.4040 0.4130 0.4220 0.4320 0.4400
4.104180 0.4500 0.4570 0.4640 0.4700 0.4800
4.134000 0.4890 0.4980 0.5070 0.5150 0.5230
4.164180 0.5290 0.5340 0.5370 0.5400 0.5410
4.195000 0.5410 0.5410 0.5410 0.5400 0.5390
4.225180 0.5370 0.5360 0.5350 0.5340 0.5330
4.255000 0.5330 0.5310 0.5310 0.5330 0.5340
4.285180 0.5360 0.5400 0.5410 0.5520 0.5600
4.315000 0.5640 0.5660 0.5710 0.5740 0.5770
4.345180 0.5810 0.5860 0.5900 0.5950 0.5960
4.376000 0.5980 0.5980 0.5980 0.5980 0.5980
4.406180 0.5980 0.5980 0.5990 0.5990 0.6000
4.436000 0.6000 0.6020 0.6050 0.6070 0.6100
4.466180 0.6120 0.6130 0.6140 0.6160 0.6170
4.496000 0.6190 0.6200 0.6240 0.6250 0.6260
4.526180 0.6280 0.6290 0.6300 0.6310 0.6340
4.557000 0.6410 0.6510 0.6520 0.6530 0.6540
4.587180 0.6540 0.6570 0.6580 0.6580 0.6590
4.617000 0.6590 0.6590 0.6580 0.6550 0.6540
4.647180 0.6530 0.6530 0.6520 0.6490 0.6480
4.677000 0.6460 0.6430 0.6420 0.6410 0.6410
4.707180 0.6410 0.6410 0.6410 0.6410 0.6400
4.738000 0.6400 0.6380 0.6370 0.6360 0.6320
4.768180 0.6310 0.6300 0.6250 0.6170 0.6120
4.798000 0.6050 0.6010 0.5960 0.5930 0.5900
4.828180 0.5880 0.5870 0.5860 0.5870 0.5890
4.858000 0.5920 0.5930 0.5950 0.5980 0.6010
4.888180 0.6050 0.6080 0.6130 0.6170 0.6180
4.919000 0.6190 0.6200 0.6200 0.6220 0.6220
4.949180 0.6230 0.6240 0.6240 0.6240 0.6240
4.979000 0.6240 0.6230 0.6230 0.6200 0.6170
5.009180 0.6140 0.6140 0.6130 0.6120 0.6120
5.039000 0.6110 0.6100 0.6080 0.6070 0.6060
5.069180 0.6060 0.6050 0.6050 0.6060 0.6080
5.100000 0.6110 0.6160 0.6190 0.6230 0.6300
5.130180 0.6320 0.6370 0.6400 0.6420 0.6450
5.160000 0.6470 0.6480 0.6520 0.6530 0.6550
5.190180 0.6570 0.6580 0.6590 0.6600 0.6610
5.220000 0.6640 0.6650 0.6650 0.6690 0.6700
5.250180 0.6710 0.6720 0.6720 0.6710 0.6700
5.281000 0.6700 0.6690 0.6690 0.6700 0.6780
5.311180 0.6870 0.6900 0.6910 0.6930 0.6940
5.341000 0.6950 0.6960 0.6960 0.6970 0.6970
5.371180 0.6990 0.6990 0.7000 0.7000 0.7000
5.401000 0.7000 0.7000 0.7000 0.7000 0.7000
5.431180 0.7000 0.7000 0.7000 0.7000 0.6990
5.462000 0.6990 0.6990 0.6990 0.6990 0.6970
5.492180 0.6970 0.6960 0.6960 0.6960 0.6970
5.522000 0.6970 0.6990 0.6990 0.7000 0.7000
5.552180 0.7000 0.6990 0.6990 0.6970 0.6970
5.582000 0.6960 0.6960 0.6950 0.6940 0.6930
5.612180 0.6910 0.6910 0.6900 0.6890 0.6880
5.643000 0.6870 0.6830 0.6810 0.6780 0.6750
5.673180 0.6700 0.6670 0.6650 0.6630 0.6610
5.703000 0.6600 0.6590 0.6570 0.6530 0.6490
5.733180 0.6450 0.6410 0.6380 0.6380 0.6370
5.763000 0.6340 0.6320 0.6230 0.6220 0.6200
5.793180 0.6190 0.6190 0.6180 0.6170 0.6170
5.824000 0.6130 0.6060 0.5990 0.5960 0.5920
5.854180 0.5840 0.5810 0.5780 0.5770 0.5750
5.884000 0.5740 0.5660 0.5610 0.5570 0.5510
5.914180 0.5430 0.5370 0.5310 0.5250 0.5160
5.944000 0.5070 0.4980 0.4860 0.4710 0.4580
5.974180 0.4440 0.4290 0.4170 0.4060 0.3980
6.005000 0.3860 0.3700 0.3540 0.3360 0.3180
6.035180 0.3020 0.2850 0.2700 0.2570 0.2510
6.065000 0.2410 0.2310 0.2190 0.2120 0.2080
6.095180 0.2020 0.1810 0.1610 0.1380 0.1210
6.125000 0.1080 0.0990 0.0930 0.0900 0.0840
6.155180 0.0750 0.0670 0.0660 0.0660 0.0680
6.186000 0.0790 0.0840 0.0900 0.1030 0.1160
6.216180 0.1290 0.1430 0.1540 0.1790 0.1990
6.246000 0.2150 0.2280 0.2390 0.2470 0.2550
6.276180 0.2610 0.2680 0.2690 0.2710 0.2800
6.306000 0.2860 0.2900 0.2940 0.2980 0.3020
6.336180 0.3060 0.3100 0.3140 0.3180 0.3230
6.367000 0.3270 0.3290 0.3300 0.3290 0.3170
6.397180 0.2930 0.2830 0.2690 0.2680 0.2680
6.427000 0.2690 0.2710 0.2740 0.2760 0.2790
6.457180 0.2810 0.2830 0.2870 0.2900 0.2920
6.487000 0.2940 0.2980 0.3000 0.3050 0.3080
6.517180 0.3140 0.3180 0.3220 0.3260 0.3300
6.548000 0.3360 0.3410 0.3590 0.3890 0.3950
6.578180 0.4030 0.4120 0.4230 0.4280 0.4320
6.608000 0.4330 0.4340 0.4350 0.4380 0.4440
6.638180 0.4530 0.4580 0.4600 0.4620 0.4620
6.668000 0.4620 0.4630 0.4630 0.4630 0.4630
6.698180 0.4640 0.4640 0.4640 0.4640 0.4630
6.729000 0.4630 0.4600 0.4570 0.4480 0.4440
6.759180 0.4330 0.4050 0.3830 0.3690 0.3620
6.789000 0.3540 0.3470 0.3350 0.3280 0.3260
6.819180 0.3220 0.3200 0.3200 0.3180 0.3180
6.849000 0.3200 0.3210 0.3230 0.3270 0.3280
6.879180 0.3300 0.3340 0.3360 0.3380 0.3380
6.910000 0.3220 0.3110 0.3050 0.3020 0.3020
6.940180 0.3090 0.3150 0.3210 0.3340 0.3520
6.970000 0.3740 0.3950 0.4170 0.4350 0.4470
7.000180 0.4500 0.4570 0.4600 0.4600 0.4620
7.030000 0.4630 0.4650 0.4720 0.4750 0.4820
7.060180 0.4860 0.4890 0.4920 0.4930 0.4960
7.090000 0.4980 0.4980 0.4990 0.5010 0.5010
7.120180 0.5030 0.5030 0.5040 0.5040 0.5040
7.151000 0.5040 0.5040 0.5040 0.5030 0.4980
7.181180 0.4820 0.4680 0.4570 0.4540 0.4450
7.211000 0.4350 0.4320 0.4230 0.4190 0.4190
7.241180 0.4240 0.4290 0.4340 0.4460 0.4630
7.271000 0.4660 0.4720 0.4820 0.4900 0.4990
7.301180 0.5010 0.5030 0.5100 0.5170 0.5270
7.332000 0.5330 0.5360 0.5390 0.5410 0.5430
7.362180 0.5450 0.5460 0.5450 0.5450 0.5420
7.392000 0.5410 0.5370 0.5340 0.5300 0.5250
7.422180 0.5210 0.5160 0.5100 0.5010 0.4940
7.452000 0.4840 0.4810 0.4720 0.4690 0.4600
7.482180 0.4340 0.4060 0.4040 0.3760 0.3740
7.513000 0.3630 0.3580 0.3520 0.3470 0.3420
7.543180 0.3390 0.3340 0.3330 0.3320 0.3330
7.573000 0.3350 0.3410 0.3450 0.4130 0.4250
7.603180 0.4300 0.4320 0.4380 0.4580 0.4770
7.633000 0.4920 0.5000 0.5030 0.5070 0.5120
7.663180 0.5150 0.5180 0.5220 0.5250 0.5290
7.694000 0.5330 0.5350 0.5390 0.5410 0.5450
7.724180 0.5470 0.5510 0.5600 0.5630 0.5660
7.754000 0.5710 0.5720 0.5740 0.5740 0.5750
7.784180 0.5750 0.5770 0.5770 0.5770 0.5770
7.814000 0.5770 0.5770 0.5760 0.5750 0.5740
7.844180 0.5720 0.5700 0.5650 0.5600 0.5520
7.875000 0.5470 0.5390 0.5290 0.5110 0.5100
7.905180 0.5110 0.4990 0.4920 0.4840 0.4770
7.935000 0.4700 0.4630 0.4560 0.4480 0.4390
7.965180 0.4390 0.4410 0.4520 0.4640 0.4770
7.995000 0.4890 0.4990 0.5160 0.5280 0.5310
8.025180 0.5390 0.5420 0.5540 0.5600 0.5640
8.056000 0.5690 0.5720 0.5760 0.5800 0.5840
8.086180 0.5880 0.5920 0.5930 0.5940 0.5960
8.116000 0.5980 0.5980 0.5980 0.5960 0.5950
8.146180 0.5950 0.5940 0.5930 0.5920 0.5900
8.176000 0.5900 0.5890 0.5890 0.5890 0.5900
8.206180 0.5930 0.5950 0.5980 0.6010 0.6040
8.237000 0.6070 0.6110 0.6140 0.6170 0.6200
8.267180 0.6240 0.6280 0.6300 0.6320 0.6340
8.297000 0.6340 0.6340 0.6320 0.6310 0.6300
8.327180 0.6290 0.6290 0.6280 0.6230 0.6190
8.357000 0.6140 0.6100 0.6020 0.5980 0.5920
8.387180 0.5830 0.5770 0.5670 0.5580 0.5460
8.418000 0.5330 0.5190 0.5050 0.4890 0.4740
8.448180 0.4570 0.4410 0.4250 0.4100 0.3940
8.478000 0.3800 0.3650 0.3390 0.3350 0.3390
8.508180 0.3630 0.3950 0.4180 0.4360 0.4510
8.538000 0.4680 0.4880 0.5030 0.5480 0.5550
8.568180 0.5600 0.5650 0.5710 0.5750 0.5780
8.599000 0.5800 0.5810 0.5830 0.5870 0.5900
8.629180 0.5950 0.6010 0.6040 0.6060 0.6070
8.659000 0.6080 0.6080 0.6100 0.6100 0.6100
8.689180 0.6110 0.6110 0.6120 0.6120 0.6130
8.719000 0.6140 0.6140 0.6130 0.6110 0.6080
8.749180 0.6050 0.5980 0.5900 0.5820 0.5720
8.780000 0.5640 0.5540 0.5450 0.5360 0.5300
8.810180 0.5240 0.5160 0.5100 0.4540 0.4410
8.840000 0.4130 0.4010 0.4010 0.3890 0.3740
8.870180 0.3620 0.3530 0.3480 0.3410 0.3290
8.900000 0.3280 0.3290 0.3380 0.3410 0.3440
8.930180 0.3460 0.3510 0.3540 0.3590 0.3640
8.961000 0.3680 0.3690 0.3700 0.3710 0.3700
8.991180 0.3560 0.3450 0.3410 0.3350 0.3280
9.021000 0.3270 0.3230 0.3230 0.3260 0.3290
9.051180 0.3330 0.3380 0.3410 0.3450 0.3500
9.081000 0.3540 0.3590 0.3620 0.4740 0.4900
9.111180 0.4990 0.5050 0.5150 0.5210 0.5280
9.142000 0.5450 0.5640 0.5650 0.5690 0.5700
9.172180 0.5700 0.5720 0.5750 0.5770 0.5780
9.202000 0.5820 0.5860 0.5900 0.5950 0.5980
9.232180 0.6000 0.6020 0.6050 0.6070 0.6100
9.262000 0.6140 0.6170 0.6190 0.6230 0.6250
9.292180 0.6260 0.6290 0.6300 0.6300 0.6310
9.323000 0.6310 0.6310 0.6320 0.6340 0.6340
9.353180 0.6350 0.6360 0.6360 0.6370 0.6410
9.383000 0.6430 0.6450 0.6460 0.6470 0.6480
9.413180 0.6490 0.6510 0.6520 0.6530 0.6540
9.443000 0.6540 0.6550 0.6550 0.6550 0.6550
9.473180 0.6550 0.6540 0.6540 0.6540 0.6530
9.504000 0.6530 0.6530 0.6530 0.6520 0.6520
9.534180 0.6520 0.6510 0.6510 0.6490 0.6490
9.564000 0.6470 0.6460 0.6350 0.6290 0.6230
9.594180 0.6190 0.6140 0.6100 0.6050 0.6000
9.624000 0.5940 0.5860 0.5800 0.5740 0.5670
9.654180 0.5600 0.5470 0.5310 0.5250 0.5160
9.685000 0.5040 0.4810 0.4560 0.4300 0.4190
9.715180 0.4120 0.4010 0.3950 0.3770 0.3650
9.745000 0.3530 0.3350 0.3280 0.3090 0.2980
9.775180 0.2900 0.2650 0.2430 0.2290 0.2270
9.805000 0.2270 0.2290 0.2430 0.2560 0.2680
9.835180 0.2790 0.2880 0.3080 0.3360 0.3680
9.866000 0.4030 0.4340 0.4460 0.4760 0.5010
9.896180 0.5090 0.5120 0.5170 0.5230 0.5310
9.926000 0.5460 0.5650 0.5690 0.5710 0.5750
9.956180 0.5770 0.5800 0.5830 0.5860 0.5880
9.986000 0.5900 0.5930 0.5950 0.5990 0.6010
10.016180 0.6040 0.6060 0.6100 0.6120 0.6160
10.047000 0.6180 0.6220 0.6250 0.6280 0.6290
10.077180 0.6300 0.6320 0.6340 0.6360 0.6370
10.107000 0.6380 0.6400 0.6410 0.6420 0.6450
10.137180 0.6460 0.6460 0.6470 0.6480 0.6480
10.167000 0.6490 0.6490 0.6510 0.6510 0.6520
10.197180 0.6520 0.6520 0.6520 0.6520 0.6520
10.228000 0.6520 0.6520 0.6520 0.6520 0.6520
10.258180 0.6520 0.6520 0.6510 0.6510 0.6490
10.288000 0.6480 0.6470 0.6460 0.6410 0.6370
10.318180 0.6340 0.6300 0.6290 0.6290 0.6230
10.348000 0.6180 0.6140 0.6080 0.6040 0.5890
10.378180 0.5650 0.5460 0.5290 0.4560 0.4480
10.409000 0.4210 0.3680 0.3440 0.3200 0.2960
10.439180 0.2900 0.2690 0.2640 0.2580 0.2570
10.469000 0.2510 0.2500 0.2510 0.2760 0.3030
10.499180 0.3290 0.3570 0.4010 0.4590 0.4930
10.529000 0.5030 0.5120 0.5170 0.5190 0.5230
10.559180 0.5280 0.5330 0.5370 0.5420 0.5480
10.590000 0.5520 0.5580 0.5590 0.5590 0.5590
10.620180 0.5580 0.5530 0.5490 0.5450 0.5410
10.650000 0.5370 0.5330 0.5280 0.5230 0.5180
10.680180 0.5120 0.5050 0.4960 0.4870 0.4760
10.710000 0.4640 0.4580 0.4530 0.4470 0.4420
10.740180 0.4390 0.4380 0.4380 0.4400 0.4460
10.771000 0.4510 0.4540 0.4600 0.4660 0.4740
10.801180 0.4780 0.5170 0.5240 0.5410 0.5570
10.831000 0.5630 0.5650 0.5700 0.5740 0.5750
10.861180 0.5780 0.5860 0.5900 0.5950 0.6010
10.891000 0.6060 0.6100 0.6120 0.6160 0.6180
10.921180 0.6220 0.6240 0.6280 0.6290 0.6300
10.952000 0.6310 0.6320 0.6340 0.6340 0.6350
10.982180 0.6350 0.6360 0.6370 0.6380 0.6380
11.012000 0.6400 0.6400 0.6410 0.6410 0.6420
11.042180 0.6420 0.6430 0.6430 0.6450 0.6450
11.072000 0.6460 0.6470 0.6480 0.6490 0.6520
11.102180 0.6530 0.6530 0.6540 0.6540 0.6570
11.133000 0.6580 0.6580 0.6590 0.6590 0.6600
11.163180 0.6600 0.6610 0.6610 0.6630 0.6630
11.193000 0.6630 0.6640 0.6640 0.6640 0.6640
11.223180 0.6640 0.6640 0.6640 0.6640 0.6640
11.253000 0.6640 0.6640 0.6640 0.6640 0.6640
11.283180 0.6640 0.6640 0.6640 0.6630 0.6630
11.314000 0.6630 0.6630 0.6630 0.6630 0.6610
11.344180 0.6610 0.6610 0.6610 0.6600 0.6600
11.374000 0.6590 0.6590 0.6580 0.6570 0.6550
11.404180 0.6520 0.6510 0.6480 0.6450 0.6430
11.434000 0.6370 0.6340 0.6320 0.6310 0.6250
11.464180 0.6240 0.6230 0.6230 0.6220 0.6220
11.495000 0.6200 0.6200 0.6200 0.6190 0.6190
11.525180 0.6190 0.6190 0.6200 0.6200 0.6220
11.555000 0.6230 0.6240 0.6260 0.6280 0.6280
11.585180 0.6290 0.6290 0.6300 0.6300 0.6310
11.615000 0.6310 0.6310 0.6320 0.6320 0.6320
11.645180 0.6340 0.6340 0.6350 0.6350 0.6370
11.676000 0.6370 0.6380 0.6380 0.6400 0.6420
11.706180 0.6420 0.6450 0.6460 0.6480 0.6490
11.736000 0.6510 0.6530 0.6540 0.6540 0.6570
11.766180 0.6570 0.6590 0.6590 0.6600 0.6600
11.796000 0.6610 0.6610 0.6610 0.6610 0.6610
11.826180 0.6610 0.6610 0.6610 0.6610 0.6610
11.857000 0.6610 0.6600 0.6600 0.6600 0.6600
11.887180 0.6600 0.6600 0.6590 0.6590 0.6590
11.917000 0.6590 0.6580 0.6580 0.6580 0.6570
11.947180 0.6570 0.6570 0.6570 0.6550 0.6550
11.977000 0.6550 0.6540 0.6540 0.6540 0.6540
12.007180 0.6530 0.6530 0.6530 0.6530 0.6530
12.038000 0.6530 0.6530 0.6530 0.6530 0.6530
12.068180 0.6530 0.6530 0.6520 0.6520 0.6520
12.098000 0.6520 0.6520 0.6520 0.6520 0.6520
12.128180 0.6520 0.6520 0.6520 0.6520 0.6520
12.158000 0.6520 0.6520 0.6520 0.6520 0.6520
12.188180 0.6520 0.6520 0.6520 0.6520 0.6520
12.219000 0.6510 0.6490 0.6470 0.6460 0.6450
12.249180 0.6430 0.6410 0.6400 0.6380 0.6360
12.279000 0.6340 0.6320 0.6280 0.6230 0.6220
12.309180 0.6190 0.6190 0.6180 0.6180 0.6170
12.339000 0.6170 0.6170 0.6170 0.6170 0.6170
12.369180 0.6160 0.6140 0.6140 0.6130 0.6080
12.400000 0.6060 0.6050 0.6040 0.6010 0.5990
12.430180 0.5950 0.5930 0.5900 0.5890 0.5890
12.460000 0.5900 0.5920 0.5930 0.5940 0.5950
12.490180 0.5960 0.5960 0.5980 0.5980 0.6000
12.520000 0.6040 0.6050 0.6070 0.6100 0.6120
12.550180 0.6140 0.6180 0.6230 0.6290 0.6320
12.581000 0.6340 0.6350 0.6350 0.6350 0.6350
12.611180 0.6350 0.6350 0.6360 0.6360 0.6360
12.641000 0.6370 0.6380 0.6400 0.6420 0.6430
12.671180 0.6430 0.6430 0.6430 0.6430 0.6430
12.701000 0.6430 0.6430 0.6430 0.6430 0.6430
12.731180 0.6420 0.6420 0.6420 0.6420 0.6420
12.762000 0.6420 0.6420 0.6420 0.6420 0.6420
12.792180 0.6410 0.6410 0.6410 0.6410 0.6410
12.822000 0.6400 0.6380 0.6380 0.6380 0.6370
12.852180 0.6360 0.6360 0.6350 0.6350 0.6340
12.882000 0.6340 0.6320 0.6310 0.6300 0.6290
12.912180 0.6290 0.6280 0.6260 0.6260 0.6260
12.943000 0.6250 0.6240 0.6240 0.6240 0.6230
12.973180 0.6230 0.6220 0.6220 0.6220 0.6200
13.003000 0.6200 0.6190 0.6190 0.6180 0.6180
13.033180 0.6180 0.6170 0.6170 0.6170 0.6160
13.063000 0.6160 0.6160 0.6140 0.6140 0.6140
13.093180 0.6130 0.6130 0.6130 0.6120 0.6120
13.124000 0.6120 0.6120 0.6110 0.6110 0.6110
13.154180 0.6100 0.6100 0.6080 0.6070 0.6040
13.184000 0.6010 0.6000 0.5980 0.5940 0.5920
13.214180 0.5900 0.5890 0.5880 0.5870 0.5860
13.244000 0.5830 0.5820 0.5820 0.5810 0.5810
13.274180 0.5800 0.5800 0.5780 0.5780 0.5780
13.305000 0.5780 0.5780 0.5780 0.5780 0.5770
13.335180 0.5760 0.5720 0.5660 0.5650 0.5640
13.365000 0.5630 0.5610 0.5550 0.5520 0.5480
13.395180 0.5460 0.5420 0.5420 0.5410 0.5410
13.425000 0.5410 0.5410 0.5400 0.5390 0.5370
13.455180 0.5350 0.5310 0.5290 0.5270 0.5230
13.486000 0.5220 0.5210 0.5180 0.5160 0.5120
13.516180 0.5100 0.5070 0.5050 0.5030 0.5010
13.546000 0.5000 0.4990 0.4960 0.4940 0.4920
13.576180 0.4900 0.4890 0.4880 0.4870 0.4860
13.606000 0.4840 0.4820 0.4810 0.4800 0.4800
13.636180 0.4780 0.4770 0.4760 0.4750 0.4720
13.667000 0.4710 0.4700 0.4690 0.4680 0.4660
13.697180 0.4660 0.4650 0.4650 0.4640 0.4640
13.727000 0.4640 0.4640 0.4640 0.4640 0.4640
13.757180 0.4640 0.4640 0.4640 0.4650 0.4650
13.787000 0.4650 0.4650 0.4650 0.4650 0.4650
13.817180 0.4650 0.4650 0.4650 0.4660 0.4660
13.848000 0.4660 0.4660 0.4660 0.4660 0.4660
13.878180 0.4660 0.4660 0.4660 0.4660 0.4660
13.908000 0.4660 0.4660 0.4660 0.4660 0.4660
13.938180 0.4660 0.4650 0.4650 0.4630 0.4560
13.968000 0.4480 0.4450 0.4410 0.4400 0.4390
13.998180 0.4340 0.4280 0.4130 0.3570 0.3350
14.029000 0.3230 0.3090 0.3040 0.2980 0.2930
14.059180 0.2880 0.2850 0.2810 0.2790 0.2750
14.089000 0.2740 0.2710 0.2700 0.2690 0.2690
14.119180 0.2700 0.2770 0.2830 0.2960 0.3110
14.149000 0.3280 0.3420 0.3530 0.3560 0.3640
14.179180 0.3710 0.3770 0.3830 0.3890 0.3940
14.210000 0.3990 0.4040 0.4070 0.4120 0.4150
14.240180 0.4180 0.4220 0.4240 0.4270 0.4290
14.270000 0.4300 0.4320 0.4340 0.4360 0.4400
14.300180 0.4420 0.4460 0.4500 0.4530 0.4570
14.330000 0.4590 0.4630 0.4650 0.4680 0.4700
14.360180 0.4700 0.4720 0.4740 0.4760 0.4770
14.391000 0.4800 0.4810 0.4830 0.4840 0.4870
14.421180 0.4880 0.4890 0.4920 0.4930 0.4950
14.451000 0.4960 0.4990 0.5000 0.5030 0.5040
14.481180 0.5050 0.5070 0.5090 0.5100 0.5120
14.511000 0.5130 0.5150 0.5160 0.5170 0.5180
14.541180 0.5210 0.5210 0.5220 0.5220 0.5230
14.572000 0.5230 0.5240 0.5250 0.5270 0.5280
14.602180 0.5290 0.5290 0.5300 0.5300 0.5310
14.632000 0.5310 0.5310 0.5310 0.5330 0.5330
14.662180 0.5330 0.5330 0.5340 0.5340 0.5340
14.692000 0.5340 0.5340 0.5340 0.5340 0.5340
14.722180 0.5340 0.5340 0.5340 0.5340 0.5340
14.753000 0.5330 0.5330 0.5330 0.5330 0.5310
14.783180 0.5310 0.5310 0.5310 0.5300 0.5300
14.813000 0.5300 0.5300 0.5290 0.5290 0.5290
14.843180 0.5280 0.5280 0.5280 0.5270 0.5270
14.873000 0.5270 0.5270 0.5270 0.5250 0.5250
14.903180 0.5240 0.5240 0.5220 0.5210 0.5210
14.934000 0.5190 0.5180 0.5180 0.5170 0.5170
14.964180 0.5160 0.5150 0.5130 0.5120 0.5120
14.994000 0.5110 0.5120 0.5110
##END=
