##TITLE=2,4,6-TOLUENETRIAMINE TRIHYDROCHLORIDE
##JCAMP-DX=4.24
##DATA TYPE=INFRARED SPECTRUM
##CLASS=COBLENTZ
##ORIGIN=WYANDOTTE CHEMICALS CORP., WYANDOTTE, MICHIGAN, USA
##OWNER=COBLENTZ SOCIETY
Collection (C) 2018 copyright by the U.S. Secretary of Commerce
on behalf of the United States of America. All rights reserved.
##DATE=Not specified, most likely prior to 1970
##MOLFORM=C7 H11 N3  * 3 H Cl
##SOURCE REFERENCE=COBLENTZ NO. 3812
##$NIST ID=B6003812
##$NIST SOURCE=COBLENTZ
##$NIST IMAGE=cob3812
##SPECTROMETER/DATA SYSTEM=Not specified, most likely a prism, grating, or hybrid spectrometer.
##STATE=SOLID (MINERAL OIL MULL)
##SAMPLING PROCEDURE=TRANSMISSION
##RESOLUTION=4
##DATA PROCESSING=DIGITIZED BY NIST FROM HARD COPY
##XUNITS=MICROMETERS
##YUNITS=TRANSMITTANCE
##XFACTOR=1.000000
##YFACTOR=1
##DELTAX=000.006189
##FIRSTX=2.025
##LASTX=15.9933
##FIRSTY=0.361
##MAXX=15.9933
##MINX=2.025
##MAXY=0.944
##MINY=0.009
##NPOINTS=2258
##XYDATA=(X++(Y..Y))
2.025000 0.3610 0.3630 0.3630 0.3640 0.3640
2.055960 0.3660 0.3660 0.3660 0.3680 0.3690
2.087000 0.3690 0.3690 0.3720 0.3720 0.3720
2.117960 0.3740 0.3720 0.3720 0.3740 0.3740
2.149000 0.3750 0.3770 0.3770 0.3740 0.3720
2.179960 0.3710 0.3680 0.3630 0.3630 0.3600
2.210000 0.3580 0.3570 0.3570 0.3580 0.3600
2.240960 0.3600 0.3610 0.3610 0.3610 0.3610
2.272000 0.3630 0.3640 0.3660 0.3690 0.3720
2.302960 0.3770 0.3810 0.3830 0.3880 0.3890
2.334000 0.3940 0.3950 0.3990 0.3990 0.4000
2.364960 0.4060 0.4090 0.4170 0.4190 0.4200
2.396000 0.4200 0.4200 0.4200 0.4220 0.4250
2.426960 0.4310 0.4370 0.4370 0.4390 0.4390
2.458000 0.4400 0.4400 0.4420 0.4450 0.4470
2.488960 0.4480 0.4500 0.4510 0.4580 0.4620
2.520000 0.4670 0.4670 0.4700 0.4730 0.4810
2.550960 0.4900 0.4960 0.4980 0.5030 0.5090
2.582000 0.5100 0.5130 0.5150 0.5180 0.5210
2.612960 0.5240 0.5270 0.5310 0.5400 0.5480
2.644000 0.5490 0.5570 0.5590 0.5620 0.5630
2.674960 0.5630 0.5650 0.5650 0.5650 0.5590
2.706000 0.5480 0.5290 0.5090 0.4900 0.4750
2.736960 0.4360 0.4140 0.3660 0.3220 0.2760
2.767000 0.2450 0.2450 0.2500 0.2680 0.2880
2.797960 0.3100 0.3270 0.3410 0.3470 0.3470
2.829000 0.3330 0.3150 0.2950 0.2700 0.2400
2.859960 0.2150 0.1980 0.1970 0.1980 0.2150
2.891000 0.2340 0.2540 0.2790 0.2990 0.3150
2.921960 0.3290 0.3410 0.3550 0.3690 0.3830
2.953000 0.4000 0.4160 0.4340 0.4560 0.4810
2.983960 0.4930 0.5090 0.5240 0.5410 0.5540
3.015000 0.5660 0.5710 0.5850 0.5940 0.6040
3.045960 0.6110 0.6180 0.6220 0.6270 0.6270
3.077000 0.6180 0.5970 0.5710 0.5490 0.5340
3.107960 0.5060 0.4810 0.4540 0.4140 0.3780
3.139000 0.3400 0.2810 0.2400 0.2150 0.1940
3.169960 0.1830 0.1810 0.1810 0.1840 0.1860
3.201000 0.1870 0.1860 0.1830 0.1780 0.1700
3.231960 0.1560 0.1450 0.1360 0.1250 0.1160
3.263000 0.1050 0.0990 0.0940 0.0850 0.0790
3.293960 0.0710 0.0550 0.0460 0.0400 0.0320
3.324000 0.0270 0.0230 0.0200 0.0170 0.0150
3.354960 0.0130 0.0130 0.0100 0.0100 0.0100
3.386000 0.0090 0.0090 0.0090 0.0090 0.0100
3.416960 0.0100 0.0100 0.0120 0.0120 0.0120
3.448000 0.0130 0.0130 0.0130 0.0150 0.0150
3.478960 0.0150 0.0170 0.0170 0.0170 0.0170
3.510000 0.0180 0.0180 0.0180 0.0180 0.0180
3.540960 0.0200 0.0200 0.0210 0.0210 0.0230
3.572000 0.0240 0.0240 0.0260 0.0260 0.0270
3.602960 0.0290 0.0290 0.0310 0.0310 0.0310
3.634000 0.0310 0.0310 0.0310 0.0310 0.0320
3.664960 0.0320 0.0340 0.0340 0.0340 0.0340
3.696000 0.0350 0.0350 0.0350 0.0350 0.0350
3.726960 0.0350 0.0350 0.0350 0.0370 0.0370
3.758000 0.0370 0.0370 0.0370 0.0370 0.0350
3.788960 0.0350 0.0350 0.0350 0.0340 0.0340
3.820000 0.0340 0.0340 0.0340 0.0340 0.0340
3.850960 0.0320 0.0320 0.0320 0.0310 0.0290
3.882000 0.0290 0.0270 0.0270 0.0270 0.0270
3.912960 0.0290 0.0290 0.0290 0.0310 0.0310
3.943000 0.0320 0.0340 0.0340 0.0350 0.0370
3.973960 0.0380 0.0400 0.0410 0.0410 0.0450
4.005000 0.0480 0.0510 0.0570 0.0600 0.0620
4.035960 0.0630 0.0650 0.0660 0.0680 0.0680
4.067000 0.0710 0.0740 0.0800 0.0830 0.0860
4.097960 0.0880 0.0900 0.0910 0.0930 0.0960
4.129000 0.0970 0.0970 0.0990 0.0990 0.0990
4.159960 0.0990 0.0990 0.1000 0.1040 0.1050
4.191000 0.1140 0.1190 0.1210 0.1220 0.1240
4.221960 0.1250 0.1280 0.1310 0.1310 0.1330
4.253000 0.1350 0.1380 0.1390 0.1420 0.1490
4.283960 0.1520 0.1530 0.1580 0.1580 0.1590
4.315000 0.1670 0.1720 0.1730 0.1770 0.1800
4.345960 0.1870 0.1890 0.1970 0.2000 0.2030
4.377000 0.2120 0.2180 0.2220 0.2260 0.2260
4.407960 0.2250 0.2230 0.2230 0.2250 0.2260
4.439000 0.2310 0.2370 0.2390 0.2400 0.2420
4.469960 0.2430 0.2450 0.2450 0.2480 0.2500
4.500000 0.2510 0.2530 0.2540 0.2560 0.2570
4.530960 0.2590 0.2590 0.2600 0.2600 0.2600
4.562000 0.2590 0.2590 0.2590 0.2570 0.2570
4.592960 0.2570 0.2590 0.2590 0.2600 0.2600
4.624000 0.2620 0.2670 0.2700 0.2700 0.2730
4.654960 0.2760 0.2730 0.2680 0.2670 0.2630
4.686000 0.2620 0.2620 0.2700 0.2770 0.2840
4.716960 0.2980 0.3010 0.3100 0.3120 0.3160
4.748000 0.3160 0.3180 0.3180 0.3190 0.3190
4.778960 0.3210 0.3210 0.3190 0.3180 0.3160
4.810000 0.3160 0.3150 0.3150 0.3150 0.3150
4.840960 0.3160 0.3180 0.3180 0.3190 0.3190
4.872000 0.3210 0.3220 0.3220 0.3190 0.3160
4.902960 0.3040 0.2990 0.2850 0.2740 0.2540
4.934000 0.2390 0.2180 0.2040 0.1840 0.1700
4.964960 0.1610 0.1490 0.1380 0.1250 0.1210
4.996000 0.1240 0.1360 0.1450 0.1500 0.1560
5.026960 0.1630 0.1730 0.1860 0.1970 0.2030
5.057000 0.2110 0.2180 0.2260 0.2450 0.2560
5.087960 0.2630 0.2670 0.2680 0.2680 0.2680
5.119000 0.2680 0.2680 0.2680 0.2680 0.2680
5.149960 0.2680 0.2700 0.2730 0.2770 0.2810
5.181000 0.2820 0.2870 0.2910 0.2960 0.2980
5.211960 0.2990 0.3010 0.3050 0.3150 0.3190
5.243000 0.3270 0.3290 0.3380 0.3410 0.3460
5.273960 0.3470 0.3490 0.3500 0.3520 0.3520
5.305000 0.3600 0.3640 0.3680 0.3710 0.3720
5.335960 0.3720 0.3750 0.3810 0.3850 0.3850
5.367000 0.3850 0.3860 0.3880 0.3880 0.3890
5.397960 0.3910 0.3950 0.3990 0.3990 0.3970
5.429000 0.3940 0.3940 0.3920 0.3950 0.4000
5.459960 0.4030 0.4060 0.4090 0.4110 0.4110
5.491000 0.4130 0.4140 0.4170 0.4190 0.4220
5.521960 0.4230 0.4230 0.4270 0.4270 0.4280
5.553000 0.4310 0.4330 0.4330 0.4340 0.4340
5.583960 0.4360 0.4370 0.4390 0.4420 0.4420
5.615000 0.4440 0.4440 0.4450 0.4470 0.4470
5.645960 0.4450 0.4470 0.4480 0.4530 0.4580
5.676000 0.4540 0.4500 0.4390 0.4310 0.4280
5.706960 0.4280 0.4420 0.4610 0.4670 0.4760
5.738000 0.4780 0.4760 0.4720 0.4720 0.4810
5.768960 0.4890 0.4890 0.4900 0.4900 0.4810
5.800000 0.4820 0.5000 0.5090 0.5180 0.5210
5.830960 0.5180 0.5100 0.5060 0.5010 0.5040
5.862000 0.5090 0.5120 0.5230 0.5310 0.5310
5.892960 0.5230 0.5120 0.5090 0.5090 0.5100
5.924000 0.5210 0.5270 0.5270 0.5180 0.5120
5.954960 0.5120 0.5150 0.5180 0.5210 0.5240
5.986000 0.5270 0.5270 0.5270 0.5200 0.5030
6.016960 0.4960 0.4960 0.4950 0.4890 0.4810
6.048000 0.4720 0.4670 0.4580 0.4450 0.4220
6.078960 0.3910 0.3440 0.2990 0.2430 0.2140
6.110000 0.1980 0.1860 0.1810 0.1810 0.1950
6.140960 0.2200 0.2650 0.3290 0.3580 0.3800
6.172000 0.3830 0.3860 0.3640 0.3540 0.3150
6.202960 0.2710 0.2290 0.2010 0.1730 0.1580
6.233000 0.1410 0.1240 0.1080 0.0940 0.0880
6.263960 0.0770 0.0740 0.0710 0.0760 0.0800
6.295000 0.0900 0.1110 0.1190 0.1270 0.1380
6.325960 0.1410 0.1500 0.1520 0.1550 0.1580
6.357000 0.1640 0.1700 0.1800 0.1870 0.1890
6.387960 0.1920 0.1970 0.2000 0.2040 0.2090
6.419000 0.2120 0.2170 0.2250 0.2420 0.2540
6.449960 0.2810 0.3050 0.3320 0.3440 0.3470
6.481000 0.3470 0.3490 0.3520 0.3520 0.3490
6.511960 0.3350 0.3240 0.3040 0.2810 0.2560
6.543000 0.2140 0.1780 0.1530 0.1350 0.1190
6.573960 0.1140 0.1110 0.1100 0.1080 0.1050
6.605000 0.1000 0.0860 0.0710 0.0600 0.0510
6.635960 0.0450 0.0400 0.0320 0.0310 0.0310
6.667000 0.0310 0.0340 0.0380 0.0400 0.0430
6.697960 0.0460 0.0480 0.0490 0.0490 0.0510
6.729000 0.0490 0.0490 0.0460 0.0410 0.0380
6.759960 0.0370 0.0290 0.0270 0.0230 0.0200
6.790000 0.0180 0.0180 0.0180 0.0180 0.0200
6.820960 0.0210 0.0240 0.0270 0.0290 0.0290
6.852000 0.0290 0.0270 0.0270 0.0290 0.0320
6.882960 0.0410 0.0480 0.0550 0.0650 0.0710
6.914000 0.0790 0.0960 0.1140 0.1350 0.1550
6.944960 0.1640 0.1800 0.1900 0.2010 0.2180
6.976000 0.2340 0.2400 0.2530 0.2670 0.2810
7.006960 0.2880 0.2950 0.3010 0.3150 0.3190
7.038000 0.3260 0.3290 0.3320 0.3380 0.3410
7.068960 0.3410 0.3400 0.3380 0.3380 0.3380
7.100000 0.3380 0.3410 0.3410 0.3330 0.3210
7.130960 0.3090 0.2980 0.2840 0.2740 0.2620
7.162000 0.2510 0.2390 0.2200 0.2090 0.1860
7.192960 0.1610 0.1330 0.1160 0.0960 0.0850
7.224000 0.0790 0.0710 0.0570 0.0570 0.0600
7.254960 0.0680 0.0860 0.1140 0.1350 0.1500
7.286000 0.1610 0.1700 0.1780 0.1890 0.2000
7.316960 0.2220 0.2500 0.2790 0.2990 0.3090
7.347000 0.3150 0.3210 0.3300 0.3360 0.3380
7.377960 0.3400 0.3400 0.3410 0.3460 0.3520
7.409000 0.3520 0.3570 0.3580 0.3580 0.3610
7.439960 0.3660 0.3710 0.3740 0.3780 0.3830
7.471000 0.3890 0.3910 0.3940 0.3990 0.3990
7.501960 0.4020 0.4030 0.4110 0.4130 0.4140
7.533000 0.4160 0.4170 0.4170 0.4190 0.4200
7.563960 0.4220 0.4230 0.4250 0.4250 0.4250
7.595000 0.4250 0.4230 0.4220 0.4200 0.4110
7.625960 0.4080 0.4000 0.4000 0.4110 0.4200
7.657000 0.4280 0.4310 0.4340 0.4390 0.4480
7.687960 0.4500 0.4500 0.4510 0.4530 0.4540
7.719000 0.4590 0.4620 0.4640 0.4680 0.4680
7.749960 0.4730 0.4780 0.4820 0.4860 0.4840
7.781000 0.4820 0.4810 0.4840 0.4890 0.4950
7.811960 0.4980 0.4980 0.4980 0.4980 0.4980
7.843000 0.4960 0.4900 0.4890 0.4810 0.4720
7.873960 0.4650 0.4650 0.4720 0.4920 0.5010
7.905000 0.5070 0.5100 0.5170 0.5180 0.5210
7.935960 0.5210 0.5230 0.5230 0.5240 0.5240
7.966000 0.5260 0.5270 0.5290 0.5310 0.5320
7.996960 0.5340 0.5340 0.5350 0.5350 0.5370
8.028000 0.5370 0.5370 0.5370 0.5340 0.5270
8.058960 0.5230 0.5180 0.5150 0.5090 0.5090
8.090000 0.5240 0.5290 0.5310 0.5320 0.5340
8.120960 0.5350 0.5370 0.5380 0.5380 0.5410
8.152000 0.5510 0.5570 0.5590 0.5570 0.5520
8.182960 0.5490 0.5460 0.5450 0.5450 0.5480
8.214000 0.5570 0.5620 0.5620 0.5570 0.5590
8.244960 0.5600 0.5620 0.5650 0.5660 0.5690
8.276000 0.5710 0.5690 0.5710 0.5710 0.5770
8.306960 0.5770 0.5800 0.5820 0.5830 0.5850
8.338000 0.5860 0.5860 0.5860 0.5830 0.5830
8.368960 0.5800 0.5800 0.5820 0.5850 0.5880
8.400000 0.5900 0.5910 0.5910 0.5880 0.5860
8.430960 0.5860 0.5860 0.5860 0.5860 0.5860
8.462000 0.5860 0.5860 0.5860 0.5860 0.5830
8.492960 0.5790 0.5770 0.5760 0.5710 0.5710
8.523000 0.5680 0.5630 0.5630 0.5660 0.5680
8.553960 0.5710 0.5720 0.5770 0.5770 0.5740
8.585000 0.5710 0.5660 0.5630 0.5600 0.5570
8.615960 0.5520 0.5490 0.5490 0.5480 0.5480
8.647000 0.5480 0.5480 0.5480 0.5480 0.5480
8.677960 0.5480 0.5460 0.5460 0.5430 0.5410
8.709000 0.5380 0.5370 0.5350 0.5380 0.5450
8.739960 0.5510 0.5550 0.5600 0.5690 0.5710
8.771000 0.5740 0.5770 0.5770 0.5760 0.5720
8.801960 0.5720 0.5710 0.5690 0.5680 0.5590
8.833000 0.5570 0.5510 0.5380 0.5180 0.4980
8.863960 0.4680 0.4500 0.4200 0.3780 0.3500
8.895000 0.3290 0.3040 0.2950 0.2870 0.2850
8.925960 0.2870 0.2910 0.2990 0.3070 0.3120
8.957000 0.3120 0.3090 0.3070 0.3020 0.2880
8.987960 0.2770 0.2740 0.2420 0.2110 0.1810
9.019000 0.1550 0.1310 0.1190 0.1080 0.1050
9.049960 0.1000 0.0990 0.1000 0.1140 0.1240
9.080000 0.1450 0.1700 0.1890 0.2150 0.2390
9.110960 0.2510 0.2680 0.2710 0.2730 0.2710
9.142000 0.2650 0.2600 0.2600 0.2560 0.2560
9.172960 0.2600 0.2650 0.2770 0.2880 0.3120
9.204000 0.3300 0.3430 0.3540 0.3600 0.3680
9.234960 0.3800 0.4000 0.4190 0.4250 0.4340
9.266000 0.4390 0.4420 0.4510 0.4610 0.4640
9.296960 0.4650 0.4680 0.4680 0.4680 0.4670
9.328000 0.4620 0.4590 0.4580 0.4540 0.4500
9.358960 0.4440 0.4420 0.4420 0.4440 0.4500
9.390000 0.4580 0.4640 0.4680 0.4720 0.4780
9.420960 0.4810 0.4900 0.4960 0.5000 0.5010
9.452000 0.5030 0.5040 0.5070 0.5070 0.5070
9.482960 0.5070 0.5070 0.5060 0.5040 0.5010
9.514000 0.4980 0.4920 0.4870 0.4720 0.4640
9.544960 0.4560 0.4500 0.4340 0.4250 0.4130
9.576000 0.4050 0.4000 0.3810 0.3780 0.3640
9.606960 0.3610 0.3580 0.3570 0.3600 0.3660
9.637000 0.3690 0.3750 0.3800 0.3890 0.4050
9.667960 0.4190 0.4250 0.4330 0.4440 0.4540
9.699000 0.4650 0.4760 0.4810 0.4870 0.4930
9.729960 0.5030 0.5100 0.5180 0.5230 0.5270
9.761000 0.5320 0.5400 0.5430 0.5450 0.5480
9.791960 0.5510 0.5540 0.5600 0.5630 0.5680
9.823000 0.5770 0.5820 0.5830 0.5850 0.5860
9.853960 0.5860 0.5860 0.5880 0.5880 0.5880
9.885000 0.5880 0.5880 0.5900 0.5940 0.6000
9.915960 0.6000 0.6020 0.6040 0.6040 0.6020
9.947000 0.6020 0.6040 0.6040 0.6050 0.6070
9.977960 0.6080 0.6080 0.6110 0.6110 0.6110
10.009000 0.6130 0.6130 0.6130 0.6110 0.6110
10.039960 0.6130 0.6130 0.6160 0.6180 0.6180
10.071000 0.6190 0.6210 0.6210 0.6210 0.6190
10.101960 0.6190 0.6180 0.6190 0.6190 0.6190
10.133000 0.6190 0.6190 0.6180 0.6160 0.6110
10.163960 0.6100 0.6080 0.6080 0.6020 0.5990
10.195000 0.5900 0.5800 0.5760 0.5690 0.5680
10.225960 0.5690 0.5710 0.5800 0.5830 0.5830
10.256000 0.5860 0.5880 0.5900 0.5930 0.5930
10.286960 0.5960 0.5960 0.5960 0.5970 0.5970
10.318000 0.5990 0.6000 0.6040 0.6080 0.6080
10.348960 0.6080 0.6070 0.6070 0.6050 0.6070
10.380000 0.6080 0.6100 0.6110 0.6110 0.6130
10.410960 0.6130 0.6110 0.6100 0.6100 0.6110
10.442000 0.6140 0.6180 0.6180 0.6190 0.6210
10.472960 0.6220 0.6240 0.6250 0.6270 0.6280
10.504000 0.6280 0.6300 0.6310 0.6380 0.6390
10.534960 0.6410 0.6420 0.6440 0.6470 0.6500
10.566000 0.6520 0.6500 0.6470 0.6470 0.6450
10.596960 0.6450 0.6490 0.6490 0.6520 0.6520
10.628000 0.6530 0.6550 0.6550 0.6520 0.6500
10.658960 0.6500 0.6490 0.6390 0.6310 0.6300
10.690000 0.6270 0.6180 0.6100 0.5970 0.5820
10.720960 0.5740 0.5680 0.5590 0.5520 0.5510
10.752000 0.5540 0.5570 0.5630 0.5710 0.5830
10.782960 0.5910 0.6000 0.6100 0.6140 0.6180
10.813000 0.6220 0.6280 0.6380 0.6390 0.6410
10.843960 0.6470 0.6490 0.6500 0.6550 0.6580
10.875000 0.6590 0.6590 0.6590 0.6610 0.6610
10.905960 0.6610 0.6630 0.6640 0.6670 0.6690
10.937000 0.6800 0.6870 0.6900 0.6920 0.6870
10.967960 0.6870 0.6900 0.7000 0.7060 0.7090
10.999000 0.7110 0.7120 0.7140 0.7150 0.7180
11.029960 0.7200 0.7200 0.7220 0.7180 0.7180
11.061000 0.7200 0.7220 0.7220 0.7220 0.7230
11.091960 0.7230 0.7230 0.7220 0.7220 0.7220
11.123000 0.7200 0.7220 0.7220 0.7230 0.7280
11.153960 0.7280 0.7250 0.7230 0.7220 0.7180
11.185000 0.6980 0.6780 0.6630 0.6450 0.6300
11.215960 0.6210 0.6180 0.6180 0.6300 0.6410
11.247000 0.6590 0.6720 0.6830 0.6900 0.6970
11.277960 0.7000 0.7030 0.7030 0.7030 0.7090
11.309000 0.7110 0.7120 0.7180 0.7200 0.7180
11.339960 0.7120 0.7040 0.7000 0.6890 0.6780
11.370000 0.6690 0.6590 0.6420 0.6220 0.5910
11.400960 0.5550 0.5310 0.4730 0.4300 0.3600
11.432000 0.3010 0.2560 0.2040 0.1800 0.1690
11.462960 0.1700 0.2010 0.2680 0.3300 0.3800
11.494000 0.4230 0.4500 0.4780 0.5090 0.5290
11.524960 0.5490 0.5620 0.5740 0.5900 0.6000
11.556000 0.6100 0.6190 0.6240 0.6300 0.6350
11.586960 0.6500 0.6590 0.6610 0.6630 0.6690
11.618000 0.6780 0.6810 0.6830 0.6840 0.6870
11.648960 0.6890 0.6900 0.6970 0.7000 0.7010
11.680000 0.7010 0.7030 0.7040 0.7030 0.7030
11.710960 0.7010 0.7010 0.7030 0.7080 0.7140
11.742000 0.7220 0.7250 0.7280 0.7280 0.7250
11.772960 0.7230 0.7220 0.7220 0.7230 0.7250
11.804000 0.7280 0.7290 0.7260 0.7280 0.7290
11.834960 0.7290 0.7310 0.7340 0.7360 0.7370
11.866000 0.7390 0.7390 0.7400 0.7400 0.7420
11.896960 0.7420 0.7430 0.7500 0.7500 0.7530
11.927000 0.7530 0.7560 0.7560 0.7570 0.7570
11.957960 0.7590 0.7600 0.7620 0.7630 0.7650
11.989000 0.7670 0.7680 0.7700 0.7700 0.7680
12.019960 0.7670 0.7670 0.7680 0.7710 0.7770
12.051000 0.7770 0.7790 0.7820 0.7870 0.7870
12.081960 0.7880 0.7910 0.7950 0.7960 0.7930
12.113000 0.7930 0.7910 0.7910 0.7930 0.7950
12.143960 0.7960 0.7980 0.7980 0.7980 0.8010
12.175000 0.8010 0.8020 0.8070 0.8070 0.8090
12.205960 0.8090 0.8100 0.8100 0.8120 0.8120
12.237000 0.8120 0.8130 0.8130 0.8130 0.8130
12.267960 0.8130 0.8150 0.8150 0.8150 0.8150
12.299000 0.8160 0.8160 0.8180 0.8180 0.8130
12.329960 0.8120 0.8130 0.8150 0.8180 0.8190
12.361000 0.8190 0.8210 0.8190 0.8190 0.8190
12.391960 0.8160 0.8160 0.8190 0.8210 0.8220
12.423000 0.8240 0.8240 0.8260 0.8270 0.8270
12.453960 0.8290 0.8290 0.8300 0.8300 0.8320
12.485000 0.8320 0.8330 0.8330 0.8330 0.8320
12.515960 0.8320 0.8330 0.8350 0.8360 0.8360
12.546000 0.8380 0.8380 0.8380 0.8410 0.8410
12.576960 0.8430 0.8460 0.8470 0.8500 0.8520
12.608000 0.8540 0.8540 0.8540 0.8540 0.8540
12.638960 0.8570 0.8600 0.8630 0.8630 0.8630
12.670000 0.8630 0.8630 0.8660 0.8660 0.8710
12.700960 0.8740 0.8750 0.8780 0.8800 0.8780
12.732000 0.8780 0.8750 0.8710 0.8690 0.8680
12.762960 0.8660 0.8630 0.8610 0.8640 0.8690
12.794000 0.8710 0.8720 0.8740 0.8740 0.8710
12.824960 0.8690 0.8680 0.8630 0.8630 0.8660
12.856000 0.8710 0.8690 0.8690 0.8660 0.8640
12.886960 0.8610 0.8600 0.8520 0.8490 0.8490
12.918000 0.8520 0.8550 0.8550 0.8540 0.8540
12.948960 0.8520 0.8520 0.8520 0.8520 0.8520
12.980000 0.8540 0.8550 0.8550 0.8550 0.8550
13.010960 0.8540 0.8520 0.8490 0.8470 0.8440
13.042000 0.8430 0.8400 0.8400 0.8330 0.8300
13.072960 0.8130 0.8020 0.7990 0.7900 0.7850
13.103000 0.7700 0.7510 0.7460 0.7450 0.7480
13.133960 0.7530 0.7600 0.7760 0.7880 0.8010
13.165000 0.8130 0.8210 0.8220 0.8240 0.8290
13.195960 0.8320 0.8330 0.8350 0.8400 0.8410
13.227000 0.8410 0.8430 0.8440 0.8460 0.8470
13.257960 0.8490 0.8490 0.8500 0.8490 0.8470
13.289000 0.8470 0.8470 0.8470 0.8490 0.8490
13.319960 0.8490 0.8520 0.8540 0.8540 0.8540
13.351000 0.8520 0.8490 0.8470 0.8470 0.8460
13.381960 0.8460 0.8460 0.8460 0.8440 0.8440
13.413000 0.8410 0.8400 0.8300 0.8290 0.8290
13.443960 0.8270 0.8270 0.8260 0.8240 0.8220
13.475000 0.8190 0.8130 0.8120 0.8120 0.8090
13.505960 0.8070 0.8070 0.8040 0.8020 0.8010
13.537000 0.7980 0.7980 0.7960 0.7950 0.7930
13.567960 0.7910 0.7900 0.7900 0.7880 0.7880
13.599000 0.7850 0.7820 0.7820 0.7810 0.7790
13.629960 0.7770 0.7770 0.7770 0.7790 0.7790
13.660000 0.7810 0.7810 0.7810 0.7790 0.7790
13.690960 0.7790 0.7790 0.7790 0.7790 0.7790
13.722000 0.7790 0.7770 0.7770 0.7770 0.7770
13.752960 0.7770 0.7770 0.7760 0.7740 0.7740
13.784000 0.7740 0.7710 0.7680 0.7680 0.7670
13.814960 0.7630 0.7600 0.7570 0.7560 0.7530
13.846000 0.7510 0.7510 0.7510 0.7530 0.7540
13.876960 0.7570 0.7600 0.7620 0.7620 0.7630
13.908000 0.7710 0.7790 0.7840 0.7910 0.8010
13.938960 0.8100 0.8160 0.8190 0.8220 0.8290
13.970000 0.8330 0.8400 0.8400 0.8440 0.8500
14.000960 0.8550 0.8630 0.8640 0.8710 0.8780
14.032000 0.8830 0.8880 0.8880 0.8890 0.8910
14.062960 0.8920 0.9000 0.9020 0.9030 0.9080
14.094000 0.9080 0.9090 0.9170 0.9190 0.9220
14.124960 0.9250 0.9280 0.9280 0.9310 0.9330
14.156000 0.9330 0.9340 0.9360 0.9370 0.9390
14.186960 0.9400 0.9400 0.9390 0.9390 0.9400
14.218000 0.9420 0.9440 0.9420 0.9400 0.9400
14.248960 0.9390 0.9390 0.9370 0.9360 0.9330
14.279000 0.9300 0.9280 0.9250 0.9190 0.9130
14.309960 0.9050 0.8940 0.8890 0.8720 0.8600
14.341000 0.8490 0.8210 0.8010 0.7810 0.7590
14.371960 0.7290 0.7090 0.6660 0.6220 0.5860
14.403000 0.5370 0.5230 0.4900 0.4590 0.4310
14.433960 0.4030 0.3880 0.3680 0.3490 0.3400
14.465000 0.3300 0.3300 0.3360 0.3490 0.3680
14.495960 0.3890 0.4250 0.4500 0.4750 0.5040
14.527000 0.5310 0.5590 0.5830 0.5990 0.6190
14.557960 0.6390 0.6550 0.6720 0.6840 0.7000
14.589000 0.7140 0.7250 0.7360 0.7480 0.7540
14.619960 0.7680 0.7770 0.7810 0.7880 0.7910
14.651000 0.8010 0.8070 0.8090 0.8090 0.8100
14.681960 0.8130 0.8150 0.8180 0.8220 0.8300
14.713000 0.8320 0.8320 0.8320 0.8330 0.8330
14.743960 0.8350 0.8350 0.8380 0.8380 0.8380
14.775000 0.8380 0.8380 0.8350 0.8350 0.8330
14.805960 0.8330 0.8350 0.8350 0.8350 0.8380
14.836000 0.8380 0.8400 0.8400 0.8400 0.8400
14.866960 0.8380 0.8380 0.8380 0.8350 0.8350
14.898000 0.8320 0.8330 0.8330 0.8330 0.8330
14.928960 0.8320 0.8320 0.8300 0.8290 0.8220
14.960000 0.8150 0.8090 0.8070 0.8040 0.7980
14.990960 0.7870 0.7680 0.7530 0.7460 0.7390
15.022000 0.7280 0.7220 0.7120 0.7040 0.6950
15.052960 0.6890 0.6860 0.6810 0.6810 0.6840
15.084000 0.6890 0.6920 0.7000 0.7040 0.7090
15.114960 0.7120 0.7180 0.7200 0.7280 0.7310
15.146000 0.7390 0.7420 0.7480 0.7510 0.7530
15.176960 0.7530 0.7570 0.7590 0.7590 0.7590
15.208000 0.7570 0.7590 0.7590 0.7590 0.7590
15.238960 0.7600 0.7600 0.7600 0.7590 0.7590
15.270000 0.7540 0.7510 0.7500 0.7480 0.7480
15.300960 0.7480 0.7460 0.7450 0.7450 0.7400
15.332000 0.7360 0.7290 0.7280 0.7280 0.7290
15.362960 0.7290 0.7280 0.7280 0.7260 0.7260
15.393000 0.7230 0.7230 0.7200 0.7180 0.7110
15.423960 0.6980 0.6940 0.6940 0.6950 0.6940
15.455000 0.6940 0.6900 0.6890 0.6870 0.6890
15.485960 0.6870 0.6870 0.6860 0.6840 0.6830
15.517000 0.6810 0.6800 0.6750 0.6720 0.6690
15.547960 0.6690 0.6660 0.6660 0.6640 0.6630
15.579000 0.6610 0.6590 0.6580 0.6560 0.6530
15.609960 0.6500 0.6490 0.6490 0.6420 0.6410
15.641000 0.6390 0.6380 0.6350 0.6300 0.6270
15.671960 0.6210 0.6190 0.6190 0.6140 0.6130
15.703000 0.6110 0.6100 0.6080 0.6080 0.6080
15.733960 0.6080 0.6050 0.6040 0.5970 0.5900
15.765000 0.5830 0.5800 0.5800 0.5790 0.5790
15.795960 0.5770 0.5760 0.5720 0.5690 0.5630
15.827000 0.5620 0.5600 0.5590 0.5590 0.5570
15.857960 0.5510 0.5480 0.5430 0.5410 0.5380
15.889000 0.5350 0.5320 0.5310 0.5270 0.5240
15.919960 0.5210 0.5210 0.5210 0.5180 0.5150
15.950000 0.5120 0.5070 0.5010 0.4980 0.4950
15.980960 0.4930 0.4900 0.4860
##END=
