##TITLE=Calcium oxalate monohydrate
##JCAMP-DX=4.24
$$ By DXEDIT 1.05 (RS McDonald)
##DATA TYPE=INFRARED SPECTRUM
##CLASS=COBLENTZ II
##ORIGIN=DOW CHEMICAL COMPANY
##OWNER=COPYRIGHT (C) 1988 by COBLENTZ SOCIETY INC.
Collection (C) 2018 copyright by the U.S. Secretary of Commerce
on behalf of the United States of America. All rights reserved.
##DATE=1966/01/04
##MOLFORM=C2 Ca O4  * H2 O
##SOURCE REFERENCE=COBLENTZ NO. 07233
##$NIST ID=B6007233
##$NIST SOURCE=COBLENTZ
##$NIST IMAGE=cob7233
##SPECTROMETER/DATA SYSTEM=DOW KBr FOREPRISM-GRATING
##INSTRUMENT PARAMETERS=BLAZED AT 3.5, 12.0, 20.0 MICRON AND CHANGED AT 5.0, 7.5, 14.9 MICRON
##STATE=SOLID (SPLIT MULL), FLUOROLUBE FOR 3800-1330 CM^-^1, NUJOL FOR 1330-400 CM^-^1
$$ SEE SPECTRUM NO. 65 FOR "PRISM" SPECTRUM
##SAMPLING PROCEDURE=TRANSMISSION
##RESOLUTION=2
##DATA PROCESSING=DIGITIZED BY COBLENTZ SOCIETY (BATCH I) FROM HARD COPY
##XUNITS=1/CM
##YUNITS=TRANSMITTANCE
##XFACTOR=1
##YFACTOR=1
##DELTAX=1
##FIRSTX=3800
##LASTX=381
##FIRSTY=0.8595
##MAXX=3800
##MINX=381
##MAXY=0.8761
##MINY=0.0441
##NPOINTS=3420
##XYDATA=(X++(Y..Y))
3800.000000 0.8595 0.8595 0.8596 0.8597 0.8598
3795.000000 0.8599 0.8600 0.8601 0.8602 0.8603
3790.000000 0.8604 0.8605 0.8606 0.8607 0.8608
3785.000000 0.8609 0.8610 0.8611 0.8612 0.8612
3780.000000 0.8613 0.8614 0.8615 0.8616 0.8617
3775.000000 0.8618 0.8618 0.8620 0.8621 0.8621
3770.000000 0.8623 0.8624 0.8625 0.8625 0.8625
3765.000000 0.8625 0.8625 0.8625 0.8625 0.8625
3760.000000 0.8627 0.8627 0.8627 0.8627 0.8627
3755.000000 0.8627 0.8627 0.8627 0.8627 0.8625
3750.000000 0.8625 0.8625 0.8625 0.8625 0.8625
3745.000000 0.8625 0.8625 0.8624 0.8624 0.8624
3740.000000 0.8624 0.8624 0.8624 0.8623 0.8623
3735.000000 0.8624 0.8625 0.8625 0.8628 0.8628
3730.000000 0.8630 0.8631 0.8632 0.8633 0.8634
3725.000000 0.8635 0.8636 0.8637 0.8638 0.8640
3720.000000 0.8642 0.8644 0.8646 0.8648 0.8651
3715.000000 0.8653 0.8655 0.8656 0.8658 0.8660
3710.000000 0.8662 0.8663 0.8665 0.8667 0.8668
3705.000000 0.8670 0.8671 0.8671 0.8670 0.8668
3700.000000 0.8653 0.8663 0.8658 0.8650 0.8643
3695.000000 0.8635 0.8628 0.8620 0.8612 0.8604
3690.000000 0.8596 0.8589 0.8582 0.8578 0.8577
3685.000000 0.8575 0.8574 0.8578 0.8584 0.8589
3680.000000 0.8594 0.8598 0.8603 0.8607 0.8611
3675.000000 0.8615 0.8618 0.8623 0.8627 0.8631
3670.000000 0.8635 0.8636 0.8637 0.8637 0.8638
3665.000000 0.8639 0.8640 0.8640 0.8641 0.8638
3660.000000 0.8636 0.8633 0.8631 0.8628 0.8625
3655.000000 0.8623 0.8621 0.8618 0.8615 0.8611
3650.000000 0.8607 0.8602 0.8598 0.8594 0.8590
3645.000000 0.8585 0.8581 0.8577 0.8573 0.8568
3640.000000 0.8564 0.8558 0.8552 0.8546 0.8540
3635.000000 0.8534 0.8528 0.8523 0.8517 0.8511
3630.000000 0.8505 0.8499 0.8493 0.8486 0.8478
3625.000000 0.8471 0.8465 0.8458 0.8451 0.8444
3620.000000 0.8437 0.8428 0.8421 0.8412 0.8402
3615.000000 0.8392 0.8383 0.8375 0.8368 0.8364
3610.000000 0.8359 0.8355 0.8352 0.8348 0.8345
3605.000000 0.8343 0.8342 0.8342 0.8343 0.8343
3600.000000 0.8343 0.8343 0.8344 0.8340 0.8336
3595.000000 0.8331 0.8325 0.8318 0.8312 0.8299
3590.000000 0.8287 0.8274 0.8262 0.8227 0.8193
3585.000000 0.8158 0.8125 0.8071 0.8019 0.7995
3580.000000 0.7969 0.8005 0.8041 0.8056 0.8071
3575.000000 0.8078 0.8078 0.8076 0.8068 0.8060
3570.000000 0.8051 0.8040 0.8030 0.8018 0.8008
3565.000000 0.7994 0.7980 0.7965 0.7950 0.7935
3560.000000 0.7919 0.7905 0.7891 0.7876 0.7862
3555.000000 0.7848 0.7834 0.7818 0.7805 0.7790
3550.000000 0.7775 0.7760 0.7745 0.7721 0.7698
3545.000000 0.7674 0.7650 0.7625 0.7603 0.7578
3540.000000 0.7554 0.7528 0.7504 0.7478 0.7454
3535.000000 0.7428 0.7404 0.7378 0.7351 0.7325
3530.000000 0.7299 0.7272 0.7247 0.7218 0.7192
3525.000000 0.7155 0.7118 0.7081 0.7045 0.7008
3520.000000 0.6971 0.6912 0.6855 0.6789 0.6722
3515.000000 0.6684 0.6646 0.6607 0.6568 0.6528
3510.000000 0.6488 0.6437 0.6387 0.6337 0.6287
3505.000000 0.6235 0.6183 0.6128 0.6073 0.6016
3500.000000 0.5960 0.5894 0.5829 0.5788 0.5748
3495.000000 0.5719 0.5691 0.5666 0.5641 0.5622
3490.000000 0.5603 0.5588 0.5573 0.5566 0.5560
3485.000000 0.5557 0.5554 0.5551 0.5549 0.5549
3480.000000 0.5549 0.5550 0.5551 0.5554 0.5557
3475.000000 0.5564 0.5572 0.5579 0.5587 0.5594
3470.000000 0.5602 0.5609 0.5617 0.5625 0.5633
3465.000000 0.5640 0.5648 0.5655 0.5662 0.5670
3460.000000 0.5677 0.5684 0.5691 0.5698 0.5705
3455.000000 0.5710 0.5735 0.5718 0.5721 0.5724
3450.000000 0.5724 0.5725 0.5723 0.5715 0.5708
3445.000000 0.5694 0.5681 0.5667 0.5653 0.5632
3440.000000 0.5610 0.5590 0.5569 0.5546 0.5523
3435.000000 0.5500 0.5478 0.5456 0.5434 0.5405
3430.000000 0.5377 0.5369 0.5360 0.5360 0.5320
3425.000000 0.5381 0.5402 0.5428 0.5454 0.5483
3420.000000 0.5512 0.5541 0.5570 0.5600 0.5631
3415.000000 0.5662 0.5696 0.5729 0.5762 0.5794
3410.000000 0.5827 0.5870 0.5914 0.5957 0.6001
3405.000000 0.6048 0.6096 0.6149 0.6202 0.6247
3400.000000 0.6293 0.6323 0.6354 0.6380 0.6407
3395.000000 0.6430 0.6454 0.6475 0.6497 0.6508
3390.000000 0.6521 0.6533 0.6546 0.6556 0.6567
3385.000000 0.6574 0.6581 0.6588 0.6595 0.6600
3380.000000 0.6605 0.6605 0.6625 0.6607 0.6608
3375.000000 0.6608 0.6607 0.6606 0.6604 0.6596
3370.000000 0.6589 0.6571 0.6553 0.6532 0.6511
3365.000000 0.6488 0.6464 0.6421 0.6379 0.6337
3360.000000 0.6296 0.6257 0.6219 0.6181 0.6143
3355.000000 0.6104 0.6066 0.6027 0.5989 0.5954
3350.000000 0.5919 0.5889 0.5859 0.5832 0.5806
3345.000000 0.5788 0.5771 0.5753 0.5736 0.5726
3340.000000 0.5716 0.5712 0.5708 0.5704 0.5681
3335.000000 0.5697 0.5697 0.5696 0.5699 0.5701
3330.000000 0.5703 0.5712 0.5721 0.5737 0.5754
3325.000000 0.5773 0.5793 0.5812 0.5832 0.5854
3320.000000 0.5877 0.5900 0.5924 0.5947 0.5970
3315.000000 0.5993 0.6016 0.6039 0.6062 0.6084
3310.000000 0.6107 0.6130 0.6153 0.6173 0.6193
3305.000000 0.6210 0.6227 0.6244 0.6260 0.6278
3300.000000 0.6295 0.6312 0.6330 0.6347 0.6365
3295.000000 0.6373 0.6382 0.6388 0.6394 0.6400
3290.000000 0.6406 0.6410 0.6414 0.6418 0.6422
3285.000000 0.6424 0.6424 0.6425 0.6425 0.6425
3280.000000 0.6425 0.6421 0.6419 0.6418 0.6415
3275.000000 0.6412 0.6411 0.6401 0.6393 0.6380
3270.000000 0.6368 0.6358 0.6348 0.6337 0.6327
3265.000000 0.6317 0.6307 0.6297 0.6288 0.6278
3260.000000 0.6269 0.6255 0.6241 0.6223 0.6205
3255.000000 0.6192 0.6180 0.6176 0.6172 0.6172
3250.000000 0.6172 0.6172 0.6172 0.6171 0.6171
3245.000000 0.6171 0.6171 0.6170 0.6170 0.6177
3240.000000 0.6184 0.6198 0.6212 0.6224 0.6235
3235.000000 0.6244 0.6254 0.6262 0.6273 0.6282
3230.000000 0.6292 0.6301 0.6310 0.6320 0.6330
3225.000000 0.6339 0.6349 0.6358 0.6368 0.6379
3220.000000 0.6390 0.6401 0.6412 0.6425 0.6437
3215.000000 0.6448 0.6460 0.6471 0.6483 0.6494
3210.000000 0.6506 0.6518 0.6531 0.6545 0.6558
3205.000000 0.6571 0.6586 0.6600 0.6614 0.6628
3200.000000 0.6643 0.6661 0.6680 0.6698 0.6715
3195.000000 0.6731 0.6747 0.6760 0.6772 0.6786
3190.000000 0.6799 0.6811 0.6825 0.6837 0.6850
3185.000000 0.6862 0.6875 0.6888 0.6900 0.6911
3180.000000 0.6925 0.6930 0.6936 0.6941 0.6946
3175.000000 0.6951 0.6957 0.6958 0.6961 0.6961
3170.000000 0.6962 0.6964 0.6964 0.6965 0.6965
3165.000000 0.6965 0.6965 0.6965 0.6965 0.6961
3160.000000 0.6960 0.6957 0.6954 0.6951 0.6948
3155.000000 0.6945 0.6942 0.6938 0.6935 0.6932
3150.000000 0.6928 0.6925 0.6922 0.6919 0.6917
3145.000000 0.6912 0.6910 0.6906 0.6903 0.6899
3140.000000 0.6896 0.6892 0.6889 0.6885 0.6882
3135.000000 0.6878 0.6874 0.6869 0.6867 0.6862
3130.000000 0.6860 0.6856 0.6853 0.6848 0.6844
3125.000000 0.6838 0.6832 0.6825 0.6819 0.6812
3120.000000 0.6807 0.6800 0.6794 0.6787 0.6781
3115.000000 0.6774 0.6767 0.6760 0.6754 0.6747
3110.000000 0.6740 0.6728 0.6717 0.6705 0.6694
3105.000000 0.6682 0.6671 0.6658 0.6647 0.6630
3100.000000 0.6612 0.6595 0.6578 0.6561 0.6544
3095.000000 0.6525 0.6507 0.6488 0.6468 0.6449
3090.000000 0.6430 0.6411 0.6392 0.6371 0.6350
3085.000000 0.6326 0.6302 0.6278 0.6254 0.6230
3080.000000 0.6206 0.6182 0.6159 0.6135 0.6110
3075.000000 0.6079 0.6047 0.6012 0.5980 0.5950
3070.000000 0.5920 0.5894 0.5869 0.5844 0.5820
3065.000000 0.5798 0.5777 0.5762 0.5747 0.5739
3060.000000 0.5731 0.5723 0.5716 0.5712 0.5710
3055.000000 0.5709 0.5682 0.5705 0.5704 0.5704
3050.000000 0.5705 0.5705 0.5706 0.5707 0.5709
3045.000000 0.5712 0.5717 0.5723 0.5730 0.5746
3040.000000 0.5762 0.5778 0.5794 0.5809 0.5824
3035.000000 0.5839 0.5854 0.5869 0.5884 0.5899
3030.000000 0.5914 0.5930 0.5947 0.5962 0.5980
3025.000000 0.5996 0.6012 0.6029 0.6046 0.6064
3020.000000 0.6082 0.6101 0.6120 0.6139 0.6158
3015.000000 0.6177 0.6196 0.6215 0.6234 0.6252
3010.000000 0.6270 0.6286 0.6303 0.6319 0.6336
3005.000000 0.6352 0.6369 0.6385 0.6401 0.6418
3000.000000 0.6435 0.6451 0.6468 0.6484 0.6501
2995.000000 0.6518 0.6536 0.6554 0.6571 0.6589
2990.000000 0.6607 0.6624 0.6642 0.6658 0.6676
2985.000000 0.6695 0.6712 0.6728 0.6746 0.6761
2980.000000 0.6778 0.6794 0.6810 0.6825 0.6843
2975.000000 0.6858 0.6875 0.6891 0.6907 0.6921
2970.000000 0.6937 0.6951 0.6965 0.6980 0.6995
2965.000000 0.7008 0.7024 0.7038 0.7053 0.7065
2960.000000 0.7078 0.7088 0.7097 0.7105 0.7114
2955.000000 0.7122 0.7132 0.7140 0.7149 0.7157
2950.000000 0.7165 0.7175 0.7184 0.7191 0.7199
2945.000000 0.7206 0.7214 0.7221 0.7228 0.7235
2940.000000 0.7243 0.7250 0.7257 0.7264 0.7271
2935.000000 0.7278 0.7285 0.7291 0.7298 0.7304
2930.000000 0.7311 0.7318 0.7326 0.7335 0.7343
2925.000000 0.7351 0.7358 0.7367 0.7375 0.7385
2920.000000 0.7394 0.7403 0.7412 0.7424 0.7436
2915.000000 0.7449 0.7461 0.7475 0.7490 0.7511
2910.000000 0.7532 0.7551 0.7571 0.7583 0.7596
2905.000000 0.7608 0.7621 0.7633 0.7646 0.7657
2900.000000 0.7668 0.7675 0.7681 0.7686 0.7692
2895.000000 0.7698 0.7704 0.7710 0.7715 0.7721
2890.000000 0.7728 0.7734 0.7740 0.7746 0.7751
2885.000000 0.7757 0.7762 0.7768 0.7775 0.7781
2880.000000 0.7787 0.7792 0.7798 0.7803 0.7808
2875.000000 0.7814 0.7818 0.7824 0.7830 0.7835
2870.000000 0.7841 0.7846 0.7851 0.7856 0.7861
2865.000000 0.7867 0.7871 0.7876 0.7883 0.7888
2860.000000 0.7893 0.7898 0.7904 0.7908 0.7914
2855.000000 0.7918 0.7925 0.7928 0.7934 0.7938
2850.000000 0.7943 0.7947 0.7951 0.7956 0.7961
2845.000000 0.7965 0.7969 0.7974 0.7978 0.7982
2840.000000 0.7987 0.7991 0.7996 0.8000 0.8005
2835.000000 0.8008 0.8014 0.8018 0.8022 0.8026
2830.000000 0.8032 0.8036 0.8041 0.8045 0.8049
2825.000000 0.8053 0.8058 0.8061 0.8064 0.8065
2820.000000 0.8068 0.8069 0.8071 0.8074 0.8076
2815.000000 0.8078 0.8081 0.8083 0.8086 0.8088
2810.000000 0.8090 0.8092 0.8094 0.8096 0.8099
2805.000000 0.8101 0.8103 0.8105 0.8108 0.8110
2800.000000 0.8111 0.8114 0.8115 0.8118 0.8119
2795.000000 0.8121 0.8125 0.8126 0.8128 0.8131
2790.000000 0.8134 0.8136 0.8138 0.8140 0.8143
2785.000000 0.8145 0.8148 0.8150 0.8151 0.8154
2780.000000 0.8157 0.8158 0.8161 0.8162 0.8165
2775.000000 0.8168 0.8169 0.8171 0.8174 0.8175
2770.000000 0.8178 0.8178 0.8180 0.8181 0.8183
2765.000000 0.8184 0.8185 0.8186 0.8187 0.8191
2760.000000 0.8195 0.8199 0.8203 0.8207 0.8211
2755.000000 0.8218 0.8225 0.8234 0.8242 0.8249
2750.000000 0.8257 0.8261 0.8265 0.8268 0.8273
2745.000000 0.8275 0.8278 0.8282 0.8286 0.8289
2740.000000 0.8292 0.8295 0.8299 0.8302 0.8306
2735.000000 0.8309 0.8312 0.8315 0.8318 0.8321
2730.000000 0.8325 0.8328 0.8332 0.8335 0.8339
2725.000000 0.8342 0.8345 0.8348 0.8352 0.8355
2720.000000 0.8358 0.8361 0.8365 0.8368 0.8371
2715.000000 0.8374 0.8377 0.8380 0.8383 0.8386
2710.000000 0.8389 0.8392 0.8396 0.8397 0.8399
2705.000000 0.8400 0.8402 0.8404 0.8406 0.8407
2700.000000 0.8409 0.8410 0.8412 0.8413 0.8415
2695.000000 0.8416 0.8418 0.8418 0.8421 0.8421
2690.000000 0.8424 0.8425 0.8427 0.8428 0.8430
2685.000000 0.8431 0.8433 0.8434 0.8436 0.8438
2680.000000 0.8441 0.8443 0.8445 0.8447 0.8450
2675.000000 0.8452 0.8455 0.8457 0.8459 0.8461
2670.000000 0.8464 0.8466 0.8468 0.8471 0.8474
2665.000000 0.8475 0.8478 0.8480 0.8483 0.8485
2660.000000 0.8488 0.8490 0.8492 0.8494 0.8496
2655.000000 0.8498 0.8500 0.8501 0.8503 0.8505
2650.000000 0.8507 0.8509 0.8511 0.8512 0.8514
2645.000000 0.8516 0.8518 0.8518 0.8521 0.8523
2640.000000 0.8525 0.8527 0.8528 0.8530 0.8532
2635.000000 0.8534 0.8536 0.8537 0.8539 0.8541
2630.000000 0.8543 0.8545 0.8547 0.8548 0.8550
2625.000000 0.8552 0.8554 0.8555 0.8557 0.8558
2620.000000 0.8560 0.8561 0.8562 0.8563 0.8564
2615.000000 0.8564 0.8565 0.8566 0.8567 0.8568
2610.000000 0.8568 0.8568 0.8570 0.8571 0.8571
2605.000000 0.8573 0.8574 0.8574 0.8575 0.8575
2600.000000 0.8577 0.8578 0.8578 0.8578 0.8580
2595.000000 0.8581 0.8582 0.8583 0.8584 0.8584
2590.000000 0.8585 0.8586 0.8587 0.8587 0.8588
2585.000000 0.8589 0.8590 0.8591 0.8592 0.8592
2580.000000 0.8593 0.8594 0.8595 0.8596 0.8597
2575.000000 0.8597 0.8598 0.8599 0.8600 0.8601
2570.000000 0.8602 0.8602 0.8603 0.8604 0.8605
2565.000000 0.8605 0.8605 0.8605 0.8606 0.8606
2560.000000 0.8606 0.8606 0.8607 0.8607 0.8608
2555.000000 0.8608 0.8608 0.8608 0.8609 0.8609
2550.000000 0.8610 0.8610 0.8610 0.8610 0.8611
2545.000000 0.8611 0.8612 0.8612 0.8612 0.8612
2540.000000 0.8613 0.8613 0.8614 0.8614 0.8614
2535.000000 0.8614 0.8615 0.8615 0.8616 0.8616
2530.000000 0.8616 0.8616 0.8617 0.8617 0.8617
2525.000000 0.8617 0.8617 0.8617 0.8617 0.8617
2520.000000 0.8617 0.8616 0.8616 0.8616 0.8616
2515.000000 0.8615 0.8615 0.8615 0.8615 0.8615
2510.000000 0.8615 0.8614 0.8614 0.8614 0.8614
2505.000000 0.8613 0.8613 0.8613 0.8613 0.8613
2500.000000 0.8613 0.8612 0.8612 0.8612 0.8612
2495.000000 0.8611 0.8611 0.8611 0.8611 0.8611
2490.000000 0.8611 0.8610 0.8610 0.8610 0.8610
2485.000000 0.8609 0.8609 0.8609 0.8609 0.8608
2480.000000 0.8608 0.8608 0.8608 0.8608 0.8608
2475.000000 0.8607 0.8607 0.8607 0.8607 0.8606
2470.000000 0.8606 0.8606 0.8606 0.8606 0.8606
2465.000000 0.8605 0.8605 0.8605 0.8605 0.8604
2460.000000 0.8604 0.8604 0.8604 0.8604 0.8604
2455.000000 0.8603 0.8603 0.8602 0.8602 0.8601
2450.000000 0.8601 0.8600 0.8600 0.8599 0.8598
2445.000000 0.8597 0.8597 0.8596 0.8596 0.8595
2440.000000 0.8595 0.8594 0.8594 0.8593 0.8593
2435.000000 0.8592 0.8591 0.8590 0.8590 0.8589
2430.000000 0.8589 0.8588 0.8588 0.8587 0.8587
2425.000000 0.8586 0.8586 0.8585 0.8585 0.8584
2420.000000 0.8583 0.8582 0.8582 0.8581 0.8581
2415.000000 0.8580 0.8580 0.8578 0.8578 0.8577
2410.000000 0.8575 0.8575 0.8575 0.8574 0.8573
2405.000000 0.8571 0.8571 0.8570 0.8568 0.8568
2400.000000 0.8568 0.8567 0.8566 0.8564 0.8563
2395.000000 0.8561 0.8560 0.8559 0.8558 0.8556
2390.000000 0.8555 0.8554 0.8554 0.8554 0.8555
2385.000000 0.8556 0.8557 0.8558 0.8559 0.8562
2380.000000 0.8566 0.8570 0.8574 0.8577 0.8581
2375.000000 0.8584 0.8588 0.8591 0.8595 0.8598
2370.000000 0.8601 0.8603 0.8605 0.8607 0.8609
2365.000000 0.8611 0.8613 0.8615 0.8617 0.8618
2360.000000 0.8621 0.8624 0.8625 0.8628 0.8630
2355.000000 0.8631 0.8632 0.8632 0.8633 0.8633
2350.000000 0.8634 0.8634 0.8635 0.8636 0.8637
2345.000000 0.8637 0.8638 0.8638 0.8638 0.8638
2340.000000 0.8637 0.8636 0.8635 0.8634 0.8633
2335.000000 0.8632 0.8632 0.8631 0.8630 0.8628
2330.000000 0.8628 0.8627 0.8625 0.8624 0.8623
2325.000000 0.8621 0.8621 0.8618 0.8618 0.8615
2320.000000 0.8613 0.8610 0.8608 0.8603 0.8599
2315.000000 0.8594 0.8590 0.8571 0.8554 0.8537
2310.000000 0.8520 0.8514 0.8508 0.8503 0.8498
2305.000000 0.8494 0.8491 0.8489 0.8488 0.8486
2300.000000 0.8485 0.8482 0.8480 0.8478 0.8475
2295.000000 0.8473 0.8471 0.8457 0.8443 0.8430
2290.000000 0.8418 0.8408 0.8399 0.8397 0.8395
2285.000000 0.8395 0.8395 0.8390 0.8313 0.8380
2280.000000 0.8375 0.8368 0.8362 0.8358 0.8358
2275.000000 0.8358 0.8361 0.8363 0.8366 0.8368
2270.000000 0.8371 0.8374 0.8377 0.8380 0.8383
2265.000000 0.8386 0.8389 0.8392 0.8395 0.8398
2260.000000 0.8402 0.8405 0.8408 0.8411 0.8414
2255.000000 0.8417 0.8421 0.8424 0.8427 0.8428
2250.000000 0.8432 0.8434 0.8436 0.8438 0.8440
2245.000000 0.8442 0.8445 0.8447 0.8449 0.8451
2240.000000 0.8453 0.8455 0.8458 0.8460 0.8462
2235.000000 0.8464 0.8466 0.8468 0.8471 0.8473
2230.000000 0.8475 0.8477 0.8478 0.8481 0.8484
2225.000000 0.8486 0.8488 0.8489 0.8491 0.8493
2220.000000 0.8495 0.8496 0.8498 0.8499 0.8501
2215.000000 0.8503 0.8505 0.8506 0.8508 0.8510
2210.000000 0.8512 0.8513 0.8515 0.8517 0.8518
2205.000000 0.8520 0.8521 0.8524 0.8525 0.8527
2200.000000 0.8528 0.8530 0.8532 0.8534 0.8536
2195.000000 0.8538 0.8540 0.8542 0.8544 0.8546
2190.000000 0.8548 0.8550 0.8552 0.8554 0.8556
2185.000000 0.8558 0.8560 0.8562 0.8564 0.8566
2180.000000 0.8568 0.8570 0.8571 0.8573 0.8575
2175.000000 0.8575 0.8578 0.8578 0.8581 0.8582
2170.000000 0.8584 0.8585 0.8587 0.8588 0.8590
2165.000000 0.8591 0.8593 0.8594 0.8596 0.8597
2160.000000 0.8598 0.8598 0.8598 0.8598 0.8598
2155.000000 0.8598 0.8598 0.8598 0.8598 0.8598
2150.000000 0.8598 0.8598 0.8598 0.8598 0.8598
2145.000000 0.8598 0.8598 0.8598 0.8598 0.8597
2140.000000 0.8597 0.8597 0.8597 0.8596 0.8596
2135.000000 0.8595 0.8595 0.8594 0.8594 0.8594
2130.000000 0.8594 0.8593 0.8593 0.8592 0.8592
2125.000000 0.8591 0.8591 0.8591 0.8591 0.8590
2120.000000 0.8590 0.8590 0.8590 0.8590 0.8591
2115.000000 0.8591 0.8592 0.8592 0.8593 0.8594
2110.000000 0.8595 0.8595 0.8596 0.8596 0.8597
2105.000000 0.8597 0.8598 0.8599 0.8600 0.8600
2100.000000 0.8601 0.8601 0.8602 0.8602 0.8603
2095.000000 0.8604 0.8606 0.8607 0.8609 0.8610
2090.000000 0.8611 0.8612 0.8614 0.8615 0.8617
2085.000000 0.8618 0.8620 0.8621 0.8623 0.8623
2080.000000 0.8624 0.8624 0.8625 0.8625 0.8627
2075.000000 0.8627 0.8628 0.8628 0.8630 0.8630
2070.000000 0.8631 0.8632 0.8633 0.8633 0.8633
2065.000000 0.8633 0.8633 0.8632 0.8632 0.8632
2060.000000 0.8632 0.8631 0.8631 0.8630 0.8630
2055.000000 0.8628 0.8628 0.8628 0.8628 0.8628
2050.000000 0.8628 0.8627 0.8627 0.8627 0.8627
2045.000000 0.8627 0.8627 0.8627 0.8627 0.8627
2040.000000 0.8627 0.8627 0.8627 0.8627 0.8628
2035.000000 0.8628 0.8628 0.8628 0.8630 0.8630
2030.000000 0.8631 0.8632 0.8632 0.8632 0.8632
2025.000000 0.8631 0.8630 0.8628 0.8627 0.8625
2020.000000 0.8625 0.8624 0.8623 0.8621 0.8620
2015.000000 0.8618 0.8618 0.8617 0.8616 0.8615
2010.000000 0.8614 0.8612 0.8611 0.8610 0.8610
2005.000000 0.8610 0.8610 0.8610 0.8610 0.8609
2000.000000 0.8609 0.8610 0.8613 0.8615 0.8632
1995.000000 0.8651 0.8666 0.8671 0.8673 0.8675
1990.000000 0.8675 0.8677 0.8677 0.8678 0.8678
1985.000000 0.8680 0.8681 0.8683 0.8684 0.8686
1980.000000 0.8688 0.8690 0.8692 0.8693 0.8695
1975.000000 0.8697 0.8697 0.8697 0.8697 0.8696
1970.000000 0.8696 0.8696 0.8695 0.8695 0.8694
1965.000000 0.8693 0.8693 0.8692 0.8691 0.8690
1960.000000 0.8690 0.8689 0.8688 0.8687 0.8687
1955.000000 0.8685 0.8683 0.8681 0.8680 0.8678
1950.000000 0.8675 0.8674 0.8671 0.8670 0.8667
1945.000000 0.8665 0.8663 0.8660 0.8659 0.8656
1940.000000 0.8653 0.8650 0.8646 0.8643 0.8639
1935.000000 0.8635 0.8631 0.8625 0.8621 0.8617
1930.000000 0.8612 0.8609 0.8605 0.8601 0.8598
1925.000000 0.8592 0.8587 0.8581 0.8575 0.8568
1920.000000 0.8563 0.8555 0.8547 0.8539 0.8531
1915.000000 0.8524 0.8517 0.8510 0.8505 0.8502
1910.000000 0.8499 0.8499 0.8500 0.8501 0.8497
1905.000000 0.8497 0.8498 0.8498 0.8498 0.8501
1900.000000 0.8505 0.8509 0.8513 0.8517 0.8520
1895.000000 0.8521 0.8524 0.8525 0.8528 0.8530
1890.000000 0.8533 0.8536 0.8538 0.8541 0.8544
1885.000000 0.8546 0.8549 0.8552 0.8553 0.8554
1880.000000 0.8554 0.8554 0.8554 0.8554 0.8554
1875.000000 0.8554 0.8555 0.8555 0.8555 0.8555
1870.000000 0.8555 0.8555 0.8555 0.8554 0.8554
1865.000000 0.8553 0.8553 0.8553 0.8552 0.8552
1860.000000 0.8551 0.8551 0.8551 0.8550 0.8550
1855.000000 0.8549 0.8547 0.8545 0.8544 0.8542
1850.000000 0.8540 0.8538 0.8537 0.8535 0.8533
1845.000000 0.8531 0.8530 0.8528 0.8525 0.8524
1840.000000 0.8521 0.8520 0.8518 0.8516 0.8514
1835.000000 0.8511 0.8509 0.8507 0.8505 0.8503
1830.000000 0.8501 0.8499 0.8495 0.8491 0.8487
1825.000000 0.8482 0.8478 0.8474 0.8470 0.8465
1820.000000 0.8461 0.8457 0.8453 0.8449 0.8444
1815.000000 0.8440 0.8436 0.8432 0.8428 0.8424
1810.000000 0.8420 0.8416 0.8412 0.8408 0.8404
1805.000000 0.8400 0.8395 0.8390 0.8384 0.8378
1800.000000 0.8371 0.8366 0.8361 0.8355 0.8349
1795.000000 0.8343 0.8337 0.8331 0.8324 0.8316
1790.000000 0.8308 0.8300 0.8292 0.8284 0.8275
1785.000000 0.8268 0.8261 0.8253 0.8244 0.8235
1780.000000 0.8227 0.8218 0.8209 0.8201 0.8192
1775.000000 0.8183 0.8174 0.8165 0.8157 0.8148
1770.000000 0.8139 0.8128 0.8118 0.8108 0.8099
1765.000000 0.8089 0.8078 0.8068 0.8058 0.8048
1760.000000 0.8038 0.8025 0.8011 0.7998 0.7985
1755.000000 0.7971 0.7957 0.7943 0.7928 0.7915
1750.000000 0.7901 0.7888 0.7874 0.7851 0.7825
1745.000000 0.7801 0.7775 0.7750 0.7725 0.7701
1740.000000 0.7685 0.7667 0.7650 0.7633 0.7615
1735.000000 0.7599 0.7578 0.7556 0.7535 0.7512
1730.000000 0.7490 0.7465 0.7440 0.7414 0.7372
1725.000000 0.7333 0.7293 0.7253 0.7212 0.7171
1720.000000 0.7122 0.7075 0.7028 0.6982 0.6934
1715.000000 0.6884 0.6835 0.6784 0.6731 0.6675
1710.000000 0.6621 0.6565 0.6511 0.6457 0.6401
1705.000000 0.6348 0.6283 0.6215 0.6147 0.6079
1700.000000 0.6012 0.5945 0.5877 0.5810 0.5743
1695.000000 0.5629 0.5515 0.5381 0.5181 0.5044
1690.000000 0.4929 0.4817 0.4719 0.4620 0.4520
1685.000000 0.4415 0.4310 0.4199 0.4016 0.3844
1680.000000 0.3688 0.3532 0.3378 0.3003 0.2840
1675.000000 0.2682 0.2451 0.2343 0.2197 0.2045
1670.000000 0.1941 0.1752 0.1652 0.1570 0.1496
1665.000000 0.1440 0.1386 0.1333 0.1285 0.1236
1660.000000 0.1192 0.1161 0.1128 0.1095 0.1069
1655.000000 0.1042 0.1016 0.0991 0.0965 0.0939
1650.000000 0.0914 0.0888 0.0861 0.0835 0.0809
1645.000000 0.0782 0.0754 0.0726 0.0697 0.0669
1640.000000 0.0643 0.0619 0.0595 0.0572 0.0549
1635.000000 0.0527 0.0505 0.0491 0.0480 0.0469
1630.000000 0.0465 0.0460 0.0455 0.0448 0.0446
1625.000000 0.0444 0.0442 0.0442 0.0441 0.0454
1620.000000 0.0475 0.0503 0.0533 0.0572 0.0614
1615.000000 0.0669 0.0724 0.0790 0.0908 0.1031
1610.000000 0.1190 0.1290 0.1389 0.1483 0.1558
1605.000000 0.1635 0.1718 0.1801 0.1903 0.2004
1600.000000 0.2194 0.2423 0.2595 0.2741 0.2866
1595.000000 0.2983 0.3097 0.3222 0.3349 0.3437
1590.000000 0.3518 0.3600 0.3679 0.3757 0.3820
1585.000000 0.3878 0.3936 0.3994 0.4050 0.4105
1580.000000 0.4160 0.4215 0.4273 0.4338 0.4402
1575.000000 0.4465 0.4528 0.4587 0.4628 0.4669
1570.000000 0.4710 0.4756 0.4810 0.4862 0.4917
1565.000000 0.4974 0.5036 0.5097 0.5158 0.5216
1560.000000 0.5274 0.5332 0.5391 0.5442 0.5490
1555.000000 0.5538 0.5586 0.5635 0.5683 0.5731
1550.000000 0.5779 0.5827 0.5878 0.5928 0.5978
1545.000000 0.6025 0.6062 0.6101 0.6139 0.6177
1540.000000 0.6210 0.6244 0.6278 0.6310 0.6345
1535.000000 0.6375 0.6405 0.6435 0.6465 0.6494
1530.000000 0.6522 0.6551 0.6578 0.6606 0.6633
1525.000000 0.6661 0.6689 0.6715 0.6738 0.6761
1520.000000 0.6786 0.6810 0.6833 0.6857 0.6878
1515.000000 0.6901 0.6922 0.6944 0.6965 0.6988
1510.000000 0.7011 0.7030 0.7049 0.7068 0.7082
1505.000000 0.7094 0.7106 0.7118 0.7126 0.7133
1500.000000 0.7138 0.7143 0.7148 0.7151 0.7151
1495.000000 0.7153 0.7151 0.7149 0.7145 0.7142
1490.000000 0.7138 0.7139 0.7140 0.7151 0.7168
1485.000000 0.7186 0.7219 0.7247 0.7265 0.7283
1480.000000 0.7301 0.7318 0.7336 0.7351 0.7368
1475.000000 0.7378 0.7384 0.7389 0.7394 0.7396
1470.000000 0.7396 0.7396 0.7395 0.7395 0.7386
1465.000000 0.7378 0.7371 0.7371 0.7371 0.7371
1460.000000 0.7375 0.7380 0.7399 0.7421 0.7439
1455.000000 0.7458 0.7468 0.7478 0.7487 0.7496
1450.000000 0.7504 0.7512 0.7518 0.7525 0.7530
1445.000000 0.7536 0.7542 0.7545 0.7548 0.7550
1440.000000 0.7553 0.7555 0.7558 0.7560 0.7561
1435.000000 0.7565 0.7568 0.7571 0.7575 0.7578
1430.000000 0.7581 0.7583 0.7585 0.7587 0.7589
1425.000000 0.7590 0.7592 0.7594 0.7594 0.7595
1420.000000 0.7595 0.7595 0.7595 0.7595 0.7594
1415.000000 0.7593 0.7591 0.7590 0.7589 0.7583
1410.000000 0.7578 0.7574 0.7569 0.7558 0.7548
1405.000000 0.7531 0.7514 0.7488 0.7443 0.7396
1400.000000 0.7347 0.7297 0.7234 0.7165 0.7107
1395.000000 0.7049 0.6975 0.6890 0.6805 0.6715
1390.000000 0.6625 0.6560 0.6498 0.6440 0.6382
1385.000000 0.6331 0.6290 0.6253 0.6229 0.6205
1380.000000 0.6181 0.6162 0.6142 0.6125 0.6110
1375.000000 0.6098 0.6084 0.6070 0.6057 0.6045
1370.000000 0.6034 0.6026 0.6017 0.6009 0.5960
1365.000000 0.5996 0.5991 0.5991 0.5991 0.6003
1360.000000 0.6016 0.6036 0.6067 0.6094 0.6101
1355.000000 0.6106 0.6132 0.6102 0.6093 0.6083
1350.000000 0.6066 0.6035 0.5987 0.5932 0.5872
1345.000000 0.5808 0.5743 0.5660 0.5567 0.5412
1340.000000 0.5040 0.4882 0.4654 0.4409 0.4164
1335.000000 0.3918 0.3674 0.3429 0.3184 0.2939
1330.000000 0.2694 0.2449 0.2204 0.1959 0.1670
1325.000000 0.1536 0.1448 0.1348 0.1226 0.1055
1320.000000 0.0866 0.0866 0.0866 0.0929 0.1226
1315.000000 0.2012 0.2324 0.2482 0.2796 0.3241
1310.000000 0.3687 0.4132 0.4578 0.4892 0.5062
1305.000000 0.5224 0.5374 0.5614 0.5833 0.5967
1300.000000 0.6102 0.6253 0.6405 0.6518 0.6614
1295.000000 0.6708 0.6795 0.6881 0.6967 0.7028
1290.000000 0.7085 0.7141 0.7197 0.7253 0.7293
1285.000000 0.7333 0.7372 0.7412 0.7439 0.7462
1280.000000 0.7488 0.7512 0.7537 0.7558 0.7578
1275.000000 0.7596 0.7614 0.7632 0.7650 0.7668
1270.000000 0.7685 0.7697 0.7708 0.7721 0.7733
1265.000000 0.7745 0.7757 0.7768 0.7781 0.7792
1260.000000 0.7804 0.7815 0.7825 0.7835 0.7844
1255.000000 0.7853 0.7861 0.7869 0.7878 0.7888
1250.000000 0.7897 0.7906 0.7915 0.7921 0.7928
1245.000000 0.7935 0.7942 0.7949 0.7956 0.7962
1240.000000 0.7969 0.7975 0.7983 0.7989 0.7995
1235.000000 0.8001 0.8007 0.8011 0.8018 0.8024
1230.000000 0.8028 0.8035 0.8041 0.8046 0.8050
1225.000000 0.8055 0.8060 0.8065 0.8068 0.8074
1220.000000 0.8078 0.8084 0.8088 0.8093 0.8096
1215.000000 0.8099 0.8103 0.8106 0.8108 0.8112
1210.000000 0.8115 0.8118 0.8119 0.8121 0.8124
1205.000000 0.8125 0.8128 0.8131 0.8135 0.8140
1200.000000 0.8144 0.8148 0.8151 0.8156 0.8160
1195.000000 0.8165 0.8169 0.8175 0.8180 0.8185
1190.000000 0.8190 0.8193 0.8195 0.8197 0.8199
1185.000000 0.8201 0.8204 0.8189 0.8174 0.8150
1180.000000 0.8136 0.8137 0.8138 0.8139 0.8140
1175.000000 0.8140 0.8141 0.8142 0.8143 0.8144
1170.000000 0.8145 0.8145 0.8146 0.8147 0.8147
1165.000000 0.8148 0.8149 0.8149 0.8150 0.8151
1160.000000 0.8151 0.8151 0.8151 0.8151 0.8153
1155.000000 0.8153 0.8153 0.8153 0.8153 0.8153
1150.000000 0.8153 0.8153 0.8153 0.8154 0.8154
1145.000000 0.8154 0.8155 0.8156 0.8158 0.8160
1140.000000 0.8161 0.8162 0.8171 0.8182 0.8193
1135.000000 0.8203 0.8213 0.8221 0.8228 0.8236
1130.000000 0.8243 0.8250 0.8257 0.8263 0.8270
1125.000000 0.8275 0.8283 0.8289 0.8295 0.8299
1120.000000 0.8301 0.8304 0.8307 0.8310 0.8313
1115.000000 0.8316 0.8318 0.8321 0.8324 0.8327
1110.000000 0.8328 0.8331 0.8333 0.8335 0.8337
1105.000000 0.8339 0.8342 0.8344 0.8345 0.8347
1100.000000 0.8349 0.8351 0.8353 0.8354 0.8356
1095.000000 0.8358 0.8360 0.8361 0.8363 0.8364
1090.000000 0.8366 0.8367 0.8368 0.8370 0.8370
1085.000000 0.8370 0.8371 0.8371 0.8371 0.8371
1080.000000 0.8368 0.8364 0.8359 0.8354 0.8350
1075.000000 0.8348 0.8345 0.8343 0.8340 0.8338
1070.000000 0.8343 0.8348 0.8353 0.8358 0.8363
1065.000000 0.8368 0.8373 0.8378 0.8383 0.8389
1060.000000 0.8393 0.8397 0.8401 0.8405 0.8410
1055.000000 0.8414 0.8418 0.8421 0.8425 0.8431
1050.000000 0.8435 0.8438 0.8440 0.8442 0.8468
1045.000000 0.8447 0.8449 0.8451 0.8453 0.8455
1040.000000 0.8458 0.8460 0.8462 0.8464 0.8465
1035.000000 0.8467 0.8468 0.8468 0.8470 0.8471
1030.000000 0.8473 0.8474 0.8475 0.8475 0.8478
1025.000000 0.8478 0.8480 0.8481 0.8483 0.8484
1020.000000 0.8485 0.8486 0.8488 0.8489 0.8490
1015.000000 0.8491 0.8493 0.8494 0.8495 0.8497
1010.000000 0.8498 0.8499 0.8500 0.8501 0.8502
1005.000000 0.8503 0.8503 0.8504 0.8505 0.8506
1000.000000 0.8507 0.8507 0.8507 0.8506 0.8506
995.000000 0.8506 0.8505 0.8504 0.8503 0.8503
990.000000 0.8502 0.8501 0.8500 0.8499 0.8498
985.000000 0.8498 0.8497 0.8497 0.8496 0.8492
980.000000 0.8489 0.8485 0.8480 0.8474 0.8461
975.000000 0.8444 0.8421 0.8400 0.8381 0.8364
970.000000 0.8346 0.8328 0.8304 0.8278 0.8255
965.000000 0.8239 0.8224 0.8209 0.8194 0.8180
960.000000 0.8165 0.8151 0.8138 0.8124 0.8108
955.000000 0.8090 0.8071 0.8054 0.8041 0.8026
950.000000 0.8014 0.7937 0.7993 0.7995 0.7999
945.000000 0.8003 0.8007 0.8019 0.8039 0.8058
940.000000 0.8082 0.8107 0.8131 0.8156 0.8178
935.000000 0.8195 0.8213 0.8231 0.8248 0.8266
930.000000 0.8284 0.8301 0.8318 0.8335 0.8351
925.000000 0.8367 0.8384 0.8400 0.8416 0.8431
920.000000 0.8446 0.8462 0.8477 0.8487 0.8496
915.000000 0.8506 0.8515 0.8525 0.8534 0.8544
910.000000 0.8558 0.8560 0.8561 0.8550 0.8564
905.000000 0.8562 0.8559 0.8555 0.8551 0.8545
900.000000 0.8525 0.8508 0.8485 0.8433 0.8378
895.000000 0.8314 0.8244 0.8192 0.8150 0.8114
890.000000 0.8080 0.8046 0.8015 0.7987 0.7967
885.000000 0.7946 0.7933 0.7934 0.7938 0.7951
880.000000 0.7967 0.8000 0.8043 0.8082 0.8118
875.000000 0.8155 0.8191 0.8233 0.8278 0.8323
870.000000 0.8380 0.8438 0.8474 0.8486 0.8490
865.000000 0.8495 0.8502 0.8509 0.8516 0.8523
860.000000 0.8530 0.8536 0.8543 0.8550 0.8557
855.000000 0.8564 0.8571 0.8578 0.8586 0.8595
850.000000 0.8604 0.8613 0.8623 0.8632 0.8641
845.000000 0.8649 0.8657 0.8665 0.8673 0.8681
840.000000 0.8688 0.8695 0.8702 0.8708 0.8715
835.000000 0.8720 0.8725 0.8730 0.8732 0.8734
830.000000 0.8735 0.8737 0.8738 0.8740 0.8741
825.000000 0.8741 0.8741 0.8741 0.8740 0.8739
820.000000 0.8761 0.8734 0.8732 0.8728 0.8727
815.000000 0.8721 0.8716 0.8710 0.8699 0.8688
810.000000 0.8677 0.8658 0.8638 0.8618 0.8599
805.000000 0.8570 0.8540 0.8494 0.8439 0.8360
800.000000 0.8273 0.8161 0.8038 0.7910 0.7765
795.000000 0.7295 0.6607 0.5919 0.5232 0.4544
790.000000 0.3856 0.3330 0.3009 0.2612 0.2519
785.000000 0.2592 0.2983 0.3374 0.3764 0.4155
780.000000 0.4546 0.4928 0.5117 0.5567 0.5816
775.000000 0.5978 0.6148 0.6362 0.6448 0.6534
770.000000 0.6756 0.6811 0.6844 0.6876 0.6911
765.000000 0.6957 0.7015 0.7072 0.7168 0.7328
760.000000 0.7472 0.7542 0.7610 0.7660 0.7711
755.000000 0.7767 0.7811 0.7845 0.7868 0.7890
750.000000 0.7897 0.7905 0.7911 0.7932 0.7926
745.000000 0.7926 0.7926 0.7922 0.7918 0.7912
740.000000 0.7906 0.7899 0.7892 0.7882 0.7871
735.000000 0.7856 0.7840 0.7824 0.7808 0.7778
730.000000 0.7749 0.7718 0.7685 0.7651 0.7621
725.000000 0.7591 0.7564 0.7541 0.7519 0.7515
720.000000 0.7539 0.7568 0.7615 0.7667 0.7697
715.000000 0.7711 0.7718 0.7718 0.7718 0.7717
710.000000 0.7750 0.7711 0.7700 0.7686 0.7671
705.000000 0.7656 0.7639 0.7621 0.7601 0.7584
700.000000 0.7554 0.7511 0.7469 0.7421 0.7369
695.000000 0.7321 0.7280 0.7239 0.7198 0.7150
690.000000 0.7101 0.7031 0.6956 0.6881 0.6806
685.000000 0.6730 0.6655 0.6580 0.6505 0.6430
680.000000 0.6354 0.6279 0.6204 0.6129 0.6065
675.000000 0.6021 0.5966 0.5912 0.5866 0.5812
670.000000 0.5769 0.5721 0.5743 0.5737 0.5736
665.000000 0.5736 0.5740 0.5747 0.5755 0.5776
660.000000 0.5810 0.5848 0.5885 0.5926 0.5966
655.000000 0.6007 0.6047 0.6100 0.6153 0.6206
650.000000 0.6259 0.6312 0.6362 0.6415 0.6467
645.000000 0.6518 0.6569 0.6618 0.6662 0.6707
640.000000 0.6751 0.6797 0.6841 0.6887 0.6934
635.000000 0.6980 0.7026 0.7074 0.7111 0.7145
630.000000 0.7178 0.7211 0.7242 0.7271 0.7301
625.000000 0.7331 0.7350 0.7365 0.7381 0.7397
620.000000 0.7414 0.7430 0.7447 0.7455 0.7461
615.000000 0.7467 0.7468 0.7468 0.7467 0.7467
610.000000 0.7465 0.7461 0.7458 0.7454 0.7450
605.000000 0.7446 0.7428 0.7411 0.7391 0.7365
600.000000 0.7341 0.7318 0.7297 0.7291 0.7287
595.000000 0.7285 0.7282 0.7278 0.7293 0.7275
590.000000 0.7278 0.7283 0.7291 0.7299 0.7314
585.000000 0.7334 0.7357 0.7380 0.7404 0.7426
580.000000 0.7445 0.7464 0.7482 0.7501 0.7518
575.000000 0.7538 0.7556 0.7572 0.7591 0.7608
570.000000 0.7625 0.7642 0.7660 0.7676 0.7694
565.000000 0.7711 0.7725 0.7741 0.7755 0.7769
560.000000 0.7782 0.7792 0.7803 0.7812 0.7822
555.000000 0.7834 0.7844 0.7854 0.7861 0.7869
550.000000 0.7878 0.7885 0.7892 0.7896 0.7908
545.000000 0.7903 0.7904 0.7904 0.7899 0.7891
540.000000 0.7882 0.7867 0.7842 0.7817 0.7778
535.000000 0.7737 0.7688 0.7631 0.7400 0.7212
530.000000 0.7030 0.6695 0.6498 0.6301 0.6105
525.000000 0.5908 0.5710 0.5515 0.5318 0.5121
520.000000 0.4924 0.4807 0.4758 0.4730 0.4732
515.000000 0.4753 0.4826 0.4920 0.5082 0.5296
510.000000 0.5507 0.6018 0.6284 0.6531 0.6850
505.000000 0.6961 0.7072 0.7168 0.7232 0.7296
500.000000 0.7360 0.7418 0.7467 0.7515 0.7564
495.000000 0.7612 0.7661 0.7704 0.7747 0.7789
490.000000 0.7832 0.7875 0.7912 0.7950 0.7988
485.000000 0.8025 0.8061 0.8092 0.8124 0.8156
480.000000 0.8187 0.8206 0.8225 0.8243 0.8261
475.000000 0.8273 0.8285 0.8297 0.8308 0.8314
470.000000 0.8321 0.8325 0.8325 0.8325 0.8325
465.000000 0.8325 0.8324 0.8324 0.8323 0.8321
460.000000 0.8320 0.8318 0.8315 0.8313 0.8311
455.000000 0.8308 0.8306 0.8305 0.8304 0.8303
450.000000 0.8302 0.8301 0.8301 0.8300 0.8299
445.000000 0.8298 0.8298 0.8298 0.8298 0.8299
440.000000 0.8300 0.8300 0.8301 0.8302 0.8302
435.000000 0.8303 0.8304 0.8304 0.8302 0.8301
430.000000 0.8300 0.8297 0.8289 0.8281 0.8273
425.000000 0.8265 0.8256 0.8248 0.8239 0.8228
420.000000 0.8218 0.8209 0.8198 0.8188 0.8178
415.000000 0.8168 0.8158 0.8147 0.8137 0.8126
410.000000 0.8117 0.8107 0.8097 0.8087 0.8076
405.000000 0.8067 0.8058 0.8048 0.8038 0.8028
400.000000 0.8018 0.8004 0.7991 0.7976 0.7964
395.000000 0.7950 0.7937 0.7924 0.7914 0.7903
390.000000 0.7892 0.7882 0.7871 0.7860 0.7849
385.000000 0.7838 0.7826 0.7815 0.7801 0.7789
##END=
