##TITLE=Polyglycol P-750 (Dow)
##JCAMP-DX=4.24
$$ By DXEDIT 1.05 (RS McDonald)
##DATA TYPE=INFRARED SPECTRUM
##CLASS=COBLENTZ
##ORIGIN=DOW CHEMICAL COMPANY
##OWNER=COPYRIGHT (C) 1988 by COBLENTZ SOCIETY INC.
Collection (C) 2018 copyright by the U.S. Secretary of Commerce
on behalf of the United States of America. All rights reserved.
##DATE=1970/02/03
##NAMES=propylene glycol
##MOLFORM=C3 H8 O2
##SOURCE REFERENCE=COBLENTZ NO. 09518
##$NIST ID=B6009518
##$NIST SOURCE=COBLENTZ
##$NIST IMAGE=cob9518
##SPECTROMETER/DATA SYSTEM=DOW KBr FOREPRISM-GRATING
##INSTRUMENT PARAMETERS=BLAZED AT 3.5, 12.0, 20.0 MICRON AND CHANGED AT 5.0, 7.5, 14.9 MICRON
##STATE=SOLUTION (10% CCl4 FOR 2.7-7.5, 10% CS2 FOR 7.5-26 MICRON) VS SOLVENT
##PATH LENGTH=0.011 CM, 0.011 CM
##SAMPLING PROCEDURE=TRANSMISSION
##RESOLUTION=2
##DATA PROCESSING=DIGITIZED BY COBLENTZ SOCIETY (BATCH I) FROM HARD COPY
##XUNITS=1/CM
##YUNITS=TRANSMITTANCE
##XFACTOR=1
##YFACTOR=1
##DELTAX=1
##FIRSTX=3792
##LASTX=393
##FIRSTY=0.8566
##MAXX=3792
##MINX=393
##MAXY=0.8856
##MINY=0.0028
##NPOINTS=3400
##XYDATA=(X++(Y..Y))
3792.000000 0.8566 0.8566 0.8566 0.8565 0.8565
3787.000000 0.8564 0.8564 0.8564 0.8564 0.8563
3782.000000 0.8563 0.8563 0.8563 0.8562 0.8562
3777.000000 0.8561 0.8561 0.8561 0.8561 0.8560
3772.000000 0.8560 0.8560 0.8560 0.8559 0.8559
3767.000000 0.8558 0.8558 0.8558 0.8558 0.8558
3762.000000 0.8558 0.8558 0.8559 0.8560 0.8561
3757.000000 0.8561 0.8562 0.8562 0.8563 0.8564
3752.000000 0.8565 0.8566 0.8568 0.8568 0.8571
3747.000000 0.8571 0.8574 0.8575 0.8577 0.8578
3742.000000 0.8578 0.8580 0.8582 0.8583 0.8585
3737.000000 0.8586 0.8588 0.8589 0.8591 0.8592
3732.000000 0.8594 0.8595 0.8595 0.8596 0.8596
3727.000000 0.8596 0.8597 0.8597 0.8598 0.8598
3722.000000 0.8598 0.8598 0.8599 0.8599 0.8600
3717.000000 0.8600 0.8601 0.8601 0.8601 0.8601
3712.000000 0.8602 0.8602 0.8602 0.8602 0.8602
3707.000000 0.8602 0.8603 0.8603 0.8603 0.8603
3702.000000 0.8603 0.8603 0.8603 0.8603 0.8604
3697.000000 0.8604 0.8604 0.8604 0.8604 0.8604
3692.000000 0.8604 0.8604 0.8604 0.8604 0.8604
3687.000000 0.8604 0.8604 0.8604 0.8604 0.8604
3682.000000 0.8604 0.8604 0.8604 0.8603 0.8602
3677.000000 0.8601 0.8600 0.8599 0.8598 0.8596
3672.000000 0.8594 0.8584 0.8575 0.8566 0.8557
3667.000000 0.8550 0.8543 0.8537 0.8532 0.8528
3662.000000 0.8524 0.8521 0.8521 0.8520 0.8518
3657.000000 0.8518 0.8517 0.8517 0.8517 0.8518
3652.000000 0.8518 0.8521 0.8525 0.8528 0.8533
3647.000000 0.8536 0.8540 0.8544 0.8548 0.8549
3642.000000 0.8550 0.8551 0.8552 0.8552 0.8553
3637.000000 0.8553 0.8554 0.8553 0.8552 0.8550
3632.000000 0.8548 0.8545 0.8543 0.8541 0.8539
3627.000000 0.8536 0.8534 0.8528 0.8525 0.8518
3622.000000 0.8514 0.8508 0.8503 0.8496 0.8489
3617.000000 0.8481 0.8473 0.8465 0.8457 0.8449
3612.000000 0.8441 0.8431 0.8421 0.8410 0.8400
3607.000000 0.8389 0.8378 0.8367 0.8355 0.8343
3602.000000 0.8332 0.8320 0.8308 0.8293 0.8278
3597.000000 0.8264 0.8249 0.8223 0.8197 0.8164
3592.000000 0.8132 0.8086 0.8041 0.7992 0.7943
3587.000000 0.7883 0.7822 0.7756 0.7690 0.7591
3582.000000 0.7492 0.7388 0.7284 0.7239 0.7195
3577.000000 0.7161 0.7128 0.7108 0.7090 0.7087
3572.000000 0.7055 0.7080 0.7076 0.7074 0.7071
3567.000000 0.7078 0.7086 0.7096 0.7107 0.7137
3562.000000 0.7168 0.7199 0.7230 0.7278 0.7325
3557.000000 0.7361 0.7398 0.7419 0.7443 0.7464
3552.000000 0.7486 0.7500 0.7514 0.7528 0.7542
3547.000000 0.7556 0.7571 0.7578 0.7585 0.7589
3542.000000 0.7594 0.7595 0.7595 0.7596 0.7595
3537.000000 0.7595 0.7593 0.7589 0.7586 0.7581
3532.000000 0.7575 0.7557 0.7538 0.7518 0.7500
3527.000000 0.7476 0.7455 0.7432 0.7408 0.7385
3522.000000 0.7361 0.7338 0.7315 0.7291 0.7268
3517.000000 0.7245 0.7221 0.7199 0.7175 0.7141
3512.000000 0.7106 0.7071 0.7036 0.7001 0.6965
3507.000000 0.6931 0.6897 0.6861 0.6826 0.6792
3502.000000 0.6757 0.6721 0.6687 0.6651 0.6617
3497.000000 0.6582 0.6547 0.6511 0.6476 0.6442
3492.000000 0.6407 0.6372 0.6337 0.6302 0.6267
3487.000000 0.6232 0.6198 0.6162 0.6128 0.6093
3482.000000 0.6058 0.6037 0.6017 0.5998 0.5979
3477.000000 0.5960 0.5944 0.5927 0.5910 0.5894
3472.000000 0.5878 0.5868 0.5858 0.5848 0.5838
3467.000000 0.5827 0.5817 0.5810 0.5803 0.5798
3462.000000 0.5793 0.5788 0.5783 0.5778 0.5773
3457.000000 0.5769 0.5765 0.5760 0.5758 0.5754
3452.000000 0.5754 0.5754 0.5756 0.5757 0.5759
3447.000000 0.5760 0.5762 0.5766 0.5770 0.5776
3442.000000 0.5783 0.5790 0.5797 0.5804 0.5810
3437.000000 0.5825 0.5840 0.5854 0.5869 0.5884
3432.000000 0.5899 0.5917 0.5936 0.5957 0.5979
3427.000000 0.6001 0.6023 0.6053 0.6083 0.6116
3422.000000 0.6150 0.6183 0.6217 0.6247 0.6278
3417.000000 0.6308 0.6339 0.6369 0.6400 0.6430
3412.000000 0.6461 0.6491 0.6521 0.6551 0.6581
3407.000000 0.6610 0.6640 0.6668 0.6698 0.6726
3402.000000 0.6757 0.6788 0.6819 0.6853 0.6886
3397.000000 0.6918 0.6951 0.6985 0.7018 0.7051
3392.000000 0.7084 0.7114 0.7145 0.7169 0.7196
3387.000000 0.7221 0.7247 0.7271 0.7298 0.7322
3382.000000 0.7349 0.7374 0.7400 0.7425 0.7451
3377.000000 0.7475 0.7501 0.7525 0.7549 0.7571
3372.000000 0.7596 0.7618 0.7642 0.7665 0.7689
3367.000000 0.7711 0.7735 0.7758 0.7781 0.7804
3362.000000 0.7828 0.7851 0.7874 0.7894 0.7915
3357.000000 0.7933 0.7951 0.7968 0.7988 0.8006
3352.000000 0.8025 0.8043 0.8061 0.8080 0.8098
3347.000000 0.8115 0.8135 0.8153 0.8171 0.8186
3342.000000 0.8200 0.8212 0.8225 0.8238 0.8251
3337.000000 0.8264 0.8277 0.8289 0.8302 0.8315
3332.000000 0.8328 0.8340 0.8353 0.8366 0.8378
3327.000000 0.8387 0.8395 0.8403 0.8411 0.8418
3322.000000 0.8428 0.8436 0.8444 0.8452 0.8460
3317.000000 0.8468 0.8475 0.8484 0.8493 0.8501
3312.000000 0.8509 0.8517 0.8525 0.8532 0.8540
3307.000000 0.8546 0.8553 0.8559 0.8566 0.8571
3302.000000 0.8578 0.8584 0.8591 0.8597 0.8604
3297.000000 0.8610 0.8617 0.8623 0.8630 0.8634
3292.000000 0.8639 0.8643 0.8648 0.8652 0.8657
3287.000000 0.8661 0.8665 0.8668 0.8674 0.8678
3282.000000 0.8683 0.8687 0.8691 0.8695 0.8700
3277.000000 0.8704 0.8709 0.8713 0.8717 0.8721
3272.000000 0.8725 0.8728 0.8732 0.8735 0.8739
3267.000000 0.8742 0.8746 0.8750 0.8754 0.8757
3262.000000 0.8761 0.8764 0.8768 0.8771 0.8775
3257.000000 0.8778 0.8782 0.8785 0.8788 0.8791
3252.000000 0.8794 0.8797 0.8800 0.8803 0.8806
3247.000000 0.8809 0.8812 0.8815 0.8818 0.8820
3242.000000 0.8823 0.8824 0.8825 0.8828 0.8830
3237.000000 0.8831 0.8833 0.8835 0.8837 0.8839
3232.000000 0.8841 0.8842 0.8844 0.8846 0.8848
3227.000000 0.8848 0.8849 0.8850 0.8851 0.8851
3222.000000 0.8852 0.8853 0.8854 0.8854 0.8855
3217.000000 0.8856 0.8856 0.8856 0.8856 0.8854
3212.000000 0.8853 0.8851 0.8850 0.8848 0.8847
3207.000000 0.8845 0.8844 0.8841 0.8839 0.8837
3202.000000 0.8835 0.8832 0.8830 0.8828 0.8825
3197.000000 0.8823 0.8821 0.8818 0.8817 0.8814
3192.000000 0.8812 0.8809 0.8807 0.8805 0.8803
3187.000000 0.8800 0.8798 0.8795 0.8793 0.8791
3182.000000 0.8789 0.8786 0.8784 0.8782 0.8780
3177.000000 0.8778 0.8775 0.8774 0.8773 0.8771
3172.000000 0.8770 0.8768 0.8767 0.8765 0.8763
3167.000000 0.8761 0.8760 0.8760 0.8777 0.8762
3162.000000 0.8763 0.8764 0.8765 0.8766 0.8767
3157.000000 0.8768 0.8768 0.8770 0.8771 0.8771
3152.000000 0.8774 0.8775 0.8777 0.8778 0.8781
3147.000000 0.8782 0.8784 0.8786 0.8788 0.8789
3142.000000 0.8791 0.8793 0.8795 0.8796 0.8798
3137.000000 0.8800 0.8802 0.8804 0.8806 0.8807
3132.000000 0.8809 0.8810 0.8812 0.8813 0.8814
3127.000000 0.8815 0.8816 0.8817 0.8818 0.8818
3122.000000 0.8820 0.8821 0.8821 0.8821 0.8823
3117.000000 0.8824 0.8825 0.8825 0.8827 0.8828
3112.000000 0.8828 0.8830 0.8831 0.8831 0.8831
3107.000000 0.8830 0.8828 0.8828 0.8827 0.8825
3102.000000 0.8825 0.8825 0.8824 0.8823 0.8821
3097.000000 0.8821 0.8821 0.8820 0.8818 0.8818
3092.000000 0.8817 0.8815 0.8814 0.8812 0.8811
3087.000000 0.8809 0.8807 0.8805 0.8803 0.8801
3082.000000 0.8799 0.8797 0.8795 0.8793 0.8792
3077.000000 0.8790 0.8788 0.8786 0.8784 0.8782
3072.000000 0.8780 0.8777 0.8775 0.8773 0.8771
3067.000000 0.8768 0.8766 0.8764 0.8762 0.8758
3062.000000 0.8755 0.8752 0.8749 0.8745 0.8742
3057.000000 0.8739 0.8736 0.8732 0.8728 0.8725
3052.000000 0.8723 0.8718 0.8715 0.8710 0.8705
3047.000000 0.8700 0.8695 0.8690 0.8685 0.8680
3042.000000 0.8675 0.8670 0.8665 0.8659 0.8653
3037.000000 0.8644 0.8636 0.8628 0.8620 0.8611
3032.000000 0.8603 0.8594 0.8586 0.8578 0.8570
3027.000000 0.8555 0.8541 0.8523 0.8506 0.8489
3022.000000 0.8471 0.8455 0.8438 0.8413 0.8388
3017.000000 0.8359 0.8331 0.8302 0.8274 0.8239
3012.000000 0.8204 0.8160 0.8115 0.8071 0.8025
3007.000000 0.7976 0.7928 0.7880 0.7832 0.7718
3002.000000 0.7606 0.7511 0.7415 0.7344 0.7272
2997.000000 0.7224 0.7175 0.6746 0.6317 0.5856
2992.000000 0.5396 0.4935 0.4475 0.4014 0.3554
2987.000000 0.3093 0.2633 0.2172 0.1712 0.1539
2982.000000 0.1367 0.1294 0.1221 0.1148 0.1075
2977.000000 0.1002 0.0930 0.0857 0.0784 0.0713
2972.000000 0.0621 0.0630 0.0617 0.0612 0.0608
2967.000000 0.0617 0.0626 0.0677 0.0729 0.0988
2962.000000 0.1246 0.1506 0.1765 0.2024 0.2283
2957.000000 0.2541 0.2800 0.3059 0.3318 0.3382
2952.000000 0.3449 0.3456 0.3459 0.3466 0.3464
2947.000000 0.3464 0.3460 0.3337 0.3212 0.3034
2942.000000 0.2858 0.2680 0.2502 0.2324 0.2146
2937.000000 0.1968 0.1791 0.1613 0.1435 0.1319
2932.000000 0.1204 0.1192 0.1180 0.1177 0.1139
2927.000000 0.1173 0.1171 0.1179 0.1188 0.1206
2922.000000 0.1225 0.1269 0.1313 0.1360 0.1408
2917.000000 0.1429 0.1466 0.1465 0.1465 0.1465
2912.000000 0.1466 0.1462 0.1459 0.1440 0.1421
2907.000000 0.1382 0.1344 0.1309 0.1274 0.1238
2902.000000 0.1203 0.1167 0.1132 0.1096 0.1062
2897.000000 0.1026 0.0991 0.0960 0.0929 0.0922
2892.000000 0.0918 0.0915 0.0915 0.0915 0.0917
2887.000000 0.0922 0.0926 0.0933 0.0939 0.0951
2882.000000 0.0963 0.0974 0.0985 0.0995 0.1006
2877.000000 0.1015 0.1055 0.1027 0.1030 0.1020
2872.000000 0.1010 0.0993 0.0978 0.0962 0.0946
2867.000000 0.0925 0.0903 0.0892 0.0884 0.0878
2862.000000 0.0876 0.0872 0.0872 0.0875 0.0876
2857.000000 0.0881 0.0886 0.0912 0.0938 0.0999
2852.000000 0.1060 0.1142 0.1227 0.1315 0.1404
2847.000000 0.1598 0.1792 0.1985 0.2180 0.2374
2842.000000 0.2568 0.2762 0.2956 0.3150 0.3344
2837.000000 0.3538 0.3732 0.3926 0.4120 0.4303
2832.000000 0.4487 0.4568 0.4649 0.4726 0.4804
2827.000000 0.4927 0.5051 0.5232 0.5412 0.5506
2822.000000 0.5599 0.5658 0.5717 0.5760 0.5804
2817.000000 0.5837 0.5871 0.5902 0.5934 0.5959
2812.000000 0.5984 0.6009 0.6034 0.6056 0.6078
2807.000000 0.6097 0.6117 0.6129 0.6142 0.6152
2802.000000 0.6162 0.6169 0.6176 0.6181 0.6187
2797.000000 0.6192 0.6198 0.6203 0.6209 0.6214
2792.000000 0.6220 0.6225 0.6230 0.6238 0.6247
2787.000000 0.6262 0.6278 0.6293 0.6309 0.6324
2782.000000 0.6340 0.6355 0.6371 0.6388 0.6406
2777.000000 0.6426 0.6449 0.6471 0.6493 0.6515
2772.000000 0.6537 0.6558 0.6580 0.6604 0.6628
2767.000000 0.6656 0.6684 0.6711 0.6740 0.6767
2762.000000 0.6795 0.6822 0.6851 0.6874 0.6898
2757.000000 0.6921 0.6944 0.6967 0.6990 0.7012
2752.000000 0.7036 0.7058 0.7081 0.7101 0.7122
2747.000000 0.7144 0.7165 0.7186 0.7208 0.7228
2742.000000 0.7250 0.7271 0.7292 0.7312 0.7335
2737.000000 0.7356 0.7378 0.7399 0.7421 0.7441
2732.000000 0.7461 0.7482 0.7501 0.7521 0.7543
2727.000000 0.7556 0.7569 0.7580 0.7590 0.7600
2722.000000 0.7610 0.7619 0.7630 0.7640 0.7650
2717.000000 0.7660 0.7671 0.7681 0.7692 0.7701
2712.000000 0.7711 0.7721 0.7733 0.7743 0.7754
2707.000000 0.7764 0.7774 0.7784 0.7795 0.7805
2702.000000 0.7815 0.7825 0.7837 0.7847 0.7858
2697.000000 0.7868 0.7878 0.7887 0.7897 0.7907
2692.000000 0.7917 0.7926 0.7937 0.7945 0.7954
2687.000000 0.7961 0.7968 0.7975 0.7982 0.7989
2682.000000 0.7997 0.8003 0.8010 0.8011 0.8015
2677.000000 0.8017 0.8019 0.8022 0.8025 0.8026
2672.000000 0.8028 0.8030 0.8032 0.8033 0.8034
2667.000000 0.8035 0.8037 0.8038 0.8040 0.8042
2662.000000 0.8044 0.8045 0.8047 0.8048 0.8050
2657.000000 0.8051 0.8054 0.8055 0.8057 0.8060
2652.000000 0.8064 0.8068 0.8071 0.8075 0.8078
2647.000000 0.8083 0.8087 0.8091 0.8095 0.8098
2642.000000 0.8101 0.8106 0.8111 0.8115 0.8121
2637.000000 0.8126 0.8132 0.8137 0.8142 0.8147
2632.000000 0.8153 0.8161 0.8169 0.8178 0.8187
2627.000000 0.8195 0.8204 0.8213 0.8223 0.8233
2622.000000 0.8243 0.8253 0.8264 0.8274 0.8284
2617.000000 0.8294 0.8305 0.8313 0.8321 0.8328
2612.000000 0.8338 0.8346 0.8354 0.8362 0.8370
2607.000000 0.8378 0.8387 0.8391 0.8396 0.8398
2602.000000 0.8401 0.8403 0.8405 0.8407 0.8409
2597.000000 0.8411 0.8413 0.8414 0.8416 0.8418
2592.000000 0.8420 0.8421 0.8423 0.8425 0.8427
2587.000000 0.8428 0.8430 0.8432 0.8435 0.8437
2582.000000 0.8440 0.8442 0.8445 0.8447 0.8450
2577.000000 0.8453 0.8456 0.8458 0.8461 0.8466
2572.000000 0.8471 0.8475 0.8481 0.8486 0.8491
2567.000000 0.8496 0.8501 0.8505 0.8510 0.8516
2562.000000 0.8523 0.8528 0.8536 0.8542 0.8549
2557.000000 0.8555 0.8562 0.8568 0.8575 0.8581
2552.000000 0.8587 0.8593 0.8599 0.8605 0.8611
2547.000000 0.8617 0.8623 0.8628 0.8633 0.8637
2542.000000 0.8641 0.8645 0.8649 0.8653 0.8657
2537.000000 0.8661 0.8665 0.8667 0.8668 0.8670
2532.000000 0.8671 0.8673 0.8674 0.8675 0.8675
2527.000000 0.8677 0.8678 0.8678 0.8680 0.8681
2522.000000 0.8682 0.8683 0.8685 0.8686 0.8687
2517.000000 0.8688 0.8689 0.8690 0.8691 0.8692
2512.000000 0.8693 0.8694 0.8695 0.8696 0.8697
2507.000000 0.8698 0.8699 0.8700 0.8701 0.8702
2502.000000 0.8703 0.8704 0.8705 0.8706 0.8707
2497.000000 0.8708 0.8709 0.8710 0.8711 0.8712
2492.000000 0.8713 0.8714 0.8715 0.8716 0.8717
2487.000000 0.8718 0.8718 0.8718 0.8720 0.8721
2482.000000 0.8721 0.8723 0.8724 0.8725 0.8725
2477.000000 0.8725 0.8727 0.8728 0.8728 0.8730
2472.000000 0.8731 0.8732 0.8733 0.8733 0.8734
2467.000000 0.8735 0.8736 0.8737 0.8738 0.8739
2462.000000 0.8740 0.8740 0.8741 0.8742 0.8743
2457.000000 0.8744 0.8745 0.8746 0.8747 0.8748
2452.000000 0.8749 0.8749 0.8750 0.8750 0.8751
2447.000000 0.8751 0.8751 0.8751 0.8752 0.8752
2442.000000 0.8753 0.8753 0.8753 0.8753 0.8754
2437.000000 0.8754 0.8755 0.8755 0.8755 0.8755
2432.000000 0.8756 0.8756 0.8757 0.8757 0.8757
2427.000000 0.8757 0.8758 0.8758 0.8759 0.8759
2422.000000 0.8759 0.8758 0.8758 0.8757 0.8756
2417.000000 0.8755 0.8754 0.8753 0.8753 0.8752
2412.000000 0.8751 0.8750 0.8749 0.8748 0.8748
2407.000000 0.8746 0.8745 0.8744 0.8743 0.8742
2402.000000 0.8741 0.8739 0.8738 0.8737 0.8736
2397.000000 0.8735 0.8734 0.8733 0.8732 0.8730
2392.000000 0.8728 0.8728 0.8727 0.8725 0.8725
2387.000000 0.8725 0.8725 0.8725 0.8725 0.8725
2382.000000 0.8725 0.8725 0.8727 0.8728 0.8730
2377.000000 0.8731 0.8733 0.8734 0.8735 0.8736
2372.000000 0.8738 0.8740 0.8743 0.8746 0.8749
2367.000000 0.8752 0.8755 0.8758 0.8761 0.8764
2362.000000 0.8767 0.8768 0.8771 0.8774 0.8777
2357.000000 0.8780 0.8783 0.8784 0.8785 0.8785
2352.000000 0.8785 0.8785 0.8785 0.8785 0.8785
2347.000000 0.8783 0.8781 0.8778 0.8777 0.8775
2342.000000 0.8774 0.8774 0.8775 0.8775 0.8775
2337.000000 0.8777 0.8778 0.8778 0.8778 0.8778
2332.000000 0.8780 0.8780 0.8781 0.8781 0.8782
2327.000000 0.8783 0.8784 0.8784 0.8785 0.8785
2322.000000 0.8786 0.8786 0.8786 0.8784 0.8783
2317.000000 0.8781 0.8778 0.8775 0.8771 0.8765
2312.000000 0.8758 0.8751 0.8744 0.8736 0.8728
2307.000000 0.8718 0.8709 0.8700 0.8692 0.8687
2302.000000 0.8682 0.8677 0.8673 0.8671 0.8671
2297.000000 0.8670 0.8668 0.8668 0.8668 0.8667
2292.000000 0.8666 0.8665 0.8664 0.8663 0.8663
2287.000000 0.8662 0.8661 0.8660 0.8660 0.8659
2282.000000 0.8658 0.8657 0.8657 0.8657 0.8657
2277.000000 0.8657 0.8657 0.8657 0.8657 0.8657
2272.000000 0.8657 0.8657 0.8657 0.8657 0.8657
2267.000000 0.8657 0.8657 0.8656 0.8656 0.8656
2262.000000 0.8656 0.8656 0.8656 0.8656 0.8656
2257.000000 0.8656 0.8656 0.8656 0.8656 0.8656
2252.000000 0.8656 0.8656 0.8656 0.8656 0.8657
2247.000000 0.8657 0.8657 0.8657 0.8657 0.8657
2242.000000 0.8657 0.8657 0.8657 0.8657 0.8658
2237.000000 0.8658 0.8658 0.8658 0.8658 0.8658
2232.000000 0.8658 0.8658 0.8659 0.8659 0.8660
2227.000000 0.8660 0.8661 0.8661 0.8662 0.8662
2222.000000 0.8663 0.8663 0.8664 0.8664 0.8665
2217.000000 0.8665 0.8666 0.8666 0.8667 0.8667
2212.000000 0.8668 0.8668 0.8668 0.8668 0.8670
2207.000000 0.8670 0.8671 0.8671 0.8673 0.8673
2202.000000 0.8674 0.8674 0.8675 0.8675 0.8675
2197.000000 0.8677 0.8678 0.8678 0.8680 0.8680
2192.000000 0.8681 0.8681 0.8682 0.8682 0.8682
2187.000000 0.8682 0.8682 0.8683 0.8685 0.8688
2182.000000 0.8692 0.8702 0.8712 0.8718 0.8727
2177.000000 0.8735 0.8743 0.8753 0.8763 0.8770
2172.000000 0.8777 0.8780 0.8783 0.8783 0.8784
2167.000000 0.8781 0.8778 0.8771 0.8764 0.8759
2162.000000 0.8754 0.8749 0.8744 0.8743 0.8743
2157.000000 0.8742 0.8742 0.8741 0.8740 0.8739
2152.000000 0.8739 0.8738 0.8737 0.8737 0.8737
2147.000000 0.8737 0.8738 0.8738 0.8738 0.8738
2142.000000 0.8739 0.8739 0.8739 0.8739 0.8740
2137.000000 0.8740 0.8740 0.8740 0.8741 0.8741
2132.000000 0.8741 0.8741 0.8742 0.8742 0.8742
2127.000000 0.8742 0.8743 0.8743 0.8743 0.8743
2122.000000 0.8743 0.8743 0.8743 0.8743 0.8743
2117.000000 0.8743 0.8743 0.8743 0.8743 0.8742
2112.000000 0.8742 0.8742 0.8742 0.8742 0.8742
2107.000000 0.8742 0.8742 0.8742 0.8742 0.8742
2102.000000 0.8742 0.8742 0.8742 0.8741 0.8741
2097.000000 0.8740 0.8740 0.8739 0.8739 0.8738
2092.000000 0.8738 0.8737 0.8737 0.8736 0.8736
2087.000000 0.8735 0.8735 0.8734 0.8734 0.8733
2082.000000 0.8733 0.8732 0.8732 0.8731 0.8731
2077.000000 0.8730 0.8728 0.8727 0.8725 0.8723
2072.000000 0.8721 0.8718 0.8717 0.8715 0.8713
2067.000000 0.8711 0.8709 0.8707 0.8705 0.8703
2062.000000 0.8701 0.8699 0.8698 0.8694 0.8691
2057.000000 0.8687 0.8684 0.8680 0.8677 0.8673
2052.000000 0.8670 0.8666 0.8663 0.8660 0.8658
2047.000000 0.8655 0.8653 0.8651 0.8649 0.8646
2042.000000 0.8644 0.8641 0.8639 0.8637 0.8635
2037.000000 0.8633 0.8631 0.8628 0.8625 0.8624
2032.000000 0.8621 0.8620 0.8618 0.8616 0.8614
2027.000000 0.8612 0.8610 0.8607 0.8605 0.8603
2022.000000 0.8601 0.8599 0.8597 0.8595 0.8594
2017.000000 0.8593 0.8592 0.8590 0.8589 0.8588
2012.000000 0.8587 0.8586 0.8586 0.8587 0.8589
2007.000000 0.8590 0.8592 0.8594 0.8596 0.8597
2002.000000 0.8599 0.8602 0.8605 0.8609 0.8612
1997.000000 0.8613 0.8614 0.8615 0.8615 0.8611
1992.000000 0.8606 0.8602 0.8599 0.8597 0.8597
1987.000000 0.8597 0.8600 0.8603 0.8606 0.8609
1982.000000 0.8613 0.8616 0.8618 0.8621 0.8625
1977.000000 0.8627 0.8628 0.8628 0.8631 0.8632
1972.000000 0.8633 0.8635 0.8636 0.8637 0.8639
1967.000000 0.8640 0.8641 0.8642 0.8644 0.8645
1962.000000 0.8647 0.8648 0.8649 0.8651 0.8652
1957.000000 0.8654 0.8656 0.8658 0.8660 0.8661
1952.000000 0.8663 0.8665 0.8667 0.8668 0.8671
1947.000000 0.8673 0.8675 0.8677 0.8678 0.8681
1942.000000 0.8683 0.8685 0.8686 0.8688 0.8690
1937.000000 0.8692 0.8693 0.8695 0.8697 0.8699
1932.000000 0.8700 0.8702 0.8704 0.8705 0.8706
1927.000000 0.8706 0.8711 0.8712 0.8714 0.8716
1922.000000 0.8717 0.8718 0.8721 0.8721 0.8724
1917.000000 0.8725 0.8727 0.8728 0.8730 0.8732
1912.000000 0.8733 0.8735 0.8736 0.8738 0.8739
1907.000000 0.8741 0.8743 0.8744 0.8746 0.8747
1902.000000 0.8749 0.8750 0.8752 0.8753 0.8755
1897.000000 0.8756 0.8757 0.8759 0.8760 0.8762
1892.000000 0.8763 0.8765 0.8766 0.8768 0.8768
1887.000000 0.8771 0.8771 0.8773 0.8775 0.8775
1882.000000 0.8778 0.8778 0.8780 0.8782 0.8783
1877.000000 0.8784 0.8786 0.8787 0.8788 0.8789
1872.000000 0.8791 0.8792 0.8793 0.8795 0.8796
1867.000000 0.8797 0.8799 0.8800 0.8801 0.8803
1862.000000 0.8804 0.8805 0.8806 0.8807 0.8808
1857.000000 0.8810 0.8811 0.8812 0.8813 0.8814
1852.000000 0.8815 0.8816 0.8817 0.8818 0.8820
1847.000000 0.8821 0.8821 0.8823 0.8824 0.8825
1842.000000 0.8825 0.8828 0.8828 0.8830 0.8831
1837.000000 0.8831 0.8832 0.8832 0.8833 0.8833
1832.000000 0.8834 0.8834 0.8835 0.8836 0.8836
1827.000000 0.8837 0.8837 0.8838 0.8838 0.8839
1822.000000 0.8839 0.8840 0.8841 0.8841 0.8842
1817.000000 0.8842 0.8842 0.8842 0.8841 0.8840
1812.000000 0.8839 0.8839 0.8838 0.8837 0.8836
1807.000000 0.8836 0.8835 0.8834 0.8833 0.8833
1802.000000 0.8832 0.8831 0.8831 0.8830 0.8828
1797.000000 0.8828 0.8828 0.8827 0.8825 0.8825
1792.000000 0.8825 0.8825 0.8825 0.8825 0.8825
1787.000000 0.8825 0.8825 0.8825 0.8825 0.8825
1782.000000 0.8825 0.8825 0.8825 0.8825 0.8825
1777.000000 0.8825 0.8825 0.8825 0.8824 0.8824
1772.000000 0.8824 0.8823 0.8823 0.8823 0.8821
1767.000000 0.8821 0.8821 0.8821 0.8821 0.8820
1762.000000 0.8818 0.8816 0.8813 0.8810 0.8807
1757.000000 0.8804 0.8801 0.8798 0.8795 0.8791
1752.000000 0.8788 0.8784 0.8780 0.8775 0.8771
1747.000000 0.8768 0.8764 0.8760 0.8756 0.8752
1742.000000 0.8747 0.8740 0.8733 0.8725 0.8718
1737.000000 0.8711 0.8704 0.8697 0.8689 0.8677
1732.000000 0.8662 0.8647 0.8631 0.8616 0.8602
1727.000000 0.8587 0.8571 0.8552 0.8531 0.8512
1722.000000 0.8494 0.8461 0.8473 0.8468 0.8467
1717.000000 0.8475 0.8491 0.8507 0.8521 0.8537
1712.000000 0.8552 0.8566 0.8580 0.8595 0.8609
1707.000000 0.8623 0.8637 0.8651 0.8664 0.8678
1702.000000 0.8690 0.8698 0.8707 0.8715 0.8723
1697.000000 0.8727 0.8730 0.8732 0.8735 0.8735
1692.000000 0.8735 0.8734 0.8733 0.8732 0.8731
1687.000000 0.8725 0.8718 0.8713 0.8707 0.8701
1682.000000 0.8695 0.8690 0.8684 0.8678 0.8673
1677.000000 0.8667 0.8661 0.8657 0.8654 0.8650
1672.000000 0.8646 0.8643 0.8639 0.8636 0.8632
1667.000000 0.8628 0.8625 0.8621 0.8618 0.8614
1662.000000 0.8611 0.8607 0.8604 0.8600 0.8597
1657.000000 0.8593 0.8590 0.8587 0.8583 0.8580
1652.000000 0.8575 0.8573 0.8568 0.8566 0.8563
1647.000000 0.8560 0.8557 0.8555 0.8552 0.8549
1642.000000 0.8547 0.8544 0.8542 0.8541 0.8540
1637.000000 0.8539 0.8538 0.8537 0.8536 0.8535
1632.000000 0.8534 0.8533 0.8532 0.8531 0.8531
1627.000000 0.8532 0.8532 0.8532 0.8532 0.8533
1622.000000 0.8533 0.8533 0.8533 0.8534 0.8535
1617.000000 0.8536 0.8538 0.8540 0.8541 0.8543
1612.000000 0.8544 0.8546 0.8548 0.8549 0.8551
1607.000000 0.8552 0.8554 0.8557 0.8559 0.8562
1602.000000 0.8564 0.8567 0.8568 0.8571 0.8574
1597.000000 0.8577 0.8580 0.8582 0.8585 0.8587
1592.000000 0.8590 0.8592 0.8594 0.8597 0.8599
1587.000000 0.8601 0.8604 0.8606 0.8608 0.8610
1582.000000 0.8613 0.8615 0.8617 0.8618 0.8621
1577.000000 0.8623 0.8624 0.8625 0.8627 0.8628
1572.000000 0.8630 0.8632 0.8633 0.8635 0.8637
1567.000000 0.8638 0.8640 0.8641 0.8643 0.8645
1562.000000 0.8646 0.8646 0.8646 0.8646 0.8646
1557.000000 0.8646 0.8648 0.8653 0.8658 0.8663
1552.000000 0.8668 0.8671 0.8675 0.8681 0.8685
1547.000000 0.8689 0.8694 0.8694 0.8693 0.8692
1542.000000 0.8691 0.8690 0.8689 0.8688 0.8687
1537.000000 0.8686 0.8704 0.8678 0.8675 0.8673
1532.000000 0.8670 0.8667 0.8663 0.8660 0.8656
1527.000000 0.8652 0.8648 0.8644 0.8640 0.8635
1522.000000 0.8631 0.8624 0.8617 0.8610 0.8603
1517.000000 0.8597 0.8590 0.8583 0.8575 0.8568
1512.000000 0.8556 0.8541 0.8525 0.8510 0.8495
1507.000000 0.8478 0.8460 0.8440 0.8421 0.8402
1502.000000 0.8383 0.8364 0.8344 0.8321 0.8296
1497.000000 0.8270 0.8244 0.8218 0.8188 0.8151
1492.000000 0.8117 0.8081 0.8046 0.8010 0.7945
1487.000000 0.7832 0.7732 0.7634 0.7554 0.7475
1482.000000 0.7371 0.7107 0.6411 0.5410 0.5405
1477.000000 0.5400 0.5396 0.5392 0.5388 0.5380
1472.000000 0.5243 0.5041 0.4840 0.4638 0.4436
1467.000000 0.4215 0.4080 0.3959 0.3864 0.3729
1462.000000 0.3674 0.3634 0.3602 0.3572 0.3544
1457.000000 0.3514 0.3484 0.3462 0.3440 0.3434
1452.000000 0.3432 0.3443 0.3466 0.3527 0.3742
1447.000000 0.3964 0.4185 0.4406 0.4627 0.4849
1442.000000 0.5070 0.5291 0.5512 0.5734 0.5955
1437.000000 0.6176 0.6397 0.6567 0.6658 0.6740
1432.000000 0.6807 0.6883 0.6918 0.6941 0.6950
1427.000000 0.6955 0.6951 0.6942 0.6919 0.6884
1422.000000 0.6849 0.6758 0.6660 0.6551 0.6056
1417.000000 0.5890 0.5788 0.5689 0.5606 0.5523
1412.000000 0.5432 0.5362 0.5333 0.5303 0.5273
1407.000000 0.5246 0.5224 0.5202 0.5179 0.5157
1402.000000 0.5135 0.5102 0.5069 0.5036 0.4992
1397.000000 0.4935 0.4878 0.4821 0.4712 0.4601
1392.000000 0.4499 0.4400 0.4295 0.4186 0.4077
1387.000000 0.3900 0.3747 0.3530 0.3182 0.2834
1382.000000 0.2484 0.2137 0.1789 0.1441 0.1136
1377.000000 0.1070 0.1016 0.1015 0.1010 0.1025
1372.000000 0.1056 0.1418 0.1863 0.2547 0.3230
1367.000000 0.3464 0.3660 0.3856 0.4050 0.4246
1362.000000 0.4442 0.4637 0.4791 0.4808 0.4808
1357.000000 0.4743 0.4579 0.4414 0.4250 0.4084
1352.000000 0.3921 0.3788 0.3729 0.3680 0.3654
1347.000000 0.3641 0.3632 0.3629 0.3629 0.3650
1342.000000 0.3700 0.3950 0.4139 0.4328 0.4516
1337.000000 0.4598 0.4618 0.4638 0.4658 0.4678
1332.000000 0.4695 0.4712 0.4729 0.4735 0.4741
1327.000000 0.4769 0.4744 0.4744 0.4744 0.4725
1322.000000 0.4695 0.4650 0.4614 0.4582 0.4571
1317.000000 0.4560 0.4560 0.4560 0.4572 0.4590
1312.000000 0.4608 0.4640 0.4673 0.4710 0.4735
1307.000000 0.4746 0.4754 0.4785 0.4757 0.4745
1302.000000 0.4694 0.4516 0.4337 0.4158 0.4080
1297.000000 0.4059 0.4066 0.4075 0.4090 0.4137
1292.000000 0.4230 0.4344 0.4750 0.4809 0.4867
1287.000000 0.4894 0.4910 0.4918 0.4936 0.4926
1282.000000 0.4922 0.4898 0.4871 0.4816 0.4778
1277.000000 0.4751 0.4730 0.4721 0.4712 0.4704
1272.000000 0.4693 0.4682 0.4667 0.4620 0.4567
1267.000000 0.4512 0.4459 0.4406 0.4352 0.4299
1262.000000 0.4245 0.4191 0.4138 0.4084 0.4030
1257.000000 0.3987 0.3959 0.3940 0.3930 0.3923
1252.000000 0.3923 0.3937 0.3982 0.4038 0.4134
1247.000000 0.4387 0.4493 0.4551 0.4610 0.4693
1242.000000 0.4771 0.4829 0.4915 0.5045 0.5175
1237.000000 0.5305 0.5435 0.5565 0.5696 0.5826
1232.000000 0.5956 0.6086 0.6216 0.6314 0.6377
1227.000000 0.6441 0.6505 0.6568 0.6633 0.6685
1222.000000 0.6731 0.6776 0.6817 0.6853 0.6889
1217.000000 0.6921 0.6950 0.6972 0.6993 0.7011
1212.000000 0.7015 0.7021 0.7025 0.7028 0.7028
1207.000000 0.7031 0.7032 0.7025 0.7018 0.7011
1202.000000 0.6994 0.6978 0.6961 0.6938 0.6911
1197.000000 0.6884 0.6828 0.6728 0.6619 0.6508
1192.000000 0.6418 0.6329 0.6019 0.5831 0.5643
1187.000000 0.5456 0.5268 0.5080 0.4893 0.4705
1182.000000 0.4517 0.4330 0.4142 0.3954 0.3766
1177.000000 0.3579 0.3394 0.3234 0.3124 0.3011
1172.000000 0.2848 0.2684 0.2522 0.2353 0.2141
1167.000000 0.1934 0.1842 0.1765 0.1684 0.1600
1162.000000 0.1518 0.1455 0.1391 0.1327 0.1263
1157.000000 0.1214 0.1172 0.1129 0.1088 0.1053
1152.000000 0.1019 0.0981 0.0945 0.0918 0.0891
1147.000000 0.0864 0.0837 0.0810 0.0784 0.0757
1142.000000 0.0731 0.0707 0.0683 0.0658 0.0634
1137.000000 0.0610 0.0585 0.0561 0.0537 0.0513
1132.000000 0.0489 0.0465 0.0441 0.0417 0.0393
1127.000000 0.0368 0.0345 0.0321 0.0300 0.0279
1122.000000 0.0259 0.0238 0.0220 0.0205 0.0190
1117.000000 0.0175 0.0160 0.0146 0.0132 0.0118
1112.000000 0.0104 0.0094 0.0090 0.0085 0.0081
1107.000000 0.0078 0.0074 0.0071 0.0068 0.0065
1102.000000 0.0063 0.0060 0.0058 0.0056 0.0028
1097.000000 0.0051 0.0051 0.0052 0.0056 0.0058
1092.000000 0.0061 0.0065 0.0069 0.0073 0.0077
1087.000000 0.0080 0.0091 0.0103 0.0114 0.0160
1082.000000 0.0210 0.0262 0.0312 0.0363 0.0421
1077.000000 0.0496 0.0570 0.0654 0.0751 0.0847
1072.000000 0.0983 0.1102 0.1192 0.1277 0.1336
1067.000000 0.1395 0.1438 0.1478 0.1519 0.1554
1062.000000 0.1587 0.1621 0.1654 0.1692 0.1731
1057.000000 0.1769 0.1811 0.1873 0.1934 0.1996
1052.000000 0.2063 0.2145 0.2227 0.2308 0.2402
1047.000000 0.2500 0.2608 0.2733 0.2892 0.3156
1042.000000 0.3348 0.3679 0.4036 0.4393 0.4615
1037.000000 0.4703 0.4783 0.4859 0.4948 0.5058
1032.000000 0.5158 0.5227 0.5285 0.5307 0.5323
1027.000000 0.5316 0.5302 0.5233 0.5103 0.4976
1022.000000 0.4848 0.4720 0.4593 0.4469 0.4388
1017.000000 0.4298 0.4237 0.4189 0.4147 0.4110
1012.000000 0.4066 0.4018 0.3962 0.3902 0.3918
1007.000000 0.3921 0.3948 0.4140 0.4360 0.4582
1002.000000 0.4803 0.5025 0.5246 0.5467 0.5688
997.000000 0.5883 0.5960 0.6037 0.6117 0.6197
992.000000 0.6278 0.6372 0.6492 0.6593 0.6681
987.000000 0.6739 0.6796 0.6853 0.6910 0.6951
982.000000 0.6984 0.7006 0.7025 0.7043 0.7053
977.000000 0.7061 0.7061 0.7069 0.7071 0.7071
972.000000 0.7062 0.7047 0.7024 0.7001 0.6981
967.000000 0.6958 0.6946 0.6942 0.6938 0.6933
962.000000 0.6925 0.6919 0.6905 0.6888 0.6868
957.000000 0.6678 0.6551 0.6469 0.6418 0.6372
952.000000 0.6325 0.6277 0.6230 0.6103 0.5898
947.000000 0.5730 0.5559 0.5388 0.5217 0.5046
942.000000 0.4875 0.4704 0.4533 0.4386 0.4376
937.000000 0.4367 0.4368 0.4394 0.4373 0.4387
932.000000 0.4400 0.4414 0.4423 0.4419 0.4409
927.000000 0.4402 0.4399 0.4407 0.4414 0.4451
922.000000 0.4555 0.4636 0.4715 0.4777 0.4835
917.000000 0.4893 0.4960 0.5028 0.5100 0.5186
912.000000 0.5266 0.5325 0.5353 0.5362 0.5371
907.000000 0.5379 0.5387 0.5406 0.5428 0.5473
902.000000 0.5536 0.5672 0.5962 0.6253 0.6544
897.000000 0.6825 0.6892 0.6964 0.7058 0.7164
892.000000 0.7265 0.7340 0.7415 0.7488 0.7560
887.000000 0.7625 0.7669 0.7680 0.7698 0.7698
882.000000 0.7698 0.7696 0.7691 0.7661 0.7610
877.000000 0.7532 0.7442 0.7330 0.7218 0.7106
872.000000 0.6994 0.6883 0.6771 0.6658 0.6547
867.000000 0.6435 0.6323 0.6262 0.6212 0.6190
862.000000 0.6198 0.6170 0.6172 0.6182 0.6202
857.000000 0.6231 0.6279 0.6327 0.6366 0.6404
852.000000 0.6442 0.6468 0.6497 0.6524 0.6538
847.000000 0.6551 0.6571 0.6571 0.6571 0.6571
842.000000 0.6551 0.6518 0.6467 0.6327 0.6188
837.000000 0.6060 0.6029 0.6027 0.6027 0.6055
832.000000 0.6145 0.6359 0.6547 0.6662 0.6744
827.000000 0.6815 0.6839 0.6851 0.6862 0.6875
822.000000 0.6888 0.6911 0.6937 0.6985 0.7037
817.000000 0.7089 0.7149 0.7211 0.7275 0.7347
812.000000 0.7421 0.7494 0.7551 0.7607 0.7661
807.000000 0.7706 0.7750 0.7794 0.7838 0.7882
802.000000 0.7925 0.7968 0.8006 0.8043 0.8081
797.000000 0.8118 0.8151 0.8182 0.8214 0.8245
792.000000 0.8275 0.8304 0.8332 0.8360 0.8388
787.000000 0.8408 0.8427 0.8445 0.8464 0.8483
782.000000 0.8493 0.8503 0.8514 0.8524 0.8534
777.000000 0.8542 0.8550 0.8558 0.8566 0.8574
772.000000 0.8575 0.8577 0.8578 0.8580 0.8581
767.000000 0.8582 0.8583 0.8583 0.8584 0.8585
762.000000 0.8586 0.8587 0.8588 0.8588 0.8589
757.000000 0.8590 0.8591 0.8591 0.8592 0.8592
752.000000 0.8593 0.8593 0.8594 0.8594 0.8597
747.000000 0.8597 0.8596 0.8596 0.8597 0.8597
742.000000 0.8598 0.8598 0.8599 0.8599 0.8599
737.000000 0.8599 0.8598 0.8598 0.8597 0.8596
732.000000 0.8595 0.8594 0.8593 0.8592 0.8591
727.000000 0.8591 0.8590 0.8589 0.8587 0.8584
722.000000 0.8580 0.8577 0.8574 0.8570 0.8567
717.000000 0.8561 0.8555 0.8548 0.8542 0.8536
712.000000 0.8528 0.8521 0.8514 0.8509 0.8504
707.000000 0.8499 0.8495 0.8490 0.8485 0.8481
702.000000 0.8475 0.8473 0.8471 0.8468 0.8466
697.000000 0.8463 0.8461 0.8457 0.8453 0.8449
692.000000 0.8445 0.8441 0.8438 0.8434 0.8430
687.000000 0.8425 0.8417 0.8406 0.8394 0.8382
682.000000 0.8371 0.8359 0.8342 0.8324 0.8306
677.000000 0.8286 0.8265 0.8244 0.8223 0.8203
672.000000 0.8184 0.8165 0.8151 0.8137 0.8135
667.000000 0.8135 0.8135 0.8135 0.8135 0.8134
662.000000 0.8134 0.8134 0.8130 0.8122 0.8111
657.000000 0.8092 0.8068 0.8045 0.8030 0.8015
652.000000 0.8005 0.8004 0.8003 0.8001 0.8001
647.000000 0.8001 0.8001 0.8001 0.8001 0.8001
642.000000 0.8001 0.8001 0.8001 0.8001 0.8001
637.000000 0.8001 0.8001 0.8000 0.7999 0.7996
632.000000 0.7992 0.7989 0.7985 0.7982 0.7978
627.000000 0.7975 0.7971 0.7968 0.7965 0.7961
622.000000 0.7951 0.7941 0.7930 0.7918 0.7908
617.000000 0.7897 0.7882 0.7867 0.7853 0.7838
612.000000 0.7822 0.7811 0.7798 0.7786 0.7774
607.000000 0.7761 0.7750 0.7738 0.7725 0.7714
602.000000 0.7701 0.7690 0.7678 0.7665 0.7654
597.000000 0.7642 0.7630 0.7612 0.7596 0.7578
592.000000 0.7560 0.7542 0.7524 0.7505 0.7486
587.000000 0.7467 0.7448 0.7428 0.7411 0.7397
582.000000 0.7383 0.7368 0.7353 0.7339 0.7324
577.000000 0.7314 0.7305 0.7296 0.7287 0.7278
572.000000 0.7269 0.7261 0.7253 0.7244 0.7237
567.000000 0.7231 0.7224 0.7218 0.7210 0.7201
562.000000 0.7193 0.7185 0.7176 0.7168 0.7160
557.000000 0.7151 0.7144 0.7135 0.7126 0.7118
552.000000 0.7110 0.7101 0.7094 0.7087 0.7080
547.000000 0.7074 0.7067 0.7060 0.7053 0.7046
542.000000 0.7039 0.7032 0.7021 0.7008 0.6995
537.000000 0.6983 0.6965 0.6941 0.6915 0.6890
532.000000 0.6865 0.6847 0.6828 0.6810 0.6792
527.000000 0.6772 0.6754 0.6736 0.6719 0.6708
522.000000 0.6696 0.6684 0.6672 0.6661 0.6649
517.000000 0.6637 0.6628 0.6625 0.6621 0.6618
512.000000 0.6614 0.6614 0.6612 0.6617 0.6621
507.000000 0.6625 0.6630 0.6635 0.6639 0.6643
502.000000 0.6647 0.6650 0.6654 0.6658 0.6664
497.000000 0.6668 0.6674 0.6678 0.6684 0.6689
492.000000 0.6692 0.6696 0.6700 0.6704 0.6708
487.000000 0.6711 0.6715 0.6715 0.6711 0.6708
482.000000 0.6705 0.6701 0.6698 0.6694 0.6691
477.000000 0.6687 0.6683 0.6680 0.6675 0.6671
472.000000 0.6668 0.6665 0.6661 0.6660 0.6657
467.000000 0.6655 0.6653 0.6651 0.6648 0.6646
462.000000 0.6644 0.6642 0.6639 0.6637 0.6635
457.000000 0.6635 0.6634 0.6634 0.6634 0.6634
452.000000 0.6635 0.6635 0.6635 0.6635 0.6636
447.000000 0.6636 0.6637 0.6638 0.6638 0.6639
442.000000 0.6640 0.6640 0.6641 0.6642 0.6642
437.000000 0.6643 0.6643 0.6643 0.6643 0.6644
432.000000 0.6644 0.6644 0.6644 0.6645 0.6646
427.000000 0.6647 0.6648 0.6650 0.6651 0.6653
422.000000 0.6654 0.6655 0.6657 0.6658 0.6660
417.000000 0.6661 0.6662 0.6665 0.6667 0.6668
412.000000 0.6671 0.6675 0.6678 0.6682 0.6685
407.000000 0.6688 0.6692 0.6693 0.6695 0.6696
402.000000 0.6697 0.6698 0.6699 0.6701 0.6704
397.000000 0.6707 0.6711 0.6714 0.6717 0.6719
##END=
