##TITLE=URACIL, 5-AMINO-1,3-DIMETHYL-, HYDROCHLORIDE
##JCAMP-DX=4.24
##DATA TYPE=INFRARED SPECTRUM
##CLASS=COBLENTZ III
##ORIGIN=SOUTHERN RES. INSTITUTE
##OWNER=COBLENTZ SOCIETY
Collection (C) 2018 copyright by the U.S. Secretary of Commerce
on behalf of the United States of America. All rights reserved.
##DATE=1963/05/24
##NAMES=5-amino-1,3-dimethyl-2,4(1H,3H)-pyrimidinedione hydrochloride
##MOLFORM=C6 H10 Cl N3 O2
##SOURCE REFERENCE=COBLENTZ NO. 7769
##$NIST ID=B6007769
##$NIST SOURCE=COBLENTZ
##$NIST IMAGE=cob7769
##SPECTROMETER/DATA SYSTEM=PERKIN-ELMER 221 (GRATING)
##INSTRUMENT PARAMETERS=FILTER AT 980 CM ^-^1, GRATING FOR 4000-1428 CM^-^1, NaCl PRISM FOR 1428-650 CM^-^1
##STATE=SOLID (0.7 mg / 500 mg KBr DISC)
##SAMPLING PROCEDURE=TRANSMISSION
##RESOLUTION=4
##DATA PROCESSING=DIGITIZED BY NIST FROM HARD COPY
##XUNITS=1/CM
##YUNITS=TRANSMITTANCE
##XFACTOR=1.000000
##YFACTOR=1
##DELTAX=001.519916
##FIRSTX=631.604
##LASTX=3998.22
##FIRSTY=0.873
##MAXX=3998.22
##MINX=631.604
##MAXY=0.914
##MINY=0.176
##NPOINTS=2216
##XYDATA=(X++(Y..Y))
631.604000 0.8730 0.8730 0.8730 0.8730 0.8730
639.207013 0.8730 0.8730 0.8730 0.8730 0.8730
646.803000 0.8730 0.8730 0.8740 0.8740 0.8740
654.406013 0.8740 0.8750 0.8750 0.8750 0.8750
662.002000 0.8750 0.8760 0.8760 0.8760 0.8760
669.605013 0.8760 0.8760 0.8760 0.8760 0.8760
677.201000 0.8760 0.8760 0.8760 0.8760 0.8740
684.804013 0.8720 0.8700 0.8670 0.8650 0.8480
692.400000 0.8330 0.8170 0.8170 0.8620 0.8660
700.003013 0.8750 0.8790 0.8800 0.8820 0.8820
707.600000 0.8820 0.8820 0.8820 0.8810 0.8810
715.203013 0.8800 0.8800 0.8780 0.8770 0.8780
722.799000 0.8770 0.8760 0.8740 0.8710 0.8680
730.402013 0.8640 0.8610 0.8570 0.8530 0.8480
737.998000 0.8450 0.8410 0.8380 0.8360 0.8330
745.601013 0.8320 0.8140 0.8050 0.7960 0.6760
753.197000 0.6430 0.6090 0.5640 0.4870 0.3360
760.800013 0.3350 0.3360 0.3660 0.3950 0.4100
768.396000 0.4250 0.4550 0.4790 0.5040 0.5430
775.999013 0.5910 0.6420 0.6890 0.7080 0.7270
783.595000 0.7490 0.7490 0.7700 0.7720 0.7760
791.198013 0.7900 0.8200 0.8430 0.8590 0.8700
798.795000 0.8780 0.8830 0.8880 0.8890 0.9000
806.398013 0.9040 0.9050 0.9080 0.9100 0.9120
813.994000 0.9130 0.9130 0.9130 0.9140 0.9140
821.597013 0.9140 0.9140 0.9140 0.9140 0.9130
829.193000 0.9130 0.9130 0.9130 0.9120 0.9120
836.796013 0.9110 0.9100 0.9090 0.9080 0.9070
844.392000 0.9070 0.9060 0.9050 0.9040 0.9020
851.995013 0.9010 0.9010 0.9000 0.9000 0.8990
859.591000 0.8980 0.8970 0.8960 0.8950 0.8950
867.194013 0.8940 0.8920 0.8910 0.8900 0.8880
874.790000 0.8880 0.8870 0.8850 0.8850 0.8820
882.393013 0.8800 0.8790 0.8760 0.8750 0.8730
889.990000 0.8730 0.8730 0.8730 0.8720 0.8700
897.593013 0.8670 0.8640 0.8620 0.8590 0.8570
905.189000 0.8540 0.8510 0.8490 0.8470 0.8450
912.792013 0.8270 0.7930 0.7630 0.7380 0.6910
920.388000 0.6670 0.6380 0.6030 0.6010 0.6010
927.991013 0.6010 0.6010 0.6020 0.6050 0.6080
935.587000 0.6500 0.6740 0.6980 0.7100 0.7220
943.190013 0.7930 0.8620 0.8650 0.8660 0.8670
950.786000 0.8670 0.8670 0.8670 0.8670 0.8650
958.389013 0.8640 0.8630 0.8610 0.8600 0.8590
965.985000 0.8580 0.8580 0.8550 0.8530 0.8510
973.588013 0.8380 0.8250 0.8140 0.8020 0.7900
981.185000 0.7750 0.7610 0.7470 0.7330 0.7190
988.788013 0.6910 0.6770 0.6630 0.6610 0.6600
996.384000 0.6600 0.6600 0.6640 0.7450 0.8250
1003.987013 0.8260 0.8260 0.8260 0.8260 0.8250
1011.583000 0.8240 0.8230 0.8210 0.8200 0.8190
1019.186013 0.8180 0.8170 0.8160 0.8140 0.8110
1026.782000 0.8080 0.8050 0.8020 0.7990 0.7960
1034.385013 0.7930 0.7900 0.7880 0.7870 0.7830
1041.981000 0.7810 0.7780 0.7750 0.7710 0.7680
1049.584013 0.7620 0.7560 0.7500 0.7430 0.7340
1057.180000 0.7240 0.7230 0.7210 0.7180 0.7160
1064.783013 0.7130 0.7100 0.7080 0.7060 0.7030
1072.380000 0.6820 0.6660 0.6500 0.6340 0.6180
1079.983013 0.6020 0.5860 0.5700 0.5440 0.5340
1087.579000 0.5250 0.5150 0.5150 0.5150 0.5160
1095.182013 0.5330 0.5500 0.5670 0.5840 0.6010
1102.778000 0.6190 0.6280 0.6390 0.6780 0.6950
1110.381013 0.7120 0.7120 0.7130 0.7130 0.7120
1117.977000 0.6900 0.6660 0.6540 0.6420 0.6240
1125.580013 0.6030 0.5670 0.5580 0.5490 0.5370
1133.176000 0.5230 0.5210 0.5210 0.5210 0.5260
1140.779013 0.5270 0.5510 0.5750 0.5990 0.6230
1148.375000 0.6480 0.6720 0.6960 0.7080 0.7190
1155.978013 0.7320 0.7450 0.7580 0.7710 0.7710
1163.574000 0.7720 0.7720 0.7720 0.7710 0.7710
1171.177013 0.7700 0.7690 0.7650 0.7540 0.7440
1178.774000 0.7380 0.7290 0.7150 0.7120 0.6880
1186.377013 0.6850 0.6750 0.6660 0.6570 0.6480
1193.973000 0.6350 0.6330 0.6320 0.6320 0.6330
1201.576013 0.6420 0.6750 0.7080 0.7280 0.7540
1209.172000 0.7790 0.7960 0.7970 0.8070 0.8100
1216.775013 0.8080 0.8070 0.8050 0.8040 0.8020
1224.371000 0.7990 0.7970 0.7960 0.7930 0.7920
1231.974013 0.7900 0.7890 0.7870 0.7850 0.7830
1239.570000 0.7820 0.7800 0.7780 0.7770 0.7740
1247.173013 0.7730 0.7710 0.7700 0.7680 0.7670
1254.769000 0.7640 0.7610 0.7570 0.7530 0.7500
1262.372013 0.7460 0.7430 0.7340 0.7280 0.7210
1269.969000 0.7150 0.6890 0.6690 0.6530 0.6380
1277.572013 0.6210 0.6040 0.5860 0.5850 0.5850
1285.168000 0.5860 0.5870 0.5980 0.6600 0.6920
1292.771013 0.7230 0.7300 0.7320 0.7310 0.7300
1300.367000 0.7280 0.7230 0.7140 0.7090 0.7050
1307.970013 0.6960 0.6920 0.6880 0.6760 0.6680
1315.566000 0.6600 0.6530 0.6450 0.6380 0.6300
1323.169013 0.6230 0.6150 0.6080 0.6000 0.5770
1330.765000 0.5580 0.5400 0.5210 0.5030 0.4840
1338.368013 0.4650 0.4470 0.4280 0.3820 0.3530
1345.964000 0.3510 0.3520 0.3660 0.3790 0.3930
1353.567013 0.4100 0.4250 0.4500 0.4740 0.4910
1361.164000 0.4970 0.5030 0.5060 0.5090 0.5110
1368.767013 0.5170 0.5300 0.5400 0.5650 0.5690
1376.363000 0.5700 0.5860 0.6040 0.6210 0.6370
1383.966013 0.6380 0.6510 0.6640 0.6770 0.6900
1391.562000 0.7030 0.7120 0.7130 0.7160 0.7160
1399.165013 0.7130 0.7100 0.7070 0.7050 0.7030
1406.761000 0.6970 0.6950 0.6930 0.6830 0.6750
1414.364013 0.6670 0.6600 0.6510 0.6440 0.6360
1421.960000 0.6290 0.6210 0.6050 0.5950 0.5860
1429.563013 0.5770 0.5680 0.5580 0.5490 0.5400
1437.159000 0.5210 0.5190 0.5200 0.5270 0.5330
1444.762013 0.5400 0.5470 0.5770 0.5890 0.5900
1452.359000 0.5900 0.5820 0.5750 0.5700 0.5640
1459.962013 0.5490 0.5420 0.5340 0.5270 0.5200
1467.558000 0.5120 0.5060 0.4980 0.4900 0.4760
1475.161013 0.4660 0.4570 0.4470 0.4380 0.4290
1482.757000 0.4190 0.4100 0.3910 0.3820 0.3670
1490.360013 0.3490 0.3480 0.3480 0.3480 0.3540
1497.956000 0.3620 0.3690 0.3800 0.3980 0.4030
1505.559013 0.4080 0.4090 0.4210 0.4330 0.4440
1513.155000 0.4560 0.4680 0.4800 0.4930 0.4940
1520.758013 0.5000 0.5040 0.5090 0.5130 0.5180
1528.354000 0.5230 0.5270 0.5320 0.5320 0.5310
1535.957013 0.5280 0.5270 0.5240 0.5090 0.4940
1543.553000 0.4810 0.4660 0.4530 0.4380 0.3970
1551.156013 0.3950 0.3960 0.3970 0.4040 0.4100
1558.753000 0.4240 0.4380 0.4500 0.4640 0.4780
1566.356013 0.4910 0.5040 0.5180 0.5310 0.5450
1573.952000 0.5810 0.5990 0.6180 0.6370 0.6550
1581.555013 0.6740 0.6920 0.7100 0.7110 0.7140
1589.151000 0.7150 0.7150 0.7140 0.7130 0.6950
1596.754013 0.6810 0.6620 0.6570 0.6470 0.6360
1604.350000 0.6250 0.6140 0.6040 0.5930 0.5820
1611.953013 0.5710 0.5610 0.5590 0.5550 0.5470
1619.549000 0.5390 0.5280 0.5160 0.5040 0.4910
1627.152013 0.4780 0.4740 0.4640 0.4540 0.4440
1634.748000 0.4340 0.4240 0.4130 0.3940 0.3830
1642.351013 0.3730 0.3640 0.3620 0.3580 0.3430
1649.948000 0.3170 0.2890 0.2620 0.2420 0.2340
1657.551013 0.1780 0.1760 0.1760 0.1760 0.1770
1665.147000 0.1830 0.1900 0.1970 0.2030 0.2100
1672.750013 0.2160 0.2230 0.2470 0.2560 0.2650
1680.346000 0.2740 0.2830 0.2920 0.3000 0.3090
1687.949013 0.3180 0.3270 0.3390 0.3390 0.3510
1695.545000 0.3730 0.3730 0.3760 0.3760 0.3760
1703.148013 0.3760 0.3720 0.2890 0.2710 0.2410
1710.744000 0.2400 0.2400 0.2400 0.2410 0.2480
1718.347013 0.2550 0.2620 0.2680 0.2750 0.2820
1725.943000 0.2890 0.2960 0.3020 0.3110 0.3110
1733.546013 0.3270 0.3410 0.3550 0.3700 0.3850
1741.143000 0.3990 0.4070 0.4130 0.4280 0.4410
1748.746013 0.4600 0.4810 0.5050 0.5180 0.5280
1756.342000 0.5360 0.5390 0.5400 0.5460 0.5530
1763.945013 0.5590 0.5660 0.5720 0.5790 0.5860
1771.541000 0.5920 0.5980 0.6040 0.6110 0.6180
1779.144013 0.6240 0.6310 0.6370 0.6440 0.6510
1786.740000 0.6570 0.6630 0.6690 0.6820 0.6820
1794.343013 0.6890 0.6950 0.6990 0.7020 0.7080
1801.939000 0.7150 0.7210 0.7280 0.7300 0.7340
1809.542013 0.7400 0.7420 0.7430 0.7430 0.7470
1817.138000 0.7500 0.7570 0.7570 0.7590 0.7590
1824.741013 0.7610 0.7620 0.7620 0.7630 0.7630
1832.338000 0.7630 0.7620 0.7620 0.7600 0.7600
1839.941013 0.7590 0.7590 0.7580 0.7570 0.7570
1847.537000 0.7570 0.7570 0.7580 0.7590 0.7590
1855.140013 0.7600 0.7610 0.7620 0.7620 0.7630
1862.736000 0.7640 0.7650 0.7650 0.7660 0.7680
1870.339013 0.7680 0.7690 0.7700 0.7710 0.7710
1877.935000 0.7760 0.7840 0.7850 0.7870 0.7880
1885.538013 0.7900 0.7910 0.7930 0.7940 0.7960
1893.134000 0.7980 0.7990 0.7990 0.8010 0.8020
1900.737013 0.8030 0.8040 0.8050 0.8060 0.8070
1908.333000 0.8070 0.8070 0.8060 0.8050 0.8030
1915.936013 0.8020 0.8000 0.7980 0.7960 0.7950
1923.532000 0.7940 0.7930 0.7910 0.7900 0.7890
1931.135013 0.7870 0.7870 0.7880 0.7900 0.7920
1938.732000 0.7930 0.7960 0.8000 0.8050 0.8080
1946.335013 0.8110 0.8110 0.8120 0.8140 0.8170
1953.931000 0.8170 0.8180 0.8200 0.8210 0.8200
1961.534013 0.8200 0.8190 0.8180 0.8170 0.8170
1969.130000 0.8160 0.8150 0.8150 0.8160 0.8170
1976.733013 0.8180 0.8200 0.8230 0.8260 0.8290
1984.329000 0.8330 0.8360 0.8390 0.8440 0.8440
1991.932013 0.8460 0.8480 0.8500 0.8520 0.8540
1999.528000 0.8560 0.8580 0.8610 0.8630 0.8640
2007.131013 0.8670 0.8680 0.8690 0.8700 0.8700
2014.728000 0.8700 0.8710 0.8720 0.8720 0.8730
2022.331013 0.8730 0.8740 0.8740 0.8750 0.8760
2029.927000 0.8760 0.8760 0.8770 0.8780 0.8790
2037.530013 0.8790 0.8790 0.8800 0.8810 0.8810
2045.126000 0.8820 0.8820 0.8820 0.8830 0.8840
2052.729013 0.8840 0.8850 0.8850 0.8850 0.8860
2060.325000 0.8860 0.8870 0.8870 0.8880 0.8880
2067.928013 0.8880 0.8880 0.8880 0.8880 0.8880
2075.524000 0.8880 0.8880 0.8880 0.8880 0.8870
2083.127013 0.8870 0.8870 0.8860 0.8860 0.8850
2090.723000 0.8850 0.8850 0.8850 0.8850 0.8840
2098.326013 0.8820 0.8810 0.8810 0.8800 0.8790
2105.922000 0.8790 0.8790 0.8780 0.8780 0.8770
2113.525013 0.8770 0.8770 0.8760 0.8760 0.8760
2121.122000 0.8760 0.8750 0.8750 0.8750 0.8740
2128.725013 0.8740 0.8730 0.8730 0.8730 0.8730
2136.321000 0.8730 0.8720 0.8710 0.8700 0.8700
2143.924013 0.8700 0.8690 0.8690 0.8680 0.8670
2151.520000 0.8670 0.8670 0.8660 0.8650 0.8640
2159.123013 0.8640 0.8640 0.8640 0.8630 0.8630
2166.719000 0.8620 0.8620 0.8610 0.8610 0.8600
2174.322013 0.8600 0.8590 0.8590 0.8580 0.8580
2181.918000 0.8580 0.8580 0.8580 0.8570 0.8570
2189.521013 0.8570 0.8570 0.8560 0.8560 0.8560
2197.117000 0.8550 0.8550 0.8540 0.8530 0.8520
2204.720013 0.8510 0.8510 0.8500 0.8490 0.8480
2212.317000 0.8480 0.8470 0.8460 0.8450 0.8440
2219.920013 0.8430 0.8420 0.8410 0.8400 0.8390
2227.516000 0.8380 0.8370 0.8360 0.8360 0.8340
2235.119013 0.8330 0.8320 0.8310 0.8300 0.8300
2242.715000 0.8290 0.8280 0.8270 0.8260 0.8260
2250.318013 0.8250 0.8240 0.8240 0.8240 0.8240
2257.914000 0.8240 0.8240 0.8240 0.8240 0.8240
2265.517013 0.8250 0.8250 0.8260 0.8260 0.8270
2273.113000 0.8270 0.8270 0.8270 0.8280 0.8280
2280.716013 0.8280 0.8290 0.8290 0.8290 0.8300
2288.313000 0.8300 0.8300 0.8300 0.8290 0.8290
2295.916013 0.8290 0.8280 0.8270 0.8250 0.8240
2303.511000 0.8230 0.8230 0.8220 0.8200 0.8200
2311.114013 0.8180 0.8170 0.8160 0.8150 0.8140
2318.711000 0.8110 0.8100 0.8090 0.8080 0.8080
2326.314013 0.8070 0.8050 0.8040 0.8030 0.8020
2333.910000 0.8010 0.7990 0.7960 0.7950 0.7930
2341.513013 0.7920 0.7900 0.7890 0.7880 0.7870
2349.109000 0.7870 0.7860 0.7850 0.7830 0.7830
2356.712013 0.7820 0.7810 0.7800 0.7790 0.7780
2364.308000 0.7770 0.7770 0.7760 0.7740 0.7730
2371.911013 0.7720 0.7710 0.7710 0.7690 0.7680
2379.507000 0.7680 0.7670 0.7660 0.7650 0.7620
2387.110013 0.7610 0.7600 0.7590 0.7570 0.7560
2394.707000 0.7550 0.7530 0.7530 0.7510 0.7500
2402.310013 0.7490 0.7470 0.7460 0.7450 0.7430
2409.906000 0.7420 0.7410 0.7400 0.7380 0.7370
2417.509013 0.7360 0.7340 0.7310 0.7290 0.7280
2425.105000 0.7260 0.7240 0.7220 0.7200 0.7190
2432.708013 0.7180 0.7160 0.7130 0.7120 0.7090
2440.304000 0.7070 0.7060 0.7030 0.7010 0.6970
2447.907013 0.6950 0.6940 0.6910 0.6890 0.6880
2455.503000 0.6850 0.6820 0.6790 0.6770 0.6750
2463.106013 0.6720 0.6700 0.6680 0.6660 0.6630
2470.702000 0.6620 0.6600 0.6570 0.6550 0.6530
2478.305013 0.6510 0.6480 0.6460 0.6440 0.6420
2485.902000 0.6400 0.6380 0.6350 0.6330 0.6310
2493.505013 0.6290 0.6260 0.6220 0.6180 0.6150
2501.101000 0.6120 0.6090 0.6060 0.6030 0.6000
2508.704013 0.5970 0.5930 0.5900 0.5870 0.5840
2516.300000 0.5810 0.5780 0.5730 0.5680 0.5640
2523.903013 0.5600 0.5560 0.5520 0.5480 0.5440
2531.499000 0.5400 0.5360 0.5310 0.5270 0.5220
2539.102013 0.5190 0.5160 0.5130 0.5100 0.5070
2546.698000 0.5040 0.4990 0.4950 0.4920 0.4890
2554.301013 0.4860 0.4830 0.4800 0.4770 0.4730
2561.897000 0.4720 0.4710 0.4700 0.4690 0.4690
2569.500013 0.4690 0.4690 0.4690 0.4690 0.4690
2577.096000 0.4700 0.4710 0.4710 0.4720 0.4730
2584.699013 0.4750 0.4760 0.4780 0.4800 0.4820
2592.296000 0.4840 0.4860 0.4870 0.4900 0.4910
2599.899013 0.4930 0.4980 0.5000 0.5060 0.5130
2607.495000 0.5240 0.5360 0.5410 0.5460 0.5500
2615.098013 0.5550 0.5580 0.5610 0.5610 0.5620
2622.694000 0.5620 0.5620 0.5620 0.5620 0.5610
2630.297013 0.5610 0.5610 0.5610 0.5610 0.5610
2637.893000 0.5610 0.5590 0.5580 0.5570 0.5560
2645.496013 0.5550 0.5550 0.5530 0.5520 0.5520
2653.092000 0.5510 0.5500 0.5490 0.5470 0.5440
2660.695013 0.5400 0.5360 0.5320 0.5290 0.5270
2668.292000 0.5260 0.5240 0.5230 0.5210 0.5190
2675.895013 0.5180 0.5160 0.5150 0.5120 0.5110
2683.491000 0.5090 0.5080 0.5070 0.5060 0.5050
2691.094013 0.5040 0.5030 0.5020 0.5010 0.5010
2698.690000 0.5000 0.5000 0.5000 0.4990 0.4980
2706.293013 0.4960 0.4960 0.4950 0.4940 0.4930
2713.889000 0.4930 0.4920 0.4900 0.4890 0.4870
2721.492013 0.4870 0.4850 0.4840 0.4840 0.4820
2729.088000 0.4810 0.4790 0.4760 0.4750 0.4720
2736.691013 0.4700 0.4690 0.4660 0.4640 0.4620
2744.287000 0.4600 0.4580 0.4560 0.4540 0.4530
2751.890013 0.4500 0.4470 0.4450 0.4430 0.4400
2759.486000 0.4380 0.4350 0.4330 0.4300 0.4280
2767.089013 0.4250 0.4230 0.4190 0.4160 0.4140
2774.686000 0.4120 0.4100 0.4070 0.4050 0.4010
2782.289013 0.3990 0.3980 0.3970 0.3960 0.3950
2789.885000 0.3940 0.3930 0.3920 0.3910 0.3900
2797.488013 0.3890 0.3880 0.3880 0.3880 0.3870
2805.084000 0.3860 0.3850 0.3850 0.3850 0.3840
2812.687013 0.3830 0.3830 0.3820 0.3820 0.3810
2820.283000 0.3810 0.3810 0.3800 0.3800 0.3800
2827.886013 0.3790 0.3790 0.3790 0.3790 0.3790
2835.482000 0.3790 0.3790 0.3780 0.3780 0.3780
2843.085013 0.3770 0.3770 0.3770 0.3770 0.3770
2850.681000 0.3770 0.3770 0.3770 0.3760 0.3760
2858.284013 0.3760 0.3760 0.3760 0.3760 0.3760
2865.881000 0.3760 0.3760 0.3760 0.3760 0.3760
2873.484013 0.3760 0.3760 0.3760 0.3760 0.3770
2881.080000 0.3770 0.3770 0.3770 0.3770 0.3770
2888.683013 0.3770 0.3770 0.3770 0.3780 0.3780
2896.279000 0.3780 0.3780 0.3780 0.3780 0.3780
2903.882013 0.3780 0.3790 0.3790 0.3790 0.3790
2911.478000 0.3800 0.3810 0.3810 0.3820 0.3820
2919.081013 0.3830 0.3840 0.3850 0.3850 0.3860
2926.677000 0.3870 0.3880 0.3880 0.3890 0.3900
2934.280013 0.3910 0.3930 0.3950 0.3950 0.3970
2941.876000 0.3980 0.3990 0.4000 0.4010 0.4020
2949.479013 0.4030 0.4040 0.4050 0.4070 0.4090
2957.075000 0.4100 0.4130 0.4140 0.4160 0.4170
2964.678013 0.4190 0.4210 0.4220 0.4250 0.4260
2972.275000 0.4290 0.4300 0.4320 0.4330 0.4350
2979.878013 0.4370 0.4380 0.4410 0.4420 0.4440
2987.474000 0.4460 0.4470 0.4490 0.4500 0.4510
2995.077013 0.4530 0.4540 0.4560 0.4560 0.4580
3002.673000 0.4590 0.4610 0.4620 0.4630 0.4650
3010.276013 0.4660 0.4680 0.4690 0.4700 0.4720
3017.872000 0.4740 0.4740 0.4750 0.4760 0.4780
3025.475013 0.4780 0.4790 0.4810 0.4810 0.4830
3033.071000 0.4840 0.4840 0.4860 0.4870 0.4880
3040.674013 0.4900 0.4900 0.4910 0.4920 0.4930
3048.271000 0.4930 0.4940 0.4950 0.4960 0.4970
3055.874013 0.4980 0.4990 0.5000 0.5000 0.5020
3063.470000 0.5020 0.5030 0.5040 0.5050 0.5060
3071.073013 0.5070 0.5080 0.5090 0.5100 0.5110
3078.669000 0.5120 0.5150 0.5180 0.5210 0.5240
3086.272013 0.5270 0.5300 0.5350 0.5360 0.5420
3093.868000 0.5480 0.5540 0.5600 0.5660 0.5680
3101.471013 0.5750 0.5820 0.5840 0.5880 0.5880
3109.067000 0.5910 0.5940 0.5960 0.5990 0.6020
3116.670013 0.6040 0.6080 0.6110 0.6140 0.6150
3124.266000 0.6170 0.6170 0.6190 0.6200 0.6220
3131.869013 0.6230 0.6240 0.6260 0.6270 0.6280
3139.466000 0.6300 0.6320 0.6350 0.6360 0.6380
3147.069013 0.6410 0.6440 0.6450 0.6460 0.6480
3154.665000 0.6480 0.6500 0.6510 0.6520 0.6530
3162.268013 0.6540 0.6560 0.6570 0.6580 0.6590
3169.864000 0.6600 0.6610 0.6630 0.6640 0.6660
3177.467013 0.6670 0.6690 0.6710 0.6720 0.6740
3185.063000 0.6760 0.6780 0.6800 0.6810 0.6830
3192.666013 0.6850 0.6860 0.6880 0.6900 0.6910
3200.262000 0.6910 0.6960 0.6990 0.7010 0.7030
3207.865013 0.7040 0.7050 0.7060 0.7080 0.7090
3215.461000 0.7120 0.7130 0.7160 0.7170 0.7190
3223.064013 0.7210 0.7230 0.7250 0.7270 0.7290
3230.660000 0.7300 0.7310 0.7330 0.7340 0.7350
3238.263013 0.7370 0.7380 0.7400 0.7400 0.7420
3245.860000 0.7430 0.7430 0.7440 0.7450 0.7460
3253.463013 0.7460 0.7460 0.7460 0.7470 0.7470
3261.059000 0.7470 0.7480 0.7480 0.7480 0.7480
3268.662013 0.7480 0.7480 0.7480 0.7480 0.7480
3276.258000 0.7480 0.7480 0.7480 0.7470 0.7470
3283.861013 0.7460 0.7460 0.7460 0.7460 0.7450
3291.457000 0.7450 0.7430 0.7430 0.7430 0.7430
3299.060013 0.7430 0.7430 0.7420 0.7410 0.7410
3306.656000 0.7410 0.7400 0.7400 0.7400 0.7400
3314.259013 0.7400 0.7390 0.7380 0.7370 0.7370
3321.855000 0.7360 0.7350 0.7340 0.7340 0.7330
3329.458013 0.7320 0.7310 0.7280 0.7270 0.7250
3337.055000 0.7240 0.7220 0.7190 0.7180 0.7170
3344.658013 0.7160 0.7150 0.7140 0.7120 0.7120
3352.254000 0.7110 0.7090 0.7070 0.7070 0.7060
3359.857013 0.7060 0.7050 0.7050 0.7040 0.7030
3367.453000 0.7030 0.7010 0.7010 0.7000 0.7000
3375.056013 0.6990 0.6990 0.6980 0.6970 0.6970
3382.652000 0.6970 0.6960 0.6960 0.6950 0.6940
3390.255013 0.6940 0.6940 0.6940 0.6930 0.6930
3397.851000 0.6920 0.6910 0.6910 0.6910 0.6910
3405.454013 0.6900 0.6900 0.6900 0.6900 0.6900
3413.050000 0.6900 0.6900 0.6900 0.6900 0.6900
3420.653013 0.6910 0.6910 0.6910 0.6910 0.6910
3428.250000 0.6910 0.6910 0.6910 0.6910 0.6920
3435.853013 0.6920 0.6920 0.6920 0.6930 0.6930
3443.449000 0.6930 0.6930 0.6940 0.6940 0.6940
3451.052013 0.6950 0.6950 0.6960 0.6960 0.6970
3458.648000 0.6970 0.6970 0.6980 0.6980 0.6980
3466.251013 0.6990 0.7000 0.7000 0.7000 0.7000
3473.847000 0.7000 0.7010 0.7010 0.7020 0.7030
3481.450013 0.7030 0.7030 0.7030 0.7040 0.7040
3489.046000 0.7050 0.7050 0.7060 0.7060 0.7070
3496.649013 0.7080 0.7090 0.7090 0.7100 0.7110
3504.245000 0.7120 0.7120 0.7130 0.7140 0.7150
3511.848013 0.7160 0.7160 0.7180 0.7190 0.7210
3519.445000 0.7220 0.7240 0.7250 0.7270 0.7280
3527.048013 0.7300 0.7310 0.7320 0.7340 0.7350
3534.644000 0.7370 0.7380 0.7400 0.7410 0.7430
3542.247013 0.7440 0.7450 0.7460 0.7470 0.7480
3549.843000 0.7490 0.7500 0.7510 0.7520 0.7530
3557.446013 0.7540 0.7550 0.7560 0.7570 0.7580
3565.042000 0.7590 0.7600 0.7610 0.7620 0.7630
3572.645013 0.7640 0.7650 0.7660 0.7670 0.7680
3580.241000 0.7690 0.7690 0.7710 0.7740 0.7740
3587.844013 0.7760 0.7770 0.7770 0.7770 0.7790
3595.440000 0.7800 0.7820 0.7840 0.7860 0.7870
3603.043013 0.7900 0.7910 0.7940 0.7960 0.7960
3610.639000 0.7980 0.7990 0.8010 0.8020 0.8040
3618.242013 0.8050 0.8050 0.8060 0.8070 0.8080
3625.839000 0.8080 0.8090 0.8100 0.8110 0.8110
3633.442013 0.8120 0.8120 0.8130 0.8130 0.8140
3641.038000 0.8140 0.8140 0.8140 0.8150 0.8150
3648.641013 0.8160 0.8160 0.8170 0.8170 0.8170
3656.237000 0.8170 0.8170 0.8170 0.8170 0.8170
3663.840013 0.8180 0.8180 0.8180 0.8180 0.8190
3671.436000 0.8190 0.8190 0.8190 0.8200 0.8200
3679.039013 0.8200 0.8200 0.8200 0.8200 0.8200
3686.635000 0.8210 0.8210 0.8210 0.8210 0.8220
3694.238013 0.8220 0.8220 0.8220 0.8230 0.8230
3701.834000 0.8230 0.8230 0.8230 0.8230 0.8230
3709.437013 0.8230 0.8230 0.8230 0.8220 0.8220
3717.034000 0.8220 0.8220 0.8220 0.8220 0.8200
3724.637013 0.8200 0.8200 0.8200 0.8200 0.8200
3732.233000 0.8200 0.8200 0.8200 0.8200 0.8190
3739.836013 0.8190 0.8190 0.8190 0.8180 0.8180
3747.432000 0.8180 0.8180 0.8170 0.8170 0.8170
3755.035013 0.8180 0.8180 0.8180 0.8190 0.8190
3762.631000 0.8190 0.8200 0.8200 0.8200 0.8200
3770.234013 0.8200 0.8200 0.8200 0.8200 0.8200
3777.830000 0.8200 0.8200 0.8200 0.8190 0.8190
3785.433013 0.8190 0.8190 0.8190 0.8190 0.8180
3793.030000 0.8180 0.8180 0.8180 0.8170 0.8170
3800.633013 0.8170 0.8170 0.8170 0.8170 0.8170
3808.229000 0.8170 0.8160 0.8160 0.8160 0.8160
3815.832013 0.8150 0.8150 0.8150 0.8140 0.8140
3823.428000 0.8140 0.8140 0.8140 0.8140 0.8140
3831.031013 0.8140 0.8140 0.8140 0.8130 0.8130
3838.627000 0.8130 0.8120 0.8120 0.8120 0.8120
3846.230013 0.8120 0.8120 0.8120 0.8120 0.8110
3853.826000 0.8110 0.8110 0.8110 0.8110 0.8110
3861.429013 0.8110 0.8110 0.8110 0.8110 0.8110
3869.025000 0.8110 0.8110 0.8110 0.8110 0.8110
3876.628013 0.8100 0.8100 0.8100 0.8100 0.8090
3884.224000 0.8090 0.8090 0.8090 0.8090 0.8080
3891.827013 0.8080 0.8080 0.8080 0.8080 0.8080
3899.424000 0.8080 0.8080 0.8060 0.8060 0.8050
3907.027013 0.8050 0.8050 0.8050 0.8050 0.8050
3914.623000 0.8040 0.8040 0.8040 0.8030 0.8030
3922.226013 0.8020 0.8020 0.8020 0.8020 0.8020
3929.822000 0.8020 0.8020 0.8020 0.8020 0.8020
3937.425013 0.8020 0.8020 0.8010 0.8010 0.8010
3945.021000 0.8010 0.8010 0.8010 0.8010 0.8010
3952.624013 0.8010 0.8010 0.8010 0.8010 0.8000
3960.220000 0.8000 0.8000 0.8000 0.8000 0.8000
3967.823013 0.8000 0.8000 0.7990 0.7990 0.7990
3975.419000 0.7990 0.7990 0.7990 0.7990 0.7980
3983.022013 0.7980 0.7980 0.7970 0.7970 0.7960
3990.618000 0.7960 0.7960 0.7960 0.7960 0.7950
3998.221013 0.7950
##END=
