##TITLE=O-5-NITRO-2-FUROYLPYRROLIDINOACETAMIDOXIME, HYDROCHLORIDE
##JCAMP-DX=4.24
##DATA TYPE=INFRARED SPECTRUM
##CLASS=COBLENTZ III
##ORIGIN=ABBOTT LABORATORIES
##OWNER=Copyright (C) 1987 by the Coblentz Society
Collection (C) 2018 copyright by the U.S. Secretary of Commerce
on behalf of the United States of America. All rights reserved.
##DATE=1964/03/21
##NAMES=(1Z)-N'-[(5-nitro-2-furoyl)oxy]-2-(1-pyrrolidinyl)ethanimidamide hydrochloride
1-Pyrrolidineacetamidoxine, o-(5-nitro-2-furoyl)-, monohydrochloride
##MOLFORM=C11 H15 Cl N4 O5
##MP=144 C
##SOURCE REFERENCE=COBLENTZ NO. 9851
##$NIST ID=B6009851
##$NIST SOURCE=COBLENTZ
##$NIST IMAGE=cob9851
##SPECTROMETER/DATA SYSTEM=PERKIN-ELMER 21 (GRATING)
##INSTRUMENT PARAMETERS=NaCl PRISM
##STATE=SOLID (NUJOL MULL)
$$ PURITY - 'PURE'
$$SPECTRAL CONTAMINATION DUE TO OIL AROUND 2900, 1460 CM^-^1
##SAMPLING PROCEDURE=TRANSMISSION
##RESOLUTION=2
##DATA PROCESSING=DIGITIZED BY COBLENTZ SOCIETY (BATCH II) FROM HARD COPY
##XUNITS=1/CM
##YUNITS=TRANSMITTANCE
##XFACTOR=1.0
##YFACTOR=1
##FIRSTX=669
##LASTX=4000
##FIRSTY=0.6759
##MAXX=4000
##MINX=669
##MAXY=0.8217
##MINY=0.0422
##NPOINTS=3332
##XYDATA=(X++(Y..Y))
669.000000 0.6759 0.6798 0.6837 0.6865 0.6894
674.000000 0.6926 0.6951 0.6968 0.6984 0.7000
679.000000 0.7014 0.7028 0.7042 0.7058 0.7071
684.000000 0.7085 0.7096 0.7107 0.7117 0.7128
689.000000 0.7138 0.7137 0.7130 0.7122 0.7113
694.000000 0.7104 0.7096 0.7081 0.7049 0.7005
699.000000 0.6962 0.6908 0.6849 0.6791 0.6734
704.000000 0.6677 0.6621 0.6570 0.6528 0.6509
709.000000 0.6504 0.6499 0.6499 0.6508 0.6518
714.000000 0.6550 0.6503 0.6464 0.6425 0.6386
719.000000 0.6353 0.6344 0.6340 0.6363 0.6393
724.000000 0.6427 0.6479 0.6520 0.6571 0.6612
729.000000 0.6626 0.6620 0.6611 0.6605 0.6595
734.000000 0.6583 0.6451 0.6256 0.6234 0.6397
739.000000 0.6629 0.6844 0.6902 0.6933 0.6948
744.000000 0.6950 0.6948 0.6949 0.6963 0.6954
749.000000 0.6905 0.6806 0.6732 0.6650 0.6340
754.000000 0.6194 0.5597 0.3780 0.3335 0.3284
759.000000 0.4544 0.5933 0.6538 0.6843 0.7093
764.000000 0.7231 0.7293 0.7330 0.7363 0.7385
769.000000 0.7404 0.7416 0.7430 0.7447 0.7461
774.000000 0.7471 0.7479 0.7482 0.7485 0.7492
779.000000 0.7499 0.7505 0.7509 0.7513 0.7521
784.000000 0.7518 0.7519 0.7520 0.7521 0.7522
789.000000 0.7522 0.7507 0.7486 0.7452 0.7436
794.000000 0.7434 0.7416 0.7388 0.7347 0.7293
799.000000 0.7236 0.7176 0.7110 0.7033 0.6951
804.000000 0.6866 0.6761 0.6613 0.6398 0.6062
809.000000 0.5777 0.4776 0.4141 0.4078 0.4551
814.000000 0.5867 0.6566 0.7172 0.7322 0.7397
819.000000 0.7425 0.7432 0.7436 0.7441 0.7458
824.000000 0.7439 0.7433 0.7418 0.7398 0.7375
829.000000 0.7332 0.7285 0.7234 0.7165 0.7094
834.000000 0.7007 0.6909 0.6768 0.6419 0.5725
839.000000 0.5327 0.4931 0.4630 0.4549 0.5132
844.000000 0.5730 0.6136 0.6454 0.6617 0.6769
849.000000 0.6973 0.7085 0.7155 0.7257 0.7279
854.000000 0.7289 0.7270 0.7270 0.7271 0.7275
859.000000 0.7270 0.7259 0.7248 0.7232 0.7211
864.000000 0.7190 0.7179 0.7151 0.7082 0.7030
869.000000 0.6997 0.6978 0.6963 0.6950 0.6944
874.000000 0.6937 0.6929 0.6918 0.6856 0.6768
879.000000 0.6654 0.6546 0.6429 0.6298 0.6194
884.000000 0.6197 0.6191 0.6211 0.6228 0.6248
889.000000 0.6271 0.6326 0.6433 0.6524 0.6655
894.000000 0.6839 0.7008 0.7154 0.7230 0.7260
899.000000 0.7263 0.7249 0.7234 0.7218 0.7209
904.000000 0.7196 0.7131 0.7066 0.7001 0.6947
909.000000 0.6901 0.6887 0.6891 0.6903 0.6892
914.000000 0.6834 0.6790 0.6796 0.6801 0.6822
919.000000 0.6847 0.6871 0.6903 0.6935 0.6947
924.000000 0.6945 0.6933 0.6915 0.6890 0.6861
929.000000 0.6832 0.6816 0.6819 0.6830 0.6852
934.000000 0.6892 0.6941 0.6996 0.7051 0.7077
939.000000 0.7077 0.7076 0.7075 0.7089 0.7073
944.000000 0.7072 0.7071 0.7067 0.7060 0.7054
949.000000 0.7032 0.6997 0.6962 0.6931 0.6900
954.000000 0.6869 0.6836 0.6801 0.6767 0.6731
959.000000 0.6696 0.6661 0.6608 0.6481 0.6319
964.000000 0.6177 0.6035 0.5894 0.5743 0.5590
969.000000 0.5476 0.5423 0.5418 0.5445 0.5391
974.000000 0.5846 0.6112 0.6359 0.6489 0.6583
979.000000 0.6630 0.6659 0.6667 0.6671 0.6663
984.000000 0.6648 0.6638 0.6631 0.6627 0.6626
989.000000 0.6623 0.6622 0.6620 0.6621 0.6623
994.000000 0.6624 0.6626 0.6627 0.6627 0.6628
999.000000 0.6629 0.6629 0.6629 0.6629 0.6628
1004.000000 0.6628 0.6627 0.6625 0.6622 0.6611
1009.000000 0.6592 0.6566 0.6540 0.6515 0.6484
1014.000000 0.6447 0.6410 0.6372 0.6329 0.6286
1019.000000 0.6237 0.6162 0.6085 0.5983 0.5874
1024.000000 0.5767 0.5548 0.4990 0.4771 0.4627
1029.000000 0.4460 0.4056 0.3781 0.3732 0.3705
1034.000000 0.3824 0.4522 0.5800 0.6337 0.6442
1039.000000 0.6491 0.6511 0.6517 0.6520 0.6518
1044.000000 0.6518 0.6518 0.6518 0.6527 0.6538
1049.000000 0.6554 0.6564 0.6566 0.6568 0.6568
1054.000000 0.6569 0.6570 0.6570 0.6569 0.6568
1059.000000 0.6568 0.6569 0.6570 0.6572 0.6574
1064.000000 0.6576 0.6577 0.6579 0.6587 0.6596
1069.000000 0.6629 0.6722 0.6829 0.6886 0.6724
1074.000000 0.6333 0.6053 0.6049 0.6070 0.6106
1079.000000 0.6147 0.6174 0.6192 0.6203 0.6216
1084.000000 0.6208 0.6206 0.6205 0.6195 0.6183
1089.000000 0.6172 0.6159 0.6148 0.6156 0.6172
1094.000000 0.6187 0.6202 0.6211 0.6219 0.6225
1099.000000 0.6227 0.6227 0.6223 0.6219 0.6208
1104.000000 0.6195 0.6181 0.6162 0.6141 0.6121
1109.000000 0.6099 0.6077 0.6056 0.6032 0.6008
1114.000000 0.5983 0.5960 0.5928 0.5894 0.5858
1119.000000 0.5821 0.5783 0.5733 0.5672 0.5608
1124.000000 0.5545 0.5464 0.5370 0.5266 0.4975
1129.000000 0.4363 0.3754 0.3218 0.3016 0.2894
1134.000000 0.2788 0.2722 0.2697 0.2688 0.2942
1139.000000 0.3049 0.3214 0.3891 0.4675 0.5457
1144.000000 0.5980 0.6280 0.6433 0.6514 0.6576
1149.000000 0.6638 0.6679 0.6719 0.6746 0.6765
1154.000000 0.6785 0.6801 0.6809 0.6815 0.6819
1159.000000 0.6818 0.6817 0.6829 0.6812 0.6808
1164.000000 0.6801 0.6793 0.6785 0.6766 0.6745
1169.000000 0.6723 0.6712 0.6705 0.6700 0.6695
1174.000000 0.6691 0.6688 0.6678 0.6665 0.6649
1179.000000 0.6626 0.6583 0.6511 0.6375 0.6093
1184.000000 0.5843 0.5618 0.5393 0.5169 0.4946
1189.000000 0.4722 0.4509 0.4451 0.4436 0.5016
1194.000000 0.5423 0.5829 0.6138 0.6285 0.6372
1199.000000 0.6433 0.6486 0.6527 0.6560 0.6578
1204.000000 0.6594 0.6603 0.6610 0.6614 0.6614
1209.000000 0.6613 0.6612 0.6608 0.6617 0.6599
1214.000000 0.6588 0.6572 0.6555 0.6536 0.6517
1219.000000 0.6490 0.6458 0.6448 0.6448 0.6456
1224.000000 0.6463 0.6471 0.6483 0.6497 0.6511
1229.000000 0.6527 0.6542 0.6559 0.6570 0.6572
1234.000000 0.6569 0.6560 0.6548 0.6529 0.6499
1239.000000 0.6470 0.6436 0.6401 0.6354 0.6302
1244.000000 0.6251 0.6204 0.6166 0.6128 0.6094
1249.000000 0.6061 0.6034 0.6019 0.6005 0.5990
1254.000000 0.5976 0.5963 0.5949 0.5935 0.5920
1259.000000 0.5902 0.5884 0.5859 0.5828 0.5797
1264.000000 0.5763 0.5718 0.5671 0.5581 0.5486
1269.000000 0.5426 0.5386 0.5352 0.5317 0.5282
1274.000000 0.5239 0.5174 0.5104 0.5026 0.4948
1279.000000 0.4849 0.4687 0.4526 0.4422 0.4020
1284.000000 0.3618 0.3312 0.2877 0.2619 0.2361
1289.000000 0.1802 0.1713 0.1700 0.1701 0.1745
1294.000000 0.1809 0.1869 0.1932 0.2041 0.2251
1299.000000 0.2487 0.2722 0.2956 0.3191 0.3425
1304.000000 0.3658 0.3892 0.4125 0.4310 0.4479
1309.000000 0.4650 0.4807 0.5061 0.5186 0.5273
1314.000000 0.5334 0.5387 0.5394 0.5394 0.5391
1319.000000 0.5388 0.5378 0.5370 0.5361 0.5384
1324.000000 0.5413 0.5447 0.5479 0.5502 0.5514
1329.000000 0.5517 0.5531 0.5515 0.5512 0.5500
1334.000000 0.5485 0.5463 0.5427 0.5352 0.5185
1339.000000 0.5026 0.4866 0.4706 0.4547 0.4388
1344.000000 0.4227 0.4088 0.3989 0.3894 0.3796
1349.000000 0.3617 0.3299 0.2877 0.2417 0.2158
1354.000000 0.1852 0.1662 0.1617 0.1604 0.1599
1359.000000 0.1614 0.1711 0.1929 0.2165 0.2315
1364.000000 0.2366 0.2426 0.2496 0.2565 0.2634
1369.000000 0.2704 0.2750 0.2758 0.2742 0.2709
1374.000000 0.2663 0.2630 0.2614 0.2597 0.2591
1379.000000 0.2596 0.2690 0.2865 0.3039 0.3213
1384.000000 0.3387 0.3535 0.3659 0.3778 0.4169
1389.000000 0.4813 0.5170 0.5308 0.5395 0.5533
1394.000000 0.5578 0.5586 0.5583 0.5583 0.5528
1399.000000 0.5454 0.5381 0.5308 0.5226 0.5169
1404.000000 0.5161 0.5156 0.5152 0.5149 0.5146
1409.000000 0.5142 0.5137 0.5130 0.5111 0.5052
1414.000000 0.4986 0.4936 0.4864 0.4776 0.4700
1419.000000 0.4641 0.4591 0.4550 0.4521 0.4502
1424.000000 0.4491 0.4479 0.4473 0.4469 0.4466
1429.000000 0.4462 0.4456 0.4449 0.4432 0.4400
1434.000000 0.4354 0.4297 0.4224 0.4147 0.4069
1439.000000 0.3986 0.3903 0.3807 0.3701 0.3579
1444.000000 0.3434 0.3062 0.2862 0.2708 0.2518
1449.000000 0.2311 0.2146 0.2022 0.1910 0.1828
1454.000000 0.1763 0.1679 0.1612 0.1568 0.1527
1459.000000 0.1497 0.1477 0.1474 0.1478 0.1492
1464.000000 0.1508 0.1527 0.1557 0.1594 0.1632
1469.000000 0.1682 0.1736 0.1793 0.1886 0.2123
1474.000000 0.2563 0.2846 0.3118 0.3389 0.3659
1479.000000 0.3930 0.4200 0.4470 0.4598 0.4586
1484.000000 0.4591 0.4576 0.4522 0.4443 0.4363
1489.000000 0.4283 0.4203 0.4123 0.4043 0.3964
1494.000000 0.3932 0.3947 0.4632 0.5117 0.5600
1499.000000 0.6033 0.6234 0.6366 0.6481 0.6546
1504.000000 0.6574 0.6592 0.6599 0.6605 0.6604
1509.000000 0.6610 0.6597 0.6590 0.6578 0.6558
1514.000000 0.6519 0.6335 0.6248 0.6200 0.6182
1519.000000 0.6172 0.6160 0.6142 0.6036 0.5791
1524.000000 0.5519 0.5248 0.4977 0.4864 0.4794
1529.000000 0.4722 0.4651 0.4597 0.4543 0.4478
1534.000000 0.4295 0.3817 0.3258 0.2700 0.2274
1539.000000 0.2129 0.2112 0.2107 0.2107 0.2103
1544.000000 0.2288 0.2694 0.3136 0.3578 0.4020
1549.000000 0.4460 0.4900 0.5336 0.5709 0.5906
1554.000000 0.6079 0.6255 0.6416 0.6533 0.6635
1559.000000 0.6730 0.6814 0.6876 0.6916 0.6942
1564.000000 0.6960 0.6967 0.6965 0.6962 0.6986
1569.000000 0.6951 0.6944 0.6936 0.6927 0.6914
1574.000000 0.6890 0.6845 0.6796 0.6741 0.6682
1579.000000 0.6635 0.6591 0.6537 0.6482 0.6431
1584.000000 0.6379 0.6026 0.5649 0.5311 0.4972
1589.000000 0.4634 0.4297 0.3960 0.3811 0.3688
1594.000000 0.3794 0.3801 0.4028 0.4487 0.5008
1599.000000 0.5528 0.5851 0.5920 0.5914 0.5900
1604.000000 0.5890 0.5864 0.5829 0.5789 0.5733
1609.000000 0.5629 0.5452 0.5275 0.5098 0.4921
1614.000000 0.4745 0.4569 0.4391 0.4296 0.4251
1619.000000 0.4242 0.4238 0.4186 0.4333 0.4395
1624.000000 0.4457 0.4518 0.4580 0.4611 0.4604
1629.000000 0.4593 0.4573 0.4557 0.4521 0.4452
1634.000000 0.4382 0.4304 0.4222 0.4108 0.3945
1639.000000 0.3668 0.3428 0.3111 0.2711 0.2312
1644.000000 0.1912 0.1542 0.1285 0.1179 0.1158
1649.000000 0.1152 0.1131 0.1158 0.1243 0.1439
1654.000000 0.1681 0.1922 0.2163 0.2403 0.2644
1659.000000 0.2884 0.3123 0.3363 0.3602 0.3840
1664.000000 0.4079 0.4318 0.4556 0.4794 0.5007
1669.000000 0.5123 0.5141 0.5162 0.5285 0.5752
1674.000000 0.6157 0.6375 0.6492 0.6582 0.6658
1679.000000 0.6716 0.6740 0.6763 0.6787 0.6803
1684.000000 0.6814 0.6824 0.6834 0.6843 0.6854
1689.000000 0.6863 0.6872 0.6881 0.6890 0.6899
1694.000000 0.6908 0.6918 0.6929 0.6941 0.6958
1699.000000 0.6978 0.7002 0.7036 0.7082 0.7121
1704.000000 0.7141 0.7155 0.7165 0.7171 0.7175
1709.000000 0.7178 0.7182 0.7185 0.7186 0.7185
1714.000000 0.7183 0.7183 0.7180 0.7177 0.7173
1719.000000 0.7170 0.7164 0.7156 0.7149 0.7140
1724.000000 0.7131 0.7119 0.7107 0.7093 0.7071
1729.000000 0.7031 0.6968 0.6920 0.6879 0.6839
1734.000000 0.6797 0.6752 0.6708 0.6667 0.6623
1739.000000 0.6087 0.5055 0.4164 0.3459 0.3140
1744.000000 0.2921 0.2718 0.2515 0.2314 0.2206
1749.000000 0.2180 0.2180 0.2139 0.2194 0.2289
1754.000000 0.2549 0.2838 0.3128 0.3417 0.3705
1759.000000 0.3994 0.4282 0.4570 0.4858 0.5145
1764.000000 0.5432 0.5718 0.6004 0.6368 0.7017
1769.000000 0.7178 0.7303 0.7418 0.7515 0.7558
1774.000000 0.7603 0.7647 0.7692 0.7737 0.7784
1779.000000 0.7831 0.7873 0.7913 0.7951 0.7981
1784.000000 0.8008 0.8032 0.8051 0.8062 0.8072
1789.000000 0.8082 0.8092 0.8102 0.8111 0.8119
1794.000000 0.8127 0.8134 0.8140 0.8144 0.8149
1799.000000 0.8154 0.8158 0.8163 0.8167 0.8170
1804.000000 0.8172 0.8173 0.8174 0.8175 0.8173
1809.000000 0.8171 0.8171 0.8170 0.8169 0.8167
1814.000000 0.8166 0.8165 0.8164 0.8162 0.8161
1819.000000 0.8160 0.8159 0.8157 0.8155 0.8151
1824.000000 0.8148 0.8145 0.8142 0.8139 0.8134
1829.000000 0.8126 0.8119 0.8111 0.8103 0.8095
1834.000000 0.8084 0.8072 0.8062 0.8053 0.8048
1839.000000 0.8047 0.8047 0.8048 0.8048 0.8049
1844.000000 0.8052 0.8056 0.8065 0.8076 0.8090
1849.000000 0.8109 0.8128 0.8144 0.8155 0.8162
1854.000000 0.8167 0.8172 0.8177 0.8178 0.8179
1859.000000 0.8181 0.8182 0.8184 0.8186 0.8188
1864.000000 0.8190 0.8192 0.8194 0.8196 0.8199
1869.000000 0.8201 0.8203 0.8205 0.8207 0.8208
1874.000000 0.8210 0.8212 0.8213 0.8213 0.8213
1879.000000 0.8214 0.8214 0.8214 0.8214 0.8214
1884.000000 0.8215 0.8215 0.8215 0.8215 0.8215
1889.000000 0.8215 0.8216 0.8216 0.8216 0.8216
1894.000000 0.8216 0.8216 0.8217 0.8217 0.8217
1899.000000 0.8217 0.8217 0.8217 0.8217 0.8217
1904.000000 0.8217 0.8216 0.8216 0.8216 0.8216
1909.000000 0.8216 0.8215 0.8215 0.8215 0.8214
1914.000000 0.8214 0.8213 0.8212 0.8212 0.8211
1919.000000 0.8210 0.8210 0.8209 0.8208 0.8208
1924.000000 0.8207 0.8207 0.8207 0.8206 0.8205
1929.000000 0.8205 0.8204 0.8203 0.8202 0.8202
1934.000000 0.8202 0.8202 0.8202 0.8203 0.8203
1939.000000 0.8203 0.8203 0.8203 0.8203 0.8204
1944.000000 0.8204 0.8204 0.8203 0.8203 0.8202
1949.000000 0.8201 0.8201 0.8199 0.8198 0.8198
1954.000000 0.8197 0.8196 0.8195 0.8194 0.8192
1959.000000 0.8188 0.8184 0.8178 0.8172 0.8167
1964.000000 0.8162 0.8157 0.8154 0.8151 0.8149
1969.000000 0.8147 0.8145 0.8142 0.8139 0.8137
1974.000000 0.8135 0.8133 0.8131 0.8130 0.8128
1979.000000 0.8126 0.8124 0.8122 0.8121 0.8120
1984.000000 0.8118 0.8116 0.8115 0.8113 0.8112
1989.000000 0.8110 0.8106 0.8102 0.8099 0.8095
1994.000000 0.8091 0.8087 0.8084 0.8080 0.8076
1999.000000 0.8072 0.8069 0.8065 0.8062 0.8059
2004.000000 0.8056 0.8052 0.8049 0.8046 0.8043
2009.000000 0.8040 0.8038 0.8036 0.8034 0.8031
2014.000000 0.8029 0.8027 0.8025 0.8023 0.8021
2019.000000 0.8019 0.8018 0.8017 0.8015 0.8014
2024.000000 0.8013 0.8012 0.8010 0.8009 0.8008
2029.000000 0.8007 0.8005 0.8003 0.8001 0.7999
2034.000000 0.7997 0.7994 0.7990 0.7986 0.7983
2039.000000 0.7979 0.7975 0.7971 0.7967 0.7964
2044.000000 0.7960 0.7956 0.7952 0.7948 0.7943
2049.000000 0.7939 0.7936 0.7932 0.7928 0.7924
2054.000000 0.7919 0.7915 0.7911 0.7907 0.7903
2059.000000 0.7898 0.7894 0.7890 0.7885 0.7880
2064.000000 0.7875 0.7871 0.7867 0.7862 0.7858
2069.000000 0.7855 0.7852 0.7850 0.7848 0.7845
2074.000000 0.7843 0.7841 0.7838 0.7836 0.7833
2079.000000 0.7831 0.7828 0.7826 0.7824 0.7821
2084.000000 0.7819 0.7818 0.7816 0.7814 0.7813
2089.000000 0.7812 0.7811 0.7810 0.7809 0.7807
2094.000000 0.7806 0.7804 0.7803 0.7802 0.7801
2099.000000 0.7800 0.7797 0.7795 0.7794 0.7792
2104.000000 0.7789 0.7787 0.7785 0.7783 0.7780
2109.000000 0.7778 0.7776 0.7773 0.7770 0.7768
2114.000000 0.7766 0.7764 0.7761 0.7758 0.7755
2119.000000 0.7751 0.7748 0.7744 0.7740 0.7737
2124.000000 0.7734 0.7730 0.7727 0.7724 0.7720
2129.000000 0.7716 0.7711 0.7707 0.7702 0.7697
2134.000000 0.7693 0.7688 0.7684 0.7679 0.7675
2139.000000 0.7670 0.7666 0.7659 0.7652 0.7644
2144.000000 0.7636 0.7628 0.7620 0.7612 0.7604
2149.000000 0.7596 0.7588 0.7580 0.7572 0.7564
2154.000000 0.7556 0.7548 0.7540 0.7532 0.7523
2159.000000 0.7514 0.7505 0.7496 0.7488 0.7479
2164.000000 0.7470 0.7461 0.7453 0.7444 0.7435
2169.000000 0.7427 0.7419 0.7411 0.7403 0.7395
2174.000000 0.7387 0.7379 0.7371 0.7364 0.7356
2179.000000 0.7348 0.7340 0.7332 0.7325 0.7317
2184.000000 0.7310 0.7302 0.7294 0.7286 0.7277
2189.000000 0.7268 0.7258 0.7249 0.7240 0.7231
2194.000000 0.7222 0.7213 0.7204 0.7195 0.7186
2199.000000 0.7176 0.7167 0.7158 0.7148 0.7138
2204.000000 0.7127 0.7116 0.7105 0.7093 0.7082
2209.000000 0.7071 0.7059 0.7048 0.7037 0.7026
2214.000000 0.7014 0.7001 0.6986 0.6971 0.6956
2219.000000 0.6940 0.6924 0.6909 0.6894 0.6876
2224.000000 0.6858 0.6840 0.6821 0.6802 0.6784
2229.000000 0.6765 0.6745 0.6727 0.6708 0.6690
2234.000000 0.6671 0.6653 0.6635 0.6617 0.6598
2239.000000 0.6580 0.6562 0.6544 0.6525 0.6508
2244.000000 0.6490 0.6473 0.6456 0.6438 0.6421
2249.000000 0.6404 0.6387 0.6370 0.6353 0.6336
2254.000000 0.6318 0.6301 0.6284 0.6267 0.6250
2259.000000 0.6232 0.6213 0.6195 0.6177 0.6158
2264.000000 0.6140 0.6122 0.6104 0.6075 0.6033
2269.000000 0.5980 0.5911 0.5854 0.5824 0.5793
2274.000000 0.5762 0.5731 0.5701 0.5670 0.5640
2279.000000 0.5608 0.5573 0.5538 0.5503 0.5468
2284.000000 0.5433 0.5398 0.5363 0.5328 0.5300
2289.000000 0.5273 0.5248 0.5223 0.5199 0.5175
2294.000000 0.5150 0.5125 0.5102 0.5082 0.5062
2299.000000 0.5043 0.5023 0.5003 0.4984 0.4964
2304.000000 0.4944 0.4925 0.4905 0.4882 0.4857
2309.000000 0.4832 0.4806 0.4780 0.4755 0.4730
2314.000000 0.4706 0.4685 0.4677 0.4669 0.4664
2319.000000 0.4659 0.4655 0.4651 0.4650 0.4650
2324.000000 0.4638 0.4650 0.4651 0.4651 0.4651
2329.000000 0.4653 0.4655 0.4656 0.4658 0.4663
2334.000000 0.4668 0.4674 0.4680 0.4687 0.4694
2339.000000 0.4701 0.4708 0.4716 0.4724 0.4731
2344.000000 0.4739 0.4747 0.4755 0.4763 0.4771
2349.000000 0.4779 0.4786 0.4793 0.4801 0.4808
2354.000000 0.4815 0.4822 0.4829 0.4836 0.4843
2359.000000 0.4852 0.4864 0.4876 0.4889 0.4901
2364.000000 0.4914 0.4927 0.4940 0.4953 0.4969
2369.000000 0.4986 0.5004 0.5025 0.5047 0.5077
2374.000000 0.5107 0.5131 0.5154 0.5170 0.5182
2379.000000 0.5192 0.5197 0.5203 0.5208 0.5213
2384.000000 0.5217 0.5220 0.5223 0.5226 0.5229
2389.000000 0.5232 0.5235 0.5239 0.5242 0.5247
2394.000000 0.5251 0.5256 0.5260 0.5265 0.5270
2399.000000 0.5274 0.5279 0.5283 0.5289 0.5295
2404.000000 0.5302 0.5311 0.5320 0.5329 0.5337
2409.000000 0.5344 0.5349 0.5353 0.5358 0.5363
2414.000000 0.5367 0.5372 0.5376 0.5381 0.5385
2419.000000 0.5390 0.5394 0.5398 0.5402 0.5405
2424.000000 0.5407 0.5409 0.5411 0.5413 0.5415
2429.000000 0.5417 0.5419 0.5419 0.5419 0.5418
2434.000000 0.5416 0.5414 0.5413 0.5411 0.5409
2439.000000 0.5408 0.5406 0.5404 0.5403 0.5401
2444.000000 0.5399 0.5396 0.5393 0.5389 0.5386
2449.000000 0.5382 0.5378 0.5373 0.5370 0.5366
2454.000000 0.5360 0.5354 0.5347 0.5339 0.5331
2459.000000 0.5323 0.5315 0.5307 0.5299 0.5291
2464.000000 0.5284 0.5277 0.5270 0.5263 0.5256
2469.000000 0.5254 0.5252 0.5251 0.5251 0.5250
2474.000000 0.5250 0.5250 0.5241 0.5252 0.5254
2479.000000 0.5257 0.5259 0.5262 0.5265 0.5268
2484.000000 0.5273 0.5278 0.5283 0.5288 0.5295
2489.000000 0.5305 0.5315 0.5329 0.5344 0.5363
2494.000000 0.5386 0.5409 0.5426 0.5443 0.5460
2499.000000 0.5477 0.5494 0.5515 0.5537 0.5557
2504.000000 0.5574 0.5591 0.5600 0.5608 0.5617
2509.000000 0.5625 0.5634 0.5636 0.5637 0.5638
2514.000000 0.5639 0.5640 0.5642 0.5643 0.5643
2519.000000 0.5641 0.5639 0.5637 0.5635 0.5653
2524.000000 0.5631 0.5630 0.5627 0.5623 0.5620
2529.000000 0.5615 0.5611 0.5605 0.5599 0.5592
2534.000000 0.5583 0.5575 0.5565 0.5554 0.5543
2539.000000 0.5531 0.5518 0.5505 0.5491 0.5478
2544.000000 0.5464 0.5450 0.5436 0.5420 0.5404
2549.000000 0.5388 0.5373 0.5357 0.5346 0.5335
2554.000000 0.5325 0.5314 0.5304 0.5295 0.5287
2559.000000 0.5279 0.5276 0.5272 0.5270 0.5269
2564.000000 0.5268 0.5268 0.5269 0.5270 0.5270
2569.000000 0.5271 0.5242 0.5275 0.5277 0.5280
2574.000000 0.5283 0.5287 0.5293 0.5299 0.5305
2579.000000 0.5311 0.5318 0.5327 0.5336 0.5346
2584.000000 0.5356 0.5365 0.5375 0.5385 0.5395
2589.000000 0.5406 0.5418 0.5430 0.5445 0.5460
2594.000000 0.5475 0.5489 0.5504 0.5517 0.5530
2599.000000 0.5543 0.5555 0.5567 0.5579 0.5591
2604.000000 0.5603 0.5615 0.5627 0.5640 0.5653
2609.000000 0.5666 0.5679 0.5691 0.5704 0.5717
2614.000000 0.5730 0.5743 0.5756 0.5769 0.5782
2619.000000 0.5795 0.5808 0.5821 0.5835 0.5848
2624.000000 0.5860 0.5873 0.5886 0.5897 0.5908
2629.000000 0.5920 0.5931 0.5943 0.5954 0.5965
2634.000000 0.5977 0.5988 0.5999 0.6010 0.6021
2639.000000 0.6032 0.6042 0.6043 0.6045 0.6047
2644.000000 0.6048 0.6050 0.6051 0.6051 0.6051
2649.000000 0.6052 0.6052 0.6052 0.6053 0.6053
2654.000000 0.6054 0.6054 0.6054 0.6055 0.6055
2659.000000 0.6055 0.6055 0.6054 0.6053 0.6052
2664.000000 0.6051 0.6050 0.6049 0.6048 0.6048
2669.000000 0.6047 0.6045 0.6052 0.6044 0.6043
2674.000000 0.6042 0.6041 0.6040 0.6039 0.6039
2679.000000 0.6038 0.6037 0.6036 0.6035 0.6034
2684.000000 0.6033 0.6033 0.6032 0.6031 0.6031
2689.000000 0.6030 0.6029 0.6029 0.6028 0.6028
2694.000000 0.6027 0.6027 0.6027 0.6026 0.6026
2699.000000 0.6026 0.6026 0.6028 0.6030 0.6033
2704.000000 0.6037 0.6042 0.6046 0.6051 0.6056
2709.000000 0.6061 0.6065 0.6070 0.6075 0.6081
2714.000000 0.6086 0.6092 0.6097 0.6103 0.6109
2719.000000 0.6115 0.6120 0.6126 0.6131 0.6136
2724.000000 0.6140 0.6144 0.6147 0.6148 0.6146
2729.000000 0.6145 0.6143 0.6142 0.6140 0.6138
2734.000000 0.6137 0.6136 0.6134 0.6131 0.6129
2739.000000 0.6127 0.6124 0.6122 0.6119 0.6117
2744.000000 0.6114 0.6117 0.6122 0.6126 0.6131
2749.000000 0.6136 0.6141 0.6146 0.6152 0.6157
2754.000000 0.6162 0.6167 0.6172 0.6177 0.6182
2759.000000 0.6187 0.6192 0.6196 0.6201 0.6206
2764.000000 0.6209 0.6213 0.6216 0.6219 0.6222
2769.000000 0.6225 0.6228 0.6231 0.6234 0.6237
2774.000000 0.6240 0.6242 0.6241 0.6240 0.6238
2779.000000 0.6234 0.6230 0.6226 0.6221 0.6215
2784.000000 0.6210 0.6203 0.6197 0.6190 0.6182
2789.000000 0.6173 0.6165 0.6156 0.6148 0.6139
2794.000000 0.6128 0.6116 0.6104 0.6091 0.6079
2799.000000 0.6066 0.6050 0.6028 0.6006 0.5982
2804.000000 0.5952 0.5921 0.5891 0.5863 0.5835
2809.000000 0.5807 0.5789 0.5771 0.5753 0.5735
2814.000000 0.5718 0.5700 0.5681 0.5662 0.5642
2819.000000 0.5621 0.5597 0.5574 0.5551 0.5529
2824.000000 0.5507 0.5486 0.5468 0.5450 0.5431
2829.000000 0.5414 0.5396 0.5378 0.5360 0.5341
2834.000000 0.5323 0.5304 0.5284 0.5265 0.5245
2839.000000 0.5226 0.5206 0.5187 0.5168 0.5148
2844.000000 0.5129 0.5099 0.5067 0.5035 0.4881
2849.000000 0.4652 0.4423 0.4199 0.3982 0.3765
2854.000000 0.3549 0.3333 0.3117 0.2900 0.2685
2859.000000 0.2469 0.2253 0.2050 0.1856 0.1662
2864.000000 0.1509 0.1445 0.1382 0.1319 0.1275
2869.000000 0.1230 0.1185 0.1134 0.1080 0.1026
2874.000000 0.0977 0.0935 0.0893 0.0852 0.0817
2879.000000 0.0781 0.0746 0.0704 0.0661 0.0618
2884.000000 0.0590 0.0578 0.0566 0.0555 0.0551
2889.000000 0.0547 0.0543 0.0540 0.0536 0.0532
2894.000000 0.0530 0.0530 0.0529 0.0528 0.0528
2899.000000 0.0528 0.0528 0.0526 0.0524 0.0523
2904.000000 0.0521 0.0519 0.0517 0.0514 0.0511
2909.000000 0.0508 0.0505 0.0500 0.0494 0.0488
2914.000000 0.0481 0.0471 0.0462 0.0452 0.0446
2919.000000 0.0440 0.0435 0.0431 0.0429 0.0427
2924.000000 0.0425 0.0424 0.0423 0.0422 0.0422
2929.000000 0.0422 0.0422 0.0423 0.0424 0.0424
2934.000000 0.0425 0.0426 0.0427 0.0428 0.0429
2939.000000 0.0430 0.0430 0.0431 0.0432 0.0433
2944.000000 0.0433 0.0434 0.0434 0.0434 0.0434
2949.000000 0.0435 0.0435 0.0435 0.0435 0.0435
2954.000000 0.0435 0.0435 0.0437 0.0438 0.0439
2959.000000 0.0440 0.0441 0.0442 0.0443 0.0446
2964.000000 0.0448 0.0451 0.0453 0.0456 0.0458
2969.000000 0.0460 0.0464 0.0468 0.0472 0.0476
2974.000000 0.0482 0.0487 0.0492 0.0504 0.0517
2979.000000 0.0531 0.0544 0.0556 0.0568 0.0581
2984.000000 0.0594 0.0607 0.0621 0.0635 0.0649
2989.000000 0.0663 0.0677 0.0691 0.0705 0.0719
2994.000000 0.0732 0.0745 0.0759 0.0772 0.0785
2999.000000 0.0800 0.0814 0.0829 0.0844 0.0860
3004.000000 0.0876 0.0893 0.0917 0.0940 0.0964
3009.000000 0.1062 0.1216 0.1369 0.1523 0.1592
3014.000000 0.1657 0.1721 0.1794 0.1883 0.1972
3019.000000 0.2062 0.2151 0.2240 0.2329 0.2419
3024.000000 0.2508 0.2596 0.2685 0.2774 0.2862
3029.000000 0.2951 0.3040 0.3128 0.3217 0.3306
3034.000000 0.3394 0.3482 0.3571 0.3659 0.3747
3039.000000 0.3835 0.3923 0.4011 0.4099 0.4187
3044.000000 0.4275 0.4363 0.4450 0.4538 0.4625
3049.000000 0.4713 0.4800 0.4887 0.4975 0.5062
3054.000000 0.5149 0.5237 0.5324 0.5406 0.5486
3059.000000 0.5566 0.5644 0.5672 0.5701 0.5729
3064.000000 0.5758 0.5787 0.5817 0.5846 0.5888
3069.000000 0.5941 0.5993 0.6046 0.6068 0.6079
3074.000000 0.6090 0.6101 0.6108 0.6115 0.6121
3079.000000 0.6127 0.6131 0.6135 0.6138 0.6141
3084.000000 0.6142 0.6144 0.6145 0.6146 0.6148
3089.000000 0.6150 0.6151 0.6152 0.6153 0.6154
3094.000000 0.6154 0.6154 0.6154 0.6154 0.6153
3099.000000 0.6153 0.6153 0.6153 0.6160 0.6152
3104.000000 0.6151 0.6151 0.6150 0.6149 0.6149
3109.000000 0.6148 0.6147 0.6146 0.6144 0.6143
3114.000000 0.6141 0.6138 0.6135 0.6132 0.6129
3119.000000 0.6126 0.6124 0.6121 0.6110 0.6098
3124.000000 0.6086 0.6075 0.6045 0.6016 0.5987
3129.000000 0.5958 0.5934 0.5910 0.5886 0.5861
3134.000000 0.5838 0.5814 0.5790 0.5766 0.5742
3139.000000 0.5718 0.5694 0.5670 0.5646 0.5622
3144.000000 0.5598 0.5574 0.5551 0.5527 0.5503
3149.000000 0.5479 0.5456 0.5432 0.5408 0.5385
3154.000000 0.5361 0.5337 0.5314 0.5290 0.5266
3159.000000 0.5243 0.5219 0.5195 0.5172 0.5148
3164.000000 0.5125 0.5101 0.5078 0.5054 0.5031
3169.000000 0.5007 0.4984 0.4960 0.4936 0.4913
3174.000000 0.4891 0.4869 0.4846 0.4828 0.4815
3179.000000 0.4802 0.4789 0.4776 0.4764 0.4752
3184.000000 0.4739 0.4727 0.4714 0.4701 0.4688
3189.000000 0.4677 0.4668 0.4659 0.4651 0.4643
3194.000000 0.4640 0.4637 0.4634 0.4632 0.4632
3199.000000 0.4632 0.4632 0.4632 0.4645 0.4635
3204.000000 0.4637 0.4638 0.4647 0.4656 0.4665
3209.000000 0.4674 0.4687 0.4700 0.4713 0.4727
3214.000000 0.4751 0.4782 0.4814 0.4845 0.4876
3219.000000 0.4907 0.4938 0.4969 0.5000 0.5031
3224.000000 0.5062 0.5093 0.5124 0.5155 0.5186
3229.000000 0.5217 0.5248 0.5279 0.5310 0.5341
3234.000000 0.5372 0.5403 0.5433 0.5464 0.5495
3239.000000 0.5531 0.5569 0.5607 0.5645 0.5667
3244.000000 0.5669 0.5672 0.5675 0.5721 0.5679
3249.000000 0.5680 0.5682 0.5684 0.5684 0.5685
3254.000000 0.5686 0.5686 0.5686 0.5685 0.5685
3259.000000 0.5684 0.5682 0.5680 0.5678 0.5676
3264.000000 0.5674 0.5671 0.5668 0.5665 0.5662
3269.000000 0.5660 0.5657 0.5654 0.5651 0.5648
3274.000000 0.5644 0.5641 0.5637 0.5633 0.5628
3279.000000 0.5623 0.5619 0.5614 0.5609 0.5604
3284.000000 0.5599 0.5594 0.5589 0.5583 0.5578
3289.000000 0.5572 0.5566 0.5561 0.5555 0.5549
3294.000000 0.5543 0.5537 0.5531 0.5525 0.5518
3299.000000 0.5512 0.5505 0.5498 0.5491 0.5484
3304.000000 0.5478 0.5472 0.5466 0.5460 0.5453
3309.000000 0.5447 0.5441 0.5434 0.5429 0.5424
3314.000000 0.5419 0.5415 0.5411 0.5410 0.5408
3319.000000 0.5407 0.5406 0.5404 0.5402 0.5401
3324.000000 0.5399 0.5381 0.5397 0.5397 0.5396
3329.000000 0.5396 0.5397 0.5398 0.5399 0.5400
3334.000000 0.5402 0.5405 0.5408 0.5411 0.5415
3339.000000 0.5419 0.5424 0.5429 0.5433 0.5440
3344.000000 0.5446 0.5453 0.5460 0.5465 0.5468
3349.000000 0.5471 0.5473 0.5476 0.5479 0.5482
3354.000000 0.5485 0.5487 0.5490 0.5493 0.5495
3359.000000 0.5498 0.5500 0.5502 0.5504 0.5507
3364.000000 0.5509 0.5511 0.5514 0.5517 0.5521
3369.000000 0.5524 0.5527 0.5531 0.5534 0.5538
3374.000000 0.5541 0.5545 0.5548 0.5552 0.5555
3379.000000 0.5561 0.5569 0.5576 0.5583 0.5591
3384.000000 0.5604 0.5617 0.5630 0.5644 0.5660
3389.000000 0.5680 0.5700 0.5721 0.5741 0.5771
3394.000000 0.5804 0.5836 0.5868 0.5897 0.5917
3399.000000 0.5937 0.5958 0.5978 0.5998 0.6019
3404.000000 0.6039 0.6059 0.6080 0.6090 0.6101
3409.000000 0.6112 0.6123 0.6131 0.6134 0.6137
3414.000000 0.6140 0.6143 0.6145 0.6146 0.6148
3419.000000 0.6149 0.6151 0.6151 0.6151 0.6151
3424.000000 0.6151 0.6152 0.6152 0.6152 0.6153
3429.000000 0.6153 0.6163 0.6154 0.6154 0.6154
3434.000000 0.6154 0.6155 0.6155 0.6155 0.6155
3439.000000 0.6155 0.6155 0.6155 0.6155 0.6155
3444.000000 0.6155 0.6155 0.6155 0.6155 0.6155
3449.000000 0.6154 0.6151 0.6148 0.6145 0.6143
3454.000000 0.6140 0.6137 0.6134 0.6132 0.6129
3459.000000 0.6126 0.6123 0.6120 0.6117 0.6114
3464.000000 0.6112 0.6109 0.6106 0.6104 0.6098
3469.000000 0.6091 0.6084 0.6076 0.6069 0.6058
3474.000000 0.6047 0.6035 0.6024 0.6012 0.5993
3479.000000 0.5973 0.5953 0.5933 0.5913 0.5894
3484.000000 0.5874 0.5854 0.5834 0.5815 0.5795
3489.000000 0.5776 0.5756 0.5737 0.5717 0.5697
3494.000000 0.5678 0.5658 0.5638 0.5619 0.5599
3499.000000 0.5580 0.5561 0.5541 0.5527 0.5516
3504.000000 0.5504 0.5493 0.5482 0.5492 0.5479
3509.000000 0.5479 0.5479 0.5479 0.5528 0.5592
3514.000000 0.5655 0.5719 0.5782 0.5863 0.5947
3519.000000 0.6031 0.6115 0.6199 0.6283 0.6367
3524.000000 0.6451 0.6535 0.6619 0.6662 0.6701
3529.000000 0.6740 0.6779 0.6819 0.6842 0.6864
3534.000000 0.6887 0.6909 0.6931 0.6951 0.6970
3539.000000 0.6989 0.7009 0.7028 0.7044 0.7060
3544.000000 0.7076 0.7092 0.7108 0.7119 0.7129
3549.000000 0.7139 0.7149 0.7159 0.7169 0.7179
3554.000000 0.7189 0.7199 0.7209 0.7217 0.7226
3559.000000 0.7234 0.7242 0.7250 0.7256 0.7260
3564.000000 0.7264 0.7269 0.7273 0.7277 0.7281
3569.000000 0.7285 0.7290 0.7294 0.7298 0.7302
3574.000000 0.7306 0.7310 0.7314 0.7318 0.7320
3579.000000 0.7323 0.7325 0.7328 0.7330 0.7332
3584.000000 0.7334 0.7335 0.7337 0.7339 0.7341
3589.000000 0.7343 0.7345 0.7347 0.7349 0.7350
3594.000000 0.7352 0.7354 0.7356 0.7357 0.7358
3599.000000 0.7359 0.7360 0.7361 0.7362 0.7363
3604.000000 0.7363 0.7364 0.7364 0.7364 0.7365
3609.000000 0.7365 0.7365 0.7365 0.7365 0.7366
3614.000000 0.7366 0.7366 0.7367 0.7367 0.7368
3619.000000 0.7368 0.7368 0.7368 0.7368 0.7368
3624.000000 0.7369 0.7369 0.7369 0.7369 0.7369
3629.000000 0.7370 0.7370 0.7370 0.7370 0.7370
3634.000000 0.7371 0.7371 0.7371 0.7372 0.7372
3639.000000 0.7372 0.7374 0.7375 0.7376 0.7377
3644.000000 0.7378 0.7379 0.7381 0.7382 0.7383
3649.000000 0.7385 0.7386 0.7387 0.7389 0.7390
3654.000000 0.7391 0.7393 0.7394 0.7395 0.7396
3659.000000 0.7398 0.7399 0.7400 0.7400 0.7401
3664.000000 0.7402 0.7402 0.7403 0.7403 0.7404
3669.000000 0.7405 0.7406 0.7406 0.7407 0.7407
3674.000000 0.7407 0.7407 0.7407 0.7407 0.7407
3679.000000 0.7407 0.7407 0.7407 0.7407 0.7407
3684.000000 0.7407 0.7407 0.7407 0.7407 0.7406
3689.000000 0.7406 0.7406 0.7406 0.7406 0.7406
3694.000000 0.7406 0.7406 0.7406 0.7406 0.7406
3699.000000 0.7405 0.7405 0.7405 0.7405 0.7405
3704.000000 0.7404 0.7404 0.7404 0.7403 0.7403
3709.000000 0.7403 0.7402 0.7402 0.7401 0.7401
3714.000000 0.7401 0.7400 0.7400 0.7400 0.7399
3719.000000 0.7399 0.7399 0.7427 0.7398 0.7397
3724.000000 0.7396 0.7396 0.7395 0.7395 0.7395
3729.000000 0.7394 0.7394 0.7394 0.7393 0.7393
3734.000000 0.7392 0.7392 0.7391 0.7390 0.7390
3739.000000 0.7390 0.7389 0.7389 0.7389 0.7388
3744.000000 0.7388 0.7387 0.7387 0.7386 0.7386
3749.000000 0.7385 0.7385 0.7384 0.7383 0.7383
3754.000000 0.7382 0.7382 0.7381 0.7381 0.7380
3759.000000 0.7380 0.7379 0.7379 0.7378 0.7378
3764.000000 0.7377 0.7377 0.7376 0.7375 0.7375
3769.000000 0.7374 0.7374 0.7373 0.7373 0.7372
3774.000000 0.7372 0.7371 0.7371 0.7370 0.7370
3779.000000 0.7369 0.7369 0.7368 0.7368 0.7367
3784.000000 0.7366 0.7365 0.7363 0.7362 0.7361
3789.000000 0.7360 0.7359 0.7358 0.7357 0.7356
3794.000000 0.7355 0.7354 0.7353 0.7352 0.7351
3799.000000 0.7350 0.7349 0.7348 0.7346 0.7345
3804.000000 0.7344 0.7343 0.7342 0.7341 0.7340
3809.000000 0.7339 0.7338 0.7336 0.7335 0.7334
3814.000000 0.7333 0.7332 0.7331 0.7330 0.7329
3819.000000 0.7328 0.7327 0.7325 0.7324 0.7323
3824.000000 0.7321 0.7319 0.7317 0.7315 0.7313
3829.000000 0.7312 0.7310 0.7308 0.7307 0.7305
3834.000000 0.7303 0.7301 0.7299 0.7298 0.7296
3839.000000 0.7294 0.7292 0.7290 0.7289 0.7287
3844.000000 0.7285 0.7283 0.7282 0.7280 0.7278
3849.000000 0.7276 0.7274 0.7273 0.7271 0.7269
3854.000000 0.7267 0.7266 0.7264 0.7262 0.7261
3859.000000 0.7259 0.7257 0.7255 0.7253 0.7251
3864.000000 0.7249 0.7248 0.7247 0.7246 0.7245
3869.000000 0.7244 0.7243 0.7243 0.7243 0.7242
3874.000000 0.7242 0.7242 0.7241 0.7241 0.7241
3879.000000 0.7240 0.7240 0.7240 0.7239 0.7239
3884.000000 0.7239 0.7239 0.7239 0.7239 0.7239
3889.000000 0.7238 0.7238 0.7238 0.7237 0.7237
3894.000000 0.7237 0.7237 0.7237 0.7237 0.7237
3899.000000 0.7237 0.7237 0.7237 0.7237 0.7237
3904.000000 0.7237 0.7237 0.7237 0.7238 0.7238
3909.000000 0.7238 0.7238 0.7238 0.7238 0.7238
3914.000000 0.7238 0.7238 0.7238 0.7238 0.7238
3919.000000 0.7238 0.7238 0.7238 0.7238 0.7238
3924.000000 0.7238 0.7238 0.7238 0.7238 0.7238
3929.000000 0.7238 0.7238 0.7238 0.7238 0.7238
3934.000000 0.7238 0.7238 0.7238 0.7238 0.7237
3939.000000 0.7237 0.7237 0.7237 0.7237 0.7237
3944.000000 0.7236 0.7236 0.7236 0.7235 0.7235
3949.000000 0.7235 0.7234 0.7234 0.7234 0.7234
3954.000000 0.7234 0.7234 0.7233 0.7233 0.7233
3959.000000 0.7233 0.7233 0.7233 0.7232 0.7232
3964.000000 0.7232 0.7232 0.7232 0.7232 0.7232
3969.000000 0.7232 0.7232 0.7232 0.7232 0.7232
3974.000000 0.7232 0.7232 0.7232 0.7232 0.7232
3979.000000 0.7232 0.7232 0.7232 0.7232 0.7232
3984.000000 0.7232 0.7232 0.7232 0.7232 0.7232
3989.000000 0.7232 0.7232 0.7232 0.7232 0.7232
3994.000000 0.7232 0.7232 0.7232 0.7232 0.7232
3999.000000 0.7232 0.7232
##END=
