##TITLE=Cyclopropanamine, 2-phenyl-,phosphate (2 to 1), hydrate, trans-
##JCAMP-DX=4.24
##DATA TYPE=INFRARED SPECTRUM
##CLASS=COBLENTZ III
##ORIGIN=SMITH KLINE & FRENCH LABS.
##OWNER=Copyright (C) 1987 by the Coblentz Society
Collection (C) 2018 copyright by the U.S. Secretary of Commerce
on behalf of the United States of America. All rights reserved.
##DATE=1964/09/18
##MOLFORM=C18 H25 N2 O4 P  * H2 O
##SOURCE REFERENCE=COBLENTZ NO. 9091
##$NIST ID=B6009091
##$NIST SOURCE=COBLENTZ
##$NIST IMAGE=cob9091
##SPECTROMETER/DATA SYSTEM=PERKIN-ELMER 21 (GRATING)
##INSTRUMENT PARAMETERS=NaCl PRISM
##STATE=SOLID (NUJOL MULL)
$$SPECTRAL CONTAMINATION DUE TO OIL AROUND 2900, 1450, 1380 CM^-^1
##SAMPLING PROCEDURE=TRANSMISSION
##RESOLUTION=2
##DATA PROCESSING=DIGITIZED BY COBLENTZ SOCIETY (BATCH II) FROM HARD COPY
##XUNITS=1/CM
##YUNITS=TRANSMITTANCE
##XFACTOR=1.0
##YFACTOR=1
##FIRSTX=678
##LASTX=4000
##FIRSTY=0.7305
##MAXX=4000
##MINX=678
##MAXY=0.89
##MINY=0.0634
##NPOINTS=3323
##XYDATA=(X++(Y..Y))
678.000000 0.7305 0.7270 0.7220 0.7134 0.7010
683.000000 0.6823 0.6557 0.6172 0.5756 0.5026
688.000000 0.4257 0.3662 0.3104 0.2911 0.2892
693.000000 0.3137 0.3543 0.3962 0.4380 0.4666
698.000000 0.5119 0.5903 0.6468 0.7076 0.7458
703.000000 0.7615 0.7637 0.7733 0.7906 0.8030
708.000000 0.8088 0.8095 0.8111 0.8090 0.8080
713.000000 0.8062 0.8028 0.7946 0.7826 0.7790
718.000000 0.7786 0.7788 0.7787 0.7787 0.7786
723.000000 0.7774 0.7743 0.7682 0.7609 0.7536
728.000000 0.7464 0.7339 0.7206 0.7049 0.6819
733.000000 0.6380 0.5780 0.5157 0.4333 0.3512
738.000000 0.2767 0.2383 0.2379 0.2831 0.3786
743.000000 0.4739 0.5675 0.6208 0.6614 0.6969
748.000000 0.7173 0.7351 0.7534 0.7695 0.7806
753.000000 0.7900 0.7968 0.8013 0.8017 0.7974
758.000000 0.7901 0.7782 0.7660 0.7575 0.7540
763.000000 0.7544 0.7733 0.7966 0.8299 0.8348
768.000000 0.8355 0.8372 0.8404 0.8466 0.8540
773.000000 0.8588 0.8617 0.8632 0.8679 0.8635
778.000000 0.8630 0.8620 0.8609 0.8598 0.8586
783.000000 0.8576 0.8559 0.8540 0.8522 0.8503
788.000000 0.8484 0.8465 0.8438 0.8411 0.8372
793.000000 0.8333 0.8303 0.8288 0.8292 0.8296
798.000000 0.8243 0.8156 0.8050 0.7935 0.7796
803.000000 0.7638 0.7526 0.7400 0.7334 0.7299
808.000000 0.7362 0.7423 0.7501 0.7594 0.7681
813.000000 0.7782 0.7889 0.7998 0.8085 0.8132
818.000000 0.8136 0.8195 0.8256 0.8250 0.8191
823.000000 0.8184 0.8178 0.8171 0.8162 0.8145
828.000000 0.8092 0.7992 0.7914 0.7886 0.7874
833.000000 0.7861 0.7850 0.7840 0.7829 0.7818
838.000000 0.7805 0.7792 0.7786 0.7780 0.7772
843.000000 0.7734 0.7617 0.7574 0.7525 0.7477
848.000000 0.7430 0.7397 0.7365 0.7333 0.7300
853.000000 0.7268 0.7234 0.7182 0.7129 0.7073
858.000000 0.7017 0.6961 0.6906 0.6856 0.6805
863.000000 0.6756 0.6702 0.6633 0.6558 0.6468
868.000000 0.6372 0.6269 0.6161 0.5902 0.5627
873.000000 0.5343 0.5095 0.4890 0.4693 0.4518
878.000000 0.4427 0.4360 0.4324 0.4304 0.4293
883.000000 0.4283 0.4271 0.4261 0.4253 0.4245
888.000000 0.4206 0.4006 0.3866 0.3817 0.3768
893.000000 0.3725 0.3682 0.3648 0.3618 0.3585
898.000000 0.3539 0.3492 0.3445 0.3401 0.3394
903.000000 0.3420 0.3439 0.3394 0.3306 0.3238
908.000000 0.3156 0.3116 0.3107 0.3131 0.3165
913.000000 0.3169 0.3169 0.3168 0.3160 0.3130
918.000000 0.3016 0.2891 0.2862 0.2843 0.2823
923.000000 0.2801 0.2784 0.2777 0.2773 0.2804
928.000000 0.2799 0.2815 0.2832 0.2852 0.2884
933.000000 0.2930 0.2971 0.3009 0.3042 0.3075
938.000000 0.3107 0.3144 0.3167 0.3168 0.3162
943.000000 0.3149 0.3135 0.3118 0.3096 0.3077
948.000000 0.3069 0.3070 0.3145 0.3244 0.3327
953.000000 0.3410 0.3486 0.3534 0.3550 0.3559
958.000000 0.3556 0.3551 0.3532 0.3512 0.3490
963.000000 0.3468 0.3447 0.3436 0.3426 0.3425
968.000000 0.3426 0.3427 0.3428 0.3433 0.3439
973.000000 0.3449 0.3471 0.3492 0.3517 0.3542
978.000000 0.3566 0.3590 0.3614 0.3634 0.3652
983.000000 0.3678 0.3660 0.3659 0.3645 0.3622
988.000000 0.3585 0.3549 0.3504 0.3457 0.3403
993.000000 0.3332 0.3283 0.3285 0.3305 0.3308
998.000000 0.3291 0.3246 0.3134 0.2957 0.2793
1003.000000 0.2684 0.2596 0.2484 0.2370 0.2253
1008.000000 0.2169 0.2105 0.2064 0.2025 0.1993
1013.000000 0.1960 0.1932 0.1908 0.1886 0.1883
1018.000000 0.1888 0.1888 0.1900 0.1911 0.1924
1023.000000 0.1939 0.1958 0.1983 0.2063 0.2209
1028.000000 0.2371 0.2508 0.2636 0.2702 0.2764
1033.000000 0.2815 0.2854 0.2880 0.2905 0.2994
1038.000000 0.3028 0.3025 0.2974 0.2906 0.2822
1043.000000 0.2722 0.2599 0.2465 0.2338 0.2214
1048.000000 0.2126 0.2046 0.2010 0.1988 0.1982
1053.000000 0.1984 0.1974 0.2006 0.2031 0.2084
1058.000000 0.2175 0.2279 0.2361 0.2420 0.2478
1063.000000 0.2536 0.2586 0.2611 0.2634 0.2652
1068.000000 0.2666 0.2691 0.2725 0.2759 0.2801
1073.000000 0.2851 0.2938 0.3027 0.3128 0.3229
1078.000000 0.3343 0.3473 0.3591 0.3697 0.3771
1083.000000 0.3808 0.3824 0.3837 0.3850 0.3863
1088.000000 0.3877 0.3894 0.4027 0.4200 0.4373
1093.000000 0.4546 0.4718 0.4890 0.5062 0.5233
1098.000000 0.5405 0.5535 0.5588 0.5644 0.5692
1103.000000 0.5739 0.5789 0.5868 0.6113 0.6318
1108.000000 0.6462 0.6535 0.6606 0.6677 0.6744
1113.000000 0.6791 0.6835 0.6877 0.6911 0.6945
1118.000000 0.6979 0.7013 0.7054 0.7100 0.7145
1123.000000 0.7195 0.7253 0.7311 0.7369 0.7425
1128.000000 0.7478 0.7515 0.7540 0.7551 0.7561
1133.000000 0.7566 0.7561 0.7557 0.7552 0.7547
1138.000000 0.7542 0.7538 0.7533 0.7529 0.7523
1143.000000 0.7518 0.7514 0.7509 0.7505 0.7497
1148.000000 0.7489 0.7477 0.7440 0.7399 0.7353
1153.000000 0.7333 0.7326 0.7327 0.7331 0.7335
1158.000000 0.7341 0.7343 0.7341 0.7335 0.7327
1163.000000 0.7315 0.7300 0.7285 0.7270 0.7248
1168.000000 0.7223 0.7198 0.7167 0.7131 0.7083
1173.000000 0.7029 0.6980 0.6932 0.6872 0.6839
1178.000000 0.6863 0.6889 0.6887 0.6866 0.6815
1183.000000 0.6752 0.6717 0.6690 0.6677 0.6671
1188.000000 0.6681 0.6691 0.6695 0.6691 0.6686
1193.000000 0.6680 0.6658 0.6617 0.6575 0.6534
1198.000000 0.6497 0.6456 0.6409 0.6355 0.6312
1203.000000 0.6289 0.6283 0.6285 0.6281 0.6277
1208.000000 0.6273 0.6253 0.6225 0.6204 0.6186
1213.000000 0.6179 0.6180 0.6182 0.6186 0.6193
1218.000000 0.6208 0.6149 0.6256 0.6289 0.6330
1223.000000 0.6383 0.6455 0.6515 0.6555 0.6579
1228.000000 0.6662 0.6818 0.6922 0.6987 0.7013
1233.000000 0.7039 0.7067 0.7101 0.7138 0.7158
1238.000000 0.7173 0.7183 0.7190 0.7196 0.7203
1243.000000 0.7205 0.7206 0.7207 0.7208 0.7204
1248.000000 0.7200 0.7195 0.7196 0.7200 0.7209
1253.000000 0.7233 0.7248 0.7252 0.7258 0.7266
1258.000000 0.7278 0.7290 0.7305 0.7324 0.7342
1263.000000 0.7360 0.7378 0.7396 0.7414 0.7430
1268.000000 0.7446 0.7464 0.7483 0.7502 0.7523
1273.000000 0.7569 0.7687 0.7772 0.7790 0.7795
1278.000000 0.7800 0.7803 0.7806 0.7812 0.7825
1283.000000 0.7842 0.7862 0.7883 0.7903 0.7919
1288.000000 0.7929 0.7938 0.7945 0.7948 0.7952
1293.000000 0.7955 0.7959 0.7962 0.7966 0.7971
1298.000000 0.7974 0.7979 0.7982 0.7989 0.7996
1303.000000 0.8002 0.8016 0.8037 0.8050 0.8055
1308.000000 0.8058 0.8061 0.8058 0.8054 0.8047
1313.000000 0.8034 0.8017 0.7994 0.7968 0.7946
1318.000000 0.7927 0.7909 0.7894 0.7881 0.7867
1323.000000 0.7857 0.7857 0.7858 0.7855 0.7846
1328.000000 0.7837 0.7827 0.7819 0.7810 0.7802
1333.000000 0.7798 0.7794 0.7790 0.7786 0.7784
1338.000000 0.7787 0.7789 0.7794 0.7799 0.7806
1343.000000 0.7818 0.7841 0.7831 0.7822 0.7813
1348.000000 0.7781 0.7671 0.7579 0.7511 0.7460
1353.000000 0.7413 0.7330 0.7151 0.6904 0.6715
1358.000000 0.6631 0.6592 0.6553 0.6515 0.6457
1363.000000 0.6338 0.6133 0.5900 0.5609 0.5504
1368.000000 0.5482 0.5468 0.5489 0.5638 0.5816
1373.000000 0.5995 0.6174 0.6352 0.6530 0.6707
1378.000000 0.6885 0.7062 0.7233 0.7352 0.7436
1383.000000 0.7518 0.7540 0.7559 0.7567 0.7573
1388.000000 0.7577 0.7580 0.7583 0.7586 0.7589
1393.000000 0.7600 0.7616 0.7630 0.7637 0.7638
1398.000000 0.7630 0.7621 0.7612 0.7604 0.7602
1403.000000 0.7606 0.7614 0.7642 0.7665 0.7683
1408.000000 0.7687 0.7685 0.7683 0.7675 0.7666
1413.000000 0.7658 0.7645 0.7629 0.7599 0.7517
1418.000000 0.7386 0.7248 0.7113 0.6959 0.6802
1423.000000 0.6646 0.6489 0.6333 0.6176 0.6020
1428.000000 0.5865 0.5670 0.5475 0.5364 0.5092
1433.000000 0.4925 0.4771 0.4604 0.4471 0.4359
1438.000000 0.4259 0.4168 0.3928 0.3761 0.3675
1443.000000 0.3613 0.3570 0.3529 0.3474 0.3403
1448.000000 0.3306 0.3194 0.3109 0.2999 0.2886
1453.000000 0.2882 0.2887 0.2895 0.2910 0.2932
1458.000000 0.2977 0.3081 0.3264 0.3463 0.3864
1463.000000 0.4294 0.4725 0.5155 0.5584 0.6012
1468.000000 0.6317 0.6447 0.6506 0.6552 0.6576
1473.000000 0.6590 0.6593 0.6591 0.6588 0.6582
1478.000000 0.6571 0.6533 0.6475 0.6402 0.6345
1483.000000 0.6295 0.6242 0.6202 0.6194 0.6193
1488.000000 0.6193 0.6218 0.6253 0.6296 0.6359
1493.000000 0.6465 0.6596 0.6666 0.6690 0.6698
1498.000000 0.6704 0.6709 0.6710 0.6710 0.6710
1503.000000 0.6710 0.6710 0.6710 0.6709 0.6723
1508.000000 0.6707 0.6706 0.6704 0.6702 0.6698
1513.000000 0.6692 0.6687 0.6680 0.6675 0.6665
1518.000000 0.6653 0.6632 0.6612 0.6577 0.6519
1523.000000 0.6456 0.6393 0.6330 0.6269 0.6189
1528.000000 0.6104 0.5996 0.5900 0.5842 0.5806
1533.000000 0.5781 0.5775 0.5780 0.5787 0.5798
1538.000000 0.5800 0.5795 0.5787 0.5775 0.5759
1543.000000 0.5713 0.5624 0.5525 0.5429 0.5332
1548.000000 0.5240 0.5153 0.5063 0.5012 0.4995
1553.000000 0.4991 0.4991 0.4995 0.4991 0.5004
1558.000000 0.5010 0.5016 0.5025 0.5038 0.5056
1563.000000 0.5078 0.5129 0.5196 0.5256 0.5312
1568.000000 0.5351 0.5378 0.5398 0.5412 0.5441
1573.000000 0.5496 0.5557 0.5580 0.5586 0.5585
1578.000000 0.5582 0.5579 0.5594 0.5561 0.5547
1583.000000 0.5523 0.5483 0.5436 0.5386 0.5337
1588.000000 0.5288 0.5229 0.5151 0.5070 0.4930
1593.000000 0.4831 0.4764 0.4705 0.4678 0.4675
1598.000000 0.4677 0.4679 0.4683 0.4685 0.4689
1603.000000 0.4692 0.4694 0.4696 0.4699 0.4701
1608.000000 0.4703 0.4706 0.4708 0.4711 0.4713
1613.000000 0.4717 0.4721 0.4725 0.4734 0.4786
1618.000000 0.4841 0.4895 0.4950 0.5003 0.5057
1623.000000 0.5111 0.5165 0.5219 0.5272 0.5323
1628.000000 0.5370 0.5418 0.5457 0.5480 0.5497
1633.000000 0.5517 0.5541 0.5650 0.5742 0.5803
1638.000000 0.5857 0.5906 0.5952 0.5996 0.6039
1643.000000 0.6081 0.6119 0.6154 0.6186 0.6206
1648.000000 0.6224 0.6241 0.6249 0.6254 0.6258
1653.000000 0.6261 0.6263 0.6252 0.6237 0.6217
1658.000000 0.6201 0.6195 0.6194 0.6192 0.6192
1663.000000 0.6194 0.6197 0.6200 0.6201 0.6200
1668.000000 0.6196 0.6185 0.6144 0.6086 0.6013
1673.000000 0.5980 0.5962 0.5944 0.5929 0.5918
1678.000000 0.5908 0.5898 0.5892 0.5886 0.5880
1683.000000 0.5875 0.5870 0.5866 0.5860 0.5856
1688.000000 0.5851 0.5846 0.5843 0.5840 0.5837
1693.000000 0.5835 0.5832 0.5829 0.5826 0.5823
1698.000000 0.5820 0.5818 0.5815 0.5812 0.5809
1703.000000 0.5806 0.5805 0.5804 0.5802 0.5801
1708.000000 0.5800 0.5798 0.5797 0.5796 0.5794
1713.000000 0.5787 0.5792 0.5791 0.5791 0.5791
1718.000000 0.5791 0.5791 0.5791 0.5791 0.5791
1723.000000 0.5790 0.5790 0.5792 0.5794 0.5797
1728.000000 0.5799 0.5802 0.5804 0.5807 0.5809
1733.000000 0.5812 0.5814 0.5818 0.5821 0.5825
1738.000000 0.5829 0.5832 0.5835 0.5839 0.5843
1743.000000 0.5846 0.5850 0.5853 0.5857 0.5860
1748.000000 0.5864 0.5869 0.5873 0.5877 0.5881
1753.000000 0.5885 0.5889 0.5893 0.5897 0.5901
1758.000000 0.5905 0.5909 0.5913 0.5918 0.5922
1763.000000 0.5927 0.5933 0.5938 0.5943 0.5949
1768.000000 0.5953 0.5958 0.5963 0.5969 0.5973
1773.000000 0.5977 0.5981 0.5986 0.5990 0.5994
1778.000000 0.5997 0.6000 0.6002 0.6004 0.6006
1783.000000 0.6009 0.6016 0.6024 0.6032 0.6039
1788.000000 0.6046 0.6058 0.6073 0.6089 0.6106
1793.000000 0.6123 0.6142 0.6162 0.6184 0.6205
1798.000000 0.6230 0.6258 0.6286 0.6312 0.6337
1803.000000 0.6361 0.6380 0.6391 0.6402 0.6412
1808.000000 0.6421 0.6427 0.6430 0.6433 0.6437
1813.000000 0.6440 0.6444 0.6447 0.6450 0.6454
1818.000000 0.6457 0.6461 0.6467 0.6476 0.6492
1823.000000 0.6506 0.6516 0.6524 0.6530 0.6529
1828.000000 0.6527 0.6525 0.6523 0.6547 0.6519
1833.000000 0.6516 0.6513 0.6511 0.6508 0.6505
1838.000000 0.6502 0.6499 0.6496 0.6491 0.6487
1843.000000 0.6482 0.6478 0.6474 0.6469 0.6465
1848.000000 0.6461 0.6456 0.6451 0.6446 0.6441
1853.000000 0.6436 0.6432 0.6426 0.6420 0.6412
1858.000000 0.6403 0.6394 0.6386 0.6377 0.6368
1863.000000 0.6360 0.6353 0.6345 0.6338 0.6331
1868.000000 0.6324 0.6317 0.6310 0.6308 0.6306
1873.000000 0.6304 0.6301 0.6299 0.6296 0.6294
1878.000000 0.6293 0.6291 0.6290 0.6289 0.6287
1883.000000 0.6286 0.6283 0.6278 0.6272 0.6266
1888.000000 0.6261 0.6256 0.6251 0.6245 0.6239
1893.000000 0.6234 0.6228 0.6222 0.6216 0.6210
1898.000000 0.6204 0.6198 0.6192 0.6183 0.6166
1903.000000 0.6148 0.6131 0.6115 0.6098 0.6083
1908.000000 0.6067 0.6053 0.6040 0.6031 0.6021
1913.000000 0.6013 0.6004 0.5995 0.5986 0.5977
1918.000000 0.5971 0.5965 0.5959 0.5954 0.5948
1923.000000 0.5943 0.5938 0.5932 0.5928 0.5928
1928.000000 0.5929 0.5930 0.5931 0.5932 0.5934
1933.000000 0.5936 0.5939 0.5941 0.5943 0.5945
1938.000000 0.5947 0.5947 0.5943 0.5937 0.5931
1943.000000 0.5925 0.5919 0.5909 0.5900 0.5891
1948.000000 0.5882 0.5872 0.5860 0.5850 0.5839
1953.000000 0.5828 0.5816 0.5804 0.5793 0.5781
1958.000000 0.5769 0.5757 0.5745 0.5733 0.5719
1963.000000 0.5705 0.5692 0.5681 0.5672 0.5664
1968.000000 0.5656 0.5650 0.5646 0.5645 0.5645
1973.000000 0.5645 0.5645 0.5644 0.5644 0.5644
1978.000000 0.5644 0.5647 0.5652 0.5658 0.5663
1983.000000 0.5668 0.5670 0.5672 0.5673 0.5673
1988.000000 0.5668 0.5659 0.5648 0.5629 0.5603
1993.000000 0.5573 0.5543 0.5511 0.5486 0.5464
1998.000000 0.5447 0.5437 0.5432 0.5427 0.5421
2003.000000 0.5416 0.5409 0.5401 0.5394 0.5386
2008.000000 0.5379 0.5368 0.5353 0.5331 0.5309
2013.000000 0.5286 0.5261 0.5236 0.5212 0.5192
2018.000000 0.5175 0.5165 0.5159 0.5157 0.5154
2023.000000 0.5152 0.5149 0.5144 0.5138 0.5128
2028.000000 0.5118 0.5109 0.5099 0.5090 0.5076
2033.000000 0.5061 0.5045 0.5030 0.5014 0.4997
2038.000000 0.4980 0.4964 0.4947 0.4930 0.4914
2043.000000 0.4894 0.4872 0.4850 0.4829 0.4807
2048.000000 0.4785 0.4764 0.4745 0.4727 0.4708
2053.000000 0.4689 0.4671 0.4653 0.4636 0.4619
2058.000000 0.4602 0.4586 0.4569 0.4553 0.4536
2063.000000 0.4520 0.4503 0.4490 0.4480 0.4470
2068.000000 0.4461 0.4455 0.4450 0.4447 0.4444
2073.000000 0.4440 0.4437 0.4433 0.4430 0.4419
2078.000000 0.4403 0.4382 0.4359 0.4337 0.4314
2083.000000 0.4291 0.4270 0.4249 0.4241 0.4234
2088.000000 0.4230 0.4228 0.4228 0.4227 0.4227
2093.000000 0.4226 0.4225 0.4225 0.4224 0.4224
2098.000000 0.4223 0.4223 0.4222 0.4221 0.4221
2103.000000 0.4221 0.4221 0.4224 0.4222 0.4223
2108.000000 0.4225 0.4226 0.4227 0.4228 0.4229
2113.000000 0.4230 0.4232 0.4233 0.4237 0.4240
2118.000000 0.4244 0.4248 0.4252 0.4256 0.4260
2123.000000 0.4263 0.4267 0.4275 0.4284 0.4291
2128.000000 0.4299 0.4308 0.4316 0.4323 0.4331
2133.000000 0.4340 0.4348 0.4356 0.4365 0.4374
2138.000000 0.4382 0.4390 0.4399 0.4405 0.4409
2143.000000 0.4412 0.4416 0.4420 0.4424 0.4428
2148.000000 0.4431 0.4435 0.4439 0.4443 0.4446
2153.000000 0.4449 0.4453 0.4457 0.4461 0.4464
2158.000000 0.4468 0.4471 0.4475 0.4478 0.4481
2163.000000 0.4484 0.4484 0.4485 0.4485 0.4485
2168.000000 0.4485 0.4486 0.4486 0.4486 0.4486
2173.000000 0.4486 0.4486 0.4486 0.4486 0.4486
2178.000000 0.4485 0.4485 0.4484 0.4484 0.4483
2183.000000 0.4483 0.4483 0.4483 0.4482 0.4482
2188.000000 0.4481 0.4481 0.4480 0.4480 0.4479
2193.000000 0.4478 0.4478 0.4477 0.4476 0.4474
2198.000000 0.4473 0.4471 0.4470 0.4468 0.4466
2203.000000 0.4465 0.4463 0.4455 0.4459 0.4458
2208.000000 0.4456 0.4455 0.4453 0.4450 0.4445
2213.000000 0.4440 0.4435 0.4431 0.4426 0.4421
2218.000000 0.4416 0.4411 0.4406 0.4401 0.4396
2223.000000 0.4386 0.4375 0.4363 0.4351 0.4339
2228.000000 0.4326 0.4314 0.4302 0.4290 0.4277
2233.000000 0.4265 0.4253 0.4236 0.4218 0.4200
2238.000000 0.4182 0.4164 0.4145 0.4127 0.4108
2243.000000 0.4090 0.4072 0.4056 0.4039 0.4023
2248.000000 0.4006 0.3989 0.3972 0.3956 0.3940
2253.000000 0.3923 0.3906 0.3890 0.3873 0.3856
2258.000000 0.3840 0.3823 0.3806 0.3788 0.3770
2263.000000 0.3751 0.3733 0.3716 0.3698 0.3680
2268.000000 0.3662 0.3644 0.3626 0.3602 0.3566
2273.000000 0.3527 0.3483 0.3443 0.3417 0.3392
2278.000000 0.3378 0.3365 0.3359 0.3353 0.3346
2283.000000 0.3340 0.3334 0.3328 0.3323 0.3319
2288.000000 0.3315 0.3313 0.3310 0.3307 0.3288
2293.000000 0.3300 0.3297 0.3294 0.3292 0.3291
2298.000000 0.3290 0.3290 0.3289 0.3289 0.3289
2303.000000 0.3288 0.3288 0.3287 0.3287 0.3287
2308.000000 0.3287 0.3287 0.3287 0.3288 0.3288
2313.000000 0.3288 0.3288 0.3289 0.3289 0.3290
2318.000000 0.3290 0.3290 0.3291 0.3291 0.3292
2323.000000 0.3292 0.3293 0.3293 0.3294 0.3294
2328.000000 0.3295 0.3295 0.3296 0.3296 0.3296
2333.000000 0.3297 0.3297 0.3296 0.3296 0.3296
2338.000000 0.3296 0.3295 0.3295 0.3295 0.3295
2343.000000 0.3295 0.3294 0.3294 0.3293 0.3293
2348.000000 0.3293 0.3293 0.3292 0.3292 0.3292
2353.000000 0.3292 0.3292 0.3291 0.3291 0.3291
2358.000000 0.3291 0.3290 0.3290 0.3290 0.3290
2363.000000 0.3290 0.3290 0.3290 0.3289 0.3289
2368.000000 0.3289 0.3289 0.3289 0.3289 0.3289
2373.000000 0.3289 0.3289 0.3289 0.3289 0.3287
2378.000000 0.3286 0.3284 0.3280 0.3277 0.3274
2383.000000 0.3271 0.3268 0.3265 0.3262 0.3259
2388.000000 0.3256 0.3253 0.3250 0.3246 0.3243
2393.000000 0.3239 0.3236 0.3233 0.3228 0.3223
2398.000000 0.3218 0.3213 0.3207 0.3202 0.3196
2403.000000 0.3190 0.3185 0.3180 0.3174 0.3170
2408.000000 0.3165 0.3160 0.3156 0.3152 0.3147
2413.000000 0.3143 0.3139 0.3134 0.3130 0.3127
2418.000000 0.3123 0.3118 0.3114 0.3110 0.3106
2423.000000 0.3101 0.3097 0.3093 0.3089 0.3085
2428.000000 0.3081 0.3077 0.3073 0.3068 0.3064
2433.000000 0.3060 0.3056 0.3051 0.3047 0.3043
2438.000000 0.3039 0.3035 0.3032 0.3030 0.3028
2443.000000 0.3026 0.3025 0.3024 0.3023 0.3021
2448.000000 0.3020 0.3019 0.3017 0.3015 0.3014
2453.000000 0.3013 0.3010 0.3006 0.3002 0.2994
2458.000000 0.2985 0.2977 0.2969 0.2962 0.2954
2463.000000 0.2946 0.2938 0.2930 0.2915 0.2893
2468.000000 0.2871 0.2846 0.2821 0.2804 0.2793
2473.000000 0.2781 0.2770 0.2759 0.2748 0.2736
2478.000000 0.2726 0.2716 0.2706 0.2699 0.2692
2483.000000 0.2685 0.2677 0.2670 0.2663 0.2656
2488.000000 0.2649 0.2641 0.2633 0.2622 0.2611
2493.000000 0.2600 0.2589 0.2579 0.2568 0.2557
2498.000000 0.2547 0.2539 0.2531 0.2528 0.2526
2503.000000 0.2524 0.2522 0.2520 0.2517 0.2515
2508.000000 0.2513 0.2512 0.2511 0.2510 0.2510
2513.000000 0.2509 0.2509 0.2509 0.2508 0.2507
2518.000000 0.2506 0.2506 0.2506 0.2505 0.2505
2523.000000 0.2504 0.2504 0.2504 0.2503 0.2502
2528.000000 0.2501 0.2501 0.2501 0.2500 0.2500
2533.000000 0.2500 0.2500 0.2500 0.2499 0.2499
2538.000000 0.2499 0.2499 0.2499 0.2498 0.2498
2543.000000 0.2498 0.2498 0.2498 0.2497 0.2497
2548.000000 0.2497 0.2497 0.2497 0.2497 0.2496
2553.000000 0.2496 0.2495 0.2494 0.2494 0.2493
2558.000000 0.2491 0.2490 0.2489 0.2487 0.2486
2563.000000 0.2484 0.2483 0.2481 0.2480 0.2478
2568.000000 0.2477 0.2475 0.2474 0.2472 0.2471
2573.000000 0.2469 0.2467 0.2465 0.2462 0.2459
2578.000000 0.2457 0.2454 0.2451 0.2449 0.2447
2583.000000 0.2445 0.2442 0.2439 0.2437 0.2434
2588.000000 0.2431 0.2429 0.2426 0.2424 0.2421
2593.000000 0.2418 0.2416 0.2413 0.2411 0.2408
2598.000000 0.2405 0.2403 0.2400 0.2398 0.2395
2603.000000 0.2393 0.2390 0.2388 0.2386 0.2384
2608.000000 0.2382 0.2380 0.2378 0.2376 0.2374
2613.000000 0.2372 0.2370 0.2368 0.2365 0.2363
2618.000000 0.2361 0.2359 0.2357 0.2356 0.2353
2623.000000 0.2351 0.2349 0.2347 0.2345 0.2343
2628.000000 0.2341 0.2339 0.2337 0.2335 0.2333
2633.000000 0.2332 0.2331 0.2330 0.2329 0.2328
2638.000000 0.2327 0.2326 0.2325 0.2324 0.2323
2643.000000 0.2322 0.2322 0.2321 0.2320 0.2319
2648.000000 0.2318 0.2317 0.2316 0.2316 0.2315
2653.000000 0.2314 0.2313 0.2312 0.2311 0.2310
2658.000000 0.2310 0.2309 0.2308 0.2307 0.2307
2663.000000 0.2307 0.2308 0.2308 0.2309 0.2310
2668.000000 0.2310 0.2311 0.2312 0.2313 0.2313
2673.000000 0.2314 0.2315 0.2315 0.2316 0.2317
2678.000000 0.2318 0.2319 0.2320 0.2321 0.2321
2683.000000 0.2322 0.2322 0.2322 0.2321 0.2321
2688.000000 0.2321 0.2319 0.2317 0.2316 0.2310
2693.000000 0.2304 0.2298 0.2291 0.2284 0.2277
2698.000000 0.2269 0.2260 0.2252 0.2243 0.2234
2703.000000 0.2225 0.2216 0.2206 0.2196 0.2186
2708.000000 0.2175 0.2164 0.2153 0.2143 0.2132
2713.000000 0.2121 0.2110 0.2099 0.2089 0.2078
2718.000000 0.2067 0.2057 0.2046 0.2035 0.2025
2723.000000 0.2014 0.2003 0.1992 0.1981 0.1970
2728.000000 0.1958 0.1947 0.1936 0.1925 0.1913
2733.000000 0.1902 0.1891 0.1880 0.1869 0.1859
2738.000000 0.1848 0.1838 0.1828 0.1818 0.1808
2743.000000 0.1797 0.1787 0.1777 0.1767 0.1757
2748.000000 0.1747 0.1737 0.1726 0.1716 0.1706
2753.000000 0.1696 0.1684 0.1671 0.1658 0.1642
2758.000000 0.1625 0.1607 0.1590 0.1572 0.1554
2763.000000 0.1536 0.1517 0.1499 0.1480 0.1460
2768.000000 0.1441 0.1416 0.1384 0.1351 0.1315
2773.000000 0.1273 0.1231 0.1194 0.1168 0.1142
2778.000000 0.1117 0.1095 0.1072 0.1050 0.1027
2783.000000 0.1005 0.0983 0.0965 0.0947 0.0929
2788.000000 0.0913 0.0898 0.0882 0.0867 0.0852
2793.000000 0.0837 0.0822 0.0807 0.0792 0.0777
2798.000000 0.0762 0.0747 0.0734 0.0723 0.0712
2803.000000 0.0702 0.0695 0.0688 0.0681 0.0674
2808.000000 0.0667 0.0660 0.0653 0.0646 0.0640
2813.000000 0.0638 0.0637 0.0637 0.0636 0.0636
2818.000000 0.0636 0.0635 0.0635 0.0634 0.0634
2823.000000 0.0635 0.0636 0.0637 0.0640 0.0643
2828.000000 0.0645 0.0648 0.0651 0.0654 0.0657
2833.000000 0.0660 0.0663 0.0668 0.0675 0.0681
2838.000000 0.0688 0.0695 0.0703 0.0710 0.0717
2843.000000 0.0724 0.0731 0.0739 0.0747 0.0755
2848.000000 0.0764 0.0772 0.0780 0.0789 0.0797
2853.000000 0.0805 0.0814 0.0824 0.0834 0.0844
2858.000000 0.0854 0.0865 0.0875 0.0886 0.0897
2863.000000 0.0908 0.0921 0.0937 0.0953 0.0969
2868.000000 0.0985 0.1001 0.1017 0.1033 0.1049
2873.000000 0.1065 0.1081 0.1097 0.1112 0.1128
2878.000000 0.1143 0.1158 0.1174 0.1193 0.1213
2883.000000 0.1233 0.1254 0.1275 0.1297 0.1319
2888.000000 0.1348 0.1377 0.1406 0.1432 0.1457
2893.000000 0.1482 0.1505 0.1523 0.1542 0.1561
2898.000000 0.1582 0.1602 0.1623 0.1649 0.1678
2903.000000 0.1706 0.1748 0.1810 0.1871 0.1933
2908.000000 0.1996 0.2059 0.2122 0.2185 0.2248
2913.000000 0.2311 0.2374 0.2437 0.2499 0.2562
2918.000000 0.2624 0.2687 0.2749 0.2812 0.2874
2923.000000 0.2937 0.2999 0.3061 0.3123 0.3186
2928.000000 0.3248 0.3310 0.3373 0.3435 0.3497
2933.000000 0.3559 0.3621 0.3671 0.3717 0.3762
2938.000000 0.3804 0.3833 0.3863 0.3892 0.3919
2943.000000 0.3945 0.3972 0.3997 0.4021 0.4044
2948.000000 0.4068 0.4091 0.4115 0.4139 0.4172
2953.000000 0.4219 0.4266 0.4313 0.4361 0.4409
2958.000000 0.4457 0.4494 0.4516 0.4538 0.4560
2963.000000 0.4579 0.4597 0.4616 0.4631 0.4641
2968.000000 0.4651 0.4660 0.4670 0.4680 0.4689
2973.000000 0.4699 0.4708 0.4717 0.4727 0.4736
2978.000000 0.4746 0.4755 0.4765 0.4775 0.4784
2983.000000 0.4794 0.4803 0.4813 0.4822 0.4832
2988.000000 0.4841 0.4851 0.4860 0.4872 0.4885
2993.000000 0.4898 0.4911 0.4924 0.4938 0.4951
2998.000000 0.4964 0.4977 0.4990 0.5003 0.5016
3003.000000 0.5029 0.5042 0.5057 0.5079 0.5100
3008.000000 0.5122 0.5145 0.5168 0.5191 0.5214
3013.000000 0.5237 0.5260 0.5283 0.5305 0.5325
3018.000000 0.5345 0.5365 0.5384 0.5402 0.5421
3023.000000 0.5439 0.5457 0.5476 0.5494 0.5512
3028.000000 0.5531 0.5550 0.5569 0.5588 0.5607
3033.000000 0.5627 0.5646 0.5665 0.5684 0.5704
3038.000000 0.5725 0.5750 0.5775 0.5799 0.5831
3043.000000 0.5866 0.5902 0.5937 0.5970 0.6003
3048.000000 0.6036 0.6067 0.6093 0.6119 0.6145
3053.000000 0.6171 0.6197 0.6223 0.6249 0.6277
3058.000000 0.6306 0.6335 0.6363 0.6395 0.6426
3063.000000 0.6458 0.6487 0.6513 0.6538 0.6563
3068.000000 0.6586 0.6607 0.6628 0.6648 0.6669
3073.000000 0.6689 0.6709 0.6730 0.6755 0.6780
3078.000000 0.6805 0.6831 0.6859 0.6886 0.6914
3083.000000 0.6942 0.6971 0.6999 0.7028 0.7058
3088.000000 0.7091 0.7123 0.7156 0.7185 0.7212
3093.000000 0.7239 0.7267 0.7283 0.7299 0.7315
3098.000000 0.7330 0.7346 0.7361 0.7377 0.7392
3103.000000 0.7404 0.7416 0.7428 0.7440 0.7452
3108.000000 0.7464 0.7476 0.7488 0.7499 0.7511
3113.000000 0.7523 0.7534 0.7546 0.7558 0.7569
3118.000000 0.7581 0.7592 0.7604 0.7615 0.7629
3123.000000 0.7643 0.7657 0.7671 0.7685 0.7700
3128.000000 0.7715 0.7730 0.7744 0.7759 0.7773
3133.000000 0.7788 0.7803 0.7817 0.7832 0.7847
3138.000000 0.7860 0.7874 0.7888 0.7901 0.7914
3143.000000 0.7926 0.7938 0.7951 0.7963 0.7976
3148.000000 0.7988 0.8000 0.8013 0.8025 0.8037
3153.000000 0.8049 0.8061 0.8072 0.8084 0.8095
3158.000000 0.8105 0.8114 0.8124 0.8134 0.8144
3163.000000 0.8153 0.8163 0.8173 0.8183 0.8192
3168.000000 0.8202 0.8212 0.8221 0.8231 0.8241
3173.000000 0.8250 0.8260 0.8270 0.8280 0.8289
3178.000000 0.8299 0.8308 0.8318 0.8328 0.8340
3183.000000 0.8352 0.8363 0.8375 0.8387 0.8399
3188.000000 0.8411 0.8423 0.8436 0.8448 0.8460
3193.000000 0.8472 0.8485 0.8497 0.8509 0.8521
3198.000000 0.8531 0.8541 0.8551 0.8561 0.8571
3203.000000 0.8581 0.8591 0.8601 0.8611 0.8621
3208.000000 0.8630 0.8640 0.8649 0.8659 0.8668
3213.000000 0.8677 0.8682 0.8685 0.8688 0.8690
3218.000000 0.8693 0.8695 0.8698 0.8700 0.8702
3223.000000 0.8705 0.8707 0.8710 0.8715 0.8730
3228.000000 0.8746 0.8762 0.8778 0.8789 0.8799
3233.000000 0.8810 0.8821 0.8830 0.8838 0.8847
3238.000000 0.8856 0.8860 0.8863 0.8866 0.8869
3243.000000 0.8872 0.8875 0.8878 0.8880 0.8883
3248.000000 0.8883 0.8883 0.8883 0.8883 0.8883
3253.000000 0.8883 0.8883 0.8883 0.8882 0.8882
3258.000000 0.8882 0.8882 0.8881 0.8881 0.8880
3263.000000 0.8880 0.8879 0.8879 0.8879 0.8879
3268.000000 0.8878 0.8878 0.8878 0.8878 0.8878
3273.000000 0.8877 0.8877 0.8877 0.8877 0.8876
3278.000000 0.8876 0.8876 0.8876 0.8875 0.8875
3283.000000 0.8875 0.8875 0.8875 0.8874 0.8874
3288.000000 0.8874 0.8874 0.8900 0.8873 0.8872
3293.000000 0.8872 0.8871 0.8871 0.8870 0.8870
3298.000000 0.8870 0.8869 0.8868 0.8868 0.8867
3303.000000 0.8866 0.8865 0.8865 0.8864 0.8863
3308.000000 0.8863 0.8862 0.8861 0.8861 0.8860
3313.000000 0.8859 0.8859 0.8858 0.8857 0.8857
3318.000000 0.8856 0.8855 0.8855 0.8854 0.8853
3323.000000 0.8852 0.8852 0.8851 0.8850 0.8850
3328.000000 0.8849 0.8848 0.8848 0.8847 0.8846
3333.000000 0.8845 0.8844 0.8843 0.8843 0.8842
3338.000000 0.8841 0.8841 0.8840 0.8839 0.8839
3343.000000 0.8838 0.8837 0.8836 0.8835 0.8834
3348.000000 0.8834 0.8833 0.8832 0.8832 0.8831
3353.000000 0.8830 0.8829 0.8828 0.8827 0.8827
3358.000000 0.8826 0.8825 0.8825 0.8824 0.8823
3363.000000 0.8823 0.8822 0.8821 0.8820 0.8820
3368.000000 0.8819 0.8818 0.8817 0.8816 0.8816
3373.000000 0.8815 0.8814 0.8813 0.8813 0.8812
3378.000000 0.8811 0.8810 0.8809 0.8809 0.8808
3383.000000 0.8807 0.8807 0.8806 0.8805 0.8804
3388.000000 0.8803 0.8803 0.8802 0.8801 0.8801
3393.000000 0.8800 0.8799 0.8798 0.8797 0.8796
3398.000000 0.8796 0.8795 0.8794 0.8794 0.8793
3403.000000 0.8792 0.8791 0.8790 0.8789 0.8789
3408.000000 0.8788 0.8788 0.8787 0.8786 0.8785
3413.000000 0.8784 0.8784 0.8783 0.8782 0.8781
3418.000000 0.8780 0.8779 0.8778 0.8778 0.8777
3423.000000 0.8776 0.8775 0.8774 0.8773 0.8773
3428.000000 0.8772 0.8771 0.8770 0.8769 0.8768
3433.000000 0.8767 0.8766 0.8765 0.8764 0.8763
3438.000000 0.8762 0.8761 0.8760 0.8760 0.8759
3443.000000 0.8758 0.8757 0.8756 0.8755 0.8755
3448.000000 0.8754 0.8753 0.8752 0.8751 0.8750
3453.000000 0.8750 0.8748 0.8747 0.8746 0.8745
3458.000000 0.8744 0.8743 0.8742 0.8741 0.8740
3463.000000 0.8739 0.8738 0.8737 0.8736 0.8735
3468.000000 0.8734 0.8733 0.8732 0.8731 0.8730
3473.000000 0.8729 0.8728 0.8727 0.8726 0.8725
3478.000000 0.8724 0.8722 0.8721 0.8720 0.8719
3483.000000 0.8718 0.8717 0.8716 0.8715 0.8714
3488.000000 0.8713 0.8713 0.8712 0.8711 0.8710
3493.000000 0.8710 0.8709 0.8708 0.8708 0.8707
3498.000000 0.8707 0.8706 0.8705 0.8705 0.8704
3503.000000 0.8704 0.8703 0.8702 0.8702 0.8701
3508.000000 0.8700 0.8700 0.8699 0.8699 0.8698
3513.000000 0.8697 0.8697 0.8696 0.8696 0.8695
3518.000000 0.8694 0.8694 0.8693 0.8693 0.8692
3523.000000 0.8691 0.8691 0.8690 0.8690 0.8689
3528.000000 0.8688 0.8688 0.8687 0.8687 0.8686
3533.000000 0.8685 0.8685 0.8684 0.8684 0.8683
3538.000000 0.8682 0.8682 0.8681 0.8681 0.8680
3543.000000 0.8680 0.8679 0.8679 0.8679 0.8678
3548.000000 0.8677 0.8677 0.8676 0.8676 0.8675
3553.000000 0.8674 0.8674 0.8673 0.8673 0.8672
3558.000000 0.8671 0.8671 0.8670 0.8670 0.8669
3563.000000 0.8668 0.8668 0.8667 0.8667 0.8666
3568.000000 0.8666 0.8666 0.8666 0.8666 0.8666
3573.000000 0.8666 0.8666 0.8666 0.8666 0.8666
3578.000000 0.8666 0.8666 0.8666 0.8666 0.8666
3583.000000 0.8666 0.8666 0.8666 0.8666 0.8665
3588.000000 0.8665 0.8665 0.8665 0.8665 0.8665
3593.000000 0.8665 0.8665 0.8665 0.8665 0.8665
3598.000000 0.8665 0.8665 0.8665 0.8665 0.8665
3603.000000 0.8665 0.8665 0.8665 0.8665 0.8665
3608.000000 0.8665 0.8665 0.8665 0.8665 0.8665
3613.000000 0.8666 0.8666 0.8666 0.8666 0.8666
3618.000000 0.8666 0.8666 0.8666 0.8666 0.8666
3623.000000 0.8666 0.8666 0.8666 0.8666 0.8666
3628.000000 0.8666 0.8667 0.8667 0.8667 0.8667
3633.000000 0.8667 0.8667 0.8667 0.8667 0.8667
3638.000000 0.8667 0.8667 0.8667 0.8667 0.8667
3643.000000 0.8667 0.8667 0.8667 0.8667 0.8667
3648.000000 0.8667 0.8667 0.8668 0.8668 0.8668
3653.000000 0.8668 0.8668 0.8668 0.8668 0.8668
3658.000000 0.8668 0.8668 0.8668 0.8667 0.8667
3663.000000 0.8667 0.8667 0.8667 0.8667 0.8667
3668.000000 0.8667 0.8667 0.8667 0.8667 0.8667
3673.000000 0.8667 0.8667 0.8667 0.8667 0.8666
3678.000000 0.8666 0.8666 0.8666 0.8666 0.8666
3683.000000 0.8666 0.8666 0.8666 0.8666 0.8666
3688.000000 0.8665 0.8664 0.8663 0.8661 0.8660
3693.000000 0.8659 0.8658 0.8657 0.8656 0.8655
3698.000000 0.8654 0.8653 0.8651 0.8650 0.8649
3703.000000 0.8647 0.8646 0.8645 0.8644 0.8643
3708.000000 0.8642 0.8641 0.8639 0.8638 0.8637
3713.000000 0.8636 0.8634 0.8633 0.8632 0.8631
3718.000000 0.8630 0.8629 0.8628 0.8627 0.8625
3723.000000 0.8624 0.8623 0.8621 0.8620 0.8619
3728.000000 0.8617 0.8616 0.8614 0.8613 0.8611
3733.000000 0.8610 0.8608 0.8607 0.8605 0.8603
3738.000000 0.8602 0.8600 0.8599 0.8597 0.8595
3743.000000 0.8594 0.8592 0.8590 0.8588 0.8587
3748.000000 0.8585 0.8585 0.8585 0.8585 0.8585
3753.000000 0.8585 0.8586 0.8586 0.8587 0.8587
3758.000000 0.8588 0.8588 0.8589 0.8589 0.8590
3763.000000 0.8590 0.8591 0.8591 0.8592 0.8593
3768.000000 0.8593 0.8594 0.8594 0.8595 0.8595
3773.000000 0.8596 0.8596 0.8597 0.8597 0.8598
3778.000000 0.8599 0.8600 0.8601 0.8602 0.8603
3783.000000 0.8605 0.8606 0.8607 0.8608 0.8609
3788.000000 0.8611 0.8612 0.8613 0.8614 0.8615
3793.000000 0.8616 0.8617 0.8618 0.8619 0.8621
3798.000000 0.8622 0.8623 0.8624 0.8625 0.8627
3803.000000 0.8628 0.8629 0.8630 0.8631 0.8632
3808.000000 0.8633 0.8634 0.8635 0.8637 0.8638
3813.000000 0.8639 0.8640 0.8641 0.8642 0.8643
3818.000000 0.8644 0.8645 0.8646 0.8647 0.8648
3823.000000 0.8649 0.8650 0.8651 0.8652 0.8653
3828.000000 0.8654 0.8655 0.8656 0.8657 0.8658
3833.000000 0.8659 0.8660 0.8661 0.8662 0.8663
3838.000000 0.8664 0.8665 0.8666 0.8667 0.8667
3843.000000 0.8668 0.8668 0.8669 0.8669 0.8670
3848.000000 0.8670 0.8670 0.8670 0.8670 0.8670
3853.000000 0.8669 0.8669 0.8669 0.8669 0.8669
3858.000000 0.8669 0.8668 0.8668 0.8668 0.8667
3863.000000 0.8667 0.8666 0.8665 0.8663 0.8661
3868.000000 0.8659 0.8657 0.8655 0.8654 0.8652
3873.000000 0.8650 0.8648 0.8646 0.8644 0.8643
3878.000000 0.8641 0.8639 0.8637 0.8635 0.8633
3883.000000 0.8632 0.8630 0.8628 0.8626 0.8624
3888.000000 0.8623 0.8621 0.8619 0.8617 0.8615
3893.000000 0.8613 0.8612 0.8610 0.8608 0.8606
3898.000000 0.8604 0.8603 0.8601 0.8599 0.8597
3903.000000 0.8594 0.8592 0.8590 0.8588 0.8586
3908.000000 0.8583 0.8581 0.8579 0.8577 0.8574
3913.000000 0.8572 0.8570 0.8567 0.8565 0.8563
3918.000000 0.8561 0.8558 0.8556 0.8553 0.8551
3923.000000 0.8549 0.8546 0.8544 0.8541 0.8539
3928.000000 0.8537 0.8535 0.8532 0.8530 0.8528
3933.000000 0.8526 0.8523 0.8521 0.8519 0.8517
3938.000000 0.8516 0.8515 0.8514 0.8513 0.8512
3943.000000 0.8512 0.8511 0.8510 0.8509 0.8508
3948.000000 0.8507 0.8506 0.8505 0.8504 0.8503
3953.000000 0.8503 0.8502 0.8501 0.8500 0.8499
3958.000000 0.8498 0.8497 0.8496 0.8495 0.8494
3963.000000 0.8494 0.8493 0.8492 0.8491 0.8490
3968.000000 0.8490 0.8489 0.8488 0.8487 0.8487
3973.000000 0.8486 0.8485 0.8484 0.8484 0.8483
3978.000000 0.8482 0.8482 0.8481 0.8480 0.8480
3983.000000 0.8480 0.8480 0.8479 0.8479 0.8479
3988.000000 0.8478 0.8478 0.8478 0.8477 0.8477
3993.000000 0.8477 0.8476 0.8476 0.8475 0.8475
3998.000000 0.8474 0.8474 0.8474
##END=
