##TITLE=3,4-DIMETHOXY ADIPIC ACID, DIMETHYL ESTER
##JCAMP-DX=4.24
##DATA TYPE=INFRARED SPECTRUM
##CLASS=COBLENTZ
##OWNER=COBLENTZ SOCIETY
Collection (C) 2018 copyright by the U.S. Secretary of Commerce
on behalf of the United States of America. All rights reserved.
##DATE=1960
##MOLFORM=C10 H20 O6
##SOURCE REFERENCE=COBLENTZ NO. 978
##$NIST ID=B6000978
##$NIST SOURCE=COBLENTZ
##$NIST IMAGE=cob978
##SPECTROMETER/DATA SYSTEM=Not specified, most likely a prism, grating, or hybrid spectrometer.
##PATH LENGTH=0.001 CM
##SAMPLING PROCEDURE=TRANSMISSION
##RESOLUTION=4
##DATA PROCESSING=DIGITIZED BY NIST FROM HARD COPY
##XUNITS=MICROMETERS
##YUNITS=TRANSMITTANCE
##XFACTOR=1.000000
##YFACTOR=1
##DELTAX=000.006626
##FIRSTX=2.027
##LASTX=16.0006
##FIRSTY=0.911
##MAXX=16.0006
##MINX=2.027
##MAXY=0.928
##MINY=0.025
##NPOINTS=2110
##XYDATA=(X++(Y..Y))
2.027000 0.9110 0.9110 0.9110 0.9130 0.9130
2.060145 0.9130 0.9140 0.9140 0.9140 0.9140
2.093000 0.9140 0.9160 0.9160 0.9160 0.9160
2.126145 0.9160 0.9160 0.9160 0.9160 0.9160
2.159000 0.9160 0.9160 0.9160 0.9160 0.9160
2.192145 0.9160 0.9160 0.9140 0.9130 0.9060
2.225000 0.8940 0.8780 0.8540 0.8380 0.8330
2.258145 0.8310 0.8310 0.8310 0.8330 0.8340
2.292000 0.8360 0.8380 0.8430 0.8490 0.8540
2.325145 0.8610 0.8640 0.8640 0.8640 0.8640
2.358000 0.8640 0.8640 0.8640 0.8640 0.8640
2.391145 0.8640 0.8660 0.8660 0.8640 0.8640
2.424000 0.8640 0.8640 0.8640 0.8640 0.8640
2.457145 0.8680 0.8730 0.8760 0.8760 0.8740
2.490000 0.8730 0.8730 0.8730 0.8730 0.8730
2.523145 0.8740 0.8760 0.8760 0.8790 0.8860
2.557000 0.8930 0.8980 0.9010 0.9030 0.9040
2.590145 0.9090 0.9130 0.9130 0.9130 0.9130
2.623000 0.9140 0.9140 0.9160 0.9180 0.9210
2.656145 0.9240 0.9260 0.9280 0.9260 0.9260
2.689000 0.9260 0.9260 0.9260 0.9210 0.9130
2.722145 0.8990 0.8710 0.8530 0.8290 0.8130
2.755000 0.8010 0.7940 0.7940 0.7940 0.7940
2.788145 0.7940 0.7920 0.7940 0.7940 0.7940
2.822000 0.7940 0.7940 0.7940 0.7920 0.7910
2.855145 0.7890 0.7810 0.7720 0.7710 0.7740
2.888000 0.7810 0.7960 0.8230 0.8440 0.8560
2.921145 0.8640 0.8710 0.8740 0.8760 0.8780
2.954000 0.8810 0.8830 0.8840 0.8840 0.8840
2.987145 0.8840 0.8860 0.8880 0.8880 0.8880
3.020000 0.8880 0.8880 0.8880 0.8880 0.8890
3.053145 0.8890 0.8880 0.8880 0.8880 0.8880
3.087000 0.8880 0.8880 0.8880 0.8880 0.8880
3.120145 0.8880 0.8880 0.8880 0.8860 0.8840
3.153000 0.8840 0.8840 0.8830 0.8790 0.8730
3.186145 0.8660 0.8590 0.8560 0.8530 0.8490
3.219000 0.8490 0.8480 0.8460 0.8390 0.8310
3.252145 0.8190 0.8060 0.8010 0.7920 0.7760
3.285000 0.7660 0.7490 0.7290 0.6890 0.6190
3.318145 0.5170 0.4890 0.4590 0.3980 0.3270
3.352000 0.2820 0.2200 0.1780 0.1660 0.1500
3.385145 0.1310 0.1110 0.0860 0.0760 0.0750
3.418000 0.0710 0.0710 0.0710 0.0730 0.0780
3.451145 0.0850 0.0950 0.1000 0.1000 0.1000
3.484000 0.1000 0.1030 0.1100 0.1180 0.1360
3.517145 0.1530 0.1910 0.2030 0.2500 0.2500
3.550000 0.2350 0.2270 0.2250 0.2280 0.2630
3.583145 0.4020 0.4840 0.6410 0.7190 0.7740
3.617000 0.7770 0.7840 0.7840 0.7840 0.7860
3.650145 0.7870 0.7920 0.8040 0.8140 0.8240
3.683000 0.8330 0.8380 0.8430 0.8490 0.8530
3.716145 0.8590 0.8640 0.8690 0.8710 0.8710
3.749000 0.8710 0.8710 0.8710 0.8710 0.8710
3.782145 0.8730 0.8710 0.8710 0.8690 0.8690
3.815000 0.8680 0.8660 0.8630 0.8610 0.8610
3.848145 0.8610 0.8610 0.8610 0.8610 0.8630
3.882000 0.8640 0.8690 0.8740 0.8780 0.8880
3.915145 0.8940 0.9010 0.9010 0.9010 0.9010
3.948000 0.9010 0.9010 0.9010 0.9030 0.9030
3.981145 0.9030 0.9030 0.9030 0.9030 0.9030
4.014000 0.9030 0.9030 0.9030 0.9040 0.9040
4.047145 0.9040 0.9040 0.9040 0.9060 0.9060
4.081000 0.9060 0.9060 0.9060 0.9080 0.9080
4.114145 0.9080 0.9060 0.9080 0.9080 0.9060
4.147000 0.9060 0.9060 0.9080 0.9080 0.9060
4.180145 0.9060 0.9060 0.9060 0.9060 0.9040
4.213000 0.9010 0.8990 0.8990 0.8990 0.8990
4.246145 0.8990 0.8990 0.8990 0.8990 0.8990
4.279000 0.8990 0.8990 0.8990 0.8990 0.8990
4.312145 0.8990 0.8990 0.8990 0.9010 0.9010
4.346000 0.9010 0.9010 0.9010 0.9010 0.9010
4.379145 0.9010 0.9010 0.9010 0.9010 0.9010
4.412000 0.9010 0.9010 0.9010 0.9010 0.9030
4.445145 0.9030 0.9030 0.9060 0.9080 0.9090
4.478000 0.9110 0.9130 0.9140 0.9180 0.9190
4.511145 0.9190 0.9190 0.9180 0.9140 0.9130
4.544000 0.9110 0.9110 0.9110 0.9110 0.9110
4.577145 0.9110 0.9110 0.9110 0.9060 0.8990
4.611000 0.8930 0.8890 0.8860 0.8840 0.8840
4.644145 0.8840 0.8840 0.8840 0.8830 0.8830
4.677000 0.8810 0.8760 0.8740 0.8730 0.8680
4.710145 0.8610 0.8560 0.8530 0.8530 0.8510
4.743000 0.8480 0.8440 0.8390 0.8310 0.8230
4.776145 0.8190 0.8190 0.8160 0.8160 0.8130
4.809000 0.8110 0.8080 0.8080 0.8080 0.8080
4.842145 0.8080 0.8080 0.8080 0.8080 0.8060
4.876000 0.8060 0.8060 0.8060 0.8060 0.8060
4.909145 0.8060 0.8090 0.8090 0.8110 0.8110
4.942000 0.8130 0.8140 0.8160 0.8190 0.8210
4.975145 0.8240 0.8240 0.8240 0.8260 0.8290
5.008000 0.8340 0.8340 0.8340 0.8340 0.8360
5.041145 0.8360 0.8340 0.8340 0.8340 0.8340
5.074000 0.8340 0.8360 0.8340 0.8340 0.8340
5.107145 0.8340 0.8340 0.8340 0.8340 0.8340
5.141000 0.8340 0.8340 0.8360 0.8360 0.8360
5.174145 0.8360 0.8360 0.8380 0.8390 0.8410
5.207000 0.8430 0.8460 0.8460 0.8480 0.8480
5.240145 0.8480 0.8490 0.8530 0.8540 0.8560
5.273000 0.8560 0.8560 0.8560 0.8560 0.8560
5.306145 0.8560 0.8560 0.8560 0.8560 0.8560
5.339000 0.8560 0.8560 0.8560 0.8560 0.8560
5.372145 0.8560 0.8510 0.8440 0.8430 0.8430
5.406000 0.8430 0.8410 0.8360 0.8260 0.8180
5.439145 0.8130 0.8040 0.8010 0.7940 0.7820
5.472000 0.7710 0.7620 0.7520 0.7410 0.7290
5.505145 0.7190 0.7090 0.6990 0.6790 0.6670
5.538000 0.6490 0.6290 0.6140 0.6010 0.5840
5.571145 0.5720 0.5370 0.5190 0.4990 0.4650
5.604000 0.4420 0.4200 0.4000 0.3820 0.3580
5.637145 0.3300 0.2530 0.2200 0.1600 0.1200
5.671000 0.0880 0.0530 0.0360 0.0330 0.0330
5.704145 0.0380 0.0410 0.0450 0.0450 0.0450
5.737000 0.0450 0.0450 0.0450 0.0450 0.0450
5.770145 0.0450 0.0450 0.0430 0.0380 0.0360
5.803000 0.0360 0.0360 0.0400 0.0500 0.0700
5.836145 0.1030 0.1360 0.1500 0.1850 0.2050
5.870000 0.2270 0.2420 0.2580 0.2800 0.2880
5.903145 0.3100 0.3350 0.3630 0.3800 0.4050
5.936000 0.4270 0.4490 0.4650 0.4820 0.5350
5.969145 0.5570 0.5740 0.5850 0.5990 0.6120
6.002000 0.6220 0.6320 0.6420 0.6520 0.6610
6.035145 0.6670 0.6760 0.6760 0.6760 0.6760
6.068000 0.6760 0.6770 0.6770 0.6790 0.6810
6.101145 0.6810 0.6810 0.6810 0.6810 0.6790
6.135000 0.6770 0.6790 0.6790 0.6790 0.6790
6.168145 0.6820 0.6820 0.6840 0.6940 0.7070
6.201000 0.7090 0.7120 0.7120 0.7120 0.7120
6.234145 0.7140 0.7160 0.7160 0.7190 0.7210
6.267000 0.7260 0.7290 0.7320 0.7340 0.7390
6.300145 0.7420 0.7440 0.7440 0.7440 0.7440
6.333000 0.7440 0.7440 0.7440 0.7440 0.7440
6.366145 0.7440 0.7440 0.7440 0.7440 0.7460
6.400000 0.7440 0.7440 0.7440 0.7440 0.7440
6.433145 0.7440 0.7420 0.7420 0.7420 0.7420
6.466000 0.7420 0.7420 0.7440 0.7440 0.7440
6.499145 0.7440 0.7420 0.7420 0.7410 0.7410
6.532000 0.7410 0.7410 0.7390 0.7390 0.7390
6.565145 0.7370 0.7290 0.7210 0.7160 0.7090
6.598000 0.7020 0.6940 0.6910 0.6890 0.6860
6.631145 0.6770 0.6670 0.6420 0.6310 0.6260
6.665000 0.6190 0.6010 0.5700 0.5450 0.5340
6.698145 0.5170 0.5050 0.4920 0.4600 0.3980
6.731000 0.3580 0.3450 0.3170 0.3020 0.2830
6.764145 0.2770 0.2730 0.2700 0.2320 0.2080
6.797000 0.1880 0.1480 0.1210 0.1110 0.1010
6.830145 0.0980 0.0930 0.0930 0.0930 0.0980
6.863000 0.0980 0.0830 0.0800 0.0750 0.0680
6.896145 0.0610 0.0530 0.0430 0.0330 0.0310
6.930000 0.0300 0.0310 0.0310 0.0330 0.0380
6.963145 0.0400 0.0430 0.0560 0.0650 0.0880
6.996000 0.1100 0.1330 0.1560 0.1600 0.1710
7.029145 0.1830 0.1860 0.1980 0.1980 0.2000
7.062000 0.2000 0.2000 0.2020 0.2020 0.2020
7.095145 0.2050 0.2120 0.2170 0.2220 0.2250
7.128000 0.2280 0.2280 0.2280 0.2280 0.2280
7.161145 0.2250 0.2200 0.2150 0.1950 0.1780
7.195000 0.1430 0.1300 0.1210 0.1110 0.1030
7.228145 0.0910 0.0860 0.0760 0.0730 0.0710
7.261000 0.0710 0.0710 0.0710 0.0710 0.0700
7.294145 0.0700 0.0700 0.0700 0.0700 0.0680
7.327000 0.0680 0.0680 0.0680 0.0680 0.0680
7.360145 0.0680 0.0660 0.0660 0.0680 0.0760
7.393000 0.0850 0.0980 0.1060 0.1150 0.1210
7.426145 0.1260 0.1310 0.1330 0.1330 0.1330
7.460000 0.1330 0.1330 0.1310 0.1260 0.1160
7.493145 0.1060 0.0980 0.0900 0.0900 0.0910
7.526000 0.0910 0.0910 0.0910 0.0910 0.0900
7.559145 0.0830 0.0810 0.0800 0.0800 0.0800
7.592000 0.0800 0.0800 0.0800 0.0780 0.0780
7.625145 0.0750 0.0680 0.0610 0.0580 0.0580
7.659000 0.0560 0.0560 0.0560 0.0560 0.0560
7.692145 0.0560 0.0560 0.0560 0.0530 0.0530
7.725000 0.0510 0.0510 0.0530 0.0530 0.0530
7.758145 0.0530 0.0510 0.0510 0.0480 0.0430
7.791000 0.0430 0.0400 0.0400 0.0400 0.0400
7.824145 0.0400 0.0400 0.0400 0.0410 0.0400
7.857000 0.0400 0.0400 0.0400 0.0400 0.0400
7.890145 0.0400 0.0400 0.0400 0.0400 0.0400
7.924000 0.0380 0.0380 0.0360 0.0360 0.0350
7.957145 0.0350 0.0330 0.0330 0.0330 0.0330
7.990000 0.0330 0.0330 0.0330 0.0330 0.0330
8.023145 0.0330 0.0330 0.0330 0.0330 0.0330
8.056000 0.0330 0.0330 0.0330 0.0330 0.0360
8.089145 0.0380 0.0380 0.0380 0.0380 0.0380
8.122000 0.0380 0.0380 0.0380 0.0380 0.0400
8.155145 0.0400 0.0400 0.0380 0.0380 0.0380
8.189000 0.0400 0.0400 0.0380 0.0380 0.0380
8.222145 0.0380 0.0380 0.0380 0.0380 0.0380
8.255000 0.0380 0.0380 0.0380 0.0380 0.0380
8.288145 0.0360 0.0350 0.0330 0.0330 0.0330
8.321000 0.0330 0.0330 0.0330 0.0310 0.0310
8.354145 0.0310 0.0310 0.0310 0.0310 0.0310
8.387000 0.0310 0.0310 0.0310 0.0310 0.0310
8.420145 0.0300 0.0300 0.0300 0.0300 0.0300
8.454000 0.0310 0.0300 0.0300 0.0300 0.0300
8.487145 0.0300 0.0300 0.0310 0.0330 0.0330
8.520000 0.0330 0.0330 0.0330 0.0310 0.0310
8.553145 0.0330 0.0510 0.0560 0.0560 0.0410
8.586000 0.0300 0.0250 0.0250 0.0250 0.0250
8.619145 0.0250 0.0250 0.0250 0.0250 0.0250
8.652000 0.0250 0.0250 0.0250 0.0250 0.0250
8.685145 0.0280 0.0300 0.0310 0.0310 0.0310
8.719000 0.0310 0.0310 0.0330 0.0330 0.0310
8.752145 0.0310 0.0330 0.0330 0.0310 0.0300
8.785000 0.0300 0.0300 0.0300 0.0300 0.0300
8.818145 0.0300 0.0300 0.0300 0.0300 0.0300
8.851000 0.0300 0.0300 0.0300 0.0300 0.0300
8.884145 0.0300 0.0300 0.0300 0.0300 0.0280
8.917000 0.0280 0.0280 0.0280 0.0280 0.0280
8.950145 0.0280 0.0280 0.0280 0.0280 0.0280
8.984000 0.0280 0.0280 0.0280 0.0260 0.0280
9.017145 0.0280 0.0280 0.0280 0.0280 0.0280
9.050000 0.0280 0.0280 0.0280 0.0280 0.0280
9.083145 0.0280 0.0280 0.0280 0.0280 0.0300
9.116000 0.0300 0.0280 0.0280 0.0280 0.0280
9.149145 0.0280 0.0280 0.0280 0.0280 0.0300
9.182000 0.0300 0.0300 0.0280 0.0280 0.0300
9.215145 0.0300 0.0300 0.0300 0.0280 0.0280
9.249000 0.0280 0.0300 0.0300 0.0300 0.0300
9.282145 0.0300 0.0300 0.0300 0.0310 0.0330
9.315000 0.0330 0.0330 0.0330 0.0330 0.0330
9.348145 0.0330 0.0360 0.0410 0.0480 0.0530
9.381000 0.0580 0.0680 0.0800 0.0860 0.0900
9.414145 0.0930 0.0930 0.0960 0.0980 0.1000
9.448000 0.1010 0.1050 0.1080 0.1130 0.1180
9.481145 0.1210 0.1210 0.1210 0.1210 0.1210
9.514000 0.1230 0.1230 0.1230 0.1230 0.1250
9.547145 0.1280 0.1310 0.1360 0.1450 0.1530
9.580000 0.1550 0.1580 0.1610 0.1630 0.1630
9.613145 0.1630 0.1630 0.1630 0.1630 0.1650
9.646000 0.1630 0.1630 0.1630 0.1630 0.1630
9.679145 0.1650 0.1650 0.1650 0.1630 0.1630
9.713000 0.1610 0.1600 0.1560 0.1510 0.1480
9.746145 0.1460 0.1460 0.1460 0.1450 0.1400
9.779000 0.1350 0.1300 0.1250 0.1110 0.1110
9.812145 0.1100 0.1100 0.1100 0.1100 0.1100
9.845000 0.1100 0.1100 0.1100 0.1100 0.1110
9.878145 0.1100 0.1100 0.1100 0.1100 0.1100
9.911000 0.1100 0.1100 0.1100 0.1100 0.1100
9.944145 0.1100 0.1100 0.1100 0.1110 0.1100
9.978000 0.1100 0.1100 0.1110 0.1130 0.1130
10.011145 0.1150 0.1210 0.1210 0.1210 0.1210
10.044000 0.1210 0.1230 0.1250 0.1250 0.1280
10.077145 0.1280 0.1300 0.1350 0.1380 0.1410
10.110000 0.1480 0.1500 0.1600 0.1610 0.1650
10.143145 0.1700 0.1730 0.1780 0.1860 0.1900
10.176000 0.1930 0.2000 0.2020 0.2100 0.2170
10.209145 0.2230 0.2300 0.2370 0.2450 0.2530
10.243000 0.2620 0.2700 0.2750 0.2800 0.2880
10.276145 0.3000 0.3020 0.3050 0.3120 0.3150
10.309000 0.3220 0.3250 0.3300 0.3320 0.3350
10.342145 0.3420 0.3500 0.3570 0.3630 0.3670
10.375000 0.3730 0.3770 0.3880 0.3900 0.4000
10.408145 0.4050 0.4120 0.4240 0.4250 0.4340
10.441000 0.4400 0.4450 0.4500 0.4570 0.4620
10.474145 0.4690 0.4750 0.4800 0.4870 0.4920
10.508000 0.5000 0.5050 0.5140 0.5170 0.5220
10.541145 0.5240 0.5240 0.5240 0.5240 0.5250
10.574000 0.5250 0.5270 0.5290 0.5340 0.5390
10.607145 0.5450 0.5500 0.5520 0.5550 0.5570
10.640000 0.5600 0.5620 0.5620 0.5640 0.5650
10.673145 0.5670 0.5700 0.5720 0.5740 0.5750
10.706000 0.5750 0.5770 0.5800 0.5820 0.5900
10.739145 0.5920 0.5920 0.5920 0.5920 0.5920
10.773000 0.5920 0.5940 0.5940 0.5940 0.5940
10.806145 0.6010 0.6040 0.6060 0.6060 0.6060
10.839000 0.6040 0.6040 0.6040 0.6020 0.5990
10.872145 0.5920 0.5850 0.5820 0.5800 0.5790
10.905000 0.5770 0.5770 0.5750 0.5750 0.5740
10.938145 0.5740 0.5690 0.5650 0.5640 0.5620
10.971000 0.5620 0.5600 0.5550 0.5540 0.5490
11.004145 0.5350 0.5300 0.5240 0.5170 0.5120
11.038000 0.5120 0.5100 0.5100 0.5100 0.5090
11.071145 0.5020 0.5000 0.4990 0.4970 0.4990
11.104000 0.4990 0.5000 0.5000 0.5000 0.5020
11.137145 0.5020 0.5020 0.5000 0.5000 0.5000
11.170000 0.5000 0.5000 0.5000 0.5000 0.5000
11.203145 0.5000 0.5000 0.4990 0.4990 0.4970
11.236000 0.4970 0.4920 0.4850 0.4840 0.4800
11.269145 0.4750 0.4740 0.4720 0.4720 0.4720
11.303000 0.4720 0.4720 0.4720 0.4720 0.4720
11.336145 0.4720 0.4720 0.4720 0.4720 0.4720
11.369000 0.4720 0.4740 0.4750 0.4790 0.4840
11.402145 0.4890 0.4990 0.5070 0.5120 0.5140
11.435000 0.5200 0.5250 0.5300 0.5350 0.5400
11.468145 0.5450 0.5500 0.5540 0.5550 0.5570
11.502000 0.5620 0.5650 0.5700 0.5750 0.5820
11.535145 0.5840 0.5850 0.5850 0.5850 0.5850
11.568000 0.5850 0.5850 0.5850 0.5850 0.5850
11.601145 0.5850 0.5850 0.5850 0.5840 0.5750
11.634000 0.5720 0.5650 0.5540 0.5500 0.5400
11.667145 0.5320 0.5220 0.5140 0.5040 0.4970
11.700000 0.4900 0.4820 0.4740 0.4640 0.4520
11.733145 0.4400 0.4270 0.4200 0.4070 0.4020
11.767000 0.4000 0.4000 0.3980 0.3970 0.3970
11.800145 0.3930 0.3920 0.3900 0.3900 0.3880
11.833000 0.3870 0.3870 0.3870 0.3870 0.3870
11.866145 0.3870 0.3870 0.3870 0.3870 0.3880
11.899000 0.3880 0.3880 0.3900 0.3920 0.3930
11.932145 0.4000 0.4070 0.4200 0.4270 0.4340
11.965000 0.4370 0.4440 0.4540 0.4550 0.4650
11.998145 0.4740 0.4820 0.4940 0.5090 0.5150
12.032000 0.5190 0.5250 0.5340 0.5500 0.5520
12.065145 0.5590 0.5670 0.5740 0.5800 0.5840
12.098000 0.5900 0.6020 0.6060 0.6140 0.6210
12.131145 0.6290 0.6340 0.6390 0.6410 0.6410
12.164000 0.6420 0.6490 0.6590 0.6710 0.6810
12.197145 0.6840 0.6920 0.6970 0.7020 0.7060
12.230000 0.7070 0.7110 0.7160 0.7190 0.7220
12.263145 0.7240 0.7290 0.7340 0.7340 0.7360
12.297000 0.7360 0.7370 0.7410 0.7420 0.7420
12.330145 0.7420 0.7420 0.7420 0.7420 0.7440
12.363000 0.7440 0.7460 0.7470 0.7510 0.7520
12.396145 0.7540 0.7540 0.7540 0.7560 0.7560
12.429000 0.7560 0.7560 0.7570 0.7570 0.7590
12.462145 0.7590 0.7610 0.7620 0.7660 0.7690
12.495000 0.7690 0.7690 0.7690 0.7710 0.7710
12.528145 0.7740 0.7790 0.7820 0.7840 0.7840
12.562000 0.7840 0.7840 0.7840 0.7840 0.7860
12.595145 0.7840 0.7860 0.7860 0.7840 0.7840
12.628000 0.7840 0.7840 0.7840 0.7840 0.7840
12.661145 0.7840 0.7840 0.7840 0.7840 0.7840
12.694000 0.7860 0.7860 0.7860 0.7860 0.7860
12.727145 0.7860 0.7860 0.7870 0.7870 0.7870
12.760000 0.7870 0.7870 0.7870 0.7890 0.7920
12.793145 0.7940 0.7960 0.7960 0.7970 0.7970
12.827000 0.7970 0.7970 0.7970 0.7970 0.7970
12.860145 0.7970 0.7970 0.7970 0.7970 0.7960
12.893000 0.7960 0.7960 0.7960 0.7960 0.7960
12.926145 0.7960 0.7970 0.7970 0.7960 0.7960
12.959000 0.7960 0.7960 0.7960 0.7960 0.7970
12.992145 0.7970 0.7970 0.7970 0.7970 0.7960
13.025000 0.7960 0.7960 0.7940 0.7890 0.7870
13.058145 0.7840 0.7840 0.7840 0.7840 0.7840
13.092000 0.7820 0.7820 0.7810 0.7810 0.7810
13.125145 0.7810 0.7790 0.7790 0.7790 0.7790
13.158000 0.7790 0.7770 0.7720 0.7720 0.7710
13.191145 0.7720 0.7720 0.7720 0.7710 0.7710
13.224000 0.7710 0.7690 0.7690 0.7690 0.7670
13.257145 0.7670 0.7640 0.7610 0.7570 0.7560
13.291000 0.7560 0.7570 0.7560 0.7560 0.7560
13.324145 0.7560 0.7560 0.7560 0.7540 0.7540
13.357000 0.7520 0.7520 0.7510 0.7470 0.7470
13.390145 0.7460 0.7460 0.7440 0.7440 0.7420
13.423000 0.7390 0.7340 0.7310 0.7270 0.7240
13.456145 0.7220 0.7220 0.7210 0.7190 0.7190
13.489000 0.7190 0.7160 0.7140 0.7060 0.7040
13.522145 0.7020 0.7020 0.6970 0.6960 0.6920
13.556000 0.6910 0.6910 0.6870 0.6840 0.6820
13.589145 0.6810 0.6790 0.6790 0.6810 0.6810
13.622000 0.6810 0.6810 0.6790 0.6790 0.6790
13.655145 0.6790 0.6790 0.6790 0.6790 0.6760
13.688000 0.6760 0.6760 0.6720 0.6710 0.6690
13.721145 0.6690 0.6690 0.6690 0.6690 0.6670
13.754000 0.6670 0.6670 0.6690 0.6670 0.6660
13.787145 0.6660 0.6660 0.6660 0.6660 0.6660
13.821000 0.6660 0.6660 0.6660 0.6660 0.6610
13.854145 0.6570 0.6560 0.6560 0.6560 0.6560
13.887000 0.6560 0.6560 0.6540 0.6540 0.6520
13.920145 0.6520 0.6520 0.6520 0.6510 0.6470
13.953000 0.6460 0.6420 0.6410 0.6390 0.6390
13.986145 0.6390 0.6370 0.6370 0.6320 0.6310
14.019000 0.6310 0.6310 0.6310 0.6310 0.6310
14.052145 0.6310 0.6310 0.6310 0.6310 0.6310
14.086000 0.6320 0.6320 0.6320 0.6320 0.6340
14.119145 0.6370 0.6370 0.6390 0.6410 0.6420
14.152000 0.6420 0.6440 0.6460 0.6490 0.6520
14.185145 0.6560 0.6590 0.6620 0.6660 0.6670
14.218000 0.6670 0.6660 0.6660 0.6660 0.6670
14.251145 0.6690 0.6720 0.6770 0.6810 0.6810
14.284000 0.6810 0.6810 0.6810 0.6820 0.6820
14.317145 0.6820 0.6820 0.6820 0.6840 0.6840
14.351000 0.6860 0.6890 0.6910 0.6910 0.6920
14.384145 0.6920 0.6940 0.6960 0.6970 0.6960
14.417000 0.6960 0.6960 0.6960 0.6960 0.6970
14.450145 0.6970 0.6970 0.6970 0.6990 0.7020
14.483000 0.7020 0.7020 0.7020 0.7020 0.7020
14.516145 0.7020 0.7020 0.7020 0.7040 0.7040
14.549000 0.7060 0.7060 0.7040 0.7040 0.7060
14.582145 0.7060 0.7070 0.7060 0.7060 0.7070
14.616000 0.7060 0.7060 0.7060 0.7060 0.7060
14.649145 0.7060 0.7060 0.7060 0.7060 0.7060
14.682000 0.7060 0.7060 0.7060 0.7040 0.7040
14.715145 0.7040 0.7040 0.7040 0.7020 0.7020
14.748000 0.7020 0.7020 0.7020 0.7010 0.6960
14.781145 0.6960 0.6960 0.6960 0.6960 0.6960
14.814000 0.6960 0.6960 0.6960 0.6960 0.6960
14.847145 0.6940 0.6920 0.6920 0.6920 0.6920
14.881000 0.6920 0.6920 0.6920 0.6940 0.6940
14.914145 0.6920 0.6910 0.6870 0.6870 0.6820
14.947000 0.6820 0.6820 0.6820 0.6820 0.6820
14.980145 0.6820 0.6810 0.6820 0.6820 0.6820
15.013000 0.6810 0.6770 0.6760 0.6720 0.6710
15.046145 0.6710 0.6690 0.6690 0.6690 0.6690
15.080000 0.6670 0.6670 0.6670 0.6660 0.6640
15.113145 0.6640 0.6620 0.6590 0.6570 0.6570
15.146000 0.6570 0.6570 0.6560 0.6560 0.6560
15.179145 0.6560 0.6560 0.6560 0.6560 0.6540
15.212000 0.6520 0.6470 0.6470 0.6460 0.6440
15.245145 0.6440 0.6440 0.6420 0.6420 0.6410
15.278000 0.6410 0.6410 0.6410 0.6410 0.6410
15.311145 0.6390 0.6370 0.6360 0.6340 0.6320
15.345000 0.6320 0.6320 0.6320 0.6320 0.6320
15.378145 0.6320 0.6320 0.6320 0.6340 0.6310
15.411000 0.6290 0.6270 0.6270 0.6270 0.6270
15.444145 0.6270 0.6270 0.6270 0.6270 0.6270
15.477000 0.6290 0.6290 0.6270 0.6270 0.6270
15.510145 0.6270 0.6270 0.6260 0.6240 0.6240
15.543000 0.6220 0.6210 0.6190 0.6190 0.6170
15.576145 0.6170 0.6170 0.6170 0.6170 0.6170
15.610000 0.6190 0.6170 0.6170 0.6170 0.6170
15.643145 0.6170 0.6170 0.6170 0.6170 0.6170
15.676000 0.6170 0.6170 0.6170 0.6170 0.6170
15.709145 0.6170 0.6160 0.6160 0.6160 0.6160
15.742000 0.6160 0.6140 0.6120 0.6110 0.6110
15.775145 0.6120 0.6120 0.6110 0.6070 0.6070
15.808000 0.6070 0.6060 0.6060 0.6070 0.6070
15.841145 0.6070 0.6070 0.6070 0.6070 0.6070
15.875000 0.6070 0.6070 0.6070 0.6070 0.6060
15.908145 0.6060 0.6060 0.6060 0.6070 0.6060
15.941000 0.6060 0.6060 0.6060 0.6070 0.6070
15.974145 0.6070 0.6070 0.6070 0.6060 0.6070
##END=
