##TITLE=BENZOIC ACID, p-[N-(3-CHLORO-2-HYDROXYPROPYL)ACETAMIDO]-, ETHYL ESTER
##JCAMP-DX=4.24
##DATA TYPE=INFRARED SPECTRUM
##CLASS=COBLENTZ III
##ORIGIN=SOUTHERN RESEARCH INST.
##OWNER=COBLENTZ SOCIETY
Collection (C) 2018 copyright by the U.S. Secretary of Commerce
on behalf of the United States of America. All rights reserved.
##DATE=1966/06/06
##NAMES=ethyl 4-[acetyl(3-chloro-2-hydroxypropyl)amino]benzoate
##MOLFORM=C14 H18 Cl N O4
##SOURCE REFERENCE=COBLENTZ NO. 9946
##$NIST ID=B6009946
##$NIST SOURCE=COBLENTZ
##$NIST IMAGE=cob9946
##SPECTROMETER/DATA SYSTEM=PERKIN-ELMER 521 (GRATING)
##INSTRUMENT PARAMETERS=FILTER CHANGES AT 3130, 2475, 2000, 1150, 700, 410 CM^-^1, GRATING CHANGES AT 2000, 620 CM^-^1
##STATE=LIQUID (NEAT)
##PATH LENGTH=CAPILLARY
##SAMPLING PROCEDURE=TRANSMISSION
##RESOLUTION=4
##DATA PROCESSING=DIGITIZED BY NIST FROM HARD COPY
##XUNITS=1/CM
##YUNITS=TRANSMITTANCE
##XFACTOR=1.000000
##YFACTOR=1
##DELTAX=001.606218
##FIRSTX=241.399
##LASTX=3813.63
##FIRSTY=0.63
##MAXX=3813.63
##MINX=241.399
##MAXY=0.895
##MINY=0.088
##NPOINTS=2225
##XYDATA=(X++(Y..Y))
241.399000 0.6300 0.6430 0.6470 0.6510 0.6530
249.433701 0.6550 0.6580 0.6620 0.6680 0.6750
257.461000 0.6810 0.6860 0.6890 0.6930 0.6960
265.495701 0.6990 0.7020 0.7050 0.7080 0.7120
273.523000 0.7160 0.7200 0.7230 0.7240 0.7240
281.557701 0.7250 0.7270 0.7280 0.7290 0.7300
289.585000 0.7310 0.7310 0.7320 0.7320 0.7310
297.619701 0.7300 0.7290 0.7290 0.7270 0.7270
305.648000 0.7250 0.7220 0.7180 0.7140 0.7090
313.682701 0.7040 0.6980 0.6930 0.6890 0.6850
321.710000 0.6820 0.6790 0.6730 0.6720 0.6730
329.744701 0.6740 0.6760 0.6860 0.6930 0.7000
337.772000 0.7050 0.7090 0.7130 0.7150 0.7170
345.806701 0.7190 0.7200 0.7230 0.7240 0.7240
353.834000 0.7210 0.7170 0.7120 0.7040 0.6960
361.868701 0.6880 0.6800 0.6730 0.6660 0.6620
369.896000 0.6550 0.6470 0.6450 0.6470 0.6490
377.930701 0.6520 0.6560 0.6600 0.6630 0.6660
385.959000 0.6670 0.6690 0.6710 0.6710 0.6710
393.993701 0.6710 0.6700 0.6700 0.6690 0.6690
402.021000 0.6660 0.6610 0.6550 0.6490 0.6430
410.055701 0.6400 0.6390 0.6380 0.6360 0.6320
418.083000 0.6310 0.6320 0.6350 0.6410 0.6430
426.117701 0.6460 0.6470 0.6490 0.6500 0.6500
434.145000 0.6510 0.6500 0.6480 0.6470 0.6440
442.179701 0.6430 0.6410 0.6400 0.6390 0.6360
450.207000 0.6350 0.6320 0.6300 0.6270 0.6200
458.241701 0.6200 0.6190 0.6200 0.6200 0.6240
466.269000 0.6270 0.6310 0.6370 0.6390 0.6390
474.303701 0.6390 0.6390 0.6360 0.6330 0.6290
482.332000 0.6250 0.6220 0.6180 0.6140 0.6090
490.366701 0.6040 0.6000 0.5940 0.5880 0.5810
498.394000 0.5730 0.5650 0.5640 0.5640 0.5650
506.428701 0.5690 0.5750 0.5800 0.5850 0.5890
514.456000 0.6120 0.6430 0.6550 0.6620 0.6680
522.490701 0.6720 0.6740 0.6760 0.6770 0.6770
530.518000 0.6780 0.6780 0.6780 0.6780 0.6780
538.552701 0.6770 0.6760 0.6760 0.6750 0.6740
546.580000 0.6730 0.6720 0.6700 0.6700 0.6690
554.614701 0.6630 0.6550 0.6510 0.6510 0.6490
562.643000 0.6490 0.6490 0.6490 0.6480 0.6480
570.677701 0.6470 0.6470 0.6450 0.6450 0.6440
578.705000 0.6430 0.6390 0.6340 0.6270 0.6200
586.739701 0.6130 0.6040 0.5940 0.5790 0.5590
594.767000 0.5330 0.4820 0.4800 0.4820 0.5150
602.801701 0.5540 0.5770 0.5780 0.5810 0.5820
610.829000 0.5820 0.5910 0.5960 0.5970 0.5980
618.863701 0.5970 0.5950 0.5930 0.5900 0.5870
626.891000 0.5860 0.5870 0.5910 0.6160 0.6300
634.925701 0.6450 0.6560 0.6760 0.6820 0.6830
642.953000 0.6820 0.6780 0.6760 0.6740 0.6740
650.987701 0.6740 0.6740 0.6740 0.6760 0.6770
659.016000 0.6780 0.6810 0.6830 0.6850 0.6870
667.050701 0.6890 0.6900 0.6920 0.6930 0.6930
675.078000 0.6930 0.6920 0.6890 0.6730 0.6310
683.112701 0.5890 0.5030 0.4830 0.4630 0.4530
691.140000 0.4430 0.4050 0.3650 0.3640 0.3640
699.174701 0.3710 0.3780 0.4300 0.4760 0.5000
707.202000 0.5470 0.6420 0.6700 0.6990 0.7120
715.236701 0.7200 0.7260 0.7270 0.7280 0.7290
723.264000 0.7260 0.7200 0.7100 0.6960 0.6820
731.298701 0.6700 0.6570 0.6470 0.6370 0.6220
739.326000 0.6120 0.6060 0.6020 0.6000 0.6000
747.360701 0.5990 0.5960 0.5920 0.5870 0.5810
755.389000 0.5170 0.4680 0.4180 0.3440 0.2710
763.423701 0.1990 0.1970 0.1980 0.2130 0.2370
771.451000 0.3090 0.3640 0.5230 0.5940 0.6620
779.485701 0.6850 0.6860 0.6840 0.6830 0.6800
787.513000 0.6770 0.6740 0.6700 0.6670 0.6650
795.547701 0.6630 0.6630 0.6640 0.6680 0.6710
803.575000 0.6740 0.6770 0.6780 0.6770 0.6750
811.609701 0.6740 0.6690 0.6660 0.6640 0.6470
819.637000 0.6390 0.6310 0.6190 0.6140 0.6060
827.671701 0.5400 0.4680 0.4340 0.3990 0.3980
835.699000 0.3990 0.4080 0.4180 0.4870 0.5030
843.733701 0.5190 0.5240 0.5240 0.5230 0.5220
851.762000 0.5210 0.5200 0.5200 0.5210 0.5220
859.796701 0.5320 0.5410 0.5500 0.5580 0.5690
867.824000 0.5810 0.5960 0.6400 0.6690 0.6890
875.858701 0.6950 0.6980 0.7170 0.7400 0.7500
883.886000 0.7550 0.7550 0.7590 0.7630 0.7670
891.920701 0.7710 0.7750 0.7790 0.7830 0.7860
899.948000 0.7860 0.7870 0.7890 0.7890 0.7820
907.982701 0.7750 0.7680 0.7630 0.7600 0.7450
916.010000 0.7430 0.7380 0.7200 0.6700 0.6460
924.044701 0.6210 0.6100 0.5960 0.5840 0.5700
932.073000 0.5560 0.5540 0.5550 0.5680 0.6050
940.107701 0.6180 0.6240 0.6470 0.6540 0.6600
948.135000 0.6640 0.6680 0.6700 0.6700 0.6660
956.169701 0.6570 0.6480 0.6420 0.6390 0.6360
964.197000 0.6310 0.6270 0.6220 0.6110 0.6020
972.231701 0.5960 0.5930 0.5900 0.5890 0.5890
980.259000 0.5880 0.5850 0.5820 0.5770 0.5700
988.293701 0.5600 0.5460 0.5270 0.5040 0.4760
996.321000 0.4590 0.4410 0.4000 0.3880 0.3710
1004.355701 0.2880 0.2830 0.2780 0.2670 0.2380
1012.383000 0.2360 0.2370 0.2510 0.2800 0.2880
1020.417701 0.2880 0.2860 0.2860 0.2820 0.2790
1028.446000 0.2590 0.2480 0.2410 0.2360 0.2320
1036.480701 0.2240 0.2160 0.2150 0.2160 0.2230
1044.508000 0.2310 0.2420 0.2550 0.2830 0.2960
1052.542701 0.3310 0.3440 0.3590 0.3720 0.3820
1060.570000 0.3920 0.4180 0.4230 0.4230 0.4220
1068.604701 0.4220 0.4200 0.4180 0.4130 0.3650
1076.632000 0.3170 0.2940 0.2700 0.2570 0.2440
1084.666701 0.2320 0.2200 0.2070 0.1940 0.1820
1092.694000 0.1700 0.1570 0.1450 0.1440 0.1450
1100.728701 0.1460 0.1510 0.1570 0.1620 0.1680
1108.756000 0.1740 0.1790 0.1830 0.1930 0.2010
1116.790701 0.2120 0.2200 0.2950 0.3020 0.3070
1124.819000 0.3340 0.3600 0.3830 0.4050 0.4250
1132.853701 0.4410 0.4690 0.4790 0.4980 0.5010
1140.881000 0.5010 0.4950 0.4800 0.4670 0.4610
1148.915701 0.4530 0.4390 0.4260 0.4120 0.3990
1156.943000 0.3270 0.2550 0.2110 0.1680 0.1240
1164.977701 0.1230 0.1240 0.1350 0.1450 0.1550
1173.005000 0.1660 0.1760 0.1820 0.1890 0.2000
1181.039701 0.2130 0.2250 0.2360 0.2470 0.2560
1189.067000 0.2650 0.2790 0.2850 0.2890 0.2980
1197.101701 0.2980 0.2880 0.2810 0.2700 0.2580
1205.130000 0.2440 0.2320 0.1930 0.1550 0.1470
1213.164701 0.1380 0.1290 0.1210 0.1200 0.1200
1221.192000 0.1210 0.1240 0.1250 0.1270 0.1290
1229.226701 0.1310 0.1330 0.1350 0.1370 0.1390
1237.254000 0.1410 0.1430 0.1450 0.1470 0.1470
1245.288701 0.1460 0.1410 0.1370 0.1320 0.1280
1253.316000 0.1240 0.1190 0.1140 0.1080 0.1040
1261.350701 0.1010 0.0980 0.0930 0.0910 0.0910
1269.378000 0.0910 0.0920 0.0940 0.1000 0.1030
1277.412701 0.1050 0.1080 0.1120 0.1190 0.1250
1285.440000 0.1340 0.1430 0.1480 0.1600 0.1840
1293.474701 0.2000 0.2060 0.2120 0.2130 0.2130
1301.503000 0.2130 0.2130 0.2130 0.2130 0.2170
1309.537701 0.2240 0.2320 0.2540 0.2850 0.2860
1317.565000 0.2980 0.3100 0.3210 0.3250 0.3270
1325.599701 0.3260 0.3150 0.3100 0.3060 0.3020
1333.627000 0.2970 0.2830 0.2690 0.2680 0.2670
1341.661701 0.2800 0.2860 0.2920 0.2960 0.2960
1349.689000 0.2950 0.2830 0.2710 0.2670 0.2130
1357.723701 0.1860 0.1620 0.1390 0.1390 0.1390
1365.751000 0.1470 0.1510 0.1600 0.1740 0.1910
1373.785701 0.2080 0.2240 0.2370 0.2440 0.2440
1381.813000 0.2450 0.2460 0.2480 0.2490 0.2510
1389.847701 0.2590 0.2680 0.2860 0.2900 0.2950
1397.876000 0.3000 0.3040 0.3090 0.3130 0.3170
1405.910701 0.3200 0.3220 0.3230 0.3240 0.3240
1413.938000 0.3250 0.3250 0.3250 0.3250 0.3250
1421.972701 0.3250 0.3250 0.3250 0.3270 0.3270
1430.000000 0.3280 0.3280 0.3270 0.3260 0.3250
1438.034701 0.3290 0.3320 0.3380 0.3440 0.3520
1446.062000 0.3600 0.3680 0.3740 0.3800 0.3830
1454.096701 0.3790 0.3760 0.3750 0.3750 0.3830
1462.124000 0.3890 0.4060 0.4200 0.4280 0.4290
1470.158701 0.4290 0.4300 0.4310 0.4750 0.4880
1478.187000 0.4970 0.5060 0.5070 0.5070 0.5050
1486.221701 0.5000 0.4970 0.4940 0.4910 0.4840
1494.249000 0.4770 0.4680 0.4570 0.4450 0.4200
1502.283701 0.4030 0.3870 0.3650 0.3450 0.3430
1510.311000 0.3370 0.3300 0.3250 0.2890 0.2530
1518.345701 0.2350 0.2170 0.1850 0.1830 0.1820
1526.373000 0.1820 0.1830 0.1900 0.1970 0.2030
1534.407701 0.2200 0.2360 0.2810 0.3080 0.3370
1542.435000 0.3680 0.3980 0.4270 0.4680 0.5430
1550.469701 0.5650 0.5740 0.5890 0.5940 0.5950
1558.497000 0.5950 0.5900 0.5850 0.5760 0.5580
1566.531701 0.5420 0.5280 0.5150 0.5030 0.4900
1574.560000 0.4750 0.4660 0.4570 0.4370 0.4100
1582.594701 0.3790 0.3420 0.2980 0.2710 0.2440
1590.622000 0.1820 0.1670 0.1470 0.1270 0.1080
1598.656701 0.0980 0.0890 0.0880 0.0880 0.0990
1606.684000 0.1200 0.1350 0.1510 0.1660 0.1820
1614.718701 0.1970 0.2100 0.2370 0.3080 0.3520
1622.746000 0.3750 0.3950 0.4000 0.4020 0.4010
1630.780701 0.3980 0.3950 0.3860 0.3660 0.3470
1638.808000 0.3290 0.3140 0.3000 0.2870 0.2820
1646.842701 0.2750 0.2650 0.2560 0.2480 0.2400
1654.870000 0.2330 0.2280 0.2220 0.2170 0.2130
1662.904701 0.2080 0.2040 0.2000 0.1960 0.1910
1670.933000 0.1870 0.1820 0.1740 0.1730 0.1700
1678.967701 0.1660 0.1620 0.1580 0.1550 0.1480
1686.995000 0.1400 0.1340 0.1310 0.1270 0.1230
1695.029701 0.1200 0.1180 0.1160 0.1160 0.1160
1703.057000 0.1180 0.1200 0.1240 0.1270 0.1310
1711.091701 0.1340 0.1380 0.1430 0.1430 0.1450
1719.119000 0.1470 0.1510 0.1540 0.1560 0.1630
1727.153701 0.1640 0.1630 0.1560 0.1470 0.1390
1735.181000 0.1300 0.1230 0.1180 0.1160 0.1120
1743.215701 0.1120 0.1120 0.1200 0.1390 0.1540
1751.244000 0.1660 0.1790 0.1950 0.2160 0.3020
1759.278701 0.3560 0.4070 0.4960 0.5340 0.5670
1767.306000 0.5960 0.6200 0.6530 0.6620 0.6660
1775.340701 0.6780 0.6850 0.7070 0.7160 0.7220
1783.368000 0.7280 0.7290 0.7330 0.7390 0.7460
1791.402701 0.7510 0.7550 0.7590 0.7630 0.7670
1799.430000 0.7700 0.7740 0.7770 0.7810 0.7850
1807.464701 0.7880 0.7920 0.7950 0.7980 0.8020
1815.492000 0.8060 0.8090 0.8120 0.8140 0.8210
1823.526701 0.8230 0.8260 0.8290 0.8310 0.8330
1831.554000 0.8350 0.8370 0.8380 0.8400 0.8410
1839.588701 0.8420 0.8440 0.8440 0.8440 0.8440
1847.617000 0.8440 0.8440 0.8440 0.8440 0.8440
1855.651701 0.8440 0.8430 0.8420 0.8410 0.8410
1863.679000 0.8400 0.8390 0.8390 0.8390 0.8390
1871.713701 0.8390 0.8390 0.8390 0.8400 0.8400
1879.741000 0.8400 0.8400 0.8400 0.8400 0.8390
1887.775701 0.8390 0.8390 0.8380 0.8380 0.8370
1895.803000 0.8360 0.8350 0.8350 0.8350 0.8350
1903.837701 0.8360 0.8370 0.8370 0.8380 0.8390
1911.865000 0.8400 0.8410 0.8410 0.8410 0.8410
1919.899701 0.8420 0.8420 0.8430 0.8430 0.8440
1927.927000 0.8440 0.8440 0.8440 0.8450 0.8460
1935.961701 0.8460 0.8480 0.8480 0.8480 0.8490
1943.990000 0.8490 0.8500 0.8510 0.8510 0.8520
1952.024701 0.8520 0.8520 0.8530 0.8540 0.8540
1960.052000 0.8550 0.8550 0.8560 0.8560 0.8570
1968.086701 0.8570 0.8600 0.8610 0.8630 0.8640
1976.114000 0.8660 0.8680 0.8680 0.8710 0.8790
1984.148701 0.8790 0.8790 0.8770 0.8730 0.8690
1992.176000 0.8680 0.8670 0.8650 0.8630 0.8620
2000.210701 0.8610 0.8620 0.8630 0.8640 0.8650
2008.238000 0.8660 0.8670 0.8680 0.8690 0.8700
2016.272701 0.8710 0.8710 0.8720 0.8720 0.8720
2024.301000 0.8730 0.8730 0.8740 0.8750 0.8750
2032.335701 0.8760 0.8760 0.8760 0.8770 0.8770
2040.363000 0.8770 0.8780 0.8780 0.8790 0.8790
2048.397701 0.8790 0.8790 0.8790 0.8790 0.8790
2056.425000 0.8790 0.8790 0.8800 0.8810 0.8820
2064.459701 0.8830 0.8840 0.8850 0.8850 0.8850
2072.487000 0.8850 0.8860 0.8860 0.8860 0.8860
2080.521701 0.8860 0.8860 0.8860 0.8850 0.8850
2088.549000 0.8840 0.8840 0.8830 0.8830 0.8810
2096.583701 0.8790 0.8790 0.8770 0.8760 0.8750
2104.611000 0.8750 0.8750 0.8740 0.8730 0.8720
2112.645701 0.8720 0.8730 0.8730 0.8740 0.8750
2120.674000 0.8750 0.8750 0.8760 0.8770 0.8780
2128.708701 0.8790 0.8790 0.8800 0.8800 0.8810
2136.736000 0.8820 0.8830 0.8840 0.8860 0.8870
2144.770701 0.8880 0.8890 0.8900 0.8900 0.8910
2152.798000 0.8910 0.8910 0.8910 0.8920 0.8920
2160.832701 0.8930 0.8940 0.8940 0.8950 0.8950
2168.860000 0.8950 0.8950 0.8950 0.8950 0.8950
2176.894701 0.8950 0.8950 0.8950 0.8950 0.8950
2184.922000 0.8950 0.8950 0.8950 0.8950 0.8950
2192.956701 0.8940 0.8940 0.8940 0.8940 0.8930
2200.984000 0.8930 0.8930 0.8930 0.8930 0.8930
2209.018701 0.8920 0.8920 0.8920 0.8910 0.8910
2217.047000 0.8910 0.8910 0.8910 0.8910 0.8910
2225.081701 0.8910 0.8910 0.8910 0.8900 0.8900
2233.109000 0.8900 0.8900 0.8890 0.8890 0.8890
2241.143701 0.8880 0.8880 0.8880 0.8880 0.8880
2249.171000 0.8880 0.8880 0.8880 0.8870 0.8870
2257.205701 0.8870 0.8870 0.8870 0.8870 0.8870
2265.233000 0.8870 0.8870 0.8870 0.8870 0.8870
2273.267701 0.8870 0.8870 0.8870 0.8870 0.8870
2281.295000 0.8870 0.8860 0.8860 0.8860 0.8860
2289.329701 0.8860 0.8850 0.8850 0.8850 0.8840
2297.357000 0.8840 0.8840 0.8830 0.8830 0.8830
2305.391701 0.8830 0.8830 0.8830 0.8830 0.8830
2313.420000 0.8830 0.8830 0.8830 0.8830 0.8830
2321.454701 0.8830 0.8830 0.8830 0.8830 0.8830
2329.482000 0.8820 0.8820 0.8820 0.8810 0.8810
2337.516701 0.8800 0.8790 0.8790 0.8790 0.8780
2345.544000 0.8770 0.8770 0.8760 0.8760 0.8750
2353.578701 0.8750 0.8750 0.8750 0.8740 0.8740
2361.606000 0.8740 0.8730 0.8730 0.8730 0.8720
2369.640701 0.8720 0.8720 0.8720 0.8710 0.8700
2377.668000 0.8690 0.8690 0.8680 0.8680 0.8670
2385.702701 0.8670 0.8670 0.8670 0.8680 0.8680
2393.730000 0.8690 0.8700 0.8710 0.8710 0.8720
2401.764701 0.8720 0.8730 0.8730 0.8740 0.8750
2409.793000 0.8750 0.8750 0.8760 0.8770 0.8770
2417.827701 0.8770 0.8770 0.8770 0.8770 0.8770
2425.855000 0.8770 0.8760 0.8760 0.8750 0.8750
2433.889701 0.8750 0.8750 0.8750 0.8750 0.8750
2441.917000 0.8750 0.8740 0.8740 0.8740 0.8740
2449.951701 0.8740 0.8740 0.8750 0.8750 0.8750
2457.979000 0.8760 0.8760 0.8760 0.8760 0.8760
2466.013701 0.8750 0.8750 0.8750 0.8750 0.8750
2474.042000 0.8750 0.8750 0.8750 0.8760 0.8760
2482.076701 0.8760 0.8770 0.8770 0.8760 0.8750
2490.104000 0.8750 0.8750 0.8750 0.8750 0.8740
2498.138701 0.8730 0.8730 0.8720 0.8720 0.8700
2506.166000 0.8690 0.8680 0.8680 0.8670 0.8670
2514.200701 0.8660 0.8640 0.8630 0.8600 0.8590
2522.228000 0.8570 0.8560 0.8560 0.8550 0.8550
2530.262701 0.8550 0.8540 0.8530 0.8520 0.8520
2538.290000 0.8510 0.8500 0.8490 0.8490 0.8490
2546.324701 0.8490 0.8480 0.8480 0.8480 0.8480
2554.352000 0.8480 0.8480 0.8480 0.8480 0.8470
2562.386701 0.8460 0.8460 0.8450 0.8450 0.8440
2570.415000 0.8440 0.8440 0.8420 0.8410 0.8410
2578.449701 0.8400 0.8390 0.8370 0.8370 0.8360
2586.477000 0.8360 0.8350 0.8340 0.8340 0.8340
2594.511701 0.8340 0.8340 0.8340 0.8350 0.8350
2602.539000 0.8350 0.8360 0.8370 0.8370 0.8390
2610.573701 0.8400 0.8410 0.8410 0.8420 0.8430
2618.601000 0.8440 0.8450 0.8450 0.8460 0.8470
2626.635701 0.8470 0.8480 0.8480 0.8480 0.8490
2634.663000 0.8490 0.8490 0.8500 0.8500 0.8510
2642.697701 0.8510 0.8520 0.8520 0.8520 0.8520
2650.725000 0.8540 0.8550 0.8550 0.8560 0.8560
2658.759701 0.8560 0.8560 0.8570 0.8570 0.8570
2666.788000 0.8570 0.8580 0.8580 0.8580 0.8580
2674.822701 0.8590 0.8590 0.8590 0.8590 0.8590
2682.850000 0.8590 0.8590 0.8590 0.8590 0.8590
2690.884701 0.8590 0.8590 0.8580 0.8580 0.8580
2698.912000 0.8570 0.8570 0.8570 0.8560 0.8560
2706.946701 0.8560 0.8560 0.8560 0.8550 0.8540
2714.974000 0.8530 0.8520 0.8520 0.8520 0.8510
2723.008701 0.8510 0.8500 0.8500 0.8490 0.8480
2731.036000 0.8480 0.8480 0.8480 0.8480 0.8480
2739.070701 0.8470 0.8460 0.8440 0.8440 0.8430
2747.098000 0.8410 0.8400 0.8380 0.8370 0.8340
2755.132701 0.8310 0.8300 0.8290 0.8270 0.8250
2763.161000 0.8250 0.8240 0.8230 0.8230 0.8220
2771.195701 0.8210 0.8210 0.8220 0.8220 0.8230
2779.223000 0.8230 0.8230 0.8230 0.8220 0.8220
2787.257701 0.8220 0.8210 0.8210 0.8200 0.8200
2795.285000 0.8190 0.8180 0.8170 0.8160 0.8150
2803.319701 0.8130 0.8120 0.8110 0.8100 0.8080
2811.347000 0.8060 0.8050 0.8020 0.8010 0.7980
2819.381701 0.7980 0.7980 0.7970 0.7940 0.7920
2827.409000 0.7880 0.7840 0.7800 0.7750 0.7700
2835.443701 0.7650 0.7590 0.7530 0.7470 0.7410
2843.471000 0.7350 0.7280 0.7210 0.7150 0.7090
2851.505701 0.7010 0.6950 0.6890 0.6830 0.6770
2859.534000 0.6710 0.6660 0.6610 0.6560 0.6510
2867.568701 0.6440 0.6430 0.6430 0.6440 0.6470
2875.596000 0.6470 0.6490 0.6490 0.6470 0.6410
2883.630701 0.6380 0.6350 0.6270 0.6210 0.6140
2891.658000 0.6070 0.6000 0.5920 0.5830 0.5770
2899.692701 0.5720 0.5700 0.5720 0.5760 0.5840
2907.720000 0.5890 0.5950 0.6000 0.6000 0.6020
2915.754701 0.6000 0.5960 0.5780 0.5570 0.5410
2923.782000 0.5300 0.5190 0.5100 0.4960 0.4870
2931.816701 0.4760 0.4760 0.4760 0.4810 0.4840
2939.844000 0.4860 0.4900 0.4920 0.4910 0.4860
2947.878701 0.4760 0.4680 0.4610 0.4580 0.4550
2955.907000 0.4500 0.4460 0.4420 0.4380 0.4340
2963.941701 0.4270 0.4190 0.4090 0.3980 0.3860
2971.969000 0.3750 0.3640 0.3550 0.3530 0.3530
2980.003701 0.3540 0.3560 0.3770 0.3840 0.3990
2988.031000 0.4180 0.4370 0.4710 0.4870 0.5020
2996.065701 0.5150 0.5290 0.5420 0.5540 0.5650
3004.093000 0.5750 0.5850 0.5930 0.6020 0.6090
3012.127701 0.6160 0.6230 0.6290 0.6340 0.6430
3020.156000 0.6470 0.6510 0.6530 0.6550 0.6580
3028.190701 0.6590 0.6610 0.6620 0.6620 0.6660
3036.218000 0.6660 0.6660 0.6660 0.6660 0.6660
3044.252701 0.6660 0.6660 0.6660 0.6650 0.6620
3052.280000 0.6580 0.6580 0.6580 0.6580 0.6630
3060.314701 0.6680 0.6720 0.6750 0.6780 0.6810
3068.342000 0.6830 0.6870 0.6920 0.6970 0.7010
3076.376701 0.7040 0.7060 0.7090 0.7120 0.7140
3084.404000 0.7170 0.7180 0.7190 0.7200 0.7200
3092.438701 0.7200 0.7200 0.7200 0.7200 0.7200
3100.466000 0.7200 0.7200 0.7190 0.7190 0.7180
3108.500701 0.7180 0.7180 0.7180 0.7190 0.7240
3116.529000 0.7260 0.7290 0.7340 0.7400 0.7450
3124.563701 0.7510 0.7550 0.7590 0.7600 0.7610
3132.591000 0.7620 0.7620 0.7630 0.7630 0.7630
3140.625701 0.7620 0.7610 0.7600 0.7590 0.7560
3148.653000 0.7550 0.7550 0.7510 0.7470 0.7460
3156.687701 0.7450 0.7450 0.7450 0.7450 0.7450
3164.715000 0.7460 0.7470 0.7470 0.7480 0.7480
3172.749701 0.7480 0.7470 0.7470 0.7470 0.7460
3180.777000 0.7440 0.7440 0.7420 0.7410 0.7400
3188.811701 0.7400 0.7370 0.7360 0.7360 0.7360
3196.839000 0.7350 0.7350 0.7340 0.7340 0.7350
3204.873701 0.7350 0.7360 0.7370 0.7390 0.7400
3212.902000 0.7410 0.7420 0.7430 0.7430 0.7440
3220.936701 0.7440 0.7440 0.7430 0.7430 0.7420
3228.964000 0.7420 0.7410 0.7400 0.7390 0.7380
3236.998701 0.7360 0.7350 0.7320 0.7300 0.7280
3245.026000 0.7250 0.7230 0.7200 0.7170 0.7130
3253.060701 0.7100 0.7060 0.7030 0.6990 0.6950
3261.088000 0.6900 0.6860 0.6820 0.6770 0.6720
3269.122701 0.6670 0.6620 0.6570 0.6530 0.6490
3277.150000 0.6440 0.6390 0.6370 0.6350 0.6300
3285.184701 0.6240 0.6200 0.6140 0.6080 0.6030
3293.212000 0.5970 0.5920 0.5860 0.5800 0.5740
3301.246701 0.5690 0.5620 0.5560 0.5500 0.5440
3309.275000 0.5380 0.5320 0.5260 0.5190 0.5130
3317.309701 0.5070 0.5010 0.4950 0.4890 0.4830
3325.337000 0.4760 0.4710 0.4650 0.4620 0.4590
3333.371701 0.4530 0.4480 0.4420 0.4370 0.4310
3341.399000 0.4260 0.4210 0.4150 0.4100 0.4060
3349.433701 0.4010 0.3960 0.3920 0.3870 0.3860
3357.461000 0.3800 0.3740 0.3690 0.3640 0.3590
3365.495701 0.3560 0.3550 0.3540 0.3540 0.3540
3373.523000 0.3550 0.3560 0.3560 0.3570 0.3600
3381.557701 0.3600 0.3610 0.3640 0.3680 0.3710
3389.585000 0.3750 0.3790 0.3830 0.3890 0.3950
3397.619701 0.4000 0.4060 0.4120 0.4190 0.4260
3405.648000 0.4340 0.4410 0.4480 0.4640 0.4720
3413.682701 0.4800 0.4890 0.4970 0.5060 0.5150
3421.710000 0.5230 0.5320 0.5410 0.5500 0.5580
3429.744701 0.5670 0.5760 0.5850 0.5930 0.6020
3437.772000 0.6100 0.6180 0.6270 0.6420 0.6490
3445.806701 0.6570 0.6610 0.6640 0.6650 0.6660
3453.834000 0.6660 0.6680 0.6690 0.6700 0.6700
3461.868701 0.6700 0.6700 0.6710 0.6710 0.6710
3469.896000 0.6710 0.6720 0.6720 0.6720 0.6720
3477.930701 0.6720 0.6730 0.6740 0.6740 0.6740
3485.958000 0.6740 0.6740 0.6740 0.6740 0.6740
3493.992701 0.6750 0.6750 0.6750 0.6760 0.6760
3502.021000 0.6760 0.6760 0.6760 0.6770 0.6770
3510.055701 0.6770 0.6770 0.6770 0.6780 0.6780
3518.083000 0.6780 0.6780 0.6790 0.6790 0.6800
3526.117701 0.6800 0.6810 0.6820 0.6820 0.6830
3534.145000 0.6840 0.6850 0.6860 0.6860 0.6870
3542.179701 0.6880 0.6890 0.6890 0.6900 0.6910
3550.207000 0.6920 0.6930 0.6930 0.6940 0.6940
3558.241701 0.6950 0.6970 0.6970 0.6980 0.6990
3566.270000 0.7010 0.7010 0.7020 0.7030 0.7050
3574.304701 0.7050 0.7070 0.7070 0.7090 0.7090
3582.332000 0.7100 0.7110 0.7130 0.7130 0.7140
3590.366701 0.7150 0.7170 0.7170 0.7180 0.7200
3598.394000 0.7200 0.7220 0.7230 0.7240 0.7250
3606.428701 0.7260 0.7270 0.7280 0.7290 0.7300
3614.456000 0.7310 0.7320 0.7330 0.7350 0.7360
3622.490701 0.7360 0.7370 0.7390 0.7400 0.7410
3630.518000 0.7420 0.7440 0.7440 0.7450 0.7480
3638.552701 0.7520 0.7530 0.7550 0.7550 0.7570
3646.580000 0.7590 0.7600 0.7630 0.7670 0.7700
3654.614701 0.7740 0.7760 0.7760 0.7770 0.7780
3662.643000 0.7820 0.7850 0.7880 0.7900 0.7940
3670.677701 0.7960 0.7980 0.8020 0.8040 0.8060
3678.705000 0.8100 0.8120 0.8150 0.8210 0.8240
3686.739701 0.8280 0.8310 0.8350 0.8390 0.8430
3694.767000 0.8450 0.8460 0.8470 0.8480 0.8480
3702.801701 0.8480 0.8500 0.8500 0.8500 0.8500
3710.829000 0.8500 0.8500 0.8500 0.8500 0.8500
3718.863701 0.8500 0.8490 0.8490 0.8490 0.8490
3726.891000 0.8490 0.8480 0.8480 0.8480 0.8480
3734.925701 0.8480 0.8480 0.8480 0.8480 0.8480
3742.953000 0.8480 0.8480 0.8480 0.8480 0.8480
3750.987701 0.8480 0.8490 0.8500 0.8510 0.8520
3759.016000 0.8520 0.8520 0.8520 0.8530 0.8530
3767.050701 0.8540 0.8550 0.8550 0.8560 0.8560
3775.078000 0.8560 0.8560 0.8570 0.8570 0.8570
3783.112701 0.8570 0.8570 0.8570 0.8570 0.8570
3791.140000 0.8570 0.8570 0.8560 0.8560 0.8560
3799.174701 0.8560 0.8560 0.8560 0.8560 0.8560
3807.202000 0.8550 0.8560 0.8560 0.8560 0.8550
##END=
