##TITLE=1-1'-(1,4-CYCLOHEXYLENE)BIS[3-(2-CHLOROETHYL) UREA], TRANS-
##JCAMP-DX=4.24
##DATA TYPE=INFRARED SPECTRUM
##CLASS=COBLENTZ III
##ORIGIN=SOUTHERN RES. INSTITUTE
##OWNER=COBLENTZ SOCIETY
Collection (C) 2018 copyright by the U.S. Secretary of Commerce
on behalf of the United States of America. All rights reserved.
##DATE=1964/10/16
##MOLFORM=C12 H22 Cl2 N4 O2
##SOURCE REFERENCE=COBLENTZ NO. 7706
##$NIST ID=B6007706
##$NIST SOURCE=COBLENTZ
##$NIST IMAGE=cob7706
##SPECTROMETER/DATA SYSTEM=PERKIN-ELMER 221 (GRATING)
##INSTRUMENT PARAMETERS=FILTERS AT 2490, 980 CM ^-^1, GRATING FOR 4000-1428 CM ^-^1, NaCl PRISM FOR 1428-650 CM^-^1
##STATE=SOLID (1 mg / 650 mg KBr DISC)
##SAMPLING PROCEDURE=TRANSMISSION
##RESOLUTION=4
##DATA PROCESSING=DIGITIZED BY NIST FROM HARD COPY (FROM TWO SEGMENTS)
##XUNITS=1/CM
##YUNITS=TRANSMITTANCE
##XFACTOR=1.000000
##YFACTOR=1
##DELTAX=1.516809
##FIRSTX=590.899
##LASTX=4008.27
##FIRSTY=0.709
##MAXX=4008.27
##MINX=590.899
##MAXY=0.867926
##MINY=0.141
##NPOINTS=2254
##XYDATA=(X++(Y..Y))
590.899000 0.7090 0.7080 0.7060 0.7040 0.7020
598.483047 0.7000 0.7000 0.6970 0.6960 0.6940
606.067093 0.6920 0.6910 0.6880 0.6870 0.6830
613.651140 0.6790 0.6770 0.6750 0.6740 0.6720
621.235186 0.6680 0.6580 0.6500 0.6430 0.6370
628.819233 0.6330 0.6290 0.6260 0.6220 0.6190
636.403279 0.6160 0.6110 0.6050 0.6040 0.6040
643.987326 0.6040 0.6050 0.6070 0.6100 0.6130
651.571372 0.6160 0.6190 0.6250 0.6310 0.6370
659.155419 0.6430 0.6490 0.6559 0.6629 0.6680
666.739465 0.6730 0.6780 0.6820 0.6830 0.6900
674.323512 0.6950 0.7010 0.7060 0.7110 0.7160
681.907559 0.7200 0.7250 0.7280 0.7320 0.7360
689.491605 0.7400 0.7430 0.7450 0.7480 0.7500
697.075652 0.7520 0.7540 0.7590 0.7640 0.7670
704.659698 0.7700 0.7730 0.7740 0.7760 0.7760
712.243745 0.7770 0.7780 0.7780 0.7780 0.7780
719.827791 0.7770 0.7760 0.7760 0.7750 0.7730
727.411838 0.7700 0.7670 0.7640 0.7610 0.7580
734.995884 0.7540 0.7470 0.7430 0.7410 0.7400
742.579931 0.7400 0.7410 0.7430 0.7470 0.7520
750.163977 0.7590 0.7670 0.7749 0.7819 0.7850
757.748024 0.7870 0.7900 0.7930 0.7930 0.7940
765.332071 0.7940 0.7940 0.7940 0.7960 0.7970
772.916117 0.8000 0.8070 0.8120 0.8180 0.8250
780.500164 0.8330 0.8390 0.8440 0.8460 0.8490
788.084210 0.8500 0.8510 0.8510 0.8510 0.8510
795.668257 0.8520 0.8530 0.8530 0.8540 0.8550
803.252303 0.8560 0.8560 0.8570 0.8580 0.8590
810.836350 0.8600 0.8610 0.8610 0.8610 0.8610
818.420396 0.8610 0.8620 0.8620 0.8620 0.8620
826.004443 0.8620 0.8620 0.8610 0.8610 0.8610
833.588489 0.8610 0.8610 0.8590 0.8590 0.8580
841.172536 0.8580 0.8580 0.8580 0.8580 0.8570
848.756583 0.8570 0.8570 0.8560 0.8560 0.8560
856.340629 0.8560 0.8560 0.8570 0.8570 0.8580
863.924676 0.8580 0.8580 0.8600 0.8610 0.8610
871.508722 0.8610 0.8610 0.8600 0.8580 0.8580
879.092769 0.8580 0.8540 0.8530 0.8420 0.8380
886.676815 0.8330 0.8280 0.8220 0.8200 0.8180
894.260862 0.8110 0.8040 0.8030 0.7990 0.7990
901.844908 0.8179 0.8329 0.8509 0.8540 0.8540
909.428955 0.8540 0.8530 0.8530 0.8520 0.8510
917.013001 0.8500 0.8490 0.8490 0.8480 0.8450
924.597048 0.8440 0.8420 0.8400 0.8390 0.8380
932.181095 0.8360 0.8360 0.8340 0.8330 0.8320
939.765141 0.8310 0.8300 0.8290 0.8280 0.8270
947.349188 0.8250 0.8220 0.8190 0.8180 0.8160
954.933234 0.8150 0.8150 0.8140 0.8140 0.8140
962.517281 0.8140 0.8140 0.8150 0.8150 0.8150
970.101327 0.8160 0.8170 0.8180 0.8180 0.8190
977.685374 0.8200 0.8210 0.8210 0.8220 0.8220
985.269420 0.8220 0.8220 0.8220 0.8210 0.8210
992.853467 0.8210 0.8210 0.8210 0.8210 0.8200
1000.437513 0.8190 0.8180 0.8180 0.8180 0.8170
1008.021560 0.8170 0.8160 0.8150 0.8150 0.8150
1015.605606 0.8150 0.8150 0.8150 0.8140 0.8130
1023.189653 0.8120 0.8120 0.8110 0.8090 0.8090
1030.773700 0.8090 0.8080 0.8080 0.8070 0.8070
1038.357746 0.8060 0.8060 0.8060 0.8060 0.8050
1045.941793 0.8040 0.8030 0.8010 0.7970 0.7920
1053.525839 0.7870 0.7830 0.7800 0.7790 0.7770
1061.109886 0.7680 0.7670 0.7650 0.7640 0.7630
1068.693932 0.7630 0.7620 0.7620 0.7610 0.7600
1076.277979 0.7580 0.7530 0.7370 0.7150 0.6880
1083.862025 0.6611 0.6381 0.6221 0.6160 0.6150
1091.446072 0.6140 0.6150 0.6230 0.6410 0.6610
1099.030118 0.6770 0.6979 0.7169 0.7339 0.7479
1106.614165 0.7590 0.7690 0.7770 0.7820 0.7870
1114.198212 0.7890 0.7900 0.7880 0.7900 0.7900
1121.782258 0.7910 0.7910 0.7910 0.7910 0.7910
1129.366305 0.7910 0.7900 0.7900 0.7900 0.7900
1136.950351 0.7890 0.7890 0.7880 0.7880 0.7870
1144.534398 0.7860 0.7850 0.7840 0.7840 0.7830
1152.118444 0.7830 0.7820 0.7820 0.7790 0.7770
1159.702491 0.7740 0.7700 0.7660 0.7610 0.7580
1167.286537 0.7550 0.7520 0.7500 0.7490 0.7460
1174.870584 0.7450 0.7430 0.7410 0.7390 0.7370
1182.454630 0.7360 0.7350 0.7340 0.7340 0.7340
1190.038677 0.7350 0.7370 0.7380 0.7390 0.7400
1197.622724 0.7400 0.7380 0.7370 0.7230 0.7120
1205.206770 0.7040 0.6970 0.6940 0.6820 0.6671
1212.790817 0.6539 0.6400 0.6260 0.6120 0.5980
1220.374863 0.5840 0.5710 0.5710 0.5740 0.6436
1227.958910 0.6571 0.6700 0.6820 0.6920 0.6930
1235.542956 0.6940 0.6930 0.6920 0.6810 0.6621
1243.127003 0.6329 0.6039 0.5699 0.5490 0.5430
1250.711049 0.5410 0.5430 0.5540 0.5590 0.5560
1258.295096 0.5369 0.5130 0.5010 0.4910 0.4890
1265.879142 0.4890 0.4890 0.4910 0.5099 0.5279
1273.463189 0.5491 0.5711 0.5941 0.6160 0.6340
1281.047236 0.6510 0.6630 0.6730 0.6760 0.6800
1288.631282 0.6790 0.6779 0.6640 0.6490 0.6340
1296.215329 0.6290 0.6220 0.6210 0.6210 0.6220
1303.799375 0.6360 0.6440 0.6520 0.6610 0.6700
1311.383422 0.6780 0.6860 0.6940 0.6940 0.7040
1318.967468 0.7120 0.7220 0.7321 0.7510 0.7590
1326.551515 0.7730 0.7760 0.7800 0.7820 0.7830
1334.135561 0.7840 0.7840 0.7830 0.7830 0.7820
1341.719608 0.7820 0.7800 0.7790 0.7780 0.7770
1349.303654 0.7760 0.7750 0.7740 0.7730 0.7720
1356.887701 0.7710 0.7700 0.7690 0.7680 0.7690
1364.471748 0.7700 0.7730 0.7780 0.7820 0.7860
1372.055794 0.7910 0.7940 0.7950 0.8000 0.8010
1379.639841 0.8020 0.8020 0.8020 0.8020 0.8010
1387.223887 0.8000 0.8000 0.7990 0.8000 0.8000
1394.807934 0.8040 0.8080 0.8120 0.8150 0.8180
1402.391980 0.8230 0.8250 0.8250 0.8210 0.7792
1409.976027 0.7659 0.7550 0.7550 0.7550 0.7540
1417.560073 0.7520 0.7490 0.7490 0.7460 0.7440
1425.144120 0.7400 0.7350 0.7280 0.7210 0.7120
1432.728166 0.7040 0.6960 0.6880 0.6820 0.6760
1440.312213 0.6720 0.6700 0.6700 0.6640 0.6640
1447.896260 0.6630 0.6640 0.6650 0.6740 0.6889
1455.480306 0.7031 0.7191 0.7321 0.7450 0.7550
1463.064353 0.7610 0.7640 0.7720 0.7750 0.7820
1470.648399 0.7850 0.7850 0.7840 0.7830 0.7800
1478.232446 0.7730 0.7670 0.7610 0.7550 0.7520
1485.816492 0.7490 0.7470 0.7430 0.7420 0.7410
1493.400539 0.7320 0.7240 0.7120 0.7060 0.7020
1500.984585 0.6980 0.6920 0.6850 0.6790 0.6730
1508.568632 0.6670 0.6600 0.6540 0.6490 0.6430
1516.152678 0.5929 0.5749 0.5640 0.5550 0.5400
1523.736725 0.5250 0.5100 0.4950 0.4850 0.4770
1531.320772 0.4750 0.4740 0.4720 0.4710 0.4690
1538.904818 0.4680 0.4660 0.4650 0.4470 0.4301
1546.488865 0.4099 0.3979 0.3859 0.3739 0.3480
1554.072911 0.3320 0.3170 0.3020 0.2860 0.2710
1561.656958 0.2549 0.2400 0.2320 0.2260 0.2170
1569.241004 0.2090 0.2080 0.2080 0.2080 0.2080
1576.825051 0.2090 0.2140 0.2180 0.2191 0.2360
1584.409097 0.2530 0.2690 0.2860 0.3030 0.3199
1591.993144 0.3361 0.3440 0.3501 0.3830 0.3951
1599.577190 0.4250 0.4520 0.4680 0.4840 0.4860
1607.161237 0.4860 0.4810 0.4738 0.4389 0.4079
1614.745284 0.3780 0.3480 0.3310 0.3140 0.2592
1622.329330 0.2197 0.1808 0.1420 0.1410 0.1410
1629.913377 0.1410 0.1410 0.1420 0.1430 0.1450
1637.497423 0.1611 0.1782 0.2041 0.2202 0.2761
1645.081470 0.3020 0.3140 0.3260 0.3390 0.3530
1652.665516 0.3671 0.3821 0.3971 0.4111 0.4261
1660.249563 0.4410 0.4560 0.4690 0.4970 0.5200
1667.833609 0.5401 0.5561 0.5701 0.5800 0.5890
1675.417656 0.5980 0.6040 0.6100 0.6160 0.6220
1683.001702 0.6281 0.6371 0.6461 0.6610 0.6670
1690.585749 0.6720 0.6770 0.6800 0.6830 0.6880
1698.169796 0.6950 0.6970 0.6990 0.7030 0.7090
1705.753842 0.7200 0.7300 0.7370 0.7440 0.7580
1713.337889 0.7660 0.7710 0.7720 0.7730 0.7760
1720.921935 0.7780 0.7790 0.7820 0.7860 0.7910
1728.505982 0.7950 0.7970 0.8000 0.8030 0.8050
1736.090028 0.8070 0.8090 0.8100 0.8120 0.8130
1743.674075 0.8150 0.8160 0.8170 0.8180 0.8200
1751.258121 0.8210 0.8210 0.8240 0.8240 0.8250
1758.842168 0.8260 0.8270 0.8270 0.8270 0.8290
1766.426214 0.8310 0.8330 0.8330 0.8350 0.8360
1774.010261 0.8360 0.8370 0.8380 0.8390 0.8390
1781.594307 0.8400 0.8410 0.8420 0.8420 0.8430
1789.178354 0.8440 0.8440 0.8450 0.8450 0.8460
1796.762401 0.8460 0.8470 0.8480 0.8480 0.8480
1804.346447 0.8490 0.8500 0.8510 0.8510 0.8510
1811.930494 0.8520 0.8520 0.8530 0.8540 0.8540
1819.514540 0.8540 0.8550 0.8550 0.8560 0.8560
1827.098587 0.8570 0.8580 0.8580 0.8580 0.8580
1834.682633 0.8590 0.8590 0.8590 0.8600 0.8600
1842.266680 0.8600 0.8600 0.8610 0.8610 0.8610
1849.850726 0.8610 0.8610 0.8610 0.8610 0.8610
1857.434773 0.8620 0.8620 0.8620 0.8620 0.8630
1865.018819 0.8630 0.8630 0.8630 0.8630 0.8640
1872.602866 0.8640 0.8640 0.8640 0.8640 0.8640
1880.186913 0.8640 0.8640 0.8640 0.8640 0.8640
1887.770959 0.8640 0.8640 0.8640 0.8640 0.8640
1895.355006 0.8640 0.8640 0.8640 0.8640 0.8640
1902.939052 0.8640 0.8640 0.8640 0.8640 0.8640
1910.523099 0.8640 0.8640 0.8640 0.8640 0.8640
1918.107145 0.8640 0.8650 0.8650 0.8650 0.8650
1925.691192 0.8650 0.8660 0.8660 0.8660 0.8660
1933.275238 0.8660 0.8670 0.8670 0.8670 0.8670
1940.859285 0.8670 0.8670 0.8670 0.8670 0.8670
1948.443331 0.8670 0.8670 0.8670 0.8670 0.8670
1956.027378 0.8670 0.8670 0.8670 0.8670 0.8670
1963.611425 0.8670 0.8670 0.8670 0.8670 0.8660
1971.195471 0.8660 0.8660 0.8670 0.8670 0.8670
1978.779518 0.8670 0.8670 0.8670 0.8670 0.8670
1986.363564 0.8670 0.8670 0.8670 0.8670 0.8670
1993.947611 0.8670 0.8670 0.8670 0.8670 0.8670
2001.531657 0.8670 0.8670 0.8670 0.8670 0.8670
2009.115704 0.8670 0.8670 0.8670 0.8670 0.8670
2016.699750 0.8670 0.8670 0.8670 0.8670 0.8670
2024.283797 0.8670 0.8670 0.8670 0.8670 0.8670
2031.867843 0.8670 0.8670 0.8670 0.8670 0.8670
2039.451890 0.8670 0.8670 0.8670 0.8670 0.8670
2047.035937 0.8670 0.8670 0.8670 0.8670 0.8679
2054.619983 0.8671 0.8670 0.8670 0.8670 0.8670
2062.204030 0.8670 0.8670 0.8670 0.8670 0.8670
2069.788076 0.8670 0.8670 0.8670 0.8670 0.8661
2077.372123 0.8660 0.8660 0.8660 0.8660 0.8660
2084.956169 0.8660 0.8660 0.8660 0.8651 0.8650
2092.540216 0.8650 0.8650 0.8650 0.8650 0.8650
2100.124262 0.8650 0.8650 0.8650 0.8650 0.8642
2107.708309 0.8640 0.8640 0.8640 0.8640 0.8640
2115.292355 0.8640 0.8640 0.8640 0.8640 0.8640
2122.876402 0.8640 0.8640 0.8640 0.8640 0.8640
2130.460449 0.8640 0.8640 0.8640 0.8640 0.8640
2138.044495 0.8648 0.8650 0.8658 0.8660 0.8660
2145.628542 0.8668 0.8670 0.8670 0.8670 0.8670
2153.212588 0.8670 0.8670 0.8670 0.8670 0.8670
2160.796635 0.8670 0.8670 0.8670 0.8670 0.8670
2168.380681 0.8670 0.8670 0.8670 0.8670 0.8670
2175.964728 0.8670 0.8670 0.8670 0.8670 0.8670
2183.548774 0.8670 0.8670 0.8670 0.8670 0.8670
2191.132821 0.8670 0.8670 0.8670 0.8670 0.8670
2198.716867 0.8670 0.8670 0.8663 0.8660 0.8660
2206.300914 0.8660 0.8653 0.8650 0.8650 0.8650
2213.884961 0.8650 0.8650 0.8650 0.8650 0.8643
2221.469007 0.8640 0.8640 0.8640 0.8640 0.8640
2229.053054 0.8640 0.8640 0.8640 0.8640 0.8640
2236.637100 0.8640 0.8640 0.8640 0.8640 0.8640
2244.221147 0.8640 0.8640 0.8640 0.8646 0.8650
2251.805193 0.8650 0.8650 0.8650 0.8650 0.8650
2259.389240 0.8650 0.8650 0.8650 0.8650 0.8650
2266.973286 0.8650 0.8650 0.8650 0.8650 0.8644
2274.557333 0.8640 0.8640 0.8640 0.8640 0.8640
2282.141379 0.8640 0.8640 0.8640 0.8640 0.8634
2289.725426 0.8630 0.8630 0.8630 0.8624 0.8620
2297.309473 0.8620 0.8620 0.8620 0.8620 0.8620
2304.893519 0.8620 0.8620 0.8620 0.8620 0.8620
2312.477566 0.8620 0.8620 0.8620 0.8620 0.8620
2320.061612 0.8620 0.8620 0.8620 0.8620 0.8620
2327.645659 0.8620 0.8620 0.8620 0.8620 0.8620
2335.229705 0.8615 0.8610 0.8610 0.8610 0.8610
2342.813752 0.8610 0.8610 0.8610 0.8610 0.8610
2350.397798 0.8610 0.8610 0.8610 0.8610 0.8610
2357.981845 0.8610 0.8610 0.8610 0.8610 0.8610
2365.565891 0.8610 0.8610 0.8610 0.8610 0.8610
2373.149938 0.8610 0.8610 0.8610 0.8610 0.8610
2380.733985 0.8610 0.8610 0.8610 0.8610 0.8610
2388.318031 0.8610 0.8610 0.8610 0.8610 0.8610
2395.902078 0.8610 0.8610 0.8610 0.8610 0.8610
2403.486124 0.8610 0.8610 0.8610 0.8606 0.8600
2411.070171 0.8600 0.8600 0.8600 0.8600 0.8600
2418.654217 0.8596 0.8590 0.8590 0.8590 0.8590
2426.238264 0.8590 0.8590 0.8590 0.8586 0.8580
2433.822310 0.8580 0.8580 0.8580 0.8580 0.8580
2441.406357 0.8580 0.8580 0.8580 0.8580 0.8580
2448.990403 0.8580 0.8580 0.8580 0.8580 0.8577
2456.574450 0.8570 0.8570 0.8570 0.8570 0.8570
2464.158497 0.8570 0.8567 0.8560 0.8560 0.8560
2471.742543 0.8560 0.8560 0.8560 0.8560 0.8560
2479.326590 0.8560 0.8560 0.8560 0.8560 0.8560
2486.910636 0.8560 0.8560 0.8560 0.8560 0.8560
2494.494683 0.8560 0.8560 0.8560 0.8560 0.8560
2502.078729 0.8560 0.8560 0.8560 0.8560 0.8560
2509.662776 0.8560 0.8558 0.8550 0.8550 0.8550
2517.246822 0.8550 0.8550 0.8548 0.8540 0.8540
2524.830869 0.8540 0.8540 0.8540 0.8540 0.8540
2532.414915 0.8540 0.8540 0.8540 0.8540 0.8540
2539.998962 0.8540 0.8540 0.8540 0.8540 0.8540
2547.583008 0.8540 0.8540 0.8540 0.8540 0.8540
2555.167055 0.8540 0.8540 0.8540 0.8540 0.8540
2562.751102 0.8540 0.8540 0.8540 0.8540 0.8540
2570.335148 0.8540 0.8539 0.8530 0.8530 0.8530
2577.919195 0.8530 0.8530 0.8529 0.8520 0.8520
2585.503241 0.8520 0.8520 0.8520 0.8519 0.8510
2593.087288 0.8510 0.8510 0.8510 0.8510 0.8510
2600.671334 0.8510 0.8510 0.8510 0.8510 0.8510
2608.255381 0.8509 0.8500 0.8500 0.8500 0.8500
2615.839427 0.8500 0.8500 0.8500 0.8499 0.8490
2623.423474 0.8490 0.8490 0.8490 0.8490 0.8490
2631.007520 0.8490 0.8490 0.8489 0.8480 0.8480
2638.591567 0.8480 0.8480 0.8480 0.8480 0.8480
2646.175614 0.8480 0.8480 0.8480 0.8480 0.8480
2653.759660 0.8480 0.8480 0.8480 0.8480 0.8480
2661.343707 0.8480 0.8470 0.8470 0.8470 0.8470
2668.927753 0.8460 0.8460 0.8460 0.8460 0.8450
2676.511800 0.8450 0.8450 0.8450 0.8450 0.8450
2684.095846 0.8450 0.8450 0.8440 0.8440 0.8440
2691.679893 0.8440 0.8440 0.8440 0.8440 0.8440
2699.263939 0.8440 0.8440 0.8440 0.8440 0.8440
2706.847986 0.8440 0.8440 0.8440 0.8440 0.8440
2714.432032 0.8440 0.8440 0.8440 0.8440 0.8440
2722.016079 0.8440 0.8440 0.8440 0.8440 0.8440
2729.600126 0.8440 0.8440 0.8440 0.8440 0.8440
2737.184172 0.8440 0.8440 0.8440 0.8440 0.8440
2744.768219 0.8440 0.8440 0.8440 0.8440 0.8440
2752.352265 0.8440 0.8431 0.8430 0.8430 0.8421
2759.936312 0.8420 0.8420 0.8420 0.8420 0.8420
2767.520358 0.8411 0.8401 0.8392 0.8382 0.8363
2775.104405 0.8343 0.8332 0.8313 0.8302 0.8283
2782.688451 0.8272 0.8262 0.8252 0.8242 0.8240
2790.272498 0.8240 0.8232 0.8230 0.8222 0.8220
2797.856544 0.8212 0.8210 0.8210 0.8202 0.8192
2805.440591 0.8190 0.8182 0.8180 0.8180 0.8172
2813.024638 0.8162 0.8160 0.8152 0.8150 0.8142
2820.608684 0.8132 0.8122 0.8120 0.8105 0.8092
2828.192731 0.8090 0.8075 0.8047 0.8025 0.7975
2835.776777 0.7900 0.7820 0.7725 0.7685 0.7576
2843.360824 0.7436 0.7289 0.7147 0.7008 0.6861
2850.944870 0.6710 0.6663 0.6667 0.6677 0.6702
2858.528917 0.6753 0.6784 0.6918 0.7090 0.7232
2866.112963 0.7348 0.7437 0.7502 0.7555 0.7584
2873.697010 0.7604 0.7624 0.7637 0.7640 0.7640
2881.281056 0.7633 0.7616 0.7590 0.7546 0.7496
2888.865103 0.7440 0.7400 0.7383 0.7373 0.7357
2896.449150 0.7343 0.7340 0.7320 0.7277 0.7227
2904.033196 0.7178 0.7147 0.7134 0.7104 0.7052
2911.617243 0.6979 0.6886 0.6780 0.6664 0.6544
2919.201289 0.6419 0.6289 0.6166 0.6052 0.5949
2926.785336 0.5861 0.5787 0.5729 0.5667 0.5634
2934.369382 0.5624 0.5620 0.5626 0.5642 0.5662
2941.953429 0.5694 0.5716 0.5755 0.5809 0.5865
2949.537475 0.5925 0.5985 0.6062 0.6117 0.6181
2957.121522 0.6283 0.6387 0.6492 0.6596 0.6702
2964.705568 0.6811 0.6921 0.7036 0.7145 0.7256
2972.289615 0.7365 0.7465 0.7564 0.7659 0.7748
2979.873662 0.7822 0.7855 0.7876 0.7901 0.7910
2987.457708 0.7910 0.7910 0.7910 0.7910 0.7910
2995.041755 0.7910 0.7905 0.7900 0.7895 0.7885
3002.625801 0.7880 0.7880 0.7875 0.7870 0.7865
3010.209848 0.7860 0.7855 0.7850 0.7845 0.7835
3017.793894 0.7830 0.7825 0.7820 0.7815 0.7810
3025.377941 0.7810 0.7805 0.7800 0.7800 0.7800
3032.961987 0.7795 0.7790 0.7790 0.7790 0.7790
3040.546034 0.7790 0.7790 0.7790 0.7794 0.7800
3048.130080 0.7809 0.7820 0.7824 0.7834 0.7840
3055.714127 0.7848 0.7864 0.7874 0.7880 0.7884
3063.298174 0.7894 0.7904 0.7910 0.7914 0.7924
3070.882220 0.7930 0.7934 0.7940 0.7940 0.7940
3078.466267 0.7940 0.7940 0.7940 0.7940 0.7940
3086.050313 0.7940 0.7940 0.7940 0.7940 0.7936
3093.634360 0.7930 0.7926 0.7916 0.7910 0.7899
3101.218406 0.7869 0.7839 0.7813 0.7797 0.7780
3108.802453 0.7757 0.7747 0.7737 0.7723 0.7707
3116.386499 0.7697 0.7683 0.7664 0.7647 0.7634
3123.970546 0.7617 0.7610 0.7607 0.7600 0.7600
3131.554592 0.7600 0.7600 0.7603 0.7616 0.7633
3139.138639 0.7649 0.7673 0.7686 0.7706 0.7720
3146.722686 0.7723 0.7730 0.7730 0.7727 0.7720
3154.306732 0.7720 0.7717 0.7710 0.7710 0.7707
3161.890779 0.7697 0.7690 0.7687 0.7677 0.7670
3169.474825 0.7670 0.7667 0.7660 0.7658 0.7648
3177.058872 0.7640 0.7640 0.7638 0.7630 0.7628
3184.642918 0.7620 0.7618 0.7610 0.7610 0.7608
3192.226965 0.7598 0.7590 0.7588 0.7580 0.7580
3199.811011 0.7580 0.7578 0.7568 0.7558 0.7548
3207.395058 0.7538 0.7528 0.7516 0.7498 0.7486
3214.979104 0.7468 0.7456 0.7438 0.7426 0.7407
3222.563151 0.7387 0.7367 0.7347 0.7327 0.7307
3230.147197 0.7287 0.7265 0.7237 0.7215 0.7185
3237.731244 0.7156 0.7124 0.7084 0.7047 0.7027
3245.315291 0.7009 0.6997 0.6977 0.6957 0.6936
3252.899337 0.6905 0.6868 0.6846 0.6812 0.6745
3260.483384 0.6706 0.6664 0.6614 0.6563 0.6505
3268.067430 0.6454 0.6393 0.6323 0.6254 0.6194
3275.651477 0.6124 0.6054 0.5984 0.5913 0.5834
3283.235523 0.5764 0.5685 0.5615 0.5544 0.5465
3290.819570 0.5395 0.5315 0.5245 0.5176 0.5106
3298.403616 0.5037 0.4969 0.4764 0.4646 0.4567
3305.987663 0.4497 0.4427 0.4357 0.4287 0.4217
3313.571709 0.4147 0.4068 0.4008 0.3938 0.3859
3321.155756 0.3799 0.3768 0.3678 0.3600 0.3590
3328.739803 0.3580 0.3570 0.3570 0.3570 0.3580
3336.323849 0.3580 0.3590 0.3600 0.3600 0.3650
3343.907896 0.3680 0.3719 0.3759 0.3780 0.3907
3351.491942 0.3920 0.3979 0.4019 0.4069 0.4080
3359.075989 0.4099 0.4187 0.4190 0.4238 0.4326
3366.660035 0.4435 0.4545 0.4645 0.4726 0.4815
3374.244082 0.4886 0.4965 0.5036 0.5115 0.5185
3381.828128 0.5264 0.5335 0.5424 0.5513 0.5603
3389.412175 0.5693 0.5810 0.5921 0.6049 0.6124
3396.996221 0.6166 0.6206 0.6219 0.6238 0.6267
3404.580268 0.6306 0.6355 0.6422 0.6483 0.6552
3412.164315 0.6622 0.6657 0.6687 0.6716 0.6755
3419.748361 0.6786 0.6816 0.6855 0.6895 0.6935
3427.332408 0.6966 0.6996 0.7009 0.7019 0.7037
3434.916454 0.7049 0.7076 0.7088 0.7098 0.7125
3442.500501 0.7155 0.7194 0.7225 0.7255 0.7277
3450.084547 0.7297 0.7308 0.7335 0.7340 0.7356
3457.668594 0.7368 0.7386 0.7398 0.7408 0.7426
3465.252640 0.7430 0.7430 0.7430 0.7430 0.7438
3472.836687 0.7440 0.7448 0.7450 0.7458 0.7460
3480.420733 0.7460 0.7476 0.7496 0.7516 0.7535
3488.004780 0.7555 0.7575 0.7580 0.7588 0.7598
3495.588827 0.7600 0.7608 0.7610 0.7618 0.7620
3503.172873 0.7627 0.7637 0.7640 0.7640 0.7647
3510.756920 0.7650 0.7657 0.7667 0.7670 0.7670
3518.340966 0.7677 0.7687 0.7705 0.7732 0.7762
3525.925013 0.7784 0.7797 0.7807 0.7810 0.7817
3533.509059 0.7820 0.7827 0.7830 0.7837 0.7840
3541.093106 0.7847 0.7850 0.7864 0.7877 0.7900
3548.677152 0.7910 0.7910 0.7917 0.7920 0.7920
3556.261199 0.7927 0.7930 0.7937 0.7940 0.7947
3563.845245 0.7957 0.7967 0.7970 0.7977 0.7987
3571.429292 0.7996 0.8000 0.8013 0.8026 0.8043
3579.013339 0.8050 0.8056 0.8060 0.8060 0.8066
3586.597385 0.8076 0.8086 0.8090 0.8096 0.8106
3594.181432 0.8116 0.8120 0.8120 0.8126 0.8142
3601.765478 0.8150 0.8162 0.8176 0.8198 0.8228
3609.349525 0.8252 0.8266 0.8276 0.8280 0.8286
3616.933571 0.8290 0.8296 0.8300 0.8300 0.8306
3624.517618 0.8316 0.8326 0.8336 0.8346 0.8356
3632.101664 0.8360 0.8366 0.8376 0.8380 0.8385
3639.685711 0.8395 0.8400 0.8405 0.8410 0.8415
3647.269757 0.8420 0.8420 0.8420 0.8420 0.8420
3654.853804 0.8420 0.8425 0.8435 0.8440 0.8445
3662.437851 0.8450 0.8450 0.8450 0.8455 0.8460
3670.021897 0.8465 0.8470 0.8470 0.8470 0.8470
3677.605944 0.8475 0.8480 0.8480 0.8480 0.8480
3685.189990 0.8480 0.8480 0.8480 0.8480 0.8485
3692.774037 0.8490 0.8495 0.8500 0.8500 0.8505
3700.358083 0.8510 0.8510 0.8510 0.8510 0.8510
3707.942130 0.8510 0.8510 0.8510 0.8510 0.8510
3715.526176 0.8506 0.8500 0.8500 0.8496 0.8490
3723.110223 0.8486 0.8480 0.8476 0.8466 0.8460
3730.694269 0.8456 0.8450 0.8446 0.8440 0.8436
3738.278316 0.8426 0.8420 0.8420 0.8416 0.8410
3745.862363 0.8406 0.8396 0.8390 0.8390 0.8390
3753.446409 0.8390 0.8390 0.8390 0.8397 0.8414
3761.030456 0.8424 0.8430 0.8437 0.8457 0.8474
3768.614502 0.8484 0.8497 0.8510 0.8513 0.8520
3776.198549 0.8520 0.8523 0.8530 0.8530 0.8533
3783.782595 0.8540 0.8540 0.8537 0.8530 0.8527
3791.366642 0.8520 0.8517 0.8510 0.8510 0.8510
3798.950688 0.8510 0.8513 0.8520 0.8520 0.8520
3806.534735 0.8517 0.8510 0.8510 0.8510 0.8507
3814.118781 0.8500 0.8497 0.8490 0.8490 0.8490
3821.702828 0.8490 0.8490 0.8490 0.8490 0.8490
3829.286875 0.8487 0.8480 0.8480 0.8480 0.8480
3836.870921 0.8480 0.8480 0.8478 0.8470 0.8470
3844.454968 0.8470 0.8468 0.8460 0.8458 0.8450
3852.039014 0.8450 0.8450 0.8448 0.8440 0.8438
3859.623061 0.8430 0.8430 0.8430 0.8430 0.8430
3867.207107 0.8432 0.8440 0.8440 0.8442 0.8450
3874.791154 0.8450 0.8450 0.8450 0.8450 0.8452
3882.375200 0.8460 0.8460 0.8462 0.8470 0.8470
3889.959247 0.8472 0.8480 0.8480 0.8480 0.8480
3897.543293 0.8480 0.8480 0.8482 0.8490 0.8490
3905.127340 0.8490 0.8490 0.8490 0.8490 0.8490
3912.711387 0.8490 0.8490 0.8490 0.8491 0.8500
3920.295433 0.8500 0.8500 0.8500 0.8501 0.8510
3927.879480 0.8510 0.8510 0.8510 0.8510 0.8510
3935.463526 0.8510 0.8510 0.8511 0.8520 0.8520
3943.047573 0.8520 0.8520 0.8520 0.8520 0.8520
3950.631619 0.8520 0.8520 0.8520 0.8520 0.8520
3958.215666 0.8520 0.8520 0.8520 0.8520 0.8520
3965.799712 0.8520 0.8520 0.8520 0.8520 0.8520
3973.383759 0.8520 0.8520 0.8520 0.8530 0.8530
3980.967805 0.8530 0.8530 0.8540 0.8540 0.8540
3988.551852 0.8540 0.8540 0.8540 0.8540 0.8540
3996.135898 0.8540 0.8540 0.8540 0.8540 0.8540
4003.719945 0.8540 0.8540 0.8540 0.8540
##END=
