##TITLE=2,2',6,6'-(DIMETHYLAMINOMETHYL)-4,4'-DIPHENOL
##JCAMP-DX=4.24
##DATA TYPE=INFRARED SPECTRUM
##CLASS=COBLENTZ
##ORIGIN=DOW CHEMICAL COMPANY
##OWNER=COBLENTZ SOCIETY
Collection (C) 2018 copyright by the U.S. Secretary of Commerce
on behalf of the United States of America. All rights reserved.
##DATE=Not specified, most likely prior to 1970
##NAMES=3,3',5,5'-tetrakis[(dimethylamino)methyl][1,1'-biphenyl]-4,4'-diol
##MOLFORM=C24 H38 N4 O2
##SOURCE REFERENCE=COBLENTZ NO. 4000
##$NIST ID=B6004000
##$NIST SOURCE=COBLENTZ
##$NIST IMAGE=cob4000
##SPECTROMETER/DATA SYSTEM=Not specified, most likely a prism, grating, or hybrid spectrometer.
##STATE=SOLID (MINERAL OIL MULL)
##PATH LENGTH=
$$SPECTRAL CONTAMINATION DUE TO OIL AROUND 2900 CM^-^1
##SAMPLING PROCEDURE=TRANSMISSION
##RESOLUTION=4
##DATA PROCESSING=DIGITIZED BY NIST FROM HARD COPY
##XUNITS=MICROMETERS
##YUNITS=TRANSMITTANCE
##XFACTOR=1.000000
##YFACTOR=1
##DELTAX=000.006796
##FIRSTX=2.034
##LASTX=15.966
##FIRSTY=0.676
##MAXX=15.966
##MINX=2.034
##MAXY=0.887
##MINY=0.064
##NPOINTS=2051
##XYDATA=(X++(Y..Y))
2.034000 0.6760 0.6790 0.6810 0.6810 0.6840
2.067997 0.6840 0.6860 0.6880 0.6890 0.6910
2.102000 0.6910 0.6930 0.6930 0.6940 0.6960
2.135997 0.6980 0.6980 0.6980 0.6990 0.6990
2.170000 0.7010 0.7030 0.7030 0.7030 0.7040
2.203997 0.7040 0.7040 0.7030 0.7010 0.6990
2.238000 0.6980 0.6960 0.6960 0.6940 0.6940
2.271997 0.6940 0.6960 0.6980 0.6990 0.7010
2.306000 0.7030 0.7040 0.7060 0.7060 0.7090
2.339997 0.7090 0.7110 0.7130 0.7150 0.7160
2.374000 0.7160 0.7180 0.7200 0.7210 0.7230
2.407997 0.7250 0.7280 0.7300 0.7310 0.7330
2.442000 0.7330 0.7350 0.7350 0.7360 0.7360
2.475997 0.7380 0.7400 0.7410 0.7430 0.7430
2.510000 0.7450 0.7450 0.7470 0.7470 0.7470
2.543997 0.7470 0.7470 0.7470 0.7470 0.7470
2.578000 0.7470 0.7480 0.7500 0.7520 0.7570
2.611997 0.7570 0.7580 0.7580 0.7580 0.7600
2.646000 0.7600 0.7600 0.7600 0.7600 0.7620
2.679997 0.7620 0.7620 0.7620 0.7620 0.7630
2.714000 0.7630 0.7630 0.7630 0.7630 0.7630
2.747997 0.7630 0.7630 0.7630 0.7630 0.7630
2.782000 0.7630 0.7630 0.7650 0.7650 0.7650
2.815997 0.7650 0.7670 0.7670 0.7670 0.7670
2.850000 0.7670 0.7670 0.7650 0.7630 0.7630
2.883997 0.7630 0.7630 0.7620 0.7620 0.7620
2.917000 0.7620 0.7620 0.7600 0.7600 0.7600
2.950997 0.7580 0.7570 0.7570 0.7550 0.7550
2.985000 0.7530 0.7520 0.7520 0.7520 0.7500
3.018997 0.7480 0.7480 0.7480 0.7470 0.7450
3.053000 0.7410 0.7400 0.7360 0.7310 0.7300
3.086997 0.7260 0.7230 0.7200 0.7160 0.7130
3.121000 0.7110 0.7080 0.7080 0.7060 0.7030
3.154997 0.7010 0.7010 0.6990 0.6980 0.6960
3.189000 0.6930 0.6890 0.6880 0.6840 0.6840
3.222997 0.6820 0.6810 0.6740 0.6710 0.6670
3.257000 0.6610 0.6550 0.6490 0.6390 0.6250
3.290997 0.6100 0.5910 0.5680 0.5370 0.5000
3.325000 0.4780 0.4560 0.3940 0.2830 0.2190
3.358997 0.1510 0.1160 0.1040 0.0890 0.0740
3.393000 0.0640 0.0640 0.0670 0.0820 0.0970
3.426997 0.1060 0.1180 0.1290 0.1430 0.1460
3.461000 0.1460 0.1450 0.1430 0.1450 0.1580
3.494997 0.1820 0.2090 0.2410 0.2690 0.2910
3.529000 0.3050 0.3170 0.3230 0.3320 0.3330
3.562997 0.3350 0.3350 0.3330 0.3230 0.3220
3.597000 0.3230 0.3490 0.3720 0.3960 0.4130
3.630997 0.4450 0.4720 0.4900 0.5050 0.5140
3.665000 0.5160 0.5210 0.5260 0.5320 0.5460
3.698997 0.5510 0.5560 0.5660 0.5690 0.5730
3.733000 0.5760 0.5780 0.5780 0.5810 0.5830
3.766997 0.5850 0.5880 0.5900 0.5950 0.5980
3.801000 0.6020 0.6050 0.6100 0.6130 0.6200
3.834997 0.6270 0.6320 0.6400 0.6470 0.6500
3.869000 0.6520 0.6540 0.6570 0.6610 0.6660
3.902997 0.6690 0.6710 0.6740 0.6790 0.6810
3.937000 0.6840 0.6880 0.6910 0.6940 0.6960
3.970997 0.6980 0.7010 0.7080 0.7180 0.7210
4.005000 0.7250 0.7280 0.7310 0.7330 0.7350
4.038997 0.7360 0.7380 0.7400 0.7410 0.7430
4.073000 0.7470 0.7470 0.7480 0.7500 0.7520
4.106997 0.7530 0.7570 0.7620 0.7630 0.7630
4.141000 0.7650 0.7650 0.7650 0.7650 0.7630
4.174997 0.7630 0.7620 0.7620 0.7600 0.7600
4.209000 0.7620 0.7630 0.7670 0.7700 0.7750
4.242997 0.7790 0.7820 0.7870 0.7920 0.7970
4.277000 0.8020 0.8040 0.8070 0.8090 0.8090
4.310997 0.8110 0.8120 0.8160 0.8190 0.8190
4.345000 0.8190 0.8210 0.8210 0.8210 0.8210
4.378997 0.8210 0.8210 0.8210 0.8210 0.8190
4.413000 0.8190 0.8190 0.8190 0.8190 0.8190
4.446997 0.8190 0.8190 0.8210 0.8210 0.8220
4.481000 0.8220 0.8240 0.8240 0.8260 0.8260
4.514997 0.8270 0.8270 0.8270 0.8270 0.8270
4.549000 0.8290 0.8290 0.8330 0.8330 0.8340
4.582997 0.8360 0.8380 0.8390 0.8410 0.8430
4.617000 0.8430 0.8430 0.8440 0.8440 0.8460
4.650997 0.8460 0.8490 0.8490 0.8510 0.8510
4.684000 0.8510 0.8530 0.8530 0.8540 0.8540
4.717997 0.8540 0.8540 0.8540 0.8540 0.8540
4.752000 0.8540 0.8540 0.8540 0.8540 0.8560
4.785997 0.8560 0.8600 0.8630 0.8630 0.8630
4.820000 0.8630 0.8630 0.8630 0.8630 0.8630
4.853997 0.8650 0.8660 0.8660 0.8660 0.8660
4.888000 0.8660 0.8650 0.8630 0.8630 0.8610
4.921997 0.8610 0.8610 0.8630 0.8660 0.8680
4.956000 0.8700 0.8700 0.8710 0.8710 0.8710
4.989997 0.8710 0.8710 0.8710 0.8730 0.8730
5.024000 0.8730 0.8730 0.8730 0.8750 0.8760
5.057997 0.8750 0.8750 0.8750 0.8750 0.8750
5.092000 0.8750 0.8750 0.8750 0.8750 0.8760
5.125997 0.8760 0.8760 0.8780 0.8780 0.8800
5.160000 0.8800 0.8800 0.8800 0.8800 0.8800
5.193997 0.8780 0.8800 0.8800 0.8800 0.8800
5.228000 0.8800 0.8780 0.8780 0.8760 0.8760
5.261997 0.8760 0.8750 0.8760 0.8760 0.8780
5.296000 0.8800 0.8780 0.8750 0.8730 0.8710
5.329997 0.8730 0.8730 0.8760 0.8760 0.8780
5.364000 0.8780 0.8780 0.8780 0.8760 0.8750
5.397997 0.8730 0.8710 0.8710 0.8700 0.8700
5.432000 0.8700 0.8700 0.8700 0.8700 0.8710
5.465997 0.8730 0.8730 0.8730 0.8730 0.8710
5.500000 0.8700 0.8700 0.8700 0.8700 0.8700
5.533997 0.8700 0.8680 0.8680 0.8700 0.8700
5.568000 0.8680 0.8680 0.8660 0.8660 0.8650
5.601997 0.8630 0.8610 0.8610 0.8610 0.8610
5.636000 0.8630 0.8700 0.8700 0.8680 0.8630
5.669997 0.8630 0.8610 0.8600 0.8600 0.8600
5.704000 0.8600 0.8600 0.8610 0.8630 0.8650
5.737997 0.8660 0.8680 0.8680 0.8700 0.8700
5.772000 0.8700 0.8700 0.8700 0.8680 0.8660
5.805997 0.8660 0.8660 0.8660 0.8680 0.8680
5.840000 0.8700 0.8700 0.8700 0.8680 0.8660
5.873997 0.8650 0.8650 0.8630 0.8630 0.8610
5.908000 0.8600 0.8600 0.8600 0.8600 0.8610
5.941997 0.8630 0.8650 0.8680 0.8680 0.8660
5.976000 0.8650 0.8630 0.8630 0.8630 0.8630
6.009997 0.8630 0.8630 0.8650 0.8650 0.8680
6.044000 0.8700 0.8710 0.8780 0.8780 0.8750
6.077997 0.8710 0.8660 0.8600 0.8600 0.8540
6.112000 0.8510 0.8460 0.8360 0.8110 0.8010
6.145997 0.7700 0.7450 0.7210 0.6820 0.6520
6.180000 0.6290 0.6070 0.6020 0.6050 0.6390
6.213997 0.6720 0.7030 0.7150 0.7430 0.7700
6.248000 0.7800 0.7840 0.7870 0.8010 0.8120
6.281997 0.8210 0.8290 0.8310 0.8390 0.8410
6.316000 0.8480 0.8510 0.8600 0.8630 0.8680
6.349997 0.8680 0.8660 0.8650 0.8630 0.8610
6.383000 0.8610 0.8650 0.8650 0.8660 0.8660
6.416997 0.8660 0.8650 0.8650 0.8650 0.8630
6.451000 0.8610 0.8600 0.8610 0.8610 0.8630
6.484997 0.8660 0.8660 0.8660 0.8650 0.8630
6.519000 0.8610 0.8600 0.8580 0.8540 0.8530
6.552997 0.8510 0.8510 0.8490 0.8490 0.8480
6.587000 0.8460 0.8390 0.8290 0.8140 0.8070
6.620997 0.8040 0.8010 0.7990 0.7870 0.7740
6.655000 0.7700 0.7600 0.7410 0.7210 0.6990
6.688997 0.6740 0.6490 0.6230 0.5950 0.5680
6.723000 0.5370 0.5160 0.4700 0.4230 0.2910
6.756997 0.2050 0.1870 0.1650 0.1430 0.1210
6.791000 0.0940 0.0920 0.0940 0.1020 0.1140
6.824997 0.1230 0.1330 0.1480 0.1580 0.1770
6.859000 0.1970 0.2040 0.2240 0.2420 0.2560
6.892997 0.2780 0.2930 0.3130 0.3380 0.3590
6.927000 0.3810 0.4040 0.4460 0.4680 0.4890
6.960997 0.5370 0.5560 0.5630 0.5660 0.5690
6.995000 0.5690 0.5680 0.5660 0.5640 0.5640
7.028997 0.5660 0.5690 0.5760 0.5900 0.6020
7.063000 0.6120 0.6220 0.6300 0.6340 0.6400
7.096997 0.6470 0.6500 0.6570 0.6670 0.6810
7.131000 0.6910 0.6930 0.6960 0.6990 0.6960
7.164997 0.6930 0.6880 0.6770 0.6670 0.6520
7.199000 0.6370 0.6200 0.6050 0.5880 0.5810
7.232997 0.5780 0.5760 0.5750 0.5730 0.5710
7.267000 0.5630 0.5590 0.5540 0.5490 0.5490
7.300997 0.5590 0.5730 0.5910 0.6180 0.6220
7.335000 0.6220 0.6200 0.6120 0.6050 0.6030
7.368997 0.6050 0.6370 0.6490 0.6720 0.7030
7.403000 0.7380 0.7770 0.7850 0.7900 0.7970
7.436997 0.8020 0.8110 0.8210 0.8220 0.8240
7.471000 0.8260 0.8270 0.8270 0.8290 0.8310
7.504997 0.8310 0.8310 0.8330 0.8330 0.8310
7.539000 0.8290 0.8290 0.8240 0.8210 0.8190
7.572997 0.8160 0.8110 0.8060 0.8020 0.7970
7.607000 0.7890 0.7740 0.7650 0.7620 0.7550
7.640997 0.7480 0.7360 0.7250 0.6980 0.6670
7.675000 0.6250 0.5850 0.5560 0.5210 0.5000
7.708997 0.4800 0.4510 0.4180 0.3840 0.3770
7.743000 0.3670 0.3550 0.3550 0.3620 0.3860
7.776997 0.4230 0.4510 0.4770 0.5560 0.5960
7.811000 0.6340 0.6420 0.6640 0.6660 0.6640
7.844997 0.6590 0.6420 0.6300 0.6200 0.6030
7.879000 0.5800 0.5610 0.5460 0.5220 0.5000
7.912997 0.4890 0.4770 0.4580 0.4530 0.4500
7.947000 0.4530 0.4700 0.4730 0.4950 0.5510
7.980997 0.5660 0.5810 0.6130 0.6350 0.6550
8.015000 0.6790 0.6840 0.6880 0.6880 0.6740
8.048997 0.6610 0.6450 0.6220 0.6020 0.5640
8.083000 0.5270 0.5120 0.4970 0.4650 0.4310
8.116997 0.4210 0.4210 0.4480 0.5560 0.6120
8.150000 0.6220 0.6840 0.7280 0.7530 0.7600
8.183997 0.7670 0.7750 0.7840 0.7940 0.8040
8.218000 0.8070 0.8160 0.8190 0.8210 0.8220
8.251997 0.8220 0.8240 0.8260 0.8270 0.8290
8.286000 0.8310 0.8330 0.8360 0.8380 0.8380
8.319997 0.8380 0.8360 0.8340 0.8290 0.8260
8.354000 0.8160 0.8110 0.7970 0.7850 0.7750
8.387997 0.7650 0.7620 0.7450 0.7090 0.6790
8.422000 0.6540 0.6370 0.6250 0.6150 0.6030
8.455997 0.5930 0.5910 0.5930 0.6050 0.6250
8.490000 0.6710 0.7060 0.7450 0.7650 0.7840
8.523997 0.7950 0.7990 0.8040 0.8110 0.8190
8.558000 0.8210 0.8220 0.8220 0.8240 0.8240
8.591997 0.8240 0.8220 0.8160 0.8090 0.7970
8.626000 0.7850 0.7790 0.7750 0.7650 0.7580
8.659997 0.7530 0.7500 0.7480 0.7430 0.7400
8.694000 0.7380 0.7360 0.7350 0.7350 0.7380
8.727997 0.7480 0.7650 0.7840 0.7890 0.8160
8.762000 0.8340 0.8440 0.8540 0.8600 0.8610
8.795997 0.8660 0.8680 0.8700 0.8710 0.8730
8.830000 0.8750 0.8760 0.8760 0.8760 0.8760
8.863997 0.8760 0.8760 0.8760 0.8750 0.8750
8.898000 0.8730 0.8710 0.8700 0.8700 0.8680
8.931997 0.8680 0.8680 0.8680 0.8660 0.8630
8.966000 0.8600 0.8560 0.8510 0.8480 0.8460
8.999997 0.8410 0.8360 0.8240 0.8210 0.8210
9.034000 0.8190 0.8190 0.8170 0.8110 0.8020
9.067997 0.7920 0.7770 0.7670 0.7580 0.7520
9.102000 0.7500 0.7520 0.7670 0.7820 0.7970
9.135997 0.8110 0.8190 0.8210 0.8210 0.8120
9.170000 0.7840 0.7600 0.7570 0.7410 0.7230
9.203997 0.7210 0.7250 0.7500 0.7740 0.7900
9.238000 0.8140 0.8360 0.8460 0.8530 0.8560
9.271997 0.8610 0.8630 0.8650 0.8660 0.8680
9.306000 0.8680 0.8700 0.8700 0.8700 0.8700
9.339997 0.8700 0.8700 0.8700 0.8700 0.8700
9.374000 0.8680 0.8680 0.8680 0.8680 0.8660
9.407997 0.8650 0.8580 0.8530 0.8480 0.8440
9.442000 0.8380 0.8310 0.8170 0.8060 0.7900
9.475997 0.7720 0.7530 0.7330 0.7040 0.6610
9.510000 0.6340 0.5960 0.5710 0.5480 0.5430
9.543997 0.5320 0.5310 0.5320 0.5610 0.5730
9.578000 0.5760 0.5880 0.6050 0.6050 0.6030
9.611997 0.5900 0.5750 0.5560 0.5120 0.4950
9.646000 0.4770 0.4700 0.4310 0.3960 0.3860
9.679997 0.3720 0.3590 0.3570 0.3590 0.3620
9.714000 0.3770 0.4310 0.4560 0.4720 0.4820
9.747997 0.4890 0.4890 0.4870 0.4850 0.4780
9.782000 0.4770 0.4630 0.4600 0.4630 0.5220
9.815997 0.6050 0.6300 0.6590 0.6710 0.7230
9.850000 0.7600 0.7820 0.7920 0.8010 0.8060
9.883997 0.8210 0.8260 0.8330 0.8390 0.8410
9.917000 0.8430 0.8460 0.8510 0.8530 0.8540
9.950997 0.8560 0.8560 0.8540 0.8530 0.8460
9.985000 0.8410 0.8310 0.8090 0.7950 0.7820
10.018997 0.7740 0.7630 0.7500 0.7450 0.7380
10.053000 0.7350 0.7330 0.7330 0.7350 0.7430
10.086997 0.7580 0.7650 0.7750 0.7850 0.7970
10.121000 0.8070 0.8290 0.8410 0.8460 0.8510
10.154997 0.8540 0.8630 0.8680 0.8700 0.8700
10.189000 0.8680 0.8660 0.8650 0.8610 0.8580
10.222997 0.8560 0.8390 0.8390 0.8240 0.8090
10.257000 0.7950 0.7900 0.7790 0.7720 0.7670
10.290997 0.7650 0.7630 0.7650 0.7670 0.7720
10.325000 0.7740 0.7800 0.7900 0.8010 0.8090
10.358997 0.8120 0.8140 0.8460 0.8490 0.8540
10.393000 0.8580 0.8630 0.8680 0.8710 0.8750
10.426997 0.8750 0.8760 0.8760 0.8760 0.8780
10.461000 0.8780 0.8780 0.8800 0.8830 0.8850
10.494997 0.8870 0.8870 0.8870 0.8870 0.8850
10.529000 0.8830 0.8800 0.8800 0.8780 0.8760
10.562997 0.8760 0.8750 0.8750 0.8750 0.8750
10.597000 0.8750 0.8750 0.8750 0.8750 0.8750
10.630997 0.8750 0.8750 0.8750 0.8730 0.8710
10.665000 0.8710 0.8710 0.8700 0.8700 0.8700
10.698997 0.8680 0.8680 0.8680 0.8660 0.8660
10.733000 0.8650 0.8630 0.8630 0.8630 0.8610
10.766997 0.8610 0.8610 0.8610 0.8600 0.8560
10.801000 0.8530 0.8460 0.8430 0.8390 0.8380
10.834997 0.8330 0.8290 0.8290 0.8260 0.8210
10.869000 0.8190 0.8160 0.8090 0.8060 0.7990
10.902997 0.7950 0.7850 0.7790 0.7770 0.7670
10.937000 0.7550 0.7530 0.7450 0.7360 0.7300
10.970997 0.7250 0.7230 0.7210 0.7210 0.7230
11.005000 0.7260 0.7380 0.7450 0.7500 0.7530
11.038997 0.7570 0.7580 0.7600 0.7630 0.7650
11.073000 0.7670 0.7680 0.7680 0.7670 0.7670
11.106997 0.7650 0.7630 0.7630 0.7620 0.7620
11.141000 0.7620 0.7630 0.7650 0.7650 0.7670
11.174997 0.7680 0.7680 0.7680 0.7680 0.7670
11.209000 0.7620 0.7580 0.7550 0.7470 0.7450
11.242997 0.7380 0.7330 0.7280 0.7200 0.7110
11.277000 0.6960 0.6740 0.6540 0.6370 0.6080
11.310997 0.5930 0.5440 0.5310 0.5100 0.4900
11.345000 0.4780 0.4630 0.4620 0.4650 0.4900
11.378997 0.5390 0.5880 0.6050 0.6320 0.6590
11.413000 0.6810 0.7200 0.7310 0.7360 0.7450
11.446997 0.7470 0.7520 0.7600 0.7650 0.7700
11.481000 0.7720 0.7750 0.7790 0.7790 0.7800
11.514997 0.7820 0.7840 0.7870 0.7890 0.7890
11.549000 0.7890 0.7900 0.7900 0.7900 0.7900
11.582997 0.7890 0.7850 0.7840 0.7820 0.7770
11.617000 0.7700 0.7680 0.7650 0.7600 0.7550
11.650997 0.7530 0.7520 0.7450 0.7360 0.7260
11.684000 0.7060 0.7040 0.6910 0.6690 0.6670
11.717997 0.6270 0.5850 0.5780 0.5710 0.5430
11.752000 0.5190 0.5050 0.4920 0.4750 0.4530
11.785997 0.4310 0.4090 0.3870 0.3670 0.3570
11.820000 0.3470 0.3370 0.3270 0.3170 0.3080
11.853997 0.3050 0.3030 0.3050 0.3060 0.3100
11.888000 0.3170 0.3280 0.3440 0.3860 0.4030
11.921997 0.4350 0.4600 0.4830 0.5210 0.5360
11.956000 0.5780 0.5810 0.5910 0.6000 0.6080
11.989997 0.6150 0.6230 0.6300 0.6390 0.6490
12.024000 0.6610 0.6740 0.6790 0.6810 0.6890
12.057997 0.6910 0.6930 0.6940 0.6960 0.6990
12.092000 0.7090 0.7110 0.7150 0.7160 0.7200
12.125997 0.7200 0.7230 0.7280 0.7300 0.7330
12.160000 0.7360 0.7410 0.7470 0.7500 0.7530
12.193997 0.7550 0.7570 0.7580 0.7600 0.7630
12.228000 0.7650 0.7680 0.7700 0.7720 0.7750
12.261997 0.7770 0.7790 0.7790 0.7800 0.7840
12.296000 0.7840 0.7840 0.7850 0.7850 0.7850
12.329997 0.7870 0.7870 0.7870 0.7890 0.7890
12.364000 0.7900 0.7900 0.7920 0.7920 0.7920
12.397997 0.7920 0.7920 0.7920 0.7920 0.7940
12.432000 0.7940 0.7940 0.7940 0.7950 0.7950
12.465997 0.7950 0.7950 0.7950 0.7950 0.7950
12.500000 0.7970 0.7970 0.7970 0.7970 0.7970
12.533997 0.7990 0.8010 0.8010 0.8010 0.8010
12.568000 0.8010 0.8010 0.8010 0.8010 0.8010
12.601997 0.8010 0.8020 0.8040 0.8040 0.8040
12.636000 0.8040 0.8060 0.8060 0.8060 0.8060
12.669997 0.8060 0.8060 0.8070 0.8070 0.8090
12.704000 0.8090 0.8110 0.8110 0.8110 0.8110
12.737997 0.8110 0.8110 0.8110 0.8120 0.8120
12.772000 0.8120 0.8120 0.8120 0.8140 0.8140
12.805997 0.8140 0.8160 0.8160 0.8160 0.8160
12.840000 0.8160 0.8160 0.8160 0.8160 0.8160
12.873997 0.8160 0.8160 0.8160 0.8160 0.8140
12.908000 0.8140 0.8120 0.8120 0.8110 0.8090
12.941997 0.8070 0.8040 0.8020 0.8010 0.7970
12.976000 0.7920 0.7850 0.7840 0.7800 0.7790
13.009997 0.7700 0.7650 0.7630 0.7620 0.7600
13.044000 0.7600 0.7600 0.7600 0.7620 0.7620
13.077997 0.7650 0.7680 0.7680 0.7720 0.7750
13.112000 0.7770 0.7790 0.7800 0.7820 0.7840
13.145997 0.7850 0.7870 0.7890 0.7900 0.7920
13.180000 0.7920 0.7950 0.8010 0.8020 0.8040
13.213997 0.8040 0.8040 0.8060 0.8060 0.8060
13.248000 0.8060 0.8060 0.8060 0.8060 0.8060
13.281997 0.8040 0.8040 0.8040 0.8020 0.8010
13.316000 0.7990 0.7990 0.7970 0.7970 0.7940
13.349997 0.7920 0.7870 0.7820 0.7790 0.7770
13.383000 0.7750 0.7700 0.7670 0.7620 0.7600
13.416997 0.7580 0.7570 0.7570 0.7570 0.7570
13.451000 0.7580 0.7600 0.7620 0.7650 0.7680
13.484997 0.7700 0.7720 0.7740 0.7770 0.7790
13.519000 0.7800 0.7800 0.7800 0.7800 0.7800
13.552997 0.7800 0.7800 0.7800 0.7790 0.7790
13.587000 0.7770 0.7750 0.7750 0.7740 0.7720
13.620997 0.7720 0.7700 0.7670 0.7630 0.7630
13.655000 0.7620 0.7600 0.7580 0.7550 0.7520
13.688997 0.7470 0.7450 0.7400 0.7360 0.7350
13.723000 0.7300 0.7280 0.7200 0.7150 0.7110
13.756997 0.7080 0.7040 0.7040 0.7030 0.7030
13.791000 0.7030 0.7040 0.7090 0.7130 0.7180
13.824997 0.7210 0.7250 0.7260 0.7300 0.7360
13.859000 0.7380 0.7400 0.7410 0.7450 0.7470
13.892997 0.7480 0.7480 0.7500 0.7500 0.7520
13.927000 0.7530 0.7530 0.7570 0.7570 0.7570
13.960997 0.7580 0.7580 0.7580 0.7580 0.7600
13.995000 0.7600 0.7600 0.7600 0.7600 0.7600
14.028997 0.7600 0.7600 0.7600 0.7600 0.7600
14.063000 0.7600 0.7600 0.7600 0.7600 0.7600
14.096997 0.7600 0.7580 0.7580 0.7580 0.7570
14.131000 0.7570 0.7550 0.7550 0.7530 0.7530
14.164997 0.7520 0.7520 0.7500 0.7500 0.7500
14.199000 0.7480 0.7480 0.7480 0.7470 0.7470
14.232997 0.7450 0.7450 0.7450 0.7430 0.7430
14.267000 0.7430 0.7410 0.7410 0.7400 0.7400
14.300997 0.7400 0.7380 0.7380 0.7380 0.7360
14.335000 0.7360 0.7360 0.7350 0.7350 0.7350
14.368997 0.7330 0.7310 0.7300 0.7300 0.7280
14.403000 0.7260 0.7260 0.7250 0.7230 0.7210
14.436997 0.7210 0.7210 0.7200 0.7200 0.7180
14.471000 0.7160 0.7160 0.7150 0.7130 0.7110
14.504997 0.7090 0.7060 0.7060 0.7040 0.7040
14.539000 0.7040 0.7040 0.7040 0.7030 0.7030
14.572997 0.7010 0.7010 0.6980 0.6980 0.6960
14.607000 0.6960 0.6940 0.6940 0.6930 0.6910
14.640997 0.6890 0.6880 0.6880 0.6860 0.6820
14.675000 0.6810 0.6810 0.6790 0.6770 0.6770
14.708997 0.6760 0.6740 0.6720 0.6720 0.6710
14.743000 0.6690 0.6690 0.6670 0.6660 0.6660
14.776997 0.6620 0.6610 0.6590 0.6570 0.6550
14.811000 0.6540 0.6500 0.6470 0.6440 0.6400
14.844997 0.6370 0.6370 0.6300 0.6290 0.6230
14.879000 0.6150 0.6130 0.6080 0.6030 0.6020
14.912997 0.5980 0.5960 0.5950 0.5950 0.5930
14.947000 0.5930 0.5930 0.5930 0.5950 0.5950
14.980997 0.5980 0.5980 0.6000 0.6000 0.6020
15.015000 0.6020 0.6000 0.6000 0.5980 0.5960
15.048997 0.5960 0.5960 0.5950 0.5950 0.5930
15.083000 0.5910 0.5900 0.5880 0.5880 0.5860
15.116997 0.5850 0.5850 0.5850 0.5830 0.5810
15.150000 0.5800 0.5800 0.5800 0.5800 0.5800
15.183997 0.5780 0.5780 0.5760 0.5760 0.5760
15.218000 0.5750 0.5750 0.5730 0.5710 0.5690
15.251997 0.5680 0.5640 0.5640 0.5630 0.5610
15.286000 0.5590 0.5590 0.5580 0.5560 0.5560
15.319997 0.5540 0.5540 0.5530 0.5530 0.5490
15.354000 0.5490 0.5480 0.5460 0.5440 0.5430
15.387997 0.5410 0.5390 0.5370 0.5360 0.5340
15.422000 0.5320 0.5310 0.5290 0.5260 0.5240
15.455997 0.5210 0.5190 0.5170 0.5120 0.5100
15.490000 0.5070 0.5020 0.5000 0.5000 0.4990
15.523997 0.4970 0.4890 0.4850 0.4820 0.4780
15.558000 0.4770 0.4750 0.4730 0.4700 0.4680
15.591997 0.4650 0.4620 0.4580 0.4580 0.4560
15.626000 0.4550 0.4510 0.4500 0.4480 0.4480
15.659997 0.4460 0.4460 0.4460 0.4460 0.4460
15.694000 0.4460 0.4460 0.4460 0.4460 0.4460
15.727997 0.4460 0.4460 0.4460 0.4460 0.4450
15.762000 0.4450 0.4450 0.4450 0.4450 0.4450
15.795997 0.4450 0.4450 0.4450 0.4450 0.4450
15.830000 0.4450 0.4450 0.4430 0.4430 0.4410
15.863997 0.4410 0.4410 0.4410 0.4410 0.4400
15.898000 0.4400 0.4400 0.4380 0.4380 0.4380
15.931997 0.4380 0.4380 0.4380 0.4380 0.4380
15.966000 0.4380
##END=
