##TITLE=1-Phenylcyclopentanecarboxylic acid, 2-diethyl-aminoethyl ester, 1,2-ethanedisulfonate
##JCAMP-DX=4.24
$$ By DXEDIT 1.05 (RS McDonald)
##DATA TYPE=INFRARED SPECTRUM
##CLASS=COBLENTZ III
##ORIGIN=SMITH KLINE & FRENCH LABS.
##OWNER=COPYRIGHT (C) 1988 by COBLENTZ SOCIETY INC.
Collection (C) 2018 copyright by the U.S. Secretary of Commerce
on behalf of the United States of America. All rights reserved.
##DATE=1966/03/21
##MOLFORM=C38 H60 N2 O10 S2
##SOURCE REFERENCE=COBLENTZ NO. 08399
##$NIST ID=B6008399
##$NIST SOURCE=COBLENTZ
##$NIST IMAGE=cob8399
##SPECTROMETER/DATA SYSTEM=PERKIN-ELMER 21 (GRATING)
##INSTRUMENT PARAMETERS=NaCl PRISM
##STATE=SOLID (OIL MULL)
$$ SEE SPECTRUM NO. 5156 FOR "KBr DISC" STATE
$$SPECTRAL CONTAMINATION DUE TO OIL AROUND 2900, 1460, 1375 CM^-^1
##SAMPLING PROCEDURE=TRANSMISSION
##RESOLUTION=2
##DATA PROCESSING=DIGITIZED BY COBLENTZ SOCIETY (BATCH I) FROM HARD COPY
##XUNITS=1/CM
##YUNITS=TRANSMITTANCE
##XFACTOR=1
##YFACTOR=1
##DELTAX=1
##FIRSTX=4000
##LASTX=653
##FIRSTY=0.5715
##MAXX=4000
##MINX=653
##MAXY=0.9486
##MINY=0.0459
##NPOINTS=3348
##XYDATA=(X++(Y..Y))
4000.000000 0.5715 0.5717 0.5720 0.5722 0.5725
3995.000000 0.5728 0.5730 0.5733 0.5736 0.5738
3990.000000 0.5741 0.5743 0.5746 0.5748 0.5751
3985.000000 0.5753 0.5756 0.5758 0.5760 0.5762
3980.000000 0.5766 0.5768 0.5771 0.5773 0.5776
3975.000000 0.5778 0.5781 0.5783 0.5786 0.5789
3970.000000 0.5791 0.5794 0.5796 0.5799 0.5801
3965.000000 0.5804 0.5806 0.5809 0.5810 0.5814
3960.000000 0.5817 0.5819 0.5822 0.5824 0.5827
3955.000000 0.5829 0.5832 0.5834 0.5837 0.5840
3950.000000 0.5842 0.5845 0.5847 0.5850 0.5852
3945.000000 0.5855 0.5857 0.5860 0.5862 0.5865
3940.000000 0.5868 0.5870 0.5873 0.5876 0.5878
3935.000000 0.5881 0.5883 0.5886 0.5888 0.5891
3930.000000 0.5894 0.5896 0.5899 0.5901 0.5904
3925.000000 0.5907 0.5909 0.5912 0.5915 0.5918
3920.000000 0.5920 0.5923 0.5926 0.5929 0.5933
3915.000000 0.5936 0.5939 0.5942 0.5946 0.5949
3910.000000 0.5953 0.5956 0.5959 0.5962 0.5966
3905.000000 0.5970 0.5973 0.5977 0.5980 0.5984
3900.000000 0.5987 0.5990 0.5994 0.5997 0.6000
3895.000000 0.6003 0.6007 0.6010 0.6012 0.6017
3890.000000 0.6020 0.6023 0.6027 0.6030 0.6033
3885.000000 0.6036 0.6039 0.6042 0.6045 0.6049
3880.000000 0.6052 0.6055 0.6059 0.6062 0.6065
3875.000000 0.6069 0.6072 0.6075 0.6079 0.6082
3870.000000 0.6085 0.6089 0.6092 0.6095 0.6098
3865.000000 0.6101 0.6104 0.6107 0.6110 0.6112
3860.000000 0.6115 0.6118 0.6121 0.6123 0.6125
3855.000000 0.6128 0.6130 0.6132 0.6135 0.6137
3850.000000 0.6140 0.6142 0.6145 0.6147 0.6150
3845.000000 0.6152 0.6155 0.6157 0.6159 0.6162
3840.000000 0.6164 0.6165 0.6166 0.6167 0.6169
3835.000000 0.6170 0.6171 0.6171 0.6172 0.6173
3830.000000 0.6173 0.6174 0.6175 0.6176 0.6176
3825.000000 0.6177 0.6178 0.6178 0.6179 0.6179
3820.000000 0.6179 0.6179 0.6179 0.6179 0.6180
3815.000000 0.6180 0.6180 0.6181 0.6181 0.6181
3810.000000 0.6182 0.6182 0.6182 0.6182 0.6182
3805.000000 0.6183 0.6183 0.6183 0.6184 0.6184
3800.000000 0.6184 0.6185 0.6185 0.6185 0.6186
3795.000000 0.6186 0.6186 0.6187 0.6187 0.6187
3790.000000 0.6187 0.6187 0.6187 0.6189 0.6190
3785.000000 0.6191 0.6192 0.6193 0.6195 0.6196
3780.000000 0.6198 0.6199 0.6200 0.6202 0.6203
3775.000000 0.6205 0.6206 0.6208 0.6210 0.6210
3770.000000 0.6212 0.6214 0.6216 0.6217 0.6219
3765.000000 0.6221 0.6222 0.6223 0.6225 0.6226
3760.000000 0.6228 0.6229 0.6231 0.6232 0.6234
3755.000000 0.6236 0.6237 0.6239 0.6240 0.6242
3750.000000 0.6244 0.6245 0.6247 0.6248 0.6250
3745.000000 0.6251 0.6252 0.6254 0.6255 0.6257
3740.000000 0.6259 0.6260 0.6262 0.6262 0.6265
3735.000000 0.6267 0.6268 0.6270 0.6271 0.6273
3730.000000 0.6275 0.6277 0.6279 0.6280 0.6282
3725.000000 0.6284 0.6286 0.6288 0.6289 0.6291
3720.000000 0.6293 0.6295 0.6297 0.6298 0.6300
3715.000000 0.6302 0.6304 0.6306 0.6307 0.6309
3710.000000 0.6310 0.6312 0.6315 0.6317 0.6318
3705.000000 0.6320 0.6322 0.6324 0.6325 0.6327
3700.000000 0.6329 0.6330 0.6332 0.6334 0.6336
3695.000000 0.6337 0.6339 0.6341 0.6343 0.6345
3690.000000 0.6347 0.6348 0.6350 0.6352 0.6354
3685.000000 0.6356 0.6358 0.6359 0.6360 0.6362
3680.000000 0.6365 0.6367 0.6369 0.6371 0.6372
3675.000000 0.6374 0.6376 0.6377 0.6379 0.6381
3670.000000 0.6382 0.6384 0.6386 0.6388 0.6390
3665.000000 0.6392 0.6393 0.6395 0.6397 0.6398
3660.000000 0.6400 0.6401 0.6403 0.6405 0.6407
3655.000000 0.6408 0.6410 0.6411 0.6414 0.6415
3650.000000 0.6417 0.6418 0.6419 0.6421 0.6424
3645.000000 0.6425 0.6426 0.6428 0.6431 0.6433
3640.000000 0.6435 0.6438 0.6440 0.6442 0.6444
3635.000000 0.6446 0.6448 0.6450 0.6451 0.6454
3630.000000 0.6456 0.6457 0.6458 0.6461 0.6464
3625.000000 0.6465 0.6468 0.6469 0.6471 0.6474
3620.000000 0.6475 0.6478 0.6480 0.6482 0.6485
3615.000000 0.6487 0.6489 0.6491 0.6493 0.6495
3610.000000 0.6498 0.6500 0.6501 0.6504 0.6504
3605.000000 0.6504 0.6505 0.6505 0.6506 0.6506
3600.000000 0.6506 0.6506 0.6506 0.6507 0.6507
3595.000000 0.6507 0.6507 0.6507 0.6507 0.6508
3590.000000 0.6508 0.6508 0.6508 0.6508 0.6508
3585.000000 0.6508 0.6510 0.6511 0.6511 0.6514
3580.000000 0.6515 0.6518 0.6519 0.6521 0.6524
3575.000000 0.6525 0.6526 0.6528 0.6531 0.6533
3570.000000 0.6535 0.6537 0.6539 0.6541 0.6544
3565.000000 0.6547 0.6550 0.6554 0.6557 0.6560
3560.000000 0.6564 0.6568 0.6571 0.6575 0.6578
3555.000000 0.6578 0.6581 0.6583 0.6584 0.6586
3550.000000 0.6586 0.6586 0.6587 0.6587 0.6588
3545.000000 0.6588 0.6589 0.6589 0.6590 0.6591
3540.000000 0.6591 0.6591 0.6591 0.6591 0.6590
3535.000000 0.6590 0.6590 0.6590 0.6590 0.6589
3530.000000 0.6589 0.6589 0.6589 0.6589 0.6588
3525.000000 0.6588 0.6588 0.6588 0.6588 0.6587
3520.000000 0.6587 0.6587 0.6587 0.6587 0.6586
3515.000000 0.6586 0.6586 0.6586 0.6586 0.6585
3510.000000 0.6585 0.6585 0.6585 0.6585 0.6585
3505.000000 0.6585 0.6585 0.6585 0.6585 0.6584
3500.000000 0.6584 0.6584 0.6584 0.6584 0.6583
3495.000000 0.6583 0.6582 0.6582 0.6582 0.6581
3490.000000 0.6581 0.6581 0.6581 0.6581 0.6580
3485.000000 0.6580 0.6580 0.6580 0.6580 0.6578
3480.000000 0.6578 0.6578 0.6578 0.6578 0.6578
3475.000000 0.6578 0.6578 0.6578 0.6576 0.6576
3470.000000 0.6576 0.6575 0.6575 0.6575 0.6575
3465.000000 0.6575 0.6575 0.6575 0.6574 0.6574
3460.000000 0.6574 0.6574 0.6574 0.6572 0.6572
3455.000000 0.6572 0.6572 0.6571 0.6571 0.6571
3450.000000 0.6569 0.6568 0.6568 0.6568 0.6567
3445.000000 0.6565 0.6565 0.6565 0.6564 0.6562
3440.000000 0.6562 0.6561 0.6561 0.6560 0.6560
3435.000000 0.6558 0.6558 0.6558 0.6557 0.6556
3430.000000 0.6555 0.6554 0.6554 0.6553 0.6551
3425.000000 0.6551 0.6551 0.6551 0.6550 0.6550
3420.000000 0.6550 0.6549 0.6549 0.6549 0.6549
3415.000000 0.6548 0.6548 0.6548 0.6548 0.6548
3410.000000 0.6547 0.6547 0.6547 0.6547 0.6547
3405.000000 0.6546 0.6546 0.6546 0.6546 0.6545
3400.000000 0.6545 0.6545 0.6545 0.6545 0.6544
3395.000000 0.6544 0.6544 0.6544 0.6543 0.6543
3390.000000 0.6543 0.6543 0.6543 0.6542 0.6542
3385.000000 0.6542 0.6542 0.6542 0.6541 0.6541
3380.000000 0.6541 0.6541 0.6541 0.6541 0.6541
3375.000000 0.6541 0.6541 0.6540 0.6540 0.6540
3370.000000 0.6540 0.6540 0.6541 0.6542 0.6542
3365.000000 0.6543 0.6544 0.6545 0.6547 0.6548
3360.000000 0.6549 0.6551 0.6553 0.6555 0.6557
3355.000000 0.6560 0.6565 0.6568 0.6572 0.6576
3350.000000 0.6581 0.6585 0.6589 0.6593 0.6598
3345.000000 0.6601 0.6606 0.6610 0.6614 0.6618
3340.000000 0.6622 0.6626 0.6631 0.6635 0.6639
3335.000000 0.6643 0.6648 0.6651 0.6656 0.6660
3330.000000 0.6664 0.6668 0.6668 0.6668 0.6668
3325.000000 0.6668 0.6669 0.6669 0.6669 0.6669
3320.000000 0.6671 0.6671 0.6671 0.6671 0.6671
3315.000000 0.6671 0.6671 0.6671 0.6671 0.6669
3310.000000 0.6669 0.6669 0.6669 0.6669 0.6668
3305.000000 0.6668 0.6668 0.6668 0.6667 0.6667
3300.000000 0.6665 0.6665 0.6665 0.6665 0.6665
3295.000000 0.6667 0.6667 0.6668 0.6669 0.6671
3290.000000 0.6674 0.6675 0.6676 0.6678 0.6680
3285.000000 0.6682 0.6683 0.6685 0.6687 0.6688
3280.000000 0.6691 0.6694 0.6697 0.6700 0.6704
3275.000000 0.6708 0.6714 0.6718 0.6724 0.6728
3270.000000 0.6733 0.6738 0.6742 0.6746 0.6749
3265.000000 0.6753 0.6756 0.6760 0.6764 0.6767
3260.000000 0.6771 0.6774 0.6776 0.6778 0.6782
3255.000000 0.6785 0.6785 0.6786 0.6787 0.6787
3250.000000 0.6788 0.6789 0.6790 0.6791 0.6792
3245.000000 0.6793 0.6794 0.6795 0.6796 0.6796
3240.000000 0.6796 0.6796 0.6796 0.6795 0.6794
3235.000000 0.6793 0.6791 0.6790 0.6789 0.6788
3230.000000 0.6787 0.6785 0.6784 0.6783 0.6782
3225.000000 0.6781 0.6780 0.6778 0.6778 0.6776
3220.000000 0.6776 0.6775 0.6775 0.6775 0.6774
3215.000000 0.6774 0.6772 0.6771 0.6771 0.6771
3210.000000 0.6771 0.6769 0.6769 0.6768 0.6768
3205.000000 0.6767 0.6767 0.6765 0.6765 0.6764
3200.000000 0.6764 0.6762 0.6761 0.6761 0.6761
3195.000000 0.6760 0.6758 0.6758 0.6757 0.6756
3190.000000 0.6754 0.6753 0.6751 0.6749 0.6747
3185.000000 0.6745 0.6743 0.6742 0.6740 0.6738
3180.000000 0.6736 0.6734 0.6732 0.6730 0.6728
3175.000000 0.6725 0.6724 0.6721 0.6718 0.6715
3170.000000 0.6711 0.6708 0.6706 0.6701 0.6699
3165.000000 0.6695 0.6691 0.6688 0.6684 0.6680
3160.000000 0.6676 0.6672 0.6669 0.6665 0.6661
3155.000000 0.6658 0.6655 0.6651 0.6647 0.6644
3150.000000 0.6640 0.6637 0.6633 0.6630 0.6625
3145.000000 0.6622 0.6618 0.6615 0.6611 0.6608
3140.000000 0.6605 0.6601 0.6599 0.6595 0.6592
3135.000000 0.6589 0.6585 0.6582 0.6578 0.6575
3130.000000 0.6571 0.6568 0.6565 0.6561 0.6558
3125.000000 0.6555 0.6551 0.6548 0.6545 0.6541
3120.000000 0.6538 0.6534 0.6531 0.6526 0.6522
3115.000000 0.6518 0.6512 0.6507 0.6501 0.6494
3110.000000 0.6488 0.6482 0.6475 0.6468 0.6461
3105.000000 0.6456 0.6450 0.6443 0.6437 0.6426
3100.000000 0.6415 0.6405 0.6394 0.6379 0.6364
3095.000000 0.6349 0.6335 0.6320 0.6305 0.6290
3090.000000 0.6275 0.6259 0.6243 0.6227 0.6210
3085.000000 0.6195 0.6179 0.6162 0.6147 0.6131
3080.000000 0.6114 0.6098 0.6062 0.6021 0.5980
3075.000000 0.5939 0.5888 0.5836 0.5785 0.5737
3070.000000 0.5700 0.5662 0.5627 0.5598 0.5580
3065.000000 0.5560 0.5543 0.5524 0.5505 0.5487
3060.000000 0.5468 0.5448 0.5428 0.5408 0.5388
3055.000000 0.5367 0.5346 0.5325 0.5304 0.5283
3050.000000 0.5262 0.5242 0.5220 0.5197 0.5175
3045.000000 0.5152 0.5128 0.5104 0.5081 0.5057
3040.000000 0.5033 0.5010 0.4986 0.4957 0.4924
3035.000000 0.4892 0.4859 0.4824 0.4788 0.4753
3030.000000 0.4710 0.4651 0.4592 0.4533 0.4469
3025.000000 0.4402 0.4334 0.4267 0.4204 0.4141
3020.000000 0.4078 0.4020 0.3974 0.3927 0.3880
3015.000000 0.3830 0.3780 0.3729 0.3678 0.3628
3010.000000 0.3578 0.3528 0.3488 0.3459 0.3432
3005.000000 0.3404 0.3380 0.3359 0.3337 0.3314
3000.000000 0.3287 0.3259 0.3232 0.3188 0.3132
2995.000000 0.3077 0.3021 0.2965 0.2909 0.2852
2990.000000 0.2796 0.2740 0.2684 0.2628 0.2572
2985.000000 0.2516 0.2460 0.2404 0.2348 0.2292
2980.000000 0.2234 0.2179 0.2122 0.2065 0.2009
2975.000000 0.1952 0.1895 0.1839 0.1783 0.1726
2970.000000 0.1669 0.1613 0.1556 0.1499 0.1442
2965.000000 0.1385 0.1328 0.1271 0.1214 0.1157
2960.000000 0.1100 0.1042 0.0985 0.0928 0.0871
2955.000000 0.0815 0.0767 0.0720 0.0673 0.0647
2950.000000 0.0635 0.0624 0.0612 0.0601 0.0590
2945.000000 0.0579 0.0574 0.0571 0.0569 0.0566
2940.000000 0.0563 0.0561 0.0558 0.0555 0.0553
2935.000000 0.0550 0.0547 0.0544 0.0542 0.0539
2930.000000 0.0537 0.0535 0.0534 0.0532 0.0530
2925.000000 0.0528 0.0527 0.0525 0.0523 0.0521
2920.000000 0.0520 0.0518 0.0517 0.0515 0.0513
2915.000000 0.0512 0.0510 0.0508 0.0506 0.0505
2910.000000 0.0503 0.0503 0.0503 0.0503 0.0502
2905.000000 0.0501 0.0501 0.0500 0.0500 0.0499
2900.000000 0.0498 0.0498 0.0497 0.0497 0.0496
2895.000000 0.0496 0.0496 0.0495 0.0495 0.0494
2890.000000 0.0493 0.0493 0.0493 0.0493 0.0493
2885.000000 0.0493 0.0493 0.0493 0.0493 0.0493
2880.000000 0.0493 0.0493 0.0493 0.0493 0.0493
2875.000000 0.0493 0.0493 0.0493 0.0495 0.0496
2870.000000 0.0498 0.0499 0.0501 0.0502 0.0504
2865.000000 0.0506 0.0507 0.0510 0.0515 0.0519
2860.000000 0.0525 0.0533 0.0541 0.0549 0.0556
2855.000000 0.0564 0.0572 0.0582 0.0593 0.0603
2850.000000 0.0612 0.0619 0.0626 0.0632 0.0635
2845.000000 0.0639 0.0642 0.0644 0.0646 0.0648
2840.000000 0.0650 0.0651 0.0653 0.0661 0.0671
2835.000000 0.0682 0.0700 0.0728 0.0755 0.0795
2830.000000 0.0872 0.0950 0.1029 0.1140 0.1251
2825.000000 0.1362 0.1469 0.1575 0.1681 0.1787
2820.000000 0.1894 0.2001 0.2108 0.2215 0.2321
2815.000000 0.2428 0.2534 0.2642 0.2749 0.2857
2810.000000 0.2964 0.3071 0.3179 0.3287 0.3395
2805.000000 0.3503 0.3609 0.3718 0.3826 0.3934
2800.000000 0.4042 0.4150 0.4259 0.4367 0.4468
2795.000000 0.4560 0.4653 0.4727 0.4760 0.4793
2790.000000 0.4828 0.4867 0.4907 0.4948 0.5003
2785.000000 0.5058 0.5112 0.5212 0.5312 0.5414
2780.000000 0.5444 0.5462 0.5481 0.5498 0.5514
2775.000000 0.5531 0.5539 0.5544 0.5549 0.5552
2770.000000 0.5554 0.5556 0.5558 0.5560 0.5560
2765.000000 0.5562 0.5565 0.5567 0.5569 0.5571
2760.000000 0.5573 0.5576 0.5581 0.5586 0.5591
2755.000000 0.5596 0.5601 0.5608 0.5620 0.5633
2750.000000 0.5645 0.5657 0.5669 0.5680 0.5686
2745.000000 0.5691 0.5696 0.5698 0.5700 0.5702
2740.000000 0.5704 0.5705 0.5707 0.5707 0.5708
2735.000000 0.5708 0.5708 0.5708 0.5706 0.5702
2730.000000 0.5697 0.5675 0.5603 0.5531 0.5444
2725.000000 0.5319 0.5195 0.5100 0.5072 0.5044
2720.000000 0.5018 0.4998 0.4977 0.4957 0.4937
2715.000000 0.4917 0.4900 0.4887 0.4874 0.4860
2710.000000 0.4848 0.4835 0.4823 0.4810 0.4799
2705.000000 0.4789 0.4779 0.4770 0.4760 0.4752
2700.000000 0.4742 0.4733 0.4724 0.4715 0.4707
2695.000000 0.4699 0.4691 0.4683 0.4675 0.4667
2690.000000 0.4655 0.4644 0.4630 0.4604 0.4579
2685.000000 0.4533 0.4438 0.4343 0.4273 0.4239
2680.000000 0.4205 0.4175 0.4151 0.4126 0.4100
2675.000000 0.4073 0.4047 0.4018 0.3989 0.3959
2670.000000 0.3923 0.3886 0.3847 0.3789 0.3730
2665.000000 0.3674 0.3628 0.3582 0.3539 0.3502
2660.000000 0.3464 0.3438 0.3418 0.3400 0.3384
2655.000000 0.3371 0.3357 0.3344 0.3330 0.3316
2650.000000 0.3304 0.3291 0.3279 0.3266 0.3253
2645.000000 0.3240 0.3228 0.3216 0.3207 0.3200
2640.000000 0.3193 0.3187 0.3181 0.3175 0.3173
2635.000000 0.3171 0.3169 0.3169 0.3168 0.3168
2630.000000 0.3169 0.3170 0.3171 0.3172 0.3174
2625.000000 0.3175 0.3176 0.3177 0.3181 0.3184
2620.000000 0.3188 0.3192 0.3196 0.3200 0.3204
2615.000000 0.3208 0.3212 0.3216 0.3222 0.3228
2610.000000 0.3232 0.3239 0.3244 0.3250 0.3255
2605.000000 0.3259 0.3266 0.3280 0.3295 0.3310
2600.000000 0.3329 0.3348 0.3371 0.3395 0.3420
2595.000000 0.3446 0.3472 0.3498 0.3524 0.3550
2590.000000 0.3579 0.3609 0.3641 0.3676 0.3709
2585.000000 0.3745 0.3780 0.3818 0.3856 0.3895
2580.000000 0.3934 0.3966 0.3997 0.4023 0.4038
2575.000000 0.4053 0.4062 0.4068 0.4077 0.4084
2570.000000 0.4092 0.4099 0.4106 0.4114 0.4121
2565.000000 0.4127 0.4134 0.4141 0.4148 0.4155
2560.000000 0.4162 0.4168 0.4176 0.4183 0.4190
2555.000000 0.4198 0.4206 0.4214 0.4222 0.4231
2550.000000 0.4239 0.4248 0.4256 0.4264 0.4272
2545.000000 0.4280 0.4288 0.4295 0.4303 0.4310
2540.000000 0.4318 0.4326 0.4333 0.4341 0.4349
2535.000000 0.4357 0.4366 0.4375 0.4384 0.4393
2530.000000 0.4402 0.4412 0.4423 0.4433 0.4444
2525.000000 0.4454 0.4460 0.4467 0.4473 0.4479
2520.000000 0.4484 0.4487 0.4489 0.4492 0.4494
2515.000000 0.4497 0.4500 0.4502 0.4505 0.4507
2510.000000 0.4509 0.4510 0.4512 0.4514 0.4515
2505.000000 0.4516 0.4516 0.4516 0.4514 0.4510
2500.000000 0.4508 0.4501 0.4495 0.4484 0.4470
2495.000000 0.4455 0.4437 0.4418 0.4400 0.4383
2490.000000 0.4365 0.4347 0.4330 0.4309 0.4286
2485.000000 0.4262 0.4248 0.4233 0.4222 0.4214
2480.000000 0.4206 0.4204 0.4202 0.4200 0.4199
2475.000000 0.4198 0.4198 0.4198 0.4198 0.4199
2470.000000 0.4201 0.4206 0.4210 0.4229 0.4250
2465.000000 0.4279 0.4319 0.4358 0.4399 0.4439
2460.000000 0.4480 0.4521 0.4560 0.4601 0.4641
2455.000000 0.4698 0.4758 0.4810 0.4850 0.4889
2450.000000 0.4916 0.4944 0.4973 0.5003 0.5039
2445.000000 0.5103 0.5166 0.5212 0.5254 0.5294
2440.000000 0.5333 0.5372 0.5395 0.5418 0.5442
2435.000000 0.5465 0.5489 0.5512 0.5536 0.5562
2430.000000 0.5591 0.5618 0.5645 0.5673 0.5704
2425.000000 0.5734 0.5760 0.5788 0.5808 0.5822
2420.000000 0.5836 0.5847 0.5857 0.5868 0.5879
2415.000000 0.5890 0.5903 0.5916 0.5931 0.5946
2410.000000 0.5960 0.5976 0.5994 0.6015 0.6036
2405.000000 0.6060 0.6086 0.6110 0.6137 0.6173
2400.000000 0.6218 0.6262 0.6306 0.6350 0.6366
2395.000000 0.6381 0.6397 0.6412 0.6430 0.6449
2390.000000 0.6468 0.6486 0.6504 0.6521 0.6539
2385.000000 0.6554 0.6568 0.6582 0.6596 0.6610
2380.000000 0.6624 0.6637 0.6650 0.6661 0.6674
2375.000000 0.6686 0.6698 0.6710 0.6721 0.6734
2370.000000 0.6746 0.6758 0.6772 0.6786 0.6800
2365.000000 0.6814 0.6828 0.6843 0.6862 0.6885
2360.000000 0.6896 0.6904 0.6908 0.6914 0.6917
2355.000000 0.6918 0.6918 0.6918 0.6919 0.6921
2350.000000 0.6921 0.6922 0.6925 0.6925 0.6926
2345.000000 0.6928 0.6930 0.6931 0.6933 0.6935
2340.000000 0.6940 0.6946 0.6951 0.6958 0.6964
2335.000000 0.6969 0.6975 0.6982 0.6988 0.6995
2330.000000 0.7001 0.7010 0.7018 0.7026 0.7035
2325.000000 0.7043 0.7051 0.7060 0.7068 0.7076
2320.000000 0.7087 0.7097 0.7106 0.7115 0.7125
2315.000000 0.7135 0.7145 0.7156 0.7168 0.7181
2310.000000 0.7194 0.7207 0.7219 0.7233 0.7246
2305.000000 0.7258 0.7271 0.7285 0.7298 0.7311
2300.000000 0.7324 0.7338 0.7351 0.7364 0.7376
2295.000000 0.7391 0.7405 0.7419 0.7434 0.7448
2290.000000 0.7462 0.7476 0.7492 0.7507 0.7521
2285.000000 0.7535 0.7549 0.7562 0.7576 0.7592
2280.000000 0.7605 0.7618 0.7628 0.7640 0.7651
2275.000000 0.7661 0.7671 0.7680 0.7686 0.7692
2270.000000 0.7697 0.7703 0.7708 0.7714 0.7718
2265.000000 0.7725 0.7730 0.7736 0.7743 0.7750
2260.000000 0.7757 0.7765 0.7771 0.7778 0.7786
2255.000000 0.7795 0.7803 0.7812 0.7821 0.7831
2250.000000 0.7841 0.7850 0.7858 0.7868 0.7878
2245.000000 0.7888 0.7897 0.7908 0.7918 0.7930
2240.000000 0.7941 0.7951 0.7962 0.7974 0.7985
2235.000000 0.7995 0.8006 0.8015 0.8025 0.8034
2230.000000 0.8043 0.8051 0.8061 0.8071 0.8080
2225.000000 0.8089 0.8099 0.8108 0.8118 0.8130
2220.000000 0.8140 0.8150 0.8160 0.8171 0.8182
2215.000000 0.8192 0.8202 0.8212 0.8218 0.8223
2210.000000 0.8227 0.8228 0.8232 0.8235 0.8238
2205.000000 0.8241 0.8243 0.8244 0.8245 0.8245
2200.000000 0.8244 0.8244 0.8243 0.8243 0.8243
2195.000000 0.8243 0.8242 0.8242 0.8243 0.8245
2190.000000 0.8247 0.8249 0.8251 0.8253 0.8255
2185.000000 0.8258 0.8263 0.8270 0.8280 0.8289
2180.000000 0.8299 0.8308 0.8318 0.8325 0.8335
2175.000000 0.8342 0.8350 0.8353 0.8356 0.8359
2170.000000 0.8362 0.8365 0.8367 0.8368 0.8371
2165.000000 0.8371 0.8371 0.8371 0.8371 0.8371
2160.000000 0.8371 0.8371 0.8371 0.8371 0.8371
2155.000000 0.8373 0.8374 0.8375 0.8378 0.8380
2150.000000 0.8382 0.8385 0.8389 0.8397 0.8405
2145.000000 0.8413 0.8421 0.8428 0.8437 0.8445
2140.000000 0.8456 0.8473 0.8489 0.8505 0.8521
2135.000000 0.8535 0.8549 0.8562 0.8575 0.8588
2130.000000 0.8602 0.8615 0.8628 0.8642 0.8656
2125.000000 0.8667 0.8678 0.8691 0.8702 0.8711
2120.000000 0.8717 0.8721 0.8725 0.8731 0.8735
2115.000000 0.8739 0.8743 0.8748 0.8752 0.8756
2110.000000 0.8760 0.8762 0.8763 0.8764 0.8764
2105.000000 0.8764 0.8764 0.8764 0.8764 0.8764
2100.000000 0.8764 0.8763 0.8763 0.8763 0.8763
2095.000000 0.8763 0.8763 0.8764 0.8765 0.8766
2090.000000 0.8767 0.8767 0.8768 0.8768 0.8770
2085.000000 0.8771 0.8771 0.8773 0.8773 0.8774
2080.000000 0.8775 0.8775 0.8777 0.8778 0.8778
2075.000000 0.8780 0.8781 0.8781 0.8783 0.8784
2070.000000 0.8784 0.8785 0.8786 0.8787 0.8788
2065.000000 0.8789 0.8790 0.8790 0.8791 0.8793
2060.000000 0.8793 0.8794 0.8794 0.8795 0.8795
2055.000000 0.8797 0.8798 0.8798 0.8799 0.8799
2050.000000 0.8800 0.8801 0.8802 0.8803 0.8803
2045.000000 0.8804 0.8805 0.8807 0.8809 0.8811
2040.000000 0.8814 0.8817 0.8823 0.8828 0.8835
2035.000000 0.8842 0.8848 0.8854 0.8860 0.8866
2030.000000 0.8871 0.8878 0.8883 0.8888 0.8893
2025.000000 0.8899 0.8904 0.8909 0.8914 0.8920
2020.000000 0.8925 0.8931 0.8936 0.8942 0.8948
2015.000000 0.8954 0.8961 0.8967 0.8973 0.8978
2010.000000 0.8984 0.8988 0.8992 0.8996 0.9000
2005.000000 0.9003 0.9006 0.9008 0.9010 0.9012
2000.000000 0.9014 0.9015 0.9015 0.9012 0.9009
1995.000000 0.9006 0.9002 0.8999 0.8995 0.8984
1990.000000 0.8973 0.8962 0.8952 0.8942 0.8932
1985.000000 0.8921 0.8912 0.8902 0.8893 0.8884
1980.000000 0.8875 0.8866 0.8857 0.8847 0.8846
1975.000000 0.8845 0.8849 0.8853 0.8858 0.8864
1970.000000 0.8868 0.8875 0.8878 0.8881 0.8883
1965.000000 0.8885 0.8887 0.8889 0.8890 0.8890
1960.000000 0.8890 0.8890 0.8890 0.8897 0.8914
1955.000000 0.8955 0.8981 0.9000 0.9017 0.9030
1950.000000 0.9039 0.9046 0.9054 0.9061 0.9068
1945.000000 0.9074 0.9078 0.9082 0.9085 0.9088
1940.000000 0.9092 0.9095 0.9099 0.9103 0.9107
1935.000000 0.9111 0.9118 0.9125 0.9131 0.9138
1930.000000 0.9145 0.9151 0.9157 0.9164 0.9170
1925.000000 0.9175 0.9181 0.9187 0.9192 0.9197
1920.000000 0.9202 0.9208 0.9210 0.9212 0.9212
1915.000000 0.9211 0.9208 0.9204 0.9201 0.9198
1910.000000 0.9194 0.9189 0.9184 0.9178 0.9174
1905.000000 0.9168 0.9165 0.9161 0.9159 0.9158
1900.000000 0.9161 0.9165 0.9178 0.9215 0.9242
1895.000000 0.9265 0.9286 0.9295 0.9296 0.9296
1890.000000 0.9290 0.9280 0.9265 0.9246 0.9225
1885.000000 0.9207 0.9187 0.9166 0.9152 0.9145
1880.000000 0.9148 0.9150 0.9154 0.9163 0.9188
1875.000000 0.9213 0.9233 0.9249 0.9265 0.9281
1870.000000 0.9296 0.9312 0.9325 0.9338 0.9350
1865.000000 0.9362 0.9374 0.9386 0.9398 0.9408
1860.000000 0.9418 0.9428 0.9438 0.9448 0.9458
1855.000000 0.9468 0.9478 0.9486 0.9486 0.9486
1850.000000 0.9465 0.9481 0.9477 0.9471 0.9468
1845.000000 0.9464 0.9460 0.9456 0.9451 0.9445
1840.000000 0.9440 0.9434 0.9428 0.9425 0.9421
1835.000000 0.9417 0.9413 0.9407 0.9400 0.9395
1830.000000 0.9389 0.9377 0.9341 0.9300 0.9259
1825.000000 0.9218 0.9178 0.9137 0.9102 0.9099
1820.000000 0.9099 0.9100 0.9103 0.9110 0.9118
1815.000000 0.9130 0.9145 0.9159 0.9174 0.9189
1810.000000 0.9203 0.9216 0.9228 0.9238 0.9247
1805.000000 0.9255 0.9257 0.9258 0.9258 0.9258
1800.000000 0.9249 0.9233 0.9217 0.9203 0.9188
1795.000000 0.9171 0.9160 0.9149 0.9138 0.9125
1790.000000 0.9115 0.9106 0.9099 0.9093 0.9086
1785.000000 0.9081 0.9075 0.9068 0.9064 0.9059
1780.000000 0.9055 0.9050 0.9045 0.9039 0.9033
1775.000000 0.9025 0.9012 0.8985 0.8943 0.8889
1770.000000 0.8830 0.8765 0.8688 0.8609 0.8480
1765.000000 0.8362 0.8278 0.8227 0.8175 0.8080
1760.000000 0.7968 0.7831 0.7650 0.7457 0.7305
1755.000000 0.7189 0.7100 0.7026 0.6978 0.6931
1750.000000 0.6880 0.6824 0.6761 0.6699 0.6631
1745.000000 0.6494 0.6266 0.5987 0.5708 0.5428
1740.000000 0.5149 0.4868 0.4588 0.4307 0.4026
1735.000000 0.3745 0.3462 0.3181 0.2899 0.2616
1730.000000 0.2333 0.2050 0.1766 0.1482 0.1198
1725.000000 0.0941 0.0769 0.0767 0.0767 0.0782
1720.000000 0.0968 0.1276 0.1584 0.1893 0.2202
1715.000000 0.2511 0.2821 0.3119 0.3337 0.3412
1710.000000 0.3489 0.3600 0.3718 0.3830 0.3934
1705.000000 0.4034 0.4140 0.4277 0.4422 0.4532
1700.000000 0.4632 0.4770 0.4938 0.5087 0.5207
1695.000000 0.5304 0.5430 0.5656 0.5840 0.5948
1690.000000 0.6022 0.6093 0.6151 0.6200 0.6250
1685.000000 0.6300 0.6348 0.6394 0.6439 0.6484
1680.000000 0.6528 0.6575 0.6619 0.6665 0.6711
1675.000000 0.6758 0.6804 0.6850 0.6896 0.6937
1670.000000 0.6971 0.7006 0.7041 0.7075 0.7110
1665.000000 0.7145 0.7180 0.7214 0.7250 0.7285
1660.000000 0.7319 0.7356 0.7392 0.7425 0.7458
1655.000000 0.7491 0.7522 0.7555 0.7584 0.7608
1650.000000 0.7634 0.7658 0.7681 0.7701 0.7725
1645.000000 0.7746 0.7767 0.7789 0.7811 0.7832
1640.000000 0.7853 0.7874 0.7894 0.7915 0.7936
1635.000000 0.7958 0.7983 0.8007 0.8030 0.8054
1630.000000 0.8076 0.8097 0.8117 0.8137 0.8157
1625.000000 0.8175 0.8193 0.8211 0.8228 0.8246
1620.000000 0.8263 0.8280 0.8297 0.8310 0.8318
1615.000000 0.8321 0.8321 0.8321 0.8321 0.8309
1610.000000 0.8293 0.8268 0.8224 0.8162 0.8008
1605.000000 0.7806 0.7600 0.7393 0.7185 0.6978
1600.000000 0.6769 0.6590 0.6521 0.6547 0.6696
1595.000000 0.6915 0.7134 0.7353 0.7558 0.7686
1590.000000 0.7718 0.7742 0.7767 0.7790 0.7814
1585.000000 0.7833 0.7840 0.7844 0.7837 0.7828
1580.000000 0.7817 0.7808 0.7808 0.7822 0.7875
1575.000000 0.7954 0.8018 0.8061 0.8103 0.8141
1570.000000 0.8175 0.8201 0.8225 0.8252 0.8273
1565.000000 0.8288 0.8302 0.8317 0.8341 0.8332
1560.000000 0.8331 0.8328 0.8321 0.8308 0.8292
1555.000000 0.8275 0.8264 0.8258 0.8253 0.8248
1550.000000 0.8243 0.8239 0.8239 0.8239 0.8241
1545.000000 0.8251 0.8260 0.8270 0.8281 0.8293
1540.000000 0.8305 0.8317 0.8325 0.8333 0.8338
1535.000000 0.8338 0.8338 0.8337 0.8333 0.8321
1530.000000 0.8311 0.8299 0.8282 0.8258 0.8234
1525.000000 0.8210 0.8188 0.8171 0.8156 0.8140
1520.000000 0.8122 0.8101 0.8080 0.8057 0.8032
1515.000000 0.7998 0.7953 0.7868 0.7780 0.7691
1510.000000 0.7618 0.7558 0.7493 0.7395 0.7291
1505.000000 0.7174 0.7044 0.6821 0.6510 0.6292
1500.000000 0.5947 0.5671 0.5287 0.4801 0.4307
1495.000000 0.3812 0.3316 0.2959 0.2876 0.2928
1490.000000 0.3074 0.3239 0.3406 0.3572 0.3709
1485.000000 0.3756 0.3758 0.3709 0.3548 0.3364
1480.000000 0.3181 0.2997 0.2813 0.2628 0.2443
1475.000000 0.2258 0.2073 0.1906 0.1827 0.1786
1470.000000 0.1772 0.1652 0.1479 0.1303 0.1133
1465.000000 0.1042 0.1040 0.1038 0.1038 0.1031
1460.000000 0.1015 0.0992 0.0969 0.0943 0.0920
1455.000000 0.0900 0.0884 0.0874 0.0868 0.0868
1450.000000 0.0870 0.0876 0.0892 0.0913 0.0943
1445.000000 0.0989 0.1191 0.1644 0.2091 0.2208
1440.000000 0.2218 0.2231 0.2247 0.2277 0.2422
1435.000000 0.2661 0.2903 0.3146 0.3389 0.3632
1430.000000 0.3875 0.4068 0.4380 0.4794 0.5198
1425.000000 0.5601 0.6221 0.6537 0.6638 0.6740
1420.000000 0.6826 0.6912 0.6999 0.7086 0.7151
1415.000000 0.7197 0.7247 0.7267 0.7278 0.7288
1410.000000 0.7297 0.7304 0.7304 0.7288 0.7257
1405.000000 0.7192 0.7125 0.6960 0.6743 0.6524
1400.000000 0.6306 0.6086 0.5926 0.5959 0.6076
1395.000000 0.6210 0.6325 0.6357 0.6344 0.6016
1390.000000 0.5660 0.5304 0.4947 0.4589 0.4232
1385.000000 0.3874 0.3514 0.3187 0.3068 0.3030
1380.000000 0.2951 0.2843 0.2731 0.2619 0.2555
1375.000000 0.2549 0.2562 0.2595 0.2715 0.3116
1370.000000 0.3516 0.3920 0.4371 0.4624 0.4698
1365.000000 0.4774 0.4851 0.5057 0.5344 0.5631
1360.000000 0.5728 0.5758 0.5781 0.5800 0.5830
1355.000000 0.5898 0.6112 0.6254 0.6411 0.6530
1350.000000 0.6634 0.6661 0.6674 0.6684 0.6707
1345.000000 0.6757 0.6818 0.6875 0.6910 0.6936
1340.000000 0.6955 0.6967 0.6980 0.6989 0.6995
1335.000000 0.7001 0.7007 0.7007 0.6985 0.6988
1330.000000 0.6900 0.6641 0.6441 0.6282 0.6120
1325.000000 0.5957 0.5795 0.5445 0.5445 0.5446
1320.000000 0.5446 0.5491 0.5681 0.5888 0.6083
1315.000000 0.6135 0.6131 0.6138 0.6126 0.6085
1310.000000 0.6025 0.5943 0.5929 0.5932 0.5936
1305.000000 0.5941 0.5930 0.5705 0.5373 0.5040
1300.000000 0.4707 0.4373 0.4002 0.3989 0.3987
1295.000000 0.4059 0.4424 0.4860 0.5299 0.5650
1290.000000 0.5730 0.5801 0.5895 0.6092 0.6151
1285.000000 0.6160 0.6191 0.6155 0.6138 0.6119
1280.000000 0.6091 0.6053 0.6012 0.5960 0.5895
1275.000000 0.5824 0.5720 0.5525 0.5122 0.4890
1270.000000 0.4630 0.4369 0.4108 0.3846 0.3584
1265.000000 0.3322 0.3059 0.2811 0.2774 0.2763
1260.000000 0.2759 0.2757 0.2757 0.2746 0.2727
1255.000000 0.2678 0.2602 0.2449 0.2134 0.1924
1250.000000 0.1815 0.1765 0.1737 0.1686 0.1259
1245.000000 0.0815 0.0812 0.0782 0.0704 0.0611
1240.000000 0.0557 0.0536 0.0528 0.0525 0.0515
1235.000000 0.0522 0.0524 0.0550 0.0585 0.0644
1230.000000 0.0705 0.0768 0.0826 0.0888 0.0950
1225.000000 0.1020 0.1094 0.1232 0.1379 0.1699
1220.000000 0.1971 0.2057 0.2120 0.2180 0.2237
1215.000000 0.2294 0.2352 0.2384 0.2408 0.2465
1210.000000 0.2574 0.2758 0.2901 0.3017 0.3084
1205.000000 0.3096 0.3114 0.3090 0.3062 0.2908
1200.000000 0.2770 0.2517 0.2223 0.1929 0.1634
1195.000000 0.1339 0.1044 0.0845 0.0777 0.0732
1190.000000 0.0750 0.0755 0.0771 0.0810 0.0857
1185.000000 0.0907 0.0939 0.0956 0.0972 0.0997
1180.000000 0.1003 0.0976 0.0925 0.0872 0.0831
1175.000000 0.0831 0.0833 0.0833 0.0824 0.0805
1170.000000 0.0756 0.0675 0.0577 0.0530 0.0507
1165.000000 0.0508 0.0493 0.0459 0.0477 0.0481
1160.000000 0.0498 0.0519 0.0565 0.0622 0.0713
1155.000000 0.0808 0.0874 0.0952 0.1058 0.1144
1150.000000 0.1177 0.1166 0.1126 0.1059 0.0997
1145.000000 0.0942 0.0895 0.0865 0.0867 0.0869
1140.000000 0.0905 0.1015 0.1101 0.1206 0.1364
1135.000000 0.1506 0.1693 0.1865 0.1949 0.1944
1130.000000 0.1935 0.1927 0.1928 0.1928 0.1934
1125.000000 0.1956 0.2096 0.2273 0.2382 0.2624
1120.000000 0.2993 0.3347 0.3471 0.3587 0.3694
1115.000000 0.3810 0.4052 0.4084 0.4100 0.4114
1110.000000 0.4127 0.4200 0.4332 0.4491 0.4732
1105.000000 0.4958 0.5065 0.5168 0.5280 0.5423
1100.000000 0.5481 0.5537 0.5608 0.5692 0.5793
1095.000000 0.5790 0.5790 0.5741 0.5647 0.5466
1090.000000 0.5306 0.5015 0.4665 0.4314 0.3964
1085.000000 0.3895 0.3860 0.3932 0.4242 0.4360
1080.000000 0.4655 0.4958 0.5258 0.5470 0.5449
1075.000000 0.5442 0.5169 0.4687 0.4205 0.3796
1070.000000 0.3910 0.4512 0.4627 0.4695 0.4720
1065.000000 0.4737 0.4771 0.4820 0.4896 0.4987
1060.000000 0.5101 0.5225 0.5269 0.5253 0.5208
1055.000000 0.5114 0.4929 0.4926 0.4981 0.5221
1050.000000 0.5337 0.5436 0.5501 0.5525 0.5527
1045.000000 0.5512 0.5420 0.5214 0.4933 0.4649
1040.000000 0.4365 0.4080 0.3823 0.3590 0.3312
1035.000000 0.3141 0.2899 0.2654 0.2404 0.2155
1030.000000 0.1904 0.1652 0.1116 0.0846 0.0737
1025.000000 0.0607 0.0569 0.0559 0.0559 0.0567
1020.000000 0.0576 0.0606 0.0660 0.0820 0.0999
1015.000000 0.1087 0.1185 0.1220 0.1235 0.1255
1010.000000 0.1303 0.1438 0.2072 0.2097 0.2329
1005.000000 0.2667 0.3070 0.3216 0.3341 0.3482
1000.000000 0.3654 0.3809 0.3953 0.4016 0.4064
995.000000 0.4151 0.4332 0.4527 0.4723 0.4920
990.000000 0.5116 0.5302 0.5465 0.5614 0.5709
985.000000 0.5798 0.5871 0.5943 0.6012 0.6079
980.000000 0.6140 0.6184 0.6222 0.6245 0.6269
975.000000 0.6282 0.6292 0.6315 0.6303 0.6304
970.000000 0.6300 0.6188 0.5950 0.5780 0.5693
965.000000 0.5693 0.5744 0.5889 0.6191 0.6366
960.000000 0.6457 0.6526 0.6564 0.6617 0.6583
955.000000 0.6514 0.6293 0.6154 0.6159 0.6300
950.000000 0.6542 0.6671 0.6781 0.6883 0.6951
945.000000 0.7001 0.7044 0.7075 0.7098 0.7125
940.000000 0.7154 0.7194 0.7231 0.7255 0.7268
935.000000 0.7275 0.7285 0.7301 0.7318 0.7343
930.000000 0.7325 0.7285 0.7222 0.7141 0.7012
925.000000 0.6938 0.6947 0.7042 0.7221 0.7308
920.000000 0.7346 0.7367 0.7361 0.7362 0.7334
915.000000 0.7122 0.6582 0.6681 0.6598 0.6824
910.000000 0.7153 0.7465 0.7528 0.7560 0.7604
905.000000 0.7584 0.7572 0.7492 0.7351 0.7139
900.000000 0.7019 0.6918 0.6821 0.6739 0.6740
895.000000 0.6772 0.6957 0.7221 0.7401 0.7482
890.000000 0.7601 0.7635 0.7650 0.7728 0.7753
885.000000 0.7738 0.7703 0.7672 0.7651 0.7655
880.000000 0.7696 0.7755 0.7815 0.7875 0.7938
875.000000 0.7999 0.8051 0.8095 0.8125 0.8151
870.000000 0.8172 0.8192 0.8206 0.8208 0.8238
865.000000 0.8270 0.8273 0.8254 0.8231 0.8237
860.000000 0.8306 0.8265 0.8266 0.8258 0.8251
855.000000 0.8234 0.8213 0.8167 0.8078 0.7919
850.000000 0.7771 0.7751 0.7749 0.7785 0.7853
845.000000 0.7942 0.7921 0.7875 0.7818 0.7841
840.000000 0.7858 0.7919 0.7993 0.8036 0.8064
835.000000 0.8087 0.8100 0.8104 0.8105 0.8106
830.000000 0.8099 0.8080 0.8015 0.7924 0.7808
825.000000 0.7656 0.7415 0.7142 0.6806 0.6482
820.000000 0.6316 0.6327 0.6421 0.6587 0.6841
815.000000 0.7075 0.7254 0.7321 0.7375 0.7431
810.000000 0.7418 0.7401 0.7288 0.7243 0.7165
805.000000 0.6968 0.6792 0.6622 0.6454 0.6467
800.000000 0.6489 0.6728 0.7000 0.7271 0.7544
795.000000 0.7643 0.7724 0.7711 0.7715 0.7695
790.000000 0.7638 0.7562 0.7455 0.7339 0.7243
785.000000 0.7175 0.7128 0.7097 0.7068 0.7053
780.000000 0.7042 0.7017 0.6984 0.6882 0.6761
775.000000 0.6628 0.6362 0.6088 0.5645 0.5365
770.000000 0.4939 0.3666 0.2655 0.2046 0.1902
765.000000 0.2011 0.2600 0.3077 0.3556 0.4034
760.000000 0.4516 0.4771 0.4908 0.4972 0.4804
755.000000 0.4520 0.4238 0.4255 0.4439 0.4765
750.000000 0.5102 0.5439 0.5620 0.5797 0.5777
745.000000 0.5757 0.5646 0.5447 0.5343 0.5292
740.000000 0.5281 0.5195 0.5049 0.4823 0.4417
735.000000 0.3986 0.3887 0.3958 0.4321 0.4826
730.000000 0.5331 0.5555 0.6056 0.6266 0.6415
725.000000 0.6554 0.6625 0.6648 0.6675 0.6731
720.000000 0.6771 0.6811 0.6894 0.7057 0.7105
715.000000 0.7143 0.7208 0.7278 0.7249 0.7245
710.000000 0.7241 0.7225 0.7128 0.6901 0.6698
705.000000 0.6383 0.5969 0.5297 0.4477 0.3653
700.000000 0.2827 0.2156 0.2206 0.2654 0.3673
695.000000 0.4488 0.5203 0.5855 0.6169 0.6395
690.000000 0.6597 0.6762 0.6895 0.6987 0.6998
685.000000 0.7008 0.7105 0.7128 0.7156 0.7146
680.000000 0.7146 0.7146 0.7130 0.7098 0.7062
675.000000 0.7031 0.7008 0.6989 0.6975 0.6962
670.000000 0.6946 0.6921 0.6814 0.6612 0.6495
665.000000 0.6444 0.6468 0.6572 0.6586 0.6580
660.000000 0.6575 0.6575 0.6518 0.6494 0.6489
655.000000 0.6426 0.6356 0.6260
##END=
