##TITLE=p-Biphenylglyoxal, hydrate
##JCAMP-DX=4.24
$$ By DXEDIT 1.05 (RS McDonald)
##DATA TYPE=INFRARED SPECTRUM
##CLASS=COBLENTZ III
##ORIGIN=SMITH KLINE & FRENCH LABS.
##OWNER=COPYRIGHT (C) 1988 by COBLENTZ SOCIETY INC.
Collection (C) 2018 copyright by the U.S. Secretary of Commerce
on behalf of the United States of America. All rights reserved.
##DATE=1960/10/05
##NAMES=[1,1'-biphenyl]-4-yl(oxo)acetaldehyde hydrate
##MOLFORM=C14 H10 O2  * H2 O
##SOURCE REFERENCE=COBLENTZ NO. 08393
##$NIST ID=B6008393
##$NIST SOURCE=COBLENTZ
##$NIST IMAGE=cob8393
##SPECTROMETER/DATA SYSTEM=PERKIN-ELMER 21 (GRATING)
##INSTRUMENT PARAMETERS=NaCl PRISM
##STATE=SOLID (OIL MULL)
$$SPECTRAL CONTAMINATION DUE TO OIL AROUND 2900, 1450, 1370 CM^-^1
##SAMPLING PROCEDURE=TRANSMISSION
##RESOLUTION=2
##DATA PROCESSING=DIGITIZED BY COBLENTZ SOCIETY (BATCH I) FROM HARD COPY
##XUNITS=1/CM
##YUNITS=TRANSMITTANCE
##XFACTOR=1
##YFACTOR=1
##DELTAX=1
##FIRSTX=4000
##LASTX=666
##FIRSTY=0.4712
##MAXX=4000
##MINX=666
##MAXY=0.8054
##MINY=0.0621
##NPOINTS=3335
##XYDATA=(X++(Y..Y))
4000.000000 0.4712 0.4714 0.4716 0.4718 0.4719
3995.000000 0.4721 0.4723 0.4724 0.4726 0.4728
3990.000000 0.4729 0.4731 0.4732 0.4734 0.4735
3985.000000 0.4737 0.4739 0.4740 0.4742 0.4743
3980.000000 0.4745 0.4746 0.4748 0.4750 0.4751
3975.000000 0.4753 0.4754 0.4756 0.4758 0.4760
3970.000000 0.4760 0.4762 0.4765 0.4767 0.4770
3965.000000 0.4772 0.4774 0.4776 0.4778 0.4781
3960.000000 0.4783 0.4785 0.4787 0.4790 0.4792
3955.000000 0.4794 0.4796 0.4799 0.4801 0.4803
3950.000000 0.4805 0.4807 0.4810 0.4812 0.4814
3945.000000 0.4816 0.4818 0.4820 0.4822 0.4824
3940.000000 0.4827 0.4829 0.4831 0.4834 0.4836
3935.000000 0.4838 0.4840 0.4843 0.4845 0.4847
3930.000000 0.4849 0.4852 0.4854 0.4856 0.4858
3925.000000 0.4860 0.4862 0.4865 0.4867 0.4869
3920.000000 0.4871 0.4873 0.4876 0.4878 0.4880
3915.000000 0.4882 0.4885 0.4887 0.4889 0.4891
3910.000000 0.4894 0.4896 0.4898 0.4900 0.4902
3905.000000 0.4904 0.4906 0.4908 0.4910 0.4912
3900.000000 0.4915 0.4917 0.4919 0.4921 0.4923
3895.000000 0.4926 0.4928 0.4930 0.4932 0.4934
3890.000000 0.4936 0.4938 0.4941 0.4943 0.4945
3885.000000 0.4948 0.4950 0.4952 0.4954 0.4956
3880.000000 0.4958 0.4960 0.4962 0.4964 0.4965
3875.000000 0.4967 0.4969 0.4970 0.4972 0.4974
3870.000000 0.4975 0.4977 0.4979 0.4980 0.4982
3865.000000 0.4984 0.4985 0.4987 0.4989 0.4991
3860.000000 0.4992 0.4994 0.4996 0.4997 0.4999
3855.000000 0.5001 0.5002 0.5004 0.5006 0.5006
3850.000000 0.5007 0.5008 0.5009 0.5010 0.5010
3845.000000 0.5010 0.5012 0.5012 0.5014 0.5015
3840.000000 0.5016 0.5017 0.5017 0.5018 0.5019
3835.000000 0.5020 0.5021 0.5022 0.5023 0.5023
3830.000000 0.5024 0.5025 0.5026 0.5027 0.5028
3825.000000 0.5028 0.5029 0.5030 0.5031 0.5032
3820.000000 0.5033 0.5034 0.5034 0.5035 0.5036
3815.000000 0.5037 0.5038 0.5039 0.5040 0.5041
3810.000000 0.5043 0.5044 0.5045 0.5046 0.5047
3805.000000 0.5048 0.5049 0.5049 0.5050 0.5051
3800.000000 0.5052 0.5053 0.5054 0.5055 0.5056
3795.000000 0.5057 0.5058 0.5059 0.5060 0.5060
3790.000000 0.5062 0.5062 0.5062 0.5064 0.5065
3785.000000 0.5067 0.5068 0.5069 0.5070 0.5071
3780.000000 0.5072 0.5073 0.5075 0.5076 0.5077
3775.000000 0.5078 0.5079 0.5081 0.5082 0.5083
3770.000000 0.5084 0.5086 0.5087 0.5088 0.5089
3765.000000 0.5091 0.5092 0.5093 0.5094 0.5096
3760.000000 0.5097 0.5098 0.5099 0.5100 0.5102
3755.000000 0.5103 0.5104 0.5105 0.5107 0.5108
3750.000000 0.5109 0.5110 0.5112 0.5112 0.5114
3745.000000 0.5115 0.5116 0.5117 0.5118 0.5119
3740.000000 0.5121 0.5122 0.5123 0.5124 0.5126
3735.000000 0.5127 0.5128 0.5129 0.5131 0.5132
3730.000000 0.5134 0.5136 0.5138 0.5139 0.5141
3725.000000 0.5143 0.5145 0.5147 0.5148 0.5150
3720.000000 0.5152 0.5154 0.5156 0.5157 0.5159
3715.000000 0.5160 0.5162 0.5164 0.5166 0.5168
3710.000000 0.5169 0.5171 0.5172 0.5173 0.5174
3705.000000 0.5175 0.5176 0.5177 0.5179 0.5180
3700.000000 0.5181 0.5183 0.5184 0.5185 0.5186
3695.000000 0.5187 0.5188 0.5189 0.5190 0.5192
3690.000000 0.5193 0.5194 0.5196 0.5197 0.5198
3685.000000 0.5200 0.5201 0.5203 0.5204 0.5206
3680.000000 0.5207 0.5209 0.5210 0.5212 0.5212
3675.000000 0.5215 0.5217 0.5218 0.5220 0.5222
3670.000000 0.5223 0.5225 0.5226 0.5228 0.5229
3665.000000 0.5231 0.5232 0.5234 0.5236 0.5237
3660.000000 0.5239 0.5241 0.5243 0.5245 0.5247
3655.000000 0.5248 0.5250 0.5252 0.5254 0.5256
3650.000000 0.5258 0.5260 0.5262 0.5264 0.5266
3645.000000 0.5268 0.5270 0.5272 0.5274 0.5276
3640.000000 0.5278 0.5281 0.5285 0.5290 0.5295
3635.000000 0.5299 0.5304 0.5309 0.5314 0.5319
3630.000000 0.5324 0.5329 0.5333 0.5338 0.5342
3625.000000 0.5346 0.5350 0.5354 0.5358 0.5360
3620.000000 0.5365 0.5369 0.5372 0.5375 0.5377
3615.000000 0.5379 0.5382 0.5384 0.5386 0.5388
3610.000000 0.5390 0.5392 0.5394 0.5397 0.5399
3605.000000 0.5401 0.5403 0.5405 0.5407 0.5409
3600.000000 0.5410 0.5412 0.5414 0.5416 0.5417
3595.000000 0.5418 0.5420 0.5421 0.5422 0.5424
3590.000000 0.5426 0.5427 0.5429 0.5430 0.5432
3585.000000 0.5433 0.5434 0.5436 0.5437 0.5438
3580.000000 0.5440 0.5441 0.5443 0.5444 0.5445
3575.000000 0.5447 0.5448 0.5449 0.5451 0.5452
3570.000000 0.5454 0.5455 0.5457 0.5458 0.5460
3565.000000 0.5462 0.5462 0.5465 0.5466 0.5468
3560.000000 0.5469 0.5471 0.5473 0.5474 0.5476
3555.000000 0.5477 0.5479 0.5480 0.5481 0.5483
3550.000000 0.5484 0.5485 0.5487 0.5488 0.5490
3545.000000 0.5491 0.5492 0.5493 0.5494 0.5496
3540.000000 0.5497 0.5498 0.5500 0.5501 0.5503
3535.000000 0.5504 0.5505 0.5506 0.5507 0.5509
3530.000000 0.5510 0.5510 0.5512 0.5514 0.5516
3525.000000 0.5517 0.5518 0.5519 0.5520 0.5522
3520.000000 0.5523 0.5524 0.5525 0.5526 0.5528
3515.000000 0.5528 0.5528 0.5529 0.5529 0.5530
3510.000000 0.5530 0.5530 0.5531 0.5531 0.5532
3505.000000 0.5532 0.5532 0.5532 0.5532 0.5533
3500.000000 0.5533 0.5533 0.5533 0.5533 0.5534
3495.000000 0.5534 0.5534 0.5534 0.5534 0.5532
3490.000000 0.5527 0.5523 0.5518 0.5532 0.5508
3485.000000 0.5502 0.5497 0.5491 0.5485 0.5466
3480.000000 0.5445 0.5424 0.5403 0.5382 0.5360
3475.000000 0.5337 0.5315 0.5292 0.5271 0.5255
3470.000000 0.5239 0.5223 0.5207 0.5191 0.5176
3465.000000 0.5160 0.5146 0.5131 0.5114 0.5096
3460.000000 0.5079 0.5060 0.5044 0.5026 0.5009
3455.000000 0.4992 0.4974 0.4957 0.4936 0.4915
3450.000000 0.4894 0.4874 0.4853 0.4832 0.4812
3445.000000 0.4791 0.4770 0.4740 0.4700 0.4660
3440.000000 0.4620 0.4580 0.4562 0.4549 0.4537
3435.000000 0.4524 0.4510 0.4493 0.4474 0.4456
3430.000000 0.4437 0.4409 0.4362 0.4317 0.4271
3425.000000 0.4225 0.4176 0.4124 0.4073 0.4021
3420.000000 0.3970 0.3918 0.3866 0.3814 0.3764
3415.000000 0.3712 0.3659 0.3608 0.3556 0.3504
3410.000000 0.3452 0.3400 0.3349 0.3297 0.3245
3405.000000 0.3193 0.3140 0.3088 0.3035 0.2984
3400.000000 0.2932 0.2879 0.2827 0.2775 0.2723
3395.000000 0.2670 0.2618 0.2565 0.2513 0.2460
3390.000000 0.2408 0.2355 0.2303 0.2261 0.2228
3385.000000 0.2195 0.2162 0.2129 0.2124 0.2121
3380.000000 0.2117 0.2103 0.2111 0.2110 0.2108
3375.000000 0.2107 0.2106 0.2105 0.2105 0.2105
3370.000000 0.2105 0.2105 0.2105 0.2106 0.2107
3365.000000 0.2107 0.2109 0.2112 0.2114 0.2117
3360.000000 0.2120 0.2126 0.2133 0.2139 0.2146
3355.000000 0.2151 0.2155 0.2160 0.2220 0.2169
3350.000000 0.2174 0.2178 0.2183 0.2187 0.2190
3345.000000 0.2192 0.2193 0.2195 0.2197 0.2198
3340.000000 0.2200 0.2202 0.2203 0.2200 0.2196
3335.000000 0.2192 0.2188 0.2183 0.2176 0.2169
3330.000000 0.2162 0.2155 0.2148 0.2141 0.2134
3325.000000 0.2126 0.2121 0.2118 0.2114 0.2111
3320.000000 0.2107 0.2107 0.2106 0.2105 0.2105
3315.000000 0.2105 0.2107 0.2108 0.2109 0.2113
3310.000000 0.2122 0.2131 0.2140 0.2149 0.2170
3305.000000 0.2192 0.2214 0.2235 0.2258 0.2280
3300.000000 0.2302 0.2324 0.2346 0.2366 0.2387
3295.000000 0.2408 0.2429 0.2445 0.2460 0.2476
3290.000000 0.2491 0.2507 0.2522 0.2537 0.2553
3285.000000 0.2568 0.2583 0.2599 0.2614 0.2630
3280.000000 0.2645 0.2661 0.2676 0.2691 0.2707
3275.000000 0.2723 0.2738 0.2754 0.2769 0.2784
3270.000000 0.2800 0.2816 0.2831 0.2847 0.2862
3265.000000 0.2878 0.2894 0.2909 0.2925 0.2940
3260.000000 0.2956 0.2972 0.2987 0.3003 0.3019
3255.000000 0.3034 0.3050 0.3066 0.3082 0.3097
3250.000000 0.3113 0.3129 0.3145 0.3161 0.3176
3245.000000 0.3192 0.3208 0.3224 0.3240 0.3256
3240.000000 0.3271 0.3287 0.3303 0.3318 0.3334
3235.000000 0.3350 0.3366 0.3382 0.3399 0.3414
3230.000000 0.3430 0.3446 0.3462 0.3478 0.3494
3225.000000 0.3509 0.3526 0.3542 0.3558 0.3574
3220.000000 0.3590 0.3606 0.3622 0.3639 0.3654
3215.000000 0.3670 0.3686 0.3702 0.3718 0.3734
3210.000000 0.3750 0.3766 0.3782 0.3799 0.3816
3205.000000 0.3830 0.3843 0.3854 0.3866 0.3878
3200.000000 0.3890 0.3900 0.3912 0.3925 0.3936
3195.000000 0.3946 0.3957 0.3968 0.3978 0.3989
3190.000000 0.3999 0.4009 0.4018 0.4028 0.4037
3185.000000 0.4047 0.4056 0.4064 0.4074 0.4082
3180.000000 0.4093 0.4102 0.4112 0.4121 0.4130
3175.000000 0.4139 0.4149 0.4158 0.4167 0.4176
3170.000000 0.4185 0.4195 0.4204 0.4212 0.4223
3165.000000 0.4232 0.4242 0.4251 0.4260 0.4269
3160.000000 0.4279 0.4289 0.4300 0.4310 0.4320
3155.000000 0.4331 0.4342 0.4352 0.4362 0.4373
3150.000000 0.4384 0.4394 0.4404 0.4412 0.4421
3145.000000 0.4430 0.4436 0.4441 0.4447 0.4452
3140.000000 0.4457 0.4462 0.4468 0.4473 0.4478
3135.000000 0.4483 0.4488 0.4493 0.4498 0.4502
3130.000000 0.4507 0.4512 0.4517 0.4522 0.4527
3125.000000 0.4532 0.4536 0.4541 0.4546 0.4551
3120.000000 0.4556 0.4560 0.4565 0.4569 0.4573
3115.000000 0.4578 0.4582 0.4586 0.4590 0.4594
3110.000000 0.4598 0.4602 0.4607 0.4610 0.4616
3105.000000 0.4619 0.4623 0.4626 0.4630 0.4633
3100.000000 0.4636 0.4640 0.4643 0.4647 0.4650
3095.000000 0.4653 0.4657 0.4660 0.4662 0.4667
3090.000000 0.4670 0.4673 0.4677 0.4680 0.4682
3085.000000 0.4685 0.4687 0.4690 0.4692 0.4694
3080.000000 0.4697 0.4699 0.4701 0.4703 0.4705
3075.000000 0.4708 0.4709 0.4710 0.4712 0.4714
3070.000000 0.4715 0.4716 0.4717 0.4718 0.4719
3065.000000 0.4720 0.4721 0.4722 0.4723 0.4724
3060.000000 0.4712 0.4726 0.4726 0.4726 0.4727
3055.000000 0.4727 0.4727 0.4727 0.4728 0.4728
3050.000000 0.4728 0.4728 0.4729 0.4729 0.4729
3045.000000 0.4729 0.4729 0.4729 0.4729 0.4729
3040.000000 0.4728 0.4728 0.4727 0.4726 0.4725
3035.000000 0.4724 0.4723 0.4721 0.4720 0.4718
3030.000000 0.4717 0.4714 0.4712 0.4709 0.4705
3025.000000 0.4700 0.4696 0.4691 0.4684 0.4678
3020.000000 0.4672 0.4665 0.4658 0.4650 0.4643
3015.000000 0.4635 0.4628 0.4620 0.4612 0.4605
3010.000000 0.4597 0.4590 0.4582 0.4575 0.4568
3005.000000 0.4560 0.4553 0.4546 0.4538 0.4531
3000.000000 0.4524 0.4517 0.4509 0.4503 0.4498
2995.000000 0.4493 0.4487 0.4482 0.4477 0.4472
2990.000000 0.4466 0.4460 0.4456 0.4450 0.4444
2985.000000 0.4437 0.4430 0.4424 0.4417 0.4410
2980.000000 0.4403 0.4395 0.4387 0.4378 0.4370
2975.000000 0.4359 0.4349 0.4339 0.4321 0.4299
2970.000000 0.4278 0.4256 0.4233 0.4210 0.4188
2965.000000 0.4165 0.4141 0.4117 0.4092 0.4068
2960.000000 0.4045 0.4021 0.3974 0.3909 0.3847
2955.000000 0.3787 0.3766 0.3746 0.3726 0.3708
2950.000000 0.3691 0.3674 0.3650 0.3570 0.3490
2945.000000 0.3409 0.3344 0.3286 0.3229 0.3166
2940.000000 0.3077 0.2988 0.2899 0.2810 0.2721
2935.000000 0.2632 0.2544 0.2458 0.2371 0.2284
2930.000000 0.2247 0.2219 0.2191 0.2165 0.2142
2925.000000 0.2118 0.2095 0.2046 0.1999 0.1951
2920.000000 0.1894 0.1833 0.1772 0.1710 0.1648
2915.000000 0.1586 0.1524 0.1462 0.1400 0.1338
2910.000000 0.1276 0.1214 0.1152 0.1090 0.1028
2905.000000 0.0966 0.0903 0.0861 0.0832 0.0803
2900.000000 0.0777 0.0761 0.0745 0.0729 0.0718
2895.000000 0.0709 0.0700 0.0691 0.0683 0.0675
2890.000000 0.0668 0.0662 0.0656 0.0650 0.0645
2885.000000 0.0641 0.0636 0.0633 0.0632 0.0630
2880.000000 0.0629 0.0628 0.0628 0.0627 0.0626
2875.000000 0.0625 0.0625 0.0624 0.0624 0.0624
2870.000000 0.0623 0.0623 0.0623 0.0623 0.0622
2865.000000 0.0622 0.0622 0.0621 0.0621 0.0621
2860.000000 0.0621 0.0622 0.0623 0.0624 0.0624
2855.000000 0.0625 0.0625 0.0626 0.0627 0.0627
2850.000000 0.0628 0.0630 0.0632 0.0634 0.0636
2845.000000 0.0639 0.0642 0.0646 0.0649 0.0653
2840.000000 0.0656 0.0659 0.0663 0.0666 0.0669
2835.000000 0.0672 0.0674 0.0676 0.0678 0.0680
2830.000000 0.0680 0.0680 0.0681 0.0681 0.0681
2825.000000 0.0681 0.0682 0.0682 0.0682 0.0683
2820.000000 0.0683 0.0683 0.0684 0.0684 0.0684
2815.000000 0.0685 0.0686 0.0687 0.0688 0.0693
2810.000000 0.0697 0.0701 0.0710 0.0719 0.0727
2805.000000 0.0766 0.0810 0.0855 0.0907 0.0963
2800.000000 0.1019 0.1100 0.1203 0.1305 0.1408
2795.000000 0.1511 0.1614 0.1717 0.1820 0.1923
2790.000000 0.2026 0.2129 0.2233 0.2337 0.2440
2785.000000 0.2543 0.2647 0.2750 0.2854 0.2958
2780.000000 0.3062 0.3166 0.3270 0.3374 0.3479
2775.000000 0.3582 0.3662 0.3730 0.3798 0.3855
2770.000000 0.3905 0.3954 0.3999 0.4041 0.4082
2765.000000 0.4122 0.4159 0.4196 0.4231 0.4260
2760.000000 0.4292 0.4333 0.4391 0.4450 0.4516
2755.000000 0.4596 0.4677 0.4738 0.4756 0.4774
2750.000000 0.4795 0.4824 0.4853 0.4885 0.4926
2745.000000 0.4967 0.5010 0.5064 0.5117 0.5162
2740.000000 0.5182 0.5202 0.5221 0.5239 0.5256
2735.000000 0.5273 0.5290 0.5306 0.5322 0.5338
2730.000000 0.5354 0.5370 0.5388 0.5406 0.5424
2725.000000 0.5442 0.5459 0.5474 0.5487 0.5499
2720.000000 0.5510 0.5522 0.5533 0.5543 0.5551
2715.000000 0.5560 0.5567 0.5573 0.5579 0.5584
2710.000000 0.5589 0.5594 0.5599 0.5602 0.5606
2705.000000 0.5609 0.5612 0.5615 0.5616 0.5618
2700.000000 0.5619 0.5620 0.5620 0.5620 0.5621
2695.000000 0.5621 0.5621 0.5622 0.5622 0.5623
2690.000000 0.5623 0.5623 0.5624 0.5624 0.5624
2685.000000 0.5625 0.5625 0.5626 0.5627 0.5627
2680.000000 0.5628 0.5629 0.5630 0.5631 0.5633
2675.000000 0.5635 0.5637 0.5641 0.5644 0.5648
2670.000000 0.5652 0.5657 0.5660 0.5665 0.5669
2665.000000 0.5673 0.5677 0.5680 0.5684 0.5687
2660.000000 0.5690 0.5693 0.5696 0.5699 0.5701
2655.000000 0.5703 0.5705 0.5706 0.5707 0.5708
2650.000000 0.5708 0.5709 0.5710 0.5710 0.5712
2645.000000 0.5712 0.5714 0.5714 0.5715 0.5716
2640.000000 0.5716 0.5718 0.5721 0.5723 0.5725
2635.000000 0.5726 0.5728 0.5730 0.5732 0.5734
2630.000000 0.5735 0.5737 0.5739 0.5741 0.5744
2625.000000 0.5746 0.5749 0.5751 0.5754 0.5757
2620.000000 0.5760 0.5762 0.5765 0.5768 0.5771
2615.000000 0.5774 0.5777 0.5780 0.5782 0.5785
2610.000000 0.5788 0.5791 0.5794 0.5797 0.5800
2605.000000 0.5802 0.5805 0.5808 0.5810 0.5812
2600.000000 0.5815 0.5817 0.5819 0.5821 0.5824
2595.000000 0.5826 0.5829 0.5831 0.5834 0.5836
2590.000000 0.5838 0.5841 0.5843 0.5846 0.5848
2585.000000 0.5851 0.5855 0.5860 0.5864 0.5869
2580.000000 0.5873 0.5878 0.5882 0.5887 0.5892
2575.000000 0.5897 0.5902 0.5906 0.5910 0.5915
2570.000000 0.5920 0.5924 0.5929 0.5933 0.5938
2565.000000 0.5943 0.5948 0.5953 0.5957 0.5962
2560.000000 0.5967 0.5973 0.5978 0.5983 0.5988
2555.000000 0.5993 0.5998 0.6004 0.6009 0.6015
2550.000000 0.6020 0.6025 0.6031 0.6036 0.6041
2545.000000 0.6046 0.6051 0.6057 0.6062 0.6068
2540.000000 0.6074 0.6080 0.6086 0.6091 0.6097
2535.000000 0.6102 0.6108 0.6114 0.6120 0.6126
2530.000000 0.6131 0.6137 0.6142 0.6148 0.6154
2525.000000 0.6160 0.6166 0.6172 0.6178 0.6184
2520.000000 0.6189 0.6195 0.6200 0.6205 0.6209
2515.000000 0.6212 0.6217 0.6222 0.6226 0.6230
2510.000000 0.6234 0.6238 0.6242 0.6246 0.6250
2505.000000 0.6255 0.6259 0.6262 0.6267 0.6271
2500.000000 0.6275 0.6279 0.6283 0.6286 0.6289
2495.000000 0.6292 0.6294 0.6297 0.6300 0.6303
2490.000000 0.6306 0.6308 0.6310 0.6314 0.6317
2485.000000 0.6320 0.6323 0.6326 0.6329 0.6332
2480.000000 0.6335 0.6338 0.6341 0.6343 0.6346
2475.000000 0.6349 0.6353 0.6356 0.6359 0.6362
2470.000000 0.6367 0.6370 0.6373 0.6377 0.6381
2465.000000 0.6384 0.6388 0.6392 0.6395 0.6398
2460.000000 0.6401 0.6406 0.6408 0.6412 0.6415
2455.000000 0.6418 0.6422 0.6426 0.6430 0.6433
2450.000000 0.6436 0.6439 0.6442 0.6446 0.6449
2445.000000 0.6451 0.6456 0.6458 0.6461 0.6465
2440.000000 0.6468 0.6471 0.6475 0.6478 0.6481
2435.000000 0.6484 0.6487 0.6491 0.6494 0.6498
2430.000000 0.6501 0.6504 0.6507 0.6510 0.6514
2425.000000 0.6517 0.6519 0.6522 0.6525 0.6530
2420.000000 0.6533 0.6536 0.6539 0.6542 0.6546
2415.000000 0.6549 0.6551 0.6554 0.6556 0.6558
2410.000000 0.6560 0.6561 0.6565 0.6567 0.6569
2405.000000 0.6571 0.6574 0.6575 0.6578 0.6581
2400.000000 0.6584 0.6586 0.6588 0.6590 0.6593
2395.000000 0.6595 0.6597 0.6599 0.6601 0.6603
2390.000000 0.6606 0.6607 0.6608 0.6611 0.6612
2385.000000 0.6615 0.6617 0.6618 0.6621 0.6622
2380.000000 0.6625 0.6626 0.6628 0.6631 0.6633
2375.000000 0.6635 0.6637 0.6639 0.6641 0.6644
2370.000000 0.6646 0.6648 0.6651 0.6654 0.6656
2365.000000 0.6658 0.6661 0.6662 0.6665 0.6668
2360.000000 0.6671 0.6672 0.6674 0.6675 0.6676
2355.000000 0.6678 0.6681 0.6682 0.6684 0.6686
2350.000000 0.6688 0.6690 0.6691 0.6693 0.6695
2345.000000 0.6697 0.6698 0.6700 0.6700 0.6701
2340.000000 0.6701 0.6701 0.6697 0.6692 0.6686
2335.000000 0.6681 0.6675 0.6669 0.6664 0.6658
2330.000000 0.6653 0.6647 0.6640 0.6635 0.6630
2325.000000 0.6626 0.6625 0.6624 0.6622 0.6621
2320.000000 0.6621 0.6619 0.6619 0.6619 0.6618
2315.000000 0.6618 0.6618 0.6618 0.6618 0.6618
2310.000000 0.6619 0.6621 0.6622 0.6625 0.6628
2305.000000 0.6630 0.6633 0.6635 0.6637 0.6639
2300.000000 0.6641 0.6644 0.6646 0.6648 0.6650
2295.000000 0.6653 0.6657 0.6661 0.6665 0.6669
2290.000000 0.6675 0.6678 0.6684 0.6689 0.6694
2285.000000 0.6700 0.6706 0.6711 0.6718 0.6725
2280.000000 0.6731 0.6738 0.6746 0.6754 0.6762
2275.000000 0.6771 0.6778 0.6788 0.6796 0.6805
2270.000000 0.6811 0.6815 0.6821 0.6825 0.6830
2265.000000 0.6834 0.6839 0.6843 0.6847 0.6849
2260.000000 0.6851 0.6851 0.6851 0.6851 0.6853
2255.000000 0.6853 0.6854 0.6855 0.6856 0.6856
2250.000000 0.6857 0.6858 0.6858 0.6860 0.6861
2245.000000 0.6861 0.6862 0.6864 0.6865 0.6867
2240.000000 0.6868 0.6868 0.6869 0.6871 0.6871
2235.000000 0.6872 0.6874 0.6875 0.6875 0.6876
2230.000000 0.6878 0.6882 0.6885 0.6887 0.6890
2225.000000 0.6893 0.6896 0.6899 0.6901 0.6904
2220.000000 0.6907 0.6910 0.6912 0.6915 0.6918
2215.000000 0.6921 0.6924 0.6926 0.6930 0.6933
2210.000000 0.6936 0.6939 0.6942 0.6944 0.6947
2205.000000 0.6950 0.6953 0.6956 0.6958 0.6961
2200.000000 0.6965 0.6968 0.6971 0.6974 0.6976
2195.000000 0.6980 0.6983 0.6986 0.6989 0.6992
2190.000000 0.6994 0.6997 0.7000 0.7003 0.7006
2185.000000 0.7008 0.7011 0.7014 0.7017 0.7019
2180.000000 0.7021 0.7025 0.7028 0.7031 0.7034
2175.000000 0.7037 0.7040 0.7043 0.7047 0.7049
2170.000000 0.7051 0.7053 0.7053 0.7051 0.7051
2165.000000 0.7050 0.7049 0.7048 0.7047 0.7047
2160.000000 0.7046 0.7045 0.7044 0.7043 0.7043
2155.000000 0.7042 0.7042 0.7041 0.7040 0.7040
2150.000000 0.7041 0.7042 0.7044 0.7045 0.7046
2145.000000 0.7048 0.7050 0.7053 0.7057 0.7061
2140.000000 0.7067 0.7071 0.7078 0.7083 0.7089
2135.000000 0.7094 0.7100 0.7105 0.7110 0.7115
2130.000000 0.7118 0.7122 0.7126 0.7131 0.7134
2125.000000 0.7135 0.7137 0.7138 0.7140 0.7142
2120.000000 0.7143 0.7144 0.7146 0.7147 0.7148
2115.000000 0.7150 0.7151 0.7151 0.7153 0.7154
2110.000000 0.7154 0.7155 0.7156 0.7158 0.7158
2105.000000 0.7160 0.7161 0.7161 0.7162 0.7164
2100.000000 0.7165 0.7165 0.7167 0.7168 0.7168
2095.000000 0.7169 0.7171 0.7171 0.7174 0.7175
2090.000000 0.7175 0.7176 0.7178 0.7181 0.7183
2085.000000 0.7186 0.7188 0.7190 0.7193 0.7195
2080.000000 0.7197 0.7199 0.7201 0.7203 0.7205
2075.000000 0.7208 0.7210 0.7211 0.7215 0.7217
2070.000000 0.7218 0.7221 0.7224 0.7225 0.7228
2065.000000 0.7231 0.7233 0.7235 0.7236 0.7238
2060.000000 0.7239 0.7240 0.7241 0.7242 0.7243
2055.000000 0.7245 0.7246 0.7247 0.7248 0.7249
2050.000000 0.7251 0.7251 0.7253 0.7254 0.7255
2045.000000 0.7256 0.7258 0.7258 0.7258 0.7260
2040.000000 0.7261 0.7261 0.7262 0.7264 0.7264
2035.000000 0.7265 0.7267 0.7268 0.7268 0.7268
2030.000000 0.7271 0.7271 0.7271 0.7272 0.7272
2025.000000 0.7272 0.7272 0.7272 0.7272 0.7272
2020.000000 0.7272 0.7272 0.7272 0.7272 0.7272
2015.000000 0.7272 0.7274 0.7275 0.7278 0.7278
2010.000000 0.7281 0.7282 0.7284 0.7285 0.7286
2005.000000 0.7288 0.7290 0.7292 0.7296 0.7300
2000.000000 0.7304 0.7308 0.7312 0.7318 0.7322
1995.000000 0.7328 0.7334 0.7339 0.7345 0.7350
1990.000000 0.7354 0.7357 0.7358 0.7360 0.7361
1985.000000 0.7362 0.7365 0.7365 0.7367 0.7367
1980.000000 0.7367 0.7367 0.7367 0.7367 0.7367
1975.000000 0.7367 0.7367 0.7365 0.7365 0.7365
1970.000000 0.7365 0.7365 0.7365 0.7365 0.7365
1965.000000 0.7365 0.7365 0.7365 0.7364 0.7364
1960.000000 0.7364 0.7362 0.7362 0.7362 0.7362
1955.000000 0.7362 0.7361 0.7361 0.7358 0.7355
1950.000000 0.7351 0.7349 0.7343 0.7335 0.7325
1945.000000 0.7318 0.7311 0.7307 0.7303 0.7301
1940.000000 0.7299 0.7297 0.7296 0.7294 0.7292
1935.000000 0.7290 0.7288 0.7285 0.7283 0.7278
1930.000000 0.7275 0.7274 0.7274 0.7275 0.7276
1925.000000 0.7281 0.7285 0.7290 0.7295 0.7299
1920.000000 0.7304 0.7308 0.7314 0.7318 0.7322
1915.000000 0.7328 0.7334 0.7338 0.7342 0.7345
1910.000000 0.7348 0.7351 0.7354 0.7356 0.7358
1905.000000 0.7361 0.7365 0.7368 0.7371 0.7374
1900.000000 0.7376 0.7381 0.7384 0.7388 0.7392
1895.000000 0.7396 0.7399 0.7403 0.7406 0.7410
1890.000000 0.7412 0.7415 0.7418 0.7421 0.7424
1885.000000 0.7426 0.7428 0.7432 0.7435 0.7437
1880.000000 0.7440 0.7442 0.7444 0.7444 0.7445
1875.000000 0.7445 0.7446 0.7446 0.7447 0.7448
1870.000000 0.7448 0.7449 0.7450 0.7453 0.7456
1865.000000 0.7460 0.7464 0.7467 0.7471 0.7476
1860.000000 0.7484 0.7492 0.7498 0.7505 0.7511
1855.000000 0.7525 0.7539 0.7551 0.7560 0.7568
1850.000000 0.7578 0.7586 0.7594 0.7603 0.7611
1845.000000 0.7621 0.7622 0.7625 0.7628 0.7631
1840.000000 0.7634 0.7636 0.7639 0.7641 0.7644
1835.000000 0.7646 0.7646 0.7646 0.7646 0.7646
1830.000000 0.7646 0.7646 0.7646 0.7646 0.7646
1825.000000 0.7646 0.7645 0.7644 0.7643 0.7643
1820.000000 0.7642 0.7641 0.7639 0.7639 0.7638
1815.000000 0.7634 0.7626 0.7619 0.7614 0.7607
1810.000000 0.7601 0.7594 0.7588 0.7586 0.7585
1805.000000 0.7584 0.7584 0.7584 0.7583 0.7583
1800.000000 0.7583 0.7583 0.7584 0.7586 0.7587
1795.000000 0.7588 0.7590 0.7591 0.7593 0.7595
1790.000000 0.7597 0.7600 0.7603 0.7605 0.7608
1785.000000 0.7610 0.7612 0.7615 0.7618 0.7621
1780.000000 0.7622 0.7625 0.7628 0.7630 0.7632
1775.000000 0.7635 0.7637 0.7640 0.7642 0.7643
1770.000000 0.7644 0.7646 0.7647 0.7647 0.7649
1765.000000 0.7650 0.7651 0.7651 0.7653 0.7654
1760.000000 0.7655 0.7657 0.7657 0.7657 0.7657
1755.000000 0.7658 0.7658 0.7658 0.7658 0.7660
1750.000000 0.7660 0.7660 0.7660 0.7660 0.7660
1745.000000 0.7660 0.7660 0.7660 0.7658 0.7654
1740.000000 0.7644 0.7611 0.7580 0.7562 0.7560
1735.000000 0.7560 0.7558 0.7558 0.7557 0.7555
1730.000000 0.7549 0.7543 0.7538 0.7532 0.7518
1725.000000 0.7495 0.7465 0.7435 0.7415 0.7405
1720.000000 0.7398 0.7391 0.7385 0.7380 0.7378
1715.000000 0.7375 0.7368 0.7355 0.7338 0.7317
1710.000000 0.7274 0.7230 0.7175 0.7075 0.6976
1705.000000 0.6910 0.6818 0.6586 0.6312 0.6037
1700.000000 0.5762 0.5487 0.5212 0.4936 0.4660
1695.000000 0.4383 0.4105 0.3828 0.3550 0.3272
1690.000000 0.2994 0.2716 0.2437 0.2158 0.1878
1685.000000 0.1746 0.1734 0.1712 0.1712 0.1741
1680.000000 0.1870 0.2046 0.2223 0.2346 0.2555
1675.000000 0.2845 0.3165 0.3486 0.3807 0.4128
1670.000000 0.4450 0.4772 0.5048 0.5217 0.5360
1665.000000 0.5482 0.5575 0.5653 0.5718 0.5775
1660.000000 0.5820 0.5865 0.5914 0.5950 0.5976
1655.000000 0.5999 0.6022 0.6045 0.6067 0.6090
1650.000000 0.6112 0.6135 0.6155 0.6174 0.6191
1645.000000 0.6210 0.6227 0.6246 0.6264 0.6284
1640.000000 0.6306 0.6330 0.6353 0.6376 0.6399
1635.000000 0.6431 0.6464 0.6498 0.6532 0.6565
1630.000000 0.6601 0.6636 0.6668 0.6700 0.6732
1625.000000 0.6761 0.6791 0.6819 0.6848 0.6875
1620.000000 0.6901 0.6924 0.6938 0.6949 0.6956
1615.000000 0.6960 0.6968 0.6964 0.6961 0.6951
1610.000000 0.6935 0.6915 0.6871 0.6801 0.6661
1605.000000 0.6377 0.6031 0.5684 0.5336 0.4988
1600.000000 0.4640 0.3912 0.4009 0.3898 0.3912
1595.000000 0.4023 0.4274 0.4550 0.4826 0.5102
1590.000000 0.5379 0.5656 0.5934 0.6209 0.6461
1585.000000 0.6628 0.6668 0.6689 0.6698 0.6706
1580.000000 0.6710 0.6714 0.6718 0.6730 0.6741
1575.000000 0.6748 0.6760 0.6788 0.6822 0.6857
1570.000000 0.6892 0.6925 0.6960 0.6994 0.7028
1565.000000 0.7062 0.7085 0.7084 0.7080 0.7064
1560.000000 0.7039 0.7005 0.6938 0.6850 0.6760
1555.000000 0.6669 0.6634 0.6625 0.6621 0.6621
1550.000000 0.6636 0.6672 0.6785 0.6860 0.6950
1545.000000 0.7021 0.7053 0.7065 0.7078 0.7090
1540.000000 0.7098 0.7106 0.7112 0.7119 0.7126
1535.000000 0.7134 0.7141 0.7146 0.7146 0.7154
1530.000000 0.7153 0.7151 0.7148 0.7139 0.7128
1525.000000 0.7119 0.7111 0.7103 0.7094 0.7087
1520.000000 0.7086 0.7085 0.7084 0.7084 0.7083
1515.000000 0.7083 0.7083 0.7084 0.7084 0.7085
1510.000000 0.7085 0.7085 0.7084 0.7083 0.7080
1505.000000 0.7075 0.7072 0.7068 0.7060 0.7051
1500.000000 0.7042 0.7031 0.7021 0.7010 0.6961
1495.000000 0.6885 0.6837 0.6817 0.6797 0.6776
1490.000000 0.6744 0.6690 0.6524 0.6312 0.6100
1485.000000 0.5887 0.5674 0.5460 0.5250 0.5227
1480.000000 0.5221 0.5217 0.5216 0.5210 0.5184
1475.000000 0.5151 0.5069 0.4917 0.4734 0.4448
1470.000000 0.4204 0.3848 0.3472 0.3108 0.2810
1465.000000 0.2694 0.2456 0.2309 0.2247 0.2183
1460.000000 0.2117 0.2061 0.2022 0.1984 0.1944
1455.000000 0.1904 0.1858 0.1817 0.1789 0.1773
1450.000000 0.1767 0.1764 0.1764 0.1772 0.1789
1445.000000 0.1881 0.2029 0.2148 0.2263 0.2390
1440.000000 0.2482 0.2568 0.2652 0.2734 0.2823
1435.000000 0.2921 0.3084 0.3296 0.3492 0.3687
1430.000000 0.3884 0.4080 0.4277 0.4474 0.4671
1425.000000 0.4838 0.4906 0.4949 0.5073 0.5185
1420.000000 0.5217 0.5227 0.5238 0.5249 0.5264
1415.000000 0.5284 0.5305 0.5340 0.5399 0.5506
1410.000000 0.5604 0.5635 0.5649 0.5685 0.5659
1405.000000 0.5639 0.5556 0.5349 0.5110 0.4870
1400.000000 0.4630 0.4390 0.4243 0.4195 0.4210
1395.000000 0.4292 0.4460 0.4629 0.4797 0.4967
1390.000000 0.5136 0.5352 0.5346 0.5346 0.5347
1385.000000 0.5322 0.5260 0.5120 0.4889 0.4650
1380.000000 0.4412 0.4173 0.3934 0.3695 0.3455
1375.000000 0.3214 0.2974 0.2733 0.2534 0.2523
1370.000000 0.2524 0.2600 0.2824 0.3047 0.3271
1365.000000 0.3495 0.3720 0.3938 0.4068 0.4123
1360.000000 0.4187 0.4332 0.4486 0.4640 0.4794
1355.000000 0.4950 0.5104 0.5260 0.5415 0.5570
1350.000000 0.5699 0.5747 0.5764 0.5775 0.5782
1345.000000 0.5784 0.5785 0.5778 0.5766 0.5746
1340.000000 0.5692 0.5631 0.5581 0.5546 0.5539
1335.000000 0.5542 0.5566 0.5632 0.5712 0.5789
1330.000000 0.5866 0.5943 0.6020 0.6097 0.6174
1325.000000 0.6244 0.6279 0.6298 0.6317 0.6310
1320.000000 0.6308 0.6301 0.6288 0.6270 0.6242
1315.000000 0.6191 0.6086 0.5980 0.5901 0.5847
1310.000000 0.5831 0.5826 0.5822 0.5818 0.5816
1305.000000 0.5814 0.5812 0.5817 0.5834 0.5843
1300.000000 0.5846 0.5839 0.5826 0.5795 0.5710
1295.000000 0.5649 0.5592 0.5535 0.5478 0.5420
1290.000000 0.5362 0.5305 0.5248 0.5218 0.5209
1285.000000 0.5209 0.5205 0.5206 0.5210 0.5227
1280.000000 0.5242 0.5270 0.5312 0.5344 0.5360
1275.000000 0.5371 0.5372 0.5372 0.5374 0.5378
1270.000000 0.5383 0.5390 0.5407 0.5427 0.5455
1265.000000 0.5482 0.5507 0.5532 0.5557 0.5584
1260.000000 0.5612 0.5642 0.5672 0.5701 0.5732
1255.000000 0.5765 0.5799 0.5835 0.5890 0.5932
1250.000000 0.5959 0.5979 0.5992 0.6016 0.5983
1245.000000 0.5930 0.5767 0.5652 0.5491 0.5256
1240.000000 0.5021 0.4785 0.4549 0.4312 0.4076
1235.000000 0.3838 0.3600 0.3400 0.3296 0.3212
1230.000000 0.3160 0.3184 0.3188 0.3205 0.3240
1225.000000 0.3297 0.3362 0.3448 0.3521 0.3620
1220.000000 0.3721 0.3823 0.3925 0.4027 0.4130
1215.000000 0.4232 0.4334 0.4438 0.4545 0.4539
1210.000000 0.4536 0.4500 0.4412 0.4323 0.4234
1205.000000 0.4232 0.4281 0.4431 0.4585 0.4739
1200.000000 0.4893 0.5048 0.5203 0.5357 0.5512
1195.000000 0.5666 0.5746 0.5814 0.5864 0.5914
1190.000000 0.5964 0.6007 0.6032 0.6054 0.6076
1185.000000 0.6088 0.6085 0.6023 0.5936 0.5909
1180.000000 0.5904 0.5918 0.5968 0.6016 0.6062
1175.000000 0.6112 0.6168 0.6219 0.6252 0.6278
1170.000000 0.6300 0.6312 0.6324 0.6336 0.6346
1165.000000 0.6358 0.6370 0.6374 0.6365 0.6362
1160.000000 0.6337 0.6289 0.6231 0.6175 0.6123
1155.000000 0.6072 0.6031 0.5998 0.5985 0.5981
1150.000000 0.5981 0.5987 0.5994 0.6001 0.6007
1145.000000 0.6005 0.5995 0.5970 0.5940 0.5897
1140.000000 0.5840 0.5733 0.5625 0.5501 0.5362
1135.000000 0.5194 0.4883 0.4687 0.4381 0.4002
1130.000000 0.3600 0.3197 0.2793 0.2502 0.2454
1125.000000 0.2415 0.2379 0.2391 0.2396 0.2450
1120.000000 0.2576 0.2725 0.2808 0.2939 0.3229
1115.000000 0.3506 0.3782 0.4059 0.4336 0.4610
1110.000000 0.4781 0.4862 0.4934 0.5028 0.5132
1105.000000 0.5236 0.5338 0.5435 0.5545 0.5674
1100.000000 0.5812 0.5914 0.5991 0.6062 0.6115
1095.000000 0.6160 0.6205 0.6247 0.6284 0.6321
1090.000000 0.6358 0.6395 0.6432 0.6472 0.6515
1085.000000 0.6541 0.6562 0.6580 0.6596 0.6612
1080.000000 0.6628 0.6646 0.6661 0.6665 0.6665
1075.000000 0.6656 0.6640 0.6621 0.6604 0.6592
1070.000000 0.6581 0.6571 0.6588 0.6562 0.6568
1065.000000 0.6578 0.6589 0.6601 0.6611 0.6617
1060.000000 0.6622 0.6625 0.6626 0.6621 0.6614
1055.000000 0.6591 0.6543 0.6478 0.6411 0.6343
1050.000000 0.6274 0.6208 0.6143 0.6077 0.6002
1045.000000 0.5925 0.5855 0.5785 0.5700 0.5588
1040.000000 0.5153 0.5024 0.4855 0.4627 0.4169
1035.000000 0.4014 0.3739 0.3337 0.2934 0.2571
1030.000000 0.2484 0.2484 0.2484 0.2541 0.2730
1025.000000 0.3009 0.3379 0.3758 0.4138 0.4519
1020.000000 0.4899 0.4980 0.4890 0.4465 0.4016
1015.000000 0.3568 0.3212 0.3200 0.3260 0.3646
1010.000000 0.4110 0.4575 0.5018 0.5196 0.5288
1005.000000 0.5360 0.5410 0.5460 0.5512 0.5606
1000.000000 0.5717 0.5828 0.5941 0.6051 0.6135
995.000000 0.6231 0.6299 0.6315 0.6324 0.6328
990.000000 0.6331 0.6333 0.6339 0.6362 0.6401
985.000000 0.6441 0.6468 0.6478 0.6475 0.6464
980.000000 0.6442 0.6408 0.6336 0.6245 0.6106
975.000000 0.5937 0.5700 0.5381 0.5035 0.4536
970.000000 0.4034 0.3532 0.3030 0.2932 0.2928
965.000000 0.3262 0.3743 0.4224 0.4706 0.5189
960.000000 0.5672 0.5974 0.6012 0.5924 0.5427
955.000000 0.4912 0.4396 0.3748 0.3727 0.3821
950.000000 0.4310 0.4820 0.5326 0.5608 0.5846
945.000000 0.6032 0.6195 0.6310 0.6425 0.6530
940.000000 0.6625 0.6685 0.6745 0.6804 0.6853
935.000000 0.6895 0.6937 0.6972 0.7008 0.7044
930.000000 0.7078 0.7103 0.7128 0.7158 0.7188
925.000000 0.7228 0.7275 0.7317 0.7341 0.7365
920.000000 0.7388 0.7410 0.7432 0.7454 0.7471
915.000000 0.7483 0.7484 0.7485 0.7471 0.7449
910.000000 0.7431 0.7419 0.7411 0.7405 0.7407
905.000000 0.7424 0.7449 0.7500 0.7562 0.7618
900.000000 0.7662 0.7689 0.7711 0.7725 0.7740
895.000000 0.7751 0.7761 0.7768 0.7769 0.7772
890.000000 0.7776 0.7785 0.7794 0.7807 0.7842
885.000000 0.7853 0.7871 0.7851 0.7845 0.7828
880.000000 0.7821 0.7819 0.7819 0.7819 0.7818
875.000000 0.7811 0.7793 0.7754 0.7693 0.7624
870.000000 0.7525 0.7353 0.7084 0.6297 0.5510
865.000000 0.4725 0.3791 0.3766 0.3798 0.4319
860.000000 0.4816 0.5160 0.5825 0.6571 0.6800
855.000000 0.7017 0.7210 0.7330 0.7390 0.7417
850.000000 0.7454 0.7508 0.7547 0.7572 0.7586
845.000000 0.7588 0.7564 0.7545 0.7495 0.7525
840.000000 0.7530 0.7551 0.7572 0.7590 0.7603
835.000000 0.7610 0.7614 0.7617 0.7605 0.7585
830.000000 0.7549 0.7492 0.7375 0.7186 0.7019
825.000000 0.6848 0.6410 0.5817 0.5093 0.4155
820.000000 0.4148 0.4319 0.4978 0.5351 0.5709
815.000000 0.6012 0.6280 0.6506 0.6708 0.6882
810.000000 0.7046 0.7198 0.7311 0.7418 0.7528
805.000000 0.7615 0.7681 0.7718 0.7761 0.7806
800.000000 0.7851 0.7876 0.7895 0.7921 0.7951
795.000000 0.7969 0.7981 0.7993 0.8001 0.8008
790.000000 0.8015 0.8021 0.8021 0.8022 0.8022
785.000000 0.8015 0.8017 0.8021 0.8035 0.8054
780.000000 0.8011 0.7991 0.7980 0.7976 0.7968
775.000000 0.7935 0.7868 0.7757 0.7639 0.7517
770.000000 0.7365 0.7160 0.6826 0.6524 0.5956
765.000000 0.5273 0.4716 0.4733 0.5029 0.5391
760.000000 0.5753 0.6108 0.6207 0.6254 0.6225
755.000000 0.5632 0.4473 0.3310 0.2197 0.2077
750.000000 0.2078 0.2454 0.3250 0.4068 0.4887
745.000000 0.5291 0.5719 0.6010 0.6164 0.6253
740.000000 0.6298 0.6299 0.6300 0.6273 0.6233
735.000000 0.6183 0.6110 0.6035 0.5954 0.5857
730.000000 0.5718 0.5407 0.4859 0.4675 0.4468
725.000000 0.4115 0.3514 0.2910 0.2607 0.2637
720.000000 0.3090 0.3649 0.4275 0.4901 0.5434
715.000000 0.5749 0.6071 0.6320 0.6528 0.6658
710.000000 0.6768 0.6856 0.6917 0.6958 0.6983
705.000000 0.7004 0.6997 0.6978 0.6933 0.6853
700.000000 0.6635 0.6399 0.6118 0.5859 0.5469
695.000000 0.4904 0.4512 0.4117 0.3722 0.3325
690.000000 0.2740 0.2749 0.2821 0.3073 0.3497
685.000000 0.3952 0.4364 0.4666 0.4935 0.5204
680.000000 0.5409 0.5623 0.5786 0.5917 0.6041
675.000000 0.6158 0.6262 0.6355 0.6421 0.6475
670.000000 0.6511 0.6543 0.6538 0.6504 0.6444
##END=
