##TITLE=Aniline, 2-tert-butyl-N-(o-chlorobenzyl)-
##JCAMP-DX=4.24
##DATA TYPE=INFRARED SPECTRUM
##CLASS=COBLENTZ III
##ORIGIN=MONSANTO (J. FREEMAN)
##OWNER=Copyright (C) 1987 by the Coblentz Society
Collection (C) 2018 copyright by the U.S. Secretary of Commerce
on behalf of the United States of America. All rights reserved.
##DATE=1959/06/26
##NAMES=N-(2-tert-butylphenyl)-N-(2-chlorobenzyl)amine
2-tert-butyl-N-(2-chlorobenzyl)aniline
##MOLFORM=C17 H20 Cl N
##SOURCE REFERENCE=COBLENTZ NO. 9258
##$NIST ID=B6009258
##$NIST SOURCE=COBLENTZ
##$NIST IMAGE=cob9258
##SPECTROMETER/DATA SYSTEM=BECKMAN IR-4 (HYBRID PRISM-GRATING)
##INSTRUMENT PARAMETERS=NaCl PRISM
##STATE=SOLID (NUJOL MULL)
$$ SEE SPECTRUM NO. 9257 FOR "CS2 SOLUTION"
$$SPECTRAL CONTAMINATION DUE TO OIL AROUND 2900, 1450, 720 CM^-^1
##SAMPLING PROCEDURE=TRANSMISSION
##RESOLUTION=2
##DATA PROCESSING=DIGITIZED BY COBLENTZ SOCIETY (BATCH II) FROM HARD COPY
##XUNITS=1/CM
##YUNITS=TRANSMITTANCE
##XFACTOR=1.0
##YFACTOR=1
##FIRSTX=626
##LASTX=4000
##FIRSTY=0.8685
##MAXX=4000
##MINX=626
##MAXY=0.9397
##MINY=0.0249
##NPOINTS=3375
##XYDATA=(X++(Y..Y))
626.000000 0.8685 0.8700 0.8709 0.8719 0.8729
631.000000 0.8741 0.8751 0.8756 0.8758 0.8759
636.000000 0.8757 0.8755 0.8753 0.8750 0.8748
641.000000 0.8744 0.8740 0.8736 0.8731 0.8725
646.000000 0.8720 0.8715 0.8711 0.8707 0.8703
651.000000 0.8701 0.8691 0.8699 0.8697 0.8694
656.000000 0.8694 0.8698 0.8703 0.8707 0.8697
661.000000 0.8671 0.8651 0.8642 0.8644 0.8651
666.000000 0.8655 0.8657 0.8661 0.8660 0.8659
671.000000 0.8670 0.8685 0.8700 0.8716 0.8716
676.000000 0.8709 0.8696 0.8678 0.8628 0.8576
681.000000 0.8497 0.8404 0.8298 0.8199 0.8144
686.000000 0.8122 0.8114 0.8129 0.8156 0.8158
691.000000 0.8130 0.8058 0.7928 0.7647 0.7361
696.000000 0.7077 0.6793 0.6517 0.6413 0.6371
701.000000 0.6825 0.7185 0.7542 0.7884 0.8049
706.000000 0.8120 0.8172 0.8207 0.8241 0.8232
711.000000 0.8221 0.8204 0.8181 0.8155 0.8123
716.000000 0.8069 0.8017 0.7965 0.7913 0.7861
721.000000 0.7809 0.7772 0.7784 0.7808 0.7827
726.000000 0.7840 0.7836 0.7822 0.7806 0.7784
731.000000 0.7756 0.7716 0.7657 0.7578 0.7445
736.000000 0.7224 0.6889 0.6505 0.6020 0.5037
741.000000 0.4057 0.3079 0.2299 0.2204 0.2225
746.000000 0.2882 0.2972 0.2976 0.2153 0.1806
751.000000 0.1785 0.2254 0.2767 0.3280 0.3790
756.000000 0.3961 0.3575 0.2943 0.2311 0.1681
761.000000 0.1135 0.1157 0.3500 0.5094 0.6838
766.000000 0.7206 0.7642 0.8064 0.8226 0.8315
771.000000 0.8370 0.8412 0.8445 0.8468 0.8490
776.000000 0.8499 0.8505 0.8488 0.8460 0.8384
781.000000 0.8268 0.8043 0.7792 0.7542 0.7292
786.000000 0.7092 0.7048 0.7026 0.7379 0.7664
791.000000 0.7931 0.8085 0.8176 0.8214 0.8222
796.000000 0.8227 0.8184 0.8135 0.8065 0.7990
801.000000 0.7934 0.7929 0.7918 0.8150 0.8343
806.000000 0.8534 0.8655 0.8691 0.8676 0.8591
811.000000 0.8327 0.8018 0.7709 0.7401 0.7251
816.000000 0.7251 0.8012 0.8459 0.8772 0.8856
821.000000 0.8923 0.8965 0.9000 0.9019 0.9029
826.000000 0.9031 0.9032 0.9084 0.9025 0.9016
831.000000 0.9004 0.8993 0.8970 0.8944 0.8919
836.000000 0.8869 0.8815 0.8762 0.8709 0.8688
841.000000 0.8675 0.8664 0.8655 0.8651 0.8659
846.000000 0.8680 0.8636 0.8785 0.8878 0.8929
851.000000 0.8974 0.9004 0.9032 0.9045 0.9057
856.000000 0.9056 0.9077 0.9045 0.9035 0.9015
861.000000 0.8968 0.8881 0.8686 0.8487 0.8287
866.000000 0.8133 0.8122 0.8473 0.8808 0.9002
871.000000 0.9050 0.9086 0.9109 0.9120 0.9131
876.000000 0.9138 0.9144 0.9149 0.9150 0.9151
881.000000 0.9148 0.9143 0.9130 0.9133 0.9126
886.000000 0.9121 0.9115 0.9110 0.9105 0.9101
891.000000 0.9098 0.9095 0.9092 0.9094 0.9096
896.000000 0.9098 0.9101 0.9104 0.9106 0.9108
901.000000 0.9111 0.9113 0.9115 0.9113 0.9110
906.000000 0.9107 0.9105 0.9100 0.9092 0.9083
911.000000 0.9075 0.9066 0.9058 0.9049 0.9036
916.000000 0.9022 0.9008 0.8994 0.8980 0.8964
921.000000 0.8940 0.8915 0.8890 0.8865 0.8839
926.000000 0.8805 0.8771 0.8477 0.8032 0.7936
931.000000 0.7905 0.7921 0.7853 0.8161 0.8314
936.000000 0.8466 0.8599 0.8662 0.8703 0.8713
941.000000 0.8709 0.8708 0.8716 0.8734 0.8745
946.000000 0.8755 0.8762 0.8724 0.8695 0.8647
951.000000 0.8595 0.8527 0.8426 0.8277 0.8129
956.000000 0.8002 0.7888 0.7785 0.7756 0.7788
961.000000 0.7739 0.8099 0.8238 0.8343 0.8422
966.000000 0.8498 0.8570 0.8641 0.8710 0.8747
971.000000 0.8781 0.8799 0.8801 0.8803 0.8799
976.000000 0.8789 0.8761 0.8720 0.8667 0.8608
981.000000 0.8525 0.8459 0.8423 0.8407 0.8384
986.000000 0.8322 0.8268 0.8257 0.8280 0.8230
991.000000 0.8462 0.8573 0.8657 0.8722 0.8751
996.000000 0.8754 0.8742 0.8727 0.8689 0.8647
1001.000000 0.8610 0.8564 0.8516 0.8469 0.8416
1006.000000 0.8361 0.8313 0.8268 0.8239 0.8245
1011.000000 0.8253 0.8257 0.8253 0.8241 0.8232
1016.000000 0.8232 0.8243 0.8232 0.8196 0.8155
1021.000000 0.8105 0.8044 0.7957 0.7800 0.7460
1026.000000 0.7111 0.6763 0.6415 0.6068 0.5722
1031.000000 0.5394 0.5345 0.5356 0.5338 0.5584
1036.000000 0.5703 0.5755 0.5759 0.4853 0.4191
1041.000000 0.3571 0.3462 0.3465 0.4605 0.5468
1046.000000 0.6329 0.7188 0.7729 0.7721 0.7754
1051.000000 0.7223 0.6866 0.6509 0.6164 0.6135
1056.000000 0.6131 0.6899 0.7571 0.8206 0.8347
1061.000000 0.8343 0.8329 0.8305 0.8276 0.8259
1066.000000 0.8253 0.8258 0.8293 0.8349 0.8486
1071.000000 0.8624 0.8719 0.8787 0.8836 0.8864
1076.000000 0.8892 0.8913 0.8933 0.8945 0.8958
1081.000000 0.8970 0.8978 0.8984 0.8956 0.8942
1086.000000 0.8918 0.8891 0.8857 0.8816 0.8769
1091.000000 0.8706 0.8638 0.8567 0.8500 0.8437
1096.000000 0.8372 0.8272 0.8259 0.8204 0.8327
1101.000000 0.8370 0.8424 0.8500 0.8549 0.8585
1106.000000 0.8601 0.8612 0.8608 0.8618 0.8578
1111.000000 0.8547 0.8511 0.8469 0.8422 0.8369
1116.000000 0.8315 0.8270 0.8246 0.8294 0.8332
1121.000000 0.8418 0.8484 0.8557 0.8653 0.8705
1126.000000 0.8723 0.8732 0.8744 0.8718 0.8693
1131.000000 0.8635 0.8547 0.8428 0.8233 0.8018
1136.000000 0.7805 0.7592 0.7379 0.7173 0.7139
1141.000000 0.7163 0.7155 0.7565 0.7769 0.7972
1146.000000 0.8175 0.8349 0.8400 0.8429 0.8442
1151.000000 0.8451 0.8460 0.8478 0.8542 0.8591
1156.000000 0.8608 0.8632 0.8615 0.8490 0.8316
1161.000000 0.8141 0.7999 0.7982 0.7984 0.8160
1166.000000 0.8331 0.8485 0.8523 0.8537 0.8550
1171.000000 0.8566 0.8602 0.8646 0.8688 0.8708
1176.000000 0.8718 0.8709 0.8694 0.8655 0.8485
1181.000000 0.8222 0.7967 0.7712 0.7459 0.7263
1186.000000 0.7158 0.7062 0.7038 0.7027 0.7057
1191.000000 0.7090 0.7132 0.7194 0.7255 0.7330
1196.000000 0.7429 0.7517 0.7579 0.7591 0.7596
1201.000000 0.7583 0.7517 0.7450 0.7396 0.7394
1206.000000 0.7531 0.7773 0.8015 0.8241 0.8319
1211.000000 0.8375 0.8408 0.8433 0.8441 0.8418
1216.000000 0.8427 0.8392 0.8316 0.8233 0.8150
1221.000000 0.8062 0.7960 0.7814 0.7590 0.7324
1226.000000 0.7053 0.6783 0.6514 0.6245 0.5976
1231.000000 0.5708 0.5440 0.5173 0.4999 0.5000
1236.000000 0.5043 0.5210 0.5380 0.5550 0.5720
1241.000000 0.5889 0.5958 0.5953 0.5941 0.5849
1246.000000 0.5459 0.5064 0.4670 0.4277 0.3884
1251.000000 0.3535 0.3401 0.3263 0.3073 0.2883
1256.000000 0.2694 0.2505 0.2316 0.2242 0.2237
1261.000000 0.2235 0.2247 0.2599 0.2990 0.3380
1266.000000 0.3770 0.4159 0.4547 0.4936 0.5323
1271.000000 0.5710 0.6000 0.6087 0.6146 0.6248
1276.000000 0.6408 0.6567 0.6727 0.6886 0.7045
1281.000000 0.7203 0.7361 0.7585 0.7580 0.7527
1286.000000 0.7398 0.7269 0.7140 0.7012 0.6883
1291.000000 0.6756 0.6629 0.6597 0.6589 0.6800
1296.000000 0.6932 0.7064 0.7196 0.7295 0.7293
1301.000000 0.7086 0.6752 0.6418 0.6085 0.5752
1306.000000 0.5419 0.5087 0.4756 0.4425 0.4095
1311.000000 0.3764 0.3501 0.3455 0.3452 0.4113
1316.000000 0.4681 0.5247 0.5800 0.6149 0.6341
1321.000000 0.6531 0.6723 0.6913 0.7103 0.7293
1326.000000 0.7482 0.7658 0.7814 0.7903 0.7939
1331.000000 0.7965 0.7930 0.7964 0.7941 0.7857
1336.000000 0.7753 0.7649 0.7546 0.7442 0.7338
1341.000000 0.7235 0.7134 0.7066 0.7005 0.6922
1346.000000 0.6769 0.6504 0.6058 0.5919 0.5675
1351.000000 0.5361 0.5048 0.4736 0.4424 0.4114
1356.000000 0.3867 0.3842 0.3837 0.4000 0.4199
1361.000000 0.4398 0.4704 0.4705 0.4699 0.4600
1366.000000 0.4492 0.4384 0.4277 0.4197 0.4190
1371.000000 0.4361 0.4556 0.4751 0.4945 0.5140
1376.000000 0.5333 0.5527 0.5721 0.5913 0.6106
1381.000000 0.6298 0.6491 0.6683 0.6874 0.7066
1386.000000 0.7151 0.7153 0.7140 0.7046 0.6944
1391.000000 0.6841 0.6739 0.6637 0.6548 0.6527
1396.000000 0.6686 0.6992 0.7298 0.7602 0.7801
1401.000000 0.7820 0.7821 0.7839 0.7812 0.7803
1406.000000 0.7786 0.7747 0.7698 0.7637 0.7585
1411.000000 0.7532 0.7461 0.7325 0.6708 0.6458
1416.000000 0.6098 0.5706 0.5315 0.4963 0.4854
1421.000000 0.4811 0.4776 0.4755 0.4738 0.4725
1426.000000 0.4714 0.4693 0.4511 0.4245 0.3978
1431.000000 0.3712 0.3446 0.3181 0.2916 0.2651
1436.000000 0.1830 0.1764 0.1697 0.1612 0.1552
1441.000000 0.1529 0.1523 0.1519 0.1518 0.1518
1446.000000 0.1525 0.1541 0.1570 0.1605 0.1637
1451.000000 0.1665 0.1701 0.1763 0.1840 0.1927
1456.000000 0.2021 0.2115 0.2195 0.2214 0.2183
1461.000000 0.2137 0.2090 0.2044 0.2004 0.2110
1466.000000 0.2497 0.2967 0.3436 0.3905 0.4373
1471.000000 0.4969 0.5408 0.5603 0.5777 0.5865
1476.000000 0.5946 0.6018 0.6085 0.6151 0.6189
1481.000000 0.6217 0.6244 0.6258 0.6287 0.6268
1486.000000 0.6266 0.6255 0.6236 0.6126 0.5817
1491.000000 0.5509 0.5201 0.4893 0.4586 0.4279
1496.000000 0.3973 0.3667 0.3363 0.3114 0.3030
1501.000000 0.2930 0.2870 0.2828 0.2804 0.2789
1506.000000 0.2788 0.2770 0.2801 0.2838 0.2942
1511.000000 0.3061 0.3181 0.3300 0.3419 0.3538
1516.000000 0.3656 0.3775 0.3893 0.4004 0.4077
1521.000000 0.4214 0.4591 0.5069 0.5547 0.6025
1526.000000 0.6501 0.6861 0.6973 0.7014 0.7050
1531.000000 0.7092 0.7138 0.7184 0.7364 0.7774
1536.000000 0.7865 0.7950 0.8022 0.8077 0.8130
1541.000000 0.8179 0.8219 0.8257 0.8294 0.8328
1546.000000 0.8343 0.8354 0.8367 0.8366 0.8365
1551.000000 0.8359 0.8351 0.8339 0.8307 0.8183
1556.000000 0.7875 0.7483 0.7134 0.6867 0.6695
1561.000000 0.6512 0.6391 0.6271 0.6150 0.6030
1566.000000 0.5911 0.5791 0.5671 0.5552 0.5467
1571.000000 0.5416 0.5611 0.5832 0.6054 0.6274
1576.000000 0.6494 0.6714 0.6934 0.7154 0.7222
1581.000000 0.7204 0.7078 0.6912 0.6746 0.6581
1586.000000 0.6416 0.6251 0.6087 0.5922 0.5758
1591.000000 0.5595 0.5431 0.5267 0.5104 0.5012
1596.000000 0.4965 0.5038 0.5178 0.5365 0.5551
1601.000000 0.5737 0.5923 0.6108 0.6293 0.6478
1606.000000 0.6663 0.6836 0.6951 0.6983 0.7020
1611.000000 0.7091 0.7328 0.7967 0.8116 0.8223
1616.000000 0.8299 0.8361 0.8415 0.8468 0.8519
1621.000000 0.8571 0.8634 0.8711 0.8775 0.8826
1626.000000 0.8865 0.8890 0.8909 0.8929 0.8949
1631.000000 0.8967 0.8981 0.8993 0.9006 0.9014
1636.000000 0.9023 0.9032 0.9038 0.9044 0.9050
1641.000000 0.9056 0.9061 0.9067 0.9072 0.9077
1646.000000 0.9082 0.9087 0.9092 0.9096 0.9101
1651.000000 0.9105 0.9109 0.9113 0.9117 0.9121
1656.000000 0.9125 0.9129 0.9132 0.9135 0.9137
1661.000000 0.9140 0.9137 0.9133 0.9129 0.9126
1666.000000 0.9122 0.9119 0.9117 0.9115 0.9114
1671.000000 0.9114 0.9118 0.9123 0.9127 0.9133
1676.000000 0.9139 0.9145 0.9152 0.9159 0.9165
1681.000000 0.9172 0.9178 0.9184 0.9191 0.9197
1686.000000 0.9204 0.9210 0.9215 0.9221 0.9227
1691.000000 0.9233 0.9239 0.9244 0.9250 0.9256
1696.000000 0.9261 0.9267 0.9273 0.9278 0.9284
1701.000000 0.9289 0.9295 0.9302 0.9308 0.9315
1706.000000 0.9322 0.9329 0.9336 0.9343 0.9354
1711.000000 0.9365 0.9374 0.9380 0.9385 0.9391
1716.000000 0.9395 0.9395 0.9396 0.9397 0.9397
1721.000000 0.9396 0.9395 0.9388 0.9393 0.9392
1726.000000 0.9390 0.9389 0.9388 0.9386 0.9385
1731.000000 0.9382 0.9380 0.9379 0.9377 0.9374
1736.000000 0.9372 0.9369 0.9365 0.9362 0.9359
1741.000000 0.9355 0.9352 0.9349 0.9345 0.9342
1746.000000 0.9338 0.9335 0.9331 0.9326 0.9322
1751.000000 0.9317 0.9313 0.9309 0.9304 0.9298
1756.000000 0.9291 0.9283 0.9275 0.9267 0.9260
1761.000000 0.9252 0.9244 0.9236 0.9229 0.9221
1766.000000 0.9214 0.9207 0.9203 0.9205 0.9207
1771.000000 0.9210 0.9212 0.9212 0.9212 0.9211
1776.000000 0.9210 0.9209 0.9209 0.9201 0.9192
1781.000000 0.9182 0.9171 0.9159 0.9147 0.9134
1786.000000 0.9122 0.9109 0.9090 0.9076 0.9066
1791.000000 0.9058 0.9051 0.9044 0.9037 0.9032
1796.000000 0.9028 0.9024 0.9024 0.9026 0.9028
1801.000000 0.9032 0.9036 0.9041 0.9047 0.9053
1806.000000 0.9059 0.9065 0.9072 0.9078 0.9088
1811.000000 0.9106 0.9121 0.9128 0.9128 0.9128
1816.000000 0.9128 0.9128 0.9128 0.9128 0.9128
1821.000000 0.9127 0.9127 0.9127 0.9126 0.9126
1826.000000 0.9126 0.9125 0.9124 0.9123 0.9123
1831.000000 0.9121 0.9120 0.9119 0.9119 0.9116
1836.000000 0.9112 0.9108 0.9101 0.9090 0.9077
1841.000000 0.9065 0.9053 0.9045 0.9040 0.9039
1846.000000 0.9040 0.9041 0.9042 0.9042 0.9044
1851.000000 0.9045 0.9046 0.9046 0.9047 0.9048
1856.000000 0.9049 0.9049 0.9049 0.9048 0.9046
1861.000000 0.9044 0.9041 0.9039 0.9034 0.9028
1866.000000 0.9023 0.9018 0.9011 0.9004 0.8995
1871.000000 0.8986 0.8977 0.8969 0.8961 0.8953
1876.000000 0.8946 0.8939 0.8931 0.8924 0.8922
1881.000000 0.8928 0.8940 0.8952 0.8962 0.8973
1886.000000 0.8984 0.8995 0.9006 0.9013 0.9017
1891.000000 0.9019 0.9021 0.9022 0.9021 0.9019
1896.000000 0.9017 0.9015 0.9014 0.9009 0.9004
1901.000000 0.8997 0.8992 0.8985 0.8978 0.8970
1906.000000 0.8962 0.8954 0.8946 0.8933 0.8917
1911.000000 0.8904 0.8901 0.8902 0.8907 0.8913
1916.000000 0.8918 0.8922 0.8926 0.8932 0.8940
1921.000000 0.8947 0.8955 0.8963 0.8972 0.8980
1926.000000 0.8989 0.8999 0.9009 0.9019 0.9031
1931.000000 0.9042 0.9053 0.9062 0.9070 0.9078
1936.000000 0.9086 0.9092 0.9097 0.9097 0.9096
1941.000000 0.9095 0.9095 0.9094 0.9094 0.9090
1946.000000 0.9086 0.9083 0.9079 0.9076 0.9073
1951.000000 0.9066 0.9059 0.9052 0.9047 0.9045
1956.000000 0.9047 0.9049 0.9050 0.9052 0.9053
1961.000000 0.9055 0.9057 0.9059 0.9062 0.9067
1966.000000 0.9071 0.9075 0.9080 0.9086 0.9092
1971.000000 0.9099 0.9105 0.9111 0.9117 0.9123
1976.000000 0.9130 0.9136 0.9142 0.9149 0.9155
1981.000000 0.9161 0.9164 0.9166 0.9166 0.9166
1986.000000 0.9167 0.9167 0.9168 0.9168 0.9168
1991.000000 0.9167 0.9166 0.9164 0.9163 0.9162
1996.000000 0.9160 0.9158 0.9157 0.9156 0.9155
2001.000000 0.9153 0.9152 0.9152 0.9151 0.9149
2006.000000 0.9149 0.9148 0.9148 0.9146 0.9145
2011.000000 0.9145 0.9144 0.9142 0.9142 0.9141
2016.000000 0.9140 0.9139 0.9138 0.9137 0.9137
2021.000000 0.9137 0.9136 0.9135 0.9135 0.9134
2026.000000 0.9133 0.9133 0.9132 0.9132 0.9131
2031.000000 0.9130 0.9130 0.9129 0.9129 0.9129
2036.000000 0.9128 0.9128 0.9127 0.9127 0.9126
2041.000000 0.9125 0.9125 0.9124 0.9124 0.9123
2046.000000 0.9122 0.9122 0.9121 0.9121 0.9121
2051.000000 0.9120 0.9120 0.9119 0.9119 0.9118
2056.000000 0.9117 0.9117 0.9116 0.9116 0.9115
2061.000000 0.9115 0.9114 0.9114 0.9114 0.9113
2066.000000 0.9113 0.9112 0.9111 0.9111 0.9110
2071.000000 0.9110 0.9109 0.9108 0.9108 0.9107
2076.000000 0.9107 0.9107 0.9107 0.9107 0.9106
2081.000000 0.9106 0.9106 0.9106 0.9105 0.9105
2086.000000 0.9105 0.9104 0.9104 0.9104 0.9104
2091.000000 0.9103 0.9103 0.9103 0.9102 0.9102
2096.000000 0.9102 0.9102 0.9102 0.9102 0.9101
2101.000000 0.9100 0.9099 0.9098 0.9098 0.9097
2106.000000 0.9096 0.9095 0.9094 0.9093 0.9092
2111.000000 0.9092 0.9091 0.9090 0.9089 0.9089
2116.000000 0.9087 0.9086 0.9086 0.9085 0.9084
2121.000000 0.9083 0.9083 0.9082 0.9081 0.9080
2126.000000 0.9079 0.9078 0.9077 0.9077 0.9076
2131.000000 0.9075 0.9074 0.9074 0.9073 0.9071
2136.000000 0.9070 0.9069 0.9069 0.9068 0.9067
2141.000000 0.9066 0.9066 0.9065 0.9065 0.9065
2146.000000 0.9064 0.9064 0.9063 0.9063 0.9062
2151.000000 0.9062 0.9061 0.9061 0.9061 0.9061
2156.000000 0.9060 0.9060 0.9059 0.9058 0.9058
2161.000000 0.9057 0.9057 0.9056 0.9056 0.9056
2166.000000 0.9056 0.9055 0.9055 0.9054 0.9054
2171.000000 0.9053 0.9053 0.9052 0.9052 0.9052
2176.000000 0.9051 0.9051 0.9050 0.9050 0.9049
2181.000000 0.9049 0.9048 0.9048 0.9048 0.9048
2186.000000 0.9047 0.9047 0.9046 0.9046 0.9045
2191.000000 0.9045 0.9045 0.9044 0.9044 0.9044
2196.000000 0.9044 0.9043 0.9043 0.9043 0.9043
2201.000000 0.9042 0.9042 0.9041 0.9041 0.9041
2206.000000 0.9041 0.9040 0.9040 0.9040 0.9040
2211.000000 0.9039 0.9039 0.9038 0.9038 0.9038
2216.000000 0.9038 0.9037 0.9037 0.9037 0.9037
2221.000000 0.9036 0.9036 0.9035 0.9035 0.9035
2226.000000 0.9035 0.9034 0.9034 0.9034 0.9034
2231.000000 0.9033 0.9033 0.9032 0.9032 0.9031
2236.000000 0.9031 0.9030 0.9030 0.9029 0.9029
2241.000000 0.9028 0.9028 0.9027 0.9027 0.9027
2246.000000 0.9027 0.9026 0.9026 0.9025 0.9025
2251.000000 0.9024 0.9024 0.9023 0.9023 0.9022
2256.000000 0.9022 0.9021 0.9021 0.9020 0.9020
2261.000000 0.9019 0.9019 0.9018 0.9018 0.9017
2266.000000 0.9017 0.9017 0.9017 0.9016 0.9016
2271.000000 0.9015 0.9015 0.9014 0.9014 0.9013
2276.000000 0.9013 0.9012 0.9012 0.9011 0.9011
2281.000000 0.9011 0.9010 0.9010 0.9009 0.9009
2286.000000 0.9008 0.9008 0.9007 0.9007 0.9006
2291.000000 0.9006 0.9005 0.9005 0.9004 0.9004
2296.000000 0.9004 0.9004 0.9003 0.9003 0.9002
2301.000000 0.9002 0.9002 0.9001 0.9001 0.9000
2306.000000 0.9000 0.8999 0.8999 0.8998 0.8998
2311.000000 0.8997 0.8997 0.8996 0.8996 0.8995
2316.000000 0.8995 0.8994 0.8994 0.8994 0.8993
2321.000000 0.8993 0.8992 0.8992 0.8991 0.8991
2326.000000 0.8990 0.8990 0.8989 0.8988 0.8987
2331.000000 0.8987 0.8987 0.8986 0.8986 0.8983
2336.000000 0.8980 0.8976 0.8972 0.8968 0.8965
2341.000000 0.8961 0.8957 0.8953 0.8949 0.8945
2346.000000 0.8942 0.8940 0.8937 0.8933 0.8930
2351.000000 0.8928 0.8925 0.8922 0.8919 0.8916
2356.000000 0.8913 0.8912 0.8910 0.8909 0.8908
2361.000000 0.8907 0.8906 0.8905 0.8905 0.8905
2366.000000 0.8904 0.8903 0.8902 0.8902 0.8901
2371.000000 0.8900 0.8899 0.8899 0.8898 0.8897
2376.000000 0.8897 0.8897 0.8897 0.8898 0.8899
2381.000000 0.8900 0.8900 0.8900 0.8901 0.8902
2386.000000 0.8903 0.8903 0.8904 0.8905 0.8905
2391.000000 0.8906 0.8906 0.8907 0.8907 0.8908
2396.000000 0.8908 0.8909 0.8909 0.8909 0.8909
2401.000000 0.8909 0.8910 0.8910 0.8910 0.8910
2406.000000 0.8910 0.8911 0.8911 0.8911 0.8911
2411.000000 0.8912 0.8912 0.8912 0.8912 0.8912
2416.000000 0.8911 0.8911 0.8910 0.8909 0.8908
2421.000000 0.8906 0.8905 0.8904 0.8903 0.8901
2426.000000 0.8900 0.8899 0.8897 0.8896 0.8895
2431.000000 0.8894 0.8892 0.8891 0.8890 0.8888
2436.000000 0.8887 0.8885 0.8883 0.8882 0.8880
2441.000000 0.8878 0.8877 0.8875 0.8873 0.8871
2446.000000 0.8870 0.8868 0.8866 0.8865 0.8863
2451.000000 0.8860 0.8859 0.8857 0.8855 0.8854
2456.000000 0.8852 0.8850 0.8848 0.8846 0.8843
2461.000000 0.8841 0.8838 0.8836 0.8833 0.8831
2466.000000 0.8828 0.8826 0.8823 0.8821 0.8818
2471.000000 0.8816 0.8813 0.8811 0.8809 0.8806
2476.000000 0.8804 0.8801 0.8799 0.8796 0.8794
2481.000000 0.8791 0.8789 0.8787 0.8784 0.8782
2486.000000 0.8779 0.8777 0.8774 0.8772 0.8770
2491.000000 0.8767 0.8765 0.8762 0.8759 0.8757
2496.000000 0.8754 0.8752 0.8749 0.8747 0.8745
2501.000000 0.8742 0.8740 0.8737 0.8735 0.8733
2506.000000 0.8730 0.8728 0.8725 0.8722 0.8720
2511.000000 0.8717 0.8715 0.8712 0.8710 0.8708
2516.000000 0.8705 0.8703 0.8701 0.8698 0.8696
2521.000000 0.8694 0.8691 0.8689 0.8686 0.8684
2526.000000 0.8681 0.8679 0.8676 0.8674 0.8671
2531.000000 0.8669 0.8667 0.8664 0.8662 0.8660
2536.000000 0.8657 0.8655 0.8653 0.8650 0.8648
2541.000000 0.8646 0.8643 0.8641 0.8639 0.8636
2546.000000 0.8634 0.8631 0.8629 0.8626 0.8624
2551.000000 0.8622 0.8619 0.8616 0.8614 0.8611
2556.000000 0.8609 0.8607 0.8604 0.8602 0.8599
2561.000000 0.8597 0.8594 0.8592 0.8590 0.8587
2566.000000 0.8585 0.8583 0.8580 0.8577 0.8575
2571.000000 0.8573 0.8571 0.8568 0.8565 0.8563
2576.000000 0.8560 0.8558 0.8556 0.8554 0.8551
2581.000000 0.8549 0.8546 0.8544 0.8541 0.8539
2586.000000 0.8537 0.8535 0.8532 0.8531 0.8529
2591.000000 0.8527 0.8525 0.8523 0.8521 0.8519
2596.000000 0.8517 0.8515 0.8513 0.8511 0.8509
2601.000000 0.8507 0.8505 0.8503 0.8501 0.8499
2606.000000 0.8497 0.8495 0.8493 0.8492 0.8490
2611.000000 0.8488 0.8486 0.8484 0.8482 0.8480
2616.000000 0.8478 0.8476 0.8474 0.8472 0.8470
2621.000000 0.8468 0.8466 0.8464 0.8462 0.8460
2626.000000 0.8458 0.8456 0.8454 0.8452 0.8450
2631.000000 0.8448 0.8446 0.8444 0.8442 0.8440
2636.000000 0.8438 0.8436 0.8434 0.8432 0.8430
2641.000000 0.8428 0.8426 0.8424 0.8422 0.8420
2646.000000 0.8418 0.8416 0.8414 0.8412 0.8410
2651.000000 0.8409 0.8407 0.8404 0.8402 0.8401
2656.000000 0.8399 0.8397 0.8394 0.8392 0.8389
2661.000000 0.8386 0.8384 0.8381 0.8379 0.8376
2666.000000 0.8374 0.8371 0.8369 0.8366 0.8364
2671.000000 0.8361 0.8359 0.8356 0.8353 0.8351
2676.000000 0.8348 0.8346 0.8343 0.8341 0.8338
2681.000000 0.8336 0.8333 0.8331 0.8329 0.8326
2686.000000 0.8324 0.8321 0.8318 0.8315 0.8313
2691.000000 0.8311 0.8309 0.8306 0.8304 0.8303
2696.000000 0.8301 0.8299 0.8297 0.8295 0.8293
2701.000000 0.8291 0.8290 0.8288 0.8286 0.8285
2706.000000 0.8283 0.8281 0.8279 0.8278 0.8278
2711.000000 0.8278 0.8278 0.8278 0.8278 0.8277
2716.000000 0.8277 0.8277 0.8277 0.8277 0.8277
2721.000000 0.8276 0.8276 0.8276 0.8275 0.8275
2726.000000 0.8275 0.8275 0.8275 0.8275 0.8276
2731.000000 0.8276 0.8276 0.8276 0.8276 0.8276
2736.000000 0.8276 0.8276 0.8276 0.8276 0.8276
2741.000000 0.8276 0.8255 0.8228 0.8201 0.8179
2746.000000 0.8159 0.8139 0.8121 0.8103 0.8086
2751.000000 0.8069 0.8051 0.8033 0.8015 0.7998
2756.000000 0.7980 0.7963 0.7945 0.7927 0.7907
2761.000000 0.7885 0.7863 0.7841 0.7819 0.7797
2766.000000 0.7776 0.7755 0.7734 0.7713 0.7693
2771.000000 0.7673 0.7653 0.7632 0.7612 0.7591
2776.000000 0.7570 0.7549 0.7528 0.7506 0.7485
2781.000000 0.7464 0.7442 0.7421 0.7399 0.7348
2786.000000 0.7297 0.7246 0.7204 0.7162 0.7120
2791.000000 0.7087 0.7057 0.7027 0.6984 0.6936
2796.000000 0.6888 0.6838 0.6786 0.6734 0.6687
2801.000000 0.6646 0.6604 0.6536 0.6407 0.6279
2806.000000 0.6148 0.6003 0.5858 0.5714 0.5570
2811.000000 0.5426 0.5282 0.5138 0.4994 0.4850
2816.000000 0.4706 0.4562 0.4419 0.4275 0.4132
2821.000000 0.3989 0.3846 0.3703 0.3560 0.3417
2826.000000 0.3275 0.3133 0.2990 0.2848 0.2705
2831.000000 0.2563 0.2480 0.2418 0.2356 0.2303
2836.000000 0.2258 0.2213 0.2161 0.2093 0.2025
2841.000000 0.1959 0.1919 0.1878 0.1838 0.1799
2846.000000 0.1760 0.1721 0.1684 0.1647 0.1610
2851.000000 0.1570 0.1527 0.1483 0.1439 0.1396
2856.000000 0.1354 0.1311 0.1283 0.1257 0.1232
2861.000000 0.1207 0.1181 0.1156 0.1128 0.1094
2866.000000 0.1060 0.1025 0.0987 0.0949 0.0911
2871.000000 0.0881 0.0854 0.0827 0.0802 0.0781
2876.000000 0.0759 0.0738 0.0722 0.0706 0.0690
2881.000000 0.0674 0.0658 0.0642 0.0624 0.0605
2886.000000 0.0586 0.0566 0.0545 0.0523 0.0502
2891.000000 0.0486 0.0471 0.0456 0.0443 0.0432
2896.000000 0.0420 0.0409 0.0397 0.0386 0.0374
2901.000000 0.0366 0.0358 0.0350 0.0343 0.0336
2906.000000 0.0329 0.0322 0.0315 0.0308 0.0301
2911.000000 0.0296 0.0292 0.0288 0.0283 0.0279
2916.000000 0.0275 0.0271 0.0268 0.0266 0.0263
2921.000000 0.0261 0.0259 0.0257 0.0254 0.0253
2926.000000 0.0251 0.0249 0.0249 0.0249 0.0249
2931.000000 0.0250 0.0250 0.0251 0.0251 0.0253
2936.000000 0.0255 0.0256 0.0258 0.0260 0.0262
2941.000000 0.0264 0.0268 0.0272 0.0276 0.0331
2946.000000 0.0476 0.0622 0.0767 0.1052 0.1354
2951.000000 0.1657 0.1959 0.2261 0.2563 0.2866
2956.000000 0.3167 0.3468 0.3770 0.4041 0.4272
2961.000000 0.4503 0.4734 0.4808 0.4868 0.4928
2966.000000 0.4987 0.5047 0.5107 0.5166 0.5226
2971.000000 0.5285 0.5345 0.5404 0.5464 0.5523
2976.000000 0.5582 0.5641 0.5700 0.5759 0.5818
2981.000000 0.5877 0.5936 0.5995 0.6054 0.6113
2986.000000 0.6172 0.6231 0.6290 0.6348 0.6407
2991.000000 0.6445 0.6468 0.6491 0.6513 0.6527
2996.000000 0.6541 0.6554 0.6578 0.6618 0.6658
3001.000000 0.6698 0.6741 0.6784 0.6828 0.6867
3006.000000 0.6890 0.6913 0.6936 0.6952 0.6963
3011.000000 0.6975 0.6986 0.6997 0.7009 0.7020
3016.000000 0.7032 0.7044 0.7057 0.7069 0.7082
3021.000000 0.7096 0.7109 0.7122 0.7135 0.7148
3026.000000 0.7160 0.7173 0.7186 0.7199 0.7213
3031.000000 0.7225 0.7238 0.7251 0.7264 0.7276
3036.000000 0.7289 0.7301 0.7314 0.7326 0.7339
3041.000000 0.7351 0.7363 0.7375 0.7388 0.7400
3046.000000 0.7412 0.7424 0.7436 0.7449 0.7463
3051.000000 0.7478 0.7492 0.7507 0.7523 0.7538
3056.000000 0.7554 0.7569 0.7584 0.7600 0.7615
3061.000000 0.7628 0.7641 0.7654 0.7667 0.7680
3066.000000 0.7693 0.7706 0.7719 0.7733 0.7746
3071.000000 0.7759 0.7771 0.7783 0.7795 0.7807
3076.000000 0.7819 0.7830 0.7842 0.7854 0.7865
3081.000000 0.7877 0.7888 0.7899 0.7908 0.7917
3086.000000 0.7927 0.7935 0.7943 0.7951 0.7959
3091.000000 0.7967 0.7974 0.7982 0.7990 0.7998
3096.000000 0.8005 0.8013 0.8020 0.8026 0.8033
3101.000000 0.8039 0.8045 0.8051 0.8057 0.8063
3106.000000 0.8069 0.8075 0.8081 0.8088 0.8093
3111.000000 0.8098 0.8103 0.8108 0.8112 0.8117
3116.000000 0.8121 0.8126 0.8130 0.8134 0.8138
3121.000000 0.8142 0.8146 0.8150 0.8154 0.8159
3126.000000 0.8161 0.8164 0.8166 0.8169 0.8171
3131.000000 0.8173 0.8176 0.8178 0.8180 0.8182
3136.000000 0.8185 0.8187 0.8188 0.8190 0.8191
3141.000000 0.8193 0.8194 0.8195 0.8197 0.8198
3146.000000 0.8200 0.8201 0.8203 0.8204 0.8205
3151.000000 0.8207 0.8208 0.8209 0.8210 0.8212
3156.000000 0.8213 0.8214 0.8215 0.8215 0.8216
3161.000000 0.8217 0.8218 0.8218 0.8219 0.8220
3166.000000 0.8220 0.8221 0.8221 0.8222 0.8223
3171.000000 0.8223 0.8224 0.8225 0.8225 0.8226
3176.000000 0.8226 0.8227 0.8228 0.8228 0.8229
3181.000000 0.8230 0.8230 0.8230 0.8230 0.8231
3186.000000 0.8231 0.8231 0.8231 0.8231 0.8231
3191.000000 0.8231 0.8231 0.8232 0.8232 0.8232
3196.000000 0.8232 0.8233 0.8233 0.8233 0.8233
3201.000000 0.8233 0.8233 0.8233 0.8233 0.8233
3206.000000 0.8234 0.8234 0.8234 0.8234 0.8233
3211.000000 0.8233 0.8232 0.8232 0.8234 0.8231
3216.000000 0.8231 0.8231 0.8230 0.8230 0.8230
3221.000000 0.8230 0.8229 0.8229 0.8228 0.8228
3226.000000 0.8227 0.8227 0.8226 0.8226 0.8225
3231.000000 0.8225 0.8224 0.8223 0.8223 0.8222
3236.000000 0.8222 0.8221 0.8221 0.8220 0.8219
3241.000000 0.8219 0.8218 0.8217 0.8216 0.8216
3246.000000 0.8215 0.8214 0.8214 0.8213 0.8212
3251.000000 0.8211 0.8211 0.8211 0.8210 0.8210
3256.000000 0.8209 0.8208 0.8208 0.8207 0.8206
3261.000000 0.8205 0.8204 0.8202 0.8201 0.8200
3266.000000 0.8198 0.8197 0.8195 0.8194 0.8193
3271.000000 0.8191 0.8190 0.8188 0.8187 0.8186
3276.000000 0.8184 0.8183 0.8181 0.8180 0.8179
3281.000000 0.8177 0.8176 0.8174 0.8173 0.8172
3286.000000 0.8170 0.8169 0.8167 0.8165 0.8164
3291.000000 0.8162 0.8160 0.8159 0.8157 0.8156
3296.000000 0.8154 0.8152 0.8151 0.8149 0.8148
3301.000000 0.8146 0.8144 0.8143 0.8141 0.8140
3306.000000 0.8138 0.8136 0.8135 0.8133 0.8132
3311.000000 0.8130 0.8128 0.8126 0.8125 0.8123
3316.000000 0.8121 0.8119 0.8117 0.8115 0.8114
3321.000000 0.8112 0.8110 0.8109 0.8107 0.8106
3326.000000 0.8104 0.8102 0.8100 0.8098 0.8097
3331.000000 0.8095 0.8093 0.8091 0.8089 0.8088
3336.000000 0.8086 0.8084 0.8082 0.8080 0.8078
3341.000000 0.8076 0.8074 0.8072 0.8070 0.8068
3346.000000 0.8066 0.8064 0.8062 0.8060 0.8058
3351.000000 0.8056 0.8054 0.8052 0.8049 0.8047
3356.000000 0.8045 0.8043 0.8041 0.8039 0.8037
3361.000000 0.8034 0.8030 0.8027 0.8023 0.8020
3366.000000 0.8016 0.8013 0.8010 0.8006 0.8003
3371.000000 0.7999 0.7996 0.7992 0.7989 0.7985
3376.000000 0.7982 0.7978 0.7975 0.7971 0.7968
3381.000000 0.7964 0.7961 0.7957 0.7954 0.7950
3386.000000 0.7946 0.7942 0.7939 0.7935 0.7932
3391.000000 0.7928 0.7925 0.7920 0.7915 0.7910
3396.000000 0.7904 0.7899 0.7893 0.7887 0.7881
3401.000000 0.7875 0.7867 0.7859 0.7851 0.7843
3406.000000 0.7834 0.7825 0.7816 0.7807 0.7798
3411.000000 0.7789 0.7779 0.7770 0.7760 0.7750
3416.000000 0.7734 0.7715 0.7695 0.7676 0.7657
3421.000000 0.7620 0.7584 0.7548 0.7512 0.7476
3426.000000 0.7440 0.7404 0.7368 0.7331 0.7295
3431.000000 0.7259 0.7224 0.7188 0.7152 0.7116
3436.000000 0.7080 0.7045 0.7009 0.6973 0.6937
3441.000000 0.6901 0.6865 0.6829 0.6794 0.6758
3446.000000 0.6722 0.6687 0.6651 0.6616 0.6580
3451.000000 0.6545 0.6509 0.6474 0.6438 0.6403
3456.000000 0.6367 0.6331 0.6299 0.6277 0.6256
3461.000000 0.6235 0.6213 0.6201 0.6202 0.6203
3466.000000 0.6204 0.6205 0.6176 0.6265 0.6303
3471.000000 0.6341 0.6378 0.6416 0.6453 0.6491
3476.000000 0.6528 0.6566 0.6603 0.6640 0.6678
3481.000000 0.6715 0.6752 0.6790 0.6827 0.6864
3486.000000 0.6902 0.6939 0.6976 0.7013 0.7050
3491.000000 0.7087 0.7125 0.7162 0.7199 0.7236
3496.000000 0.7273 0.7310 0.7347 0.7384 0.7421
3501.000000 0.7458 0.7495 0.7531 0.7568 0.7605
3506.000000 0.7642 0.7675 0.7706 0.7736 0.7767
3511.000000 0.7798 0.7812 0.7821 0.7830 0.7839
3516.000000 0.7848 0.7854 0.7860 0.7866 0.7872
3521.000000 0.7878 0.7882 0.7886 0.7889 0.7893
3526.000000 0.7897 0.7901 0.7905 0.7909 0.7912
3531.000000 0.7916 0.7919 0.7923 0.7926 0.7929
3536.000000 0.7932 0.7935 0.7939 0.7942 0.7945
3541.000000 0.7948 0.7951 0.7953 0.7956 0.7959
3546.000000 0.7961 0.7964 0.7966 0.7968 0.7971
3551.000000 0.7973 0.7975 0.7977 0.7979 0.7981
3556.000000 0.7983 0.7984 0.7985 0.7986 0.7987
3561.000000 0.7988 0.7989 0.7991 0.7992 0.7993
3566.000000 0.7994 0.7995 0.7996 0.7997 0.7998
3571.000000 0.7999 0.8000 0.8001 0.8002 0.8003
3576.000000 0.8004 0.8005 0.8006 0.8006 0.8007
3581.000000 0.8008 0.8009 0.8010 0.8010 0.8011
3586.000000 0.8012 0.8013 0.8013 0.8014 0.8015
3591.000000 0.8016 0.8017 0.8017 0.8018 0.8019
3596.000000 0.8020 0.8020 0.8021 0.8022 0.8022
3601.000000 0.8023 0.8023 0.8024 0.8024 0.8025
3606.000000 0.8025 0.8025 0.8026 0.8026 0.8026
3611.000000 0.8027 0.8027 0.8028 0.8028 0.8028
3616.000000 0.8029 0.8029 0.8029 0.8029 0.8029
3621.000000 0.8029 0.8029 0.8029 0.8028 0.8028
3626.000000 0.8028 0.8028 0.8028 0.8048 0.8028
3631.000000 0.8028 0.8028 0.8028 0.8027 0.8027
3636.000000 0.8027 0.8027 0.8027 0.8027 0.8026
3641.000000 0.8026 0.8026 0.8026 0.8026 0.8025
3646.000000 0.8025 0.8025 0.8025 0.8025 0.8025
3651.000000 0.8025 0.8025 0.8025 0.8025 0.8024
3656.000000 0.8024 0.8024 0.8024 0.8024 0.8024
3661.000000 0.8023 0.8023 0.8023 0.8022 0.8022
3666.000000 0.8021 0.8021 0.8020 0.8019 0.8018
3671.000000 0.8018 0.8017 0.8016 0.8015 0.8015
3676.000000 0.8014 0.8013 0.8012 0.8012 0.8011
3681.000000 0.8010 0.8009 0.8009 0.8008 0.8008
3686.000000 0.8007 0.8007 0.8006 0.8005 0.8005
3691.000000 0.8004 0.8003 0.8002 0.8002 0.8001
3696.000000 0.8000 0.7999 0.7999 0.7998 0.7997
3701.000000 0.7996 0.7995 0.7994 0.7993 0.7992
3706.000000 0.7991 0.7991 0.7990 0.7989 0.7988
3711.000000 0.7987 0.7986 0.7986 0.7985 0.7984
3716.000000 0.7983 0.7982 0.7982 0.7981 0.7980
3721.000000 0.7979 0.7978 0.7977 0.7976 0.7975
3726.000000 0.7974 0.7973 0.7973 0.7972 0.7971
3731.000000 0.7970 0.7969 0.7968 0.7968 0.7967
3736.000000 0.7966 0.7965 0.7965 0.7964 0.7963
3741.000000 0.7963 0.7962 0.7961 0.7960 0.7960
3746.000000 0.7959 0.7958 0.7958 0.7957 0.7957
3751.000000 0.7956 0.7955 0.7955 0.7954 0.7954
3756.000000 0.7953 0.7952 0.7951 0.7951 0.7950
3761.000000 0.7949 0.7949 0.7948 0.7947 0.7947
3766.000000 0.7946 0.7945 0.7944 0.7944 0.7943
3771.000000 0.7942 0.7942 0.7941 0.7940 0.7940
3776.000000 0.7939 0.7938 0.7937 0.7937 0.7936
3781.000000 0.7935 0.7935 0.7934 0.7933 0.7933
3786.000000 0.7932 0.7931 0.7930 0.7930 0.7929
3791.000000 0.7928 0.7928 0.7927 0.7926 0.7925
3796.000000 0.7924 0.7924 0.7923 0.7922 0.7921
3801.000000 0.7920 0.7919 0.7918 0.7918 0.7917
3806.000000 0.7916 0.7915 0.7914 0.7913 0.7912
3811.000000 0.7911 0.7911 0.7910 0.7909 0.7908
3816.000000 0.7907 0.7906 0.7905 0.7905 0.7904
3821.000000 0.7903 0.7902 0.7901 0.7900 0.7899
3826.000000 0.7899 0.7898 0.7897 0.7896 0.7895
3831.000000 0.7894 0.7894 0.7893 0.7892 0.7891
3836.000000 0.7890 0.7889 0.7888 0.7888 0.7887
3841.000000 0.7886 0.7885 0.7884 0.7883 0.7882
3846.000000 0.7882 0.7881 0.7880 0.7879 0.7878
3851.000000 0.7877 0.7877 0.7876 0.7875 0.7874
3856.000000 0.7873 0.7872 0.7872 0.7871 0.7870
3861.000000 0.7869 0.7868 0.7867 0.7866 0.7866
3866.000000 0.7865 0.7864 0.7863 0.7862 0.7861
3871.000000 0.7861 0.7860 0.7859 0.7858 0.7857
3876.000000 0.7856 0.7856 0.7855 0.7854 0.7853
3881.000000 0.7852 0.7851 0.7851 0.7850 0.7849
3886.000000 0.7848 0.7847 0.7847 0.7846 0.7845
3891.000000 0.7844 0.7843 0.7842 0.7842 0.7840
3896.000000 0.7839 0.7838 0.7837 0.7836 0.7835
3901.000000 0.7834 0.7832 0.7831 0.7830 0.7829
3906.000000 0.7828 0.7827 0.7825 0.7824 0.7823
3911.000000 0.7822 0.7821 0.7820 0.7819 0.7817
3916.000000 0.7816 0.7815 0.7814 0.7813 0.7812
3921.000000 0.7811 0.7810 0.7808 0.7807 0.7806
3926.000000 0.7805 0.7804 0.7803 0.7802 0.7800
3931.000000 0.7799 0.7798 0.7797 0.7796 0.7795
3936.000000 0.7794 0.7793 0.7791 0.7790 0.7789
3941.000000 0.7788 0.7787 0.7786 0.7785 0.7783
3946.000000 0.7782 0.7781 0.7780 0.7779 0.7778
3951.000000 0.7777 0.7776 0.7775 0.7773 0.7772
3956.000000 0.7771 0.7770 0.7769 0.7768 0.7767
3961.000000 0.7766 0.7764 0.7763 0.7762 0.7761
3966.000000 0.7760 0.7759 0.7758 0.7757 0.7756
3971.000000 0.7754 0.7753 0.7752 0.7751 0.7750
3976.000000 0.7748 0.7747 0.7745 0.7743 0.7742
3981.000000 0.7740 0.7739 0.7737 0.7736 0.7734
3986.000000 0.7732 0.7731 0.7729 0.7728 0.7726
3991.000000 0.7725 0.7723 0.7721 0.7720 0.7718
3996.000000 0.7717 0.7715 0.7714 0.7712 0.7711
##END=
