##TITLE=SULFONYL-O,M'-DIBENZOIC ACID, DIPHENACYL ESTER
##JCAMP-DX=4.24
##DATA TYPE=INFRARED SPECTRUM
##CLASS=COBLENTZ
##ORIGIN=TENNESSEE EASTMAN COMPANY, RESEARCH LABORATORIES
##OWNER=COBLENTZ SOCIETY
Collection (C) 2018 copyright by the U.S. Secretary of Commerce
on behalf of the United States of America. All rights reserved.
##DATE=Not specified, most likely prior to 1970
##MOLFORM=C30 H22 O8 S
##SOURCE REFERENCE=COBLENTZ NO. 44
##$NIST ID=B6000044
##$NIST SOURCE=COBLENTZ
##$NIST IMAGE=cob44
##SPECTROMETER/DATA SYSTEM=Not specified, most likely a prism, grating, or hybrid spectrometer.
##STATE=SOLID (NUJOL MULL)
##SAMPLING PROCEDURE=TRANSMISSION
##RESOLUTION=4
##DATA PROCESSING=DIGITIZED BY NIST FROM HARD COPY
##XUNITS=MICROMETERS
##YUNITS=TRANSMITTANCE
##XFACTOR=1.000000
##YFACTOR=1
##DELTAX=000.006468
##FIRSTX=2.023
##LASTX=15.995
##FIRSTY=0.564
##MAXX=15.995
##MINX=2.023
##MAXY=0.986
##MINY=0.068
##NPOINTS=2161
##XYDATA=(X++(Y..Y))
2.023000 0.5640 0.5640 0.5640 0.5640 0.5640
2.055356 0.5640 0.5650 0.5650 0.5650 0.5650
2.088000 0.5650 0.5650 0.5650 0.5650 0.5670
2.120356 0.5670 0.5670 0.5670 0.5670 0.5690
2.153000 0.5690 0.5690 0.5690 0.5690 0.5700
2.185356 0.5700 0.5700 0.5720 0.5720 0.5750
2.217000 0.5750 0.5750 0.5750 0.5750 0.5750
2.249356 0.5750 0.5750 0.5750 0.5750 0.5750
2.282000 0.5750 0.5750 0.5750 0.5750 0.5750
2.314356 0.5750 0.5750 0.5750 0.5750 0.5750
2.347000 0.5750 0.5750 0.5770 0.5770 0.5780
2.379356 0.5780 0.5800 0.5830 0.5850 0.5880
2.411000 0.5910 0.5930 0.5960 0.5980 0.5980
2.443356 0.6000 0.6000 0.6010 0.6010 0.6010
2.476000 0.6030 0.6030 0.6080 0.6090 0.6110
2.508356 0.6130 0.6160 0.6170 0.6190 0.6210
2.541000 0.6220 0.6240 0.6260 0.6270 0.6290
2.573356 0.6300 0.6320 0.6340 0.6340 0.6350
2.605000 0.6350 0.6370 0.6370 0.6390 0.6400
2.637356 0.6400 0.6420 0.6430 0.6470 0.6480
2.670000 0.6500 0.6500 0.6520 0.6530 0.6550
2.702356 0.6550 0.6550 0.6560 0.6580 0.6580
2.735000 0.6600 0.6600 0.6630 0.6630 0.6630
2.767356 0.6650 0.6650 0.6650 0.6660 0.6660
2.799000 0.6680 0.6690 0.6690 0.6690 0.6690
2.831356 0.6690 0.6710 0.6710 0.6730 0.6730
2.864000 0.6730 0.6740 0.6730 0.6730 0.6730
2.896356 0.6730 0.6730 0.6730 0.6730 0.6730
2.929000 0.6730 0.6740 0.6740 0.6780 0.6790
2.961356 0.6790 0.6790 0.6790 0.6790 0.6790
2.994000 0.6790 0.6810 0.6810 0.6810 0.6820
3.026356 0.6820 0.6820 0.6840 0.6840 0.6840
3.058000 0.6840 0.6840 0.6840 0.6860 0.6860
3.090356 0.6860 0.6870 0.6870 0.6870 0.6870
3.123000 0.6870 0.6870 0.6870 0.6870 0.6870
3.155356 0.6870 0.6860 0.6860 0.6860 0.6860
3.188000 0.6840 0.6840 0.6820 0.6820 0.6810
3.220356 0.6790 0.6780 0.6710 0.6650 0.6600
3.252000 0.6530 0.6520 0.6480 0.6430 0.6400
3.284356 0.6370 0.6270 0.6210 0.6130 0.5980
3.317000 0.5650 0.5280 0.5000 0.4480 0.4060
3.349356 0.3600 0.3070 0.2270 0.1960 0.1620
3.382000 0.1300 0.1120 0.1040 0.0860 0.0780
3.414356 0.0740 0.0730 0.0680 0.0680 0.0680
3.446000 0.0680 0.0680 0.0680 0.0680 0.0690
3.478356 0.0690 0.0690 0.0710 0.0870 0.1330
3.511000 0.2030 0.2740 0.3640 0.4430 0.5150
3.543356 0.6080 0.6320 0.6820 0.7150 0.7300
3.576000 0.7360 0.7380 0.7410 0.7510 0.7600
3.608356 0.7690 0.7730 0.7780 0.7800 0.7800
3.640000 0.7800 0.7800 0.7800 0.7800 0.7800
3.672356 0.7800 0.7780 0.7780 0.7780 0.7780
3.705000 0.7780 0.7780 0.7780 0.7780 0.7780
3.737356 0.7780 0.7800 0.7800 0.7800 0.7800
3.770000 0.7820 0.7800 0.7800 0.7800 0.7800
3.802356 0.7800 0.7830 0.7830 0.7850 0.7880
3.834000 0.7880 0.7900 0.7900 0.7910 0.7910
3.866356 0.7930 0.7950 0.7980 0.7980 0.7980
3.899000 0.8000 0.8010 0.8030 0.8090 0.8130
3.931356 0.8160 0.8190 0.8220 0.8270 0.8300
3.964000 0.8340 0.8340 0.8350 0.8350 0.8370
3.996356 0.8390 0.8400 0.8400 0.8420 0.8420
4.028000 0.8430 0.8420 0.8420 0.8430 0.8430
4.060356 0.8430 0.8430 0.8430 0.8450 0.8450
4.093000 0.8450 0.8450 0.8470 0.8480 0.8480
4.125356 0.8480 0.8480 0.8480 0.8480 0.8500
4.158000 0.8520 0.8520 0.8500 0.8500 0.8500
4.190356 0.8520 0.8520 0.8520 0.8520 0.8530
4.223000 0.8560 0.8600 0.8630 0.8650 0.8660
4.255356 0.8680 0.8680 0.8690 0.8690 0.8710
4.287000 0.8710 0.8730 0.8730 0.8740 0.8760
4.319356 0.8780 0.8780 0.8780 0.8780 0.8780
4.352000 0.8780 0.8780 0.8780 0.8780 0.8780
4.384356 0.8780 0.8790 0.8810 0.8810 0.8790
4.417000 0.8790 0.8810 0.8810 0.8810 0.8820
4.449356 0.8820 0.8840 0.8860 0.8870 0.8890
4.481000 0.8910 0.8940 0.8970 0.8990 0.8990
4.513356 0.8990 0.8990 0.8990 0.8990 0.9000
4.546000 0.9000 0.9000 0.9000 0.9020 0.9020
4.578356 0.9020 0.9020 0.9050 0.9070 0.9080
4.611000 0.9080 0.9080 0.9100 0.9100 0.9100
4.643356 0.9100 0.9120 0.9130 0.9130 0.9150
4.675000 0.9150 0.9170 0.9180 0.9180 0.9180
4.707356 0.9200 0.9200 0.9200 0.9200 0.9210
4.740000 0.9210 0.9210 0.9250 0.9250 0.9260
4.772356 0.9280 0.9300 0.9300 0.9330 0.9330
4.805000 0.9340 0.9360 0.9360 0.9360 0.9360
4.837356 0.9380 0.9390 0.9390 0.9390 0.9390
4.869000 0.9390 0.9410 0.9410 0.9410 0.9410
4.901356 0.9410 0.9410 0.9410 0.9430 0.9430
4.934000 0.9430 0.9430 0.9430 0.9430 0.9440
4.966356 0.9440 0.9440 0.9440 0.9440 0.9440
4.999000 0.9440 0.9440 0.9440 0.9440 0.9440
5.031356 0.9430 0.9430 0.9440 0.9440 0.9440
5.063000 0.9440 0.9440 0.9440 0.9440 0.9430
5.095356 0.9440 0.9440 0.9440 0.9460 0.9460
5.128000 0.9470 0.9490 0.9510 0.9510 0.9510
5.160356 0.9510 0.9510 0.9510 0.9520 0.9520
5.193000 0.9520 0.9560 0.9560 0.9520 0.9520
5.225356 0.9540 0.9560 0.9560 0.9590 0.9590
5.257000 0.9590 0.9590 0.9600 0.9600 0.9600
5.289356 0.9600 0.9600 0.9600 0.9620 0.9620
5.322000 0.9640 0.9650 0.9690 0.9720 0.9730
5.354356 0.9750 0.9750 0.9750 0.9770 0.9770
5.387000 0.9770 0.9780 0.9780 0.9770 0.9770
5.419356 0.9770 0.9770 0.9780 0.9780 0.9780
5.451000 0.9780 0.9780 0.9780 0.9780 0.9780
5.483356 0.9780 0.9780 0.9780 0.9780 0.9800
5.516000 0.9820 0.9830 0.9830 0.9830 0.9830
5.548356 0.9850 0.9850 0.9850 0.9860 0.9860
5.581000 0.9860 0.9860 0.9860 0.9860 0.9860
5.613356 0.9860 0.9860 0.9860 0.9860 0.9850
5.646000 0.9830 0.9800 0.9720 0.9650 0.9540
5.678356 0.9490 0.9360 0.9200 0.9000 0.8630
5.710000 0.8300 0.7850 0.7020 0.6130 0.5910
5.742356 0.5150 0.4630 0.4090 0.3410 0.2990
5.775000 0.2810 0.2810 0.3820 0.4560 0.5230
5.807356 0.5960 0.6500 0.7040 0.7280 0.7460
5.840000 0.7460 0.7200 0.6630 0.6340 0.5800
5.872356 0.5300 0.4650 0.4040 0.3730 0.3230
5.904000 0.2710 0.2630 0.2630 0.3170 0.4010
5.936356 0.4350 0.5180 0.5700 0.6080 0.6340
5.969000 0.6530 0.6690 0.6860 0.7040 0.7260
6.001356 0.7590 0.7730 0.7830 0.7980 0.8010
6.034000 0.8110 0.8160 0.8190 0.8260 0.8320
6.066356 0.8400 0.8480 0.8520 0.8530 0.8610
6.098000 0.8650 0.8690 0.8780 0.8860 0.8910
6.130356 0.8920 0.8990 0.9020 0.9020 0.9080
6.163000 0.9120 0.9130 0.9130 0.9150 0.9170
6.195356 0.9180 0.9170 0.9170 0.9170 0.9170
6.228000 0.9120 0.8820 0.8500 0.7880 0.6920
6.260356 0.6290 0.6270 0.6290 0.6340 0.6890
6.292000 0.7260 0.7620 0.7750 0.7830 0.7860
6.324356 0.7980 0.8010 0.8080 0.8140 0.8220
6.357000 0.8350 0.8480 0.8560 0.8690 0.8810
6.389356 0.8870 0.9000 0.9070 0.9130 0.9180
6.422000 0.9230 0.9300 0.9330 0.9390 0.9430
6.454356 0.9440 0.9440 0.9440 0.9460 0.9460
6.486000 0.9460 0.9460 0.9470 0.9470 0.9470
6.518356 0.9490 0.9490 0.9490 0.9510 0.9510
6.551000 0.9510 0.9510 0.9510 0.9510 0.9510
6.583356 0.9510 0.9510 0.9510 0.9510 0.9510
6.616000 0.9490 0.9490 0.9460 0.9440 0.9430
6.648356 0.9360 0.9330 0.9310 0.9250 0.9210
6.680000 0.9120 0.9050 0.9000 0.8890 0.8690
6.712356 0.8470 0.8220 0.7950 0.7670 0.7360
6.745000 0.7150 0.6810 0.6530 0.6240 0.5910
6.777356 0.5440 0.4810 0.3910 0.3380 0.3080
6.810000 0.2890 0.2840 0.2820 0.2790 0.2760
6.842356 0.2740 0.2730 0.2710 0.2680 0.2740
6.875000 0.2970 0.3080 0.3560 0.3980 0.4290
6.907356 0.4520 0.4820 0.4950 0.5170 0.5460
6.939000 0.5730 0.6090 0.6320 0.6420 0.6370
6.971356 0.6370 0.6340 0.6320 0.6240 0.6160
7.004000 0.6140 0.6010 0.6010 0.6130 0.6210
7.036356 0.6370 0.6560 0.6860 0.7340 0.7570
7.069000 0.7860 0.8000 0.8140 0.8270 0.8400
7.101356 0.8480 0.8480 0.8520 0.8560 0.8580
7.133000 0.8600 0.8600 0.8610 0.8610 0.8550
7.165356 0.8480 0.8370 0.8270 0.8010 0.7470
7.198000 0.7070 0.6610 0.5980 0.5700 0.5340
7.230356 0.4790 0.4240 0.3980 0.3620 0.3490
7.263000 0.3410 0.3340 0.3440 0.3780 0.4010
7.295356 0.4260 0.4420 0.4530 0.4580 0.4610
7.327000 0.4630 0.4710 0.5000 0.5260 0.5960
7.359356 0.6480 0.6910 0.7150 0.7360 0.7520
7.392000 0.7650 0.7780 0.7880 0.7950 0.8000
7.424356 0.8010 0.8030 0.8060 0.8090 0.8090
7.457000 0.8110 0.8110 0.8090 0.8040 0.8010
7.489356 0.8010 0.7980 0.7830 0.7770 0.7690
7.521000 0.7600 0.7490 0.7280 0.7080 0.6790
7.553356 0.6560 0.6010 0.5570 0.5260 0.4350
7.586000 0.3620 0.2970 0.2860 0.2810 0.2810
7.618356 0.2840 0.3150 0.3620 0.3620 0.3570
7.651000 0.3490 0.3410 0.3360 0.3300 0.3280
7.683356 0.3230 0.3260 0.3300 0.3360 0.3620
7.715000 0.4010 0.4220 0.4560 0.4730 0.4820
7.747356 0.4780 0.4680 0.4600 0.4080 0.3560
7.780000 0.3540 0.3330 0.3120 0.2860 0.2600
7.812356 0.2340 0.2320 0.2340 0.2710 0.2920
7.845000 0.3510 0.3730 0.3980 0.4130 0.4260
7.877356 0.4260 0.4110 0.4030 0.3950 0.3860
7.909000 0.3850 0.3880 0.4130 0.4350 0.4580
7.941356 0.4810 0.5020 0.5230 0.5460 0.5540
7.974000 0.5620 0.5650 0.5700 0.5720 0.5770
8.006356 0.5830 0.5830 0.5860 0.5880 0.5880
8.039000 0.5860 0.5750 0.5620 0.5340 0.4740
8.071356 0.4270 0.4010 0.3570 0.3260 0.2990
8.103000 0.2810 0.2740 0.2690 0.2690 0.2810
8.135356 0.2940 0.3070 0.3390 0.3670 0.3980
8.168000 0.4340 0.4420 0.4870 0.5340 0.5570
8.200356 0.5900 0.6030 0.6260 0.6320 0.6450
8.233000 0.6600 0.6690 0.6810 0.6970 0.7070
8.265356 0.7180 0.7340 0.7470 0.7540 0.7620
8.298000 0.7750 0.7800 0.7980 0.8000 0.8000
8.330356 0.8010 0.8040 0.8140 0.8190 0.8210
8.362000 0.8240 0.8260 0.8260 0.8260 0.8240
8.394356 0.8240 0.8240 0.8220 0.8190 0.8130
8.427000 0.8060 0.8010 0.8000 0.7980 0.7980
8.459356 0.7900 0.7850 0.7850 0.7880 0.7880
8.492000 0.7880 0.7880 0.7880 0.7880 0.7880
8.524356 0.7880 0.7880 0.7860 0.7850 0.7800
8.556000 0.7750 0.7700 0.7460 0.7340 0.7180
8.588356 0.6860 0.6480 0.6080 0.5750 0.5520
8.621000 0.5050 0.4630 0.4240 0.3960 0.3780
8.653356 0.3590 0.3590 0.3670 0.3820 0.4010
8.686000 0.4080 0.4130 0.4170 0.4040 0.4000
8.718356 0.3830 0.3620 0.3380 0.3330 0.3260
8.750000 0.3260 0.3310 0.3310 0.3380 0.3460
8.782356 0.3490 0.3490 0.3460 0.3460 0.3430
8.815000 0.3410 0.3410 0.3430 0.3440 0.3510
8.847356 0.3690 0.4000 0.4270 0.4390 0.4560
8.880000 0.4650 0.4730 0.4730 0.4680 0.4610
8.912356 0.4550 0.4480 0.4370 0.4370 0.4400
8.944000 0.4420 0.4480 0.4550 0.4650 0.4920
8.976356 0.5100 0.5260 0.5460 0.5520 0.5570
9.009000 0.5620 0.5650 0.5700 0.5720 0.5770
9.041356 0.5830 0.6000 0.6010 0.6110 0.6210
9.074000 0.6270 0.6390 0.6470 0.6520 0.6610
9.106356 0.6660 0.6710 0.6780 0.6840 0.6870
9.138000 0.6910 0.6910 0.6910 0.6910 0.6920
9.170356 0.6920 0.6910 0.6910 0.6860 0.6820
9.203000 0.6730 0.6650 0.6480 0.6340 0.6130
9.235356 0.6010 0.5960 0.5960 0.6000 0.6000
9.268000 0.6160 0.6420 0.6560 0.6790 0.6940
9.300356 0.7000 0.7170 0.7260 0.7360 0.7490
9.332000 0.7570 0.7650 0.7750 0.7800 0.7860
9.364356 0.7900 0.7900 0.7900 0.7900 0.7900
9.397000 0.7900 0.7900 0.7930 0.7930 0.7950
9.429356 0.7980 0.8040 0.8090 0.8140 0.8210
9.462000 0.8300 0.8370 0.8430 0.8500 0.8530
9.494356 0.8560 0.8580 0.8600 0.8610 0.8630
9.527000 0.8650 0.8660 0.8680 0.8690 0.8690
9.559356 0.8710 0.8710 0.8710 0.8710 0.8710
9.591000 0.8680 0.8650 0.8600 0.8520 0.8480
9.623356 0.8430 0.8430 0.8430 0.8430 0.8430
9.656000 0.8430 0.8430 0.8450 0.8450 0.8450
9.688356 0.8430 0.8400 0.8370 0.8340 0.8300
9.721000 0.8290 0.8270 0.8270 0.8270 0.8270
9.753356 0.8270 0.8260 0.8190 0.8140 0.8080
9.785000 0.8010 0.7900 0.7930 0.7930 0.7960
9.817356 0.8000 0.8040 0.8160 0.8290 0.8390
9.850000 0.8420 0.8450 0.8450 0.8450 0.8450
9.882356 0.8450 0.8430 0.8400 0.8340 0.8220
9.915000 0.8080 0.7960 0.7600 0.7390 0.7300
9.947356 0.7200 0.7200 0.7210 0.7260 0.7470
9.979000 0.7590 0.7780 0.7930 0.7980 0.8030
10.011356 0.8080 0.8140 0.8210 0.8240 0.8290
10.044000 0.8350 0.8420 0.8430 0.8480 0.8500
10.076356 0.8520 0.8530 0.8580 0.8600 0.8630
10.109000 0.8650 0.8660 0.8660 0.8680 0.8680
10.141356 0.8680 0.8680 0.8680 0.8680 0.8680
10.173000 0.8680 0.8680 0.8690 0.8690 0.8690
10.205356 0.8690 0.8680 0.8680 0.8680 0.8660
10.238000 0.8660 0.8610 0.8550 0.8520 0.8480
10.270356 0.8480 0.8430 0.8400 0.8320 0.8220
10.303000 0.8170 0.7980 0.7730 0.7560 0.7490
10.335356 0.7300 0.7170 0.7000 0.6910 0.6820
10.367000 0.6680 0.6450 0.6220 0.5960 0.5750
10.399356 0.5570 0.5470 0.5380 0.5300 0.5210
10.432000 0.5200 0.5170 0.5170 0.5200 0.5210
10.464356 0.5230 0.5360 0.5620 0.5930 0.6130
10.497000 0.6320 0.6550 0.6690 0.6820 0.6990
10.529356 0.7080 0.7260 0.7410 0.7490 0.7570
10.561000 0.7650 0.7770 0.7860 0.7960 0.8010
10.593356 0.8060 0.8130 0.8160 0.8220 0.8260
10.626000 0.8300 0.8340 0.8350 0.8400 0.8420
10.658356 0.8430 0.8450 0.8500 0.8500 0.8500
10.691000 0.8500 0.8520 0.8520 0.8530 0.8530
10.723356 0.8530 0.8530 0.8530 0.8560 0.8600
10.755000 0.8610 0.8610 0.8650 0.8690 0.8740
10.787356 0.8790 0.8870 0.8940 0.8950 0.8990
10.820000 0.9000 0.9020 0.9040 0.9080 0.9100
10.852356 0.9120 0.9130 0.9150 0.9170 0.9170
10.885000 0.9180 0.9200 0.9200 0.9200 0.9200
10.917356 0.9200 0.9200 0.9200 0.9200 0.9200
10.950000 0.9200 0.9200 0.9210 0.9230 0.9280
10.982356 0.9310 0.9390 0.9410 0.9460 0.9470
11.014000 0.9490 0.9510 0.9520 0.9520 0.9540
11.046356 0.9540 0.9560 0.9570 0.9590 0.9600
11.079000 0.9600 0.9620 0.9640 0.9640 0.9640
11.111356 0.9650 0.9650 0.9670 0.9690 0.9690
11.144000 0.9690 0.9690 0.9700 0.9700 0.9700
11.176356 0.9700 0.9700 0.9700 0.9700 0.9700
11.208000 0.9700 0.9700 0.9690 0.9690 0.9690
11.240356 0.9690 0.9690 0.9690 0.9690 0.9690
11.273000 0.9690 0.9690 0.9700 0.9700 0.9700
11.305356 0.9700 0.9700 0.9720 0.9730 0.9750
11.338000 0.9770 0.9770 0.9780 0.9780 0.9800
11.370356 0.9800 0.9800 0.9800 0.9780 0.9780
11.402000 0.9800 0.9800 0.9800 0.9800 0.9800
11.434356 0.9800 0.9800 0.9820 0.9800 0.9800
11.467000 0.9800 0.9800 0.9800 0.9800 0.9800
11.499356 0.9800 0.9800 0.9820 0.9820 0.9820
11.532000 0.9820 0.9820 0.9820 0.9820 0.9820
11.564356 0.9820 0.9820 0.9820 0.9820 0.9820
11.596000 0.9800 0.9780 0.9770 0.9750 0.9700
11.628356 0.9650 0.9600 0.9490 0.9410 0.9330
11.661000 0.9230 0.9120 0.9000 0.8860 0.8550
11.693356 0.8470 0.8430 0.8420 0.8420 0.8420
11.726000 0.8420 0.8420 0.8430 0.8450 0.8520
11.758356 0.8550 0.8600 0.8690 0.8780 0.8840
11.790000 0.8920 0.8990 0.9070 0.9150 0.9230
11.822356 0.9300 0.9340 0.9390 0.9430 0.9440
11.855000 0.9490 0.9510 0.9520 0.9520 0.9540
11.887356 0.9540 0.9540 0.9540 0.9540 0.9560
11.920000 0.9570 0.9570 0.9570 0.9590 0.9590
11.952356 0.9600 0.9620 0.9620 0.9620 0.9620
11.984000 0.9640 0.9640 0.9650 0.9650 0.9650
12.016356 0.9650 0.9650 0.9650 0.9650 0.9650
12.049000 0.9650 0.9650 0.9650 0.9650 0.9650
12.081356 0.9650 0.9670 0.9650 0.9650 0.9650
12.114000 0.9670 0.9670 0.9670 0.9670 0.9670
12.146356 0.9650 0.9650 0.9620 0.9520 0.9490
12.179000 0.9380 0.9260 0.9150 0.8940 0.8860
12.211356 0.8790 0.8600 0.8550 0.8450 0.8430
12.243000 0.8430 0.8430 0.8430 0.8430 0.8430
12.275356 0.8430 0.8430 0.8430 0.8430 0.8430
12.308000 0.8430 0.8430 0.8430 0.8430 0.8430
12.340356 0.8450 0.8450 0.8450 0.8480 0.8500
12.373000 0.8520 0.8550 0.8610 0.8710 0.8820
12.405356 0.8920 0.9000 0.9040 0.9080 0.9150
12.437000 0.9250 0.9260 0.9330 0.9410 0.9440
12.469356 0.9460 0.9470 0.9510 0.9510 0.9520
12.502000 0.9520 0.9520 0.9540 0.9540 0.9540
12.534356 0.9540 0.9540 0.9540 0.9540 0.9540
12.567000 0.9540 0.9540 0.9540 0.9540 0.9520
12.599356 0.9490 0.9440 0.9390 0.9310 0.9180
12.631000 0.9000 0.8810 0.8550 0.8340 0.8080
12.663356 0.7830 0.7820 0.7640 0.7690 0.7700
12.696000 0.7800 0.7900 0.8030 0.8140 0.8400
12.728356 0.8560 0.8650 0.8730 0.8810 0.8920
12.761000 0.9020 0.9080 0.9130 0.9200 0.9230
12.793356 0.9300 0.9340 0.9360 0.9360 0.9360
12.825000 0.9360 0.9360 0.9340 0.9340 0.9310
12.857356 0.9230 0.9180 0.9050 0.8970 0.8860
12.890000 0.8550 0.8370 0.8140 0.8000 0.7780
12.922356 0.7600 0.7520 0.7330 0.7210 0.7120
12.955000 0.7100 0.7050 0.7050 0.7040 0.7020
12.987356 0.6940 0.6870 0.6790 0.6660 0.6480
13.019000 0.6340 0.6140 0.5960 0.5730 0.5640
13.051356 0.5440 0.5410 0.5390 0.5360 0.5390
13.084000 0.5410 0.5490 0.5690 0.5820 0.6000
13.116356 0.6140 0.6190 0.6220 0.6270 0.6270
13.149000 0.6170 0.6090 0.6000 0.5830 0.5690
13.181356 0.5540 0.5430 0.5280 0.5200 0.5150
13.213000 0.5130 0.5130 0.5130 0.5130 0.5130
13.245356 0.5120 0.5100 0.5100 0.5100 0.5120
13.278000 0.5120 0.5150 0.5180 0.5300 0.5460
13.310356 0.5720 0.6010 0.6140 0.6260 0.6350
13.343000 0.6420 0.6480 0.6500 0.6500 0.6500
13.375356 0.6500 0.6500 0.6500 0.6480 0.6480
13.408000 0.6480 0.6480 0.6480 0.6500 0.6500
13.440356 0.6560 0.6650 0.6690 0.6840 0.6990
13.472000 0.7120 0.7250 0.7340 0.7390 0.7520
13.504356 0.7600 0.7700 0.7780 0.7850 0.7910
13.537000 0.7950 0.8030 0.8030 0.8060 0.8080
13.569356 0.8110 0.8130 0.8130 0.8140 0.8140
13.602000 0.8160 0.8170 0.8170 0.8170 0.8170
13.634356 0.8170 0.8170 0.8170 0.8170 0.8170
13.666000 0.8170 0.8170 0.8170 0.8140 0.8130
13.698356 0.8110 0.8060 0.8000 0.7850 0.7770
13.731000 0.7600 0.7520 0.7340 0.7180 0.7050
13.763356 0.6840 0.6610 0.6480 0.6340 0.6110
13.796000 0.6010 0.5900 0.5830 0.5820 0.5820
13.828356 0.5850 0.5850 0.5860 0.5980 0.6010
13.860000 0.6090 0.6220 0.6400 0.6600 0.6790
13.892356 0.6970 0.7040 0.7100 0.7210 0.7330
13.925000 0.7430 0.7490 0.7600 0.7640 0.7720
13.957356 0.7770 0.7850 0.7860 0.7880 0.7900
13.990000 0.7910 0.7930 0.7930 0.7930 0.7930
14.022356 0.7910 0.7900 0.7880 0.7850 0.7770
14.054000 0.7650 0.7570 0.7470 0.7330 0.7230
14.086356 0.7150 0.7000 0.6910 0.6840 0.6790
14.119000 0.6760 0.6730 0.6730 0.6730 0.6730
14.151356 0.6730 0.6740 0.6760 0.6790 0.6840
14.184000 0.6870 0.6970 0.7080 0.7150 0.7340
14.216356 0.7390 0.7440 0.7510 0.7570 0.7690
14.248000 0.7700 0.7770 0.7800 0.7860 0.7880
14.280356 0.7930 0.7960 0.8010 0.8010 0.8010
14.313000 0.8030 0.8030 0.8030 0.8030 0.8030
14.345356 0.8030 0.8030 0.8030 0.8030 0.8010
14.378000 0.8000 0.7950 0.7860 0.7770 0.7690
14.410356 0.7520 0.7440 0.7340 0.7210 0.7080
14.442000 0.6990 0.6810 0.6650 0.6520 0.6450
14.474356 0.6370 0.6300 0.6240 0.6210 0.6160
14.507000 0.6160 0.6140 0.6140 0.6140 0.6140
14.539356 0.6160 0.6170 0.6190 0.6210 0.6220
14.572000 0.6240 0.6260 0.6270 0.6290 0.6290
14.604356 0.6290 0.6290 0.6270 0.6240 0.6210
14.636000 0.6110 0.6010 0.6010 0.5850 0.5770
14.668356 0.5600 0.5510 0.5390 0.5310 0.5180
14.701000 0.5120 0.5080 0.5040 0.5040 0.5000
14.733356 0.4990 0.4940 0.4920 0.4920 0.4920
14.766000 0.4920 0.4920 0.4920 0.4940 0.4970
14.798356 0.5000 0.5020 0.5070 0.5170 0.5210
14.831000 0.5250 0.5300 0.5330 0.5410 0.5470
14.863356 0.5560 0.5590 0.5600 0.5620 0.5640
14.895000 0.5640 0.5650 0.5690 0.5720 0.5770
14.927356 0.5800 0.5850 0.5880 0.5910 0.5960
14.960000 0.6000 0.6010 0.6030 0.6110 0.6160
14.992356 0.6220 0.6300 0.6450 0.6550 0.6650
15.025000 0.6740 0.6780 0.6860 0.6910 0.6950
15.057356 0.7040 0.7050 0.7120 0.7130 0.7170
15.089000 0.7180 0.7200 0.7200 0.7200 0.7200
15.121356 0.7200 0.7200 0.7200 0.7200 0.7200
15.154000 0.7200 0.7180 0.7200 0.7180 0.7180
15.186356 0.7180 0.7180 0.7180 0.7180 0.7180
15.219000 0.7180 0.7180 0.7180 0.7180 0.7170
15.251356 0.7180 0.7180 0.7180 0.7180 0.7180
15.283000 0.7180 0.7180 0.7180 0.7200 0.7210
15.315356 0.7210 0.7230 0.7230 0.7230 0.7230
15.348000 0.7230 0.7250 0.7250 0.7250 0.7260
15.380356 0.7260 0.7260 0.7260 0.7260 0.7260
15.413000 0.7260 0.7260 0.7260 0.7260 0.7260
15.445356 0.7280 0.7260 0.7260 0.7260 0.7260
15.477000 0.7280 0.7260 0.7250 0.7250 0.7260
15.509356 0.7250 0.7250 0.7250 0.7250 0.7250
15.542000 0.7250 0.7250 0.7250 0.7250 0.7260
15.574356 0.7260 0.7260 0.7260 0.7260 0.7260
15.607000 0.7260 0.7280 0.7280 0.7280 0.7280
15.639356 0.7280 0.7300 0.7300 0.7300 0.7300
15.671000 0.7300 0.7300 0.7300 0.7300 0.7300
15.703356 0.7310 0.7330 0.7330 0.7330 0.7330
15.736000 0.7330 0.7330 0.7340 0.7340 0.7340
15.768356 0.7340 0.7360 0.7360 0.7360 0.7380
15.801000 0.7380 0.7380 0.7380 0.7380 0.7380
15.833356 0.7380 0.7380 0.7380 0.7380 0.7380
15.865000 0.7380 0.7380 0.7390 0.7390 0.7390
15.897356 0.7390 0.7410 0.7410 0.7410 0.7410
15.930000 0.7430 0.7430 0.7430 0.7430 0.7430
15.962356 0.7430 0.7430 0.7430 0.7440 0.7440
15.995000 0.7440
##END=
