##TITLE=ACETIC ACID, CADMIUM SALT, DIHYDRATE
##JCAMP-DX=4.24
##DATA TYPE=INFRARED SPECTRUM
##CLASS=COBLENTZ
##ORIGIN=BELL TELEPHONE LABORATORIES- F. VRATNY
##OWNER=COBLENTZ SOCIETY
Collection (C) 2018 copyright by the U.S. Secretary of Commerce
on behalf of the United States of America. All rights reserved.
##DATE=Not specified, most likely prior to 1970
##MOLFORM=C4 H6 O4 Cd  * 2 H2 O
##SOURCE REFERENCE=COBLENTZ NO. 2033
##$NIST ID=B6002033
##$NIST SOURCE=COBLENTZ
##$NIST IMAGE=cob2033
##SPECTROMETER/DATA SYSTEM=PERKIN-ELMER
##STATE=SOLID (MINERAL OIL MULL)
##PATH LENGTH=
$$SPECTRAL CONTAMINATION DUE TO OIL AROUND 2900 CM^-^1
##SAMPLING PROCEDURE=TRANSMISSION
##RESOLUTION=4
##DATA PROCESSING=DIGITIZED BY NIST FROM HARD COPY
##XUNITS=MICROMETERS
##YUNITS=TRANSMITTANCE
##XFACTOR=1.000000
##YFACTOR=1
##DELTAX=000.006771
##FIRSTX=2.027
##LASTX=15.3728
##FIRSTY=0.847
##MAXX=15.3728
##MINX=2.027
##MAXY=0.886
##MINY=0.018
##NPOINTS=1972
##XYDATA=(X++(Y..Y))
2.027000 0.8470 0.8490 0.8470 0.8490 0.8490
2.060871 0.8490 0.8510 0.8510 0.8540 0.8540
2.095000 0.8560 0.8570 0.8590 0.8610 0.8610
2.128871 0.8610 0.8610 0.8610 0.8640 0.8660
2.162000 0.8660 0.8660 0.8680 0.8680 0.8690
2.195871 0.8690 0.8690 0.8710 0.8710 0.8710
2.230000 0.8730 0.8730 0.8750 0.8750 0.8750
2.263871 0.8750 0.8730 0.8690 0.8630 0.8510
2.298000 0.8370 0.8230 0.8200 0.8110 0.8010
2.331871 0.7990 0.7970 0.7970 0.7990 0.8010
2.366000 0.8030 0.8060 0.8080 0.8150 0.8200
2.399871 0.8210 0.8210 0.8200 0.8200 0.8210
2.433000 0.8210 0.8210 0.8210 0.8230 0.8250
2.466871 0.8250 0.8250 0.8250 0.8270 0.8280
2.501000 0.8350 0.8400 0.8490 0.8560 0.8570
2.534871 0.8590 0.8640 0.8680 0.8690 0.8710
2.569000 0.8730 0.8750 0.8760 0.8760 0.8760
2.602871 0.8780 0.8780 0.8780 0.8780 0.8850
2.636000 0.8860 0.8860 0.8850 0.8850 0.8850
2.669871 0.8860 0.8860 0.8860 0.8830 0.8780
2.704000 0.8760 0.8690 0.8680 0.8630 0.8540
2.737871 0.8470 0.8350 0.8180 0.7990 0.7790
2.772000 0.7550 0.7260 0.6950 0.6110 0.5580
2.805871 0.5150 0.4720 0.4210 0.3800 0.3420
2.840000 0.2970 0.2870 0.2840 0.2820 0.2850
2.873871 0.2990 0.3080 0.3180 0.3200 0.3210
2.907000 0.3230 0.3210 0.3200 0.3110 0.3030
2.940871 0.2920 0.2800 0.2680 0.2530 0.2340
2.975000 0.2220 0.2170 0.2070 0.2020 0.1980
3.008871 0.1930 0.1880 0.1860 0.1840 0.1830
3.043000 0.1810 0.1790 0.1780 0.1760 0.1670
3.076871 0.1640 0.1550 0.1540 0.1520 0.1500
3.110000 0.1500 0.1480 0.1430 0.1400 0.1380
3.143871 0.1350 0.1300 0.1260 0.1250 0.1250
3.178000 0.1250 0.1250 0.1230 0.1210 0.1210
3.211871 0.1210 0.1230 0.1210 0.1210 0.1210
3.246000 0.1230 0.1230 0.1230 0.1230 0.1230
3.279871 0.1230 0.1230 0.1230 0.1210 0.1190
3.314000 0.1180 0.1140 0.1110 0.1040 0.0870
3.347871 0.0780 0.0700 0.0580 0.0490 0.0340
3.381000 0.0290 0.0270 0.0270 0.0270 0.0270
3.414871 0.0270 0.0250 0.0250 0.0250 0.0250
3.449000 0.0250 0.0250 0.0270 0.0270 0.0270
3.482871 0.0270 0.0270 0.0250 0.0250 0.0250
3.517000 0.0340 0.0580 0.1010 0.1620 0.2430
3.550871 0.2990 0.3210 0.3440 0.3780 0.4070
3.584000 0.4310 0.4500 0.4690 0.4820 0.4930
3.617871 0.5080 0.5110 0.5170 0.5200 0.5220
3.652000 0.5220 0.5250 0.5320 0.5410 0.5490
3.685871 0.5510 0.5610 0.5710 0.5770 0.5780
3.720000 0.5830 0.5870 0.5900 0.5990 0.6020
3.753871 0.6040 0.6070 0.6140 0.6160 0.6250
3.787000 0.6310 0.6360 0.6480 0.6500 0.6520
3.820871 0.6550 0.6600 0.6640 0.6670 0.6710
3.855000 0.6780 0.6810 0.6900 0.7000 0.7020
3.888871 0.7030 0.7140 0.7170 0.7200 0.7260
3.923000 0.7290 0.7310 0.7360 0.7480 0.7510
3.956871 0.7530 0.7550 0.7560 0.7560 0.7580
3.991000 0.7600 0.7600 0.7600 0.7600 0.7600
4.024871 0.7600 0.7600 0.7600 0.7600 0.7600
4.058000 0.7600 0.7610 0.7630 0.7650 0.7650
4.091871 0.7680 0.7700 0.7720 0.7720 0.7720
4.126000 0.7730 0.7750 0.7750 0.7730 0.7730
4.159871 0.7720 0.7700 0.7680 0.7680 0.7680
4.194000 0.7670 0.7670 0.7670 0.7680 0.7680
4.227871 0.7700 0.7720 0.7720 0.7720 0.7730
4.261000 0.7730 0.7730 0.7730 0.7730 0.7720
4.294871 0.7720 0.7700 0.7700 0.7680 0.7670
4.329000 0.7610 0.7560 0.7530 0.7510 0.7500
4.362871 0.7480 0.7460 0.7460 0.7460 0.7460
4.397000 0.7460 0.7460 0.7480 0.7480 0.7480
4.430871 0.7500 0.7510 0.7530 0.7560 0.7580
4.465000 0.7600 0.7600 0.7610 0.7670 0.7680
4.498871 0.7720 0.7720 0.7750 0.7770 0.7790
4.532000 0.7790 0.7790 0.7820 0.7850 0.7910
4.565871 0.7910 0.7940 0.7990 0.8030 0.8060
4.600000 0.8080 0.8090 0.8080 0.8080 0.8090
4.633871 0.8130 0.8130 0.8150 0.8230 0.8250
4.668000 0.8270 0.8280 0.8280 0.8300 0.8330
4.701871 0.8350 0.8370 0.8400 0.8470 0.8490
4.735000 0.8490 0.8490 0.8520 0.8560 0.8590
4.768871 0.8610 0.8630 0.8660 0.8680 0.8710
4.803000 0.8730 0.8750 0.8750 0.8750 0.8750
4.836871 0.8750 0.8750 0.8760 0.8760 0.8760
4.871000 0.8760 0.8760 0.8760 0.8760 0.8760
4.904871 0.8760 0.8760 0.8760 0.8760 0.8760
4.939000 0.8760 0.8760 0.8780 0.8780 0.8800
4.972871 0.8810 0.8810 0.8830 0.8830 0.8830
5.006000 0.8830 0.8830 0.8830 0.8850 0.8850
5.039871 0.8850 0.8830 0.8810 0.8800 0.8800
5.074000 0.8800 0.8800 0.8780 0.8780 0.8780
5.107871 0.8780 0.8780 0.8780 0.8780 0.8780
5.142000 0.8780 0.8780 0.8780 0.8780 0.8800
5.175871 0.8810 0.8810 0.8800 0.8780 0.8760
5.209000 0.8750 0.8730 0.8730 0.8730 0.8730
5.242871 0.8730 0.8710 0.8710 0.8710 0.8710
5.277000 0.8710 0.8690 0.8690 0.8690 0.8680
5.310871 0.8680 0.8660 0.8640 0.8630 0.8630
5.345000 0.8630 0.8630 0.8610 0.8610 0.8570
5.378871 0.8510 0.8490 0.8490 0.8470 0.8470
5.412000 0.8470 0.8470 0.8440 0.8390 0.8370
5.445871 0.8350 0.8320 0.8300 0.8280 0.8280
5.480000 0.8270 0.8230 0.8210 0.8180 0.8150
5.513871 0.8110 0.8080 0.8030 0.8030 0.8010
5.548000 0.7990 0.8010 0.7990 0.7940 0.7940
5.581871 0.7920 0.7910 0.7890 0.7870 0.7800
5.616000 0.7750 0.7730 0.7730 0.7720 0.7700
5.649871 0.7680 0.7650 0.7630 0.7510 0.7510
5.683000 0.7510 0.7500 0.7500 0.7460 0.7460
5.716871 0.7430 0.7390 0.7380 0.7360 0.7310
5.751000 0.7240 0.7140 0.7120 0.7080 0.7030
5.784871 0.7020 0.7000 0.6950 0.6910 0.6810
5.819000 0.6780 0.6720 0.6670 0.6540 0.6520
5.852871 0.6480 0.6350 0.6250 0.6110 0.6060
5.886000 0.6010 0.5890 0.5820 0.5750 0.5660
5.919871 0.5540 0.5490 0.5410 0.5290 0.5220
5.954000 0.5050 0.4880 0.4700 0.4570 0.4430
5.987871 0.4290 0.4160 0.4020 0.3860 0.3690
6.022000 0.3510 0.3090 0.2920 0.2700 0.2560
6.055871 0.2510 0.2500 0.2500 0.2510 0.2610
6.090000 0.2720 0.2770 0.2800 0.2870 0.2910
6.123871 0.2940 0.2990 0.3010 0.3030 0.3060
6.157000 0.3060 0.3030 0.2920 0.2890 0.2870
6.190871 0.2840 0.2750 0.2670 0.2600 0.2550
6.225000 0.2460 0.2380 0.2270 0.2170 0.2030
6.258871 0.1950 0.1830 0.1780 0.1670 0.1540
6.293000 0.1500 0.1380 0.1300 0.1190 0.1040
6.326871 0.0890 0.0850 0.0850 0.0820 0.0780
6.360000 0.0700 0.0590 0.0540 0.0510 0.0510
6.393871 0.0510 0.0420 0.0370 0.0320 0.0300
6.428000 0.0290 0.0290 0.0290 0.0290 0.0270
6.461871 0.0270 0.0290 0.0300 0.0300 0.0290
6.496000 0.0290 0.0270 0.0270 0.0290 0.0290
6.529871 0.0270 0.0270 0.0290 0.0300 0.0320
6.564000 0.0320 0.0320 0.0340 0.0340 0.0350
6.597871 0.0410 0.0420 0.0440 0.0440 0.0440
6.631000 0.0460 0.0510 0.0530 0.0530 0.0560
6.664871 0.0590 0.0660 0.0780 0.0850 0.0890
6.699000 0.0900 0.0940 0.0940 0.0940 0.0920
6.732871 0.0900 0.0890 0.0870 0.0850 0.0820
6.767000 0.0800 0.0780 0.0750 0.0560 0.0350
6.800871 0.0200 0.0180 0.0180 0.0180 0.0180
6.834000 0.0200 0.0200 0.0200 0.0200 0.0220
6.867871 0.0220 0.0220 0.0220 0.0220 0.0220
6.902000 0.0220 0.0200 0.0200 0.0200 0.0220
6.935871 0.0230 0.0230 0.0230 0.0250 0.0290
6.970000 0.0300 0.0340 0.0370 0.0410 0.0440
7.003871 0.0460 0.0470 0.0490 0.0510 0.0510
7.037000 0.0510 0.0530 0.0530 0.0540 0.0580
7.070871 0.0590 0.0610 0.0650 0.0710 0.0770
7.105000 0.0850 0.0940 0.0990 0.1010 0.1020
7.138871 0.1020 0.1020 0.1040 0.1070 0.1090
7.173000 0.1090 0.1070 0.1040 0.1040 0.1010
7.206871 0.0920 0.0900 0.0890 0.0870 0.0830
7.241000 0.0770 0.0770 0.0770 0.0770 0.0850
7.274871 0.0990 0.1020 0.1040 0.1110 0.1140
7.308000 0.1160 0.1190 0.1310 0.1520 0.1790
7.341871 0.2020 0.2140 0.2170 0.2200 0.2220
7.376000 0.2260 0.2290 0.2320 0.2340 0.2340
7.409871 0.2340 0.2360 0.2390 0.2430 0.2510
7.444000 0.2580 0.2650 0.2770 0.2870 0.2960
7.477871 0.3060 0.3150 0.3250 0.3320 0.3330
7.511000 0.3350 0.3390 0.3440 0.3520 0.3570
7.544871 0.3630 0.3660 0.3690 0.3710 0.3760
7.579000 0.3800 0.3850 0.3880 0.3900 0.3920
7.612871 0.3930 0.3970 0.4000 0.4020 0.4040
7.647000 0.4100 0.4120 0.4140 0.4190 0.4220
7.680871 0.4240 0.4260 0.4280 0.4290 0.4340
7.715000 0.4380 0.4410 0.4450 0.4520 0.4550
7.748871 0.4600 0.4620 0.4650 0.4670 0.4700
7.782000 0.4720 0.4740 0.4770 0.4790 0.4810
7.815871 0.4840 0.4880 0.4890 0.4940 0.4980
7.850000 0.5000 0.5010 0.5050 0.5110 0.5130
7.883871 0.5170 0.5180 0.5220 0.5250 0.5290
7.918000 0.5320 0.5340 0.5340 0.5370 0.5410
7.951871 0.5440 0.5470 0.5490 0.5510 0.5530
7.985000 0.5560 0.5580 0.5630 0.5630 0.5650
8.018871 0.5650 0.5660 0.5680 0.5730 0.5730
8.053000 0.5750 0.5770 0.5770 0.5780 0.5780
8.086871 0.5800 0.5800 0.5800 0.5800 0.5820
8.121000 0.5820 0.5850 0.5890 0.5900 0.5920
8.154871 0.5950 0.5970 0.6010 0.6010 0.6020
8.189000 0.6020 0.6040 0.6110 0.6130 0.6130
8.222871 0.6140 0.6160 0.6160 0.6160 0.6160
8.256000 0.6160 0.6180 0.6230 0.6260 0.6260
8.289871 0.6280 0.6280 0.6300 0.6330 0.6350
8.324000 0.6360 0.6400 0.6420 0.6450 0.6470
8.357871 0.6470 0.6480 0.6480 0.6520 0.6520
8.392000 0.6520 0.6540 0.6550 0.6550 0.6570
8.425871 0.6570 0.6570 0.6590 0.6590 0.6590
8.459000 0.6590 0.6590 0.6590 0.6590 0.6590
8.492871 0.6590 0.6570 0.6570 0.6550 0.6540
8.527000 0.6520 0.6520 0.6500 0.6480 0.6470
8.560871 0.6470 0.6470 0.6470 0.6480 0.6480
8.595000 0.6500 0.6520 0.6520 0.6520 0.6520
8.628871 0.6520 0.6520 0.6520 0.6500 0.6500
8.663000 0.6500 0.6520 0.6520 0.6540 0.6550
8.696871 0.6570 0.6590 0.6590 0.6600 0.6600
8.730000 0.6620 0.6660 0.6670 0.6690 0.6710
8.763871 0.6740 0.6780 0.6790 0.6830 0.6840
8.798000 0.6840 0.6860 0.6860 0.6900 0.6950
8.831871 0.6980 0.7000 0.7020 0.7030 0.7030
8.866000 0.7030 0.7070 0.7080 0.7080 0.7080
8.899871 0.7080 0.7080 0.7080 0.7100 0.7100
8.933000 0.7100 0.7100 0.7120 0.7120 0.7120
8.966871 0.7140 0.7140 0.7140 0.7170 0.7170
9.001000 0.7190 0.7190 0.7190 0.7190 0.7190
9.034871 0.7200 0.7200 0.7200 0.7200 0.7200
9.069000 0.7200 0.7200 0.7200 0.7200 0.7220
9.102871 0.7220 0.7240 0.7260 0.7270 0.7270
9.136000 0.7270 0.7270 0.7270 0.7260 0.7240
9.169871 0.7240 0.7220 0.7190 0.7190 0.7190
9.204000 0.7190 0.7190 0.7190 0.7190 0.7190
9.237871 0.7170 0.7170 0.7170 0.7190 0.7190
9.272000 0.7170 0.7150 0.7140 0.7120 0.7120
9.305871 0.7120 0.7120 0.7120 0.7100 0.7100
9.340000 0.7100 0.7100 0.7080 0.7070 0.7070
9.373871 0.7050 0.7030 0.7030 0.7000 0.7000
9.407000 0.6980 0.6950 0.6930 0.6900 0.6860
9.440871 0.6780 0.6720 0.6670 0.6570 0.6540
9.475000 0.6450 0.6380 0.6300 0.6210 0.6090
9.508871 0.6010 0.5900 0.5850 0.5780 0.5730
9.543000 0.5700 0.5700 0.5680 0.5680 0.5680
9.576871 0.5700 0.5710 0.5750 0.5820 0.5870
9.610000 0.5940 0.6010 0.6040 0.6040 0.6110
9.643871 0.6140 0.6180 0.6190 0.6190 0.6190
9.678000 0.6190 0.6180 0.6130 0.6060 0.6040
9.711871 0.6010 0.5900 0.5800 0.5700 0.5560
9.746000 0.5410 0.5320 0.5250 0.5150 0.5050
9.779871 0.4880 0.4720 0.4620 0.4520 0.4340
9.814000 0.4210 0.4120 0.4040 0.4000 0.3930
9.847871 0.3880 0.3880 0.3880 0.3880 0.3880
9.881000 0.3920 0.4000 0.4140 0.4220 0.4290
9.914871 0.4400 0.4550 0.4740 0.4810 0.4960
9.949000 0.5060 0.5220 0.5370 0.5590 0.5820
9.982871 0.5900 0.6020 0.6090 0.6160 0.6190
10.017000 0.6230 0.6260 0.6300 0.6330 0.6360
10.050871 0.6400 0.6420 0.6430 0.6450 0.6470
10.084000 0.6480 0.6500 0.6520 0.6540 0.6550
10.117871 0.6570 0.6600 0.6660 0.6670 0.6670
10.152000 0.6690 0.6710 0.6710 0.6690 0.6690
10.185871 0.6690 0.6710 0.6710 0.6710 0.6710
10.220000 0.6710 0.6720 0.6720 0.6740 0.6740
10.253871 0.6760 0.6760 0.6760 0.6780 0.6780
10.288000 0.6780 0.6780 0.6780 0.6780 0.6780
10.321871 0.6780 0.6780 0.6780 0.6780 0.6780
10.355000 0.6760 0.6760 0.6720 0.6720 0.6720
10.388871 0.6710 0.6690 0.6670 0.6600 0.6540
10.423000 0.6520 0.6400 0.6280 0.6090 0.5950
10.456871 0.5730 0.5470 0.5230 0.4980 0.4740
10.491000 0.4570 0.4360 0.4240 0.4220 0.4240
10.524871 0.4260 0.4290 0.4310 0.4310 0.4310
10.558000 0.4330 0.4450 0.4620 0.4930 0.5110
10.591871 0.5370 0.5610 0.5800 0.6010 0.6090
10.626000 0.6250 0.6350 0.6420 0.6450 0.6500
10.659871 0.6540 0.6600 0.6600 0.6660 0.6670
10.694000 0.6670 0.6710 0.6740 0.6780 0.6810
10.727871 0.6830 0.6830 0.6840 0.6860 0.6880
10.761000 0.6880 0.6880 0.6900 0.6900 0.6900
10.794871 0.6910 0.6930 0.6930 0.6950 0.6950
10.829000 0.6950 0.6960 0.6960 0.6960 0.6960
10.862871 0.6960 0.6960 0.6960 0.6960 0.6960
10.897000 0.6960 0.6960 0.6960 0.6960 0.6950
10.930871 0.6950 0.6950 0.6950 0.6960 0.6960
10.965000 0.6960 0.6960 0.6960 0.6960 0.6980
10.998871 0.6980 0.6980 0.6980 0.6980 0.6980
11.032000 0.6980 0.6980 0.6980 0.6980 0.6960
11.065871 0.6960 0.6960 0.6950 0.6930 0.6930
11.100000 0.6910 0.6900 0.6880 0.6880 0.6880
11.133871 0.6860 0.6840 0.6840 0.6840 0.6830
11.168000 0.6810 0.6780 0.6780 0.6760 0.6720
11.201871 0.6710 0.6670 0.6670 0.6640 0.6620
11.235000 0.6620 0.6600 0.6570 0.6550 0.6550
11.268871 0.6550 0.6550 0.6550 0.6550 0.6550
11.303000 0.6550 0.6550 0.6520 0.6520 0.6500
11.336871 0.6450 0.6450 0.6430 0.6430 0.6430
11.371000 0.6430 0.6430 0.6420 0.6400 0.6380
11.404871 0.6380 0.6360 0.6350 0.6330 0.6310
11.439000 0.6310 0.6310 0.6300 0.6300 0.6300
11.472871 0.6300 0.6280 0.6260 0.6230 0.6210
11.506000 0.6190 0.6180 0.6160 0.6140 0.6130
11.539871 0.6110 0.6090 0.6070 0.6060 0.6040
11.574000 0.6020 0.6020 0.6010 0.5990 0.5970
11.607871 0.5940 0.5940 0.5940 0.5920 0.5920
11.642000 0.5900 0.5890 0.5830 0.5830 0.5820
11.675871 0.5800 0.5780 0.5770 0.5750 0.5730
11.709000 0.5700 0.5700 0.5660 0.5650 0.5630
11.742871 0.5610 0.5590 0.5580 0.5560 0.5560
11.777000 0.5540 0.5510 0.5460 0.5420 0.5410
11.810871 0.5390 0.5370 0.5350 0.5340 0.5320
11.845000 0.5290 0.5230 0.5230 0.5230 0.5220
11.878871 0.5220 0.5200 0.5200 0.5180 0.5180
11.913000 0.5170 0.5170 0.5150 0.5150 0.5130
11.946871 0.5130 0.5100 0.5100 0.5080 0.5080
11.980000 0.5080 0.5060 0.5060 0.5050 0.5050
12.013871 0.5050 0.5030 0.5030 0.5030 0.5030
12.048000 0.5030 0.5010 0.5000 0.5000 0.4940
12.081871 0.4940 0.4940 0.4930 0.4930 0.4910
12.116000 0.4910 0.4910 0.4890 0.4890 0.4890
12.149871 0.4890 0.4890 0.4890 0.4890 0.4890
12.183000 0.4890 0.4890 0.4880 0.4880 0.4860
12.216871 0.4860 0.4860 0.4860 0.4860 0.4840
12.251000 0.4840 0.4840 0.4840 0.4840 0.4840
12.284871 0.4840 0.4840 0.4840 0.4840 0.4840
12.319000 0.4840 0.4840 0.4840 0.4840 0.4840
12.352871 0.4840 0.4840 0.4840 0.4840 0.4840
12.386000 0.4840 0.4860 0.4860 0.4840 0.4820
12.419871 0.4820 0.4820 0.4820 0.4860 0.4890
12.454000 0.4890 0.4910 0.4930 0.4940 0.4980
12.487871 0.5000 0.5000 0.5000 0.5000 0.5000
12.522000 0.5000 0.5000 0.5010 0.5010 0.5010
12.555871 0.5010 0.5010 0.5010 0.5010 0.5010
12.590000 0.5010 0.5010 0.5010 0.5010 0.5010
12.623871 0.5010 0.5010 0.5010 0.5010 0.5010
12.657000 0.5010 0.5010 0.5010 0.5010 0.5010
12.690871 0.5010 0.5010 0.5010 0.5010 0.5010
12.725000 0.5010 0.5000 0.5000 0.5000 0.5000
12.758871 0.5000 0.4980 0.4980 0.4960 0.4960
12.793000 0.4960 0.4960 0.4940 0.4940 0.4930
12.826871 0.4910 0.4910 0.4890 0.4890 0.4880
12.860000 0.4860 0.4860 0.4860 0.4840 0.4820
12.893871 0.4820 0.4820 0.4820 0.4820 0.4810
12.928000 0.4810 0.4810 0.4810 0.4790 0.4790
12.961871 0.4770 0.4770 0.4760 0.4760 0.4760
12.996000 0.4740 0.4740 0.4700 0.4700 0.4690
13.029871 0.4670 0.4670 0.4650 0.4640 0.4620
13.064000 0.4620 0.4600 0.4580 0.4580 0.4550
13.097871 0.4530 0.4530 0.4530 0.4520 0.4520
13.131000 0.4500 0.4500 0.4480 0.4460 0.4450
13.164871 0.4450 0.4450 0.4450 0.4430 0.4430
13.199000 0.4410 0.4380 0.4360 0.4340 0.4340
13.232871 0.4310 0.4310 0.4290 0.4260 0.4240
13.267000 0.4220 0.4220 0.4210 0.4210 0.4190
13.300871 0.4190 0.4170 0.4100 0.4090 0.4070
13.334000 0.4050 0.4050 0.4040 0.4040 0.4020
13.367871 0.4020 0.4020 0.4000 0.3980 0.3920
13.402000 0.3880 0.3830 0.3810 0.3800 0.3780
13.435871 0.3750 0.3690 0.3660 0.3660 0.3640
13.470000 0.3630 0.3610 0.3570 0.3540 0.3520
13.503871 0.3490 0.3450 0.3420 0.3400 0.3350
13.538000 0.3350 0.3330 0.3300 0.3280 0.3270
13.571871 0.3210 0.3180 0.3130 0.3110 0.3090
13.605000 0.3090 0.3090 0.3090 0.3080 0.3040
13.638871 0.3040 0.3040 0.3030 0.3010 0.3010
13.673000 0.2990 0.2990 0.2990 0.2990 0.2970
13.706871 0.2960 0.2940 0.2940 0.2940 0.2940
13.741000 0.2940 0.2940 0.2920 0.2920 0.2910
13.774871 0.2910 0.2890 0.2870 0.2870 0.2870
13.808000 0.2870 0.2850 0.2850 0.2850 0.2840
13.841871 0.2840 0.2820 0.2820 0.2820 0.2820
13.876000 0.2820 0.2820 0.2840 0.2840 0.2840
13.909871 0.2840 0.2840 0.2840 0.2850 0.2850
13.944000 0.2850 0.2870 0.2890 0.2910 0.2940
13.977871 0.2990 0.3030 0.3080 0.3110 0.3150
14.011000 0.3180 0.3210 0.3230 0.3230 0.3250
14.044871 0.3250 0.3270 0.3270 0.3280 0.3320
14.079000 0.3330 0.3400 0.3420 0.3490 0.3510
14.112871 0.3510 0.3510 0.3520 0.3520 0.3540
14.147000 0.3560 0.3570 0.3590 0.3610 0.3630
14.180871 0.3630 0.3640 0.3660 0.3660 0.3660
14.215000 0.3680 0.3690 0.3690 0.3710 0.3730
14.248871 0.3730 0.3750 0.3750 0.3760 0.3760
14.282000 0.3750 0.3750 0.3750 0.3750 0.3760
14.315871 0.3760 0.3760 0.3760 0.3760 0.3760
14.350000 0.3750 0.3750 0.3730 0.3730 0.3730
14.383871 0.3710 0.3690 0.3680 0.3630 0.3540
14.418000 0.3520 0.3510 0.3490 0.3440 0.3400
14.451871 0.3330 0.3230 0.3150 0.3090 0.3080
14.485000 0.3040 0.3030 0.2960 0.2890 0.2820
14.518871 0.2770 0.2720 0.2670 0.2610 0.2530
14.553000 0.2460 0.2430 0.2360 0.2320 0.2270
14.586871 0.2240 0.2200 0.2170 0.2150 0.2140
14.621000 0.2140 0.2120 0.2050 0.2020 0.2000
14.654871 0.1930 0.1910 0.1900 0.1900 0.1880
14.689000 0.1840 0.1830 0.1810 0.1810 0.1810
14.722871 0.1810 0.1810 0.1790 0.1780 0.1760
14.756000 0.1720 0.1720 0.1690 0.1690 0.1690
14.789871 0.1690 0.1690 0.1710 0.1720 0.1780
14.824000 0.1810 0.1860 0.1910 0.1980 0.2030
14.857871 0.2100 0.2120 0.2170 0.2220 0.2310
14.892000 0.2390 0.2440 0.2500 0.2550 0.2610
14.925871 0.2670 0.2750 0.2820 0.2910 0.2990
14.959000 0.3010 0.3030 0.3060 0.3090 0.3130
14.992871 0.3180 0.3160 0.3180 0.3210 0.3280
15.027000 0.3320 0.3350 0.3420 0.3450 0.3470
15.060871 0.3510 0.3570 0.3630 0.3690 0.3750
15.095000 0.3830 0.3920 0.4020 0.4040 0.4050
15.128871 0.4160 0.4170 0.4190 0.4210 0.4210
15.163000 0.4240 0.4260 0.4290 0.4330 0.4400
15.196871 0.4450 0.4480 0.4500 0.4530 0.4570
15.230000 0.4580 0.4600 0.4620 0.4620 0.4640
15.263871 0.4650 0.4670 0.4690 0.4760 0.4790
15.298000 0.4820 0.4840 0.4860 0.4860 0.4880
15.331871 0.4960 0.5000 0.5030 0.5060 0.5080
15.366000 0.5080 0.5100
##END=
