##TITLE=L-(-)-RHAMNOSE
##JCAMP-DX=4.24
##DATA TYPE=INFRARED SPECTRUM
##CLASS=COBLENTZ
##ORIGIN=WYANDOTTE CHEMICALS CORP., WYANDOTTE, MICHIGAN, USA
##OWNER=COBLENTZ SOCIETY
Collection (C) 2018 copyright by the U.S. Secretary of Commerce
on behalf of the United States of America. All rights reserved.
##DATE=Not specified, most likely prior to 1970
##MOLFORM=C6 H12 O5  * H2 O
##SOURCE REFERENCE=COBLENTZ NO. 96
##$NIST ID=B6000096
##$NIST SOURCE=COBLENTZ
##$NIST IMAGE=cob96
##SPECTROMETER/DATA SYSTEM=Not specified, most likely a prism, grating, or hybrid spectrometer.
##SAMPLING PROCEDURE=TRANSMISSION
##RESOLUTION=4
##DATA PROCESSING=DIGITIZED BY NIST FROM HARD COPY
##XUNITS=MICROMETERS
##YUNITS=TRANSMITTANCE
##XFACTOR=1.000000
##YFACTOR=1
##DELTAX=000.006584
##FIRSTX=2.012
##LASTX=15.9557
##FIRSTY=0.925
##MAXX=15.9557
##MINX=2.012
##MAXY=0.961
##MINY=0.028
##NPOINTS=2119
##XYDATA=(X++(Y..Y))
2.012000 0.9250 0.9250 0.9230 0.9210 0.9200
2.044934 0.9200 0.9200 0.9160 0.9160 0.9180
2.078000 0.9300 0.9330 0.9350 0.9360 0.9380
2.110934 0.9380 0.9380 0.9400 0.9410 0.9430
2.143000 0.9430 0.9430 0.9410 0.9410 0.9410
2.175934 0.9410 0.9410 0.9400 0.9360 0.9310
2.209000 0.9260 0.9210 0.9180 0.9130 0.9060
2.241934 0.8970 0.8800 0.8780 0.8800 0.8870
2.275000 0.8920 0.8850 0.8880 0.8930 0.9000
2.307934 0.9030 0.9060 0.9080 0.9050 0.9030
2.341000 0.9010 0.9000 0.8980 0.8950 0.8930
2.373934 0.8900 0.8850 0.8770 0.8770 0.8750
2.407000 0.8750 0.8830 0.8930 0.8980 0.9010
2.439934 0.9060 0.9100 0.9130 0.9150 0.9150
2.473000 0.9150 0.9160 0.9200 0.9250 0.9260
2.505934 0.9310 0.9350 0.9350 0.9360 0.9360
2.538000 0.9380 0.9380 0.9380 0.9400 0.9410
2.570934 0.9460 0.9460 0.9450 0.9450 0.9450
2.604000 0.9410 0.9360 0.9260 0.9210 0.9200
2.636934 0.9200 0.9200 0.9210 0.9350 0.9350
2.670000 0.9350 0.9310 0.9210 0.9130 0.9050
2.702934 0.9000 0.8950 0.8880 0.8800 0.8720
2.736000 0.8600 0.8450 0.8350 0.8230 0.8080
2.768934 0.7890 0.7570 0.7100 0.6570 0.6310
2.802000 0.5680 0.5130 0.4280 0.3930 0.3580
2.834934 0.3250 0.2890 0.2470 0.2220 0.1990
2.868000 0.1760 0.1520 0.1260 0.0960 0.0610
2.900934 0.0410 0.0390 0.0390 0.0390 0.0410
2.933000 0.0530 0.0560 0.0630 0.0660 0.0680
2.965934 0.0730 0.0830 0.0860 0.0830 0.0760
2.999000 0.0640 0.0560 0.0530 0.0490 0.0480
3.031934 0.0430 0.0410 0.0390 0.0390 0.0390
3.065000 0.0380 0.0360 0.0360 0.0360 0.0360
3.097934 0.0360 0.0360 0.0340 0.0340 0.0340
3.131000 0.0340 0.0340 0.0340 0.0340 0.0340
3.163934 0.0360 0.0360 0.0360 0.0360 0.0390
3.197000 0.0410 0.0410 0.0440 0.0530 0.0660
3.229934 0.0790 0.0930 0.1040 0.1170 0.1310
3.263000 0.1440 0.1560 0.1690 0.1840 0.1970
3.295934 0.2100 0.2190 0.2270 0.2300 0.2340
3.328000 0.2350 0.2340 0.1920 0.1610 0.1070
3.360934 0.0840 0.0380 0.0330 0.0330 0.0330
3.394000 0.0330 0.0330 0.0330 0.0330 0.0340
3.426934 0.0330 0.0330 0.0330 0.0330 0.0330
3.460000 0.0330 0.0330 0.0330 0.0330 0.0340
3.492934 0.0340 0.0360 0.0360 0.0360 0.0360
3.526000 0.0380 0.0390 0.0430 0.1320 0.2140
3.558934 0.2870 0.3480 0.4030 0.4480 0.4810
3.592000 0.4950 0.5060 0.5190 0.5590 0.5790
3.624934 0.5790 0.5790 0.5790 0.5790 0.5780
3.658000 0.5580 0.5480 0.5430 0.5360 0.5230
3.690934 0.5190 0.5190 0.5240 0.5280 0.5340
3.723000 0.5310 0.5280 0.5290 0.5340 0.5430
3.755934 0.5540 0.5690 0.5840 0.6020 0.6220
3.789000 0.6420 0.6620 0.6710 0.6770 0.6840
3.821934 0.6890 0.6920 0.6970 0.7020 0.7070
3.855000 0.7090 0.7120 0.7100 0.7050 0.6990
3.887934 0.6920 0.6910 0.6910 0.6920 0.6960
3.921000 0.6990 0.7020 0.7050 0.7120 0.7190
3.953934 0.7290 0.7350 0.7420 0.7450 0.7520
3.987000 0.7540 0.7620 0.7700 0.7770 0.7840
4.019934 0.7900 0.7950 0.7990 0.8050 0.8050
4.053000 0.8070 0.8080 0.8100 0.8130 0.8170
4.085934 0.8170 0.8170 0.8170 0.8150 0.8120
4.119000 0.7990 0.7990 0.7990 0.8000 0.8030
4.151934 0.8100 0.8170 0.8230 0.8280 0.8320
4.184000 0.8350 0.8400 0.8430 0.8470 0.8470
4.216934 0.8450 0.8430 0.8420 0.8380 0.8350
4.250000 0.8330 0.8330 0.8320 0.8320 0.8320
4.282934 0.8330 0.8400 0.8450 0.8480 0.8520
4.316000 0.8530 0.8550 0.8550 0.8550 0.8620
4.348934 0.8700 0.8770 0.8780 0.8800 0.8850
4.382000 0.8880 0.8880 0.8880 0.8870 0.8830
4.414934 0.8820 0.8800 0.8800 0.8770 0.8730
4.448000 0.8720 0.8700 0.8680 0.8680 0.8680
4.480934 0.8670 0.8670 0.8670 0.8670 0.8650
4.514000 0.8670 0.8680 0.8670 0.8680 0.8700
4.546934 0.8720 0.8730 0.8750 0.8780 0.8780
4.579000 0.8800 0.8800 0.8800 0.8730 0.8730
4.611934 0.8730 0.8730 0.8750 0.8750 0.8750
4.645000 0.8730 0.8750 0.8770 0.8800 0.8800
4.677934 0.8800 0.8800 0.8780 0.8770 0.8770
4.711000 0.8770 0.8730 0.8720 0.8670 0.8620
4.743934 0.8620 0.8650 0.8750 0.8820 0.8870
4.777000 0.8950 0.9000 0.9030 0.9050 0.9010
4.809934 0.9000 0.8930 0.8920 0.8930 0.9060
4.843000 0.9110 0.9150 0.9160 0.9180 0.9180
4.875934 0.9200 0.9180 0.9200 0.9210 0.9230
4.909000 0.9260 0.9300 0.9300 0.9310 0.9310
4.941934 0.9250 0.9250 0.9300 0.9350 0.9360
4.974000 0.9360 0.9330 0.9330 0.9350 0.9400
5.006934 0.9430 0.9450 0.9460 0.9450 0.9430
5.040000 0.9430 0.9410 0.9410 0.9410 0.9360
5.072934 0.9310 0.9310 0.9360 0.9410 0.9450
5.106000 0.9500 0.9500 0.9450 0.9410 0.9430
5.138934 0.9430 0.9460 0.9450 0.9400 0.9360
5.172000 0.9350 0.9310 0.9300 0.9310 0.9360
5.204934 0.9400 0.9450 0.9410 0.9450 0.9460
5.238000 0.9500 0.9460 0.9480 0.9510 0.9530
5.270934 0.9560 0.9580 0.9610 0.9610 0.9550
5.304000 0.9530 0.9500 0.9500 0.9510 0.9510
5.336934 0.9550 0.9560 0.9530 0.9510 0.9480
5.369000 0.9450 0.9380 0.9300 0.9400 0.9460
5.401934 0.9510 0.9550 0.9580 0.9580 0.9530
5.435000 0.9510 0.9480 0.9480 0.9460 0.9460
5.467934 0.9480 0.9610 0.9560 0.9510 0.9480
5.501000 0.9460 0.9430 0.9450 0.9450 0.9410
5.533934 0.9360 0.9310 0.9260 0.9210 0.9180
5.567000 0.9160 0.9150 0.9160 0.9280 0.9330
5.599934 0.9400 0.9400 0.9400 0.9380 0.9360
5.633000 0.9360 0.9360 0.9350 0.9330 0.9350
5.665934 0.9350 0.9360 0.9360 0.9310 0.9310
5.699000 0.9310 0.9280 0.9250 0.9180 0.9110
5.731934 0.9030 0.9030 0.9010 0.9000 0.8950
5.764000 0.8900 0.8930 0.8930 0.8880 0.8800
5.796934 0.8700 0.8620 0.8550 0.8520 0.8520
5.830000 0.8500 0.8450 0.8300 0.8200 0.8150
5.862934 0.8050 0.8000 0.7990 0.7920 0.7820
5.896000 0.7620 0.7340 0.7140 0.6990 0.6860
5.928934 0.6710 0.6470 0.6120 0.5940 0.5260
5.962000 0.5080 0.4830 0.4760 0.4750 0.4780
5.994934 0.4960 0.5030 0.5090 0.5310 0.5410
6.028000 0.5510 0.5640 0.5810 0.6010 0.6260
6.060934 0.6540 0.6660 0.6790 0.6860 0.6940
6.094000 0.7070 0.7190 0.7240 0.7250 0.7290
6.126934 0.7300 0.7320 0.7370 0.7400 0.7400
6.159000 0.7420 0.7440 0.7450 0.7450 0.7470
6.191934 0.7500 0.7500 0.7520 0.7520 0.7540
6.225000 0.7550 0.7590 0.7620 0.7650 0.7670
6.257934 0.7690 0.7700 0.7720 0.7700 0.7590
6.291000 0.7590 0.7620 0.7700 0.7720 0.7720
6.323934 0.7690 0.7650 0.7620 0.7550 0.7500
6.357000 0.7500 0.7500 0.7500 0.7500 0.7520
6.389934 0.7570 0.7620 0.7670 0.7670 0.7550
6.423000 0.7500 0.7470 0.7450 0.7440 0.7420
6.455934 0.7400 0.7400 0.7390 0.7390 0.7390
6.489000 0.7450 0.7450 0.7440 0.7340 0.7300
6.521934 0.7270 0.7240 0.7220 0.7200 0.7190
6.554000 0.7190 0.7120 0.7050 0.6960 0.6870
6.586934 0.6820 0.6760 0.6690 0.6670 0.6670
6.620000 0.6640 0.6620 0.6560 0.6510 0.6490
6.652934 0.6440 0.6390 0.6340 0.6310 0.6260
6.686000 0.6170 0.6020 0.5980 0.5840 0.5660
6.718934 0.5430 0.5180 0.4700 0.4500 0.4330
6.752000 0.4130 0.3870 0.3530 0.3130 0.2690
6.784934 0.2200 0.1670 0.1160 0.0890 0.0880
6.818000 0.0880 0.0890 0.0890 0.0930 0.0960
6.850934 0.0980 0.0980 0.0990 0.0990 0.0990
6.884000 0.1010 0.1070 0.1140 0.1220 0.1310
6.916934 0.1410 0.1510 0.1620 0.1720 0.1860
6.950000 0.1970 0.2100 0.2220 0.2270 0.2300
6.982934 0.2340 0.2350 0.2390 0.2420 0.2450
7.015000 0.2500 0.2590 0.2690 0.2800 0.2950
7.047934 0.3100 0.3200 0.3270 0.3380 0.3570
7.081000 0.3650 0.3700 0.3750 0.3830 0.3900
7.113934 0.3880 0.3870 0.3850 0.3830 0.3830
7.147000 0.3830 0.3830 0.3830 0.3900 0.3900
7.179934 0.3850 0.3520 0.3080 0.2740 0.2470
7.213000 0.2190 0.1870 0.1410 0.1110 0.0880
7.245934 0.0610 0.0580 0.0580 0.0590 0.0960
7.279000 0.1170 0.1370 0.1520 0.1620 0.1690
7.311934 0.1710 0.1490 0.1490 0.1490 0.1740
7.345000 0.2920 0.3470 0.3730 0.4160 0.4360
7.377934 0.4360 0.4310 0.4300 0.4230 0.4180
7.410000 0.4160 0.3850 0.3850 0.3970 0.4450
7.442934 0.4800 0.4930 0.5060 0.5230 0.5380
7.476000 0.5490 0.5510 0.5530 0.5490 0.5210
7.508934 0.5060 0.4610 0.4310 0.4210 0.4210
7.542000 0.4400 0.4630 0.4750 0.4980 0.5060
7.574934 0.5140 0.5240 0.5260 0.5190 0.5130
7.608000 0.4800 0.4650 0.4530 0.4380 0.4200
7.640934 0.3900 0.3820 0.3730 0.3650 0.3600
7.674000 0.3530 0.3480 0.3430 0.3370 0.3300
7.706934 0.3220 0.3120 0.3000 0.2870 0.2690
7.740000 0.2540 0.2320 0.2290 0.2290 0.2290
7.772934 0.2290 0.2440 0.2640 0.2800 0.2950
7.805000 0.3070 0.3180 0.3300 0.3430 0.3550
7.837934 0.3700 0.3850 0.4050 0.4250 0.4500
7.871000 0.4800 0.4980 0.5140 0.5390 0.5530
7.903934 0.5740 0.5760 0.5840 0.5940 0.5980
7.937000 0.6040 0.6090 0.6090 0.6070 0.6070
7.969934 0.6070 0.6070 0.6060 0.5990 0.5940
8.003000 0.5910 0.5840 0.5790 0.5710 0.5580
8.035934 0.5430 0.5210 0.5060 0.4800 0.4660
8.069000 0.4530 0.4380 0.4230 0.4050 0.3850
8.101934 0.3620 0.3330 0.3120 0.2990 0.2900
8.135000 0.2840 0.2740 0.2570 0.2270 0.2070
8.167934 0.1860 0.1810 0.1670 0.1660 0.1690
8.200000 0.1970 0.2340 0.2700 0.3050 0.3370
8.232934 0.3680 0.3980 0.4260 0.4530 0.4760
8.266000 0.4910 0.5000 0.5060 0.5180 0.5280
8.298934 0.5390 0.5480 0.5560 0.5630 0.5710
8.332000 0.5780 0.5830 0.5880 0.5940 0.5980
8.364934 0.6020 0.6040 0.6060 0.6070 0.6090
8.398000 0.6110 0.6110 0.6110 0.6110 0.6110
8.430934 0.6110 0.6110 0.6110 0.6110 0.6110
8.464000 0.6110 0.6110 0.6110 0.6110 0.6090
8.496934 0.6070 0.6060 0.6040 0.6020 0.5990
8.530000 0.5960 0.5930 0.5910 0.5890 0.5880
8.562934 0.5840 0.5810 0.5790 0.5780 0.5760
8.595000 0.5710 0.5630 0.5540 0.5460 0.5360
8.627934 0.5240 0.5130 0.5010 0.4680 0.4510
8.661000 0.4360 0.4200 0.4030 0.3830 0.3650
8.693934 0.3400 0.3150 0.2890 0.2670 0.2470
8.727000 0.2190 0.1960 0.1790 0.1740 0.1740
8.759934 0.1810 0.2120 0.2340 0.2520 0.2690
8.793000 0.2900 0.3170 0.3250 0.3370 0.3430
8.825934 0.3430 0.3370 0.2950 0.2740 0.2470
8.859000 0.2190 0.1870 0.1590 0.1310 0.1120
8.891934 0.0840 0.0490 0.0480 0.0480 0.0480
8.925000 0.0480 0.0560 0.0630 0.0810 0.1020
8.957934 0.1260 0.1510 0.1790 0.2090 0.2390
8.990000 0.2690 0.3000 0.3300 0.3600 0.3870
9.022934 0.4060 0.4200 0.4300 0.4410 0.4410
9.056000 0.4400 0.4310 0.4250 0.4130 0.4000
9.088934 0.3830 0.3670 0.3470 0.3280 0.3070
9.122000 0.2850 0.2640 0.2420 0.2190 0.1960
9.154934 0.1720 0.1510 0.1290 0.1090 0.0890
9.188000 0.0710 0.0560 0.0460 0.0430 0.0410
9.220934 0.0390 0.0390 0.0380 0.0380 0.0380
9.254000 0.0380 0.0380 0.0380 0.0360 0.0330
9.286934 0.0310 0.0280 0.0280 0.0280 0.0280
9.320000 0.0280 0.0290 0.0310 0.0330 0.0360
9.352934 0.0380 0.0380 0.0380 0.0390 0.0380
9.386000 0.0410 0.0480 0.0560 0.0630 0.0680
9.418934 0.0740 0.0810 0.0880 0.0980 0.1070
9.451000 0.1090 0.1110 0.1160 0.1170 0.1170
9.483934 0.1160 0.1060 0.1010 0.0940 0.0910
9.517000 0.0840 0.0780 0.0680 0.0540 0.0480
9.549934 0.0460 0.0410 0.0390 0.0380 0.0360
9.583000 0.0360 0.0340 0.0340 0.0340 0.0330
9.615934 0.0330 0.0330 0.0310 0.0310 0.0310
9.649000 0.0310 0.0310 0.0310 0.0310 0.0310
9.681934 0.0310 0.0310 0.0310 0.0310 0.0330
9.715000 0.0340 0.0360 0.0380 0.0390 0.0430
9.747934 0.0460 0.0490 0.0530 0.0580 0.0640
9.781000 0.0710 0.0790 0.0890 0.0990 0.1090
9.813934 0.1190 0.1290 0.1390 0.1490 0.1590
9.846000 0.1710 0.1820 0.1940 0.2040 0.2150
9.878934 0.2290 0.2400 0.2520 0.2640 0.2770
9.912000 0.2890 0.3000 0.3100 0.3180 0.3270
9.944934 0.3350 0.3430 0.3530 0.3620 0.3720
9.978000 0.3820 0.3930 0.4030 0.4150 0.4280
10.010934 0.4400 0.4430 0.4480 0.4530 0.4580
10.044000 0.4630 0.4700 0.4750 0.4780 0.4810
10.076934 0.4850 0.4900 0.4900 0.4910 0.4930
10.110000 0.4910 0.4800 0.4660 0.4580 0.4450
10.142934 0.4300 0.4080 0.3850 0.3570 0.3230
10.176000 0.2870 0.2450 0.2150 0.1920 0.1670
10.208934 0.1370 0.1240 0.1090 0.1010 0.0960
10.241000 0.0940 0.0930 0.0910 0.0860 0.0810
10.273934 0.0790 0.0780 0.0810 0.1010 0.1260
10.307000 0.1440 0.1720 0.2020 0.2320 0.2600
10.339934 0.2890 0.3150 0.3400 0.3620 0.3780
10.373000 0.3880 0.4010 0.4260 0.4400 0.4510
10.405934 0.4600 0.4680 0.4780 0.4930 0.4980
10.439000 0.5010 0.5080 0.5140 0.5190 0.5260
10.471934 0.5310 0.5340 0.5390 0.5460 0.5530
10.505000 0.5590 0.5680 0.5690 0.5730 0.5740
10.537934 0.5780 0.5830 0.5860 0.5910 0.5960
10.571000 0.6010 0.6060 0.6090 0.6140 0.6170
10.603934 0.6210 0.6240 0.6260 0.6270 0.6290
10.636000 0.6320 0.6370 0.6410 0.6410 0.6420
10.668934 0.6440 0.6470 0.6470 0.6470 0.6470
10.702000 0.6470 0.6470 0.6490 0.6520 0.6560
10.734934 0.6570 0.6590 0.6610 0.6610 0.6620
10.768000 0.6620 0.6620 0.6620 0.6620 0.6620
10.800934 0.6620 0.6620 0.6660 0.6670 0.6740
10.834000 0.6740 0.6740 0.6740 0.6640 0.6620
10.866934 0.6610 0.6560 0.6560 0.6540 0.6540
10.900000 0.6510 0.6410 0.6320 0.6260 0.6210
10.932934 0.6160 0.6010 0.5890 0.5690 0.5440
10.966000 0.5230 0.5040 0.4460 0.4350 0.4030
10.998934 0.3680 0.3320 0.3220 0.3080 0.3100
11.031000 0.3320 0.3780 0.4180 0.4550 0.4860
11.063934 0.5010 0.5140 0.5390 0.5610 0.5810
11.097000 0.5960 0.6110 0.6220 0.6320 0.6410
11.129934 0.6470 0.6540 0.6590 0.6610 0.6660
11.163000 0.6710 0.6720 0.6720 0.6740 0.6740
11.195934 0.6740 0.6760 0.6760 0.6770 0.6770
11.229000 0.6770 0.6770 0.6790 0.6790 0.6790
11.261934 0.6790 0.6790 0.6790 0.6770 0.6760
11.295000 0.6710 0.6640 0.6590 0.6570 0.6520
11.327934 0.6440 0.6360 0.6260 0.6140 0.6020
11.361000 0.5880 0.5730 0.5430 0.5130 0.4600
11.393934 0.4350 0.4060 0.3730 0.3650 0.3430
11.426000 0.3400 0.3400 0.3750 0.4150 0.4480
11.458934 0.4730 0.4950 0.5040 0.5130 0.5310
11.492000 0.5490 0.5640 0.5730 0.5790 0.5830
11.524934 0.5860 0.5930 0.6010 0.6020 0.6040
11.558000 0.6060 0.6070 0.6090 0.6090 0.6110
11.590934 0.6120 0.6120 0.6110 0.6110 0.6090
11.624000 0.6070 0.6060 0.6060 0.6040 0.6010
11.656934 0.5990 0.5990 0.5980 0.5960 0.5940
11.690000 0.5930 0.5880 0.5830 0.5790 0.5760
11.722934 0.5730 0.5690 0.5660 0.5610 0.5580
11.756000 0.5530 0.5490 0.5460 0.5430 0.5380
11.788934 0.5340 0.5290 0.5260 0.5190 0.5080
11.822000 0.5040 0.4910 0.4900 0.4860 0.4780
11.854934 0.4700 0.4630 0.4510 0.4450 0.4360
11.887000 0.4360 0.4250 0.4100 0.3920 0.3780
11.919934 0.3700 0.3670 0.3620 0.3430 0.3050
11.953000 0.3000 0.2900 0.2740 0.2520 0.2340
11.985934 0.2190 0.2040 0.1890 0.1690 0.1510
12.019000 0.1370 0.1260 0.1160 0.0990 0.0980
12.051934 0.0990 0.0990 0.1060 0.1170 0.1270
12.085000 0.1360 0.1440 0.1510 0.1570 0.1640
12.117934 0.1710 0.1790 0.1870 0.1960 0.2050
12.151000 0.2170 0.2290 0.2400 0.2540 0.2670
12.183934 0.2820 0.2970 0.3080 0.3200 0.3250
12.217000 0.3300 0.3300 0.3320 0.3320 0.3320
12.249934 0.3320 0.3320 0.3270 0.3220 0.3180
12.282000 0.3120 0.3070 0.3000 0.2940 0.2850
12.314934 0.2770 0.2690 0.2600 0.2500 0.2400
12.348000 0.2320 0.2200 0.2120 0.1990 0.1890
12.380934 0.1790 0.1710 0.1620 0.1540 0.1460
12.414000 0.1370 0.1290 0.1190 0.1090 0.0960
12.446934 0.0960 0.0890 0.0840 0.0780 0.0730
12.480000 0.0710 0.0690 0.0710 0.0730 0.0740
12.512934 0.0740 0.0860 0.0880 0.0960 0.1040
12.546000 0.1120 0.1220 0.1310 0.1410 0.1520
12.578934 0.1620 0.1720 0.1810 0.1910 0.2000
12.612000 0.2090 0.2150 0.2220 0.2300 0.2370
12.644934 0.2450 0.2470 0.2540 0.2570 0.2640
12.677000 0.2700 0.2720 0.2750 0.2770 0.2800
12.709934 0.2840 0.2870 0.2920 0.2970 0.2990
12.743000 0.3000 0.3020 0.3050 0.3070 0.3080
12.775934 0.3080 0.3100 0.3100 0.3100 0.3120
12.809000 0.3120 0.3120 0.3130 0.3130 0.3150
12.841934 0.3180 0.3180 0.3170 0.3120 0.3130
12.875000 0.3180 0.3200 0.3220 0.3230 0.3150
12.907934 0.3130 0.3170 0.3200 0.3200 0.3180
12.941000 0.3180 0.3180 0.3170 0.3150 0.3150
12.973934 0.3150 0.3130 0.3130 0.3130 0.3130
13.007000 0.3120 0.3120 0.3120 0.3100 0.3100
13.039934 0.3070 0.3030 0.3020 0.3000 0.2990
13.072000 0.2990 0.2970 0.2970 0.2950 0.2950
13.104934 0.2940 0.2900 0.2890 0.2890 0.2870
13.138000 0.2850 0.2820 0.2800 0.2790 0.2770
13.170934 0.2750 0.2720 0.2700 0.2670 0.2650
13.204000 0.2620 0.2600 0.2590 0.2570 0.2570
13.236934 0.2550 0.2540 0.2520 0.2520 0.2500
13.270000 0.2500 0.2490 0.2450 0.2440 0.2440
13.302934 0.2420 0.2400 0.2390 0.2390 0.2370
13.336000 0.2350 0.2350 0.2340 0.2340 0.2320
13.368934 0.2300 0.2270 0.2270 0.2240 0.2240
13.402000 0.2220 0.2240 0.2240 0.2240 0.2220
13.434934 0.2220 0.2200 0.2190 0.2170 0.2190
13.467000 0.2190 0.2120 0.2120 0.2200 0.2200
13.499934 0.2190 0.2170 0.2150 0.2140 0.2120
13.533000 0.2120 0.2120 0.2120 0.2170 0.2170
13.565934 0.2170 0.2170 0.2170 0.2150 0.2150
13.599000 0.2150 0.2150 0.2170 0.2170 0.2170
13.631934 0.2170 0.2150 0.2170 0.2170 0.2190
13.665000 0.2170 0.2170 0.2150 0.2140 0.2150
13.697934 0.2170 0.2220 0.2220 0.2200 0.2190
13.731000 0.2190 0.2170 0.2170 0.2170 0.2150
13.763934 0.2170 0.2190 0.2200 0.2200 0.2200
13.797000 0.2190 0.2170 0.2150 0.2170 0.2170
13.829934 0.2150 0.2140 0.2120 0.2100 0.2090
13.862000 0.2090 0.2070 0.2070 0.2070 0.2070
13.894934 0.2070 0.2090 0.2120 0.2140 0.2140
13.928000 0.2150 0.2150 0.2170 0.2170 0.2170
13.960934 0.2170 0.2170 0.2200 0.2220 0.2220
13.994000 0.2240 0.2240 0.2240 0.2240 0.2250
14.026934 0.2250 0.2290 0.2320 0.2340 0.2340
14.060000 0.2350 0.2390 0.2400 0.2450 0.2470
14.092934 0.2490 0.2490 0.2500 0.2520 0.2550
14.126000 0.2600 0.2650 0.2670 0.2690 0.2690
14.158934 0.2700 0.2700 0.2720 0.2740 0.2770
14.192000 0.2800 0.2840 0.2890 0.2940 0.2970
14.224934 0.3020 0.3030 0.3050 0.3080 0.3120
14.257000 0.3150 0.3170 0.3200 0.3230 0.3270
14.289934 0.3270 0.3300 0.3330 0.3370 0.3380
14.323000 0.3420 0.3450 0.3470 0.3500 0.3530
14.355934 0.3550 0.3570 0.3600 0.3630 0.3650
14.389000 0.3680 0.3720 0.3750 0.3780 0.3820
14.421934 0.3870 0.3900 0.3930 0.3980 0.4010
14.455000 0.4050 0.4050 0.4060 0.4100 0.4150
14.487934 0.4200 0.4230 0.4260 0.4280 0.4300
14.521000 0.4310 0.4330 0.4350 0.4380 0.4410
14.553934 0.4430 0.4460 0.4500 0.4550 0.4560
14.587000 0.4560 0.4580 0.4610 0.4650 0.4650
14.619934 0.4680 0.4700 0.4710 0.4730 0.4750
14.653000 0.4780 0.4800 0.4830 0.4860 0.4910
14.685934 0.4930 0.4930 0.4930 0.4950 0.4950
14.718000 0.4950 0.4960 0.4960 0.5000 0.5030
14.750934 0.5040 0.5060 0.5060 0.5060 0.5060
14.784000 0.5080 0.5090 0.5130 0.5140 0.5160
14.816934 0.5180 0.5190 0.5190 0.5190 0.5190
14.850000 0.5180 0.5160 0.5160 0.5160 0.5160
14.882934 0.5160 0.5160 0.5180 0.5190 0.5190
14.916000 0.5190 0.5190 0.5140 0.5130 0.5110
14.948934 0.5110 0.5060 0.5030 0.5000 0.4960
14.982000 0.4960 0.4960 0.4960 0.4960 0.4960
15.014934 0.4950 0.4950 0.4930 0.4880 0.4850
15.048000 0.4810 0.4760 0.4710 0.4660 0.4630
15.080934 0.4580 0.4530 0.4480 0.4430 0.4380
15.113000 0.4310 0.4260 0.4210 0.4150 0.4080
15.145934 0.4050 0.4030 0.4010 0.4010 0.4000
15.179000 0.3970 0.3950 0.3930 0.3920 0.3900
15.211934 0.3880 0.3880 0.3880 0.3880 0.3880
15.245000 0.3900 0.3970 0.4000 0.4050 0.4060
15.277934 0.4100 0.4130 0.4150 0.4160 0.4200
15.311000 0.4230 0.4260 0.4300 0.4310 0.4310
15.343934 0.4350 0.4380 0.4410 0.4460 0.4500
15.377000 0.4550 0.4580 0.4600 0.4630 0.4660
15.409934 0.4700 0.4730 0.4760 0.4800 0.4830
15.443000 0.4860 0.4900 0.4930 0.4950 0.4980
15.475934 0.5000 0.5010 0.5030 0.5060 0.5080
15.508000 0.5110 0.5130 0.5140 0.5160 0.5180
15.540934 0.5180 0.5190 0.5210 0.5230 0.5240
15.574000 0.5290 0.5290 0.5310 0.5330 0.5340
15.606934 0.5360 0.5360 0.5390 0.5440 0.5460
15.640000 0.5460 0.5480 0.5480 0.5490 0.5490
15.672934 0.5530 0.5530 0.5540 0.5540 0.5560
15.706000 0.5560 0.5580 0.5580 0.5580 0.5580
15.738934 0.5580 0.5580 0.5580 0.5580 0.5580
15.772000 0.5580 0.5580 0.5580 0.5590 0.5590
15.804934 0.5590 0.5590 0.5590 0.5590 0.5590
15.838000 0.5590 0.5590 0.5590 0.5590 0.5590
15.870934 0.5590 0.5590 0.5610 0.5630 0.5630
15.903000 0.5610 0.5630 0.5630 0.5640 0.5660
15.935934 0.5660 0.5660 0.5660 0.5640
##END=
