##TITLE=DITHIOLOXALIC ACID, DIPOTASSIUM SALT
$$ E. K. CO. (WHITE LABEL)
##JCAMP-DX=4.24
##DATA TYPE=INFRARED SPECTRUM
##CLASS=COBLENTZ
##ORIGIN=WYANDOTTE CHEMICALS CORP., WYANDOTTE, MICHIGAN, USA
##OWNER=COBLENTZ SOCIETY
Collection (C) 2018 copyright by the U.S. Secretary of Commerce
on behalf of the United States of America. All rights reserved.
##DATE=Not specified, most likely prior to 1970
##MOLFORM=C2 O2 S2 K2
##SOURCE REFERENCE=COBLENTZ NO. 2894
##$NIST ID=B6002894
##$NIST SOURCE=COBLENTZ
##$NIST IMAGE=cob2894
##SPECTROMETER/DATA SYSTEM=Not specified, most likely a prism, grating, or hybrid spectrometer.
##STATE=SOLID (MINERAL OIL MULL)
##PATH LENGTH=
$$SPECTRAL CONTAMINATION DUE TO OIL AROUND 2900, 1450, 1380 CM^-^1
##SAMPLING PROCEDURE=TRANSMISSION
##RESOLUTION=4
##DATA PROCESSING=DIGITIZED BY NIST FROM HARD COPY
##XUNITS=MICROMETERS
##YUNITS=TRANSMITTANCE
##XFACTOR=1.000000
##YFACTOR=1
##DELTAX=000.006635
##FIRSTX=2.013
##LASTX=15.9735
##FIRSTY=0.704
##MAXX=15.9735
##MINX=2.013
##MAXY=0.928
##MINY=0.021
##NPOINTS=2105
##XYDATA=(X++(Y..Y))
2.013000 0.7040 0.7060 0.7060 0.7080 0.7080
2.046191 0.7080 0.7090 0.7090 0.7110 0.7110
2.080000 0.7130 0.7140 0.7160 0.7160 0.7180
2.113191 0.7180 0.7190 0.7210 0.7230 0.7230
2.146000 0.7240 0.7240 0.7240 0.7240 0.7260
2.179191 0.7260 0.7260 0.7260 0.7240 0.7230
2.212000 0.7210 0.7210 0.7180 0.7160 0.7140
2.245191 0.7140 0.7130 0.7110 0.7110 0.7090
2.279000 0.7090 0.7090 0.7090 0.7090 0.7090
2.312191 0.7090 0.7090 0.7110 0.7110 0.7110
2.345000 0.7130 0.7140 0.7160 0.7160 0.7160
2.378191 0.7180 0.7180 0.7180 0.7190 0.7210
2.411000 0.7240 0.7280 0.7280 0.7290 0.7310
2.444191 0.7330 0.7340 0.7340 0.7360 0.7360
2.478000 0.7370 0.7370 0.7390 0.7410 0.7420
2.511191 0.7440 0.7460 0.7470 0.7490 0.7490
2.544000 0.7510 0.7520 0.7540 0.7560 0.7560
2.577191 0.7570 0.7570 0.7610 0.7620 0.7660
2.610000 0.7690 0.7710 0.7740 0.7740 0.7710
2.643191 0.7690 0.7690 0.7710 0.7720 0.7760
2.677000 0.7810 0.7870 0.7890 0.7890 0.7910
2.710191 0.7910 0.7910 0.7920 0.7940 0.7960
2.743000 0.7970 0.7970 0.7970 0.7970 0.7970
2.776191 0.7970 0.7970 0.7960 0.7960 0.7910
2.809000 0.7870 0.7840 0.7810 0.7770 0.7720
2.842191 0.7690 0.7620 0.7610 0.7590 0.7560
2.876000 0.7510 0.7460 0.7410 0.7370 0.7330
2.909191 0.7280 0.7240 0.7210 0.7190 0.7180
2.942000 0.7130 0.7090 0.7080 0.7030 0.7010
2.975191 0.6990 0.6960 0.6940 0.6930 0.6910
3.009000 0.6880 0.6830 0.6810 0.6790 0.6760
3.042191 0.6740 0.6740 0.6730 0.6730 0.6730
3.075000 0.6710 0.6710 0.6710 0.6710 0.6710
3.108191 0.6710 0.6730 0.6730 0.6740 0.6740
3.141000 0.6760 0.6760 0.6780 0.6790 0.6810
3.174191 0.6830 0.6840 0.6860 0.6880 0.6890
3.208000 0.6930 0.6980 0.6990 0.7010 0.7040
3.241191 0.7080 0.7080 0.7090 0.7090 0.7090
3.274000 0.7090 0.7090 0.7080 0.6960 0.6890
3.307191 0.6840 0.6740 0.6650 0.6500 0.6260
3.340000 0.6030 0.5800 0.5550 0.5220 0.4800
3.373191 0.4290 0.3630 0.2780 0.2100 0.0790
3.407000 0.0210 0.0210 0.0230 0.0340 0.0340
3.440191 0.0360 0.0360 0.0340 0.0340 0.0360
3.473000 0.0410 0.0460 0.0530 0.0630 0.0670
3.506191 0.0770 0.0810 0.0810 0.0790 0.0740
3.539000 0.0720 0.0740 0.0770 0.1450 0.2230
3.572191 0.3130 0.3910 0.4460 0.4920 0.5270
3.606000 0.5530 0.5680 0.5780 0.5820 0.5880
3.639191 0.5970 0.6000 0.6010 0.6030 0.6030
3.672000 0.6030 0.6010 0.6000 0.5980 0.5970
3.705191 0.5920 0.5900 0.5900 0.5900 0.5920
3.738000 0.5930 0.5950 0.5950 0.5970 0.5980
3.771191 0.5980 0.6000 0.6000 0.6010 0.6010
3.805000 0.6030 0.6030 0.6050 0.6050 0.6050
3.838191 0.6060 0.6080 0.6100 0.6110 0.6160
3.871000 0.6180 0.6200 0.6210 0.6210 0.6250
3.904191 0.6260 0.6280 0.6300 0.6310 0.6330
3.937000 0.6350 0.6360 0.6380 0.6400 0.6410
3.970191 0.6430 0.6430 0.6450 0.6450 0.6480
4.004000 0.6510 0.6530 0.6530 0.6550 0.6550
4.037191 0.6560 0.6560 0.6580 0.6580 0.6580
4.070000 0.6600 0.6610 0.6610 0.6610 0.6630
4.103191 0.6630 0.6650 0.6650 0.6660 0.6660
4.136000 0.6660 0.6680 0.6680 0.6680 0.6690
4.169191 0.6690 0.6710 0.6710 0.6710 0.6730
4.203000 0.6730 0.6740 0.6740 0.6740 0.6740
4.236191 0.6760 0.6760 0.6780 0.6780 0.6780
4.269000 0.6780 0.6780 0.6760 0.6730 0.6730
4.302191 0.6710 0.6690 0.6690 0.6680 0.6680
4.336000 0.6680 0.6680 0.6690 0.6690 0.6710
4.369191 0.6730 0.6760 0.6780 0.6790 0.6830
4.402000 0.6890 0.6990 0.7040 0.7080 0.7110
4.435191 0.7130 0.7130 0.7130 0.7130 0.7130
4.468000 0.7130 0.7130 0.7140 0.7140 0.7140
4.501191 0.7140 0.7160 0.7160 0.7180 0.7190
4.535000 0.7210 0.7240 0.7280 0.7280 0.7290
4.568191 0.7290 0.7310 0.7310 0.7310 0.7330
4.601000 0.7340 0.7340 0.7290 0.7280 0.7260
4.634191 0.7260 0.7280 0.7310 0.7330 0.7340
4.667000 0.7370 0.7390 0.7410 0.7440 0.7460
4.700191 0.7470 0.7490 0.7510 0.7510 0.7520
4.734000 0.7520 0.7540 0.7540 0.7570 0.7610
4.767191 0.7610 0.7620 0.7640 0.7660 0.7660
4.800000 0.7690 0.7710 0.7760 0.7770 0.7770
4.833191 0.7790 0.7790 0.7790 0.7810 0.7820
4.866000 0.7840 0.7840 0.7840 0.7860 0.7870
4.899191 0.7910 0.7940 0.7960 0.7960 0.7960
4.933000 0.7970 0.7970 0.7970 0.7990 0.7990
4.966191 0.8000 0.8000 0.8020 0.8020 0.8020
4.999000 0.8040 0.8040 0.8050 0.8050 0.8050
5.032191 0.8070 0.8090 0.8100 0.8150 0.8190
5.065000 0.8220 0.8240 0.8250 0.8250 0.8220
5.098191 0.8200 0.8200 0.8190 0.8170 0.8140
5.132000 0.8120 0.8090 0.8040 0.7940 0.7940
5.165191 0.7990 0.8090 0.8150 0.8220 0.8250
5.198000 0.8300 0.8340 0.8350 0.8370 0.8390
5.231191 0.8400 0.8440 0.8450 0.8490 0.8500
5.264000 0.8500 0.8500 0.8520 0.8550 0.8600
5.297191 0.8640 0.8650 0.8650 0.8670 0.8670
5.331000 0.8680 0.8680 0.8680 0.8700 0.8700
5.364191 0.8720 0.8750 0.8770 0.8780 0.8780
5.397000 0.8780 0.8800 0.8800 0.8800 0.8820
5.430191 0.8830 0.8870 0.8880 0.8880 0.8880
5.464000 0.8880 0.8900 0.8930 0.8950 0.8970
5.497191 0.8980 0.8980 0.9000 0.9000 0.9020
5.530000 0.9020 0.9050 0.9050 0.9120 0.9120
5.563191 0.9130 0.9130 0.9130 0.9150 0.9150
5.596000 0.9150 0.9150 0.9150 0.9150 0.9150
5.629191 0.9150 0.9130 0.9130 0.9120 0.9080
5.663000 0.9070 0.9070 0.9070 0.9080 0.9150
5.696191 0.9200 0.9270 0.9270 0.9280 0.9280
5.729000 0.9270 0.9220 0.9170 0.9120 0.9070
5.762191 0.8970 0.8850 0.8830 0.8820 0.8820
5.795000 0.8850 0.9020 0.9130 0.9170 0.9170
5.828191 0.9000 0.9000 0.9050 0.9120 0.9170
5.862000 0.9170 0.9120 0.9030 0.8950 0.8920
5.895191 0.8850 0.8800 0.8780 0.8770 0.8770
5.928000 0.8730 0.8650 0.8570 0.8540 0.8490
5.961191 0.8470 0.8440 0.8400 0.8320 0.8250
5.994000 0.8150 0.8070 0.7990 0.7970 0.7910
6.027191 0.7840 0.7720 0.7590 0.7410 0.7330
6.061000 0.7210 0.7140 0.7040 0.6940 0.6830
6.094191 0.6690 0.6550 0.6400 0.6250 0.6100
6.127000 0.5950 0.5800 0.5670 0.5530 0.5420
6.160191 0.5300 0.5220 0.5150 0.5090 0.4990
6.193000 0.4850 0.4690 0.4540 0.4460 0.4390
6.226191 0.4270 0.4190 0.4140 0.4070 0.4020
6.260000 0.3960 0.3910 0.3890 0.3880 0.3890
6.293191 0.3910 0.3930 0.3930 0.3910 0.3890
6.326000 0.3830 0.3780 0.3710 0.3640 0.3540
6.359191 0.3460 0.3380 0.3330 0.3300 0.3280
6.392000 0.3260 0.3210 0.3150 0.3100 0.3000
6.425191 0.2910 0.2810 0.2760 0.2760 0.2730
6.459000 0.2710 0.2710 0.2700 0.2680 0.2650
6.492191 0.2570 0.2450 0.2370 0.2250 0.2150
6.525000 0.2050 0.1970 0.1920 0.1870 0.1870
6.558191 0.1820 0.1800 0.1790 0.1790 0.1770
6.591000 0.1750 0.1740 0.1700 0.1690 0.1650
6.624191 0.1640 0.1620 0.1600 0.1590 0.1570
6.658000 0.1570 0.1550 0.1550 0.1570 0.1570
6.691191 0.1590 0.1600 0.1620 0.1640 0.1640
6.724000 0.1650 0.1650 0.1690 0.1690 0.1670
6.757191 0.1650 0.1620 0.1590 0.1550 0.1490
6.791000 0.1390 0.1290 0.1190 0.1110 0.1040
6.824191 0.0970 0.0910 0.0870 0.0860 0.0860
6.857000 0.0870 0.0940 0.1020 0.1120 0.1210
6.890191 0.1260 0.1350 0.1400 0.1490 0.1600
6.923000 0.1750 0.1900 0.2030 0.2180 0.2300
6.956191 0.2370 0.2520 0.2700 0.2910 0.3110
6.990000 0.3300 0.3480 0.3640 0.3780 0.3910
7.023191 0.3990 0.4040 0.4090 0.4140 0.4210
7.056000 0.4270 0.4340 0.4390 0.4420 0.4470
7.089191 0.4490 0.4510 0.4520 0.4540 0.4560
7.122000 0.4570 0.4590 0.4610 0.4610 0.4620
7.155191 0.4640 0.4640 0.4660 0.4660 0.4640
7.189000 0.4610 0.4560 0.4490 0.4390 0.4270
7.222191 0.4090 0.3830 0.3560 0.3360 0.3180
7.255000 0.3010 0.2910 0.2750 0.2730 0.2730
7.288191 0.2750 0.2900 0.3080 0.3200 0.3410
7.321000 0.3630 0.3780 0.3930 0.4020 0.4170
7.354191 0.4390 0.4640 0.4840 0.4970 0.5020
7.388000 0.5070 0.5090 0.5100 0.5100 0.5100
7.421191 0.5120 0.5170 0.5200 0.5250 0.5300
7.454000 0.5370 0.5380 0.5430 0.5470 0.5480
7.487191 0.5500 0.5530 0.5580 0.5620 0.5630
7.520000 0.5670 0.5670 0.5670 0.5670 0.5620
7.553191 0.5600 0.5530 0.5430 0.5330 0.5190
7.587000 0.5120 0.4950 0.4740 0.4720 0.4740
7.620191 0.4770 0.4770 0.4750 0.4690 0.4640
7.653000 0.4610 0.4590 0.4570 0.4590 0.4640
7.686191 0.4690 0.4770 0.4870 0.4990 0.5140
7.719000 0.5240 0.5330 0.5430 0.5550 0.5650
7.752191 0.5770 0.5850 0.5930 0.6000 0.6030
7.786000 0.6080 0.6160 0.6280 0.6360 0.6400
7.819191 0.6410 0.6430 0.6460 0.6500 0.6550
7.852000 0.6610 0.6630 0.6660 0.6690 0.6740
7.885191 0.6780 0.6810 0.6840 0.6880 0.6890
7.918000 0.6910 0.6930 0.6930 0.6940 0.6940
7.951191 0.6940 0.6940 0.6940 0.6940 0.6940
7.985000 0.6960 0.6960 0.6980 0.6990 0.7030
8.018191 0.7060 0.7090 0.7110 0.7160 0.7180
8.051000 0.7210 0.7240 0.7280 0.7290 0.7310
8.084191 0.7330 0.7340 0.7360 0.7370 0.7370
8.118000 0.7390 0.7390 0.7420 0.7460 0.7490
8.151191 0.7520 0.7520 0.7560 0.7590 0.7610
8.184000 0.7620 0.7640 0.7670 0.7670 0.7690
8.217191 0.7690 0.7690 0.7710 0.7710 0.7740
8.250000 0.7770 0.7790 0.7810 0.7820 0.7840
8.283191 0.7870 0.7890 0.7920 0.7960 0.7970
8.317000 0.7990 0.8020 0.8040 0.8050 0.8070
8.350191 0.8090 0.8100 0.8120 0.8140 0.8140
8.383000 0.8100 0.8090 0.8070 0.8040 0.8040
8.416191 0.8040 0.8070 0.8090 0.8120 0.8170
8.449000 0.8240 0.8270 0.8270 0.8290 0.8290
8.482191 0.8300 0.8300 0.8320 0.8370 0.8390
8.516000 0.8400 0.8400 0.8400 0.8420 0.8420
8.549191 0.8420 0.8400 0.8390 0.8350 0.8320
8.582000 0.8320 0.8300 0.8270 0.8240 0.8190
8.615191 0.8150 0.8140 0.8100 0.8050 0.8020
8.648000 0.8000 0.7990 0.7970 0.7970 0.7970
8.681191 0.7970 0.7990 0.8000 0.8020 0.8050
8.715000 0.8100 0.8140 0.8190 0.8190 0.8190
8.748191 0.8190 0.8170 0.8170 0.8190 0.8200
8.781000 0.8200 0.8240 0.8290 0.8320 0.8320
8.814191 0.8320 0.8320 0.8320 0.8340 0.8340
8.847000 0.8320 0.8250 0.8170 0.8120 0.7990
8.880191 0.7810 0.7590 0.7340 0.7060 0.6790
8.914000 0.6550 0.6300 0.6010 0.5680 0.5240
8.947191 0.4700 0.4120 0.3540 0.3060 0.2860
8.980000 0.2710 0.2700 0.2700 0.2830 0.2910
9.013191 0.3050 0.3210 0.3380 0.3580 0.3790
9.046000 0.3990 0.4190 0.4390 0.4570 0.4740
9.079191 0.4870 0.4970 0.5100 0.5170 0.5200
9.113000 0.5270 0.5300 0.5380 0.5470 0.5570
9.146191 0.5670 0.5800 0.5920 0.5970 0.6030
9.179000 0.6110 0.6210 0.6330 0.6460 0.6600
9.212191 0.6630 0.6680 0.6740 0.6810 0.6890
9.245000 0.6940 0.6980 0.7010 0.7080 0.7110
9.278191 0.7130 0.7180 0.7210 0.7230 0.7240
9.312000 0.7280 0.7310 0.7330 0.7360 0.7390
9.345191 0.7420 0.7440 0.7460 0.7460 0.7460
9.378000 0.7460 0.7460 0.7470 0.7490 0.7510
9.411191 0.7570 0.7570 0.7610 0.7640 0.7670
9.445000 0.7670 0.7670 0.7620 0.7590 0.7520
9.478191 0.7490 0.7460 0.7420 0.7410 0.7390
9.511000 0.7360 0.7340 0.7330 0.7330 0.7340
9.544191 0.7390 0.7470 0.7560 0.7610 0.7640
9.577000 0.7710 0.7760 0.7790 0.7860 0.7910
9.610191 0.7920 0.7960 0.8000 0.8040 0.8090
9.644000 0.8100 0.8120 0.8170 0.8170 0.8190
9.677191 0.8200 0.8200 0.8190 0.8120 0.8100
9.710000 0.8070 0.8040 0.8020 0.8000 0.8000
9.743191 0.8040 0.8070 0.8140 0.8220 0.8290
9.776000 0.8320 0.8340 0.8370 0.8390 0.8440
9.809191 0.8490 0.8500 0.8520 0.8540 0.8540
9.843000 0.8550 0.8550 0.8540 0.8520 0.8500
9.876191 0.8500 0.8490 0.8490 0.8470 0.8450
9.909000 0.8450 0.8450 0.8440 0.8440 0.8440
9.942191 0.8440 0.8440 0.8420 0.8400 0.8400
9.975000 0.8390 0.8390 0.8350 0.8340 0.8300
10.008191 0.8290 0.8250 0.8240 0.8220 0.8200
10.042000 0.8190 0.8190 0.8190 0.8190 0.8190
10.075191 0.8200 0.8220 0.8250 0.8290 0.8300
10.108000 0.8350 0.8390 0.8420 0.8450 0.8490
10.141191 0.8520 0.8570 0.8600 0.8640 0.8670
10.174000 0.8700 0.8730 0.8730 0.8750 0.8780
10.207191 0.8800 0.8800 0.8800 0.8820 0.8820
10.241000 0.8830 0.8830 0.8830 0.8830 0.8850
10.274191 0.8850 0.8850 0.8870 0.8870 0.8870
10.307000 0.8880 0.8880 0.8920 0.8920 0.8920
10.340191 0.8930 0.8950 0.8950 0.8970 0.8970
10.373000 0.8980 0.8980 0.9000 0.9020 0.9020
10.406191 0.9030 0.9030 0.9030 0.9030 0.9030
10.440000 0.9050 0.9050 0.9050 0.9050 0.9050
10.473191 0.9050 0.9050 0.9070 0.9070 0.9070
10.506000 0.9080 0.9080 0.9080 0.9080 0.9080
10.539191 0.9080 0.9080 0.9080 0.9080 0.9070
10.573000 0.9070 0.9070 0.9070 0.9070 0.9050
10.606191 0.9050 0.9020 0.9020 0.9000 0.9000
10.639000 0.8980 0.8970 0.8950 0.8920 0.8900
10.672191 0.8880 0.8880 0.8870 0.8800 0.8750
10.705000 0.8730 0.8730 0.8730 0.8730 0.8730
10.738191 0.8730 0.8730 0.8720 0.8720 0.8720
10.772000 0.8730 0.8730 0.8750 0.8750 0.8750
10.805191 0.8750 0.8750 0.8750 0.8730 0.8730
10.838000 0.8720 0.8720 0.8680 0.8680 0.8670
10.871191 0.8640 0.8620 0.8600 0.8590 0.8550
10.904000 0.8500 0.8470 0.8420 0.8390 0.8370
10.937191 0.8340 0.8300 0.8270 0.8240 0.8200
10.971000 0.8170 0.8140 0.8120 0.8090 0.8050
11.004191 0.8000 0.7970 0.7940 0.7910 0.7840
11.037000 0.7770 0.7720 0.7640 0.7590 0.7570
11.070191 0.7520 0.7460 0.7410 0.7340 0.7280
11.103000 0.7190 0.7130 0.7060 0.7010 0.6940
11.136191 0.6910 0.6860 0.6810 0.6760 0.6710
11.170000 0.6650 0.6580 0.6500 0.6410 0.6310
11.203191 0.6230 0.6150 0.6050 0.5950 0.5850
11.236000 0.5750 0.5630 0.5530 0.5430 0.5330
11.269191 0.5220 0.5120 0.5020 0.4920 0.4840
11.302000 0.4740 0.4660 0.4570 0.4510 0.4420
11.335191 0.4360 0.4270 0.4170 0.4060 0.3960
11.369000 0.3860 0.3740 0.3640 0.3540 0.3430
11.402191 0.3300 0.3160 0.3030 0.2900 0.2760
11.435000 0.2660 0.2550 0.2450 0.2350 0.2300
11.468191 0.2250 0.2200 0.2150 0.2120 0.2100
11.501000 0.2080 0.2080 0.2080 0.2080 0.2080
11.534191 0.2100 0.2150 0.2200 0.2270 0.2300
11.568000 0.2330 0.2380 0.2420 0.2470 0.2500
11.601191 0.2530 0.2680 0.2750 0.2800 0.2830
11.634000 0.2880 0.2950 0.3010 0.3080 0.3160
11.667191 0.3250 0.3340 0.3440 0.3510 0.3540
11.700000 0.3590 0.3610 0.3630 0.3640 0.3680
11.733191 0.3740 0.3810 0.3880 0.3930 0.3990
11.767000 0.4040 0.4110 0.4170 0.4240 0.4310
11.800191 0.4390 0.4460 0.4510 0.4560 0.4610
11.833000 0.4660 0.4700 0.4750 0.4800 0.4870
11.866191 0.4920 0.4990 0.5040 0.5100 0.5140
11.900000 0.5190 0.5200 0.5270 0.5320 0.5370
11.933191 0.5400 0.5430 0.5470 0.5520 0.5550
11.966000 0.5620 0.5670 0.5680 0.5730 0.5780
11.999191 0.5850 0.5900 0.5930 0.5970 0.6000
12.032000 0.6010 0.6050 0.6080 0.6110 0.6180
12.065191 0.6210 0.6250 0.6280 0.6280 0.6300
12.099000 0.6330 0.6380 0.6410 0.6430 0.6460
12.132191 0.6500 0.6510 0.6530 0.6580 0.6600
12.165000 0.6610 0.6630 0.6660 0.6680 0.6680
12.198191 0.6690 0.6710 0.6740 0.6780 0.6810
12.231000 0.6840 0.6880 0.6890 0.6910 0.6930
12.264191 0.6960 0.6990 0.7030 0.7040 0.7060
12.298000 0.7080 0.7080 0.7080 0.7090 0.7110
12.331191 0.7130 0.7140 0.7140 0.7180 0.7210
12.364000 0.7230 0.7260 0.7280 0.7290 0.7310
12.397191 0.7340 0.7360 0.7390 0.7390 0.7410
12.430000 0.7410 0.7420 0.7420 0.7420 0.7420
12.463191 0.7440 0.7460 0.7510 0.7540 0.7560
12.497000 0.7570 0.7560 0.7570 0.7570 0.7590
12.530191 0.7610 0.7620 0.7660 0.7660 0.7670
12.563000 0.7690 0.7690 0.7710 0.7710 0.7720
12.596191 0.7740 0.7740 0.7760 0.7760 0.7770
12.629000 0.7770 0.7810 0.7810 0.7820 0.7820
12.662191 0.7840 0.7840 0.7840 0.7860 0.7860
12.696000 0.7870 0.7870 0.7870 0.7870 0.7870
12.729191 0.7870 0.7860 0.7840 0.7810 0.7770
12.762000 0.7760 0.7710 0.7670 0.7620 0.7590
12.795191 0.7540 0.7490 0.7460 0.7440 0.7410
12.828000 0.7390 0.7360 0.7340 0.7340 0.7310
12.861191 0.7290 0.7260 0.7230 0.7210 0.7190
12.895000 0.7180 0.7180 0.7160 0.7160 0.7140
12.928191 0.7130 0.7130 0.7130 0.7130 0.7140
12.961000 0.7140 0.7160 0.7180 0.7210 0.7280
12.994191 0.7330 0.7340 0.7360 0.7370 0.7390
13.027000 0.7420 0.7460 0.7470 0.7510 0.7560
13.060191 0.7590 0.7640 0.7690 0.7760 0.7790
13.094000 0.7820 0.7840 0.7870 0.7890 0.7910
13.127191 0.7910 0.7920 0.7940 0.7970 0.8000
13.160000 0.8020 0.8020 0.8040 0.8050 0.8050
13.193191 0.8070 0.8090 0.8090 0.8100 0.8100
13.227000 0.8100 0.8120 0.8120 0.8120 0.8120
13.260191 0.8120 0.8120 0.8120 0.8120 0.8140
13.293000 0.8170 0.8170 0.8190 0.8200 0.8240
13.326191 0.8250 0.8290 0.8290 0.8270 0.8270
13.359000 0.8250 0.8250 0.8250 0.8250 0.8250
13.392191 0.8270 0.8290 0.8290 0.8290 0.8270
13.426000 0.8250 0.8250 0.8250 0.8240 0.8240
13.459191 0.8220 0.8220 0.8220 0.8200 0.8200
13.492000 0.8200 0.8200 0.8200 0.8200 0.8200
13.525191 0.8200 0.8200 0.8200 0.8200 0.8200
13.558000 0.8200 0.8200 0.8200 0.8200 0.8190
13.591191 0.8190 0.8190 0.8190 0.8190 0.8190
13.625000 0.8190 0.8190 0.8190 0.8190 0.8190
13.658191 0.8190 0.8170 0.8170 0.8170 0.8170
13.691000 0.8170 0.8170 0.8170 0.8150 0.8150
13.724191 0.8150 0.8140 0.8140 0.8120 0.8120
13.757000 0.8100 0.8100 0.8100 0.8100 0.8100
13.790191 0.8100 0.8120 0.8120 0.8140 0.8140
13.824000 0.8140 0.8150 0.8150 0.8170 0.8190
13.857191 0.8190 0.8190 0.8190 0.8170 0.8170
13.890000 0.8150 0.8150 0.8150 0.8150 0.8150
13.923191 0.8170 0.8170 0.8190 0.8240 0.8290
13.956000 0.8340 0.8370 0.8390 0.8400 0.8440
13.989191 0.8470 0.8490 0.8500 0.8540 0.8550
14.023000 0.8570 0.8590 0.8620 0.8640 0.8650
14.056191 0.8670 0.8680 0.8680 0.8680 0.8700
14.089000 0.8730 0.8780 0.8780 0.8800 0.8820
14.122191 0.8830 0.8850 0.8850 0.8850 0.8850
14.155000 0.8880 0.8880 0.8900 0.8920 0.8920
14.188191 0.8930 0.8930 0.8930 0.8950 0.8950
14.222000 0.8950 0.8950 0.8950 0.8950 0.8950
14.255191 0.8930 0.8920 0.8920 0.8920 0.8900
14.288000 0.8900 0.8880 0.8870 0.8800 0.8700
14.321191 0.8620 0.8540 0.8470 0.8400 0.8320
14.355000 0.8240 0.8120 0.7970 0.7890 0.7770
14.388191 0.7660 0.7560 0.7490 0.7440 0.7390
14.421000 0.7360 0.7360 0.7360 0.7370 0.7420
14.454191 0.7470 0.7540 0.7610 0.7670 0.7740
14.487000 0.7820 0.7890 0.7970 0.8040 0.8070
14.520191 0.8120 0.8170 0.8190 0.8200 0.8220
14.554000 0.8240 0.8250 0.8290 0.8300 0.8300
14.587191 0.8290 0.8270 0.8240 0.8220 0.8200
14.620000 0.8170 0.8120 0.8050 0.7990 0.7970
14.653191 0.7940 0.7840 0.7740 0.7660 0.7560
14.686000 0.7510 0.7420 0.7290 0.7160 0.7080
14.719191 0.6990 0.6890 0.6780 0.6660 0.6550
14.753000 0.6430 0.6300 0.6150 0.6000 0.5850
14.786191 0.5700 0.5550 0.5380 0.5200 0.5040
14.819000 0.4870 0.4690 0.4560 0.4420 0.4320
14.852191 0.4210 0.4110 0.4020 0.3940 0.3840
14.885000 0.3790 0.3740 0.3710 0.3660 0.3640
14.918191 0.3640 0.3660 0.3680 0.3690 0.3710
14.952000 0.3760 0.3790 0.3840 0.3890 0.3910
14.985191 0.3980 0.4010 0.4060 0.4070 0.4090
15.018000 0.4110 0.4140 0.4190 0.4270 0.4320
15.051191 0.4440 0.4490 0.4540 0.4640 0.4740
15.084000 0.4870 0.5020 0.5140 0.5200 0.5320
15.117191 0.5380 0.5430 0.5480 0.5500 0.5500
15.151000 0.5520 0.5530 0.5530 0.5550 0.5550
15.184191 0.5580 0.5600 0.5620 0.5630 0.5650
15.217000 0.5670 0.5680 0.5700 0.5720 0.5720
15.250191 0.5730 0.5780 0.5800 0.5820 0.5830
15.283000 0.5870 0.5880 0.5900 0.5900 0.5900
15.316191 0.5920 0.5950 0.5950 0.5970 0.5970
15.350000 0.5980 0.5980 0.5980 0.6000 0.6000
15.383191 0.6010 0.6010 0.6010 0.6010 0.6010
15.416000 0.6010 0.6030 0.6030 0.6050 0.6050
15.449191 0.6050 0.6060 0.6060 0.6060 0.6080
15.482000 0.6080 0.6080 0.6080 0.6080 0.6080
15.515191 0.6100 0.6100 0.6110 0.6110 0.6110
15.549000 0.6110 0.6110 0.6110 0.6110 0.6130
15.582191 0.6150 0.6150 0.6150 0.6150 0.6130
15.615000 0.6130 0.6110 0.6100 0.6080 0.6060
15.648191 0.6060 0.6050 0.6050 0.6050 0.6050
15.682000 0.6030 0.6030 0.6030 0.6030 0.6030
15.715191 0.6030 0.6030 0.6030 0.6010 0.6010
15.748000 0.6000 0.5980 0.5980 0.5970 0.5970
15.781191 0.5950 0.5930 0.5920 0.5920 0.5920
15.814000 0.5900 0.5900 0.5900 0.5880 0.5880
15.847191 0.5880 0.5870 0.5870 0.5870 0.5830
15.881000 0.5830 0.5820 0.5820 0.5820 0.5800
15.914191 0.5770 0.5730 0.5720 0.5700 0.5680
15.947000 0.5680 0.5680 0.5670 0.5670 0.5650
##END=
