##TITLE=IMINODIACETIC ACID, MONO AMMONIUM SALT
##JCAMP-DX=4.24
##DATA TYPE=INFRARED SPECTRUM
##CLASS=COBLENTZ
##ORIGIN=DOW CHEMICAL COMPANY
##OWNER=COBLENTZ SOCIETY
Collection (C) 2018 copyright by the U.S. Secretary of Commerce
on behalf of the United States of America. All rights reserved.
##DATE=Not specified, most likely prior to 1970
##MOLFORM=C4 H10 N2 O4
##SOURCE REFERENCE=COBLENTZ NO. 2304
##$NIST ID=B6002304
##$NIST SOURCE=COBLENTZ
##$NIST IMAGE=cob2304
##SPECTROMETER/DATA SYSTEM=Not specified, most likely a prism, grating, or hybrid spectrometer.
##STATE=SOLID (MINERAL OIL MULL)
##PATH LENGTH=
$$SPECTRAL CONTAMINATION DUE TO OIL AROUND 2900 CM^-^1
##SAMPLING PROCEDURE=TRANSMISSION
##RESOLUTION=4
##DATA PROCESSING=DIGITIZED BY NIST FROM HARD COPY
##XUNITS=MICROMETERS
##YUNITS=TRANSMITTANCE
##XFACTOR=1.000000
##YFACTOR=1
##DELTAX=000.006689
##FIRSTX=2.033
##LASTX=15.9202
##FIRSTY=0.804
##MAXX=15.9202
##MINX=2.033
##MAXY=0.915
##MINY=0.014
##NPOINTS=2077
##XYDATA=(X++(Y..Y))
2.033000 0.8040 0.8040 0.8040 0.8040 0.8040
2.066461 0.8040 0.8060 0.8060 0.8070 0.8070
2.100000 0.8090 0.8090 0.8110 0.8110 0.8110
2.133461 0.8120 0.8120 0.8120 0.8120 0.8120
2.167000 0.8120 0.8120 0.8110 0.8090 0.8070
2.200461 0.8060 0.7990 0.7960 0.7910 0.7890
2.234000 0.7890 0.7890 0.7890 0.7910 0.7910
2.267461 0.7910 0.7930 0.7930 0.7960 0.7980
2.301000 0.7990 0.8010 0.8060 0.8090 0.8110
2.334461 0.8120 0.8160 0.8170 0.8170 0.8190
2.368000 0.8210 0.8220 0.8260 0.8260 0.8270
2.401461 0.8310 0.8390 0.8390 0.8410 0.8410
2.435000 0.8470 0.8470 0.8490 0.8500 0.8550
2.468461 0.8570 0.8600 0.8620 0.8670 0.8700
2.502000 0.8770 0.8840 0.8850 0.8870 0.8870
2.535461 0.8870 0.8890 0.8900 0.8900 0.8940
2.569000 0.8970 0.8990 0.9070 0.9070 0.9080
2.602461 0.9080 0.9100 0.9100 0.9120 0.9120
2.635000 0.9120 0.9130 0.9130 0.9130 0.9150
2.668461 0.9150 0.9150 0.9150 0.9130 0.9120
2.702000 0.9100 0.9100 0.9120 0.9120 0.9130
2.735461 0.9130 0.9120 0.9120 0.9120 0.9080
2.769000 0.9070 0.9030 0.9000 0.8990 0.8950
2.802461 0.8940 0.8900 0.8890 0.8850 0.8840
2.836000 0.8820 0.8820 0.8800 0.8770 0.8720
2.869461 0.8690 0.8670 0.8620 0.8570 0.8520
2.903000 0.8470 0.8410 0.8370 0.8290 0.8260
2.936461 0.8190 0.8070 0.7980 0.7790 0.7680
2.970000 0.7590 0.7450 0.7250 0.7100 0.6850
3.003461 0.6580 0.6440 0.6220 0.6040 0.5970
3.037000 0.5670 0.5540 0.5360 0.5160 0.5080
3.070461 0.4980 0.4880 0.4780 0.4680 0.4580
3.104000 0.4480 0.4370 0.4300 0.4270 0.4180
3.137461 0.4080 0.3990 0.3950 0.3870 0.3770
3.171000 0.3670 0.3540 0.3440 0.3320 0.3190
3.204461 0.3070 0.2990 0.2880 0.2780 0.2690
3.237000 0.2630 0.2580 0.2500 0.2480 0.2380
3.270461 0.2300 0.2260 0.2180 0.2080 0.2000
3.304000 0.1880 0.1700 0.1580 0.1400 0.1250
3.337461 0.0970 0.0860 0.0540 0.0290 0.0180
3.371000 0.0160 0.0160 0.0140 0.0140 0.0140
3.404461 0.0140 0.0160 0.0160 0.0190 0.0190
3.438000 0.0210 0.0230 0.0240 0.0260 0.0290
3.471461 0.0390 0.0510 0.0620 0.0870 0.1100
3.505000 0.1390 0.1580 0.1680 0.1800 0.1830
3.538461 0.1900 0.1950 0.1980 0.2000 0.2010
3.572000 0.2060 0.2130 0.2130 0.2180 0.2200
3.605461 0.2280 0.2310 0.2350 0.2380 0.2400
3.639000 0.2480 0.2510 0.2630 0.2680 0.2730
3.672461 0.2790 0.2880 0.2990 0.3020 0.3090
3.706000 0.3120 0.3170 0.3210 0.3270 0.3320
3.739461 0.3340 0.3340 0.3340 0.3320 0.3270
3.773000 0.3240 0.3220 0.3220 0.3220 0.3220
3.806461 0.3260 0.3320 0.3490 0.3550 0.3590
3.839000 0.3690 0.3820 0.3990 0.4020 0.4080
3.872461 0.4170 0.4220 0.4300 0.4400 0.4500
3.906000 0.4660 0.4710 0.4780 0.4860 0.4960
3.939461 0.4980 0.5060 0.5110 0.5190 0.5290
3.973000 0.5360 0.5380 0.5390 0.5430 0.5430
4.006461 0.5440 0.5460 0.5460 0.5460 0.5460
4.040000 0.5480 0.5480 0.5490 0.5490 0.5490
4.073461 0.5490 0.5510 0.5510 0.5510 0.5510
4.107000 0.5510 0.5520 0.5520 0.5520 0.5570
4.140461 0.5670 0.5740 0.5770 0.5860 0.5970
4.174000 0.6000 0.6090 0.6170 0.6270 0.6300
4.207461 0.6440 0.6530 0.6670 0.6720 0.6780
4.241000 0.6830 0.6880 0.6980 0.7030 0.7180
4.274461 0.7280 0.7350 0.7400 0.7480 0.7510
4.308000 0.7560 0.7610 0.7630 0.7680 0.7690
4.341461 0.7760 0.7810 0.7860 0.7890 0.7930
4.375000 0.7980 0.7990 0.7990 0.8010 0.8040
4.408461 0.8040 0.8060 0.8060 0.8060 0.8060
4.441000 0.8060 0.8040 0.8040 0.7990 0.7930
4.474461 0.7880 0.7810 0.7780 0.7760 0.7690
4.508000 0.7580 0.7510 0.7480 0.7430 0.7410
4.541461 0.7400 0.7400 0.7400 0.7410 0.7430
4.575000 0.7430 0.7460 0.7500 0.7510 0.7560
4.608461 0.7610 0.7640 0.7710 0.7730 0.7760
4.642000 0.7790 0.7880 0.7910 0.7990 0.8020
4.675461 0.8090 0.8110 0.8170 0.8220 0.8240
4.709000 0.8290 0.8320 0.8370 0.8390 0.8410
4.742461 0.8410 0.8420 0.8440 0.8490 0.8520
4.776000 0.8550 0.8550 0.8570 0.8570 0.8590
4.809461 0.8650 0.8720 0.8770 0.8790 0.8800
4.843000 0.8820 0.8840 0.8850 0.8850 0.8870
4.876461 0.8870 0.8870 0.8870 0.8890 0.8890
4.910000 0.8890 0.8890 0.8890 0.8890 0.8890
4.943461 0.8890 0.8890 0.8870 0.8850 0.8820
4.977000 0.8790 0.8750 0.8690 0.8590 0.8500
5.010461 0.8490 0.8420 0.8420 0.8410 0.8390
5.043000 0.8370 0.8360 0.8360 0.8340 0.8320
5.076461 0.8320 0.8270 0.8220 0.8170 0.8120
5.110000 0.8090 0.8040 0.8010 0.7990 0.7980
5.143461 0.7960 0.7930 0.7910 0.7910 0.7890
5.177000 0.7890 0.7890 0.7890 0.7890 0.7890
5.210461 0.7890 0.7890 0.7910 0.7910 0.7980
5.244000 0.7990 0.8010 0.8020 0.8070 0.8090
5.277461 0.8120 0.8140 0.8190 0.8270 0.8310
5.311000 0.8370 0.8390 0.8390 0.8410 0.8410
5.344461 0.8420 0.8470 0.8490 0.8520 0.8590
5.378000 0.8640 0.8640 0.8650 0.8690 0.8690
5.411461 0.8700 0.8720 0.8750 0.8790 0.8840
5.445000 0.8850 0.8870 0.8870 0.8890 0.8890
5.478461 0.8890 0.8890 0.8890 0.8890 0.8890
5.512000 0.8890 0.8890 0.8870 0.8850 0.8850
5.545461 0.8840 0.8840 0.8820 0.8800 0.8790
5.579000 0.8750 0.8750 0.8740 0.8720 0.8690
5.612461 0.8600 0.8590 0.8490 0.8490 0.8410
5.645000 0.8370 0.8340 0.8340 0.8320 0.8310
5.678461 0.8290 0.8170 0.8090 0.8020 0.7990
5.712000 0.7880 0.7780 0.7680 0.7590 0.7530
5.745461 0.7500 0.7400 0.7280 0.7130 0.7000
5.779000 0.6950 0.6670 0.6490 0.6290 0.6140
5.812461 0.6070 0.6040 0.6000 0.6000 0.6020
5.846000 0.6100 0.6220 0.6390 0.6490 0.6500
5.879461 0.6570 0.6570 0.6580 0.6580 0.6520
5.913000 0.6490 0.6390 0.6290 0.6190 0.6000
5.946461 0.5820 0.5690 0.5590 0.5490 0.5480
5.980000 0.5340 0.5210 0.5080 0.4980 0.4880
6.013461 0.4680 0.4580 0.4500 0.4400 0.4320
6.047000 0.4200 0.4020 0.3890 0.3690 0.3490
6.080461 0.3270 0.3120 0.3020 0.2990 0.2830
6.114000 0.2710 0.2610 0.2510 0.2430 0.2410
6.147461 0.2400 0.2350 0.2300 0.2230 0.2160
6.181000 0.2110 0.2030 0.1980 0.1930 0.1900
6.214461 0.1870 0.1830 0.1800 0.1750 0.1730
6.247000 0.1700 0.1670 0.1630 0.1620 0.1600
6.280461 0.1600 0.1620 0.1630 0.1730 0.1820
6.314000 0.1830 0.1900 0.2000 0.2010 0.2180
6.347461 0.2330 0.2510 0.2680 0.2840 0.2990
6.381000 0.3090 0.3210 0.3320 0.3490 0.3600
6.414461 0.3770 0.3940 0.4050 0.4080 0.4180
6.448000 0.4270 0.4330 0.4400 0.4430 0.4480
6.481461 0.4510 0.4530 0.4600 0.4630 0.4680
6.515000 0.4710 0.4750 0.4800 0.4800 0.4800
6.548461 0.4780 0.4730 0.4710 0.4630 0.4510
6.582000 0.4480 0.4370 0.4280 0.4200 0.4100
6.615461 0.4000 0.3900 0.3750 0.3590 0.3410
6.649000 0.3270 0.3170 0.3120 0.3110 0.3090
6.682461 0.3060 0.3040 0.3040 0.3040 0.3040
6.716000 0.3070 0.3140 0.3210 0.3270 0.3340
6.749461 0.3360 0.3370 0.3360 0.3290 0.3120
6.783000 0.2990 0.2810 0.2430 0.2010 0.1820
6.816461 0.1670 0.1630 0.1620 0.1550 0.1530
6.849000 0.1520 0.1500 0.1520 0.1530 0.1700
6.882461 0.1820 0.1930 0.2010 0.2130 0.2400
6.916000 0.2530 0.2730 0.2830 0.2930 0.3020
6.949461 0.3140 0.3290 0.3410 0.3490 0.3570
6.983000 0.3600 0.3620 0.3620 0.3620 0.3600
7.016461 0.3240 0.2910 0.2730 0.2590 0.2400
7.050000 0.2200 0.2010 0.1900 0.1830 0.1820
7.083461 0.1820 0.1820 0.1830 0.1850 0.1930
7.117000 0.2010 0.2080 0.2150 0.2210 0.2230
7.150461 0.2230 0.2200 0.2100 0.1900 0.1600
7.184000 0.1570 0.1470 0.1340 0.1140 0.1040
7.217461 0.0940 0.0860 0.0770 0.0740 0.0710
7.251000 0.0670 0.0660 0.0660 0.0660 0.0660
7.284461 0.0660 0.0710 0.0760 0.0840 0.0920
7.318000 0.1000 0.1090 0.1140 0.1220 0.1320
7.351461 0.1500 0.1600 0.1800 0.1920 0.2010
7.385000 0.2150 0.2230 0.2350 0.2500 0.2690
7.418461 0.2860 0.3010 0.3010 0.3120 0.3270
7.452000 0.3340 0.3390 0.3390 0.3390 0.3310
7.485461 0.3190 0.3170 0.3170 0.3190 0.3210
7.518000 0.3270 0.3290 0.3340 0.3420 0.3520
7.551461 0.3670 0.3790 0.4000 0.4120 0.4220
7.585000 0.4320 0.4380 0.4420 0.4510 0.4630
7.618461 0.4730 0.4860 0.4910 0.5000 0.5080
7.652000 0.5130 0.5210 0.5290 0.5330 0.5430
7.685461 0.5490 0.5540 0.5570 0.5590 0.5590
7.719000 0.5610 0.5620 0.5620 0.5290 0.5080
7.752461 0.4950 0.4800 0.4600 0.4280 0.4020
7.786000 0.3920 0.3690 0.3440 0.3340 0.3320
7.819461 0.3340 0.3440 0.3500 0.3690 0.3890
7.853000 0.4100 0.4300 0.4500 0.4610 0.4780
7.886461 0.4900 0.5000 0.5180 0.5290 0.5380
7.920000 0.5480 0.5510 0.5560 0.5620 0.5670
7.953461 0.5710 0.5740 0.5790 0.5810 0.5860
7.987000 0.5890 0.5970 0.5990 0.6050 0.6120
8.020461 0.6150 0.6170 0.6190 0.6220 0.6250
8.054000 0.6300 0.6340 0.6370 0.6400 0.6420
8.087461 0.6440 0.6450 0.6450 0.6470 0.6470
8.120000 0.6490 0.6500 0.6530 0.6550 0.6570
8.153461 0.6620 0.6630 0.6680 0.6720 0.6720
8.187000 0.6730 0.6730 0.6730 0.6750 0.6770
8.220461 0.6780 0.6780 0.6800 0.6820 0.6830
8.254000 0.6830 0.6870 0.6880 0.6880 0.6900
8.287461 0.6920 0.6930 0.6970 0.6980 0.7000
8.321000 0.7010 0.7010 0.7010 0.7010 0.7030
8.354461 0.7080 0.7080 0.7100 0.7110 0.7130
8.388000 0.7150 0.7160 0.7180 0.7180 0.7180
8.421461 0.7180 0.7200 0.7200 0.7200 0.7210
8.455000 0.7210 0.7230 0.7250 0.7260 0.7280
8.488461 0.7280 0.7280 0.7280 0.7280 0.7280
8.522000 0.7280 0.7300 0.7300 0.7300 0.7300
8.555461 0.7310 0.7310 0.7330 0.7330 0.7330
8.589000 0.7330 0.7330 0.7330 0.7380 0.7400
8.622461 0.7410 0.7410 0.7430 0.7430 0.7430
8.656000 0.7450 0.7450 0.7450 0.7450 0.7450
8.689461 0.7460 0.7480 0.7510 0.7530 0.7530
8.722000 0.7530 0.7540 0.7580 0.7590 0.7590
8.755461 0.7610 0.7630 0.7630 0.7630 0.7640
8.789000 0.7660 0.7680 0.7690 0.7690 0.7710
8.822461 0.7710 0.7730 0.7730 0.7740 0.7790
8.856000 0.7790 0.7790 0.7790 0.7810 0.7810
8.889461 0.7830 0.7830 0.7830 0.7830 0.7830
8.923000 0.7830 0.7830 0.7840 0.7880 0.7890
8.956461 0.7890 0.7890 0.7890 0.7890 0.7890
8.990000 0.7890 0.7890 0.7890 0.7910 0.7940
9.023461 0.7960 0.7960 0.7960 0.7960 0.7960
9.057000 0.7960 0.7960 0.7960 0.7960 0.7960
9.090461 0.7940 0.7930 0.7910 0.7890 0.7860
9.124000 0.7830 0.7790 0.7710 0.7610 0.7590
9.157461 0.7540 0.7530 0.7480 0.7430 0.7410
9.191000 0.7410 0.7430 0.7450 0.7480 0.7540
9.224461 0.7630 0.7680 0.7710 0.7740 0.7760
9.258000 0.7760 0.7740 0.7580 0.7360 0.7160
9.291461 0.6870 0.6680 0.6470 0.6190 0.5860
9.324000 0.5660 0.5480 0.5280 0.5110 0.5060
9.357461 0.5000 0.4910 0.4860 0.4780 0.4760
9.391000 0.4760 0.4760 0.4800 0.4960 0.5460
9.424461 0.5570 0.5860 0.5990 0.6250 0.6470
9.458000 0.6600 0.6770 0.6870 0.6970 0.7050
9.491461 0.7100 0.7160 0.7210 0.7280 0.7310
9.525000 0.7380 0.7410 0.7460 0.7480 0.7500
9.558461 0.7510 0.7560 0.7610 0.7610 0.7640
9.592000 0.7640 0.7660 0.7660 0.7680 0.7690
9.625461 0.7690 0.7710 0.7710 0.7730 0.7740
9.659000 0.7760 0.7760 0.7780 0.7780 0.7790
9.692461 0.7810 0.7810 0.7880 0.7880 0.7890
9.726000 0.7890 0.7910 0.7910 0.7960 0.7960
9.759461 0.7960 0.7980 0.7990 0.7990 0.8010
9.793000 0.8060 0.8060 0.8090 0.8090 0.8090
9.826461 0.8090 0.8110 0.8110 0.8110 0.8110
9.860000 0.8120 0.8120 0.8140 0.8160 0.8160
9.893461 0.8160 0.8160 0.8160 0.8160 0.8170
9.926000 0.8190 0.8190 0.8190 0.8210 0.8210
9.959461 0.8210 0.8210 0.8210 0.8210 0.8210
9.993000 0.8210 0.8210 0.8210 0.8240 0.8240
10.026461 0.8260 0.8260 0.8260 0.8260 0.8260
10.060000 0.8260 0.8260 0.8260 0.8270 0.8290
10.093461 0.8290 0.8290 0.8290 0.8290 0.8290
10.127000 0.8270 0.8270 0.8260 0.8260 0.8260
10.160461 0.8260 0.8260 0.8270 0.8270 0.8270
10.194000 0.8270 0.8270 0.8260 0.8260 0.8260
10.227461 0.8260 0.8260 0.8260 0.8240 0.8220
10.261000 0.8220 0.8210 0.8190 0.8190 0.8190
10.294461 0.8190 0.8170 0.8170 0.8170 0.8170
10.328000 0.8170 0.8170 0.8170 0.8160 0.8160
10.361461 0.8160 0.8160 0.8160 0.8170 0.8170
10.395000 0.8170 0.8170 0.8170 0.8190 0.8190
10.428461 0.8210 0.8210 0.8210 0.8210 0.8210
10.462000 0.8210 0.8210 0.8210 0.8210 0.8210
10.495461 0.8210 0.8190 0.8190 0.8170 0.8170
10.528000 0.8170 0.8170 0.8170 0.8170 0.8170
10.561461 0.8170 0.8170 0.8170 0.8170 0.8170
10.595000 0.8170 0.8170 0.8170 0.8170 0.8170
10.628461 0.8170 0.8190 0.8210 0.8210 0.8210
10.662000 0.8220 0.8220 0.8240 0.8240 0.8240
10.695461 0.8240 0.8240 0.8240 0.8260 0.8260
10.729000 0.8260 0.8260 0.8260 0.8260 0.8260
10.762461 0.8260 0.8260 0.8260 0.8260 0.8260
10.796000 0.8260 0.8260 0.8260 0.8260 0.8260
10.829461 0.8260 0.8260 0.8260 0.8240 0.8240
10.863000 0.8240 0.8240 0.8240 0.8240 0.8220
10.896461 0.8190 0.8190 0.8140 0.8070 0.8060
10.930000 0.8010 0.7980 0.7880 0.7790 0.7680
10.963461 0.7590 0.7500 0.7460 0.7350 0.7300
10.997000 0.7230 0.7130 0.7100 0.7050 0.7000
11.030461 0.6980 0.6980 0.6980 0.6980 0.6980
11.064000 0.7000 0.7000 0.7060 0.7110 0.7150
11.097461 0.7200 0.7210 0.7260 0.7280 0.7280
11.130000 0.7300 0.7300 0.7310 0.7310 0.7350
11.163461 0.7350 0.7360 0.7360 0.7360 0.7360
11.197000 0.7360 0.7350 0.7310 0.7280 0.7280
11.230461 0.7260 0.7260 0.7260 0.7250 0.7210
11.264000 0.7180 0.7150 0.7060 0.7030 0.6980
11.297461 0.6880 0.6820 0.6770 0.6700 0.6650
11.331000 0.6500 0.6470 0.6350 0.6200 0.6100
11.364461 0.6000 0.5870 0.5840 0.5670 0.5480
11.398000 0.5290 0.5160 0.5060 0.5030 0.4980
11.431461 0.4780 0.4660 0.4500 0.4380 0.4320
11.465000 0.4180 0.4080 0.4000 0.3970 0.3900
11.498461 0.3870 0.3790 0.3720 0.3670 0.3590
11.532000 0.3520 0.3500 0.3470 0.3460 0.3440
11.565461 0.3420 0.3410 0.3370 0.3360 0.3340
11.599000 0.3340 0.3320 0.3320 0.3320 0.3320
11.632461 0.3320 0.3360 0.3410 0.3490 0.3570
11.666000 0.3600 0.3700 0.3800 0.3900 0.3990
11.699461 0.4070 0.4180 0.4270 0.4370 0.4500
11.732000 0.4610 0.4780 0.4860 0.4980 0.5160
11.765461 0.5260 0.5360 0.5440 0.5560 0.5620
11.799000 0.5690 0.5790 0.5890 0.6050 0.6070
11.832461 0.6150 0.6250 0.6300 0.6400 0.6490
11.866000 0.6500 0.6580 0.6650 0.6700 0.6750
11.899461 0.6800 0.6820 0.6880 0.6900 0.6920
11.933000 0.6970 0.7000 0.7050 0.7100 0.7150
11.966461 0.7180 0.7210 0.7250 0.7260 0.7280
12.000000 0.7310 0.7360 0.7410 0.7430 0.7450
12.033461 0.7480 0.7510 0.7530 0.7540 0.7560
12.067000 0.7580 0.7590 0.7610 0.7630 0.7640
12.100461 0.7680 0.7690 0.7710 0.7730 0.7740
12.134000 0.7760 0.7780 0.7790 0.7810 0.7830
12.167461 0.7840 0.7860 0.7860 0.7880 0.7880
12.201000 0.7890 0.7890 0.7910 0.7910 0.7930
12.234461 0.7930 0.7940 0.7940 0.7940 0.7960
12.268000 0.7960 0.7980 0.7990 0.7990 0.7990
12.301461 0.8010 0.8010 0.8010 0.8020 0.8020
12.334000 0.8040 0.8040 0.8090 0.8110 0.8110
12.367461 0.8110 0.8110 0.8120 0.8120 0.8120
12.401000 0.8110 0.8110 0.8110 0.8110 0.8120
12.434461 0.8120 0.8120 0.8120 0.8140 0.8140
12.468000 0.8140 0.8160 0.8160 0.8160 0.8170
12.501461 0.8170 0.8190 0.8190 0.8190 0.8190
12.535000 0.8190 0.8210 0.8210 0.8210 0.8210
12.568461 0.8210 0.8210 0.8210 0.8210 0.8210
12.602000 0.8210 0.8210 0.8210 0.8210 0.8210
12.635461 0.8210 0.8210 0.8210 0.8210 0.8210
12.669000 0.8210 0.8210 0.8190 0.8190 0.8190
12.702461 0.8190 0.8190 0.8170 0.8170 0.8170
12.736000 0.8170 0.8160 0.8160 0.8160 0.8160
12.769461 0.8140 0.8140 0.8140 0.8120 0.8120
12.803000 0.8120 0.8110 0.8110 0.8110 0.8090
12.836461 0.8090 0.8070 0.8060 0.8060 0.8060
12.870000 0.8040 0.8040 0.8040 0.8020 0.8020
12.903461 0.8010 0.8010 0.7990 0.7990 0.7990
12.936000 0.7990 0.7980 0.7980 0.7980 0.7980
12.969461 0.7960 0.7960 0.7960 0.7960 0.7940
13.003000 0.7930 0.7930 0.7930 0.7930 0.7930
13.036461 0.7930 0.7930 0.7930 0.7930 0.7930
13.070000 0.7910 0.7910 0.7910 0.7890 0.7890
13.103461 0.7890 0.7880 0.7880 0.7860 0.7860
13.137000 0.7860 0.7840 0.7840 0.7830 0.7830
13.170461 0.7830 0.7810 0.7810 0.7790 0.7790
13.204000 0.7790 0.7780 0.7780 0.7760 0.7760
13.237461 0.7740 0.7740 0.7730 0.7730 0.7710
13.271000 0.7710 0.7710 0.7690 0.7680 0.7680
13.304461 0.7660 0.7660 0.7640 0.7640 0.7630
13.338000 0.7630 0.7610 0.7610 0.7590 0.7590
13.371461 0.7580 0.7560 0.7540 0.7530 0.7510
13.405000 0.7510 0.7500 0.7480 0.7460 0.7450
13.438461 0.7430 0.7410 0.7400 0.7380 0.7360
13.472000 0.7350 0.7310 0.7300 0.7280 0.7280
13.505461 0.7260 0.7210 0.7200 0.7180 0.7150
13.538000 0.7110 0.7100 0.7080 0.7060 0.7030
13.571461 0.7000 0.6980 0.6970 0.6930 0.6920
13.605000 0.6900 0.6870 0.6820 0.6820 0.6800
13.638461 0.6770 0.6750 0.6720 0.6680 0.6650
13.672000 0.6600 0.6570 0.6550 0.6490 0.6400
13.705461 0.6390 0.6350 0.6300 0.6290 0.6200
13.739000 0.6150 0.6100 0.6050 0.5970 0.5870
13.772461 0.5790 0.5770 0.5690 0.5590 0.5490
13.806000 0.5440 0.5360 0.5260 0.5190 0.5160
13.839461 0.5060 0.4980 0.4880 0.4800 0.4700
13.873000 0.4610 0.4560 0.4500 0.4470 0.4380
13.906461 0.4280 0.4200 0.4170 0.4120 0.4100
13.940000 0.4080 0.4070 0.4050 0.4050 0.4030
13.973461 0.4030 0.4030 0.4080 0.4120 0.4150
14.007000 0.4180 0.4270 0.4330 0.4420 0.4430
14.040461 0.4470 0.4500 0.4580 0.4660 0.4760
14.074000 0.4800 0.4880 0.4960 0.4980 0.5000
14.107461 0.5110 0.5180 0.5260 0.5290 0.5360
14.140000 0.5390 0.5440 0.5460 0.5480 0.5510
14.173461 0.5540 0.5560 0.5560 0.5570 0.5610
14.207000 0.5640 0.5710 0.5740 0.5740 0.5740
14.240461 0.5740 0.5720 0.5710 0.5690 0.5670
14.274000 0.5670 0.5670 0.5690 0.5690 0.5690
14.307461 0.5670 0.5670 0.5670 0.5670 0.5660
14.341000 0.5660 0.5670 0.5670 0.5670 0.5660
14.374461 0.5640 0.5620 0.5620 0.5610 0.5610
14.408000 0.5610 0.5590 0.5590 0.5590 0.5570
14.441461 0.5570 0.5570 0.5560 0.5560 0.5510
14.475000 0.5510 0.5490 0.5490 0.5480 0.5480
14.508461 0.5480 0.5480 0.5480 0.5460 0.5460
14.542000 0.5440 0.5390 0.5380 0.5360 0.5360
14.575461 0.5340 0.5340 0.5330 0.5330 0.5290
14.609000 0.5280 0.5280 0.5280 0.5260 0.5230
14.642461 0.5210 0.5210 0.5210 0.5180 0.5180
14.676000 0.5160 0.5160 0.5140 0.5130 0.5110
14.709461 0.5110 0.5110 0.5090 0.5090 0.5080
14.742000 0.5060 0.5060 0.5040 0.5030 0.5030
14.775461 0.5030 0.5030 0.5030 0.5030 0.5010
14.809000 0.5010 0.5010 0.5000 0.5000 0.4980
14.842461 0.4980 0.4960 0.4980 0.4960 0.4960
14.876000 0.4950 0.4950 0.4910 0.4900 0.4900
14.909461 0.4880 0.4860 0.4860 0.4810 0.4800
14.943000 0.4780 0.4780 0.4780 0.4780 0.4800
14.976461 0.4800 0.4810 0.4830 0.4850 0.4850
15.010000 0.4850 0.4850 0.4850 0.4830 0.4810
15.043461 0.4800 0.4800 0.4780 0.4760 0.4750
15.077000 0.4700 0.4680 0.4660 0.4660 0.4610
15.110461 0.4610 0.4600 0.4600 0.4600 0.4600
15.144000 0.4600 0.4580 0.4580 0.4560 0.4550
15.177461 0.4550 0.4550 0.4530 0.4510 0.4500
15.211000 0.4480 0.4480 0.4470 0.4450 0.4450
15.244461 0.4430 0.4420 0.4420 0.4400 0.4400
15.278000 0.4400 0.4380 0.4370 0.4370 0.4350
15.311461 0.4350 0.4330 0.4330 0.4320 0.4320
15.344000 0.4300 0.4300 0.4280 0.4270 0.4270
15.377461 0.4270 0.4250 0.4250 0.4250 0.4230
15.411000 0.4230 0.4230 0.4220 0.4220 0.4220
15.444461 0.4200 0.4200 0.4200 0.4200 0.4180
15.478000 0.4180 0.4180 0.4170 0.4150 0.4150
15.511461 0.4150 0.4130 0.4130 0.4130 0.4130
15.545000 0.4130 0.4130 0.4120 0.4120 0.4100
15.578461 0.4080 0.4080 0.4070 0.4050 0.4050
15.612000 0.4050 0.4050 0.4050 0.4050 0.4050
15.645461 0.4050 0.4050 0.4050 0.4050 0.4050
15.679000 0.4050 0.4050 0.4050 0.4050 0.4050
15.712461 0.4050 0.4050 0.4050 0.4070 0.4070
15.746000 0.4070 0.4070 0.4070 0.4070 0.4070
15.779461 0.4070 0.4070 0.4070 0.4070 0.4070
15.813000 0.4070 0.4070 0.4070 0.4070 0.4070
15.846461 0.4070 0.4070 0.4070 0.4070 0.4070
15.880000 0.4070 0.4070 0.4070 0.4070 0.4070
15.913461 0.4070 0.4070
##END=
