##TITLE=LEAD SILICATE
##JCAMP-DX=4.24
##DATA TYPE=INFRARED SPECTRUM
##CLASS=COBLENTZ
##ORIGIN=DESOTO CHEMICAL COATINGS, INC.
##OWNER=COBLENTZ SOCIETY
Collection (C) 2018 copyright by the U.S. Secretary of Commerce
on behalf of the United States of America. All rights reserved.
##DATE=Not specified, most likely prior to 1970
##NAMES=WHITE LEAD, BASIC SILICATE
##MOLFORM=2 Pb Si O3  * Pb ( O H)2
##SOURCE REFERENCE=COBLENTZ NO. 4647
##$NIST ID=B6004647
##$NIST SOURCE=COBLENTZ
##$NIST IMAGE=cob4647
##SPECTROMETER/DATA SYSTEM=Not specified, most likely a grating spectrometer.
##STATE=SOLID (0.8 mg / 300 mg CsI PELLET)
##SAMPLING PROCEDURE=TRANSMISSION
##RESOLUTION=4
##DATA PROCESSING=DIGITIZED BY NIST FROM HARD COPY (FROM TWO SEGMENTS)
##XUNITS=1/CM
##YUNITS=TRANSMITTANCE
##XFACTOR=1.000000
##YFACTOR=1
##DELTAX=1.330381
##FIRSTX=196.009
##LASTX=3986.27
##FIRSTY=0.76
##MAXX=3986.27
##MINX=196.009
##MAXY=0.969
##MINY=0.204
##NPOINTS=2850
##XYDATA=(X++(Y..Y))
196.009000 0.7600 0.7590 0.7550 0.7600 0.7590
202.660907 0.7550 0.7520 0.7510 0.7500 0.7500
209.312814 0.7500 0.7500 0.7510 0.7510 0.7510
215.964721 0.7520 0.7540 0.7540 0.7550 0.7590
222.616628 0.7600 0.7620 0.7620 0.7620 0.7620
229.268535 0.7620 0.7630 0.7640 0.7660 0.7660
235.920441 0.7670 0.7670 0.7680 0.7680 0.7680
242.572348 0.7700 0.7710 0.7710 0.7710 0.7720
249.224255 0.7720 0.7720 0.7720 0.7720 0.7720
255.876162 0.7720 0.7710 0.7710 0.7710 0.7700
262.528069 0.7700 0.7680 0.7660 0.7600 0.7590
269.179976 0.7590 0.7580 0.7580 0.7560 0.7560
275.831883 0.7560 0.7550 0.7550 0.7550 0.7560
282.483790 0.7560 0.7560 0.7560 0.7560 0.7560
289.135697 0.7560 0.7550 0.7550 0.7550 0.7550
295.787604 0.7550 0.7540 0.7520 0.7510 0.7510
302.439510 0.7500 0.7500 0.7480 0.7480 0.7470
309.091417 0.7440 0.7440 0.7430 0.7430 0.7400
315.743324 0.7390 0.7390 0.7370 0.7350 0.7320
322.395231 0.7290 0.7270 0.7230 0.7200 0.7170
329.047138 0.7160 0.7130 0.7110 0.7080 0.7080
335.699045 0.7050 0.7040 0.7010 0.7000 0.6990
342.350952 0.6990 0.6970 0.6960 0.6950 0.6930
349.002859 0.6930 0.6920 0.6890 0.6880 0.6870
355.654766 0.6840 0.6830 0.6800 0.6760 0.6710
362.306673 0.6570 0.6441 0.6390 0.6131 0.5901
368.958580 0.5680 0.5490 0.5330 0.5180 0.5100
375.610486 0.5100 0.5130 0.5210 0.5290 0.5370
382.262393 0.5480 0.5620 0.5770 0.5890 0.5900
388.914300 0.5900 0.5890 0.5860 0.5731 0.5541
395.566207 0.5290 0.4890 0.4670 0.4670 0.4860
402.218114 0.5139 0.5519 0.5878 0.6139 0.6289
408.870021 0.6480 0.6590 0.6610 0.6610 0.6590
415.521928 0.6590 0.6610 0.6630 0.6630 0.6610
422.173835 0.6590 0.6570 0.6570 0.6590 0.6590
428.825742 0.6600 0.6600 0.6610 0.6600 0.6570
435.477649 0.6550 0.6490 0.6410 0.6370 0.6280
442.129555 0.6180 0.6041 0.5940 0.5761 0.5641
448.781462 0.5490 0.5250 0.5000 0.4511 0.4420
455.433369 0.4310 0.4250 0.4220 0.4220 0.4250
462.085276 0.4300 0.4380 0.4450 0.4490 0.4540
468.737183 0.4610 0.4660 0.4779 0.4850 0.4910
475.389090 0.5000 0.5080 0.5180 0.5280 0.5370
482.040997 0.5480 0.5570 0.5650 0.5769 0.5820
488.692904 0.5850 0.5900 0.6000 0.6090 0.6170
495.344811 0.6200 0.6220 0.6240 0.6240 0.6210
501.996718 0.6210 0.6180 0.6160 0.6140 0.6130
508.648625 0.6120 0.6100 0.6100 0.6120 0.6130
515.300531 0.6160 0.6270 0.6400 0.6570 0.6710
521.952438 0.6850 0.7029 0.7189 0.7270 0.7350
528.604345 0.7480 0.7550 0.7660 0.7750 0.7900
535.256252 0.8020 0.8120 0.8200 0.8300 0.8380
541.908159 0.8480 0.8580 0.8700 0.8750 0.8790
548.560066 0.8850 0.8870 0.8930 0.8980 0.9020
555.211973 0.9020 0.9050 0.9090 0.9110 0.9140
561.863880 0.9150 0.9190 0.9220 0.9230 0.9250
568.515787 0.9260 0.9260 0.9270 0.9270 0.9270
575.167694 0.9290 0.9290 0.9300 0.9310 0.9350
581.819600 0.9370 0.9390 0.9420 0.9430 0.9450
588.471507 0.9450 0.9450 0.9450 0.9420 0.9410
595.123414 0.9350 0.9300 0.9050 0.8720 0.8261
601.775321 0.8190 0.8190 0.8260 0.8419 0.8619
608.427228 0.8700 0.8710 0.8720 0.8740 0.8750
615.079135 0.8790 0.8860 0.8979 0.9149 0.9230
621.731042 0.9300 0.9390 0.9420 0.9450 0.9490
628.382949 0.9530 0.9540 0.9580 0.9590 0.9610
635.034856 0.9610 0.9620 0.9620 0.9630 0.9650
641.686763 0.9650 0.9660 0.9660 0.9660 0.9670
648.338670 0.9690 0.9690 0.9690 0.9690 0.9690
654.990576 0.9690 0.9690 0.9690 0.9690 0.9690
661.642483 0.9690 0.9690 0.9690 0.9690 0.9690
668.294390 0.9670 0.9670 0.9670 0.9670 0.9660
674.946297 0.9660 0.9650 0.9650 0.9630 0.9620
681.598204 0.9610 0.9590 0.9590 0.9580 0.9540
688.250111 0.9530 0.9510 0.9470 0.9390 0.9260
694.902018 0.9050 0.8900 0.8810 0.8810 0.8870
701.553925 0.8990 0.9090 0.9250 0.9350 0.9410
708.205832 0.9430 0.9470 0.9570 0.9620 0.9630
714.857739 0.9650 0.9650 0.9650 0.9650 0.9630
721.509645 0.9620 0.9590 0.9580 0.9570 0.9580
728.161552 0.9580 0.9590 0.9590 0.9590 0.9590
734.813459 0.9590 0.9590 0.9610 0.9610 0.9580
741.465366 0.9570 0.9580 0.9590 0.9610 0.9610
748.117273 0.9610 0.9590 0.9570 0.9540 0.9530
754.769180 0.9510 0.9500 0.9470 0.9420 0.9410
761.421087 0.9370 0.9290 0.9170 0.9150 0.9021
768.072994 0.8910 0.8770 0.8640 0.8430 0.8150
774.724901 0.7881 0.7661 0.7251 0.7041 0.7010
781.376808 0.7030 0.7240 0.7280 0.7320 0.7370
788.028715 0.7410 0.7440 0.7310 0.7091 0.6871
794.680621 0.6730 0.6480 0.6360 0.6360 0.6430
801.332528 0.6639 0.6929 0.7289 0.7429 0.7549
807.984435 0.7840 0.8060 0.8320 0.8540 0.8740
814.636342 0.8940 0.9010 0.9060 0.9130 0.9180
821.288249 0.9270 0.9330 0.9340 0.9350 0.9390
827.940156 0.9410 0.9410 0.9430 0.9430 0.9430
834.592063 0.9430 0.9410 0.9410 0.9390 0.9330
841.243970 0.9290 0.9290 0.9270 0.9270 0.9270
847.895877 0.9260 0.9260 0.9250 0.9220 0.9190
854.547784 0.9180 0.9140 0.9110 0.9100 0.9070
861.199690 0.9060 0.9050 0.9030 0.9020 0.9020
867.851597 0.9020 0.9020 0.9010 0.8980 0.8930
874.503504 0.8830 0.8820 0.8810 0.8780 0.8680
881.155411 0.8520 0.8340 0.8280 0.8200 0.8120
887.807318 0.7990 0.7940 0.7860 0.7800 0.7750
894.459225 0.7700 0.7680 0.7670 0.7670 0.7670
901.111132 0.7680 0.7700 0.7710 0.7720 0.7740
907.763039 0.7760 0.7790 0.7780 0.7750 0.7720
914.414946 0.7700 0.7680 0.7670 0.7640 0.7600
921.066853 0.7580 0.7560 0.7550 0.7540 0.7510
927.718760 0.7500 0.7470 0.7440 0.7430 0.7410
934.370666 0.7400 0.7370 0.7290 0.7240 0.7230
941.022573 0.7210 0.7210 0.7210 0.7210 0.7200
947.674480 0.7200 0.7170 0.7150 0.7120 0.7120
954.326387 0.7110 0.7090 0.7030 0.7010 0.6930
960.978294 0.6880 0.6800 0.6720 0.6670 0.6590
967.630201 0.6520 0.6490 0.6470 0.6390 0.6320
974.282108 0.6310 0.6280 0.6270 0.6250 0.6250
980.934015 0.6270 0.6270 0.6280 0.6290 0.6320
987.585922 0.6330 0.6360 0.6390 0.6390 0.6410
994.237829 0.6410 0.6430 0.6430 0.6410 0.6390
1000.889736 0.6360 0.6330 0.6320 0.6290 0.6210
1007.541642 0.6180 0.6120 0.6060 0.5970 0.5840
1014.193549 0.5800 0.5690 0.5600 0.5530 0.5500
1020.845456 0.5400 0.5320 0.5250 0.5180 0.5130
1027.497363 0.5050 0.5000 0.4910 0.4820 0.4770
1034.149270 0.4630 0.4540 0.4450 0.4420 0.4230
1040.801177 0.4180 0.4100 0.4030 0.3970 0.3870
1047.453084 0.3830 0.3750 0.3660 0.3560 0.3460
1054.104991 0.3360 0.3260 0.3160 0.3060 0.2980
1060.756898 0.2880 0.2800 0.2740 0.2670 0.2590
1067.408805 0.2520 0.2500 0.2400 0.2280 0.2250
1074.060711 0.2190 0.2110 0.2080 0.2050 0.2040
1080.712618 0.2040 0.2040 0.2040 0.2050 0.2050
1087.364525 0.2090 0.2120 0.2150 0.2210 0.2230
1094.016432 0.2240 0.2280 0.2310 0.2370 0.2450
1100.668339 0.2520 0.2590 0.2640 0.2670 0.2710
1107.320246 0.2760 0.2800 0.2900 0.3030 0.3080
1113.972153 0.3150 0.3190 0.3240 0.3280 0.3380
1120.624060 0.3440 0.3520 0.3560 0.3620 0.3739
1127.275967 0.3850 0.3860 0.3980 0.4050 0.4070
1133.927874 0.4100 0.4150 0.4220 0.4250 0.4310
1140.579781 0.4380 0.4420 0.4430 0.4460 0.4490
1147.231687 0.4540 0.4590 0.4630 0.4670 0.4730
1153.883594 0.4790 0.4870 0.4970 0.5020 0.5090
1160.535501 0.5160 0.5160 0.5130 0.5100 0.5080
1167.187408 0.5060 0.5050 0.5050 0.5060 0.5090
1173.839315 0.5100 0.5130 0.5160 0.5250 0.5290
1180.491222 0.5300 0.5380 0.5480 0.5530 0.5620
1187.143129 0.5680 0.5730 0.5800 0.5850 0.5920
1193.795036 0.5980 0.6010 0.6090 0.6120 0.6200
1200.446943 0.6240 0.6320 0.6390 0.6450 0.6490
1207.098850 0.6520 0.6590 0.6600 0.6630 0.6680
1213.750756 0.6720 0.6760 0.6800 0.6830 0.6840
1220.402663 0.6880 0.6930 0.6990 0.7000 0.7000
1227.054570 0.7030 0.7040 0.7080 0.7130 0.7160
1233.706477 0.7190 0.7190 0.7210 0.7240 0.7240
1240.358384 0.7250 0.7290 0.7320 0.7330 0.7330
1247.010291 0.7350 0.7390 0.7400 0.7400 0.7400
1253.662198 0.7410 0.7430 0.7430 0.7430 0.7440
1260.314105 0.7450 0.7500 0.7510 0.7510 0.7520
1266.966012 0.7540 0.7550 0.7550 0.7560 0.7580
1273.617919 0.7590 0.7590 0.7590 0.7590 0.7600
1280.269826 0.7630 0.7640 0.7640 0.7660 0.7660
1286.921732 0.7660 0.7660 0.7670 0.7670 0.7670
1293.573639 0.7710 0.7720 0.7740 0.7750 0.7750
1300.225546 0.7750 0.7760 0.7780 0.7790 0.7790
1306.877453 0.7800 0.7800 0.7820 0.7830 0.7840
1313.529360 0.7840 0.7860 0.7860 0.7860 0.7870
1320.181267 0.7870 0.7870 0.7870 0.7880 0.7900
1326.833174 0.7920 0.7920 0.7940 0.7940 0.7950
1333.485081 0.7950 0.7960 0.7960 0.7980 0.7990
1340.136988 0.7990 0.7990 0.8000 0.8000 0.8020
1346.788895 0.8020 0.8020 0.8020 0.8020 0.8030
1353.440801 0.8030 0.8040 0.8040 0.8060 0.8060
1360.092708 0.8060 0.8070 0.8070 0.8070 0.8070
1366.744615 0.8080 0.8100 0.8100 0.8110 0.8110
1373.396522 0.8110 0.8110 0.8110 0.8100 0.8080
1380.048429 0.8080 0.8100 0.8100 0.8110 0.8110
1386.700336 0.8120 0.8120 0.8140 0.8150 0.8160
1393.352243 0.8160 0.8150 0.8150 0.8150 0.8150
1400.004150 0.8160 0.8180 0.8190 0.8190 0.8190
1406.656057 0.8200 0.8200 0.8200 0.8220 0.8220
1413.307964 0.8220 0.8220 0.8220 0.8220 0.8230
1419.959871 0.8230 0.8230 0.8230 0.8230 0.8230
1426.611777 0.8230 0.8240 0.8240 0.8240 0.8260
1433.263684 0.8260 0.8260 0.8260 0.8270 0.8270
1439.915591 0.8260 0.8260 0.8260 0.8260 0.8270
1446.567498 0.8270 0.8300 0.8300 0.8300 0.8310
1453.219405 0.8320 0.8320 0.8340 0.8340 0.8340
1459.871312 0.8340 0.8340 0.8340 0.8340 0.8340
1466.523219 0.8340 0.8340 0.8340 0.8340 0.8350
1473.175126 0.8360 0.8380 0.8380 0.8380 0.8390
1479.827033 0.8390 0.8400 0.8420 0.8420 0.8420
1486.478940 0.8420 0.8430 0.8440 0.8440 0.8440
1493.130846 0.8440 0.8440 0.8440 0.8440 0.8440
1499.782753 0.8430 0.8430 0.8420 0.8420 0.8420
1506.434660 0.8430 0.8440 0.8440 0.8440 0.8460
1513.086567 0.8460 0.8440 0.8440 0.8430 0.8430
1519.738474 0.8420 0.8420 0.8420 0.8430 0.8430
1526.390381 0.8430 0.8430 0.8430 0.8440 0.8440
1533.042288 0.8460 0.8460 0.8440 0.8430 0.8430
1539.694195 0.8440 0.8440 0.8430 0.8420 0.8400
1546.346102 0.8400 0.8390 0.8390 0.8390 0.8400
1552.998009 0.8420 0.8420 0.8420 0.8420 0.8420
1559.649916 0.8420 0.8420 0.8420 0.8420 0.8420
1566.301822 0.8420 0.8420 0.8420 0.8420 0.8420
1572.953729 0.8420 0.8420 0.8420 0.8420 0.8420
1579.605636 0.8420 0.8400 0.8400 0.8390 0.8390
1586.257543 0.8380 0.8350 0.8340 0.8320 0.8310
1592.909450 0.8300 0.8270 0.8240 0.8230 0.8220
1599.561357 0.8200 0.8180 0.8140 0.8110 0.8080
1606.213264 0.8070 0.8060 0.8040 0.8030 0.8020
1612.865171 0.8020 0.8000 0.8000 0.8000 0.8000
1619.517078 0.8020 0.8020 0.8030 0.8040 0.8060
1626.168985 0.8060 0.8070 0.8080 0.8100 0.8110
1632.820891 0.8120 0.8160 0.8180 0.8190 0.8190
1639.472798 0.8230 0.8240 0.8240 0.8270 0.8280
1646.124705 0.8300 0.8300 0.8310 0.8320 0.8340
1652.776612 0.8350 0.8360 0.8360 0.8380 0.8380
1659.428519 0.8380 0.8390 0.8400 0.8400 0.8400
1666.080426 0.8420 0.8430 0.8430 0.8430 0.8440
1672.732333 0.8440 0.8460 0.8460 0.8440 0.8440
1679.384240 0.8430 0.8430 0.8430 0.8440 0.8460
1686.036147 0.8470 0.8470 0.8480 0.8480 0.8480
1692.688054 0.8480 0.8500 0.8500 0.8500 0.8510
1699.339961 0.8510 0.8510 0.8510 0.8510 0.8520
1705.991867 0.8520 0.8540 0.8540 0.8550 0.8550
1712.643774 0.8540 0.8540 0.8540 0.8520 0.8520
1719.295681 0.8520 0.8520 0.8520 0.8520 0.8520
1725.947588 0.8520 0.8520 0.8540 0.8540 0.8550
1732.599495 0.8550 0.8550 0.8560 0.8560 0.8580
1739.251402 0.8580 0.8580 0.8590 0.8590 0.8590
1745.903309 0.8590 0.8590 0.8600 0.8620 0.8620
1752.555216 0.8620 0.8630 0.8630 0.8630 0.8630
1759.207123 0.8630 0.8630 0.8630 0.8630 0.8630
1765.859030 0.8630 0.8630 0.8630 0.8630 0.8640
1772.510936 0.8640 0.8640 0.8640 0.8640 0.8640
1779.162843 0.8640 0.8640 0.8640 0.8640 0.8640
1785.814750 0.8630 0.8630 0.8630 0.8630 0.8620
1792.466657 0.8620 0.8620 0.8620 0.8620 0.8620
1799.118564 0.8620 0.8600 0.8600 0.8600 0.8600
1805.770471 0.8600 0.8600 0.8600 0.8620 0.8620
1812.422378 0.8620 0.8620 0.8620 0.8620 0.8620
1819.074285 0.8620 0.8620 0.8620 0.8620 0.8630
1825.726192 0.8630 0.8640 0.8640 0.8640 0.8660
1832.378099 0.8660 0.8660 0.8660 0.8670 0.8670
1839.030006 0.8670 0.8680 0.8680 0.8680 0.8680
1845.681912 0.8670 0.8660 0.8660 0.8660 0.8640
1852.333819 0.8640 0.8640 0.8640 0.8640 0.8640
1858.985726 0.8630 0.8630 0.8630 0.8630 0.8630
1865.637633 0.8630 0.8620 0.8620 0.8620 0.8600
1872.289540 0.8590 0.8590 0.8580 0.8550 0.8550
1878.941447 0.8540 0.8540 0.8520 0.8520 0.8520
1885.593354 0.8520 0.8520 0.8520 0.8520 0.8520
1892.245261 0.8540 0.8540 0.8540 0.8550 0.8550
1898.897168 0.8550 0.8550 0.8560 0.8560 0.8560
1905.549075 0.8560 0.8560 0.8560 0.8560 0.8560
1912.200981 0.8560 0.8560 0.8580 0.8580 0.8590
1918.852888 0.8590 0.8590 0.8580 0.8550 0.8540
1925.504795 0.8520 0.8520 0.8540 0.8550 0.8550
1932.156702 0.8560 0.8560 0.8560 0.8580 0.8590
1938.808609 0.8590 0.8590 0.8600 0.8600 0.8600
1945.460516 0.8600 0.8600 0.8600 0.8590 0.8590
1952.112423 0.8590 0.8590 0.8590 0.8590 0.8590
1958.764330 0.8590 0.8590 0.8590 0.8590 0.8580
1965.416237 0.8580 0.8580 0.8580 0.8580 0.8590
1972.068144 0.8590 0.8590 0.8590 0.8590 0.8580
1978.720051 0.8580 0.8580 0.8580 0.8580 0.8580
1985.371957 0.8580 0.8560 0.8560 0.8550 0.8550
1992.023864 0.8560 0.8560 0.8560 0.8560 0.8560
1998.675771 0.8560 0.8550 0.8550 0.8550 0.8550
2005.327678 0.8550 0.8555 0.8560 0.8570 0.8580
2011.979585 0.8580 0.8580 0.8590 0.8600 0.8610
2018.631492 0.8620 0.8620 0.8620 0.8625 0.8630
2025.283399 0.8630 0.8630 0.8630 0.8630 0.8630
2031.935306 0.8630 0.8635 0.8640 0.8640 0.8640
2038.587213 0.8650 0.8660 0.8660 0.8660 0.8660
2045.239120 0.8660 0.8660 0.8660 0.8665 0.8670
2051.891026 0.8670 0.8670 0.8670 0.8670 0.8675
2058.542933 0.8681 0.8691 0.8700 0.8700 0.8700
2065.194840 0.8700 0.8700 0.8700 0.8700 0.8700
2071.846747 0.8700 0.8700 0.8700 0.8700 0.8700
2078.498654 0.8700 0.8700 0.8700 0.8700 0.8700
2085.150561 0.8700 0.8700 0.8699 0.8689 0.8680
2091.802468 0.8680 0.8680 0.8680 0.8680 0.8680
2098.454375 0.8680 0.8680 0.8680 0.8680 0.8680
2105.106282 0.8680 0.8680 0.8680 0.8680 0.8680
2111.758189 0.8680 0.8680 0.8681 0.8691 0.8700
2118.410096 0.8700 0.8700 0.8700 0.8698 0.8688
2125.062002 0.8680 0.8680 0.8680 0.8680 0.8680
2131.713909 0.8680 0.8680 0.8680 0.8680 0.8680
2138.365816 0.8680 0.8680 0.8680 0.8680 0.8682
2145.017723 0.8692 0.8700 0.8700 0.8700 0.8700
2151.669630 0.8701 0.8706 0.8710 0.8710 0.8710
2158.321537 0.8710 0.8710 0.8710 0.8711 0.8716
2164.973444 0.8719 0.8714 0.8710 0.8710 0.8709
2171.625351 0.8704 0.8700 0.8700 0.8698 0.8688
2178.277258 0.8680 0.8680 0.8680 0.8680 0.8682
2184.929165 0.8692 0.8700 0.8700 0.8700 0.8700
2191.581071 0.8700 0.8700 0.8700 0.8700 0.8700
2198.232978 0.8700 0.8701 0.8706 0.8710 0.8710
2204.884885 0.8709 0.8704 0.8700 0.8700 0.8700
2211.536792 0.8700 0.8700 0.8700 0.8700 0.8700
2218.188699 0.8700 0.8700 0.8700 0.8700 0.8700
2224.840606 0.8700 0.8700 0.8700 0.8697 0.8687
2231.492513 0.8680 0.8680 0.8679 0.8674 0.8670
2238.144420 0.8670 0.8670 0.8670 0.8670 0.8670
2244.796327 0.8670 0.8670 0.8670 0.8670 0.8670
2251.448234 0.8670 0.8670 0.8670 0.8668 0.8663
2258.100141 0.8660 0.8660 0.8660 0.8660 0.8660
2264.752047 0.8660 0.8660 0.8660 0.8660 0.8660
2271.403954 0.8660 0.8660 0.8660 0.8660 0.8660
2278.055861 0.8660 0.8662 0.8667 0.8670 0.8670
2284.707768 0.8670 0.8670 0.8670 0.8670 0.8668
2291.359675 0.8663 0.8660 0.8660 0.8656 0.8646
2298.011582 0.8640 0.8640 0.8640 0.8640 0.8640
2304.663489 0.8640 0.8640 0.8640 0.8640 0.8640
2311.315396 0.8640 0.8640 0.8640 0.8640 0.8640
2317.967303 0.8640 0.8640 0.8640 0.8640 0.8640
2324.619210 0.8638 0.8633 0.8630 0.8630 0.8628
2331.271116 0.8623 0.8620 0.8620 0.8616 0.8606
2337.923023 0.8600 0.8600 0.8600 0.8600 0.8598
2344.574930 0.8593 0.8590 0.8590 0.8590 0.8590
2351.226837 0.8590 0.8590 0.8590 0.8590 0.8590
2357.878744 0.8590 0.8588 0.8583 0.8573 0.8558
2364.530651 0.8548 0.8543 0.8535 0.8525 0.8520
2371.182558 0.8520 0.8520 0.8520 0.8520 0.8520
2377.834465 0.8520 0.8520 0.8525 0.8535 0.8543
2384.486372 0.8548 0.8558 0.8573 0.8580 0.8580
2391.138279 0.8583 0.8588 0.8590 0.8590 0.8593
2397.790186 0.8598 0.8600 0.8600 0.8605 0.8615
2404.442092 0.8620 0.8620 0.8615 0.8605 0.8600
2411.093999 0.8600 0.8600 0.8600 0.8600 0.8600
2417.745906 0.8600 0.8600 0.8600 0.8600 0.8600
2424.397813 0.8600 0.8600 0.8600 0.8600 0.8600
2431.049720 0.8600 0.8600 0.8597 0.8592 0.8590
2437.701627 0.8590 0.8593 0.8598 0.8600 0.8600
2444.353534 0.8597 0.8592 0.8590 0.8590 0.8590
2451.005441 0.8590 0.8587 0.8582 0.8580 0.8580
2457.657348 0.8574 0.8564 0.8557 0.8552 0.8553
2464.309255 0.8558 0.8566 0.8576 0.8580 0.8580
2470.961161 0.8583 0.8588 0.8590 0.8590 0.8587
2477.613068 0.8582 0.8574 0.8564 0.8560 0.8560
2484.264975 0.8557 0.8552 0.8550 0.8550 0.8553
2490.916882 0.8558 0.8560 0.8560 0.8560 0.8560
2497.568789 0.8557 0.8552 0.8550 0.8550 0.8547
2504.220696 0.8542 0.8540 0.8540 0.8540 0.8540
2510.872603 0.8540 0.8540 0.8540 0.8540 0.8543
2517.524510 0.8548 0.8550 0.8550 0.8550 0.8550
2524.176417 0.8550 0.8550 0.8550 0.8550 0.8550
2530.828324 0.8550 0.8550 0.8550 0.8550 0.8550
2537.480231 0.8546 0.8541 0.8540 0.8540 0.8540
2544.132137 0.8540 0.8540 0.8540 0.8540 0.8540
2550.784044 0.8540 0.8540 0.8540 0.8540 0.8544
2557.435951 0.8549 0.8550 0.8550 0.8554 0.8559
2564.087858 0.8560 0.8560 0.8560 0.8560 0.8556
2570.739765 0.8551 0.8546 0.8541 0.8532 0.8522
2577.391672 0.8520 0.8520 0.8520 0.8520 0.8516
2584.043579 0.8511 0.8506 0.8501 0.8492 0.8482
2590.695486 0.8480 0.8480 0.8480 0.8480 0.8480
2597.347393 0.8480 0.8480 0.8480 0.8480 0.8480
2603.999300 0.8480 0.8480 0.8480 0.8480 0.8480
2610.651207 0.8480 0.8488 0.8498 0.8500 0.8500
2617.303113 0.8504 0.8509 0.8510 0.8510 0.8506
2623.955020 0.8501 0.8492 0.8482 0.8480 0.8480
2630.606927 0.8488 0.8498 0.8500 0.8500 0.8492
2637.258834 0.8481 0.8480 0.8480 0.8480 0.8480
2643.910741 0.8480 0.8480 0.8480 0.8480 0.8480
2650.562648 0.8480 0.8480 0.8480 0.8480 0.8480
2657.214555 0.8480 0.8480 0.8480 0.8480 0.8480
2663.866462 0.8480 0.8480 0.8480 0.8480 0.8480
2670.518369 0.8476 0.8471 0.8470 0.8470 0.8470
2677.170276 0.8470 0.8470 0.8470 0.8470 0.8470
2683.822182 0.8470 0.8470 0.8470 0.8470 0.8470
2690.474089 0.8470 0.8465 0.8460 0.8460 0.8460
2697.125996 0.8460 0.8460 0.8460 0.8460 0.8451
2703.777903 0.8441 0.8440 0.8440 0.8440 0.8440
2710.429810 0.8449 0.8459 0.8460 0.8460 0.8460
2717.081717 0.8460 0.8465 0.8470 0.8470 0.8470
2723.733624 0.8465 0.8460 0.8460 0.8460 0.8460
2730.385531 0.8460 0.8450 0.8440 0.8440 0.8440
2737.037438 0.8440 0.8440 0.8440 0.8440 0.8440
2743.689345 0.8440 0.8440 0.8440 0.8440 0.8440
2750.341252 0.8440 0.8440 0.8435 0.8430 0.8430
2756.993158 0.8430 0.8430 0.8430 0.8430 0.8430
2763.645065 0.8430 0.8430 0.8430 0.8430 0.8430
2770.296972 0.8430 0.8430 0.8430 0.8425 0.8420
2776.948879 0.8420 0.8420 0.8420 0.8420 0.8420
2783.600786 0.8420 0.8420 0.8420 0.8420 0.8420
2790.252693 0.8420 0.8420 0.8420 0.8420 0.8409
2796.904600 0.8400 0.8400 0.8400 0.8400 0.8400
2803.556507 0.8400 0.8400 0.8400 0.8400 0.8400
2810.208414 0.8400 0.8400 0.8400 0.8400 0.8400
2816.860321 0.8395 0.8390 0.8390 0.8390 0.8390
2823.512227 0.8390 0.8390 0.8389 0.8384 0.8380
2830.164134 0.8380 0.8379 0.8369 0.8359 0.8354
2836.816041 0.8350 0.8350 0.8349 0.8344 0.8338
2843.467948 0.8323 0.8308 0.8293 0.8279 0.8274
2850.119855 0.8268 0.8253 0.8239 0.8234 0.8229
2856.771762 0.8224 0.8219 0.8209 0.8200 0.8200
2863.423669 0.8200 0.8200 0.8200 0.8200 0.8201
2870.075576 0.8211 0.8220 0.8220 0.8221 0.8226
2876.727483 0.8230 0.8230 0.8230 0.8230 0.8231
2883.379390 0.8236 0.8240 0.8240 0.8240 0.8240
2890.031297 0.8240 0.8240 0.8240 0.8240 0.8239
2896.683203 0.8234 0.8229 0.8224 0.8218 0.8208
2903.335110 0.8199 0.8194 0.8187 0.8172 0.8159
2909.987017 0.8154 0.8149 0.8144 0.8136 0.8116
2916.638924 0.8096 0.8076 0.8057 0.8042 0.8029
2923.290831 0.8024 0.8018 0.8008 0.8000 0.8000
2929.942738 0.8002 0.8012 0.8020 0.8020 0.8021
2936.594645 0.8026 0.8031 0.8036 0.8043 0.8053
2943.246552 0.8063 0.8073 0.8083 0.8093 0.8101
2949.898459 0.8106 0.8110 0.8110 0.8114 0.8129
2956.550366 0.8141 0.8146 0.8151 0.8156 0.8163
2963.202272 0.8173 0.8180 0.8180 0.8180 0.8180
2969.854179 0.8180 0.8180 0.8181 0.8186 0.8190
2976.506086 0.8190 0.8191 0.8196 0.8200 0.8200
2983.157993 0.8203 0.8213 0.8220 0.8220 0.8220
2989.809900 0.8220 0.8220 0.8220 0.8220 0.8220
2996.461807 0.8220 0.8220 0.8220 0.8220 0.8217
3003.113714 0.8207 0.8200 0.8200 0.8200 0.8200
3009.765621 0.8200 0.8200 0.8200 0.8200 0.8200
3016.417528 0.8200 0.8200 0.8200 0.8204 0.8214
3023.069435 0.8222 0.8227 0.8232 0.8237 0.8240
3029.721342 0.8240 0.8240 0.8240 0.8238 0.8233
3036.373248 0.8230 0.8230 0.8228 0.8223 0.8216
3043.025155 0.8206 0.8200 0.8200 0.8200 0.8200
3049.677062 0.8200 0.8200 0.8198 0.8193 0.8190
3056.328969 0.8190 0.8190 0.8190 0.8190 0.8190
3062.980876 0.8190 0.8190 0.8190 0.8190 0.8190
3069.632783 0.8190 0.8190 0.8190 0.8190 0.8190
3076.284690 0.8190 0.8190 0.8190 0.8190 0.8190
3082.936597 0.8190 0.8190 0.8190 0.8190 0.8190
3089.588504 0.8190 0.8190 0.8190 0.8190 0.8190
3096.240411 0.8190 0.8188 0.8183 0.8180 0.8180
3102.892317 0.8175 0.8165 0.8160 0.8160 0.8158
3109.544224 0.8153 0.8150 0.8150 0.8148 0.8143
3116.196131 0.8140 0.8140 0.8140 0.8140 0.8140
3122.848038 0.8140 0.8140 0.8140 0.8135 0.8125
3129.499945 0.8120 0.8120 0.8120 0.8120 0.8120
3136.151852 0.8120 0.8117 0.8112 0.8110 0.8110
3142.803759 0.8107 0.8102 0.8100 0.8100 0.8095
3149.455666 0.8085 0.8080 0.8080 0.8077 0.8072
3156.107573 0.8070 0.8070 0.8067 0.8062 0.8060
3162.759480 0.8060 0.8055 0.8045 0.8037 0.8032
3169.411387 0.8030 0.8030 0.8030 0.8030 0.8030
3176.063293 0.8030 0.8027 0.8022 0.8020 0.8020
3182.715200 0.8020 0.8020 0.8020 0.8020 0.8014
3189.367107 0.8004 0.8000 0.8000 0.8000 0.8000
3196.019014 0.8000 0.8000 0.8000 0.8000 0.8000
3202.670921 0.8000 0.8000 0.8000 0.7997 0.7992
3209.322828 0.7987 0.7982 0.7980 0.7980 0.7974
3215.974735 0.7964 0.7960 0.7960 0.7960 0.7960
3222.626642 0.7960 0.7960 0.7957 0.7952 0.7950
3229.278549 0.7950 0.7950 0.7950 0.7950 0.7950
3235.930456 0.7947 0.7942 0.7940 0.7940 0.7934
3242.582362 0.7924 0.7917 0.7912 0.7910 0.7910
3249.234269 0.7910 0.7910 0.7910 0.7910 0.7907
3255.886176 0.7902 0.7900 0.7900 0.7900 0.7900
3262.538083 0.7893 0.7883 0.7880 0.7880 0.7880
3269.189990 0.7880 0.7877 0.7872 0.7867 0.7861
3275.841897 0.7860 0.7860 0.7853 0.7843 0.7840
3282.493804 0.7840 0.7836 0.7831 0.7826 0.7821
3289.145711 0.7820 0.7820 0.7813 0.7803 0.7800
3295.797618 0.7800 0.7800 0.7800 0.7796 0.7791
3302.449525 0.7779 0.7764 0.7756 0.7751 0.7746
3309.101432 0.7741 0.7733 0.7723 0.7720 0.7720
3315.753338 0.7720 0.7720 0.7716 0.7711 0.7706
3322.405245 0.7701 0.7700 0.7700 0.7689 0.7673
3329.057152 0.7666 0.7661 0.7660 0.7660 0.7648
3335.709059 0.7633 0.7626 0.7621 0.7608 0.7593
3342.360966 0.7578 0.7563 0.7556 0.7551 0.7538
3349.012873 0.7523 0.7520 0.7520 0.7512 0.7502
3355.664780 0.7492 0.7482 0.7480 0.7480 0.7476
3362.316687 0.7471 0.7462 0.7452 0.7446 0.7441
3368.968594 0.7436 0.7431 0.7422 0.7412 0.7402
3375.620501 0.7392 0.7378 0.7363 0.7331 0.7295
3382.272407 0.7281 0.7271 0.7257 0.7242 0.7236
3388.924314 0.7231 0.7221 0.7211 0.7206 0.7201
3395.576221 0.7196 0.7191 0.7177 0.7162 0.7143
3402.228128 0.7123 0.7107 0.7092 0.7086 0.7081
3408.880035 0.7076 0.7071 0.7061 0.7051 0.7046
3415.531942 0.7041 0.7036 0.7031 0.7021 0.7011
3422.183849 0.7006 0.7001 0.7000 0.7000 0.6996
3428.835756 0.6991 0.6990 0.6990 0.6981 0.6971
3435.487663 0.6965 0.6960 0.6960 0.6960 0.6955
3442.139570 0.6950 0.6941 0.6931 0.6925 0.6920
3448.791477 0.6920 0.6920 0.6920 0.6920 0.6920
3455.443383 0.6920 0.6920 0.6920 0.6920 0.6920
3462.095290 0.6925 0.6930 0.6930 0.6930 0.6940
3468.747197 0.6950 0.6950 0.6950 0.6950 0.6950
3475.399104 0.6950 0.6950 0.6955 0.6960 0.6960
3482.051011 0.6960 0.6965 0.6970 0.6970 0.6970
3488.702918 0.6980 0.6990 0.6995 0.7000 0.7000
3495.354825 0.7000 0.7000 0.7000 0.7005 0.7010
3502.006732 0.7010 0.7010 0.7020 0.7030 0.7035
3508.658639 0.7040 0.7045 0.7050 0.7065 0.7080
3515.310546 0.7080 0.7080 0.7095 0.7110 0.7115
3521.962452 0.7120 0.7135 0.7150 0.7155 0.7160
3528.614359 0.7165 0.7170 0.7170 0.7170 0.7180
3535.266266 0.7190 0.7190 0.7190 0.7195 0.7201
3541.918173 0.7216 0.7231 0.7251 0.7270 0.7275
3548.570080 0.7280 0.7280 0.7280 0.7285 0.7290
3555.221987 0.7290 0.7291 0.7306 0.7320 0.7325
3561.873894 0.7331 0.7341 0.7351 0.7372 0.7390
3568.525801 0.7390 0.7391 0.7401 0.7411 0.7421
3575.177708 0.7431 0.7441 0.7452 0.7467 0.7481
3581.829615 0.7491 0.7500 0.7500 0.7500 0.7500
3588.481522 0.7501 0.7506 0.7511 0.7516 0.7520
3595.133428 0.7520 0.7524 0.7554 0.7581 0.7586
3601.785335 0.7591 0.7596 0.7601 0.7611 0.7621
3608.437242 0.7626 0.7631 0.7636 0.7641 0.7651
3615.089149 0.7663 0.7683 0.7700 0.7700 0.7701
3621.741056 0.7706 0.7710 0.7710 0.7710 0.7710
3628.392963 0.7710 0.7710 0.7711 0.7716 0.7722
3635.044870 0.7732 0.7743 0.7763 0.7781 0.7786
3641.696777 0.7791 0.7796 0.7802 0.7812 0.7820
3648.348684 0.7820 0.7820 0.7820 0.7821 0.7826
3655.000591 0.7830 0.7830 0.7830 0.7830 0.7830
3661.652497 0.7830 0.7830 0.7830 0.7830 0.7830
3668.304404 0.7830 0.7830 0.7830 0.7830 0.7830
3674.956311 0.7830 0.7831 0.7836 0.7842 0.7852
3681.608218 0.7860 0.7860 0.7861 0.7866 0.7871
3688.260125 0.7876 0.7880 0.7880 0.7880 0.7880
3694.912032 0.7880 0.7880 0.7880 0.7880 0.7880
3701.563939 0.7880 0.7880 0.7880 0.7879 0.7874
3708.215846 0.7870 0.7870 0.7870 0.7870 0.7870
3714.867753 0.7870 0.7869 0.7864 0.7860 0.7860
3721.519660 0.7860 0.7860 0.7861 0.7867 0.7870
3728.171567 0.7870 0.7870 0.7870 0.7870 0.7870
3734.823473 0.7870 0.7870 0.7870 0.7870 0.7868
3741.475380 0.7863 0.7860 0.7860 0.7862 0.7867
3748.127287 0.7870 0.7870 0.7870 0.7870 0.7868
3754.779194 0.7863 0.7860 0.7860 0.7857 0.7847
3761.431101 0.7840 0.7840 0.7840 0.7840 0.7838
3768.083008 0.7833 0.7830 0.7830 0.7832 0.7837
3774.734915 0.7844 0.7854 0.7862 0.7867 0.7870
3781.386822 0.7870 0.7868 0.7863 0.7856 0.7846
3788.038729 0.7840 0.7840 0.7838 0.7833 0.7830
3794.690636 0.7830 0.7832 0.7837 0.7844 0.7854
3801.342542 0.7860 0.7860 0.7860 0.7860 0.7862
3807.994449 0.7867 0.7870 0.7870 0.7868 0.7863
3814.646356 0.7860 0.7860 0.7856 0.7846 0.7840
3821.298263 0.7840 0.7840 0.7840 0.7838 0.7833
3827.950170 0.7830 0.7830 0.7828 0.7823 0.7820
3834.602077 0.7820 0.7820 0.7820 0.7820 0.7820
3841.253984 0.7820 0.7820 0.7820 0.7820 0.7822
3847.905891 0.7827 0.7830 0.7830 0.7828 0.7823
3854.557798 0.7820 0.7820 0.7815 0.7805 0.7800
3861.209705 0.7800 0.7805 0.7815 0.7820 0.7820
3867.861612 0.7820 0.7820 0.7820 0.7820 0.7815
3874.513518 0.7805 0.7800 0.7800 0.7807 0.7822
3881.165425 0.7830 0.7830 0.7827 0.7822 0.7820
3887.817332 0.7820 0.7820 0.7820 0.7820 0.7820
3894.469239 0.7820 0.7820 0.7820 0.7820 0.7820
3901.121146 0.7820 0.7815 0.7805 0.7800 0.7800
3907.773053 0.7797 0.7792 0.7787 0.7782 0.7780
3914.424960 0.7780 0.7783 0.7788 0.7798 0.7813
3921.076867 0.7820 0.7820 0.7814 0.7804 0.7800
3927.728774 0.7800 0.7800 0.7800 0.7797 0.7792
3934.380681 0.7790 0.7790 0.7787 0.7782 0.7780
3941.032587 0.7780 0.7780 0.7780 0.7780 0.7780
3947.684494 0.7780 0.7780 0.7780 0.7780 0.7780
3954.336401 0.7780 0.7783 0.7788 0.7790 0.7790
3960.988308 0.7790 0.7790 0.7790 0.7790 0.7787
3967.640215 0.7782 0.7780 0.7780 0.7780 0.7780
3974.292122 0.7780 0.7780 0.7780 0.7780 0.7780
3980.944029 0.7780 0.7774 0.7764 0.7760 0.7760
##END=
