##TITLE=ETHYLAMINE SULFATE, 3,4,5-TRIMETHOXYPHEN-, DIHYDRATE
##JCAMP-DX=4.24
$$ By DXEDIT 1.05 (RS McDonald)
##DATA TYPE=INFRARED SPECTRUM
##CLASS=COBLENTZ III
##OWNER=COBLENTZ SOC.
Collection (C) 2018 copyright by the U.S. Secretary of Commerce
on behalf of the United States of America. All rights reserved.
##DATE=1964/06/01
##NAMES=MESCALINE SULFATE
##MOLFORM=C22 H36 N2 O10 S  * 2 H2 O
##MP=183-186 C
##SOURCE REFERENCE=COBLENTZ NO. 05171
##$NIST ID=B6005171
##$NIST SOURCE=COBLENTZ
##$NIST IMAGE=cob5171
##SPECTROMETER/DATA SYSTEM=PERKIN-ELMER 21 (GRATING)
##INSTRUMENT PARAMETERS=FILTER AT ABOUT 10 MICRONS
##STATE=SOLID (1.2 mg / 200 mg KBr DISC)
##SAMPLING PROCEDURE=TRANSMISSION
##RESOLUTION=2
##DATA PROCESSING=DIGITIZED BY COBLENTZ SOCIETY (BATCH I) FROM HARD COPY
##XUNITS=1/CM
##YUNITS=TRANSMITTANCE
##XLABEL=Wavenumbers (cm-1)
##YLABEL=Transmittance
##XFACTOR=1
##YFACTOR=1
##DELTAX=1
##FIRSTX=4000
##LASTX=662
##FIRSTY=0.9771
##MAXX=4000
##MINX=662
##MAXY=0.9918
##MINY=0.0292
##NPOINTS=3339
##XYDATA=(X++(Y..Y))
4000.000000 0.9771 0.9771 0.9771 0.9771 0.9771
3995.000000 0.9771 0.9771 0.9770 0.9770 0.9770
3990.000000 0.9770 0.9770 0.9770 0.9768 0.9768
3985.000000 0.9768 0.9768 0.9768 0.9768 0.9768
3980.000000 0.9768 0.9768 0.9768 0.9768 0.9768
3975.000000 0.9768 0.9767 0.9767 0.9767 0.9767
3970.000000 0.9767 0.9767 0.9766 0.9766 0.9766
3965.000000 0.9766 0.9766 0.9766 0.9766 0.9765
3960.000000 0.9765 0.9765 0.9765 0.9765 0.9765
3955.000000 0.9764 0.9764 0.9764 0.9764 0.9764
3950.000000 0.9764 0.9763 0.9763 0.9763 0.9763
3945.000000 0.9763 0.9763 0.9763 0.9763 0.9763
3940.000000 0.9763 0.9763 0.9763 0.9763 0.9763
3935.000000 0.9763 0.9763 0.9763 0.9763 0.9763
3930.000000 0.9762 0.9762 0.9762 0.9762 0.9762
3925.000000 0.9762 0.9762 0.9762 0.9762 0.9762
3920.000000 0.9762 0.9762 0.9762 0.9762 0.9762
3915.000000 0.9762 0.9762 0.9762 0.9762 0.9762
3910.000000 0.9762 0.9762 0.9762 0.9762 0.9762
3905.000000 0.9762 0.9763 0.9763 0.9764 0.9764
3900.000000 0.9765 0.9766 0.9767 0.9768 0.9768
3895.000000 0.9770 0.9771 0.9773 0.9774 0.9775
3890.000000 0.9775 0.9777 0.9778 0.9780 0.9781
3885.000000 0.9782 0.9783 0.9784 0.9785 0.9787
3880.000000 0.9788 0.9789 0.9790 0.9791 0.9792
3875.000000 0.9794 0.9795 0.9796 0.9798 0.9799
3870.000000 0.9800 0.9802 0.9803 0.9804 0.9806
3865.000000 0.9807 0.9808 0.9810 0.9811 0.9813
3860.000000 0.9815 0.9816 0.9818 0.9818 0.9820
3855.000000 0.9821 0.9823 0.9824 0.9825 0.9827
3850.000000 0.9828 0.9830 0.9832 0.9833 0.9835
3845.000000 0.9836 0.9838 0.9839 0.9841 0.9842
3840.000000 0.9844 0.9845 0.9847 0.9848 0.9850
3835.000000 0.9852 0.9853 0.9855 0.9856 0.9858
3830.000000 0.9859 0.9861 0.9862 0.9864 0.9865
3825.000000 0.9866 0.9868 0.9868 0.9870 0.9871
3820.000000 0.9873 0.9874 0.9875 0.9877 0.9878
3815.000000 0.9878 0.9878 0.9880 0.9881 0.9881
3810.000000 0.9882 0.9883 0.9884 0.9884 0.9885
3805.000000 0.9886 0.9886 0.9887 0.9888 0.9888
3800.000000 0.9889 0.9890 0.9890 0.9891 0.9892
3795.000000 0.9893 0.9893 0.9894 0.9895 0.9895
3790.000000 0.9896 0.9897 0.9897 0.9898 0.9899
3785.000000 0.9900 0.9900 0.9901 0.9902 0.9902
3780.000000 0.9903 0.9903 0.9904 0.9904 0.9905
3775.000000 0.9905 0.9905 0.9906 0.9906 0.9906
3770.000000 0.9907 0.9907 0.9907 0.9907 0.9907
3765.000000 0.9908 0.9908 0.9908 0.9909 0.9909
3760.000000 0.9909 0.9910 0.9910 0.9911 0.9911
3755.000000 0.9912 0.9912 0.9913 0.9913 0.9914
3750.000000 0.9915 0.9915 0.9916 0.9916 0.9916
3745.000000 0.9917 0.9917 0.9917 0.9918 0.9918
3740.000000 0.9918 0.9918 0.9918 0.9918 0.9916
3735.000000 0.9915 0.9913 0.9912 0.9910 0.9909
3730.000000 0.9907 0.9905 0.9903 0.9902 0.9900
3725.000000 0.9898 0.9895 0.9892 0.9890 0.9887
3720.000000 0.9885 0.9883 0.9880 0.9878 0.9875
3715.000000 0.9873 0.9871 0.9871 0.9870 0.9868
3710.000000 0.9867 0.9866 0.9865 0.9864 0.9863
3705.000000 0.9862 0.9861 0.9860 0.9859 0.9858
3700.000000 0.9857 0.9856 0.9855 0.9854 0.9853
3695.000000 0.9853 0.9852 0.9851 0.9850 0.9850
3690.000000 0.9849 0.9849 0.9849 0.9848 0.9848
3685.000000 0.9847 0.9847 0.9846 0.9846 0.9845
3680.000000 0.9845 0.9844 0.9844 0.9844 0.9843
3675.000000 0.9843 0.9843 0.9842 0.9842 0.9841
3670.000000 0.9841 0.9840 0.9839 0.9838 0.9837
3665.000000 0.9836 0.9835 0.9834 0.9833 0.9832
3660.000000 0.9831 0.9830 0.9828 0.9828 0.9827
3655.000000 0.9825 0.9820 0.9815 0.9809 0.9804
3650.000000 0.9798 0.9791 0.9783 0.9774 0.9766
3645.000000 0.9757 0.9749 0.9739 0.9730 0.9720
3640.000000 0.9711 0.9701 0.9683 0.9665 0.9647
3635.000000 0.9628 0.9611 0.9591 0.9571 0.9550
3630.000000 0.9530 0.9510 0.9491 0.9475 0.9459
3625.000000 0.9443 0.9427 0.9412 0.9396 0.9380
3620.000000 0.9364 0.9348 0.9332 0.9316 0.9300
3615.000000 0.9283 0.9267 0.9250 0.9232 0.9214
3610.000000 0.9196 0.9178 0.9160 0.9141 0.9123
3605.000000 0.9105 0.9086 0.9068 0.9044 0.9008
3600.000000 0.8971 0.8935 0.8899 0.8861 0.8811
3595.000000 0.8762 0.8713 0.8664 0.8615 0.8566
3590.000000 0.8518 0.8468 0.8421 0.8371 0.8348
3585.000000 0.8331 0.8313 0.8296 0.8278 0.8261
3580.000000 0.8244 0.8227 0.8210 0.8192 0.8175
3575.000000 0.8158 0.8140 0.8122 0.8105 0.8088
3570.000000 0.8071 0.8053 0.8036 0.8018 0.7999
3565.000000 0.7976 0.7955 0.7933 0.7911 0.7889
3560.000000 0.7865 0.7842 0.7818 0.7795 0.7771
3555.000000 0.7747 0.7724 0.7700 0.7675 0.7651
3550.000000 0.7628 0.7604 0.7580 0.7555 0.7531
3545.000000 0.7507 0.7483 0.7458 0.7434 0.7410
3540.000000 0.7385 0.7361 0.7336 0.7311 0.7286
3535.000000 0.7256 0.7225 0.7195 0.7165 0.7135
3530.000000 0.7108 0.7083 0.7058 0.7032 0.7006
3525.000000 0.6983 0.6960 0.6938 0.6915 0.6891
3520.000000 0.6865 0.6840 0.6815 0.6790 0.6764
3515.000000 0.6737 0.6710 0.6683 0.6656 0.6628
3510.000000 0.6601 0.6575 0.6549 0.6521 0.6495
3505.000000 0.6468 0.6441 0.6414 0.6387 0.6360
3500.000000 0.6332 0.6305 0.6278 0.6251 0.6224
3495.000000 0.6197 0.6170 0.6143 0.6116 0.6089
3490.000000 0.6060 0.6034 0.6007 0.5979 0.5952
3485.000000 0.5925 0.5898 0.5871 0.5843 0.5816
3480.000000 0.5788 0.5760 0.5734 0.5706 0.5679
3475.000000 0.5651 0.5624 0.5597 0.5569 0.5542
3470.000000 0.5514 0.5487 0.5459 0.5431 0.5404
3465.000000 0.5376 0.5348 0.5320 0.5293 0.5265
3460.000000 0.5238 0.5210 0.5183 0.5155 0.5127
3455.000000 0.5099 0.5071 0.5043 0.5016 0.4988
3450.000000 0.4960 0.4933 0.4905 0.4877 0.4849
3445.000000 0.4821 0.4793 0.4765 0.4738 0.4710
3440.000000 0.4683 0.4655 0.4640 0.4628 0.4616
3435.000000 0.4605 0.4593 0.4583 0.4572 0.4562
3430.000000 0.4552 0.4544 0.4540 0.4536 0.4532
3425.000000 0.4528 0.4524 0.4521 0.4518 0.4515
3420.000000 0.4512 0.4510 0.4509 0.4507 0.4493
3415.000000 0.4504 0.4503 0.4501 0.4500 0.4498
3410.000000 0.4497 0.4496 0.4495 0.4494 0.4493
3405.000000 0.4493 0.4493 0.4494 0.4494 0.4495
3400.000000 0.4496 0.4498 0.4499 0.4500 0.4502
3395.000000 0.4505 0.4507 0.4509 0.4512 0.4516
3390.000000 0.4520 0.4524 0.4529 0.4536 0.4545
3385.000000 0.4555 0.4564 0.4574 0.4590 0.4607
3380.000000 0.4624 0.4640 0.4656 0.4672 0.4688
3375.000000 0.4704 0.4720 0.4730 0.4740 0.4749
3370.000000 0.4759 0.4770 0.4785 0.4800 0.4815
3365.000000 0.4831 0.4852 0.4877 0.4901 0.4925
3360.000000 0.4950 0.4974 0.4998 0.5022 0.5046
3355.000000 0.5071 0.5095 0.5120 0.5144 0.5169
3350.000000 0.5193 0.5217 0.5241 0.5266 0.5290
3345.000000 0.5314 0.5339 0.5362 0.5388 0.5412
3340.000000 0.5437 0.5462 0.5486 0.5510 0.5535
3335.000000 0.5560 0.5584 0.5609 0.5633 0.5658
3330.000000 0.5682 0.5707 0.5732 0.5757 0.5781
3325.000000 0.5806 0.5831 0.5856 0.5880 0.5905
3320.000000 0.5930 0.5955 0.5979 0.6004 0.6029
3315.000000 0.6054 0.6079 0.6104 0.6129 0.6152
3310.000000 0.6169 0.6186 0.6203 0.6220 0.6232
3305.000000 0.6242 0.6253 0.6262 0.6271 0.6277
3300.000000 0.6283 0.6289 0.6294 0.6300 0.6306
3295.000000 0.6312 0.6317 0.6325 0.6333 0.6341
3290.000000 0.6348 0.6354 0.6356 0.6358 0.6401
3285.000000 0.6362 0.6365 0.6366 0.6368 0.6370
3280.000000 0.6371 0.6373 0.6374 0.6375 0.6375
3275.000000 0.6375 0.6374 0.6374 0.6373 0.6372
3270.000000 0.6370 0.6369 0.6368 0.6364 0.6360
3265.000000 0.6356 0.6352 0.6348 0.6344 0.6340
3260.000000 0.6336 0.6331 0.6327 0.6323 0.6318
3255.000000 0.6314 0.6309 0.6305 0.6300 0.6296
3250.000000 0.6290 0.6285 0.6279 0.6274 0.6267
3245.000000 0.6260 0.6254 0.6248 0.6241 0.6234
3240.000000 0.6227 0.6220 0.6212 0.6207 0.6200
3235.000000 0.6193 0.6186 0.6178 0.6169 0.6160
3230.000000 0.6152 0.6141 0.6130 0.6119 0.6108
3225.000000 0.6096 0.6085 0.6074 0.6062 0.6038
3220.000000 0.6006 0.5974 0.5941 0.5909 0.5876
3215.000000 0.5843 0.5810 0.5780 0.5755 0.5730
3210.000000 0.5705 0.5679 0.5655 0.5630 0.5605
3205.000000 0.5581 0.5564 0.5546 0.5529 0.5510
3200.000000 0.5493 0.5476 0.5458 0.5441 0.5423
3195.000000 0.5405 0.5387 0.5369 0.5352 0.5334
3190.000000 0.5316 0.5298 0.5283 0.5269 0.5254
3185.000000 0.5240 0.5226 0.5212 0.5199 0.5186
3180.000000 0.5173 0.5160 0.5147 0.5133 0.5120
3175.000000 0.5107 0.5093 0.5080 0.5067 0.5053
3170.000000 0.5040 0.5026 0.5012 0.5000 0.4987
3165.000000 0.4973 0.4960 0.4947 0.4934 0.4921
3160.000000 0.4908 0.4896 0.4883 0.4870 0.4857
3155.000000 0.4844 0.4832 0.4819 0.4806 0.4794
3150.000000 0.4781 0.4768 0.4756 0.4743 0.4730
3145.000000 0.4717 0.4704 0.4691 0.4678 0.4665
3140.000000 0.4652 0.4638 0.4624 0.4610 0.4596
3135.000000 0.4581 0.4567 0.4553 0.4539 0.4525
3130.000000 0.4510 0.4497 0.4482 0.4468 0.4454
3125.000000 0.4440 0.4422 0.4405 0.4388 0.4371
3120.000000 0.4351 0.4332 0.4312 0.4293 0.4273
3115.000000 0.4254 0.4235 0.4216 0.4199 0.4181
3110.000000 0.4164 0.4148 0.4132 0.4117 0.4102
3105.000000 0.4086 0.4071 0.4055 0.4040 0.4024
3100.000000 0.4009 0.3993 0.3978 0.3962 0.3947
3095.000000 0.3932 0.3916 0.3903 0.3890 0.3876
3090.000000 0.3862 0.3849 0.3836 0.3823 0.3809
3085.000000 0.3797 0.3784 0.3771 0.3758 0.3745
3080.000000 0.3732 0.3718 0.3706 0.3693 0.3680
3075.000000 0.3666 0.3657 0.3647 0.3637 0.3627
3070.000000 0.3618 0.3608 0.3598 0.3589 0.3579
3065.000000 0.3568 0.3559 0.3550 0.3540 0.3530
3060.000000 0.3521 0.3510 0.3500 0.3492 0.3482
3055.000000 0.3473 0.3462 0.3453 0.3444 0.3434
3050.000000 0.3424 0.3414 0.3405 0.3395 0.3386
3045.000000 0.3376 0.3366 0.3356 0.3347 0.3337
3040.000000 0.3328 0.3318 0.3309 0.3300 0.3291
3035.000000 0.3282 0.3275 0.3266 0.3258 0.3249
3030.000000 0.3241 0.3232 0.3223 0.3214 0.3206
3025.000000 0.3198 0.3189 0.3181 0.3172 0.3164
3020.000000 0.3155 0.3147 0.3138 0.3130 0.3121
3015.000000 0.3113 0.3104 0.3096 0.3087 0.3079
3010.000000 0.3071 0.3063 0.3055 0.3047 0.3038
3005.000000 0.3030 0.3022 0.3014 0.3006 0.2998
3000.000000 0.2989 0.2981 0.2973 0.2965 0.2957
2995.000000 0.2948 0.2940 0.2932 0.2924 0.2916
2990.000000 0.2908 0.2901 0.2893 0.2885 0.2878
2985.000000 0.2871 0.2864 0.2856 0.2849 0.2842
2980.000000 0.2834 0.2827 0.2820 0.2812 0.2805
2975.000000 0.2798 0.2790 0.2783 0.2776 0.2768
2970.000000 0.2761 0.2753 0.2745 0.2735 0.2728
2965.000000 0.2719 0.2710 0.2701 0.2692 0.2682
2960.000000 0.2673 0.2663 0.2655 0.2648 0.2641
2955.000000 0.2634 0.2627 0.2620 0.2612 0.2605
2950.000000 0.2599 0.2592 0.2584 0.2579 0.2573
2945.000000 0.2567 0.2560 0.2554 0.2548 0.2542
2940.000000 0.2537 0.2533 0.2529 0.2525 0.2521
2935.000000 0.2516 0.2513 0.2510 0.2508 0.2505
2930.000000 0.2502 0.2500 0.2497 0.2495 0.2492
2925.000000 0.2490 0.2496 0.2487 0.2485 0.2484
2920.000000 0.2484 0.2484 0.2484 0.2484 0.2491
2915.000000 0.2497 0.2503 0.2509 0.2515 0.2521
2910.000000 0.2527 0.2533 0.2538 0.2544 0.2550
2905.000000 0.2556 0.2561 0.2568 0.2574 0.2581
2900.000000 0.2589 0.2597 0.2606 0.2614 0.2623
2895.000000 0.2632 0.2640 0.2649 0.2658 0.2666
2890.000000 0.2675 0.2683 0.2692 0.2700 0.2709
2885.000000 0.2719 0.2728 0.2738 0.2749 0.2760
2880.000000 0.2770 0.2781 0.2792 0.2802 0.2813
2875.000000 0.2823 0.2834 0.2845 0.2857 0.2870
2870.000000 0.2882 0.2896 0.2909 0.2923 0.2937
2865.000000 0.2951 0.2964 0.2979 0.2994 0.3009
2860.000000 0.3034 0.3073 0.3112 0.3149 0.3170
2855.000000 0.3191 0.3212 0.3226 0.3237 0.3249
2850.000000 0.3259 0.3266 0.3275 0.3282 0.3289
2845.000000 0.3294 0.3300 0.3306 0.3312 0.3318
2840.000000 0.3323 0.3327 0.3332 0.3336 0.3340
2835.000000 0.3344 0.3348 0.3352 0.3356 0.3362
2830.000000 0.3372 0.3382 0.3394 0.3412 0.3430
2825.000000 0.3449 0.3491 0.3537 0.3582 0.3618
2820.000000 0.3650 0.3682 0.3714 0.3747 0.3779
2815.000000 0.3814 0.3862 0.3909 0.3956 0.4004
2810.000000 0.4050 0.4098 0.4143 0.4187 0.4232
2805.000000 0.4276 0.4320 0.4364 0.4407 0.4450
2800.000000 0.4492 0.4531 0.4565 0.4600 0.4629
2795.000000 0.4651 0.4673 0.4695 0.4718 0.4740
2790.000000 0.4762 0.4785 0.4807 0.4829 0.4852
2785.000000 0.4874 0.4897 0.4919 0.4942 0.4965
2780.000000 0.4987 0.5010 0.5032 0.5054 0.5076
2775.000000 0.5098 0.5118 0.5137 0.5156 0.5175
2770.000000 0.5195 0.5214 0.5233 0.5252 0.5272
2765.000000 0.5291 0.5310 0.5330 0.5349 0.5368
2760.000000 0.5388 0.5406 0.5423 0.5440 0.5457
2755.000000 0.5474 0.5491 0.5508 0.5524 0.5541
2750.000000 0.5558 0.5575 0.5592 0.5609 0.5626
2745.000000 0.5643 0.5660 0.5676 0.5693 0.5709
2740.000000 0.5721 0.5733 0.5745 0.5757 0.5769
2735.000000 0.5781 0.5793 0.5805 0.5817 0.5829
2730.000000 0.5842 0.5854 0.5865 0.5877 0.5889
2725.000000 0.5901 0.5912 0.5925 0.5937 0.5950
2720.000000 0.5962 0.5975 0.5988 0.6002 0.6016
2715.000000 0.6030 0.6043 0.6057 0.6071 0.6084
2710.000000 0.6098 0.6110 0.6125 0.6139 0.6152
2705.000000 0.6167 0.6181 0.6195 0.6209 0.6223
2700.000000 0.6237 0.6252 0.6266 0.6280 0.6294
2695.000000 0.6308 0.6322 0.6334 0.6347 0.6359
2690.000000 0.6372 0.6384 0.6397 0.6408 0.6421
2685.000000 0.6432 0.6440 0.6448 0.6456 0.6464
2680.000000 0.6471 0.6478 0.6484 0.6490 0.6493
2675.000000 0.6496 0.6499 0.6501 0.6505 0.6508
2670.000000 0.6511 0.6514 0.6517 0.6519 0.6522
2665.000000 0.6525 0.6528 0.6532 0.6535 0.6537
2660.000000 0.6540 0.6543 0.6546 0.6549 0.6551
2655.000000 0.6554 0.6557 0.6560 0.6562 0.6565
2650.000000 0.6569 0.6575 0.6580 0.6586 0.6593
2645.000000 0.6600 0.6607 0.6614 0.6622 0.6633
2640.000000 0.6643 0.6654 0.6665 0.6678 0.6690
2635.000000 0.6701 0.6712 0.6725 0.6739 0.6751
2630.000000 0.6765 0.6780 0.6794 0.6808 0.6821
2625.000000 0.6836 0.6850 0.6864 0.6876 0.6891
2620.000000 0.6906 0.6921 0.6937 0.6954 0.6971
2615.000000 0.6988 0.7004 0.7019 0.7037 0.7051
2610.000000 0.7067 0.7083 0.7098 0.7112 0.7125
2605.000000 0.7136 0.7147 0.7158 0.7168 0.7180
2600.000000 0.7189 0.7198 0.7207 0.7215 0.7224
2595.000000 0.7228 0.7233 0.7238 0.7243 0.7247
2590.000000 0.7250 0.7251 0.7254 0.7255 0.7255
2585.000000 0.7256 0.7256 0.7256 0.7256 0.7256
2580.000000 0.7256 0.7257 0.7258 0.7258 0.7260
2575.000000 0.7261 0.7264 0.7267 0.7269 0.7278
2570.000000 0.7287 0.7296 0.7304 0.7311 0.7321
2565.000000 0.7330 0.7338 0.7347 0.7355 0.7364
2560.000000 0.7371 0.7381 0.7390 0.7400 0.7410
2555.000000 0.7422 0.7436 0.7450 0.7464 0.7478
2550.000000 0.7492 0.7505 0.7519 0.7536 0.7551
2545.000000 0.7568 0.7586 0.7603 0.7621 0.7638
2540.000000 0.7655 0.7671 0.7690 0.7708 0.7728
2535.000000 0.7749 0.7768 0.7789 0.7810 0.7830
2530.000000 0.7851 0.7869 0.7890 0.7908 0.7928
2525.000000 0.7947 0.7967 0.7987 0.8006 0.8024
2520.000000 0.8042 0.8058 0.8075 0.8092 0.8108
2515.000000 0.8125 0.8140 0.8156 0.8168 0.8178
2510.000000 0.8189 0.8199 0.8210 0.8218 0.8228
2505.000000 0.8239 0.8245 0.8252 0.8259 0.8266
2500.000000 0.8274 0.8280 0.8287 0.8293 0.8298
2495.000000 0.8304 0.8308 0.8312 0.8316 0.8320
2490.000000 0.8324 0.8327 0.8331 0.8335 0.8338
2485.000000 0.8342 0.8344 0.8346 0.8348 0.8350
2480.000000 0.8352 0.8354 0.8357 0.8359 0.8361
2475.000000 0.8363 0.8365 0.8366 0.8367 0.8368
2470.000000 0.8368 0.8370 0.8370 0.8371 0.8371
2465.000000 0.8373 0.8374 0.8375 0.8375 0.8375
2460.000000 0.8377 0.8378 0.8378 0.8380 0.8380
2455.000000 0.8381 0.8382 0.8383 0.8384 0.8384
2450.000000 0.8389 0.8394 0.8400 0.8407 0.8414
2445.000000 0.8424 0.8434 0.8444 0.8454 0.8464
2440.000000 0.8474 0.8484 0.8494 0.8504 0.8514
2435.000000 0.8524 0.8535 0.8545 0.8556 0.8567
2430.000000 0.8578 0.8590 0.8601 0.8613 0.8624
2425.000000 0.8635 0.8646 0.8658 0.8668 0.8680
2420.000000 0.8691 0.8702 0.8713 0.8724 0.8735
2415.000000 0.8747 0.8758 0.8768 0.8781 0.8793
2410.000000 0.8806 0.8820 0.8833 0.8847 0.8861
2405.000000 0.8875 0.8888 0.8902 0.8916 0.8930
2400.000000 0.8944 0.8958 0.8971 0.8986 0.9000
2395.000000 0.9014 0.9028 0.9042 0.9056 0.9068
2390.000000 0.9080 0.9090 0.9099 0.9109 0.9118
2385.000000 0.9128 0.9139 0.9149 0.9158 0.9168
2380.000000 0.9178 0.9187 0.9197 0.9205 0.9214
2375.000000 0.9224 0.9233 0.9240 0.9247 0.9249
2370.000000 0.9250 0.9251 0.9252 0.9253 0.9254
2365.000000 0.9256 0.9257 0.9257 0.9258 0.9258
2360.000000 0.9257 0.9257 0.9257 0.9257 0.9258
2355.000000 0.9262 0.9266 0.9271 0.9277 0.9282
2350.000000 0.9287 0.9293 0.9298 0.9304 0.9309
2345.000000 0.9315 0.9321 0.9327 0.9332 0.9338
2340.000000 0.9342 0.9345 0.9349 0.9353 0.9357
2335.000000 0.9361 0.9365 0.9366 0.9368 0.9368
2330.000000 0.9370 0.9371 0.9373 0.9375 0.9375
2325.000000 0.9377 0.9378 0.9380 0.9381 0.9383
2320.000000 0.9384 0.9386 0.9387 0.9388 0.9390
2315.000000 0.9391 0.9392 0.9392 0.9393 0.9393
2310.000000 0.9394 0.9394 0.9394 0.9394 0.9394
2305.000000 0.9394 0.9394 0.9394 0.9393 0.9388
2300.000000 0.9383 0.9378 0.9377 0.9368 0.9364
2295.000000 0.9360 0.9356 0.9352 0.9348 0.9345
2290.000000 0.9342 0.9342 0.9342 0.9343 0.9344
2285.000000 0.9346 0.9347 0.9349 0.9351 0.9353
2280.000000 0.9355 0.9358 0.9361 0.9364 0.9367
2275.000000 0.9368 0.9371 0.9375 0.9377 0.9380
2270.000000 0.9381 0.9383 0.9383 0.9383 0.9382
2265.000000 0.9382 0.9381 0.9381 0.9380 0.9380
2260.000000 0.9378 0.9373 0.9368 0.9363 0.9357
2255.000000 0.9351 0.9347 0.9345 0.9343 0.9342
2250.000000 0.9340 0.9339 0.9337 0.9337 0.9337
2245.000000 0.9338 0.9339 0.9339 0.9340 0.9341
2240.000000 0.9342 0.9343 0.9344 0.9345 0.9346
2235.000000 0.9347 0.9348 0.9348 0.9349 0.9349
2230.000000 0.9348 0.9348 0.9348 0.9348 0.9348
2225.000000 0.9348 0.9347 0.9346 0.9343 0.9339
2220.000000 0.9334 0.9328 0.9324 0.9320 0.9316
2215.000000 0.9313 0.9311 0.9309 0.9308 0.9306
2210.000000 0.9305 0.9303 0.9301 0.9299 0.9298
2205.000000 0.9297 0.9297 0.9299 0.9300 0.9302
2200.000000 0.9304 0.9305 0.9307 0.9308 0.9310
2195.000000 0.9312 0.9314 0.9315 0.9317 0.9318
2190.000000 0.9318 0.9321 0.9321 0.9323 0.9324
2185.000000 0.9325 0.9325 0.9327 0.9327 0.9325
2180.000000 0.9321 0.9317 0.9314 0.9310 0.9306
2175.000000 0.9303 0.9299 0.9295 0.9291 0.9287
2170.000000 0.9282 0.9277 0.9271 0.9267 0.9262
2165.000000 0.9257 0.9252 0.9247 0.9242 0.9237
2160.000000 0.9232 0.9227 0.9221 0.9217 0.9212
2155.000000 0.9207 0.9202 0.9197 0.9193 0.9188
2150.000000 0.9184 0.9180 0.9175 0.9171 0.9167
2145.000000 0.9162 0.9158 0.9154 0.9149 0.9145
2140.000000 0.9141 0.9137 0.9133 0.9128 0.9124
2135.000000 0.9120 0.9115 0.9111 0.9107 0.9102
2130.000000 0.9098 0.9093 0.9087 0.9082 0.9077
2125.000000 0.9071 0.9066 0.9061 0.9055 0.9050
2120.000000 0.9044 0.9038 0.9033 0.9027 0.9021
2115.000000 0.9017 0.9012 0.9006 0.9001 0.8996
2110.000000 0.8991 0.8986 0.8980 0.8975 0.8970
2105.000000 0.8964 0.8958 0.8950 0.8943 0.8935
2100.000000 0.8927 0.8918 0.8915 0.8911 0.8908
2095.000000 0.8905 0.8903 0.8865 0.8900 0.8899
2090.000000 0.8898 0.8897 0.8896 0.8894 0.8893
2085.000000 0.8893 0.8893 0.8893 0.8893 0.8894
2080.000000 0.8894 0.8894 0.8894 0.8894 0.8895
2075.000000 0.8897 0.8899 0.8901 0.8904 0.8906
2070.000000 0.8908 0.8910 0.8912 0.8915 0.8918
2065.000000 0.8923 0.8927 0.8931 0.8935 0.8939
2060.000000 0.8942 0.8946 0.8949 0.8953 0.8956
2055.000000 0.8960 0.8963 0.8967 0.8970 0.8974
2050.000000 0.8975 0.8978 0.8980 0.8982 0.8984
2045.000000 0.8986 0.8989 0.8991 0.8993 0.8995
2040.000000 0.8997 0.8999 0.8999 0.8999 0.8999
2035.000000 0.9000 0.9001 0.9001 0.9002 0.9003
2030.000000 0.9003 0.9002 0.8999 0.8996 0.8994
2025.000000 0.8991 0.8988 0.8985 0.8982 0.8978
2020.000000 0.8977 0.8974 0.8971 0.8968 0.8966
2015.000000 0.8965 0.8964 0.8965 0.8967 0.8968
2010.000000 0.8971 0.8974 0.8977 0.8981 0.8985
2005.000000 0.8990 0.8994 0.8998 0.9003 0.9006
2000.000000 0.9010 0.9011 0.9014 0.9015 0.9015
1995.000000 0.9014 0.9011 0.9009 0.9007 0.9005
1990.000000 0.9002 0.8999 0.8994 0.8988 0.8983
1985.000000 0.8977 0.8971 0.8971 0.8971 0.8971
1980.000000 0.8971 0.8978 0.8993 0.9008 0.9021
1975.000000 0.9036 0.9049 0.9062 0.9075 0.9088
1970.000000 0.9101 0.9115 0.9127 0.9137 0.9148
1965.000000 0.9159 0.9170 0.9178 0.9185 0.9191
1960.000000 0.9195 0.9194 0.9193 0.9190 0.9187
1955.000000 0.9184 0.9182 0.9178 0.9177 0.9175
1950.000000 0.9175 0.9175 0.9180 0.9185 0.9189
1945.000000 0.9193 0.9198 0.9202 0.9207 0.9211
1940.000000 0.9217 0.9224 0.9231 0.9239 0.9247
1935.000000 0.9254 0.9262 0.9268 0.9275 0.9284
1930.000000 0.9291 0.9299 0.9306 0.9313 0.9321
1925.000000 0.9325 0.9332 0.9338 0.9343 0.9349
1920.000000 0.9355 0.9361 0.9366 0.9371 0.9378
1915.000000 0.9384 0.9390 0.9395 0.9401 0.9406
1910.000000 0.9411 0.9415 0.9418 0.9424 0.9428
1905.000000 0.9433 0.9437 0.9442 0.9446 0.9450
1900.000000 0.9455 0.9459 0.9463 0.9467 0.9470
1895.000000 0.9474 0.9475 0.9480 0.9483 0.9486
1890.000000 0.9489 0.9492 0.9495 0.9499 0.9500
1885.000000 0.9500 0.9500 0.9500 0.9499 0.9499
1880.000000 0.9499 0.9499 0.9499 0.9499 0.9498
1875.000000 0.9497 0.9497 0.9497 0.9496 0.9495
1870.000000 0.9495 0.9494 0.9494 0.9494 0.9494
1865.000000 0.9493 0.9493 0.9493 0.9493 0.9493
1860.000000 0.9493 0.9493 0.9492 0.9492 0.9492
1855.000000 0.9492 0.9492 0.9491 0.9491 0.9491
1850.000000 0.9491 0.9491 0.9491 0.9491 0.9490
1845.000000 0.9488 0.9485 0.9482 0.9478 0.9475
1840.000000 0.9471 0.9468 0.9463 0.9456 0.9451
1835.000000 0.9447 0.9443 0.9439 0.9436 0.9433
1830.000000 0.9428 0.9428 0.9428 0.9430 0.9431
1825.000000 0.9432 0.9436 0.9439 0.9443 0.9447
1820.000000 0.9451 0.9454 0.9458 0.9461 0.9465
1815.000000 0.9468 0.9471 0.9475 0.9478 0.9482
1810.000000 0.9485 0.9485 0.9506 0.9482 0.9478
1805.000000 0.9473 0.9467 0.9461 0.9455 0.9451
1800.000000 0.9447 0.9443 0.9439 0.9434 0.9431
1795.000000 0.9427 0.9423 0.9418 0.9414 0.9410
1790.000000 0.9406 0.9403 0.9400 0.9397 0.9393
1785.000000 0.9389 0.9386 0.9383 0.9380 0.9375
1780.000000 0.9373 0.9368 0.9366 0.9363 0.9360
1775.000000 0.9357 0.9354 0.9350 0.9347 0.9344
1770.000000 0.9341 0.9338 0.9334 0.9331 0.9328
1765.000000 0.9324 0.9320 0.9316 0.9312 0.9309
1760.000000 0.9305 0.9301 0.9297 0.9292 0.9283
1755.000000 0.9271 0.9261 0.9251 0.9240 0.9220
1750.000000 0.9199 0.9180 0.9162 0.9147 0.9133
1745.000000 0.9118 0.9105 0.9090 0.9075 0.9062
1740.000000 0.9054 0.9046 0.9038 0.9030 0.9023
1735.000000 0.9014 0.9007 0.8999 0.8991 0.8983
1730.000000 0.8975 0.8968 0.8962 0.8958 0.8955
1725.000000 0.8951 0.8948 0.8945 0.8941 0.8931
1720.000000 0.8918 0.8904 0.8885 0.8853 0.8821
1715.000000 0.8795 0.8774 0.8757 0.8738 0.8721
1710.000000 0.8713 0.8707 0.8701 0.8695 0.8687
1705.000000 0.8675 0.8664 0.8652 0.8639 0.8617
1700.000000 0.8589 0.8555 0.8513 0.8468 0.8425
1695.000000 0.8378 0.8330 0.8282 0.8234 0.8187
1690.000000 0.8134 0.8058 0.7943 0.7857 0.7790
1685.000000 0.7725 0.7658 0.7601 0.7555 0.7508
1680.000000 0.7461 0.7415 0.7357 0.7298 0.7244
1675.000000 0.7198 0.7154 0.7111 0.7068 0.7024
1670.000000 0.6981 0.6938 0.6897 0.6855 0.6818
1665.000000 0.6789 0.6765 0.6746 0.6730 0.6715
1660.000000 0.6703 0.6692 0.6675 0.6656 0.6633
1655.000000 0.6606 0.6575 0.6522 0.6440 0.6347
1650.000000 0.6253 0.6159 0.6066 0.5972 0.5878
1645.000000 0.5802 0.5745 0.5699 0.5669 0.5652
1640.000000 0.5644 0.5639 0.5638 0.5641 0.5644
1635.000000 0.5649 0.5669 0.5694 0.5744 0.5768
1630.000000 0.5787 0.5807 0.5822 0.5835 0.5847
1625.000000 0.5856 0.5862 0.5867 0.5872 0.5877
1620.000000 0.5882 0.5916 0.5889 0.5882 0.5874
1615.000000 0.5851 0.5827 0.5804 0.5776 0.5740
1610.000000 0.5702 0.5662 0.5605 0.5531 0.5329
1605.000000 0.5144 0.4991 0.4749 0.4429 0.4093
1600.000000 0.3758 0.3421 0.3084 0.2749 0.2411
1595.000000 0.2074 0.1734 0.1396 0.1136 0.1044
1590.000000 0.1054 0.1166 0.1544 0.1973 0.2404
1585.000000 0.2835 0.3266 0.3700 0.4132 0.4566
1580.000000 0.4999 0.5434 0.5869 0.6238 0.6401
1575.000000 0.6461 0.6536 0.6639 0.6772 0.6918
1570.000000 0.7025 0.7092 0.7142 0.7186 0.7207
1565.000000 0.7218 0.7219 0.7221 0.7224 0.7225
1560.000000 0.7225 0.7224 0.7224 0.7222 0.7221
1555.000000 0.7221 0.7218 0.7207 0.7192 0.7171
1550.000000 0.7140 0.7105 0.7069 0.7047 0.7024
1545.000000 0.7001 0.6965 0.6850 0.6695 0.6585
1540.000000 0.6461 0.6321 0.6181 0.6040 0.5899
1535.000000 0.5758 0.5625 0.5502 0.5326 0.5151
1530.000000 0.4977 0.4924 0.4871 0.4806 0.4697
1525.000000 0.4612 0.4477 0.4205 0.3893 0.3579
1520.000000 0.3266 0.2952 0.2637 0.2323 0.2201
1515.000000 0.2196 0.2192 0.2199 0.2220 0.2259
1510.000000 0.2353 0.2506 0.2684 0.2869 0.3053
1505.000000 0.3237 0.3423 0.3607 0.3792 0.3977
1500.000000 0.4164 0.4349 0.4535 0.4722 0.4909
1495.000000 0.5096 0.5283 0.5470 0.5658 0.5843
1490.000000 0.5933 0.5964 0.5980 0.5999 0.5982
1485.000000 0.5975 0.5954 0.5864 0.5575 0.5242
1480.000000 0.4909 0.4576 0.4242 0.3907 0.3573
1475.000000 0.3237 0.2902 0.2609 0.2533 0.2523
1470.000000 0.2512 0.2499 0.2478 0.2370 0.2319
1465.000000 0.2293 0.2285 0.2285 0.2296 0.2310
1460.000000 0.2346 0.2444 0.2834 0.3188 0.3464
1455.000000 0.3743 0.4020 0.4299 0.4578 0.4801
1450.000000 0.4881 0.4920 0.4962 0.4951 0.4953
1445.000000 0.4943 0.4864 0.4646 0.4448 0.4390
1440.000000 0.4352 0.4350 0.4347 0.4345 0.4341
1435.000000 0.4336 0.4330 0.4314 0.4135 0.3666
1430.000000 0.3161 0.2653 0.2146 0.1923 0.1915
1425.000000 0.1917 0.1934 0.1971 0.2066 0.2371
1420.000000 0.3192 0.4014 0.4822 0.5221 0.5481
1415.000000 0.5722 0.5962 0.6204 0.6445 0.6688
1410.000000 0.6930 0.7162 0.7321 0.7421 0.7488
1405.000000 0.7549 0.7604 0.7658 0.7706 0.7739
1400.000000 0.7758 0.7776 0.7765 0.7764 0.7758
1395.000000 0.7728 0.7676 0.7624 0.7564 0.7493
1390.000000 0.7355 0.7215 0.7218 0.7218 0.7219
1385.000000 0.7232 0.7355 0.7499 0.7601 0.7697
1380.000000 0.7790 0.7871 0.7949 0.8021 0.8076
1375.000000 0.8108 0.8121 0.8130 0.8134 0.8134
1370.000000 0.8134 0.8136 0.8112 0.8083 0.8069
1365.000000 0.8058 0.8043 0.8018 0.7995 0.7971
1360.000000 0.7940 0.7876 0.7806 0.7711 0.7601
1355.000000 0.7434 0.7195 0.7065 0.6910 0.6551
1350.000000 0.6453 0.6325 0.5910 0.5321 0.4731
1345.000000 0.4140 0.3800 0.3644 0.3589 0.3584
1340.000000 0.3584 0.3584 0.3592 0.3618 0.3739
1335.000000 0.3984 0.4143 0.4348 0.4597 0.4846
1330.000000 0.5095 0.5345 0.5595 0.5845 0.6064
1325.000000 0.6177 0.6302 0.6421 0.6517 0.6578
1320.000000 0.6618 0.6644 0.6667 0.6648 0.6635
1315.000000 0.6608 0.6557 0.6482 0.6392 0.6316
1310.000000 0.6154 0.5988 0.5823 0.5657 0.5504
1305.000000 0.5454 0.5448 0.5497 0.5626 0.5850
1300.000000 0.6126 0.6408 0.6692 0.6975 0.7260
1295.000000 0.7493 0.7599 0.7722 0.7848 0.7981
1290.000000 0.8065 0.8107 0.8121 0.8128 0.8134
1285.000000 0.8136 0.8137 0.8137 0.8137 0.8134
1280.000000 0.8126 0.8115 0.8101 0.8086 0.8062
1275.000000 0.8026 0.7992 0.7956 0.7907 0.7853
1270.000000 0.7798 0.7714 0.7595 0.7471 0.7347
1265.000000 0.7243 0.7143 0.7043 0.6915 0.6731
1260.000000 0.6448 0.6249 0.6012 0.5658 0.5473
1255.000000 0.5312 0.5187 0.5055 0.4856 0.4485
1250.000000 0.4000 0.3516 0.3033 0.2547 0.2062
1245.000000 0.1575 0.1103 0.0878 0.0879 0.0880
1240.000000 0.0909 0.1096 0.1261 0.1491 0.1784
1235.000000 0.2035 0.2184 0.2324 0.2474 0.2678
1230.000000 0.3004 0.3339 0.3674 0.4010 0.4347
1225.000000 0.4685 0.5023 0.5362 0.5700 0.6041
1220.000000 0.6362 0.6490 0.6604 0.6696 0.6765
1215.000000 0.6822 0.6872 0.6921 0.6958 0.6990
1210.000000 0.7003 0.7014 0.7022 0.7025 0.7060
1205.000000 0.7028 0.7024 0.7015 0.6997 0.6976
1200.000000 0.6932 0.6876 0.6808 0.6738 0.6660
1195.000000 0.6515 0.6251 0.5987 0.5722 0.5457
1190.000000 0.5191 0.4925 0.4477 0.4475 0.4486
1185.000000 0.4624 0.4798 0.4974 0.5149 0.5305
1180.000000 0.5365 0.5394 0.5387 0.5382 0.5369
1175.000000 0.5293 0.5116 0.4889 0.4720 0.4549
1170.000000 0.4379 0.4209 0.4038 0.3866 0.3696
1165.000000 0.3524 0.3352 0.3230 0.3102 0.2992
1160.000000 0.2902 0.2805 0.2703 0.2599 0.2488
1155.000000 0.2231 0.2008 0.1892 0.1811 0.1737
1150.000000 0.1661 0.1598 0.1546 0.1492 0.1446
1145.000000 0.1392 0.1325 0.1228 0.1112 0.1010
1140.000000 0.0909 0.0822 0.0730 0.0645 0.0575
1135.000000 0.0515 0.0477 0.0440 0.0413 0.0392
1130.000000 0.0370 0.0353 0.0338 0.0327 0.0292
1125.000000 0.0314 0.0316 0.0317 0.0325 0.0334
1120.000000 0.0343 0.0360 0.0380 0.0400 0.0419
1115.000000 0.0442 0.0465 0.0488 0.0511 0.0532
1110.000000 0.0551 0.0570 0.0590 0.0610 0.0631
1105.000000 0.0662 0.0696 0.0730 0.0763 0.0797
1100.000000 0.0849 0.0907 0.0958 0.1001 0.1042
1095.000000 0.1066 0.1089 0.1110 0.1117 0.1122
1090.000000 0.1142 0.1118 0.1103 0.1084 0.1055
1085.000000 0.1039 0.1031 0.1029 0.1029 0.1017
1080.000000 0.1041 0.1050 0.1062 0.1081 0.1102
1075.000000 0.1133 0.1194 0.1259 0.1337 0.1414
1070.000000 0.1496 0.1583 0.1669 0.1754 0.1837
1065.000000 0.1920 0.2004 0.2107 0.2210 0.2312
1060.000000 0.2416 0.2519 0.2622 0.2726 0.2830
1055.000000 0.2934 0.3039 0.3143 0.3249 0.3353
1050.000000 0.3458 0.3564 0.3668 0.3775 0.3880
1045.000000 0.3987 0.4094 0.4200 0.4307 0.4414
1040.000000 0.4542 0.4541 0.4547 0.4551 0.4544
1035.000000 0.4499 0.4449 0.4462 0.4473 0.4479
1030.000000 0.4464 0.4416 0.4378 0.4364 0.4368
1025.000000 0.4393 0.4548 0.4712 0.4838 0.4956
1020.000000 0.5073 0.5154 0.5217 0.5278 0.5324
1015.000000 0.5380 0.5437 0.5496 0.5553 0.5615
1010.000000 0.5680 0.5725 0.5758 0.5789 0.5794
1005.000000 0.5781 0.5728 0.5600 0.5354 0.4875
1000.000000 0.4142 0.3406 0.2670 0.2312 0.2155
995.000000 0.2103 0.2096 0.2082 0.2244 0.2635
990.000000 0.3029 0.3423 0.3818 0.4212 0.4608
985.000000 0.5005 0.5374 0.5503 0.5583 0.5644
980.000000 0.5725 0.5706 0.5708 0.5651 0.5581
975.000000 0.5512 0.5449 0.5399 0.5390 0.5393
970.000000 0.5400 0.5410 0.5503 0.5581 0.5615
965.000000 0.5623 0.5632 0.5642 0.5652 0.5660
960.000000 0.5682 0.5716 0.5775 0.5846 0.5902
955.000000 0.5952 0.5994 0.6031 0.6064 0.6064
950.000000 0.6064 0.6037 0.6008 0.5976 0.5967
945.000000 0.6024 0.6051 0.6093 0.6233 0.6329
940.000000 0.6431 0.6533 0.6635 0.6735 0.6824
935.000000 0.6911 0.7015 0.7131 0.7221 0.7304
930.000000 0.7378 0.7445 0.7497 0.7548 0.7600
925.000000 0.7646 0.7693 0.7737 0.7774 0.7810
920.000000 0.7839 0.7864 0.7880 0.7921 0.7897
915.000000 0.7872 0.7750 0.7581 0.7461 0.7395
910.000000 0.7421 0.7439 0.7512 0.7614 0.7774
905.000000 0.7886 0.7974 0.8040 0.8105 0.8161
900.000000 0.8214 0.8264 0.8282 0.8298 0.8313
895.000000 0.8331 0.8390 0.8367 0.8385 0.8405
890.000000 0.8427 0.8451 0.8475 0.8497 0.8502
885.000000 0.8506 0.8510 0.8514 0.8517 0.8518
880.000000 0.8521 0.8525 0.8528 0.8533 0.8546
875.000000 0.8563 0.8584 0.8592 0.8586 0.8575
870.000000 0.8564 0.8553 0.8552 0.8556 0.8563
865.000000 0.8575 0.8587 0.8599 0.8610 0.8621
860.000000 0.8630 0.8634 0.8634 0.8634 0.8628
855.000000 0.8640 0.8610 0.8591 0.8568 0.8492
850.000000 0.8370 0.8213 0.8022 0.7814 0.7599
845.000000 0.7386 0.7246 0.7140 0.7011 0.6798
840.000000 0.6572 0.6299 0.5960 0.5621 0.5282
835.000000 0.4940 0.4598 0.4256 0.3916 0.3799
830.000000 0.3807 0.4167 0.4502 0.4917 0.5331
825.000000 0.5748 0.6365 0.6678 0.6901 0.7111
820.000000 0.7304 0.7489 0.7678 0.7837 0.7955
815.000000 0.8067 0.8155 0.8240 0.8302 0.8363
810.000000 0.8421 0.8473 0.8514 0.8549 0.8580
805.000000 0.8583 0.8575 0.8577 0.8590 0.8610
800.000000 0.8660 0.8621 0.8610 0.8594 0.8562
795.000000 0.8492 0.8370 0.8238 0.8068 0.7891
790.000000 0.7711 0.7534 0.7355 0.7175 0.6911
785.000000 0.6918 0.6967 0.7050 0.7096 0.7074
780.000000 0.6976 0.6732 0.6512 0.6411 0.6425
775.000000 0.6458 0.6708 0.6985 0.7211 0.7425
770.000000 0.7640 0.7871 0.8080 0.8240 0.8321
765.000000 0.8392 0.8437 0.8475 0.8517 0.8553
760.000000 0.8578 0.8604 0.8630 0.8636 0.8633
755.000000 0.8631 0.8600 0.8539 0.8452 0.8344
750.000000 0.8221 0.8094 0.8011 0.8065 0.8220
745.000000 0.8337 0.8415 0.8454 0.8492 0.8508
740.000000 0.8512 0.8515 0.8518 0.8521 0.8525
735.000000 0.8531 0.8535 0.8539 0.8546 0.8552
730.000000 0.8558 0.8565 0.8571 0.8556 0.8568
725.000000 0.8565 0.8561 0.8554 0.8545 0.8534
720.000000 0.8521 0.8507 0.8493 0.8478 0.8465
715.000000 0.8451 0.8435 0.8418 0.8403 0.8386
710.000000 0.8370 0.8353 0.8338 0.8323 0.8310
705.000000 0.8297 0.8283 0.8270 0.8259 0.8247
700.000000 0.8235 0.8215 0.8192 0.8168 0.8146
695.000000 0.8124 0.8103 0.8078 0.8051 0.8022
690.000000 0.7993 0.7962 0.7930 0.7896 0.7833
685.000000 0.7751 0.7681 0.7649 0.7578 0.7491
680.000000 0.7354 0.7174 0.6969 0.6661 0.6170
675.000000 0.5718 0.5269 0.4420 0.4389 0.4408
670.000000 0.4627 0.4879 0.5135 0.5446 0.5927
665.000000 0.6258 0.6498 0.7199 0.6905
##END=
