##TITLE=Adenine, 3-benzyl-2-methyl-
##JCAMP-DX=4.24
##DATA TYPE=INFRARED SPECTRUM
##CLASS=COBLENTZ III
##ORIGIN=SOUTHERN RESEARCH INSTITUTE
##OWNER=Copyright (C) 1987 by the Coblentz Society
Collection (C) 2018 copyright by the U.S. Secretary of Commerce
on behalf of the United States of America. All rights reserved.
##DATE=1964/06/01
##NAMES=3-benzyl-2-methyl-3H-purin-6-ylamine
3-benzyl-2-methyl-3H-purin-6-amine
##MOLFORM=C13 H13 N5
##SOURCE REFERENCE=COBLENTZ NO. 8221
##$NIST ID=B6008221
##$NIST SOURCE=COBLENTZ
##$NIST IMAGE=cob8221
##SPECTROMETER/DATA SYSTEM=PERKIN-ELMER 221 (GRATING)
##INSTRUMENT PARAMETERS=FILTER AT 2490, 980 CM^-^1. GRATING 4000-1428 CM^-^1, NaCl PRISM 1428-650 CM^-^1
##STATE=SOLID (1 mg / 650 mg KBr DISC)
$$ PURITY - ANALYTICAL
##SAMPLING PROCEDURE=TRANSMISSION
##RESOLUTION=2
##DATA PROCESSING=DIGITIZED BY COBLENTZ SOCIETY (BATCH II) FROM HARD COPY
##XUNITS=1/CM
##YUNITS=TRANSMITTANCE
##XFACTOR=1.0
##YFACTOR=1
##FIRSTX=599
##LASTX=4000
##FIRSTY=0.8312
##MAXX=4000
##MINX=599
##MAXY=0.9213
##MINY=0.0889
##NPOINTS=3402
##XYDATA=(X++(Y..Y))
599.000000 0.8312 0.8318 0.8323 0.8325 0.8327
604.000000 0.8329 0.8330 0.8332 0.8333 0.8333
609.000000 0.8333 0.8334 0.8334 0.8334 0.8334
614.000000 0.8331 0.8328 0.8324 0.8321 0.8317
619.000000 0.8332 0.8308 0.8302 0.8296 0.8290
624.000000 0.8283 0.8276 0.8268 0.8260 0.8252
629.000000 0.8247 0.8251 0.8261 0.8285 0.8347
634.000000 0.8377 0.8395 0.8401 0.8407 0.8411
639.000000 0.8409 0.8408 0.8401 0.8379 0.8326
644.000000 0.8279 0.8185 0.8078 0.7972 0.7865
649.000000 0.7759 0.7652 0.7545 0.7496 0.7505
654.000000 0.7540 0.7664 0.7787 0.7910 0.8034
659.000000 0.8157 0.8280 0.8404 0.8478 0.8526
664.000000 0.8569 0.8592 0.8607 0.8622 0.8637
669.000000 0.8641 0.8644 0.8649 0.8649 0.8648
674.000000 0.8647 0.8640 0.8633 0.8626 0.8615
679.000000 0.8595 0.8575 0.8505 0.8356 0.8208
684.000000 0.8059 0.7910 0.7762 0.7613 0.7487
689.000000 0.7471 0.7567 0.7679 0.7791 0.7903
694.000000 0.8014 0.8126 0.8238 0.8311 0.8324
699.000000 0.8319 0.8312 0.8300 0.8199 0.7995
704.000000 0.7792 0.7589 0.7386 0.7183 0.6980
709.000000 0.6776 0.6597 0.6513 0.6453 0.6450
714.000000 0.6413 0.6466 0.6480 0.6502 0.6523
719.000000 0.6545 0.6574 0.6605 0.6636 0.6669
724.000000 0.6712 0.6839 0.6967 0.7094 0.7221
729.000000 0.7348 0.7475 0.7553 0.7652 0.7681
734.000000 0.7695 0.7696 0.7697 0.7698 0.7699
739.000000 0.7700 0.7700 0.7700 0.7704 0.7710
744.000000 0.7722 0.7742 0.7775 0.7836 0.7900
749.000000 0.7971 0.8053 0.8077 0.8085 0.8093
754.000000 0.8101 0.8110 0.8124 0.8138 0.8152
759.000000 0.8165 0.8178 0.8193 0.8211 0.8228
764.000000 0.8250 0.8274 0.8280 0.8284 0.8288
769.000000 0.8288 0.8287 0.8281 0.8218 0.8155
774.000000 0.8092 0.8030 0.7967 0.7927 0.7928
779.000000 0.8187 0.8488 0.8788 0.9008 0.9015
784.000000 0.9021 0.9029 0.9036 0.9043 0.9052
789.000000 0.9061 0.9067 0.9073 0.9078 0.9084
794.000000 0.9090 0.9095 0.9101 0.9106 0.9112
799.000000 0.9117 0.9122 0.9128 0.9132 0.9135
804.000000 0.9139 0.9142 0.9146 0.9150 0.9153
809.000000 0.9156 0.9158 0.9160 0.9163 0.9165
814.000000 0.9167 0.9169 0.9172 0.9174 0.9176
819.000000 0.9179 0.9180 0.9182 0.9183 0.9184
824.000000 0.9186 0.9205 0.9188 0.9190 0.9189
829.000000 0.9187 0.9186 0.9185 0.9183 0.9182
834.000000 0.9181 0.9179 0.9178 0.9176 0.9175
839.000000 0.9173 0.9171 0.9169 0.9168 0.9166
844.000000 0.9164 0.9162 0.9161 0.9159 0.9157
849.000000 0.9155 0.9153 0.9152 0.9150 0.9149
854.000000 0.9147 0.9146 0.9144 0.9143 0.9141
859.000000 0.9138 0.9134 0.9130 0.9125 0.9121
864.000000 0.9108 0.9085 0.9061 0.9036 0.9011
869.000000 0.8986 0.8955 0.8920 0.8885 0.8850
874.000000 0.8815 0.8779 0.8744 0.8709 0.8677
879.000000 0.8650 0.8651 0.8653 0.8660 0.8668
884.000000 0.8676 0.8680 0.8629 0.8537 0.8455
889.000000 0.8373 0.8281 0.8189 0.8085 0.8057
894.000000 0.8057 0.8042 0.8074 0.8173 0.8272
899.000000 0.8371 0.8470 0.8569 0.8668 0.8767
904.000000 0.8858 0.8892 0.8912 0.8928 0.8935
909.000000 0.8943 0.8950 0.8958 0.8966 0.8966
914.000000 0.8966 0.8967 0.8967 0.8971 0.8967
919.000000 0.8962 0.8958 0.8953 0.8948 0.8944
924.000000 0.8934 0.8922 0.8910 0.8898 0.8885
929.000000 0.8873 0.8854 0.8836 0.8817 0.8798
934.000000 0.8780 0.8751 0.8697 0.8643 0.8601
939.000000 0.8558 0.8525 0.8510 0.8517 0.8524
944.000000 0.8572 0.8627 0.8682 0.8730 0.8742
949.000000 0.8751 0.8749 0.8745 0.8735 0.8723
954.000000 0.8707 0.8690 0.8674 0.8653 0.8630
959.000000 0.8607 0.8584 0.8547 0.8508 0.8470
964.000000 0.8432 0.8389 0.8342 0.8295 0.8249
969.000000 0.8189 0.8120 0.8052 0.7962 0.7863
974.000000 0.7765 0.7666 0.7567 0.7469 0.7370
979.000000 0.7272 0.7235 0.7268 0.7241 0.7251
984.000000 0.7300 0.7358 0.7415 0.7473 0.7530
989.000000 0.7588 0.7645 0.7703 0.7761 0.7818
994.000000 0.7876 0.7933 0.7986 0.8015 0.8036
999.000000 0.8043 0.8048 0.8051 0.8054 0.8055
1004.000000 0.8057 0.8058 0.8061 0.8065 0.8070
1009.000000 0.8078 0.8086 0.8110 0.8091 0.8087
1014.000000 0.8054 0.8016 0.7977 0.7938 0.7903
1019.000000 0.7868 0.7833 0.7798 0.7760 0.7717
1024.000000 0.7673 0.7630 0.7586 0.7535 0.7488
1029.000000 0.7425 0.7460 0.7467 0.7474 0.7482
1034.000000 0.7500 0.7517 0.7541 0.7566 0.7593
1039.000000 0.7619 0.7638 0.7650 0.7677 0.7653
1044.000000 0.7652 0.7647 0.7640 0.7633 0.7625
1049.000000 0.7603 0.7586 0.7569 0.7550 0.7532
1054.000000 0.7511 0.7483 0.7455 0.7424 0.7392
1059.000000 0.7351 0.7305 0.7233 0.7193 0.7173
1064.000000 0.7156 0.7168 0.7172 0.7176 0.7182
1069.000000 0.7204 0.7234 0.7271 0.7328 0.7388
1074.000000 0.7454 0.7527 0.7618 0.7687 0.7748
1079.000000 0.7809 0.7868 0.7924 0.7953 0.7982
1084.000000 0.8004 0.8019 0.8034 0.8038 0.8042
1089.000000 0.8043 0.8047 0.8048 0.8048 0.8048
1094.000000 0.8047 0.8046 0.8045 0.8031 0.8015
1099.000000 0.7999 0.7981 0.7955 0.7926 0.7895
1104.000000 0.7863 0.7817 0.7771 0.7715 0.7644
1109.000000 0.7573 0.7490 0.7406 0.7233 0.6922
1114.000000 0.6611 0.6351 0.6318 0.6333 0.6337
1119.000000 0.6409 0.6523 0.6637 0.6751 0.6865
1124.000000 0.6979 0.7093 0.7206 0.7320 0.7434
1129.000000 0.7548 0.7662 0.7752 0.7767 0.7781
1134.000000 0.7786 0.7788 0.7788 0.7766 0.7782
1139.000000 0.7780 0.7775 0.7768 0.7761 0.7750
1144.000000 0.7738 0.7723 0.7704 0.7685 0.7663
1149.000000 0.7638 0.7612 0.7587 0.7561 0.7535
1154.000000 0.7501 0.7468 0.7410 0.7326 0.7243
1159.000000 0.7030 0.6917 0.6607 0.6407 0.6263
1164.000000 0.6162 0.6004 0.5593 0.5182 0.4771
1169.000000 0.4360 0.3949 0.3538 0.3260 0.3269
1174.000000 0.3288 0.3748 0.4208 0.4668 0.5128
1179.000000 0.5587 0.6047 0.6507 0.6967 0.7427
1184.000000 0.7887 0.8133 0.8169 0.8196 0.8187
1189.000000 0.8203 0.8207 0.8203 0.8198 0.8191
1194.000000 0.8159 0.8110 0.8038 0.7982 0.7926
1199.000000 0.7874 0.7824 0.7775 0.7679 0.7612
1204.000000 0.7583 0.7580 0.7577 0.7607 0.7653
1209.000000 0.7698 0.7744 0.7789 0.7835 0.7880
1214.000000 0.7926 0.7937 0.7939 0.7935 0.7932
1219.000000 0.7926 0.7857 0.7676 0.7496 0.7316
1224.000000 0.7136 0.7043 0.7051 0.7142 0.7298
1229.000000 0.7453 0.7608 0.7764 0.7919 0.7967
1234.000000 0.8003 0.8035 0.8047 0.8059 0.8070
1239.000000 0.8089 0.8070 0.8067 0.8063 0.8059
1244.000000 0.8054 0.8044 0.8028 0.8008 0.7987
1249.000000 0.7966 0.7943 0.7906 0.7869 0.7829
1254.000000 0.7766 0.7704 0.7630 0.7552 0.7472
1259.000000 0.7388 0.7283 0.7173 0.7116 0.7091
1264.000000 0.7065 0.7045 0.7039 0.7032 0.6977
1269.000000 0.7029 0.7034 0.7047 0.7073 0.7150
1274.000000 0.7231 0.7315 0.7419 0.7523 0.7627
1279.000000 0.7742 0.7860 0.7951 0.8009 0.8048
1284.000000 0.8065 0.8083 0.8092 0.8095 0.8097
1289.000000 0.8100 0.8099 0.8097 0.8096 0.8093
1294.000000 0.8093 0.8090 0.8087 0.8083 0.8080
1299.000000 0.8077 0.8073 0.8070 0.8063 0.8054
1304.000000 0.8044 0.8035 0.8021 0.8007 0.7992
1309.000000 0.7978 0.7936 0.7893 0.7836 0.7776
1314.000000 0.7715 0.7654 0.7593 0.7533 0.7472
1319.000000 0.7412 0.7320 0.7146 0.6955 0.6758
1324.000000 0.6562 0.6366 0.6169 0.5973 0.5776
1329.000000 0.5712 0.5701 0.5705 0.5792 0.6151
1334.000000 0.6510 0.6869 0.7227 0.7586 0.7945
1339.000000 0.8099 0.8136 0.8151 0.8166 0.8172
1344.000000 0.8175 0.8177 0.8162 0.8158 0.8149
1349.000000 0.8128 0.8082 0.7945 0.7809 0.7673
1354.000000 0.7537 0.7401 0.7300 0.7255 0.7221
1359.000000 0.7212 0.7202 0.7194 0.7187 0.7077
1364.000000 0.6954 0.6831 0.6707 0.6584 0.6460
1369.000000 0.6378 0.6378 0.6475 0.6703 0.6932
1374.000000 0.7160 0.7389 0.7617 0.7846 0.7881
1379.000000 0.7882 0.7879 0.7877 0.7873 0.7866
1384.000000 0.7853 0.7835 0.7807 0.7769 0.7728
1389.000000 0.7682 0.7636 0.7584 0.7515 0.7446
1394.000000 0.7344 0.6786 0.6013 0.5012 0.4965
1399.000000 0.4919 0.4874 0.4830 0.4801 0.4795
1404.000000 0.4789 0.4783 0.4778 0.4773 0.4769
1409.000000 0.4769 0.4785 0.4770 0.4770 0.4779
1414.000000 0.4788 0.4813 0.4844 0.4961 0.5061
1419.000000 0.5168 0.5243 0.5306 0.5405 0.5552
1424.000000 0.5699 0.5847 0.5994 0.6141 0.6288
1429.000000 0.6435 0.6535 0.6567 0.6582 0.6594
1434.000000 0.6584 0.6580 0.6565 0.6525 0.6361
1439.000000 0.6150 0.5939 0.5728 0.5518 0.5307
1444.000000 0.5096 0.4885 0.4675 0.4464 0.4253
1449.000000 0.4083 0.4071 0.4083 0.4104 0.4391
1454.000000 0.4678 0.4965 0.5253 0.5540 0.5827
1459.000000 0.6114 0.6401 0.6688 0.6976 0.7263
1464.000000 0.7472 0.7586 0.7777 0.7932 0.8013
1469.000000 0.8074 0.8126 0.8166 0.8206 0.8220
1474.000000 0.8233 0.8241 0.8240 0.8265 0.8232
1479.000000 0.8223 0.8209 0.8193 0.8172 0.8130
1484.000000 0.8082 0.7854 0.7501 0.7149 0.6797
1489.000000 0.6444 0.6092 0.5957 0.5958 0.5936
1494.000000 0.6141 0.6472 0.6802 0.7133 0.7463
1499.000000 0.7794 0.7962 0.8012 0.8080 0.8146
1504.000000 0.8192 0.8215 0.8233 0.8248 0.8252
1509.000000 0.8256 0.8260 0.8264 0.8262 0.8260
1514.000000 0.8253 0.8256 0.8251 0.8246 0.8241
1519.000000 0.8232 0.8220 0.8201 0.8175 0.8149
1524.000000 0.8116 0.8080 0.8033 0.7985 0.7937
1529.000000 0.7891 0.7845 0.7796 0.7720 0.7643
1534.000000 0.7580 0.7524 0.7468 0.7412 0.7347
1539.000000 0.7282 0.7216 0.7147 0.7055 0.6962
1544.000000 0.6831 0.6373 0.5847 0.5320 0.4794
1549.000000 0.4267 0.3929 0.3926 0.3926 0.3939
1554.000000 0.4242 0.4584 0.4925 0.5266 0.5608
1559.000000 0.5949 0.6291 0.6632 0.6973 0.7300
1564.000000 0.7356 0.7391 0.7403 0.7380 0.7402
1569.000000 0.7397 0.7384 0.7366 0.7323 0.7267
1574.000000 0.7216 0.7164 0.7108 0.7050 0.6973
1579.000000 0.6843 0.6709 0.6615 0.6567 0.6551
1584.000000 0.6538 0.6528 0.6518 0.6475 0.6334
1589.000000 0.6132 0.5930 0.5729 0.5527 0.5325
1594.000000 0.5123 0.4922 0.4720 0.4518 0.4317
1599.000000 0.4115 0.3913 0.3711 0.3510 0.3308
1604.000000 0.3106 0.2904 0.2703 0.2426 0.2419
1609.000000 0.2422 0.2432 0.2549 0.2761 0.2973
1614.000000 0.3185 0.3396 0.3608 0.3820 0.4032
1619.000000 0.4243 0.4455 0.4667 0.4748 0.4756
1624.000000 0.4742 0.4730 0.4528 0.4254 0.3981
1629.000000 0.3707 0.3434 0.3161 0.2887 0.2614
1634.000000 0.2340 0.2067 0.1793 0.1520 0.1247
1639.000000 0.0973 0.0912 0.0889 0.0915 0.0926
1644.000000 0.0980 0.1192 0.1405 0.1617 0.1829
1649.000000 0.2042 0.2254 0.2467 0.2679 0.2891
1654.000000 0.3104 0.3316 0.3528 0.3741 0.3953
1659.000000 0.4165 0.4410 0.4620 0.4870 0.5091
1664.000000 0.5220 0.5347 0.5641 0.6011 0.6152
1669.000000 0.6350 0.6656 0.6840 0.7008 0.7207
1674.000000 0.7485 0.7657 0.7791 0.7925 0.8053
1679.000000 0.8181 0.8362 0.8399 0.8436 0.8454
1684.000000 0.8468 0.8482 0.8496 0.8510 0.8524
1689.000000 0.8535 0.8543 0.8551 0.8560 0.8568
1694.000000 0.8576 0.8584 0.8593 0.8603 0.8612
1699.000000 0.8621 0.8631 0.8640 0.8650 0.8663
1704.000000 0.8677 0.8691 0.8709 0.8731 0.8752
1709.000000 0.8774 0.8796 0.8814 0.8831 0.8848
1714.000000 0.8865 0.8882 0.8892 0.8902 0.8911
1719.000000 0.8920 0.8930 0.8939 0.8947 0.8952
1724.000000 0.8958 0.8963 0.8969 0.8975 0.8980
1729.000000 0.8985 0.8987 0.8989 0.8991 0.8992
1734.000000 0.8994 0.8996 0.8998 0.9000 0.9002
1739.000000 0.9002 0.9001 0.9000 0.8999 0.8999
1744.000000 0.8998 0.8997 0.8996 0.8995 0.8994
1749.000000 0.8992 0.8988 0.8984 0.8980 0.8976
1754.000000 0.8972 0.8968 0.8964 0.8961 0.8957
1759.000000 0.8953 0.8951 0.8949 0.8946 0.8944
1764.000000 0.8942 0.8939 0.8937 0.8935 0.8932
1769.000000 0.8930 0.8928 0.8925 0.8923 0.8921
1774.000000 0.8918 0.8916 0.8914 0.8912 0.8909
1779.000000 0.8907 0.8905 0.8902 0.8900 0.8901
1784.000000 0.8904 0.8907 0.8911 0.8916 0.8922
1789.000000 0.8934 0.8947 0.8960 0.8975 0.8994
1794.000000 0.9013 0.9031 0.9050 0.9067 0.9084
1799.000000 0.9101 0.9118 0.9130 0.9137 0.9140
1804.000000 0.9143 0.9146 0.9149 0.9152 0.9154
1809.000000 0.9157 0.9160 0.9163 0.9166 0.9169
1814.000000 0.9172 0.9173 0.9175 0.9177 0.9179
1819.000000 0.9180 0.9182 0.9184 0.9186 0.9188
1824.000000 0.9189 0.9213 0.9189 0.9189 0.9189
1829.000000 0.9189 0.9189 0.9189 0.9188 0.9188
1834.000000 0.9188 0.9188 0.9188 0.9188 0.9187
1839.000000 0.9187 0.9187 0.9187 0.9187 0.9186
1844.000000 0.9186 0.9186 0.9185 0.9185 0.9185
1849.000000 0.9185 0.9184 0.9184 0.9184 0.9184
1854.000000 0.9183 0.9183 0.9182 0.9181 0.9181
1859.000000 0.9180 0.9179 0.9178 0.9178 0.9177
1864.000000 0.9176 0.9176 0.9175 0.9174 0.9173
1869.000000 0.9173 0.9172 0.9171 0.9170 0.9170
1874.000000 0.9169 0.9168 0.9167 0.9167 0.9166
1879.000000 0.9165 0.9164 0.9164 0.9162 0.9160
1884.000000 0.9158 0.9156 0.9155 0.9153 0.9151
1889.000000 0.9149 0.9147 0.9145 0.9143 0.9141
1894.000000 0.9139 0.9138 0.9136 0.9134 0.9132
1899.000000 0.9130 0.9128 0.9126 0.9125 0.9123
1904.000000 0.9121 0.9119 0.9117 0.9115 0.9114
1909.000000 0.9112 0.9110 0.9108 0.9106 0.9104
1914.000000 0.9102 0.9101 0.9097 0.9092 0.9087
1919.000000 0.9082 0.9077 0.9072 0.9067 0.9062
1924.000000 0.9057 0.9051 0.9046 0.9041 0.9036
1929.000000 0.9031 0.9026 0.9021 0.9016 0.9012
1934.000000 0.9009 0.9006 0.9003 0.8999 0.8996
1939.000000 0.8993 0.8993 0.8992 0.8991 0.8991
1944.000000 0.8990 0.8989 0.8988 0.8988 0.8988
1949.000000 0.8987 0.8987 0.8987 0.8987 0.8987
1954.000000 0.8986 0.8986 0.8986 0.8986 0.8985
1959.000000 0.8985 0.8985 0.8985 0.8984 0.8984
1964.000000 0.8984 0.8984 0.8983 0.8983 0.8983
1969.000000 0.8983 0.8983 0.8983 0.8983 0.8983
1974.000000 0.8984 0.8984 0.8984 0.8984 0.8984
1979.000000 0.8984 0.8984 0.8985 0.8985 0.8985
1984.000000 0.8985 0.8985 0.8985 0.8985 0.8986
1989.000000 0.8986 0.8986 0.8986 0.8986 0.8986
1994.000000 0.8986 0.8987 0.8987 0.8987 0.8987
1999.000000 0.8986 0.8986 0.8986 0.8986 0.8986
2004.000000 0.8985 0.8985 0.8985 0.8985 0.8985
2009.000000 0.8984 0.8984 0.8984 0.8984 0.8984
2014.000000 0.8983 0.8983 0.8983 0.8983 0.8983
2019.000000 0.8982 0.8982 0.8982 0.8982 0.8982
2024.000000 0.8981 0.8981 0.8981 0.8981 0.8980
2029.000000 0.8980 0.8980 0.8980 0.8980 0.8979
2034.000000 0.8979 0.8979 0.8979 0.8978 0.8978
2039.000000 0.8977 0.8977 0.8976 0.8976 0.8975
2044.000000 0.8975 0.8974 0.8974 0.8973 0.8973
2049.000000 0.8972 0.8971 0.8971 0.8970 0.8970
2054.000000 0.8969 0.8969 0.8968 0.8968 0.8967
2059.000000 0.8967 0.8966 0.8966 0.8965 0.8964
2064.000000 0.8964 0.8963 0.8963 0.8962 0.8962
2069.000000 0.8961 0.8961 0.8961 0.8960 0.8960
2074.000000 0.8960 0.8960 0.8960 0.8960 0.8959
2079.000000 0.8959 0.8959 0.8959 0.8959 0.8958
2084.000000 0.8958 0.8958 0.8958 0.8958 0.8958
2089.000000 0.8957 0.8957 0.8957 0.8957 0.8957
2094.000000 0.8956 0.8956 0.8955 0.8955 0.8954
2099.000000 0.8954 0.8953 0.8952 0.8952 0.8951
2104.000000 0.8951 0.8950 0.8949 0.8949 0.8948
2109.000000 0.8948 0.8947 0.8946 0.8946 0.8945
2114.000000 0.8945 0.8944 0.8943 0.8943 0.8942
2119.000000 0.8942 0.8941 0.8940 0.8940 0.8939
2124.000000 0.8939 0.8938 0.8937 0.8937 0.8936
2129.000000 0.8936 0.8935 0.8934 0.8934 0.8933
2134.000000 0.8932 0.8932 0.8931 0.8931 0.8930
2139.000000 0.8929 0.8929 0.8928 0.8928 0.8927
2144.000000 0.8927 0.8926 0.8926 0.8925 0.8925
2149.000000 0.8925 0.8924 0.8924 0.8923 0.8923
2154.000000 0.8922 0.8922 0.8922 0.8921 0.8921
2159.000000 0.8920 0.8920 0.8919 0.8919 0.8919
2164.000000 0.8918 0.8918 0.8917 0.8917 0.8916
2169.000000 0.8916 0.8916 0.8915 0.8915 0.8914
2174.000000 0.8914 0.8914 0.8913 0.8913 0.8912
2179.000000 0.8912 0.8911 0.8911 0.8911 0.8910
2184.000000 0.8910 0.8909 0.8909 0.8908 0.8908
2189.000000 0.8908 0.8907 0.8907 0.8906 0.8906
2194.000000 0.8905 0.8905 0.8905 0.8904 0.8904
2199.000000 0.8903 0.8903 0.8902 0.8902 0.8901
2204.000000 0.8901 0.8900 0.8899 0.8898 0.8897
2209.000000 0.8896 0.8895 0.8894 0.8894 0.8893
2214.000000 0.8892 0.8891 0.8890 0.8889 0.8888
2219.000000 0.8888 0.8887 0.8886 0.8885 0.8884
2224.000000 0.8883 0.8882 0.8881 0.8881 0.8880
2229.000000 0.8879 0.8878 0.8877 0.8876 0.8875
2234.000000 0.8875 0.8874 0.8873 0.8872 0.8871
2239.000000 0.8870 0.8865 0.8862 0.8859 0.8857
2244.000000 0.8854 0.8851 0.8849 0.8846 0.8843
2249.000000 0.8840 0.8838 0.8835 0.8832 0.8830
2254.000000 0.8827 0.8824 0.8822 0.8820 0.8818
2259.000000 0.8816 0.8814 0.8812 0.8810 0.8808
2264.000000 0.8806 0.8804 0.8802 0.8800 0.8798
2269.000000 0.8796 0.8795 0.8794 0.8793 0.8792
2274.000000 0.8790 0.8789 0.8788 0.8787 0.8786
2279.000000 0.8785 0.8783 0.8782 0.8781 0.8781
2284.000000 0.8780 0.8780 0.8779 0.8779 0.8779
2289.000000 0.8778 0.8778 0.8778 0.8777 0.8777
2294.000000 0.8777 0.8777 0.8777 0.8777 0.8777
2299.000000 0.8777 0.8777 0.8777 0.8778 0.8778
2304.000000 0.8778 0.8778 0.8778 0.8778 0.8778
2309.000000 0.8778 0.8779 0.8779 0.8779 0.8779
2314.000000 0.8779 0.8779 0.8779 0.8780 0.8780
2319.000000 0.8780 0.8780 0.8780 0.8780 0.8780
2324.000000 0.8780 0.8780 0.8780 0.8780 0.8780
2329.000000 0.8780 0.8780 0.8780 0.8780 0.8780
2334.000000 0.8780 0.8780 0.8780 0.8779 0.8779
2339.000000 0.8779 0.8779 0.8779 0.8779 0.8779
2344.000000 0.8779 0.8779 0.8778 0.8776 0.8775
2349.000000 0.8773 0.8771 0.8768 0.8766 0.8764
2354.000000 0.8761 0.8759 0.8756 0.8754 0.8752
2359.000000 0.8749 0.8747 0.8744 0.8742 0.8740
2364.000000 0.8737 0.8735 0.8732 0.8730 0.8727
2369.000000 0.8725 0.8723 0.8721 0.8719 0.8717
2374.000000 0.8715 0.8712 0.8710 0.8708 0.8706
2379.000000 0.8704 0.8702 0.8700 0.8697 0.8695
2384.000000 0.8693 0.8691 0.8689 0.8687 0.8684
2389.000000 0.8682 0.8680 0.8678 0.8676 0.8674
2394.000000 0.8672 0.8669 0.8667 0.8665 0.8663
2399.000000 0.8661 0.8659 0.8657 0.8654 0.8652
2404.000000 0.8650 0.8648 0.8646 0.8644 0.8642
2409.000000 0.8640 0.8638 0.8636 0.8634 0.8633
2414.000000 0.8631 0.8629 0.8627 0.8625 0.8623
2419.000000 0.8621 0.8619 0.8617 0.8616 0.8614
2424.000000 0.8612 0.8610 0.8608 0.8606 0.8604
2429.000000 0.8602 0.8600 0.8599 0.8598 0.8597
2434.000000 0.8597 0.8596 0.8596 0.8595 0.8595
2439.000000 0.8594 0.8593 0.8594 0.8595 0.8596
2444.000000 0.8597 0.8598 0.8598 0.8599 0.8600
2449.000000 0.8601 0.8602 0.8603 0.8604 0.8605
2454.000000 0.8606 0.8607 0.8608 0.8609 0.8610
2459.000000 0.8612 0.8615 0.8619 0.8623 0.8626
2464.000000 0.8632 0.8638 0.8643 0.8649 0.8655
2469.000000 0.8668 0.8682 0.8700 0.8721 0.8742
2474.000000 0.8762 0.8781 0.8794 0.8808 0.8821
2479.000000 0.8834 0.8830 0.8822 0.8814 0.8790
2484.000000 0.8756 0.8723 0.8689 0.8656 0.8623
2489.000000 0.8595 0.8569 0.8545 0.8532 0.8525
2494.000000 0.8521 0.8517 0.8513 0.8509 0.8507
2499.000000 0.8504 0.8502 0.8499 0.8497 0.8494
2504.000000 0.8492 0.8489 0.8487 0.8484 0.8482
2509.000000 0.8479 0.8477 0.8474 0.8472 0.8469
2514.000000 0.8467 0.8464 0.8462 0.8459 0.8456
2519.000000 0.8454 0.8451 0.8449 0.8446 0.8443
2524.000000 0.8441 0.8439 0.8437 0.8435 0.8433
2529.000000 0.8431 0.8429 0.8427 0.8425 0.8423
2534.000000 0.8420 0.8418 0.8416 0.8414 0.8412
2539.000000 0.8409 0.8407 0.8404 0.8402 0.8400
2544.000000 0.8397 0.8395 0.8392 0.8389 0.8386
2549.000000 0.8383 0.8380 0.8377 0.8374 0.8371
2554.000000 0.8368 0.8366 0.8363 0.8360 0.8357
2559.000000 0.8354 0.8351 0.8348 0.8345 0.8342
2564.000000 0.8339 0.8337 0.8334 0.8331 0.8328
2569.000000 0.8325 0.8322 0.8320 0.8317 0.8314
2574.000000 0.8311 0.8308 0.8305 0.8302 0.8300
2579.000000 0.8297 0.8294 0.8291 0.8288 0.8286
2584.000000 0.8284 0.8282 0.8280 0.8278 0.8276
2589.000000 0.8274 0.8272 0.8270 0.8268 0.8265
2594.000000 0.8263 0.8261 0.8259 0.8257 0.8255
2599.000000 0.8253 0.8251 0.8249 0.8247 0.8245
2604.000000 0.8243 0.8241 0.8238 0.8236 0.8234
2609.000000 0.8231 0.8229 0.8227 0.8224 0.8222
2614.000000 0.8220 0.8218 0.8215 0.8213 0.8211
2619.000000 0.8208 0.8206 0.8204 0.8201 0.8199
2624.000000 0.8197 0.8195 0.8192 0.8190 0.8188
2629.000000 0.8185 0.8183 0.8181 0.8178 0.8176
2634.000000 0.8174 0.8172 0.8170 0.8168 0.8166
2639.000000 0.8164 0.8162 0.8159 0.8157 0.8155
2644.000000 0.8153 0.8151 0.8149 0.8147 0.8145
2649.000000 0.8143 0.8141 0.8139 0.8137 0.8135
2654.000000 0.8132 0.8130 0.8128 0.8126 0.8124
2659.000000 0.8122 0.8120 0.8118 0.8116 0.8114
2664.000000 0.8112 0.8111 0.8110 0.8108 0.8107
2669.000000 0.8105 0.8104 0.8102 0.8101 0.8100
2674.000000 0.8098 0.8097 0.8096 0.8095 0.8094
2679.000000 0.8093 0.8091 0.8090 0.8089 0.8088
2684.000000 0.8081 0.8074 0.8067 0.8061 0.8054
2689.000000 0.8047 0.8040 0.8034 0.8027 0.8020
2694.000000 0.8013 0.8006 0.8000 0.7993 0.7986
2699.000000 0.7979 0.7973 0.7966 0.7959 0.7952
2704.000000 0.7946 0.7939 0.7932 0.7925 0.7918
2709.000000 0.7912 0.7905 0.7898 0.7891 0.7884
2714.000000 0.7878 0.7871 0.7864 0.7857 0.7850
2719.000000 0.7843 0.7837 0.7830 0.7823 0.7816
2724.000000 0.7809 0.7806 0.7803 0.7799 0.7796
2729.000000 0.7793 0.7789 0.7786 0.7783 0.7779
2734.000000 0.7776 0.7773 0.7770 0.7768 0.7767
2739.000000 0.7765 0.7764 0.7763 0.7761 0.7760
2744.000000 0.7759 0.7757 0.7756 0.7754 0.7753
2749.000000 0.7752 0.7750 0.7749 0.7748 0.7746
2754.000000 0.7745 0.7743 0.7742 0.7741 0.7739
2759.000000 0.7738 0.7737 0.7737 0.7736 0.7735
2764.000000 0.7735 0.7734 0.7734 0.7733 0.7732
2769.000000 0.7732 0.7731 0.7731 0.7730 0.7729
2774.000000 0.7729 0.7728 0.7728 0.7726 0.7723
2779.000000 0.7720 0.7717 0.7714 0.7711 0.7709
2784.000000 0.7706 0.7703 0.7700 0.7697 0.7694
2789.000000 0.7690 0.7683 0.7676 0.7669 0.7662
2794.000000 0.7655 0.7648 0.7641 0.7634 0.7627
2799.000000 0.7620 0.7613 0.7607 0.7600 0.7593
2804.000000 0.7585 0.7576 0.7566 0.7557 0.7547
2809.000000 0.7538 0.7528 0.7519 0.7509 0.7500
2814.000000 0.7490 0.7481 0.7472 0.7462 0.7453
2819.000000 0.7443 0.7434 0.7424 0.7415 0.7405
2824.000000 0.7394 0.7383 0.7372 0.7361 0.7351
2829.000000 0.7340 0.7329 0.7318 0.7307 0.7296
2834.000000 0.7285 0.7274 0.7263 0.7252 0.7241
2839.000000 0.7233 0.7225 0.7217 0.7209 0.7201
2844.000000 0.7193 0.7185 0.7177 0.7169 0.7161
2849.000000 0.7155 0.7151 0.7146 0.7141 0.7137
2854.000000 0.7132 0.7128 0.7123 0.7118 0.7113
2859.000000 0.7106 0.7099 0.7092 0.7084 0.7077
2864.000000 0.7070 0.7063 0.7056 0.7049 0.7042
2869.000000 0.7034 0.7026 0.7016 0.7007 0.6997
2874.000000 0.6988 0.6978 0.6969 0.6959 0.6950
2879.000000 0.6940 0.6930 0.6920 0.6911 0.6901
2884.000000 0.6891 0.6881 0.6871 0.6862 0.6852
2889.000000 0.6837 0.6822 0.6807 0.6792 0.6777
2894.000000 0.6763 0.6748 0.6733 0.6718 0.6703
2899.000000 0.6688 0.6673 0.6659 0.6644 0.6629
2904.000000 0.6620 0.6615 0.6610 0.6605 0.6600
2909.000000 0.6595 0.6590 0.6585 0.6580 0.6575
2914.000000 0.6572 0.6571 0.6571 0.6570 0.6570
2919.000000 0.6569 0.6569 0.6568 0.6568 0.6567
2924.000000 0.6567 0.6567 0.6567 0.6567 0.6567
2929.000000 0.6567 0.6567 0.6567 0.6566 0.6566
2934.000000 0.6566 0.6564 0.6563 0.6561 0.6560
2939.000000 0.6558 0.6556 0.6551 0.6546 0.6541
2944.000000 0.6536 0.6531 0.6526 0.6520 0.6515
2949.000000 0.6507 0.6499 0.6491 0.6483 0.6474
2954.000000 0.6466 0.6458 0.6450 0.6439 0.6428
2959.000000 0.6416 0.6405 0.6393 0.6382 0.6371
2964.000000 0.6359 0.6348 0.6336 0.6325 0.6313
2969.000000 0.6302 0.6289 0.6274 0.6260 0.6246
2974.000000 0.6231 0.6217 0.6203 0.6189 0.6174
2979.000000 0.6160 0.6146 0.6131 0.6117 0.6103
2984.000000 0.6088 0.6074 0.6060 0.6046 0.6034
2989.000000 0.6021 0.6008 0.5995 0.5982 0.5969
2994.000000 0.5956 0.5943 0.5931 0.5918 0.5905
2999.000000 0.5892 0.5879 0.5866 0.5853 0.5840
3004.000000 0.5828 0.5812 0.5797 0.5781 0.5765
3009.000000 0.5750 0.5734 0.5718 0.5703 0.5687
3014.000000 0.5671 0.5656 0.5640 0.5625 0.5609
3019.000000 0.5593 0.5575 0.5557 0.5539 0.5521
3024.000000 0.5503 0.5485 0.5467 0.5449 0.5431
3029.000000 0.5415 0.5411 0.5407 0.5404 0.5400
3034.000000 0.5397 0.5393 0.5389 0.5386 0.5381
3039.000000 0.5364 0.5348 0.5332 0.5315 0.5297
3044.000000 0.5274 0.5251 0.5228 0.5206 0.5196
3049.000000 0.5186 0.5176 0.5166 0.5156 0.5146
3054.000000 0.5136 0.5130 0.5124 0.5118 0.5113
3059.000000 0.5107 0.5101 0.5095 0.5089 0.5083
3064.000000 0.5078 0.5072 0.5068 0.5065 0.5063
3069.000000 0.5061 0.5058 0.5056 0.5054 0.5052
3074.000000 0.5049 0.5047 0.5045 0.5043 0.5040
3079.000000 0.5038 0.5065 0.5043 0.5045 0.5048
3084.000000 0.5051 0.5054 0.5057 0.5059 0.5062
3089.000000 0.5065 0.5068 0.5071 0.5073 0.5076
3094.000000 0.5081 0.5086 0.5091 0.5096 0.5101
3099.000000 0.5106 0.5111 0.5116 0.5121 0.5126
3104.000000 0.5131 0.5139 0.5149 0.5160 0.5170
3109.000000 0.5180 0.5190 0.5201 0.5211 0.5221
3114.000000 0.5232 0.5242 0.5252 0.5263 0.5275
3119.000000 0.5290 0.5306 0.5321 0.5337 0.5352
3124.000000 0.5368 0.5383 0.5399 0.5414 0.5430
3129.000000 0.5448 0.5466 0.5485 0.5503 0.5521
3134.000000 0.5540 0.5558 0.5576 0.5595 0.5613
3139.000000 0.5630 0.5646 0.5661 0.5677 0.5693
3144.000000 0.5708 0.5724 0.5740 0.5754 0.5768
3149.000000 0.5782 0.5795 0.5804 0.5813 0.5822
3154.000000 0.5831 0.5839 0.5848 0.5857 0.5894
3159.000000 0.6138 0.6173 0.6208 0.6220 0.6229
3164.000000 0.6237 0.6246 0.6255 0.6264 0.6273
3169.000000 0.6287 0.6301 0.6315 0.6330 0.6360
3174.000000 0.6403 0.6419 0.6431 0.6442 0.6453
3179.000000 0.6465 0.6475 0.6485 0.6495 0.6505
3184.000000 0.6515 0.6526 0.6536 0.6546 0.6573
3189.000000 0.6609 0.6645 0.6693 0.6752 0.6775
3194.000000 0.6792 0.6809 0.6826 0.6843 0.6858
3199.000000 0.6868 0.6878 0.6888 0.6898 0.6908
3204.000000 0.6918 0.6927 0.6931 0.6935 0.6939
3209.000000 0.6943 0.6947 0.6951 0.6955 0.6959
3214.000000 0.6963 0.6965 0.6966 0.6967 0.6968
3219.000000 0.6969 0.6970 0.6971 0.6972 0.6973
3224.000000 0.6974 0.6974 0.6975 0.6976 0.6977
3229.000000 0.6978 0.6979 0.6980 0.6978 0.6977
3234.000000 0.6975 0.6973 0.6985 0.6970 0.6969
3239.000000 0.6967 0.6966 0.6964 0.6963 0.6961
3244.000000 0.6952 0.6933 0.6914 0.6896 0.6877
3249.000000 0.6858 0.6824 0.6785 0.6745 0.6706
3254.000000 0.6671 0.6645 0.6619 0.6593 0.6567
3259.000000 0.6546 0.6537 0.6527 0.6517 0.6507
3264.000000 0.6497 0.6487 0.6478 0.6468 0.6458
3269.000000 0.6451 0.6445 0.6439 0.6433 0.6426
3274.000000 0.6420 0.6414 0.6408 0.6402 0.6391
3279.000000 0.6378 0.6365 0.6352 0.6332 0.6295
3284.000000 0.6257 0.6215 0.6159 0.6102 0.6076
3289.000000 0.6052 0.6029 0.6016 0.6009 0.6002
3294.000000 0.6001 0.6000 0.6000 0.5999 0.6004
3299.000000 0.5995 0.6021 0.6030 0.6062 0.6114
3304.000000 0.6161 0.6184 0.6206 0.6229 0.6241
3309.000000 0.6249 0.6257 0.6265 0.6273 0.6280
3314.000000 0.6288 0.6302 0.6320 0.6339 0.6391
3319.000000 0.6448 0.6475 0.6499 0.6502 0.6506
3324.000000 0.6510 0.6514 0.6512 0.6523 0.6508
3329.000000 0.6506 0.6504 0.6501 0.6499 0.6497
3334.000000 0.6494 0.6491 0.6488 0.6486 0.6483
3339.000000 0.6480 0.6473 0.6466 0.6459 0.6452
3344.000000 0.6445 0.6438 0.6429 0.6418 0.6407
3349.000000 0.6395 0.6384 0.6368 0.6351 0.6334
3354.000000 0.6317 0.6300 0.6282 0.6265 0.6248
3359.000000 0.6222 0.6196 0.6170 0.6145 0.6119
3364.000000 0.6093 0.6063 0.6027 0.5990 0.5953
3369.000000 0.5917 0.5880 0.5843 0.5807 0.5753
3374.000000 0.5699 0.5645 0.5592 0.5538 0.5481
3379.000000 0.5425 0.5368 0.5311 0.5255 0.5198
3384.000000 0.5142 0.5085 0.5017 0.4895 0.4774
3389.000000 0.4653 0.4531 0.4410 0.4289 0.4167
3394.000000 0.4046 0.3924 0.3803 0.3715 0.3652
3399.000000 0.3583 0.3512 0.3459 0.3445 0.3431
3404.000000 0.3425 0.3427 0.3432 0.3394 0.3450
3409.000000 0.3468 0.3502 0.3593 0.3732 0.3871
3414.000000 0.4011 0.4150 0.4290 0.4429 0.4568
3419.000000 0.4708 0.4847 0.4986 0.5128 0.5268
3424.000000 0.5365 0.5464 0.5583 0.5702 0.5819
3429.000000 0.5936 0.6053 0.6129 0.6197 0.6265
3434.000000 0.6308 0.6333 0.6358 0.6383 0.6408
3439.000000 0.6434 0.6452 0.6469 0.6486 0.6503
3444.000000 0.6520 0.6536 0.6549 0.6561 0.6573
3449.000000 0.6586 0.6598 0.6611 0.6621 0.6630
3454.000000 0.6640 0.6650 0.6659 0.6669 0.6679
3459.000000 0.6689 0.6698 0.6708 0.6718 0.6727
3464.000000 0.6737 0.6746 0.6755 0.6763 0.6772
3469.000000 0.6781 0.6789 0.6798 0.6807 0.6815
3474.000000 0.6824 0.6832 0.6841 0.6850 0.6857
3479.000000 0.6864 0.6871 0.6879 0.6886 0.6893
3484.000000 0.6900 0.6908 0.6915 0.6922 0.6930
3489.000000 0.6937 0.6944 0.6951 0.6959 0.6966
3494.000000 0.6973 0.6981 0.6988 0.6996 0.7003
3499.000000 0.7011 0.7018 0.7026 0.7033 0.7044
3504.000000 0.7063 0.7081 0.7100 0.7118 0.7137
3509.000000 0.7182 0.7234 0.7276 0.7310 0.7343
3514.000000 0.7376 0.7384 0.7390 0.7396 0.7402
3519.000000 0.7408 0.7414 0.7419 0.7424 0.7428
3524.000000 0.7433 0.7437 0.7441 0.7446 0.7450
3529.000000 0.7455 0.7459 0.7463 0.7468 0.7472
3534.000000 0.7477 0.7481 0.7486 0.7490 0.7495
3539.000000 0.7500 0.7504 0.7509 0.7513 0.7518
3544.000000 0.7522 0.7527 0.7532 0.7541 0.7550
3549.000000 0.7559 0.7568 0.7577 0.7586 0.7595
3554.000000 0.7603 0.7612 0.7624 0.7637 0.7650
3559.000000 0.7662 0.7675 0.7688 0.7701 0.7713
3564.000000 0.7726 0.7739 0.7752 0.7764 0.7777
3569.000000 0.7790 0.7802 0.7815 0.7828 0.7841
3574.000000 0.7853 0.7866 0.7878 0.7888 0.7898
3579.000000 0.7909 0.7919 0.7929 0.7939 0.7949
3584.000000 0.7959 0.7969 0.7977 0.7984 0.7992
3589.000000 0.8000 0.8008 0.8015 0.8023 0.8031
3594.000000 0.8038 0.8046 0.8054 0.8062 0.8070
3599.000000 0.8078 0.8086 0.8094 0.8102 0.8110
3604.000000 0.8117 0.8125 0.8133 0.8141 0.8149
3609.000000 0.8161 0.8172 0.8183 0.8195 0.8206
3614.000000 0.8217 0.8229 0.8240 0.8252 0.8263
3619.000000 0.8272 0.8281 0.8289 0.8298 0.8307
3624.000000 0.8315 0.8324 0.8332 0.8341 0.8350
3629.000000 0.8354 0.8356 0.8358 0.8360 0.8363
3634.000000 0.8365 0.8367 0.8369 0.8371 0.8373
3639.000000 0.8375 0.8377 0.8379 0.8381 0.8383
3644.000000 0.8385 0.8387 0.8389 0.8390 0.8392
3649.000000 0.8394 0.8396 0.8397 0.8399 0.8401
3654.000000 0.8403 0.8404 0.8406 0.8408 0.8410
3659.000000 0.8411 0.8413 0.8415 0.8416 0.8418
3664.000000 0.8420 0.8422 0.8423 0.8425 0.8427
3669.000000 0.8429 0.8430 0.8432 0.8434 0.8436
3674.000000 0.8437 0.8439 0.8441 0.8442 0.8444
3679.000000 0.8445 0.8446 0.8446 0.8447 0.8448
3684.000000 0.8448 0.8449 0.8449 0.8450 0.8451
3689.000000 0.8451 0.8452 0.8452 0.8453 0.8454
3694.000000 0.8454 0.8455 0.8456 0.8456 0.8457
3699.000000 0.8457 0.8458 0.8459 0.8459 0.8460
3704.000000 0.8461 0.8461 0.8462 0.8462 0.8463
3709.000000 0.8464 0.8464 0.8465 0.8465 0.8466
3714.000000 0.8467 0.8467 0.8468 0.8469 0.8469
3719.000000 0.8470 0.8470 0.8471 0.8472 0.8472
3724.000000 0.8473 0.8474 0.8474 0.8475 0.8475
3729.000000 0.8476 0.8477 0.8477 0.8478 0.8478
3734.000000 0.8479 0.8480 0.8480 0.8480 0.8480
3739.000000 0.8479 0.8479 0.8479 0.8478 0.8478
3744.000000 0.8478 0.8478 0.8477 0.8477 0.8477
3749.000000 0.8477 0.8476 0.8476 0.8476 0.8475
3754.000000 0.8475 0.8475 0.8475 0.8474 0.8474
3759.000000 0.8474 0.8474 0.8473 0.8473 0.8473
3764.000000 0.8473 0.8472 0.8472 0.8472 0.8471
3769.000000 0.8471 0.8471 0.8471 0.8470 0.8470
3774.000000 0.8470 0.8470 0.8469 0.8469 0.8469
3779.000000 0.8468 0.8468 0.8468 0.8468 0.8467
3784.000000 0.8467 0.8467 0.8467 0.8466 0.8466
3789.000000 0.8466 0.8465 0.8465 0.8465 0.8464
3794.000000 0.8464 0.8464 0.8463 0.8463 0.8462
3799.000000 0.8462 0.8461 0.8461 0.8460 0.8460
3804.000000 0.8460 0.8459 0.8459 0.8458 0.8458
3809.000000 0.8457 0.8457 0.8457 0.8456 0.8456
3814.000000 0.8455 0.8455 0.8454 0.8454 0.8453
3819.000000 0.8453 0.8453 0.8452 0.8452 0.8451
3824.000000 0.8451 0.8450 0.8450 0.8450 0.8449
3829.000000 0.8449 0.8448 0.8448 0.8447 0.8447
3834.000000 0.8447 0.8446 0.8445 0.8445 0.8445
3839.000000 0.8444 0.8444 0.8443 0.8443 0.8442
3844.000000 0.8442 0.8441 0.8441 0.8440 0.8440
3849.000000 0.8439 0.8439 0.8438 0.8438 0.8437
3854.000000 0.8437 0.8436 0.8436 0.8435 0.8435
3859.000000 0.8434 0.8434 0.8433 0.8433 0.8432
3864.000000 0.8432 0.8431 0.8431 0.8430 0.8430
3869.000000 0.8429 0.8429 0.8428 0.8428 0.8427
3874.000000 0.8427 0.8426 0.8426 0.8425 0.8425
3879.000000 0.8425 0.8424 0.8423 0.8422 0.8421
3884.000000 0.8419 0.8418 0.8417 0.8416 0.8415
3889.000000 0.8414 0.8413 0.8412 0.8411 0.8410
3894.000000 0.8409 0.8408 0.8407 0.8405 0.8404
3899.000000 0.8403 0.8402 0.8401 0.8400 0.8399
3904.000000 0.8398 0.8397 0.8396 0.8395 0.8394
3909.000000 0.8393 0.8391 0.8390 0.8389 0.8388
3914.000000 0.8387 0.8386 0.8385 0.8384 0.8384
3919.000000 0.8384 0.8384 0.8384 0.8384 0.8384
3924.000000 0.8384 0.8384 0.8383 0.8383 0.8383
3929.000000 0.8383 0.8383 0.8383 0.8383 0.8383
3934.000000 0.8383 0.8383 0.8383 0.8383 0.8383
3939.000000 0.8382 0.8382 0.8382 0.8382 0.8382
3944.000000 0.8382 0.8382 0.8382 0.8382 0.8382
3949.000000 0.8382 0.8383 0.8383 0.8384 0.8385
3954.000000 0.8385 0.8386 0.8387 0.8419 0.8388
3959.000000 0.8389 0.8390 0.8390 0.8391 0.8392
3964.000000 0.8393 0.8393 0.8394 0.8395 0.8396
3969.000000 0.8396 0.8397 0.8398 0.8398 0.8399
3974.000000 0.8400 0.8401 0.8401 0.8400 0.8399
3979.000000 0.8398 0.8397 0.8396 0.8395 0.8395
3984.000000 0.8394 0.8393 0.8392 0.8391 0.8390
3989.000000 0.8390 0.8389 0.8388 0.8387 0.8386
3994.000000 0.8385 0.8385 0.8384 0.8383 0.8382
3999.000000 0.8381 0.8381
##END=
