##TITLE=Dodecane-1-sulfonic acid, sodium salt
##JCAMP-DX=4.24
##DATA TYPE=INFRARED SPECTRUM
##CLASS=COBLENTZ III
##ORIGIN=COLGATE-PALMOLIVE COMPANY (KELLENBACH)
##OWNER=Copyright (C) 1987 by the Coblentz Society
Collection (C) 2018 copyright by the U.S. Secretary of Commerce
on behalf of the United States of America. All rights reserved.
##DATE=1974/03/26
##MOLFORM=C12 H25 O3 S Na
##SOURCE REFERENCE=COBLENTZ NO. 9747
##$NIST ID=B6009747
##$NIST SOURCE=COBLENTZ
##$NIST IMAGE=cob9747
##SPECTROMETER/DATA SYSTEM=BECKMAN IR-12 (GRATING)
##INSTRUMENT PARAMETERS=GRATING
##STATE=SOLID (1 mg / 100 mg KBr DISC)
$$SPECTRAL CONTAMINATION DUE TO H2O AROUND 3460, 1650 (H2O VAPOR), AND UNKNOWNS AROUND 2350, 200 CM^-^1
##SAMPLING PROCEDURE=TRANSMISSION
##RESOLUTION=2
##DATA PROCESSING=DIGITIZED BY COBLENTZ SOCIETY (BATCH II) FROM HARD COPY
##XUNITS=1/CM
##YUNITS=TRANSMITTANCE
##XFACTOR=1.0
##YFACTOR=1
##FIRSTX=204
##LASTX=4000
##FIRSTY=0.1343
##MAXX=4000
##MINX=204
##MAXY=0.9791
##MINY=0.1343
##NPOINTS=3797
##XYDATA=(X++(Y..Y))
204.000000 0.1343 0.1354 0.1363 0.1372 0.1382
209.000000 0.1393 0.1404 0.1416 0.1437 0.1459
214.000000 0.1480 0.1501 0.1522 0.1634 0.1754
219.000000 0.1873 0.1993 0.2112 0.2232 0.2351
224.000000 0.2471 0.2590 0.2710 0.2829 0.2949
229.000000 0.3068 0.3187 0.3307 0.3426 0.3546
234.000000 0.3665 0.3785 0.3904 0.4024 0.4143
239.000000 0.4263 0.4382 0.4502 0.4621 0.4741
244.000000 0.5011 0.5144 0.5250 0.5357 0.5463
249.000000 0.5569 0.5675 0.5781 0.5888 0.5994
254.000000 0.6100 0.6206 0.6313 0.6419 0.6525
259.000000 0.6631 0.6738 0.6844 0.6950 0.7056
264.000000 0.7162 0.7269 0.7375 0.7481 0.7558
269.000000 0.7611 0.7659 0.7708 0.7756 0.7791
274.000000 0.7816 0.7840 0.7864 0.7875 0.7887
279.000000 0.7898 0.7909 0.7921 0.7936 0.7955
284.000000 0.7981 0.8031 0.8081 0.8145 0.8210
289.000000 0.8267 0.8317 0.8367 0.8417 0.8447
294.000000 0.8464 0.8481 0.8498 0.8515 0.8522
299.000000 0.8513 0.8504 0.8491 0.8472 0.8475
304.000000 0.8482 0.8489 0.8500 0.8514 0.8529
309.000000 0.8544 0.8559 0.8574 0.8587 0.8601
314.000000 0.8615 0.8633 0.8652 0.8671 0.8690
319.000000 0.8716 0.8743 0.8771 0.8798 0.8821
324.000000 0.8830 0.8839 0.8848 0.8849 0.8849
329.000000 0.8849 0.8849 0.8849 0.8849 0.8849
334.000000 0.8850 0.8850 0.8850 0.8848 0.8847
339.000000 0.8845 0.8844 0.8842 0.8840 0.8839
344.000000 0.8837 0.8835 0.8833 0.8831 0.8828
349.000000 0.8826 0.8823 0.8821 0.8821 0.8824
354.000000 0.8828 0.8831 0.8835 0.8838 0.8844
359.000000 0.8858 0.8872 0.8887 0.8902 0.8920
364.000000 0.8938 0.8956 0.8974 0.8992 0.9011
369.000000 0.9029 0.9047 0.9065 0.9084 0.9102
374.000000 0.9121 0.9139 0.9164 0.9194 0.9225
379.000000 0.9256 0.9286 0.9317 0.9343 0.9368
384.000000 0.9392 0.9417 0.9442 0.9467 0.9488
389.000000 0.9495 0.9502 0.9509 0.9516 0.9523
394.000000 0.9527 0.9529 0.9532 0.9534 0.9534
399.000000 0.9532 0.9529 0.9527 0.9525 0.9522
404.000000 0.9520 0.9517 0.9513 0.9509 0.9505
409.000000 0.9500 0.9496 0.9492 0.9493 0.9503
414.000000 0.9512 0.9532 0.9555 0.9577 0.9606
419.000000 0.9635 0.9664 0.9686 0.9700 0.9713
424.000000 0.9727 0.9740 0.9753 0.9766 0.9778
429.000000 0.9791 0.9782 0.9763 0.9750 0.9731
434.000000 0.9711 0.9692 0.9673 0.9654 0.9635
439.000000 0.9634 0.9636 0.9638 0.9642 0.9649
444.000000 0.9655 0.9661 0.9667 0.9673 0.9679
449.000000 0.9685 0.9691 0.9696 0.9693 0.9690
454.000000 0.9688 0.9688 0.9689 0.9690 0.9691
459.000000 0.9702 0.9712 0.9725 0.9742 0.9759
464.000000 0.9768 0.9774 0.9780 0.9781 0.9782
469.000000 0.9783 0.9783 0.9784 0.9784 0.9783
474.000000 0.9782 0.9780 0.9779 0.9773 0.9768
479.000000 0.9762 0.9756 0.9751 0.9745 0.9740
484.000000 0.9730 0.9720 0.9709 0.9699 0.9689
489.000000 0.9673 0.9654 0.9636 0.9592 0.9548
494.000000 0.9506 0.9464 0.9451 0.9449 0.9454
499.000000 0.9466 0.9479 0.9492 0.9507 0.9521
504.000000 0.9532 0.9543 0.9553 0.9563 0.9573
509.000000 0.9577 0.9577 0.9573 0.9601 0.9534
514.000000 0.9491 0.9447 0.9404 0.9361 0.9302
519.000000 0.9210 0.9109 0.9009 0.8908 0.8807
524.000000 0.8707 0.8606 0.8505 0.8404 0.8304
529.000000 0.8203 0.8102 0.8002 0.7901 0.7800
534.000000 0.7785 0.7805 0.7808 0.7820 0.7849
539.000000 0.7881 0.7914 0.7942 0.7969 0.7996
544.000000 0.8023 0.8054 0.8084 0.8115 0.8137
549.000000 0.8154 0.8171 0.8183 0.8188 0.8193
554.000000 0.8204 0.8222 0.8240 0.8258 0.8306
559.000000 0.8368 0.8506 0.8640 0.8750 0.8854
564.000000 0.8892 0.8902 0.8911 0.8919 0.8927
569.000000 0.8947 0.8989 0.9102 0.9158 0.9213
574.000000 0.9241 0.9260 0.9278 0.9297 0.9314
579.000000 0.9321 0.9328 0.9334 0.9341 0.9347
584.000000 0.9346 0.9368 0.9345 0.9345 0.9335
589.000000 0.9324 0.9313 0.9301 0.9288 0.9276
594.000000 0.9272 0.9269 0.9267 0.9264 0.9205
599.000000 0.9122 0.9039 0.8956 0.8873 0.8791
604.000000 0.8708 0.8625 0.8542 0.8459 0.8376
609.000000 0.8289 0.8011 0.7734 0.7456 0.7179
614.000000 0.6901 0.6624 0.6346 0.6069 0.5791
619.000000 0.5789 0.5790 0.5797 0.6046 0.6296
624.000000 0.6545 0.6795 0.7044 0.7294 0.7543
629.000000 0.7793 0.8042 0.8292 0.8542 0.8791
634.000000 0.9041 0.9079 0.9094 0.9109 0.9124
639.000000 0.9154 0.9203 0.9258 0.9309 0.9359
644.000000 0.9388 0.9373 0.9368 0.9355 0.9336
649.000000 0.9304 0.9285 0.9266 0.9246 0.9230
654.000000 0.9214 0.9202 0.9200 0.9197 0.9194
659.000000 0.9202 0.9210 0.9221 0.9237 0.9253
664.000000 0.9266 0.9262 0.9259 0.9255 0.9252
669.000000 0.9239 0.9226 0.9214 0.9194 0.9193
674.000000 0.9205 0.9227 0.9250 0.9272 0.9291
679.000000 0.9303 0.9315 0.9327 0.9333 0.9337
684.000000 0.9341 0.9343 0.9342 0.9342 0.9341
689.000000 0.9341 0.9338 0.9335 0.9332 0.9329
694.000000 0.9297 0.9321 0.9316 0.9310 0.9305
699.000000 0.9299 0.9289 0.9278 0.9268 0.9258
704.000000 0.9248 0.9237 0.9219 0.9201 0.9184
709.000000 0.9165 0.9137 0.9110 0.9081 0.8981
714.000000 0.8795 0.8609 0.8423 0.8237 0.8051
719.000000 0.8049 0.8025 0.8063 0.8140 0.8217
724.000000 0.8294 0.8371 0.8448 0.8525 0.8602
729.000000 0.8679 0.8762 0.8802 0.8841 0.8879
734.000000 0.8916 0.8953 0.8990 0.9027 0.9064
739.000000 0.9093 0.9119 0.9144 0.9168 0.9193
744.000000 0.9218 0.9243 0.9267 0.9292 0.9316
749.000000 0.9338 0.9352 0.9340 0.9323 0.9305
754.000000 0.9285 0.9264 0.9243 0.9222 0.9228
759.000000 0.9235 0.9261 0.9353 0.9310 0.9325
764.000000 0.9339 0.9345 0.9351 0.9351 0.9351
769.000000 0.9351 0.9351 0.9348 0.9345 0.9342
774.000000 0.9318 0.9249 0.9179 0.9109 0.9040
779.000000 0.8970 0.8901 0.8831 0.8762 0.8692
784.000000 0.8623 0.8553 0.8483 0.8414 0.8344
789.000000 0.8275 0.8205 0.8136 0.8066 0.7998
794.000000 0.7940 0.7921 0.7915 0.7903 0.7913
799.000000 0.7942 0.8034 0.8127 0.8219 0.8311
804.000000 0.8404 0.8496 0.8589 0.8681 0.8773
809.000000 0.8866 0.8958 0.9051 0.9143 0.9235
814.000000 0.9305 0.9346 0.9369 0.9391 0.9414
819.000000 0.9431 0.9447 0.9463 0.9481 0.9493
824.000000 0.9490 0.9486 0.9480 0.9466 0.9453
829.000000 0.9440 0.9425 0.9410 0.9397 0.9393
834.000000 0.9388 0.9384 0.9382 0.9385 0.9388
839.000000 0.9392 0.9395 0.9398 0.9402 0.9411
844.000000 0.9423 0.9435 0.9446 0.9458 0.9469
849.000000 0.9482 0.9498 0.9513 0.9528 0.9544
854.000000 0.9559 0.9575 0.9587 0.9598 0.9610
859.000000 0.9622 0.9633 0.9645 0.9651 0.9655
864.000000 0.9659 0.9663 0.9667 0.9668 0.9657
869.000000 0.9664 0.9662 0.9660 0.9659 0.9657
874.000000 0.9655 0.9653 0.9650 0.9647 0.9643
879.000000 0.9640 0.9636 0.9633 0.9629 0.9623
884.000000 0.9617 0.9611 0.9605 0.9599 0.9593
889.000000 0.9587 0.9581 0.9577 0.9574 0.9572
894.000000 0.9569 0.9567 0.9564 0.9565 0.9567
899.000000 0.9569 0.9571 0.9574 0.9576 0.9573
904.000000 0.9571 0.9568 0.9566 0.9561 0.9555
909.000000 0.9549 0.9542 0.9536 0.9530 0.9523
914.000000 0.9517 0.9511 0.9507 0.9504 0.9501
919.000000 0.9497 0.9494 0.9491 0.9493 0.9498
924.000000 0.9504 0.9509 0.9515 0.9520 0.9525
929.000000 0.9531 0.9536 0.9542 0.9547 0.9553
934.000000 0.9558 0.9564 0.9569 0.9574 0.9580
939.000000 0.9586 0.9591 0.9597 0.9603 0.9608
944.000000 0.9614 0.9619 0.9625 0.9631 0.9636
949.000000 0.9641 0.9643 0.9645 0.9646 0.9648
954.000000 0.9649 0.9651 0.9653 0.9653 0.9646
959.000000 0.9639 0.9632 0.9624 0.9617 0.9610
964.000000 0.9603 0.9595 0.9583 0.9571 0.9558
969.000000 0.9546 0.9534 0.9521 0.9509 0.9497
974.000000 0.9485 0.9474 0.9462 0.9451 0.9439
979.000000 0.9427 0.9416 0.9404 0.9393 0.9385
984.000000 0.9376 0.9368 0.9360 0.9351 0.9343
989.000000 0.9334 0.9320 0.9307 0.9293 0.9280
994.000000 0.9267 0.9253 0.9240 0.9224 0.9207
999.000000 0.9209 0.9215 0.9225 0.9259 0.9291
1004.000000 0.9313 0.9334 0.9356 0.9351 0.9344
1009.000000 0.9328 0.9320 0.9326 0.9335 0.9351
1014.000000 0.9366 0.9416 0.9447 0.9458 0.9446
1019.000000 0.9464 0.9464 0.9456 0.9446 0.9433
1024.000000 0.9382 0.9197 0.9123 0.9091 0.9087
1029.000000 0.9085 0.9055 0.8885 0.8714 0.8544
1034.000000 0.8373 0.8203 0.8032 0.7862 0.7691
1039.000000 0.7521 0.7350 0.7180 0.7009 0.6839
1044.000000 0.6668 0.6498 0.6327 0.6157 0.5986
1049.000000 0.5816 0.5645 0.5475 0.5304 0.5134
1054.000000 0.4963 0.4793 0.4622 0.4452 0.4281
1059.000000 0.4111 0.3940 0.3770 0.3599 0.3429
1064.000000 0.3367 0.3354 0.3357 0.3365 0.3565
1069.000000 0.4294 0.5023 0.5752 0.6304 0.6440
1074.000000 0.6589 0.6769 0.6955 0.7127 0.7244
1079.000000 0.7360 0.7506 0.7702 0.7847 0.7974
1084.000000 0.8046 0.8095 0.8143 0.8190 0.8228
1089.000000 0.8265 0.8302 0.8333 0.8354 0.8375
1094.000000 0.8397 0.8414 0.8427 0.8440 0.8452
1099.000000 0.8589 0.8664 0.8690 0.8703 0.8706
1104.000000 0.8705 0.8705 0.8704 0.8703 0.8703
1109.000000 0.8716 0.8730 0.8750 0.8777 0.8809
1114.000000 0.8857 0.8867 0.8895 0.8878 0.8873
1119.000000 0.8868 0.8859 0.8843 0.8819 0.8790
1124.000000 0.8755 0.8731 0.8720 0.8710 0.8698
1129.000000 0.8687 0.8675 0.8664 0.8652 0.8630
1134.000000 0.8607 0.8584 0.8562 0.8527 0.8488
1139.000000 0.8448 0.8409 0.8330 0.8246 0.8132
1144.000000 0.7970 0.7765 0.7560 0.7355 0.7150
1149.000000 0.6945 0.6740 0.6534 0.6329 0.6124
1154.000000 0.5919 0.5714 0.5509 0.5304 0.5099
1159.000000 0.4894 0.4689 0.4484 0.4279 0.4074
1164.000000 0.3734 0.3625 0.3515 0.3344 0.3167
1169.000000 0.2990 0.2813 0.2720 0.2661 0.2604
1174.000000 0.2546 0.2499 0.2454 0.2408 0.2356
1179.000000 0.2344 0.2324 0.2346 0.2370 0.2396
1184.000000 0.2421 0.2444 0.2466 0.2478 0.2490
1189.000000 0.2502 0.2505 0.2508 0.2511 0.2513
1194.000000 0.2515 0.2517 0.2519 0.2521 0.2526
1199.000000 0.2534 0.2542 0.2550 0.2561 0.2572
1204.000000 0.2583 0.2620 0.2710 0.2800 0.2890
1209.000000 0.2980 0.3070 0.3160 0.3249 0.3339
1214.000000 0.3429 0.3519 0.3609 0.3699 0.3789
1219.000000 0.3879 0.3968 0.4053 0.4106 0.4189
1224.000000 0.4237 0.4266 0.4295 0.4377 0.4499
1229.000000 0.4621 0.4744 0.4866 0.4988 0.5110
1234.000000 0.5232 0.5354 0.5477 0.5599 0.5721
1239.000000 0.5843 0.5965 0.6068 0.6137 0.6214
1244.000000 0.6286 0.6347 0.6407 0.6461 0.6497
1249.000000 0.6532 0.6568 0.6603 0.6638 0.6675
1254.000000 0.6715 0.6754 0.6794 0.6833 0.6872
1259.000000 0.6951 0.7030 0.7113 0.7205 0.7621
1264.000000 0.7850 0.7953 0.8021 0.8045 0.8069
1269.000000 0.8079 0.8090 0.8079 0.8067 0.8055
1274.000000 0.8043 0.8031 0.8019 0.8007 0.7997
1279.000000 0.7997 0.8046 0.8127 0.8208 0.8289
1284.000000 0.8370 0.8451 0.8501 0.8506 0.8507
1289.000000 0.8487 0.8444 0.8402 0.8359 0.8334
1294.000000 0.8336 0.8336 0.8347 0.8373 0.8399
1299.000000 0.8424 0.8450 0.8476 0.8502 0.8528
1304.000000 0.8554 0.8580 0.8606 0.8632 0.8658
1309.000000 0.8686 0.8713 0.8743 0.8772 0.8796
1314.000000 0.8820 0.8845 0.8868 0.8883 0.8898
1319.000000 0.8912 0.8927 0.8941 0.8952 0.8958
1324.000000 0.8964 0.8970 0.8964 0.8956 0.8942
1329.000000 0.8929 0.8929 0.8932 0.8943 0.8955
1334.000000 0.8966 0.8980 0.8994 0.9008 0.9020
1339.000000 0.9032 0.9044 0.9054 0.9062 0.9070
1344.000000 0.9077 0.9080 0.9082 0.9084 0.9086
1349.000000 0.9088 0.9088 0.9080 0.9086 0.9085
1354.000000 0.9081 0.9078 0.9074 0.9070 0.9066
1359.000000 0.9062 0.9058 0.9053 0.9047 0.9041
1364.000000 0.9035 0.9029 0.9023 0.9017 0.9012
1369.000000 0.9006 0.8995 0.8980 0.8964 0.8949
1374.000000 0.8926 0.8896 0.8867 0.8852 0.8837
1379.000000 0.8826 0.8847 0.8839 0.8894 0.8949
1384.000000 0.9004 0.9060 0.9086 0.9097 0.9107
1389.000000 0.9105 0.9102 0.9096 0.9088 0.9082
1394.000000 0.9077 0.9072 0.9078 0.9088 0.9074
1399.000000 0.9106 0.9111 0.9115 0.9116 0.9103
1404.000000 0.9085 0.9059 0.9033 0.9007 0.8981
1409.000000 0.8955 0.8929 0.8903 0.8877 0.8851
1414.000000 0.8825 0.8799 0.8774 0.8748 0.8728
1419.000000 0.8734 0.8731 0.8778 0.8825 0.8872
1424.000000 0.8919 0.8944 0.8936 0.8930 0.8924
1429.000000 0.8918 0.8909 0.8897 0.8886 0.8870
1434.000000 0.8850 0.8831 0.8811 0.8793 0.8776
1439.000000 0.8759 0.8741 0.8724 0.8713 0.8701
1444.000000 0.8690 0.8678 0.8628 0.8544 0.8461
1449.000000 0.8377 0.8293 0.8209 0.8125 0.8042
1454.000000 0.7958 0.7874 0.7790 0.7764 0.7749
1459.000000 0.7735 0.7721 0.7707 0.7563 0.7348
1464.000000 0.7132 0.6916 0.6700 0.6484 0.6269
1469.000000 0.6260 0.6340 0.6538 0.6736 0.6934
1474.000000 0.7132 0.7331 0.7529 0.7727 0.7925
1479.000000 0.8123 0.8321 0.8519 0.8717 0.8916
1484.000000 0.9004 0.9023 0.9043 0.9060 0.9066
1489.000000 0.9071 0.9077 0.9082 0.9086 0.9090
1494.000000 0.9093 0.9097 0.9100 0.9104 0.9107
1499.000000 0.9111 0.9135 0.9114 0.9115 0.9116
1504.000000 0.9118 0.9119 0.9120 0.9120 0.9118
1509.000000 0.9116 0.9113 0.9111 0.9109 0.9106
1514.000000 0.9104 0.9102 0.9099 0.9097 0.9095
1519.000000 0.9092 0.9089 0.9087 0.9084 0.9081
1524.000000 0.9079 0.9076 0.9073 0.9071 0.9068
1529.000000 0.9065 0.9063 0.9060 0.9057 0.9055
1534.000000 0.9052 0.9049 0.9047 0.9044 0.9041
1539.000000 0.9039 0.9038 0.9037 0.9036 0.9034
1544.000000 0.9033 0.9032 0.9031 0.9030 0.9028
1549.000000 0.9027 0.9027 0.9029 0.9030 0.9032
1554.000000 0.9034 0.9035 0.9037 0.9039 0.9041
1559.000000 0.9044 0.9046 0.9049 0.9052 0.9054
1564.000000 0.9057 0.9060 0.9062 0.9065 0.9068
1569.000000 0.9071 0.9074 0.9077 0.9081 0.9084
1574.000000 0.9088 0.9092 0.9095 0.9099 0.9103
1579.000000 0.9107 0.9111 0.9114 0.9117 0.9120
1584.000000 0.9122 0.9125 0.9128 0.9130 0.9133
1589.000000 0.9136 0.9138 0.9137 0.9137 0.9136
1594.000000 0.9135 0.9134 0.9133 0.9133 0.9132
1599.000000 0.9131 0.9128 0.9121 0.9113 0.9106
1604.000000 0.9099 0.9091 0.9084 0.9077 0.9069
1609.000000 0.9062 0.9055 0.9047 0.9040 0.9033
1614.000000 0.9025 0.9017 0.9005 0.8994 0.8983
1619.000000 0.8971 0.8960 0.8949 0.8937 0.8926
1624.000000 0.8915 0.8903 0.8892 0.8881 0.8869
1629.000000 0.8858 0.8847 0.8837 0.8826 0.8816
1634.000000 0.8805 0.8795 0.8784 0.8773 0.8763
1639.000000 0.8752 0.8747 0.8743 0.8738 0.8734
1644.000000 0.8729 0.8725 0.8720 0.8716 0.8712
1649.000000 0.8710 0.8708 0.8707 0.8705 0.8703
1654.000000 0.8702 0.8701 0.8708 0.8715 0.8722
1659.000000 0.8729 0.8736 0.8743 0.8750 0.8761
1664.000000 0.8773 0.8785 0.8797 0.8810 0.8822
1669.000000 0.8834 0.8847 0.8859 0.8869 0.8879
1674.000000 0.8889 0.8900 0.8910 0.8920 0.8930
1679.000000 0.8940 0.8949 0.8956 0.8964 0.8971
1684.000000 0.8977 0.8983 0.8988 0.8992 0.8995
1689.000000 0.8998 0.9001 0.9004 0.9005 0.9007
1694.000000 0.9008 0.9009 0.9011 0.9012 0.9013
1699.000000 0.9014 0.9015 0.9015 0.9016 0.9017
1704.000000 0.9017 0.9018 0.9019 0.9019 0.9020
1709.000000 0.9021 0.9021 0.9020 0.9020 0.9019
1714.000000 0.9018 0.9018 0.9017 0.9016 0.9016
1719.000000 0.9015 0.9014 0.9014 0.9013 0.9012
1724.000000 0.9012 0.9011 0.9011 0.9012 0.9012
1729.000000 0.9012 0.9012 0.9012 0.9012 0.9012
1734.000000 0.9013 0.9013 0.9013 0.9015 0.9018
1739.000000 0.9021 0.9024 0.9027 0.9030 0.9033
1744.000000 0.9036 0.9039 0.9042 0.9044 0.9047
1749.000000 0.9050 0.9053 0.9056 0.9061 0.9065
1754.000000 0.9069 0.9074 0.9078 0.9083 0.9087
1759.000000 0.9091 0.9096 0.9100 0.9105 0.9109
1764.000000 0.9113 0.9117 0.9119 0.9121 0.9123
1769.000000 0.9125 0.9127 0.9129 0.9131 0.9133
1774.000000 0.9135 0.9137 0.9139 0.9139 0.9138
1779.000000 0.9138 0.9138 0.9137 0.9137 0.9136
1784.000000 0.9136 0.9135 0.9133 0.9129 0.9124
1789.000000 0.9120 0.9116 0.9111 0.9107 0.9102
1794.000000 0.9098 0.9093 0.9089 0.9084 0.9078
1799.000000 0.9072 0.9066 0.9061 0.9055 0.9049
1804.000000 0.9043 0.9037 0.9031 0.9024 0.9018
1809.000000 0.9012 0.9005 0.8999 0.8992 0.8990
1814.000000 0.8989 0.8987 0.8986 0.8985 0.8984
1819.000000 0.8983 0.8982 0.8981 0.8980 0.8979
1824.000000 0.8978 0.8978 0.8979 0.8980 0.8981
1829.000000 0.8982 0.8983 0.8984 0.8985 0.8986
1834.000000 0.8987 0.8989 0.8992 0.8995 0.8999
1839.000000 0.9002 0.9005 0.9008 0.9011 0.9015
1844.000000 0.9018 0.9021 0.9024 0.9028 0.9031
1849.000000 0.9034 0.9037 0.9041 0.9044 0.9047
1854.000000 0.9050 0.9054 0.9057 0.9060 0.9063
1859.000000 0.9067 0.9070 0.9073 0.9071 0.9068
1864.000000 0.9065 0.9061 0.9058 0.9055 0.9052
1869.000000 0.9048 0.9045 0.9041 0.9033 0.9026
1874.000000 0.9018 0.9011 0.9003 0.8996 0.8989
1879.000000 0.8981 0.8974 0.8967 0.8960 0.8953
1884.000000 0.8955 0.8958 0.8961 0.8963 0.8966
1889.000000 0.8969 0.8971 0.8974 0.8967 0.8960
1894.000000 0.8953 0.8946 0.8939 0.8934 0.8928
1899.000000 0.8923 0.8918 0.8917 0.8918 0.8919
1904.000000 0.8920 0.8921 0.8922 0.8923 0.8923
1909.000000 0.8923 0.8922 0.8921 0.8921 0.8920
1914.000000 0.8919 0.8919 0.8918 0.8917 0.8916
1919.000000 0.8914 0.8913 0.8912 0.8911 0.8910
1924.000000 0.8909 0.8908 0.8908 0.8909 0.8909
1929.000000 0.8909 0.8910 0.8910 0.8910 0.8911
1934.000000 0.8911 0.8911 0.8912 0.8912 0.8912
1939.000000 0.8913 0.8912 0.8910 0.8909 0.8908
1944.000000 0.8907 0.8906 0.8905 0.8903 0.8902
1949.000000 0.8901 0.8900 0.8899 0.8898 0.8896
1954.000000 0.8895 0.8893 0.8892 0.8891 0.8889
1959.000000 0.8888 0.8886 0.8885 0.8884 0.8882
1964.000000 0.8881 0.8879 0.8878 0.8876 0.8874
1969.000000 0.8872 0.8870 0.8868 0.8866 0.8864
1974.000000 0.8862 0.8860 0.8858 0.8856 0.8854
1979.000000 0.8852 0.8850 0.8848 0.8846 0.8844
1984.000000 0.8842 0.8840 0.8838 0.8835 0.8832
1989.000000 0.8828 0.8825 0.8822 0.8818 0.8815
1994.000000 0.8811 0.8808 0.8805 0.8801 0.8798
1999.000000 0.8795 0.8791 0.8788 0.8785 0.8783
2004.000000 0.8781 0.8779 0.8778 0.8776 0.8775
2009.000000 0.8773 0.8771 0.8769 0.8768 0.8766
2014.000000 0.8765 0.8763 0.8762 0.8760 0.8758
2019.000000 0.8756 0.8755 0.8754 0.8754 0.8754
2024.000000 0.8755 0.8755 0.8755 0.8755 0.8756
2029.000000 0.8756 0.8756 0.8756 0.8757 0.8757
2034.000000 0.8757 0.8757 0.8757 0.8755 0.8753
2039.000000 0.8751 0.8749 0.8747 0.8746 0.8744
2044.000000 0.8742 0.8739 0.8737 0.8734 0.8731
2049.000000 0.8728 0.8726 0.8723 0.8720 0.8717
2054.000000 0.8715 0.8712 0.8709 0.8706 0.8704
2059.000000 0.8701 0.8698 0.8695 0.8693 0.8692
2064.000000 0.8691 0.8691 0.8691 0.8690 0.8690
2069.000000 0.8690 0.8690 0.8689 0.8689 0.8689
2074.000000 0.8689 0.8689 0.8689 0.8688 0.8688
2079.000000 0.8688 0.8688 0.8687 0.8687 0.8687
2084.000000 0.8687 0.8686 0.8686 0.8686 0.8686
2089.000000 0.8685 0.8685 0.8685 0.8685 0.8684
2094.000000 0.8684 0.8683 0.8682 0.8681 0.8680
2099.000000 0.8679 0.8678 0.8677 0.8676 0.8675
2104.000000 0.8674 0.8673 0.8672 0.8671 0.8670
2109.000000 0.8668 0.8667 0.8665 0.8664 0.8663
2114.000000 0.8662 0.8660 0.8659 0.8657 0.8656
2119.000000 0.8654 0.8653 0.8651 0.8649 0.8647
2124.000000 0.8645 0.8643 0.8641 0.8639 0.8637
2129.000000 0.8635 0.8633 0.8631 0.8629 0.8627
2134.000000 0.8625 0.8624 0.8623 0.8623 0.8624
2139.000000 0.8624 0.8625 0.8625 0.8626 0.8626
2144.000000 0.8627 0.8627 0.8627 0.8627 0.8628
2149.000000 0.8628 0.8629 0.8628 0.8628 0.8627
2154.000000 0.8627 0.8626 0.8626 0.8626 0.8626
2159.000000 0.8625 0.8625 0.8624 0.8624 0.8623
2164.000000 0.8623 0.8622 0.8622 0.8620 0.8619
2169.000000 0.8617 0.8615 0.8613 0.8612 0.8610
2174.000000 0.8609 0.8607 0.8605 0.8603 0.8602
2179.000000 0.8600 0.8599 0.8597 0.8596 0.8594
2184.000000 0.8592 0.8590 0.8589 0.8587 0.8586
2189.000000 0.8584 0.8582 0.8580 0.8579 0.8577
2194.000000 0.8576 0.8574 0.8572 0.8570 0.8569
2199.000000 0.8567 0.8565 0.8563 0.8562 0.8560
2204.000000 0.8559 0.8557 0.8555 0.8553 0.8552
2209.000000 0.8550 0.8549 0.8547 0.8545 0.8543
2214.000000 0.8542 0.8539 0.8537 0.8535 0.8533
2219.000000 0.8530 0.8528 0.8526 0.8524 0.8522
2224.000000 0.8520 0.8517 0.8515 0.8513 0.8511
2229.000000 0.8508 0.8506 0.8504 0.8502 0.8500
2234.000000 0.8498 0.8495 0.8493 0.8492 0.8492
2239.000000 0.8491 0.8491 0.8490 0.8490 0.8489
2244.000000 0.8489 0.8488 0.8488 0.8487 0.8487
2249.000000 0.8486 0.8486 0.8485 0.8485 0.8487
2254.000000 0.8489 0.8491 0.8493 0.8495 0.8497
2259.000000 0.8499 0.8501 0.8503 0.8505 0.8507
2264.000000 0.8509 0.8511 0.8513 0.8514 0.8516
2269.000000 0.8517 0.8519 0.8520 0.8522 0.8523
2274.000000 0.8525 0.8526 0.8528 0.8527 0.8527
2279.000000 0.8526 0.8525 0.8524 0.8523 0.8522
2284.000000 0.8521 0.8520 0.8519 0.8518 0.8517
2289.000000 0.8516 0.8515 0.8512 0.8510 0.8507
2294.000000 0.8504 0.8500 0.8497 0.8494 0.8491
2299.000000 0.8487 0.8484 0.8481 0.8478 0.8475
2304.000000 0.8472 0.8467 0.8462 0.8455 0.8448
2309.000000 0.8441 0.8434 0.8427 0.8421 0.8414
2314.000000 0.8407 0.8400 0.8394 0.8387 0.8380
2319.000000 0.8373 0.8367 0.8360 0.8353 0.8345
2324.000000 0.8337 0.8328 0.8319 0.8310 0.8301
2329.000000 0.8291 0.8282 0.8273 0.8264 0.8254
2334.000000 0.8245 0.8236 0.8227 0.8217 0.8208
2339.000000 0.8197 0.8187 0.8176 0.8166 0.8155
2344.000000 0.8145 0.8134 0.8124 0.8116 0.8108
2349.000000 0.8103 0.8099 0.8094 0.8089 0.8084
2354.000000 0.8079 0.8081 0.8083 0.8085 0.8088
2359.000000 0.8090 0.8093 0.8098 0.8103 0.8112
2364.000000 0.8121 0.8129 0.8138 0.8147 0.8156
2369.000000 0.8164 0.8173 0.8182 0.8191 0.8201
2374.000000 0.8212 0.8227 0.8243 0.8258 0.8273
2379.000000 0.8288 0.8303 0.8316 0.8330 0.8341
2384.000000 0.8353 0.8364 0.8376 0.8387 0.8399
2389.000000 0.8409 0.8419 0.8429 0.8439 0.8442
2394.000000 0.8445 0.8448 0.8452 0.8455 0.8459
2399.000000 0.8458 0.8458 0.8457 0.8456 0.8455
2404.000000 0.8454 0.8452 0.8451 0.8449 0.8448
2409.000000 0.8446 0.8444 0.8442 0.8440 0.8438
2414.000000 0.8437 0.8435 0.8434 0.8432 0.8431
2419.000000 0.8430 0.8429 0.8428 0.8428 0.8428
2424.000000 0.8428 0.8428 0.8428 0.8428 0.8428
2429.000000 0.8427 0.8427 0.8427 0.8427 0.8427
2434.000000 0.8427 0.8427 0.8427 0.8427 0.8428
2439.000000 0.8429 0.8430 0.8430 0.8431 0.8432
2444.000000 0.8433 0.8433 0.8434 0.8434 0.8435
2449.000000 0.8435 0.8436 0.8435 0.8435 0.8434
2454.000000 0.8434 0.8433 0.8432 0.8431 0.8431
2459.000000 0.8430 0.8430 0.8429 0.8428 0.8426
2464.000000 0.8425 0.8423 0.8422 0.8420 0.8418
2469.000000 0.8416 0.8415 0.8413 0.8412 0.8410
2474.000000 0.8408 0.8406 0.8405 0.8403 0.8402
2479.000000 0.8400 0.8398 0.8396 0.8395 0.8393
2484.000000 0.8392 0.8391 0.8390 0.8389 0.8389
2489.000000 0.8388 0.8388 0.8387 0.8387 0.8386
2494.000000 0.8386 0.8385 0.8385 0.8384 0.8384
2499.000000 0.8384 0.8384 0.8384 0.8384 0.8384
2504.000000 0.8384 0.8384 0.8384 0.8384 0.8384
2509.000000 0.8384 0.8384 0.8384 0.8384 0.8383
2514.000000 0.8382 0.8380 0.8378 0.8376 0.8375
2519.000000 0.8373 0.8371 0.8369 0.8368 0.8366
2524.000000 0.8364 0.8362 0.8361 0.8359 0.8357
2529.000000 0.8355 0.8353 0.8351 0.8349 0.8347
2534.000000 0.8345 0.8342 0.8340 0.8338 0.8336
2539.000000 0.8334 0.8332 0.8330 0.8328 0.8327
2544.000000 0.8326 0.8324 0.8323 0.8321 0.8320
2549.000000 0.8318 0.8317 0.8316 0.8315 0.8313
2554.000000 0.8312 0.8310 0.8309 0.8307 0.8306
2559.000000 0.8305 0.8304 0.8302 0.8301 0.8299
2564.000000 0.8298 0.8296 0.8294 0.8292 0.8291
2569.000000 0.8289 0.8287 0.8285 0.8284 0.8282
2574.000000 0.8280 0.8278 0.8276 0.8274 0.8273
2579.000000 0.8270 0.8268 0.8266 0.8264 0.8261
2584.000000 0.8259 0.8257 0.8255 0.8253 0.8251
2589.000000 0.8251 0.8251 0.8251 0.8252 0.8252
2594.000000 0.8253 0.8253 0.8254 0.8254 0.8255
2599.000000 0.8255 0.8256 0.8256 0.8257 0.8257
2604.000000 0.8257 0.8253 0.8250 0.8247 0.8244
2609.000000 0.8240 0.8237 0.8234 0.8231 0.8227
2614.000000 0.8224 0.8220 0.8217 0.8212 0.8208
2619.000000 0.8204 0.8200 0.8196 0.8192 0.8187
2624.000000 0.8183 0.8179 0.8175 0.8170 0.8166
2629.000000 0.8162 0.8158 0.8153 0.8149 0.8144
2634.000000 0.8140 0.8138 0.8137 0.8136 0.8136
2639.000000 0.8135 0.8134 0.8133 0.8133 0.8132
2644.000000 0.8131 0.8130 0.8130 0.8129 0.8128
2649.000000 0.8127 0.8126 0.8125 0.8125 0.8124
2654.000000 0.8123 0.8122 0.8122 0.8122 0.8122
2659.000000 0.8122 0.8122 0.8122 0.8122 0.8122
2664.000000 0.8123 0.8123 0.8123 0.8123 0.8123
2669.000000 0.8123 0.8123 0.8123 0.8123 0.8123
2674.000000 0.8123 0.8123 0.8123 0.8123 0.8123
2679.000000 0.8124 0.8125 0.8127 0.8129 0.8131
2684.000000 0.8134 0.8136 0.8138 0.8140 0.8142
2689.000000 0.8144 0.8146 0.8148 0.8150 0.8152
2694.000000 0.8154 0.8155 0.8156 0.8157 0.8158
2699.000000 0.8158 0.8159 0.8153 0.8147 0.8141
2704.000000 0.8135 0.8129 0.8123 0.8117 0.8112
2709.000000 0.8106 0.8101 0.8095 0.8090 0.8084
2714.000000 0.8079 0.8074 0.8069 0.8064 0.8059
2719.000000 0.8053 0.8048 0.8044 0.8040 0.8037
2724.000000 0.8035 0.8033 0.8031 0.8029 0.8027
2729.000000 0.8025 0.8023 0.8023 0.8023 0.8022
2734.000000 0.8022 0.8022 0.8022 0.8021 0.8021
2739.000000 0.8021 0.8021 0.8021 0.8021 0.8021
2744.000000 0.8021 0.8021 0.8022 0.8022 0.8022
2749.000000 0.8022 0.8022 0.8021 0.8028 0.8018
2754.000000 0.8017 0.8015 0.8014 0.8012 0.8011
2759.000000 0.8009 0.8008 0.8007 0.8006 0.8004
2764.000000 0.8003 0.8001 0.7999 0.7997 0.7995
2769.000000 0.7993 0.7991 0.7989 0.7987 0.7985
2774.000000 0.7983 0.7981 0.7979 0.7977 0.7975
2779.000000 0.7970 0.7966 0.7960 0.7955 0.7949
2784.000000 0.7944 0.7938 0.7932 0.7926 0.7921
2789.000000 0.7914 0.7908 0.7898 0.7889 0.7879
2794.000000 0.7870 0.7860 0.7851 0.7841 0.7831
2799.000000 0.7819 0.7808 0.7792 0.7777 0.7761
2804.000000 0.7746 0.7730 0.7714 0.7698 0.7683
2809.000000 0.7664 0.7646 0.7627 0.7608 0.7589
2814.000000 0.7570 0.7551 0.7533 0.7514 0.7495
2819.000000 0.7472 0.7449 0.7417 0.7386 0.7355
2824.000000 0.7324 0.7242 0.7161 0.7063 0.6965
2829.000000 0.6867 0.6769 0.6671 0.6573 0.6475
2834.000000 0.6377 0.6279 0.6181 0.6083 0.5985
2839.000000 0.5864 0.5744 0.5341 0.4938 0.4535
2844.000000 0.4132 0.3729 0.3326 0.3138 0.2951
2849.000000 0.2958 0.2951 0.3107 0.3249 0.3391
2854.000000 0.3534 0.3676 0.3818 0.3960 0.4102
2859.000000 0.4244 0.4387 0.4529 0.4671 0.4841
2864.000000 0.5011 0.5052 0.5094 0.5144 0.5195
2869.000000 0.5253 0.5312 0.5343 0.5374 0.5405
2874.000000 0.5436 0.5464 0.5493 0.5500 0.5508
2879.000000 0.5511 0.5514 0.5512 0.5520 0.5502
2884.000000 0.5495 0.5469 0.5443 0.5404 0.5365
2889.000000 0.5319 0.5274 0.5225 0.5176 0.5128
2894.000000 0.5080 0.4985 0.4890 0.4764 0.4638
2899.000000 0.4511 0.4385 0.4259 0.4133 0.4007
2904.000000 0.3881 0.3754 0.3628 0.3502 0.3376
2909.000000 0.3249 0.3123 0.2997 0.2871 0.2745
2914.000000 0.2619 0.2492 0.2366 0.2240 0.2114
2919.000000 0.2045 0.1977 0.1978 0.1974 0.2002
2924.000000 0.2025 0.2083 0.2142 0.2201 0.2260
2929.000000 0.2343 0.2427 0.2579 0.2731 0.2883
2934.000000 0.3035 0.3187 0.3339 0.3491 0.3644
2939.000000 0.3796 0.3948 0.4100 0.4252 0.4404
2944.000000 0.4556 0.4665 0.4774 0.4772 0.4773
2949.000000 0.4735 0.4700 0.4665 0.4630 0.4594
2954.000000 0.4559 0.4524 0.4489 0.4472 0.4455
2959.000000 0.4456 0.4457 0.4577 0.4458 0.4859
2964.000000 0.5022 0.5184 0.5347 0.5510 0.5673
2969.000000 0.5835 0.5998 0.6124 0.6250 0.6308
2974.000000 0.6366 0.6441 0.6517 0.6604 0.6692
2979.000000 0.6738 0.6785 0.6835 0.6885 0.6943
2984.000000 0.7002 0.7034 0.7066 0.7098 0.7130
2989.000000 0.7157 0.7185 0.7208 0.7231 0.7254
2994.000000 0.7277 0.7297 0.7317 0.7333 0.7350
2999.000000 0.7366 0.7383 0.7397 0.7412 0.7421
3004.000000 0.7430 0.7439 0.7449 0.7458 0.7467
3009.000000 0.7475 0.7483 0.7489 0.7495 0.7501
3014.000000 0.7507 0.7512 0.7518 0.7524 0.7530
3019.000000 0.7533 0.7537 0.7540 0.7544 0.7547
3024.000000 0.7551 0.7554 0.7558 0.7561 0.7565
3029.000000 0.7568 0.7572 0.7574 0.7576 0.7578
3034.000000 0.7580 0.7582 0.7585 0.7587 0.7589
3039.000000 0.7591 0.7594 0.7596 0.7598 0.7602
3044.000000 0.7606 0.7610 0.7614 0.7620 0.7626
3049.000000 0.7634 0.7642 0.7649 0.7657 0.7662
3054.000000 0.7668 0.7666 0.7664 0.7662 0.7660
3059.000000 0.7659 0.7658 0.7656 0.7655 0.7654
3064.000000 0.7653 0.7651 0.7650 0.7649 0.7648
3069.000000 0.7646 0.7645 0.7646 0.7648 0.7651
3074.000000 0.7654 0.7657 0.7660 0.7663 0.7666
3079.000000 0.7669 0.7672 0.7675 0.7679 0.7683
3084.000000 0.7687 0.7691 0.7696 0.7699 0.7702
3089.000000 0.7704 0.7706 0.7707 0.7709 0.7711
3094.000000 0.7713 0.7714 0.7716 0.7718 0.7720
3099.000000 0.7720 0.7720 0.7720 0.7720 0.7720
3104.000000 0.7720 0.7720 0.7720 0.7720 0.7720
3109.000000 0.7720 0.7721 0.7721 0.7721 0.7721
3114.000000 0.7721 0.7720 0.7720 0.7719 0.7718
3119.000000 0.7717 0.7717 0.7716 0.7715 0.7714
3124.000000 0.7714 0.7712 0.7711 0.7709 0.7707
3129.000000 0.7704 0.7702 0.7700 0.7698 0.7695
3134.000000 0.7693 0.7691 0.7689 0.7686 0.7684
3139.000000 0.7682 0.7680 0.7677 0.7675 0.7674
3144.000000 0.7673 0.7671 0.7670 0.7668 0.7667
3149.000000 0.7665 0.7664 0.7663 0.7662 0.7663
3154.000000 0.7665 0.7667 0.7670 0.7672 0.7674
3159.000000 0.7676 0.7679 0.7681 0.7683 0.7685
3164.000000 0.7688 0.7690 0.7692 0.7693 0.7695
3169.000000 0.7696 0.7698 0.7699 0.7701 0.7702
3174.000000 0.7704 0.7705 0.7707 0.7708 0.7710
3179.000000 0.7711 0.7713 0.7712 0.7711 0.7709
3184.000000 0.7707 0.7705 0.7703 0.7701 0.7700
3189.000000 0.7698 0.7696 0.7693 0.7691 0.7688
3194.000000 0.7685 0.7681 0.7678 0.7675 0.7672
3199.000000 0.7668 0.7665 0.7662 0.7659 0.7656
3204.000000 0.7653 0.7649 0.7646 0.7644 0.7643
3209.000000 0.7641 0.7639 0.7637 0.7635 0.7633
3214.000000 0.7631 0.7629 0.7628 0.7626 0.7624
3219.000000 0.7622 0.7620 0.7618 0.7616 0.7614
3224.000000 0.7612 0.7610 0.7608 0.7606 0.7604
3229.000000 0.7601 0.7599 0.7597 0.7595 0.7593
3234.000000 0.7591 0.7589 0.7587 0.7584 0.7582
3239.000000 0.7580 0.7579 0.7577 0.7576 0.7574
3244.000000 0.7573 0.7571 0.7570 0.7568 0.7567
3249.000000 0.7565 0.7564 0.7563 0.7562 0.7560
3254.000000 0.7559 0.7558 0.7557 0.7555 0.7554
3259.000000 0.7553 0.7552 0.7550 0.7549 0.7548
3264.000000 0.7547 0.7546 0.7545 0.7541 0.7538
3269.000000 0.7534 0.7531 0.7528 0.7525 0.7521
3274.000000 0.7518 0.7515 0.7512 0.7508 0.7505
3279.000000 0.7501 0.7498 0.7493 0.7489 0.7485
3284.000000 0.7481 0.7477 0.7473 0.7469 0.7465
3289.000000 0.7460 0.7456 0.7452 0.7448 0.7444
3294.000000 0.7440 0.7436 0.7432 0.7428 0.7425
3299.000000 0.7421 0.7417 0.7413 0.7409 0.7405
3304.000000 0.7401 0.7396 0.7392 0.7387 0.7383
3309.000000 0.7379 0.7375 0.7370 0.7366 0.7361
3314.000000 0.7357 0.7352 0.7348 0.7343 0.7339
3319.000000 0.7334 0.7330 0.7325 0.7321 0.7316
3324.000000 0.7312 0.7307 0.7303 0.7298 0.7294
3329.000000 0.7289 0.7285 0.7280 0.7276 0.7271
3334.000000 0.7267 0.7262 0.7258 0.7253 0.7249
3339.000000 0.7244 0.7240 0.7235 0.7231 0.7226
3344.000000 0.7222 0.7217 0.7213 0.7208 0.7204
3349.000000 0.7199 0.7195 0.7190 0.7186 0.7181
3354.000000 0.7177 0.7171 0.7166 0.7161 0.7156
3359.000000 0.7150 0.7145 0.7140 0.7135 0.7129
3364.000000 0.7124 0.7119 0.7114 0.7108 0.7103
3369.000000 0.7097 0.7091 0.7082 0.7074 0.7066
3374.000000 0.7058 0.7049 0.7041 0.7032 0.7024
3379.000000 0.7016 0.7008 0.6999 0.6991 0.6982
3384.000000 0.6974 0.6966 0.6958 0.6950 0.6942
3389.000000 0.6934 0.6926 0.6918 0.6911 0.6903
3394.000000 0.6895 0.6887 0.6879 0.6871 0.6863
3399.000000 0.6855 0.6848 0.6840 0.6832 0.6824
3404.000000 0.6817 0.6810 0.6804 0.6797 0.6791
3409.000000 0.6784 0.6777 0.6770 0.6764 0.6757
3414.000000 0.6751 0.6744 0.6738 0.6731 0.6725
3419.000000 0.6718 0.6712 0.6705 0.6699 0.6695
3424.000000 0.6691 0.6687 0.6683 0.6679 0.6676
3429.000000 0.6672 0.6668 0.6664 0.6661 0.6657
3434.000000 0.6654 0.6650 0.6646 0.6642 0.6639
3439.000000 0.6635 0.6631 0.6628 0.6626 0.6623
3444.000000 0.6620 0.6617 0.6615 0.6612 0.6609
3449.000000 0.6605 0.6601 0.6596 0.6591 0.6586
3454.000000 0.6581 0.6578 0.6576 0.6576 0.6577
3459.000000 0.6577 0.6578 0.6579 0.6580 0.6583
3464.000000 0.6586 0.6589 0.6592 0.6595 0.6599
3469.000000 0.6602 0.6605 0.6608 0.6611 0.6614
3474.000000 0.6618 0.6622 0.6626 0.6629 0.6633
3479.000000 0.6637 0.6641 0.6645 0.6649 0.6653
3484.000000 0.6657 0.6661 0.6665 0.6668 0.6672
3489.000000 0.6676 0.6681 0.6686 0.6691 0.6695
3494.000000 0.6700 0.6704 0.6709 0.6714 0.6719
3499.000000 0.6723 0.6728 0.6733 0.6738 0.6742
3504.000000 0.6747 0.6751 0.6756 0.6760 0.6765
3509.000000 0.6769 0.6774 0.6778 0.6783 0.6787
3514.000000 0.6792 0.6796 0.6801 0.6805 0.6810
3519.000000 0.6815 0.6820 0.6824 0.6829 0.6833
3524.000000 0.6838 0.6842 0.6846 0.6850 0.6855
3529.000000 0.6859 0.6864 0.6868 0.6873 0.6877
3534.000000 0.6881 0.6885 0.6890 0.6894 0.6899
3539.000000 0.6903 0.6907 0.6912 0.6917 0.6922
3544.000000 0.6928 0.6933 0.6938 0.6943 0.6948
3549.000000 0.6953 0.6958 0.6963 0.6968 0.6971
3554.000000 0.6974 0.6976 0.6979 0.6981 0.6983
3559.000000 0.6985 0.6988 0.6990 0.6993 0.6995
3564.000000 0.6998 0.7000 0.7003 0.7005 0.7008
3569.000000 0.7010 0.7012 0.7014 0.7017 0.7019
3574.000000 0.7021 0.7023 0.7025 0.7027 0.7029
3579.000000 0.7031 0.7033 0.7035 0.7037 0.7039
3584.000000 0.7041 0.7043 0.7045 0.7047 0.7049
3589.000000 0.7050 0.7052 0.7054 0.7057 0.7060
3594.000000 0.7063 0.7066 0.7070 0.7073 0.7076
3599.000000 0.7079 0.7082 0.7085 0.7088 0.7091
3604.000000 0.7094 0.7097 0.7100 0.7103 0.7107
3609.000000 0.7110 0.7114 0.7117 0.7120 0.7123
3614.000000 0.7127 0.7130 0.7134 0.7137 0.7140
3619.000000 0.7144 0.7148 0.7152 0.7156 0.7160
3624.000000 0.7165 0.7169 0.7174 0.7178 0.7183
3629.000000 0.7187 0.7191 0.7195 0.7199 0.7202
3634.000000 0.7205 0.7208 0.7211 0.7214 0.7217
3639.000000 0.7220 0.7223 0.7226 0.7230 0.7233
3644.000000 0.7236 0.7239 0.7242 0.7245 0.7248
3649.000000 0.7249 0.7251 0.7250 0.7250 0.7250
3654.000000 0.7250 0.7250 0.7250 0.7249 0.7249
3659.000000 0.7249 0.7249 0.7249 0.7249 0.7247
3664.000000 0.7246 0.7244 0.7243 0.7241 0.7239
3669.000000 0.7237 0.7236 0.7234 0.7232 0.7230
3674.000000 0.7229 0.7227 0.7226 0.7224 0.7223
3679.000000 0.7221 0.7220 0.7218 0.7217 0.7215
3684.000000 0.7214 0.7212 0.7211 0.7209 0.7208
3689.000000 0.7207 0.7207 0.7209 0.7211 0.7212
3694.000000 0.7214 0.7217 0.7221 0.7226 0.7231
3699.000000 0.7236 0.7241 0.7245 0.7250 0.7255
3704.000000 0.7260 0.7259 0.7259 0.7257 0.7256
3709.000000 0.7254 0.7252 0.7250 0.7248 0.7245
3714.000000 0.7243 0.7241 0.7239 0.7236 0.7233
3719.000000 0.7230 0.7228 0.7225 0.7222 0.7219
3724.000000 0.7216 0.7213 0.7211 0.7208 0.7205
3729.000000 0.7202 0.7200 0.7197 0.7195 0.7192
3734.000000 0.7190 0.7187 0.7184 0.7181 0.7178
3739.000000 0.7175 0.7172 0.7169 0.7166 0.7163
3744.000000 0.7160 0.7157 0.7154 0.7151 0.7148
3749.000000 0.7147 0.7146 0.7145 0.7144 0.7143
3754.000000 0.7142 0.7141 0.7140 0.7141 0.7142
3759.000000 0.7143 0.7145 0.7146 0.7148 0.7151
3764.000000 0.7154 0.7157 0.7161 0.7164 0.7168
3769.000000 0.7171 0.7175 0.7178 0.7182 0.7185
3774.000000 0.7189 0.7192 0.7195 0.7198 0.7202
3779.000000 0.7205 0.7209 0.7212 0.7216 0.7219
3784.000000 0.7223 0.7223 0.7224 0.7224 0.7225
3789.000000 0.7225 0.7225 0.7225 0.7225 0.7225
3794.000000 0.7225 0.7225 0.7225 0.7223 0.7221
3799.000000 0.7219 0.7217 0.7215 0.7213 0.7210
3804.000000 0.7208 0.7205 0.7203 0.7201 0.7199
3809.000000 0.7196 0.7194 0.7191 0.7189 0.7187
3814.000000 0.7185 0.7182 0.7180 0.7177 0.7175
3819.000000 0.7173 0.7171 0.7168 0.7166 0.7163
3824.000000 0.7161 0.7158 0.7156 0.7153 0.7151
3829.000000 0.7148 0.7146 0.7143 0.7140 0.7137
3834.000000 0.7135 0.7132 0.7130 0.7127 0.7125
3839.000000 0.7122 0.7119 0.7116 0.7114 0.7112
3844.000000 0.7110 0.7108 0.7107 0.7105 0.7104
3849.000000 0.7102 0.7100 0.7098 0.7097 0.7095
3854.000000 0.7094 0.7092 0.7091 0.7089 0.7087
3859.000000 0.7085 0.7084 0.7083 0.7083 0.7082
3864.000000 0.7081 0.7080 0.7080 0.7079 0.7079
3869.000000 0.7078 0.7077 0.7076 0.7076 0.7075
3874.000000 0.7074 0.7074 0.7074 0.7075 0.7076
3879.000000 0.7076 0.7077 0.7078 0.7079 0.7080
3884.000000 0.7081 0.7081 0.7082 0.7083 0.7084
3889.000000 0.7084 0.7084 0.7084 0.7085 0.7085
3894.000000 0.7086 0.7086 0.7087 0.7087 0.7088
3899.000000 0.7088 0.7089 0.7089 0.7090 0.7089
3904.000000 0.7089 0.7088 0.7087 0.7086 0.7085
3909.000000 0.7084 0.7083 0.7082 0.7081 0.7080
3914.000000 0.7079 0.7076 0.7073 0.7070 0.7068
3919.000000 0.7065 0.7063 0.7060 0.7057 0.7054
3924.000000 0.7052 0.7050 0.7048 0.7046 0.7044
3929.000000 0.7042 0.7040 0.7038 0.7037 0.7035
3934.000000 0.7033 0.7031 0.7030 0.7029 0.7028
3939.000000 0.7028 0.7029 0.7029 0.7030 0.7030
3944.000000 0.7031 0.7031 0.7032 0.7032 0.7033
3949.000000 0.7033 0.7034 0.7034 0.7035 0.7035
3954.000000 0.7036 0.7036 0.7036 0.7036 0.7037
3959.000000 0.7037 0.7037 0.7037 0.7038 0.7038
3964.000000 0.7038 0.7038 0.7038 0.7037 0.7044
3969.000000 0.7037 0.7037 0.7037 0.7037 0.7036
3974.000000 0.7036 0.7035 0.7035 0.7034 0.7034
3979.000000 0.7033 0.7032 0.7031 0.7030 0.7029
3984.000000 0.7029 0.7028 0.7027 0.7026 0.7026
3989.000000 0.7025 0.7024 0.7023 0.7022 0.7021
3994.000000 0.7021 0.7020 0.7019 0.7018 0.7018
3999.000000 0.7017 0.7017
##END=
