##TITLE=1-Adamantanamine, hydrochloride
##JCAMP-DX=4.24
$$ By DXEDIT 1.05 (RS McDonald)
##DATA TYPE=INFRARED SPECTRUM
##CLASS=COBLENTZ III
##ORIGIN=DOW CHEMICAL COMPANY
##OWNER=COPYRIGHT (C) 1988 by COBLENTZ SOCIETY INC.
Collection (C) 2018 copyright by the U.S. Secretary of Commerce
on behalf of the United States of America. All rights reserved.
##DATE=1966/05/26
##NAMES=1-adamantanamine hydrochloride
##MOLFORM=C10 H18 Cl N
##SOURCE REFERENCE=COBLENTZ NO. 07569
##$NIST ID=B6007569
##$NIST SOURCE=COBLENTZ
##$NIST IMAGE=cob7569
##SPECTROMETER/DATA SYSTEM=DOW KBr FOREPRISM-GRATING
##INSTRUMENT PARAMETERS=BLAZED AT 3.5, 12.0, 20.0 MICRON AND CHANGED AT 5.0, 7.5, 14.9 MICRON
##STATE=SOLID (SPLIT MULL), FLUOROLUBE FOR 3800-1330 CM^-^1, NUJOL FOR 1330-460 CM^-^1
$$ SEE SPECTRUM NO. 7267 FOR "PRISM" SPECTRUM
$$SPECTRAL CONTAMINATION DUE TO OIL AROUND 720 CM^-^1
##SAMPLING PROCEDURE=TRANSMISSION
##RESOLUTION=2
##DATA PROCESSING=DIGITIZED BY COBLENTZ SOCIETY (BATCH I) FROM HARD COPY
##XUNITS=1/CM
##YUNITS=TRANSMITTANCE
##XFACTOR=1
##YFACTOR=1
##DELTAX=1
##FIRSTX=3786
##LASTX=458
##FIRSTY=0.6856
##MAXX=3786
##MINX=458
##MAXY=0.8853
##MINY=0.0858
##NPOINTS=3329
##XYDATA=(X++(Y..Y))
3786.000000 0.6856 0.6857 0.6858 0.6861 0.6865
3781.000000 0.6867 0.6869 0.6872 0.6875 0.6878
3776.000000 0.6882 0.6884 0.6887 0.6890 0.6893
3771.000000 0.6896 0.6899 0.6901 0.6905 0.6907
3766.000000 0.6910 0.6912 0.6915 0.6918 0.6921
3761.000000 0.6922 0.6925 0.6928 0.6930 0.6932
3756.000000 0.6934 0.6936 0.6939 0.6941 0.6943
3751.000000 0.6945 0.6947 0.6951 0.6955 0.6961
3746.000000 0.6967 0.6969 0.6972 0.6974 0.6975
3741.000000 0.6976 0.6978 0.6978 0.6980 0.6981
3736.000000 0.6982 0.6978 0.6974 0.6971 0.6968
3731.000000 0.6972 0.6978 0.6982 0.6987 0.6991
3726.000000 0.6996 0.7000 0.7005 0.7007 0.7010
3721.000000 0.7012 0.7015 0.7018 0.7021 0.7024
3716.000000 0.7025 0.7026 0.7028 0.7031 0.7033
3711.000000 0.7035 0.7037 0.7039 0.7041 0.7041
3706.000000 0.7041 0.7039 0.7038 0.7036 0.7035
3701.000000 0.7033 0.7031 0.7030 0.7030 0.7028
3696.000000 0.7028 0.7028 0.7028 0.7026 0.7026
3691.000000 0.7025 0.7025 0.7024 0.7024 0.7024
3686.000000 0.7025 0.7032 0.7039 0.7045 0.7051
3681.000000 0.7058 0.7065 0.7072 0.7080 0.7086
3676.000000 0.7092 0.7096 0.7100 0.7103 0.7107
3671.000000 0.7111 0.7115 0.7118 0.7122 0.7125
3666.000000 0.7125 0.7125 0.7125 0.7122 0.7121
3661.000000 0.7119 0.7118 0.7118 0.7119 0.7124
3656.000000 0.7128 0.7132 0.7137 0.7141 0.7145
3651.000000 0.7149 0.7153 0.7158 0.7165 0.7172
3646.000000 0.7181 0.7181 0.7182 0.7178 0.7175
3641.000000 0.7171 0.7167 0.7162 0.7160 0.7160
3636.000000 0.7160 0.7160 0.7160 0.7160 0.7160
3631.000000 0.7162 0.7167 0.7174 0.7181 0.7187
3626.000000 0.7193 0.7195 0.7197 0.7198 0.7200
3621.000000 0.7201 0.7204 0.7206 0.7208 0.7210
3616.000000 0.7211 0.7214 0.7217 0.7218 0.7221
3611.000000 0.7224 0.7226 0.7228 0.7232 0.7234
3606.000000 0.7237 0.7240 0.7243 0.7244 0.7245
3601.000000 0.7246 0.7248 0.7249 0.7251 0.7251
3596.000000 0.7251 0.7251 0.7251 0.7250 0.7250
3591.000000 0.7247 0.7244 0.7237 0.7230 0.7221
3586.000000 0.7215 0.7207 0.7200 0.7192 0.7184
3581.000000 0.7183 0.7182 0.7190 0.7198 0.7205
3576.000000 0.7212 0.7219 0.7226 0.7234 0.7242
3571.000000 0.7246 0.7250 0.7253 0.7256 0.7258
3566.000000 0.7262 0.7265 0.7268 0.7271 0.7275
3561.000000 0.7278 0.7282 0.7285 0.7288 0.7291
3556.000000 0.7295 0.7298 0.7301 0.7304 0.7308
3551.000000 0.7311 0.7314 0.7315 0.7318 0.7321
3546.000000 0.7322 0.7325 0.7326 0.7328 0.7331
3541.000000 0.7333 0.7335 0.7337 0.7339 0.7341
3536.000000 0.7343 0.7345 0.7347 0.7349 0.7351
3531.000000 0.7353 0.7355 0.7357 0.7358 0.7361
3526.000000 0.7362 0.7365 0.7367 0.7368 0.7371
3521.000000 0.7372 0.7375 0.7376 0.7378 0.7380
3516.000000 0.7382 0.7383 0.7385 0.7386 0.7388
3511.000000 0.7389 0.7391 0.7392 0.7394 0.7395
3506.000000 0.7397 0.7398 0.7400 0.7401 0.7403
3501.000000 0.7404 0.7406 0.7407 0.7408 0.7410
3496.000000 0.7411 0.7411 0.7411 0.7412 0.7414
3491.000000 0.7415 0.7415 0.7415 0.7417 0.7418
3486.000000 0.7418 0.7419 0.7421 0.7421 0.7421
3481.000000 0.7422 0.7424 0.7425 0.7425 0.7425
3476.000000 0.7426 0.7428 0.7428 0.7428 0.7430
3471.000000 0.7431 0.7432 0.7432 0.7433 0.7434
3466.000000 0.7435 0.7435 0.7435 0.7433 0.7432
3461.000000 0.7430 0.7428 0.7426 0.7425 0.7425
3456.000000 0.7424 0.7421 0.7421 0.7418 0.7418
3451.000000 0.7414 0.7411 0.7407 0.7403 0.7398
3446.000000 0.7394 0.7390 0.7386 0.7382 0.7378
3441.000000 0.7374 0.7371 0.7367 0.7364 0.7360
3436.000000 0.7357 0.7353 0.7350 0.7346 0.7343
3431.000000 0.7339 0.7336 0.7332 0.7328 0.7325
3426.000000 0.7324 0.7332 0.7341 0.7348 0.7356
3421.000000 0.7362 0.7369 0.7376 0.7385 0.7392
3416.000000 0.7399 0.7407 0.7415 0.7421 0.7430
3411.000000 0.7437 0.7445 0.7453 0.7461 0.7468
3406.000000 0.7475 0.7484 0.7492 0.7498 0.7504
3401.000000 0.7510 0.7515 0.7521 0.7526 0.7533
3396.000000 0.7539 0.7543 0.7547 0.7551 0.7555
3391.000000 0.7558 0.7562 0.7567 0.7571 0.7575
3386.000000 0.7578 0.7582 0.7586 0.7590 0.7594
3381.000000 0.7598 0.7601 0.7608 0.7615 0.7622
3376.000000 0.7630 0.7637 0.7645 0.7651 0.7658
3371.000000 0.7665 0.7672 0.7678 0.7684 0.7690
3366.000000 0.7696 0.7701 0.7708 0.7712 0.7718
3361.000000 0.7722 0.7728 0.7733 0.7739 0.7740
3356.000000 0.7740 0.7741 0.7741 0.7740 0.7740
3351.000000 0.7739 0.7739 0.7734 0.7730 0.7722
3346.000000 0.7717 0.7710 0.7704 0.7699 0.7695
3341.000000 0.7690 0.7685 0.7680 0.7675 0.7669
3336.000000 0.7665 0.7661 0.7661 0.7660 0.7661
3331.000000 0.7665 0.7671 0.7676 0.7682 0.7687
3326.000000 0.7692 0.7697 0.7703 0.7708 0.7712
3321.000000 0.7718 0.7722 0.7728 0.7734 0.7739
3316.000000 0.7745 0.7751 0.7757 0.7762 0.7768
3311.000000 0.7774 0.7780 0.7786 0.7792 0.7798
3306.000000 0.7804 0.7808 0.7815 0.7821 0.7826
3301.000000 0.7833 0.7839 0.7845 0.7851 0.7858
3296.000000 0.7865 0.7872 0.7880 0.7887 0.7894
3291.000000 0.7901 0.7908 0.7915 0.7921 0.7928
3286.000000 0.7936 0.7943 0.7950 0.7957 0.7964
3281.000000 0.7969 0.7975 0.7980 0.7985 0.7990
3276.000000 0.7995 0.8000 0.8005 0.8008 0.8014
3271.000000 0.8018 0.8022 0.8026 0.8031 0.8035
3266.000000 0.8039 0.8043 0.8047 0.8049 0.8051
3261.000000 0.8053 0.8056 0.8058 0.8060 0.8061
3256.000000 0.8061 0.8061 0.8058 0.8057 0.8055
3251.000000 0.8053 0.8051 0.8048 0.8046 0.8044
3246.000000 0.8042 0.8038 0.8035 0.8031 0.8026
3241.000000 0.8022 0.8018 0.8015 0.8011 0.8007
3236.000000 0.8003 0.8000 0.7997 0.7994 0.7991
3231.000000 0.7988 0.7985 0.7982 0.7978 0.7975
3226.000000 0.7972 0.7971 0.7969 0.7968 0.7968
3221.000000 0.7967 0.7965 0.7965 0.7965 0.7964
3216.000000 0.7962 0.7961 0.7961 0.7965 0.7969
3211.000000 0.7974 0.7978 0.7982 0.7986 0.7990
3206.000000 0.7994 0.7998 0.8001 0.8007 0.8015
3201.000000 0.8011 0.8010 0.8008 0.8008 0.8006
3196.000000 0.8005 0.8001 0.7997 0.7991 0.7985
3191.000000 0.7978 0.7971 0.7968 0.7968 0.7968
3186.000000 0.7974 0.7984 0.7994 0.8003 0.8011
3181.000000 0.8021 0.8030 0.8038 0.8047 0.8055
3176.000000 0.8062 0.8071 0.8080 0.8088 0.8096
3171.000000 0.8101 0.8108 0.8107 0.8106 0.8104
3166.000000 0.8101 0.8100 0.8098 0.8096 0.8095
3161.000000 0.8085 0.8075 0.8065 0.8057 0.8048
3156.000000 0.8039 0.8025 0.8014 0.8001 0.7988
3151.000000 0.7976 0.7967 0.7956 0.7946 0.7935
3146.000000 0.7925 0.7912 0.7901 0.7888 0.7874
3141.000000 0.7867 0.7861 0.7861 0.7864 0.7865
3136.000000 0.7867 0.7868 0.7868 0.7868 0.7867
3131.000000 0.7864 0.7861 0.7858 0.7856 0.7843
3126.000000 0.7830 0.7817 0.7804 0.7790 0.7776
3121.000000 0.7760 0.7743 0.7722 0.7703 0.7683
3116.000000 0.7662 0.7643 0.7624 0.7601 0.7580
3111.000000 0.7556 0.7533 0.7508 0.7485 0.7461
3106.000000 0.7437 0.7411 0.7387 0.7355 0.7322
3101.000000 0.7300 0.7276 0.7278 0.7278 0.7284
3096.000000 0.7290 0.7295 0.7300 0.7305 0.7310
3091.000000 0.7315 0.7319 0.7297 0.7275 0.7243
3086.000000 0.7211 0.7169 0.7128 0.7088 0.7047
3081.000000 0.6999 0.6951 0.6901 0.6851 0.6791
3076.000000 0.6731 0.6661 0.6591 0.6521 0.6453
3071.000000 0.6390 0.6328 0.6281 0.6234 0.6206
3066.000000 0.6178 0.6150 0.6122 0.6094 0.6066
3061.000000 0.5999 0.5932 0.5880 0.5829 0.5779
3056.000000 0.5729 0.5668 0.5607 0.5545 0.5484
3051.000000 0.5423 0.5362 0.5300 0.5239 0.5178
3046.000000 0.5117 0.5032 0.4947 0.4859 0.4772
3041.000000 0.4689 0.4606 0.4532 0.4459 0.4385
3036.000000 0.4310 0.4232 0.4154 0.4054 0.3954
3031.000000 0.3843 0.3732 0.3695 0.3658 0.3649
3026.000000 0.3641 0.3637 0.3632 0.3632 0.3632
3021.000000 0.3630 0.3629 0.3625 0.3622 0.3604
3016.000000 0.3587 0.3521 0.3455 0.3412 0.3372
3011.000000 0.3349 0.3327 0.3310 0.3295 0.3280
3006.000000 0.3266 0.3252 0.3238 0.3205 0.3173
3001.000000 0.3139 0.3106 0.3081 0.3057 0.3034
2996.000000 0.3011 0.2989 0.2968 0.2946 0.2924
2991.000000 0.2902 0.2881 0.2850 0.2819 0.2791
2986.000000 0.2763 0.2749 0.2734 0.2731 0.2727
2981.000000 0.2727 0.2728 0.2735 0.2744 0.2754
2976.000000 0.2764 0.2766 0.2769 0.2748 0.2727
2971.000000 0.2634 0.2543 0.2447 0.2352 0.2342
2966.000000 0.2333 0.2331 0.2331 0.2330 0.2331
2961.000000 0.2335 0.2342 0.2366 0.2390 0.2398
2956.000000 0.2407 0.2406 0.2405 0.2337 0.2270
2951.000000 0.2115 0.1961 0.1920 0.1879 0.1816
2946.000000 0.1754 0.1679 0.1604 0.1590 0.1576
2941.000000 0.1566 0.1556 0.1544 0.1533 0.1520
2936.000000 0.1508 0.1454 0.1400 0.1289 0.1178
2931.000000 0.1120 0.1063 0.1027 0.0992 0.0965
2926.000000 0.0938 0.0918 0.0897 0.0892 0.0887
2921.000000 0.0881 0.0876 0.0872 0.0858 0.0866
2916.000000 0.0863 0.0863 0.0863 0.0893 0.0926
2911.000000 0.0966 0.1007 0.1045 0.1084 0.1126
2906.000000 0.1169 0.1215 0.1261 0.1294 0.1327
2901.000000 0.1364 0.1401 0.1433 0.1466 0.1488
2896.000000 0.1510 0.1522 0.1534 0.1539 0.1539
2891.000000 0.1539 0.1534 0.1528 0.1523 0.1518
2886.000000 0.1513 0.1509 0.1506 0.1506 0.1506
2881.000000 0.1506 0.1491 0.1504 0.1503 0.1508
2876.000000 0.1513 0.1528 0.1542 0.1560 0.1578
2871.000000 0.1596 0.1616 0.1619 0.1620 0.1577
2866.000000 0.1533 0.1422 0.1311 0.1252 0.1194
2861.000000 0.1176 0.1159 0.1153 0.1120 0.1145
2856.000000 0.1142 0.1141 0.1140 0.1170 0.1200
2851.000000 0.1261 0.1322 0.1401 0.1480 0.1546
2846.000000 0.1614 0.1671 0.1728 0.1782 0.1835
2841.000000 0.1882 0.1929 0.1975 0.2021 0.2060
2836.000000 0.2099 0.2128 0.2157 0.2185 0.2215
2831.000000 0.2244 0.2273 0.2300 0.2328 0.2353
2826.000000 0.2379 0.2390 0.2402 0.2411 0.2420
2821.000000 0.2429 0.2439 0.2453 0.2468 0.2484
2816.000000 0.2502 0.2533 0.2565 0.2606 0.2647
2811.000000 0.2688 0.2729 0.2764 0.2800 0.2833
2806.000000 0.2866 0.2899 0.2932 0.2966 0.3000
2801.000000 0.3034 0.3070 0.3105 0.3141 0.3176
2796.000000 0.3210 0.3248 0.3286 0.3334 0.3384
2791.000000 0.3434 0.3482 0.3527 0.3572 0.3612
2786.000000 0.3655 0.3696 0.3738 0.3780 0.3823
2781.000000 0.3866 0.3912 0.3964 0.4018 0.4076
2776.000000 0.4134 0.4162 0.4191 0.4219 0.4248
2771.000000 0.4267 0.4286 0.4304 0.4322 0.4338
2766.000000 0.4355 0.4368 0.4382 0.4395 0.4409
2761.000000 0.4424 0.4440 0.4457 0.4475 0.4492
2756.000000 0.4510 0.4546 0.4582 0.4623 0.4665
2751.000000 0.4705 0.4746 0.4779 0.4812 0.4841
2746.000000 0.4870 0.4896 0.4923 0.4949 0.4975
2741.000000 0.4988 0.5002 0.5008 0.5014 0.5015
2736.000000 0.5017 0.5017 0.5018 0.4999 0.4980
2731.000000 0.4960 0.4943 0.4924 0.4906 0.4887
2726.000000 0.4868 0.4849 0.4831 0.4812 0.4794
2721.000000 0.4775 0.4757 0.4738 0.4719 0.4700
2716.000000 0.4682 0.4664 0.4646 0.4643 0.4642
2711.000000 0.4642 0.4642 0.4642 0.4641 0.4662
2706.000000 0.4684 0.4722 0.4760 0.4816 0.4873
2701.000000 0.4905 0.4938 0.4972 0.5006 0.5035
2696.000000 0.5064 0.5067 0.5095 0.5073 0.5076
2691.000000 0.5039 0.5003 0.4956 0.4909 0.4887
2686.000000 0.4866 0.4849 0.4832 0.4855 0.4776
2681.000000 0.4920 0.4962 0.4997 0.5032 0.5067
2676.000000 0.5102 0.5155 0.5208 0.5271 0.5334
2671.000000 0.5378 0.5422 0.5452 0.5483 0.5512
2666.000000 0.5544 0.5574 0.5605 0.5636 0.5667
2661.000000 0.5698 0.5729 0.5760 0.5792 0.5821
2656.000000 0.5851 0.5870 0.5889 0.5908 0.5928
2651.000000 0.5947 0.5966 0.5973 0.5981 0.5983
2646.000000 0.6012 0.5986 0.5987 0.5979 0.5971
2641.000000 0.5948 0.5926 0.5909 0.5892 0.5878
2636.000000 0.5865 0.5852 0.5839 0.5818 0.5798
2631.000000 0.5756 0.5715 0.5646 0.5577 0.5538
2626.000000 0.5499 0.5480 0.5462 0.5459 0.5452
2621.000000 0.5489 0.5521 0.5600 0.5679 0.5724
2616.000000 0.5770 0.5812 0.5856 0.5885 0.5935
2611.000000 0.5920 0.5921 0.5921 0.5916 0.5876
2606.000000 0.5837 0.5744 0.5652 0.5617 0.5582
2601.000000 0.5550 0.5519 0.5495 0.5472 0.5455
2596.000000 0.5438 0.5421 0.5404 0.5273 0.4796
2591.000000 0.4989 0.4835 0.4822 0.4810 0.4892
2586.000000 0.4974 0.5093 0.5212 0.5331 0.5450
2581.000000 0.5620 0.5791 0.5823 0.5856 0.5870
2576.000000 0.5885 0.5886 0.5888 0.5882 0.5876
2571.000000 0.5862 0.5851 0.5844 0.5845 0.5846
2566.000000 0.5856 0.5871 0.5886 0.5949 0.6012
2561.000000 0.6056 0.6100 0.6134 0.6168 0.6191
2556.000000 0.6215 0.6232 0.6250 0.6262 0.6277
2551.000000 0.6289 0.6301 0.6254 0.6208 0.6140
2546.000000 0.6073 0.6020 0.5968 0.5951 0.5935
2541.000000 0.5941 0.5947 0.5976 0.6005 0.6007
2536.000000 0.6010 0.5986 0.5962 0.5870 0.5778
2531.000000 0.5762 0.5748 0.5746 0.5745 0.5801
2526.000000 0.5857 0.6041 0.6225 0.6272 0.6320
2521.000000 0.6352 0.6385 0.6410 0.6436 0.6453
2516.000000 0.6471 0.6487 0.6503 0.6518 0.6533
2511.000000 0.6547 0.6561 0.6571 0.6583 0.6594
2506.000000 0.6605 0.6617 0.6630 0.6642 0.6654
2501.000000 0.6668 0.6683 0.6694 0.6706 0.6712
2496.000000 0.6719 0.6724 0.6724 0.6724 0.6721
2491.000000 0.6658 0.6595 0.6575 0.6557 0.6555
2486.000000 0.6554 0.6551 0.6548 0.6539 0.6531
2481.000000 0.6521 0.6514 0.6504 0.6495 0.6490
2476.000000 0.6485 0.6583 0.6681 0.6701 0.6721
2471.000000 0.6742 0.6761 0.6778 0.6797 0.6808
2466.000000 0.6818 0.6830 0.6842 0.6853 0.6864
2461.000000 0.6875 0.6888 0.6899 0.6911 0.6922
2456.000000 0.6935 0.6937 0.6939 0.6934 0.6930
2451.000000 0.6925 0.6921 0.6894 0.6867 0.6842
2446.000000 0.6817 0.6798 0.6780 0.6775 0.6772
2441.000000 0.6768 0.6765 0.6762 0.6760 0.6757
2436.000000 0.6754 0.6754 0.6754 0.6754 0.6754
2431.000000 0.6754 0.6754 0.6808 0.6862 0.6898
2426.000000 0.6933 0.6956 0.6980 0.6992 0.7005
2421.000000 0.7017 0.7030 0.7042 0.7055 0.7067
2416.000000 0.7078 0.7091 0.7104 0.7101 0.7101
2411.000000 0.7097 0.7094 0.7086 0.7078 0.7069
2406.000000 0.7061 0.7057 0.7054 0.7053 0.7051
2401.000000 0.7068 0.7085 0.7094 0.7104 0.7112
2396.000000 0.7121 0.7131 0.7140 0.7147 0.7155
2391.000000 0.7161 0.7169 0.7176 0.7185 0.7192
2386.000000 0.7200 0.7207 0.7215 0.7221 0.7228
2381.000000 0.7234 0.7241 0.7247 0.7253 0.7258
2376.000000 0.7265 0.7271 0.7276 0.7283 0.7289
2371.000000 0.7295 0.7301 0.7307 0.7312 0.7318
2366.000000 0.7322 0.7328 0.7333 0.7338 0.7344
2361.000000 0.7349 0.7354 0.7358 0.7364 0.7368
2356.000000 0.7374 0.7378 0.7384 0.7390 0.7396
2351.000000 0.7401 0.7408 0.7412 0.7418 0.7425
2346.000000 0.7431 0.7437 0.7443 0.7447 0.7451
2341.000000 0.7455 0.7458 0.7461 0.7465 0.7468
2336.000000 0.7471 0.7472 0.7475 0.7475 0.7478
2331.000000 0.7474 0.7471 0.7467 0.7462 0.7458
2326.000000 0.7453 0.7446 0.7440 0.7433 0.7425
2321.000000 0.7418 0.7412 0.7406 0.7400 0.7401
2316.000000 0.7401 0.7403 0.7405 0.7406 0.7407
2311.000000 0.7408 0.7410 0.7411 0.7412 0.7415
2306.000000 0.7418 0.7421 0.7426 0.7431 0.7436
2301.000000 0.7440 0.7445 0.7449 0.7454 0.7458
2296.000000 0.7462 0.7468 0.7472 0.7476 0.7482
2291.000000 0.7486 0.7491 0.7495 0.7500 0.7504
2286.000000 0.7508 0.7512 0.7518 0.7522 0.7528
2281.000000 0.7536 0.7543 0.7550 0.7557 0.7562
2276.000000 0.7569 0.7576 0.7584 0.7589 0.7595
2271.000000 0.7600 0.7606 0.7611 0.7618 0.7622
2266.000000 0.7628 0.7634 0.7640 0.7644 0.7649
2261.000000 0.7654 0.7658 0.7662 0.7668 0.7671
2256.000000 0.7676 0.7680 0.7684 0.7685 0.7686
2251.000000 0.7687 0.7688 0.7689 0.7690 0.7696
2246.000000 0.7701 0.7711 0.7721 0.7728 0.7738
2241.000000 0.7747 0.7756 0.7765 0.7774 0.7783
2236.000000 0.7792 0.7801 0.7811 0.7819 0.7828
2231.000000 0.7835 0.7841 0.7844 0.7847 0.7850
2226.000000 0.7853 0.7856 0.7858 0.7860 0.7861
2221.000000 0.7862 0.7864 0.7865 0.7867 0.7868
2216.000000 0.7869 0.7874 0.7878 0.7881 0.7885
2211.000000 0.7889 0.7893 0.7896 0.7900 0.7904
2206.000000 0.7908 0.7928 0.7951 0.7965 0.7982
2201.000000 0.7994 0.8007 0.8015 0.8024 0.8032
2196.000000 0.8040 0.8046 0.8051 0.8055 0.8056
2191.000000 0.8056 0.8054 0.8051 0.8049 0.8046
2186.000000 0.8043 0.8040 0.8038 0.8035 0.8033
2181.000000 0.8031 0.8030 0.8028 0.8028 0.8028
2176.000000 0.8032 0.8044 0.8057 0.8071 0.8088
2171.000000 0.8103 0.8118 0.8128 0.8140 0.8149
2166.000000 0.8158 0.8165 0.8171 0.8178 0.8186
2161.000000 0.8192 0.8198 0.8198 0.8198 0.8198
2156.000000 0.8198 0.8197 0.8197 0.8196 0.8195
2151.000000 0.8193 0.8192 0.8190 0.8188 0.8186
2146.000000 0.8185 0.8182 0.8180 0.8175 0.8171
2141.000000 0.8165 0.8161 0.8157 0.8153 0.8149
2136.000000 0.8145 0.8136 0.8126 0.8112 0.8100
2131.000000 0.8086 0.8072 0.8055 0.8037 0.8024
2126.000000 0.8011 0.8004 0.7996 0.7990 0.7984
2121.000000 0.7978 0.7972 0.7968 0.7962 0.7958
2116.000000 0.7955 0.7951 0.7948 0.7947 0.7947
2111.000000 0.7947 0.7947 0.7945 0.7943 0.7937
2106.000000 0.7932 0.7925 0.7921 0.7915 0.7910
2101.000000 0.7900 0.7890 0.7880 0.7869 0.7860
2096.000000 0.7850 0.7840 0.7830 0.7818 0.7807
2091.000000 0.7795 0.7784 0.7772 0.7761 0.7750
2086.000000 0.7739 0.7724 0.7708 0.7692 0.7675
2081.000000 0.7657 0.7640 0.7621 0.7601 0.7583
2076.000000 0.7564 0.7545 0.7526 0.7508 0.7489
2071.000000 0.7468 0.7449 0.7442 0.7441 0.7436
2066.000000 0.7437 0.7441 0.7446 0.7453 0.7461
2061.000000 0.7468 0.7475 0.7484 0.7492 0.7505
2056.000000 0.7518 0.7547 0.7576 0.7601 0.7628
2051.000000 0.7654 0.7680 0.7705 0.7731 0.7757
2046.000000 0.7783 0.7808 0.7835 0.7860 0.7886
2041.000000 0.7912 0.7940 0.7968 0.7998 0.8026
2036.000000 0.8057 0.8084 0.8111 0.8136 0.8161
2031.000000 0.8187 0.8212 0.8225 0.8238 0.8239
2026.000000 0.8241 0.8242 0.8243 0.8246 0.8249
2021.000000 0.8252 0.8256 0.8259 0.8263 0.8266
2016.000000 0.8270 0.8274 0.8278 0.8311 0.8343
2011.000000 0.8359 0.8375 0.8381 0.8387 0.8384
2006.000000 0.8381 0.8365 0.8350 0.8309 0.8268
2001.000000 0.8198 0.8126 0.8126 0.8161 0.8215
1996.000000 0.8268 0.8321 0.8332 0.8328 0.8325
1991.000000 0.8324 0.8343 0.8362 0.8381 0.8400
1986.000000 0.8420 0.8445 0.8470 0.8493 0.8513
1981.000000 0.8533 0.8539 0.8543 0.8548 0.8547
1976.000000 0.8544 0.8539 0.8533 0.8527 0.8521
1971.000000 0.8531 0.8554 0.8571 0.8577 0.8578
1966.000000 0.8580 0.8583 0.8596 0.8620 0.8644
1961.000000 0.8654 0.8604 0.8562 0.8537 0.8546
1956.000000 0.8556 0.8567 0.8578 0.8588 0.8599
1951.000000 0.8606 0.8611 0.8615 0.8618 0.8623
1946.000000 0.8627 0.8631 0.8635 0.8639 0.8640
1941.000000 0.8640 0.8640 0.8640 0.8640 0.8640
1936.000000 0.8643 0.8646 0.8649 0.8652 0.8655
1931.000000 0.8658 0.8662 0.8665 0.8668 0.8671
1926.000000 0.8675 0.8678 0.8678 0.8678 0.8678
1921.000000 0.8678 0.8675 0.8665 0.8655 0.8645
1916.000000 0.8634 0.8625 0.8615 0.8605 0.8596
1911.000000 0.8586 0.8577 0.8567 0.8558 0.8547
1906.000000 0.8535 0.8523 0.8514 0.8507 0.8508
1901.000000 0.8509 0.8516 0.8523 0.8530 0.8537
1896.000000 0.8545 0.8553 0.8564 0.8574 0.8585
1891.000000 0.8595 0.8605 0.8616 0.8625 0.8635
1886.000000 0.8641 0.8647 0.8653 0.8657 0.8656
1881.000000 0.8654 0.8652 0.8651 0.8651 0.8652
1876.000000 0.8653 0.8654 0.8655 0.8656 0.8658
1871.000000 0.8659 0.8660 0.8661 0.8662 0.8664
1866.000000 0.8667 0.8670 0.8673 0.8677 0.8680
1861.000000 0.8680 0.8680 0.8680 0.8680 0.8680
1856.000000 0.8680 0.8680 0.8680 0.8678 0.8678
1851.000000 0.8678 0.8681 0.8684 0.8686 0.8688
1846.000000 0.8691 0.8693 0.8696 0.8698 0.8700
1841.000000 0.8703 0.8705 0.8708 0.8711 0.8714
1836.000000 0.8717 0.8720 0.8723 0.8725 0.8728
1831.000000 0.8732 0.8735 0.8737 0.8740 0.8743
1826.000000 0.8746 0.8751 0.8756 0.8761 0.8766
1821.000000 0.8771 0.8777 0.8782 0.8787 0.8792
1816.000000 0.8791 0.8789 0.8786 0.8780 0.8775
1811.000000 0.8770 0.8765 0.8759 0.8755 0.8751
1806.000000 0.8746 0.8742 0.8738 0.8734 0.8730
1801.000000 0.8727 0.8723 0.8720 0.8717 0.8714
1796.000000 0.8710 0.8707 0.8704 0.8700 0.8697
1791.000000 0.8697 0.8698 0.8699 0.8700 0.8700
1786.000000 0.8701 0.8702 0.8703 0.8704 0.8705
1781.000000 0.8706 0.8707 0.8709 0.8710 0.8711
1776.000000 0.8712 0.8714 0.8717 0.8720 0.8723
1771.000000 0.8725 0.8728 0.8731 0.8734 0.8737
1766.000000 0.8739 0.8741 0.8744 0.8746 0.8748
1761.000000 0.8751 0.8753 0.8755 0.8758 0.8760
1756.000000 0.8763 0.8766 0.8768 0.8770 0.8771
1751.000000 0.8773 0.8775 0.8775 0.8777 0.8777
1746.000000 0.8778 0.8778 0.8778 0.8778 0.8778
1741.000000 0.8778 0.8783 0.8787 0.8792 0.8796
1736.000000 0.8801 0.8805 0.8810 0.8814 0.8813
1731.000000 0.8811 0.8810 0.8806 0.8799 0.8793
1726.000000 0.8786 0.8783 0.8778 0.8778 0.8788
1721.000000 0.8800 0.8813 0.8824 0.8834 0.8844
1716.000000 0.8846 0.8847 0.8848 0.8849 0.8850
1711.000000 0.8852 0.8852 0.8852 0.8844 0.8838
1706.000000 0.8832 0.8828 0.8825 0.8825 0.8841
1701.000000 0.8847 0.8851 0.8852 0.8853 0.8842
1696.000000 0.8828 0.8817 0.8811 0.8805 0.8799
1691.000000 0.8794 0.8788 0.8782 0.8775 0.8768
1686.000000 0.8763 0.8757 0.8750 0.8741 0.8733
1681.000000 0.8724 0.8715 0.8706 0.8697 0.8689
1676.000000 0.8680 0.8675 0.8668 0.8663 0.8657
1671.000000 0.8646 0.8617 0.8602 0.8604 0.8605
1666.000000 0.8606 0.8606 0.8607 0.8608 0.8608
1661.000000 0.8609 0.8611 0.8612 0.8614 0.8616
1656.000000 0.8618 0.8611 0.8559 0.8481 0.8388
1651.000000 0.8294 0.8200 0.8122 0.8144 0.8128
1646.000000 0.8175 0.8263 0.8334 0.8357 0.8378
1641.000000 0.8401 0.8420 0.8438 0.8454 0.8471
1636.000000 0.8484 0.8494 0.8523 0.8506 0.8506
1631.000000 0.8474 0.8405 0.8350 0.8296 0.8256
1626.000000 0.8253 0.8278 0.8316 0.8363 0.8413
1621.000000 0.8468 0.8509 0.8508 0.8507 0.8452
1616.000000 0.8391 0.8338 0.8246 0.8072 0.7788
1611.000000 0.7328 0.6869 0.6411 0.6171 0.6088
1606.000000 0.6090 0.6134 0.6258 0.6383 0.6508
1601.000000 0.6633 0.6737 0.6737 0.6711 0.6667
1596.000000 0.6621 0.6608 0.6751 0.6958 0.7362
1591.000000 0.7475 0.7569 0.7622 0.7676 0.7730
1586.000000 0.7788 0.7862 0.7928 0.7984 0.8040
1581.000000 0.8081 0.8106 0.8125 0.8143 0.8160
1576.000000 0.8175 0.8190 0.8204 0.8218 0.8234
1571.000000 0.8248 0.8257 0.8267 0.8277 0.8286
1566.000000 0.8296 0.8305 0.8314 0.8314 0.8312
1561.000000 0.8310 0.8332 0.8230 0.8191 0.8156
1556.000000 0.8132 0.8108 0.8065 0.8046 0.8025
1551.000000 0.7978 0.8006 0.8005 0.8005 0.8005
1546.000000 0.8017 0.8031 0.8110 0.8157 0.8200
1541.000000 0.8233 0.8264 0.8284 0.8298 0.8305
1536.000000 0.8312 0.8321 0.8317 0.8271 0.8225
1531.000000 0.8158 0.8088 0.8055 0.8046 0.8038
1526.000000 0.8034 0.8025 0.8011 0.7971 0.7908
1521.000000 0.7625 0.7088 0.6551 0.6014 0.5476
1516.000000 0.4845 0.4853 0.5259 0.5666 0.6072
1511.000000 0.6478 0.6885 0.6991 0.6868 0.6319
1506.000000 0.5769 0.5219 0.4668 0.4138 0.4183
1501.000000 0.5380 0.6542 0.6749 0.6894 0.7128
1496.000000 0.7240 0.7346 0.7456 0.7564 0.7669
1491.000000 0.7774 0.7838 0.7895 0.7939 0.7985
1486.000000 0.8024 0.8051 0.8071 0.8143 0.8121
1481.000000 0.8121 0.8078 0.7747 0.7541 0.7648
1476.000000 0.7799 0.7949 0.8100 0.8175 0.8221
1471.000000 0.8255 0.8289 0.8308 0.8320 0.8330
1466.000000 0.8352 0.8324 0.8313 0.8289 0.8238
1461.000000 0.8155 0.8039 0.7915 0.7565 0.7125
1456.000000 0.6687 0.6248 0.5354 0.5369 0.5368
1451.000000 0.5368 0.5970 0.6650 0.7331 0.7644
1446.000000 0.7728 0.7745 0.7761 0.7764 0.7769
1441.000000 0.7717 0.7651 0.7588 0.7553 0.7615
1436.000000 0.7708 0.7800 0.7885 0.7917 0.7933
1431.000000 0.7931 0.7925 0.7914 0.7901 0.7892
1426.000000 0.7892 0.7891 0.7901 0.7934 0.7967
1421.000000 0.8000 0.8028 0.8055 0.8082 0.8101
1416.000000 0.8108 0.8117 0.8125 0.8134 0.8142
1411.000000 0.8150 0.8158 0.8165 0.8172 0.8180
1406.000000 0.8188 0.8195 0.8202 0.8209 0.8216
1401.000000 0.8224 0.8231 0.8239 0.8248 0.8257
1396.000000 0.8265 0.8274 0.8283 0.8293 0.8308
1391.000000 0.8321 0.8336 0.8351 0.8368 0.8388
1386.000000 0.8410 0.8421 0.8451 0.8416 0.8171
1381.000000 0.7974 0.7778 0.7582 0.7386 0.7138
1376.000000 0.7165 0.7268 0.7371 0.7475 0.7565
1371.000000 0.6693 0.5637 0.4580 0.3402 0.3420
1366.000000 0.3846 0.4581 0.5317 0.5988 0.6458
1361.000000 0.6874 0.7151 0.7228 0.7243 0.7268
1356.000000 0.7092 0.6919 0.6748 0.6575 0.6403
1351.000000 0.6008 0.6058 0.6026 0.6273 0.6519
1346.000000 0.6611 0.6662 0.6714 0.6765 0.6815
1341.000000 0.6867 0.6911 0.6954 0.6991 0.7030
1336.000000 0.7074 0.7115 0.7151 0.7186 0.7191
1331.000000 0.7137 0.6978 0.6774 0.6569 0.6365
1326.000000 0.6160 0.5967 0.5967 0.6008 0.6154
1321.000000 0.6300 0.6410 0.6410 0.5967 0.5487
1316.000000 0.5007 0.4528 0.4525 0.4586 0.5029
1311.000000 0.5472 0.5901 0.6165 0.6348 0.6521
1306.000000 0.6648 0.6762 0.6862 0.6949 0.7031
1301.000000 0.7121 0.7215 0.7256 0.7272 0.7281
1296.000000 0.7289 0.7297 0.7298 0.7300 0.7292
1291.000000 0.7249 0.7208 0.7175 0.7169 0.7169
1286.000000 0.7178 0.7218 0.7284 0.7341 0.7374
1281.000000 0.7390 0.7407 0.7424 0.7440 0.7451
1276.000000 0.7458 0.7465 0.7471 0.7476 0.7483
1271.000000 0.7489 0.7496 0.7501 0.7508 0.7514
1266.000000 0.7519 0.7526 0.7535 0.7543 0.7551
1261.000000 0.7558 0.7567 0.7575 0.7583 0.7591
1256.000000 0.7599 0.7607 0.7615 0.7622 0.7631
1251.000000 0.7639 0.7648 0.7657 0.7665 0.7675
1246.000000 0.7684 0.7694 0.7703 0.7711 0.7721
1241.000000 0.7730 0.7739 0.7745 0.7750 0.7756
1236.000000 0.7761 0.7767 0.7771 0.7778 0.7783
1231.000000 0.7790 0.7799 0.7807 0.7815 0.7822
1226.000000 0.7822 0.7821 0.7822 0.7817 0.7812
1221.000000 0.7808 0.7804 0.7800 0.7796 0.7792
1216.000000 0.7787 0.7774 0.7760 0.7747 0.7733
1211.000000 0.7719 0.7695 0.7668 0.7635 0.7587
1206.000000 0.7498 0.7446 0.7390 0.7343 0.7339
1201.000000 0.7339 0.7395 0.7461 0.7521 0.7576
1196.000000 0.7628 0.7661 0.7690 0.7710 0.7725
1191.000000 0.7739 0.7751 0.7760 0.7768 0.7775
1186.000000 0.7783 0.7787 0.7791 0.7790 0.7789
1181.000000 0.7783 0.7776 0.7767 0.7757 0.7746
1176.000000 0.7736 0.7725 0.7715 0.7705 0.7698
1171.000000 0.7692 0.7686 0.7690 0.7693 0.7697
1166.000000 0.7700 0.7700 0.7700 0.7696 0.7692
1161.000000 0.7689 0.7682 0.7675 0.7668 0.7661
1156.000000 0.7656 0.7651 0.7646 0.7644 0.7642
1151.000000 0.7642 0.7641 0.7645 0.7649 0.7653
1146.000000 0.7657 0.7667 0.7675 0.7678 0.7678
1141.000000 0.7678 0.7668 0.7648 0.7628 0.7610
1136.000000 0.7601 0.7592 0.7583 0.7572 0.7387
1131.000000 0.7101 0.6815 0.6530 0.6250 0.6246
1126.000000 0.6305 0.6564 0.6822 0.7058 0.7012
1121.000000 0.7039 0.7035 0.7012 0.6971 0.6933
1116.000000 0.6898 0.6871 0.6281 0.6385 0.6270
1111.000000 0.6603 0.7143 0.7534 0.7581 0.7597
1106.000000 0.7611 0.7615 0.7621 0.7622 0.7624
1101.000000 0.7624 0.7635 0.7598 0.7565 0.7389
1096.000000 0.6726 0.6314 0.6248 0.6146 0.5937
1091.000000 0.5546 0.5155 0.5092 0.5104 0.5112
1086.000000 0.5562 0.5957 0.6352 0.6549 0.6651
1081.000000 0.6840 0.7258 0.7433 0.7560 0.7597
1076.000000 0.7634 0.7644 0.7654 0.7665 0.7678
1071.000000 0.7693 0.7712 0.7741 0.7765 0.7776
1066.000000 0.7780 0.7783 0.7785 0.7788 0.7790
1061.000000 0.7793 0.7795 0.7798 0.7801 0.7804
1056.000000 0.7807 0.7808 0.7811 0.7815 0.7817
1051.000000 0.7819 0.7821 0.7824 0.7825 0.7826
1046.000000 0.7828 0.7830 0.7830 0.7830 0.7830
1041.000000 0.7830 0.7830 0.7830 0.7830 0.7831
1036.000000 0.7831 0.7832 0.7832 0.7833 0.7833
1031.000000 0.7832 0.7832 0.7832 0.7832 0.7832
1026.000000 0.7832 0.7832 0.7832 0.7834 0.7838
1021.000000 0.7841 0.7845 0.7851 0.7858 0.7878
1016.000000 0.7878 0.7878 0.7883 0.7886 0.7890
1011.000000 0.7893 0.7894 0.7895 0.7894 0.7892
1006.000000 0.7891 0.7890 0.7889 0.7887 0.7872
1001.000000 0.7858 0.7847 0.7843 0.7843 0.7842
996.000000 0.7848 0.7855 0.7861 0.7868 0.7871
991.000000 0.7872 0.7872 0.7867 0.7861 0.7855
986.000000 0.7849 0.7808 0.7762 0.7718 0.7641
981.000000 0.7522 0.7439 0.7411 0.7141 0.6628
976.000000 0.6646 0.6758 0.6871 0.6985 0.7022
971.000000 0.7110 0.7339 0.7543 0.7612 0.7625
966.000000 0.7628 0.7628 0.7628 0.7615 0.7582
961.000000 0.7541 0.7510 0.7498 0.7503 0.7518
956.000000 0.7541 0.7571 0.7597 0.7618 0.7633
951.000000 0.7642 0.7651 0.7660 0.7668 0.7671
946.000000 0.7676 0.7681 0.7687 0.7692 0.7697
941.000000 0.7701 0.7705 0.7705 0.7705 0.7703
936.000000 0.7701 0.7698 0.7694 0.7687 0.7669
931.000000 0.7645 0.7617 0.7601 0.7598 0.7593
926.000000 0.7590 0.7606 0.7628 0.7650 0.7665
921.000000 0.7674 0.7676 0.7678 0.7654 0.7611
916.000000 0.7553 0.7465 0.7378 0.7293 0.7206
911.000000 0.7158 0.7172 0.7487 0.7569 0.7621
906.000000 0.7661 0.7684 0.7707 0.7714 0.7719
901.000000 0.7726 0.7733 0.7740 0.7744 0.7745
896.000000 0.7745 0.7746 0.7747 0.7747 0.7741
891.000000 0.7733 0.7728 0.7722 0.7717 0.7711
886.000000 0.7706 0.7697 0.7685 0.7675 0.7675
881.000000 0.7689 0.7724 0.7748 0.7765 0.7775
876.000000 0.7785 0.7795 0.7806 0.7815 0.7822
871.000000 0.7831 0.7838 0.7846 0.7851 0.7857
866.000000 0.7862 0.7868 0.7872 0.7878 0.7882
861.000000 0.7886 0.7889 0.7890 0.7891 0.7891
856.000000 0.7892 0.7893 0.7889 0.7885 0.7881
851.000000 0.7876 0.7874 0.7871 0.7868 0.7865
846.000000 0.7862 0.7858 0.7858 0.7858 0.7858
841.000000 0.7862 0.7871 0.7878 0.7886 0.7892
836.000000 0.7897 0.7901 0.7907 0.7912 0.7919
831.000000 0.7928 0.7935 0.7942 0.7949 0.7954
826.000000 0.7960 0.7962 0.7964 0.7965 0.7965
821.000000 0.7965 0.7962 0.7961 0.7928 0.7818
816.000000 0.7768 0.7725 0.7661 0.7503 0.7295
811.000000 0.7286 0.7494 0.7865 0.7883 0.7901
806.000000 0.7914 0.7928 0.7942 0.7978 0.7957
801.000000 0.7962 0.7968 0.7975 0.7983 0.7991
796.000000 0.7999 0.8003 0.8011 0.8021 0.8010
791.000000 0.7975 0.7939 0.7924 0.7921 0.7932
786.000000 0.7942 0.7951 0.7960 0.7968 0.7972
781.000000 0.7978 0.7964 0.7939 0.7903 0.7862
776.000000 0.7833 0.7803 0.7791 0.7798 0.7803
771.000000 0.7807 0.7811 0.7815 0.7818 0.7822
766.000000 0.7828 0.7828 0.7830 0.7830 0.7831
761.000000 0.7831 0.7828 0.7825 0.7821 0.7818
756.000000 0.7815 0.7811 0.7803 0.7793 0.7783
751.000000 0.7774 0.7764 0.7749 0.7734 0.7718
746.000000 0.7705 0.7690 0.7669 0.7646 0.7621
741.000000 0.7596 0.7571 0.7548 0.7524 0.7500
736.000000 0.7475 0.7451 0.7425 0.7397 0.7368
731.000000 0.7337 0.7298 0.7261 0.7225 0.7161
726.000000 0.7098 0.7035 0.6971 0.6912 0.6887
721.000000 0.6875 0.6872 0.6871 0.6918 0.6997
716.000000 0.7075 0.7151 0.7228 0.7303 0.7371
711.000000 0.7440 0.7506 0.7558 0.7611 0.7660
706.000000 0.7694 0.7728 0.7750 0.7758 0.7768
701.000000 0.7776 0.7783 0.7784 0.7785 0.7786
696.000000 0.7787 0.7787 0.7787 0.7784 0.7780
691.000000 0.7776 0.7774 0.7771 0.7765 0.7760
686.000000 0.7753 0.7747 0.7740 0.7734 0.7728
681.000000 0.7724 0.7718 0.7714 0.7710 0.7707
676.000000 0.7704 0.7703 0.7703 0.7705 0.7707
671.000000 0.7737 0.7771 0.7808 0.7848 0.7867
666.000000 0.7825 0.7761 0.7743 0.7724 0.7714
661.000000 0.7708 0.7704 0.7698 0.7692 0.7685
656.000000 0.7676 0.7671 0.7660 0.7651 0.7644
651.000000 0.7637 0.7626 0.7608 0.7583 0.7555
646.000000 0.7469 0.7384 0.7298 0.7171 0.7165
641.000000 0.7189 0.7381 0.7471 0.7478 0.7483
636.000000 0.7489 0.7494 0.7494 0.7489 0.7485
631.000000 0.7478 0.7467 0.7454 0.7441 0.7428
626.000000 0.7418 0.7411 0.7406 0.7400 0.7394
621.000000 0.7387 0.7382 0.7378 0.7374 0.7369
616.000000 0.7365 0.7362 0.7358 0.7355 0.7351
611.000000 0.7347 0.7343 0.7339 0.7335 0.7330
606.000000 0.7325 0.7319 0.7315 0.7310 0.7306
601.000000 0.7301 0.7296 0.7291 0.7286 0.7281
596.000000 0.7243 0.7271 0.7265 0.7258 0.7253
591.000000 0.7246 0.7240 0.7233 0.7226 0.7221
586.000000 0.7215 0.7211 0.7207 0.7203 0.7199
581.000000 0.7196 0.7193 0.7190 0.7187 0.7183
576.000000 0.7180 0.7178 0.7175 0.7174 0.7171
571.000000 0.7168 0.7168 0.7165 0.7165 0.7162
566.000000 0.7161 0.7160 0.7157 0.7154 0.7151
561.000000 0.7145 0.7136 0.7128 0.7118 0.7106
556.000000 0.7092 0.7071 0.7051 0.7025 0.6994
551.000000 0.6933 0.6768 0.6698 0.6621 0.6556
546.000000 0.6582 0.6578 0.6708 0.6794 0.6933
541.000000 0.6985 0.7018 0.7033 0.7044 0.7049
536.000000 0.7054 0.7058 0.7061 0.7061 0.7061
531.000000 0.7062 0.7062 0.7060 0.7054 0.7049
526.000000 0.7041 0.7031 0.7019 0.7010 0.7000
521.000000 0.6985 0.6980 0.6969 0.6961 0.6953
516.000000 0.6944 0.6936 0.6931 0.6928 0.6925
511.000000 0.6921 0.6919 0.6917 0.6915 0.6911
506.000000 0.6897 0.6884 0.6871 0.6861 0.6851
501.000000 0.6842 0.6833 0.6824 0.6814 0.6808
496.000000 0.6804 0.6799 0.6794 0.6790 0.6785
491.000000 0.6781 0.6782 0.6782 0.6785 0.6789
486.000000 0.6798 0.6807 0.6815 0.6824 0.6832
481.000000 0.6841 0.6851 0.6862 0.6875 0.6887
476.000000 0.6901 0.6917 0.6931 0.6943 0.6956
471.000000 0.6962 0.6961 0.6960 0.6946 0.6921
466.000000 0.6878 0.6822 0.6744 0.6651 0.6551
461.000000 0.6455 0.6412 0.6387 0.6381
##END=
