##TITLE=BENTONE 27
##JCAMP-DX=4.24
##DATA TYPE=INFRARED SPECTRUM
##CLASS=COBLENTZ III
##ORIGIN=DESOTO CHEMICAL COATINGS, INC.
##OWNER=COBLENTZ SOCIETY
Collection (C) 2018 copyright by the U.S. Secretary of Commerce
on behalf of the United States of America. All rights reserved.
##DATE=Not specified, most likely prior to 1970
##NAMES=BENTONE 27
##MOLFORM=O11 Al2 Si4  * 2 H2 O
##SOURCE REFERENCE=COBLENTZ NO. 4667
##$NIST ID=B6004667
##$NIST SOURCE=COBLENTZ
##$NIST IMAGE=cob4667
##SPECTROMETER/DATA SYSTEM=BECKMAN IR-12 (GRATING)
##INSTRUMENT PARAMETERS=GRATING BLAZED AT 3330, 1330, 445, 220 CM^-^1
##STATE=SOLID (0.3 mg / 300 mg CsI DISC) PLUS OIL
##SAMPLING PROCEDURE=TRANSMISSION
##RESOLUTION=4
##DATA PROCESSING=DIGITIZED BY NIST FROM HARD COPY (FROM TWO SEGMENTS)
##XUNITS=1/CM
##YUNITS=TRANSMITTANCE
##XFACTOR=1.000000
##YFACTOR=1
##DELTAX=1.332347
##FIRSTX=200
##LASTX=3991.86
##FIRSTY=0.763
##MAXX=3991.86
##MINX=200
##MAXY=0.957
##MINY=0.0880007
##NPOINTS=2847
##XYDATA=(X++(Y..Y))
200.000000 0.7630 0.7610 0.7630 0.7610 0.7610
206.661737 0.7630 0.7630 0.7630 0.7630 0.7640
213.323474 0.7640 0.7640 0.7640 0.7640 0.7640
219.985211 0.7640 0.7640 0.7640 0.7640 0.7640
226.646948 0.7640 0.7640 0.7640 0.7630 0.7630
233.308685 0.7630 0.7630 0.7610 0.7610 0.7610
239.970422 0.7610 0.7610 0.7610 0.7630 0.7610
246.632159 0.7610 0.7610 0.7610 0.7610 0.7600
253.293896 0.7600 0.7600 0.7600 0.7600 0.7600
259.955633 0.7600 0.7590 0.7570 0.7550 0.7510
266.617370 0.7480 0.7480 0.7480 0.7480 0.7480
273.279107 0.7480 0.7480 0.7480 0.7480 0.7480
279.940844 0.7460 0.7440 0.7410 0.7400 0.7380
286.602581 0.7370 0.7360 0.7340 0.7330 0.7320
293.264318 0.7320 0.7300 0.7300 0.7300 0.7300
299.926055 0.7300 0.7300 0.7290 0.7290 0.7280
306.587792 0.7280 0.7280 0.7250 0.7220 0.7200
313.249529 0.7180 0.7160 0.7130 0.7100 0.7090
319.911266 0.7060 0.7040 0.7020 0.7000 0.6980
326.573003 0.6930 0.6920 0.6920 0.6900 0.6900
333.234740 0.6890 0.6880 0.6880 0.6850 0.6840
339.896477 0.6820 0.6810 0.6800 0.6780 0.6760
346.558214 0.6730 0.6720 0.6720 0.6690 0.6660
353.219951 0.6630 0.6580 0.6580 0.6510 0.6490
359.881688 0.6430 0.6380 0.6330 0.6310 0.6300
366.543425 0.6270 0.6270 0.6180 0.6140 0.6100
373.205162 0.6060 0.5990 0.5930 0.5890 0.5850
379.866899 0.5760 0.5680 0.5630 0.5431 0.5351
386.528636 0.5300 0.5280 0.5300 0.5320 0.5360
393.190373 0.5400 0.5480 0.5500 0.5500 0.5589
399.852110 0.5640 0.5750 0.5760 0.5830 0.5890
406.513847 0.5950 0.6010 0.6060 0.6090 0.6100
413.175584 0.6100 0.6100 0.6070 0.6060 0.6050
419.837321 0.5980 0.5950 0.5870 0.5800 0.5740
426.499057 0.5680 0.5380 0.5360 0.5280 0.5150
433.160794 0.5040 0.4990 0.4891 0.4771 0.4571
439.822531 0.4390 0.4160 0.3930 0.3740 0.3570
446.484268 0.3371 0.3151 0.3031 0.2811 0.2621
453.146005 0.2430 0.2110 0.1940 0.1800 0.1720
459.807742 0.1640 0.1610 0.1600 0.1590 0.1570
466.469479 0.1570 0.1570 0.1590 0.1610 0.1869
473.131216 0.2039 0.2219 0.2548 0.2968 0.3288
479.792953 0.3610 0.3860 0.4130 0.4389 0.4589
486.454690 0.4789 0.4890 0.5019 0.5179 0.5279
493.116427 0.5340 0.5420 0.5470 0.5510 0.5600
499.778164 0.5680 0.5800 0.5929 0.6049 0.6110
506.439901 0.6190 0.6250 0.6290 0.6380 0.6390
513.101638 0.6470 0.6490 0.6490 0.6500 0.6500
519.763375 0.6500 0.6490 0.6460 0.6430 0.6420
526.425112 0.6410 0.6390 0.6380 0.6380 0.6390
533.086849 0.6410 0.6430 0.6490 0.6590 0.6759
539.748586 0.6979 0.7199 0.7359 0.7519 0.7639
546.410323 0.7720 0.7800 0.7890 0.8000 0.8080
553.072060 0.8150 0.8190 0.8200 0.8230 0.8290
559.733797 0.8320 0.8360 0.8430 0.8500 0.8500
566.395534 0.8500 0.8540 0.8560 0.8590 0.8620
573.057271 0.8630 0.8640 0.8660 0.8700 0.8720
579.719008 0.8760 0.8830 0.8870 0.8880 0.8900
586.380745 0.8900 0.8910 0.8940 0.8950 0.8960
593.042482 0.8980 0.8990 0.8990 0.8990 0.9000
599.704219 0.9000 0.9000 0.9000 0.9020 0.9020
606.365956 0.9020 0.9030 0.9030 0.9030 0.9030
613.027693 0.9030 0.9040 0.9040 0.9040 0.9040
619.689430 0.9040 0.9040 0.9040 0.9040 0.9030
626.351167 0.9030 0.9030 0.9030 0.9030 0.9030
633.012904 0.9020 0.9020 0.9000 0.8990 0.8990
639.674641 0.8980 0.8950 0.8910 0.8900 0.8880
646.336378 0.8840 0.8820 0.8760 0.8700 0.8640
652.998115 0.8620 0.8590 0.8550 0.8520 0.8470
659.659852 0.8430 0.8430 0.8440 0.8470 0.8510
666.321589 0.8520 0.8550 0.8560 0.8580 0.8580
672.983326 0.8590 0.8600 0.8620 0.8630 0.8640
679.645063 0.8640 0.8660 0.8670 0.8680 0.8700
686.306800 0.8710 0.8720 0.8740 0.8760 0.8780
692.968537 0.8790 0.8800 0.8800 0.8820 0.8820
699.630274 0.8820 0.8790 0.8700 0.8620 0.8560
706.292011 0.8550 0.8550 0.8560 0.8590 0.8620
712.953748 0.8660 0.8670 0.8700 0.8799 0.8860
719.615485 0.8900 0.8920 0.8960 0.8990 0.9000
726.277222 0.9000 0.8990 0.8960 0.8920 0.8910
732.938959 0.8910 0.8910 0.8910 0.8920 0.8920
739.600696 0.8940 0.8960 0.8990 0.9020 0.9030
746.262433 0.9060 0.9120 0.9150 0.9190 0.9190
752.924170 0.9250 0.9270 0.9290 0.9300 0.9300
759.585907 0.9310 0.9330 0.9350 0.9380 0.9390
766.247644 0.9390 0.9410 0.9410 0.9410 0.9420
772.909381 0.9430 0.9430 0.9430 0.9430 0.9420
779.571118 0.9420 0.9390 0.9390 0.9380 0.9380
786.232855 0.9370 0.9370 0.9350 0.9350 0.9340
792.894592 0.9340 0.9350 0.9350 0.9350 0.9370
799.556329 0.9370 0.9380 0.9380 0.9390 0.9390
806.218066 0.9410 0.9420 0.9420 0.9430 0.9460
812.879803 0.9470 0.9490 0.9500 0.9510 0.9530
819.541540 0.9540 0.9550 0.9550 0.9550 0.9550
826.203277 0.9550 0.9570 0.9570 0.9570 0.9570
832.865014 0.9570 0.9570 0.9570 0.9570 0.9570
839.526751 0.9550 0.9550 0.9550 0.9550 0.9550
846.188488 0.9550 0.9550 0.9550 0.9550 0.9540
852.850225 0.9530 0.9510 0.9510 0.9500 0.9460
859.511962 0.9430 0.9420 0.9410 0.9390 0.9350
866.173698 0.9340 0.9310 0.9300 0.9300 0.9250
872.835435 0.9220 0.9210 0.9190 0.9140 0.9100
879.497172 0.9060 0.9030 0.8990 0.8980 0.8980
886.158909 0.8980 0.8990 0.8990 0.9000 0.9000
892.820646 0.9020 0.9030 0.9040 0.9060 0.9070
899.482383 0.9070 0.9080 0.9100 0.9110 0.9110
906.144120 0.9110 0.9110 0.9100 0.9100 0.9080
912.805857 0.9070 0.9040 0.9030 0.9020 0.9020
919.467594 0.9000 0.8990 0.8990 0.8980 0.8960
926.129331 0.8940 0.8910 0.8900 0.8870 0.8840
932.791068 0.8820 0.8800 0.8790 0.8750 0.8720
939.452805 0.8700 0.8660 0.8600 0.8511 0.8470
946.114542 0.8400 0.8310 0.8250 0.8150 0.8010
952.776279 0.7890 0.7761 0.7601 0.7511 0.7222
959.438016 0.7120 0.6940 0.6800 0.6511 0.6311
966.099753 0.6101 0.5901 0.5751 0.5243 0.4972
972.761490 0.4670 0.4490 0.4310 0.4041 0.3960
979.423227 0.3701 0.3401 0.3171 0.2951 0.2781
986.084964 0.2610 0.2220 0.2190 0.2060 0.1840
992.746701 0.1740 0.1610 0.1401 0.1350 0.1290
999.408438 0.1240 0.1190 0.1090 0.1050 0.1010
1006.070175 0.0970 0.0930 0.0910 0.0890 0.0880
1012.731912 0.0880 0.0890 0.0890 0.0920 0.0950
1019.393649 0.1010 0.1080 0.1120 0.1279 0.1409
1026.055386 0.1490 0.1790 0.1900 0.2000 0.2229
1032.717123 0.2429 0.2619 0.2819 0.3009 0.3189
1039.378860 0.3340 0.3500 0.3690 0.3820 0.3840
1046.040597 0.4000 0.4010 0.4040 0.4060 0.4080
1052.702334 0.4090 0.4100 0.4120 0.4120 0.4050
1059.364071 0.4000 0.3920 0.3850 0.3721 0.3680
1066.025808 0.3600 0.3520 0.3440 0.3360 0.3330
1072.687545 0.3300 0.3270 0.3260 0.3250 0.3250
1079.349282 0.3260 0.3290 0.3310 0.3460 0.3490
1086.011019 0.3649 0.3809 0.4009 0.4129 0.4329
1092.672756 0.4400 0.4510 0.4640 0.4720 0.4830
1099.334493 0.4990 0.5100 0.5200 0.5309 0.5399
1105.996230 0.5460 0.5510 0.5580 0.5790 0.5930
1112.657967 0.6099 0.6140 0.6230 0.6339 0.6499
1119.319704 0.6540 0.6700 0.6780 0.6810 0.6900
1125.981441 0.6920 0.7010 0.7060 0.7159 0.7210
1132.643178 0.7320 0.7340 0.7400 0.7410 0.7440
1139.304915 0.7510 0.7600 0.7630 0.7630 0.7650
1145.966652 0.7710 0.7720 0.7750 0.7770 0.7800
1152.628389 0.7810 0.7830 0.7850 0.7870 0.7890
1159.290126 0.7910 0.7910 0.7930 0.7950 0.7960
1165.951863 0.8000 0.8010 0.8040 0.8050 0.8070
1172.613600 0.8080 0.8080 0.8090 0.8120 0.8130
1179.275337 0.8170 0.8200 0.8240 0.8250 0.8270
1185.937074 0.8280 0.8290 0.8310 0.8320 0.8320
1192.598811 0.8320 0.8340 0.8340 0.8350 0.8350
1199.260548 0.8380 0.8390 0.8400 0.8420 0.8420
1205.922285 0.8420 0.8440 0.8470 0.8480 0.8500
1212.584022 0.8510 0.8510 0.8500 0.8500 0.8500
1219.245759 0.8480 0.8480 0.8480 0.8500 0.8500
1225.907496 0.8520 0.8520 0.8520 0.8560 0.8590
1232.569233 0.8600 0.8620 0.8620 0.8620 0.8620
1239.230970 0.8620 0.8620 0.8620 0.8630 0.8640
1245.892707 0.8660 0.8660 0.8660 0.8660 0.8660
1252.554444 0.8670 0.8670 0.8670 0.8670 0.8670
1259.216181 0.8670 0.8680 0.8680 0.8680 0.8700
1265.877918 0.8700 0.8700 0.8700 0.8700 0.8710
1272.539655 0.8720 0.8720 0.8740 0.8750 0.8750
1279.201392 0.8750 0.8750 0.8750 0.8750 0.8740
1285.863129 0.8740 0.8720 0.8720 0.8740 0.8750
1292.524866 0.8760 0.8780 0.8790 0.8800 0.8800
1299.186603 0.8790 0.8780 0.8760 0.8760 0.8760
1305.848340 0.8760 0.8760 0.8780 0.8780 0.8780
1312.510076 0.8780 0.8780 0.8780 0.8780 0.8790
1319.171813 0.8790 0.8790 0.8790 0.8790 0.8780
1325.833550 0.8780 0.8780 0.8780 0.8780 0.8780
1332.495287 0.8780 0.8780 0.8780 0.8790 0.8790
1339.157024 0.8790 0.8790 0.8790 0.8790 0.8780
1345.818761 0.8780 0.8780 0.8760 0.8720 0.8720
1352.480498 0.8720 0.8720 0.8720 0.8740 0.8740
1359.142235 0.8740 0.8740 0.8740 0.8740 0.8720
1365.803972 0.8720 0.8710 0.8710 0.8700 0.8680
1372.465709 0.8680 0.8700 0.8700 0.8700 0.8700
1379.127446 0.8680 0.8670 0.8670 0.8670 0.8670
1385.789183 0.8670 0.8660 0.8660 0.8660 0.8660
1392.450920 0.8660 0.8670 0.8660 0.8660 0.8660
1399.112657 0.8660 0.8640 0.8620 0.8620 0.8620
1405.774394 0.8600 0.8560 0.8560 0.8510 0.8510
1412.436131 0.8430 0.8400 0.8350 0.8310 0.8310
1419.097868 0.8270 0.8210 0.8150 0.8120 0.8110
1425.759605 0.8070 0.8040 0.8030 0.7930 0.7870
1432.421342 0.7810 0.7800 0.7750 0.7710 0.7670
1439.083079 0.7640 0.7610 0.7570 0.7550 0.7530
1445.744816 0.7520 0.7520 0.7510 0.7510 0.7490
1452.406553 0.7490 0.7460 0.7440 0.7410 0.7370
1459.068290 0.7340 0.7340 0.7360 0.7370 0.7380
1465.730027 0.7400 0.7400 0.7380 0.7360 0.7330
1472.391764 0.7320 0.7330 0.7340 0.7400 0.7460
1479.053501 0.7510 0.7530 0.7550 0.7560 0.7570
1485.715238 0.7600 0.7630 0.7640 0.7710 0.7750
1492.376975 0.7840 0.7850 0.7910 0.7950 0.7970
1499.038712 0.8010 0.8010 0.8080 0.8130 0.8150
1505.700449 0.8200 0.8210 0.8240 0.8270 0.8310
1512.362186 0.8390 0.8400 0.8400 0.8420 0.8420
1519.023923 0.8420 0.8460 0.8480 0.8500 0.8510
1525.685660 0.8510 0.8510 0.8520 0.8520 0.8550
1532.347397 0.8560 0.8560 0.8560 0.8560 0.8560
1539.009134 0.8580 0.8580 0.8590 0.8600 0.8620
1545.670871 0.8620 0.8620 0.8630 0.8630 0.8620
1552.332608 0.8620 0.8620 0.8620 0.8620 0.8620
1558.994345 0.8620 0.8620 0.8620 0.8630 0.8630
1565.656082 0.8630 0.8630 0.8630 0.8640 0.8640
1572.317819 0.8640 0.8630 0.8630 0.8630 0.8630
1578.979556 0.8620 0.8620 0.8600 0.8600 0.8600
1585.641293 0.8600 0.8600 0.8600 0.8600 0.8590
1592.303030 0.8590 0.8580 0.8580 0.8560 0.8540
1598.964767 0.8540 0.8520 0.8510 0.8480 0.8480
1605.626504 0.8470 0.8460 0.8460 0.8440 0.8430
1612.288241 0.8420 0.8400 0.8400 0.8390 0.8380
1618.949978 0.8360 0.8360 0.8360 0.8360 0.8360
1625.611715 0.8360 0.8360 0.8380 0.8380 0.8380
1632.273452 0.8390 0.8390 0.8390 0.8400 0.8400
1638.935189 0.8420 0.8430 0.8430 0.8440 0.8460
1645.596926 0.8470 0.8470 0.8480 0.8480 0.8510
1652.258663 0.8510 0.8510 0.8510 0.8520 0.8520
1658.920400 0.8510 0.8510 0.8520 0.8520 0.8520
1665.582137 0.8520 0.8520 0.8540 0.8540 0.8540
1672.243874 0.8540 0.8540 0.8540 0.8540 0.8520
1678.905611 0.8520 0.8520 0.8560 0.8560 0.8560
1685.567348 0.8550 0.8540 0.8540 0.8540 0.8540
1692.229085 0.8540 0.8550 0.8560 0.8560 0.8580
1698.890822 0.8580 0.8580 0.8580 0.8580 0.8580
1705.552559 0.8580 0.8580 0.8600 0.8600 0.8580
1712.214296 0.8580 0.8580 0.8580 0.8580 0.8580
1718.876033 0.8590 0.8600 0.8620 0.8630 0.8630
1725.537770 0.8630 0.8620 0.8620 0.8620 0.8620
1732.199507 0.8620 0.8620 0.8620 0.8620 0.8620
1738.861244 0.8600 0.8620 0.8620 0.8620 0.8620
1745.522981 0.8620 0.8620 0.8620 0.8620 0.8620
1752.184717 0.8620 0.8620 0.8620 0.8620 0.8620
1758.846454 0.8620 0.8620 0.8620 0.8620 0.8620
1765.508191 0.8620 0.8630 0.8630 0.8640 0.8640
1772.169928 0.8620 0.8600 0.8600 0.8620 0.8620
1778.831665 0.8630 0.8630 0.8600 0.8590 0.8590
1785.493402 0.8590 0.8600 0.8600 0.8590 0.8600
1792.155139 0.8590 0.8600 0.8600 0.8590 0.8580
1798.816876 0.8580 0.8580 0.8580 0.8580 0.8580
1805.478613 0.8580 0.8580 0.8580 0.8580 0.8580
1812.140350 0.8580 0.8580 0.8580 0.8600 0.8600
1818.802087 0.8600 0.8600 0.8580 0.8580 0.8590
1825.463824 0.8590 0.8600 0.8600 0.8600 0.8600
1832.125561 0.8600 0.8600 0.8600 0.8590 0.8590
1838.787298 0.8580 0.8580 0.8580 0.8580 0.8580
1845.449035 0.8590 0.8590 0.8590 0.8590 0.8600
1852.110772 0.8600 0.8600 0.8600 0.8600 0.8600
1858.772509 0.8600 0.8590 0.8590 0.8590 0.8590
1865.434246 0.8590 0.8580 0.8560 0.8560 0.8550
1872.095983 0.8560 0.8560 0.8560 0.8580 0.8580
1878.757720 0.8580 0.8580 0.8590 0.8580 0.8580
1885.419457 0.8560 0.8540 0.8540 0.8540 0.8520
1892.081194 0.8540 0.8520 0.8520 0.8520 0.8510
1898.742931 0.8510 0.8510 0.8510 0.8510 0.8510
1905.404668 0.8510 0.8510 0.8520 0.8520 0.8520
1912.066405 0.8520 0.8510 0.8510 0.8510 0.8510
1918.728142 0.8510 0.8510 0.8510 0.8510 0.8510
1925.389879 0.8510 0.8510 0.8510 0.8510 0.8510
1932.051616 0.8510 0.8520 0.8520 0.8520 0.8510
1938.713353 0.8510 0.8510 0.8510 0.8510 0.8510
1945.375090 0.8510 0.8510 0.8510 0.8500 0.8500
1952.036827 0.8500 0.8480 0.8480 0.8480 0.8480
1958.698564 0.8480 0.8500 0.8500 0.8500 0.8500
1965.360301 0.8500 0.8500 0.8500 0.8500 0.8510
1972.022038 0.8500 0.8500 0.8480 0.8480 0.8480
1978.683775 0.8500 0.8500 0.8510 0.8510 0.8510
1985.345512 0.8510 0.8510 0.8510 0.8500 0.8480
1992.007249 0.8470 0.8470 0.8460 0.8460 0.8460
1998.668986 0.8470 0.8470 0.8465 0.8460 0.8460
2005.330723 0.8460 0.8450 0.8440 0.8435 0.8430
2011.992460 0.8430 0.8430 0.8430 0.8430 0.8425
2018.654197 0.8420 0.8420 0.8420 0.8420 0.8420
2025.315934 0.8420 0.8420 0.8410 0.8400 0.8400
2031.977671 0.8400 0.8395 0.8390 0.8395 0.8400
2038.639408 0.8395 0.8390 0.8385 0.8380 0.8380
2045.301145 0.8380 0.8380 0.8380 0.8380 0.8380
2051.962882 0.8380 0.8380 0.8380 0.8380 0.8380
2058.624619 0.8380 0.8380 0.8379 0.8369 0.8360
2065.286356 0.8360 0.8360 0.8360 0.8360 0.8355
2071.948093 0.8350 0.8345 0.8340 0.8340 0.8340
2078.609830 0.8340 0.8340 0.8340 0.8340 0.8340
2085.271567 0.8340 0.8340 0.8340 0.8340 0.8340
2091.933304 0.8340 0.8340 0.8340 0.8340 0.8340
2098.595041 0.8341 0.8346 0.8350 0.8350 0.8348
2105.256778 0.8333 0.8320 0.8320 0.8320 0.8320
2111.918515 0.8320 0.8320 0.8320 0.8320 0.8322
2118.580252 0.8332 0.8340 0.8340 0.8338 0.8328
2125.241989 0.8320 0.8320 0.8319 0.8314 0.8310
2131.903726 0.8310 0.8308 0.8298 0.8290 0.8290
2138.565463 0.8292 0.8302 0.8310 0.8310 0.8310
2145.227200 0.8310 0.8310 0.8310 0.8310 0.8310
2151.888937 0.8310 0.8310 0.8310 0.8310 0.8310
2158.550674 0.8310 0.8308 0.8298 0.8290 0.8290
2165.212411 0.8289 0.8284 0.8280 0.8280 0.8280
2171.874148 0.8280 0.8280 0.8280 0.8280 0.8280
2178.535885 0.8280 0.8280 0.8280 0.8280 0.8280
2185.197622 0.8280 0.8279 0.8274 0.8267 0.8257
2191.859358 0.8250 0.8250 0.8250 0.8250 0.8250
2198.521095 0.8250 0.8250 0.8250 0.8249 0.8244
2205.182832 0.8241 0.8246 0.8250 0.8250 0.8249
2211.844569 0.8244 0.8238 0.8233 0.8230 0.8230
2218.506306 0.8230 0.8230 0.8230 0.8230 0.8230
2225.168043 0.8230 0.8230 0.8230 0.8230 0.8230
2231.829780 0.8230 0.8230 0.8230 0.8230 0.8230
2238.491517 0.8230 0.8232 0.8237 0.8240 0.8240
2245.153254 0.8235 0.8220 0.8210 0.8210 0.8208
2251.814991 0.8203 0.8200 0.8200 0.8198 0.8193
2258.476728 0.8186 0.8176 0.8168 0.8163 0.8160
2265.138465 0.8160 0.8160 0.8160 0.8158 0.8153
2271.800202 0.8150 0.8150 0.8150 0.8150 0.8150
2278.461939 0.8150 0.8142 0.8122 0.8114 0.8124
2285.123676 0.8130 0.8130 0.8130 0.8130 0.8130
2291.785413 0.8130 0.8130 0.8130 0.8130 0.8130
2298.447150 0.8130 0.8130 0.8130 0.8130 0.8130
2305.108887 0.8130 0.8128 0.8123 0.8120 0.8120
2311.770624 0.8118 0.8113 0.8110 0.8110 0.8110
2318.432361 0.8110 0.8110 0.8110 0.8110 0.8110
2325.094098 0.8110 0.8110 0.8110 0.8110 0.8110
2331.755835 0.8110 0.8110 0.8110 0.8110 0.8110
2338.417572 0.8103 0.8088 0.8078 0.8073 0.8065
2345.079309 0.8055 0.8047 0.8042 0.8037 0.8032
2351.741046 0.8030 0.8030 0.8030 0.8030 0.8030
2358.402783 0.8030 0.8025 0.8015 0.8010 0.8010
2365.064520 0.8010 0.8010 0.8010 0.8010 0.8010
2371.726257 0.8010 0.8010 0.8010 0.8010 0.8010
2378.387994 0.8007 0.8002 0.8000 0.8000 0.8000
2385.049731 0.8000 0.8003 0.8008 0.8010 0.8010
2391.711468 0.8015 0.8025 0.8030 0.8030 0.8030
2398.373205 0.8030 0.8024 0.8014 0.8010 0.8010
2405.034942 0.8010 0.8010 0.8010 0.8010 0.8010
2411.696679 0.8010 0.8007 0.8002 0.8000 0.8000
2418.358416 0.8000 0.8000 0.8000 0.8000 0.8000
2425.020153 0.8000 0.8000 0.8000 0.7997 0.7992
2431.681890 0.7990 0.7990 0.7990 0.7990 0.7990
2438.343627 0.7990 0.7990 0.7990 0.7984 0.7974
2445.005364 0.7967 0.7962 0.7960 0.7960 0.7960
2451.667101 0.7960 0.7960 0.7960 0.7960 0.7960
2458.328838 0.7957 0.7952 0.7950 0.7950 0.7943
2464.990575 0.7933 0.7930 0.7930 0.7930 0.7930
2471.652312 0.7930 0.7930 0.7930 0.7930 0.7930
2478.314049 0.7930 0.7930 0.7930 0.7930 0.7930
2484.975786 0.7930 0.7930 0.7930 0.7930 0.7930
2491.637523 0.7930 0.7930 0.7930 0.7926 0.7921
2498.299260 0.7920 0.7920 0.7916 0.7911 0.7903
2504.960997 0.7893 0.7890 0.7890 0.7886 0.7881
2511.622734 0.7884 0.7889 0.7890 0.7890 0.7890
2518.284471 0.7890 0.7897 0.7907 0.7910 0.7910
2524.946208 0.7899 0.7884 0.7880 0.7880 0.7880
2531.607945 0.7880 0.7880 0.7880 0.7876 0.7871
2538.269682 0.7862 0.7852 0.7842 0.7832 0.7830
2544.931419 0.7830 0.7830 0.7830 0.7834 0.7839
2551.593156 0.7844 0.7849 0.7850 0.7850 0.7858
2558.254893 0.7868 0.7862 0.7852 0.7850 0.7850
2564.916630 0.7846 0.7841 0.7836 0.7831 0.7830
2571.578367 0.7830 0.7830 0.7830 0.7830 0.7830
2578.240104 0.7822 0.7812 0.7806 0.7801 0.7800
2584.901841 0.7800 0.7787 0.7772 0.7770 0.7770
2591.563578 0.7770 0.7770 0.7766 0.7761 0.7760
2598.225315 0.7760 0.7773 0.7788 0.7794 0.7799
2604.887052 0.7800 0.7800 0.7800 0.7800 0.7800
2611.548789 0.7800 0.7787 0.7772 0.7770 0.7770
2618.210526 0.7770 0.7770 0.7766 0.7761 0.7760
2624.872263 0.7760 0.7760 0.7760 0.7760 0.7760
2631.534000 0.7756 0.7751 0.7741 0.7731 0.7730
2638.195736 0.7730 0.7725 0.7720 0.7720 0.7720
2644.857473 0.7720 0.7720 0.7720 0.7720 0.7720
2651.519210 0.7720 0.7720 0.7720 0.7720 0.7720
2658.180947 0.7720 0.7720 0.7734 0.7749 0.7750
2664.842684 0.7750 0.7740 0.7730 0.7725 0.7720
2671.504421 0.7715 0.7710 0.7710 0.7710 0.7710
2678.166158 0.7710 0.7695 0.7680 0.7680 0.7680
2684.827895 0.7680 0.7680 0.7680 0.7680 0.7680
2691.489632 0.7680 0.7680 0.7680 0.7685 0.7690
2698.151369 0.7690 0.7690 0.7670 0.7650 0.7645
2704.813106 0.7640 0.7640 0.7640 0.7640 0.7640
2711.474843 0.7640 0.7640 0.7640 0.7640 0.7635
2718.136580 0.7630 0.7635 0.7640 0.7640 0.7640
2724.798317 0.7640 0.7640 0.7640 0.7640 0.7640
2731.460054 0.7640 0.7635 0.7630 0.7630 0.7630
2738.121791 0.7620 0.7610 0.7620 0.7630 0.7619
2744.783528 0.7610 0.7610 0.7610 0.7610 0.7610
2751.445265 0.7610 0.7610 0.7610 0.7610 0.7605
2758.107002 0.7600 0.7600 0.7600 0.7595 0.7589
2764.768739 0.7579 0.7570 0.7570 0.7570 0.7564
2771.430476 0.7560 0.7560 0.7560 0.7560 0.7559
2778.092213 0.7554 0.7548 0.7533 0.7520 0.7520
2784.753950 0.7520 0.7520 0.7520 0.7520 0.7520
2791.415687 0.7520 0.7521 0.7526 0.7530 0.7530
2798.077424 0.7530 0.7530 0.7530 0.7530 0.7530
2804.739161 0.7530 0.7530 0.7530 0.7529 0.7524
2811.400898 0.7519 0.7514 0.7510 0.7510 0.7508
2818.062635 0.7498 0.7488 0.7473 0.7459 0.7454
2824.724372 0.7449 0.7444 0.7440 0.7440 0.7437
2831.386109 0.7422 0.7409 0.7404 0.7385 0.7310
2838.047846 0.7230 0.7130 0.7030 0.6930 0.6830
2844.709583 0.6730 0.6640 0.6590 0.6517 0.6355
2851.371320 0.6229 0.6224 0.6221 0.6226 0.6242
2858.033057 0.6292 0.6339 0.6379 0.6419 0.6459
2864.694794 0.6502 0.6552 0.6615 0.6720 0.6802
2871.356531 0.6812 0.6828 0.6863 0.6894 0.6909
2878.018268 0.6921 0.6926 0.6931 0.6936 0.6940
2884.680005 0.6940 0.6939 0.6934 0.6929 0.6924
2891.341742 0.6917 0.6907 0.6897 0.6887 0.6877
2898.003479 0.6867 0.6854 0.6834 0.6814 0.6794
2904.665216 0.6780 0.6780 0.6768 0.6728 0.6636
2911.326953 0.6431 0.6267 0.6192 0.6104 0.5989
2917.988690 0.5828 0.5568 0.5388 0.5383 0.5382
2924.650427 0.5387 0.5398 0.5423 0.5451 0.5487
2931.312164 0.5522 0.5557 0.5597 0.5647 0.5699
2937.973901 0.5754 0.5818 0.5898 0.5985 0.6085
2944.635638 0.6185 0.6285 0.6361 0.6391 0.6412
2951.297375 0.6417 0.6422 0.6427 0.6437 0.6458
2957.959112 0.6476 0.6491 0.6506 0.6521 0.6540
2964.620849 0.6565 0.6588 0.6608 0.6634 0.6669
2971.282586 0.6698 0.6718 0.6746 0.6786 0.6812
2977.944323 0.6817 0.6826 0.6841 0.6856 0.6871
2984.606060 0.6884 0.6894 0.6900 0.6900 0.6904
2991.267797 0.6914 0.6924 0.6934 0.6940 0.6940
2997.929534 0.6944 0.6954 0.6960 0.6960 0.6960
3004.591271 0.6960 0.6962 0.6967 0.6970 0.6970
3011.253008 0.6970 0.6970 0.6970 0.6970 0.6972
3017.914745 0.6977 0.6980 0.6980 0.6980 0.6980
3024.576482 0.6980 0.6980 0.6980 0.6980 0.6985
3031.238219 0.6995 0.7000 0.7000 0.7000 0.7000
3037.899956 0.7000 0.7000 0.7000 0.7000 0.7000
3044.561693 0.7000 0.7000 0.7000 0.7000 0.7000
3051.223430 0.7000 0.7000 0.7000 0.7000 0.7000
3057.885167 0.7000 0.7000 0.7000 0.7000 0.7000
3064.546904 0.7000 0.7000 0.7000 0.7000 0.7000
3071.208641 0.7000 0.7000 0.7000 0.7000 0.7000
3077.870377 0.7000 0.7000 0.7000 0.7000 0.7000
3084.532114 0.7000 0.6995 0.6985 0.6980 0.6980
3091.193851 0.6980 0.6980 0.6980 0.6980 0.6980
3097.855588 0.6980 0.6980 0.6980 0.6980 0.6980
3104.517325 0.6977 0.6972 0.6970 0.6970 0.6970
3111.179062 0.6970 0.6970 0.6970 0.6967 0.6962
3117.840799 0.6960 0.6960 0.6960 0.6960 0.6960
3124.502536 0.6960 0.6954 0.6944 0.6940 0.6940
3131.164273 0.6940 0.6940 0.6940 0.6940 0.6940
3137.826010 0.6940 0.6940 0.6940 0.6940 0.6940
3144.487747 0.6937 0.6932 0.6930 0.6930 0.6930
3151.149484 0.6930 0.6930 0.6930 0.6927 0.6922
3157.811221 0.6913 0.6903 0.6900 0.6900 0.6900
3164.472958 0.6900 0.6897 0.6892 0.6887 0.6882
3171.134695 0.6873 0.6863 0.6860 0.6860 0.6860
3177.796432 0.6860 0.6857 0.6852 0.6847 0.6842
3184.458169 0.6840 0.6840 0.6833 0.6823 0.6820
3191.119906 0.6820 0.6820 0.6820 0.6820 0.6820
3197.781643 0.6820 0.6820 0.6820 0.6820 0.6820
3204.443380 0.6820 0.6820 0.6820 0.6820 0.6820
3211.105117 0.6816 0.6811 0.6810 0.6810 0.6810
3217.766854 0.6810 0.6806 0.6801 0.6800 0.6800
3224.428591 0.6792 0.6782 0.6776 0.6771 0.6766
3231.090328 0.6761 0.6752 0.6742 0.6740 0.6740
3237.752065 0.6740 0.6740 0.6740 0.6740 0.6736
3244.413802 0.6731 0.6730 0.6730 0.6730 0.6730
3251.075539 0.6726 0.6721 0.6720 0.6720 0.6720
3257.737276 0.6720 0.6712 0.6702 0.6700 0.6700
3264.399013 0.6696 0.6691 0.6686 0.6681 0.6680
3271.060750 0.6680 0.6672 0.6662 0.6660 0.6660
3277.722487 0.6656 0.6651 0.6650 0.6650 0.6642
3284.384224 0.6632 0.6630 0.6630 0.6626 0.6621
3291.045961 0.6607 0.6592 0.6590 0.6590 0.6586
3297.707698 0.6581 0.6580 0.6580 0.6576 0.6571
3304.369435 0.6570 0.6570 0.6561 0.6551 0.6550
3311.031172 0.6550 0.6541 0.6531 0.6530 0.6530
3317.692909 0.6521 0.6511 0.6506 0.6501 0.6500
3324.354646 0.6500 0.6496 0.6491 0.6481 0.6471
3331.016383 0.6465 0.6460 0.6455 0.6450 0.6441
3337.678120 0.6431 0.6430 0.6430 0.6425 0.6420
3344.339857 0.6420 0.6420 0.6415 0.6410 0.6410
3351.001594 0.6410 0.6401 0.6391 0.6390 0.6390
3357.663331 0.6385 0.6380 0.6366 0.6351 0.6345
3364.325068 0.6340 0.6335 0.6330 0.6320 0.6310
3370.986805 0.6310 0.6310 0.6291 0.6271 0.6265
3377.648542 0.6260 0.6255 0.6250 0.6250 0.6250
3384.310279 0.6240 0.6230 0.6225 0.6220 0.6220
3390.972016 0.6220 0.6220 0.6220 0.6215 0.6210
3397.633753 0.6210 0.6210 0.6200 0.6190 0.6185
3404.295490 0.6180 0.6175 0.6170 0.6160 0.6150
3410.957227 0.6145 0.6140 0.6135 0.6130 0.6130
3417.618964 0.6130 0.6120 0.6110 0.6110 0.6110
3424.280701 0.6110 0.6110 0.6105 0.6100 0.6100
3430.942438 0.6100 0.6095 0.6090 0.6090 0.6089
3437.604175 0.6079 0.6070 0.6070 0.6070 0.6070
3444.265912 0.6070 0.6070 0.6070 0.6070 0.6070
3450.927649 0.6065 0.6060 0.6060 0.6060 0.6060
3457.589386 0.6060 0.6060 0.6060 0.6060 0.6059
3464.251123 0.6054 0.6050 0.6050 0.6050 0.6050
3470.912860 0.6050 0.6050 0.6050 0.6050 0.6050
3477.574597 0.6050 0.6050 0.6050 0.6050 0.6050
3484.236334 0.6050 0.6050 0.6050 0.6050 0.6050
3490.898071 0.6050 0.6048 0.6038 0.6030 0.6030
3497.559808 0.6030 0.6030 0.6032 0.6042 0.6050
3504.221545 0.6050 0.6050 0.6050 0.6050 0.6050
3510.883282 0.6051 0.6056 0.6060 0.6060 0.6060
3517.545019 0.6060 0.6061 0.6066 0.6070 0.6070
3524.206755 0.6070 0.6070 0.6070 0.6070 0.6072
3530.868492 0.6082 0.6090 0.6090 0.6090 0.6090
3537.530229 0.6091 0.6096 0.6101 0.6106 0.6112
3544.191966 0.6122 0.6130 0.6130 0.6131 0.6136
3550.853703 0.6140 0.6140 0.6140 0.6140 0.6140
3557.515440 0.6140 0.6140 0.6140 0.6141 0.6146
3564.177177 0.6150 0.6150 0.6150 0.6150 0.6150
3570.838914 0.6150 0.6150 0.6150 0.6150 0.6150
3577.500651 0.6150 0.6150 0.6150 0.6150 0.6153
3584.162388 0.6163 0.6170 0.6170 0.6170 0.6170
3590.824125 0.6171 0.6176 0.6180 0.6180 0.6182
3597.485862 0.6187 0.6190 0.6190 0.6190 0.6190
3604.147599 0.6190 0.6190 0.6193 0.6203 0.6207
3610.809336 0.6197 0.6190 0.6190 0.6193 0.6203
3617.471073 0.6210 0.6210 0.6210 0.6210 0.6210
3624.132810 0.6210 0.6210 0.6210 0.6210 0.6210
3630.794547 0.6210 0.6210 0.6210 0.6210 0.6210
3637.456284 0.6210 0.6210 0.6210 0.6212 0.6217
3644.118021 0.6220 0.6220 0.6220 0.6220 0.6220
3650.779758 0.6220 0.6220 0.6220 0.6220 0.6220
3657.441495 0.6222 0.6227 0.6230 0.6230 0.6234
3664.103232 0.6244 0.6250 0.6250 0.6250 0.6250
3670.764969 0.6246 0.6236 0.6230 0.6230 0.6228
3677.426706 0.6223 0.6203 0.6163 0.6138 0.6133
3684.088443 0.6126 0.6116 0.6110 0.6110 0.6110
3690.750180 0.6110 0.6110 0.6110 0.6114 0.6124
3697.411917 0.6132 0.6137 0.6142 0.6147 0.6155
3704.073654 0.6165 0.6170 0.6170 0.6170 0.6170
3710.735391 0.6172 0.6177 0.6180 0.6180 0.6180
3717.397128 0.6180 0.6180 0.6180 0.6180 0.6180
3724.058865 0.6180 0.6180 0.6180 0.6180 0.6180
3730.720602 0.6180 0.6182 0.6188 0.6190 0.6190
3737.382339 0.6190 0.6190 0.6195 0.6205 0.6210
3744.044076 0.6210 0.6213 0.6218 0.6220 0.6220
3750.705813 0.6220 0.6220 0.6217 0.6212 0.6210
3757.367550 0.6210 0.6210 0.6210 0.6210 0.6210
3764.029287 0.6205 0.6195 0.6190 0.6190 0.6190
3770.691024 0.6190 0.6190 0.6190 0.6190 0.6190
3777.352761 0.6190 0.6190 0.6187 0.6182 0.6180
3784.014498 0.6180 0.6180 0.6180 0.6180 0.6180
3790.676235 0.6180 0.6180 0.6180 0.6180 0.6180
3797.337972 0.6180 0.6180 0.6180 0.6180 0.6180
3803.999709 0.6177 0.6172 0.6170 0.6170 0.6170
3810.661446 0.6170 0.6170 0.6170 0.6164 0.6154
3817.323183 0.6150 0.6150 0.6147 0.6142 0.6140
3823.984920 0.6140 0.6140 0.6140 0.6137 0.6132
3830.646657 0.6130 0.6130 0.6130 0.6130 0.6130
3837.308394 0.6130 0.6130 0.6130 0.6130 0.6130
3843.970131 0.6130 0.6130 0.6130 0.6130 0.6130
3850.631868 0.6130 0.6130 0.6130 0.6130 0.6130
3857.293605 0.6130 0.6130 0.6123 0.6113 0.6110
3863.955342 0.6110 0.6110 0.6110 0.6110 0.6110
3870.617079 0.6107 0.6102 0.6100 0.6100 0.6100
3877.278816 0.6100 0.6097 0.6091 0.6090 0.6090
3883.940553 0.6083 0.6073 0.6070 0.6070 0.6066
3890.602290 0.6061 0.6060 0.6060 0.6060 0.6060
3897.264027 0.6060 0.6060 0.6060 0.6060 0.6056
3903.925764 0.6051 0.6050 0.6050 0.6050 0.6050
3910.587501 0.6050 0.6050 0.6050 0.6050 0.6042
3917.249238 0.6032 0.6026 0.6021 0.6020 0.6020
3923.910975 0.6020 0.6020 0.6020 0.6020 0.6016
3930.572712 0.6011 0.6010 0.6010 0.6010 0.6010
3937.234449 0.6010 0.6010 0.6010 0.6010 0.6010
3943.896186 0.6010 0.6002 0.5992 0.5990 0.5990
3950.557923 0.5990 0.5990 0.5990 0.5990 0.5990
3957.219660 0.5990 0.5986 0.5981 0.5980 0.5980
3963.881396 0.5980 0.5980 0.5980 0.5980 0.5976
3970.543133 0.5971 0.5962 0.5952 0.5950 0.5950
3977.204870 0.5950 0.5950 0.5950 0.5950 0.5950
3983.866607 0.5950 0.5950 0.5950 0.5946 0.5941
3990.528344 0.5940 0.5940
##END=
