##TITLE=SODIUM DIGLYCOLATE
##JCAMP-DX=4.24
##DATA TYPE=INFRARED SPECTRUM
##CLASS=COBLENTZ
##ORIGIN=DOW CHEMICAL COMPANY
##OWNER=COBLENTZ SOCIETY
Collection (C) 2018 copyright by the U.S. Secretary of Commerce
on behalf of the United States of America. All rights reserved.
##DATE=Not specified, most likely prior to 1970
##MOLFORM=C4 H4 O5 Na2
##SOURCE REFERENCE=COBLENTZ NO. 2267
##$NIST ID=B6002267
##$NIST SOURCE=COBLENTZ
##$NIST IMAGE=cob2267
##SPECTROMETER/DATA SYSTEM=Not specified, most likely a prism, grating, or hybrid spectrometer.
##STATE=SOLID (MINERAL OIL MULL)
##PATH LENGTH=
$$SPECTRAL CONTAMINATION DUE TO OIL AROUND 2900 CM^-^1
##SAMPLING PROCEDURE=TRANSMISSION
##RESOLUTION=4
##DATA PROCESSING=DIGITIZED BY NIST FROM HARD COPY
##XUNITS=MICROMETERS
##YUNITS=TRANSMITTANCE
##XFACTOR=1.000000
##YFACTOR=1
##DELTAX=000.006676
##FIRSTX=2.02
##LASTX=15.9137
##FIRSTY=0.918
##MAXX=15.9137
##MINX=2.02
##MAXY=0.935
##MINY=0.029
##NPOINTS=2082
##XYDATA=(X++(Y..Y))
2.020000 0.9180 0.9180 0.9200 0.9210 0.9210
2.053397 0.9230 0.9230 0.9260 0.9280 0.9300
2.087000 0.9310 0.9310 0.9330 0.9350 0.9350
2.120397 0.9350 0.9350 0.9350 0.9350 0.9350
2.154000 0.9330 0.9330 0.9310 0.9280 0.9280
2.187397 0.9250 0.9180 0.9100 0.9010 0.8930
2.220000 0.8850 0.8780 0.8760 0.8760 0.8760
2.253397 0.8760 0.8760 0.8760 0.8760 0.8760
2.287000 0.8780 0.8800 0.8810 0.8850 0.8860
2.320397 0.8880 0.8900 0.8900 0.8900 0.8900
2.354000 0.8910 0.8910 0.8910 0.8910 0.8930
2.387397 0.8950 0.8960 0.9000 0.9000 0.9000
2.421000 0.9010 0.9010 0.9030 0.9060 0.9100
2.454397 0.9150 0.9160 0.9180 0.9180 0.9180
2.487000 0.9180 0.9180 0.9180 0.9180 0.9180
2.520397 0.9180 0.9180 0.9180 0.9180 0.9160
2.554000 0.9160 0.9150 0.9150 0.9150 0.9150
2.587397 0.9150 0.9150 0.9150 0.9150 0.9160
2.621000 0.9160 0.9160 0.9180 0.9180 0.9180
2.654397 0.9180 0.9130 0.9100 0.9030 0.9000
2.688000 0.8950 0.8880 0.8830 0.8780 0.8730
2.721397 0.8680 0.8630 0.8580 0.8510 0.8450
2.754000 0.8360 0.8280 0.8160 0.8050 0.7900
2.787397 0.7750 0.7570 0.7350 0.7120 0.6970
2.821000 0.6800 0.6630 0.6470 0.6300 0.6150
2.854397 0.5990 0.5820 0.5670 0.5500 0.5350
2.888000 0.5190 0.5040 0.4900 0.4750 0.4620
2.921397 0.4470 0.4340 0.4220 0.4090 0.3960
2.955000 0.3820 0.3670 0.3540 0.3410 0.3270
2.988397 0.3140 0.3010 0.2960 0.2940 0.2940
3.021000 0.2960 0.3060 0.3110 0.3140 0.3240
3.054397 0.3340 0.3410 0.3490 0.3570 0.3660
3.088000 0.3760 0.3860 0.3960 0.4050 0.4170
3.121397 0.4290 0.4390 0.4500 0.4620 0.4720
3.155000 0.4840 0.4940 0.5020 0.5120 0.5200
3.188397 0.5270 0.5350 0.5400 0.5450 0.5490
3.222000 0.5500 0.5540 0.5570 0.5590 0.5590
3.255397 0.5570 0.5540 0.5490 0.5400 0.5290
3.289000 0.5100 0.4850 0.4540 0.4290 0.3990
3.322397 0.3620 0.2910 0.2060 0.1480 0.0930
3.355000 0.0390 0.0290 0.0290 0.0290 0.0330
3.388397 0.0340 0.0390 0.0410 0.0440 0.0490
3.422000 0.0540 0.0610 0.0640 0.0680 0.0710
3.455397 0.0830 0.1130 0.1660 0.2410 0.3120
3.489000 0.3860 0.4600 0.5450 0.6400 0.6600
3.522397 0.6800 0.7020 0.7220 0.7400 0.7570
3.556000 0.7700 0.7780 0.7880 0.7900 0.7950
3.589397 0.7970 0.7970 0.7980 0.8000 0.8000
3.622000 0.8010 0.8030 0.8050 0.8060 0.8060
3.655397 0.8100 0.8110 0.8150 0.8150 0.8150
3.689000 0.8150 0.8150 0.8150 0.8150 0.8160
3.722397 0.8200 0.8210 0.8210 0.8210 0.8210
3.756000 0.8250 0.8280 0.8300 0.8310 0.8350
3.789397 0.8380 0.8450 0.8500 0.8550 0.8560
3.823000 0.8580 0.8580 0.8600 0.8610 0.8610
3.856397 0.8630 0.8650 0.8650 0.8660 0.8660
3.889000 0.8680 0.8680 0.8680 0.8700 0.8710
3.922397 0.8730 0.8730 0.8730 0.8730 0.8710
3.956000 0.8710 0.8710 0.8710 0.8710 0.8710
3.989397 0.8710 0.8710 0.8700 0.8700 0.8700
4.023000 0.8700 0.8700 0.8700 0.8700 0.8700
4.056397 0.8710 0.8710 0.8730 0.8730 0.8710
4.090000 0.8700 0.8680 0.8650 0.8630 0.8610
4.123397 0.8610 0.8610 0.8610 0.8610 0.8610
4.156000 0.8600 0.8580 0.8550 0.8460 0.8450
4.189397 0.8410 0.8360 0.8350 0.8310 0.8300
4.223000 0.8300 0.8300 0.8300 0.8310 0.8380
4.256397 0.8410 0.8450 0.8460 0.8500 0.8550
4.290000 0.8600 0.8610 0.8630 0.8630 0.8650
4.323397 0.8650 0.8650 0.8650 0.8660 0.8680
4.357000 0.8710 0.8710 0.8730 0.8730 0.8750
4.390397 0.8760 0.8760 0.8780 0.8780 0.8780
4.423000 0.8780 0.8780 0.8780 0.8780 0.8780
4.456397 0.8780 0.8760 0.8760 0.8760 0.8760
4.490000 0.8750 0.8750 0.8730 0.8700 0.8700
4.523397 0.8700 0.8700 0.8750 0.8760 0.8780
4.557000 0.8810 0.8850 0.8860 0.8860 0.8880
4.590397 0.8880 0.8880 0.8880 0.8880 0.8860
4.624000 0.8860 0.8860 0.8860 0.8860 0.8860
4.657397 0.8880 0.8880 0.8880 0.8880 0.8880
4.691000 0.8880 0.8880 0.8880 0.8880 0.8900
4.724397 0.8930 0.8950 0.8950 0.8950 0.8950
4.757000 0.8950 0.8950 0.8950 0.8950 0.8950
4.790397 0.8950 0.8950 0.8950 0.8950 0.8950
4.824000 0.8950 0.8950 0.8960 0.8960 0.9000
4.857397 0.9000 0.9000 0.9000 0.9000 0.8980
4.891000 0.8980 0.8980 0.9000 0.9000 0.9010
4.924397 0.9010 0.9000 0.9000 0.9000 0.9000
4.958000 0.8980 0.8980 0.8960 0.8960 0.8950
4.991397 0.8950 0.8950 0.8950 0.8960 0.8960
5.024000 0.8980 0.8980 0.9000 0.9000 0.9000
5.057397 0.9000 0.9000 0.8980 0.8980 0.8960
5.091000 0.8950 0.8950 0.8930 0.8930 0.8910
5.124397 0.8900 0.8900 0.8900 0.8900 0.8880
5.158000 0.8880 0.8880 0.8860 0.8860 0.8850
5.191397 0.8850 0.8830 0.8810 0.8810 0.8810
5.225000 0.8810 0.8800 0.8800 0.8800 0.8780
5.258397 0.8760 0.8760 0.8750 0.8750 0.8730
5.291000 0.8710 0.8700 0.8680 0.8680 0.8680
5.324397 0.8660 0.8660 0.8650 0.8650 0.8650
5.358000 0.8650 0.8650 0.8650 0.8630 0.8610
5.391397 0.8600 0.8600 0.8560 0.8550 0.8510
5.425000 0.8510 0.8500 0.8480 0.8480 0.8460
5.458397 0.8410 0.8400 0.8380 0.8350 0.8310
5.492000 0.8280 0.8250 0.8210 0.8180 0.8150
5.525397 0.8100 0.8050 0.8010 0.8000 0.7980
5.558000 0.7970 0.7900 0.7870 0.7830 0.7770
5.591397 0.7730 0.7670 0.7550 0.7530 0.7500
5.625000 0.7480 0.7450 0.7400 0.7350 0.7280
5.658397 0.7230 0.7200 0.7130 0.7050 0.7000
5.692000 0.6930 0.6800 0.6730 0.6630 0.6530
5.725397 0.6400 0.6280 0.6130 0.5990 0.5790
5.759000 0.5620 0.5490 0.5400 0.5350 0.5340
5.792397 0.5320 0.5340 0.5440 0.5490 0.5550
5.825000 0.5650 0.5720 0.5770 0.5800 0.5820
5.858397 0.5850 0.5890 0.5900 0.5890 0.5890
5.892000 0.5870 0.5820 0.5770 0.5670 0.5550
5.925397 0.5440 0.5350 0.5200 0.5140 0.5020
5.959000 0.4900 0.4770 0.4640 0.4500 0.4340
5.992397 0.4150 0.4000 0.3520 0.3460 0.3310
6.026000 0.3090 0.2860 0.2610 0.2340 0.2120
6.059397 0.1940 0.1810 0.1710 0.1690 0.1590
6.093000 0.1490 0.1410 0.1360 0.1290 0.1260
6.126397 0.1210 0.1210 0.1210 0.1210 0.1240
6.159000 0.1290 0.1330 0.1340 0.1360 0.1390
6.192397 0.1440 0.1480 0.1530 0.1560 0.1630
6.226000 0.1710 0.1810 0.1940 0.2110 0.2290
6.259397 0.2460 0.2610 0.2820 0.2940 0.3060
6.293000 0.3310 0.3440 0.3620 0.3860 0.4090
6.326397 0.4320 0.4470 0.4620 0.4700 0.4770
6.360000 0.4840 0.4950 0.5100 0.5300 0.5490
6.393397 0.5620 0.5750 0.5890 0.5940 0.5970
6.426000 0.6000 0.6030 0.6080 0.6150 0.6230
6.459397 0.6330 0.6450 0.6520 0.6570 0.6580
6.493000 0.6580 0.6580 0.6580 0.6580 0.6580
6.526397 0.6600 0.6600 0.6600 0.6620 0.6650
6.560000 0.6680 0.6700 0.6730 0.6750 0.6800
6.593397 0.6850 0.6900 0.6920 0.6930 0.6930
6.627000 0.6950 0.6970 0.6970 0.6970 0.6930
6.660397 0.6900 0.6870 0.6800 0.6720 0.6620
6.693000 0.6500 0.6330 0.6100 0.6080 0.5900
6.726397 0.5640 0.5440 0.5190 0.4940 0.3790
6.760000 0.3570 0.3290 0.2870 0.2640 0.2410
6.793397 0.2040 0.1980 0.1910 0.1910 0.1890
6.827000 0.1890 0.1910 0.1960 0.2010 0.2040
6.860397 0.2120 0.2170 0.2190 0.2210 0.2210
6.894000 0.2210 0.2140 0.2120 0.2060 0.1990
6.927397 0.1960 0.1890 0.1880 0.1840 0.1810
6.960000 0.1780 0.1730 0.1640 0.1580 0.1490
6.993397 0.1490 0.1490 0.1510 0.1660 0.1990
7.027000 0.2240 0.2490 0.2810 0.2990 0.3110
7.060397 0.3290 0.3610 0.3890 0.4090 0.4350
7.094000 0.4490 0.4650 0.4820 0.4970 0.5090
7.127397 0.5290 0.5370 0.5400 0.5400 0.5390
7.161000 0.5300 0.5220 0.5000 0.4840 0.4620
7.194397 0.4420 0.4140 0.3990 0.3860 0.3790
7.227000 0.3760 0.3760 0.3770 0.3920 0.4190
7.260397 0.4490 0.4790 0.4950 0.5070 0.5290
7.294000 0.5540 0.5740 0.5990 0.6130 0.6250
7.327397 0.6370 0.6430 0.6500 0.6530 0.6570
7.361000 0.6570 0.6580 0.6580 0.6580 0.6600
7.394397 0.6680 0.6730 0.6770 0.6820 0.6830
7.428000 0.6850 0.6880 0.6950 0.7000 0.7070
7.461397 0.7080 0.7080 0.7080 0.7080 0.7080
7.495000 0.7070 0.7000 0.6730 0.6700 0.6530
7.528397 0.6330 0.6080 0.5740 0.5500 0.5300
7.561000 0.5090 0.4690 0.4300 0.4090 0.3510
7.594397 0.3010 0.2690 0.2360 0.2190 0.2160
7.628000 0.2160 0.2190 0.2540 0.2910 0.3290
7.661397 0.3690 0.4090 0.4470 0.4800 0.5120
7.695000 0.5350 0.5520 0.5650 0.5770 0.5890
7.728397 0.6000 0.6130 0.6280 0.6420 0.6500
7.762000 0.6580 0.6630 0.6680 0.6720 0.6770
7.795397 0.6800 0.6830 0.6850 0.6880 0.6920
7.828000 0.6950 0.6980 0.7020 0.7030 0.7030
7.861397 0.7050 0.7050 0.7070 0.7070 0.7080
7.895000 0.7080 0.7070 0.7030 0.6950 0.6850
7.928397 0.6770 0.6680 0.6620 0.6500 0.6480
7.962000 0.6450 0.6450 0.6480 0.6670 0.6770
7.995397 0.6900 0.7080 0.7230 0.7370 0.7400
8.029000 0.7450 0.7480 0.7500 0.7500 0.7500
8.062397 0.7480 0.7480 0.7470 0.7420 0.7400
8.095000 0.7400 0.7400 0.7400 0.7480 0.7550
8.128397 0.7650 0.7680 0.7730 0.7750 0.7750
8.162000 0.7770 0.7770 0.7780 0.7780 0.7780
8.195397 0.7800 0.7800 0.7800 0.7820 0.7820
8.229000 0.7830 0.7830 0.7830 0.7830 0.7830
8.262397 0.7820 0.7800 0.7800 0.7800 0.7800
8.296000 0.7800 0.7800 0.7800 0.7800 0.7800
8.329397 0.7780 0.7780 0.7770 0.7770 0.7730
8.362000 0.7700 0.7680 0.7670 0.7650 0.7650
8.395397 0.7630 0.7600 0.7580 0.7570 0.7520
8.429000 0.7480 0.7420 0.7380 0.7350 0.7300
8.462397 0.7220 0.7170 0.7080 0.7000 0.6930
8.496000 0.6800 0.6770 0.6650 0.6550 0.6450
8.529397 0.6370 0.6250 0.6150 0.6070 0.5970
8.563000 0.5870 0.5720 0.5540 0.5440 0.5250
8.596397 0.5040 0.4720 0.4440 0.4350 0.4200
8.629000 0.3940 0.3640 0.3340 0.3110 0.2960
8.662397 0.2740 0.2610 0.2460 0.2370 0.2270
8.696000 0.2210 0.2210 0.2220 0.2320 0.2410
8.729397 0.2590 0.2690 0.2760 0.2910 0.3210
8.763000 0.3270 0.3470 0.3570 0.3670 0.3790
8.796397 0.4000 0.4340 0.4500 0.4640 0.4720
8.830000 0.4890 0.5040 0.5190 0.5320 0.5450
8.863397 0.5550 0.5690 0.5790 0.5870 0.5900
8.897000 0.5950 0.6050 0.6150 0.6200 0.6280
8.930397 0.6320 0.6400 0.6470 0.6520 0.6580
8.963000 0.6630 0.6680 0.6720 0.6720 0.6830
8.996397 0.6900 0.6970 0.7020 0.7070 0.7100
9.030000 0.7150 0.7180 0.7230 0.7270 0.7300
9.063397 0.7380 0.7400 0.7430 0.7480 0.7500
9.097000 0.7530 0.7570 0.7580 0.7600 0.7620
9.130397 0.7630 0.7670 0.7680 0.7700 0.7700
9.164000 0.7730 0.7730 0.7750 0.7750 0.7750
9.197397 0.7750 0.7750 0.7750 0.7730 0.7730
9.230000 0.7730 0.7720 0.7700 0.7600 0.7580
9.263397 0.7530 0.7480 0.7400 0.7280 0.7150
9.297000 0.7020 0.6800 0.6530 0.6320 0.6080
9.330397 0.5900 0.5690 0.5520 0.5320 0.5090
9.364000 0.4940 0.4690 0.4650 0.4650 0.4690
9.397397 0.4750 0.4870 0.4990 0.5490 0.5550
9.431000 0.5950 0.6100 0.6280 0.6450 0.6630
9.464397 0.6770 0.6850 0.6950 0.7000 0.7120
9.497000 0.7200 0.7270 0.7370 0.7400 0.7450
9.530397 0.7480 0.7500 0.7500 0.7500 0.7480
9.564000 0.7380 0.7320 0.7250 0.7180 0.7120
9.597397 0.7050 0.6980 0.6920 0.6900 0.6900
9.631000 0.6920 0.6950 0.6980 0.7020 0.7080
9.664397 0.7130 0.7220 0.7300 0.7370 0.7480
9.698000 0.7580 0.7630 0.7680 0.7720 0.7750
9.731397 0.7780 0.7800 0.7820 0.7830 0.7850
9.764000 0.7870 0.7880 0.7900 0.7900 0.7920
9.797397 0.7930 0.7930 0.7930 0.7930 0.7930
9.831000 0.7920 0.7920 0.7920 0.7920 0.7920
9.864397 0.7900 0.7900 0.7900 0.7920 0.7920
9.898000 0.7950 0.7970 0.7980 0.8000 0.8000
9.931397 0.8000 0.7980 0.7980 0.7980 0.7980
9.965000 0.7980 0.7980 0.7980 0.7980 0.7980
9.998397 0.8000 0.7980 0.7980 0.7980 0.7970
10.031000 0.7970 0.7970 0.7970 0.7950 0.7950
10.064397 0.7950 0.7950 0.7950 0.7950 0.7950
10.098000 0.7950 0.7950 0.7950 0.7950 0.7950
10.131397 0.7930 0.7920 0.7880 0.7880 0.7870
10.165000 0.7850 0.7830 0.7830 0.7830 0.7830
10.198397 0.7820 0.7800 0.7800 0.7780 0.7770
10.232000 0.7770 0.7770 0.7770 0.7770 0.7770
10.265397 0.7770 0.7770 0.7750 0.7750 0.7730
10.299000 0.7730 0.7720 0.7720 0.7720 0.7720
10.332397 0.7720 0.7730 0.7730 0.7730 0.7750
10.365000 0.7750 0.7770 0.7770 0.7770 0.7750
10.398397 0.7730 0.7720 0.7720 0.7700 0.7700
10.432000 0.7680 0.7680 0.7680 0.7680 0.7700
10.465397 0.7730 0.7770 0.7770 0.7780 0.7780
10.499000 0.7800 0.7800 0.7800 0.7820 0.7830
10.532397 0.7870 0.7870 0.7870 0.7870 0.7870
10.566000 0.7880 0.7880 0.7900 0.7900 0.7900
10.599397 0.7900 0.7870 0.7870 0.7850 0.7850
10.632000 0.7830 0.7820 0.7780 0.7770 0.7720
10.665397 0.7680 0.7600 0.7530 0.7450 0.7350
10.699000 0.7270 0.7170 0.7070 0.6950 0.6850
10.732397 0.6770 0.6680 0.6600 0.6550 0.6520
10.766000 0.6500 0.6500 0.6500 0.6520 0.6620
10.799397 0.6730 0.6830 0.6920 0.6980 0.7050
10.833000 0.7120 0.7170 0.7200 0.7250 0.7300
10.866397 0.7350 0.7400 0.7450 0.7480 0.7500
10.899000 0.7530 0.7580 0.7600 0.7630 0.7670
10.932397 0.7680 0.7700 0.7720 0.7730 0.7750
10.966000 0.7750 0.7750 0.7750 0.7750 0.7750
10.999397 0.7750 0.7750 0.7720 0.7720 0.7720
11.033000 0.7720 0.7720 0.7720 0.7720 0.7730
11.066397 0.7730 0.7730 0.7730 0.7730 0.7730
11.100000 0.7730 0.7730 0.7730 0.7720 0.7720
11.133397 0.7700 0.7700 0.7700 0.7700 0.7700
11.166000 0.7700 0.7700 0.7700 0.7700 0.7680
11.199397 0.7680 0.7680 0.7680 0.7680 0.7700
11.233000 0.7700 0.7700 0.7700 0.7720 0.7720
11.266397 0.7720 0.7720 0.7730 0.7730 0.7750
11.300000 0.7750 0.7750 0.7750 0.7770 0.7770
11.333397 0.7770 0.7770 0.7780 0.7780 0.7780
11.367000 0.7780 0.7780 0.7780 0.7780 0.7780
11.400397 0.7780 0.7780 0.7780 0.7780 0.7780
11.433000 0.7780 0.7780 0.7780 0.7780 0.7770
11.466397 0.7770 0.7750 0.7730 0.7730 0.7720
11.500000 0.7700 0.7700 0.7700 0.7700 0.7700
11.533397 0.7700 0.7700 0.7680 0.7680 0.7680
11.567000 0.7670 0.7670 0.7650 0.7650 0.7650
11.600397 0.7650 0.7650 0.7650 0.7650 0.7650
11.634000 0.7650 0.7630 0.7630 0.7620 0.7600
11.667397 0.7600 0.7580 0.7580 0.7570 0.7570
11.701000 0.7570 0.7570 0.7550 0.7530 0.7530
11.734397 0.7530 0.7520 0.7520 0.7500 0.7500
11.767000 0.7500 0.7500 0.7480 0.7480 0.7480
11.800397 0.7470 0.7470 0.7470 0.7450 0.7450
11.834000 0.7450 0.7430 0.7430 0.7430 0.7420
11.867397 0.7420 0.7420 0.7420 0.7420 0.7400
11.901000 0.7400 0.7400 0.7380 0.7380 0.7370
11.934397 0.7370 0.7350 0.7350 0.7330 0.7330
11.968000 0.7320 0.7320 0.7300 0.7280 0.7270
12.001397 0.7230 0.7200 0.7180 0.7180 0.7170
12.034000 0.7170 0.7170 0.7170 0.7150 0.7120
12.067397 0.7100 0.7100 0.7080 0.7080 0.7070
12.101000 0.7050 0.7020 0.7000 0.7000 0.6980
12.134397 0.6980 0.6950 0.6930 0.6900 0.6880
12.168000 0.6870 0.6820 0.6800 0.6800 0.6780
12.201397 0.6770 0.6750 0.6720 0.6700 0.6700
12.235000 0.6680 0.6670 0.6670 0.6650 0.6620
12.268397 0.6600 0.6570 0.6570 0.6520 0.6500
12.301000 0.6470 0.6470 0.6430 0.6400 0.6380
12.334397 0.6370 0.6370 0.6320 0.6300 0.6270
12.368000 0.6220 0.6180 0.6170 0.6150 0.6120
12.401397 0.6050 0.6020 0.5990 0.5950 0.5920
12.435000 0.5890 0.5870 0.5850 0.5800 0.5790
12.468397 0.5770 0.5740 0.5700 0.5670 0.5620
12.502000 0.5590 0.5550 0.5500 0.5490 0.5470
12.535397 0.5450 0.5400 0.5370 0.5320 0.5290
12.568000 0.5250 0.5190 0.5150 0.5150 0.5140
12.601397 0.5100 0.5070 0.5040 0.4990 0.4970
12.635000 0.4950 0.4940 0.4890 0.4870 0.4850
12.668397 0.4840 0.4820 0.4800 0.4790 0.4770
12.702000 0.4750 0.4740 0.4720 0.4700 0.4700
12.735397 0.4700 0.4700 0.4690 0.4690 0.4670
12.769000 0.4670 0.4650 0.4650 0.4640 0.4640
12.802397 0.4640 0.4640 0.4640 0.4620 0.4620
12.835000 0.4620 0.4620 0.4620 0.4620 0.4620
12.868397 0.4620 0.4620 0.4640 0.4640 0.4650
12.902000 0.4650 0.4670 0.4670 0.4690 0.4690
12.935397 0.4700 0.4700 0.4700 0.4720 0.4720
12.969000 0.4740 0.4740 0.4750 0.4770 0.4770
13.002397 0.4790 0.4800 0.4800 0.4820 0.4820
13.036000 0.4820 0.4820 0.4840 0.4850 0.4870
13.069397 0.4890 0.4890 0.4890 0.4890 0.4890
13.103000 0.4890 0.4890 0.4900 0.4920 0.4920
13.136397 0.4920 0.4940 0.4940 0.4940 0.4940
13.169000 0.4940 0.4920 0.4920 0.4920 0.4920
13.202397 0.4920 0.4940 0.4940 0.4940 0.4940
13.236000 0.4940 0.4920 0.4920 0.4920 0.4900
13.269397 0.4900 0.4890 0.4890 0.4870 0.4870
13.303000 0.4840 0.4840 0.4820 0.4800 0.4800
13.336397 0.4800 0.4800 0.4790 0.4790 0.4770
13.370000 0.4770 0.4770 0.4750 0.4720 0.4720
13.403397 0.4690 0.4670 0.4640 0.4620 0.4600
13.436000 0.4600 0.4590 0.4570 0.4570 0.4550
13.469397 0.4520 0.4500 0.4470 0.4470 0.4450
13.503000 0.4440 0.4400 0.4390 0.4370 0.4350
13.536397 0.4300 0.4290 0.4250 0.4250 0.4200
13.570000 0.4170 0.4150 0.4120 0.4090 0.4050
13.603397 0.4020 0.3990 0.3960 0.3910 0.3870
13.637000 0.3870 0.3840 0.3810 0.3770 0.3760
13.670397 0.3740 0.3670 0.3620 0.3610 0.3590
13.703000 0.3570 0.3560 0.3560 0.3540 0.3540
13.736397 0.3540 0.3540 0.3540 0.3560 0.3570
13.770000 0.3590 0.3610 0.3640 0.3640 0.3710
13.803397 0.3760 0.3790 0.3820 0.3840 0.3860
13.837000 0.3920 0.3940 0.3970 0.4000 0.4000
13.870397 0.4020 0.4050 0.4140 0.4190 0.4240
13.904000 0.4300 0.4350 0.4400 0.4440 0.4490
13.937397 0.4520 0.4540 0.4570 0.4600 0.4640
13.970000 0.4670 0.4690 0.4720 0.4740 0.4770
14.003397 0.4790 0.4820 0.4840 0.4840 0.4850
14.037000 0.4850 0.4870 0.4890 0.4900 0.4920
14.070397 0.4940 0.4940 0.4950 0.4950 0.4950
14.104000 0.4950 0.4950 0.4950 0.4950 0.4950
14.137397 0.4950 0.4950 0.4950 0.4950 0.4950
14.171000 0.4950 0.4950 0.4950 0.4950 0.4950
14.204397 0.4950 0.4940 0.4940 0.4940 0.4950
14.237000 0.4950 0.4950 0.4950 0.4950 0.4950
14.270397 0.4950 0.4940 0.4940 0.4940 0.4920
14.304000 0.4920 0.4900 0.4900 0.4890 0.4890
14.337397 0.4890 0.4890 0.4890 0.4890 0.4890
14.371000 0.4890 0.4870 0.4870 0.4850 0.4850
14.404397 0.4840 0.4840 0.4820 0.4820 0.4800
14.438000 0.4800 0.4790 0.4790 0.4770 0.4750
14.471397 0.4750 0.4740 0.4720 0.4700 0.4690
14.505000 0.4670 0.4670 0.4650 0.4640 0.4600
14.538397 0.4590 0.4570 0.4550 0.4550 0.4540
14.571000 0.4540 0.4520 0.4520 0.4500 0.4500
14.604397 0.4490 0.4470 0.4450 0.4440 0.4440
14.638000 0.4420 0.4420 0.4420 0.4420 0.4420
14.671397 0.4420 0.4390 0.4390 0.4370 0.4350
14.705000 0.4340 0.4320 0.4320 0.4300 0.4290
14.738397 0.4290 0.4270 0.4270 0.4270 0.4270
14.772000 0.4270 0.4270 0.4270 0.4270 0.4250
14.805397 0.4240 0.4200 0.4170 0.4170 0.4150
14.838000 0.4150 0.4140 0.4140 0.4120 0.4120
14.871397 0.4100 0.4090 0.4070 0.4050 0.4050
14.905000 0.4040 0.4020 0.4020 0.4000 0.4000
14.938397 0.3990 0.3970 0.3970 0.3960 0.3940
14.972000 0.3920 0.3910 0.3910 0.3890 0.3890
15.005397 0.3870 0.3870 0.3860 0.3860 0.3860
15.039000 0.3840 0.3840 0.3820 0.3820 0.3810
15.072397 0.3810 0.3790 0.3770 0.3770 0.3760
15.105000 0.3740 0.3740 0.3720 0.3720 0.3720
15.138397 0.3710 0.3710 0.3710 0.3690 0.3690
15.172000 0.3670 0.3660 0.3660 0.3640 0.3620
15.205397 0.3620 0.3590 0.3570 0.3540 0.3540
15.239000 0.3520 0.3490 0.3470 0.3460 0.3420
15.272397 0.3410 0.3390 0.3370 0.3370 0.3360
15.306000 0.3360 0.3320 0.3310 0.3290 0.3270
15.339397 0.3260 0.3260 0.3220 0.3210 0.3170
15.372000 0.3170 0.3160 0.3140 0.3120 0.3120
15.405397 0.3110 0.3070 0.3040 0.3010 0.2990
15.439000 0.2990 0.2970 0.2940 0.2940 0.2910
15.472397 0.2910 0.2890 0.2870 0.2870 0.2860
15.506000 0.2840 0.2820 0.2820 0.2810 0.2790
15.539397 0.2790 0.2770 0.2740 0.2710 0.2690
15.573000 0.2660 0.2660 0.2640 0.2620 0.2610
15.606397 0.2590 0.2590 0.2590 0.2590 0.2570
15.639000 0.2560 0.2560 0.2540 0.2510 0.2510
15.672397 0.2490 0.2470 0.2460 0.2440 0.2440
15.706000 0.2440 0.2440 0.2440 0.2440 0.2440
15.739397 0.2420 0.2420 0.2410 0.2390 0.2390
15.773000 0.2390 0.2390 0.2390 0.2390 0.2390
15.806397 0.2390 0.2390 0.2390 0.2390 0.2390
15.840000 0.2390 0.2390 0.2370 0.2370 0.2370
15.873397 0.2370 0.2360 0.2360 0.2360 0.2360
15.907000 0.2360 0.2360
##END=
