##TITLE=CHLOROFORM, DEUTERO-
##JCAMP-DX=4.24
$$ By DXEDIT 1.05 (RS McDonald)
##DATA TYPE=INFRARED SPECTRUM
##CLASS=COBLENTZ III
##ORIGIN=DOW CHEMICAL COMPANY
##OWNER=COPYRIGHT (C) 1988 by COBLENTZ SOCIETY INC.
Collection (C) 2018 copyright by the U.S. Secretary of Commerce
on behalf of the United States of America. All rights reserved.
##DATE=1960/02/17
##MOLFORM=C Cl3 D
##SOURCE REFERENCE=COBLENTZ NO. 7499
##$NIST ID=B6007499
##$NIST SOURCE=COBLENTZ
##$NIST IMAGE=cob7499
##SPECTROMETER/DATA SYSTEM=DOW KBr FOREPRISM-GRATING
##INSTRUMENT PARAMETERS=BLAZED AT 3.5, 12.0, 20.0 MICRON AND CHANGED AT 5.0, 7.5, 14.9 MICRON
##STATE=SOLUTION (5% CCl4 FOR 3800-1330, 5% CS2 FOR 1330-420 CM^-^1)
##PATH LENGTH=0.011 CM, 0.011 CM
$$SPECTRAL CONTAMINATION DUE TO CS2 AROUND 850 AND CCl4 AROUND 1550 CM^-^1 HAVE BEEN SUBTRACTED
##RESOLUTION=2
##DATA PROCESSING=DIGITIZED BY COBLENTZ SOCIETY (BATCH I) FROM HARD COPY
##XUNITS=1/CM
##YUNITS=TRANSMITTANCE
##XFACTOR=1
##YFACTOR=1
##DELTAX=1
##FIRSTX=3756
##LASTX=409
##FIRSTY=0.9327
##MAXX=3756
##MINX=409
##MAXY=0.9533
##MINY=0
##NPOINTS=3348
##XYDATA=(X++(Y..Y))
3756.000000 0.9327 0.9326 0.9324 0.9322 0.9320
3751.000000 0.9316 0.9315 0.9313 0.9311 0.9309
3746.000000 0.9305 0.9304 0.9302 0.9300 0.9298
3741.000000 0.9295 0.9293 0.9295 0.9306 0.9304
3736.000000 0.9301 0.9299 0.9289 0.9278 0.9285
3731.000000 0.9290 0.9288 0.9287 0.9287 0.9285
3726.000000 0.9285 0.9284 0.9284 0.9283 0.9283
3721.000000 0.9282 0.9282 0.9263 0.9264 0.9279
3716.000000 0.9277 0.9277 0.9276 0.9275 0.9277
3711.000000 0.9284 0.9278 0.9293 0.9297 0.9301
3706.000000 0.9306 0.9310 0.9314 0.9318 0.9323
3701.000000 0.9327 0.9332 0.9336 0.9342 0.9346
3696.000000 0.9335 0.9337 0.9342 0.9345 0.9344
3691.000000 0.9344 0.9339 0.9332 0.9329 0.9320
3686.000000 0.9302 0.9297 0.9293 0.9287 0.9283
3681.000000 0.9280 0.9278 0.9277 0.9277 0.9277
3676.000000 0.9277 0.9276 0.9276 0.9275 0.9275
3671.000000 0.9274 0.9288 0.9275 0.9272 0.9271
3666.000000 0.9271 0.9271 0.9271 0.9271 0.9271
3661.000000 0.9271 0.9271 0.9271 0.9271 0.9271
3656.000000 0.9271 0.9271 0.9271 0.9271 0.9271
3651.000000 0.9271 0.9271 0.9271 0.9271 0.9270
3646.000000 0.9270 0.9269 0.9269 0.9268 0.9268
3641.000000 0.9267 0.9266 0.9265 0.9265 0.9263
3636.000000 0.9261 0.9261 0.9261 0.9265 0.9279
3631.000000 0.9279 0.9275 0.9264 0.9272 0.9284
3626.000000 0.9285 0.9286 0.9287 0.9288 0.9290
3621.000000 0.9291 0.9292 0.9293 0.9295 0.9296
3616.000000 0.9298 0.9299 0.9302 0.9303 0.9305
3611.000000 0.9306 0.9307 0.9306 0.9293 0.9310
3606.000000 0.9311 0.9312 0.9313 0.9309 0.9304
3601.000000 0.9315 0.9309 0.9300 0.9309 0.9319
3596.000000 0.9320 0.9320 0.9322 0.9322 0.9322
3591.000000 0.9320 0.9320 0.9319 0.9318 0.9316
3586.000000 0.9315 0.9314 0.9313 0.9311 0.9309
3581.000000 0.9308 0.9307 0.9306 0.9305 0.9305
3576.000000 0.9300 0.9294 0.9305 0.9305 0.9299
3571.000000 0.9289 0.9289 0.9290 0.9292 0.9294
3566.000000 0.9297 0.9299 0.9301 0.9302 0.9306
3561.000000 0.9309 0.9310 0.9313 0.9316 0.9318
3556.000000 0.9321 0.9337 0.9322 0.9325 0.9341
3551.000000 0.9341 0.9337 0.9329 0.9343 0.9343
3546.000000 0.9343 0.9335 0.9335 0.9344 0.9345
3541.000000 0.9345 0.9335 0.9340 0.9334 0.9339
3536.000000 0.9343 0.9340 0.9339 0.9337 0.9336
3531.000000 0.9335 0.9334 0.9314 0.9312 0.9311
3526.000000 0.9309 0.9308 0.9307 0.9305 0.9304
3521.000000 0.9302 0.9302 0.9301 0.9301 0.9299
3516.000000 0.9298 0.9297 0.9297 0.9296 0.9296
3511.000000 0.9295 0.9294 0.9293 0.9293 0.9292
3506.000000 0.9292 0.9291 0.9291 0.9290 0.9289
3501.000000 0.9288 0.9288 0.9287 0.9287 0.9285
3496.000000 0.9285 0.9284 0.9283 0.9282 0.9282
3491.000000 0.9281 0.9281 0.9280 0.9279 0.9278
3486.000000 0.9278 0.9277 0.9277 0.9276 0.9276
3481.000000 0.9275 0.9274 0.9274 0.9274 0.9274
3476.000000 0.9275 0.9275 0.9276 0.9276 0.9277
3471.000000 0.9278 0.9279 0.9279 0.9280 0.9280
3466.000000 0.9281 0.9281 0.9282 0.9282 0.9283
3461.000000 0.9283 0.9284 0.9285 0.9286 0.9286
3456.000000 0.9287 0.9287 0.9288 0.9288 0.9289
3451.000000 0.9289 0.9290 0.9290 0.9291 0.9292
3446.000000 0.9293 0.9293 0.9294 0.9294 0.9294
3441.000000 0.9294 0.9295 0.9295 0.9296 0.9296
3436.000000 0.9297 0.9297 0.9298 0.9298 0.9299
3431.000000 0.9299 0.9300 0.9300 0.9300 0.9300
3426.000000 0.9302 0.9287 0.9301 0.9303 0.9303
3421.000000 0.9303 0.9303 0.9303 0.9305 0.9305
3416.000000 0.9306 0.9306 0.9307 0.9307 0.9307
3411.000000 0.9307 0.9309 0.9309 0.9310 0.9319
3406.000000 0.9318 0.9310 0.9310 0.9310 0.9310
3401.000000 0.9310 0.9310 0.9310 0.9310 0.9309
3396.000000 0.9309 0.9309 0.9309 0.9307 0.9307
3391.000000 0.9307 0.9307 0.9307 0.9307 0.9307
3386.000000 0.9307 0.9307 0.9307 0.9307 0.9307
3381.000000 0.9306 0.9306 0.9306 0.9306 0.9305
3376.000000 0.9305 0.9305 0.9305 0.9305 0.9305
3371.000000 0.9302 0.9318 0.9304 0.9302 0.9302
3366.000000 0.9302 0.9302 0.9304 0.9304 0.9305
3361.000000 0.9306 0.9306 0.9306 0.9308 0.9308
3356.000000 0.9310 0.9310 0.9309 0.9309 0.9312
3351.000000 0.9313 0.9314 0.9314 0.9315 0.9315
3346.000000 0.9316 0.9330 0.9334 0.9319 0.9334
3341.000000 0.9320 0.9320 0.9320 0.9338 0.9338
3336.000000 0.9337 0.9322 0.9323 0.9323 0.9324
3331.000000 0.9325 0.9326 0.9326 0.9327 0.9327
3326.000000 0.9328 0.9328 0.9329 0.9329 0.9330
3321.000000 0.9330 0.9331 0.9331 0.9331 0.9331
3316.000000 0.9332 0.9332 0.9333 0.9333 0.9352
3311.000000 0.9352 0.9352 0.9351 0.9350 0.9339
3306.000000 0.9354 0.9354 0.9349 0.9337 0.9338
3301.000000 0.9338 0.9338 0.9338 0.9339 0.9339
3296.000000 0.9340 0.9340 0.9341 0.9341 0.9341
3291.000000 0.9341 0.9342 0.9342 0.9343 0.9343
3286.000000 0.9344 0.9344 0.9345 0.9362 0.9361
3281.000000 0.9345 0.9350 0.9364 0.9360 0.9347
3276.000000 0.9353 0.9365 0.9366 0.9366 0.9367
3271.000000 0.9367 0.9367 0.9367 0.9368 0.9368
3266.000000 0.9368 0.9368 0.9368 0.9368 0.9368
3261.000000 0.9368 0.9370 0.9370 0.9370 0.9369
3256.000000 0.9355 0.9371 0.9371 0.9371 0.9371
3251.000000 0.9371 0.9371 0.9371 0.9371 0.9371
3246.000000 0.9373 0.9364 0.9364 0.9373 0.9374
3241.000000 0.9374 0.9374 0.9374 0.9375 0.9375
3236.000000 0.9375 0.9375 0.9375 0.9375 0.9375
3231.000000 0.9374 0.9377 0.9377 0.9377 0.9374
3226.000000 0.9360 0.9364 0.9378 0.9378 0.9378
3221.000000 0.9378 0.9377 0.9377 0.9377 0.9377
3216.000000 0.9380 0.9380 0.9379 0.9379 0.9381
3211.000000 0.9381 0.9380 0.9380 0.9366 0.9363
3206.000000 0.9364 0.9364 0.9364 0.9364 0.9365
3201.000000 0.9365 0.9367 0.9379 0.9369 0.9378
3196.000000 0.9371 0.9383 0.9383 0.9382 0.9382
3191.000000 0.9381 0.9372 0.9372 0.9380 0.9379
3186.000000 0.9365 0.9359 0.9359 0.9358 0.9358
3181.000000 0.9356 0.9356 0.9356 0.9356 0.9355
3176.000000 0.9354 0.9352 0.9352 0.9352 0.9352
3171.000000 0.9351 0.9351 0.9349 0.9349 0.9349
3166.000000 0.9349 0.9348 0.9355 0.9360 0.9347
3161.000000 0.9345 0.9349 0.9346 0.9331 0.9334
3156.000000 0.9322 0.9314 0.9325 0.9324 0.9319
3151.000000 0.9315 0.9311 0.9307 0.9287 0.9288
3146.000000 0.9289 0.9290 0.9292 0.9294 0.9295
3141.000000 0.9304 0.9318 0.9320 0.9322 0.9323
3136.000000 0.9326 0.9328 0.9329 0.9329 0.9330
3131.000000 0.9330 0.9331 0.9331 0.9332 0.9333
3126.000000 0.9334 0.9334 0.9335 0.9335 0.9336
3121.000000 0.9336 0.9337 0.9337 0.9338 0.9338
3116.000000 0.9338 0.9338 0.9339 0.9339 0.9340
3111.000000 0.9340 0.9341 0.9341 0.9341 0.9351
3106.000000 0.9359 0.9359 0.9360 0.9360 0.9360
3101.000000 0.9360 0.9374 0.9375 0.9373 0.9390
3096.000000 0.9408 0.9425 0.9425 0.9425 0.9423
3091.000000 0.9407 0.9404 0.9385 0.9370 0.9373
3086.000000 0.9378 0.9358 0.9346 0.9344 0.9343
3081.000000 0.9340 0.9340 0.9339 0.9348 0.9364
3076.000000 0.9366 0.9364 0.9376 0.9378 0.9363
3071.000000 0.9360 0.9360 0.9342 0.9359 0.9341
3066.000000 0.9341 0.9340 0.9337 0.9322 0.9321
3061.000000 0.9320 0.9326 0.9337 0.9337 0.9329
3056.000000 0.9318 0.9326 0.9326 0.9316 0.9316
3051.000000 0.9326 0.9332 0.9331 0.9331 0.9330
3046.000000 0.9344 0.9347 0.9362 0.9379 0.9397
3041.000000 0.9414 0.9432 0.9431 0.9431 0.9427
3036.000000 0.9409 0.9394 0.9389 0.9370 0.9356
3031.000000 0.9355 0.9348 0.9337 0.9337 0.9327
3026.000000 0.9317 0.9316 0.9316 0.9315 0.9314
3021.000000 0.9313 0.9313 0.9326 0.9329 0.9328
3016.000000 0.9311 0.9308 0.9308 0.9307 0.9306
3011.000000 0.9305 0.9305 0.9303 0.9299 0.9286
3006.000000 0.9290 0.9300 0.9300 0.9293 0.9281
3001.000000 0.9280 0.9289 0.9286 0.9278 0.9278
2996.000000 0.9277 0.9275 0.9275 0.9288 0.9291
2991.000000 0.9290 0.9289 0.9288 0.9288 0.9287
2986.000000 0.9286 0.9286 0.9287 0.9287 0.9288
2981.000000 0.9289 0.9294 0.9307 0.9303 0.9297
2976.000000 0.9309 0.9309 0.9309 0.9309 0.9311
2971.000000 0.9311 0.9312 0.9324 0.9332 0.9332
2966.000000 0.9333 0.9333 0.9334 0.9334 0.9334
2961.000000 0.9334 0.9336 0.9355 0.9354 0.9337
2956.000000 0.9339 0.9339 0.9344 0.9358 0.9359
2951.000000 0.9360 0.9361 0.9361 0.9362 0.9354
2946.000000 0.9345 0.9346 0.9357 0.9354 0.9360
2941.000000 0.9354 0.9362 0.9368 0.9369 0.9369
2936.000000 0.9370 0.9354 0.9354 0.9354 0.9354
2931.000000 0.9354 0.9355 0.9355 0.9356 0.9356
2926.000000 0.9356 0.9356 0.9357 0.9357 0.9351
2921.000000 0.9340 0.9340 0.9340 0.9341 0.9341
2916.000000 0.9342 0.9342 0.9342 0.9342 0.9343
2911.000000 0.9343 0.9344 0.9344 0.9360 0.9362
2906.000000 0.9345 0.9343 0.9343 0.9343 0.9343
2901.000000 0.9342 0.9342 0.9342 0.9342 0.9341
2896.000000 0.9341 0.9340 0.9340 0.9340 0.9340
2891.000000 0.9339 0.9339 0.9339 0.9339 0.9338
2886.000000 0.9338 0.9336 0.9336 0.9336 0.9336
2881.000000 0.9335 0.9335 0.9335 0.9335 0.9317
2876.000000 0.9334 0.9333 0.9333 0.9333 0.9333
2871.000000 0.9333 0.9333 0.9333 0.9333 0.9333
2866.000000 0.9333 0.9333 0.9333 0.9333 0.9333
2861.000000 0.9333 0.9333 0.9333 0.9334 0.9334
2856.000000 0.9334 0.9334 0.9318 0.9316 0.9316
2851.000000 0.9316 0.9316 0.9316 0.9316 0.9319
2846.000000 0.9334 0.9334 0.9329 0.9321 0.9334
2841.000000 0.9334 0.9327 0.9324 0.9334 0.9334
2836.000000 0.9324 0.9316 0.9316 0.9315 0.9315
2831.000000 0.9315 0.9315 0.9329 0.9318 0.9330
2826.000000 0.9332 0.9316 0.9315 0.9332 0.9316
2821.000000 0.9332 0.9332 0.9329 0.9315 0.9315
2816.000000 0.9315 0.9315 0.9315 0.9315 0.9315
2811.000000 0.9315 0.9315 0.9315 0.9325 0.9332
2806.000000 0.9332 0.9331 0.9331 0.9331 0.9331
2801.000000 0.9331 0.9331 0.9331 0.9331 0.9331
2796.000000 0.9331 0.9331 0.9331 0.9331 0.9328
2791.000000 0.9317 0.9326 0.9312 0.9312 0.9311
2786.000000 0.9311 0.9318 0.9328 0.9319 0.9310
2781.000000 0.9320 0.9327 0.9326 0.9326 0.9326
2776.000000 0.9326 0.9325 0.9325 0.9324 0.9324
2771.000000 0.9324 0.9324 0.9323 0.9323 0.9323
2766.000000 0.9323 0.9322 0.9322 0.9321 0.9321
2761.000000 0.9321 0.9321 0.9320 0.9319 0.9319
2756.000000 0.9319 0.9318 0.9318 0.9316 0.9316
2751.000000 0.9316 0.9316 0.9315 0.9315 0.9313
2746.000000 0.9313 0.9313 0.9313 0.9312 0.9312
2741.000000 0.9311 0.9311 0.9309 0.9309 0.9309
2736.000000 0.9307 0.9305 0.9305 0.9305 0.9305
2731.000000 0.9304 0.9304 0.9303 0.9303 0.9302
2726.000000 0.9302 0.9301 0.9301 0.9300 0.9300
2721.000000 0.9300 0.9300 0.9300 0.9300 0.9300
2716.000000 0.9300 0.9300 0.9300 0.9300 0.9300
2711.000000 0.9300 0.9300 0.9300 0.9301 0.9301
2706.000000 0.9301 0.9301 0.9301 0.9301 0.9302
2701.000000 0.9302 0.9302 0.9302 0.9302 0.9301
2696.000000 0.9303 0.9303 0.9303 0.9302 0.9302
2691.000000 0.9302 0.9303 0.9303 0.9303 0.9303
2686.000000 0.9303 0.9302 0.9302 0.9301 0.9301
2681.000000 0.9300 0.9300 0.9300 0.9300 0.9299
2676.000000 0.9299 0.9298 0.9298 0.9297 0.9297
2671.000000 0.9296 0.9296 0.9296 0.9296 0.9295
2666.000000 0.9295 0.9295 0.9295 0.9295 0.9295
2661.000000 0.9295 0.9295 0.9295 0.9296 0.9311
2656.000000 0.9311 0.9311 0.9311 0.9311 0.9311
2651.000000 0.9304 0.9293 0.9293 0.9301 0.9311
2646.000000 0.9311 0.9299 0.9292 0.9292 0.9304
2641.000000 0.9297 0.9292 0.9292 0.9292 0.9292
2636.000000 0.9292 0.9291 0.9308 0.9308 0.9307
2631.000000 0.9291 0.9293 0.9308 0.9308 0.9308
2626.000000 0.9308 0.9308 0.9308 0.9307 0.9307
2621.000000 0.9307 0.9307 0.9307 0.9307 0.9307
2616.000000 0.9307 0.9307 0.9307 0.9307 0.9307
2611.000000 0.9306 0.9306 0.9306 0.9306 0.9306
2606.000000 0.9306 0.9306 0.9306 0.9306 0.9306
2601.000000 0.9305 0.9305 0.9304 0.9304 0.9304
2596.000000 0.9306 0.9305 0.9307 0.9307 0.9308
2591.000000 0.9308 0.9309 0.9309 0.9310 0.9310
2586.000000 0.9311 0.9311 0.9312 0.9312 0.9313
2581.000000 0.9313 0.9314 0.9314 0.9315 0.9315
2576.000000 0.9316 0.9316 0.9317 0.9317 0.9318
2571.000000 0.9318 0.9319 0.9319 0.9319 0.9319
2566.000000 0.9319 0.9319 0.9319 0.9319 0.9319
2561.000000 0.9319 0.9319 0.9319 0.9319 0.9319
2556.000000 0.9319 0.9319 0.9319 0.9319 0.9319
2551.000000 0.9319 0.9319 0.9319 0.9319 0.9319
2546.000000 0.9318 0.9318 0.9318 0.9318 0.9318
2541.000000 0.9318 0.9318 0.9318 0.9318 0.9318
2536.000000 0.9318 0.9318 0.9318 0.9318 0.9319
2531.000000 0.9319 0.9319 0.9319 0.9319 0.9319
2526.000000 0.9321 0.9321 0.9322 0.9322 0.9322
2521.000000 0.9322 0.9322 0.9322 0.9324 0.9324
2516.000000 0.9325 0.9325 0.9326 0.9326 0.9326
2511.000000 0.9326 0.9326 0.9326 0.9328 0.9328
2506.000000 0.9330 0.9330 0.9329 0.9329 0.9329
2501.000000 0.9329 0.9332 0.9332 0.9333 0.9333
2496.000000 0.9334 0.9334 0.9335 0.9335 0.9336
2491.000000 0.9336 0.9337 0.9337 0.9338 0.9338
2486.000000 0.9339 0.9339 0.9340 0.9340 0.9341
2481.000000 0.9352 0.9359 0.9359 0.9360 0.9360
2476.000000 0.9361 0.9361 0.9362 0.9362 0.9363
2471.000000 0.9363 0.9364 0.9364 0.9364 0.9364
2466.000000 0.9365 0.9365 0.9366 0.9366 0.9366
2461.000000 0.9366 0.9367 0.9367 0.9360 0.9360
2456.000000 0.9359 0.9351 0.9351 0.9362 0.9368
2451.000000 0.9368 0.9355 0.9364 0.9367 0.9367
2446.000000 0.9367 0.9366 0.9366 0.9366 0.9366
2441.000000 0.9366 0.9366 0.9365 0.9365 0.9365
2436.000000 0.9365 0.9365 0.9366 0.9366 0.9366
2431.000000 0.9366 0.9366 0.9366 0.9366 0.9366
2426.000000 0.9366 0.9366 0.9366 0.9365 0.9365
2421.000000 0.9364 0.9364 0.9363 0.9363 0.9361
2416.000000 0.9360 0.9359 0.9359 0.9358 0.9358
2411.000000 0.9357 0.9357 0.9361 0.9368 0.9361
2406.000000 0.9372 0.9371 0.9371 0.9369 0.9368
2401.000000 0.9367 0.9366 0.9363 0.9363 0.9362
2396.000000 0.9362 0.9359 0.9359 0.9359 0.9359
2391.000000 0.9358 0.9358 0.9375 0.9375 0.9372
2386.000000 0.9372 0.9375 0.9390 0.9390 0.9395
2381.000000 0.9406 0.9406 0.9411 0.9422 0.9429
2376.000000 0.9438 0.9435 0.9443 0.9443 0.9437
2371.000000 0.9414 0.9394 0.9355 0.9325 0.9304
2366.000000 0.9283 0.9263 0.9242 0.9241 0.9240
2361.000000 0.9244 0.9265 0.9271 0.9291 0.9305
2356.000000 0.9334 0.9357 0.9368 0.9377 0.9385
2351.000000 0.9387 0.9384 0.9391 0.9410 0.9432
2346.000000 0.9444 0.9446 0.9438 0.9433 0.9433
2341.000000 0.9433 0.9431 0.9412 0.9423 0.9423
2336.000000 0.9404 0.9400 0.9414 0.9409 0.9404
2331.000000 0.9404 0.9414 0.9409 0.9404 0.9402
2326.000000 0.9408 0.9408 0.9414 0.9407 0.9402
2321.000000 0.9396 0.9391 0.9385 0.9380 0.9374
2316.000000 0.9369 0.9363 0.9359 0.9355 0.9350
2311.000000 0.9345 0.9340 0.9336 0.9332 0.9328
2306.000000 0.9325 0.9323 0.9322 0.9320 0.9317
2301.000000 0.9315 0.9315 0.9321 0.9335 0.9336
2296.000000 0.9337 0.9338 0.9340 0.9341 0.9342
2291.000000 0.9342 0.9342 0.9342 0.9331 0.9326
2286.000000 0.9327 0.9327 0.9328 0.9312 0.9312
2281.000000 0.9312 0.9313 0.9312 0.9295 0.9295
2276.000000 0.9293 0.9279 0.9279 0.9279 0.9273
2271.000000 0.9260 0.9259 0.9251 0.9240 0.9239
2266.000000 0.9237 0.9225 0.9217 0.9214 0.9210
2261.000000 0.9194 0.9186 0.9150 0.9100 0.9049
2256.000000 0.9000 0.8950 0.8884 0.8859 0.8829
2251.000000 0.8833 0.8817 0.8919 0.9021 0.9130
2246.000000 0.9238 0.9270 0.9295 0.9302 0.9308
2241.000000 0.9313 0.9321 0.9327 0.9335 0.9340
2236.000000 0.9345 0.9337 0.9335 0.9339 0.9342
2231.000000 0.9345 0.9349 0.9352 0.9356 0.9357
2226.000000 0.9359 0.9360 0.9363 0.9364 0.9363
2221.000000 0.9350 0.9352 0.9354 0.9356 0.9357
2216.000000 0.9359 0.9361 0.9363 0.9364 0.9367
2211.000000 0.9368 0.9370 0.9370 0.9370 0.9370
2206.000000 0.9370 0.9370 0.9370 0.9370 0.9371
2201.000000 0.9371 0.9371 0.9371 0.9371 0.9371
2196.000000 0.9368 0.9356 0.9370 0.9366 0.9354
2191.000000 0.9354 0.9354 0.9354 0.9354 0.9354
2186.000000 0.9354 0.9354 0.9364 0.9361 0.9355
2181.000000 0.9355 0.9355 0.9355 0.9369 0.9372
2176.000000 0.9372 0.9372 0.9373 0.9373 0.9373
2171.000000 0.9373 0.9373 0.9371 0.9357 0.9357
2166.000000 0.9357 0.9357 0.9357 0.9357 0.9357
2161.000000 0.9357 0.9358 0.9358 0.9358 0.9358
2156.000000 0.9358 0.9358 0.9358 0.9358 0.9359
2151.000000 0.9359 0.9359 0.9359 0.9359 0.9359
2146.000000 0.9359 0.9359 0.9360 0.9360 0.9360
2141.000000 0.9360 0.9360 0.9360 0.9360 0.9360
2136.000000 0.9361 0.9361 0.9361 0.9361 0.9360
2131.000000 0.9360 0.9360 0.9360 0.9360 0.9360
2126.000000 0.9361 0.9361 0.9361 0.9361 0.9348
2121.000000 0.9360 0.9362 0.9362 0.9363 0.9363
2116.000000 0.9363 0.9363 0.9363 0.9363 0.9364
2111.000000 0.9364 0.9364 0.9364 0.9365 0.9365
2106.000000 0.9365 0.9365 0.9365 0.9365 0.9365
2101.000000 0.9365 0.9365 0.9365 0.9353 0.9348
2096.000000 0.9362 0.9365 0.9350 0.9364 0.9365
2091.000000 0.9365 0.9365 0.9365 0.9365 0.9365
2086.000000 0.9365 0.9365 0.9365 0.9365 0.9365
2081.000000 0.9365 0.9365 0.9365 0.9367 0.9367
2076.000000 0.9368 0.9368 0.9368 0.9368 0.9368
2071.000000 0.9368 0.9370 0.9370 0.9370 0.9370
2066.000000 0.9371 0.9371 0.9371 0.9371 0.9372
2061.000000 0.9372 0.9372 0.9372 0.9372 0.9376
2056.000000 0.9389 0.9392 0.9393 0.9395 0.9389
2051.000000 0.9395 0.9413 0.9411 0.9410 0.9412
2046.000000 0.9415 0.9417 0.9421 0.9421 0.9424
2041.000000 0.9425 0.9428 0.9428 0.9431 0.9432
2036.000000 0.9432 0.9432 0.9432 0.9428 0.9425
2031.000000 0.9423 0.9419 0.9415 0.9417 0.9418
2026.000000 0.9401 0.9398 0.9397 0.9378 0.9359
2021.000000 0.9331 0.9305 0.9282 0.9261 0.9253
2016.000000 0.9245 0.9257 0.9270 0.9281 0.9293
2011.000000 0.9305 0.9316 0.9326 0.9335 0.9335
2006.000000 0.9339 0.9339 0.9339 0.9341 0.9339
2001.000000 0.9331 0.9324 0.9315 0.9303 0.9293
1996.000000 0.9293 0.9294 0.9294 0.9293 0.9293
1991.000000 0.9294 0.9294 0.9294 0.9294 0.9294
1986.000000 0.9280 0.9277 0.9277 0.9276 0.9276
1981.000000 0.9275 0.9275 0.9269 0.9246 0.9240
1976.000000 0.9233 0.9228 0.9226 0.9225 0.9223
1971.000000 0.9223 0.9226 0.9228 0.9230 0.9232
1966.000000 0.9243 0.9239 0.9247 0.9298 0.9342
1961.000000 0.9382 0.9421 0.9459 0.9499 0.9478
1956.000000 0.9455 0.9330 0.9258 0.9232 0.9235
1951.000000 0.9238 0.9237 0.9226 0.9231 0.9235
1946.000000 0.9236 0.9237 0.9238 0.9239 0.9240
1941.000000 0.9241 0.9242 0.9242 0.9243 0.9244
1936.000000 0.9245 0.9245 0.9244 0.9244 0.9244
1931.000000 0.9243 0.9243 0.9242 0.9242 0.9242
1926.000000 0.9241 0.9241 0.9239 0.9239 0.9239
1921.000000 0.9238 0.9237 0.9236 0.9234 0.9232
1916.000000 0.9230 0.9228 0.9227 0.9224 0.9222
1911.000000 0.9220 0.9218 0.9217 0.9215 0.9225
1906.000000 0.9228 0.9225 0.9225 0.9224 0.9221
1901.000000 0.9221 0.9221 0.9220 0.9219 0.9218
1896.000000 0.9217 0.9216 0.9215 0.9215 0.9214
1891.000000 0.9207 0.9195 0.9193 0.9191 0.9189
1886.000000 0.9187 0.9186 0.9194 0.9199 0.9197
1881.000000 0.9195 0.9192 0.9191 0.9189 0.9188
1876.000000 0.9187 0.9202 0.9202 0.9201 0.9200
1871.000000 0.9199 0.9198 0.9196 0.9196 0.9195
1866.000000 0.9195 0.9195 0.9192 0.9192 0.9192
1861.000000 0.9192 0.9192 0.9191 0.9191 0.9202
1856.000000 0.9196 0.9190 0.9188 0.9188 0.9185
1851.000000 0.9185 0.9184 0.9183 0.9182 0.9179
1846.000000 0.9178 0.9177 0.9176 0.9174 0.9173
1841.000000 0.9172 0.9171 0.9169 0.9168 0.9167
1836.000000 0.9159 0.9146 0.9145 0.9144 0.9143
1831.000000 0.9141 0.9140 0.9139 0.9138 0.9138
1826.000000 0.9138 0.9138 0.9138 0.9138 0.9138
1821.000000 0.9138 0.9138 0.9155 0.9155 0.9156
1816.000000 0.9156 0.9157 0.9157 0.9158 0.9158
1811.000000 0.9159 0.9159 0.9153 0.9143 0.9144
1806.000000 0.9145 0.9145 0.9136 0.9130 0.9134
1801.000000 0.9138 0.9141 0.9146 0.9148 0.9150
1796.000000 0.9153 0.9156 0.9157 0.9160 0.9163
1791.000000 0.9167 0.9172 0.9178 0.9184 0.9191
1786.000000 0.9194 0.9196 0.9198 0.9200 0.9202
1781.000000 0.9202 0.9205 0.9205 0.9205 0.9207
1776.000000 0.9197 0.9190 0.9191 0.9191 0.9192
1771.000000 0.9192 0.9194 0.9196 0.9198 0.9200
1766.000000 0.9201 0.9203 0.9205 0.9207 0.9209
1761.000000 0.9211 0.9213 0.9219 0.9235 0.9237
1756.000000 0.9239 0.9242 0.9244 0.9246 0.9248
1751.000000 0.9248 0.9248 0.9248 0.9248 0.9248
1746.000000 0.9248 0.9248 0.9250 0.9249 0.9249
1741.000000 0.9248 0.9248 0.9246 0.9246 0.9246
1736.000000 0.9246 0.9247 0.9246 0.9246 0.9246
1731.000000 0.9245 0.9244 0.9243 0.9241 0.9241
1726.000000 0.9239 0.9238 0.9237 0.9237 0.9238
1721.000000 0.9238 0.9240 0.9241 0.9244 0.9245
1716.000000 0.9248 0.9249 0.9253 0.9259 0.9263
1711.000000 0.9269 0.9274 0.9278 0.9285 0.9291
1706.000000 0.9297 0.9303 0.9310 0.9324 0.9324
1701.000000 0.9325 0.9313 0.9303 0.9293 0.9283
1696.000000 0.9277 0.9273 0.9268 0.9264 0.9260
1691.000000 0.9260 0.9261 0.9261 0.9262 0.9262
1686.000000 0.9262 0.9263 0.9263 0.9264 0.9264
1681.000000 0.9264 0.9263 0.9262 0.9263 0.9262
1676.000000 0.9262 0.9261 0.9261 0.9267 0.9276
1671.000000 0.9274 0.9271 0.9270 0.9267 0.9265
1666.000000 0.9262 0.9261 0.9259 0.9256 0.9255
1661.000000 0.9252 0.9265 0.9249 0.9245 0.9260
1656.000000 0.9258 0.9255 0.9253 0.9247 0.9232
1651.000000 0.9243 0.9240 0.9236 0.9234 0.9230
1646.000000 0.9234 0.9240 0.9235 0.9230 0.9233
1641.000000 0.9236 0.9230 0.9226 0.9231 0.9231
1636.000000 0.9239 0.9236 0.9229 0.9237 0.9233
1631.000000 0.9242 0.9236 0.9246 0.9240 0.9249
1626.000000 0.9242 0.9228 0.9248 0.9259 0.9284
1621.000000 0.9288 0.9283 0.9296 0.9305 0.9307
1616.000000 0.9321 0.9340 0.9355 0.9360 0.9371
1611.000000 0.9391 0.9387 0.9396 0.9399 0.9391
1606.000000 0.9413 0.9399 0.9456 0.9424 0.9465
1601.000000 0.9360 0.9281 0.9160 0.9042 0.8881
1596.000000 0.8916 0.8929 0.8945 0.8961 0.8969
1591.000000 0.9003 0.8997 0.9013 0.9002 0.8962
1586.000000 0.8924 0.8919 0.8933 0.8975 0.8970
1581.000000 0.8976 0.8971 0.8971 0.8948 0.8934
1576.000000 0.8896 0.8878 0.8867 0.8818 0.8753
1571.000000 0.8718 0.8632 0.8539 0.8421 0.8398
1566.000000 0.8391 0.8355 0.8283 0.8253 0.8308
1561.000000 0.8379 0.8520 0.8574 0.8042 0.8068
1556.000000 0.8131 0.8222 0.8290 0.8353 0.8433
1551.000000 0.8464 0.8517 0.8508 0.8503 0.8508
1546.000000 0.8537 0.8560 0.8571 0.8571 0.8579
1541.000000 0.8565 0.8852 0.8859 0.8861 0.8771
1536.000000 0.8745 0.8752 0.8789 0.8852 0.8857
1531.000000 0.8852 0.8862 0.8900 0.8921 0.8897
1526.000000 0.8888 0.8882 0.8893 0.8902 0.8931
1521.000000 0.8941 0.8951 0.8956 0.8945 0.8952
1516.000000 0.8954 0.8944 0.8948 0.8952 0.8964
1511.000000 0.8962 0.8981 0.9005 0.9018 0.9029
1506.000000 0.9018 0.9002 0.8995 0.8983 0.8966
1501.000000 0.8962 0.8961 0.8962 0.8957 0.8959
1496.000000 0.8967 0.8989 0.8987 0.9003 0.9018
1491.000000 0.9032 0.9047 0.9058 0.9062 0.9070
1486.000000 0.9092 0.9112 0.9140 0.9167 0.9207
1481.000000 0.9239 0.9243 0.9218 0.9184 0.9151
1476.000000 0.9139 0.9130 0.9110 0.9116 0.9119
1471.000000 0.9118 0.9117 0.9114 0.9112 0.9129
1466.000000 0.9128 0.9144 0.9143 0.9160 0.9161
1461.000000 0.9177 0.9195 0.9207 0.9211 0.9225
1456.000000 0.9240 0.9246 0.9249 0.9263 0.9278
1451.000000 0.9291 0.9290 0.9297 0.9308 0.9308
1446.000000 0.9314 0.9325 0.9338 0.9348 0.9353
1441.000000 0.9356 0.9344 0.9347 0.9348 0.9348
1436.000000 0.9346 0.9346 0.9344 0.9342 0.9345
1431.000000 0.9357 0.9355 0.9355 0.9346 0.9342
1426.000000 0.9353 0.9353 0.9343 0.9335 0.9335
1421.000000 0.9341 0.9347 0.9354 0.9361 0.9368
1416.000000 0.9359 0.9364 0.9371 0.9376 0.9380
1411.000000 0.9385 0.9390 0.9396 0.9400 0.9405
1406.000000 0.9410 0.9414 0.9418 0.9422 0.9423
1401.000000 0.9418 0.9410 0.9403 0.9406 0.9408
1396.000000 0.9401 0.9395 0.9388 0.9381 0.9378
1391.000000 0.9373 0.9381 0.9395 0.9393 0.9420
1386.000000 0.9452 0.9483 0.9477 0.9434 0.9390
1381.000000 0.9349 0.9325 0.9304 0.9298 0.9300
1376.000000 0.9297 0.9287 0.9290 0.9293 0.9295
1371.000000 0.9299 0.9304 0.9307 0.9312 0.9316
1366.000000 0.9330 0.9347 0.9363 0.9381 0.9399
1361.000000 0.9417 0.9436 0.9426 0.9416 0.9411
1356.000000 0.9388 0.9382 0.9381 0.9379 0.9379
1351.000000 0.9382 0.9385 0.9388 0.9391 0.9388
1346.000000 0.9378 0.9372 0.9364 0.9355 0.9338
1341.000000 0.9332 0.9321 0.9317 0.9317 0.9320
1336.000000 0.9321 0.9323 0.9325 0.9327 0.9328
1331.000000 0.9331 0.9332 0.9316 0.9318 0.9319
1326.000000 0.9317 0.9301 0.9302 0.9297 0.9284
1321.000000 0.9281 0.9279 0.9280 0.9279 0.9287
1316.000000 0.9296 0.9295 0.9296 0.9295 0.9294
1311.000000 0.9294 0.9293 0.9293 0.9293 0.9292
1306.000000 0.9292 0.9291 0.9273 0.9272 0.9273
1301.000000 0.9272 0.9272 0.9271 0.9270 0.9271
1296.000000 0.9276 0.9288 0.9290 0.9291 0.9293
1291.000000 0.9287 0.9279 0.9281 0.9283 0.9285
1286.000000 0.9286 0.9289 0.9290 0.9291 0.9292
1281.000000 0.9292 0.9293 0.9293 0.9294 0.9294
1276.000000 0.9312 0.9311 0.9309 0.9307 0.9306
1271.000000 0.9305 0.9303 0.9302 0.9300 0.9303
1266.000000 0.9313 0.9311 0.9317 0.9324 0.9322
1261.000000 0.9320 0.9317 0.9316 0.9315 0.9313
1256.000000 0.9313 0.9312 0.9311 0.9294 0.9291
1251.000000 0.9291 0.9290 0.9289 0.9289 0.9287
1246.000000 0.9287 0.9287 0.9285 0.9299 0.9312
1241.000000 0.9325 0.9340 0.9361 0.9386 0.9399
1236.000000 0.9403 0.9409 0.9414 0.9431 0.9444
1231.000000 0.9448 0.9451 0.9454 0.9457 0.9459
1226.000000 0.9462 0.9465 0.9464 0.9465 0.9465
1221.000000 0.9465 0.9465 0.9459 0.9451 0.9445
1216.000000 0.9437 0.9430 0.9419 0.9416 0.9430
1211.000000 0.9440 0.9449 0.9457 0.9465 0.9473
1206.000000 0.9479 0.9486 0.9489 0.9494 0.9498
1201.000000 0.9501 0.9503 0.9503 0.9488 0.9486
1196.000000 0.9486 0.9485 0.9485 0.9501 0.9500
1191.000000 0.9499 0.9497 0.9494 0.9484 0.9475
1186.000000 0.9464 0.9443 0.9423 0.9392 0.9348
1181.000000 0.9338 0.9348 0.9370 0.9394 0.9410
1176.000000 0.9414 0.9418 0.9421 0.9425 0.9425
1171.000000 0.9425 0.9425 0.9425 0.9425 0.9443
1166.000000 0.9443 0.9444 0.9444 0.9446 0.9447
1161.000000 0.9448 0.9448 0.9451 0.9451 0.9453
1156.000000 0.9454 0.9455 0.9456 0.9456 0.9457
1151.000000 0.9447 0.9451 0.9458 0.9445 0.9439
1146.000000 0.9438 0.9437 0.9437 0.9419 0.9434
1141.000000 0.9434 0.9436 0.9457 0.9478 0.9497
1136.000000 0.9503 0.9520 0.9519 0.9507 0.9510
1131.000000 0.9511 0.9512 0.9506 0.9496 0.9497
1126.000000 0.9498 0.9498 0.9499 0.9500 0.9513
1121.000000 0.9520 0.9521 0.9521 0.9522 0.9522
1116.000000 0.9533 0.9531 0.9525 0.9520 0.9511
1111.000000 0.9501 0.9494 0.9478 0.9451 0.9445
1106.000000 0.9412 0.9392 0.9371 0.9353 0.9335
1101.000000 0.9318 0.9303 0.9289 0.9278 0.9272
1096.000000 0.9270 0.9268 0.9277 0.9284 0.9293
1091.000000 0.9300 0.9306 0.9313 0.9318 0.9324
1086.000000 0.9330 0.9336 0.9342 0.9348 0.9351
1081.000000 0.9342 0.9347 0.9348 0.9341 0.9341
1076.000000 0.9335 0.9337 0.9340 0.9352 0.9363
1071.000000 0.9366 0.9368 0.9371 0.9373 0.9376
1066.000000 0.9377 0.9379 0.9379 0.9381 0.9397
1061.000000 0.9400 0.9400 0.9382 0.9400 0.9399
1056.000000 0.9381 0.9379 0.9377 0.9376 0.9375
1051.000000 0.9379 0.9390 0.9389 0.9388 0.9389
1046.000000 0.9390 0.9391 0.9392 0.9393 0.9394
1041.000000 0.9395 0.9397 0.9398 0.9401 0.9402
1036.000000 0.9406 0.9408 0.9410 0.9412 0.9414
1031.000000 0.9414 0.9398 0.9398 0.9398 0.9399
1026.000000 0.9395 0.9381 0.9381 0.9381 0.9381
1021.000000 0.9382 0.9383 0.9384 0.9385 0.9386
1016.000000 0.9387 0.9389 0.9390 0.9391 0.9392
1011.000000 0.9392 0.9390 0.9388 0.9370 0.9365
1006.000000 0.9363 0.9361 0.9338 0.9331 0.9324
1001.000000 0.9320 0.9314 0.9311 0.9304 0.9290
996.000000 0.9287 0.9281 0.9276 0.9272 0.9275
991.000000 0.9267 0.9267 0.9269 0.9264 0.9277
986.000000 0.9290 0.9292 0.9295 0.9297 0.9300
981.000000 0.9302 0.9304 0.9306 0.9306 0.9306
976.000000 0.9307 0.9307 0.9307 0.9304 0.9293
971.000000 0.9306 0.9306 0.9304 0.9304 0.9304
966.000000 0.9303 0.9303 0.9302 0.9300 0.9299
961.000000 0.9294 0.9289 0.9282 0.9277 0.9271
956.000000 0.9264 0.9260 0.9254 0.9243 0.9232
951.000000 0.9222 0.9211 0.9199 0.9185 0.9172
946.000000 0.9158 0.9143 0.9128 0.9111 0.9093
941.000000 0.9076 0.9059 0.9041 0.9009 0.8980
936.000000 0.8949 0.8918 0.8884 0.8849 0.8814
931.000000 0.8780 0.8745 0.8692 0.8635 0.8579
926.000000 0.8512 0.8409 0.8308 0.8149 0.7955
921.000000 0.7455 0.6998 0.6230 0.5466 0.4689
916.000000 0.3924 0.3151 0.2380 0.1607 0.0836
911.000000 0.0430 0.0246 0.0147 0.0082 0.0035
906.000000 0.0000 0.0016 0.0818 0.1840 0.2868
901.000000 0.5328 0.5740 0.5964 0.6324 0.6551
896.000000 0.6777 0.6997 0.7190 0.7352 0.7507
891.000000 0.7668 0.7832 0.7928 0.7974 0.8011
886.000000 0.8059 0.8105 0.8165 0.8234 0.8335
881.000000 0.8447 0.8516 0.8569 0.8615 0.8662
876.000000 0.8706 0.8741 0.8773 0.8804 0.8825
871.000000 0.8839 0.8853 0.8849 0.8845 0.8861
866.000000 0.8862 0.8869 0.8895 0.8925 0.8941
861.000000 0.8964 0.9004 0.9030 0.9049 0.9067
856.000000 0.9074 0.9073 0.9062 0.9052 0.9064
851.000000 0.9073 0.9132 0.9221 0.9348 0.9355
846.000000 0.9349 0.9352 0.9338 0.9349 0.9362
841.000000 0.9338 0.9331 0.9340 0.9320 0.9318
836.000000 0.9304 0.9307 0.9301 0.9287 0.9288
831.000000 0.9286 0.9293 0.9303 0.9294 0.9293
826.000000 0.9290 0.9289 0.9297 0.9302 0.9305
821.000000 0.9296 0.9295 0.9298 0.9302 0.9305
816.000000 0.9324 0.9328 0.9330 0.9333 0.9354
811.000000 0.9373 0.9376 0.9392 0.9387 0.9374
806.000000 0.9378 0.9390 0.9390 0.9389 0.9389
801.000000 0.9388 0.9384 0.9379 0.9374 0.9369
796.000000 0.9365 0.9385 0.9342 0.9332 0.9325
791.000000 0.9336 0.9317 0.9310 0.9296 0.9281
786.000000 0.9267 0.9257 0.9251 0.9229 0.9209
781.000000 0.9199 0.9179 0.9172 0.9159 0.9141
776.000000 0.9130 0.9115 0.9098 0.9074 0.9051
771.000000 0.9034 0.9008 0.8968 0.8935 0.8903
766.000000 0.8855 0.8792 0.8706 0.8591 0.8383
761.000000 0.8219 0.7956 0.7886 0.7831 0.7782
756.000000 0.7720 0.7652 0.7587 0.7510 0.7374
751.000000 0.7176 0.6948 0.6739 0.5927 0.5469
746.000000 0.4319 0.3534 0.2747 0.1962 0.1177
741.000000 0.0392 0.0125 0.0074 0.0044 0.0021
736.000000 0.0007 0.0000 0.0001 0.0002 0.0002
731.000000 0.0002 0.0994 0.1253 0.1508 0.1830
726.000000 0.2328 0.2870 0.3426 0.3984 0.4546
721.000000 0.5106 0.5482 0.5607 0.5732 0.5876
716.000000 0.6068 0.6275 0.6709 0.7215 0.7448
711.000000 0.7616 0.7733 0.7850 0.7962 0.8030
706.000000 0.8097 0.8166 0.8235 0.8317 0.8385
701.000000 0.8459 0.8540 0.8603 0.8646 0.8689
696.000000 0.8733 0.8783 0.8831 0.8860 0.8889
691.000000 0.8917 0.8945 0.8970 0.9005 0.9034
686.000000 0.9055 0.9067 0.9078 0.9103 0.9114
681.000000 0.9117 0.9138 0.9140 0.9175 0.9195
676.000000 0.9228 0.9240 0.9221 0.9212 0.9192
671.000000 0.9188 0.9211 0.9323 0.9397 0.9270
666.000000 0.9138 0.9103 0.9062 0.9013 0.8963
661.000000 0.8942 0.8927 0.8913 0.8885 0.8867
656.000000 0.8838 0.8739 0.8630 0.8419 0.8020
651.000000 0.7606 0.7220 0.7225 0.7358 0.7601
646.000000 0.7831 0.8075 0.8312 0.8542 0.8694
641.000000 0.8761 0.8823 0.8887 0.8934 0.8984
636.000000 0.9051 0.9109 0.9133 0.9173 0.9214
631.000000 0.9257 0.9318 0.9348 0.9360 0.9383
626.000000 0.9373 0.9378 0.9385 0.9374 0.9380
621.000000 0.9386 0.9392 0.9402 0.9422 0.9424
616.000000 0.9419 0.9426 0.9426 0.9423 0.9430
611.000000 0.9437 0.9445 0.9452 0.9458 0.9453
606.000000 0.9453 0.9461 0.9467 0.9475 0.9482
601.000000 0.9490 0.9494 0.9496 0.9497 0.9499
596.000000 0.9501 0.9502 0.9504 0.9505 0.9507
591.000000 0.9509 0.9510 0.9510 0.9510 0.9498
586.000000 0.9478 0.9464 0.9442 0.9434 0.9426
581.000000 0.9417 0.9408 0.9402 0.9398 0.9380
576.000000 0.9370 0.9366 0.9375 0.9373 0.9363
571.000000 0.9352 0.9341 0.9329 0.9327 0.9311
566.000000 0.9315 0.9331 0.9327 0.9314 0.9315
561.000000 0.9316 0.9316 0.9316 0.9317 0.9318
556.000000 0.9383 0.9313 0.9308 0.9306 0.9294
551.000000 0.9298 0.9301 0.9299 0.9296 0.9294
546.000000 0.9291 0.9287 0.9282 0.9279 0.9273
541.000000 0.9270 0.9265 0.9263 0.9279 0.9288
536.000000 0.9306 0.9304 0.9302 0.9317 0.9322
531.000000 0.9326 0.9325 0.9325 0.9323 0.9321
526.000000 0.9331 0.9335 0.9333 0.9330 0.9326
521.000000 0.9322 0.9318 0.9315 0.9310 0.9307
516.000000 0.9302 0.9296 0.9289 0.9283 0.9277
511.000000 0.9270 0.9265 0.9258 0.9252 0.9246
506.000000 0.9240 0.9231 0.9221 0.9211 0.9201
501.000000 0.9190 0.9180 0.9169 0.9158 0.9149
496.000000 0.9138 0.9128 0.9117 0.9104 0.9091
491.000000 0.9077 0.9063 0.9050 0.9035 0.9021
486.000000 0.9008 0.8994 0.8980 0.8965 0.8951
481.000000 0.8937 0.8922 0.8907 0.8892 0.8879
476.000000 0.8864 0.8849 0.8834 0.8821 0.8806
471.000000 0.8790 0.8776 0.8763 0.8748 0.8733
466.000000 0.8719 0.8705 0.8691 0.8680 0.8669
461.000000 0.8658 0.8647 0.8636 0.8624 0.8613
456.000000 0.8602 0.8591 0.8579 0.8568 0.8558
451.000000 0.8549 0.8541 0.8533 0.8523 0.8515
446.000000 0.8505 0.8497 0.8488 0.8480 0.8470
441.000000 0.8463 0.8455 0.8449 0.8443 0.8435
436.000000 0.8429 0.8423 0.8414 0.8409 0.8402
431.000000 0.8397 0.8394 0.8391 0.8387 0.8384
426.000000 0.8379 0.8378 0.8378 0.8378 0.8377
421.000000 0.8377 0.8378 0.8381 0.8383 0.8385
416.000000 0.8387 0.8389 0.8391 0.8392 0.8394
411.000000 0.8396 0.8397 0.8400
##END=
