##TITLE=DL-4-(2-CHLOROETHYL)-2-PHENYL-Delta^2-THIAZOLINE HYDROCHLORIDE
##JCAMP-DX=4.24
##DATA TYPE=INFRARED SPECTRUM
##CLASS=COBLENTZ
##ORIGIN=ARTHUR D. LITTLE, INC.
##OWNER=COBLENTZ SOCIETY
Collection (C) 2018 copyright by the U.S. Secretary of Commerce
on behalf of the United States of America. All rights reserved.
##DATE=Not specified, most likely prior to 1970
##MOLFORM=C11 H11 Cl N S  * H Cl
##MP=109-119 C
##SOURCE REFERENCE=COBLENTZ NO. 4577
##$NIST ID=B6004577
##$NIST SOURCE=COBLENTZ
##$NIST IMAGE=cob4577
##SPECTROMETER/DATA SYSTEM=Not specified, most likely a prism, grating, or hybrid spectrometer.
##STATE=SOLID(MINERAL OIL MULL)
##PATH LENGTH=
$$SPECTRAL CONTAMINATIN DUE TO OIL AROUND 2910, 1455, 1373 CM^-^1
##SAMPLING PROCEDURE=TRANSMISSION
##RESOLUTION=4
##DATA PROCESSING=DIGITIZED BY NIST FROM HARD COPY
##XUNITS=1/CM
##YUNITS=TRANSMITTANCE
##XFACTOR=1.000000
##YFACTOR=1
##DELTAX=001.390374
##FIRSTX=648.556
##LASTX=3544.71
##FIRSTY=0.841
##MAXX=3544.71
##MINX=648.556
##MAXY=1.002
##MINY=0.047
##NPOINTS=2084
##XYDATA=(X++(Y..Y))
648.556000 0.8410 0.8430 0.8430 0.8430 0.8430
655.511211 0.8430 0.8430 0.8400 0.8390 0.8330
662.460000 0.8270 0.8130 0.8010 0.7930 0.7900
669.415211 0.7760 0.7450 0.7130 0.6710 0.6390
676.364000 0.5210 0.5170 0.4740 0.4740 0.5660
683.319211 0.6290 0.7090 0.7310 0.8410 0.8680
690.267000 0.8780 0.8830 0.8850 0.8880 0.8920
697.222211 0.8920 0.8930 0.8930 0.8900 0.8890
704.171000 0.8850 0.8720 0.8580 0.8460 0.8300
711.126211 0.8110 0.7870 0.7660 0.7210 0.7070
718.075000 0.6920 0.6400 0.6330 0.5090 0.4330
725.030211 0.4330 0.4510 0.5210 0.7650 0.8270
731.979000 0.9090 0.9620 0.9790 0.9880 0.9940
738.934211 1.0010 1.0020 1.0020 1.0010 1.0000
745.882000 0.9930 0.9800 0.9720 0.9520 0.9300
752.837211 0.9060 0.8890 0.8510 0.8220 0.7930
759.786000 0.7630 0.7340 0.7030 0.6510 0.5720
766.741211 0.4900 0.4470 0.4470 0.4740 0.5340
773.690000 0.5630 0.6320 0.7060 0.7720 0.8400
780.645211 0.8920 0.9270 0.9440 0.9550 0.9580
787.594000 0.9600 0.9620 0.9600 0.9560 0.9460
794.549211 0.9350 0.9200 0.8950 0.8540 0.8260
801.497000 0.8050 0.7700 0.7510 0.7420 0.7420
808.452211 0.7490 0.7660 0.8010 0.8130 0.8550
815.401000 0.8780 0.9060 0.9240 0.9370 0.9480
822.356211 0.9560 0.9620 0.9660 0.9690 0.9700
829.305000 0.9720 0.9730 0.9740 0.9740 0.9740
836.260211 0.9760 0.9760 0.9790 0.9800 0.9830
843.209000 0.9830 0.9830 0.9830 0.9840 0.9840
850.164211 0.9840 0.9830 0.9830 0.9800 0.9760
857.112000 0.9660 0.9630 0.9590 0.9530 0.9510
864.067211 0.9460 0.9510 0.9660 0.9880 0.9930
871.016000 0.9940 0.9940 0.9940 0.9930 0.9880
877.971211 0.9860 0.9830 0.9770 0.9720 0.9670
884.920000 0.9620 0.9590 0.9550 0.9530 0.9520
891.875211 0.9480 0.9440 0.9410 0.9380 0.9340
898.824000 0.9300 0.9140 0.8970 0.8820 0.8710
905.779211 0.8540 0.8370 0.8190 0.8050 0.7940
912.727000 0.7880 0.7870 0.7880 0.8050 0.8340
919.682211 0.8850 0.9230 0.9280 0.9310 0.9310
926.631000 0.9310 0.9310 0.9300 0.9250 0.9230
933.586211 0.9180 0.9110 0.9040 0.9030 0.8930
940.535000 0.8900 0.8820 0.8740 0.8570 0.8460
947.490211 0.8400 0.8230 0.8010 0.7700 0.7600
954.438000 0.7380 0.7200 0.6990 0.6970 0.6860
961.393211 0.6780 0.6750 0.6780 0.6880 0.7170
968.342000 0.7310 0.7450 0.7580 0.7800 0.7810
975.297211 0.7830 0.7700 0.7650 0.7510 0.7320
982.246000 0.7320 0.7600 0.7740 0.7830 0.7910
989.201211 0.8120 0.8400 0.8410 0.8460 0.8510
996.150000 0.8530 0.8570 0.8600 0.8610 0.8620
1003.105211 0.8620 0.8640 0.8640 0.8640 0.8640
1010.053000 0.8620 0.8610 0.8600 0.8580 0.8570
1017.008211 0.8550 0.8480 0.8480 0.8570 0.8650
1023.957000 0.8740 0.8820 0.8850 0.9020 0.9030
1030.912211 0.9030 0.9030 0.9030 0.9030 0.9030
1037.861000 0.9030 0.9020 0.9020 0.9020 0.9000
1044.816211 0.9000 0.9000 0.9000 0.8990 0.8970
1051.765000 0.8960 0.8950 0.8920 0.8890 0.8880
1058.720211 0.8820 0.8780 0.8760 0.8740 0.8710
1065.668000 0.8680 0.8640 0.8640 0.8610 0.8610
1072.623211 0.8620 0.8680 0.8760 0.8890 0.8930
1079.572000 0.8950 0.8950 0.8950 0.8950 0.8950
1086.527211 0.8950 0.8950 0.8950 0.8950 0.8930
1093.476000 0.8930 0.8930 0.8920 0.8920 0.8920
1100.431211 0.8920 0.8920 0.8920 0.8920 0.8900
1107.380000 0.8900 0.8890 0.8890 0.8880 0.8830
1114.335211 0.8790 0.8780 0.8750 0.8740 0.8690
1121.283000 0.8650 0.8640 0.8620 0.8610 0.8580
1128.238211 0.8540 0.8540 0.8530 0.8510 0.8410
1135.187000 0.8390 0.8360 0.8330 0.8320 0.8270
1142.142211 0.8160 0.8050 0.7940 0.7810 0.7690
1149.091000 0.7490 0.7490 0.7720 0.7790 0.7840
1156.046211 0.7880 0.7940 0.8010 0.8020 0.8040
1162.995000 0.8200 0.8400 0.8500 0.8530 0.8530
1169.950211 0.8530 0.8530 0.8530 0.8530 0.8510
1176.898000 0.8510 0.8500 0.8440 0.8390 0.8320
1183.853211 0.8260 0.8200 0.8150 0.8150 0.8130
1190.802000 0.8130 0.8130 0.8120 0.8120 0.8090
1197.757211 0.8090 0.8090 0.8080 0.8080 0.8060
1204.706000 0.8060 0.8050 0.8040 0.8020 0.7950
1211.661211 0.7940 0.7910 0.7880 0.7800 0.7620
1218.610000 0.7580 0.7530 0.7410 0.7300 0.7110
1225.565211 0.6930 0.6850 0.6710 0.6610 0.6600
1232.513000 0.6610 0.6640 0.6720 0.6860 0.7030
1239.468211 0.7200 0.7440 0.7730 0.7980 0.8000
1246.417000 0.8010 0.8020 0.8020 0.8040 0.8040
1253.372211 0.8040 0.8020 0.8020 0.8010 0.7980
1260.321000 0.7970 0.7900 0.7840 0.7830 0.7810
1267.276211 0.7810 0.7810 0.7800 0.7790 0.7770
1274.225000 0.7720 0.7660 0.7620 0.7580 0.7580
1281.180211 0.7550 0.7550 0.7530 0.7530 0.7520
1288.128000 0.7520 0.7510 0.7490 0.7490 0.7480
1295.083211 0.7450 0.7420 0.7370 0.7350 0.7320
1302.032000 0.7300 0.7270 0.7250 0.7250 0.7300
1308.987211 0.7320 0.7370 0.7390 0.7390 0.7350
1315.936000 0.7310 0.7210 0.7140 0.7040 0.6920
1322.891211 0.6880 0.6850 0.6830 0.6810 0.6780
1329.840000 0.6720 0.6670 0.6650 0.6610 0.6580
1336.795211 0.6570 0.6570 0.6550 0.6550 0.6540
1343.743000 0.6540 0.6530 0.6480 0.6440 0.6430
1350.698211 0.6410 0.6400 0.6390 0.6370 0.6340
1357.647000 0.6260 0.6120 0.5910 0.5670 0.5380
1364.602211 0.5210 0.5040 0.4920 0.4600 0.4370
1371.551000 0.4290 0.4270 0.4290 0.4320 0.4400
1378.506211 0.4550 0.4900 0.4920 0.5060 0.5300
1385.455000 0.5310 0.5630 0.5650 0.5760 0.5870
1392.410211 0.6000 0.6760 0.7160 0.7350 0.7560
1399.358000 0.7700 0.7730 0.7740 0.7740 0.7730
1406.313211 0.7720 0.7660 0.7590 0.7530 0.7390
1413.262000 0.7210 0.7090 0.6930 0.6780 0.6610
1420.217211 0.6440 0.6290 0.6130 0.6120 0.6120
1427.166000 0.6110 0.6060 0.5580 0.5530 0.5390
1434.121211 0.4920 0.4790 0.4670 0.4390 0.4260
1441.069000 0.4090 0.3930 0.3560 0.3140 0.2830
1448.024211 0.2570 0.2530 0.2500 0.2480 0.2480
1454.973000 0.2500 0.2500 0.2510 0.2530 0.2550
1461.928211 0.2620 0.2810 0.3170 0.3720 0.4090
1468.877000 0.5280 0.5660 0.6110 0.6970 0.7170
1475.832211 0.7230 0.7340 0.7510 0.7550 0.7700
1482.781000 0.7770 0.7800 0.7800 0.7800 0.7790
1489.736211 0.7790 0.7760 0.7760 0.7730 0.7720
1496.684000 0.7700 0.7690 0.7660 0.7620 0.7590
1503.639211 0.7620 0.7770 0.7940 0.7980 0.8010
1510.588000 0.8000 0.7980 0.7970 0.7930 0.7900
1517.543211 0.7840 0.7840 0.7830 0.7830 0.7810
1524.492000 0.7800 0.7770 0.7740 0.7720 0.7670
1531.447211 0.7650 0.7550 0.7520 0.7460 0.7440
1538.396000 0.7370 0.7270 0.7240 0.7230 0.7230
1545.351211 0.7210 0.7200 0.7180 0.7140 0.7060
1552.299000 0.7000 0.6900 0.6790 0.6690 0.6670
1559.254211 0.6540 0.6510 0.6500 0.6460 0.6410
1566.203000 0.6330 0.6260 0.6060 0.5730 0.5660
1573.158211 0.5620 0.5420 0.5210 0.5180 0.5180
1580.107000 0.5140 0.4970 0.4710 0.4360 0.4080
1587.062211 0.3730 0.3560 0.3560 0.3810 0.4360
1594.011000 0.4890 0.5520 0.5880 0.6330 0.7180
1600.966211 0.7940 0.8570 0.9030 0.9300 0.9300
1607.914000 0.9240 0.9170 0.9130 0.9040 0.9020
1614.869211 0.8950 0.8920 0.8900 0.8890 0.8850
1621.818000 0.8810 0.8760 0.8750 0.8710 0.8620
1628.773211 0.8600 0.8570 0.8550 0.8540 0.8540
1635.722000 0.8530 0.8510 0.8500 0.8480 0.8480
1642.677211 0.8470 0.8470 0.8460 0.8460 0.8460
1649.626000 0.8440 0.8430 0.8410 0.8400 0.8390
1656.581211 0.8390 0.8340 0.8320 0.8260 0.8230
1663.529000 0.8190 0.8180 0.8160 0.8150 0.8120
1670.484211 0.8110 0.8110 0.8080 0.8050 0.8040
1677.433000 0.8000 0.7970 0.7940 0.7900 0.7870
1684.388211 0.7860 0.7860 0.7840 0.7840 0.7810
1691.337000 0.7790 0.7770 0.7760 0.7760 0.7740
1698.292211 0.7740 0.7730 0.7730 0.7720 0.7720
1705.241000 0.7700 0.7700 0.7690 0.7670 0.7650
1712.196211 0.7630 0.7620 0.7600 0.7590 0.7580
1719.144000 0.7560 0.7550 0.7520 0.7440 0.7390
1726.099211 0.7370 0.7300 0.7280 0.7280 0.7270
1733.048000 0.7270 0.7250 0.7250 0.7240 0.7210
1740.003211 0.7180 0.7170 0.7160 0.7140 0.7110
1746.952000 0.7100 0.7090 0.7090 0.7060 0.7060
1753.907211 0.7040 0.7020 0.6990 0.6970 0.6950
1760.856000 0.6920 0.6900 0.6880 0.6830 0.6760
1767.811211 0.6750 0.6740 0.6740 0.6720 0.6710
1774.759000 0.6690 0.6650 0.6610 0.6600 0.6570
1781.714211 0.6540 0.6530 0.6460 0.6410 0.6340
1788.663000 0.6230 0.6200 0.6150 0.6120 0.6110
1795.618211 0.6080 0.6040 0.6020 0.6000 0.5950
1802.567000 0.5930 0.5870 0.5830 0.5770 0.5730
1809.522211 0.5690 0.5630 0.5600 0.5560 0.5520
1816.471000 0.5510 0.5380 0.5370 0.5350 0.5340
1823.426211 0.5310 0.5280 0.5230 0.5180 0.5110
1830.374000 0.5040 0.5030 0.5020 0.4920 0.4890
1837.329211 0.4830 0.4780 0.4750 0.4670 0.4610
1844.278000 0.4570 0.4550 0.4510 0.4500 0.4480
1851.233211 0.4470 0.4460 0.4440 0.4430 0.4410
1858.182000 0.4410 0.4410 0.4430 0.4440 0.4470
1865.137211 0.4480 0.4500 0.4510 0.4540 0.4570
1872.086000 0.4600 0.4610 0.4670 0.4710 0.4790
1879.041211 0.4830 0.4900 0.5000 0.5130 0.5210
1885.989000 0.5300 0.5320 0.5520 0.5660 0.5760
1892.944211 0.5840 0.6040 0.6160 0.6250 0.6330
1899.893000 0.6510 0.6650 0.6820 0.6990 0.7030
1906.848211 0.7060 0.7100 0.7170 0.7230 0.7340
1913.797000 0.7510 0.7550 0.7650 0.7760 0.7770
1920.752211 0.7830 0.7880 0.7940 0.7980 0.8040
1927.701000 0.8090 0.8130 0.8190 0.8250 0.8260
1934.656211 0.8320 0.8370 0.8440 0.8500 0.8550
1941.604000 0.8620 0.8680 0.8750 0.8810 0.8880
1948.559211 0.8930 0.9000 0.9060 0.9130 0.9180
1955.508000 0.9240 0.9280 0.9320 0.9370 0.9410
1962.463211 0.9450 0.9490 0.9530 0.9560 0.9580
1969.412000 0.9580 0.9590 0.9590 0.9590 0.9580
1976.367211 0.9560 0.9550 0.9520 0.9520 0.9480
1983.315000 0.9440 0.9410 0.9410 0.9370 0.9340
1990.270211 0.9280 0.9250 0.9180 0.9110 0.9030
1997.219000 0.8970 0.8960 0.8930 0.8920 0.8900
2004.174211 0.8900 0.8890 0.8890 0.8880 0.8880
2011.123000 0.8860 0.8860 0.8860 0.8860 0.8860
2018.078211 0.8860 0.8880 0.8880 0.8890 0.8890
2025.027000 0.8900 0.8920 0.8930 0.8960 0.8970
2031.982211 0.8990 0.8990 0.9000 0.9000 0.9020
2038.930000 0.9020 0.9030 0.9030 0.9030 0.9030
2045.885211 0.9040 0.9040 0.9040 0.9040 0.9030
2052.834000 0.9030 0.9020 0.9020 0.9020 0.9000
2059.789211 0.9000 0.8990 0.8990 0.8970 0.8970
2066.738000 0.8950 0.8930 0.8930 0.8920 0.8890
2073.693211 0.8880 0.8830 0.8810 0.8790 0.8740
2080.642000 0.8690 0.8670 0.8620 0.8600 0.8530
2087.597211 0.8480 0.8440 0.8430 0.8400 0.8390
2094.545000 0.8360 0.8330 0.8320 0.8320 0.8300
2101.500211 0.8270 0.8220 0.8150 0.8060 0.8040
2108.449000 0.7950 0.7930 0.7910 0.7880 0.7800
2115.404211 0.7740 0.7720 0.7650 0.7630 0.7620
2122.353000 0.7590 0.7560 0.7530 0.7530 0.7520
2129.308211 0.7510 0.7490 0.7490 0.7480 0.7480
2136.257000 0.7480 0.7480 0.7480 0.7480 0.7480
2143.212211 0.7480 0.7480 0.7460 0.7460 0.7450
2150.160000 0.7450 0.7450 0.7450 0.7450 0.7450
2157.115211 0.7460 0.7460 0.7460 0.7460 0.7460
2164.064000 0.7480 0.7490 0.7490 0.7510 0.7520
2171.019211 0.7530 0.7550 0.7560 0.7580 0.7580
2177.968000 0.7580 0.7590 0.7590 0.7600 0.7600
2184.923211 0.7620 0.7630 0.7670 0.7700 0.7730
2191.872000 0.7760 0.7770 0.7790 0.7810 0.7830
2198.827211 0.7860 0.7910 0.8010 0.8020 0.8040
2205.775000 0.8050 0.8080 0.8080 0.8090 0.8110
2212.730211 0.8110 0.8120 0.8120 0.8130 0.8160
2219.679000 0.8160 0.8160 0.8160 0.8160 0.8180
2226.634211 0.8180 0.8180 0.8180 0.8190 0.8190
2233.583000 0.8200 0.8230 0.8230 0.8230 0.8250
2240.538211 0.8260 0.8290 0.8320 0.8330 0.8370
2247.487000 0.8430 0.8510 0.8530 0.8570 0.8600
2254.442211 0.8620 0.8650 0.8650 0.8670 0.8710
2261.390000 0.8750 0.8760 0.8830 0.8860 0.8900
2268.345211 0.8930 0.8950 0.8970 0.8990 0.9000
2275.294000 0.9020 0.9040 0.9040 0.9070 0.9090
2282.249211 0.9100 0.9100 0.9130 0.9140 0.9160
2289.198000 0.9210 0.9280 0.9320 0.9350 0.9380
2296.153211 0.9420 0.9450 0.9460 0.9480 0.9480
2303.102000 0.9490 0.9490 0.9510 0.9510 0.9520
2310.057211 0.9520 0.9520 0.9520 0.9520 0.9520
2317.005000 0.9520 0.9530 0.9530 0.9530 0.9530
2323.960211 0.9530 0.9530 0.9530 0.9530 0.9550
2330.909000 0.9550 0.9550 0.9550 0.9550 0.9550
2337.864211 0.9550 0.9550 0.9560 0.9560 0.9560
2344.813000 0.9560 0.9560 0.9560 0.9560 0.9560
2351.768211 0.9560 0.9560 0.9560 0.9560 0.9560
2358.717000 0.9560 0.9560 0.9560 0.9560 0.9550
2365.672211 0.9550 0.9550 0.9550 0.9550 0.9550
2372.620000 0.9550 0.9550 0.9550 0.9550 0.9550
2379.575211 0.9550 0.9550 0.9550 0.9550 0.9550
2386.524000 0.9550 0.9550 0.9550 0.9530 0.9530
2393.479211 0.9530 0.9530 0.9530 0.9530 0.9520
2400.428000 0.9520 0.9520 0.9520 0.9520 0.9520
2407.383211 0.9520 0.9520 0.9510 0.9510 0.9510
2414.332000 0.9510 0.9510 0.9510 0.9510 0.9510
2421.287211 0.9510 0.9510 0.9510 0.9490 0.9410
2428.235000 0.9350 0.9300 0.9280 0.9280 0.9280
2435.190211 0.9280 0.9300 0.9300 0.9300 0.9300
2442.139000 0.9300 0.9300 0.9300 0.9300 0.9310
2449.094211 0.9310 0.9300 0.9300 0.9300 0.9300
2456.043000 0.9300 0.9310 0.9310 0.9310 0.9310
2462.998211 0.9300 0.9300 0.9300 0.9300 0.9300
2469.947000 0.9310 0.9310 0.9300 0.9300 0.9300
2476.902211 0.9280 0.9280 0.9270 0.9270 0.9250
2483.850000 0.9250 0.9250 0.9250 0.9240 0.9240
2490.805211 0.9240 0.9240 0.9240 0.9240 0.9240
2497.754000 0.9240 0.9240 0.9240 0.9240 0.9240
2504.709211 0.9240 0.9240 0.9250 0.9250 0.9270
2511.658000 0.9280 0.9300 0.9310 0.9320 0.9340
2518.613211 0.9350 0.9370 0.9370 0.9370 0.9370
2525.562000 0.9370 0.9380 0.9390 0.9390 0.9390
2532.517211 0.9390 0.9390 0.9390 0.9390 0.9390
2539.465000 0.9410 0.9410 0.9410 0.9410 0.9420
2546.420211 0.9420 0.9420 0.9420 0.9420 0.9420
2553.369000 0.9420 0.9410 0.9410 0.9410 0.9390
2560.324211 0.9380 0.9370 0.9350 0.9350 0.9350
2567.273000 0.9340 0.9320 0.9310 0.9300 0.9300
2574.228211 0.9300 0.9300 0.9280 0.9280 0.9250
2581.177000 0.9240 0.9230 0.9210 0.9200 0.9200
2588.132211 0.9200 0.9200 0.9210 0.9210 0.9230
2595.080000 0.9240 0.9250 0.9270 0.9280 0.9280
2602.035211 0.9320 0.9340 0.9350 0.9370 0.9380
2608.984000 0.9380 0.9390 0.9390 0.9390 0.9410
2615.939211 0.9410 0.9410 0.9420 0.9440 0.9440
2622.888000 0.9440 0.9450 0.9460 0.9460 0.9460
2629.843211 0.9460 0.9450 0.9450 0.9450 0.9450
2636.792000 0.9450 0.9440 0.9440 0.9440 0.9420
2643.747211 0.9420 0.9420 0.9420 0.9420 0.9420
2650.695000 0.9420 0.9420 0.9440 0.9440 0.9440
2657.650211 0.9420 0.9420 0.9420 0.9410 0.9410
2664.599000 0.9410 0.9410 0.9410 0.9410 0.9410
2671.554211 0.9410 0.9410 0.9390 0.9390 0.9390
2678.503000 0.9390 0.9380 0.9380 0.9380 0.9380
2685.458211 0.9390 0.9390 0.9390 0.9390 0.9410
2692.406000 0.9410 0.9410 0.9410 0.9410 0.9410
2699.361211 0.9420 0.9420 0.9420 0.9420 0.9410
2706.310000 0.9410 0.9410 0.9410 0.9410 0.9390
2713.265211 0.9390 0.9390 0.9380 0.9380 0.9380
2720.214000 0.9370 0.9370 0.9380 0.9380 0.9390
2727.169211 0.9390 0.9390 0.9410 0.9410 0.9420
2734.118000 0.9420 0.9440 0.9440 0.9440 0.9440
2741.073211 0.9440 0.9440 0.9440 0.9440 0.9440
2748.021000 0.9440 0.9440 0.9440 0.9420 0.9420
2754.976211 0.9420 0.9420 0.9420 0.9410 0.9410
2761.925000 0.9410 0.9390 0.9380 0.9380 0.9350
2768.880211 0.9340 0.9310 0.9270 0.9240 0.9210
2775.829000 0.9200 0.9160 0.9130 0.9100 0.9060
2782.784211 0.9030 0.9020 0.9020 0.8990 0.8960
2789.733000 0.8900 0.8860 0.8810 0.8750 0.8710
2796.688211 0.8650 0.8610 0.8540 0.8480 0.8440
2803.636000 0.8410 0.8360 0.8300 0.8260 0.8180
2810.591211 0.8110 0.8020 0.7950 0.7860 0.7700
2817.540000 0.7600 0.7520 0.7350 0.7200 0.7030
2824.495211 0.6890 0.6640 0.6370 0.6010 0.5350
2831.444000 0.5210 0.4440 0.4090 0.3800 0.3370
2838.399211 0.3020 0.2540 0.2120 0.1830 0.1630
2845.348000 0.1490 0.1350 0.1320 0.1280 0.1250
2852.303211 0.1240 0.1230 0.1230 0.1230 0.1240
2859.251000 0.1270 0.1300 0.1320 0.1350 0.1370
2866.206211 0.1390 0.1410 0.1410 0.1410 0.1420
2873.155000 0.1440 0.1440 0.1440 0.1450 0.1450
2880.110211 0.1450 0.1440 0.1410 0.1370 0.1270
2887.059000 0.1140 0.1000 0.0990 0.0970 0.0850
2894.014211 0.0780 0.0750 0.0710 0.0670 0.0600
2900.962000 0.0570 0.0540 0.0530 0.0510 0.0500
2907.917211 0.0480 0.0470 0.0470 0.0470 0.0480
2914.866000 0.0480 0.0480 0.0500 0.0500 0.0510
2921.821211 0.0510 0.0530 0.0530 0.0540 0.0540
2928.770000 0.0550 0.0570 0.0580 0.0610 0.0670
2935.725211 0.0710 0.0750 0.0760 0.0780 0.0790
2942.674000 0.0810 0.0830 0.0860 0.0880 0.0890
2949.629211 0.0920 0.0950 0.0970 0.1000 0.1030
2956.577000 0.1060 0.1070 0.1100 0.1110 0.1180
2963.532211 0.1270 0.1320 0.1380 0.1410 0.1530
2970.481000 0.1600 0.1790 0.2000 0.2060 0.2130
2977.436211 0.2340 0.2580 0.2810 0.2820 0.3070
2984.385000 0.3310 0.3770 0.3790 0.4340 0.4530
2991.340211 0.4740 0.4890 0.5000 0.5020 0.5030
2998.289000 0.5090 0.5200 0.5280 0.5320 0.5390
3005.244211 0.5420 0.5510 0.5580 0.5660 0.5670
3012.192000 0.5700 0.5730 0.5760 0.5770 0.5790
3019.147211 0.5790 0.5790 0.5800 0.5800 0.5800
3026.096000 0.5800 0.5810 0.5880 0.5910 0.5950
3033.051211 0.5970 0.5980 0.6000 0.6000 0.6010
3040.000000 0.6010 0.6010 0.6020 0.6020 0.6020
3046.955211 0.6020 0.6040 0.6040 0.6040 0.6050
3053.904000 0.6090 0.6120 0.6290 0.6540 0.6780
3060.859211 0.7110 0.7370 0.7650 0.8040 0.8300
3067.807000 0.8440 0.8480 0.8500 0.8510 0.8530
3074.762211 0.8530 0.8530 0.8530 0.8530 0.8530
3081.711000 0.8530 0.8530 0.8530 0.8530 0.8510
3088.666211 0.8510 0.8510 0.8510 0.8510 0.8510
3095.615000 0.8510 0.8500 0.8500 0.8500 0.8500
3102.570211 0.8500 0.8500 0.8500 0.8480 0.8480
3109.519000 0.8480 0.8480 0.8480 0.8460 0.8460
3116.474211 0.8460 0.8460 0.8440 0.8440 0.8430
3123.422000 0.8400 0.8400 0.8390 0.8390 0.8390
3130.377211 0.8390 0.8370 0.8370 0.8360 0.8360
3137.326000 0.8340 0.8330 0.8320 0.8320 0.8300
3144.281211 0.8300 0.8300 0.8290 0.8290 0.8270
3151.230000 0.8260 0.8250 0.8250 0.8250 0.8230
3158.185211 0.8230 0.8230 0.8220 0.8220 0.8220
3165.134000 0.8220 0.8220 0.8220 0.8220 0.8220
3172.089211 0.8220 0.8200 0.8200 0.8200 0.8200
3179.037000 0.8190 0.8190 0.8190 0.8190 0.8190
3185.992211 0.8190 0.8190 0.8180 0.8180 0.8180
3192.941000 0.8160 0.8160 0.8160 0.8160 0.8160
3199.896211 0.8160 0.8160 0.8160 0.8160 0.8160
3206.845000 0.8160 0.8160 0.8160 0.8160 0.8160
3213.800211 0.8160 0.8160 0.8160 0.8160 0.8160
3220.749000 0.8160 0.8160 0.8160 0.8160 0.8160
3227.704211 0.8150 0.8150 0.8130 0.8130 0.8130
3234.652000 0.8120 0.8120 0.8110 0.8110 0.8090
3241.607211 0.8090 0.8090 0.8090 0.8090 0.8090
3248.556000 0.8090 0.8090 0.8090 0.8090 0.8090
3255.511211 0.8090 0.8090 0.8080 0.8080 0.8080
3262.460000 0.8080 0.8080 0.8060 0.8060 0.8060
3269.415211 0.8060 0.8060 0.8060 0.8060 0.8060
3276.364000 0.8060 0.8060 0.8060 0.8050 0.8050
3283.319211 0.8050 0.8040 0.8040 0.8040 0.8040
3290.267000 0.8020 0.8020 0.8020 0.8010 0.8010
3297.222211 0.8010 0.8000 0.7980 0.7980 0.7980
3304.171000 0.7970 0.7970 0.7970 0.7950 0.7940
3311.126211 0.7940 0.7940 0.7930 0.7930 0.7910
3318.075000 0.7910 0.7900 0.7900 0.7900 0.7900
3325.030211 0.7900 0.7880 0.7880 0.7880 0.7880
3331.979000 0.7880 0.7880 0.7880 0.7880 0.7880
3338.934211 0.7880 0.7880 0.7870 0.7870 0.7860
3345.882000 0.7860 0.7860 0.7840 0.7840 0.7830
3352.837211 0.7810 0.7800 0.7800 0.7800 0.7800
3359.786000 0.7800 0.7800 0.7800 0.7800 0.7800
3366.741211 0.7800 0.7800 0.7800 0.7810 0.7800
3373.690000 0.7800 0.7800 0.7800 0.7790 0.7790
3380.645211 0.7790 0.7770 0.7770 0.7790 0.7790
3387.594000 0.7790 0.7790 0.7790 0.7790 0.7790
3394.549211 0.7790 0.7790 0.7770 0.7770 0.7770
3401.497000 0.7770 0.7770 0.7770 0.7770 0.7770
3408.452211 0.7770 0.7770 0.7770 0.7770 0.7770
3415.401000 0.7770 0.7770 0.7790 0.7790 0.7790
3422.356211 0.7790 0.7790 0.7770 0.7770 0.7770
3429.305000 0.7770 0.7790 0.7800 0.7800 0.7800
3436.260211 0.7800 0.7800 0.7800 0.7800 0.7790
3443.208000 0.7790 0.7790 0.7770 0.7770 0.7770
3450.163211 0.7770 0.7770 0.7770 0.7770 0.7770
3457.112000 0.7770 0.7770 0.7790 0.7790 0.7790
3464.067211 0.7790 0.7790 0.7790 0.7790 0.7790
3471.016000 0.7790 0.7790 0.7790 0.7800 0.7800
3477.971211 0.7800 0.7800 0.7800 0.7800 0.7800
3484.920000 0.7800 0.7800 0.7800 0.7800 0.7800
3491.875211 0.7800 0.7800 0.7800 0.7800 0.7800
3498.823000 0.7800 0.7800 0.7790 0.7790 0.7790
3505.778211 0.7790 0.7790 0.7790 0.7790 0.7790
3512.727000 0.7790 0.7770 0.7770 0.7770 0.7770
3519.682211 0.7770 0.7770 0.7770 0.7770 0.7770
3526.631000 0.7770 0.7760 0.7760 0.7760 0.7740
3533.586211 0.7740 0.7730 0.7730 0.7720 0.7700
3540.535000 0.7700 0.7690 0.7690 0.7670
##END=
