##TITLE=1,8-ANTHRAQUINONE SULFONIC ACID, DISODIUM SALT
##JCAMP-DX=4.24
##DATA TYPE=INFRARED SPECTRUM
##CLASS=COBLENTZ
##ORIGIN=CORN PRODUCTS COMPANY
##OWNER=COBLENTZ SOCIETY
Collection (C) 2018 copyright by the U.S. Secretary of Commerce
on behalf of the United States of America. All rights reserved.
##DATE=Not specified, most likely prior to 1970
##MOLFORM=C14 H6 O8 S2 Na2
##SOURCE REFERENCE=COBLENTZ NO. 4617
##$NIST ID=B6004617
##$NIST SOURCE=COBLENTZ
##$NIST IMAGE=cob4617
##SPECTROMETER/DATA SYSTEM=Not specified, most likely a prism, grating, or hybrid spectrometer.
##STATE=SOLID (KBr PELLET)
##SAMPLING PROCEDURE=TRANSMISSION
##RESOLUTION=4
##DATA PROCESSING=DIGITIZED BY NIST FROM HARD COPY
##XUNITS=MICROMETERS
##YUNITS=TRANSMITTANCE
##XFACTOR=1.000000
##YFACTOR=1
##DELTAX=000.006761
##FIRSTX=2.041
##LASTX=15.5288
##FIRSTY=0.782
##MAXX=15.5288
##MINX=2.041
##MAXY=0.828
##MINY=0.227
##NPOINTS=1996
##XYDATA=(X++(Y..Y))
2.041000 0.7820 0.7820 0.7820 0.7820 0.7820
2.074821 0.7840 0.7860 0.7870 0.7910 0.7910
2.108000 0.7910 0.7920 0.7920 0.7920 0.7920
2.141821 0.7920 0.7920 0.7940 0.7940 0.7940
2.176000 0.7960 0.7960 0.7960 0.7960 0.7960
2.209821 0.7960 0.7960 0.7960 0.7960 0.7960
2.243000 0.7960 0.7960 0.7960 0.7960 0.7960
2.276821 0.7960 0.7960 0.7970 0.7970 0.7970
2.311000 0.7970 0.7970 0.7970 0.7970 0.7990
2.344821 0.7990 0.8010 0.8010 0.8010 0.8010
2.379000 0.8010 0.8010 0.8010 0.8010 0.8010
2.412821 0.8010 0.8010 0.8010 0.8010 0.8010
2.446000 0.8010 0.8010 0.8030 0.8030 0.8030
2.479821 0.8030 0.8040 0.8040 0.8040 0.8060
2.514000 0.8060 0.8060 0.8080 0.8080 0.8080
2.547821 0.8080 0.8080 0.8060 0.8060 0.8040
2.581000 0.8040 0.8040 0.8030 0.8030 0.8010
2.614821 0.8010 0.8010 0.8010 0.8010 0.8010
2.649000 0.8010 0.8030 0.8030 0.8040 0.8040
2.682821 0.8040 0.8040 0.8040 0.8040 0.8040
2.717000 0.8040 0.8030 0.8030 0.8010 0.7970
2.750821 0.7940 0.7840 0.7800 0.7720 0.7550
2.784000 0.7380 0.7190 0.6920 0.6550 0.6010
2.817821 0.5630 0.5290 0.5140 0.4990 0.4730
2.852000 0.4510 0.4320 0.4170 0.4050 0.3930
2.885821 0.3830 0.3680 0.3580 0.3540 0.3480
2.919000 0.3370 0.3310 0.3270 0.3250 0.3240
2.952821 0.3240 0.3250 0.3270 0.3310 0.3360
2.987000 0.3460 0.3580 0.3710 0.3870 0.4040
3.020821 0.4220 0.4410 0.4630 0.4830 0.5240
3.055000 0.5410 0.5560 0.5680 0.5800 0.5920
3.088821 0.6010 0.6110 0.6190 0.6210 0.6230
3.122000 0.6290 0.6380 0.6500 0.6570 0.6720
3.155821 0.6850 0.6960 0.7010 0.7060 0.7160
3.190000 0.7260 0.7350 0.7410 0.7480 0.7520
3.223821 0.7580 0.7600 0.7640 0.7650 0.7670
3.258000 0.7690 0.7690 0.7690 0.7700 0.7700
3.291821 0.7700 0.7700 0.7720 0.7720 0.7740
3.325000 0.7770 0.7800 0.7820 0.7840 0.7860
3.358821 0.7870 0.7870 0.7870 0.7890 0.7890
3.393000 0.7910 0.7920 0.7970 0.8010 0.8030
3.426821 0.8040 0.8080 0.8080 0.8090 0.8090
3.460000 0.8110 0.8110 0.8130 0.8140 0.8140
3.493821 0.8160 0.8160 0.8180 0.8180 0.8200
3.528000 0.8200 0.8210 0.8210 0.8210 0.8210
3.561821 0.8210 0.8210 0.8210 0.8210 0.8210
3.596000 0.8210 0.8200 0.8200 0.8200 0.8200
3.629821 0.8200 0.8200 0.8210 0.8210 0.8210
3.663000 0.8210 0.8210 0.8230 0.8230 0.8210
3.696821 0.8210 0.8210 0.8210 0.8210 0.8210
3.731000 0.8210 0.8210 0.8210 0.8210 0.8210
3.764821 0.8210 0.8210 0.8210 0.8210 0.8210
3.798000 0.8230 0.8230 0.8230 0.8230 0.8250
3.831821 0.8250 0.8250 0.8260 0.8260 0.8260
3.866000 0.8280 0.8280 0.8280 0.8280 0.8280
3.899821 0.8260 0.8250 0.8230 0.8230 0.8210
3.934000 0.8200 0.8200 0.8200 0.8210 0.8210
3.967821 0.8230 0.8230 0.8230 0.8230 0.8230
4.001000 0.8250 0.8250 0.8250 0.8250 0.8250
4.034821 0.8260 0.8260 0.8260 0.8260 0.8260
4.069000 0.8260 0.8280 0.8280 0.8280 0.8280
4.102821 0.8280 0.8280 0.8260 0.8260 0.8260
4.136000 0.8280 0.8280 0.8280 0.8280 0.8260
4.169821 0.8260 0.8260 0.8250 0.8250 0.8250
4.204000 0.8230 0.8230 0.8210 0.8210 0.8210
4.237821 0.8210 0.8210 0.8210 0.8210 0.8210
4.272000 0.8210 0.8200 0.8200 0.8210 0.8210
4.305821 0.8200 0.8180 0.8180 0.8180 0.8180
4.339000 0.8180 0.8180 0.8180 0.8180 0.8180
4.372821 0.8180 0.8200 0.8200 0.8210 0.8210
4.407000 0.8210 0.8200 0.8180 0.8180 0.8180
4.440821 0.8180 0.8180 0.8180 0.8180 0.8180
4.474000 0.8180 0.8180 0.8180 0.8200 0.8210
4.507821 0.8210 0.8210 0.8210 0.8210 0.8200
4.542000 0.8200 0.8180 0.8180 0.8180 0.8180
4.575821 0.8180 0.8180 0.8180 0.8200 0.8200
4.610000 0.8180 0.8180 0.8180 0.8180 0.8180
4.643821 0.8180 0.8180 0.8160 0.8160 0.8160
4.677000 0.8160 0.8160 0.8160 0.8160 0.8160
4.710821 0.8160 0.8140 0.8140 0.8140 0.8140
4.745000 0.8140 0.8140 0.8140 0.8140 0.8140
4.778821 0.8140 0.8140 0.8140 0.8140 0.8130
4.813000 0.8130 0.8130 0.8130 0.8130 0.8110
4.846821 0.8110 0.8110 0.8110 0.8090 0.8090
4.880000 0.8090 0.8090 0.8080 0.8080 0.8080
4.913821 0.8080 0.8080 0.8080 0.8090 0.8090
4.948000 0.8090 0.8090 0.8090 0.8110 0.8110
4.981821 0.8110 0.8110 0.8110 0.8090 0.8090
5.015000 0.8090 0.8090 0.8090 0.8090 0.8090
5.048821 0.8090 0.8090 0.8110 0.8110 0.8130
5.083000 0.8130 0.8130 0.8140 0.8140 0.8140
5.116821 0.8160 0.8160 0.8160 0.8160 0.8160
5.151000 0.8160 0.8160 0.8160 0.8160 0.8160
5.184821 0.8160 0.8160 0.8180 0.8180 0.8180
5.218000 0.8180 0.8180 0.8180 0.8180 0.8200
5.251821 0.8200 0.8200 0.8200 0.8200 0.8210
5.286000 0.8210 0.8210 0.8210 0.8210 0.8210
5.319821 0.8210 0.8210 0.8210 0.8210 0.8210
5.353000 0.8210 0.8210 0.8210 0.8230 0.8230
5.386821 0.8230 0.8230 0.8230 0.8230 0.8230
5.421000 0.8230 0.8250 0.8250 0.8250 0.8250
5.454821 0.8250 0.8250 0.8250 0.8250 0.8250
5.489000 0.8250 0.8230 0.8230 0.8230 0.8230
5.522821 0.8230 0.8230 0.8230 0.8230 0.8230
5.556000 0.8210 0.8210 0.8210 0.8200 0.8200
5.589821 0.8200 0.8200 0.8200 0.8200 0.8200
5.624000 0.8200 0.8200 0.8200 0.8200 0.8200
5.657821 0.8180 0.8180 0.8180 0.8160 0.8160
5.691000 0.8160 0.8140 0.8140 0.8140 0.8130
5.724821 0.8130 0.8110 0.8110 0.8110 0.8110
5.759000 0.8110 0.8090 0.8090 0.8080 0.8060
5.792821 0.8040 0.7970 0.7910 0.7840 0.7790
5.827000 0.7700 0.7620 0.7470 0.7240 0.7060
5.860821 0.6910 0.6750 0.6650 0.6460 0.6280
5.894000 0.6160 0.5940 0.5850 0.5840 0.5820
5.927821 0.5800 0.5730 0.5670 0.5460 0.5410
5.962000 0.5390 0.5410 0.5480 0.5510 0.5670
5.995821 0.5800 0.6040 0.6140 0.6210 0.6230
6.030000 0.6240 0.6240 0.6240 0.6240 0.6230
6.063821 0.6230 0.6190 0.6170 0.6140 0.6120
6.097000 0.6110 0.6090 0.6070 0.6060 0.6060
6.130821 0.6040 0.6040 0.6060 0.6070 0.6090
6.165000 0.6120 0.6140 0.6170 0.6210 0.6330
6.198821 0.6460 0.6600 0.6670 0.6700 0.6790
6.232000 0.6840 0.6960 0.7020 0.7090 0.7140
6.265821 0.7190 0.7210 0.7280 0.7280 0.7260
6.300000 0.7230 0.7110 0.6910 0.6740 0.6620
6.333821 0.6450 0.6290 0.6260 0.6290 0.6480
6.368000 0.6650 0.6840 0.7060 0.7130 0.7300
6.401821 0.7360 0.7400 0.7430 0.7470 0.7530
6.435000 0.7620 0.7690 0.7750 0.7820 0.7840
6.468821 0.7860 0.7870 0.7870 0.7870 0.7890
6.503000 0.7910 0.7920 0.7920 0.7960 0.7970
6.536821 0.7970 0.7990 0.7990 0.8010 0.8030
6.570000 0.8030 0.8040 0.8040 0.8040 0.8040
6.603821 0.8040 0.8040 0.8040 0.8040 0.8040
6.638000 0.8040 0.8040 0.8060 0.8060 0.8080
6.671821 0.8080 0.8080 0.8080 0.8080 0.8060
6.706000 0.8060 0.8060 0.8040 0.8040 0.8040
6.739821 0.8040 0.8040 0.8030 0.8030 0.8030
6.773000 0.8030 0.8010 0.8010 0.8010 0.8010
6.806821 0.8030 0.8030 0.8030 0.8030 0.8010
6.841000 0.8010 0.7990 0.7960 0.7920 0.7910
6.874821 0.7890 0.7890 0.7890 0.7910 0.7920
6.908000 0.7920 0.7920 0.7920 0.7940 0.7960
6.941821 0.7960 0.7970 0.7970 0.7960 0.7940
6.976000 0.7920 0.7920 0.7920 0.7920 0.7910
7.009821 0.7910 0.7910 0.7890 0.7890 0.7890
7.044000 0.7890 0.7910 0.7910 0.7920 0.7940
7.077821 0.7940 0.7960 0.7960 0.7970 0.7970
7.111000 0.7990 0.7990 0.7990 0.7990 0.7990
7.144821 0.7990 0.7990 0.7990 0.7990 0.7990
7.179000 0.7970 0.7970 0.7970 0.7960 0.7960
7.212821 0.7940 0.7920 0.7910 0.7890 0.7870
7.246000 0.7840 0.7820 0.7820 0.7840 0.7860
7.279821 0.7870 0.7870 0.7870 0.7890 0.7890
7.314000 0.7890 0.7890 0.7890 0.7890 0.7890
7.347821 0.7870 0.7870 0.7870 0.7860 0.7860
7.382000 0.7840 0.7840 0.7820 0.7820 0.7770
7.415821 0.7770 0.7740 0.7740 0.7700 0.7620
7.449000 0.7550 0.7450 0.7360 0.7260 0.7140
7.482821 0.7020 0.6870 0.6680 0.5800 0.5750
7.517000 0.5410 0.5110 0.4990 0.4870 0.4660
7.550821 0.4580 0.4460 0.4340 0.4320 0.4320
7.585000 0.4360 0.4600 0.4800 0.5380 0.5610
7.618821 0.5730 0.5820 0.5920 0.5990 0.6020
7.652000 0.6090 0.6110 0.6140 0.6190 0.6230
7.685821 0.6280 0.6280 0.6310 0.6360 0.6430
7.720000 0.6500 0.6550 0.6600 0.6630 0.6680
7.753821 0.6740 0.6800 0.6850 0.6920 0.6970
7.787000 0.7010 0.7020 0.7060 0.7070 0.7090
7.820821 0.7090 0.7090 0.7070 0.7010 0.6960
7.855000 0.6890 0.6820 0.6720 0.6550 0.6340
7.888821 0.6040 0.5650 0.5290 0.5110 0.4900
7.923000 0.4700 0.4510 0.4320 0.4170 0.4150
7.956821 0.4020 0.4000 0.4000 0.4000 0.4020
7.990000 0.4040 0.4050 0.4070 0.4090 0.4120
8.023821 0.4140 0.4150 0.4150 0.4140 0.4070
8.058000 0.4040 0.4020 0.3930 0.3750 0.3650
8.091821 0.3530 0.3390 0.3270 0.3150 0.3030
8.125000 0.2950 0.2860 0.2810 0.2780 0.2760
8.158821 0.2680 0.2590 0.2540 0.2510 0.2490
8.193000 0.2460 0.2420 0.2350 0.2340 0.2320
8.226821 0.2300 0.2300 0.2300 0.2290 0.2290
8.261000 0.2290 0.2270 0.2270 0.2270 0.2270
8.294821 0.2290 0.2300 0.2350 0.2410 0.2470
8.328000 0.2560 0.2680 0.2800 0.2950 0.3100
8.361821 0.3290 0.3420 0.3560 0.3660 0.3800
8.396000 0.3930 0.4100 0.4310 0.4490 0.4580
8.429821 0.4660 0.4780 0.4900 0.5170 0.5260
8.463000 0.5330 0.5360 0.5410 0.5480 0.5560
8.496821 0.5680 0.5770 0.5840 0.5850 0.5940
8.531000 0.6010 0.6070 0.6140 0.6230 0.6290
8.564821 0.6310 0.6340 0.6360 0.6360 0.6360
8.599000 0.6340 0.6340 0.6330 0.6310 0.6290
8.632821 0.6280 0.6280 0.6280 0.6260 0.6260
8.666000 0.6260 0.6260 0.6260 0.6260 0.6260
8.699821 0.6240 0.6210 0.6140 0.6110 0.6070
8.734000 0.6060 0.6040 0.6040 0.6060 0.6070
8.767821 0.6110 0.6170 0.6210 0.6280 0.6380
8.801000 0.6450 0.6510 0.6550 0.6580 0.6620
8.834821 0.6630 0.6670 0.6680 0.6700 0.6700
8.869000 0.6720 0.6740 0.6770 0.6800 0.6840
8.902821 0.6870 0.6910 0.6940 0.6960 0.6960
8.937000 0.6970 0.6970 0.6990 0.7010 0.7020
8.970821 0.7020 0.7040 0.7040 0.7060 0.7070
9.004000 0.7090 0.7110 0.7110 0.7140 0.7160
9.037821 0.7180 0.7190 0.7190 0.7210 0.7210
9.072000 0.7230 0.7280 0.7300 0.7310 0.7360
9.105821 0.7380 0.7400 0.7400 0.7410 0.7430
9.140000 0.7430 0.7430 0.7430 0.7450 0.7450
9.173821 0.7450 0.7450 0.7450 0.7450 0.7450
9.207000 0.7450 0.7470 0.7470 0.7470 0.7470
9.240821 0.7470 0.7470 0.7480 0.7480 0.7480
9.275000 0.7480 0.7480 0.7480 0.7480 0.7480
9.308821 0.7480 0.7470 0.7470 0.7450 0.7430
9.342000 0.7410 0.7410 0.7400 0.7360 0.7350
9.375821 0.7330 0.7330 0.7330 0.7310 0.7300
9.410000 0.7300 0.7280 0.7240 0.7140 0.7040
9.443821 0.6920 0.6600 0.6290 0.6110 0.5970
9.478000 0.5800 0.5510 0.5040 0.4680 0.4310
9.511821 0.4020 0.3650 0.3440 0.3240 0.3050
9.545000 0.2900 0.2780 0.2680 0.2630 0.2610
9.578821 0.2610 0.2610 0.2630 0.2710 0.2850
9.613000 0.3240 0.3440 0.3710 0.4070 0.4460
9.646821 0.4820 0.5480 0.5770 0.6020 0.6240
9.680000 0.6430 0.6550 0.6770 0.6910 0.7020
9.713821 0.7090 0.7140 0.7190 0.7230 0.7280
9.748000 0.7360 0.7450 0.7520 0.7530 0.7550
9.781821 0.7550 0.7550 0.7570 0.7580 0.7600
9.816000 0.7600 0.7600 0.7620 0.7640 0.7640
9.849821 0.7670 0.7700 0.7740 0.7750 0.7790
9.883000 0.7820 0.7840 0.7840 0.7800 0.7790
9.916821 0.7790 0.7770 0.7750 0.7750 0.7740
9.951000 0.7720 0.7700 0.7700 0.7700 0.7700
9.984821 0.7700 0.7700 0.7690 0.7690 0.7670
10.018000 0.7650 0.7650 0.7650 0.7670 0.7670
10.051821 0.7690 0.7690 0.7670 0.7670 0.7670
10.086000 0.7650 0.7650 0.7650 0.7650 0.7650
10.119821 0.7650 0.7650 0.7670 0.7670 0.7690
10.154000 0.7690 0.7670 0.7670 0.7670 0.7640
10.187821 0.7620 0.7580 0.7520 0.7500 0.7480
10.221000 0.7480 0.7430 0.7330 0.7240 0.7160
10.254821 0.7070 0.7020 0.6960 0.6910 0.6850
10.289000 0.6820 0.6800 0.6770 0.6750 0.6750
10.322821 0.6770 0.6790 0.6820 0.6850 0.6910
10.356000 0.6990 0.7010 0.7040 0.7110 0.7180
10.389821 0.7210 0.7240 0.7310 0.7350 0.7380
10.424000 0.7400 0.7410 0.7430 0.7480 0.7520
10.457821 0.7530 0.7550 0.7550 0.7570 0.7570
10.492000 0.7580 0.7600 0.7600 0.7600 0.7600
10.525821 0.7600 0.7600 0.7600 0.7600 0.7600
10.559000 0.7600 0.7600 0.7600 0.7620 0.7620
10.592821 0.7620 0.7640 0.7650 0.7670 0.7690
10.627000 0.7690 0.7700 0.7700 0.7720 0.7720
10.660821 0.7720 0.7720 0.7720 0.7720 0.7740
10.695000 0.7740 0.7750 0.7770 0.7770 0.7770
10.728821 0.7770 0.7770 0.7790 0.7790 0.7800
10.762000 0.7800 0.7800 0.7820 0.7820 0.7820
10.795821 0.7820 0.7820 0.7840 0.7840 0.7840
10.830000 0.7840 0.7820 0.7820 0.7800 0.7800
10.863821 0.7800 0.7800 0.7800 0.7800 0.7800
10.897000 0.7800 0.7800 0.7790 0.7790 0.7770
10.930821 0.7770 0.7720 0.7720 0.7670 0.7600
10.965000 0.7580 0.7570 0.7530 0.7520 0.7480
10.998821 0.7480 0.7470 0.7470 0.7470 0.7480
11.033000 0.7480 0.7500 0.7520 0.7530 0.7550
11.066821 0.7580 0.7580 0.7600 0.7600 0.7620
11.100000 0.7640 0.7650 0.7670 0.7670 0.7690
11.133821 0.7690 0.7700 0.7720 0.7720 0.7720
11.168000 0.7740 0.7740 0.7740 0.7740 0.7740
11.201821 0.7750 0.7750 0.7770 0.7770 0.7790
11.235000 0.7790 0.7800 0.7800 0.7800 0.7800
11.268821 0.7800 0.7800 0.7800 0.7800 0.7800
11.303000 0.7800 0.7800 0.7800 0.7800 0.7800
11.336821 0.7800 0.7800 0.7800 0.7800 0.7800
11.371000 0.7800 0.7800 0.7800 0.7800 0.7800
11.404821 0.7800 0.7800 0.7800 0.7800 0.7800
11.438000 0.7800 0.7800 0.7800 0.7800 0.7800
11.471821 0.7800 0.7800 0.7800 0.7800 0.7800
11.506000 0.7800 0.7800 0.7790 0.7790 0.7790
11.539821 0.7790 0.7790 0.7790 0.7790 0.7790
11.573000 0.7790 0.7790 0.7790 0.7770 0.7770
11.606821 0.7750 0.7750 0.7740 0.7720 0.7720
11.641000 0.7700 0.7690 0.7620 0.7580 0.7570
11.674821 0.7530 0.7520 0.7520 0.7500 0.7500
11.709000 0.7480 0.7480 0.7470 0.7430 0.7410
11.742821 0.7360 0.7330 0.7300 0.7240 0.7190
11.776000 0.7180 0.7180 0.7160 0.7160 0.7160
11.809821 0.7180 0.7180 0.7190 0.7210 0.7230
11.844000 0.7280 0.7310 0.7360 0.7380 0.7430
11.877821 0.7500 0.7570 0.7580 0.7620 0.7640
11.911000 0.7640 0.7670 0.7670 0.7690 0.7690
11.944821 0.7690 0.7690 0.7700 0.7700 0.7720
11.979000 0.7720 0.7720 0.7720 0.7720 0.7720
12.012821 0.7720 0.7720 0.7720 0.7720 0.7720
12.047000 0.7720 0.7720 0.7720 0.7720 0.7740
12.080821 0.7740 0.7750 0.7750 0.7750 0.7750
12.114000 0.7750 0.7750 0.7750 0.7750 0.7750
12.147821 0.7740 0.7740 0.7720 0.7720 0.7720
12.182000 0.7720 0.7720 0.7720 0.7700 0.7700
12.215821 0.7700 0.7690 0.7690 0.7690 0.7670
12.250000 0.7640 0.7620 0.7600 0.7580 0.7580
12.283821 0.7580 0.7580 0.7580 0.7580 0.7570
12.317000 0.7570 0.7550 0.7520 0.7500 0.7500
12.350821 0.7500 0.7480 0.7480 0.7470 0.7470
12.385000 0.7410 0.7350 0.7260 0.7190 0.7180
12.418821 0.7140 0.7110 0.7090 0.7040 0.7010
12.452000 0.6970 0.6920 0.6890 0.6870 0.6840
12.485821 0.6800 0.6770 0.6750 0.6720 0.6680
12.520000 0.6670 0.6650 0.6630 0.6630 0.6620
12.553821 0.6620 0.6620 0.6630 0.6650 0.6670
12.588000 0.6750 0.6820 0.6890 0.7010 0.7140
12.621821 0.7190 0.7230 0.7280 0.7310 0.7380
12.655000 0.7400 0.7410 0.7430 0.7450 0.7470
12.688821 0.7480 0.7500 0.7520 0.7530 0.7550
12.723000 0.7570 0.7570 0.7580 0.7580 0.7580
12.756821 0.7580 0.7600 0.7600 0.7600 0.7600
12.790000 0.7600 0.7600 0.7580 0.7580 0.7580
12.823821 0.7580 0.7580 0.7580 0.7580 0.7580
12.858000 0.7580 0.7580 0.7570 0.7570 0.7570
12.891821 0.7570 0.7570 0.7550 0.7550 0.7550
12.926000 0.7530 0.7520 0.7520 0.7520 0.7520
12.959821 0.7520 0.7520 0.7520 0.7520 0.7520
12.993000 0.7500 0.7500 0.7480 0.7480 0.7480
13.026821 0.7480 0.7480 0.7470 0.7410 0.7360
13.061000 0.7300 0.7230 0.7180 0.7110 0.7060
13.094821 0.7010 0.6970 0.6890 0.6800 0.6720
13.128000 0.6670 0.6600 0.6570 0.6530 0.6510
13.161821 0.6500 0.6500 0.6510 0.6550 0.6580
13.196000 0.6650 0.6750 0.6820 0.6890 0.6920
13.229821 0.6970 0.7010 0.7060 0.7070 0.7090
13.264000 0.7140 0.7160 0.7180 0.7180 0.7190
13.297821 0.7210 0.7210 0.7230 0.7230 0.7230
13.331000 0.7230 0.7230 0.7230 0.7240 0.7240
13.364821 0.7240 0.7240 0.7240 0.7230 0.7230
13.399000 0.7210 0.7190 0.7180 0.7160 0.7160
13.432821 0.7140 0.7140 0.7130 0.7130 0.7110
13.467000 0.7090 0.7070 0.7040 0.7020 0.6990
13.500821 0.6920 0.6850 0.6800 0.6740 0.6650
13.534000 0.6500 0.6410 0.6290 0.6170 0.6070
13.567821 0.6020 0.5950 0.5900 0.5820 0.5800
13.602000 0.5780 0.5780 0.5780 0.5800 0.5840
13.635821 0.5870 0.5990 0.6070 0.6110 0.6120
13.669000 0.6190 0.6260 0.6360 0.6400 0.6500
13.702821 0.6580 0.6680 0.6720 0.6750 0.6790
13.737000 0.6820 0.6890 0.6970 0.7040 0.7070
13.770821 0.7090 0.7110 0.7110 0.7130 0.7130
13.805000 0.7130 0.7140 0.7160 0.7160 0.7160
13.838821 0.7160 0.7160 0.7160 0.7160 0.7180
13.872000 0.7180 0.7180 0.7190 0.7190 0.7210
13.905821 0.7210 0.7210 0.7190 0.7190 0.7190
13.940000 0.7190 0.7190 0.7190 0.7180 0.7180
13.973821 0.7180 0.7180 0.7180 0.7180 0.7160
14.007000 0.7160 0.7160 0.7160 0.7160 0.7160
14.040821 0.7160 0.7160 0.7160 0.7140 0.7140
14.075000 0.7130 0.7130 0.7130 0.7130 0.7110
14.108821 0.7110 0.7110 0.7110 0.7110 0.7110
14.143000 0.7110 0.7110 0.7110 0.7090 0.7090
14.176821 0.7090 0.7090 0.7090 0.7110 0.7110
14.210000 0.7090 0.7090 0.7090 0.7070 0.7070
14.243821 0.7070 0.7070 0.7090 0.7090 0.7090
14.278000 0.7110 0.7110 0.7130 0.7130 0.7130
14.311821 0.7130 0.7130 0.7130 0.7130 0.7110
14.345000 0.7110 0.7110 0.7090 0.7090 0.7070
14.378821 0.7070 0.7070 0.7070 0.7090 0.7090
14.413000 0.7070 0.7070 0.7070 0.7070 0.7070
14.446821 0.7060 0.7060 0.7060 0.7060 0.7060
14.481000 0.7040 0.7020 0.7010 0.7010 0.6990
14.514821 0.6990 0.6990 0.6970 0.6960 0.6940
14.548000 0.6940 0.6940 0.6920 0.6920 0.6910
14.581821 0.6890 0.6890 0.6870 0.6870 0.6850
14.616000 0.6840 0.6790 0.6750 0.6740 0.6700
14.649821 0.6680 0.6670 0.6600 0.6580 0.6570
14.683000 0.6550 0.6530 0.6530 0.6510 0.6480
14.716821 0.6460 0.6460 0.6450 0.6450 0.6430
14.751000 0.6430 0.6380 0.6360 0.6360 0.6360
14.784821 0.6340 0.6340 0.6340 0.6340 0.6340
14.819000 0.6340 0.6340 0.6340 0.6340 0.6340
14.852821 0.6340 0.6340 0.6340 0.6340 0.6340
14.886000 0.6340 0.6340 0.6340 0.6340 0.6340
14.919821 0.6340 0.6340 0.6340 0.6330 0.6310
14.954000 0.6290 0.6280 0.6280 0.6260 0.6260
14.987821 0.6260 0.6280 0.6280 0.6290 0.6310
15.022000 0.6330 0.6340 0.6340 0.6360 0.6360
15.055821 0.6360 0.6360 0.6360 0.6360 0.6360
15.089000 0.6340 0.6340 0.6340 0.6330 0.6310
15.122821 0.6290 0.6290 0.6280 0.6280 0.6260
15.157000 0.6260 0.6240 0.6230 0.6210 0.6210
15.190821 0.6190 0.6160 0.6140 0.6120 0.6110
15.224000 0.6040 0.5990 0.5950 0.5940 0.5870
15.257821 0.5800 0.5780 0.5770 0.5720 0.5700
15.292000 0.5670 0.5650 0.5580 0.5510 0.5440
15.325821 0.5340 0.5290 0.5260 0.5160 0.5110
15.360000 0.5020 0.5000 0.4970 0.4940 0.4850
15.393821 0.4780 0.4710 0.4610 0.4510 0.4440
15.427000 0.4390 0.4360 0.4310 0.4240 0.4150
15.460821 0.4040 0.3950 0.3930 0.3880 0.3850
15.495000 0.3760 0.3710 0.3680 0.3660 0.3540
15.528821 0.3390
##END=
