##TITLE=Penicillin, 3-pyridylmethyl-, potassium salt
##JCAMP-DX=4.24
##DATA TYPE=INFRARED SPECTRUM
##CLASS=COBLENTZ III
##ORIGIN=SMITH, KLINE & FRENCH LABS.
##OWNER=Copyright (C) 1987 by the Coblentz Society
Collection (C) 2018 copyright by the U.S. Secretary of Commerce
on behalf of the United States of America. All rights reserved.
##DATE=1964/01/30
##MOLFORM=C15 H16 K N3 O4 S
##SOURCE REFERENCE=COBLENTZ NO. 7307
##$NIST ID=B6007307
##$NIST SOURCE=COBLENTZ
##$NIST IMAGE=cob7307
##SPECTROMETER/DATA SYSTEM=PERKIN-ELMER 21 (GRATING)
##INSTRUMENT PARAMETERS=NaCl PRISM
##STATE=SOLID (OIL MULL)
$$SPECTRAL CONTAMINATION DUE TO OIL AROUND 2830, 1460 CM^-^1
##SAMPLING PROCEDURE=TRANSMISSION
##RESOLUTION=2
##DATA PROCESSING=DIGITIZED BY COBLENTZ SOCIETY (BATCH II) FROM HARD COPY
##XUNITS=1/CM
##YUNITS=TRANSMITTANCE
##XFACTOR=1.0
##YFACTOR=1
##FIRSTX=659
##LASTX=4000
##FIRSTY=0.6168
##MAXX=4000
##MINX=659
##MAXY=0.8599
##MINY=0.0382
##NPOINTS=3342
##XYDATA=(X++(Y..Y))
659.000000 0.6168 0.6399 0.6533 0.6635 0.6755
664.000000 0.6926 0.6992 0.7029 0.7069 0.7109
669.000000 0.7142 0.7174 0.7202 0.7227 0.7251
674.000000 0.7259 0.7263 0.7256 0.7264 0.7280
679.000000 0.7294 0.7311 0.7317 0.7324 0.7327
684.000000 0.7336 0.7332 0.7354 0.7428 0.7533
689.000000 0.7372 0.7388 0.7424 0.7431 0.7419
694.000000 0.7402 0.7382 0.7360 0.7332 0.7292
699.000000 0.7245 0.7191 0.7126 0.7003 0.6820
704.000000 0.6573 0.6202 0.6069 0.6067 0.6074
709.000000 0.6603 0.6887 0.7041 0.7081 0.7100
714.000000 0.7119 0.7150 0.7075 0.6938 0.7017
719.000000 0.7061 0.7064 0.7096 0.7205 0.7249
724.000000 0.7214 0.7215 0.7209 0.7207 0.7196
729.000000 0.7178 0.7145 0.7090 0.7006 0.6899
734.000000 0.6742 0.6575 0.6418 0.6231 0.6127
739.000000 0.6117 0.6247 0.6399 0.6566 0.6621
744.000000 0.6874 0.7100 0.7230 0.7384 0.7423
749.000000 0.7432 0.7454 0.7486 0.7553 0.7506
754.000000 0.7448 0.7359 0.7314 0.7296 0.7101
759.000000 0.6899 0.6757 0.6652 0.6473 0.6418
764.000000 0.6464 0.6202 0.6135 0.6323 0.6535
769.000000 0.6754 0.6971 0.7213 0.7444 0.7646
774.000000 0.7840 0.7971 0.8053 0.8096 0.8108
779.000000 0.8143 0.8213 0.8302 0.8324 0.8327
784.000000 0.8339 0.8318 0.8308 0.8296 0.8286
789.000000 0.8285 0.8284 0.8284 0.8276 0.8226
794.000000 0.8154 0.8049 0.7920 0.7822 0.7834
799.000000 0.7911 0.7924 0.7916 0.7901 0.7885
804.000000 0.7868 0.7845 0.7822 0.7801 0.7776
809.000000 0.7757 0.7783 0.7992 0.8125 0.8270
814.000000 0.8344 0.8391 0.8423 0.8438 0.8436
819.000000 0.8425 0.8389 0.8372 0.8383 0.8402
824.000000 0.8411 0.8409 0.8405 0.8401 0.8399
829.000000 0.8401 0.8403 0.8404 0.8404 0.8403
834.000000 0.8402 0.8402 0.8401 0.8400 0.8396
839.000000 0.8381 0.8339 0.8269 0.8220 0.8195
844.000000 0.8189 0.8180 0.8167 0.8154 0.8137
849.000000 0.8118 0.8108 0.8105 0.8171 0.8235
854.000000 0.8308 0.8382 0.8414 0.8416 0.8393
859.000000 0.8380 0.8357 0.8343 0.8364 0.8389
864.000000 0.8403 0.8359 0.8280 0.8262 0.8268
869.000000 0.8261 0.8230 0.8202 0.8164 0.8109
874.000000 0.8101 0.8132 0.8160 0.8186 0.8164
879.000000 0.8040 0.7909 0.7838 0.7783 0.7741
884.000000 0.7668 0.7418 0.7295 0.7304 0.7353
889.000000 0.7613 0.7872 0.8096 0.8103 0.8100
894.000000 0.8131 0.8197 0.8289 0.8329 0.8342
899.000000 0.8282 0.8241 0.8235 0.8242 0.8255
904.000000 0.8253 0.8227 0.8193 0.8165 0.8179
909.000000 0.8205 0.8167 0.8044 0.7909 0.7826
914.000000 0.7794 0.7782 0.7775 0.7775 0.7780
919.000000 0.7787 0.7793 0.7759 0.7589 0.7519
924.000000 0.7530 0.7544 0.7576 0.7602 0.7610
929.000000 0.7617 0.7653 0.7706 0.7728 0.7731
934.000000 0.7732 0.7729 0.7710 0.7726 0.7735
939.000000 0.7757 0.7775 0.7779 0.7704 0.7654
944.000000 0.7630 0.7609 0.7584 0.7559 0.7534
949.000000 0.7504 0.7469 0.7430 0.7390 0.7355
954.000000 0.7321 0.7290 0.7277 0.7277 0.7244
959.000000 0.7356 0.7543 0.7632 0.7732 0.7769
964.000000 0.7765 0.7767 0.7735 0.7719 0.7703
969.000000 0.7687 0.7671 0.7652 0.7629 0.7605
974.000000 0.7581 0.7556 0.7529 0.7502 0.7460
979.000000 0.7397 0.7316 0.7210 0.7105 0.7079
984.000000 0.7076 0.7151 0.7293 0.7501 0.7612
989.000000 0.7644 0.7633 0.7604 0.7584 0.7599
994.000000 0.7673 0.7728 0.7723 0.7706 0.7659
999.000000 0.7572 0.7472 0.7327 0.7116 0.7060
1004.000000 0.7046 0.7139 0.7213 0.7293 0.7489
1009.000000 0.7589 0.7641 0.7687 0.7682 0.7648
1014.000000 0.7591 0.7531 0.7446 0.7355 0.7267
1019.000000 0.7180 0.7083 0.6990 0.6933 0.6896
1024.000000 0.6853 0.6790 0.6687 0.6700 0.6945
1029.000000 0.7273 0.7601 0.7775 0.7795 0.7798
1034.000000 0.7805 0.7833 0.7862 0.7872 0.7804
1039.000000 0.7720 0.7623 0.7477 0.7364 0.7346
1044.000000 0.7448 0.7612 0.7775 0.7925 0.7948
1049.000000 0.7973 0.7987 0.7999 0.8009 0.8027
1054.000000 0.8054 0.8067 0.8038 0.8003 0.7944
1059.000000 0.7871 0.7875 0.7916 0.7962 0.8035
1064.000000 0.8097 0.8030 0.7989 0.7906 0.7863
1069.000000 0.7849 0.7837 0.7825 0.7814 0.7809
1074.000000 0.7804 0.7801 0.7800 0.7800 0.7799
1079.000000 0.7781 0.7759 0.7729 0.7683 0.7637
1084.000000 0.7579 0.7520 0.7459 0.7370 0.7279
1089.000000 0.7184 0.7086 0.7003 0.6941 0.6872
1094.000000 0.6804 0.6753 0.6698 0.6624 0.6578
1099.000000 0.6605 0.6835 0.7023 0.7186 0.7231
1104.000000 0.7242 0.7247 0.7247 0.7245 0.7241
1109.000000 0.7216 0.7173 0.7116 0.7070 0.7024
1114.000000 0.6976 0.6925 0.6873 0.6787 0.6701
1119.000000 0.6617 0.6521 0.6356 0.6142 0.5928
1124.000000 0.5750 0.5437 0.5115 0.4909 0.4834
1129.000000 0.4816 0.4845 0.4921 0.5224 0.5551
1134.000000 0.5876 0.6201 0.6526 0.6770 0.6855
1139.000000 0.6923 0.7014 0.7081 0.7073 0.7042
1144.000000 0.7009 0.6967 0.6904 0.6827 0.6767
1149.000000 0.6740 0.6707 0.6627 0.6547 0.6468
1154.000000 0.6460 0.6544 0.6616 0.6687 0.6757
1159.000000 0.6820 0.6871 0.6913 0.6950 0.6981
1164.000000 0.6998 0.7010 0.7021 0.7038 0.7026
1169.000000 0.7025 0.7021 0.7005 0.6966 0.6918
1174.000000 0.6849 0.6779 0.6728 0.6697 0.6675
1179.000000 0.6612 0.6394 0.6161 0.5929 0.5698
1184.000000 0.5664 0.5656 0.6427 0.6818 0.6865
1189.000000 0.6880 0.6887 0.6893 0.6886 0.6871
1194.000000 0.6845 0.6816 0.6786 0.6754 0.6722
1199.000000 0.6693 0.6683 0.6664 0.6731 0.6778
1204.000000 0.6824 0.6865 0.6904 0.6957 0.7022
1209.000000 0.7087 0.7149 0.7211 0.7266 0.7300
1214.000000 0.7316 0.7326 0.7334 0.7314 0.7293
1219.000000 0.7269 0.7238 0.7225 0.7237 0.7254
1224.000000 0.7254 0.7194 0.7113 0.7016 0.6920
1229.000000 0.6833 0.6704 0.6608 0.6529 0.6441
1234.000000 0.6316 0.6111 0.5764 0.5401 0.5101
1239.000000 0.5088 0.5131 0.5359 0.5596 0.5831
1244.000000 0.6047 0.6140 0.6174 0.6195 0.6193
1249.000000 0.6093 0.5870 0.5647 0.5424 0.5292
1254.000000 0.5307 0.5292 0.5806 0.6079 0.6154
1259.000000 0.6193 0.6226 0.6247 0.6256 0.6255
1264.000000 0.6244 0.6232 0.6228 0.6229 0.6236
1269.000000 0.6245 0.6282 0.6348 0.6477 0.6674
1274.000000 0.6760 0.6776 0.6776 0.6775 0.6774
1279.000000 0.6766 0.6755 0.6715 0.6660 0.6599
1284.000000 0.6545 0.6494 0.6444 0.6383 0.6316
1289.000000 0.6255 0.6198 0.6142 0.6075 0.5994
1294.000000 0.5913 0.5833 0.5751 0.5684 0.5681
1299.000000 0.5698 0.5704 0.5707 0.5708 0.5646
1304.000000 0.5395 0.5145 0.4895 0.4646 0.4396
1309.000000 0.4148 0.3899 0.3665 0.3597 0.3529
1314.000000 0.3464 0.3414 0.3371 0.3329 0.3287
1319.000000 0.3246 0.3196 0.3138 0.3073 0.2999
1324.000000 0.2921 0.2850 0.2846 0.2860 0.2863
1329.000000 0.2877 0.2902 0.2937 0.3070 0.3243
1334.000000 0.3417 0.3591 0.3764 0.3937 0.4110
1339.000000 0.4282 0.4454 0.4627 0.4798 0.4970
1344.000000 0.5141 0.5312 0.5483 0.5619 0.5661
1349.000000 0.5675 0.5659 0.5588 0.5386 0.5174
1354.000000 0.4963 0.4751 0.4540 0.4330 0.4120
1359.000000 0.3910 0.3731 0.3709 0.3770 0.3841
1364.000000 0.3913 0.3962 0.3836 0.3426 0.2990
1369.000000 0.2554 0.2423 0.2415 0.2460 0.2636
1374.000000 0.2826 0.3016 0.3205 0.3395 0.3584
1379.000000 0.3773 0.3962 0.4150 0.4338 0.4525
1384.000000 0.4712 0.4742 0.4753 0.4636 0.4460
1389.000000 0.4285 0.4109 0.4011 0.4010 0.4003
1394.000000 0.4487 0.4771 0.5056 0.5330 0.5496
1399.000000 0.5608 0.5768 0.5949 0.6296 0.6418
1404.000000 0.6441 0.6450 0.6446 0.6458 0.6425
1409.000000 0.6402 0.6328 0.6187 0.6036 0.5886
1414.000000 0.5736 0.5587 0.5437 0.5287 0.5238
1419.000000 0.5246 0.5345 0.5518 0.5558 0.5561
1424.000000 0.5546 0.5488 0.5410 0.5329 0.5131
1429.000000 0.4837 0.4544 0.4251 0.3958 0.3666
1434.000000 0.3374 0.3115 0.3007 0.2721 0.2549
1439.000000 0.2445 0.2340 0.2258 0.2183 0.2108
1444.000000 0.2032 0.1952 0.1870 0.1792 0.1718
1449.000000 0.1601 0.1507 0.1467 0.1423 0.1398
1454.000000 0.1386 0.1373 0.1358 0.1341 0.1324
1459.000000 0.1306 0.1308 0.1352 0.1786 0.2078
1464.000000 0.2325 0.2572 0.2818 0.3064 0.3310
1469.000000 0.3556 0.3800 0.4045 0.4250 0.4320
1474.000000 0.4340 0.4364 0.4391 0.4421 0.4512
1479.000000 0.4720 0.4967 0.5214 0.5424 0.5462
1484.000000 0.5491 0.5494 0.5493 0.5490 0.5458
1489.000000 0.5425 0.5381 0.5335 0.5287 0.5233
1494.000000 0.5174 0.5111 0.5048 0.4985 0.4925
1499.000000 0.4865 0.4800 0.4712 0.4610 0.4443
1504.000000 0.4073 0.3898 0.3786 0.3654 0.3593
1509.000000 0.3539 0.3505 0.3498 0.3497 0.3506
1514.000000 0.3520 0.3647 0.3804 0.3963 0.4120
1519.000000 0.4278 0.4436 0.4592 0.4749 0.4906
1524.000000 0.5063 0.5219 0.5375 0.5531 0.5687
1529.000000 0.5842 0.5997 0.6152 0.6308 0.6462
1534.000000 0.6604 0.6675 0.6674 0.6674 0.6670
1539.000000 0.6661 0.6650 0.6637 0.6622 0.6611
1544.000000 0.6626 0.6681 0.6733 0.6776 0.6809
1549.000000 0.6825 0.6818 0.6808 0.6756 0.6681
1554.000000 0.6642 0.6607 0.6579 0.6551 0.6527
1559.000000 0.6504 0.6474 0.6424 0.6356 0.6115
1564.000000 0.5791 0.5646 0.5586 0.5539 0.5497
1569.000000 0.5460 0.5425 0.5391 0.5353 0.5315
1574.000000 0.5274 0.5230 0.5187 0.4954 0.4529
1579.000000 0.4058 0.3588 0.3119 0.2886 0.2849
1584.000000 0.2855 0.2979 0.3081 0.3182 0.3267
1589.000000 0.3288 0.3284 0.3004 0.2599 0.2195
1594.000000 0.1791 0.1388 0.0985 0.0583 0.0387
1599.000000 0.0382 0.0434 0.0662 0.1001 0.1341
1604.000000 0.1680 0.2018 0.2356 0.2694 0.3032
1609.000000 0.3368 0.3705 0.4041 0.4376 0.4712
1614.000000 0.5047 0.5381 0.5715 0.6049 0.6382
1619.000000 0.6650 0.6781 0.6883 0.6984 0.7068
1624.000000 0.7144 0.7220 0.7293 0.7339 0.7353
1629.000000 0.7362 0.7363 0.7364 0.7365 0.7366
1634.000000 0.7366 0.7366 0.7348 0.7363 0.7360
1639.000000 0.7356 0.7352 0.7341 0.7326 0.7310
1644.000000 0.7291 0.7268 0.7240 0.7184 0.7122
1649.000000 0.7066 0.7024 0.6993 0.6964 0.6941
1654.000000 0.6922 0.6782 0.6468 0.6094 0.5720
1659.000000 0.5347 0.4974 0.4603 0.4231 0.3859
1664.000000 0.3488 0.3118 0.2748 0.2378 0.2009
1669.000000 0.1679 0.1669 0.1670 0.1665 0.1897
1674.000000 0.2255 0.2655 0.3055 0.3455 0.3854
1679.000000 0.4254 0.4653 0.5050 0.5448 0.5845
1684.000000 0.6241 0.6565 0.6731 0.6798 0.6864
1689.000000 0.6929 0.6991 0.7052 0.7113 0.7179
1694.000000 0.7254 0.7329 0.7380 0.7425 0.7468
1699.000000 0.7504 0.7531 0.7551 0.7560 0.7559
1704.000000 0.7554 0.7548 0.7540 0.7536 0.7535
1709.000000 0.7538 0.7546 0.7553 0.7550 0.7573
1714.000000 0.7577 0.7574 0.7565 0.7556 0.7544
1719.000000 0.7532 0.7519 0.7504 0.7481 0.7436
1724.000000 0.7392 0.7349 0.7300 0.7248 0.7196
1729.000000 0.7140 0.7034 0.6861 0.6689 0.6573
1734.000000 0.6511 0.6450 0.6390 0.6331 0.6253
1739.000000 0.6107 0.5897 0.5686 0.5477 0.5267
1744.000000 0.5058 0.4849 0.4640 0.4432 0.4223
1749.000000 0.4015 0.3831 0.3715 0.3707 0.3702
1754.000000 0.3774 0.3856 0.3907 0.3898 0.3839
1759.000000 0.3576 0.3294 0.3013 0.2731 0.2451
1764.000000 0.2170 0.1890 0.1610 0.1365 0.1250
1769.000000 0.1233 0.1226 0.1224 0.1260 0.1438
1774.000000 0.1228 0.2022 0.2317 0.2612 0.2906
1779.000000 0.3200 0.3493 0.3786 0.4079 0.4372
1784.000000 0.4663 0.4955 0.5247 0.5538 0.5829
1789.000000 0.6119 0.6409 0.6663 0.6739 0.6810
1794.000000 0.6961 0.7133 0.7233 0.7294 0.7355
1799.000000 0.7412 0.7463 0.7512 0.7561 0.7640
1804.000000 0.7779 0.8032 0.8086 0.8106 0.8113
1809.000000 0.8120 0.8127 0.8133 0.8140 0.8147
1814.000000 0.8154 0.8162 0.8170 0.8179 0.8187
1819.000000 0.8195 0.8206 0.8221 0.8239 0.8256
1824.000000 0.8276 0.8301 0.8334 0.8368 0.8409
1829.000000 0.8460 0.8511 0.8523 0.8523 0.8520
1834.000000 0.8516 0.8500 0.8479 0.8457 0.8441
1839.000000 0.8436 0.8436 0.8438 0.8445 0.8454
1844.000000 0.8466 0.8486 0.8502 0.8518 0.8531
1849.000000 0.8534 0.8526 0.8517 0.8507 0.8498
1854.000000 0.8488 0.8479 0.8469 0.8461 0.8453
1859.000000 0.8448 0.8445 0.8442 0.8439 0.8437
1864.000000 0.8437 0.8437 0.8438 0.8438 0.8439
1869.000000 0.8439 0.8440 0.8440 0.8441 0.8442
1874.000000 0.8442 0.8443 0.8444 0.8445 0.8445
1879.000000 0.8446 0.8447 0.8448 0.8449 0.8450
1884.000000 0.8451 0.8452 0.8453 0.8454 0.8455
1889.000000 0.8456 0.8457 0.8460 0.8462 0.8465
1894.000000 0.8468 0.8470 0.8473 0.8475 0.8478
1899.000000 0.8480 0.8483 0.8487 0.8492 0.8498
1904.000000 0.8505 0.8517 0.8528 0.8539 0.8550
1909.000000 0.8558 0.8564 0.8570 0.8575 0.8581
1914.000000 0.8586 0.8591 0.8593 0.8589 0.8586
1919.000000 0.8580 0.8566 0.8552 0.8541 0.8536
1924.000000 0.8530 0.8526 0.8525 0.8530 0.8535
1929.000000 0.8539 0.8549 0.8559 0.8570 0.8580
1934.000000 0.8588 0.8594 0.8595 0.8596 0.8598
1939.000000 0.8599 0.8599 0.8598 0.8598 0.8597
1944.000000 0.8596 0.8594 0.8593 0.8592 0.8591
1949.000000 0.8590 0.8588 0.8586 0.8584 0.8583
1954.000000 0.8583 0.8582 0.8582 0.8582 0.8581
1959.000000 0.8581 0.8580 0.8579 0.8579 0.8587
1964.000000 0.8577 0.8577 0.8576 0.8576 0.8576
1969.000000 0.8575 0.8575 0.8574 0.8573 0.8573
1974.000000 0.8573 0.8572 0.8572 0.8572 0.8571
1979.000000 0.8571 0.8570 0.8570 0.8570 0.8569
1984.000000 0.8569 0.8569 0.8568 0.8568 0.8568
1989.000000 0.8567 0.8567 0.8567 0.8567 0.8566
1994.000000 0.8566 0.8566 0.8565 0.8564 0.8564
1999.000000 0.8563 0.8562 0.8560 0.8559 0.8558
2004.000000 0.8556 0.8554 0.8552 0.8549 0.8548
2009.000000 0.8545 0.8543 0.8540 0.8538 0.8536
2014.000000 0.8534 0.8531 0.8529 0.8526 0.8523
2019.000000 0.8520 0.8517 0.8514 0.8510 0.8507
2024.000000 0.8504 0.8503 0.8501 0.8500 0.8499
2029.000000 0.8497 0.8496 0.8494 0.8493 0.8492
2034.000000 0.8491 0.8490 0.8488 0.8487 0.8487
2039.000000 0.8487 0.8488 0.8489 0.8490 0.8492
2044.000000 0.8495 0.8498 0.8500 0.8503 0.8506
2049.000000 0.8509 0.8512 0.8515 0.8518 0.8521
2054.000000 0.8524 0.8527 0.8530 0.8534 0.8538
2059.000000 0.8541 0.8545 0.8549 0.8551 0.8552
2064.000000 0.8551 0.8549 0.8548 0.8544 0.8541
2069.000000 0.8536 0.8531 0.8527 0.8522 0.8517
2074.000000 0.8513 0.8508 0.8505 0.8501 0.8497
2079.000000 0.8493 0.8489 0.8486 0.8482 0.8478
2084.000000 0.8475 0.8473 0.8471 0.8470 0.8468
2089.000000 0.8467 0.8465 0.8464 0.8463 0.8461
2094.000000 0.8459 0.8457 0.8454 0.8449 0.8444
2099.000000 0.8439 0.8434 0.8429 0.8424 0.8424
2104.000000 0.8430 0.8437 0.8443 0.8451 0.8459
2109.000000 0.8468 0.8476 0.8482 0.8488 0.8493
2114.000000 0.8498 0.8503 0.8509 0.8514 0.8514
2119.000000 0.8515 0.8515 0.8515 0.8515 0.8516
2124.000000 0.8516 0.8517 0.8518 0.8518 0.8518
2129.000000 0.8518 0.8518 0.8518 0.8519 0.8519
2134.000000 0.8519 0.8519 0.8519 0.8519 0.8519
2139.000000 0.8519 0.8519 0.8519 0.8519 0.8520
2144.000000 0.8520 0.8521 0.8522 0.8523 0.8524
2149.000000 0.8524 0.8525 0.8525 0.8526 0.8526
2154.000000 0.8526 0.8526 0.8525 0.8524 0.8522
2159.000000 0.8521 0.8520 0.8519 0.8518 0.8517
2164.000000 0.8515 0.8514 0.8512 0.8508 0.8502
2169.000000 0.8496 0.8489 0.8483 0.8478 0.8471
2174.000000 0.8465 0.8459 0.8453 0.8447 0.8440
2179.000000 0.8433 0.8425 0.8417 0.8410 0.8402
2184.000000 0.8395 0.8390 0.8388 0.8387 0.8385
2189.000000 0.8384 0.8383 0.8382 0.8380 0.8379
2194.000000 0.8379 0.8380 0.8381 0.8382 0.8382
2199.000000 0.8383 0.8383 0.8384 0.8384 0.8385
2204.000000 0.8385 0.8386 0.8386 0.8388 0.8391
2209.000000 0.8395 0.8399 0.8403 0.8409 0.8414
2214.000000 0.8419 0.8424 0.8429 0.8432 0.8434
2219.000000 0.8434 0.8433 0.8429 0.8425 0.8418
2224.000000 0.8412 0.8406 0.8400 0.8393 0.8387
2229.000000 0.8383 0.8380 0.8377 0.8374 0.8371
2234.000000 0.8368 0.8365 0.8362 0.8359 0.8357
2239.000000 0.8358 0.8359 0.8361 0.8362 0.8364
2244.000000 0.8366 0.8368 0.8369 0.8371 0.8372
2249.000000 0.8374 0.8376 0.8378 0.8379 0.8381
2254.000000 0.8382 0.8387 0.8393 0.8399 0.8404
2259.000000 0.8410 0.8416 0.8422 0.8428 0.8433
2264.000000 0.8439 0.8444 0.8448 0.8453 0.8458
2269.000000 0.8462 0.8467 0.8471 0.8476 0.8481
2274.000000 0.8486 0.8490 0.8495 0.8499 0.8501
2279.000000 0.8504 0.8506 0.8508 0.8511 0.8514
2284.000000 0.8517 0.8519 0.8521 0.8524 0.8527
2289.000000 0.8529 0.8532 0.8534 0.8537 0.8539
2294.000000 0.8541 0.8543 0.8545 0.8547 0.8549
2299.000000 0.8550 0.8552 0.8554 0.8555 0.8557
2304.000000 0.8558 0.8560 0.8562 0.8564 0.8565
2309.000000 0.8566 0.8568 0.8567 0.8564 0.8560
2314.000000 0.8557 0.8554 0.8551 0.8547 0.8544
2319.000000 0.8541 0.8537 0.8533 0.8528 0.8523
2324.000000 0.8519 0.8515 0.8511 0.8507 0.8502
2329.000000 0.8498 0.8493 0.8489 0.8485 0.8481
2334.000000 0.8477 0.8472 0.8468 0.8463 0.8459
2339.000000 0.8455 0.8450 0.8446 0.8441 0.8437
2344.000000 0.8432 0.8427 0.8422 0.8417 0.8412
2349.000000 0.8407 0.8402 0.8397 0.8392 0.8387
2354.000000 0.8383 0.8378 0.8373 0.8368 0.8363
2359.000000 0.8358 0.8353 0.8348 0.8343 0.8338
2364.000000 0.8333 0.8327 0.8321 0.8315 0.8309
2369.000000 0.8303 0.8298 0.8292 0.8286 0.8280
2374.000000 0.8274 0.8268 0.8262 0.8256 0.8250
2379.000000 0.8245 0.8239 0.8233 0.8232 0.8230
2384.000000 0.8231 0.8232 0.8233 0.8234 0.8236
2389.000000 0.8240 0.8245 0.8252 0.8258 0.8265
2394.000000 0.8271 0.8279 0.8290 0.8301 0.8317
2399.000000 0.8333 0.8349 0.8365 0.8375 0.8377
2404.000000 0.8378 0.8371 0.8365 0.8358 0.8351
2409.000000 0.8345 0.8341 0.8337 0.8332 0.8328
2414.000000 0.8324 0.8319 0.8316 0.8312 0.8309
2419.000000 0.8308 0.8307 0.8305 0.8304 0.8303
2424.000000 0.8302 0.8301 0.8304 0.8308 0.8312
2429.000000 0.8315 0.8319 0.8323 0.8327 0.8332
2434.000000 0.8337 0.8344 0.8352 0.8360 0.8367
2439.000000 0.8374 0.8375 0.8375 0.8376 0.8376
2444.000000 0.8377 0.8378 0.8378 0.8379 0.8379
2449.000000 0.8380 0.8380 0.8380 0.8377 0.8373
2454.000000 0.8362 0.8345 0.8331 0.8323 0.8314
2459.000000 0.8306 0.8297 0.8288 0.8280 0.8272
2464.000000 0.8263 0.8253 0.8244 0.8235 0.8226
2469.000000 0.8216 0.8207 0.8198 0.8191 0.8183
2474.000000 0.8176 0.8168 0.8161 0.8154 0.8146
2479.000000 0.8140 0.8133 0.8125 0.8117 0.8108
2484.000000 0.8099 0.8089 0.8080 0.8072 0.8062
2489.000000 0.8053 0.8044 0.8034 0.8024 0.8014
2494.000000 0.8004 0.7995 0.7988 0.7982 0.7975
2499.000000 0.7969 0.7963 0.7956 0.7950 0.7943
2504.000000 0.7937 0.7931 0.7926 0.7922 0.7918
2509.000000 0.7914 0.7911 0.7907 0.7904 0.7900
2514.000000 0.7896 0.7893 0.7889 0.7886 0.7882
2519.000000 0.7879 0.7876 0.7873 0.7870 0.7867
2524.000000 0.7863 0.7860 0.7857 0.7855 0.7852
2529.000000 0.7849 0.7846 0.7843 0.7839 0.7836
2534.000000 0.7834 0.7831 0.7828 0.7825 0.7822
2539.000000 0.7819 0.7816 0.7813 0.7810 0.7807
2544.000000 0.7804 0.7800 0.7795 0.7787 0.7779
2549.000000 0.7771 0.7762 0.7754 0.7745 0.7737
2554.000000 0.7728 0.7720 0.7711 0.7703 0.7695
2559.000000 0.7687 0.7678 0.7670 0.7660 0.7650
2564.000000 0.7640 0.7629 0.7618 0.7608 0.7597
2569.000000 0.7586 0.7577 0.7568 0.7559 0.7554
2574.000000 0.7549 0.7544 0.7538 0.7533 0.7528
2579.000000 0.7523 0.7517 0.7516 0.7515 0.7515
2584.000000 0.7518 0.7520 0.7522 0.7524 0.7527
2589.000000 0.7529 0.7531 0.7533 0.7536 0.7539
2594.000000 0.7543 0.7548 0.7553 0.7558 0.7564
2599.000000 0.7568 0.7571 0.7573 0.7571 0.7565
2604.000000 0.7559 0.7551 0.7543 0.7536 0.7528
2609.000000 0.7520 0.7512 0.7503 0.7494 0.7486
2614.000000 0.7477 0.7468 0.7459 0.7450 0.7441
2619.000000 0.7431 0.7422 0.7412 0.7401 0.7391
2624.000000 0.7380 0.7369 0.7358 0.7347 0.7336
2629.000000 0.7324 0.7308 0.7291 0.7268 0.7234
2634.000000 0.7201 0.7170 0.7141 0.7111 0.7096
2639.000000 0.7082 0.7068 0.7055 0.7041 0.7028
2644.000000 0.7015 0.7003 0.6995 0.6993 0.6991
2649.000000 0.6989 0.6987 0.6986 0.6984 0.6981
2654.000000 0.6979 0.6977 0.6975 0.6973 0.6970
2659.000000 0.6968 0.6965 0.6963 0.6961 0.6958
2664.000000 0.6956 0.6954 0.6952 0.6949 0.6947
2669.000000 0.6944 0.6942 0.6939 0.6935 0.6930
2674.000000 0.6925 0.6918 0.6911 0.6904 0.6897
2679.000000 0.6890 0.6883 0.6876 0.6868 0.6854
2684.000000 0.6835 0.6816 0.6793 0.6769 0.6745
2689.000000 0.6725 0.6706 0.6688 0.6669 0.6650
2694.000000 0.6632 0.6611 0.6590 0.6568 0.6543
2699.000000 0.6517 0.6492 0.6467 0.6441 0.6407
2704.000000 0.6350 0.6293 0.6245 0.6213 0.6181
2709.000000 0.6149 0.6117 0.6085 0.6055 0.6028
2714.000000 0.6000 0.5974 0.5951 0.5927 0.5903
2719.000000 0.5879 0.5855 0.5831 0.5807 0.5783
2724.000000 0.5747 0.5706 0.5664 0.5627 0.5592
2729.000000 0.5557 0.5526 0.5496 0.5467 0.5409
2734.000000 0.5342 0.5275 0.5214 0.5155 0.5096
2739.000000 0.5052 0.5013 0.4974 0.4928 0.4880
2744.000000 0.4831 0.4786 0.4741 0.4697 0.4660
2749.000000 0.4625 0.4591 0.4556 0.4522 0.4487
2754.000000 0.4452 0.4417 0.4381 0.4341 0.4297
2759.000000 0.4254 0.4211 0.4167 0.4124 0.4079
2764.000000 0.4033 0.3987 0.3900 0.3776 0.3651
2769.000000 0.3552 0.3483 0.3414 0.3353 0.3305
2774.000000 0.3258 0.3212 0.3170 0.3128 0.3081
2779.000000 0.3017 0.2953 0.2880 0.2747 0.2614
2784.000000 0.2484 0.2401 0.2318 0.2235 0.2177
2789.000000 0.2121 0.2065 0.1971 0.1869 0.1766
2794.000000 0.1699 0.1648 0.1596 0.1559 0.1532
2799.000000 0.1504 0.1479 0.1454 0.1430 0.1409
2804.000000 0.1394 0.1380 0.1365 0.1350 0.1335
2809.000000 0.1320 0.1314 0.1307 0.1300 0.1295
2814.000000 0.1290 0.1285 0.1282 0.1280 0.1278
2819.000000 0.1276 0.1276 0.1276 0.1275 0.1275
2824.000000 0.1275 0.1275 0.1275 0.1275 0.1275
2829.000000 0.1275 0.1275 0.1275 0.1275 0.1275
2834.000000 0.1275 0.1275 0.1275 0.1275 0.1276
2839.000000 0.1276 0.1277 0.1278 0.1278 0.1279
2844.000000 0.1279 0.1280 0.1281 0.1281 0.1282
2849.000000 0.1282 0.1282 0.1288 0.1303 0.1318
2854.000000 0.1332 0.1346 0.1360 0.1374 0.1394
2859.000000 0.1416 0.1438 0.1455 0.1471 0.1486
2864.000000 0.1501 0.1514 0.1528 0.1542 0.1556
2869.000000 0.1570 0.1584 0.1600 0.1616 0.1633
2874.000000 0.1652 0.1674 0.1696 0.1725 0.1804
2879.000000 0.1883 0.1962 0.1997 0.2023 0.2049
2884.000000 0.2078 0.2111 0.2145 0.2179 0.2220
2889.000000 0.2261 0.2301 0.2342 0.2383 0.2424
2894.000000 0.2465 0.2506 0.2546 0.2587 0.2627
2899.000000 0.2668 0.2708 0.2749 0.2789 0.2829
2904.000000 0.2870 0.2910 0.2950 0.2990 0.3031
2909.000000 0.3071 0.3111 0.3151 0.3191 0.3231
2914.000000 0.3271 0.3312 0.3352 0.3392 0.3432
2919.000000 0.3472 0.3512 0.3609 0.3778 0.3947
2924.000000 0.4114 0.4182 0.4249 0.4316 0.4384
2929.000000 0.4451 0.4518 0.4586 0.4653 0.4720
2934.000000 0.4787 0.4854 0.4921 0.4988 0.5055
2939.000000 0.5122 0.5189 0.5256 0.5322 0.5389
2944.000000 0.5456 0.5522 0.5589 0.5655 0.5722
2949.000000 0.5788 0.5855 0.5921 0.5987 0.6053
2954.000000 0.6119 0.6185 0.6263 0.6343 0.6422
2959.000000 0.6491 0.6545 0.6600 0.6654 0.6685
2964.000000 0.6714 0.6742 0.6771 0.6800 0.6830
2969.000000 0.6859 0.6891 0.6924 0.6957 0.6983
2974.000000 0.6995 0.7007 0.7019 0.7030 0.7041
2979.000000 0.7052 0.7061 0.7069 0.7076 0.7083
2984.000000 0.7088 0.7092 0.7095 0.7099 0.7103
2989.000000 0.7107 0.7111 0.7115 0.7118 0.7122
2994.000000 0.7125 0.7129 0.7133 0.7136 0.7140
2999.000000 0.7142 0.7145 0.7148 0.7150 0.7152
3004.000000 0.7154 0.7156 0.7158 0.7160 0.7163
3009.000000 0.7165 0.7167 0.7169 0.7171 0.7173
3014.000000 0.7175 0.7177 0.7179 0.7181 0.7184
3019.000000 0.7186 0.7187 0.7187 0.7188 0.7189
3024.000000 0.7189 0.7190 0.7190 0.7191 0.7191
3029.000000 0.7192 0.7192 0.7193 0.7193 0.7194
3034.000000 0.7195 0.7195 0.7196 0.7196 0.7197
3039.000000 0.7197 0.7198 0.7198 0.7214 0.7198
3044.000000 0.7198 0.7198 0.7198 0.7198 0.7198
3049.000000 0.7197 0.7197 0.7197 0.7197 0.7196
3054.000000 0.7196 0.7196 0.7196 0.7195 0.7194
3059.000000 0.7193 0.7191 0.7190 0.7189 0.7187
3064.000000 0.7186 0.7185 0.7184 0.7183 0.7182
3069.000000 0.7180 0.7179 0.7178 0.7175 0.7172
3074.000000 0.7170 0.7167 0.7163 0.7160 0.7157
3079.000000 0.7154 0.7151 0.7148 0.7144 0.7142
3084.000000 0.7139 0.7137 0.7134 0.7132 0.7131
3089.000000 0.7129 0.7127 0.7125 0.7123 0.7121
3094.000000 0.7119 0.7117 0.7115 0.7113 0.7111
3099.000000 0.7109 0.7108 0.7106 0.7104 0.7102
3104.000000 0.7100 0.7099 0.7097 0.7095 0.7093
3109.000000 0.7091 0.7090 0.7088 0.7086 0.7084
3114.000000 0.7082 0.7080 0.7079 0.7077 0.7075
3119.000000 0.7074 0.7073 0.7072 0.7070 0.7069
3124.000000 0.7068 0.7067 0.7065 0.7064 0.7063
3129.000000 0.7061 0.7060 0.7059 0.7058 0.7056
3134.000000 0.7055 0.7054 0.7053 0.7052 0.7049
3139.000000 0.7046 0.7043 0.7040 0.7037 0.7034
3144.000000 0.7030 0.7027 0.7021 0.7015 0.7010
3149.000000 0.7001 0.6988 0.6974 0.6960 0.6950
3154.000000 0.6943 0.6937 0.6930 0.6925 0.6922
3159.000000 0.6919 0.6916 0.6914 0.6911 0.6909
3164.000000 0.6907 0.6905 0.6904 0.6904 0.6903
3169.000000 0.6903 0.6903 0.6903 0.6903 0.6904
3174.000000 0.6904 0.6905 0.6905 0.6906 0.6906
3179.000000 0.6906 0.6906 0.6907 0.6907 0.6908
3184.000000 0.6908 0.6909 0.6909 0.6910 0.6910
3189.000000 0.6921 0.6911 0.6912 0.6912 0.6913
3194.000000 0.6914 0.6915 0.6916 0.6917 0.6919
3199.000000 0.6921 0.6923 0.6925 0.6928 0.6930
3204.000000 0.6932 0.6934 0.6937 0.6941 0.6944
3209.000000 0.6948 0.6953 0.6959 0.6965 0.6970
3214.000000 0.6980 0.6991 0.7002 0.7013 0.7024
3219.000000 0.7035 0.7047 0.7058 0.7069 0.7080
3224.000000 0.7092 0.7103 0.7114 0.7125 0.7136
3229.000000 0.7148 0.7159 0.7170 0.7181 0.7193
3234.000000 0.7204 0.7218 0.7233 0.7248 0.7263
3239.000000 0.7278 0.7293 0.7308 0.7323 0.7341
3244.000000 0.7362 0.7383 0.7404 0.7426 0.7451
3249.000000 0.7475 0.7500 0.7525 0.7551 0.7577
3254.000000 0.7603 0.7629 0.7645 0.7658 0.7671
3259.000000 0.7685 0.7698 0.7711 0.7725 0.7738
3264.000000 0.7752 0.7768 0.7784 0.7799 0.7815
3269.000000 0.7831 0.7847 0.7863 0.7879 0.7897
3274.000000 0.7916 0.7935 0.7953 0.7973 0.7993
3279.000000 0.8014 0.8034 0.8053 0.8066 0.8078
3284.000000 0.8090 0.8103 0.8115 0.8126 0.8138
3289.000000 0.8150 0.8160 0.8169 0.8178 0.8187
3294.000000 0.8196 0.8202 0.8208 0.8214 0.8220
3299.000000 0.8224 0.8229 0.8234 0.8238 0.8242
3304.000000 0.8244 0.8247 0.8249 0.8252 0.8254
3309.000000 0.8257 0.8259 0.8262 0.8265 0.8267
3314.000000 0.8270 0.8273 0.8275 0.8276 0.8277
3319.000000 0.8278 0.8278 0.8279 0.8280 0.8281
3324.000000 0.8281 0.8282 0.8282 0.8283 0.8283
3329.000000 0.8284 0.8284 0.8285 0.8286 0.8286
3334.000000 0.8287 0.8287 0.8288 0.8288 0.8289
3339.000000 0.8289 0.8290 0.8291 0.8291 0.8292
3344.000000 0.8292 0.8292 0.8292 0.8291 0.8291
3349.000000 0.8291 0.8291 0.8291 0.8290 0.8290
3354.000000 0.8290 0.8290 0.8289 0.8289 0.8289
3359.000000 0.8289 0.8289 0.8288 0.8288 0.8288
3364.000000 0.8288 0.8287 0.8287 0.8287 0.8287
3369.000000 0.8287 0.8286 0.8286 0.8285 0.8285
3374.000000 0.8284 0.8284 0.8284 0.8284 0.8284
3379.000000 0.8283 0.8283 0.8282 0.8282 0.8281
3384.000000 0.8281 0.8281 0.8280 0.8280 0.8279
3389.000000 0.8279 0.8279 0.8279 0.8279 0.8278
3394.000000 0.8278 0.8277 0.8277 0.8277 0.8277
3399.000000 0.8277 0.8277 0.8277 0.8277 0.8277
3404.000000 0.8277 0.8277 0.8278 0.8278 0.8279
3409.000000 0.8279 0.8280 0.8281 0.8283 0.8285
3414.000000 0.8287 0.8289 0.8291 0.8293 0.8295
3419.000000 0.8297 0.8299 0.8301 0.8303 0.8306
3424.000000 0.8308 0.8311 0.8316 0.8320 0.8324
3429.000000 0.8329 0.8333 0.8337 0.8342 0.8346
3434.000000 0.8350 0.8351 0.8353 0.8354 0.8355
3439.000000 0.8356 0.8357 0.8358 0.8359 0.8360
3444.000000 0.8360 0.8358 0.8356 0.8354 0.8352
3449.000000 0.8350 0.8347 0.8345 0.8342 0.8340
3454.000000 0.8337 0.8335 0.8333 0.8330 0.8328
3459.000000 0.8326 0.8323 0.8321 0.8318 0.8315
3464.000000 0.8312 0.8308 0.8304 0.8301 0.8297
3469.000000 0.8293 0.8289 0.8285 0.8281 0.8277
3474.000000 0.8274 0.8270 0.8266 0.8262 0.8258
3479.000000 0.8255 0.8251 0.8248 0.8245 0.8250
3484.000000 0.8254 0.8259 0.8264 0.8269 0.8275
3489.000000 0.8281 0.8288 0.8294 0.8300 0.8308
3494.000000 0.8315 0.8322 0.8330 0.8337 0.8344
3499.000000 0.8351 0.8358 0.8365 0.8371 0.8376
3504.000000 0.8381 0.8387 0.8392 0.8397 0.8402
3509.000000 0.8407 0.8412 0.8417 0.8422 0.8427
3514.000000 0.8432 0.8438 0.8443 0.8446 0.8448
3519.000000 0.8450 0.8453 0.8455 0.8426 0.8454
3524.000000 0.8453 0.8452 0.8452 0.8450 0.8448
3529.000000 0.8447 0.8445 0.8444 0.8442 0.8440
3534.000000 0.8438 0.8436 0.8434 0.8431 0.8429
3539.000000 0.8426 0.8424 0.8422 0.8419 0.8417
3544.000000 0.8415 0.8412 0.8410 0.8408 0.8407
3549.000000 0.8405 0.8404 0.8403 0.8402 0.8402
3554.000000 0.8401 0.8401 0.8401 0.8401 0.8402
3559.000000 0.8402 0.8403 0.8403 0.8404 0.8404
3564.000000 0.8404 0.8404 0.8404 0.8405 0.8405
3569.000000 0.8405 0.8405 0.8405 0.8405 0.8405
3574.000000 0.8405 0.8405 0.8405 0.8405 0.8405
3579.000000 0.8405 0.8405 0.8405 0.8404 0.8404
3584.000000 0.8404 0.8404 0.8404 0.8403 0.8403
3589.000000 0.8402 0.8402 0.8401 0.8400 0.8400
3594.000000 0.8399 0.8399 0.8398 0.8398 0.8397
3599.000000 0.8396 0.8396 0.8395 0.8395 0.8394
3604.000000 0.8393 0.8391 0.8390 0.8389 0.8388
3609.000000 0.8386 0.8385 0.8384 0.8382 0.8381
3614.000000 0.8380 0.8379 0.8378 0.8377 0.8375
3619.000000 0.8374 0.8373 0.8371 0.8370 0.8369
3624.000000 0.8367 0.8366 0.8365 0.8363 0.8362
3629.000000 0.8361 0.8359 0.8357 0.8355 0.8354
3634.000000 0.8352 0.8351 0.8349 0.8348 0.8346
3639.000000 0.8345 0.8343 0.8341 0.8339 0.8338
3644.000000 0.8336 0.8334 0.8333 0.8331 0.8329
3649.000000 0.8328 0.8326 0.8324 0.8323 0.8321
3654.000000 0.8320 0.8318 0.8317 0.8315 0.8313
3659.000000 0.8312 0.8310 0.8308 0.8306 0.8305
3664.000000 0.8303 0.8301 0.8299 0.8297 0.8295
3669.000000 0.8293 0.8291 0.8289 0.8287 0.8285
3674.000000 0.8283 0.8280 0.8278 0.8276 0.8274
3679.000000 0.8272 0.8270 0.8268 0.8266 0.8264
3684.000000 0.8262 0.8260 0.8258 0.8256 0.8254
3689.000000 0.8252 0.8250 0.8248 0.8246 0.8244
3694.000000 0.8242 0.8240 0.8238 0.8236 0.8234
3699.000000 0.8232 0.8230 0.8227 0.8225 0.8223
3704.000000 0.8221 0.8219 0.8217 0.8215 0.8213
3709.000000 0.8211 0.8209 0.8207 0.8205 0.8203
3714.000000 0.8201 0.8199 0.8197 0.8195 0.8192
3719.000000 0.8190 0.8188 0.8186 0.8184 0.8182
3724.000000 0.8180 0.8178 0.8176 0.8174 0.8172
3729.000000 0.8170 0.8168 0.8166 0.8165 0.8163
3734.000000 0.8162 0.8160 0.8159 0.8157 0.8156
3739.000000 0.8155 0.8153 0.8152 0.8150 0.8149
3744.000000 0.8147 0.8146 0.8145 0.8143 0.8142
3749.000000 0.8140 0.8139 0.8137 0.8136 0.8135
3754.000000 0.8133 0.8132 0.8130 0.8129 0.8127
3759.000000 0.8126 0.8125 0.8124 0.8122 0.8121
3764.000000 0.8120 0.8119 0.8118 0.8118 0.8117
3769.000000 0.8117 0.8117 0.8116 0.8116 0.8116
3774.000000 0.8115 0.8115 0.8115 0.8114 0.8114
3779.000000 0.8114 0.8113 0.8113 0.8113 0.8113
3784.000000 0.8113 0.8114 0.8115 0.8115 0.8116
3789.000000 0.8117 0.8118 0.8119 0.8120 0.8121
3794.000000 0.8122 0.8123 0.8124 0.8124 0.8125
3799.000000 0.8126 0.8127 0.8128 0.8129 0.8130
3804.000000 0.8130 0.8131 0.8132 0.8132 0.8132
3809.000000 0.8133 0.8133 0.8133 0.8133 0.8133
3814.000000 0.8133 0.8133 0.8133 0.8132 0.8132
3819.000000 0.8132 0.8131 0.8131 0.8131 0.8130
3824.000000 0.8130 0.8129 0.8129 0.8128 0.8128
3829.000000 0.8127 0.8127 0.8126 0.8126 0.8125
3834.000000 0.8125 0.8124 0.8123 0.8123 0.8122
3839.000000 0.8121 0.8121 0.8120 0.8120 0.8119
3844.000000 0.8119 0.8118 0.8118 0.8117 0.8116
3849.000000 0.8116 0.8115 0.8114 0.8114 0.8113
3854.000000 0.8113 0.8112 0.8112 0.8111 0.8111
3859.000000 0.8110 0.8109 0.8109 0.8108 0.8107
3864.000000 0.8106 0.8106 0.8105 0.8104 0.8104
3869.000000 0.8103 0.8102 0.8102 0.8101 0.8100
3874.000000 0.8100 0.8099 0.8098 0.8098 0.8097
3879.000000 0.8096 0.8096 0.8095 0.8094 0.8094
3884.000000 0.8093 0.8093 0.8093 0.8092 0.8092
3889.000000 0.8091 0.8091 0.8090 0.8090 0.8089
3894.000000 0.8089 0.8088 0.8088 0.8087 0.8087
3899.000000 0.8086 0.8086 0.8085 0.8085 0.8084
3904.000000 0.8084 0.8083 0.8083 0.8082 0.8081
3909.000000 0.8081 0.8080 0.8079 0.8079 0.8078
3914.000000 0.8078 0.8077 0.8077 0.8076 0.8076
3919.000000 0.8075 0.8075 0.8074 0.8074 0.8073
3924.000000 0.8073 0.8072 0.8072 0.8072 0.8071
3929.000000 0.8071 0.8071 0.8070 0.8070 0.8070
3934.000000 0.8069 0.8069 0.8069 0.8069 0.8068
3939.000000 0.8068 0.8067 0.8067 0.8066 0.8066
3944.000000 0.8065 0.8065 0.8065 0.8064 0.8064
3949.000000 0.8064 0.8063 0.8063 0.8063 0.8062
3954.000000 0.8062 0.8062 0.8060 0.8057 0.8053
3959.000000 0.8049 0.8046 0.8042 0.8038 0.8033
3964.000000 0.8028 0.8023 0.8017 0.8012 0.8007
3969.000000 0.8001 0.7996 0.7990 0.7984 0.7978
3974.000000 0.7973 0.7967 0.7962 0.7956 0.7951
3979.000000 0.7946 0.7940 0.7935 0.7933 0.7931
3984.000000 0.7929 0.7927 0.7925 0.7923 0.7923
3989.000000 0.7923 0.7923 0.7923 0.7923 0.7923
3994.000000 0.7924 0.7924 0.7924 0.7924 0.7924
3999.000000 0.7924 0.7925
##END=
