##TITLE=2-METHYL PYRAZINYL OXY BUTANE
##JCAMP-DX=4.24
##DATA TYPE=INFRARED SPECTRUM
##CLASS=COBLENTZ
##ORIGIN=WYANDOTTE CHEMICALS CORP., WYANDOTTE, MICHIGAN, USA
##OWNER=COBLENTZ SOCIETY
Collection (C) 2018 copyright by the U.S. Secretary of Commerce
on behalf of the United States of America. All rights reserved.
##DATE=Not specified, most likely prior to 1970
##MOLFORM=C9 H14 N2 O
##SOURCE REFERENCE=COBLENTZ NO. 2710
##$NIST ID=B6002710
##$NIST SOURCE=COBLENTZ
##$NIST IMAGE=cob2710
##SPECTROMETER/DATA SYSTEM=Not specified, most likely a prism, grating, or hybrid spectrometer.
##STATE=LIQUID
##PATH LENGTH=0.003 CM
##SAMPLING PROCEDURE=TRANSMISSION
##RESOLUTION=4
##DATA PROCESSING=DIGITIZED BY NIST FROM HARD COPY
##XUNITS=MICROMETERS
##YUNITS=TRANSMITTANCE
##XFACTOR=1.000000
##YFACTOR=1
##DELTAX=000.006613
##FIRSTX=1.993
##LASTX=15.9933
##FIRSTY=0.986
##MAXX=15.9933
##MINX=1.993
##MAXY=0.986
##MINY=0.018
##NPOINTS=2118
##XYDATA=(X++(Y..Y))
1.993000 0.9860 0.9850 0.9860 0.9850 0.9850
2.026081 0.9850 0.9850 0.9830 0.9810 0.9810
2.060000 0.9780 0.9730 0.9700 0.9700 0.9680
2.093081 0.9680 0.9650 0.9630 0.9600 0.9560
2.126000 0.9550 0.9530 0.9510 0.9480 0.9450
2.159081 0.9380 0.9330 0.9280 0.9250 0.9230
2.192000 0.9210 0.9200 0.9180 0.9160 0.9160
2.225081 0.9160 0.9160 0.9160 0.9150 0.9150
2.258000 0.9130 0.9130 0.9130 0.9130 0.9130
2.291081 0.9130 0.9130 0.9130 0.9130 0.9130
2.324000 0.9130 0.9130 0.9130 0.9150 0.9150
2.357081 0.9150 0.9150 0.9150 0.9150 0.9160
2.390000 0.9160 0.9160 0.9180 0.9180 0.9200
2.423081 0.9200 0.9210 0.9210 0.9230 0.9230
2.456000 0.9230 0.9250 0.9250 0.9250 0.9260
2.489081 0.9260 0.9260 0.9280 0.9280 0.9280
2.522000 0.9280 0.9280 0.9280 0.9280 0.9260
2.555081 0.9260 0.9260 0.9250 0.9250 0.9250
2.589000 0.9250 0.9260 0.9260 0.9260 0.9280
2.622081 0.9280 0.9280 0.9280 0.9280 0.9280
2.655000 0.9300 0.9310 0.9310 0.9330 0.9330
2.688081 0.9350 0.9350 0.9350 0.9350 0.9330
2.721000 0.9310 0.9300 0.9280 0.9260 0.9260
2.754081 0.9260 0.9260 0.9250 0.9230 0.9210
2.787000 0.9210 0.9200 0.9150 0.9110 0.9050
2.820081 0.9000 0.8970 0.8950 0.8930 0.8930
2.853000 0.8950 0.8950 0.8980 0.9000 0.9010
2.886081 0.9010 0.9000 0.8920 0.8870 0.8830
2.919000 0.8780 0.8730 0.8680 0.8680 0.8670
2.952081 0.8670 0.8680 0.8680 0.8700 0.8700
2.985000 0.8720 0.8730 0.8750 0.8780 0.8800
3.018081 0.8800 0.8820 0.8820 0.8850 0.8850
3.051000 0.8850 0.8870 0.8880 0.8880 0.8880
3.084081 0.8880 0.8850 0.8770 0.8670 0.8620
3.118000 0.8570 0.8530 0.8520 0.8480 0.8450
3.151081 0.8350 0.8330 0.8300 0.8280 0.8270
3.184000 0.8170 0.8130 0.8120 0.8100 0.8000
3.217081 0.7800 0.7440 0.6990 0.6760 0.6720
3.250000 0.4800 0.4560 0.4550 0.4560 0.5490
3.283081 0.6290 0.6290 0.5580 0.5560 0.5310
3.316000 0.4700 0.3820 0.2390 0.1760 0.1210
3.349081 0.0860 0.0580 0.0490 0.0480 0.0490
3.382000 0.0590 0.0760 0.0910 0.1060 0.1220
3.415081 0.1440 0.1740 0.2100 0.2170 0.2240
3.448000 0.2200 0.2140 0.2120 0.2140 0.2570
3.481081 0.2800 0.3050 0.3830 0.4610 0.5290
3.514000 0.5880 0.6390 0.6610 0.6810 0.7100
3.547081 0.7340 0.7420 0.7490 0.7570 0.7620
3.581000 0.7690 0.7740 0.7800 0.7870 0.7920
3.614081 0.8000 0.8020 0.8020 0.7950 0.7900
3.647000 0.7840 0.7820 0.7840 0.7900 0.7950
3.680081 0.8000 0.8050 0.8100 0.8150 0.8200
3.713000 0.8200 0.8220 0.8230 0.8230 0.8250
3.746081 0.8270 0.8300 0.8320 0.8330 0.8330
3.779000 0.8330 0.8330 0.8330 0.8320 0.8320
3.812081 0.8320 0.8300 0.8270 0.8250 0.8230
3.845000 0.8230 0.8230 0.8230 0.8220 0.8220
3.878081 0.8220 0.8220 0.8220 0.8220 0.8220
3.911000 0.8220 0.8250 0.8270 0.8280 0.8320
3.944081 0.8330 0.8370 0.8400 0.8400 0.8400
3.977000 0.8350 0.8270 0.8200 0.8180 0.8170
4.010081 0.8170 0.8150 0.8130 0.8120 0.8120
4.043000 0.8100 0.8100 0.8120 0.8120 0.8120
4.076081 0.8130 0.8130 0.8130 0.8130 0.8150
4.110000 0.8150 0.8180 0.8180 0.8200 0.8200
4.143081 0.8200 0.8220 0.8220 0.8220 0.8180
4.176000 0.8170 0.8170 0.8170 0.8170 0.8150
4.209081 0.8150 0.8130 0.8130 0.8130 0.8130
4.242000 0.8150 0.8170 0.8170 0.8180 0.8200
4.275081 0.8200 0.8200 0.8200 0.8220 0.8220
4.308000 0.8220 0.8220 0.8220 0.8220 0.8220
4.341081 0.8200 0.8200 0.8200 0.8200 0.8230
4.374000 0.8230 0.8270 0.8280 0.8300 0.8300
4.407081 0.8280 0.8270 0.8230 0.8220 0.8200
4.440000 0.8200 0.8200 0.8220 0.8220 0.8220
4.473081 0.8230 0.8250 0.8270 0.8270 0.8250
4.506000 0.8250 0.8250 0.8270 0.8270 0.8280
4.539081 0.8280 0.8280 0.8280 0.8280 0.8230
4.573000 0.8230 0.8220 0.8200 0.8180 0.8180
4.606081 0.8170 0.8170 0.8170 0.8170 0.8170
4.639000 0.8200 0.8220 0.8230 0.8230 0.8200
4.672081 0.8200 0.8200 0.8170 0.8170 0.8150
4.705000 0.8150 0.8150 0.8150 0.8170 0.8170
4.738081 0.8180 0.8180 0.8200 0.8220 0.8230
4.771000 0.8270 0.8280 0.8280 0.8280 0.8270
4.804081 0.8270 0.8230 0.8230 0.8220 0.8220
4.837000 0.8220 0.8220 0.8220 0.8220 0.8220
4.870081 0.8230 0.8270 0.8300 0.8370 0.8400
4.903000 0.8420 0.8420 0.8370 0.8320 0.8280
4.936081 0.8250 0.8230 0.8180 0.8170 0.8170
4.969000 0.8170 0.8180 0.8200 0.8230 0.8270
5.002081 0.8280 0.8280 0.8300 0.8300 0.8300
5.035000 0.8280 0.8280 0.8270 0.8250 0.8200
5.068081 0.8180 0.8170 0.8150 0.8130 0.8120
5.102000 0.8120 0.8120 0.8120 0.8120 0.8120
5.135081 0.8120 0.8120 0.8130 0.8130 0.8130
5.168000 0.8150 0.8150 0.8170 0.8170 0.8170
5.201081 0.8150 0.8130 0.8120 0.8120 0.8100
5.234000 0.8100 0.8080 0.8050 0.8030 0.7990
5.267081 0.7950 0.7870 0.7850 0.7840 0.7790
5.300000 0.7750 0.7740 0.7740 0.7750 0.7790
5.333081 0.7840 0.7940 0.7970 0.8000 0.8070
5.366000 0.8100 0.8130 0.8130 0.8150 0.8150
5.399081 0.8170 0.8170 0.8180 0.8180 0.8180
5.432000 0.8180 0.8180 0.8180 0.8180 0.8180
5.465081 0.8180 0.8180 0.8180 0.8170 0.8150
5.498000 0.8150 0.8130 0.8120 0.8100 0.8080
5.531081 0.8050 0.8020 0.8000 0.7970 0.7890
5.564000 0.7840 0.7800 0.7750 0.7740 0.7720
5.597081 0.7690 0.7670 0.7670 0.7670 0.7670
5.631000 0.7690 0.7700 0.7740 0.7770 0.7800
5.664081 0.7840 0.7850 0.7870 0.7870 0.7900
5.697000 0.7920 0.7920 0.7940 0.7970 0.7990
5.730081 0.7990 0.8000 0.8000 0.7990 0.7990
5.763000 0.7990 0.7990 0.7970 0.7950 0.7940
5.796081 0.7920 0.7850 0.7840 0.7840 0.7850
5.829000 0.7870 0.7920 0.7940 0.7950 0.7950
5.862081 0.7900 0.7890 0.7800 0.7700 0.7670
5.895000 0.7640 0.7640 0.7640 0.7620 0.7600
5.928081 0.7590 0.7590 0.7600 0.7620 0.7650
5.961000 0.7670 0.7690 0.7700 0.7720 0.7750
5.994081 0.7790 0.7820 0.7890 0.7920 0.7920
6.027000 0.7900 0.7850 0.7800 0.7800 0.7770
6.060081 0.7770 0.7770 0.7750 0.7740 0.7720
6.094000 0.7700 0.7690 0.7670 0.7650 0.7650
6.127081 0.7620 0.7570 0.7520 0.7470 0.7420
6.160000 0.7370 0.7340 0.7300 0.7270 0.7220
6.193081 0.7170 0.7120 0.7040 0.6940 0.6810
6.226000 0.6290 0.5910 0.5540 0.5210 0.4880
6.259081 0.4480 0.4130 0.4010 0.4000 0.4010
6.292000 0.4610 0.5110 0.5410 0.5540 0.5580
6.325081 0.5580 0.5490 0.5330 0.5180 0.5060
6.358000 0.4860 0.4550 0.4010 0.2650 0.2600
6.391081 0.2090 0.1560 0.1210 0.0910 0.0690
6.424000 0.0490 0.0480 0.0490 0.0640 0.0660
6.457081 0.0780 0.0930 0.1110 0.1640 0.2200
6.490000 0.2690 0.3130 0.3350 0.3570 0.4130
6.523081 0.4560 0.4910 0.5160 0.5360 0.5510
6.556000 0.5660 0.5830 0.5960 0.5980 0.5980
6.589081 0.5990 0.5990 0.5980 0.5940 0.5930
6.623000 0.5910 0.5890 0.5840 0.5830 0.5790
6.656081 0.5710 0.5610 0.5560 0.5460 0.5290
6.689000 0.5090 0.4960 0.4800 0.4600 0.4400
6.722081 0.4180 0.3950 0.3720 0.3480 0.2820
6.755000 0.2300 0.1860 0.1510 0.1360 0.1190
6.788081 0.1090 0.0940 0.0810 0.0790 0.0810
6.821000 0.0890 0.0960 0.1010 0.1060 0.1060
6.854081 0.1010 0.0980 0.0910 0.0860 0.0810
6.887000 0.0680 0.0640 0.0510 0.0410 0.0390
6.920081 0.0360 0.0330 0.0310 0.0280 0.0260
6.953000 0.0230 0.0210 0.0190 0.0190 0.0190
6.986081 0.0190 0.0180 0.0180 0.0180 0.0190
7.019000 0.0210 0.0230 0.0230 0.0240 0.0260
7.052081 0.0290 0.0380 0.0530 0.0660 0.0930
7.085000 0.1310 0.1710 0.2090 0.2370 0.2570
7.118081 0.2720 0.2920 0.3020 0.3170 0.3200
7.152000 0.3180 0.3050 0.2920 0.2720 0.2570
7.185081 0.2200 0.1870 0.1470 0.1070 0.0780
7.218000 0.0660 0.0340 0.0290 0.0230 0.0190
7.251081 0.0190 0.0190 0.0210 0.0240 0.0260
7.284000 0.0280 0.0280 0.0280 0.0290 0.0310
7.317081 0.0340 0.0360 0.0360 0.0360 0.0340
7.350000 0.0330 0.0330 0.0330 0.0340 0.0390
7.383081 0.0410 0.0410 0.0580 0.0690 0.0810
7.416000 0.0840 0.0810 0.0780 0.0780 0.0760
7.449081 0.0780 0.0790 0.0830 0.0890 0.0960
7.482000 0.1040 0.1170 0.1310 0.1410 0.1440
7.515081 0.1440 0.1410 0.1390 0.1260 0.1160
7.548000 0.1060 0.0940 0.0810 0.0660 0.0540
7.581081 0.0390 0.0260 0.0230 0.0230 0.0240
7.615000 0.0290 0.0330 0.0390 0.0460 0.0480
7.648081 0.0540 0.0640 0.0730 0.0790 0.0790
7.681000 0.0780 0.0690 0.0630 0.0610 0.0590
7.714081 0.0610 0.0630 0.0710 0.0760 0.0860
7.747000 0.1010 0.1270 0.1670 0.2040 0.2400
7.780081 0.2800 0.3130 0.3320 0.3480 0.3750
7.813000 0.4060 0.4300 0.4380 0.4500 0.4530
7.846081 0.4530 0.4500 0.4300 0.4050 0.3720
7.879000 0.3400 0.2770 0.2600 0.2550 0.2520
7.912081 0.2500 0.2450 0.2390 0.2300 0.2150
7.945000 0.1940 0.1640 0.1470 0.1220 0.1210
7.978081 0.1240 0.1690 0.1820 0.2620 0.3020
8.011000 0.3420 0.4130 0.4710 0.5000 0.5160
8.044081 0.5340 0.5410 0.5490 0.5490 0.5440
8.077000 0.5340 0.5160 0.4910 0.4710 0.4510
8.110081 0.4330 0.4150 0.4000 0.3980 0.4000
8.144000 0.4360 0.4710 0.5010 0.5190 0.5330
8.177081 0.5490 0.5680 0.5840 0.5930 0.5980
8.210000 0.6010 0.6010 0.6010 0.5910 0.5840
8.243081 0.5780 0.5690 0.5610 0.5490 0.5330
8.276000 0.5110 0.4880 0.4600 0.4260 0.3920
8.309081 0.3500 0.2550 0.2070 0.1720 0.1410
8.342000 0.0980 0.0630 0.0360 0.0260 0.0240
8.375081 0.0260 0.0280 0.0410 0.0510 0.0840
8.408000 0.1260 0.1670 0.2020 0.2220 0.2420
8.441081 0.2500 0.2450 0.2420 0.2220 0.2000
8.474000 0.1670 0.1390 0.1140 0.0840 0.0690
8.507081 0.0540 0.0440 0.0340 0.0280 0.0240
8.540000 0.0210 0.0190 0.0190 0.0190 0.0210
8.573081 0.0210 0.0210 0.0240 0.0240 0.0390
8.607000 0.0610 0.0810 0.0940 0.1120 0.1310
8.640081 0.1520 0.1720 0.1920 0.2050 0.2150
8.673000 0.2170 0.2220 0.2270 0.2290 0.2290
8.706081 0.2250 0.2240 0.2240 0.2270 0.2370
8.739000 0.2590 0.2890 0.3220 0.3420 0.3600
8.772081 0.3970 0.4260 0.4480 0.4660 0.4830
8.805000 0.4930 0.5010 0.5010 0.5040 0.5080
8.838081 0.5090 0.5130 0.5180 0.5180 0.5060
8.871000 0.4980 0.4950 0.4950 0.4980 0.5030
8.904081 0.5110 0.5160 0.5190 0.5240 0.5290
8.937000 0.5380 0.5510 0.5680 0.5910 0.6020
8.970081 0.6070 0.6120 0.6160 0.6240 0.6360
9.003000 0.6420 0.6470 0.6520 0.6540 0.6540
9.036081 0.6560 0.6560 0.6540 0.6520 0.6510
9.069000 0.6490 0.6490 0.6470 0.6420 0.6410
9.102081 0.6370 0.6310 0.6220 0.6170 0.6140
9.136000 0.6090 0.6020 0.5960 0.5890 0.5810
9.169081 0.5760 0.5710 0.5660 0.5540 0.5140
9.202000 0.4830 0.4500 0.4160 0.4150 0.4110
9.235081 0.3980 0.3720 0.3630 0.3630 0.3670
9.268000 0.3820 0.3880 0.3830 0.3730 0.3620
9.301081 0.3470 0.3220 0.3080 0.2950 0.2820
9.334000 0.2690 0.2550 0.2450 0.2370 0.2320
9.367081 0.2250 0.2140 0.2120 0.2120 0.2200
9.400000 0.2320 0.2420 0.2570 0.2770 0.3000
9.433081 0.3230 0.3370 0.3500 0.3700 0.3930
9.466000 0.4110 0.4260 0.4280 0.4400 0.4410
9.499081 0.4400 0.4330 0.4280 0.4210 0.4080
9.532000 0.3970 0.3830 0.3750 0.3750 0.3700
9.565081 0.3680 0.3650 0.3630 0.3630 0.3630
9.598000 0.3620 0.3530 0.3500 0.3380 0.3250
9.631081 0.3100 0.2970 0.2840 0.2750 0.2670
9.665000 0.2600 0.2590 0.2600 0.2650 0.2700
9.698081 0.2820 0.2840 0.2800 0.2750 0.2700
9.731000 0.2690 0.2590 0.2550 0.2550 0.2500
9.764081 0.2500 0.2490 0.2490 0.2490 0.2500
9.797000 0.2550 0.2590 0.2640 0.2690 0.2700
9.830081 0.2700 0.2600 0.2550 0.2470 0.2370
9.863000 0.2300 0.2270 0.2250 0.2270 0.2300
9.896081 0.2390 0.2500 0.2650 0.2750 0.2840
9.929000 0.2920 0.2920 0.2900 0.2890 0.2850
9.962081 0.2820 0.2790 0.2750 0.2750 0.2740
9.995000 0.2720 0.2700 0.2690 0.2670 0.2670
10.028081 0.2690 0.2690 0.2720 0.2720 0.2740
10.061000 0.2770 0.2790 0.2800 0.2820 0.2850
10.094081 0.2890 0.2900 0.2900 0.2890 0.2890
10.128000 0.2720 0.2670 0.2600 0.2550 0.2500
10.161081 0.2400 0.2250 0.2100 0.2020 0.1910
10.194000 0.1790 0.1670 0.1570 0.1470 0.1410
10.227081 0.1320 0.1310 0.1320 0.1420 0.1470
10.260000 0.1540 0.1640 0.1740 0.1840 0.1940
10.293081 0.2020 0.2050 0.2100 0.2140 0.2170
10.326000 0.2250 0.2320 0.2340 0.2350 0.2390
10.359081 0.2390 0.2400 0.2420 0.2470 0.2500
10.392000 0.2550 0.2620 0.2640 0.2670 0.2700
10.425081 0.2750 0.2850 0.2970 0.3070 0.3220
10.458000 0.3300 0.3370 0.3470 0.3530 0.3550
10.491081 0.3570 0.3600 0.3670 0.3820 0.3970
10.524000 0.4030 0.4110 0.4250 0.4380 0.4550
10.557081 0.4680 0.4760 0.4860 0.4960 0.5080
10.590000 0.5210 0.5340 0.5480 0.5590 0.5730
10.623081 0.5830 0.5930 0.5990 0.6040 0.6070
10.657000 0.6190 0.6270 0.6360 0.6440 0.6510
10.690081 0.6560 0.6610 0.6640 0.6640 0.6660
10.723000 0.6670 0.6690 0.6760 0.6840 0.6890
10.756081 0.6910 0.6920 0.6940 0.6940 0.6960
10.789000 0.6970 0.6970 0.7000 0.7020 0.7020
10.822081 0.7040 0.7050 0.7070 0.7070 0.7070
10.855000 0.7070 0.7070 0.7070 0.7070 0.7070
10.888081 0.7050 0.7050 0.7040 0.7020 0.7000
10.921000 0.6990 0.6990 0.6960 0.6940 0.6870
10.954081 0.6790 0.6670 0.6520 0.6520 0.6510
10.987000 0.6490 0.6490 0.6470 0.6460 0.6460
11.020081 0.6440 0.6420 0.6360 0.6310 0.6240
11.053000 0.6120 0.6060 0.6010 0.5930 0.5830
11.086081 0.5780 0.5760 0.5760 0.5780 0.5840
11.120000 0.5960 0.6060 0.6160 0.6240 0.6360
11.153081 0.6470 0.6610 0.6660 0.6690 0.6720
11.186000 0.6760 0.6770 0.6790 0.6840 0.6870
11.219081 0.6890 0.6890 0.6860 0.6820 0.6810
11.252000 0.6770 0.6740 0.6710 0.6640 0.6620
11.285081 0.6590 0.6540 0.6520 0.6510 0.6460
11.318000 0.6440 0.6420 0.6420 0.6440 0.6470
11.351081 0.6510 0.6510 0.6510 0.6490 0.6370
11.384000 0.6360 0.6290 0.6260 0.6210 0.6160
11.417081 0.6140 0.6140 0.6160 0.6160 0.6160
11.450000 0.6170 0.6210 0.6210 0.6260 0.6290
11.483081 0.6320 0.6340 0.6340 0.6320 0.6270
11.516000 0.6190 0.6120 0.6020 0.5960 0.5930
11.549081 0.5910 0.5880 0.5810 0.5680 0.5610
11.582000 0.5540 0.5440 0.5310 0.5160 0.5040
11.615081 0.4910 0.4810 0.4710 0.4630 0.4510
11.649000 0.4410 0.4280 0.4180 0.4060 0.3970
11.682081 0.3850 0.3830 0.3830 0.3800 0.3800
11.715000 0.3780 0.3770 0.3750 0.3700 0.3700
11.748081 0.3650 0.3570 0.3480 0.3430 0.3170
11.781000 0.3070 0.3000 0.2890 0.2750 0.2620
11.814081 0.2470 0.2320 0.2200 0.2090 0.2000
11.847000 0.1860 0.1760 0.1660 0.1540 0.1460
11.880081 0.1310 0.1260 0.1210 0.1190 0.1140
11.913000 0.1110 0.1070 0.1040 0.1020 0.1010
11.946081 0.0980 0.0980 0.0990 0.1060 0.1160
11.979000 0.1310 0.1360 0.1670 0.1960 0.2240
12.012081 0.2520 0.2800 0.3080 0.3230 0.3370
12.045000 0.3650 0.3950 0.4250 0.4550 0.4850
12.078081 0.5190 0.5410 0.5560 0.5760 0.5910
12.111000 0.6060 0.6110 0.6170 0.6290 0.6360
12.144081 0.6390 0.6420 0.6440 0.6490 0.6590
12.178000 0.6640 0.6670 0.6690 0.6710 0.6760
12.211081 0.6810 0.6840 0.6860 0.6870 0.6890
12.244000 0.6890 0.6940 0.6960 0.6970 0.7000
12.277081 0.7040 0.7040 0.7050 0.7070 0.7070
12.310000 0.7090 0.7100 0.7100 0.7100 0.7100
12.343081 0.7100 0.7100 0.7100 0.7090 0.7090
12.376000 0.7070 0.7050 0.7040 0.7040 0.6990
12.409081 0.6960 0.6940 0.6910 0.6870 0.6810
12.442000 0.6760 0.6720 0.6690 0.6590 0.6520
12.475081 0.6460 0.6370 0.6220 0.6060 0.5930
12.508000 0.5730 0.5610 0.5480 0.5330 0.5140
12.541081 0.4910 0.4660 0.4410 0.4160 0.3930
12.574000 0.3720 0.3530 0.3350 0.3100 0.2990
12.607081 0.2970 0.2950 0.2970 0.3170 0.3280
12.641000 0.3400 0.3620 0.3820 0.4080 0.4380
12.674081 0.4730 0.5110 0.5480 0.5780 0.6040
12.707000 0.6160 0.6290 0.6470 0.6520 0.6610
12.740081 0.6640 0.6640 0.6590 0.6560 0.6470
12.773000 0.6410 0.6320 0.6310 0.6310 0.6260
12.806081 0.6210 0.6190 0.6190 0.6210 0.6210
12.839000 0.6240 0.6260 0.6260 0.6290 0.6290
12.872081 0.6310 0.6320 0.6320 0.6320 0.6320
12.905000 0.6290 0.6290 0.6270 0.6240 0.6240
12.938081 0.6220 0.6210 0.6190 0.6160 0.6140
12.971000 0.6110 0.6070 0.6040 0.6020 0.6020
13.004081 0.6020 0.6040 0.6070 0.6160 0.6290
13.037000 0.6360 0.6460 0.6520 0.6560 0.6590
13.070081 0.6610 0.6620 0.6660 0.6660 0.6660
13.103000 0.6670 0.6670 0.6670 0.6670 0.6690
13.136081 0.6690 0.6690 0.6690 0.6690 0.6690
13.170000 0.6690 0.6670 0.6670 0.6670 0.6660
13.203081 0.6640 0.6620 0.6610 0.6590 0.6590
13.236000 0.6570 0.6560 0.6540 0.6520 0.6520
13.269081 0.6510 0.6490 0.6490 0.6470 0.6460
13.302000 0.6440 0.6440 0.6420 0.6410 0.6410
13.335081 0.6420 0.6420 0.6440 0.6440 0.6470
13.368000 0.6470 0.6520 0.6590 0.6610 0.6640
13.401081 0.6640 0.6660 0.6670 0.6710 0.6720
13.434000 0.6720 0.6720 0.6740 0.6740 0.6740
13.467081 0.6720 0.6720 0.6720 0.6710 0.6710
13.500000 0.6670 0.6610 0.6560 0.6490 0.6460
13.533081 0.6440 0.6420 0.6410 0.6390 0.6370
13.566000 0.6370 0.6360 0.6360 0.6360 0.6360
13.599081 0.6370 0.6370 0.6370 0.6390 0.6390
13.632000 0.6410 0.6420 0.6440 0.6470 0.6540
13.665081 0.6570 0.6640 0.6670 0.6710 0.6770
13.699000 0.6820 0.6860 0.6870 0.6870 0.6890
13.732081 0.6920 0.6990 0.7050 0.7070 0.7090
13.765000 0.7120 0.7170 0.7200 0.7200 0.7220
13.798081 0.7250 0.7290 0.7340 0.7370 0.7390
13.831000 0.7390 0.7420 0.7440 0.7450 0.7470
13.864081 0.7490 0.7490 0.7500 0.7520 0.7540
13.897000 0.7540 0.7550 0.7570 0.7590 0.7590
13.930081 0.7590 0.7620 0.7620 0.7620 0.7620
13.963000 0.7640 0.7640 0.7640 0.7640 0.7640
13.996081 0.7650 0.7670 0.7670 0.7690 0.7690
14.029000 0.7700 0.7700 0.7700 0.7700 0.7700
14.062081 0.7700 0.7700 0.7720 0.7740 0.7740
14.095000 0.7740 0.7740 0.7720 0.7700 0.7700
14.128081 0.7700 0.7700 0.7690 0.7690 0.7690
14.162000 0.7670 0.7670 0.7670 0.7670 0.7670
14.195081 0.7690 0.7700 0.7720 0.7720 0.7700
14.228000 0.7700 0.7700 0.7700 0.7700 0.7700
14.261081 0.7690 0.7690 0.7690 0.7720 0.7720
14.294000 0.7720 0.7720 0.7720 0.7720 0.7720
14.327081 0.7720 0.7720 0.7720 0.7720 0.7720
14.360000 0.7720 0.7720 0.7740 0.7740 0.7720
14.393081 0.7720 0.7720 0.7720 0.7720 0.7740
14.426000 0.7740 0.7740 0.7740 0.7740 0.7750
14.459081 0.7750 0.7770 0.7790 0.7790 0.7790
14.492000 0.7790 0.7790 0.7750 0.7740 0.7720
14.525081 0.7720 0.7720 0.7740 0.7740 0.7740
14.558000 0.7740 0.7740 0.7750 0.7750 0.7740
14.591081 0.7740 0.7720 0.7720 0.7700 0.7700
14.624000 0.7700 0.7700 0.7700 0.7700 0.7720
14.657081 0.7720 0.7720 0.7740 0.7740 0.7740
14.691000 0.7740 0.7720 0.7700 0.7690 0.7650
14.724081 0.7640 0.7640 0.7640 0.7640 0.7650
14.757000 0.7690 0.7690 0.7650 0.7640 0.7600
14.790081 0.7590 0.7590 0.7590 0.7600 0.7640
14.823000 0.7640 0.7640 0.7640 0.7640 0.7620
14.856081 0.7600 0.7590 0.7590 0.7590 0.7600
14.889000 0.7620 0.7640 0.7640 0.7640 0.7640
14.922081 0.7600 0.7570 0.7550 0.7520 0.7520
14.955000 0.7520 0.7520 0.7520 0.7520 0.7500
14.988081 0.7500 0.7490 0.7490 0.7440 0.7400
15.021000 0.7390 0.7370 0.7350 0.7340 0.7320
15.054081 0.7300 0.7290 0.7270 0.7270 0.7270
15.087000 0.7290 0.7290 0.7320 0.7340 0.7350
15.120081 0.7390 0.7390 0.7420 0.7450 0.7490
15.154000 0.7490 0.7490 0.7440 0.7400 0.7390
15.187081 0.7370 0.7370 0.7400 0.7440 0.7450
15.220000 0.7450 0.7440 0.7400 0.7340 0.7320
15.253081 0.7320 0.7300 0.7300 0.7300 0.7300
15.286000 0.7320 0.7320 0.7320 0.7340 0.7350
15.319081 0.7350 0.7370 0.7390 0.7390 0.7390
15.352000 0.7370 0.7350 0.7300 0.7290 0.7270
15.385081 0.7270 0.7290 0.7290 0.7290 0.7290
15.418000 0.7290 0.7250 0.7240 0.7220 0.7220
15.451081 0.7200 0.7200 0.7200 0.7170 0.7170
15.484000 0.7170 0.7150 0.7150 0.7140 0.7120
15.517081 0.7100 0.7090 0.7070 0.7050 0.7020
15.550000 0.7020 0.7000 0.7000 0.7000 0.6990
15.583081 0.6990 0.6990 0.6970 0.6960 0.6960
15.616000 0.6910 0.6820 0.6760 0.6740 0.6740
15.649081 0.6740 0.6760 0.6760 0.6770 0.6770
15.683000 0.6770 0.6770 0.6770 0.6760 0.6760
15.716081 0.6740 0.6720 0.6710 0.6640 0.6590
15.749000 0.6570 0.6570 0.6570 0.6590 0.6610
15.782081 0.6640 0.6660 0.6670 0.6720 0.6740
15.815000 0.6740 0.6740 0.6740 0.6740 0.6740
15.848081 0.6740 0.6740 0.6740 0.6740 0.6720
15.881000 0.6690 0.6620 0.6590 0.6590 0.6570
15.914081 0.6560 0.6540 0.6540 0.6540 0.6560
15.947000 0.6560 0.6570 0.6590 0.6590 0.6590
15.980081 0.6590 0.6590 0.6590
##END=
