##TITLE=MAGNESIUM CHROMATE
$$ C.P.
##JCAMP-DX=4.24
##DATA TYPE=INFRARED SPECTRUM
##CLASS=COBLENTZ
##ORIGIN=MELLON INSTITUTE
##OWNER=COBLENTZ SOCIETY
Collection (C) 2018 copyright by the U.S. Secretary of Commerce
on behalf of the United States of America. All rights reserved.
##DATE=Not specified, most likely prior to 1970
##MOLFORM=Mg Cr O4  * 7 H2 O
##SOURCE REFERENCE=COBLENTZ NO. 460
##$NIST ID=B6000460
##$NIST SOURCE=COBLENTZ
##$NIST IMAGE=cob460
##SPECTROMETER/DATA SYSTEM=Not specified, most likely a prism, grating, or hybrid spectrometer.
##STATE=SOLID (NUJOL MULL)
##PATH LENGTH=
$$SPECTRAL CONTAMINATION DUE TO OIL AROUND 2900, 1450, 1380 CM^-^1
##SAMPLING PROCEDURE=TRANSMISSION
##RESOLUTION=4
##DATA PROCESSING=DIGITIZED BY NIST FROM HARD COPY
##XUNITS=MICROMETERS
##YUNITS=TRANSMITTANCE
##XFACTOR=1.000000
##YFACTOR=1
##DELTAX=000.006832
##FIRSTX=2.057
##LASTX=16.0018
##FIRSTY=0.644
##MAXX=16.0018
##MINX=2.057
##MAXY=0.955
##MINY=0.03
##NPOINTS=2042
##XYDATA=(X++(Y..Y))
2.057000 0.6440 0.6500 0.6530 0.6550 0.6560
2.091178 0.6630 0.6670 0.6720 0.6750 0.6770
2.125000 0.6820 0.6870 0.6910 0.6940 0.6990
2.159178 0.7040 0.7060 0.7130 0.7150 0.7160
2.194000 0.7200 0.7220 0.7270 0.7300 0.7320
2.228178 0.7350 0.7370 0.7400 0.7400 0.7420
2.262000 0.7440 0.7440 0.7460 0.7490 0.7510
2.296178 0.7510 0.7530 0.7540 0.7540 0.7540
2.330000 0.7580 0.7590 0.7610 0.7630 0.7650
2.364178 0.7660 0.7680 0.7710 0.7730 0.7770
2.399000 0.7800 0.7850 0.7890 0.7940 0.7970
2.433178 0.7990 0.8020 0.8060 0.8110 0.8140
2.467000 0.8160 0.8210 0.8230 0.8250 0.8300
2.501178 0.8330 0.8350 0.8380 0.8400 0.8420
2.535000 0.8450 0.8490 0.8500 0.8540 0.8550
2.569178 0.8550 0.8590 0.8610 0.8610 0.8620
2.604000 0.8640 0.8660 0.8710 0.8740 0.8760
2.638178 0.8790 0.8830 0.8900 0.8980 0.9000
2.672000 0.9000 0.8980 0.8980 0.8950 0.8930
2.706178 0.8910 0.8900 0.8880 0.8830 0.8790
2.740000 0.8730 0.8550 0.8380 0.8180 0.8020
2.774178 0.7870 0.7100 0.6430 0.5740 0.5060
2.809000 0.4370 0.3680 0.3310 0.3000 0.2890
2.843178 0.2790 0.2640 0.2500 0.2340 0.2240
2.877000 0.2070 0.2020 0.1970 0.1800 0.1730
2.911178 0.1640 0.1610 0.1500 0.1450 0.1400
2.945000 0.1350 0.1280 0.1210 0.1180 0.1140
2.979178 0.1130 0.1090 0.1080 0.1060 0.1020
3.014000 0.1020 0.1020 0.1010 0.1010 0.1010
3.048178 0.0990 0.0990 0.0990 0.0970 0.0970
3.082000 0.0970 0.0970 0.0970 0.0970 0.0990
3.116178 0.1010 0.1020 0.1040 0.1040 0.1090
3.150000 0.1130 0.1200 0.1230 0.1280 0.1330
3.184178 0.1380 0.1440 0.1490 0.1560 0.1610
3.219000 0.1690 0.1730 0.1800 0.1850 0.1900
3.253178 0.2020 0.2070 0.2120 0.2160 0.2190
3.287000 0.2240 0.2310 0.2310 0.2280 0.2170
3.321178 0.2070 0.1970 0.1860 0.1180 0.1020
3.355000 0.0850 0.0720 0.0600 0.0460 0.0390
3.389178 0.0320 0.0300 0.0320 0.0370 0.0460
3.424000 0.0560 0.0660 0.0800 0.0990 0.1110
3.458178 0.1110 0.1080 0.1060 0.1020 0.1010
3.492000 0.0990 0.1470 0.1860 0.2760 0.3460
3.526178 0.3820 0.4490 0.4990 0.5660 0.5930
3.560000 0.6170 0.6270 0.6360 0.6390 0.6460
3.594178 0.6530 0.6620 0.6650 0.6740 0.6800
3.629000 0.6860 0.6890 0.6920 0.6990 0.6990
3.663178 0.7060 0.7080 0.7130 0.7160 0.7180
3.697000 0.7220 0.7250 0.7250 0.7280 0.7320
3.731178 0.7350 0.7370 0.7390 0.7420 0.7440
3.765000 0.7440 0.7490 0.7490 0.7510 0.7540
3.799178 0.7580 0.7590 0.7610 0.7650 0.7660
3.834000 0.7660 0.7700 0.7710 0.7730 0.7750
3.868178 0.7780 0.7800 0.7820 0.7830 0.7890
3.902000 0.7900 0.7940 0.7950 0.7970 0.7990
3.936178 0.7990 0.8020 0.8040 0.8070 0.8090
3.970000 0.8090 0.8110 0.8130 0.8160 0.8190
4.004178 0.8210 0.8230 0.8250 0.8250 0.8260
4.039000 0.8260 0.8260 0.8260 0.8280 0.8300
4.073178 0.8300 0.8300 0.8300 0.8300 0.8310
4.107000 0.8310 0.8310 0.8310 0.8310 0.8310
4.141178 0.8310 0.8310 0.8300 0.8280 0.8280
4.175000 0.8250 0.8230 0.8210 0.8180 0.8140
4.209178 0.8110 0.8070 0.8040 0.8020 0.8010
4.243000 0.8010 0.7990 0.7970 0.7950 0.7940
4.277178 0.7920 0.7900 0.7890 0.7870 0.7830
4.312000 0.7820 0.7820 0.7800 0.7780 0.7750
4.346178 0.7750 0.7730 0.7730 0.7710 0.7710
4.380000 0.7710 0.7710 0.7710 0.7700 0.7700
4.414178 0.7710 0.7710 0.7710 0.7730 0.7730
4.448000 0.7730 0.7750 0.7750 0.7770 0.7780
4.482178 0.7800 0.7820 0.7820 0.7830 0.7850
4.517000 0.7870 0.7920 0.7940 0.7950 0.7970
4.551178 0.7990 0.8020 0.8020 0.8040 0.8070
4.585000 0.8090 0.8130 0.8160 0.8190 0.8210
4.619178 0.8230 0.8250 0.8260 0.8300 0.8330
4.653000 0.8330 0.8350 0.8350 0.8370 0.8370
4.687178 0.8380 0.8400 0.8420 0.8430 0.8430
4.722000 0.8450 0.8450 0.8470 0.8490 0.8520
4.756178 0.8520 0.8540 0.8540 0.8540 0.8550
4.790000 0.8550 0.8590 0.8610 0.8620 0.8620
4.824178 0.8640 0.8640 0.8660 0.8660 0.8670
4.858000 0.8710 0.8730 0.8730 0.8730 0.8740
4.892178 0.8740 0.8780 0.8790 0.8810 0.8810
4.927000 0.8830 0.8830 0.8850 0.8860 0.8880
4.961178 0.8880 0.8900 0.8900 0.8910 0.8900
4.995000 0.8910 0.8930 0.8930 0.8950 0.8980
5.029178 0.9020 0.9020 0.9030 0.9050 0.9050
5.063000 0.9050 0.9050 0.9050 0.9070 0.9090
5.097178 0.9100 0.9100 0.9120 0.9120 0.9120
5.132000 0.9140 0.9150 0.9150 0.9150 0.9150
5.166178 0.9190 0.9190 0.9190 0.9210 0.9220
5.200000 0.9220 0.9220 0.9240 0.9240 0.9260
5.234178 0.9260 0.9270 0.9270 0.9290 0.9290
5.268000 0.9310 0.9310 0.9310 0.9310 0.9330
5.302178 0.9330 0.9340 0.9340 0.9340 0.9340
5.337000 0.9340 0.9340 0.9340 0.9360 0.9380
5.371178 0.9360 0.9360 0.9380 0.9360 0.9380
5.405000 0.9380 0.9390 0.9390 0.9390 0.9390
5.439178 0.9390 0.9390 0.9410 0.9410 0.9410
5.473000 0.9390 0.9390 0.9390 0.9410 0.9410
5.507178 0.9430 0.9430 0.9450 0.9450 0.9450
5.542000 0.9450 0.9450 0.9460 0.9460 0.9480
5.576178 0.9480 0.9500 0.9500 0.9500 0.9500
5.610000 0.9500 0.9510 0.9510 0.9510 0.9510
5.644178 0.9510 0.9510 0.9510 0.9510 0.9530
5.678000 0.9530 0.9530 0.9530 0.9530 0.9530
5.712178 0.9530 0.9530 0.9530 0.9530 0.9530
5.747000 0.9530 0.9550 0.9550 0.9550 0.9550
5.781178 0.9550 0.9550 0.9550 0.9550 0.9550
5.815000 0.9550 0.9550 0.9550 0.9550 0.9530
5.849178 0.9530 0.9530 0.9530 0.9510 0.9510
5.883000 0.9480 0.9460 0.9450 0.9390 0.9360
5.917178 0.9310 0.9260 0.9210 0.9190 0.9140
5.952000 0.9100 0.9030 0.9000 0.8950 0.8860
5.986178 0.8760 0.8550 0.8020 0.7680 0.7340
6.020000 0.6890 0.6430 0.6150 0.5860 0.5060
6.054178 0.4950 0.4850 0.4810 0.4800 0.4780
6.088000 0.4750 0.4730 0.4710 0.4660 0.4630
6.122178 0.4510 0.4420 0.4210 0.4010 0.4010
6.157000 0.3990 0.3920 0.3920 0.3940 0.4470
6.191178 0.4780 0.4970 0.5590 0.5830 0.6260
6.225000 0.6430 0.6620 0.6790 0.6960 0.7200
6.259178 0.7300 0.7510 0.7590 0.7730 0.7830
6.293000 0.7870 0.7970 0.7990 0.7990 0.8060
6.327178 0.8110 0.8160 0.8210 0.8230 0.8260
6.361000 0.8280 0.8310 0.8330 0.8370 0.8380
6.395178 0.8420 0.8450 0.8490 0.8500 0.8500
6.430000 0.8520 0.8540 0.8550 0.8590 0.8610
6.464178 0.8620 0.8640 0.8640 0.8660 0.8690
6.498000 0.8710 0.8730 0.8740 0.8740 0.8760
6.532178 0.8780 0.8780 0.8790 0.8810 0.8810
6.566000 0.8810 0.8810 0.8810 0.8810 0.8810
6.600178 0.8830 0.8860 0.8880 0.8900 0.8910
6.635000 0.8910 0.8930 0.8950 0.8950 0.8950
6.669178 0.8950 0.8950 0.8950 0.8950 0.8930
6.703000 0.8910 0.8880 0.8850 0.8810 0.8760
6.737178 0.8730 0.8660 0.8550 0.8420 0.8210
6.771000 0.8090 0.7970 0.7730 0.7390 0.7110
6.805178 0.6840 0.6170 0.5500 0.5070 0.4930
6.840000 0.4780 0.4540 0.4520 0.4520 0.4520
6.874178 0.4520 0.4540 0.4610 0.4660 0.4780
6.908000 0.4900 0.5240 0.5450 0.5710 0.5950
6.942178 0.6430 0.6600 0.6770 0.6960 0.7350
6.976000 0.7580 0.7750 0.7850 0.7900 0.7990
7.010178 0.8250 0.8280 0.8310 0.8330 0.8370
7.045000 0.8400 0.8430 0.8490 0.8540 0.8590
7.079178 0.8610 0.8670 0.8710 0.8760 0.8780
7.113000 0.8830 0.8850 0.8860 0.8900 0.8910
7.147178 0.8910 0.8910 0.8910 0.8910 0.8900
7.181000 0.8860 0.8810 0.8570 0.8300 0.8140
7.215178 0.7970 0.7710 0.7350 0.7060 0.6770
7.250000 0.6460 0.6410 0.6390 0.6410 0.6430
7.284178 0.6530 0.6680 0.6800 0.6940 0.7230
7.318000 0.7370 0.7490 0.7590 0.7750 0.7950
7.352178 0.8090 0.8130 0.8190 0.8230 0.8280
7.386000 0.8300 0.8330 0.8370 0.8370 0.8380
7.420178 0.8380 0.8400 0.8400 0.8420 0.8420
7.455000 0.8430 0.8430 0.8450 0.8470 0.8500
7.489178 0.8520 0.8550 0.8590 0.8620 0.8660
7.523000 0.8710 0.8730 0.8740 0.8740 0.8760
7.557178 0.8790 0.8810 0.8830 0.8830 0.8850
7.591000 0.8850 0.8860 0.8860 0.8860 0.8850
7.625178 0.8850 0.8850 0.8830 0.8830 0.8810
7.660000 0.8830 0.8810 0.8810 0.8780 0.8780
7.694178 0.8780 0.8780 0.8780 0.8780 0.8760
7.728000 0.8760 0.8780 0.8780 0.8780 0.8790
7.762178 0.8810 0.8810 0.8790 0.8810 0.8810
7.796000 0.8810 0.8830 0.8830 0.8830 0.8850
7.830178 0.8850 0.8850 0.8850 0.8850 0.8850
7.865000 0.8850 0.8850 0.8850 0.8850 0.8850
7.899178 0.8850 0.8850 0.8860 0.8880 0.8880
7.933000 0.8880 0.8880 0.8880 0.8880 0.8880
7.967178 0.8880 0.8880 0.8880 0.8880 0.8880
8.001000 0.8880 0.8860 0.8860 0.8880 0.8880
8.035178 0.8880 0.8880 0.8880 0.8880 0.8880
8.070000 0.8880 0.8880 0.8880 0.8880 0.8880
8.104178 0.8880 0.8880 0.8900 0.8900 0.8900
8.138000 0.8900 0.8900 0.8880 0.8880 0.8880
8.172178 0.8880 0.8900 0.8900 0.8900 0.8900
8.206000 0.8900 0.8900 0.8900 0.8910 0.8910
8.240178 0.8900 0.8910 0.8910 0.8910 0.8910
8.275000 0.8900 0.8900 0.8900 0.8900 0.8900
8.309178 0.8900 0.8900 0.8900 0.8900 0.8900
8.343000 0.8900 0.8900 0.8900 0.8900 0.8880
8.377178 0.8880 0.8900 0.8880 0.8860 0.8880
8.411000 0.8880 0.8860 0.8860 0.8860 0.8860
8.445178 0.8860 0.8860 0.8860 0.8850 0.8850
8.480000 0.8850 0.8850 0.8850 0.8850 0.8850
8.514178 0.8830 0.8830 0.8810 0.8810 0.8810
8.548000 0.8790 0.8790 0.8780 0.8780 0.8780
8.582178 0.8760 0.8760 0.8760 0.8740 0.8740
8.616000 0.8740 0.8730 0.8730 0.8710 0.8730
8.650178 0.8710 0.8690 0.8690 0.8710 0.8710
8.684000 0.8690 0.8690 0.8670 0.8690 0.8690
8.718178 0.8670 0.8670 0.8660 0.8660 0.8640
8.753000 0.8640 0.8640 0.8640 0.8620 0.8610
8.787178 0.8610 0.8590 0.8590 0.8570 0.8590
8.821000 0.8570 0.8570 0.8590 0.8570 0.8570
8.855178 0.8550 0.8570 0.8570 0.8570 0.8570
8.889000 0.8550 0.8540 0.8540 0.8540 0.8550
8.923178 0.8550 0.8550 0.8540 0.8540 0.8540
8.958000 0.8520 0.8520 0.8520 0.8520 0.8520
8.992178 0.8520 0.8520 0.8520 0.8520 0.8520
9.026000 0.8520 0.8520 0.8520 0.8520 0.8500
9.060178 0.8500 0.8500 0.8520 0.8500 0.8500
9.094000 0.8500 0.8490 0.8470 0.8470 0.8490
9.128178 0.8490 0.8490 0.8500 0.8500 0.8500
9.163000 0.8500 0.8500 0.8500 0.8490 0.8500
9.197178 0.8490 0.8490 0.8500 0.8490 0.8490
9.231000 0.8500 0.8500 0.8500 0.8500 0.8500
9.265178 0.8500 0.8500 0.8500 0.8500 0.8490
9.299000 0.8500 0.8490 0.8490 0.8500 0.8490
9.333178 0.8470 0.8490 0.8490 0.8490 0.8490
9.368000 0.8490 0.8490 0.8490 0.8490 0.8490
9.402178 0.8490 0.8490 0.8490 0.8470 0.8470
9.436000 0.8450 0.8450 0.8450 0.8450 0.8450
9.470178 0.8430 0.8430 0.8430 0.8430 0.8420
9.504000 0.8420 0.8420 0.8420 0.8400 0.8400
9.538178 0.8400 0.8400 0.8400 0.8380 0.8400
9.573000 0.8380 0.8380 0.8380 0.8380 0.8380
9.607178 0.8370 0.8350 0.8350 0.8330 0.8350
9.641000 0.8350 0.8350 0.8330 0.8330 0.8330
9.675178 0.8330 0.8330 0.8330 0.8330 0.8330
9.709000 0.8330 0.8310 0.8300 0.8300 0.8300
9.743178 0.8300 0.8310 0.8310 0.8310 0.8300
9.778000 0.8300 0.8300 0.8280 0.8260 0.8260
9.812178 0.8260 0.8250 0.8250 0.8250 0.8250
9.846000 0.8230 0.8210 0.8210 0.8210 0.8210
9.880178 0.8210 0.8210 0.8190 0.8190 0.8190
9.914000 0.8180 0.8160 0.8140 0.8140 0.8140
9.948178 0.8140 0.8130 0.8110 0.8110 0.8110
9.983000 0.8110 0.8090 0.8070 0.8070 0.8060
10.017178 0.8060 0.8060 0.8040 0.8020 0.8010
10.051000 0.8010 0.8010 0.7990 0.7990 0.7970
10.085178 0.7920 0.7900 0.7870 0.7850 0.7820
10.119000 0.7780 0.7750 0.7710 0.7650 0.7590
10.153178 0.7540 0.7490 0.7320 0.7250 0.7150
10.188000 0.7100 0.7040 0.7030 0.7010 0.6980
10.222178 0.6840 0.6800 0.6740 0.6650 0.6530
10.256000 0.6460 0.6380 0.6320 0.6270 0.6190
10.290178 0.6070 0.6000 0.5980 0.5950 0.5830
10.324000 0.5740 0.5690 0.5640 0.5600 0.5550
10.358178 0.5520 0.5500 0.5470 0.5430 0.5400
10.393000 0.5300 0.5280 0.5230 0.5210 0.5180
10.427178 0.5140 0.5110 0.5060 0.5020 0.5000
10.461000 0.4990 0.4970 0.4920 0.4880 0.4830
10.495178 0.4800 0.4760 0.4730 0.4690 0.4640
10.529000 0.4610 0.4590 0.4540 0.4520 0.4510
10.563178 0.4490 0.4450 0.4420 0.4400 0.4370
10.598000 0.4330 0.4280 0.4280 0.4250 0.4230
10.632178 0.4200 0.4150 0.4130 0.4110 0.4040
10.666000 0.4030 0.4010 0.4010 0.3990 0.3970
10.700178 0.3970 0.3910 0.3890 0.3840 0.3820
10.734000 0.3790 0.3730 0.3720 0.3670 0.3610
10.768178 0.3560 0.3530 0.3480 0.3430 0.3360
10.802000 0.3290 0.3250 0.3170 0.3080 0.3030
10.836178 0.3010 0.2980 0.2880 0.2810 0.2740
10.871000 0.2650 0.2620 0.2530 0.2520 0.2460
10.905178 0.2400 0.2340 0.2290 0.2260 0.2220
10.939000 0.2190 0.2140 0.2090 0.2040 0.2000
10.973178 0.1980 0.1970 0.1930 0.1880 0.1810
11.007000 0.1780 0.1740 0.1730 0.1710 0.1690
11.041178 0.1680 0.1640 0.1610 0.1590 0.1570
11.076000 0.1540 0.1520 0.1500 0.1490 0.1450
11.110178 0.1440 0.1440 0.1420 0.1400 0.1380
11.144000 0.1350 0.1350 0.1320 0.1320 0.1320
11.178178 0.1300 0.1280 0.1280 0.1260 0.1250
11.212000 0.1230 0.1230 0.1230 0.1230 0.1230
11.246178 0.1230 0.1230 0.1210 0.1210 0.1210
11.281000 0.1210 0.1210 0.1210 0.1200 0.1200
11.315178 0.1180 0.1180 0.1180 0.1180 0.1160
11.349000 0.1160 0.1160 0.1160 0.1200 0.1180
11.383178 0.1180 0.1180 0.1180 0.1200 0.1200
11.417000 0.1200 0.1200 0.1210 0.1210 0.1230
11.451178 0.1250 0.1260 0.1300 0.1320 0.1320
11.486000 0.1350 0.1380 0.1450 0.1500 0.1540
11.520178 0.1620 0.1680 0.1740 0.1810 0.1850
11.554000 0.1970 0.1980 0.2020 0.2050 0.2090
11.588178 0.2120 0.2160 0.2160 0.2170 0.2170
11.622000 0.2170 0.2170 0.2160 0.2160 0.2140
11.656178 0.2140 0.2140 0.2120 0.2100 0.2100
11.691000 0.2100 0.2090 0.2100 0.2100 0.2100
11.725178 0.2100 0.2100 0.2120 0.2120 0.2120
11.759000 0.2120 0.2160 0.2160 0.2190 0.2210
11.793178 0.2220 0.2240 0.2280 0.2310 0.2330
11.827000 0.2380 0.2410 0.2430 0.2430 0.2480
11.861178 0.2500 0.2550 0.2620 0.2650 0.2720
11.896000 0.2790 0.2860 0.2890 0.2980 0.3070
11.930178 0.3120 0.3150 0.3220 0.3250 0.3290
11.964000 0.3320 0.3360 0.3390 0.3410 0.3480
11.998178 0.3530 0.3580 0.3580 0.3610 0.3630
12.032000 0.3650 0.3700 0.3720 0.3730 0.3800
12.066178 0.3820 0.3840 0.3890 0.3920 0.3970
12.101000 0.3970 0.4010 0.4040 0.4090 0.4110
12.135178 0.4150 0.4180 0.4200 0.4210 0.4230
12.169000 0.4250 0.4270 0.4270 0.4280 0.4300
12.203178 0.4320 0.4320 0.4350 0.4370 0.4370
12.237000 0.4390 0.4390 0.4400 0.4400 0.4420
12.271178 0.4420 0.4420 0.4420 0.4440 0.4440
12.306000 0.4450 0.4470 0.4470 0.4470 0.4470
12.340178 0.4470 0.4470 0.4470 0.4470 0.4490
12.374000 0.4470 0.4470 0.4470 0.4470 0.4490
12.408178 0.4510 0.4510 0.4510 0.4510 0.4510
12.442000 0.4510 0.4510 0.4510 0.4510 0.4510
12.476178 0.4510 0.4510 0.4510 0.4510 0.4510
12.511000 0.4510 0.4510 0.4510 0.4510 0.4510
12.545178 0.4510 0.4510 0.4510 0.4520 0.4510
12.579000 0.4510 0.4510 0.4510 0.4510 0.4510
12.613178 0.4490 0.4490 0.4490 0.4490 0.4490
12.647000 0.4470 0.4470 0.4470 0.4470 0.4470
12.681178 0.4470 0.4450 0.4450 0.4450 0.4450
12.716000 0.4440 0.4440 0.4420 0.4420 0.4420
12.750178 0.4400 0.4390 0.4390 0.4390 0.4370
12.784000 0.4350 0.4350 0.4330 0.4330 0.4300
12.818178 0.4300 0.4280 0.4270 0.4270 0.4250
12.852000 0.4230 0.4210 0.4210 0.4200 0.4200
12.886178 0.4200 0.4200 0.4180 0.4160 0.4160
12.920000 0.4160 0.4160 0.4160 0.4160 0.4160
12.954178 0.4160 0.4160 0.4150 0.4130 0.4130
12.989000 0.4130 0.4130 0.4110 0.4110 0.4110
13.023178 0.4090 0.4090 0.4090 0.4090 0.4080
13.057000 0.4080 0.4080 0.4060 0.4060 0.4060
13.091178 0.4060 0.4060 0.4060 0.4060 0.4060
13.125000 0.4060 0.4060 0.4040 0.4040 0.4040
13.159178 0.4040 0.4040 0.4040 0.4040 0.4040
13.194000 0.4040 0.4030 0.4030 0.4030 0.4030
13.228178 0.4030 0.4030 0.4030 0.4030 0.4030
13.262000 0.4030 0.4030 0.4030 0.4030 0.4030
13.296178 0.4030 0.4030 0.4030 0.4030 0.4030
13.330000 0.4030 0.4030 0.4030 0.4030 0.4030
13.364178 0.4030 0.4030 0.4030 0.4030 0.4030
13.399000 0.4030 0.4030 0.4040 0.4040 0.4040
13.433178 0.4060 0.4060 0.4080 0.4080 0.4080
13.467000 0.4080 0.4080 0.4080 0.4080 0.4080
13.501178 0.4080 0.4080 0.4080 0.4080 0.4080
13.535000 0.4080 0.4080 0.4080 0.4080 0.4080
13.569178 0.4080 0.4080 0.4080 0.4080 0.4080
13.604000 0.4080 0.4080 0.4080 0.4080 0.4060
13.638178 0.4060 0.4060 0.4060 0.4040 0.4040
13.672000 0.4040 0.4030 0.4010 0.4010 0.4010
13.706178 0.4010 0.3990 0.3970 0.3970 0.3970
13.740000 0.3940 0.3940 0.3920 0.3920 0.3910
13.774178 0.3890 0.3890 0.3870 0.3850 0.3840
13.809000 0.3820 0.3800 0.3790 0.3770 0.3770
13.843178 0.3750 0.3750 0.3750 0.3730 0.3720
13.877000 0.3720 0.3720 0.3700 0.3700 0.3700
13.911178 0.3680 0.3680 0.3670 0.3670 0.3650
13.945000 0.3650 0.3630 0.3610 0.3600 0.3600
13.979178 0.3610 0.3600 0.3600 0.3600 0.3600
14.014000 0.3580 0.3560 0.3560 0.3550 0.3550
14.048178 0.3530 0.3530 0.3510 0.3490 0.3490
14.082000 0.3490 0.3490 0.3490 0.3490 0.3480
14.116178 0.3480 0.3460 0.3460 0.3460 0.3440
14.150000 0.3440 0.3440 0.3430 0.3430 0.3430
14.184178 0.3410 0.3410 0.3410 0.3410 0.3390
14.219000 0.3390 0.3390 0.3390 0.3390 0.3390
14.253178 0.3390 0.3390 0.3390 0.3390 0.3390
14.287000 0.3370 0.3370 0.3370 0.3370 0.3370
14.321178 0.3370 0.3370 0.3360 0.3360 0.3370
14.355000 0.3370 0.3370 0.3370 0.3370 0.3360
14.389178 0.3370 0.3370 0.3370 0.3390 0.3390
14.424000 0.3370 0.3370 0.3370 0.3370 0.3370
14.458178 0.3360 0.3360 0.3360 0.3360 0.3360
14.492000 0.3360 0.3370 0.3370 0.3370 0.3370
14.526178 0.3370 0.3370 0.3370 0.3370 0.3390
14.560000 0.3390 0.3390 0.3390 0.3390 0.3410
14.594178 0.3410 0.3410 0.3410 0.3410 0.3410
14.629000 0.3430 0.3430 0.3440 0.3440 0.3440
14.663178 0.3460 0.3480 0.3480 0.3480 0.3480
14.697000 0.3490 0.3490 0.3490 0.3490 0.3510
14.731178 0.3510 0.3510 0.3510 0.3530 0.3530
14.765000 0.3530 0.3550 0.3550 0.3560 0.3580
14.799178 0.3580 0.3580 0.3600 0.3600 0.3600
14.834000 0.3610 0.3610 0.3630 0.3630 0.3630
14.868178 0.3650 0.3650 0.3650 0.3650 0.3670
14.902000 0.3670 0.3670 0.3670 0.3670 0.3670
14.936178 0.3670 0.3680 0.3680 0.3700 0.3700
14.970000 0.3700 0.3720 0.3700 0.3700 0.3700
15.004178 0.3700 0.3700 0.3700 0.3720 0.3720
15.039000 0.3720 0.3720 0.3730 0.3730 0.3730
15.073178 0.3730 0.3730 0.3730 0.3730 0.3730
15.107000 0.3730 0.3720 0.3720 0.3720 0.3720
15.141178 0.3720 0.3730 0.3730 0.3730 0.3730
15.175000 0.3730 0.3730 0.3730 0.3720 0.3750
15.209178 0.3730 0.3730 0.3730 0.3730 0.3730
15.243000 0.3730 0.3730 0.3730 0.3750 0.3750
15.277178 0.3750 0.3750 0.3750 0.3750 0.3750
15.312000 0.3750 0.3750 0.3750 0.3750 0.3770
15.346178 0.3770 0.3770 0.3770 0.3790 0.3790
15.380000 0.3790 0.3790 0.3790 0.3790 0.3790
15.414178 0.3790 0.3790 0.3790 0.3790 0.3790
15.448000 0.3790 0.3790 0.3800 0.3800 0.3800
15.482178 0.3800 0.3800 0.3800 0.3800 0.3800
15.517000 0.3800 0.3800 0.3800 0.3800 0.3820
15.551178 0.3840 0.3840 0.3840 0.3840 0.3840
15.585000 0.3840 0.3820 0.3820 0.3820 0.3840
15.619178 0.3840 0.3840 0.3840 0.3840 0.3840
15.653000 0.3840 0.3840 0.3840 0.3840 0.3850
15.687178 0.3850 0.3850 0.3850 0.3850 0.3850
15.722000 0.3850 0.3850 0.3870 0.3870 0.3870
15.756178 0.3890 0.3890 0.3890 0.3890 0.3890
15.790000 0.3890 0.3890 0.3890 0.3890 0.3910
15.824178 0.3910 0.3910 0.3910 0.3920 0.3920
15.858000 0.3940 0.3940 0.3960 0.3960 0.3960
15.892178 0.3970 0.3970 0.3960 0.3960 0.3970
15.927000 0.3970 0.3970 0.3970 0.3970 0.3990
15.961178 0.3990 0.4010 0.4030 0.5330 0.3990
15.995000 0.4010 0.4010
##END=
