##TITLE=Choline Iodide,O-(m-NitroCinnamoyl)
##JCAMP-DX=4.24
##DATA TYPE=INFRARED SPECTRUM
##CLASS=COBLENTZ III
##ORIGIN=SOUTHERN RESEARCH INSTITUTE
##OWNER=Copyright (C) 1987 by the Coblentz Society
Collection (C) 2018 copyright by the U.S. Secretary of Commerce
on behalf of the United States of America. All rights reserved.
##DATE=1962/11/27
##NAMES=2-(trimethyl-.lambda.<5>-azanyl)ethyl (2E)-3-(3-nitrophenyl)-2-propenoate hydroiodide
##MOLFORM=C14 H19 I N2 O4
##SOURCE REFERENCE=COBLENTZ NO. 8359
##$NIST ID=B6008359
##$NIST SOURCE=COBLENTZ
##$NIST IMAGE=cob8359
##SPECTROMETER/DATA SYSTEM=PERKIN-ELMER 221 (GRATING)
##INSTRUMENT PARAMETERS=FILTER AT 2490, 980 CM^-^1. GRATING 4000-1428 CM^-^1, NaCl PRISM 1428-650 CM^-^1
##STATE=SOLID (NUJOL MULL)
##SAMPLING PROCEDURE=TRANSMISSION
##RESOLUTION=2
##DATA PROCESSING=DIGITIZED BY COBLENTZ SOCIETY (BATCH II) FROM HARD COPY (ADJUSTED \addcm-1\10-5-2\)
##XUNITS=1/CM
##YUNITS=TRANSMITTANCE
##XFACTOR=1.0
##YFACTOR=1
##DELTAX=1.006373
##FIRSTX=629.89
##LASTX=4023.38
##FIRSTY=0.8939
##MAXX=4023.38
##MINX=629.89
##MAXY=0.9058
##MINY=0.0003
##NPOINTS=3373
##XYDATA=(X++(Y..Y))
629.890000 0.8939 0.8746 0.8552 0.8359 0.8166
634.921863 0.7973 0.7779 0.7702 0.7693 0.7682
639.953726 0.7666 0.7643 0.7613 0.7570 0.7524
644.985588 0.7324 0.7050 0.6776 0.6501 0.6226
650.017451 0.5950 0.5640 0.5722 0.5692 0.6114
655.049314 0.6308 0.6500 0.6690 0.6785 0.6798
660.081177 0.6810 0.6820 0.6831 0.6842 0.6856
665.113039 0.6956 0.7282 0.7608 0.7935 0.8261
670.144902 0.8575 0.8665 0.8702 0.8729 0.8754
675.176765 0.8771 0.8788 0.8800 0.8806 0.8812
680.208628 0.8811 0.8810 0.8808 0.8805 0.8802
685.240490 0.8795 0.8771 0.8746 0.8713 0.8680
690.272353 0.8647 0.8612 0.8570 0.8538 0.8520
695.304216 0.8514 0.8513 0.8512 0.8500 0.8486
700.336079 0.8460 0.8412 0.8207 0.7824 0.7440
705.367941 0.7057 0.6707 0.6657 0.6625 0.6600
710.399804 0.6582 0.6568 0.6608 0.6798 0.6944
715.431667 0.7091 0.7238 0.7384 0.7532 0.7678
720.463530 0.7821 0.7922 0.7914 0.7912 0.7891
725.495392 0.7505 0.7146 0.6786 0.6427 0.6068
730.527255 0.5709 0.5349 0.4990 0.4632 0.4284
735.559118 0.4047 0.4109 0.4552 0.5194 0.5835
740.590981 0.6477 0.7118 0.7760 0.8355 0.8643
745.622843 0.8647 0.8598 0.8517 0.8436 0.8355
750.654706 0.8274 0.8192 0.8111 0.8040 0.8099
755.686569 0.8518 0.8882 0.8927 0.8958 0.8980
760.718432 0.8994 0.9006 0.9016 0.9029 0.9040
765.750294 0.9045 0.9051 0.9056 0.9058 0.9058
770.782157 0.9058 0.9056 0.9055 0.9053 0.9051
775.814020 0.9050 0.9047 0.9045 0.9042 0.9040
780.845883 0.9037 0.9030 0.9019 0.8993 0.8958
785.877745 0.8921 0.8875 0.8823 0.8769 0.8716
790.909608 0.8661 0.8595 0.8526 0.8379 0.7970
795.941471 0.7611 0.7471 0.7324 0.7104 0.6818
800.973334 0.6521 0.6224 0.5927 0.5630 0.5337
806.005196 0.5117 0.5132 0.5267 0.5481 0.5694
811.037059 0.5873 0.5937 0.5974 0.5999 0.6270
816.068922 0.7442 0.8703 0.8775 0.8827 0.8875
821.100785 0.8914 0.8941 0.8959 0.8970 0.8975
826.132647 0.8977 0.8980 0.8964 0.8952 0.8939
831.164510 0.8921 0.8898 0.8871 0.8841 0.8807
836.196373 0.8771 0.8728 0.8687 0.8655 0.8622
841.228236 0.8580 0.8515 0.8416 0.8231 0.8018
846.260099 0.7881 0.7790 0.7699 0.7588 0.7428
851.291961 0.7270 0.7130 0.6939 0.6693 0.6552
856.323824 0.6468 0.6403 0.6409 0.6528 0.6651
861.355687 0.6774 0.6892 0.6967 0.6949 0.6776
866.387550 0.6356 0.5936 0.5515 0.5134 0.4938
871.419412 0.5059 0.5620 0.6648 0.7675 0.8387
876.451275 0.8470 0.8533 0.8576 0.8595 0.8607
881.483138 0.8608 0.8605 0.8597 0.8600 0.8602
886.515001 0.8559 0.8545 0.8531 0.8516 0.8502
891.546863 0.8486 0.8470 0.8454 0.8437 0.8416
896.578726 0.8388 0.8351 0.8246 0.8026 0.7774
901.610589 0.7599 0.7593 0.7664 0.7755 0.7843
906.642452 0.7894 0.7836 0.7679 0.7513 0.7347
911.674314 0.7182 0.7063 0.7044 0.7099 0.7208
916.706177 0.7316 0.7376 0.7369 0.7364 0.7262
921.738040 0.6991 0.6691 0.6392 0.6093 0.5843
926.769903 0.5733 0.5722 0.5710 0.5693 0.5558
931.801765 0.5256 0.4941 0.4725 0.4671 0.4642
936.833628 0.4607 0.4555 0.4384 0.4081 0.3777
941.865491 0.3474 0.3283 0.3277 0.3292 0.3307
946.897354 0.3593 0.4184 0.4774 0.5365 0.5956
951.929216 0.6548 0.7145 0.7510 0.7540 0.7478
956.961079 0.7337 0.7216 0.7169 0.7189 0.7237
961.992942 0.7288 0.7340 0.7317 0.7034 0.6544
967.024805 0.6054 0.5565 0.5074 0.4584 0.4126
972.056667 0.3932 0.3938 0.3905 0.3979 0.4374
977.088530 0.5043 0.5713 0.6112 0.6172 0.6191
982.120393 0.6219 0.6302 0.6434 0.6566 0.6698
987.152256 0.6826 0.6890 0.6869 0.6800 0.6706
992.184118 0.6612 0.6518 0.6424 0.6330 0.6255
997.215981 0.6258 0.6434 0.6723 0.7012 0.7302
1002.247844 0.7591 0.7879 0.8028 0.8033 0.8019
1007.279707 0.7986 0.7942 0.7894 0.7853 0.7836
1012.311569 0.7839 0.7847 0.7825 0.7837 0.7876
1017.343432 0.7887 0.7900 0.7915 0.7931 0.7947
1022.375295 0.7959 0.7969 0.7976 0.7979 0.7978
1027.407158 0.7965 0.7943 0.7907 0.7860 0.7810
1032.439021 0.7756 0.7700 0.7610 0.7493 0.7374
1037.470883 0.7255 0.7136 0.7017 0.6945 0.6908
1042.502746 0.6868 0.6830 0.6763 0.6560 0.6271
1047.534609 0.5981 0.5738 0.5626 0.5615 0.5786
1052.566472 0.6133 0.6521 0.6908 0.7186 0.7292
1057.598334 0.7325 0.7343 0.7365 0.7366 0.7356
1062.630197 0.7354 0.7347 0.7335 0.7317 0.7291
1067.662060 0.7257 0.7211 0.7150 0.7081 0.7011
1072.693923 0.6952 0.6916 0.6895 0.6884 0.6821
1077.725785 0.6671 0.6488 0.6305 0.6122 0.5939
1082.757648 0.5858 0.5858 0.5865 0.5861 0.5989
1087.789511 0.6158 0.6277 0.6361 0.6392 0.6402
1092.821374 0.6413 0.6425 0.6464 0.6562 0.6690
1097.853236 0.6819 0.6947 0.7076 0.7204 0.7307
1102.885099 0.7341 0.7334 0.7349 0.7330 0.7292
1107.916962 0.7266 0.7238 0.7199 0.7155 0.7121
1112.948825 0.7086 0.7046 0.7005 0.6967 0.6930
1117.980687 0.6888 0.6837 0.6759 0.6649 0.6554
1123.012550 0.6480 0.6421 0.6376 0.6334 0.6301
1128.044413 0.6274 0.6238 0.6191 0.6136 0.6034
1133.076276 0.5878 0.5730 0.5610 0.5422 0.5233
1138.108138 0.5098 0.4962 0.4822 0.4671 0.4487
1143.140001 0.4280 0.4069 0.3858 0.3646 0.3434
1148.171864 0.3222 0.3011 0.2799 0.2587 0.2375
1153.203727 0.2196 0.2120 0.2107 0.2094 0.2081
1158.235589 0.2067 0.2054 0.2041 0.2028 0.1737
1163.267452 0.1390 0.1235 0.1132 0.1040 0.0962
1168.299315 0.0923 0.0911 0.0877 0.0883 0.0914
1173.331178 0.0923 0.0937 0.0961 0.0992 0.1028
1178.363040 0.1170 0.1556 0.2074 0.2591 0.3109
1183.394903 0.3626 0.4144 0.4661 0.5179 0.5696
1188.426766 0.6213 0.6690 0.6896 0.6868 0.6683
1193.458629 0.6384 0.6085 0.5786 0.5487 0.5188
1198.490491 0.4889 0.4591 0.4453 0.4580 0.4844
1203.522354 0.5134 0.5423 0.5713 0.6003 0.6292
1208.554217 0.6582 0.6871 0.7161 0.7451 0.7693
1213.586080 0.7797 0.7807 0.7823 0.7824 0.7807
1218.617942 0.7784 0.7740 0.7700 0.7672 0.7653
1223.649805 0.7641 0.7630 0.7619 0.7614 0.7614
1228.681668 0.7615 0.7616 0.7620 0.7627 0.7633
1233.713531 0.7640 0.7642 0.7641 0.7637 0.7628
1238.745394 0.7606 0.7575 0.7540 0.7501 0.7461
1243.777256 0.7419 0.7375 0.7329 0.7282 0.7232
1248.809119 0.7174 0.7106 0.7032 0.6883 0.6684
1253.840982 0.6464 0.6203 0.5936 0.5669 0.5402
1258.872845 0.5135 0.4868 0.4601 0.4326 0.4227
1263.904707 0.4488 0.4926 0.5364 0.5802 0.6236
1268.936570 0.6444 0.6441 0.6438 0.6403 0.6400
1273.968433 0.6248 0.6001 0.5854 0.5707 0.5560
1279.000296 0.5424 0.5365 0.5370 0.5381 0.5401
1284.032158 0.5424 0.5445 0.5455 0.5392 0.5208
1289.064021 0.4967 0.4727 0.4486 0.4246 0.4010
1294.095884 0.3859 0.3761 0.3637 0.3512 0.3388
1299.127747 0.3267 0.3217 0.3209 0.3256 0.3342
1304.159609 0.3389 0.3436 0.3483 0.3531 0.3573
1309.191472 0.3588 0.3583 0.3617 0.3607 0.3537
1314.223335 0.3487 0.3412 0.3298 0.3162 0.3027
1319.255198 0.2891 0.2756 0.2666 0.2643 0.2719
1324.287060 0.2708 0.2927 0.3351 0.3573 0.3795
1329.318923 0.4017 0.4239 0.4407 0.4462 0.4446
1334.350786 0.4335 0.4136 0.3936 0.3737 0.3538
1339.382649 0.3338 0.3139 0.2940 0.2740 0.2541
1344.414511 0.2342 0.2142 0.1943 0.1744 0.1544
1349.446374 0.1346 0.1200 0.1142 0.1492 0.2068
1354.478237 0.2469 0.2870 0.3270 0.3670 0.4070
1359.510100 0.4470 0.4730 0.4766 0.4630 0.4392
1364.541962 0.4154 0.3916 0.3677 0.3439 0.3201
1369.573825 0.3049 0.3222 0.3616 0.3968 0.4320
1374.605688 0.4672 0.5024 0.5375 0.5727 0.6078
1379.637551 0.6430 0.6766 0.6993 0.7100 0.7195
1384.669413 0.7281 0.7359 0.7431 0.7488 0.7534
1389.701276 0.7608 0.7675 0.7681 0.7680 0.7706
1394.733139 0.7696 0.7593 0.7500 0.7420 0.7347
1399.765002 0.7269 0.7207 0.7166 0.7127 0.7088
1404.796864 0.7045 0.6995 0.6945 0.6896 0.6848
1409.828727 0.6806 0.6769 0.6727 0.6655 0.6521
1414.860590 0.6347 0.6172 0.5998 0.5824 0.5650
1419.892453 0.5476 0.5301 0.5127 0.4952 0.4778
1424.924315 0.4604 0.4429 0.4255 0.4081 0.3906
1429.956178 0.3732 0.3558 0.3423 0.3362 0.3291
1434.988041 0.3195 0.3101 0.2970 0.2821 0.2682
1440.019904 0.2479 0.2256 0.2018 0.1867 0.1783
1445.051767 0.1697 0.1605 0.1508 0.1419 0.1354
1450.083629 0.1311 0.1284 0.1276 0.1270 0.1264
1455.115492 0.1261 0.1271 0.1276 0.1429 0.1897
1460.147355 0.2384 0.2717 0.2745 0.2765 0.2776
1465.179218 0.2786 0.2796 0.2807 0.2825 0.2853
1470.211080 0.2971 0.3269 0.3567 0.4012 0.4436
1475.242943 0.4721 0.4903 0.5155 0.5487 0.5594
1480.274806 0.5700 0.5794 0.5867 0.5941 0.6015
1485.306669 0.6095 0.6178 0.6257 0.6312 0.6342
1490.338531 0.6371 0.6401 0.6368 0.6358 0.6343
1495.370394 0.6313 0.6243 0.6129 0.6018 0.5924
1500.402257 0.5833 0.5732 0.5556 0.5243 0.4931
1505.434120 0.4618 0.4306 0.3993 0.3681 0.3368
1510.465982 0.3056 0.2743 0.2430 0.2117 0.1805
1515.497845 0.1492 0.1180 0.0910 0.0810 0.0800
1520.529708 0.0797 0.0822 0.1043 0.1462 0.1880
1525.561571 0.2298 0.2717 0.3135 0.3553 0.3972
1530.593433 0.4390 0.4808 0.5227 0.5645 0.6063
1535.625296 0.6472 0.6969 0.7804 0.7931 0.8094
1540.657159 0.8296 0.8499 0.8552 0.8598 0.8623
1545.689022 0.8657 0.8716 0.8649 0.8638 0.8626
1550.720884 0.8605 0.8577 0.8548 0.8516 0.8483
1555.752747 0.8448 0.8410 0.8358 0.8231 0.8091
1560.784610 0.7952 0.7812 0.7672 0.7532 0.7408
1565.816473 0.7371 0.7354 0.7433 0.7552 0.7671
1570.848335 0.7790 0.7910 0.8029 0.8148 0.8261
1575.880198 0.8321 0.8321 0.8332 0.8389 0.8310
1580.912061 0.8291 0.8268 0.8240 0.8203 0.8162
1585.943924 0.8116 0.8071 0.8030 0.7990 0.7949
1590.975786 0.7903 0.7855 0.7807 0.7758 0.7706
1596.007649 0.7645 0.7584 0.7523 0.7458 0.7382
1601.039512 0.7302 0.7170 0.6940 0.6709 0.6478
1606.071375 0.6263 0.6225 0.6222 0.6305 0.6476
1611.103237 0.6647 0.6818 0.6989 0.7126 0.7111
1616.135100 0.7118 0.7108 0.7087 0.7052 0.6985
1621.166963 0.6868 0.6599 0.6418 0.6270 0.6099
1626.198826 0.5735 0.5265 0.4785 0.4304 0.3825
1631.230688 0.3345 0.2866 0.2625 0.2613 0.2605
1636.262551 0.2820 0.3274 0.3673 0.4071 0.4470
1641.294414 0.4869 0.5268 0.5667 0.6065 0.6464
1646.326277 0.6864 0.7262 0.7661 0.8012 0.8077
1651.358140 0.8081 0.8086 0.8151 0.8057 0.8027
1656.390002 0.7998 0.7954 0.7902 0.7858 0.7814
1661.421865 0.7771 0.7730 0.7693 0.7656 0.7619
1666.453728 0.7581 0.7543 0.7522 0.7507 0.7497
1671.485591 0.7491 0.7484 0.7471 0.7453 0.7430
1676.517453 0.7394 0.7350 0.7300 0.7242 0.7183
1681.549316 0.7104 0.7002 0.6920 0.6860 0.6801
1686.581179 0.6735 0.6653 0.6562 0.6471 0.6371
1691.613042 0.6249 0.6127 0.6016 0.5920 0.5825
1696.644904 0.5724 0.5515 0.4287 0.2945 0.1492
1701.676767 0.0622 0.0571 0.0572 0.0557 0.0605
1706.708630 0.0947 0.1339 0.1731 0.2123 0.2514
1711.740493 0.2913 0.3315 0.3716 0.4118 0.4519
1716.772355 0.4920 0.5748 0.6177 0.6354 0.6589
1721.804218 0.6904 0.7413 0.7627 0.7721 0.7780
1726.836081 0.7825 0.7869 0.7913 0.7958 0.8002
1731.867944 0.8051 0.8118 0.8190 0.8262 0.8339
1736.899806 0.8417 0.8512 0.8627 0.8718 0.8789
1741.931669 0.8839 0.8873 0.8905 0.8937 0.8955
1746.963532 0.8969 0.8983 0.8991 0.8995 0.8998
1751.995395 0.9000 0.9000 0.8999 0.8998 0.8997
1757.027257 0.8995 0.9025 0.9001 0.8990 0.8988
1762.059120 0.8986 0.8984 0.8982 0.8979 0.8974
1767.090983 0.8969 0.8964 0.8959 0.8954 0.8949
1772.122846 0.8944 0.8937 0.8927 0.8918 0.8909
1777.154708 0.8900 0.8891 0.8882 0.8873 0.8862
1782.186571 0.8852 0.8841 0.8831 0.8820 0.8810
1787.218434 0.8799 0.8788 0.8777 0.8766 0.8755
1792.250297 0.8744 0.8733 0.8722 0.8711 0.8700
1797.282159 0.8689 0.8679 0.8668 0.8658 0.8649
1802.314022 0.8641 0.8633 0.8626 0.8623 0.8620
1807.345885 0.8617 0.8614 0.8610 0.8608 0.8605
1812.377748 0.8605 0.8608 0.8612 0.8616 0.8620
1817.409610 0.8624 0.8628 0.8632 0.8629 0.8625
1822.441473 0.8621 0.8617 0.8613 0.8609 0.8605
1827.473336 0.8601 0.8596 0.8590 0.8585 0.8580
1832.505199 0.8575 0.8570 0.8565 0.8560 0.8555
1837.537062 0.8550 0.8547 0.8546 0.8544 0.8542
1842.568924 0.8540 0.8539 0.8537 0.8535 0.8533
1847.600787 0.8534 0.8537 0.8540 0.8544 0.8548
1852.632650 0.8546 0.8540 0.8532 0.8525 0.8516
1857.664513 0.8504 0.8491 0.8478 0.8464 0.8451
1862.696375 0.8438 0.8425 0.8416 0.8412 0.8408
1867.728238 0.8404 0.8401 0.8397 0.8393 0.8390
1872.760101 0.8386 0.8386 0.8390 0.8394 0.8398
1877.791964 0.8403 0.8407 0.8411 0.8415 0.8418
1882.823826 0.8422 0.8426 0.8417 0.8407 0.8396
1887.855689 0.8385 0.8376 0.8366 0.8357 0.8347
1892.887552 0.8337 0.8328 0.8318 0.8312 0.8308
1897.919415 0.8303 0.8298 0.8293 0.8288 0.8283
1902.951277 0.8278 0.8273 0.8268 0.8264 0.8261
1907.983140 0.8258 0.8255 0.8253 0.8250 0.8247
1913.015003 0.8244 0.8241 0.8238 0.8235 0.8233
1918.046866 0.8230 0.8227 0.8224 0.8221 0.8222
1923.078728 0.8224 0.8226 0.8228 0.8229 0.8231
1928.110591 0.8233 0.8235 0.8236 0.8237 0.8238
1933.142454 0.8239 0.8240 0.8240 0.8240 0.8240
1938.174317 0.8239 0.8239 0.8239 0.8239 0.8239
1943.206179 0.8238 0.8238 0.8232 0.8227 0.8221
1948.238042 0.8216 0.8209 0.8201 0.8193 0.8185
1953.269905 0.8177 0.8169 0.8161 0.8154 0.8146
1958.301768 0.8138 0.8130 0.8122 0.8114 0.8106
1963.333630 0.8097 0.8088 0.8078 0.8068 0.8059
1968.365493 0.8049 0.8040 0.8030 0.8020 0.8011
1973.397356 0.8001 0.7994 0.7989 0.7984 0.7979
1978.429219 0.7974 0.7969 0.7964 0.7959 0.7953
1983.461081 0.7942 0.7930 0.7919 0.7905 0.7828
1988.492944 0.7756 0.7699 0.7680 0.7672 0.7668
1993.524807 0.7673 0.7701 0.7755 0.7797 0.7838
1998.556670 0.7876 0.7911 0.7919 0.7926 0.7923
2003.588532 0.7921 0.7919 0.7917 0.7915 0.7915
2008.620395 0.7914 0.7913 0.7912 0.7911 0.7910
2013.652258 0.7909 0.7908 0.7907 0.7905 0.7902
2018.684121 0.7899 0.7896 0.7893 0.7890 0.7888
2023.715983 0.7886 0.7884 0.7882 0.7880 0.7877
2028.747846 0.7875 0.7873 0.7869 0.7866 0.7863
2033.779709 0.7860 0.7856 0.7853 0.7850 0.7847
2038.811572 0.7844 0.7842 0.7840 0.7838 0.7836
2043.843435 0.7834 0.7832 0.7830 0.7828 0.7826
2048.875297 0.7824 0.7822 0.7820 0.7818 0.7817
2053.907160 0.7815 0.7813 0.7811 0.7809 0.7807
2058.939023 0.7805 0.7803 0.7801 0.7799 0.7797
2063.970886 0.7795 0.7792 0.7789 0.7786 0.7784
2069.002748 0.7781 0.7778 0.7775 0.7772 0.7769
2074.034611 0.7767 0.7763 0.7760 0.7757 0.7754
2079.066474 0.7751 0.7747 0.7744 0.7741 0.7738
2084.098337 0.7735 0.7731 0.7726 0.7722 0.7718
2089.130199 0.7714 0.7710 0.7705 0.7701 0.7697
2094.162062 0.7693 0.7688 0.7683 0.7679 0.7674
2099.193925 0.7669 0.7665 0.7660 0.7655 0.7649
2104.225788 0.7643 0.7638 0.7632 0.7627 0.7621
2109.257650 0.7616 0.7610 0.7604 0.7599 0.7593
2114.289513 0.7588 0.7582 0.7577 0.7573 0.7570
2119.321376 0.7566 0.7562 0.7559 0.7555 0.7551
2124.353239 0.7548 0.7544 0.7540 0.7537 0.7533
2129.385101 0.7530 0.7527 0.7523 0.7520 0.7517
2134.416964 0.7513 0.7510 0.7507 0.7503 0.7500
2139.448827 0.7497 0.7493 0.7490 0.7487 0.7484
2144.480690 0.7480 0.7477 0.7474 0.7471 0.7468
2149.512552 0.7464 0.7461 0.7458 0.7454 0.7451
2154.544415 0.7448 0.7444 0.7441 0.7438 0.7435
2159.576278 0.7432 0.7429 0.7426 0.7424 0.7421
2164.608141 0.7418 0.7415 0.7412 0.7409 0.7406
2169.640003 0.7403 0.7401 0.7399 0.7397 0.7395
2174.671866 0.7393 0.7391 0.7389 0.7387 0.7385
2179.703729 0.7383 0.7381 0.7380 0.7378 0.7376
2184.735592 0.7374 0.7372 0.7370 0.7368 0.7366
2189.767454 0.7364 0.7362 0.7360 0.7359 0.7357
2194.799317 0.7356 0.7354 0.7353 0.7351 0.7350
2199.831180 0.7348 0.7347 0.7345 0.7344 0.7342
2204.863043 0.7341 0.7339 0.7338 0.7336 0.7335
2209.894905 0.7333 0.7331 0.7328 0.7325 0.7321
2214.926768 0.7317 0.7314 0.7310 0.7306 0.7302
2219.958631 0.7299 0.7295 0.7291 0.7288 0.7284
2224.990494 0.7280 0.7275 0.7270 0.7265 0.7260
2230.022356 0.7255 0.7250 0.7245 0.7240 0.7236
2235.054219 0.7232 0.7227 0.7223 0.7219 0.7215
2240.086082 0.7211 0.7207 0.7202 0.7198 0.7194
2245.117945 0.7190 0.7186 0.7182 0.7177 0.7173
2250.149808 0.7169 0.7165 0.7161 0.7157 0.7152
2255.181670 0.7148 0.7144 0.7139 0.7135 0.7131
2260.213533 0.7127 0.7122 0.7118 0.7114 0.7109
2265.245396 0.7105 0.7101 0.7097 0.7092 0.7088
2270.277259 0.7084 0.7079 0.7075 0.7071 0.7066
2275.309121 0.7062 0.7058 0.7053 0.7049 0.7045
2280.340984 0.7040 0.7036 0.7031 0.7027 0.7023
2285.372847 0.7018 0.7014 0.7009 0.7005 0.7000
2290.404710 0.6996 0.6991 0.6987 0.6983 0.6978
2295.436572 0.6974 0.6969 0.6965 0.6961 0.6956
2300.468435 0.6952 0.6947 0.6943 0.6938 0.6933
2305.500298 0.6928 0.6923 0.6918 0.6912 0.6907
2310.532161 0.6902 0.6897 0.6891 0.6886 0.6881
2315.564023 0.6876 0.6870 0.6865 0.6860 0.6853
2320.595886 0.6843 0.6834 0.6824 0.6814 0.6805
2325.627749 0.6795 0.6787 0.6784 0.6780 0.6777
2330.659612 0.6774 0.6770 0.6767 0.6764 0.6760
2335.691474 0.6757 0.6754 0.6750 0.6747 0.6744
2340.723337 0.6740 0.6737 0.6734 0.6732 0.6731
2345.755200 0.6729 0.6727 0.6725 0.6723 0.6723
2350.787063 0.6725 0.6727 0.6729 0.6732 0.6734
2355.818925 0.6736 0.6741 0.6747 0.6752 0.6757
2360.850788 0.6763 0.6768 0.6773 0.6779 0.6783
2365.882651 0.6786 0.6789 0.6792 0.6795 0.6798
2370.914514 0.6802 0.6806 0.6813 0.6820 0.6827
2375.946376 0.6831 0.6831 0.6831 0.6830 0.6830
2380.978239 0.6830 0.6829 0.6827 0.6824 0.6821
2386.010102 0.6818 0.6815 0.6812 0.6808 0.6804
2391.041965 0.6800 0.6796 0.6792 0.6788 0.6783
2396.073827 0.6779 0.6775 0.6771 0.6767 0.6764
2401.105690 0.6760 0.6756 0.6753 0.6749 0.6745
2406.137553 0.6741 0.6738 0.6734 0.6730 0.6727
2411.169416 0.6723 0.6719 0.6716 0.6714 0.6711
2416.201278 0.6708 0.6706 0.6703 0.6700 0.6698
2421.233141 0.6695 0.6692 0.6690 0.6687 0.6684
2426.265004 0.6682 0.6679 0.6676 0.6674 0.6671
2431.296867 0.6668 0.6666 0.6663 0.6661 0.6658
2436.328730 0.6655 0.6653 0.6650 0.6647 0.6645
2441.360592 0.6642 0.6639 0.6636 0.6633 0.6630
2446.392455 0.6626 0.6623 0.6619 0.6616 0.6613
2451.424318 0.6609 0.6606 0.6603 0.6599 0.6596
2456.456181 0.6592 0.6590 0.6589 0.6589 0.6589
2461.488043 0.6589 0.6589 0.6589 0.6589 0.6589
2466.519906 0.6589 0.6589 0.6589 0.6589 0.6592
2471.551769 0.6600 0.6609 0.6621 0.6643 0.6672
2476.583632 0.6702 0.6732 0.6761 0.6766 0.6744
2481.615494 0.6707 0.6650 0.6593 0.6553 0.6534
2486.647357 0.6521 0.6511 0.6505 0.6501 0.6497
2491.679220 0.6494 0.6490 0.6487 0.6484 0.6482
2496.711083 0.6480 0.6478 0.6475 0.6472 0.6469
2501.742945 0.6465 0.6461 0.6457 0.6453 0.6449
2506.774808 0.6444 0.6440 0.6436 0.6431 0.6427
2511.806671 0.6421 0.6414 0.6407 0.6400 0.6393
2516.838534 0.6386 0.6379 0.6372 0.6365 0.6356
2521.870396 0.6347 0.6336 0.6326 0.6316 0.6310
2526.902259 0.6306 0.6302 0.6298 0.6295 0.6291
2531.934122 0.6287 0.6283 0.6280 0.6276 0.6272
2536.965985 0.6268 0.6264 0.6260 0.6256 0.6252
2541.997847 0.6248 0.6244 0.6238 0.6231 0.6224
2547.029710 0.6217 0.6211 0.6205 0.6200 0.6194
2552.061573 0.6189 0.6184 0.6179 0.6173 0.6168
2557.093436 0.6164 0.6160 0.6155 0.6151 0.6146
2562.125298 0.6142 0.6138 0.6133 0.6129 0.6124
2567.157161 0.6120 0.6116 0.6111 0.6107 0.6102
2572.189024 0.6098 0.6094 0.6089 0.6084 0.6078
2577.220887 0.6073 0.6068 0.6063 0.6058 0.6052
2582.252749 0.6047 0.6042 0.6037 0.6032 0.6026
2587.284612 0.6021 0.6016 0.6011 0.6006 0.6001
2592.316475 0.5996 0.5991 0.5987 0.5983 0.5979
2597.348338 0.5975 0.5970 0.5966 0.5962 0.5958
2602.380200 0.5953 0.5949 0.5945 0.5941 0.5936
2607.412063 0.5932 0.5928 0.5924 0.5919 0.5915
2612.443926 0.5911 0.5907 0.5902 0.5898 0.5894
2617.475789 0.5889 0.5885 0.5880 0.5875 0.5870
2622.507651 0.5866 0.5861 0.5857 0.5852 0.5848
2627.539514 0.5843 0.5840 0.5837 0.5833 0.5830
2632.571377 0.5826 0.5823 0.5819 0.5816 0.5812
2637.603240 0.5809 0.5805 0.5802 0.5799 0.5795
2642.635103 0.5792 0.5788 0.5785 0.5782 0.5778
2647.666965 0.5775 0.5772 0.5768 0.5765 0.5761
2652.698828 0.5758 0.5755 0.5751 0.5748 0.5745
2657.730691 0.5743 0.5741 0.5739 0.5737 0.5735
2662.762554 0.5733 0.5731 0.5729 0.5727 0.5725
2667.794416 0.5723 0.5721 0.5719 0.5718 0.5719
2672.826279 0.5720 0.5722 0.5723 0.5724 0.5726
2677.858142 0.5727 0.5729 0.5730 0.5731 0.5733
2682.890005 0.5734 0.5735 0.5737 0.5738 0.5740
2687.921867 0.5741 0.5742 0.5744 0.5745 0.5747
2692.953730 0.5748 0.5749 0.5750 0.5751 0.5753
2697.985593 0.5754 0.5755 0.5756 0.5758 0.5759
2703.017456 0.5760 0.5756 0.5750 0.5743 0.5736
2708.049318 0.5729 0.5722 0.5715 0.5707 0.5699
2713.081181 0.5692 0.5684 0.5676 0.5668 0.5661
2718.113044 0.5653 0.5645 0.5639 0.5640 0.5642
2723.144907 0.5645 0.5650 0.5657 0.5664 0.5671
2728.176769 0.5678 0.5686 0.5693 0.5700 0.5707
2733.208632 0.5714 0.5722 0.5729 0.5737 0.5745
2738.240495 0.5752 0.5760 0.5768 0.5775 0.5783
2743.272358 0.5788 0.5792 0.5796 0.5799 0.5803
2748.304220 0.5807 0.5811 0.5815 0.5818 0.5817
2753.336083 0.5814 0.5811 0.5808 0.5804 0.5801
2758.367946 0.5798 0.5794 0.5791 0.5787 0.5779
2763.399809 0.5769 0.5760 0.5750 0.5741 0.5731
2768.431671 0.5721 0.5711 0.5700 0.5689 0.5678
2773.463534 0.5667 0.5656 0.5644 0.5630 0.5615
2778.495397 0.5601 0.5586 0.5572 0.5556 0.5540
2783.527260 0.5524 0.5508 0.5492 0.5476 0.5461
2788.559122 0.5443 0.5424 0.5404 0.5385 0.5366
2793.590985 0.5346 0.5327 0.5307 0.5285 0.5257
2798.622848 0.5228 0.5200 0.5170 0.5138 0.5104
2803.654711 0.5071 0.5037 0.5003 0.4970 0.4936
2808.686573 0.4900 0.4864 0.4828 0.4792 0.4756
2813.718436 0.4720 0.4684 0.4643 0.4601 0.4559
2818.750299 0.4517 0.4475 0.4432 0.4389 0.4346
2823.782162 0.4304 0.4261 0.4204 0.4144 0.3941
2828.814024 0.3462 0.3273 0.3155 0.2948 0.2759
2833.845887 0.2662 0.2583 0.2505 0.2408 0.2164
2838.877750 0.1915 0.1769 0.1641 0.1372 0.1029
2843.909613 0.0788 0.0583 0.0399 0.0296 0.0222
2848.941476 0.0187 0.0160 0.0143 0.0142 0.0143
2853.973338 0.0144 0.0145 0.0147 0.0149 0.0152
2859.005201 0.0155 0.0158 0.0162 0.0167 0.0173
2864.037064 0.0178 0.0183 0.0189 0.0194 0.0201
2869.068927 0.0208 0.0215 0.0222 0.0229 0.0236
2874.100789 0.0243 0.0248 0.0252 0.0256 0.0261
2879.132652 0.0262 0.0259 0.0256 0.0252 0.0249
2884.164515 0.0243 0.0233 0.0224 0.0214 0.0199
2889.196378 0.0183 0.0169 0.0158 0.0147 0.0134
2894.228240 0.0119 0.0104 0.0089 0.0074 0.0059
2899.260103 0.0044 0.0029 0.0014 0.0004 0.0003
2904.291966 0.0003 0.0003 0.0003 0.0003 0.0003
2909.323829 0.0003 0.0003 0.0003 0.0003 0.0003
2914.355691 0.0003 0.0003 0.0003 0.0003 0.0003
2919.387554 0.0003 0.0003 0.0003 0.0003 0.0003
2924.419417 0.0003 0.0003 0.0004 0.0004 0.0004
2929.451280 0.0004 0.0004 0.0004 0.0004 0.0004
2934.483142 0.0004 0.0004 0.0004 0.0004 0.0004
2939.515005 0.0004 0.0004 0.0004 0.0004 0.0004
2944.546868 0.0004 0.0004 0.0004 0.0004 0.0004
2949.578731 0.0004 0.0004 0.0004 0.0004 0.0004
2954.610593 0.0004 0.0004 0.0006 0.0018 0.0032
2959.642456 0.0045 0.0058 0.0072 0.0084 0.0091
2964.674319 0.0099 0.0114 0.0131 0.0150 0.0168
2969.706182 0.0188 0.0207 0.0227 0.0268 0.0315
2974.738044 0.0379 0.0460 0.0563 0.0637 0.0710
2979.769907 0.0788 0.0868 0.0946 0.1024 0.1102
2984.801770 0.1243 0.1334 0.1402 0.1469 0.1537
2989.833633 0.1604 0.1657 0.1700 0.1743 0.1769
2994.865495 0.1788 0.1799 0.1809 0.1819 0.1829
2999.897358 0.1839 0.1849 0.1865 0.1884 0.1903
3004.929221 0.1921 0.1944 0.1980 0.2015 0.2050
3009.961084 0.2084 0.2116 0.2149 0.2182 0.2215
3014.992946 0.2263 0.2323 0.2384 0.2466 0.2555
3020.024809 0.2681 0.2761 0.2794 0.2826 0.2856
3025.056672 0.2887 0.2919 0.2959 0.2998 0.3025
3030.088535 0.3048 0.3068 0.3087 0.3099 0.3111
3035.120398 0.3119 0.3125 0.3129 0.3129 0.3129
3040.152260 0.3129 0.3130 0.3130 0.3132 0.3136
3045.184123 0.3139 0.3143 0.3146 0.3150 0.3159
3050.215986 0.3171 0.3190 0.3224 0.3259 0.3302
3055.247849 0.3359 0.3413 0.3465 0.3514 0.3549
3060.279711 0.3585 0.3620 0.3646 0.3642 0.3638
3065.311574 0.3634 0.3628 0.3619 0.3609 0.3600
3070.343437 0.3589 0.3574 0.3558 0.3543 0.3526
3075.375300 0.3494 0.3464 0.3454 0.3447 0.3445
3080.407162 0.3449 0.3460 0.3480 0.3512 0.3566
3085.439025 0.3637 0.3702 0.3763 0.3822 0.3876
3090.470888 0.3931 0.3984 0.4036 0.4086 0.4111
3095.502751 0.4135 0.4159 0.4175 0.4187 0.4199
3100.534613 0.4212 0.4224 0.4232 0.4240 0.4248
3105.566476 0.4256 0.4264 0.4271 0.4273 0.4275
3110.598339 0.4276 0.4278 0.4279 0.4281 0.4283
3115.630202 0.4284 0.4286 0.4287 0.4287 0.4288
3120.662064 0.4289 0.4289 0.4290 0.4291 0.4292
3125.693927 0.4292 0.4293 0.4294 0.4294 0.4295
3130.725790 0.4295 0.4296 0.4296 0.4297 0.4298
3135.757653 0.4298 0.4299 0.4300 0.4300 0.4301
3140.789515 0.4302 0.4303 0.4303 0.4304 0.4305
3145.821378 0.4306 0.4306 0.4307 0.4308 0.4309
3150.853241 0.4309 0.4310 0.4311 0.4312 0.4312
3155.885104 0.4313 0.4314 0.4315 0.4315 0.4316
3160.916966 0.4317 0.4318 0.4319 0.4319 0.4320
3165.948829 0.4321 0.4322 0.4322 0.4322 0.4323
3170.980692 0.4323 0.4323 0.4323 0.4323 0.4324
3176.012555 0.4324 0.4324 0.4324 0.4325 0.4325
3181.044417 0.4325 0.4325 0.4326 0.4327 0.4328
3186.076280 0.4330 0.4332 0.4333 0.4335 0.4337
3191.108143 0.4338 0.4340 0.4341 0.4343 0.4345
3196.140006 0.4346 0.4348 0.4350 0.4351 0.4354
3201.171868 0.4357 0.4361 0.4364 0.4368 0.4372
3206.203731 0.4374 0.4375 0.4375 0.4376 0.4376
3211.235594 0.4376 0.4376 0.4377 0.4377 0.4377
3216.267457 0.4377 0.4378 0.4378 0.4378 0.4377
3221.299319 0.4377 0.4376 0.4375 0.4374 0.4374
3226.331182 0.4373 0.4372 0.4371 0.4371 0.4370
3231.363045 0.4369 0.4368 0.4367 0.4367 0.4366
3236.394908 0.4365 0.4364 0.4362 0.4361 0.4360
3241.426771 0.4359 0.4358 0.4357 0.4356 0.4354
3246.458633 0.4353 0.4352 0.4351 0.4350 0.4349
3251.490496 0.4348 0.4346 0.4345 0.4344 0.4343
3256.522359 0.4342 0.4341 0.4340 0.4338 0.4337
3261.554222 0.4336 0.4335 0.4334 0.4332 0.4331
3266.586084 0.4330 0.4329 0.4328 0.4327 0.4325
3271.617947 0.4324 0.4323 0.4322 0.4321 0.4320
3276.649810 0.4318 0.4317 0.4316 0.4315 0.4314
3281.681673 0.4313 0.4312 0.4310 0.4309 0.4308
3286.713535 0.4307 0.4306 0.4305 0.4303 0.4302
3291.745398 0.4301 0.4300 0.4299 0.4297 0.4296
3296.777261 0.4295 0.4294 0.4293 0.4291 0.4290
3301.809124 0.4289 0.4288 0.4286 0.4285 0.4284
3306.840986 0.4283 0.4282 0.4280 0.4279 0.4278
3311.872849 0.4277 0.4276 0.4274 0.4273 0.4272
3316.904712 0.4271 0.4269 0.4268 0.4266 0.4262
3321.936575 0.4258 0.4255 0.4251 0.4247 0.4243
3326.968437 0.4239 0.4236 0.4232 0.4228 0.4224
3332.000300 0.4221 0.4217 0.4213 0.4209 0.4205
3337.032163 0.4202 0.4198 0.4194 0.4190 0.4187
3342.064026 0.4183 0.4179 0.4175 0.4172 0.4168
3347.095888 0.4164 0.4161 0.4157 0.4153 0.4150
3352.127751 0.4146 0.4142 0.4138 0.4135 0.4131
3357.159614 0.4127 0.4124 0.4120 0.4116 0.4113
3362.191477 0.4109 0.4105 0.4101 0.4098 0.4094
3367.223339 0.4091 0.4088 0.4085 0.4082 0.4079
3372.255202 0.4077 0.4074 0.4071 0.4068 0.4066
3377.287065 0.4063 0.4060 0.4057 0.4055 0.4052
3382.318928 0.4049 0.4046 0.4043 0.4041 0.4038
3387.350790 0.4035 0.4032 0.4030 0.4027 0.4024
3392.382653 0.4021 0.4018 0.4016 0.4013 0.4010
3397.414516 0.4007 0.4005 0.4002 0.4001 0.4000
3402.446379 0.3999 0.3999 0.3998 0.3997 0.3997
3407.478241 0.3996 0.3995 0.3995 0.3994 0.3993
3412.510104 0.3993 0.3992 0.3991 0.3990 0.3990
3417.541967 0.3989 0.3988 0.3988 0.3987 0.3986
3422.573830 0.3986 0.3985 0.3984 0.3984 0.3983
3427.605692 0.3982 0.3982 0.3981 0.3980 0.3979
3432.637555 0.3979 0.3978 0.3977 0.3977 0.3976
3437.669418 0.3975 0.3975 0.3975 0.3975 0.3976
3442.701281 0.3976 0.3976 0.3976 0.3977 0.3977
3447.733144 0.3977 0.3977 0.3978 0.3978 0.3978
3452.765006 0.3978 0.3978 0.3979 0.3979 0.3979
3457.796869 0.3979 0.3980 0.3980 0.3980 0.3980
3462.828732 0.3981 0.3981 0.3981 0.3981 0.3982
3467.860595 0.3982 0.3982 0.3982 0.3983 0.3983
3472.892457 0.3983 0.3983 0.3984 0.3984 0.3984
3477.924320 0.3984 0.3984 0.3985 0.3985 0.3985
3482.956183 0.3986 0.3987 0.3989 0.3990 0.3991
3487.988046 0.3992 0.3994 0.3995 0.3996 0.3997
3493.019908 0.3998 0.4000 0.4001 0.4002 0.4003
3498.051771 0.4004 0.4006 0.4007 0.4008 0.4009
3503.083634 0.4010 0.4012 0.4013 0.4014 0.4015
3508.115497 0.4016 0.4018 0.4019 0.4020 0.4021
3513.147359 0.4023 0.4024 0.4026 0.4027 0.4028
3518.179222 0.4028 0.4030 0.4032 0.4033 0.4033
3523.211085 0.4035 0.4036 0.4038 0.4039 0.4040
3528.242948 0.4041 0.4043 0.4044 0.4045 0.4045
3533.274810 0.4045 0.4045 0.4045 0.4046 0.4046
3538.306673 0.4046 0.4046 0.4046 0.4046 0.4046
3543.338536 0.4047 0.4047 0.4047 0.4047 0.4047
3548.370399 0.4047 0.4047 0.4047 0.4048 0.4048
3553.402261 0.4048 0.4048 0.4048 0.4048 0.4048
3558.434124 0.4048 0.4049 0.4049 0.4049 0.4049
3563.465987 0.4049 0.4049 0.4049 0.4050 0.4050
3568.497850 0.4049 0.4048 0.4046 0.4045 0.4044
3573.529712 0.4043 0.4042 0.4041 0.4040 0.4038
3578.561575 0.4037 0.4036 0.4035 0.4034 0.4033
3583.593438 0.4032 0.4030 0.4029 0.4028 0.4027
3588.625301 0.4026 0.4025 0.4024 0.4022 0.4021
3593.657163 0.4020 0.4019 0.4018 0.4017 0.4016
3598.689026 0.4015 0.4013 0.4012 0.4011 0.4010
3603.720889 0.4009 0.4008 0.4007 0.4005 0.4004
3608.752752 0.4003 0.4001 0.3999 0.3997 0.3995
3613.784614 0.3993 0.3991 0.3989 0.3987 0.3985
3618.816477 0.3983 0.3981 0.3979 0.3977 0.3975
3623.848340 0.3973 0.3971 0.3969 0.3967 0.3965
3628.880203 0.3963 0.3961 0.3959 0.3957 0.3955
3633.912065 0.3953 0.3951 0.3949 0.3946 0.3944
3638.943928 0.3942 0.3940 0.3938 0.3936 0.3934
3643.975791 0.3932 0.3930 0.3928 0.3926 0.3924
3649.007654 0.3922 0.3920 0.3918 0.3916 0.3914
3654.039517 0.3912 0.3910 0.3908 0.3906 0.3904
3659.071379 0.3902 0.3900 0.3898 0.3896 0.3894
3664.103242 0.3892 0.3891 0.3889 0.3888 0.3887
3669.135105 0.3885 0.3884 0.3883 0.3881 0.3880
3674.166968 0.3879 0.3877 0.3876 0.3874 0.3873
3679.198830 0.3872 0.3870 0.3869 0.3868 0.3866
3684.230693 0.3865 0.3864 0.3862 0.3861 0.3859
3689.262556 0.3858 0.3857 0.3855 0.3854 0.3853
3694.294419 0.3851 0.3850 0.3849 0.3847 0.3846
3699.326281 0.3844 0.3843 0.3842 0.3840 0.3839
3704.358144 0.3838 0.3836 0.3835 0.3834 0.3832
3709.390007 0.3831 0.3830 0.3828 0.3827 0.3825
3714.421870 0.3824 0.3823 0.3821 0.3820 0.3819
3719.453732 0.3817 0.3816 0.3814 0.3813 0.3811
3724.485595 0.3810 0.3808 0.3807 0.3805 0.3803
3729.517458 0.3802 0.3800 0.3799 0.3797 0.3796
3734.549321 0.3794 0.3793 0.3791 0.3790 0.3788
3739.581183 0.3786 0.3785 0.3783 0.3782 0.3780
3744.613046 0.3779 0.3777 0.3776 0.3774 0.3773
3749.644909 0.3771 0.3769 0.3768 0.3766 0.3765
3754.676772 0.3763 0.3762 0.3760 0.3759 0.3757
3759.708634 0.3755 0.3754 0.3753 0.3751 0.3750
3764.740497 0.3748 0.3747 0.3745 0.3744 0.3742
3769.772360 0.3741 0.3740 0.3738 0.3736 0.3735
3774.804223 0.3734 0.3732 0.3731 0.3729 0.3728
3779.836085 0.3726 0.3725 0.3723 0.3722 0.3721
3784.867948 0.3719 0.3718 0.3716 0.3715 0.3713
3789.899811 0.3712 0.3711 0.3709 0.3708 0.3706
3794.931674 0.3705 0.3703 0.3702 0.3701 0.3699
3799.963536 0.3698 0.3696 0.3695 0.3694 0.3693
3804.995399 0.3693 0.3692 0.3692 0.3691 0.3691
3810.027262 0.3690 0.3690 0.3689 0.3689 0.3688
3815.059125 0.3688 0.3687 0.3687 0.3686 0.3686
3820.090987 0.3685 0.3685 0.3684 0.3684 0.3683
3825.122850 0.3682 0.3682 0.3681 0.3681 0.3680
3830.154713 0.3680 0.3679 0.3679 0.3678 0.3678
3835.186576 0.3677 0.3677 0.3676 0.3676 0.3675
3840.218439 0.3675 0.3674 0.3674 0.3673 0.3673
3845.250301 0.3672 0.3671 0.3670 0.3669 0.3667
3850.282164 0.3666 0.3665 0.3664 0.3663 0.3662
3855.314027 0.3660 0.3659 0.3658 0.3657 0.3656
3860.345890 0.3655 0.3653 0.3652 0.3651 0.3650
3865.377752 0.3649 0.3648 0.3646 0.3645 0.3644
3870.409615 0.3643 0.3642 0.3641 0.3639 0.3638
3875.441478 0.3637 0.3636 0.3635 0.3634 0.3632
3880.473341 0.3631 0.3630 0.3629 0.3628 0.3627
3885.505203 0.3625 0.3624 0.3623 0.3622 0.3620
3890.537066 0.3618 0.3617 0.3615 0.3614 0.3612
3895.568929 0.3611 0.3609 0.3608 0.3606 0.3605
3900.600792 0.3603 0.3602 0.3600 0.3599 0.3597
3905.632654 0.3596 0.3594 0.3593 0.3591 0.3590
3910.664517 0.3588 0.3587 0.3585 0.3584 0.3582
3915.696380 0.3581 0.3579 0.3578 0.3576 0.3575
3920.728243 0.3573 0.3572 0.3571 0.3569 0.3568
3925.760105 0.3567 0.3566 0.3565 0.3564 0.3563
3930.791968 0.3561 0.3560 0.3559 0.3558 0.3557
3935.823831 0.3556 0.3554 0.3553 0.3552 0.3551
3940.855694 0.3550 0.3549 0.3548 0.3546 0.3545
3945.887556 0.3544 0.3543 0.3542 0.3541 0.3539
3950.919419 0.3538 0.3537 0.3536 0.3535 0.3584
3955.951282 0.3537 0.3531 0.3530 0.3529 0.3528
3960.983145 0.3527 0.3526 0.3525 0.3524 0.3523
3966.015007 0.3522 0.3521 0.3520 0.3519 0.3518
3971.046870 0.3517 0.3516 0.3515 0.3514 0.3513
3976.078733 0.3512 0.3511 0.3510 0.3509 0.3508
3981.110596 0.3507 0.3506 0.3505 0.3504 0.3503
3986.142458 0.3502 0.3501 0.3500 0.3499 0.3498
3991.174321 0.3497 0.3496 0.3495 0.3494 0.3493
3996.206184 0.3493 0.3492 0.3491 0.3491 0.3490
4001.238047 0.3489 0.3488 0.3488 0.3487 0.3486
4006.269909 0.3486 0.3485 0.3484 0.3483 0.3483
4011.301772 0.3482 0.3481 0.3480 0.3480 0.3479
4016.333635 0.3478 0.3478 0.3477 0.3476 0.3475
4021.365498 0.3475 0.3474 0.3473
##END=
