##TITLE=m-Cresol, 4-amino-, hydrochloride
##JCAMP-DX=4.24
##DATA TYPE=INFRARED SPECTRUM
##CLASS=COBLENTZ III
##ORIGIN=DOW CHEMICAL COMPANY
##OWNER=Copyright (C) 1987 by the Coblentz Society
Collection (C) 2018 copyright by the U.S. Secretary of Commerce
on behalf of the United States of America. All rights reserved.
##DATE=1966/02/21
##NAMES=4-amino-3-methylphenol hydrochloride
##MOLFORM=C7 H10 Cl N O
##SOURCE REFERENCE=COBLENTZ NO. 9983
##$NIST ID=B6009983
##$NIST SOURCE=COBLENTZ
##$NIST IMAGE=cob9983
##SPECTROMETER/DATA SYSTEM=DOW FOREPRISM-GRATING
##INSTRUMENT PARAMETERS=BLAZED AT 3.5, 12.0, 20.0 MICRON AND CHANGED AT 5.0, 7.5, 14.9 MICRON
##STATE=SOLID (SPLIT MULL), FLUOROLUBE FOR 3800-1330 CM^-^1, NUJOL FOR 1330-460 CM^-^1
$$ SPECTRUM CONFIRMED WITH COMPOUND FROM SAME COMPANY
##SAMPLING PROCEDURE=TRANSMISSION
##RESOLUTION=2
##DATA PROCESSING=DIGITIZED BY COBLENTZ SOCIETY (BATCH II) FROM HARD COPY
##XUNITS=1/CM
##YUNITS=TRANSMITTANCE
##XFACTOR=1.0
##YFACTOR=1
##FIRSTX=457
##LASTX=3800
##FIRSTY=0.4565
##MAXX=3800
##MINX=457
##MAXY=0.8736
##MINY=0.0169
##NPOINTS=3344
##XYDATA=(X++(Y..Y))
457.000000 0.4565 0.4371 0.4177 0.3983 0.3789
462.000000 0.3718 0.3689 0.4312 0.4993 0.5674
467.000000 0.6355 0.7036 0.7547 0.7728 0.7875
472.000000 0.8015 0.8118 0.8149 0.8180 0.8201
477.000000 0.8216 0.8227 0.8230 0.8233 0.8235
482.000000 0.8234 0.8236 0.8230 0.8226 0.8221
487.000000 0.8217 0.8212 0.8201 0.8188 0.8173
492.000000 0.8154 0.8134 0.8100 0.8062 0.8022
497.000000 0.7979 0.7919 0.7858 0.7794 0.7584
502.000000 0.6969 0.6353 0.5737 0.5122 0.4506
507.000000 0.3716 0.3681 0.4377 0.5563 0.6748
512.000000 0.7934 0.8216 0.8264 0.8302 0.8327
517.000000 0.8351 0.8365 0.8378 0.8385 0.8390
522.000000 0.8390 0.8388 0.8400 0.8383 0.8380
527.000000 0.8377 0.8373 0.8372 0.8370 0.8368
532.000000 0.8366 0.8367 0.8370 0.8374 0.8377
537.000000 0.8381 0.8386 0.8393 0.8399 0.8406
542.000000 0.8414 0.8422 0.8429 0.8427 0.8422
547.000000 0.8417 0.8412 0.8409 0.8414 0.8425
552.000000 0.8436 0.8441 0.8446 0.8445 0.8440
557.000000 0.8426 0.8401 0.8363 0.8301 0.8199
562.000000 0.7955 0.7712 0.7468 0.7224 0.7183
567.000000 0.7198 0.7410 0.7622 0.7828 0.7688
572.000000 0.6606 0.5626 0.5677 0.6306 0.6935
577.000000 0.7564 0.8251 0.8343 0.8388 0.8404
582.000000 0.8407 0.8410 0.8422 0.8471 0.8479
587.000000 0.8474 0.8486 0.8461 0.8451 0.8442
592.000000 0.8436 0.8430 0.8424 0.8415 0.8404
597.000000 0.8393 0.8382 0.8370 0.8354 0.8337
602.000000 0.8321 0.8304 0.8285 0.8265 0.8246
607.000000 0.8227 0.8207 0.8175 0.8141 0.8102
612.000000 0.8051 0.8030 0.8020 0.8007 0.7991
617.000000 0.7978 0.7969 0.7959 0.7949 0.7934
622.000000 0.7918 0.7906 0.7902 0.7898 0.7894
627.000000 0.7890 0.7889 0.7889 0.7887 0.7862
632.000000 0.7816 0.7780 0.7750 0.7721 0.7695
637.000000 0.7668 0.7635 0.7597 0.7559 0.7509
642.000000 0.7451 0.7392 0.7322 0.7230 0.7121
647.000000 0.6906 0.6682 0.6437 0.6192 0.5947
652.000000 0.5702 0.5456 0.5211 0.4966 0.4721
657.000000 0.4476 0.4231 0.3986 0.3741 0.3510
662.000000 0.3384 0.3349 0.3323 0.3327 0.3458
667.000000 0.4149 0.4417 0.4451 0.4575 0.4804
672.000000 0.5032 0.5261 0.5489 0.5717 0.5946
677.000000 0.6174 0.6403 0.6631 0.6859 0.7078
682.000000 0.7288 0.7573 0.7750 0.7812 0.7863
687.000000 0.7903 0.7956 0.8008 0.8044 0.8056
692.000000 0.8062 0.8061 0.8074 0.8034 0.7985
697.000000 0.7602 0.7109 0.6616 0.5841 0.5796
702.000000 0.6162 0.6809 0.7457 0.7667 0.7700
707.000000 0.7731 0.7748 0.7765 0.7770 0.7766
712.000000 0.7793 0.7748 0.7727 0.7684 0.7647
717.000000 0.7606 0.7568 0.7549 0.7549 0.7562
722.000000 0.7595 0.7602 0.7597 0.7579 0.7543
727.000000 0.7104 0.6651 0.6199 0.5746 0.5506
732.000000 0.5509 0.6362 0.6969 0.7577 0.7831
737.000000 0.7978 0.8073 0.8155 0.8218 0.8268
742.000000 0.8309 0.8320 0.8328 0.8346 0.8406
747.000000 0.8461 0.8464 0.8463 0.8459 0.8454
752.000000 0.8443 0.8435 0.8435 0.8434 0.8434
757.000000 0.8443 0.8468 0.8491 0.8494 0.8489
762.000000 0.8485 0.8488 0.8491 0.8494 0.8497
767.000000 0.8506 0.8515 0.8525 0.8535 0.8548
772.000000 0.8564 0.8580 0.8596 0.8613 0.8631
777.000000 0.8649 0.8666 0.8683 0.8696 0.8709
782.000000 0.8722 0.8729 0.8731 0.8733 0.8736
787.000000 0.8722 0.8730 0.8727 0.8723 0.8719
792.000000 0.8709 0.8694 0.8676 0.8651 0.8626
797.000000 0.8600 0.8565 0.8530 0.8494 0.8426
802.000000 0.8358 0.8264 0.8171 0.8077 0.7752
807.000000 0.7107 0.5726 0.4346 0.2966 0.1585
812.000000 0.1022 0.1030 0.1856 0.2661 0.3466
817.000000 0.4271 0.5076 0.5881 0.6686 0.7310
822.000000 0.7311 0.7510 0.7814 0.8138 0.8218
827.000000 0.8340 0.8421 0.8476 0.8503 0.8521
832.000000 0.8533 0.8542 0.8545 0.8545 0.8544
837.000000 0.8542 0.8541 0.8542 0.8547 0.8560
842.000000 0.8572 0.8586 0.8599 0.8592 0.8590
847.000000 0.8565 0.8551 0.8533 0.8513 0.8497
852.000000 0.8483 0.8473 0.8474 0.8475 0.8480
857.000000 0.8487 0.8494 0.8502 0.8508 0.8511
862.000000 0.8492 0.8466 0.8436 0.8405 0.8374
867.000000 0.8343 0.8311 0.8263 0.8201 0.8134
872.000000 0.8066 0.7984 0.7887 0.7381 0.6874
877.000000 0.6368 0.5861 0.5355 0.4848 0.4342
882.000000 0.3835 0.3769 0.4364 0.4960 0.5555
887.000000 0.6150 0.6746 0.7341 0.7937 0.8192
892.000000 0.8225 0.8252 0.8270 0.8286 0.8302
897.000000 0.8318 0.8333 0.8347 0.8361 0.8376
902.000000 0.8387 0.8398 0.8408 0.8411 0.8406
907.000000 0.8402 0.8392 0.8381 0.8370 0.8356
912.000000 0.8339 0.8322 0.8304 0.8281 0.8259
917.000000 0.8236 0.8214 0.8195 0.8176 0.8157
922.000000 0.8138 0.8118 0.8099 0.8083 0.8068
927.000000 0.8052 0.8037 0.8021 0.8006 0.7990
932.000000 0.7974 0.7958 0.7942 0.7925 0.7827
937.000000 0.7625 0.7424 0.7222 0.7021 0.6914
942.000000 0.6922 0.7050 0.7189 0.7327 0.7378
947.000000 0.6744 0.5971 0.5198 0.4425 0.3651
952.000000 0.3340 0.3365 0.4265 0.4974 0.5684
957.000000 0.6394 0.7103 0.7243 0.7363 0.7478
962.000000 0.7561 0.7650 0.7769 0.8012 0.8137
967.000000 0.8162 0.8166 0.8170 0.8165 0.8159
972.000000 0.8146 0.8131 0.8114 0.8112 0.8123
977.000000 0.8144 0.8167 0.8180 0.8195 0.8193
982.000000 0.8189 0.8182 0.8168 0.8149 0.8129
987.000000 0.8107 0.8085 0.8055 0.8022 0.7984
992.000000 0.7943 0.7888 0.7834 0.7769 0.7700
997.000000 0.7630 0.7548 0.7403 0.7013 0.6623
1002.000000 0.6233 0.5843 0.5454 0.5064 0.4674
1007.000000 0.4622 0.4641 0.5360 0.6072 0.6784
1012.000000 0.7496 0.7715 0.7731 0.7727 0.7720
1017.000000 0.7701 0.7662 0.7610 0.7540 0.7464
1022.000000 0.7395 0.7364 0.7339 0.7047 0.6754
1027.000000 0.6461 0.6169 0.5876 0.5586 0.5580
1032.000000 0.5923 0.6292 0.6662 0.7031 0.7380
1037.000000 0.7499 0.7588 0.7663 0.7729 0.7784
1042.000000 0.7832 0.7869 0.7902 0.7911 0.7915
1047.000000 0.7921 0.7905 0.7894 0.7884 0.7871
1052.000000 0.7855 0.7839 0.7820 0.7786 0.7732
1057.000000 0.7650 0.7437 0.7181 0.6926 0.6670
1062.000000 0.6545 0.6563 0.6755 0.6948 0.7140
1067.000000 0.7332 0.7524 0.7635 0.7653 0.7648
1072.000000 0.7639 0.7655 0.7617 0.7599 0.7567
1077.000000 0.7531 0.7493 0.7441 0.7346 0.7229
1082.000000 0.7125 0.7027 0.6877 0.6660 0.6529
1087.000000 0.6403 0.6285 0.5994 0.5653 0.5312
1092.000000 0.4971 0.4629 0.4288 0.3947 0.3606
1097.000000 0.3295 0.3310 0.3319 0.3763 0.4321
1102.000000 0.4878 0.5436 0.5888 0.6092 0.6291
1107.000000 0.6477 0.6644 0.6764 0.6833 0.6871
1112.000000 0.6888 0.6919 0.6866 0.6847 0.6826
1117.000000 0.6772 0.6701 0.6384 0.5995 0.5607
1122.000000 0.5219 0.4831 0.4443 0.4055 0.3666
1127.000000 0.3278 0.3269 0.4064 0.4886 0.5707
1132.000000 0.6529 0.7250 0.7285 0.7294 0.7290
1137.000000 0.7280 0.7245 0.7161 0.7077 0.6999
1142.000000 0.7024 0.7027 0.7022 0.6986 0.6939
1147.000000 0.6928 0.6929 0.7025 0.7218 0.7271
1152.000000 0.7281 0.7273 0.7262 0.7250 0.7237
1157.000000 0.7221 0.7200 0.7169 0.7115 0.7046
1162.000000 0.6963 0.6876 0.6778 0.6388 0.5805
1167.000000 0.5221 0.4638 0.4054 0.3726 0.4814
1172.000000 0.6422 0.6776 0.6763 0.6633 0.6450
1177.000000 0.6267 0.6084 0.5901 0.5718 0.5535
1182.000000 0.5351 0.5168 0.4985 0.4802 0.4619
1187.000000 0.4436 0.4267 0.3960 0.3571 0.3181
1192.000000 0.2791 0.2401 0.2012 0.1622 0.1232
1197.000000 0.0848 0.0848 0.1212 0.1927 0.2642
1202.000000 0.3357 0.4072 0.4787 0.5502 0.6057
1207.000000 0.6055 0.6062 0.5978 0.5874 0.5769
1212.000000 0.5665 0.5560 0.5499 0.5503 0.5613
1217.000000 0.5739 0.5740 0.5717 0.5665 0.5613
1222.000000 0.5561 0.5510 0.5477 0.5481 0.5485
1227.000000 0.5489 0.5490 0.5490 0.5487 0.5476
1232.000000 0.5460 0.5444 0.5425 0.5385 0.5342
1237.000000 0.5283 0.5210 0.4979 0.4736 0.4494
1242.000000 0.4251 0.4009 0.3766 0.3523 0.3281
1247.000000 0.3038 0.2795 0.2725 0.2777 0.3028
1252.000000 0.3278 0.3529 0.3779 0.4030 0.4281
1257.000000 0.4531 0.4678 0.4648 0.4628 0.4522
1262.000000 0.4417 0.4311 0.4206 0.4100 0.3997
1267.000000 0.3923 0.3858 0.3795 0.3722 0.3637
1272.000000 0.3552 0.3395 0.3187 0.2979 0.2770
1277.000000 0.2562 0.2354 0.2145 0.1937 0.1729
1282.000000 0.1576 0.1466 0.1430 0.1435 0.1438
1287.000000 0.1508 0.1694 0.2084 0.2475 0.2866
1292.000000 0.3256 0.3647 0.3949 0.3985 0.4031
1297.000000 0.4167 0.4344 0.4521 0.4698 0.4708
1302.000000 0.4722 0.4188 0.3716 0.3244 0.2772
1307.000000 0.2301 0.1829 0.1357 0.1011 0.1142
1312.000000 0.2078 0.3013 0.3949 0.4884 0.5328
1317.000000 0.5440 0.5553 0.5665 0.5778 0.5890
1322.000000 0.5941 0.5934 0.5918 0.5882 0.5825
1327.000000 0.5716 0.5624 0.5399 0.5173 0.4947
1332.000000 0.4720 0.4494 0.4268 0.4041 0.3815
1337.000000 0.3588 0.3399 0.3432 0.3697 0.3966
1342.000000 0.4235 0.4504 0.4772 0.5041 0.5310
1347.000000 0.5579 0.5848 0.6117 0.6385 0.6685
1352.000000 0.6836 0.6900 0.6942 0.6984 0.7024
1357.000000 0.7065 0.7102 0.7139 0.7175 0.7221
1362.000000 0.7266 0.7299 0.7327 0.7335 0.7341
1367.000000 0.7367 0.7333 0.7308 0.7244 0.7179
1372.000000 0.7115 0.7050 0.6986 0.6960 0.6945
1377.000000 0.7111 0.7227 0.7343 0.7457 0.7493
1382.000000 0.7516 0.7532 0.7547 0.7562 0.7572
1387.000000 0.7581 0.7580 0.7580 0.7560 0.7578
1392.000000 0.7576 0.7574 0.7567 0.7559 0.7551
1397.000000 0.7539 0.7524 0.7505 0.7486 0.7467
1402.000000 0.7449 0.7430 0.7411 0.7393 0.7376
1407.000000 0.7358 0.7341 0.7323 0.7304 0.7285
1412.000000 0.7267 0.7248 0.7225 0.7201 0.7177
1417.000000 0.7153 0.7129 0.7105 0.7079 0.7048
1422.000000 0.7018 0.6988 0.6957 0.6921 0.6886
1427.000000 0.6850 0.6814 0.6765 0.6714 0.6663
1432.000000 0.6605 0.6545 0.6443 0.6334 0.6225
1437.000000 0.6117 0.6008 0.5899 0.5790 0.5733
1442.000000 0.5696 0.5664 0.5622 0.5578 0.5537
1447.000000 0.5476 0.5398 0.5323 0.5287 0.5250
1452.000000 0.5295 0.5428 0.5563 0.5699 0.5725
1457.000000 0.5729 0.5715 0.5684 0.5592 0.5501
1462.000000 0.5410 0.5318 0.5227 0.5117 0.5025
1467.000000 0.4911 0.4747 0.4494 0.4099 0.3949
1472.000000 0.3829 0.3681 0.3358 0.2974 0.2590
1477.000000 0.2207 0.1823 0.1440 0.1056 0.0672
1482.000000 0.0469 0.0412 0.0338 0.0271 0.0215
1487.000000 0.0170 0.0169 0.0178 0.0606 0.0970
1492.000000 0.1335 0.1699 0.2063 0.2428 0.2792
1497.000000 0.3156 0.3521 0.3885 0.4249 0.4613
1502.000000 0.4978 0.5342 0.5476 0.5468 0.5367
1507.000000 0.5266 0.5249 0.5305 0.5549 0.5793
1512.000000 0.5846 0.5739 0.5366 0.4992 0.4619
1517.000000 0.4246 0.3873 0.3500 0.3465 0.4072
1522.000000 0.4607 0.5143 0.5679 0.6215 0.6751
1527.000000 0.7287 0.7765 0.8117 0.8176 0.8198
1532.000000 0.8212 0.8224 0.8247 0.8273 0.8298
1537.000000 0.8317 0.8327 0.8337 0.8340 0.8342
1542.000000 0.8345 0.8346 0.8344 0.8377 0.8340
1547.000000 0.8336 0.8327 0.8318 0.8309 0.8299
1552.000000 0.8285 0.8271 0.8258 0.8237 0.8210
1557.000000 0.8182 0.8146 0.8104 0.8061 0.8016
1562.000000 0.7970 0.7921 0.7870 0.7818 0.7766
1567.000000 0.7709 0.7650 0.7591 0.7523 0.7446
1572.000000 0.7284 0.7088 0.6892 0.6697 0.6504
1577.000000 0.6445 0.6419 0.6412 0.6421 0.6523
1582.000000 0.6674 0.6825 0.6976 0.7128 0.7279
1587.000000 0.7326 0.7350 0.7301 0.7180 0.7054
1592.000000 0.6928 0.6802 0.6677 0.6551 0.6425
1597.000000 0.6299 0.6174 0.5968 0.5647 0.5326
1602.000000 0.5005 0.4684 0.4363 0.4043 0.3722
1607.000000 0.3401 0.3080 0.2759 0.2695 0.2686
1612.000000 0.3373 0.3834 0.4295 0.4756 0.5217
1617.000000 0.5678 0.6139 0.6599 0.7026 0.7077
1622.000000 0.6927 0.6792 0.6657 0.6522 0.6388
1627.000000 0.6253 0.6190 0.6207 0.6437 0.6666
1632.000000 0.6896 0.7125 0.7131 0.7155 0.6946
1637.000000 0.6835 0.6724 0.6456 0.6095 0.5946
1642.000000 0.5968 0.6675 0.7147 0.7619 0.8091
1647.000000 0.8335 0.8368 0.8406 0.8466 0.8522
1652.000000 0.8528 0.8535 0.8541 0.8547 0.8553
1657.000000 0.8561 0.8574 0.8587 0.8603 0.8618
1662.000000 0.8615 0.8612 0.8607 0.8603 0.8598
1667.000000 0.8594 0.8589 0.8585 0.8581 0.8576
1672.000000 0.8570 0.8563 0.8557 0.8550 0.8544
1677.000000 0.8536 0.8526 0.8517 0.8507 0.8497
1682.000000 0.8483 0.8467 0.8451 0.8438 0.8431
1687.000000 0.8424 0.8420 0.8424 0.8427 0.8420
1692.000000 0.8413 0.8399 0.8383 0.8371 0.8369
1697.000000 0.8367 0.8370 0.8376 0.8383 0.8389
1702.000000 0.8396 0.8400 0.8402 0.8404 0.8406
1707.000000 0.8407 0.8409 0.8433 0.8458 0.8482
1712.000000 0.8488 0.8489 0.8489 0.8487 0.8486
1717.000000 0.8484 0.8483 0.8481 0.8480 0.8478
1722.000000 0.8477 0.8472 0.8466 0.8460 0.8453
1727.000000 0.8447 0.8441 0.8433 0.8425 0.8417
1732.000000 0.8409 0.8402 0.8391 0.8378 0.8365
1737.000000 0.8353 0.8335 0.8316 0.8297 0.8278
1742.000000 0.8254 0.8230 0.8206 0.8182 0.8149
1747.000000 0.8112 0.8071 0.8018 0.7969 0.7948
1752.000000 0.7936 0.7925 0.7915 0.7920 0.7915
1757.000000 0.7962 0.8007 0.8055 0.8103 0.8151
1762.000000 0.8198 0.8241 0.8279 0.8304 0.8322
1767.000000 0.8331 0.8340 0.8342 0.8344 0.8347
1772.000000 0.8347 0.8345 0.8343 0.8340 0.8335
1777.000000 0.8330 0.8324 0.8319 0.8313 0.8308
1782.000000 0.8303 0.8298 0.8294 0.8289 0.8284
1787.000000 0.8279 0.8275 0.8268 0.8262 0.8256
1792.000000 0.8250 0.8243 0.8237 0.8231 0.8223
1797.000000 0.8214 0.8206 0.8197 0.8189 0.8180
1802.000000 0.8171 0.8161 0.8152 0.8143 0.8133
1807.000000 0.8124 0.8114 0.8105 0.8098 0.8091
1812.000000 0.8084 0.8077 0.8070 0.8064 0.8057
1817.000000 0.8050 0.8041 0.8033 0.8024 0.8016
1822.000000 0.8017 0.8025 0.8035 0.8039 0.8036
1827.000000 0.8033 0.8030 0.8023 0.8011 0.7999
1832.000000 0.7987 0.7975 0.7962 0.7950 0.7937
1837.000000 0.7924 0.7918 0.7915 0.7912 0.7909
1842.000000 0.7906 0.7903 0.7900 0.7893 0.7881
1847.000000 0.7869 0.7857 0.7845 0.7835 0.7830
1852.000000 0.7828 0.7833 0.7838 0.7843 0.7848
1857.000000 0.7852 0.7856 0.7859 0.7851 0.7842
1862.000000 0.7834 0.7826 0.7813 0.7797 0.7781
1867.000000 0.7764 0.7745 0.7725 0.7704 0.7684
1872.000000 0.7660 0.7624 0.7587 0.7523 0.7453
1877.000000 0.7383 0.7313 0.7243 0.7218 0.7223
1882.000000 0.7280 0.7429 0.7577 0.7683 0.7694
1887.000000 0.7694 0.7706 0.7694 0.7693 0.7685
1892.000000 0.7673 0.7660 0.7645 0.7630 0.7614
1897.000000 0.7595 0.7575 0.7554 0.7530 0.7502
1902.000000 0.7473 0.7446 0.7422 0.7398 0.7375
1907.000000 0.7353 0.7331 0.7310 0.7288 0.7267
1912.000000 0.7246 0.7231 0.7216 0.7201 0.7186
1917.000000 0.7171 0.7156 0.7141 0.7125 0.7109
1922.000000 0.7093 0.7077 0.7061 0.7045 0.7029
1927.000000 0.7014 0.7002 0.6990 0.6978 0.6966
1932.000000 0.6960 0.6969 0.6977 0.6986 0.7007
1937.000000 0.7032 0.7060 0.7089 0.7110 0.7125
1942.000000 0.7140 0.7157 0.7175 0.7206 0.7233
1947.000000 0.7237 0.7241 0.7235 0.7229 0.7224
1952.000000 0.7214 0.7201 0.7188 0.7175 0.7148
1957.000000 0.7185 0.7234 0.7266 0.7149 0.6937
1962.000000 0.6891 0.6865 0.6839 0.6819 0.6802
1967.000000 0.6786 0.6764 0.6741 0.6720 0.6704
1972.000000 0.6687 0.6672 0.6657 0.6642 0.6629
1977.000000 0.6619 0.6608 0.6598 0.6594 0.6590
1982.000000 0.6563 0.6625 0.6666 0.6708 0.6751
1987.000000 0.6792 0.6833 0.6874 0.6925 0.6977
1992.000000 0.7029 0.7082 0.7168 0.7261 0.7355
1997.000000 0.7449 0.7543 0.7637 0.7722 0.7718
2002.000000 0.7715 0.7714 0.7713 0.7713 0.7713
2007.000000 0.7713 0.7714 0.7715 0.7716 0.7721
2012.000000 0.7726 0.7733 0.7740 0.7746 0.7753
2017.000000 0.7766 0.7780 0.7801 0.7822 0.7837
2022.000000 0.7831 0.7857 0.7861 0.7860 0.7860
2027.000000 0.7859 0.7858 0.7857 0.7856 0.7856
2032.000000 0.7856 0.7853 0.7851 0.7847 0.7843
2037.000000 0.7839 0.7835 0.7830 0.7826 0.7823
2042.000000 0.7820 0.7817 0.7815 0.7812 0.7810
2047.000000 0.7808 0.7806 0.7803 0.7801 0.7798
2052.000000 0.7795 0.7791 0.7788 0.7784 0.7781
2057.000000 0.7777 0.7774 0.7770 0.7767 0.7763
2062.000000 0.7760 0.7755 0.7751 0.7747 0.7743
2067.000000 0.7739 0.7735 0.7730 0.7726 0.7721
2072.000000 0.7717 0.7712 0.7707 0.7702 0.7698
2077.000000 0.7693 0.7688 0.7680 0.7673 0.7665
2082.000000 0.7658 0.7650 0.7643 0.7635 0.7628
2087.000000 0.7620 0.7613 0.7605 0.7598 0.7589
2092.000000 0.7581 0.7571 0.7561 0.7551 0.7541
2097.000000 0.7531 0.7522 0.7512 0.7502 0.7492
2102.000000 0.7482 0.7472 0.7463 0.7453 0.7443
2107.000000 0.7423 0.7404 0.7385 0.7366 0.7346
2112.000000 0.7327 0.7309 0.7291 0.7284 0.7278
2117.000000 0.7276 0.7282 0.7275 0.7276 0.7292
2122.000000 0.7308 0.7339 0.7370 0.7392 0.7415
2127.000000 0.7428 0.7442 0.7440 0.7438 0.7434
2132.000000 0.7430 0.7425 0.7420 0.7415 0.7410
2137.000000 0.7402 0.7395 0.7388 0.7381 0.7373
2142.000000 0.7366 0.7359 0.7352 0.7342 0.7332
2147.000000 0.7322 0.7313 0.7303 0.7294 0.7284
2152.000000 0.7274 0.7264 0.7254 0.7242 0.7230
2157.000000 0.7218 0.7206 0.7194 0.7182 0.7168
2162.000000 0.7155 0.7141 0.7128 0.7114 0.7100
2167.000000 0.7086 0.7073 0.7057 0.7041 0.7024
2172.000000 0.7007 0.6994 0.6982 0.6974 0.6967
2177.000000 0.6964 0.6979 0.6961 0.6962 0.6992
2182.000000 0.7022 0.7065 0.7108 0.7143 0.7178
2187.000000 0.7184 0.7191 0.7195 0.7200 0.7201
2192.000000 0.7202 0.7198 0.7195 0.7192 0.7189
2197.000000 0.7185 0.7182 0.7178 0.7174 0.7166
2202.000000 0.7159 0.7151 0.7144 0.7136 0.7128
2207.000000 0.7120 0.7112 0.7104 0.7096 0.7087
2212.000000 0.7079 0.7070 0.7061 0.7052 0.7044
2217.000000 0.7035 0.7026 0.7019 0.7012 0.7005
2222.000000 0.6999 0.6993 0.6987 0.6980 0.6974
2227.000000 0.6967 0.6961 0.6955 0.6949 0.6942
2232.000000 0.6936 0.6929 0.6923 0.6919 0.6916
2237.000000 0.6916 0.6917 0.6917 0.6917 0.6916
2242.000000 0.6916 0.6916 0.6916 0.6916 0.6916
2247.000000 0.6913 0.6911 0.6909 0.6907 0.6904
2252.000000 0.6902 0.6899 0.6897 0.6894 0.6891
2257.000000 0.6883 0.6875 0.6867 0.6859 0.6850
2262.000000 0.6842 0.6827 0.6813 0.6798 0.6784
2267.000000 0.6775 0.6766 0.6763 0.6760 0.6757
2272.000000 0.6755 0.6753 0.6752 0.6752 0.6753
2277.000000 0.6752 0.6752 0.6750 0.6748 0.6742
2282.000000 0.6736 0.6726 0.6717 0.6707 0.6697
2287.000000 0.6687 0.6677 0.6666 0.6656 0.6645
2292.000000 0.6634 0.6624 0.6615 0.6606 0.6598
2297.000000 0.6593 0.6589 0.6590 0.6591 0.6592
2302.000000 0.6594 0.6595 0.6596 0.6592 0.6589
2307.000000 0.6583 0.6578 0.6573 0.6568 0.6562
2312.000000 0.6557 0.6552 0.6547 0.6542 0.6537
2317.000000 0.6531 0.6526 0.6521 0.6516 0.6511
2322.000000 0.6506 0.6501 0.6496 0.6491 0.6486
2327.000000 0.6481 0.6476 0.6471 0.6466 0.6458
2332.000000 0.6450 0.6442 0.6434 0.6426 0.6418
2337.000000 0.6412 0.6406 0.6400 0.6395 0.6391
2342.000000 0.6388 0.6387 0.6387 0.6386 0.6386
2347.000000 0.6386 0.6386 0.6385 0.6385 0.6384
2352.000000 0.6384 0.6383 0.6383 0.6382 0.6382
2357.000000 0.6381 0.6381 0.6380 0.6380 0.6378
2362.000000 0.6376 0.6373 0.6371 0.6369 0.6367
2367.000000 0.6363 0.6360 0.6356 0.6352 0.6348
2372.000000 0.6345 0.6341 0.6337 0.6329 0.6322
2377.000000 0.6314 0.6307 0.6300 0.6293 0.6285
2382.000000 0.6278 0.6270 0.6263 0.6256 0.6249
2387.000000 0.6242 0.6235 0.6228 0.6221 0.6214
2392.000000 0.6207 0.6199 0.6192 0.6184 0.6177
2397.000000 0.6169 0.6162 0.6154 0.6146 0.6138
2402.000000 0.6131 0.6123 0.6115 0.6106 0.6097
2407.000000 0.6088 0.6079 0.6070 0.6061 0.6051
2412.000000 0.6042 0.6033 0.6024 0.6014 0.6005
2417.000000 0.5995 0.5986 0.5976 0.5966 0.5956
2422.000000 0.5946 0.5936 0.5926 0.5916 0.5906
2427.000000 0.5895 0.5885 0.5873 0.5861 0.5848
2432.000000 0.5836 0.5824 0.5812 0.5799 0.5787
2437.000000 0.5775 0.5763 0.5748 0.5734 0.5717
2442.000000 0.5701 0.5685 0.5669 0.5652 0.5636
2447.000000 0.5620 0.5605 0.5592 0.5580 0.5567
2452.000000 0.5555 0.5545 0.5535 0.5531 0.5528
2457.000000 0.5524 0.5520 0.5516 0.5512 0.5508
2462.000000 0.5505 0.5501 0.5497 0.5493 0.5489
2467.000000 0.5483 0.5477 0.5471 0.5466 0.5460
2472.000000 0.5455 0.5449 0.5443 0.5437 0.5432
2477.000000 0.5424 0.5417 0.5409 0.5401 0.5393
2482.000000 0.5385 0.5376 0.5368 0.5360 0.5352
2487.000000 0.5342 0.5333 0.5322 0.5312 0.5301
2492.000000 0.5291 0.5280 0.5270 0.5259 0.5249
2497.000000 0.5235 0.5222 0.5206 0.5190 0.5174
2502.000000 0.5159 0.5140 0.5122 0.5098 0.5075
2507.000000 0.5051 0.5028 0.5004 0.4981 0.4937
2512.000000 0.4894 0.4856 0.4819 0.4786 0.4753
2517.000000 0.4720 0.4687 0.4641 0.4596 0.4541
2522.000000 0.4486 0.4405 0.4325 0.4243 0.4162
2527.000000 0.4080 0.3999 0.3917 0.3835 0.3760
2532.000000 0.3686 0.3681 0.3677 0.3710 0.3654
2537.000000 0.3875 0.4006 0.4137 0.4268 0.4357
2542.000000 0.4446 0.4446 0.4468 0.4443 0.4439
2547.000000 0.4429 0.4419 0.4391 0.4364 0.4336
2552.000000 0.4308 0.4281 0.4255 0.4203 0.4152
2557.000000 0.4052 0.3952 0.3874 0.3797 0.3802
2562.000000 0.3808 0.3916 0.3813 0.4139 0.4253
2567.000000 0.4366 0.4480 0.4510 0.4541 0.4547
2572.000000 0.4554 0.4555 0.4556 0.4557 0.4555
2577.000000 0.4556 0.4554 0.4544 0.4534 0.4518
2582.000000 0.4502 0.4480 0.4458 0.4412 0.4366
2587.000000 0.4320 0.4275 0.4229 0.4184 0.4138
2592.000000 0.4092 0.4046 0.4001 0.3955 0.3909
2597.000000 0.3863 0.3818 0.3806 0.3795 0.3849
2602.000000 0.3903 0.3959 0.4015 0.4009 0.4004
2607.000000 0.3983 0.3962 0.3931 0.3901 0.3870
2612.000000 0.3840 0.3809 0.3778 0.3747 0.3717
2617.000000 0.3686 0.3656 0.3625 0.3595 0.3564
2622.000000 0.3534 0.3508 0.3483 0.3482 0.3506
2627.000000 0.3493 0.3504 0.3588 0.3673 0.3757
2632.000000 0.3842 0.3927 0.4012 0.4108 0.4204
2637.000000 0.4218 0.4248 0.4225 0.4218 0.4204
2642.000000 0.4191 0.4169 0.4147 0.4121 0.4095
2647.000000 0.4047 0.3999 0.3976 0.3953 0.3930
2652.000000 0.3908 0.3895 0.3883 0.3871 0.3860
2657.000000 0.3848 0.3837 0.3829 0.3822 0.3817
2662.000000 0.3813 0.3808 0.3804 0.3793 0.3782
2667.000000 0.3766 0.3751 0.3731 0.3711 0.3696
2672.000000 0.3655 0.3682 0.3684 0.3689 0.3694
2677.000000 0.3705 0.3717 0.3733 0.3750 0.3773
2682.000000 0.3796 0.3825 0.3854 0.3911 0.3969
2687.000000 0.4022 0.4075 0.4105 0.4135 0.4146
2692.000000 0.4157 0.4162 0.4173 0.4171 0.4176
2697.000000 0.4179 0.4182 0.4174 0.4167 0.4158
2702.000000 0.4150 0.4139 0.4129 0.4117 0.4106
2707.000000 0.4088 0.4071 0.4053 0.4035 0.4010
2712.000000 0.3985 0.3958 0.3932 0.3911 0.3891
2717.000000 0.3876 0.3862 0.3858 0.3855 0.3851
2722.000000 0.3848 0.3846 0.3844 0.3840 0.3837
2727.000000 0.3826 0.3815 0.3803 0.3791 0.3774
2732.000000 0.3757 0.3740 0.3723 0.3705 0.3688
2737.000000 0.3671 0.3654 0.3636 0.3619 0.3601
2742.000000 0.3584 0.3566 0.3549 0.3528 0.3508
2747.000000 0.3485 0.3462 0.3438 0.3415 0.3391
2752.000000 0.3368 0.3343 0.3319 0.3293 0.3268
2757.000000 0.3242 0.3216 0.3190 0.3165 0.3136
2762.000000 0.3108 0.3075 0.3042 0.3009 0.2976
2767.000000 0.2943 0.2911 0.2887 0.2864 0.2843
2772.000000 0.2823 0.2803 0.2783 0.2762 0.2742
2777.000000 0.2721 0.2701 0.2674 0.2648 0.2618
2782.000000 0.2588 0.2577 0.2566 0.2554 0.2543
2787.000000 0.2534 0.2526 0.2521 0.2516 0.2513
2792.000000 0.2511 0.2509 0.2508 0.2490 0.2473
2797.000000 0.2454 0.2435 0.2413 0.2391 0.2368
2802.000000 0.2346 0.2322 0.2298 0.2273 0.2249
2807.000000 0.2224 0.2200 0.2175 0.2151 0.2126
2812.000000 0.2102 0.2077 0.2053 0.2028 0.2004
2817.000000 0.1979 0.1955 0.1930 0.1906 0.1881
2822.000000 0.1857 0.1832 0.1808 0.1779 0.1751
2827.000000 0.1722 0.1693 0.1663 0.1634 0.1605
2832.000000 0.1576 0.1547 0.1518 0.1489 0.1461
2837.000000 0.1434 0.1408 0.1381 0.1355 0.1328
2842.000000 0.1302 0.1275 0.1249 0.1223 0.1198
2847.000000 0.1173 0.1149 0.1124 0.1100 0.1076
2852.000000 0.1052 0.1027 0.1003 0.0981 0.0959
2857.000000 0.0938 0.0918 0.0897 0.0877 0.0856
2862.000000 0.0835 0.0815 0.0796 0.0780 0.0764
2867.000000 0.0749 0.0735 0.0730 0.0725 0.0720
2872.000000 0.0715 0.0710 0.0706 0.0702 0.0698
2877.000000 0.0696 0.0695 0.0695 0.0695 0.0695
2882.000000 0.0670 0.0696 0.0697 0.0699 0.0702
2887.000000 0.0707 0.0712 0.0716 0.0721 0.0726
2892.000000 0.0731 0.0738 0.0745 0.0754 0.0764
2897.000000 0.0773 0.0783 0.0797 0.0811 0.0830
2902.000000 0.0850 0.0871 0.0893 0.0918 0.0944
2907.000000 0.0970 0.0996 0.1030 0.1065 0.1105
2912.000000 0.1145 0.1184 0.1223 0.1261 0.1299
2917.000000 0.1336 0.1374 0.1410 0.1447 0.1481
2922.000000 0.1516 0.1551 0.1586 0.1635 0.1685
2927.000000 0.1736 0.1787 0.1816 0.1846 0.1874
2932.000000 0.1902 0.1909 0.1928 0.1913 0.1910
2937.000000 0.1901 0.1892 0.1874 0.1857 0.1836
2942.000000 0.1816 0.1777 0.1739 0.1689 0.1639
2947.000000 0.1594 0.1549 0.1508 0.1467 0.1444
2952.000000 0.1421 0.1422 0.1415 0.1435 0.1447
2957.000000 0.1457 0.1468 0.1479 0.1491 0.1503
2962.000000 0.1515 0.1527 0.1540 0.1553 0.1567
2967.000000 0.1581 0.1595 0.1608 0.1622 0.1635
2972.000000 0.1649 0.1662 0.1676 0.1689 0.1703
2977.000000 0.1716 0.1730 0.1742 0.1754 0.1766
2982.000000 0.1778 0.1790 0.1803 0.1815 0.1827
2987.000000 0.1839 0.1852 0.1865 0.1878 0.1890
2992.000000 0.1903 0.1915 0.1928 0.1940 0.1953
2997.000000 0.1965 0.1977 0.1989 0.2002 0.2014
3002.000000 0.2026 0.2035 0.2044 0.2051 0.2093
3007.000000 0.2062 0.2066 0.2062 0.2059 0.2055
3012.000000 0.2052 0.2045 0.2039 0.2025 0.2011
3017.000000 0.1997 0.1983 0.1969 0.1955 0.1942
3022.000000 0.1929 0.1916 0.1903 0.1893 0.1883
3027.000000 0.1882 0.1882 0.1881 0.1881 0.1880
3032.000000 0.1880 0.1880 0.1880 0.1879 0.1879
3037.000000 0.1876 0.1873 0.1866 0.1859 0.1852
3042.000000 0.1845 0.1831 0.1818 0.1802 0.1786
3047.000000 0.1757 0.1728 0.1680 0.1633 0.1610
3052.000000 0.1587 0.1589 0.1591 0.1596 0.1600
3057.000000 0.1606 0.1611 0.1616 0.1621 0.1662
3062.000000 0.1704 0.1734 0.1764 0.1784 0.1805
3067.000000 0.1822 0.1839 0.1856 0.1873 0.1914
3072.000000 0.1955 0.2005 0.2056 0.2079 0.2103
3077.000000 0.2124 0.2145 0.2158 0.2172 0.2185
3082.000000 0.2198 0.2211 0.2224 0.2237 0.2251
3087.000000 0.2262 0.2273 0.2283 0.2293 0.2303
3092.000000 0.2314 0.2324 0.2335 0.2345 0.2356
3097.000000 0.2366 0.2377 0.2387 0.2397 0.2406
3102.000000 0.2415 0.2424 0.2433 0.2442 0.2451
3107.000000 0.2459 0.2468 0.2477 0.2486 0.2494
3112.000000 0.2502 0.2509 0.2516 0.2522 0.2529
3117.000000 0.2535 0.2542 0.2548 0.2555 0.2560
3122.000000 0.2565 0.2569 0.2574 0.2578 0.2583
3127.000000 0.2584 0.2586 0.2586 0.2587 0.2587
3132.000000 0.2595 0.2587 0.2588 0.2586 0.2584
3137.000000 0.2582 0.2580 0.2578 0.2576 0.2568
3142.000000 0.2561 0.2552 0.2544 0.2536 0.2528
3147.000000 0.2518 0.2508 0.2494 0.2480 0.2466
3152.000000 0.2453 0.2437 0.2422 0.2406 0.2390
3157.000000 0.2374 0.2358 0.2337 0.2317 0.2295
3162.000000 0.2273 0.2251 0.2230 0.2208 0.2186
3167.000000 0.2158 0.2131 0.2098 0.2066 0.2033
3172.000000 0.2000 0.1968 0.1936 0.1903 0.1871
3177.000000 0.1840 0.1809 0.1783 0.1758 0.1732
3182.000000 0.1706 0.1680 0.1655 0.1630 0.1605
3187.000000 0.1588 0.1571 0.1554 0.1537 0.1522
3192.000000 0.1507 0.1500 0.1493 0.1486 0.1479
3197.000000 0.1472 0.1465 0.1455 0.1445 0.1434
3202.000000 0.1424 0.1412 0.1401 0.1387 0.1373
3207.000000 0.1359 0.1346 0.1322 0.1298 0.1270
3212.000000 0.1242 0.1214 0.1186 0.1152 0.1118
3217.000000 0.1083 0.1048 0.1012 0.0977 0.0938
3222.000000 0.0899 0.0859 0.0820 0.0790 0.0760
3227.000000 0.0730 0.0701 0.0684 0.0668 0.0656
3232.000000 0.0644 0.0646 0.0648 0.0655 0.0661
3237.000000 0.0676 0.0692 0.0717 0.0743 0.0814
3242.000000 0.0885 0.0965 0.1046 0.1108 0.1171
3247.000000 0.1224 0.1277 0.1337 0.1397 0.1460
3252.000000 0.1524 0.1706 0.1888 0.2032 0.2177
3257.000000 0.2299 0.2421 0.2517 0.2614 0.2666
3262.000000 0.2719 0.2771 0.2824 0.2873 0.2923
3267.000000 0.2971 0.3020 0.3068 0.3117 0.3152
3272.000000 0.3187 0.3217 0.3248 0.3279 0.3310
3277.000000 0.3340 0.3371 0.3410 0.3449 0.3495
3282.000000 0.3542 0.3588 0.3635 0.3697 0.3760
3287.000000 0.3839 0.3919 0.3988 0.4058 0.4128
3292.000000 0.4199 0.4298 0.4397 0.4450 0.4503
3297.000000 0.4527 0.4551 0.4607 0.4664 0.4767
3302.000000 0.4870 0.4945 0.5020 0.5085 0.5150
3307.000000 0.5186 0.5222 0.5258 0.5295 0.5328
3312.000000 0.5361 0.5390 0.5420 0.5449 0.5479
3317.000000 0.5508 0.5538 0.5570 0.5603 0.5636
3322.000000 0.5669 0.5701 0.5734 0.5758 0.5782
3327.000000 0.5801 0.5820 0.5838 0.5857 0.5876
3332.000000 0.5895 0.5913 0.5932 0.5951 0.5970
3337.000000 0.5987 0.6004 0.6019 0.6034 0.6049
3342.000000 0.6065 0.6080 0.6095 0.6110 0.6125
3347.000000 0.6138 0.6151 0.6161 0.6171 0.6181
3352.000000 0.6191 0.6199 0.6208 0.6210 0.6213
3357.000000 0.6216 0.6219 0.6222 0.6225 0.6228
3362.000000 0.6231 0.6234 0.6237 0.6240 0.6250
3367.000000 0.6244 0.6245 0.6241 0.6237 0.6233
3372.000000 0.6229 0.6225 0.6221 0.6217 0.6213
3377.000000 0.6208 0.6204 0.6198 0.6192 0.6186
3382.000000 0.6180 0.6173 0.6167 0.6160 0.6154
3387.000000 0.6147 0.6141 0.6132 0.6123 0.6114
3392.000000 0.6105 0.6096 0.6088 0.6079 0.6070
3397.000000 0.6061 0.6052 0.6043 0.6035 0.6026
3402.000000 0.6017 0.6012 0.5995 0.6011 0.6014
3407.000000 0.6018 0.6022 0.6028 0.6035 0.6042
3412.000000 0.6049 0.6061 0.6074 0.6086 0.6099
3417.000000 0.6111 0.6124 0.6137 0.6150 0.6171
3422.000000 0.6192 0.6213 0.6234 0.6248 0.6262
3427.000000 0.6270 0.6279 0.6284 0.6289 0.6290
3432.000000 0.6291 0.6290 0.6290 0.6287 0.6285
3437.000000 0.6281 0.6279 0.6275 0.6272 0.6269
3442.000000 0.6266 0.6262 0.6259 0.6255 0.6252
3447.000000 0.6250 0.6249 0.6247 0.6246 0.6244
3452.000000 0.6243 0.6241 0.6239 0.6238 0.6237
3457.000000 0.6237 0.6238 0.6238 0.6238 0.6238
3462.000000 0.6239 0.6237 0.6236 0.6230 0.6225
3467.000000 0.6219 0.6213 0.6207 0.6202 0.6198
3472.000000 0.6194 0.6189 0.6185 0.6181 0.6177
3477.000000 0.6172 0.6168 0.6163 0.6159 0.6155
3482.000000 0.6151 0.6146 0.6142 0.6137 0.6133
3487.000000 0.6128 0.6124 0.6119 0.6115 0.6110
3492.000000 0.6106 0.6101 0.6096 0.6091 0.6087
3497.000000 0.6082 0.6078 0.6073 0.6069 0.6064
3502.000000 0.6059 0.6054 0.6050 0.6046 0.6042
3507.000000 0.6038 0.6035 0.6031 0.6027 0.6023
3512.000000 0.6020 0.6016 0.6013 0.6009 0.6005
3517.000000 0.6001 0.5998 0.5994 0.5991 0.5987
3522.000000 0.5983 0.5979 0.5976 0.5972 0.5968
3527.000000 0.5964 0.5960 0.5956 0.5952 0.5948
3532.000000 0.5944 0.5940 0.5936 0.5932 0.5928
3537.000000 0.5924 0.5921 0.5917 0.5913 0.5909
3542.000000 0.5905 0.5901 0.5897 0.5893 0.5889
3547.000000 0.5884 0.5880 0.5875 0.5871 0.5867
3552.000000 0.5863 0.5858 0.5854 0.5849 0.5845
3557.000000 0.5841 0.5837 0.5832 0.5828 0.5823
3562.000000 0.5819 0.5815 0.5811 0.5807 0.5803
3567.000000 0.5800 0.5797 0.5793 0.5790 0.5787
3572.000000 0.5784 0.5780 0.5777 0.5774 0.5771
3577.000000 0.5767 0.5764 0.5761 0.5758 0.5754
3582.000000 0.5751 0.5747 0.5744 0.5740 0.5737
3587.000000 0.5733 0.5730 0.5727 0.5724 0.5720
3592.000000 0.5717 0.5713 0.5710 0.5706 0.5703
3597.000000 0.5699 0.5696 0.5693 0.5690 0.5686
3602.000000 0.5683 0.5679 0.5675 0.5669 0.5664
3607.000000 0.5658 0.5653 0.5647 0.5641 0.5635
3612.000000 0.5630 0.5624 0.5619 0.5613 0.5608
3617.000000 0.5605 0.5602 0.5599 0.5597 0.5594
3622.000000 0.5592 0.5589 0.5587 0.5585 0.5583
3627.000000 0.5580 0.5578 0.5575 0.5573 0.5570
3632.000000 0.5568 0.5565 0.5563 0.5561 0.5559
3637.000000 0.5556 0.5554 0.5552 0.5550 0.5547
3642.000000 0.5545 0.5543 0.5541 0.5538 0.5536
3647.000000 0.5534 0.5532 0.5529 0.5527 0.5525
3652.000000 0.5523 0.5520 0.5518 0.5516 0.5514
3657.000000 0.5510 0.5506 0.5500 0.5494 0.5488
3662.000000 0.5482 0.5476 0.5470 0.5464 0.5458
3667.000000 0.5451 0.5445 0.5440 0.5435 0.5430
3672.000000 0.5426 0.5422 0.5418 0.5414 0.5410
3677.000000 0.5405 0.5401 0.5398 0.5396 0.5394
3682.000000 0.5393 0.5391 0.5390 0.5388 0.5387
3687.000000 0.5385 0.5384 0.5383 0.5383 0.5382
3692.000000 0.5382 0.5381 0.5380 0.5379 0.5379
3697.000000 0.5377 0.5375 0.5370 0.5366 0.5361
3702.000000 0.5356 0.5351 0.5347 0.5342 0.5338
3707.000000 0.5333 0.5329 0.5325 0.5321 0.5316
3712.000000 0.5312 0.5307 0.5303 0.5299 0.5295
3717.000000 0.5290 0.5286 0.5281 0.5277 0.5272
3722.000000 0.5268 0.5264 0.5260 0.5256 0.5252
3727.000000 0.5247 0.5243 0.5239 0.5235 0.5230
3732.000000 0.5226 0.5222 0.5218 0.5214 0.5210
3737.000000 0.5205 0.5201 0.5197 0.5193 0.5188
3742.000000 0.5184 0.5180 0.5176 0.5171 0.5167
3747.000000 0.5162 0.5158 0.5153 0.5149 0.5144
3752.000000 0.5140 0.5135 0.5131 0.5126 0.5122
3757.000000 0.5118 0.5114 0.5111 0.5108 0.5105
3762.000000 0.5102 0.5098 0.5095 0.5092 0.5089
3767.000000 0.5085 0.5082 0.5079 0.5076 0.5073
3772.000000 0.5096 0.5066 0.5063 0.5060 0.5057
3777.000000 0.5054 0.5051 0.5048 0.5045 0.5041
3782.000000 0.5038 0.5035 0.5033 0.5030 0.5028
3787.000000 0.5025 0.5023 0.5021 0.5020 0.5018
3792.000000 0.5017 0.5016 0.5015 0.5013 0.5012
3797.000000 0.5011 0.5010 0.5009 0.5009
##END=
