##TITLE=1,2,3-Propanetricarboxylic acid, 2-acetoxy-, tri-(2-methylpentyl) ester
##JCAMP-DX=4.24
$$ By DXEDIT 1.05 (RS McDonald)
##DATA TYPE=INFRARED SPECTRUM
##CLASS=COBLENTZ III
##ORIGIN=DOW CHEMICAL COMPANY
##OWNER=COPYRIGHT (C) 1988 by COBLENTZ SOCIETY INC.
Collection (C) 2018 copyright by the U.S. Secretary of Commerce
on behalf of the United States of America. All rights reserved.
##DATE=1970/02/02
##CAS NAME=Acetyl tri-(2-methylpentyl) citrate
##NAMES=tris(2-methylpentyl) 2-(acetyloxy)-1,2,3-propanetricarboxylate
##MOLFORM=C26 H46 O8
##SOURCE REFERENCE=COBLENTZ NO. 09469
##$NIST ID=B6009469
##$NIST SOURCE=COBLENTZ
##$NIST IMAGE=cob9469
##SPECTROMETER/DATA SYSTEM=DOW KBr FOREPRISM-GRATING
##INSTRUMENT PARAMETERS=BLAZED AT 3.5, 12.0, 20.0 MICRON AND CHANGED AT 5.0, 7.5, 14.9 MICRON
##STATE=SOLUTION (10% CCl4 FOR 2.7-7.5, 10% CS2 FOR 7.5-26 MICRON) VS SOLVENT
##PATH LENGTH=0.011 CM, 0.011 CM
##SAMPLING PROCEDURE=TRANSMISSION
##RESOLUTION=2
##DATA PROCESSING=DIGITIZED BY COBLENTZ SOCIETY (BATCH I) FROM HARD COPY
##XUNITS=1/CM
##YUNITS=TRANSMITTANCE
##XFACTOR=1
##YFACTOR=1
##DELTAX=1
##FIRSTX=3786
##LASTX=390
##FIRSTY=0.8513
##MAXX=3786
##MINX=390
##MAXY=0.8874
##MINY=0.0047
##NPOINTS=3397
##XYDATA=(X++(Y..Y))
3786.000000 0.8513 0.8512 0.8511 0.8510 0.8509
3781.000000 0.8507 0.8506 0.8504 0.8503 0.8501
3776.000000 0.8500 0.8498 0.8497 0.8495 0.8494
3771.000000 0.8492 0.8491 0.8489 0.8488 0.8487
3766.000000 0.8486 0.8485 0.8484 0.8483 0.8482
3761.000000 0.8481 0.8481 0.8480 0.8478 0.8478
3756.000000 0.8478 0.8477 0.8475 0.8475 0.8475
3751.000000 0.8475 0.8475 0.8475 0.8475 0.8477
3746.000000 0.8478 0.8478 0.8480 0.8480 0.8481
3741.000000 0.8482 0.8483 0.8484 0.8485 0.8485
3736.000000 0.8486 0.8487 0.8488 0.8488 0.8489
3731.000000 0.8490 0.8492 0.8493 0.8494 0.8495
3726.000000 0.8497 0.8498 0.8499 0.8500 0.8502
3721.000000 0.8503 0.8504 0.8505 0.8507 0.8508
3716.000000 0.8509 0.8510 0.8512 0.8513 0.8514
3711.000000 0.8515 0.8518 0.8518 0.8518 0.8518
3706.000000 0.8520 0.8520 0.8521 0.8521 0.8523
3701.000000 0.8523 0.8524 0.8525 0.8525 0.8525
3696.000000 0.8527 0.8528 0.8528 0.8530 0.8531
3691.000000 0.8531 0.8532 0.8533 0.8534 0.8534
3686.000000 0.8535 0.8535 0.8535 0.8535 0.8536
3681.000000 0.8536 0.8537 0.8537 0.8537 0.8537
3676.000000 0.8538 0.8538 0.8538 0.8538 0.8539
3671.000000 0.8539 0.8539 0.8539 0.8540 0.8540
3666.000000 0.8540 0.8540 0.8541 0.8541 0.8541
3661.000000 0.8541 0.8542 0.8542 0.8543 0.8543
3656.000000 0.8544 0.8544 0.8545 0.8545 0.8546
3651.000000 0.8546 0.8547 0.8547 0.8547 0.8547
3646.000000 0.8548 0.8548 0.8549 0.8549 0.8550
3641.000000 0.8550 0.8551 0.8551 0.8552 0.8552
3636.000000 0.8553 0.8553 0.8554 0.8554 0.8555
3631.000000 0.8555 0.8556 0.8556 0.8557 0.8558
3626.000000 0.8559 0.8560 0.8561 0.8562 0.8563
3621.000000 0.8564 0.8565 0.8566 0.8568 0.8568
3616.000000 0.8570 0.8571 0.8571 0.8573 0.8574
3611.000000 0.8575 0.8575 0.8577 0.8578 0.8578
3606.000000 0.8581 0.8582 0.8583 0.8585 0.8587
3601.000000 0.8589 0.8591 0.8593 0.8596 0.8598
3596.000000 0.8600 0.8602 0.8604 0.8606 0.8608
3591.000000 0.8610 0.8613 0.8614 0.8616 0.8617
3586.000000 0.8618 0.8620 0.8621 0.8623 0.8625
3581.000000 0.8625 0.8628 0.8628 0.8631 0.8632
3576.000000 0.8633 0.8633 0.8633 0.8633 0.8633
3571.000000 0.8632 0.8632 0.8632 0.8632 0.8632
3566.000000 0.8632 0.8632 0.8632 0.8632 0.8632
3561.000000 0.8631 0.8631 0.8631 0.8632 0.8632
3556.000000 0.8633 0.8633 0.8634 0.8635 0.8636
3551.000000 0.8636 0.8637 0.8637 0.8638 0.8638
3546.000000 0.8639 0.8639 0.8640 0.8640 0.8641
3541.000000 0.8642 0.8643 0.8643 0.8644 0.8644
3536.000000 0.8645 0.8645 0.8646 0.8647 0.8648
3531.000000 0.8649 0.8650 0.8650 0.8651 0.8652
3526.000000 0.8653 0.8654 0.8655 0.8656 0.8657
3521.000000 0.8657 0.8658 0.8659 0.8660 0.8661
3516.000000 0.8662 0.8662 0.8662 0.8661 0.8661
3511.000000 0.8660 0.8660 0.8659 0.8659 0.8659
3506.000000 0.8659 0.8658 0.8658 0.8657 0.8656
3501.000000 0.8653 0.8650 0.8646 0.8643 0.8640
3496.000000 0.8637 0.8634 0.8631 0.8625 0.8618
3491.000000 0.8612 0.8605 0.8598 0.8591 0.8583
3486.000000 0.8575 0.8568 0.8562 0.8555 0.8548
3481.000000 0.8541 0.8534 0.8527 0.8521 0.8514
3476.000000 0.8508 0.8501 0.8495 0.8488 0.8482
3471.000000 0.8475 0.8470 0.8466 0.8462 0.8457
3466.000000 0.8453 0.8448 0.8444 0.8439 0.8435
3461.000000 0.8430 0.8425 0.8421 0.8417 0.8415
3456.000000 0.8413 0.8412 0.8394 0.8409 0.8408
3451.000000 0.8407 0.8406 0.8405 0.8405 0.8405
3446.000000 0.8406 0.8407 0.8408 0.8409 0.8410
3441.000000 0.8417 0.8424 0.8431 0.8438 0.8445
3436.000000 0.8453 0.8465 0.8477 0.8492 0.8507
3431.000000 0.8521 0.8535 0.8548 0.8561 0.8574
3426.000000 0.8587 0.8600 0.8613 0.8625 0.8640
3421.000000 0.8650 0.8661 0.8670 0.8678 0.8688
3416.000000 0.8697 0.8705 0.8714 0.8723 0.8732
3411.000000 0.8738 0.8745 0.8748 0.8751 0.8754
3406.000000 0.8757 0.8759 0.8762 0.8765 0.8768
3401.000000 0.8771 0.8774 0.8775 0.8778 0.8782
3396.000000 0.8785 0.8787 0.8790 0.8793 0.8796
3391.000000 0.8798 0.8800 0.8802 0.8804 0.8805
3386.000000 0.8807 0.8809 0.8811 0.8812 0.8814
3381.000000 0.8816 0.8818 0.8818 0.8821 0.8823
3376.000000 0.8825 0.8825 0.8828 0.8828 0.8831
3371.000000 0.8833 0.8835 0.8836 0.8838 0.8840
3366.000000 0.8842 0.8843 0.8845 0.8845 0.8846
3361.000000 0.8846 0.8847 0.8847 0.8848 0.8848
3356.000000 0.8849 0.8849 0.8850 0.8850 0.8851
3351.000000 0.8851 0.8852 0.8852 0.8853 0.8853
3346.000000 0.8853 0.8853 0.8854 0.8854 0.8855
3341.000000 0.8855 0.8856 0.8856 0.8857 0.8857
3336.000000 0.8858 0.8858 0.8859 0.8859 0.8860
3331.000000 0.8860 0.8860 0.8860 0.8861 0.8861
3326.000000 0.8861 0.8861 0.8862 0.8862 0.8862
3321.000000 0.8862 0.8863 0.8863 0.8863 0.8863
3316.000000 0.8864 0.8864 0.8864 0.8864 0.8865
3311.000000 0.8865 0.8865 0.8865 0.8865 0.8865
3306.000000 0.8866 0.8866 0.8866 0.8866 0.8867
3301.000000 0.8867 0.8867 0.8867 0.8868 0.8868
3296.000000 0.8868 0.8868 0.8868 0.8868 0.8868
3291.000000 0.8868 0.8870 0.8870 0.8870 0.8870
3286.000000 0.8871 0.8871 0.8871 0.8871 0.8871
3281.000000 0.8871 0.8873 0.8873 0.8873 0.8873
3276.000000 0.8874 0.8874 0.8874 0.8874 0.8874
3271.000000 0.8874 0.8874 0.8873 0.8873 0.8873
3266.000000 0.8873 0.8871 0.8871 0.8871 0.8871
3261.000000 0.8871 0.8871 0.8871 0.8871 0.8870
3256.000000 0.8870 0.8870 0.8870 0.8868 0.8868
3251.000000 0.8868 0.8868 0.8868 0.8868 0.8867
3246.000000 0.8867 0.8866 0.8866 0.8865 0.8865
3241.000000 0.8864 0.8864 0.8863 0.8863 0.8863
3236.000000 0.8863 0.8862 0.8862 0.8861 0.8861
3231.000000 0.8860 0.8860 0.8859 0.8859 0.8855
3226.000000 0.8851 0.8846 0.8842 0.8838 0.8834
3221.000000 0.8830 0.8825 0.8821 0.8818 0.8814
3216.000000 0.8810 0.8806 0.8802 0.8798 0.8794
3211.000000 0.8789 0.8785 0.8781 0.8777 0.8773
3206.000000 0.8768 0.8766 0.8763 0.8760 0.8758
3201.000000 0.8755 0.8753 0.8750 0.8748 0.8745
3196.000000 0.8743 0.8740 0.8738 0.8735 0.8733
3191.000000 0.8730 0.8728 0.8725 0.8724 0.8721
3186.000000 0.8718 0.8716 0.8714 0.8712 0.8711
3181.000000 0.8710 0.8709 0.8708 0.8712 0.8706
3176.000000 0.8705 0.8704 0.8703 0.8702 0.8701
3171.000000 0.8700 0.8699 0.8698 0.8697 0.8695
3166.000000 0.8694 0.8693 0.8692 0.8691 0.8690
3161.000000 0.8689 0.8688 0.8687 0.8686 0.8685
3156.000000 0.8684 0.8683 0.8682 0.8681 0.8680
3151.000000 0.8678 0.8678 0.8678 0.8677 0.8675
3146.000000 0.8675 0.8675 0.8674 0.8673 0.8673
3141.000000 0.8671 0.8671 0.8671 0.8670 0.8668
3136.000000 0.8668 0.8668 0.8667 0.8666 0.8666
3131.000000 0.8664 0.8663 0.8661 0.8660 0.8659
3126.000000 0.8658 0.8656 0.8655 0.8653 0.8652
3121.000000 0.8651 0.8650 0.8648 0.8647 0.8645
3116.000000 0.8644 0.8642 0.8641 0.8640 0.8639
3111.000000 0.8637 0.8636 0.8634 0.8633 0.8631
3106.000000 0.8630 0.8628 0.8627 0.8625 0.8624
3101.000000 0.8621 0.8621 0.8618 0.8615 0.8611
3096.000000 0.8608 0.8604 0.8600 0.8596 0.8593
3091.000000 0.8589 0.8586 0.8582 0.8578 0.8574
3086.000000 0.8571 0.8567 0.8563 0.8559 0.8556
3081.000000 0.8552 0.8548 0.8544 0.8540 0.8536
3076.000000 0.8532 0.8527 0.8523 0.8518 0.8515
3071.000000 0.8510 0.8505 0.8499 0.8494 0.8488
3066.000000 0.8482 0.8475 0.8471 0.8465 0.8459
3061.000000 0.8453 0.8448 0.8442 0.8436 0.8430
3056.000000 0.8425 0.8416 0.8408 0.8399 0.8391
3051.000000 0.8382 0.8373 0.8363 0.8353 0.8337
3046.000000 0.8321 0.8304 0.8288 0.8271 0.8255
3041.000000 0.8237 0.8220 0.8198 0.8175 0.8154
3036.000000 0.8132 0.8110 0.8088 0.8065 0.8044
3031.000000 0.8024 0.8005 0.7986 0.7967 0.7948
3026.000000 0.7928 0.7910 0.7891 0.7871 0.7851
3021.000000 0.7822 0.7795 0.7762 0.7732 0.7700
3016.000000 0.7668 0.7628 0.7589 0.7537 0.7486
3011.000000 0.7290 0.7094 0.6965 0.6839 0.6771
3006.000000 0.6705 0.6607 0.6510 0.6408 0.6307
3001.000000 0.6128 0.5949 0.5725 0.5501 0.5321
2996.000000 0.5142 0.4937 0.4733 0.4670 0.4607
2991.000000 0.4389 0.4172 0.3964 0.3759 0.3609
2986.000000 0.3460 0.3291 0.3122 0.2952 0.2783
2981.000000 0.2614 0.2445 0.2275 0.2106 0.1935
2976.000000 0.1767 0.1596 0.1428 0.1227 0.1026
2971.000000 0.0831 0.0637 0.0570 0.0503 0.0410
2966.000000 0.0317 0.0281 0.0245 0.0237 0.0232
2961.000000 0.0228 0.0224 0.0222 0.0217 0.0217
2956.000000 0.0217 0.0251 0.0284 0.0362 0.0440
2951.000000 0.0518 0.0597 0.0675 0.0753 0.0831
2946.000000 0.0910 0.0988 0.1066 0.1144 0.1223
2941.000000 0.1250 0.1277 0.1282 0.1287 0.1291
2936.000000 0.1289 0.1264 0.1233 0.1149 0.1065
2931.000000 0.0980 0.0896 0.0863 0.0830 0.0831
2926.000000 0.0824 0.0838 0.0842 0.0905 0.0967
2921.000000 0.1029 0.1092 0.1154 0.1216 0.1278
2916.000000 0.1340 0.1402 0.1465 0.1527 0.1589
2911.000000 0.1645 0.1703 0.1756 0.1809 0.1874
2906.000000 0.1939 0.2044 0.2151 0.2185 0.2222
2901.000000 0.2251 0.2281 0.2296 0.2311 0.2323
2896.000000 0.2335 0.2346 0.2357 0.2434 0.2511
2891.000000 0.2589 0.2667 0.2745 0.2823 0.2901
2886.000000 0.2980 0.3027 0.3075 0.3080 0.3103
2881.000000 0.3089 0.3094 0.2787 0.2480 0.2117
2876.000000 0.1318 0.1541 0.1328 0.1353 0.1378
2871.000000 0.1546 0.1717 0.1885 0.2056 0.2225
2866.000000 0.2395 0.2564 0.2734 0.2903 0.3073
2861.000000 0.3305 0.3538 0.3595 0.3652 0.3702
2856.000000 0.3752 0.3800 0.3850 0.3903 0.3956
2851.000000 0.4009 0.4064 0.4120 0.4177 0.4297
2846.000000 0.4417 0.4982 0.5548 0.5741 0.5934
2841.000000 0.6006 0.6079 0.6151 0.6223 0.6297
2836.000000 0.6371 0.6447 0.6522 0.6593 0.6664
2831.000000 0.6721 0.6781 0.6840 0.6899 0.6956
2826.000000 0.7012 0.7056 0.7100 0.7143 0.7187
2821.000000 0.7230 0.7274 0.7311 0.7349 0.7384
2816.000000 0.7419 0.7456 0.7492 0.7525 0.7561
2811.000000 0.7592 0.7624 0.7655 0.7686 0.7717
2806.000000 0.7749 0.7778 0.7810 0.7839 0.7868
2801.000000 0.7896 0.7925 0.7949 0.7972 0.7989
2796.000000 0.8006 0.8021 0.8039 0.8056 0.8072
2791.000000 0.8084 0.8096 0.8105 0.8114 0.8122
2786.000000 0.8133 0.8142 0.8151 0.8161 0.8169
2781.000000 0.8175 0.8182 0.8188 0.8195 0.8201
2776.000000 0.8207 0.8213 0.8218 0.8225 0.8232
2771.000000 0.8237 0.8242 0.8246 0.8250 0.8254
2766.000000 0.8258 0.8262 0.8266 0.8270 0.8274
2761.000000 0.8278 0.8282 0.8284 0.8287 0.8289
2756.000000 0.8292 0.8294 0.8297 0.8299 0.8302
2751.000000 0.8304 0.8307 0.8309 0.8311 0.8311
2746.000000 0.8311 0.8310 0.8310 0.8308 0.8307
2741.000000 0.8302 0.8297 0.8289 0.8282 0.8274
2736.000000 0.8266 0.8253 0.8241 0.8220 0.8200
2731.000000 0.8182 0.8164 0.8151 0.8141 0.8137
2726.000000 0.8133 0.8132 0.8132 0.8132 0.8136
2721.000000 0.8142 0.8148 0.8155 0.8161 0.8171
2716.000000 0.8182 0.8191 0.8201 0.8210 0.8220
2711.000000 0.8230 0.8240 0.8249 0.8259 0.8268
2706.000000 0.8277 0.8284 0.8291 0.8298 0.8305
2701.000000 0.8312 0.8318 0.8325 0.8333 0.8340
2696.000000 0.8347 0.8354 0.8361 0.8367 0.8373
2691.000000 0.8375 0.8378 0.8380 0.8382 0.8384
2686.000000 0.8387 0.8389 0.8392 0.8394 0.8397
2681.000000 0.8399 0.8401 0.8403 0.8406 0.8408
2676.000000 0.8411 0.8413 0.8415 0.8417 0.8420
2671.000000 0.8421 0.8425 0.8427 0.8430 0.8432
2666.000000 0.8434 0.8436 0.8439 0.8441 0.8444
2661.000000 0.8446 0.8448 0.8450 0.8452 0.8454
2656.000000 0.8456 0.8458 0.8460 0.8462 0.8464
2651.000000 0.8466 0.8468 0.8470 0.8471 0.8474
2646.000000 0.8475 0.8477 0.8478 0.8478 0.8478
2641.000000 0.8478 0.8480 0.8480 0.8481 0.8481
2636.000000 0.8482 0.8482 0.8483 0.8483 0.8484
2631.000000 0.8484 0.8485 0.8485 0.8486 0.8486
2626.000000 0.8487 0.8487 0.8488 0.8488 0.8489
2621.000000 0.8489 0.8490 0.8490 0.8491 0.8491
2616.000000 0.8492 0.8492 0.8493 0.8494 0.8495
2611.000000 0.8496 0.8497 0.8498 0.8499 0.8499
2606.000000 0.8500 0.8501 0.8502 0.8503 0.8504
2601.000000 0.8505 0.8506 0.8507 0.8508 0.8509
2596.000000 0.8510 0.8511 0.8512 0.8513 0.8514
2591.000000 0.8515 0.8517 0.8518 0.8520 0.8521
2586.000000 0.8521 0.8523 0.8525 0.8525 0.8528
2581.000000 0.8528 0.8530 0.8531 0.8533 0.8534
2576.000000 0.8536 0.8537 0.8538 0.8539 0.8541
2571.000000 0.8542 0.8543 0.8544 0.8546 0.8547
2566.000000 0.8548 0.8549 0.8551 0.8552 0.8554
2561.000000 0.8555 0.8556 0.8557 0.8559 0.8560
2556.000000 0.8561 0.8562 0.8564 0.8565 0.8566
2551.000000 0.8568 0.8570 0.8571 0.8573 0.8575
2546.000000 0.8577 0.8578 0.8580 0.8581 0.8583
2541.000000 0.8585 0.8587 0.8588 0.8590 0.8592
2536.000000 0.8594 0.8595 0.8597 0.8599 0.8601
2531.000000 0.8602 0.8604 0.8605 0.8607 0.8609
2526.000000 0.8611 0.8612 0.8614 0.8616 0.8618
2521.000000 0.8618 0.8621 0.8621 0.8624 0.8624
2516.000000 0.8625 0.8625 0.8627 0.8627 0.8628
2511.000000 0.8628 0.8630 0.8630 0.8631 0.8631
2506.000000 0.8632 0.8633 0.8634 0.8634 0.8635
2501.000000 0.8636 0.8637 0.8637 0.8638 0.8638
2496.000000 0.8639 0.8640 0.8641 0.8641 0.8642
2491.000000 0.8642 0.8643 0.8643 0.8644 0.8644
2486.000000 0.8645 0.8645 0.8646 0.8646 0.8647
2481.000000 0.8647 0.8648 0.8648 0.8649 0.8649
2476.000000 0.8650 0.8650 0.8651 0.8651 0.8652
2471.000000 0.8652 0.8653 0.8653 0.8654 0.8654
2466.000000 0.8655 0.8655 0.8656 0.8656 0.8656
2461.000000 0.8655 0.8655 0.8655 0.8655 0.8654
2456.000000 0.8654 0.8653 0.8653 0.8652 0.8652
2451.000000 0.8651 0.8651 0.8650 0.8650 0.8649
2446.000000 0.8649 0.8649 0.8649 0.8648 0.8648
2441.000000 0.8646 0.8645 0.8644 0.8643 0.8641
2436.000000 0.8640 0.8638 0.8637 0.8635 0.8634
2431.000000 0.8632 0.8631 0.8628 0.8628 0.8625
2426.000000 0.8625 0.8623 0.8621 0.8620 0.8618
2421.000000 0.8615 0.8613 0.8610 0.8608 0.8605
2416.000000 0.8603 0.8601 0.8599 0.8596 0.8594
2411.000000 0.8591 0.8589 0.8586 0.8584 0.8582
2406.000000 0.8581 0.8578 0.8578 0.8575 0.8575
2401.000000 0.8573 0.8571 0.8570 0.8568 0.8566
2396.000000 0.8565 0.8563 0.8562 0.8562 0.8563
2391.000000 0.8564 0.8565 0.8566 0.8568 0.8568
2386.000000 0.8571 0.8571 0.8573 0.8574 0.8575
2381.000000 0.8577 0.8578 0.8578 0.8581 0.8582
2376.000000 0.8583 0.8583 0.8584 0.8584 0.8585
2371.000000 0.8585 0.8585 0.8585 0.8585 0.8585
2366.000000 0.8586 0.8586 0.8586 0.8586 0.8586
2361.000000 0.8586 0.8587 0.8587 0.8588 0.8588
2356.000000 0.8589 0.8589 0.8589 0.8589 0.8590
2351.000000 0.8590 0.8591 0.8591 0.8592 0.8592
2346.000000 0.8593 0.8593 0.8593 0.8593 0.8594
2341.000000 0.8594 0.8595 0.8595 0.8596 0.8596
2336.000000 0.8597 0.8597 0.8597 0.8592 0.8588
2331.000000 0.8583 0.8578 0.8573 0.8568 0.8563
2326.000000 0.8558 0.8553 0.8548 0.8543 0.8538
2321.000000 0.8533 0.8528 0.8524 0.8521 0.8518
2316.000000 0.8518 0.8516 0.8515 0.8513 0.8512
2311.000000 0.8512 0.8512 0.8513 0.8514 0.8515
2306.000000 0.8516 0.8517 0.8518 0.8520 0.8521
2301.000000 0.8521 0.8524 0.8525 0.8525 0.8527
2296.000000 0.8528 0.8528 0.8531 0.8532 0.8533
2291.000000 0.8534 0.8536 0.8537 0.8538 0.8539
2286.000000 0.8540 0.8541 0.8543 0.8544 0.8545
2281.000000 0.8546 0.8547 0.8548 0.8549 0.8550
2276.000000 0.8552 0.8553 0.8554 0.8555 0.8556
2271.000000 0.8557 0.8558 0.8559 0.8561 0.8562
2266.000000 0.8563 0.8564 0.8565 0.8566 0.8567
2261.000000 0.8568 0.8570 0.8571 0.8571 0.8573
2256.000000 0.8574 0.8575 0.8575 0.8577 0.8578
2251.000000 0.8580 0.8581 0.8582 0.8583 0.8584
2246.000000 0.8586 0.8587 0.8588 0.8589 0.8590
2241.000000 0.8591 0.8593 0.8594 0.8595 0.8596
2236.000000 0.8597 0.8598 0.8600 0.8601 0.8602
2231.000000 0.8603 0.8604 0.8604 0.8605 0.8605
2226.000000 0.8606 0.8606 0.8606 0.8606 0.8607
2221.000000 0.8607 0.8608 0.8608 0.8608 0.8608
2216.000000 0.8609 0.8609 0.8609 0.8609 0.8610
2211.000000 0.8610 0.8611 0.8611 0.8612 0.8612
2206.000000 0.8613 0.8613 0.8614 0.8614 0.8615
2201.000000 0.8615 0.8615 0.8616 0.8617 0.8617
2196.000000 0.8618 0.8618 0.8620 0.8621 0.8621
2191.000000 0.8621 0.8623 0.8623 0.8624 0.8625
2186.000000 0.8628 0.8631 0.8635 0.8638 0.8642
2181.000000 0.8650 0.8658 0.8666 0.8675 0.8678
2176.000000 0.8684 0.8687 0.8691 0.8690 0.8689
2171.000000 0.8685 0.8681 0.8675 0.8671 0.8670
2166.000000 0.8668 0.8665 0.8663 0.8660 0.8658
2161.000000 0.8656 0.8654 0.8652 0.8650 0.8649
2156.000000 0.8648 0.8647 0.8647 0.8646 0.8645
2151.000000 0.8644 0.8643 0.8642 0.8642 0.8641
2146.000000 0.8640 0.8639 0.8638 0.8637 0.8637
2141.000000 0.8636 0.8635 0.8634 0.8633 0.8632
2136.000000 0.8632 0.8631 0.8630 0.8628 0.8628
2131.000000 0.8628 0.8627 0.8625 0.8624 0.8621
2126.000000 0.8601 0.8618 0.8617 0.8615 0.8613
2121.000000 0.8611 0.8609 0.8607 0.8605 0.8603
2116.000000 0.8601 0.8598 0.8596 0.8594 0.8592
2111.000000 0.8590 0.8589 0.8588 0.8588 0.8587
2106.000000 0.8587 0.8587 0.8587 0.8586 0.8586
2101.000000 0.8585 0.8585 0.8584 0.8584 0.8584
2096.000000 0.8584 0.8583 0.8583 0.8582 0.8582
2091.000000 0.8582 0.8582 0.8581 0.8581 0.8580
2086.000000 0.8580 0.8580 0.8580 0.8578 0.8578
2081.000000 0.8578 0.8578 0.8578 0.8578 0.8578
2076.000000 0.8578 0.8578 0.8580 0.8580 0.8580
2071.000000 0.8580 0.8580 0.8580 0.8580 0.8580
2066.000000 0.8581 0.8581 0.8581 0.8581 0.8581
2061.000000 0.8581 0.8581 0.8581 0.8581 0.8581
2056.000000 0.8582 0.8582 0.8582 0.8582 0.8582
2051.000000 0.8582 0.8582 0.8583 0.8584 0.8585
2046.000000 0.8586 0.8587 0.8589 0.8590 0.8591
2041.000000 0.8592 0.8593 0.8594 0.8596 0.8596
2036.000000 0.8597 0.8597 0.8598 0.8598 0.8599
2031.000000 0.8599 0.8600 0.8600 0.8601 0.8602
2026.000000 0.8603 0.8603 0.8604 0.8604 0.8605
2021.000000 0.8605 0.8606 0.8606 0.8607 0.8608
2016.000000 0.8609 0.8609 0.8610 0.8611 0.8612
2011.000000 0.8612 0.8613 0.8614 0.8615 0.8616
2006.000000 0.8617 0.8617 0.8617 0.8617 0.8618
2001.000000 0.8618 0.8618 0.8620 0.8620 0.8621
1996.000000 0.8621 0.8621 0.8616 0.8609 0.8594
1991.000000 0.8580 0.8575 0.8574 0.8573 0.8573
1986.000000 0.8571 0.8571 0.8571 0.8571 0.8571
1981.000000 0.8573 0.8574 0.8575 0.8575 0.8577
1976.000000 0.8578 0.8578 0.8580 0.8581 0.8582
1971.000000 0.8583 0.8584 0.8584 0.8584 0.8583
1966.000000 0.8582 0.8581 0.8581 0.8580 0.8578
1961.000000 0.8578 0.8577 0.8575 0.8575 0.8574
1956.000000 0.8573 0.8573 0.8571 0.8571 0.8570
1951.000000 0.8568 0.8568 0.8567 0.8566 0.8565
1946.000000 0.8564 0.8563 0.8563 0.8562 0.8561
1941.000000 0.8559 0.8558 0.8557 0.8556 0.8555
1936.000000 0.8554 0.8553 0.8552 0.8551 0.8550
1931.000000 0.8549 0.8548 0.8547 0.8546 0.8544
1926.000000 0.8543 0.8542 0.8541 0.8540 0.8539
1921.000000 0.8538 0.8537 0.8536 0.8535 0.8533
1916.000000 0.8532 0.8531 0.8528 0.8527 0.8525
1911.000000 0.8524 0.8521 0.8520 0.8518 0.8517
1906.000000 0.8515 0.8513 0.8512 0.8510 0.8508
1901.000000 0.8506 0.8505 0.8503 0.8501 0.8499
1896.000000 0.8496 0.8494 0.8491 0.8488 0.8485
1891.000000 0.8483 0.8480 0.8477 0.8474 0.8471
1886.000000 0.8468 0.8466 0.8461 0.8455 0.8449
1881.000000 0.8443 0.8437 0.8432 0.8425 0.8421
1876.000000 0.8418 0.8416 0.8412 0.8407 0.8402
1871.000000 0.8398 0.8393 0.8388 0.8383 0.8378
1866.000000 0.8374 0.8368 0.8365 0.8362 0.8359
1861.000000 0.8356 0.8353 0.8350 0.8345 0.8341
1856.000000 0.8337 0.8333 0.8328 0.8325 0.8320
1851.000000 0.8316 0.8312 0.8307 0.8303 0.8298
1846.000000 0.8294 0.8288 0.8278 0.8268 0.8259
1841.000000 0.8249 0.8239 0.8231 0.8223 0.8215
1836.000000 0.8207 0.8199 0.8191 0.8182 0.8172
1831.000000 0.8164 0.8155 0.8145 0.8136 0.8126
1826.000000 0.8118 0.8101 0.8084 0.8067 0.8049
1821.000000 0.8032 0.8017 0.8001 0.7988 0.7972
1816.000000 0.7958 0.7942 0.7924 0.7905 0.7887
1811.000000 0.7868 0.7850 0.7830 0.7804 0.7778
1806.000000 0.7751 0.7726 0.7701 0.7671 0.7635
1801.000000 0.7597 0.7558 0.7525 0.7494 0.7464
1796.000000 0.7433 0.7403 0.7361 0.7314 0.7265
1791.000000 0.7218 0.7160 0.7099 0.7038 0.6975
1786.000000 0.6855 0.6701 0.6518 0.6304 0.6140
1781.000000 0.6005 0.5862 0.5688 0.5472 0.5240
1776.000000 0.5070 0.4898 0.4707 0.4333 0.3520
1771.000000 0.3006 0.2662 0.2452 0.2317 0.2182
1766.000000 0.1883 0.1611 0.1446 0.1280 0.1114
1761.000000 0.0949 0.0783 0.0617 0.0467 0.0377
1756.000000 0.0295 0.0234 0.0178 0.0137 0.0111
1751.000000 0.0090 0.0080 0.0070 0.0066 0.0063
1746.000000 0.0061 0.0058 0.0055 0.0052 0.0051
1741.000000 0.0050 0.0049 0.0047 0.0047 0.0047
1736.000000 0.0047 0.0049 0.0051 0.0052 0.0056
1731.000000 0.0060 0.0065 0.0070 0.0082 0.0097
1726.000000 0.0125 0.0172 0.0292 0.0649 0.0992
1721.000000 0.1278 0.1524 0.2440 0.2803 0.3154
1716.000000 0.3407 0.3632 0.3847 0.4041 0.4498
1711.000000 0.4792 0.5015 0.5159 0.5272 0.5394
1706.000000 0.5528 0.5651 0.5767 0.5845 0.5898
1701.000000 0.5951 0.6002 0.6050 0.6099 0.6152
1696.000000 0.6227 0.6302 0.6387 0.6471 0.6560
1691.000000 0.6657 0.6754 0.6837 0.6893 0.6948
1686.000000 0.7004 0.7058 0.7121 0.7203 0.7285
1681.000000 0.7340 0.7384 0.7428 0.7471 0.7515
1676.000000 0.7544 0.7571 0.7598 0.7625 0.7650
1671.000000 0.7667 0.7685 0.7703 0.7719 0.7738
1666.000000 0.7751 0.7765 0.7781 0.7795 0.7801
1661.000000 0.7807 0.7812 0.7818 0.7824 0.7828
1656.000000 0.7835 0.7839 0.7843 0.7846 0.7850
1651.000000 0.7854 0.7857 0.7858 0.7860 0.7861
1646.000000 0.7862 0.7864 0.7865 0.7869 0.7882
1641.000000 0.7893 0.7905 0.7915 0.7928 0.7939
1636.000000 0.7951 0.7961 0.7974 0.7985 0.7996
1631.000000 0.8008 0.8018 0.8030 0.8041 0.8051
1626.000000 0.8064 0.8075 0.8086 0.8097 0.8106
1621.000000 0.8112 0.8119 0.8126 0.8133 0.8140
1616.000000 0.8147 0.8153 0.8160 0.8167 0.8174
1611.000000 0.8180 0.8187 0.8194 0.8201 0.8208
1606.000000 0.8215 0.8221 0.8228 0.8236 0.8243
1601.000000 0.8250 0.8257 0.8264 0.8270 0.8275
1596.000000 0.8280 0.8284 0.8289 0.8294 0.8298
1591.000000 0.8303 0.8308 0.8311 0.8313 0.8315
1586.000000 0.8317 0.8318 0.8321 0.8324 0.8325
1581.000000 0.8328 0.8331 0.8331 0.8331 0.8331
1576.000000 0.8331 0.8331 0.8330 0.8330 0.8330
1571.000000 0.8328 0.8328 0.8328 0.8327 0.8325
1566.000000 0.8325 0.8327 0.8328 0.8330 0.8332
1561.000000 0.8334 0.8337 0.8339 0.8341 0.8344
1556.000000 0.8346 0.8348 0.8352 0.8356 0.8360
1551.000000 0.8364 0.8368 0.8371 0.8396 0.8373
1546.000000 0.8374 0.8375 0.8375 0.8377 0.8377
1541.000000 0.8377 0.8377 0.8375 0.8371 0.8368
1536.000000 0.8365 0.8362 0.8348 0.8333 0.8318
1531.000000 0.8300 0.8277 0.8254 0.8243 0.8234
1526.000000 0.8228 0.8225 0.8221 0.8217 0.8209
1521.000000 0.8202 0.8194 0.8187 0.8178 0.8169
1516.000000 0.8156 0.8142 0.8128 0.8115 0.8101
1511.000000 0.8087 0.8068 0.8050 0.8030 0.8011
1506.000000 0.7991 0.7971 0.7953 0.7933 0.7914
1501.000000 0.7891 0.7865 0.7839 0.7812 0.7788
1496.000000 0.7761 0.7733 0.7703 0.7674 0.7644
1491.000000 0.7615 0.7586 0.7558 0.7530 0.7501
1486.000000 0.7474 0.7446 0.7418 0.7368 0.7299
1481.000000 0.7114 0.6887 0.6691 0.5925 0.5562
1476.000000 0.5031 0.4499 0.3966 0.3434 0.2903
1471.000000 0.2371 0.1839 0.1629 0.1636 0.1884
1466.000000 0.2133 0.2381 0.2629 0.2647 0.2635
1461.000000 0.2614 0.2590 0.2582 0.2582 0.2734
1456.000000 0.2901 0.3068 0.3234 0.3400 0.3568
1451.000000 0.3734 0.3900 0.4068 0.4234 0.4401
1446.000000 0.4568 0.4734 0.4792 0.4793 0.4771
1441.000000 0.4698 0.4617 0.4510 0.4474 0.4446
1436.000000 0.4433 0.4433 0.4453 0.4498 0.4543
1431.000000 0.4588 0.4633 0.4678 0.4723 0.4798
1426.000000 0.4836 0.4852 0.4856 0.4857 0.4858
1421.000000 0.4842 0.4818 0.4780 0.4737 0.4691
1416.000000 0.4637 0.4581 0.4515 0.4467 0.4504
1411.000000 0.4537 0.4585 0.4636 0.4687 0.4756
1406.000000 0.4786 0.4809 0.4810 0.4810 0.4782
1401.000000 0.4452 0.3968 0.3486 0.3084 0.2985
1396.000000 0.2924 0.2884 0.2845 0.2864 0.3032
1391.000000 0.3229 0.3425 0.3620 0.3634 0.3647
1386.000000 0.3647 0.3329 0.2992 0.2655 0.2317
1381.000000 0.2062 0.2050 0.2044 0.2040 0.2035
1376.000000 0.2004 0.1950 0.1779 0.1611 0.1511
1371.000000 0.1485 0.1586 0.1785 0.1984 0.2184
1366.000000 0.2384 0.2584 0.2784 0.2868 0.2890
1361.000000 0.2923 0.2898 0.2876 0.2837 0.2799
1356.000000 0.2760 0.2727 0.2695 0.2671 0.2653
1351.000000 0.2617 0.2631 0.2638 0.2650 0.2685
1346.000000 0.2745 0.2880 0.3018 0.3109 0.3187
1341.000000 0.3284 0.3472 0.3557 0.3559 0.3566
1336.000000 0.3608 0.3705 0.3810 0.3937 0.4064
1331.000000 0.4190 0.4317 0.4444 0.4465 0.4483
1326.000000 0.4502 0.4525 0.4551 0.4576 0.4603
1321.000000 0.4631 0.4659 0.4688 0.4719 0.4745
1316.000000 0.4767 0.4783 0.4790 0.4798 0.4821
1311.000000 0.4810 0.4804 0.4790 0.4759 0.4704
1306.000000 0.4591 0.4428 0.3970 0.3755 0.3541
1301.000000 0.3327 0.3113 0.2898 0.2776 0.2689
1296.000000 0.2517 0.2233 0.1917 0.1686 0.1481
1291.000000 0.1399 0.1370 0.1346 0.1324 0.1311
1286.000000 0.1305 0.1298 0.1296 0.1292 0.1292
1281.000000 0.1306 0.1323 0.1341 0.1361 0.1382
1276.000000 0.1402 0.1423 0.1446 0.1474 0.1501
1271.000000 0.1528 0.1554 0.1586 0.1627 0.1668
1266.000000 0.1710 0.1751 0.1782 0.1813 0.1844
1261.000000 0.1876 0.1908 0.1940 0.1973 0.1995
1256.000000 0.2018 0.2040 0.2060 0.2090 0.2073
1251.000000 0.2072 0.2072 0.2041 0.1999 0.1914
1246.000000 0.1795 0.1698 0.1594 0.1445 0.1317
1241.000000 0.1229 0.1146 0.1080 0.1013 0.0949
1236.000000 0.0896 0.0842 0.0794 0.0757 0.0720
1231.000000 0.0689 0.0662 0.0639 0.0617 0.0601
1226.000000 0.0590 0.0566 0.0577 0.0576 0.0595
1221.000000 0.0625 0.0659 0.0694 0.0729 0.0762
1216.000000 0.0793 0.0822 0.0853 0.0882 0.0908
1211.000000 0.0934 0.0960 0.0979 0.0991 0.1002
1206.000000 0.1013 0.1024 0.1034 0.1045 0.1042
1201.000000 0.1042 0.1040 0.1036 0.1024 0.1012
1196.000000 0.0989 0.0956 0.0922 0.0872 0.0812
1191.000000 0.0751 0.0698 0.0648 0.0599 0.0567
1186.000000 0.0534 0.0503 0.0486 0.0469 0.0451
1181.000000 0.0434 0.0416 0.0400 0.0389 0.0347
1176.000000 0.0377 0.0373 0.0370 0.0368 0.0423
1171.000000 0.0540 0.0678 0.0865 0.1055 0.1194
1166.000000 0.1320 0.1403 0.1485 0.1595 0.1717
1161.000000 0.1771 0.1825 0.1870 0.1913 0.1939
1156.000000 0.1964 0.1989 0.2004 0.2017 0.2024
1151.000000 0.2029 0.2034 0.2016 0.1998 0.1976
1146.000000 0.1939 0.1906 0.1879 0.1853 0.1833
1141.000000 0.1817 0.1802 0.1796 0.1748 0.1794
1136.000000 0.1807 0.1828 0.1852 0.1904 0.1982
1131.000000 0.2073 0.2180 0.2298 0.2419 0.2552
1126.000000 0.2684 0.2831 0.3009 0.3230 0.3408
1121.000000 0.3586 0.3762 0.3941 0.4119 0.4289
1116.000000 0.4404 0.4518 0.4677 0.4835 0.4959
1111.000000 0.5083 0.5180 0.5262 0.5339 0.5408
1106.000000 0.5477 0.5543 0.5596 0.5648 0.5700
1101.000000 0.5751 0.5801 0.5849 0.5890 0.5931
1096.000000 0.5962 0.5991 0.6007 0.6023 0.6038
1091.000000 0.6047 0.6054 0.6054 0.6054 0.6032
1086.000000 0.6006 0.5975 0.5910 0.5838 0.5738
1081.000000 0.5359 0.4214 0.4041 0.3866 0.3703
1076.000000 0.3500 0.3320 0.3247 0.3208 0.3177
1071.000000 0.3149 0.3121 0.3094 0.3071 0.3033
1066.000000 0.3058 0.3057 0.3066 0.3076 0.3114
1061.000000 0.3166 0.3243 0.3316 0.3388 0.3458
1056.000000 0.3487 0.3505 0.3514 0.3524 0.3505
1051.000000 0.3462 0.3328 0.3210 0.3093 0.2976
1046.000000 0.2858 0.2759 0.2668 0.2584 0.2533
1041.000000 0.2507 0.2475 0.2489 0.2498 0.2538
1036.000000 0.2602 0.2667 0.2746 0.2931 0.3304
1031.000000 0.3677 0.4050 0.4422 0.4733 0.4926
1026.000000 0.5060 0.5162 0.5203 0.5236 0.5221
1021.000000 0.5222 0.5180 0.5094 0.4808 0.4399
1016.000000 0.3989 0.3580 0.3314 0.3228 0.3205
1011.000000 0.3193 0.3182 0.3177 0.3171 0.3164
1006.000000 0.3143 0.3121 0.3071 0.2983 0.2895
1001.000000 0.2807 0.2719 0.2631 0.2543 0.2455
996.000000 0.2366 0.2278 0.2188 0.2161 0.2150
991.000000 0.2154 0.2209 0.2316 0.2446 0.2594
986.000000 0.2744 0.2898 0.3083 0.3674 0.3953
981.000000 0.4147 0.4360 0.4560 0.4673 0.4786
976.000000 0.4885 0.4978 0.5071 0.5260 0.5376
971.000000 0.5469 0.5546 0.5622 0.5699 0.5774
966.000000 0.5846 0.5914 0.5978 0.6033 0.6062
961.000000 0.6076 0.6080 0.6070 0.6049 0.6023
956.000000 0.5990 0.5964 0.5942 0.5934 0.5934
951.000000 0.5949 0.5968 0.5987 0.6008 0.6032
946.000000 0.6056 0.6105 0.6158 0.6223 0.6303
941.000000 0.6357 0.6404 0.6450 0.6492 0.6519
936.000000 0.6549 0.6576 0.6606 0.6628 0.6651
931.000000 0.6672 0.6689 0.6699 0.6700 0.6701
926.000000 0.6694 0.6687 0.6681 0.6678 0.6678
921.000000 0.6690 0.6710 0.6730 0.6761 0.6805
916.000000 0.6848 0.6889 0.6925 0.6962 0.7001
911.000000 0.7028 0.7051 0.7072 0.7095 0.7117
906.000000 0.7134 0.7148 0.7162 0.7176 0.7187
901.000000 0.7195 0.7203 0.7211 0.7217 0.7222
896.000000 0.7228 0.7238 0.7248 0.7258 0.7271
891.000000 0.7287 0.7301 0.7318 0.7336 0.7353
886.000000 0.7369 0.7390 0.7417 0.7444 0.7471
881.000000 0.7521 0.7604 0.7661 0.7718 0.7765
876.000000 0.7801 0.7838 0.7865 0.7891 0.7906
871.000000 0.7911 0.7918 0.7922 0.7928 0.7935
866.000000 0.7941 0.7947 0.7953 0.7958 0.7965
861.000000 0.7974 0.7981 0.7989 0.7997 0.8005
856.000000 0.8015 0.8025 0.8036 0.8049 0.8075
851.000000 0.8108 0.8146 0.8178 0.8197 0.8208
846.000000 0.8218 0.8234 0.8234 0.8233 0.8225
841.000000 0.8213 0.8200 0.8187 0.8172 0.8160
836.000000 0.8147 0.8128 0.8107 0.8084 0.8078
831.000000 0.8078 0.8078 0.8078 0.8078 0.8076
826.000000 0.8075 0.8075 0.8074 0.8072 0.8072
821.000000 0.8071 0.8071 0.8069 0.8068 0.8068
816.000000 0.8068 0.8068 0.8068 0.8068 0.8068
811.000000 0.8067 0.8064 0.8061 0.8058 0.8056
806.000000 0.8053 0.8047 0.8039 0.8018 0.7978
801.000000 0.7918 0.7861 0.7824 0.7786 0.7749
796.000000 0.7712 0.7680 0.7647 0.7624 0.7603
791.000000 0.7606 0.7605 0.7611 0.7628 0.7654
786.000000 0.7680 0.7706 0.7736 0.7765 0.7796
781.000000 0.7810 0.7818 0.7825 0.7826 0.7828
776.000000 0.7835 0.7845 0.7856 0.7865 0.7876
771.000000 0.7895 0.7915 0.7935 0.7958 0.7993
766.000000 0.8028 0.8065 0.8090 0.8115 0.8140
761.000000 0.8165 0.8197 0.8221 0.8238 0.8253
756.000000 0.8264 0.8270 0.8273 0.8268 0.8259
751.000000 0.8247 0.8232 0.8178 0.8119 0.8051
746.000000 0.7983 0.7911 0.7839 0.7762 0.7661
741.000000 0.7485 0.7308 0.7138 0.7118 0.7124
736.000000 0.7136 0.7171 0.7426 0.7624 0.7775
731.000000 0.7904 0.7981 0.8048 0.8108 0.8160
726.000000 0.8211 0.8262 0.8307 0.8342 0.8375
721.000000 0.8411 0.8439 0.8459 0.8478 0.8498
716.000000 0.8518 0.8537 0.8551 0.8562 0.8571
711.000000 0.8583 0.8594 0.8602 0.8609 0.8617
706.000000 0.8625 0.8632 0.8640 0.8643 0.8646
701.000000 0.8650 0.8653 0.8656 0.8660 0.8659
696.000000 0.8657 0.8655 0.8654 0.8652 0.8650
691.000000 0.8646 0.8638 0.8628 0.8620 0.8611
686.000000 0.8603 0.8588 0.8567 0.8546 0.8525
681.000000 0.8499 0.8471 0.8443 0.8412 0.8381
676.000000 0.8350 0.8314 0.8275 0.8240 0.8205
671.000000 0.8168 0.8128 0.8081 0.8015 0.7976
666.000000 0.7937 0.7898 0.7871 0.7914 0.7926
661.000000 0.7931 0.7934 0.7934 0.7934 0.7911
656.000000 0.7858 0.7799 0.7757 0.7734 0.7721
651.000000 0.7705 0.7705 0.7705 0.7701 0.7708
646.000000 0.7717 0.7738 0.7764 0.7789 0.7818
641.000000 0.7851 0.7884 0.7915 0.7949 0.7984
636.000000 0.8019 0.8055 0.8086 0.8117 0.8147
631.000000 0.8175 0.8196 0.8217 0.8239 0.8258
626.000000 0.8268 0.8277 0.8287 0.8297 0.8302
621.000000 0.8304 0.8306 0.8318 0.8310 0.8310
616.000000 0.8305 0.8300 0.8294 0.8283 0.8268
611.000000 0.8255 0.8240 0.8202 0.8157 0.8110
606.000000 0.8057 0.7999 0.7936 0.7836 0.7778
601.000000 0.7739 0.7701 0.7661 0.7617 0.7638
596.000000 0.7628 0.7618 0.7630 0.7671 0.7721
591.000000 0.7769 0.7793 0.7815 0.7839 0.7861
586.000000 0.7885 0.7908 0.7932 0.7949 0.7965
581.000000 0.7982 0.7999 0.8015 0.8032 0.8046
576.000000 0.8058 0.8072 0.8086 0.8100 0.8112
571.000000 0.8126 0.8137 0.8146 0.8155 0.8165
566.000000 0.8174 0.8183 0.8193 0.8202 0.8212
561.000000 0.8221 0.8228 0.8238 0.8247 0.8256
556.000000 0.8262 0.8267 0.8271 0.8275 0.8281
551.000000 0.8281 0.8281 0.8280 0.8275 0.8297
546.000000 0.8261 0.8255 0.8248 0.8242 0.8235
541.000000 0.8228 0.8221 0.8212 0.8202 0.8193
536.000000 0.8183 0.8169 0.8157 0.8144 0.8126
531.000000 0.8107 0.8087 0.8065 0.8044 0.8034
526.000000 0.8034 0.8034 0.8033 0.8033 0.8033
521.000000 0.8033 0.8034 0.8034 0.8035 0.8035
516.000000 0.8036 0.8036 0.8037 0.8037 0.8037
511.000000 0.8037 0.8036 0.8034 0.8033 0.8032
506.000000 0.8030 0.8025 0.8021 0.8015 0.8011
501.000000 0.8006 0.8001 0.7996 0.7991 0.7984
496.000000 0.7976 0.7969 0.7962 0.7955 0.7948
491.000000 0.7942 0.7935 0.7928 0.7921 0.7915
486.000000 0.7905 0.7891 0.7878 0.7864 0.7850
481.000000 0.7836 0.7821 0.7815 0.7808 0.7803
476.000000 0.7798 0.7792 0.7790 0.7789 0.7789
471.000000 0.7789 0.7789 0.7789 0.7788 0.7788
466.000000 0.7787 0.7786 0.7784 0.7783 0.7781
461.000000 0.7780 0.7778 0.7776 0.7772 0.7761
456.000000 0.7751 0.7740 0.7728 0.7718 0.7707
451.000000 0.7694 0.7682 0.7668 0.7657 0.7650
446.000000 0.7646 0.7643 0.7639 0.7638 0.7637
441.000000 0.7640 0.7643 0.7646 0.7649 0.7651
436.000000 0.7654 0.7655 0.7655 0.7655 0.7656
431.000000 0.7656 0.7656 0.7656 0.7657 0.7657
426.000000 0.7657 0.7658 0.7658 0.7658 0.7658
421.000000 0.7658 0.7660 0.7661 0.7661 0.7686
416.000000 0.7662 0.7664 0.7664 0.7665 0.7665
411.000000 0.7667 0.7667 0.7668 0.7668 0.7669
406.000000 0.7671 0.7671 0.7671 0.7672 0.7674
401.000000 0.7675 0.7675 0.7675 0.7675 0.7676
396.000000 0.7676 0.7678 0.7678 0.7676 0.7676
391.000000 0.7676 0.7674
##END=
