##TITLE=Calcium phosphate hydroxide
##JCAMP-DX=4.24
##DATA TYPE=INFRARED SPECTRUM
##CLASS=COBLENTZ III
##ORIGIN=COLGATE-PALMOLIVE COMPANY (KELLENBACH)
##OWNER=Copyright (C) 1987 by the Coblentz Society
Collection (C) 2018 copyright by the U.S. Secretary of Commerce
on behalf of the United States of America. All rights reserved.
##DATE=1970/11/13
##NAMES=HYDROXYAPATITE
##MOLFORM=H2 O26 P6 Ca10
##SOURCE REFERENCE=COBLENTZ NO. 9792
##$NIST ID=B6009792
##$NIST SOURCE=COBLENTZ
##$NIST IMAGE=cob9792
##SPECTROMETER/DATA SYSTEM=BECKMAN IR-12 (GRATING)
##INSTRUMENT PARAMETERS=GRATING
##STATE=SOLID (1 mg / 100 mg, KBr DISC)
$$ SOURCE - BIO-RAD LABS
$$SPECTRAL CONTAMINATION DUE TO AN UNKNOWN AROUND 2340 CM^-^1
##SAMPLING PROCEDURE=TRANSMISSION
##RESOLUTION=2
##DATA PROCESSING=DIGITIZED BY COBLENTZ SOCIETY (BATCH II) FROM HARD COPY
##XUNITS=1/CM
##YUNITS=TRANSMITTANCE
##XFACTOR=1.0
##YFACTOR=1
##FIRSTX=203
##LASTX=4002
##FIRSTY=0.1217
##MAXX=4002
##MINX=203
##MAXY=0.9587
##MINY=0.0058
##NPOINTS=3800
##XYDATA=(X++(Y..Y))
203.000000 0.1217 0.1205 0.1193 0.1181 0.1169
208.000000 0.1156 0.1144 0.1132 0.1120 0.1107
213.000000 0.1095 0.1083 0.1071 0.1058 0.1046
218.000000 0.1035 0.1023 0.1011 0.1002 0.0998
223.000000 0.0995 0.0991 0.0988 0.0976 0.0983
228.000000 0.0988 0.0992 0.0997 0.1001 0.1009
233.000000 0.1021 0.1034 0.1046 0.1058 0.1071
238.000000 0.1091 0.1111 0.1132 0.1152 0.1173
243.000000 0.1195 0.1218 0.1240 0.1262 0.1285
248.000000 0.1307 0.1330 0.1352 0.1380 0.1407
253.000000 0.1434 0.1461 0.1488 0.1528 0.1569
258.000000 0.1610 0.1643 0.1660 0.1677 0.1694
263.000000 0.1707 0.1723 0.1698 0.1694 0.1681
268.000000 0.1661 0.1637 0.1604 0.1571 0.1538
273.000000 0.1505 0.1473 0.1449 0.1442 0.1435
278.000000 0.1424 0.1410 0.1402 0.1392 0.1380
283.000000 0.1368 0.1357 0.1345 0.1333 0.1322
288.000000 0.1314 0.1308 0.1302 0.1295 0.1289
293.000000 0.1283 0.1282 0.1281 0.1280 0.1279
298.000000 0.1278 0.1249 0.1277 0.1282 0.1286
303.000000 0.1291 0.1297 0.1304 0.1311 0.1320
308.000000 0.1336 0.1351 0.1367 0.1395 0.1434
313.000000 0.1472 0.1533 0.1604 0.1671 0.1732
318.000000 0.1793 0.1855 0.1910 0.1964 0.2004
323.000000 0.2024 0.2045 0.2063 0.2064 0.2065
328.000000 0.2066 0.2067 0.2088 0.2139 0.2214
333.000000 0.2266 0.2288 0.2301 0.2313 0.2325
338.000000 0.2337 0.2349 0.2352 0.2355 0.2358
343.000000 0.2361 0.2364 0.2367 0.2370 0.2372
348.000000 0.2374 0.2375 0.2377 0.2378 0.2380
353.000000 0.2381 0.2383 0.2387 0.2391 0.2395
358.000000 0.2400 0.2413 0.2439 0.2464 0.2519
363.000000 0.2574 0.2627 0.2676 0.2725 0.2774
368.000000 0.2823 0.2896 0.2970 0.3084 0.3221
373.000000 0.3357 0.3494 0.3631 0.3768 0.3905
378.000000 0.4041 0.4178 0.4315 0.4452 0.4588
383.000000 0.4725 0.4862 0.5062 0.5164 0.5242
388.000000 0.5320 0.5398 0.5682 0.5863 0.6009
393.000000 0.6127 0.6239 0.6339 0.6434 0.6521
398.000000 0.6584 0.6647 0.6683 0.6702 0.6720
403.000000 0.6739 0.6778 0.6835 0.6905 0.6980
408.000000 0.7058 0.7138 0.7218 0.7269 0.7315
413.000000 0.7361 0.7408 0.7449 0.7489 0.7528
418.000000 0.7565 0.7585 0.7606 0.7616 0.7611
423.000000 0.7607 0.7602 0.7597 0.7592 0.7588
428.000000 0.7597 0.7624 0.7653 0.7681 0.7707
433.000000 0.7729 0.7751 0.7772 0.7791 0.7810
438.000000 0.7823 0.7833 0.7842 0.7851 0.7861
443.000000 0.7870 0.7880 0.7889 0.7891 0.7893
448.000000 0.7894 0.7896 0.7898 0.7899 0.7904
453.000000 0.7902 0.7904 0.7900 0.7892 0.7883
458.000000 0.7875 0.7866 0.7855 0.7845 0.7834
463.000000 0.7823 0.7813 0.7801 0.7784 0.7767
468.000000 0.7750 0.7733 0.7715 0.7699 0.7684
473.000000 0.7669 0.7654 0.7639 0.7624 0.7611
478.000000 0.7601 0.7590 0.7579 0.7557 0.7581
483.000000 0.7583 0.7585 0.7587 0.7589 0.7595
488.000000 0.7602 0.7608 0.7614 0.7620 0.7626
493.000000 0.7635 0.7647 0.7658 0.7670 0.7681
498.000000 0.7693 0.7708 0.7724 0.7740 0.7751
503.000000 0.7751 0.7750 0.7773 0.7740 0.7733
508.000000 0.7726 0.7719 0.7711 0.7698 0.7684
513.000000 0.7671 0.7657 0.7644 0.7628 0.7611
518.000000 0.7595 0.7578 0.7562 0.7546 0.7527
523.000000 0.7500 0.7474 0.7447 0.7420 0.7394
528.000000 0.7367 0.7340 0.7296 0.7253 0.7210
533.000000 0.7167 0.7124 0.7081 0.7032 0.6976
538.000000 0.6921 0.6865 0.6809 0.6740 0.6663
543.000000 0.6586 0.6509 0.6424 0.6334 0.6243
548.000000 0.6152 0.6042 0.5923 0.5804 0.5327
553.000000 0.5056 0.4786 0.4516 0.4246 0.3976
558.000000 0.3706 0.3436 0.3166 0.2895 0.2625
563.000000 0.2355 0.2085 0.1745 0.1669 0.1642
568.000000 0.1614 0.1625 0.1630 0.1641 0.1665
573.000000 0.1697 0.1739 0.1797 0.1973 0.2158
578.000000 0.2343 0.2528 0.2713 0.2898 0.3084
583.000000 0.3269 0.3454 0.3639 0.3823 0.3862
588.000000 0.3914 0.3971 0.4029 0.4086 0.4155
593.000000 0.4148 0.4150 0.4023 0.3841 0.3659
598.000000 0.3477 0.3296 0.3114 0.2932 0.2750
603.000000 0.2569 0.2387 0.1881 0.2023 0.1903
608.000000 0.1906 0.1912 0.1982 0.2140 0.2297
613.000000 0.2455 0.2612 0.2770 0.2927 0.3085
618.000000 0.3243 0.3400 0.3558 0.3715 0.3873
623.000000 0.4031 0.4161 0.4164 0.4161 0.4157
628.000000 0.4130 0.4102 0.4074 0.4046 0.4018
633.000000 0.3990 0.3980 0.3986 0.4055 0.4131
638.000000 0.4207 0.4283 0.4359 0.4435 0.4511
643.000000 0.4587 0.4663 0.4727 0.4792 0.4856
648.000000 0.4963 0.5109 0.5278 0.5384 0.5549
653.000000 0.5671 0.5747 0.5824 0.5936 0.6133
658.000000 0.6321 0.6452 0.6535 0.6618 0.6700
663.000000 0.6757 0.6809 0.6862 0.6914 0.6957
668.000000 0.6998 0.7039 0.7080 0.7121 0.7162
673.000000 0.7203 0.7246 0.7289 0.7332 0.7375
678.000000 0.7412 0.7447 0.7482 0.7517 0.7552
683.000000 0.7587 0.7616 0.7642 0.7668 0.7694
688.000000 0.7720 0.7746 0.7772 0.7793 0.7809
693.000000 0.7825 0.7840 0.7856 0.7872 0.7887
698.000000 0.7903 0.7919 0.7934 0.7950 0.7966
703.000000 0.7981 0.7995 0.8008 0.8022 0.8036
708.000000 0.8050 0.8064 0.8078 0.8092 0.8105
713.000000 0.8116 0.8127 0.8137 0.8148 0.8158
718.000000 0.8169 0.8180 0.8190 0.8201 0.8211
723.000000 0.8222 0.8232 0.8240 0.8249 0.8258
728.000000 0.8266 0.8275 0.8284 0.8292 0.8301
733.000000 0.8310 0.8318 0.8326 0.8333 0.8340
738.000000 0.8346 0.8353 0.8360 0.8367 0.8374
743.000000 0.8380 0.8387 0.8394 0.8401 0.8406
748.000000 0.8409 0.8413 0.8417 0.8421 0.8424
753.000000 0.8428 0.8432 0.8436 0.8439 0.8443
758.000000 0.8445 0.8446 0.8447 0.8448 0.8449
763.000000 0.8450 0.8450 0.8451 0.8452 0.8453
768.000000 0.8454 0.8454 0.8455 0.8460 0.8466
773.000000 0.8471 0.8477 0.8482 0.8488 0.8493
778.000000 0.8499 0.8504 0.8510 0.8518 0.8526
783.000000 0.8533 0.8541 0.8548 0.8556 0.8561
788.000000 0.8563 0.8565 0.8567 0.8569 0.8571
793.000000 0.8573 0.8574 0.8576 0.8578 0.8578
798.000000 0.8579 0.8577 0.8577 0.8576 0.8576
803.000000 0.8576 0.8575 0.8568 0.8561 0.8554
808.000000 0.8547 0.8537 0.8526 0.8516 0.8505
813.000000 0.8495 0.8484 0.8473 0.8460 0.8447
818.000000 0.8434 0.8421 0.8408 0.8395 0.8383
823.000000 0.8370 0.8357 0.8343 0.8329 0.8314
828.000000 0.8300 0.8285 0.8271 0.8256 0.8242
833.000000 0.8229 0.8222 0.8215 0.8208 0.8201
838.000000 0.8194 0.8187 0.8180 0.8173 0.8166
843.000000 0.8158 0.8155 0.8153 0.8152 0.8150
848.000000 0.8149 0.8147 0.8145 0.8144 0.8142
853.000000 0.8141 0.8139 0.8140 0.8140 0.8141
858.000000 0.8172 0.8142 0.8142 0.8143 0.8143
863.000000 0.8144 0.8145 0.8145 0.8146 0.8146
868.000000 0.8147 0.8148 0.8150 0.8151 0.8153
873.000000 0.8154 0.8156 0.8157 0.8159 0.8160
878.000000 0.8162 0.8168 0.8176 0.8183 0.8191
883.000000 0.8199 0.8207 0.8211 0.8212 0.8213
888.000000 0.8214 0.8215 0.8214 0.8212 0.8210
893.000000 0.8208 0.8206 0.8203 0.8201 0.8199
898.000000 0.8196 0.8194 0.8191 0.8188 0.8186
903.000000 0.8183 0.8180 0.8183 0.8186 0.8189
908.000000 0.8193 0.8196 0.8200 0.8203 0.8206
913.000000 0.8204 0.8203 0.8202 0.8201 0.8200
918.000000 0.8199 0.8198 0.8197 0.8192 0.8186
923.000000 0.8180 0.8174 0.8169 0.8163 0.8157
928.000000 0.8151 0.8145 0.8133 0.8119 0.8105
933.000000 0.8092 0.8078 0.8064 0.8050 0.8037
938.000000 0.8021 0.7992 0.7964 0.7935 0.7906
943.000000 0.7876 0.7837 0.7799 0.7761 0.7722
948.000000 0.7682 0.7609 0.7536 0.7464 0.7371
953.000000 0.7276 0.7181 0.7084 0.6988 0.6891
958.000000 0.6768 0.6630 0.6274 0.6026 0.6006
963.000000 0.6000 0.6000 0.6003 0.6078 0.6199
968.000000 0.6320 0.6441 0.6562 0.6682 0.6782
973.000000 0.6782 0.6797 0.6781 0.6776 0.6770
978.000000 0.6755 0.6740 0.6706 0.6594 0.6503
983.000000 0.6415 0.6315 0.6189 0.6068 0.5975
988.000000 0.5881 0.5787 0.5695 0.5604 0.5512
993.000000 0.5379 0.5208 0.4995 0.4782 0.4570
998.000000 0.4357 0.4145 0.3932 0.3706 0.3259
1003.000000 0.3012 0.2801 0.2639 0.2489 0.2380
1008.000000 0.2272 0.1756 0.1305 0.0999 0.0847
1013.000000 0.0727 0.0650 0.0573 0.0501 0.0448
1018.000000 0.0395 0.0342 0.0289 0.0244 0.0201
1023.000000 0.0159 0.0153 0.0146 0.0139 0.0132
1028.000000 0.0125 0.0118 0.0111 0.0104 0.0100
1033.000000 0.0097 0.0095 0.0092 0.0090 0.0088
1038.000000 0.0085 0.0083 0.0080 0.0078 0.0075
1043.000000 0.0073 0.0070 0.0070 0.0069 0.0069
1048.000000 0.0068 0.0067 0.0067 0.0058 0.0065
1053.000000 0.0065 0.0064 0.0064 0.0063 0.0066
1058.000000 0.0068 0.0071 0.0074 0.0077 0.0080
1063.000000 0.0083 0.0086 0.0092 0.0097 0.0103
1068.000000 0.0109 0.0115 0.0120 0.0126 0.0132
1073.000000 0.0141 0.0151 0.0160 0.0170 0.0180
1078.000000 0.0190 0.0199 0.0208 0.0217 0.0226
1083.000000 0.0235 0.0244 0.0242 0.0238 0.0234
1088.000000 0.0231 0.0223 0.0213 0.0204 0.0194
1093.000000 0.0184 0.0175 0.0173 0.0171 0.0169
1098.000000 0.0169 0.0174 0.0179 0.0184 0.0196
1103.000000 0.0207 0.0220 0.0235 0.0251 0.0266
1108.000000 0.0281 0.0377 0.0506 0.0635 0.0764
1113.000000 0.0893 0.1022 0.1151 0.1279 0.1408
1118.000000 0.1537 0.1666 0.1795 0.1924 0.2053
1123.000000 0.2182 0.2310 0.2439 0.2568 0.2697
1128.000000 0.2826 0.2955 0.3339 0.3470 0.3623
1133.000000 0.3778 0.4270 0.4379 0.4489 0.4598
1138.000000 0.4707 0.4775 0.4835 0.4895 0.4955
1143.000000 0.5016 0.5076 0.5136 0.5223 0.5320
1148.000000 0.5416 0.5512 0.5604 0.5696 0.5787
1153.000000 0.5879 0.5971 0.6063 0.6156 0.6246
1158.000000 0.6325 0.6404 0.6483 0.6563 0.6642
1163.000000 0.6711 0.6767 0.6822 0.6877 0.6933
1168.000000 0.6988 0.7043 0.7098 0.7153 0.7207
1173.000000 0.7262 0.7317 0.7371 0.7408 0.7445
1178.000000 0.7483 0.7520 0.7558 0.7595 0.7633
1183.000000 0.7662 0.7688 0.7714 0.7740 0.7767
1188.000000 0.7793 0.7819 0.7845 0.7871 0.7903
1193.000000 0.7942 0.7980 0.8018 0.8056 0.8091
1198.000000 0.8126 0.8160 0.8194 0.8228 0.8262
1203.000000 0.8294 0.8315 0.8337 0.8358 0.8380
1208.000000 0.8401 0.8418 0.8435 0.8451 0.8468
1213.000000 0.8484 0.8499 0.8514 0.8528 0.8543
1218.000000 0.8558 0.8568 0.8575 0.8583 0.8591
1223.000000 0.8598 0.8606 0.8613 0.8621 0.8628
1228.000000 0.8636 0.8644 0.8651 0.8659 0.8666
1233.000000 0.8674 0.8682 0.8691 0.8699 0.8708
1238.000000 0.8717 0.8725 0.8734 0.8743 0.8751
1243.000000 0.8760 0.8769 0.8777 0.8786 0.8793
1248.000000 0.8801 0.8808 0.8816 0.8823 0.8831
1253.000000 0.8839 0.8846 0.8854 0.8861 0.8869
1258.000000 0.8877 0.8884 0.8892 0.8899 0.8907
1263.000000 0.8912 0.8917 0.8923 0.8928 0.8934
1268.000000 0.8939 0.8944 0.8950 0.8955 0.8960
1273.000000 0.8966 0.8971 0.8977 0.8982 0.8987
1278.000000 0.8993 0.8998 0.9004 0.9009 0.9014
1283.000000 0.9020 0.9026 0.9032 0.9038 0.9044
1288.000000 0.9050 0.9057 0.9063 0.9069 0.9075
1293.000000 0.9081 0.9087 0.9094 0.9100 0.9106
1298.000000 0.9112 0.9116 0.9118 0.9120 0.9123
1303.000000 0.9125 0.9127 0.9130 0.9132 0.9134
1308.000000 0.9137 0.9139 0.9141 0.9144 0.9144
1313.000000 0.9143 0.9142 0.9140 0.9139 0.9137
1318.000000 0.9136 0.9134 0.9133 0.9131 0.9133
1323.000000 0.9135 0.9138 0.9141 0.9144 0.9147
1328.000000 0.9149 0.9152 0.9155 0.9158 0.9157
1333.000000 0.9156 0.9155 0.9155 0.9154 0.9162
1338.000000 0.9175 0.9189 0.9202 0.9215 0.9229
1343.000000 0.9242 0.9253 0.9263 0.9274 0.9285
1348.000000 0.9295 0.9306 0.9314 0.9315 0.9317
1353.000000 0.9315 0.9312 0.9310 0.9307 0.9307
1358.000000 0.9305 0.9304 0.9302 0.9301 0.9299
1363.000000 0.9298 0.9296 0.9295 0.9293 0.9292
1368.000000 0.9291 0.9290 0.9290 0.9290 0.9290
1373.000000 0.9290 0.9290 0.9290 0.9290 0.9291
1378.000000 0.9291 0.9291 0.9292 0.9292 0.9292
1383.000000 0.9293 0.9289 0.9286 0.9282 0.9278
1388.000000 0.9274 0.9269 0.9265 0.9261 0.9256
1393.000000 0.9252 0.9247 0.9243 0.9239 0.9234
1398.000000 0.9230 0.9225 0.9221 0.9216 0.9211
1403.000000 0.9205 0.9200 0.9194 0.9189 0.9184
1408.000000 0.9178 0.9173 0.9167 0.9162 0.9157
1413.000000 0.9151 0.9146 0.9143 0.9139 0.9135
1418.000000 0.9131 0.9128 0.9130 0.9134 0.9139
1423.000000 0.9147 0.9156 0.9165 0.9174 0.9179
1428.000000 0.9180 0.9182 0.9183 0.9184 0.9185
1433.000000 0.9186 0.9170 0.9187 0.9185 0.9182
1438.000000 0.9180 0.9177 0.9175 0.9172 0.9170
1443.000000 0.9164 0.9158 0.9152 0.9145 0.9133
1448.000000 0.9120 0.9107 0.9088 0.9066 0.9045
1453.000000 0.9028 0.9023 0.9018 0.9012 0.9007
1458.000000 0.9004 0.9011 0.9027 0.9056 0.9084
1463.000000 0.9108 0.9131 0.9155 0.9179 0.9188
1468.000000 0.9196 0.9203 0.9197 0.9185 0.9176
1473.000000 0.9170 0.9164 0.9158 0.9175 0.9188
1478.000000 0.9202 0.9215 0.9227 0.9234 0.9240
1483.000000 0.9246 0.9252 0.9252 0.9249 0.9245
1488.000000 0.9241 0.9237 0.9233 0.9230 0.9231
1493.000000 0.9232 0.9240 0.9248 0.9255 0.9262
1498.000000 0.9266 0.9271 0.9275 0.9276 0.9273
1503.000000 0.9270 0.9267 0.9264 0.9261 0.9258
1508.000000 0.9255 0.9252 0.9248 0.9244 0.9240
1513.000000 0.9237 0.9233 0.9229 0.9225 0.9218
1518.000000 0.9211 0.9203 0.9196 0.9188 0.9181
1523.000000 0.9174 0.9176 0.9178 0.9180 0.9182
1528.000000 0.9184 0.9184 0.9182 0.9181 0.9178
1533.000000 0.9171 0.9164 0.9158 0.9151 0.9144
1538.000000 0.9137 0.9129 0.9121 0.9114 0.9115
1543.000000 0.9124 0.9134 0.9144 0.9155 0.9165
1548.000000 0.9175 0.9185 0.9195 0.9206 0.9211
1553.000000 0.9213 0.9215 0.9217 0.9216 0.9213
1558.000000 0.9210 0.9207 0.9204 0.9203 0.9202
1563.000000 0.9201 0.9200 0.9198 0.9198 0.9200
1568.000000 0.9202 0.9205 0.9207 0.9209 0.9211
1573.000000 0.9214 0.9217 0.9221 0.9225 0.9228
1578.000000 0.9232 0.9235 0.9236 0.9238 0.9239
1583.000000 0.9240 0.9242 0.9237 0.9228 0.9219
1588.000000 0.9209 0.9200 0.9191 0.9179 0.9167
1593.000000 0.9155 0.9143 0.9131 0.9119 0.9107
1598.000000 0.9095 0.9082 0.9067 0.9053 0.9038
1603.000000 0.9024 0.9009 0.8995 0.8980 0.8963
1608.000000 0.8946 0.8929 0.8912 0.8893 0.8872
1613.000000 0.8852 0.8831 0.8811 0.8790 0.8766
1618.000000 0.8736 0.8706 0.8678 0.8659 0.8639
1623.000000 0.8620 0.8600 0.8579 0.8558 0.8536
1628.000000 0.8515 0.8493 0.8478 0.8463 0.8449
1633.000000 0.8434 0.8423 0.8420 0.8427 0.8428
1638.000000 0.8430 0.8432 0.8434 0.8435 0.8437
1643.000000 0.8443 0.8449 0.8455 0.8460 0.8466
1648.000000 0.8472 0.8478 0.8489 0.8499 0.8510
1653.000000 0.8520 0.8531 0.8543 0.8554 0.8566
1658.000000 0.8579 0.8591 0.8604 0.8616 0.8629
1663.000000 0.8642 0.8654 0.8669 0.8686 0.8704
1668.000000 0.8721 0.8739 0.8756 0.8774 0.8791
1673.000000 0.8809 0.8826 0.8843 0.8861 0.8878
1678.000000 0.8895 0.8913 0.8930 0.8947 0.8965
1683.000000 0.8982 0.8999 0.9015 0.9031 0.9047
1688.000000 0.9063 0.9079 0.9097 0.9082 0.9070
1693.000000 0.9060 0.9050 0.9040 0.9030 0.9030
1698.000000 0.9036 0.9042 0.9063 0.9083 0.9104
1703.000000 0.9125 0.9144 0.9159 0.9174 0.9189
1708.000000 0.9204 0.9219 0.9224 0.9224 0.9225
1713.000000 0.9225 0.9225 0.9226 0.9226 0.9230
1718.000000 0.9236 0.9241 0.9249 0.9260 0.9270
1723.000000 0.9281 0.9292 0.9299 0.9298 0.9298
1728.000000 0.9297 0.9296 0.9295 0.9295 0.9294
1733.000000 0.9293 0.9292 0.9291 0.9291 0.9290
1738.000000 0.9289 0.9288 0.9288 0.9288 0.9288
1743.000000 0.9289 0.9290 0.9291 0.9291 0.9292
1748.000000 0.9299 0.9313 0.9327 0.9340 0.9358
1753.000000 0.9380 0.9401 0.9423 0.9444 0.9464
1758.000000 0.9477 0.9491 0.9505 0.9518 0.9532
1763.000000 0.9540 0.9538 0.9537 0.9531 0.9520
1768.000000 0.9508 0.9497 0.9485 0.9476 0.9484
1773.000000 0.9493 0.9502 0.9510 0.9519 0.9526
1778.000000 0.9533 0.9540 0.9546 0.9553 0.9555
1783.000000 0.9553 0.9552 0.9550 0.9548 0.9538
1788.000000 0.9528 0.9519 0.9509 0.9499 0.9492
1793.000000 0.9485 0.9478 0.9472 0.9467 0.9467
1798.000000 0.9466 0.9466 0.9466 0.9466 0.9465
1803.000000 0.9465 0.9465 0.9464 0.9464 0.9463
1808.000000 0.9463 0.9463 0.9462 0.9462 0.9462
1813.000000 0.9461 0.9461 0.9461 0.9460 0.9460
1818.000000 0.9462 0.9464 0.9466 0.9468 0.9470
1823.000000 0.9472 0.9474 0.9476 0.9478 0.9480
1828.000000 0.9481 0.9483 0.9485 0.9487 0.9489
1833.000000 0.9491 0.9495 0.9513 0.9505 0.9509
1838.000000 0.9514 0.9519 0.9523 0.9528 0.9532
1843.000000 0.9537 0.9542 0.9546 0.9551 0.9555
1848.000000 0.9559 0.9562 0.9565 0.9568 0.9571
1853.000000 0.9574 0.9577 0.9580 0.9584 0.9587
1858.000000 0.9587 0.9586 0.9585 0.9584 0.9583
1863.000000 0.9582 0.9581 0.9580 0.9578 0.9575
1868.000000 0.9572 0.9569 0.9566 0.9563 0.9561
1873.000000 0.9558 0.9555 0.9552 0.9549 0.9546
1878.000000 0.9543 0.9541 0.9538 0.9535 0.9532
1883.000000 0.9529 0.9526 0.9524 0.9522 0.9521
1888.000000 0.9520 0.9518 0.9517 0.9515 0.9514
1893.000000 0.9512 0.9511 0.9509 0.9508 0.9507
1898.000000 0.9505 0.9504 0.9504 0.9503 0.9502
1903.000000 0.9501 0.9500 0.9499 0.9499 0.9498
1908.000000 0.9497 0.9496 0.9495 0.9495 0.9494
1913.000000 0.9493 0.9492 0.9490 0.9489 0.9488
1918.000000 0.9486 0.9485 0.9483 0.9482 0.9481
1923.000000 0.9479 0.9478 0.9477 0.9475 0.9474
1928.000000 0.9473 0.9471 0.9469 0.9467 0.9464
1933.000000 0.9462 0.9460 0.9458 0.9456 0.9454
1938.000000 0.9452 0.9450 0.9448 0.9447 0.9447
1943.000000 0.9448 0.9448 0.9448 0.9449 0.9450
1948.000000 0.9451 0.9452 0.9453 0.9454 0.9455
1953.000000 0.9457 0.9452 0.9446 0.9441 0.9435
1958.000000 0.9430 0.9424 0.9419 0.9414 0.9408
1963.000000 0.9398 0.9387 0.9376 0.9365 0.9355
1968.000000 0.9344 0.9333 0.9322 0.9312 0.9300
1973.000000 0.9289 0.9278 0.9267 0.9256 0.9245
1978.000000 0.9234 0.9223 0.9212 0.9201 0.9190
1983.000000 0.9179 0.9168 0.9157 0.9146 0.9135
1988.000000 0.9124 0.9114 0.9103 0.9087 0.9072
1993.000000 0.9056 0.9040 0.9025 0.9009 0.8993
1998.000000 0.8977 0.8962 0.8944 0.8920 0.8896
2003.000000 0.8884 0.8872 0.8872 0.8872 0.8872
2008.000000 0.8872 0.8872 0.8873 0.8873 0.8873
2013.000000 0.8873 0.8873 0.8873 0.8874 0.8874
2018.000000 0.8874 0.8874 0.8874 0.8873 0.8873
2023.000000 0.8872 0.8872 0.8871 0.8871 0.8870
2028.000000 0.8870 0.8869 0.8869 0.8868 0.8868
2033.000000 0.8867 0.8867 0.8866 0.8866 0.8865
2038.000000 0.8865 0.8864 0.8864 0.8863 0.8863
2043.000000 0.8862 0.8862 0.8861 0.8861 0.8860
2048.000000 0.8860 0.8859 0.8859 0.8857 0.8855
2053.000000 0.8852 0.8849 0.8846 0.8844 0.8841
2058.000000 0.8838 0.8835 0.8833 0.8830 0.8828
2063.000000 0.8825 0.8822 0.8819 0.8817 0.8814
2068.000000 0.8812 0.8809 0.8807 0.8805 0.8803
2073.000000 0.8800 0.8798 0.8796 0.8794 0.8791
2078.000000 0.8789 0.8787 0.8785 0.8785 0.8786
2083.000000 0.8786 0.8786 0.8786 0.8786 0.8786
2088.000000 0.8787 0.8787 0.8787 0.8787 0.8787
2093.000000 0.8787 0.8788 0.8788 0.8788 0.8788
2098.000000 0.8789 0.8789 0.8789 0.8789 0.8790
2103.000000 0.8790 0.8790 0.8790 0.8791 0.8791
2108.000000 0.8791 0.8791 0.8792 0.8792 0.8792
2113.000000 0.8792 0.8793 0.8793 0.8793 0.8793
2118.000000 0.8794 0.8794 0.8795 0.8795 0.8795
2123.000000 0.8795 0.8796 0.8796 0.8796 0.8796
2128.000000 0.8797 0.8797 0.8798 0.8799 0.8800
2133.000000 0.8800 0.8801 0.8802 0.8803 0.8803
2138.000000 0.8804 0.8805 0.8806 0.8806 0.8807
2143.000000 0.8808 0.8809 0.8809 0.8810 0.8811
2148.000000 0.8812 0.8812 0.8813 0.8814 0.8815
2153.000000 0.8815 0.8816 0.8817 0.8818 0.8818
2158.000000 0.8819 0.8820 0.8821 0.8821 0.8822
2163.000000 0.8823 0.8824 0.8824 0.8825 0.8826
2168.000000 0.8827 0.8828 0.8829 0.8829 0.8830
2173.000000 0.8831 0.8832 0.8832 0.8833 0.8834
2178.000000 0.8835 0.8835 0.8836 0.8837 0.8838
2183.000000 0.8838 0.8839 0.8840 0.8841 0.8841
2188.000000 0.8842 0.8843 0.8844 0.8844 0.8845
2193.000000 0.8845 0.8846 0.8846 0.8847 0.8847
2198.000000 0.8848 0.8848 0.8849 0.8849 0.8850
2203.000000 0.8850 0.8850 0.8850 0.8851 0.8851
2208.000000 0.8852 0.8852 0.8853 0.8853 0.8854
2213.000000 0.8854 0.8854 0.8854 0.8855 0.8855
2218.000000 0.8856 0.8856 0.8857 0.8857 0.8858
2223.000000 0.8858 0.8859 0.8859 0.8859 0.8859
2228.000000 0.8860 0.8860 0.8861 0.8861 0.8861
2233.000000 0.8861 0.8862 0.8862 0.8862 0.8862
2238.000000 0.8862 0.8862 0.8863 0.8863 0.8863
2243.000000 0.8863 0.8863 0.8863 0.8864 0.8864
2248.000000 0.8864 0.8864 0.8864 0.8864 0.8865
2253.000000 0.8865 0.8865 0.8865 0.8865 0.8865
2258.000000 0.8866 0.8863 0.8861 0.8858 0.8855
2263.000000 0.8851 0.8848 0.8845 0.8842 0.8839
2268.000000 0.8836 0.8833 0.8830 0.8827 0.8824
2273.000000 0.8821 0.8818 0.8814 0.8811 0.8808
2278.000000 0.8805 0.8800 0.8796 0.8789 0.8783
2283.000000 0.8776 0.8770 0.8763 0.8757 0.8751
2288.000000 0.8745 0.8738 0.8732 0.8725 0.8719
2293.000000 0.8712 0.8706 0.8698 0.8690 0.8680
2298.000000 0.8671 0.8661 0.8651 0.8641 0.8631
2303.000000 0.8621 0.8611 0.8601 0.8592 0.8582
2308.000000 0.8572 0.8562 0.8552 0.8542 0.8532
2313.000000 0.8523 0.8515 0.8506 0.8497 0.8488
2318.000000 0.8480 0.8472 0.8464 0.8464 0.8464
2323.000000 0.8464 0.8465 0.8465 0.8465 0.8465
2328.000000 0.8465 0.8465 0.8465 0.8465 0.8465
2333.000000 0.8465 0.8465 0.8464 0.8464 0.8464
2338.000000 0.8464 0.8464 0.8464 0.8464 0.8464
2343.000000 0.8464 0.8464 0.8463 0.8463 0.8463
2348.000000 0.8463 0.8466 0.8469 0.8472 0.8475
2353.000000 0.8478 0.8482 0.8485 0.8488 0.8494
2358.000000 0.8501 0.8510 0.8519 0.8528 0.8538
2363.000000 0.8557 0.8576 0.8594 0.8613 0.8628
2368.000000 0.8643 0.8656 0.8670 0.8683 0.8696
2373.000000 0.8706 0.8716 0.8722 0.8728 0.8733
2378.000000 0.8738 0.8740 0.8742 0.8744 0.8746
2383.000000 0.8747 0.8749 0.8751 0.8753 0.8755
2388.000000 0.8757 0.8759 0.8761 0.8763 0.8765
2393.000000 0.8766 0.8768 0.8770 0.8772 0.8773
2398.000000 0.8775 0.8776 0.8778 0.8779 0.8780
2403.000000 0.8781 0.8783 0.8784 0.8785 0.8785
2408.000000 0.8786 0.8787 0.8788 0.8789 0.8790
2413.000000 0.8790 0.8791 0.8792 0.8793 0.8793
2418.000000 0.8794 0.8794 0.8795 0.8796 0.8797
2423.000000 0.8797 0.8798 0.8798 0.8799 0.8800
2428.000000 0.8801 0.8801 0.8802 0.8803 0.8804
2433.000000 0.8804 0.8805 0.8805 0.8805 0.8805
2438.000000 0.8805 0.8804 0.8804 0.8804 0.8804
2443.000000 0.8803 0.8803 0.8803 0.8803 0.8802
2448.000000 0.8802 0.8802 0.8802 0.8801 0.8801
2453.000000 0.8801 0.8801 0.8801 0.8801 0.8801
2458.000000 0.8801 0.8800 0.8800 0.8800 0.8800
2463.000000 0.8800 0.8800 0.8799 0.8799 0.8799
2468.000000 0.8799 0.8799 0.8799 0.8798 0.8798
2473.000000 0.8798 0.8798 0.8797 0.8797 0.8797
2478.000000 0.8797 0.8796 0.8796 0.8795 0.8795
2483.000000 0.8794 0.8794 0.8793 0.8793 0.8792
2488.000000 0.8791 0.8790 0.8790 0.8789 0.8789
2493.000000 0.8788 0.8788 0.8787 0.8787 0.8786
2498.000000 0.8785 0.8784 0.8784 0.8783 0.8783
2503.000000 0.8782 0.8782 0.8781 0.8780 0.8779
2508.000000 0.8779 0.8778 0.8778 0.8777 0.8777
2513.000000 0.8776 0.8775 0.8774 0.8774 0.8773
2518.000000 0.8773 0.8772 0.8772 0.8771 0.8770
2523.000000 0.8769 0.8769 0.8768 0.8768 0.8767
2528.000000 0.8767 0.8766 0.8765 0.8764 0.8763
2533.000000 0.8762 0.8761 0.8760 0.8759 0.8758
2538.000000 0.8757 0.8756 0.8755 0.8754 0.8753
2543.000000 0.8752 0.8751 0.8750 0.8750 0.8749
2548.000000 0.8748 0.8747 0.8746 0.8745 0.8744
2553.000000 0.8743 0.8742 0.8741 0.8740 0.8739
2558.000000 0.8738 0.8737 0.8736 0.8735 0.8734
2563.000000 0.8733 0.8732 0.8731 0.8731 0.8731
2568.000000 0.8731 0.8730 0.8730 0.8730 0.8730
2573.000000 0.8730 0.8730 0.8729 0.8729 0.8729
2578.000000 0.8729 0.8729 0.8729 0.8728 0.8727
2583.000000 0.8725 0.8724 0.8722 0.8721 0.8720
2588.000000 0.8719 0.8717 0.8716 0.8715 0.8714
2593.000000 0.8712 0.8711 0.8710 0.8709 0.8707
2598.000000 0.8705 0.8703 0.8701 0.8699 0.8698
2603.000000 0.8696 0.8694 0.8692 0.8690 0.8688
2608.000000 0.8687 0.8685 0.8683 0.8681 0.8680
2613.000000 0.8678 0.8677 0.8675 0.8674 0.8672
2618.000000 0.8671 0.8669 0.8668 0.8666 0.8665
2623.000000 0.8663 0.8662 0.8660 0.8659 0.8657
2628.000000 0.8656 0.8654 0.8653 0.8651 0.8649
2633.000000 0.8647 0.8645 0.8642 0.8640 0.8638
2638.000000 0.8636 0.8633 0.8631 0.8629 0.8627
2643.000000 0.8624 0.8621 0.8618 0.8616 0.8613
2648.000000 0.8610 0.8607 0.8604 0.8601 0.8598
2653.000000 0.8595 0.8592 0.8589 0.8586 0.8583
2658.000000 0.8580 0.8577 0.8574 0.8571 0.8568
2663.000000 0.8565 0.8563 0.8560 0.8557 0.8554
2668.000000 0.8551 0.8548 0.8546 0.8543 0.8541
2673.000000 0.8538 0.8536 0.8533 0.8531 0.8528
2678.000000 0.8526 0.8523 0.8521 0.8518 0.8516
2683.000000 0.8513 0.8511 0.8508 0.8506 0.8503
2688.000000 0.8501 0.8498 0.8496 0.8493 0.8491
2693.000000 0.8490 0.8490 0.8490 0.8490 0.8490
2698.000000 0.8490 0.8490 0.8491 0.8491 0.8491
2703.000000 0.8491 0.8491 0.8491 0.8491 0.8491
2708.000000 0.8491 0.8491 0.8491 0.8491 0.8491
2713.000000 0.8491 0.8491 0.8489 0.8488 0.8486
2718.000000 0.8485 0.8483 0.8481 0.8479 0.8478
2723.000000 0.8476 0.8475 0.8473 0.8471 0.8469
2728.000000 0.8468 0.8465 0.8463 0.8460 0.8458
2733.000000 0.8455 0.8453 0.8451 0.8449 0.8446
2738.000000 0.8444 0.8441 0.8439 0.8436 0.8434
2743.000000 0.8431 0.8429 0.8426 0.8424 0.8421
2748.000000 0.8419 0.8417 0.8416 0.8415 0.8414
2753.000000 0.8412 0.8411 0.8410 0.8409 0.8407
2758.000000 0.8406 0.8405 0.8404 0.8403 0.8402
2763.000000 0.8400 0.8399 0.8398 0.8397 0.8395
2768.000000 0.8394 0.8393 0.8392 0.8391 0.8390
2773.000000 0.8388 0.8387 0.8385 0.8383 0.8381
2778.000000 0.8380 0.8378 0.8376 0.8374 0.8372
2783.000000 0.8366 0.8360 0.8353 0.8347 0.8340
2788.000000 0.8334 0.8327 0.8321 0.8315 0.8310
2793.000000 0.8305 0.8300 0.8295 0.8291 0.8286
2798.000000 0.8281 0.8276 0.8272 0.8267 0.8262
2803.000000 0.8257 0.8252 0.8247 0.8243 0.8238
2808.000000 0.8233 0.8230 0.8227 0.8224 0.8222
2813.000000 0.8219 0.8217 0.8214 0.8212 0.8209
2818.000000 0.8207 0.8204 0.8202 0.8199 0.8197
2823.000000 0.8195 0.8193 0.8190 0.8188 0.8185
2828.000000 0.8183 0.8180 0.8178 0.8175 0.8173
2833.000000 0.8170 0.8168 0.8167 0.8167 0.8167
2838.000000 0.8167 0.8167 0.8168 0.8168 0.8168
2843.000000 0.8168 0.8168 0.8168 0.8169 0.8169
2848.000000 0.8169 0.8169 0.8169 0.8167 0.8165
2853.000000 0.8161 0.8158 0.8155 0.8152 0.8148
2858.000000 0.8145 0.8141 0.8138 0.8134 0.8130
2863.000000 0.8125 0.8121 0.8117 0.8113 0.8109
2868.000000 0.8105 0.8100 0.8096 0.8092 0.8088
2873.000000 0.8084 0.8081 0.8077 0.8073 0.8069
2878.000000 0.8065 0.8061 0.8057 0.8053 0.8049
2883.000000 0.8045 0.8042 0.8038 0.8034 0.8030
2888.000000 0.8026 0.8022 0.8018 0.8014 0.8011
2893.000000 0.8007 0.8004 0.8000 0.7997 0.7993
2898.000000 0.7989 0.7985 0.7982 0.7978 0.7975
2903.000000 0.7971 0.7968 0.7964 0.7961 0.7957
2908.000000 0.7954 0.7950 0.7947 0.7943 0.7939
2913.000000 0.7935 0.7932 0.7928 0.7925 0.7921
2918.000000 0.7918 0.7914 0.7911 0.7908 0.7905
2923.000000 0.7901 0.7898 0.7894 0.7891 0.7888
2928.000000 0.7885 0.7881 0.7878 0.7875 0.7872
2933.000000 0.7868 0.7865 0.7861 0.7858 0.7855
2938.000000 0.7852 0.7848 0.7845 0.7841 0.7838
2943.000000 0.7835 0.7832 0.7828 0.7825 0.7821
2948.000000 0.7818 0.7815 0.7812 0.7809 0.7807
2953.000000 0.7805 0.7804 0.7802 0.7801 0.7799
2958.000000 0.7798 0.7796 0.7794 0.7792 0.7791
2963.000000 0.7789 0.7788 0.7786 0.7785 0.7783
2968.000000 0.7781 0.7779 0.7778 0.7776 0.7775
2973.000000 0.7774 0.7773 0.7773 0.7773 0.7773
2978.000000 0.7773 0.7773 0.7774 0.7774 0.7774
2983.000000 0.7774 0.7774 0.7774 0.7775 0.7775
2988.000000 0.7775 0.7775 0.7775 0.7775 0.7776
2993.000000 0.7776 0.7776 0.7775 0.7775 0.7773
2998.000000 0.7772 0.7770 0.7769 0.7767 0.7766
3003.000000 0.7765 0.7764 0.7762 0.7761 0.7759
3008.000000 0.7758 0.7756 0.7755 0.7753 0.7751
3013.000000 0.7747 0.7743 0.7739 0.7735 0.7731
3018.000000 0.7727 0.7723 0.7719 0.7715 0.7711
3023.000000 0.7707 0.7703 0.7699 0.7695 0.7691
3028.000000 0.7687 0.7683 0.7680 0.7677 0.7674
3033.000000 0.7670 0.7667 0.7664 0.7661 0.7658
3038.000000 0.7655 0.7651 0.7648 0.7645 0.7642
3043.000000 0.7638 0.7635 0.7632 0.7629 0.7625
3048.000000 0.7622 0.7619 0.7616 0.7612 0.7609
3053.000000 0.7606 0.7603 0.7599 0.7596 0.7593
3058.000000 0.7590 0.7589 0.7588 0.7587 0.7586
3063.000000 0.7584 0.7583 0.7582 0.7581 0.7579
3068.000000 0.7578 0.7577 0.7576 0.7574 0.7573
3073.000000 0.7572 0.7571 0.7569 0.7568 0.7567
3078.000000 0.7566 0.7563 0.7561 0.7558 0.7556
3083.000000 0.7553 0.7551 0.7548 0.7545 0.7542
3088.000000 0.7540 0.7537 0.7535 0.7532 0.7529
3093.000000 0.7526 0.7523 0.7519 0.7515 0.7511
3098.000000 0.7508 0.7504 0.7501 0.7497 0.7494
3103.000000 0.7490 0.7486 0.7482 0.7479 0.7475
3108.000000 0.7472 0.7468 0.7464 0.7460 0.7457
3113.000000 0.7453 0.7450 0.7446 0.7442 0.7438
3118.000000 0.7435 0.7431 0.7427 0.7422 0.7418
3123.000000 0.7413 0.7408 0.7403 0.7399 0.7394
3128.000000 0.7389 0.7384 0.7380 0.7375 0.7370
3133.000000 0.7365 0.7361 0.7356 0.7351 0.7346
3138.000000 0.7342 0.7337 0.7332 0.7330 0.7328
3143.000000 0.7326 0.7324 0.7322 0.7321 0.7319
3148.000000 0.7317 0.7315 0.7314 0.7312 0.7310
3153.000000 0.7308 0.7307 0.7304 0.7302 0.7299
3158.000000 0.7297 0.7294 0.7291 0.7288 0.7285
3163.000000 0.7282 0.7279 0.7276 0.7273 0.7270
3168.000000 0.7267 0.7262 0.7257 0.7251 0.7245
3173.000000 0.7239 0.7234 0.7228 0.7222 0.7216
3178.000000 0.7210 0.7205 0.7200 0.7195 0.7190
3183.000000 0.7184 0.7179 0.7174 0.7169 0.7164
3188.000000 0.7159 0.7153 0.7148 0.7143 0.7138
3193.000000 0.7133 0.7128 0.7122 0.7117 0.7112
3198.000000 0.7107 0.7102 0.7097 0.7091 0.7086
3203.000000 0.7081 0.7076 0.7071 0.7066 0.7060
3208.000000 0.7055 0.7049 0.7044 0.7038 0.7033
3213.000000 0.7027 0.7021 0.7015 0.7010 0.7004
3218.000000 0.6999 0.6993 0.6987 0.6981 0.6976
3223.000000 0.6970 0.6964 0.6958 0.6953 0.6947
3228.000000 0.6942 0.6936 0.6930 0.6924 0.6919
3233.000000 0.6913 0.6907 0.6901 0.6896 0.6890
3238.000000 0.6885 0.6879 0.6873 0.6867 0.6862
3243.000000 0.6856 0.6851 0.6845 0.6839 0.6833
3248.000000 0.6828 0.6822 0.6816 0.6810 0.6805
3253.000000 0.6799 0.6793 0.6787 0.6781 0.6775
3258.000000 0.6770 0.6764 0.6758 0.6752 0.6747
3263.000000 0.6741 0.6735 0.6729 0.6723 0.6717
3268.000000 0.6712 0.6706 0.6700 0.6694 0.6689
3273.000000 0.6683 0.6677 0.6671 0.6666 0.6660
3278.000000 0.6654 0.6648 0.6642 0.6636 0.6631
3283.000000 0.6625 0.6619 0.6613 0.6607 0.6599
3288.000000 0.6592 0.6584 0.6577 0.6569 0.6562
3293.000000 0.6554 0.6547 0.6539 0.6532 0.6524
3298.000000 0.6517 0.6510 0.6503 0.6495 0.6488
3303.000000 0.6480 0.6473 0.6465 0.6458 0.6450
3308.000000 0.6443 0.6435 0.6428 0.6420 0.6413
3313.000000 0.6405 0.6398 0.6390 0.6383 0.6375
3318.000000 0.6368 0.6360 0.6353 0.6345 0.6338
3323.000000 0.6330 0.6323 0.6315 0.6308 0.6299
3328.000000 0.6291 0.6282 0.6273 0.6264 0.6255
3333.000000 0.6246 0.6237 0.6228 0.6219 0.6210
3338.000000 0.6201 0.6192 0.6183 0.6174 0.6165
3343.000000 0.6156 0.6147 0.6138 0.6129 0.6120
3348.000000 0.6111 0.6102 0.6093 0.6084 0.6075
3353.000000 0.6066 0.6057 0.6051 0.6045 0.6039
3358.000000 0.6034 0.6028 0.6022 0.6016 0.6010
3363.000000 0.6004 0.5998 0.5992 0.5986 0.5980
3368.000000 0.5975 0.5969 0.5963 0.5957 0.5951
3373.000000 0.5945 0.5939 0.5933 0.5928 0.5925
3378.000000 0.5923 0.5921 0.5919 0.5916 0.5914
3383.000000 0.5912 0.5910 0.5908 0.5906 0.5904
3388.000000 0.5902 0.5900 0.5898 0.5896 0.5894
3393.000000 0.5892 0.5890 0.5888 0.5886 0.5884
3398.000000 0.5882 0.5880 0.5878 0.5879 0.5880
3403.000000 0.5881 0.5881 0.5884 0.5886 0.5887
3408.000000 0.5889 0.5891 0.5893 0.5894 0.5896
3413.000000 0.5897 0.5899 0.5900 0.5902 0.5903
3418.000000 0.5905 0.5907 0.5909 0.5912 0.5915
3423.000000 0.5918 0.5921 0.5924 0.5928 0.5931
3428.000000 0.5934 0.5937 0.5941 0.5945 0.5950
3433.000000 0.5956 0.5962 0.5968 0.5974 0.5980
3438.000000 0.5986 0.5992 0.5999 0.6005 0.6011
3443.000000 0.6017 0.6023 0.6029 0.6036 0.6045
3448.000000 0.6055 0.6064 0.6074 0.6083 0.6093
3453.000000 0.6103 0.6113 0.6122 0.6132 0.6136
3458.000000 0.6141 0.6144 0.6147 0.6150 0.6153
3463.000000 0.6156 0.6159 0.6162 0.6166 0.6169
3468.000000 0.6172 0.6175 0.6178 0.6181 0.6184
3473.000000 0.6187 0.6191 0.6195 0.6200 0.6205
3478.000000 0.6210 0.6215 0.6220 0.6225 0.6230
3483.000000 0.6235 0.6240 0.6250 0.6260 0.6270
3488.000000 0.6280 0.6290 0.6300 0.6310 0.6320
3493.000000 0.6330 0.6340 0.6350 0.6360 0.6373
3498.000000 0.6386 0.6400 0.6414 0.6428 0.6442
3503.000000 0.6456 0.6470 0.6485 0.6501 0.6519
3508.000000 0.6537 0.6555 0.6573 0.6596 0.6620
3513.000000 0.6640 0.6661 0.6669 0.6677 0.6685
3518.000000 0.6694 0.6702 0.6710 0.6717 0.6724
3523.000000 0.6730 0.6736 0.6741 0.6747 0.6759
3528.000000 0.6772 0.6784 0.6796 0.6803 0.6810
3533.000000 0.6816 0.6816 0.6821 0.6821 0.6802
3538.000000 0.6784 0.6765 0.6747 0.6728 0.6710
3543.000000 0.6691 0.6673 0.6654 0.6636 0.6617
3548.000000 0.6599 0.6580 0.6532 0.6543 0.6525
3553.000000 0.6514 0.6504 0.6505 0.6506 0.6551
3558.000000 0.6597 0.6663 0.6729 0.6795 0.6861
3563.000000 0.6926 0.6992 0.7058 0.7124 0.7190
3568.000000 0.7256 0.7321 0.7387 0.7416 0.7445
3573.000000 0.7474 0.7504 0.7537 0.7571 0.7606
3578.000000 0.7641 0.7669 0.7697 0.7724 0.7752
3583.000000 0.7774 0.7797 0.7813 0.7829 0.7845
3588.000000 0.7862 0.7873 0.7884 0.7893 0.7903
3593.000000 0.7913 0.7923 0.7932 0.7942 0.7961
3598.000000 0.7980 0.8000 0.8021 0.8041 0.8061
3603.000000 0.8079 0.8098 0.8117 0.8136 0.8154
3608.000000 0.8173 0.8191 0.8209 0.8227 0.8246
3613.000000 0.8264 0.8282 0.8300 0.8318 0.8336
3618.000000 0.8354 0.8370 0.8387 0.8403 0.8419
3623.000000 0.8434 0.8450 0.8466 0.8482 0.8498
3628.000000 0.8515 0.8531 0.8547 0.8563 0.8580
3633.000000 0.8606 0.8633 0.8660 0.8687 0.8726
3638.000000 0.8765 0.8786 0.8807 0.8824 0.8841
3643.000000 0.8844 0.8848 0.8850 0.8852 0.8850
3648.000000 0.8848 0.8844 0.8841 0.8837 0.8833
3653.000000 0.8829 0.8825 0.8821 0.8817 0.8814
3658.000000 0.8811 0.8810 0.8809 0.8809 0.8810
3663.000000 0.8818 0.8826 0.8835 0.8845 0.8854
3668.000000 0.8864 0.8874 0.8884 0.8898 0.8912
3673.000000 0.8925 0.8939 0.8950 0.8961 0.8972
3678.000000 0.8983 0.8993 0.9004 0.9015 0.9026
3683.000000 0.9029 0.9033 0.9032 0.9031 0.9030
3688.000000 0.9029 0.9028 0.9027 0.9026 0.9025
3693.000000 0.9023 0.9022 0.9021 0.9020 0.9018
3698.000000 0.9017 0.9016 0.9015 0.9016 0.9017
3703.000000 0.9017 0.9018 0.9019 0.9020 0.9021
3708.000000 0.9022 0.9019 0.9016 0.9011 0.9006
3713.000000 0.9000 0.8995 0.8989 0.8984 0.8978
3718.000000 0.8972 0.8966 0.8960 0.8958 0.8956
3723.000000 0.8955 0.8955 0.8955 0.8956 0.8957
3728.000000 0.8958 0.8958 0.8959 0.8960 0.8961
3733.000000 0.8961 0.8962 0.8964 0.8967 0.8970
3738.000000 0.8973 0.8975 0.8978 0.8981 0.8984
3743.000000 0.8988 0.8993 0.8997 0.9002 0.9006
3748.000000 0.9011 0.9015 0.9019 0.9021 0.9024
3753.000000 0.9027 0.9030 0.9032 0.9035 0.9036
3758.000000 0.9037 0.9037 0.9037 0.9037 0.9037
3763.000000 0.9037 0.9038 0.9038 0.9038 0.9038
3768.000000 0.9038 0.9038 0.9039 0.9039 0.9039
3773.000000 0.9039 0.9039 0.9037 0.9036 0.9035
3778.000000 0.9034 0.9032 0.9031 0.9030 0.9029
3783.000000 0.9027 0.9026 0.9025 0.9024 0.9022
3788.000000 0.9021 0.9018 0.9015 0.9012 0.9010
3793.000000 0.9007 0.9004 0.9000 0.8996 0.8992
3798.000000 0.8988 0.8984 0.8980 0.8975 0.8971
3803.000000 0.8967 0.8963 0.8959 0.8955 0.8952
3808.000000 0.8949 0.8947 0.8946 0.8944 0.8943
3813.000000 0.8941 0.8939 0.8937 0.8936 0.8934
3818.000000 0.8932 0.8930 0.8929 0.8927 0.8926
3823.000000 0.8926 0.8926 0.8926 0.8927 0.8927
3828.000000 0.8927 0.8927 0.8928 0.8928 0.8929
3833.000000 0.8929 0.8930 0.8930 0.8931 0.8931
3838.000000 0.8932 0.8932 0.8932 0.8932 0.8933
3843.000000 0.8933 0.8934 0.8934 0.8935 0.8937
3848.000000 0.8939 0.8941 0.8943 0.8945 0.8947
3853.000000 0.8949 0.8952 0.8954 0.8956 0.8958
3858.000000 0.8960 0.8962 0.8964 0.8966 0.8968
3863.000000 0.8970 0.8972 0.8974 0.8976 0.8978
3868.000000 0.8981 0.8983 0.8985 0.8987 0.8989
3873.000000 0.8992 0.8995 0.8998 0.8993 0.9005
3878.000000 0.9008 0.9011 0.9015 0.9018 0.9022
3883.000000 0.9025 0.9028 0.9031 0.9035 0.9038
3888.000000 0.9042 0.9043 0.9045 0.9044 0.9044
3893.000000 0.9044 0.9044 0.9044 0.9044 0.9043
3898.000000 0.9043 0.9041 0.9040 0.9037 0.9035
3903.000000 0.9033 0.9031 0.9028 0.9026 0.9024
3908.000000 0.9022 0.9019 0.9017 0.9015 0.9013
3913.000000 0.9012 0.9011 0.9009 0.9008 0.9007
3918.000000 0.9006 0.9011 0.9017 0.9023 0.9030
3923.000000 0.9036 0.9042 0.9045 0.9049 0.9049
3928.000000 0.9050 0.9050 0.9051 0.9051 0.9052
3933.000000 0.9051 0.9051 0.9050 0.9050 0.9049
3938.000000 0.9049 0.9048 0.9048 0.9047 0.9047
3943.000000 0.9046 0.9046 0.9046 0.9046 0.9045
3948.000000 0.9045 0.9045 0.9045 0.9044 0.9044
3953.000000 0.9044 0.9044 0.9043 0.9043 0.9043
3958.000000 0.9043 0.9042 0.9042 0.9042 0.9042
3963.000000 0.9042 0.9042 0.9041 0.9041 0.9041
3968.000000 0.9041 0.9041 0.9041 0.9041 0.9041
3973.000000 0.9040 0.9040 0.9040 0.9040 0.9040
3978.000000 0.9040 0.9040 0.9040 0.9039 0.9039
3983.000000 0.9039 0.9039 0.9039 0.9039 0.9039
3988.000000 0.9039 0.9039 0.9039 0.9038 0.9038
3993.000000 0.9038 0.9038 0.9038 0.9038 0.9038
3998.000000 0.9038 0.9038 0.9038 0.9038 0.9038
##END=
