##TITLE=MANDELATE, HEXAMETHYLENETETRA-AMINE-
##JCAMP-DX=4.24
$$ By DXEDIT 1.05 (RS McDonald)
##DATA TYPE=INFRARED SPECTRUM
##CLASS=COBLENTZ III
##OWNER=COBLENTZ SOC.
Collection (C) 2018 copyright by the U.S. Secretary of Commerce
on behalf of the United States of America. All rights reserved.
##DATE=1962/08/26
##NAMES=METHENAMINE MANDELATE
##MOLFORM=C14 H20 N4 O3
##MP=128-130 C
##SOURCE REFERENCE=COBLENTZ NO. 05019
##$NIST ID=B6005019
##$NIST SOURCE=COBLENTZ
##$NIST IMAGE=cob5019
##SPECTROMETER/DATA SYSTEM=PERKIN-ELMER 21 (GRATING)
##INSTRUMENT PARAMETERS=FILTER AT ABOUT 10 MICRONS
##STATE=SOLID (KBr DISC)
##SAMPLING PROCEDURE=TRANSMISSION
##RESOLUTION=2
##DATA PROCESSING=DIGITIZED BY COBLENTZ SOCIETY (BATCH I) FROM HARD COPY
##XUNITS=1/CM
##YUNITS=TRANSMITTANCE
##XLABEL=Wavenumbers (cm-1)
##YLABEL=Transmittance
##XFACTOR=1
##YFACTOR=1
##DELTAX=1
##FIRSTX=4000
##LASTX=650
##FIRSTY=0.8321
##MAXX=4000
##MINX=650
##MAXY=0.8609
##MINY=0.0647
##NPOINTS=3351
##XYDATA=(X++(Y..Y))
4000.000000 0.8321 0.8320 0.8320 0.8320 0.8320
3995.000000 0.8320 0.8320 0.8320 0.8320 0.8320
3990.000000 0.8320 0.8320 0.8320 0.8321 0.8321
3985.000000 0.8321 0.8321 0.8321 0.8321 0.8321
3980.000000 0.8321 0.8321 0.8321 0.8321 0.8321
3975.000000 0.8321 0.8321 0.8321 0.8321 0.8321
3970.000000 0.8321 0.8321 0.8321 0.8321 0.8321
3965.000000 0.8321 0.8321 0.8321 0.8321 0.8323
3960.000000 0.8323 0.8323 0.8323 0.8323 0.8323
3955.000000 0.8323 0.8323 0.8324 0.8324 0.8325
3950.000000 0.8325 0.8325 0.8325 0.8327 0.8328
3945.000000 0.8328 0.8328 0.8330 0.8330 0.8331
3940.000000 0.8332 0.8332 0.8333 0.8334 0.8334
3935.000000 0.8335 0.8335 0.8336 0.8337 0.8337
3930.000000 0.8338 0.8339 0.8340 0.8341 0.8342
3925.000000 0.8343 0.8345 0.8347 0.8349 0.8351
3920.000000 0.8353 0.8355 0.8358 0.8360 0.8362
3915.000000 0.8364 0.8366 0.8368 0.8370 0.8371
3910.000000 0.8375 0.8377 0.8378 0.8381 0.8383
3905.000000 0.8385 0.8387 0.8389 0.8392 0.8394
3900.000000 0.8396 0.8398 0.8400 0.8402 0.8404
3895.000000 0.8407 0.8409 0.8410 0.8412 0.8414
3890.000000 0.8416 0.8418 0.8420 0.8421 0.8423
3885.000000 0.8425 0.8427 0.8428 0.8430 0.8432
3880.000000 0.8434 0.8435 0.8437 0.8439 0.8440
3875.000000 0.8442 0.8444 0.8446 0.8448 0.8450
3870.000000 0.8451 0.8453 0.8455 0.8456 0.8458
3865.000000 0.8460 0.8461 0.8462 0.8463 0.8464
3860.000000 0.8465 0.8466 0.8467 0.8467 0.8468
3855.000000 0.8468 0.8468 0.8470 0.8471 0.8471
3850.000000 0.8471 0.8473 0.8473 0.8474 0.8475
3845.000000 0.8475 0.8475 0.8477 0.8477 0.8478
3840.000000 0.8478 0.8478 0.8480 0.8481 0.8481
3835.000000 0.8482 0.8483 0.8483 0.8484 0.8485
3830.000000 0.8485 0.8486 0.8487 0.8487 0.8488
3825.000000 0.8488 0.8489 0.8489 0.8490 0.8491
3820.000000 0.8491 0.8492 0.8493 0.8493 0.8494
3815.000000 0.8495 0.8495 0.8496 0.8497 0.8497
3810.000000 0.8498 0.8499 0.8500 0.8500 0.8501
3805.000000 0.8502 0.8502 0.8503 0.8504 0.8504
3800.000000 0.8505 0.8506 0.8506 0.8507 0.8508
3795.000000 0.8509 0.8509 0.8510 0.8510 0.8511
3790.000000 0.8511 0.8512 0.8512 0.8513 0.8514
3785.000000 0.8515 0.8515 0.8516 0.8517 0.8517
3780.000000 0.8517 0.8518 0.8518 0.8518 0.8518
3775.000000 0.8518 0.8518 0.8518 0.8518 0.8518
3770.000000 0.8520 0.8520 0.8520 0.8521 0.8521
3765.000000 0.8521 0.8521 0.8521 0.8523 0.8523
3760.000000 0.8523 0.8524 0.8524 0.8524 0.8525
3755.000000 0.8525 0.8525 0.8525 0.8525 0.8525
3750.000000 0.8527 0.8527 0.8528 0.8528 0.8528
3745.000000 0.8528 0.8528 0.8528 0.8528 0.8528
3740.000000 0.8528 0.8530 0.8530 0.8530 0.8531
3735.000000 0.8531 0.8532 0.8532 0.8532 0.8533
3730.000000 0.8533 0.8533 0.8534 0.8534 0.8534
3725.000000 0.8535 0.8535 0.8535 0.8535 0.8535
3720.000000 0.8536 0.8536 0.8536 0.8536 0.8536
3715.000000 0.8536 0.8537 0.8537 0.8537 0.8537
3710.000000 0.8537 0.8538 0.8538 0.8538 0.8538
3705.000000 0.8538 0.8538 0.8538 0.8538 0.8538
3700.000000 0.8538 0.8538 0.8538 0.8538 0.8538
3695.000000 0.8538 0.8538 0.8538 0.8539 0.8539
3690.000000 0.8539 0.8539 0.8539 0.8539 0.8539
3685.000000 0.8539 0.8539 0.8539 0.8539 0.8539
3680.000000 0.8539 0.8538 0.8538 0.8538 0.8537
3675.000000 0.8537 0.8537 0.8536 0.8536 0.8535
3670.000000 0.8535 0.8534 0.8534 0.8533 0.8533
3665.000000 0.8532 0.8532 0.8531 0.8531 0.8531
3660.000000 0.8530 0.8530 0.8530 0.8528 0.8528
3655.000000 0.8528 0.8525 0.8524 0.8521 0.8520
3650.000000 0.8517 0.8515 0.8513 0.8511 0.8509
3645.000000 0.8507 0.8505 0.8503 0.8500 0.8498
3640.000000 0.8496 0.8493 0.8491 0.8489 0.8487
3635.000000 0.8485 0.8483 0.8481 0.8478 0.8477
3630.000000 0.8475 0.8473 0.8470 0.8468 0.8465
3625.000000 0.8462 0.8460 0.8457 0.8453 0.8449
3620.000000 0.8445 0.8442 0.8438 0.8434 0.8430
3615.000000 0.8427 0.8423 0.8420 0.8416 0.8412
3610.000000 0.8409 0.8405 0.8401 0.8398 0.8394
3605.000000 0.8390 0.8387 0.8383 0.8378 0.8375
3600.000000 0.8371 0.8368 0.8365 0.8361 0.8357
3595.000000 0.8354 0.8350 0.8346 0.8343 0.8339
3590.000000 0.8335 0.8332 0.8328 0.8324 0.8320
3585.000000 0.8316 0.8312 0.8307 0.8303 0.8297
3580.000000 0.8291 0.8285 0.8278 0.8271 0.8266
3575.000000 0.8260 0.8253 0.8247 0.8240 0.8234
3570.000000 0.8228 0.8221 0.8215 0.8209 0.8202
3565.000000 0.8196 0.8190 0.8184 0.8176 0.8171
3560.000000 0.8165 0.8158 0.8151 0.8146 0.8139
3555.000000 0.8133 0.8125 0.8119 0.8112 0.8107
3550.000000 0.8100 0.8094 0.8088 0.8081 0.8075
3545.000000 0.8068 0.8061 0.8054 0.8047 0.8040
3540.000000 0.8031 0.8022 0.8015 0.8006 0.7998
3535.000000 0.7990 0.7982 0.7972 0.7965 0.7957
3530.000000 0.7948 0.7940 0.7932 0.7922 0.7915
3525.000000 0.7906 0.7898 0.7889 0.7881 0.7871
3520.000000 0.7864 0.7855 0.7847 0.7839 0.7830
3515.000000 0.7821 0.7812 0.7805 0.7796 0.7788
3510.000000 0.7778 0.7771 0.7762 0.7754 0.7746
3505.000000 0.7736 0.7726 0.7717 0.7708 0.7699
3500.000000 0.7689 0.7680 0.7671 0.7661 0.7651
3495.000000 0.7642 0.7632 0.7622 0.7612 0.7604
3490.000000 0.7594 0.7584 0.7575 0.7565 0.7555
3485.000000 0.7546 0.7536 0.7525 0.7517 0.7507
3480.000000 0.7498 0.7488 0.7478 0.7468 0.7454
3475.000000 0.7440 0.7425 0.7411 0.7396 0.7378
3470.000000 0.7358 0.7341 0.7321 0.7304 0.7285
3465.000000 0.7267 0.7248 0.7230 0.7211 0.7193
3460.000000 0.7174 0.7156 0.7137 0.7122 0.7111
3455.000000 0.7099 0.7086 0.7074 0.7061 0.7051
3450.000000 0.7039 0.7026 0.7015 0.7004 0.6992
3445.000000 0.6981 0.6968 0.6957 0.6946 0.6934
3440.000000 0.6922 0.6911 0.6899 0.6887 0.6875
3435.000000 0.6864 0.6851 0.6840 0.6828 0.6817
3430.000000 0.6805 0.6793 0.6782 0.6769 0.6758
3425.000000 0.6747 0.6735 0.6722 0.6711 0.6700
3420.000000 0.6688 0.6675 0.6664 0.6651 0.6640
3415.000000 0.6628 0.6615 0.6604 0.6593 0.6581
3410.000000 0.6568 0.6557 0.6545 0.6533 0.6521
3405.000000 0.6508 0.6496 0.6483 0.6471 0.6458
3400.000000 0.6445 0.6432 0.6419 0.6407 0.6394
3395.000000 0.6381 0.6368 0.6356 0.6343 0.6330
3390.000000 0.6317 0.6304 0.6291 0.6278 0.6264
3385.000000 0.6250 0.6235 0.6221 0.6202 0.6183
3380.000000 0.6164 0.6144 0.6128 0.6115 0.6102
3375.000000 0.6090 0.6077 0.6069 0.6060 0.6054
3370.000000 0.6047 0.6040 0.6033 0.6025 0.6018
3365.000000 0.6010 0.6004 0.5997 0.5990 0.5982
3360.000000 0.5975 0.5969 0.5962 0.5956 0.5949
3355.000000 0.5943 0.5937 0.5931 0.5924 0.5918
3350.000000 0.5912 0.5906 0.5899 0.5893 0.5887
3345.000000 0.5881 0.5874 0.5868 0.5862 0.5856
3340.000000 0.5849 0.5843 0.5837 0.5831 0.5825
3335.000000 0.5819 0.5812 0.5808 0.5802 0.5797
3330.000000 0.5791 0.5786 0.5781 0.5775 0.5770
3325.000000 0.5764 0.5759 0.5754 0.5748 0.5743
3320.000000 0.5737 0.5732 0.5727 0.5722 0.5716
3315.000000 0.5710 0.5705 0.5700 0.5695 0.5689
3310.000000 0.5684 0.5679 0.5673 0.5668 0.5662
3305.000000 0.5658 0.5652 0.5647 0.5642 0.5637
3300.000000 0.5631 0.5626 0.5620 0.5612 0.5604
3295.000000 0.5596 0.5588 0.5577 0.5566 0.5554
3290.000000 0.5543 0.5529 0.5512 0.5495 0.5479
3285.000000 0.5462 0.5450 0.5437 0.5424 0.5412
3280.000000 0.5393 0.5374 0.5354 0.5334 0.5320
3275.000000 0.5310 0.5301 0.5292 0.5282 0.5273
3270.000000 0.5262 0.5253 0.5244 0.5234 0.5225
3265.000000 0.5215 0.5205 0.5196 0.5186 0.5176
3260.000000 0.5167 0.5157 0.5147 0.5138 0.5128
3255.000000 0.5118 0.5109 0.5099 0.5089 0.5080
3250.000000 0.5068 0.5057 0.5045 0.5033 0.5021
3245.000000 0.5009 0.4997 0.4985 0.4973 0.4960
3240.000000 0.4949 0.4936 0.4924 0.4912 0.4900
3235.000000 0.4888 0.4874 0.4853 0.4831 0.4810
3230.000000 0.4788 0.4762 0.4738 0.4712 0.4687
3225.000000 0.4666 0.4645 0.4624 0.4604 0.4588
3220.000000 0.4574 0.4560 0.4546 0.4533 0.4519
3215.000000 0.4505 0.4491 0.4479 0.4471 0.4462
3210.000000 0.4453 0.4444 0.4435 0.4426 0.4417
3205.000000 0.4408 0.4400 0.4391 0.4382 0.4373
3200.000000 0.4365 0.4356 0.4348 0.4339 0.4331
3195.000000 0.4322 0.4314 0.4306 0.4297 0.4289
3190.000000 0.4281 0.4272 0.4266 0.4260 0.4255
3185.000000 0.4249 0.4244 0.4239 0.4233 0.4228
3180.000000 0.4225 0.4224 0.4222 0.4220 0.4219
3175.000000 0.4219 0.4219 0.4219 0.4219 0.4219
3170.000000 0.4219 0.4219 0.4218 0.4218 0.4218
3165.000000 0.4218 0.4217 0.4217 0.4217 0.4217
3160.000000 0.4218 0.4220 0.4223 0.4225 0.4235
3155.000000 0.4251 0.4266 0.4282 0.4297 0.4310
3150.000000 0.4326 0.4340 0.4354 0.4369 0.4383
3145.000000 0.4398 0.4410 0.4424 0.4437 0.4450
3140.000000 0.4462 0.4476 0.4488 0.4501 0.4514
3135.000000 0.4527 0.4540 0.4553 0.4566 0.4579
3130.000000 0.4592 0.4605 0.4619 0.4632 0.4645
3125.000000 0.4659 0.4672 0.4685 0.4698 0.4710
3120.000000 0.4722 0.4734 0.4746 0.4758 0.4770
3115.000000 0.4782 0.4794 0.4805 0.4817 0.4829
3110.000000 0.4841 0.4854 0.4869 0.4884 0.4898
3105.000000 0.4914 0.4929 0.4944 0.4959 0.4970
3100.000000 0.4979 0.4988 0.4997 0.5005 0.5014
3095.000000 0.5022 0.5031 0.5040 0.5048 0.5057
3090.000000 0.5065 0.5069 0.5073 0.5078 0.5081
3085.000000 0.5082 0.5082 0.5083 0.5084 0.5084
3080.000000 0.5085 0.5085 0.5086 0.5086 0.5086
3075.000000 0.5085 0.5085 0.5085 0.5085 0.5084
3070.000000 0.5084 0.5084 0.5084 0.5083 0.5083
3065.000000 0.5083 0.5083 0.5084 0.5086 0.5088
3060.000000 0.5090 0.5093 0.5095 0.5097 0.5099
3055.000000 0.5101 0.5103 0.5105 0.5108 0.5110
3050.000000 0.5114 0.5117 0.5124 0.5133 0.5141
3045.000000 0.5150 0.5159 0.5168 0.5177 0.5186
3040.000000 0.5195 0.5204 0.5212 0.5221 0.5230
3035.000000 0.5239 0.5247 0.5256 0.5265 0.5274
3030.000000 0.5283 0.5292 0.5301 0.5309 0.5318
3025.000000 0.5325 0.5333 0.5341 0.5349 0.5357
3020.000000 0.5365 0.5373 0.5381 0.5389 0.5397
3015.000000 0.5404 0.5410 0.5417 0.5424 0.5430
3010.000000 0.5435 0.5441 0.5447 0.5453 0.5459
3005.000000 0.5464 0.5469 0.5474 0.5478 0.5482
3000.000000 0.5486 0.5489 0.5493 0.5497 0.5500
2995.000000 0.5504 0.5508 0.5510 0.5515 0.5518
2990.000000 0.5522 0.5525 0.5527 0.5540 0.5531
2985.000000 0.5532 0.5532 0.5512 0.5448 0.5383
2980.000000 0.5318 0.5281 0.5255 0.5229 0.5204
2975.000000 0.5186 0.5169 0.5151 0.5137 0.5126
2970.000000 0.5114 0.5103 0.5092 0.5080 0.5069
2965.000000 0.5059 0.5049 0.5040 0.5031 0.5023
2960.000000 0.5015 0.5008 0.5000 0.4992 0.4984
2955.000000 0.4976 0.4968 0.4960 0.4952 0.4943
2950.000000 0.4935 0.4926 0.4917 0.4909 0.4900
2945.000000 0.4891 0.4884 0.4879 0.4875 0.4870
2940.000000 0.4867 0.4864 0.4862 0.4862 0.4864
2935.000000 0.4867 0.4869 0.4873 0.4876 0.4879
2930.000000 0.4882 0.4885 0.4889 0.4893 0.4900
2925.000000 0.4907 0.4912 0.4920 0.4927 0.4934
2920.000000 0.4940 0.4947 0.4953 0.4960 0.4966
2915.000000 0.4973 0.4980 0.4987 0.4993 0.5000
2910.000000 0.5007 0.5015 0.5022 0.5029 0.5037
2905.000000 0.5045 0.5052 0.5060 0.5068 0.5076
2900.000000 0.5083 0.5091 0.5099 0.5107 0.5116
2895.000000 0.5124 0.5132 0.5140 0.5148 0.5157
2890.000000 0.5165 0.5173 0.5182 0.5190 0.5199
2885.000000 0.5208 0.5217 0.5226 0.5236 0.5246
2880.000000 0.5255 0.5265 0.5274 0.5283 0.5296
2875.000000 0.5308 0.5321 0.5338 0.5359 0.5379
2870.000000 0.5399 0.5415 0.5431 0.5447 0.5462
2865.000000 0.5478 0.5493 0.5508 0.5522 0.5537
2860.000000 0.5550 0.5560 0.5571 0.5580 0.5585
2855.000000 0.5590 0.5595 0.5599 0.5603 0.5607
2850.000000 0.5609 0.5610 0.5612 0.5614 0.5615
2845.000000 0.5616 0.5618 0.5619 0.5620 0.5620
2840.000000 0.5620 0.5618 0.5616 0.5614 0.5610
2835.000000 0.5608 0.5604 0.5600 0.5595 0.5590
2830.000000 0.5583 0.5576 0.5569 0.5565 0.5560
2825.000000 0.5556 0.5554 0.5553 0.5552 0.5551
2820.000000 0.5549 0.5549 0.5549 0.5552 0.5555
2815.000000 0.5560 0.5576 0.5591 0.5607 0.5627
2810.000000 0.5648 0.5668 0.5680 0.5692 0.5705
2805.000000 0.5712 0.5721 0.5728 0.5731 0.5732
2800.000000 0.5732 0.5732 0.5732 0.5731 0.5731
2795.000000 0.5731 0.5731 0.5731 0.5735 0.5738
2790.000000 0.5741 0.5747 0.5752 0.5758 0.5764
2785.000000 0.5769 0.5775 0.5785 0.5796 0.5806
2780.000000 0.5816 0.5827 0.5837 0.5848 0.5858
2775.000000 0.5868 0.5879 0.5889 0.5900 0.5910
2770.000000 0.5920 0.5931 0.5941 0.5952 0.5962
2765.000000 0.5973 0.5983 0.5992 0.6001 0.6008
2760.000000 0.6016 0.6024 0.6031 0.6039 0.6047
2755.000000 0.6055 0.6062 0.6067 0.6066 0.6065
2750.000000 0.6062 0.6057 0.6089 0.6043 0.6031
2745.000000 0.6018 0.6003 0.5980 0.5956 0.5921
2740.000000 0.5846 0.5772 0.5704 0.5664 0.5484
2735.000000 0.5588 0.5571 0.5554 0.5541 0.5540
2730.000000 0.5538 0.5538 0.5538 0.5538 0.5539
2725.000000 0.5539 0.5540 0.5544 0.5554 0.5564
2720.000000 0.5576 0.5593 0.5610 0.5627 0.5645
2715.000000 0.5662 0.5680 0.5698 0.5717 0.5737
2710.000000 0.5757 0.5777 0.5796 0.5814 0.5831
2705.000000 0.5844 0.5855 0.5866 0.5877 0.5888
2700.000000 0.5899 0.5910 0.5921 0.5932 0.5941
2695.000000 0.5950 0.5958 0.5965 0.5972 0.5979
2690.000000 0.5986 0.5993 0.6000 0.6007 0.6052
2685.000000 0.6020 0.6022 0.6022 0.6023 0.6023
2680.000000 0.6022 0.6021 0.6020 0.6020 0.6019
2675.000000 0.6018 0.6017 0.6014 0.6010 0.6007
2670.000000 0.6003 0.5998 0.5994 0.5990 0.5985
2665.000000 0.5980 0.5976 0.5972 0.5968 0.5964
2660.000000 0.5959 0.5954 0.5949 0.5943 0.5937
2655.000000 0.5931 0.5925 0.5919 0.5912 0.5907
2650.000000 0.5901 0.5895 0.5887 0.5877 0.5867
2645.000000 0.5856 0.5843 0.5829 0.5816 0.5802
2640.000000 0.5789 0.5773 0.5758 0.5742 0.5725
2635.000000 0.5708 0.5687 0.5657 0.5627 0.5603
2630.000000 0.5582 0.5560 0.5539 0.5517 0.5495
2625.000000 0.5485 0.5475 0.5466 0.5460 0.5457
2620.000000 0.5452 0.5448 0.5444 0.5443 0.5442
2615.000000 0.5440 0.5439 0.5437 0.5436 0.5435
2610.000000 0.5434 0.5433 0.5432 0.5431 0.5429
2605.000000 0.5428 0.5419 0.5372 0.5326 0.5299
2600.000000 0.5295 0.5291 0.5291 0.5291 0.5291
2595.000000 0.5291 0.5291 0.5291 0.5291 0.5291
2590.000000 0.5292 0.5293 0.5294 0.5310 0.5327
2585.000000 0.5349 0.5380 0.5412 0.5431 0.5441
2580.000000 0.5452 0.5460 0.5469 0.5476 0.5482
2575.000000 0.5488 0.5488 0.5488 0.5487 0.5486
2570.000000 0.5485 0.5484 0.5483 0.5483 0.5479
2565.000000 0.5473 0.5466 0.5442 0.5419 0.5385
2560.000000 0.5340 0.5295 0.5234 0.5169 0.5105
2555.000000 0.5041 0.4977 0.4912 0.4848 0.4783
2550.000000 0.4719 0.4654 0.4589 0.4525 0.4460
2545.000000 0.4395 0.4330 0.4266 0.4203 0.4104
2540.000000 0.4118 0.4118 0.4118 0.4119 0.4120
2535.000000 0.4142 0.4185 0.4227 0.4275 0.4324
2530.000000 0.4372 0.4421 0.4470 0.4519 0.4567
2525.000000 0.4616 0.4665 0.4714 0.4762 0.4812
2520.000000 0.4856 0.4875 0.4894 0.4910 0.4927
2515.000000 0.4943 0.4959 0.4975 0.4989 0.5003
2510.000000 0.5017 0.5028 0.5040 0.5052 0.5062
2505.000000 0.5075 0.5082 0.5090 0.5096 0.5101
2500.000000 0.5107 0.5108 0.5109 0.5109 0.5107
2495.000000 0.5105 0.5103 0.5101 0.5099 0.5097
2490.000000 0.5095 0.5087 0.5078 0.5069 0.5060
2485.000000 0.5052 0.5049 0.5047 0.5045 0.5044
2480.000000 0.5042 0.5041 0.5040 0.5040 0.5040
2475.000000 0.5040 0.5041 0.5042 0.5043 0.5045
2470.000000 0.5046 0.5047 0.5047 0.5049 0.5050
2465.000000 0.5051 0.5052 0.5054 0.5057 0.5060
2460.000000 0.5065 0.5070 0.5076 0.5081 0.5086
2455.000000 0.5091 0.5096 0.5106 0.5123 0.5139
2450.000000 0.5157 0.5175 0.5194 0.5212 0.5232
2445.000000 0.5253 0.5273 0.5298 0.5324 0.5350
2440.000000 0.5377 0.5403 0.5421 0.5439 0.5452
2435.000000 0.5462 0.5472 0.5478 0.5484 0.5488
2430.000000 0.5493 0.5495 0.5495 0.5496 0.5496
2425.000000 0.5496 0.5497 0.5497 0.5497 0.5496
2420.000000 0.5495 0.5492 0.5488 0.5480 0.5471
2415.000000 0.5462 0.5453 0.5444 0.5437 0.5430
2410.000000 0.5425 0.5422 0.5419 0.5419 0.5418
2405.000000 0.5418 0.5418 0.5417 0.5417 0.5417
2400.000000 0.5417 0.5417 0.5419 0.5420 0.5422
2395.000000 0.5424 0.5426 0.5427 0.5429 0.5430
2390.000000 0.5432 0.5433 0.5435 0.5438 0.5442
2385.000000 0.5445 0.5449 0.5453 0.5458 0.5462
2380.000000 0.5470 0.5477 0.5484 0.5491 0.5497
2375.000000 0.5501 0.5506 0.5510 0.5515 0.5520
2370.000000 0.5525 0.5528 0.5530 0.5532 0.5533
2365.000000 0.5535 0.5536 0.5537 0.5539 0.5540
2360.000000 0.5542 0.5544 0.5545 0.5547 0.5549
2355.000000 0.5551 0.5553 0.5554 0.5556 0.5558
2350.000000 0.5560 0.5562 0.5566 0.5569 0.5571
2345.000000 0.5574 0.5577 0.5580 0.5582 0.5585
2340.000000 0.5588 0.5590 0.5593 0.5596 0.5600
2335.000000 0.5607 0.5614 0.5621 0.5629 0.5637
2330.000000 0.5644 0.5653 0.5662 0.5679 0.5696
2325.000000 0.5714 0.5732 0.5751 0.5773 0.5794
2320.000000 0.5815 0.5837 0.5864 0.5891 0.5920
2315.000000 0.5948 0.5972 0.5995 0.6014 0.6031
2310.000000 0.6048 0.6064 0.6081 0.6098 0.6115
2305.000000 0.6132 0.6147 0.6154 0.6160 0.6168
2300.000000 0.6175 0.6177 0.6179 0.6181 0.6182
2295.000000 0.6183 0.6185 0.6186 0.6187 0.6188
2290.000000 0.6189 0.6190 0.6191 0.6192 0.6193
2285.000000 0.6194 0.6195 0.6196 0.6197 0.6197
2280.000000 0.6194 0.6190 0.6186 0.6182 0.6176
2275.000000 0.6171 0.6165 0.6160 0.6155 0.6149
2270.000000 0.6149 0.6150 0.6152 0.6154 0.6155
2265.000000 0.6157 0.6158 0.6160 0.6162 0.6164
2260.000000 0.6166 0.6170 0.6174 0.6178 0.6183
2255.000000 0.6187 0.6191 0.6195 0.6199 0.6203
2250.000000 0.6207 0.6210 0.6215 0.6220 0.6224
2245.000000 0.6228 0.6232 0.6236 0.6240 0.6245
2240.000000 0.6250 0.6256 0.6262 0.6268 0.6274
2235.000000 0.6280 0.6286 0.6293 0.6299 0.6305
2230.000000 0.6310 0.6318 0.6325 0.6332 0.6339
2225.000000 0.6345 0.6352 0.6359 0.6366 0.6373
2220.000000 0.6379 0.6386 0.6393 0.6401 0.6408
2215.000000 0.6414 0.6421 0.6428 0.6435 0.6442
2210.000000 0.6450 0.6457 0.6464 0.6472 0.6481
2205.000000 0.6488 0.6496 0.6505 0.6512 0.6521
2200.000000 0.6528 0.6537 0.6545 0.6553 0.6561
2195.000000 0.6568 0.6576 0.6585 0.6594 0.6601
2190.000000 0.6611 0.6621 0.6630 0.6640 0.6648
2185.000000 0.6657 0.6667 0.6675 0.6686 0.6695
2180.000000 0.6704 0.6712 0.6722 0.6732 0.6742
2175.000000 0.6751 0.6760 0.6771 0.6784 0.6796
2170.000000 0.6808 0.6819 0.6833 0.6845 0.6857
2165.000000 0.6868 0.6884 0.6901 0.6915 0.6928
2160.000000 0.6938 0.6948 0.6957 0.6967 0.6975
2155.000000 0.6984 0.6989 0.6994 0.6998 0.7001
2150.000000 0.7001 0.7001 0.7001 0.7001 0.7001
2145.000000 0.7001 0.7003 0.7003 0.7004 0.7006
2140.000000 0.7007 0.7008 0.7010 0.7011 0.7012
2135.000000 0.7014 0.7015 0.7018 0.7018 0.7019
2130.000000 0.7024 0.7026 0.7030 0.7033 0.7036
2125.000000 0.7039 0.7042 0.7045 0.7049 0.7054
2120.000000 0.7058 0.7065 0.7071 0.7076 0.7082
2115.000000 0.7088 0.7094 0.7100 0.7106 0.7111
2110.000000 0.7117 0.7133 0.7154 0.7172 0.7191
2105.000000 0.7203 0.7215 0.7226 0.7239 0.7251
2100.000000 0.7264 0.7275 0.7282 0.7288 0.7295
2095.000000 0.7301 0.7306 0.7311 0.7318 0.7324
2090.000000 0.7330 0.7336 0.7341 0.7346 0.7349
2085.000000 0.7353 0.7357 0.7361 0.7364 0.7368
2080.000000 0.7371 0.7375 0.7380 0.7383 0.7387
2075.000000 0.7391 0.7395 0.7398 0.7401 0.7406
2070.000000 0.7410 0.7414 0.7418 0.7421 0.7425
2065.000000 0.7430 0.7434 0.7438 0.7443 0.7448
2060.000000 0.7451 0.7456 0.7461 0.7465 0.7468
2055.000000 0.7474 0.7478 0.7483 0.7489 0.7495
2050.000000 0.7501 0.7508 0.7515 0.7521 0.7528
2045.000000 0.7536 0.7546 0.7561 0.7575 0.7592
2040.000000 0.7604 0.7615 0.7625 0.7637 0.7649
2035.000000 0.7660 0.7669 0.7682 0.7693 0.7704
2030.000000 0.7714 0.7722 0.7732 0.7741 0.7750
2025.000000 0.7758 0.7768 0.7776 0.7784 0.7791
2020.000000 0.7797 0.7803 0.7808 0.7815 0.7821
2015.000000 0.7825 0.7830 0.7834 0.7838 0.7841
2010.000000 0.7843 0.7844 0.7845 0.7845 0.7846
2005.000000 0.7846 0.7846 0.7846 0.7846 0.7845
2000.000000 0.7845 0.7844 0.7844 0.7844 0.7843
1995.000000 0.7842 0.7842 0.7841 0.7841 0.7841
1990.000000 0.7840 0.7840 0.7839 0.7839 0.7840
1985.000000 0.7842 0.7845 0.7847 0.7850 0.7851
1980.000000 0.7854 0.7862 0.7881 0.7891 0.7899
1975.000000 0.7907 0.7910 0.7910 0.7910 0.7908
1970.000000 0.7908 0.7910 0.7915 0.7926 0.7939
1965.000000 0.7950 0.7961 0.7971 0.7978 0.7983
1960.000000 0.7988 0.7993 0.7998 0.7998 0.7998
1955.000000 0.7996 0.7995 0.7993 0.7991 0.7990
1950.000000 0.7989 0.7989 0.7994 0.8004 0.8014
1945.000000 0.8024 0.8034 0.8044 0.8055 0.8065
1940.000000 0.8078 0.8089 0.8100 0.8111 0.8124
1935.000000 0.8135 0.8147 0.8158 0.8168 0.8182
1930.000000 0.8195 0.8208 0.8221 0.8233 0.8244
1925.000000 0.8250 0.8256 0.8263 0.8268 0.8275
1920.000000 0.8281 0.8287 0.8292 0.8296 0.8300
1915.000000 0.8303 0.8306 0.8310 0.8313 0.8317
1910.000000 0.8321 0.8323 0.8324 0.8324 0.8325
1905.000000 0.8327 0.8328 0.8328 0.8327 0.8325
1900.000000 0.8325 0.8324 0.8323 0.8321 0.8321
1895.000000 0.8321 0.8321 0.8321 0.8321 0.8321
1890.000000 0.8324 0.8328 0.8333 0.8337 0.8343
1885.000000 0.8348 0.8353 0.8359 0.8364 0.8370
1880.000000 0.8378 0.8388 0.8399 0.8410 0.8421
1875.000000 0.8432 0.8440 0.8448 0.8456 0.8465
1870.000000 0.8471 0.8481 0.8489 0.8497 0.8502
1865.000000 0.8501 0.8500 0.8495 0.8489 0.8484
1860.000000 0.8478 0.8474 0.8467 0.8460 0.8454
1855.000000 0.8447 0.8442 0.8439 0.8436 0.8433
1850.000000 0.8430 0.8428 0.8428 0.8428 0.8428
1845.000000 0.8428 0.8428 0.8428 0.8428 0.8428
1840.000000 0.8428 0.8428 0.8428 0.8428 0.8428
1835.000000 0.8428 0.8428 0.8428 0.8428 0.8428
1830.000000 0.8428 0.8428 0.8427 0.8425 0.8424
1825.000000 0.8423 0.8421 0.8421 0.8421 0.8421
1820.000000 0.8421 0.8423 0.8424 0.8430 0.8434
1815.000000 0.8439 0.8445 0.8450 0.8455 0.8461
1810.000000 0.8467 0.8473 0.8478 0.8486 0.8491
1805.000000 0.8497 0.8503 0.8510 0.8518 0.8527
1800.000000 0.8536 0.8546 0.8556 0.8564 0.8570
1795.000000 0.8575 0.8582 0.8588 0.8593 0.8597
1790.000000 0.8599 0.8601 0.8603 0.8605 0.8608
1785.000000 0.8608 0.8609 0.8608 0.8608 0.8607
1780.000000 0.8606 0.8604 0.8598 0.8591 0.8584
1775.000000 0.8578 0.8568 0.8556 0.8543 0.8530
1770.000000 0.8516 0.8501 0.8487 0.8473 0.8459
1765.000000 0.8441 0.8421 0.8401 0.8392 0.8385
1760.000000 0.8378 0.8375 0.8375 0.8375 0.8374
1755.000000 0.8374 0.8373 0.8373 0.8373 0.8373
1750.000000 0.8373 0.8373 0.8371 0.8368 0.8364
1745.000000 0.8361 0.8357 0.8350 0.8339 0.8325
1740.000000 0.8314 0.8300 0.8284 0.8268 0.8254
1735.000000 0.8241 0.8230 0.8218 0.8211 0.8206
1730.000000 0.8204 0.8204 0.8204 0.8202 0.8199
1725.000000 0.8197 0.8194 0.8192 0.8189 0.8186
1720.000000 0.8182 0.8176 0.8171 0.8167 0.8160
1715.000000 0.8154 0.8147 0.8140 0.8131 0.8119
1710.000000 0.8108 0.8096 0.8084 0.8071 0.8061
1705.000000 0.8048 0.8032 0.8015 0.8000 0.7984
1700.000000 0.7968 0.7951 0.7937 0.7918 0.7886
1695.000000 0.7855 0.7824 0.7792 0.7760 0.7726
1690.000000 0.7692 0.7657 0.7621 0.7586 0.7545
1685.000000 0.7504 0.7462 0.7421 0.7376 0.7325
1680.000000 0.7271 0.7210 0.7101 0.7017 0.6938
1675.000000 0.6855 0.6769 0.6697 0.6647 0.6618
1670.000000 0.6594 0.6568 0.6538 0.6507 0.6475
1665.000000 0.6442 0.6408 0.6375 0.6342 0.6305
1660.000000 0.6249 0.6186 0.6124 0.6043 0.5935
1655.000000 0.5779 0.5464 0.5160 0.5037 0.4945
1650.000000 0.4873 0.4800 0.4727 0.4644 0.4556
1645.000000 0.4466 0.4348 0.4216 0.4080 0.3977
1640.000000 0.3887 0.3741 0.3549 0.3357 0.3164
1635.000000 0.2972 0.2779 0.2585 0.2393 0.2199
1630.000000 0.2006 0.1812 0.1617 0.1423 0.1228
1625.000000 0.1048 0.0941 0.0918 0.0909 0.0908
1620.000000 0.0907 0.0905 0.0902 0.0885 0.0820
1615.000000 0.0732 0.0752 0.0752 0.0753 0.0785
1610.000000 0.0841 0.0916 0.1004 0.1088 0.1159
1605.000000 0.1216 0.1267 0.1317 0.1367 0.1419
1600.000000 0.1475 0.1539 0.1625 0.1768 0.1961
1595.000000 0.2154 0.2346 0.2539 0.2732 0.2926
1590.000000 0.3120 0.3274 0.3325 0.3336 0.3344
1585.000000 0.3352 0.3359 0.3384 0.3529 0.3855
1580.000000 0.4182 0.4451 0.4551 0.4602 0.4656
1575.000000 0.4715 0.4778 0.4839 0.4908 0.5009
1570.000000 0.5122 0.5180 0.5210 0.5233 0.5258
1565.000000 0.5285 0.5315 0.5356 0.5433 0.5555
1560.000000 0.5754 0.5893 0.5950 0.6007 0.6067
1555.000000 0.6127 0.6180 0.6229 0.6271 0.6310
1550.000000 0.6343 0.6369 0.6395 0.6419 0.6446
1545.000000 0.6475 0.6518 0.6562 0.6599 0.6637
1540.000000 0.6681 0.6730 0.6781 0.6819 0.6847
1535.000000 0.6865 0.6881 0.6897 0.6906 0.6914
1530.000000 0.6921 0.6930 0.6939 0.6947 0.6955
1525.000000 0.6962 0.6971 0.6978 0.6985 0.6990
1520.000000 0.6998 0.6998 0.6999 0.7000 0.7000
1515.000000 0.6998 0.6993 0.6984 0.6975 0.6964
1510.000000 0.6944 0.6921 0.6893 0.6835 0.6760
1505.000000 0.6558 0.6293 0.6028 0.5762 0.5549
1500.000000 0.5451 0.5425 0.5420 0.5419 0.5419
1495.000000 0.5492 0.5614 0.5735 0.5857 0.5979
1490.000000 0.6101 0.6202 0.6251 0.6280 0.6299
1485.000000 0.6312 0.6322 0.6323 0.6324 0.6312
1480.000000 0.6293 0.6269 0.6230 0.6162 0.6029
1475.000000 0.5723 0.5521 0.5353 0.5184 0.5015
1470.000000 0.4846 0.4677 0.4507 0.4344 0.4227
1465.000000 0.4133 0.4075 0.4049 0.4034 0.4022
1460.000000 0.3994 0.3889 0.3697 0.3503 0.3308
1455.000000 0.3130 0.3042 0.3054 0.3052 0.3068
1450.000000 0.3134 0.3243 0.3355 0.3466 0.3580
1445.000000 0.3693 0.3806 0.3906 0.3949 0.3980
1440.000000 0.3966 0.3966 0.3966 0.3959 0.3942
1435.000000 0.3859 0.3777 0.3693 0.3609 0.3524
1430.000000 0.3440 0.3356 0.3271 0.3200 0.3182
1425.000000 0.3181 0.3172 0.3173 0.3181 0.3214
1420.000000 0.3280 0.3347 0.3412 0.3479 0.3544
1415.000000 0.3609 0.3676 0.3743 0.3808 0.3875
1410.000000 0.3941 0.3980 0.3979 0.3968 0.3930
1405.000000 0.3887 0.3871 0.3874 0.3882 0.3936
1400.000000 0.4042 0.4152 0.4262 0.4371 0.4481
1395.000000 0.4591 0.4600 0.4605 0.4606 0.4596
1390.000000 0.4578 0.4546 0.4496 0.4410 0.4262
1385.000000 0.4112 0.3990 0.3866 0.3744 0.3622
1380.000000 0.3499 0.3375 0.3250 0.3128 0.3004
1375.000000 0.2879 0.2755 0.2577 0.2564 0.2583
1370.000000 0.2664 0.2754 0.2844 0.2934 0.3023
1365.000000 0.3114 0.3199 0.3202 0.3203 0.3149
1360.000000 0.3070 0.2989 0.2909 0.2829 0.2748
1355.000000 0.2666 0.2585 0.2505 0.2424 0.2346
1350.000000 0.2311 0.2308 0.2325 0.2389 0.2463
1345.000000 0.2537 0.2611 0.2685 0.2760 0.2833
1340.000000 0.2834 0.2834 0.2783 0.2729 0.2676
1335.000000 0.2541 0.2569 0.2532 0.2618 0.2756
1330.000000 0.2893 0.3031 0.3168 0.3307 0.3444
1325.000000 0.3582 0.3722 0.3859 0.3958 0.3998
1320.000000 0.4034 0.4064 0.4137 0.4105 0.4106
1315.000000 0.3997 0.3824 0.3650 0.3476 0.3392
1310.000000 0.3399 0.3482 0.3639 0.3796 0.3952
1305.000000 0.4109 0.4267 0.4424 0.4582 0.4740
1300.000000 0.4898 0.5056 0.5227 0.5205 0.5205
1295.000000 0.5062 0.4798 0.4532 0.4265 0.3948
1290.000000 0.3972 0.3972 0.4107 0.4321 0.4534
1285.000000 0.4749 0.4962 0.5178 0.5393 0.5581
1280.000000 0.5670 0.5724 0.5771 0.5810 0.5843
1275.000000 0.5871 0.5894 0.5907 0.5932 0.5922
1270.000000 0.5917 0.5899 0.5873 0.5798 0.5427
1265.000000 0.4825 0.4217 0.3608 0.2998 0.2388
1260.000000 0.1727 0.1717 0.1769 0.2067 0.2378
1255.000000 0.2689 0.3000 0.3312 0.3624 0.3937
1250.000000 0.4251 0.4564 0.4879 0.5194 0.5378
1245.000000 0.5457 0.5547 0.5636 0.5652 0.5662
1240.000000 0.5657 0.5636 0.5595 0.5502 0.5305
1235.000000 0.5012 0.4726 0.4528 0.4435 0.4410
1230.000000 0.4395 0.4373 0.4346 0.4307 0.4260
1225.000000 0.4162 0.4014 0.3891 0.3768 0.3780
1220.000000 0.3760 0.3768 0.3809 0.3892 0.3966
1215.000000 0.4045 0.4129 0.4260 0.4435 0.4608
1210.000000 0.4782 0.4957 0.5131 0.5297 0.5421
1205.000000 0.5456 0.5475 0.5492 0.5539 0.5673
1200.000000 0.5912 0.6086 0.6225 0.6290 0.6306
1195.000000 0.6306 0.6306 0.6281 0.6219 0.6155
1190.000000 0.6133 0.6134 0.6176 0.6307 0.6454
1185.000000 0.6603 0.6751 0.6900 0.7003 0.7028
1180.000000 0.7041 0.7043 0.7001 0.6846 0.6746
1175.000000 0.6725 0.6721 0.6744 0.6784 0.6875
1170.000000 0.6984 0.7090 0.7187 0.7264 0.7340
1165.000000 0.7412 0.7468 0.7521 0.7575 0.7628
1160.000000 0.7680 0.7725 0.7774 0.7815 0.7856
1155.000000 0.7896 0.7936 0.7975 0.8011 0.8038
1150.000000 0.8062 0.8090 0.8114 0.8131 0.8147
1145.000000 0.8162 0.8178 0.8187 0.8195 0.8203
1140.000000 0.8210 0.8216 0.8218 0.8223 0.8225
1135.000000 0.8228 0.8228 0.8228 0.8227 0.8224
1130.000000 0.8220 0.8209 0.8197 0.8182 0.8161
1125.000000 0.8135 0.8107 0.8072 0.7991 0.7717
1120.000000 0.7475 0.7233 0.6991 0.6649 0.6635
1115.000000 0.6631 0.6715 0.6849 0.6984 0.7112
1110.000000 0.7139 0.7141 0.7028 0.6836 0.6494
1105.000000 0.6508 0.6500 0.6622 0.6812 0.7003
1100.000000 0.7161 0.7286 0.7407 0.7501 0.7594
1095.000000 0.7655 0.7711 0.7768 0.7822 0.7868
1090.000000 0.7914 0.7958 0.8004 0.8043 0.8078
1085.000000 0.8112 0.8139 0.8164 0.8180 0.8196
1080.000000 0.8204 0.8175 0.8211 0.8203 0.8176
1075.000000 0.7926 0.7475 0.7074 0.6671 0.6268
1070.000000 0.5864 0.5484 0.5405 0.5400 0.5414
1065.000000 0.5486 0.5557 0.5621 0.5584 0.5250
1060.000000 0.4915 0.4802 0.4788 0.4945 0.5392
1055.000000 0.5841 0.6290 0.6739 0.7033 0.7175
1050.000000 0.7326 0.7451 0.7575 0.7661 0.7714
1045.000000 0.7742 0.7757 0.7746 0.7762 0.7758
1040.000000 0.7728 0.7571 0.7308 0.6955 0.6569
1035.000000 0.6203 0.5836 0.5470 0.5134 0.4825
1030.000000 0.4514 0.4204 0.3893 0.3568 0.3029
1025.000000 0.2439 0.1877 0.1562 0.1320 0.1177
1020.000000 0.1174 0.1165 0.1156 0.1131 0.1000
1015.000000 0.0754 0.0648 0.0647 0.0647 0.1402
1010.000000 0.1972 0.2299 0.2651 0.3004 0.3357
1005.000000 0.3712 0.4066 0.4423 0.4779 0.5136
1000.000000 0.5495 0.6053 0.6085 0.5986 0.5791
995.000000 0.5733 0.5667 0.5505 0.5255 0.4632
990.000000 0.3950 0.3262 0.2531 0.2521 0.2602
985.000000 0.2715 0.2904 0.2828 0.2573 0.2227
980.000000 0.2245 0.2567 0.3038 0.3509 0.3982
975.000000 0.4298 0.4862 0.5201 0.5579 0.5870
970.000000 0.6193 0.6449 0.6605 0.6704 0.6803
965.000000 0.6895 0.6987 0.7069 0.7125 0.7184
960.000000 0.7237 0.7283 0.7326 0.7362 0.7399
955.000000 0.7430 0.7460 0.7489 0.7514 0.7515
950.000000 0.7539 0.7535 0.7521 0.7478 0.7421
945.000000 0.7346 0.7265 0.7203 0.7157 0.7121
940.000000 0.7093 0.7064 0.7000 0.7036 0.7132
935.000000 0.7261 0.7356 0.7447 0.7539 0.7632
930.000000 0.7724 0.7800 0.7864 0.7925 0.7978
925.000000 0.8025 0.8061 0.8096 0.8125 0.8148
920.000000 0.8171 0.8209 0.8193 0.8187 0.8175
915.000000 0.8156 0.8132 0.8089 0.8033 0.7956
910.000000 0.7883 0.7811 0.7728 0.7631 0.7521
905.000000 0.7355 0.7098 0.7012 0.7068 0.7204
900.000000 0.7349 0.7475 0.7591 0.7696 0.7794
895.000000 0.7883 0.7968 0.7988 0.7975 0.7936
890.000000 0.7868 0.7719 0.7334 0.6871 0.6495
885.000000 0.6126 0.5755 0.5385 0.5012 0.4641
880.000000 0.4571 0.4555 0.4519 0.4409 0.4315
875.000000 0.4300 0.4293 0.4202 0.4125 0.4114
870.000000 0.4349 0.4729 0.5048 0.5287 0.5500
865.000000 0.5697 0.5879 0.6064 0.6262 0.6474
860.000000 0.6717 0.6981 0.7184 0.7271 0.7324
855.000000 0.7375 0.7448 0.7525 0.7607 0.7687
850.000000 0.7761 0.7837 0.7906 0.7975 0.8031
845.000000 0.8076 0.8114 0.8153 0.8135 0.8128
840.000000 0.8114 0.8086 0.8042 0.7983 0.7893
835.000000 0.7775 0.7622 0.7451 0.7176 0.6714
830.000000 0.6242 0.5388 0.4516 0.3644 0.2660
825.000000 0.2659 0.2654 0.2693 0.2783 0.2768
820.000000 0.2665 0.2656 0.2779 0.3298 0.3943
815.000000 0.4537 0.4878 0.5312 0.5747 0.6128
810.000000 0.6419 0.6682 0.6865 0.7000 0.7118
805.000000 0.7222 0.7303 0.7369 0.7399 0.7390
800.000000 0.7240 0.6680 0.5897 0.5110 0.4324
795.000000 0.3358 0.3441 0.4066 0.4708 0.5351
790.000000 0.5793 0.6103 0.6302 0.6419 0.6518
785.000000 0.6596 0.6660 0.6706 0.6742 0.6797
780.000000 0.6839 0.6836 0.6814 0.6798 0.6800
775.000000 0.6805 0.6804 0.6799 0.6786 0.6741
770.000000 0.6671 0.6593 0.6515 0.6532 0.6545
765.000000 0.6575 0.6608 0.6639 0.6669 0.6693
760.000000 0.6691 0.6687 0.6683 0.6689 0.6694
755.000000 0.6701 0.6706 0.6712 0.6722 0.6733
750.000000 0.6742 0.6749 0.6751 0.6743 0.6706
745.000000 0.6651 0.6587 0.6487 0.6319 0.6137
740.000000 0.5901 0.5580 0.5325 0.5039 0.4543
735.000000 0.4082 0.3672 0.3259 0.2848 0.2407
730.000000 0.2203 0.2155 0.2155 0.2154 0.2243
725.000000 0.2421 0.2731 0.2962 0.3159 0.3342
720.000000 0.3512 0.3679 0.3846 0.4012 0.4181
715.000000 0.4349 0.4518 0.4625 0.4703 0.4746
710.000000 0.4746 0.4745 0.4692 0.4557 0.4237
705.000000 0.4000 0.3818 0.3677 0.3572 0.3477
700.000000 0.3370 0.3246 0.3113 0.3043 0.3182
695.000000 0.3407 0.3632 0.3860 0.4054 0.4089
690.000000 0.4134 0.4278 0.4503 0.4730 0.4865
685.000000 0.4875 0.4870 0.4862 0.4923 0.5095
680.000000 0.5312 0.5588 0.5803 0.5998 0.6142
675.000000 0.6262 0.6383 0.6504 0.6600 0.6299
670.000000 0.6530 0.6772 0.6885 0.7106 0.7280
665.000000 0.7434 0.7487 0.7468 0.7221 0.5695
660.000000 0.4849 0.3578 0.2495 0.2344 0.2373
655.000000 0.2531 0.3079 0.3814 0.4538 0.5052
650.000000 0.5566
##END=
