##TITLE=Aniline, N,2-di-tert-butyl-4-methyl-
##JCAMP-DX=4.24
##DATA TYPE=INFRARED SPECTRUM
##CLASS=COBLENTZ III
##ORIGIN=MONSANTO (J. FREEMAN)
##OWNER=Copyright (C) 1987 by the Coblentz Society
Collection (C) 2018 copyright by the U.S. Secretary of Commerce
on behalf of the United States of America. All rights reserved.
##DATE=1959/02/18
##NAMES=N-(tert-butyl)-N-(2-tert-butyl-4-methylphenyl)amine
N,2-ditert-butyl-4-methylaniline
p-Toluidine, N,2-di-tert-butyl-
##MOLFORM=C15 H25 N
##SOURCE REFERENCE=COBLENTZ NO. 8497
##$NIST ID=B6008497
##$NIST SOURCE=COBLENTZ
##$NIST IMAGE=cob8497
##SPECTROMETER/DATA SYSTEM=BECKMAN IR-4 (HYBRID PRISM-GRATING)
##INSTRUMENT PARAMETERS=NaCl PRISM
##STATE=LIQUID (NEAT)
##PATH LENGTH=CAPILLARY
##SAMPLING PROCEDURE=TRANSMISSION
##RESOLUTION=2
##DATA PROCESSING=DIGITIZED BY COBLENTZ SOCIETY (BATCH II) FROM HARD COPY (ADJUSTED \addmicron\0.06um\)
##XUNITS=1/CM
##YUNITS=TRANSMITTANCE
##XFACTOR=1.0
##YFACTOR=1
##DELTAX=0.964922
##FIRSTX=626
##LASTX=3881.65
##FIRSTY=0.7665
##MAXX=3881.65
##MINX=626
##MAXY=0.9048
##MINY=0
##NPOINTS=3375
##XYDATA=(X++(Y..Y))
626.000000 0.7665 0.7599 0.7531 0.7450 0.7377
630.824609 0.7316 0.7269 0.7224 0.7175 0.7132
635.649217 0.7094 0.7058 0.7024 0.6993 0.6971
640.473826 0.6958 0.6941 0.6944 0.6977 0.7004
645.298435 0.7035 0.7077 0.7122 0.7166 0.7216
650.123043 0.7272 0.7324 0.7364 0.7404 0.7443
654.947652 0.7483 0.7521 0.7573 0.7627 0.7680
659.772261 0.7734 0.7790 0.7823 0.7842 0.7850
664.596870 0.7853 0.7865 0.7898 0.7944 0.7990
669.421478 0.8041 0.8095 0.8149 0.8193 0.8225
674.246087 0.8241 0.8245 0.8243 0.8253 0.8259
679.070696 0.8263 0.8267 0.8270 0.8270 0.8264
683.895304 0.8251 0.8213 0.8169 0.8133 0.8113
688.719913 0.8109 0.8143 0.8187 0.8229 0.8273
693.544522 0.8312 0.8344 0.8373 0.8399 0.8418
698.369130 0.8432 0.8450 0.8469 0.8487 0.8505
703.193739 0.8521 0.8528 0.8536 0.8559 0.8567
708.018348 0.8558 0.8548 0.8543 0.8539 0.8536
712.842956 0.8533 0.8534 0.8534 0.8535 0.8536
717.667565 0.8536 0.8541 0.8549 0.8558 0.8567
722.492174 0.8577 0.8580 0.8571 0.8558 0.8537
727.316783 0.8510 0.8476 0.8444 0.8412 0.8372
732.141391 0.8329 0.8281 0.8232 0.8183 0.8119
736.966000 0.8060 0.8029 0.8006 0.8001 0.7995
741.790609 0.7991 0.7998 0.8012 0.8028 0.8043
746.615217 0.8059 0.8075 0.8086 0.8075 0.8053
751.439826 0.8033 0.8013 0.7999 0.7991 0.7983
756.264435 0.7979 0.7980 0.7981 0.7983 0.7985
761.089043 0.7987 0.7983 0.7976 0.7953 0.7918
765.913652 0.7882 0.7853 0.7835 0.7817 0.7810
770.738261 0.7811 0.7822 0.7843 0.7866 0.7877
775.562870 0.7882 0.7884 0.7880 0.7867 0.7850
780.387478 0.7828 0.7795 0.7748 0.7679 0.7586
785.212087 0.7480 0.7368 0.7250 0.7129 0.7013
790.036696 0.6926 0.6877 0.6849 0.6834 0.6814
794.861304 0.6758 0.6646 0.6495 0.6325 0.6132
799.685913 0.5805 0.5335 0.4845 0.4356 0.3872
804.510522 0.3442 0.3180 0.2927 0.2671 0.2380
809.335130 0.2304 0.2278 0.2354 0.2591 0.2886
814.159739 0.3183 0.3480 0.3775 0.4071 0.4365
818.984348 0.4660 0.4952 0.5246 0.5538 0.5803
823.808956 0.6041 0.6294 0.6610 0.6875 0.7104
828.633565 0.7346 0.7587 0.7770 0.7897 0.7996
833.458174 0.8080 0.8158 0.8231 0.8299 0.8364
838.282783 0.8427 0.8489 0.8549 0.8607 0.8659
843.107391 0.8698 0.8732 0.8758 0.8777 0.8795
847.932000 0.8811 0.8824 0.8836 0.8842 0.8847
852.756609 0.8852 0.8856 0.8858 0.8858 0.8859
857.581217 0.8858 0.8845 0.8854 0.8848 0.8833
862.405826 0.8817 0.8801 0.8786 0.8754 0.8705
867.230435 0.8635 0.8509 0.8332 0.8085 0.7760
872.055043 0.7341 0.6908 0.6475 0.6109 0.6013
876.879652 0.5993 0.6314 0.6666 0.6987 0.7299
881.704261 0.7497 0.7594 0.7661 0.7747 0.7870
886.528869 0.8007 0.8143 0.8281 0.8439 0.8577
891.353478 0.8644 0.8666 0.8659 0.8649 0.8629
896.178087 0.8566 0.8478 0.8374 0.8237 0.8063
901.002696 0.7927 0.7876 0.7891 0.7933 0.7989
905.827304 0.8051 0.8120 0.8189 0.8236 0.8267
910.651913 0.8276 0.8264 0.8236 0.8201 0.8166
915.476522 0.8135 0.8107 0.8105 0.8090 0.8138
920.301130 0.8160 0.8176 0.8188 0.8181 0.8166
925.125739 0.8146 0.8118 0.8112 0.8109 0.8113
929.950348 0.8131 0.8158 0.8191 0.8228 0.8266
934.774956 0.8295 0.8315 0.8330 0.8336 0.8332
939.599565 0.8321 0.8299 0.8262 0.8221 0.8173
944.424174 0.8114 0.8051 0.7988 0.7926 0.7863
949.248783 0.7801 0.7739 0.7677 0.7615 0.7554
954.073391 0.7492 0.7430 0.7369 0.7308 0.7246
958.898000 0.7180 0.7109 0.7075 0.7059 0.7032
963.722609 0.7064 0.7095 0.7205 0.7315 0.7424
968.547217 0.7533 0.7642 0.7760 0.7898 0.8036
973.371826 0.8185 0.8315 0.8402 0.8444 0.8474
978.196435 0.8496 0.8511 0.8524 0.8531 0.8529
983.021043 0.8510 0.8500 0.8489 0.8473 0.8457
987.845652 0.8441 0.8422 0.8402 0.8381 0.8361
992.670261 0.8341 0.8324 0.8312 0.8308 0.8308
997.494869 0.8309 0.8316 0.8325 0.8335 0.8345
1002.319478 0.8356 0.8367 0.8375 0.8376 0.8362
1007.144087 0.8320 0.8234 0.8022 0.7793 0.7566
1011.968696 0.7339 0.7118 0.6966 0.6876 0.6785
1016.793304 0.6740 0.6738 0.6720 0.6815 0.6948
1021.617913 0.7030 0.7108 0.7185 0.7263 0.7339
1026.442522 0.7417 0.7493 0.7567 0.7620 0.7664
1031.267130 0.7695 0.7721 0.7741 0.7758 0.7776
1036.091739 0.7801 0.7828 0.7870 0.7924 0.7986
1040.916348 0.8047 0.8097 0.8136 0.8168 0.8197
1045.740956 0.8227 0.8254 0.8277 0.8296 0.8312
1050.565565 0.8323 0.8336 0.8348 0.8357 0.8364
1055.390174 0.8371 0.8378 0.8383 0.8389 0.8395
1060.214782 0.8402 0.8411 0.8420 0.8429 0.8439
1065.039391 0.8448 0.8454 0.8459 0.8479 0.8463
1069.864000 0.8465 0.8464 0.8463 0.8450 0.8433
1074.688609 0.8383 0.8325 0.8247 0.8161 0.8074
1079.513217 0.7989 0.7902 0.7804 0.7711 0.7625
1084.337826 0.7571 0.7546 0.7528 0.7599 0.7714
1089.162435 0.7832 0.7950 0.8087 0.8201 0.8276
1093.987043 0.8332 0.8376 0.8410 0.8436 0.8458
1098.811652 0.8482 0.8507 0.8532 0.8557 0.8581
1103.636261 0.8603 0.8621 0.8635 0.8648 0.8660
1108.460869 0.8669 0.8674 0.8675 0.8674 0.8671
1113.285478 0.8662 0.8650 0.8638 0.8625 0.8613
1118.110087 0.8597 0.8574 0.8526 0.8466 0.8394
1122.934695 0.8302 0.8177 0.8077 0.8040 0.8018
1127.759304 0.8044 0.8096 0.8209 0.8296 0.8368
1132.583913 0.8397 0.8413 0.8403 0.8405 0.8394
1137.408522 0.8372 0.8335 0.8282 0.8220 0.8152
1142.233130 0.8080 0.7992 0.7883 0.7770 0.7656
1147.057739 0.7544 0.7431 0.7320 0.7250 0.7231
1151.882348 0.7238 0.7272 0.7317 0.7362 0.7404
1156.706956 0.7420 0.7401 0.7350 0.7285 0.7220
1161.531565 0.7155 0.7104 0.7086 0.7116 0.7176
1166.356174 0.7231 0.7260 0.7260 0.7249 0.7231
1171.180782 0.7209 0.7173 0.7106 0.7016 0.6896
1176.005391 0.6719 0.6531 0.6343 0.6155 0.5967
1180.830000 0.5780 0.5593 0.5407 0.5221 0.5035
1185.654609 0.4850 0.4664 0.4480 0.4296 0.4111
1190.479217 0.3927 0.3744 0.3559 0.3340 0.3031
1195.303826 0.2891 0.2574 0.2390 0.2265 0.2147
1200.128435 0.2046 0.1989 0.1934 0.1881 0.1834
1204.953043 0.1790 0.1759 0.1737 0.1745 0.1722
1209.777652 0.1711 0.1705 0.1697 0.1688 0.1675
1214.602261 0.1655 0.1633 0.1614 0.1606 0.1617
1219.426869 0.1669 0.1809 0.1986 0.2163 0.2340
1224.251478 0.2517 0.2693 0.2870 0.3045 0.3221
1229.076087 0.3396 0.3562 0.3650 0.3666 0.3674
1233.900695 0.3675 0.3662 0.3612 0.3501 0.3354
1238.725304 0.3207 0.3060 0.2913 0.2767 0.2620
1243.549913 0.2474 0.2333 0.2227 0.2199 0.2195
1248.374522 0.2220 0.2364 0.2513 0.2662 0.2811
1253.199130 0.2958 0.3074 0.3094 0.3103 0.3097
1258.023739 0.3078 0.2989 0.2892 0.2795 0.2699
1262.848348 0.2603 0.2518 0.2512 0.2541 0.2703
1267.672956 0.2869 0.3035 0.3199 0.3365 0.3529
1272.497565 0.3659 0.3690 0.3699 0.3676 0.3690
1277.322174 0.3674 0.3641 0.3585 0.3527 0.3468
1282.146782 0.3410 0.3352 0.3320 0.3312 0.3317
1286.971391 0.3382 0.3462 0.3543 0.3624 0.3705
1291.796000 0.3786 0.3866 0.3946 0.4027 0.4087
1296.620608 0.4108 0.4109 0.4092 0.3974 0.3754
1301.445217 0.3503 0.3252 0.3002 0.2752 0.2538
1306.269826 0.2451 0.2450 0.2456 0.2459 0.2483
1311.094435 0.2707 0.3196 0.3778 0.4359 0.4872
1315.919043 0.5198 0.5364 0.5502 0.5822 0.6251
1320.743652 0.6432 0.6572 0.6693 0.6808 0.6919
1325.568261 0.7023 0.7115 0.7199 0.7275 0.7347
1330.392869 0.7413 0.7462 0.7500 0.7532 0.7547
1335.217478 0.7556 0.7559 0.7561 0.7562 0.7560
1340.042087 0.7559 0.7555 0.7546 0.7549 0.7545
1344.866695 0.7540 0.7535 0.7526 0.7512 0.7490
1349.691304 0.7453 0.7396 0.7332 0.7256 0.7022
1354.515913 0.6503 0.5946 0.5391 0.4836 0.4282
1359.340522 0.3729 0.3177 0.2625 0.2112 0.1918
1364.165130 0.1899 0.1903 0.1963 0.2202 0.2484
1368.989739 0.2769 0.3053 0.3336 0.3619 0.3902
1373.814348 0.4185 0.4467 0.4748 0.5029 0.5268
1378.638956 0.5356 0.5362 0.5354 0.5340 0.5295
1383.463565 0.5062 0.4664 0.4229 0.3795 0.3362
1388.288174 0.2930 0.2569 0.2436 0.2424 0.2426
1393.112782 0.2517 0.2687 0.2875 0.3063 0.3251
1397.937391 0.3439 0.3626 0.3766 0.3817 0.3820
1402.762000 0.3799 0.3752 0.3697 0.3653 0.3636
1407.586608 0.3653 0.3731 0.3865 0.4009 0.4154
1412.411217 0.4297 0.4441 0.4585 0.4728 0.4871
1417.235826 0.5013 0.5155 0.5297 0.5437 0.5579
1422.060435 0.5718 0.5806 0.5802 0.5796 0.5796
1426.885043 0.5765 0.5663 0.5533 0.5402 0.5272
1431.709652 0.5142 0.5012 0.4882 0.4752 0.4623
1436.534261 0.4494 0.4365 0.4236 0.4109 0.4009
1441.358869 0.3916 0.3838 0.3764 0.3698 0.3631
1446.183478 0.3570 0.3515 0.3460 0.3406 0.3355
1451.008087 0.3305 0.3254 0.3199 0.3144 0.3065
1455.832695 0.2974 0.2913 0.2875 0.2842 0.2820
1460.657304 0.2814 0.2813 0.2813 0.2821 0.2845
1465.481913 0.2874 0.2904 0.2934 0.2961 0.2975
1470.306521 0.2976 0.2973 0.2971 0.2968 0.2962
1475.131130 0.2955 0.2937 0.2895 0.2834 0.2778
1479.955739 0.2736 0.2703 0.2680 0.2667 0.2656
1484.780348 0.2645 0.2643 0.2663 0.2698 0.2732
1489.604956 0.2766 0.2800 0.2834 0.2857 0.2853
1494.429565 0.2802 0.2666 0.2489 0.2313 0.2138
1499.254174 0.1962 0.1786 0.1602 0.1412 0.1350
1504.078782 0.1329 0.1312 0.1298 0.1291 0.1284
1508.903391 0.1282 0.1280 0.1275 0.1280 0.1287
1513.728000 0.1297 0.1316 0.1338 0.1379 0.1450
1518.552608 0.1583 0.1736 0.1889 0.2042 0.2194
1523.377217 0.2347 0.2499 0.2650 0.2802 0.2953
1528.201826 0.3105 0.3256 0.3407 0.3558 0.3708
1533.026434 0.3859 0.4009 0.4158 0.4308 0.4458
1537.851043 0.4608 0.4757 0.4906 0.5054 0.5203
1542.675652 0.5351 0.5500 0.5648 0.5791 0.5905
1547.500261 0.6099 0.6379 0.6585 0.6700 0.6788
1552.324869 0.6853 0.6899 0.6938 0.6971 0.6997
1557.149478 0.7020 0.7043 0.7069 0.7102 0.7141
1561.974087 0.7183 0.7227 0.7264 0.7289 0.7300
1566.798695 0.7303 0.7303 0.7303 0.7304 0.7287
1571.623304 0.7269 0.7240 0.7203 0.7160 0.7106
1576.447913 0.7035 0.6950 0.6860 0.6771 0.6682
1581.272521 0.6578 0.6442 0.6477 0.6502 0.6560
1586.097130 0.6631 0.6702 0.6773 0.6842 0.6894
1590.921739 0.6899 0.6901 0.6892 0.6874 0.6837
1595.746348 0.6779 0.6732 0.6688 0.6639 0.6539
1600.570956 0.6399 0.6254 0.5766 0.5484 0.5375
1605.395565 0.5307 0.5119 0.4801 0.4434 0.4061
1610.220174 0.3728 0.3527 0.3489 0.3486 0.3491
1615.044782 0.3492 0.3516 0.3667 0.3857 0.4047
1619.869391 0.4238 0.4428 0.4618 0.4806 0.4996
1624.694000 0.5185 0.5374 0.5563 0.5751 0.5939
1629.518608 0.6127 0.6314 0.6444 0.6521 0.6588
1634.343217 0.6656 0.6724 0.6794 0.6871 0.6959
1639.167826 0.7058 0.7180 0.7323 0.7452 0.7558
1643.992434 0.7653 0.7743 0.7824 0.7885 0.7927
1648.817043 0.7962 0.7995 0.8026 0.8057 0.8087
1653.641652 0.8122 0.8169 0.8225 0.8295 0.8375
1658.466261 0.8438 0.8465 0.8484 0.8495 0.8505
1663.290869 0.8516 0.8527 0.8536 0.8543 0.8551
1668.115478 0.8559 0.8566 0.8574 0.8582 0.8590
1672.940087 0.8599 0.8610 0.8621 0.8631 0.8643
1677.764695 0.8653 0.8664 0.8677 0.8689 0.8703
1682.589304 0.8717 0.8730 0.8743 0.8756 0.8767
1687.413913 0.8778 0.8788 0.8799 0.8810 0.8821
1692.238521 0.8831 0.8842 0.8851 0.8859 0.8867
1697.063130 0.8875 0.8883 0.8890 0.8898 0.8906
1701.887739 0.8913 0.8920 0.8924 0.8929 0.8934
1706.712347 0.8939 0.8944 0.8948 0.8953 0.8958
1711.536956 0.8962 0.8964 0.8966 0.8967 0.8967
1716.361565 0.8968 0.8970 0.8971 0.8972 0.8996
1721.186174 0.8988 0.8975 0.8976 0.8975 0.8974
1726.010782 0.8972 0.8971 0.8969 0.8968 0.8966
1730.835391 0.8962 0.8955 0.8947 0.8939 0.8931
1735.660000 0.8922 0.8914 0.8906 0.8897 0.8887
1740.484608 0.8877 0.8867 0.8857 0.8847 0.8837
1745.309217 0.8826 0.8815 0.8803 0.8791 0.8779
1750.133826 0.8766 0.8749 0.8726 0.8707 0.8699
1754.958434 0.8693 0.8688 0.8692 0.8693 0.8695
1759.783043 0.8698 0.8701 0.8704 0.8710 0.8716
1764.607652 0.8723 0.8730 0.8736 0.8743 0.8752
1769.432260 0.8764 0.8780 0.8796 0.8814 0.8831
1774.256869 0.8849 0.8863 0.8877 0.8892 0.8907
1779.081478 0.8921 0.8928 0.8933 0.8939 0.8944
1783.906087 0.8949 0.8954 0.8958 0.8959 0.8959
1788.730695 0.8958 0.8957 0.8956 0.8953 0.8950
1793.555304 0.8947 0.8943 0.8937 0.8928 0.8918
1798.379913 0.8908 0.8897 0.8887 0.8875 0.8862
1803.204521 0.8848 0.8833 0.8815 0.8792 0.8769
1808.029130 0.8754 0.8743 0.8734 0.8731 0.8730
1812.853739 0.8731 0.8733 0.8737 0.8743 0.8748
1817.678347 0.8755 0.8762 0.8771 0.8780 0.8791
1822.502956 0.8803 0.8814 0.8824 0.8833 0.8843
1827.327565 0.8851 0.8858 0.8861 0.8864 0.8866
1832.152174 0.8869 0.8871 0.8873 0.8873 0.8873
1836.976782 0.8872 0.8870 0.8869 0.8866 0.8863
1841.801391 0.8859 0.8855 0.8852 0.8847 0.8839
1846.626000 0.8831 0.8823 0.8814 0.8805 0.8795
1851.450608 0.8779 0.8751 0.8716 0.8679 0.8642
1856.275217 0.8607 0.8578 0.8555 0.8536 0.8521
1861.099826 0.8510 0.8499 0.8491 0.8486 0.8485
1865.924434 0.8484 0.8484 0.8483 0.8479 0.8478
1870.749043 0.8495 0.8505 0.8524 0.8554 0.8577
1875.573652 0.8598 0.8619 0.8639 0.8658 0.8678
1880.398260 0.8696 0.8711 0.8724 0.8736 0.8747
1885.222869 0.8759 0.8771 0.8783 0.8796 0.8809
1890.047478 0.8822 0.8835 0.8847 0.8855 0.8862
1894.872087 0.8868 0.8874 0.8880 0.8886 0.8892
1899.696695 0.8898 0.8904 0.8910 0.8916 0.8921
1904.521304 0.8923 0.8926 0.8928 0.8930 0.8933
1909.345913 0.8935 0.8937 0.8939 0.8942 0.8944
1914.170521 0.8946 0.8949 0.8949 0.8950 0.8951
1918.995130 0.8953 0.8954 0.8955 0.8957 0.8958
1923.819739 0.8958 0.8960 0.8961 0.8962 0.8964
1928.644347 0.8965 0.8965 0.8967 0.8968 0.8969
1933.468956 0.8970 0.8971 0.8972 0.8973 0.8974
1938.293565 0.8975 0.8976 0.8978 0.8978 0.8979
1943.118173 0.8980 0.8982 0.8983 0.8983 0.8985
1947.942782 0.8986 0.8986 0.8987 0.8989 0.8989
1952.767391 0.8990 0.8991 0.8992 0.8993 0.8993
1957.592000 0.8994 0.8995 0.8995 0.8996 0.8997
1962.416608 0.8998 0.8999 0.8999 0.9000 0.9001
1967.241217 0.9001 0.9002 0.9003 0.9004 0.9005
1972.065826 0.9006 0.9006 0.9007 0.9007 0.9008
1976.890434 0.9009 0.9010 0.9011 0.9011 0.9008
1981.715043 0.9010 0.9013 0.9014 0.9015 0.9016
1986.539652 0.9017 0.9017 0.9018 0.9020 0.9020
1991.364260 0.9021 0.9021 0.9022 0.9024 0.9025
1996.188869 0.9026 0.9027 0.9028 0.9029 0.9030
2001.013478 0.9031 0.9032 0.9033 0.9033 0.9034
2005.838087 0.9035 0.9036 0.9037 0.9038 0.9039
2010.662695 0.9040 0.9041 0.9042 0.9043 0.9044
2015.487304 0.9045 0.9046 0.9047 0.9047 0.9047
2020.311913 0.9047 0.9047 0.9047 0.9047 0.9047
2025.136521 0.9047 0.9047 0.9047 0.9047 0.9047
2029.961130 0.9047 0.9048 0.9048 0.9048 0.9047
2034.785739 0.9047 0.9046 0.9045 0.9044 0.9043
2039.610347 0.9043 0.9042 0.9042 0.9041 0.9040
2044.434956 0.9039 0.9038 0.9038 0.9037 0.9037
2049.259565 0.9035 0.9034 0.9034 0.9033 0.9033
2054.084173 0.9032 0.9031 0.9030 0.9029 0.9028
2058.908782 0.9027 0.9026 0.9025 0.9024 0.9022
2063.733391 0.9021 0.9020 0.9019 0.9018 0.9017
2068.558000 0.9016 0.9014 0.9013 0.9012 0.9011
2073.382608 0.9009 0.9008 0.9007 0.9006 0.9004
2078.207217 0.9003 0.9002 0.9001 0.9000 0.8999
2083.031826 0.8998 0.8997 0.8995 0.8994 0.8993
2087.856434 0.8992 0.8991 0.8990 0.8989 0.8988
2092.681043 0.8987 0.8986 0.8985 0.8985 0.8984
2097.505652 0.8983 0.8982 0.8982 0.8981 0.8981
2102.330260 0.8980 0.8978 0.8978 0.8977 0.8977
2107.154869 0.8976 0.8975 0.8974 0.8974 0.8973
2111.979478 0.8973 0.8972 0.8970 0.8970 0.8969
2116.804086 0.8969 0.8968 0.8968 0.8967 0.8966
2121.628695 0.8965 0.8965 0.8964 0.8964 0.8962
2126.453304 0.8961 0.8961 0.8960 0.8960 0.8959
2131.277913 0.8959 0.8958 0.8958 0.8957 0.8957
2136.102521 0.8957 0.8957 0.8956 0.8956 0.8955
2140.927130 0.8954 0.8954 0.8953 0.8953 0.8952
2145.751739 0.8952 0.8952 0.8952 0.8951 0.8951
2150.576347 0.8950 0.8950 0.8949 0.8949 0.8948
2155.400956 0.8948 0.8947 0.8947 0.8947 0.8946
2160.225565 0.8946 0.8945 0.8945 0.8944 0.8944
2165.050173 0.8944 0.8944 0.8944 0.8944 0.8945
2169.874782 0.8945 0.8945 0.8945 0.8946 0.8946
2174.699391 0.8947 0.8947 0.8947 0.8947 0.8948
2179.523999 0.8948 0.8948 0.8948 0.8949 0.8949
2184.348608 0.8949 0.8949 0.8950 0.8950 0.8951
2189.173217 0.8951 0.8951 0.8951 0.8952 0.8952
2193.997826 0.8952 0.8952 0.8953 0.8953 0.8954
2198.822434 0.8954 0.8955 0.8956 0.8957 0.8958
2203.647043 0.8959 0.8960 0.8961 0.8962 0.8963
2208.471652 0.8963 0.8964 0.8965 0.8966 0.8967
2213.296260 0.8968 0.8969 0.8970 0.8971 0.8973
2218.120869 0.8974 0.8975 0.8976 0.8978 0.8979
2222.945478 0.8980 0.8981 0.8982 0.8984 0.8985
2227.770086 0.8985 0.8986 0.8986 0.8987 0.8987
2232.594695 0.8987 0.8987 0.8988 0.8988 0.8989
2237.419304 0.8989 0.8988 0.8987 0.8986 0.8986
2242.243913 0.8985 0.8984 0.8984 0.8983 0.8982
2247.068521 0.8981 0.8980 0.8978 0.8977 0.8975
2251.893130 0.8973 0.8970 0.8968 0.8966 0.8963
2256.717739 0.8961 0.8958 0.8956 0.8954 0.8951
2261.542347 0.8949 0.8947 0.8945 0.8943 0.8941
2266.366956 0.8938 0.8934 0.8931 0.8927 0.8923
2271.191565 0.8919 0.8916 0.8912 0.8908 0.8904
2276.016173 0.8901 0.8897 0.8893 0.8889 0.8886
2280.840782 0.8882 0.8878 0.8874 0.8871 0.8867
2285.665391 0.8863 0.8860 0.8856 0.8853 0.8850
2290.489999 0.8852 0.8854 0.8857 0.8859 0.8860
2295.314608 0.8861 0.8862 0.8863 0.8864 0.8864
2300.139217 0.8864 0.8863 0.8862 0.8861 0.8860
2304.963826 0.8858 0.8857 0.8855 0.8854 0.8852
2309.788434 0.8851 0.8849 0.8848 0.8846 0.8844
2314.613043 0.8843 0.8841 0.8839 0.8837 0.8835
2319.437652 0.8834 0.8832 0.8830 0.8828 0.8826
2324.262260 0.8825 0.8823 0.8821 0.8819 0.8818
2329.086869 0.8816 0.8815 0.8814 0.8812 0.8812
2333.911478 0.8811 0.8809 0.8808 0.8807 0.8806
2338.736086 0.8805 0.8804 0.8802 0.8801 0.8800
2343.560695 0.8799 0.8798 0.8797 0.8796 0.8794
2348.385304 0.8793 0.8792 0.8790 0.8789 0.8787
2353.209912 0.8786 0.8784 0.8782 0.8780 0.8779
2358.034521 0.8778 0.8776 0.8774 0.8773 0.8772
2362.859130 0.8770 0.8769 0.8767 0.8765 0.8763
2367.683739 0.8762 0.8761 0.8759 0.8757 0.8756
2372.508347 0.8754 0.8753 0.8753 0.8753 0.8752
2377.332956 0.8752 0.8752 0.8752 0.8752 0.8752
2382.157565 0.8752 0.8752 0.8752 0.8752 0.8751
2386.982173 0.8751 0.8751 0.8751 0.8751 0.8751
2391.806782 0.8751 0.8751 0.8751 0.8751 0.8751
2396.631391 0.8751 0.8751 0.8752 0.8753 0.8755
2401.455999 0.8757 0.8758 0.8759 0.8761 0.8763
2406.280608 0.8764 0.8766 0.8768 0.8769 0.8771
2411.105217 0.8773 0.8774 0.8776 0.8777 0.8779
2415.929826 0.8780 0.8782 0.8783 0.8784 0.8785
2420.754434 0.8787 0.8788 0.8789 0.8791 0.8793
2425.579043 0.8794 0.8795 0.8796 0.8798 0.8799
2430.403652 0.8799 0.8799 0.8799 0.8798 0.8797
2435.228260 0.8796 0.8796 0.8795 0.8794 0.8793
2440.052869 0.8792 0.8792 0.8791 0.8790 0.8788
2444.877478 0.8785 0.8783 0.8780 0.8777 0.8774
2449.702086 0.8771 0.8769 0.8766 0.8763 0.8760
2454.526695 0.8757 0.8755 0.8752 0.8749 0.8746
2459.351304 0.8743 0.8741 0.8739 0.8737 0.8734
2464.175912 0.8732 0.8730 0.8727 0.8725 0.8722
2469.000521 0.8720 0.8718 0.8715 0.8713 0.8711
2473.825130 0.8709 0.8708 0.8707 0.8706 0.8705
2478.649739 0.8704 0.8704 0.8703 0.8702 0.8701
2483.474347 0.8701 0.8700 0.8699 0.8698 0.8697
2488.298956 0.8697 0.8696 0.8695 0.8694 0.8694
2493.123565 0.8693 0.8692 0.8691 0.8690 0.8690
2497.948173 0.8689 0.8689 0.8688 0.8688 0.8688
2502.772782 0.8687 0.8687 0.8687 0.8686 0.8686
2507.597391 0.8685 0.8685 0.8685 0.8684 0.8684
2512.421999 0.8683 0.8683 0.8683 0.8682 0.8682
2517.246608 0.8682 0.8680 0.8679 0.8677 0.8674
2522.071217 0.8672 0.8669 0.8666 0.8663 0.8660
2526.895825 0.8657 0.8653 0.8649 0.8644 0.8638
2531.720434 0.8631 0.8624 0.8618 0.8612 0.8604
2536.545043 0.8596 0.8587 0.8577 0.8566 0.8555
2541.369652 0.8545 0.8535 0.8524 0.8515 0.8505
2546.194260 0.8496 0.8488 0.8480 0.8472 0.8464
2551.018869 0.8456 0.8448 0.8441 0.8435 0.8430
2555.843478 0.8427 0.8427 0.8427 0.8427 0.8427
2560.668086 0.8427 0.8428 0.8428 0.8428 0.8430
2565.492695 0.8432 0.8434 0.8437 0.8439 0.8442
2570.317304 0.8444 0.8446 0.8448 0.8451 0.8454
2575.141912 0.8458 0.8462 0.8466 0.8471 0.8476
2579.966521 0.8481 0.8486 0.8491 0.8496 0.8500
2584.791130 0.8504 0.8509 0.8513 0.8517 0.8522
2589.615738 0.8526 0.8530 0.8534 0.8538 0.8542
2594.440347 0.8546 0.8550 0.8553 0.8557 0.8561
2599.264956 0.8565 0.8569 0.8573 0.8577 0.8581
2604.089565 0.8585 0.8589 0.8593 0.8596 0.8600
2608.914173 0.8602 0.8605 0.8607 0.8609 0.8611
2613.738782 0.8613 0.8615 0.8618 0.8620 0.8622
2618.563391 0.8624 0.8626 0.8628 0.8629 0.8630
2623.387999 0.8631 0.8632 0.8633 0.8634 0.8635
2628.212608 0.8636 0.8637 0.8638 0.8639 0.8640
2633.037217 0.8640 0.8640 0.8639 0.8639 0.8638
2637.861825 0.8637 0.8636 0.8635 0.8634 0.8633
2642.686434 0.8633 0.8632 0.8631 0.8630 0.8629
2647.511043 0.8627 0.8625 0.8623 0.8621 0.8619
2652.335652 0.8617 0.8615 0.8613 0.8611 0.8609
2657.160260 0.8607 0.8605 0.8602 0.8599 0.8597
2661.984869 0.8594 0.8591 0.8588 0.8585 0.8582
2666.809478 0.8579 0.8576 0.8572 0.8569 0.8566
2671.634086 0.8563 0.8560 0.8557 0.8554 0.8551
2676.458695 0.8548 0.8545 0.8542 0.8539 0.8536
2681.283304 0.8533 0.8530 0.8527 0.8524 0.8521
2686.107912 0.8518 0.8515 0.8512 0.8510 0.8507
2690.932521 0.8505 0.8504 0.8502 0.8500 0.8499
2695.757130 0.8496 0.8493 0.8490 0.8487 0.8481
2700.581738 0.8475 0.8468 0.8453 0.8435 0.8417
2705.406347 0.8398 0.8379 0.8361 0.8345 0.8329
2710.230956 0.8313 0.8298 0.8284 0.8269 0.8256
2715.055565 0.8243 0.8230 0.8218 0.8207 0.8196
2719.880173 0.8185 0.8174 0.8162 0.8151 0.8139
2724.704782 0.8128 0.8116 0.8103 0.8091 0.8078
2729.529391 0.8064 0.8051 0.8037 0.8024 0.8010
2734.353999 0.7998 0.7989 0.7980 0.7974 0.7972
2739.178608 0.7970 0.7969 0.7969 0.7969 0.7970
2744.003217 0.7975 0.7981 0.7988 0.7998 0.8009
2748.827825 0.8019 0.8030 0.8042 0.8053 0.8063
2753.652434 0.8074 0.8085 0.8096 0.8106 0.8117
2758.477043 0.8128 0.8139 0.8150 0.8161 0.8172
2763.301651 0.8182 0.8191 0.8194 0.8196 0.8198
2768.126260 0.8197 0.8196 0.8195 0.8193 0.8189
2772.950869 0.8186 0.8183 0.8180 0.8176 0.8167
2777.775478 0.8152 0.8136 0.8119 0.8102 0.8084
2782.600086 0.8066 0.8051 0.8035 0.8020 0.8005
2787.424695 0.7989 0.7973 0.7957 0.7939 0.7922
2792.249304 0.7904 0.7885 0.7867 0.7848 0.7829
2797.073912 0.7810 0.7791 0.7752 0.7709 0.7665
2801.898521 0.7630 0.7600 0.7569 0.7541 0.7515
2806.723130 0.7490 0.7463 0.7424 0.7384 0.7345
2811.547738 0.7313 0.7282 0.7252 0.7223 0.7196
2816.372347 0.7169 0.7140 0.7109 0.7077 0.7044
2821.196956 0.7007 0.6969 0.6932 0.6897 0.6864
2826.021565 0.6831 0.6799 0.6769 0.6740 0.6710
2830.846173 0.6680 0.6649 0.6618 0.6585 0.6552
2835.670782 0.6518 0.6480 0.6438 0.6397 0.6325
2840.495391 0.6194 0.6048 0.5894 0.5711 0.5508
2845.319999 0.5306 0.5103 0.4901 0.4699 0.4497
2850.144608 0.4295 0.4094 0.3892 0.3691 0.3490
2854.969217 0.3288 0.3126 0.3006 0.2891 0.2800
2859.793825 0.2756 0.2734 0.2713 0.2696 0.2681
2864.618434 0.2666 0.2652 0.2639 0.2626 0.2613
2869.443043 0.2601 0.2589 0.2577 0.2564 0.2551
2874.267651 0.2538 0.2525 0.2508 0.2491 0.2474
2879.092260 0.2451 0.2424 0.2397 0.2369 0.2344
2883.916869 0.2318 0.2291 0.2268 0.2244 0.2220
2888.741478 0.2200 0.2181 0.2164 0.2147 0.2130
2893.566086 0.2112 0.2094 0.2077 0.2060 0.2042
2898.390695 0.2024 0.2003 0.1982 0.1960 0.1939
2903.215304 0.1917 0.1895 0.1873 0.1852 0.1832
2908.039912 0.1811 0.1790 0.1769 0.1749 0.1728
2912.864521 0.1697 0.1665 0.1632 0.1598 0.1562
2917.689130 0.1525 0.1488 0.1452 0.1415 0.1379
2922.513738 0.1342 0.1305 0.1269 0.1233 0.1196
2927.338347 0.1160 0.1123 0.1090 0.1065 0.1040
2932.162956 0.1017 0.1005 0.1002 0.0999 0.0996
2936.987564 0.0995 0.0994 0.0993 0.0992 0.0992
2941.812173 0.0991 0.0987 0.0987 0.0991 0.0991
2946.636782 0.0991 0.0991 0.0991 0.0991 0.0992
2951.461391 0.0993 0.0995 0.0999 0.1008 0.1017
2956.285999 0.1028 0.1062 0.1111 0.1160 0.1209
2961.110608 0.1257 0.1306 0.1355 0.1404 0.1452
2965.935217 0.1501 0.1550 0.1598 0.1647 0.1695
2970.759825 0.1744 0.1792 0.1841 0.1889 0.1938
2975.584434 0.1986 0.2035 0.2083 0.2131 0.2180
2980.409043 0.2227 0.2276 0.2323 0.2372 0.2420
2985.233651 0.2468 0.2517 0.2564 0.2612 0.2660
2990.058260 0.2708 0.2755 0.2804 0.2852 0.2899
2994.882869 0.2947 0.2994 0.3043 0.3090 0.3138
2999.707477 0.3185 0.3233 0.3281 0.3328 0.3376
3004.532086 0.3422 0.3470 0.3517 0.3565 0.3612
3009.356695 0.3659 0.3707 0.3754 0.3801 0.3848
3014.181304 0.3895 0.3942 0.3989 0.4036 0.4083
3019.005912 0.4130 0.4177 0.4225 0.4271 0.4318
3023.830521 0.4365 0.4412 0.4458 0.4505 0.4552
3028.655130 0.4598 0.4645 0.4692 0.4739 0.4785
3033.479738 0.4831 0.4878 0.4924 0.4971 0.5017
3038.304347 0.5064 0.5111 0.5156 0.5203 0.5249
3043.128956 0.5295 0.5341 0.5388 0.5435 0.5481
3047.953564 0.5527 0.5573 0.5619 0.5665 0.5711
3052.778173 0.5757 0.5803 0.5849 0.5895 0.5940
3057.602782 0.5987 0.6032 0.6078 0.6124 0.6169
3062.427391 0.6215 0.6260 0.6306 0.6352 0.6397
3067.251999 0.6443 0.6488 0.6534 0.6579 0.6624
3072.076608 0.6670 0.6724 0.6788 0.6853 0.6914
3076.901217 0.6952 0.6963 0.6974 0.6984 0.6991
3081.725825 0.6999 0.7006 0.7012 0.7018 0.7023
3086.550434 0.7029 0.7034 0.7039 0.7044 0.7049
3091.375043 0.7053 0.7057 0.7062 0.7066 0.7070
3096.199651 0.7073 0.7077 0.7080 0.7084 0.7087
3101.024260 0.7091 0.7095 0.7098 0.7103 0.7109
3105.848869 0.7114 0.7120 0.7130 0.7142 0.7153
3110.673477 0.7164 0.7178 0.7192 0.7206 0.7221
3115.498086 0.7240 0.7261 0.7281 0.7303 0.7330
3120.322695 0.7359 0.7388 0.7416 0.7437 0.7457
3125.147304 0.7477 0.7496 0.7510 0.7523 0.7536
3129.971912 0.7549 0.7562 0.7574 0.7587 0.7600
3134.796521 0.7621 0.7645 0.7668 0.7693 0.7720
3139.621130 0.7750 0.7780 0.7809 0.7827 0.7835
3144.445738 0.7843 0.7851 0.7859 0.7866 0.7873
3149.270347 0.7880 0.7886 0.7890 0.7893 0.7896
3154.094956 0.7900 0.7902 0.7905 0.7907 0.7910
3158.919564 0.7911 0.7913 0.7914 0.7915 0.7917
3163.744173 0.7918 0.7920 0.7921 0.7922 0.7923
3168.568782 0.7925 0.7926 0.7928 0.7929 0.7931
3173.393390 0.7932 0.7932 0.7932 0.7932 0.7932
3178.217999 0.7931 0.7930 0.7928 0.7927 0.7926
3183.042608 0.7925 0.7924 0.7923 0.7922 0.7921
3187.867217 0.7920 0.7919 0.7917 0.7917 0.7916
3192.691825 0.7915 0.7914 0.7913 0.7912 0.7911
3197.516434 0.7910 0.7909 0.7908 0.7907 0.7906
3202.341043 0.7905 0.7904 0.7903 0.7903 0.7902
3207.165651 0.7902 0.7902 0.7903 0.7903 0.7904
3211.990260 0.7905 0.7905 0.7906 0.7908 0.7912
3216.814869 0.7916 0.7919 0.7923 0.7929 0.7935
3221.639477 0.7940 0.7946 0.7953 0.7960 0.7966
3226.464086 0.7973 0.7980 0.7987 0.7994 0.8001
3231.288695 0.8008 0.8015 0.8022 0.8029 0.8035
3236.113304 0.8040 0.8045 0.8049 0.8053 0.8057
3240.937912 0.8059 0.8062 0.8064 0.8067 0.8070
3245.762521 0.8072 0.8075 0.8078 0.8081 0.8083
3250.587130 0.8086 0.8088 0.8091 0.8094 0.8096
3255.411738 0.8099 0.8101 0.8101 0.8101 0.8102
3260.236347 0.8102 0.8103 0.8103 0.8103 0.8103
3265.060956 0.8103 0.8103 0.8103 0.8103 0.8103
3269.885564 0.8102 0.8102 0.8101 0.8103 0.8109
3274.710173 0.8099 0.8098 0.8097 0.8096 0.8095
3279.534782 0.8094 0.8093 0.8092 0.8091 0.8090
3284.359390 0.8089 0.8088 0.8086 0.8085 0.8083
3289.183999 0.8082 0.8080 0.8078 0.8076 0.8075
3294.008608 0.8073 0.8071 0.8069 0.8068 0.8066
3298.833217 0.8064 0.8061 0.8057 0.8054 0.8050
3303.657825 0.8046 0.8042 0.8038 0.8033 0.8029
3308.482434 0.8024 0.8020 0.8015 0.8010 0.8005
3313.307043 0.7999 0.7992 0.7986 0.7981 0.7975
3318.131651 0.7969 0.7963 0.7957 0.7951 0.7941
3322.956260 0.7932 0.7923 0.7913 0.7899 0.7880
3327.780869 0.7861 0.7842 0.7823 0.7805 0.7786
3332.605477 0.7767 0.7748 0.7729 0.7710 0.7692
3337.430086 0.7673 0.7654 0.7635 0.7616 0.7598
3342.254695 0.7579 0.7560 0.7541 0.7522 0.7504
3347.079303 0.7486 0.7467 0.7448 0.7429 0.7410
3351.903912 0.7392 0.7373 0.7354 0.7336 0.7317
3356.728521 0.7289 0.7291 0.7293 0.7289 0.7285
3361.553130 0.7283 0.7283 0.7283 0.7283 0.7283
3366.377738 0.7287 0.7291 0.7296 0.7300 0.7306
3371.202347 0.7316 0.7327 0.7338 0.7349 0.7360
3376.026956 0.7371 0.7382 0.7393 0.7403 0.7415
3380.851564 0.7426 0.7437 0.7447 0.7458 0.7469
3385.676173 0.7480 0.7491 0.7501 0.7512 0.7523
3390.500782 0.7534 0.7545 0.7556 0.7567 0.7578
3395.325390 0.7589 0.7600 0.7610 0.7621 0.7632
3400.149999 0.7643 0.7654 0.7664 0.7675 0.7686
3404.974608 0.7696 0.7707 0.7718 0.7729 0.7740
3409.799216 0.7750 0.7760 0.7771 0.7782 0.7793
3414.623825 0.7804 0.7814 0.7824 0.7820 0.7818
3419.448434 0.7818 0.7818 0.7816 0.7814 0.7811
3424.273043 0.7809 0.7806 0.7766 0.7719 0.7671
3429.097651 0.7624 0.7576 0.7529 0.7482 0.7435
3433.922260 0.7389 0.7342 0.7295 0.7248 0.7201
3438.746869 0.7154 0.7107 0.7060 0.7013 0.6966
3443.571477 0.6920 0.6873 0.6826 0.6779 0.6732
3448.396086 0.6686 0.6639 0.6593 0.6546 0.6500
3453.220695 0.6453 0.6407 0.6360 0.6314 0.6267
3458.045303 0.6221 0.6174 0.6128 0.6082 0.6035
3462.869912 0.5989 0.5943 0.5897 0.5851 0.5805
3467.694521 0.5759 0.5734 0.5719 0.5706 0.5691
3472.519130 0.5677 0.5673 0.5673 0.5673 0.5673
3477.343738 0.5673 0.5673 0.5673 0.5673 0.5673
3482.168347 0.5669 0.5666 0.5725 0.5757 0.5788
3486.992956 0.5820 0.5855 0.5892 0.5929 0.5967
3491.817564 0.6005 0.6042 0.6079 0.6117 0.6155
3496.642173 0.6192 0.6229 0.6267 0.6303 0.6341
3501.466782 0.6378 0.6415 0.6452 0.6489 0.6527
3506.291390 0.6564 0.6601 0.6638 0.6675 0.6712
3511.115999 0.6748 0.6786 0.6823 0.6860 0.6896
3515.940608 0.6934 0.6971 0.7008 0.7044 0.7081
3520.765216 0.7118 0.7155 0.7191 0.7228 0.7265
3525.589825 0.7302 0.7338 0.7375 0.7412 0.7448
3530.414434 0.7484 0.7521 0.7558 0.7595 0.7631
3535.239043 0.7667 0.7704 0.7740 0.7777 0.7813
3540.063651 0.7850 0.7886 0.7916 0.7938 0.7961
3544.888260 0.7983 0.8006 0.8023 0.8036 0.8049
3549.712869 0.8060 0.8072 0.8083 0.8090 0.8097
3554.537477 0.8104 0.8110 0.8117 0.8121 0.8124
3559.362086 0.8129 0.8133 0.8136 0.8140 0.8143
3564.186695 0.8146 0.8149 0.8152 0.8155 0.8159
3569.011303 0.8162 0.8165 0.8168 0.8171 0.8173
3573.835912 0.8174 0.8175 0.8177 0.8178 0.8179
3578.660521 0.8181 0.8182 0.8183 0.8185 0.8186
3583.485129 0.8188 0.8189 0.8191 0.8192 0.8194
3588.309738 0.8195 0.8197 0.8198 0.8199 0.8201
3593.134347 0.8202 0.8203 0.8204 0.8206 0.8207
3597.958956 0.8208 0.8209 0.8211 0.8212 0.8213
3602.783564 0.8214 0.8215 0.8216 0.8216 0.8217
3607.608173 0.8218 0.8219 0.8220 0.8221 0.8222
3612.432782 0.8223 0.8224 0.8225 0.8226 0.8226
3617.257390 0.8227 0.8228 0.8229 0.8230 0.8231
3622.081999 0.8232 0.8233 0.8234 0.8235 0.8235
3626.906608 0.8236 0.8237 0.8238 0.8239 0.8241
3631.731216 0.8242 0.8243 0.8244 0.8244 0.8245
3636.555825 0.8246 0.8247 0.8248 0.8249 0.8250
3641.380434 0.8251 0.8252 0.8252 0.8253 0.8254
3646.205042 0.8255 0.8256 0.8257 0.8258 0.8259
3651.029651 0.8259 0.8260 0.8261 0.8262 0.8262
3655.854260 0.8263 0.8263 0.8264 0.8264 0.8265
3660.678869 0.8265 0.8266 0.8267 0.8268 0.8268
3665.503477 0.8274 0.8277 0.8270 0.8271 0.8272
3670.328086 0.8272 0.8274 0.8275 0.8275 0.8276
3675.152695 0.8277 0.8277 0.8278 0.8279 0.8279
3679.977303 0.8280 0.8281 0.8282 0.8282 0.8282
3684.801912 0.8282 0.8282 0.8282 0.8281 0.8281
3689.626521 0.8281 0.8281 0.8281 0.8281 0.8280
3694.451129 0.8280 0.8280 0.8280 0.8280 0.8280
3699.275738 0.8279 0.8279 0.8279 0.8279 0.8279
3704.100347 0.8278 0.8278 0.8278 0.8278 0.8278
3708.924956 0.8278 0.8277 0.8277 0.8277 0.8277
3713.749564 0.8277 0.8276 0.8276 0.8276 0.8275
3718.574173 0.8275 0.8275 0.8274 0.8273 0.8272
3723.398782 0.8272 0.8271 0.8270 0.8269 0.8268
3728.223390 0.8267 0.8266 0.8265 0.8264 0.8263
3733.047999 0.8262 0.8261 0.8260 0.8259 0.8259
3737.872608 0.8258 0.8257 0.8256 0.8255 0.8254
3742.697216 0.8254 0.8253 0.8252 0.8251 0.8250
3747.521825 0.8249 0.8248 0.8247 0.8246 0.8244
3752.346434 0.8243 0.8242 0.8242 0.8241 0.8240
3757.171042 0.8239 0.8238 0.8237 0.8237 0.8236
3761.995651 0.8235 0.8234 0.8233 0.8232 0.8231
3766.820260 0.8230 0.8229 0.8228 0.8227 0.8226
3771.644869 0.8226 0.8225 0.8224 0.8223 0.8222
3776.469477 0.8222 0.8221 0.8220 0.8219 0.8218
3781.294086 0.8217 0.8217 0.8216 0.8216 0.8215
3786.118695 0.8215 0.8214 0.8214 0.8213 0.8212
3790.943303 0.8211 0.8210 0.8210 0.8209 0.8209
3795.767912 0.8208 0.8208 0.8207 0.8207 0.8206
3800.592521 0.8206 0.8205 0.8205 0.8204 0.8204
3805.417129 0.8203 0.8203 0.8202 0.8202 0.8201
3810.241738 0.8201 0.8200 0.8200 0.8199 0.8199
3815.066347 0.8198 0.8198 0.8197 0.8197 0.8196
3819.890955 0.8195 0.8195 0.8194 0.8194 0.8193
3824.715564 0.8193 0.8192 0.8191 0.8191 0.8190
3829.540173 0.8190 0.8189 0.8189 0.8188 0.8188
3834.364782 0.8187 0.8187 0.8186 0.8186 0.8185
3839.189390 0.8185 0.8184 0.8184 0.8183 0.8183
3844.013999 0.8182 0.8182 0.8181 0.8181 0.8181
3848.838608 0.8180 0.8180 0.8179 0.8179 0.8178
3853.663216 0.8177 0.8176 0.8176 0.8175 0.8174
3858.487825 0.8173 0.8172 0.8171 0.8170 0.8168
3863.312434 0.8166 0.8165 0.8164 0.8163 0.8162
3868.137042 0.8161 0.8160 0.8159 0.8158 0.8156
3872.961651 0.8155 0.8154 0.8153 0.8152 0.8151
3877.786260 0.8150 0.8149 0.8148 0.8147 0.0000
##END=
