##TITLE=Pyrimido[5,4-e]-as-triazin-5[6H]-one, 1,2-dihydro-
##JCAMP-DX=4.24
##DATA TYPE=INFRARED SPECTRUM
##CLASS=COBLENTZ III
##ORIGIN=SOUTHERN RESEARCH INSTITUTE
##OWNER=Copyright (C) 1987 by the Coblentz Society
Collection (C) 2018 copyright by the U.S. Secretary of Commerce
on behalf of the United States of America. All rights reserved.
##DATE=1958/04/29
##NAMES=2,6-dihydropyrimido[5,4-e][1,2,4]triazin-5(1H)-one
##MOLFORM=C5 H5 N5 O
##SOURCE REFERENCE=COBLENTZ NO. 8723
##$NIST ID=B6008723
##$NIST SOURCE=COBLENTZ
##$NIST IMAGE=cob8723
##SPECTROMETER/DATA SYSTEM=PERKIN-ELMER 21 (GRATING)
##INSTRUMENT PARAMETERS=FILTER CHANGE ABOUT 1090 CM^-^1
##STATE=SOLID (0.9 mg / 650 mg KBr DISC)
##SAMPLING PROCEDURE=TRANSMISSION
##RESOLUTION=2
##DATA PROCESSING=DIGITIZED BY COBLENTZ SOCIETY (BATCH II) FROM HARD COPY
##XUNITS=1/CM
##YUNITS=TRANSMITTANCE
##XFACTOR=1.0
##YFACTOR=1
##FIRSTX=603
##LASTX=4000
##FIRSTY=0.7443
##MAXX=4000
##MINX=603
##MAXY=0.8948
##MINY=0.0363
##NPOINTS=3398
##XYDATA=(X++(Y..Y))
603.000000 0.7443 0.7439 0.7417 0.7404 0.7390
608.000000 0.7371 0.7352 0.7319 0.7277 0.7234
613.000000 0.7206 0.7208 0.7202 0.7222 0.7232
618.000000 0.7252 0.7273 0.7289 0.7302 0.7315
623.000000 0.7318 0.7297 0.7309 0.7302 0.7291
628.000000 0.7270 0.7243 0.7203 0.7100 0.6985
633.000000 0.6814 0.6625 0.6394 0.5885 0.5511
638.000000 0.5136 0.4762 0.4387 0.4371 0.4394
643.000000 0.4725 0.5210 0.5694 0.6179 0.6664
648.000000 0.7148 0.7633 0.8117 0.8602 0.8890
653.000000 0.8931 0.8948 0.8937 0.8916 0.8894
658.000000 0.8869 0.8843 0.8816 0.8791 0.8766
663.000000 0.8740 0.8712 0.8684 0.8645 0.8517
668.000000 0.8510 0.8504 0.8497 0.8491 0.8480
673.000000 0.8449 0.8400 0.8376 0.8368 0.8360
678.000000 0.8352 0.8344 0.8341 0.8339 0.8336
683.000000 0.8334 0.8324 0.8310 0.8288 0.8242
688.000000 0.8179 0.8174 0.8182 0.8192 0.8213
693.000000 0.8245 0.8264 0.8282 0.8304 0.8300
698.000000 0.8293 0.8276 0.8260 0.8244 0.8229
703.000000 0.8213 0.8195 0.8173 0.8151 0.8127
708.000000 0.8085 0.8059 0.8032 0.7997 0.7961
713.000000 0.7914 0.7868 0.7792 0.7678 0.7519
718.000000 0.7381 0.7092 0.6987 0.6924 0.6879
723.000000 0.6831 0.6769 0.6533 0.6247 0.5962
728.000000 0.5676 0.5391 0.5270 0.5268 0.5275
733.000000 0.5703 0.6031 0.6360 0.6688 0.7016
738.000000 0.7122 0.7195 0.7270 0.7351 0.7435
743.000000 0.7526 0.7617 0.7707 0.7798 0.7863
748.000000 0.7876 0.7869 0.7870 0.7862 0.7847
753.000000 0.7830 0.7812 0.7794 0.7774 0.7751
758.000000 0.7729 0.7706 0.7681 0.7651 0.7621
763.000000 0.7591 0.7558 0.7518 0.7477 0.7436
768.000000 0.7395 0.7354 0.7313 0.7272 0.7230
773.000000 0.7180 0.7128 0.7077 0.7019 0.6951
778.000000 0.6868 0.6647 0.6413 0.5975 0.5483
783.000000 0.4990 0.4497 0.4005 0.3995 0.4027
788.000000 0.3991 0.4580 0.4857 0.5134 0.5410
793.000000 0.5687 0.5964 0.6240 0.6517 0.6794
798.000000 0.7119 0.7143 0.7141 0.7134 0.7125
803.000000 0.7115 0.7105 0.7093 0.7081 0.7070
808.000000 0.7058 0.7047 0.7036 0.7025 0.7013
813.000000 0.7001 0.6989 0.6978 0.6964 0.6950
818.000000 0.6937 0.6923 0.6909 0.6895 0.6881
823.000000 0.6867 0.6853 0.6840 0.6827 0.6814
828.000000 0.6801 0.6788 0.6774 0.6759 0.6745
833.000000 0.6721 0.6685 0.6615 0.6601 0.6588
838.000000 0.6575 0.6562 0.6553 0.6543 0.6530
843.000000 0.6514 0.6498 0.6461 0.6416 0.6368
848.000000 0.6301 0.6232 0.6159 0.6089 0.6033
853.000000 0.5978 0.5922 0.5860 0.5792 0.5724
858.000000 0.5653 0.5577 0.5502 0.5442 0.5392
863.000000 0.5342 0.5299 0.5261 0.5223 0.5189
868.000000 0.5159 0.5128 0.5097 0.5072 0.5047
873.000000 0.5022 0.4997 0.4966 0.4927 0.4887
878.000000 0.4850 0.4812 0.4775 0.4737 0.4702
883.000000 0.4672 0.4642 0.4613 0.4589 0.4571
888.000000 0.4553 0.4535 0.4523 0.4517 0.4511
893.000000 0.4505 0.4501 0.4508 0.4509 0.4512
898.000000 0.4520 0.4530 0.4540 0.4550 0.4559
903.000000 0.4575 0.4591 0.4606 0.4618 0.4630
908.000000 0.4642 0.4654 0.4665 0.4676 0.4681
913.000000 0.4687 0.4693 0.4698 0.4703 0.4705
918.000000 0.4707 0.4710 0.4712 0.4714 0.4716
923.000000 0.4719 0.4810 0.4949 0.5088 0.5228
928.000000 0.5367 0.5506 0.5645 0.5784 0.5923
933.000000 0.6062 0.6201 0.6340 0.6479 0.6634
938.000000 0.6690 0.6721 0.6752 0.6819 0.6787
943.000000 0.6796 0.6797 0.6795 0.6791 0.6788
948.000000 0.6786 0.6783 0.6779 0.6776 0.6771
953.000000 0.6765 0.6760 0.6755 0.6750 0.6744
958.000000 0.6739 0.6729 0.6717 0.6706 0.6694
963.000000 0.6683 0.6671 0.6657 0.6642 0.6627
968.000000 0.6612 0.6598 0.6583 0.6563 0.6538
973.000000 0.6506 0.6466 0.6426 0.6379 0.6333
978.000000 0.6296 0.6258 0.6220 0.6183 0.6145
983.000000 0.6106 0.6068 0.6030 0.5991 0.5953
988.000000 0.5914 0.5876 0.5838 0.5799 0.5761
993.000000 0.5722 0.5684 0.5646 0.5607 0.5569
998.000000 0.5530 0.5495 0.5466 0.5407 0.5348
1003.000000 0.5291 0.5234 0.5175 0.5109 0.5044
1008.000000 0.4070 0.3957 0.3844 0.3740 0.3637
1013.000000 0.3533 0.3443 0.3354 0.3304 0.3285
1018.000000 0.3279 0.3297 0.3296 0.3311 0.3332
1023.000000 0.3366 0.3416 0.3506 0.3659 0.4067
1028.000000 0.4356 0.4646 0.4935 0.5225 0.5514
1033.000000 0.5804 0.6093 0.6383 0.6673 0.6871
1038.000000 0.6925 0.6922 0.6933 0.6908 0.6877
1043.000000 0.6850 0.6749 0.6591 0.6434 0.6277
1048.000000 0.6119 0.5962 0.5805 0.5647 0.5490
1053.000000 0.5333 0.5241 0.4945 0.4681 0.4416
1058.000000 0.4153 0.4135 0.4130 0.4129 0.4128
1063.000000 0.4134 0.4138 0.4152 0.4184 0.4557
1068.000000 0.4667 0.4783 0.4861 0.4929 0.5012
1073.000000 0.5132 0.5316 0.5435 0.5554 0.5674
1078.000000 0.5793 0.5912 0.6031 0.6151 0.6270
1083.000000 0.6389 0.6509 0.6628 0.6747 0.6866
1088.000000 0.6986 0.7159 0.7167 0.7203 0.7155
1093.000000 0.7143 0.7129 0.7115 0.7101 0.7087
1098.000000 0.7073 0.7059 0.7051 0.7045 0.7038
1103.000000 0.7031 0.7019 0.7007 0.6995 0.6976
1108.000000 0.6957 0.6938 0.6919 0.6900 0.6882
1113.000000 0.6864 0.6846 0.6828 0.6802 0.6776
1118.000000 0.6753 0.6737 0.6709 0.6633 0.6550
1123.000000 0.6466 0.6382 0.6299 0.6215 0.6131
1128.000000 0.6048 0.5964 0.5880 0.5797 0.5713
1133.000000 0.5513 0.5444 0.5414 0.5390 0.5373
1138.000000 0.5377 0.5382 0.5392 0.5415 0.5537
1143.000000 0.5677 0.5815 0.5954 0.6092 0.6230
1148.000000 0.6371 0.6410 0.6402 0.6405 0.6395
1153.000000 0.6386 0.6363 0.6295 0.6207 0.6129
1158.000000 0.6068 0.6006 0.5911 0.5830 0.5770
1163.000000 0.5710 0.5657 0.5622 0.5618 0.5614
1168.000000 0.5588 0.5682 0.5837 0.5992 0.6147
1173.000000 0.6301 0.6456 0.6611 0.6770 0.6832
1178.000000 0.6876 0.6912 0.6931 0.6926 0.6937
1183.000000 0.6937 0.6924 0.6906 0.6883 0.6859
1188.000000 0.6837 0.6815 0.6792 0.6767 0.6742
1193.000000 0.6718 0.6693 0.6666 0.6635 0.6604
1198.000000 0.6573 0.6542 0.6511 0.6475 0.6437
1203.000000 0.6398 0.6360 0.6320 0.6279 0.6238
1208.000000 0.6198 0.6155 0.6111 0.6068 0.6025
1213.000000 0.5822 0.5570 0.5318 0.5072 0.4757
1218.000000 0.4650 0.4543 0.4431 0.4315 0.4199
1223.000000 0.3808 0.3585 0.3430 0.3276 0.2989
1228.000000 0.2837 0.2756 0.2699 0.2689 0.2680
1233.000000 0.2669 0.2689 0.2817 0.2953 0.3036
1238.000000 0.3095 0.3144 0.3292 0.3552 0.3811
1243.000000 0.4070 0.4330 0.4589 0.4849 0.5108
1248.000000 0.5367 0.6131 0.6308 0.6424 0.6539
1253.000000 0.6629 0.6719 0.6809 0.6898 0.6986
1258.000000 0.7164 0.7246 0.7259 0.7265 0.7266
1263.000000 0.7268 0.7276 0.7253 0.7237 0.7220
1268.000000 0.7201 0.7180 0.7156 0.7133 0.7112
1273.000000 0.7092 0.7072 0.7051 0.7030 0.7009
1278.000000 0.6987 0.6968 0.6953 0.6938 0.6923
1283.000000 0.6909 0.6897 0.6886 0.6875 0.6862
1288.000000 0.6850 0.6837 0.6824 0.6812 0.6783
1293.000000 0.6755 0.6724 0.6670 0.6615 0.6559
1298.000000 0.6504 0.6425 0.6305 0.6157 0.6075
1303.000000 0.5927 0.5535 0.5164 0.4897 0.4795
1308.000000 0.4678 0.4549 0.4511 0.4508 0.4508
1313.000000 0.4610 0.4680 0.4739 0.5158 0.5689
1318.000000 0.6016 0.6055 0.6068 0.6068 0.6066
1323.000000 0.5951 0.5838 0.5724 0.5611 0.5404
1328.000000 0.5224 0.5115 0.4884 0.4430 0.3976
1333.000000 0.3615 0.3614 0.3606 0.3617 0.3839
1338.000000 0.4116 0.4392 0.4525 0.4581 0.4637
1343.000000 0.4721 0.4809 0.4894 0.4997 0.5253
1348.000000 0.5509 0.5765 0.6012 0.6243 0.6454
1353.000000 0.6701 0.6873 0.7049 0.7068 0.7066
1358.000000 0.7081 0.7061 0.7057 0.7050 0.7037
1363.000000 0.7024 0.7011 0.6996 0.6982 0.6965
1368.000000 0.6947 0.6929 0.6911 0.6883 0.6852
1373.000000 0.6822 0.6771 0.6719 0.6668 0.6619
1378.000000 0.6570 0.6455 0.6315 0.6188 0.6065
1383.000000 0.5917 0.5719 0.5520 0.5321 0.5308
1388.000000 0.5301 0.5421 0.5624 0.5828 0.6031
1393.000000 0.6234 0.6277 0.6298 0.6263 0.6253
1398.000000 0.6223 0.6170 0.6091 0.6018 0.5990
1403.000000 0.5969 0.5952 0.5942 0.5932 0.5921
1408.000000 0.5897 0.5106 0.5034 0.4991 0.4957
1413.000000 0.4817 0.4363 0.4176 0.4134 0.4114
1418.000000 0.4122 0.4109 0.4427 0.5170 0.5434
1423.000000 0.5577 0.5641 0.5705 0.5769 0.5864
1428.000000 0.5972 0.6505 0.6637 0.6711 0.6760
1433.000000 0.6786 0.6812 0.6833 0.6837 0.6841
1438.000000 0.6843 0.6848 0.6825 0.6816 0.6808
1443.000000 0.6796 0.6784 0.6771 0.6756 0.6742
1448.000000 0.6727 0.6713 0.6698 0.6679 0.6660
1453.000000 0.6640 0.6619 0.6597 0.6569 0.6523
1458.000000 0.6468 0.6408 0.6362 0.6316 0.6260
1463.000000 0.6199 0.6138 0.6073 0.6002 0.5928
1468.000000 0.5844 0.5762 0.5685 0.5609 0.5546
1473.000000 0.5483 0.5420 0.5334 0.5303 0.5282
1478.000000 0.5268 0.5259 0.5259 0.5255 0.5263
1483.000000 0.5270 0.5283 0.5329 0.5385 0.5621
1488.000000 0.5899 0.6178 0.6398 0.6463 0.6492
1493.000000 0.6504 0.6520 0.6504 0.6498 0.6487
1498.000000 0.6476 0.6457 0.6435 0.6413 0.6387
1503.000000 0.6354 0.6322 0.6222 0.6155 0.6088
1508.000000 0.6035 0.6032 0.6029 0.6026 0.6016
1513.000000 0.6007 0.5997 0.5984 0.5952 0.5928
1518.000000 0.5916 0.5916 0.5917 0.5917 0.5923
1523.000000 0.5930 0.5935 0.5939 0.5939 0.5936
1528.000000 0.5933 0.5930 0.5927 0.5909 0.5890
1533.000000 0.5838 0.5787 0.5660 0.5574 0.5505
1538.000000 0.5442 0.5369 0.5323 0.5309 0.5295
1543.000000 0.5281 0.5264 0.5247 0.5213 0.5179
1548.000000 0.5105 0.4887 0.4865 0.4855 0.4858
1553.000000 0.4862 0.4863 0.4869 0.4875 0.4898
1558.000000 0.4948 0.4992 0.5045 0.5104 0.5166
1563.000000 0.5225 0.5274 0.5315 0.5335 0.5334
1568.000000 0.5360 0.5319 0.5304 0.5289 0.5258
1573.000000 0.5198 0.5051 0.4877 0.4719 0.4552
1578.000000 0.4443 0.4330 0.4242 0.4183 0.4123
1583.000000 0.4082 0.4046 0.4010 0.3950 0.3911
1588.000000 0.3894 0.3878 0.3879 0.3875 0.3881
1593.000000 0.3885 0.3890 0.3904 0.4035 0.4235
1598.000000 0.4435 0.4635 0.4787 0.4832 0.4847
1603.000000 0.4850 0.4843 0.4852 0.4848 0.4844
1608.000000 0.4832 0.4818 0.4777 0.4698 0.4619
1613.000000 0.4540 0.4462 0.4383 0.4304 0.4225
1618.000000 0.4146 0.4068 0.3989 0.3910 0.3831
1623.000000 0.3753 0.3674 0.3595 0.3516 0.3439
1628.000000 0.3358 0.3173 0.2977 0.2867 0.2775
1633.000000 0.2616 0.2487 0.2400 0.2305 0.2163
1638.000000 0.2078 0.1995 0.1867 0.1717 0.1686
1643.000000 0.1666 0.1648 0.1647 0.1646 0.1657
1648.000000 0.1712 0.1790 0.1868 0.1894 0.1896
1653.000000 0.1902 0.1912 0.1948 0.2145 0.2343
1658.000000 0.2540 0.2657 0.2671 0.2670 0.2683
1663.000000 0.2652 0.2626 0.2511 0.2382 0.2254
1668.000000 0.2126 0.1997 0.1869 0.1741 0.1613
1673.000000 0.1484 0.1356 0.1228 0.1100 0.0972
1678.000000 0.0883 0.0834 0.0785 0.0736 0.0686
1683.000000 0.0631 0.0576 0.0520 0.0470 0.0424
1688.000000 0.0392 0.0379 0.0374 0.0368 0.0363
1693.000000 0.0364 0.0382 0.0379 0.0389 0.0401
1698.000000 0.0415 0.0429 0.0443 0.0457 0.0471
1703.000000 0.0486 0.0636 0.0807 0.0979 0.1150
1708.000000 0.1322 0.1493 0.1665 0.1836 0.2008
1713.000000 0.2179 0.2351 0.2522 0.2694 0.2865
1718.000000 0.3037 0.3208 0.3380 0.3551 0.3723
1723.000000 0.3894 0.4066 0.4237 0.4409 0.4580
1728.000000 0.4752 0.4923 0.5095 0.5270 0.5373
1733.000000 0.5522 0.5634 0.5721 0.5772 0.5824
1738.000000 0.5861 0.5881 0.5900 0.5919 0.5939
1743.000000 0.5958 0.5978 0.5994 0.6007 0.6020
1748.000000 0.6033 0.6046 0.6059 0.6072 0.6085
1753.000000 0.6101 0.6118 0.6135 0.6152 0.6174
1758.000000 0.6201 0.6228 0.6254 0.6283 0.6330
1763.000000 0.6377 0.6423 0.6503 0.6570 0.6629
1768.000000 0.6690 0.6752 0.6955 0.7014 0.7042
1773.000000 0.7058 0.7072 0.7086 0.7100 0.7118
1778.000000 0.7137 0.7155 0.7174 0.7193 0.7213
1783.000000 0.7233 0.7253 0.7274 0.7301 0.7328
1788.000000 0.7354 0.7381 0.7407 0.7433 0.7459
1793.000000 0.7484 0.7505 0.7526 0.7547 0.7568
1798.000000 0.7586 0.7602 0.7618 0.7635 0.7651
1803.000000 0.7667 0.7680 0.7693 0.7705 0.7718
1808.000000 0.7731 0.7744 0.7756 0.7767 0.7779
1813.000000 0.7790 0.7801 0.7806 0.7809 0.7812
1818.000000 0.7815 0.7819 0.7822 0.7822 0.7815
1823.000000 0.7808 0.7799 0.7782 0.7767 0.7766
1828.000000 0.7765 0.7765 0.7768 0.7770 0.7773
1833.000000 0.7775 0.7777 0.7780 0.7782 0.7784
1838.000000 0.7786 0.7788 0.7790 0.7791 0.7793
1843.000000 0.7795 0.7798 0.7802 0.7805 0.7807
1848.000000 0.7807 0.7800 0.7788 0.7778 0.7767
1853.000000 0.7757 0.7755 0.7753 0.7751 0.7751
1858.000000 0.7766 0.7751 0.7762 0.7774 0.7795
1863.000000 0.7814 0.7829 0.7844 0.7853 0.7854
1868.000000 0.7854 0.7854 0.7854 0.7854 0.7855
1873.000000 0.7854 0.7852 0.7851 0.7849 0.7847
1878.000000 0.7844 0.7841 0.7838 0.7835 0.7833
1883.000000 0.7831 0.7829 0.7826 0.7824 0.7822
1888.000000 0.7820 0.7818 0.7816 0.7814 0.7806
1893.000000 0.7787 0.7771 0.7755 0.7739 0.7723
1898.000000 0.7707 0.7691 0.7685 0.7678 0.7671
1903.000000 0.7665 0.7658 0.7651 0.7644 0.7638
1908.000000 0.7630 0.7622 0.7614 0.7606 0.7598
1913.000000 0.7590 0.7582 0.7574 0.7566 0.7558
1918.000000 0.7550 0.7542 0.7534 0.7534 0.7534
1923.000000 0.7534 0.7534 0.7534 0.7535 0.7535
1928.000000 0.7535 0.7535 0.7537 0.7539 0.7559
1933.000000 0.7542 0.7543 0.7545 0.7547 0.7548
1938.000000 0.7550 0.7551 0.7552 0.7553 0.7555
1943.000000 0.7556 0.7557 0.7558 0.7559 0.7561
1948.000000 0.7562 0.7564 0.7568 0.7573 0.7578
1953.000000 0.7583 0.7588 0.7593 0.7597 0.7602
1958.000000 0.7610 0.7618 0.7627 0.7635 0.7649
1963.000000 0.7663 0.7678 0.7692 0.7694 0.7694
1968.000000 0.7694 0.7689 0.7683 0.7676 0.7669
1973.000000 0.7671 0.7674 0.7680 0.7689 0.7700
1978.000000 0.7710 0.7721 0.7726 0.7728 0.7730
1983.000000 0.7732 0.7734 0.7736 0.7737 0.7735
1988.000000 0.7734 0.7733 0.7732 0.7730 0.7725
1993.000000 0.7720 0.7716 0.7711 0.7706 0.7702
1998.000000 0.7697 0.7693 0.7688 0.7684 0.7680
2003.000000 0.7677 0.7674 0.7672 0.7677 0.7682
2008.000000 0.7687 0.7692 0.7697 0.7704 0.7710
2013.000000 0.7716 0.7715 0.7714 0.7713 0.7708
2018.000000 0.7703 0.7699 0.7693 0.7683 0.7673
2023.000000 0.7662 0.7652 0.7642 0.7633 0.7629
2028.000000 0.7625 0.7622 0.7620 0.7619 0.7617
2033.000000 0.7615 0.7614 0.7612 0.7610 0.7608
2038.000000 0.7606 0.7603 0.7600 0.7598 0.7595
2043.000000 0.7593 0.7592 0.7590 0.7588 0.7586
2048.000000 0.7584 0.7583 0.7581 0.7579 0.7577
2053.000000 0.7575 0.7573 0.7571 0.7569 0.7567
2058.000000 0.7564 0.7562 0.7560 0.7559 0.7557
2063.000000 0.7555 0.7554 0.7552 0.7551 0.7549
2068.000000 0.7547 0.7546 0.7545 0.7545 0.7544
2073.000000 0.7543 0.7542 0.7541 0.7541 0.7540
2078.000000 0.7540 0.7540 0.7540 0.7540 0.7540
2083.000000 0.7539 0.7539 0.7539 0.7541 0.7545
2088.000000 0.7548 0.7549 0.7551 0.7552 0.7554
2093.000000 0.7556 0.7556 0.7556 0.7556 0.7556
2098.000000 0.7555 0.7555 0.7555 0.7555 0.7555
2103.000000 0.7554 0.7551 0.7549 0.7547 0.7544
2108.000000 0.7542 0.7540 0.7537 0.7535 0.7532
2113.000000 0.7530 0.7528 0.7525 0.7521 0.7517
2118.000000 0.7513 0.7510 0.7507 0.7503 0.7500
2123.000000 0.7497 0.7493 0.7494 0.7495 0.7505
2128.000000 0.7516 0.7523 0.7525 0.7525 0.7524
2133.000000 0.7524 0.7523 0.7522 0.7522 0.7521
2138.000000 0.7520 0.7520 0.7519 0.7518 0.7518
2143.000000 0.7517 0.7514 0.7512 0.7510 0.7508
2148.000000 0.7505 0.7503 0.7501 0.7498 0.7496
2153.000000 0.7492 0.7488 0.7484 0.7480 0.7476
2158.000000 0.7472 0.7467 0.7463 0.7459 0.7455
2163.000000 0.7451 0.7447 0.7441 0.7434 0.7426
2168.000000 0.7419 0.7416 0.7413 0.7410 0.7407
2173.000000 0.7404 0.7403 0.7402 0.7401 0.7400
2178.000000 0.7399 0.7398 0.7397 0.7396 0.7394
2183.000000 0.7392 0.7389 0.7387 0.7384 0.7381
2188.000000 0.7379 0.7376 0.7374 0.7371 0.7369
2193.000000 0.7368 0.7366 0.7364 0.7362 0.7360
2198.000000 0.7358 0.7356 0.7354 0.7351 0.7349
2203.000000 0.7347 0.7345 0.7342 0.7340 0.7338
2208.000000 0.7335 0.7333 0.7331 0.7328 0.7326
2213.000000 0.7324 0.7321 0.7319 0.7317 0.7314
2218.000000 0.7312 0.7310 0.7307 0.7305 0.7303
2223.000000 0.7302 0.7300 0.7298 0.7296 0.7294
2228.000000 0.7292 0.7291 0.7289 0.7287 0.7285
2233.000000 0.7283 0.7282 0.7280 0.7276 0.7271
2238.000000 0.7266 0.7261 0.7256 0.7251 0.7246
2243.000000 0.7242 0.7239 0.7236 0.7234 0.7231
2248.000000 0.7228 0.7226 0.7223 0.7221 0.7220
2253.000000 0.7220 0.7220 0.7219 0.7219 0.7219
2258.000000 0.7218 0.7217 0.7216 0.7215 0.7213
2263.000000 0.7212 0.7211 0.7209 0.7208 0.7206
2268.000000 0.7205 0.7201 0.7196 0.7192 0.7187
2273.000000 0.7183 0.7178 0.7174 0.7168 0.7162
2278.000000 0.7157 0.7151 0.7145 0.7139 0.7132
2283.000000 0.7125 0.7115 0.7104 0.7094 0.7083
2288.000000 0.7075 0.7067 0.7059 0.7058 0.7056
2293.000000 0.7055 0.7053 0.7051 0.7050 0.7049
2298.000000 0.7047 0.7046 0.7045 0.7044 0.7043
2303.000000 0.7039 0.7035 0.7030 0.7025 0.7020
2308.000000 0.7016 0.7011 0.7006 0.7001 0.6997
2313.000000 0.6992 0.6987 0.6982 0.6976 0.6972
2318.000000 0.6971 0.6969 0.6968 0.6966 0.6967
2323.000000 0.6968 0.6969 0.6971 0.6973 0.6975
2328.000000 0.6977 0.6979 0.6980 0.6982 0.6984
2333.000000 0.6984 0.6984 0.6980 0.6973 0.6967
2338.000000 0.6955 0.6943 0.6930 0.6916 0.6902
2343.000000 0.6887 0.6872 0.6857 0.6844 0.6841
2348.000000 0.6838 0.6835 0.6833 0.6830 0.6827
2353.000000 0.6827 0.6828 0.6829 0.6830 0.6834
2358.000000 0.6840 0.6845 0.6850 0.6856 0.6861
2363.000000 0.6868 0.6873 0.6879 0.6884 0.6886
2368.000000 0.6883 0.6880 0.6877 0.6874 0.6871
2373.000000 0.6869 0.6868 0.6866 0.6865 0.6864
2378.000000 0.6862 0.6861 0.6860 0.6858 0.6857
2383.000000 0.6856 0.6856 0.6855 0.6855 0.6855
2388.000000 0.6854 0.6854 0.6854 0.6848 0.6840
2393.000000 0.6833 0.6826 0.6818 0.6811 0.6804
2398.000000 0.6795 0.6787 0.6779 0.6770 0.6762
2403.000000 0.6754 0.6745 0.6737 0.6729 0.6726
2408.000000 0.6723 0.6720 0.6717 0.6714 0.6712
2413.000000 0.6711 0.6710 0.6710 0.6709 0.6703
2418.000000 0.6693 0.6683 0.6674 0.6669 0.6665
2423.000000 0.6662 0.6660 0.6658 0.6656 0.6655
2428.000000 0.6654 0.6650 0.6646 0.6640 0.6630
2433.000000 0.6621 0.6604 0.6587 0.6569 0.6556
2438.000000 0.6543 0.6530 0.6522 0.6516 0.6509
2443.000000 0.6502 0.6495 0.6489 0.6482 0.6478
2448.000000 0.6473 0.6468 0.6463 0.6458 0.6453
2453.000000 0.6448 0.6443 0.6437 0.6427 0.6417
2458.000000 0.6408 0.6398 0.6388 0.6377 0.6367
2463.000000 0.6358 0.6352 0.6345 0.6339 0.6333
2468.000000 0.6327 0.6324 0.6322 0.6319 0.6317
2473.000000 0.6314 0.6312 0.6309 0.6305 0.6301
2478.000000 0.6297 0.6293 0.6289 0.6285 0.6281
2483.000000 0.6274 0.6266 0.6257 0.6249 0.6240
2488.000000 0.6232 0.6223 0.6214 0.6200 0.6187
2493.000000 0.6173 0.6159 0.6146 0.6126 0.6107
2498.000000 0.6102 0.6097 0.6092 0.6087 0.6084
2503.000000 0.6081 0.6079 0.6077 0.6077 0.6076
2508.000000 0.6074 0.6072 0.6069 0.6067 0.6065
2513.000000 0.6063 0.6063 0.6063 0.6059 0.6054
2518.000000 0.6049 0.6040 0.6023 0.6006 0.5987
2523.000000 0.5968 0.5949 0.5915 0.5890 0.5885
2528.000000 0.5885 0.5886 0.5887 0.5888 0.5889
2533.000000 0.5889 0.5882 0.5874 0.5867 0.5859
2538.000000 0.5852 0.5844 0.5837 0.5828 0.5817
2543.000000 0.5807 0.5797 0.5787 0.5776 0.5769
2548.000000 0.5763 0.5758 0.5752 0.5746 0.5741
2553.000000 0.5728 0.5713 0.5698 0.5679 0.5648
2558.000000 0.5617 0.5580 0.5541 0.5504 0.5471
2563.000000 0.5439 0.5416 0.5398 0.5380 0.5361
2568.000000 0.5343 0.5324 0.5304 0.5284 0.5263
2573.000000 0.5243 0.5223 0.5208 0.5201 0.5194
2578.000000 0.5186 0.5182 0.5178 0.5175 0.5170
2583.000000 0.5145 0.5128 0.5113 0.5097 0.5082
2588.000000 0.5069 0.5056 0.5043 0.5030 0.5017
2593.000000 0.5005 0.4998 0.4990 0.4982 0.4975
2598.000000 0.4967 0.4960 0.4954 0.4948 0.4939
2603.000000 0.4930 0.4921 0.4913 0.4904 0.4895
2608.000000 0.4886 0.4878 0.4870 0.4862 0.4855
2613.000000 0.4847 0.4840 0.4833 0.4826 0.4819
2618.000000 0.4812 0.4805 0.4802 0.4799 0.4798
2623.000000 0.4798 0.4798 0.4798 0.4799 0.4801
2628.000000 0.4804 0.4808 0.4813 0.4820 0.4827
2633.000000 0.4829 0.4825 0.4820 0.4812 0.4802
2638.000000 0.4793 0.4785 0.4776 0.4767 0.4757
2643.000000 0.4745 0.4732 0.4718 0.4705 0.4692
2648.000000 0.4678 0.4665 0.4652 0.4639 0.4626
2653.000000 0.4613 0.4600 0.4590 0.4586 0.4582
2658.000000 0.4577 0.4573 0.4568 0.4568 0.4570
2663.000000 0.4571 0.4573 0.4575 0.4576 0.4578
2668.000000 0.4579 0.4580 0.4581 0.4581 0.4573
2673.000000 0.4556 0.4540 0.4518 0.4484 0.4458
2678.000000 0.4437 0.4426 0.4423 0.4419 0.4416
2683.000000 0.4413 0.4410 0.4407 0.4405 0.4403
2688.000000 0.4401 0.4399 0.4397 0.4395 0.4392
2693.000000 0.4390 0.4387 0.4384 0.4381 0.4378
2698.000000 0.4376 0.4373 0.4370 0.4367 0.4363
2703.000000 0.4360 0.4356 0.4352 0.4349 0.4345
2708.000000 0.4341 0.4330 0.4319 0.4307 0.4293
2713.000000 0.4280 0.4266 0.4250 0.4234 0.4217
2718.000000 0.4201 0.4184 0.4167 0.4147 0.4126
2723.000000 0.4106 0.4086 0.4073 0.4063 0.4053
2728.000000 0.4047 0.4044 0.4041 0.4038 0.4035
2733.000000 0.4032 0.4029 0.4025 0.4022 0.4018
2738.000000 0.4013 0.4004 0.3996 0.3987 0.3969
2743.000000 0.3950 0.3928 0.3890 0.3849 0.3808
2748.000000 0.3774 0.3746 0.3726 0.3706 0.3697
2753.000000 0.3689 0.3680 0.3671 0.3656 0.3642
2758.000000 0.3628 0.3612 0.3592 0.3569 0.3538
2763.000000 0.3507 0.3483 0.3459 0.3455 0.3452
2768.000000 0.3451 0.3450 0.3449 0.3449 0.3449
2773.000000 0.3449 0.3449 0.3450 0.3450 0.3450
2778.000000 0.3450 0.3447 0.3439 0.3432 0.3423
2783.000000 0.3410 0.3397 0.3384 0.3371 0.3358
2788.000000 0.3345 0.3333 0.3320 0.3307 0.3294
2793.000000 0.3282 0.3269 0.3256 0.3242 0.3228
2798.000000 0.3214 0.3201 0.3187 0.3174 0.3165
2803.000000 0.3155 0.3145 0.3143 0.3143 0.3142
2808.000000 0.3142 0.3142 0.3141 0.3143 0.3145
2813.000000 0.3148 0.3151 0.3154 0.3156 0.3158
2818.000000 0.3160 0.3162 0.3166 0.3166 0.3169
2823.000000 0.3171 0.3172 0.3172 0.3173 0.3174
2828.000000 0.3175 0.3176 0.3176 0.3176 0.3177
2833.000000 0.3177 0.3177 0.3177 0.3181 0.3185
2838.000000 0.3188 0.3197 0.3208 0.3220 0.3234
2843.000000 0.3250 0.3266 0.3285 0.3306 0.3327
2848.000000 0.3333 0.3338 0.3344 0.3348 0.3351
2853.000000 0.3354 0.3357 0.3360 0.3363 0.3366
2858.000000 0.3369 0.3373 0.3376 0.3379 0.3382
2863.000000 0.3386 0.3395 0.3425 0.3430 0.3434
2868.000000 0.3438 0.3441 0.3444 0.3447 0.3449
2873.000000 0.3450 0.3451 0.3453 0.3456 0.3459
2878.000000 0.3462 0.3465 0.3472 0.3488 0.3508
2883.000000 0.3533 0.3561 0.3582 0.3593 0.3603
2888.000000 0.3614 0.3624 0.3635 0.3653 0.3673
2893.000000 0.3693 0.3714 0.3737 0.3759 0.3780
2898.000000 0.3800 0.3819 0.3850 0.3861 0.3865
2903.000000 0.3866 0.3868 0.3867 0.3867 0.3866
2908.000000 0.3866 0.3865 0.3865 0.3864 0.3864
2913.000000 0.3863 0.3863 0.3863 0.3862 0.3861
2918.000000 0.3861 0.3860 0.3859 0.3859 0.3858
2923.000000 0.3857 0.3857 0.3857 0.3857 0.3858
2928.000000 0.3858 0.3858 0.3858 0.3859 0.3859
2933.000000 0.3859 0.3859 0.3859 0.3866 0.3873
2938.000000 0.3881 0.3889 0.3896 0.3905 0.3920
2943.000000 0.3934 0.3949 0.3964 0.3977 0.3988
2948.000000 0.3999 0.4010 0.4022 0.4033 0.4036
2953.000000 0.4039 0.4041 0.4044 0.4047 0.4048
2958.000000 0.4042 0.4035 0.4029 0.4019 0.4008
2963.000000 0.3991 0.3966 0.3940 0.3915 0.3890
2968.000000 0.3864 0.3839 0.3813 0.3787 0.3760
2973.000000 0.3742 0.3732 0.3721 0.3711 0.3698
2978.000000 0.3684 0.3669 0.3649 0.3621 0.3590
2983.000000 0.3560 0.3545 0.3530 0.3515 0.3501
2988.000000 0.3487 0.3473 0.3459 0.3445 0.3432
2993.000000 0.3418 0.3404 0.3388 0.3372 0.3357
2998.000000 0.3341 0.3321 0.3300 0.3276 0.3231
3003.000000 0.3186 0.3146 0.3105 0.3064 0.3023
3008.000000 0.2981 0.2943 0.2909 0.2875 0.2841
3013.000000 0.2808 0.2774 0.2745 0.2724 0.2704
3018.000000 0.2685 0.2677 0.2668 0.2663 0.2665
3023.000000 0.2666 0.2667 0.2674 0.2678 0.2682
3028.000000 0.2686 0.2693 0.2703 0.2712 0.2723
3033.000000 0.2741 0.2758 0.2776 0.2798 0.2821
3038.000000 0.2846 0.2877 0.2908 0.2927 0.2944
3043.000000 0.2961 0.2977 0.2978 0.2979 0.2980
3048.000000 0.3004 0.2977 0.2972 0.2966 0.2961
3053.000000 0.2950 0.2932 0.2913 0.2893 0.2873
3058.000000 0.2851 0.2824 0.2797 0.2770 0.2742
3063.000000 0.2714 0.2689 0.2666 0.2643 0.2626
3068.000000 0.2610 0.2597 0.2591 0.2585 0.2581
3073.000000 0.2578 0.2575 0.2571 0.2570 0.2569
3078.000000 0.2569 0.2568 0.2556 0.2569 0.2571
3083.000000 0.2572 0.2576 0.2582 0.2587 0.2593
3088.000000 0.2599 0.2605 0.2611 0.2618 0.2624
3093.000000 0.2631 0.2637 0.2643 0.2649 0.2656
3098.000000 0.2668 0.2679 0.2690 0.2703 0.2719
3103.000000 0.2734 0.2752 0.2774 0.2797 0.2821
3108.000000 0.2850 0.2879 0.2908 0.2947 0.2990
3113.000000 0.3028 0.3047 0.3061 0.3067 0.3072
3118.000000 0.3077 0.3097 0.3148 0.3266 0.3360
3123.000000 0.3436 0.3503 0.3543 0.3580 0.3618
3128.000000 0.3656 0.3690 0.3725 0.3759 0.3795
3133.000000 0.3841 0.3886 0.3930 0.3968 0.4006
3138.000000 0.4044 0.4082 0.4107 0.4133 0.4158
3143.000000 0.4183 0.4208 0.4230 0.4253 0.4275
3148.000000 0.4297 0.4318 0.4338 0.4358 0.4378
3153.000000 0.4402 0.4428 0.4453 0.4533 0.4588
3158.000000 0.4608 0.4628 0.4639 0.4645 0.4651
3163.000000 0.4658 0.4665 0.4672 0.4688 0.4710
3168.000000 0.4733 0.4755 0.4777 0.4799 0.4821
3173.000000 0.4846 0.4874 0.4901 0.4927 0.4950
3178.000000 0.4972 0.4994 0.5004 0.5013 0.5023
3183.000000 0.5032 0.5038 0.5043 0.5049 0.5054
3188.000000 0.5059 0.5089 0.5062 0.5062 0.5063
3193.000000 0.5062 0.5059 0.5056 0.5054 0.5048
3198.000000 0.5039 0.5031 0.5022 0.5013 0.4998
3203.000000 0.4980 0.4962 0.4943 0.4925 0.4895
3208.000000 0.4862 0.4830 0.4794 0.4756 0.4718
3213.000000 0.4679 0.4638 0.4593 0.4549 0.4504
3218.000000 0.4459 0.4420 0.4381 0.4342 0.4303
3223.000000 0.4263 0.4226 0.4191 0.4155 0.4120
3228.000000 0.4095 0.4073 0.4060 0.4060 0.4060
3233.000000 0.4061 0.4063 0.4088 0.4066 0.4068
3238.000000 0.4069 0.4076 0.4084 0.4092 0.4100
3243.000000 0.4107 0.4128 0.4187 0.4248 0.4308
3248.000000 0.4357 0.4396 0.4435 0.4473 0.4513
3253.000000 0.4555 0.4596 0.4638 0.4679 0.4717
3258.000000 0.4755 0.4792 0.4830 0.4864 0.4890
3263.000000 0.4916 0.4943 0.4969 0.5002 0.5038
3268.000000 0.5074 0.5111 0.5166 0.5274 0.5353
3273.000000 0.5418 0.5474 0.5510 0.5540 0.5569
3278.000000 0.5598 0.5618 0.5637 0.5653 0.5666
3283.000000 0.5679 0.5693 0.5706 0.5719 0.5738
3288.000000 0.5756 0.5775 0.5797 0.5820 0.5843
3293.000000 0.5866 0.5897 0.5932 0.5944 0.5957
3298.000000 0.5963 0.5968 0.5973 0.5979 0.5993
3303.000000 0.6009 0.6034 0.6060 0.6068 0.6076
3308.000000 0.6080 0.6083 0.6086 0.6089 0.6091
3313.000000 0.6092 0.6094 0.6096 0.6097 0.6097
3318.000000 0.6096 0.6090 0.6096 0.6095 0.6094
3323.000000 0.6092 0.6089 0.6086 0.6084 0.6081
3328.000000 0.6078 0.6071 0.6059 0.6048 0.6037
3333.000000 0.6026 0.6018 0.6010 0.6003 0.5995
3338.000000 0.5988 0.5975 0.5949 0.5918 0.5902
3343.000000 0.5889 0.5884 0.5881 0.5877 0.5873
3348.000000 0.5868 0.5863 0.5859 0.5856 0.5852
3353.000000 0.5848 0.5845 0.5842 0.5839 0.5837
3358.000000 0.5834 0.5832 0.5829 0.5826 0.5824
3363.000000 0.5821 0.5819 0.5813 0.5807 0.5801
3368.000000 0.5796 0.5790 0.5781 0.5771 0.5762
3373.000000 0.5752 0.5742 0.5733 0.5723 0.5714
3378.000000 0.5704 0.5694 0.5685 0.5675 0.5666
3383.000000 0.5657 0.5649 0.5640 0.5631 0.5622
3388.000000 0.5612 0.5602 0.5600 0.5600 0.5599
3393.000000 0.5599 0.5599 0.5598 0.5598 0.5599
3398.000000 0.5601 0.5604 0.5606 0.5610 0.5613
3403.000000 0.5616 0.5620 0.5623 0.5627 0.5630
3408.000000 0.5634 0.5638 0.5641 0.5628 0.5649
3413.000000 0.5653 0.5658 0.5663 0.5668 0.5673
3418.000000 0.5678 0.5683 0.5687 0.5692 0.5697
3423.000000 0.5701 0.5705 0.5709 0.5714 0.5718
3428.000000 0.5722 0.5726 0.5729 0.5733 0.5737
3433.000000 0.5740 0.5741 0.5741 0.5742 0.5742
3438.000000 0.5742 0.5742 0.5742 0.5741 0.5741
3443.000000 0.5741 0.5741 0.5741 0.5741 0.5740
3448.000000 0.5739 0.5737 0.5735 0.5732 0.5730
3453.000000 0.5728 0.5725 0.5721 0.5716 0.5712
3458.000000 0.5708 0.5705 0.5706 0.5708 0.5712
3463.000000 0.5718 0.5791 0.5820 0.5865 0.5876
3468.000000 0.5880 0.5884 0.5886 0.5887 0.5888
3473.000000 0.5895 0.5904 0.5921 0.5951 0.5989
3478.000000 0.6021 0.6034 0.6045 0.6050 0.6051
3483.000000 0.6053 0.6063 0.6074 0.6089 0.6105
3488.000000 0.6121 0.6136 0.6151 0.6166 0.6182
3493.000000 0.6198 0.6216 0.6237 0.6245 0.6254
3498.000000 0.6262 0.6264 0.6263 0.6261 0.6260
3503.000000 0.6258 0.6257 0.6255 0.6254 0.6252
3508.000000 0.6256 0.6263 0.6270 0.6278 0.6287
3513.000000 0.6295 0.6304 0.6312 0.6321 0.6330
3518.000000 0.6339 0.6348 0.6357 0.6366 0.6375
3523.000000 0.6385 0.6394 0.6403 0.6412 0.6422
3528.000000 0.6431 0.6440 0.6449 0.6458 0.6468
3533.000000 0.6474 0.6477 0.6480 0.6482 0.6485
3538.000000 0.6484 0.6482 0.6480 0.6478 0.6476
3543.000000 0.6474 0.6473 0.6477 0.6481 0.6485
3548.000000 0.6491 0.6498 0.6504 0.6512 0.6522
3553.000000 0.6533 0.6547 0.6563 0.6587 0.6622
3558.000000 0.6632 0.6641 0.6650 0.6659 0.6668
3563.000000 0.6677 0.6686 0.6694 0.6702 0.6710
3568.000000 0.6718 0.6726 0.6734 0.6742 0.6750
3573.000000 0.6758 0.6765 0.6775 0.6785 0.6796
3578.000000 0.6806 0.6816 0.6827 0.6837 0.6848
3583.000000 0.6857 0.6865 0.6874 0.6882 0.6890
3588.000000 0.6899 0.6902 0.6906 0.6910 0.6914
3593.000000 0.6918 0.6921 0.6925 0.6929 0.6932
3598.000000 0.6934 0.6937 0.6940 0.6942 0.6944
3603.000000 0.6946 0.6947 0.6949 0.6950 0.6951
3608.000000 0.6953 0.6953 0.6952 0.6952 0.6951
3613.000000 0.6951 0.6947 0.6941 0.6936 0.6926
3618.000000 0.6917 0.6907 0.6897 0.6892 0.6889
3623.000000 0.6886 0.6883 0.6884 0.6885 0.6886
3628.000000 0.6887 0.6887 0.6888 0.6890 0.6893
3633.000000 0.6896 0.6899 0.6903 0.6906 0.6909
3638.000000 0.6911 0.6913 0.6915 0.6917 0.6919
3643.000000 0.6921 0.6923 0.6924 0.6926 0.6927
3648.000000 0.6929 0.6930 0.6932 0.6933 0.6935
3653.000000 0.6937 0.6938 0.6940 0.6942 0.6944
3658.000000 0.6946 0.6948 0.6950 0.6952 0.6955
3663.000000 0.6957 0.6959 0.6961 0.6963 0.6966
3668.000000 0.6968 0.6969 0.6971 0.6973 0.6974
3673.000000 0.6976 0.6978 0.6980 0.6980 0.6981
3678.000000 0.6982 0.6983 0.6983 0.6984 0.6986
3683.000000 0.6991 0.6995 0.7000 0.7005 0.7005
3688.000000 0.7005 0.7005 0.7003 0.7001 0.6999
3693.000000 0.6997 0.6995 0.6992 0.6987 0.6983
3698.000000 0.6979 0.6975 0.6971 0.6966 0.6960
3703.000000 0.6954 0.6948 0.6942 0.6936 0.6930
3708.000000 0.6924 0.6921 0.6918 0.6916 0.6913
3713.000000 0.6910 0.6907 0.6907 0.6907 0.6908
3718.000000 0.6909 0.6915 0.6921 0.6931 0.6944
3723.000000 0.6958 0.6960 0.6961 0.6962 0.6963
3728.000000 0.6964 0.6964 0.6966 0.6967 0.6968
3733.000000 0.6969 0.6970 0.6972 0.6973 0.6974
3738.000000 0.6975 0.6976 0.6977 0.6979 0.6980
3743.000000 0.6981 0.6982 0.6983 0.6985 0.6987
3748.000000 0.6989 0.6991 0.6992 0.6994 0.6996
3753.000000 0.7001 0.7007 0.7013 0.7020 0.7021
3758.000000 0.7021 0.7020 0.7016 0.7007 0.6997
3763.000000 0.6986 0.6976 0.6969 0.6964 0.6961
3768.000000 0.6959 0.6957 0.6956 0.6954 0.6952
3773.000000 0.6949 0.6937 0.6926 0.6914 0.6900
3778.000000 0.6889 0.6886 0.6883 0.6881 0.6879
3783.000000 0.6878 0.6876 0.6875 0.6875 0.6874
3788.000000 0.6873 0.6873 0.6872 0.6871 0.6871
3793.000000 0.6870 0.6870 0.6870 0.6869 0.6869
3798.000000 0.6869 0.6868 0.6868 0.6869 0.6870
3803.000000 0.6872 0.6873 0.6871 0.6870 0.6868
3808.000000 0.6866 0.6864 0.6862 0.6859 0.6856
3813.000000 0.6853 0.6851 0.6848 0.6845 0.6842
3818.000000 0.6839 0.6836 0.6833 0.6830 0.6827
3823.000000 0.6824 0.6821 0.6824 0.6825 0.6826
3828.000000 0.6827 0.6828 0.6830 0.6840 0.6849
3833.000000 0.6859 0.6872 0.6885 0.6898 0.6910
3838.000000 0.6922 0.6928 0.6929 0.6931 0.6931
3843.000000 0.6932 0.6932 0.6932 0.6932 0.6932
3848.000000 0.6932 0.6932 0.6931 0.6931 0.6930
3853.000000 0.6929 0.6928 0.6926 0.6925 0.6923
3858.000000 0.6921 0.6920 0.6918 0.6917 0.6913
3863.000000 0.6909 0.6905 0.6901 0.6897 0.6893
3868.000000 0.6889 0.6884 0.6876 0.6868 0.6860
3873.000000 0.6852 0.6844 0.6836 0.6829 0.6822
3878.000000 0.6816 0.6809 0.6803 0.6797 0.6790
3883.000000 0.6784 0.6778 0.6772 0.6766 0.6760
3888.000000 0.6754 0.6749 0.6749 0.6749 0.6750
3893.000000 0.6752 0.6754 0.6755 0.6757 0.6759
3898.000000 0.6760 0.6762 0.6764 0.6765 0.6767
3903.000000 0.6767 0.6768 0.6768 0.6768 0.6768
3908.000000 0.6768 0.6767 0.6766 0.6766 0.6765
3913.000000 0.6764 0.6763 0.6762 0.6760 0.6758
3918.000000 0.6756 0.6755 0.6753 0.6750 0.6747
3923.000000 0.6744 0.6741 0.6736 0.6732 0.6727
3928.000000 0.6723 0.6734 0.6721 0.6720 0.6720
3933.000000 0.6722 0.6724 0.6728 0.6733 0.6738
3938.000000 0.6745 0.6752 0.6757 0.6761 0.6765
3943.000000 0.6766 0.6768 0.6768 0.6762 0.6756
3948.000000 0.6749 0.6737 0.6724 0.6713 0.6705
3953.000000 0.6697 0.6692 0.6690 0.6688 0.6687
3958.000000 0.6687 0.6687 0.6687 0.6688 0.6688
3963.000000 0.6688 0.6689 0.6690 0.6691 0.6692
3968.000000 0.6692 0.6693 0.6694 0.6695 0.6695
3973.000000 0.6696 0.6697 0.6698 0.6698 0.6699
3978.000000 0.6699 0.6699 0.6699 0.6700 0.6700
3983.000000 0.6700 0.6700 0.6697 0.6694 0.6692
3988.000000 0.6687 0.6680 0.6673 0.6665 0.6658
3993.000000 0.6650 0.6633 0.6617 0.6594 0.6568
3998.000000 0.6543 0.6518 0.6511
##END=
