##TITLE=Delta-CAMPHOR OXIME
$$ E.K. (WHITE LABEL)
##JCAMP-DX=4.24
##DATA TYPE=INFRARED SPECTRUM
##CLASS=COBLENTZ
##ORIGIN=WYANDOTTE CHEMICALS CORP., WYANDOTTE, MICHIGAN, USA
##OWNER=COBLENTZ SOCIETY
Collection (C) 2018 copyright by the U.S. Secretary of Commerce
on behalf of the United States of America. All rights reserved.
##DATE=Not specified, most likely prior to 1970
##NAMES=(2Z)-4,7,7-trimethylbicyclo[2.2.1]heptan-2-one oxime
##MOLFORM=C10 H17 N O
##MP=118.5-120 C
##SOURCE REFERENCE=COBLENTZ NO. 2625
##$NIST ID=B6002625
##$NIST SOURCE=COBLENTZ
##$NIST IMAGE=cob2625
##SPECTROMETER/DATA SYSTEM=Not specified, most likely a prism, grating, or hybrid spectrometer.
##STATE=SOLID (MINERAL OIL MULL)
##PATH LENGTH=
$$SPECTRAL CONTAMINATION DUE TO OIL AROUND 2900 CM^-^1
$$ SPECTRAL CONTAMINATION DUE TO AN UNKNOWN AROUND 1700 CM^-^1
##SAMPLING PROCEDURE=TRANSMISSION
##RESOLUTION=4
##DATA PROCESSING=DIGITIZED BY NIST FROM HARD COPY
##XUNITS=MICROMETERS
##YUNITS=TRANSMITTANCE
##XFACTOR=1.000000
##YFACTOR=1
##DELTAX=000.006645
##FIRSTX=1.987
##LASTX=15.9865
##FIRSTY=0.676
##MAXX=15.9865
##MINX=1.987
##MAXY=0.925
##MINY=0.038
##NPOINTS=2108
##XYDATA=(X++(Y..Y))
1.987000 0.6760 0.6770 0.6760 0.6770 0.6790
2.020238 0.6810 0.6820 0.6870 0.6890 0.6910
2.053000 0.6910 0.6910 0.6910 0.6960 0.6970
2.086238 0.6970 0.6970 0.6990 0.6990 0.6990
2.120000 0.6990 0.6990 0.7000 0.7000 0.6990
2.153238 0.6910 0.6870 0.6870 0.6790 0.6740
2.186000 0.6720 0.6720 0.6710 0.6690 0.6710
2.219238 0.6720 0.6810 0.6890 0.6910 0.6910
2.252000 0.6870 0.6860 0.6870 0.6990 0.7000
2.285238 0.7000 0.7000 0.7000 0.7020 0.7070
2.319000 0.7090 0.7090 0.7070 0.7070 0.7090
2.352238 0.7090 0.7090 0.7120 0.7170 0.7190
2.385000 0.7200 0.7270 0.7300 0.7370 0.7390
2.418238 0.7390 0.7390 0.7390 0.7370 0.7370
2.452000 0.7370 0.7390 0.7390 0.7390 0.7400
2.485238 0.7400 0.7400 0.7400 0.7420 0.7440
2.518000 0.7490 0.7520 0.7620 0.7690 0.7720
2.551238 0.7750 0.7770 0.7750 0.7690 0.7500
2.585000 0.7490 0.7470 0.7490 0.7650 0.7800
2.618238 0.7920 0.7990 0.7990 0.7920 0.7870
2.651000 0.7870 0.7900 0.7900 0.7920 0.7920
2.684238 0.7900 0.7890 0.7890 0.7870 0.7890
2.718000 0.7890 0.7920 0.7920 0.7940 0.7940
2.751238 0.7920 0.7890 0.7850 0.7820 0.7800
2.784000 0.7720 0.7640 0.7570 0.7490 0.7390
2.817238 0.7290 0.7190 0.7050 0.6940 0.6810
2.850000 0.6560 0.6410 0.6260 0.6020 0.5780
2.883238 0.5560 0.5340 0.5140 0.4950 0.4660
2.917000 0.4460 0.4260 0.4030 0.3780 0.3530
2.950238 0.3020 0.2740 0.2470 0.2190 0.2050
2.983000 0.1860 0.1590 0.1360 0.1140 0.0960
3.016238 0.0840 0.0810 0.0790 0.0810 0.0860
3.050000 0.1020 0.1190 0.1320 0.1460 0.1640
3.083238 0.1790 0.1940 0.2120 0.2290 0.2320
3.116000 0.2320 0.2290 0.2250 0.2240 0.2250
3.149238 0.2290 0.2390 0.2540 0.2600 0.2670
3.183000 0.2850 0.3100 0.3220 0.3330 0.3570
3.216238 0.3770 0.3980 0.4160 0.4300 0.4450
3.249000 0.4550 0.4580 0.4610 0.4630 0.4610
3.282238 0.4500 0.4250 0.3930 0.3530 0.2500
3.316000 0.1790 0.1110 0.0490 0.0390 0.0380
3.349238 0.0380 0.0390 0.0390 0.0410 0.0410
3.382000 0.0430 0.0440 0.0440 0.0460 0.0460
3.415238 0.0480 0.0480 0.0490 0.0490 0.0540
3.449000 0.0560 0.0590 0.0610 0.0640 0.0710
3.482238 0.0860 0.1260 0.1970 0.2670 0.3000
3.515000 0.3330 0.4080 0.4880 0.5390 0.5660
3.548238 0.5840 0.6090 0.6360 0.6390 0.6610
3.581000 0.6640 0.6670 0.6690 0.6740 0.6790
3.614238 0.6810 0.6840 0.6860 0.6870 0.6870
3.648000 0.6870 0.6860 0.6810 0.6790 0.6810
3.681238 0.6940 0.7090 0.7190 0.7240 0.7250
3.714000 0.7250 0.7270 0.7290 0.7320 0.7390
3.747238 0.7390 0.7400 0.7440 0.7490 0.7490
3.781000 0.7490 0.7500 0.7540 0.7570 0.7590
3.814238 0.7600 0.7620 0.7620 0.7620 0.7640
3.847000 0.7690 0.7700 0.7720 0.7750 0.7790
3.880238 0.7800 0.7850 0.7890 0.7900 0.7920
3.914000 0.7940 0.7940 0.7970 0.7990 0.7990
3.947238 0.7990 0.7990 0.8000 0.8000 0.8000
3.980000 0.8030 0.8050 0.8120 0.8150 0.8150
4.013238 0.8130 0.8100 0.8100 0.8080 0.8080
4.047000 0.8080 0.8100 0.8100 0.8100 0.8100
4.080238 0.8100 0.8100 0.8100 0.8120 0.8120
4.113000 0.8150 0.8170 0.8170 0.8150 0.8150
4.146238 0.8150 0.8150 0.8150 0.8150 0.8150
4.179000 0.8150 0.8180 0.8180 0.8150 0.8150
4.212238 0.8130 0.8130 0.8100 0.8030 0.7920
4.246000 0.7900 0.7900 0.7900 0.7900 0.7950
4.279238 0.8000 0.8070 0.8120 0.8170 0.8180
4.312000 0.8180 0.8220 0.8280 0.8330 0.8380
4.345238 0.8480 0.8570 0.8630 0.8700 0.8720
4.379000 0.8720 0.8700 0.8680 0.8580 0.8580
4.412238 0.8580 0.8580 0.8580 0.8520 0.8500
4.445000 0.8520 0.8550 0.8580 0.8580 0.8600
4.478238 0.8600 0.8620 0.8620 0.8620 0.8620
4.512000 0.8620 0.8620 0.8620 0.8620 0.8620
4.545238 0.8630 0.8630 0.8650 0.8650 0.8670
4.578000 0.8680 0.8680 0.8680 0.8700 0.8700
4.611238 0.8700 0.8720 0.8720 0.8750 0.8780
4.645000 0.8780 0.8780 0.8780 0.8780 0.8800
4.678238 0.8800 0.8800 0.8800 0.8780 0.8780
4.711000 0.8800 0.8820 0.8880 0.8880 0.8880
4.744238 0.8880 0.8870 0.8870 0.8870 0.8880
4.777000 0.8880 0.8900 0.8900 0.8900 0.8920
4.810238 0.8920 0.8920 0.8930 0.8930 0.8930
4.844000 0.8930 0.8920 0.8900 0.8900 0.8900
4.877238 0.8920 0.8930 0.8950 0.8970 0.8980
4.910000 0.8980 0.8980 0.8980 0.8980 0.9000
4.943238 0.9000 0.9000 0.9000 0.9000 0.9000
4.977000 0.9010 0.9030 0.9030 0.9050 0.9050
5.010238 0.9060 0.9050 0.9050 0.9050 0.9050
5.043000 0.9030 0.9030 0.9030 0.9030 0.9060
5.076238 0.9100 0.9100 0.9080 0.9060 0.9050
5.110000 0.9030 0.9030 0.9050 0.9080 0.9110
5.143238 0.9110 0.9110 0.9100 0.9060 0.9050
5.176000 0.9050 0.9060 0.9060 0.9100 0.9110
5.209238 0.9130 0.9130 0.9100 0.9080 0.9060
5.243000 0.9080 0.9100 0.9130 0.9130 0.9160
5.276238 0.9180 0.9150 0.9150 0.9130 0.9150
5.309000 0.9150 0.9180 0.9180 0.9180 0.9180
5.342238 0.9180 0.9150 0.9110 0.9060 0.9050
5.375000 0.9080 0.9080 0.9150 0.9150 0.9150
5.408238 0.9110 0.9050 0.9000 0.8920 0.8880
5.442000 0.8880 0.9000 0.9080 0.9080 0.9080
5.475238 0.9080 0.8950 0.8950 0.9000 0.9150
5.508000 0.9200 0.9250 0.9250 0.9210 0.9150
5.541238 0.9110 0.9110 0.9110 0.9110 0.9110
5.575000 0.9150 0.9160 0.9180 0.9180 0.9200
5.608238 0.9200 0.9200 0.9180 0.9130 0.9100
5.641000 0.9000 0.8970 0.8970 0.9000 0.9180
5.674238 0.9180 0.9150 0.9150 0.9130 0.9100
5.708000 0.8980 0.8920 0.8920 0.8970 0.9000
5.741238 0.9010 0.9010 0.9010 0.9010 0.9080
5.774000 0.9100 0.9080 0.8830 0.8700 0.8670
5.807238 0.8670 0.8700 0.8830 0.8880 0.8820
5.841000 0.8720 0.8630 0.8580 0.8520 0.8450
5.874238 0.8380 0.8270 0.8080 0.7820 0.7500
5.907000 0.7190 0.7000 0.7000 0.7020 0.7370
5.940238 0.7640 0.7820 0.7950 0.8020 0.8150
5.973000 0.8270 0.8420 0.8500 0.8500 0.8500
6.006238 0.8400 0.8300 0.8270 0.8220 0.8220
6.040000 0.8300 0.8480 0.8500 0.8430 0.8400
6.073238 0.8380 0.8420 0.8450 0.8470 0.8470
6.106000 0.8470 0.8430 0.8430 0.8420 0.8430
6.139238 0.8480 0.8500 0.8530 0.8600 0.8620
6.173000 0.8620 0.8580 0.8570 0.8550 0.8530
6.206238 0.8520 0.8520 0.8520 0.8520 0.8550
6.239000 0.8550 0.8580 0.8620 0.8600 0.8530
6.272238 0.8500 0.8480 0.8500 0.8520 0.8570
6.306000 0.8600 0.8620 0.8620 0.8600 0.8580
6.339238 0.8520 0.8470 0.8400 0.8370 0.8350
6.372000 0.8370 0.8480 0.8500 0.8520 0.8530
6.405238 0.8500 0.8450 0.8380 0.8250 0.8200
6.439000 0.8200 0.8200 0.8220 0.8280 0.8280
6.472238 0.8320 0.8330 0.8330 0.8320 0.8300
6.505000 0.8280 0.8230 0.8200 0.8150 0.8120
6.538238 0.8120 0.8150 0.8180 0.8200 0.8220
6.571000 0.8220 0.8200 0.8150 0.8130 0.8100
6.604238 0.8080 0.8050 0.8000 0.7920 0.7840
6.638000 0.7790 0.7740 0.7670 0.7540 0.7350
6.671238 0.7240 0.7000 0.6710 0.6090 0.5640
6.704000 0.5090 0.4710 0.4410 0.4250 0.4060
6.737238 0.3920 0.3780 0.3650 0.3420 0.2820
6.771000 0.2570 0.2450 0.2370 0.2340 0.2240
6.804238 0.2190 0.2140 0.2140 0.2120 0.2050
6.837000 0.1960 0.1810 0.1720 0.1640 0.1570
6.870238 0.1540 0.1510 0.1470 0.1440 0.1420
6.904000 0.1460 0.1510 0.1570 0.1860 0.2170
6.937238 0.2520 0.2850 0.3170 0.3300 0.3420
6.970000 0.3650 0.4060 0.4360 0.4710 0.5110
7.003238 0.5480 0.5680 0.5890 0.6010 0.6240
7.037000 0.6370 0.6470 0.6520 0.6570 0.6620
7.070238 0.6660 0.6690 0.6720 0.6740 0.6790
7.103000 0.6870 0.6890 0.6890 0.6840 0.6760
7.136238 0.6510 0.6340 0.5690 0.5060 0.4510
7.169000 0.3900 0.3370 0.3100 0.3130 0.3500
7.202238 0.3870 0.4430 0.4430 0.4410 0.4010
7.236000 0.3520 0.3020 0.2850 0.2840 0.2870
7.269238 0.3050 0.3230 0.3380 0.3520 0.3950
7.302000 0.4310 0.4810 0.5390 0.5930 0.6570
7.335238 0.6660 0.6720 0.6770 0.6770 0.6790
7.369000 0.6810 0.6890 0.6920 0.6970 0.6990
7.402238 0.7040 0.7070 0.7090 0.7090 0.7090
7.435000 0.7090 0.7090 0.7120 0.7190 0.7220
7.468238 0.7240 0.7240 0.7240 0.7200 0.7050
7.502000 0.6820 0.5990 0.5710 0.5390 0.5090
7.535238 0.4710 0.4630 0.4630 0.4880 0.5360
7.568000 0.5740 0.5940 0.6070 0.6310 0.6510
7.601238 0.6640 0.6710 0.6760 0.6820 0.6840
7.635000 0.6820 0.6790 0.6740 0.6570 0.6540
7.668238 0.6520 0.6520 0.6640 0.6760 0.6860
7.701000 0.6960 0.7050 0.7150 0.7290 0.7450
7.734238 0.7520 0.7540 0.7550 0.7550 0.7550
7.767000 0.7590 0.7590 0.7550 0.7400 0.7200
7.800238 0.6970 0.6760 0.6660 0.6670 0.6670
7.834000 0.6810 0.6970 0.7200 0.7350 0.7520
7.867238 0.7640 0.7720 0.7740 0.7820 0.7890
7.900000 0.7900 0.7900 0.7900 0.7970 0.8020
7.933238 0.8100 0.8150 0.8150 0.8120 0.8100
7.967000 0.8050 0.7970 0.7900 0.7650 0.7390
8.000238 0.7250 0.7050 0.7020 0.7040 0.7120
8.033000 0.7300 0.7490 0.7570 0.7650 0.7740
8.066238 0.7820 0.7900 0.7990 0.8080 0.8080
8.100000 0.8080 0.8080 0.8080 0.8080 0.8020
8.133238 0.7950 0.7820 0.7700 0.7670 0.7600
8.166000 0.7590 0.7590 0.7600 0.7650 0.7820
8.199238 0.7950 0.8030 0.8120 0.8130 0.8180
8.233000 0.8180 0.8220 0.8270 0.8300 0.8320
8.266238 0.8300 0.8280 0.8230 0.8220 0.8180
8.299000 0.8050 0.7950 0.7840 0.7620 0.7400
8.332238 0.7390 0.7400 0.7450 0.7570 0.7690
8.365000 0.7690 0.7700 0.7700 0.7700 0.7720
8.398238 0.7770 0.7940 0.8100 0.8250 0.8350
8.432000 0.8420 0.8500 0.8500 0.8520 0.8520
8.465238 0.8520 0.8520 0.8500 0.8500 0.8500
8.498000 0.8500 0.8500 0.8520 0.8520 0.8520
8.531238 0.8530 0.8530 0.8520 0.8450 0.8370
8.565000 0.8280 0.8230 0.8220 0.8200 0.8180
8.598238 0.8170 0.8170 0.8170 0.8170 0.8180
8.631000 0.8180 0.8200 0.8250 0.8320 0.8400
8.664238 0.8470 0.8600 0.8680 0.8700 0.8720
8.698000 0.8730 0.8780 0.8800 0.8830 0.8880
8.731238 0.8880 0.8920 0.8930 0.8930 0.8920
8.764000 0.8920 0.8900 0.8880 0.8850 0.8820
8.797238 0.8750 0.8650 0.8550 0.8420 0.8300
8.831000 0.8200 0.8100 0.8050 0.8020 0.8020
8.864238 0.8080 0.8170 0.8330 0.8470 0.8500
8.897000 0.8580 0.8650 0.8700 0.8730 0.8750
8.930238 0.8730 0.8680 0.8620 0.8530 0.8350
8.963000 0.8250 0.8050 0.7890 0.7740 0.7650
8.996238 0.7620 0.7640 0.7970 0.8120 0.8300
9.030000 0.8480 0.8570 0.8620 0.8630 0.8650
9.063238 0.8650 0.8650 0.8650 0.8620 0.8520
9.096000 0.8430 0.8150 0.7950 0.7840 0.7670
9.129238 0.7570 0.7450 0.7390 0.7350 0.7390
9.163000 0.7690 0.7970 0.8120 0.8220 0.8280
9.196238 0.8300 0.8300 0.8270 0.8050 0.7850
9.229000 0.7590 0.7290 0.6940 0.6270 0.5910
9.262238 0.5890 0.5910 0.6170 0.6470 0.6660
9.296000 0.6840 0.7190 0.7500 0.7750 0.7940
9.329238 0.8070 0.8180 0.8270 0.8320 0.8380
9.362000 0.8420 0.8470 0.8480 0.8480 0.8500
9.395238 0.8520 0.8520 0.8530 0.8530 0.8550
9.429000 0.8550 0.8550 0.8580 0.8580 0.8600
9.462238 0.8600 0.8620 0.8670 0.8700 0.8700
9.495000 0.8720 0.8720 0.8720 0.8720 0.8730
9.528238 0.8730 0.8730 0.8730 0.8750 0.8750
9.561000 0.8770 0.8770 0.8770 0.8750 0.8750
9.594238 0.8770 0.8820 0.8820 0.8820 0.8820
9.628000 0.8820 0.8820 0.8800 0.8800 0.8800
9.661238 0.8800 0.8800 0.8800 0.8800 0.8800
9.694000 0.8800 0.8780 0.8720 0.8650 0.8550
9.727238 0.8500 0.8380 0.8250 0.8020 0.7850
9.761000 0.7700 0.7650 0.7650 0.7700 0.7900
9.794238 0.8120 0.8270 0.8380 0.8470 0.8500
9.827000 0.8500 0.8500 0.8500 0.8500 0.8500
9.860238 0.8520 0.8520 0.8520 0.8570 0.8630
9.894000 0.8720 0.8780 0.8820 0.8870 0.8920
9.927238 0.8980 0.9000 0.9000 0.8980 0.8970
9.960000 0.8930 0.8920 0.8920 0.8950 0.8980
9.993238 0.8980 0.8980 0.8950 0.8930 0.8880
10.027000 0.8880 0.8870 0.8820 0.8800 0.8780
10.060238 0.8770 0.8730 0.8680 0.8630 0.8580
10.093000 0.8550 0.8480 0.8400 0.8320 0.8250
10.126238 0.8200 0.8200 0.8250 0.8320 0.8380
10.159000 0.8480 0.8500 0.8530 0.8580 0.8580
10.192238 0.8580 0.8530 0.8520 0.8500 0.8480
10.226000 0.8480 0.8480 0.8480 0.8480 0.8480
10.259238 0.8480 0.8480 0.8470 0.8450 0.8450
10.292000 0.8430 0.8420 0.8380 0.8370 0.8330
10.325238 0.8320 0.8320 0.8320 0.8300 0.8300
10.359000 0.8280 0.8230 0.8220 0.8200 0.8180
10.392238 0.8120 0.8030 0.8020 0.7970 0.7870
10.425000 0.7850 0.7790 0.7720 0.7640 0.7570
10.458238 0.7490 0.7400 0.7320 0.7220 0.7100
10.492000 0.6990 0.6860 0.6670 0.6520 0.6470
10.525238 0.6410 0.6370 0.6370 0.6340 0.6320
10.558000 0.6310 0.6290 0.6170 0.6060 0.5940
10.591238 0.5760 0.5540 0.5330 0.5030 0.4610
10.625000 0.4360 0.4000 0.3620 0.3020 0.2540
10.658238 0.2390 0.2370 0.2390 0.2420 0.2470
10.691000 0.2570 0.2750 0.2870 0.3020 0.3120
10.724238 0.3130 0.3100 0.2950 0.2720 0.2520
10.757000 0.2320 0.2170 0.2050 0.1960 0.1810
10.790238 0.1740 0.1640 0.1490 0.1340 0.1190
10.824000 0.1040 0.0910 0.0810 0.0740 0.0690
10.857238 0.0630 0.0610 0.0630 0.0640 0.0780
10.890000 0.0880 0.1060 0.1270 0.1470 0.1670
10.923238 0.1840 0.1970 0.2150 0.2270 0.2440
10.957000 0.2570 0.2670 0.2820 0.2950 0.3070
10.990238 0.3220 0.3330 0.3430 0.3750 0.4200
11.023000 0.4400 0.4580 0.4760 0.4980 0.5190
11.056238 0.5410 0.5540 0.5630 0.5740 0.5890
11.090000 0.6040 0.6210 0.6320 0.6440 0.6540
11.123238 0.6620 0.6670 0.6710 0.6810 0.6890
11.156000 0.6920 0.6970 0.7040 0.7120 0.7170
11.189238 0.7200 0.7270 0.7320 0.7390 0.7420
11.223000 0.7470 0.7490 0.7520 0.7590 0.7620
11.256238 0.7700 0.7740 0.7790 0.7790 0.7800
11.289000 0.7820 0.7890 0.7920 0.7950 0.7990
11.322238 0.8000 0.8020 0.8030 0.8070 0.8100
11.355000 0.8120 0.8130 0.8130 0.8150 0.8170
11.388238 0.8180 0.8180 0.8200 0.8220 0.8220
11.422000 0.8230 0.8250 0.8270 0.8270 0.8280
11.455238 0.8280 0.8320 0.8320 0.8320 0.8330
11.488000 0.8350 0.8380 0.8380 0.8380 0.8380
11.521238 0.8380 0.8350 0.8300 0.8250 0.8170
11.555000 0.8020 0.7850 0.7690 0.7490 0.7300
11.588238 0.7140 0.7000 0.6890 0.6770 0.6640
11.621000 0.6660 0.6710 0.6740 0.6870 0.7090
11.654238 0.7300 0.7450 0.7570 0.7640 0.7690
11.688000 0.7690 0.7690 0.7690 0.7600 0.7440
11.721238 0.7150 0.6810 0.5960 0.5660 0.5360
11.754000 0.5010 0.4930 0.4910 0.5000 0.5360
11.787238 0.5780 0.5980 0.6120 0.6510 0.6890
11.821000 0.7100 0.7270 0.7450 0.7550 0.7650
11.854238 0.7700 0.7750 0.7790 0.7820 0.7890
11.887000 0.7890 0.7900 0.7920 0.7970 0.8000
11.920238 0.8030 0.8080 0.8080 0.8080 0.8100
11.953000 0.8120 0.8130 0.8130 0.8130 0.8130
11.986238 0.8150 0.8150 0.8130 0.8070 0.8020
12.020000 0.8000 0.7990 0.7940 0.7900 0.7800
12.053238 0.7670 0.7470 0.7250 0.7020 0.6760
12.086000 0.6210 0.5940 0.5540 0.5240 0.4900
12.119238 0.4530 0.4200 0.4000 0.3770 0.3720
12.153000 0.3770 0.4000 0.4310 0.4800 0.5190
12.186238 0.5580 0.5930 0.6240 0.6510 0.6620
12.219000 0.6720 0.6920 0.7090 0.7240 0.7350
12.252238 0.7450 0.7550 0.7620 0.7690 0.7750
12.286000 0.7800 0.7870 0.7890 0.7920 0.7970
12.319238 0.7990 0.8020 0.8030 0.8070 0.8080
12.352000 0.8120 0.8170 0.8200 0.8230 0.8250
12.385238 0.8270 0.8280 0.8280 0.8280 0.8300
12.419000 0.8300 0.8300 0.8320 0.8330 0.8380
12.452238 0.8380 0.8380 0.8380 0.8370 0.8370
12.485000 0.8380 0.8380 0.8400 0.8420 0.8420
12.518238 0.8420 0.8420 0.8420 0.8430 0.8430
12.551000 0.8450 0.8450 0.8430 0.8430 0.8400
12.584238 0.8380 0.8380 0.8400 0.8400 0.8400
12.618000 0.8400 0.8380 0.8380 0.8370 0.8330
12.651238 0.8330 0.8320 0.8300 0.8270 0.8250
12.684000 0.8230 0.8230 0.8230 0.8220 0.8150
12.717238 0.8080 0.8020 0.8000 0.7990 0.7940
12.751000 0.7850 0.7770 0.7670 0.7550 0.7440
12.784238 0.7320 0.7190 0.6940 0.6740 0.6320
12.817000 0.6020 0.5860 0.5680 0.5560 0.5410
12.850238 0.5390 0.5410 0.5540 0.5730 0.5960
12.884000 0.6360 0.6610 0.6720 0.6840 0.7000
12.917238 0.7150 0.7350 0.7470 0.7500 0.7550
12.950000 0.7620 0.7720 0.7740 0.7750 0.7750
12.983238 0.7750 0.7770 0.7770 0.7790 0.7800
13.017000 0.7800 0.7800 0.7790 0.7790 0.7770
13.050238 0.7770 0.7720 0.7700 0.7700 0.7700
13.083000 0.7690 0.7670 0.7620 0.7600 0.7600
13.116238 0.7590 0.7570 0.7520 0.7500 0.7470
13.150000 0.7440 0.7420 0.7400 0.7400 0.7400
13.183238 0.7390 0.7350 0.7300 0.7250 0.7200
13.216000 0.7150 0.7100 0.7050 0.7000 0.7000
13.249238 0.6990 0.6990 0.6970 0.6940 0.6920
13.282000 0.6910 0.6840 0.6770 0.6720 0.6690
13.315238 0.6590 0.6570 0.6540 0.6470 0.6470
13.349000 0.6420 0.6390 0.6340 0.6290 0.6270
13.382238 0.6220 0.6210 0.6190 0.6090 0.5980
13.415000 0.5910 0.5880 0.5810 0.5780 0.5730
13.448238 0.5640 0.5590 0.5580 0.5510 0.5460
13.482000 0.5390 0.5340 0.5290 0.5230 0.5140
13.515238 0.5090 0.5080 0.5010 0.4950 0.4860
13.548000 0.4800 0.4730 0.4700 0.4650 0.4610
13.581238 0.4600 0.4530 0.4510 0.4450 0.4410
13.615000 0.4380 0.4330 0.4310 0.4230 0.4210
13.648238 0.4180 0.4130 0.4110 0.4050 0.4000
13.681000 0.4000 0.3970 0.3900 0.3830 0.3780
13.714238 0.3720 0.3630 0.3530 0.3500 0.3480
13.748000 0.3470 0.3450 0.3420 0.3380 0.3370
13.781238 0.3330 0.3280 0.3250 0.3180 0.3150
13.814000 0.3130 0.3130 0.3130 0.3130 0.3130
13.847238 0.3130 0.3130 0.3130 0.3130 0.3130
13.880000 0.3150 0.3150 0.3170 0.3180 0.3230
13.913238 0.3250 0.3300 0.3330 0.3370 0.3420
13.947000 0.3500 0.3500 0.3520 0.3530 0.3600
13.980238 0.3630 0.3700 0.3720 0.3750 0.3800
14.013000 0.3830 0.3920 0.3950 0.3980 0.4010
14.046238 0.4080 0.4130 0.4210 0.4280 0.4330
14.080000 0.4380 0.4400 0.4460 0.4500 0.4510
14.113238 0.4580 0.4600 0.4660 0.4700 0.4780
14.146000 0.4780 0.4800 0.4810 0.4900 0.4950
14.179238 0.4980 0.5000 0.5010 0.5090 0.5160
14.213000 0.5230 0.5240 0.5280 0.5310 0.5310
14.246238 0.5330 0.5380 0.5390 0.5460 0.5480
14.279000 0.5480 0.5490 0.5530 0.5580 0.5590
14.312238 0.5610 0.5610 0.5640 0.5680 0.5690
14.346000 0.5710 0.5740 0.5780 0.5790 0.5810
14.379238 0.5810 0.5810 0.5830 0.5860 0.5910
14.412000 0.5940 0.5940 0.5960 0.5980 0.5980
14.445238 0.5990 0.5990 0.6010 0.6010 0.6020
14.478000 0.6020 0.6040 0.6040 0.6060 0.6070
14.511238 0.6090 0.6090 0.6120 0.6140 0.6170
14.545000 0.6170 0.6190 0.6190 0.6210 0.6210
14.578238 0.6210 0.6210 0.6260 0.6290 0.6290
14.611000 0.6290 0.6290 0.6290 0.6290 0.6290
14.644238 0.6310 0.6310 0.6310 0.6310 0.6310
14.678000 0.6310 0.6310 0.6310 0.6310 0.6320
14.711238 0.6340 0.6360 0.6370 0.6370 0.6390
14.744000 0.6390 0.6390 0.6390 0.6390 0.6370
14.777238 0.6360 0.6360 0.6360 0.6340 0.6340
14.811000 0.6320 0.6320 0.6320 0.6320 0.6310
14.844238 0.6290 0.6260 0.6220 0.6220 0.6220
14.877000 0.6240 0.6290 0.6310 0.6340 0.6340
14.910238 0.6370 0.6390 0.6410 0.6440 0.6470
14.944000 0.6490 0.6510 0.6520 0.6560 0.6570
14.977238 0.6570 0.6590 0.6590 0.6570 0.6570
15.010000 0.6560 0.6540 0.6520 0.6520 0.6520
15.043238 0.6520 0.6510 0.6510 0.6510 0.6510
15.076000 0.6540 0.6570 0.6610 0.6640 0.6690
15.109238 0.6720 0.6770 0.6790 0.6820 0.6870
15.143000 0.6960 0.6970 0.6970 0.6990 0.7000
15.176238 0.7000 0.7000 0.7020 0.7020 0.7020
15.209000 0.7020 0.7020 0.7020 0.7020 0.7020
15.242238 0.7020 0.7020 0.7000 0.6990 0.6990
15.276000 0.6970 0.6960 0.6960 0.6960 0.6960
15.309238 0.6960 0.6940 0.6940 0.6940 0.6940
15.342000 0.6920 0.6910 0.6890 0.6890 0.6890
15.375238 0.6910 0.6920 0.6920 0.6940 0.6970
15.409000 0.6970 0.6970 0.6970 0.6940 0.6920
15.442238 0.6910 0.6890 0.6870 0.6870 0.6820
15.475000 0.6810 0.6810 0.6810 0.6810 0.6810
15.508238 0.6810 0.6790 0.6770 0.6770 0.6770
15.542000 0.6760 0.6760 0.6760 0.6760 0.6760
15.575238 0.6760 0.6760 0.6770 0.6770 0.6770
15.608000 0.6790 0.6790 0.6790 0.6790 0.6790
15.641238 0.6790 0.6790 0.6770 0.6720 0.6690
15.674000 0.6690 0.6690 0.6690 0.6690 0.6690
15.707238 0.6690 0.6670 0.6670 0.6660 0.6640
15.741000 0.6620 0.6610 0.6590 0.6570 0.6570
15.774238 0.6570 0.6560 0.6560 0.6540 0.6520
15.807000 0.6520 0.6510 0.6510 0.6490 0.6470
15.840238 0.6460 0.6440 0.6440 0.6420 0.6420
15.874000 0.6410 0.6410 0.6410 0.6390 0.6390
15.907238 0.6390 0.6390 0.6370 0.6370 0.6370
15.940000 0.6370 0.6360 0.6360 0.6340 0.6340
15.973238 0.6340 0.6340 0.6320
##END=
