##TITLE=1,3-PROPANEDIOL BIS(Alpha,Alpha-DI-CHLOROPROPIONATE)
##JCAMP-DX=4.24
##DATA TYPE=INFRARED SPECTRUM
##CLASS=COBLENTZ
##ORIGIN=DOW CHEMICAL COMPANY
##OWNER=COBLENTZ SOCIETY
Collection (C) 2018 copyright by the U.S. Secretary of Commerce
on behalf of the United States of America. All rights reserved.
##DATE=Not specified, most likely prior to 1970
##NAMES=3-[(2,2-dichloropropanoyl)oxy]propyl 2,2-dichloropropanoate
##MOLFORM=C9 H12 Cl4 O4
##SOURCE REFERENCE=COBLENTZ NO. 1970
##$NIST ID=B6001970
##$NIST SOURCE=COBLENTZ
##$NIST IMAGE=cob1970
##SPECTROMETER/DATA SYSTEM=Not specified, most likely a prism, grating, or hybrid spectrometer.
##STATE=SOLUTION (10% CCl4 FOR 5000-1330, 10% CS2 FOR 1330-625 CM^-^1)
##PATH LENGTH=0.0128 CM, 0.0122 CM
$$SPECTRAL CONTAMINATION DUE TO CCl4 AROUND 1550 CM^-^1
##SAMPLING PROCEDURE=TRANSMISSION
##RESOLUTION=4
##DATA PROCESSING=DIGITIZED BY NIST FROM HARD COPY
##XUNITS=MICROMETERS
##YUNITS=TRANSMITTANCE
##XFACTOR=1.000000
##YFACTOR=1
##DELTAX=000.006846
##FIRSTX=2.014
##LASTX=15.8567
##FIRSTY=0.9
##MAXX=15.8567
##MINX=2.014
##MAXY=0.902
##MINY=0.029
##NPOINTS=2023
##XYDATA=(X++(Y..Y))
2.014000 0.9000 0.9000 0.9020 0.9020 0.9000
2.048247 0.8990 0.8970 0.8970 0.8970 0.8970
2.082000 0.8990 0.9000 0.9000 0.9020 0.9020
2.116247 0.9000 0.9000 0.9000 0.9000 0.8990
2.151000 0.8990 0.8970 0.8950 0.8950 0.8940
2.185247 0.8920 0.8920 0.8900 0.8900 0.8870
2.219000 0.8820 0.8820 0.8800 0.8780 0.8780
2.253247 0.8800 0.8820 0.8830 0.8850 0.8870
2.288000 0.8880 0.8880 0.8880 0.8880 0.8880
2.322247 0.8880 0.8900 0.8900 0.8900 0.8900
2.356000 0.8920 0.8920 0.8920 0.8920 0.8900
2.390247 0.8900 0.8900 0.8900 0.8900 0.8900
2.424000 0.8880 0.8870 0.8870 0.8850 0.8850
2.458247 0.8850 0.8850 0.8880 0.8920 0.8940
2.493000 0.8940 0.8950 0.8970 0.8970 0.8970
2.527247 0.8950 0.8950 0.8950 0.8950 0.8950
2.561000 0.8950 0.8950 0.8950 0.8970 0.8970
2.595247 0.8970 0.8970 0.8970 0.8970 0.8970
2.630000 0.8970 0.8950 0.8950 0.8940 0.8920
2.664247 0.8920 0.8940 0.8940 0.8950 0.8950
2.698000 0.8970 0.8970 0.8970 0.8970 0.8970
2.732247 0.8950 0.8950 0.8940 0.8920 0.8880
2.767000 0.8880 0.8870 0.8850 0.8830 0.8800
2.801247 0.8800 0.8800 0.8800 0.8800 0.8800
2.835000 0.8780 0.8750 0.8680 0.8610 0.8610
2.869247 0.8590 0.8610 0.8710 0.8760 0.8830
2.904000 0.8850 0.8870 0.8870 0.8870 0.8870
2.938247 0.8870 0.8870 0.8850 0.8850 0.8830
2.972000 0.8820 0.8800 0.8800 0.8800 0.8800
3.006247 0.8820 0.8820 0.8820 0.8830 0.8830
3.041000 0.8830 0.8830 0.8850 0.8870 0.8870
3.075247 0.8870 0.8870 0.8870 0.8870 0.8870
3.109000 0.8870 0.8870 0.8870 0.8870 0.8870
3.143247 0.8870 0.8870 0.8850 0.8820 0.8820
3.178000 0.8800 0.8800 0.8820 0.8830 0.8830
3.212247 0.8830 0.8830 0.8830 0.8820 0.8800
3.246000 0.8780 0.8730 0.8710 0.8700 0.8680
3.280247 0.8680 0.8640 0.8560 0.8420 0.8230
3.314000 0.8000 0.7760 0.7480 0.7240 0.7000
3.348247 0.6800 0.6660 0.6490 0.6470 0.6490
3.383000 0.6760 0.7170 0.7550 0.7700 0.7740
3.417247 0.7790 0.7880 0.7960 0.8050 0.8170
3.451000 0.8300 0.8440 0.8510 0.8540 0.8580
3.485247 0.8610 0.8630 0.8640 0.8660 0.8660
3.520000 0.8680 0.8700 0.8730 0.8760 0.8800
3.554247 0.8800 0.8800 0.8800 0.8800 0.8800
3.588000 0.8800 0.8800 0.8800 0.8800 0.8800
3.622247 0.8800 0.8800 0.8800 0.8800 0.8800
3.657000 0.8800 0.8800 0.8800 0.8800 0.8800
3.691247 0.8800 0.8800 0.8800 0.8800 0.8800
3.725000 0.8800 0.8800 0.8800 0.8800 0.8800
3.759247 0.8800 0.8800 0.8800 0.8800 0.8800
3.794000 0.8800 0.8820 0.8820 0.8820 0.8820
3.828247 0.8830 0.8830 0.8830 0.8830 0.8830
3.862000 0.8820 0.8820 0.8820 0.8820 0.8820
3.896247 0.8820 0.8800 0.8780 0.8780 0.8780
3.931000 0.8760 0.8750 0.8730 0.8710 0.8700
3.965247 0.8700 0.8700 0.8700 0.8700 0.8710
3.999000 0.8710 0.8710 0.8710 0.8710 0.8710
4.033247 0.8710 0.8710 0.8730 0.8730 0.8730
4.067000 0.8750 0.8760 0.8780 0.8800 0.8800
4.101247 0.8800 0.8800 0.8760 0.8710 0.8680
4.136000 0.8660 0.8660 0.8660 0.8660 0.8660
4.170247 0.8660 0.8660 0.8660 0.8660 0.8660
4.204000 0.8660 0.8680 0.8700 0.8710 0.8710
4.238247 0.8710 0.8710 0.8700 0.8700 0.8700
4.273000 0.8680 0.8680 0.8660 0.8640 0.8640
4.307247 0.8640 0.8680 0.8680 0.8680 0.8660
4.341000 0.8630 0.8610 0.8610 0.8630 0.8640
4.375247 0.8660 0.8680 0.8700 0.8710 0.8710
4.410000 0.8730 0.8730 0.8750 0.8760 0.8760
4.444247 0.8760 0.8760 0.8780 0.8780 0.8780
4.478000 0.8780 0.8780 0.8780 0.8780 0.8780
4.512247 0.8780 0.8780 0.8780 0.8780 0.8760
4.547000 0.8730 0.8710 0.8700 0.8700 0.8680
4.581247 0.8660 0.8660 0.8660 0.8660 0.8660
4.615000 0.8680 0.8680 0.8680 0.8680 0.8700
4.649247 0.8700 0.8700 0.8700 0.8700 0.8700
4.684000 0.8700 0.8700 0.8700 0.8700 0.8700
4.718247 0.8700 0.8700 0.8700 0.8700 0.8700
4.752000 0.8700 0.8710 0.8710 0.8750 0.8750
4.786247 0.8750 0.8750 0.8750 0.8760 0.8760
4.821000 0.8760 0.8760 0.8760 0.8760 0.8760
4.855247 0.8750 0.8750 0.8750 0.8730 0.8730
4.889000 0.8730 0.8710 0.8710 0.8710 0.8710
4.923247 0.8710 0.8700 0.8700 0.8700 0.8700
4.957000 0.8700 0.8700 0.8700 0.8700 0.8700
4.991247 0.8700 0.8680 0.8700 0.8700 0.8700
5.026000 0.8700 0.8700 0.8700 0.8700 0.8700
5.060247 0.8700 0.8700 0.8700 0.8700 0.8700
5.094000 0.8710 0.8710 0.8710 0.8710 0.8730
5.128247 0.8730 0.8750 0.8750 0.8750 0.8750
5.163000 0.8750 0.8750 0.8750 0.8750 0.8750
5.197247 0.8750 0.8730 0.8730 0.8710 0.8710
5.231000 0.8700 0.8700 0.8680 0.8660 0.8660
5.265247 0.8660 0.8660 0.8660 0.8660 0.8660
5.300000 0.8660 0.8660 0.8640 0.8640 0.8640
5.334247 0.8610 0.8590 0.8580 0.8560 0.8540
5.368000 0.8540 0.8520 0.8510 0.8490 0.8490
5.402247 0.8470 0.8440 0.8410 0.8370 0.8320
5.437000 0.8290 0.8270 0.8230 0.8180 0.8170
5.471247 0.8110 0.8100 0.8050 0.8000 0.7980
5.505000 0.7890 0.7820 0.7740 0.7640 0.7530
5.539247 0.7450 0.7360 0.7240 0.7120 0.6970
5.574000 0.6800 0.6580 0.6030 0.5400 0.5050
5.608247 0.4680 0.4100 0.3530 0.3120 0.2540
5.642000 0.2000 0.1550 0.1190 0.0940 0.0780
5.676247 0.0680 0.0590 0.0540 0.0520 0.0510
5.711000 0.0490 0.0470 0.0490 0.0590 0.0900
5.745247 0.1550 0.2440 0.3400 0.4390 0.4870
5.779000 0.5330 0.5600 0.6010 0.6470 0.6630
5.813247 0.6760 0.6900 0.7000 0.7090 0.7140
5.847000 0.7170 0.7190 0.7280 0.7480 0.7670
5.881247 0.7840 0.7980 0.8100 0.8200 0.8230
5.916000 0.8270 0.8290 0.8320 0.8370 0.8370
5.950247 0.8390 0.8410 0.8460 0.8490 0.8510
5.984000 0.8520 0.8540 0.8540 0.8540 0.8560
6.018247 0.8560 0.8580 0.8580 0.8580 0.8590
6.053000 0.8590 0.8590 0.8590 0.8590 0.8590
6.087247 0.8580 0.8580 0.8560 0.8510 0.8510
6.121000 0.8490 0.8460 0.8420 0.8390 0.8340
6.155247 0.8290 0.8250 0.8170 0.8100 0.8010
6.190000 0.7910 0.7790 0.7690 0.7570 0.7430
6.224247 0.7310 0.7170 0.7040 0.6940 0.6730
6.258000 0.6560 0.6410 0.6250 0.6150 0.6050
6.292247 0.6000 0.5940 0.5890 0.5860 0.5820
6.327000 0.5790 0.5770 0.5700 0.5640 0.5520
6.361247 0.5400 0.5310 0.5190 0.5120 0.5020
6.395000 0.4830 0.4660 0.4510 0.4460 0.4340
6.429247 0.4300 0.4320 0.4370 0.4420 0.4520
6.464000 0.4610 0.4760 0.4970 0.5090 0.5190
6.498247 0.5350 0.5500 0.5580 0.5690 0.5740
6.532000 0.5820 0.5890 0.5980 0.6100 0.6220
6.566247 0.6320 0.6370 0.6460 0.6540 0.6630
6.600000 0.6700 0.6780 0.6920 0.6990 0.7120
6.634247 0.7190 0.7260 0.7330 0.7410 0.7480
6.669000 0.7520 0.7550 0.7570 0.7580 0.7600
6.703247 0.7600 0.7580 0.7520 0.7450 0.7280
6.737000 0.7050 0.6820 0.6520 0.6250 0.6010
6.771247 0.5790 0.5640 0.5520 0.5380 0.5360
6.806000 0.5380 0.5410 0.5430 0.5410 0.5380
6.840247 0.5380 0.5360 0.5360 0.5360 0.5330
6.874000 0.5240 0.5020 0.4630 0.4470 0.4320
6.908247 0.4290 0.4290 0.4390 0.4730 0.5070
6.943000 0.5600 0.6010 0.6300 0.6510 0.6640
6.977247 0.6730 0.6780 0.6800 0.6850 0.7040
7.011000 0.7140 0.7210 0.7350 0.7470 0.7520
7.045247 0.7570 0.7570 0.7580 0.7580 0.7570
7.080000 0.7570 0.7550 0.7530 0.7500 0.7480
7.114247 0.7470 0.7360 0.7310 0.7260 0.7190
7.148000 0.7070 0.6940 0.6750 0.6540 0.6340
7.182247 0.6130 0.5840 0.5650 0.5070 0.4130
7.217000 0.3820 0.3770 0.3740 0.3740 0.4590
7.251247 0.5310 0.6030 0.6950 0.7240 0.7470
7.285000 0.7480 0.7480 0.7470 0.7400 0.7310
7.319247 0.7230 0.7160 0.7120 0.7120 0.7160
7.354000 0.7240 0.7450 0.7570 0.7620 0.7620
7.388247 0.7620 0.7600 0.7530 0.7450 0.7410
7.422000 0.7360 0.7260 0.7160 0.7020 0.6870
7.456247 0.6710 0.6540 0.6370 0.6200 0.6050
7.490000 0.5890 0.5820 0.5820 0.5860 0.5980
7.524247 0.6100 0.6270 0.6470 0.6510 0.6510
7.559000 0.6470 0.6470 0.6340 0.6320 0.6100
7.593247 0.6030 0.5820 0.5620 0.5530 0.5450
7.627000 0.5350 0.5210 0.5040 0.4710 0.4560
7.661247 0.4440 0.4320 0.4230 0.4130 0.4000
7.696000 0.3820 0.3650 0.3500 0.3430 0.3260
7.730247 0.3090 0.2940 0.2730 0.2560 0.2390
7.764000 0.2250 0.2060 0.1820 0.1700 0.1520
7.798247 0.1290 0.1110 0.0970 0.0850 0.0750
7.833000 0.0610 0.0510 0.0470 0.0420 0.0390
7.867247 0.0300 0.0290 0.0290 0.0300 0.0300
7.901000 0.0300 0.0300 0.0320 0.0340 0.0340
7.935247 0.0350 0.0350 0.0370 0.0410 0.0420
7.970000 0.0460 0.0470 0.0490 0.0490 0.0510
8.004247 0.0520 0.0520 0.0520 0.0540 0.0540
8.038000 0.0560 0.0590 0.0680 0.0780 0.0880
8.072247 0.1000 0.1140 0.1260 0.1500 0.1840
8.107000 0.2080 0.2300 0.2560 0.2920 0.3230
8.141247 0.3470 0.3890 0.4230 0.4540 0.4870
8.175000 0.5000 0.5120 0.5360 0.5620 0.5820
8.209247 0.5980 0.6110 0.6230 0.6350 0.6470
8.244000 0.6680 0.6850 0.6880 0.6940 0.7000
8.278247 0.7090 0.7190 0.7260 0.7350 0.7380
8.312000 0.7430 0.7470 0.7480 0.7500 0.7520
8.346247 0.7520 0.7530 0.7530 0.7530 0.7550
8.380000 0.7550 0.7550 0.7550 0.7530 0.7530
8.414247 0.7530 0.7480 0.7450 0.7400 0.7380
8.449000 0.7360 0.7330 0.7290 0.7260 0.7230
8.483247 0.7210 0.7190 0.7120 0.7020 0.6970
8.517000 0.6940 0.6880 0.6830 0.6760 0.6700
8.551247 0.6660 0.6610 0.6560 0.6490 0.6470
8.586000 0.6440 0.6410 0.6370 0.6350 0.6340
8.620247 0.6340 0.6340 0.6320 0.6320 0.6300
8.654000 0.6300 0.6290 0.6270 0.6250 0.6180
8.688247 0.6110 0.6000 0.5880 0.5760 0.5600
8.723000 0.5470 0.5330 0.5140 0.4750 0.4520
8.757247 0.4270 0.4000 0.3690 0.3400 0.3090
8.791000 0.2780 0.2470 0.2180 0.1910 0.1650
8.825247 0.1400 0.1160 0.1000 0.0850 0.0750
8.860000 0.0630 0.0540 0.0510 0.0490 0.0470
8.894247 0.0420 0.0410 0.0410 0.0410 0.0410
8.928000 0.0410 0.0420 0.0490 0.0540 0.0590
8.962247 0.0630 0.0700 0.0750 0.0820 0.0870
8.997000 0.0950 0.1020 0.1160 0.1230 0.1280
9.031247 0.1380 0.1520 0.1670 0.1810 0.1940
9.065000 0.2130 0.2270 0.2440 0.2490 0.2580
9.099247 0.2590 0.2610 0.2590 0.2560 0.2440
9.133000 0.2320 0.2080 0.1890 0.1690 0.1520
9.167247 0.1360 0.1240 0.1120 0.1020 0.0940
9.202000 0.0800 0.0750 0.0730 0.0710 0.0710
9.236247 0.0780 0.0870 0.0950 0.1040 0.1110
9.270000 0.1170 0.1190 0.1190 0.1170 0.1140
9.304247 0.1140 0.1120 0.1120 0.1120 0.1170
9.339000 0.1350 0.1520 0.1770 0.2060 0.2440
9.373247 0.2700 0.3050 0.3360 0.3650 0.3890
9.407000 0.4110 0.4340 0.4590 0.4880 0.5000
9.441247 0.5110 0.5240 0.5330 0.5470 0.5550
9.476000 0.5650 0.5740 0.5790 0.5840 0.5860
9.510247 0.5860 0.5880 0.5880 0.5880 0.5880
9.544000 0.5860 0.5810 0.5760 0.5690 0.5620
9.578247 0.5550 0.5500 0.5400 0.5240 0.5110
9.613000 0.4940 0.4800 0.4700 0.4630 0.4520
9.647247 0.4420 0.4290 0.4200 0.4110 0.4060
9.681000 0.4050 0.4030 0.4030 0.4030 0.4050
9.715247 0.4050 0.4050 0.4080 0.4230 0.4410
9.750000 0.4580 0.4760 0.4970 0.5090 0.5190
9.784247 0.5400 0.5640 0.5880 0.6100 0.6320
9.818000 0.6410 0.6560 0.6680 0.6800 0.6950
9.852247 0.7070 0.7190 0.7280 0.7350 0.7400
9.887000 0.7470 0.7520 0.7580 0.7600 0.7640
9.921247 0.7650 0.7670 0.7670 0.7690 0.7690
9.955000 0.7690 0.7700 0.7720 0.7720 0.7740
9.989247 0.7770 0.7790 0.7790 0.7770 0.7770
10.023000 0.7770 0.7760 0.7740 0.7700 0.7670
10.057247 0.7600 0.7530 0.7480 0.7430 0.7360
10.092000 0.7280 0.7190 0.7120 0.7020 0.6920
10.126247 0.6780 0.6640 0.6580 0.6490 0.6420
10.160000 0.6410 0.6390 0.6350 0.6350 0.6350
10.194247 0.6390 0.6460 0.6510 0.6590 0.6660
10.229000 0.6750 0.6820 0.6920 0.7000 0.7090
10.263247 0.7190 0.7260 0.7310 0.7360 0.7380
10.297000 0.7400 0.7400 0.7410 0.7410 0.7410
10.331247 0.7430 0.7430 0.7360 0.7330 0.7260
10.366000 0.7170 0.7110 0.7020 0.6920 0.6830
10.400247 0.6750 0.6660 0.6590 0.6540 0.6490
10.434000 0.6460 0.6440 0.6440 0.6440 0.6460
10.468247 0.6490 0.6540 0.6590 0.6660 0.6730
10.503000 0.6800 0.6880 0.6950 0.7000 0.7070
10.537247 0.7140 0.7170 0.7190 0.7210 0.7230
10.571000 0.7230 0.7190 0.7190 0.7120 0.7040
10.605247 0.6940 0.6850 0.6730 0.6630 0.6510
10.640000 0.6410 0.6300 0.6180 0.6050 0.5980
10.674247 0.5930 0.5810 0.5700 0.5650 0.5580
10.708000 0.5530 0.5520 0.5520 0.5530 0.5570
10.742247 0.5670 0.5810 0.5940 0.6080 0.6200
10.777000 0.6300 0.6370 0.6510 0.6610 0.6680
10.811247 0.6750 0.6800 0.6850 0.6920 0.6990
10.845000 0.7070 0.7110 0.7140 0.7190 0.7240
10.879247 0.7290 0.7350 0.7380 0.7430 0.7450
10.913000 0.7470 0.7480 0.7500 0.7530 0.7550
10.947247 0.7550 0.7550 0.7550 0.7550 0.7550
10.982000 0.7550 0.7530 0.7530 0.7520 0.7480
11.016247 0.7470 0.7450 0.7430 0.7410 0.7400
11.050000 0.7400 0.7400 0.7400 0.7380 0.7380
11.084247 0.7380 0.7380 0.7380 0.7400 0.7400
11.119000 0.7410 0.7430 0.7450 0.7450 0.7470
11.153247 0.7470 0.7470 0.7480 0.7480 0.7480
11.187000 0.7480 0.7480 0.7470 0.7470 0.7470
11.221247 0.7470 0.7450 0.7450 0.7450 0.7450
11.256000 0.7450 0.7430 0.7430 0.7410 0.7400
11.290247 0.7380 0.7330 0.7290 0.7280 0.7280
11.324000 0.7260 0.7240 0.7230 0.7170 0.7160
11.358247 0.7120 0.7110 0.7070 0.7050 0.7040
11.393000 0.7020 0.7000 0.7000 0.6990 0.6990
11.427247 0.6970 0.6950 0.6940 0.6900 0.6880
11.461000 0.6870 0.6850 0.6830 0.6800 0.6760
11.495247 0.6750 0.6730 0.6710 0.6700 0.6680
11.530000 0.6660 0.6640 0.6610 0.6590 0.6560
11.564247 0.6540 0.6490 0.6470 0.6460 0.6420
11.598000 0.6410 0.6390 0.6370 0.6350 0.6340
11.632247 0.6340 0.6340 0.6340 0.6340 0.6340
11.667000 0.6340 0.6340 0.6340 0.6340 0.6350
11.701247 0.6350 0.6370 0.6390 0.6410 0.6440
11.735000 0.6470 0.6490 0.6560 0.6580 0.6590
11.769247 0.6640 0.6660 0.6710 0.6750 0.6820
11.803000 0.6900 0.6970 0.7020 0.7070 0.7120
11.837247 0.7160 0.7210 0.7260 0.7310 0.7360
11.872000 0.7400 0.7410 0.7430 0.7470 0.7480
11.906247 0.7500 0.7520 0.7520 0.7530 0.7530
11.940000 0.7570 0.7580 0.7580 0.7600 0.7620
11.974247 0.7640 0.7650 0.7670 0.7690 0.7690
12.009000 0.7700 0.7700 0.7720 0.7740 0.7740
12.043247 0.7740 0.7760 0.7760 0.7760 0.7740
12.077000 0.7720 0.7700 0.7690 0.7650 0.7640
12.111247 0.7600 0.7600 0.7580 0.7580 0.7580
12.146000 0.7570 0.7570 0.7570 0.7550 0.7530
12.180247 0.7520 0.7520 0.7500 0.7470 0.7430
12.214000 0.7400 0.7380 0.7360 0.7350 0.7290
12.248247 0.7280 0.7280 0.7280 0.7280 0.7280
12.283000 0.7280 0.7280 0.7290 0.7310 0.7350
12.317247 0.7360 0.7360 0.7380 0.7430 0.7450
12.351000 0.7470 0.7470 0.7470 0.7470 0.7470
12.385247 0.7450 0.7430 0.7380 0.7350 0.7290
12.420000 0.7240 0.7170 0.7110 0.7040 0.6970
12.454247 0.6880 0.6780 0.6680 0.6580 0.6460
12.488000 0.6340 0.6220 0.6080 0.5910 0.5760
12.522247 0.5600 0.5410 0.5230 0.5090 0.4850
12.556000 0.4780 0.4700 0.4680 0.4680 0.4700
12.590247 0.4710 0.4750 0.4800 0.4870 0.4950
12.625000 0.4990 0.5000 0.5070 0.5120 0.5170
12.659247 0.5230 0.5260 0.5310 0.5380 0.5450
12.693000 0.5470 0.5480 0.5520 0.5550 0.5580
12.727247 0.5600 0.5650 0.5650 0.5720 0.5760
12.762000 0.5810 0.5840 0.5880 0.5910 0.5940
12.796247 0.5980 0.6030 0.6060 0.6130 0.6180
12.830000 0.6230 0.6290 0.6340 0.6370 0.6420
12.864247 0.6440 0.6470 0.6510 0.6560 0.6610
12.899000 0.6610 0.6630 0.6640 0.6640 0.6660
12.933247 0.6680 0.6700 0.6730 0.6750 0.6760
12.967000 0.6760 0.6780 0.6800 0.6830 0.6850
13.001247 0.6850 0.6850 0.6870 0.6870 0.6880
13.036000 0.6880 0.6880 0.6920 0.6940 0.6950
13.070247 0.6970 0.7000 0.7000 0.7020 0.7040
13.104000 0.7040 0.7040 0.7040 0.7040 0.7040
13.138247 0.7040 0.7040 0.7040 0.7040 0.7040
13.173000 0.7040 0.7020 0.7020 0.7020 0.7020
13.207247 0.7020 0.7000 0.7000 0.7000 0.7000
13.241000 0.7000 0.6990 0.6990 0.6990 0.6990
13.275247 0.6990 0.6970 0.6950 0.6940 0.6940
13.310000 0.6920 0.6900 0.6880 0.6880 0.6870
13.344247 0.6850 0.6830 0.6820 0.6800 0.6780
13.378000 0.6780 0.6760 0.6730 0.6700 0.6640
13.412247 0.6610 0.6580 0.6520 0.6490 0.6460
13.446000 0.6420 0.6390 0.6320 0.6250 0.6170
13.480247 0.6100 0.6010 0.5930 0.5860 0.5770
13.515000 0.5690 0.5620 0.5520 0.5430 0.5310
13.549247 0.5190 0.5070 0.4880 0.4800 0.4700
13.583000 0.4610 0.4520 0.4420 0.4290 0.4180
13.617247 0.4130 0.4030 0.4000 0.3940 0.3820
13.652000 0.3770 0.3720 0.3690 0.3600 0.3580
13.686247 0.3550 0.3530 0.3530 0.3530 0.3530
13.720000 0.3550 0.3570 0.3580 0.3600 0.3650
13.754247 0.3650 0.3690 0.3720 0.3760 0.3810
13.789000 0.3840 0.3910 0.3980 0.4060 0.4110
13.823247 0.4170 0.4230 0.4300 0.4390 0.4440
13.857000 0.4490 0.4520 0.4580 0.4660 0.4730
13.891247 0.4820 0.4850 0.4880 0.4940 0.4990
13.926000 0.5020 0.5050 0.5090 0.5110 0.5140
13.960247 0.5160 0.5170 0.5190 0.5240 0.5280
13.994000 0.5330 0.5360 0.5380 0.5380 0.5400
14.028247 0.5410 0.5410 0.5430 0.5450 0.5470
14.063000 0.5480 0.5480 0.5480 0.5480 0.5470
14.097247 0.5470 0.5450 0.5450 0.5450 0.5430
14.131000 0.5430 0.5430 0.5430 0.5430 0.5430
14.165247 0.5430 0.5410 0.5410 0.5400 0.5380
14.200000 0.5360 0.5350 0.5330 0.5330 0.5310
14.234247 0.5290 0.5290 0.5280 0.5260 0.5260
14.268000 0.5190 0.5160 0.5140 0.5140 0.5120
14.302247 0.5120 0.5070 0.5050 0.5040 0.5020
14.336000 0.5000 0.4970 0.4940 0.4920 0.4920
14.370247 0.4900 0.4870 0.4830 0.4800 0.4800
14.405000 0.4780 0.4760 0.4750 0.4710 0.4680
14.439247 0.4660 0.4610 0.4590 0.4580 0.4560
14.473000 0.4560 0.4510 0.4490 0.4470 0.4440
14.507247 0.4410 0.4390 0.4370 0.4350 0.4320
14.542000 0.4300 0.4270 0.4220 0.4170 0.4130
14.576247 0.4110 0.4100 0.4050 0.4000 0.4000
14.610000 0.3960 0.3930 0.3890 0.3860 0.3790
14.644247 0.3770 0.3720 0.3700 0.3670 0.3640
14.679000 0.3580 0.3530 0.3520 0.3480 0.3470
14.713247 0.3410 0.3400 0.3380 0.3350 0.3310
14.747000 0.3260 0.3210 0.3160 0.3120 0.3090
14.781247 0.3070 0.3040 0.2970 0.2880 0.2850
14.816000 0.2830 0.2800 0.2750 0.2680 0.2640
14.850247 0.2590 0.2560 0.2520 0.2490 0.2460
14.884000 0.2410 0.2370 0.2300 0.2290 0.2270
14.918247 0.2200 0.2130 0.2060 0.2000 0.1940
14.953000 0.1890 0.1770 0.1690 0.1640 0.1570
14.987247 0.1500 0.1400 0.1260 0.1230 0.1190
15.021000 0.1120 0.1040 0.0990 0.0970 0.0880
15.055247 0.0830 0.0780 0.0710 0.0680 0.0610
15.089000 0.0580 0.0560 0.0510 0.0510 0.0470
15.123247 0.0440 0.0410 0.0410 0.0410 0.0410
15.158000 0.0420 0.0460 0.0470 0.0490 0.0490
15.192247 0.0510 0.0510 0.0510 0.0510 0.0510
15.226000 0.0510 0.0520 0.0580 0.0580 0.0590
15.260247 0.0630 0.0700 0.0730 0.0780 0.0820
15.295000 0.0880 0.0940 0.1020 0.1090 0.1140
15.329247 0.1190 0.1240 0.1280 0.1350 0.1400
15.363000 0.1450 0.1520 0.1580 0.1650 0.1760
15.397247 0.1880 0.2010 0.2030 0.2050 0.2110
15.432000 0.2200 0.2230 0.2320 0.2390 0.2440
15.466247 0.2510 0.2610 0.2700 0.2780 0.2820
15.500000 0.2880 0.2950 0.2990 0.3020 0.3040
15.534247 0.3090 0.3120 0.3170 0.3210 0.3260
15.569000 0.3310 0.3330 0.3350 0.3380 0.3410
15.603247 0.3450 0.3470 0.3480 0.3480 0.3500
15.637000 0.3520 0.3520 0.3550 0.3580 0.3580
15.671247 0.3600 0.3620 0.3640 0.3650 0.3670
15.706000 0.3690 0.3700 0.3720 0.3740 0.3760
15.740247 0.3770 0.3770 0.3790 0.3810 0.3820
15.774000 0.3820 0.3840 0.3840 0.3860 0.3880
15.808247 0.3880 0.3880 0.3880 0.3890 0.3890
15.843000 0.3890 0.3890 0.3890
##END=
