##TITLE=BENZENESULFONIC ACID, SODIUM SALT
##JCAMP-DX=4.24
$$ By DXEDIT 1.05 (RS McDonald)
##DATA TYPE=INFRARED SPECTRUM
##CLASS=COBLENTZ II
##ORIGIN=DOW CHEMICAL COMPANY
##OWNER=COBLENTZ SOC.
Collection (C) 2018 copyright by the U.S. Secretary of Commerce
on behalf of the United States of America. All rights reserved.
##DATE=1962/03/02
##MOLFORM=C6 H5 Na O3 S
##SOURCE REFERENCE=COBLENTZ NO. 05657
##$NIST ID=B6005657
##$NIST SOURCE=COBLENTZ
##$NIST IMAGE=cob5657
##SPECTROMETER/DATA SYSTEM=DOW KBr FOREPRISM-GRATING
##INSTRUMENT PARAMETERS=BLAZED AT 3.5, 12.0, 20.0 AND CHANGED AT 5.0, 7.5, 14.9 MICRON
##STATE=SOLID (SPLIT MULL)
##SAMPLING PROCEDURE=TRANSMISSION
##RESOLUTION=2
##DATA PROCESSING=DIGITIZED BY COBLENTZ SOCIETY (BATCH I) FROM HARD COPY
##XUNITS=1/CM
##YUNITS=TRANSMITTANCE
##XLABEL=Wavenumbers (cm-1)
##YLABEL=% Transmission
##XFACTOR=1
##YFACTOR=1
##DELTAX=1
##FIRSTX=3818
##LASTX=390
##FIRSTY=0.825
##MAXX=3818
##MINX=390
##MAXY=0.9134
##MINY=0.0693
##NPOINTS=3429
##XYDATA=(X++(Y..Y))
3818.000000 0.8250 0.8249 0.8249 0.8249 0.8249
3813.000000 0.8248 0.8248 0.8248 0.8248 0.8248
3808.000000 0.8248 0.8247 0.8247 0.8247 0.8247
3803.000000 0.8246 0.8246 0.8246 0.8246 0.8245
3798.000000 0.8245 0.8244 0.8244 0.8243 0.8243
3793.000000 0.8242 0.8242 0.8241 0.8241 0.8240
3788.000000 0.8240 0.8239 0.8239 0.8238 0.8238
3783.000000 0.8237 0.8237 0.8237 0.8238 0.8238
3778.000000 0.8238 0.8238 0.8239 0.8239 0.8239
3773.000000 0.8239 0.8240 0.8240 0.8240 0.8240
3768.000000 0.8241 0.8241 0.8242 0.8242 0.8243
3763.000000 0.8243 0.8244 0.8244 0.8245 0.8245
3758.000000 0.8245 0.8245 0.8246 0.8246 0.8246
3753.000000 0.8244 0.8243 0.8241 0.8239 0.8237
3748.000000 0.8235 0.8233 0.8231 0.8228 0.8227
3743.000000 0.8225 0.8223 0.8221 0.8218 0.8217
3738.000000 0.8215 0.8212 0.8210 0.8207 0.8205
3733.000000 0.8202 0.8199 0.8196 0.8193 0.8190
3728.000000 0.8187 0.8184 0.8181 0.8178 0.8175
3723.000000 0.8171 0.8168 0.8167 0.8165 0.8164
3718.000000 0.8164 0.8164 0.8164 0.8162 0.8162
3713.000000 0.8162 0.8162 0.8161 0.8161 0.8161
3708.000000 0.8161 0.8161 0.8161 0.8164 0.8167
3703.000000 0.8169 0.8172 0.8175 0.8178 0.8181
3698.000000 0.8184 0.8187 0.8190 0.8193 0.8196
3693.000000 0.8199 0.8202 0.8205 0.8208 0.8208
3688.000000 0.8208 0.8208 0.8209 0.8209 0.8210
3683.000000 0.8210 0.8211 0.8211 0.8212 0.8212
3678.000000 0.8213 0.8213 0.8213 0.8213 0.8213
3673.000000 0.8212 0.8211 0.8209 0.8208 0.8207
3668.000000 0.8206 0.8205 0.8204 0.8202 0.8201
3663.000000 0.8199 0.8198 0.8195 0.8192 0.8189
3658.000000 0.8186 0.8182 0.8178 0.8175 0.8172
3653.000000 0.8169 0.8167 0.8162 0.8160 0.8156
3648.000000 0.8151 0.8137 0.8121 0.8107 0.8092
3643.000000 0.8071 0.8050 0.8033 0.8017 0.8006
3638.000000 0.7996 0.7994 0.7961 0.7991 0.7991
3633.000000 0.7990 0.7989 0.7988 0.7988 0.7987
3628.000000 0.7987 0.7993 0.7999 0.8008 0.8018
3623.000000 0.8033 0.8047 0.8061 0.8076 0.8089
3618.000000 0.8101 0.8108 0.8117 0.8125 0.8133
3613.000000 0.8141 0.8149 0.8157 0.8165 0.8172
3608.000000 0.8181 0.8189 0.8197 0.8199 0.8202
3603.000000 0.8204 0.8207 0.8210 0.8213 0.8215
3598.000000 0.8218 0.8220 0.8223 0.8225 0.8228
3593.000000 0.8228 0.8230 0.8231 0.8232 0.8232
3588.000000 0.8233 0.8234 0.8235 0.8236 0.8237
3583.000000 0.8237 0.8237 0.8237 0.8237 0.8235
3578.000000 0.8233 0.8231 0.8228 0.8224 0.8218
3573.000000 0.8213 0.8208 0.8202 0.8197 0.8191
3568.000000 0.8185 0.8172 0.8161 0.8150 0.8139
3563.000000 0.8137 0.8118 0.8133 0.8131 0.8130
3558.000000 0.8128 0.8130 0.8133 0.8139 0.8145
3553.000000 0.8151 0.8158 0.8165 0.8172 0.8180
3548.000000 0.8188 0.8196 0.8204 0.8211 0.8218
3543.000000 0.8225 0.8232 0.8235 0.8239 0.8243
3538.000000 0.8247 0.8251 0.8255 0.8258 0.8262
3533.000000 0.8266 0.8270 0.8273 0.8277 0.8281
3528.000000 0.8285 0.8287 0.8290 0.8292 0.8295
3523.000000 0.8297 0.8300 0.8302 0.8305 0.8307
3518.000000 0.8310 0.8312 0.8315 0.8317 0.8320
3513.000000 0.8323 0.8325 0.8328 0.8332 0.8334
3508.000000 0.8337 0.8340 0.8343 0.8346 0.8349
3503.000000 0.8352 0.8355 0.8357 0.8360 0.8363
3498.000000 0.8366 0.8368 0.8371 0.8375 0.8378
3493.000000 0.8381 0.8384 0.8386 0.8389 0.8392
3488.000000 0.8395 0.8398 0.8401 0.8403 0.8406
3483.000000 0.8408 0.8411 0.8413 0.8416 0.8418
3478.000000 0.8421 0.8423 0.8425 0.8428 0.8431
3473.000000 0.8433 0.8436 0.8439 0.8442 0.8444
3468.000000 0.8447 0.8449 0.8452 0.8454 0.8457
3463.000000 0.8459 0.8462 0.8464 0.8467 0.8468
3458.000000 0.8471 0.8474 0.8477 0.8478 0.8482
3453.000000 0.8484 0.8487 0.8490 0.8494 0.8497
3448.000000 0.8500 0.8503 0.8506 0.8509 0.8513
3443.000000 0.8516 0.8518 0.8521 0.8525 0.8528
3438.000000 0.8532 0.8535 0.8538 0.8541 0.8544
3433.000000 0.8547 0.8551 0.8554 0.8557 0.8560
3428.000000 0.8563 0.8566 0.8568 0.8571 0.8574
3423.000000 0.8577 0.8580 0.8583 0.8611 0.8589
3418.000000 0.8592 0.8595 0.8598 0.8600 0.8602
3413.000000 0.8603 0.8604 0.8605 0.8607 0.8608
3408.000000 0.8609 0.8610 0.8612 0.8613 0.8615
3403.000000 0.8616 0.8617 0.8618 0.8620 0.8621
3398.000000 0.8621 0.8623 0.8625 0.8625 0.8625
3393.000000 0.8625 0.8621 0.8618 0.8616 0.8613
3388.000000 0.8610 0.8607 0.8604 0.8601 0.8598
3383.000000 0.8595 0.8592 0.8588 0.8585 0.8582
3378.000000 0.8578 0.8575 0.8573 0.8568 0.8566
3373.000000 0.8562 0.8559 0.8555 0.8552 0.8549
3368.000000 0.8546 0.8542 0.8539 0.8536 0.8534
3363.000000 0.8532 0.8530 0.8528 0.8525 0.8524
3358.000000 0.8523 0.8521 0.8518 0.8517 0.8515
3353.000000 0.8513 0.8512 0.8510 0.8508 0.8506
3348.000000 0.8504 0.8502 0.8501 0.8499 0.8498
3343.000000 0.8497 0.8496 0.8494 0.8493 0.8492
3338.000000 0.8492 0.8492 0.8493 0.8494 0.8495
3333.000000 0.8496 0.8498 0.8499 0.8500 0.8501
3328.000000 0.8503 0.8504 0.8506 0.8507 0.8508
3323.000000 0.8510 0.8512 0.8514 0.8516 0.8518
3318.000000 0.8520 0.8521 0.8525 0.8527 0.8528
3313.000000 0.8528 0.8527 0.8525 0.8523 0.8521
3308.000000 0.8518 0.8517 0.8515 0.8512 0.8510
3303.000000 0.8508 0.8506 0.8504 0.8502 0.8499
3298.000000 0.8497 0.8495 0.8493 0.8492 0.8492
3293.000000 0.8491 0.8491 0.8490 0.8490 0.8489
3288.000000 0.8489 0.8488 0.8488 0.8488 0.8488
3283.000000 0.8487 0.8487 0.8486 0.8486 0.8485
3278.000000 0.8485 0.8484 0.8484 0.8483 0.8483
3273.000000 0.8482 0.8481 0.8480 0.8478 0.8478
3268.000000 0.8477 0.8475 0.8475 0.8474 0.8474
3263.000000 0.8473 0.8471 0.8471 0.8470 0.8468
3258.000000 0.8468 0.8467 0.8466 0.8465 0.8465
3253.000000 0.8464 0.8463 0.8462 0.8461 0.8461
3248.000000 0.8461 0.8461 0.8461 0.8461 0.8461
3243.000000 0.8461 0.8461 0.8461 0.8461 0.8461
3238.000000 0.8461 0.8460 0.8460 0.8460 0.8460
3233.000000 0.8460 0.8460 0.8460 0.8460 0.8460
3228.000000 0.8460 0.8459 0.8458 0.8457 0.8457
3223.000000 0.8456 0.8455 0.8454 0.8453 0.8452
3218.000000 0.8452 0.8451 0.8450 0.8449 0.8448
3213.000000 0.8447 0.8447 0.8446 0.8445 0.8445
3208.000000 0.8445 0.8445 0.8445 0.8444 0.8444
3203.000000 0.8444 0.8444 0.8444 0.8444 0.8444
3198.000000 0.8445 0.8445 0.8445 0.8445 0.8446
3193.000000 0.8446 0.8447 0.8447 0.8447 0.8444
3188.000000 0.8442 0.8437 0.8433 0.8428 0.8423
3183.000000 0.8418 0.8414 0.8411 0.8410 0.8409
3178.000000 0.8411 0.8412 0.8414 0.8416 0.8418
3173.000000 0.8418 0.8421 0.8421 0.8424 0.8425
3168.000000 0.8428 0.8428 0.8431 0.8433 0.8435
3163.000000 0.8437 0.8439 0.8441 0.8443 0.8445
3158.000000 0.8447 0.8448 0.8450 0.8451 0.8453
3153.000000 0.8455 0.8457 0.8458 0.8460 0.8460
3148.000000 0.8461 0.8460 0.8458 0.8453 0.8449
3143.000000 0.8445 0.8441 0.8438 0.8436 0.8434
3138.000000 0.8433 0.8431 0.8428 0.8428 0.8428
3133.000000 0.8431 0.8435 0.8438 0.8442 0.8446
3128.000000 0.8451 0.8456 0.8462 0.8461 0.8460
3123.000000 0.8458 0.8452 0.8453 0.8453 0.8450
3118.000000 0.8447 0.8444 0.8441 0.8438 0.8435
3113.000000 0.8432 0.8428 0.8427 0.8425 0.8424
3108.000000 0.8423 0.8410 0.8397 0.8381 0.8366
3103.000000 0.8351 0.8337 0.8334 0.8332 0.8332
3098.000000 0.8333 0.8334 0.8335 0.8335 0.8336
3093.000000 0.8336 0.8336 0.8336 0.8336 0.8335
3088.000000 0.8334 0.8332 0.8330 0.8324 0.8318
3083.000000 0.8302 0.8287 0.8245 0.8204 0.8115
3078.000000 0.8028 0.7818 0.7608 0.7578 0.7549
3073.000000 0.7510 0.7471 0.7439 0.7364 0.7397
3068.000000 0.7387 0.7382 0.7376 0.7374 0.7374
3063.000000 0.7372 0.7375 0.7398 0.7421 0.7541
3058.000000 0.7661 0.7775 0.7890 0.7988 0.8087
3053.000000 0.8136 0.8186 0.8211 0.8237 0.8253
3048.000000 0.8268 0.8275 0.8284 0.8286 0.8289
3043.000000 0.8291 0.8293 0.8295 0.8298 0.8300
3038.000000 0.8302 0.8302 0.8303 0.8303 0.8304
3033.000000 0.8304 0.8305 0.8305 0.8306 0.8307
3028.000000 0.8308 0.8308 0.8309 0.8309 0.8310
3023.000000 0.8311 0.8312 0.8312 0.8313 0.8313
3018.000000 0.8314 0.8315 0.8316 0.8316 0.8317
3013.000000 0.8317 0.8318 0.8318 0.8318 0.8320
3008.000000 0.8321 0.8321 0.8321 0.8321 0.8323
3003.000000 0.8324 0.8325 0.8325 0.8325 0.8325
2998.000000 0.8325 0.8325 0.8325 0.8325 0.8325
2993.000000 0.8325 0.8325 0.8325 0.8325 0.8324
2988.000000 0.8323 0.8321 0.8318 0.8317 0.8315
2983.000000 0.8312 0.8310 0.8306 0.8303 0.8299
2978.000000 0.8296 0.8292 0.8289 0.8285 0.8282
2973.000000 0.8278 0.8277 0.8275 0.8275 0.8275
2968.000000 0.8274 0.8273 0.8273 0.8271 0.8271
2963.000000 0.8271 0.8270 0.8268 0.8268 0.8267
2958.000000 0.8265 0.8263 0.8262 0.8260 0.8259
2953.000000 0.8257 0.8256 0.8253 0.8251 0.8248
2948.000000 0.8246 0.8243 0.8241 0.8237 0.8234
2943.000000 0.8227 0.8221 0.8214 0.8208 0.8201
2938.000000 0.8195 0.8189 0.8184 0.8178 0.8174
2933.000000 0.8168 0.8164 0.8158 0.8153 0.8153
2928.000000 0.8154 0.8155 0.8156 0.8157 0.8158
2923.000000 0.8172 0.8188 0.8203 0.8218 0.8224
2918.000000 0.8231 0.8238 0.8245 0.8252 0.8259
2913.000000 0.8265 0.8271 0.8271 0.8271 0.8273
2908.000000 0.8274 0.8274 0.8275 0.8275 0.8275
2903.000000 0.8275 0.8277 0.8277 0.8278 0.8278
2898.000000 0.8278 0.8278 0.8278 0.8278 0.8278
2893.000000 0.8278 0.8278 0.8278 0.8280 0.8280
2888.000000 0.8280 0.8280 0.8280 0.8280 0.8280
2883.000000 0.8280 0.8280 0.8278 0.8278 0.8277
2878.000000 0.8275 0.8275 0.8275 0.8274 0.8273
2873.000000 0.8271 0.8271 0.8271 0.8270 0.8268
2868.000000 0.8268 0.8267 0.8267 0.8266 0.8265
2863.000000 0.8262 0.8259 0.8259 0.8259 0.8260
2858.000000 0.8261 0.8262 0.8263 0.8264 0.8266
2853.000000 0.8268 0.8271 0.8274 0.8277 0.8280
2848.000000 0.8283 0.8285 0.8288 0.8291 0.8294
2843.000000 0.8296 0.8299 0.8302 0.8305 0.8308
2838.000000 0.8311 0.8313 0.8316 0.8318 0.8321
2833.000000 0.8324 0.8327 0.8330 0.8333 0.8335
2828.000000 0.8338 0.8340 0.8343 0.8346 0.8349
2823.000000 0.8351 0.8354 0.8356 0.8359 0.8360
2818.000000 0.8361 0.8362 0.8364 0.8365 0.8367
2813.000000 0.8368 0.8368 0.8370 0.8371 0.8373
2808.000000 0.8374 0.8375 0.8377 0.8378 0.8380
2803.000000 0.8382 0.8384 0.8386 0.8389 0.8391
2798.000000 0.8393 0.8395 0.8398 0.8399 0.8399
2793.000000 0.8399 0.8399 0.8398 0.8397 0.8389
2788.000000 0.8382 0.8378 0.8377 0.8374 0.8371
2783.000000 0.8368 0.8367 0.8364 0.8362 0.8359
2778.000000 0.8357 0.8354 0.8352 0.8349 0.8347
2773.000000 0.8344 0.8342 0.8339 0.8337 0.8337
2768.000000 0.8337 0.8337 0.8337 0.8336 0.8336
2763.000000 0.8335 0.8335 0.8334 0.8334 0.8333
2758.000000 0.8333 0.8332 0.8332 0.8331 0.8331
2753.000000 0.8330 0.8330 0.8328 0.8328 0.8327
2748.000000 0.8327 0.8325 0.8325 0.8325 0.8325
2743.000000 0.8325 0.8325 0.8325 0.8325 0.8325
2738.000000 0.8325 0.8325 0.8325 0.8325 0.8325
2733.000000 0.8325 0.8325 0.8325 0.8325 0.8325
2728.000000 0.8325 0.8325 0.8325 0.8324 0.8324
2723.000000 0.8324 0.8324 0.8324 0.8324 0.8324
2718.000000 0.8324 0.8324 0.8324 0.8324 0.8324
2713.000000 0.8324 0.8324 0.8323 0.8323 0.8321
2708.000000 0.8321 0.8321 0.8321 0.8321 0.8321
2703.000000 0.8320 0.8320 0.8320 0.8320 0.8318
2698.000000 0.8318 0.8318 0.8318 0.8317 0.8317
2693.000000 0.8317 0.8317 0.8316 0.8316 0.8316
2688.000000 0.8316 0.8316 0.8317 0.8317 0.8318
2683.000000 0.8318 0.8318 0.8318 0.8320 0.8320
2678.000000 0.8321 0.8321 0.8321 0.8321 0.8323
2673.000000 0.8323 0.8324 0.8324 0.8325 0.8325
2668.000000 0.8325 0.8325 0.8327 0.8327 0.8328
2663.000000 0.8328 0.8328 0.8328 0.8328 0.8328
2658.000000 0.8328 0.8328 0.8328 0.8327 0.8327
2653.000000 0.8327 0.8327 0.8325 0.8325 0.8325
2648.000000 0.8325 0.8325 0.8325 0.8325 0.8325
2643.000000 0.8325 0.8325 0.8324 0.8324 0.8324
2638.000000 0.8324 0.8323 0.8323 0.8321 0.8321
2633.000000 0.8321 0.8321 0.8321 0.8321 0.8320
2628.000000 0.8320 0.8318 0.8318 0.8318 0.8318
2623.000000 0.8317 0.8316 0.8315 0.8315 0.8314
2618.000000 0.8314 0.8313 0.8312 0.8311 0.8311
2613.000000 0.8310 0.8309 0.8308 0.8308 0.8307
2608.000000 0.8306 0.8305 0.8304 0.8303 0.8302
2603.000000 0.8301 0.8300 0.8299 0.8298 0.8297
2598.000000 0.8296 0.8295 0.8294 0.8293 0.8293
2593.000000 0.8292 0.8292 0.8291 0.8291 0.8291
2588.000000 0.8291 0.8290 0.8290 0.8289 0.8289
2583.000000 0.8288 0.8288 0.8286 0.8285 0.8283
2578.000000 0.8282 0.8278 0.8277 0.8274 0.8271
2573.000000 0.8267 0.8264 0.8258 0.8253 0.8242
2568.000000 0.8232 0.8221 0.8210 0.8197 0.8184
2563.000000 0.8176 0.8171 0.8175 0.8180 0.8192
2558.000000 0.8205 0.8220 0.8235 0.8239 0.8244
2553.000000 0.8247 0.8251 0.8252 0.8253 0.8253
2548.000000 0.8253 0.8252 0.8252 0.8251 0.8251
2543.000000 0.8249 0.8247 0.8244 0.8241 0.8238
2538.000000 0.8235 0.8232 0.8230 0.8227 0.8224
2533.000000 0.8221 0.8218 0.8215 0.8212 0.8209
2528.000000 0.8206 0.8204 0.8202 0.8200 0.8198
2523.000000 0.8196 0.8194 0.8191 0.8189 0.8187
2518.000000 0.8185 0.8183 0.8181 0.8178 0.8176
2513.000000 0.8175 0.8172 0.8171 0.8171 0.8169
2508.000000 0.8168 0.8168 0.8167 0.8165 0.8165
2503.000000 0.8168 0.8169 0.8171 0.8172 0.8175
2498.000000 0.8176 0.8178 0.8180 0.8181 0.8183
2493.000000 0.8183 0.8184 0.8184 0.8184 0.8184
2488.000000 0.8184 0.8184 0.8185 0.8185 0.8185
2483.000000 0.8185 0.8185 0.8184 0.8183 0.8181
2478.000000 0.8178 0.8176 0.8175 0.8172 0.8171
2473.000000 0.8168 0.8165 0.8161 0.8157 0.8151
2468.000000 0.8148 0.8144 0.8140 0.8135 0.8131
2463.000000 0.8128 0.8126 0.8124 0.8121 0.8119
2458.000000 0.8118 0.8115 0.8112 0.8110 0.8108
2453.000000 0.8106 0.8104 0.8101 0.8099 0.8096
2448.000000 0.8094 0.8091 0.8089 0.8086 0.8083
2443.000000 0.8080 0.8076 0.8074 0.8071 0.8068
2438.000000 0.8067 0.8065 0.8065 0.8064 0.8062
2433.000000 0.8061 0.8061 0.8058 0.8058 0.8057
2428.000000 0.8056 0.8054 0.8053 0.8051 0.8050
2423.000000 0.8048 0.8046 0.8044 0.8043 0.8041
2418.000000 0.8039 0.8037 0.8036 0.8035 0.8035
2413.000000 0.8037 0.8039 0.8041 0.8043 0.8045
2408.000000 0.8047 0.8049 0.8051 0.8053 0.8055
2403.000000 0.8058 0.8062 0.8065 0.8069 0.8074
2398.000000 0.8078 0.8081 0.8085 0.8088 0.8092
2393.000000 0.8096 0.8100 0.8103 0.8106 0.8107
2388.000000 0.8108 0.8111 0.8112 0.8114 0.8115
2383.000000 0.8118 0.8119 0.8121 0.8122 0.8122
2378.000000 0.8122 0.8122 0.8122 0.8122 0.8122
2373.000000 0.8122 0.8122 0.8118 0.8115 0.8112
2368.000000 0.8110 0.8107 0.8104 0.8100 0.8097
2363.000000 0.8094 0.8091 0.8087 0.8084 0.8081
2358.000000 0.8078 0.8075 0.8071 0.8068 0.8065
2353.000000 0.8060 0.8056 0.8051 0.8048 0.8044
2348.000000 0.8040 0.8036 0.8032 0.8028 0.8024
2343.000000 0.8019 0.8015 0.8011 0.8008 0.8004
2338.000000 0.8000 0.7996 0.7993 0.7990 0.7987
2333.000000 0.7984 0.7981 0.7978 0.7975 0.7971
2328.000000 0.7968 0.7965 0.7962 0.7960 0.7957
2323.000000 0.7954 0.7951 0.7948 0.7945 0.7943
2318.000000 0.7942 0.7940 0.7939 0.7937 0.7936
2313.000000 0.7934 0.7933 0.7931 0.7930 0.7928
2308.000000 0.7926 0.7925 0.7924 0.7921 0.7921
2303.000000 0.7918 0.7918 0.7917 0.7915 0.7915
2298.000000 0.7915 0.7915 0.7915 0.7914 0.7914
2293.000000 0.7914 0.7914 0.7912 0.7912 0.7912
2288.000000 0.7912 0.7911 0.7911 0.7911 0.7911
2283.000000 0.7911 0.7911 0.7911 0.7912 0.7914
2278.000000 0.7915 0.7915 0.7917 0.7918 0.7918
2273.000000 0.7919 0.7921 0.7921 0.7922 0.7924
2268.000000 0.7925 0.7925 0.7926 0.7928 0.7928
2263.000000 0.7928 0.7930 0.7930 0.7931 0.7931
2258.000000 0.7932 0.7932 0.7933 0.7933 0.7934
2253.000000 0.7935 0.7936 0.7936 0.7937 0.7937
2248.000000 0.7938 0.7938 0.7939 0.7939 0.7940
2243.000000 0.7940 0.7941 0.7942 0.7943 0.7943
2238.000000 0.7944 0.7944 0.7945 0.7946 0.7947
2233.000000 0.7947 0.7948 0.7948 0.7949 0.7951
2228.000000 0.7953 0.7955 0.7957 0.7958 0.7961
2223.000000 0.7962 0.7965 0.7969 0.7974 0.7978
2218.000000 0.7982 0.7986 0.7990 0.7991 0.7993
2213.000000 0.7993 0.7994 0.7994 0.7995 0.7995
2208.000000 0.7996 0.7996 0.7997 0.7997 0.7998
2203.000000 0.7998 0.7999 0.8000 0.8001 0.8001
2198.000000 0.8003 0.8004 0.8005 0.8006 0.8007
2193.000000 0.8008 0.8008 0.8010 0.8011 0.8011
2188.000000 0.8012 0.8014 0.8015 0.8015 0.8017
2183.000000 0.8018 0.8018 0.8019 0.8021 0.8022
2178.000000 0.8024 0.8025 0.8026 0.8028 0.8028
2173.000000 0.8030 0.8032 0.8033 0.8034 0.8035
2168.000000 0.8037 0.8038 0.8039 0.8040 0.8042
2163.000000 0.8043 0.8044 0.8045 0.8047 0.8048
2158.000000 0.8049 0.8050 0.8051 0.8053 0.8054
2153.000000 0.8055 0.8057 0.8058 0.8058 0.8060
2148.000000 0.8061 0.8062 0.8064 0.8065 0.8067
2143.000000 0.8068 0.8069 0.8074 0.8078 0.8083
2138.000000 0.8087 0.8091 0.8096 0.8100 0.8104
2133.000000 0.8108 0.8112 0.8117 0.8121 0.8122
2128.000000 0.8125 0.8128 0.8130 0.8131 0.8133
2123.000000 0.8135 0.8137 0.8139 0.8141 0.8141
2118.000000 0.8141 0.8140 0.8140 0.8140 0.8140
2113.000000 0.8140 0.8140 0.8140 0.8140 0.8140
2108.000000 0.8140 0.8140 0.8140 0.8140 0.8140
2103.000000 0.8141 0.8142 0.8143 0.8144 0.8145
2098.000000 0.8146 0.8147 0.8148 0.8149 0.8150
2093.000000 0.8151 0.8151 0.8153 0.8154 0.8155
2088.000000 0.8156 0.8157 0.8158 0.8161 0.8162
2083.000000 0.8165 0.8167 0.8168 0.8169 0.8171
2078.000000 0.8174 0.8175 0.8176 0.8178 0.8181
2073.000000 0.8183 0.8185 0.8187 0.8189 0.8192
2068.000000 0.8195 0.8198 0.8201 0.8203 0.8206
2063.000000 0.8208 0.8211 0.8212 0.8213 0.8213
2058.000000 0.8214 0.8215 0.8216 0.8217 0.8218
2053.000000 0.8218 0.8218 0.8218 0.8218 0.8218
2048.000000 0.8218 0.8218 0.8220 0.8220 0.8220
2043.000000 0.8220 0.8221 0.8221 0.8221 0.8223
2038.000000 0.8225 0.8225 0.8228 0.8228 0.8230
2033.000000 0.8231 0.8233 0.8234 0.8236 0.8237
2028.000000 0.8239 0.8241 0.8243 0.8244 0.8246
2023.000000 0.8247 0.8249 0.8250 0.8252 0.8257
2018.000000 0.8262 0.8267 0.8273 0.8280 0.8287
2013.000000 0.8301 0.8316 0.8330 0.8344 0.8358
2008.000000 0.8371 0.8395 0.8418 0.8445 0.8471
2003.000000 0.8485 0.8500 0.8507 0.8515 0.8521
1998.000000 0.8530 0.8537 0.8544 0.8550 0.8552
1993.000000 0.8554 0.8556 0.8557 0.8558 0.8559
1988.000000 0.8559 0.8560 0.8561 0.8561 0.8562
1983.000000 0.8563 0.8563 0.8562 0.8560 0.8558
1978.000000 0.8556 0.8554 0.8552 0.8550 0.8546
1973.000000 0.8536 0.8525 0.8520 0.8515 0.8509
1968.000000 0.8504 0.8498 0.8497 0.8496 0.8499
1963.000000 0.8501 0.8504 0.8507 0.8510 0.8512
1958.000000 0.8515 0.8518 0.8525 0.8532 0.8539
1953.000000 0.8546 0.8553 0.8560 0.8567 0.8574
1948.000000 0.8581 0.8586 0.8590 0.8594 0.8598
1943.000000 0.8601 0.8605 0.8609 0.8613 0.8617
1938.000000 0.8621 0.8625 0.8628 0.8633 0.8637
1933.000000 0.8639 0.8640 0.8640 0.8641 0.8641
1928.000000 0.8642 0.8642 0.8640 0.8638 0.8636
1923.000000 0.8634 0.8632 0.8631 0.8628 0.8625
1918.000000 0.8621 0.8618 0.8615 0.8611 0.8607
1913.000000 0.8603 0.8599 0.8595 0.8591 0.8587
1908.000000 0.8582 0.8578 0.8577 0.8584 0.8590
1903.000000 0.8597 0.8603 0.8610 0.8615 0.8618
1898.000000 0.8620 0.8623 0.8625 0.8628 0.8630
1893.000000 0.8633 0.8635 0.8638 0.8640 0.8642
1888.000000 0.8644 0.8646 0.8647 0.8649 0.8650
1883.000000 0.8652 0.8653 0.8655 0.8656 0.8658
1878.000000 0.8659 0.8661 0.8662 0.8664 0.8666
1873.000000 0.8667 0.8668 0.8670 0.8670 0.8671
1868.000000 0.8671 0.8671 0.8671 0.8671 0.8673
1863.000000 0.8673 0.8673 0.8674 0.8674 0.8675
1858.000000 0.8675 0.8675 0.8675 0.8675 0.8677
1853.000000 0.8677 0.8678 0.8678 0.8678 0.8680
1848.000000 0.8681 0.8682 0.8682 0.8683 0.8684
1843.000000 0.8684 0.8685 0.8686 0.8687 0.8688
1838.000000 0.8689 0.8689 0.8690 0.8691 0.8692
1833.000000 0.8693 0.8694 0.8695 0.8696 0.8697
1828.000000 0.8698 0.8699 0.8700 0.8700 0.8701
1823.000000 0.8702 0.8703 0.8703 0.8704 0.8705
1818.000000 0.8705 0.8706 0.8707 0.8708 0.8708
1813.000000 0.8709 0.8710 0.8711 0.8712 0.8713
1808.000000 0.8714 0.8715 0.8716 0.8717 0.8718
1803.000000 0.8718 0.8720 0.8721 0.8723 0.8725
1798.000000 0.8728 0.8731 0.8733 0.8733 0.8734
1793.000000 0.8734 0.8734 0.8735 0.8734 0.8730
1788.000000 0.8727 0.8724 0.8718 0.8712 0.8704
1783.000000 0.8696 0.8688 0.8682 0.8678 0.8675
1778.000000 0.8673 0.8673 0.8673 0.8678 0.8683
1773.000000 0.8688 0.8693 0.8700 0.8711 0.8721
1768.000000 0.8732 0.8743 0.8753 0.8759 0.8765
1763.000000 0.8771 0.8777 0.8781 0.8785 0.8790
1758.000000 0.8794 0.8798 0.8802 0.8804 0.8806
1753.000000 0.8808 0.8809 0.8811 0.8812 0.8813
1748.000000 0.8814 0.8815 0.8815 0.8815 0.8813
1743.000000 0.8810 0.8811 0.8816 0.8821 0.8825
1738.000000 0.8832 0.8839 0.8846 0.8851 0.8851
1733.000000 0.8842 0.8827 0.8812 0.8797 0.8789
1728.000000 0.8782 0.8775 0.8768 0.8761 0.8755
1723.000000 0.8750 0.8744 0.8744 0.8758 0.8771
1718.000000 0.8786 0.8803 0.8820 0.8818 0.8816
1713.000000 0.8814 0.8812 0.8812 0.8812 0.8812
1708.000000 0.8812 0.8816 0.8831 0.8845 0.8860
1703.000000 0.8874 0.8888 0.8901 0.8913 0.8923
1698.000000 0.8906 0.8890 0.8874 0.8854 0.8827
1693.000000 0.8803 0.8794 0.8786 0.8778 0.8770
1688.000000 0.8766 0.8789 0.8818 0.8820 0.8821
1683.000000 0.8804 0.8810 0.8817 0.8824 0.8831
1678.000000 0.8838 0.8846 0.8856 0.8867 0.8877
1673.000000 0.8888 0.8898 0.8904 0.8905 0.8906
1668.000000 0.8908 0.8909 0.8910 0.8916 0.8923
1663.000000 0.8930 0.8937 0.8955 0.8975 0.8997
1658.000000 0.9023 0.9059 0.9092 0.9111 0.9125
1653.000000 0.9134 0.9128 0.9121 0.9121 0.9124
1648.000000 0.9055 0.9118 0.9099 0.9080 0.9061
1643.000000 0.9051 0.9043 0.9034 0.9024 0.9013
1638.000000 0.9000 0.8975 0.8950 0.8925 0.8900
1633.000000 0.8873 0.8842 0.8811 0.8780 0.8749
1628.000000 0.8718 0.8687 0.8662 0.8639 0.8621
1623.000000 0.8623 0.8618 0.8633 0.8638 0.8644
1618.000000 0.8649 0.8657 0.8664 0.8671 0.8678
1613.000000 0.8685 0.8689 0.8693 0.8696 0.8700
1608.000000 0.8703 0.8706 0.8709 0.8710 0.8711
1603.000000 0.8712 0.8713 0.8715 0.8716 0.8717
1598.000000 0.8718 0.8718 0.8720 0.8721 0.8721
1593.000000 0.8723 0.8724 0.8725 0.8725 0.8725
1588.000000 0.8725 0.8727 0.8727 0.8728 0.8728
1583.000000 0.8733 0.8737 0.8741 0.8746 0.8751
1578.000000 0.8756 0.8762 0.8767 0.8768 0.8723
1573.000000 0.8773 0.8775 0.8777 0.8777 0.8775
1568.000000 0.8775 0.8775 0.8777 0.8796 0.8823
1563.000000 0.8850 0.8874 0.8894 0.8909 0.8878
1558.000000 0.8849 0.8818 0.8789 0.8763 0.8747
1553.000000 0.8746 0.8744 0.8744 0.8744 0.8745
1548.000000 0.8746 0.8746 0.8753 0.8762 0.8771
1543.000000 0.8780 0.8790 0.8787 0.8783 0.8773
1538.000000 0.8759 0.8745 0.8734 0.8728 0.8725
1533.000000 0.8720 0.8715 0.8711 0.8706 0.8708
1528.000000 0.8714 0.8718 0.8724 0.8728 0.8730
1523.000000 0.8733 0.8721 0.8708 0.8697 0.8690
1518.000000 0.8684 0.8677 0.8696 0.8668 0.8673
1513.000000 0.8675 0.8680 0.8688 0.8699 0.8710
1508.000000 0.8710 0.8704 0.8689 0.8671 0.8654
1503.000000 0.8641 0.8634 0.8627 0.8620 0.8612
1498.000000 0.8604 0.8597 0.8590 0.8581 0.8557
1493.000000 0.8494 0.8431 0.8367 0.8304 0.8220
1488.000000 0.8237 0.8239 0.8281 0.8352 0.8424
1483.000000 0.8495 0.8541 0.8558 0.8575 0.8593
1478.000000 0.8610 0.8624 0.8618 0.8604 0.8590
1473.000000 0.8566 0.8542 0.8518 0.8495 0.8480
1468.000000 0.8466 0.8459 0.8459 0.8459 0.8517
1463.000000 0.8470 0.8481 0.8496 0.8515 0.8538
1458.000000 0.8533 0.8497 0.8447 0.8389 0.7993
1453.000000 0.7236 0.6478 0.5721 0.4938 0.5062
1448.000000 0.5673 0.6282 0.6892 0.7501 0.7925
1443.000000 0.8064 0.8168 0.8254 0.8327 0.8362
1438.000000 0.8383 0.8404 0.8414 0.8421 0.8427
1433.000000 0.8434 0.8440 0.8447 0.8449 0.8450
1428.000000 0.8451 0.8452 0.8453 0.8454 0.8455
1423.000000 0.8457 0.8458 0.8460 0.8465 0.8470
1418.000000 0.8475 0.8480 0.8485 0.8490 0.8495
1413.000000 0.8500 0.8505 0.8509 0.8514 0.8518
1408.000000 0.8521 0.8527 0.8531 0.8532 0.8528
1403.000000 0.8525 0.8521 0.8518 0.8514 0.8510
1398.000000 0.8507 0.8503 0.8499 0.8494 0.8490
1393.000000 0.8485 0.8481 0.8475 0.8471 0.8467
1388.000000 0.8463 0.8460 0.8457 0.8454 0.8454
1383.000000 0.8454 0.8455 0.8458 0.8461 0.8463
1378.000000 0.8466 0.8468 0.8474 0.8478 0.8482
1373.000000 0.8486 0.8490 0.8495 0.8499 0.8505
1368.000000 0.8505 0.8508 0.8507 0.8507 0.8500
1363.000000 0.8494 0.8478 0.8461 0.8443 0.8425
1358.000000 0.8397 0.8366 0.8334 0.8297 0.8252
1353.000000 0.8206 0.8160 0.8118 0.8076 0.8035
1348.000000 0.7993 0.7956 0.7925 0.7896 0.7865
1343.000000 0.7839 0.7821 0.7803 0.7785 0.7767
1338.000000 0.7758 0.7757 0.7756 0.7756 0.7755
1333.000000 0.7760 0.7765 0.7768 0.7774 0.7778
1328.000000 0.7783 0.7782 0.7781 0.7780 0.7778
1323.000000 0.7769 0.7758 0.7748 0.7737 0.7725
1318.000000 0.7715 0.7701 0.7688 0.7674 0.7660
1313.000000 0.7653 0.7647 0.7641 0.7635 0.7628
1308.000000 0.7622 0.7617 0.7611 0.7606 0.7600
1303.000000 0.7595 0.7589 0.7583 0.7558 0.7533
1298.000000 0.7508 0.7488 0.7468 0.7450 0.7431
1293.000000 0.7430 0.7428 0.7430 0.7431 0.7432
1288.000000 0.7434 0.7424 0.7415 0.7378 0.7325
1283.000000 0.7268 0.7208 0.7065 0.6855 0.6521
1278.000000 0.6393 0.6267 0.6190 0.6150 0.6155
1273.000000 0.6157 0.6192 0.6259 0.6335 0.6411
1268.000000 0.6490 0.6564 0.6603 0.6655 0.6634
1263.000000 0.6633 0.6633 0.6586 0.6460 0.6286
1258.000000 0.6002 0.5644 0.5285 0.4370 0.4569
1253.000000 0.4359 0.4359 0.4365 0.4602 0.4840
1248.000000 0.4974 0.4976 0.4969 0.4657 0.4029
1243.000000 0.3400 0.2409 0.2418 0.2434 0.2581
1238.000000 0.2727 0.2873 0.3019 0.3165 0.3312
1233.000000 0.3458 0.3604 0.3745 0.3775 0.3532
1228.000000 0.3049 0.2734 0.2732 0.2732 0.2845
1223.000000 0.3087 0.3330 0.3573 0.3814 0.4058
1218.000000 0.4301 0.4323 0.4304 0.4262 0.3720
1213.000000 0.3178 0.2634 0.2093 0.1551 0.1095
1208.000000 0.0992 0.0901 0.0811 0.0693 0.0720
1203.000000 0.0706 0.0703 0.0743 0.0946 0.1151
1198.000000 0.1753 0.1559 0.1760 0.1731 0.1606
1193.000000 0.1482 0.1388 0.1382 0.1596 0.1915
1188.000000 0.2234 0.2552 0.2871 0.3190 0.3509
1183.000000 0.3828 0.4147 0.4449 0.4823 0.4983
1178.000000 0.5142 0.5301 0.5460 0.5619 0.5778
1173.000000 0.5937 0.6097 0.6256 0.6415 0.6574
1168.000000 0.6700 0.6811 0.6890 0.6968 0.7019
1163.000000 0.7068 0.7097 0.7118 0.7136 0.7150
1158.000000 0.7162 0.7165 0.7167 0.7167 0.7160
1153.000000 0.7151 0.7115 0.7078 0.7024 0.6961
1148.000000 0.6898 0.6615 0.6315 0.5706 0.4718
1143.000000 0.3730 0.2520 0.2521 0.2613 0.3064
1138.000000 0.3514 0.3964 0.4416 0.4866 0.5317
1133.000000 0.5768 0.6218 0.6668 0.7055 0.7197
1128.000000 0.7326 0.7422 0.7504 0.7574 0.7641
1123.000000 0.7691 0.7725 0.7738 0.7750 0.7747
1118.000000 0.7745 0.7742 0.7756 0.7778 0.7800
1113.000000 0.7818 0.7837 0.7851 0.7853 0.7854
1108.000000 0.7850 0.7847 0.7835 0.7821 0.7808
1103.000000 0.7797 0.7785 0.7756 0.7757 0.7767
1098.000000 0.7791 0.7812 0.7833 0.7853 0.7872
1093.000000 0.7887 0.7901 0.7917 0.7925 0.7932
1088.000000 0.7938 0.7961 0.7950 0.7947 0.7942
1083.000000 0.7930 0.7912 0.7889 0.7857 0.7811
1078.000000 0.7741 0.7665 0.7590 0.7496 0.7365
1073.000000 0.7228 0.7108 0.7101 0.7167 0.7251
1068.000000 0.7336 0.7419 0.7432 0.7428 0.7418
1063.000000 0.7382 0.7326 0.7215 0.7085 0.6962
1058.000000 0.6864 0.6742 0.6188 0.5256 0.4324
1053.000000 0.3610 0.3634 0.3671 0.4226 0.4782
1048.000000 0.5338 0.5414 0.5432 0.5570 0.6008
1043.000000 0.6445 0.6883 0.7321 0.7556 0.7650
1038.000000 0.7732 0.7785 0.7805 0.7824 0.7844
1033.000000 0.7854 0.7881 0.7857 0.7840 0.7801
1028.000000 0.7730 0.7521 0.7018 0.6515 0.6012
1023.000000 0.5798 0.5788 0.5807 0.6157 0.6685
1018.000000 0.7212 0.7500 0.7568 0.7638 0.7712
1013.000000 0.7760 0.7796 0.7833 0.7858 0.7884
1008.000000 0.7907 0.7925 0.7938 0.7948 0.7944
1003.000000 0.7958 0.7961 0.7550 0.7028 0.6617
998.000000 0.6642 0.6794 0.7164 0.7534 0.7905
993.000000 0.7991 0.8004 0.8007 0.8001 0.7995
988.000000 0.7997 0.8004 0.8025 0.8042 0.8055
983.000000 0.8067 0.8068 0.8068 0.8065 0.8045
978.000000 0.8024 0.8011 0.8014 0.8017 0.8019
973.000000 0.8021 0.8025 0.8028 0.8031 0.8034
968.000000 0.8038 0.8042 0.8046 0.8050 0.8054
963.000000 0.8058 0.8061 0.8065 0.8068 0.8071
958.000000 0.8075 0.8078 0.8081 0.8084 0.8088
953.000000 0.8091 0.8093 0.8095 0.8097 0.8099
948.000000 0.8101 0.8103 0.8117 0.8107 0.8108
943.000000 0.8108 0.8106 0.8104 0.8101 0.8095
938.000000 0.8088 0.8081 0.8067 0.8051 0.8037
933.000000 0.8015 0.7996 0.7965 0.7930 0.7894
928.000000 0.7857 0.7826 0.7867 0.7821 0.7818
923.000000 0.7840 0.7890 0.7926 0.7964 0.8001
918.000000 0.8018 0.8034 0.8051 0.8065 0.8074
913.000000 0.8082 0.8091 0.8094 0.8114 0.8100
908.000000 0.8100 0.8100 0.8097 0.8094 0.8092
903.000000 0.8089 0.8086 0.8083 0.8078 0.8075
898.000000 0.8071 0.8068 0.8065 0.8061 0.8062
893.000000 0.8064 0.8065 0.8067 0.8068 0.8068
888.000000 0.8069 0.8072 0.8080 0.8087 0.8094
883.000000 0.8101 0.8108 0.8115 0.8121 0.8126
878.000000 0.8131 0.8135 0.8139 0.8142 0.8146
873.000000 0.8150 0.8154 0.8153 0.8151 0.8149
868.000000 0.8148 0.8146 0.8145 0.8143 0.8141
863.000000 0.8140 0.8138 0.8134 0.8128 0.8125
858.000000 0.8121 0.8117 0.8110 0.8103 0.8096
853.000000 0.8089 0.8082 0.8075 0.8061 0.8047
848.000000 0.8032 0.8025 0.8018 0.8011 0.8005
843.000000 0.7998 0.8001 0.8012 0.8025 0.8032
838.000000 0.8038 0.8044 0.8050 0.8056 0.8061
833.000000 0.8065 0.8067 0.8068 0.8071 0.8074
828.000000 0.8075 0.8078 0.8080 0.8083 0.8082
823.000000 0.8082 0.8081 0.8078 0.8078 0.8075
818.000000 0.8075 0.8074 0.8071 0.8071 0.8068
813.000000 0.8067 0.8064 0.8061 0.8058 0.8056
808.000000 0.8054 0.8051 0.8048 0.8045 0.8043
803.000000 0.8040 0.8037 0.8035 0.8032 0.8030
798.000000 0.8028 0.8026 0.8025 0.8024 0.8022
793.000000 0.8021 0.8019 0.8018 0.8017 0.8015
788.000000 0.8014 0.8011 0.8008 0.8001 0.7994
783.000000 0.7987 0.7980 0.7972 0.7964 0.7951
778.000000 0.7937 0.7924 0.7911 0.7897 0.7878
773.000000 0.7861 0.7842 0.7815 0.7783 0.7707
768.000000 0.7471 0.7455 0.7438 0.7425 0.7412
763.000000 0.7401 0.7368 0.7148 0.6507 0.5867
758.000000 0.5226 0.4118 0.4121 0.4124 0.4441
753.000000 0.4891 0.5340 0.5790 0.6239 0.6689
748.000000 0.7138 0.7403 0.7403 0.7403 0.6921
743.000000 0.5953 0.4985 0.4016 0.3380 0.3370
738.000000 0.3506 0.4090 0.4674 0.5258 0.5842
733.000000 0.6354 0.6526 0.6684 0.6837 0.7025
728.000000 0.7124 0.7175 0.7204 0.7222 0.7243
723.000000 0.7264 0.7288 0.7311 0.7343 0.7380
718.000000 0.7415 0.7451 0.7476 0.7503 0.7532
713.000000 0.7564 0.7590 0.7611 0.7625 0.7655
708.000000 0.7633 0.7621 0.7601 0.7550 0.7484
703.000000 0.7394 0.7294 0.7161 0.7098 0.6949
698.000000 0.6487 0.6026 0.5564 0.5103 0.4641
693.000000 0.4180 0.3529 0.3547 0.3832 0.4741
688.000000 0.5651 0.6560 0.6926 0.7008 0.7099
683.000000 0.7201 0.7289 0.7383 0.7440 0.7488
678.000000 0.7537 0.7586 0.7657 0.7734 0.7824
673.000000 0.7978 0.8038 0.8095 0.8148 0.8187
668.000000 0.8217 0.8225 0.8232 0.8240 0.8247
663.000000 0.8253 0.8254 0.8256 0.8258 0.8260
658.000000 0.8262 0.8263 0.8264 0.8265 0.8266
653.000000 0.8267 0.8268 0.8268 0.8266 0.8259
648.000000 0.8253 0.8246 0.8240 0.8233 0.8216
643.000000 0.8195 0.8174 0.8153 0.8111 0.8058
638.000000 0.8006 0.7919 0.7805 0.7685 0.7560
633.000000 0.6949 0.5689 0.4428 0.3407 0.3407
628.000000 0.3548 0.3916 0.4286 0.4655 0.5024
623.000000 0.5393 0.5762 0.6132 0.6501 0.6838
618.000000 0.7365 0.7181 0.7332 0.7350 0.7217
613.000000 0.7085 0.6951 0.6888 0.6896 0.7188
608.000000 0.7510 0.7833 0.8012 0.8056 0.8078
603.000000 0.8090 0.8101 0.8101 0.8101 0.8101
598.000000 0.8100 0.8091 0.8078 0.8065 0.8054
593.000000 0.8017 0.7975 0.7934 0.7892 0.7824
588.000000 0.7756 0.7688 0.7621 0.7354 0.7141
583.000000 0.6995 0.6884 0.6519 0.5865 0.5210
578.000000 0.4556 0.4488 0.4526 0.4845 0.5165
573.000000 0.5484 0.5804 0.5985 0.5988 0.5864
568.000000 0.5729 0.5594 0.5459 0.5427 0.5419
563.000000 0.5737 0.6123 0.6508 0.6896 0.7282
558.000000 0.7461 0.7542 0.7612 0.7650 0.7687
553.000000 0.7724 0.7755 0.7781 0.7806 0.7832
548.000000 0.7858 0.7864 0.7868 0.7872 0.7878
543.000000 0.7883 0.7888 0.7893 0.7898 0.7903
538.000000 0.7904 0.7905 0.7905 0.7904 0.7904
533.000000 0.7904 0.7903 0.7903 0.7903 0.7901
528.000000 0.7901 0.7901 0.7901 0.7901 0.7901
523.000000 0.7901 0.7901 0.7904 0.7905 0.7907
518.000000 0.7908 0.7910 0.7911 0.7912 0.7914
513.000000 0.7915 0.7918 0.7918 0.7918 0.7919
508.000000 0.7918 0.7918 0.7917 0.7915 0.7915
503.000000 0.7914 0.7911 0.7911 0.7910 0.7908
498.000000 0.7907 0.7905 0.7903 0.7901 0.7898
493.000000 0.7896 0.7894 0.7893 0.7893 0.7894
488.000000 0.7897 0.7900 0.7903 0.7906 0.7908
483.000000 0.7911 0.7915 0.7918 0.7921 0.7924
478.000000 0.7928 0.7931 0.7934 0.7937 0.7940
473.000000 0.7943 0.7946 0.7949 0.7953 0.7953
468.000000 0.7951 0.7951 0.7950 0.7948 0.7947
463.000000 0.7946 0.7945 0.7944 0.7942 0.7941
458.000000 0.7940 0.7939 0.7938 0.7937 0.7935
453.000000 0.7934 0.7930 0.7925 0.7921 0.7918
448.000000 0.7914 0.7908 0.7905 0.7901 0.7897
443.000000 0.7893 0.7889 0.7885 0.7881 0.7876
438.000000 0.7872 0.7868 0.7862 0.7858 0.7853
433.000000 0.7847 0.7842 0.7837 0.7832 0.7826
428.000000 0.7821 0.7817 0.7811 0.7806 0.7801
423.000000 0.7796 0.7790 0.7785 0.7780 0.7774
418.000000 0.7768 0.7764 0.7758 0.7754 0.7751
413.000000 0.7749 0.7747 0.7744 0.7742 0.7739
408.000000 0.7737 0.7734 0.7732 0.7730 0.7728
403.000000 0.7726 0.7726 0.7726 0.7728 0.7731
398.000000 0.7732 0.7734 0.7736 0.7737 0.7739
393.000000 0.7742 0.7746 0.7749 0.7753
##END=
