##TITLE=BARIUM SULFATE (BARYTES, MINERAL)
##JCAMP-DX=4.24
##DATA TYPE=INFRARED SPECTRUM
##CLASS=COBLENTZ III
##ORIGIN=DESOTO CHEMICAL COATINGS, INC.
##OWNER=COBLENTZ SOCIETY
Collection (C) 2018 copyright by the U.S. Secretary of Commerce
on behalf of the United States of America. All rights reserved.
##DATE=Not specified, most likely prior to 1970
##MOLFORM=O4 S Ba
##SOURCE REFERENCE=COBLENTZ NO. 4657
##$NIST ID=B6004657
##$NIST SOURCE=COBLENTZ
##$NIST IMAGE=cob4657
##SPECTROMETER/DATA SYSTEM=BECKMAN IR-12 (GRATING)
##INSTRUMENT PARAMETERS=GRATING BLAZED AT 3330, 1330, 445, 220 CM^-^1
##STATE=SOLID (0.5 mg / 300 mg CsI DISC)
##SAMPLING PROCEDURE=TRANSMISSION
##RESOLUTION=4
##DATA PROCESSING=DIGITIZED BY NIST FROM HARD COPY (FROM TWO SEGMENTS)
##XUNITS=1/CM
##YUNITS=TRANSMITTANCE
##XFACTOR=1.000000
##YFACTOR=1
##DELTAX=1.329396
##FIRSTX=203.988
##LASTX=3983.46
##FIRSTY=0.59
##MAXX=3983.46
##MINX=203.988
##MAXY=0.969
##MINY=0.132001
##NPOINTS=2844
##XYDATA=(X++(Y..Y))
203.988000 0.5900 0.5920 0.5900 0.5920 0.5960
210.634978 0.5980 0.6010 0.6020 0.6100 0.6120
217.281955 0.6210 0.6250 0.6280 0.6360 0.6480
223.928933 0.6619 0.6809 0.6969 0.7089 0.7289
230.575911 0.7400 0.7450 0.7720 0.7940 0.7970
237.222889 0.8000 0.8100 0.8209 0.8280 0.8300
243.869866 0.8370 0.8380 0.8400 0.8420 0.8480
250.516844 0.8490 0.8490 0.8530 0.8570 0.8600
257.163822 0.8610 0.8640 0.8650 0.8660 0.8700
263.810799 0.8730 0.8740 0.8770 0.8780 0.8780
270.457777 0.8800 0.8810 0.8820 0.8840 0.8840
277.104755 0.8850 0.8860 0.8860 0.8880 0.8880
283.751733 0.8890 0.8890 0.8900 0.8920 0.8920
290.398710 0.8930 0.8940 0.8960 0.8970 0.8980
297.045688 0.9000 0.9020 0.9040 0.9050 0.9100
303.692666 0.9130 0.9140 0.9140 0.9130 0.9130
310.339643 0.9120 0.9090 0.9090 0.9080 0.9080
316.986621 0.9060 0.9060 0.9050 0.9040 0.9040
323.633599 0.9020 0.9020 0.9010 0.9010 0.9000
330.280577 0.8980 0.8980 0.9000 0.9000 0.9000
336.927554 0.9000 0.8980 0.8980 0.8980 0.8970
343.574532 0.8970 0.8970 0.8960 0.8960 0.8940
350.221510 0.8940 0.8940 0.8930 0.8930 0.8920
356.868487 0.8920 0.8900 0.8900 0.8890 0.8890
363.515465 0.8880 0.8880 0.8880 0.8880 0.8860
370.162443 0.8860 0.8860 0.8860 0.8860 0.8860
376.809421 0.8860 0.8860 0.8860 0.8880 0.8880
383.456398 0.8880 0.8890 0.8890 0.8890 0.8900
390.103376 0.8900 0.8900 0.8900 0.8900 0.8900
396.750354 0.8900 0.8920 0.8930 0.8940 0.8940
403.397332 0.8970 0.8980 0.8980 0.8980 0.8980
410.044309 0.8980 0.8980 0.9000 0.9010 0.9040
416.691287 0.9050 0.9060 0.9080 0.9100 0.9120
423.338265 0.9130 0.9130 0.9130 0.9140 0.9160
429.985242 0.9170 0.9170 0.9170 0.9170 0.9170
436.632220 0.9180 0.9200 0.9200 0.9200 0.9200
443.279198 0.9220 0.9240 0.9250 0.9260 0.9260
449.926176 0.9260 0.9260 0.9260 0.9260 0.9260
456.573153 0.9280 0.9280 0.9280 0.9280 0.9290
463.220131 0.9290 0.9290 0.9290 0.9290 0.9300
469.867109 0.9300 0.9300 0.9300 0.9290 0.9290
476.514086 0.9300 0.9320 0.9320 0.9330 0.9340
483.161064 0.9370 0.9370 0.9370 0.9380 0.9380
489.808042 0.9380 0.9380 0.9380 0.9400 0.9400
496.455020 0.9400 0.9400 0.9400 0.9410 0.9410
503.101997 0.9410 0.9410 0.9420 0.9420 0.9420
509.748975 0.9420 0.9420 0.9420 0.9440 0.9440
516.395953 0.9440 0.9450 0.9450 0.9450 0.9460
523.042930 0.9460 0.9460 0.9480 0.9480 0.9480
529.689908 0.9480 0.9480 0.9480 0.9480 0.9480
536.336886 0.9480 0.9460 0.9460 0.9460 0.9460
542.983864 0.9460 0.9460 0.9460 0.9480 0.9480
549.630841 0.9480 0.9480 0.9480 0.9480 0.9460
556.277819 0.9460 0.9440 0.9420 0.9410 0.9410
562.924797 0.9400 0.9400 0.9400 0.9400 0.9400
569.571774 0.9400 0.9380 0.9370 0.9370 0.9370
576.218752 0.9360 0.9360 0.9330 0.9320 0.9300
582.865730 0.9280 0.9240 0.9200 0.9170 0.9140
589.512708 0.9090 0.9080 0.8980 0.8890 0.8780
596.159685 0.8700 0.8581 0.7973 0.7324 0.6883
602.806663 0.6619 0.5490 0.4761 0.4451 0.3782
609.453641 0.3451 0.3450 0.3729 0.3969 0.4099
616.100618 0.4240 0.4770 0.5599 0.5690 0.6049
622.747596 0.6399 0.6679 0.6700 0.6700 0.6680
629.394574 0.6500 0.5610 0.5450 0.5290 0.5130
636.041552 0.4971 0.4970 0.5060 0.5159 0.5577
642.688529 0.6000 0.6290 0.6610 0.6919 0.7289
649.335507 0.7360 0.7798 0.7900 0.7999 0.8099
655.982485 0.8200 0.8300 0.8440 0.8610 0.8770
662.629462 0.8880 0.8930 0.8980 0.9010 0.9050
669.276440 0.9060 0.9080 0.9140 0.9200 0.9210
675.923418 0.9280 0.9290 0.9300 0.9320 0.9360
682.570396 0.9370 0.9380 0.9400 0.9410 0.9420
689.217373 0.9440 0.9440 0.9440 0.9450 0.9450
695.864351 0.9480 0.9500 0.9530 0.9530 0.9530
702.511329 0.9540 0.9540 0.9540 0.9530 0.9530
709.158306 0.9530 0.9530 0.9540 0.9570 0.9600
715.805284 0.9600 0.9600 0.9580 0.9580 0.9580
722.452262 0.9580 0.9600 0.9600 0.9600 0.9600
729.099240 0.9610 0.9610 0.9610 0.9610 0.9610
735.746217 0.9610 0.9610 0.9610 0.9610 0.9610
742.393195 0.9610 0.9610 0.9610 0.9610 0.9610
749.040173 0.9610 0.9610 0.9620 0.9620 0.9640
755.687151 0.9640 0.9650 0.9650 0.9660 0.9660
762.334128 0.9660 0.9660 0.9660 0.9660 0.9660
768.981106 0.9660 0.9660 0.9650 0.9650 0.9650
775.628084 0.9650 0.9650 0.9650 0.9650 0.9650
782.275061 0.9640 0.9640 0.9640 0.9640 0.9640
788.922039 0.9640 0.9640 0.9640 0.9620 0.9620
795.569017 0.9620 0.9620 0.9620 0.9620 0.9610
802.215995 0.9610 0.9610 0.9610 0.9610 0.9610
808.862972 0.9610 0.9610 0.9620 0.9610 0.9610
815.509950 0.9610 0.9620 0.9640 0.9640 0.9640
822.156928 0.9640 0.9640 0.9640 0.9640 0.9650
828.803905 0.9650 0.9650 0.9650 0.9680 0.9680
835.450883 0.9680 0.9680 0.9680 0.9680 0.9680
842.097861 0.9680 0.9680 0.9680 0.9680 0.9690
848.744839 0.9690 0.9690 0.9690 0.9680 0.9680
855.391816 0.9660 0.9650 0.9650 0.9650 0.9640
862.038794 0.9640 0.9650 0.9650 0.9650 0.9650
868.685772 0.9650 0.9650 0.9650 0.9640 0.9640
875.332749 0.9640 0.9610 0.9610 0.9610 0.9610
881.979727 0.9600 0.9600 0.9610 0.9610 0.9610
888.626705 0.9610 0.9600 0.9580 0.9580 0.9580
895.273683 0.9580 0.9580 0.9570 0.9570 0.9560
901.920660 0.9560 0.9540 0.9530 0.9530 0.9530
908.567638 0.9520 0.9520 0.9500 0.9490 0.9490
915.214616 0.9490 0.9490 0.9490 0.9490 0.9490
921.861593 0.9490 0.9490 0.9480 0.9480 0.9480
928.508571 0.9480 0.9480 0.9450 0.9410 0.9410
935.155549 0.9400 0.9400 0.9400 0.9400 0.9400
941.802527 0.9380 0.9370 0.9370 0.9370 0.9360
948.449504 0.9320 0.9300 0.9300 0.9280 0.9260
955.096482 0.9250 0.9250 0.9220 0.9200 0.9200
961.743460 0.9140 0.9120 0.9090 0.9060 0.9050
968.390437 0.9040 0.9040 0.9000 0.8980 0.8930
975.037415 0.8890 0.8770 0.8730 0.8660 0.8610
981.684393 0.7215 0.6812 0.6820 0.7287 0.7568
988.331371 0.7960 0.8330 0.8520 0.8690 0.8720
994.978348 0.8690 0.8680 0.8660 0.8620 0.8600
1001.625326 0.8540 0.8530 0.8490 0.8410 0.8360
1008.272304 0.8290 0.8280 0.8260 0.8240 0.8131
1014.919281 0.7900 0.7850 0.7780 0.7740 0.7730
1021.566259 0.7640 0.7610 0.7540 0.7441 0.7380
1028.213237 0.7320 0.7300 0.7140 0.7090 0.7020
1034.860215 0.6940 0.6801 0.6700 0.6640 0.6531
1041.507192 0.6400 0.6290 0.6180 0.5841 0.5730
1048.154170 0.5600 0.5540 0.5321 0.5201 0.4932
1054.801148 0.4800 0.4560 0.4340 0.4220 0.3761
1061.448125 0.3531 0.3321 0.3101 0.2851 0.2691
1068.095103 0.2520 0.2380 0.1840 0.1610 0.1530
1074.742081 0.1420 0.1370 0.1340 0.1330 0.1320
1081.389059 0.1320 0.1330 0.1340 0.1370 0.1440
1088.036036 0.1560 0.1690 0.1809 0.1929 0.2049
1094.683014 0.2180 0.2200 0.2290 0.2360 0.2410
1101.329992 0.2420 0.2440 0.2440 0.2420 0.2400
1107.976970 0.2370 0.2260 0.1970 0.1940 0.1890
1114.623947 0.1860 0.1850 0.1840 0.1840 0.1850
1121.270925 0.1850 0.1880 0.1930 0.2010 0.2080
1127.917903 0.2130 0.2339 0.2639 0.2919 0.3089
1134.564880 0.3240 0.3380 0.3500 0.3680 0.3740
1141.211858 0.3880 0.3890 0.3940 0.3970 0.4000
1147.858836 0.4040 0.4060 0.4090 0.4100 0.4100
1154.505814 0.3960 0.3900 0.3721 0.3660 0.3412
1161.152791 0.3220 0.3000 0.2890 0.2730 0.2640
1167.799769 0.2540 0.2411 0.2281 0.2220 0.2200
1174.446747 0.2130 0.2100 0.2090 0.2090 0.2100
1181.093724 0.2140 0.2260 0.2280 0.2399 0.2688
1187.740702 0.2820 0.3080 0.3300 0.3679 0.3780
1194.387680 0.3890 0.4000 0.4199 0.4399 0.4579
1201.034658 0.4740 0.4980 0.5180 0.5210 0.5380
1207.681635 0.5500 0.5610 0.5690 0.5809 0.5919
1214.328613 0.5980 0.6040 0.6080 0.6200 0.6290
1220.975591 0.6320 0.6340 0.6400 0.6410 0.6460
1227.622568 0.6490 0.6610 0.6700 0.6780 0.6900
1234.269546 0.6930 0.6980 0.7040 0.7090 0.7130
1240.916524 0.7200 0.7220 0.7280 0.7300 0.7330
1247.563502 0.7360 0.7370 0.7400 0.7420 0.7450
1254.210479 0.7480 0.7480 0.7500 0.7540 0.7560
1260.857457 0.7580 0.7610 0.7620 0.7640 0.7660
1267.504435 0.7680 0.7700 0.7730 0.7780 0.7800
1274.151412 0.7820 0.7850 0.7860 0.7860 0.7860
1280.798390 0.7880 0.7900 0.7920 0.7930 0.7960
1287.445368 0.7970 0.7980 0.8000 0.8000 0.8000
1294.092346 0.8050 0.8060 0.8060 0.8080 0.8080
1300.739323 0.8090 0.8090 0.8120 0.8140 0.8160
1307.386301 0.8170 0.8170 0.8180 0.8210 0.8220
1314.033279 0.8240 0.8240 0.8240 0.8250 0.8250
1320.680256 0.8250 0.8280 0.8280 0.8290 0.8300
1327.327234 0.8300 0.8300 0.8320 0.8330 0.8330
1333.974212 0.8340 0.8360 0.8370 0.8370 0.8360
1340.621190 0.8360 0.8370 0.8370 0.8370 0.8380
1347.268167 0.8400 0.8400 0.8400 0.8400 0.8410
1353.915145 0.8410 0.8410 0.8420 0.8420 0.8420
1360.562123 0.8420 0.8420 0.8440 0.8440 0.8450
1367.209100 0.8450 0.8450 0.8450 0.8450 0.8460
1373.856078 0.8460 0.8480 0.8480 0.8480 0.8480
1380.503056 0.8480 0.8490 0.8490 0.8500 0.8500
1387.150034 0.8500 0.8500 0.8500 0.8500 0.8500
1393.797011 0.8520 0.8520 0.8500 0.8500 0.8500
1400.443989 0.8500 0.8520 0.8530 0.8530 0.8530
1407.090967 0.8540 0.8540 0.8540 0.8530 0.8530
1413.737944 0.8530 0.8530 0.8540 0.8540 0.8540
1420.384922 0.8540 0.8540 0.8540 0.8570 0.8580
1427.031900 0.8580 0.8580 0.8580 0.8580 0.8580
1433.678878 0.8580 0.8570 0.8570 0.8570 0.8580
1440.325855 0.8580 0.8580 0.8600 0.8600 0.8600
1446.972833 0.8610 0.8610 0.8610 0.8610 0.8610
1453.619811 0.8610 0.8610 0.8610 0.8610 0.8610
1460.266789 0.8620 0.8620 0.8620 0.8640 0.8640
1466.913766 0.8640 0.8640 0.8650 0.8650 0.8650
1473.560744 0.8660 0.8660 0.8680 0.8690 0.8700
1480.207722 0.8740 0.8740 0.8760 0.8760 0.8760
1486.854699 0.8760 0.8760 0.8770 0.8770 0.8770
1493.501677 0.8770 0.8770 0.8770 0.8770 0.8770
1500.148655 0.8780 0.8780 0.8780 0.8780 0.8780
1506.795633 0.8780 0.8780 0.8780 0.8780 0.8780
1513.442610 0.8780 0.8780 0.8780 0.8780 0.8780
1520.089588 0.8780 0.8780 0.8780 0.8780 0.8780
1526.736566 0.8770 0.8770 0.8780 0.8780 0.8780
1533.383543 0.8770 0.8760 0.8740 0.8740 0.8740
1540.030521 0.8740 0.8740 0.8740 0.8740 0.8740
1546.677499 0.8740 0.8740 0.8740 0.8740 0.8740
1553.324477 0.8740 0.8740 0.8740 0.8740 0.8740
1559.971454 0.8740 0.8730 0.8730 0.8730 0.8730
1566.618432 0.8730 0.8720 0.8720 0.8720 0.8720
1573.265410 0.8720 0.8720 0.8700 0.8700 0.8690
1579.912387 0.8660 0.8660 0.8650 0.8620 0.8620
1586.559365 0.8610 0.8610 0.8610 0.8600 0.8580
1593.206343 0.8540 0.8530 0.8500 0.8490 0.8460
1599.853321 0.8460 0.8450 0.8420 0.8410 0.8380
1606.500298 0.8370 0.8360 0.8330 0.8320 0.8300
1613.147276 0.8290 0.8290 0.8290 0.8290 0.8290
1619.794254 0.8290 0.8300 0.8300 0.8320 0.8320
1626.441231 0.8330 0.8340 0.8360 0.8370 0.8400
1633.088209 0.8410 0.8420 0.8440 0.8450 0.8460
1639.735187 0.8460 0.8460 0.8480 0.8480 0.8490
1646.382165 0.8500 0.8520 0.8530 0.8530 0.8540
1653.029142 0.8540 0.8540 0.8540 0.8540 0.8560
1659.676120 0.8560 0.8580 0.8580 0.8580 0.8600
1666.323098 0.8600 0.8610 0.8610 0.8610 0.8610
1672.970075 0.8610 0.8610 0.8620 0.8640 0.8640
1679.617053 0.8640 0.8640 0.8650 0.8660 0.8660
1686.264031 0.8680 0.8680 0.8690 0.8700 0.8700
1692.911009 0.8700 0.8730 0.8730 0.8740 0.8740
1699.557986 0.8740 0.8740 0.8740 0.8740 0.8740
1706.204964 0.8760 0.8760 0.8760 0.8760 0.8760
1712.851942 0.8760 0.8740 0.8740 0.8740 0.8740
1719.498919 0.8730 0.8730 0.8720 0.8720 0.8730
1726.145897 0.8740 0.8740 0.8760 0.8760 0.8760
1732.792875 0.8760 0.8760 0.8760 0.8760 0.8760
1739.439853 0.8760 0.8770 0.8770 0.8770 0.8770
1746.086830 0.8770 0.8770 0.8770 0.8780 0.8780
1752.733808 0.8780 0.8800 0.8800 0.8810 0.8810
1759.380786 0.8810 0.8810 0.8810 0.8810 0.8840
1766.027763 0.8850 0.8850 0.8850 0.8850 0.8850
1772.674741 0.8880 0.8880 0.8860 0.8850 0.8850
1779.321719 0.8850 0.8850 0.8860 0.8860 0.8860
1785.968697 0.8850 0.8850 0.8850 0.8850 0.8840
1792.615674 0.8840 0.8850 0.8850 0.8860 0.8860
1799.262652 0.8860 0.8880 0.8880 0.8880 0.8880
1805.909630 0.8890 0.8890 0.8890 0.8890 0.8890
1812.556608 0.8880 0.8880 0.8880 0.8880 0.8860
1819.203585 0.8850 0.8850 0.8840 0.8840 0.8840
1825.850563 0.8850 0.8850 0.8860 0.8860 0.8860
1832.497541 0.8860 0.8880 0.8880 0.8880 0.8880
1839.144518 0.8880 0.8880 0.8880 0.8880 0.8880
1845.791496 0.8880 0.8880 0.8880 0.8880 0.8880
1852.438474 0.8890 0.8880 0.8880 0.8880 0.8880
1859.085452 0.8880 0.8880 0.8880 0.8880 0.8860
1865.732429 0.8860 0.8860 0.8860 0.8860 0.8860
1872.379407 0.8860 0.8880 0.8880 0.8860 0.8860
1879.026385 0.8860 0.8850 0.8850 0.8850 0.8850
1885.673362 0.8850 0.8840 0.8840 0.8840 0.8850
1892.320340 0.8860 0.8860 0.8860 0.8860 0.8860
1898.967318 0.8860 0.8850 0.8850 0.8850 0.8850
1905.614296 0.8850 0.8850 0.8850 0.8850 0.8840
1912.261273 0.8840 0.8840 0.8840 0.8850 0.8850
1918.908251 0.8850 0.8850 0.8850 0.8850 0.8850
1925.555229 0.8850 0.8850 0.8850 0.8850 0.8850
1932.202206 0.8840 0.8840 0.8840 0.8850 0.8850
1938.849184 0.8840 0.8840 0.8840 0.8840 0.8840
1945.496162 0.8820 0.8820 0.8820 0.8820 0.8820
1952.143140 0.8820 0.8810 0.8810 0.8810 0.8810
1958.790117 0.8810 0.8810 0.8810 0.8810 0.8810
1965.437095 0.8810 0.8810 0.8810 0.8810 0.8810
1972.084073 0.8810 0.8810 0.8810 0.8810 0.8810
1978.731050 0.8810 0.8810 0.8810 0.8810 0.8810
1985.378028 0.8810 0.8810 0.8810 0.8810 0.8810
1992.025006 0.8810 0.8810 0.8810 0.8810 0.8810
1998.671984 0.8810 0.8810 0.8810 0.8810 0.8810
2005.318961 0.8810 0.8810 0.8810 0.8810 0.8810
2011.965939 0.8805 0.8800 0.8800 0.8800 0.8790
2018.612917 0.8780 0.8780 0.8780 0.8775 0.8770
2025.259894 0.8770 0.8770 0.8765 0.8760 0.8760
2031.906872 0.8760 0.8760 0.8760 0.8760 0.8760
2038.553850 0.8760 0.8760 0.8760 0.8760 0.8760
2045.200828 0.8759 0.8749 0.8740 0.8740 0.8739
2051.847805 0.8729 0.8719 0.8709 0.8700 0.8700
2058.494783 0.8700 0.8695 0.8690 0.8690 0.8688
2065.141761 0.8668 0.8649 0.8644 0.8640 0.8640
2071.788738 0.8639 0.8629 0.8620 0.8620 0.8621
2078.435716 0.8631 0.8640 0.8640 0.8640 0.8640
2085.082694 0.8639 0.8629 0.8619 0.8614 0.8610
2091.729672 0.8610 0.8610 0.8610 0.8610 0.8610
2098.376649 0.8610 0.8610 0.8610 0.8610 0.8610
2105.023627 0.8610 0.8610 0.8610 0.8610 0.8610
2111.670605 0.8610 0.8610 0.8610 0.8610 0.8613
2118.317582 0.8628 0.8640 0.8640 0.8640 0.8640
2124.964560 0.8640 0.8640 0.8638 0.8628 0.8620
2131.611538 0.8620 0.8620 0.8620 0.8620 0.8620
2138.258516 0.8619 0.8614 0.8610 0.8610 0.8610
2144.905493 0.8610 0.8609 0.8604 0.8600 0.8600
2151.552471 0.8600 0.8600 0.8600 0.8600 0.8600
2158.199449 0.8600 0.8600 0.8600 0.8600 0.8600
2164.846426 0.8600 0.8600 0.8600 0.8600 0.8600
2171.493404 0.8600 0.8601 0.8606 0.8610 0.8610
2178.140382 0.8610 0.8610 0.8610 0.8610 0.8610
2184.787360 0.8610 0.8610 0.8610 0.8610 0.8610
2191.434337 0.8608 0.8603 0.8600 0.8600 0.8600
2198.081315 0.8600 0.8600 0.8600 0.8600 0.8600
2204.728293 0.8600 0.8600 0.8600 0.8600 0.8596
2211.375271 0.8586 0.8580 0.8580 0.8584 0.8594
2218.022248 0.8600 0.8600 0.8600 0.8600 0.8602
2224.669226 0.8607 0.8610 0.8610 0.8608 0.8603
2231.316204 0.8600 0.8600 0.8600 0.8600 0.8600
2237.963181 0.8600 0.8600 0.8600 0.8600 0.8600
2244.610159 0.8600 0.8600 0.8600 0.8600 0.8600
2251.257137 0.8600 0.8602 0.8607 0.8610 0.8610
2257.904115 0.8610 0.8610 0.8610 0.8610 0.8610
2264.551092 0.8610 0.8612 0.8617 0.8620 0.8620
2271.198070 0.8620 0.8620 0.8618 0.8613 0.8608
2277.845048 0.8603 0.8600 0.8600 0.8600 0.8600
2284.492025 0.8600 0.8600 0.8600 0.8600 0.8600
2291.139003 0.8600 0.8600 0.8600 0.8600 0.8600
2297.785981 0.8600 0.8600 0.8600 0.8600 0.8600
2304.432959 0.8600 0.8600 0.8600 0.8600 0.8600
2311.079936 0.8603 0.8608 0.8610 0.8610 0.8607
2317.726914 0.8602 0.8600 0.8600 0.8600 0.8600
2324.373892 0.8594 0.8584 0.8577 0.8572 0.8570
2331.020869 0.8570 0.8567 0.8562 0.8554 0.8544
2337.667847 0.8540 0.8540 0.8540 0.8540 0.8537
2344.314825 0.8532 0.8530 0.8530 0.8530 0.8530
2350.961803 0.8530 0.8530 0.8530 0.8530 0.8527
2357.608780 0.8522 0.8520 0.8520 0.8520 0.8520
2364.255758 0.8514 0.8504 0.8500 0.8500 0.8500
2370.902736 0.8500 0.8500 0.8500 0.8500 0.8500
2377.549713 0.8507 0.8517 0.8523 0.8528 0.8530
2384.196691 0.8530 0.8540 0.8555 0.8563 0.8568
2390.843669 0.8570 0.8570 0.8573 0.8578 0.8580
2397.490647 0.8580 0.8580 0.8580 0.8587 0.8597
2404.137624 0.8600 0.8600 0.8593 0.8583 0.8580
2410.784602 0.8580 0.8580 0.8580 0.8576 0.8571
2417.431580 0.8570 0.8570 0.8570 0.8570 0.8570
2424.078557 0.8570 0.8570 0.8570 0.8570 0.8570
2430.725535 0.8570 0.8570 0.8570 0.8570 0.8570
2437.372513 0.8570 0.8566 0.8561 0.8560 0.8560
2444.019491 0.8560 0.8560 0.8560 0.8560 0.8560
2450.666468 0.8560 0.8552 0.8542 0.8540 0.8540
2457.313446 0.8540 0.8540 0.8540 0.8540 0.8540
2463.960424 0.8540 0.8536 0.8531 0.8530 0.8530
2470.607401 0.8530 0.8530 0.8530 0.8530 0.8530
2477.254379 0.8530 0.8530 0.8530 0.8526 0.8521
2483.901357 0.8520 0.8520 0.8511 0.8501 0.8500
2490.548335 0.8500 0.8500 0.8500 0.8496 0.8491
2497.195312 0.8490 0.8490 0.8490 0.8490 0.8490
2503.842290 0.8490 0.8490 0.8490 0.8495 0.8500
2510.489268 0.8500 0.8500 0.8495 0.8490 0.8490
2517.136245 0.8490 0.8490 0.8490 0.8490 0.8490
2523.783223 0.8490 0.8490 0.8490 0.8490 0.8490
2530.430201 0.8490 0.8490 0.8490 0.8485 0.8480
2537.077179 0.8480 0.8480 0.8480 0.8480 0.8480
2543.724156 0.8480 0.8480 0.8480 0.8480 0.8480
2550.371134 0.8480 0.8480 0.8480 0.8480 0.8470
2557.018112 0.8460 0.8460 0.8460 0.8460 0.8460
2563.665090 0.8460 0.8460 0.8460 0.8460 0.8470
2570.312067 0.8480 0.8480 0.8480 0.8480 0.8480
2576.959045 0.8480 0.8480 0.8480 0.8480 0.8480
2583.606023 0.8480 0.8470 0.8460 0.8460 0.8460
2590.253000 0.8455 0.8450 0.8450 0.8450 0.8450
2596.899978 0.8450 0.8455 0.8460 0.8460 0.8460
2603.546956 0.8460 0.8460 0.8455 0.8450 0.8450
2610.193934 0.8450 0.8450 0.8450 0.8450 0.8450
2616.840911 0.8445 0.8440 0.8440 0.8440 0.8445
2623.487889 0.8450 0.8450 0.8450 0.8450 0.8450
2630.134867 0.8450 0.8449 0.8444 0.8440 0.8440
2636.781844 0.8440 0.8440 0.8440 0.8440 0.8439
2643.428822 0.8429 0.8419 0.8414 0.8410 0.8410
2650.075800 0.8410 0.8410 0.8409 0.8404 0.8400
2656.722778 0.8400 0.8400 0.8400 0.8400 0.8400
2663.369755 0.8400 0.8400 0.8400 0.8400 0.8400
2670.016733 0.8400 0.8400 0.8400 0.8400 0.8400
2676.663711 0.8398 0.8388 0.8380 0.8380 0.8380
2683.310688 0.8380 0.8379 0.8374 0.8370 0.8370
2689.957666 0.8371 0.8376 0.8380 0.8380 0.8380
2696.604644 0.8380 0.8380 0.8380 0.8380 0.8380
2703.251622 0.8380 0.8380 0.8382 0.8392 0.8400
2709.898599 0.8400 0.8400 0.8400 0.8398 0.8387
2716.545577 0.8380 0.8380 0.8380 0.8380 0.8380
2723.192555 0.8380 0.8380 0.8380 0.8380 0.8380
2729.839532 0.8380 0.8380 0.8379 0.8374 0.8370
2736.486510 0.8370 0.8370 0.8370 0.8370 0.8370
2743.133488 0.8368 0.8363 0.8360 0.8360 0.8360
2749.780466 0.8360 0.8360 0.8360 0.8360 0.8360
2756.427443 0.8360 0.8360 0.8360 0.8360 0.8360
2763.074421 0.8360 0.8360 0.8360 0.8357 0.8346
2769.721399 0.8338 0.8333 0.8330 0.8330 0.8328
2776.368376 0.8323 0.8320 0.8320 0.8320 0.8320
2783.015354 0.8320 0.8320 0.8320 0.8320 0.8322
2789.662332 0.8327 0.8330 0.8330 0.8332 0.8337
2796.309310 0.8340 0.8340 0.8338 0.8333 0.8328
2802.956287 0.8323 0.8320 0.8320 0.8320 0.8320
2809.603265 0.8320 0.8320 0.8320 0.8320 0.8320
2816.250243 0.8320 0.8320 0.8320 0.8320 0.8320
2822.897220 0.8315 0.8305 0.8298 0.8293 0.8290
2829.544198 0.8290 0.8290 0.8290 0.8290 0.8290
2836.191176 0.8290 0.8290 0.8290 0.8290 0.8288
2842.838154 0.8283 0.8280 0.8280 0.8265 0.8235
2849.485131 0.8217 0.8212 0.8202 0.8187 0.8165
2856.132109 0.8135 0.8112 0.8097 0.8087 0.8082
2862.779087 0.8075 0.8065 0.8060 0.8060 0.8060
2869.426064 0.8060 0.8060 0.8060 0.8065 0.8076
2876.073042 0.8080 0.8080 0.8080 0.8080 0.8083
2882.720020 0.8088 0.8093 0.8098 0.8100 0.8100
2889.366998 0.8097 0.8092 0.8087 0.8082 0.8080
2896.013975 0.8080 0.8074 0.8064 0.8060 0.8060
2902.660953 0.8057 0.8052 0.8050 0.8050 0.8047
2909.307931 0.8042 0.8031 0.8016 0.8001 0.7986
2915.954909 0.7962 0.7932 0.7889 0.7839 0.7808
2922.601886 0.7788 0.7777 0.7772 0.7770 0.7770
2929.248864 0.7773 0.7778 0.7787 0.7797 0.7803
2935.895842 0.7808 0.7813 0.7818 0.7827 0.7837
2942.542819 0.7847 0.7857 0.7867 0.7877 0.7883
2949.189797 0.7888 0.7893 0.7898 0.7907 0.7917
2955.836775 0.7924 0.7929 0.7930 0.7930 0.7934
2962.483753 0.7939 0.7951 0.7966 0.7974 0.7979
2969.130730 0.7980 0.7980 0.7987 0.7997 0.8000
2975.777708 0.8000 0.8000 0.8000 0.8004 0.8009
2982.424686 0.8010 0.8010 0.8021 0.8036 0.8044
2989.071663 0.8049 0.8061 0.8076 0.8080 0.8080
2995.718641 0.8084 0.8089 0.8090 0.8090 0.8094
3002.365619 0.8099 0.8100 0.8100 0.8100 0.8100
3009.012597 0.8100 0.8100 0.8100 0.8100 0.8100
3015.659574 0.8100 0.8100 0.8100 0.8100 0.8100
3022.306552 0.8100 0.8100 0.8100 0.8100 0.8100
3028.953530 0.8100 0.8100 0.8100 0.8100 0.8100
3035.600507 0.8100 0.8100 0.8100 0.8100 0.8100
3042.247485 0.8100 0.8100 0.8100 0.8100 0.8100
3048.894463 0.8100 0.8100 0.8100 0.8100 0.8100
3055.541441 0.8100 0.8100 0.8100 0.8100 0.8100
3062.188418 0.8096 0.8091 0.8090 0.8090 0.8090
3068.835396 0.8090 0.8090 0.8090 0.8090 0.8090
3075.482374 0.8085 0.8080 0.8080 0.8080 0.8071
3082.129351 0.8061 0.8060 0.8060 0.8060 0.8060
3088.776329 0.8060 0.8060 0.8060 0.8060 0.8055
3095.423307 0.8050 0.8050 0.8050 0.8050 0.8050
3102.070285 0.8050 0.8050 0.8050 0.8050 0.8050
3108.717262 0.8050 0.8045 0.8040 0.8040 0.8040
3115.364240 0.8040 0.8040 0.8040 0.8040 0.8030
3122.011218 0.8020 0.8020 0.8020 0.8015 0.8010
3128.658195 0.8010 0.8010 0.8010 0.8010 0.8005
3135.305173 0.8000 0.8000 0.8000 0.8000 0.8000
3141.952151 0.7990 0.7980 0.7980 0.7980 0.7980
3148.599129 0.7980 0.7980 0.7980 0.7980 0.7980
3155.246106 0.7980 0.7980 0.7975 0.7970 0.7970
3161.893084 0.7970 0.7965 0.7960 0.7960 0.7959
3168.540062 0.7949 0.7940 0.7940 0.7940 0.7935
3175.187039 0.7930 0.7930 0.7930 0.7930 0.7930
3181.834017 0.7925 0.7920 0.7920 0.7920 0.7920
3188.480995 0.7919 0.7909 0.7900 0.7900 0.7900
3195.127973 0.7900 0.7900 0.7900 0.7900 0.7900
3201.774950 0.7899 0.7894 0.7890 0.7890 0.7890
3208.421928 0.7890 0.7890 0.7890 0.7890 0.7890
3215.068906 0.7890 0.7890 0.7889 0.7884 0.7880
3221.715883 0.7880 0.7878 0.7868 0.7860 0.7860
3228.362861 0.7859 0.7854 0.7850 0.7850 0.7849
3235.009839 0.7844 0.7840 0.7840 0.7838 0.7828
3241.656817 0.7819 0.7814 0.7810 0.7810 0.7810
3248.303794 0.7810 0.7810 0.7810 0.7810 0.7810
3254.950772 0.7810 0.7810 0.7809 0.7804 0.7798
3261.597750 0.7788 0.7779 0.7774 0.7769 0.7764
3268.244728 0.7758 0.7748 0.7740 0.7740 0.7740
3274.891705 0.7740 0.7739 0.7734 0.7729 0.7724
3281.538683 0.7720 0.7720 0.7720 0.7720 0.7720
3288.185661 0.7720 0.7717 0.7707 0.7700 0.7700
3294.832638 0.7700 0.7700 0.7700 0.7700 0.7698
3301.479616 0.7693 0.7688 0.7683 0.7675 0.7660
3308.126594 0.7650 0.7650 0.7645 0.7630 0.7618
3314.773572 0.7613 0.7605 0.7590 0.7580 0.7580
3321.420549 0.7578 0.7573 0.7568 0.7563 0.7560
3328.067527 0.7560 0.7556 0.7546 0.7538 0.7533
3334.714505 0.7525 0.7509 0.7498 0.7493 0.7488
3341.361482 0.7483 0.7474 0.7459 0.7448 0.7443
3348.008460 0.7436 0.7426 0.7416 0.7406 0.7394
3354.655438 0.7379 0.7368 0.7363 0.7356 0.7346
3361.302416 0.7338 0.7333 0.7328 0.7323 0.7314
3367.949393 0.7299 0.7288 0.7283 0.7276 0.7266
3374.596371 0.7258 0.7253 0.7248 0.7243 0.7233
3381.243349 0.7218 0.7208 0.7203 0.7195 0.7185
3387.890326 0.7175 0.7165 0.7160 0.7160 0.7155
3394.537304 0.7145 0.7138 0.7133 0.7123 0.7108
3401.184282 0.7091 0.7071 0.7055 0.7045 0.7030
3407.831260 0.7010 0.6992 0.6977 0.6967 0.6962
3414.478237 0.6955 0.6945 0.6937 0.6932 0.6927
3421.125215 0.6922 0.6920 0.6920 0.6915 0.6905
3427.772193 0.6897 0.6892 0.6890 0.6890 0.6890
3434.419170 0.6890 0.6890 0.6890 0.6890 0.6890
3441.066148 0.6890 0.6890 0.6890 0.6890 0.6890
3447.713126 0.6890 0.6890 0.6890 0.6887 0.6882
3454.360104 0.6880 0.6880 0.6880 0.6880 0.6880
3461.007081 0.6880 0.6874 0.6864 0.6860 0.6860
3467.654059 0.6860 0.6860 0.6860 0.6860 0.6860
3474.301037 0.6860 0.6860 0.6860 0.6866 0.6876
3480.948014 0.6880 0.6880 0.6883 0.6888 0.6893
3487.594992 0.6898 0.6906 0.6916 0.6920 0.6920
3494.241970 0.6923 0.6928 0.6930 0.6930 0.6933
3500.888948 0.6938 0.6947 0.6957 0.6960 0.6960
3507.535925 0.6963 0.6968 0.6973 0.6978 0.6980
3514.182903 0.6980 0.6987 0.6997 0.7000 0.7000
3520.829881 0.7003 0.7008 0.7014 0.7019 0.7031
3527.476858 0.7046 0.7054 0.7059 0.7060 0.7060
3534.123836 0.7071 0.7086 0.7090 0.7090 0.7094
3540.770814 0.7099 0.7107 0.7117 0.7124 0.7129
3547.417792 0.7134 0.7139 0.7155 0.7175 0.7187
3554.064769 0.7197 0.7204 0.7209 0.7221 0.7236
3560.711747 0.7244 0.7249 0.7254 0.7259 0.7272
3567.358725 0.7287 0.7290 0.7290 0.7294 0.7299
3574.005702 0.7308 0.7318 0.7320 0.7320 0.7324
3580.652680 0.7329 0.7342 0.7357 0.7368 0.7378
3587.299658 0.7380 0.7380 0.7392 0.7407 0.7410
3593.946636 0.7410 0.7414 0.7419 0.7428 0.7438
3600.593613 0.7448 0.7458 0.7473 0.7488 0.7494
3607.240591 0.7499 0.7508 0.7518 0.7528 0.7538
3613.887569 0.7553 0.7568 0.7574 0.7579 0.7580
3620.534547 0.7580 0.7589 0.7599 0.7600 0.7600
3627.181524 0.7604 0.7609 0.7614 0.7619 0.7629
3633.828502 0.7639 0.7640 0.7640 0.7644 0.7649
3640.475480 0.7654 0.7659 0.7669 0.7679 0.7685
3647.122457 0.7690 0.7695 0.7700 0.7700 0.7700
3653.769435 0.7709 0.7719 0.7720 0.7720 0.7720
3660.416413 0.7720 0.7720 0.7720 0.7725 0.7730
3667.063391 0.7730 0.7730 0.7730 0.7730 0.7735
3673.710368 0.7740 0.7740 0.7740 0.7740 0.7740
3680.357346 0.7740 0.7740 0.7740 0.7740 0.7740
3687.004324 0.7740 0.7740 0.7740 0.7740 0.7740
3693.651301 0.7740 0.7740 0.7740 0.7740 0.7740
3700.298279 0.7740 0.7740 0.7740 0.7735 0.7730
3706.945257 0.7730 0.7730 0.7730 0.7730 0.7730
3713.592235 0.7730 0.7730 0.7730 0.7730 0.7730
3720.239212 0.7730 0.7730 0.7730 0.7730 0.7725
3726.886190 0.7720 0.7720 0.7720 0.7720 0.7720
3733.533168 0.7720 0.7720 0.7720 0.7720 0.7720
3740.180145 0.7720 0.7720 0.7720 0.7720 0.7719
3746.827123 0.7709 0.7700 0.7700 0.7700 0.7700
3753.474101 0.7700 0.7700 0.7700 0.7700 0.7699
3760.121079 0.7694 0.7690 0.7690 0.7690 0.7690
3766.768056 0.7691 0.7696 0.7701 0.7711 0.7720
3773.415034 0.7720 0.7720 0.7720 0.7718 0.7708
3780.062012 0.7700 0.7700 0.7699 0.7694 0.7690
3786.708989 0.7690 0.7690 0.7690 0.7690 0.7690
3793.355967 0.7690 0.7690 0.7689 0.7684 0.7680
3800.002945 0.7680 0.7680 0.7680 0.7680 0.7680
3806.649923 0.7680 0.7680 0.7680 0.7680 0.7680
3813.296900 0.7680 0.7680 0.7680 0.7680 0.7680
3819.943878 0.7680 0.7680 0.7678 0.7668 0.7660
3826.590856 0.7660 0.7660 0.7660 0.7659 0.7654
3833.237833 0.7650 0.7650 0.7650 0.7650 0.7650
3839.884811 0.7650 0.7649 0.7644 0.7640 0.7640
3846.531789 0.7640 0.7640 0.7637 0.7627 0.7620
3853.178767 0.7620 0.7620 0.7620 0.7620 0.7620
3859.825744 0.7620 0.7620 0.7620 0.7620 0.7620
3866.472722 0.7620 0.7620 0.7620 0.7620 0.7620
3873.119700 0.7620 0.7620 0.7620 0.7620 0.7618
3879.766677 0.7613 0.7610 0.7610 0.7610 0.7610
3886.413655 0.7610 0.7610 0.7610 0.7610 0.7610
3893.060633 0.7610 0.7608 0.7603 0.7600 0.7600
3899.707611 0.7600 0.7600 0.7600 0.7600 0.7600
3906.354588 0.7600 0.7600 0.7600 0.7600 0.7600
3913.001566 0.7600 0.7600 0.7600 0.7600 0.7602
3919.648544 0.7607 0.7610 0.7610 0.7610 0.7610
3926.295521 0.7610 0.7610 0.7608 0.7603 0.7600
3932.942499 0.7600 0.7600 0.7600 0.7600 0.7600
3939.589477 0.7596 0.7586 0.7580 0.7580 0.7580
3946.236455 0.7580 0.7578 0.7573 0.7570 0.7570
3952.883432 0.7570 0.7570 0.7570 0.7570 0.7570
3959.530410 0.7570 0.7572 0.7577 0.7580 0.7580
3966.177388 0.7580 0.7580 0.7580 0.7580 0.7580
3972.824366 0.7580 0.7580 0.7580 0.7580 0.7580
3979.471343 0.7577 0.7572 0.7567 0.7562
##END=
