##TITLE=Ethanol, 2,2'-[(9-benzyl-9H-purin-6-yl)imino]di-
##JCAMP-DX=4.24
##DATA TYPE=INFRARED SPECTRUM
##CLASS=COBLENTZ III
##ORIGIN=SOUTHERN RESEARCH INSTITUTE
##OWNER=Copyright (C) 1987 by the Coblentz Society
Collection (C) 2018 copyright by the U.S. Secretary of Commerce
on behalf of the United States of America. All rights reserved.
##DATE=1958/12/16
##MOLFORM=C16 H19 N5 O2
##SOURCE REFERENCE=COBLENTZ NO. 8696
##$NIST ID=B6008696
##$NIST SOURCE=COBLENTZ
##$NIST IMAGE=cob8696
##SPECTROMETER/DATA SYSTEM=PERKIN-ELMER 21 (GRATING)
##INSTRUMENT PARAMETERS=FILTER CHANGE ABOUT 1090 CM^-^1
##STATE=SOLID (KBr DISC)
##SAMPLING PROCEDURE=TRANSMISSION
##RESOLUTION=2
##DATA PROCESSING=DIGITIZED BY COBLENTZ SOCIETY (BATCH II) FROM HARD COPY (ADJUSTED \addcm-1\8-5-0\)
##XUNITS=1/CM
##YUNITS=TRANSMITTANCE
##XFACTOR=1.0
##YFACTOR=1
##DELTAX=1.002944
##FIRSTX=604
##LASTX=4010
##FIRSTY=0.8607
##MAXX=4010
##MINX=604
##MAXY=0.831695
##MINY=0.0639008
##NPOINTS=3397
##XYDATA=(X++(Y..Y))
604.000000 0.8607 0.8604 0.8600 0.8600 0.8587
609.014719 0.8580 0.8570 0.8558 0.8546 0.8534
614.029438 0.8519 0.8498 0.8478 0.8457 0.8436
619.044157 0.8415 0.8394 0.8371 0.8348 0.8325
624.058875 0.8302 0.8279 0.8256 0.8234 0.8212
629.073594 0.8190 0.8168 0.8146 0.8124 0.8102
634.088313 0.8078 0.8053 0.8029 0.8001 0.7950
639.103032 0.7893 0.7822 0.7702 0.7534 0.7382
644.117751 0.7183 0.6967 0.6750 0.6535 0.6319
649.132470 0.6103 0.5887 0.5671 0.5455 0.5260
654.147189 0.5193 0.5186 0.5356 0.5637 0.5917
659.161908 0.6197 0.6477 0.6758 0.7069 0.7451
664.176626 0.7438 0.7434 0.7426 0.7416 0.7406
669.191345 0.7391 0.7376 0.7359 0.7332 0.7293
674.206064 0.7251 0.7198 0.7124 0.7107 0.7094
679.220783 0.7065 0.7101 0.7116 0.7148 0.7186
684.235502 0.7222 0.7248 0.7254 0.7255 0.7254
689.250221 0.7256 0.7263 0.7233 0.7193 0.7128
694.264940 0.7002 0.6762 0.6521 0.6281 0.6041
699.279659 0.5801 0.5560 0.5320 0.5103 0.4983
704.294377 0.4961 0.4953 0.5036 0.5336 0.5800
709.309096 0.6264 0.6728 0.7192 0.7535 0.7589
714.323815 0.7586 0.7586 0.7582 0.7560 0.7543
719.338534 0.7513 0.7468 0.7412 0.7354 0.7297
724.353253 0.7247 0.7200 0.7146 0.7086 0.7014
729.367972 0.6845 0.6413 0.5755 0.5097 0.4439
734.382691 0.3790 0.3405 0.3409 0.3409 0.3538
739.397409 0.3904 0.4357 0.4809 0.5261 0.5714
744.412128 0.6166 0.6619 0.7072 0.7524 0.7895
749.426847 0.8066 0.8104 0.8127 0.8140 0.8141
754.441566 0.8147 0.8143 0.8123 0.8115 0.8104
759.456285 0.8092 0.8083 0.8069 0.8049 0.8029
764.471004 0.8005 0.7975 0.7944 0.7901 0.7843
769.485723 0.7785 0.7731 0.7676 0.7623 0.7572
774.500442 0.7527 0.7497 0.7483 0.7484 0.7489
779.515160 0.7497 0.7506 0.7516 0.7529 0.7545
784.529879 0.7560 0.7577 0.7592 0.7610 0.7630
789.544598 0.7635 0.7394 0.6957 0.6520 0.6083
794.559317 0.5877 0.5867 0.5868 0.5883 0.6199
799.574036 0.6726 0.7249 0.7771 0.8038 0.8072
804.588755 0.8070 0.8068 0.8070 0.8074 0.8085
809.603474 0.8109 0.8143 0.8183 0.8221 0.8232
814.618193 0.8228 0.8224 0.8219 0.8213 0.8208
819.632911 0.8207 0.8207 0.8207 0.8208 0.8216
824.647630 0.8232 0.8252 0.8273 0.8290 0.8305
829.662349 0.8317 0.8301 0.8308 0.8313 0.8305
834.677068 0.8295 0.8285 0.8272 0.8257 0.8238
839.691787 0.8210 0.8176 0.8129 0.8060 0.7986
844.706506 0.7915 0.7816 0.7721 0.7647 0.7591
849.721225 0.7553 0.7541 0.7540 0.7596 0.7667
854.735943 0.7734 0.7802 0.7846 0.7836 0.7823
859.750662 0.7777 0.7697 0.7610 0.7523 0.7436
864.765381 0.7348 0.7306 0.7297 0.7287 0.7293
869.780100 0.7387 0.7516 0.7649 0.7781 0.7914
874.794819 0.8028 0.8084 0.8126 0.8167 0.8206
879.809538 0.8203 0.8211 0.8211 0.8209 0.8202
884.824257 0.8194 0.8186 0.8178 0.8169 0.8157
889.838976 0.8144 0.8131 0.8118 0.8105 0.8092
894.853694 0.8076 0.8058 0.8039 0.8020 0.8004
899.868413 0.7989 0.7973 0.7957 0.7941 0.7924
904.883132 0.7904 0.7883 0.7863 0.7843 0.7823
909.897851 0.7812 0.7803 0.7778 0.7813 0.7853
914.912570 0.7902 0.7943 0.7984 0.8018 0.8051
919.927289 0.8091 0.8135 0.8168 0.8198 0.8219
924.942008 0.8236 0.8240 0.8241 0.8213 0.8239
929.956727 0.8232 0.8224 0.8211 0.8196 0.8177
934.971445 0.8154 0.8131 0.8110 0.8090 0.8070
939.986164 0.8046 0.8018 0.7990 0.7952 0.7907
945.000883 0.7873 0.7850 0.7834 0.7826 0.7816
950.015602 0.7776 0.7731 0.7673 0.7604 0.7546
955.030321 0.7524 0.7513 0.7511 0.7508 0.7509
960.045040 0.7519 0.7619 0.7732 0.7839 0.7860
965.059759 0.7861 0.7860 0.7858 0.7857 0.7853
970.074477 0.7849 0.7843 0.7836 0.7830 0.7823
975.089196 0.7813 0.7798 0.7787 0.7777 0.7766
980.103915 0.7759 0.7755 0.7752 0.7748 0.7743
985.118634 0.7738 0.7732 0.7727 0.7718 0.7698
990.133353 0.7678 0.7658 0.7638 0.7619 0.7599
995.148072 0.7579 0.7558 0.7535 0.7511 0.7477
1000.162791 0.7435 0.7393 0.7350 0.7307 0.7266
1005.177510 0.7234 0.7213 0.7203 0.7198 0.7193
1010.192228 0.7188 0.7171 0.7149 0.7113 0.7065
1015.206947 0.7009 0.6948 0.6885 0.6828 0.6767
1020.221666 0.6665 0.6507 0.6407 0.6299 0.6113
1025.236385 0.5939 0.5824 0.5704 0.5490 0.4778
1030.251104 0.4509 0.4239 0.3970 0.3702 0.3433
1035.265823 0.3163 0.2894 0.2626 0.2355 0.2077
1040.280542 0.2039 0.2018 0.2015 0.2018 0.2019
1045.295261 0.2047 0.2086 0.2282 0.2708 0.3134
1050.309979 0.3560 0.3986 0.4409 0.4693 0.4703
1055.324698 0.4712 0.4718 0.4725 0.4733 0.4743
1060.339417 0.4759 0.4901 0.5089 0.5279 0.5468
1065.354136 0.5635 0.5653 0.5482 0.5313 0.5145
1070.368855 0.4975 0.4807 0.4638 0.4470 0.4300
1075.383574 0.4132 0.4036 0.4032 0.4285 0.4573
1080.398293 0.4862 0.5151 0.5441 0.5731 0.6005
1085.413011 0.6095 0.6155 0.6210 0.6344 0.6526
1090.427730 0.6638 0.6909 0.7171 0.7292 0.7510
1095.442449 0.7549 0.7565 0.7575 0.7584 0.7588
1100.457168 0.7591 0.7593 0.7576 0.7585 0.7582
1105.471887 0.7572 0.7561 0.7551 0.7541 0.7531
1110.486606 0.7523 0.7515 0.7507 0.7499 0.7495
1115.501325 0.7493 0.7491 0.7490 0.7490 0.7494
1120.516044 0.7498 0.7502 0.7506 0.7511 0.7516
1125.530762 0.7522 0.7528 0.7533 0.7539 0.7546
1130.545481 0.7552 0.7558 0.7564 0.7571 0.7575
1135.560200 0.7578 0.7582 0.7585 0.7589 0.7592
1140.574919 0.7592 0.7588 0.7582 0.7566 0.7548
1145.589638 0.7530 0.7512 0.7491 0.7466 0.7441
1150.604357 0.7417 0.7387 0.7356 0.7325 0.7294
1155.619076 0.7254 0.7209 0.7163 0.7112 0.7050
1160.633795 0.6984 0.6919 0.6853 0.6798 0.6749
1165.648513 0.6702 0.6654 0.6608 0.6566 0.6525
1170.663232 0.6487 0.6456 0.6407 0.6317 0.6212
1175.677951 0.6108 0.6003 0.5927 0.5894 0.5935
1180.692670 0.6096 0.6303 0.6510 0.6717 0.6924
1185.707389 0.7133 0.7230 0.7253 0.7262 0.7261
1190.722108 0.7256 0.7250 0.7243 0.7236 0.7228
1195.736827 0.7218 0.7206 0.7194 0.7182 0.7170
1200.751545 0.7157 0.7145 0.7132 0.7120 0.7107
1205.766264 0.7094 0.7079 0.7055 0.7025 0.6994
1210.780983 0.6964 0.6920 0.6865 0.6811 0.6742
1215.795702 0.6568 0.6358 0.6213 0.6114 0.6036
1220.810421 0.5995 0.5996 0.6043 0.6118 0.6192
1225.825140 0.6267 0.6316 0.6321 0.6234 0.6082
1230.839859 0.5929 0.5777 0.5624 0.5477 0.5406
1235.854578 0.5397 0.5452 0.5585 0.5727 0.5870
1240.869296 0.6014 0.6156 0.6242 0.6258 0.6261
1245.884015 0.6259 0.6252 0.6240 0.6224 0.6120
1250.898734 0.5910 0.5688 0.5465 0.5296 0.5220
1255.913453 0.5178 0.5139 0.5105 0.5072 0.5041
1260.928172 0.5031 0.5113 0.5283 0.5466 0.5649
1265.942891 0.5832 0.6015 0.6198 0.6382 0.6558
1270.957610 0.6681 0.6724 0.6748 0.6758 0.6741
1275.972329 0.6740 0.6737 0.6732 0.6727 0.6714
1280.987047 0.6687 0.6645 0.6519 0.6246 0.5922
1286.001766 0.5598 0.5273 0.4948 0.4624 0.4300
1291.016485 0.3976 0.3673 0.3485 0.3449 0.3448
1296.031204 0.3436 0.3434 0.3566 0.3826 0.4086
1301.045923 0.4347 0.4607 0.4867 0.5127 0.5388
1306.060642 0.5582 0.5622 0.5626 0.5631 0.5639
1311.075361 0.5650 0.5664 0.5682 0.5710 0.5738
1316.090079 0.5766 0.5802 0.5863 0.5955 0.6078
1321.104798 0.6157 0.6234 0.6312 0.6412 0.6524
1326.119517 0.6571 0.6596 0.6576 0.6576 0.6575
1331.134236 0.6568 0.6551 0.6524 0.6487 0.6430
1336.148955 0.6337 0.6186 0.5930 0.5760 0.5589
1341.163674 0.5419 0.5249 0.5079 0.4909 0.4738
1346.178393 0.4568 0.4398 0.4228 0.4057 0.3920
1351.193112 0.3919 0.4029 0.4440 0.4851 0.5214
1356.207830 0.5318 0.5298 0.5278 0.5257 0.5239
1361.222549 0.5236 0.5309 0.5464 0.5618 0.5773
1366.237268 0.5928 0.6083 0.6238 0.6396 0.6626
1371.251987 0.6694 0.6705 0.6709 0.6734 0.6692
1376.266706 0.6678 0.6665 0.6627 0.6569 0.6504
1381.281425 0.6441 0.6345 0.6209 0.6069 0.5930
1386.296144 0.5791 0.5651 0.5478 0.5466 0.5480
1391.310863 0.5563 0.5659 0.5754 0.5850 0.5886
1396.325581 0.5896 0.5896 0.5885 0.5822 0.5746
1401.340300 0.5670 0.5570 0.5564 0.5573 0.5624
1406.355019 0.5723 0.5834 0.5945 0.6056 0.6181
1411.369738 0.6260 0.6290 0.6307 0.6295 0.6276
1416.384457 0.6256 0.6234 0.6211 0.6177 0.6124
1421.399176 0.6055 0.5980 0.5877 0.5750 0.5650
1426.413895 0.5574 0.5498 0.5409 0.5307 0.5213
1431.428613 0.5142 0.5101 0.5079 0.5057 0.5035
1436.443332 0.5007 0.4931 0.4830 0.4761 0.4607
1441.458051 0.4422 0.4393 0.4374 0.4395 0.4555
1446.472770 0.4737 0.4919 0.5100 0.5282 0.5464
1451.487489 0.5645 0.5826 0.5951 0.5961 0.5939
1456.502208 0.5738 0.5641 0.5544 0.5447 0.5350
1461.516927 0.5253 0.5163 0.5115 0.5113 0.5143
1466.531646 0.5438 0.5633 0.5829 0.6024 0.6211
1471.546364 0.6337 0.6355 0.6305 0.6287 0.6261
1476.561083 0.6227 0.6162 0.6101 0.6039 0.5977
1481.575802 0.5904 0.5831 0.5753 0.5653 0.5554
1486.590521 0.5446 0.5332 0.5219 0.5070 0.4925
1491.605240 0.4747 0.4786 0.4783 0.4823 0.5049
1496.619959 0.5349 0.5483 0.5533 0.5575 0.5629
1501.634678 0.5798 0.5983 0.6169 0.6356 0.6542
1506.649397 0.6728 0.6915 0.7052 0.7109 0.7140
1511.664115 0.7156 0.7169 0.7179 0.7184 0.7187
1516.678834 0.7184 0.7170 0.7171 0.7162 0.7127
1521.693553 0.7049 0.6956 0.6863 0.6769 0.6676
1526.708272 0.6583 0.6490 0.6397 0.6305 0.6237
1531.722991 0.6210 0.6206 0.6176 0.6255 0.6376
1536.737710 0.6458 0.6525 0.6557 0.6565 0.6566
1541.752429 0.6561 0.6558 0.6478 0.6339 0.6228
1546.767147 0.6117 0.6005 0.5894 0.5800 0.5735
1551.781866 0.5676 0.5621 0.5581 0.5542 0.5500
1556.796585 0.5452 0.5390 0.5191 0.4753 0.4264
1561.811304 0.3775 0.3286 0.2805 0.2433 0.2299
1566.826023 0.2221 0.2147 0.2087 0.2044 0.2039
1571.840742 0.2043 0.2024 0.2033 0.2045 0.2096
1576.855461 0.2289 0.2482 0.2677 0.2857 0.2949
1581.870180 0.2947 0.2952 0.2930 0.2846 0.2580
1586.884898 0.2314 0.2048 0.1781 0.1514 0.1248
1591.899617 0.0986 0.0792 0.0732 0.0688 0.0648
1596.914336 0.0644 0.0640 0.0639 0.0657 0.0645
1601.929055 0.0663 0.0718 0.0857 0.1099 0.1348
1606.943774 0.1597 0.1847 0.2096 0.2346 0.2594
1611.958493 0.2844 0.3093 0.3343 0.3592 0.3841
1616.973212 0.4090 0.4340 0.4589 0.4839 0.5088
1621.987931 0.5337 0.5646 0.5730 0.5795 0.5850
1627.002649 0.5901 0.5952 0.6014 0.6081 0.6148
1632.017368 0.6207 0.6253 0.6298 0.6343 0.6388
1637.032087 0.6426 0.6453 0.6479 0.6505 0.6531
1642.046806 0.6556 0.6580 0.6605 0.6629 0.6661
1647.061525 0.6698 0.6736 0.6773 0.6810 0.6847
1652.076244 0.6884 0.6929 0.6974 0.7019 0.7088
1657.090963 0.7158 0.7207 0.7255 0.7302 0.7345
1662.105681 0.7370 0.7394 0.7417 0.7438 0.7446
1667.120400 0.7453 0.7461 0.7468 0.7475 0.7482
1672.135119 0.7485 0.7488 0.7491 0.7493 0.7495
1677.149838 0.7488 0.7479 0.7470 0.7462 0.7449
1682.164557 0.7433 0.7418 0.7402 0.7393 0.7384
1687.179276 0.7376 0.7378 0.7382 0.7387 0.7396
1692.193995 0.7406 0.7417 0.7437 0.7460 0.7485
1697.208714 0.7516 0.7549 0.7582 0.7631 0.7694
1702.223432 0.7751 0.7799 0.7846 0.7881 0.7913
1707.238151 0.7940 0.7959 0.7976 0.7993 0.8005
1712.252870 0.8012 0.8017 0.8021 0.8026 0.8030
1717.267589 0.8035 0.8037 0.8039 0.8041 0.8042
1722.282308 0.8044 0.8046 0.8047 0.8049 0.8046
1727.297027 0.8043 0.8040 0.8036 0.8027 0.8011
1732.311746 0.7995 0.7983 0.7979 0.7978 0.7980
1737.326465 0.7982 0.7985 0.7987 0.7990 0.7996
1742.341183 0.8005 0.8014 0.8023 0.8032 0.8041
1747.355902 0.8050 0.8060 0.8070 0.8079 0.8089
1752.370621 0.8099 0.8108 0.8114 0.8120 0.8125
1757.385340 0.8131 0.8137 0.8142 0.8145 0.8147
1762.400059 0.8149 0.8151 0.8153 0.8155 0.8157
1767.414778 0.8159 0.8161 0.8163 0.8163 0.8161
1772.429497 0.8160 0.8158 0.8156 0.8154 0.8153
1777.444215 0.8151 0.8149 0.8148 0.8146 0.8144
1782.458934 0.8142 0.8140 0.8138 0.8135 0.8133
1787.473653 0.8130 0.8127 0.8125 0.8122 0.8120
1792.488372 0.8117 0.8115 0.8112 0.8110 0.8107
1797.503091 0.8105 0.8102 0.8099 0.8097 0.8095
1802.517810 0.8093 0.8091 0.8089 0.8086 0.8084
1807.532529 0.8082 0.8080 0.8078 0.8076 0.8072
1812.547248 0.8069 0.8065 0.8061 0.8058 0.8054
1817.561966 0.8052 0.8054 0.8058 0.8061 0.8064
1822.576685 0.8067 0.8071 0.8074 0.8077 0.8081
1827.591404 0.8084 0.8087 0.8091 0.8094 0.8099
1832.606123 0.8105 0.8111 0.8118 0.8124 0.8131
1837.620842 0.8137 0.8144 0.8150 0.8156 0.8163
1842.635561 0.8169 0.8177 0.8186 0.8194 0.8203
1847.650280 0.8212 0.8221 0.8229 0.8238 0.8247
1852.664999 0.8256 0.8265 0.8273 0.8280 0.8286
1857.679717 0.8293 0.8299 0.8305 0.8311 0.8316
1862.694436 0.8307 0.8280 0.8236 0.8193 0.8161
1867.709155 0.8134 0.8120 0.8110 0.8104 0.8098
1872.723874 0.8092 0.8087 0.8082 0.8079 0.8077
1877.738593 0.8075 0.8073 0.8071 0.8065 0.8056
1882.753312 0.8047 0.8037 0.8028 0.8018 0.8004
1887.768031 0.7988 0.7973 0.7963 0.7957 0.7950
1892.782749 0.7944 0.7937 0.7931 0.7924 0.7918
1897.797468 0.7912 0.7905 0.7899 0.7892 0.7888
1902.812187 0.7886 0.7884 0.7882 0.7886 0.7891
1907.826906 0.7897 0.7903 0.7909 0.7915 0.7922
1912.841625 0.7931 0.7942 0.7952 0.7962 0.7967
1917.856344 0.7969 0.7972 0.7975 0.7977 0.7980
1922.871063 0.7982 0.7985 0.7988 0.7990 0.7991
1927.885782 0.7990 0.7989 0.7987 0.7985 0.7984
1932.900500 0.7982 0.7980 0.7979 0.7977 0.7975
1937.915219 0.7973 0.7972 0.7970 0.7968 0.7967
1942.929938 0.7965 0.7964 0.7963 0.7962 0.7961
1947.944657 0.7959 0.7958 0.7957 0.7956 0.7955
1952.959376 0.7954 0.7951 0.7948 0.7945 0.7942
1957.974095 0.7939 0.7936 0.7933 0.7930 0.7927
1962.988814 0.7924 0.7920 0.7918 0.7916 0.7915
1968.003533 0.7913 0.7912 0.7911 0.7909 0.7909
1973.018251 0.7914 0.7921 0.7928 0.7934 0.7941
1978.032970 0.7948 0.7954 0.7961 0.7968 0.7974
1983.047689 0.7981 0.7987 0.7990 0.7993 0.7996
1988.062408 0.7998 0.8001 0.8004 0.8006 0.8008
1993.077127 0.8008 0.8007 0.8005 0.8003 0.8002
1998.091846 0.8000 0.7999 0.7997 0.7996 0.7994
2003.106565 0.7993 0.7991 0.7990 0.7989 0.7987
2008.121283 0.7986 0.7985 0.7984 0.7982 0.7981
2013.136002 0.7980 0.7978 0.7977 0.7976 0.7975
2018.150721 0.7973 0.7972 0.7972 0.7972 0.7971
2023.165440 0.7971 0.7970 0.7970 0.7970 0.7969
2028.180159 0.7969 0.7968 0.7968 0.7967 0.7967
2033.194878 0.7967 0.7966 0.7966 0.7965 0.7964
2038.209597 0.7963 0.7961 0.7960 0.7958 0.7957
2043.224316 0.7955 0.7954 0.7952 0.7951 0.7949
2048.239034 0.7948 0.7946 0.7945 0.7943 0.7942
2053.253753 0.7940 0.7939 0.7936 0.7933 0.7930
2058.268472 0.7927 0.7923 0.7920 0.7917 0.7913
2063.283191 0.7910 0.7907 0.7903 0.7900 0.7897
2068.297910 0.7893 0.7890 0.7887 0.7883 0.7880
2073.312629 0.7877 0.7874 0.7870 0.7867 0.7860
2078.327348 0.7852 0.7844 0.7836 0.7828 0.7820
2083.342067 0.7812 0.7804 0.7798 0.7793 0.7788
2088.356785 0.7783 0.7777 0.7772 0.7767 0.7762
2093.371504 0.7758 0.7755 0.7753 0.7752 0.7750
2098.386223 0.7748 0.7746 0.7744 0.7745 0.7746
2103.400942 0.7747 0.7747 0.7748 0.7749 0.7750
2108.415661 0.7751 0.7752 0.7753 0.7754 0.7755
2113.430380 0.7755 0.7756 0.7756 0.7757 0.7758
2118.445099 0.7758 0.7759 0.7759 0.7760 0.7761
2123.459817 0.7761 0.7762 0.7762 0.7763 0.7764
2128.474536 0.7764 0.7765 0.7765 0.7766 0.7765
2133.489255 0.7763 0.7761 0.7759 0.7756 0.7754
2138.503974 0.7752 0.7750 0.7747 0.7745 0.7743
2143.518693 0.7740 0.7737 0.7734 0.7731 0.7729
2148.533412 0.7726 0.7723 0.7721 0.7719 0.7718
2153.548131 0.7717 0.7715 0.7714 0.7713 0.7712
2158.562850 0.7711 0.7710 0.7709 0.7708 0.7708
2163.577568 0.7710 0.7712 0.7715 0.7717 0.7720
2168.592287 0.7722 0.7725 0.7727 0.7730 0.7732
2173.607006 0.7735 0.7737 0.7739 0.7741 0.7742
2178.621725 0.7744 0.7745 0.7747 0.7749 0.7750
2183.636444 0.7751 0.7749 0.7748 0.7746 0.7745
2188.651163 0.7743 0.7742 0.7741 0.7740 0.7739
2193.665882 0.7737 0.7734 0.7730 0.7727 0.7724
2198.680601 0.7720 0.7717 0.7714 0.7710 0.7707
2203.695319 0.7704 0.7700 0.7697 0.7694 0.7691
2208.710038 0.7687 0.7684 0.7681 0.7678 0.7675
2213.724757 0.7672 0.7669 0.7667 0.7664 0.7662
2218.739476 0.7660 0.7657 0.7654 0.7650 0.7647
2223.754195 0.7645 0.7644 0.7642 0.7640 0.7639
2228.768914 0.7637 0.7636 0.7634 0.7632 0.7631
2233.783633 0.7629 0.7628 0.7626 0.7625 0.7624
2238.798351 0.7624 0.7624 0.7625 0.7628 0.7631
2243.813070 0.7633 0.7636 0.7638 0.7642 0.7647
2248.827789 0.7653 0.7658 0.7653 0.7635 0.7617
2253.842508 0.7601 0.7589 0.7580 0.7572 0.7565
2258.857227 0.7561 0.7560 0.7558 0.7556 0.7554
2263.871946 0.7552 0.7549 0.7547 0.7545 0.7543
2268.886665 0.7541 0.7539 0.7537 0.7535 0.7533
2273.901384 0.7530 0.7528 0.7526 0.7524 0.7522
2278.916102 0.7520 0.7518 0.7516 0.7514 0.7514
2283.930821 0.7513 0.7513 0.7513 0.7512 0.7512
2288.945540 0.7512 0.7512 0.7512 0.7512 0.7511
2293.960259 0.7511 0.7511 0.7511 0.7511 0.7511
2298.974978 0.7511 0.7511 0.7511 0.7511 0.7511
2303.989697 0.7511 0.7512 0.7513 0.7513 0.7514
2309.004416 0.7514 0.7515 0.7516 0.7516 0.7516
2314.019135 0.7515 0.7514 0.7513 0.7511 0.7510
2319.033853 0.7509 0.7507 0.7506 0.7505 0.7503
2324.048572 0.7502 0.7501 0.7501 0.7501 0.7501
2329.063291 0.7501 0.7501 0.7502 0.7502 0.7502
2334.078010 0.7502 0.7503 0.7503 0.7503 0.7503
2339.092729 0.7504 0.7504 0.7502 0.7501 0.7499
2344.107448 0.7497 0.7495 0.7494 0.7492 0.7490
2349.122167 0.7489 0.7487 0.7485 0.7484 0.7482
2354.136885 0.7478 0.7470 0.7457 0.7445 0.7433
2359.151604 0.7420 0.7408 0.7395 0.7384 0.7380
2364.166323 0.7379 0.7377 0.7376 0.7375 0.7373
2369.181042 0.7372 0.7370 0.7369 0.7368 0.7366
2374.195761 0.7366 0.7371 0.7378 0.7386 0.7394
2379.210480 0.7402 0.7409 0.7417 0.7425 0.7431
2384.225199 0.7434 0.7435 0.7437 0.7438 0.7440
2389.239918 0.7441 0.7443 0.7444 0.7445 0.7444
2394.254636 0.7442 0.7439 0.7437 0.7434 0.7431
2399.269355 0.7429 0.7426 0.7424 0.7421 0.7419
2404.284074 0.7416 0.7414 0.7411 0.7410 0.7410
2409.298793 0.7409 0.7409 0.7408 0.7408 0.7408
2414.313512 0.7407 0.7407 0.7406 0.7405 0.7401
2419.328231 0.7396 0.7391 0.7386 0.7381 0.7376
2424.342950 0.7371 0.7365 0.7350 0.7326 0.7301
2429.357669 0.7280 0.7263 0.7246 0.7229 0.7212
2434.372387 0.7195 0.7178 0.7161 0.7147 0.7135
2439.387106 0.7124 0.7115 0.7112 0.7110 0.7108
2444.401825 0.7105 0.7103 0.7100 0.7099 0.7098
2449.416544 0.7097 0.7096 0.7095 0.7094 0.7092
2454.431263 0.7090 0.7089 0.7087 0.7085 0.7083
2459.445982 0.7082 0.7080 0.7080 0.7082 0.7085
2464.460701 0.7088 0.7092 0.7096 0.7102 0.7108
2469.475419 0.7114 0.7116 0.7116 0.7117 0.7118
2474.490138 0.7119 0.7119 0.7120 0.7120 0.7120
2479.504857 0.7120 0.7120 0.7120 0.7120 0.7120
2484.519576 0.7120 0.7120 0.7120 0.7120 0.7120
2489.534295 0.7119 0.7117 0.7116 0.7114 0.7113
2494.549014 0.7112 0.7110 0.7109 0.7109 0.7108
2499.563733 0.7108 0.7107 0.7107 0.7106 0.7105
2504.578452 0.7104 0.7104 0.7103 0.7102 0.7102
2509.593170 0.7101 0.7101 0.7101 0.7102 0.7102
2514.607889 0.7102 0.7102 0.7102 0.7103 0.7103
2519.622608 0.7103 0.7103 0.7104 0.7104 0.7104
2524.637327 0.7103 0.7100 0.7095 0.7089 0.7083
2529.652046 0.7078 0.7071 0.7063 0.7053 0.7044
2534.666765 0.7034 0.7027 0.7020 0.7014 0.7013
2539.681484 0.7017 0.7020 0.7023 0.7028 0.7033
2544.696203 0.7038 0.7042 0.7044 0.7046 0.7047
2549.710921 0.7047 0.7043 0.7038 0.7033 0.7028
2554.725640 0.7022 0.7014 0.7006 0.6998 0.6991
2559.740359 0.6985 0.6980 0.6975 0.6971 0.6966
2564.755078 0.6961 0.6957 0.6953 0.6951 0.6951
2569.769797 0.6950 0.6950 0.6949 0.6948 0.6945
2574.784516 0.6943 0.6940 0.6937 0.6935 0.6932
2579.799235 0.6930 0.6927 0.6925 0.6922 0.6920
2584.813953 0.6920 0.6919 0.6919 0.6919 0.6918
2589.828672 0.6919 0.6923 0.6926 0.6929 0.6933
2594.843391 0.6936 0.6938 0.6939 0.6939 0.6938
2599.858110 0.6933 0.6923 0.6914 0.6904 0.6895
2604.872829 0.6885 0.6876 0.6866 0.6853 0.6840
2609.887548 0.6826 0.6814 0.6808 0.6802 0.6797
2614.902267 0.6791 0.6786 0.6780 0.6776 0.6775
2619.916986 0.6773 0.6771 0.6769 0.6768 0.6766
2624.931704 0.6764 0.6762 0.6761 0.6759 0.6757
2629.946423 0.6755 0.6754 0.6752 0.6750 0.6748
2634.961142 0.6747 0.6745 0.6744 0.6742 0.6741
2639.975861 0.6739 0.6738 0.6736 0.6735 0.6733
2644.990580 0.6731 0.6730 0.6728 0.6727 0.6725
2650.005299 0.6724 0.6722 0.6721 0.6719 0.6718
2655.020018 0.6716 0.6715 0.6713 0.6711 0.6710
2660.034737 0.6708 0.6707 0.6706 0.6705 0.6705
2665.049455 0.6704 0.6704 0.6703 0.6703 0.6703
2670.064174 0.6702 0.6702 0.6701 0.6701 0.6701
2675.078893 0.6700 0.6700 0.6699 0.6699 0.6698
2680.093612 0.6698 0.6698 0.6698 0.6698 0.6698
2685.108331 0.6697 0.6697 0.6697 0.6697 0.6697
2690.123050 0.6697 0.6694 0.6692 0.6690 0.6687
2695.137769 0.6685 0.6681 0.6672 0.6663 0.6655
2700.152487 0.6646 0.6638 0.6629 0.6621 0.6612
2705.167206 0.6605 0.6597 0.6589 0.6582 0.6574
2710.181925 0.6566 0.6560 0.6557 0.6564 0.6572
2715.196644 0.6584 0.6596 0.6608 0.6620 0.6630
2720.211363 0.6636 0.6642 0.6648 0.6653 0.6650
2725.226082 0.6646 0.6642 0.6638 0.6634 0.6628
2730.240801 0.6621 0.6614 0.6607 0.6599 0.6592
2735.255520 0.6585 0.6573 0.6562 0.6551 0.6539
2740.270238 0.6528 0.6517 0.6505 0.6492 0.6480
2745.284957 0.6468 0.6455 0.6443 0.6431 0.6418
2750.299676 0.6406 0.6396 0.6391 0.6386 0.6381
2755.314395 0.6376 0.6371 0.6366 0.6361 0.6358
2760.329114 0.6355 0.6352 0.6348 0.6345 0.6342
2765.343833 0.6339 0.6335 0.6331 0.6326 0.6321
2770.358552 0.6317 0.6312 0.6308 0.6303 0.6299
2775.373271 0.6294 0.6290 0.6285 0.6280 0.6274
2780.387989 0.6269 0.6264 0.6259 0.6253 0.6248
2785.402708 0.6243 0.6238 0.6232 0.6225 0.6216
2790.417427 0.6207 0.6198 0.6190 0.6181 0.6172
2795.432146 0.6163 0.6154 0.6146 0.6136 0.6125
2800.446865 0.6115 0.6105 0.6094 0.6084 0.6074
2805.461584 0.6063 0.6053 0.6043 0.6041 0.6040
2810.476303 0.6039 0.6038 0.6037 0.6036 0.6036
2815.491021 0.6036 0.6037 0.6038 0.6039 0.6039
2820.505740 0.6040 0.6041 0.6041 0.6039 0.6035
2825.520459 0.6032 0.6026 0.6020 0.6014 0.6007
2830.535178 0.6001 0.5995 0.5987 0.5979 0.5971
2835.549897 0.5963 0.5955 0.5947 0.5939 0.5931
2840.564616 0.5923 0.5915 0.5907 0.5899 0.5891
2845.579335 0.5883 0.5875 0.5862 0.5848 0.5835
2850.594054 0.5822 0.5809 0.5796 0.5782 0.5769
2855.608772 0.5756 0.5743 0.5724 0.5702 0.5680
2860.623491 0.5658 0.5637 0.5615 0.5590 0.5552
2865.638210 0.5514 0.5476 0.5437 0.5400 0.5380
2870.652929 0.5360 0.5341 0.5321 0.5302 0.5289
2875.667648 0.5286 0.5283 0.5280 0.5277 0.5273
2880.682367 0.5270 0.5267 0.5264 0.5259 0.5254
2885.697086 0.5249 0.5244 0.5239 0.5234 0.5229
2890.711805 0.5222 0.5214 0.5206 0.5197 0.5189
2895.726523 0.5198 0.5191 0.5197 0.5203 0.5208
2900.741242 0.5214 0.5226 0.5240 0.5253 0.5267
2905.755961 0.5281 0.5295 0.5304 0.5311 0.5318
2910.770680 0.5321 0.5319 0.5317 0.5315 0.5313
2915.785399 0.5306 0.5291 0.5274 0.5258 0.5242
2920.800118 0.5226 0.5206 0.5186 0.5166 0.5135
2925.814837 0.5102 0.5069 0.5035 0.5000 0.4960
2930.829555 0.4918 0.4877 0.4836 0.4808 0.4782
2935.844274 0.4756 0.4732 0.4710 0.4690 0.4669
2940.858993 0.4649 0.4641 0.4636 0.4632 0.4629
2945.873712 0.4610 0.4620 0.4617 0.4613 0.4612
2950.888431 0.4621 0.4632 0.4654 0.4678 0.4702
2955.903150 0.4726 0.4754 0.4782 0.4810 0.4839
2960.917869 0.4875 0.4915 0.4954 0.4993 0.5033
2965.932588 0.5073 0.5114 0.5155 0.5197 0.5246
2970.947306 0.5296 0.5343 0.5375 0.5407 0.5438
2975.962025 0.5451 0.5461 0.5472 0.5482 0.5492
2980.976744 0.5502 0.5511 0.5519 0.5527 0.5535
2985.991463 0.5543 0.5552 0.5560 0.5568 0.5576
2991.006182 0.5585 0.5594 0.5602 0.5611 0.5619
2996.020901 0.5630 0.5657 0.5684 0.5712 0.5743
3001.035620 0.5775 0.5788 0.5787 0.5787 0.5786
3006.050339 0.5786 0.5785 0.5786 0.5786 0.5786
3011.065057 0.5786 0.5787 0.5788 0.5789 0.5790
3016.079776 0.5791 0.5792 0.5794 0.5795 0.5796
3021.094495 0.5799 0.5838 0.5790 0.5788 0.5786
3026.109214 0.5785 0.5783 0.5781 0.5779 0.5777
3031.123933 0.5774 0.5769 0.5764 0.5759 0.5754
3036.138652 0.5749 0.5744 0.5738 0.5731 0.5725
3041.153371 0.5718 0.5711 0.5704 0.5701 0.5697
3046.168089 0.5694 0.5690 0.5686 0.5683 0.5679
3051.182808 0.5676 0.5672 0.5668 0.5666 0.5664
3056.197527 0.5664 0.5664 0.5663 0.5663 0.5663
3061.212246 0.5662 0.5663 0.5666 0.5669 0.5673
3066.226965 0.5678 0.5685 0.5693 0.5700 0.5708
3071.241684 0.5716 0.5722 0.5725 0.5726 0.5728
3076.256403 0.5729 0.5731 0.5732 0.5733 0.5734
3081.271122 0.5735 0.5736 0.5737 0.5736 0.5736
3086.285840 0.5736 0.5736 0.5736 0.5736 0.5735
3091.300559 0.5735 0.5735 0.5734 0.5733 0.5732
3096.315278 0.5730 0.5729 0.5728 0.5727 0.5726
3101.329997 0.5724 0.5723 0.5722 0.5721 0.5720
3106.344716 0.5718 0.5715 0.5712 0.5710 0.5707
3111.359435 0.5705 0.5702 0.5699 0.5693 0.5687
3116.374154 0.5681 0.5676 0.5670 0.5664 0.5658
3121.388873 0.5653 0.5647 0.5641 0.5635 0.5630
3126.403591 0.5622 0.5614 0.5605 0.5597 0.5588
3131.418310 0.5580 0.5571 0.5561 0.5550 0.5538
3136.433029 0.5527 0.5516 0.5504 0.5493 0.5482
3141.447748 0.5470 0.5459 0.5447 0.5436 0.5425
3146.462467 0.5414 0.5404 0.5394 0.5384 0.5374
3151.477186 0.5364 0.5353 0.5343 0.5333 0.5323
3156.491905 0.5313 0.5303 0.5293 0.5282 0.5272
3161.506623 0.5262 0.5252 0.5242 0.5231 0.5218
3166.521342 0.5206 0.5193 0.5180 0.5167 0.5155
3171.536061 0.5142 0.5129 0.5117 0.5104 0.5091
3176.550780 0.5080 0.5068 0.5057 0.5045 0.5034
3181.565499 0.5023 0.5012 0.5002 0.4991 0.4980
3186.580218 0.4970 0.4959 0.4948 0.4937 0.4926
3191.594937 0.4915 0.4905 0.4894 0.4883 0.4873
3196.609656 0.4862 0.4851 0.4840 0.4828 0.4815
3201.624374 0.4803 0.4790 0.4778 0.4765 0.4753
3206.639093 0.4741 0.4729 0.4716 0.4704 0.4691
3211.653812 0.4677 0.4662 0.4648 0.4634 0.4620
3216.668531 0.4604 0.4589 0.4574 0.4559 0.4543
3221.683250 0.4528 0.4513 0.4498 0.4482 0.4467
3226.697969 0.4452 0.4436 0.4420 0.4405 0.4390
3231.712688 0.4374 0.4357 0.4339 0.4322 0.4305
3236.727407 0.4288 0.4271 0.4253 0.4235 0.4215
3241.742125 0.4193 0.4170 0.4148 0.4125 0.4103
3246.756844 0.4081 0.4059 0.4040 0.4023 0.4005
3251.771563 0.3987 0.3969 0.3951 0.3934 0.3916
3256.786282 0.3898 0.3880 0.3861 0.3840 0.3820
3261.801001 0.3800 0.3780 0.3759 0.3739 0.3719
3266.815720 0.3696 0.3672 0.3647 0.3623 0.3598
3271.830439 0.3573 0.3549 0.3533 0.3519 0.3505
3276.845157 0.3491 0.3477 0.3464 0.3462 0.3475
3281.859876 0.3464 0.3465 0.3469 0.3474 0.3479
3286.874595 0.3484 0.3489 0.3497 0.3506 0.3515
3291.889314 0.3524 0.3533 0.3542 0.3551 0.3560
3296.904033 0.3569 0.3577 0.3585 0.3593 0.3601
3301.918752 0.3609 0.3617 0.3624 0.3632 0.3640
3306.933471 0.3648 0.3659 0.3671 0.3684 0.3696
3311.948190 0.3706 0.3714 0.3722 0.3732 0.3746
3316.962908 0.3761 0.3777 0.3793 0.3799 0.3806
3321.977627 0.3812 0.3814 0.3816 0.3840 0.3813
3326.992346 0.3806 0.3799 0.3792 0.3785 0.3770
3332.007065 0.3754 0.3737 0.3721 0.3705 0.3688
3337.021784 0.3670 0.3651 0.3645 0.3644 0.3642
3342.036503 0.3641 0.3640 0.3638 0.3636 0.3633
3347.051222 0.3631 0.3627 0.3609 0.3590 0.3571
3352.065941 0.3552 0.3532 0.3506 0.3481 0.3456
3357.080659 0.3430 0.3398 0.3366 0.3334 0.3306
3362.095378 0.3278 0.3251 0.3224 0.3198 0.3171
3367.110097 0.3144 0.3119 0.3100 0.3080 0.3060
3372.124816 0.3040 0.3020 0.3000 0.2980 0.2962
3377.139535 0.2945 0.2935 0.2925 0.2914 0.2904
3382.154254 0.2899 0.2898 0.2896 0.2895 0.2897
3387.168973 0.2905 0.2929 0.2948 0.2967 0.2989
3392.183691 0.3011 0.3034 0.3056 0.3079 0.3103
3397.198410 0.3126 0.3150 0.3173 0.3197 0.3222
3402.213129 0.3254 0.3289 0.3324 0.3359 0.3394
3407.227848 0.3430 0.3468 0.3506 0.3544 0.3580
3412.242567 0.3611 0.3640 0.3669 0.3698 0.3727
3417.257286 0.3755 0.3784 0.3812 0.3841 0.3868
3422.272005 0.3888 0.3908 0.3928 0.3945 0.3957
3427.286724 0.3968 0.3980 0.3992 0.4004 0.4015
3432.301442 0.4026 0.4035 0.4044 0.4054 0.4063
3437.316161 0.4072 0.4082 0.4091 0.4100 0.4110
3442.330880 0.4119 0.4127 0.4134 0.4142 0.4150
3447.345599 0.4157 0.4165 0.4173 0.4183 0.4202
3452.360318 0.4231 0.4261 0.4290 0.4315 0.4330
3457.375037 0.4338 0.4342 0.4344 0.4347 0.4349
3462.389756 0.4352 0.4354 0.4356 0.4359 0.4361
3467.404475 0.4364 0.4366 0.4369 0.4370 0.4372
3472.419193 0.4373 0.4375 0.4376 0.4380 0.4390
3477.433912 0.4402 0.4414 0.4425 0.4437 0.4451
3482.448631 0.4467 0.4483 0.4500 0.4516 0.4532
3487.463350 0.4548 0.4564 0.4581 0.4598 0.4617
3492.478069 0.4635 0.4653 0.4671 0.4689 0.4707
3497.492788 0.4725 0.4743 0.4761 0.4778 0.4794
3502.507507 0.4810 0.4827 0.4843 0.4859 0.4875
3507.522225 0.4890 0.4900 0.4908 0.4916 0.4924
3512.536944 0.4932 0.4939 0.4947 0.4955 0.4963
3517.551663 0.4971 0.4979 0.4986 0.4994 0.5002
3522.566382 0.5016 0.5039 0.5067 0.5095 0.5122
3527.581101 0.5146 0.5160 0.5166 0.5169 0.5173
3532.595820 0.5176 0.5180 0.5183 0.5187 0.5191
3537.610539 0.5194 0.5196 0.5198 0.5201 0.5203
3542.625258 0.5205 0.5207 0.5209 0.5214 0.5226
3547.639976 0.5240 0.5254 0.5269 0.5283 0.5297
3552.654695 0.5311 0.5326 0.5340 0.5355 0.5369
3557.669414 0.5384 0.5398 0.5413 0.5428 0.5443
3562.684133 0.5457 0.5471 0.5483 0.5494 0.5506
3567.698852 0.5517 0.5528 0.5540 0.5551 0.5563
3572.713571 0.5574 0.5585 0.5597 0.5608 0.5619
3577.728290 0.5629 0.5636 0.5643 0.5650 0.5656
3582.743009 0.5663 0.5670 0.5676 0.5683 0.5690
3587.757727 0.5697 0.5703 0.5709 0.5713 0.5718
3592.772446 0.5722 0.5727 0.5731 0.5735 0.5742
3597.787165 0.5751 0.5760 0.5769 0.5778 0.5787
3602.801884 0.5796 0.5805 0.5813 0.5819 0.5823
3607.816603 0.5826 0.5830 0.5834 0.5838 0.5842
3612.831322 0.5846 0.5849 0.5853 0.5857 0.5861
3617.846041 0.5863 0.5865 0.5868 0.5870 0.5872
3622.860759 0.5875 0.5877 0.5879 0.5881 0.5884
3627.875478 0.5887 0.5891 0.5895 0.5900 0.5913
3632.890197 0.5933 0.5954 0.5974 0.5997 0.6031
3637.904916 0.6065 0.6088 0.6105 0.6123 0.6134
3642.919635 0.6143 0.6151 0.6154 0.6156 0.6157
3647.934354 0.6159 0.6161 0.6163 0.6164 0.6166
3652.949073 0.6169 0.6171 0.6173 0.6176 0.6178
3657.963792 0.6181 0.6183 0.6186 0.6193 0.6204
3662.978510 0.6216 0.6227 0.6239 0.6250 0.6262
3667.993229 0.6273 0.6283 0.6292 0.6302 0.6311
3673.007948 0.6313 0.6313 0.6312 0.6312 0.6312
3678.022667 0.6311 0.6310 0.6308 0.6306 0.6304
3683.037386 0.6302 0.6300 0.6298 0.6296 0.6294
3688.052105 0.6292 0.6290 0.6288 0.6285 0.6281
3693.066824 0.6277 0.6273 0.6270 0.6266 0.6262
3698.081543 0.6258 0.6254 0.6251 0.6247 0.6243
3703.096261 0.6239 0.6238 0.6238 0.6237 0.6236
3708.110980 0.6235 0.6235 0.6234 0.6236 0.6242
3713.125699 0.6250 0.6257 0.6263 0.6270 0.6278
3718.140418 0.6281 0.6281 0.6280 0.6279 0.6279
3723.155137 0.6277 0.6273 0.6269 0.6266 0.6262
3728.169856 0.6258 0.6254 0.6250 0.6246 0.6243
3733.184575 0.6239 0.6235 0.6232 0.6230 0.6237
3738.199293 0.6264 0.6225 0.6224 0.6222 0.6220
3743.214012 0.6219 0.6217 0.6217 0.6216 0.6215
3748.228731 0.6214 0.6213 0.6212 0.6212 0.6211
3753.243450 0.6210 0.6209 0.6209 0.6210 0.6213
3758.258169 0.6215 0.6217 0.6220 0.6222 0.6224
3763.272888 0.6226 0.6228 0.6230 0.6232 0.6234
3768.287607 0.6236 0.6240 0.6243 0.6247 0.6251
3773.302326 0.6254 0.6258 0.6261 0.6265 0.6269
3778.317044 0.6272 0.6276 0.6279 0.6283 0.6286
3783.331763 0.6290 0.6294 0.6296 0.6298 0.6300
3788.346482 0.6303 0.6305 0.6307 0.6310 0.6312
3793.361201 0.6314 0.6316 0.6319 0.6321 0.6323
3798.375920 0.6326 0.6328 0.6330 0.6331 0.6330
3803.390639 0.6330 0.6329 0.6328 0.6327 0.6326
3808.405358 0.6326 0.6325 0.6324 0.6323 0.6323
3813.420077 0.6322 0.6321 0.6320 0.6318 0.6316
3818.434795 0.6313 0.6311 0.6308 0.6306 0.6303
3823.449514 0.6301 0.6298 0.6296 0.6293 0.6291
3828.464233 0.6288 0.6286 0.6283 0.6281 0.6278
3833.478952 0.6276 0.6273 0.6271 0.6268 0.6265
3838.493671 0.6262 0.6260 0.6257 0.6253 0.6251
3843.508390 0.6248 0.6245 0.6242 0.6240 0.6237
3848.523109 0.6234 0.6231 0.6227 0.6222 0.6216
3853.537827 0.6210 0.6205 0.6199 0.6193 0.6188
3858.552546 0.6182 0.6176 0.6171 0.6165 0.6157
3863.567265 0.6148 0.6139 0.6130 0.6121 0.6112
3868.581984 0.6103 0.6096 0.6089 0.6082 0.6075
3873.596703 0.6072 0.6070 0.6069 0.6067 0.6066
3878.611422 0.6064 0.6063 0.6061 0.6060 0.6059
3883.626141 0.6058 0.6058 0.6057 0.6056 0.6056
3888.640860 0.6055 0.6055 0.6054 0.6054 0.6053
3893.655578 0.6052 0.6052 0.6051 0.6051 0.6050
3898.670297 0.6049 0.6049 0.6048 0.6047 0.6045
3903.685016 0.6043 0.6042 0.6040 0.6037 0.6033
3908.699735 0.6028 0.6022 0.6017 0.6012 0.6007
3913.714454 0.6003 0.5998 0.5993 0.5988 0.5984
3918.729173 0.5979 0.5974 0.5970 0.5965 0.5961
3923.743892 0.5958 0.5954 0.5951 0.5947 0.5944
3928.758611 0.5940 0.5937 0.5933 0.5930 0.5926
3933.773329 0.5924 0.5924 0.5925 0.5925 0.5925
3938.788048 0.5925 0.5925 0.5926 0.5926 0.5926
3943.802767 0.5927 0.5930 0.5933 0.5937 0.5941
3948.817486 0.5944 0.5948 0.5952 0.5956 0.5959
3953.832205 0.5963 0.5967 0.5971 0.5974 0.5976
3958.846924 0.5977 0.5978 0.5978 0.5979 0.5980
3963.861643 0.5980 0.5981 0.5982 0.5980 0.5977
3968.876361 0.5974 0.5971 0.5968 0.5964 0.5961
3973.891080 0.5958 0.5955 0.5952 0.5949 0.5946
3978.905799 0.5943 0.5940 0.5938 0.5935 0.5932
3983.920518 0.5929 0.5926 0.5922 0.5918 0.5913
3988.935237 0.5909 0.5905 0.5901 0.5900 0.5903
3993.949956 0.5906 0.5910 0.5915 0.5921 0.5956
3998.964675 0.6017 0.6050 0.6068 0.6078 0.6077
4003.979394 0.6075 0.6066 0.6056 0.6047 0.6037
4008.994112 0.6028 0.6023
##END=
