##TITLE=Acetanilide, 2-methyl-3-nitro-6-tert-butyl-
##JCAMP-DX=4.24
##DATA TYPE=INFRARED SPECTRUM
##CLASS=COBLENTZ III
##ORIGIN=MONSANTO (J. FREEMAN)
##OWNER=Copyright (C) 1987 by the Coblentz Society
Collection (C) 2018 copyright by the U.S. Secretary of Commerce
on behalf of the United States of America. All rights reserved.
##DATE=1959/12/21
##NAMES=N-(6-tert-butyl-2-methyl-3-nitrophenyl)acetamide
##MOLFORM=C13 H18 N2 O3
##SOURCE REFERENCE=COBLENTZ NO. 9294
##$NIST ID=B6009294
##$NIST SOURCE=COBLENTZ
##$NIST IMAGE=cob9294
##SPECTROMETER/DATA SYSTEM=BECKMAN IR-4 (HYBRID PRISM-GRATING)
##INSTRUMENT PARAMETERS=NaCl PRISM
##STATE=SOLID (NUJOL MULL)
$$SPECTRAL CONTAMINATION DUE TO OIL AROUND 2900, 1450 CM^-^1
##SAMPLING PROCEDURE=TRANSMISSION
##RESOLUTION=2
##DATA PROCESSING=DIGITIZED BY COBLENTZ SOCIETY (BATCH II) FROM HARD COPY
##XUNITS=1/CM
##YUNITS=TRANSMITTANCE
##XFACTOR=1.0
##YFACTOR=1
##FIRSTX=628
##LASTX=4000
##FIRSTY=0.9934
##MAXX=4000
##MINX=628
##MAXY=1.021
##MINY=0.0432
##NPOINTS=3373
##XYDATA=(X++(Y..Y))
628.000000 0.9934 0.9939 0.9940 0.9932 0.9919
633.000000 0.9905 0.9891 0.9884 0.9884 0.9894
638.000000 0.9918 0.9885 0.9833 0.9802 0.9807
643.000000 0.9835 0.9860 0.9882 0.9912 0.9947
648.000000 0.9987 1.0074 1.0124 1.0156 1.0171
653.000000 1.0182 1.0190 1.0190 1.0190 1.0191
658.000000 1.0210 1.0193 1.0192 1.0195 1.0198
663.000000 1.0199 1.0198 1.0193 1.0186 1.0169
668.000000 1.0111 1.0097 1.0085 1.0012 0.9938
673.000000 0.9864 0.9801 0.9712 0.9593 0.9472
678.000000 0.9343 0.9204 0.9060 0.8924 0.8790
683.000000 0.8656 0.8527 0.8408 0.8283 0.8159
688.000000 0.8045 0.7929 0.7808 0.7696 0.7590
693.000000 0.7490 0.7409 0.7336 0.7299 0.7262
698.000000 0.7225 0.7185 0.7079 0.6936 0.6747
703.000000 0.6637 0.6569 0.6534 0.6525 0.6530
708.000000 0.6594 0.6672 0.6835 0.6981 0.7160
713.000000 0.7348 0.7503 0.7631 0.7742 0.7832
718.000000 0.7906 0.7970 0.8021 0.8074 0.8128
723.000000 0.8182 0.8234 0.8289 0.8351 0.8412
728.000000 0.8471 0.8529 0.8579 0.8623 0.8655
733.000000 0.8667 0.8674 0.8671 0.8625 0.8556
738.000000 0.8464 0.8317 0.8068 0.7298 0.6506
743.000000 0.6171 0.6144 0.6122 0.6800 0.7318
748.000000 0.7836 0.8189 0.8506 0.8799 0.8969
753.000000 0.9099 0.9179 0.9239 0.9294 0.9336
758.000000 0.9352 0.9347 0.9353 0.9332 0.9304
763.000000 0.9245 0.9056 0.8622 0.8394 0.8351
768.000000 0.8491 0.8785 0.9085 0.9278 0.9352
773.000000 0.9393 0.9420 0.9437 0.9454 0.9469
778.000000 0.9483 0.9499 0.9517 0.9547 0.9585
783.000000 0.9623 0.9652 0.9670 0.9685 0.9680
788.000000 0.9693 0.9691 0.9688 0.9686 0.9684
793.000000 0.9681 0.9677 0.9659 0.9612 0.9542
798.000000 0.9434 0.9309 0.9133 0.8924 0.8463
803.000000 0.8357 0.8352 0.8698 0.8982 0.9265
808.000000 0.9527 0.9630 0.9673 0.9687 0.9691
813.000000 0.9692 0.9653 0.9684 0.9677 0.9665
818.000000 0.9651 0.9633 0.9607 0.9556 0.9481
823.000000 0.9382 0.9274 0.9149 0.9003 0.8836
828.000000 0.8606 0.7908 0.7099 0.6291 0.5769
833.000000 0.5895 0.6179 0.6211 0.5725 0.5239
838.000000 0.4936 0.5098 0.5715 0.6331 0.6945
843.000000 0.7557 0.8168 0.8718 0.9003 0.9152
848.000000 0.9276 0.9354 0.9419 0.9471 0.9499
853.000000 0.9519 0.9539 0.9559 0.9578 0.9590
858.000000 0.9602 0.9614 0.9628 0.9641 0.9659
863.000000 0.9677 0.9692 0.9704 0.9771 0.9727
868.000000 0.9733 0.9739 0.9744 0.9750 0.9749
873.000000 0.9748 0.9747 0.9737 0.9723 0.9708
878.000000 0.9687 0.9657 0.9610 0.9549 0.9483
883.000000 0.9392 0.9291 0.9156 0.9199 0.9258
888.000000 0.9351 0.9433 0.9516 0.9590 0.9664
893.000000 0.9725 0.9761 0.9781 0.9788 0.9790
898.000000 0.9789 0.9788 0.9786 0.9784 0.9782
903.000000 0.9779 0.9755 0.9774 0.9775 0.9776
908.000000 0.9781 0.9785 0.9787 0.9784 0.9775
913.000000 0.9767 0.9759 0.9747 0.9733 0.9719
918.000000 0.9702 0.9685 0.9668 0.9646 0.9622
923.000000 0.9595 0.9561 0.9518 0.9464 0.9404
928.000000 0.9338 0.9244 0.9149 0.9066 0.9015
933.000000 0.9000 0.8994 0.8989 0.8940 0.8710
938.000000 0.8422 0.8174 0.8070 0.8015 0.7997
943.000000 0.7978 0.8025 0.8162 0.8349 0.8536
948.000000 0.8723 0.8909 0.9080 0.9201 0.9302
953.000000 0.9369 0.9427 0.9476 0.9522 0.9559
958.000000 0.9583 0.9606 0.9619 0.9624 0.9630
963.000000 0.9613 0.9598 0.9580 0.9560 0.9542
968.000000 0.9524 0.9493 0.9431 0.9351 0.9216
973.000000 0.9039 0.8873 0.8703 0.8550 0.8520
978.000000 0.8682 0.8869 0.9010 0.9164 0.9295
983.000000 0.9399 0.9461 0.9503 0.9543 0.9579
988.000000 0.9594 0.9604 0.9605 0.9594 0.9592
993.000000 0.9577 0.9556 0.9523 0.9488 0.9454
998.000000 0.9420 0.9386 0.9346 0.9297 0.9248
1003.000000 0.9198 0.9147 0.9086 0.9017 0.8941
1008.000000 0.8883 0.8842 0.8816 0.8799 0.8837
1013.000000 0.8890 0.8949 0.9023 0.9121 0.9208
1018.000000 0.9292 0.9382 0.9467 0.9528 0.9548
1023.000000 0.9549 0.9556 0.9507 0.9465 0.9418
1028.000000 0.9368 0.9315 0.9260 0.9207 0.9155
1033.000000 0.9106 0.9063 0.9030 0.9003 0.8983
1038.000000 0.8962 0.8937 0.8904 0.8847 0.8776
1043.000000 0.8702 0.8610 0.8517 0.8440 0.8375
1048.000000 0.8325 0.8296 0.8289 0.8296 0.8300
1053.000000 0.8478 0.8712 0.8945 0.9148 0.9236
1058.000000 0.9324 0.9375 0.9425 0.9476 0.9518
1063.000000 0.9558 0.9597 0.9624 0.9650 0.9675
1068.000000 0.9694 0.9712 0.9725 0.9738 0.9750
1073.000000 0.9759 0.9769 0.9779 0.9788 0.9795
1078.000000 0.9801 0.9808 0.9813 0.9818 0.9822
1083.000000 0.9825 0.9828 0.9831 0.9835 0.9839
1088.000000 0.9840 0.9841 0.9842 0.9843 0.9844
1093.000000 0.9845 0.9846 0.9832 0.9846 0.9846
1098.000000 0.9846 0.9846 0.9845 0.9845 0.9845
1103.000000 0.9845 0.9845 0.9844 0.9844 0.9843
1108.000000 0.9842 0.9842 0.9841 0.9841 0.9839
1113.000000 0.9838 0.9837 0.9836 0.9835 0.9834
1118.000000 0.9833 0.9832 0.9831 0.9830 0.9829
1123.000000 0.9828 0.9822 0.9816 0.9810 0.9804
1128.000000 0.9798 0.9793 0.9787 0.9781 0.9774
1133.000000 0.9765 0.9748 0.9720 0.9679 0.9623
1138.000000 0.9560 0.9489 0.9411 0.9308 0.9196
1143.000000 0.9090 0.8958 0.8822 0.8687 0.8552
1148.000000 0.8393 0.8380 0.8417 0.8838 0.9250
1153.000000 0.9386 0.9426 0.9448 0.9460 0.9464
1158.000000 0.9483 0.9462 0.9456 0.9445 0.9421
1163.000000 0.9388 0.9355 0.9319 0.9279 0.9242
1168.000000 0.9206 0.9168 0.9127 0.9085 0.9042
1173.000000 0.8987 0.8931 0.8875 0.8817 0.8742
1178.000000 0.8606 0.8228 0.7806 0.7385 0.6965
1183.000000 0.6546 0.6205 0.6163 0.6156 0.6300
1188.000000 0.6667 0.7043 0.7419 0.7793 0.8168
1193.000000 0.8541 0.8878 0.8908 0.8921 0.8922
1198.000000 0.8909 0.8898 0.8825 0.8754 0.8666
1203.000000 0.8540 0.8434 0.8335 0.8221 0.8092
1208.000000 0.8033 0.8008 0.7996 0.7913 0.7788
1213.000000 0.7670 0.7570 0.7500 0.7436 0.7372
1218.000000 0.7322 0.7312 0.7315 0.7402 0.7615
1223.000000 0.7814 0.8143 0.8252 0.8335 0.8394
1228.000000 0.8443 0.8483 0.8518 0.8548 0.8570
1233.000000 0.8593 0.8613 0.8629 0.8645 0.8657
1238.000000 0.8665 0.8672 0.8673 0.8669 0.8656
1243.000000 0.8653 0.8643 0.8621 0.8600 0.8579
1248.000000 0.8554 0.8522 0.8482 0.8431 0.8368
1253.000000 0.8300 0.8218 0.8126 0.8038 0.7976
1258.000000 0.7919 0.7845 0.7766 0.7555 0.7321
1263.000000 0.7087 0.6854 0.6620 0.6387 0.6155
1268.000000 0.5923 0.5764 0.5657 0.5539 0.5422
1273.000000 0.5296 0.5162 0.5052 0.4961 0.4870
1278.000000 0.4796 0.4757 0.4740 0.4731 0.4719
1283.000000 0.4727 0.4743 0.4833 0.4993 0.5153
1288.000000 0.5314 0.5474 0.5633 0.5792 0.5951
1293.000000 0.6111 0.6269 0.6427 0.6585 0.6744
1298.000000 0.6901 0.7058 0.7188 0.7265 0.7340
1303.000000 0.7400 0.7446 0.7484 0.7516 0.7547
1308.000000 0.7571 0.7593 0.7612 0.7627 0.7642
1313.000000 0.7654 0.7659 0.7664 0.7670 0.7672
1318.000000 0.7648 0.7665 0.7654 0.7643 0.7629
1323.000000 0.7614 0.7586 0.7525 0.7472 0.7416
1328.000000 0.7345 0.7267 0.7192 0.7127 0.7060
1333.000000 0.6954 0.6823 0.6693 0.6562 0.6432
1338.000000 0.6302 0.6173 0.6043 0.5914 0.5701
1343.000000 0.5586 0.5492 0.5331 0.5023 0.4727
1348.000000 0.4431 0.4137 0.3842 0.3547 0.3254
1353.000000 0.2960 0.2667 0.2375 0.2083 0.1791
1358.000000 0.1506 0.1397 0.1408 0.1440 0.1607
1363.000000 0.1774 0.1941 0.2106 0.2273 0.2439
1368.000000 0.2604 0.2697 0.2717 0.2733 0.2657
1373.000000 0.2491 0.2320 0.2149 0.2130 0.2227
1378.000000 0.2522 0.2854 0.3189 0.3459 0.3625
1383.000000 0.3773 0.3930 0.4067 0.4609 0.4747
1388.000000 0.4840 0.5183 0.5392 0.5549 0.5836
1393.000000 0.6140 0.6408 0.6494 0.6510 0.6525
1398.000000 0.6519 0.6515 0.6492 0.6393 0.6284
1403.000000 0.6176 0.6066 0.5958 0.5850 0.5741
1408.000000 0.5633 0.5525 0.5481 0.5485 0.5636
1413.000000 0.5769 0.5901 0.6032 0.6165 0.6296
1418.000000 0.6428 0.6558 0.6670 0.6737 0.6770
1423.000000 0.6769 0.6780 0.6778 0.6777 0.6774
1428.000000 0.6766 0.6753 0.6711 0.6597 0.6477
1433.000000 0.6356 0.6237 0.6117 0.5997 0.5878
1438.000000 0.5759 0.5640 0.5521 0.5402 0.5284
1443.000000 0.5166 0.5047 0.4929 0.4811 0.4693
1448.000000 0.4576 0.4459 0.4341 0.4225 0.4107
1453.000000 0.3986 0.3866 0.3793 0.3768 0.3756
1458.000000 0.3749 0.3743 0.3736 0.3729 0.3722
1463.000000 0.3709 0.3696 0.3676 0.3651 0.3622
1468.000000 0.3590 0.3549 0.3498 0.3452 0.3421
1473.000000 0.3401 0.3392 0.3391 0.3392 0.3400
1478.000000 0.3422 0.3478 0.3583 0.3685 0.3752
1483.000000 0.3974 0.4194 0.4416 0.4592 0.4639
1488.000000 0.4640 0.4592 0.4502 0.4412 0.4323
1493.000000 0.4267 0.4259 0.4266 0.4395 0.4556
1498.000000 0.4716 0.4876 0.5037 0.5197 0.5357
1503.000000 0.5517 0.5592 0.5601 0.5589 0.5596
1508.000000 0.5519 0.5395 0.5271 0.5147 0.5023
1513.000000 0.4899 0.4775 0.4652 0.4502 0.4199
1518.000000 0.3886 0.3572 0.3259 0.2947 0.2634
1523.000000 0.2322 0.2011 0.1700 0.1492 0.1115
1528.000000 0.0941 0.0884 0.0837 0.0815 0.0795
1533.000000 0.0789 0.0784 0.0779 0.0777 0.0793
1538.000000 0.0787 0.0804 0.0971 0.1283 0.1617
1543.000000 0.1951 0.2284 0.2617 0.2949 0.3282
1548.000000 0.3614 0.3944 0.4275 0.4606 0.4935
1553.000000 0.5265 0.5594 0.5922 0.6241 0.6461
1558.000000 0.6533 0.6602 0.6670 0.6741 0.6833
1563.000000 0.6943 0.7049 0.7150 0.7247 0.7473
1568.000000 0.7627 0.7667 0.7694 0.7713 0.7723
1573.000000 0.7730 0.7732 0.7733 0.7733 0.7729
1578.000000 0.7720 0.7737 0.7689 0.7605 0.7495
1583.000000 0.7385 0.7276 0.7165 0.7056 0.6946
1588.000000 0.6837 0.6727 0.6618 0.6557 0.6544
1593.000000 0.6530 0.6585 0.6679 0.6797 0.6914
1598.000000 0.7031 0.7148 0.7214 0.7224 0.7229
1603.000000 0.7234 0.7239 0.7250 0.7358 0.7632
1608.000000 0.7890 0.8056 0.8069 0.8079 0.8085
1613.000000 0.8089 0.8091 0.8090 0.8090 0.8091
1618.000000 0.8079 0.8070 0.8051 0.8013 0.7966
1623.000000 0.7909 0.7802 0.7656 0.7503 0.7351
1628.000000 0.7198 0.7046 0.6894 0.6742 0.6590
1633.000000 0.6438 0.6288 0.6136 0.5985 0.5834
1638.000000 0.5621 0.5392 0.5231 0.5126 0.5023
1643.000000 0.4888 0.4735 0.4591 0.4416 0.4127
1648.000000 0.3865 0.3603 0.3342 0.3081 0.2820
1653.000000 0.2559 0.2299 0.2039 0.1779 0.1520
1658.000000 0.1261 0.1011 0.0874 0.0841 0.0824
1663.000000 0.0814 0.0809 0.0807 0.0811 0.0829
1668.000000 0.0831 0.0859 0.0979 0.1350 0.1723
1673.000000 0.2095 0.2466 0.2837 0.3208 0.3535
1678.000000 0.3736 0.3885 0.4050 0.4162 0.4238
1683.000000 0.4301 0.4353 0.4398 0.4447 0.4514
1688.000000 0.4593 0.4677 0.4764 0.4842 0.4903
1693.000000 0.5034 0.5311 0.5635 0.5958 0.6282
1698.000000 0.6604 0.6889 0.7152 0.7382 0.7527
1703.000000 0.7618 0.7734 0.7879 0.8052 0.8212
1708.000000 0.8335 0.8431 0.8527 0.8630 0.8735
1713.000000 0.8824 0.8895 0.8949 0.8993 0.9037
1718.000000 0.9063 0.9087 0.9111 0.9135 0.9160
1723.000000 0.9187 0.9213 0.9240 0.9260 0.9278
1728.000000 0.9295 0.9312 0.9330 0.9343 0.9354
1733.000000 0.9365 0.9376 0.9387 0.9397 0.9406
1738.000000 0.9414 0.9421 0.9429 0.9437 0.9444
1743.000000 0.9451 0.9458 0.9465 0.9472 0.9478
1748.000000 0.9485 0.9492 0.9499 0.9505 0.9512
1753.000000 0.9517 0.9522 0.9526 0.9531 0.9536
1758.000000 0.9541 0.9546 0.9548 0.9549 0.9550
1763.000000 0.9550 0.9552 0.9553 0.9554 0.9555
1768.000000 0.9555 0.9556 0.9555 0.9554 0.9553
1773.000000 0.9553 0.9552 0.9551 0.9550 0.9549
1778.000000 0.9549 0.9547 0.9546 0.9545 0.9544
1783.000000 0.9543 0.9541 0.9540 0.9538 0.9536
1788.000000 0.9535 0.9533 0.9532 0.9530 0.9529
1793.000000 0.9527 0.9526 0.9525 0.9523 0.9523
1798.000000 0.9522 0.9521 0.9520 0.9520 0.9521
1803.000000 0.9522 0.9524 0.9524 0.9526 0.9527
1808.000000 0.9528 0.9530 0.9531 0.9533 0.9534
1813.000000 0.9537 0.9539 0.9541 0.9544 0.9546
1818.000000 0.9548 0.9551 0.9554 0.9558 0.9562
1823.000000 0.9566 0.9571 0.9575 0.9579 0.9583
1828.000000 0.9588 0.9592 0.9597 0.9601 0.9606
1833.000000 0.9613 0.9619 0.9626 0.9633 0.9639
1838.000000 0.9648 0.9658 0.9668 0.9675 0.9678
1843.000000 0.9682 0.9684 0.9684 0.9685 0.9685
1848.000000 0.9686 0.9686 0.9687 0.9688 0.9689
1853.000000 0.9689 0.9690 0.9690 0.9691 0.9691
1858.000000 0.9692 0.9692 0.9692 0.9693 0.9694
1863.000000 0.9694 0.9694 0.9694 0.9693 0.9693
1868.000000 0.9693 0.9693 0.9693 0.9693 0.9693
1873.000000 0.9693 0.9693 0.9692 0.9692 0.9691
1878.000000 0.9691 0.9691 0.9690 0.9690 0.9690
1883.000000 0.9689 0.9689 0.9689 0.9688 0.9688
1888.000000 0.9688 0.9681 0.9686 0.9686 0.9685
1893.000000 0.9684 0.9683 0.9683 0.9682 0.9681
1898.000000 0.9681 0.9680 0.9679 0.9679 0.9679
1903.000000 0.9678 0.9678 0.9677 0.9677 0.9676
1908.000000 0.9676 0.9675 0.9675 0.9675 0.9674
1913.000000 0.9673 0.9673 0.9671 0.9669 0.9668
1918.000000 0.9666 0.9665 0.9664 0.9662 0.9661
1923.000000 0.9659 0.9657 0.9653 0.9646 0.9640
1928.000000 0.9633 0.9627 0.9621 0.9614 0.9608
1933.000000 0.9604 0.9601 0.9597 0.9594 0.9593
1938.000000 0.9594 0.9596 0.9599 0.9602 0.9607
1943.000000 0.9612 0.9618 0.9624 0.9630 0.9636
1948.000000 0.9643 0.9650 0.9657 0.9664 0.9670
1953.000000 0.9677 0.9683 0.9689 0.9695 0.9699
1958.000000 0.9704 0.9708 0.9710 0.9711 0.9711
1963.000000 0.9711 0.9712 0.9712 0.9712 0.9712
1968.000000 0.9712 0.9712 0.9712 0.9712 0.9712
1973.000000 0.9712 0.9712 0.9711 0.9711 0.9711
1978.000000 0.9711 0.9711 0.9711 0.9711 0.9711
1983.000000 0.9711 0.9711 0.9711 0.9711 0.9711
1988.000000 0.9712 0.9712 0.9712 0.9712 0.9712
1993.000000 0.9712 0.9713 0.9713 0.9713 0.9712
1998.000000 0.9712 0.9712 0.9712 0.9712 0.9711
2003.000000 0.9711 0.9711 0.9710 0.9710 0.9710
2008.000000 0.9710 0.9709 0.9709 0.9709 0.9708
2013.000000 0.9708 0.9708 0.9707 0.9707 0.9707
2018.000000 0.9706 0.9706 0.9705 0.9705 0.9705
2023.000000 0.9704 0.9704 0.9704 0.9703 0.9703
2028.000000 0.9702 0.9702 0.9702 0.9701 0.9701
2033.000000 0.9701 0.9701 0.9700 0.9700 0.9700
2038.000000 0.9699 0.9699 0.9699 0.9699 0.9699
2043.000000 0.9698 0.9698 0.9698 0.9698 0.9698
2048.000000 0.9697 0.9697 0.9697 0.9696 0.9696
2053.000000 0.9696 0.9696 0.9695 0.9695 0.9695
2058.000000 0.9695 0.9695 0.9694 0.9694 0.9694
2063.000000 0.9693 0.9693 0.9693 0.9693 0.9692
2068.000000 0.9692 0.9692 0.9692 0.9692 0.9691
2073.000000 0.9691 0.9691 0.9690 0.9690 0.9690
2078.000000 0.9690 0.9690 0.9689 0.9689 0.9688
2083.000000 0.9688 0.9687 0.9687 0.9686 0.9685
2088.000000 0.9685 0.9685 0.9685 0.9684 0.9684
2093.000000 0.9683 0.9682 0.9682 0.9681 0.9681
2098.000000 0.9680 0.9680 0.9680 0.9679 0.9679
2103.000000 0.9678 0.9678 0.9677 0.9677 0.9676
2108.000000 0.9675 0.9675 0.9675 0.9675 0.9674
2113.000000 0.9674 0.9673 0.9673 0.9672 0.9671
2118.000000 0.9671 0.9670 0.9670 0.9670 0.9670
2123.000000 0.9669 0.9669 0.9668 0.9668 0.9668
2128.000000 0.9667 0.9667 0.9666 0.9666 0.9666
2133.000000 0.9666 0.9665 0.9665 0.9665 0.9664
2138.000000 0.9664 0.9663 0.9663 0.9662 0.9662
2143.000000 0.9661 0.9661 0.9661 0.9660 0.9660
2148.000000 0.9659 0.9659 0.9658 0.9658 0.9657
2153.000000 0.9657 0.9657 0.9657 0.9656 0.9656
2158.000000 0.9655 0.9654 0.9654 0.9653 0.9653
2163.000000 0.9652 0.9652 0.9651 0.9650 0.9649
2168.000000 0.9649 0.9648 0.9647 0.9646 0.9646
2173.000000 0.9644 0.9643 0.9643 0.9642 0.9641
2178.000000 0.9640 0.9640 0.9639 0.9638 0.9637
2183.000000 0.9637 0.9636 0.9636 0.9635 0.9635
2188.000000 0.9634 0.9634 0.9634 0.9634 0.9633
2193.000000 0.9632 0.9632 0.9631 0.9631 0.9630
2198.000000 0.9630 0.9629 0.9628 0.9627 0.9626
2203.000000 0.9625 0.9625 0.9624 0.9623 0.9622
2208.000000 0.9621 0.9620 0.9618 0.9617 0.9615
2213.000000 0.9613 0.9611 0.9610 0.9608 0.9606
2218.000000 0.9605 0.9603 0.9601 0.9599 0.9598
2223.000000 0.9596 0.9595 0.9594 0.9593 0.9591
2228.000000 0.9590 0.9589 0.9588 0.9586 0.9585
2233.000000 0.9584 0.9583 0.9581 0.9580 0.9579
2238.000000 0.9578 0.9576 0.9575 0.9574 0.9573
2243.000000 0.9572 0.9572 0.9571 0.9571 0.9570
2248.000000 0.9569 0.9568 0.9568 0.9567 0.9567
2253.000000 0.9566 0.9566 0.9565 0.9565 0.9564
2258.000000 0.9564 0.9563 0.9563 0.9562 0.9562
2263.000000 0.9561 0.9561 0.9560 0.9560 0.9559
2268.000000 0.9559 0.9558 0.9558 0.9558 0.9558
2273.000000 0.9557 0.9557 0.9556 0.9556 0.9555
2278.000000 0.9555 0.9555 0.9555 0.9555 0.9554
2283.000000 0.9554 0.9554 0.9554 0.9553 0.9553
2288.000000 0.9552 0.9552 0.9552 0.9552 0.9551
2293.000000 0.9551 0.9551 0.9551 0.9550 0.9550
2298.000000 0.9550 0.9550 0.9549 0.9549 0.9549
2303.000000 0.9549 0.9549 0.9548 0.9548 0.9548
2308.000000 0.9548 0.9547 0.9547 0.9547 0.9547
2313.000000 0.9546 0.9546 0.9546 0.9546 0.9547
2318.000000 0.9547 0.9547 0.9548 0.9548 0.9549
2323.000000 0.9549 0.9550 0.9551 0.9552 0.9552
2328.000000 0.9553 0.9553 0.9554 0.9555 0.9556
2333.000000 0.9558 0.9559 0.9561 0.9563 0.9564
2338.000000 0.9566 0.9567 0.9569 0.9571 0.9572
2343.000000 0.9573 0.9575 0.9577 0.9579 0.9580
2348.000000 0.9582 0.9586 0.9589 0.9592 0.9595
2353.000000 0.9598 0.9600 0.9604 0.9607 0.9610
2358.000000 0.9613 0.9616 0.9620 0.9623 0.9627
2363.000000 0.9630 0.9633 0.9637 0.9640 0.9644
2368.000000 0.9647 0.9650 0.9654 0.9657 0.9661
2373.000000 0.9662 0.9664 0.9665 0.9665 0.9665
2378.000000 0.9665 0.9666 0.9666 0.9665 0.9661
2383.000000 0.9656 0.9651 0.9646 0.9641 0.9636
2388.000000 0.9630 0.9622 0.9615 0.9607 0.9599
2393.000000 0.9591 0.9583 0.9574 0.9562 0.9551
2398.000000 0.9539 0.9527 0.9516 0.9505 0.9494
2403.000000 0.9484 0.9474 0.9465 0.9455 0.9445
2408.000000 0.9434 0.9424 0.9414 0.9405 0.9403
2413.000000 0.9401 0.9401 0.9402 0.9403 0.9403
2418.000000 0.9404 0.9404 0.9404 0.9405 0.9406
2423.000000 0.9407 0.9407 0.9408 0.9408 0.9408
2428.000000 0.9410 0.9411 0.9412 0.9413 0.9414
2433.000000 0.9415 0.9416 0.9417 0.9419 0.9420
2438.000000 0.9421 0.9422 0.9426 0.9429 0.9432
2443.000000 0.9435 0.9438 0.9441 0.9444 0.9447
2448.000000 0.9449 0.9451 0.9453 0.9455 0.9456
2453.000000 0.9458 0.9460 0.9461 0.9463 0.9463
2458.000000 0.9463 0.9464 0.9464 0.9463 0.9462
2463.000000 0.9462 0.9460 0.9459 0.9458 0.9457
2468.000000 0.9455 0.9454 0.9452 0.9450 0.9447
2473.000000 0.9443 0.9438 0.9433 0.9428 0.9423
2478.000000 0.9418 0.9413 0.9407 0.9403 0.9399
2483.000000 0.9395 0.9391 0.9387 0.9385 0.9383
2488.000000 0.9381 0.9380 0.9379 0.9378 0.9377
2493.000000 0.9376 0.9375 0.9375 0.9373 0.9372
2498.000000 0.9371 0.9370 0.9370 0.9370 0.9370
2503.000000 0.9369 0.9369 0.9369 0.9369 0.9369
2508.000000 0.9369 0.9369 0.9369 0.9368 0.9368
2513.000000 0.9368 0.9368 0.9368 0.9367 0.9367
2518.000000 0.9366 0.9366 0.9366 0.9366 0.9366
2523.000000 0.9365 0.9365 0.9365 0.9364 0.9364
2528.000000 0.9364 0.9364 0.9364 0.9363 0.9363
2533.000000 0.9362 0.9362 0.9362 0.9361 0.9361
2538.000000 0.9361 0.9361 0.9361 0.9360 0.9360
2543.000000 0.9360 0.9359 0.9359 0.9358 0.9358
2548.000000 0.9357 0.9356 0.9356 0.9356 0.9355
2553.000000 0.9355 0.9354 0.9353 0.9352 0.9349
2558.000000 0.9346 0.9343 0.9340 0.9337 0.9334
2563.000000 0.9331 0.9328 0.9324 0.9321 0.9318
2568.000000 0.9315 0.9312 0.9308 0.9305 0.9302
2573.000000 0.9298 0.9295 0.9291 0.9288 0.9285
2578.000000 0.9281 0.9278 0.9274 0.9272 0.9269
2583.000000 0.9266 0.9263 0.9260 0.9257 0.9254
2588.000000 0.9251 0.9249 0.9246 0.9244 0.9241
2593.000000 0.9238 0.9235 0.9232 0.9229 0.9226
2598.000000 0.9223 0.9220 0.9217 0.9215 0.9212
2603.000000 0.9209 0.9206 0.9204 0.9201 0.9199
2608.000000 0.9197 0.9194 0.9192 0.9189 0.9187
2613.000000 0.9185 0.9182 0.9180 0.9177 0.9175
2618.000000 0.9173 0.9170 0.9168 0.9166 0.9163
2623.000000 0.9161 0.9159 0.9156 0.9154 0.9151
2628.000000 0.9149 0.9147 0.9144 0.9142 0.9140
2633.000000 0.9137 0.9135 0.9133 0.9130 0.9128
2638.000000 0.9126 0.9123 0.9121 0.9119 0.9116
2643.000000 0.9114 0.9111 0.9109 0.9106 0.9104
2648.000000 0.9102 0.9100 0.9097 0.9095 0.9092
2653.000000 0.9090 0.9087 0.9085 0.9083 0.9081
2658.000000 0.9078 0.9076 0.9074 0.9071 0.9069
2663.000000 0.9067 0.9065 0.9062 0.9060 0.9058
2668.000000 0.9057 0.9055 0.9053 0.9051 0.9049
2673.000000 0.9047 0.9045 0.9043 0.9042 0.9040
2678.000000 0.9038 0.9036 0.9035 0.9033 0.9031
2683.000000 0.9029 0.9027 0.9024 0.9022 0.9019
2688.000000 0.9016 0.9013 0.9010 0.9008 0.9005
2693.000000 0.9002 0.8999 0.8997 0.8994 0.8991
2698.000000 0.8988 0.8985 0.8982 0.8978 0.8975
2703.000000 0.8972 0.8969 0.8965 0.8962 0.8959
2708.000000 0.8956 0.8953 0.8950 0.8947 0.8944
2713.000000 0.8940 0.8937 0.8934 0.8931 0.8928
2718.000000 0.8924 0.8921 0.8918 0.8914 0.8911
2723.000000 0.8908 0.8904 0.8901 0.8898 0.8895
2728.000000 0.8892 0.8888 0.8885 0.8882 0.8878
2733.000000 0.8874 0.8870 0.8866 0.8863 0.8859
2738.000000 0.8855 0.8851 0.8847 0.8843 0.8839
2743.000000 0.8835 0.8831 0.8827 0.8823 0.8820
2748.000000 0.8815 0.8811 0.8807 0.8802 0.8798
2753.000000 0.8794 0.8790 0.8786 0.8782 0.8778
2758.000000 0.8773 0.8769 0.8765 0.8761 0.8756
2763.000000 0.8752 0.8748 0.8744 0.8739 0.8734
2768.000000 0.8729 0.8724 0.8719 0.8714 0.8709
2773.000000 0.8704 0.8699 0.8694 0.8689 0.8684
2778.000000 0.8678 0.8669 0.8660 0.8650 0.8641
2783.000000 0.8632 0.8622 0.8611 0.8600 0.8589
2788.000000 0.8578 0.8567 0.8556 0.8542 0.8527
2793.000000 0.8512 0.8496 0.8480 0.8463 0.8447
2798.000000 0.8431 0.8415 0.8399 0.8383 0.8367
2803.000000 0.8352 0.8338 0.8323 0.8309 0.8295
2808.000000 0.8281 0.8266 0.8252 0.8238 0.8224
2813.000000 0.8209 0.8195 0.8181 0.8167 0.8153
2818.000000 0.8138 0.8123 0.8108 0.8092 0.8076
2823.000000 0.8059 0.8043 0.8026 0.8010 0.7993
2828.000000 0.7976 0.7960 0.7943 0.7927 0.7911
2833.000000 0.7896 0.7881 0.7865 0.7850 0.7834
2838.000000 0.7819 0.7804 0.7788 0.7773 0.7758
2843.000000 0.7743 0.7728 0.7705 0.7680 0.7656
2848.000000 0.7631 0.7607 0.7582 0.7541 0.7472
2853.000000 0.7402 0.7337 0.7301 0.7264 0.7228
2858.000000 0.7194 0.7161 0.7127 0.7099 0.7074
2863.000000 0.7050 0.7025 0.7001 0.6976 0.6951
2868.000000 0.6915 0.6878 0.6841 0.6631 0.6359
2873.000000 0.6088 0.5849 0.5654 0.5459 0.5264
2878.000000 0.5070 0.4875 0.4680 0.4486 0.4291
2883.000000 0.4097 0.3903 0.3709 0.3515 0.3322
2888.000000 0.3129 0.2935 0.2742 0.2567 0.2396
2893.000000 0.2224 0.2115 0.2073 0.2031 0.1988
2898.000000 0.1941 0.1894 0.1847 0.1813 0.1783
2903.000000 0.1754 0.1725 0.1698 0.1671 0.1644
2908.000000 0.1612 0.1581 0.1549 0.1515 0.1480
2913.000000 0.1446 0.1412 0.1380 0.1349 0.1317
2918.000000 0.1285 0.1253 0.1221 0.1186 0.1147
2923.000000 0.1108 0.1070 0.1036 0.1003 0.0970
2928.000000 0.0945 0.0927 0.0909 0.0890 0.0871
2933.000000 0.0853 0.0834 0.0815 0.0795 0.0776
2938.000000 0.0759 0.0748 0.0737 0.0725 0.0714
2943.000000 0.0703 0.0692 0.0680 0.0668 0.0655
2948.000000 0.0643 0.0630 0.0618 0.0605 0.0592
2953.000000 0.0578 0.0564 0.0550 0.0538 0.0527
2958.000000 0.0515 0.0505 0.0495 0.0486 0.0476
2963.000000 0.0470 0.0463 0.0456 0.0451 0.0446
2968.000000 0.0442 0.0437 0.0436 0.0435 0.0434
2973.000000 0.0433 0.0433 0.0432 0.0432 0.0432
2978.000000 0.0434 0.0435 0.0436 0.0438 0.0439
2983.000000 0.0441 0.0444 0.0447 0.0451 0.0454
2988.000000 0.0459 0.0463 0.0468 0.0472 0.0477
2993.000000 0.0482 0.0486 0.0493 0.0499 0.0506
2998.000000 0.0513 0.0521 0.0529 0.0537 0.0557
3003.000000 0.0581 0.0604 0.0630 0.0662 0.0694
3008.000000 0.0726 0.0892 0.1156 0.1420 0.1685
3013.000000 0.1942 0.2199 0.2456 0.2712 0.2969
3018.000000 0.3225 0.3482 0.3737 0.3993 0.4248
3023.000000 0.4502 0.4685 0.4868 0.5051 0.5182
3028.000000 0.5224 0.5266 0.5308 0.5345 0.5380
3033.000000 0.5414 0.5449 0.5484 0.5520 0.5555
3038.000000 0.5589 0.5622 0.5654 0.5687 0.5725
3043.000000 0.5766 0.5807 0.5848 0.5889 0.5930
3048.000000 0.5971 0.6012 0.6053 0.6094 0.6135
3053.000000 0.6176 0.6216 0.6257 0.6298 0.6339
3058.000000 0.6380 0.6421 0.6461 0.6502 0.6543
3063.000000 0.6583 0.6624 0.6664 0.6704 0.6745
3068.000000 0.6785 0.6826 0.6867 0.6907 0.6948
3073.000000 0.6988 0.7028 0.7068 0.7109 0.7149
3078.000000 0.7189 0.7230 0.7270 0.7310 0.7350
3083.000000 0.7390 0.7430 0.7470 0.7510 0.7550
3088.000000 0.7590 0.7630 0.7670 0.7682 0.7685
3093.000000 0.7687 0.7690 0.7691 0.7693 0.7694
3098.000000 0.7695 0.7696 0.7697 0.7698 0.7699
3103.000000 0.7700 0.7701 0.7702 0.7703 0.7704
3108.000000 0.7705 0.7706 0.7708 0.7710 0.7712
3113.000000 0.7714 0.7716 0.7718 0.7721 0.7723
3118.000000 0.7726 0.7729 0.7733 0.7736 0.7740
3123.000000 0.7744 0.7748 0.7752 0.7756 0.7761
3128.000000 0.7766 0.7771 0.7776 0.7781 0.7786
3133.000000 0.7791 0.7793 0.7795 0.7797 0.7799
3138.000000 0.7799 0.7799 0.7799 0.7798 0.7798
3143.000000 0.7798 0.7798 0.7798 0.7798 0.7798
3148.000000 0.7798 0.7790 0.7770 0.7750 0.7730
3153.000000 0.7761 0.7674 0.7643 0.7611 0.7580
3158.000000 0.7549 0.7517 0.7486 0.7455 0.7424
3163.000000 0.7393 0.7362 0.7331 0.7300 0.7268
3168.000000 0.7237 0.7206 0.7175 0.7144 0.7113
3173.000000 0.7082 0.7051 0.7020 0.6989 0.6958
3178.000000 0.6927 0.6896 0.6865 0.6834 0.6803
3183.000000 0.6772 0.6742 0.6711 0.6680 0.6649
3188.000000 0.6618 0.6588 0.6557 0.6526 0.6496
3193.000000 0.6465 0.6435 0.6404 0.6374 0.6343
3198.000000 0.6313 0.6282 0.6252 0.6221 0.6191
3203.000000 0.6160 0.6130 0.6099 0.6069 0.6039
3208.000000 0.6008 0.5978 0.5951 0.5925 0.5900
3213.000000 0.5874 0.5856 0.5842 0.5828 0.5814
3218.000000 0.5801 0.5789 0.5777 0.5764 0.5751
3223.000000 0.5737 0.5723 0.5708 0.5693 0.5674
3228.000000 0.5656 0.5637 0.5619 0.5593 0.5568
3233.000000 0.5542 0.5516 0.5471 0.5423 0.5374
3238.000000 0.5325 0.5262 0.5192 0.5122 0.5052
3243.000000 0.4983 0.4913 0.4843 0.4773 0.4703
3248.000000 0.4634 0.4564 0.4494 0.4425 0.4356
3253.000000 0.4286 0.4217 0.4148 0.4079 0.4009
3258.000000 0.3940 0.3871 0.3802 0.3733 0.3663
3263.000000 0.3594 0.3525 0.3456 0.3388 0.3319
3268.000000 0.3250 0.3181 0.3112 0.3043 0.2975
3273.000000 0.2906 0.2838 0.2770 0.2701 0.2633
3278.000000 0.2565 0.2496 0.2428 0.2360 0.2291
3283.000000 0.2223 0.2155 0.2087 0.2045 0.2008
3288.000000 0.1971 0.1934 0.1928 0.1917 0.1917
3293.000000 0.1917 0.1918 0.1918 0.1919 0.1919
3298.000000 0.1919 0.1920 0.1920 0.1921 0.1921
3303.000000 0.1922 0.1922 0.1923 0.1923 0.1929
3308.000000 0.1976 0.2023 0.2070 0.2117 0.2229
3313.000000 0.2363 0.2497 0.2631 0.2764 0.2898
3318.000000 0.3031 0.3164 0.3297 0.3431 0.3564
3323.000000 0.3697 0.3830 0.3963 0.4096 0.4229
3328.000000 0.4362 0.4494 0.4627 0.4759 0.4891
3333.000000 0.5023 0.5156 0.5288 0.5420 0.5552
3338.000000 0.5684 0.5816 0.5947 0.6079 0.6210
3343.000000 0.6342 0.6473 0.6604 0.6736 0.6855
3348.000000 0.6944 0.7033 0.7121 0.7210 0.7246
3353.000000 0.7267 0.7289 0.7310 0.7338 0.7380
3358.000000 0.7422 0.7464 0.7506 0.7534 0.7558
3363.000000 0.7582 0.7606 0.7630 0.7655 0.7680
3368.000000 0.7706 0.7731 0.7758 0.7786 0.7814
3373.000000 0.7842 0.7868 0.7888 0.7908 0.7928
3378.000000 0.7948 0.7963 0.7974 0.7986 0.7997
3383.000000 0.8009 0.8021 0.8032 0.8044 0.8055
3388.000000 0.8066 0.8075 0.8084 0.8093 0.8102
3393.000000 0.8109 0.8115 0.8121 0.8127 0.8133
3398.000000 0.8139 0.8145 0.8151 0.8157 0.8163
3403.000000 0.8169 0.8175 0.8181 0.8188 0.8193
3408.000000 0.8198 0.8203 0.8208 0.8213 0.8216
3413.000000 0.8220 0.8223 0.8226 0.8230 0.8233
3418.000000 0.8237 0.8240 0.8244 0.8247 0.8250
3423.000000 0.8253 0.8256 0.8260 0.8263 0.8266
3428.000000 0.8270 0.8273 0.8277 0.8280 0.8283
3433.000000 0.8286 0.8289 0.8292 0.8294 0.8296
3438.000000 0.8299 0.8301 0.8302 0.8304 0.8305
3443.000000 0.8307 0.8308 0.8310 0.8311 0.8313
3448.000000 0.8314 0.8316 0.8317 0.8319 0.8321
3453.000000 0.8322 0.8324 0.8325 0.8327 0.8328
3458.000000 0.8330 0.8331 0.8333 0.8334 0.8336
3463.000000 0.8337 0.8339 0.8340 0.8341 0.8343
3468.000000 0.8344 0.8345 0.8347 0.8348 0.8349
3473.000000 0.8350 0.8351 0.8352 0.8353 0.8354
3478.000000 0.8355 0.8356 0.8357 0.8358 0.8359
3483.000000 0.8359 0.8360 0.8361 0.8362 0.8363
3488.000000 0.8364 0.8364 0.8365 0.8366 0.8367
3493.000000 0.8368 0.8369 0.8370 0.8371 0.8372
3498.000000 0.8373 0.8374 0.8374 0.8375 0.8376
3503.000000 0.8377 0.8378 0.8378 0.8379 0.8380
3508.000000 0.8381 0.8381 0.8382 0.8382 0.8383
3513.000000 0.8384 0.8384 0.8385 0.8385 0.8386
3518.000000 0.8387 0.8388 0.8389 0.8389 0.8390
3523.000000 0.8391 0.8391 0.8392 0.8392 0.8393
3528.000000 0.8394 0.8394 0.8395 0.8395 0.8396
3533.000000 0.8397 0.8397 0.8398 0.8398 0.8399
3538.000000 0.8400 0.8401 0.8402 0.8402 0.8403
3543.000000 0.8403 0.8404 0.8404 0.8404 0.8405
3548.000000 0.8406 0.8406 0.8407 0.8407 0.8408
3553.000000 0.8408 0.8409 0.8409 0.8409 0.8410
3558.000000 0.8411 0.8411 0.8412 0.8412 0.8413
3563.000000 0.8413 0.8414 0.8414 0.8414 0.8415
3568.000000 0.8415 0.8416 0.8417 0.8417 0.8418
3573.000000 0.8418 0.8419 0.8419 0.8419 0.8420
3578.000000 0.8420 0.8421 0.8422 0.8422 0.8423
3583.000000 0.8423 0.8423 0.8424 0.8424 0.8425
3588.000000 0.8425 0.8425 0.8426 0.8426 0.8427
3593.000000 0.8427 0.8427 0.8427 0.8427 0.8427
3598.000000 0.8427 0.8427 0.8427 0.8427 0.8427
3603.000000 0.8428 0.8428 0.8428 0.8428 0.8428
3608.000000 0.8428 0.8428 0.8428 0.8428 0.8428
3613.000000 0.8428 0.8428 0.8428 0.8428 0.8428
3618.000000 0.8428 0.8428 0.8428 0.8428 0.8428
3623.000000 0.8428 0.8429 0.8429 0.8429 0.8429
3628.000000 0.8429 0.8429 0.8429 0.8429 0.8429
3633.000000 0.8429 0.8429 0.8429 0.8429 0.8429
3638.000000 0.8429 0.8429 0.8428 0.8428 0.8428
3643.000000 0.8428 0.8428 0.8427 0.8427 0.8426
3648.000000 0.8426 0.8426 0.8425 0.8425 0.8425
3653.000000 0.8425 0.8425 0.8424 0.8424 0.8424
3658.000000 0.8424 0.8424 0.8424 0.8423 0.8423
3663.000000 0.8423 0.8423 0.8423 0.8422 0.8422
3668.000000 0.8422 0.8421 0.8421 0.8421 0.8420
3673.000000 0.8420 0.8420 0.8420 0.8420 0.8419
3678.000000 0.8419 0.8419 0.8419 0.8419 0.8418
3683.000000 0.8418 0.8418 0.8418 0.8418 0.8418
3688.000000 0.8417 0.8417 0.8417 0.8417 0.8417
3693.000000 0.8417 0.8417 0.8417 0.8417 0.8417
3698.000000 0.8417 0.8418 0.8418 0.8419 0.8419
3703.000000 0.8419 0.8420 0.8420 0.8420 0.8421
3708.000000 0.8421 0.8421 0.8422 0.8422 0.8423
3713.000000 0.8423 0.8423 0.8424 0.8424 0.8424
3718.000000 0.8425 0.8425 0.8425 0.8426 0.8426
3723.000000 0.8426 0.8427 0.8427 0.8428 0.8428
3728.000000 0.8428 0.8429 0.8429 0.8429 0.8430
3733.000000 0.8431 0.8432 0.8433 0.8435 0.8436
3738.000000 0.8437 0.8438 0.8440 0.8441 0.8443
3743.000000 0.8444 0.8445 0.8447 0.8448 0.8449
3748.000000 0.8450 0.8452 0.8453 0.8455 0.8456
3753.000000 0.8457 0.8459 0.8459 0.8460 0.8461
3758.000000 0.8462 0.8462 0.8471 0.8462 0.8462
3763.000000 0.8461 0.8461 0.8461 0.8460 0.8459
3768.000000 0.8459 0.8458 0.8458 0.8457 0.8457
3773.000000 0.8457 0.8456 0.8456 0.8456 0.8455
3778.000000 0.8455 0.8454 0.8454 0.8453 0.8453
3783.000000 0.8451 0.8450 0.8449 0.8447 0.8446
3788.000000 0.8444 0.8443 0.8442 0.8440 0.8439
3793.000000 0.8437 0.8436 0.8435 0.8433 0.8432
3798.000000 0.8430 0.8429 0.8428 0.8426 0.8424
3803.000000 0.8423 0.8421 0.8420 0.8418 0.8417
3808.000000 0.8415 0.8414 0.8412 0.8410 0.8409
3813.000000 0.8407 0.8405 0.8403 0.8401 0.8399
3818.000000 0.8397 0.8395 0.8393 0.8392 0.8390
3823.000000 0.8388 0.8386 0.8384 0.8382 0.8380
3828.000000 0.8377 0.8376 0.8374 0.8372 0.8370
3833.000000 0.8368 0.8366 0.8364 0.8362 0.8361
3838.000000 0.8359 0.8357 0.8355 0.8353 0.8351
3843.000000 0.8349 0.8347 0.8345 0.8343 0.8341
3848.000000 0.8339 0.8337 0.8335 0.8334 0.8332
3853.000000 0.8330 0.8328 0.8326 0.8324 0.8322
3858.000000 0.8321 0.8319 0.8317 0.8315 0.8312
3863.000000 0.8310 0.8308 0.8307 0.8305 0.8303
3868.000000 0.8301 0.8299 0.8297 0.8296 0.8295
3873.000000 0.8294 0.8293 0.8292 0.8291 0.8291
3878.000000 0.8290 0.8290 0.8289 0.8289 0.8288
3883.000000 0.8288 0.8287 0.8287 0.8287 0.8286
3888.000000 0.8286 0.8285 0.8285 0.8284 0.8284
3893.000000 0.8283 0.8283 0.8282 0.8282 0.8282
3898.000000 0.8282 0.8282 0.8282 0.8282 0.8282
3903.000000 0.8282 0.8282 0.8282 0.8282 0.8282
3908.000000 0.8282 0.8282 0.8282 0.8282 0.8282
3913.000000 0.8283 0.8283 0.8283 0.8283 0.8283
3918.000000 0.8283 0.8284 0.8284 0.8284 0.8284
3923.000000 0.8284 0.8284 0.8285 0.8285 0.8285
3928.000000 0.8285 0.8285 0.8285 0.8286 0.8286
3933.000000 0.8286 0.8286 0.8286 0.8286 0.8286
3938.000000 0.8286 0.8286 0.8286 0.8286 0.8286
3943.000000 0.8286 0.8285 0.8285 0.8285 0.8285
3948.000000 0.8285 0.8285 0.8285 0.8285 0.8285
3953.000000 0.8285 0.8285 0.8285 0.8284 0.8284
3958.000000 0.8284 0.8284 0.8284 0.8284 0.8283
3963.000000 0.8283 0.8283 0.8283 0.8282 0.8282
3968.000000 0.8282 0.8281 0.8280 0.8280 0.8279
3973.000000 0.8278 0.8278 0.8277 0.8277 0.8276
3978.000000 0.8276 0.8275 0.8275 0.8274 0.8274
3983.000000 0.8273 0.8273 0.8272 0.8271 0.8271
3988.000000 0.8270 0.8269 0.8269 0.8268 0.8268
3993.000000 0.8267 0.8266 0.8265 0.8265 0.8264
3998.000000 0.8263 0.8262 0.8262
##END=
