##TITLE=Alpha,Alpha'-DIACETYL-4,4'-DISULFO-GLUTARANILIDE DISODIUM SALT
##JCAMP-DX=4.24
##DATA TYPE=INFRARED SPECTRUM
##CLASS=COBLENTZ
##ORIGIN=EASTMAN KODAK COMPANY, RESEARCH LABORATORIES, ROCHESTER, N.Y.
##OWNER=COBLENTZ SOCIETY
Collection (C) 2018 copyright by the U.S. Secretary of Commerce
on behalf of the United States of America. All rights reserved.
##DATE=Not specified, most likely prior to 1970
##MOLFORM=C21 H20 N2 Na2 O10 S2
##MP=ABOVE 300 C
##SOURCE REFERENCE=COBLENTZ NO. 4413
##$NIST ID=B6004413
##$NIST SOURCE=COBLENTZ
##$NIST IMAGE=cob4413
##SPECTROMETER/DATA SYSTEM=Not specified, most likely a prism, grating, or hybrid spectrometer.
##STATE=SOLID (KBr PELLET)
##PATH LENGTH=
$$ SEE J. ORG. CHEM., VOL. 28, PAGE 314 (1963)
$$ SPECTRAL FEATURE AROUND 3430 CM^-^1 IS PROBABLY DUE TO H2O
##SAMPLING PROCEDURE=TRANSMISSION
##RESOLUTION=4
##DATA PROCESSING=DIGITIZED BY NIST FROM HARD COPY
##XUNITS=MICROMETERS
##YUNITS=TRANSMITTANCE
##XFACTOR=1.000000
##YFACTOR=1
##DELTAX=000.006648
##FIRSTX=2.08
##LASTX=16.0063
##FIRSTY=0.838
##MAXX=16.0063
##MINX=2.08
##MAXY=0.866
##MINY=0.045
##NPOINTS=2096
##XYDATA=(X++(Y..Y))
2.080000 0.8380 0.8380 0.8380 0.8360 0.8340
2.113254 0.8340 0.8330 0.8310 0.8300 0.8310
2.146000 0.8310 0.8310 0.8330 0.8340 0.8340
2.179254 0.8360 0.8360 0.8380 0.8380 0.8330
2.213000 0.8300 0.8260 0.8260 0.8280 0.8300
2.246254 0.8310 0.8330 0.8330 0.8340 0.8340
2.279000 0.8340 0.8330 0.8330 0.8310 0.8310
2.312254 0.8310 0.8310 0.8310 0.8310 0.8300
2.346000 0.8300 0.8300 0.8310 0.8310 0.8310
2.379254 0.8310 0.8330 0.8330 0.8340 0.8360
2.412000 0.8360 0.8360 0.8360 0.8360 0.8340
2.445254 0.8340 0.8330 0.8310 0.8330 0.8310
2.479000 0.8300 0.8300 0.8280 0.8280 0.8260
2.512254 0.8260 0.8280 0.8310 0.8330 0.8330
2.545000 0.8330 0.8330 0.8310 0.8310 0.8300
2.578254 0.8300 0.8300 0.8280 0.8280 0.8300
2.612000 0.8300 0.8330 0.8360 0.8380 0.8390
2.645254 0.8390 0.8410 0.8410 0.8390 0.8390
2.678000 0.8380 0.8310 0.8300 0.8300 0.8280
2.711254 0.8260 0.8210 0.8080 0.7940 0.7670
2.745000 0.7500 0.7330 0.7020 0.6580 0.6220
2.778254 0.6020 0.5980 0.5710 0.5450 0.5190
2.811000 0.4910 0.4780 0.4650 0.4550 0.4420
2.844254 0.4340 0.4180 0.4060 0.3970 0.3870
2.877000 0.3770 0.3750 0.3700 0.3670 0.3660
2.910254 0.3640 0.3620 0.3620 0.3660 0.3700
2.944000 0.3750 0.3800 0.3830 0.3850 0.3970
2.977254 0.3980 0.4010 0.4030 0.4030 0.4010
3.010000 0.4000 0.3850 0.3820 0.3800 0.3790
3.043254 0.3750 0.3740 0.3670 0.3620 0.3620
3.077000 0.3670 0.3740 0.3770 0.3830 0.3870
3.110254 0.3970 0.4100 0.4280 0.4420 0.4490
3.143000 0.4670 0.4910 0.5000 0.5080 0.5160
3.176254 0.5190 0.5270 0.5440 0.5550 0.5810
3.210000 0.6060 0.6160 0.6200 0.6200 0.6160
3.243254 0.6110 0.6090 0.6090 0.6160 0.6170
3.276000 0.6170 0.6170 0.6110 0.6020 0.6010
3.309254 0.6020 0.6040 0.6070 0.6160 0.6250
3.343000 0.6370 0.6480 0.6600 0.6730 0.6910
3.376254 0.7020 0.7120 0.7140 0.7140 0.7120
3.409000 0.7100 0.7040 0.6960 0.6870 0.6840
3.442254 0.6840 0.6920 0.6970 0.7070 0.7270
3.476000 0.7450 0.7630 0.7770 0.7810 0.7840
3.509254 0.7850 0.7850 0.7850 0.7870 0.7890
3.542000 0.7970 0.8070 0.8160 0.8210 0.8230
3.575254 0.8250 0.8250 0.8210 0.8160 0.8130
3.609000 0.8100 0.8100 0.8150 0.8160 0.8180
3.642254 0.8200 0.8210 0.8230 0.8230 0.8250
3.675000 0.8280 0.8300 0.8300 0.8310 0.8380
3.708254 0.8390 0.8430 0.8440 0.8460 0.8480
3.742000 0.8490 0.8510 0.8510 0.8520 0.8560
3.775254 0.8560 0.8560 0.8520 0.8520 0.8510
3.808000 0.8510 0.8510 0.8510 0.8510 0.8510
3.841254 0.8510 0.8510 0.8510 0.8510 0.8510
3.875000 0.8510 0.8510 0.8510 0.8510 0.8510
3.908254 0.8520 0.8520 0.8520 0.8560 0.8560
3.941000 0.8590 0.8610 0.8640 0.8640 0.8640
3.974254 0.8610 0.8590 0.8560 0.8560 0.8590
4.008000 0.8620 0.8620 0.8620 0.8610 0.8610
4.041254 0.8590 0.8570 0.8540 0.8540 0.8490
4.074000 0.8540 0.8570 0.8570 0.8590 0.8590
4.107254 0.8570 0.8570 0.8520 0.8480 0.8430
4.141000 0.8430 0.8460 0.8490 0.8510 0.8560
4.174254 0.8560 0.8570 0.8570 0.8590 0.8590
4.207000 0.8610 0.8610 0.8620 0.8620 0.8640
4.240254 0.8640 0.8620 0.8620 0.8620 0.8610
4.274000 0.8610 0.8610 0.8610 0.8620 0.8620
4.307254 0.8640 0.8640 0.8660 0.8660 0.8660
4.340000 0.8620 0.8610 0.8610 0.8610 0.8610
4.373254 0.8590 0.8570 0.8560 0.8520 0.8510
4.406000 0.8490 0.8480 0.8490 0.8520 0.8560
4.439254 0.8560 0.8560 0.8540 0.8540 0.8540
4.473000 0.8540 0.8540 0.8540 0.8540 0.8540
4.506254 0.8560 0.8560 0.8540 0.8540 0.8540
4.539000 0.8540 0.8520 0.8510 0.8510 0.8520
4.572254 0.8520 0.8520 0.8520 0.8540 0.8540
4.606000 0.8560 0.8570 0.8610 0.8610 0.8610
4.639254 0.8610 0.8590 0.8560 0.8540 0.8520
4.672000 0.8510 0.8490 0.8490 0.8490 0.8490
4.705254 0.8510 0.8520 0.8540 0.8560 0.8560
4.739000 0.8610 0.8610 0.8590 0.8570 0.8560
4.772254 0.8520 0.8510 0.8510 0.8490 0.8490
4.805000 0.8490 0.8490 0.8490 0.8510 0.8520
4.838254 0.8540 0.8560 0.8560 0.8570 0.8570
4.872000 0.8570 0.8570 0.8570 0.8590 0.8590
4.905254 0.8570 0.8570 0.8570 0.8560 0.8520
4.938000 0.8520 0.8520 0.8540 0.8560 0.8570
4.971254 0.8570 0.8570 0.8570 0.8570 0.8570
5.005000 0.8570 0.8540 0.8540 0.8570 0.8590
5.038254 0.8590 0.8570 0.8590 0.8590 0.8570
5.071000 0.8560 0.8520 0.8540 0.8540 0.8560
5.104254 0.8560 0.8570 0.8570 0.8560 0.8510
5.138000 0.8490 0.8490 0.8490 0.8490 0.8490
5.171254 0.8480 0.8480 0.8460 0.8430 0.8380
5.204000 0.8380 0.8390 0.8410 0.8460 0.8480
5.237254 0.8480 0.8490 0.8490 0.8490 0.8490
5.271000 0.8490 0.8490 0.8490 0.8490 0.8490
5.304254 0.8490 0.8490 0.8510 0.8510 0.8510
5.337000 0.8510 0.8510 0.8520 0.8520 0.8520
5.370254 0.8540 0.8570 0.8590 0.8620 0.8620
5.404000 0.8590 0.8570 0.8570 0.8570 0.8570
5.437254 0.8560 0.8540 0.8520 0.8510 0.8490
5.470000 0.8490 0.8490 0.8490 0.8490 0.8490
5.503254 0.8490 0.8490 0.8510 0.8510 0.8490
5.537000 0.8440 0.8390 0.8390 0.8380 0.8380
5.570254 0.8300 0.8280 0.8280 0.8280 0.8300
5.603000 0.8300 0.8300 0.8280 0.8260 0.8180
5.636254 0.8150 0.8120 0.8100 0.8100 0.8100
5.670000 0.8080 0.8070 0.7990 0.7900 0.7790
5.703254 0.7770 0.7760 0.7660 0.7580 0.7480
5.736000 0.7360 0.7250 0.7170 0.7050 0.6840
5.769254 0.6560 0.6170 0.5830 0.5170 0.4570
5.802000 0.4180 0.3850 0.3410 0.2630 0.1940
5.835254 0.1580 0.1480 0.1430 0.1400 0.1450
5.869000 0.1560 0.1610 0.1760 0.2020 0.2280
5.902254 0.2480 0.2580 0.2660 0.2770 0.2840
5.935000 0.2850 0.2900 0.2900 0.2850 0.2760
5.968254 0.2690 0.2660 0.2630 0.2580 0.2480
6.002000 0.2380 0.2270 0.2250 0.2170 0.2140
6.035254 0.2120 0.2120 0.2120 0.2140 0.2150
6.068000 0.2200 0.2230 0.2250 0.2360 0.2500
6.101254 0.2590 0.2760 0.2990 0.3280 0.3620
6.135000 0.3850 0.3970 0.4080 0.4280 0.4360
6.168254 0.4390 0.4460 0.4490 0.4520 0.4520
6.201000 0.4500 0.4420 0.4360 0.4100 0.3770
6.234254 0.3410 0.3000 0.2630 0.2270 0.2070
6.268000 0.1870 0.1690 0.1690 0.1740 0.1970
6.301254 0.2460 0.3180 0.3870 0.4420 0.4930
6.334000 0.5270 0.5580 0.5780 0.5860 0.5960
6.367254 0.6060 0.6270 0.6420 0.6480 0.6550
6.401000 0.6550 0.6530 0.6470 0.6450 0.6380
6.434254 0.6270 0.5960 0.5650 0.5130 0.4470
6.467000 0.3570 0.2920 0.2430 0.2150 0.2120
6.500254 0.2140 0.2170 0.2170 0.2150 0.1990
6.534000 0.1960 0.1940 0.1920 0.1870 0.1860
6.567254 0.1840 0.1860 0.1940 0.2070 0.2180
6.600000 0.2450 0.2710 0.2950 0.3160 0.3380
6.633254 0.3560 0.3660 0.3770 0.3870 0.3900
6.667000 0.3930 0.3980 0.4000 0.4030 0.4060
6.700254 0.4080 0.4160 0.4260 0.4370 0.4490
6.733000 0.4650 0.4820 0.5060 0.5420 0.5780
6.766254 0.6070 0.6320 0.6400 0.6430 0.6550
6.800000 0.6660 0.6690 0.6760 0.6780 0.6790
6.833254 0.6830 0.6840 0.6840 0.6840 0.6840
6.866000 0.6840 0.6840 0.6840 0.6840 0.6810
6.899254 0.6780 0.6680 0.6550 0.6350 0.6190
6.933000 0.6160 0.6140 0.6110 0.6090 0.6040
6.966254 0.6040 0.6010 0.5990 0.5960 0.5880
6.999000 0.5860 0.5750 0.5650 0.5600 0.5570
7.032254 0.5490 0.5450 0.5440 0.5440 0.5450
7.066000 0.5450 0.5450 0.5470 0.5470 0.5450
7.099254 0.5440 0.5270 0.5140 0.4960 0.4750
7.132000 0.4260 0.3830 0.3520 0.3230 0.2990
7.165254 0.2820 0.2790 0.2820 0.2920 0.3080
7.198000 0.3330 0.3620 0.4050 0.4310 0.4570
7.231254 0.4850 0.4980 0.5080 0.5140 0.5190
7.265000 0.5270 0.5340 0.5350 0.5350 0.5350
7.298254 0.5350 0.5340 0.5260 0.5130 0.4950
7.331000 0.4720 0.4460 0.4160 0.3980 0.3950
7.364254 0.3790 0.3660 0.3590 0.3570 0.3540
7.398000 0.3480 0.3480 0.3560 0.3660 0.3750
7.431254 0.3920 0.4150 0.4280 0.4460 0.4490
7.464000 0.4570 0.4670 0.4830 0.4950 0.4960
7.497254 0.5060 0.5130 0.5140 0.5160 0.5240
7.531000 0.5270 0.5290 0.5290 0.5340 0.5370
7.564254 0.5440 0.5450 0.5500 0.5500 0.5440
7.597000 0.5370 0.5290 0.5130 0.5060 0.4980
7.630254 0.4850 0.4750 0.4650 0.4550 0.4440
7.664000 0.4290 0.4240 0.4230 0.4210 0.4230
7.697254 0.4240 0.4280 0.4360 0.4460 0.4600
7.730000 0.4670 0.4750 0.4850 0.4960 0.5060
7.763254 0.5210 0.5260 0.5320 0.5390 0.5440
7.797000 0.5450 0.5470 0.5470 0.5470 0.5490
7.830254 0.5490 0.5500 0.5500 0.5500 0.5500
7.863000 0.5490 0.5470 0.5450 0.5440 0.5350
7.896254 0.5290 0.5270 0.5240 0.5170 0.5140
7.930000 0.5010 0.4850 0.4770 0.4700 0.4650
7.963254 0.4570 0.4420 0.4260 0.4110 0.3970
7.996000 0.3830 0.3700 0.3590 0.3510 0.3430
8.029254 0.3310 0.3120 0.2890 0.2790 0.2670
8.063000 0.2580 0.2560 0.2540 0.2500 0.2380
8.096254 0.2180 0.2070 0.2000 0.1970 0.1860
8.129000 0.1790 0.1760 0.1660 0.1560 0.1480
8.162254 0.1400 0.1370 0.1350 0.1290 0.1220
8.196000 0.1110 0.1040 0.0980 0.0940 0.0910
8.229254 0.0890 0.0880 0.0860 0.0860 0.0840
8.262000 0.0840 0.0830 0.0810 0.0780 0.0760
8.295254 0.0760 0.0750 0.0710 0.0700 0.0680
8.329000 0.0660 0.0650 0.0630 0.0620 0.0600
8.362254 0.0580 0.0570 0.0550 0.0520 0.0500
8.395000 0.0490 0.0470 0.0450 0.0450 0.0450
8.428254 0.0450 0.0450 0.0470 0.0470 0.0490
8.462000 0.0520 0.0570 0.0580 0.0580 0.0620
8.495254 0.0650 0.0650 0.0660 0.0660 0.0700
8.528000 0.0760 0.0880 0.0960 0.0980 0.1060
8.561254 0.1110 0.1160 0.1250 0.1330 0.1470
8.594000 0.1580 0.1690 0.1810 0.1860 0.1970
8.627254 0.2050 0.2070 0.2100 0.2180 0.2350
8.661000 0.2460 0.2540 0.2560 0.2660 0.2690
8.694254 0.2760 0.2790 0.2870 0.2970 0.3130
8.727000 0.3200 0.3250 0.3280 0.3360 0.3440
8.760254 0.3440 0.3380 0.3280 0.3210 0.3070
8.794000 0.2870 0.2560 0.2140 0.2000 0.1870
8.827254 0.1760 0.1730 0.1610 0.1580 0.1550
8.860000 0.1510 0.1480 0.1470 0.1470 0.1480
8.893254 0.1510 0.1580 0.1650 0.1760 0.1870
8.927000 0.2050 0.2280 0.2510 0.2820 0.3050
8.960254 0.3360 0.3640 0.3790 0.3870 0.4010
8.993000 0.4150 0.4310 0.4460 0.4550 0.4670
9.026254 0.4770 0.4900 0.5010 0.5060 0.5160
9.060000 0.5400 0.5650 0.5760 0.5860 0.5960
9.093254 0.6140 0.6270 0.6420 0.6550 0.6650
9.126000 0.6680 0.6740 0.6780 0.6840 0.6860
9.159254 0.6890 0.6910 0.6940 0.6970 0.6990
9.193000 0.7020 0.7040 0.7070 0.7090 0.7100
9.226254 0.7120 0.7140 0.7150 0.7150 0.7170
9.259000 0.7170 0.7180 0.7200 0.7220 0.7220
9.292254 0.7230 0.7250 0.7270 0.7280 0.7320
9.326000 0.7320 0.7330 0.7350 0.7350 0.7350
9.359254 0.7350 0.7350 0.7350 0.7350 0.7350
9.392000 0.7330 0.7330 0.7330 0.7300 0.7280
9.425254 0.7250 0.7200 0.7170 0.7070 0.6970
9.459000 0.6780 0.6510 0.6170 0.5780 0.5350
9.492254 0.4900 0.4420 0.4050 0.3770 0.3510
9.525000 0.3260 0.3070 0.3000 0.2920 0.2760
9.558254 0.2580 0.2380 0.2250 0.2070 0.1970
9.592000 0.1910 0.1760 0.1660 0.1580 0.1550
9.625254 0.1480 0.1470 0.1480 0.1580 0.1630
9.658000 0.1680 0.1960 0.2150 0.2360 0.2670
9.691254 0.3120 0.3460 0.3950 0.4360 0.4860
9.725000 0.5170 0.5500 0.5660 0.5840 0.5960
9.758254 0.6060 0.6250 0.6350 0.6430 0.6480
9.791000 0.6550 0.6550 0.6480 0.6160 0.6020
9.824254 0.5660 0.5400 0.5080 0.4850 0.4470
9.858000 0.3930 0.3560 0.3310 0.3120 0.2950
9.891254 0.2850 0.2820 0.2810 0.2820 0.2920
9.924000 0.3080 0.3460 0.3870 0.4240 0.4640
9.957254 0.5030 0.5310 0.5700 0.6140 0.6220
9.991000 0.6400 0.6610 0.6790 0.6890 0.6990
10.024254 0.7000 0.7070 0.7150 0.7180 0.7250
10.057000 0.7300 0.7350 0.7360 0.7410 0.7450
10.090254 0.7460 0.7540 0.7560 0.7580 0.7580
10.123000 0.7580 0.7590 0.7590 0.7590 0.7610
10.156254 0.7610 0.7660 0.7660 0.7670 0.7670
10.190000 0.7670 0.7670 0.7660 0.7660 0.7640
10.223254 0.7640 0.7640 0.7630 0.7630 0.7610
10.256000 0.7610 0.7590 0.7590 0.7590 0.7590
10.289254 0.7590 0.7590 0.7590 0.7590 0.7580
10.323000 0.7580 0.7560 0.7580 0.7580 0.7580
10.356254 0.7560 0.7540 0.7530 0.7500 0.7500
10.389000 0.7500 0.7510 0.7510 0.7530 0.7540
10.422254 0.7540 0.7560 0.7580 0.7580 0.7580
10.456000 0.7540 0.7510 0.7460 0.7450 0.7460
10.489254 0.7480 0.7480 0.7500 0.7500 0.7510
10.522000 0.7530 0.7540 0.7540 0.7530 0.7500
10.555254 0.7480 0.7500 0.7500 0.7480 0.7460
10.589000 0.7450 0.7430 0.7430 0.7450 0.7460
10.622254 0.7460 0.7450 0.7450 0.7460 0.7460
10.655000 0.7480 0.7540 0.7560 0.7580 0.7590
10.688254 0.7640 0.7660 0.7690 0.7760 0.7770
10.722000 0.7790 0.7890 0.7900 0.7940 0.7950
10.755254 0.7970 0.7970 0.7940 0.7920 0.7940
10.788000 0.7940 0.7950 0.7970 0.7970 0.7950
10.821254 0.7970 0.7990 0.7990 0.7990 0.7990
10.855000 0.7990 0.7970 0.7970 0.7970 0.7970
10.888254 0.7950 0.7920 0.7870 0.7850 0.7820
10.921000 0.7820 0.7840 0.7850 0.7850 0.7840
10.954254 0.7810 0.7790 0.7760 0.7760 0.7710
10.988000 0.7690 0.7690 0.7670 0.7660 0.7630
11.021254 0.7610 0.7590 0.7580 0.7580 0.7580
11.054000 0.7590 0.7610 0.7630 0.7630 0.7610
11.087254 0.7590 0.7580 0.7590 0.7590 0.7610
11.121000 0.7630 0.7630 0.7610 0.7580 0.7560
11.154254 0.7560 0.7580 0.7590 0.7610 0.7610
11.187000 0.7640 0.7660 0.7670 0.7670 0.7660
11.220254 0.7640 0.7640 0.7660 0.7660 0.7660
11.254000 0.7670 0.7690 0.7690 0.7710 0.7710
11.287254 0.7720 0.7760 0.7760 0.7790 0.7850
11.320000 0.7850 0.7870 0.7870 0.7850 0.7850
11.353254 0.7850 0.7870 0.7900 0.7970 0.7990
11.387000 0.8000 0.8000 0.8020 0.8020 0.8000
11.420254 0.7990 0.7990 0.7970 0.7970 0.7990
11.453000 0.7990 0.7990 0.7990 0.8000 0.8000
11.486254 0.8000 0.8000 0.7990 0.7970 0.7940
11.519000 0.7900 0.7900 0.7940 0.7970 0.7970
11.552254 0.7950 0.7920 0.7870 0.7810 0.7760
11.586000 0.7690 0.7670 0.7690 0.7710 0.7760
11.619254 0.7790 0.7770 0.7760 0.7660 0.7660
11.652000 0.7660 0.7610 0.7590 0.7560 0.7460
11.685254 0.7410 0.7400 0.7380 0.7360 0.7350
11.719000 0.7320 0.7280 0.7250 0.7150 0.7070
11.752254 0.7050 0.6970 0.6870 0.6780 0.6740
11.785000 0.6650 0.6560 0.6420 0.6250 0.6140
11.818254 0.6020 0.5980 0.5880 0.5780 0.5650
11.852000 0.5490 0.5350 0.5260 0.5170 0.5090
11.885254 0.5040 0.4960 0.4850 0.4770 0.4730
11.918000 0.4670 0.4650 0.4600 0.4550 0.4460
11.951254 0.4440 0.4370 0.4340 0.4290 0.4260
11.985000 0.4240 0.4230 0.4210 0.4190 0.4180
12.018254 0.4160 0.4150 0.4110 0.4100 0.4080
12.051000 0.4080 0.4100 0.4150 0.4240 0.4290
12.084254 0.4370 0.4440 0.4460 0.4550 0.4650
12.118000 0.4670 0.4750 0.4780 0.4850 0.4950
12.151254 0.5040 0.5160 0.5270 0.5450 0.5490
12.184000 0.5550 0.5600 0.5660 0.5780 0.5960
12.217254 0.6170 0.6190 0.6270 0.6370 0.6450
12.251000 0.6550 0.6680 0.6840 0.6890 0.6960
12.284254 0.7050 0.7150 0.7180 0.7250 0.7350
12.317000 0.7380 0.7460 0.7560 0.7590 0.7590
12.350254 0.7640 0.7640 0.7630 0.7630 0.7640
12.384000 0.7640 0.7610 0.7610 0.7630 0.7640
12.417254 0.7670 0.7690 0.7690 0.7690 0.7710
12.450000 0.7710 0.7720 0.7740 0.7760 0.7760
12.483254 0.7760 0.7760 0.7760 0.7810 0.7850
12.517000 0.7870 0.7900 0.7900 0.7890 0.7890
12.550254 0.7850 0.7850 0.7820 0.7820 0.7790
12.583000 0.7760 0.7720 0.7690 0.7670 0.7690
12.616254 0.7720 0.7760 0.7770 0.7770 0.7770
12.650000 0.7770 0.7760 0.7720 0.7670 0.7670
12.683254 0.7670 0.7670 0.7670 0.7670 0.7640
12.716000 0.7640 0.7630 0.7630 0.7630 0.7610
12.749254 0.7610 0.7610 0.7610 0.7610 0.7610
12.783000 0.7590 0.7590 0.7580 0.7580 0.7540
12.816254 0.7530 0.7460 0.7450 0.7450 0.7450
12.849000 0.7430 0.7430 0.7400 0.7400 0.7350
12.882254 0.7250 0.7230 0.7250 0.7270 0.7270
12.915000 0.7250 0.7200 0.7170 0.7150 0.7140
12.948254 0.7140 0.7100 0.7090 0.7070 0.7070
12.982000 0.7070 0.7100 0.7100 0.7070 0.7020
13.015254 0.7000 0.6990 0.6970 0.6970 0.6970
13.048000 0.6960 0.6890 0.6840 0.6790 0.6780
13.081254 0.6760 0.6680 0.6660 0.6650 0.6650
13.115000 0.6610 0.6580 0.6550 0.6470 0.6470
13.148254 0.6470 0.6450 0.6450 0.6450 0.6450
13.181000 0.6450 0.6450 0.6420 0.6420 0.6400
13.214254 0.6400 0.6400 0.6400 0.6400 0.6380
13.248000 0.6320 0.6300 0.6300 0.6300 0.6320
13.281254 0.6320 0.6300 0.6290 0.6250 0.6220
13.314000 0.6190 0.6160 0.6140 0.6120 0.6120
13.347254 0.6140 0.6160 0.6170 0.6170 0.6160
13.381000 0.6160 0.6140 0.6090 0.6060 0.5960
13.414254 0.5880 0.5880 0.5860 0.5860 0.5780
13.447000 0.5750 0.5750 0.5750 0.5750 0.5730
13.480254 0.5710 0.5680 0.5660 0.5660 0.5660
13.514000 0.5650 0.5650 0.5650 0.5630 0.5630
13.547254 0.5600 0.5600 0.5600 0.5600 0.5600
13.580000 0.5580 0.5580 0.5580 0.5580 0.5570
13.613254 0.5530 0.5500 0.5470 0.5450 0.5440
13.647000 0.5440 0.5420 0.5400 0.5370 0.5350
13.680254 0.5310 0.5310 0.5290 0.5290 0.5270
13.713000 0.5270 0.5260 0.5240 0.5210 0.5190
13.746254 0.5190 0.5190 0.5170 0.5160 0.5140
13.780000 0.5090 0.5060 0.5040 0.5000 0.4980
13.813254 0.4950 0.4880 0.4860 0.4860 0.4860
13.846000 0.4830 0.4830 0.4820 0.4800 0.4780
13.879254 0.4770 0.4730 0.4700 0.4650 0.4550
13.913000 0.4470 0.4460 0.4390 0.4360 0.4360
13.946254 0.4340 0.4260 0.4180 0.4160 0.4160
13.979000 0.4150 0.4130 0.4060 0.3970 0.3920
14.012254 0.3850 0.3750 0.3720 0.3700 0.3660
14.046000 0.3520 0.3480 0.3460 0.3360 0.3210
14.079254 0.3200 0.3180 0.3120 0.2970 0.2940
14.112000 0.2900 0.2890 0.2850 0.2760 0.2760
14.145254 0.2710 0.2640 0.2590 0.2580 0.2560
14.179000 0.2560 0.2530 0.2510 0.2500 0.2450
14.212254 0.2380 0.2360 0.2350 0.2270 0.2200
14.245000 0.2170 0.2150 0.2150 0.2170 0.2170
14.278254 0.2170 0.2180 0.2180 0.2180 0.2180
14.311000 0.2180 0.2200 0.2200 0.2220 0.2250
14.344254 0.2280 0.2300 0.2330 0.2360 0.2380
14.378000 0.2400 0.2410 0.2430 0.2460 0.2510
14.411254 0.2610 0.2660 0.2720 0.2820 0.2940
14.444000 0.2990 0.3120 0.3230 0.3360 0.3440
14.477254 0.3490 0.3590 0.3750 0.3870 0.3970
14.511000 0.4080 0.4230 0.4360 0.4440 0.4460
14.544254 0.4490 0.4550 0.4590 0.4670 0.4750
14.577000 0.4770 0.4850 0.4850 0.4900 0.4960
14.610254 0.4980 0.5010 0.5040 0.5060 0.5140
14.644000 0.5190 0.5210 0.5220 0.5240 0.5260
14.677254 0.5260 0.5290 0.5310 0.5320 0.5350
14.710000 0.5370 0.5370 0.5390 0.5400 0.5420
14.743254 0.5420 0.5440 0.5450 0.5470 0.5490
14.777000 0.5500 0.5520 0.5530 0.5530 0.5520
14.810254 0.5470 0.5450 0.5450 0.5450 0.5440
14.843000 0.5420 0.5420 0.5440 0.5470 0.5490
14.876254 0.5500 0.5500 0.5490 0.5440 0.5420
14.910000 0.5440 0.5450 0.5450 0.5470 0.5470
14.943254 0.5490 0.5520 0.5530 0.5570 0.5580
14.976000 0.5580 0.5580 0.5600 0.5620 0.5630
15.009254 0.5660 0.5680 0.5700 0.5710 0.5730
15.043000 0.5750 0.5750 0.5750 0.5730 0.5730
15.076254 0.5710 0.5710 0.5730 0.5750 0.5760
15.109000 0.5780 0.5800 0.5810 0.5840 0.5860
15.142254 0.5860 0.5860 0.5840 0.5840 0.5840
15.176000 0.5840 0.5840 0.5840 0.5840 0.5860
15.209254 0.5860 0.5880 0.5880 0.5880 0.5890
15.242000 0.5890 0.5890 0.5890 0.5890 0.5890
15.275254 0.5910 0.5930 0.5930 0.5940 0.5940
15.309000 0.5960 0.5960 0.5960 0.5960 0.5960
15.342254 0.5960 0.5960 0.5960 0.5980 0.5990
15.375000 0.5990 0.5990 0.5990 0.5990 0.6010
15.408254 0.6010 0.6020 0.6040 0.6060 0.6060
15.442000 0.6060 0.6040 0.6020 0.6010 0.5990
15.475254 0.5980 0.5980 0.5990 0.6010 0.6010
15.508000 0.6020 0.6020 0.6060 0.6060 0.6060
15.541254 0.6060 0.6060 0.6070 0.6140 0.6140
15.575000 0.6090 0.6060 0.5980 0.5960 0.6010
15.608254 0.6070 0.6090 0.6120 0.6110 0.6090
15.641000 0.6070 0.6040 0.6010 0.5980 0.5960
15.674254 0.5980 0.6010 0.6010 0.5990 0.5990
15.708000 0.5980 0.5990 0.5990 0.5990 0.5980
15.741254 0.5980 0.5980 0.5980 0.5980 0.5980
15.774000 0.5980 0.5960 0.5960 0.5960 0.5940
15.807254 0.5930 0.5910 0.5910 0.5910 0.5930
15.840000 0.5930 0.5940 0.5960 0.5960 0.5980
15.873254 0.5980 0.5990 0.5990 0.6010 0.6010
15.907000 0.6020 0.6020 0.6020 0.6020 0.6020
15.940254 0.6010 0.6010 0.5990 0.5980 0.5980
15.973000 0.5980 0.5980 0.5980 0.5990 0.5990
16.006254 0.6010
##END=
