##TITLE=BARIUM CHROMATE
##JCAMP-DX=4.24
##DATA TYPE=INFRARED SPECTRUM
##CLASS=COBLENTZ III
##ORIGIN=DESOTO CHEMICAL COATINGS, INC.
##OWNER=COBLENTZ SOCIETY
Collection (C) 2018 copyright by the U.S. Secretary of Commerce
on behalf of the United States of America. All rights reserved.
##DATE=Not specified, most likely prior to 1970
##MOLFORM=O4 Ba Cr
$$ 98% PURE
##SOURCE REFERENCE=COBLENTZ NO. 4692
##$NIST ID=B6004692
##$NIST SOURCE=COBLENTZ
##$NIST IMAGE=cob4692
##SPECTROMETER/DATA SYSTEM=BECKMAN IR-12 (GRATING)
##STATE=SOLID (0.5 mg / 300 mg CsI DISC)
##SAMPLING PROCEDURE=TRANSMISSION
##RESOLUTION=4
##DATA PROCESSING=DIGITIZED BY NIST FROM HARD COPY (FROM TWO SEGMENTS)
##XUNITS=1/CM
##YUNITS=TRANSMITTANCE
##XFACTOR=1.000000
##YFACTOR=1
##DELTAX=1.328416
##FIRSTX=201.328
##LASTX=3996.61
##FIRSTY=0.775
##MAXX=3996.61
##MINX=201.328
##MAXY=0.973
##MINY=0.117004
##NPOINTS=2858
##XYDATA=(X++(Y..Y))
201.328000 0.7750 0.7750 0.7750 0.7760 0.7760
207.970081 0.7770 0.7810 0.7840 0.7870 0.7910
214.612162 0.7930 0.7970 0.8010 0.8050 0.8090
221.254244 0.8160 0.8170 0.8190 0.8269 0.8290
227.896325 0.8330 0.8400 0.8440 0.8490 0.8510
234.538406 0.8530 0.8570 0.8600 0.8650 0.8680
241.180487 0.8720 0.8730 0.8770 0.8800 0.8840
247.822568 0.8850 0.8880 0.8900 0.8920 0.8930
254.464649 0.8940 0.8980 0.9000 0.9020 0.9040
261.106731 0.9040 0.9050 0.9050 0.9050 0.9080
267.748812 0.9080 0.9080 0.9080 0.9060 0.9060
274.390893 0.9060 0.9080 0.9080 0.9080 0.9090
281.032974 0.9090 0.9100 0.9130 0.9130 0.9140
287.675055 0.9160 0.9170 0.9170 0.9170 0.9170
294.317136 0.9160 0.9160 0.9140 0.9140 0.9130
300.959218 0.9120 0.9120 0.9100 0.9100 0.9120
307.601299 0.9120 0.9120 0.9120 0.9120 0.9130
314.243380 0.9130 0.9130 0.9130 0.9130 0.9130
320.885461 0.9130 0.9130 0.9130 0.9120 0.9100
327.527542 0.9100 0.9100 0.9090 0.9090 0.9060
334.169623 0.9050 0.9040 0.9010 0.9000 0.8980
340.811705 0.8980 0.8970 0.8970 0.8970 0.8980
347.453786 0.8980 0.9000 0.9000 0.9000 0.9000
354.095867 0.8980 0.8980 0.8970 0.8970 0.8970
360.737948 0.8960 0.8960 0.8960 0.8940 0.8930
367.380029 0.8930 0.8920 0.8900 0.8890 0.8850
374.022110 0.8770 0.8690 0.8680 0.8680 0.8710
380.664192 0.8780 0.8800 0.8800 0.8770 0.8760
387.306273 0.8640 0.8520 0.7911 0.7690 0.7690
393.948354 0.8009 0.8349 0.8678 0.8769 0.8859
400.590435 0.8900 0.8920 0.8920 0.8920 0.8920
407.232516 0.8890 0.8860 0.8850 0.8761 0.8631
413.874597 0.8210 0.7800 0.7201 0.7200 0.7479
420.516679 0.7719 0.8029 0.8388 0.8678 0.8819
427.158760 0.8920 0.9000 0.9020 0.9050 0.9080
433.800841 0.9100 0.9160 0.9180 0.9200 0.9220
440.442922 0.9260 0.9280 0.9290 0.9290 0.9290
447.085003 0.9300 0.9320 0.9330 0.9340 0.9340
453.727084 0.9340 0.9340 0.9340 0.9370 0.9380
460.369166 0.9380 0.9370 0.9370 0.9360 0.9360
467.011247 0.9360 0.9370 0.9380 0.9380 0.9380
473.653328 0.9400 0.9410 0.9410 0.9420 0.9440
480.295409 0.9450 0.9440 0.9420 0.9410 0.9400
486.937490 0.9400 0.9400 0.9400 0.9410 0.9410
493.579571 0.9410 0.9410 0.9420 0.9440 0.9440
500.221653 0.9450 0.9450 0.9450 0.9450 0.9450
506.863734 0.9450 0.9450 0.9450 0.9450 0.9450
513.505815 0.9450 0.9450 0.9450 0.9450 0.9450
520.147896 0.9450 0.9450 0.9460 0.9450 0.9450
526.789977 0.9450 0.9450 0.9450 0.9450 0.9450
533.432058 0.9450 0.9450 0.9450 0.9450 0.9450
540.074140 0.9450 0.9440 0.9420 0.9410 0.9420
546.716221 0.9440 0.9440 0.9440 0.9440 0.9440
553.358302 0.9420 0.9410 0.9410 0.9410 0.9400
560.000383 0.9400 0.9380 0.9370 0.9370 0.9360
566.642464 0.9340 0.9340 0.9330 0.9330 0.9330
573.284545 0.9330 0.9330 0.9340 0.9360 0.9370
579.926627 0.9370 0.9380 0.9380 0.9380 0.9380
586.568708 0.9380 0.9380 0.9400 0.9400 0.9400
593.210789 0.9400 0.9400 0.9400 0.9400 0.9400
599.852870 0.9400 0.9400 0.9400 0.9400 0.9380
606.494951 0.9380 0.9380 0.9370 0.9340 0.9330
613.137032 0.9320 0.9320 0.9320 0.9330 0.9340
619.779114 0.9340 0.9360 0.9370 0.9370 0.9370
626.421195 0.9360 0.9360 0.9340 0.9320 0.9320
633.063276 0.9320 0.9320 0.9320 0.9300 0.9290
639.705357 0.9290 0.9300 0.9300 0.9300 0.9300
646.347438 0.9300 0.9320 0.9320 0.9290 0.9290
652.989519 0.9290 0.9290 0.9290 0.9280 0.9290
659.631601 0.9280 0.9280 0.9280 0.9280 0.9260
666.273682 0.9250 0.9220 0.9220 0.9250 0.9280
672.915763 0.9280 0.9290 0.9290 0.9290 0.9300
679.557844 0.9300 0.9320 0.9300 0.9300 0.9300
686.199925 0.9300 0.9300 0.9300 0.9300 0.9300
692.842006 0.9300 0.9300 0.9300 0.9300 0.9320
699.484088 0.9300 0.9300 0.9300 0.9290 0.9280
706.126169 0.9280 0.9280 0.9280 0.9260 0.9250
712.768250 0.9250 0.9250 0.9250 0.9250 0.9240
719.410331 0.9240 0.9220 0.9220 0.9220 0.9220
726.052412 0.9220 0.9220 0.9200 0.9170 0.9170
732.694493 0.9170 0.9160 0.9160 0.9140 0.9130
739.336575 0.9120 0.9120 0.9120 0.9100 0.9100
745.978656 0.9090 0.9080 0.9060 0.9060 0.9060
752.620737 0.9050 0.9040 0.9020 0.9010 0.8980
759.262818 0.8980 0.8970 0.8960 0.8930 0.8900
765.904899 0.8880 0.8860 0.8840 0.8820 0.8810
772.546980 0.8780 0.8770 0.8730 0.8720 0.8710
779.189062 0.8690 0.8640 0.8630 0.8610 0.8590
785.831143 0.8560 0.8550 0.8530 0.8510 0.8490
792.473224 0.8450 0.8430 0.8390 0.8370 0.8360
799.115305 0.8330 0.8310 0.8270 0.8240 0.8200
805.757386 0.8170 0.8160 0.8130 0.8090 0.8040
812.399468 0.8000 0.7950 0.7880 0.7800 0.7750
819.041549 0.7710 0.7630 0.7560 0.7500 0.7401
825.683630 0.7360 0.7300 0.7240 0.7120 0.7070
832.325711 0.6980 0.6791 0.6641 0.6501 0.6381
838.967792 0.6180 0.5900 0.5710 0.5500 0.5251
845.609873 0.4901 0.4651 0.4252 0.4011 0.3513
852.251955 0.3050 0.2550 0.2110 0.1701 0.1341
858.894036 0.1340 0.1420 0.1480 0.1500 0.1500
865.536117 0.1430 0.1350 0.1260 0.1190 0.1170
872.178198 0.1180 0.1310 0.1429 0.1579 0.1858
878.820279 0.2300 0.2650 0.2840 0.2930 0.2930
885.462360 0.2880 0.2711 0.2511 0.2261 0.1922
892.104442 0.1580 0.1510 0.1400 0.1340 0.1320
898.746523 0.1340 0.1360 0.1440 0.1828 0.2069
905.388604 0.2310 0.2530 0.2670 0.3189 0.3509
912.030685 0.3729 0.3820 0.3840 0.3920 0.3970
918.672766 0.3980 0.3960 0.3890 0.3810 0.3720
925.314847 0.3531 0.3391 0.3211 0.3051 0.2891
931.956929 0.2720 0.2600 0.2590 0.2590 0.2600
938.599010 0.2680 0.3029 0.3319 0.3390 0.3708
945.241091 0.4120 0.4600 0.5000 0.5300 0.5689
951.883172 0.6049 0.6279 0.6499 0.6739 0.6909
958.525253 0.7060 0.7220 0.7420 0.7510 0.7670
965.167334 0.7790 0.7830 0.7890 0.8039 0.8209
971.809416 0.8270 0.8310 0.8400 0.8430 0.8480
978.451497 0.8530 0.8590 0.8600 0.8640 0.8680
985.093578 0.8720 0.8760 0.8770 0.8800 0.8820
991.735659 0.8850 0.8880 0.8890 0.8900 0.8920
998.377740 0.8940 0.8970 0.8980 0.9000 0.9010
1005.019821 0.9020 0.9080 0.9090 0.9090 0.9090
1011.661903 0.9090 0.9090 0.9100 0.9120 0.9120
1018.303984 0.9130 0.9140 0.9140 0.9160 0.9170
1024.946065 0.9180 0.9180 0.9200 0.9200 0.9210
1031.588146 0.9210 0.9210 0.9220 0.9250 0.9250
1038.230227 0.9260 0.9260 0.9280 0.9280 0.9290
1044.872308 0.9290 0.9300 0.9300 0.9320 0.9320
1051.514390 0.9320 0.9330 0.9330 0.9340 0.9340
1058.156471 0.9340 0.9360 0.9360 0.9360 0.9370
1064.798552 0.9370 0.9380 0.9380 0.9380 0.9380
1071.440633 0.9380 0.9380 0.9380 0.9370 0.9360
1078.082714 0.9340 0.9340 0.9340 0.9330 0.9330
1084.724795 0.9320 0.9290 0.9280 0.9250 0.9220
1091.366877 0.9210 0.9210 0.9220 0.9240 0.9260
1098.008958 0.9290 0.9300 0.9330 0.9340 0.9360
1104.651039 0.9360 0.9370 0.9380 0.9380 0.9360
1111.293120 0.9340 0.9330 0.9300 0.9290 0.9290
1117.935201 0.9300 0.9300 0.9330 0.9340 0.9370
1124.577282 0.9400 0.9440 0.9460 0.9490 0.9500
1131.219364 0.9500 0.9490 0.9480 0.9480 0.9450
1137.861445 0.9420 0.9410 0.9410 0.9410 0.9410
1144.503526 0.9410 0.9420 0.9500 0.9500 0.9530
1151.145607 0.9540 0.9540 0.9570 0.9570 0.9570
1157.787688 0.9570 0.9570 0.9580 0.9580 0.9580
1164.429769 0.9580 0.9600 0.9600 0.9600 0.9600
1171.071851 0.9610 0.9610 0.9620 0.9620 0.9620
1177.713932 0.9640 0.9640 0.9620 0.9620 0.9620
1184.356013 0.9620 0.9620 0.9620 0.9640 0.9640
1190.998094 0.9650 0.9650 0.9660 0.9660 0.9680
1197.640175 0.9680 0.9680 0.9680 0.9680 0.9680
1204.282256 0.9680 0.9690 0.9690 0.9690 0.9690
1210.924338 0.9690 0.9690 0.9680 0.9660 0.9660
1217.566419 0.9660 0.9660 0.9680 0.9680 0.9680
1224.208500 0.9680 0.9680 0.9680 0.9660 0.9660
1230.850581 0.9660 0.9660 0.9660 0.9660 0.9650
1237.492662 0.9650 0.9650 0.9660 0.9660 0.9660
1244.134743 0.9660 0.9660 0.9680 0.9680 0.9680
1250.776825 0.9680 0.9690 0.9690 0.9690 0.9700
1257.418906 0.9700 0.9690 0.9690 0.9690 0.9690
1264.060987 0.9690 0.9700 0.9700 0.9700 0.9700
1270.703068 0.9700 0.9700 0.9700 0.9700 0.9700
1277.345149 0.9700 0.9720 0.9720 0.9720 0.9720
1283.987230 0.9730 0.9730 0.9730 0.9730 0.9730
1290.629312 0.9730 0.9730 0.9730 0.9730 0.9720
1297.271393 0.9720 0.9720 0.9720 0.9720 0.9700
1303.913474 0.9690 0.9690 0.9700 0.9700 0.9700
1310.555555 0.9700 0.9700 0.9700 0.9700 0.9720
1317.197636 0.9720 0.9720 0.9720 0.9720 0.9720
1323.839717 0.9720 0.9720 0.9720 0.9720 0.9720
1330.481799 0.9720 0.9720 0.9700 0.9690 0.9690
1337.123880 0.9700 0.9700 0.9700 0.9720 0.9700
1343.765961 0.9700 0.9700 0.9700 0.9690 0.9680
1350.408042 0.9660 0.9660 0.9660 0.9660 0.9660
1357.050123 0.9660 0.9680 0.9680 0.9680 0.9680
1363.692204 0.9680 0.9680 0.9680 0.9680 0.9680
1370.334286 0.9680 0.9680 0.9680 0.9690 0.9690
1376.976367 0.9680 0.9650 0.9640 0.9640 0.9640
1383.618448 0.9620 0.9620 0.9620 0.9620 0.9620
1390.260529 0.9620 0.9620 0.9620 0.9610 0.9610
1396.902610 0.9610 0.9620 0.9640 0.9640 0.9640
1403.544692 0.9620 0.9620 0.9620 0.9620 0.9620
1410.186773 0.9620 0.9620 0.9620 0.9620 0.9620
1416.828854 0.9620 0.9620 0.9620 0.9620 0.9620
1423.470935 0.9640 0.9650 0.9660 0.9660 0.9660
1430.113016 0.9660 0.9660 0.9660 0.9660 0.9660
1436.755097 0.9660 0.9660 0.9660 0.9660 0.9660
1443.397179 0.9680 0.9690 0.9690 0.9690 0.9690
1450.039260 0.9690 0.9690 0.9680 0.9680 0.9680
1456.681341 0.9680 0.9690 0.9690 0.9690 0.9690
1463.323422 0.9690 0.9690 0.9690 0.9690 0.9690
1469.965503 0.9700 0.9700 0.9700 0.9700 0.9720
1476.607584 0.9720 0.9720 0.9700 0.9700 0.9720
1483.249666 0.9720 0.9720 0.9720 0.9700 0.9690
1489.891747 0.9690 0.9690 0.9700 0.9700 0.9700
1496.533828 0.9700 0.9720 0.9720 0.9720 0.9720
1503.175909 0.9720 0.9700 0.9700 0.9700 0.9690
1509.817990 0.9690 0.9700 0.9700 0.9700 0.9700
1516.460071 0.9700 0.9700 0.9700 0.9700 0.9700
1523.102153 0.9690 0.9680 0.9680 0.9660 0.9660
1529.744234 0.9660 0.9660 0.9660 0.9660 0.9660
1536.386315 0.9660 0.9660 0.9660 0.9660 0.9660
1543.028396 0.9660 0.9650 0.9650 0.9650 0.9650
1549.670477 0.9620 0.9620 0.9620 0.9620 0.9610
1556.312558 0.9610 0.9610 0.9610 0.9600 0.9600
1562.954640 0.9600 0.9610 0.9610 0.9600 0.9600
1569.596721 0.9580 0.9570 0.9570 0.9570 0.9570
1576.238802 0.9570 0.9570 0.9540 0.9530 0.9520
1582.880883 0.9500 0.9500 0.9500 0.9500 0.9480
1589.522964 0.9480 0.9480 0.9460 0.9450 0.9440
1596.165045 0.9440 0.9440 0.9440 0.9420 0.9420
1602.807127 0.9420 0.9420 0.9400 0.9380 0.9380
1609.449208 0.9370 0.9360 0.9360 0.9340 0.9340
1616.091289 0.9330 0.9330 0.9330 0.9330 0.9330
1622.733370 0.9330 0.9340 0.9340 0.9340 0.9340
1629.375451 0.9360 0.9360 0.9360 0.9360 0.9360
1636.017532 0.9370 0.9370 0.9380 0.9400 0.9400
1642.659614 0.9400 0.9400 0.9400 0.9400 0.9400
1649.301695 0.9400 0.9400 0.9400 0.9410 0.9410
1655.943776 0.9410 0.9420 0.9420 0.9420 0.9420
1662.585857 0.9420 0.9420 0.9420 0.9440 0.9450
1669.227938 0.9460 0.9480 0.9490 0.9490 0.9490
1675.870019 0.9490 0.9490 0.9490 0.9490 0.9490
1682.512101 0.9490 0.9490 0.9490 0.9490 0.9490
1689.154182 0.9490 0.9490 0.9490 0.9480 0.9480
1695.796263 0.9480 0.9460 0.9460 0.9450 0.9440
1702.438344 0.9420 0.9410 0.9400 0.9400 0.9380
1709.080425 0.9370 0.9370 0.9370 0.9380 0.9400
1715.722506 0.9400 0.9410 0.9410 0.9410 0.9410
1722.364588 0.9400 0.9400 0.9400 0.9410 0.9400
1729.006669 0.9400 0.9400 0.9410 0.9410 0.9420
1735.648750 0.9440 0.9440 0.9440 0.9450 0.9460
1742.290831 0.9460 0.9460 0.9460 0.9460 0.9460
1748.932912 0.9460 0.9460 0.9460 0.9450 0.9450
1755.574993 0.9450 0.9440 0.9440 0.9440 0.9450
1762.217075 0.9450 0.9460 0.9460 0.9450 0.9450
1768.859156 0.9450 0.9450 0.9450 0.9450 0.9450
1775.501237 0.9450 0.9450 0.9450 0.9450 0.9450
1782.143318 0.9450 0.9440 0.9440 0.9440 0.9440
1788.785399 0.9450 0.9460 0.9460 0.9460 0.9480
1795.427480 0.9480 0.9480 0.9480 0.9480 0.9480
1802.069562 0.9480 0.9480 0.9490 0.9490 0.9490
1808.711643 0.9500 0.9490 0.9500 0.9500 0.9500
1815.353724 0.9500 0.9500 0.9500 0.9520 0.9520
1821.995805 0.9520 0.9520 0.9520 0.9500 0.9500
1828.637886 0.9500 0.9500 0.9520 0.9520 0.9520
1835.279967 0.9530 0.9530 0.9530 0.9530 0.9530
1841.922049 0.9520 0.9520 0.9520 0.9520 0.9520
1848.564130 0.9520 0.9530 0.9540 0.9560 0.9540
1855.206211 0.9530 0.9530 0.9530 0.9540 0.9530
1861.848292 0.9530 0.9530 0.9520 0.9520 0.9520
1868.490373 0.9530 0.9530 0.9530 0.9530 0.9520
1875.132454 0.9520 0.9500 0.9500 0.9500 0.9500
1881.774536 0.9520 0.9520 0.9520 0.9530 0.9530
1888.416617 0.9500 0.9500 0.9500 0.9520 0.9530
1895.058698 0.9530 0.9530 0.9520 0.9520 0.9520
1901.700779 0.9520 0.9530 0.9530 0.9530 0.9530
1908.342860 0.9530 0.9530 0.9530 0.9530 0.9530
1914.984941 0.9530 0.9530 0.9530 0.9530 0.9530
1921.627023 0.9520 0.9520 0.9520 0.9520 0.9520
1928.269104 0.9520 0.9520 0.9520 0.9520 0.9520
1934.911185 0.9520 0.9520 0.9520 0.9520 0.9520
1941.553266 0.9530 0.9530 0.9530 0.9530 0.9520
1948.195347 0.9520 0.9520 0.9520 0.9520 0.9500
1954.837428 0.9500 0.9520 0.9520 0.9500 0.9500
1961.479510 0.9500 0.9500 0.9500 0.9520 0.9520
1968.121591 0.9520 0.9500 0.9500 0.9500 0.9520
1974.763672 0.9520 0.9520 0.9520 0.9520 0.9520
1981.405753 0.9500 0.9500 0.9500 0.9500 0.9500
1988.047834 0.9500 0.9500 0.9500 0.9500 0.9490
1994.689916 0.9490 0.9490 0.9490 0.9490 0.9500
2001.331997 0.9500 0.9500 0.9500 0.9500 0.9500
2007.974078 0.9500 0.9500 0.9500 0.9500 0.9500
2014.616159 0.9495 0.9490 0.9490 0.9490 0.9485
2021.258240 0.9480 0.9480 0.9480 0.9480 0.9480
2027.900321 0.9480 0.9480 0.9480 0.9480 0.9480
2034.542403 0.9480 0.9480 0.9480 0.9480 0.9480
2041.184484 0.9480 0.9480 0.9480 0.9480 0.9480
2047.826565 0.9480 0.9480 0.9480 0.9480 0.9480
2054.468646 0.9480 0.9480 0.9480 0.9480 0.9480
2061.110727 0.9480 0.9472 0.9462 0.9460 0.9460
2067.752808 0.9460 0.9460 0.9460 0.9460 0.9456
2074.394890 0.9452 0.9450 0.9450 0.9450 0.9450
2081.036971 0.9450 0.9450 0.9450 0.9450 0.9450
2087.679052 0.9450 0.9453 0.9458 0.9460 0.9460
2094.321133 0.9460 0.9460 0.9457 0.9452 0.9450
2100.963214 0.9450 0.9447 0.9442 0.9440 0.9440
2107.605295 0.9434 0.9424 0.9420 0.9420 0.9420
2114.247377 0.9420 0.9417 0.9412 0.9410 0.9410
2120.889458 0.9407 0.9402 0.9400 0.9400 0.9400
2127.531539 0.9400 0.9402 0.9407 0.9410 0.9410
2134.173620 0.9412 0.9417 0.9420 0.9420 0.9420
2140.815701 0.9420 0.9418 0.9413 0.9410 0.9410
2147.457782 0.9410 0.9410 0.9410 0.9410 0.9410
2154.099864 0.9410 0.9408 0.9403 0.9400 0.9400
2160.741945 0.9400 0.9400 0.9394 0.9379 0.9370
2167.384026 0.9370 0.9370 0.9370 0.9370 0.9370
2174.026107 0.9372 0.9377 0.9380 0.9380 0.9380
2180.668188 0.9380 0.9380 0.9380 0.9380 0.9380
2187.310269 0.9379 0.9374 0.9370 0.9370 0.9371
2193.952351 0.9376 0.9380 0.9380 0.9382 0.9392
2200.594432 0.9400 0.9400 0.9398 0.9388 0.9380
2207.236513 0.9380 0.9380 0.9380 0.9379 0.9374
2213.878594 0.9370 0.9370 0.9370 0.9370 0.9370
2220.520675 0.9370 0.9370 0.9370 0.9370 0.9370
2227.162756 0.9370 0.9370 0.9370 0.9370 0.9370
2233.804838 0.9370 0.9370 0.9365 0.9360 0.9360
2240.446919 0.9360 0.9360 0.9360 0.9360 0.9360
2247.089000 0.9360 0.9359 0.9349 0.9340 0.9340
2253.731081 0.9340 0.9340 0.9340 0.9340 0.9340
2260.373162 0.9340 0.9340 0.9335 0.9330 0.9330
2267.015243 0.9330 0.9330 0.9330 0.9330 0.9330
2273.657325 0.9325 0.9320 0.9320 0.9320 0.9311
2280.299406 0.9301 0.9300 0.9300 0.9300 0.9300
2286.941487 0.9300 0.9300 0.9309 0.9319 0.9320
2293.583568 0.9320 0.9324 0.9329 0.9330 0.9330
2300.225649 0.9330 0.9330 0.9326 0.9321 0.9312
2306.867730 0.9302 0.9296 0.9291 0.9286 0.9281
2313.509812 0.9280 0.9280 0.9272 0.9262 0.9256
2320.151893 0.9251 0.9246 0.9241 0.9232 0.9222
2326.793974 0.9220 0.9220 0.9220 0.9220 0.9216
2333.436055 0.9211 0.9210 0.9210 0.9210 0.9210
2340.078136 0.9210 0.9210 0.9210 0.9210 0.9210
2346.720217 0.9210 0.9210 0.9210 0.9210 0.9210
2353.362299 0.9210 0.9210 0.9213 0.9218 0.9220
2360.004380 0.9220 0.9220 0.9220 0.9220 0.9220
2366.646461 0.9220 0.9220 0.9217 0.9212 0.9210
2373.288542 0.9210 0.9210 0.9210 0.9213 0.9218
2379.930623 0.9226 0.9236 0.9240 0.9240 0.9240
2386.572704 0.9240 0.9240 0.9240 0.9240 0.9240
2393.214786 0.9240 0.9240 0.9235 0.9225 0.9218
2399.856867 0.9213 0.9210 0.9210 0.9210 0.9210
2406.498948 0.9210 0.9210 0.9210 0.9210 0.9210
2413.141029 0.9210 0.9208 0.9203 0.9200 0.9200
2419.783110 0.9200 0.9200 0.9200 0.9200 0.9200
2426.425191 0.9200 0.9200 0.9200 0.9200 0.9200
2433.067273 0.9200 0.9200 0.9200 0.9200 0.9197
2439.709354 0.9187 0.9180 0.9180 0.9180 0.9180
2446.351435 0.9180 0.9180 0.9180 0.9180 0.9180
2452.993516 0.9180 0.9180 0.9180 0.9179 0.9174
2459.635597 0.9170 0.9170 0.9170 0.9170 0.9170
2466.277678 0.9170 0.9170 0.9170 0.9170 0.9170
2472.919760 0.9170 0.9170 0.9170 0.9170 0.9170
2479.561841 0.9170 0.9170 0.9170 0.9170 0.9170
2486.203922 0.9170 0.9170 0.9170 0.9170 0.9169
2492.846003 0.9164 0.9159 0.9149 0.9139 0.9134
2499.488084 0.9130 0.9130 0.9130 0.9130 0.9130
2506.130165 0.9130 0.9130 0.9130 0.9130 0.9130
2512.772247 0.9130 0.9130 0.9130 0.9130 0.9130
2519.414328 0.9135 0.9140 0.9140 0.9140 0.9140
2526.056409 0.9140 0.9140 0.9140 0.9135 0.9130
2532.698490 0.9130 0.9130 0.9130 0.9130 0.9125
2539.340571 0.9120 0.9120 0.9120 0.9120 0.9120
2545.982652 0.9120 0.9120 0.9111 0.9101 0.9100
2552.624734 0.9100 0.9100 0.9100 0.9100 0.9100
2559.266815 0.9100 0.9100 0.9100 0.9100 0.9100
2565.908896 0.9100 0.9100 0.9100 0.9100 0.9100
2572.550977 0.9100 0.9100 0.9100 0.9100 0.9100
2579.193058 0.9100 0.9100 0.9100 0.9100 0.9100
2585.835140 0.9100 0.9100 0.9100 0.9100 0.9100
2592.477221 0.9100 0.9100 0.9100 0.9100 0.9100
2599.119302 0.9100 0.9100 0.9100 0.9100 0.9093
2605.761383 0.9083 0.9080 0.9080 0.9080 0.9080
2612.403464 0.9080 0.9080 0.9080 0.9080 0.9080
2619.045545 0.9080 0.9073 0.9064 0.9060 0.9060
2625.687627 0.9060 0.9060 0.9060 0.9060 0.9060
2632.329708 0.9060 0.9060 0.9060 0.9057 0.9052
2638.971789 0.9050 0.9050 0.9050 0.9050 0.9050
2645.613870 0.9050 0.9050 0.9050 0.9050 0.9050
2652.255951 0.9050 0.9050 0.9047 0.9042 0.9040
2658.898032 0.9040 0.9040 0.9040 0.9040 0.9040
2665.540114 0.9040 0.9040 0.9035 0.9025 0.9020
2672.182195 0.9020 0.9020 0.9020 0.9020 0.9020
2678.824276 0.9020 0.9020 0.9020 0.9020 0.9018
2685.466357 0.9013 0.9010 0.9010 0.9010 0.9010
2692.108438 0.9010 0.9010 0.9010 0.9010 0.9010
2698.750519 0.9010 0.9008 0.9003 0.9000 0.9000
2705.392601 0.9000 0.9000 0.9000 0.9000 0.9000
2712.034682 0.9000 0.9000 0.9000 0.9001 0.9006
2718.676763 0.9010 0.9010 0.9009 0.9004 0.9000
2725.318844 0.9000 0.9000 0.9000 0.9000 0.9000
2731.960925 0.8998 0.8988 0.8979 0.8974 0.8970
2738.603006 0.8970 0.8970 0.8970 0.8970 0.8970
2745.245088 0.8970 0.8970 0.8970 0.8970 0.8969
2751.887169 0.8964 0.8960 0.8960 0.8959 0.8949
2758.529250 0.8940 0.8940 0.8940 0.8940 0.8939
2765.171331 0.8935 0.8930 0.8930 0.8930 0.8930
2771.813412 0.8930 0.8925 0.8920 0.8920 0.8920
2778.455493 0.8920 0.8920 0.8920 0.8920 0.8920
2785.097575 0.8920 0.8920 0.8920 0.8920 0.8920
2791.739656 0.8920 0.8920 0.8920 0.8920 0.8920
2798.381737 0.8920 0.8920 0.8920 0.8920 0.8920
2805.023818 0.8910 0.8900 0.8900 0.8900 0.8900
2811.665899 0.8900 0.8900 0.8900 0.8900 0.8900
2818.307980 0.8900 0.8900 0.8896 0.8891 0.8877
2824.950062 0.8862 0.8851 0.8841 0.8840 0.8840
2831.592143 0.8840 0.8840 0.8840 0.8840 0.8840
2838.234224 0.8840 0.8840 0.8840 0.8840 0.8840
2844.876305 0.8832 0.8822 0.8816 0.8811 0.8810
2851.518386 0.8810 0.8810 0.8810 0.8806 0.8801
2858.160467 0.8792 0.8782 0.8787 0.8797 0.8800
2864.802549 0.8800 0.8800 0.8800 0.8804 0.8809
2871.444630 0.8810 0.8810 0.8810 0.8810 0.8810
2878.086711 0.8810 0.8810 0.8810 0.8810 0.8810
2884.728792 0.8810 0.8810 0.8810 0.8810 0.8807
2891.370873 0.8802 0.8800 0.8800 0.8794 0.8784
2898.012954 0.8777 0.8772 0.8767 0.8762 0.8760
2904.655036 0.8760 0.8757 0.8752 0.8744 0.8734
2911.297117 0.8727 0.8722 0.8717 0.8712 0.8702
2917.939198 0.8687 0.8677 0.8672 0.8665 0.8655
2924.581279 0.8650 0.8650 0.8650 0.8650 0.8650
2931.223360 0.8650 0.8655 0.8665 0.8670 0.8670
2937.865441 0.8670 0.8670 0.8672 0.8677 0.8680
2944.507523 0.8680 0.8680 0.8680 0.8680 0.8680
2951.149604 0.8680 0.8680 0.8680 0.8680 0.8682
2957.791685 0.8687 0.8690 0.8690 0.8690 0.8690
2964.433766 0.8688 0.8683 0.8680 0.8680 0.8680
2971.075847 0.8680 0.8680 0.8680 0.8680 0.8680
2977.717928 0.8681 0.8686 0.8693 0.8703 0.8710
2984.360010 0.8710 0.8710 0.8710 0.8711 0.8716
2991.002091 0.8720 0.8720 0.8720 0.8720 0.8721
2997.644172 0.8726 0.8729 0.8724 0.8720 0.8720
3004.286253 0.8720 0.8720 0.8720 0.8720 0.8719
3010.928334 0.8714 0.8710 0.8710 0.8708 0.8698
3017.570415 0.8690 0.8690 0.8690 0.8690 0.8689
3024.212497 0.8684 0.8680 0.8680 0.8681 0.8685
3030.854578 0.8690 0.8690 0.8690 0.8685 0.8680
3037.496659 0.8680 0.8680 0.8680 0.8680 0.8680
3044.138740 0.8680 0.8680 0.8680 0.8680 0.8680
3050.780821 0.8680 0.8680 0.8680 0.8680 0.8680
3057.422902 0.8680 0.8675 0.8670 0.8670 0.8670
3064.064984 0.8670 0.8670 0.8660 0.8650 0.8650
3070.707065 0.8650 0.8645 0.8640 0.8640 0.8640
3077.349146 0.8640 0.8640 0.8635 0.8630 0.8630
3083.991227 0.8630 0.8630 0.8630 0.8621 0.8611
3090.633308 0.8610 0.8610 0.8610 0.8610 0.8606
3097.275389 0.8601 0.8596 0.8591 0.8582 0.8572
3103.917471 0.8570 0.8570 0.8566 0.8561 0.8560
3110.559552 0.8560 0.8556 0.8551 0.8542 0.8532
3117.201633 0.8526 0.8521 0.8520 0.8520 0.8524
3123.843714 0.8529 0.8538 0.8547 0.8554 0.8559
3130.485795 0.8560 0.8560 0.8556 0.8551 0.8550
3137.127876 0.8550 0.8536 0.8516 0.8513 0.8518
3143.769958 0.8517 0.8512 0.8510 0.8510 0.8510
3150.412039 0.8510 0.8510 0.8510 0.8510 0.8510
3157.054120 0.8510 0.8510 0.8504 0.8494 0.8487
3163.696201 0.8482 0.8480 0.8480 0.8480 0.8480
3170.338282 0.8480 0.8480 0.8480 0.8480 0.8477
3176.980364 0.8472 0.8473 0.8478 0.8477 0.8472
3183.622445 0.8465 0.8455 0.8450 0.8450 0.8448
3190.264526 0.8443 0.8440 0.8440 0.8433 0.8418
3196.906607 0.8408 0.8403 0.8398 0.8393 0.8390
3203.548688 0.8390 0.8386 0.8376 0.8370 0.8370
3210.190769 0.8370 0.8370 0.8368 0.8363 0.8360
3216.832851 0.8360 0.8360 0.8360 0.8358 0.8353
3223.474932 0.8350 0.8350 0.8350 0.8350 0.8346
3230.117013 0.8336 0.8330 0.8330 0.8328 0.8323
3236.759094 0.8318 0.8313 0.8310 0.8310 0.8310
3243.401175 0.8310 0.8310 0.8310 0.8310 0.8310
3250.043256 0.8307 0.8297 0.8290 0.8290 0.8290
3256.685338 0.8290 0.8289 0.8284 0.8279 0.8274
3263.327419 0.8270 0.8270 0.8270 0.8270 0.8270
3269.969500 0.8270 0.8268 0.8258 0.8250 0.8250
3276.611581 0.8249 0.8244 0.8239 0.8234 0.8228
3283.253662 0.8218 0.8210 0.8210 0.8209 0.8204
3289.895743 0.8200 0.8200 0.8199 0.8194 0.8190
3296.537825 0.8190 0.8189 0.8179 0.8169 0.8159
3303.179906 0.8150 0.8150 0.8150 0.8150 0.8150
3309.821987 0.8150 0.8150 0.8150 0.8150 0.8140
3316.464068 0.8130 0.8120 0.8110 0.8100 0.8090
3323.106149 0.8090 0.8090 0.8090 0.8090 0.8085
3329.748230 0.8080 0.8061 0.8041 0.8035 0.8030
3336.390312 0.8020 0.8011 0.8005 0.8000 0.8000
3343.032393 0.8000 0.8000 0.8000 0.7995 0.7991
3349.674474 0.7990 0.7990 0.7990 0.7990 0.7981
3356.316555 0.7971 0.7970 0.7970 0.7961 0.7951
3362.958636 0.7941 0.7932 0.7926 0.7921 0.7916
3369.600717 0.7911 0.7902 0.7892 0.7886 0.7881
3376.242799 0.7876 0.7871 0.7870 0.7870 0.7862
3382.884880 0.7852 0.7846 0.7841 0.7840 0.7840
3389.526961 0.7840 0.7840 0.7836 0.7831 0.7823
3396.169042 0.7813 0.7806 0.7801 0.7796 0.7792
3402.811123 0.7790 0.7790 0.7783 0.7773 0.7770
3409.453204 0.7770 0.7767 0.7762 0.7757 0.7752
3416.095286 0.7743 0.7734 0.7730 0.7730 0.7727
3422.737367 0.7722 0.7720 0.7720 0.7717 0.7712
3429.379448 0.7704 0.7694 0.7690 0.7690 0.7690
3436.021529 0.7690 0.7690 0.7690 0.7690 0.7690
3442.663610 0.7687 0.7682 0.7680 0.7680 0.7680
3449.305691 0.7680 0.7680 0.7680 0.7680 0.7680
3455.947773 0.7680 0.7680 0.7680 0.7680 0.7680
3462.589854 0.7680 0.7680 0.7680 0.7680 0.7680
3469.231935 0.7682 0.7687 0.7690 0.7690 0.7690
3475.874016 0.7690 0.7690 0.7690 0.7690 0.7690
3482.516097 0.7694 0.7704 0.7710 0.7710 0.7710
3489.158178 0.7710 0.7710 0.7710 0.7710 0.7710
3495.800260 0.7710 0.7710 0.7710 0.7710 0.7710
3502.442341 0.7710 0.7710 0.7710 0.7712 0.7716
3509.084422 0.7720 0.7720 0.7720 0.7720 0.7721
3515.726503 0.7726 0.7730 0.7730 0.7730 0.7730
3522.368584 0.7733 0.7742 0.7750 0.7750 0.7750
3529.010665 0.7750 0.7750 0.7750 0.7750 0.7750
3535.652747 0.7751 0.7756 0.7761 0.7766 0.7770
3542.294828 0.7770 0.7770 0.7770 0.7771 0.7781
3548.936909 0.7790 0.7790 0.7791 0.7796 0.7800
3555.578990 0.7800 0.7801 0.7806 0.7811 0.7821
3562.221071 0.7830 0.7835 0.7840 0.7840 0.7840
3568.863152 0.7845 0.7850 0.7850 0.7850 0.7850
3575.505234 0.7851 0.7860 0.7870 0.7870 0.7870
3582.147315 0.7875 0.7880 0.7885 0.7890 0.7900
3588.789396 0.7910 0.7915 0.7920 0.7925 0.7930
3595.431477 0.7940 0.7950 0.7950 0.7950 0.7955
3602.073558 0.7960 0.7960 0.7960 0.7960 0.7960
3608.715639 0.7965 0.7970 0.7970 0.7970 0.7970
3615.357721 0.7970 0.7979 0.7989 0.7990 0.7990
3621.999802 0.7994 0.7999 0.8000 0.8000 0.8004
3628.641883 0.8009 0.8010 0.8010 0.8010 0.8010
3635.283964 0.8018 0.8028 0.8030 0.8030 0.8030
3641.926045 0.8030 0.8030 0.8030 0.8034 0.8039
3648.568126 0.8040 0.8040 0.8040 0.8040 0.8040
3655.210208 0.8040 0.8040 0.8040 0.8040 0.8040
3661.852289 0.8036 0.8031 0.8030 0.8030 0.8030
3668.494370 0.8030 0.8030 0.8030 0.8030 0.8030
3675.136451 0.8023 0.8013 0.8010 0.8010 0.8010
3681.778532 0.8010 0.8010 0.8010 0.8010 0.8010
3688.420613 0.8010 0.8010 0.8010 0.8010 0.8016
3695.062695 0.8026 0.8030 0.8030 0.8030 0.8030
3701.704776 0.8030 0.8030 0.8030 0.8030 0.8030
3708.346857 0.8030 0.8030 0.8030 0.8030 0.8030
3714.988938 0.8030 0.8030 0.8030 0.8030 0.8030
3721.631019 0.8030 0.8030 0.8030 0.8025 0.8015
3728.273101 0.8010 0.8010 0.8010 0.8010 0.8010
3734.915182 0.8010 0.8010 0.8010 0.8008 0.8003
3741.557263 0.8000 0.8000 0.8000 0.8000 0.8000
3748.199344 0.8000 0.8000 0.8000 0.8000 0.8000
3754.841425 0.8000 0.8000 0.7998 0.7993 0.7990
3761.483506 0.7990 0.7990 0.7990 0.7990 0.7990
3768.125588 0.7990 0.7990 0.7987 0.7977 0.7970
3774.767669 0.7970 0.7970 0.7970 0.7970 0.7970
3781.409750 0.7969 0.7964 0.7960 0.7960 0.7960
3788.051831 0.7960 0.7960 0.7960 0.7959 0.7954
3794.693912 0.7950 0.7950 0.7950 0.7950 0.7950
3801.335993 0.7950 0.7950 0.7950 0.7950 0.7950
3807.978075 0.7948 0.7939 0.7930 0.7930 0.7930
3814.620156 0.7930 0.7929 0.7924 0.7920 0.7920
3821.262237 0.7920 0.7920 0.7920 0.7920 0.7920
3827.904318 0.7920 0.7920 0.7915 0.7910 0.7910
3834.546399 0.7910 0.7910 0.7910 0.7910 0.7910
3841.188480 0.7900 0.7890 0.7890 0.7890 0.7890
3847.830562 0.7890 0.7890 0.7890 0.7885 0.7880
3854.472643 0.7880 0.7880 0.7880 0.7880 0.7880
3861.114724 0.7880 0.7880 0.7880 0.7880 0.7880
3867.756805 0.7880 0.7880 0.7880 0.7880 0.7875
3874.398886 0.7870 0.7870 0.7870 0.7870 0.7870
3881.040967 0.7870 0.7870 0.7870 0.7870 0.7870
3887.683049 0.7870 0.7870 0.7870 0.7870 0.7870
3894.325130 0.7870 0.7870 0.7870 0.7870 0.7870
3900.967211 0.7870 0.7862 0.7852 0.7850 0.7850
3907.609292 0.7850 0.7850 0.7850 0.7850 0.7850
3914.251373 0.7850 0.7850 0.7850 0.7850 0.7850
3920.893454 0.7850 0.7850 0.7846 0.7841 0.7836
3927.535536 0.7831 0.7830 0.7830 0.7830 0.7830
3934.177617 0.7830 0.7830 0.7830 0.7830 0.7830
3940.819698 0.7830 0.7823 0.7814 0.7810 0.7810
3947.461779 0.7810 0.7810 0.7810 0.7810 0.7810
3954.103860 0.7810 0.7810 0.7810 0.7807 0.7802
3960.745941 0.7800 0.7800 0.7800 0.7800 0.7797
3967.388023 0.7792 0.7790 0.7790 0.7790 0.7790
3974.030104 0.7790 0.7790 0.7790 0.7790 0.7790
3980.672185 0.7790 0.7790 0.7790 0.7790 0.7790
3987.314266 0.7790 0.7790 0.7785 0.7775 0.7770
3993.956347 0.7770 0.7770 0.7770
##END=
