##TITLE=PIPERIDINE, 2,4,6-TRIMETHYL-
##JCAMP-DX=4.24
##DATA TYPE=INFRARED SPECTRUM
##CLASS=COBLENTZ
##ORIGIN=DOW CHEMICAL COMPANY
##OWNER=COBLENTZ SOC.
Collection (C) 2018 copyright by the U.S. Secretary of Commerce
on behalf of the United States of America. All rights reserved.
##DATE=1964/03/16
##MOLFORM=C8 H17 N
##SOURCE REFERENCE=COBLENTZ NO. 07126
##$NIST ID=B6007126
##$NIST SOURCE=COBLENTZ
##$NIST IMAGE=cob7126
##SPECTROMETER/DATA SYSTEM=DOW KBr FOREPRISM-GRATING
##INSTRUMENT PARAMETERS=BLAZED AT 3.5, 12.0, 20.0 MICRON AND CHANGED AT 5.0, 7.5, 14.9 MICRON
##STATE=SOLUTION (10% CCl4 FOR 3800-450 CM^-^1)
##PATH LENGTH=0.011 CM
$$SPECTRAL CONTAMINATION DUE TO CCl4 AROUND 1550, 700-840 CM^-^1
##SAMPLING PROCEDURE=TRANSMISSION
##RESOLUTION=2
##DATA PROCESSING=DIGITIZED BY COBLENTZ SOCIETY (BATCH I) FROM HARD COPY
##XUNITS=1/CM
##YUNITS=TRANSMITTANCE
##XLABEL=Wavenumbers (cm-1)
##YLABEL=% Transmission
##XFACTOR=1
##YFACTOR=1
##DELTAX=1
##FIRSTX=451
##LASTX=3800
##FIRSTY=0.7301
##MAXX=3800
##MINX=451
##MAXY=0.8996
##MINY=0.0005
##NPOINTS=3350
##XYDATA=(X++(Y..Y))
451.000000 0.7301 0.7307 0.7312 0.7318 0.7326
456.000000 0.7335 0.7339 0.7344 0.7368 0.7350
461.000000 0.7349 0.7349 0.7348 0.7338 0.7328
466.000000 0.7318 0.7305 0.7290 0.7275 0.7245
471.000000 0.7208 0.7169 0.7099 0.7015 0.6911
476.000000 0.6776 0.6621 0.6430 0.6262 0.6152
481.000000 0.6070 0.5993 0.5965 0.5966 0.6026
486.000000 0.5944 0.6414 0.6608 0.6785 0.6786
491.000000 0.6786 0.6778 0.6753 0.6726 0.6715
496.000000 0.6724 0.6765 0.6911 0.7867 0.7958
501.000000 0.7950 0.7942 0.7934 0.7931 0.7928
506.000000 0.7934 0.7945 0.7956 0.8028 0.8175
511.000000 0.8353 0.8428 0.8443 0.8446 0.8440
516.000000 0.8434 0.8427 0.8421 0.8434 0.8475
521.000000 0.8524 0.8574 0.8582 0.8583 0.8584
526.000000 0.8587 0.8573 0.8551 0.8503 0.8447
531.000000 0.8375 0.8295 0.8237 0.8202 0.8181
536.000000 0.8176 0.8172 0.8168 0.8134 0.8015
541.000000 0.7855 0.7658 0.7442 0.7115 0.6697
546.000000 0.6600 0.6210 0.5716 0.5220 0.4724
551.000000 0.4456 0.4459 0.4433 0.5890 0.6949
556.000000 0.7892 0.8130 0.8245 0.8359 0.8464
561.000000 0.8497 0.8497 0.8498 0.8478 0.8468
566.000000 0.8403 0.8331 0.8248 0.8157 0.8157
571.000000 0.8187 0.8135 0.8310 0.8400 0.8491
576.000000 0.8583 0.8665 0.8742 0.8800 0.8858
581.000000 0.8888 0.8913 0.8924 0.8935 0.8940
586.000000 0.8943 0.8945 0.8957 0.8910 0.8867
591.000000 0.8797 0.8696 0.8548 0.8430 0.8327
596.000000 0.8308 0.8336 0.8404 0.8803 0.8935
601.000000 0.8957 0.8975 0.8990 0.8996 0.8996
606.000000 0.8996 0.8996 0.8996 0.8985 0.8980
611.000000 0.8971 0.8959 0.8948 0.8933 0.8909
616.000000 0.8884 0.8853 0.8805 0.8737 0.8665
621.000000 0.8594 0.8524 0.8454 0.8382 0.8310
626.000000 0.8239 0.8136 0.8044 0.8043 0.8042
631.000000 0.8078 0.8195 0.8335 0.8443 0.8466
636.000000 0.8468 0.8463 0.8445 0.8395 0.8335
641.000000 0.8336 0.8343 0.8355 0.8378 0.8402
646.000000 0.8434 0.8505 0.8575 0.8637 0.8668
651.000000 0.8701 0.8707 0.8707 0.8706 0.8702
656.000000 0.8698 0.8688 0.8663 0.8638 0.8613
661.000000 0.8589 0.8578 0.8568 0.8559 0.8544
666.000000 0.8528 0.8477 0.8409 0.8340 0.8271
671.000000 0.8203 0.8134 0.8061 0.8026 0.7995
676.000000 0.7951 0.7899 0.7844 0.7782 0.7731
681.000000 0.7680 0.7628 0.7578 0.7532 0.7488
686.000000 0.7442 0.7397 0.7351 0.7307 0.7253
691.000000 0.7178 0.7105 0.7030 0.6938 0.6815
696.000000 0.6693 0.6471 0.6127 0.5834 0.5688
701.000000 0.5543 0.5398 0.5256 0.5118 0.4980
706.000000 0.4842 0.4709 0.4578 0.4447 0.4319
711.000000 0.4222 0.4125 0.4027 0.3930 0.3832
716.000000 0.3680 0.3526 0.3372 0.3218 0.2949
721.000000 0.2634 0.1710 0.1585 0.1460 0.1335
726.000000 0.1210 0.1085 0.0960 0.0835 0.0710
731.000000 0.0585 0.0460 0.0335 0.0209 0.0085
736.000000 0.0005 0.0005 0.0005 0.0005 0.0005
741.000000 0.0005 0.0005 0.0005 0.0005 0.0005
746.000000 0.0005 0.0005 0.0005 0.0005 0.0005
751.000000 0.0005 0.0006 0.0006 0.0006 0.0006
756.000000 0.0006 0.0006 0.0006 0.0006 0.0006
761.000000 0.0006 0.0006 0.0006 0.0006 0.0006
766.000000 0.0006 0.0006 0.0006 0.0006 0.0006
771.000000 0.0006 0.0006 0.0007 0.0007 0.0007
776.000000 0.0007 0.0007 0.0007 0.0007 0.0007
781.000000 0.0007 0.0007 0.0007 0.0007 0.0007
786.000000 0.0007 0.0007 0.0007 0.0007 0.0007
791.000000 0.0007 0.0007 0.0007 0.0008 0.0008
796.000000 0.0008 0.0008 0.0008 0.0008 0.0008
801.000000 0.0008 0.0008 0.0008 0.0008 0.0008
806.000000 0.0008 0.0008 0.0008 0.0056 0.0113
811.000000 0.0259 0.0372 0.0488 0.0601 0.0700
816.000000 0.0820 0.1004 0.1204 0.1721 0.2106
821.000000 0.2511 0.2706 0.3006 0.3306 0.3606
826.000000 0.3907 0.4207 0.4507 0.4658 0.4798
831.000000 0.4943 0.5168 0.5292 0.5400 0.5507
836.000000 0.5614 0.5745 0.5859 0.5923 0.5986
841.000000 0.6037 0.6089 0.6116 0.6137 0.6155
846.000000 0.6169 0.6190 0.6225 0.6360 0.6453
851.000000 0.6499 0.6542 0.6571 0.6578 0.6561
856.000000 0.6528 0.6475 0.6418 0.6289 0.6026
861.000000 0.6000 0.6060 0.6267 0.6405 0.6611
866.000000 0.6733 0.6885 0.6980 0.7041 0.7103
871.000000 0.7165 0.7246 0.7318 0.7367 0.7415
876.000000 0.7471 0.7528 0.7587 0.7645 0.7698
881.000000 0.7749 0.7785 0.7815 0.7831 0.7845
886.000000 0.7851 0.7858 0.7865 0.7868 0.7896
891.000000 0.7931 0.7957 0.7983 0.8008 0.8033
896.000000 0.8058 0.8081 0.8103 0.8121 0.8128
901.000000 0.8137 0.8145 0.8151 0.8147 0.8142
906.000000 0.8138 0.8126 0.8108 0.8084 0.8058
911.000000 0.8028 0.8017 0.8047 0.8069 0.8115
916.000000 0.8153 0.8175 0.8193 0.8196 0.8198
921.000000 0.8193 0.8185 0.8174 0.8158 0.8140
926.000000 0.8117 0.8094 0.8068 0.8038 0.8008
931.000000 0.7983 0.7975 0.7975 0.7975 0.7974
936.000000 0.7972 0.7972 0.7991 0.8050 0.8081
941.000000 0.8093 0.8088 0.8078 0.8064 0.8040
946.000000 0.8017 0.7993 0.7960 0.7926 0.7894
951.000000 0.7839 0.7781 0.7718 0.7632 0.7512
956.000000 0.7340 0.7276 0.7265 0.7256 0.7251
961.000000 0.7211 0.7125 0.7048 0.6978 0.6914
966.000000 0.6841 0.6756 0.6658 0.6558 0.6464
971.000000 0.6378 0.6302 0.6291 0.6282 0.6277
976.000000 0.6276 0.6274 0.6273 0.6260 0.6201
981.000000 0.6120 0.5933 0.5730 0.5530 0.5508
986.000000 0.5853 0.6278 0.6394 0.6387 0.6390
991.000000 0.6137 0.6035 0.5705 0.5653 0.5762
996.000000 0.5896 0.5957 0.6008 0.6060 0.6097
1001.000000 0.6125 0.6134 0.6144 0.6160 0.6184
1006.000000 0.6215 0.6249 0.6285 0.6325 0.6365
1011.000000 0.6403 0.6440 0.6475 0.6530 0.6586
1016.000000 0.6644 0.6704 0.6782 0.6872 0.6934
1021.000000 0.6975 0.6961 0.6951 0.6931 0.6888
1026.000000 0.6789 0.6591 0.6591 0.6598 0.6711
1031.000000 0.6821 0.7196 0.7515 0.7711 0.7786
1036.000000 0.7817 0.7826 0.7838 0.7824 0.7814
1041.000000 0.7800 0.7775 0.7724 0.7633 0.7482
1046.000000 0.7484 0.7461 0.7672 0.7921 0.7933
1051.000000 0.7953 0.7868 0.7801 0.7714 0.7674
1056.000000 0.7669 0.7665 0.7672 0.7687 0.7708
1061.000000 0.7722 0.7715 0.7708 0.7693 0.7588
1066.000000 0.7450 0.7090 0.6940 0.6912 0.6998
1071.000000 0.7461 0.7606 0.7711 0.7840 0.7921
1076.000000 0.7961 0.8001 0.8026 0.8036 0.8015
1081.000000 0.8015 0.8014 0.7871 0.7856 0.7844
1086.000000 0.7835 0.7825 0.7817 0.7798 0.7735
1091.000000 0.7636 0.7505 0.7280 0.7071 0.6965
1096.000000 0.6906 0.6885 0.6869 0.6858 0.6848
1101.000000 0.6821 0.6768 0.6690 0.6501 0.6277
1106.000000 0.6069 0.5784 0.5656 0.5582 0.5478
1111.000000 0.5375 0.5325 0.5276 0.5207 0.5089
1116.000000 0.4744 0.4549 0.4353 0.4157 0.4094
1121.000000 0.4092 0.4250 0.4440 0.4629 0.4819
1126.000000 0.5008 0.5183 0.5191 0.5199 0.5074
1131.000000 0.4910 0.4747 0.4597 0.4612 0.5229
1136.000000 0.5845 0.6324 0.6428 0.6504 0.6532
1141.000000 0.6541 0.6535 0.6528 0.6521 0.6539
1146.000000 0.6593 0.6688 0.6824 0.6894 0.6894
1151.000000 0.6894 0.6808 0.6574 0.6339 0.6105
1156.000000 0.5871 0.5636 0.5521 0.5520 0.5773
1161.000000 0.5981 0.6188 0.6396 0.6603 0.6776
1166.000000 0.6874 0.6925 0.6946 0.6965 0.6938
1171.000000 0.6925 0.6901 0.6634 0.6309 0.5984
1176.000000 0.5659 0.5333 0.5008 0.4695 0.4674
1181.000000 0.4653 0.4619 0.4376 0.3974 0.3571
1186.000000 0.3168 0.2769 0.2733 0.3100 0.3707
1191.000000 0.4314 0.4750 0.4925 0.5169 0.5410
1196.000000 0.5538 0.5638 0.5731 0.5902 0.6090
1201.000000 0.6514 0.6648 0.6718 0.6742 0.6765
1206.000000 0.6776 0.6785 0.6808 0.6788 0.6780
1211.000000 0.6703 0.6634 0.6539 0.6465 0.6457
1216.000000 0.6475 0.6514 0.6574 0.6619 0.6674
1221.000000 0.6745 0.6826 0.6888 0.6935 0.6981
1226.000000 0.7025 0.7051 0.7061 0.7072 0.7058
1231.000000 0.7051 0.7043 0.7015 0.6980 0.6938
1236.000000 0.6878 0.6824 0.6771 0.6721 0.6672
1241.000000 0.6624 0.6576 0.6530 0.6482 0.6435
1246.000000 0.6389 0.6343 0.6297 0.6250 0.6201
1251.000000 0.6160 0.6129 0.6098 0.6083 0.6065
1256.000000 0.6033 0.5991 0.5950 0.5890 0.5847
1261.000000 0.5847 0.5836 0.5876 0.5985 0.6108
1266.000000 0.6355 0.6605 0.6750 0.6860 0.6954
1271.000000 0.7045 0.7098 0.7098 0.7094 0.7115
1276.000000 0.7032 0.6974 0.6814 0.6797 0.6808
1281.000000 0.6886 0.7068 0.7193 0.7284 0.7365
1286.000000 0.7433 0.7469 0.7471 0.7493 0.7457
1291.000000 0.7446 0.7428 0.7410 0.7356 0.7299
1296.000000 0.7210 0.7080 0.6980 0.6878 0.6837
1301.000000 0.6808 0.6795 0.6756 0.6561 0.6439
1306.000000 0.6342 0.6242 0.5783 0.5089 0.4395
1311.000000 0.2287 0.1922 0.1496 0.1070 0.0665
1316.000000 0.0652 0.1251 0.2106 0.2962 0.3818
1321.000000 0.4673 0.5459 0.5838 0.6258 0.6582
1326.000000 0.6754 0.6884 0.6915 0.6869 0.6840
1331.000000 0.6740 0.6635 0.6553 0.6471 0.6293
1336.000000 0.6175 0.6164 0.6167 0.6097 0.6500
1341.000000 0.6639 0.6697 0.6739 0.6769 0.6801
1346.000000 0.6836 0.6871 0.6908 0.6944 0.6981
1351.000000 0.7008 0.7032 0.6974 0.6668 0.6519
1356.000000 0.6389 0.6294 0.6284 0.6275 0.6265
1361.000000 0.6255 0.6165 0.5975 0.5798 0.5686
1366.000000 0.5575 0.5460 0.5338 0.5216 0.5062
1371.000000 0.3135 0.2169 0.1201 0.0860 0.0820
1376.000000 0.1402 0.1673 0.1944 0.2215 0.2485
1381.000000 0.2604 0.2678 0.2757 0.2850 0.4484
1386.000000 0.4901 0.5240 0.5472 0.5749 0.6705
1391.000000 0.6934 0.7097 0.7182 0.7217 0.7248
1396.000000 0.7267 0.7278 0.7282 0.7284 0.7284
1401.000000 0.7281 0.7301 0.7275 0.7271 0.7261
1406.000000 0.7250 0.7238 0.7215 0.7192 0.7153
1411.000000 0.7106 0.7061 0.7015 0.6939 0.6855
1416.000000 0.6771 0.6688 0.6574 0.6447 0.5844
1421.000000 0.5297 0.4724 0.4150 0.3838 0.3825
1426.000000 0.3766 0.4038 0.4315 0.4592 0.4836
1431.000000 0.4830 0.4870 0.4717 0.4582 0.4426
1436.000000 0.4320 0.4216 0.4118 0.4020 0.3887
1441.000000 0.3562 0.3262 0.3222 0.3202 0.3183
1446.000000 0.3162 0.3134 0.3082 0.2929 0.1852
1451.000000 0.1008 0.1005 0.1017 0.1036 0.1056
1456.000000 0.1087 0.1123 0.1169 0.1741 0.2513
1461.000000 0.3110 0.3180 0.3216 0.3242 0.3250
1466.000000 0.3259 0.3268 0.3305 0.3740 0.3989
1471.000000 0.4219 0.4472 0.4687 0.5776 0.6071
1476.000000 0.6305 0.6475 0.6621 0.6710 0.6798
1481.000000 0.6861 0.6921 0.6984 0.7051 0.7118
1486.000000 0.7142 0.7162 0.7181 0.7191 0.7201
1491.000000 0.7200 0.7204 0.7203 0.7186 0.7168
1496.000000 0.7148 0.7121 0.7093 0.7065 0.7039
1501.000000 0.7012 0.6987 0.6948 0.6908 0.6868
1506.000000 0.6825 0.6783 0.6743 0.6703 0.6664
1511.000000 0.6624 0.6588 0.6553 0.6517 0.6482
1516.000000 0.6447 0.6408 0.6360 0.6312 0.6264
1521.000000 0.6216 0.6167 0.6118 0.6069 0.6020
1526.000000 0.5968 0.5905 0.5843 0.5780 0.5714
1531.000000 0.5642 0.5569 0.5489 0.5390 0.5287
1536.000000 0.5176 0.5064 0.4976 0.4899 0.4821
1541.000000 0.4741 0.4659 0.4577 0.4512 0.4453
1546.000000 0.4409 0.4383 0.4380 0.4377 0.4382
1551.000000 0.4388 0.4394 0.4408 0.4425 0.4460
1556.000000 0.4554 0.4635 0.4740 0.4859 0.4951
1561.000000 0.5040 0.5127 0.5212 0.5298 0.5384
1566.000000 0.5431 0.5465 0.5500 0.5535 0.5569
1571.000000 0.5604 0.5643 0.5683 0.5724 0.5764
1576.000000 0.5800 0.5820 0.5840 0.5860 0.5881
1581.000000 0.5890 0.5897 0.5904 0.5910 0.5919
1586.000000 0.5926 0.5933 0.5946 0.6002 0.6231
1591.000000 0.6461 0.6551 0.6633 0.6715 0.6778
1596.000000 0.6841 0.6904 0.6954 0.6999 0.7030
1601.000000 0.7040 0.7050 0.7051 0.7005 0.6949
1606.000000 0.6900 0.6828 0.6758 0.6733 0.6733
1611.000000 0.6821 0.6921 0.7045 0.7428 0.7543
1616.000000 0.7612 0.7678 0.7744 0.7814 0.7851
1621.000000 0.7889 0.7918 0.7941 0.7953 0.7965
1626.000000 0.7976 0.7989 0.8001 0.8012 0.8019
1631.000000 0.8026 0.8034 0.8040 0.8043 0.8046
1636.000000 0.8062 0.8051 0.8055 0.8058 0.8060
1641.000000 0.8061 0.8061 0.8062 0.8064 0.8065
1646.000000 0.8058 0.8051 0.8046 0.8047 0.8047
1651.000000 0.8065 0.8082 0.8087 0.8092 0.8092
1656.000000 0.8082 0.8069 0.8055 0.8040 0.8025
1661.000000 0.8008 0.7991 0.7975 0.7968 0.7965
1666.000000 0.7954 0.7971 0.7986 0.8001 0.8022
1671.000000 0.8049 0.8075 0.8101 0.8125 0.8145
1676.000000 0.8158 0.8165 0.8171 0.8178 0.8186
1681.000000 0.8192 0.8198 0.8204 0.8210 0.8215
1686.000000 0.8217 0.8220 0.8221 0.8225 0.8227
1691.000000 0.8230 0.8232 0.8235 0.8237 0.8240
1696.000000 0.8243 0.8245 0.8246 0.8248 0.8249
1701.000000 0.8250 0.8252 0.8253 0.8254 0.8255
1706.000000 0.8257 0.8290 0.8259 0.8261 0.8261
1711.000000 0.8261 0.8260 0.8260 0.8259 0.8258
1716.000000 0.8258 0.8257 0.8257 0.8256 0.8249
1721.000000 0.8238 0.8227 0.8209 0.8191 0.8172
1726.000000 0.8155 0.8136 0.8114 0.8091 0.8068
1731.000000 0.8047 0.8024 0.8001 0.7978 0.7954
1736.000000 0.7930 0.7906 0.7832 0.7895 0.7901
1741.000000 0.7917 0.7936 0.7955 0.7980 0.8008
1746.000000 0.8038 0.8069 0.8101 0.8137 0.8174
1751.000000 0.8212 0.8242 0.8259 0.8277 0.8294
1756.000000 0.8305 0.8314 0.8323 0.8332 0.8333
1761.000000 0.8335 0.8337 0.8339 0.8339 0.8337
1766.000000 0.8336 0.8335 0.8334 0.8333 0.8333
1771.000000 0.8333 0.8333 0.8334 0.8334 0.8334
1776.000000 0.8333 0.8332 0.8331 0.8331 0.8330
1781.000000 0.8328 0.8328 0.8327 0.8325 0.8325
1786.000000 0.8325 0.8325 0.8325 0.8325 0.8327
1791.000000 0.8327 0.8328 0.8328 0.8328 0.8328
1796.000000 0.8328 0.8328 0.8328 0.8328 0.8328
1801.000000 0.8327 0.8327 0.8325 0.8325 0.8325
1806.000000 0.8325 0.8325 0.8324 0.8323 0.8321
1811.000000 0.8321 0.8321 0.8320 0.8318 0.8318
1816.000000 0.8317 0.8316 0.8316 0.8315 0.8314
1821.000000 0.8313 0.8312 0.8311 0.8309 0.8307
1826.000000 0.8305 0.8303 0.8301 0.8299 0.8297
1831.000000 0.8294 0.8292 0.8290 0.8288 0.8286
1836.000000 0.8284 0.8282 0.8280 0.8278 0.8275
1841.000000 0.8274 0.8271 0.8268 0.8265 0.8262
1846.000000 0.8260 0.8257 0.8254 0.8251 0.8248
1851.000000 0.8245 0.8243 0.8240 0.8237 0.8234
1856.000000 0.8234 0.8234 0.8236 0.8237 0.8239
1861.000000 0.8241 0.8242 0.8244 0.8245 0.8247
1866.000000 0.8249 0.8250 0.8252 0.8254 0.8257
1871.000000 0.8260 0.8262 0.8265 0.8268 0.8271
1876.000000 0.8274 0.8275 0.8278 0.8280 0.8282
1881.000000 0.8283 0.8285 0.8287 0.8289 0.8291
1886.000000 0.8293 0.8294 0.8296 0.8298 0.8300
1891.000000 0.8302 0.8304 0.8306 0.8307 0.8308
1896.000000 0.8309 0.8310 0.8310 0.8311 0.8312
1901.000000 0.8313 0.8313 0.8314 0.8315 0.8315
1906.000000 0.8316 0.8317 0.8317 0.8318 0.8318
1911.000000 0.8320 0.8320 0.8321 0.8321 0.8323
1916.000000 0.8324 0.8325 0.8327 0.8328 0.8328
1921.000000 0.8330 0.8331 0.8333 0.8334 0.8335
1926.000000 0.8336 0.8337 0.8339 0.8340 0.8341
1931.000000 0.8342 0.8343 0.8344 0.8345 0.8346
1936.000000 0.8347 0.8349 0.8350 0.8351 0.8352
1941.000000 0.8353 0.8354 0.8355 0.8356 0.8357
1946.000000 0.8358 0.8359 0.8360 0.8360 0.8360
1951.000000 0.8361 0.8361 0.8361 0.8362 0.8362
1956.000000 0.8362 0.8363 0.8363 0.8363 0.8363
1961.000000 0.8364 0.8364 0.8364 0.8365 0.8365
1966.000000 0.8365 0.8366 0.8366 0.8366 0.8366
1971.000000 0.8367 0.8367 0.8368 0.8368 0.8368
1976.000000 0.8370 0.8371 0.8371 0.8371 0.8373
1981.000000 0.8374 0.8374 0.8375 0.8375 0.8377
1986.000000 0.8378 0.8378 0.8378 0.8380 0.8381
1991.000000 0.8382 0.8383 0.8384 0.8385 0.8387
1996.000000 0.8388 0.8389 0.8383 0.8374 0.8366
2001.000000 0.8356 0.8346 0.8341 0.8336 0.8335
2006.000000 0.8335 0.8335 0.8335 0.8335 0.8335
2011.000000 0.8335 0.8335 0.8335 0.8334 0.8332
2016.000000 0.8331 0.8328 0.8328 0.8325 0.8325
2021.000000 0.8325 0.8325 0.8325 0.8327 0.8327
2026.000000 0.8328 0.8328 0.8328 0.8328 0.8330
2031.000000 0.8330 0.8331 0.8332 0.8333 0.8333
2036.000000 0.8334 0.8334 0.8334 0.8334 0.8334
2041.000000 0.8334 0.8334 0.8334 0.8334 0.8334
2046.000000 0.8334 0.8334 0.8335 0.8335 0.8335
2051.000000 0.8335 0.8335 0.8335 0.8335 0.8335
2056.000000 0.8335 0.8335 0.8335 0.8335 0.8335
2061.000000 0.8335 0.8336 0.8336 0.8336 0.8336
2066.000000 0.8336 0.8336 0.8336 0.8336 0.8336
2071.000000 0.8336 0.8336 0.8336 0.8337 0.8337
2076.000000 0.8337 0.8337 0.8338 0.8338 0.8339
2081.000000 0.8339 0.8340 0.8340 0.8341 0.8342
2086.000000 0.8343 0.8343 0.8344 0.8344 0.8344
2091.000000 0.8344 0.8344 0.8343 0.8343 0.8342
2096.000000 0.8342 0.8341 0.8340 0.8339 0.8339
2101.000000 0.8338 0.8338 0.8337 0.8337 0.8336
2106.000000 0.8335 0.8334 0.8334 0.8333 0.8333
2111.000000 0.8332 0.8331 0.8328 0.8328 0.8325
2116.000000 0.8325 0.8323 0.8321 0.8320 0.8318
2121.000000 0.8317 0.8316 0.8314 0.8313 0.8312
2126.000000 0.8311 0.8311 0.8311 0.8311 0.8311
2131.000000 0.8311 0.8312 0.8312 0.8312 0.8312
2136.000000 0.8312 0.8312 0.8313 0.8316 0.8320
2141.000000 0.8323 0.8327 0.8330 0.8334 0.8337
2146.000000 0.8341 0.8343 0.8346 0.8345 0.8345
2151.000000 0.8345 0.8345 0.8345 0.8345 0.8344
2156.000000 0.8344 0.8344 0.8344 0.8344 0.8344
2161.000000 0.8344 0.8344 0.8343 0.8343 0.8342
2166.000000 0.8342 0.8341 0.8340 0.8339 0.8339
2171.000000 0.8338 0.8337 0.8336 0.8336 0.8335
2176.000000 0.8334 0.8333 0.8333 0.8332 0.8331
2181.000000 0.8330 0.8330 0.8328 0.8328 0.8327
2186.000000 0.8327 0.8325 0.8325 0.8325 0.8325
2191.000000 0.8324 0.8324 0.8323 0.8323 0.8321
2196.000000 0.8321 0.8321 0.8321 0.8320 0.8320
2201.000000 0.8318 0.8318 0.8318 0.8318 0.8317
2206.000000 0.8317 0.8316 0.8315 0.8314 0.8314
2211.000000 0.8313 0.8312 0.8311 0.8311 0.8310
2216.000000 0.8309 0.8308 0.8308 0.8307 0.8307
2221.000000 0.8306 0.8305 0.8304 0.8304 0.8303
2226.000000 0.8302 0.8301 0.8301 0.8300 0.8299
2231.000000 0.8298 0.8298 0.8297 0.8296 0.8295
2236.000000 0.8294 0.8293 0.8292 0.8291 0.8290
2241.000000 0.8289 0.8288 0.8287 0.8286 0.8285
2246.000000 0.8284 0.8283 0.8282 0.8281 0.8280
2251.000000 0.8275 0.8271 0.8267 0.8263 0.8259
2256.000000 0.8255 0.8251 0.8247 0.8242 0.8238
2261.000000 0.8234 0.8230 0.8225 0.8221 0.8217
2266.000000 0.8213 0.8209 0.8205 0.8200 0.8196
2271.000000 0.8191 0.8186 0.8181 0.8176 0.8171
2276.000000 0.8167 0.8161 0.8158 0.8153 0.8149
2281.000000 0.8147 0.8145 0.8143 0.8141 0.8138
2286.000000 0.8136 0.8134 0.8132 0.8130 0.8128
2291.000000 0.8128 0.8128 0.8128 0.8130 0.8130
2296.000000 0.8131 0.8131 0.8132 0.8132 0.8133
2301.000000 0.8133 0.8133 0.8134 0.8136 0.8137
2306.000000 0.8139 0.8140 0.8142 0.8143 0.8145
2311.000000 0.8146 0.8148 0.8149 0.8151 0.8151
2316.000000 0.8153 0.8154 0.8156 0.8160 0.8164
2321.000000 0.8168 0.8171 0.8175 0.8181 0.8185
2326.000000 0.8189 0.8193 0.8197 0.8205 0.8213
2331.000000 0.8221 0.8230 0.8238 0.8247 0.8255
2336.000000 0.8264 0.8273 0.8283 0.8293 0.8303
2341.000000 0.8306 0.8309 0.8309 0.8309 0.8309
2346.000000 0.8309 0.8309 0.8309 0.8308 0.8308
2351.000000 0.8307 0.8306 0.8305 0.8305 0.8304
2356.000000 0.8303 0.8302 0.8301 0.8300 0.8300
2361.000000 0.8299 0.8298 0.8297 0.8296 0.8295
2366.000000 0.8294 0.8293 0.8293 0.8292 0.8291
2371.000000 0.8290 0.8289 0.8288 0.8287 0.8286
2376.000000 0.8285 0.8284 0.8284 0.8283 0.8282
2381.000000 0.8281 0.8280 0.8278 0.8278 0.8277
2386.000000 0.8275 0.8275 0.8275 0.8274 0.8273
2391.000000 0.8271 0.8271 0.8270 0.8268 0.8267
2396.000000 0.8266 0.8264 0.8263 0.8261 0.8260
2401.000000 0.8258 0.8257 0.8255 0.8254 0.8252
2406.000000 0.8251 0.8249 0.8248 0.8246 0.8245
2411.000000 0.8243 0.8242 0.8241 0.8240 0.8238
2416.000000 0.8237 0.8235 0.8234 0.8232 0.8231
2421.000000 0.8228 0.8228 0.8225 0.8225 0.8223
2426.000000 0.8221 0.8220 0.8218 0.8215 0.8212
2431.000000 0.8209 0.8207 0.8204 0.8201 0.8198
2436.000000 0.8195 0.8192 0.8190 0.8184 0.8178
2441.000000 0.8169 0.8161 0.8154 0.8146 0.8138
2446.000000 0.8130 0.8121 0.8112 0.8105 0.8097
2451.000000 0.8088 0.8080 0.8071 0.8061 0.8053
2456.000000 0.8044 0.8035 0.8026 0.8018 0.8008
2461.000000 0.8000 0.7992 0.7980 0.7968 0.7954
2466.000000 0.7940 0.7925 0.7911 0.7898 0.7884
2471.000000 0.7876 0.7871 0.7871 0.7871 0.7897
2476.000000 0.7907 0.7917 0.7926 0.7943 0.7958
2481.000000 0.7976 0.7995 0.8021 0.8048 0.8074
2486.000000 0.8100 0.8115 0.8130 0.8145 0.8160
2491.000000 0.8167 0.8175 0.8178 0.8183 0.8187
2496.000000 0.8191 0.8195 0.8199 0.8201 0.8201
2501.000000 0.8202 0.8201 0.8201 0.8201 0.8201
2506.000000 0.8201 0.8199 0.8198 0.8194 0.8190
2511.000000 0.8186 0.8182 0.8178 0.8174 0.8169
2516.000000 0.8165 0.8161 0.8158 0.8151 0.8144
2521.000000 0.8133 0.8122 0.8111 0.8101 0.8092
2526.000000 0.8082 0.8071 0.8061 0.8051 0.8044
2531.000000 0.8039 0.8035 0.8030 0.8025 0.8021
2536.000000 0.8017 0.8011 0.8008 0.8003 0.7999
2541.000000 0.7996 0.7993 0.7991 0.7989 0.7987
2546.000000 0.7985 0.7983 0.7981 0.7978 0.7975
2551.000000 0.7974 0.7971 0.7961 0.7953 0.7943
2556.000000 0.7933 0.7922 0.7912 0.7903 0.7894
2561.000000 0.7884 0.7874 0.7855 0.7836 0.7811
2566.000000 0.7787 0.7756 0.7725 0.7694 0.7662
2571.000000 0.7632 0.7601 0.7568 0.7535 0.7483
2576.000000 0.7432 0.7381 0.7330 0.7222 0.7117
2581.000000 0.7005 0.6861 0.6894 0.6894 0.6894
2586.000000 0.6895 0.6921 0.6948 0.6982 0.7233
2591.000000 0.7051 0.7085 0.7118 0.7153 0.7168
2596.000000 0.7185 0.7121 0.7057 0.6922 0.6789
2601.000000 0.6654 0.6519 0.6386 0.6252 0.6117
2606.000000 0.5983 0.5849 0.5715 0.5580 0.5446
2611.000000 0.5427 0.5409 0.5535 0.5660 0.5900
2616.000000 0.6139 0.6378 0.6617 0.6856 0.7095
2621.000000 0.7185 0.7275 0.7275 0.7275 0.7275
2626.000000 0.7275 0.7275 0.7275 0.7268 0.7260
2631.000000 0.7247 0.7235 0.7225 0.7215 0.7208
2636.000000 0.7203 0.7199 0.7196 0.7204 0.7314
2641.000000 0.7221 0.7233 0.7245 0.7258 0.7262
2646.000000 0.7268 0.7271 0.7274 0.7250 0.7226
2651.000000 0.7205 0.7184 0.7161 0.7140 0.7118
2656.000000 0.7096 0.7072 0.7051 0.7028 0.7006
2661.000000 0.6978 0.6951 0.6921 0.6892 0.6861
2666.000000 0.6831 0.6801 0.6771 0.6753 0.6735
2671.000000 0.6724 0.6712 0.6705 0.6697 0.6675
2676.000000 0.6655 0.6624 0.6594 0.6561 0.6528
2681.000000 0.6496 0.6464 0.6426 0.6390 0.6346
2686.000000 0.6303 0.6259 0.6216 0.6159 0.6102
2691.000000 0.6036 0.5970 0.5893 0.5817 0.5722
2696.000000 0.5627 0.5427 0.5228 0.5125 0.5022
2701.000000 0.4943 0.4865 0.4846 0.4827 0.4825
2706.000000 0.4824 0.4824 0.4825 0.5026 0.4810
2711.000000 0.5441 0.5654 0.5659 0.5681 0.5666
2716.000000 0.5669 0.5659 0.5649 0.5632 0.5615
2721.000000 0.5612 0.5612 0.5610 0.5610 0.5610
2726.000000 0.5586 0.5644 0.5676 0.5740 0.5805
2731.000000 0.5840 0.5876 0.5904 0.5932 0.5954
2736.000000 0.5976 0.5997 0.6019 0.6047 0.6076
2741.000000 0.6076 0.6076 0.6075 0.6043 0.6073
2746.000000 0.6072 0.6062 0.6055 0.5986 0.5917
2751.000000 0.5868 0.5820 0.5729 0.5638 0.5593
2756.000000 0.5549 0.5504 0.5460 0.5409 0.5359
2761.000000 0.5305 0.5252 0.5162 0.5075 0.4976
2766.000000 0.4878 0.4779 0.4680 0.4581 0.4483
2771.000000 0.4384 0.4285 0.4132 0.3980 0.3823
2776.000000 0.3666 0.3580 0.3494 0.3457 0.3421
2781.000000 0.3409 0.3398 0.3386 0.3375 0.3364
2786.000000 0.3353 0.3328 0.3304 0.3141 0.2979
2791.000000 0.2820 0.2662 0.2546 0.2431 0.2214
2796.000000 0.1998 0.1973 0.1948 0.1941 0.1889
2801.000000 0.1933 0.1932 0.1942 0.1952 0.1963
2806.000000 0.1975 0.2090 0.2206 0.2360 0.2515
2811.000000 0.2669 0.2824 0.2978 0.3132 0.3151
2816.000000 0.3216 0.3170 0.3170 0.3149 0.3129
2821.000000 0.3051 0.2973 0.2895 0.2818 0.2740
2826.000000 0.2662 0.2584 0.2507 0.2429 0.2351
2831.000000 0.2273 0.2115 0.2171 0.2146 0.2149
2836.000000 0.2153 0.2172 0.2192 0.2235 0.2281
2841.000000 0.2321 0.2362 0.2400 0.2439 0.2456
2846.000000 0.2473 0.2476 0.2480 0.2484 0.2484
2851.000000 0.2484 0.2510 0.2477 0.2474 0.2468
2856.000000 0.2462 0.2419 0.2377 0.2234 0.2094
2861.000000 0.1952 0.1811 0.1669 0.1528 0.1387
2866.000000 0.1246 0.1104 0.0963 0.0821 0.0680
2871.000000 0.0662 0.0644 0.0747 0.0605 0.0975
2876.000000 0.1100 0.1225 0.1351 0.1417 0.1484
2881.000000 0.1486 0.1489 0.1461 0.1433 0.1356
2886.000000 0.1280 0.1204 0.1495 0.1052 0.0976
2891.000000 0.0895 0.0814 0.0769 0.0725 0.0673
2896.000000 0.0622 0.0564 0.0506 0.0465 0.0423
2901.000000 0.0392 0.0360 0.0327 0.0294 0.0262
2906.000000 0.0231 0.0220 0.0208 0.0201 0.0194
2911.000000 0.0188 0.0183 0.0180 0.0178 0.0175
2916.000000 0.0172 0.0172 0.0173 0.0174 0.0175
2921.000000 0.0176 0.0178 0.0181 0.0183 0.0190
2926.000000 0.0197 0.0203 0.0209 0.0235 0.0262
2931.000000 0.0308 0.0354 0.0459 0.0564 0.0628
2936.000000 0.0692 0.0739 0.0786 0.0786 0.0787
2941.000000 0.0782 0.0831 0.0773 0.0768 0.0698
2946.000000 0.0628 0.0527 0.0425 0.0348 0.0271
2951.000000 0.0201 0.0132 0.0100 0.0068 0.0071
2956.000000 0.0057 0.0080 0.0086 0.0092 0.0099
2961.000000 0.0110 0.0121 0.0133 0.0148 0.0166
2966.000000 0.0183 0.0204 0.0225 0.0249 0.0274
2971.000000 0.0313 0.0353 0.0394 0.0435 0.0477
2976.000000 0.0520 0.0603 0.0686 0.1379 0.2072
2981.000000 0.2207 0.2342 0.2727 0.3113 0.3940
2986.000000 0.4767 0.4858 0.4949 0.5043 0.5138
2991.000000 0.5245 0.5352 0.5459 0.5566 0.5715
2996.000000 0.5864 0.6006 0.6148 0.6271 0.6395
3001.000000 0.6537 0.6680 0.6818 0.6956 0.7018
3006.000000 0.7083 0.7146 0.7210 0.7261 0.7311
3011.000000 0.7360 0.7408 0.7456 0.7505 0.7538
3016.000000 0.7571 0.7601 0.7633 0.7664 0.7696
3021.000000 0.7724 0.7751 0.7774 0.7797 0.7818
3026.000000 0.7842 0.7865 0.7888 0.7908 0.7928
3031.000000 0.7945 0.7961 0.7978 0.7995 0.8011
3036.000000 0.8028 0.8038 0.8048 0.8055 0.8062
3041.000000 0.8069 0.8078 0.8085 0.8093 0.8100
3046.000000 0.8107 0.8114 0.8121 0.8128 0.8134
3051.000000 0.8138 0.8142 0.8145 0.8149 0.8153
3056.000000 0.8157 0.8161 0.8165 0.8168 0.8172
3061.000000 0.8175 0.8180 0.8184 0.8188 0.8192
3066.000000 0.8196 0.8199 0.8203 0.8207 0.8211
3071.000000 0.8214 0.8218 0.8221 0.8225 0.8228
3076.000000 0.8232 0.8235 0.8239 0.8242 0.8246
3081.000000 0.8250 0.8254 0.8257 0.8261 0.8263
3086.000000 0.8266 0.8266 0.8267 0.8268 0.8268
3091.000000 0.8268 0.8270 0.8270 0.8271 0.8271
3096.000000 0.8273 0.8273 0.8274 0.8275 0.8275
3101.000000 0.8275 0.8275 0.8275 0.8275 0.8274
3106.000000 0.8271 0.8270 0.8268 0.8266 0.8264
3111.000000 0.8262 0.8260 0.8258 0.8256 0.8254
3116.000000 0.8252 0.8250 0.8248 0.8247 0.8247
3121.000000 0.8247 0.8248 0.8248 0.8249 0.8250
3126.000000 0.8251 0.8251 0.8252 0.8253 0.8254
3131.000000 0.8255 0.8257 0.8259 0.8261 0.8262
3136.000000 0.8264 0.8266 0.8267 0.8266 0.8266
3141.000000 0.8264 0.8262 0.8260 0.8258 0.8256
3146.000000 0.8254 0.8252 0.8250 0.8248 0.8246
3151.000000 0.8242 0.8239 0.8234 0.8230 0.8225
3156.000000 0.8221 0.8217 0.8213 0.8209 0.8205
3161.000000 0.8203 0.8202 0.8201 0.8200 0.8198
3166.000000 0.8197 0.8196 0.8195 0.8193 0.8192
3171.000000 0.8191 0.8190 0.8189 0.8189 0.8189
3176.000000 0.8191 0.8193 0.8155 0.8197 0.8199
3181.000000 0.8202 0.8205 0.8220 0.8235 0.8240
3186.000000 0.8246 0.8251 0.8256 0.8261 0.8267
3191.000000 0.8271 0.8277 0.8282 0.8288 0.8293
3196.000000 0.8299 0.8304 0.8310 0.8318 0.8325
3201.000000 0.8334 0.8342 0.8350 0.8358 0.8366
3206.000000 0.8374 0.8380 0.8386 0.8392 0.8398
3211.000000 0.8404 0.8410 0.8416 0.8421 0.8428
3216.000000 0.8434 0.8439 0.8445 0.8448 0.8451
3221.000000 0.8453 0.8455 0.8457 0.8459 0.8461
3226.000000 0.8463 0.8465 0.8467 0.8467 0.8468
3231.000000 0.8468 0.8468 0.8468 0.8470 0.8470
3236.000000 0.8470 0.8470 0.8470 0.8470 0.8470
3241.000000 0.8468 0.8467 0.8466 0.8465 0.8463
3246.000000 0.8462 0.8461 0.8460 0.8459 0.8458
3251.000000 0.8456 0.8455 0.8454 0.8453 0.8451
3256.000000 0.8450 0.8449 0.8448 0.8446 0.8445
3261.000000 0.8444 0.8443 0.8442 0.8441 0.8439
3266.000000 0.8438 0.8437 0.8436 0.8435 0.8435
3271.000000 0.8434 0.8433 0.8432 0.8432 0.8431
3276.000000 0.8430 0.8428 0.8428 0.8428 0.8428
3281.000000 0.8428 0.8428 0.8430 0.8432 0.8433
3286.000000 0.8435 0.8436 0.8436 0.8436 0.8436
3291.000000 0.8434 0.8433 0.8431 0.8428 0.8427
3296.000000 0.8425 0.8424 0.8421 0.8420 0.8418
3301.000000 0.8415 0.8413 0.8410 0.8408 0.8405
3306.000000 0.8403 0.8400 0.8398 0.8395 0.8393
3311.000000 0.8391 0.8390 0.8391 0.8391 0.8391
3316.000000 0.8392 0.8394 0.8396 0.8400 0.8404
3321.000000 0.8407 0.8411 0.8414 0.8418 0.8421
3326.000000 0.8425 0.8428 0.8433 0.8437 0.8441
3331.000000 0.8444 0.8448 0.8451 0.8455 0.8458
3336.000000 0.8461 0.8464 0.8468 0.8471 0.8475
3341.000000 0.8478 0.8482 0.8485 0.8488 0.8491
3346.000000 0.8494 0.8496 0.8499 0.8502 0.8505
3351.000000 0.8508 0.8511 0.8514 0.8517 0.8518
3356.000000 0.8521 0.8525 0.8528 0.8531 0.8534
3361.000000 0.8536 0.8538 0.8540 0.8542 0.8544
3366.000000 0.8546 0.8548 0.8550 0.8552 0.8554
3371.000000 0.8556 0.8558 0.8559 0.8561 0.8563
3376.000000 0.8565 0.8567 0.8568 0.8571 0.8573
3381.000000 0.8575 0.8577 0.8578 0.8581 0.8582
3386.000000 0.8584 0.8586 0.8588 0.8590 0.8592
3391.000000 0.8594 0.8596 0.8597 0.8599 0.8601
3396.000000 0.8603 0.8605 0.8607 0.8608 0.8610
3401.000000 0.8612 0.8614 0.8615 0.8617 0.8618
3406.000000 0.8621 0.8623 0.8625 0.8625 0.8628
3411.000000 0.8630 0.8632 0.8632 0.8633 0.8633
3416.000000 0.8634 0.8634 0.8635 0.8635 0.8636
3421.000000 0.8636 0.8637 0.8637 0.8638 0.8638
3426.000000 0.8639 0.8640 0.8641 0.8641 0.8642
3431.000000 0.8642 0.8643 0.8643 0.8644 0.8644
3436.000000 0.8645 0.8645 0.8646 0.8646 0.8647
3441.000000 0.8647 0.8648 0.8648 0.8648 0.8648
3446.000000 0.8649 0.8649 0.8650 0.8650 0.8651
3451.000000 0.8651 0.8652 0.8652 0.8653 0.8654
3456.000000 0.8656 0.8657 0.8659 0.8660 0.8662
3461.000000 0.8663 0.8665 0.8666 0.8668 0.8668
3466.000000 0.8671 0.8674 0.8678 0.8683 0.8689
3471.000000 0.8694 0.8700 0.8705 0.8711 0.8713
3476.000000 0.8715 0.8716 0.8718 0.8718 0.8720
3481.000000 0.8721 0.8723 0.8724 0.8725 0.8725
3486.000000 0.8728 0.8728 0.8728 0.8728 0.8728
3491.000000 0.8728 0.8728 0.8728 0.8728 0.8728
3496.000000 0.8730 0.8730 0.8730 0.8730 0.8730
3501.000000 0.8730 0.8730 0.8730 0.8730 0.8730
3506.000000 0.8730 0.8730 0.8731 0.8731 0.8731
3511.000000 0.8731 0.8731 0.8731 0.8731 0.8731
3516.000000 0.8732 0.8732 0.8732 0.8732 0.8733
3521.000000 0.8733 0.8733 0.8733 0.8734 0.8734
3526.000000 0.8734 0.8734 0.8735 0.8735 0.8735
3531.000000 0.8735 0.8736 0.8736 0.8736 0.8736
3536.000000 0.8737 0.8737 0.8737 0.8737 0.8738
3541.000000 0.8738 0.8739 0.8739 0.8739 0.8739
3546.000000 0.8740 0.8740 0.8740 0.8740 0.8741
3551.000000 0.8741 0.8741 0.8740 0.8740 0.8740
3556.000000 0.8740 0.8739 0.8739 0.8738 0.8738
3561.000000 0.8737 0.8737 0.8737 0.8737 0.8736
3566.000000 0.8736 0.8735 0.8735 0.8734 0.8734
3571.000000 0.8734 0.8734 0.8733 0.8733 0.8732
3576.000000 0.8732 0.8731 0.8731 0.8731 0.8731
3581.000000 0.8730 0.8730 0.8728 0.8728 0.8728
3586.000000 0.8728 0.8728 0.8728 0.8727 0.8727
3591.000000 0.8725 0.8725 0.8725 0.8725 0.8725
3596.000000 0.8725 0.8724 0.8724 0.8723 0.8723
3601.000000 0.8723 0.8723 0.8721 0.8721 0.8721
3606.000000 0.8721 0.8721 0.8721 0.8720 0.8720
3611.000000 0.8720 0.8720 0.8718 0.8718 0.8718
3616.000000 0.8718 0.8718 0.8718 0.8717 0.8717
3621.000000 0.8716 0.8716 0.8716 0.8716 0.8715
3626.000000 0.8715 0.8714 0.8714 0.8713 0.8713
3631.000000 0.8711 0.8709 0.8706 0.8704 0.8702
3636.000000 0.8700 0.8698 0.8696 0.8694 0.8692
3641.000000 0.8690 0.8688 0.8686 0.8684 0.8682
3646.000000 0.8680 0.8678 0.8675 0.8673 0.8671
3651.000000 0.8666 0.8661 0.8655 0.8650 0.8645
3656.000000 0.8640 0.8634 0.8628 0.8623 0.8618
3661.000000 0.8613 0.8608 0.8602 0.8566 0.8593
3666.000000 0.8590 0.8587 0.8584 0.8583 0.8583
3671.000000 0.8586 0.8589 0.8592 0.8595 0.8597
3676.000000 0.8600 0.8603 0.8606 0.8610 0.8615
3681.000000 0.8620 0.8625 0.8632 0.8638 0.8643
3686.000000 0.8649 0.8654 0.8660 0.8664 0.8668
3691.000000 0.8673 0.8678 0.8682 0.8687 0.8692
3696.000000 0.8697 0.8701 0.8706 0.8708 0.8711
3701.000000 0.8712 0.8714 0.8715 0.8717 0.8718
3706.000000 0.8720 0.8721 0.8723 0.8725 0.8727
3711.000000 0.8728 0.8730 0.8731 0.8733 0.8734
3716.000000 0.8735 0.8735 0.8735 0.8735 0.8735
3721.000000 0.8735 0.8736 0.8736 0.8736 0.8736
3726.000000 0.8736 0.8736 0.8736 0.8736 0.8736
3731.000000 0.8736 0.8736 0.8736 0.8736 0.8736
3736.000000 0.8737 0.8737 0.8737 0.8736 0.8736
3741.000000 0.8735 0.8735 0.8735 0.8735 0.8734
3746.000000 0.8734 0.8733 0.8733 0.8733 0.8733
3751.000000 0.8732 0.8732 0.8732 0.8732 0.8731
3756.000000 0.8731 0.8731 0.8731 0.8731 0.8732
3761.000000 0.8732 0.8732 0.8732 0.8733 0.8733
3766.000000 0.8733 0.8733 0.8734 0.8734 0.8734
3771.000000 0.8734 0.8735 0.8735 0.8735 0.8735
3776.000000 0.8736 0.8736 0.8736 0.8736 0.8737
3781.000000 0.8737 0.8737 0.8737 0.8738 0.8738
3786.000000 0.8738 0.8738 0.8739 0.8739 0.8739
3791.000000 0.8739 0.8740 0.8740 0.8740 0.8740
3796.000000 0.8741 0.8741 0.8741 0.8741 0.8741
##END=
