##TITLE=Quinoline, picrate
##JCAMP-DX=4.24
##DATA TYPE=INFRARED SPECTRUM
##CLASS=COBLENTZ III
##ORIGIN=UNIVERSITY OF FLORIDA
##OWNER=Copyright (C) 1987 by the Coblentz Society
Collection (C) 2018 copyright by the U.S. Secretary of Commerce
on behalf of the United States of America. All rights reserved.
##DATE=1964/06/03
##MOLFORM=C15 H10 N4 O7
##SOURCE REFERENCE=COBLENTZ NO. 9969
##$NIST ID=B6009969
##$NIST SOURCE=COBLENTZ
##$NIST IMAGE=cob9969
##SPECTROMETER/DATA SYSTEM=BECKMAN IR-4 (HYBRID PRISM-GRATING)
##STATE=SOLID (KBr DISC)
##SAMPLING PROCEDURE=TRANSMISSION
##RESOLUTION=2
##DATA PROCESSING=DIGITIZED BY COBLENTZ SOCIETY (BATCH II) FROM HARD COPY
##XUNITS=1/CM
##YUNITS=TRANSMITTANCE
##XFACTOR=1.0
##YFACTOR=1
##FIRSTX=668
##LASTX=4000
##FIRSTY=0.6855
##MAXX=4000
##MINX=668
##MAXY=0.7985
##MINY=0.1185
##NPOINTS=3333
##XYDATA=(X++(Y..Y))
668.000000 0.6855 0.6860 0.6857 0.6844 0.6835
673.000000 0.6812 0.6789 0.6765 0.6741 0.6716
678.000000 0.6691 0.6665 0.6640 0.6614 0.6587
683.000000 0.6554 0.6522 0.6490 0.6448 0.6407
688.000000 0.6364 0.6317 0.6265 0.6214 0.6163
693.000000 0.6113 0.6063 0.6013 0.5973 0.5934
698.000000 0.5892 0.5850 0.5807 0.5741 0.5654
703.000000 0.5508 0.5361 0.5218 0.5048 0.4849
708.000000 0.4644 0.4447 0.4272 0.4081 0.3946
713.000000 0.3921 0.4054 0.4260 0.4513 0.4796
718.000000 0.5005 0.5214 0.5445 0.5676 0.5871
723.000000 0.6056 0.6225 0.6370 0.6460 0.6528
728.000000 0.6575 0.6612 0.6633 0.6673 0.6638
733.000000 0.6627 0.6596 0.6519 0.6389 0.6233
738.000000 0.6052 0.5727 0.5358 0.4902 0.4809
743.000000 0.4875 0.4969 0.5063 0.5319 0.5720
748.000000 0.6121 0.6331 0.6482 0.6620 0.6719
753.000000 0.6758 0.6768 0.6765 0.6762 0.6745
758.000000 0.6701 0.6623 0.6530 0.6432 0.6351
763.000000 0.6309 0.6320 0.6350 0.6352 0.5925
768.000000 0.5240 0.4557 0.4320 0.4310 0.5177
773.000000 0.5756 0.6165 0.6416 0.6591 0.6672
778.000000 0.6693 0.6686 0.6707 0.6636 0.6544
783.000000 0.6402 0.6001 0.5410 0.4820 0.4370
788.000000 0.4348 0.4988 0.5834 0.6207 0.6417
793.000000 0.6526 0.6575 0.6512 0.6436 0.6422
798.000000 0.6487 0.6559 0.6605 0.6617 0.6586
803.000000 0.6521 0.6434 0.6322 0.6186 0.6018
808.000000 0.5847 0.5675 0.5486 0.5275 0.5133
813.000000 0.4880 0.4551 0.4223 0.3896 0.3597
818.000000 0.3390 0.3313 0.3314 0.3286 0.4046
823.000000 0.4661 0.5269 0.5688 0.5982 0.6162
828.000000 0.6322 0.6422 0.6483 0.6529 0.6562
833.000000 0.6580 0.6591 0.6597 0.6603 0.6609
838.000000 0.6626 0.6653 0.6703 0.6766 0.6826
843.000000 0.6879 0.6919 0.6956 0.6990 0.7018
848.000000 0.7032 0.7046 0.7054 0.7060 0.7066
853.000000 0.7069 0.7087 0.7069 0.7064 0.7057
858.000000 0.7039 0.7019 0.6996 0.6973 0.6948
863.000000 0.6922 0.6897 0.6870 0.6841 0.6812
868.000000 0.6777 0.6740 0.6705 0.6671 0.6664
873.000000 0.6680 0.6724 0.6775 0.6828 0.6873
878.000000 0.6901 0.6907 0.6899 0.6894 0.6888
883.000000 0.6879 0.6871 0.6860 0.6843 0.6827
888.000000 0.6809 0.6788 0.6764 0.6740 0.6707
893.000000 0.6675 0.6638 0.6597 0.6541 0.6466
898.000000 0.6375 0.6270 0.6152 0.6021 0.5839
903.000000 0.5673 0.5482 0.5196 0.4946 0.4734
908.000000 0.4647 0.4629 0.4827 0.5164 0.5501
913.000000 0.5836 0.6137 0.6298 0.6384 0.6415
918.000000 0.6423 0.6389 0.6379 0.6313 0.6207
923.000000 0.6075 0.5861 0.5732 0.5631 0.5594
928.000000 0.5613 0.5682 0.5743 0.5805 0.5865
933.000000 0.5920 0.5953 0.5960 0.5933 0.5876
938.000000 0.5824 0.5818 0.5879 0.5931 0.5949
943.000000 0.5899 0.5855 0.5817 0.5813 0.5815
948.000000 0.5820 0.6158 0.6401 0.6542 0.6678
953.000000 0.6745 0.6785 0.6820 0.6850 0.6879
958.000000 0.6899 0.6913 0.6929 0.6915 0.6906
963.000000 0.6887 0.6860 0.6823 0.6780 0.6746
968.000000 0.6719 0.6704 0.6687 0.6711 0.6726
973.000000 0.6747 0.6769 0.6791 0.6813 0.6834
978.000000 0.6851 0.6868 0.6881 0.6879 0.6879
983.000000 0.6873 0.6862 0.6840 0.6817 0.6792
988.000000 0.6763 0.6732 0.6701 0.6668 0.6634
993.000000 0.6599 0.6574 0.6556 0.6547 0.6537
998.000000 0.6521 0.6458 0.6383 0.6307 0.6231
1003.000000 0.6187 0.6163 0.6147 0.6225 0.6301
1008.000000 0.6377 0.6430 0.6448 0.6472 0.6441
1013.000000 0.6432 0.6411 0.6390 0.6358 0.6309
1018.000000 0.6266 0.6227 0.6188 0.6135 0.6061
1023.000000 0.6022 0.6007 0.5999 0.5995 0.5993
1028.000000 0.5991 0.5990 0.5959 0.5995 0.6000
1033.000000 0.6008 0.6019 0.6031 0.6048 0.6065
1038.000000 0.6081 0.6096 0.6111 0.6126 0.6140
1043.000000 0.6155 0.6170 0.6182 0.6192 0.6202
1048.000000 0.6211 0.6214 0.6220 0.6206 0.6185
1053.000000 0.6146 0.6092 0.6006 0.5861 0.5711
1058.000000 0.5651 0.5636 0.5773 0.5888 0.6003
1063.000000 0.6114 0.6159 0.6175 0.6180 0.6182
1068.000000 0.6177 0.6166 0.6148 0.6117 0.6078
1073.000000 0.6025 0.5955 0.5878 0.5774 0.5634
1078.000000 0.5436 0.5216 0.4940 0.4663 0.4416
1083.000000 0.4334 0.4336 0.4318 0.4948 0.5272
1088.000000 0.5595 0.5802 0.5993 0.6148 0.6256
1093.000000 0.6341 0.6415 0.6467 0.6503 0.6522
1098.000000 0.6537 0.6549 0.6559 0.6566 0.6578
1103.000000 0.6566 0.6563 0.6555 0.6544 0.6534
1108.000000 0.6520 0.6505 0.6491 0.6476 0.6457
1113.000000 0.6434 0.6413 0.6391 0.6364 0.6335
1118.000000 0.6307 0.6278 0.6245 0.6211 0.6172
1123.000000 0.6126 0.6080 0.6023 0.5965 0.5889
1128.000000 0.5802 0.5665 0.5464 0.5220 0.5067
1133.000000 0.4947 0.4876 0.4854 0.4848 0.4985
1138.000000 0.5331 0.5627 0.5831 0.5946 0.6001
1143.000000 0.6026 0.6032 0.6031 0.6016 0.5966
1148.000000 0.5860 0.5736 0.5639 0.5608 0.5601
1153.000000 0.5605 0.5628 0.5655 0.5656 0.5632
1158.000000 0.5584 0.5501 0.5399 0.5308 0.5206
1163.000000 0.5098 0.4958 0.4814 0.4670 0.4527
1168.000000 0.4395 0.4292 0.4253 0.4392 0.4680
1173.000000 0.4967 0.5254 0.5541 0.5826 0.6024
1178.000000 0.6113 0.6172 0.6204 0.6233 0.6254
1183.000000 0.6272 0.6281 0.6279 0.6283 0.6268
1188.000000 0.6255 0.6241 0.6224 0.6207 0.6185
1193.000000 0.6162 0.6140 0.6120 0.6098 0.6067
1198.000000 0.6035 0.6003 0.5963 0.5922 0.5872
1203.000000 0.5819 0.5771 0.5723 0.5676 0.5624
1208.000000 0.5574 0.5530 0.5521 0.5519 0.5521
1213.000000 0.5522 0.5521 0.5516 0.5493 0.5447
1218.000000 0.5384 0.5309 0.5234 0.5162 0.5092
1223.000000 0.5018 0.4938 0.4846 0.4752 0.4663
1228.000000 0.4570 0.4472 0.4394 0.4319 0.4242
1233.000000 0.4148 0.4040 0.4002 0.4004 0.3987
1238.000000 0.4193 0.4376 0.4596 0.4689 0.4761
1243.000000 0.4823 0.4856 0.4868 0.4877 0.4885
1248.000000 0.4881 0.4878 0.4868 0.4851 0.4831
1253.000000 0.4799 0.4756 0.4709 0.4663 0.4617
1258.000000 0.4557 0.4478 0.4397 0.4310 0.4218
1263.000000 0.4127 0.4046 0.3940 0.3814 0.3688
1268.000000 0.3563 0.3437 0.3312 0.3187 0.3062
1273.000000 0.2938 0.2813 0.2689 0.2565 0.2421
1278.000000 0.2273 0.2203 0.2122 0.2056 0.2002
1283.000000 0.1949 0.1895 0.1842 0.1804 0.1777
1288.000000 0.1767 0.1771 0.1786 0.1913 0.2089
1293.000000 0.2265 0.2440 0.2616 0.2791 0.2966
1298.000000 0.3140 0.3296 0.3385 0.3448 0.3506
1303.000000 0.3538 0.3546 0.3570 0.3534 0.3512
1308.000000 0.3477 0.3434 0.3391 0.3339 0.3269
1313.000000 0.3181 0.3091 0.3002 0.2913 0.2824
1318.000000 0.2735 0.2646 0.2558 0.2469 0.2381
1323.000000 0.2292 0.2205 0.2117 0.2029 0.1941
1328.000000 0.1854 0.1767 0.1701 0.1649 0.1579
1333.000000 0.1507 0.1470 0.1439 0.1458 0.1463
1338.000000 0.1478 0.1524 0.1596 0.1659 0.1673
1343.000000 0.1666 0.1654 0.1610 0.1547 0.1484
1348.000000 0.1422 0.1361 0.1298 0.1242 0.1210
1353.000000 0.1203 0.1204 0.1185 0.1263 0.1484
1358.000000 0.1812 0.2141 0.2469 0.2796 0.3123
1363.000000 0.3449 0.3775 0.4100 0.4425 0.4659
1368.000000 0.4682 0.4645 0.4483 0.4305 0.4128
1373.000000 0.3951 0.3774 0.3597 0.3421 0.3244
1378.000000 0.3068 0.2892 0.2746 0.2727 0.2953
1383.000000 0.3264 0.3575 0.3886 0.4196 0.4505
1388.000000 0.4814 0.5122 0.5400 0.5550 0.5687
1393.000000 0.5850 0.5939 0.6028 0.6065 0.6086
1398.000000 0.6088 0.6102 0.6071 0.6011 0.5926
1403.000000 0.5849 0.5772 0.5695 0.5618 0.5546
1408.000000 0.5517 0.5511 0.5592 0.5637 0.5682
1413.000000 0.5727 0.5772 0.5793 0.5794 0.5716
1418.000000 0.5570 0.5417 0.5265 0.5112 0.4960
1423.000000 0.4940 0.4945 0.5189 0.5380 0.5571
1428.000000 0.5761 0.5907 0.5954 0.5978 0.5994
1433.000000 0.6006 0.6012 0.6014 0.6038 0.6002
1438.000000 0.5978 0.5931 0.5811 0.5629 0.5445
1443.000000 0.5260 0.5076 0.4891 0.4709 0.4568
1448.000000 0.4517 0.4488 0.4477 0.4448 0.4602
1453.000000 0.4817 0.5031 0.5246 0.5460 0.5626
1458.000000 0.5685 0.5734 0.5788 0.5881 0.5997
1463.000000 0.6108 0.6178 0.6225 0.6251 0.6277
1468.000000 0.6294 0.6294 0.6288 0.6284 0.6280
1473.000000 0.6310 0.6273 0.6268 0.6262 0.6253
1478.000000 0.6240 0.6215 0.6186 0.6157 0.6126
1483.000000 0.6095 0.6062 0.6026 0.5989 0.5950
1488.000000 0.5908 0.5866 0.5814 0.5751 0.5626
1493.000000 0.5404 0.5152 0.4900 0.4647 0.4396
1498.000000 0.4302 0.4212 0.4159 0.4120 0.4097
1503.000000 0.4080 0.4057 0.4034 0.4020 0.4011
1508.000000 0.4011 0.4015 0.4019 0.4024 0.4015
1513.000000 0.4070 0.4151 0.4247 0.4342 0.4437
1518.000000 0.4532 0.4627 0.4722 0.4800 0.4836
1523.000000 0.4853 0.4860 0.4866 0.4871 0.4877
1528.000000 0.4899 0.4930 0.4976 0.4984 0.4994
1533.000000 0.5001 0.5002 0.5004 0.5003 0.4989
1538.000000 0.5000 0.4999 0.4999 0.4999 0.4999
1543.000000 0.4998 0.4998 0.4998 0.4997 0.4996
1548.000000 0.4993 0.4991 0.4990 0.4988 0.4984
1553.000000 0.4980 0.4977 0.4972 0.4963 0.4943
1558.000000 0.4889 0.4809 0.4728 0.4648 0.4569
1563.000000 0.4490 0.4410 0.4330 0.4251 0.4171
1568.000000 0.4092 0.4023 0.3974 0.3935 0.3895
1573.000000 0.3854 0.3813 0.3760 0.3651 0.3520
1578.000000 0.3389 0.3260 0.3130 0.3000 0.2868
1583.000000 0.2772 0.2740 0.2732 0.2741 0.2799
1588.000000 0.2959 0.3148 0.3337 0.3526 0.3714
1593.000000 0.3903 0.4091 0.4278 0.4467 0.4654
1598.000000 0.4829 0.4927 0.4951 0.4954 0.4954
1603.000000 0.4906 0.4824 0.4741 0.4658 0.4575
1608.000000 0.4493 0.4411 0.4329 0.4247 0.4165
1613.000000 0.4084 0.4002 0.3921 0.3867 0.3787
1618.000000 0.3689 0.3620 0.3544 0.3470 0.3405
1623.000000 0.3344 0.3287 0.3244 0.3208 0.3172
1628.000000 0.3145 0.3126 0.3108 0.3090 0.3075
1633.000000 0.3060 0.3046 0.3031 0.3016 0.2997
1638.000000 0.2975 0.2952 0.2920 0.2862 0.2771
1643.000000 0.2660 0.2482 0.2238 0.2146 0.2065
1648.000000 0.1971 0.1877 0.1793 0.1723 0.1680
1653.000000 0.1646 0.1617 0.1599 0.1591 0.1589
1658.000000 0.1588 0.1588 0.1593 0.1599 0.1613
1663.000000 0.1563 0.1662 0.1691 0.1721 0.1759
1668.000000 0.1814 0.1867 0.1913 0.1956 0.1997
1673.000000 0.2154 0.2353 0.2556 0.2759 0.2961
1678.000000 0.3162 0.3364 0.3566 0.3767 0.3968
1683.000000 0.4168 0.4503 0.4863 0.5007 0.5078
1688.000000 0.5148 0.5192 0.5234 0.5276 0.5317
1693.000000 0.5366 0.5428 0.5493 0.5568 0.5712
1698.000000 0.5827 0.5919 0.5999 0.6069 0.6126
1703.000000 0.6183 0.6239 0.6289 0.6336 0.6398
1708.000000 0.6512 0.6677 0.6770 0.6823 0.6861
1713.000000 0.6895 0.6928 0.6958 0.6983 0.7009
1718.000000 0.7023 0.7033 0.7044 0.7054 0.7064
1723.000000 0.7075 0.7085 0.7096 0.7118 0.7146
1728.000000 0.7176 0.7214 0.7278 0.7331 0.7379
1733.000000 0.7435 0.7483 0.7489 0.7496 0.7502
1738.000000 0.7507 0.7514 0.7520 0.7526 0.7537
1743.000000 0.7556 0.7576 0.7605 0.7647 0.7683
1748.000000 0.7708 0.7731 0.7753 0.7773 0.7793
1753.000000 0.7812 0.7829 0.7840 0.7849 0.7857
1758.000000 0.7859 0.7860 0.7861 0.7862 0.7863
1763.000000 0.7863 0.7863 0.7863 0.7864 0.7864
1768.000000 0.7864 0.7864 0.7865 0.7866 0.7867
1773.000000 0.7868 0.7869 0.7871 0.7872 0.7873
1778.000000 0.7873 0.7875 0.7877 0.7879 0.7882
1783.000000 0.7885 0.7887 0.7890 0.7892 0.7895
1788.000000 0.7899 0.7903 0.7908 0.7912 0.7916
1793.000000 0.7921 0.7925 0.7929 0.7934 0.7937
1798.000000 0.7941 0.7945 0.7948 0.7952 0.7956
1803.000000 0.7960 0.7963 0.7965 0.7968 0.7970
1808.000000 0.7973 0.7976 0.7978 0.7980 0.7982
1813.000000 0.7985 0.7985 0.7977 0.7985 0.7983
1818.000000 0.7980 0.7977 0.7974 0.7970 0.7967
1823.000000 0.7964 0.7961 0.7958 0.7953 0.7949
1828.000000 0.7945 0.7941 0.7936 0.7932 0.7928
1833.000000 0.7924 0.7920 0.7916 0.7913 0.7909
1838.000000 0.7905 0.7902 0.7898 0.7894 0.7893
1843.000000 0.7891 0.7890 0.7889 0.7887 0.7886
1848.000000 0.7884 0.7883 0.7881 0.7879 0.7877
1853.000000 0.7875 0.7873 0.7871 0.7869 0.7867
1858.000000 0.7863 0.7858 0.7851 0.7845 0.7838
1863.000000 0.7832 0.7825 0.7819 0.7812 0.7803
1868.000000 0.7795 0.7787 0.7778 0.7771 0.7762
1873.000000 0.7754 0.7746 0.7741 0.7736 0.7732
1878.000000 0.7727 0.7722 0.7718 0.7713 0.7709
1883.000000 0.7705 0.7701 0.7699 0.7698 0.7696
1888.000000 0.7694 0.7692 0.7690 0.7688 0.7686
1893.000000 0.7684 0.7682 0.7681 0.7681 0.7681
1898.000000 0.7681 0.7681 0.7681 0.7681 0.7682
1903.000000 0.7682 0.7682 0.7682 0.7683 0.7685
1908.000000 0.7687 0.7689 0.7691 0.7694 0.7698
1913.000000 0.7704 0.7709 0.7714 0.7719 0.7725
1918.000000 0.7730 0.7734 0.7737 0.7740 0.7743
1923.000000 0.7745 0.7749 0.7752 0.7754 0.7757
1928.000000 0.7759 0.7759 0.7760 0.7761 0.7762
1933.000000 0.7762 0.7762 0.7763 0.7763 0.7764
1938.000000 0.7763 0.7762 0.7760 0.7758 0.7756
1943.000000 0.7755 0.7753 0.7750 0.7748 0.7746
1948.000000 0.7744 0.7742 0.7740 0.7736 0.7731
1953.000000 0.7725 0.7720 0.7714 0.7709 0.7703
1958.000000 0.7697 0.7693 0.7690 0.7687 0.7684
1963.000000 0.7681 0.7678 0.7676 0.7673 0.7670
1968.000000 0.7668 0.7666 0.7664 0.7662 0.7660
1973.000000 0.7658 0.7656 0.7654 0.7652 0.7650
1978.000000 0.7647 0.7640 0.7632 0.7623 0.7616
1983.000000 0.7608 0.7600 0.7592 0.7585 0.7578
1988.000000 0.7572 0.7566 0.7559 0.7555 0.7553
1993.000000 0.7550 0.7547 0.7544 0.7542 0.7539
1998.000000 0.7536 0.7533 0.7531 0.7528 0.7525
2003.000000 0.7522 0.7520 0.7518 0.7518 0.7517
2008.000000 0.7516 0.7515 0.7514 0.7514 0.7513
2013.000000 0.7511 0.7511 0.7510 0.7509 0.7508
2018.000000 0.7507 0.7507 0.7506 0.7506 0.7504
2023.000000 0.7503 0.7503 0.7502 0.7501 0.7501
2028.000000 0.7500 0.7500 0.7499 0.7498 0.7497
2033.000000 0.7496 0.7496 0.7496 0.7496 0.7496
2038.000000 0.7496 0.7496 0.7496 0.7496 0.7496
2043.000000 0.7496 0.7496 0.7496 0.7496 0.7496
2048.000000 0.7496 0.7496 0.7496 0.7496 0.7496
2053.000000 0.7496 0.7496 0.7496 0.7496 0.7496
2058.000000 0.7496 0.7496 0.7496 0.7496 0.7496
2063.000000 0.7495 0.7495 0.7495 0.7495 0.7494
2068.000000 0.7494 0.7494 0.7493 0.7493 0.7493
2073.000000 0.7492 0.7492 0.7491 0.7488 0.7486
2078.000000 0.7483 0.7480 0.7476 0.7473 0.7470
2083.000000 0.7467 0.7464 0.7461 0.7458 0.7455
2088.000000 0.7452 0.7449 0.7446 0.7441 0.7437
2093.000000 0.7433 0.7429 0.7424 0.7420 0.7416
2098.000000 0.7411 0.7407 0.7403 0.7399 0.7398
2103.000000 0.7397 0.7396 0.7395 0.7394 0.7393
2108.000000 0.7391 0.7390 0.7389 0.7388 0.7387
2113.000000 0.7386 0.7385 0.7384 0.7383 0.7383
2118.000000 0.7384 0.7385 0.7385 0.7386 0.7387
2123.000000 0.7388 0.7389 0.7390 0.7391 0.7392
2128.000000 0.7393 0.7393 0.7394 0.7395 0.7396
2133.000000 0.7397 0.7398 0.7399 0.7400 0.7401
2138.000000 0.7403 0.7405 0.7407 0.7409 0.7411
2143.000000 0.7413 0.7415 0.7417 0.7419 0.7421
2148.000000 0.7423 0.7425 0.7427 0.7429 0.7431
2153.000000 0.7433 0.7435 0.7437 0.7439 0.7441
2158.000000 0.7444 0.7446 0.7447 0.7448 0.7449
2163.000000 0.7451 0.7452 0.7453 0.7454 0.7455
2168.000000 0.7457 0.7458 0.7459 0.7461 0.7462
2173.000000 0.7464 0.7465 0.7466 0.7467 0.7468
2178.000000 0.7470 0.7470 0.7469 0.7468 0.7467
2183.000000 0.7466 0.7465 0.7464 0.7462 0.7461
2188.000000 0.7458 0.7455 0.7451 0.7448 0.7445
2193.000000 0.7441 0.7438 0.7435 0.7432 0.7429
2198.000000 0.7426 0.7423 0.7420 0.7417 0.7415
2203.000000 0.7413 0.7411 0.7409 0.7407 0.7405
2208.000000 0.7402 0.7400 0.7398 0.7395 0.7393
2213.000000 0.7391 0.7389 0.7387 0.7385 0.7383
2218.000000 0.7380 0.7378 0.7376 0.7375 0.7374
2223.000000 0.7374 0.7374 0.7374 0.7374 0.7375
2228.000000 0.7375 0.7376 0.7376 0.7376 0.7376
2233.000000 0.7377 0.7377 0.7378 0.7378 0.7379
2238.000000 0.7379 0.7379 0.7379 0.7380 0.7380
2243.000000 0.7381 0.7381 0.7381 0.7381 0.7381
2248.000000 0.7381 0.7380 0.7379 0.7377 0.7376
2253.000000 0.7375 0.7374 0.7373 0.7372 0.7370
2258.000000 0.7369 0.7368 0.7367 0.7366 0.7364
2263.000000 0.7363 0.7362 0.7361 0.7360 0.7359
2268.000000 0.7357 0.7356 0.7355 0.7354 0.7353
2273.000000 0.7352 0.7350 0.7348 0.7346 0.7344
2278.000000 0.7342 0.7340 0.7338 0.7337 0.7334
2283.000000 0.7332 0.7330 0.7328 0.7326 0.7323
2288.000000 0.7321 0.7318 0.7316 0.7314 0.7311
2293.000000 0.7309 0.7306 0.7304 0.7302 0.7299
2298.000000 0.7297 0.7295 0.7292 0.7290 0.7288
2303.000000 0.7285 0.7283 0.7280 0.7278 0.7276
2308.000000 0.7274 0.7272 0.7270 0.7267 0.7265
2313.000000 0.7263 0.7261 0.7259 0.7257 0.7254
2318.000000 0.7253 0.7251 0.7248 0.7246 0.7244
2323.000000 0.7241 0.7239 0.7238 0.7236 0.7233
2328.000000 0.7231 0.7229 0.7227 0.7226 0.7225
2333.000000 0.7223 0.7222 0.7220 0.7219 0.7218
2338.000000 0.7216 0.7215 0.7214 0.7212 0.7211
2343.000000 0.7210 0.7208 0.7207 0.7205 0.7204
2348.000000 0.7203 0.7201 0.7200 0.7199 0.7197
2353.000000 0.7195 0.7194 0.7193 0.7192 0.7191
2358.000000 0.7190 0.7189 0.7187 0.7186 0.7185
2363.000000 0.7184 0.7184 0.7183 0.7182 0.7181
2368.000000 0.7180 0.7179 0.7178 0.7177 0.7176
2373.000000 0.7175 0.7174 0.7173 0.7172 0.7171
2378.000000 0.7170 0.7169 0.7168 0.7167 0.7167
2383.000000 0.7166 0.7164 0.7163 0.7162 0.7161
2388.000000 0.7159 0.7158 0.7157 0.7155 0.7154
2393.000000 0.7153 0.7151 0.7150 0.7149 0.7147
2398.000000 0.7146 0.7145 0.7144 0.7142 0.7141
2403.000000 0.7140 0.7138 0.7137 0.7136 0.7134
2408.000000 0.7133 0.7132 0.7131 0.7129 0.7128
2413.000000 0.7127 0.7125 0.7124 0.7122 0.7119
2418.000000 0.7116 0.7112 0.7109 0.7106 0.7102
2423.000000 0.7099 0.7096 0.7093 0.7090 0.7086
2428.000000 0.7083 0.7079 0.7076 0.7073 0.7069
2433.000000 0.7066 0.7062 0.7059 0.7056 0.7053
2438.000000 0.7050 0.7047 0.7041 0.7035 0.7029
2443.000000 0.7023 0.7017 0.7011 0.7006 0.7000
2448.000000 0.6994 0.6988 0.6982 0.6975 0.6968
2453.000000 0.6961 0.6953 0.6944 0.6936 0.6927
2458.000000 0.6917 0.6909 0.6900 0.6891 0.6883
2463.000000 0.6874 0.6868 0.6861 0.6856 0.6850
2468.000000 0.6844 0.6838 0.6832 0.6826 0.6820
2473.000000 0.6814 0.6808 0.6802 0.6796 0.6790
2478.000000 0.6785 0.6779 0.6773 0.6767 0.6761
2483.000000 0.6756 0.6750 0.6745 0.6740 0.6734
2488.000000 0.6729 0.6724 0.6719 0.6713 0.6708
2493.000000 0.6703 0.6698 0.6693 0.6687 0.6682
2498.000000 0.6677 0.6672 0.6667 0.6661 0.6656
2503.000000 0.6652 0.6648 0.6644 0.6640 0.6636
2508.000000 0.6633 0.6629 0.6625 0.6621 0.6618
2513.000000 0.6614 0.6610 0.6607 0.6603 0.6599
2518.000000 0.6595 0.6592 0.6588 0.6584 0.6580
2523.000000 0.6576 0.6573 0.6569 0.6566 0.6562
2528.000000 0.6559 0.6555 0.6551 0.6548 0.6545
2533.000000 0.6542 0.6540 0.6537 0.6534 0.6531
2538.000000 0.6529 0.6526 0.6523 0.6521 0.6518
2543.000000 0.6515 0.6512 0.6510 0.6507 0.6504
2548.000000 0.6502 0.6499 0.6496 0.6494 0.6491
2553.000000 0.6488 0.6485 0.6483 0.6480 0.6477
2558.000000 0.6475 0.6472 0.6469 0.6467 0.6464
2563.000000 0.6460 0.6457 0.6454 0.6451 0.6448
2568.000000 0.6444 0.6441 0.6437 0.6434 0.6431
2573.000000 0.6428 0.6425 0.6421 0.6418 0.6415
2578.000000 0.6411 0.6408 0.6404 0.6401 0.6398
2583.000000 0.6395 0.6392 0.6389 0.6385 0.6381
2588.000000 0.6377 0.6372 0.6367 0.6362 0.6357
2593.000000 0.6351 0.6346 0.6341 0.6336 0.6331
2598.000000 0.6325 0.6320 0.6315 0.6310 0.6305
2603.000000 0.6300 0.6294 0.6289 0.6284 0.6279
2608.000000 0.6273 0.6267 0.6261 0.6255 0.6249
2613.000000 0.6243 0.6237 0.6231 0.6225 0.6218
2618.000000 0.6212 0.6207 0.6201 0.6195 0.6189
2623.000000 0.6182 0.6176 0.6171 0.6165 0.6159
2628.000000 0.6153 0.6147 0.6141 0.6135 0.6129
2633.000000 0.6123 0.6118 0.6112 0.6106 0.6100
2638.000000 0.6095 0.6089 0.6083 0.6078 0.6072
2643.000000 0.6067 0.6062 0.6056 0.6051 0.6045
2648.000000 0.6040 0.6035 0.6029 0.6023 0.6018
2653.000000 0.6012 0.6007 0.6002 0.5996 0.5991
2658.000000 0.5985 0.5980 0.5974 0.5969 0.5964
2663.000000 0.5958 0.5953 0.5948 0.5943 0.5937
2668.000000 0.5932 0.5926 0.5920 0.5914 0.5908
2673.000000 0.5902 0.5895 0.5889 0.5882 0.5875
2678.000000 0.5869 0.5863 0.5857 0.5850 0.5844
2683.000000 0.5838 0.5832 0.5825 0.5819 0.5812
2688.000000 0.5806 0.5799 0.5793 0.5787 0.5781
2693.000000 0.5774 0.5768 0.5762 0.5755 0.5749
2698.000000 0.5743 0.5736 0.5730 0.5724 0.5718
2703.000000 0.5712 0.5706 0.5699 0.5693 0.5687
2708.000000 0.5681 0.5675 0.5669 0.5663 0.5656
2713.000000 0.5650 0.5644 0.5638 0.5632 0.5626
2718.000000 0.5620 0.5614 0.5608 0.5602 0.5595
2723.000000 0.5589 0.5583 0.5577 0.5571 0.5565
2728.000000 0.5559 0.5553 0.5547 0.5541 0.5535
2733.000000 0.5529 0.5523 0.5517 0.5511 0.5505
2738.000000 0.5500 0.5494 0.5488 0.5483 0.5477
2743.000000 0.5472 0.5467 0.5461 0.5456 0.5451
2748.000000 0.5446 0.5440 0.5435 0.5430 0.5424
2753.000000 0.5419 0.5414 0.5409 0.5403 0.5398
2758.000000 0.5393 0.5388 0.5382 0.5377 0.5372
2763.000000 0.5367 0.5362 0.5357 0.5352 0.5347
2768.000000 0.5341 0.5336 0.5331 0.5326 0.5321
2773.000000 0.5315 0.5310 0.5305 0.5300 0.5295
2778.000000 0.5289 0.5283 0.5277 0.5271 0.5264
2783.000000 0.5258 0.5251 0.5245 0.5238 0.5232
2788.000000 0.5225 0.5218 0.5212 0.5205 0.5199
2793.000000 0.5192 0.5186 0.5180 0.5173 0.5167
2798.000000 0.5161 0.5155 0.5149 0.5144 0.5138
2803.000000 0.5133 0.5127 0.5122 0.5117 0.5111
2808.000000 0.5106 0.5100 0.5095 0.5090 0.5084
2813.000000 0.5079 0.5074 0.5068 0.5063 0.5058
2818.000000 0.5053 0.5048 0.5042 0.5037 0.5032
2823.000000 0.5027 0.5022 0.5017 0.5011 0.5006
2828.000000 0.5001 0.4996 0.4991 0.4986 0.4981
2833.000000 0.4976 0.4971 0.4966 0.4961 0.4957
2838.000000 0.4952 0.4947 0.4943 0.4938 0.4935
2843.000000 0.4932 0.4929 0.4926 0.4924 0.4921
2848.000000 0.4919 0.4917 0.4914 0.4912 0.4910
2853.000000 0.4908 0.4906 0.4905 0.4903 0.4902
2858.000000 0.4900 0.4899 0.4897 0.4897 0.4897
2863.000000 0.4897 0.4896 0.4896 0.4896 0.4895
2868.000000 0.4895 0.4895 0.4895 0.4895 0.4895
2873.000000 0.4895 0.4895 0.4895 0.4895 0.4895
2878.000000 0.4895 0.4895 0.4895 0.4896 0.4896
2883.000000 0.4896 0.4896 0.4896 0.4896 0.4896
2888.000000 0.4896 0.4896 0.4896 0.4896 0.4896
2893.000000 0.4896 0.4893 0.4896 0.4896 0.4897
2898.000000 0.4897 0.4897 0.4897 0.4897 0.4898
2903.000000 0.4898 0.4899 0.4900 0.4901 0.4902
2908.000000 0.4902 0.4903 0.4903 0.4904 0.4905
2913.000000 0.4906 0.4907 0.4908 0.4910 0.4911
2918.000000 0.4913 0.4915 0.4917 0.4919 0.4921
2923.000000 0.4923 0.4925 0.4927 0.4929 0.4931
2928.000000 0.4933 0.4935 0.4937 0.4939 0.4942
2933.000000 0.4944 0.4947 0.4950 0.4954 0.4958
2938.000000 0.4961 0.4965 0.4968 0.4972 0.4977
2943.000000 0.4981 0.4986 0.4992 0.4998 0.5004
2948.000000 0.5011 0.5017 0.5023 0.5030 0.5036
2953.000000 0.5042 0.5047 0.5053 0.5059 0.5064
2958.000000 0.5070 0.5077 0.5085 0.5093 0.5101
2963.000000 0.5109 0.5118 0.5126 0.5134 0.5142
2968.000000 0.5149 0.5157 0.5160 0.5164 0.5167
2973.000000 0.5171 0.5174 0.5178 0.5182 0.5185
2978.000000 0.5189 0.5192 0.5195 0.5198 0.5200
2983.000000 0.5203 0.5205 0.5208 0.5210 0.5213
2988.000000 0.5215 0.5218 0.5220 0.5223 0.5226
2993.000000 0.5229 0.5231 0.5235 0.5238 0.5241
2998.000000 0.5244 0.5247 0.5250 0.5254 0.5257
3003.000000 0.5260 0.5264 0.5267 0.5269 0.5272
3008.000000 0.5274 0.5276 0.5278 0.5279 0.5280
3013.000000 0.5282 0.5283 0.5284 0.5285 0.5286
3018.000000 0.5288 0.5289 0.5290 0.5291 0.5292
3023.000000 0.5294 0.5295 0.5297 0.5298 0.5300
3028.000000 0.5302 0.5304 0.5306 0.5308 0.5310
3033.000000 0.5312 0.5314 0.5315 0.5317 0.5319
3038.000000 0.5321 0.5323 0.5325 0.5327 0.5332
3043.000000 0.5339 0.5346 0.5353 0.5363 0.5373
3048.000000 0.5384 0.5394 0.5405 0.5417 0.5428
3053.000000 0.5438 0.5446 0.5455 0.5463 0.5472
3058.000000 0.5481 0.5490 0.5499 0.5508 0.5518
3063.000000 0.5528 0.5537 0.5546 0.5555 0.5564
3068.000000 0.5571 0.5577 0.5582 0.5587 0.5592
3073.000000 0.5598 0.5603 0.5608 0.5613 0.5618
3078.000000 0.5623 0.5627 0.5629 0.5631 0.5632
3083.000000 0.5634 0.5636 0.5639 0.5641 0.5643
3088.000000 0.5644 0.5646 0.5648 0.5650 0.5652
3093.000000 0.5654 0.5656 0.5658 0.5660 0.5662
3098.000000 0.5664 0.5666 0.5667 0.5669 0.5671
3103.000000 0.5674 0.5678 0.5681 0.5684 0.5687
3108.000000 0.5691 0.5694 0.5698 0.5702 0.5706
3113.000000 0.5710 0.5717 0.5726 0.5734 0.5743
3118.000000 0.5748 0.5753 0.5757 0.5762 0.5765
3123.000000 0.5768 0.5771 0.5775 0.5777 0.5780
3128.000000 0.5783 0.5786 0.5786 0.5786 0.5786
3133.000000 0.5785 0.5785 0.5785 0.5785 0.5785
3138.000000 0.5785 0.5785 0.5785 0.5812 0.5784
3143.000000 0.5783 0.5782 0.5780 0.5777 0.5774
3148.000000 0.5771 0.5768 0.5765 0.5761 0.5758
3153.000000 0.5752 0.5743 0.5735 0.5726 0.5717
3158.000000 0.5706 0.5695 0.5684 0.5673 0.5662
3163.000000 0.5652 0.5641 0.5632 0.5623 0.5615
3168.000000 0.5606 0.5598 0.5589 0.5580 0.5572
3173.000000 0.5563 0.5555 0.5547 0.5539 0.5530
3178.000000 0.5522 0.5514 0.5506 0.5498 0.5490
3183.000000 0.5481 0.5473 0.5465 0.5457 0.5449
3188.000000 0.5441 0.5433 0.5425 0.5416 0.5408
3193.000000 0.5401 0.5398 0.5395 0.5391 0.5388
3198.000000 0.5386 0.5384 0.5382 0.5380 0.5379
3203.000000 0.5379 0.5379 0.5379 0.5379 0.5379
3208.000000 0.5379 0.5379 0.5379 0.5379 0.5379
3213.000000 0.5379 0.5370 0.5379 0.5379 0.5379
3218.000000 0.5380 0.5380 0.5381 0.5381 0.5383
3223.000000 0.5387 0.5391 0.5395 0.5400 0.5405
3228.000000 0.5411 0.5416 0.5422 0.5434 0.5446
3233.000000 0.5458 0.5471 0.5479 0.5487 0.5496
3238.000000 0.5504 0.5512 0.5519 0.5527 0.5534
3243.000000 0.5543 0.5553 0.5563 0.5573 0.5583
3248.000000 0.5593 0.5604 0.5614 0.5625 0.5634
3253.000000 0.5644 0.5654 0.5663 0.5673 0.5682
3258.000000 0.5692 0.5701 0.5718 0.5740 0.5762
3263.000000 0.5784 0.5805 0.5824 0.5844 0.5863
3268.000000 0.5882 0.5897 0.5911 0.5926 0.5941
3273.000000 0.5953 0.5964 0.5976 0.5987 0.5998
3278.000000 0.6008 0.6018 0.6027 0.6037 0.6047
3283.000000 0.6057 0.6067 0.6077 0.6087 0.6096
3288.000000 0.6106 0.6116 0.6127 0.6139 0.6151
3293.000000 0.6164 0.6176 0.6188 0.6200 0.6212
3298.000000 0.6225 0.6235 0.6246 0.6257 0.6267
3303.000000 0.6276 0.6283 0.6291 0.6298 0.6305
3308.000000 0.6313 0.6320 0.6327 0.6335 0.6342
3313.000000 0.6349 0.6356 0.6363 0.6370 0.6375
3318.000000 0.6381 0.6387 0.6393 0.6399 0.6404
3323.000000 0.6410 0.6415 0.6420 0.6424 0.6428
3328.000000 0.6433 0.6437 0.6441 0.6446 0.6450
3333.000000 0.6454 0.6458 0.6461 0.6465 0.6469
3338.000000 0.6472 0.6476 0.6479 0.6483 0.6487
3343.000000 0.6490 0.6494 0.6497 0.6501 0.6504
3348.000000 0.6507 0.6509 0.6512 0.6514 0.6516
3353.000000 0.6518 0.6521 0.6523 0.6525 0.6526
3358.000000 0.6527 0.6527 0.6528 0.6529 0.6530
3363.000000 0.6531 0.6532 0.6533 0.6534 0.6534
3368.000000 0.6535 0.6536 0.6537 0.6538 0.6539
3373.000000 0.6540 0.6541 0.6542 0.6542 0.6543
3378.000000 0.6544 0.6545 0.6546 0.6547 0.6548
3383.000000 0.6549 0.6549 0.6550 0.6551 0.6552
3388.000000 0.6553 0.6554 0.6555 0.6556 0.6556
3393.000000 0.6557 0.6558 0.6559 0.6560 0.6561
3398.000000 0.6562 0.6562 0.6563 0.6564 0.6565
3403.000000 0.6566 0.6567 0.6568 0.6569 0.6569
3408.000000 0.6570 0.6571 0.6572 0.6573 0.6574
3413.000000 0.6576 0.6577 0.6578 0.6579 0.6581
3418.000000 0.6582 0.6583 0.6585 0.6587 0.6589
3423.000000 0.6592 0.6594 0.6596 0.6599 0.6601
3428.000000 0.6604 0.6607 0.6609 0.6612 0.6614
3433.000000 0.6617 0.6619 0.6622 0.6624 0.6626
3438.000000 0.6629 0.6631 0.6634 0.6636 0.6639
3443.000000 0.6641 0.6644 0.6647 0.6650 0.6653
3448.000000 0.6657 0.6660 0.6663 0.6666 0.6669
3453.000000 0.6672 0.6675 0.6678 0.6681 0.6684
3458.000000 0.6687 0.6690 0.6693 0.6696 0.6699
3463.000000 0.6701 0.6702 0.6703 0.6704 0.6705
3468.000000 0.6706 0.6707 0.6708 0.6709 0.6710
3473.000000 0.6711 0.6712 0.6713 0.6714 0.6715
3478.000000 0.6716 0.6718 0.6719 0.6720 0.6721
3483.000000 0.6722 0.6723 0.6724 0.6725 0.6726
3488.000000 0.6727 0.6727 0.6728 0.6729 0.6730
3493.000000 0.6730 0.6731 0.6732 0.6732 0.6733
3498.000000 0.6733 0.6734 0.6735 0.6735 0.6736
3503.000000 0.6736 0.6737 0.6738 0.6738 0.6739
3508.000000 0.6739 0.6740 0.6740 0.6740 0.6741
3513.000000 0.6742 0.6742 0.6743 0.6743 0.6744
3518.000000 0.6745 0.6745 0.6746 0.6746 0.6747
3523.000000 0.6748 0.6748 0.6749 0.6749 0.6750
3528.000000 0.6750 0.6750 0.6750 0.6750 0.6750
3533.000000 0.6750 0.6750 0.6750 0.6750 0.6750
3538.000000 0.6750 0.6750 0.6750 0.6750 0.6750
3543.000000 0.6750 0.6750 0.6750 0.6750 0.6751
3548.000000 0.6751 0.6751 0.6751 0.6751 0.6751
3553.000000 0.6751 0.6751 0.6751 0.6751 0.6751
3558.000000 0.6751 0.6751 0.6751 0.6751 0.6751
3563.000000 0.6751 0.6751 0.6751 0.6751 0.6751
3568.000000 0.6751 0.6751 0.6751 0.6751 0.6752
3573.000000 0.6752 0.6752 0.6752 0.6752 0.6752
3578.000000 0.6752 0.6752 0.6752 0.6752 0.6752
3583.000000 0.6752 0.6752 0.6752 0.6752 0.6752
3588.000000 0.6752 0.6752 0.6752 0.6752 0.6752
3593.000000 0.6752 0.6752 0.6752 0.6752 0.6752
3598.000000 0.6752 0.6752 0.6752 0.6752 0.6752
3603.000000 0.6752 0.6752 0.6752 0.6752 0.6752
3608.000000 0.6752 0.6752 0.6752 0.6752 0.6752
3613.000000 0.6752 0.6752 0.6752 0.6752 0.6752
3618.000000 0.6752 0.6752 0.6752 0.6752 0.6752
3623.000000 0.6752 0.6752 0.6752 0.6752 0.6752
3628.000000 0.6752 0.6752 0.6752 0.6752 0.6752
3633.000000 0.6752 0.6752 0.6752 0.6752 0.6752
3638.000000 0.6752 0.6752 0.6752 0.6752 0.6752
3643.000000 0.6752 0.6752 0.6752 0.6752 0.6752
3648.000000 0.6752 0.6752 0.6752 0.6752 0.6752
3653.000000 0.6752 0.6752 0.6752 0.6752 0.6752
3658.000000 0.6752 0.6752 0.6752 0.6753 0.6753
3663.000000 0.6753 0.6754 0.6754 0.6755 0.6755
3668.000000 0.6755 0.6755 0.6755 0.6755 0.6756
3673.000000 0.6756 0.6756 0.6756 0.6756 0.6757
3678.000000 0.6757 0.6757 0.6757 0.6757 0.6758
3683.000000 0.6758 0.6758 0.6758 0.6758 0.6758
3688.000000 0.6759 0.6759 0.6759 0.6759 0.6759
3693.000000 0.6760 0.6760 0.6760 0.6760 0.6760
3698.000000 0.6760 0.6761 0.6761 0.6761 0.6761
3703.000000 0.6761 0.6762 0.6762 0.6762 0.6762
3708.000000 0.6762 0.6762 0.6763 0.6763 0.6764
3713.000000 0.6764 0.6764 0.6765 0.6765 0.6766
3718.000000 0.6766 0.6767 0.6767 0.6768 0.6769
3723.000000 0.6769 0.6770 0.6771 0.6772 0.6772
3728.000000 0.6773 0.6773 0.6774 0.6774 0.6775
3733.000000 0.6775 0.6776 0.6776 0.6777 0.6778
3738.000000 0.6778 0.6779 0.6780 0.6780 0.6781
3743.000000 0.6782 0.6782 0.6783 0.6783 0.6784
3748.000000 0.6784 0.6785 0.6785 0.6786 0.6787
3753.000000 0.6787 0.6788 0.6788 0.6789 0.6789
3758.000000 0.6790 0.6790 0.6791 0.6792 0.6792
3763.000000 0.6793 0.6794 0.6794 0.6795 0.6796
3768.000000 0.6796 0.6797 0.6797 0.6798 0.6798
3773.000000 0.6799 0.6800 0.6800 0.6801 0.6802
3778.000000 0.6803 0.6803 0.6804 0.6805 0.6805
3783.000000 0.6806 0.6807 0.6807 0.6808 0.6809
3788.000000 0.6810 0.6810 0.6811 0.6812 0.6812
3793.000000 0.6813 0.6814 0.6814 0.6815 0.6816
3798.000000 0.6817 0.6817 0.6818 0.6819 0.6819
3803.000000 0.6820 0.6821 0.6821 0.6822 0.6823
3808.000000 0.6823 0.6824 0.6825 0.6826 0.6826
3813.000000 0.6827 0.6828 0.6828 0.6829 0.6830
3818.000000 0.6830 0.6831 0.6832 0.6832 0.6833
3823.000000 0.6834 0.6834 0.6835 0.6836 0.6836
3828.000000 0.6837 0.6838 0.6838 0.6839 0.6839
3833.000000 0.6840 0.6840 0.6841 0.6842 0.6842
3838.000000 0.6843 0.6844 0.6844 0.6845 0.6846
3843.000000 0.6846 0.6847 0.6848 0.6848 0.6849
3848.000000 0.6850 0.6850 0.6851 0.6852 0.6852
3853.000000 0.6853 0.6854 0.6854 0.6855 0.6856
3858.000000 0.6856 0.6857 0.6858 0.6858 0.6859
3863.000000 0.6860 0.6861 0.6861 0.6862 0.6863
3868.000000 0.6863 0.6864 0.6865 0.6865 0.6866
3873.000000 0.6867 0.6867 0.6868 0.6869 0.6869
3878.000000 0.6870 0.6871 0.6871 0.6872 0.6873
3883.000000 0.6873 0.6874 0.6874 0.6875 0.6876
3888.000000 0.6876 0.6877 0.6878 0.6878 0.6879
3893.000000 0.6880 0.6880 0.6881 0.6882 0.6882
3898.000000 0.6883 0.6884 0.6884 0.6885 0.6886
3903.000000 0.6886 0.6887 0.6888 0.6888 0.6889
3908.000000 0.6889 0.6889 0.6889 0.6889 0.6889
3913.000000 0.6890 0.6890 0.6890 0.6891 0.6891
3918.000000 0.6891 0.6892 0.6892 0.6892 0.6892
3923.000000 0.6892 0.6892 0.6893 0.6893 0.6893
3928.000000 0.6894 0.6894 0.6894 0.6895 0.6895
3933.000000 0.6895 0.6896 0.6896 0.6896 0.6896
3938.000000 0.6897 0.6897 0.6897 0.6897 0.6897
3943.000000 0.6897 0.6898 0.6898 0.6898 0.6899
3948.000000 0.6899 0.6899 0.6900 0.6900 0.6900
3953.000000 0.6900 0.6900 0.6900 0.6901 0.6901
3958.000000 0.6901 0.6902 0.6902 0.6902 0.6903
3963.000000 0.6903 0.6903 0.6903 0.6903 0.6903
3968.000000 0.6903 0.6904 0.6904 0.6904 0.6905
3973.000000 0.6905 0.6905 0.6906 0.6906 0.6906
3978.000000 0.6906 0.6906 0.6906 0.6906 0.6906
3983.000000 0.6906 0.6906 0.6906 0.6906 0.6906
3988.000000 0.6906 0.6906 0.6906 0.6906 0.6906
3993.000000 0.6906 0.6906 0.6906 0.6906 0.6906
3998.000000 0.6906 0.6906 0.6889
##END=
