##TITLE=POTASSIUM PERSULFATE
##JCAMP-DX=4.24
##DATA TYPE=INFRARED SPECTRUM
##CLASS=COBLENTZ III
##ORIGIN=DOW CHEMICAL COMPANY
##OWNER=COBLENTZ SOCIETY
Collection (C) 2018 copyright by the U.S. Secretary of Commerce
on behalf of the United States of America. All rights reserved.
##DATE=1967/11/16
##NAMES=POTASSIUM PEROXYDISULFATE
##MOLFORM=O8 S2 K2
##SOURCE REFERENCE=COBLENTZ NO. 3344
##$NIST ID=B6003344
##$NIST SOURCE=COBLENTZ
##$NIST IMAGE=cob3344
##SPECTROMETER/DATA SYSTEM=DOW KBr FOREPRISM-GRATING
##INSTRUMENT PARAMETERS=BLAZED AT 3.5, 12.0, 20.0 MICRON AND CHANGED AT 5.0, 7.5, 14.9 MICRON
##STATE=SOLID (SPLIT MULL: FLUOROLUBE FOR 3800-1330 CM^-^1, NUJOL FOR 1330-400 CM^-^1)
##SAMPLING PROCEDURE=TRANSMISSION
##RESOLUTION=4
##DATA PROCESSING=DIGITIZED BY NIST FROM HARD COPY (FROM TWO SEGMENTS)
##XUNITS=1/CM
##YUNITS=TRANSMITTANCE
##XFACTOR=1.000000
##YFACTOR=1
##DELTAX=0.948168
##FIRSTX=386.22
##LASTX=3793.93
##FIRSTY=0.834
##MAXX=3793.93
##MINX=386.22
##MAXY=0.967
##MINY=0.091
##NPOINTS=3595
##XYDATA=(X++(Y..Y))
386.220000 0.8340 0.8340 0.8340 0.8340 0.8340
390.960839 0.8340 0.8340 0.8340 0.8330 0.8330
395.701677 0.8330 0.8340 0.8340 0.8340 0.8330
400.442516 0.8300 0.8280 0.8270 0.8240 0.8220
405.183354 0.8190 0.8190 0.8180 0.8150 0.8130
409.924193 0.8090 0.8070 0.8050 0.8050 0.8030
414.665031 0.8020 0.7990 0.7970 0.7960 0.7940
419.405870 0.7910 0.7880 0.7870 0.7850 0.7840
424.146709 0.7820 0.7810 0.7790 0.7780 0.7780
428.887547 0.7760 0.7750 0.7750 0.7740 0.7720
433.628386 0.7720 0.7710 0.7710 0.7710 0.7720
438.369224 0.7790 0.7840 0.7880 0.7930 0.7960
443.110063 0.7960 0.7960 0.7940 0.7940 0.7940
447.850901 0.7930 0.7930 0.7910 0.7910 0.7900
452.591740 0.7900 0.7900 0.7900 0.7900 0.7900
457.332579 0.7900 0.7880 0.7900 0.7900 0.7900
462.073417 0.7900 0.7900 0.7900 0.7900 0.7900
466.814256 0.7880 0.7880 0.7880 0.7900 0.7900
471.555094 0.7900 0.7900 0.7900 0.7880 0.7880
476.295933 0.7870 0.7840 0.7820 0.7810 0.7810
481.036771 0.7790 0.7790 0.7780 0.7760 0.7750
485.777610 0.7740 0.7720 0.7710 0.7680 0.7650
490.518448 0.7630 0.7620 0.7600 0.7590 0.7560
495.259287 0.7540 0.7530 0.7510 0.7480 0.7450
500.000126 0.7420 0.7420 0.7410 0.7410 0.7400
504.740964 0.7370 0.7340 0.7310 0.7290 0.7260
509.481803 0.7250 0.7230 0.7200 0.7190 0.7170
514.222641 0.7140 0.7110 0.7100 0.7090 0.7090
518.963480 0.7010 0.7010 0.7000 0.6970 0.6940
523.704318 0.6920 0.6830 0.6800 0.6760 0.6700
528.445157 0.6610 0.6520 0.6490 0.6440 0.6360
533.185996 0.6330 0.6320 0.6260 0.6210 0.6180
537.926834 0.6170 0.6050 0.6010 0.5900 0.5810
542.667673 0.5670 0.5501 0.5400 0.5300 0.5161
547.408511 0.5050 0.4990 0.4800 0.4231 0.4030
552.149350 0.3451 0.3271 0.3101 0.2881 0.2034
556.890188 0.1830 0.1710 0.1660 0.1660 0.1680
561.631027 0.1740 0.1830 0.1999 0.2249 0.2519
566.371866 0.3630 0.4260 0.5648 0.6179 0.6788
571.112704 0.6820 0.6850 0.6880 0.6860 0.6830
575.853543 0.6790 0.6760 0.6700 0.6610 0.6460
580.594381 0.6350 0.6320 0.6180 0.5951 0.5641
585.335220 0.5450 0.5250 0.4711 0.4091 0.3531
590.076058 0.2952 0.2462 0.2460 0.2759 0.3387
594.816897 0.3910 0.6788 0.6800 0.6850 0.6910
599.557736 0.6940 0.6940 0.6920 0.6860 0.6830
604.298574 0.6800 0.6790 0.6770 0.6760 0.6750
609.039413 0.6750 0.6790 0.6800 0.6820 0.6820
613.780251 0.6770 0.6760 0.6750 0.6700 0.6670
618.521090 0.6660 0.6600 0.6510 0.6480 0.6410
623.261928 0.6330 0.6330 0.6210 0.6180 0.6120
628.002767 0.6080 0.6020 0.5950 0.5920 0.5890
632.743606 0.5840 0.5800 0.5760 0.5710 0.5670
637.484444 0.5640 0.5620 0.5500 0.5490 0.5480
642.225283 0.5390 0.5370 0.5300 0.5250 0.5190
646.966121 0.5150 0.5120 0.5120 0.5030 0.5020
651.706960 0.4910 0.4880 0.4800 0.4710 0.4620
656.447798 0.4590 0.4560 0.4500 0.4490 0.4281
661.188637 0.4200 0.4180 0.4180 0.4150 0.4090
665.929476 0.4010 0.3571 0.3470 0.3450 0.3450
670.670314 0.3390 0.3300 0.3200 0.3080 0.2950
675.411153 0.2850 0.2681 0.2620 0.2520 0.2401
680.151991 0.2370 0.2250 0.2230 0.2140 0.2090
684.892830 0.2050 0.2020 0.2000 0.1990 0.1970
689.633668 0.1940 0.1920 0.1900 0.1890 0.1890
694.374507 0.1900 0.1900 0.1900 0.1920 0.1920
699.115345 0.1930 0.1930 0.1940 0.1960 0.2000
703.856184 0.2020 0.2080 0.2080 0.2120 0.2120
708.597023 0.2180 0.2240 0.2270 0.2340 0.2450
713.337861 0.2510 0.2550 0.2620 0.2680 0.2819
718.078700 0.2890 0.3020 0.3170 0.3300 0.3440
722.819538 0.3550 0.3630 0.3660 0.3720 0.3810
727.560377 0.4000 0.4160 0.4260 0.4310 0.4400
732.301215 0.4629 0.4720 0.4800 0.4900 0.5000
737.042054 0.5030 0.5250 0.5500 0.5620 0.5700
741.782893 0.5800 0.5900 0.6039 0.6169 0.6210
746.523731 0.6330 0.6360 0.6450 0.6610 0.6770
751.264570 0.6860 0.6920 0.6940 0.6940 0.6950
756.005408 0.7000 0.7010 0.7030 0.7040 0.7060
760.746247 0.7070 0.7070 0.7090 0.7090 0.7100
765.487085 0.7110 0.7130 0.7160 0.7190 0.7190
770.227924 0.7200 0.7200 0.7220 0.7220 0.7220
774.968763 0.7220 0.7220 0.7220 0.7220 0.7220
779.709601 0.7220 0.7220 0.7220 0.7230 0.7230
784.450440 0.7230 0.7230 0.7250 0.7260 0.7260
789.191278 0.7260 0.7260 0.7260 0.7280 0.7280
793.932117 0.7280 0.7290 0.7320 0.7350 0.7370
798.672955 0.7370 0.7380 0.7380 0.7380 0.7380
803.413794 0.7380 0.7380 0.7380 0.7380 0.7380
808.154633 0.7380 0.7380 0.7370 0.7370 0.7380
812.895471 0.7380 0.7380 0.7400 0.7400 0.7420
817.636310 0.7420 0.7420 0.7420 0.7420 0.7420
822.377148 0.7410 0.7410 0.7400 0.7370 0.7370
827.117987 0.7350 0.7340 0.7340 0.7320 0.7320
831.858825 0.7310 0.7290 0.7280 0.7280 0.7260
836.599664 0.7250 0.7230 0.7230 0.7200 0.7200
841.340503 0.7190 0.7170 0.7160 0.7160 0.7160
846.081341 0.7140 0.7140 0.7130 0.7130 0.7130
850.822180 0.7130 0.7130 0.7130 0.7110 0.7110
855.563018 0.7110 0.7110 0.7110 0.7110 0.7110
860.303857 0.7110 0.7110 0.7110 0.7110 0.7110
865.044695 0.7110 0.7110 0.7100 0.7090 0.7090
869.785534 0.7090 0.7070 0.7070 0.7060 0.7040
874.526373 0.7030 0.7030 0.7010 0.7010 0.7000
879.267211 0.6980 0.6970 0.6950 0.6950 0.6940
884.008050 0.6940 0.6940 0.6940 0.6940 0.6940
888.748888 0.6940 0.6940 0.6940 0.6940 0.6940
893.489727 0.6940 0.6940 0.6940 0.6920 0.6920
898.230565 0.6920 0.6920 0.6910 0.6910 0.6890
902.971404 0.6890 0.6890 0.6880 0.6880 0.6880
907.712242 0.6880 0.6860 0.6850 0.6850 0.6830
912.453081 0.6830 0.6820 0.6820 0.6820 0.6820
917.193920 0.6800 0.6800 0.6790 0.6790 0.6790
921.934758 0.6790 0.6790 0.6790 0.6790 0.6770
926.675597 0.6770 0.6760 0.6760 0.6750 0.6750
931.416435 0.6730 0.6730 0.6720 0.6720 0.6720
936.157274 0.6700 0.6700 0.6690 0.6690 0.6670
940.898112 0.6660 0.6660 0.6640 0.6640 0.6640
945.638951 0.6640 0.6630 0.6630 0.6610 0.6610
950.379790 0.6600 0.6580 0.6570 0.6570 0.6550
955.120628 0.6540 0.6520 0.6510 0.6480 0.6480
959.861467 0.6460 0.6460 0.6450 0.6450 0.6450
964.602305 0.6440 0.6420 0.6420 0.6410 0.6410
969.343144 0.6390 0.6380 0.6360 0.6350 0.6350
974.083982 0.6330 0.6330 0.6320 0.6320 0.6300
978.824821 0.6290 0.6270 0.6260 0.6260 0.6260
983.565660 0.6240 0.6230 0.6230 0.6230 0.6200
988.306498 0.6200 0.6180 0.6170 0.6170 0.6170
993.047337 0.6150 0.6140 0.6120 0.6110 0.6110
997.788175 0.6100 0.6080 0.6050 0.6050 0.6040
1002.529014 0.6040 0.6020 0.6020 0.6010 0.5990
1007.269852 0.5980 0.5950 0.5920 0.5900 0.5900
1012.010691 0.5890 0.5890 0.5860 0.5830 0.5790
1016.751530 0.5770 0.5760 0.5760 0.5740 0.5700
1021.492368 0.5670 0.5640 0.5620 0.5560 0.5520
1026.233207 0.5500 0.5490 0.5480 0.5450 0.5420
1030.974045 0.5370 0.5280 0.5250 0.5160 0.5140
1035.714884 0.5120 0.5090 0.5030 0.5020 0.4911
1040.455722 0.4710 0.4570 0.4500 0.4470 0.4400
1045.196561 0.4370 0.4280 0.4190 0.4090 0.4000
1049.937400 0.3810 0.3480 0.3270 0.3070 0.2920
1054.678238 0.2671 0.2391 0.2121 0.1592 0.1252
1059.419077 0.1190 0.1100 0.1100 0.1160 0.1270
1064.159915 0.1310 0.1440 0.1619 0.1809 0.2049
1068.900754 0.2280 0.2580 0.3390 0.3600 0.3810
1073.641592 0.4179 0.4369 0.4460 0.4470 0.4510
1078.382431 0.4570 0.4600 0.4680 0.4800 0.4810
1083.123270 0.4830 0.4910 0.4960 0.5020 0.5030
1087.864108 0.5120 0.5140 0.5150 0.5160 0.5190
1092.604947 0.5190 0.5210 0.5210 0.5210 0.5190
1097.345785 0.5190 0.5160 0.5150 0.5120 0.5090
1102.086624 0.5090 0.5080 0.5060 0.5050 0.5030
1106.827462 0.5020 0.5000 0.4970 0.4960 0.4940
1111.568301 0.4930 0.4910 0.4900 0.4880 0.4870
1116.309139 0.4850 0.4840 0.4840 0.4840 0.4850
1121.049978 0.4880 0.4900 0.4910 0.4930 0.4940
1125.790817 0.4940 0.4960 0.4960 0.4960 0.4960
1130.531655 0.4960 0.4960 0.4960 0.4960 0.4960
1135.272494 0.4960 0.4960 0.4960 0.4940 0.4930
1140.013332 0.4930 0.4910 0.4910 0.4900 0.4900
1144.754171 0.4880 0.4880 0.4880 0.4870 0.4870
1149.495009 0.4870 0.4850 0.4850 0.4850 0.4830
1154.235848 0.4800 0.4800 0.4750 0.4740 0.4710
1158.976687 0.4710 0.4690 0.4680 0.4680 0.4650
1163.717525 0.4600 0.4570 0.4570 0.4530 0.4500
1168.458364 0.4490 0.4490 0.4470 0.4460 0.4410
1173.199202 0.4400 0.4380 0.4370 0.4370 0.4370
1177.940041 0.4350 0.4290 0.4290 0.4280 0.4280
1182.680879 0.4280 0.4280 0.4280 0.4260 0.4260
1187.421718 0.4250 0.4230 0.4220 0.4190 0.4180
1192.162557 0.4180 0.4160 0.4160 0.4150 0.4120
1196.903395 0.4100 0.4100 0.4090 0.4060 0.4040
1201.644234 0.4040 0.4010 0.4010 0.3980 0.3980
1206.385072 0.3920 0.3890 0.3890 0.3850 0.3810
1211.125911 0.3790 0.3790 0.3750 0.3730 0.3720
1215.866749 0.3700 0.3690 0.3670 0.3660 0.3630
1220.607588 0.3570 0.3550 0.3530 0.3480 0.3470
1225.348427 0.3450 0.3420 0.3390 0.3390 0.3320
1230.089265 0.3240 0.3220 0.3190 0.3170 0.3080
1234.830104 0.3020 0.2960 0.2890 0.2830 0.2760
1239.570942 0.2710 0.2620 0.2520 0.2490 0.2340
1244.311781 0.2270 0.2230 0.2140 0.2050 0.2020
1249.052619 0.2020 0.1940 0.1920 0.1860 0.1830
1253.793458 0.1740 0.1590 0.1441 0.1380 0.1280
1258.534297 0.1250 0.1150 0.1100 0.1010 0.1000
1263.275135 0.0970 0.0940 0.0940 0.0930 0.0930
1268.015974 0.0930 0.0930 0.0930 0.0930 0.0940
1272.756812 0.0940 0.0940 0.0940 0.0980 0.1000
1277.497651 0.1000 0.1030 0.1040 0.1100 0.1130
1282.238489 0.1150 0.1150 0.1150 0.1150 0.1130
1286.979328 0.1100 0.1090 0.1060 0.1010 0.1000
1291.720167 0.0980 0.0970 0.0940 0.0930 0.0910
1296.461005 0.0910 0.0910 0.0930 0.0930 0.0980
1301.201844 0.1000 0.1010 0.1030 0.1070 0.1100
1305.942682 0.1130 0.1190 0.1250 0.1270 0.1310
1310.683521 0.1380 0.1430 0.1440 0.1589 0.1610
1315.424359 0.1660 0.1740 0.1810 0.1900 0.2020
1320.165198 0.2140 0.2299 0.2340 0.2450 0.2579
1324.906036 0.2760 0.2950 0.3100 0.3200 0.3260
1329.646875 0.3300 0.3320 0.3330 0.3360 0.3380
1334.387714 0.3410 0.3480 0.3530 0.3640 0.3840
1339.128552 0.4099 0.4200 0.4310 0.4380 0.4470
1343.869391 0.4490 0.4590 0.4680 0.4800 0.4900
1348.610229 0.4970 0.5139 0.5339 0.5519 0.5669
1353.351068 0.5770 0.5830 0.5920 0.5990 0.6040
1358.091906 0.6100 0.6180 0.6260 0.6330 0.6350
1362.832745 0.6460 0.6480 0.6520 0.6570 0.6610
1367.573584 0.6630 0.6660 0.6790 0.6800 0.6820
1372.314422 0.6860 0.6890 0.6950 0.7000 0.7040
1377.055261 0.7100 0.7100 0.7110 0.7130 0.7140
1381.796099 0.7160 0.7160 0.7190 0.7290 0.7470
1386.536938 0.7600 0.7620 0.7630 0.7750 0.7760
1391.277776 0.7780 0.7780 0.7790 0.7790 0.7810
1396.018615 0.7810 0.7810 0.7810 0.7820 0.7820
1400.759454 0.7820 0.7820 0.7820 0.7840 0.7840
1405.500292 0.7850 0.7870 0.7870 0.7880 0.7900
1410.241131 0.7900 0.7900 0.7900 0.7880 0.7870
1414.981969 0.7850 0.7810 0.7790 0.7780 0.7780
1419.722808 0.7760 0.7760 0.7760 0.7760 0.7780
1424.463646 0.7780 0.7790 0.7810 0.7820 0.7870
1429.204485 0.7940 0.7960 0.7960 0.7990 0.8030
1433.945324 0.8070 0.8130 0.8150 0.8160 0.8180
1438.686162 0.8220 0.8240 0.8280 0.8330 0.8340
1443.427001 0.8370 0.8410 0.8460 0.8520 0.8530
1448.167839 0.8580 0.8590 0.8610 0.8620 0.8670
1452.908678 0.8680 0.8710 0.8720 0.8740 0.8750
1457.649516 0.8770 0.8780 0.8800 0.8830 0.8840
1462.390355 0.8890 0.8900 0.8920 0.8930 0.8930
1467.131194 0.8950 0.8960 0.8980 0.9010 0.9020
1471.872032 0.9030 0.9050 0.9060 0.9080 0.9090
1476.612871 0.9110 0.9120 0.9120 0.9140 0.9140
1481.353709 0.9150 0.9150 0.9150 0.9170 0.9170
1486.094548 0.9180 0.9180 0.9180 0.9200 0.9200
1490.835386 0.9200 0.9210 0.9210 0.9230 0.9240
1495.576225 0.9240 0.9260 0.9290 0.9300 0.9320
1500.317064 0.9320 0.9320 0.9330 0.9330 0.9330
1505.057902 0.9350 0.9350 0.9350 0.9360 0.9370
1509.798741 0.9370 0.9370 0.9390 0.9390 0.9400
1514.539579 0.9400 0.9420 0.9420 0.9420 0.9430
1519.280418 0.9430 0.9450 0.9450 0.9460 0.9460
1524.021256 0.9460 0.9480 0.9480 0.9480 0.9490
1528.762095 0.9490 0.9490 0.9490 0.9490 0.9510
1533.502933 0.9510 0.9520 0.9520 0.9540 0.9540
1538.243772 0.9540 0.9550 0.9550 0.9550 0.9550
1542.984611 0.9570 0.9570 0.9570 0.9570 0.9580
1547.725449 0.9580 0.9580 0.9580 0.9570 0.9570
1552.466288 0.9570 0.9570 0.9580 0.9580 0.9580
1557.207126 0.9580 0.9600 0.9580 0.9580 0.9580
1561.947965 0.9600 0.9600 0.9600 0.9600 0.9600
1566.688803 0.9610 0.9610 0.9610 0.9610 0.9610
1571.429642 0.9610 0.9610 0.9610 0.9610 0.9610
1576.170481 0.9610 0.9610 0.9610 0.9610 0.9600
1580.911319 0.9600 0.9600 0.9610 0.9610 0.9630
1585.652158 0.9610 0.9630 0.9630 0.9630 0.9630
1590.392996 0.9630 0.9630 0.9630 0.9630 0.9610
1595.133835 0.9610 0.9610 0.9610 0.9610 0.9630
1599.874673 0.9630 0.9630 0.9630 0.9610 0.9600
1604.615512 0.9600 0.9600 0.9580 0.9580 0.9580
1609.356351 0.9580 0.9580 0.9580 0.9580 0.9580
1614.097189 0.9580 0.9580 0.9580 0.9580 0.9580
1618.838028 0.9580 0.9580 0.9580 0.9600 0.9600
1623.578866 0.9600 0.9610 0.9610 0.9610 0.9630
1628.319705 0.9630 0.9630 0.9630 0.9630 0.9630
1633.060543 0.9630 0.9630 0.9630 0.9630 0.9630
1637.801382 0.9600 0.9600 0.9600 0.9600 0.9600
1642.542221 0.9600 0.9600 0.9600 0.9600 0.9600
1647.283059 0.9580 0.9580 0.9600 0.9600 0.9600
1652.023898 0.9600 0.9600 0.9600 0.9600 0.9600
1656.764736 0.9600 0.9580 0.9580 0.9580 0.9580
1661.505575 0.9580 0.9580 0.9580 0.9580 0.9580
1666.246413 0.9580 0.9580 0.9580 0.9580 0.9600
1670.987252 0.9600 0.9600 0.9610 0.9610 0.9610
1675.728091 0.9610 0.9630 0.9630 0.9630 0.9630
1680.468929 0.9630 0.9630 0.9610 0.9610 0.9610
1685.209768 0.9610 0.9610 0.9630 0.9630 0.9630
1689.950606 0.9640 0.9640 0.9640 0.9640 0.9640
1694.691445 0.9660 0.9660 0.9660 0.9660 0.9670
1699.432283 0.9670 0.9670 0.9670 0.9670 0.9670
1704.173122 0.9670 0.9670 0.9670 0.9670 0.9670
1708.913961 0.9670 0.9670 0.9670 0.9670 0.9670
1713.654799 0.9670 0.9670 0.9670 0.9670 0.9670
1718.395638 0.9670 0.9670 0.9670 0.9670 0.9670
1723.136476 0.9670 0.9670 0.9670 0.9670 0.9670
1727.877315 0.9670 0.9660 0.9660 0.9660 0.9660
1732.618153 0.9660 0.9660 0.9640 0.9640 0.9660
1737.358992 0.9640 0.9640 0.9640 0.9630 0.9630
1742.099830 0.9630 0.9630 0.9610 0.9610 0.9610
1746.840669 0.9610 0.9600 0.9600 0.9580 0.9580
1751.581508 0.9580 0.9580 0.9600 0.9580 0.9580
1756.322346 0.9580 0.9570 0.9570 0.9570 0.9550
1761.063185 0.9550 0.9550 0.9550 0.9540 0.9540
1765.804023 0.9520 0.9520 0.9510 0.9510 0.9510
1770.544862 0.9490 0.9490 0.9490 0.9490 0.9490
1775.285700 0.9480 0.9480 0.9480 0.9480 0.9480
1780.026539 0.9460 0.9460 0.9460 0.9460 0.9460
1784.767378 0.9460 0.9460 0.9450 0.9460 0.9450
1789.508216 0.9450 0.9450 0.9450 0.9450 0.9450
1794.249055 0.9450 0.9450 0.9450 0.9430 0.9450
1798.989893 0.9430 0.9430 0.9430 0.9420 0.9420
1803.730732 0.9420 0.9420 0.9420 0.9420 0.9420
1808.471570 0.9420 0.9420 0.9420 0.9400 0.9400
1813.212409 0.9400 0.9400 0.9390 0.9390 0.9370
1817.953248 0.9390 0.9390 0.9400 0.9390 0.9390
1822.694086 0.9390 0.9390 0.9370 0.9390 0.9390
1827.434925 0.9390 0.9390 0.9390 0.9370 0.9370
1832.175763 0.9370 0.9370 0.9370 0.9370 0.9370
1836.916602 0.9360 0.9370 0.9360 0.9360 0.9360
1841.657440 0.9360 0.9360 0.9360 0.9360 0.9360
1846.398279 0.9350 0.9350 0.9330 0.9350 0.9350
1851.139118 0.9350 0.9350 0.9350 0.9350 0.9350
1855.879956 0.9350 0.9330 0.9330 0.9330 0.9350
1860.620795 0.9350 0.9350 0.9330 0.9330 0.9330
1865.361633 0.9330 0.9330 0.9330 0.9330 0.9330
1870.102472 0.9330 0.9330 0.9330 0.9330 0.9330
1874.843310 0.9330 0.9320 0.9320 0.9350 0.9350
1879.584149 0.9330 0.9330 0.9330 0.9320 0.9320
1884.324988 0.9330 0.9330 0.9330 0.9330 0.9330
1889.065826 0.9330 0.9330 0.9330 0.9330 0.9330
1893.806665 0.9330 0.9320 0.9320 0.9320 0.9290
1898.547503 0.9290 0.9300 0.9300 0.9300 0.9300
1903.288342 0.9300 0.9300 0.9290 0.9290 0.9300
1908.029180 0.9300 0.9290 0.9290 0.9290 0.9290
1912.770019 0.9290 0.9290 0.9290 0.9290 0.9270
1917.510858 0.9270 0.9270 0.9270 0.9290 0.9270
1922.251696 0.9270 0.9270 0.9270 0.9270 0.9270
1926.992535 0.9270 0.9270 0.9270 0.9270 0.9260
1931.733373 0.9260 0.9260 0.9260 0.9260 0.9260
1936.474212 0.9260 0.9260 0.9240 0.9240 0.9240
1941.215050 0.9240 0.9240 0.9230 0.9230 0.9230
1945.955889 0.9230 0.9240 0.9230 0.9230 0.9210
1950.696727 0.9200 0.9200 0.9200 0.9200 0.9200
1955.437566 0.9200 0.9200 0.9200 0.9200 0.9200
1960.178405 0.9200 0.9200 0.9200 0.9200 0.9200
1964.919243 0.9200 0.9200 0.9180 0.9180 0.9180
1969.660082 0.9180 0.9180 0.9180 0.9180 0.9170
1974.400920 0.9170 0.9170 0.9170 0.9170 0.9170
1979.141759 0.9170 0.9150 0.9140 0.9140 0.9140
1983.882597 0.9140 0.9140 0.9140 0.9140 0.9140
1988.623436 0.9120 0.9120 0.9120 0.9120 0.9120
1993.364275 0.9120 0.9120 0.9120 0.9120 0.9140
1998.105113 0.9150 0.9150 0.9150 0.9150 0.9150
2002.845952 0.9145 0.9140 0.9130 0.9120 0.9120
2007.586790 0.9120 0.9120 0.9120 0.9120 0.9120
2012.327629 0.9120 0.9120 0.9129 0.9139 0.9140
2017.068467 0.9140 0.9126 0.9111 0.9110 0.9110
2021.809306 0.9110 0.9110 0.9110 0.9110 0.9101
2026.550145 0.9091 0.9090 0.9090 0.9090 0.9090
2031.290983 0.9090 0.9090 0.9098 0.9108 0.9110
2036.031822 0.9110 0.9102 0.9092 0.9090 0.9090
2040.772660 0.9090 0.9090 0.9090 0.9090 0.9090
2045.513499 0.9090 0.9086 0.9081 0.9072 0.9062
2050.254337 0.9060 0.9060 0.9056 0.9051 0.9043
2054.995176 0.9033 0.9026 0.9021 0.9016 0.9011
2059.736015 0.9003 0.8993 0.8990 0.8990 0.8987
2064.476853 0.8982 0.8980 0.8980 0.8973 0.8963
2069.217692 0.8960 0.8960 0.8960 0.8960 0.8960
2073.958530 0.8960 0.8960 0.8960 0.8960 0.8960
2078.699369 0.8957 0.8952 0.8950 0.8950 0.8950
2083.440207 0.8950 0.8950 0.8950 0.8950 0.8950
2088.181046 0.8950 0.8950 0.8950 0.8950 0.8944
2092.921885 0.8935 0.8927 0.8922 0.8914 0.8905
2097.662723 0.8897 0.8892 0.8885 0.8875 0.8870
2102.403562 0.8870 0.8867 0.8862 0.8860 0.8860
2107.144400 0.8860 0.8860 0.8860 0.8860 0.8860
2111.885239 0.8860 0.8860 0.8860 0.8860 0.8860
2116.626077 0.8855 0.8846 0.8840 0.8840 0.8838
2121.366916 0.8833 0.8826 0.8816 0.8808 0.8803
2126.107755 0.8796 0.8786 0.8778 0.8773 0.8770
2130.848593 0.8770 0.8770 0.8770 0.8770 0.8770
2135.589432 0.8770 0.8770 0.8772 0.8777 0.8783
2140.330270 0.8793 0.8800 0.8800 0.8800 0.8800
2145.071109 0.8800 0.8800 0.8800 0.8800 0.8800
2149.811947 0.8800 0.8800 0.8800 0.8800 0.8800
2154.552786 0.8800 0.8800 0.8800 0.8800 0.8800
2159.293624 0.8800 0.8800 0.8800 0.8798 0.8788
2164.034463 0.8779 0.8774 0.8768 0.8758 0.8749
2168.775302 0.8744 0.8738 0.8728 0.8720 0.8720
2173.516140 0.8720 0.8720 0.8719 0.8714 0.8710
2178.256979 0.8710 0.8710 0.8710 0.8708 0.8693
2182.997817 0.8680 0.8680 0.8680 0.8680 0.8679
2187.738656 0.8674 0.8670 0.8670 0.8670 0.8670
2192.479494 0.8670 0.8670 0.8670 0.8670 0.8670
2197.220333 0.8670 0.8669 0.8659 0.8650 0.8650
2201.961172 0.8650 0.8650 0.8650 0.8650 0.8650
2206.702010 0.8650 0.8650 0.8660 0.8670 0.8670
2211.442849 0.8670 0.8670 0.8670 0.8670 0.8670
2216.183687 0.8660 0.8650 0.8645 0.8640 0.8640
2220.924526 0.8640 0.8630 0.8621 0.8615 0.8610
2225.665364 0.8601 0.8591 0.8585 0.8580 0.8580
2230.406203 0.8580 0.8566 0.8551 0.8550 0.8550
2235.147042 0.8541 0.8531 0.8526 0.8521 0.8520
2239.887880 0.8520 0.8520 0.8520 0.8511 0.8502
2244.628719 0.8496 0.8491 0.8482 0.8472 0.8470
2249.369557 0.8470 0.8466 0.8461 0.8460 0.8460
2254.110396 0.8460 0.8460 0.8452 0.8442 0.8436
2258.851234 0.8431 0.8430 0.8430 0.8422 0.8412
2263.592073 0.8410 0.8410 0.8410 0.8410 0.8410
2268.332912 0.8410 0.8410 0.8410 0.8410 0.8410
2273.073750 0.8410 0.8410 0.8410 0.8410 0.8407
2277.814589 0.8402 0.8400 0.8400 0.8403 0.8408
2282.555427 0.8410 0.8410 0.8407 0.8402 0.8387
2287.296266 0.8367 0.8340 0.8311 0.8294 0.8284
2292.037104 0.8277 0.8272 0.8264 0.8254 0.8247
2296.777943 0.8242 0.8225 0.8200 0.8187 0.8182
2301.518782 0.8171 0.8156 0.8150 0.8150 0.8144
2306.259620 0.8134 0.8136 0.8146 0.8153 0.8158
2311.000459 0.8165 0.8175 0.8188 0.8203 0.8213
2315.741297 0.8218 0.8228 0.8243 0.8250 0.8250
2320.482136 0.8250 0.8250 0.8250 0.8250 0.8250
2325.222974 0.8250 0.8250 0.8250 0.8250 0.8250
2329.963813 0.8255 0.8264 0.8270 0.8270 0.8270
2334.704652 0.8270 0.8270 0.8270 0.8270 0.8270
2339.445490 0.8270 0.8270 0.8272 0.8277 0.8280
2344.186329 0.8280 0.8284 0.8294 0.8302 0.8307
2348.927167 0.8310 0.8310 0.8314 0.8324 0.8330
2353.668006 0.8330 0.8330 0.8330 0.8327 0.8317
2358.408844 0.8310 0.8310 0.8310 0.8310 0.8310
2363.149683 0.8310 0.8310 0.8310 0.8313 0.8323
2367.890521 0.8330 0.8330 0.8330 0.8330 0.8330
2372.631360 0.8330 0.8330 0.8330 0.8330 0.8330
2377.372199 0.8330 0.8330 0.8330 0.8330 0.8330
2382.113037 0.8330 0.8330 0.8330 0.8330 0.8330
2386.853876 0.8331 0.8336 0.8340 0.8340 0.8340
2391.594714 0.8340 0.8340 0.8340 0.8340 0.8340
2396.335553 0.8341 0.8351 0.8360 0.8360 0.8360
2401.076391 0.8360 0.8360 0.8360 0.8360 0.8360
2405.817230 0.8361 0.8365 0.8370 0.8370 0.8370
2410.558069 0.8375 0.8380 0.8380 0.8381 0.8391
2415.298907 0.8400 0.8390 0.8380 0.8380 0.8380
2420.039746 0.8380 0.8380 0.8380 0.8380 0.8380
2424.780584 0.8380 0.8380 0.8380 0.8375 0.8370
2429.521423 0.8375 0.8380 0.8380 0.8380 0.8380
2434.262261 0.8380 0.8380 0.8380 0.8380 0.8380
2439.003100 0.8380 0.8380 0.8375 0.8370 0.8370
2443.743939 0.8370 0.8370 0.8370 0.8370 0.8370
2448.484777 0.8370 0.8370 0.8374 0.8379 0.8380
2453.225616 0.8380 0.8380 0.8380 0.8380 0.8380
2457.966454 0.8380 0.8380 0.8380 0.8380 0.8380
2462.707293 0.8380 0.8380 0.8380 0.8380 0.8380
2467.448131 0.8380 0.8380 0.8380 0.8380 0.8380
2472.188970 0.8380 0.8380 0.8380 0.8380 0.8380
2476.929809 0.8372 0.8362 0.8360 0.8360 0.8360
2481.670647 0.8360 0.8360 0.8360 0.8360 0.8360
2486.411486 0.8353 0.8343 0.8340 0.8340 0.8347
2491.152324 0.8357 0.8360 0.8360 0.8360 0.8360
2495.893163 0.8353 0.8343 0.8340 0.8340 0.8340
2500.634001 0.8340 0.8340 0.8340 0.8340 0.8340
2505.374840 0.8340 0.8340 0.8340 0.8340 0.8340
2510.115679 0.8340 0.8340 0.8340 0.8340 0.8340
2514.856517 0.8340 0.8340 0.8346 0.8356 0.8354
2519.597356 0.8344 0.8340 0.8340 0.8340 0.8340
2524.338194 0.8340 0.8340 0.8340 0.8340 0.8340
2529.079033 0.8340 0.8340 0.8340 0.8340 0.8340
2533.819871 0.8340 0.8340 0.8340 0.8340 0.8340
2538.560710 0.8340 0.8340 0.8340 0.8340 0.8340
2543.301549 0.8340 0.8340 0.8340 0.8340 0.8340
2548.042387 0.8340 0.8340 0.8340 0.8338 0.8333
2552.783226 0.8330 0.8330 0.8326 0.8316 0.8310
2557.524064 0.8310 0.8310 0.8310 0.8310 0.8310
2562.264903 0.8310 0.8310 0.8310 0.8310 0.8310
2567.005741 0.8310 0.8310 0.8310 0.8310 0.8310
2571.746580 0.8310 0.8310 0.8310 0.8310 0.8310
2576.487418 0.8310 0.8310 0.8310 0.8309 0.8304
2581.228257 0.8300 0.8300 0.8300 0.8300 0.8300
2585.969096 0.8300 0.8300 0.8300 0.8300 0.8300
2590.709934 0.8300 0.8300 0.8298 0.8288 0.8280
2595.450773 0.8280 0.8280 0.8280 0.8280 0.8280
2600.191611 0.8280 0.8280 0.8280 0.8280 0.8280
2604.932450 0.8280 0.8279 0.8274 0.8270 0.8270
2609.673288 0.8271 0.8276 0.8280 0.8280 0.8280
2614.414127 0.8280 0.8280 0.8280 0.8280 0.8280
2619.154966 0.8280 0.8280 0.8280 0.8280 0.8280
2623.895804 0.8280 0.8280 0.8280 0.8280 0.8275
2628.636643 0.8270 0.8270 0.8270 0.8270 0.8270
2633.377481 0.8270 0.8270 0.8260 0.8250 0.8250
2638.118320 0.8250 0.8250 0.8250 0.8250 0.8250
2642.859158 0.8250 0.8250 0.8250 0.8250 0.8250
2647.599997 0.8250 0.8245 0.8240 0.8240 0.8240
2652.340836 0.8240 0.8240 0.8240 0.8240 0.8231
2657.081674 0.8221 0.8220 0.8220 0.8220 0.8220
2661.822513 0.8216 0.8211 0.8201 0.8191 0.8190
2666.563351 0.8190 0.8190 0.8190 0.8190 0.8190
2671.304190 0.8186 0.8181 0.8171 0.8162 0.8160
2676.045028 0.8160 0.8160 0.8160 0.8156 0.8151
2680.785867 0.8150 0.8150 0.8150 0.8150 0.8150
2685.526706 0.8150 0.8150 0.8150 0.8142 0.8132
2690.267544 0.8130 0.8130 0.8130 0.8130 0.8130
2695.008383 0.8130 0.8126 0.8121 0.8120 0.8120
2699.749221 0.8124 0.8129 0.8130 0.8130 0.8126
2704.490060 0.8121 0.8120 0.8120 0.8113 0.8103
2709.230898 0.8097 0.8092 0.8090 0.8090 0.8090
2713.971737 0.8090 0.8090 0.8090 0.8084 0.8074
2718.712576 0.8070 0.8070 0.8070 0.8070 0.8070
2723.453414 0.8070 0.8070 0.8070 0.8067 0.8062
2728.194253 0.8060 0.8060 0.8060 0.8060 0.8060
2732.935091 0.8060 0.8060 0.8060 0.8057 0.8052
2737.675930 0.8050 0.8050 0.8050 0.8050 0.8045
2742.416768 0.8035 0.8030 0.8030 0.8030 0.8030
2747.157607 0.8027 0.8022 0.8020 0.8020 0.8015
2751.898446 0.8005 0.8000 0.8000 0.8000 0.8000
2756.639284 0.7998 0.7993 0.7990 0.7990 0.7990
2761.380123 0.7990 0.7990 0.7990 0.7990 0.7990
2766.120961 0.7990 0.7990 0.7986 0.7976 0.7970
2770.861800 0.7970 0.7970 0.7970 0.7970 0.7970
2775.602638 0.7970 0.7970 0.7968 0.7963 0.7960
2780.343477 0.7960 0.7960 0.7960 0.7960 0.7960
2785.084315 0.7960 0.7960 0.7960 0.7960 0.7957
2789.825154 0.7947 0.7940 0.7940 0.7940 0.7940
2794.565993 0.7940 0.7940 0.7943 0.7953 0.7960
2799.306831 0.7960 0.7960 0.7960 0.7961 0.7966
2804.047670 0.7970 0.7970 0.7969 0.7964 0.7960
2808.788508 0.7960 0.7958 0.7948 0.7939 0.7934
2813.529347 0.7928 0.7918 0.7909 0.7904 0.7897
2818.270185 0.7882 0.7868 0.7858 0.7847 0.7833
2823.011024 0.7818 0.7803 0.7789 0.7784 0.7779
2827.751863 0.7769 0.7759 0.7749 0.7738 0.7723
2832.492701 0.7708 0.7694 0.7680 0.7680 0.7680
2837.233540 0.7680 0.7679 0.7669 0.7660 0.7660
2841.974378 0.7660 0.7660 0.7660 0.7660 0.7660
2846.715217 0.7660 0.7660 0.7660 0.7660 0.7670
2851.456055 0.7680 0.7680 0.7680 0.7685 0.7690
2856.196894 0.7690 0.7690 0.7690 0.7690 0.7690
2860.937733 0.7690 0.7690 0.7690 0.7700 0.7710
2865.678571 0.7710 0.7710 0.7710 0.7710 0.7701
2870.419410 0.7691 0.7685 0.7680 0.7680 0.7680
2875.160248 0.7671 0.7661 0.7655 0.7650 0.7641
2879.901087 0.7631 0.7617 0.7602 0.7600 0.7600
2884.641925 0.7596 0.7591 0.7590 0.7590 0.7582
2889.382764 0.7572 0.7545 0.7515 0.7506 0.7501
2894.123603 0.7492 0.7482 0.7480 0.7480 0.7464
2898.864441 0.7444 0.7432 0.7422 0.7412 0.7402
2903.605280 0.7400 0.7400 0.7400 0.7400 0.7400
2908.346118 0.7400 0.7393 0.7383 0.7380 0.7380
2913.086957 0.7380 0.7380 0.7380 0.7380 0.7387
2917.827795 0.7397 0.7400 0.7400 0.7400 0.7400
2922.568634 0.7403 0.7408 0.7410 0.7410 0.7410
2927.309473 0.7410 0.7410 0.7410 0.7413 0.7418
2932.050311 0.7420 0.7420 0.7417 0.7412 0.7410
2936.791150 0.7410 0.7410 0.7410 0.7410 0.7410
2941.531988 0.7413 0.7418 0.7420 0.7420 0.7429
2946.272827 0.7444 0.7450 0.7450 0.7458 0.7473
2951.013665 0.7488 0.7503 0.7516 0.7525 0.7533
2955.754504 0.7538 0.7540 0.7540 0.7545 0.7555
2960.495342 0.7563 0.7568 0.7570 0.7570 0.7575
2965.236181 0.7585 0.7590 0.7590 0.7590 0.7590
2969.977020 0.7590 0.7590 0.7592 0.7597 0.7600
2974.717858 0.7600 0.7600 0.7600 0.7600 0.7600
2979.458697 0.7598 0.7593 0.7590 0.7590 0.7584
2984.199535 0.7569 0.7560 0.7560 0.7560 0.7560
2988.940374 0.7556 0.7546 0.7540 0.7540 0.7540
2993.681212 0.7540 0.7540 0.7540 0.7538 0.7533
2998.422051 0.7530 0.7530 0.7527 0.7517 0.7510
3003.162890 0.7510 0.7510 0.7510 0.7509 0.7504
3007.903728 0.7500 0.7500 0.7500 0.7500 0.7497
3012.644567 0.7487 0.7480 0.7480 0.7480 0.7480
3017.385405 0.7479 0.7474 0.7470 0.7470 0.7470
3022.126244 0.7470 0.7468 0.7458 0.7450 0.7450
3026.867082 0.7449 0.7444 0.7440 0.7440 0.7438
3031.607921 0.7428 0.7420 0.7420 0.7420 0.7420
3036.348760 0.7420 0.7420 0.7419 0.7414 0.7410
3041.089598 0.7410 0.7410 0.7410 0.7410 0.7410
3045.830437 0.7410 0.7410 0.7410 0.7410 0.7409
3050.571275 0.7405 0.7400 0.7400 0.7399 0.7389
3055.312114 0.7380 0.7380 0.7380 0.7375 0.7370
3060.052952 0.7360 0.7350 0.7350 0.7350 0.7345
3064.793791 0.7340 0.7340 0.7340 0.7340 0.7340
3069.534630 0.7330 0.7320 0.7315 0.7310 0.7310
3074.275468 0.7310 0.7310 0.7310 0.7310 0.7310
3079.016307 0.7310 0.7310 0.7301 0.7291 0.7290
3083.757145 0.7290 0.7290 0.7290 0.7290 0.7290
3088.497984 0.7285 0.7280 0.7280 0.7280 0.7280
3093.238822 0.7280 0.7271 0.7261 0.7260 0.7260
3097.979661 0.7260 0.7260 0.7260 0.7260 0.7260
3102.720500 0.7260 0.7256 0.7251 0.7250 0.7250
3107.461338 0.7250 0.7250 0.7242 0.7232 0.7230
3112.202177 0.7230 0.7230 0.7230 0.7230 0.7230
3116.943015 0.7230 0.7230 0.7226 0.7221 0.7220
3121.683854 0.7220 0.7220 0.7220 0.7220 0.7220
3126.424692 0.7220 0.7220 0.7213 0.7203 0.7196
3131.165531 0.7191 0.7190 0.7190 0.7183 0.7173
3135.906370 0.7170 0.7170 0.7167 0.7162 0.7160
3140.647208 0.7160 0.7153 0.7143 0.7140 0.7140
3145.388047 0.7137 0.7132 0.7130 0.7130 0.7124
3150.128885 0.7114 0.7110 0.7110 0.7107 0.7102
3154.869724 0.7097 0.7092 0.7090 0.7090 0.7090
3159.610562 0.7090 0.7090 0.7090 0.7090 0.7090
3164.351401 0.7090 0.7090 0.7084 0.7075 0.7070
3169.092239 0.7070 0.7067 0.7062 0.7060 0.7060
3173.833078 0.7052 0.7037 0.7030 0.7030 0.7025
3178.573917 0.7015 0.7010 0.7010 0.7010 0.7010
3183.314755 0.7010 0.7010 0.7010 0.7010 0.7008
3188.055594 0.7003 0.7000 0.7000 0.7002 0.7007
3192.796432 0.7010 0.7010 0.7008 0.7003 0.6996
3197.537271 0.6986 0.6974 0.6959 0.6944 0.6929
3202.278109 0.6920 0.6920 0.6918 0.6913 0.6906
3207.018948 0.6896 0.6888 0.6883 0.6877 0.6867
3211.759787 0.6860 0.6860 0.6858 0.6853 0.6845
3216.500625 0.6830 0.6815 0.6800 0.6787 0.6777
3221.241464 0.6769 0.6764 0.6760 0.6760 0.6759
3225.982302 0.6754 0.6746 0.6731 0.6716 0.6701
3230.723141 0.6686 0.6671 0.6658 0.6648 0.6639
3235.463979 0.6634 0.6628 0.6618 0.6609 0.6604
3240.204818 0.6600 0.6600 0.6600 0.6600 0.6598
3244.945657 0.6588 0.6579 0.6574 0.6570 0.6570
3249.686495 0.6570 0.6570 0.6569 0.6559 0.6550
3254.427334 0.6550 0.6550 0.6550 0.6550 0.6550
3259.168172 0.6551 0.6561 0.6570 0.6570 0.6570
3263.909011 0.6570 0.6570 0.6570 0.6570 0.6570
3268.649849 0.6570 0.6575 0.6581 0.6591 0.6600
3273.390688 0.6600 0.6600 0.6600 0.6600 0.6605
3278.131527 0.6610 0.6610 0.6610 0.6610 0.6610
3282.872365 0.6610 0.6610 0.6620 0.6630 0.6630
3287.613204 0.6630 0.6630 0.6630 0.6635 0.6640
3292.354042 0.6654 0.6669 0.6684 0.6699 0.6724
3297.094881 0.6749 0.6755 0.6760 0.6765 0.6770
3301.835719 0.6779 0.6789 0.6790 0.6790 0.6790
3306.576558 0.6790 0.6794 0.6799 0.6800 0.6800
3311.317397 0.6813 0.6828 0.6839 0.6849 0.6850
3316.058235 0.6850 0.6854 0.6859 0.6868 0.6878
3320.799074 0.6884 0.6889 0.6898 0.6908 0.6910
3325.539912 0.6910 0.6914 0.6919 0.6920 0.6920
3330.280751 0.6920 0.6920 0.6920 0.6920 0.6916
3335.021589 0.6911 0.6910 0.6910 0.6914 0.6919
3339.762428 0.6920 0.6920 0.6920 0.6920 0.6920
3344.503267 0.6920 0.6920 0.6920 0.6920 0.6920
3349.244105 0.6927 0.6937 0.6940 0.6940 0.6933
3353.984944 0.6923 0.6920 0.6920 0.6920 0.6920
3358.725782 0.6920 0.6920 0.6920 0.6920 0.6926
3363.466621 0.6936 0.6940 0.6940 0.6940 0.6940
3368.207459 0.6940 0.6940 0.6940 0.6940 0.6940
3372.948298 0.6940 0.6940 0.6940 0.6940 0.6940
3377.689136 0.6940 0.6940 0.6940 0.6940 0.6940
3382.429975 0.6940 0.6940 0.6940 0.6940 0.6940
3387.170814 0.6940 0.6940 0.6940 0.6940 0.6935
3391.911652 0.6925 0.6920 0.6920 0.6920 0.6920
3396.652491 0.6920 0.6920 0.6918 0.6913 0.6910
3401.393329 0.6910 0.6912 0.6917 0.6920 0.6920
3406.134168 0.6920 0.6920 0.6918 0.6913 0.6910
3410.875006 0.6910 0.6910 0.6910 0.6910 0.6910
3415.615845 0.6910 0.6910 0.6910 0.6910 0.6910
3420.356684 0.6910 0.6910 0.6910 0.6910 0.6910
3425.097522 0.6910 0.6910 0.6910 0.6910 0.6910
3429.838361 0.6910 0.6910 0.6910 0.6910 0.6910
3434.579199 0.6910 0.6910 0.6911 0.6916 0.6920
3439.320038 0.6920 0.6920 0.6920 0.6920 0.6920
3444.060876 0.6920 0.6920 0.6920 0.6920 0.6920
3448.801715 0.6920 0.6919 0.6914 0.6910 0.6910
3453.542554 0.6910 0.6910 0.6910 0.6910 0.6910
3458.283392 0.6910 0.6910 0.6910 0.6910 0.6910
3463.024231 0.6910 0.6910 0.6911 0.6916 0.6920
3467.765069 0.6920 0.6919 0.6914 0.6910 0.6910
3472.505908 0.6910 0.6910 0.6910 0.6910 0.6910
3477.246746 0.6910 0.6910 0.6910 0.6910 0.6910
3481.987585 0.6910 0.6910 0.6910 0.6910 0.6910
3486.728424 0.6910 0.6910 0.6910 0.6910 0.6910
3491.469262 0.6910 0.6900 0.6890 0.6890 0.6890
3496.210101 0.6890 0.6890 0.6885 0.6880 0.6880
3500.950939 0.6880 0.6880 0.6880 0.6880 0.6880
3505.691778 0.6870 0.6860 0.6860 0.6860 0.6860
3510.432616 0.6860 0.6860 0.6860 0.6869 0.6879
3515.173455 0.6871 0.6861 0.6860 0.6860 0.6860
3519.914294 0.6860 0.6860 0.6860 0.6860 0.6860
3524.655132 0.6860 0.6860 0.6860 0.6860 0.6860
3529.395971 0.6860 0.6860 0.6860 0.6860 0.6860
3534.136809 0.6860 0.6860 0.6860 0.6860 0.6860
3538.877648 0.6860 0.6860 0.6860 0.6860 0.6860
3543.618486 0.6860 0.6860 0.6860 0.6860 0.6860
3548.359325 0.6860 0.6860 0.6860 0.6860 0.6860
3553.100164 0.6860 0.6860 0.6860 0.6860 0.6860
3557.841002 0.6860 0.6860 0.6860 0.6860 0.6860
3562.581841 0.6860 0.6860 0.6860 0.6860 0.6860
3567.322679 0.6860 0.6860 0.6860 0.6860 0.6860
3572.063518 0.6860 0.6860 0.6860 0.6860 0.6860
3576.804356 0.6860 0.6857 0.6852 0.6850 0.6850
3581.545195 0.6850 0.6850 0.6850 0.6850 0.6850
3586.286033 0.6850 0.6850 0.6850 0.6850 0.6850
3591.026872 0.6850 0.6850 0.6850 0.6850 0.6845
3595.767711 0.6835 0.6830 0.6830 0.6835 0.6845
3600.508549 0.6845 0.6835 0.6830 0.6830 0.6830
3605.249388 0.6830 0.6830 0.6830 0.6830 0.6830
3609.990226 0.6830 0.6830 0.6830 0.6830 0.6830
3614.731065 0.6830 0.6830 0.6830 0.6830 0.6830
3619.471903 0.6830 0.6830 0.6830 0.6830 0.6830
3624.212742 0.6830 0.6830 0.6830 0.6830 0.6830
3628.953581 0.6830 0.6830 0.6830 0.6830 0.6830
3633.694419 0.6830 0.6830 0.6830 0.6830 0.6830
3638.435258 0.6830 0.6830 0.6830 0.6830 0.6830
3643.176096 0.6830 0.6830 0.6830 0.6830 0.6830
3647.916935 0.6830 0.6830 0.6830 0.6830 0.6829
3652.657773 0.6824 0.6820 0.6820 0.6820 0.6820
3657.398612 0.6820 0.6820 0.6817 0.6807 0.6800
3662.139451 0.6800 0.6800 0.6800 0.6800 0.6800
3666.880289 0.6800 0.6800 0.6800 0.6800 0.6800
3671.621128 0.6800 0.6800 0.6800 0.6800 0.6800
3676.361966 0.6800 0.6800 0.6800 0.6800 0.6800
3681.102805 0.6800 0.6800 0.6800 0.6800 0.6800
3685.843643 0.6800 0.6800 0.6800 0.6800 0.6800
3690.584482 0.6800 0.6800 0.6800 0.6800 0.6795
3695.325321 0.6790 0.6790 0.6790 0.6790 0.6789
3700.066159 0.6779 0.6770 0.6770 0.6770 0.6770
3704.806998 0.6770 0.6770 0.6770 0.6770 0.6770
3709.547836 0.6770 0.6770 0.6765 0.6760 0.6760
3714.288675 0.6760 0.6760 0.6760 0.6760 0.6760
3719.029513 0.6760 0.6760 0.6760 0.6760 0.6765
3723.770352 0.6770 0.6765 0.6760 0.6760 0.6760
3728.511191 0.6755 0.6750 0.6750 0.6750 0.6750
3733.252029 0.6750 0.6750 0.6750 0.6741 0.6731
3737.992868 0.6730 0.6730 0.6739 0.6749 0.6750
3742.733706 0.6750 0.6741 0.6732 0.6730 0.6730
3747.474545 0.6730 0.6730 0.6730 0.6730 0.6730
3752.215383 0.6730 0.6730 0.6730 0.6730 0.6730
3756.956222 0.6730 0.6730 0.6730 0.6730 0.6730
3761.697061 0.6730 0.6730 0.6730 0.6726 0.6721
3766.437899 0.6720 0.6720 0.6720 0.6720 0.6720
3771.178738 0.6720 0.6720 0.6720 0.6720 0.6720
3775.919576 0.6720 0.6720 0.6720 0.6720 0.6720
3780.660415 0.6720 0.6713 0.6703 0.6707 0.6717
3785.401253 0.6720 0.6720 0.6720 0.6720 0.6720
3790.142092 0.6720 0.6720 0.6720 0.6720 0.6720
##END=
