##TITLE=MAGNESIUM CARBONATE, BASIC
##JCAMP-DX=4.24
##DATA TYPE=INFRARED SPECTRUM
##CLASS=COBLENTZ
##ORIGIN=MELLON INSTITUTE
##OWNER=COBLENTZ SOCIETY
Collection (C) 2018 copyright by the U.S. Secretary of Commerce
on behalf of the United States of America. All rights reserved.
##DATE=Not specified, most likely prior to 1970
##MOLFORM=3 Mg C O3  * Mg ( O H)2  * 3 H2 O
##SOURCE REFERENCE=COBLENTZ NO. 509
##$NIST ID=B6000509
##$NIST SOURCE=COBLENTZ
##$NIST IMAGE=cob509
##SPECTROMETER/DATA SYSTEM=Not specified, most likely a prism, grating, or hybrid spectrometer.
##STATE=SOLID (NUJOL AND FLUOROLUBE MULLS)
$$PURITY UNKNOWN
##SAMPLING PROCEDURE=TRANSMISSION
##RESOLUTION=4
##DATA PROCESSING=DIGITIZED BY NIST FROM HARD COPY
##XUNITS=MICROMETERS
##YUNITS=TRANSMITTANCE
##XFACTOR=1.000000
##YFACTOR=1
##DELTAX=000.006824
##FIRSTX=2.031
##LASTX=15.9861
##FIRSTY=0.909
##MAXX=15.9861
##MINX=2.031
##MAXY=0.953
##MINY=0.073
##NPOINTS=2046
##XYDATA=(X++(Y..Y))
2.031000 0.9090 0.9090 0.9070 0.9050 0.9020
2.065136 0.9020 0.9020 0.9020 0.9020 0.9000
2.099000 0.9000 0.9000 0.9000 0.9000 0.9020
2.133136 0.9020 0.9020 0.9020 0.9020 0.9020
2.167000 0.9020 0.9020 0.9020 0.9020 0.9020
2.201136 0.9000 0.9000 0.9000 0.9000 0.9000
2.236000 0.9000 0.9000 0.8980 0.8980 0.8980
2.270136 0.8980 0.8980 0.8980 0.8980 0.8980
2.304000 0.8980 0.8980 0.8980 0.8980 0.8980
2.338136 0.8980 0.8980 0.8980 0.8980 0.8980
2.372000 0.8970 0.8980 0.8980 0.8980 0.9000
2.406136 0.8980 0.8980 0.8980 0.8980 0.9000
2.440000 0.9000 0.9000 0.8970 0.8970 0.8970
2.474136 0.8970 0.8970 0.8980 0.8980 0.8980
2.509000 0.9000 0.9020 0.9020 0.9020 0.9020
2.543136 0.9020 0.9020 0.9050 0.9050 0.9070
2.577000 0.9070 0.9070 0.9090 0.9090 0.9090
2.611136 0.9090 0.9070 0.9070 0.9070 0.9070
2.645000 0.9070 0.9070 0.9090 0.9100 0.9100
2.679136 0.9090 0.9070 0.9070 0.9020 0.9020
2.713000 0.9000 0.8980 0.8970 0.8970 0.8970
2.747136 0.8970 0.8970 0.8950 0.8900 0.8860
2.782000 0.8760 0.8710 0.8550 0.8470 0.8280
2.816136 0.8140 0.7990 0.7870 0.7770 0.7610
2.850000 0.7490 0.7270 0.7060 0.6820 0.6800
2.884136 0.6790 0.6770 0.6770 0.6770 0.6770
2.918000 0.6770 0.6770 0.6790 0.6840 0.6940
2.952136 0.6990 0.7030 0.7150 0.7220 0.7220
2.986000 0.7270 0.7320 0.7370 0.7400 0.7460
3.020136 0.7490 0.7490 0.7510 0.7530 0.7530
3.055000 0.7540 0.7540 0.7530 0.7530 0.7530
3.089136 0.7540 0.7540 0.7540 0.7560 0.7580
3.123000 0.7580 0.7590 0.7590 0.7610 0.7650
3.157136 0.7660 0.7700 0.7730 0.7750 0.7780
3.191000 0.7800 0.7820 0.7830 0.7830 0.7830
3.225136 0.7830 0.7830 0.7830 0.7850 0.7870
3.259000 0.7890 0.7920 0.7950 0.7990 0.8010
3.293136 0.8020 0.8020 0.8020 0.8020 0.8090
3.328000 0.8110 0.8130 0.8140 0.8140 0.8160
3.362136 0.8190 0.8210 0.8250 0.8260 0.8280
3.396000 0.8310 0.8370 0.8420 0.8420 0.8450
3.430136 0.8490 0.8500 0.8520 0.8540 0.8540
3.464000 0.8540 0.8610 0.8640 0.8670 0.8730
3.498136 0.8740 0.8780 0.8830 0.8850 0.8860
3.532000 0.8880 0.8900 0.8930 0.8950 0.8980
3.566136 0.8980 0.8980 0.8980 0.9000 0.9000
3.600000 0.9000 0.9000 0.9000 0.9000 0.9000
3.634136 0.9020 0.9020 0.9030 0.9030 0.9050
3.669000 0.9050 0.9050 0.9070 0.9070 0.9050
3.703136 0.9050 0.9050 0.9050 0.9090 0.9090
3.737000 0.9120 0.9120 0.9120 0.9120 0.9120
3.771136 0.9120 0.9120 0.9120 0.9140 0.9140
3.805000 0.9140 0.9140 0.9140 0.9140 0.9140
3.839136 0.9140 0.9140 0.9140 0.9120 0.9120
3.873000 0.9120 0.9120 0.9120 0.9120 0.9120
3.907136 0.9140 0.9140 0.9150 0.9170 0.9170
3.942000 0.9170 0.9190 0.9190 0.9210 0.9210
3.976136 0.9210 0.9220 0.9220 0.9240 0.9260
4.010000 0.9260 0.9260 0.9260 0.9260 0.9260
4.044136 0.9260 0.9260 0.9260 0.9260 0.9240
4.078000 0.9220 0.9220 0.9210 0.9210 0.9210
4.112136 0.9210 0.9210 0.9210 0.9210 0.9210
4.146000 0.9210 0.9210 0.9190 0.9190 0.9170
4.180136 0.9150 0.9140 0.9140 0.9120 0.9120
4.215000 0.9100 0.9090 0.9090 0.9090 0.9090
4.249136 0.9090 0.9090 0.9090 0.9090 0.9090
4.283000 0.9090 0.9090 0.9090 0.9090 0.9090
4.317136 0.9090 0.9090 0.9090 0.9090 0.9090
4.351000 0.9100 0.9090 0.9090 0.9090 0.9090
4.385136 0.9090 0.9090 0.9090 0.9090 0.9090
4.419000 0.9090 0.9090 0.9090 0.9090 0.9090
4.453136 0.9090 0.9090 0.9090 0.9090 0.9090
4.488000 0.9090 0.9090 0.9100 0.9090 0.9090
4.522136 0.9090 0.9090 0.9090 0.9090 0.9090
4.556000 0.9090 0.9090 0.9090 0.9090 0.9090
4.590136 0.9090 0.9090 0.9090 0.9100 0.9100
4.624000 0.9100 0.9100 0.9120 0.9140 0.9140
4.658136 0.9150 0.9150 0.9170 0.9170 0.9170
4.692000 0.9150 0.9150 0.9140 0.9140 0.9140
4.726136 0.9140 0.9150 0.9170 0.9190 0.9210
4.761000 0.9210 0.9220 0.9220 0.9240 0.9240
4.795136 0.9240 0.9240 0.9240 0.9240 0.9240
4.829000 0.9240 0.9240 0.9240 0.9240 0.9240
4.863136 0.9240 0.9240 0.9240 0.9240 0.9240
4.897000 0.9240 0.9240 0.9240 0.9240 0.9260
4.931136 0.9260 0.9260 0.9260 0.9260 0.9260
4.965000 0.9260 0.9260 0.9260 0.9260 0.9260
4.999136 0.9260 0.9240 0.9240 0.9240 0.9240
5.033000 0.9240 0.9240 0.9240 0.9240 0.9270
5.067136 0.9290 0.9290 0.9290 0.9310 0.9310
5.102000 0.9330 0.9330 0.9330 0.9330 0.9330
5.136136 0.9310 0.9290 0.9260 0.9260 0.9240
5.170000 0.9260 0.9260 0.9270 0.9290 0.9310
5.204136 0.9310 0.9310 0.9310 0.9310 0.9310
5.238000 0.9330 0.9330 0.9290 0.9290 0.9290
5.272136 0.9290 0.9290 0.9290 0.9310 0.9310
5.306000 0.9310 0.9310 0.9310 0.9310 0.9310
5.340136 0.9310 0.9310 0.9290 0.9290 0.9310
5.375000 0.9290 0.9290 0.9290 0.9310 0.9310
5.409136 0.9310 0.9310 0.9310 0.9290 0.9290
5.443000 0.9290 0.9290 0.9270 0.9260 0.9240
5.477136 0.9240 0.9240 0.9240 0.9260 0.9270
5.511000 0.9290 0.9290 0.9290 0.9310 0.9310
5.545136 0.9290 0.9290 0.9290 0.9290 0.9290
5.579000 0.9310 0.9310 0.9330 0.9330 0.9330
5.613136 0.9330 0.9330 0.9360 0.9360 0.9380
5.648000 0.9390 0.9390 0.9410 0.9430 0.9430
5.682136 0.9450 0.9480 0.9500 0.9500 0.9500
5.716000 0.9500 0.9500 0.9500 0.9500 0.9500
5.750136 0.9510 0.9510 0.9530 0.9530 0.9530
5.784000 0.9530 0.9530 0.9510 0.9500 0.9500
5.818136 0.9480 0.9450 0.9410 0.9390 0.9330
5.852000 0.9290 0.9260 0.9220 0.9220 0.9210
5.886136 0.9210 0.9170 0.9140 0.9100 0.9050
5.921000 0.9020 0.9000 0.9000 0.8980 0.8930
5.955136 0.8910 0.8900 0.8880 0.8850 0.8850
5.989000 0.8810 0.8780 0.8740 0.8710 0.8690
6.023136 0.8640 0.8640 0.8610 0.8610 0.8610
6.057000 0.8590 0.8590 0.8540 0.8520 0.8520
6.091136 0.8500 0.8490 0.8490 0.8470 0.8430
6.125000 0.8420 0.8400 0.8380 0.8380 0.8380
6.159136 0.8380 0.8350 0.8300 0.8280 0.8210
6.194000 0.8160 0.8140 0.8090 0.8010 0.7970
6.228136 0.7870 0.7820 0.7820 0.7770 0.7700
6.262000 0.7630 0.7580 0.7510 0.7460 0.7350
6.296136 0.7280 0.7220 0.7150 0.7060 0.6870
6.330000 0.6800 0.6740 0.6670 0.6580 0.6390
6.364136 0.6320 0.6260 0.6190 0.6150 0.5980
6.398000 0.5780 0.5640 0.5350 0.5240 0.5000
6.432136 0.4830 0.4710 0.4610 0.4520 0.4470
6.467000 0.4390 0.4270 0.4180 0.4080 0.4010
6.501136 0.3970 0.3870 0.3800 0.3730 0.3670
6.535000 0.3480 0.3390 0.3310 0.3220 0.3120
6.569136 0.3050 0.2980 0.2910 0.2830 0.2740
6.603000 0.2670 0.2480 0.2280 0.2050 0.2000
6.637136 0.1900 0.1740 0.1680 0.1570 0.1470
6.671000 0.1180 0.0870 0.0820 0.0730 0.0730
6.705136 0.0800 0.0840 0.0870 0.0920 0.1160
6.739000 0.1450 0.1780 0.1880 0.2620 0.2910
6.773136 0.3000 0.3670 0.4040 0.4180 0.4330
6.808000 0.4510 0.4660 0.4710 0.4800 0.4830
6.842136 0.4870 0.4970 0.4990 0.4990 0.4990
6.876000 0.4970 0.4920 0.4850 0.4660 0.4490
6.910136 0.4320 0.3890 0.3480 0.3290 0.3100
6.944000 0.2410 0.2160 0.2020 0.1640 0.1250
6.978136 0.1040 0.1040 0.1090 0.1110 0.1140
7.012000 0.1450 0.1500 0.2020 0.2480 0.2760
7.046136 0.3170 0.3990 0.4180 0.4590 0.4780
7.081000 0.4990 0.5070 0.5260 0.5520 0.5710
7.115136 0.5760 0.5980 0.6200 0.6320 0.6560
7.149000 0.6960 0.7010 0.7180 0.7250 0.7320
7.183136 0.7390 0.7490 0.7650 0.7700 0.7780
7.217000 0.7870 0.7920 0.7950 0.7990 0.8020
7.251136 0.8060 0.8110 0.8140 0.8180 0.8210
7.285000 0.8250 0.8300 0.8330 0.8370 0.8420
7.319136 0.8430 0.8450 0.8470 0.8490 0.8500
7.354000 0.8500 0.8520 0.8540 0.8540 0.8570
7.388136 0.8590 0.8610 0.8620 0.8640 0.8640
7.422000 0.8660 0.8670 0.8690 0.8690 0.8690
7.456136 0.8710 0.8730 0.8730 0.8760 0.8760
7.490000 0.8790 0.8790 0.8810 0.8830 0.8830
7.524136 0.8830 0.8850 0.8850 0.8860 0.8860
7.558000 0.8860 0.8860 0.8880 0.8880 0.8900
7.592136 0.8910 0.8910 0.8910 0.8910 0.8950
7.627000 0.8950 0.8950 0.8950 0.8950 0.8950
7.661136 0.8970 0.8970 0.8970 0.8980 0.8980
7.695000 0.8980 0.9000 0.9000 0.9000 0.9020
7.729136 0.9020 0.9020 0.9020 0.9020 0.9020
7.763000 0.9020 0.9020 0.9020 0.9020 0.9020
7.797136 0.9020 0.9020 0.9020 0.9020 0.9020
7.831000 0.9020 0.9020 0.9030 0.9030 0.9030
7.865136 0.9030 0.9020 0.9020 0.9020 0.9020
7.900000 0.9020 0.9020 0.9020 0.9030 0.9030
7.934136 0.9050 0.9070 0.9070 0.9050 0.9070
7.968000 0.9070 0.9070 0.9070 0.9090 0.9070
8.002136 0.9090 0.9090 0.9090 0.9090 0.9090
8.036000 0.9090 0.9090 0.9090 0.9100 0.9090
8.070136 0.9090 0.9090 0.9090 0.9090 0.9100
8.104000 0.9100 0.9120 0.9120 0.9120 0.9120
8.138136 0.9120 0.9100 0.9100 0.9100 0.9100
8.172000 0.9090 0.9090 0.9100 0.9100 0.9100
8.206136 0.9100 0.9100 0.9100 0.9100 0.9100
8.241000 0.9120 0.9120 0.9140 0.9140 0.9140
8.275136 0.9150 0.9150 0.9170 0.9150 0.9150
8.309000 0.9140 0.9140 0.9140 0.9140 0.9140
8.343136 0.9140 0.9140 0.9140 0.9150 0.9170
8.377000 0.9170 0.9170 0.9170 0.9170 0.9170
8.411136 0.9170 0.9170 0.9170 0.9170 0.9170
8.445000 0.9150 0.9150 0.9150 0.9150 0.9140
8.479136 0.9150 0.9170 0.9190 0.9170 0.9170
8.514000 0.9170 0.9170 0.9170 0.9170 0.9170
8.548136 0.9170 0.9170 0.9210 0.9210 0.9210
8.582000 0.9210 0.9210 0.9210 0.9190 0.9190
8.616136 0.9190 0.9170 0.9170 0.9170 0.9170
8.650000 0.9150 0.9150 0.9150 0.9150 0.9150
8.684136 0.9150 0.9150 0.9170 0.9170 0.9170
8.718000 0.9170 0.9190 0.9190 0.9190 0.9190
8.752136 0.9190 0.9170 0.9170 0.9170 0.9170
8.787000 0.9170 0.9170 0.9170 0.9150 0.9150
8.821136 0.9150 0.9140 0.9140 0.9140 0.9120
8.855000 0.9100 0.9100 0.9100 0.9100 0.9090
8.889136 0.9050 0.9030 0.9030 0.9030 0.9030
8.923000 0.9030 0.9030 0.9030 0.9030 0.9030
8.957136 0.9030 0.9030 0.9030 0.9050 0.9070
8.991000 0.9090 0.9100 0.9100 0.9120 0.9120
9.025136 0.9120 0.9120 0.9120 0.9100 0.9100
9.060000 0.9090 0.9100 0.9100 0.9100 0.9100
9.094136 0.9120 0.9140 0.9140 0.9150 0.9170
9.128000 0.9190 0.9210 0.9220 0.9220 0.9220
9.162136 0.9220 0.9220 0.9220 0.9220 0.9220
9.196000 0.9220 0.9220 0.9220 0.9210 0.9210
9.230136 0.9210 0.9210 0.9210 0.9190 0.9170
9.264000 0.9150 0.9140 0.9140 0.9140 0.9150
9.298136 0.9150 0.9190 0.9190 0.9190 0.9210
9.333000 0.9220 0.9220 0.9220 0.9240 0.9240
9.367136 0.9240 0.9240 0.9240 0.9220 0.9240
9.401000 0.9240 0.9240 0.9240 0.9240 0.9260
9.435136 0.9260 0.9260 0.9260 0.9260 0.9260
9.469000 0.9240 0.9240 0.9240 0.9240 0.9240
9.503136 0.9240 0.9240 0.9240 0.9240 0.9240
9.537000 0.9240 0.9220 0.9220 0.9220 0.9220
9.571136 0.9220 0.9240 0.9240 0.9240 0.9260
9.605000 0.9240 0.9220 0.9220 0.9220 0.9220
9.639136 0.9220 0.9220 0.9220 0.9240 0.9240
9.674000 0.9260 0.9260 0.9260 0.9260 0.9270
9.708136 0.9270 0.9270 0.9270 0.9270 0.9270
9.742000 0.9290 0.9270 0.9260 0.9240 0.9240
9.776136 0.9240 0.9240 0.9260 0.9260 0.9260
9.810000 0.9260 0.9270 0.9290 0.9290 0.9270
9.844136 0.9240 0.9240 0.9260 0.9260 0.9260
9.878000 0.9240 0.9240 0.9240 0.9240 0.9240
9.912136 0.9240 0.9220 0.9220 0.9220 0.9220
9.947000 0.9220 0.9240 0.9220 0.9220 0.9220
9.981136 0.9220 0.9220 0.9260 0.9220 0.9210
10.015000 0.9210 0.9210 0.9220 0.9220 0.9220
10.049136 0.9220 0.9210 0.9210 0.9210 0.9220
10.083000 0.9220 0.9240 0.9240 0.9240 0.9220
10.117136 0.9220 0.9220 0.9240 0.9240 0.9220
10.151000 0.9220 0.9210 0.9210 0.9210 0.9210
10.185136 0.9210 0.9210 0.9210 0.9210 0.9210
10.220000 0.9210 0.9210 0.9220 0.9220 0.9220
10.254136 0.9210 0.9210 0.9210 0.9210 0.9210
10.288000 0.9190 0.9190 0.9210 0.9210 0.9210
10.322136 0.9210 0.9210 0.9220 0.9220 0.9220
10.356000 0.9210 0.9210 0.9190 0.9190 0.9210
10.390136 0.9210 0.9210 0.9210 0.9210 0.9210
10.424000 0.9210 0.9210 0.9210 0.9210 0.9220
10.458136 0.9220 0.9220 0.9210 0.9210 0.9190
10.493000 0.9190 0.9190 0.9210 0.9210 0.9220
10.527136 0.9220 0.9240 0.9240 0.9240 0.9240
10.561000 0.9220 0.9240 0.9240 0.9240 0.9260
10.595136 0.9260 0.9260 0.9260 0.9260 0.9240
10.629000 0.9220 0.9190 0.9190 0.9150 0.9150
10.663136 0.9140 0.9170 0.9170 0.9210 0.9210
10.697000 0.9210 0.9210 0.9210 0.9210 0.9210
10.731136 0.9210 0.9210 0.9210 0.9210 0.9190
10.766000 0.9190 0.9190 0.9190 0.9210 0.9210
10.800136 0.9220 0.9210 0.9210 0.9210 0.9220
10.834000 0.9240 0.9240 0.9240 0.9240 0.9240
10.868136 0.9240 0.9240 0.9240 0.9240 0.9260
10.902000 0.9260 0.9270 0.9270 0.9290 0.9270
10.936136 0.9270 0.9270 0.9270 0.9270 0.9270
10.970000 0.9270 0.9290 0.9310 0.9310 0.9290
11.004136 0.9290 0.9290 0.9270 0.9270 0.9270
11.038000 0.9270 0.9270 0.9270 0.9270 0.9270
11.072136 0.9270 0.9270 0.9270 0.9270 0.9270
11.107000 0.9270 0.9270 0.9270 0.9260 0.9260
11.141136 0.9260 0.9260 0.9270 0.9290 0.9290
11.175000 0.9290 0.9290 0.9290 0.9270 0.9260
11.209136 0.9240 0.9210 0.9140 0.9090 0.9020
11.243000 0.9000 0.8950 0.8950 0.8930 0.8950
11.277136 0.8950 0.8950 0.8970 0.8980 0.8980
11.311000 0.8980 0.9000 0.9020 0.9020 0.9030
11.345136 0.9050 0.9050 0.9070 0.9090 0.9120
11.380000 0.9120 0.9120 0.9140 0.9150 0.9150
11.414136 0.9150 0.9150 0.9170 0.9170 0.9150
11.448000 0.9150 0.9150 0.9150 0.9150 0.9150
11.482136 0.9150 0.9150 0.9150 0.9150 0.9150
11.516000 0.9150 0.9150 0.9150 0.9150 0.9150
11.550136 0.9150 0.9140 0.9140 0.9140 0.9140
11.584000 0.9100 0.9090 0.9070 0.9030 0.9030
11.618136 0.9030 0.9020 0.9000 0.9000 0.8980
11.653000 0.8950 0.8950 0.8930 0.8910 0.8900
11.687136 0.8900 0.8900 0.8900 0.8910 0.8930
11.721000 0.8950 0.8980 0.9000 0.9000 0.9000
11.755136 0.9000 0.9020 0.9020 0.9020 0.9020
11.789000 0.9020 0.9020 0.9020 0.9030 0.9030
11.823136 0.9090 0.9120 0.9140 0.9150 0.9170
11.857000 0.9170 0.9170 0.9170 0.9170 0.9190
11.891136 0.9190 0.9190 0.9190 0.9190 0.9190
11.926000 0.9190 0.9170 0.9170 0.9170 0.9140
11.960136 0.9140 0.9140 0.9150 0.9150 0.9170
11.994000 0.9170 0.9150 0.9150 0.9150 0.9150
12.028136 0.9150 0.9170 0.9170 0.9170 0.9170
12.062000 0.9170 0.9170 0.9170 0.9150 0.9170
12.096136 0.9170 0.9150 0.9150 0.9150 0.9150
12.130000 0.9140 0.9140 0.9140 0.9120 0.9120
12.164136 0.9070 0.9050 0.9050 0.9030 0.9030
12.199000 0.9030 0.9030 0.9030 0.9030 0.9030
12.233136 0.9030 0.9020 0.9020 0.9000 0.9000
12.267000 0.9000 0.8980 0.8980 0.8950 0.8930
12.301136 0.8900 0.8900 0.8880 0.8850 0.8830
12.335000 0.8790 0.8780 0.8760 0.8740 0.8730
12.369136 0.8710 0.8710 0.8690 0.8670 0.8670
12.403000 0.8660 0.8640 0.8640 0.8620 0.8620
12.437136 0.8620 0.8620 0.8620 0.8620 0.8620
12.471000 0.8620 0.8620 0.8620 0.8620 0.8620
12.505136 0.8640 0.8640 0.8640 0.8640 0.8640
12.540000 0.8640 0.8640 0.8660 0.8660 0.8670
12.574136 0.8670 0.8670 0.8690 0.8710 0.8730
12.608000 0.8730 0.8740 0.8780 0.8780 0.8790
12.642136 0.8810 0.8830 0.8830 0.8850 0.8850
12.676000 0.8860 0.8860 0.8880 0.8880 0.8880
12.710136 0.8900 0.8910 0.8930 0.8970 0.8980
12.744000 0.9000 0.9000 0.9020 0.9020 0.9020
12.778136 0.9030 0.9030 0.9030 0.9030 0.9030
12.813000 0.9030 0.9030 0.9030 0.9030 0.9030
12.847136 0.9030 0.9020 0.9020 0.9030 0.9030
12.881000 0.9050 0.9050 0.9050 0.9050 0.9030
12.915136 0.9030 0.9030 0.9030 0.9030 0.9030
12.949000 0.9030 0.9030 0.9030 0.9030 0.9030
12.983136 0.9030 0.9050 0.9050 0.9030 0.9030
13.017000 0.9030 0.9030 0.9030 0.9030 0.9030
13.051136 0.9030 0.9030 0.9030 0.9030 0.9030
13.086000 0.9030 0.9030 0.9020 0.9020 0.9020
13.120136 0.9020 0.9020 0.9020 0.9020 0.9020
13.154000 0.9000 0.9000 0.9000 0.9000 0.8980
13.188136 0.8980 0.8970 0.8970 0.8970 0.8950
13.222000 0.8930 0.8910 0.8910 0.8900 0.8900
13.256136 0.8880 0.8860 0.8850 0.8850 0.8830
13.290000 0.8830 0.8810 0.8810 0.8810 0.8810
13.324136 0.8810 0.8790 0.8780 0.8760 0.8760
13.359000 0.8740 0.8740 0.8730 0.8730 0.8710
13.393136 0.8690 0.8670 0.8660 0.8660 0.8660
13.427000 0.8660 0.8640 0.8640 0.8640 0.8640
13.461136 0.8620 0.8620 0.8620 0.8620 0.8610
13.495000 0.8590 0.8590 0.8590 0.8590 0.8610
13.529136 0.8610 0.8570 0.8570 0.8550 0.8550
13.563000 0.8540 0.8540 0.8520 0.8540 0.8520
13.597136 0.8500 0.8500 0.8490 0.8490 0.8490
13.632000 0.8470 0.8450 0.8450 0.8420 0.8400
13.666136 0.8380 0.8370 0.8370 0.8350 0.8350
13.700000 0.8330 0.8330 0.8310 0.8310 0.8310
13.734136 0.8310 0.8310 0.8300 0.8300 0.8280
13.768000 0.8260 0.8250 0.8230 0.8210 0.8190
13.802136 0.8180 0.8180 0.8180 0.8180 0.8180
13.836000 0.8160 0.8140 0.8130 0.8110 0.8090
13.870136 0.8090 0.8090 0.8070 0.8070 0.8070
13.904000 0.8070 0.8070 0.8070 0.8070 0.8070
13.938136 0.8070 0.8040 0.8020 0.8040 0.8040
13.973000 0.8010 0.8020 0.8020 0.8020 0.8020
14.007136 0.8020 0.8010 0.8010 0.8010 0.7990
14.041000 0.7990 0.7990 0.7970 0.7950 0.7950
14.075136 0.7940 0.7940 0.7940 0.7950 0.7950
14.109000 0.7940 0.7950 0.7950 0.7950 0.7940
14.143136 0.7940 0.7940 0.7920 0.7920 0.7900
14.177000 0.7900 0.7900 0.7890 0.7870 0.7850
14.211136 0.7850 0.7850 0.7830 0.7830 0.7820
14.246000 0.7820 0.7800 0.7800 0.7800 0.7780
14.280136 0.7780 0.7770 0.7770 0.7780 0.7780
14.314000 0.7770 0.7770 0.7770 0.7770 0.7750
14.348136 0.7750 0.7750 0.7750 0.7750 0.7750
14.382000 0.7750 0.7750 0.7750 0.7730 0.7730
14.416136 0.7730 0.7730 0.7730 0.7730 0.7710
14.450000 0.7700 0.7700 0.7700 0.7660 0.7650
14.484136 0.7650 0.7650 0.7630 0.7610 0.7590
14.519000 0.7590 0.7580 0.7560 0.7560 0.7560
14.553136 0.7540 0.7540 0.7530 0.7530 0.7530
14.587000 0.7510 0.7490 0.7470 0.7470 0.7470
14.621136 0.7470 0.7470 0.7470 0.7460 0.7470
14.655000 0.7470 0.7460 0.7460 0.7440 0.7440
14.689136 0.7420 0.7420 0.7420 0.7400 0.7400
14.723000 0.7400 0.7400 0.7400 0.7390 0.7390
14.757136 0.7390 0.7370 0.7350 0.7350 0.7350
14.792000 0.7350 0.7350 0.7370 0.7370 0.7370
14.826136 0.7350 0.7350 0.7350 0.7350 0.7350
14.860000 0.7340 0.7320 0.7320 0.7300 0.7270
14.894136 0.7250 0.7230 0.7200 0.7180 0.7160
14.928000 0.7150 0.7150 0.7130 0.7110 0.7100
14.962136 0.7080 0.7080 0.7080 0.7040 0.7060
14.996000 0.7060 0.7040 0.7040 0.7040 0.7040
15.030136 0.7030 0.7030 0.7010 0.7010 0.7010
15.065000 0.7010 0.7010 0.7010 0.7010 0.7010
15.099136 0.7010 0.6990 0.6990 0.6980 0.6980
15.133000 0.6940 0.6940 0.6920 0.6920 0.6910
15.167136 0.6910 0.6890 0.6870 0.6870 0.6890
15.201000 0.6910 0.6910 0.6910 0.6910 0.6910
15.235136 0.6910 0.6910 0.6890 0.6890 0.6870
15.269000 0.6870 0.6870 0.6870 0.6870 0.6860
15.303136 0.6860 0.6860 0.6860 0.6860 0.6840
15.337000 0.6840 0.6840 0.6840 0.6840 0.6820
15.371136 0.6820 0.6820 0.6820 0.6820 0.6800
15.406000 0.6800 0.6800 0.6800 0.6800 0.6800
15.440136 0.6800 0.6800 0.6800 0.6800 0.6800
15.474000 0.6800 0.6820 0.6820 0.6820 0.6820
15.508136 0.6820 0.6820 0.6820 0.6840 0.6860
15.542000 0.6860 0.6860 0.6860 0.6860 0.6870
15.576136 0.6870 0.6870 0.6860 0.6860 0.6860
15.610000 0.6860 0.6860 0.6860 0.6860 0.6870
15.644136 0.6870 0.6860 0.6860 0.6860 0.6860
15.679000 0.6860 0.6860 0.6870 0.6870 0.6870
15.713136 0.6870 0.6870 0.6870 0.6870 0.6890
15.747000 0.6890 0.6890 0.6890 0.6890 0.6910
15.781136 0.6910 0.6920 0.6920 0.6920 0.6940
15.815000 0.6960 0.6990 0.6990 0.6990 0.7010
15.849136 0.7010 0.7010 0.7030 0.7030 0.7030
15.883000 0.7030 0.7030 0.7030 0.7030 0.7040
15.917136 0.7040 0.7060 0.7040 0.7040 0.7060
15.952000 0.7060 0.7100 0.7100 0.7100 0.7100
15.986136 0.7100
##END=
