##TITLE=GLUTAMINE, N-ISOPROPYL-
##JCAMP-DX=4.24
##DATA TYPE=INFRARED SPECTRUM
##CLASS=COBLENTZ III
##ORIGIN=SOUTHERN RESEARCH INSTITUTE
##OWNER=COBLENTZ SOCIETY
Collection (C) 2018 copyright by the U.S. Secretary of Commerce
on behalf of the United States of America. All rights reserved.
##DATE=1958/03/14
##NAMES=N<5>-isopropylglutamine
##MOLFORM=C8 H16 N2 O3
##SOURCE REFERENCE=COBLENTZ NO. 7417
##$NIST ID=B6007417
##$NIST SOURCE=COBLENTZ
##$NIST IMAGE=cob7417
##SPECTROMETER/DATA SYSTEM=PERKIN-ELMER 21 (GRATING)
##INSTRUMENT PARAMETERS=FILTER CHANGE AT ABOUT 1090 CM^-^1
##STATE=SOLID (0.5 mg / 650 mg, KBr DISC)
$$SPECTRAL CONTAMINATION DUE TO H2O AROUND 3450 CM^-^1
##SAMPLING PROCEDURE=TRANSMISSION
##RESOLUTION=2
##DATA PROCESSING=DIGITIZED BY NIST FROM HARD COPY (FROM TWO SEGMENTS)
##XUNITS=1/CM
##YUNITS=TRANSMITTANCE
##XFACTOR=1.000000
##YFACTOR=1
##DELTAX=1.187447
##FIRSTX=660.714
##LASTX=3808.64
##FIRSTY=0.939
##MAXX=3808.64
##MINX=660.714
##MAXY=0.915
##MINY=0.048
##NPOINTS=2652
##XYDATA=(X++(Y..Y))
660.714000 0.9390 0.9330 0.9191 0.9101 0.9021
666.651235 0.8971 0.8911 0.8842 0.8733 0.8662
672.588470 0.8572 0.8337 0.8156 0.8044 0.7973
678.525705 0.7960 0.7922 0.7863 0.7775 0.7666
684.462940 0.7641 0.7631 0.7639 0.7743 0.7778
690.400175 0.7808 0.7856 0.7962 0.8044 0.8087
696.337410 0.8127 0.8148 0.8196 0.8237 0.8258
702.274645 0.8269 0.8270 0.8279 0.8280 0.8280
708.211880 0.8271 0.8261 0.8260 0.8242 0.8231
714.149115 0.8239 0.8266 0.8287 0.8307 0.8336
720.086350 0.8366 0.8405 0.8427 0.8465 0.8513
726.023585 0.8529 0.8539 0.8540 0.8540 0.8540
731.960820 0.8532 0.8530 0.8505 0.8483 0.8380
737.898055 0.8343 0.8340 0.8340 0.8340 0.8340
743.835290 0.8348 0.8350 0.8358 0.8368 0.8394
749.772525 0.8472 0.8514 0.8544 0.8582 0.8614
755.709760 0.8723 0.8758 0.8784 0.8790 0.8790
761.646995 0.8790 0.8790 0.8790 0.8790 0.8790
767.584230 0.8790 0.8790 0.8798 0.8792 0.8760
773.521465 0.8720 0.8680 0.8625 0.8580 0.8540
779.458700 0.8523 0.8520 0.8520 0.8535 0.8562
785.395935 0.8570 0.8585 0.8590 0.8597 0.8600
791.333170 0.8593 0.8576 0.8584 0.8597 0.8635
797.270405 0.8699 0.8727 0.8779 0.8862 0.8918
803.207640 0.8944 0.8964 0.8977 0.8980 0.8973
809.144875 0.8970 0.8957 0.8943 0.8933 0.8923
815.082110 0.8920 0.8913 0.8910 0.8910 0.8936
821.019345 0.8970 0.8986 0.8990 0.8996 0.9000
826.956580 0.9000 0.9000 0.9000 0.9006 0.9010
832.893815 0.9004 0.9000 0.8994 0.8990 0.8978
838.831050 0.8970 0.8958 0.8944 0.8940 0.8934
844.768285 0.8918 0.8910 0.8898 0.8884 0.8880
850.705520 0.8874 0.8864 0.8778 0.8720 0.8726
856.642755 0.8730 0.8730 0.8736 0.8746 0.8767
862.579990 0.8797 0.8816 0.8820 0.8820 0.8820
868.517225 0.8820 0.8815 0.8815 0.8815 0.8799
874.454460 0.8774 0.8749 0.8735 0.8725 0.8699
880.391695 0.8664 0.8603 0.8513 0.8413 0.8319
886.328930 0.8229 0.8154 0.8079 0.8000 0.7829
892.266165 0.7545 0.7395 0.7424 0.7494 0.7564
898.203400 0.7624 0.7655 0.7679 0.7743 0.7866
904.140635 0.8059 0.8288 0.8471 0.8549 0.8638
910.077870 0.8753 0.8785 0.8790 0.8790 0.8790
916.015105 0.8790 0.8790 0.8790 0.8786 0.8771
921.952340 0.8756 0.8741 0.8726 0.8716 0.8697
927.889575 0.8655 0.8616 0.8589 0.8548 0.8493
933.826810 0.8403 0.8321 0.8251 0.8194 0.8086
939.764045 0.7960 0.7992 0.8063 0.8112 0.8134
945.701280 0.8144 0.8154 0.8164 0.8181 0.8204
951.638515 0.8214 0.8364 0.8614 0.8631 0.8654
957.575750 0.8660 0.8664 0.8670 0.8670 0.8691
963.512985 0.8733 0.8740 0.8743 0.8750 0.8750
969.450220 0.8747 0.8733 0.8717 0.8700 0.8680
975.387455 0.8680 0.8677 0.8667 0.8660 0.8657
981.324690 0.8638 0.8588 0.8537 0.8512 0.8452
987.261925 0.8389 0.8320 0.8250 0.8171 0.8097
993.199160 0.8093 0.8140 0.8260 0.8324 0.8371
999.136395 0.8408 0.8457 0.8538 0.8573 0.8615
1005.073630 0.8638 0.8657 0.8645 0.8615 0.8570
1011.010865 0.8595 0.8675 0.8690 0.8690 0.8688
1016.948100 0.8678 0.8668 0.8651 0.8615 0.8591
1022.885335 0.8556 0.8538 0.8528 0.8520 0.8516
1028.822570 0.8498 0.8471 0.8375 0.8278 0.8274
1034.759805 0.8298 0.8338 0.8379 0.8422 0.8435
1040.697040 0.8460 0.8460 0.8460 0.8460 0.8460
1046.634275 0.8460 0.8460 0.8460 0.8460 0.8460
1052.571510 0.8457 0.8440 0.8438 0.8428 0.8417
1058.508745 0.8399 0.8387 0.8367 0.8347 0.8327
1064.445980 0.8309 0.8299 0.8289 0.8275 0.8233
1070.383215 0.8176 0.8144 0.8089 0.7995 0.7935
1076.320450 0.7802 0.7725 0.7664 0.7512 0.7430
1082.257685 0.7320 0.7074 0.6555 0.6078 0.6067
1088.194920 0.6287 0.6520 0.6916 0.7602 0.7881
1094.132155 0.7907 0.8141 0.8154 0.8227 0.8351
1100.069390 0.8360 0.8361 0.8370 0.8370 0.8369
1106.006625 0.8350 0.8350 0.8350 0.8340 0.8329
1111.943860 0.8300 0.8290 0.8280 0.8269 0.8240
1117.881095 0.8219 0.8180 0.8159 0.8100 0.8040
1123.818330 0.7980 0.7960 0.7960 0.7900 0.7791
1129.755565 0.7750 0.7385 0.7016 0.6843 0.6664
1135.692800 0.6485 0.6177 0.6024 0.5855 0.5831
1141.630035 0.5888 0.6198 0.6411 0.6793 0.6943
1147.567270 0.6969 0.7428 0.7944 0.8017 0.8020
1153.504505 0.8029 0.8030 0.8011 0.8010 0.7964
1159.441740 0.7914 0.7882 0.7834 0.7793 0.7652
1165.378975 0.7448 0.7275 0.7097 0.7008 0.6928
1171.316210 0.6911 0.6928 0.7056 0.7097 0.7118
1177.253445 0.7182 0.7252 0.7278 0.7245 0.7100
1183.190680 0.7063 0.7069 0.7096 0.7196 0.7618
1189.127915 0.7775 0.7842 0.7944 0.7969 0.7995
1195.065150 0.8068 0.8123 0.8155 0.8168 0.8195
1201.002385 0.8225 0.8263 0.8270 0.8270 0.8262
1206.939620 0.8260 0.8235 0.8222 0.8179 0.8162
1212.876855 0.8095 0.8015 0.7984 0.7956 0.7806
1218.814090 0.7714 0.7636 0.7548 0.7466 0.7379
1224.751325 0.7265 0.7154 0.7036 0.6932 0.6833
1230.688560 0.6733 0.6215 0.5576 0.5299 0.5252
1236.625795 0.5265 0.5490 0.6149 0.6378 0.6697
1242.563030 0.7173 0.7397 0.7505 0.7679 0.7730
1248.500265 0.7715 0.7695 0.7654 0.7633 0.7637
1254.437500 0.7647 0.7657 0.7674 0.7687 0.7690
1260.374735 0.7662 0.7636 0.7538 0.7451 0.7388
1266.311970 0.7321 0.7209 0.7017 0.6936 0.6937
1272.249205 0.7022 0.7108 0.7171 0.7217 0.7418
1278.186440 0.7657 0.7743 0.7790 0.7857 0.7887
1284.123675 0.7903 0.7930 0.7947 0.7963 0.7989
1290.060910 0.8006 0.8016 0.8026 0.8030 0.8030
1295.998145 0.8030 0.8024 0.7995 0.7968 0.7935
1301.935380 0.7895 0.7843 0.7783 0.7729 0.7643
1307.872615 0.7569 0.7520 0.7458 0.7388 0.7104
1313.809850 0.6877 0.6543 0.6322 0.6328 0.6487
1319.747085 0.6713 0.6806 0.6833 0.6861 0.6870
1325.684320 0.6870 0.6864 0.6832 0.6719 0.6616
1331.621555 0.6534 0.6379 0.6180 0.6068 0.5886
1337.558790 0.5728 0.5286 0.4615 0.4031 0.3744
1343.496025 0.3639 0.3465 0.3359 0.3466 0.3705
1349.433260 0.3897 0.4074 0.4258 0.4407 0.4475
1355.370495 0.4521 0.4611 0.4790 0.4905 0.4885
1361.307730 0.4870 0.4860 0.4855 0.4835 0.4815
1367.244965 0.4868 0.4968 0.5053 0.5161 0.5282
1373.182200 0.5377 0.5434 0.5459 0.5484 0.5546
1379.119435 0.5943 0.6436 0.6572 0.6614 0.6616
1385.056670 0.6592 0.6548 0.6502 0.6335 0.6120
1390.993905 0.6050 0.5984 0.5895 0.5803 0.5767
1396.931140 0.5733 0.5702 0.5673 0.5642 0.5610
1402.868375 0.5568 0.5526 0.5462 0.5373 0.5155
1408.805610 0.4848 0.4634 0.4324 0.3972 0.3719
1414.742845 0.3373 0.3063 0.2834 0.2608 0.2430
1420.680080 0.2316 0.2160 0.2016 0.2010 0.2014
1426.617315 0.2024 0.2167 0.2490 0.3059 0.3897
1432.554550 0.3974 0.4164 0.4487 0.4873 0.4947
1438.491785 0.5153 0.5369 0.5575 0.5838 0.6132
1444.429020 0.6208 0.6276 0.6296 0.6310 0.6304
1450.366255 0.6284 0.6255 0.6205 0.6161 0.6128
1456.303490 0.6086 0.5996 0.5782 0.5541 0.5414
1462.240725 0.5406 0.5456 0.5553 0.5568 0.5617
1468.177960 0.5745 0.5973 0.6206 0.6296 0.6353
1474.115195 0.6393 0.6408 0.6440 0.6475 0.6502
1480.052430 0.6559 0.6634 0.6697 0.6762 0.6805
1485.989665 0.6836 0.6897 0.6920 0.6913 0.6886
1491.926900 0.6866 0.6842 0.6799 0.6754 0.6722
1497.864135 0.6682 0.6640 0.6588 0.6536 0.6509
1503.801370 0.6440 0.6328 0.6217 0.6145 0.6049
1509.738605 0.5878 0.5699 0.5514 0.5308 0.5120
1515.675840 0.4952 0.4843 0.4709 0.4497 0.4482
1521.613075 0.4502 0.4577 0.4633 0.4731 0.4867
1527.550310 0.4915 0.4954 0.4988 0.5033 0.4985
1533.487545 0.4941 0.4873 0.4813 0.4754 0.4704
1539.424780 0.4648 0.4528 0.4293 0.3882 0.3566
1545.362015 0.3526 0.3425 0.2783 0.2395 0.2037
1551.299250 0.2004 0.1931 0.1828 0.1810 0.1810
1557.236485 0.1810 0.1810 0.1810 0.1869 0.2738
1563.173720 0.3159 0.3311 0.3321 0.3330 0.3331
1569.110955 0.3339 0.3327 0.3267 0.3197 0.3110
1575.048190 0.2832 0.2585 0.2403 0.2213 0.1993
1580.985425 0.1762 0.1432 0.1049 0.0979 0.0889
1586.922660 0.0840 0.0810 0.0842 0.1000 0.1050
1592.859895 0.1070 0.1199 0.1339 0.1488 0.1618
1598.797130 0.1758 0.2014 0.3103 0.3110 0.3100
1604.734365 0.3081 0.3070 0.3060 0.3050 0.2954
1610.671600 0.2749 0.2578 0.2445 0.2306 0.2271
1616.608835 0.2223 0.2201 0.2162 0.2141 0.2018
1622.546070 0.1786 0.1733 0.1721 0.1655 0.1576
1628.483305 0.1505 0.1445 0.1376 0.1324 0.1265
1634.420540 0.1215 0.1174 0.1125 0.1075 0.1052
1640.357775 0.0808 0.0521 0.0481 0.0480 0.0489
1646.295010 0.0490 0.0481 0.0480 0.0594 0.1004
1652.232245 0.1208 0.1369 0.1528 0.1688 0.1865
1658.169480 0.2249 0.2489 0.2657 0.2817 0.2883
1664.106715 0.2966 0.3098 0.3288 0.3680 0.3925
1670.043950 0.4118 0.4811 0.5216 0.5394 0.5428
1675.981185 0.5537 0.5666 0.5796 0.5917 0.6150
1681.918420 0.6305 0.6386 0.6456 0.6534 0.6606
1687.855655 0.6692 0.6765 0.6835 0.6921 0.7065
1693.792890 0.7108 0.7141 0.7181 0.7229 0.7263
1699.730125 0.7393 0.7476 0.7543 0.7606 0.7681
1705.667360 0.7715 0.7742 0.7765 0.7785 0.7812
1711.604595 0.7820 0.7850 0.7890 0.7981 0.8025
1717.541830 0.8045 0.8072 0.8095 0.8122 0.8144
1723.479065 0.8164 0.8177 0.8180 0.8201 0.8217
1729.416300 0.8220 0.8220 0.8227 0.8272 0.8304
1735.353535 0.8324 0.8330 0.8330 0.8316 0.8324
1741.290770 0.8350 0.8400 0.8427 0.8437 0.8440
1747.228005 0.8440 0.8453 0.8460 0.8467 0.8483
1753.165240 0.8516 0.8549 0.8560 0.8560 0.8560
1759.102475 0.8554 0.8556 0.8566 0.8589 0.8638
1765.039710 0.8710 0.8740 0.8740 0.8740 0.8734
1770.976945 0.8724 0.8720 0.8714 0.8698 0.8726
1776.914180 0.8768 0.8798 0.8810 0.8816 0.8832
1782.851415 0.8840 0.8840 0.8840 0.8840 0.8840
1788.788650 0.8840 0.8840 0.8851 0.8860 0.8877
1794.725885 0.8901 0.8910 0.8916 0.8920 0.8926
1800.663120 0.8930 0.8935 0.8940 0.8940 0.8945
1806.600355 0.8950 0.8950 0.8950 0.8950 0.8950
1812.537590 0.8961 0.8970 0.8970 0.8970 0.8975
1818.474825 0.8980 0.8985 0.8990 0.8995 0.9000
1824.412060 0.9005 0.9010 0.9010 0.9010 0.9015
1830.349295 0.9020 0.9020 0.9020 0.9015 0.9000
1836.286530 0.8990 0.8990 0.8990 0.8995 0.9005
1842.223765 0.9015 0.9020 0.9029 0.9045 0.9050
1848.161000 0.9054 0.9060 0.9064 0.9070 0.9070
1854.098235 0.9070 0.9070 0.9070 0.9070 0.9070
1860.035470 0.9070 0.9070 0.9070 0.9070 0.9070
1865.972705 0.9070 0.9070 0.9070 0.9070 0.9070
1871.909940 0.9070 0.9070 0.9070 0.9070 0.9070
1877.847175 0.9074 0.9080 0.9080 0.9080 0.9080
1883.784410 0.9080 0.9080 0.9080 0.9080 0.9080
1889.721645 0.9080 0.9080 0.9080 0.9087 0.9100
1895.658880 0.9100 0.9103 0.9110 0.9110 0.9113
1901.596115 0.9120 0.9120 0.9123 0.9130 0.9133
1907.533350 0.9140 0.9140 0.9140 0.9137 0.9130
1913.470585 0.9127 0.9120 0.9120 0.9120 0.9117
1919.407820 0.9110 0.9110 0.9110 0.9110 0.9110
1925.345055 0.9110 0.9110 0.9110 0.9110 0.9110
1931.282290 0.9113 0.9123 0.9133 0.9140 0.9140
1937.219525 0.9140 0.9140 0.9140 0.9137 0.9128
1943.156760 0.9110 0.9078 0.9072 0.9080 0.9085
1949.093995 0.9100 0.9102 0.9112 0.9122 0.9134
1955.031230 0.9150 0.9150 0.9150 0.9150 0.9146
1960.968465 0.9128 0.9118 0.9110 0.9110 0.9110
1966.905700 0.9110 0.9110 0.9110 0.9114 0.9130
1972.842935 0.9126 0.9110 0.9108 0.9100 0.9100
1978.780170 0.9100 0.9100 0.9100 0.9100 0.9097
1984.717405 0.9085 0.9110 0.9113 0.9132 0.9141
1990.654640 0.9150 0.9147 0.9130 0.9130 0.9131
1996.591875 0.9140 0.9140 0.9141 0.9150 0.9150
2002.529110 0.9150 0.9150 0.9150 0.9150 0.9150
2008.466345 0.9150 0.9150 0.9150 0.9149 0.9140
2014.403580 0.9139 0.9129 0.9119 0.9109 0.9097
2020.340815 0.9079 0.9069 0.9059 0.9050 0.9050
2026.278050 0.9049 0.9040 0.9040 0.9037 0.9019
2032.215285 0.9009 0.8999 0.8989 0.8980 0.8979
2038.152520 0.8970 0.8967 0.8950 0.8950 0.8950
2044.089755 0.8949 0.8940 0.8940 0.8940 0.8939
2050.026990 0.8930 0.8930 0.8929 0.8920 0.8920
2055.964225 0.8920 0.8919 0.8910 0.8910 0.8910
2061.901460 0.8910 0.8907 0.8890 0.8890 0.8890
2067.838695 0.8889 0.8879 0.8869 0.8860 0.8860
2073.775930 0.8859 0.8849 0.8840 0.8837 0.8820
2079.713165 0.8819 0.8810 0.8809 0.8800 0.8799
2085.650400 0.8789 0.8777 0.8760 0.8759 0.8749
2091.587635 0.8739 0.8729 0.8721 0.8729 0.8720
2097.524870 0.8720 0.8719 0.8706 0.8677 0.8656
2103.462105 0.8628 0.8605 0.8570 0.8567 0.8550
2109.399340 0.8550 0.8550 0.8550 0.8550 0.8550
2115.336575 0.8550 0.8550 0.8550 0.8550 0.8551
2121.273810 0.8560 0.8560 0.8560 0.8560 0.8560
2127.211045 0.8561 0.8570 0.8572 0.8591 0.8603
2133.148280 0.8625 0.8669 0.8730 0.8731 0.8743
2139.085515 0.8763 0.8781 0.8791 0.8801 0.8809
2145.022750 0.8800 0.8799 0.8782 0.8730 0.8734
2150.959985 0.8766 0.8815 0.8852 0.8871 0.8881
2156.897220 0.8893 0.8911 0.8921 0.8930 0.8930
2162.834455 0.8931 0.8940 0.8944 0.8971 0.8981
2168.771690 0.8991 0.9001 0.9011 0.9020 0.9023
2174.708925 0.9040 0.9041 0.9050 0.9051 0.9060
2180.646160 0.9060 0.9060 0.9060 0.9060 0.9060
2186.583395 0.9060 0.9060 0.9060 0.9060 0.9060
2192.520630 0.9061 0.9067 0.9050 0.9051 0.9060
2198.457865 0.9060 0.9060 0.9060 0.9060 0.9060
2204.395100 0.9057 0.9037 0.9020 0.9023 0.9041
2210.332335 0.9053 0.9074 0.9100 0.9100 0.9100
2216.269570 0.9101 0.9110 0.9110 0.9111 0.9120
2222.206805 0.9120 0.9120 0.9120 0.9120 0.9119
2228.144040 0.9110 0.9111 0.9120 0.9120 0.9120
2234.081275 0.9120 0.9120 0.9120 0.9120 0.9121
2240.018510 0.9130 0.9130 0.9130 0.9130 0.9130
2245.955745 0.9130 0.9130 0.9129 0.9119 0.9110
2251.892980 0.9105 0.9067 0.9050 0.9050 0.9050
2257.830215 0.9051 0.9061 0.9071 0.9080 0.9083
2263.767450 0.9101 0.9110 0.9111 0.9120 0.9120
2269.704685 0.9120 0.9119 0.9111 0.9120 0.9120
2275.641920 0.9120 0.9119 0.9110 0.9109 0.9100
2281.579155 0.9098 0.9078 0.9058 0.9036 0.9009
2287.516390 0.8999 0.8990 0.8989 0.8980 0.8979
2293.453625 0.8970 0.8968 0.8949 0.8940 0.8940
2299.390860 0.8940 0.8939 0.8930 0.8930 0.8930
2305.328095 0.8929 0.8920 0.8919 0.8910 0.8911
2311.265330 0.8919 0.8910 0.8907 0.8890 0.8893
2317.202565 0.8905 0.8866 0.8836 0.8810 0.8809
2323.139800 0.8799 0.8790 0.8789 0.8780 0.8780
2329.077035 0.8780 0.8780 0.8780 0.8781 0.8790
2335.014270 0.8789 0.8780 0.8780 0.8780 0.8777
2340.951505 0.8760 0.8760 0.8760 0.8759 0.8750
2346.888740 0.8750 0.8749 0.8740 0.8740 0.8740
2352.825975 0.8739 0.8730 0.8730 0.8730 0.8729
2358.763210 0.8720 0.8720 0.8720 0.8720 0.8720
2364.700445 0.8721 0.8730 0.8730 0.8731 0.8740
2370.637680 0.8741 0.8751 0.8764 0.8791 0.8800
2376.574915 0.8800 0.8800 0.8799 0.8790 0.8789
2382.512150 0.8777 0.8763 0.8780 0.8781 0.8791
2388.449385 0.8801 0.8810 0.8811 0.8820 0.8820
2394.386620 0.8820 0.8820 0.8820 0.8819 0.8810
2400.323855 0.8810 0.8809 0.8800 0.8800 0.8799
2406.261090 0.8790 0.8789 0.8780 0.8780 0.8777
2412.198325 0.8760 0.8759 0.8750 0.8750 0.8749
2418.135560 0.8740 0.8737 0.8720 0.8719 0.8707
2424.072795 0.8689 0.8679 0.8668 0.8647 0.8629
2430.010030 0.8620 0.8619 0.8610 0.8609 0.8600
2435.947265 0.8599 0.8590 0.8588 0.8570 0.8570
2441.884500 0.8570 0.8570 0.8570 0.8570 0.8570
2447.821735 0.8569 0.8560 0.8559 0.8549 0.8540
2453.758970 0.8539 0.8530 0.8529 0.8520 0.8517
2459.696205 0.8499 0.8489 0.8480 0.8479 0.8470
2465.633440 0.8469 0.8457 0.8440 0.8439 0.8429
2471.570675 0.8417 0.8393 0.8336 0.8309 0.8300
2477.507910 0.8300 0.8299 0.8290 0.8287 0.8269
2483.445145 0.8256 0.8229 0.8219 0.8206 0.8179
2489.382380 0.8169 0.8157 0.8136 0.8107 0.8089
2495.319615 0.8076 0.8049 0.8037 0.8019 0.8009
2501.256850 0.7996 0.7969 0.7957 0.7937 0.7917
2507.194085 0.7899 0.7886 0.7860 0.7859 0.7845
2513.131320 0.7805 0.7769 0.7759 0.7750 0.7746
2519.068555 0.7716 0.7686 0.7656 0.7629 0.7616
2525.005790 0.7589 0.7580 0.7581 0.7590 0.7591
2530.943025 0.7600 0.7604 0.7631 0.7641 0.7650
2536.880260 0.7650 0.7650 0.7650 0.7649 0.7640
2542.817495 0.7640 0.7639 0.7630 0.7629 0.7617
2548.754730 0.7597 0.7577 0.7559 0.7546 0.7519
2554.691965 0.7509 0.7499 0.7490 0.7490 0.7490
2560.629200 0.7487 0.7470 0.7470 0.7473 0.7491
2566.566435 0.7500 0.7501 0.7515 0.7554 0.7580
2572.503670 0.7579 0.7564 0.7511 0.7449 0.7440
2578.440905 0.7439 0.7430 0.7430 0.7429 0.7417
2584.378140 0.7400 0.7399 0.7387 0.7366 0.7336
2590.315375 0.7306 0.7276 0.7248 0.7227 0.7209
2596.252610 0.7200 0.7191 0.7122 0.7064 0.7015
2602.189845 0.6976 0.6946 0.6916 0.6887 0.6867
2608.127080 0.6845 0.6806 0.6765 0.6647 0.6556
2614.064315 0.6526 0.6498 0.6480 0.6472 0.6414
2620.001550 0.6369 0.6359 0.6349 0.6339 0.6326
2625.938785 0.6300 0.6299 0.6290 0.6289 0.6280
2631.876020 0.6280 0.6281 0.6293 0.6313 0.6331
2637.813255 0.6346 0.6392 0.6412 0.6431 0.6443
2643.750490 0.6461 0.6470 0.6471 0.6480 0.6480
2649.687725 0.6480 0.6480 0.6480 0.6477 0.6457
2655.624960 0.6440 0.6439 0.6429 0.6419 0.6409
2661.562195 0.6399 0.6388 0.6369 0.6357 0.6340
2667.499430 0.6339 0.6327 0.6310 0.6310 0.6309
2673.436665 0.6299 0.6290 0.6290 0.6290 0.6290
2679.373900 0.6290 0.6290 0.6290 0.6289 0.6279
2685.311135 0.6269 0.6260 0.6258 0.6237 0.6217
2691.248370 0.6195 0.6157 0.6135 0.6096 0.6066
2697.185605 0.6039 0.6029 0.6019 0.6006 0.5975
2703.122840 0.5932 0.5876 0.5840 0.5769 0.5759
2709.060075 0.5746 0.5713 0.5658 0.5637 0.5620
2714.997310 0.5617 0.5599 0.5589 0.5577 0.5559
2720.934545 0.5546 0.5518 0.5500 0.5500 0.5499
2726.871780 0.5490 0.5487 0.5470 0.5473 0.5491
2732.809015 0.5500 0.5501 0.5510 0.5511 0.5520
2738.746250 0.5524 0.5550 0.5553 0.5571 0.5581
2744.683485 0.5590 0.5591 0.5603 0.5620 0.5621
2750.620720 0.5630 0.5630 0.5631 0.5640 0.5641
2756.557955 0.5651 0.5660 0.5662 0.5680 0.5681
2762.495190 0.5689 0.5681 0.5690 0.5690 0.5691
2768.432425 0.5700 0.5699 0.5690 0.5689 0.5680
2774.369660 0.5680 0.5677 0.5657 0.5634 0.5587
2780.306895 0.5567 0.5545 0.5505 0.5461 0.5396
2786.244130 0.5369 0.5356 0.5321 0.5256 0.5227
2792.181365 0.5210 0.5208 0.5185 0.5147 0.5126
2798.118600 0.5100 0.5092 0.5035 0.4997 0.4979
2804.055835 0.4965 0.4929 0.4919 0.4910 0.4905
2809.993070 0.4864 0.4816 0.4789 0.4777 0.4755
2815.930305 0.4714 0.4664 0.4619 0.4607 0.4586
2821.867540 0.4557 0.4537 0.4517 0.4499 0.4490
2827.804775 0.4489 0.4478 0.4456 0.4427 0.4407
2833.742010 0.4387 0.4369 0.4359 0.4347 0.4324
2839.679245 0.4272 0.4218 0.4196 0.4167 0.4149
2845.616480 0.4136 0.4109 0.4097 0.4079 0.4070
2851.553715 0.4070 0.4070 0.4070 0.4070 0.4070
2857.490950 0.4067 0.4049 0.4040 0.4039 0.4029
2863.428185 0.4019 0.4009 0.3998 0.3979 0.3969
2869.365420 0.3959 0.3949 0.3937 0.3919 0.3910
2875.302655 0.3909 0.3900 0.3899 0.3890 0.3890
2881.239890 0.3889 0.3880 0.3875 0.3839 0.3827
2887.177125 0.3808 0.3788 0.3769 0.3756 0.3727
2893.114360 0.3706 0.3677 0.3657 0.3637 0.3617
2899.051595 0.3597 0.3579 0.3569 0.3559 0.3546
2904.988830 0.3517 0.3499 0.3484 0.3431 0.3359
2910.926065 0.3276 0.3249 0.3236 0.3207 0.3189
2916.863300 0.3179 0.3167 0.3149 0.3139 0.3130
2922.800535 0.3129 0.3119 0.3109 0.3097 0.3079
2928.737770 0.3069 0.3059 0.3046 0.3020 0.3019
2934.675005 0.3010 0.3010 0.3009 0.3000 0.2999
2940.612240 0.2990 0.2990 0.2990 0.2989 0.2980
2946.549475 0.2980 0.2979 0.2971 0.2980 0.2980
2952.486710 0.2980 0.2981 0.2990 0.2990 0.2991
2958.423945 0.3000 0.3001 0.3010 0.3011 0.3024
2964.361180 0.3053 0.3074 0.3101 0.3111 0.3123
2970.298415 0.3145 0.3184 0.3214 0.3243 0.3261
2976.235650 0.3271 0.3285 0.3321 0.3331 0.3345
2982.172885 0.3383 0.3404 0.3434 0.3464 0.3493
2988.110120 0.3513 0.3533 0.3550 0.3550 0.3554
2994.047355 0.3580 0.3582 0.3604 0.3633 0.3654
2999.984590 0.3683 0.3703 0.3725 0.3763 0.3784
3005.921825 0.3813 0.3831 0.3842 0.3863 0.3883
3011.859060 0.3905 0.3940 0.3941 0.3951 0.3963
3017.796295 0.3982 0.4001 0.4012 0.4031 0.4041
3023.733530 0.4053 0.4071 0.4081 0.4090 0.4091
3029.670765 0.4101 0.4113 0.4133 0.4151 0.4163
3035.608000 0.4184 0.4211 0.4223 0.4240 0.4240
3041.545235 0.4240 0.4242 0.4260 0.4260 0.4260
3047.482470 0.4263 0.4281 0.4290 0.4293 0.4313
3053.419705 0.4333 0.4353 0.4375 0.4413 0.4434
3059.356940 0.4464 0.4494 0.4524 0.4551 0.4564
3065.294175 0.4591 0.4604 0.4636 0.4685 0.4725
3071.231410 0.4766 0.4819 0.4884 0.4911 0.4921
3077.168645 0.4933 0.4956 0.5015 0.5130 0.5206
3083.105880 0.5251 0.5263 0.5280 0.5284 0.5316
3089.043115 0.5368 0.5429 0.5494 0.5524 0.5551
3094.980350 0.5563 0.5581 0.5598 0.5655 0.5695
3100.917585 0.5734 0.5764 0.5794 0.5824 0.5851
3106.854820 0.5864 0.5899 0.5966 0.6019 0.6081
3112.792055 0.6090 0.6090 0.6097 0.6153 0.6183
3118.729290 0.6274 0.6301 0.6313 0.6330 0.6331
3124.666525 0.6343 0.6361 0.6379 0.6444 0.6480
3130.603760 0.6555 0.6590 0.6591 0.6599 0.6593
3136.540995 0.6611 0.6621 0.6637 0.6695 0.6734
3142.478230 0.6763 0.6781 0.6790 0.6790 0.6790
3148.415465 0.6790 0.6790 0.6790 0.6789 0.6776
3154.352700 0.6747 0.6729 0.6720 0.6719 0.6710
3160.289935 0.6711 0.6724 0.6751 0.6765 0.6801
3166.227170 0.6814 0.6841 0.6853 0.6871 0.6880
3172.164405 0.6880 0.6881 0.6890 0.6890 0.6893
3178.101640 0.6911 0.6921 0.6930 0.6933 0.6953
3184.038875 0.6970 0.6971 0.6980 0.6980 0.6980
3189.976110 0.6980 0.6980 0.6980 0.6980 0.6980
3195.913345 0.6980 0.6980 0.6980 0.6980 0.6979
3201.850580 0.6970 0.6967 0.6950 0.6949 0.6940
3207.787815 0.6939 0.6929 0.6920 0.6919 0.6907
3213.725050 0.6889 0.6879 0.6867 0.6849 0.6837
3219.662285 0.6819 0.6809 0.6799 0.6789 0.6780
3225.599520 0.6776 0.6745 0.6702 0.6642 0.6581
3231.536755 0.6509 0.6420 0.6336 0.6227 0.6134
3237.473990 0.6082 0.6015 0.5893 0.5762 0.5622
3243.411225 0.5482 0.5340 0.5180 0.5018 0.4860
3249.348460 0.4780 0.4687 0.4506 0.4316 0.4126
3255.285695 0.3936 0.3745 0.3556 0.3447 0.3328
3261.222930 0.3080 0.2877 0.2860 0.2859 0.2849
3267.160165 0.2840 0.2838 0.2820 0.2820 0.2823
3273.097400 0.2840 0.2841 0.2854 0.2884 0.2914
3279.034635 0.2946 0.2996 0.3045 0.3086 0.3136
3284.971870 0.3184 0.3216 0.3266 0.3316 0.3365
3290.909105 0.3435 0.3694 0.3804 0.3916 0.4034
3296.846340 0.4144 0.4254 0.4365 0.4483 0.4585
3302.783575 0.4721 0.4949 0.5019 0.5088 0.5149
3308.720810 0.5219 0.5290 0.5368 0.5429 0.5499
3314.658045 0.5569 0.5637 0.5699 0.5769 0.5839
3320.595280 0.5906 0.5985 0.6223 0.6244 0.6271
3326.532515 0.6280 0.6281 0.6329 0.6601 0.6611
3332.469750 0.6620 0.6621 0.6633 0.6653 0.6673
3338.406985 0.6694 0.6725 0.6760 0.6760 0.6763
3344.344220 0.6780 0.6781 0.6790 0.6793 0.6811
3350.281455 0.6824 0.6852 0.6870 0.6871 0.6880
3356.218690 0.6880 0.6880 0.6880 0.6880 0.6881
3362.155925 0.6890 0.6890 0.6893 0.6910 0.6910
3368.093160 0.6911 0.6920 0.6920 0.6921 0.6930
3374.030395 0.6930 0.6931 0.6940 0.6940 0.6940
3379.967630 0.6939 0.6929 0.6920 0.6919 0.6907
3385.904865 0.6890 0.6890 0.6890 0.6890 0.6890
3391.842100 0.6890 0.6889 0.6880 0.6881 0.6890
3397.779335 0.6890 0.6890 0.6890 0.6890 0.6893
3403.716570 0.6910 0.6911 0.6920 0.6920 0.6920
3409.653805 0.6920 0.6920 0.6920 0.6920 0.6920
3415.591040 0.6920 0.6920 0.6921 0.6930 0.6930
3421.528275 0.6931 0.6940 0.6940 0.6941 0.6950
3427.465510 0.6953 0.6970 0.6973 0.6993 0.7010
3433.402745 0.7011 0.7020 0.7023 0.7040 0.7041
3439.339980 0.7050 0.7051 0.7063 0.7080 0.7080
3445.277215 0.7080 0.7080 0.7080 0.7080 0.7083
3451.214450 0.7104 0.7131 0.7145 0.7189 0.7250
3457.151685 0.7251 0.7261 0.7271 0.7283 0.7301
3463.088920 0.7310 0.7310 0.7311 0.7320 0.7321
3469.026155 0.7330 0.7330 0.7331 0.7340 0.7340
3474.963390 0.7340 0.7340 0.7340 0.7340 0.7340
3480.900625 0.7340 0.7340 0.7340 0.7340 0.7343
3486.837860 0.7360 0.7361 0.7370 0.7371 0.7380
3492.775095 0.7381 0.7391 0.7400 0.7404 0.7434
3498.712330 0.7464 0.7493 0.7513 0.7534 0.7561
3504.649565 0.7570 0.7572 0.7590 0.7594 0.7621
3510.586800 0.7633 0.7651 0.7664 0.7691 0.7703
3516.524035 0.7721 0.7732 0.7751 0.7761 0.7770
3522.461270 0.7771 0.7781 0.7793 0.7811 0.7820
3528.398505 0.7821 0.7831 0.7841 0.7851 0.7860
3534.335740 0.7863 0.7881 0.7891 0.7900 0.7901
3540.272975 0.7911 0.7922 0.7940 0.7941 0.7951
3546.210210 0.7961 0.7971 0.7983 0.8001 0.8011
3552.147445 0.8021 0.8031 0.8041 0.8050 0.8053
3558.084680 0.8071 0.8080 0.8081 0.8091 0.8100
3564.021915 0.8101 0.8113 0.8130 0.8131 0.8141
3569.959150 0.8154 0.8183 0.8200 0.8203 0.8221
3575.896385 0.8231 0.8242 0.8261 0.8271 0.8281
3581.833620 0.8291 0.8301 0.8313 0.8331 0.8341
3587.770855 0.8353 0.8373 0.8391 0.8403 0.8421
3593.708090 0.8434 0.8461 0.8470 0.8471 0.8480
3599.645325 0.8481 0.8490 0.8491 0.8500 0.8503
3605.582560 0.8521 0.8530 0.8531 0.8541 0.8553
3611.519795 0.8573 0.8590 0.8590 0.8591 0.8601
3617.457030 0.8610 0.8611 0.8621 0.8630 0.8633
3623.394265 0.8651 0.8660 0.8661 0.8671 0.8680
3629.331500 0.8681 0.8690 0.8693 0.8711 0.8720
3635.268735 0.8721 0.8730 0.8731 0.8740 0.8741
3641.205970 0.8750 0.8751 0.8760 0.8763 0.8780
3647.143205 0.8780 0.8780 0.8781 0.8790 0.8790
3653.080440 0.8790 0.8790 0.8790 0.8790 0.8790
3659.017675 0.8789 0.8780 0.8780 0.8777 0.8760
3664.954910 0.8760 0.8760 0.8760 0.8759 0.8750
3670.892145 0.8750 0.8749 0.8740 0.8740 0.8740
3676.829380 0.8740 0.8741 0.8751 0.8763 0.8780
3682.766615 0.8781 0.8792 0.8811 0.8823 0.8841
3688.703850 0.8850 0.8850 0.8851 0.8860 0.8860
3694.641085 0.8861 0.8870 0.8870 0.8870 0.8871
3700.578320 0.8880 0.8880 0.8881 0.8890 0.8890
3706.515555 0.8890 0.8892 0.8910 0.8910 0.8910
3712.452790 0.8910 0.8911 0.8920 0.8920 0.8920
3718.390025 0.8920 0.8921 0.8930 0.8930 0.8930
3724.327260 0.8930 0.8931 0.8940 0.8940 0.8940
3730.264495 0.8940 0.8940 0.8940 0.8940 0.8940
3736.201730 0.8940 0.8940 0.8940 0.8940 0.8940
3742.138965 0.8940 0.8940 0.8940 0.8940 0.8940
3748.076200 0.8940 0.8940 0.8940 0.8939 0.8930
3754.013435 0.8930 0.8930 0.8930 0.8930 0.8930
3759.950670 0.8930 0.8930 0.8930 0.8930 0.8930
3765.887905 0.8930 0.8930 0.8930 0.8930 0.8930
3771.825140 0.8930 0.8930 0.8930 0.8929 0.8920
3777.762375 0.8920 0.8920 0.8920 0.8920 0.8920
3783.699610 0.8920 0.8920 0.8920 0.8920 0.8920
3789.636845 0.8920 0.8920 0.8920 0.8920 0.8920
3795.574080 0.8920 0.8920 0.8920 0.8920 0.8920
3801.511315 0.8920 0.8920 0.8920 0.8920 0.8920
3807.448550 0.8920 0.8920
##END=
