##TITLE=1,5-BIS(1'-PHENYLDIMETHYLSILYL-1-FERROCENYL)-1,1,3,3,5,5-HEXAMETHYLTRISILOXANE
##JCAMP-DX=4.24
##DATA TYPE=INFRARED SPECTRUM
##CLASS=COBLENTZ
##ORIGIN=WYANDOTTE CHEMICALS CORP., WYANDOTTE, MICHIGAN, USA
##OWNER=COBLENTZ SOCIETY
Collection (C) 2018 copyright by the U.S. Secretary of Commerce
on behalf of the United States of America. All rights reserved.
##DATE=Not specified, most likely prior to 1970
##MOLFORM=C42 H56 Fe2 O2 Si5
##SOURCE REFERENCE=COBLENTZ NO. 3027
##$NIST ID=B6003027
##$NIST SOURCE=COBLENTZ
##$NIST IMAGE=cob3027
##SPECTROMETER/DATA SYSTEM=Not specified, most likely a prism, grating, or hybrid spectrometer.
##STATE=LIQUID
$$ ANALYTICAL PURE
##PATH LENGTH=CAPILLARY
##SAMPLING PROCEDURE=TRANSMISSION
##RESOLUTION=4
##DATA PROCESSING=DIGITIZED BY NIST FROM HARD COPY
##XUNITS=MICROMETERS
##YUNITS=TRANSMITTANCE
##XFACTOR=1.000000
##YFACTOR=1
##DELTAX=000.006806
##FIRSTX=2.041
##LASTX=16.0134
##FIRSTY=0.977
##MAXX=16.0134
##MINX=2.041
##MAXY=0.998
##MINY=0.027
##NPOINTS=2054
##XYDATA=(X++(Y..Y))
2.041000 0.9770 0.9770 0.9770 0.9790 0.9790
2.075047 0.9770 0.9760 0.9760 0.9760 0.9740
2.109000 0.9740 0.9720 0.9720 0.9720 0.9720
2.143047 0.9720 0.9720 0.9720 0.9710 0.9710
2.177000 0.9710 0.9710 0.9690 0.9710 0.9720
2.211047 0.9720 0.9720 0.9740 0.9740 0.9740
2.245000 0.9740 0.9720 0.9720 0.9710 0.9690
2.279047 0.9690 0.9690 0.9690 0.9690 0.9690
2.313000 0.9710 0.9710 0.9720 0.9720 0.9720
2.347047 0.9720 0.9720 0.9720 0.9710 0.9710
2.381000 0.9710 0.9710 0.9710 0.9710 0.9690
2.415047 0.9670 0.9650 0.9620 0.9590 0.9550
2.449000 0.9540 0.9520 0.9520 0.9540 0.9590
2.483047 0.9600 0.9620 0.9650 0.9710 0.9760
2.517000 0.9790 0.9810 0.9810 0.9810 0.9840
2.551047 0.9840 0.9810 0.9790 0.9740 0.9710
2.585000 0.9690 0.9710 0.9710 0.9740 0.9740
2.619047 0.9740 0.9740 0.9720 0.9710 0.9690
2.653000 0.9710 0.9720 0.9720 0.9740 0.9740
2.687047 0.9760 0.9760 0.9760 0.9760 0.9760
2.721000 0.9770 0.9770 0.9790 0.9790 0.9790
2.755047 0.9790 0.9790 0.9790 0.9790 0.9790
2.789000 0.9790 0.9790 0.9770 0.9770 0.9760
2.823047 0.9760 0.9770 0.9770 0.9770 0.9770
2.858000 0.9770 0.9770 0.9760 0.9760 0.9760
2.892047 0.9760 0.9760 0.9760 0.9760 0.9740
2.926000 0.9710 0.9710 0.9710 0.9710 0.9710
2.960047 0.9710 0.9690 0.9690 0.9690 0.9690
2.994000 0.9710 0.9710 0.9690 0.9690 0.9690
3.028047 0.9690 0.9670 0.9650 0.9640 0.9620
3.062000 0.9600 0.9600 0.9600 0.9590 0.9590
3.096047 0.9570 0.9570 0.9570 0.9540 0.9520
3.130000 0.9520 0.9480 0.9430 0.9380 0.9310
3.164047 0.9230 0.9140 0.9030 0.8910 0.8630
3.198000 0.8350 0.7610 0.7020 0.6420 0.6300
3.232047 0.6300 0.6370 0.6540 0.7100 0.7430
3.266000 0.7650 0.7800 0.7840 0.7820 0.7680
3.300047 0.7610 0.7530 0.7210 0.6460 0.5710
3.334000 0.4890 0.3990 0.3960 0.4090 0.4760
3.368047 0.5540 0.6420 0.7670 0.8010 0.8020
3.402000 0.8010 0.7770 0.7560 0.7530 0.7560
3.436047 0.8010 0.8260 0.8530 0.8740 0.8860
3.470000 0.8970 0.9030 0.9090 0.9140 0.9180
3.504047 0.9200 0.9210 0.9230 0.9260 0.9280
3.538000 0.9300 0.9310 0.9300 0.9300 0.9300
3.572047 0.9300 0.9310 0.9350 0.9420 0.9500
3.606000 0.9600 0.9690 0.9690 0.9720 0.9720
3.640047 0.9740 0.9720 0.9720 0.9720 0.9720
3.674000 0.9710 0.9710 0.9710 0.9710 0.9720
3.708047 0.9740 0.9760 0.9760 0.9760 0.9760
3.742000 0.9770 0.9770 0.9770 0.9770 0.9790
3.776047 0.9790 0.9790 0.9790 0.9820 0.9820
3.810000 0.9810 0.9810 0.9790 0.9790 0.9790
3.844047 0.9770 0.9770 0.9770 0.9770 0.9770
3.878000 0.9790 0.9810 0.9820 0.9810 0.9820
3.912047 0.9820 0.9820 0.9820 0.9820 0.9840
3.947000 0.9840 0.9840 0.9840 0.9840 0.9840
3.981047 0.9840 0.9840 0.9840 0.9840 0.9820
4.015000 0.9820 0.9810 0.9770 0.9760 0.9740
4.049047 0.9720 0.9710 0.9710 0.9720 0.9740
4.083000 0.9770 0.9770 0.9770 0.9770 0.9790
4.117047 0.9770 0.9770 0.9770 0.9770 0.9770
4.151000 0.9770 0.9770 0.9770 0.9790 0.9790
4.185047 0.9770 0.9770 0.9770 0.9770 0.9770
4.219000 0.9760 0.9740 0.9720 0.9710 0.9690
4.253047 0.9690 0.9710 0.9740 0.9770 0.9790
4.287000 0.9810 0.9810 0.9810 0.9820 0.9840
4.321047 0.9860 0.9890 0.9910 0.9930 0.9960
4.355000 0.9980 0.9980 0.9980 0.9980 0.9980
4.389047 0.9980 0.9980 0.9960 0.9930 0.9910
4.423000 0.9890 0.9880 0.9860 0.9860 0.9840
4.457047 0.9820 0.9810 0.9810 0.9810 0.9790
4.491000 0.9790 0.9790 0.9770 0.9770 0.9790
4.525047 0.9790 0.9790 0.9790 0.9790 0.9790
4.559000 0.9770 0.9760 0.9760 0.9760 0.9760
4.593047 0.9760 0.9760 0.9810 0.9790 0.9790
4.627000 0.9790 0.9790 0.9790 0.9810 0.9810
4.661047 0.9810 0.9810 0.9810 0.9810 0.9820
4.695000 0.9820 0.9820 0.9820 0.9820 0.9820
4.729047 0.9820 0.9820 0.9820 0.9820 0.9820
4.763000 0.9820 0.9820 0.9820 0.9820 0.9820
4.797047 0.9820 0.9820 0.9810 0.9790 0.9790
4.831000 0.9760 0.9760 0.9740 0.9740 0.9720
4.865047 0.9710 0.9710 0.9710 0.9710 0.9710
4.899000 0.9720 0.9720 0.9720 0.9720 0.9720
4.933047 0.9720 0.9720 0.9720 0.9740 0.9740
4.967000 0.9740 0.9740 0.9760 0.9760 0.9770
5.001047 0.9790 0.9810 0.9810 0.9810 0.9810
5.035000 0.9790 0.9770 0.9760 0.9760 0.9790
5.069047 0.9810 0.9810 0.9810 0.9790 0.9770
5.104000 0.9760 0.9710 0.9690 0.9670 0.9670
5.138047 0.9650 0.9620 0.9540 0.9500 0.9480
5.172000 0.9430 0.9420 0.9420 0.9420 0.9450
5.206047 0.9480 0.9520 0.9550 0.9570 0.9600
5.240000 0.9620 0.9620 0.9620 0.9620 0.9600
5.274047 0.9590 0.9540 0.9520 0.9500 0.9480
5.308000 0.9480 0.9520 0.9520 0.9520 0.9500
5.342047 0.9500 0.9520 0.9540 0.9590 0.9640
5.376000 0.9710 0.9740 0.9760 0.9790 0.9810
5.410047 0.9810 0.9790 0.9790 0.9790 0.9760
5.444000 0.9740 0.9740 0.9760 0.9770 0.9760
5.478047 0.9760 0.9720 0.9690 0.9670 0.9670
5.512000 0.9640 0.9570 0.9520 0.9520 0.9520
5.546047 0.9520 0.9590 0.9600 0.9620 0.9620
5.580000 0.9620 0.9640 0.9640 0.9600 0.9590
5.614047 0.9540 0.9470 0.9400 0.9330 0.9280
5.648000 0.9230 0.9200 0.9200 0.9200 0.9200
5.682047 0.9180 0.9160 0.9130 0.9090 0.9080
5.716000 0.9080 0.9080 0.9080 0.9080 0.9080
5.750047 0.9080 0.9080 0.9130 0.9110 0.9060
5.784000 0.9010 0.9010 0.9010 0.9060 0.9060
5.818047 0.9060 0.9040 0.8970 0.8960 0.8910
5.852000 0.8890 0.8870 0.8870 0.8860 0.8860
5.886047 0.8840 0.8800 0.8790 0.8790 0.8800
5.920000 0.8860 0.8860 0.8800 0.8790 0.8790
5.954047 0.8790 0.8790 0.8790 0.8790 0.8770
5.988000 0.8750 0.8720 0.8670 0.8600 0.8580
6.022047 0.8570 0.8570 0.8550 0.8550 0.8530
6.056000 0.8530 0.8530 0.8530 0.8550 0.8630
6.090047 0.8740 0.8820 0.8840 0.8860 0.8870
6.124000 0.8890 0.8910 0.8920 0.8940 0.8970
6.158047 0.9010 0.9010 0.9010 0.9010 0.9030
6.193000 0.9030 0.9030 0.9060 0.9060 0.9030
6.227047 0.8960 0.8860 0.8800 0.8770 0.8790
6.261000 0.8860 0.8960 0.8970 0.8990 0.9010
6.295047 0.9010 0.9030 0.9010 0.8990 0.8910
6.329000 0.8910 0.8910 0.8910 0.8910 0.8910
6.363047 0.8910 0.8970 0.9060 0.9110 0.9130
6.397000 0.9140 0.9140 0.9130 0.9110 0.9090
6.431047 0.9060 0.9060 0.9090 0.9130 0.9140
6.465000 0.9180 0.9210 0.9230 0.9250 0.9250
6.499047 0.9260 0.9260 0.9250 0.9230 0.9210
6.533000 0.9210 0.9210 0.9210 0.9250 0.9280
6.567047 0.9280 0.9260 0.9250 0.9210 0.9210
6.601000 0.9260 0.9260 0.9210 0.9200 0.9160
6.635047 0.9180 0.9140 0.9130 0.9010 0.8860
6.669000 0.8720 0.8530 0.8360 0.8280 0.8230
6.703047 0.8230 0.8310 0.8520 0.8570 0.8650
6.737000 0.8690 0.8700 0.8740 0.8800 0.8860
6.771047 0.8870 0.8860 0.8860 0.8840 0.8840
6.805000 0.8770 0.8700 0.8630 0.8600 0.8580
6.839047 0.8520 0.8460 0.8360 0.8260 0.8190
6.873000 0.8070 0.8010 0.7970 0.7870 0.7800
6.907047 0.7750 0.7720 0.7630 0.7480 0.7210
6.941000 0.6810 0.6410 0.5710 0.5110 0.4520
6.975047 0.3410 0.3290 0.3180 0.3180 0.4010
7.009000 0.4280 0.4640 0.4940 0.5150 0.5520
7.043047 0.5610 0.5590 0.5520 0.5400 0.5390
7.077000 0.5390 0.5420 0.5560 0.5730 0.5950
7.111047 0.6100 0.6200 0.6320 0.6420 0.6580
7.145000 0.6950 0.7170 0.7390 0.7550 0.7600
7.179047 0.7600 0.7600 0.7560 0.7390 0.7100
7.213000 0.6920 0.6920 0.6970 0.7260 0.7510
7.247047 0.7720 0.7890 0.7940 0.7940 0.7890
7.281000 0.7340 0.6880 0.6680 0.6470 0.6000
7.315047 0.5960 0.6000 0.6320 0.7140 0.7560
7.350000 0.7770 0.7970 0.8190 0.8360 0.8520
7.384047 0.8620 0.8650 0.8670 0.8700 0.8720
7.418000 0.8740 0.8740 0.8740 0.8740 0.8720
7.452047 0.8700 0.8670 0.8650 0.8620 0.8620
7.486000 0.8620 0.8670 0.8720 0.8740 0.8750
7.520047 0.8750 0.8750 0.8750 0.8700 0.8570
7.554000 0.8480 0.8430 0.8400 0.8380 0.8350
7.588047 0.8330 0.8310 0.8290 0.8280 0.8260
7.622000 0.8230 0.8160 0.7990 0.7770 0.7530
7.656047 0.7240 0.7140 0.7120 0.7140 0.7190
7.690000 0.7270 0.7460 0.7670 0.7900 0.8060
7.724047 0.8180 0.8260 0.8290 0.8310 0.8330
7.758000 0.8360 0.8380 0.8380 0.8350 0.8310
7.792047 0.8260 0.8230 0.8160 0.8060 0.7950
7.826000 0.7800 0.7650 0.7500 0.7270 0.7000
7.860047 0.6800 0.6590 0.6070 0.5370 0.4470
7.894000 0.3670 0.3040 0.2390 0.1410 0.0980
7.928047 0.0760 0.0640 0.0470 0.0420 0.0420
7.962000 0.0420 0.0420 0.0440 0.0470 0.0520
7.996047 0.0680 0.0850 0.1050 0.1300 0.1630
8.030000 0.2020 0.2460 0.3010 0.4300 0.4960
8.064047 0.5640 0.6150 0.6590 0.7190 0.7390
8.098000 0.7560 0.7700 0.7850 0.7920 0.8010
8.132047 0.8110 0.8180 0.8230 0.8290 0.8330
8.166000 0.8350 0.8400 0.8410 0.8430 0.8450
8.200047 0.8480 0.8500 0.8520 0.8520 0.8520
8.234000 0.8530 0.8530 0.8520 0.8520 0.8500
8.268047 0.8480 0.8410 0.8350 0.8290 0.8230
8.302000 0.8160 0.8060 0.7990 0.7950 0.7890
8.336047 0.7840 0.7820 0.7840 0.7840 0.7800
8.370000 0.7730 0.7610 0.7460 0.7240 0.7000
8.404047 0.6710 0.6560 0.6410 0.6050 0.5660
8.439000 0.5230 0.4880 0.4810 0.4810 0.4810
8.473047 0.4880 0.5010 0.5080 0.5080 0.5060
8.507000 0.4810 0.4300 0.3670 0.3040 0.2410
8.541047 0.1440 0.0960 0.0690 0.0610 0.0610
8.575000 0.0620 0.0780 0.0900 0.1270 0.1680
8.609047 0.2360 0.2770 0.3210 0.4180 0.4670
8.643000 0.5170 0.5610 0.6020 0.6360 0.6590
8.677047 0.6950 0.7050 0.7140 0.7210 0.7270
8.711000 0.7310 0.7360 0.7410 0.7460 0.7480
8.745047 0.7510 0.7530 0.7550 0.7560 0.7550
8.779000 0.7530 0.7500 0.7430 0.7410 0.7310
8.813047 0.7260 0.7190 0.7100 0.7000 0.6920
8.847000 0.6800 0.6730 0.6640 0.6490 0.6300
8.881047 0.6120 0.5900 0.5680 0.5440 0.5130
8.915000 0.4860 0.4550 0.4140 0.3600 0.3310
8.949047 0.3010 0.2310 0.1930 0.1590 0.1510
8.983000 0.1510 0.1530 0.1680 0.1780 0.1850
9.017047 0.2070 0.2310 0.2460 0.2530 0.2600
9.051000 0.2610 0.2630 0.2610 0.2560 0.2460
9.085047 0.2360 0.2270 0.2170 0.2050 0.1970
9.119000 0.1870 0.1780 0.1700 0.1630 0.1560
9.153047 0.1510 0.1460 0.1360 0.1290 0.1220
9.187000 0.1190 0.1150 0.1070 0.1050 0.1020
9.221047 0.1000 0.0980 0.0960 0.0930 0.0910
9.255000 0.0910 0.0900 0.0900 0.0900 0.0880
9.289047 0.0860 0.0860 0.0860 0.0830 0.0830
9.323000 0.0810 0.0790 0.0780 0.0740 0.0730
9.357047 0.0710 0.0690 0.0680 0.0660 0.0660
9.391000 0.0620 0.0620 0.0610 0.0610 0.0590
9.425047 0.0570 0.0570 0.0570 0.0570 0.0570
9.459000 0.0570 0.0560 0.0560 0.0540 0.0540
9.493047 0.0540 0.0520 0.0510 0.0490 0.0450
9.527000 0.0440 0.0420 0.0400 0.0390 0.0390
9.561047 0.0370 0.0370 0.0350 0.0340 0.0340
9.596000 0.0320 0.0300 0.0300 0.0300 0.0300
9.630047 0.0300 0.0300 0.0300 0.0320 0.0320
9.664000 0.0340 0.0340 0.0340 0.0350 0.0350
9.698047 0.0370 0.0370 0.0390 0.0390 0.0400
9.732000 0.0420 0.0440 0.0470 0.0510 0.0560
9.766047 0.0590 0.0660 0.0730 0.0790 0.0860
9.800000 0.0960 0.1050 0.1170 0.1290 0.1410
9.834047 0.1540 0.1700 0.1850 0.2000 0.2170
9.868000 0.2340 0.2510 0.2670 0.2840 0.3010
9.902047 0.3180 0.3500 0.3650 0.3840 0.4040
9.936000 0.4180 0.4330 0.4470 0.4620 0.4760
9.970047 0.4860 0.4960 0.5030 0.5050 0.5100
10.004000 0.5150 0.5230 0.5340 0.5490 0.5690
10.038047 0.5950 0.6100 0.6270 0.6460 0.6560
10.072000 0.6630 0.6750 0.6830 0.6880 0.6970
10.106047 0.7000 0.7050 0.7100 0.7170 0.7220
10.140000 0.7290 0.7320 0.7380 0.7430 0.7480
10.174047 0.7530 0.7560 0.7600 0.7630 0.7680
10.208000 0.7730 0.7770 0.7820 0.7870 0.7900
10.242047 0.7920 0.7940 0.7990 0.8010 0.8010
10.276000 0.8020 0.8020 0.8040 0.8020 0.8040
10.310047 0.8040 0.8070 0.8110 0.8120 0.8140
10.344000 0.8160 0.8190 0.8230 0.8260 0.8290
10.378047 0.8330 0.8350 0.8380 0.8400 0.8410
10.412000 0.8430 0.8460 0.8460 0.8480 0.8500
10.446047 0.8500 0.8520 0.8520 0.8520 0.8520
10.480000 0.8530 0.8530 0.8550 0.8570 0.8570
10.514047 0.8570 0.8570 0.8580 0.8580 0.8580
10.548000 0.8580 0.8620 0.8630 0.8650 0.8650
10.582047 0.8650 0.8650 0.8670 0.8670 0.8690
10.616000 0.8700 0.8700 0.8700 0.8700 0.8700
10.650047 0.8700 0.8700 0.8700 0.8720 0.8740
10.684000 0.8740 0.8750 0.8750 0.8750 0.8770
10.718047 0.8770 0.8770 0.8770 0.8750 0.8740
10.753000 0.8740 0.8740 0.8740 0.8740 0.8740
10.787047 0.8740 0.8720 0.8720 0.8700 0.8700
10.821000 0.8690 0.8690 0.8670 0.8630 0.8620
10.855047 0.8570 0.8520 0.8480 0.8450 0.8430
10.889000 0.8410 0.8400 0.8380 0.8360 0.8310
10.923047 0.8280 0.8230 0.8210 0.8180 0.8120
10.957000 0.8060 0.7990 0.7920 0.7850 0.7780
10.991047 0.7700 0.7630 0.7550 0.7480 0.7430
11.025000 0.7360 0.7320 0.7220 0.7100 0.6900
11.059047 0.6780 0.6640 0.6300 0.5980 0.5690
11.093000 0.5490 0.5350 0.5270 0.5200 0.5150
11.127047 0.5110 0.5110 0.5110 0.5100 0.5100
11.161000 0.5080 0.5080 0.5060 0.5010 0.5010
11.195047 0.4960 0.4940 0.4980 0.5100 0.5180
11.229000 0.5280 0.5420 0.5570 0.5740 0.5930
11.263047 0.6100 0.6240 0.6370 0.6460 0.6560
11.297000 0.6730 0.6800 0.6830 0.6900 0.6930
11.331047 0.6970 0.6980 0.7020 0.7040 0.7050
11.365000 0.7070 0.7070 0.7090 0.7090 0.7090
11.399047 0.7050 0.6970 0.6900 0.6850 0.6800
11.433000 0.6750 0.6710 0.6660 0.6540 0.6420
11.467047 0.6270 0.6100 0.5930 0.5760 0.5570
11.501000 0.5390 0.5200 0.5000 0.4820 0.4640
11.535047 0.4480 0.4330 0.4200 0.4060 0.3960
11.569000 0.3860 0.3770 0.3700 0.3670 0.3630
11.603047 0.3600 0.3570 0.3550 0.3530 0.3530
11.637000 0.3530 0.3530 0.3530 0.3550 0.3570
11.671047 0.3570 0.3580 0.3600 0.3600 0.3630
11.705000 0.3650 0.3670 0.3690 0.3720 0.3740
11.739047 0.3770 0.3800 0.3860 0.3890 0.3920
11.773000 0.3960 0.3990 0.4010 0.4010 0.4010
11.807047 0.4030 0.4030 0.4030 0.4030 0.4030
11.842000 0.4030 0.4030 0.4010 0.3990 0.3970
11.876047 0.3920 0.3870 0.3820 0.3750 0.3700
11.910000 0.3620 0.3550 0.3450 0.3360 0.3310
11.944047 0.3240 0.3120 0.2970 0.2870 0.2730
11.978000 0.2600 0.2460 0.2320 0.2170 0.2040
12.012047 0.1900 0.1750 0.1610 0.1470 0.1340
12.046000 0.1220 0.1120 0.1020 0.0910 0.0830
12.080047 0.0760 0.0680 0.0620 0.0560 0.0520
12.114000 0.0510 0.0490 0.0450 0.0420 0.0420
12.148047 0.0400 0.0400 0.0390 0.0390 0.0390
12.182000 0.0370 0.0370 0.0350 0.0350 0.0350
12.216047 0.0370 0.0370 0.0370 0.0350 0.0350
12.250000 0.0350 0.0370 0.0390 0.0390 0.0390
12.284047 0.0390 0.0390 0.0390 0.0390 0.0390
12.318000 0.0390 0.0390 0.0390 0.0370 0.0370
12.352047 0.0370 0.0370 0.0370 0.0370 0.0370
12.386000 0.0370 0.0370 0.0350 0.0340 0.0320
12.420047 0.0320 0.0300 0.0300 0.0300 0.0300
12.454000 0.0300 0.0300 0.0300 0.0280 0.0280
12.488047 0.0280 0.0280 0.0280 0.0280 0.0270
12.522000 0.0270 0.0270 0.0270 0.0270 0.0280
12.556047 0.0280 0.0300 0.0300 0.0300 0.0300
12.590000 0.0300 0.0300 0.0300 0.0280 0.0280
12.624047 0.0280 0.0280 0.0270 0.0270 0.0270
12.658000 0.0270 0.0280 0.0280 0.0280 0.0300
12.692047 0.0320 0.0340 0.0350 0.0370 0.0390
12.726000 0.0400 0.0440 0.0450 0.0490 0.0510
12.760047 0.0520 0.0520 0.0560 0.0570 0.0590
12.794000 0.0610 0.0620 0.0640 0.0660 0.0680
12.828047 0.0680 0.0680 0.0680 0.0680 0.0680
12.862000 0.0660 0.0680 0.0680 0.0680 0.0680
12.896047 0.0680 0.0680 0.0690 0.0730 0.0740
12.930000 0.0790 0.0810 0.0860 0.0880 0.0910
12.964047 0.0950 0.1020 0.1080 0.1170 0.1270
12.999000 0.1390 0.1530 0.1680 0.1830 0.2020
13.033047 0.2190 0.2390 0.2600 0.2780 0.2990
13.067000 0.3190 0.3580 0.3800 0.3990 0.4180
13.101047 0.4350 0.4520 0.4650 0.4790 0.4930
13.135000 0.5050 0.5150 0.5270 0.5370 0.5470
13.169047 0.5560 0.5640 0.5680 0.5730 0.5760
13.203000 0.5830 0.5880 0.5910 0.5960 0.6000
13.237047 0.6000 0.6000 0.5980 0.5960 0.5950
13.271000 0.5900 0.5830 0.5780 0.5730 0.5680
13.305047 0.5590 0.5540 0.5450 0.5350 0.5300
13.339000 0.5230 0.5180 0.5110 0.5080 0.5050
13.373047 0.5000 0.5000 0.5000 0.5000 0.5030
13.407000 0.5060 0.5100 0.5130 0.5170 0.5180
13.441047 0.5200 0.5220 0.5230 0.5230 0.5270
13.475000 0.5270 0.5270 0.5220 0.5170 0.5100
13.509047 0.5010 0.4930 0.4820 0.4690 0.4540
13.543000 0.4400 0.4250 0.4080 0.3920 0.3750
13.577047 0.3580 0.3450 0.3380 0.3310 0.3210
13.611000 0.3070 0.2940 0.2840 0.2750 0.2730
13.645047 0.2650 0.2560 0.2510 0.2510 0.2480
13.679000 0.2460 0.2410 0.2390 0.2360 0.2360
13.713047 0.2340 0.2320 0.2320 0.2320 0.2320
13.747000 0.2340 0.2360 0.2380 0.2410 0.2510
13.781047 0.2630 0.2770 0.2920 0.3090 0.3280
13.815000 0.3700 0.3940 0.4140 0.4370 0.4600
13.849047 0.4820 0.5010 0.5200 0.5350 0.5510
13.883000 0.5640 0.5780 0.5900 0.6020 0.6120
13.917047 0.6220 0.6320 0.6410 0.6490 0.6560
13.951000 0.6630 0.6660 0.6730 0.6760 0.6780
13.985047 0.6800 0.6800 0.6800 0.6810 0.6810
14.019000 0.6810 0.6800 0.6780 0.6750 0.6730
14.053047 0.6700 0.6680 0.6640 0.6590 0.6540
14.088000 0.6470 0.6390 0.6290 0.6190 0.6080
14.122047 0.5960 0.5830 0.5710 0.5570 0.5420
14.156000 0.5270 0.5110 0.4940 0.4770 0.4590
14.190047 0.4420 0.4210 0.4030 0.3820 0.3600
14.224000 0.3380 0.3290 0.3190 0.3010 0.2820
14.258047 0.2630 0.2460 0.2310 0.2190 0.2100
14.292000 0.2040 0.1950 0.1880 0.1850 0.1760
14.326047 0.1730 0.1710 0.1680 0.1680 0.1660
14.360000 0.1640 0.1660 0.1680 0.1710 0.1760
14.394047 0.1850 0.1900 0.1950 0.2000 0.2090
14.428000 0.2190 0.2290 0.2430 0.2560 0.2730
14.462047 0.2900 0.3090 0.3240 0.3550 0.3690
14.496000 0.3820 0.3960 0.4080 0.4180 0.4260
14.530047 0.4370 0.4480 0.4520 0.4600 0.4690
14.564000 0.4760 0.4820 0.4890 0.4930 0.4960
14.598047 0.5010 0.5060 0.5100 0.5130 0.5150
14.632000 0.5180 0.5200 0.5220 0.5230 0.5270
14.666047 0.5280 0.5320 0.5340 0.5350 0.5370
14.700000 0.5390 0.5420 0.5450 0.5470 0.5470
14.734047 0.5510 0.5520 0.5570 0.5590 0.5620
14.768000 0.5680 0.5710 0.5730 0.5760 0.5780
14.802047 0.5810 0.5850 0.5880 0.5910 0.5960
14.836000 0.6020 0.6070 0.6120 0.6170 0.6240
14.870047 0.6300 0.6370 0.6410 0.6440 0.6490
14.904000 0.6510 0.6540 0.6590 0.6630 0.6700
14.938047 0.6710 0.6760 0.6780 0.6780 0.6800
14.972000 0.6810 0.6810 0.6810 0.6810 0.6800
15.006047 0.6780 0.6760 0.6710 0.6680 0.6660
15.040000 0.6630 0.6560 0.6510 0.6440 0.6360
15.074047 0.6270 0.6200 0.6150 0.6030 0.6020
15.108000 0.5930 0.5830 0.5730 0.5680 0.5680
15.142047 0.5610 0.5570 0.5510 0.5470 0.5450
15.176000 0.5440 0.5420 0.5420 0.5420 0.5420
15.210047 0.5420 0.5420 0.5400 0.5400 0.5390
15.245000 0.5390 0.5370 0.5350 0.5350 0.5350
15.279047 0.5350 0.5350 0.5350 0.5370 0.5390
15.313000 0.5390 0.5350 0.5350 0.5350 0.5340
15.347047 0.5340 0.5340 0.5340 0.5340 0.5340
15.381000 0.5350 0.5370 0.5370 0.5400 0.5470
15.415047 0.5490 0.5540 0.5590 0.5640 0.5690
15.449000 0.5760 0.5850 0.5910 0.6000 0.6080
15.483047 0.6170 0.6250 0.6320 0.6410 0.6490
15.517000 0.6560 0.6610 0.6710 0.6760 0.6810
15.551047 0.6870 0.6930 0.7000 0.7070 0.7120
15.585000 0.7170 0.7210 0.7220 0.7240 0.7260
15.619047 0.7260 0.7270 0.7270 0.7290 0.7310
15.653000 0.7340 0.7380 0.7380 0.7390 0.7390
15.687047 0.7390 0.7390 0.7390 0.7390 0.7390
15.721000 0.7390 0.7390 0.7390 0.7390 0.7390
15.755047 0.7380 0.7360 0.7360 0.7360 0.7340
15.789000 0.7340 0.7340 0.7320 0.7310 0.7290
15.823047 0.7290 0.7270 0.7270 0.7240 0.7220
15.857000 0.7210 0.7210 0.7190 0.7190 0.7190
15.891047 0.7150 0.7150 0.7140 0.7140 0.7100
15.925000 0.7070 0.7070 0.7040 0.7000 0.7000
15.959047 0.6980 0.6970 0.6970 0.6980 0.6970
15.993000 0.6900 0.6900 0.6970 0.6900
##END=
