##TITLE=(3-METHYL-1-BUTEN-2-YL) HYDANTOIN
##JCAMP-DX=4.24
##DATA TYPE=INFRARED SPECTRUM
##CLASS=COBLENTZ
##ORIGIN=ABBOTT LABORATORIES - WASHBURN
##OWNER=COBLENTZ SOCIETY
Collection (C) 2018 copyright by the U.S. Secretary of Commerce
on behalf of the United States of America. All rights reserved.
##DATE=Not specified, most likely prior to 1970
##NAMES=5-(1-isopropylvinyl)-2,4-imidazolidinedione
##MOLFORM=C8 H12 N2 O2
##SOURCE REFERENCE=COBLENTZ NO. 3474
##$NIST ID=B6003474
##$NIST SOURCE=COBLENTZ
##$NIST IMAGE=cob3474
##SPECTROMETER/DATA SYSTEM=PERKIN-ELMER
##STATE=SOLID (KBr PELLET)
##SAMPLING PROCEDURE=TRANSMISSION
##RESOLUTION=4
##DATA PROCESSING=DIGITIZED BY NIST FROM HARD COPY (FROM TWO SEGMENTS)
##XUNITS=MICROMETERS
##YUNITS=TRANSMITTANCE
##XFACTOR=1.000000
##YFACTOR=1
##DELTAX=0.006775
##FIRSTX=2.033
##LASTX=15.4001
##FIRSTY=0.709
##MAXX=15.4001
##MINX=2.033
##MAXY=0.794
##MINY=0.0202167
##NPOINTS=1974
##XYDATA=(X++(Y..Y))
2.033000 0.7090 0.7090 0.7090 0.7090 0.7090
2.066875 0.7090 0.7100 0.7100 0.7120 0.7120
2.100750 0.7146 0.7195 0.7242 0.7256 0.7220
2.134625 0.7220 0.7220 0.7222 0.7242 0.7263
2.168500 0.7290 0.7288 0.7260 0.7260 0.7260
2.202375 0.7260 0.7261 0.7272 0.7310 0.7310
2.236250 0.7310 0.7310 0.7310 0.7320 0.7321
2.270125 0.7341 0.7360 0.7371 0.7410 0.7420
2.304000 0.7420 0.7370 0.7340 0.7310 0.7320
2.337875 0.7340 0.7340 0.7360 0.7360 0.7321
2.371750 0.7342 0.7361 0.7370 0.7370 0.7374
2.405625 0.7413 0.7443 0.7470 0.7472 0.7490
2.439500 0.7490 0.7486 0.7440 0.7440 0.7440
2.473375 0.7440 0.7440 0.7439 0.7420 0.7420
2.507250 0.7421 0.7442 0.7491 0.7510 0.7510
2.541125 0.7520 0.7520 0.7540 0.7560 0.7560
2.575000 0.7560 0.7560 0.7540 0.7520 0.7490
2.608875 0.7470 0.7470 0.7470 0.7470 0.7470
2.642750 0.7492 0.7510 0.7515 0.7560 0.7561
2.676625 0.7572 0.7588 0.7572 0.7592 0.7613
2.710500 0.7640 0.7640 0.7639 0.7629 0.7609
2.744375 0.7589 0.7570 0.7573 0.7630 0.7627
2.778250 0.7570 0.7560 0.7559 0.7539 0.7509
2.812125 0.7469 0.7439 0.7409 0.7359 0.7289
2.846000 0.7240 0.7090 0.7050 0.6971 0.6920
2.879875 0.6900 0.6870 0.6772 0.6672 0.6621
2.913750 0.6579 0.6568 0.6543 0.6477 0.6438
2.947625 0.6325 0.6272 0.6196 0.6153 0.6077
2.981500 0.6042 0.5932 0.5824 0.5735 0.5659
3.015375 0.5637 0.5585 0.5504 0.5397 0.5159
3.049250 0.4942 0.4717 0.4615 0.4458 0.4052
3.083125 0.3771 0.3401 0.2995 0.2767 0.2618
3.117000 0.2470 0.2280 0.2131 0.2001 0.1891
3.150875 0.1761 0.1711 0.1680 0.1611 0.1541
3.184750 0.1488 0.1470 0.1470 0.1474 0.1518
3.218625 0.1599 0.1690 0.1789 0.1892 0.2027
3.252500 0.2204 0.2261 0.2282 0.2311 0.2329
3.286375 0.2308 0.2276 0.2209 0.2199 0.2183
3.320250 0.2236 0.2386 0.2557 0.2787 0.3005
3.354125 0.3173 0.3294 0.3461 0.3520 0.3517
3.388000 0.3360 0.2951 0.2950 0.2990 0.3040
3.421875 0.3218 0.3259 0.3457 0.3607 0.3933
3.455750 0.4140 0.4388 0.4455 0.4516 0.4660
3.489625 0.4735 0.4600 0.4602 0.4623 0.4662
3.523500 0.4792 0.4948 0.5056 0.5148 0.5264
3.557375 0.5322 0.5362 0.5392 0.5422 0.5463
3.591250 0.5512 0.5571 0.5611 0.5643 0.5730
3.625125 0.5740 0.5740 0.5729 0.5690 0.5680
3.659000 0.5660 0.5660 0.5680 0.5730 0.5789
3.692875 0.5958 0.6128 0.6258 0.6358 0.6478
3.726750 0.6613 0.6733 0.6846 0.6909 0.6998
3.760625 0.7077 0.7148 0.7222 0.7247 0.7326
3.794500 0.7395 0.7464 0.7521 0.7541 0.7561
3.828375 0.7570 0.7571 0.7591 0.7610 0.7609
3.862250 0.7590 0.7590 0.7590 0.7589 0.7571
3.896125 0.7591 0.7630 0.7641 0.7680 0.7680
3.930000 0.7680 0.7680 0.7680 0.7690 0.7690
3.963875 0.7690 0.7680 0.7680 0.7680 0.7680
3.997750 0.7657 0.7628 0.7612 0.7631 0.7640
4.031625 0.7642 0.7660 0.7662 0.7680 0.7681
4.065500 0.7694 0.7741 0.7760 0.7760 0.7755
4.099375 0.7689 0.7680 0.7680 0.7681 0.7690
4.133250 0.7690 0.7690 0.7690 0.7690 0.7690
4.167125 0.7679 0.7660 0.7660 0.7660 0.7640
4.201000 0.7640 0.7640 0.7640 0.7660 0.7680
4.234875 0.7680 0.7690 0.7710 0.7710 0.7710
4.268750 0.7731 0.7745 0.7795 0.7840 0.7837
4.302625 0.7810 0.7810 0.7810 0.7810 0.7812
4.336500 0.7832 0.7862 0.7890 0.7891 0.7910
4.370375 0.7911 0.7931 0.7940 0.7939 0.7930
4.404250 0.7930 0.7930 0.7940 0.7940 0.7940
4.438125 0.7940 0.7930 0.7930 0.7930 0.7940
4.472000 0.7930 0.7910 0.7910 0.7940 0.7940
4.505875 0.7930 0.7910 0.7890 0.7880 0.7880
4.539750 0.7880 0.7880 0.7880 0.7880 0.7880
4.573625 0.7880 0.7880 0.7880 0.7878 0.7860
4.607500 0.7859 0.7840 0.7840 0.7839 0.7827
4.641375 0.7789 0.7780 0.7781 0.7790 0.7790
4.675250 0.7790 0.7790 0.7780 0.7780 0.7791
4.709125 0.7810 0.7810 0.7830 0.7830 0.7810
4.743000 0.7810 0.7810 0.7830 0.7840 0.7840
4.776875 0.7840 0.7840 0.7840 0.7830 0.7830
4.810750 0.7808 0.7790 0.7787 0.7758 0.7735
4.844625 0.7687 0.7658 0.7640 0.7640 0.7640
4.878500 0.7640 0.7640 0.7641 0.7659 0.7638
4.912375 0.7610 0.7611 0.7630 0.7630 0.7630
4.946250 0.7630 0.7640 0.7641 0.7660 0.7661
4.980125 0.7680 0.7680 0.7690 0.7710 0.7710
5.014000 0.7710 0.7710 0.7709 0.7690 0.7660
5.047875 0.7660 0.7690 0.7690 0.7690 0.7690
5.081750 0.7680 0.7680 0.7690 0.7690 0.7690
5.115625 0.7680 0.7633 0.7611 0.7610 0.7610
5.149500 0.7610 0.7610 0.7610 0.7610 0.7626
5.183375 0.7630 0.7630 0.7615 0.7610 0.7610
5.217250 0.7610 0.7610 0.7595 0.7575 0.7562
5.251125 0.7545 0.7525 0.7513 0.7477 0.7448
5.285000 0.7428 0.7354 0.7269 0.7200 0.7153
5.318875 0.7118 0.7095 0.7090 0.7079 0.7024
5.352750 0.6961 0.6929 0.6909 0.6895 0.6879
5.386625 0.6818 0.6724 0.6665 0.6634 0.6593
5.420500 0.6517 0.6423 0.6344 0.6229 0.6115
5.454375 0.6046 0.5948 0.5792 0.5585 0.5360
5.488250 0.5143 0.4932 0.4727 0.4577 0.4470
5.522125 0.4193 0.3923 0.3483 0.3028 0.2408
5.556000 0.1981 0.1726 0.1425 0.1219 0.1038
5.589875 0.0781 0.0394 0.0223 0.0202 0.0213
5.623750 0.0237 0.0284 0.0316 0.0376 0.0539
5.657625 0.0750 0.0986 0.1198 0.1338 0.1663
5.691500 0.1860 0.1856 0.1795 0.1594 0.1362
5.725375 0.1215 0.1096 0.0986 0.0840 0.0880
5.759250 0.1419 0.1571 0.1590 0.1589 0.1560
5.793125 0.1049 0.0890 0.0722 0.0583 0.0356
5.827000 0.0242 0.0230 0.0299 0.0386 0.0592
5.860875 0.0894 0.1391 0.1772 0.2055 0.2438
5.894750 0.2584 0.2500 0.2480 0.2496 0.2556
5.928625 0.2846 0.3208 0.3482 0.3722 0.3745
5.962500 0.3618 0.3333 0.2904 0.2536 0.1939
5.996375 0.1367 0.1106 0.1003 0.0924 0.0866
6.030250 0.0800 0.0684 0.0522 0.0450 0.1141
6.064125 0.2022 0.2456 0.2807 0.3292 0.3653
6.098000 0.3857 0.4038 0.4189 0.4311 0.4425
6.131875 0.4587 0.4780 0.4947 0.5080 0.5154
6.165750 0.5226 0.5330 0.5371 0.5427 0.5490
6.199625 0.5539 0.5630 0.5640 0.5666 0.5683
6.233500 0.5708 0.5754 0.5790 0.5817 0.5846
6.267375 0.5899 0.5961 0.6022 0.6064 0.6118
6.301250 0.6167 0.6180 0.6186 0.6203 0.6222
6.335125 0.6264 0.6300 0.6303 0.6310 0.6319
6.369000 0.6354 0.6380 0.6383 0.6400 0.6402
6.402875 0.6420 0.6420 0.6421 0.6431 0.6451
6.436750 0.6470 0.6471 0.6482 0.6502 0.6522
6.470625 0.6551 0.6570 0.6569 0.6551 0.6570
6.504500 0.6579 0.6598 0.6618 0.6620 0.6620
6.538375 0.6620 0.6629 0.6630 0.6630 0.6630
6.572250 0.6630 0.6630 0.6647 0.6676 0.6697
6.606125 0.6700 0.6700 0.6684 0.6656 0.6650
6.640000 0.6650 0.6675 0.6722 0.6722 0.6704
6.673875 0.6700 0.6700 0.6700 0.6685 0.6672
6.707750 0.6656 0.6637 0.6610 0.6581 0.6545
6.741625 0.6499 0.6443 0.6366 0.6283 0.6180
6.775500 0.6039 0.5855 0.5620 0.5290 0.4920
6.809375 0.4717 0.4623 0.4456 0.4327 0.4278
6.843250 0.4255 0.4254 0.4290 0.4372 0.4467
6.877125 0.4572 0.4709 0.4846 0.4950 0.5007
6.911000 0.5028 0.5044 0.5078 0.5132 0.5158
6.944875 0.5170 0.5163 0.5140 0.5103 0.5044
6.978750 0.4909 0.4676 0.4460 0.4248 0.4069
7.012625 0.3805 0.3552 0.3377 0.3119 0.2934
7.046500 0.2744 0.2657 0.2586 0.2480 0.2257
7.080375 0.2123 0.2070 0.1997 0.1904 0.1860
7.114250 0.1858 0.1838 0.1824 0.1789 0.1774
7.148125 0.1722 0.1646 0.1519 0.1511 0.1523
7.182000 0.1573 0.1628 0.1726 0.1948 0.2166
7.215875 0.2226 0.2349 0.2514 0.2566 0.2659
7.249750 0.2714 0.2720 0.2702 0.2654 0.2650
7.283625 0.2712 0.2790 0.2991 0.3183 0.3346
7.317500 0.3429 0.3591 0.3672 0.3767 0.3849
7.351375 0.3920 0.3997 0.4152 0.4402 0.4653
7.385250 0.4837 0.4980 0.5069 0.5125 0.5147
7.419125 0.5197 0.5253 0.5303 0.5333 0.5359
7.453000 0.5395 0.5417 0.5433 0.5440 0.5440
7.486875 0.5389 0.5298 0.5205 0.5140 0.5072
7.520750 0.5069 0.5132 0.5189 0.5262 0.5352
7.554625 0.5390 0.5346 0.5225 0.5102 0.5017
7.588500 0.4829 0.4541 0.4212 0.3849 0.3687
7.622375 0.3489 0.3132 0.2853 0.2711 0.2562
7.656250 0.2500 0.2511 0.2587 0.2694 0.2746
7.690125 0.2789 0.2846 0.2947 0.3099 0.3241
7.724000 0.3383 0.3517 0.3671 0.3864 0.4122
7.757875 0.4393 0.4562 0.4735 0.4928 0.5097
7.791750 0.5258 0.5382 0.5516 0.5556 0.5635
7.825625 0.5668 0.5717 0.5771 0.5856 0.5968
7.859500 0.6035 0.6083 0.6111 0.6180 0.6200
7.893375 0.6229 0.6346 0.6398 0.6419 0.6467
7.927250 0.6498 0.6546 0.6569 0.6599 0.6629
7.961125 0.6649 0.6697 0.6718 0.6747 0.6795
7.995000 0.6862 0.6888 0.6890 0.6918 0.6938
8.028875 0.6940 0.6922 0.6902 0.6891 0.6847
8.062750 0.6763 0.6683 0.6631 0.6553 0.6186
8.096625 0.5771 0.5454 0.5216 0.5012 0.4766
8.130500 0.4546 0.4361 0.4182 0.4116 0.4173
8.164375 0.4241 0.4341 0.4513 0.4639 0.4844
8.198250 0.5042 0.5219 0.5318 0.5382 0.5466
8.232125 0.5575 0.5689 0.5812 0.5923 0.5978
8.266000 0.6027 0.6082 0.6133 0.6179 0.6214
8.299875 0.6267 0.6319 0.6339 0.6354 0.6386
8.333750 0.6424 0.6446 0.6504 0.6559 0.6574
8.367625 0.6597 0.6633 0.6662 0.6700 0.6746
8.401500 0.6770 0.6774 0.6793 0.6828 0.6855
8.435375 0.6875 0.6897 0.6920 0.6924 0.6942
8.469250 0.6958 0.6996 0.7020 0.7025 0.7042
8.503125 0.7054 0.7070 0.7061 0.7016 0.6998
8.537000 0.6982 0.6927 0.6841 0.6772 0.6616
8.570875 0.6499 0.6448 0.6360 0.6310 0.6201
8.604750 0.6200 0.6248 0.6298 0.6351 0.6480
8.638625 0.6579 0.6649 0.6796 0.6867 0.6918
8.672500 0.6939 0.6949 0.6987 0.7000 0.7039
8.706375 0.7050 0.7069 0.7089 0.7090 0.7090
8.740250 0.7090 0.7090 0.7072 0.7070 0.7070
8.774125 0.7070 0.7055 0.6990 0.6933 0.6847
8.808000 0.6791 0.6744 0.6639 0.6548 0.6418
8.841875 0.6211 0.6049 0.5831 0.5668 0.5519
8.875750 0.5367 0.5104 0.4914 0.4870 0.4927
8.909625 0.5069 0.5203 0.5376 0.5574 0.5772
8.943500 0.5918 0.6017 0.6100 0.6170 0.6216
8.977375 0.6266 0.6325 0.6375 0.6434 0.6470
9.011250 0.6451 0.6394 0.6332 0.6296 0.6197
9.045125 0.6062 0.5949 0.5816 0.5682 0.5456
9.079000 0.5178 0.4907 0.4508 0.4131 0.3824
9.112875 0.3565 0.3353 0.3177 0.3066 0.2974
9.146750 0.2885 0.2840 0.2847 0.2875 0.2931
9.180625 0.3066 0.3203 0.3491 0.3907 0.4272
9.214500 0.4462 0.4664 0.4878 0.5069 0.5244
9.248375 0.5469 0.5681 0.5850 0.5945 0.6019
9.282250 0.6077 0.6183 0.6308 0.6361 0.6432
9.316125 0.6472 0.6522 0.6581 0.6621 0.6680
9.350000 0.6730 0.6769 0.6819 0.6849 0.6890
9.383875 0.6900 0.6940 0.6950 0.6969 0.6989
9.417750 0.7000 0.7019 0.7039 0.7049 0.7050
9.451625 0.7066 0.7070 0.7070 0.7086 0.7098
9.485500 0.7100 0.7115 0.7120 0.7120 0.7120
9.519375 0.7120 0.7120 0.7105 0.7100 0.7100
9.553250 0.7100 0.7093 0.7076 0.7070 0.7055
9.587125 0.7013 0.6956 0.6904 0.6854 0.6762
9.621000 0.6548 0.6408 0.6197 0.5963 0.5732
9.654875 0.5477 0.5238 0.5074 0.4950 0.4816
9.688750 0.4750 0.4775 0.4859 0.4969 0.5045
9.722625 0.5134 0.5242 0.5331 0.5440 0.5569
9.756500 0.5683 0.5806 0.5908 0.5967 0.6000
9.790375 0.6010 0.6057 0.6107 0.6094 0.6074
9.824250 0.6057 0.6044 0.6024 0.6010 0.6010
9.858125 0.6007 0.6000 0.6003 0.6016 0.6035
9.892000 0.6066 0.6135 0.6215 0.6248 0.6322
9.925875 0.6376 0.6436 0.6493 0.6559 0.6662
9.959750 0.6707 0.6739 0.6784 0.6842 0.6858
9.993625 0.6904 0.6944 0.6991 0.7004 0.7074
10.027500 0.7143 0.7211 0.7241 0.7270 0.7270
10.061375 0.7270 0.7270 0.7271 0.7291 0.7320
10.095250 0.7340 0.7370 0.7390 0.7409 0.7420
10.129125 0.7438 0.7457 0.7460 0.7460 0.7468
10.163000 0.7486 0.7490 0.7506 0.7510 0.7518
10.196875 0.7520 0.7520 0.7520 0.7536 0.7556
10.230750 0.7568 0.7585 0.7575 0.7585 0.7590
10.264625 0.7590 0.7590 0.7606 0.7625 0.7615
10.298500 0.7610 0.7610 0.7595 0.7590 0.7576
10.332375 0.7570 0.7564 0.7560 0.7566 0.7570
10.366250 0.7593 0.7610 0.7599 0.7590 0.7590
10.400125 0.7612 0.7630 0.7630 0.7630 0.7630
10.434000 0.7619 0.7600 0.7575 0.7560 0.7560
10.467875 0.7564 0.7570 0.7570 0.7566 0.7560
10.501750 0.7563 0.7570 0.7577 0.7596 0.7610
10.535625 0.7610 0.7621 0.7647 0.7667 0.7674
10.569500 0.7654 0.7625 0.7590 0.7604 0.7654
10.603375 0.7690 0.7687 0.7674 0.7654 0.7640
10.637250 0.7654 0.7690 0.7687 0.7680 0.7680
10.671125 0.7680 0.7680 0.7678 0.7658 0.7640
10.705000 0.7640 0.7640 0.7639 0.7630 0.7629
10.738875 0.7609 0.7587 0.7557 0.7519 0.7509
10.772750 0.7488 0.7459 0.7439 0.7409 0.7370
10.806625 0.7370 0.7388 0.7390 0.7390 0.7408
10.840500 0.7419 0.7420 0.7420 0.7437 0.7440
10.874375 0.7456 0.7460 0.7425 0.7411 0.7376
10.908250 0.7370 0.7362 0.7360 0.7368 0.7386
10.942125 0.7406 0.7435 0.7465 0.7503 0.7550
10.976000 0.7560 0.7568 0.7570 0.7601 0.7625
11.009875 0.7637 0.7640 0.7653 0.7673 0.7686
11.043750 0.7690 0.7690 0.7690 0.7690 0.7684
11.077625 0.7680 0.7668 0.7648 0.7640 0.7652
11.111500 0.7677 0.7690 0.7701 0.7721 0.7746
11.145375 0.7760 0.7750 0.7736 0.7730 0.7722
11.179250 0.7702 0.7686 0.7665 0.7640 0.7654
11.213125 0.7673 0.7660 0.7660 0.7660 0.7660
11.247000 0.7660 0.7667 0.7680 0.7680 0.7680
11.280875 0.7680 0.7680 0.7680 0.7673 0.7650
11.314750 0.7630 0.7630 0.7633 0.7640 0.7646
11.348625 0.7660 0.7660 0.7660 0.7657 0.7640
11.382500 0.7640 0.7639 0.7628 0.7608 0.7594
11.416375 0.7630 0.7630 0.7627 0.7608 0.7592
11.450250 0.7610 0.7610 0.7608 0.7591 0.7610
11.484125 0.7609 0.7590 0.7588 0.7569 0.7558
11.518000 0.7539 0.7520 0.7520 0.7508 0.7470
11.551875 0.7460 0.7460 0.7442 0.7413 0.7392
11.585750 0.7390 0.7372 0.7361 0.7326 0.7278
11.619625 0.7228 0.7179 0.7126 0.7059 0.6964
11.653500 0.6882 0.6769 0.6609 0.6474 0.6337
11.687375 0.6222 0.6066 0.5893 0.5703 0.5552
11.721250 0.5483 0.5437 0.5414 0.5416 0.5433
11.755125 0.5520 0.5612 0.5704 0.5773 0.5867
11.789000 0.5973 0.6097 0.6187 0.6282 0.6348
11.822875 0.6412 0.6496 0.6572 0.6631 0.6698
11.856750 0.6772 0.6829 0.6902 0.6946 0.6961
11.890625 0.6981 0.6995 0.7019 0.7053 0.7078
11.924500 0.7090 0.7090 0.7094 0.7100 0.7107
11.958375 0.7120 0.7113 0.7107 0.7120 0.7128
11.992250 0.7140 0.7133 0.7120 0.7113 0.7100
12.026125 0.7097 0.7090 0.7107 0.7150 0.7148
12.060000 0.7136 0.7116 0.7098 0.7090 0.7090
12.093875 0.7087 0.7067 0.7050 0.7050 0.7048
12.127750 0.7037 0.7017 0.6999 0.6987 0.6970
12.161625 0.6968 0.6949 0.6940 0.6937 0.6920
12.195500 0.6918 0.6899 0.6888 0.6870 0.6868
12.229375 0.6848 0.6818 0.6780 0.6770 0.6751
12.263250 0.6750 0.6750 0.6732 0.6721 0.6684
12.297125 0.6653 0.6632 0.6587 0.6571 0.6570
12.331000 0.6597 0.6600 0.6556 0.6507 0.6483
12.364875 0.6472 0.6436 0.6405 0.6400 0.6349
12.398750 0.6316 0.6275 0.6253 0.6236 0.6210
12.432625 0.6173 0.6153 0.6137 0.6116 0.6089
12.466500 0.6060 0.6037 0.6017 0.6010 0.5991
12.500375 0.5955 0.5934 0.5930 0.5917 0.5890
12.534250 0.5880 0.5855 0.5790 0.5729 0.5698
12.568125 0.5720 0.5740 0.5740 0.5735 0.5711
12.602000 0.5676 0.5646 0.5630 0.5630 0.5630
12.635875 0.5630 0.5630 0.5653 0.5690 0.5668
12.669750 0.5636 0.5613 0.5590 0.5598 0.5622
12.703625 0.5640 0.5640 0.5640 0.5640 0.5637
12.737500 0.5625 0.5605 0.5579 0.5540 0.5534
12.771375 0.5502 0.5468 0.5453 0.5411 0.5346
12.805250 0.5246 0.5172 0.5067 0.4890 0.4720
12.839125 0.4537 0.4309 0.3976 0.3728 0.3484
12.873000 0.3306 0.3229 0.3167 0.3153 0.3196
12.906875 0.3382 0.3485 0.3628 0.3798 0.3890
12.940750 0.3979 0.4058 0.4157 0.4179 0.4199
12.974625 0.4209 0.4229 0.4230 0.4139 0.4101
13.008500 0.3986 0.3661 0.3612 0.3592 0.3563
13.042375 0.3407 0.3257 0.3064 0.2918 0.2805
13.076250 0.2703 0.2657 0.2650 0.2724 0.2815
13.110125 0.2897 0.2941 0.2985 0.3014 0.3071
13.144000 0.3053 0.3004 0.2954 0.2926 0.2920
13.177875 0.2906 0.2900 0.2926 0.2959 0.2991
13.211750 0.3049 0.3138 0.3197 0.3263 0.3336
13.245625 0.3392 0.3480 0.3545 0.3578 0.3629
13.279500 0.3701 0.3765 0.3824 0.3884 0.3924
13.313375 0.3958 0.3957 0.3921 0.3880 0.3813
13.347250 0.3747 0.3673 0.3580 0.3484 0.3388
13.381125 0.3278 0.3170 0.3060 0.2957 0.2865
13.415000 0.2814 0.2792 0.2765 0.2750 0.2755
13.448875 0.2772 0.2794 0.2851 0.2892 0.2922
13.482750 0.3018 0.3090 0.3166 0.3240 0.3321
13.516625 0.3372 0.3434 0.3509 0.3608 0.3699
13.550500 0.3771 0.3886 0.3934 0.4034 0.4064
13.584375 0.4142 0.4210 0.4266 0.4308 0.4367
13.618250 0.4422 0.4481 0.4502 0.4600 0.4600
13.652125 0.4669 0.4670 0.4680 0.4699 0.4747
13.686000 0.4780 0.4820 0.4849 0.4869 0.4889
13.719875 0.4937 0.4996 0.5019 0.5048 0.5086
13.753750 0.5119 0.5168 0.5189 0.5190 0.5190
13.787625 0.5208 0.5237 0.5267 0.5305 0.5336
13.821500 0.5300 0.5290 0.5290 0.5328 0.5340
13.855375 0.5318 0.5310 0.5310 0.5310 0.5310
13.889250 0.5317 0.5349 0.5367 0.5363 0.5360
13.923125 0.5360 0.5360 0.5360 0.5360 0.5334
13.957000 0.5320 0.5331 0.5351 0.5360 0.5360
13.990875 0.5360 0.5360 0.5360 0.5360 0.5351
14.024750 0.5340 0.5330 0.5320 0.5320 0.5305
14.058625 0.5290 0.5281 0.5265 0.5251 0.5231
14.092500 0.5220 0.5206 0.5190 0.5190 0.5190
14.126375 0.5190 0.5190 0.5182 0.5162 0.5146
14.160250 0.5133 0.5111 0.5079 0.5050 0.5042
14.194125 0.5020 0.5015 0.5000 0.4998 0.4990
14.228000 0.4986 0.4965 0.4943 0.4913 0.4890
14.261875 0.4886 0.4870 0.4870 0.4870 0.4861
14.295750 0.4814 0.4780 0.4779 0.4769 0.4750
14.329625 0.4750 0.4749 0.4730 0.4700 0.4680
14.363500 0.4680 0.4680 0.4680 0.4680 0.4680
14.397375 0.4680 0.4670 0.4680 0.4680 0.4680
14.431250 0.4680 0.4680 0.4680 0.4680 0.4680
14.465125 0.4680 0.4670 0.4670 0.4670 0.4633
14.499000 0.4603 0.4600 0.4584 0.4556 0.4526
14.532875 0.4481 0.4439 0.4430 0.4407 0.4400
14.566750 0.4400 0.4400 0.4400 0.4385 0.4380
14.600625 0.4380 0.4380 0.4380 0.4380 0.4394
14.634500 0.4414 0.4426 0.4430 0.4413 0.4400
14.668375 0.4378 0.4360 0.4371 0.4380 0.4401
14.702250 0.4420 0.4399 0.4369 0.4360 0.4355
14.736125 0.4340 0.4330 0.4320 0.4305 0.4300
14.770000 0.4300 0.4305 0.4310 0.4320 0.4330
14.803875 0.4354 0.4390 0.4400 0.4400 0.4409
14.837750 0.4420 0.4420 0.4423 0.4430 0.4430
14.871625 0.4436 0.4450 0.4459 0.4486 0.4505
14.905500 0.4523 0.4540 0.4585 0.4620 0.4595
14.939375 0.4522 0.4500 0.4505 0.4520 0.4527
14.973250 0.4557 0.4588 0.4624 0.4653 0.4685
15.007125 0.4732 0.4748 0.4727 0.4679 0.4669
15.041000 0.4647 0.4579 0.4548 0.4526 0.4479
15.074875 0.4469 0.4450 0.4449 0.4399 0.4350
15.108750 0.4310 0.4261 0.4207 0.4148 0.4099
15.142625 0.4059 0.3979 0.3831 0.3781 0.3761
15.176500 0.3693 0.3614 0.3436 0.3333 0.3227
15.210375 0.3135 0.3063 0.2945 0.2864 0.2795
15.244250 0.2733 0.2651 0.2565 0.2509 0.2476
15.278125 0.2454 0.2434 0.2430 0.2461 0.2493
15.312000 0.2515 0.2579 0.2620 0.2643 0.2700
15.345875 0.2761 0.2822 0.2874 0.2954 0.3057
15.379750 0.3122 0.3157 0.3372 0.3711
##END=
