##TITLE=1-PHENYL-3-CYCLOPENTADIENYL 1,1,3,3-TETRAMETHYL DISILOXANE
##JCAMP-DX=4.24
##DATA TYPE=INFRARED SPECTRUM
##CLASS=COBLENTZ
##ORIGIN=WYANDOTTE CHEMICALS CORP., WYANDOTTE, MICHIGAN, USA
##OWNER=COBLENTZ SOCIETY
Collection (C) 2018 copyright by the U.S. Secretary of Commerce
on behalf of the United States of America. All rights reserved.
##DATE=Not specified, most likely prior to 1970
##NAMES=1-(2,4-cyclopentadien-1-yl)-1,1,3,3-tetramethyl-3-phenyldisiloxane
2,4-cyclopentadien-1-yl(dimethyl)silyl dimethyl(phenyl)silyl ether
##MOLFORM=C15 H22 Si2 O
##SOURCE REFERENCE=COBLENTZ NO. 2800
##$NIST ID=B6002800
##$NIST SOURCE=COBLENTZ
##$NIST IMAGE=cob2800
##SPECTROMETER/DATA SYSTEM=Not specified, most likely a prism, grating, or hybrid spectrometer.
##STATE=LIQUID
##PATH LENGTH=0.003 CM
##SAMPLING PROCEDURE=TRANSMISSION
##RESOLUTION=4
##DATA PROCESSING=DIGITIZED BY NIST FROM HARD COPY
##XUNITS=MICROMETERS
##YUNITS=TRANSMITTANCE
##XFACTOR=1.000000
##YFACTOR=1
##DELTAX=000.006616
##FIRSTX=2.046
##LASTX=15.9929
##FIRSTY=0.973
##MAXX=15.9929
##MINX=2.046
##MAXY=1.004
##MINY=0.023
##NPOINTS=2109
##XYDATA=(X++(Y..Y))
2.046000 0.9730 0.9710 0.9700 0.9700 0.9700
2.079097 0.9710 0.9750 0.9760 0.9760 0.9760
2.112000 0.9760 0.9760 0.9760 0.9760 0.9760
2.145097 0.9750 0.9750 0.9710 0.9700 0.9680
2.179000 0.9680 0.9680 0.9680 0.9680 0.9710
2.212097 0.9730 0.9800 0.9800 0.9800 0.9800
2.245000 0.9800 0.9800 0.9800 0.9800 0.9760
2.278097 0.9750 0.9730 0.9730 0.9730 0.9750
2.311000 0.9750 0.9760 0.9760 0.9760 0.9750
2.344097 0.9730 0.9730 0.9710 0.9700 0.9700
2.377000 0.9680 0.9660 0.9680 0.9700 0.9730
2.410097 0.9760 0.9780 0.9800 0.9810 0.9810
2.443000 0.9810 0.9830 0.9850 0.9830 0.9810
2.476097 0.9800 0.9760 0.9710 0.9650 0.9630
2.509000 0.9630 0.9630 0.9680 0.9710 0.9750
2.542097 0.9760 0.9760 0.9750 0.9730 0.9730
2.576000 0.9730 0.9730 0.9730 0.9730 0.9730
2.609097 0.9730 0.9710 0.9710 0.9660 0.9630
2.642000 0.9630 0.9630 0.9660 0.9680 0.9680
2.675097 0.9700 0.9710 0.9710 0.9710 0.9710
2.708000 0.9710 0.9710 0.9710 0.9730 0.9730
2.741097 0.9730 0.9750 0.9760 0.9800 0.9810
2.774000 0.9830 0.9860 0.9880 0.9880 0.9880
2.807097 0.9900 0.9900 0.9900 0.9900 0.9900
2.840000 0.9900 0.9900 0.9930 0.9960 1.0000
2.873097 1.0010 1.0010 1.0010 1.0010 1.0010
2.906000 1.0010 1.0000 0.9960 0.9950 0.9910
2.939097 0.9900 0.9900 0.9900 0.9910 0.9910
2.973000 0.9910 0.9930 0.9950 0.9950 0.9930
3.006097 0.9930 0.9930 0.9930 0.9930 0.9900
3.039000 0.9880 0.9860 0.9860 0.9830 0.9830
3.072097 0.9830 0.9830 0.9830 0.9830 0.9830
3.105000 0.9830 0.9830 0.9810 0.9800 0.9800
3.138097 0.9730 0.9680 0.9650 0.9630 0.9600
3.171000 0.9550 0.9460 0.9330 0.9110 0.9000
3.204097 0.8880 0.8400 0.7170 0.5740 0.5340
3.237000 0.5130 0.4910 0.4900 0.4910 0.6320
3.270097 0.6970 0.7040 0.7040 0.6810 0.6570
3.303000 0.6560 0.6590 0.6960 0.6960 0.6940
3.336097 0.5890 0.4850 0.3780 0.2690 0.2670
3.370000 0.2690 0.3700 0.4230 0.5940 0.7500
3.403097 0.7620 0.7620 0.6990 0.6740 0.6490
3.436000 0.6470 0.6490 0.7090 0.7490 0.7820
3.469097 0.8120 0.8350 0.8550 0.8720 0.8830
3.502000 0.8950 0.9010 0.9080 0.9100 0.9130
3.535097 0.9150 0.9200 0.9280 0.9330 0.9350
3.568000 0.9360 0.9360 0.9380 0.9410 0.9500
3.601097 0.9550 0.9650 0.9710 0.9750 0.9800
3.634000 0.9810 0.9830 0.9830 0.9850 0.9850
3.667097 0.9850 0.9850 0.9850 0.9850 0.9860
3.700000 0.9860 0.9880 0.9880 0.9900 0.9900
3.733097 0.9910 0.9930 0.9930 0.9950 0.9950
3.767000 0.9950 0.9960 0.9960 0.9960 0.9960
3.800097 0.9980 0.9980 0.9980 0.9980 0.9980
3.833000 0.9980 0.9980 0.9980 0.9980 0.9980
3.866097 0.9980 0.9980 0.9980 0.9980 0.9980
3.899000 0.9980 0.9980 0.9980 0.9980 1.0000
3.932097 1.0000 1.0000 0.9980 0.9980 0.9980
3.965000 1.0000 1.0040 1.0040 1.0040 1.0040
3.998097 1.0030 1.0010 1.0010 1.0000 0.9960
4.031000 0.9960 0.9950 0.9950 0.9950 0.9960
4.064097 0.9960 1.0000 1.0010 1.0010 1.0010
4.097000 1.0010 1.0010 1.0010 1.0010 1.0010
4.130097 1.0010 1.0010 1.0010 1.0030 1.0030
4.164000 1.0030 1.0030 1.0030 1.0030 1.0030
4.197097 1.0030 1.0030 1.0040 1.0040 1.0040
4.230000 1.0040 1.0040 1.0040 1.0040 1.0040
4.263097 1.0040 1.0040 1.0040 1.0030 1.0030
4.296000 1.0010 1.0010 1.0000 0.9980 0.9980
4.329097 0.9960 0.9950 0.9930 0.9910 0.9900
4.362000 0.9900 0.9900 0.9910 0.9960 0.9980
4.395097 0.9980 0.9980 0.9980 1.0000 1.0000
4.428000 1.0010 1.0010 1.0010 1.0010 1.0010
4.461097 1.0000 1.0000 1.0000 1.0000 1.0000
4.494000 1.0000 0.9980 0.9980 0.9980 0.9980
4.527097 0.9980 1.0000 1.0000 1.0000 1.0000
4.560000 1.0000 1.0000 1.0000 1.0000 1.0000
4.593097 1.0000 0.9980 0.9980 0.9980 0.9980
4.627000 0.9960 0.9960 0.9960 0.9960 0.9960
4.660097 0.9960 0.9960 0.9980 0.9980 0.9980
4.693000 0.9980 0.9980 0.9980 1.0000 1.0000
4.726097 1.0000 1.0000 1.0010 1.0010 1.0010
4.759000 1.0010 1.0010 1.0010 1.0000 1.0000
4.792097 1.0000 1.0000 1.0000 0.9980 0.9960
4.825000 0.9960 0.9960 0.9960 0.9960 0.9980
4.858097 1.0000 1.0000 0.9980 0.9980 0.9980
4.891000 0.9980 0.9980 0.9960 0.9960 0.9960
4.924097 0.9950 0.9950 0.9950 0.9930 0.9910
4.957000 0.9910 0.9910 0.9930 0.9950 0.9980
4.990097 1.0000 1.0000 1.0010 1.0010 1.0010
5.024000 1.0010 1.0010 1.0000 0.9980 0.9960
5.057097 0.9880 0.9860 0.9860 0.9880 0.9880
5.090000 0.9900 0.9900 0.9880 0.9860 0.9780
5.123097 0.9660 0.9630 0.9600 0.9550 0.9460
5.156000 0.9400 0.9330 0.9200 0.9180 0.9180
5.189097 0.9260 0.9360 0.9430 0.9530 0.9580
5.222000 0.9630 0.9660 0.9700 0.9730 0.9730
5.255097 0.9710 0.9710 0.9700 0.9680 0.9630
5.288000 0.9530 0.9500 0.9430 0.9410 0.9430
5.321097 0.9450 0.9480 0.9450 0.9430 0.9430
5.354000 0.9460 0.9580 0.9700 0.9760 0.9800
5.387097 0.9850 0.9860 0.9900 0.9910 0.9910
5.421000 0.9930 0.9930 0.9910 0.9900 0.9860
5.454097 0.9800 0.9730 0.9700 0.9680 0.9630
5.487000 0.9560 0.9500 0.9450 0.9250 0.9160
5.520097 0.9030 0.9010 0.9050 0.9200 0.9350
5.553000 0.9500 0.9750 0.9810 0.9810 0.9810
5.586097 0.9810 0.9800 0.9800 0.9780 0.9760
5.619000 0.9760 0.9750 0.9750 0.9730 0.9730
5.652097 0.9700 0.9680 0.9680 0.9650 0.9610
5.685000 0.9600 0.9600 0.9630 0.9680 0.9700
5.718097 0.9700 0.9710 0.9710 0.9710 0.9710
5.751000 0.9710 0.9710 0.9710 0.9710 0.9700
5.784097 0.9680 0.9680 0.9680 0.9680 0.9680
5.818000 0.9680 0.9680 0.9700 0.9700 0.9700
5.851097 0.9700 0.9700 0.9680 0.9630 0.9610
5.884000 0.9610 0.9650 0.9660 0.9700 0.9730
5.917097 0.9730 0.9710 0.9700 0.9680 0.9680
5.950000 0.9650 0.9630 0.9610 0.9610 0.9560
5.983097 0.9510 0.9480 0.9450 0.9450 0.9430
6.016000 0.9410 0.9410 0.9400 0.9380 0.9350
6.049097 0.9250 0.9150 0.9080 0.9080 0.9010
6.082000 0.8920 0.8700 0.8470 0.8300 0.8230
6.115097 0.8180 0.8120 0.8030 0.8000 0.7990
6.148000 0.7970 0.7970 0.8000 0.8080 0.8150
6.181097 0.8200 0.8280 0.8330 0.8380 0.8380
6.215000 0.8370 0.8100 0.7790 0.7770 0.7790
6.248097 0.8050 0.8400 0.8700 0.8850 0.8900
6.281000 0.9000 0.9030 0.9030 0.9030 0.9000
6.314097 0.8780 0.8730 0.8720 0.8720 0.8820
6.347000 0.8980 0.9060 0.9100 0.9100 0.9060
6.380097 0.9050 0.9030 0.9030 0.9130 0.9180
6.413000 0.9210 0.9210 0.9230 0.9230 0.9250
6.446097 0.9250 0.9280 0.9330 0.9360 0.9380
6.479000 0.9410 0.9430 0.9460 0.9500 0.9500
6.512097 0.9510 0.9510 0.9500 0.9480 0.9450
6.545000 0.9410 0.9400 0.9380 0.9360 0.9330
6.578097 0.9300 0.9300 0.9280 0.9210 0.9130
6.612000 0.9010 0.8970 0.8970 0.8950 0.8920
6.645097 0.8900 0.8880 0.8750 0.8520 0.8150
6.678000 0.7950 0.7620 0.7600 0.7640 0.8020
6.711097 0.8450 0.8580 0.8630 0.8700 0.8750
6.744000 0.8770 0.8730 0.8580 0.8320 0.8050
6.777097 0.7820 0.7600 0.7340 0.7320 0.7340
6.810000 0.7640 0.7820 0.7950 0.8070 0.8230
6.843097 0.8270 0.8270 0.8270 0.8250 0.8220
6.876000 0.8180 0.8120 0.8020 0.7950 0.7900
6.909097 0.7870 0.7850 0.7770 0.7620 0.7300
6.942000 0.6720 0.5980 0.5390 0.4700 0.3980
6.975097 0.3270 0.3250 0.3270 0.4900 0.5690
7.009000 0.6120 0.6820 0.6820 0.6720 0.6390
7.042097 0.6240 0.6140 0.6040 0.5930 0.5790
7.075000 0.5780 0.5780 0.5840 0.6040 0.6170
7.108097 0.6290 0.6390 0.6490 0.6570 0.6690
7.141000 0.6810 0.6960 0.7140 0.7290 0.7420
7.174097 0.7470 0.7490 0.7490 0.7490 0.7350
7.207000 0.6890 0.6840 0.6840 0.6890 0.7340
7.240097 0.7550 0.7700 0.7740 0.7740 0.7720
7.273000 0.7570 0.7470 0.7370 0.7350 0.7350
7.306097 0.7390 0.7640 0.7870 0.8030 0.8270
7.339000 0.8370 0.8450 0.8530 0.8570 0.8600
7.372097 0.8620 0.8630 0.8620 0.8550 0.8350
7.405000 0.7950 0.7600 0.7370 0.7320 0.7320
7.438097 0.7390 0.7690 0.7820 0.7890 0.7950
7.472000 0.8020 0.8130 0.8280 0.8450 0.8520
7.505097 0.8520 0.8520 0.8530 0.8570 0.8570
7.538000 0.8480 0.8330 0.8230 0.8180 0.8100
7.571097 0.8030 0.8030 0.8030 0.8100 0.8180
7.604000 0.8250 0.8320 0.8350 0.8330 0.8300
7.637097 0.8230 0.8150 0.8080 0.7950 0.7900
7.670000 0.7820 0.7800 0.7820 0.7850 0.7890
7.703097 0.7870 0.7770 0.7700 0.7600 0.7590
7.736000 0.7540 0.7540 0.7540 0.7690 0.7790
7.769097 0.7790 0.7770 0.7700 0.7650 0.7540
7.802000 0.7400 0.7300 0.7220 0.7100 0.6940
7.835097 0.6640 0.6190 0.5780 0.5460 0.5180
7.869000 0.4900 0.4150 0.3330 0.2450 0.1620
7.902097 0.0840 0.0540 0.0430 0.0240 0.0230
7.935000 0.0230 0.0230 0.0230 0.0230 0.0240
7.968097 0.0280 0.0330 0.0480 0.0760 0.1070
8.001000 0.1470 0.1940 0.2470 0.3020 0.3580
8.034097 0.4160 0.4710 0.5740 0.6160 0.6510
8.067000 0.6770 0.6910 0.7120 0.7350 0.7450
8.100097 0.7550 0.7720 0.7870 0.7950 0.8020
8.133000 0.8120 0.8170 0.8180 0.8220 0.8250
8.166097 0.8230 0.8250 0.8270 0.8320 0.8370
8.199000 0.8420 0.8500 0.8570 0.8650 0.8670
8.232097 0.8650 0.8600 0.8550 0.8480 0.8430
8.266000 0.8400 0.8370 0.8330 0.8300 0.8280
8.299097 0.8250 0.8250 0.8230 0.8250 0.8330
8.332000 0.8380 0.8400 0.8420 0.8450 0.8480
8.365097 0.8480 0.8470 0.8400 0.8280 0.8270
8.398000 0.8280 0.8450 0.8520 0.8630 0.8700
8.431097 0.8750 0.8770 0.8800 0.8820 0.8830
8.464000 0.8830 0.8830 0.8830 0.8830 0.8820
8.497097 0.8820 0.8820 0.8820 0.8770 0.8730
8.530000 0.8700 0.8670 0.8600 0.8550 0.8500
8.563097 0.8470 0.8450 0.8380 0.8330 0.8300
8.596000 0.8220 0.8130 0.8070 0.8020 0.7920
8.629097 0.7840 0.7790 0.7750 0.7720 0.7700
8.663000 0.7690 0.7650 0.7640 0.7600 0.7540
8.696097 0.7440 0.7320 0.7200 0.7100 0.7000
8.729000 0.6970 0.6860 0.6710 0.6540 0.6360
8.762097 0.6170 0.6010 0.5880 0.5790 0.5490
8.795000 0.5180 0.5010 0.4850 0.4480 0.4110
8.828097 0.3730 0.3330 0.2900 0.2470 0.2000
8.861000 0.1540 0.1020 0.0740 0.0510 0.0290
8.894097 0.0240 0.0240 0.0260 0.0290 0.0340
8.927000 0.0430 0.0580 0.0730 0.0910 0.1070
8.960097 0.1370 0.1540 0.1710 0.1770 0.1860
8.993000 0.1890 0.1890 0.1870 0.1690 0.1570
9.026097 0.1390 0.1290 0.1140 0.1010 0.0930
9.060000 0.0860 0.0810 0.0810 0.0790 0.0780
9.093097 0.0740 0.0640 0.0560 0.0510 0.0440
9.126000 0.0410 0.0390 0.0360 0.0330 0.0330
9.159097 0.0310 0.0290 0.0290 0.0290 0.0280
9.192000 0.0280 0.0280 0.0280 0.0260 0.0260
9.225097 0.0260 0.0260 0.0260 0.0240 0.0240
9.258000 0.0230 0.0230 0.0230 0.0230 0.0230
9.291097 0.0230 0.0230 0.0230 0.0230 0.0230
9.324000 0.0230 0.0230 0.0230 0.0230 0.0230
9.357097 0.0230 0.0230 0.0230 0.0230 0.0230
9.390000 0.0240 0.0240 0.0240 0.0240 0.0240
9.423097 0.0240 0.0240 0.0240 0.0240 0.0240
9.457000 0.0240 0.0240 0.0240 0.0240 0.0240
9.490097 0.0240 0.0240 0.0240 0.0240 0.0240
9.523000 0.0240 0.0260 0.0260 0.0260 0.0260
9.556097 0.0260 0.0260 0.0260 0.0280 0.0290
9.589000 0.0290 0.0310 0.0310 0.0330 0.0330
9.622097 0.0340 0.0340 0.0380 0.0390 0.0440
9.655000 0.0480 0.0510 0.0560 0.0580 0.0580
9.688097 0.0560 0.0560 0.0540 0.0540 0.0540
9.721000 0.0560 0.0680 0.0810 0.0940 0.1020
9.754097 0.1140 0.1260 0.1390 0.1490 0.1560
9.787000 0.1620 0.1710 0.1820 0.1910 0.1940
9.820097 0.1960 0.1960 0.1960 0.1960 0.1960
9.853000 0.1970 0.2070 0.2270 0.2450 0.2640
9.886097 0.2850 0.3050 0.3230 0.3380 0.3520
9.920000 0.3620 0.3720 0.3820 0.3900 0.3920
9.953097 0.3920 0.3920 0.3700 0.3600 0.3370
9.986000 0.2870 0.2470 0.2020 0.2000 0.2040
10.019097 0.2140 0.2320 0.2450 0.2500 0.2520
10.052000 0.2520 0.2520 0.2500 0.2440 0.2350
10.085097 0.2290 0.2250 0.2190 0.2120 0.2020
10.118000 0.1940 0.1840 0.1720 0.1620 0.1490
10.151097 0.1410 0.1370 0.1320 0.1240 0.1160
10.184000 0.1090 0.0990 0.0880 0.0840 0.0790
10.217097 0.0780 0.0780 0.0780 0.0780 0.0780
10.250000 0.0780 0.0790 0.0860 0.0940 0.0980
10.283097 0.1020 0.1090 0.1220 0.1420 0.1560
10.317000 0.1710 0.1840 0.2000 0.2170 0.2340
10.350097 0.2540 0.2740 0.2950 0.3130 0.3350
10.383000 0.3550 0.3600 0.3770 0.3930 0.4010
10.416097 0.4030 0.4050 0.4010 0.3820 0.3670
10.449000 0.3570 0.3350 0.3070 0.2720 0.2340
10.482097 0.1970 0.1660 0.1390 0.1210 0.1040
10.515000 0.0940 0.0880 0.0880 0.0890 0.1040
10.548097 0.1240 0.1470 0.1910 0.2270 0.2570
10.581000 0.2850 0.3130 0.3400 0.3720 0.4060
10.614097 0.4480 0.4700 0.4960 0.5280 0.5580
10.647000 0.5740 0.5930 0.5990 0.6060 0.6220
10.680097 0.6340 0.6490 0.6560 0.6610 0.6670
10.714000 0.6760 0.6890 0.6920 0.6920 0.6890
10.747097 0.6890 0.6890 0.6910 0.6940 0.6990
10.780000 0.7050 0.7120 0.7190 0.7250 0.7320
10.813097 0.7370 0.7400 0.7420 0.7420 0.7400
10.846000 0.7390 0.7390 0.7390 0.7370 0.7350
10.879097 0.7320 0.7300 0.7270 0.7200 0.7150
10.912000 0.7100 0.7070 0.6990 0.6940 0.6840
10.945097 0.6740 0.6610 0.6440 0.6240 0.6040
10.978000 0.5830 0.5580 0.5330 0.5040 0.4900
11.011097 0.4730 0.4480 0.4250 0.4230 0.4250
11.044000 0.4350 0.4480 0.4710 0.4930 0.5130
11.077097 0.5180 0.5210 0.5230 0.5210 0.5140
11.111000 0.5060 0.5010 0.4960 0.4880 0.4800
11.144097 0.4750 0.4730 0.4750 0.4860 0.4980
11.177000 0.5280 0.5440 0.5530 0.5660 0.5880
11.210097 0.5960 0.6020 0.6070 0.6160 0.6240
11.243000 0.6270 0.6290 0.6310 0.6310 0.6310
11.276097 0.6310 0.6310 0.6310 0.6310 0.6270
11.309000 0.6190 0.6160 0.6120 0.6070 0.5990
11.342097 0.5940 0.5880 0.5790 0.5680 0.5560
11.375000 0.5440 0.5360 0.5280 0.5190 0.5080
11.408097 0.5040 0.5030 0.5000 0.4960 0.4960
11.441000 0.4950 0.4880 0.4850 0.4800 0.4710
11.474097 0.4600 0.4480 0.4350 0.4200 0.4050
11.508000 0.3880 0.3700 0.3580 0.3480 0.3350
11.541097 0.3170 0.3000 0.2870 0.2750 0.2690
11.574000 0.2640 0.2500 0.2370 0.2190 0.2020
11.607097 0.1940 0.1890 0.1760 0.1610 0.1470
11.640000 0.1370 0.1270 0.1220 0.1210 0.1170
11.673097 0.1120 0.1060 0.1010 0.0990 0.0980
11.706000 0.0980 0.0980 0.0980 0.0980 0.0980
11.739097 0.0990 0.0990 0.1010 0.1040 0.1060
11.772000 0.1070 0.1090 0.1110 0.1110 0.1120
11.805097 0.1120 0.1120 0.1120 0.1120 0.1120
11.838000 0.1120 0.1110 0.1110 0.1110 0.1110
11.871097 0.1110 0.1090 0.1070 0.1070 0.1060
11.905000 0.1010 0.0980 0.0940 0.0890 0.0880
11.938097 0.0810 0.0780 0.0760 0.0690 0.0660
11.971000 0.0590 0.0580 0.0530 0.0490 0.0460
12.004097 0.0380 0.0360 0.0340 0.0340 0.0330
12.037000 0.0330 0.0310 0.0310 0.0310 0.0310
12.070097 0.0310 0.0330 0.0330 0.0330 0.0330
12.103000 0.0340 0.0360 0.0360 0.0360 0.0360
12.136097 0.0380 0.0390 0.0430 0.0460 0.0480
12.169000 0.0530 0.0580 0.0610 0.0610 0.0610
12.202097 0.0610 0.0590 0.0530 0.0510 0.0490
12.235000 0.0490 0.0480 0.0480 0.0480 0.0480
12.268097 0.0480 0.0490 0.0490 0.0490 0.0490
12.302000 0.0530 0.0560 0.0610 0.0660 0.0710
12.335097 0.0730 0.0740 0.0760 0.0810 0.0860
12.368000 0.0880 0.0880 0.0890 0.0880 0.0880
12.401097 0.0880 0.0880 0.0860 0.0860 0.0790
12.434000 0.0760 0.0730 0.0680 0.0630 0.0580
12.467097 0.0530 0.0490 0.0440 0.0360 0.0360
12.500000 0.0360 0.0340 0.0340 0.0340 0.0340
12.533097 0.0340 0.0360 0.0360 0.0380 0.0380
12.566000 0.0380 0.0380 0.0360 0.0340 0.0330
12.599097 0.0330 0.0330 0.0330 0.0330 0.0330
12.632000 0.0330 0.0330 0.0330 0.0330 0.0330
12.665097 0.0340 0.0340 0.0340 0.0360 0.0360
12.698000 0.0380 0.0380 0.0390 0.0390 0.0410
12.731097 0.0410 0.0410 0.0410 0.0410 0.0430
12.765000 0.0430 0.0430 0.0430 0.0430 0.0460
12.798097 0.0510 0.0540 0.0610 0.0680 0.0730
12.831000 0.0760 0.0810 0.0930 0.1040 0.1140
12.864097 0.1210 0.1270 0.1440 0.1560 0.1690
12.897000 0.1810 0.1940 0.2050 0.2190 0.2320
12.930097 0.2440 0.2570 0.2700 0.2800 0.2870
12.963000 0.2920 0.2970 0.3000 0.3030 0.3150
12.996097 0.3180 0.3180 0.3180 0.3170 0.3130
13.029000 0.3050 0.2950 0.2750 0.2670 0.2550
13.062097 0.2490 0.2340 0.2190 0.2000 0.1920
13.095000 0.1770 0.1640 0.1570 0.1520 0.1460
13.128097 0.1370 0.1290 0.1270 0.1290 0.1320
13.162000 0.1370 0.1410 0.1470 0.1520 0.1590
13.195097 0.1670 0.1810 0.1990 0.2150 0.2200
13.228000 0.2320 0.2450 0.2540 0.2620 0.2700
13.261097 0.2840 0.2900 0.2940 0.2940 0.2970
13.294000 0.2970 0.2970 0.2950 0.2920 0.2890
13.327097 0.2800 0.2690 0.2540 0.2450 0.2340
13.360000 0.2220 0.2090 0.1960 0.1840 0.1720
13.393097 0.1620 0.1540 0.1440 0.1320 0.1270
13.426000 0.1240 0.1240 0.1220 0.1220 0.1210
13.459097 0.1210 0.1210 0.1210 0.1220 0.1290
13.492000 0.1320 0.1370 0.1410 0.1470 0.1510
13.525097 0.1560 0.1570 0.1570 0.1590 0.1620
13.559000 0.1690 0.1720 0.1810 0.1840 0.1890
13.592097 0.1890 0.1920 0.1940 0.1960 0.1970
13.625000 0.1990 0.1990 0.1970 0.1970 0.1960
13.658097 0.1940 0.1890 0.1890 0.1870 0.1870
13.691000 0.1860 0.1840 0.1840 0.1770 0.1670
13.724097 0.1610 0.1570 0.1510 0.1440 0.1370
13.757000 0.1360 0.1320 0.1290 0.1260 0.1220
13.790097 0.1190 0.1160 0.1140 0.1120 0.1120
13.823000 0.1140 0.1140 0.1140 0.1160 0.1160
13.856097 0.1170 0.1240 0.1290 0.1340 0.1390
13.889000 0.1410 0.1460 0.1510 0.1610 0.1670
13.922097 0.1740 0.1790 0.1820 0.1870 0.1960
13.956000 0.2040 0.2120 0.2140 0.2140 0.2150
13.989097 0.2190 0.2200 0.2240 0.2250 0.2250
14.022000 0.2270 0.2270 0.2270 0.2270 0.2240
14.055097 0.2200 0.2190 0.2190 0.2150 0.2140
14.088000 0.2100 0.2000 0.1970 0.1890 0.1820
14.121097 0.1720 0.1670 0.1590 0.1560 0.1510
14.154000 0.1490 0.1440 0.1390 0.1360 0.1320
14.187097 0.1310 0.1290 0.1260 0.1220 0.1210
14.220000 0.1190 0.1170 0.1160 0.1140 0.1140
14.253097 0.1120 0.1120 0.1120 0.1120 0.1120
14.286000 0.1110 0.1110 0.1110 0.1110 0.1110
14.319097 0.1090 0.1090 0.1090 0.1090 0.1090
14.353000 0.1070 0.1070 0.1070 0.1070 0.1070
14.386097 0.1090 0.1090 0.1110 0.1140 0.1160
14.419000 0.1170 0.1210 0.1240 0.1260 0.1270
14.452097 0.1310 0.1320 0.1370 0.1410 0.1490
14.485000 0.1520 0.1570 0.1620 0.1690 0.1770
14.518097 0.1860 0.1940 0.2020 0.2090 0.2120
14.551000 0.2220 0.2290 0.2350 0.2400 0.2470
14.584097 0.2540 0.2600 0.2670 0.2770 0.2850
14.617000 0.2920 0.2970 0.3000 0.3070 0.3130
14.650097 0.3150 0.3170 0.3170 0.3220 0.3280
14.683000 0.3350 0.3380 0.3450 0.3470 0.3520
14.716097 0.3600 0.3630 0.3670 0.3680 0.3720
14.750000 0.3780 0.3850 0.3930 0.4000 0.4060
14.783097 0.4110 0.4160 0.4210 0.4300 0.4380
14.816000 0.4460 0.4500 0.4580 0.4600 0.4610
14.849097 0.4650 0.4710 0.4780 0.4780 0.4810
14.882000 0.4860 0.4880 0.4900 0.4910 0.4910
14.915097 0.4930 0.4930 0.4950 0.4950 0.4980
14.948000 0.5000 0.5090 0.5140 0.5180 0.5190
14.981097 0.5210 0.5260 0.5340 0.5480 0.5580
15.014000 0.5680 0.5740 0.5840 0.5960 0.6060
15.047097 0.6110 0.6210 0.6320 0.6420 0.6520
15.080000 0.6610 0.6660 0.6670 0.6690 0.6740
15.113097 0.6820 0.6870 0.6910 0.6960 0.6970
15.147000 0.7000 0.7040 0.7040 0.7040 0.7050
15.180097 0.7050 0.7050 0.7050 0.7070 0.7070
15.213000 0.7070 0.7050 0.7050 0.7040 0.6990
15.246097 0.6960 0.6920 0.6920 0.6910 0.6860
15.279000 0.6810 0.6760 0.6690 0.6660 0.6640
15.312097 0.6610 0.6560 0.6510 0.6510 0.6490
15.345000 0.6470 0.6460 0.6460 0.6460 0.6460
15.378097 0.6460 0.6460 0.6470 0.6490 0.6520
15.411000 0.6560 0.6590 0.6610 0.6640 0.6660
15.444097 0.6670 0.6710 0.6710 0.6720 0.6720
15.477000 0.6740 0.6760 0.6770 0.6810 0.6840
15.510097 0.6860 0.6860 0.6860 0.6860 0.6860
15.543000 0.6840 0.6840 0.6820 0.6820 0.6810
15.576097 0.6810 0.6810 0.6820 0.6840 0.6890
15.610000 0.6920 0.6960 0.6970 0.7000 0.7000
15.643097 0.7050 0.7050 0.7090 0.7150 0.7190
15.676000 0.7220 0.7270 0.7340 0.7390 0.7450
15.709097 0.7520 0.7570 0.7590 0.7590 0.7600
15.742000 0.7620 0.7640 0.7640 0.7640 0.7650
15.775097 0.7670 0.7670 0.7670 0.7670 0.7670
15.808000 0.7670 0.7650 0.7640 0.7640 0.7650
15.841097 0.7650 0.7670 0.7690 0.7700 0.7720
15.874000 0.7720 0.7740 0.7750 0.7750 0.7740
15.907097 0.7700 0.7700 0.7690 0.7690 0.7700
15.940000 0.7720 0.7740 0.7740 0.7740 0.7720
15.973097 0.7690 0.7670 0.7690 0.7670
##END=
