##TITLE=O-NITRO CARBANILIC ACID, 7,8-DIHYDROLINALYL ESTER
##JCAMP-DX=4.24
##DATA TYPE=INFRARED SPECTRUM
##CLASS=COBLENTZ
##ORIGIN=CITRUS EXPERIMENT STATION, UNIVERSITY OF FLORIDA (G. EDWARDS)
##OWNER=COBLENTZ SOCIETY
Collection (C) 2018 copyright by the U.S. Secretary of Commerce
on behalf of the United States of America. All rights reserved.
##DATE=Not specified, most likely prior to 1970
##NAMES=1-ethyl-1,5-dimethyl-5-hexenyl 2-nitrophenylcarbamate
##MOLFORM=C17 H24 N2 O4
##SOURCE REFERENCE=COBLENTZ NO. 2480
##$NIST ID=B6002480
##$NIST SOURCE=COBLENTZ
##$NIST IMAGE=cob2480
##SPECTROMETER/DATA SYSTEM=Not specified, most likely a grating spectrometer.
##PATH LENGTH=CAPILLARY
##SAMPLING PROCEDURE=TRANSMISSION
##RESOLUTION=4
##DATA PROCESSING=DIGITIZED BY NIST FROM HARD COPY
##XUNITS=MICROMETERS
##YUNITS=TRANSMITTANCE
##XFACTOR=1.000000
##YFACTOR=1
##DELTAX=000.006641
##FIRSTX=2.033
##LASTX=15.0239
##FIRSTY=0.894
##MAXX=15.0239
##MINX=2.033
##MAXY=0.894
##MINY=0.034
##NPOINTS=1957
##XYDATA=(X++(Y..Y))
2.033000 0.8940 0.8940 0.8940 0.8940 0.8940
2.066224 0.8940 0.8940 0.8930 0.8930 0.8930
2.100000 0.8920 0.8920 0.8920 0.8920 0.8900
2.133224 0.8900 0.8900 0.8900 0.8900 0.8900
2.166000 0.8900 0.8900 0.8900 0.8900 0.8890
2.199224 0.8880 0.8850 0.8850 0.8840 0.8840
2.232000 0.8840 0.8820 0.8810 0.8810 0.8800
2.265224 0.8800 0.8810 0.8820 0.8840 0.8840
2.299000 0.8840 0.8840 0.8850 0.8850 0.8860
2.332224 0.8860 0.8860 0.8860 0.8860 0.8860
2.365000 0.8860 0.8880 0.8880 0.8880 0.8880
2.398224 0.8880 0.8880 0.8880 0.8880 0.8880
2.432000 0.8880 0.8860 0.8860 0.8860 0.8860
2.465224 0.8860 0.8880 0.8880 0.8890 0.8890
2.498000 0.8890 0.8890 0.8900 0.8920 0.8920
2.531224 0.8920 0.8930 0.8930 0.8940 0.8940
2.565000 0.8940 0.8940 0.8940 0.8940 0.8940
2.598224 0.8940 0.8940 0.8930 0.8930 0.8920
2.631000 0.8920 0.8920 0.8920 0.8920 0.8920
2.664224 0.8920 0.8920 0.8900 0.8900 0.8900
2.697000 0.8890 0.8890 0.8890 0.8890 0.8890
2.730224 0.8860 0.8850 0.8840 0.8840 0.8820
2.764000 0.8810 0.8810 0.8800 0.8800 0.8800
2.797224 0.8800 0.8780 0.8770 0.8770 0.8760
2.830000 0.8730 0.8720 0.8700 0.8700 0.8690
2.863224 0.8660 0.8600 0.8600 0.8560 0.8500
2.897000 0.8480 0.8420 0.8400 0.8250 0.8010
2.930224 0.7610 0.7290 0.6960 0.5810 0.5360
2.963000 0.5360 0.5510 0.5920 0.6570 0.7110
2.996224 0.7210 0.7280 0.8210 0.8360 0.8460
3.029000 0.8530 0.8560 0.8600 0.8610 0.8660
3.062224 0.8690 0.8690 0.8700 0.8700 0.8700
3.096000 0.8700 0.8700 0.8690 0.8690 0.8660
3.129224 0.8640 0.8620 0.8620 0.8610 0.8600
3.162000 0.8560 0.8540 0.8530 0.8480 0.8400
3.195224 0.8300 0.8250 0.8250 0.8240 0.8240
3.229000 0.8220 0.8220 0.8220 0.8210 0.8210
3.262224 0.8210 0.8200 0.8200 0.8160 0.8100
3.295000 0.8020 0.7960 0.7850 0.7580 0.7350
3.328224 0.7090 0.6410 0.5050 0.3700 0.3670
3.361000 0.3680 0.4040 0.4140 0.4220 0.4230
3.394224 0.4240 0.4240 0.4270 0.4520 0.4760
3.428000 0.4990 0.5490 0.5750 0.5750 0.5750
3.461224 0.5750 0.5770 0.5970 0.6250 0.6490
3.494000 0.6790 0.7070 0.7400 0.7960 0.8160
3.527224 0.8220 0.8290 0.8330 0.8380 0.8410
3.561000 0.8500 0.8520 0.8520 0.8520 0.8530
3.594224 0.8560 0.8570 0.8580 0.8580 0.8600
3.627000 0.8610 0.8610 0.8610 0.8610 0.8620
3.660224 0.8640 0.8690 0.8740 0.8760 0.8760
3.694000 0.8760 0.8760 0.8760 0.8740 0.8740
3.727224 0.8740 0.8740 0.8740 0.8740 0.8740
3.760000 0.8740 0.8760 0.8760 0.8760 0.8760
3.793224 0.8760 0.8770 0.8770 0.8770 0.8760
3.826000 0.8740 0.8740 0.8740 0.8740 0.8740
3.859224 0.8740 0.8770 0.8800 0.8810 0.8820
3.893000 0.8820 0.8840 0.8840 0.8840 0.8840
3.926224 0.8840 0.8840 0.8840 0.8840 0.8840
3.959000 0.8840 0.8840 0.8840 0.8840 0.8840
3.992224 0.8820 0.8820 0.8820 0.8820 0.8820
4.026000 0.8810 0.8810 0.8810 0.8820 0.8820
4.059224 0.8820 0.8820 0.8820 0.8820 0.8820
4.092000 0.8800 0.8800 0.8780 0.8780 0.8770
4.125224 0.8760 0.8760 0.8760 0.8760 0.8760
4.158000 0.8760 0.8760 0.8760 0.8760 0.8760
4.191224 0.8760 0.8740 0.8740 0.8740 0.8740
4.225000 0.8760 0.8760 0.8760 0.8780 0.8800
4.258224 0.8810 0.8810 0.8810 0.8810 0.8820
4.291000 0.8820 0.8840 0.8840 0.8840 0.8840
4.324224 0.8840 0.8840 0.8840 0.8840 0.8840
4.358000 0.8820 0.8820 0.8820 0.8820 0.8820
4.391224 0.8840 0.8820 0.8820 0.8820 0.8810
4.424000 0.8810 0.8810 0.8800 0.8770 0.8760
4.457224 0.8760 0.8760 0.8760 0.8760 0.8770
4.491000 0.8770 0.8800 0.8820 0.8840 0.8850
4.524224 0.8850 0.8860 0.8860 0.8860 0.8860
4.557000 0.8860 0.8860 0.8860 0.8860 0.8880
4.590224 0.8880 0.8880 0.8860 0.8860 0.8880
4.623000 0.8890 0.8890 0.8890 0.8900 0.8900
4.656224 0.8900 0.8900 0.8900 0.8890 0.8890
4.690000 0.8900 0.8900 0.8900 0.8900 0.8900
4.723224 0.8900 0.8900 0.8900 0.8900 0.8900
4.756000 0.8900 0.8900 0.8900 0.8900 0.8900
4.789224 0.8930 0.8930 0.8900 0.8900 0.8900
4.823000 0.8900 0.8920 0.8920 0.8920 0.8920
4.856224 0.8920 0.8920 0.8900 0.8900 0.8900
4.889000 0.8900 0.8900 0.8920 0.8920 0.8920
4.922224 0.8920 0.8920 0.8920 0.8900 0.8900
4.955000 0.8890 0.8890 0.8890 0.8890 0.8900
4.988224 0.8900 0.8880 0.8850 0.8840 0.8840
5.022000 0.8840 0.8840 0.8820 0.8810 0.8800
5.055224 0.8780 0.8770 0.8770 0.8770 0.8780
5.088000 0.8780 0.8780 0.8770 0.8770 0.8770
5.121224 0.8770 0.8740 0.8740 0.8740 0.8740
5.155000 0.8740 0.8770 0.8800 0.8800 0.8800
5.188224 0.8810 0.8810 0.8810 0.8810 0.8810
5.221000 0.8810 0.8810 0.8810 0.8810 0.8810
5.254224 0.8810 0.8810 0.8810 0.8810 0.8810
5.287000 0.8810 0.8800 0.8780 0.8780 0.8780
5.320224 0.8760 0.8740 0.8740 0.8730 0.8720
5.354000 0.8720 0.8720 0.8700 0.8690 0.8690
5.387224 0.8690 0.8660 0.8650 0.8640 0.8620
5.420000 0.8610 0.8600 0.8580 0.8560 0.8530
5.453224 0.8500 0.8490 0.8420 0.8400 0.8380
5.487000 0.8370 0.8360 0.8360 0.8410 0.8420
5.520224 0.8440 0.8450 0.8450 0.8440 0.8410
5.553000 0.8380 0.8380 0.8360 0.8340 0.8340
5.586224 0.8330 0.8320 0.8300 0.8240 0.8200
5.620000 0.8120 0.8040 0.7970 0.7850 0.7740
5.653224 0.7690 0.7610 0.7530 0.7450 0.7160
5.686000 0.6760 0.6270 0.5610 0.4880 0.4150
5.719224 0.3310 0.2470 0.1780 0.1380 0.1370
5.752000 0.1380 0.1550 0.2010 0.2290 0.2880
5.785224 0.3180 0.3520 0.3990 0.4500 0.5670
5.819000 0.6130 0.6590 0.6960 0.7120 0.7200
5.852224 0.7270 0.7390 0.7480 0.7620 0.7650
5.885000 0.7690 0.7720 0.7760 0.7780 0.7780
5.918224 0.7780 0.7780 0.7780 0.7780 0.7780
5.952000 0.7780 0.7780 0.7780 0.7780 0.7780
5.985224 0.7780 0.7780 0.7780 0.7780 0.7800
6.018000 0.7800 0.7780 0.7760 0.7720 0.7620
6.051224 0.7500 0.7480 0.7450 0.7440 0.7430
6.084000 0.7410 0.7400 0.7370 0.7330 0.7160
6.117224 0.6960 0.6710 0.6610 0.6530 0.6430
6.151000 0.5960 0.5370 0.4920 0.4470 0.3310
6.184224 0.2620 0.2270 0.1910 0.1820 0.1820
6.217000 0.1850 0.2460 0.3400 0.3780 0.4320
6.250224 0.4780 0.5440 0.5560 0.5560 0.5510
6.284000 0.5130 0.4150 0.3160 0.2670 0.2210
6.317224 0.1730 0.1700 0.1700 0.2270 0.3470
6.350000 0.4070 0.4670 0.4980 0.5570 0.5960
6.383224 0.6360 0.6550 0.6630 0.6610 0.6600
6.417000 0.6490 0.6450 0.6440 0.6410 0.6330
6.450224 0.6200 0.5960 0.5690 0.5450 0.5120
6.483000 0.5010 0.5000 0.5000 0.4990 0.4960
6.516224 0.4870 0.4700 0.4470 0.4260 0.3820
6.549000 0.2990 0.2150 0.1380 0.1110 0.0900
6.582224 0.0740 0.0580 0.0470 0.0390 0.0340
6.616000 0.0340 0.0340 0.0340 0.0340 0.0370
6.649224 0.0450 0.0540 0.0830 0.1110 0.1550
6.682000 0.2060 0.2310 0.2720 0.3260 0.3820
6.715224 0.4260 0.4680 0.4880 0.5150 0.5280
6.749000 0.5410 0.5450 0.5440 0.5410 0.5150
6.782224 0.4950 0.4750 0.4500 0.4350 0.4220
6.815000 0.4060 0.3790 0.3300 0.2910 0.2680
6.848224 0.2540 0.2390 0.2110 0.2030 0.2030
6.881000 0.2090 0.2140 0.2290 0.2490 0.2790
6.914224 0.2860 0.2920 0.2830 0.2600 0.2450
6.948000 0.2270 0.1990 0.1630 0.1410 0.1410
6.981224 0.1410 0.1420 0.1530 0.1690 0.1750
7.014000 0.1860 0.1910 0.2390 0.2880 0.3070
7.047224 0.3390 0.3680 0.3920 0.4110 0.4220
7.081000 0.4360 0.4520 0.4630 0.4830 0.5160
7.114224 0.5280 0.5390 0.5530 0.5570 0.5570
7.147000 0.5560 0.5530 0.5520 0.5520 0.5480
7.180224 0.5450 0.5410 0.5320 0.5170 0.5000
7.213000 0.4820 0.4480 0.4310 0.4220 0.4150
7.246224 0.4120 0.4100 0.4110 0.4120 0.4150
7.280000 0.4310 0.4520 0.4680 0.4840 0.5120
7.313224 0.5120 0.5110 0.5070 0.5000 0.4980
7.346000 0.4940 0.4840 0.4750 0.4580 0.4350
7.379224 0.4030 0.3440 0.3030 0.2720 0.2410
7.413000 0.1830 0.1330 0.1150 0.1030 0.0850
7.446224 0.0790 0.0790 0.0850 0.1050 0.1220
7.479000 0.1410 0.1690 0.1830 0.2100 0.2490
7.512224 0.3510 0.3740 0.3880 0.4140 0.4320
7.546000 0.4320 0.4320 0.4240 0.4080 0.3870
7.579224 0.3480 0.3420 0.3430 0.3540 0.3660
7.612000 0.3800 0.3920 0.4040 0.4150 0.4230
7.645224 0.4260 0.4320 0.4350 0.4420 0.4420
7.678000 0.4460 0.4480 0.4510 0.4470 0.4430
7.711224 0.4400 0.4380 0.4320 0.4270 0.4160
7.745000 0.4060 0.4000 0.3860 0.3670 0.3480
7.778224 0.3280 0.3140 0.3030 0.2820 0.2630
7.811000 0.2500 0.2430 0.2370 0.2270 0.2250
7.844224 0.2250 0.2290 0.2330 0.2370 0.2420
7.878000 0.2460 0.2490 0.2660 0.2740 0.2840
7.911224 0.2920 0.2950 0.3030 0.3030 0.3020
7.944000 0.3020 0.2980 0.2940 0.2780 0.2590
7.977224 0.2470 0.2350 0.2060 0.1930 0.1730
8.010000 0.1190 0.1050 0.0910 0.0750 0.0690
8.043224 0.0650 0.0690 0.0730 0.0780 0.0870
8.077000 0.0990 0.1110 0.1250 0.1500 0.1770
8.110224 0.2150 0.2420 0.2900 0.3140 0.3380
8.143000 0.3580 0.3820 0.3920 0.4080 0.4220
8.176224 0.4310 0.4320 0.4310 0.4270 0.4230
8.210000 0.4120 0.3990 0.3880 0.3720 0.3560
8.243224 0.3420 0.3240 0.3080 0.2870 0.2680
8.276000 0.2590 0.2490 0.2310 0.2140 0.2020
8.309224 0.1850 0.1780 0.1730 0.1730 0.1730
8.343000 0.1740 0.1750 0.1830 0.1910 0.1990
8.376224 0.2090 0.2180 0.2290 0.2410 0.2740
8.409000 0.2910 0.3070 0.3160 0.3260 0.3400
8.442224 0.3460 0.3520 0.3540 0.3620 0.3710
8.475000 0.3760 0.3840 0.3880 0.3940 0.4020
8.508224 0.4100 0.4160 0.4220 0.4220 0.4220
8.542000 0.4190 0.4180 0.4140 0.4040 0.4000
8.575224 0.3920 0.3720 0.3580 0.3360 0.3200
8.608000 0.3040 0.2940 0.2860 0.2820 0.2790
8.641224 0.2780 0.2790 0.2820 0.2840 0.2900
8.675000 0.2900 0.2900 0.2820 0.2760 0.2670
8.708224 0.2550 0.2470 0.2390 0.2380 0.2380
8.741000 0.2430 0.2660 0.2840 0.3020 0.3110
8.774224 0.3200 0.3280 0.3310 0.3310 0.3310
8.807000 0.3310 0.3270 0.3260 0.3240 0.3220
8.840224 0.3220 0.3220 0.3220 0.3180 0.3150
8.874000 0.3120 0.3040 0.3020 0.2980 0.2940
8.907224 0.2920 0.2920 0.2940 0.2940 0.2960
8.940000 0.3040 0.3120 0.3190 0.3270 0.3350
8.973224 0.3430 0.3540 0.3630 0.3740 0.3840
9.007000 0.3960 0.4080 0.4200 0.4310 0.4430
9.040224 0.4580 0.4670 0.4780 0.4910 0.5110
9.073000 0.5150 0.5210 0.5240 0.5250 0.5250
9.106224 0.5270 0.5270 0.5250 0.5240 0.5210
9.139000 0.5200 0.5200 0.5150 0.5090 0.5010
9.172224 0.4950 0.4880 0.4740 0.4640 0.4470
9.206000 0.4300 0.4180 0.4140 0.4140 0.4140
9.239224 0.4230 0.4430 0.4640 0.4870 0.5230
9.272000 0.5370 0.5490 0.5610 0.5720 0.5800
9.305224 0.5840 0.5890 0.5890 0.5890 0.5910
9.339000 0.5910 0.5890 0.5890 0.5850 0.5810
9.372224 0.5770 0.5710 0.5640 0.5550 0.5440
9.405000 0.5280 0.5170 0.5080 0.5030 0.4980
9.438224 0.4950 0.4940 0.4940 0.4940 0.4950
9.472000 0.4950 0.4940 0.4940 0.4940 0.4940
9.505224 0.4920 0.4920 0.4910 0.4910 0.4880
9.538000 0.4870 0.4860 0.4820 0.4780 0.4710
9.571224 0.4590 0.4470 0.4310 0.4200 0.4030
9.604000 0.3860 0.3620 0.3510 0.3390 0.3280
9.637224 0.3230 0.3230 0.3230 0.3300 0.3390
9.671000 0.3500 0.3630 0.3780 0.3870 0.4020
9.704224 0.4220 0.4420 0.4590 0.4720 0.4840
9.737000 0.5130 0.5240 0.5320 0.5410 0.5510
9.770224 0.5570 0.5610 0.5670 0.5690 0.5720
9.804000 0.5790 0.5830 0.5830 0.5840 0.5870
9.837224 0.5910 0.5920 0.5990 0.6010 0.6030
9.870000 0.6050 0.6090 0.6110 0.6120 0.6130
9.903224 0.6190 0.6230 0.6250 0.6270 0.6290
9.936000 0.6290 0.6290 0.6280 0.6270 0.6250
9.969224 0.6240 0.6230 0.6210 0.6210 0.6200
10.003000 0.6190 0.6160 0.6130 0.6130 0.6120
10.036224 0.6120 0.6110 0.6110 0.6110 0.6120
10.069000 0.6120 0.6120 0.6130 0.6150 0.6170
10.102224 0.6210 0.6270 0.6320 0.6360 0.6400
10.136000 0.6490 0.6530 0.6590 0.6600 0.6650
10.169224 0.6720 0.6760 0.6800 0.6800 0.6850
10.202000 0.6890 0.6930 0.6960 0.6990 0.7000
10.235224 0.7010 0.7030 0.7040 0.7050 0.7050
10.269000 0.7090 0.7090 0.7110 0.7110 0.7120
10.302224 0.7130 0.7160 0.7190 0.7200 0.7230
10.335000 0.7230 0.7240 0.7250 0.7310 0.7320
10.368224 0.7330 0.7350 0.7360 0.7390 0.7390
10.401000 0.7390 0.7390 0.7370 0.7350 0.7330
10.434224 0.7330 0.7320 0.7310 0.7290 0.7290
10.468000 0.7290 0.7290 0.7290 0.7290 0.7310
10.501224 0.7320 0.7350 0.7370 0.7430 0.7480
10.534000 0.7490 0.7570 0.7600 0.7620 0.7690
10.567224 0.7720 0.7730 0.7740 0.7770 0.7770
10.601000 0.7770 0.7770 0.7770 0.7770 0.7770
10.634224 0.7770 0.7770 0.7770 0.7770 0.7770
10.667000 0.7740 0.7740 0.7730 0.7730 0.7720
10.700224 0.7700 0.7690 0.7680 0.7660 0.7650
10.733000 0.7650 0.7620 0.7610 0.7600 0.7580
10.766224 0.7580 0.7530 0.7500 0.7500 0.7500
10.800000 0.7500 0.7490 0.7490 0.7480 0.7480
10.833224 0.7480 0.7480 0.7480 0.7480 0.7480
10.866000 0.7490 0.7490 0.7500 0.7500 0.7500
10.899224 0.7520 0.7530 0.7560 0.7580 0.7580
10.933000 0.7580 0.7580 0.7580 0.7600 0.7600
10.966224 0.7580 0.7580 0.7580 0.7580 0.7580
10.999000 0.7560 0.7530 0.7520 0.7500 0.7500
11.032224 0.7490 0.7490 0.7480 0.7470 0.7440
11.065000 0.7400 0.7390 0.7350 0.7330 0.7320
11.098224 0.7280 0.7240 0.7210 0.7200 0.7170
11.132000 0.7090 0.7050 0.7010 0.7000 0.7000
11.165224 0.6950 0.6930 0.6930 0.6950 0.6960
11.198000 0.6970 0.7010 0.7010 0.7040 0.7050
11.231224 0.7070 0.7090 0.7120 0.7190 0.7280
11.265000 0.7290 0.7320 0.7370 0.7430 0.7470
11.298224 0.7580 0.7610 0.7640 0.7660 0.7700
11.331000 0.7700 0.7730 0.7760 0.7800 0.7800
11.364224 0.7800 0.7810 0.7810 0.7820 0.7820
11.398000 0.7820 0.7810 0.7810 0.7800 0.7740
11.431224 0.7700 0.7690 0.7650 0.7620 0.7560
11.464000 0.7530 0.7490 0.7400 0.7350 0.7280
11.497224 0.7170 0.7040 0.6910 0.6800 0.6670
11.530000 0.6480 0.6290 0.6080 0.5870 0.5670
11.563224 0.5470 0.5270 0.5050 0.4950 0.4830
11.597000 0.4670 0.4620 0.4620 0.4660 0.4760
11.630224 0.4880 0.5200 0.5400 0.5630 0.5850
11.663000 0.6070 0.6250 0.6410 0.6520 0.6650
11.696224 0.6760 0.6810 0.6870 0.6920 0.7000
11.730000 0.7010 0.7010 0.7030 0.7050 0.7050
11.763224 0.7040 0.7030 0.7010 0.7000 0.7000
11.796000 0.6990 0.6970 0.6970 0.6970 0.6990
11.829224 0.6990 0.7000 0.7000 0.7010 0.7010
11.862000 0.7010 0.7010 0.7010 0.7010 0.7010
11.895224 0.7010 0.7010 0.7030 0.7030 0.7030
11.929000 0.7040 0.7040 0.7030 0.7030 0.7030
11.962224 0.7030 0.7030 0.7010 0.7010 0.7010
11.995000 0.7010 0.7000 0.6960 0.6920 0.6910
12.028224 0.6890 0.6840 0.6830 0.6790 0.6730
12.062000 0.6710 0.6670 0.6650 0.6650 0.6640
12.095224 0.6630 0.6610 0.6610 0.6610 0.6630
12.128000 0.6690 0.6720 0.6750 0.6790 0.6830
12.161224 0.6850 0.6910 0.6970 0.7010 0.7040
12.194000 0.7080 0.7120 0.7190 0.7240 0.7280
12.227224 0.7290 0.7310 0.7320 0.7350 0.7360
12.261000 0.7400 0.7410 0.7440 0.7450 0.7450
12.294224 0.7470 0.7470 0.7470 0.7490 0.7490
12.327000 0.7490 0.7490 0.7490 0.7490 0.7490
12.360224 0.7470 0.7470 0.7470 0.7470 0.7470
12.394000 0.7470 0.7470 0.7470 0.7470 0.7470
12.427224 0.7470 0.7470 0.7470 0.7490 0.7490
12.460000 0.7490 0.7490 0.7490 0.7490 0.7490
12.493224 0.7490 0.7490 0.7480 0.7480 0.7470
12.527000 0.7450 0.7450 0.7440 0.7440 0.7430
12.560224 0.7410 0.7400 0.7400 0.7400 0.7400
12.593000 0.7390 0.7370 0.7360 0.7310 0.7230
12.626224 0.7190 0.7130 0.7110 0.7080 0.7000
12.659000 0.6920 0.6890 0.6840 0.6720 0.6680
12.692224 0.6600 0.6550 0.6430 0.6190 0.6120
12.726000 0.6050 0.5950 0.5810 0.5680 0.5550
12.759224 0.5430 0.5360 0.5250 0.5150 0.5010
12.792000 0.4980 0.4940 0.4900 0.4880 0.4900
12.825224 0.4920 0.4960 0.5090 0.5170 0.5270
12.859000 0.5360 0.5480 0.5610 0.5750 0.5880
12.892224 0.6000 0.6050 0.6200 0.6310 0.6370
12.925000 0.6440 0.6510 0.6590 0.6600 0.6610
12.958224 0.6610 0.6630 0.6610 0.6610 0.6600
12.991000 0.6570 0.6550 0.6520 0.6480 0.6430
13.024224 0.6400 0.6360 0.6310 0.6230 0.6190
13.058000 0.6090 0.6030 0.6010 0.6000 0.5990
13.091224 0.5990 0.5990 0.5990 0.6000 0.6030
13.124000 0.6040 0.6070 0.6090 0.6120 0.6160
13.157224 0.6190 0.6200 0.6230 0.6280 0.6290
13.191000 0.6310 0.6320 0.6350 0.6360 0.6390
13.224224 0.6390 0.6390 0.6390 0.6390 0.6390
13.257000 0.6390 0.6360 0.6350 0.6320 0.6290
13.290224 0.6240 0.6230 0.6200 0.6150 0.6080
13.324000 0.6000 0.5910 0.5800 0.5680 0.5560
13.357224 0.5410 0.5270 0.5110 0.5030 0.4940
13.390000 0.4740 0.4550 0.4340 0.4110 0.3880
13.423224 0.3640 0.3380 0.3160 0.3020 0.2860
13.456000 0.2750 0.2580 0.2510 0.2450 0.2310
13.489224 0.2220 0.2130 0.2090 0.2070 0.2070
13.523000 0.2070 0.2090 0.2130 0.2190 0.2250
13.556224 0.2350 0.2420 0.2670 0.2840 0.2980
13.589000 0.3200 0.3350 0.3500 0.3670 0.3860
13.622224 0.4070 0.4280 0.4480 0.4670 0.4840
13.656000 0.5170 0.5320 0.5450 0.5590 0.5690
13.689224 0.5840 0.5890 0.6010 0.6070 0.6190
13.722000 0.6250 0.6310 0.6370 0.6450 0.6490
13.755224 0.6520 0.6600 0.6670 0.6690 0.6720
13.788000 0.6750 0.6770 0.6800 0.6840 0.6880
13.821224 0.6890 0.6910 0.6920 0.6930 0.6950
13.855000 0.6960 0.6970 0.6990 0.7000 0.7010
13.888224 0.7010 0.7030 0.7030 0.7030 0.7030
13.921000 0.7050 0.7050 0.7050 0.7050 0.7050
13.954224 0.7050 0.7050 0.7050 0.7050 0.7050
13.988000 0.7050 0.7050 0.7050 0.7050 0.7050
14.021224 0.7040 0.7040 0.7040 0.7030 0.7030
14.054000 0.7010 0.7010 0.7000 0.7000 0.6990
14.087224 0.6990 0.6970 0.6970 0.6970 0.6970
14.120000 0.6970 0.6970 0.6970 0.6970 0.6960
14.153224 0.6950 0.6930 0.6920 0.6910 0.6890
14.187000 0.6890 0.6880 0.6880 0.6870 0.6840
14.220224 0.6810 0.6800 0.6790 0.6790 0.6750
14.253000 0.6730 0.6710 0.6690 0.6680 0.6680
14.286224 0.6680 0.6650 0.6640 0.6610 0.6550
14.320000 0.6520 0.6490 0.6470 0.6450 0.6430
14.353224 0.6400 0.6390 0.6370 0.6310 0.6230
14.386000 0.6190 0.6190 0.6170 0.6120 0.6040
14.419224 0.5970 0.5950 0.5890 0.5880 0.5790
14.453000 0.5750 0.5680 0.5610 0.5570 0.5510
14.486224 0.5480 0.5430 0.5410 0.5390 0.5360
14.519000 0.5320 0.5290 0.5290 0.5290 0.5310
14.552224 0.5320 0.5330 0.5360 0.5370 0.5390
14.585000 0.5400 0.5410 0.5440 0.5470 0.5490
14.618224 0.5510 0.5510 0.5520 0.5520 0.5520
14.652000 0.5520 0.5520 0.5510 0.5510 0.5480
14.685224 0.5480 0.5470 0.5470 0.5440 0.5430
14.718000 0.5400 0.5390 0.5390 0.5390 0.5370
14.751224 0.5370 0.5330 0.5290 0.5270 0.5250
14.785000 0.5230 0.5200 0.5170 0.5150 0.5120
14.818224 0.5110 0.5110 0.5090 0.5090 0.5080
14.851000 0.5080 0.5070 0.5000 0.5000 0.4990
14.884224 0.4980 0.4950 0.4920 0.4920 0.4910
14.917000 0.4900 0.4900 0.4900 0.4900 0.4900
14.950224 0.4900 0.4900 0.4900 0.4900 0.4900
14.984000 0.4900 0.4880 0.4880 0.4870 0.4870
15.017224 0.4860 0.4870
##END=
