##TITLE=ALUMINUM SILICATE
##JCAMP-DX=4.24
##DATA TYPE=INFRARED SPECTRUM
##CLASS=COBLENTZ III
##ORIGIN=DESOTO CHEMICAL COATINGS, INC.
##OWNER=COBLENTZ SOCIETY
Collection (C) 2018 copyright by the U.S. Secretary of Commerce
on behalf of the United States of America. All rights reserved.
##DATE=Not specified, most likely prior to 1970
##NAMES=CHINA CLAY
##MOLFORM=O7 Al2 Si2  * 2 H2 O
$$ Al2O3 44 %, SiO2 53 %
##SOURCE REFERENCE=COBLENTZ NO. 4665
##$NIST ID=B6004665
##$NIST SOURCE=COBLENTZ
##$NIST IMAGE=cob4665
##SPECTROMETER/DATA SYSTEM=BECKMAN IR-12 (GRATING)
##INSTRUMENT PARAMETERS=GRATING BLAZED AT 3330, 1330, 445, 220 CM^-^1
##STATE=SOLID (0.5 mg / 300 mg CsI DISC)
##SAMPLING PROCEDURE=TRANSMISSION
##RESOLUTION=4
##DATA PROCESSING=DIGITIZED BY NIST FROM HARD COPY (FROM TWO SEGMENTS)
##XUNITS=1/CM
##YUNITS=TRANSMITTANCE
##XFACTOR=1.000000
##YFACTOR=1
##DELTAX=1.331363
##FIRSTX=198.669
##LASTX=3986.4
##FIRSTY=0.674
##MAXX=3986.4
##MINX=198.669
##MAXY=0.973998
##MINY=0.108
##NPOINTS=2846
##XYDATA=(X++(Y..Y))
198.669000 0.6740 0.6770 0.6770 0.6740 0.6770
205.325815 0.6770 0.6780 0.6780 0.6800 0.6800
211.982629 0.6810 0.6820 0.6860 0.6880 0.6880
218.639444 0.6890 0.6890 0.6900 0.6920 0.6930
225.296258 0.6960 0.6970 0.6980 0.7000 0.7000
231.953073 0.7010 0.7020 0.7020 0.7040 0.7050
238.609888 0.7050 0.7060 0.7060 0.7080 0.7080
245.266702 0.7080 0.7080 0.7080 0.7080 0.7090
251.923517 0.7090 0.7100 0.7100 0.7120 0.7130
258.580332 0.7130 0.7130 0.7120 0.7120 0.7100
265.237146 0.7090 0.7060 0.7040 0.7020 0.7010
271.893961 0.6940 0.6900 0.6880 0.6810 0.6661
278.550775 0.6610 0.6590 0.6510 0.6470 0.6450
285.207590 0.6420 0.6390 0.6380 0.6370 0.6370
291.864405 0.6370 0.6380 0.6390 0.6410 0.6420
298.521219 0.6450 0.6470 0.6500 0.6510 0.6510
305.178034 0.6530 0.6530 0.6530 0.6540 0.6540
311.834849 0.6550 0.6570 0.6590 0.6610 0.6610
318.491663 0.6590 0.6580 0.6540 0.6510 0.6500
325.148478 0.6470 0.6460 0.6450 0.6420 0.6410
331.805292 0.6310 0.6250 0.6170 0.6110 0.6020
338.462107 0.5950 0.5890 0.5781 0.5601 0.5461
345.118922 0.5360 0.5180 0.5080 0.5020 0.4950
351.775736 0.4930 0.4950 0.5000 0.5060 0.5110
358.432551 0.5190 0.5240 0.5340 0.5420 0.5540
365.089366 0.5590 0.5630 0.5700 0.5720 0.5750
371.746180 0.5800 0.5820 0.5830 0.5830 0.5860
378.402995 0.5900 0.5900 0.5910 0.5950 0.6020
385.059809 0.6020 0.6060 0.6090 0.6100 0.6130
391.716624 0.6150 0.6170 0.6170 0.6180 0.6180
398.373439 0.6180 0.6180 0.6150 0.6140 0.6100
405.030253 0.6020 0.5900 0.5781 0.5671 0.5551
411.687068 0.5310 0.5190 0.5070 0.5030 0.5000
418.343883 0.4920 0.4870 0.4790 0.4710 0.4640
425.000697 0.4610 0.4530 0.4480 0.4410 0.4230
431.657512 0.4130 0.4100 0.4120 0.4269 0.4350
438.314326 0.4410 0.4530 0.4830 0.5109 0.5220
444.971141 0.5399 0.5430 0.5510 0.5599 0.5630
451.627956 0.5660 0.5660 0.5640 0.5550 0.5400
458.284770 0.5380 0.5320 0.4693 0.4063 0.3742
464.941585 0.3420 0.3090 0.2750 0.2580 0.2400
471.598400 0.2380 0.2380 0.2579 0.2948 0.3109
478.255214 0.3581 0.4290 0.4470 0.4640 0.5099
484.912029 0.5280 0.5519 0.5699 0.5800 0.5929
491.568843 0.6070 0.6170 0.6190 0.6310 0.6350
498.225658 0.6410 0.6430 0.6450 0.6460 0.6460
504.882473 0.6450 0.6430 0.6390 0.6350 0.6300
511.539287 0.6210 0.6100 0.6020 0.5911 0.5761
518.196102 0.5520 0.5380 0.5220 0.4831 0.4211
524.852917 0.3961 0.3701 0.3381 0.2813 0.2671
531.509731 0.2540 0.2400 0.2270 0.2140 0.2020
538.166546 0.2000 0.2020 0.2100 0.2190 0.2279
544.823360 0.2380 0.2660 0.2780 0.2890 0.3070
551.480175 0.3299 0.3519 0.3620 0.3729 0.3919
558.136990 0.4060 0.4170 0.4250 0.4330 0.4520
564.793804 0.4560 0.4690 0.4809 0.4909 0.4960
571.450619 0.5110 0.5230 0.5390 0.5540 0.5660
578.107434 0.5740 0.5820 0.5850 0.5949 0.6069
584.764248 0.6110 0.6150 0.6210 0.6260 0.6300
591.421063 0.6370 0.6410 0.6490 0.6510 0.6550
598.077877 0.6620 0.6650 0.6660 0.6680 0.6700
604.734692 0.6760 0.6800 0.6810 0.6840 0.6860
611.391507 0.6900 0.6930 0.7010 0.7040 0.7080
618.048321 0.7120 0.7140 0.7210 0.7250 0.7300
624.705136 0.7340 0.7370 0.7400 0.7420 0.7450
631.361951 0.7460 0.7480 0.7490 0.7490 0.7510
638.018765 0.7510 0.7510 0.7510 0.7490 0.7490
644.675580 0.7480 0.7480 0.7460 0.7460 0.7450
651.332394 0.7420 0.7410 0.7400 0.7380 0.7370
657.989209 0.7360 0.7340 0.7340 0.7330 0.7320
664.646024 0.7300 0.7300 0.7290 0.7280 0.7260
671.302838 0.7250 0.7220 0.7210 0.7170 0.7140
677.959653 0.7130 0.7060 0.7050 0.7020 0.6980
684.616467 0.6920 0.6900 0.6840 0.6800 0.6740
691.273282 0.6580 0.6540 0.6490 0.6380 0.6300
697.930097 0.6270 0.6210 0.6150 0.6100 0.6070
704.586911 0.6090 0.6150 0.6220 0.6290 0.6579
711.243726 0.6660 0.6740 0.6899 0.7079 0.7329
717.900541 0.7510 0.7650 0.7750 0.7790 0.7930
724.557355 0.8030 0.8080 0.8120 0.8229 0.8280
731.214170 0.8290 0.8320 0.8340 0.8350 0.8350
737.870984 0.8350 0.8340 0.8340 0.8320 0.8310
744.527799 0.8270 0.8240 0.8210 0.8170 0.8130
751.184614 0.8070 0.7970 0.7910 0.7850 0.7770
757.841428 0.7750 0.7730 0.7750 0.7760 0.7790
764.498243 0.7810 0.7840 0.7870 0.7890 0.7930
771.155058 0.8000 0.8010 0.8070 0.8150 0.8170
777.811872 0.8200 0.8210 0.8250 0.8280 0.8310
784.468687 0.8320 0.8340 0.8340 0.8320 0.8310
791.125501 0.8280 0.8270 0.8250 0.8240 0.8230
797.782316 0.8230 0.8230 0.8230 0.8240 0.8250
804.439131 0.8270 0.8310 0.8350 0.8380 0.8440
811.095945 0.8540 0.8600 0.8710 0.8750 0.8790
817.752760 0.8820 0.8860 0.8910 0.8940 0.8950
824.409575 0.8990 0.9000 0.9000 0.9020 0.9020
831.066389 0.9030 0.9040 0.9040 0.9070 0.9080
837.723204 0.9080 0.9100 0.9110 0.9110 0.9110
844.380018 0.9100 0.9100 0.9080 0.9080 0.9070
851.036833 0.9070 0.9060 0.9040 0.9030 0.9020
857.693648 0.9020 0.8990 0.8960 0.8950 0.8920
864.350462 0.8920 0.8910 0.8900 0.8880 0.8860
871.007277 0.8840 0.8830 0.8790 0.8740 0.8710
877.664092 0.8670 0.8640 0.8620 0.8620 0.8540
884.320906 0.8440 0.8390 0.8320 0.8240 0.8170
890.977721 0.8080 0.8040 0.7910 0.7770 0.7640
897.634535 0.7490 0.7321 0.7220 0.7001 0.6423
904.291350 0.6110 0.5820 0.5510 0.5150 0.4651
910.948165 0.4231 0.4021 0.4010 0.4020 0.4129
917.604979 0.4240 0.4310 0.4410 0.4510 0.4769
924.261794 0.4969 0.5149 0.5319 0.5400 0.5499
930.918609 0.5630 0.5670 0.5750 0.5800 0.5820
937.575423 0.5820 0.5830 0.5850 0.5900 0.5940
944.232238 0.6020 0.6060 0.6220 0.6390 0.6570
950.889052 0.6650 0.6720 0.6879 0.7039 0.7139
957.545867 0.7220 0.7300 0.7360 0.7450 0.7460
964.202682 0.7490 0.7510 0.7530 0.7550 0.7560
970.859496 0.7570 0.7590 0.7590 0.7590 0.7590
977.516311 0.7560 0.7530 0.7510 0.7440 0.7380
984.173126 0.7220 0.7010 0.6900 0.6540 0.6330
990.829940 0.6101 0.5751 0.5312 0.5121 0.4772
997.486755 0.4089 0.3680 0.3210 0.2690 0.1941
1004.143569 0.1790 0.1631 0.1481 0.1191 0.1160
1010.800384 0.1170 0.1270 0.1360 0.1550 0.1670
1017.457199 0.1800 0.1979 0.2020 0.2060 0.1990
1024.114013 0.1860 0.1740 0.1560 0.1440 0.1330
1030.770828 0.1230 0.1110 0.1080 0.1080 0.1090
1037.427643 0.1200 0.1270 0.1370 0.1650 0.1820
1044.084457 0.1920 0.2020 0.2239 0.2349 0.2619
1050.741272 0.2890 0.3140 0.3360 0.3560 0.3770
1057.398086 0.3930 0.4040 0.4239 0.4349 0.4439
1064.054901 0.4520 0.4590 0.4670 0.4710 0.4720
1070.711716 0.4770 0.4800 0.4800 0.4790 0.4760
1077.368530 0.4730 0.4720 0.4670 0.4600 0.4450
1084.025345 0.4290 0.4200 0.4041 0.3901 0.3820
1090.682160 0.3640 0.3410 0.3340 0.3210 0.3050
1097.338974 0.2990 0.2900 0.2810 0.2710 0.2630
1103.995789 0.2610 0.2590 0.2590 0.2610 0.2620
1110.652603 0.2740 0.2850 0.2970 0.3050 0.3259
1117.309418 0.3460 0.3700 0.4170 0.4350 0.4520
1123.966233 0.4929 0.5229 0.5539 0.5759 0.5969
1130.623047 0.6060 0.6370 0.6620 0.6680 0.6730
1137.279862 0.6840 0.7010 0.7090 0.7170 0.7329
1143.936676 0.7410 0.7480 0.7530 0.7630 0.7710
1150.593491 0.7750 0.7800 0.7840 0.7890 0.7930
1157.250306 0.8000 0.8010 0.8070 0.8120 0.8170
1163.907120 0.8210 0.8250 0.8280 0.8310 0.8320
1170.563935 0.8360 0.8400 0.8440 0.8500 0.8510
1177.220750 0.8540 0.8560 0.8600 0.8620 0.8640
1183.877564 0.8680 0.8720 0.8740 0.8760 0.8800
1190.534379 0.8830 0.8840 0.8870 0.8910 0.8910
1197.191193 0.8940 0.8960 0.8990 0.9000 0.9000
1203.848008 0.9020 0.9030 0.9040 0.9060 0.9060
1210.504823 0.9080 0.9140 0.9150 0.9180 0.9190
1217.161637 0.9210 0.9210 0.9220 0.9220 0.9230
1223.818452 0.9230 0.9230 0.9250 0.9250 0.9260
1230.475267 0.9260 0.9270 0.9290 0.9310 0.9340
1237.132081 0.9340 0.9340 0.9340 0.9350 0.9370
1243.788896 0.9370 0.9370 0.9370 0.9370 0.9380
1250.445710 0.9410 0.9410 0.9420 0.9430 0.9450
1257.102525 0.9460 0.9460 0.9470 0.9490 0.9500
1263.759340 0.9500 0.9510 0.9510 0.9510 0.9530
1270.416154 0.9530 0.9540 0.9540 0.9530 0.9530
1277.072969 0.9540 0.9540 0.9540 0.9540 0.9550
1283.729784 0.9550 0.9570 0.9570 0.9570 0.9570
1290.386598 0.9570 0.9570 0.9580 0.9580 0.9590
1297.043413 0.9610 0.9610 0.9610 0.9610 0.9610
1303.700227 0.9610 0.9590 0.9610 0.9610 0.9620
1310.357042 0.9650 0.9660 0.9660 0.9660 0.9660
1317.013857 0.9670 0.9670 0.9630 0.9630 0.9620
1323.670671 0.9620 0.9620 0.9660 0.9650 0.9650
1330.327486 0.9650 0.9650 0.9650 0.9650 0.9630
1336.984301 0.9630 0.9630 0.9630 0.9630 0.9650
1343.641115 0.9650 0.9650 0.9630 0.9630 0.9630
1350.297930 0.9630 0.9630 0.9650 0.9660 0.9650
1356.954744 0.9650 0.9650 0.9650 0.9650 0.9650
1363.611559 0.9660 0.9660 0.9670 0.9670 0.9670
1370.268374 0.9660 0.9660 0.9660 0.9650 0.9650
1376.925188 0.9630 0.9630 0.9630 0.9650 0.9650
1383.582003 0.9650 0.9650 0.9660 0.9660 0.9660
1390.238818 0.9660 0.9660 0.9670 0.9670 0.9670
1396.895632 0.9670 0.9670 0.9670 0.9670 0.9670
1403.552447 0.9670 0.9670 0.9670 0.9670 0.9670
1410.209261 0.9660 0.9660 0.9660 0.9660 0.9660
1416.866076 0.9660 0.9660 0.9660 0.9660 0.9660
1423.522891 0.9660 0.9660 0.9660 0.9660 0.9660
1430.179705 0.9660 0.9660 0.9660 0.9670 0.9670
1436.836520 0.9670 0.9670 0.9670 0.9670 0.9670
1443.493335 0.9670 0.9670 0.9670 0.9670 0.9670
1450.150149 0.9670 0.9670 0.9670 0.9670 0.9670
1456.806964 0.9670 0.9670 0.9670 0.9670 0.9670
1463.463778 0.9660 0.9660 0.9670 0.9670 0.9670
1470.120593 0.9670 0.9670 0.9670 0.9690 0.9700
1476.777408 0.9700 0.9700 0.9700 0.9700 0.9690
1483.434222 0.9690 0.9700 0.9700 0.9700 0.9710
1490.091037 0.9700 0.9710 0.9710 0.9710 0.9700
1496.747852 0.9700 0.9700 0.9710 0.9730 0.9740
1503.404666 0.9740 0.9730 0.9710 0.9710 0.9700
1510.061481 0.9700 0.9700 0.9700 0.9710 0.9710
1516.718295 0.9710 0.9710 0.9710 0.9710 0.9710
1523.375110 0.9700 0.9700 0.9690 0.9690 0.9690
1530.031925 0.9690 0.9690 0.9670 0.9670 0.9690
1536.688739 0.9700 0.9700 0.9700 0.9700 0.9700
1543.345554 0.9690 0.9690 0.9690 0.9690 0.9690
1550.002369 0.9670 0.9670 0.9670 0.9670 0.9670
1556.659183 0.9670 0.9670 0.9660 0.9660 0.9660
1563.315998 0.9660 0.9650 0.9630 0.9630 0.9630
1569.972812 0.9630 0.9620 0.9620 0.9620 0.9610
1576.629627 0.9590 0.9580 0.9580 0.9570 0.9570
1583.286442 0.9550 0.9540 0.9510 0.9500 0.9500
1589.943256 0.9460 0.9430 0.9420 0.9410 0.9390
1596.600071 0.9370 0.9340 0.9310 0.9270 0.9260
1603.256885 0.9220 0.9180 0.9150 0.9120 0.9100
1609.913700 0.9070 0.9040 0.9030 0.9020 0.9000
1616.570515 0.8990 0.8990 0.8990 0.8990 0.8990
1623.227329 0.8990 0.8990 0.9000 0.9000 0.9000
1629.884144 0.9020 0.9030 0.9030 0.9040 0.9070
1636.540959 0.9100 0.9110 0.9120 0.9120 0.9140
1643.197773 0.9150 0.9170 0.9210 0.9220 0.9230
1649.854588 0.9250 0.9250 0.9260 0.9260 0.9270
1656.511402 0.9290 0.9300 0.9300 0.9300 0.9310
1663.168217 0.9330 0.9330 0.9350 0.9370 0.9380
1669.825032 0.9390 0.9410 0.9420 0.9430 0.9450
1676.481846 0.9450 0.9450 0.9460 0.9460 0.9500
1683.138661 0.9510 0.9530 0.9530 0.9540 0.9540
1689.795476 0.9540 0.9540 0.9540 0.9540 0.9540
1696.452290 0.9540 0.9550 0.9550 0.9550 0.9550
1703.109105 0.9550 0.9550 0.9570 0.9570 0.9570
1709.765919 0.9590 0.9590 0.9610 0.9610 0.9610
1716.422734 0.9610 0.9610 0.9610 0.9590 0.9590
1723.079549 0.9610 0.9610 0.9620 0.9620 0.9620
1729.736363 0.9620 0.9630 0.9630 0.9650 0.9660
1736.393178 0.9660 0.9660 0.9650 0.9650 0.9650
1743.049993 0.9650 0.9660 0.9670 0.9670 0.9670
1749.706807 0.9670 0.9670 0.9670 0.9670 0.9690
1756.363622 0.9690 0.9690 0.9690 0.9690 0.9690
1763.020436 0.9690 0.9690 0.9690 0.9690 0.9690
1769.677251 0.9690 0.9690 0.9690 0.9690 0.9670
1776.334066 0.9670 0.9670 0.9670 0.9670 0.9660
1782.990880 0.9660 0.9670 0.9690 0.9690 0.9690
1789.647695 0.9690 0.9690 0.9690 0.9690 0.9670
1796.304510 0.9670 0.9660 0.9660 0.9660 0.9660
1802.961324 0.9660 0.9660 0.9660 0.9660 0.9660
1809.618139 0.9660 0.9660 0.9660 0.9670 0.9660
1816.274953 0.9660 0.9660 0.9660 0.9660 0.9660
1822.931768 0.9650 0.9650 0.9650 0.9650 0.9660
1829.588583 0.9660 0.9660 0.9660 0.9660 0.9650
1836.245397 0.9650 0.9650 0.9650 0.9660 0.9670
1842.902212 0.9670 0.9670 0.9660 0.9660 0.9690
1849.559027 0.9690 0.9700 0.9700 0.9700 0.9690
1856.215841 0.9690 0.9670 0.9670 0.9670 0.9660
1862.872656 0.9660 0.9660 0.9650 0.9650 0.9650
1869.529470 0.9650 0.9660 0.9660 0.9660 0.9670
1876.186285 0.9670 0.9670 0.9670 0.9670 0.9670
1882.843100 0.9670 0.9670 0.9670 0.9670 0.9670
1889.499914 0.9670 0.9660 0.9660 0.9660 0.9650
1896.156729 0.9650 0.9650 0.9650 0.9650 0.9650
1902.813544 0.9660 0.9660 0.9650 0.9650 0.9630
1909.470358 0.9630 0.9620 0.9620 0.9630 0.9630
1916.127173 0.9660 0.9660 0.9650 0.9650 0.9650
1922.783987 0.9630 0.9650 0.9650 0.9630 0.9620
1929.440802 0.9620 0.9610 0.9610 0.9610 0.9610
1936.097617 0.9610 0.9620 0.9620 0.9630 0.9630
1942.754431 0.9630 0.9630 0.9620 0.9620 0.9620
1949.411246 0.9620 0.9620 0.9620 0.9620 0.9620
1956.068061 0.9630 0.9630 0.9620 0.9610 0.9620
1962.724875 0.9620 0.9620 0.9630 0.9630 0.9630
1969.381690 0.9650 0.9630 0.9630 0.9630 0.9630
1976.038504 0.9660 0.9660 0.9670 0.9660 0.9660
1982.695319 0.9660 0.9650 0.9630 0.9630 0.9630
1989.352134 0.9630 0.9630 0.9650 0.9650 0.9660
1996.008948 0.9670 0.9670 0.9670 0.9660 0.9660
2002.665763 0.9660 0.9655 0.9650 0.9650 0.9650
2009.322578 0.9640 0.9630 0.9625 0.9620 0.9605
2015.979392 0.9590 0.9585 0.9580 0.9575 0.9570
2022.636207 0.9560 0.9550 0.9550 0.9550 0.9550
2029.293021 0.9550 0.9550 0.9550 0.9550 0.9550
2035.949836 0.9550 0.9550 0.9545 0.9540 0.9540
2042.606651 0.9540 0.9540 0.9540 0.9540 0.9540
2049.263465 0.9535 0.9530 0.9530 0.9530 0.9530
2055.920280 0.9530 0.9530 0.9530 0.9530 0.9530
2062.577094 0.9530 0.9530 0.9530 0.9531 0.9536
2069.233909 0.9540 0.9540 0.9540 0.9540 0.9539
2075.890724 0.9534 0.9530 0.9530 0.9530 0.9530
2082.547538 0.9532 0.9542 0.9550 0.9550 0.9550
2089.204353 0.9550 0.9550 0.9550 0.9549 0.9544
2095.861168 0.9540 0.9540 0.9540 0.9540 0.9539
2102.517982 0.9534 0.9528 0.9518 0.9510 0.9510
2109.174797 0.9510 0.9510 0.9510 0.9510 0.9510
2115.831611 0.9510 0.9510 0.9510 0.9510 0.9510
2122.488426 0.9510 0.9510 0.9513 0.9528 0.9540
2129.145241 0.9540 0.9541 0.9546 0.9550 0.9550
2135.802055 0.9550 0.9550 0.9550 0.9550 0.9553
2142.458870 0.9563 0.9570 0.9570 0.9567 0.9557
2149.115685 0.9549 0.9544 0.9539 0.9534 0.9530
2155.772499 0.9530 0.9527 0.9517 0.9510 0.9510
2162.429314 0.9510 0.9510 0.9513 0.9523 0.9530
2169.086128 0.9530 0.9532 0.9537 0.9540 0.9540
2175.742943 0.9542 0.9547 0.9550 0.9550 0.9553
2182.399758 0.9563 0.9570 0.9570 0.9570 0.9570
2189.056572 0.9566 0.9556 0.9550 0.9550 0.9550
2195.713387 0.9550 0.9550 0.9550 0.9550 0.9550
2202.370202 0.9548 0.9543 0.9542 0.9547 0.9550
2209.027016 0.9550 0.9550 0.9550 0.9550 0.9550
2215.683831 0.9550 0.9550 0.9550 0.9550 0.9550
2222.340645 0.9550 0.9550 0.9550 0.9554 0.9564
2228.997460 0.9566 0.9556 0.9550 0.9550 0.9548
2235.654275 0.9543 0.9538 0.9533 0.9530 0.9530
2242.311089 0.9530 0.9530 0.9530 0.9530 0.9530
2248.967904 0.9530 0.9532 0.9537 0.9540 0.9540
2255.624719 0.9540 0.9540 0.9538 0.9533 0.9530
2262.281533 0.9530 0.9525 0.9515 0.9510 0.9510
2268.938348 0.9510 0.9510 0.9515 0.9525 0.9530
2275.595162 0.9530 0.9530 0.9530 0.9530 0.9530
2282.251977 0.9533 0.9538 0.9540 0.9540 0.9540
2288.908792 0.9540 0.9540 0.9540 0.9540 0.9540
2295.565606 0.9540 0.9540 0.9540 0.9540 0.9543
2302.222421 0.9548 0.9550 0.9550 0.9550 0.9550
2308.879236 0.9550 0.9550 0.9550 0.9550 0.9550
2315.536050 0.9550 0.9550 0.9550 0.9547 0.9542
2322.192865 0.9540 0.9540 0.9537 0.9532 0.9524
2328.849679 0.9514 0.9507 0.9502 0.9500 0.9500
2335.506494 0.9497 0.9492 0.9490 0.9490 0.9490
2342.163309 0.9490 0.9480 0.9465 0.9457 0.9452
2348.820123 0.9443 0.9433 0.9427 0.9422 0.9420
2355.476938 0.9420 0.9420 0.9420 0.9420 0.9420
2362.133753 0.9420 0.9420 0.9417 0.9412 0.9403
2368.790567 0.9393 0.9390 0.9390 0.9386 0.9381
2375.447382 0.9380 0.9380 0.9380 0.9380 0.9380
2382.104196 0.9380 0.9384 0.9389 0.9390 0.9390
2388.761011 0.9412 0.9442 0.9457 0.9467 0.9477
2395.417826 0.9487 0.9490 0.9490 0.9490 0.9490
2402.074640 0.9490 0.9490 0.9490 0.9490 0.9490
2408.731455 0.9490 0.9490 0.9490 0.9490 0.9490
2415.388270 0.9490 0.9490 0.9490 0.9490 0.9490
2422.045084 0.9490 0.9490 0.9490 0.9490 0.9490
2428.701899 0.9490 0.9490 0.9490 0.9490 0.9490
2435.358713 0.9490 0.9490 0.9490 0.9490 0.9490
2442.015528 0.9490 0.9490 0.9482 0.9472 0.9470
2448.672343 0.9470 0.9470 0.9470 0.9470 0.9470
2455.329157 0.9470 0.9470 0.9470 0.9470 0.9466
2461.985972 0.9461 0.9460 0.9460 0.9460 0.9460
2468.642787 0.9460 0.9460 0.9460 0.9460 0.9460
2475.299601 0.9460 0.9460 0.9460 0.9460 0.9460
2481.956416 0.9460 0.9460 0.9460 0.9460 0.9460
2488.613230 0.9460 0.9460 0.9460 0.9460 0.9460
2495.270045 0.9460 0.9460 0.9460 0.9460 0.9460
2501.926860 0.9460 0.9460 0.9460 0.9460 0.9460
2508.583674 0.9460 0.9460 0.9460 0.9460 0.9460
2515.240489 0.9460 0.9460 0.9460 0.9460 0.9460
2521.897304 0.9460 0.9460 0.9460 0.9460 0.9460
2528.554118 0.9460 0.9460 0.9460 0.9460 0.9460
2535.210933 0.9460 0.9460 0.9460 0.9460 0.9460
2541.867747 0.9460 0.9460 0.9460 0.9460 0.9460
2548.524562 0.9460 0.9460 0.9460 0.9460 0.9460
2555.181377 0.9460 0.9455 0.9450 0.9450 0.9450
2561.838191 0.9450 0.9450 0.9450 0.9450 0.9450
2568.495006 0.9449 0.9439 0.9430 0.9430 0.9430
2575.151820 0.9425 0.9420 0.9420 0.9420 0.9420
2581.808635 0.9420 0.9420 0.9421 0.9426 0.9430
2588.465450 0.9430 0.9429 0.9424 0.9420 0.9420
2595.122264 0.9420 0.9420 0.9420 0.9420 0.9420
2601.779079 0.9420 0.9419 0.9414 0.9410 0.9410
2608.435894 0.9411 0.9416 0.9420 0.9420 0.9420
2615.092708 0.9420 0.9420 0.9420 0.9420 0.9420
2621.749523 0.9421 0.9426 0.9433 0.9448 0.9461
2628.406337 0.9466 0.9470 0.9470 0.9469 0.9464
2635.063152 0.9459 0.9454 0.9447 0.9432 0.9419
2641.719967 0.9414 0.9410 0.9410 0.9410 0.9410
2648.376781 0.9410 0.9410 0.9410 0.9410 0.9410
2655.033596 0.9410 0.9410 0.9410 0.9411 0.9416
2661.690411 0.9420 0.9420 0.9419 0.9414 0.9410
2668.347225 0.9410 0.9410 0.9410 0.9410 0.9410
2675.004040 0.9407 0.9397 0.9390 0.9390 0.9390
2681.660854 0.9390 0.9393 0.9403 0.9410 0.9410
2688.317669 0.9407 0.9397 0.9390 0.9390 0.9390
2694.974484 0.9390 0.9390 0.9390 0.9390 0.9390
2701.631298 0.9388 0.9383 0.9380 0.9380 0.9380
2708.288113 0.9380 0.9380 0.9380 0.9380 0.9380
2714.944928 0.9380 0.9380 0.9380 0.9380 0.9380
2721.601742 0.9380 0.9382 0.9387 0.9390 0.9390
2728.258557 0.9383 0.9363 0.9350 0.9350 0.9350
2734.915371 0.9350 0.9354 0.9364 0.9372 0.9377
2741.572186 0.9382 0.9387 0.9390 0.9390 0.9386
2748.229001 0.9376 0.9370 0.9370 0.9370 0.9370
2754.885815 0.9370 0.9370 0.9366 0.9356 0.9350
2761.542630 0.9350 0.9350 0.9350 0.9350 0.9350
2768.199445 0.9350 0.9350 0.9350 0.9350 0.9350
2774.856259 0.9350 0.9350 0.9350 0.9348 0.9343
2781.513074 0.9340 0.9340 0.9340 0.9340 0.9342
2788.169888 0.9347 0.9350 0.9350 0.9350 0.9350
2794.826703 0.9355 0.9365 0.9373 0.9378 0.9380
2801.483518 0.9380 0.9377 0.9372 0.9365 0.9355
2808.140332 0.9347 0.9342 0.9332 0.9317 0.9310
2814.797147 0.9310 0.9310 0.9310 0.9310 0.9310
2821.453962 0.9310 0.9310 0.9316 0.9326 0.9330
2828.110776 0.9330 0.9324 0.9314 0.9310 0.9310
2834.767591 0.9307 0.9302 0.9300 0.9300 0.9300
2841.424405 0.9300 0.9300 0.9300 0.9297 0.9292
2848.081220 0.9281 0.9266 0.9257 0.9252 0.9244
2854.738035 0.9234 0.9230 0.9230 0.9230 0.9230
2861.394849 0.9230 0.9230 0.9230 0.9230 0.9230
2868.051664 0.9230 0.9230 0.9230 0.9230 0.9230
2874.708479 0.9227 0.9222 0.9220 0.9220 0.9220
2881.365293 0.9220 0.9220 0.9220 0.9220 0.9220
2888.022108 0.9220 0.9220 0.9220 0.9220 0.9220
2894.678922 0.9220 0.9220 0.9220 0.9220 0.9220
2901.335737 0.9220 0.9220 0.9216 0.9211 0.9203
2907.992552 0.9193 0.9190 0.9190 0.9190 0.9190
2914.649366 0.9190 0.9190 0.9190 0.9190 0.9186
2921.306181 0.9181 0.9180 0.9180 0.9176 0.9171
2927.962996 0.9163 0.9152 0.9146 0.9141 0.9132
2934.619810 0.9122 0.9120 0.9120 0.9128 0.9138
2941.276625 0.9140 0.9140 0.9140 0.9140 0.9144
2947.933439 0.9149 0.9158 0.9168 0.9170 0.9170
2954.590254 0.9170 0.9170 0.9170 0.9170 0.9170
2961.247069 0.9170 0.9170 0.9170 0.9170 0.9170
2967.903883 0.9170 0.9170 0.9170 0.9170 0.9162
2974.560698 0.9152 0.9150 0.9150 0.9158 0.9168
2981.217513 0.9170 0.9170 0.9170 0.9170 0.9174
2987.874327 0.9179 0.9180 0.9180 0.9180 0.9180
2994.531142 0.9184 0.9189 0.9190 0.9190 0.9199
3001.187956 0.9209 0.9210 0.9210 0.9197 0.9182
3007.844771 0.9167 0.9151 0.9150 0.9150 0.9159
3014.501586 0.9169 0.9175 0.9180 0.9180 0.9180
3021.158400 0.9180 0.9180 0.9175 0.9170 0.9156
3027.815215 0.9141 0.9140 0.9140 0.9131 0.9121
3034.472029 0.9120 0.9120 0.9120 0.9120 0.9115
3041.128844 0.9110 0.9110 0.9110 0.9115 0.9120
3047.785659 0.9120 0.9120 0.9120 0.9120 0.9130
3054.442473 0.9140 0.9140 0.9140 0.9130 0.9120
3061.099288 0.9120 0.9120 0.9115 0.9110 0.9105
3067.756103 0.9100 0.9100 0.9100 0.9100 0.9100
3074.412917 0.9100 0.9100 0.9100 0.9100 0.9090
3081.069732 0.9080 0.9080 0.9080 0.9080 0.9080
3087.726546 0.9080 0.9080 0.9080 0.9080 0.9080
3094.383361 0.9080 0.9080 0.9080 0.9075 0.9070
3101.040176 0.9065 0.9059 0.9049 0.9040 0.9040
3107.696990 0.9040 0.9035 0.9030 0.9030 0.9030
3114.353805 0.9030 0.9030 0.9030 0.9030 0.9030
3121.010620 0.9030 0.9030 0.9030 0.9030 0.9029
3127.667434 0.9024 0.9019 0.9009 0.8999 0.8994
3134.324249 0.8990 0.8990 0.8989 0.8984 0.8980
3140.981063 0.8980 0.8980 0.8980 0.8980 0.8980
3147.637878 0.8980 0.8980 0.8978 0.8968 0.8959
3154.294693 0.8954 0.8950 0.8950 0.8949 0.8944
3160.951507 0.8940 0.8940 0.8938 0.8928 0.8919
3167.608322 0.8914 0.8910 0.8910 0.8909 0.8904
3174.265137 0.8900 0.8900 0.8900 0.8900 0.8898
3180.921951 0.8888 0.8880 0.8880 0.8880 0.8880
3187.578766 0.8879 0.8874 0.8870 0.8870 0.8870
3194.235580 0.8870 0.8870 0.8870 0.8866 0.8851
3200.892395 0.8839 0.8834 0.8829 0.8824 0.8816
3207.549210 0.8801 0.8790 0.8790 0.8789 0.8784
3214.206024 0.8780 0.8780 0.8777 0.8767 0.8759
3220.862839 0.8753 0.8748 0.8743 0.8740 0.8740
3227.519654 0.8737 0.8727 0.8720 0.8720 0.8720
3234.176468 0.8720 0.8718 0.8713 0.8710 0.8710
3240.833283 0.8708 0.8703 0.8697 0.8687 0.8680
3247.490097 0.8680 0.8676 0.8666 0.8660 0.8660
3254.146912 0.8660 0.8660 0.8656 0.8646 0.8636
3260.803727 0.8626 0.8616 0.8606 0.8600 0.8600
3267.460541 0.8598 0.8593 0.8588 0.8583 0.8580
3274.117356 0.8580 0.8576 0.8566 0.8558 0.8553
3280.774171 0.8548 0.8543 0.8534 0.8519 0.8510
3287.430985 0.8510 0.8508 0.8503 0.8494 0.8479
3294.087800 0.8464 0.8449 0.8438 0.8433 0.8428
3300.744614 0.8423 0.8420 0.8420 0.8415 0.8405
3307.401429 0.8398 0.8393 0.8390 0.8390 0.8381
3314.058244 0.8361 0.8343 0.8328 0.8310 0.8290
3320.715058 0.8268 0.8243 0.8223 0.8208 0.8198
3327.371873 0.8192 0.8185 0.8175 0.8160 0.8140
3334.028688 0.8127 0.8122 0.8117 0.8112 0.8100
3340.685502 0.8080 0.8054 0.8024 0.8007 0.8002
3347.342317 0.7997 0.7992 0.7974 0.7944 0.7925
3353.999131 0.7914 0.7910 0.7910 0.7899 0.7879
3360.655946 0.7853 0.7823 0.7804 0.7794 0.7779
3367.312761 0.7759 0.7739 0.7718 0.7704 0.7694
3373.969575 0.7678 0.7658 0.7644 0.7634 0.7618
3380.626390 0.7598 0.7581 0.7566 0.7548 0.7528
3387.283205 0.7511 0.7496 0.7474 0.7449 0.7431
3393.940019 0.7416 0.7407 0.7402 0.7391 0.7376
3400.596834 0.7367 0.7362 0.7347 0.7327 0.7310
3407.253648 0.7295 0.7277 0.7257 0.7247 0.7242
3413.910463 0.7230 0.7215 0.7207 0.7202 0.7190
3420.567278 0.7175 0.7167 0.7162 0.7150 0.7135
3427.224092 0.7116 0.7096 0.7080 0.7065 0.7053
3433.880907 0.7043 0.7033 0.7023 0.7016 0.7011
3440.537722 0.7006 0.7001 0.6993 0.6983 0.6976
3447.194536 0.6971 0.6970 0.6970 0.6966 0.6961
3453.851351 0.6960 0.6960 0.6953 0.6943 0.6940
3460.508165 0.6940 0.6936 0.6931 0.6930 0.6930
3467.164980 0.6930 0.6930 0.6930 0.6930 0.6930
3473.821795 0.6930 0.6930 0.6930 0.6930 0.6930
3480.478609 0.6930 0.6930 0.6930 0.6930 0.6934
3487.135424 0.6939 0.6940 0.6940 0.6940 0.6940
3493.792238 0.6948 0.6958 0.6960 0.6960 0.6964
3500.449053 0.6969 0.6970 0.6970 0.6974 0.6979
3507.105868 0.6988 0.6998 0.7004 0.7009 0.7014
3513.762682 0.7019 0.7029 0.7039 0.7049 0.7059
3520.419497 0.7069 0.7079 0.7084 0.7089 0.7094
3527.076312 0.7099 0.7100 0.7100 0.7109 0.7119
3533.733126 0.7124 0.7129 0.7130 0.7130 0.7148
3540.389941 0.7168 0.7175 0.7180 0.7189 0.7199
3547.046755 0.7209 0.7219 0.7234 0.7249 0.7255
3553.703570 0.7260 0.7269 0.7279 0.7289 0.7299
3560.360385 0.7319 0.7339 0.7349 0.7359 0.7365
3567.017199 0.7370 0.7375 0.7380 0.7395 0.7410
3573.674014 0.7415 0.7420 0.7430 0.7440 0.7445
3580.330829 0.7450 0.7465 0.7480 0.7485 0.7490
3586.987643 0.7500 0.7510 0.7515 0.7520 0.7525
3593.644458 0.7530 0.7530 0.7530 0.7530 0.7530
3600.301272 0.7530 0.7530 0.7520 0.7510 0.7495
3606.958087 0.7480 0.7465 0.7436 0.6961 0.6493
3613.614902 0.6273 0.6053 0.5832 0.5612 0.5389
3620.271716 0.5180 0.5180 0.5193 0.5383 0.5591
3626.928531 0.6047 0.6475 0.6545 0.6615 0.6680
3633.585346 0.6744 0.6794 0.6844 0.6889 0.6930
3640.242160 0.6935 0.6940 0.6935 0.6927 0.6891
3646.898975 0.6857 0.6827 0.6796 0.6766 0.6731
3653.555789 0.6656 0.6589 0.6584 0.6581 0.6586
3660.212604 0.6594 0.6629 0.6661 0.6671 0.6681
3666.869419 0.6686 0.6691 0.6696 0.6700 0.6700
3673.526233 0.6700 0.6700 0.6693 0.6653 0.6610
3680.183048 0.6550 0.6435 0.6054 0.5692 0.5417
3686.839863 0.5160 0.4990 0.4763 0.4278 0.3880
3693.496677 0.3880 0.3920 0.4141 0.4342 0.4458
3700.153492 0.4573 0.4678 0.4783 0.4888 0.5067
3706.810306 0.5507 0.5945 0.6370 0.6761 0.7031
3713.467121 0.7273 0.7418 0.7555 0.7665 0.7782
3720.123936 0.7923 0.8055 0.8160 0.8252 0.8303
3726.780750 0.8351 0.8391 0.8431 0.8471 0.8503
3733.437565 0.8513 0.8528 0.8558 0.8585 0.8606
3740.094380 0.8631 0.8671 0.8701 0.8706 0.8716
3746.751194 0.8736 0.8754 0.8769 0.8783 0.8793
3753.408009 0.8803 0.8813 0.8823 0.8833 0.8845
3760.064823 0.8860 0.8870 0.8870 0.8872 0.8877
3766.721638 0.8883 0.8893 0.8900 0.8900 0.8902
3773.378453 0.8907 0.8912 0.8917 0.8920 0.8920
3780.035267 0.8924 0.8934 0.8940 0.8940 0.8940
3786.692082 0.8940 0.8942 0.8947 0.8950 0.8950
3793.348897 0.8950 0.8950 0.8950 0.8950 0.8952
3800.005711 0.8957 0.8960 0.8960 0.8960 0.8960
3806.662526 0.8960 0.8960 0.8964 0.8974 0.8980
3813.319340 0.8980 0.8980 0.8980 0.8982 0.8987
3819.976155 0.8990 0.8990 0.8990 0.8990 0.8990
3826.632970 0.8990 0.8990 0.8990 0.8990 0.8990
3833.289784 0.8990 0.8990 0.8990 0.8990 0.8990
3839.946599 0.8990 0.8990 0.8990 0.8990 0.8990
3846.603414 0.8990 0.8990 0.8990 0.8990 0.8990
3853.260228 0.8990 0.8990 0.8990 0.8990 0.8990
3859.917043 0.8990 0.8990 0.8990 0.8990 0.8990
3866.573857 0.8990 0.8990 0.8990 0.8990 0.8990
3873.230672 0.8990 0.8990 0.8990 0.8990 0.8990
3879.887487 0.8990 0.8990 0.8990 0.8990 0.8990
3886.544301 0.8990 0.8990 0.8990 0.8990 0.8993
3893.201116 0.8998 0.9000 0.9000 0.9000 0.9000
3899.857931 0.9000 0.9000 0.9000 0.9000 0.9000
3906.514745 0.9000 0.9000 0.9000 0.9000 0.9000
3913.171560 0.9000 0.9000 0.9000 0.9000 0.9000
3919.828374 0.9000 0.9000 0.9000 0.9000 0.9000
3926.485189 0.9000 0.9000 0.9000 0.9000 0.9000
3933.142004 0.9000 0.9000 0.9000 0.9000 0.9000
3939.798818 0.9000 0.9000 0.9000 0.9000 0.9000
3946.455633 0.9000 0.9000 0.9000 0.9000 0.9000
3953.112447 0.9000 0.9000 0.9000 0.9000 0.9000
3959.769262 0.9000 0.9000 0.9000 0.9000 0.9000
3966.426077 0.9000 0.9000 0.9000 0.9000 0.9000
3973.082891 0.9000 0.9000 0.9000 0.9000 0.9000
3979.739706 0.9000 0.9000 0.9000 0.9000 0.9000
3986.396521 0.9000
##END=
