##TITLE=4H,6H-m-DIOXINO[4',5':5,6]PYRANO[4,3-d]-4-OXAZOLIN-2-ONE, HEXAHYDRO-4-METHOXY-1,8-DIPHENYL-
##JCAMP-DX=4.24
##DATA TYPE=INFRARED SPECTRUM
##CLASS=COBLENTZ III
##ORIGIN=SOUTHERN RESEARCH INSTITUTE
##OWNER=COBLENTZ SOCIETY
Collection (C) 2018 copyright by the U.S. Secretary of Commerce
on behalf of the United States of America. All rights reserved.
##DATE=1956/02/07
##NAMES=6-methoxy-2,9-diphenylhexahydro[1,3]dioxino[4',5':5,6]pyrano[4,3-d][1,3]oxazol-8(4H)-one
##MOLFORM=C21 H21 N O6
##SOURCE REFERENCE=COBLENTZ NO. 8323
##$NIST ID=B6008323
##$NIST SOURCE=COBLENTZ
##$NIST IMAGE=cob8323
##SPECTROMETER/DATA SYSTEM=PERKIN-ELMER 21 (GRATING)
##INSTRUMENT PARAMETERS=FILTER CHANGE AT 1070 CM^-^1
##STATE=SOLID (0.9 mg / 650 mg KBr DISC)
$$SPECTRAL CONTAMINATION DUE TO H2O AROUND 3400 CM^-^1
##SAMPLING PROCEDURE=TRANSMISSION
##RESOLUTION=2
##DATA PROCESSING=DIGITIZED BY NIST FROM HARD COPY (FROM TWO SEGMENTS)
##XUNITS=1/CM
##YUNITS=TRANSMITTANCE
##XFACTOR=1.000000
##YFACTOR=1
##DELTAX=1.296596
##FIRSTX=656.678
##LASTX=4062.84
##FIRSTY=0.949
##MAXX=4062.84
##MINX=656.678
##MAXY=0.99
##MINY=0.0486847
##NPOINTS=2628
##XYDATA=(X++(Y..Y))
656.678000 0.9490 0.9480 0.9450 0.9312 0.8695
663.160980 0.8350 0.8012 0.7962 0.7722 0.7682
669.643960 0.7680 0.8550 0.8976 0.9056 0.9227
676.126940 0.9258 0.9242 0.9231 0.9094 0.9062
682.609920 0.8726 0.8304 0.8055 0.7826 0.6999
689.092900 0.5990 0.4957 0.3932 0.3267 0.2661
695.575880 0.2561 0.2568 0.2578 0.2831 0.4317
702.058860 0.8917 0.9830 0.9830 0.9830 0.9814
708.541840 0.9810 0.9802 0.9800 0.9792 0.9782
715.024820 0.9764 0.9729 0.9689 0.9665 0.9630
721.507800 0.9597 0.9567 0.9500 0.9428 0.9337
727.990780 0.9303 0.9249 0.9029 0.8779 0.8583
734.473760 0.8488 0.8393 0.8346 0.8333 0.8316
740.956740 0.8296 0.8034 0.7649 0.7308 0.6760
747.439720 0.6169 0.5620 0.4996 0.4509 0.4122
753.922700 0.3734 0.3196 0.2799 0.2540 0.2422
760.405680 0.2422 0.2860 0.3470 0.3969 0.4160
766.888660 0.4160 0.4160 0.4485 0.5046 0.5598
773.371640 0.6455 0.7252 0.7798 0.8204 0.8340
779.854620 0.8340 0.8340 0.8324 0.8263 0.8174
786.337600 0.8084 0.7943 0.7744 0.7133 0.6379
792.820580 0.5883 0.5610 0.5605 0.5652 0.5728
799.303560 0.5792 0.5858 0.6126 0.6621 0.7115
805.786540 0.7593 0.8037 0.8450 0.8762 0.9017
812.269520 0.9198 0.9313 0.9364 0.9382 0.9420
818.752500 0.9454 0.9468 0.9480 0.9480 0.9480
825.235480 0.9480 0.9480 0.9480 0.9473 0.9460
831.718460 0.9460 0.9457 0.9450 0.9450 0.9450
838.201440 0.9450 0.9450 0.9447 0.9440 0.9440
844.684420 0.9437 0.9430 0.9430 0.9425 0.9407
851.167400 0.9400 0.9397 0.9390 0.9385 0.9370
857.650380 0.9365 0.9341 0.9294 0.9238 0.9221
864.133360 0.9179 0.9136 0.9103 0.9032 0.8982
870.616340 0.8893 0.8814 0.8788 0.8780 0.8782
877.099320 0.8790 0.8792 0.8800 0.8798 0.8787
883.582300 0.8764 0.8726 0.8687 0.8595 0.8556
890.065280 0.8522 0.8444 0.8322 0.8253 0.8192
896.548260 0.8094 0.7807 0.7362 0.7130 0.6621
903.031240 0.5965 0.5323 0.4954 0.4591 0.4604
909.514220 0.4683 0.4743 0.4824 0.5236 0.6360
915.997200 0.6370 0.6371 0.6400 0.6410 0.6410
922.480180 0.6440 0.6460 0.6549 0.6629 0.6757
928.963160 0.7003 0.7195 0.8169 0.8248 0.8307
935.446140 0.8310 0.8310 0.8291 0.8271 0.8261
941.929120 0.8140 0.8010 0.7871 0.7604 0.7444
948.412100 0.7340 0.7276 0.7003 0.6616 0.6350
954.895080 0.6093 0.5596 0.5190 0.5105 0.5117
961.378060 0.5103 0.5083 0.5004 0.4839 0.4677
967.861040 0.4526 0.4260 0.3938 0.3463 0.3354
974.344020 0.3350 0.3366 0.3378 0.3396 0.3400
980.827000 0.3400 0.3400 0.3160 0.2836 0.2554
987.309980 0.2490 0.2738 0.3036 0.3583 0.3860
993.792960 0.3995 0.3964 0.3882 0.3810 0.3647
1000.275940 0.3576 0.3577 0.3671 0.3800 0.3929
1006.758920 0.4058 0.4134 0.4224 0.4320 0.4350
1013.241900 0.4350 0.4272 0.4152 0.4059 0.3966
1019.724880 0.3905 0.3373 0.2806 0.2382 0.2023
1026.207860 0.1882 0.1876 0.1898 0.2510 0.3126
1032.690840 0.3474 0.3812 0.4344 0.4619 0.4604
1039.173820 0.4583 0.4531 0.4450 0.4219 0.3904
1045.656800 0.3487 0.3054 0.2699 0.2320 0.2130
1052.139780 0.2145 0.2297 0.2641 0.3068 0.3378
1058.622760 0.3630 0.3950 0.4424 0.4789 0.4825
1065.105740 0.4830 0.4779 0.4661 0.4554 0.4492
1071.588720 0.4300 0.3871 0.3383 0.3019 0.2893
1078.071700 0.2870 0.2808 0.2659 0.2478 0.2328
1084.554680 0.2310 0.2310 0.2310 0.2299 0.2063
1091.037660 0.1468 0.1056 0.1012 0.0966 0.0937
1097.520640 0.0930 0.1017 0.1284 0.1563 0.2170
1104.003620 0.3043 0.3182 0.3510 0.3624 0.3680
1110.486600 0.3683 0.3690 0.3511 0.2895 0.2436
1116.969580 0.2045 0.1074 0.1014 0.0929 0.0808
1123.452560 0.0800 0.0800 0.0795 0.0785 0.0800
1129.935540 0.0800 0.0800 0.0802 0.0882 0.1178
1136.418520 0.1298 0.1530 0.1694 0.2042 0.3144
1142.901500 0.4242 0.4822 0.4833 0.4852 0.4860
1149.384480 0.4860 0.4871 0.4959 0.5071 0.5083
1155.867460 0.5104 0.5134 0.5160 0.5162 0.5182
1162.350440 0.5200 0.5202 0.5220 0.5221 0.5230
1168.833420 0.5232 0.5250 0.5251 0.5260 0.5260
1175.316400 0.5257 0.5197 0.5125 0.5029 0.5011
1181.799380 0.5039 0.5362 0.5470 0.5490 0.5490
1188.282360 0.5490 0.5490 0.5221 0.4863 0.4476
1194.765340 0.4078 0.3778 0.3460 0.3142 0.2968
1201.248320 0.2799 0.2488 0.2157 0.1744 0.1692
1207.731300 0.1681 0.1699 0.1930 0.2169 0.2426
1214.214280 0.2910 0.3793 0.4133 0.4580 0.4772
1220.697260 0.5019 0.5208 0.5369 0.5546 0.5716
1227.180240 0.5859 0.6066 0.6168 0.6298 0.6664
1233.663220 0.7089 0.7632 0.7894 0.7979 0.8104
1240.146200 0.8202 0.8236 0.8256 0.8260 0.8260
1246.629180 0.8252 0.8219 0.8171 0.8099 0.8019
1253.112160 0.7947 0.7870 0.7730 0.7593 0.7478
1259.595140 0.7362 0.6987 0.6650 0.6347 0.6203
1266.078120 0.6159 0.6150 0.6150 0.6150 0.5900
1272.561100 0.5645 0.5444 0.5238 0.5150 0.5153
1279.044080 0.5219 0.5309 0.5399 0.5489 0.5617
1285.527060 0.5683 0.5937 0.6086 0.6096 0.6038
1292.010040 0.5921 0.5761 0.5587 0.5418 0.5243
1298.493020 0.5070 0.4766 0.4530 0.4405 0.4191
1304.976000 0.4053 0.4040 0.4040 0.4057 0.4163
1311.458980 0.4332 0.4598 0.5636 0.6405 0.6405
1317.941960 0.6405 0.6400 0.6395 0.6380 0.6365
1324.424940 0.6340 0.6296 0.6265 0.6250 0.6249
1330.907920 0.6260 0.6260 0.6260 0.6260 0.6260
1337.390900 0.6260 0.6234 0.6152 0.6004 0.5713
1343.873880 0.5433 0.5277 0.5044 0.4826 0.4614
1350.356860 0.4417 0.4220 0.4045 0.3894 0.3801
1356.839840 0.3763 0.3754 0.3871 0.4390 0.4992
1363.322820 0.5078 0.5205 0.5350 0.5350 0.5340
1369.805800 0.5183 0.4824 0.4612 0.4367 0.4117
1376.288780 0.3906 0.3493 0.3077 0.2858 0.2686
1382.771760 0.2664 0.2748 0.2917 0.3054 0.3150
1389.254740 0.3105 0.2926 0.2759 0.2630 0.2496
1395.737720 0.2380 0.2382 0.2477 0.2862 0.3148
1402.220700 0.3485 0.3960 0.4183 0.4831 0.5056
1408.703680 0.5305 0.5510 0.5743 0.5931 0.6056
1415.186660 0.6142 0.6153 0.6171 0.6181 0.6256
1421.669640 0.6719 0.6882 0.7129 0.7215 0.7360
1428.152620 0.7607 0.7690 0.7880 0.7978 0.7959
1434.635600 0.7950 0.7941 0.7808 0.7635 0.7557
1441.118580 0.7519 0.7500 0.7500 0.7500 0.7500
1447.601560 0.7500 0.7496 0.7326 0.7107 0.6936
1454.084540 0.6678 0.6420 0.6310 0.6181 0.5924
1460.567520 0.5480 0.5441 0.5440 0.5595 0.5745
1467.050500 0.5904 0.6053 0.6733 0.6930 0.7099
1473.533480 0.7287 0.7827 0.8072 0.8090 0.8090
1480.016460 0.8090 0.8090 0.8090 0.7911 0.7562
1486.499440 0.7405 0.7022 0.6578 0.6328 0.6092
1492.982420 0.5672 0.5225 0.4786 0.4382 0.3968
1499.465400 0.3892 0.3923 0.3963 0.4192 0.4871
1505.948380 0.5417 0.6334 0.6915 0.7344 0.7691
1512.431360 0.8160 0.8293 0.8447 0.8653 0.8731
1518.914340 0.8817 0.8893 0.8948 0.9005 0.9065
1525.397320 0.9117 0.9130 0.9130 0.9137 0.9147
1531.880300 0.9164 0.9177 0.9180 0.9180 0.9180
1538.363280 0.9180 0.9180 0.9180 0.9180 0.9180
1544.846260 0.9180 0.9180 0.9180 0.9180 0.9180
1551.329240 0.9174 0.9170 0.9170 0.9157 0.9144
1557.812220 0.9140 0.9140 0.9140 0.9140 0.9134
1564.295200 0.9106 0.9084 0.9068 0.9048 0.9040
1570.778180 0.9017 0.8972 0.8928 0.8866 0.8808
1577.261160 0.8785 0.8775 0.8759 0.8729 0.8615
1583.744140 0.8452 0.8313 0.8179 0.7822 0.7236
1590.227120 0.6782 0.6484 0.6041 0.5716 0.5695
1596.710100 0.5690 0.5695 0.5705 0.5719 0.6212
1603.193080 0.7302 0.7934 0.8109 0.8369 0.8446
1609.676060 0.8493 0.8514 0.8520 0.8524 0.8530
1616.159040 0.8530 0.8530 0.8530 0.8538 0.8554
1622.642020 0.8564 0.8574 0.8580 0.8587 0.8600
1629.125000 0.8603 0.8620 0.8647 0.8670 0.8697
1635.607980 0.8707 0.8703 0.8716 0.8733 0.8743
1642.090960 0.8765 0.8806 0.8826 0.8849 0.8881
1648.573940 0.8910 0.8915 0.8935 0.8950 0.8953
1655.056920 0.8960 0.8967 0.8992 0.9002 0.9012
1661.539900 0.9025 0.9042 0.9052 0.9060 0.9060
1668.022880 0.9060 0.9060 0.9060 0.9060 0.9060
1674.505860 0.9060 0.9060 0.9060 0.9060 0.9060
1680.988840 0.9058 0.9050 0.9050 0.9050 0.9049
1687.471820 0.9037 0.9019 0.9009 0.8997 0.8968
1693.954800 0.8950 0.8948 0.8930 0.8929 0.8918
1700.437780 0.8895 0.8836 0.8789 0.8768 0.8739
1706.920760 0.8728 0.8690 0.8481 0.8288 0.8239
1713.403740 0.8209 0.8179 0.8148 0.8049 0.8018
1719.886720 0.7889 0.7780 0.7680 0.7581 0.7471
1726.369700 0.7371 0.7331 0.7291 0.7164 0.7015
1732.852680 0.6905 0.6814 0.6687 0.6624 0.6488
1739.335660 0.6405 0.6316 0.6125 0.5889 0.5595
1745.818640 0.5206 0.4944 0.4624 0.4287 0.3883
1752.301620 0.3697 0.3592 0.3123 0.2606 0.1881
1758.784600 0.1461 0.1136 0.0827 0.0721 0.0507
1765.267580 0.0487 0.0490 0.0490 0.0614 0.0665
1771.750560 0.1077 0.1283 0.1430 0.1746 0.2131
1778.233540 0.2995 0.3539 0.3872 0.4646 0.5443
1784.716520 0.5712 0.5907 0.6487 0.6974 0.7245
1791.199500 0.7456 0.7695 0.7929 0.8172 0.8262
1797.682480 0.8313 0.8351 0.8388 0.8428 0.8468
1804.165460 0.8508 0.8527 0.8551 0.8587 0.8654
1810.648440 0.8747 0.8833 0.8899 0.8972 0.9078
1817.131420 0.9139 0.9169 0.9199 0.9273 0.9347
1823.614400 0.9407 0.9448 0.9478 0.9490 0.9496
1830.097380 0.9500 0.9512 0.9526 0.9553 0.9576
1836.580360 0.9586 0.9590 0.9590 0.9590 0.9590
1843.063340 0.9584 0.9575 0.9570 0.9570 0.9570
1849.546320 0.9570 0.9570 0.9570 0.9570 0.9570
1856.029300 0.9570 0.9565 0.9560 0.9545 0.9525
1862.512280 0.9511 0.9500 0.9495 0.9490 0.9490
1868.995260 0.9490 0.9490 0.9490 0.9490 0.9490
1875.478240 0.9490 0.9490 0.9490 0.9490 0.9490
1881.961220 0.9490 0.9494 0.9500 0.9500 0.9500
1888.444200 0.9508 0.9524 0.9545 0.9574 0.9584
1894.927180 0.9597 0.9617 0.9637 0.9653 0.9660
1901.410160 0.9660 0.9663 0.9673 0.9677 0.9673
1907.893140 0.9680 0.9680 0.9680 0.9680 0.9686
1914.376120 0.9700 0.9700 0.9700 0.9700 0.9700
1920.859100 0.9700 0.9700 0.9700 0.9700 0.9700
1927.342080 0.9695 0.9680 0.9680 0.9678 0.9668
1933.825060 0.9658 0.9646 0.9630 0.9630 0.9628
1940.308040 0.9618 0.9612 0.9618 0.9607 0.9590
1946.791020 0.9590 0.9588 0.9580 0.9580 0.9579
1953.274000 0.9569 0.9556 0.9529 0.9520 0.9521
1959.756980 0.9529 0.9520 0.9520 0.9520 0.9521
1966.239960 0.9530 0.9531 0.9543 0.9579 0.9561
1972.722940 0.9581 0.9590 0.9590 0.9590 0.9590
1979.205920 0.9590 0.9590 0.9590 0.9590 0.9590
1985.688900 0.9590 0.9590 0.9590 0.9590 0.9590
1992.171880 0.9590 0.9590 0.9610 0.9620 0.9620
1998.654860 0.9659 0.9660 0.9670 0.9670 0.9660
2005.137840 0.9660 0.9670 0.9670 0.9670 0.9670
2011.620820 0.9670 0.9680 0.9699 0.9710 0.9720
2018.103800 0.9739 0.9740 0.9750 0.9750 0.9750
2024.586780 0.9740 0.9721 0.9720 0.9720 0.9720
2031.069760 0.9710 0.9710 0.9710 0.9720 0.9720
2037.552740 0.9720 0.9720 0.9720 0.9720 0.9739
2044.035720 0.9740 0.9721 0.9720 0.9720 0.9720
2050.518700 0.9720 0.9749 0.9760 0.9760 0.9760
2057.001680 0.9760 0.9760 0.9760 0.9779 0.9780
2063.484660 0.9780 0.9780 0.9780 0.9780 0.9780
2069.967640 0.9780 0.9780 0.9790 0.9790 0.9790
2076.450620 0.9790 0.9790 0.9790 0.9790 0.9790
2082.933600 0.9790 0.9790 0.9790 0.9790 0.9790
2089.416580 0.9790 0.9780 0.9790 0.9790 0.9790
2095.899560 0.9790 0.9790 0.9790 0.9790 0.9790
2102.382540 0.9790 0.9790 0.9790 0.9790 0.9790
2108.865520 0.9790 0.9800 0.9800 0.9800 0.9800
2115.348500 0.9810 0.9810 0.9810 0.9810 0.9829
2121.831480 0.9811 0.9810 0.9800 0.9800 0.9800
2128.314460 0.9800 0.9800 0.9800 0.9800 0.9800
2134.797440 0.9800 0.9800 0.9800 0.9810 0.9810
2141.280420 0.9810 0.9810 0.9829 0.9830 0.9830
2147.763400 0.9830 0.9830 0.9830 0.9830 0.9830
2154.246380 0.9830 0.9830 0.9830 0.9840 0.9840
2160.729360 0.9840 0.9840 0.9840 0.9840 0.9840
2167.212340 0.9840 0.9840 0.9840 0.9840 0.9830
2173.695320 0.9830 0.9830 0.9830 0.9830 0.9830
2180.178300 0.9840 0.9840 0.9850 0.9850 0.9869
2186.661280 0.9870 0.9880 0.9880 0.9890 0.9890
2193.144260 0.9890 0.9900 0.9900 0.9900 0.9900
2199.627240 0.9900 0.9900 0.9900 0.9900 0.9900
2206.110220 0.9900 0.9900 0.9900 0.9900 0.9900
2212.593200 0.9900 0.9900 0.9900 0.9900 0.9900
2219.076180 0.9900 0.9900 0.9890 0.9890 0.9890
2225.559160 0.9880 0.9870 0.9870 0.9870 0.9870
2232.042140 0.9870 0.9870 0.9870 0.9851 0.9850
2238.525120 0.9850 0.9850 0.9850 0.9850 0.9840
2245.008100 0.9840 0.9840 0.9840 0.9840 0.9830
2251.491080 0.9830 0.9830 0.9830 0.9811 0.9810
2257.974060 0.9810 0.9800 0.9790 0.9790 0.9790
2264.457040 0.9790 0.9790 0.9790 0.9790 0.9780
2270.940020 0.9780 0.9780 0.9780 0.9780 0.9761
2277.423000 0.9760 0.9750 0.9750 0.9740 0.9740
2283.905980 0.9721 0.9720 0.9710 0.9710 0.9700
2290.388960 0.9700 0.9671 0.9660 0.9593 0.9571
2296.871940 0.9560 0.9541 0.9530 0.9520 0.9501
2303.354920 0.9490 0.9490 0.9480 0.9461 0.9450
2309.837900 0.9450 0.9440 0.9411 0.9410 0.9410
2316.320880 0.9410 0.9410 0.9410 0.9410 0.9410
2322.803860 0.9410 0.9410 0.9410 0.9410 0.9410
2329.286840 0.9410 0.9410 0.9410 0.9410 0.9429
2335.769820 0.9430 0.9430 0.9430 0.9430 0.9430
2342.252800 0.9440 0.9440 0.9440 0.9440 0.9440
2348.735780 0.9440 0.9440 0.9440 0.9440 0.9459
2355.218760 0.9479 0.9490 0.9519 0.9587 0.9619
2361.701740 0.9620 0.9649 0.9660 0.9679 0.9699
2368.184720 0.9719 0.9720 0.9739 0.9750 0.9750
2374.667700 0.9760 0.9779 0.9790 0.9790 0.9790
2381.150680 0.9790 0.9790 0.9780 0.9780 0.9780
2387.633660 0.9780 0.9780 0.9780 0.9780 0.9780
2394.116640 0.9780 0.9780 0.9780 0.9780 0.9780
2400.599620 0.9780 0.9780 0.9780 0.9780 0.9780
2407.082600 0.9780 0.9780 0.9780 0.9780 0.9780
2413.565580 0.9780 0.9780 0.9780 0.9780 0.9780
2420.048560 0.9780 0.9780 0.9780 0.9780 0.9780
2426.531540 0.9780 0.9780 0.9790 0.9790 0.9790
2433.014520 0.9790 0.9790 0.9790 0.9790 0.9790
2439.497500 0.9790 0.9790 0.9790 0.9790 0.9790
2445.980480 0.9790 0.9790 0.9790 0.9790 0.9790
2452.463460 0.9790 0.9790 0.9790 0.9790 0.9790
2458.946440 0.9790 0.9790 0.9780 0.9780 0.9780
2465.429420 0.9761 0.9760 0.9760 0.9750 0.9750
2471.912400 0.9750 0.9740 0.9740 0.9721 0.9710
2478.395380 0.9710 0.9710 0.9710 0.9710 0.9710
2484.878360 0.9710 0.9700 0.9681 0.9670 0.9670
2491.361340 0.9670 0.9660 0.9660 0.9650 0.9660
2497.844320 0.9650 0.9631 0.9630 0.9630 0.9620
2504.327300 0.9620 0.9610 0.9610 0.9591 0.9590
2510.810280 0.9580 0.9570 0.9570 0.9570 0.9570
2517.293260 0.9570 0.9570 0.9570 0.9570 0.9570
2523.776240 0.9580 0.9570 0.9570 0.9560 0.9560
2530.259220 0.9560 0.9560 0.9560 0.9560 0.9560
2536.742200 0.9541 0.9540 0.9540 0.9540 0.9540
2543.225180 0.9540 0.9540 0.9530 0.9530 0.9540
2549.708160 0.9540 0.9540 0.9540 0.9540 0.9559
2556.191140 0.9560 0.9541 0.9540 0.9540 0.9540
2562.674120 0.9530 0.9530 0.9530 0.9530 0.9520
2569.157100 0.9520 0.9530 0.9530 0.9520 0.9520
2575.640080 0.9520 0.9491 0.9490 0.9490 0.9490
2582.123060 0.9490 0.9490 0.9490 0.9480 0.9461
2588.606040 0.9450 0.9450 0.9440 0.9440 0.9440
2595.089020 0.9430 0.9411 0.9410 0.9400 0.9400
2601.572000 0.9400 0.9410 0.9400 0.9400 0.9400
2608.054980 0.9400 0.9390 0.9390 0.9390 0.9371
2614.537960 0.9370 0.9370 0.9370 0.9370 0.9370
2621.020940 0.9370 0.9370 0.9370 0.9370 0.9370
2627.503920 0.9370 0.9370 0.9370 0.9370 0.9370
2633.986900 0.9370 0.9370 0.9370 0.9360 0.9360
2640.469880 0.9360 0.9360 0.9360 0.9350 0.9350
2646.952860 0.9350 0.9350 0.9340 0.9340 0.9340
2653.435840 0.9340 0.9340 0.9340 0.9340 0.9340
2659.918820 0.9340 0.9340 0.9340 0.9350 0.9350
2666.401800 0.9350 0.9350 0.9350 0.9350 0.9350
2672.884780 0.9350 0.9350 0.9350 0.9350 0.9350
2679.367760 0.9350 0.9350 0.9350 0.9350 0.9350
2685.850740 0.9350 0.9350 0.9350 0.9350 0.9350
2692.333720 0.9350 0.9350 0.9350 0.9321 0.9320
2698.816700 0.9320 0.9320 0.9310 0.9310 0.9300
2705.299680 0.9281 0.9270 0.9270 0.9260 0.9260
2711.782660 0.9260 0.9222 0.9210 0.9210 0.9210
2718.265640 0.9210 0.9220 0.9220 0.9210 0.9210
2724.748620 0.9210 0.9210 0.9210 0.9220 0.9220
2731.231600 0.9220 0.9220 0.9210 0.9191 0.9180
2737.714580 0.9170 0.9151 0.9131 0.9130 0.9130
2744.197560 0.9130 0.9130 0.9130 0.9130 0.9140
2750.680540 0.9130 0.9130 0.9130 0.9130 0.9130
2757.163520 0.9120 0.9120 0.9120 0.9120 0.9101
2763.646500 0.9100 0.9100 0.9090 0.9090 0.9090
2770.129480 0.9080 0.9080 0.9061 0.9060 0.9050
2776.612460 0.9040 0.9040 0.9040 0.9021 0.9020
2783.095440 0.8972 0.8960 0.8922 0.8910 0.8900
2789.578420 0.8862 0.8831 0.8772 0.8712 0.8691
2796.061400 0.8623 0.8610 0.8600 0.8533 0.8482
2802.544380 0.8423 0.8343 0.8292 0.8242 0.8211
2809.027360 0.8181 0.8170 0.8132 0.8082 0.8023
2815.510340 0.7982 0.7942 0.7930 0.7911 0.7862
2821.993320 0.7812 0.7772 0.7760 0.7731 0.7730
2828.476300 0.7730 0.7720 0.7720 0.7710 0.7691
2834.959280 0.7671 0.7632 0.7601 0.7581 0.7551
2841.442260 0.7512 0.7462 0.7383 0.7294 0.7252
2847.925240 0.7240 0.7211 0.7191 0.7161 0.7150
2854.408220 0.7140 0.7140 0.7140 0.7150 0.7160
2860.891200 0.7170 0.7189 0.7200 0.7210 0.7210
2867.374180 0.7210 0.7210 0.7200 0.7200 0.7200
2873.857160 0.7210 0.7200 0.7200 0.7190 0.7171
2880.340140 0.7160 0.7141 0.7111 0.7100 0.7081
2886.823120 0.7061 0.7050 0.6993 0.6866 0.6793
2893.306100 0.6771 0.6732 0.6701 0.6662 0.6593
2899.789080 0.6571 0.6570 0.6570 0.6570 0.6551
2906.272060 0.6550 0.6579 0.6667 0.6699 0.6786
2912.755040 0.6896 0.6967 0.7028 0.7078 0.7118
2919.238020 0.7168 0.7228 0.7278 0.7328 0.7378
2925.721000 0.7428 0.7449 0.7469 0.7537 0.7550
2932.203980 0.7579 0.7609 0.7629 0.7640 0.7678
2938.686960 0.7728 0.7740 0.7759 0.7770 0.7770
2945.169940 0.7770 0.7770 0.7770 0.7770 0.7770
2951.652920 0.7770 0.7770 0.7770 0.7780 0.7780
2958.135900 0.7780 0.7799 0.7819 0.7858 0.7898
2964.618880 0.7929 0.7978 0.8028 0.8107 0.8206
2971.101860 0.8220 0.8220 0.8220 0.8239 0.8240
2977.584840 0.8221 0.8220 0.8220 0.8220 0.8239
2984.067820 0.8221 0.8239 0.8240 0.8240 0.8240
2990.550800 0.8240 0.8259 0.8289 0.8290 0.8300
2997.033780 0.8310 0.8329 0.8330 0.8340 0.8340
3003.516760 0.8340 0.8350 0.8350 0.8350 0.8350
3009.999740 0.8360 0.8360 0.8360 0.8360 0.8360
3016.482720 0.8360 0.8360 0.8350 0.8350 0.8340
3022.965700 0.8340 0.8340 0.8340 0.8330 0.8330
3029.448680 0.8330 0.8311 0.8300 0.8300 0.8290
3035.931660 0.8290 0.8271 0.8270 0.8270 0.8270
3042.414640 0.8270 0.8270 0.8270 0.8289 0.8300
3048.897620 0.8310 0.8329 0.8340 0.8340 0.8359
3055.380600 0.8360 0.8379 0.8380 0.8390 0.8390
3061.863580 0.8390 0.8390 0.8400 0.8458 0.8470
3068.346560 0.8480 0.8518 0.8558 0.8579 0.8599
3074.829540 0.8638 0.8659 0.8660 0.8698 0.8786
3081.312520 0.8800 0.8819 0.8839 0.8859 0.8870
3087.795500 0.8880 0.8899 0.8910 0.8920 0.8949
3094.278480 0.8950 0.8960 0.8970 0.8970 0.8989
3100.761460 0.8990 0.9000 0.9010 0.9010 0.9020
3107.244440 0.9020 0.9039 0.9040 0.9050 0.9060
3113.727420 0.9079 0.9080 0.9090 0.9100 0.9100
3120.210400 0.9119 0.9120 0.9120 0.9120 0.9120
3126.693380 0.9120 0.9120 0.9120 0.9120 0.9120
3133.176360 0.9120 0.9120 0.9120 0.9120 0.9120
3139.659340 0.9101 0.9100 0.9100 0.9100 0.9100
3146.142320 0.9100 0.9100 0.9090 0.9090 0.9090
3152.625300 0.9080 0.9080 0.9080 0.9061 0.9060
3159.108280 0.9050 0.9050 0.9050 0.9040 0.9040
3165.591260 0.9021 0.9010 0.9010 0.9010 0.9010
3172.074240 0.9000 0.9000 0.9000 0.9000 0.8990
3178.557220 0.8990 0.8990 0.8971 0.8970 0.8960
3185.040200 0.8960 0.8960 0.8960 0.8960 0.8950
3191.523180 0.8950 0.8950 0.8931 0.8930 0.8930
3198.006160 0.8930 0.8930 0.8930 0.8930 0.8930
3204.489140 0.8930 0.8930 0.8920 0.8920 0.8920
3210.972120 0.8920 0.8920 0.8920 0.8920 0.8920
3217.455100 0.8910 0.8910 0.8910 0.8910 0.8900
3223.938080 0.8881 0.8880 0.8870 0.8870 0.8860
3230.421060 0.8860 0.8841 0.8840 0.8821 0.8820
3236.904040 0.8820 0.8820 0.8820 0.8820 0.8820
3243.387020 0.8801 0.8800 0.8800 0.8800 0.8800
3249.870000 0.8790 0.8790 0.8790 0.8780 0.8780
3256.352980 0.8780 0.8770 0.8770 0.8770 0.8770
3262.835960 0.8770 0.8770 0.8751 0.8750 0.8750
3269.318940 0.8750 0.8740 0.8740 0.8740 0.8730
3275.801920 0.8730 0.8730 0.8711 0.8710 0.8700
3282.284900 0.8700 0.8700 0.8700 0.8700 0.8700
3288.767880 0.8690 0.8690 0.8680 0.8680 0.8680
3295.250860 0.8661 0.8650 0.8650 0.8640 0.8621
3301.733840 0.8610 0.8600 0.8581 0.8570 0.8560
3308.216820 0.8550 0.8531 0.8511 0.8491 0.8480
3314.699800 0.8480 0.8470 0.8441 0.8421 0.8391
3321.182780 0.8380 0.8361 0.8350 0.8340 0.8330
3327.665760 0.8311 0.8300 0.8290 0.8271 0.8260
3334.148740 0.8241 0.8211 0.8210 0.8200 0.8200
3340.631720 0.8181 0.8170 0.8170 0.8160 0.8150
3347.114700 0.8131 0.8130 0.8120 0.8091 0.8090
3353.597680 0.8080 0.8070 0.8041 0.8030 0.8020
3360.080660 0.8001 0.7990 0.7980 0.7951 0.7950
3366.563640 0.7940 0.7940 0.7911 0.7910 0.7910
3373.046620 0.7900 0.7900 0.7900 0.7890 0.7871
3379.529600 0.7870 0.7860 0.7860 0.7850 0.7821
3386.012580 0.7801 0.7781 0.7770 0.7760 0.7741
3392.495560 0.7721 0.7710 0.7691 0.7690 0.7680
3398.978540 0.7670 0.7670 0.7670 0.7670 0.7670
3405.461520 0.7670 0.7651 0.7650 0.7650 0.7650
3411.944500 0.7650 0.7650 0.7650 0.7650 0.7650
3418.427480 0.7650 0.7650 0.7650 0.7650 0.7650
3424.910460 0.7650 0.7650 0.7650 0.7650 0.7650
3431.393440 0.7669 0.7670 0.7670 0.7680 0.7680
3437.876420 0.7690 0.7690 0.7690 0.7709 0.7710
3444.359400 0.7720 0.7720 0.7720 0.7720 0.7720
3450.842380 0.7720 0.7720 0.7730 0.7730 0.7730
3457.325360 0.7730 0.7730 0.7730 0.7740 0.7740
3463.808340 0.7740 0.7740 0.7740 0.7740 0.7740
3470.291320 0.7759 0.7760 0.7760 0.7760 0.7760
3476.774300 0.7760 0.7770 0.7770 0.7770 0.7770
3483.257280 0.7780 0.7780 0.7799 0.7810 0.7810
3489.740260 0.7820 0.7830 0.7849 0.7850 0.7850
3496.223240 0.7860 0.7860 0.7870 0.7870 0.7889
3502.706220 0.7890 0.7900 0.7929 0.7940 0.7959
3509.189200 0.7979 0.7999 0.8019 0.8039 0.8050
3515.672180 0.8069 0.8080 0.8109 0.8120 0.8130
3522.155160 0.8149 0.8169 0.8199 0.8210 0.8220
3528.638140 0.8239 0.8240 0.8250 0.8260 0.8260
3535.121120 0.8270 0.8289 0.8300 0.8310 0.8329
3541.604100 0.8340 0.8350 0.8360 0.8360 0.8389
3548.087080 0.8400 0.8419 0.8430 0.8440 0.8459
3554.570060 0.8460 0.8470 0.8480 0.8490 0.8480
3561.053040 0.8509 0.8520 0.8549 0.8560 0.8560
3567.536020 0.8570 0.8570 0.8599 0.8619 0.8620
3574.019000 0.8649 0.8660 0.8679 0.8680 0.8690
3580.501980 0.8700 0.8710 0.8739 0.8778 0.8799
3586.984960 0.8829 0.8840 0.8859 0.8860 0.8879
3593.467940 0.8880 0.8899 0.8919 0.8930 0.8949
3599.950920 0.8950 0.8960 0.8970 0.8989 0.8990
3606.433900 0.9000 0.9000 0.9000 0.9010 0.9020
3612.916880 0.9020 0.9039 0.9040 0.9059 0.9098
3619.399860 0.9119 0.9130 0.9140 0.9140 0.9150
3625.882840 0.9169 0.9180 0.9190 0.9209 0.9210
3632.365820 0.9220 0.9230 0.9230 0.9240 0.9240
3638.848800 0.9240 0.9240 0.9240 0.9240 0.9240
3645.331780 0.9240 0.9240 0.9240 0.9240 0.9240
3651.814760 0.9240 0.9240 0.9240 0.9259 0.9260
3658.297740 0.9260 0.9260 0.9260 0.9260 0.9260
3664.780720 0.9260 0.9260 0.9260 0.9260 0.9260
3671.263700 0.9260 0.9260 0.9260 0.9260 0.9260
3677.746680 0.9260 0.9260 0.9260 0.9260 0.9270
3684.229660 0.9270 0.9270 0.9270 0.9280 0.9280
3690.712640 0.9280 0.9280 0.9299 0.9300 0.9300
3697.195620 0.9310 0.9310 0.9310 0.9310 0.9310
3703.678600 0.9310 0.9310 0.9320 0.9320 0.9320
3710.161580 0.9320 0.9320 0.9320 0.9320 0.9339
3716.644560 0.9340 0.9340 0.9340 0.9340 0.9340
3723.127540 0.9340 0.9340 0.9340 0.9340 0.9340
3729.610520 0.9340 0.9340 0.9340 0.9340 0.9340
3736.093500 0.9340 0.9340 0.9340 0.9340 0.9340
3742.576480 0.9340 0.9340 0.9340 0.9340 0.9350
3749.059460 0.9350 0.9350 0.9360 0.9360 0.9360
3755.542440 0.9360 0.9360 0.9360 0.9360 0.9360
3762.025420 0.9360 0.9360 0.9360 0.9360 0.9360
3768.508400 0.9360 0.9360 0.9360 0.9360 0.9370
3774.991380 0.9370 0.9370 0.9370 0.9370 0.9370
3781.474360 0.9370 0.9370 0.9370 0.9370 0.9370
3787.957340 0.9370 0.9370 0.9370 0.9389 0.9390
3794.440320 0.9390 0.9390 0.9390 0.9390 0.9390
3800.923300 0.9390 0.9390 0.9390 0.9390 0.9390
3807.406280 0.9390 0.9390 0.9390 0.9390 0.9390
3813.889260 0.9390 0.9390 0.9390 0.9390 0.9390
3820.372240 0.9390 0.9390 0.9390 0.9400 0.9400
3826.855220 0.9400 0.9400 0.9400 0.9400 0.9390
3833.338200 0.9390 0.9390 0.9390 0.9390 0.9371
3839.821180 0.9370 0.9370 0.9370 0.9360 0.9360
3846.304160 0.9360 0.9360 0.9360 0.9360 0.9360
3852.787140 0.9360 0.9360 0.9360 0.9360 0.9360
3859.270120 0.9360 0.9360 0.9360 0.9360 0.9360
3865.753100 0.9360 0.9360 0.9360 0.9360 0.9360
3872.236080 0.9360 0.9360 0.9360 0.9360 0.9360
3878.719060 0.9360 0.9360 0.9360 0.9360 0.9360
3885.202040 0.9360 0.9360 0.9360 0.9360 0.9370
3891.685020 0.9370 0.9370 0.9370 0.9370 0.9370
3898.168000 0.9370 0.9370 0.9370 0.9370 0.9370
3904.650980 0.9370 0.9389 0.9390 0.9390 0.9390
3911.133960 0.9390 0.9390 0.9390 0.9390 0.9390
3917.616940 0.9390 0.9390 0.9390 0.9390 0.9390
3924.099920 0.9390 0.9390 0.9390 0.9390 0.9390
3930.582900 0.9390 0.9390 0.9390 0.9390 0.9371
3937.065880 0.9370 0.9370 0.9360 0.9360 0.9360
3943.548860 0.9350 0.9340 0.9340 0.9321 0.9320
3950.031840 0.9310 0.9310 0.9300 0.9281 0.9280
3956.514820 0.9261 0.9260 0.9260 0.9260 0.9260
3962.997800 0.9241 0.9240 0.9240 0.9240 0.9230
3969.480780 0.9230 0.9230 0.9230 0.9230 0.9230
3975.963760 0.9230 0.9230 0.9230 0.9240 0.9297
3982.446740 0.9357 0.9370 0.9370 0.9370 0.9370
3988.929720 0.9370 0.9370 0.9360 0.9360 0.9360
3995.412700 0.9360 0.9360 0.9360 0.9360 0.9360
4001.895680 0.9360 0.9360 0.9360 0.9360 0.9360
4008.378660 0.9360 0.9360 0.9360 0.9360 0.9360
4014.861640 0.9360 0.9350 0.9350 0.9340 0.9350
4021.344620 0.9321 0.9310 0.9310 0.9300 0.9281
4027.827600 0.9270 0.9270 0.9241 0.9240 0.9230
4034.310580 0.9211 0.9191 0.9180 0.9170 0.9141
4040.793560 0.9102 0.9090 0.9061 0.9041 0.9040
4047.276540 0.9040 0.9021 0.8991 0.8971 0.8960
4053.759520 0.8931 0.8930 0.8911 0.8910 0.8929
4060.242500 0.8930 0.8911 0.8910
##END=
