##TITLE=CIS-3-BENZOYL-4-PHENYL-1-METHYLPIPERDINE
##JCAMP-DX=4.24
##DATA TYPE=INFRARED SPECTRUM
##CLASS=COBLENTZ
##ORIGIN=ABBOTT LABORATORIES - WASHBURN
##OWNER=COBLENTZ SOCIETY
Collection (C) 2018 copyright by the U.S. Secretary of Commerce
on behalf of the United States of America. All rights reserved.
##DATE=Not specified, most likely prior to 1970
##NAMES=[2-(1-methyl-4-piperidinyl)phenyl](phenyl)methanone
##MOLFORM=C19 H21 N O
##SOURCE REFERENCE=COBLENTZ NO. 3516
##$NIST ID=B6003516
##$NIST SOURCE=COBLENTZ
##$NIST IMAGE=cob3516
##SPECTROMETER/DATA SYSTEM=PERKIN-ELMER
##STATE=SOLUTION (7% IN CHCl3)
##PATH LENGTH=0.010 CM
$$ INACTIVE (CHCl3) AROUND 750 CM^-^1
##SAMPLING PROCEDURE=TRANSMISSION
##RESOLUTION=4
##DATA PROCESSING=DIGITIZED BY NIST FROM HARD COPY (FROM TWO SEGMENTS)
##XUNITS=MICROMETERS
##YUNITS=TRANSMITTANCE
##XFACTOR=1.000000
##YFACTOR=1
##DELTAX=0.007123
##FIRSTX=2.044
##LASTX=15.4139
##FIRSTY=0.973
##MAXX=15.4139
##MINX=2.044
##MAXY=1.032
##MINY=0.272181
##NPOINTS=1878
##XYDATA=(X++(Y..Y))
2.044000 0.9730 0.9710 0.9710 0.9690 0.9710
2.079615 0.9690 0.9670 0.9670 0.9670 0.9729
2.115230 0.9708 0.9639 0.9619 0.9600 0.9599
2.150845 0.9569 0.9530 0.9530 0.9531 0.9570
2.186460 0.9579 0.9580 0.9580 0.9571 0.9570
2.222075 0.9533 0.9548 0.9550 0.9532 0.9530
2.257690 0.9501 0.9510 0.9500 0.9500 0.9500
2.293305 0.9481 0.9461 0.9460 0.9460 0.9460
2.328920 0.9500 0.9500 0.9500 0.9500 0.9500
2.364535 0.9441 0.9440 0.9411 0.9420 0.9497
2.400150 0.9510 0.9509 0.9460 0.9440 0.9410
2.435765 0.9370 0.9370 0.9370 0.9370 0.9370
2.471380 0.9370 0.9370 0.9370 0.9352 0.9323
2.506995 0.9320 0.9329 0.9366 0.9370 0.9388
2.542610 0.9390 0.9371 0.9370 0.9408 0.9410
2.578225 0.9410 0.9391 0.9371 0.9370 0.9407
2.613840 0.9390 0.9390 0.9390 0.9390 0.9390
2.649455 0.9390 0.9371 0.9351 0.9350 0.9350
2.685070 0.9350 0.9350 0.9350 0.9350 0.9330
2.720685 0.9330 0.9320 0.9320 0.9320 0.9320
2.756300 0.9300 0.9298 0.9260 0.9250 0.9250
2.791915 0.9249 0.9229 0.9209 0.9190 0.9190
2.827530 0.9171 0.9170 0.9170 0.9170 0.9189
2.863145 0.9190 0.9190 0.9190 0.9190 0.9190
2.898760 0.9171 0.9141 0.9121 0.9101 0.9081
2.934375 0.9051 0.9031 0.9011 0.9001 0.9000
2.969990 0.9000 0.8980 0.8980 0.8960 0.8940
3.005605 0.8920 0.8920 0.8910 0.8910 0.8910
3.041220 0.8940 0.8939 0.8920 0.8920 0.8910
3.076835 0.8910 0.8910 0.8910 0.8910 0.8910
3.112450 0.8910 0.8892 0.8890 0.8890 0.8890
3.148065 0.8872 0.8825 0.8757 0.8669 0.8561
3.183680 0.8502 0.8443 0.8335 0.8216 0.8163
3.219295 0.8122 0.8101 0.8100 0.8053 0.8013
3.254910 0.7961 0.7871 0.7801 0.7712 0.7573
3.290525 0.7550 0.7423 0.7177 0.6773 0.6663
3.326140 0.6383 0.6047 0.5849 0.5750 0.5750
3.361755 0.5780 0.5830 0.5920 0.6010 0.6070
3.397370 0.6166 0.6284 0.6372 0.6411 0.6441
3.432985 0.6462 0.6501 0.6531 0.6572 0.6621
3.468600 0.6667 0.6774 0.6883 0.6890 0.6600
3.504215 0.6422 0.6261 0.6213 0.5932 0.5725
3.539830 0.5603 0.5532 0.5598 0.5862 0.6073
3.575445 0.6292 0.6492 0.6567 0.6742 0.6884
3.611060 0.6981 0.7071 0.7281 0.7530 0.7660
3.646675 0.7730 0.7760 0.7820 0.7830 0.7869
3.682290 0.7912 0.7963 0.8033 0.8102 0.8162
3.717905 0.8212 0.8281 0.8332 0.8422 0.8501
3.753520 0.8547 0.8652 0.8688 0.8727 0.8748
3.789135 0.8796 0.8818 0.8829 0.8885 0.8890
3.824750 0.8909 0.8910 0.8920 0.8920 0.8920
3.860365 0.8939 0.8940 0.8940 0.8940 0.8940
3.895980 0.8980 0.8980 0.8980 0.8960 0.8960
3.931595 0.8921 0.8920 0.8910 0.8910 0.8910
3.967210 0.8910 0.8909 0.8890 0.8890 0.8890
4.002825 0.8890 0.8890 0.8890 0.8910 0.8910
4.038440 0.8910 0.8911 0.8920 0.8921 0.8943
4.074055 0.9001 0.9010 0.9000 0.9011 0.9031
4.109670 0.9049 0.9050 0.9050 0.9031 0.9049
4.145285 0.9050 0.9097 0.9100 0.9119 0.9139
4.180900 0.9140 0.9140 0.9160 0.9160 0.9209
4.216515 0.9210 0.9229 0.9230 0.9249 0.9260
4.252130 0.9280 0.9260 0.9260 0.9260 0.9260
4.287745 0.9230 0.9210 0.9170 0.9140 0.9120
4.323360 0.9120 0.9120 0.9120 0.9120 0.9120
4.358975 0.9120 0.9120 0.9120 0.9120 0.9119
4.394590 0.9101 0.9100 0.9081 0.9071 0.9051
4.430205 0.9069 0.9070 0.9079 0.9098 0.9100
4.465820 0.9081 0.9080 0.9070 0.9051 0.9031
4.501435 0.9030 0.9030 0.9030 0.9049 0.9031
4.537050 0.9030 0.9050 0.9050 0.9050 0.9050
4.572665 0.9050 0.9070 0.9050 0.9030 0.9030
4.608280 0.9030 0.9031 0.9070 0.9080 0.9080
4.643895 0.9079 0.9050 0.9050 0.9051 0.9080
4.679510 0.9080 0.9080 0.9080 0.9079 0.9068
4.715125 0.9030 0.9030 0.9030 0.9030 0.9030
4.750740 0.9030 0.9030 0.9030 0.9030 0.9030
4.786355 0.9030 0.9030 0.9030 0.9030 0.9030
4.821970 0.9070 0.9050 0.9050 0.9050 0.9050
4.857585 0.9050 0.9050 0.9070 0.9050 0.9069
4.893200 0.9030 0.9030 0.9030 0.9010 0.9010
4.928815 0.9010 0.9030 0.9010 0.9010 0.9010
4.964430 0.9000 0.8999 0.8980 0.8978 0.8939
5.000045 0.8910 0.8890 0.8890 0.8871 0.8851
5.035660 0.8831 0.8821 0.8783 0.8780 0.8762
5.071275 0.8760 0.8760 0.8760 0.8760 0.8777
5.106890 0.8797 0.8816 0.8844 0.8866 0.8886
5.142505 0.8890 0.8890 0.8890 0.8875 0.8870
5.178120 0.8855 0.8850 0.8836 0.8830 0.8823
5.213735 0.8820 0.8820 0.8820 0.8820 0.8820
5.249350 0.8820 0.8820 0.8826 0.8830 0.8841
5.284965 0.8850 0.8850 0.8858 0.8870 0.8870
5.320580 0.8870 0.8877 0.8890 0.8897 0.8926
5.356195 0.8966 0.8980 0.8980 0.8980 0.8974
5.391810 0.8949 0.8912 0.8885 0.8865 0.8844
5.427425 0.8816 0.8791 0.8754 0.8726 0.8703
5.463040 0.8668 0.8657 0.8640 0.8644 0.8679
5.498655 0.8755 0.8805 0.8852 0.8872 0.8890
5.534270 0.8890 0.8890 0.8890 0.8890 0.8890
5.569885 0.8870 0.8870 0.8850 0.8831 0.8801
5.605500 0.8819 0.8820 0.8820 0.8820 0.8820
5.641115 0.8820 0.8802 0.8800 0.8800 0.8800
5.676730 0.8800 0.8800 0.8784 0.8764 0.8760
5.712345 0.8752 0.8750 0.8735 0.8715 0.8695
5.747960 0.8653 0.8589 0.8527 0.8503 0.8486
5.783575 0.8440 0.8292 0.8096 0.7879 0.7717
5.819190 0.7538 0.7183 0.6474 0.5520 0.5088
5.854805 0.4029 0.3008 0.2770 0.2722 0.2746
5.890420 0.2842 0.3128 0.3589 0.3846 0.4096
5.926035 0.4512 0.5276 0.5857 0.6494 0.6925
5.961650 0.7310 0.7422 0.7525 0.7591 0.7680
5.997265 0.7784 0.7934 0.8038 0.8084 0.8149
6.032880 0.8193 0.8216 0.8250 0.8254 0.8285
6.068495 0.8325 0.8372 0.8392 0.8411 0.8420
6.104110 0.8420 0.8420 0.8420 0.8420 0.8420
6.139725 0.8410 0.8371 0.8320 0.8163 0.8034
6.175340 0.7915 0.7467 0.7077 0.6610 0.6245
6.210955 0.6210 0.6394 0.6438 0.6896 0.7236
6.246570 0.7552 0.7675 0.7649 0.7527 0.7341
6.282185 0.7214 0.7167 0.7253 0.7772 0.8071
6.317800 0.8187 0.8239 0.8300 0.8369 0.8411
6.353415 0.8461 0.8493 0.8500 0.8505 0.8510
6.389030 0.8520 0.8554 0.8599 0.8620 0.8629
6.424645 0.8640 0.8640 0.8640 0.8640 0.8648
6.460260 0.8664 0.8685 0.8717 0.8737 0.8753
6.495875 0.8757 0.8753 0.8760 0.8766 0.8786
6.531490 0.8800 0.8805 0.8823 0.8830 0.8828
6.567105 0.8820 0.8820 0.8816 0.8800 0.8790
6.602720 0.8718 0.8555 0.8398 0.7899 0.7606
6.638335 0.7340 0.7073 0.6805 0.6550 0.6574
6.673950 0.6852 0.7156 0.7433 0.7714 0.7853
6.709565 0.8010 0.8030 0.8050 0.8080 0.8080
6.745180 0.8012 0.7915 0.7722 0.7544 0.7156
6.780795 0.6788 0.6511 0.6070 0.5851 0.5830
6.816410 0.5899 0.6054 0.6130 0.6124 0.5991
6.852025 0.5240 0.4731 0.4533 0.4454 0.4348
6.887640 0.4320 0.4460 0.4800 0.5316 0.5787
6.923255 0.6119 0.6412 0.6721 0.6998 0.7322
6.958870 0.7631 0.7819 0.7957 0.8072 0.8138
6.994485 0.8164 0.8187 0.8218 0.8238 0.8262
7.030100 0.8288 0.8312 0.8352 0.8397 0.8410
7.065715 0.8403 0.8377 0.8350 0.8344 0.8330
7.101330 0.8321 0.8294 0.8267 0.8220 0.8164
7.136945 0.8048 0.7876 0.7614 0.7474 0.7288
7.172560 0.7132 0.6993 0.6904 0.6844 0.6678
7.208175 0.6575 0.6375 0.6242 0.6148 0.6004
7.243790 0.5951 0.6087 0.6202 0.6434 0.7015
7.279405 0.7191 0.7250 0.7299 0.7349 0.7478
7.315020 0.7529 0.7568 0.7579 0.7683 0.7754
7.350635 0.7814 0.7847 0.7868 0.7853 0.7806
7.386250 0.7783 0.7763 0.7701 0.7690 0.7763
7.421865 0.7812 0.7844 0.7881 0.7958 0.7980
7.457480 0.7937 0.7898 0.7848 0.7797 0.7769
7.493095 0.7710 0.7621 0.7506 0.7404 0.7349
7.528710 0.7325 0.7320 0.7325 0.7339 0.7359
7.564325 0.7379 0.7381 0.7353 0.7326 0.7320
7.599940 0.7320 0.7312 0.7300 0.7293 0.7255
7.635555 0.7172 0.7090 0.7057 0.7021 0.7000
7.671170 0.6994 0.6980 0.6975 0.6950 0.6913
7.706785 0.6881 0.6846 0.6824 0.6796 0.6774
7.742400 0.6738 0.6681 0.6628 0.6561 0.6506
7.778015 0.6461 0.6322 0.6244 0.6089 0.5975
7.813630 0.5910 0.5911 0.5922 0.5961 0.5981
7.849245 0.6000 0.6011 0.6080 0.6139 0.6188
7.884860 0.6249 0.6318 0.6368 0.6417 0.6420
7.920475 0.6411 0.6356 0.6306 0.6239 0.6101
7.956090 0.5723 0.5334 0.5043 0.4983 0.4890
7.991705 0.4781 0.4609 0.4429 0.4336 0.4222
8.027320 0.4170 0.4123 0.4082 0.4035 0.4010
8.062935 0.4044 0.4075 0.4101 0.4167 0.4256
8.098550 0.4382 0.4470 0.4569 0.4665 0.4689
8.134165 0.4728 0.4763 0.4789 0.4812 0.4854
8.169780 0.4898 0.4930 0.4968 0.4980 0.4987
8.205395 0.5017 0.5097 0.5196 0.5222 0.5259
8.241010 0.5286 0.5309 0.5353 0.5434 0.5503
8.276625 0.5520 0.5557 0.5584 0.5604 0.5612
8.312240 0.5578 0.5562 0.5526 0.5508 0.5500
8.347855 0.5500 0.5501 0.5514 0.5555 0.5605
8.383470 0.5662 0.5693 0.5732 0.5763 0.5822
8.419085 0.5871 0.5921 0.5960 0.5920 0.5871
8.454700 0.5783 0.5673 0.5516 0.5501 0.5547
8.490315 0.5633 0.5685 0.6031 0.6494 0.6811
8.525930 0.7021 0.7171 0.7275 0.7321 0.7358
8.561545 0.7445 0.7546 0.7619 0.7653 0.7666
8.597160 0.7670 0.7639 0.7589 0.7546 0.7518
8.632775 0.7510 0.7521 0.7552 0.7575 0.7580
8.668390 0.7590 0.7600 0.7630 0.7660 0.7650
8.704005 0.7598 0.7518 0.7392 0.7221 0.7087
8.739620 0.6926 0.6721 0.6509 0.6274 0.6076
8.775235 0.5914 0.5671 0.5464 0.5371 0.5293
8.810850 0.5184 0.5120 0.5166 0.5305 0.5404
8.846465 0.5518 0.5599 0.5755 0.6014 0.6164
8.882080 0.6280 0.6389 0.6489 0.6554 0.6690
8.917695 0.6826 0.6980 0.6986 0.7045 0.7178
8.953310 0.7267 0.7357 0.7463 0.7503 0.7552
8.988925 0.7581 0.7600 0.7620 0.7620 0.7640
9.024540 0.7640 0.7640 0.7659 0.7670 0.7689
9.060155 0.7690 0.7672 0.7625 0.7620 0.7655
9.095770 0.7669 0.7687 0.7720 0.7751 0.7760
9.131385 0.7753 0.7750 0.7750 0.7750 0.7737
9.167000 0.7718 0.7710 0.7686 0.7652 0.7628
9.202615 0.7504 0.7369 0.7291 0.7211 0.7123
9.238230 0.6962 0.6825 0.6800 0.6790 0.6780
9.273845 0.6799 0.6834 0.6868 0.6890 0.6882
9.309460 0.6805 0.6647 0.6488 0.6355 0.6258
9.345075 0.6172 0.6115 0.6056 0.6043 0.6114
9.380690 0.6237 0.6352 0.6500 0.6570 0.6634
9.416305 0.6675 0.6690 0.6695 0.6714 0.6749
9.451920 0.6830 0.6879 0.6927 0.6997 0.7206
9.487535 0.7417 0.7587 0.7706 0.7830 0.7919
9.523150 0.8004 0.8058 0.8166 0.8254 0.8301
9.558765 0.8320 0.8331 0.8371 0.8410 0.8420
9.594380 0.8459 0.8441 0.8421 0.8395 0.8341
9.629995 0.8306 0.8245 0.8215 0.8111 0.8020
9.665610 0.7905 0.7856 0.7829 0.7791 0.7759
9.701225 0.7736 0.7703 0.7657 0.7640 0.7653
9.736840 0.7660 0.7691 0.7734 0.7768 0.7792
9.772455 0.7788 0.7769 0.7743 0.7692 0.7639
9.808070 0.7250 0.6900 0.6821 0.6666 0.6580
9.843685 0.6590 0.6628 0.6746 0.6978 0.7170
9.879300 0.7322 0.7552 0.7699 0.7795 0.7893
9.914915 0.7975 0.8058 0.8160 0.8160 0.8154
9.950530 0.8128 0.8085 0.8030 0.7823 0.7388
9.986145 0.7330 0.7368 0.7504 0.7605 0.7705
10.021760 0.7790 0.7949 0.8132 0.8193 0.8207
10.057375 0.8187 0.8163 0.8113 0.8059 0.7970
10.092990 0.7888 0.7867 0.7829 0.7820 0.7819
10.128605 0.7800 0.7800 0.7800 0.7800 0.7800
10.164220 0.7761 0.7692 0.7575 0.7466 0.7250
10.199835 0.7178 0.7114 0.7084 0.6619 0.6102
10.235450 0.5794 0.5715 0.5402 0.5266 0.5097
10.271065 0.4883 0.4772 0.4750 0.4843 0.4968
10.306680 0.5080 0.5232 0.5385 0.5523 0.5741
10.342295 0.6040 0.6350 0.6571 0.6707 0.6928
10.377910 0.7165 0.7286 0.7390 0.7460 0.7470
10.413525 0.7480 0.7437 0.7288 0.7107 0.6960
10.449140 0.6849 0.6791 0.6750 0.6769 0.6827
10.484755 0.6920 0.7029 0.7144 0.7298 0.7416
10.520370 0.7602 0.7827 0.7916 0.7986 0.8003
10.555985 0.8021 0.8050 0.8055 0.8070 0.8070
10.591600 0.8062 0.8024 0.7989 0.7901 0.7673
10.627215 0.7461 0.7356 0.7264 0.7166 0.7133
10.662830 0.7079 0.7070 0.7070 0.7071 0.7084
10.698445 0.7154 0.7169 0.7224 0.7389 0.7514
10.734060 0.7590 0.7659 0.7720 0.7804 0.7844
10.769675 0.7882 0.7914 0.7936 0.7940 0.7955
10.805290 0.7975 0.7980 0.8002 0.8053 0.8091
10.840905 0.8114 0.8148 0.8160 0.8160 0.8180
10.876520 0.8203 0.8223 0.8242 0.8268 0.8292
10.912135 0.8300 0.8329 0.8413 0.8471 0.8491
10.947750 0.8516 0.8551 0.8575 0.8590 0.8590
10.983365 0.8575 0.8560 0.8531 0.8510 0.8506
11.018980 0.8500 0.8492 0.8480 0.8472 0.8445
11.054595 0.8416 0.8410 0.8403 0.8390 0.8390
11.090210 0.8396 0.8413 0.8432 0.8460 0.8465
11.125825 0.8480 0.8480 0.8480 0.8480 0.8475
11.161440 0.8460 0.8460 0.8452 0.8420 0.8418
11.197055 0.8404 0.8362 0.8314 0.8273 0.8219
11.232670 0.8133 0.8072 0.7985 0.7814 0.7724
11.268285 0.7616 0.7518 0.7483 0.7462 0.7416
11.303900 0.7375 0.7336 0.7305 0.7283 0.7264
11.339515 0.7260 0.7260 0.7276 0.7351 0.7455
11.375130 0.7518 0.7582 0.7644 0.7682 0.7732
11.410745 0.7785 0.7863 0.7966 0.8034 0.8070
11.446360 0.8106 0.8152 0.8195 0.8253 0.8334
11.481975 0.8399 0.8444 0.8460 0.8471 0.8491
11.517590 0.8516 0.8541 0.8550 0.8560 0.8570
11.553205 0.8575 0.8590 0.8600 0.8600 0.8600
11.588820 0.8609 0.8620 0.8628 0.8648 0.8664
11.624435 0.8670 0.8677 0.8690 0.8690 0.8690
11.660050 0.8697 0.8710 0.8716 0.8730 0.8736
11.695665 0.8750 0.8758 0.8780 0.8780 0.8775
11.731280 0.8760 0.8754 0.8730 0.8734 0.8750
11.766895 0.8747 0.8730 0.8730 0.8710 0.8710
11.802510 0.8710 0.8710 0.8710 0.8691 0.8671
11.838125 0.8670 0.8661 0.8660 0.8660 0.8642
11.873740 0.8623 0.8620 0.8603 0.8600 0.8600
11.909355 0.8600 0.8584 0.8580 0.8572 0.8570
11.944970 0.8570 0.8570 0.8570 0.8555 0.8521
11.980585 0.8503 0.8486 0.8480 0.8432 0.8397
12.016200 0.8331 0.8255 0.8192 0.8127 0.8058
12.051815 0.8030 0.8018 0.8004 0.8000 0.8006
12.087430 0.8043 0.8075 0.8091 0.8131 0.8185
12.123045 0.8229 0.8264 0.8299 0.8325 0.8348
12.158660 0.8388 0.8423 0.8448 0.8468 0.8480
12.194275 0.8488 0.8504 0.8517 0.8537 0.8561
12.229890 0.8587 0.8607 0.8626 0.8640 0.8640
12.265505 0.8645 0.8660 0.8663 0.8675 0.8695
12.301120 0.8715 0.8734 0.8752 0.8760 0.8764
12.336735 0.8780 0.8780 0.8780 0.8780 0.8800
12.372350 0.8800 0.8800 0.8800 0.8800 0.8800
12.407965 0.8818 0.8820 0.8820 0.8820 0.8829
12.443580 0.8830 0.8847 0.8850 0.8850 0.8850
12.479195 0.8850 0.8850 0.8850 0.8866 0.8870
12.514810 0.8885 0.8890 0.8905 0.8910 0.8910
12.550425 0.8910 0.8917 0.8920 0.8920 0.8934
12.586040 0.8940 0.8940 0.8940 0.8953 0.8960
12.621655 0.8960 0.8972 0.8980 0.8992 0.9000
12.657270 0.9006 0.9021 0.9041 0.9060 0.9085
12.692885 0.9100 0.9119 0.9140 0.9154 0.9179
12.728500 0.9208 0.9239 0.9250 0.9250 0.9250
12.764115 0.9254 0.9260 0.9260 0.9260 0.9267
12.799730 0.9280 0.9280 0.9280 0.9286 0.9300
12.835345 0.9300 0.9300 0.9308 0.9330 0.9332
12.870960 0.9350 0.9352 0.9370 0.9371 0.9391
12.906575 0.9410 0.9421 0.9480 0.9510 0.9530
12.942190 0.9570 0.9580 0.9599 0.9600 0.9600
12.977805 0.9600 0.9618 0.9638 0.9658 0.9660
13.013420 0.9669 0.9688 0.9690 0.9707 0.9710
13.049035 0.9726 0.9746 0.9750 0.9750 0.9750
13.084650 0.9758 0.9760 0.9775 0.9795 0.9800
13.120265 0.9814 0.9827 0.9830 0.9830 0.9844
13.155880 0.9850 0.9850 0.9863 0.9870 0.9882
13.191495 0.9890 0.9890 0.9902 0.9910 0.9916
13.227110 0.9920 0.9931 0.9940 0.9951 0.9970
13.262725 0.9995 1.0020 1.0049 1.0070 1.0070
13.298340 1.0084 1.0109 1.0137 1.0164 1.0178
13.333955 1.0190 1.0198 1.0217 1.0230 1.0236
13.369570 1.0257 1.0280 1.0280 1.0280 1.0280
13.405185 1.0280 1.0280 1.0280 1.0280 1.0280
13.440800 1.0280 1.0280 1.0280 1.0281 1.0300
13.476415 1.0300 1.0300 1.0300 1.0300 1.0320
13.512030 1.0320 1.0320 1.0320 1.0320 1.0301
13.547645 1.0300 1.0282 1.0280 1.0280 1.0298
13.583260 1.0300 1.0300 1.0300 1.0300 1.0300
13.618875 1.0300 1.0300 1.0300 1.0300 1.0300
13.654490 1.0300 1.0300 1.0300 1.0300 1.0300
13.690105 1.0300 1.0300 1.0300 1.0300 1.0300
13.725720 1.0300 1.0300 1.0300 1.0300 1.0300
13.761335 1.0300 1.0300 1.0300 1.0300 1.0300
13.796950 1.0300 1.0300 1.0289 1.0280 1.0291
13.832565 1.0290 1.0280 1.0280 1.0271 1.0260
13.868180 1.0246 1.0212 1.0181 1.0170 1.0157
13.903795 1.0140 1.0132 1.0101 1.0044 0.9968
13.939410 0.9886 0.9824 0.9774 0.9651 0.9554
13.975025 0.9462 0.9357 0.9268 0.9167 0.8981
14.010640 0.8797 0.8560 0.8369 0.8151 0.8044
14.046255 0.7954 0.7844 0.7706 0.7569 0.7460
14.081870 0.7332 0.7230 0.7141 0.7014 0.6828
14.117485 0.6650 0.6556 0.6513 0.6465 0.6380
14.153100 0.6273 0.6171 0.6028 0.5984 0.5869
14.188715 0.5791 0.5722 0.5669 0.5540 0.5384
14.224330 0.5327 0.5234 0.5086 0.4982 0.4788
14.259945 0.4613 0.4476 0.4306 0.4174 0.4052
14.295560 0.3843 0.3633 0.3523 0.3441 0.3397
14.331175 0.3377 0.3358 0.3350 0.3385 0.3462
14.366790 0.3517 0.3603 0.3710 0.3777 0.3896
14.402405 0.4027 0.4141 0.4264 0.4368 0.4471
14.438020 0.4562 0.4644 0.4723 0.4774 0.4841
14.473635 0.4875 0.4890 0.4890 0.4895 0.4906
14.509250 0.4890 0.4890 0.4890 0.4890 0.4890
14.544865 0.4890 0.4893 0.4914 0.4948 0.5001
14.580480 0.5017 0.5087 0.5172 0.5297 0.5493
14.616095 0.5664 0.5737 0.5874 0.6002 0.6081
14.651710 0.6229 0.6387 0.6499 0.6569 0.6667
14.687325 0.6746 0.6825 0.6886 0.6972 0.7043
14.722940 0.7094 0.7161 0.7205 0.7245 0.7293
14.758555 0.7342 0.7408 0.7486 0.7524 0.7562
14.794170 0.7593 0.7646 0.7730 0.7773 0.7810
14.829785 0.7872 0.7941 0.7996 0.8024 0.8058
14.865400 0.8070 0.8070 0.8077 0.8093 0.8126
14.901015 0.8153 0.8166 0.8170 0.8170 0.8182
14.936630 0.8190 0.8190 0.8212 0.8241 0.8250
14.972245 0.8255 0.8270 0.8290 0.8310 0.8325
15.007860 0.8339 0.8359 0.8370 0.8358 0.8327
15.043475 0.8309 0.8272 0.8235 0.8156 0.8025
15.079090 0.7921 0.7813 0.7647 0.7518 0.7347
15.114705 0.7137 0.7019 0.6944 0.6831 0.6708
15.150320 0.6692 0.6712 0.6736 0.6803 0.6837
15.185935 0.6915 0.6982 0.7010 0.7011 0.7050
15.221550 0.7080 0.7139 0.7247 0.7319 0.7437
15.257165 0.7498 0.7528 0.7577 0.7598 0.7618
15.292780 0.7638 0.7658 0.7660 0.7660 0.7660
15.328395 0.7669 0.7721 0.7747 0.7758 0.7760
15.364010 0.7760 0.7760 0.7760 0.7760 0.7752
15.399625 0.7750 0.7750 0.7757
##END=
