##TITLE=ETHANOL, 2-[(6-AMINO-2-CHLORO-5-NITRO-4-PYRIMIDINYL)AMINO]-
##JCAMP-DX=4.24
##DATA TYPE=INFRARED SPECTRUM
##CLASS=COBLENTZ III
##ORIGIN=SOUTHERN RESEARCH INSTITUTE
##OWNER=COBLENTZ SOCIETY
Collection (C) 2018 copyright by the U.S. Secretary of Commerce
on behalf of the United States of America. All rights reserved.
##DATE=1963/10/08
##NAMES=2-[(6-amino-2-chloro-5-nitro-4-pyrimidinyl)amino]ethanol
##MOLFORM=C6 H8 Cl N5 O3
##SOURCE REFERENCE=COBLENTZ NO. 8442
##$NIST ID=B6008442
##$NIST SOURCE=COBLENTZ
##$NIST IMAGE=cob8442
##SPECTROMETER/DATA SYSTEM=PERKIN-ELMER 221 (GRATING)
##INSTRUMENT PARAMETERS=FILTER CHANGE AT 2490, 980 CM^-^1, GRATING FOR 4000-1428 CM^-^1, NaCl PRISM FOR 1428-650 CM^-^1
##STATE=SOLID (0.7 mg / 500 mg KBr DISC)
##SAMPLING PROCEDURE=TRANSMISSION
##RESOLUTION=4
##DATA PROCESSING=DIGITIZED BY NIST FROM HARD COPY
##XUNITS=1/CM
##YUNITS=TRANSMITTANCE
##XFACTOR=1.000000
##YFACTOR=1
##DELTAX=001.804813
##FIRSTX=607.955
##LASTX=4013.64
##FIRSTY=0.509
##MAXX=4013.64
##MINX=607.955
##MAXY=1.016
##MINY=0.038
##NPOINTS=1888
##XYDATA=(X++(Y..Y))
607.955000 0.5090 0.5040 0.4990 0.4950 0.4910
616.983849 0.4860 0.4830 0.4780 0.4740 0.4700
626.003000 0.4520 0.4000 0.3470 0.3300 0.3130
635.031849 0.2950 0.2780 0.2780 0.3170 0.3550
644.051000 0.4190 0.4600 0.5010 0.5420 0.5820
653.079849 0.6180 0.6520 0.7030 0.7380 0.7440
662.099000 0.7440 0.7430 0.7350 0.7290 0.7140
671.127849 0.7140 0.7390 0.7580 0.7630 0.7620
680.147000 0.7530 0.7420 0.7210 0.7050 0.6880
689.175849 0.6790 0.6640 0.6490 0.6340 0.6090
698.195000 0.6080 0.6080 0.6080 0.6250 0.6410
707.223849 0.6540 0.7210 0.7500 0.7510 0.7510
716.243000 0.7500 0.7500 0.7510 0.7610 0.7730
725.271849 0.7840 0.8100 0.8260 0.8360 0.8480
734.291000 0.8550 0.8700 0.8720 0.8730 0.8770
743.319849 0.8790 0.8860 0.8940 0.9040 0.9130
752.340000 0.9190 0.9200 0.9240 0.9260 0.9280
761.368849 0.9290 0.9300 0.9300 0.9280 0.9230
770.388000 0.9190 0.9130 0.9120 0.9110 0.9100
779.416849 0.9020 0.8900 0.8600 0.8340 0.7240
788.436000 0.6680 0.6110 0.4800 0.3480 0.3480
797.464849 0.3600 0.7840 0.8530 0.9130 0.9330
806.484000 0.9390 0.9440 0.9560 0.9670 0.9680
815.512849 0.9700 0.9710 0.9700 0.9680 0.9650
824.532000 0.9450 0.9310 0.9190 0.8700 0.8330
833.560849 0.8330 0.8580 0.8830 0.9050 0.9220
842.580000 0.9470 0.9670 0.9670 0.9660 0.9660
851.608849 0.9650 0.9640 0.9600 0.9580 0.9530
860.628000 0.9520 0.9520 0.9530 0.9530 0.9560
869.656849 0.9580 0.9610 0.9630 0.9640 0.9650
878.676000 0.9640 0.9620 0.9580 0.9550 0.9530
887.704849 0.9500 0.9450 0.9430 0.9350 0.9240
896.725000 0.9150 0.8820 0.8460 0.8330 0.8100
905.753849 0.8080 0.8600 0.8840 0.9080 0.9320
914.773000 0.9440 0.9460 0.9550 0.9630 0.9640
923.801849 0.9620 0.9550 0.9470 0.9410 0.9350
932.821000 0.9300 0.9260 0.9210 0.9180 0.9140
941.849849 0.9110 0.9070 0.9060 0.9010 0.8920
950.869000 0.8790 0.8650 0.8470 0.8260 0.8050
959.897849 0.7810 0.7560 0.7300 0.7040 0.6900
968.917000 0.6770 0.6490 0.6220 0.4910 0.4280
977.945849 0.3650 0.2650 0.2260 0.2260 0.3040
986.965000 0.4490 0.5330 0.6170 0.7410 0.7870
995.993849 0.8360 0.9200 0.9240 0.9230 0.9150
1005.013000 0.9090 0.9070 0.9060 0.9040 0.9040
1014.041849 0.9010 0.8940 0.8580 0.8170 0.7950
1023.061000 0.7730 0.7440 0.7100 0.6760 0.6710
1032.089849 0.6600 0.7040 0.8430 0.8730 0.8730
1041.110000 0.8720 0.8650 0.8460 0.8400 0.8340
1050.138849 0.8230 0.7920 0.7710 0.7510 0.7100
1059.158000 0.6680 0.5370 0.4680 0.4280 0.4280
1068.186849 0.4870 0.6190 0.7410 0.7850 0.8430
1077.206000 0.8430 0.8450 0.8490 0.8580 0.8650
1086.234849 0.8700 0.8780 0.8860 0.8900 0.8940
1095.254000 0.8940 0.8860 0.8650 0.8540 0.8410
1104.282849 0.8280 0.8150 0.8010 0.8000 0.8010
1113.302000 0.8120 0.8230 0.8320 0.8340 0.8340
1122.330849 0.8330 0.8170 0.8080 0.7990 0.7880
1131.350000 0.7730 0.7070 0.6600 0.6140 0.5680
1140.378849 0.5220 0.4780 0.4220 0.3660 0.3270
1149.398000 0.2880 0.2510 0.2510 0.4160 0.4960
1158.426849 0.5780 0.7790 0.7800 0.8170 0.8200
1167.447000 0.8210 0.8210 0.8210 0.8190 0.8160
1176.475849 0.8100 0.8000 0.7910 0.7780 0.7650
1185.495000 0.7520 0.7390 0.7260 0.7130 0.7050
1194.523849 0.6980 0.6660 0.6070 0.5640 0.5510
1203.543000 0.5390 0.5260 0.4850 0.4650 0.4460
1212.571849 0.4290 0.4290 0.4730 0.5130 0.5140
1221.591000 0.5060 0.4900 0.4400 0.4100 0.3810
1230.619849 0.3370 0.2860 0.2350 0.1870 0.1360
1239.639000 0.1110 0.0850 0.0830 0.0840 0.0910
1248.667849 0.1050 0.1130 0.1140 0.1170 0.1280
1257.687000 0.1300 0.1510 0.1760 0.2130 0.2560
1266.715849 0.3030 0.3470 0.4080 0.4170 0.4600
1275.735000 0.4610 0.4600 0.4540 0.4290 0.4090
1284.763849 0.3900 0.3510 0.3150 0.2780 0.2390
1293.783000 0.2010 0.1640 0.1640 0.1940 0.2690
1302.811849 0.3320 0.4310 0.4690 0.5030 0.5320
1311.832000 0.5580 0.5820 0.6000 0.6140 0.6170
1320.860849 0.6160 0.6100 0.6050 0.6020 0.6000
1329.880000 0.6000 0.6010 0.6170 0.6270 0.6270
1338.908849 0.5510 0.4400 0.4080 0.3910 0.3750
1347.928000 0.3120 0.3120 0.3320 0.4060 0.4420
1356.956849 0.4840 0.5730 0.6260 0.6500 0.6580
1365.976000 0.6600 0.6660 0.6870 0.6880 0.6880
1375.004849 0.6880 0.6880 0.6870 0.6870 0.6870
1384.024000 0.6880 0.6910 0.7000 0.7080 0.7210
1393.052849 0.7340 0.7350 0.7330 0.7290 0.7210
1402.072000 0.7090 0.6980 0.6860 0.6720 0.6620
1411.100849 0.6720 0.7050 0.7200 0.7310 0.7300
1420.120000 0.7270 0.7210 0.7000 0.6990 0.6970
1429.148849 0.6950 0.6950 0.6930 0.6920 0.6690
1438.168000 0.6510 0.6340 0.6200 0.6080 0.5970
1447.196849 0.5860 0.5740 0.5630 0.5490 0.5330
1456.217000 0.5140 0.4920 0.4190 0.4000 0.3820
1465.245849 0.4240 0.5230 0.5830 0.6190 0.6320
1474.265000 0.6300 0.6260 0.6170 0.5730 0.5310
1483.293849 0.4950 0.4590 0.4240 0.4060 0.3870
1492.313000 0.3820 0.3770 0.3540 0.3230 0.2890
1501.341849 0.1890 0.1590 0.1550 0.1270 0.1040
1510.361000 0.0940 0.0820 0.0800 0.0800 0.0860
1519.389849 0.1120 0.1240 0.1490 0.1730 0.2060
1528.409000 0.2360 0.2480 0.2680 0.2960 0.3270
1537.437849 0.4060 0.4270 0.4530 0.4770 0.4780
1546.457000 0.4780 0.4780 0.4770 0.4760 0.4760
1555.485849 0.4770 0.4780 0.4840 0.4890 0.4890
1564.505000 0.4810 0.4660 0.4450 0.4070 0.3870
1573.533849 0.3670 0.2830 0.1910 0.1780 0.1590
1582.553000 0.0990 0.0950 0.0890 0.0790 0.0690
1591.581849 0.0600 0.0500 0.0410 0.0390 0.0380
1600.602000 0.0390 0.1010 0.1360 0.1720 0.2080
1609.630849 0.2430 0.2760 0.3040 0.3260 0.3490
1618.650000 0.3680 0.3700 0.3480 0.3200 0.2910
1627.678849 0.2610 0.2310 0.1990 0.1650 0.1390
1636.698000 0.1140 0.1000 0.0860 0.1010 0.1240
1645.726849 0.1560 0.1920 0.2340 0.2760 0.3180
1654.746000 0.3580 0.4260 0.4490 0.4620 0.5040
1663.774849 0.5360 0.5600 0.5800 0.5940 0.6060
1672.794000 0.6170 0.6290 0.6430 0.6690 0.7120
1681.822849 0.7300 0.7460 0.7610 0.7730 0.7850
1690.842000 0.7960 0.8060 0.8140 0.8220 0.8290
1699.870849 0.8350 0.8420 0.8470 0.8530 0.8600
1708.890000 0.8660 0.8730 0.8800 0.8880 0.8970
1717.918849 0.9070 0.9140 0.9250 0.9300 0.9330
1726.938000 0.9340 0.9380 0.9410 0.9430 0.9440
1735.966849 0.9450 0.9480 0.9510 0.9550 0.9560
1744.987000 0.9560 0.9570 0.9590 0.9600 0.9630
1754.015849 0.9650 0.9700 0.9740 0.9780 0.9800
1763.035000 0.9820 0.9820 0.9830 0.9830 0.9830
1772.063849 0.9840 0.9850 0.9870 0.9890 0.9910
1781.083000 0.9920 0.9940 0.9960 1.0000 1.0000
1790.111849 1.0010 1.0030 1.0050 1.0070 1.0070
1799.131000 1.0080 1.0090 1.0110 1.0130 1.0130
1808.159849 1.0150 1.0160 1.0160 1.0160 1.0150
1817.179000 1.0150 1.0150 1.0140 1.0140 1.0140
1826.207849 1.0140 1.0150 1.0150 1.0150 1.0150
1835.227000 1.0150 1.0140 1.0140 1.0130 1.0130
1844.255849 1.0110 1.0110 1.0110 1.0100 1.0100
1853.275000 1.0100 1.0100 1.0100 1.0100 1.0100
1862.303849 1.0100 1.0100 1.0110 1.0110 1.0110
1871.323000 1.0110 1.0110 1.0120 1.0120 1.0120
1880.351849 1.0120 1.0120 1.0130 1.0130 1.0130
1889.372000 1.0130 1.0140 1.0140 1.0140 1.0140
1898.400849 1.0140 1.0140 1.0140 1.0140 1.0140
1907.420000 1.0140 1.0140 1.0140 1.0130 1.0130
1916.448849 1.0130 1.0130 1.0130 1.0130 1.0120
1925.468000 1.0120 1.0120 1.0110 1.0110 1.0110
1934.496849 1.0100 1.0100 1.0100 1.0090 1.0090
1943.516000 1.0090 1.0080 1.0080 1.0070 1.0050
1952.544849 1.0040 1.0030 1.0020 1.0010 1.0000
1961.564000 0.9990 0.9970 0.9940 0.9930 0.9930
1970.592849 0.9920 0.9920 0.9910 0.9910 0.9900
1979.612000 0.9900 0.9900 0.9890 0.9890 0.9890
1988.640849 0.9880 0.9880 0.9880 0.9870 0.9870
1997.660000 0.9860 0.9860 0.9860 0.9850 0.9850
2006.688849 0.9840 0.9840 0.9840 0.9830 0.9830
2015.708000 0.9830 0.9820 0.9820 0.9820 0.9820
2024.736849 0.9820 0.9810 0.9810 0.9810 0.9800
2033.757000 0.9800 0.9790 0.9790 0.9780 0.9780
2042.785849 0.9770 0.9770 0.9760 0.9760 0.9760
2051.805000 0.9750 0.9750 0.9740 0.9740 0.9730
2060.833849 0.9730 0.9730 0.9730 0.9720 0.9720
2069.853000 0.9720 0.9720 0.9710 0.9710 0.9710
2078.881849 0.9710 0.9710 0.9700 0.9700 0.9700
2087.901000 0.9700 0.9700 0.9690 0.9690 0.9690
2096.929849 0.9690 0.9680 0.9680 0.9680 0.9670
2105.949000 0.9670 0.9670 0.9660 0.9660 0.9660
2114.977849 0.9650 0.9650 0.9650 0.9650 0.9650
2123.997000 0.9650 0.9650 0.9650 0.9650 0.9650
2133.025849 0.9650 0.9650 0.9650 0.9650 0.9650
2142.045000 0.9660 0.9660 0.9660 0.9660 0.9660
2151.073849 0.9670 0.9670 0.9670 0.9670 0.9670
2160.094000 0.9660 0.9660 0.9650 0.9650 0.9650
2169.122849 0.9650 0.9650 0.9650 0.9640 0.9640
2178.142000 0.9640 0.9630 0.9630 0.9620 0.9620
2187.170849 0.9610 0.9610 0.9600 0.9600 0.9600
2196.190000 0.9590 0.9590 0.9580 0.9580 0.9580
2205.218849 0.9570 0.9570 0.9560 0.9560 0.9560
2214.238000 0.9560 0.9560 0.9550 0.9550 0.9550
2223.266849 0.9540 0.9540 0.9530 0.9530 0.9520
2232.286000 0.9510 0.9500 0.9500 0.9490 0.9480
2241.314849 0.9470 0.9470 0.9470 0.9460 0.9450
2250.334000 0.9450 0.9440 0.9430 0.9420 0.9420
2259.362849 0.9410 0.9400 0.9390 0.9390 0.9380
2268.382000 0.9380 0.9370 0.9360 0.9360 0.9350
2277.410849 0.9340 0.9330 0.9330 0.9320 0.9310
2286.430000 0.9310 0.9300 0.9300 0.9290 0.9290
2295.458849 0.9280 0.9270 0.9260 0.9260 0.9250
2304.479000 0.9240 0.9220 0.9210 0.9220 0.9210
2313.507849 0.9190 0.9150 0.9120 0.9070 0.9040
2322.527000 0.8990 0.8960 0.8950 0.8940 0.8940
2331.555849 0.8920 0.8900 0.8900 0.8890 0.8880
2340.575000 0.8870 0.8870 0.8860 0.8860 0.8860
2349.603849 0.8860 0.8860 0.8860 0.8860 0.8870
2358.623000 0.8870 0.8880 0.8890 0.8900 0.8910
2367.651849 0.8930 0.8950 0.8950 0.8970 0.9000
2376.671000 0.9030 0.9050 0.9080 0.9120 0.9130
2385.699849 0.9130 0.9130 0.9130 0.9140 0.9140
2394.719000 0.9140 0.9140 0.9130 0.9130 0.9120
2403.747849 0.9120 0.9110 0.9100 0.9100 0.9090
2412.767000 0.9080 0.9080 0.9070 0.9060 0.9050
2421.795849 0.9040 0.9040 0.9040 0.9040 0.9040
2430.815000 0.9030 0.9030 0.9020 0.9020 0.9010
2439.843849 0.9010 0.9000 0.9000 0.9000 0.8990
2448.864000 0.8990 0.8980 0.8980 0.8980 0.8970
2457.892849 0.8970 0.8980 0.8980 0.8980 0.8980
2466.912000 0.8990 0.8990 0.8990 0.8990 0.8980
2475.940849 0.8980 0.8970 0.8960 0.8950 0.8950
2484.960000 0.8950 0.8940 0.8930 0.8930 0.8920
2493.988849 0.8910 0.8900 0.8890 0.8880 0.8880
2503.008000 0.8870 0.8870 0.8860 0.8860 0.8860
2512.036849 0.8850 0.8850 0.8840 0.8840 0.8830
2521.056000 0.8810 0.8790 0.8780 0.8780 0.8770
2530.084849 0.8770 0.8760 0.8750 0.8740 0.8740
2539.104000 0.8730 0.8730 0.8720 0.8720 0.8710
2548.132849 0.8710 0.8700 0.8700 0.8690 0.8690
2557.152000 0.8690 0.8690 0.8690 0.8690 0.8690
2566.180849 0.8690 0.8690 0.8690 0.8690 0.8690
2575.200000 0.8680 0.8680 0.8680 0.8670 0.8670
2584.228849 0.8670 0.8670 0.8660 0.8660 0.8660
2593.249000 0.8660 0.8660 0.8650 0.8650 0.8650
2602.277849 0.8650 0.8650 0.8650 0.8640 0.8630
2611.297000 0.8630 0.8620 0.8620 0.8610 0.8610
2620.325849 0.8600 0.8600 0.8600 0.8590 0.8570
2629.345000 0.8550 0.8530 0.8520 0.8520 0.8480
2638.373849 0.8460 0.8450 0.8440 0.8440 0.8430
2647.393000 0.8430 0.8430 0.8430 0.8430 0.8430
2656.421849 0.8430 0.8430 0.8440 0.8440 0.8440
2665.441000 0.8440 0.8450 0.8450 0.8440 0.8440
2674.469849 0.8440 0.8440 0.8440 0.8430 0.8430
2683.489000 0.8430 0.8430 0.8430 0.8430 0.8420
2692.517849 0.8420 0.8410 0.8410 0.8410 0.8400
2701.537000 0.8400 0.8390 0.8390 0.8390 0.8380
2710.565849 0.8370 0.8370 0.8360 0.8340 0.8340
2719.585000 0.8330 0.8310 0.8290 0.8270 0.8260
2728.613849 0.8260 0.8260 0.8250 0.8250 0.8250
2737.634000 0.8250 0.8240 0.8240 0.8230 0.8230
2746.662849 0.8230 0.8230 0.8230 0.8230 0.8230
2755.682000 0.8230 0.8230 0.8230 0.8220 0.8210
2764.710849 0.8170 0.8140 0.8110 0.8100 0.8080
2773.730000 0.8080 0.8080 0.8060 0.8040 0.8040
2782.758849 0.8030 0.8020 0.8010 0.8000 0.8000
2791.778000 0.7990 0.7980 0.7940 0.7910 0.7890
2800.806849 0.7860 0.7850 0.7830 0.7820 0.7810
2809.826000 0.7800 0.7780 0.7770 0.7740 0.7720
2818.854849 0.7690 0.7650 0.7560 0.7480 0.7450
2827.874000 0.7440 0.7430 0.7420 0.7410 0.7400
2836.902849 0.7380 0.7350 0.7300 0.7280 0.7240
2845.922000 0.7190 0.7140 0.7090 0.7040 0.7020
2854.950849 0.6990 0.6950 0.6910 0.6870 0.6850
2863.970000 0.6810 0.6790 0.6780 0.6770 0.6770
2872.998849 0.6770 0.6760 0.6760 0.6760 0.6770
2882.019000 0.6770 0.6780 0.6790 0.6830 0.6840
2891.047849 0.6860 0.6870 0.6880 0.6890 0.6900
2900.067000 0.6910 0.6910 0.6910 0.6910 0.6910
2909.095849 0.6900 0.6890 0.6880 0.6870 0.6860
2918.115000 0.6850 0.6750 0.6740 0.6720 0.6720
2927.143849 0.6700 0.6670 0.6640 0.6620 0.6610
2936.163000 0.6600 0.6590 0.6550 0.6450 0.6390
2945.191849 0.6340 0.6320 0.6310 0.6300 0.6290
2954.211000 0.6290 0.6290 0.6280 0.6280 0.6280
2963.239849 0.6290 0.6290 0.6300 0.6310 0.6320
2972.259000 0.6330 0.6340 0.6340 0.6360 0.6370
2981.287849 0.6380 0.6410 0.6440 0.6480 0.6510
2990.307000 0.6540 0.6570 0.6610 0.6640 0.6640
2999.335849 0.6620 0.6620 0.6600 0.6580 0.6540
3008.355000 0.6510 0.6460 0.6430 0.6380 0.6330
3017.383849 0.6290 0.6260 0.6240 0.6230 0.6220
3026.404000 0.6180 0.6130 0.6080 0.6010 0.5970
3035.432849 0.5920 0.5820 0.5790 0.5750 0.5720
3044.452000 0.5690 0.5670 0.5640 0.5630 0.5630
3053.480849 0.5620 0.5610 0.5610 0.5600 0.5600
3062.500000 0.5590 0.5590 0.5590 0.5590 0.5590
3071.528849 0.5580 0.5570 0.5560 0.5540 0.5480
3080.548000 0.5460 0.5400 0.5350 0.5290 0.5240
3089.576849 0.5210 0.5200 0.5160 0.5120 0.5050
3098.596000 0.4990 0.4920 0.4840 0.4770 0.4690
3107.624849 0.4630 0.4570 0.4520 0.4490 0.4470
3116.644000 0.4370 0.4280 0.4200 0.4130 0.4060
3125.672849 0.4000 0.3980 0.3950 0.3900 0.3850
3134.692000 0.3800 0.3750 0.3700 0.3650 0.3570
3143.720849 0.3500 0.3490 0.3470 0.3460 0.3450
3152.740000 0.3440 0.3430 0.3430 0.3430 0.3430
3161.768849 0.3440 0.3450 0.3460 0.3460 0.3470
3170.789000 0.3480 0.3490 0.3510 0.3520 0.3550
3179.817849 0.3570 0.3570 0.3590 0.3620 0.3640
3188.837000 0.3650 0.3650 0.3670 0.3680 0.3690
3197.865849 0.3700 0.3730 0.3770 0.3820 0.3860
3206.885000 0.3910 0.3940 0.4020 0.4040 0.4050
3215.913849 0.4080 0.4090 0.4110 0.4150 0.4180
3224.933000 0.4220 0.4250 0.4290 0.4320 0.4350
3233.961849 0.4370 0.4390 0.4410 0.4420 0.4420
3242.981000 0.4400 0.4370 0.4280 0.4230 0.4170
3252.009849 0.4080 0.4010 0.3980 0.3930 0.3830
3261.029000 0.3750 0.3730 0.3710 0.3680 0.3670
3270.057849 0.3670 0.3670 0.3680 0.3690 0.3710
3279.077000 0.3720 0.3730 0.3760 0.3790 0.3820
3288.105849 0.3840 0.3870 0.3910 0.3940 0.4010
3297.125000 0.4050 0.4090 0.4130 0.4170 0.4170
3306.153849 0.4190 0.4170 0.4140 0.4080 0.4020
3315.174000 0.3960 0.3900 0.3650 0.3530 0.3330
3324.202849 0.3080 0.3060 0.3070 0.3130 0.3180
3333.222000 0.3290 0.3430 0.3600 0.3790 0.4150
3342.250849 0.4560 0.4900 0.5170 0.5390 0.5550
3351.270000 0.5680 0.5770 0.5850 0.5910 0.5970
3360.298849 0.6030 0.6110 0.6200 0.6220 0.6230
3369.318000 0.6260 0.6300 0.6310 0.6320 0.6320
3378.346849 0.6330 0.6330 0.6330 0.6320 0.6300
3387.366000 0.6290 0.6270 0.6260 0.6240 0.6200
3396.394849 0.6170 0.6140 0.6090 0.5880 0.5160
3405.414000 0.4840 0.4520 0.4170 0.3810 0.2880
3414.442849 0.2530 0.2160 0.1790 0.1410 0.1410
3423.462000 0.1810 0.2750 0.3150 0.3530 0.4230
3432.490849 0.4570 0.4930 0.5300 0.5770 0.6160
3441.511000 0.6460 0.6700 0.7030 0.7120 0.7180
3450.539849 0.7220 0.7250 0.7280 0.7300 0.7340
3459.559000 0.7470 0.7550 0.7610 0.7650 0.7670
3468.587849 0.7680 0.7690 0.7700 0.7710 0.7730
3477.607000 0.7740 0.7750 0.7760 0.7780 0.7800
3486.635849 0.7820 0.7830 0.7850 0.7880 0.7900
3495.655000 0.7910 0.7940 0.7960 0.7980 0.8000
3504.683849 0.8010 0.8020 0.8040 0.8050 0.8050
3513.703000 0.8080 0.8100 0.8120 0.8140 0.8170
3522.731849 0.8180 0.8200 0.8210 0.8230 0.8250
3531.751000 0.8260 0.8280 0.8320 0.8340 0.8360
3540.779849 0.8370 0.8380 0.8380 0.8390 0.8400
3549.799000 0.8400 0.8410 0.8410 0.8420 0.8420
3558.827849 0.8430 0.8430 0.8430 0.8440 0.8450
3567.847000 0.8460 0.8470 0.8480 0.8490 0.8500
3576.875849 0.8520 0.8520 0.8520 0.8530 0.8530
3585.896000 0.8540 0.8550 0.8550 0.8570 0.8590
3594.924849 0.8600 0.8610 0.8640 0.8660 0.8680
3603.944000 0.8690 0.8700 0.8700 0.8710 0.8720
3612.972849 0.8720 0.8730 0.8730 0.8740 0.8740
3621.992000 0.8750 0.8750 0.8760 0.8760 0.8770
3631.020849 0.8780 0.8780 0.8780 0.8780 0.8780
3640.040000 0.8780 0.8780 0.8780 0.8780 0.8780
3649.068849 0.8790 0.8790 0.8790 0.8790 0.8790
3658.088000 0.8790 0.8790 0.8790 0.8790 0.8790
3667.116849 0.8790 0.8790 0.8790 0.8790 0.8780
3676.136000 0.8780 0.8780 0.8780 0.8780 0.8780
3685.164849 0.8780 0.8780 0.8780 0.8770 0.8770
3694.184000 0.8760 0.8760 0.8750 0.8750 0.8740
3703.212849 0.8740 0.8720 0.8720 0.8700 0.8690
3712.233000 0.8680 0.8670 0.8660 0.8660 0.8650
3721.261849 0.8650 0.8640 0.8640 0.8640 0.8640
3730.281000 0.8630 0.8630 0.8620 0.8620 0.8610
3739.309849 0.8610 0.8600 0.8600 0.8600 0.8600
3748.329000 0.8610 0.8610 0.8620 0.8630 0.8640
3757.357849 0.8650 0.8660 0.8660 0.8660 0.8670
3766.377000 0.8670 0.8670 0.8670 0.8670 0.8670
3775.405849 0.8670 0.8660 0.8650 0.8630 0.8630
3784.425000 0.8620 0.8620 0.8610 0.8610 0.8610
3793.453849 0.8600 0.8600 0.8600 0.8600 0.8600
3802.473000 0.8590 0.8590 0.8580 0.8580 0.8570
3811.501849 0.8570 0.8560 0.8560 0.8560 0.8560
3820.521000 0.8570 0.8570 0.8570 0.8580 0.8580
3829.549849 0.8580 0.8580 0.8580 0.8580 0.8580
3838.569000 0.8580 0.8580 0.8580 0.8570 0.8570
3847.597849 0.8560 0.8560 0.8550 0.8540 0.8530
3856.618000 0.8530 0.8530 0.8530 0.8530 0.8530
3865.646849 0.8540 0.8540 0.8540 0.8540 0.8540
3874.666000 0.8550 0.8550 0.8550 0.8550 0.8550
3883.694849 0.8550 0.8550 0.8550 0.8550 0.8550
3892.714000 0.8550 0.8550 0.8550 0.8540 0.8540
3901.742849 0.8540 0.8540 0.8540 0.8540 0.8540
3910.762000 0.8540 0.8540 0.8540 0.8540 0.8540
3919.790849 0.8530 0.8530 0.8530 0.8530 0.8520
3928.810000 0.8520 0.8520 0.8510 0.8510 0.8500
3937.838849 0.8490 0.8490 0.8480 0.8480 0.8470
3946.858000 0.8460 0.8450 0.8440 0.8430 0.8430
3955.886849 0.8430 0.8430 0.8430 0.8420 0.8410
3964.906000 0.8410 0.8410 0.8400 0.8400 0.8400
3973.934849 0.8400 0.8390 0.8390 0.8390 0.8390
3982.954000 0.8390 0.8400 0.8400 0.8400 0.8400
3991.982849 0.8410 0.8410 0.8410 0.8410 0.8410
4001.003000 0.8410 0.8410 0.8410 0.8410 0.8410
4010.031849 0.8410 0.8410 0.8410
##END=
