##TITLE=MAGNESIUM PHOSPHATE, MONOBASIC
$$ C.P.
##JCAMP-DX=4.24
##DATA TYPE=INFRARED SPECTRUM
##CLASS=COBLENTZ
##ORIGIN=MELLON INSTITUTE
##OWNER=COBLENTZ SOCIETY
Collection (C) 2018 copyright by the U.S. Secretary of Commerce
on behalf of the United States of America. All rights reserved.
##DATE=Not specified, most likely prior to 1970
##MOLFORM=Mg ( H2 P O4)2
##SOURCE REFERENCE=COBLENTZ NO. 584
##$NIST ID=B6000584
##$NIST SOURCE=COBLENTZ
##$NIST IMAGE=cob584
##SPECTROMETER/DATA SYSTEM=Not specified, most likely a prism, grating, or hybrid spectrometer.
##STATE=SOLID (NUJOL MULL)
##PATH LENGTH=
$$SPECTRAL CONTAMINATION DUE TO OIL AROUND 2900, 1450, 1380 CM^-^1
##SAMPLING PROCEDURE=TRANSMISSION
##RESOLUTION=4
##DATA PROCESSING=DIGITIZED BY NIST FROM HARD COPY
##XUNITS=MICROMETERS
##YUNITS=TRANSMITTANCE
##XFACTOR=1.000000
##YFACTOR=1
##DELTAX=000.006655
##FIRSTX=2.028
##LASTX=16.0097
##FIRSTY=0.988
##MAXX=16.0097
##MINX=2.028
##MAXY=1.001
##MINY=0.129
##NPOINTS=2102
##XYDATA=(X++(Y..Y))
2.028000 0.9880 0.9880 0.9880 0.9880 0.9890
2.061289 0.9910 0.9930 0.9930 0.9940 0.9940
2.095000 0.9940 0.9940 0.9980 1.0000 1.0000
2.128289 1.0000 1.0000 0.9980 0.9980 1.0000
2.162000 1.0010 1.0010 1.0010 1.0010 1.0010
2.195289 1.0000 1.0000 1.0000 0.9980 0.9980
2.228000 0.9960 0.9960 0.9940 0.9930 0.9910
2.261289 0.9890 0.9880 0.9860 0.9840 0.9790
2.295000 0.9690 0.9640 0.9630 0.9610 0.9590
2.328289 0.9590 0.9560 0.9540 0.9530 0.9530
2.361000 0.9530 0.9510 0.9510 0.9510 0.9510
2.394289 0.9460 0.9440 0.9410 0.9340 0.9340
2.428000 0.9320 0.9310 0.9290 0.9260 0.9220
2.461289 0.9210 0.9210 0.9210 0.9190 0.9160
2.494000 0.9140 0.9140 0.9120 0.9060 0.9060
2.527289 0.9040 0.9010 0.8970 0.8940 0.8900
2.561000 0.8890 0.8850 0.8850 0.8800 0.8790
2.594289 0.8750 0.8740 0.8700 0.8670 0.8670
2.627000 0.8620 0.8540 0.8470 0.8400 0.8320
2.660289 0.8270 0.8250 0.8230 0.8200 0.8170
2.694000 0.8030 0.7960 0.7830 0.7750 0.7560
2.727289 0.7360 0.7160 0.6860 0.6610 0.6370
2.760000 0.6190 0.6100 0.6090 0.6020 0.5920
2.793289 0.5770 0.5620 0.5430 0.5230 0.5030
2.827000 0.4910 0.4880 0.4830 0.4760 0.4680
2.860289 0.4630 0.4610 0.4590 0.4540 0.4490
2.894000 0.4440 0.4290 0.4220 0.4160 0.4110
2.927289 0.4020 0.3990 0.3920 0.3870 0.3800
2.960000 0.3740 0.3690 0.3670 0.3670 0.3670
2.993289 0.3650 0.3700 0.3740 0.3750 0.3770
3.027000 0.3790 0.3790 0.3790 0.3790 0.3790
3.060289 0.3790 0.3770 0.3770 0.3740 0.3700
3.093000 0.3700 0.3690 0.3690 0.3690 0.3670
3.126289 0.3670 0.3670 0.3670 0.3690 0.3690
3.160000 0.3690 0.3690 0.3690 0.3690 0.3690
3.193289 0.3700 0.3720 0.3740 0.3740 0.3740
3.226000 0.3750 0.3750 0.3740 0.3740 0.3740
3.259289 0.3750 0.3750 0.3770 0.3750 0.3720
3.293000 0.3650 0.3600 0.3500 0.3330 0.2960
3.326289 0.2440 0.2130 0.1820 0.1590 0.1520
3.359000 0.1440 0.1370 0.1340 0.1300 0.1290
3.392289 0.1290 0.1320 0.1340 0.1420 0.1520
3.426000 0.1560 0.1570 0.1570 0.1570 0.1560
3.459289 0.1560 0.1590 0.1710 0.1870 0.2190
3.492000 0.2610 0.2950 0.3220 0.3370 0.3670
3.525289 0.3800 0.3920 0.4010 0.4140 0.4190
3.559000 0.4270 0.4360 0.4420 0.4490 0.4530
3.592289 0.4580 0.4590 0.4640 0.4690 0.4710
3.626000 0.4740 0.4780 0.4790 0.4840 0.4890
3.659289 0.4960 0.5030 0.5030 0.5080 0.5130
3.692000 0.5150 0.5180 0.5210 0.5230 0.5260
3.725289 0.5300 0.5360 0.5400 0.5410 0.5460
3.759000 0.5500 0.5530 0.5550 0.5580 0.5600
3.792289 0.5670 0.5680 0.5720 0.5750 0.5780
3.825000 0.5800 0.5820 0.5830 0.5880 0.5920
3.858289 0.5930 0.5950 0.5950 0.5970 0.5970
3.892000 0.5980 0.6050 0.6140 0.6150 0.6150
3.925289 0.6190 0.6200 0.6200 0.6220 0.6240
3.958000 0.6240 0.6250 0.6270 0.6300 0.6300
3.991289 0.6320 0.6320 0.6340 0.6340 0.6350
4.025000 0.6350 0.6370 0.6370 0.6390 0.6390
4.058289 0.6400 0.6400 0.6420 0.6420 0.6420
4.091000 0.6440 0.6440 0.6450 0.6470 0.6470
4.124289 0.6470 0.6490 0.6490 0.6490 0.6490
4.158000 0.6490 0.6490 0.6510 0.6510 0.6510
4.191289 0.6490 0.6470 0.6440 0.6420 0.6420
4.224000 0.6400 0.6390 0.6390 0.6390 0.6390
4.257289 0.6390 0.6390 0.6370 0.6370 0.6350
4.291000 0.6350 0.6350 0.6340 0.6340 0.6340
4.324289 0.6340 0.6350 0.6350 0.6400 0.6440
4.358000 0.6470 0.6540 0.6640 0.6670 0.6710
4.391289 0.6760 0.6820 0.6910 0.6960 0.6990
4.424000 0.6990 0.7010 0.7040 0.7040 0.7080
4.457289 0.7110 0.7160 0.7180 0.7190 0.7190
4.491000 0.7190 0.7210 0.7240 0.7280 0.7290
4.524289 0.7310 0.7340 0.7360 0.7380 0.7390
4.557000 0.7410 0.7430 0.7430 0.7460 0.7460
4.590289 0.7480 0.7480 0.7530 0.7550 0.7560
4.624000 0.7600 0.7610 0.7630 0.7630 0.7650
4.657289 0.7680 0.7710 0.7710 0.7730 0.7750
4.690000 0.7760 0.7780 0.7780 0.7800 0.7810
4.723289 0.7860 0.7880 0.7880 0.7900 0.7910
4.757000 0.7930 0.7930 0.7950 0.7960 0.8000
4.790289 0.8000 0.8000 0.8020 0.8030 0.8030
4.823000 0.8030 0.8080 0.8100 0.8150 0.8170
4.856289 0.8180 0.8180 0.8220 0.8230 0.8250
4.890000 0.8270 0.8300 0.8300 0.8320 0.8330
4.923289 0.8350 0.8350 0.8350 0.8370 0.8380
4.956000 0.8400 0.8420 0.8420 0.8430 0.8430
4.989289 0.8430 0.8450 0.8470 0.8480 0.8480
5.023000 0.8480 0.8500 0.8500 0.8500 0.8500
5.056289 0.8500 0.8520 0.8520 0.8540 0.8550
5.090000 0.8550 0.8590 0.8600 0.8600 0.8620
5.123289 0.8620 0.8620 0.8640 0.8640 0.8640
5.156000 0.8650 0.8650 0.8670 0.8670 0.8670
5.189289 0.8690 0.8690 0.8690 0.8700 0.8700
5.223000 0.8700 0.8720 0.8720 0.8720 0.8720
5.256289 0.8720 0.8720 0.8720 0.8720 0.8720
5.289000 0.8720 0.8720 0.8720 0.8720 0.8720
5.322289 0.8720 0.8720 0.8720 0.8720 0.8700
5.356000 0.8700 0.8700 0.8700 0.8700 0.8700
5.389289 0.8700 0.8700 0.8690 0.8690 0.8670
5.422000 0.8670 0.8650 0.8650 0.8640 0.8620
5.455289 0.8620 0.8600 0.8590 0.8550 0.8550
5.489000 0.8540 0.8540 0.8540 0.8520 0.8500
5.522289 0.8480 0.8480 0.8480 0.8470 0.8470
5.555000 0.8470 0.8470 0.8470 0.8450 0.8430
5.588289 0.8430 0.8420 0.8400 0.8380 0.8370
5.622000 0.8350 0.8350 0.8350 0.8350 0.8330
5.655289 0.8330 0.8320 0.8280 0.8250 0.8250
5.688000 0.8250 0.8230 0.8230 0.8220 0.8220
5.721289 0.8220 0.8200 0.8180 0.8150 0.8130
5.755000 0.8120 0.8080 0.8080 0.8050 0.8050
5.788289 0.8030 0.8030 0.8030 0.8020 0.8000
5.822000 0.8000 0.7960 0.7950 0.7910 0.7880
5.855289 0.7850 0.7850 0.7830 0.7810 0.7810
5.888000 0.7780 0.7700 0.7680 0.7650 0.7630
5.921289 0.7610 0.7560 0.7530 0.7500 0.7440
5.955000 0.7330 0.7240 0.7210 0.7190 0.7160
5.988289 0.7040 0.6970 0.6940 0.6890 0.6840
6.021000 0.6790 0.6740 0.6690 0.6660 0.6620
6.054289 0.6590 0.6560 0.6560 0.6560 0.6540
6.088000 0.6540 0.6540 0.6560 0.6560 0.6570
6.121289 0.6590 0.6610 0.6620 0.6640 0.6660
6.154000 0.6660 0.6670 0.6710 0.6740 0.6770
6.187289 0.6790 0.6810 0.6820 0.6840 0.6860
6.221000 0.6890 0.6920 0.6940 0.6960 0.6990
6.254289 0.7010 0.7010 0.7010 0.7030 0.7030
6.287000 0.7030 0.7040 0.7040 0.7040 0.7040
6.320289 0.7080 0.7080 0.7060 0.7040 0.7040
6.354000 0.7040 0.7040 0.7080 0.7090 0.7110
6.387289 0.7110 0.7110 0.7110 0.7090 0.7080
6.420000 0.7080 0.7080 0.7060 0.7060 0.7090
6.453289 0.7110 0.7140 0.7160 0.7180 0.7210
6.487000 0.7210 0.7210 0.7210 0.7210 0.7210
6.520289 0.7210 0.7210 0.7210 0.7190 0.7190
6.554000 0.7190 0.7210 0.7230 0.7230 0.7230
6.587289 0.7240 0.7240 0.7280 0.7280 0.7260
6.620000 0.7260 0.7260 0.7260 0.7280 0.7290
6.653289 0.7290 0.7310 0.7310 0.7310 0.7310
6.687000 0.7310 0.7310 0.7310 0.7280 0.7260
6.720289 0.7260 0.7260 0.7240 0.7230 0.7190
6.753000 0.7160 0.7040 0.6990 0.6910 0.6790
6.786289 0.6540 0.6270 0.6020 0.5780 0.5550
6.820000 0.5380 0.5250 0.5160 0.5050 0.5030
6.853289 0.5000 0.4980 0.4980 0.4980 0.4980
6.886000 0.4980 0.4980 0.4980 0.5000 0.5030
6.919289 0.5150 0.5310 0.5350 0.5410 0.5500
6.953000 0.5550 0.5630 0.5780 0.5950 0.6050
6.986289 0.6140 0.6240 0.6400 0.6510 0.6620
7.019000 0.6640 0.6690 0.6710 0.6720 0.6790
7.052289 0.6820 0.6870 0.6920 0.6920 0.6920
7.086000 0.6960 0.6990 0.7010 0.7010 0.7030
7.119289 0.7030 0.7040 0.7040 0.7040 0.7030
7.152000 0.7030 0.7030 0.7010 0.6990 0.6920
7.185289 0.6810 0.6770 0.6560 0.6490 0.6350
7.219000 0.6140 0.6000 0.5830 0.5750 0.5720
7.252289 0.5670 0.5650 0.5650 0.5650 0.5630
7.286000 0.5630 0.5630 0.5630 0.5650 0.5650
7.319289 0.5680 0.5720 0.5750 0.5800 0.5800
7.352000 0.5820 0.5830 0.5850 0.5850 0.5850
7.385289 0.5850 0.5850 0.5850 0.5850 0.5830
7.419000 0.5820 0.5820 0.5820 0.5820 0.5800
7.452289 0.5800 0.5780 0.5780 0.5770 0.5750
7.485000 0.5730 0.5730 0.5720 0.5700 0.5670
7.518289 0.5670 0.5650 0.5630 0.5620 0.5600
7.552000 0.5570 0.5550 0.5530 0.5500 0.5500
7.585289 0.5480 0.5460 0.5430 0.5400 0.5360
7.618000 0.5330 0.5310 0.5280 0.5250 0.5230
7.651289 0.5210 0.5160 0.5150 0.5130 0.5110
7.685000 0.5050 0.5050 0.5030 0.5000 0.4940
7.718289 0.4910 0.4880 0.4840 0.4810 0.4780
7.751000 0.4740 0.4730 0.4690 0.4660 0.4640
7.784289 0.4640 0.4630 0.4590 0.4560 0.4530
7.818000 0.4510 0.4470 0.4460 0.4420 0.4410
7.851289 0.4390 0.4370 0.4360 0.4320 0.4290
7.884000 0.4270 0.4270 0.4260 0.4220 0.4220
7.917289 0.4210 0.4210 0.4190 0.4160 0.4140
7.951000 0.4140 0.4120 0.4110 0.4110 0.4090
7.984289 0.4060 0.4060 0.4040 0.4040 0.4040
8.018000 0.4020 0.4020 0.4020 0.4020 0.4020
8.051289 0.4020 0.4020 0.4020 0.4020 0.4020
8.084000 0.4020 0.4020 0.4020 0.4020 0.4020
8.117289 0.4020 0.4020 0.4020 0.4020 0.4020
8.151000 0.4020 0.4020 0.4020 0.4020 0.4020
8.184289 0.4020 0.4020 0.4020 0.4020 0.4020
8.217000 0.4020 0.4010 0.4010 0.4010 0.4010
8.250289 0.3990 0.3990 0.3990 0.3970 0.3950
8.284000 0.3940 0.3920 0.3900 0.3900 0.3890
8.317289 0.3890 0.3870 0.3850 0.3840 0.3840
8.350000 0.3820 0.3800 0.3770 0.3750 0.3740
8.383289 0.3740 0.3720 0.3700 0.3690 0.3690
8.417000 0.3650 0.3650 0.3640 0.3600 0.3600
8.450289 0.3600 0.3590 0.3570 0.3550 0.3540
8.483000 0.3520 0.3520 0.3520 0.3500 0.3500
8.516289 0.3480 0.3480 0.3470 0.3470 0.3470
8.550000 0.3470 0.3480 0.3480 0.3470 0.3470
8.583289 0.3470 0.3470 0.3470 0.3450 0.3450
8.616000 0.3450 0.3450 0.3450 0.3450 0.3450
8.649289 0.3450 0.3430 0.3430 0.3420 0.3420
8.683000 0.3420 0.3420 0.3420 0.3420 0.3420
8.716289 0.3420 0.3420 0.3400 0.3400 0.3400
8.750000 0.3400 0.3420 0.3420 0.3420 0.3420
8.783289 0.3420 0.3430 0.3450 0.3430 0.3430
8.816000 0.3430 0.3450 0.3450 0.3470 0.3470
8.849289 0.3470 0.3470 0.3470 0.3480 0.3480
8.883000 0.3500 0.3500 0.3500 0.3520 0.3520
8.916289 0.3540 0.3540 0.3540 0.3550 0.3570
8.949000 0.3570 0.3570 0.3570 0.3590 0.3590
8.982289 0.3600 0.3620 0.3620 0.3600 0.3600
9.016000 0.3600 0.3600 0.3600 0.3600 0.3600
9.049289 0.3600 0.3600 0.3600 0.3600 0.3600
9.082000 0.3600 0.3600 0.3600 0.3600 0.3600
9.115289 0.3600 0.3600 0.3600 0.3600 0.3600
9.149000 0.3600 0.3620 0.3620 0.3620 0.3620
9.182289 0.3620 0.3640 0.3670 0.3690 0.3690
9.215000 0.3700 0.3700 0.3690 0.3690 0.3690
9.248289 0.3690 0.3690 0.3690 0.3690 0.3690
9.282000 0.3690 0.3690 0.3690 0.3690 0.3690
9.315289 0.3690 0.3670 0.3670 0.3650 0.3650
9.348000 0.3640 0.3640 0.3620 0.3620 0.3600
9.381289 0.3600 0.3600 0.3550 0.3550 0.3550
9.415000 0.3550 0.3550 0.3550 0.3550 0.3540
9.448289 0.3540 0.3520 0.3500 0.3500 0.3480
9.482000 0.3480 0.3480 0.3470 0.3470 0.3470
9.515289 0.3450 0.3450 0.3450 0.3450 0.3450
9.548000 0.3450 0.3450 0.3450 0.3450 0.3450
9.581289 0.3430 0.3430 0.3430 0.3450 0.3430
9.615000 0.3430 0.3430 0.3430 0.3430 0.3430
9.648289 0.3430 0.3430 0.3430 0.3450 0.3450
9.681000 0.3450 0.3470 0.3480 0.3500 0.3520
9.714289 0.3520 0.3540 0.3540 0.3540 0.3540
9.748000 0.3550 0.3600 0.3620 0.3640 0.3650
9.781289 0.3670 0.3690 0.3690 0.3720 0.3740
9.814000 0.3740 0.3740 0.3750 0.3750 0.3750
9.847289 0.3770 0.3790 0.3790 0.3800 0.3800
9.881000 0.3820 0.3840 0.3840 0.3840 0.3850
9.914289 0.3850 0.3850 0.3850 0.3850 0.3850
9.947000 0.3850 0.3850 0.3850 0.3850 0.3850
9.980289 0.3850 0.3850 0.3870 0.3870 0.3870
10.014000 0.3870 0.3870 0.3870 0.3890 0.3890
10.047289 0.3870 0.3870 0.3850 0.3840 0.3840
10.080000 0.3820 0.3820 0.3800 0.3790 0.3790
10.113289 0.3790 0.3790 0.3790 0.3770 0.3770
10.147000 0.3770 0.3770 0.3770 0.3750 0.3750
10.180289 0.3750 0.3740 0.3740 0.3720 0.3740
10.214000 0.3720 0.3700 0.3700 0.3700 0.3700
10.247289 0.3690 0.3640 0.3620 0.3620 0.3620
10.280000 0.3620 0.3600 0.3600 0.3590 0.3590
10.313289 0.3570 0.3570 0.3550 0.3540 0.3540
10.347000 0.3540 0.3520 0.3520 0.3520 0.3520
10.380289 0.3500 0.3500 0.3480 0.3450 0.3450
10.413000 0.3450 0.3430 0.3430 0.3370 0.3330
10.446289 0.3330 0.3330 0.3320 0.3320 0.3320
10.480000 0.3300 0.3280 0.3280 0.3280 0.3280
10.513289 0.3270 0.3270 0.3230 0.3220 0.3200
10.546000 0.3200 0.3200 0.3200 0.3200 0.3180
10.579289 0.3180 0.3180 0.3180 0.3180 0.3180
10.613000 0.3180 0.3180 0.3180 0.3180 0.3180
10.646289 0.3200 0.3200 0.3200 0.3200 0.3220
10.679000 0.3230 0.3270 0.3280 0.3300 0.3300
10.712289 0.3320 0.3330 0.3350 0.3350 0.3370
10.746000 0.3380 0.3380 0.3400 0.3420 0.3420
10.779289 0.3430 0.3450 0.3450 0.3470 0.3500
10.812000 0.3550 0.3570 0.3590 0.3600 0.3620
10.845289 0.3620 0.3640 0.3640 0.3640 0.3670
10.879000 0.3670 0.3690 0.3700 0.3700 0.3700
10.912289 0.3720 0.3720 0.3740 0.3740 0.3740
10.946000 0.3740 0.3740 0.3740 0.3740 0.3740
10.979289 0.3750 0.3750 0.3700 0.3670 0.3570
11.012000 0.3570 0.3570 0.3590 0.3590 0.3590
11.045289 0.3600 0.3600 0.3600 0.3620 0.3640
11.079000 0.3640 0.3650 0.3670 0.3670 0.3670
11.112289 0.3700 0.3720 0.3720 0.3720 0.3720
11.145000 0.3720 0.3720 0.3740 0.3750 0.3750
11.178289 0.3740 0.3740 0.3740 0.3740 0.3750
11.212000 0.3750 0.3750 0.3750 0.3770 0.3790
11.245289 0.3800 0.3820 0.3820 0.3840 0.3850
11.278000 0.3870 0.3870 0.3870 0.3890 0.3900
11.311289 0.3920 0.3940 0.3950 0.3970 0.4020
11.345000 0.4020 0.4040 0.4060 0.4070 0.4110
11.378289 0.4110 0.4120 0.4160 0.4170 0.4210
11.411000 0.4220 0.4240 0.4270 0.4270 0.4310
11.444289 0.4310 0.4320 0.4340 0.4360 0.4370
11.478000 0.4390 0.4410 0.4420 0.4460 0.4470
11.511289 0.4470 0.4510 0.4530 0.4530 0.4540
11.544000 0.4560 0.4590 0.4610 0.4630 0.4630
11.577289 0.4630 0.4640 0.4660 0.4680 0.4690
11.611000 0.4690 0.4710 0.4710 0.4730 0.4730
11.644289 0.4730 0.4690 0.4680 0.4510 0.4510
11.678000 0.4590 0.4610 0.4630 0.4640 0.4660
11.711289 0.4680 0.4690 0.4690 0.4690 0.4710
11.744000 0.4730 0.4740 0.4760 0.4780 0.4810
11.777289 0.4830 0.4840 0.4840 0.4860 0.4880
11.811000 0.4880 0.4890 0.4910 0.4910 0.4930
11.844289 0.4930 0.4940 0.4940 0.4960 0.4960
11.877000 0.4960 0.4960 0.4980 0.4980 0.5000
11.910289 0.5010 0.5010 0.5010 0.5010 0.5010
11.944000 0.5010 0.5010 0.5010 0.5010 0.5010
11.977289 0.5010 0.5030 0.5030 0.5030 0.5030
12.010000 0.5030 0.5030 0.5030 0.5030 0.5030
12.043289 0.5030 0.5050 0.5050 0.5050 0.5050
12.077000 0.5060 0.5060 0.5060 0.5060 0.5060
12.110289 0.5100 0.5110 0.5110 0.5130 0.5130
12.143000 0.5130 0.5130 0.5130 0.5130 0.5130
12.176289 0.5150 0.5160 0.5180 0.5180 0.5180
12.210000 0.5180 0.5180 0.5180 0.5180 0.5180
12.243289 0.5180 0.5180 0.5180 0.5180 0.5180
12.276000 0.5180 0.5210 0.5210 0.5210 0.5210
12.309289 0.5210 0.5210 0.5210 0.5210 0.5210
12.343000 0.5210 0.5210 0.5230 0.5230 0.5230
12.376289 0.5250 0.5250 0.5250 0.5250 0.5260
12.410000 0.5260 0.5260 0.5260 0.5260 0.5260
12.443289 0.5260 0.5260 0.5260 0.5260 0.5260
12.476000 0.5260 0.5260 0.5260 0.5260 0.5260
12.509289 0.5260 0.5260 0.5260 0.5260 0.5260
12.543000 0.5260 0.5260 0.5260 0.5260 0.5260
12.576289 0.5260 0.5260 0.5260 0.5260 0.5260
12.609000 0.5260 0.5260 0.5260 0.5260 0.5260
12.642289 0.5260 0.5260 0.5250 0.5250 0.5260
12.676000 0.5260 0.5250 0.5250 0.5250 0.5260
12.709289 0.5260 0.5260 0.5260 0.5260 0.5260
12.742000 0.5260 0.5260 0.5260 0.5260 0.5260
12.775289 0.5260 0.5260 0.5260 0.5260 0.5260
12.809000 0.5260 0.5260 0.5260 0.5260 0.5260
12.842289 0.5280 0.5280 0.5280 0.5280 0.5260
12.875000 0.5250 0.5250 0.5250 0.5250 0.5260
12.908289 0.5260 0.5260 0.5260 0.5260 0.5260
12.942000 0.5260 0.5260 0.5250 0.5250 0.5250
12.975289 0.5250 0.5250 0.5250 0.5250 0.5250
13.008000 0.5230 0.5230 0.5210 0.5210 0.5210
13.041289 0.5210 0.5210 0.5230 0.5210 0.5210
13.075000 0.5210 0.5210 0.5230 0.5230 0.5230
13.108289 0.5210 0.5210 0.5210 0.5210 0.5210
13.142000 0.5210 0.5210 0.5210 0.5210 0.5210
13.175289 0.5210 0.5210 0.5180 0.5180 0.5160
13.208000 0.5150 0.5150 0.5150 0.5150 0.5150
13.241289 0.5150 0.5160 0.5160 0.5160 0.5160
13.275000 0.5160 0.5160 0.5160 0.5180 0.5200
13.308289 0.5180 0.5180 0.5180 0.5180 0.5200
13.341000 0.5200 0.5200 0.5200 0.5200 0.5210
13.374289 0.5230 0.5250 0.5250 0.5250 0.5260
13.408000 0.5250 0.5250 0.5250 0.5250 0.5260
13.441289 0.5260 0.5260 0.5260 0.5260 0.5280
13.474000 0.5280 0.5280 0.5280 0.5280 0.5280
13.507289 0.5280 0.5280 0.5280 0.5280 0.5280
13.541000 0.5300 0.5300 0.5300 0.5300 0.5310
13.574289 0.5310 0.5330 0.5330 0.5330 0.5330
13.607000 0.5350 0.5350 0.5350 0.5360 0.5360
13.640289 0.5380 0.5380 0.5380 0.5400 0.5380
13.674000 0.5400 0.5400 0.5410 0.5410 0.5410
13.707289 0.5410 0.5410 0.5430 0.5430 0.5450
13.740000 0.5450 0.5450 0.5460 0.5480 0.5480
13.773289 0.5480 0.5480 0.5480 0.5480 0.5500
13.807000 0.5520 0.5520 0.5530 0.5520 0.5520
13.840289 0.5530 0.5530 0.5550 0.5550 0.5550
13.874000 0.5570 0.5600 0.5620 0.5620 0.5620
13.907289 0.5650 0.5670 0.5670 0.5670 0.5680
13.940000 0.5700 0.5700 0.5720 0.5730 0.5750
13.973289 0.5750 0.5750 0.5770 0.5780 0.5780
14.007000 0.5780 0.5800 0.5800 0.5820 0.5830
14.040289 0.5850 0.5870 0.5880 0.5900 0.5900
14.073000 0.5920 0.5930 0.5950 0.6000 0.6000
14.106289 0.6000 0.6000 0.6020 0.6020 0.6020
14.140000 0.6040 0.6040 0.6040 0.6040 0.6040
14.173289 0.6040 0.6040 0.6040 0.6040 0.6040
14.206000 0.6040 0.6050 0.6050 0.6070 0.6120
14.239289 0.6140 0.6140 0.6140 0.6140 0.6140
14.273000 0.6150 0.6150 0.6150 0.6150 0.6170
14.306289 0.6170 0.6190 0.6190 0.6200 0.6200
14.339000 0.6200 0.6220 0.6220 0.6220 0.6220
14.372289 0.6220 0.6220 0.6220 0.6240 0.6250
14.406000 0.6270 0.6270 0.6270 0.6290 0.6270
14.439289 0.6270 0.6270 0.6290 0.6290 0.6290
14.472000 0.6290 0.6290 0.6290 0.6290 0.6290
14.505289 0.6290 0.6290 0.6290 0.6290 0.6290
14.539000 0.6290 0.6300 0.6320 0.6320 0.6320
14.572289 0.6320 0.6320 0.6320 0.6320 0.6320
14.606000 0.6320 0.6340 0.6320 0.6320 0.6320
14.639289 0.6320 0.6300 0.6300 0.6300 0.6300
14.672000 0.6300 0.6300 0.6320 0.6320 0.6320
14.705289 0.6340 0.6320 0.6320 0.6320 0.6320
14.739000 0.6320 0.6320 0.6320 0.6320 0.6300
14.772289 0.6300 0.6300 0.6300 0.6300 0.6300
14.805000 0.6300 0.6300 0.6300 0.6300 0.6290
14.838289 0.6290 0.6290 0.6290 0.6290 0.6290
14.872000 0.6290 0.6290 0.6290 0.6290 0.6290
14.905289 0.6290 0.6290 0.6270 0.6270 0.6270
14.938000 0.6270 0.6290 0.6270 0.6270 0.6270
14.971289 0.6270 0.6270 0.6270 0.6290 0.6290
15.005000 0.6290 0.6290 0.6290 0.6270 0.6270
15.038289 0.6270 0.6270 0.6270 0.6270 0.6290
15.071000 0.6290 0.6290 0.6290 0.6290 0.6290
15.104289 0.6290 0.6290 0.6290 0.6290 0.6290
15.138000 0.6290 0.6270 0.6270 0.6270 0.6270
15.171289 0.6270 0.6270 0.6270 0.6270 0.6290
15.204000 0.6300 0.6300 0.6300 0.6300 0.6300
15.237289 0.6300 0.6300 0.6300 0.6300 0.6300
15.271000 0.6300 0.6290 0.6290 0.6270 0.6270
15.304289 0.6270 0.6270 0.6270 0.6250 0.6250
15.338000 0.6250 0.6250 0.6270 0.6250 0.6240
15.371289 0.6220 0.6200 0.6200 0.6190 0.6190
15.404000 0.6190 0.6190 0.6170 0.6170 0.6150
15.437289 0.6150 0.6150 0.6140 0.6140 0.6140
15.471000 0.6140 0.6150 0.6150 0.6140 0.6140
15.504289 0.6140 0.6140 0.6140 0.6140 0.6100
15.537000 0.6090 0.6070 0.6040 0.6050 0.6040
15.570289 0.6040 0.6040 0.6040 0.6040 0.6040
15.604000 0.6040 0.6040 0.6040 0.6040 0.6020
15.637289 0.6020 0.6020 0.6020 0.6020 0.6020
15.670000 0.6020 0.6020 0.6020 0.6020 0.6020
15.703289 0.6020 0.6020 0.6000 0.6020 0.6020
15.737000 0.6020 0.6020 0.6020 0.6020 0.6020
15.770289 0.6020 0.6020 0.6020 0.6020 0.6020
15.803000 0.6020 0.6020 0.6040 0.6020 0.6020
15.836289 0.6020 0.6000 0.6000 0.6000 0.5980
15.870000 0.5980 0.5980 0.5980 0.5980 0.5980
15.903289 0.5980 0.5980 0.5970 0.5970 0.5950
15.936000 0.5950 0.5950 0.5950 0.5950 0.5970
15.969289 0.5950 0.5950 0.5950 0.5950 0.5950
16.003000 0.5950 0.5950
##END=
