##TITLE=9H-PURINE, 6-(METHYLTHIO)-9-Beta-D-RIBOFURANOSYL-, 5'-BARIUM PHOSPHATE, HYDRATED
##JCAMP-DX=4.24
##DATA TYPE=INFRARED SPECTRUM
##CLASS=COBLENTZ III
##ORIGIN=SOUTHERN RESEARCH INST.
##OWNER=COBLENTZ SOCIETY
Collection (C) 2018 copyright by the U.S. Secretary of Commerce
on behalf of the United States of America. All rights reserved.
##DATE=1961/03/13
##MOLFORM=C11 H13 N4 O7 S Ba P
##SOURCE REFERENCE=COBLENTZ NO. 9906
##$NIST ID=B6009906
##$NIST SOURCE=COBLENTZ
##$NIST IMAGE=cob9906
##SPECTROMETER/DATA SYSTEM=PERKIN-ELMER 221 (GRATING)
##INSTRUMENT PARAMETERS=FILTER CHANGES AT 2490, 980 CM^-^1, GRATING FOR 4000-1428 CM^-^1, NaCl PRISM FOR 1428-650 CM^-^1
##STATE=SOLID (1 mg / 650 mg KBr DISC)
##SAMPLING PROCEDURE=TRANSMISSION
##RESOLUTION=4
##DATA PROCESSING=DIGITIZED BY NIST FROM HARD COPY
##XUNITS=1/CM
##YUNITS=TRANSMITTANCE
##XFACTOR=1.000000
##YFACTOR=1
##DELTAX=001.603096
##FIRSTX=624.654
##LASTX=4012
##FIRSTY=0.487
##MAXX=4012
##MINX=624.654
##MAXY=0.952
##MINY=0.096
##NPOINTS=2114
##XYDATA=(X++(Y..Y))
624.654000 0.4870 0.4900 0.4920 0.4950 0.4970
632.673273 0.5050 0.5140 0.5230 0.5330 0.5420
640.685000 0.5520 0.5610 0.5710 0.5800 0.5900
648.704273 0.5970 0.6010 0.6050 0.6070 0.6120
656.716000 0.6210 0.6230 0.6260 0.6330 0.6360
664.735273 0.6380 0.6410 0.6420 0.6430 0.6450
672.747000 0.6450 0.6470 0.6480 0.6490 0.6490
680.766273 0.6500 0.6510 0.6520 0.6520 0.6520
688.778000 0.6510 0.6500 0.6470 0.6420 0.6340
696.797273 0.6220 0.6160 0.6110 0.6040 0.5980
704.809000 0.5970 0.5940 0.5920 0.5880 0.5830
712.828273 0.5770 0.5710 0.5650 0.5590 0.5520
720.840000 0.5460 0.5380 0.5320 0.5250 0.5200
728.859273 0.5120 0.5110 0.5100 0.5090 0.5070
736.871000 0.5050 0.5040 0.5020 0.5000 0.4970
744.890273 0.4940 0.4900 0.4870 0.4850 0.4830
752.902000 0.4790 0.4760 0.4730 0.4720 0.4700
760.921273 0.4690 0.4690 0.4680 0.4680 0.4670
768.933000 0.4660 0.4640 0.4640 0.4640 0.4640
776.952273 0.4640 0.4640 0.4610 0.4590 0.4520
784.964000 0.4440 0.4370 0.4200 0.4090 0.4060
792.983273 0.4050 0.4060 0.4240 0.4810 0.4860
800.995000 0.4850 0.4780 0.4700 0.4630 0.4560
809.014273 0.4490 0.4420 0.4260 0.4240 0.4260
817.026000 0.4370 0.4480 0.4590 0.4700 0.4790
825.045273 0.4970 0.5130 0.5270 0.5400 0.5510
833.057000 0.5610 0.5700 0.5780 0.5840 0.5900
841.076273 0.5970 0.6020 0.6080 0.6130 0.6190
849.088000 0.6240 0.6280 0.6290 0.6300 0.6290
857.107273 0.6250 0.6190 0.6110 0.6030 0.5950
865.119000 0.5880 0.5830 0.5730 0.5710 0.5720
873.138273 0.5730 0.5770 0.5770 0.5830 0.5880
881.150000 0.5940 0.5980 0.6040 0.6120 0.6130
889.169273 0.6130 0.6120 0.6120 0.6110 0.6100
897.181000 0.6080 0.6070 0.6060 0.6050 0.6050
905.200273 0.6060 0.6070 0.6080 0.6120 0.6150
913.212000 0.6170 0.6210 0.6230 0.6240 0.6240
921.231273 0.6230 0.6220 0.6220 0.6190 0.6160
929.243000 0.6060 0.5700 0.5200 0.4890 0.4560
937.262273 0.4510 0.4440 0.4170 0.4060 0.3940
945.274000 0.3760 0.3560 0.3360 0.3130 0.3110
953.293273 0.3100 0.3110 0.3130 0.3160 0.3170
961.305000 0.3240 0.3240 0.3230 0.2980 0.2710
969.324273 0.2600 0.2470 0.2340 0.2210 0.2090
977.336000 0.1950 0.1770 0.1560 0.1540 0.1540
985.355273 0.1540 0.1550 0.1660 0.1770 0.1880
993.367000 0.2000 0.2110 0.2220 0.2390 0.2590
1001.386273 0.2780 0.3220 0.4310 0.4750 0.5120
1009.397000 0.5230 0.5230 0.5240 0.5230 0.5210
1017.416273 0.5180 0.5120 0.4910 0.4710 0.4500
1025.428000 0.4300 0.4090 0.3990 0.3890 0.3690
1033.447273 0.3490 0.3290 0.3100 0.2920 0.2740
1041.459000 0.2570 0.2400 0.2240 0.2090 0.1950
1049.478273 0.1810 0.1690 0.1580 0.1480 0.1400
1057.490000 0.1320 0.1260 0.1210 0.1180 0.1020
1065.509273 0.1000 0.1000 0.0990 0.0990 0.0990
1073.521000 0.0990 0.0990 0.0980 0.0980 0.0980
1081.540273 0.0980 0.0970 0.0970 0.0970 0.0970
1089.552000 0.0970 0.0970 0.0970 0.0970 0.0970
1097.571273 0.0970 0.0970 0.0970 0.0960 0.0960
1105.583000 0.0960 0.0960 0.0960 0.0960 0.0960
1113.602273 0.0960 0.1000 0.1020 0.1030 0.1040
1121.614000 0.1050 0.1070 0.1080 0.1090 0.1090
1129.633273 0.1100 0.1100 0.1100 0.1110 0.1120
1137.645000 0.1130 0.1180 0.1250 0.1310 0.1380
1145.664273 0.1450 0.1530 0.1620 0.1700 0.1790
1153.676000 0.1890 0.1990 0.2110 0.2230 0.2360
1161.695273 0.2500 0.2650 0.2820 0.2980 0.3170
1169.707000 0.3370 0.3580 0.4040 0.4130 0.4270
1177.726273 0.4280 0.4480 0.4680 0.4890 0.5170
1185.738000 0.5180 0.5230 0.5250 0.5240 0.5210
1193.757273 0.5180 0.5130 0.4590 0.4220 0.4090
1201.769000 0.3970 0.3700 0.3430 0.3350 0.3150
1209.788273 0.3140 0.3130 0.3130 0.3150 0.3260
1217.800000 0.3370 0.3480 0.3590 0.3690 0.3800
1225.819273 0.4020 0.4130 0.4240 0.4350 0.4460
1233.831000 0.4550 0.4700 0.4940 0.5140 0.5320
1241.850273 0.5470 0.5610 0.5760 0.5910 0.6080
1249.862000 0.6270 0.6300 0.6310 0.6340 0.6380
1257.881273 0.6420 0.6460 0.6500 0.6550 0.6590
1265.893000 0.6640 0.6670 0.6720 0.6770 0.6810
1273.912273 0.6850 0.6900 0.6930 0.6970 0.6980
1281.924000 0.7000 0.7000 0.7000 0.7010 0.7010
1289.943273 0.7010 0.7010 0.7010 0.7010 0.7020
1297.955000 0.7020 0.7010 0.7000 0.6980 0.6960
1305.974273 0.6940 0.6930 0.6860 0.6790 0.6680
1313.986000 0.6530 0.6340 0.6120 0.5890 0.5640
1322.005273 0.5380 0.5120 0.4870 0.4640 0.4420
1330.017000 0.4220 0.4050 0.3920 0.3790 0.3770
1338.036273 0.3790 0.4280 0.4460 0.4680 0.4920
1346.048000 0.5170 0.5430 0.5680 0.5920 0.6130
1354.067273 0.6300 0.6430 0.6500 0.6630 0.6650
1362.078000 0.6670 0.6670 0.6680 0.6680 0.6670
1370.097273 0.6670 0.6650 0.6640 0.6600 0.6530
1378.109000 0.6480 0.6420 0.6360 0.6160 0.6010
1386.128273 0.5860 0.5840 0.5670 0.5480 0.5290
1394.140000 0.5270 0.5270 0.5290 0.5350 0.5400
1402.159273 0.5580 0.5580 0.5570 0.5550 0.5530
1410.171000 0.5530 0.5530 0.5570 0.5610 0.5650
1418.190273 0.6070 0.6070 0.4880 0.4860 0.4830
1426.202000 0.4810 0.4750 0.4650 0.4550 0.4450
1434.221273 0.4420 0.4450 0.4540 0.4710 0.4820
1442.233000 0.4900 0.4980 0.5090 0.5270 0.5520
1450.252273 0.5940 0.6200 0.6280 0.6280 0.6390
1458.264000 0.6500 0.6610 0.6720 0.6840 0.6930
1466.283273 0.6930 0.6930 0.6930 0.6930 0.6870
1474.295000 0.6800 0.6720 0.6640 0.6550 0.6490
1482.314273 0.6450 0.6440 0.6350 0.6340 0.6350
1490.326000 0.6380 0.6530 0.6660 0.6800 0.7080
1498.345273 0.7230 0.7380 0.7560 0.7750 0.7960
1506.357000 0.7990 0.8010 0.8040 0.8050 0.8110
1514.376273 0.8110 0.8120 0.8130 0.8140 0.8150
1522.388000 0.8150 0.8140 0.8110 0.8080 0.8010
1530.407273 0.7970 0.7810 0.7650 0.7490 0.7310
1538.419000 0.7270 0.7130 0.6980 0.6700 0.6450
1546.438273 0.6160 0.6070 0.5980 0.5610 0.5310
1554.450000 0.5020 0.4460 0.3880 0.3370 0.2840
1562.469273 0.2280 0.1730 0.1640 0.1330 0.1260
1570.481000 0.1160 0.1150 0.1160 0.1170 0.1240
1578.500273 0.1310 0.1380 0.1430 0.1630 0.2380
1586.512000 0.2620 0.2780 0.3090 0.3400 0.4060
1594.531273 0.4410 0.4780 0.5160 0.5550 0.5960
1602.543000 0.6520 0.6600 0.6610 0.6720 0.6830
1610.562273 0.7010 0.7040 0.7080 0.7140 0.7190
1618.574000 0.7220 0.7230 0.7240 0.7270 0.7300
1626.593273 0.7340 0.7370 0.7390 0.7410 0.7440
1634.605000 0.7460 0.7490 0.7500 0.7520 0.7550
1642.624273 0.7560 0.7590 0.7610 0.7630 0.7660
1650.636000 0.7690 0.7710 0.7740 0.7780 0.7810
1658.655273 0.7850 0.7890 0.7930 0.7970 0.8030
1666.667000 0.8180 0.8210 0.8220 0.8260 0.8270
1674.686273 0.8280 0.8300 0.8310 0.8330 0.8330
1682.698000 0.8350 0.8370 0.8390 0.8410 0.8420
1690.717273 0.8440 0.8460 0.8480 0.8500 0.8520
1698.729000 0.8550 0.8570 0.8600 0.8630 0.8650
1706.748273 0.8680 0.8710 0.8740 0.8780 0.8810
1714.760000 0.8840 0.8850 0.8860 0.8860 0.8880
1722.779273 0.8910 0.8920 0.8940 0.8950 0.8960
1730.791000 0.8960 0.8960 0.8970 0.8970 0.8980
1738.810273 0.9000 0.9000 0.9020 0.9040 0.9040
1746.821000 0.9050 0.9050 0.9070 0.9070 0.9070
1754.840273 0.9070 0.9080 0.9110 0.9110 0.9130
1762.852000 0.9140 0.9150 0.9160 0.9170 0.9180
1770.871273 0.9180 0.9180 0.9180 0.9190 0.9200
1778.883000 0.9210 0.9220 0.9220 0.9240 0.9250
1786.902273 0.9260 0.9260 0.9260 0.9260 0.9270
1794.914000 0.9270 0.9280 0.9280 0.9290 0.9290
1802.933273 0.9290 0.9290 0.9290 0.9300 0.9300
1810.945000 0.9310 0.9310 0.9320 0.9320 0.9320
1818.964273 0.9330 0.9330 0.9330 0.9340 0.9340
1826.976000 0.9350 0.9350 0.9360 0.9360 0.9370
1834.995273 0.9370 0.9370 0.9370 0.9380 0.9380
1843.007000 0.9380 0.9380 0.9380 0.9380 0.9380
1851.026273 0.9380 0.9380 0.9380 0.9370 0.9370
1859.038000 0.9370 0.9370 0.9370 0.9370 0.9370
1867.057273 0.9370 0.9370 0.9360 0.9360 0.9350
1875.069000 0.9350 0.9340 0.9340 0.9330 0.9330
1883.088273 0.9330 0.9330 0.9330 0.9330 0.9330
1891.100000 0.9330 0.9330 0.9330 0.9340 0.9340
1899.119273 0.9340 0.9340 0.9340 0.9340 0.9340
1907.131000 0.9350 0.9350 0.9350 0.9350 0.9350
1915.150273 0.9350 0.9350 0.9350 0.9350 0.9350
1923.162000 0.9350 0.9360 0.9360 0.9360 0.9360
1931.181273 0.9360 0.9360 0.9360 0.9360 0.9360
1939.193000 0.9360 0.9360 0.9360 0.9360 0.9360
1947.212273 0.9350 0.9350 0.9350 0.9350 0.9350
1955.224000 0.9350 0.9340 0.9340 0.9340 0.9340
1963.243273 0.9330 0.9330 0.9330 0.9330 0.9330
1971.255000 0.9330 0.9330 0.9330 0.9320 0.9320
1979.274273 0.9310 0.9310 0.9300 0.9300 0.9290
1987.286000 0.9290 0.9290 0.9290 0.9290 0.9270
1995.305273 0.9270 0.9270 0.9270 0.9260 0.9260
2003.317000 0.9260 0.9260 0.9240 0.9230 0.9220
2011.336273 0.9190 0.9180 0.9170 0.9160 0.9150
2019.348000 0.9150 0.9150 0.9150 0.9140 0.9130
2027.367273 0.9120 0.9120 0.9120 0.9120 0.9110
2035.379000 0.9110 0.9110 0.9110 0.9110 0.9110
2043.398273 0.9110 0.9110 0.9110 0.9110 0.9100
2051.410000 0.9100 0.9070 0.9060 0.9050 0.9040
2059.429273 0.9020 0.9010 0.9010 0.9010 0.9000
2067.441000 0.9000 0.9000 0.9000 0.9000 0.8990
2075.460273 0.8990 0.8980 0.8980 0.8970 0.8970
2083.471000 0.8970 0.8960 0.8960 0.8960 0.8960
2091.490273 0.8950 0.8950 0.8950 0.8940 0.8940
2099.502000 0.8940 0.8930 0.8930 0.8930 0.8930
2107.521273 0.8920 0.8920 0.8920 0.8920 0.8920
2115.533000 0.8920 0.8910 0.8910 0.8910 0.8900
2123.552273 0.8900 0.8900 0.8890 0.8890 0.8890
2131.564000 0.8890 0.8890 0.8890 0.8880 0.8880
2139.583273 0.8880 0.8880 0.8880 0.8880 0.8880
2147.595000 0.8870 0.8870 0.8870 0.8870 0.8860
2155.614273 0.8860 0.8860 0.8860 0.8860 0.8850
2163.626000 0.8850 0.8850 0.8850 0.8850 0.8850
2171.645273 0.8850 0.8850 0.8840 0.8840 0.8840
2179.657000 0.8830 0.8830 0.8830 0.8820 0.8820
2187.676273 0.8810 0.8810 0.8810 0.8800 0.8790
2195.688000 0.8790 0.8790 0.8790 0.8790 0.8790
2203.707273 0.8780 0.8780 0.8780 0.8780 0.8780
2211.719000 0.8780 0.8780 0.8780 0.8780 0.8780
2219.738273 0.8780 0.8780 0.8770 0.8770 0.8770
2227.750000 0.8770 0.8770 0.8770 0.8760 0.8760
2235.769273 0.8760 0.8760 0.8760 0.8760 0.8750
2243.781000 0.8750 0.8740 0.8740 0.8730 0.8720
2251.800273 0.8700 0.8670 0.8670 0.8670 0.8670
2259.812000 0.8660 0.8660 0.8650 0.8650 0.8650
2267.831273 0.8640 0.8640 0.8640 0.8630 0.8630
2275.843000 0.8630 0.8630 0.8630 0.8630 0.8620
2283.862273 0.8620 0.8620 0.8620 0.8620 0.8620
2291.874000 0.8620 0.8620 0.8620 0.8620 0.8620
2299.893273 0.8620 0.8630 0.8630 0.8620 0.8620
2307.905000 0.8610 0.8610 0.8600 0.8590 0.8570
2315.924273 0.8560 0.8540 0.8520 0.8520 0.8520
2323.936000 0.8510 0.8500 0.8490 0.8490 0.8480
2331.955273 0.8470 0.8450 0.8430 0.8410 0.8390
2339.967000 0.8370 0.8360 0.8350 0.8340 0.8340
2347.986273 0.8330 0.8330 0.8330 0.8320 0.8320
2355.998000 0.8320 0.8310 0.8300 0.8290 0.8280
2364.017273 0.8270 0.8260 0.8260 0.8250 0.8250
2372.029000 0.8240 0.8240 0.8230 0.8220 0.8220
2380.048273 0.8210 0.8200 0.8190 0.8190 0.8180
2388.060000 0.8180 0.8170 0.8160 0.8150 0.8140
2396.079273 0.8120 0.8110 0.8090 0.8080 0.8080
2404.091000 0.8070 0.8050 0.8050 0.8040 0.8040
2412.110273 0.8040 0.8030 0.8030 0.8020 0.8010
2420.122000 0.8010 0.8000 0.8000 0.8000 0.8000
2428.141273 0.8000 0.8000 0.7990 0.7990 0.7980
2436.153000 0.7980 0.7970 0.7970 0.7970 0.7970
2444.172273 0.7970 0.7970 0.7960 0.7970 0.7960
2452.184000 0.7950 0.7930 0.7930 0.7900 0.7890
2460.203273 0.7870 0.7860 0.7850 0.7850 0.7850
2468.215000 0.7850 0.7850 0.7860 0.7860 0.7860
2476.234273 0.7870 0.7870 0.7870 0.7860 0.7850
2484.245000 0.7850 0.7790 0.7730 0.7630 0.7620
2492.264273 0.7560 0.7520 0.7500 0.7490 0.7480
2500.276000 0.7470 0.7460 0.7450 0.7450 0.7430
2508.295273 0.7410 0.7410 0.7390 0.7380 0.7370
2516.307000 0.7360 0.7350 0.7340 0.7340 0.7330
2524.326273 0.7320 0.7310 0.7300 0.7290 0.7280
2532.338000 0.7270 0.7260 0.7250 0.7240 0.7230
2540.357273 0.7230 0.7230 0.7220 0.7220 0.7210
2548.369000 0.7200 0.7200 0.7190 0.7190 0.7180
2556.388273 0.7170 0.7160 0.7160 0.7150 0.7150
2564.400000 0.7140 0.7130 0.7120 0.7120 0.7120
2572.419273 0.7110 0.7110 0.7100 0.7100 0.7090
2580.431000 0.7080 0.7080 0.7080 0.7080 0.7080
2588.450273 0.7080 0.7070 0.7060 0.7050 0.7040
2596.462000 0.7010 0.7010 0.7010 0.7000 0.7000
2604.481273 0.6990 0.6980 0.6970 0.6970 0.6960
2612.493000 0.6950 0.6940 0.6930 0.6910 0.6900
2620.512273 0.6880 0.6870 0.6860 0.6860 0.6840
2628.524000 0.6800 0.6760 0.6720 0.6700 0.6670
2636.543273 0.6650 0.6640 0.6630 0.6620 0.6610
2644.555000 0.6600 0.6600 0.6600 0.6600 0.6590
2652.574273 0.6580 0.6570 0.6560 0.6550 0.6530
2660.586000 0.6510 0.6500 0.6490 0.6490 0.6470
2668.605273 0.6460 0.6450 0.6440 0.6430 0.6420
2676.617000 0.6400 0.6390 0.6380 0.6370 0.6360
2684.636273 0.6350 0.6340 0.6340 0.6330 0.6330
2692.648000 0.6320 0.6310 0.6300 0.6300 0.6290
2700.667273 0.6290 0.6280 0.6270 0.6270 0.6270
2708.679000 0.6270 0.6270 0.6270 0.6270 0.6270
2716.698273 0.6260 0.6260 0.6260 0.6260 0.6260
2724.710000 0.6260 0.6260 0.6260 0.6260 0.6260
2732.729273 0.6250 0.6250 0.6250 0.6250 0.6240
2740.741000 0.6240 0.6240 0.6240 0.6230 0.6230
2748.760273 0.6220 0.6220 0.6210 0.6210 0.6200
2756.772000 0.6190 0.6190 0.6190 0.6180 0.6180
2764.791273 0.6180 0.6170 0.6170 0.6170 0.6160
2772.803000 0.6160 0.6160 0.6160 0.6160 0.6140
2780.822273 0.6130 0.6120 0.6120 0.6110 0.6100
2788.834000 0.6090 0.6080 0.6080 0.6050 0.6050
2796.853273 0.6050 0.6040 0.6030 0.6010 0.6000
2804.865000 0.5980 0.5970 0.5950 0.5930 0.5910
2812.884273 0.5890 0.5860 0.5830 0.5810 0.5780
2820.896000 0.5760 0.5750 0.5740 0.5720 0.5710
2828.915273 0.5710 0.5680 0.5660 0.5640 0.5620
2836.927000 0.5600 0.5580 0.5560 0.5540 0.5530
2844.946273 0.5510 0.5490 0.5480 0.5460 0.5460
2852.958000 0.5440 0.5420 0.5420 0.5400 0.5390
2860.977273 0.5380 0.5370 0.5350 0.5330 0.5310
2868.989000 0.5310 0.5280 0.5270 0.5260 0.5230
2877.008273 0.5190 0.5160 0.5140 0.5120 0.5110
2885.019000 0.5090 0.5090 0.5070 0.5060 0.5050
2893.038273 0.5050 0.5030 0.5010 0.5000 0.4980
2901.050000 0.4950 0.4920 0.4880 0.4830 0.4790
2909.069273 0.4780 0.4760 0.4730 0.4720 0.4650
2917.081000 0.4650 0.4630 0.4610 0.4600 0.4590
2925.100273 0.4590 0.4590 0.4600 0.4630 0.4680
2933.112000 0.4720 0.4760 0.4790 0.4810 0.4830
2941.131273 0.4840 0.4860 0.4870 0.4880 0.4900
2949.143000 0.4930 0.4960 0.5000 0.5040 0.5070
2957.162273 0.5090 0.5100 0.5100 0.5120 0.5120
2965.174000 0.5130 0.5140 0.5150 0.5150 0.5150
2973.193273 0.5150 0.5150 0.5150 0.5140 0.5130
2981.205000 0.5120 0.5110 0.5090 0.5080 0.5060
2989.224273 0.5050 0.5030 0.5010 0.4990 0.4970
2997.236000 0.4940 0.4920 0.4890 0.4880 0.4880
3005.255273 0.4870 0.4870 0.4870 0.4860 0.4850
3013.267000 0.4830 0.4820 0.4800 0.4790 0.4770
3021.286273 0.4760 0.4730 0.4720 0.4690 0.4680
3029.298000 0.4650 0.4640 0.4610 0.4600 0.4570
3037.317273 0.4570 0.4560 0.4550 0.4530 0.4530
3045.329000 0.4510 0.4510 0.4510 0.4500 0.4500
3053.348273 0.4490 0.4480 0.4460 0.4460 0.4440
3061.360000 0.4430 0.4420 0.4420 0.4420 0.4410
3069.379273 0.4400 0.4400 0.4390 0.4390 0.4380
3077.391000 0.4360 0.4320 0.4290 0.4250 0.4220
3085.410273 0.4190 0.4160 0.4130 0.4100 0.4080
3093.422000 0.4050 0.4050 0.4050 0.4040 0.4040
3101.441273 0.4030 0.4020 0.4020 0.4020 0.4020
3109.453000 0.4020 0.4020 0.4020 0.4020 0.4020
3117.472273 0.4020 0.4030 0.4030 0.4030 0.4030
3125.484000 0.4020 0.4020 0.4020 0.4020 0.4020
3133.503273 0.4020 0.4020 0.4020 0.4020 0.4020
3141.515000 0.4020 0.4020 0.4020 0.4020 0.4020
3149.534273 0.4020 0.4020 0.4010 0.4010 0.4010
3157.546000 0.4010 0.4010 0.4010 0.4000 0.4000
3165.565273 0.4000 0.3990 0.3990 0.3990 0.3980
3173.577000 0.3980 0.3980 0.3980 0.3980 0.3980
3181.596273 0.3970 0.3970 0.3960 0.3960 0.3960
3189.608000 0.3960 0.3950 0.3950 0.3950 0.3950
3197.627273 0.3940 0.3940 0.3940 0.3940 0.3940
3205.638000 0.3930 0.3930 0.3920 0.3920 0.3910
3213.657273 0.3910 0.3910 0.3910 0.3900 0.3900
3221.669000 0.3890 0.3880 0.3870 0.3860 0.3850
3229.688273 0.3850 0.3840 0.3830 0.3830 0.3830
3237.700000 0.3820 0.3810 0.3810 0.3800 0.3800
3245.719273 0.3800 0.3790 0.3790 0.3780 0.3780
3253.731000 0.3780 0.3770 0.3770 0.3770 0.3770
3261.750273 0.3770 0.3770 0.3770 0.3770 0.3770
3269.762000 0.3780 0.3780 0.3790 0.3790 0.3800
3277.781273 0.3800 0.3800 0.3800 0.3800 0.3800
3285.793000 0.3800 0.3800 0.3800 0.3800 0.3770
3293.812273 0.3760 0.3750 0.3750 0.3740 0.3730
3301.824000 0.3720 0.3720 0.3710 0.3710 0.3700
3309.843273 0.3700 0.3690 0.3690 0.3690 0.3690
3317.855000 0.3690 0.3680 0.3680 0.3670 0.3670
3325.874273 0.3660 0.3660 0.3650 0.3620 0.3610
3333.886000 0.3590 0.3580 0.3570 0.3570 0.3550
3341.905273 0.3530 0.3500 0.3480 0.3460 0.3450
3349.917000 0.3440 0.3430 0.3430 0.3420 0.3410
3357.936273 0.3400 0.3390 0.3380 0.3330 0.3300
3365.948000 0.3290 0.3290 0.3280 0.3280 0.3270
3373.967273 0.3270 0.3260 0.3250 0.3250 0.3250
3381.979000 0.3240 0.3240 0.3240 0.3240 0.3240
3389.998273 0.3250 0.3250 0.3250 0.3250 0.3260
3398.010000 0.3260 0.3260 0.3260 0.3270 0.3270
3406.029273 0.3270 0.3270 0.3280 0.3280 0.3280
3414.041000 0.3280 0.3280 0.3290 0.3290 0.3300
3422.060273 0.3310 0.3310 0.3320 0.3320 0.3320
3430.072000 0.3330 0.3340 0.3340 0.3350 0.3350
3438.091273 0.3360 0.3360 0.3370 0.3390 0.3390
3446.103000 0.3400 0.3410 0.3420 0.3430 0.3440
3454.122273 0.3450 0.3460 0.3460 0.3480 0.3520
3462.134000 0.3540 0.3570 0.3570 0.3610 0.3640
3470.153273 0.3650 0.3670 0.3690 0.3700 0.3710
3478.165000 0.3720 0.3740 0.3750 0.3770 0.3810
3486.184273 0.3840 0.3870 0.3910 0.3940 0.4000
3494.196000 0.4030 0.4060 0.4090 0.4130 0.4160
3502.215273 0.4200 0.4230 0.4260 0.4290 0.4330
3510.227000 0.4360 0.4400 0.4430 0.4460 0.4500
3518.246273 0.4530 0.4570 0.4610 0.4640 0.4680
3526.258000 0.4720 0.4760 0.4790 0.4830 0.4870
3534.277273 0.4900 0.4940 0.4980 0.5010 0.5050
3542.289000 0.5090 0.5130 0.5170 0.5210 0.5250
3550.308273 0.5280 0.5320 0.5350 0.5390 0.5430
3558.320000 0.5470 0.5510 0.5550 0.5600 0.5640
3566.339273 0.5690 0.5740 0.5790 0.5830 0.5890
3574.351000 0.5940 0.6000 0.6050 0.6110 0.6160
3582.370273 0.6220 0.6280 0.6340 0.6400 0.6460
3590.381000 0.6520 0.6580 0.6640 0.6710 0.6770
3598.400273 0.6830 0.6900 0.7020 0.7080 0.7150
3606.412000 0.7220 0.7280 0.7340 0.7410 0.7470
3614.431273 0.7530 0.7600 0.7660 0.7720 0.7780
3622.443000 0.7850 0.7900 0.7970 0.8030 0.8080
3630.462273 0.8140 0.8200 0.8260 0.8310 0.8370
3638.474000 0.8410 0.8420 0.8440 0.8500 0.8550
3646.493273 0.8600 0.8640 0.8690 0.8740 0.8780
3654.505000 0.8830 0.8880 0.8930 0.8990 0.9030
3662.524273 0.9040 0.9040 0.9130 0.9170 0.9170
3670.536000 0.9180 0.9190 0.9220 0.9230 0.9240
3678.555273 0.9250 0.9260 0.9270 0.9290 0.9310
3686.567000 0.9330 0.9350 0.9370 0.9390 0.9400
3694.586273 0.9420 0.9440 0.9440 0.9450 0.9460
3702.598000 0.9470 0.9470 0.9480 0.9480 0.9480
3710.617273 0.9480 0.9480 0.9490 0.9490 0.9490
3718.629000 0.9490 0.9500 0.9500 0.9500 0.9500
3726.648273 0.9510 0.9510 0.9510 0.9510 0.9520
3734.660000 0.9520 0.9520 0.9520 0.9520 0.9520
3742.679273 0.9520 0.9520 0.9520 0.9520 0.9520
3750.691000 0.9520 0.9520 0.9520 0.9520 0.9520
3758.710273 0.9520 0.9520 0.9520 0.9520 0.9520
3766.722000 0.9520 0.9520 0.9520 0.9510 0.9510
3774.741273 0.9510 0.9510 0.9510 0.9510 0.9500
3782.753000 0.9500 0.9490 0.9490 0.9480 0.9480
3790.772273 0.9480 0.9480 0.9480 0.9470 0.9470
3798.784000 0.9460 0.9450 0.9450 0.9440 0.9440
3806.803273 0.9440 0.9440 0.9420 0.9420 0.9420
3814.815000 0.9420 0.9420 0.9410 0.9410 0.9410
3822.834273 0.9410 0.9400 0.9400 0.9400 0.9400
3830.846000 0.9400 0.9400 0.9400 0.9400 0.9400
3838.865273 0.9400 0.9400 0.9400 0.9390 0.9390
3846.877000 0.9390 0.9390 0.9390 0.9380 0.9380
3854.896273 0.9380 0.9380 0.9380 0.9370 0.9370
3862.908000 0.9370 0.9370 0.9370 0.9370 0.9360
3870.927273 0.9360 0.9360 0.9350 0.9340 0.9340
3878.939000 0.9330 0.9330 0.9320 0.9320 0.9310
3886.958273 0.9310 0.9300 0.9300 0.9290 0.9290
3894.970000 0.9290 0.9280 0.9280 0.9270 0.9270
3902.989273 0.9260 0.9260 0.9260 0.9260 0.9260
3911.000000 0.9260 0.9260 0.9260 0.9260 0.9260
3919.019273 0.9250 0.9250 0.9250 0.9250 0.9250
3927.031000 0.9250 0.9230 0.9230 0.9220 0.9220
3935.050273 0.9220 0.9220 0.9210 0.9210 0.9200
3943.063000 0.9200 0.9190 0.9190 0.9190 0.9180
3951.082273 0.9180 0.9180 0.9180 0.9180 0.9180
3959.094000 0.9170 0.9170 0.9160 0.9160 0.9160
3967.113273 0.9160 0.9160 0.9160 0.9160 0.9160
3975.125000 0.9160 0.9160 0.9160 0.9160 0.9160
3983.144273 0.9160 0.9160 0.9160 0.9160 0.9160
3991.155000 0.9160 0.9160 0.9170 0.9170 0.9170
3999.174273 0.9170 0.9170 0.9180 0.9180 0.9180
4007.186000 0.9180 0.9180 0.9180 0.9180
##END=
