##TITLE=4,7,13,16-TETRAOXA-1,10-DITHIACYCLOOCTADECANE-1,10-BIS-P-TOLYL-SULFONYLIMIDO- (Beta-FORM)
##JCAMP-DX=4.24
##DATA TYPE=INFRARED SPECTRUM
##CLASS=COBLENTZ
##ORIGIN=EASTMAN KODAK COMPANY, RESEARCH LABORATORIES, ROCHESTER, N.Y.
##OWNER=COBLENTZ SOCIETY
Collection (C) 2018 copyright by the U.S. Secretary of Commerce
on behalf of the United States of America. All rights reserved.
##DATE=Not specified, most likely prior to 1970
##NAMES=4-methyl-N-(16-([(4-methylphenyl)sulfonyl]imino)-1,4,10,13-tetraoxa-7.lambda.<4>,16.lambda.<4>-dithiacyclooctadecan-7-ylidene)benzenesulfonamide
##MOLFORM=C26 H38 N2 O8 S4
$$ J. ORG. CHEM. 26, 1991(1961), COMPOUND XIVbeta
##MP=143-144 C
##SOURCE REFERENCE=COBLENTZ NO. 2154
##$NIST ID=B6002154
##$NIST SOURCE=COBLENTZ
##$NIST IMAGE=cob2154
##SPECTROMETER/DATA SYSTEM=Not specified, most likely a prism, grating, or hybrid spectrometer.
##STATE=SOLID (KBr PRESSING)
##SAMPLING PROCEDURE=TRANSMISSION
##RESOLUTION=4
##DATA PROCESSING=DIGITIZED BY NIST FROM HARD COPY
##XUNITS=MICROMETERS
##YUNITS=TRANSMITTANCE
##XFACTOR=1.000000
##YFACTOR=1
##DELTAX=000.007035
##FIRSTX=2.029
##LASTX=15.965
##FIRSTY=0.777
##MAXX=15.965
##MINX=2.029
##MAXY=0.875
##MINY=0.075
##NPOINTS=1982
##XYDATA=(X++(Y..Y))
2.029000 0.7770 0.7770 0.7810 0.7810 0.7830
2.064191 0.7830 0.7810 0.7810 0.7830 0.7950
2.100000 0.7980 0.8000 0.8000 0.8000 0.8000
2.135191 0.8020 0.8020 0.8020 0.8020 0.8000
2.170000 0.7930 0.7910 0.7900 0.7900 0.7900
2.205191 0.7900 0.7900 0.7900 0.7900 0.7880
2.240000 0.7860 0.7860 0.7830 0.7830 0.7840
2.275191 0.7860 0.7900 0.7930 0.7950 0.7970
2.311000 0.7970 0.8000 0.8000 0.8020 0.8020
2.346191 0.8020 0.8000 0.8000 0.8020 0.8020
2.381000 0.8020 0.8020 0.8020 0.8000 0.8000
2.416191 0.7980 0.7980 0.7970 0.7970 0.7950
2.451000 0.7950 0.7950 0.7970 0.7970 0.7980
2.486191 0.7980 0.8000 0.8020 0.8040 0.8050
2.522000 0.8070 0.8090 0.8180 0.8180 0.8180
2.557191 0.8180 0.8050 0.8040 0.8000 0.8000
2.592000 0.8000 0.8000 0.8040 0.8070 0.8070
2.627191 0.8140 0.8140 0.8140 0.8140 0.8070
2.662000 0.8070 0.8070 0.8070 0.8040 0.8040
2.697191 0.8020 0.7980 0.7860 0.7720 0.7620
2.733000 0.7560 0.7500 0.7370 0.7220 0.7130
2.768191 0.6990 0.6850 0.6640 0.6480 0.6080
2.803000 0.6010 0.5990 0.5970 0.5800 0.5690
2.838191 0.5660 0.5620 0.5570 0.5550 0.5520
2.873000 0.5400 0.5380 0.5380 0.5340 0.5340
2.908191 0.5340 0.5340 0.5360 0.5360 0.5380
2.944000 0.5480 0.5590 0.5610 0.5680 0.5850
2.979191 0.5960 0.6080 0.6170 0.6310 0.6410
3.014000 0.6500 0.6530 0.6530 0.6500 0.6480
3.049191 0.6500 0.6530 0.6690 0.6810 0.6870
3.084000 0.6970 0.7020 0.7080 0.7090 0.7090
3.119191 0.7090 0.7020 0.6970 0.6920 0.6880
3.155000 0.6880 0.6970 0.7090 0.7220 0.7370
3.190191 0.7700 0.7830 0.7830 0.7740 0.7600
3.225000 0.7600 0.7620 0.7620 0.7620 0.7620
3.260191 0.7620 0.7560 0.7440 0.7360 0.7360
3.295000 0.7410 0.7510 0.7550 0.7550 0.7430
3.330191 0.7340 0.7060 0.6690 0.6600 0.6570
3.366000 0.6550 0.6520 0.6520 0.6480 0.6310
3.401191 0.6060 0.5800 0.5310 0.5290 0.5290
3.436000 0.5310 0.5330 0.5400 0.5400 0.5330
3.471191 0.5290 0.5170 0.5150 0.5190 0.5680
3.506000 0.6380 0.6620 0.6780 0.7010 0.7150
3.541191 0.7220 0.7270 0.7390 0.7480 0.7500
3.577000 0.7510 0.7530 0.7620 0.7700 0.7760
3.612191 0.7810 0.7900 0.7950 0.7980 0.7980
3.647000 0.7970 0.7930 0.7860 0.7860 0.7860
3.682191 0.8180 0.8320 0.8320 0.8280 0.8210
3.718000 0.8180 0.8160 0.8160 0.8190 0.8300
3.753191 0.8320 0.8400 0.8420 0.8420 0.8420
3.788000 0.8440 0.8440 0.8440 0.8440 0.8440
3.823191 0.8440 0.8420 0.8420 0.8420 0.8420
3.858000 0.8420 0.8420 0.8490 0.8510 0.8530
3.893191 0.8510 0.8490 0.8420 0.8420 0.8420
3.929000 0.8470 0.8490 0.8510 0.8530 0.8540
3.964191 0.8540 0.8540 0.8540 0.8540 0.8540
3.999000 0.8560 0.8560 0.8560 0.8560 0.8600
4.034191 0.8630 0.8650 0.8610 0.8530 0.8510
4.069000 0.8510 0.8510 0.8510 0.8510 0.8510
4.104191 0.8560 0.8560 0.8530 0.8530 0.8530
4.140000 0.8530 0.8530 0.8530 0.8530 0.8530
4.175191 0.8530 0.8540 0.8540 0.8540 0.8560
4.210000 0.8560 0.8580 0.8580 0.8580 0.8580
4.245191 0.8580 0.8580 0.8580 0.8560 0.8540
4.280000 0.8510 0.8510 0.8510 0.8510 0.8510
4.315191 0.8530 0.8540 0.8560 0.8580 0.8580
4.351000 0.8600 0.8600 0.8600 0.8610 0.8610
4.386191 0.8650 0.8650 0.8610 0.8610 0.8630
4.421000 0.8650 0.8630 0.8610 0.8600 0.8600
4.456191 0.8600 0.8600 0.8580 0.8560 0.8540
4.491000 0.8530 0.8530 0.8530 0.8530 0.8530
4.526191 0.8530 0.8540 0.8610 0.8630 0.8630
4.562000 0.8630 0.8650 0.8650 0.8650 0.8650
4.597191 0.8650 0.8670 0.8670 0.8670 0.8650
4.632000 0.8650 0.8650 0.8630 0.8630 0.8630
4.667191 0.8630 0.8630 0.8630 0.8650 0.8670
4.702000 0.8670 0.8670 0.8670 0.8680 0.8700
4.737191 0.8740 0.8750 0.8740 0.8700 0.8670
4.773000 0.8650 0.8630 0.8610 0.8610 0.8610
4.808191 0.8610 0.8600 0.8600 0.8600 0.8600
4.843000 0.8580 0.8580 0.8580 0.8580 0.8580
4.878191 0.8580 0.8580 0.8580 0.8580 0.8580
4.913000 0.8580 0.8580 0.8560 0.8560 0.8540
4.948191 0.8540 0.8560 0.8630 0.8630 0.8600
4.984000 0.8580 0.8560 0.8530 0.8510 0.8490
5.019191 0.8530 0.8600 0.8600 0.8580 0.8540
5.054000 0.8540 0.8540 0.8530 0.8530 0.8510
5.089191 0.8510 0.8470 0.8420 0.8400 0.8400
5.124000 0.8400 0.8420 0.8440 0.8460 0.8440
5.159191 0.8370 0.8330 0.8330 0.8320 0.8300
5.195000 0.8300 0.8320 0.8320 0.8330 0.8330
5.230191 0.8330 0.8350 0.8400 0.8470 0.8510
5.265000 0.8540 0.8560 0.8560 0.8540 0.8540
5.300191 0.8530 0.8530 0.8540 0.8540 0.8610
5.335000 0.8650 0.8670 0.8670 0.8650 0.8650
5.370191 0.8650 0.8650 0.8650 0.8650 0.8650
5.406000 0.8670 0.8720 0.8740 0.8720 0.8630
5.441191 0.8530 0.8510 0.8530 0.8530 0.8540
5.476000 0.8580 0.8560 0.8530 0.8440 0.8420
5.511191 0.8400 0.8400 0.8420 0.8440 0.8460
5.547000 0.8460 0.8440 0.8440 0.8440 0.8440
5.582191 0.8440 0.8440 0.8460 0.8470 0.8470
5.617000 0.8490 0.8490 0.8510 0.8510 0.8510
5.652191 0.8510 0.8510 0.8460 0.8460 0.8440
5.687000 0.8440 0.8400 0.8350 0.8350 0.8350
5.722191 0.8320 0.8300 0.8160 0.8160 0.8160
5.758000 0.8140 0.8120 0.8120 0.8050 0.7980
5.793191 0.7900 0.7900 0.7900 0.7900 0.7900
5.828000 0.7900 0.7910 0.7910 0.7930 0.7970
5.863191 0.7980 0.7980 0.8000 0.8000 0.8020
5.898000 0.8000 0.8040 0.8040 0.8050 0.8050
5.933191 0.8050 0.8020 0.7950 0.7930 0.7930
5.969000 0.7930 0.7910 0.7900 0.7830 0.7790
6.004191 0.7760 0.7620 0.7560 0.7560 0.7560
6.039000 0.7560 0.7600 0.7600 0.7550 0.7500
6.074191 0.7340 0.6830 0.6760 0.6760 0.6900
6.109000 0.6900 0.6810 0.6730 0.6710 0.6710
6.144191 0.6710 0.6690 0.6690 0.6730 0.6810
6.180000 0.6830 0.6830 0.6710 0.6690 0.6620
6.215191 0.6530 0.6320 0.6010 0.5680 0.5680
6.250000 0.5730 0.5890 0.6520 0.6780 0.6900
6.285191 0.6920 0.7010 0.7040 0.7220 0.7410
6.320000 0.7510 0.7510 0.7410 0.7270 0.7250
6.355191 0.7250 0.7250 0.7250 0.7250 0.7270
6.391000 0.7390 0.7410 0.7370 0.7160 0.7150
6.426191 0.7160 0.7160 0.7200 0.7270 0.7390
6.461000 0.7460 0.7500 0.7460 0.7360 0.7250
6.496191 0.7250 0.7300 0.7300 0.7320 0.7320
6.531000 0.7340 0.7340 0.7320 0.7320 0.7340
6.566191 0.7340 0.7320 0.7230 0.7230 0.7220
6.602000 0.7220 0.7220 0.7220 0.7200 0.7060
6.637191 0.6810 0.6640 0.6640 0.6600 0.6530
6.672000 0.6130 0.5830 0.5520 0.5270 0.5260
6.707191 0.5260 0.5290 0.5500 0.5520 0.5500
6.742000 0.5400 0.5380 0.5360 0.5340 0.5340
6.777191 0.5360 0.5450 0.5610 0.5680 0.5890
6.813000 0.6290 0.6320 0.6290 0.6030 0.6010
6.848191 0.5990 0.5920 0.5690 0.5540 0.5480
6.883000 0.5480 0.5500 0.5540 0.5570 0.5590
6.918191 0.5620 0.5730 0.5940 0.6270 0.6450
6.953000 0.6500 0.6500 0.6460 0.6320 0.6240
6.988191 0.6150 0.6100 0.6060 0.6060 0.6060
7.024000 0.6060 0.6080 0.6080 0.6030 0.5870
7.059191 0.5710 0.5550 0.5540 0.5520 0.5450
7.094000 0.5410 0.5290 0.5150 0.5030 0.4960
7.129191 0.4840 0.4820 0.4840 0.4890 0.4960
7.165000 0.5010 0.5100 0.5150 0.5260 0.5550
7.200191 0.5710 0.5820 0.5890 0.5900 0.5900
7.235000 0.5920 0.6100 0.6110 0.6110 0.6130
7.270191 0.6110 0.6030 0.5940 0.5710 0.5590
7.305000 0.5500 0.5260 0.5190 0.5190 0.5220
7.340191 0.5340 0.5500 0.5500 0.5500 0.5200
7.376000 0.4960 0.4470 0.4230 0.4230 0.4240
7.411191 0.4310 0.4700 0.5170 0.5610 0.5970
7.446000 0.6290 0.6290 0.6200 0.6080 0.5960
7.481191 0.5710 0.5570 0.5480 0.5430 0.5360
7.516000 0.5240 0.5220 0.5240 0.5360 0.5540
7.551191 0.5680 0.5710 0.5710 0.5710 0.5680
7.587000 0.5470 0.5380 0.5260 0.5120 0.5010
7.622191 0.4910 0.4840 0.4660 0.4490 0.4350
7.657000 0.4280 0.4210 0.4090 0.3840 0.3560
7.692191 0.3260 0.3000 0.2810 0.2650 0.2510
7.727000 0.2440 0.2430 0.2430 0.2430 0.2430
7.762191 0.2410 0.2370 0.2320 0.2200 0.2080
7.798000 0.1940 0.1900 0.1800 0.1690 0.1640
7.833191 0.1640 0.1640 0.1640 0.1640 0.1690
7.868000 0.1830 0.1950 0.2250 0.2410 0.2550
7.903191 0.2770 0.3050 0.3330 0.3540 0.3740
7.938000 0.3880 0.3980 0.4100 0.4210 0.4310
7.973191 0.4420 0.4520 0.4580 0.4650 0.4700
8.009000 0.4770 0.4820 0.4860 0.5000 0.5100
8.044191 0.5190 0.5220 0.5270 0.5310 0.5310
8.079000 0.5400 0.5410 0.5410 0.5410 0.5430
8.114191 0.5520 0.5610 0.5750 0.5920 0.6010
8.149000 0.6010 0.5990 0.5970 0.5990 0.6110
8.184191 0.6110 0.6130 0.6130 0.6100 0.6080
8.220000 0.6040 0.6030 0.6010 0.5990 0.5970
8.255191 0.5870 0.5780 0.5710 0.5660 0.5620
8.290000 0.5610 0.5550 0.5480 0.5400 0.5270
8.325191 0.5240 0.5220 0.5130 0.5120 0.5100
8.360000 0.5050 0.5010 0.4930 0.4910 0.4930
8.395191 0.4930 0.4960 0.5000 0.5000 0.5000
8.431000 0.5000 0.5000 0.4930 0.4820 0.4750
8.466191 0.4730 0.4730 0.4720 0.4720 0.4720
8.501000 0.4700 0.4560 0.4370 0.4030 0.3740
8.536191 0.3440 0.3280 0.3190 0.3180 0.3160
8.571000 0.3160 0.3160 0.3180 0.3300 0.3320
8.606191 0.3320 0.3230 0.3110 0.2930 0.2700
8.642000 0.2580 0.2430 0.2250 0.2080 0.1990
8.677191 0.1900 0.1710 0.1530 0.1360 0.1180
8.712000 0.1040 0.0990 0.0970 0.0900 0.0870
8.747191 0.0870 0.0800 0.0780 0.0760 0.0750
8.782000 0.0750 0.0760 0.0800 0.0830 0.0870
8.817191 0.0900 0.0920 0.0920 0.0920 0.0940
8.853000 0.0960 0.1010 0.1100 0.1180 0.1250
8.888191 0.1290 0.1290 0.1290 0.1290 0.1290
8.923000 0.1290 0.1290 0.1290 0.1290 0.1270
8.958191 0.1270 0.1270 0.1270 0.1290 0.1310
8.994000 0.1360 0.1390 0.1430 0.1480 0.1480
9.029191 0.1520 0.1600 0.1710 0.1800 0.1880
9.064000 0.1900 0.1940 0.1950 0.1990 0.2010
9.099191 0.2010 0.1900 0.1800 0.1640 0.1500
9.134000 0.1380 0.1290 0.1220 0.1180 0.1180
9.169191 0.1200 0.1220 0.1310 0.1390 0.1620
9.205000 0.1740 0.1850 0.1970 0.2510 0.2620
9.240191 0.2630 0.2690 0.2700 0.2720 0.2720
9.275000 0.2720 0.2690 0.2690 0.2690 0.2690
9.310191 0.2720 0.2740 0.2740 0.2740 0.2740
9.345000 0.2790 0.2830 0.2950 0.2980 0.3070
9.380191 0.3180 0.3190 0.3190 0.3190 0.3230
9.416000 0.3320 0.3470 0.3610 0.3790 0.3820
9.451191 0.3880 0.3890 0.3890 0.3890 0.3910
9.486000 0.3930 0.3950 0.3980 0.3980 0.3960
9.521191 0.3950 0.3910 0.3880 0.3880 0.3880
9.556000 0.3880 0.3880 0.3810 0.3700 0.3610
9.591191 0.3580 0.3530 0.3510 0.3540 0.3650
9.627000 0.3700 0.3720 0.3750 0.3770 0.3790
9.662191 0.3820 0.3820 0.3820 0.3810 0.3790
9.697000 0.3770 0.3700 0.3670 0.3630 0.3610
9.732191 0.3510 0.3440 0.3320 0.3210 0.3110
9.767000 0.3000 0.2980 0.3000 0.3230 0.3400
9.802191 0.3680 0.3950 0.4000 0.4020 0.4090
9.838000 0.4190 0.4280 0.4330 0.4380 0.4420
9.873191 0.4450 0.4450 0.4440 0.4400 0.4280
9.908000 0.4210 0.4160 0.4030 0.3950 0.3770
9.943191 0.3610 0.3470 0.3420 0.3330 0.3230
9.978000 0.3210 0.3070 0.2930 0.2910 0.2910
10.013191 0.2900 0.2880 0.2840 0.2840 0.2830
10.049000 0.2830 0.2830 0.2830 0.2830 0.2830
10.084191 0.2810 0.2790 0.2720 0.2670 0.2580
10.119000 0.2510 0.2460 0.2410 0.2410 0.2390
10.154191 0.2340 0.2270 0.2230 0.2220 0.2180
10.189000 0.2180 0.2180 0.2160 0.2110 0.2080
10.224191 0.2020 0.2010 0.1970 0.1950 0.1940
10.260000 0.1920 0.1880 0.1870 0.1870 0.1850
10.295191 0.1850 0.1810 0.1810 0.1800 0.1780
10.330000 0.1760 0.1760 0.1760 0.1760 0.1780
10.365191 0.1780 0.1780 0.1780 0.1780 0.1800
10.400000 0.1810 0.1830 0.1940 0.1970 0.2010
10.435191 0.2040 0.2060 0.2060 0.2090 0.2160
10.471000 0.2290 0.2340 0.2430 0.2530 0.2620
10.506191 0.2720 0.2770 0.2860 0.2950 0.3040
10.541000 0.3180 0.3260 0.3300 0.3320 0.3350
10.576191 0.3350 0.3540 0.3630 0.3630 0.3670
10.611000 0.3720 0.3750 0.3840 0.3960 0.4020
10.646191 0.4210 0.4310 0.4370 0.4380 0.4490
10.682000 0.4560 0.4590 0.4610 0.4680 0.4720
10.717191 0.4730 0.4750 0.4750 0.4790 0.4860
10.752000 0.4890 0.4890 0.4890 0.4930 0.4930
10.787191 0.4940 0.4960 0.5000 0.5030 0.5030
10.823000 0.5000 0.4910 0.4840 0.4820 0.4800
10.858191 0.4820 0.4790 0.4700 0.4680 0.4680
10.893000 0.4680 0.4700 0.4680 0.4630 0.4630
10.928191 0.4650 0.4650 0.4650 0.4630 0.4590
10.963000 0.4590 0.4610 0.4630 0.4650 0.4650
10.998191 0.4660 0.4660 0.4660 0.4660 0.4650
11.034000 0.4610 0.4590 0.4580 0.4590 0.4630
11.069191 0.4680 0.4720 0.4700 0.4680 0.4650
11.104000 0.4630 0.4610 0.4610 0.4610 0.4610
11.139191 0.4680 0.4860 0.4980 0.4980 0.5000
11.174000 0.5000 0.5000 0.5000 0.5010 0.5050
11.209191 0.5120 0.5190 0.5220 0.5260 0.5270
11.245000 0.5290 0.5290 0.5290 0.5330 0.5340
11.280191 0.5360 0.5360 0.5360 0.5380 0.5380
11.315000 0.5450 0.5480 0.5480 0.5480 0.5480
11.350191 0.5480 0.5480 0.5500 0.5500 0.5500
11.385000 0.5520 0.5540 0.5540 0.5550 0.5590
11.420191 0.5620 0.5680 0.5690 0.5690 0.5690
11.456000 0.5710 0.5760 0.5780 0.5800 0.5800
11.491191 0.5800 0.5820 0.5820 0.5820 0.5830
11.526000 0.5830 0.5830 0.5820 0.5820 0.5820
11.561191 0.5820 0.5830 0.5830 0.5830 0.5780
11.596000 0.5760 0.5760 0.5760 0.5760 0.5800
11.631191 0.5870 0.5900 0.5900 0.5920 0.5920
11.667000 0.5920 0.5900 0.5870 0.5850 0.5830
11.702191 0.5830 0.5820 0.5800 0.5760 0.5750
11.737000 0.5750 0.5750 0.5750 0.5750 0.5750
11.772191 0.5730 0.5710 0.5710 0.5710 0.5710
11.807000 0.5690 0.5680 0.5680 0.5680 0.5690
11.842191 0.5690 0.5710 0.5710 0.5690 0.5660
11.878000 0.5620 0.5610 0.5620 0.5680 0.5690
11.913191 0.5730 0.5760 0.5780 0.5780 0.5780
11.948000 0.5760 0.5750 0.5690 0.5640 0.5590
11.983191 0.5550 0.5480 0.5410 0.5290 0.5130
12.018000 0.5080 0.5000 0.4940 0.4770 0.4660
12.053191 0.4560 0.4510 0.4440 0.4240 0.4000
12.089000 0.3820 0.3600 0.3490 0.3390 0.3280
12.124191 0.3190 0.3140 0.3140 0.3120 0.3110
12.159000 0.3090 0.3050 0.3050 0.3050 0.3090
12.194191 0.3180 0.3230 0.3250 0.3260 0.3280
12.229000 0.3260 0.3250 0.3210 0.3180 0.3180
12.264191 0.3180 0.3210 0.3320 0.3470 0.3580
12.300000 0.3670 0.3740 0.3770 0.3810 0.3810
12.335191 0.3820 0.3820 0.3820 0.3820 0.3840
12.370000 0.3860 0.3860 0.3880 0.3950 0.3960
12.405191 0.3960 0.3980 0.4000 0.4000 0.4020
12.440000 0.4020 0.4030 0.4050 0.4070 0.4070
12.475191 0.4090 0.4170 0.4300 0.4400 0.4510
12.511000 0.4590 0.4610 0.4630 0.4680 0.4730
12.546191 0.4790 0.4820 0.4870 0.4910 0.4980
12.581000 0.5000 0.5050 0.5130 0.5150 0.5200
12.616191 0.5200 0.5220 0.5220 0.5200 0.5190
12.652000 0.5170 0.5170 0.5170 0.5170 0.5170
12.687191 0.5170 0.5170 0.5190 0.5190 0.5170
12.722000 0.5170 0.5170 0.5170 0.5190 0.5220
12.757191 0.5220 0.5220 0.5220 0.5170 0.5120
12.792000 0.5100 0.5080 0.5060 0.5050 0.5030
12.827191 0.5000 0.5000 0.4980 0.4890 0.4860
12.863000 0.4840 0.4820 0.4790 0.4680 0.4650
12.898191 0.4610 0.4540 0.4490 0.4330 0.4210
12.933000 0.4190 0.4160 0.4030 0.3980 0.3890
12.968191 0.3840 0.3810 0.3790 0.3650 0.3530
13.003000 0.3440 0.3370 0.3330 0.3300 0.3260
13.038191 0.3180 0.3020 0.2950 0.2950 0.2880
13.074000 0.2860 0.2840 0.2770 0.2700 0.2670
13.109191 0.2650 0.2580 0.2480 0.2440 0.2390
13.144000 0.2360 0.2270 0.2250 0.2250 0.2250
13.179191 0.2230 0.2220 0.2200 0.2200 0.2200
13.214000 0.2220 0.2250 0.2340 0.2390 0.2440
13.249191 0.2440 0.2410 0.2410 0.2410 0.2430
13.285000 0.2460 0.2500 0.2580 0.2630 0.2690
13.320191 0.2740 0.2740 0.2760 0.2770 0.2840
13.355000 0.2950 0.3000 0.3090 0.3160 0.3190
13.390191 0.3250 0.3260 0.3260 0.3300 0.3370
13.425000 0.3460 0.3490 0.3540 0.3580 0.3580
13.460191 0.3580 0.3600 0.3650 0.3680 0.3700
13.496000 0.3720 0.3770 0.3820 0.3860 0.3880
13.531191 0.3910 0.3950 0.3960 0.3980 0.4000
13.566000 0.4020 0.4050 0.4120 0.4170 0.4230
13.601191 0.4260 0.4260 0.4120 0.4100 0.4100
13.636000 0.4100 0.4120 0.4140 0.4170 0.4190
13.671191 0.4190 0.4230 0.4310 0.4370 0.4380
13.707000 0.4420 0.4420 0.4380 0.4310 0.4280
13.742191 0.4260 0.4280 0.4310 0.4380 0.4470
13.777000 0.4470 0.4490 0.4490 0.4470 0.4420
13.812191 0.4420 0.4420 0.4420 0.4440 0.4450
13.847000 0.4470 0.4490 0.4490 0.4470 0.4470
13.882191 0.4450 0.4450 0.4450 0.4440 0.4440
13.918000 0.4440 0.4440 0.4400 0.4380 0.4370
13.953191 0.4310 0.4300 0.4300 0.4280 0.4240
13.988000 0.4210 0.4190 0.4170 0.4160 0.4090
14.023191 0.4000 0.3960 0.3860 0.3810 0.3770
14.058000 0.3750 0.3740 0.3670 0.3610 0.3600
14.093191 0.3600 0.3600 0.3610 0.3610 0.3670
14.129000 0.3740 0.3750 0.3750 0.3750 0.3790
14.164191 0.3860 0.3880 0.3890 0.3860 0.3860
14.199000 0.3860 0.3860 0.3860 0.3860 0.3890
14.234191 0.3910 0.3950 0.3950 0.3950 0.3960
14.269000 0.3960 0.3960 0.3980 0.4000 0.4030
14.304191 0.4030 0.4000 0.3960 0.3890 0.3890
14.340000 0.3890 0.3890 0.3890 0.3950 0.3960
14.375191 0.3960 0.3980 0.3980 0.3980 0.3980
14.410000 0.3980 0.3980 0.3960 0.3960 0.3960
14.445191 0.3960 0.3950 0.3950 0.3960 0.3980
14.481000 0.4000 0.4070 0.4090 0.4100 0.4100
14.516191 0.4050 0.4020 0.3980 0.3960 0.3960
14.551000 0.3950 0.3950 0.3950 0.3960 0.4020
14.586191 0.4090 0.4090 0.4090 0.4090 0.4090
14.621000 0.4090 0.4090 0.4090 0.4070 0.4050
14.656191 0.4050 0.4050 0.4050 0.4050 0.4070
14.692000 0.4070 0.4070 0.4070 0.4070 0.4090
14.727191 0.4090 0.4090 0.4090 0.4090 0.4090
14.762000 0.4100 0.4100 0.4090 0.4090 0.4070
14.797191 0.4070 0.4050 0.4050 0.4030 0.4030
14.832000 0.4030 0.4030 0.4030 0.4030 0.4030
14.867191 0.4070 0.4090 0.4090 0.4090 0.4120
14.903000 0.4160 0.4230 0.4280 0.4370 0.4490
14.938191 0.4490 0.4450 0.4330 0.4070 0.3670
14.973000 0.3370 0.2900 0.2830 0.2830 0.2840
15.008191 0.2860 0.2900 0.2970 0.3040 0.3090
15.043000 0.3140 0.3180 0.3180 0.3160 0.3140
15.078191 0.3070 0.2950 0.2930 0.2900 0.2900
15.114000 0.2880 0.2840 0.2840 0.2690 0.2650
15.149191 0.2650 0.2630 0.2630 0.2630 0.2670
15.184000 0.2770 0.2840 0.2900 0.2910 0.2930
15.219191 0.2930 0.2930 0.2860 0.2840 0.2840
15.254000 0.2840 0.2860 0.2930 0.2950 0.2950
15.289191 0.2970 0.3020 0.3040 0.3050 0.3050
15.325000 0.3050 0.3050 0.3050 0.3050 0.3050
15.360191 0.3050 0.3090 0.3110 0.3140 0.3160
15.395000 0.3160 0.3160 0.3160 0.3140 0.3140
15.430191 0.3160 0.3160 0.3160 0.3180 0.3250
15.465000 0.3260 0.3280 0.3300 0.3300 0.3320
15.500191 0.3350 0.3440 0.3460 0.3460 0.3460
15.536000 0.3470 0.3470 0.3470 0.3460 0.3460
15.571191 0.3460 0.3460 0.3460 0.3460 0.3460
15.606000 0.3470 0.3530 0.3580 0.3670 0.3740
15.641191 0.3770 0.3820 0.3820 0.3840 0.3860
15.676000 0.3860 0.3890 0.3910 0.3950 0.3950
15.711191 0.3950 0.3930 0.3910 0.3890 0.3860
15.747000 0.3860 0.3820 0.3790 0.3790 0.3770
15.782191 0.3770 0.3790 0.3810 0.3820 0.3840
15.817000 0.3880 0.3890 0.3910 0.3930 0.3960
15.852191 0.3980 0.4030 0.4050 0.4070 0.4120
15.887000 0.4120 0.4120 0.4120 0.4120 0.4120
15.922191 0.4120 0.4120 0.4120 0.4120 0.4120
15.958000 0.4120 0.4120
##END=
