##TITLE=1(HYDROXYMETHYL)-2,2-DIPHENYLCYCLOPROPANE
##JCAMP-DX=4.24
##DATA TYPE=INFRARED SPECTRUM
##CLASS=COBLENTZ
##ORIGIN=ABBOTT LABORATORIES
##OWNER=COBLENTZ SOCIETY
Collection (C) 2018 copyright by the U.S. Secretary of Commerce
on behalf of the United States of America. All rights reserved.
##DATE=1960
##MOLFORM=C16 H15 O
##SOURCE REFERENCE=COBLENTZ NO. 909
##$NIST ID=B6000909
##$NIST SOURCE=COBLENTZ
##$NIST IMAGE=cob909
##SPECTROMETER/DATA SYSTEM=Not specified, most likely a grating spectrometer.
##STATE=LIQUID
##SAMPLING PROCEDURE=TRANSMISSION
##RESOLUTION=4
##DATA PROCESSING=DIGITIZED BY NIST FROM HARD COPY
##XUNITS=MICROMETERS
##YUNITS=TRANSMITTANCE
##XFACTOR=1.000000
##YFACTOR=1
##DELTAX=000.007190
##FIRSTX=1.993
##LASTX=15.4894
##FIRSTY=0.827
##MAXX=15.4894
##MINX=1.993
##MAXY=0.825
##MINY=0.015
##NPOINTS=1878
##XYDATA=(X++(Y..Y))
1.993000 0.8270 0.8250 0.8250 0.8250 0.8250
2.028970 0.8250 0.8250 0.8250 0.8250 0.8230
2.065000 0.8230 0.8230 0.8230 0.8230 0.8230
2.100970 0.8220 0.8180 0.8180 0.8180 0.8130
2.137000 0.8100 0.8080 0.8060 0.8040 0.8010
2.172970 0.7990 0.7990 0.7990 0.7990 0.8010
2.209000 0.8010 0.8010 0.8030 0.8030 0.8060
2.244970 0.8080 0.8100 0.8100 0.8100 0.8100
2.280000 0.8080 0.8060 0.8060 0.8060 0.8040
2.315970 0.8040 0.8060 0.8060 0.8080 0.8080
2.352000 0.8100 0.8100 0.8100 0.8080 0.8060
2.387970 0.8060 0.8040 0.8010 0.7970 0.7920
2.424000 0.7840 0.7730 0.7630 0.7530 0.7510
2.459970 0.7530 0.7590 0.7680 0.7730 0.7780
2.496000 0.7840 0.7870 0.7870 0.7890 0.7910
2.531970 0.7920 0.7960 0.7960 0.7970 0.7990
2.568000 0.7990 0.7990 0.8010 0.8010 0.8010
2.603970 0.8010 0.8010 0.8010 0.8010 0.8010
2.640000 0.8010 0.7990 0.7990 0.7970 0.7970
2.675970 0.7920 0.7910 0.7850 0.7840 0.7660
2.712000 0.7540 0.7340 0.7200 0.7040 0.6510
2.747970 0.6070 0.5710 0.5490 0.5230 0.4970
2.784000 0.4760 0.4610 0.4470 0.4360 0.4300
2.819970 0.4230 0.3930 0.3760 0.3540 0.3330
2.856000 0.3100 0.2860 0.2650 0.2360 0.2080
2.891970 0.2000 0.1950 0.1720 0.1620 0.1580
2.928000 0.1510 0.1460 0.1450 0.1430 0.1430
2.963970 0.1430 0.1430 0.1430 0.1450 0.1450
2.999000 0.1460 0.1460 0.1480 0.1510 0.1530
3.034970 0.1580 0.1670 0.1790 0.1890 0.1960
3.071000 0.2100 0.2290 0.2530 0.2710 0.2760
3.106970 0.2930 0.3050 0.3170 0.3550 0.3640
3.143000 0.3780 0.3880 0.4020 0.4260 0.4380
3.178970 0.4430 0.4540 0.4500 0.4230 0.4170
3.215000 0.3850 0.3570 0.3290 0.2970 0.2710
3.250970 0.2600 0.2590 0.2590 0.2480 0.2400
3.287000 0.2380 0.2380 0.2400 0.2600 0.3550
3.322970 0.4280 0.4760 0.4800 0.4810 0.4730
3.359000 0.4490 0.4360 0.4090 0.4000 0.3880
3.394970 0.3850 0.3850 0.3850 0.3900 0.3900
3.431000 0.3780 0.3710 0.3640 0.3550 0.3480
3.466970 0.3450 0.3480 0.3540 0.3740 0.4000
3.503000 0.4280 0.4540 0.4800 0.4990 0.5400
3.538970 0.5560 0.5870 0.5970 0.6090 0.6210
3.575000 0.6280 0.6370 0.6470 0.6560 0.6660
3.610970 0.6730 0.6770 0.6780 0.6800 0.6800
3.647000 0.6850 0.6900 0.6960 0.6960 0.6970
3.682970 0.7060 0.7090 0.7110 0.7110 0.7130
3.718000 0.7130 0.7160 0.7180 0.7180 0.7180
3.753970 0.7200 0.7210 0.7270 0.7280 0.7280
3.790000 0.7280 0.7320 0.7320 0.7340 0.7370
3.825970 0.7370 0.7390 0.7400 0.7440 0.7440
3.862000 0.7460 0.7470 0.7490 0.7530 0.7580
3.897970 0.7580 0.7590 0.7650 0.7680 0.7700
3.934000 0.7720 0.7720 0.7720 0.7720 0.7720
3.969970 0.7720 0.7720 0.7730 0.7750 0.7770
4.006000 0.7780 0.7800 0.7800 0.7800 0.7820
4.041970 0.7820 0.7820 0.7820 0.7820 0.7820
4.078000 0.7840 0.7840 0.7840 0.7840 0.7840
4.113970 0.7850 0.7870 0.7890 0.7910 0.7910
4.150000 0.7940 0.7960 0.7970 0.7970 0.7970
4.185970 0.7990 0.7990 0.7990 0.8010 0.8010
4.222000 0.8010 0.8010 0.7990 0.7990 0.7970
4.257970 0.7970 0.7960 0.7960 0.7960 0.7940
4.294000 0.7920 0.7910 0.7890 0.7850 0.7850
4.329970 0.7850 0.7870 0.7910 0.7910 0.7940
4.366000 0.7970 0.7990 0.7990 0.7990 0.7990
4.401970 0.8010 0.8010 0.8010 0.8010 0.8010
4.437000 0.8030 0.8030 0.8040 0.8040 0.8060
4.472970 0.8060 0.8080 0.8080 0.8100 0.8100
4.509000 0.8100 0.8100 0.8080 0.8080 0.8080
4.544970 0.8080 0.8080 0.8080 0.8080 0.8080
4.581000 0.8080 0.8100 0.8100 0.8100 0.8110
4.616970 0.8110 0.8110 0.8130 0.8130 0.8130
4.653000 0.8130 0.8130 0.8130 0.8130 0.8110
4.688970 0.8110 0.8100 0.8080 0.8080 0.8060
4.725000 0.8060 0.8030 0.8010 0.7990 0.7970
4.760970 0.7970 0.7960 0.7960 0.7960 0.7940
4.797000 0.7940 0.7940 0.7920 0.7920 0.7920
4.832970 0.7910 0.7910 0.7910 0.7910 0.7910
4.869000 0.7910 0.7910 0.7910 0.7910 0.7910
4.904970 0.7910 0.7910 0.7910 0.7890 0.7890
4.941000 0.7890 0.7850 0.7840 0.7840 0.7800
4.976970 0.7780 0.7770 0.7750 0.7750 0.7720
5.013000 0.7700 0.7630 0.7560 0.7510 0.7460
5.048970 0.7370 0.7270 0.7160 0.7130 0.7010
5.085000 0.6820 0.6750 0.6640 0.6590 0.6580
5.120970 0.6490 0.6470 0.6470 0.6750 0.6970
5.157000 0.7060 0.7210 0.7440 0.7470 0.7530
5.192970 0.7610 0.7610 0.7610 0.7590 0.7580
5.228000 0.7540 0.7530 0.7470 0.7370 0.7320
5.263970 0.7150 0.6990 0.6960 0.6920 0.6890
5.300000 0.6890 0.6870 0.6850 0.6870 0.6890
5.335970 0.6960 0.7060 0.7160 0.7300 0.7400
5.372000 0.7530 0.7630 0.7660 0.7680 0.7700
5.407970 0.7700 0.7700 0.7700 0.7680 0.7680
5.444000 0.7660 0.7610 0.7560 0.7560 0.7510
5.479970 0.7460 0.7400 0.7200 0.7040 0.6940
5.516000 0.6900 0.6890 0.6850 0.6850 0.6870
5.551970 0.6900 0.7090 0.7180 0.7280 0.7370
5.588000 0.7420 0.7490 0.7540 0.7580 0.7560
5.623970 0.7560 0.7530 0.7460 0.7400 0.7300
5.660000 0.7270 0.7250 0.7230 0.7180 0.7160
5.695970 0.7150 0.7090 0.7080 0.7060 0.7080
5.732000 0.7090 0.7110 0.7150 0.7180 0.7270
5.767970 0.7300 0.7350 0.7420 0.7440 0.7470
5.804000 0.7510 0.7510 0.7530 0.7530 0.7510
5.839970 0.7470 0.7460 0.7420 0.7420 0.7440
5.876000 0.7440 0.7440 0.7420 0.7370 0.7340
5.911970 0.7340 0.7320 0.7320 0.7270 0.7230
5.947000 0.7180 0.7110 0.7060 0.6990 0.6960
5.982970 0.6830 0.6800 0.6770 0.6730 0.6680
6.019000 0.6580 0.6540 0.6510 0.6490 0.6490
6.054970 0.6510 0.6520 0.6540 0.6610 0.6700
6.091000 0.6780 0.6800 0.6820 0.6780 0.6780
6.126970 0.6770 0.6750 0.6680 0.6640 0.6630
6.163000 0.6560 0.6490 0.6330 0.5990 0.5710
6.198970 0.5350 0.4930 0.3810 0.3290 0.2530
6.235000 0.2270 0.2260 0.2290 0.2980 0.3830
6.270970 0.4500 0.4970 0.5060 0.5210 0.5210
6.307000 0.5190 0.5070 0.5070 0.5110 0.5300
6.342970 0.5760 0.6200 0.6260 0.6450 0.6520
6.379000 0.6660 0.6830 0.6900 0.6920 0.6940
6.414970 0.6940 0.6940 0.6940 0.6940 0.6940
6.451000 0.6940 0.6940 0.6940 0.6920 0.6920
6.486970 0.6920 0.6900 0.6850 0.6850 0.6830
6.523000 0.6830 0.6830 0.6850 0.6870 0.6870
6.558970 0.6890 0.6890 0.6850 0.6830 0.6750
6.595000 0.6730 0.6680 0.6580 0.6470 0.6440
6.630970 0.6140 0.5640 0.4830 0.4140 0.3240
6.666000 0.2530 0.2000 0.1320 0.0910 0.0910
6.701970 0.1220 0.2030 0.3090 0.3570 0.4360
6.738000 0.4470 0.4830 0.4970 0.5060 0.5090
6.773970 0.5090 0.4870 0.4850 0.4690 0.4550
6.810000 0.4430 0.4090 0.3980 0.3900 0.3780
6.845970 0.3730 0.3620 0.3380 0.2690 0.2380
6.882000 0.2050 0.1860 0.1700 0.1500 0.1410
6.917970 0.1380 0.1340 0.1340 0.1860 0.2220
6.954000 0.2590 0.2900 0.3280 0.3500 0.3620
6.989970 0.3730 0.3780 0.3860 0.3860 0.3860
7.026000 0.3860 0.3850 0.3830 0.3810 0.3780
7.061970 0.3760 0.3730 0.3670 0.3620 0.3570
7.098000 0.3480 0.3450 0.3410 0.3400 0.3350
7.133970 0.3330 0.3310 0.3310 0.3330 0.3360
7.170000 0.3480 0.3550 0.3590 0.3640 0.3740
7.205970 0.3830 0.3880 0.3900 0.3930 0.3980
7.242000 0.4000 0.4020 0.4020 0.4070 0.4090
7.277970 0.4110 0.4140 0.4170 0.4210 0.4350
7.314000 0.4400 0.4450 0.4470 0.4490 0.4550
7.349970 0.4620 0.4660 0.4810 0.4950 0.5000
7.386000 0.5120 0.5210 0.5230 0.5260 0.5260
7.421970 0.5260 0.5230 0.5230 0.5180 0.5110
7.457000 0.5040 0.4990 0.4950 0.4930 0.4900
7.492970 0.4680 0.4620 0.4490 0.4450 0.4350
7.529000 0.4280 0.4190 0.4170 0.4160 0.4160
7.564970 0.4140 0.4120 0.4090 0.4070 0.4020
7.601000 0.3980 0.3980 0.3970 0.3950 0.3970
7.636970 0.3980 0.4000 0.4090 0.4160 0.4260
7.673000 0.4300 0.4330 0.4360 0.4450 0.4500
7.708970 0.4640 0.4660 0.4690 0.4850 0.4930
7.745000 0.4970 0.5060 0.5110 0.5120 0.5110
7.780970 0.5090 0.5090 0.5040 0.5000 0.4970
7.817000 0.4930 0.4850 0.4810 0.4760 0.4740
7.852970 0.4730 0.4730 0.4740 0.4780 0.4800
7.889000 0.4930 0.4950 0.4970 0.5000 0.5000
7.924970 0.5020 0.5040 0.5070 0.5070 0.5090
7.961000 0.5110 0.5120 0.5120 0.5120 0.5140
7.996970 0.5140 0.5140 0.5140 0.5120 0.5110
8.033000 0.5110 0.5070 0.5060 0.5020 0.4990
8.068970 0.4970 0.4970 0.4930 0.4930 0.4870
8.105000 0.4830 0.4780 0.4730 0.4690 0.4640
8.140970 0.4640 0.4610 0.4590 0.4570 0.4570
8.176000 0.4570 0.4570 0.4570 0.4590 0.4620
8.211970 0.4640 0.4740 0.4850 0.4970 0.5070
8.248000 0.5120 0.5180 0.5260 0.5310 0.5350
8.283970 0.5380 0.5420 0.5440 0.5490 0.5560
8.320000 0.5570 0.5610 0.5610 0.5610 0.5610
8.355970 0.5570 0.5560 0.5540 0.5490 0.5440
8.392000 0.5420 0.5330 0.5250 0.5160 0.5140
8.427970 0.5090 0.5040 0.5000 0.4990 0.4990
8.464000 0.4970 0.4930 0.4920 0.4900 0.4880
8.499970 0.4870 0.4870 0.4870 0.4870 0.4870
8.536000 0.4880 0.4920 0.5090 0.5210 0.5280
8.571970 0.5420 0.5450 0.5470 0.5490 0.5490
8.608000 0.5490 0.5440 0.5280 0.5020 0.4730
8.643970 0.4660 0.4610 0.4230 0.4160 0.4160
8.680000 0.4110 0.4110 0.4090 0.4070 0.4090
8.715970 0.4110 0.4120 0.4120 0.4120 0.4110
8.752000 0.4090 0.4050 0.4050 0.4040 0.4040
8.787970 0.4020 0.4000 0.3980 0.3970 0.3970
8.824000 0.3980 0.4170 0.4450 0.4620 0.4730
8.859970 0.4850 0.4990 0.5020 0.5180 0.5260
8.895000 0.5400 0.5470 0.5570 0.5610 0.5660
8.930970 0.5730 0.5780 0.5830 0.5850 0.5870
8.967000 0.5880 0.5880 0.5900 0.5900 0.5900
9.002970 0.5900 0.5880 0.5880 0.5870 0.5870
9.039000 0.5850 0.5850 0.5830 0.5850 0.5850
9.074970 0.5870 0.5870 0.5870 0.5850 0.5820
9.111000 0.5800 0.5760 0.5710 0.5610 0.5440
9.146970 0.5350 0.5180 0.5000 0.4880 0.4380
9.183000 0.4120 0.3970 0.3920 0.3830 0.3730
9.218970 0.3710 0.3710 0.3710 0.3710 0.3710
9.255000 0.3690 0.3660 0.3550 0.3480 0.3290
9.290970 0.3090 0.3050 0.3090 0.3160 0.3670
9.327000 0.3710 0.3850 0.3950 0.4000 0.4110
9.362970 0.4140 0.4350 0.4540 0.4760 0.4880
9.399000 0.4950 0.5000 0.5060 0.5160 0.5180
9.434970 0.5190 0.5210 0.5180 0.5040 0.4830
9.471000 0.4690 0.4520 0.4240 0.3970 0.3550
9.506970 0.3330 0.3070 0.2970 0.2840 0.2520
9.543000 0.2240 0.2120 0.1950 0.1790 0.1720
9.578970 0.1640 0.1600 0.1430 0.1360 0.1290
9.614000 0.1130 0.1100 0.1000 0.0960 0.0910
9.649970 0.0860 0.0820 0.0820 0.0810 0.0810
9.686000 0.0820 0.0820 0.0840 0.0840 0.0860
9.721970 0.0890 0.0890 0.0910 0.0910 0.0910
9.758000 0.0890 0.0880 0.0840 0.0820 0.0810
9.793970 0.0820 0.0820 0.0840 0.0880 0.0910
9.830000 0.0940 0.0980 0.1010 0.1130 0.1200
9.865970 0.1270 0.1270 0.1310 0.1390 0.1480
9.902000 0.1550 0.1600 0.1740 0.1930 0.2070
9.937970 0.2340 0.2460 0.2550 0.2710 0.2790
9.974000 0.2840 0.2830 0.2790 0.2710 0.2670
10.009970 0.2640 0.2650 0.2710 0.2910 0.3220
10.046000 0.3280 0.3450 0.3710 0.3810 0.3830
10.081970 0.3920 0.3930 0.3930 0.3920 0.3880
10.118000 0.3830 0.3790 0.3730 0.3690 0.3660
10.153970 0.3590 0.3550 0.3540 0.3520 0.3520
10.190000 0.3520 0.3540 0.3570 0.3640 0.3660
10.225970 0.3710 0.3780 0.3860 0.3930 0.3950
10.262000 0.4110 0.4140 0.4160 0.4210 0.4230
10.297970 0.4260 0.4310 0.4330 0.4330 0.4350
10.334000 0.4350 0.4330 0.4310 0.4300 0.4280
10.369970 0.4260 0.4260 0.4280 0.4280 0.4300
10.405000 0.4330 0.4380 0.4470 0.4690 0.4830
10.440970 0.4950 0.5000 0.5070 0.5250 0.5300
10.477000 0.5440 0.5470 0.5640 0.5800 0.5900
10.512970 0.5920 0.5940 0.6090 0.6140 0.6230
10.549000 0.6390 0.6390 0.6400 0.6470 0.6510
10.584970 0.6580 0.6610 0.6610 0.6610 0.6630
10.621000 0.6630 0.6630 0.6630 0.6630 0.6630
10.656970 0.6630 0.6630 0.6630 0.6610 0.6610
10.693000 0.6610 0.6580 0.6540 0.6510 0.6470
10.728970 0.6440 0.6390 0.6370 0.6350 0.6300
10.765000 0.6280 0.6210 0.6140 0.6110 0.6090
10.800970 0.6040 0.5990 0.5940 0.5900 0.5870
10.837000 0.5780 0.5680 0.5560 0.5520 0.5520
10.872970 0.5500 0.5450 0.5440 0.5440 0.5420
10.909000 0.5420 0.5420 0.5440 0.5440 0.5450
10.944970 0.5490 0.5500 0.5540 0.5540 0.5560
10.981000 0.5590 0.5680 0.5710 0.5760 0.5880
11.016970 0.5900 0.5970 0.6040 0.6110 0.6180
11.053000 0.6210 0.6300 0.6400 0.6470 0.6520
11.088970 0.6520 0.6560 0.6580 0.6590 0.6590
11.124000 0.6590 0.6610 0.6610 0.6610 0.6590
11.159970 0.6580 0.6580 0.6560 0.6510 0.6440
11.196000 0.6440 0.6420 0.6420 0.6420 0.6400
11.231970 0.6400 0.6390 0.6350 0.6320 0.6280
11.268000 0.6260 0.6250 0.6250 0.6250 0.6250
11.303970 0.6230 0.6230 0.6230 0.6230 0.6250
11.340000 0.6250 0.6250 0.6280 0.6300 0.6300
11.375970 0.6320 0.6390 0.6390 0.6400 0.6450
11.412000 0.6490 0.6540 0.6580 0.6610 0.6630
11.447970 0.6680 0.6710 0.6770 0.6830 0.6850
11.484000 0.6870 0.6870 0.6890 0.6900 0.6900
11.519970 0.6900 0.6900 0.6900 0.6900 0.6900
11.556000 0.6890 0.6890 0.6870 0.6870 0.6870
11.591970 0.6850 0.6820 0.6780 0.6710 0.6660
11.628000 0.6560 0.6540 0.6510 0.6490 0.6420
11.663970 0.6370 0.6350 0.6320 0.6300 0.6250
11.700000 0.6180 0.6130 0.6070 0.6020 0.5900
11.735970 0.5800 0.5730 0.5710 0.5690 0.5660
11.772000 0.5590 0.5570 0.5540 0.5500 0.5490
11.807970 0.5470 0.5450 0.5440 0.5420 0.5420
11.843000 0.5440 0.5470 0.5500 0.5520 0.5540
11.878970 0.5560 0.5570 0.5590 0.5630 0.5680
11.915000 0.5710 0.5780 0.5880 0.5880 0.5920
11.950970 0.5920 0.5940 0.5990 0.6020 0.6040
11.987000 0.6130 0.6180 0.6200 0.6250 0.6250
12.022970 0.6260 0.6300 0.6330 0.6370 0.6370
12.059000 0.6370 0.6370 0.6370 0.6300 0.6280
12.094970 0.6260 0.6250 0.6230 0.6230 0.6210
12.131000 0.6210 0.6210 0.6210 0.6210 0.6230
12.166970 0.6260 0.6280 0.6350 0.6370 0.6390
12.203000 0.6420 0.6450 0.6540 0.6580 0.6590
12.238970 0.6590 0.6610 0.6630 0.6640 0.6680
12.275000 0.6700 0.6710 0.6730 0.6730 0.6710
12.310970 0.6680 0.6680 0.6680 0.6680 0.6660
12.347000 0.6660 0.6640 0.6640 0.6630 0.6630
12.382970 0.6630 0.6610 0.6610 0.6580 0.6560
12.419000 0.6520 0.6520 0.6510 0.6490 0.6470
12.454970 0.6400 0.6390 0.6390 0.6370 0.6320
12.491000 0.6300 0.6250 0.6250 0.6210 0.6210
12.526970 0.6210 0.6210 0.6210 0.6200 0.6180
12.563000 0.6180 0.6180 0.6180 0.6180 0.6180
12.598970 0.6180 0.6180 0.6180 0.6180 0.6200
12.634000 0.6200 0.6210 0.6210 0.6250 0.6250
12.669970 0.6250 0.6250 0.6230 0.6210 0.6210
12.706000 0.6210 0.6200 0.6200 0.6140 0.6130
12.741970 0.6070 0.6060 0.6020 0.5990 0.5940
12.778000 0.5900 0.5870 0.5820 0.5760 0.5710
12.813970 0.5540 0.5490 0.5380 0.5260 0.5070
12.850000 0.4880 0.4740 0.4500 0.4430 0.4230
12.885970 0.4110 0.3780 0.3470 0.3330 0.3190
12.922000 0.2910 0.2760 0.2590 0.2500 0.2480
12.957970 0.2410 0.2360 0.2310 0.2190 0.2150
12.994000 0.2080 0.2050 0.2020 0.1960 0.1950
13.029970 0.1910 0.1880 0.1840 0.1830 0.1770
13.066000 0.1740 0.1700 0.1690 0.1670 0.1640
13.101970 0.1640 0.1620 0.1600 0.1580 0.1570
13.138000 0.1550 0.1530 0.1530 0.1510 0.1500
13.173970 0.1480 0.1460 0.1430 0.1430 0.1410
13.210000 0.1390 0.1380 0.1360 0.1340 0.1320
13.245970 0.1290 0.1270 0.1270 0.1240 0.1220
13.282000 0.1220 0.1200 0.1200 0.1190 0.1190
13.317970 0.1190 0.1200 0.1220 0.1220 0.1240
13.353000 0.1260 0.1270 0.1340 0.1390 0.1430
13.388970 0.1460 0.1510 0.1650 0.1760 0.1840
13.425000 0.2030 0.2050 0.2290 0.2400 0.2500
13.460970 0.2550 0.2570 0.2600 0.2690 0.2780
13.497000 0.2840 0.2900 0.2950 0.2970 0.3030
13.532970 0.3090 0.3120 0.3160 0.3190 0.3240
13.569000 0.3290 0.3330 0.3360 0.3410 0.3470
13.604970 0.3500 0.3550 0.3620 0.3760 0.3850
13.641000 0.3900 0.3950 0.4050 0.4190 0.4230
13.676970 0.4360 0.4380 0.4420 0.4470 0.4520
13.713000 0.4540 0.4570 0.4610 0.4660 0.4660
13.748970 0.4680 0.4710 0.4730 0.4730 0.4730
13.785000 0.4740 0.4740 0.4740 0.4710 0.4710
13.820970 0.4690 0.4680 0.4660 0.4640 0.4620
13.857000 0.4610 0.4590 0.4590 0.4550 0.4490
13.892970 0.4420 0.4350 0.4310 0.4280 0.4240
13.929000 0.4170 0.4110 0.4040 0.3980 0.3710
13.964970 0.3590 0.3570 0.3410 0.3260 0.3100
14.001000 0.2930 0.2520 0.2430 0.2330 0.2120
14.036970 0.1930 0.1620 0.1460 0.1380 0.1310
14.072000 0.1260 0.1200 0.1130 0.1030 0.0790
14.107970 0.0700 0.0650 0.0480 0.0360 0.0290
14.144000 0.0240 0.0200 0.0200 0.0180 0.0180
14.179970 0.0170 0.0170 0.0150 0.0150 0.0150
14.216000 0.0150 0.0150 0.0150 0.0150 0.0150
14.251970 0.0150 0.0150 0.0150 0.0150 0.0150
14.288000 0.0150 0.0150 0.0150 0.0150 0.0150
14.323970 0.0170 0.0170 0.0170 0.0180 0.0200
14.360000 0.0200 0.0220 0.0240 0.0270 0.0310
14.395970 0.0390 0.0510 0.0530 0.0580 0.0690
14.432000 0.0790 0.1100 0.1340 0.1450 0.1450
14.467970 0.1510 0.1580 0.1740 0.1960 0.1980
14.504000 0.2120 0.2150 0.2310 0.2360 0.2530
14.539970 0.2570 0.2640 0.2720 0.2780 0.2880
14.576000 0.2930 0.2950 0.3000 0.3050 0.3140
14.611970 0.3210 0.3210 0.3220 0.3240 0.3290
14.648000 0.3310 0.3330 0.3350 0.3360 0.3380
14.683970 0.3400 0.3400 0.3410 0.3410 0.3410
14.720000 0.3430 0.3430 0.3450 0.3450 0.3450
14.755970 0.3450 0.3450 0.3470 0.3470 0.3470
14.791000 0.3470 0.3480 0.3480 0.3480 0.3480
14.826970 0.3480 0.3470 0.3450 0.3450 0.3450
14.863000 0.3450 0.3450 0.3430 0.3430 0.3430
14.898970 0.3430 0.3450 0.3450 0.3450 0.3450
14.935000 0.3470 0.3470 0.3480 0.3480 0.3480
14.970970 0.3480 0.3500 0.3480 0.3480 0.3480
15.007000 0.3450 0.3470 0.3470 0.3470 0.3480
15.042970 0.3500 0.3500 0.3500 0.3520 0.3520
15.079000 0.3540 0.3520 0.3520 0.3520 0.3500
15.114970 0.3500 0.3480 0.3480 0.3470 0.3450
15.151000 0.3410 0.3410 0.3400 0.3380 0.3380
15.186970 0.3350 0.3310 0.3290 0.3290 0.3290
15.223000 0.3290 0.3260 0.3260 0.3240 0.3220
15.258970 0.3210 0.3210 0.3190 0.3190 0.3190
15.295000 0.3170 0.3170 0.3170 0.3170 0.3190
15.330970 0.3240 0.3240 0.3280 0.3280 0.3280
15.367000 0.3280 0.3290 0.3290 0.3310 0.3330
15.402970 0.3350 0.3360 0.3360 0.3380 0.3380
15.439000 0.3380 0.3380 0.3380 0.3400 0.3400
15.474970 0.3400 0.3400 0.3400
##END=
