##TITLE=2-(p-NONYLPHENOXY)-6-(p-PHENOXYBENZYL) PYRAZINE
##JCAMP-DX=4.24
##DATA TYPE=INFRARED SPECTRUM
##CLASS=COBLENTZ
##ORIGIN=WYANDOTTE CHEMICALS CORP., WYANDOTTE, MICHIGAN, USA
##OWNER=COBLENTZ SOCIETY
Collection (C) 2018 copyright by the U.S. Secretary of Commerce
on behalf of the United States of America. All rights reserved.
##DATE=Not specified, most likely prior to 1970
##NAMES=2-(4-nonylphenoxy)-6-(3-phenoxybenzyl)pyrazine
##MOLFORM=C32 H36 N2 O2
##SOURCE REFERENCE=COBLENTZ NO. 3139
##$NIST ID=B6003139
##$NIST SOURCE=COBLENTZ
##$NIST IMAGE=cob3139
##SPECTROMETER/DATA SYSTEM=Not specified, most likely a prism, grating, or hybrid spectrometer.
##STATE=LIQUID
##PATH LENGTH=CAPILLARY
##SAMPLING PROCEDURE=TRANSMISSION
##RESOLUTION=4
##DATA PROCESSING=DIGITIZED BY NIST FROM HARD COPY
##XUNITS=MICROMETERS
##YUNITS=TRANSMITTANCE
##XFACTOR=1.000000
##YFACTOR=1
##DELTAX=000.006816
##FIRSTX=2.014
##LASTX=15.986
##FIRSTY=0.909
##MAXX=15.986
##MINX=2.014
##MAXY=0.931
##MINY=0.147
##NPOINTS=2051
##XYDATA=(X++(Y..Y))
2.014000 0.9090 0.9090 0.9050 0.9050 0.9050
2.048096 0.9030 0.9030 0.9050 0.9050 0.9070
2.082000 0.9070 0.9070 0.9090 0.9100 0.9100
2.116096 0.9140 0.9140 0.9140 0.9140 0.9120
2.150000 0.9100 0.9100 0.9090 0.9030 0.9000
2.184096 0.8980 0.8970 0.8970 0.8970 0.8970
2.218000 0.8970 0.8970 0.8980 0.8980 0.8980
2.252096 0.8980 0.9000 0.9000 0.9000 0.9030
2.286000 0.9050 0.9070 0.9070 0.9050 0.9050
2.320096 0.9030 0.9030 0.9020 0.9020 0.9000
2.354000 0.8980 0.8980 0.8970 0.8950 0.8950
2.388096 0.8930 0.8930 0.8970 0.8970 0.8980
2.423000 0.8980 0.9020 0.9020 0.9030 0.9030
2.457096 0.9030 0.9020 0.9020 0.9000 0.8980
2.491000 0.8980 0.9000 0.9030 0.9020 0.9000
2.525096 0.9020 0.9030 0.9030 0.9050 0.9070
2.559000 0.9090 0.9100 0.9100 0.9100 0.9100
2.593096 0.9050 0.9030 0.9050 0.9070 0.9120
2.627000 0.9170 0.9220 0.9140 0.9100 0.9070
2.661096 0.9050 0.9030 0.9020 0.9020 0.9030
2.695000 0.9050 0.9050 0.9070 0.9090 0.9100
2.729096 0.9100 0.9120 0.9140 0.9100 0.9070
2.763000 0.9020 0.9020 0.9000 0.8970 0.8930
2.797096 0.8900 0.8850 0.8830 0.8810 0.8810
2.832000 0.8790 0.8790 0.8780 0.8780 0.8740
2.866096 0.8710 0.8690 0.8670 0.8620 0.8590
2.900000 0.8550 0.8520 0.8500 0.8490 0.8490
2.934096 0.8490 0.8470 0.8430 0.8380 0.8330
2.968000 0.8300 0.8260 0.8210 0.8160 0.8110
3.002096 0.8020 0.7950 0.7890 0.7870 0.7870
3.036000 0.7900 0.7970 0.7990 0.8010 0.8010
3.070096 0.8010 0.7990 0.7990 0.7970 0.7900
3.104000 0.7890 0.7890 0.7820 0.7680 0.7590
3.138096 0.7540 0.7490 0.7400 0.7320 0.7230
3.172000 0.7160 0.7150 0.7160 0.7160 0.7220
3.206096 0.7250 0.7250 0.7230 0.7150 0.7010
3.241000 0.6790 0.6380 0.6220 0.6170 0.6170
3.275096 0.6200 0.6580 0.6870 0.6870 0.6800
3.309000 0.6500 0.6190 0.5840 0.5240 0.4710
3.343096 0.4150 0.3490 0.3440 0.3460 0.3580
3.377000 0.3990 0.4160 0.4200 0.4210 0.4350
3.411096 0.4560 0.4810 0.5090 0.5310 0.5450
3.445000 0.5570 0.5670 0.5690 0.5690 0.5660
3.479096 0.5520 0.5520 0.5900 0.6340 0.6720
3.513000 0.7300 0.7680 0.7950 0.8040 0.8130
3.547096 0.8190 0.8230 0.8300 0.8330 0.8450
3.581000 0.8540 0.8570 0.8610 0.8610 0.8610
3.615096 0.8620 0.8620 0.8640 0.8620 0.8620
3.649000 0.8620 0.8620 0.8620 0.8640 0.8670
3.683096 0.8690 0.8710 0.8790 0.8830 0.8850
3.718000 0.8850 0.8880 0.8880 0.8900 0.8910
3.752096 0.8910 0.8900 0.8900 0.8900 0.8900
3.786000 0.8910 0.8910 0.8900 0.8880 0.8880
3.820096 0.8880 0.8880 0.8910 0.8930 0.8910
3.854000 0.8910 0.8910 0.8910 0.8910 0.8910
3.888096 0.8910 0.8910 0.8970 0.8980 0.9000
3.922000 0.9000 0.9000 0.9000 0.8980 0.8950
3.956096 0.8930 0.8930 0.8930 0.8950 0.8950
3.990000 0.9000 0.9000 0.9000 0.8910 0.8910
4.024096 0.8910 0.8930 0.8930 0.8950 0.8930
4.058000 0.8910 0.8900 0.8910 0.8910 0.8910
4.092096 0.8880 0.8850 0.8830 0.8850 0.8850
4.127000 0.8850 0.8850 0.8830 0.8830 0.8830
4.161096 0.8830 0.8830 0.8830 0.8830 0.8830
4.195000 0.8810 0.8810 0.8790 0.8760 0.8760
4.229096 0.8730 0.8690 0.8670 0.8670 0.8690
4.263000 0.8740 0.8810 0.8900 0.8980 0.9000
4.297096 0.9020 0.9020 0.9030 0.9090 0.9140
4.331000 0.9170 0.9240 0.9270 0.9290 0.9310
4.365096 0.9310 0.9310 0.9310 0.9310 0.9270
4.399000 0.9220 0.9220 0.9220 0.9210 0.9150
4.433096 0.9100 0.9090 0.9100 0.9100 0.9100
4.467000 0.9120 0.9150 0.9190 0.9190 0.9190
4.501096 0.9190 0.9190 0.9190 0.9190 0.9190
4.536000 0.9190 0.9190 0.9190 0.9190 0.9210
4.570096 0.9210 0.9210 0.9210 0.9220 0.9210
4.604000 0.9190 0.9190 0.9190 0.9190 0.9190
4.638096 0.9210 0.9220 0.9220 0.9220 0.9210
4.672000 0.9210 0.9210 0.9210 0.9210 0.9210
4.706096 0.9210 0.9220 0.9220 0.9240 0.9240
4.740000 0.9240 0.9240 0.9240 0.9240 0.9220
4.774096 0.9210 0.9210 0.9210 0.9210 0.9170
4.808000 0.9170 0.9170 0.9170 0.9150 0.9140
4.842096 0.9140 0.9120 0.9100 0.9090 0.9050
4.876000 0.9030 0.9020 0.9020 0.9050 0.9050
4.910096 0.9050 0.9090 0.9090 0.9050 0.9030
4.944000 0.9000 0.8980 0.8970 0.8950 0.8970
4.978096 0.8970 0.8980 0.9000 0.9020 0.9030
5.013000 0.9030 0.9030 0.9030 0.9020 0.9020
5.047096 0.9000 0.8950 0.8930 0.8930 0.8970
5.081000 0.8980 0.9000 0.9000 0.9000 0.9020
5.115096 0.9020 0.9020 0.9020 0.9030 0.9030
5.149000 0.9020 0.9000 0.8980 0.8980 0.8970
5.183096 0.8970 0.8910 0.8900 0.8900 0.8900
5.217000 0.8900 0.8950 0.8980 0.9000 0.9000
5.251096 0.8980 0.8980 0.8970 0.8930 0.8900
5.285000 0.8880 0.8860 0.8860 0.8880 0.8880
5.319096 0.8900 0.8900 0.8900 0.8900 0.8910
5.353000 0.8910 0.8910 0.8930 0.8950 0.8970
5.387096 0.8970 0.8970 0.8970 0.8970 0.8970
5.422000 0.8970 0.8910 0.8910 0.9000 0.9030
5.456096 0.9050 0.9070 0.9070 0.9070 0.9070
5.490000 0.9070 0.9090 0.9090 0.9050 0.9020
5.524096 0.8980 0.8980 0.8980 0.8980 0.8980
5.558000 0.8910 0.8910 0.8900 0.8900 0.8910
5.592096 0.8900 0.8880 0.8850 0.8810 0.8780
5.626000 0.8730 0.8710 0.8710 0.8760 0.8780
5.660096 0.8780 0.8780 0.8760 0.8780 0.8790
5.694000 0.8790 0.8790 0.8790 0.8790 0.8790
5.728096 0.8780 0.8710 0.8740 0.8780 0.8740
5.762000 0.8730 0.8670 0.8610 0.8520 0.8520
5.796096 0.8590 0.8640 0.8640 0.8590 0.8520
5.831000 0.8490 0.8470 0.8500 0.8540 0.8590
5.865096 0.8590 0.8610 0.8590 0.8520 0.8400
5.899000 0.8350 0.8330 0.8310 0.8250 0.8160
5.933096 0.8090 0.8020 0.7950 0.7780 0.7680
5.967000 0.7590 0.7540 0.7490 0.7490 0.7420
6.001096 0.7350 0.7340 0.7350 0.7350 0.7390
6.035000 0.7420 0.7510 0.7560 0.7580 0.7580
6.069096 0.7610 0.7680 0.7680 0.7610 0.7580
6.103000 0.7510 0.7490 0.7350 0.7150 0.6960
6.137096 0.6720 0.6360 0.6050 0.5960 0.5790
6.171000 0.5640 0.5450 0.5310 0.5040 0.4750
6.205096 0.4490 0.4150 0.3910 0.3670 0.3490
6.240000 0.3410 0.3410 0.3510 0.3850 0.4250
6.274096 0.4660 0.5040 0.5480 0.5900 0.6150
6.308000 0.6410 0.6550 0.6740 0.6910 0.7010
6.342096 0.7080 0.7080 0.7110 0.7150 0.7180
6.376000 0.7180 0.7160 0.7080 0.6960 0.6750
6.410096 0.6550 0.6500 0.6410 0.6320 0.6220
6.444000 0.6140 0.6100 0.6080 0.6070 0.6080
6.478096 0.6190 0.6310 0.6380 0.6390 0.6430
6.512000 0.6480 0.6430 0.6260 0.6050 0.5830
6.546096 0.5470 0.4990 0.4560 0.4060 0.3700
6.580000 0.3310 0.2930 0.2280 0.2000 0.2000
6.614096 0.2240 0.2520 0.3190 0.3250 0.3200
6.648000 0.2890 0.2530 0.2190 0.1900 0.1690
6.682096 0.1710 0.2000 0.2410 0.2860 0.3250
6.717000 0.3510 0.3770 0.4150 0.4400 0.4520
6.751096 0.4570 0.4540 0.4470 0.4400 0.4320
6.785000 0.4130 0.3910 0.3730 0.3650 0.3550
6.819096 0.3390 0.3290 0.3250 0.3370 0.3610
6.853000 0.3750 0.3910 0.3990 0.4030 0.4090
6.887096 0.4130 0.4250 0.4470 0.4610 0.4760
6.921000 0.4900 0.5000 0.5140 0.5280 0.5380
6.955096 0.5500 0.5550 0.5660 0.5760 0.5900
6.989000 0.6000 0.6000 0.6000 0.6000 0.5790
7.023096 0.5550 0.5380 0.5160 0.4950 0.4780
7.057000 0.4610 0.4450 0.4280 0.4210 0.4210
7.091096 0.4320 0.4540 0.4660 0.4780 0.5000
7.126000 0.5160 0.5280 0.5300 0.5280 0.5110
7.160096 0.4950 0.4760 0.4540 0.4250 0.4010
7.194000 0.3430 0.2860 0.2620 0.2450 0.2340
7.228096 0.2160 0.1900 0.1800 0.1730 0.1710
7.262000 0.1740 0.1880 0.2000 0.2190 0.2460
7.296096 0.2910 0.3220 0.3630 0.4040 0.4470
7.330000 0.4690 0.4990 0.5330 0.5660 0.5810
7.364096 0.5960 0.6050 0.6140 0.6190 0.6270
7.398000 0.6320 0.6360 0.6380 0.6380 0.6380
7.432096 0.6360 0.6340 0.6290 0.6170 0.6050
7.466000 0.6000 0.5880 0.5810 0.5810 0.5810
7.500096 0.5810 0.5810 0.5830 0.5840 0.5840
7.535000 0.5840 0.5860 0.5860 0.5860 0.5880
7.569096 0.5880 0.5840 0.5840 0.5840 0.5840
7.603000 0.5840 0.5830 0.5830 0.5830 0.5830
7.637096 0.5810 0.5790 0.5790 0.5790 0.5790
7.671000 0.5790 0.5790 0.5760 0.5670 0.5600
7.705096 0.5520 0.5450 0.5380 0.5310 0.5190
7.739000 0.5120 0.5040 0.4970 0.4920 0.4900
7.773096 0.4880 0.4880 0.4850 0.4780 0.4680
7.807000 0.4660 0.4660 0.4680 0.4680 0.4680
7.841096 0.4660 0.4640 0.4590 0.4570 0.4560
7.875000 0.4520 0.4510 0.4490 0.4450 0.4440
7.909096 0.4400 0.4230 0.3990 0.3750 0.3530
7.944000 0.3340 0.3010 0.2740 0.2450 0.2170
7.978096 0.1980 0.1880 0.1780 0.1660 0.1570
8.012000 0.1500 0.1470 0.1490 0.1520 0.1560
8.046096 0.1570 0.1610 0.1640 0.1690 0.1760
8.080000 0.1850 0.1970 0.1980 0.2000 0.2020
8.114096 0.2090 0.2120 0.2190 0.2280 0.2360
8.148000 0.2380 0.2380 0.2380 0.2380 0.2330
8.182096 0.2240 0.2140 0.2040 0.1900 0.1830
8.216000 0.1810 0.1810 0.1860 0.1980 0.2220
8.250096 0.2550 0.2830 0.3080 0.3290 0.3490
8.284000 0.3730 0.3990 0.4230 0.4440 0.4560
8.318096 0.4810 0.4880 0.4990 0.5070 0.5210
8.352000 0.5300 0.5360 0.5420 0.5480 0.5480
8.386096 0.5500 0.5500 0.5400 0.5120 0.4990
8.421000 0.4690 0.4510 0.4250 0.3970 0.3630
8.455096 0.3430 0.3200 0.3050 0.2980 0.2960
8.489000 0.2980 0.3130 0.3340 0.3490 0.3680
8.523096 0.3840 0.3960 0.4010 0.4010 0.4030
8.557000 0.4080 0.4150 0.4210 0.4230 0.4250
8.591096 0.4320 0.4400 0.4520 0.4660 0.4690
8.625000 0.4780 0.4850 0.4880 0.4900 0.4930
8.659096 0.4950 0.5000 0.5110 0.5190 0.5280
8.693000 0.5360 0.5450 0.5520 0.5620 0.5690
8.727096 0.5780 0.5840 0.5910 0.5960 0.6030
8.761000 0.6120 0.6200 0.6320 0.6440 0.6600
8.795096 0.6770 0.6960 0.7080 0.7150 0.7220
8.830000 0.7250 0.7280 0.7320 0.7340 0.7340
8.864096 0.7340 0.7340 0.7340 0.7320 0.7300
8.898000 0.7280 0.7180 0.7080 0.7010 0.6990
8.932096 0.6980 0.6990 0.7030 0.7030 0.7060
8.966000 0.7100 0.7130 0.7150 0.7200 0.7280
9.000096 0.7320 0.7320 0.7280 0.7280 0.7280
9.034000 0.7270 0.7270 0.7250 0.7250 0.7250
9.068096 0.7250 0.7250 0.7230 0.7250 0.7320
9.102000 0.7390 0.7460 0.7490 0.7530 0.7590
9.136096 0.7630 0.7660 0.7680 0.7680 0.7680
9.170000 0.7650 0.7630 0.7630 0.7610 0.7590
9.204096 0.7590 0.7580 0.7580 0.7540 0.7530
9.239000 0.7510 0.7470 0.7420 0.7370 0.7270
9.273096 0.7200 0.7130 0.7110 0.7110 0.7100
9.307000 0.7110 0.7160 0.7220 0.7340 0.7400
9.341096 0.7510 0.7590 0.7710 0.7820 0.7900
9.375000 0.7990 0.8020 0.8070 0.8090 0.8110
9.409096 0.8130 0.8140 0.8160 0.8160 0.8160
9.443000 0.8160 0.8160 0.8180 0.8210 0.8210
9.477096 0.8190 0.8190 0.8190 0.8180 0.8180
9.511000 0.8180 0.8180 0.8160 0.8160 0.8140
9.545096 0.8110 0.8110 0.8090 0.8090 0.8070
9.579000 0.8060 0.8060 0.8020 0.8010 0.7920
9.613096 0.7890 0.7870 0.7890 0.7870 0.7820
9.648000 0.7750 0.7730 0.7710 0.7710 0.7700
9.682096 0.7680 0.7610 0.7530 0.7490 0.7400
9.716000 0.7340 0.7250 0.7040 0.6940 0.6790
9.750096 0.6680 0.6600 0.6530 0.6500 0.6460
9.784000 0.6360 0.6190 0.5960 0.5690 0.5480
9.818096 0.5360 0.5210 0.5190 0.5190 0.5240
9.852000 0.5380 0.5600 0.5930 0.6050 0.6200
9.886096 0.6290 0.6380 0.6480 0.6530 0.6630
9.920000 0.6680 0.6750 0.6870 0.6990 0.7110
9.954096 0.7200 0.7270 0.7370 0.7490 0.7510
9.988000 0.7560 0.7680 0.7800 0.7870 0.7920
10.022096 0.7950 0.8010 0.8060 0.8090 0.8110
10.056000 0.8110 0.8130 0.8140 0.8140 0.8140
10.090096 0.8140 0.8140 0.8130 0.8110 0.8090
10.125000 0.8060 0.8020 0.8010 0.7970 0.7950
10.159096 0.7950 0.7970 0.7990 0.8010 0.8020
10.193000 0.8020 0.8040 0.8060 0.8060 0.8070
10.227096 0.8070 0.8090 0.8110 0.8140 0.8160
10.261000 0.8130 0.8130 0.8140 0.8140 0.8160
10.295096 0.8190 0.8180 0.8140 0.8110 0.8090
10.329000 0.8070 0.8070 0.8040 0.8040 0.8040
10.363096 0.8020 0.8010 0.7990 0.7970 0.7940
10.397000 0.7890 0.7800 0.7770 0.7730 0.7710
10.431096 0.7700 0.7660 0.7610 0.7580 0.7510
10.465000 0.7510 0.7490 0.7490 0.7560 0.7580
10.499096 0.7580 0.7590 0.7650 0.7700 0.7770
10.534000 0.7780 0.7820 0.7890 0.7970 0.8020
10.568096 0.8070 0.8090 0.8130 0.8140 0.8160
10.602000 0.8180 0.8180 0.8190 0.8190 0.8230
10.636096 0.8250 0.8280 0.8280 0.8300 0.8300
10.670000 0.8330 0.8350 0.8350 0.8350 0.8350
10.704096 0.8370 0.8370 0.8380 0.8380 0.8380
10.738000 0.8380 0.8380 0.8380 0.8330 0.8330
10.772096 0.8310 0.8300 0.8280 0.8260 0.8260
10.806000 0.8260 0.8250 0.8250 0.8250 0.8250
10.840096 0.8230 0.8230 0.8230 0.8160 0.8130
10.874000 0.8090 0.8060 0.8020 0.8020 0.8010
10.908096 0.8010 0.8010 0.8010 0.8010 0.7990
10.943000 0.7990 0.7990 0.7970 0.7950 0.7950
10.977096 0.7950 0.7940 0.7940 0.7920 0.7890
11.011000 0.7850 0.7830 0.7820 0.7780 0.7770
11.045096 0.7770 0.7750 0.7750 0.7730 0.7710
11.079000 0.7700 0.7700 0.7700 0.7680 0.7680
11.113096 0.7660 0.7630 0.7610 0.7590 0.7590
11.147000 0.7580 0.7530 0.7510 0.7490 0.7490
11.181096 0.7490 0.7470 0.7420 0.7390 0.7350
11.215000 0.7340 0.7320 0.7320 0.7300 0.7300
11.249096 0.7300 0.7280 0.7250 0.7220 0.7220
11.283000 0.7250 0.7280 0.7280 0.7280 0.7320
11.317096 0.7340 0.7370 0.7390 0.7400 0.7390
11.352000 0.7390 0.7370 0.7370 0.7350 0.7370
11.386096 0.7370 0.7350 0.7320 0.7250 0.7130
11.420000 0.7110 0.7030 0.6920 0.6770 0.6620
11.454096 0.6430 0.6270 0.6140 0.6050 0.5980
11.488000 0.5960 0.5950 0.5950 0.5980 0.6140
11.522096 0.6200 0.6270 0.6380 0.6480 0.6580
11.556000 0.6630 0.6700 0.6740 0.6790 0.6800
11.590096 0.6800 0.6820 0.6820 0.6800 0.6790
11.624000 0.6770 0.6740 0.6700 0.6680 0.6670
11.658096 0.6650 0.6620 0.6580 0.6510 0.6500
11.692000 0.6460 0.6430 0.6410 0.6390 0.6380
11.726096 0.6340 0.6320 0.6290 0.6270 0.6240
11.760000 0.6220 0.6220 0.6220 0.6200 0.6190
11.794096 0.6170 0.6120 0.6070 0.6050 0.6050
11.829000 0.6020 0.6000 0.5980 0.5960 0.5900
11.863096 0.5880 0.5840 0.5830 0.5830 0.5810
11.897000 0.5810 0.5790 0.5780 0.5760 0.5710
11.931096 0.5710 0.5710 0.5720 0.5740 0.5740
11.965000 0.5740 0.5760 0.5780 0.5810 0.5840
11.999096 0.5880 0.5930 0.5980 0.6030 0.6050
12.033000 0.6100 0.6140 0.6140 0.6170 0.6200
12.067096 0.6270 0.6270 0.6290 0.6310 0.6310
12.101000 0.6360 0.6430 0.6480 0.6510 0.6530
12.135096 0.6580 0.6630 0.6650 0.6670 0.6700
12.169000 0.6700 0.6720 0.6720 0.6720 0.6720
12.203096 0.6720 0.6700 0.6700 0.6700 0.6700
12.238000 0.6700 0.6720 0.6720 0.6740 0.6740
12.272096 0.6740 0.6770 0.6800 0.6870 0.6910
12.306000 0.6980 0.6990 0.7010 0.7080 0.7100
12.340096 0.7130 0.7180 0.7230 0.7280 0.7320
12.374000 0.7320 0.7320 0.7320 0.7340 0.7350
12.408096 0.7370 0.7370 0.7370 0.7350 0.7320
12.442000 0.7300 0.7300 0.7300 0.7280 0.7280
12.476096 0.7250 0.7230 0.7220 0.7200 0.7180
12.510000 0.7130 0.7100 0.7080 0.7010 0.6990
12.544096 0.6980 0.6960 0.6960 0.6910 0.6890
12.578000 0.6870 0.6860 0.6820 0.6800 0.6790
12.612096 0.6770 0.6720 0.6680 0.6650 0.6620
12.647000 0.6600 0.6580 0.6510 0.6480 0.6480
12.681096 0.6460 0.6460 0.6460 0.6460 0.6440
12.715000 0.6440 0.6460 0.6480 0.6500 0.6500
12.749096 0.6500 0.6500 0.6510 0.6530 0.6550
12.783000 0.6560 0.6580 0.6580 0.6600 0.6600
12.817096 0.6580 0.6510 0.6510 0.6510 0.6550
12.851000 0.6550 0.6550 0.6550 0.6550 0.6550
12.885096 0.6550 0.6550 0.6530 0.6530 0.6530
12.919000 0.6510 0.6500 0.6480 0.6460 0.6460
12.953096 0.6480 0.6500 0.6500 0.6500 0.6480
12.987000 0.6440 0.6430 0.6410 0.6390 0.6360
13.021096 0.6340 0.6340 0.6340 0.6320 0.6310
13.056000 0.6290 0.6270 0.6220 0.6200 0.6170
13.090096 0.6140 0.6140 0.6150 0.6150 0.6140
13.124000 0.6140 0.6140 0.6120 0.6100 0.6070
13.158096 0.6000 0.5960 0.5910 0.5900 0.5900
13.192000 0.5900 0.5880 0.5810 0.5720 0.5690
13.226096 0.5660 0.5620 0.5590 0.5570 0.5500
13.260000 0.5480 0.5470 0.5470 0.5470 0.5450
13.294096 0.5430 0.5400 0.5380 0.5380 0.5380
13.328000 0.5400 0.5400 0.5420 0.5450 0.5500
13.362096 0.5550 0.5590 0.5600 0.5670 0.5690
13.396000 0.5720 0.5780 0.5830 0.5900 0.5950
13.430096 0.5960 0.6030 0.6140 0.6190 0.6200
13.464000 0.6200 0.6240 0.6310 0.6360 0.6410
13.498096 0.6480 0.6500 0.6530 0.6620 0.6680
13.533000 0.6720 0.6770 0.6840 0.6910 0.6960
13.567096 0.7030 0.7100 0.7110 0.7150 0.7180
13.601000 0.7250 0.7340 0.7440 0.7530 0.7560
13.635096 0.7610 0.7630 0.7660 0.7700 0.7730
13.669000 0.7770 0.7820 0.7870 0.7890 0.7900
13.703096 0.7920 0.7950 0.7970 0.7990 0.7990
13.737000 0.8010 0.8020 0.8040 0.8040 0.8060
13.771096 0.8060 0.8060 0.8070 0.8090 0.8110
13.805000 0.8130 0.8160 0.8180 0.8180 0.8180
13.839096 0.8230 0.8260 0.8280 0.8280 0.8280
13.873000 0.8280 0.8300 0.8300 0.8300 0.8310
13.907096 0.8370 0.8380 0.8380 0.8380 0.8400
13.942000 0.8420 0.8420 0.8420 0.8430 0.8430
13.976096 0.8470 0.8470 0.8470 0.8490 0.8490
14.010000 0.8490 0.8420 0.8420 0.8400 0.8400
14.044096 0.8400 0.8400 0.8400 0.8400 0.8400
14.078000 0.8400 0.8380 0.8380 0.8400 0.8420
14.112096 0.8420 0.8420 0.8380 0.8330 0.8310
14.146000 0.8310 0.8300 0.8300 0.8300 0.8310
14.180096 0.8310 0.8280 0.8210 0.8140 0.8090
14.214000 0.8070 0.8040 0.8040 0.8010 0.7950
14.248096 0.7890 0.7830 0.7820 0.7780 0.7710
14.282000 0.7680 0.7610 0.7540 0.7490 0.7440
14.316096 0.7340 0.7280 0.7220 0.7160 0.7080
14.351000 0.6980 0.6870 0.6790 0.6720 0.6670
14.385096 0.6560 0.6500 0.6390 0.6260 0.6140
14.419000 0.6030 0.5980 0.5880 0.5810 0.5740
14.453096 0.5640 0.5570 0.5480 0.5420 0.5380
14.487000 0.5330 0.5280 0.5210 0.5190 0.5190
14.521096 0.5210 0.5230 0.5260 0.5300 0.5350
14.555000 0.5450 0.5540 0.5590 0.5690 0.5950
14.589096 0.6030 0.6140 0.6290 0.6430 0.6560
14.623000 0.6630 0.6770 0.6870 0.6990 0.7100
14.657096 0.7200 0.7300 0.7400 0.7490 0.7530
14.691000 0.7580 0.7660 0.7730 0.7780 0.7800
14.725096 0.7870 0.7890 0.7900 0.7970 0.8010
14.759000 0.8010 0.8040 0.8090 0.8130 0.8180
14.793096 0.8180 0.8190 0.8210 0.8230 0.8230
14.828000 0.8210 0.8190 0.8180 0.8180 0.8190
14.862096 0.8210 0.8230 0.8230 0.8260 0.8260
14.896000 0.8280 0.8300 0.8310 0.8300 0.8280
14.930096 0.8260 0.8260 0.8300 0.8310 0.8310
14.964000 0.8300 0.8280 0.8280 0.8260 0.8230
14.998096 0.8180 0.8130 0.8060 0.7990 0.7920
15.032000 0.7900 0.7900 0.7890 0.7870 0.7870
15.066096 0.7990 0.8010 0.8020 0.8070 0.8110
15.100000 0.8140 0.8160 0.8180 0.8180 0.8190
15.134096 0.8210 0.8230 0.8250 0.8260 0.8280
15.168000 0.8300 0.8300 0.8280 0.8260 0.8250
15.202096 0.8250 0.8190 0.8190 0.8180 0.8160
15.237000 0.8140 0.8140 0.8140 0.8130 0.8130
15.271096 0.8130 0.8130 0.8130 0.8130 0.8130
15.305000 0.8130 0.8130 0.8130 0.8090 0.8090
15.339096 0.8040 0.8020 0.8010 0.7990 0.7990
15.373000 0.7990 0.7950 0.7940 0.7940 0.7970
15.407096 0.8010 0.8010 0.8010 0.8010 0.7990
15.441000 0.7950 0.7920 0.7900 0.7890 0.7900
15.475096 0.7920 0.7920 0.7900 0.7890 0.7870
15.509000 0.7890 0.7870 0.7870 0.7870 0.7850
15.543096 0.7870 0.7890 0.7890 0.7870 0.7850
15.577000 0.7850 0.7850 0.7850 0.7830 0.7820
15.611096 0.7800 0.7800 0.7820 0.7820 0.7830
15.646000 0.7830 0.7800 0.7780 0.7770 0.7780
15.680096 0.7780 0.7780 0.7780 0.7780 0.7780
15.714000 0.7780 0.7770 0.7750 0.7730 0.7710
15.748096 0.7700 0.7680 0.7680 0.7680 0.7680
15.782000 0.7660 0.7680 0.7680 0.7680 0.7650
15.816096 0.7650 0.7630 0.7630 0.7610 0.7610
15.850000 0.7590 0.7590 0.7590 0.7590 0.7580
15.884096 0.7560 0.7560 0.7540 0.7530 0.7510
15.918000 0.7510 0.7510 0.7470 0.7420 0.7420
15.952096 0.7420 0.7400 0.7400 0.7400 0.7400
15.986000 0.7370
##END=
