##TITLE=ACETAMIDE, N-2-CYCLOHEXYL-4-METHYLPHENYL-
##JCAMP-DX=4.24
##DATA TYPE=INFRARED SPECTRUM
##CLASS=COBLENTZ III
##ORIGIN=MONSANTO (J. FREEMAN)
##OWNER=COBLENTZ SOCIETY
Collection (C) 2018 copyright by the U.S. Secretary of Commerce
on behalf of the United States of America. All rights reserved.
##DATE=1959/06/30
##NAMES=N-(2-cyclohexyl-4-methylphenyl)acetamide
ACETANILIDE, 2-CYCLOHEXYL-4-METHYL-
##MOLFORM=C15 H21 N O
##SOURCE REFERENCE=COBLENTZ NO. 9676
##$NIST ID=B6009676
##$NIST SOURCE=COBLENTZ
##$NIST IMAGE=cob9676
##SPECTROMETER/DATA SYSTEM=BECKMAN IR-4 (HYBRID PRISM-GRATING)
##INSTRUMENT PARAMETERS=NaCl PRISM
##STATE=SOLID (NUJOL MULL)
$$SPECTRAL CONTAMINATION DUE TO OIL AROUND 2900, 1450, 1380 CM^-^1
##SAMPLING PROCEDURE=TRANSMISSION
##RESOLUTION=2
##DATA PROCESSING=DIGITIZED BY NIST FROM HARD COPY (FROM TWO SEGMENTS)
##XUNITS=MICROMETERS
##YUNITS=TRANSMITTANCE
##XFACTOR=1.000000
##YFACTOR=1
##DELTAX=0.006127
##FIRSTX=0.994
##LASTX=15.9632
##FIRSTY=0.768
##MAXX=15.9632
##MINX=0.994
##MAXY=0.951
##MINY=0.0373423
##NPOINTS=2444
##XYDATA=(X++(Y..Y))
0.994000 0.7680 0.7690 0.7710 0.7681 0.7690
1.024637 0.7709 0.7719 0.7729 0.7730 0.7739
1.055274 0.7758 0.7760 0.7777 0.7797 0.7817
1.085911 0.7828 0.7847 0.7858 0.7876 0.7888
1.116547 0.7899 0.7918 0.7938 0.7949 0.7959
1.147184 0.7960 0.7986 0.7999 0.8009 0.8018
1.177821 0.8028 0.8046 0.8058 0.8076 0.8088
1.208458 0.8105 0.8118 0.8127 0.8137 0.8147
1.239095 0.8164 0.8170 0.8177 0.8187 0.8197
1.269732 0.8213 0.8220 0.8233 0.8246 0.8256
1.300369 0.8260 0.8275 0.8287 0.8297 0.8307
1.331006 0.8310 0.8330 0.8347 0.8357 0.8360
1.361642 0.8366 0.8376 0.8392 0.8400 0.8406
1.392279 0.8410 0.8416 0.8420 0.8425 0.8430
1.422916 0.8440 0.8450 0.8455 0.8460 0.8465
1.453553 0.8470 0.8474 0.8480 0.8484 0.8498
1.484190 0.8510 0.8514 0.8520 0.8524 0.8530
1.514827 0.8533 0.8540 0.8540 0.8543 0.8550
1.545464 0.8550 0.8550 0.8550 0.8550 0.8550
1.576101 0.8546 0.8540 0.8540 0.8540 0.8550
1.606737 0.8570 0.8573 0.8583 0.8590 0.8595
1.637374 0.8610 0.8615 0.8632 0.8640 0.8642
1.668011 0.8652 0.8660 0.8665 0.8690 0.8692
1.698648 0.8700 0.8701 0.8710 0.8711 0.8720
1.729285 0.8722 0.8740 0.8741 0.8750 0.8750
1.759922 0.8760 0.8760 0.8770 0.8780 0.8780
1.790559 0.8800 0.8801 0.8810 0.8810 0.8811
1.821196 0.8820 0.8821 0.8830 0.8830 0.8840
1.851832 0.8840 0.8840 0.8860 0.8870 0.8870
1.882469 0.8870 0.8879 0.8880 0.8880 0.8889
1.913106 0.8890 0.8908 0.8910 0.8910 0.8918
1.943743 0.8920 0.8920 0.8920 0.8920 0.8920
1.974380 0.8920 0.8929 0.8930 0.8939 0.8940
2.005017 0.8940 0.8940 0.8940 0.8940 0.8940
2.035654 0.8948 0.8950 0.8950 0.8966 0.8970
2.066291 0.8970 0.8970 0.8977 0.8980 0.8980
2.096927 0.8980 0.8987 0.8990 0.8990 0.8990
2.127564 0.8996 0.9000 0.9006 0.9022 0.9030
2.158201 0.9030 0.9030 0.9030 0.9030 0.9030
2.188838 0.9030 0.9020 0.9000 0.8970 0.8945
2.219475 0.8935 0.8919 0.8898 0.8884 0.8868
2.250112 0.8843 0.8819 0.8793 0.8764 0.8728
2.280749 0.8705 0.8705 0.8715 0.8734 0.8759
2.311385 0.8788 0.8819 0.8843 0.8860 0.8864
2.342022 0.8874 0.8884 0.8890 0.8890 0.8897
2.372659 0.8910 0.8910 0.8913 0.8920 0.8923
2.403296 0.8933 0.8943 0.8950 0.8950 0.8955
2.433933 0.8970 0.8972 0.8984 0.9002 0.9010
2.464570 0.9014 0.9030 0.9033 0.9040 0.9043
2.495207 0.9053 0.9060 0.9063 0.9070 0.9070
2.525844 0.9074 0.9090 0.9090 0.9093 0.9110
2.556480 0.9110 0.9111 0.9120 0.9120 0.9120
2.587117 0.9122 0.9140 0.9140 0.9140 0.9140
2.617754 0.9140 0.9140 0.9140 0.9140 0.9140
2.648391 0.9140 0.9140 0.9141 0.9151 0.9160
2.679028 0.9160 0.9160 0.9160 0.9160 0.9160
2.709665 0.9160 0.9160 0.9150 0.9150 0.9150
2.740302 0.9150 0.9140 0.9140 0.9140 0.9122
2.770939 0.9120 0.9111 0.9101 0.9091 0.9073
2.801575 0.9070 0.9070 0.9062 0.9060 0.9052
2.832212 0.9050 0.9050 0.9050 0.9050 0.9050
2.862849 0.9050 0.9050 0.9050 0.9050 0.9050
2.893486 0.9050 0.9050 0.9050 0.9042 0.9032
2.924123 0.9030 0.9015 0.8995 0.8960 0.8928
2.954760 0.8891 0.8837 0.8786 0.8723 0.8654
2.985397 0.8610 0.8516 0.8330 0.8062 0.7728
3.016034 0.7049 0.6407 0.5923 0.5434 0.4694
3.046670 0.4025 0.3625 0.3285 0.3089 0.3040
3.077307 0.3030 0.3044 0.3437 0.4254 0.4881
3.107944 0.5204 0.5566 0.5924 0.6158 0.6349
3.138581 0.6542 0.6807 0.7071 0.7173 0.7267
3.169218 0.7371 0.7457 0.7517 0.7593 0.7697
3.199855 0.7793 0.7856 0.7884 0.7890 0.7886
3.230492 0.7859 0.7786 0.7678 0.7498 0.7248
3.261128 0.7070 0.6878 0.6692 0.6520 0.6451
3.291765 0.6415 0.6385 0.6295 0.6120 0.5912
3.322402 0.5652 0.5210 0.4227 0.3494 0.2813
3.353039 0.2107 0.1644 0.1388 0.1149 0.0904
3.383676 0.0690 0.0541 0.0379 0.0373 0.0396
3.414313 0.0464 0.0686 0.1049 0.2003 0.2011
3.444950 0.1932 0.1863 0.1794 0.1726 0.1646
3.475587 0.1569 0.1541 0.1566 0.1904 0.2300
3.506223 0.3569 0.4828 0.5970 0.7079 0.7373
3.536860 0.7491 0.7591 0.7753 0.7895 0.8034
3.567497 0.8155 0.8265 0.8357 0.8448 0.8528
3.598134 0.8588 0.8647 0.8707 0.8719 0.8720
3.628771 0.8720 0.8720 0.8738 0.8749 0.8767
3.659408 0.8778 0.8797 0.8808 0.8818 0.8820
3.690045 0.8820 0.8812 0.8810 0.8802 0.8800
3.720682 0.8785 0.8794 0.8807 0.8817 0.8827
3.751318 0.8837 0.8860 0.8877 0.8886 0.8902
3.781955 0.8916 0.8932 0.8946 0.8962 0.8970
3.812592 0.8976 0.8980 0.8985 0.8990 0.8997
3.843229 0.9000 0.9019 0.9036 0.9046 0.9056
3.873866 0.9078 0.9108 0.9132 0.9151 0.9165
3.904503 0.9175 0.9180 0.9180 0.9190 0.9200
3.935140 0.9200 0.9200 0.9200 0.9200 0.9204
3.965777 0.9210 0.9214 0.9220 0.9220 0.9220
3.996413 0.9220 0.9220 0.9220 0.9223 0.9230
4.027050 0.9233 0.9240 0.9246 0.9263 0.9273
4.057687 0.9280 0.9282 0.9290 0.9293 0.9300
4.088324 0.9300 0.9300 0.9300 0.9300 0.9300
4.118961 0.9300 0.9297 0.9287 0.9280 0.9278
4.149598 0.9268 0.9256 0.9240 0.9244 0.9262
4.180235 0.9272 0.9280 0.9280 0.9278 0.9270
4.210872 0.9270 0.9270 0.9271 0.9280 0.9280
4.241508 0.9280 0.9280 0.9280 0.9280 0.9280
4.272145 0.9280 0.9281 0.9289 0.9283 0.9302
4.302782 0.9320 0.9320 0.9320 0.9321 0.9330
4.333419 0.9320 0.9320 0.9320 0.9320 0.9320
4.364056 0.9320 0.9320 0.9320 0.9320 0.9320
4.394693 0.9320 0.9320 0.9320 0.9329 0.9330
4.425330 0.9330 0.9339 0.9340 0.9340 0.9340
4.455966 0.9340 0.9340 0.9348 0.9350 0.9350
4.486603 0.9350 0.9350 0.9350 0.9365 0.9370
4.517240 0.9370 0.9370 0.9370 0.9378 0.9380
4.547877 0.9380 0.9380 0.9380 0.9388 0.9390
4.578514 0.9390 0.9390 0.9390 0.9390 0.9390
4.609151 0.9390 0.9383 0.9380 0.9360 0.9350
4.639788 0.9362 0.9382 0.9402 0.9410 0.9422
4.670425 0.9430 0.9430 0.9430 0.9430 0.9430
4.701061 0.9430 0.9430 0.9430 0.9430 0.9430
4.731698 0.9430 0.9430 0.9430 0.9430 0.9430
4.762335 0.9430 0.9430 0.9435 0.9440 0.9440
4.792972 0.9435 0.9430 0.9430 0.9430 0.9430
4.823609 0.9438 0.9450 0.9450 0.9450 0.9450
4.854246 0.9450 0.9450 0.9450 0.9446 0.9437
4.884883 0.9430 0.9430 0.9430 0.9424 0.9410
4.915520 0.9415 0.9430 0.9430 0.9430 0.9430
4.946156 0.9430 0.9437 0.9453 0.9460 0.9463
4.976793 0.9470 0.9470 0.9467 0.9457 0.9448
5.007430 0.9438 0.9430 0.9430 0.9434 0.9452
5.038067 0.9462 0.9470 0.9470 0.9470 0.9470
5.068704 0.9470 0.9470 0.9470 0.9470 0.9470
5.099341 0.9470 0.9470 0.9470 0.9470 0.9470
5.129978 0.9473 0.9490 0.9490 0.9490 0.9490
5.160615 0.9487 0.9470 0.9470 0.9470 0.9468
5.191251 0.9460 0.9460 0.9458 0.9450 0.9448
5.221888 0.9440 0.9440 0.9440 0.9440 0.9440
5.252525 0.9438 0.9430 0.9425 0.9410 0.9408
5.283162 0.9400 0.9398 0.9390 0.9392 0.9400
5.313799 0.9403 0.9415 0.9433 0.9440 0.9440
5.344436 0.9440 0.9443 0.9450 0.9450 0.9452
5.375073 0.9460 0.9460 0.9460 0.9460 0.9460
5.405709 0.9460 0.9460 0.9460 0.9460 0.9460
5.436346 0.9460 0.9460 0.9460 0.9460 0.9458
5.466983 0.9450 0.9450 0.9450 0.9450 0.9448
5.497620 0.9442 0.9448 0.9440 0.9438 0.9430
5.528257 0.9430 0.9430 0.9430 0.9433 0.9440
5.558894 0.9440 0.9437 0.9430 0.9430 0.9430
5.589531 0.9430 0.9430 0.9430 0.9430 0.9430
5.620168 0.9430 0.9430 0.9430 0.9430 0.9430
5.650804 0.9427 0.9410 0.9410 0.9408 0.9400
5.681441 0.9398 0.9390 0.9390 0.9390 0.9390
5.712078 0.9390 0.9390 0.9390 0.9390 0.9390
5.742715 0.9390 0.9390 0.9390 0.9390 0.9393
5.773352 0.9403 0.9410 0.9410 0.9408 0.9399
5.803989 0.9383 0.9333 0.9286 0.9256 0.9229
5.834626 0.9219 0.9209 0.9196 0.9163 0.9111
5.865263 0.9066 0.9046 0.9025 0.8989 0.8931
5.895899 0.8885 0.8855 0.8821 0.8767 0.8685
5.926536 0.8568 0.8410 0.8176 0.7930 0.7782
5.957173 0.7428 0.6695 0.6363 0.6031 0.5750
5.987810 0.5543 0.4696 0.2418 0.1363 0.1047
6.018447 0.1045 0.1101 0.1264 0.1495 0.1815
6.049084 0.2160 0.2464 0.2681 0.2876 0.3081
6.079721 0.3510 0.4119 0.4791 0.5192 0.5672
6.110358 0.6362 0.6746 0.7006 0.7211 0.7490
6.140994 0.7640 0.7760 0.7756 0.7740 0.7728
6.171631 0.7683 0.7643 0.7529 0.7325 0.7278
6.202268 0.7272 0.7309 0.7426 0.7556 0.7722
6.232905 0.7826 0.7922 0.8037 0.8165 0.8264
6.263542 0.8314 0.8353 0.8360 0.8360 0.8351
6.294179 0.8300 0.8230 0.8110 0.8003 0.7975
6.324816 0.8015 0.8107 0.8198 0.8244 0.8266
6.355453 0.8292 0.8298 0.8288 0.8276 0.8256
6.386089 0.8227 0.8165 0.8093 0.8010 0.7911
6.416726 0.7799 0.7681 0.7538 0.7326 0.7168
6.447363 0.6908 0.6570 0.6170 0.5749 0.5292
6.478000 0.4532 0.4203 0.3957 0.3785 0.3532
6.508637 0.3262 0.2994 0.2737 0.2459 0.2031
6.539274 0.1990 0.1996 0.2037 0.2130 0.2242
6.569911 0.2357 0.2459 0.2617 0.2794 0.3083
6.600547 0.3355 0.3644 0.3977 0.4373 0.4736
6.631184 0.4804 0.4864 0.4924 0.4980 0.5018
6.661821 0.5065 0.5158 0.5255 0.5358 0.5501
6.692458 0.5656 0.5837 0.6020 0.6107 0.6133
6.723095 0.6152 0.6162 0.6168 0.6158 0.6147
6.753732 0.6127 0.6081 0.5886 0.5661 0.5407
6.784369 0.5095 0.4632 0.4392 0.4158 0.3954
6.815006 0.3778 0.3628 0.3526 0.3468 0.3462
6.845642 0.3472 0.3482 0.3490 0.3488 0.3480
6.876279 0.3475 0.3460 0.3462 0.3483 0.3539
6.906916 0.3614 0.3716 0.3775 0.3904 0.4099
6.937553 0.4333 0.4595 0.4856 0.4986 0.5128
6.968190 0.5339 0.5504 0.5635 0.5731 0.5845
6.998827 0.5945 0.6084 0.6164 0.6242 0.6320
7.029464 0.6407 0.6513 0.6683 0.6743 0.6794
7.060101 0.6816 0.6844 0.6862 0.6877 0.6905
7.090737 0.6925 0.6945 0.6965 0.6985 0.7008
7.121374 0.7033 0.7043 0.7055 0.7075 0.7091
7.152011 0.7104 0.7131 0.7141 0.7150 0.7150
7.182648 0.7150 0.7147 0.7127 0.7076 0.6833
7.213285 0.6600 0.6402 0.6039 0.5680 0.5447
7.243922 0.5184 0.4269 0.4207 0.4138 0.4076
7.274559 0.4023 0.4000 0.4002 0.4017 0.4098
7.305196 0.4345 0.4590 0.4817 0.4939 0.5102
7.335832 0.5487 0.6208 0.6838 0.7139 0.7334
7.366469 0.7386 0.7444 0.7483 0.7492 0.7502
7.397106 0.7510 0.7510 0.7510 0.7510 0.7510
7.427743 0.7508 0.7500 0.7500 0.7502 0.7520
7.458380 0.7570 0.7622 0.7680 0.7730 0.7772
7.489017 0.7780 0.7784 0.7800 0.7800 0.7800
7.519654 0.7800 0.7795 0.7778 0.7750 0.7665
7.550291 0.7568 0.7471 0.7378 0.7370 0.7371
7.580927 0.7381 0.7391 0.7400 0.7399 0.7387
7.611564 0.7366 0.7335 0.7289 0.7197 0.7084
7.642201 0.6925 0.6689 0.6298 0.6024 0.5857
7.672838 0.5605 0.5339 0.5046 0.4826 0.4814
7.703475 0.4834 0.4900 0.5128 0.5337 0.5518
7.734112 0.5740 0.5970 0.6204 0.6452 0.6688
7.764749 0.6903 0.7095 0.7252 0.7369 0.7463
7.795385 0.7513 0.7576 0.7671 0.7753 0.7842
7.826022 0.7923 0.8004 0.8033 0.8051 0.8060
7.856659 0.8059 0.8050 0.8047 0.8026 0.7989
7.887296 0.7932 0.7891 0.7848 0.7840 0.7842
7.917933 0.7861 0.7919 0.7966 0.7996 0.8034
7.948570 0.8096 0.8180 0.8315 0.8444 0.8504
7.979207 0.8559 0.8604 0.8652 0.8665 0.8680
8.009844 0.8680 0.8674 0.8657 0.8644 0.8608
8.040480 0.8550 0.8556 0.8581 0.8627 0.8680
8.071117 0.8690 0.8750 0.8802 0.8808 0.8797
8.101754 0.8780 0.8780 0.8785 0.8820 0.8872
8.132391 0.8886 0.8918 0.8956 0.8984 0.9006
8.163028 0.9032 0.9040 0.9038 0.9024 0.8997
8.193665 0.8985 0.8965 0.8948 0.8933 0.8905
8.224302 0.8895 0.8915 0.8932 0.8942 0.8953
8.254939 0.8973 0.8993 0.9014 0.9043 0.9065
8.285575 0.9103 0.9124 0.9153 0.9174 0.9202
8.316212 0.9210 0.9214 0.9235 0.9260 0.9262
8.346849 0.9272 0.9282 0.9292 0.9300 0.9304
8.377486 0.9320 0.9320 0.9320 0.9320 0.9324
8.408123 0.9340 0.9340 0.9340 0.9338 0.9330
8.438760 0.9327 0.9312 0.9285 0.9257 0.9207
8.469397 0.9165 0.9147 0.9140 0.9140 0.9141
8.500034 0.9159 0.9213 0.9234 0.9264 0.9291
8.530670 0.9303 0.9321 0.9330 0.9330 0.9328
8.561307 0.9320 0.9320 0.9320 0.9320 0.9320
8.591944 0.9320 0.9322 0.9330 0.9330 0.9330
8.622581 0.9330 0.9328 0.9315 0.9295 0.9278
8.653218 0.9270 0.9261 0.9218 0.9175 0.9154
8.683855 0.9132 0.9107 0.9103 0.9118 0.9146
8.714492 0.9163 0.9181 0.9218 0.9247 0.9272
8.745128 0.9278 0.9268 0.9257 0.9237 0.9217
8.775765 0.9194 0.9157 0.9137 0.9123 0.9142
8.806402 0.9154 0.9176 0.9208 0.9250 0.9300
8.837039 0.9348 0.9384 0.9406 0.9432 0.9440
8.867676 0.9443 0.9450 0.9450 0.9453 0.9460
8.898313 0.9462 0.9470 0.9475 0.9490 0.9491
8.928950 0.9500 0.9500 0.9500 0.9500 0.9500
8.959587 0.9500 0.9500 0.9500 0.9500 0.9500
8.990223 0.9500 0.9500 0.9500 0.9500 0.9500
9.020860 0.9500 0.9500 0.9500 0.9500 0.9500
9.051497 0.9500 0.9500 0.9500 0.9498 0.9486
9.082134 0.9466 0.9446 0.9423 0.9398 0.9387
9.112771 0.9380 0.9385 0.9411 0.9443 0.9450
9.143408 0.9450 0.9450 0.9450 0.9450 0.9450
9.174045 0.9450 0.9450 0.9450 0.9450 0.9449
9.204682 0.9440 0.9440 0.9439 0.9430 0.9430
9.235318 0.9430 0.9426 0.9410 0.9410 0.9410
9.265955 0.9408 0.9400 0.9400 0.9398 0.9390
9.296592 0.9390 0.9390 0.9390 0.9390 0.9390
9.327229 0.9390 0.9392 0.9400 0.9400 0.9400
9.357866 0.9403 0.9410 0.9418 0.9440 0.9440
9.388503 0.9440 0.9440 0.9440 0.9440 0.9442
9.419140 0.9448 0.9438 0.9430 0.9430 0.9427
9.449777 0.9410 0.9408 0.9398 0.9388 0.9380
9.480413 0.9378 0.9370 0.9366 0.9350 0.9348
9.511050 0.9338 0.9330 0.9324 0.9298 0.9285
9.541687 0.9260 0.9225 0.9202 0.9172 0.9142
9.572324 0.9115 0.9092 0.9065 0.9048 0.9040
9.602961 0.9039 0.9026 0.8993 0.8938 0.8849
9.633598 0.8775 0.8732 0.8673 0.8622 0.8563
9.664235 0.8528 0.8520 0.8520 0.8522 0.8534
9.694872 0.8557 0.8599 0.8652 0.8723 0.8791
9.725508 0.8848 0.8919 0.8954 0.8974 0.8992
9.756145 0.9007 0.9030 0.9030 0.9025 0.9005
9.786782 0.8979 0.8945 0.8925 0.8891 0.8835
9.817419 0.8788 0.8684 0.8629 0.8579 0.8480
9.848056 0.8283 0.8109 0.7984 0.7941 0.7883
9.878693 0.7831 0.7771 0.7716 0.7690 0.7694
9.909330 0.7737 0.7871 0.7985 0.8117 0.8253
9.939966 0.8371 0.8477 0.8567 0.8656 0.8734
9.970603 0.8794 0.8857 0.8917 0.8950 0.8987
10.001240 0.9017 0.9045 0.9062 0.9074 0.9091
10.031877 0.9100 0.9101 0.9110 0.9110 0.9109
10.062514 0.9100 0.9100 0.9099 0.9090 0.9087
10.093151 0.9070 0.9070 0.9070 0.9070 0.9070
10.123788 0.9070 0.9070 0.9070 0.9070 0.9068
10.154425 0.9060 0.9058 0.9048 0.9038 0.9024
10.185061 0.8988 0.8934 0.8904 0.8869 0.8812
10.215698 0.8729 0.8586 0.8394 0.8239 0.8047
10.246335 0.7872 0.7685 0.7507 0.7382 0.7398
10.276972 0.7457 0.7522 0.7690 0.7913 0.8151
10.307609 0.8380 0.8593 0.8752 0.8845 0.8951
10.338246 0.9009 0.9054 0.9079 0.9124 0.9144
10.368883 0.9162 0.9170 0.9175 0.9206 0.9232
10.399520 0.9245 0.9262 0.9272 0.9285 0.9300
10.430156 0.9304 0.9320 0.9320 0.9320 0.9320
10.460793 0.9320 0.9320 0.9323 0.9330 0.9330
10.491430 0.9330 0.9330 0.9330 0.9330 0.9328
10.522067 0.9315 0.9285 0.9255 0.9227 0.9204
10.552704 0.9170 0.9161 0.9103 0.9048 0.8960
10.583341 0.8864 0.8780 0.8692 0.8658 0.8650
10.613978 0.8652 0.8672 0.8726 0.8764 0.8842
10.644615 0.8925 0.8980 0.9022 0.9072 0.9120
10.675251 0.9155 0.9172 0.9178 0.9166 0.9150
10.705888 0.9146 0.9119 0.9108 0.9086 0.9058
10.736525 0.9039 0.9031 0.9042 0.9061 0.9073
10.767162 0.9093 0.9115 0.9142 0.9153 0.9175
10.797799 0.9203 0.9227 0.9263 0.9283 0.9304
10.828436 0.9322 0.9334 0.9354 0.9372 0.9380
10.859073 0.9380 0.9380 0.9380 0.9378 0.9370
10.889709 0.9370 0.9370 0.9370 0.9370 0.9373
10.920346 0.9380 0.9380 0.9380 0.9382 0.9396
10.950983 0.9430 0.9431 0.9440 0.9441 0.9450
10.981620 0.9451 0.9460 0.9460 0.9460 0.9460
11.012257 0.9460 0.9460 0.9460 0.9460 0.9460
11.042894 0.9460 0.9460 0.9460 0.9460 0.9460
11.073531 0.9460 0.9458 0.9450 0.9450 0.9450
11.104168 0.9450 0.9450 0.9448 0.9440 0.9437
11.134804 0.9425 0.9407 0.9397 0.9387 0.9372
11.165441 0.9342 0.9309 0.9258 0.9176 0.9094
11.196078 0.9055 0.9022 0.8974 0.8931 0.8878
11.226715 0.8870 0.8873 0.8896 0.8936 0.8974
11.257352 0.8998 0.9038 0.9078 0.9118 0.9154
11.287989 0.9178 0.9216 0.9246 0.9272 0.9285
11.318626 0.9307 0.9335 0.9350 0.9350 0.9355
11.349263 0.9370 0.9372 0.9380 0.9380 0.9376
11.379899 0.9349 0.9339 0.9330 0.9325 0.9288
11.410536 0.9266 0.9233 0.9175 0.9131 0.9060
11.441173 0.8995 0.8896 0.8750 0.8556 0.8320
11.471810 0.8217 0.8203 0.8240 0.8363 0.8492
11.502447 0.8594 0.8699 0.8793 0.8903 0.9022
11.533084 0.9178 0.9324 0.9348 0.9387 0.9415
11.563721 0.9435 0.9455 0.9470 0.9475 0.9490
11.594358 0.9493 0.9503 0.9510 0.9510 0.9510
11.624994 0.9510 0.9510 0.9509 0.9499 0.9486
11.655631 0.9457 0.9439 0.9427 0.9407 0.9390
11.686268 0.9388 0.9380 0.9380 0.9382 0.9392
11.716905 0.9402 0.9414 0.9430 0.9432 0.9440
11.747542 0.9442 0.9450 0.9452 0.9460 0.9462
11.778179 0.9470 0.9470 0.9470 0.9470 0.9467
11.808816 0.9460 0.9460 0.9457 0.9445 0.9422
11.839453 0.9400 0.9397 0.9385 0.9365 0.9347
11.870089 0.9328 0.9315 0.9285 0.9254 0.9214
11.900726 0.9171 0.9108 0.9034 0.8995 0.8966
11.931363 0.8954 0.8972 0.8982 0.8994 0.9016
11.962000 0.9044 0.9066 0.9096 0.9126 0.9157
11.992637 0.9187 0.9217 0.9250 0.9285 0.9307
12.023274 0.9335 0.9350 0.9355 0.9372 0.9381
12.053911 0.9390 0.9390 0.9390 0.9390 0.9391
12.084547 0.9400 0.9401 0.9410 0.9410 0.9413
12.115184 0.9430 0.9430 0.9427 0.9410 0.9408
12.145821 0.9398 0.9388 0.9375 0.9346 0.9328
12.176458 0.9314 0.9288 0.9278 0.9268 0.9254
12.207095 0.9228 0.9211 0.9174 0.9137 0.9082
12.237732 0.9052 0.9020 0.8980 0.8940 0.8892
12.268369 0.8819 0.8732 0.8614 0.8471 0.8308
12.299006 0.8083 0.7817 0.7452 0.6731 0.6265
12.329642 0.5949 0.5660 0.5406 0.5371 0.5318
12.360279 0.5312 0.5326 0.5374 0.5489 0.5565
12.390916 0.5775 0.6066 0.6312 0.6552 0.6863
12.421553 0.7219 0.7424 0.7616 0.7784 0.7862
12.452190 0.8004 0.8122 0.8130 0.8101 0.7966
12.482827 0.7803 0.7630 0.7404 0.7103 0.6931
12.513464 0.6753 0.6581 0.6450 0.6452 0.6473
12.544101 0.6562 0.6710 0.6903 0.7110 0.7303
12.574737 0.7492 0.7574 0.7685 0.7919 0.8161
12.605374 0.8354 0.8518 0.8652 0.8756 0.8834
12.636011 0.8906 0.8982 0.9038 0.9078 0.9125
12.666648 0.9177 0.9207 0.9237 0.9262 0.9272
12.697285 0.9285 0.9307 0.9335 0.9357 0.9383
12.727922 0.9401 0.9410 0.9413 0.9430 0.9431
12.758559 0.9440 0.9441 0.9450 0.9450 0.9450
12.789196 0.9450 0.9450 0.9450 0.9450 0.9450
12.819832 0.9450 0.9450 0.9450 0.9450 0.9450
12.850469 0.9448 0.9440 0.9440 0.9440 0.9440
12.881106 0.9440 0.9438 0.9430 0.9430 0.9430
12.911743 0.9430 0.9425 0.9410 0.9410 0.9410
12.942380 0.9410 0.9407 0.9400 0.9400 0.9400
12.973017 0.9400 0.9400 0.9400 0.9400 0.9399
13.003654 0.9390 0.9390 0.9389 0.9380 0.9380
13.034291 0.9380 0.9378 0.9370 0.9370 0.9366
13.064927 0.9350 0.9350 0.9350 0.9348 0.9340
13.095564 0.9340 0.9340 0.9338 0.9330 0.9330
13.126201 0.9330 0.9330 0.9330 0.9330 0.9329
13.156838 0.9320 0.9318 0.9300 0.9299 0.9289
13.187475 0.9280 0.9274 0.9229 0.9219 0.9208
13.218112 0.9200 0.9197 0.9178 0.9170 0.9168
13.248749 0.9160 0.9158 0.9145 0.9117 0.9094
13.279385 0.9068 0.9058 0.9048 0.9040 0.9038
13.310022 0.9030 0.9032 0.9040 0.9042 0.9050
13.340659 0.9052 0.9062 0.9070 0.9075 0.9090
13.371296 0.9092 0.9102 0.9110 0.9110 0.9110
13.401933 0.9110 0.9110 0.9109 0.9099 0.9086
13.432570 0.9060 0.9059 0.9049 0.9039 0.9026
13.463207 0.9006 0.8986 0.8967 0.8947 0.8928
13.493844 0.8920 0.8918 0.8907 0.8888 0.8880
13.524480 0.8878 0.8868 0.8860 0.8856 0.8838
13.555117 0.8828 0.8818 0.8808 0.8795 0.8780
13.585754 0.8777 0.8767 0.8757 0.8747 0.8735
13.616391 0.8720 0.8717 0.8707 0.8698 0.8686
13.647028 0.8659 0.8649 0.8640 0.8639 0.8627
13.677665 0.8610 0.8609 0.8599 0.8587 0.8564
13.708302 0.8538 0.8526 0.8510 0.8506 0.8488
13.738939 0.8476 0.8458 0.8446 0.8428 0.8418
13.769575 0.8408 0.8395 0.8378 0.8370 0.8368
13.800212 0.8360 0.8358 0.8348 0.8336 0.8319
13.830849 0.8309 0.8299 0.8287 0.8258 0.8238
13.861486 0.8220 0.8217 0.8189 0.8176 0.8150
13.892123 0.8148 0.8140 0.8138 0.8130 0.8128
13.922760 0.8120 0.8120 0.8120 0.8120 0.8120
13.953397 0.8122 0.8130 0.8132 0.8142 0.8150
13.984034 0.8154 0.8172 0.8180 0.8182 0.8190
14.014670 0.8193 0.8200 0.8200 0.8205 0.8222
14.045307 0.8232 0.8240 0.8242 0.8252 0.8260
14.075944 0.8263 0.8280 0.8281 0.8290 0.8291
14.106581 0.8300 0.8301 0.8310 0.8311 0.8320
14.137218 0.8324 0.8342 0.8352 0.8364 0.8384
14.167855 0.8402 0.8410 0.8412 0.8420 0.8422
14.198492 0.8430 0.8434 0.8452 0.8462 0.8472
14.229128 0.8482 0.8499 0.8530 0.8532 0.8543
14.259765 0.8550 0.8558 0.8583 0.8590 0.8593
14.290402 0.8600 0.8603 0.8615 0.8630 0.8631
14.321039 0.8641 0.8650 0.8651 0.8663 0.8681
14.351676 0.8690 0.8691 0.8700 0.8702 0.8712
14.382313 0.8720 0.8724 0.8740 0.8742 0.8750
14.412950 0.8752 0.8762 0.8776 0.8804 0.8825
14.443587 0.8845 0.8860 0.8862 0.8872 0.8880
14.474223 0.8882 0.8890 0.8890 0.8890 0.8890
14.504860 0.8892 0.8911 0.8924 0.8955 0.8990
14.535497 0.8991 0.9000 0.9001 0.9010 0.9013
14.566134 0.9030 0.9030 0.9032 0.9040 0.9040
14.596771 0.9040 0.9040 0.9040 0.9040 0.9040
14.627408 0.9040 0.9040 0.9040 0.9040 0.9042
14.658045 0.9050 0.9050 0.9054 0.9074 0.9093
14.688682 0.9103 0.9110 0.9110 0.9110 0.9110
14.719318 0.9113 0.9120 0.9120 0.9120 0.9120
14.749955 0.9120 0.9120 0.9120 0.9120 0.9120
14.780592 0.9120 0.9120 0.9120 0.9120 0.9120
14.811229 0.9124 0.9136 0.9120 0.9118 0.9110
14.841866 0.9110 0.9110 0.9115 0.9140 0.9140
14.872503 0.9140 0.9140 0.9140 0.9140 0.9140
14.903140 0.9140 0.9136 0.9118 0.9110 0.9110
14.933777 0.9113 0.9125 0.9140 0.9140 0.9140
14.964413 0.9143 0.9153 0.9160 0.9160 0.9160
14.995050 0.9160 0.9160 0.9160 0.9161 0.9170
15.025687 0.9170 0.9170 0.9170 0.9170 0.9170
15.056324 0.9170 0.9170 0.9170 0.9170 0.9170
15.086961 0.9170 0.9168 0.9158 0.9148 0.9135
15.117598 0.9118 0.9110 0.9110 0.9110 0.9110
15.148235 0.9112 0.9120 0.9120 0.9120 0.9120
15.178872 0.9120 0.9120 0.9120 0.9119 0.9110
15.209508 0.9110 0.9109 0.9100 0.9099 0.9087
15.240145 0.9068 0.9058 0.9048 0.9038 0.9027
15.270782 0.9010 0.9007 0.8988 0.8978 0.8966
15.301419 0.8948 0.8940 0.8938 0.8930 0.8928
15.332056 0.8914 0.8888 0.8872 0.8838 0.8827
15.362693 0.8817 0.8810 0.8810 0.8807 0.8800
15.393330 0.8800 0.8800 0.8800 0.8800 0.8800
15.423966 0.8797 0.8780 0.8780 0.8779 0.8770
15.454603 0.8769 0.8760 0.8759 0.8749 0.8740
15.485240 0.8736 0.8716 0.8700 0.8698 0.8690
15.515877 0.8688 0.8680 0.8676 0.8658 0.8650
15.546514 0.8650 0.8648 0.8640 0.8640 0.8640
15.577151 0.8640 0.8644 0.8660 0.8665 0.8680
15.607788 0.8683 0.8690 0.8693 0.8700 0.8703
15.638425 0.8710 0.8710 0.8713 0.8725 0.8742
15.669061 0.8752 0.8760 0.8760 0.8760 0.8760
15.699698 0.8760 0.8760 0.8760 0.8762 0.8770
15.730335 0.8770 0.8772 0.8784 0.8804 0.8822
15.760972 0.8830 0.8832 0.8844 0.8862 0.8872
15.791609 0.8882 0.8890 0.8895 0.8910 0.8912
15.822246 0.8920 0.8922 0.8930 0.8934 0.8950
15.852883 0.8952 0.8971 0.8980 0.8981 0.8991
15.883520 0.9000 0.9001 0.9010 0.9012 0.9030
15.914156 0.9030 0.9032 0.9040 0.9040 0.9040
15.944793 0.9040 0.9040 0.9040 0.9040
##END=
