##TITLE=Propane, 1,3-bis(2-tert-butyl-4-methyl-anilino)-
##JCAMP-DX=4.24
##DATA TYPE=INFRARED SPECTRUM
##CLASS=COBLENTZ III
##ORIGIN=MONSANTO (J. FREEMAN)
##OWNER=Copyright (C) 1987 by the Coblentz Society
Collection (C) 2018 copyright by the U.S. Secretary of Commerce
on behalf of the United States of America. All rights reserved.
##DATE=1959/09/24
##NAMES=N<1>,N<3>-bis(2-tert-butyl-4-methylphenyl)-1,3-propanediamine
1,3-Propanediamine, N,N'-bis(2-tert-butyl-p-tolyl)-
##MOLFORM=C25 H38 N2
##SOURCE REFERENCE=COBLENTZ NO. 8506
##$NIST ID=B6008506
##$NIST SOURCE=COBLENTZ
##$NIST IMAGE=cob8506
##SPECTROMETER/DATA SYSTEM=BECKMAN IR-4 (HYBRID PRISM-GRATING)
##INSTRUMENT PARAMETERS=NaCl PRISM
##STATE=SOLID (OIL MULL)
$$SPECTRAL CONTAMINATION DUE TO OIL AROUND 2900, 1450, 720 CM^-^1
##SAMPLING PROCEDURE=TRANSMISSION
##RESOLUTION=2
##DATA PROCESSING=DIGITIZED BY COBLENTZ SOCIETY (BATCH II) FROM HARD COPY
##XUNITS=1/CM
##YUNITS=TRANSMITTANCE
##XFACTOR=1.0
##YFACTOR=1
##FIRSTX=626
##LASTX=4000
##FIRSTY=0.823
##MAXX=4000
##MINX=626
##MAXY=0.9341
##MINY=0.0015
##NPOINTS=3375
##XYDATA=(X++(Y..Y))
626.000000 0.8230 0.8190 0.8149 0.8120 0.8146
631.000000 0.8157 0.8122 0.8078 0.8032 0.7974
636.000000 0.7917 0.7872 0.7834 0.7834 0.7794
641.000000 0.7793 0.7800 0.7817 0.7838 0.7881
646.000000 0.7923 0.7964 0.8003 0.8027 0.8049
651.000000 0.8054 0.8050 0.8066 0.8090 0.8117
656.000000 0.8162 0.8180 0.8185 0.8134 0.8064
661.000000 0.7935 0.7738 0.7480 0.7253 0.7070
666.000000 0.6976 0.6957 0.7101 0.7258 0.7569
671.000000 0.8029 0.8299 0.8470 0.8562 0.8641
676.000000 0.8728 0.8816 0.8901 0.8932 0.8956
681.000000 0.8976 0.8996 0.8998 0.8986 0.8961
686.000000 0.8959 0.8962 0.8981 0.9008 0.9035
691.000000 0.9064 0.9102 0.9137 0.9174 0.9250
696.000000 0.9229 0.9221 0.9210 0.9209 0.9223
701.000000 0.9217 0.9204 0.9190 0.9176 0.9160
706.000000 0.9144 0.9128 0.9103 0.9078 0.9053
711.000000 0.9017 0.8978 0.8941 0.8903 0.8850
716.000000 0.8795 0.8742 0.8687 0.8629 0.8572
721.000000 0.8549 0.8552 0.8573 0.8599 0.8628
726.000000 0.8666 0.8710 0.8746 0.8777 0.8791
731.000000 0.8804 0.8806 0.8808 0.8811 0.8813
736.000000 0.8816 0.8821 0.8835 0.8848 0.8870
741.000000 0.8905 0.8941 0.8980 0.9014 0.9031
746.000000 0.9048 0.9054 0.9052 0.9050 0.9046
751.000000 0.9041 0.9036 0.9021 0.9004 0.8988
756.000000 0.8961 0.8934 0.8896 0.8852 0.8801
761.000000 0.8743 0.8653 0.8521 0.8360 0.8168
766.000000 0.7953 0.7669 0.7156 0.6331 0.5475
771.000000 0.4631 0.3789 0.2949 0.2475 0.2489
776.000000 0.3385 0.4198 0.5009 0.5817 0.6578
781.000000 0.6860 0.7203 0.7532 0.7650 0.7723
786.000000 0.7757 0.7739 0.7688 0.7605 0.7505
791.000000 0.7427 0.7376 0.7336 0.7299 0.7197
796.000000 0.6918 0.6269 0.5881 0.5572 0.4807
801.000000 0.3586 0.2441 0.1959 0.1571 0.1496
806.000000 0.1491 0.2315 0.3047 0.3778 0.4507
811.000000 0.5234 0.5741 0.6211 0.6873 0.7124
816.000000 0.7406 0.7667 0.7783 0.7892 0.8000
821.000000 0.8102 0.8176 0.8227 0.8263 0.8301
826.000000 0.8337 0.8383 0.8473 0.8581 0.8710
831.000000 0.8803 0.8873 0.8942 0.8996 0.9049
836.000000 0.9083 0.9114 0.9127 0.9141 0.9154
841.000000 0.9168 0.9180 0.9194 0.9207 0.9220
846.000000 0.9233 0.9242 0.9247 0.9253 0.9258
851.000000 0.9263 0.9268 0.9274 0.9279 0.9285
856.000000 0.9290 0.9296 0.9302 0.9309 0.9315
861.000000 0.9320 0.9326 0.9327 0.9328 0.9329
866.000000 0.9341 0.9324 0.9313 0.9289 0.9226
871.000000 0.9118 0.8996 0.8816 0.8596 0.8204
876.000000 0.7982 0.7798 0.7152 0.6400 0.5660
881.000000 0.5550 0.6051 0.6772 0.7492 0.8204
886.000000 0.8401 0.8607 0.8780 0.8881 0.8958
891.000000 0.9025 0.9060 0.9086 0.9108 0.9128
896.000000 0.9147 0.9155 0.9163 0.9171 0.9157
901.000000 0.9148 0.9125 0.9096 0.9061 0.9019
906.000000 0.8970 0.8921 0.8849 0.8760 0.8636
911.000000 0.8500 0.8355 0.8164 0.8160 0.8199
916.000000 0.8310 0.8346 0.8333 0.8166 0.7984
921.000000 0.7803 0.7632 0.7626 0.7822 0.8021
926.000000 0.8181 0.8210 0.8222 0.8226 0.8230
931.000000 0.8289 0.8413 0.8538 0.8661 0.8784
936.000000 0.8892 0.8948 0.8987 0.9008 0.9020
941.000000 0.9029 0.9036 0.9054 0.9031 0.9023
946.000000 0.9014 0.9005 0.8999 0.8992 0.8986
951.000000 0.8982 0.8980 0.8978 0.8981 0.8986
956.000000 0.8989 0.8989 0.8990 0.8989 0.8984
961.000000 0.8977 0.8969 0.8967 0.8964 0.8961
966.000000 0.8957 0.8949 0.8941 0.8933 0.8925
971.000000 0.8917 0.8908 0.8897 0.8886 0.8876
976.000000 0.8863 0.8840 0.8818 0.8795 0.8772
981.000000 0.8749 0.8726 0.8696 0.8661 0.8626
986.000000 0.8593 0.8558 0.8514 0.8469 0.8425
991.000000 0.8392 0.8359 0.8327 0.8306 0.8280
996.000000 0.8283 0.8286 0.8300 0.8320 0.8347
1001.000000 0.8376 0.8413 0.8455 0.8504 0.8529
1006.000000 0.8535 0.8563 0.8529 0.8509 0.8482
1011.000000 0.8450 0.8398 0.8269 0.8014 0.7754
1016.000000 0.7496 0.7238 0.7051 0.7032 0.7051
1021.000000 0.7233 0.7417 0.7600 0.7758 0.7842
1026.000000 0.7902 0.7938 0.7963 0.7971 0.7973
1031.000000 0.7980 0.7929 0.7861 0.7715 0.7566
1036.000000 0.7419 0.7271 0.7160 0.7163 0.7146
1041.000000 0.7419 0.7581 0.7742 0.7907 0.8028
1046.000000 0.8117 0.8200 0.8271 0.8336 0.8373
1051.000000 0.8406 0.8439 0.8467 0.8497 0.8523
1056.000000 0.8539 0.8553 0.8568 0.8571 0.8572
1061.000000 0.8544 0.8558 0.8549 0.8541 0.8523
1066.000000 0.8493 0.8459 0.8419 0.8380 0.8340
1071.000000 0.8293 0.8245 0.8207 0.8180 0.8154
1076.000000 0.8139 0.8124 0.8110 0.8104 0.8104
1081.000000 0.8103 0.8102 0.8103 0.8109 0.8115
1086.000000 0.8117 0.8118 0.8113 0.8102 0.8089
1091.000000 0.8063 0.8019 0.7940 0.7835 0.7700
1096.000000 0.7405 0.7008 0.6612 0.6217 0.5822
1101.000000 0.5428 0.5079 0.5022 0.5023 0.5048
1106.000000 0.5378 0.5600 0.5821 0.6042 0.6263
1111.000000 0.6483 0.6703 0.6922 0.7142 0.7336
1116.000000 0.7342 0.7332 0.7318 0.7313 0.7281
1121.000000 0.7257 0.7183 0.7045 0.6860 0.6700
1126.000000 0.6542 0.6383 0.6240 0.6212 0.6199
1131.000000 0.6328 0.6508 0.6688 0.6868 0.7047
1136.000000 0.7227 0.7406 0.7584 0.7759 0.7836
1141.000000 0.7872 0.7900 0.7910 0.7894 0.7906
1146.000000 0.7892 0.7854 0.7756 0.7407 0.6952
1151.000000 0.6497 0.6044 0.5591 0.5403 0.5415
1156.000000 0.5488 0.5629 0.5770 0.5911 0.6052
1161.000000 0.6158 0.6244 0.6345 0.6501 0.6692
1166.000000 0.6884 0.7220 0.7409 0.7468 0.7499
1171.000000 0.7517 0.7532 0.7543 0.7555 0.7563
1176.000000 0.7568 0.7571 0.7567 0.7617 0.7555
1181.000000 0.7546 0.7525 0.7496 0.7451 0.7393
1186.000000 0.7323 0.7233 0.7126 0.7010 0.6874
1191.000000 0.6709 0.6442 0.6236 0.6030 0.5824
1196.000000 0.5620 0.5568 0.5558 0.5583 0.5679
1201.000000 0.5776 0.5874 0.5972 0.6015 0.6009
1206.000000 0.5996 0.5952 0.5597 0.5116 0.4636
1211.000000 0.4157 0.3678 0.3200 0.2723 0.2378
1216.000000 0.2379 0.3065 0.3534 0.4002 0.4469
1221.000000 0.4937 0.5403 0.5731 0.5739 0.5803
1226.000000 0.5679 0.5619 0.5551 0.5472 0.5408
1231.000000 0.5346 0.5289 0.5235 0.5182 0.5128
1236.000000 0.5070 0.5009 0.4949 0.4884 0.4813
1241.000000 0.4666 0.4391 0.4270 0.4225 0.4195
1246.000000 0.4191 0.4174 0.4351 0.4465 0.4579
1251.000000 0.4692 0.4805 0.4918 0.4968 0.4960
1256.000000 0.4961 0.4856 0.4745 0.4636 0.4525
1261.000000 0.4416 0.4306 0.4196 0.4087 0.3961
1266.000000 0.3802 0.3452 0.2608 0.2221 0.1834
1271.000000 0.1448 0.1055 0.0884 0.0822 0.0779
1276.000000 0.0742 0.0766 0.0992 0.1270 0.1548
1281.000000 0.1825 0.2102 0.2379 0.2651 0.2826
1286.000000 0.2967 0.3107 0.3246 0.3386 0.3525
1291.000000 0.3664 0.3803 0.3941 0.4080 0.4218
1296.000000 0.4306 0.4315 0.4328 0.4254 0.3943
1301.000000 0.3578 0.3214 0.2850 0.2486 0.2125
1306.000000 0.1762 0.1400 0.1040 0.0969 0.1128
1311.000000 0.1749 0.2438 0.3126 0.3813 0.4499
1316.000000 0.5184 0.5867 0.6558 0.6783 0.6922
1321.000000 0.7050 0.7154 0.7257 0.7360 0.7462
1326.000000 0.7565 0.7641 0.7695 0.7749 0.7799
1331.000000 0.7826 0.7843 0.7861 0.7875 0.7883
1336.000000 0.7889 0.7877 0.7883 0.7879 0.7872
1341.000000 0.7859 0.7846 0.7828 0.7810 0.7788
1346.000000 0.7761 0.7733 0.7700 0.7664 0.7628
1351.000000 0.7588 0.7537 0.7479 0.7396 0.7306
1356.000000 0.7208 0.7107 0.6967 0.6587 0.6077
1361.000000 0.5647 0.5201 0.4756 0.4312 0.3868
1366.000000 0.3425 0.3274 0.3309 0.3270 0.3687
1371.000000 0.3898 0.4109 0.4320 0.4466 0.4452
1376.000000 0.4482 0.4254 0.4152 0.3991 0.3991
1381.000000 0.4040 0.4121 0.4202 0.4282 0.4362
1386.000000 0.4516 0.4493 0.4491 0.4321 0.3973
1391.000000 0.3626 0.3280 0.2935 0.2590 0.2440
1396.000000 0.2430 0.2474 0.2602 0.2730 0.2858
1401.000000 0.2986 0.3114 0.3137 0.3111 0.2992
1406.000000 0.2881 0.2871 0.2881 0.2981 0.3145
1411.000000 0.3308 0.3472 0.3635 0.3798 0.3961
1416.000000 0.4123 0.4285 0.4447 0.4609 0.4770
1421.000000 0.4931 0.5092 0.5253 0.5389 0.5435
1426.000000 0.5443 0.5424 0.5449 0.5449 0.5444
1431.000000 0.5430 0.5311 0.5068 0.4825 0.4582
1436.000000 0.4340 0.4098 0.3856 0.3614 0.3374
1441.000000 0.3221 0.3144 0.3078 0.3010 0.2923
1446.000000 0.2831 0.2745 0.2665 0.2603 0.2557
1451.000000 0.2513 0.2469 0.2428 0.2389 0.2350
1456.000000 0.2312 0.2208 0.2042 0.1689 0.1340
1461.000000 0.1166 0.1072 0.1007 0.0943 0.0887
1466.000000 0.0846 0.0808 0.0769 0.0742 0.0724
1471.000000 0.0723 0.0723 0.0732 0.0787 0.0952
1476.000000 0.1123 0.1293 0.1463 0.1633 0.1803
1481.000000 0.1972 0.2142 0.2311 0.2480 0.2648
1486.000000 0.2817 0.2985 0.3153 0.3301 0.3303
1491.000000 0.3300 0.3269 0.3117 0.2895 0.2672
1496.000000 0.2451 0.2230 0.2008 0.1788 0.1567
1501.000000 0.1347 0.1127 0.0915 0.0796 0.0710
1506.000000 0.0624 0.0551 0.0493 0.0444 0.0406
1511.000000 0.0388 0.0372 0.0363 0.0359 0.0361
1516.000000 0.0372 0.0386 0.0437 0.0541 0.0749
1521.000000 0.0986 0.1221 0.1458 0.1693 0.1928
1526.000000 0.2163 0.2397 0.2632 0.2865 0.3099
1531.000000 0.3332 0.3566 0.3798 0.4030 0.4263
1536.000000 0.4495 0.4726 0.4957 0.5188 0.5360
1541.000000 0.5439 0.5539 0.5701 0.5876 0.6052
1546.000000 0.6227 0.6401 0.6577 0.6751 0.6925
1551.000000 0.7095 0.7218 0.7270 0.7364 0.7447
1556.000000 0.7513 0.7575 0.7626 0.7675 0.7719
1561.000000 0.7756 0.7791 0.7829 0.7875 0.7932
1566.000000 0.8009 0.8073 0.8112 0.8131 0.8137
1571.000000 0.8165 0.8140 0.8137 0.8108 0.8030
1576.000000 0.7934 0.7840 0.7745 0.7650 0.7556
1581.000000 0.7462 0.7417 0.7414 0.7442 0.7533
1586.000000 0.7642 0.7751 0.7859 0.7968 0.8076
1591.000000 0.8184 0.8247 0.8260 0.8280 0.8203
1596.000000 0.8106 0.8006 0.7906 0.7806 0.7707
1601.000000 0.7607 0.7509 0.7409 0.7273 0.7012
1606.000000 0.6573 0.6014 0.5457 0.4899 0.4342
1611.000000 0.3844 0.3645 0.3645 0.3656 0.3663
1616.000000 0.4126 0.4381 0.4636 0.4892 0.5146
1621.000000 0.5401 0.5655 0.5909 0.6162 0.6415
1626.000000 0.6668 0.6921 0.7173 0.7425 0.7676
1631.000000 0.7903 0.8058 0.8318 0.8437 0.8538
1636.000000 0.8619 0.8670 0.8718 0.8764 0.8811
1641.000000 0.8853 0.8892 0.8922 0.8938 0.8955
1646.000000 0.8971 0.8988 0.8999 0.9005 0.9011
1651.000000 0.9018 0.9024 0.9030 0.9036 0.9041
1656.000000 0.9045 0.9049 0.9053 0.9058 0.9062
1661.000000 0.9067 0.9071 0.9075 0.9079 0.9083
1666.000000 0.9087 0.9091 0.9094 0.9098 0.9101
1671.000000 0.9105 0.9109 0.9112 0.9116 0.9119
1676.000000 0.9123 0.9126 0.9130 0.9136 0.9142
1681.000000 0.9147 0.9153 0.9159 0.9164 0.9170
1686.000000 0.9176 0.9181 0.9186 0.9191 0.9195
1691.000000 0.9199 0.9203 0.9207 0.9212 0.9216
1696.000000 0.9217 0.9218 0.9218 0.9218 0.9218
1701.000000 0.9218 0.9219 0.9219 0.9219 0.9230
1706.000000 0.9215 0.9213 0.9211 0.9209 0.9206
1711.000000 0.9205 0.9202 0.9200 0.9199 0.9197
1716.000000 0.9194 0.9193 0.9191 0.9189 0.9187
1721.000000 0.9185 0.9183 0.9181 0.9180 0.9178
1726.000000 0.9176 0.9174 0.9172 0.9170 0.9169
1731.000000 0.9167 0.9165 0.9164 0.9162 0.9160
1736.000000 0.9158 0.9156 0.9154 0.9153 0.9151
1741.000000 0.9149 0.9148 0.9146 0.9144 0.9143
1746.000000 0.9141 0.9140 0.9131 0.9119 0.9108
1751.000000 0.9093 0.9072 0.9040 0.9007 0.8981
1756.000000 0.8958 0.8939 0.8935 0.8934 0.8934
1761.000000 0.8935 0.8936 0.8938 0.8942 0.8949
1766.000000 0.8961 0.8976 0.8995 0.9016 0.9033
1771.000000 0.9051 0.9068 0.9083 0.9094 0.9096
1776.000000 0.9094 0.9092 0.9090 0.9087 0.9083
1781.000000 0.9079 0.9076 0.9073 0.9068 0.9062
1786.000000 0.9057 0.9051 0.9046 0.9040 0.9033
1791.000000 0.9025 0.9017 0.9010 0.9002 0.8992
1796.000000 0.8978 0.8960 0.8942 0.8916 0.8879
1801.000000 0.8837 0.8793 0.8748 0.8701 0.8653
1806.000000 0.8619 0.8590 0.8568 0.8556 0.8553
1811.000000 0.8553 0.8554 0.8555 0.8560 0.8567
1816.000000 0.8581 0.8604 0.8646 0.8690 0.8734
1821.000000 0.8778 0.8820 0.8854 0.8886 0.8912
1826.000000 0.8916 0.8918 0.8919 0.8931 0.8918
1831.000000 0.8916 0.8912 0.8905 0.8894 0.8882
1836.000000 0.8870 0.8857 0.8842 0.8827 0.8809
1841.000000 0.8789 0.8770 0.8751 0.8731 0.8712
1846.000000 0.8692 0.8672 0.8652 0.8633 0.8613
1851.000000 0.8593 0.8574 0.8554 0.8534 0.8515
1856.000000 0.8495 0.8475 0.8465 0.8461 0.8461
1861.000000 0.8494 0.8472 0.8583 0.8629 0.8675
1866.000000 0.8720 0.8766 0.8811 0.8840 0.8854
1871.000000 0.8865 0.8875 0.8885 0.8892 0.8896
1876.000000 0.8899 0.8903 0.8905 0.8905 0.8905
1881.000000 0.8905 0.8904 0.8904 0.8892 0.8903
1886.000000 0.8902 0.8902 0.8902 0.8901 0.8901
1891.000000 0.8901 0.8900 0.8899 0.8897 0.8897
1896.000000 0.8896 0.8894 0.8893 0.8892 0.8891
1901.000000 0.8890 0.8889 0.8888 0.8887 0.8885
1906.000000 0.8884 0.8883 0.8881 0.8879 0.8877
1911.000000 0.8875 0.8873 0.8871 0.8868 0.8866
1916.000000 0.8864 0.8862 0.8860 0.8858 0.8855
1921.000000 0.8853 0.8851 0.8850 0.8848 0.8847
1926.000000 0.8846 0.8844 0.8843 0.8842 0.8841
1931.000000 0.8840 0.8838 0.8837 0.8836 0.8834
1936.000000 0.8833 0.8832 0.8830 0.8829 0.8828
1941.000000 0.8826 0.8826 0.8825 0.8824 0.8822
1946.000000 0.8821 0.8820 0.8818 0.8817 0.8816
1951.000000 0.8814 0.8813 0.8812 0.8810 0.8809
1956.000000 0.8808 0.8806 0.8805 0.8805 0.8804
1961.000000 0.8802 0.8801 0.8800 0.8798 0.8797
1966.000000 0.8796 0.8794 0.8793 0.8792 0.8791
1971.000000 0.8789 0.8788 0.8787 0.8785 0.8784
1976.000000 0.8784 0.8783 0.8781 0.8780 0.8779
1981.000000 0.8777 0.8776 0.8775 0.8774 0.8772
1986.000000 0.8771 0.8770 0.8769 0.8767 0.8766
1991.000000 0.8765 0.8764 0.8763 0.8762 0.8761
1996.000000 0.8760 0.8758 0.8756 0.8755 0.8754
2001.000000 0.8752 0.8750 0.8749 0.8747 0.8745
2006.000000 0.8744 0.8742 0.8741 0.8739 0.8738
2011.000000 0.8736 0.8735 0.8733 0.8731 0.8730
2016.000000 0.8729 0.8727 0.8725 0.8724 0.8722
2021.000000 0.8721 0.8719 0.8718 0.8716 0.8715
2026.000000 0.8713 0.8712 0.8709 0.8707 0.8705
2031.000000 0.8702 0.8700 0.8698 0.8696 0.8694
2036.000000 0.8692 0.8690 0.8688 0.8686 0.8683
2041.000000 0.8681 0.8679 0.8677 0.8675 0.8672
2046.000000 0.8670 0.8668 0.8666 0.8664 0.8662
2051.000000 0.8660 0.8658 0.8656 0.8654 0.8652
2056.000000 0.8649 0.8647 0.8645 0.8643 0.8641
2061.000000 0.8639 0.8637 0.8635 0.8632 0.8630
2066.000000 0.8629 0.8627 0.8625 0.8623 0.8621
2071.000000 0.8619 0.8617 0.8614 0.8613 0.8611
2076.000000 0.8609 0.8607 0.8605 0.8603 0.8601
2081.000000 0.8599 0.8597 0.8595 0.8593 0.8592
2086.000000 0.8589 0.8587 0.8585 0.8584 0.8582
2091.000000 0.8580 0.8578 0.8576 0.8574 0.8572
2096.000000 0.8570 0.8568 0.8566 0.8565 0.8562
2101.000000 0.8560 0.8559 0.8557 0.8554 0.8552
2106.000000 0.8551 0.8549 0.8547 0.8546 0.8544
2111.000000 0.8542 0.8540 0.8538 0.8536 0.8535
2116.000000 0.8533 0.8531 0.8529 0.8527 0.8525
2121.000000 0.8524 0.8522 0.8520 0.8519 0.8516
2126.000000 0.8514 0.8513 0.8511 0.8509 0.8508
2131.000000 0.8506 0.8504 0.8502 0.8500 0.8498
2136.000000 0.8497 0.8495 0.8493 0.8492 0.8490
2141.000000 0.8488 0.8486 0.8484 0.8483 0.8481
2146.000000 0.8479 0.8478 0.8476 0.8474 0.8472
2151.000000 0.8470 0.8469 0.8467 0.8465 0.8464
2156.000000 0.8462 0.8460 0.8458 0.8456 0.8455
2161.000000 0.8453 0.8452 0.8450 0.8448 0.8445
2166.000000 0.8443 0.8441 0.8439 0.8437 0.8435
2171.000000 0.8433 0.8431 0.8428 0.8426 0.8424
2176.000000 0.8422 0.8420 0.8418 0.8416 0.8414
2181.000000 0.8412 0.8409 0.8407 0.8405 0.8403
2186.000000 0.8401 0.8399 0.8397 0.8395 0.8393
2191.000000 0.8391 0.8389 0.8386 0.8384 0.8382
2196.000000 0.8380 0.8378 0.8376 0.8374 0.8372
2201.000000 0.8370 0.8368 0.8366 0.8364 0.8362
2206.000000 0.8360 0.8358 0.8355 0.8353 0.8351
2211.000000 0.8349 0.8347 0.8345 0.8343 0.8341
2216.000000 0.8339 0.8337 0.8335 0.8333 0.8330
2221.000000 0.8328 0.8326 0.8324 0.8321 0.8318
2226.000000 0.8316 0.8313 0.8311 0.8309 0.8307
2231.000000 0.8304 0.8302 0.8299 0.8297 0.8295
2236.000000 0.8293 0.8290 0.8288 0.8285 0.8283
2241.000000 0.8281 0.8279 0.8276 0.8274 0.8271
2246.000000 0.8269 0.8266 0.8264 0.8262 0.8260
2251.000000 0.8258 0.8255 0.8253 0.8250 0.8248
2256.000000 0.8246 0.8244 0.8241 0.8239 0.8236
2261.000000 0.8234 0.8232 0.8230 0.8228 0.8225
2266.000000 0.8223 0.8220 0.8218 0.8216 0.8214
2271.000000 0.8212 0.8209 0.8207 0.8204 0.8202
2276.000000 0.8200 0.8198 0.8196 0.8193 0.8190
2281.000000 0.8188 0.8184 0.8181 0.8178 0.8175
2286.000000 0.8172 0.8169 0.8166 0.8163 0.8160
2291.000000 0.8157 0.8154 0.8151 0.8148 0.8145
2296.000000 0.8142 0.8139 0.8136 0.8133 0.8130
2301.000000 0.8127 0.8124 0.8121 0.8118 0.8115
2306.000000 0.8112 0.8109 0.8106 0.8103 0.8100
2311.000000 0.8097 0.8094 0.8091 0.8088 0.8085
2316.000000 0.8082 0.8079 0.8077 0.8074 0.8071
2321.000000 0.8067 0.8064 0.8062 0.8059 0.8056
2326.000000 0.8053 0.8050 0.8047 0.8044 0.8041
2331.000000 0.8039 0.8036 0.8033 0.8029 0.8026
2336.000000 0.8024 0.8021 0.8018 0.8014 0.8011
2341.000000 0.8007 0.8004 0.8001 0.7997 0.7994
2346.000000 0.7991 0.7988 0.7985 0.7981 0.7978
2351.000000 0.7975 0.7972 0.7969 0.7966 0.7962
2356.000000 0.7959 0.7956 0.7953 0.7950 0.7947
2361.000000 0.7944 0.7940 0.7937 0.7934 0.7930
2366.000000 0.7927 0.7924 0.7921 0.7918 0.7914
2371.000000 0.7911 0.7908 0.7905 0.7902 0.7899
2376.000000 0.7896 0.7894 0.7894 0.7894 0.7894
2381.000000 0.7895 0.7895 0.7896 0.7897 0.7898
2386.000000 0.7899 0.7900 0.7901 0.7902 0.7902
2391.000000 0.7904 0.7905 0.7909 0.7913 0.7918
2396.000000 0.7922 0.7927 0.7931 0.7935 0.7940
2401.000000 0.7945 0.7950 0.7954 0.7958 0.7963
2406.000000 0.7968 0.7970 0.7972 0.7973 0.7974
2411.000000 0.7976 0.7976 0.7976 0.7974 0.7972
2416.000000 0.7971 0.7969 0.7967 0.7965 0.7964
2421.000000 0.7962 0.7960 0.7957 0.7955 0.7953
2426.000000 0.7952 0.7950 0.7948 0.7946 0.7944
2431.000000 0.7942 0.7940 0.7938 0.7936 0.7934
2436.000000 0.7931 0.7929 0.7927 0.7925 0.7922
2441.000000 0.7920 0.7917 0.7914 0.7912 0.7909
2446.000000 0.7907 0.7904 0.7902 0.7899 0.7897
2451.000000 0.7894 0.7892 0.7890 0.7888 0.7885
2456.000000 0.7883 0.7881 0.7878 0.7874 0.7870
2461.000000 0.7866 0.7862 0.7858 0.7854 0.7849
2466.000000 0.7846 0.7842 0.7838 0.7834 0.7830
2471.000000 0.7826 0.7822 0.7818 0.7814 0.7810
2476.000000 0.7806 0.7802 0.7798 0.7794 0.7790
2481.000000 0.7786 0.7782 0.7778 0.7774 0.7770
2486.000000 0.7766 0.7763 0.7759 0.7755 0.7751
2491.000000 0.7747 0.7743 0.7738 0.7733 0.7729
2496.000000 0.7723 0.7718 0.7713 0.7708 0.7704
2501.000000 0.7699 0.7694 0.7689 0.7684 0.7679
2506.000000 0.7674 0.7669 0.7664 0.7659 0.7655
2511.000000 0.7650 0.7644 0.7639 0.7635 0.7630
2516.000000 0.7625 0.7620 0.7615 0.7610 0.7605
2521.000000 0.7601 0.7596 0.7591 0.7586 0.7581
2526.000000 0.7576 0.7571 0.7567 0.7562 0.7557
2531.000000 0.7552 0.7547 0.7542 0.7537 0.7531
2536.000000 0.7526 0.7520 0.7514 0.7508 0.7502
2541.000000 0.7497 0.7491 0.7486 0.7480 0.7474
2546.000000 0.7468 0.7463 0.7457 0.7451 0.7445
2551.000000 0.7440 0.7434 0.7429 0.7423 0.7418
2556.000000 0.7412 0.7406 0.7400 0.7395 0.7389
2561.000000 0.7384 0.7379 0.7373 0.7367 0.7363
2566.000000 0.7359 0.7355 0.7351 0.7348 0.7344
2571.000000 0.7340 0.7337 0.7333 0.7330 0.7326
2576.000000 0.7323 0.7320 0.7316 0.7312 0.7308
2581.000000 0.7305 0.7302 0.7298 0.7294 0.7291
2586.000000 0.7287 0.7284 0.7280 0.7277 0.7274
2591.000000 0.7270 0.7267 0.7263 0.7261 0.7260
2596.000000 0.7260 0.7258 0.7257 0.7256 0.7256
2601.000000 0.7255 0.7254 0.7253 0.7253 0.7252
2606.000000 0.7251 0.7250 0.7249 0.7248 0.7247
2611.000000 0.7246 0.7246 0.7245 0.7244 0.7244
2616.000000 0.7243 0.7242 0.7241 0.7241 0.7240
2621.000000 0.7239 0.7238 0.7237 0.7236 0.7235
2626.000000 0.7235 0.7234 0.7233 0.7232 0.7231
2631.000000 0.7230 0.7228 0.7225 0.7223 0.7220
2636.000000 0.7217 0.7214 0.7211 0.7208 0.7205
2641.000000 0.7202 0.7199 0.7196 0.7193 0.7190
2646.000000 0.7187 0.7184 0.7181 0.7179 0.7176
2651.000000 0.7173 0.7168 0.7164 0.7159 0.7155
2656.000000 0.7150 0.7145 0.7141 0.7136 0.7131
2661.000000 0.7126 0.7122 0.7117 0.7112 0.7108
2666.000000 0.7103 0.7098 0.7094 0.7089 0.7085
2671.000000 0.7080 0.7076 0.7071 0.7067 0.7063
2676.000000 0.7060 0.7056 0.7052 0.7049 0.7045
2681.000000 0.7041 0.7038 0.7034 0.7030 0.7027
2686.000000 0.7023 0.7020 0.7016 0.7012 0.7009
2691.000000 0.7005 0.7001 0.6998 0.6994 0.6991
2696.000000 0.6987 0.6983 0.6980 0.6976 0.6973
2701.000000 0.6969 0.6965 0.6960 0.6953 0.6946
2706.000000 0.6938 0.6929 0.6920 0.6912 0.6903
2711.000000 0.6894 0.6885 0.6877 0.6868 0.6856
2716.000000 0.6840 0.6825 0.6802 0.6775 0.6748
2721.000000 0.6721 0.6694 0.6667 0.6640 0.6613
2726.000000 0.6586 0.6559 0.6532 0.6505 0.6479
2731.000000 0.6452 0.6425 0.6398 0.6371 0.6345
2736.000000 0.6325 0.6307 0.6289 0.6283 0.6281
2741.000000 0.6278 0.6278 0.6278 0.6278 0.6281
2746.000000 0.6286 0.6291 0.6299 0.6307 0.6315
2751.000000 0.6323 0.6332 0.6340 0.6348 0.6356
2756.000000 0.6365 0.6373 0.6381 0.6388 0.6397
2761.000000 0.6405 0.6413 0.6421 0.6429 0.6438
2766.000000 0.6446 0.6454 0.6462 0.6470 0.6478
2771.000000 0.6486 0.6491 0.6493 0.6494 0.6495
2776.000000 0.6493 0.6491 0.6489 0.6486 0.6482
2781.000000 0.6479 0.6475 0.6472 0.6468 0.6463
2786.000000 0.6459 0.6454 0.6441 0.6427 0.6414
2791.000000 0.6397 0.6379 0.6361 0.6341 0.6320
2796.000000 0.6298 0.6266 0.6225 0.6184 0.6148
2801.000000 0.6118 0.6087 0.6060 0.6040 0.6020
2806.000000 0.6000 0.5980 0.5960 0.5939 0.5843
2811.000000 0.5746 0.5650 0.5527 0.5400 0.5273
2816.000000 0.5209 0.5175 0.5140 0.5107 0.5075
2821.000000 0.5043 0.5012 0.4985 0.4957 0.4930
2826.000000 0.4902 0.4875 0.4847 0.4540 0.4217
2831.000000 0.3894 0.3728 0.3616 0.3504 0.3392
2836.000000 0.3280 0.3168 0.3056 0.2945 0.2833
2841.000000 0.2721 0.2610 0.2499 0.2387 0.2276
2846.000000 0.2165 0.2054 0.1943 0.1832 0.1721
2851.000000 0.1610 0.1500 0.1389 0.1263 0.1021
2856.000000 0.0779 0.0537 0.0489 0.0474 0.0459
2861.000000 0.0449 0.0443 0.0437 0.0433 0.0430
2866.000000 0.0426 0.0423 0.0421 0.0418 0.0415
2871.000000 0.0412 0.0409 0.0406 0.0404 0.0401
2876.000000 0.0399 0.0397 0.0395 0.0393 0.0391
2881.000000 0.0389 0.0387 0.0385 0.0382 0.0380
2886.000000 0.0378 0.0376 0.0372 0.0368 0.0364
2891.000000 0.0358 0.0351 0.0344 0.0337 0.0330
2896.000000 0.0323 0.0316 0.0309 0.0302 0.0295
2901.000000 0.0283 0.0268 0.0254 0.0240 0.0225
2906.000000 0.0211 0.0196 0.0185 0.0173 0.0162
2911.000000 0.0152 0.0144 0.0136 0.0129 0.0121
2916.000000 0.0113 0.0105 0.0097 0.0089 0.0081
2921.000000 0.0073 0.0066 0.0059 0.0052 0.0050
2926.000000 0.0047 0.0044 0.0041 0.0038 0.0036
2931.000000 0.0033 0.0030 0.0027 0.0024 0.0022
2936.000000 0.0020 0.0019 0.0017 0.0017 0.0017
2941.000000 0.0017 0.0016 0.0016 0.0016 0.0015
2946.000000 0.0015 0.0015 0.0015 0.0015 0.0016
2951.000000 0.0017 0.0018 0.0018 0.0019 0.0019
2956.000000 0.0020 0.0021 0.0021 0.0050 0.0119
2961.000000 0.0188 0.0257 0.0331 0.0406 0.0481
2966.000000 0.0556 0.0631 0.0705 0.0780 0.0855
2971.000000 0.0930 0.1005 0.1079 0.1154 0.1228
2976.000000 0.1302 0.1377 0.1451 0.1526 0.1600
2981.000000 0.1674 0.1748 0.1823 0.1897 0.1970
2986.000000 0.2044 0.2118 0.2192 0.2266 0.2340
2991.000000 0.2413 0.2487 0.2561 0.2635 0.2708
2996.000000 0.2782 0.2855 0.2918 0.2966 0.3013
3001.000000 0.3060 0.3085 0.3105 0.3125 0.3144
3006.000000 0.3165 0.3185 0.3206 0.3232 0.3261
3011.000000 0.3291 0.3321 0.3351 0.3380 0.3409
3016.000000 0.3439 0.3469 0.3498 0.3528 0.3555
3021.000000 0.3580 0.3606 0.3631 0.3657 0.3683
3026.000000 0.3708 0.3734 0.3759 0.3785 0.3811
3031.000000 0.3836 0.3861 0.3887 0.3912 0.3938
3036.000000 0.3964 0.3990 0.4016 0.4042 0.4069
3041.000000 0.4095 0.4121 0.4147 0.4174 0.4200
3046.000000 0.4226 0.4252 0.4278 0.4304 0.4329
3051.000000 0.4354 0.4379 0.4404 0.4429 0.4454
3056.000000 0.4479 0.4504 0.4528 0.4553 0.4578
3061.000000 0.4603 0.4627 0.4652 0.4676 0.4701
3066.000000 0.4726 0.4751 0.4776 0.4801 0.4826
3071.000000 0.4851 0.4876 0.4901 0.4926 0.4951
3076.000000 0.4976 0.5001 0.5026 0.5051 0.5076
3081.000000 0.5101 0.5125 0.5148 0.5168 0.5188
3086.000000 0.5208 0.5226 0.5242 0.5258 0.5274
3091.000000 0.5290 0.5306 0.5322 0.5338 0.5353
3096.000000 0.5369 0.5385 0.5401 0.5417 0.5433
3101.000000 0.5449 0.5465 0.5480 0.5496 0.5512
3106.000000 0.5531 0.5555 0.5578 0.5602 0.5627
3111.000000 0.5653 0.5680 0.5706 0.5732 0.5758
3116.000000 0.5784 0.5810 0.5832 0.5852 0.5872
3121.000000 0.5893 0.5909 0.5925 0.5941 0.5958
3126.000000 0.5974 0.5990 0.6006 0.6022 0.6035
3131.000000 0.6048 0.6061 0.6073 0.6079 0.6085
3136.000000 0.6091 0.6097 0.6103 0.6109 0.6114
3141.000000 0.6120 0.6126 0.6132 0.6139 0.6145
3146.000000 0.6151 0.6157 0.6163 0.6169 0.6175
3151.000000 0.6180 0.6186 0.6192 0.6198 0.6204
3156.000000 0.6210 0.6215 0.6218 0.6221 0.6225
3161.000000 0.6227 0.6229 0.6231 0.6233 0.6234
3166.000000 0.6236 0.6238 0.6240 0.6241 0.6243
3171.000000 0.6245 0.6247 0.6249 0.6251 0.6253
3176.000000 0.6254 0.6256 0.6258 0.6260 0.6261
3181.000000 0.6263 0.6265 0.6267 0.6268 0.6270
3186.000000 0.6272 0.6274 0.6276 0.6278 0.6280
3191.000000 0.6281 0.6283 0.6285 0.6285 0.6285
3196.000000 0.6285 0.6285 0.6285 0.6285 0.6285
3201.000000 0.6285 0.6286 0.6286 0.6286 0.6286
3206.000000 0.6286 0.6286 0.6286 0.6286 0.6287
3211.000000 0.6287 0.6287 0.6287 0.6287 0.6287
3216.000000 0.6287 0.6287 0.6288 0.6288 0.6288
3221.000000 0.6288 0.6288 0.6288 0.6288 0.6288
3226.000000 0.6289 0.6289 0.6289 0.6289 0.6289
3231.000000 0.6289 0.6289 0.6289 0.6289 0.6289
3236.000000 0.6288 0.6287 0.6287 0.6286 0.6285
3241.000000 0.6285 0.6284 0.6283 0.6282 0.6282
3246.000000 0.6281 0.6280 0.6280 0.6279 0.6278
3251.000000 0.6277 0.6277 0.6276 0.6275 0.6275
3256.000000 0.6274 0.6273 0.6273 0.6272 0.6271
3261.000000 0.6270 0.6270 0.6269 0.6268 0.6268
3266.000000 0.6267 0.6266 0.6265 0.6265 0.6264
3271.000000 0.6263 0.6263 0.6262 0.6261 0.6261
3276.000000 0.6260 0.6259 0.6258 0.6258 0.6257
3281.000000 0.6256 0.6255 0.6254 0.6253 0.6252
3286.000000 0.6250 0.6248 0.6246 0.6244 0.6243
3291.000000 0.6241 0.6239 0.6237 0.6235 0.6233
3296.000000 0.6231 0.6230 0.6228 0.6226 0.6224
3301.000000 0.6222 0.6220 0.6219 0.6217 0.6215
3306.000000 0.6213 0.6211 0.6209 0.6208 0.6206
3311.000000 0.6204 0.6202 0.6200 0.6199 0.6197
3316.000000 0.6195 0.6193 0.6191 0.6189 0.6188
3321.000000 0.6186 0.6184 0.6182 0.6180 0.6179
3326.000000 0.6177 0.6175 0.6173 0.6171 0.6168
3331.000000 0.6164 0.6160 0.6157 0.6153 0.6150
3336.000000 0.6146 0.6142 0.6139 0.6135 0.6132
3341.000000 0.6129 0.6125 0.6122 0.6118 0.6115
3346.000000 0.6111 0.6108 0.6104 0.6101 0.6098
3351.000000 0.6094 0.6091 0.6087 0.6084 0.6080
3356.000000 0.6076 0.6073 0.6069 0.6066 0.6062
3361.000000 0.6059 0.6056 0.6052 0.6049 0.6046
3366.000000 0.6042 0.6039 0.6035 0.6031 0.6028
3371.000000 0.6025 0.6022 0.6018 0.6015 0.6009
3376.000000 0.6004 0.5999 0.5993 0.5988 0.5982
3381.000000 0.5975 0.5969 0.5963 0.5957 0.5951
3386.000000 0.5944 0.5938 0.5932 0.5926 0.5919
3391.000000 0.5913 0.5907 0.5901 0.5895 0.5888
3396.000000 0.5882 0.5876 0.5870 0.5864 0.5858
3401.000000 0.5852 0.5838 0.5819 0.5801 0.5783
3406.000000 0.5764 0.5742 0.5720 0.5697 0.5675
3411.000000 0.5652 0.5630 0.5608 0.5586 0.5563
3416.000000 0.5541 0.5519 0.5496 0.5474 0.5452
3421.000000 0.5430 0.5408 0.5386 0.5364 0.5342
3426.000000 0.5320 0.5298 0.5276 0.5253 0.5231
3431.000000 0.5209 0.5187 0.5165 0.5143 0.5121
3436.000000 0.5099 0.5077 0.5055 0.5033 0.5011
3441.000000 0.4989 0.4967 0.4945 0.4923 0.4901
3446.000000 0.4879 0.4857 0.4836 0.4814 0.4792
3451.000000 0.4770 0.4748 0.4726 0.4705 0.4683
3456.000000 0.4662 0.4640 0.4620 0.4607 0.4594
3461.000000 0.4581 0.4568 0.4561 0.4561 0.4561
3466.000000 0.4562 0.4562 0.4563 0.4565 0.4567
3471.000000 0.4568 0.4570 0.4553 0.4597 0.4611
3476.000000 0.4626 0.4641 0.4655 0.4670 0.4685
3481.000000 0.4699 0.4714 0.4728 0.4743 0.4757
3486.000000 0.4772 0.4786 0.4801 0.4815 0.4830
3491.000000 0.4844 0.4859 0.4874 0.4888 0.4903
3496.000000 0.4917 0.4932 0.4946 0.4960 0.4974
3501.000000 0.4989 0.5003 0.5018 0.5032 0.5047
3506.000000 0.5061 0.5075 0.5090 0.5104 0.5119
3511.000000 0.5133 0.5147 0.5162 0.5176 0.5190
3516.000000 0.5204 0.5218 0.5233 0.5247 0.5261
3521.000000 0.5276 0.5290 0.5304 0.5319 0.5333
3526.000000 0.5347 0.5361 0.5375 0.5389 0.5403
3531.000000 0.5417 0.5429 0.5440 0.5451 0.5463
3536.000000 0.5474 0.5481 0.5488 0.5495 0.5502
3541.000000 0.5509 0.5522 0.5535 0.5548 0.5562
3546.000000 0.5575 0.5581 0.5586 0.5590 0.5595
3551.000000 0.5600 0.5603 0.5606 0.5609 0.5612
3556.000000 0.5615 0.5618 0.5621 0.5624 0.5627
3561.000000 0.5630 0.5633 0.5636 0.5639 0.5642
3566.000000 0.5645 0.5647 0.5648 0.5649 0.5649
3571.000000 0.5650 0.5651 0.5651 0.5651 0.5651
3576.000000 0.5651 0.5652 0.5652 0.5652 0.5652
3581.000000 0.5652 0.5652 0.5652 0.5652 0.5652
3586.000000 0.5652 0.5653 0.5653 0.5653 0.5653
3591.000000 0.5653 0.5653 0.5653 0.5653 0.5652
3596.000000 0.5652 0.5652 0.5651 0.5650 0.5650
3601.000000 0.5649 0.5649 0.5648 0.5648 0.5647
3606.000000 0.5647 0.5647 0.5646 0.5646 0.5646
3611.000000 0.5645 0.5645 0.5644 0.5644 0.5644
3616.000000 0.5643 0.5643 0.5642 0.5642 0.5642
3621.000000 0.5641 0.5641 0.5641 0.5640 0.5640
3626.000000 0.5639 0.5639 0.5639 0.5638 0.5638
3631.000000 0.5638 0.5638 0.5638 0.5637 0.5637
3636.000000 0.5637 0.5637 0.5637 0.5637 0.5636
3641.000000 0.5636 0.5636 0.5636 0.5636 0.5635
3646.000000 0.5635 0.5635 0.5635 0.5635 0.5634
3651.000000 0.5634 0.5634 0.5634 0.5634 0.5633
3656.000000 0.5633 0.5633 0.5632 0.5632 0.5632
3661.000000 0.5631 0.5631 0.5630 0.5629 0.5629
3666.000000 0.5648 0.5628 0.5627 0.5627 0.5626
3671.000000 0.5626 0.5625 0.5624 0.5624 0.5623
3676.000000 0.5623 0.5622 0.5622 0.5621 0.5621
3681.000000 0.5620 0.5619 0.5619 0.5618 0.5618
3686.000000 0.5617 0.5617 0.5616 0.5616 0.5616
3691.000000 0.5615 0.5615 0.5614 0.5614 0.5613
3696.000000 0.5613 0.5612 0.5612 0.5611 0.5611
3701.000000 0.5610 0.5610 0.5610 0.5609 0.5609
3706.000000 0.5609 0.5608 0.5608 0.5608 0.5607
3711.000000 0.5607 0.5606 0.5606 0.5606 0.5605
3716.000000 0.5605 0.5604 0.5604 0.5603 0.5603
3721.000000 0.5602 0.5602 0.5602 0.5601 0.5601
3726.000000 0.5600 0.5600 0.5600 0.5599 0.5599
3731.000000 0.5599 0.5598 0.5597 0.5596 0.5595
3736.000000 0.5594 0.5593 0.5592 0.5591 0.5590
3741.000000 0.5588 0.5587 0.5586 0.5585 0.5584
3746.000000 0.5583 0.5582 0.5581 0.5579 0.5578
3751.000000 0.5577 0.5576 0.5574 0.5573 0.5572
3756.000000 0.5571 0.5570 0.5569 0.5568 0.5567
3761.000000 0.5566 0.5564 0.5563 0.5562 0.5561
3766.000000 0.5560 0.5558 0.5557 0.5556 0.5555
3771.000000 0.5554 0.5553 0.5552 0.5550 0.5549
3776.000000 0.5548 0.5547 0.5546 0.5545 0.5544
3781.000000 0.5543 0.5542 0.5540 0.5538 0.5536
3786.000000 0.5533 0.5531 0.5529 0.5527 0.5525
3791.000000 0.5523 0.5521 0.5519 0.5517 0.5515
3796.000000 0.5513 0.5510 0.5508 0.5506 0.5504
3801.000000 0.5502 0.5500 0.5498 0.5496 0.5494
3806.000000 0.5492 0.5490 0.5488 0.5486 0.5484
3811.000000 0.5481 0.5479 0.5477 0.5475 0.5473
3816.000000 0.5471 0.5469 0.5467 0.5465 0.5463
3821.000000 0.5462 0.5460 0.5458 0.5456 0.5454
3826.000000 0.5452 0.5450 0.5447 0.5445 0.5443
3831.000000 0.5441 0.5439 0.5437 0.5435 0.5433
3836.000000 0.5431 0.5429 0.5427 0.5425 0.5423
3841.000000 0.5421 0.5419 0.5417 0.5415 0.5413
3846.000000 0.5411 0.5409 0.5406 0.5404 0.5402
3851.000000 0.5400 0.5398 0.5395 0.5393 0.5391
3856.000000 0.5389 0.5387 0.5385 0.5383 0.5381
3861.000000 0.5379 0.5376 0.5374 0.5372 0.5370
3866.000000 0.5368 0.5366 0.5364 0.5362 0.5359
3871.000000 0.5357 0.5355 0.5353 0.5351 0.5349
3876.000000 0.5346 0.5344 0.5342 0.5340 0.5338
3881.000000 0.5336 0.5334 0.5332 0.5330 0.5328
3886.000000 0.5326 0.5324 0.5322 0.5319 0.5317
3891.000000 0.5315 0.5313 0.5311 0.5309 0.5307
3896.000000 0.5305 0.5303 0.5301 0.5299 0.5297
3901.000000 0.5295 0.5293 0.5290 0.5288 0.5286
3906.000000 0.5284 0.5282 0.5280 0.5278 0.5276
3911.000000 0.5273 0.5271 0.5269 0.5267 0.5265
3916.000000 0.5263 0.5261 0.5259 0.5257 0.5255
3921.000000 0.5253 0.5251 0.5249 0.5247 0.5245
3926.000000 0.5243 0.5241 0.5239 0.5237 0.5235
3931.000000 0.5233 0.5231 0.5229 0.5227 0.5225
3936.000000 0.5223 0.5221 0.5219 0.5217 0.5215
3941.000000 0.5213 0.5211 0.5209 0.5207 0.5205
3946.000000 0.5203 0.5201 0.5199 0.5196 0.5194
3951.000000 0.5193 0.5191 0.5189 0.5187 0.5185
3956.000000 0.5183 0.5181 0.5179 0.5177 0.5175
3961.000000 0.5173 0.5170 0.5169 0.5167 0.5165
3966.000000 0.5163 0.5161 0.5159 0.5157 0.5155
3971.000000 0.5153 0.5151 0.5149 0.5147 0.5145
3976.000000 0.5143 0.5140 0.5138 0.5136 0.5134
3981.000000 0.5132 0.5130 0.5129 0.5127 0.5125
3986.000000 0.5123 0.5121 0.5119 0.5117 0.5115
3991.000000 0.5113 0.5111 0.5109 0.5107 0.5105
3996.000000 0.5103 0.5101 0.5099 0.5097 0.5096
##END=
