##TITLE=Laurex (principally zinc laurate)
##JCAMP-DX=4.24
##DATA TYPE=INFRARED SPECTRUM
##CLASS=COBLENTZ
##ORIGIN=WYANDOTTE CHEMICALS CORP.
##OWNER=Copyright (C) 1987 by the Coblentz Society
Collection (C) 2018 copyright by the U.S. Secretary of Commerce
on behalf of the United States of America. All rights reserved.
##DATE=Not specified, most likely prior to 1977
##MOLFORM=C24 H46 O4 Zn
##SOURCE REFERENCE=COBLENTZ NO. 9803
##$NIST ID=B6009803
##$NIST SOURCE=COBLENTZ
##$NIST IMAGE=cob9803
##SPECTROMETER/DATA SYSTEM=BAIRD (PRISM)
##INSTRUMENT PARAMETERS=NaCl PRISM
##STATE=SOLID (OIL MULL)
$$SPECTRAL CONTAMINATION DUE TO OIL AROUND 2900, 1460 CM^-^1
##SAMPLING PROCEDURE=TRANSMISSION
##RESOLUTION=2
##DATA PROCESSING=DIGITIZED BY COBLENTZ SOCIETY (BATCH II) FROM HARD COPY
##XUNITS=1/CM
##YUNITS=TRANSMITTANCE
##XFACTOR=1.0
##YFACTOR=1
##FIRSTX=627
##LASTX=4000
##FIRSTY=0.7472
##MAXX=4000
##MINX=627
##MAXY=0.9814
##MINY=0.0016
##NPOINTS=3374
##XYDATA=(X++(Y..Y))
627.000000 0.7472 0.7505 0.7532 0.7556 0.7586
632.000000 0.7618 0.7640 0.7660 0.7679 0.7704
637.000000 0.7731 0.7764 0.7798 0.7831 0.7846
642.000000 0.7862 0.7875 0.7881 0.7887 0.7893
647.000000 0.7925 0.7957 0.7993 0.8029 0.8062
652.000000 0.8092 0.8120 0.8153 0.8189 0.8232
657.000000 0.8280 0.8340 0.8389 0.8391 0.8344
662.000000 0.8296 0.8237 0.8203 0.8225 0.8194
667.000000 0.8382 0.8458 0.8510 0.8547 0.8578
672.000000 0.8592 0.8605 0.8612 0.8613 0.8614
677.000000 0.8618 0.8627 0.8636 0.8653 0.8670
682.000000 0.8680 0.8671 0.8661 0.8655 0.8650
687.000000 0.8646 0.8642 0.8673 0.8632 0.8624
692.000000 0.8616 0.8609 0.8591 0.8560 0.8527
697.000000 0.8497 0.8467 0.8422 0.8358 0.8293
702.000000 0.8220 0.8144 0.8062 0.7979 0.7860
707.000000 0.7739 0.7615 0.7451 0.7261 0.7077
712.000000 0.6838 0.6370 0.5296 0.4702 0.4234
717.000000 0.3749 0.3365 0.3232 0.3222 0.3412
722.000000 0.3686 0.3960 0.4232 0.4537 0.4714
727.000000 0.4798 0.4815 0.4821 0.4822 0.4798
732.000000 0.4771 0.4734 0.4667 0.4583 0.4479
737.000000 0.4353 0.4207 0.4025 0.3800 0.3606
742.000000 0.3390 0.3199 0.3029 0.2877 0.2788
747.000000 0.2761 0.2720 0.2807 0.2898 0.3055
752.000000 0.3485 0.3928 0.4247 0.4649 0.5069
757.000000 0.5516 0.5817 0.6101 0.6399 0.6627
762.000000 0.6831 0.7033 0.7196 0.7344 0.7449
767.000000 0.7533 0.7589 0.7615 0.7637 0.7650
772.000000 0.7648 0.7636 0.7617 0.7591 0.7564
777.000000 0.7535 0.7513 0.7535 0.7498 0.7873
782.000000 0.8056 0.8201 0.8323 0.8438 0.8524
787.000000 0.8607 0.8683 0.8744 0.8777 0.8795
792.000000 0.8812 0.8833 0.8861 0.8889 0.8913
797.000000 0.8931 0.8950 0.8958 0.8965 0.8970
802.000000 0.8971 0.8996 0.8964 0.8955 0.8935
807.000000 0.8915 0.8893 0.8871 0.8850 0.8818
812.000000 0.8783 0.8749 0.8717 0.8684 0.8660
817.000000 0.8642 0.8645 0.8643 0.8648 0.8668
822.000000 0.8686 0.8706 0.8726 0.8755 0.8785
827.000000 0.8820 0.8864 0.8895 0.8923 0.8944
832.000000 0.8963 0.8971 0.8976 0.8963 0.8955
837.000000 0.8937 0.8913 0.8890 0.8869 0.8849
842.000000 0.8829 0.8812 0.8797 0.8783 0.8770
847.000000 0.8766 0.8763 0.8759 0.8755 0.8750
852.000000 0.8746 0.8741 0.8736 0.8732 0.8729
857.000000 0.8726 0.8722 0.8710 0.8692 0.8675
862.000000 0.8654 0.8622 0.8590 0.8541 0.8487
867.000000 0.8420 0.8348 0.8291 0.8299 0.8326
872.000000 0.8366 0.8409 0.8461 0.8496 0.8527
877.000000 0.8547 0.8567 0.8586 0.8592 0.8591
882.000000 0.8571 0.8542 0.8512 0.8484 0.8457
887.000000 0.8419 0.8380 0.8378 0.8404 0.8435
892.000000 0.8469 0.8508 0.8548 0.8587 0.8625
897.000000 0.8656 0.8674 0.8672 0.8660 0.8647
902.000000 0.8632 0.8615 0.8597 0.8576 0.8553
907.000000 0.8527 0.8493 0.8460 0.8425 0.8390
912.000000 0.8350 0.8311 0.8293 0.8275 0.8258
917.000000 0.8241 0.8226 0.8211 0.8197 0.8184
922.000000 0.8169 0.8155 0.8142 0.8127 0.8113
927.000000 0.8099 0.8084 0.8071 0.8061 0.8057
932.000000 0.8052 0.8048 0.8044 0.8039 0.8029
937.000000 0.7972 0.7901 0.7837 0.7775 0.7713
942.000000 0.7652 0.7590 0.7529 0.7468 0.7392
947.000000 0.7307 0.7206 0.7142 0.7171 0.7196
952.000000 0.7285 0.7367 0.7439 0.7512 0.7586
957.000000 0.7687 0.7795 0.7874 0.7924 0.7968
962.000000 0.7998 0.8023 0.8046 0.8022 0.8017
967.000000 0.8007 0.7996 0.7985 0.7966 0.7930
972.000000 0.7894 0.7859 0.7823 0.7788 0.7752
977.000000 0.7717 0.7682 0.7654 0.7626 0.7597
982.000000 0.7570 0.7566 0.7563 0.7560 0.7552
987.000000 0.7545 0.7531 0.7503 0.7476 0.7440
992.000000 0.7401 0.7369 0.7352 0.7352 0.7355
997.000000 0.7371 0.7394 0.7419 0.7458 0.7505
1002.000000 0.7556 0.7612 0.7668 0.7723 0.7768
1007.000000 0.7816 0.7860 0.7887 0.7897 0.7906
1012.000000 0.7899 0.7897 0.7883 0.7870 0.7850
1017.000000 0.7825 0.7798 0.7773 0.7746 0.7719
1022.000000 0.7693 0.7668 0.7646 0.7625 0.7610
1027.000000 0.7597 0.7583 0.7546 0.7500 0.7453
1032.000000 0.7402 0.7351 0.7300 0.7249 0.7201
1037.000000 0.7159 0.7120 0.7097 0.7074 0.7051
1042.000000 0.7028 0.7008 0.6990 0.6970 0.6952
1047.000000 0.6932 0.6912 0.6891 0.6871 0.6851
1052.000000 0.6837 0.6834 0.6829 0.6823 0.6811
1057.000000 0.6786 0.6759 0.6733 0.6710 0.6687
1062.000000 0.6665 0.6642 0.6619 0.6591 0.6562
1067.000000 0.6542 0.6563 0.6554 0.6575 0.6621
1072.000000 0.6662 0.6707 0.6758 0.6819 0.6883
1077.000000 0.6926 0.6930 0.6934 0.6930 0.6929
1082.000000 0.6924 0.6880 0.6817 0.6736 0.6656
1087.000000 0.6581 0.6529 0.6493 0.6476 0.6465
1092.000000 0.6547 0.6665 0.6772 0.6868 0.6926
1097.000000 0.6976 0.7017 0.7058 0.7094 0.7127
1102.000000 0.7159 0.7176 0.7182 0.7164 0.7153
1107.000000 0.7138 0.7120 0.7094 0.7046 0.6990
1112.000000 0.6933 0.6879 0.6826 0.6773 0.6719
1117.000000 0.6649 0.6580 0.6511 0.6440 0.6352
1122.000000 0.6218 0.6180 0.6168 0.6202 0.6230
1127.000000 0.6289 0.6371 0.6428 0.6479 0.6597
1132.000000 0.6834 0.7069 0.7238 0.7325 0.7394
1137.000000 0.7459 0.7522 0.7591 0.7668 0.7698
1142.000000 0.7719 0.7736 0.7719 0.7712 0.7696
1147.000000 0.7677 0.7651 0.7625 0.7598 0.7564
1152.000000 0.7524 0.7485 0.7445 0.7411 0.7377
1157.000000 0.7343 0.7308 0.7272 0.7236 0.7200
1162.000000 0.7173 0.7159 0.7149 0.7146 0.7143
1167.000000 0.7140 0.7137 0.7127 0.7065 0.7032
1172.000000 0.7062 0.7046 0.7082 0.7130 0.7176
1177.000000 0.7222 0.7267 0.7304 0.7341 0.7381
1182.000000 0.7425 0.7460 0.7489 0.7520 0.7545
1187.000000 0.7560 0.7574 0.7589 0.7600 0.7603
1192.000000 0.7608 0.7633 0.7603 0.7597 0.7585
1197.000000 0.7562 0.7523 0.7462 0.7406 0.7295
1202.000000 0.7130 0.7137 0.7114 0.7198 0.7284
1207.000000 0.7351 0.7400 0.7418 0.7427 0.7485
1212.000000 0.7524 0.7536 0.7548 0.7523 0.7499
1217.000000 0.7445 0.7409 0.7398 0.7401 0.7412
1222.000000 0.7456 0.7508 0.7520 0.7525 0.7526
1227.000000 0.7527 0.7524 0.7518 0.7468 0.7382
1232.000000 0.7301 0.7200 0.7167 0.7155 0.7149
1237.000000 0.7158 0.7184 0.7212 0.7225 0.7221
1242.000000 0.7208 0.7192 0.7185 0.7181 0.7174
1247.000000 0.7169 0.7170 0.7178 0.7189 0.7193
1252.000000 0.7198 0.7203 0.7208 0.7210 0.7208
1257.000000 0.7205 0.7144 0.7043 0.6935 0.6785
1262.000000 0.6635 0.6581 0.6565 0.6563 0.6536
1267.000000 0.6572 0.6605 0.6667 0.6758 0.6866
1272.000000 0.6873 0.6897 0.6861 0.6854 0.6838
1277.000000 0.6809 0.6769 0.6729 0.6688 0.6648
1282.000000 0.6609 0.6580 0.6552 0.6527 0.6507
1287.000000 0.6486 0.6464 0.6434 0.6404 0.6361
1292.000000 0.6309 0.6246 0.6174 0.6130 0.6085
1297.000000 0.6043 0.6005 0.5971 0.5943 0.5916
1302.000000 0.5890 0.5862 0.5826 0.5783 0.5741
1307.000000 0.5684 0.5630 0.5602 0.5580 0.5559
1312.000000 0.5543 0.5539 0.5537 0.5541 0.5544
1317.000000 0.5546 0.5542 0.5536 0.5512 0.5491
1322.000000 0.5472 0.5450 0.5475 0.5493 0.5532
1327.000000 0.5576 0.5639 0.5720 0.5804 0.5868
1332.000000 0.5911 0.5912 0.5923 0.5894 0.5860
1337.000000 0.5812 0.5713 0.5525 0.5292 0.5195
1342.000000 0.5099 0.5016 0.4937 0.4816 0.4625
1347.000000 0.4566 0.4546 0.4527 0.4517 0.4508
1352.000000 0.4500 0.4493 0.4477 0.4441 0.4394
1357.000000 0.4345 0.4295 0.4234 0.4157 0.4060
1362.000000 0.3983 0.3919 0.3860 0.3818 0.3776
1367.000000 0.3733 0.3687 0.3642 0.3277 0.2530
1372.000000 0.2446 0.2391 0.2348 0.2322 0.2294
1377.000000 0.2215 0.1966 0.1656 0.1347 0.1076
1382.000000 0.0980 0.0951 0.0937 0.0936 0.0929
1387.000000 0.1080 0.1241 0.1400 0.1561 0.1721
1392.000000 0.1880 0.2026 0.2079 0.2077 0.2106
1397.000000 0.2037 0.1925 0.1773 0.1622 0.1471
1402.000000 0.1320 0.1170 0.1019 0.0880 0.0802
1407.000000 0.0783 0.0784 0.0779 0.0786 0.0796
1412.000000 0.0808 0.0815 0.0813 0.0810 0.0806
1417.000000 0.0808 0.0841 0.0921 0.0999 0.1083
1422.000000 0.1202 0.1342 0.1525 0.1774 0.2030
1427.000000 0.2285 0.2540 0.2794 0.3319 0.3302
1432.000000 0.3335 0.3330 0.3321 0.3307 0.3151
1437.000000 0.2973 0.2794 0.2616 0.2438 0.2261
1442.000000 0.2084 0.1906 0.1729 0.1553 0.1377
1447.000000 0.1200 0.1024 0.0894 0.0800 0.0689
1452.000000 0.0589 0.0507 0.0434 0.0375 0.0334
1457.000000 0.0297 0.0263 0.0239 0.0222 0.0213
1462.000000 0.0204 0.0208 0.0214 0.0228 0.0242
1467.000000 0.0257 0.0261 0.0259 0.0247 0.0232
1472.000000 0.0210 0.0186 0.0161 0.0136 0.0105
1477.000000 0.0051 0.0016 0.0029 0.0041 0.0046
1482.000000 0.0047 0.0384 0.1589 0.1747 0.1905
1487.000000 0.2062 0.2220 0.2376 0.2533 0.2689
1492.000000 0.2846 0.3002 0.3157 0.3258 0.3305
1497.000000 0.3333 0.3344 0.3351 0.3355 0.3333
1502.000000 0.3350 0.3338 0.3305 0.3231 0.3149
1507.000000 0.3067 0.2986 0.2906 0.2837 0.2789
1512.000000 0.2761 0.2734 0.2701 0.2668 0.2622
1517.000000 0.2554 0.2423 0.2293 0.2163 0.2032
1522.000000 0.1912 0.1780 0.1657 0.1587 0.1528
1527.000000 0.1468 0.1408 0.1297 0.0946 0.0802
1532.000000 0.0703 0.0603 0.0499 0.0405 0.0347
1537.000000 0.0311 0.0291 0.0279 0.0274 0.0267
1542.000000 0.0276 0.0289 0.0308 0.0332 0.0357
1547.000000 0.0384 0.0403 0.0418 0.0432 0.0447
1552.000000 0.0435 0.0434 0.0429 0.0417 0.0399
1557.000000 0.0361 0.0297 0.0245 0.0229 0.0223
1562.000000 0.0223 0.0227 0.0198 0.0250 0.0294
1567.000000 0.0380 0.0481 0.0582 0.0683 0.0784
1572.000000 0.0885 0.0947 0.0978 0.0999 0.1021
1577.000000 0.1046 0.1074 0.1108 0.1166 0.1265
1582.000000 0.1382 0.1501 0.1620 0.1738 0.1856
1587.000000 0.1974 0.2092 0.2210 0.2328 0.2444
1592.000000 0.2531 0.2602 0.2661 0.2705 0.2745
1597.000000 0.2783 0.2820 0.2854 0.2951 0.2906
1602.000000 0.2924 0.2935 0.2932 0.2886 0.2793
1607.000000 0.2700 0.2606 0.2513 0.2435 0.2412
1612.000000 0.2409 0.2561 0.2807 0.3053 0.3299
1617.000000 0.3544 0.3788 0.4033 0.4278 0.4521
1622.000000 0.4765 0.4949 0.5073 0.5199 0.5332
1627.000000 0.5441 0.5535 0.5617 0.5686 0.5755
1632.000000 0.5874 0.6265 0.6414 0.6578 0.6813
1637.000000 0.6999 0.7151 0.7260 0.7353 0.7442
1642.000000 0.7526 0.7607 0.7684 0.7761 0.7835
1647.000000 0.7893 0.7942 0.7991 0.8040 0.8089
1652.000000 0.8143 0.8201 0.8260 0.8309 0.8344
1657.000000 0.8375 0.8405 0.8435 0.8448 0.8462
1662.000000 0.8475 0.8488 0.8500 0.8509 0.8517
1667.000000 0.8525 0.8533 0.8542 0.8561 0.8582
1672.000000 0.8607 0.8665 0.8725 0.8781 0.8828
1677.000000 0.8865 0.8898 0.8915 0.8928 0.8941
1682.000000 0.8952 0.8961 0.8968 0.8976 0.8984
1687.000000 0.8992 0.8994 0.8997 0.9000 0.9002
1692.000000 0.9005 0.9007 0.9009 0.9046 0.9009
1697.000000 0.9009 0.9009 0.9010 0.9010 0.9009
1702.000000 0.9006 0.9000 0.8995 0.8989 0.8984
1707.000000 0.8978 0.8970 0.8963 0.8965 0.8966
1712.000000 0.8968 0.8970 0.8973 0.8976 0.8979
1717.000000 0.8981 0.8986 0.8977 0.8955 0.8925
1722.000000 0.8894 0.8863 0.8832 0.8801 0.8772
1727.000000 0.8745 0.8724 0.8711 0.8704 0.8705
1732.000000 0.8735 0.8776 0.8816 0.8848 0.8848
1737.000000 0.8847 0.8840 0.8763 0.8609 0.8455
1742.000000 0.8303 0.8150 0.7997 0.7844 0.7693
1747.000000 0.7540 0.7497 0.7483 0.7477 0.7474
1752.000000 0.7470 0.7541 0.7676 0.7825 0.7973
1757.000000 0.8121 0.8270 0.8418 0.8566 0.8714
1762.000000 0.8861 0.9009 0.9156 0.9296 0.9411
1767.000000 0.9487 0.9517 0.9532 0.9545 0.9558
1772.000000 0.9570 0.9578 0.9587 0.9595 0.9603
1777.000000 0.9610 0.9615 0.9620 0.9625 0.9633
1782.000000 0.9647 0.9666 0.9685 0.9704 0.9722
1787.000000 0.9740 0.9742 0.9744 0.9747 0.9749
1792.000000 0.9751 0.9752 0.9753 0.9754 0.9755
1797.000000 0.9755 0.9756 0.9757 0.9758 0.9758
1802.000000 0.9759 0.9759 0.9760 0.9760 0.9761
1807.000000 0.9762 0.9763 0.9765 0.9766 0.9768
1812.000000 0.9770 0.9774 0.9781 0.9787 0.9794
1817.000000 0.9800 0.9802 0.9801 0.9798 0.9796
1822.000000 0.9795 0.9791 0.9786 0.9782 0.9777
1827.000000 0.9773 0.9768 0.9763 0.9757 0.9751
1832.000000 0.9746 0.9740 0.9734 0.9728 0.9722
1837.000000 0.9716 0.9710 0.9702 0.9691 0.9680
1842.000000 0.9680 0.9682 0.9686 0.9692 0.9706
1847.000000 0.9718 0.9729 0.9738 0.9746 0.9748
1852.000000 0.9746 0.9744 0.9742 0.9740 0.9737
1857.000000 0.9733 0.9729 0.9724 0.9720 0.9714
1862.000000 0.9708 0.9700 0.9691 0.9683 0.9675
1867.000000 0.9667 0.9660 0.9654 0.9649 0.9642
1872.000000 0.9636 0.9630 0.9626 0.9623 0.9620
1877.000000 0.9617 0.9614 0.9611 0.9609 0.9606
1882.000000 0.9603 0.9600 0.9597 0.9595 0.9593
1887.000000 0.9591 0.9590 0.9589 0.9588 0.9587
1892.000000 0.9586 0.9585 0.9583 0.9583 0.9582
1897.000000 0.9580 0.9580 0.9580 0.9580 0.9580
1902.000000 0.9581 0.9582 0.9582 0.9583 0.9584
1907.000000 0.9585 0.9585 0.9585 0.9586 0.9586
1912.000000 0.9587 0.9588 0.9588 0.9590 0.9591
1917.000000 0.9594 0.9596 0.9598 0.9600 0.9603
1922.000000 0.9605 0.9607 0.9609 0.9611 0.9613
1927.000000 0.9616 0.9619 0.9623 0.9627 0.9630
1932.000000 0.9634 0.9637 0.9640 0.9642 0.9644
1937.000000 0.9645 0.9647 0.9649 0.9650 0.9652
1942.000000 0.9654 0.9655 0.9656 0.9658 0.9660
1947.000000 0.9661 0.9663 0.9665 0.9667 0.9669
1952.000000 0.9670 0.9672 0.9674 0.9675 0.9677
1957.000000 0.9679 0.9680 0.9682 0.9683 0.9685
1962.000000 0.9688 0.9690 0.9693 0.9695 0.9697
1967.000000 0.9700 0.9702 0.9703 0.9704 0.9706
1972.000000 0.9707 0.9707 0.9709 0.9710 0.9710
1977.000000 0.9711 0.9713 0.9713 0.9714 0.9716
1982.000000 0.9716 0.9717 0.9718 0.9719 0.9720
1987.000000 0.9721 0.9721 0.9720 0.9719 0.9718
1992.000000 0.9718 0.9714 0.9711 0.9708 0.9705
1997.000000 0.9702 0.9699 0.9696 0.9693 0.9689
2002.000000 0.9686 0.9683 0.9681 0.9680 0.9680
2007.000000 0.9681 0.9681 0.9682 0.9683 0.9683
2012.000000 0.9684 0.9685 0.9686 0.9687 0.9687
2017.000000 0.9689 0.9690 0.9693 0.9695 0.9696
2022.000000 0.9699 0.9701 0.9703 0.9705 0.9708
2027.000000 0.9710 0.9712 0.9714 0.9716 0.9719
2032.000000 0.9721 0.9723 0.9725 0.9727 0.9729
2037.000000 0.9731 0.9732 0.9733 0.9735 0.9737
2042.000000 0.9739 0.9740 0.9741 0.9743 0.9745
2047.000000 0.9747 0.9748 0.9749 0.9751 0.9753
2052.000000 0.9755 0.9756 0.9757 0.9759 0.9761
2057.000000 0.9762 0.9764 0.9765 0.9767 0.9768
2062.000000 0.9770 0.9772 0.9773 0.9774 0.9775
2067.000000 0.9777 0.9779 0.9780 0.9781 0.9783
2072.000000 0.9784 0.9786 0.9787 0.9789 0.9790
2077.000000 0.9792 0.9793 0.9795 0.9798 0.9799
2082.000000 0.9801 0.9803 0.9805 0.9807 0.9809
2087.000000 0.9811 0.9813 0.9814 0.9814 0.9812
2092.000000 0.9810 0.9808 0.9806 0.9804 0.9801
2097.000000 0.9799 0.9797 0.9796 0.9793 0.9791
2102.000000 0.9790 0.9788 0.9785 0.9783 0.9781
2107.000000 0.9779 0.9777 0.9775 0.9773 0.9771
2112.000000 0.9769 0.9767 0.9765 0.9763 0.9760
2117.000000 0.9758 0.9756 0.9753 0.9749 0.9745
2122.000000 0.9741 0.9736 0.9732 0.9728 0.9724
2127.000000 0.9719 0.9715 0.9711 0.9707 0.9703
2132.000000 0.9699 0.9696 0.9692 0.9688 0.9685
2137.000000 0.9682 0.9678 0.9675 0.9672 0.9668
2142.000000 0.9664 0.9661 0.9658 0.9655 0.9651
2147.000000 0.9647 0.9644 0.9640 0.9637 0.9635
2152.000000 0.9633 0.9632 0.9631 0.9631 0.9630
2157.000000 0.9629 0.9627 0.9626 0.9626 0.9625
2162.000000 0.9624 0.9623 0.9622 0.9621 0.9621
2167.000000 0.9620 0.9619 0.9618 0.9617 0.9616
2172.000000 0.9616 0.9614 0.9613 0.9612 0.9611
2177.000000 0.9610 0.9608 0.9607 0.9606 0.9605
2182.000000 0.9604 0.9603 0.9602 0.9600 0.9599
2187.000000 0.9598 0.9597 0.9596 0.9595 0.9594
2192.000000 0.9592 0.9590 0.9589 0.9588 0.9587
2197.000000 0.9586 0.9585 0.9584 0.9583 0.9582
2202.000000 0.9580 0.9579 0.9576 0.9573 0.9571
2207.000000 0.9569 0.9566 0.9564 0.9562 0.9559
2212.000000 0.9556 0.9554 0.9551 0.9549 0.9547
2217.000000 0.9545 0.9542 0.9540 0.9537 0.9535
2222.000000 0.9532 0.9530 0.9528 0.9525 0.9523
2227.000000 0.9520 0.9518 0.9516 0.9514 0.9511
2232.000000 0.9509 0.9506 0.9504 0.9502 0.9500
2237.000000 0.9497 0.9495 0.9493 0.9491 0.9488
2242.000000 0.9486 0.9484 0.9482 0.9479 0.9477
2247.000000 0.9475 0.9473 0.9471 0.9468 0.9466
2252.000000 0.9463 0.9461 0.9459 0.9457 0.9454
2257.000000 0.9452 0.9450 0.9448 0.9445 0.9443
2262.000000 0.9441 0.9439 0.9437 0.9435 0.9435
2267.000000 0.9434 0.9434 0.9433 0.9433 0.9432
2272.000000 0.9432 0.9431 0.9431 0.9430 0.9430
2277.000000 0.9429 0.9429 0.9428 0.9428 0.9428
2282.000000 0.9427 0.9427 0.9426 0.9426 0.9425
2287.000000 0.9425 0.9424 0.9424 0.9422 0.9420
2292.000000 0.9415 0.9408 0.9402 0.9396 0.9387
2297.000000 0.9374 0.9360 0.9344 0.9327 0.9313
2302.000000 0.9299 0.9292 0.9285 0.9279 0.9272
2307.000000 0.9266 0.9259 0.9253 0.9246 0.9239
2312.000000 0.9233 0.9226 0.9220 0.9213 0.9207
2317.000000 0.9200 0.9194 0.9187 0.9181 0.9174
2322.000000 0.9168 0.9162 0.9156 0.9149 0.9143
2327.000000 0.9138 0.9133 0.9128 0.9122 0.9117
2332.000000 0.9111 0.9106 0.9101 0.9095 0.9090
2337.000000 0.9085 0.9080 0.9074 0.9069 0.9064
2342.000000 0.9059 0.9054 0.9048 0.9043 0.9039
2347.000000 0.9036 0.9033 0.9030 0.9027 0.9025
2352.000000 0.9022 0.9019 0.9017 0.9014 0.9011
2357.000000 0.9010 0.9010 0.9009 0.9009 0.9008
2362.000000 0.9007 0.9006 0.9006 0.9006 0.9005
2367.000000 0.9005 0.9005 0.9007 0.9008 0.9010
2372.000000 0.9013 0.9015 0.9017 0.9019 0.9022
2377.000000 0.9024 0.9026 0.9028 0.9030 0.9033
2382.000000 0.9035 0.9037 0.9039 0.9041 0.9043
2387.000000 0.9045 0.9047 0.9049 0.9051 0.9053
2392.000000 0.9055 0.9057 0.9059 0.9061 0.9063
2397.000000 0.9066 0.9067 0.9069 0.9071 0.9073
2402.000000 0.9076 0.9078 0.9081 0.9083 0.9085
2407.000000 0.9088 0.9090 0.9093 0.9095 0.9097
2412.000000 0.9100 0.9102 0.9104 0.9107 0.9109
2417.000000 0.9111 0.9113 0.9113 0.9113 0.9114
2422.000000 0.9114 0.9115 0.9115 0.9116 0.9116
2427.000000 0.9116 0.9117 0.9117 0.9118 0.9118
2432.000000 0.9118 0.9118 0.9118 0.9119 0.9119
2437.000000 0.9120 0.9120 0.9120 0.9121 0.9121
2442.000000 0.9121 0.9121 0.9122 0.9122 0.9122
2447.000000 0.9121 0.9119 0.9117 0.9115 0.9112
2452.000000 0.9110 0.9107 0.9105 0.9103 0.9101
2457.000000 0.9099 0.9097 0.9093 0.9089 0.9084
2462.000000 0.9076 0.9069 0.9061 0.9054 0.9045
2467.000000 0.9033 0.9021 0.9008 0.8995 0.8986
2472.000000 0.8980 0.8974 0.8969 0.8965 0.8960
2477.000000 0.8956 0.8951 0.8946 0.8941 0.8938
2482.000000 0.8935 0.8932 0.8929 0.8927 0.8924
2487.000000 0.8922 0.8919 0.8917 0.8915 0.8912
2492.000000 0.8909 0.8906 0.8903 0.8900 0.8895
2497.000000 0.8891 0.8886 0.8882 0.8878 0.8873
2502.000000 0.8869 0.8864 0.8859 0.8855 0.8850
2507.000000 0.8846 0.8841 0.8837 0.8833 0.8827
2512.000000 0.8822 0.8816 0.8809 0.8802 0.8796
2517.000000 0.8789 0.8783 0.8776 0.8770 0.8763
2522.000000 0.8757 0.8751 0.8744 0.8738 0.8732
2527.000000 0.8725 0.8718 0.8712 0.8706 0.8698
2532.000000 0.8690 0.8682 0.8672 0.8663 0.8654
2537.000000 0.8644 0.8635 0.8626 0.8617 0.8607
2542.000000 0.8595 0.8584 0.8573 0.8562 0.8552
2547.000000 0.8541 0.8530 0.8519 0.8508 0.8498
2552.000000 0.8484 0.8471 0.8457 0.8443 0.8428
2557.000000 0.8413 0.8399 0.8384 0.8370 0.8356
2562.000000 0.8342 0.8328 0.8314 0.8300 0.8287
2567.000000 0.8273 0.8260 0.8246 0.8233 0.8219
2572.000000 0.8206 0.8192 0.8179 0.8165 0.8151
2577.000000 0.8138 0.8123 0.8108 0.8092 0.8077
2582.000000 0.8062 0.8047 0.8032 0.8016 0.8001
2587.000000 0.7986 0.7970 0.7955 0.7940 0.7924
2592.000000 0.7909 0.7893 0.7874 0.7852 0.7831
2597.000000 0.7810 0.7788 0.7767 0.7746 0.7725
2602.000000 0.7709 0.7698 0.7686 0.7678 0.7670
2607.000000 0.7662 0.7653 0.7645 0.7637 0.7629
2612.000000 0.7621 0.7613 0.7605 0.7597 0.7589
2617.000000 0.7580 0.7572 0.7564 0.7556 0.7548
2622.000000 0.7541 0.7535 0.7528 0.7521 0.7514
2627.000000 0.7507 0.7500 0.7493 0.7487 0.7480
2632.000000 0.7474 0.7467 0.7460 0.7453 0.7446
2637.000000 0.7439 0.7433 0.7426 0.7420 0.7413
2642.000000 0.7406 0.7400 0.7393 0.7386 0.7379
2647.000000 0.7373 0.7366 0.7360 0.7354 0.7348
2652.000000 0.7342 0.7337 0.7331 0.7325 0.7319
2657.000000 0.7313 0.7307 0.7302 0.7296 0.7290
2662.000000 0.7284 0.7278 0.7273 0.7267 0.7262
2667.000000 0.7257 0.7252 0.7249 0.7246 0.7243
2672.000000 0.7241 0.7238 0.7235 0.7232 0.7229
2677.000000 0.7227 0.7224 0.7221 0.7219 0.7216
2682.000000 0.7214 0.7213 0.7212 0.7211 0.7210
2687.000000 0.7208 0.7207 0.7206 0.7205 0.7204
2692.000000 0.7203 0.7201 0.7200 0.7199 0.7198
2697.000000 0.7196 0.7187 0.7178 0.7169 0.7159
2702.000000 0.7149 0.7136 0.7117 0.7098 0.7077
2707.000000 0.7053 0.7029 0.7006 0.6983 0.6961
2712.000000 0.6940 0.6920 0.6901 0.6884 0.6868
2717.000000 0.6852 0.6842 0.6835 0.6829 0.6827
2722.000000 0.6827 0.6827 0.6828 0.6830 0.6833
2727.000000 0.6836 0.6839 0.6842 0.6847 0.6852
2732.000000 0.6858 0.6864 0.6869 0.6874 0.6882
2737.000000 0.6890 0.6898 0.6907 0.6916 0.6925
2742.000000 0.6939 0.6953 0.6967 0.6977 0.6986
2747.000000 0.6995 0.6998 0.6998 0.6998 0.6998
2752.000000 0.6996 0.6995 0.6991 0.6987 0.6982
2757.000000 0.6976 0.6968 0.6961 0.6950 0.6936
2762.000000 0.6922 0.6883 0.6827 0.6771 0.6736
2767.000000 0.6721 0.6706 0.6691 0.6676 0.6662
2772.000000 0.6639 0.6604 0.6569 0.6537 0.6511
2777.000000 0.6485 0.6462 0.6445 0.6427 0.6409
2782.000000 0.6387 0.6364 0.6340 0.6295 0.6250
2787.000000 0.6206 0.6158 0.6111 0.6064 0.5999
2792.000000 0.5930 0.5861 0.5779 0.5692 0.5605
2797.000000 0.5528 0.5458 0.5388 0.5326 0.5273
2802.000000 0.5221 0.5073 0.4714 0.4356 0.4041
2807.000000 0.3950 0.3860 0.3769 0.3680 0.3590
2812.000000 0.3500 0.3331 0.3148 0.2965 0.2876
2817.000000 0.2829 0.2782 0.2736 0.2689 0.2643
2822.000000 0.2528 0.2274 0.2020 0.1758 0.1441
2827.000000 0.1124 0.0808 0.0743 0.0693 0.0642
2832.000000 0.0596 0.0550 0.0505 0.0447 0.0378
2837.000000 0.0310 0.0257 0.0238 0.0219 0.0202
2842.000000 0.0193 0.0185 0.0177 0.0173 0.0170
2847.000000 0.0168 0.0165 0.0163 0.0160 0.0157
2852.000000 0.0155 0.0152 0.0149 0.0148 0.0148
2857.000000 0.0147 0.0146 0.0145 0.0144 0.0143
2862.000000 0.0143 0.0142 0.0141 0.0141 0.0140
2867.000000 0.0140 0.0140 0.0140 0.0140 0.0141
2872.000000 0.0141 0.0141 0.0142 0.0142 0.0143
2877.000000 0.0144 0.0144 0.0144 0.0144 0.0144
2882.000000 0.0144 0.0144 0.0144 0.0144 0.0144
2887.000000 0.0145 0.0145 0.0145 0.0145 0.0144
2892.000000 0.0144 0.0144 0.0143 0.0143 0.0143
2897.000000 0.0142 0.0142 0.0142 0.0142 0.0141
2902.000000 0.0140 0.0140 0.0139 0.0138 0.0137
2907.000000 0.0136 0.0136 0.0135 0.0135 0.0134
2912.000000 0.0133 0.0132 0.0131 0.0131 0.0130
2917.000000 0.0130 0.0129 0.0128 0.0127 0.0126
2922.000000 0.0126 0.0125 0.0124 0.0124 0.0123
2927.000000 0.0123 0.0122 0.0121 0.0120 0.0119
2932.000000 0.0119 0.0118 0.0118 0.0117 0.0116
2937.000000 0.0115 0.0114 0.0114 0.0113 0.0113
2942.000000 0.0112 0.0111 0.0111 0.0110 0.0109
2947.000000 0.0108 0.0108 0.0107 0.0107 0.0107
2952.000000 0.0106 0.0106 0.0106 0.0106 0.0105
2957.000000 0.0105 0.0105 0.0106 0.0108 0.0111
2962.000000 0.0113 0.0118 0.0124 0.0129 0.0135
2967.000000 0.0140 0.0145 0.0150 0.0156 0.0162
2972.000000 0.0168 0.0175 0.0181 0.0188 0.0194
2977.000000 0.0204 0.0215 0.0226 0.0238 0.0256
2982.000000 0.0274 0.0291 0.0318 0.0347 0.0377
2987.000000 0.0405 0.0421 0.0437 0.0453 0.0469
2992.000000 0.0484 0.0500 0.0516 0.0586 0.0656
2997.000000 0.0725 0.0804 0.0895 0.0986 0.1077
3002.000000 0.1168 0.1259 0.1350 0.1441 0.1532
3007.000000 0.1622 0.1713 0.1804 0.1894 0.1985
3012.000000 0.2075 0.2166 0.2256 0.2347 0.2437
3017.000000 0.2527 0.2617 0.2707 0.2797 0.2887
3022.000000 0.2977 0.3067 0.3156 0.3246 0.3336
3027.000000 0.3425 0.3515 0.3604 0.3693 0.3783
3032.000000 0.3872 0.3961 0.4050 0.4139 0.4228
3037.000000 0.4317 0.4406 0.4495 0.4584 0.4672
3042.000000 0.4761 0.4849 0.4938 0.5027 0.5115
3047.000000 0.5203 0.5292 0.5380 0.5468 0.5556
3052.000000 0.5644 0.5732 0.5820 0.5908 0.5996
3057.000000 0.6084 0.6172 0.6260 0.6348 0.6435
3062.000000 0.6523 0.6610 0.6691 0.6755 0.6818
3067.000000 0.6882 0.6925 0.6951 0.6976 0.7001
3072.000000 0.7029 0.7057 0.7086 0.7115 0.7139
3077.000000 0.7162 0.7186 0.7209 0.7227 0.7245
3082.000000 0.7263 0.7277 0.7288 0.7298 0.7308
3087.000000 0.7314 0.7317 0.7319 0.7322 0.7325
3092.000000 0.7328 0.7330 0.7333 0.7336 0.7339
3097.000000 0.7341 0.7343 0.7343 0.7342 0.7342
3102.000000 0.7341 0.7340 0.7339 0.7338 0.7337
3107.000000 0.7336 0.7335 0.7334 0.7333 0.7332
3112.000000 0.7331 0.7330 0.7329 0.7327 0.7326
3117.000000 0.7325 0.7323 0.7322 0.7321 0.7320
3122.000000 0.7318 0.7317 0.7316 0.7315 0.7313
3127.000000 0.7311 0.7310 0.7308 0.7307 0.7306
3132.000000 0.7305 0.7303 0.7302 0.7301 0.7299
3137.000000 0.7298 0.7295 0.7293 0.7290 0.7287
3142.000000 0.7284 0.7280 0.7276 0.7272 0.7268
3147.000000 0.7265 0.7261 0.7257 0.7253 0.7249
3152.000000 0.7246 0.7242 0.7238 0.7234 0.7230
3157.000000 0.7225 0.7220 0.7215 0.7209 0.7204
3162.000000 0.7199 0.7194 0.7189 0.7184 0.7179
3167.000000 0.7174 0.7168 0.7163 0.7158 0.7153
3172.000000 0.7148 0.7143 0.7139 0.7136 0.7132
3177.000000 0.7128 0.7124 0.7120 0.7116 0.7112
3182.000000 0.7108 0.7104 0.7100 0.7096 0.7093
3187.000000 0.7089 0.7085 0.7082 0.7081 0.7079
3192.000000 0.7078 0.7076 0.7076 0.7075 0.7075
3197.000000 0.7074 0.7074 0.7073 0.7072 0.7072
3202.000000 0.7070 0.7069 0.7067 0.7066 0.7064
3207.000000 0.7063 0.7062 0.7061 0.7060 0.7058
3212.000000 0.7057 0.7056 0.7055 0.7053 0.7052
3217.000000 0.7050 0.7049 0.7048 0.7046 0.7045
3222.000000 0.7044 0.7043 0.7042 0.7040 0.7039
3227.000000 0.7036 0.7033 0.7030 0.7026 0.7022
3232.000000 0.7017 0.7012 0.7007 0.7002 0.6998
3237.000000 0.6993 0.6988 0.6983 0.6979 0.6974
3242.000000 0.6969 0.6964 0.6959 0.6954 0.6948
3247.000000 0.6943 0.6936 0.6930 0.6923 0.6916
3252.000000 0.6910 0.6903 0.6896 0.6890 0.6883
3257.000000 0.6877 0.6870 0.6863 0.6857 0.6850
3262.000000 0.6844 0.6837 0.6831 0.6824 0.6818
3267.000000 0.6812 0.6805 0.6799 0.6793 0.6787
3272.000000 0.6781 0.6775 0.6769 0.6763 0.6757
3277.000000 0.6751 0.6745 0.6739 0.6733 0.6726
3282.000000 0.6720 0.6714 0.6708 0.6701 0.6696
3287.000000 0.6691 0.6685 0.6680 0.6675 0.6670
3292.000000 0.6665 0.6660 0.6656 0.6651 0.6646
3297.000000 0.6641 0.6636 0.6631 0.6627 0.6622
3302.000000 0.6617 0.6613 0.6611 0.6608 0.6606
3307.000000 0.6603 0.6602 0.6601 0.6600 0.6599
3312.000000 0.6598 0.6597 0.6595 0.6594 0.6593
3317.000000 0.6592 0.6591 0.6590 0.6589 0.6587
3322.000000 0.6586 0.6585 0.6584 0.6583 0.6582
3327.000000 0.6581 0.6580 0.6557 0.6579 0.6580
3332.000000 0.6581 0.6581 0.6582 0.6582 0.6583
3337.000000 0.6583 0.6584 0.6585 0.6585 0.6586
3342.000000 0.6587 0.6590 0.6594 0.6597 0.6601
3347.000000 0.6604 0.6608 0.6612 0.6615 0.6619
3352.000000 0.6622 0.6626 0.6629 0.6633 0.6637
3357.000000 0.6640 0.6644 0.6647 0.6651 0.6654
3362.000000 0.6658 0.6661 0.6665 0.6669 0.6675
3367.000000 0.6681 0.6687 0.6693 0.6699 0.6704
3372.000000 0.6710 0.6716 0.6722 0.6727 0.6733
3377.000000 0.6739 0.6744 0.6750 0.6756 0.6762
3382.000000 0.6768 0.6774 0.6779 0.6785 0.6790
3387.000000 0.6796 0.6801 0.6807 0.6812 0.6818
3392.000000 0.6824 0.6829 0.6835 0.6840 0.6845
3397.000000 0.6851 0.6857 0.6862 0.6868 0.6873
3402.000000 0.6879 0.6884 0.6890 0.6895 0.6901
3407.000000 0.6909 0.6916 0.6924 0.6932 0.6940
3412.000000 0.6949 0.6957 0.6965 0.6973 0.6981
3417.000000 0.6989 0.6997 0.7005 0.7013 0.7021
3422.000000 0.7029 0.7037 0.7045 0.7053 0.7061
3427.000000 0.7069 0.7077 0.7085 0.7093 0.7102
3432.000000 0.7111 0.7119 0.7128 0.7137 0.7146
3437.000000 0.7155 0.7164 0.7173 0.7182 0.7192
3442.000000 0.7201 0.7210 0.7219 0.7228 0.7237
3447.000000 0.7246 0.7255 0.7265 0.7275 0.7285
3452.000000 0.7295 0.7305 0.7315 0.7326 0.7336
3457.000000 0.7346 0.7356 0.7367 0.7377 0.7387
3462.000000 0.7397 0.7408 0.7419 0.7430 0.7442
3467.000000 0.7453 0.7464 0.7476 0.7487 0.7499
3472.000000 0.7510 0.7521 0.7532 0.7544 0.7555
3477.000000 0.7566 0.7576 0.7586 0.7596 0.7606
3482.000000 0.7616 0.7625 0.7635 0.7645 0.7655
3487.000000 0.7667 0.7686 0.7705 0.7723 0.7742
3492.000000 0.7765 0.7795 0.7825 0.7855 0.7884
3497.000000 0.7905 0.7915 0.7925 0.7935 0.7945
3502.000000 0.7956 0.7966 0.7976 0.7986 0.7996
3507.000000 0.8006 0.8017 0.8027 0.8037 0.8047
3512.000000 0.8057 0.8067 0.8077 0.8088 0.8098
3517.000000 0.8108 0.8118 0.8128 0.8138 0.8148
3522.000000 0.8158 0.8168 0.8178 0.8188 0.8199
3527.000000 0.8209 0.8219 0.8229 0.8239 0.8249
3532.000000 0.8259 0.8269 0.8279 0.8289 0.8299
3537.000000 0.8309 0.8318 0.8328 0.8338 0.8348
3542.000000 0.8358 0.8368 0.8378 0.8388 0.8398
3547.000000 0.8407 0.8417 0.8427 0.8437 0.8447
3552.000000 0.8457 0.8467 0.8477 0.8487 0.8497
3557.000000 0.8507 0.8516 0.8526 0.8536 0.8546
3562.000000 0.8556 0.8566 0.8576 0.8585 0.8595
3567.000000 0.8605 0.8615 0.8625 0.8634 0.8644
3572.000000 0.8654 0.8664 0.8674 0.8684 0.8694
3577.000000 0.8709 0.8728 0.8748 0.8768 0.8787
3582.000000 0.8804 0.8813 0.8823 0.8832 0.8842
3587.000000 0.8851 0.8861 0.8870 0.8880 0.8889
3592.000000 0.8899 0.8908 0.8917 0.8926 0.8935
3597.000000 0.8944 0.8950 0.8954 0.8959 0.8963
3602.000000 0.8968 0.8973 0.8977 0.8982 0.8987
3607.000000 0.8991 0.8996 0.9000 0.9005 0.9010
3612.000000 0.9014 0.9019 0.9023 0.9028 0.9033
3617.000000 0.9037 0.9042 0.9046 0.9051 0.9055
3622.000000 0.9060 0.9065 0.9068 0.9071 0.9074
3627.000000 0.9077 0.9080 0.9083 0.9086 0.9089
3632.000000 0.9092 0.9094 0.9097 0.9100 0.9103
3637.000000 0.9106 0.9109 0.9111 0.9114 0.9117
3642.000000 0.9119 0.9122 0.9125 0.9127 0.9130
3647.000000 0.9132 0.9135 0.9137 0.9139 0.9141
3652.000000 0.9142 0.9144 0.9145 0.9147 0.9148
3657.000000 0.9149 0.9150 0.9152 0.9153 0.9155
3662.000000 0.9156 0.9157 0.9159 0.9160 0.9162
3667.000000 0.9163 0.9165 0.9166 0.9167 0.9168
3672.000000 0.9170 0.9171 0.9173 0.9174 0.9176
3677.000000 0.9177 0.9178 0.9180 0.9181 0.9182
3682.000000 0.9184 0.9184 0.9184 0.9185 0.9185
3687.000000 0.9185 0.9186 0.9186 0.9186 0.9186
3692.000000 0.9186 0.9187 0.9187 0.9187 0.9188
3697.000000 0.9188 0.9188 0.9189 0.9189 0.9190
3702.000000 0.9190 0.9190 0.9218 0.9191 0.9191
3707.000000 0.9191 0.9191 0.9191 0.9191 0.9191
3712.000000 0.9191 0.9191 0.9191 0.9190 0.9190
3717.000000 0.9190 0.9189 0.9189 0.9189 0.9188
3722.000000 0.9188 0.9188 0.9187 0.9187 0.9187
3727.000000 0.9187 0.9187 0.9187 0.9187 0.9187
3732.000000 0.9188 0.9190 0.9192 0.9194 0.9196
3737.000000 0.9198 0.9199 0.9200 0.9202 0.9203
3742.000000 0.9205 0.9206 0.9207 0.9208 0.9209
3747.000000 0.9210 0.9211 0.9213 0.9214 0.9215
3752.000000 0.9216 0.9218 0.9218 0.9216 0.9214
3757.000000 0.9212 0.9209 0.9207 0.9205 0.9202
3762.000000 0.9199 0.9196 0.9193 0.9190 0.9184
3767.000000 0.9178 0.9172 0.9167 0.9161 0.9155
3772.000000 0.9149 0.9143 0.9136 0.9130 0.9124
3777.000000 0.9120 0.9118 0.9117 0.9115 0.9113
3782.000000 0.9111 0.9109 0.9108 0.9107 0.9106
3787.000000 0.9105 0.9103 0.9102 0.9101 0.9100
3792.000000 0.9099 0.9098 0.9097 0.9097 0.9096
3797.000000 0.9096 0.9095 0.9095 0.9094 0.9094
3802.000000 0.9093 0.9093 0.9092 0.9092 0.9091
3807.000000 0.9090 0.9090 0.9089 0.9088 0.9087
3812.000000 0.9087 0.9087 0.9086 0.9086 0.9086
3817.000000 0.9086 0.9086 0.9087 0.9088 0.9088
3822.000000 0.9089 0.9090 0.9090 0.9091 0.9091
3827.000000 0.9092 0.9092 0.9093 0.9094 0.9094
3832.000000 0.9095 0.9096 0.9096 0.9098 0.9100
3837.000000 0.9102 0.9104 0.9106 0.9108 0.9110
3842.000000 0.9112 0.9115 0.9117 0.9119 0.9121
3847.000000 0.9123 0.9126 0.9128 0.9130 0.9132
3852.000000 0.9134 0.9136 0.9137 0.9139 0.9140
3857.000000 0.9142 0.9143 0.9145 0.9146 0.9148
3862.000000 0.9150 0.9151 0.9153 0.9154 0.9155
3867.000000 0.9157 0.9158 0.9159 0.9160 0.9160
3872.000000 0.9159 0.9158 0.9158 0.9157 0.9156
3877.000000 0.9156 0.9155 0.9154 0.9153 0.9152
3882.000000 0.9151 0.9150 0.9148 0.9147 0.9145
3887.000000 0.9143 0.9142 0.9140 0.9139 0.9137
3892.000000 0.9136 0.9134 0.9133 0.9131 0.9129
3897.000000 0.9128 0.9126 0.9124 0.9123 0.9121
3902.000000 0.9119 0.9118 0.9116 0.9115 0.9113
3907.000000 0.9111 0.9110 0.9108 0.9106 0.9105
3912.000000 0.9103 0.9101 0.9100 0.9098 0.9096
3917.000000 0.9094 0.9092 0.9091 0.9089 0.9087
3922.000000 0.9085 0.9083 0.9082 0.9080 0.9078
3927.000000 0.9076 0.9074 0.9072 0.9070 0.9068
3932.000000 0.9066 0.9064 0.9062 0.9060 0.9058
3937.000000 0.9057 0.9054 0.9052 0.9050 0.9048
3942.000000 0.9046 0.9044 0.9042 0.9039 0.9037
3947.000000 0.9035 0.9033 0.9031 0.9028 0.9026
3952.000000 0.9024 0.9022 0.9020 0.9018 0.9016
3957.000000 0.9014 0.9011 0.9009 0.9007 0.9005
3962.000000 0.9002 0.9000 0.8998 0.8996 0.8994
3967.000000 0.8991 0.8989 0.8987 0.8985 0.8983
3972.000000 0.8981 0.8979 0.8977 0.8975 0.8972
3977.000000 0.8970 0.8968 0.8966 0.8963 0.8961
3982.000000 0.8959 0.8956 0.8954 0.8951 0.8949
3987.000000 0.8946 0.8944 0.8941 0.8939 0.8936
3992.000000 0.8934 0.8931 0.8929 0.8926 0.8924
3997.000000 0.8921 0.8919 0.8916 0.8914
##END=
