##TITLE=ISOPROTERENOL HYDROCHLORIDE
##JCAMP-DX=4.24
$$ By DXEDIT 1.05 (RS McDonald)
##DATA TYPE=INFRARED SPECTRUM
##CLASS=COBLENTZ III
##OWNER=COBLENTZ SOC.
Collection (C) 2018 copyright by the U.S. Secretary of Commerce
on behalf of the United States of America. All rights reserved.
##DATE=1961/07/10
##NAMES=4-[1-hydroxy-2-(isopropylamino)ethyl]-1,2-benzenediol hydrochloride
Alpha-(ISOPROPYLAMINOMETHYL)PROTOCATECHUYL ALCOHOL HYDROCHLORIDE
##MOLFORM=C11 H18 Cl N O3
##MP=170-171 C
##SOURCE REFERENCE=COBLENTZ NO. 05087
##$NIST ID=B6005087
##$NIST SOURCE=COBLENTZ
##$NIST IMAGE=cob5087
##SPECTROMETER/DATA SYSTEM=PERKIN-ELMER 21 (GRATING)
##INSTRUMENT PARAMETERS=FILTER AT ABOUT 10 MICRONS
##STATE=SOLID (1.01 mg / 201 mg KCl DISC)
##SAMPLING PROCEDURE=TRANSMISSION
##RESOLUTION=2
##DATA PROCESSING=DIGITIZED BY COBLENTZ SOCIETY (BATCH I) FROM HARD COPY
##XUNITS=1/CM
##YUNITS=TRANSMITTANCE
##XLABEL=Wavenumbers (cm-1)
##YLABEL=Transmittance
##XFACTOR=1
##YFACTOR=1
##DELTAX=1
##FIRSTX=4000
##LASTX=655
##FIRSTY=0.606
##MAXX=4000
##MINX=655
##MAXY=0.7632
##MINY=0.0482
##NPOINTS=3346
##XYDATA=(X++(Y..Y))
4000.000000 0.6060 0.6060 0.6062 0.6064 0.6066
3995.000000 0.6067 0.6069 0.6070 0.6072 0.6073
3990.000000 0.6075 0.6076 0.6077 0.6079 0.6080
3985.000000 0.6082 0.6084 0.6085 0.6087 0.6088
3980.000000 0.6090 0.6091 0.6093 0.6095 0.6096
3975.000000 0.6098 0.6099 0.6101 0.6103 0.6104
3970.000000 0.6106 0.6107 0.6109 0.6110 0.6112
3965.000000 0.6114 0.6115 0.6117 0.6118 0.6120
3960.000000 0.6122 0.6123 0.6125 0.6126 0.6128
3955.000000 0.6130 0.6131 0.6133 0.6134 0.6136
3950.000000 0.6138 0.6139 0.6141 0.6142 0.6143
3945.000000 0.6145 0.6146 0.6148 0.6149 0.6151
3940.000000 0.6153 0.6154 0.6156 0.6158 0.6159
3935.000000 0.6160 0.6162 0.6162 0.6165 0.6166
3930.000000 0.6168 0.6169 0.6171 0.6172 0.6174
3925.000000 0.6175 0.6177 0.6178 0.6180 0.6181
3920.000000 0.6183 0.6185 0.6186 0.6188 0.6190
3915.000000 0.6191 0.6193 0.6194 0.6196 0.6198
3910.000000 0.6199 0.6201 0.6203 0.6204 0.6206
3905.000000 0.6208 0.6210 0.6210 0.6212 0.6215
3900.000000 0.6217 0.6218 0.6220 0.6222 0.6223
3895.000000 0.6225 0.6227 0.6228 0.6230 0.6232
3890.000000 0.6234 0.6236 0.6238 0.6239 0.6241
3885.000000 0.6243 0.6244 0.6246 0.6247 0.6249
3880.000000 0.6251 0.6253 0.6255 0.6257 0.6258
3875.000000 0.6260 0.6262 0.6264 0.6266 0.6268
3870.000000 0.6269 0.6272 0.6274 0.6276 0.6278
3865.000000 0.6280 0.6282 0.6285 0.6287 0.6290
3860.000000 0.6292 0.6294 0.6297 0.6299 0.6301
3855.000000 0.6303 0.6305 0.6307 0.6310 0.6312
3850.000000 0.6314 0.6317 0.6319 0.6322 0.6324
3845.000000 0.6326 0.6328 0.6330 0.6333 0.6335
3840.000000 0.6337 0.6339 0.6341 0.6344 0.6346
3835.000000 0.6348 0.6350 0.6353 0.6355 0.6358
3830.000000 0.6360 0.6362 0.6365 0.6367 0.6369
3825.000000 0.6371 0.6373 0.6376 0.6378 0.6380
3820.000000 0.6383 0.6385 0.6388 0.6390 0.6393
3815.000000 0.6395 0.6398 0.6400 0.6403 0.6405
3810.000000 0.6408 0.6411 0.6414 0.6415 0.6418
3805.000000 0.6421 0.6425 0.6428 0.6430 0.6433
3800.000000 0.6436 0.6439 0.6441 0.6444 0.6446
3795.000000 0.6449 0.6451 0.6454 0.6457 0.6460
3790.000000 0.6462 0.6465 0.6468 0.6471 0.6474
3785.000000 0.6476 0.6478 0.6482 0.6485 0.6488
3780.000000 0.6490 0.6493 0.6495 0.6498 0.6501
3775.000000 0.6504 0.6506 0.6508 0.6511 0.6515
3770.000000 0.6518 0.6519 0.6522 0.6525 0.6528
3765.000000 0.6532 0.6534 0.6537 0.6540 0.6542
3760.000000 0.6545 0.6548 0.6550 0.6553 0.6556
3755.000000 0.6558 0.6561 0.6565 0.6567 0.6569
3750.000000 0.6572 0.6575 0.6578 0.6581 0.6584
3745.000000 0.6586 0.6589 0.6592 0.6595 0.6598
3740.000000 0.6601 0.6604 0.6606 0.6608 0.6611
3735.000000 0.6615 0.6617 0.6619 0.6622 0.6625
3730.000000 0.6628 0.6631 0.6634 0.6637 0.6640
3725.000000 0.6643 0.6645 0.6648 0.6651 0.6653
3720.000000 0.6656 0.6658 0.6661 0.6664 0.6667
3715.000000 0.6669 0.6671 0.6675 0.6678 0.6681
3710.000000 0.6683 0.6686 0.6689 0.6692 0.6695
3705.000000 0.6698 0.6701 0.6703 0.6706 0.6708
3700.000000 0.6711 0.6714 0.6717 0.6719 0.6722
3695.000000 0.6725 0.6728 0.6731 0.6734 0.6736
3690.000000 0.6739 0.6742 0.6745 0.6747 0.6750
3685.000000 0.6751 0.6755 0.6758 0.6760 0.6762
3680.000000 0.6765 0.6768 0.6771 0.6772 0.6775
3675.000000 0.6778 0.6781 0.6783 0.6786 0.6789
3670.000000 0.6791 0.6794 0.6796 0.6799 0.6801
3665.000000 0.6804 0.6807 0.6810 0.6811 0.6815
3660.000000 0.6817 0.6819 0.6821 0.6825 0.6826
3655.000000 0.6828 0.6832 0.6834 0.6837 0.6839
3650.000000 0.6842 0.6844 0.6846 0.6848 0.6850
3645.000000 0.6851 0.6854 0.6856 0.6858 0.6861
3640.000000 0.6862 0.6865 0.6868 0.6869 0.6871
3635.000000 0.6874 0.6875 0.6878 0.6880 0.6882
3630.000000 0.6884 0.6886 0.6889 0.6891 0.6893
3625.000000 0.6895 0.6898 0.6900 0.6900 0.6901
3620.000000 0.6901 0.6903 0.6903 0.6904 0.6904
3615.000000 0.6905 0.6905 0.6905 0.6905 0.6905
3610.000000 0.6905 0.6905 0.6905 0.6904 0.6904
3605.000000 0.6904 0.6903 0.6903 0.6901 0.6901
3600.000000 0.6901 0.6901 0.6901 0.6901 0.6901
3595.000000 0.6901 0.6900 0.6900 0.6900 0.6899
3590.000000 0.6898 0.6897 0.6896 0.6895 0.6893
3585.000000 0.6892 0.6891 0.6889 0.6888 0.6886
3580.000000 0.6885 0.6883 0.6882 0.6880 0.6878
3575.000000 0.6874 0.6869 0.6865 0.6862 0.6858
3570.000000 0.6855 0.6851 0.6848 0.6844 0.6840
3565.000000 0.6836 0.6832 0.6828 0.6824 0.6818
3560.000000 0.6814 0.6808 0.6804 0.6800 0.6795
3555.000000 0.6789 0.6784 0.6778 0.6774 0.6768
3550.000000 0.6758 0.6749 0.6739 0.6728 0.6718
3545.000000 0.6708 0.6697 0.6685 0.6674 0.6662
3540.000000 0.6651 0.6640 0.6628 0.6618 0.6607
3535.000000 0.6595 0.6584 0.6571 0.6561 0.6550
3530.000000 0.6538 0.6526 0.6515 0.6505 0.6493
3525.000000 0.6482 0.6469 0.6458 0.6448 0.6436
3520.000000 0.6424 0.6412 0.6401 0.6389 0.6376
3515.000000 0.6359 0.6341 0.6323 0.6305 0.6287
3510.000000 0.6269 0.6251 0.6233 0.6215 0.6197
3505.000000 0.6179 0.6160 0.6142 0.6124 0.6104
3500.000000 0.6082 0.6059 0.6036 0.6014 0.5991
3495.000000 0.5967 0.5944 0.5920 0.5896 0.5875
3490.000000 0.5856 0.5836 0.5817 0.5797 0.5783
3485.000000 0.5770 0.5757 0.5745 0.5732 0.5719
3480.000000 0.5706 0.5693 0.5681 0.5668 0.5655
3475.000000 0.5642 0.5629 0.5616 0.5603 0.5592
3470.000000 0.5581 0.5570 0.5559 0.5548 0.5538
3465.000000 0.5527 0.5516 0.5506 0.5495 0.5484
3460.000000 0.5474 0.5462 0.5452 0.5442 0.5431
3455.000000 0.5420 0.5409 0.5398 0.5386 0.5375
3450.000000 0.5362 0.5351 0.5339 0.5327 0.5316
3445.000000 0.5304 0.5292 0.5280 0.5268 0.5257
3440.000000 0.5245 0.5233 0.5221 0.5209 0.5197
3435.000000 0.5186 0.5174 0.5159 0.5145 0.5130
3430.000000 0.5116 0.5099 0.5080 0.5060 0.5040
3425.000000 0.5020 0.5001 0.4982 0.4962 0.4943
3420.000000 0.4924 0.4906 0.4888 0.4870 0.4852
3415.000000 0.4834 0.4816 0.4799 0.4781 0.4762
3410.000000 0.4745 0.4727 0.4709 0.4691 0.4673
3405.000000 0.4647 0.4620 0.4594 0.4568 0.4541
3400.000000 0.4510 0.4480 0.4450 0.4419 0.4392
3395.000000 0.4365 0.4339 0.4312 0.4286 0.4262
3390.000000 0.4240 0.4217 0.4193 0.4170 0.4147
3385.000000 0.4123 0.4100 0.4077 0.4053 0.4030
3380.000000 0.4007 0.3984 0.3960 0.3939 0.3916
3375.000000 0.3894 0.3872 0.3849 0.3827 0.3804
3370.000000 0.3782 0.3759 0.3737 0.3714 0.3693
3365.000000 0.3670 0.3649 0.3628 0.3607 0.3586
3360.000000 0.3564 0.3544 0.3523 0.3502 0.3482
3355.000000 0.3460 0.3441 0.3420 0.3400 0.3379
3350.000000 0.3359 0.3340 0.3320 0.3300 0.3259
3345.000000 0.3209 0.3161 0.3112 0.3069 0.3041
3340.000000 0.3013 0.2984 0.2958 0.2931 0.2905
3335.000000 0.2878 0.2852 0.2825 0.2796 0.2767
3330.000000 0.2738 0.2709 0.2657 0.2603 0.2549
3325.000000 0.2495 0.2455 0.2432 0.2408 0.2384
3320.000000 0.2361 0.2343 0.2325 0.2307 0.2289
3315.000000 0.2272 0.2255 0.2238 0.2222 0.2207
3310.000000 0.2196 0.2184 0.2175 0.2164 0.2153
3305.000000 0.2143 0.2132 0.2122 0.2111 0.2100
3300.000000 0.2089 0.2079 0.2067 0.2049 0.2029
3295.000000 0.2012 0.1994 0.1976 0.1958 0.1939
3290.000000 0.1921 0.1903 0.1884 0.1867 0.1849
3285.000000 0.1831 0.1813 0.1794 0.1776 0.1758
3280.000000 0.1740 0.1721 0.1702 0.1683 0.1657
3275.000000 0.1624 0.1591 0.1558 0.1526 0.1496
3270.000000 0.1468 0.1439 0.1410 0.1392 0.1374
3265.000000 0.1356 0.1338 0.1320 0.1302 0.1284
3260.000000 0.1265 0.1250 0.1237 0.1224 0.1212
3255.000000 0.1199 0.1188 0.1176 0.1165 0.1154
3250.000000 0.1142 0.1131 0.1119 0.1107 0.1096
3245.000000 0.1085 0.1074 0.1063 0.1052 0.1041
3240.000000 0.1030 0.1020 0.1009 0.0997 0.0988
3235.000000 0.0976 0.0967 0.0956 0.0945 0.0934
3230.000000 0.0922 0.0910 0.0896 0.0884 0.0871
3225.000000 0.0858 0.0843 0.0831 0.0817 0.0803
3220.000000 0.0787 0.0772 0.0757 0.0741 0.0724
3215.000000 0.0707 0.0689 0.0673 0.0658 0.0643
3210.000000 0.0629 0.0615 0.0604 0.0594 0.0583
3205.000000 0.0573 0.0567 0.0561 0.0554 0.0548
3200.000000 0.0544 0.0540 0.0536 0.0532 0.0528
3195.000000 0.0524 0.0520 0.0516 0.0514 0.0513
3190.000000 0.0511 0.0510 0.0509 0.0508 0.0507
3185.000000 0.0506 0.0505 0.0504 0.0503 0.0502
3180.000000 0.0501 0.0501 0.0500 0.0500 0.0499
3175.000000 0.0498 0.0498 0.0497 0.0496 0.0496
3170.000000 0.0495 0.0495 0.0494 0.0494 0.0493
3165.000000 0.0492 0.0492 0.0492 0.0491 0.0491
3160.000000 0.0490 0.0490 0.0489 0.0489 0.0488
3155.000000 0.0488 0.0488 0.0488 0.0487 0.0487
3150.000000 0.0486 0.0486 0.0485 0.0485 0.0485
3145.000000 0.0485 0.0484 0.0484 0.0484 0.0484
3140.000000 0.0483 0.0483 0.0483 0.0483 0.0482
3135.000000 0.0482 0.0482 0.0482 0.0482 0.0482
3130.000000 0.0483 0.0483 0.0485 0.0486 0.0488
3125.000000 0.0490 0.0491 0.0493 0.0495 0.0497
3120.000000 0.0500 0.0504 0.0507 0.0510 0.0515
3115.000000 0.0520 0.0524 0.0530 0.0536 0.0542
3110.000000 0.0548 0.0554 0.0559 0.0564 0.0569
3105.000000 0.0573 0.0576 0.0578 0.0581 0.0582
3100.000000 0.0582 0.0583 0.0583 0.0583 0.0583
3095.000000 0.0583 0.0582 0.0582 0.0581 0.0581
3090.000000 0.0581 0.0581 0.0581 0.0581 0.0581
3085.000000 0.0581 0.0581 0.0581 0.0581 0.0583
3080.000000 0.0585 0.0586 0.0604 0.0625 0.0647
3075.000000 0.0668 0.0686 0.0705 0.0723 0.0741
3070.000000 0.0758 0.0775 0.0793 0.0814 0.0839
3065.000000 0.0864 0.0889 0.0915 0.0939 0.0966
3060.000000 0.0991 0.1017 0.1042 0.1068 0.1092
3055.000000 0.1119 0.1144 0.1170 0.1195 0.1221
3050.000000 0.1246 0.1272 0.1296 0.1323 0.1349
3045.000000 0.1374 0.1400 0.1426 0.1452 0.1478
3040.000000 0.1504 0.1529 0.1555 0.1581 0.1606
3035.000000 0.1632 0.1658 0.1684 0.1710 0.1734
3030.000000 0.1761 0.1787 0.1814 0.1840 0.1865
3025.000000 0.1889 0.1914 0.1937 0.1956 0.1974
3020.000000 0.1991 0.2011 0.2033 0.2055 0.2077
3015.000000 0.2098 0.2120 0.2142 0.2163 0.2177
3010.000000 0.2191 0.2205 0.2214 0.2218 0.2223
3005.000000 0.2227 0.2230 0.2234 0.2237 0.2240
3000.000000 0.2243 0.2246 0.2279 0.2251 0.2252
2995.000000 0.2254 0.2256 0.2257 0.2259 0.2261
2990.000000 0.2263 0.2265 0.2266 0.2267 0.2268
2985.000000 0.2269 0.2269 0.2269 0.2266 0.2262
2980.000000 0.2258 0.2250 0.2239 0.2228 0.2212
2975.000000 0.2175 0.2138 0.2101 0.2061 0.2022
2970.000000 0.1982 0.1944 0.1922 0.1901 0.1879
2965.000000 0.1863 0.1851 0.1839 0.1827 0.1817
2960.000000 0.1807 0.1798 0.1789 0.1779 0.1771
2955.000000 0.1763 0.1754 0.1748 0.1741 0.1734
2950.000000 0.1729 0.1725 0.1720 0.1717 0.1713
2945.000000 0.1702 0.1708 0.1706 0.1704 0.1703
2940.000000 0.1703 0.1702 0.1702 0.1702 0.1702
2935.000000 0.1702 0.1703 0.1709 0.1715 0.1721
2930.000000 0.1731 0.1742 0.1754 0.1767 0.1784
2925.000000 0.1800 0.1817 0.1834 0.1852 0.1869
2920.000000 0.1885 0.1904 0.1922 0.1939 0.1954
2915.000000 0.1969 0.1984 0.1998 0.2012 0.2025
2910.000000 0.2039 0.2055 0.2070 0.2085 0.2106
2905.000000 0.2126 0.2146 0.2165 0.2184 0.2205
2900.000000 0.2225 0.2246 0.2267 0.2288 0.2310
2895.000000 0.2332 0.2354 0.2377 0.2400 0.2424
2890.000000 0.2448 0.2472 0.2496 0.2520 0.2543
2885.000000 0.2565 0.2588 0.2611 0.2634 0.2658
2880.000000 0.2682 0.2709 0.2734 0.2762 0.2787
2875.000000 0.2811 0.2835 0.2860 0.2883 0.2906
2870.000000 0.2927 0.2941 0.2955 0.2969 0.2982
2865.000000 0.2995 0.3008 0.3018 0.3027 0.3035
2860.000000 0.3043 0.3046 0.3050 0.3053 0.3056
2855.000000 0.3059 0.3062 0.3064 0.3066 0.3068
2850.000000 0.3070 0.3073 0.3102 0.3078 0.3079
2845.000000 0.3080 0.3082 0.3082 0.3083 0.3083
2840.000000 0.3073 0.3062 0.3051 0.3035 0.3019
2835.000000 0.3002 0.2984 0.2962 0.2941 0.2918
2830.000000 0.2887 0.2857 0.2827 0.2794 0.2761
2825.000000 0.2728 0.2696 0.2663 0.2631 0.2604
2820.000000 0.2579 0.2554 0.2529 0.2505 0.2480
2815.000000 0.2453 0.2418 0.2383 0.2345 0.2289
2810.000000 0.2232 0.2176 0.2121 0.2066 0.2012
2805.000000 0.1971 0.1934 0.1896 0.1871 0.1849
2800.000000 0.1828 0.1812 0.1801 0.1789 0.1777
2795.000000 0.1764 0.1751 0.1736 0.1723 0.1709
2790.000000 0.1695 0.1689 0.1681 0.1674 0.1667
2785.000000 0.1661 0.1654 0.1646 0.1641 0.1634
2780.000000 0.1629 0.1626 0.1621 0.1617 0.1614
2775.000000 0.1595 0.1607 0.1606 0.1604 0.1603
2770.000000 0.1603 0.1603 0.1603 0.1604 0.1604
2765.000000 0.1608 0.1612 0.1617 0.1628 0.1648
2760.000000 0.1668 0.1687 0.1709 0.1729 0.1751
2755.000000 0.1771 0.1792 0.1813 0.1833 0.1854
2750.000000 0.1874 0.1894 0.1915 0.1935 0.1957
2745.000000 0.1978 0.2000 0.2022 0.2044 0.2067
2740.000000 0.2089 0.2111 0.2134 0.2157 0.2181
2735.000000 0.2205 0.2234 0.2263 0.2291 0.2320
2730.000000 0.2349 0.2376 0.2397 0.2418 0.2438
2725.000000 0.2459 0.2480 0.2501 0.2522 0.2543
2720.000000 0.2563 0.2582 0.2601 0.2620 0.2638
2715.000000 0.2656 0.2674 0.2691 0.2708 0.2724
2710.000000 0.2738 0.2752 0.2766 0.2780 0.2793
2705.000000 0.2805 0.2814 0.2824 0.2833 0.2843
2700.000000 0.2852 0.2860 0.2867 0.2875 0.2880
2695.000000 0.2884 0.2890 0.2895 0.2901 0.2906
2690.000000 0.2912 0.2918 0.2924 0.2930 0.2937
2685.000000 0.2943 0.2950 0.2957 0.2964 0.2971
2680.000000 0.2979 0.2989 0.3001 0.3012 0.3024
2675.000000 0.3035 0.3048 0.3060 0.3072 0.3084
2670.000000 0.3104 0.3125 0.3145 0.3166 0.3188
2665.000000 0.3208 0.3224 0.3241 0.3257 0.3273
2660.000000 0.3289 0.3305 0.3321 0.3336 0.3355
2655.000000 0.3374 0.3393 0.3412 0.3432 0.3452
2650.000000 0.3478 0.3504 0.3530 0.3559 0.3589
2645.000000 0.3620 0.3652 0.3684 0.3709 0.3732
2640.000000 0.3755 0.3764 0.3774 0.3782 0.3784
2635.000000 0.3788 0.3792 0.3794 0.3797 0.3800
2630.000000 0.3804 0.3807 0.3809 0.3812 0.3816
2625.000000 0.3820 0.3822 0.3826 0.3832 0.3838
2620.000000 0.3844 0.3850 0.3857 0.3864 0.3870
2615.000000 0.3877 0.3884 0.3891 0.3898 0.3905
2610.000000 0.3912 0.3920 0.3928 0.3936 0.3943
2605.000000 0.3950 0.3958 0.3966 0.3973 0.3980
2600.000000 0.3989 0.3997 0.4005 0.4014 0.4024
2595.000000 0.4034 0.4044 0.4054 0.4064 0.4074
2590.000000 0.4084 0.4094 0.4103 0.4114 0.4124
2585.000000 0.4134 0.4143 0.4153 0.4164 0.4176
2580.000000 0.4187 0.4201 0.4215 0.4229 0.4242
2575.000000 0.4256 0.4270 0.4284 0.4298 0.4314
2570.000000 0.4331 0.4355 0.4389 0.4424 0.4441
2565.000000 0.4451 0.4462 0.4472 0.4482 0.4492
2560.000000 0.4503 0.4512 0.4523 0.4534 0.4544
2555.000000 0.4554 0.4564 0.4574 0.4584 0.4595
2550.000000 0.4607 0.4619 0.4631 0.4642 0.4654
2545.000000 0.4666 0.4678 0.4690 0.4702 0.4712
2540.000000 0.4722 0.4730 0.4737 0.4744 0.4752
2535.000000 0.4759 0.4767 0.4774 0.4781 0.4789
2530.000000 0.4795 0.4799 0.4803 0.4805 0.4808
2525.000000 0.4810 0.4812 0.4815 0.4817 0.4820
2520.000000 0.4823 0.4825 0.4828 0.4830 0.4832
2515.000000 0.4835 0.4836 0.4837 0.4838 0.4839
2510.000000 0.4841 0.4842 0.4843 0.4845 0.4848
2505.000000 0.4851 0.4856 0.4860 0.4866 0.4871
2500.000000 0.4876 0.4881 0.4886 0.4891 0.4896
2495.000000 0.4901 0.4906 0.4910 0.4916 0.4922
2490.000000 0.4928 0.4934 0.4940 0.4946 0.4952
2485.000000 0.4958 0.4964 0.4970 0.4976 0.4982
2480.000000 0.4988 0.4995 0.5001 0.5007 0.5014
2475.000000 0.5020 0.5026 0.5032 0.5038 0.5045
2470.000000 0.5051 0.5057 0.5062 0.5069 0.5075
2465.000000 0.5081 0.5088 0.5094 0.5100 0.5105
2460.000000 0.5110 0.5117 0.5123 0.5129 0.5135
2455.000000 0.5141 0.5147 0.5153 0.5159 0.5164
2450.000000 0.5169 0.5174 0.5179 0.5184 0.5189
2445.000000 0.5192 0.5196 0.5198 0.5201 0.5203
2440.000000 0.5204 0.5206 0.5207 0.5208 0.5209
2435.000000 0.5230 0.5212 0.5212 0.5212 0.5212
2430.000000 0.5210 0.5209 0.5207 0.5198 0.5160
2425.000000 0.5122 0.5087 0.5052 0.5017 0.4982
2420.000000 0.4947 0.4910 0.4876 0.4841 0.4805
2415.000000 0.4770 0.4660 0.4702 0.4689 0.4677
2410.000000 0.4676 0.4676 0.4684 0.4700 0.4719
2405.000000 0.4752 0.4784 0.4817 0.4849 0.4882
2400.000000 0.4915 0.4948 0.4981 0.5012 0.5047
2395.000000 0.5080 0.5106 0.5128 0.5148 0.5164
2390.000000 0.5179 0.5194 0.5209 0.5223 0.5237
2385.000000 0.5250 0.5262 0.5274 0.5279 0.5285
2380.000000 0.5291 0.5297 0.5302 0.5308 0.5312
2375.000000 0.5318 0.5322 0.5325 0.5328 0.5331
2370.000000 0.5334 0.5337 0.5340 0.5344 0.5349
2365.000000 0.5353 0.5358 0.5362 0.5367 0.5371
2360.000000 0.5376 0.5380 0.5385 0.5389 0.5394
2355.000000 0.5399 0.5405 0.5412 0.5422 0.5431
2350.000000 0.5439 0.5448 0.5456 0.5466 0.5476
2345.000000 0.5486 0.5500 0.5512 0.5526 0.5539
2340.000000 0.5552 0.5566 0.5579 0.5592 0.5605
2335.000000 0.5617 0.5630 0.5642 0.5654 0.5666
2330.000000 0.5678 0.5691 0.5703 0.5715 0.5727
2325.000000 0.5738 0.5750 0.5760 0.5773 0.5785
2320.000000 0.5796 0.5808 0.5819 0.5831 0.5842
2315.000000 0.5853 0.5865 0.5876 0.5886 0.5896
2310.000000 0.5906 0.5915 0.5924 0.5934 0.5944
2305.000000 0.5954 0.5964 0.5974 0.5984 0.5993
2300.000000 0.6003 0.6012 0.6022 0.6032 0.6042
2295.000000 0.6052 0.6060 0.6071 0.6080 0.6089
2290.000000 0.6097 0.6106 0.6114 0.6123 0.6132
2285.000000 0.6140 0.6149 0.6157 0.6166 0.6175
2280.000000 0.6184 0.6193 0.6202 0.6210 0.6217
2275.000000 0.6224 0.6231 0.6238 0.6244 0.6251
2270.000000 0.6258 0.6265 0.6271 0.6278 0.6284
2265.000000 0.6291 0.6298 0.6305 0.6310 0.6318
2260.000000 0.6324 0.6331 0.6337 0.6343 0.6348
2255.000000 0.6354 0.6359 0.6364 0.6370 0.6376
2250.000000 0.6382 0.6387 0.6393 0.6398 0.6403
2245.000000 0.6408 0.6414 0.6419 0.6425 0.6431
2240.000000 0.6436 0.6441 0.6445 0.6450 0.6455
2235.000000 0.6460 0.6464 0.6468 0.6474 0.6478
2230.000000 0.6484 0.6489 0.6493 0.6498 0.6503
2225.000000 0.6508 0.6512 0.6518 0.6521 0.6525
2220.000000 0.6528 0.6532 0.6535 0.6538 0.6541
2215.000000 0.6545 0.6548 0.6551 0.6554 0.6557
2210.000000 0.6560 0.6562 0.6565 0.6568 0.6571
2205.000000 0.6575 0.6578 0.6581 0.6584 0.6588
2200.000000 0.6591 0.6594 0.6596 0.6599 0.6601
2195.000000 0.6605 0.6608 0.6611 0.6614 0.6617
2190.000000 0.6619 0.6622 0.6625 0.6628 0.6631
2185.000000 0.6634 0.6638 0.6641 0.6643 0.6646
2180.000000 0.6649 0.6651 0.6655 0.6657 0.6658
2175.000000 0.6661 0.6664 0.6667 0.6669 0.6671
2170.000000 0.6675 0.6676 0.6678 0.6682 0.6685
2165.000000 0.6688 0.6691 0.6695 0.6699 0.6703
2160.000000 0.6706 0.6710 0.6714 0.6718 0.6721
2155.000000 0.6724 0.6728 0.6732 0.6735 0.6740
2150.000000 0.6744 0.6748 0.6753 0.6758 0.6761
2145.000000 0.6767 0.6771 0.6775 0.6781 0.6785
2140.000000 0.6789 0.6794 0.6797 0.6800 0.6803
2135.000000 0.6805 0.6808 0.6811 0.6814 0.6815
2130.000000 0.6818 0.6821 0.6825 0.6826 0.6830
2125.000000 0.6833 0.6836 0.6838 0.6841 0.6843
2120.000000 0.6845 0.6848 0.6850 0.6851 0.6854
2115.000000 0.6857 0.6858 0.6861 0.6862 0.6865
2110.000000 0.6868 0.6868 0.6869 0.6871 0.6871
2105.000000 0.6871 0.6872 0.6872 0.6874 0.6874
2100.000000 0.6875 0.6875 0.6875 0.6876 0.6876
2095.000000 0.6876 0.6876 0.6876 0.6876 0.6876
2090.000000 0.6875 0.6875 0.6875 0.6874 0.6869
2085.000000 0.6865 0.6860 0.6855 0.6851 0.6848
2080.000000 0.6846 0.6843 0.6840 0.6837 0.6835
2075.000000 0.6832 0.6828 0.6826 0.6825 0.6825
2070.000000 0.6825 0.6825 0.6825 0.6825 0.6824
2065.000000 0.6824 0.6824 0.6824 0.6825 0.6826
2060.000000 0.6828 0.6830 0.6833 0.6838 0.6843
2055.000000 0.6848 0.6853 0.6858 0.6865 0.6871
2050.000000 0.6876 0.6883 0.6889 0.6894 0.6900
2045.000000 0.6904 0.6908 0.6912 0.6917 0.6921
2040.000000 0.6922 0.6925 0.6928 0.6931 0.6932
2035.000000 0.6932 0.6931 0.6931 0.6930 0.6928
2030.000000 0.6925 0.6924 0.6922 0.6921 0.6919
2025.000000 0.6918 0.6915 0.6915 0.6912 0.6911
2020.000000 0.6910 0.6910 0.6911 0.6914 0.6917
2015.000000 0.6919 0.6922 0.6925 0.6932 0.6938
2010.000000 0.6944 0.6951 0.6957 0.6962 0.6968
2005.000000 0.6975 0.6982 0.6989 0.6997 0.7004
2000.000000 0.7011 0.7018 0.7026 0.7034 0.7041
1995.000000 0.7048 0.7054 0.7060 0.7067 0.7072
1990.000000 0.7078 0.7086 0.7092 0.7097 0.7097
1985.000000 0.7097 0.7097 0.7097 0.7097 0.7097
1980.000000 0.7097 0.7098 0.7100 0.7103 0.7105
1975.000000 0.7107 0.7108 0.7111 0.7112 0.7115
1970.000000 0.7117 0.7118 0.7119 0.7121 0.7124
1965.000000 0.7125 0.7128 0.7131 0.7133 0.7136
1960.000000 0.7138 0.7140 0.7143 0.7145 0.7148
1955.000000 0.7151 0.7153 0.7155 0.7157 0.7160
1950.000000 0.7162 0.7165 0.7168 0.7169 0.7171
1945.000000 0.7175 0.7178 0.7181 0.7184 0.7186
1940.000000 0.7189 0.7192 0.7195 0.7199 0.7201
1935.000000 0.7204 0.7208 0.7211 0.7214 0.7217
1930.000000 0.7221 0.7228 0.7236 0.7244 0.7253
1925.000000 0.7264 0.7275 0.7288 0.7296 0.7304
1920.000000 0.7311 0.7311 0.7312 0.7315 0.7315
1915.000000 0.7315 0.7312 0.7311 0.7308 0.7305
1910.000000 0.7298 0.7293 0.7288 0.7286 0.7286
1905.000000 0.7287 0.7287 0.7287 0.7288 0.7288
1900.000000 0.7288 0.7290 0.7293 0.7297 0.7301
1895.000000 0.7305 0.7308 0.7314 0.7318 0.7321
1890.000000 0.7324 0.7326 0.7330 0.7333 0.7336
1885.000000 0.7338 0.7340 0.7342 0.7344 0.7346
1880.000000 0.7347 0.7349 0.7351 0.7351 0.7354
1875.000000 0.7356 0.7358 0.7358 0.7357 0.7355
1870.000000 0.7351 0.7347 0.7343 0.7338 0.7331
1865.000000 0.7324 0.7315 0.7308 0.7301 0.7293
1860.000000 0.7284 0.7275 0.7265 0.7256 0.7245
1855.000000 0.7234 0.7224 0.7215 0.7206 0.7198
1850.000000 0.7192 0.7188 0.7186 0.7183 0.7183
1845.000000 0.7188 0.7200 0.7215 0.7230 0.7243
1840.000000 0.7251 0.7258 0.7267 0.7275 0.7284
1835.000000 0.7293 0.7301 0.7308 0.7315 0.7319
1830.000000 0.7325 0.7332 0.7339 0.7345 0.7351
1825.000000 0.7357 0.7362 0.7368 0.7372 0.7378
1820.000000 0.7385 0.7390 0.7395 0.7401 0.7406
1815.000000 0.7411 0.7415 0.7421 0.7425 0.7430
1810.000000 0.7433 0.7436 0.7439 0.7443 0.7446
1805.000000 0.7446 0.7446 0.7444 0.7441 0.7439
1800.000000 0.7437 0.7436 0.7436 0.7436 0.7439
1795.000000 0.7443 0.7446 0.7449 0.7451 0.7458
1790.000000 0.7462 0.7468 0.7474 0.7478 0.7485
1785.000000 0.7490 0.7496 0.7501 0.7506 0.7511
1780.000000 0.7515 0.7519 0.7524 0.7528 0.7533
1775.000000 0.7538 0.7543 0.7547 0.7551 0.7555
1770.000000 0.7558 0.7564 0.7568 0.7571 0.7574
1765.000000 0.7576 0.7578 0.7582 0.7584 0.7586
1760.000000 0.7587 0.7587 0.7587 0.7587 0.7583
1755.000000 0.7578 0.7574 0.7567 0.7554 0.7540
1750.000000 0.7525 0.7511 0.7498 0.7483 0.7469
1745.000000 0.7457 0.7444 0.7431 0.7419 0.7408
1740.000000 0.7397 0.7387 0.7378 0.7371 0.7365
1735.000000 0.7358 0.7355 0.7354 0.7354 0.7354
1730.000000 0.7364 0.7374 0.7385 0.7396 0.7408
1725.000000 0.7421 0.7435 0.7449 0.7461 0.7475
1720.000000 0.7488 0.7501 0.7512 0.7525 0.7537
1715.000000 0.7549 0.7558 0.7564 0.7569 0.7576
1710.000000 0.7583 0.7589 0.7596 0.7601 0.7607
1705.000000 0.7611 0.7617 0.7619 0.7624 0.7626
1700.000000 0.7631 0.7631 0.7632 0.7631 0.7630
1695.000000 0.7630 0.7628 0.7625 0.7621 0.7618
1690.000000 0.7614 0.7611 0.7606 0.7603 0.7595
1685.000000 0.7585 0.7575 0.7565 0.7554 0.7539
1680.000000 0.7521 0.7504 0.7484 0.7461 0.7438
1675.000000 0.7418 0.7403 0.7387 0.7371 0.7358
1670.000000 0.7343 0.7336 0.7328 0.7321 0.7315
1665.000000 0.7311 0.7308 0.7308 0.7308 0.7312
1660.000000 0.7318 0.7321 0.7321 0.7321 0.7317
1655.000000 0.7312 0.7306 0.7293 0.7276 0.7260
1650.000000 0.7243 0.7225 0.7208 0.7188 0.7169
1645.000000 0.7151 0.7130 0.7108 0.7088 0.7056
1640.000000 0.6998 0.6905 0.6790 0.6693 0.6596
1635.000000 0.6507 0.6401 0.6295 0.6189 0.6082
1630.000000 0.5976 0.5869 0.5762 0.5655 0.5548
1625.000000 0.5441 0.5334 0.5255 0.5231 0.5233
1620.000000 0.5254 0.5286 0.5317 0.5349 0.5379
1615.000000 0.5410 0.5412 0.5409 0.5003 0.4402
1610.000000 0.3776 0.3149 0.2768 0.2768 0.2769
1605.000000 0.2872 0.3134 0.3462 0.3792 0.4121
1600.000000 0.4451 0.4780 0.5099 0.5306 0.5404
1595.000000 0.5642 0.5934 0.6015 0.6083 0.6162
1590.000000 0.6243 0.6302 0.6337 0.6354 0.6366
1585.000000 0.6375 0.6379 0.6372 0.6350 0.6312
1580.000000 0.6269 0.6241 0.6224 0.6218 0.6214
1575.000000 0.6212 0.6228 0.6287 0.6370 0.6453
1570.000000 0.6535 0.6618 0.6701 0.6784 0.6854
1565.000000 0.6894 0.6914 0.6930 0.6944 0.6961
1560.000000 0.6958 0.6960 0.6960 0.6949 0.6926
1555.000000 0.6898 0.6858 0.6801 0.6708 0.6544
1550.000000 0.6408 0.6285 0.6166 0.6053 0.5944
1545.000000 0.5831 0.5602 0.5093 0.4583 0.4073
1540.000000 0.3562 0.3050 0.2543 0.2301 0.2298
1535.000000 0.2307 0.2460 0.2707 0.2965 0.3223
1530.000000 0.3480 0.3730 0.3920 0.4640 0.4847
1525.000000 0.4969 0.5041 0.5102 0.5157 0.5201
1520.000000 0.5241 0.5281 0.5328 0.5378 0.5429
1515.000000 0.5491 0.5556 0.5621 0.5689 0.5758
1510.000000 0.5828 0.5900 0.5972 0.6051 0.6133
1505.000000 0.6219 0.6326 0.6418 0.6495 0.6557
1500.000000 0.6615 0.6654 0.6675 0.6692 0.6701
1495.000000 0.6710 0.6711 0.6711 0.6692 0.6661
1490.000000 0.6624 0.6572 0.6462 0.6266 0.5944
1485.000000 0.5741 0.5543 0.5321 0.5158 0.4966
1480.000000 0.4741 0.4529 0.4315 0.4102 0.3888
1475.000000 0.3673 0.3459 0.3244 0.3029 0.2814
1470.000000 0.2598 0.2383 0.2167 0.2016 0.1951
1465.000000 0.1881 0.1804 0.1704 0.1642 0.1604
1460.000000 0.1616 0.1616 0.1615 0.1626 0.1653
1455.000000 0.1698 0.1756 0.1814 0.1898 0.2001
1450.000000 0.2244 0.2694 0.2832 0.2969 0.3108
1445.000000 0.3246 0.3384 0.3523 0.3662 0.3800
1440.000000 0.3940 0.4079 0.4190 0.4229 0.4246
1435.000000 0.4259 0.4262 0.4262 0.4262 0.4260
1430.000000 0.4254 0.4248 0.4237 0.4225 0.4221
1425.000000 0.4218 0.4219 0.4220 0.4239 0.4260
1420.000000 0.4288 0.4323 0.4382 0.4446 0.4529
1415.000000 0.4622 0.4715 0.4808 0.4900 0.4993
1410.000000 0.5086 0.5171 0.5205 0.5191 0.5196
1405.000000 0.5154 0.5073 0.4828 0.4664 0.4525
1400.000000 0.4410 0.4189 0.3907 0.3625 0.3343
1395.000000 0.3059 0.2776 0.2595 0.2568 0.2568
1390.000000 0.2568 0.2572 0.2574 0.2534 0.2408
1385.000000 0.2344 0.2303 0.2327 0.2340 0.2362
1380.000000 0.2402 0.2446 0.2491 0.2545 0.2601
1375.000000 0.2654 0.2705 0.2757 0.2811 0.2870
1370.000000 0.2928 0.3055 0.3148 0.3240 0.3318
1365.000000 0.3336 0.3340 0.3329 0.3306 0.3271
1360.000000 0.3234 0.3234 0.3232 0.3273 0.3344
1355.000000 0.3443 0.3526 0.3616 0.3782 0.3953
1350.000000 0.4200 0.4440 0.4679 0.4918 0.5007
1345.000000 0.5069 0.5129 0.5186 0.5239 0.5283
1340.000000 0.5326 0.5368 0.5406 0.5445 0.5482
1335.000000 0.5516 0.5549 0.5574 0.5596 0.5614
1330.000000 0.5630 0.5645 0.5654 0.5671 0.5658
1325.000000 0.5653 0.5647 0.5636 0.5608 0.5507
1320.000000 0.5406 0.5305 0.5205 0.5112 0.5062
1315.000000 0.5117 0.5224 0.5331 0.5438 0.5529
1310.000000 0.5576 0.5605 0.5612 0.5585 0.5618
1305.000000 0.5592 0.5482 0.5300 0.4901 0.4454
1300.000000 0.4005 0.3557 0.3107 0.2657 0.2208
1295.000000 0.1941 0.1759 0.1692 0.1657 0.1663
1290.000000 0.1661 0.1763 0.1934 0.2105 0.2276
1285.000000 0.2447 0.2618 0.2724 0.2816 0.2916
1280.000000 0.3015 0.3114 0.3214 0.3314 0.3414
1275.000000 0.3514 0.3590 0.3618 0.3608 0.3570
1270.000000 0.3490 0.3409 0.3329 0.3248 0.3166
1265.000000 0.3084 0.3003 0.2922 0.2849 0.2852
1260.000000 0.2865 0.2889 0.2905 0.2871 0.2684
1255.000000 0.2487 0.2288 0.2089 0.1890 0.1690
1250.000000 0.1491 0.1290 0.1090 0.0929 0.0866
1245.000000 0.0868 0.0869 0.0870 0.0896 0.1056
1240.000000 0.1254 0.1454 0.1653 0.1853 0.2053
1235.000000 0.2253 0.2388 0.2389 0.2390 0.2322
1230.000000 0.2253 0.2184 0.2126 0.2128 0.2188
1225.000000 0.2379 0.2572 0.2764 0.2958 0.3151
1220.000000 0.3344 0.3539 0.3725 0.3834 0.3909
1215.000000 0.3980 0.4046 0.4089 0.4119 0.4138
1210.000000 0.4152 0.4162 0.4164 0.4157 0.4140
1205.000000 0.4087 0.4062 0.4062 0.4080 0.4131
1200.000000 0.4217 0.4312 0.4405 0.4523 0.4655
1195.000000 0.4745 0.4824 0.4910 0.5001 0.5078
1190.000000 0.5137 0.5185 0.5224 0.5247 0.5262
1185.000000 0.5277 0.5283 0.5288 0.5277 0.5291
1180.000000 0.5288 0.5278 0.5260 0.5231 0.5139
1175.000000 0.4970 0.4744 0.4506 0.4269 0.4030
1170.000000 0.3793 0.3659 0.3668 0.3703 0.3768
1165.000000 0.3839 0.3923 0.4066 0.4227 0.4374
1160.000000 0.4521 0.4669 0.4817 0.4966 0.5066
1155.000000 0.5060 0.5056 0.5003 0.4745 0.4449
1150.000000 0.4153 0.3856 0.3450 0.3421 0.3416
1145.000000 0.3482 0.3646 0.3794 0.4169 0.4482
1140.000000 0.4495 0.4494 0.4150 0.3727 0.3303
1135.000000 0.2977 0.2954 0.2968 0.3145 0.3453
1130.000000 0.3759 0.4066 0.4376 0.4644 0.4818
1125.000000 0.4934 0.5032 0.5127 0.5190 0.5237
1120.000000 0.5224 0.5222 0.5137 0.4998 0.4860
1115.000000 0.4721 0.4546 0.4545 0.4545 0.4630
1110.000000 0.4847 0.5075 0.5297 0.5460 0.5649
1105.000000 0.5798 0.5915 0.6001 0.6082 0.6146
1100.000000 0.6209 0.6271 0.6331 0.6374 0.6418
1095.000000 0.6456 0.6490 0.6519 0.6543 0.6564
1090.000000 0.6575 0.6586 0.6593 0.6582 0.6595
1085.000000 0.6589 0.6583 0.6575 0.6562 0.6549
1080.000000 0.6535 0.6515 0.6493 0.6471 0.6440
1075.000000 0.6408 0.6378 0.6350 0.6334 0.6343
1070.000000 0.6360 0.6375 0.6385 0.6385 0.6385
1065.000000 0.6362 0.6303 0.6187 0.5932 0.4984
1060.000000 0.4638 0.4097 0.3612 0.3126 0.2639
1055.000000 0.2312 0.2020 0.2011 0.2073 0.2414
1050.000000 0.2769 0.3099 0.3084 0.3088 0.2958
1045.000000 0.2643 0.2329 0.2015 0.1710 0.1719
1040.000000 0.1859 0.2122 0.2383 0.2643 0.2905
1035.000000 0.3166 0.3447 0.3446 0.3445 0.3364
1030.000000 0.2981 0.2580 0.2177 0.2051 0.2062
1025.000000 0.2284 0.2523 0.2763 0.3003 0.3243
1020.000000 0.3347 0.3334 0.3203 0.3078 0.3081
1015.000000 0.3241 0.3498 0.3816 0.4134 0.4556
1010.000000 0.4836 0.5000 0.5157 0.5335 0.5457
1005.000000 0.5588 0.5726 0.5832 0.5900 0.5953
1000.000000 0.6005 0.6055 0.6105 0.6155 0.6207
995.000000 0.6257 0.6302 0.6353 0.6393 0.6405
990.000000 0.6438 0.6491 0.6547 0.6597 0.6643
985.000000 0.6690 0.6735 0.6776 0.6815 0.6855
980.000000 0.6894 0.6924 0.6955 0.6986 0.7015
975.000000 0.7038 0.7061 0.7086 0.7111 0.7131
970.000000 0.7148 0.7161 0.7171 0.7142 0.7175
965.000000 0.7153 0.7139 0.7135 0.7131 0.7121
960.000000 0.7014 0.6884 0.6755 0.6641 0.6669
955.000000 0.6725 0.6789 0.6850 0.6912 0.6951
950.000000 0.6941 0.6901 0.6769 0.6293 0.5774
945.000000 0.5454 0.5319 0.5220 0.5181 0.5176
940.000000 0.5303 0.5527 0.5796 0.6040 0.6249
935.000000 0.6403 0.6526 0.6618 0.6699 0.6774
930.000000 0.6841 0.6893 0.6942 0.6980 0.7018
925.000000 0.7060 0.7104 0.7149 0.7194 0.7226
920.000000 0.7234 0.7211 0.7176 0.7104 0.6911
915.000000 0.6701 0.6491 0.6278 0.6201 0.6188
910.000000 0.6345 0.6568 0.6792 0.7014 0.7134
905.000000 0.7180 0.7193 0.7200 0.7211 0.7236
900.000000 0.7290 0.7353 0.7421 0.7495 0.7539
895.000000 0.7555 0.7565 0.7575 0.7581 0.7585
890.000000 0.7589 0.7593 0.7600 0.7597 0.7597
885.000000 0.7597 0.7588 0.7576 0.7562 0.7522
880.000000 0.7451 0.7362 0.7249 0.7025 0.6501
875.000000 0.5915 0.5400 0.4885 0.4368 0.3850
870.000000 0.3330 0.3218 0.3287 0.3559 0.3908
865.000000 0.4834 0.5222 0.5471 0.5628 0.5796
860.000000 0.5951 0.6116 0.6343 0.6525 0.6715
855.000000 0.6868 0.6953 0.7011 0.7058 0.7092
850.000000 0.7117 0.7147 0.7190 0.7234 0.7280
845.000000 0.7324 0.7365 0.7407 0.7448 0.7472
840.000000 0.7489 0.7500 0.7517 0.7542 0.7545
835.000000 0.7588 0.7592 0.7575 0.7547 0.7518
830.000000 0.7471 0.7401 0.7306 0.7071 0.6687
825.000000 0.6366 0.5879 0.5316 0.4751 0.4185
820.000000 0.3349 0.3366 0.3449 0.3887 0.4259
815.000000 0.4633 0.5005 0.5174 0.5246 0.5319
810.000000 0.5617 0.5939 0.6260 0.6585 0.6795
805.000000 0.6934 0.7048 0.7125 0.7188 0.7225
800.000000 0.7255 0.7215 0.7260 0.7241 0.7205
795.000000 0.7135 0.7026 0.6831 0.6596 0.6274
790.000000 0.5867 0.5481 0.5094 0.4698 0.4691
785.000000 0.4779 0.5089 0.5464 0.5898 0.6199
780.000000 0.6392 0.6540 0.6675 0.6776 0.6868
775.000000 0.6946 0.7007 0.7055 0.7087 0.7112
770.000000 0.7144 0.7171 0.7200 0.7211 0.7195
765.000000 0.7158 0.7119 0.7083 0.7056 0.7065
760.000000 0.7086 0.7085 0.7100 0.7115 0.7124
755.000000 0.7111 0.7095 0.7053 0.7012 0.6974
750.000000 0.6918 0.6841 0.6737 0.6630 0.6525
745.000000 0.6373 0.6162 0.5990 0.5803 0.5718
740.000000 0.5717 0.5885 0.6094 0.6324 0.6581
735.000000 0.6795 0.6908 0.6985 0.6969 0.6978
730.000000 0.6971 0.6940 0.6851 0.6761 0.6658
725.000000 0.6578 0.6515 0.6478 0.6456 0.6468
720.000000 0.6504 0.6546 0.6590 0.6633 0.6660
715.000000 0.6667 0.6668 0.6669 0.6651 0.6624
710.000000 0.6582 0.6535 0.6482 0.6426 0.6370
705.000000 0.6312 0.6257 0.6201 0.6145 0.6086
700.000000 0.6026 0.5965 0.5900 0.5834 0.5756
695.000000 0.5678 0.5599 0.5519 0.5436 0.5353
690.000000 0.5297 0.5241 0.5185 0.5133 0.5081
685.000000 0.5028 0.4976 0.4918 0.4875 0.4835
680.000000 0.4806 0.4778 0.4751 0.4726 0.4704
675.000000 0.4704 0.4703 0.4703 0.4703 0.4703
670.000000 0.4715 0.4730 0.4748 0.4749 0.4749
665.000000 0.4721 0.4679 0.4617 0.4549 0.4478
660.000000 0.4406 0.4327 0.4226 0.4097 0.3946
655.000000 0.3800
##END=
