##TITLE=Benzylcarbamic acid, benzylamine salt
##JCAMP-DX=4.24
$$ By DXEDIT 1.05 (RS McDonald)
##DATA TYPE=INFRARED SPECTRUM
##CLASS=COBLENTZ III
##ORIGIN=DOW CHEMICAL COMPANY
##OWNER=COPYRIGHT (C) 1988 by COBLENTZ SOCIETY INC.
Collection (C) 2018 copyright by the U.S. Secretary of Commerce
on behalf of the United States of America. All rights reserved.
##DATE=1965/12/17
##MOLFORM=C15 H18 N2 O2
##SOURCE REFERENCE=COBLENTZ NO. 07531
##$NIST ID=B6007531
##$NIST SOURCE=COBLENTZ
##$NIST IMAGE=cob7531
##SPECTROMETER/DATA SYSTEM=BECKMAN IR-9 (GRATING)
##INSTRUMENT PARAMETERS=ORDER CHANGES: 670, 1200, 2000 CM^-^1
##STATE=SOLID (SPLIT MULL), FLUOROLUBE FOR 3800-1330 CM^-^1, NUJOL FOR 1330-400 CM^-^1
$$SPECTRAL CONTAMINATION DUE TO AN UNKNOWN AROUND 400 CM^-^1
##SAMPLING PROCEDURE=TRANSMISSION
##RESOLUTION=2
##DATA PROCESSING=DIGITIZED BY COBLENTZ SOCIETY (BATCH I) FROM HARD COPY
##XUNITS=1/CM
##YUNITS=TRANSMITTANCE
##XFACTOR=1
##YFACTOR=1
##DELTAX=1
##FIRSTX=3768
##LASTX=403
##FIRSTY=0.6401
##MAXX=3768
##MINX=403
##MAXY=0.888
##MINY=0.0832
##NPOINTS=3366
##XYDATA=(X++(Y..Y))
3768.000000 0.6401 0.6401 0.6401 0.6407 0.6411
3763.000000 0.6417 0.6421 0.6426 0.6432 0.6437
3758.000000 0.6442 0.6447 0.6451 0.6457 0.6461
3753.000000 0.6467 0.6471 0.6476 0.6482 0.6487
3748.000000 0.6492 0.6496 0.6501 0.6506 0.6511
3743.000000 0.6515 0.6521 0.6525 0.6528 0.6533
3738.000000 0.6537 0.6541 0.6545 0.6549 0.6553
3733.000000 0.6557 0.6561 0.6565 0.6571 0.6575
3728.000000 0.6580 0.6584 0.6589 0.6592 0.6593
3723.000000 0.6593 0.6591 0.6589 0.6587 0.6584
3718.000000 0.6582 0.6576 0.6571 0.6565 0.6558
3713.000000 0.6551 0.6544 0.6537 0.6530 0.6525
3708.000000 0.6519 0.6518 0.6517 0.6515 0.6512
3703.000000 0.6511 0.6510 0.6508 0.6507 0.6505
3698.000000 0.6503 0.6508 0.6515 0.6525 0.6537
3693.000000 0.6547 0.6558 0.6568 0.6578 0.6586
3688.000000 0.6593 0.6599 0.6606 0.6611 0.6618
3683.000000 0.6625 0.6632 0.6638 0.6645 0.6651
3678.000000 0.6658 0.6664 0.6669 0.6674 0.6678
3673.000000 0.6683 0.6687 0.6691 0.6696 0.6700
3668.000000 0.6704 0.6708 0.6712 0.6717 0.6721
3663.000000 0.6725 0.6730 0.6734 0.6739 0.6743
3658.000000 0.6747 0.6750 0.6754 0.6757 0.6761
3653.000000 0.6764 0.6768 0.6771 0.6775 0.6778
3648.000000 0.6783 0.6786 0.6790 0.6793 0.6797
3643.000000 0.6800 0.6804 0.6807 0.6811 0.6815
3638.000000 0.6818 0.6821 0.6825 0.6828 0.6832
3633.000000 0.6835 0.6838 0.6841 0.6845 0.6848
3628.000000 0.6851 0.6854 0.6857 0.6860 0.6862
3623.000000 0.6865 0.6868 0.6871 0.6875 0.6878
3618.000000 0.6881 0.6884 0.6887 0.6890 0.6893
3613.000000 0.6896 0.6899 0.6901 0.6906 0.6908
3608.000000 0.6911 0.6915 0.6918 0.6921 0.6924
3603.000000 0.6926 0.6930 0.6933 0.6936 0.6939
3598.000000 0.6943 0.6946 0.6950 0.6953 0.6957
3593.000000 0.6961 0.6965 0.6968 0.6971 0.6975
3588.000000 0.6978 0.6982 0.6986 0.6990 0.6994
3583.000000 0.6997 0.7001 0.7004 0.7008 0.7011
3578.000000 0.7015 0.7018 0.7022 0.7025 0.7030
3573.000000 0.7033 0.7037 0.7040 0.7044 0.7048
3568.000000 0.7051 0.7055 0.7058 0.7061 0.7065
3563.000000 0.7069 0.7074 0.7076 0.7081 0.7084
3558.000000 0.7088 0.7091 0.7095 0.7099 0.7103
3553.000000 0.7106 0.7110 0.7112 0.7117 0.7119
3548.000000 0.7124 0.7128 0.7132 0.7135 0.7139
3543.000000 0.7142 0.7146 0.7149 0.7153 0.7157
3538.000000 0.7161 0.7164 0.7168 0.7171 0.7175
3533.000000 0.7178 0.7183 0.7186 0.7190 0.7193
3528.000000 0.7197 0.7200 0.7204 0.7208 0.7211
3523.000000 0.7215 0.7218 0.7221 0.7225 0.7228
3518.000000 0.7233 0.7237 0.7241 0.7244 0.7248
3513.000000 0.7251 0.7254 0.7256 0.7258 0.7261
3508.000000 0.7264 0.7265 0.7268 0.7271 0.7274
3503.000000 0.7275 0.7278 0.7281 0.7284 0.7286
3498.000000 0.7289 0.7292 0.7295 0.7297 0.7300
3493.000000 0.7301 0.7305 0.7307 0.7310 0.7311
3488.000000 0.7315 0.7317 0.7319 0.7321 0.7325
3483.000000 0.7326 0.7330 0.7332 0.7335 0.7338
3478.000000 0.7341 0.7343 0.7346 0.7348 0.7351
3473.000000 0.7354 0.7357 0.7360 0.7362 0.7365
3468.000000 0.7368 0.7371 0.7374 0.7376 0.7380
3463.000000 0.7383 0.7386 0.7389 0.7392 0.7395
3458.000000 0.7398 0.7401 0.7404 0.7407 0.7410
3453.000000 0.7411 0.7415 0.7418 0.7421 0.7424
3448.000000 0.7426 0.7430 0.7433 0.7436 0.7439
3443.000000 0.7442 0.7445 0.7447 0.7450 0.7453
3438.000000 0.7456 0.7458 0.7461 0.7462 0.7465
3433.000000 0.7468 0.7471 0.7474 0.7476 0.7478
3428.000000 0.7482 0.7484 0.7487 0.7489 0.7492
3423.000000 0.7494 0.7497 0.7499 0.7501 0.7504
3418.000000 0.7507 0.7508 0.7511 0.7514 0.7517
3413.000000 0.7518 0.7521 0.7524 0.7526 0.7526
3408.000000 0.7528 0.7528 0.7530 0.7531 0.7532
3403.000000 0.7532 0.7532 0.7532 0.7532 0.7531
3398.000000 0.7531 0.7530 0.7530 0.7530 0.7530
3393.000000 0.7528 0.7528 0.7528 0.7528 0.7528
3388.000000 0.7528 0.7525 0.7553 0.7519 0.7518
3383.000000 0.7515 0.7514 0.7511 0.7508 0.7507
3378.000000 0.7505 0.7499 0.7494 0.7488 0.7483
3373.000000 0.7476 0.7471 0.7465 0.7461 0.7453
3368.000000 0.7446 0.7436 0.7425 0.7415 0.7407
3363.000000 0.7397 0.7388 0.7378 0.7368 0.7357
3358.000000 0.7347 0.7335 0.7322 0.7311 0.7299
3353.000000 0.7287 0.7275 0.7262 0.7251 0.7237
3348.000000 0.7222 0.7208 0.7193 0.7178 0.7162
3343.000000 0.7144 0.7125 0.7101 0.7078 0.7055
3338.000000 0.7031 0.7007 0.6983 0.6951 0.6919
3333.000000 0.6875 0.6830 0.6785 0.6740 0.6695
3328.000000 0.6650 0.6605 0.6561 0.6515 0.6471
3323.000000 0.6425 0.6380 0.6333 0.6287 0.6241
3318.000000 0.6195 0.6130 0.6066 0.5990 0.5915
3313.000000 0.5795 0.5676 0.5580 0.5484 0.5242
3308.000000 0.5001 0.4837 0.4673 0.4508 0.4344
3303.000000 0.4179 0.4014 0.3850 0.3686 0.3521
3298.000000 0.3357 0.3192 0.2924 0.2974 0.2920
3293.000000 0.2921 0.2923 0.2929 0.2935 0.2961
3288.000000 0.2987 0.3026 0.3066 0.3109 0.3153
3283.000000 0.3297 0.3441 0.3642 0.3843 0.4037
3278.000000 0.4231 0.4355 0.4479 0.4560 0.4641
3273.000000 0.4692 0.4743 0.4794 0.4845 0.4896
3268.000000 0.4947 0.5008 0.5070 0.5135 0.5200
3263.000000 0.5269 0.5339 0.5416 0.5493 0.5562
3258.000000 0.5632 0.5665 0.5698 0.5730 0.5762
3253.000000 0.5796 0.5829 0.5862 0.5895 0.5928
3248.000000 0.5960 0.5993 0.6026 0.6059 0.6092
3243.000000 0.6115 0.6139 0.6160 0.6182 0.6198
3238.000000 0.6214 0.6227 0.6240 0.6253 0.6266
3233.000000 0.6278 0.6290 0.6297 0.6305 0.6312
3228.000000 0.6320 0.6325 0.6330 0.6331 0.6333
3223.000000 0.6334 0.6336 0.6337 0.6339 0.6340
3218.000000 0.6340 0.6340 0.6339 0.6337 0.6336
3213.000000 0.6334 0.6333 0.6330 0.6328 0.6322
3208.000000 0.6317 0.6312 0.6307 0.6302 0.6297
3203.000000 0.6292 0.6287 0.6277 0.6268 0.6256
3198.000000 0.6244 0.6232 0.6220 0.6208 0.6196
3193.000000 0.6184 0.6172 0.6160 0.6148 0.6134
3188.000000 0.6121 0.6101 0.6082 0.6062 0.6043
3183.000000 0.6023 0.6004 0.5984 0.5965 0.5945
3178.000000 0.5925 0.5904 0.5884 0.5862 0.5842
3173.000000 0.5821 0.5800 0.5779 0.5758 0.5737
3168.000000 0.5717 0.5695 0.5674 0.5650 0.5626
3163.000000 0.5602 0.5578 0.5554 0.5530 0.5506
3158.000000 0.5482 0.5458 0.5435 0.5410 0.5387
3153.000000 0.5358 0.5330 0.5300 0.5270 0.5240
3148.000000 0.5210 0.5180 0.5150 0.5121 0.5092
3143.000000 0.5062 0.5035 0.5007 0.4979 0.4950
3138.000000 0.4922 0.4894 0.4866 0.4833 0.4801
3133.000000 0.4767 0.4734 0.4700 0.4666 0.4632
3128.000000 0.4599 0.4562 0.4528 0.4491 0.4455
3123.000000 0.4418 0.4382 0.4345 0.4309 0.4272
3118.000000 0.4235 0.4196 0.4158 0.4118 0.4079
3113.000000 0.4039 0.4000 0.3959 0.3921 0.3882
3108.000000 0.3844 0.3809 0.3777 0.3743 0.3709
3103.000000 0.3676 0.3643 0.3606 0.3570 0.3532
3098.000000 0.3494 0.3445 0.3397 0.3348 0.3300
3093.000000 0.3230 0.3163 0.3118 0.3073 0.3038
3088.000000 0.3004 0.2968 0.2933 0.2897 0.2861
3083.000000 0.2828 0.2796 0.2771 0.2746 0.2723
3078.000000 0.2700 0.2682 0.2664 0.2655 0.2647
3073.000000 0.2638 0.2630 0.2623 0.2617 0.2614
3068.000000 0.2611 0.2608 0.2605 0.2605 0.2605
3063.000000 0.2605 0.2605 0.2607 0.2609 0.2612
3058.000000 0.2616 0.2622 0.2628 0.2658 0.2688
3053.000000 0.2738 0.2788 0.2837 0.2887 0.2935
3048.000000 0.2985 0.3015 0.3057 0.3043 0.3042
3043.000000 0.3040 0.3038 0.2982 0.2926 0.2870
3038.000000 0.2814 0.2779 0.2745 0.2741 0.2734
3033.000000 0.2766 0.2796 0.2893 0.2990 0.3085
3028.000000 0.3183 0.3275 0.3366 0.3366 0.3364
3023.000000 0.3364 0.3362 0.3362 0.3362 0.3284
3018.000000 0.3258 0.3230 0.3204 0.3177 0.3150
3013.000000 0.3123 0.3097 0.3098 0.3099 0.3101
3008.000000 0.3083 0.3106 0.3109 0.3115 0.3121
3003.000000 0.3127 0.3133 0.3135 0.3140 0.3142
2998.000000 0.3145 0.3147 0.3150 0.3151 0.3153
2993.000000 0.3154 0.3155 0.3155 0.3156 0.3157
2988.000000 0.3158 0.3159 0.3160 0.3169 0.3179
2983.000000 0.3199 0.3218 0.3241 0.3264 0.3277
2978.000000 0.3340 0.3299 0.3308 0.3316 0.3325
2973.000000 0.3329 0.3334 0.3338 0.3338 0.3339
2968.000000 0.3337 0.3330 0.3326 0.3320 0.3314
2963.000000 0.3308 0.3302 0.3295 0.3288 0.3282
2958.000000 0.3282 0.3282 0.3287 0.3297 0.3307
2953.000000 0.3316 0.3328 0.3340 0.3353 0.3364
2948.000000 0.3378 0.3390 0.3403 0.3414 0.3428
2943.000000 0.3441 0.3455 0.3468 0.3480 0.3494
2938.000000 0.3508 0.3521 0.3534 0.3547 0.3559
2933.000000 0.3574 0.3588 0.3604 0.3621 0.3638
2928.000000 0.3655 0.3671 0.3688 0.3704 0.3721
2923.000000 0.3739 0.3758 0.3777 0.3796 0.3814
2918.000000 0.3834 0.3849 0.3864 0.3871 0.3877
2913.000000 0.3882 0.3889 0.3895 0.3900 0.3907
2908.000000 0.3912 0.3918 0.3925 0.3930 0.3937
2903.000000 0.3944 0.3950 0.3959 0.3970 0.3979
2898.000000 0.3989 0.3998 0.4007 0.4014 0.4024
2893.000000 0.4032 0.4040 0.4056 0.4073 0.4099
2888.000000 0.4125 0.4151 0.4178 0.4204 0.4231
2883.000000 0.4255 0.4280 0.4304 0.4328 0.4352
2878.000000 0.4376 0.4399 0.4423 0.4447 0.4471
2873.000000 0.4492 0.4512 0.4531 0.4550 0.4568
2868.000000 0.4587 0.4605 0.4624 0.4643 0.4662
2863.000000 0.4680 0.4699 0.4718 0.4738 0.4757
2858.000000 0.4776 0.4795 0.4815 0.4834 0.4853
2853.000000 0.4872 0.4892 0.4916 0.4940 0.4964
2848.000000 0.4989 0.5012 0.5038 0.5060 0.5085
2843.000000 0.5107 0.5130 0.5152 0.5175 0.5193
2838.000000 0.5212 0.5229 0.5247 0.5262 0.5279
2833.000000 0.5294 0.5309 0.5322 0.5336 0.5340
2828.000000 0.5345 0.5349 0.5354 0.5355 0.5356
2823.000000 0.5350 0.5345 0.5339 0.5333 0.5324
2818.000000 0.5316 0.5305 0.5294 0.5283 0.5273
2813.000000 0.5262 0.5253 0.5244 0.5236 0.5233
2808.000000 0.5230 0.5230 0.5231 0.5231 0.5232
2803.000000 0.5237 0.5242 0.5248 0.5254 0.5260
2798.000000 0.5266 0.5272 0.5278 0.5288 0.5299
2793.000000 0.5314 0.5329 0.5343 0.5358 0.5383
2788.000000 0.5408 0.5435 0.5462 0.5480 0.5498
2783.000000 0.5514 0.5531 0.5543 0.5556 0.5562
2778.000000 0.5570 0.5577 0.5585 0.5592 0.5600
2773.000000 0.5607 0.5615 0.5622 0.5629 0.5635
2768.000000 0.5642 0.5648 0.5654 0.5660 0.5666
2763.000000 0.5672 0.5678 0.5685 0.5692 0.5702
2758.000000 0.5712 0.5723 0.5734 0.5744 0.5755
2753.000000 0.5766 0.5777 0.5789 0.5802 0.5814
2748.000000 0.5827 0.5839 0.5852 0.5864 0.5877
2743.000000 0.5889 0.5902 0.5914 0.5927 0.5939
2738.000000 0.5952 0.5965 0.5978 0.5994 0.6010
2733.000000 0.6029 0.6048 0.6066 0.6085 0.6102
2728.000000 0.6120 0.6137 0.6154 0.6164 0.6174
2723.000000 0.6183 0.6193 0.6201 0.6210 0.6217
2718.000000 0.6225 0.6233 0.6241 0.6243 0.6245
2713.000000 0.6246 0.6248 0.6248 0.6248 0.6245
2708.000000 0.6243 0.6239 0.6236 0.6227 0.6218
2703.000000 0.6209 0.6200 0.6191 0.6183 0.6174
2698.000000 0.6165 0.6162 0.6159 0.6158 0.6158
2693.000000 0.6158 0.6158 0.6159 0.6162 0.6165
2688.000000 0.6168 0.6172 0.6176 0.6184 0.6192
2683.000000 0.6200 0.6208 0.6216 0.6224 0.6236
2678.000000 0.6248 0.6262 0.6278 0.6293 0.6308
2673.000000 0.6323 0.6339 0.6354 0.6369 0.6384
2668.000000 0.6399 0.6414 0.6428 0.6444 0.6458
2663.000000 0.6472 0.6487 0.6501 0.6515 0.6526
2658.000000 0.6538 0.6544 0.6551 0.6557 0.6564
2653.000000 0.6569 0.6575 0.6582 0.6589 0.6592
2648.000000 0.6595 0.6598 0.6601 0.6604 0.6607
2643.000000 0.6610 0.6612 0.6615 0.6618 0.6618
2638.000000 0.6618 0.6618 0.6618 0.6617 0.6617
2633.000000 0.6615 0.6615 0.6614 0.6614 0.6612
2628.000000 0.6612 0.6611 0.6611 0.6610 0.6610
2623.000000 0.6608 0.6608 0.6608 0.6608 0.6607
2618.000000 0.6607 0.6607 0.6608 0.6608 0.6608
2613.000000 0.6608 0.6608 0.6608 0.6608 0.6608
2608.000000 0.6608 0.6608 0.6608 0.6608 0.6608
2603.000000 0.6608 0.6607 0.6606 0.6606 0.6605
2598.000000 0.6604 0.6603 0.6603 0.6601 0.6601
2593.000000 0.6600 0.6600 0.6599 0.6598 0.6596
2588.000000 0.6595 0.6591 0.6587 0.6583 0.6580
2583.000000 0.6575 0.6571 0.6567 0.6562 0.6557
2578.000000 0.6551 0.6544 0.6538 0.6532 0.6525
2573.000000 0.6518 0.6511 0.6501 0.6493 0.6483
2568.000000 0.6474 0.6465 0.6458 0.6451 0.6446
2563.000000 0.6439 0.6433 0.6426 0.6421 0.6417
2558.000000 0.6411 0.6407 0.6401 0.6397 0.6393
2553.000000 0.6388 0.6383 0.6378 0.6374 0.6368
2548.000000 0.6362 0.6354 0.6345 0.6336 0.6328
2543.000000 0.6319 0.6310 0.6301 0.6292 0.6283
2538.000000 0.6275 0.6266 0.6257 0.6248 0.6239
2533.000000 0.6231 0.6223 0.6215 0.6208 0.6200
2528.000000 0.6192 0.6184 0.6177 0.6169 0.6162
2523.000000 0.6154 0.6147 0.6139 0.6132 0.6124
2518.000000 0.6117 0.6109 0.6101 0.6093 0.6086
2513.000000 0.6078 0.6071 0.6062 0.6056 0.6048
2508.000000 0.6040 0.6032 0.6025 0.6017 0.6010
2503.000000 0.6002 0.5995 0.5987 0.5980 0.5971
2498.000000 0.5962 0.5955 0.5947 0.5938 0.5930
2493.000000 0.5925 0.5920 0.5916 0.5915 0.5914
2488.000000 0.5915 0.5920 0.5925 0.5930 0.5936
2483.000000 0.5941 0.5947 0.5953 0.5959 0.5965
2478.000000 0.5972 0.5978 0.5985 0.5988 0.5992
2473.000000 0.5991 0.5991 0.5990 0.5990 0.5989
2468.000000 0.5989 0.5988 0.5988 0.5987 0.5987
2463.000000 0.5985 0.5984 0.5982 0.5980 0.5978
2458.000000 0.5977 0.5975 0.5973 0.5971 0.5970
2453.000000 0.5968 0.5966 0.5964 0.5962 0.5960
2448.000000 0.5959 0.5957 0.5956 0.5954 0.5953
2443.000000 0.5953 0.5953 0.5952 0.5952 0.5952
2438.000000 0.5952 0.5952 0.5952 0.5952 0.5952
2433.000000 0.5952 0.5952 0.5951 0.5951 0.5951
2428.000000 0.5951 0.5951 0.5951 0.5953 0.5955
2423.000000 0.5957 0.5959 0.5960 0.5964 0.5966
2418.000000 0.5968 0.5971 0.5974 0.5977 0.5981
2413.000000 0.5984 0.5987 0.5990 0.5993 0.5996
2408.000000 0.6000 0.6003 0.6006 0.6009 0.6012
2403.000000 0.6015 0.6018 0.6021 0.6025 0.6030
2398.000000 0.6036 0.6046 0.6056 0.6065 0.6075
2393.000000 0.6085 0.6095 0.6104 0.6114 0.6134
2388.000000 0.6154 0.6182 0.6210 0.6236 0.6262
2383.000000 0.6290 0.6319 0.6358 0.6398 0.6415
2378.000000 0.6433 0.6444 0.6456 0.6461 0.6467
2373.000000 0.6469 0.6471 0.6471 0.6468 0.6467
2368.000000 0.6465 0.6462 0.6461 0.6458 0.6457
2363.000000 0.6451 0.6448 0.6443 0.6438 0.6433
2358.000000 0.6428 0.6424 0.6418 0.6415 0.6412
2353.000000 0.6411 0.6411 0.6411 0.6411 0.6410
2348.000000 0.6410 0.6408 0.6408 0.6408 0.6408
2343.000000 0.6406 0.6405 0.6403 0.6401 0.6399
2338.000000 0.6398 0.6398 0.6399 0.6400 0.6401
2333.000000 0.6401 0.6404 0.6405 0.6406 0.6407
2328.000000 0.6408 0.6410 0.6411 0.6411 0.6412
2323.000000 0.6415 0.6418 0.6419 0.6421 0.6424
2318.000000 0.6425 0.6428 0.6431 0.6433 0.6435
2313.000000 0.6437 0.6440 0.6442 0.6444 0.6446
2308.000000 0.6449 0.6454 0.6458 0.6464 0.6469
2303.000000 0.6475 0.6481 0.6486 0.6492 0.6497
2298.000000 0.6503 0.6508 0.6514 0.6518 0.6525
2293.000000 0.6530 0.6536 0.6541 0.6546 0.6551
2288.000000 0.6557 0.6561 0.6567 0.6576 0.6587
2283.000000 0.6597 0.6607 0.6617 0.6626 0.6636
2278.000000 0.6646 0.6660 0.6674 0.6694 0.6715
2273.000000 0.6735 0.6756 0.6775 0.6797 0.6811
2268.000000 0.6826 0.6841 0.6855 0.6868 0.6882
2263.000000 0.6896 0.6910 0.6922 0.6937 0.6949
2258.000000 0.6961 0.6971 0.6984 0.6995 0.7007
2253.000000 0.7018 0.7028 0.7037 0.7046 0.7054
2248.000000 0.7062 0.7071 0.7080 0.7088 0.7097
2243.000000 0.7104 0.7111 0.7117 0.7124 0.7131
2238.000000 0.7138 0.7144 0.7151 0.7158 0.7165
2233.000000 0.7171 0.7193 0.7178 0.7181 0.7175
2228.000000 0.7169 0.7165 0.7160 0.7155 0.7150
2223.000000 0.7145 0.7140 0.7134 0.7128 0.7122
2218.000000 0.7118 0.7112 0.7108 0.7101 0.7097
2213.000000 0.7092 0.7087 0.7081 0.7075 0.7058
2208.000000 0.7041 0.7022 0.7006 0.6988 0.6969
2203.000000 0.6951 0.6935 0.6918 0.6901 0.6884
2198.000000 0.6868 0.6851 0.6836 0.6819 0.6804
2193.000000 0.6788 0.6772 0.6761 0.6751 0.6742
2188.000000 0.6732 0.6721 0.6711 0.6701 0.6691
2183.000000 0.6681 0.6671 0.6665 0.6658 0.6651
2178.000000 0.6644 0.6636 0.6628 0.6622 0.6618
2173.000000 0.6615 0.6615 0.6612 0.6611 0.6610
2168.000000 0.6604 0.6607 0.6606 0.6606 0.6606
2163.000000 0.6608 0.6612 0.6615 0.6619 0.6624
2158.000000 0.6628 0.6632 0.6636 0.6642 0.6648
2153.000000 0.6654 0.6660 0.6664 0.6668 0.6671
2148.000000 0.6675 0.6678 0.6682 0.6682 0.6683
2143.000000 0.6678 0.6675 0.6668 0.6697 0.6653
2138.000000 0.6645 0.6635 0.6625 0.6612 0.6600
2133.000000 0.6587 0.6575 0.6565 0.6556 0.6548
2128.000000 0.6540 0.6532 0.6524 0.6515 0.6508
2123.000000 0.6500 0.6493 0.6490 0.6488 0.6485
2118.000000 0.6483 0.6481 0.6478 0.6472 0.6468
2113.000000 0.6461 0.6454 0.6447 0.6440 0.6433
2108.000000 0.6425 0.6419 0.6414 0.6411 0.6408
2103.000000 0.6406 0.6362 0.6404 0.6404 0.6404
2098.000000 0.6405 0.6405 0.6406 0.6407 0.6408
2093.000000 0.6411 0.6417 0.6421 0.6425 0.6430
2088.000000 0.6435 0.6439 0.6444 0.6448 0.6453
2083.000000 0.6457 0.6461 0.6465 0.6471 0.6476
2078.000000 0.6484 0.6490 0.6497 0.6503 0.6508
2073.000000 0.6515 0.6521 0.6528 0.6535 0.6541
2068.000000 0.6547 0.6553 0.6560 0.6565 0.6572
2063.000000 0.6578 0.6585 0.6591 0.6597 0.6601
2058.000000 0.6608 0.6614 0.6619 0.6625 0.6632
2053.000000 0.6637 0.6643 0.6649 0.6655 0.6661
2048.000000 0.6667 0.6671 0.6678 0.6684 0.6690
2043.000000 0.6695 0.6701 0.6707 0.6712 0.6718
2038.000000 0.6725 0.6730 0.6736 0.6742 0.6748
2033.000000 0.6753 0.6758 0.6765 0.6772 0.6780
2028.000000 0.6787 0.6793 0.6800 0.6807 0.6814
2023.000000 0.6819 0.6826 0.6834 0.6841 0.6847
2018.000000 0.6854 0.6861 0.6868 0.6874 0.6881
2013.000000 0.6887 0.6893 0.6899 0.6906 0.6911
2008.000000 0.6918 0.6924 0.6930 0.6936 0.6943
2003.000000 0.6949 0.6955 0.6967 0.6978 0.6991
1998.000000 0.6998 0.7004 0.7010 0.7017 0.7022
1993.000000 0.7028 0.7036 0.7042 0.7048 0.7054
1988.000000 0.7058 0.7065 0.7069 0.7075 0.7084
1983.000000 0.7101 0.7121 0.7140 0.7158 0.7178
1978.000000 0.7197 0.7212 0.7224 0.7236 0.7247
1973.000000 0.7258 0.7269 0.7282 0.7291 0.7296
1968.000000 0.7301 0.7306 0.7311 0.7315 0.7318
1963.000000 0.7311 0.7304 0.7296 0.7289 0.7289
1958.000000 0.7289 0.7293 0.7307 0.7326 0.7347
1953.000000 0.7365 0.7382 0.7399 0.7414 0.7415
1948.000000 0.7415 0.7417 0.7418 0.7418 0.7418
1943.000000 0.7418 0.7418 0.7415 0.7415 0.7414
1938.000000 0.7411 0.7411 0.7410 0.7408 0.7407
1933.000000 0.7407 0.7408 0.7410 0.7411 0.7411
1928.000000 0.7412 0.7414 0.7415 0.7417 0.7418
1923.000000 0.7418 0.7421 0.7425 0.7428 0.7431
1918.000000 0.7434 0.7438 0.7441 0.7444 0.7445
1913.000000 0.7446 0.7446 0.7447 0.7448 0.7449
1908.000000 0.7450 0.7451 0.7451 0.7456 0.7465
1903.000000 0.7475 0.7485 0.7497 0.7511 0.7525
1898.000000 0.7541 0.7549 0.7553 0.7557 0.7560
1893.000000 0.7564 0.7568 0.7571 0.7575 0.7575
1888.000000 0.7576 0.7578 0.7583 0.7588 0.7592
1883.000000 0.7603 0.7628 0.7653 0.7674 0.7696
1878.000000 0.7717 0.7738 0.7756 0.7771 0.7786
1873.000000 0.7801 0.7817 0.7832 0.7847 0.7861
1868.000000 0.7876 0.7891 0.7901 0.7912 0.7924
1863.000000 0.7935 0.7946 0.7957 0.7968 0.7978
1858.000000 0.7988 0.7996 0.8004 0.8012 0.8021
1853.000000 0.8028 0.8037 0.8046 0.8053 0.8060
1848.000000 0.8067 0.8074 0.8081 0.8088 0.8095
1843.000000 0.8099 0.8101 0.8104 0.8107 0.8110
1838.000000 0.8111 0.8114 0.8114 0.8115 0.8115
1833.000000 0.8115 0.8115 0.8117 0.8118 0.8118
1828.000000 0.8118 0.8121 0.8133 0.8149 0.8175
1823.000000 0.8203 0.8230 0.8255 0.8274 0.8294
1818.000000 0.8313 0.8333 0.8352 0.8371 0.8391
1813.000000 0.8413 0.8435 0.8456 0.8478 0.8500
1808.000000 0.8521 0.8540 0.8557 0.8574 0.8585
1803.000000 0.8595 0.8605 0.8616 0.8625 0.8630
1798.000000 0.8630 0.8630 0.8628 0.8625 0.8624
1793.000000 0.8621 0.8618 0.8616 0.8616 0.8616
1788.000000 0.8617 0.8618 0.8618 0.8620 0.8624
1783.000000 0.8631 0.8638 0.8645 0.8652 0.8662
1778.000000 0.8671 0.8682 0.8691 0.8700 0.8706
1773.000000 0.8712 0.8718 0.8723 0.8728 0.8735
1768.000000 0.8740 0.8747 0.8755 0.8762 0.8770
1763.000000 0.8777 0.8784 0.8791 0.8798 0.8805
1758.000000 0.8812 0.8818 0.8825 0.8832 0.8834
1753.000000 0.8837 0.8839 0.8842 0.8845 0.8845
1748.000000 0.8846 0.8843 0.8840 0.8837 0.8834
1743.000000 0.8831 0.8828 0.8825 0.8823 0.8818
1738.000000 0.8814 0.8808 0.8802 0.8797 0.8791
1733.000000 0.8786 0.8780 0.8774 0.8765 0.8756
1728.000000 0.8748 0.8739 0.8730 0.8721 0.8696
1723.000000 0.8706 0.8712 0.8723 0.8734 0.8745
1718.000000 0.8755 0.8764 0.8773 0.8782 0.8791
1713.000000 0.8800 0.8809 0.8818 0.8825 0.8833
1708.000000 0.8841 0.8849 0.8856 0.8864 0.8870
1703.000000 0.8873 0.8875 0.8878 0.8878 0.8880
1698.000000 0.8878 0.8875 0.8873 0.8870 0.8868
1693.000000 0.8861 0.8850 0.8842 0.8833 0.8821
1688.000000 0.8807 0.8794 0.8777 0.8751 0.8706
1683.000000 0.8660 0.8618 0.8580 0.8540 0.8504
1678.000000 0.8468 0.8433 0.8392 0.8348 0.8305
1673.000000 0.8258 0.8208 0.8158 0.8108 0.8058
1668.000000 0.8004 0.7951 0.7889 0.7825 0.7761
1663.000000 0.7695 0.7625 0.7537 0.7447 0.7356
1658.000000 0.7264 0.7138 0.7014 0.6894 0.6774
1653.000000 0.6598 0.6408 0.6220 0.6021 0.5339
1648.000000 0.5159 0.4983 0.4829 0.4704 0.4579
1643.000000 0.4460 0.4341 0.4243 0.4146 0.3998
1638.000000 0.3882 0.3814 0.3770 0.3712 0.3656
1633.000000 0.3603 0.3548 0.3496 0.3424 0.3482
1628.000000 0.3482 0.3538 0.3697 0.3823 0.3964
1623.000000 0.4093 0.4195 0.4305 0.4451 0.4644
1618.000000 0.4897 0.4954 0.4996 0.5018 0.5031
1613.000000 0.5040 0.5062 0.5016 0.4977 0.4908
1608.000000 0.4749 0.4604 0.4460 0.4390 0.4390
1603.000000 0.4401 0.4477 0.4553 0.4606 0.4605
1598.000000 0.4603 0.4570 0.4492 0.4415 0.4337
1593.000000 0.4259 0.4124 0.3876 0.3600 0.2672
1588.000000 0.2672 0.2672 0.2787 0.2908 0.3030
1583.000000 0.3037 0.2956 0.2741 0.2527 0.2312
1578.000000 0.2098 0.1884 0.1669 0.1455 0.1241
1573.000000 0.1064 0.1007 0.0974 0.0955 0.0956
1568.000000 0.0956 0.0984 0.1012 0.1040 0.1103
1563.000000 0.1222 0.1372 0.1522 0.1672 0.1822
1558.000000 0.1972 0.2122 0.2284 0.2387 0.2442
1553.000000 0.2496 0.2548 0.2579 0.2587 0.2595
1548.000000 0.2591 0.2576 0.2551 0.2532 0.2506
1543.000000 0.2477 0.2448 0.2420 0.2391 0.2366
1538.000000 0.2345 0.2324 0.2305 0.2292 0.2280
1533.000000 0.2268 0.2257 0.2253 0.2249 0.2247
1528.000000 0.2247 0.2246 0.2246 0.2246 0.2249
1523.000000 0.2253 0.2257 0.2260 0.2264 0.2266
1518.000000 0.2268 0.2270 0.2273 0.2274 0.2274
1513.000000 0.2274 0.2273 0.2268 0.2257 0.2226
1508.000000 0.2165 0.2083 0.2007 0.1964 0.1907
1503.000000 0.1827 0.1727 0.1701 0.1693 0.1690
1498.000000 0.1737 0.1923 0.1948 0.1958 0.1970
1493.000000 0.1983 0.1949 0.1901 0.1854 0.1807
1488.000000 0.1759 0.1712 0.1664 0.1617 0.1569
1483.000000 0.1522 0.1474 0.1427 0.1380 0.1336
1478.000000 0.1336 0.1335 0.1344 0.1374 0.1477
1473.000000 0.1587 0.1698 0.1808 0.1945 0.1969
1468.000000 0.1940 0.1804 0.1432 0.1533 0.1435
1463.000000 0.1510 0.1829 0.2151 0.2292 0.2070
1458.000000 0.0902 0.0876 0.0880 0.0879 0.0879
1453.000000 0.0882 0.0887 0.0991 0.1111 0.1222
1448.000000 0.1257 0.1288 0.1318 0.1346 0.1377
1443.000000 0.1407 0.1453 0.1535 0.1617 0.1699
1438.000000 0.1781 0.1863 0.1944 0.2027 0.2109
1433.000000 0.2190 0.2272 0.2354 0.2435 0.2518
1428.000000 0.2600 0.2682 0.2764 0.2846 0.2928
1423.000000 0.3010 0.3092 0.3173 0.3255 0.3337
1418.000000 0.3418 0.3484 0.3520 0.3543 0.3557
1413.000000 0.3549 0.3496 0.3325 0.3088 0.2852
1408.000000 0.2615 0.2379 0.2142 0.1904 0.1691
1403.000000 0.1649 0.1643 0.1637 0.1633 0.1629
1398.000000 0.1617 0.1621 0.1627 0.1634 0.1648
1393.000000 0.1668 0.1700 0.1731 0.1763 0.1794
1388.000000 0.1836 0.1889 0.1942 0.2010 0.2081
1383.000000 0.2222 0.2539 0.3504 0.3628 0.3754
1378.000000 0.3891 0.4004 0.4080 0.4156 0.4232
1373.000000 0.4359 0.4490 0.4629 0.4767 0.4905
1368.000000 0.5044 0.5182 0.5320 0.5478 0.5491
1363.000000 0.5497 0.5501 0.5512 0.5474 0.5420
1358.000000 0.5324 0.5223 0.5133 0.4965 0.4655
1353.000000 0.4070 0.3586 0.3526 0.3404 0.3124
1348.000000 0.2845 0.2565 0.2285 0.2007 0.1727
1343.000000 0.1448 0.1169 0.1032 0.1002 0.0972
1338.000000 0.0832 0.0892 0.0879 0.0875 0.0874
1333.000000 0.0892 0.0911 0.1005 0.1162 0.1292
1328.000000 0.1464 0.1663 0.1844 0.2024 0.2203
1323.000000 0.2382 0.2561 0.2740 0.2919 0.3098
1318.000000 0.3277 0.3499 0.3504 0.3232 0.2834
1313.000000 0.2434 0.2035 0.1637 0.1239 0.1016
1308.000000 0.1010 0.1063 0.1208 0.1354 0.1499
1303.000000 0.1644 0.1791 0.1935 0.2082 0.2227
1298.000000 0.2373 0.2518 0.2664 0.2809 0.3052
1293.000000 0.3078 0.3084 0.3024 0.2823 0.2621
1288.000000 0.2500 0.2512 0.2482 0.2498 0.2570
1283.000000 0.2694 0.2796 0.2897 0.2987 0.3070
1278.000000 0.3153 0.3237 0.3312 0.3384 0.3456
1273.000000 0.3527 0.3592 0.3645 0.3698 0.3750
1268.000000 0.3804 0.3857 0.3907 0.3950 0.3996
1263.000000 0.4040 0.4082 0.4112 0.4144 0.4174
1258.000000 0.4201 0.4221 0.4241 0.4260 0.4280
1253.000000 0.4300 0.4314 0.4337 0.4359 0.4382
1248.000000 0.4396 0.4408 0.4415 0.4423 0.4430
1243.000000 0.4471 0.4441 0.4441 0.4437 0.4406
1238.000000 0.4356 0.4278 0.4193 0.4092 0.4055
1233.000000 0.4040 0.4040 0.4047 0.4095 0.4153
1228.000000 0.4230 0.4309 0.4379 0.4432 0.4444
1223.000000 0.4456 0.4467 0.4469 0.4488 0.4444
1218.000000 0.4387 0.4317 0.4255 0.4212 0.4159
1213.000000 0.4132 0.4153 0.4155 0.4428 0.4610
1208.000000 0.4642 0.4666 0.4682 0.4697 0.4712
1203.000000 0.4729 0.4747 0.4769 0.4792 0.4817
1198.000000 0.4843 0.4869 0.4868 0.4868 0.4866
1193.000000 0.4849 0.4824 0.4798 0.4772 0.4762
1188.000000 0.4760 0.4728 0.4771 0.4777 0.4788
1183.000000 0.4820 0.4859 0.4898 0.4923 0.4945
1178.000000 0.4968 0.4987 0.5004 0.5022 0.5020
1173.000000 0.5029 0.5017 0.5015 0.5001 0.4976
1168.000000 0.4932 0.4865 0.4734 0.4656 0.4591
1163.000000 0.4538 0.4491 0.4447 0.4435 0.4425
1158.000000 0.4423 0.4432 0.4440 0.4448 0.4454
1153.000000 0.4420 0.4340 0.4175 0.3570 0.3541
1148.000000 0.3518 0.3512 0.3504 0.3500 0.3536
1143.000000 0.3644 0.3766 0.3907 0.4041 0.4137
1138.000000 0.4183 0.4202 0.4220 0.4233 0.4248
1133.000000 0.4248 0.4249 0.4248 0.4239 0.4230
1128.000000 0.4215 0.4198 0.4181 0.4167 0.4152
1123.000000 0.4138 0.4120 0.4100 0.4080 0.4075
1118.000000 0.4073 0.4072 0.4071 0.4070 0.4068
1113.000000 0.4068 0.4070 0.4071 0.4072 0.4073
1108.000000 0.4074 0.4075 0.4076 0.4077 0.4080
1103.000000 0.4086 0.4091 0.4096 0.4101 0.4106
1098.000000 0.4110 0.4118 0.4126 0.4134 0.4146
1093.000000 0.4157 0.4168 0.4180 0.4189 0.4225
1088.000000 0.4195 0.4189 0.4181 0.4167 0.4143
1083.000000 0.4087 0.3988 0.3889 0.3790 0.3691
1078.000000 0.3592 0.3512 0.3530 0.3705 0.3929
1073.000000 0.4153 0.4441 0.4571 0.4667 0.4741
1068.000000 0.4792 0.4844 0.4896 0.4948 0.4996
1063.000000 0.5038 0.5070 0.5097 0.5130 0.5137
1058.000000 0.5142 0.5175 0.5150 0.5149 0.5140
1053.000000 0.5119 0.5039 0.4931 0.4859 0.4787
1048.000000 0.4589 0.4393 0.4080 0.3512 0.2947
1043.000000 0.2381 0.2329 0.2327 0.2369 0.2815
1038.000000 0.3260 0.3707 0.4153 0.4599 0.4887
1033.000000 0.4921 0.4956 0.5109 0.5324 0.5539
1028.000000 0.5755 0.5874 0.5935 0.5996 0.6060
1023.000000 0.6134 0.6208 0.6292 0.6404 0.6475
1018.000000 0.6548 0.6617 0.6680 0.6717 0.6711
1013.000000 0.6721 0.6603 0.6368 0.6132 0.5897
1008.000000 0.5452 0.5465 0.5551 0.5690 0.5828
1003.000000 0.5934 0.5537 0.5296 0.5268 0.5585
998.000000 0.6264 0.6426 0.6495 0.6603 0.6689
993.000000 0.6778 0.6875 0.6961 0.7057 0.7054
988.000000 0.7039 0.7011 0.6954 0.6895 0.6872
983.000000 0.6860 0.6858 0.6981 0.7135 0.7289
978.000000 0.7285 0.7282 0.7298 0.7343 0.7390
973.000000 0.7451 0.7511 0.7556 0.7599 0.7610
968.000000 0.7614 0.7606 0.7599 0.7591 0.7585
963.000000 0.7612 0.7656 0.7700 0.7743 0.7778
958.000000 0.7810 0.7842 0.7868 0.7890 0.7901
953.000000 0.7911 0.7918 0.7918 0.7919 0.7936
948.000000 0.7912 0.7908 0.7890 0.7871 0.7837
943.000000 0.7792 0.7728 0.7665 0.7589 0.7508
938.000000 0.7158 0.6554 0.6167 0.6189 0.6324
933.000000 0.6628 0.6931 0.7234 0.7538 0.7780
928.000000 0.7818 0.7857 0.7896 0.7936 0.7968
923.000000 0.8000 0.8026 0.8048 0.8058 0.8061
918.000000 0.8056 0.8047 0.8038 0.8031 0.8028
913.000000 0.8033 0.8044 0.8082 0.8135 0.8178
908.000000 0.8198 0.8218 0.8218 0.8218 0.8216
903.000000 0.8205 0.8158 0.8088 0.8012 0.7944
898.000000 0.7933 0.7925 0.7940 0.8039 0.8101
893.000000 0.8164 0.8221 0.8278 0.8332 0.8380
888.000000 0.8432 0.8467 0.8468 0.8470 0.8471
883.000000 0.8474 0.8475 0.8478 0.8480 0.8501
878.000000 0.8485 0.8487 0.8487 0.8488 0.8487
873.000000 0.8486 0.8468 0.8445 0.8423 0.8414
868.000000 0.8409 0.8405 0.8402 0.8396 0.8354
863.000000 0.8312 0.8258 0.8207 0.8189 0.8178
858.000000 0.8176 0.8175 0.8218 0.8290 0.8301
853.000000 0.8303 0.8303 0.8304 0.8304 0.8304
848.000000 0.8304 0.8303 0.8301 0.8286 0.8250
843.000000 0.8208 0.8165 0.8118 0.8058 0.8004
838.000000 0.7953 0.7908 0.7867 0.7825 0.7824
833.000000 0.7830 0.7836 0.7833 0.7808 0.7781
828.000000 0.7753 0.7719 0.7669 0.7621 0.7510
823.000000 0.7369 0.5960 0.5295 0.4629 0.4221
818.000000 0.4232 0.4232 0.4425 0.4807 0.5188
813.000000 0.5570 0.5952 0.6334 0.6715 0.7097
808.000000 0.7478 0.7797 0.7833 0.7871 0.7853
803.000000 0.7853 0.7851 0.7844 0.7826 0.7810
798.000000 0.7761 0.7689 0.7512 0.7294 0.7107
793.000000 0.7107 0.7096 0.7389 0.7607 0.7771
788.000000 0.7794 0.7805 0.7808 0.7812 0.7860
783.000000 0.7807 0.7803 0.7786 0.7769 0.7754
778.000000 0.7735 0.7714 0.7692 0.7671 0.7649
773.000000 0.7618 0.7584 0.7551 0.7517 0.7475
768.000000 0.7428 0.7384 0.7339 0.7294 0.7208
763.000000 0.7121 0.7033 0.6921 0.6811 0.6661
758.000000 0.6425 0.6282 0.6139 0.5693 0.5359
753.000000 0.4554 0.4410 0.3900 0.3090 0.3018
748.000000 0.2691 0.2216 0.1742 0.1614 0.1575
743.000000 0.1537 0.1438 0.1329 0.1325 0.1560
738.000000 0.2009 0.2459 0.2908 0.3357 0.3807
733.000000 0.4256 0.4705 0.5106 0.5166 0.5203
728.000000 0.5237 0.5270 0.5318 0.5369 0.5419
723.000000 0.5494 0.5573 0.5749 0.5998 0.6246
718.000000 0.6339 0.6359 0.6368 0.6381 0.6354
713.000000 0.6299 0.6220 0.6112 0.5501 0.5212
708.000000 0.4671 0.4131 0.3590 0.3050 0.2509
703.000000 0.1969 0.1429 0.1010 0.1014 0.1042
698.000000 0.1618 0.2212 0.2806 0.3400 0.3995
693.000000 0.5058 0.5344 0.5545 0.5746 0.5947
688.000000 0.6148 0.6348 0.6549 0.6750 0.6882
683.000000 0.6999 0.7206 0.7335 0.7442 0.7528
678.000000 0.7592 0.7600 0.7607 0.7618 0.7632
673.000000 0.7644 0.7657 0.7675 0.7705 0.7736
668.000000 0.7765 0.7797 0.7831 0.7862 0.7890
663.000000 0.7922 0.7955 0.7982 0.7992 0.8015
658.000000 0.7986 0.7971 0.7949 0.7926 0.7901
653.000000 0.7857 0.7812 0.7764 0.7686 0.7608
648.000000 0.7507 0.7396 0.7286 0.7180 0.7074
643.000000 0.6944 0.6807 0.6607 0.6405 0.6188
638.000000 0.6014 0.5524 0.5114 0.4705 0.4296
633.000000 0.3887 0.3478 0.3480 0.3732 0.4142
628.000000 0.4551 0.4959 0.5368 0.5777 0.6186
623.000000 0.6594 0.7003 0.7444 0.7460 0.7206
618.000000 0.6377 0.5899 0.5962 0.5907 0.6170
613.000000 0.6171 0.6162 0.6174 0.6065 0.6015
608.000000 0.5972 0.5972 0.5972 0.6216 0.6460
603.000000 0.6704 0.6947 0.7191 0.7435 0.7678
598.000000 0.7876 0.7991 0.8068 0.8150 0.8218
593.000000 0.8262 0.8275 0.8285 0.8283 0.8266
588.000000 0.8209 0.8125 0.8018 0.7900 0.7761
583.000000 0.7600 0.7448 0.6229 0.4880 0.4402
578.000000 0.4402 0.4412 0.5002 0.5598 0.6193
573.000000 0.6789 0.7385 0.8011 0.8248 0.8361
568.000000 0.8439 0.8510 0.8573 0.8611 0.8650
563.000000 0.8673 0.8692 0.8711 0.8730 0.8735
558.000000 0.8740 0.8745 0.8747 0.8747 0.8747
553.000000 0.8746 0.8746 0.8741 0.8733 0.8725
548.000000 0.8717 0.8709 0.8701 0.8693 0.8678
543.000000 0.8662 0.8647 0.8632 0.8617 0.8601
538.000000 0.8586 0.8571 0.8549 0.8527 0.8505
533.000000 0.8483 0.8461 0.8439 0.8417 0.8396
528.000000 0.8374 0.8352 0.8328 0.8307 0.8285
523.000000 0.8262 0.8240 0.8218 0.8188 0.8157
518.000000 0.8125 0.8093 0.8061 0.8028 0.7997
513.000000 0.7964 0.7928 0.7892 0.7855 0.7818
508.000000 0.7783 0.7745 0.7701 0.7658 0.7615
503.000000 0.7571 0.7528 0.7486 0.7443 0.7399
498.000000 0.7355 0.7311 0.7268 0.7224 0.7154
493.000000 0.7078 0.7004 0.6921 0.6836 0.6751
488.000000 0.6665 0.6583 0.6510 0.6437 0.6254
483.000000 0.6132 0.6035 0.5835 0.5700 0.5450
478.000000 0.5040 0.4630 0.4371 0.4373 0.4595
473.000000 0.4884 0.5172 0.5460 0.5572 0.5499
468.000000 0.5114 0.4729 0.4344 0.4003 0.4002
463.000000 0.4006 0.4657 0.5083 0.5509 0.5935
458.000000 0.6295 0.6378 0.6431 0.6458 0.6471
453.000000 0.6478 0.6492 0.6484 0.6471 0.6460
448.000000 0.6448 0.6436 0.6419 0.6398 0.6375
443.000000 0.6347 0.6305 0.6264 0.6222 0.6181
438.000000 0.6139 0.6085 0.6026 0.5967 0.5908
433.000000 0.5841 0.5771 0.5701 0.5632 0.5562
428.000000 0.5508 0.5454 0.5401 0.5334 0.5235
423.000000 0.5136 0.5021 0.4882 0.4755 0.4637
418.000000 0.4520 0.4336 0.4044 0.3858 0.3638
413.000000 0.3441 0.3298 0.3155 0.3021 0.2898
408.000000 0.2805 0.2711 0.2617 0.2568 0.2526
403.000000 0.2495
##END=
