##TITLE=FERRIC OXIDE (PURE RED OXIDE)
##JCAMP-DX=4.24
##DATA TYPE=INFRARED SPECTRUM
##CLASS=COBLENTZ
##ORIGIN=DESOTO CHEMICAL COATINGS, INC.
##OWNER=COBLENTZ SOCIETY
Collection (C) 2018 copyright by the U.S. Secretary of Commerce
on behalf of the United States of America. All rights reserved.
##DATE=Not specified, most likely prior to 1970
##MOLFORM=O3 Fe2
$$ Fe2O3 99%
##SOURCE REFERENCE=COBLENTZ NO. 4683
##$NIST ID=B6004683
##$NIST SOURCE=COBLENTZ
##$NIST IMAGE=cob4683
##SPECTROMETER/DATA SYSTEM=Not specified, most likely a grating spectrometer.
##STATE=SOLID (0.8 mg / 300 mg CsI PELLET)
##SAMPLING PROCEDURE=TRANSMISSION
##RESOLUTION=4
##DATA PROCESSING=DIGITIZED BY NIST FROM HARD COPY (FROM TWO SEGMENTS)
##XUNITS=1/CM
##YUNITS=TRANSMITTANCE
##XFACTOR=1.000000
##YFACTOR=1
##DELTAX=1.328417
##FIRSTX=198.672
##LASTX=3985.99
##FIRSTY=0.842
##MAXX=3985.99
##MINX=198.672
##MAXY=0.99
##MINY=0.171006
##NPOINTS=2852
##XYDATA=(X++(Y..Y))
198.672000 0.8420 0.8420 0.8430 0.8420 0.8420
205.314085 0.8430 0.8430 0.8430 0.8430 0.8430
211.956169 0.8430 0.8430 0.8430 0.8430 0.8430
218.598254 0.8430 0.8440 0.8430 0.8430 0.8420
225.240339 0.8420 0.8420 0.8400 0.8380 0.8380
231.882423 0.8360 0.8360 0.8350 0.8340 0.8320
238.524508 0.8310 0.8300 0.8300 0.8280 0.8280
245.166593 0.8270 0.8270 0.8260 0.8260 0.8260
251.808677 0.8240 0.8240 0.8240 0.8240 0.8240
258.450762 0.8240 0.8240 0.8240 0.8240 0.8230
265.092847 0.8230 0.8230 0.8220 0.8200 0.8160
271.734931 0.8150 0.8140 0.8110 0.8040 0.8030
278.377016 0.8030 0.8020 0.7990 0.7950 0.7920
285.019101 0.7900 0.7900 0.7900 0.7860 0.7820
291.661185 0.7800 0.7750 0.7740 0.7720 0.7720
298.303270 0.7700 0.7670 0.7640 0.7620 0.7590
304.945355 0.7560 0.7540 0.7520 0.7510 0.7450
311.587439 0.7410 0.7390 0.7330 0.7270 0.7240
318.229524 0.7150 0.7030 0.6970 0.6870 0.6671
324.871609 0.6401 0.5822 0.5412 0.5122 0.4633
331.513693 0.4270 0.3770 0.3310 0.3180 0.2901
338.155778 0.2750 0.2630 0.2521 0.2470 0.2450
344.797863 0.2470 0.2480 0.2590 0.2680 0.2790
351.439947 0.2860 0.2990 0.3119 0.3160 0.3190
358.082032 0.3620 0.4060 0.4390 0.4660 0.4870
364.724117 0.5040 0.5170 0.5260 0.5369 0.5459
371.366201 0.5560 0.5680 0.5700 0.5740 0.5760
378.008286 0.5760 0.5760 0.5760 0.5740 0.5720
384.650371 0.5680 0.5620 0.5560 0.5500 0.5450
391.292455 0.5410 0.5320 0.5300 0.5300 0.5320
397.934540 0.5370 0.5410 0.5500 0.5570 0.5620
404.576625 0.5660 0.5680 0.5690 0.5720 0.5740
411.218709 0.5760 0.5780 0.5800 0.5820 0.5850
417.860794 0.5900 0.5960 0.5980 0.6010 0.6040
424.502879 0.6170 0.6210 0.6270 0.6320 0.6350
431.144963 0.6360 0.6430 0.6470 0.6470 0.6440
437.787048 0.6410 0.6330 0.6280 0.5821 0.5561
444.429133 0.5381 0.5211 0.5001 0.4781 0.4512
451.071217 0.4290 0.4070 0.3870 0.3700 0.3540
457.713302 0.3380 0.3221 0.2901 0.2711 0.2511
464.355387 0.2410 0.2250 0.2130 0.2110 0.2090
470.997471 0.2090 0.2090 0.2110 0.2160 0.2200
477.639556 0.2390 0.2580 0.2790 0.3000 0.3339
484.281641 0.3619 0.3859 0.4099 0.4329 0.4549
490.923725 0.4850 0.5080 0.5280 0.5440 0.5570
497.565810 0.5759 0.5810 0.5919 0.6010 0.6139
504.207895 0.6200 0.6210 0.6240 0.6270 0.6280
510.849979 0.6290 0.6290 0.6270 0.6161 0.5742
517.492064 0.5440 0.5210 0.5040 0.4551 0.4221
524.134149 0.3941 0.3671 0.3401 0.2922 0.2701
530.776233 0.2470 0.2250 0.2050 0.2000 0.1910
537.418318 0.1840 0.1800 0.1760 0.1720 0.1710
544.060403 0.1720 0.1720 0.1730 0.1760 0.1830
550.702487 0.1910 0.1950 0.2030 0.2110 0.2200
557.344572 0.2310 0.2430 0.2560 0.2700 0.2840
563.986657 0.2980 0.3040 0.3110 0.3229 0.3320
570.628741 0.3420 0.3620 0.3790 0.3940 0.4090
577.270826 0.4210 0.4310 0.4380 0.4509 0.4570
583.912911 0.4630 0.4700 0.4790 0.4830 0.4870
590.554995 0.4910 0.4950 0.4980 0.5010 0.5020
597.197080 0.5060 0.5090 0.5130 0.5170 0.5180
603.839165 0.5210 0.5210 0.5240 0.5250 0.5260
610.481249 0.5280 0.5280 0.5290 0.5290 0.5300
617.123334 0.5300 0.5320 0.5320 0.5330 0.5340
623.765419 0.5370 0.5380 0.5400 0.5410 0.5420
630.407503 0.5440 0.5500 0.5570 0.5610 0.5660
637.049588 0.5720 0.5810 0.5920 0.5980 0.6050
643.691673 0.6200 0.6369 0.6569 0.6769 0.6959
650.333757 0.7010 0.7150 0.7270 0.7370 0.7450
656.975842 0.7500 0.7560 0.7680 0.7720 0.7829
663.617927 0.7990 0.8070 0.8120 0.8180 0.8220
670.260011 0.8230 0.8260 0.8270 0.8340 0.8400
676.902096 0.8430 0.8500 0.8510 0.8540 0.8590
683.544181 0.8640 0.8700 0.8740 0.8770 0.8780
690.186265 0.8810 0.8820 0.8860 0.8870 0.8890
696.828350 0.8930 0.8940 0.8950 0.8970 0.8980
703.470435 0.8990 0.9010 0.9050 0.9060 0.9060
710.112519 0.9070 0.9100 0.9110 0.9140 0.9190
716.754604 0.9220 0.9230 0.9250 0.9260 0.9270
723.396689 0.9290 0.9300 0.9330 0.9340 0.9350
730.038773 0.9370 0.9380 0.9390 0.9410 0.9420
736.680858 0.9430 0.9450 0.9450 0.9470 0.9490
743.322943 0.9500 0.9500 0.9530 0.9530 0.9540
749.965027 0.9540 0.9550 0.9550 0.9570 0.9570
756.607112 0.9580 0.9590 0.9590 0.9620 0.9630
763.249197 0.9630 0.9630 0.9630 0.9630 0.9620
769.891281 0.9620 0.9620 0.9610 0.9610 0.9610
776.533366 0.9590 0.9590 0.9580 0.9580 0.9570
783.175451 0.9570 0.9550 0.9530 0.9510 0.9500
789.817535 0.9420 0.9410 0.9390 0.9370 0.9330
796.459620 0.9300 0.9270 0.9260 0.9250 0.9260
803.101705 0.9270 0.9290 0.9310 0.9330 0.9350
809.743789 0.9370 0.9390 0.9420 0.9430 0.9470
816.385874 0.9500 0.9510 0.9530 0.9540 0.9540
823.027959 0.9570 0.9580 0.9590 0.9610 0.9620
829.670043 0.9630 0.9650 0.9660 0.9670 0.9690
836.312128 0.9700 0.9700 0.9700 0.9710 0.9710
842.954213 0.9710 0.9730 0.9730 0.9730 0.9730
849.596297 0.9730 0.9730 0.9730 0.9710 0.9710
856.238382 0.9710 0.9710 0.9710 0.9710 0.9710
862.880467 0.9710 0.9700 0.9700 0.9690 0.9670
869.522551 0.9670 0.9660 0.9650 0.9650 0.9630
876.164636 0.9610 0.9580 0.9570 0.9550 0.9530
882.806721 0.9510 0.9500 0.9460 0.9450 0.9410
889.448805 0.9350 0.9330 0.9250 0.9190 0.9170
896.090890 0.9150 0.9110 0.9070 0.9030 0.9020
902.732975 0.9030 0.9060 0.9100 0.9130 0.9150
909.375059 0.9210 0.9230 0.9260 0.9300 0.9330
916.017144 0.9340 0.9350 0.9380 0.9420 0.9430
922.659229 0.9450 0.9510 0.9530 0.9540 0.9590
929.301313 0.9610 0.9620 0.9630 0.9630 0.9650
935.943398 0.9660 0.9660 0.9660 0.9670 0.9670
942.585483 0.9670 0.9690 0.9700 0.9700 0.9700
949.227567 0.9700 0.9710 0.9710 0.9710 0.9710
955.869652 0.9730 0.9730 0.9730 0.9740 0.9740
962.511737 0.9740 0.9740 0.9740 0.9740 0.9740
969.153821 0.9740 0.9740 0.9750 0.9750 0.9750
975.795906 0.9770 0.9770 0.9780 0.9780 0.9780
982.437991 0.9780 0.9780 0.9790 0.9790 0.9790
989.080076 0.9790 0.9810 0.9810 0.9810 0.9810
995.722160 0.9810 0.9810 0.9810 0.9810 0.9810
1002.364245 0.9810 0.9810 0.9810 0.9810 0.9810
1009.006330 0.9810 0.9790 0.9790 0.9790 0.9790
1015.648414 0.9780 0.9770 0.9770 0.9770 0.9750
1022.290499 0.9740 0.9740 0.9730 0.9730 0.9730
1028.932584 0.9710 0.9710 0.9710 0.9700 0.9700
1035.574668 0.9690 0.9670 0.9670 0.9660 0.9660
1042.216753 0.9650 0.9650 0.9650 0.9650 0.9650
1048.858838 0.9660 0.9660 0.9670 0.9690 0.9670
1055.500922 0.9670 0.9670 0.9670 0.9670 0.9690
1062.143007 0.9690 0.9690 0.9690 0.9670 0.9670
1068.785092 0.9670 0.9670 0.9670 0.9670 0.9670
1075.427176 0.9690 0.9690 0.9690 0.9700 0.9700
1082.069261 0.9700 0.9710 0.9710 0.9710 0.9710
1088.711346 0.9710 0.9710 0.9700 0.9700 0.9690
1095.353430 0.9670 0.9660 0.9650 0.9630 0.9630
1101.995515 0.9630 0.9630 0.9650 0.9650 0.9660
1108.637600 0.9660 0.9660 0.9660 0.9660 0.9660
1115.279684 0.9660 0.9670 0.9670 0.9670 0.9660
1121.921769 0.9660 0.9660 0.9650 0.9650 0.9650
1128.563854 0.9650 0.9650 0.9630 0.9630 0.9630
1135.205938 0.9630 0.9630 0.9630 0.9630 0.9630
1141.848023 0.9650 0.9650 0.9660 0.9660 0.9670
1148.490108 0.9670 0.9690 0.9690 0.9690 0.9700
1155.132192 0.9700 0.9700 0.9700 0.9710 0.9710
1161.774277 0.9730 0.9740 0.9750 0.9770 0.9770
1168.416362 0.9730 0.9730 0.9740 0.9770 0.9780
1175.058446 0.9770 0.9770 0.9750 0.9770 0.9770
1181.700531 0.9750 0.9750 0.9770 0.9790 0.9810
1188.342616 0.9820 0.9820 0.9820 0.9820 0.9820
1194.984700 0.9820 0.9820 0.9810 0.9770 0.9770
1201.626785 0.9750 0.9750 0.9750 0.9750 0.9770
1208.268870 0.9770 0.9770 0.9790 0.9820 0.9820
1214.910954 0.9830 0.9830 0.9830 0.9810 0.9810
1221.553039 0.9790 0.9790 0.9790 0.9790 0.9810
1228.195124 0.9820 0.9820 0.9830 0.9820 0.9820
1234.837208 0.9820 0.9830 0.9830 0.9830 0.9850
1241.479293 0.9850 0.9860 0.9860 0.9860 0.9860
1248.121378 0.9860 0.9860 0.9860 0.9860 0.9860
1254.763462 0.9870 0.9870 0.9870 0.9870 0.9870
1261.405547 0.9870 0.9870 0.9890 0.9890 0.9890
1268.047632 0.9890 0.9890 0.9890 0.9890 0.9890
1274.689716 0.9890 0.9890 0.9890 0.9890 0.9890
1281.331801 0.9890 0.9900 0.9900 0.9900 0.9900
1287.973886 0.9900 0.9900 0.9900 0.9900 0.9900
1294.615970 0.9900 0.9890 0.9890 0.9890 0.9890
1301.258055 0.9890 0.9870 0.9870 0.9870 0.9870
1307.900140 0.9870 0.9870 0.9870 0.9870 0.9870
1314.542224 0.9860 0.9860 0.9860 0.9860 0.9860
1321.184309 0.9860 0.9860 0.9860 0.9860 0.9870
1327.826394 0.9870 0.9870 0.9870 0.9870 0.9870
1334.468478 0.9870 0.9890 0.9890 0.9890 0.9890
1341.110563 0.9890 0.9870 0.9870 0.9870 0.9870
1347.752648 0.9860 0.9860 0.9860 0.9860 0.9860
1354.394732 0.9860 0.9860 0.9860 0.9860 0.9850
1361.036817 0.9850 0.9850 0.9850 0.9850 0.9850
1367.678902 0.9830 0.9830 0.9830 0.9830 0.9830
1374.320986 0.9830 0.9830 0.9830 0.9830 0.9830
1380.963071 0.9830 0.9830 0.9830 0.9830 0.9830
1387.605156 0.9830 0.9830 0.9830 0.9830 0.9830
1394.247240 0.9830 0.9830 0.9830 0.9830 0.9830
1400.889325 0.9830 0.9830 0.9830 0.9830 0.9830
1407.531410 0.9830 0.9830 0.9830 0.9830 0.9830
1414.173494 0.9830 0.9830 0.9820 0.9820 0.9820
1420.815579 0.9820 0.9820 0.9820 0.9820 0.9820
1427.457664 0.9820 0.9820 0.9820 0.9810 0.9810
1434.099748 0.9810 0.9810 0.9810 0.9810 0.9810
1440.741833 0.9810 0.9810 0.9810 0.9810 0.9810
1447.383918 0.9810 0.9810 0.9810 0.9810 0.9810
1454.026002 0.9810 0.9810 0.9810 0.9810 0.9810
1460.668087 0.9810 0.9810 0.9810 0.9810 0.9790
1467.310172 0.9790 0.9790 0.9790 0.9790 0.9790
1473.952256 0.9790 0.9790 0.9790 0.9790 0.9790
1480.594341 0.9790 0.9790 0.9790 0.9790 0.9790
1487.236426 0.9790 0.9790 0.9790 0.9790 0.9790
1493.878510 0.9790 0.9790 0.9790 0.9790 0.9790
1500.520595 0.9790 0.9790 0.9810 0.9790 0.9790
1507.162680 0.9790 0.9790 0.9790 0.9790 0.9790
1513.804764 0.9790 0.9790 0.9790 0.9790 0.9790
1520.446849 0.9790 0.9780 0.9780 0.9780 0.9780
1527.088934 0.9780 0.9780 0.9770 0.9770 0.9770
1533.731018 0.9770 0.9770 0.9770 0.9770 0.9750
1540.373103 0.9750 0.9750 0.9750 0.9750 0.9750
1547.015188 0.9750 0.9740 0.9740 0.9740 0.9740
1553.657272 0.9740 0.9740 0.9740 0.9730 0.9730
1560.299357 0.9730 0.9730 0.9730 0.9730 0.9730
1566.941442 0.9730 0.9730 0.9730 0.9730 0.9710
1573.583526 0.9710 0.9710 0.9700 0.9700 0.9700
1580.225611 0.9690 0.9690 0.9690 0.9670 0.9670
1586.867696 0.9660 0.9650 0.9650 0.9630 0.9630
1593.509780 0.9630 0.9620 0.9610 0.9590 0.9580
1600.151865 0.9580 0.9570 0.9540 0.9510 0.9490
1606.793950 0.9470 0.9460 0.9430 0.9420 0.9410
1613.436034 0.9390 0.9370 0.9370 0.9350 0.9350
1620.078119 0.9350 0.9350 0.9350 0.9370 0.9370
1626.720204 0.9380 0.9390 0.9390 0.9390 0.9410
1633.362288 0.9420 0.9430 0.9450 0.9460 0.9460
1640.004373 0.9470 0.9470 0.9490 0.9490 0.9510
1646.646458 0.9530 0.9540 0.9550 0.9550 0.9550
1653.288542 0.9570 0.9570 0.9570 0.9570 0.9570
1659.930627 0.9570 0.9580 0.9590 0.9590 0.9620
1666.572712 0.9620 0.9630 0.9650 0.9650 0.9660
1673.214796 0.9670 0.9670 0.9670 0.9690 0.9690
1679.856881 0.9690 0.9690 0.9700 0.9700 0.9700
1686.498966 0.9710 0.9710 0.9710 0.9710 0.9710
1693.141050 0.9710 0.9710 0.9710 0.9710 0.9710
1699.783135 0.9710 0.9710 0.9710 0.9710 0.9710
1706.425220 0.9730 0.9730 0.9730 0.9730 0.9730
1713.067304 0.9740 0.9740 0.9740 0.9740 0.9740
1719.709389 0.9740 0.9740 0.9740 0.9740 0.9740
1726.351474 0.9740 0.9740 0.9740 0.9740 0.9740
1732.993558 0.9740 0.9740 0.9740 0.9740 0.9740
1739.635643 0.9730 0.9740 0.9740 0.9740 0.9740
1746.277728 0.9740 0.9740 0.9740 0.9740 0.9740
1752.919812 0.9740 0.9750 0.9750 0.9750 0.9770
1759.561897 0.9770 0.9770 0.9770 0.9770 0.9750
1766.203982 0.9750 0.9750 0.9740 0.9740 0.9740
1772.846066 0.9730 0.9730 0.9730 0.9710 0.9710
1779.488151 0.9730 0.9730 0.9730 0.9730 0.9730
1786.130236 0.9710 0.9710 0.9710 0.9700 0.9710
1792.772320 0.9710 0.9710 0.9710 0.9710 0.9710
1799.414405 0.9710 0.9730 0.9710 0.9710 0.9710
1806.056490 0.9710 0.9710 0.9710 0.9710 0.9710
1812.698574 0.9710 0.9710 0.9710 0.9710 0.9710
1819.340659 0.9710 0.9710 0.9710 0.9710 0.9710
1825.982744 0.9710 0.9710 0.9710 0.9710 0.9710
1832.624828 0.9710 0.9710 0.9710 0.9710 0.9710
1839.266913 0.9710 0.9730 0.9730 0.9730 0.9730
1845.908998 0.9730 0.9730 0.9730 0.9730 0.9730
1852.551082 0.9730 0.9730 0.9730 0.9730 0.9730
1859.193167 0.9730 0.9730 0.9740 0.9740 0.9740
1865.835252 0.9740 0.9730 0.9730 0.9730 0.9710
1872.477336 0.9710 0.9700 0.9700 0.9690 0.9690
1879.119421 0.9690 0.9690 0.9690 0.9690 0.9700
1885.761506 0.9700 0.9700 0.9700 0.9710 0.9710
1892.403590 0.9710 0.9710 0.9710 0.9710 0.9710
1899.045675 0.9710 0.9700 0.9700 0.9700 0.9690
1905.687760 0.9690 0.9690 0.9690 0.9670 0.9670
1912.329844 0.9670 0.9670 0.9670 0.9670 0.9670
1918.971929 0.9670 0.9670 0.9690 0.9690 0.9690
1925.614014 0.9690 0.9690 0.9700 0.9700 0.9700
1932.256098 0.9700 0.9700 0.9690 0.9690 0.9690
1938.898183 0.9690 0.9690 0.9690 0.9690 0.9670
1945.540268 0.9670 0.9670 0.9670 0.9660 0.9660
1952.182352 0.9660 0.9660 0.9660 0.9650 0.9650
1958.824437 0.9650 0.9650 0.9660 0.9660 0.9670
1965.466522 0.9670 0.9670 0.9690 0.9690 0.9690
1972.108606 0.9690 0.9670 0.9670 0.9660 0.9650
1978.750691 0.9650 0.9650 0.9650 0.9630 0.9630
1985.392776 0.9630 0.9630 0.9630 0.9630 0.9630
1992.034860 0.9630 0.9630 0.9620 0.9620 0.9620
1998.676945 0.9620 0.9620 0.9620 0.9620 0.9620
2005.319030 0.9620 0.9620 0.9620 0.9625 0.9630
2011.961114 0.9630 0.9630 0.9630 0.9630 0.9630
2018.603199 0.9630 0.9625 0.9620 0.9620 0.9620
2025.245284 0.9620 0.9620 0.9615 0.9610 0.9610
2031.887368 0.9610 0.9610 0.9610 0.9600 0.9590
2038.529453 0.9590 0.9590 0.9585 0.9580 0.9580
2045.171538 0.9580 0.9580 0.9580 0.9580 0.9580
2051.813622 0.9580 0.9580 0.9575 0.9570 0.9570
2058.455707 0.9570 0.9570 0.9570 0.9570 0.9569
2065.097792 0.9559 0.9550 0.9550 0.9550 0.9550
2071.739876 0.9550 0.9550 0.9550 0.9545 0.9540
2078.381961 0.9540 0.9540 0.9540 0.9540 0.9540
2085.024046 0.9540 0.9540 0.9541 0.9546 0.9549
2091.666130 0.9544 0.9540 0.9540 0.9540 0.9540
2098.308215 0.9540 0.9540 0.9540 0.9540 0.9540
2104.950300 0.9540 0.9539 0.9534 0.9530 0.9530
2111.592384 0.9530 0.9530 0.9530 0.9530 0.9530
2118.234469 0.9530 0.9530 0.9530 0.9530 0.9530
2124.876554 0.9529 0.9519 0.9510 0.9510 0.9510
2131.518638 0.9510 0.9510 0.9510 0.9510 0.9510
2138.160723 0.9510 0.9510 0.9510 0.9510 0.9510
2144.802808 0.9510 0.9510 0.9510 0.9510 0.9510
2151.444892 0.9509 0.9504 0.9500 0.9500 0.9500
2158.086977 0.9500 0.9500 0.9500 0.9500 0.9500
2164.729062 0.9500 0.9500 0.9500 0.9500 0.9500
2171.371146 0.9500 0.9499 0.9494 0.9490 0.9490
2178.013231 0.9490 0.9490 0.9490 0.9490 0.9490
2184.655316 0.9490 0.9490 0.9490 0.9490 0.9490
2191.297400 0.9490 0.9490 0.9488 0.9478 0.9470
2197.939485 0.9470 0.9470 0.9470 0.9470 0.9470
2204.581570 0.9472 0.9482 0.9488 0.9478 0.9470
2211.223654 0.9470 0.9470 0.9470 0.9469 0.9464
2217.865739 0.9460 0.9460 0.9459 0.9454 0.9450
2224.507824 0.9450 0.9450 0.9450 0.9450 0.9450
2231.149908 0.9450 0.9450 0.9450 0.9450 0.9450
2237.791993 0.9450 0.9451 0.9456 0.9459 0.9454
2244.434078 0.9450 0.9450 0.9447 0.9437 0.9429
2251.076162 0.9424 0.9420 0.9420 0.9420 0.9420
2257.718247 0.9420 0.9420 0.9425 0.9440 0.9447
2264.360332 0.9437 0.9430 0.9430 0.9428 0.9423
2271.002416 0.9420 0.9420 0.9420 0.9420 0.9420
2277.644501 0.9420 0.9420 0.9420 0.9420 0.9420
2284.286586 0.9418 0.9413 0.9410 0.9410 0.9410
2290.928670 0.9410 0.9410 0.9410 0.9412 0.9417
2297.570755 0.9422 0.9427 0.9430 0.9430 0.9430
2304.212840 0.9430 0.9430 0.9430 0.9428 0.9423
2310.854924 0.9418 0.9413 0.9410 0.9410 0.9406
2317.497009 0.9396 0.9390 0.9390 0.9386 0.9376
2324.139094 0.9370 0.9370 0.9366 0.9356 0.9354
2330.781178 0.9364 0.9370 0.9370 0.9372 0.9377
2337.423263 0.9382 0.9387 0.9390 0.9390 0.9394
2344.065348 0.9404 0.9410 0.9410 0.9410 0.9410
2350.707432 0.9410 0.9410 0.9410 0.9410 0.9410
2357.349517 0.9410 0.9406 0.9396 0.9390 0.9390
2363.991602 0.9388 0.9383 0.9380 0.9380 0.9378
2370.633686 0.9373 0.9365 0.9355 0.9348 0.9343
2377.275771 0.9338 0.9333 0.9330 0.9330 0.9330
2383.917856 0.9330 0.9330 0.9330 0.9330 0.9330
2390.559940 0.9330 0.9330 0.9330 0.9330 0.9330
2397.202025 0.9330 0.9332 0.9337 0.9340 0.9340
2403.844110 0.9340 0.9340 0.9340 0.9340 0.9340
2410.486194 0.9340 0.9340 0.9340 0.9340 0.9340
2417.128279 0.9340 0.9340 0.9340 0.9340 0.9340
2423.770364 0.9340 0.9340 0.9340 0.9340 0.9340
2430.412448 0.9340 0.9340 0.9340 0.9340 0.9340
2437.054533 0.9340 0.9340 0.9340 0.9340 0.9340
2443.696618 0.9337 0.9332 0.9330 0.9330 0.9330
2450.338702 0.9330 0.9330 0.9330 0.9330 0.9330
2456.980787 0.9330 0.9330 0.9330 0.9330 0.9330
2463.622872 0.9330 0.9330 0.9330 0.9330 0.9330
2470.264956 0.9330 0.9330 0.9330 0.9330 0.9330
2476.907041 0.9330 0.9330 0.9330 0.9330 0.9330
2483.549126 0.9330 0.9330 0.9330 0.9330 0.9330
2490.191210 0.9330 0.9330 0.9330 0.9324 0.9314
2496.833295 0.9310 0.9310 0.9310 0.9310 0.9310
2503.475380 0.9310 0.9310 0.9310 0.9310 0.9310
2510.117464 0.9310 0.9310 0.9310 0.9310 0.9310
2516.759549 0.9310 0.9310 0.9310 0.9310 0.9310
2523.401634 0.9310 0.9310 0.9307 0.9302 0.9300
2530.043718 0.9300 0.9300 0.9300 0.9300 0.9300
2536.685803 0.9300 0.9300 0.9297 0.9292 0.9290
2543.327888 0.9290 0.9290 0.9290 0.9290 0.9290
2549.969973 0.9290 0.9290 0.9283 0.9273 0.9270
2556.612057 0.9270 0.9270 0.9270 0.9270 0.9270
2563.254142 0.9270 0.9270 0.9270 0.9270 0.9270
2569.896227 0.9270 0.9267 0.9262 0.9260 0.9260
2576.538311 0.9260 0.9260 0.9260 0.9260 0.9260
2583.180396 0.9260 0.9260 0.9260 0.9256 0.9251
2589.822481 0.9250 0.9250 0.9250 0.9250 0.9250
2596.464565 0.9250 0.9250 0.9250 0.9250 0.9250
2603.106650 0.9250 0.9250 0.9243 0.9233 0.9230
2609.748735 0.9230 0.9230 0.9230 0.9230 0.9230
2616.390819 0.9230 0.9230 0.9230 0.9230 0.9230
2623.032904 0.9230 0.9226 0.9221 0.9220 0.9220
2629.674989 0.9220 0.9220 0.9220 0.9220 0.9220
2636.317073 0.9220 0.9220 0.9220 0.9220 0.9220
2642.959158 0.9220 0.9220 0.9220 0.9220 0.9220
2649.601243 0.9220 0.9220 0.9220 0.9220 0.9220
2656.243327 0.9220 0.9220 0.9220 0.9220 0.9220
2662.885412 0.9220 0.9220 0.9220 0.9220 0.9220
2669.527497 0.9220 0.9220 0.9216 0.9211 0.9210
2676.169581 0.9210 0.9210 0.9210 0.9210 0.9210
2682.811666 0.9210 0.9210 0.9210 0.9210 0.9210
2689.453751 0.9210 0.9210 0.9210 0.9210 0.9210
2696.095835 0.9210 0.9210 0.9202 0.9191 0.9190
2702.737920 0.9190 0.9190 0.9190 0.9190 0.9190
2709.380005 0.9190 0.9190 0.9190 0.9190 0.9190
2716.022089 0.9190 0.9190 0.9190 0.9190 0.9190
2722.664174 0.9190 0.9190 0.9186 0.9181 0.9180
2729.306259 0.9180 0.9180 0.9180 0.9180 0.9180
2735.948343 0.9176 0.9171 0.9170 0.9170 0.9170
2742.590428 0.9170 0.9161 0.9151 0.9150 0.9150
2749.232513 0.9150 0.9150 0.9150 0.9150 0.9150
2755.874597 0.9150 0.9145 0.9140 0.9140 0.9140
2762.516682 0.9140 0.9140 0.9140 0.9140 0.9135
2769.158767 0.9130 0.9130 0.9130 0.9130 0.9130
2775.800851 0.9130 0.9130 0.9121 0.9111 0.9110
2782.442936 0.9110 0.9110 0.9110 0.9110 0.9110
2789.085021 0.9110 0.9110 0.9105 0.9100 0.9100
2795.727105 0.9100 0.9100 0.9100 0.9100 0.9100
2802.369190 0.9100 0.9100 0.9100 0.9100 0.9095
2809.011275 0.9090 0.9090 0.9090 0.9090 0.9090
2815.653359 0.9090 0.9090 0.9090 0.9090 0.9080
2822.295444 0.9070 0.9070 0.9070 0.9070 0.9070
2828.937529 0.9065 0.9060 0.9060 0.9060 0.9060
2835.579613 0.9060 0.9055 0.9050 0.9050 0.9050
2842.221698 0.9050 0.9050 0.9040 0.9030 0.9030
2848.863783 0.9030 0.9025 0.9020 0.9020 0.9020
2855.505867 0.9020 0.9020 0.9015 0.9010 0.9010
2862.147952 0.9010 0.9000 0.8990 0.8990 0.8990
2868.790037 0.8990 0.8990 0.8990 0.8990 0.8985
2875.432121 0.8980 0.8980 0.8980 0.8980 0.8980
2882.074206 0.8980 0.8980 0.8975 0.8970 0.8970
2888.716291 0.8969 0.8959 0.8950 0.8950 0.8950
2895.358375 0.8950 0.8950 0.8945 0.8940 0.8940
2902.000460 0.8940 0.8940 0.8939 0.8934 0.8930
2908.642545 0.8930 0.8930 0.8930 0.8930 0.8930
2915.284629 0.8930 0.8930 0.8930 0.8930 0.8930
2921.926714 0.8930 0.8930 0.8930 0.8930 0.8930
2928.568799 0.8930 0.8930 0.8929 0.8919 0.8910
2935.210883 0.8910 0.8910 0.8910 0.8910 0.8910
2941.852968 0.8910 0.8910 0.8910 0.8910 0.8910
2948.495053 0.8910 0.8910 0.8910 0.8909 0.8904
2955.137137 0.8900 0.8900 0.8900 0.8900 0.8900
2961.779222 0.8900 0.8900 0.8900 0.8900 0.8900
2968.421307 0.8900 0.8900 0.8900 0.8900 0.8900
2975.063391 0.8900 0.8900 0.8900 0.8900 0.8900
2981.705476 0.8900 0.8900 0.8900 0.8900 0.8900
2988.347561 0.8900 0.8900 0.8900 0.8899 0.8894
2994.989645 0.8890 0.8890 0.8890 0.8890 0.8890
3001.631730 0.8890 0.8890 0.8890 0.8890 0.8890
3008.273815 0.8890 0.8890 0.8890 0.8890 0.8890
3014.915899 0.8890 0.8888 0.8878 0.8870 0.8870
3021.557984 0.8870 0.8870 0.8869 0.8864 0.8860
3028.200069 0.8860 0.8860 0.8860 0.8860 0.8860
3034.842153 0.8859 0.8854 0.8850 0.8850 0.8850
3041.484238 0.8850 0.8847 0.8837 0.8829 0.8824
3048.126323 0.8820 0.8820 0.8819 0.8814 0.8807
3054.768407 0.8797 0.8790 0.8790 0.8789 0.8784
3061.410492 0.8778 0.8773 0.8767 0.8757 0.8748
3068.052577 0.8743 0.8737 0.8727 0.8720 0.8720
3074.694661 0.8718 0.8713 0.8708 0.8703 0.8700
3081.336746 0.8700 0.8697 0.8687 0.8678 0.8673
3087.978831 0.8668 0.8663 0.8657 0.8647 0.8638
3094.620915 0.8633 0.8630 0.8630 0.8628 0.8623
3101.263000 0.8617 0.8607 0.8598 0.8593 0.8585
3107.905085 0.8570 0.8558 0.8553 0.8548 0.8543
3114.547169 0.8536 0.8526 0.8518 0.8513 0.8508
3121.189254 0.8503 0.8496 0.8486 0.8478 0.8473
3127.831339 0.8468 0.8463 0.8460 0.8460 0.8456
3134.473423 0.8446 0.8438 0.8433 0.8430 0.8430
3141.115508 0.8428 0.8423 0.8416 0.8406 0.8398
3147.757593 0.8393 0.8390 0.8390 0.8388 0.8383
3154.399677 0.8380 0.8380 0.8380 0.8380 0.8376
3161.041762 0.8366 0.8360 0.8360 0.8358 0.8353
3167.683847 0.8350 0.8350 0.8350 0.8350 0.8350
3174.325931 0.8350 0.8350 0.8350 0.8350 0.8350
3180.968016 0.8350 0.8350 0.8350 0.8350 0.8350
3187.610101 0.8350 0.8350 0.8350 0.8350 0.8350
3194.252185 0.8350 0.8350 0.8350 0.8350 0.8350
3200.894270 0.8350 0.8350 0.8350 0.8350 0.8350
3207.536355 0.8350 0.8350 0.8348 0.8343 0.8340
3214.178439 0.8340 0.8340 0.8340 0.8340 0.8340
3220.820524 0.8340 0.8340 0.8340 0.8340 0.8340
3227.462609 0.8340 0.8340 0.8340 0.8340 0.8340
3234.104693 0.8335 0.8325 0.8320 0.8320 0.8320
3240.746778 0.8320 0.8320 0.8320 0.8320 0.8320
3247.388863 0.8320 0.8320 0.8320 0.8320 0.8320
3254.030947 0.8320 0.8320 0.8320 0.8320 0.8320
3260.673032 0.8320 0.8320 0.8320 0.8320 0.8320
3267.315117 0.8320 0.8320 0.8320 0.8320 0.8320
3273.957201 0.8320 0.8320 0.8317 0.8312 0.8310
3280.599286 0.8310 0.8310 0.8310 0.8310 0.8310
3287.241371 0.8310 0.8310 0.8310 0.8310 0.8307
3293.883455 0.8302 0.8300 0.8300 0.8294 0.8284
3300.525540 0.8280 0.8280 0.8277 0.8272 0.8270
3307.167625 0.8270 0.8267 0.8262 0.8254 0.8244
3313.809709 0.8240 0.8240 0.8237 0.8232 0.8227
3320.451794 0.8222 0.8220 0.8220 0.8214 0.8204
3327.093879 0.8197 0.8192 0.8187 0.8182 0.8180
3333.735963 0.8180 0.8174 0.8164 0.8157 0.8152
3340.378048 0.8147 0.8142 0.8134 0.8124 0.8117
3347.020133 0.8112 0.8107 0.8102 0.8094 0.8083
3353.662217 0.8077 0.8072 0.8067 0.8062 0.8053
3360.304302 0.8043 0.8037 0.8032 0.8027 0.8022
3366.946387 0.8013 0.8003 0.7997 0.7992 0.7980
3373.588471 0.7965 0.7957 0.7952 0.7947 0.7942
3380.230556 0.7933 0.7923 0.7917 0.7912 0.7907
3386.872641 0.7902 0.7893 0.7883 0.7877 0.7872
3393.514725 0.7867 0.7862 0.7853 0.7843 0.7833
3400.156810 0.7823 0.7810 0.7795 0.7786 0.7781
3406.798895 0.7773 0.7763 0.7756 0.7751 0.7746
3413.440979 0.7741 0.7733 0.7723 0.7716 0.7711
3420.083064 0.7706 0.7701 0.7693 0.7683 0.7676
3426.725149 0.7671 0.7670 0.7670 0.7666 0.7661
3433.367233 0.7660 0.7660 0.7652 0.7642 0.7640
3440.009318 0.7640 0.7640 0.7640 0.7636 0.7631
3446.651403 0.7630 0.7630 0.7630 0.7630 0.7630
3453.293487 0.7630 0.7630 0.7630 0.7630 0.7630
3459.935572 0.7634 0.7639 0.7640 0.7640 0.7640
3466.577657 0.7640 0.7648 0.7658 0.7660 0.7660
3473.219741 0.7664 0.7669 0.7670 0.7670 0.7670
3479.861826 0.7670 0.7674 0.7679 0.7680 0.7680
3486.503911 0.7688 0.7698 0.7700 0.7700 0.7700
3493.145995 0.7700 0.7704 0.7709 0.7714 0.7719
3499.788080 0.7720 0.7720 0.7728 0.7738 0.7744
3506.430165 0.7749 0.7750 0.7750 0.7763 0.7778
3513.072249 0.7780 0.7780 0.7784 0.7789 0.7803
3519.714334 0.7818 0.7824 0.7829 0.7834 0.7839
3526.356419 0.7849 0.7859 0.7864 0.7869 0.7883
3532.998503 0.7898 0.7904 0.7909 0.7914 0.7919
3539.640588 0.7929 0.7939 0.7944 0.7949 0.7954
3546.282673 0.7959 0.7973 0.7988 0.7990 0.7990
3552.924757 0.8003 0.8018 0.8024 0.8029 0.8034
3559.566842 0.8039 0.8049 0.8059 0.8065 0.8070
3566.208927 0.8075 0.8080 0.8089 0.8099 0.8109
3572.851011 0.8119 0.8129 0.8139 0.8145 0.8150
3579.493096 0.8155 0.8160 0.8174 0.8189 0.8195
3586.135181 0.8200 0.8209 0.8219 0.8229 0.8240
3592.777265 0.8250 0.8260 0.8265 0.8270 0.8284
3599.419350 0.8299 0.8305 0.8310 0.8324 0.8339
3606.061435 0.8345 0.8350 0.8355 0.8360 0.8370
3612.703519 0.8380 0.8385 0.8390 0.8405 0.8420
3619.345604 0.8420 0.8420 0.8430 0.8440 0.8450
3625.987689 0.8460 0.8470 0.8480 0.8490 0.8500
3632.629773 0.8500 0.8500 0.8510 0.8520 0.8535
3639.271858 0.8550 0.8555 0.8560 0.8570 0.8580
3645.913943 0.8580 0.8580 0.8590 0.8600 0.8600
3652.556027 0.8600 0.8610 0.8620 0.8620 0.8620
3659.198112 0.8620 0.8620 0.8620 0.8620 0.8620
3665.840197 0.8620 0.8620 0.8620 0.8620 0.8620
3672.482281 0.8620 0.8620 0.8620 0.8620 0.8620
3679.124366 0.8620 0.8620 0.8619 0.8609 0.8600
3685.766451 0.8600 0.8600 0.8600 0.8600 0.8600
3692.408535 0.8600 0.8600 0.8600 0.8600 0.8600
3699.050620 0.8600 0.8601 0.8611 0.8620 0.8620
3705.692705 0.8620 0.8625 0.8630 0.8630 0.8630
3712.334789 0.8630 0.8630 0.8630 0.8630 0.8625
3718.976874 0.8620 0.8620 0.8619 0.8603 0.8590
3725.618959 0.8590 0.8590 0.8590 0.8590 0.8590
3732.261043 0.8590 0.8590 0.8590 0.8590 0.8590
3738.903128 0.8590 0.8591 0.8596 0.8600 0.8600
3745.545213 0.8600 0.8600 0.8600 0.8600 0.8600
3752.187297 0.8600 0.8600 0.8600 0.8600 0.8600
3758.829382 0.8600 0.8600 0.8600 0.8600 0.8600
3765.471467 0.8600 0.8600 0.8600 0.8600 0.8600
3772.113551 0.8600 0.8600 0.8600 0.8600 0.8600
3778.755636 0.8600 0.8600 0.8600 0.8599 0.8594
3785.397721 0.8590 0.8590 0.8590 0.8590 0.8590
3792.039805 0.8590 0.8590 0.8590 0.8589 0.8584
3798.681890 0.8580 0.8580 0.8580 0.8580 0.8580
3805.323975 0.8580 0.8580 0.8580 0.8578 0.8568
3811.966059 0.8560 0.8560 0.8559 0.8554 0.8550
3818.608144 0.8550 0.8549 0.8544 0.8540 0.8540
3825.250229 0.8538 0.8528 0.8520 0.8520 0.8520
3831.892313 0.8520 0.8519 0.8514 0.8510 0.8510
3838.534398 0.8510 0.8510 0.8510 0.8510 0.8510
3845.176483 0.8510 0.8510 0.8510 0.8510 0.8510
3851.818567 0.8511 0.8516 0.8520 0.8520 0.8520
3858.460652 0.8520 0.8523 0.8533 0.8540 0.8540
3865.102737 0.8540 0.8540 0.8540 0.8540 0.8540
3871.744821 0.8540 0.8540 0.8540 0.8540 0.8540
3878.386906 0.8540 0.8540 0.8540 0.8540 0.8540
3885.028991 0.8540 0.8540 0.8540 0.8537 0.8527
3891.671075 0.8520 0.8520 0.8520 0.8520 0.8518
3898.313160 0.8513 0.8510 0.8510 0.8510 0.8510
3904.955245 0.8510 0.8510 0.8510 0.8510 0.8510
3911.597329 0.8510 0.8510 0.8510 0.8510 0.8510
3918.239414 0.8508 0.8503 0.8500 0.8500 0.8500
3924.881499 0.8500 0.8500 0.8500 0.8500 0.8500
3931.523583 0.8500 0.8500 0.8500 0.8500 0.8496
3938.165668 0.8486 0.8480 0.8480 0.8480 0.8480
3944.807753 0.8480 0.8480 0.8480 0.8480 0.8478
3951.449837 0.8473 0.8470 0.8470 0.8470 0.8470
3958.091922 0.8470 0.8470 0.8470 0.8470 0.8468
3964.734007 0.8463 0.8460 0.8460 0.8460 0.8460
3971.376091 0.8460 0.8460 0.8460 0.8460 0.8456
3978.018176 0.8446 0.8440 0.8440 0.8440 0.8440
3984.660261 0.8438 0.8433
##END=
