##TITLE=m-Aminobenzoic acid, ethyl ester, methanesulfonate
##JCAMP-DX=4.24
$$ By DXEDIT 1.05 (RS McDonald)
##DATA TYPE=INFRARED SPECTRUM
##CLASS=COBLENTZ III
##ORIGIN=DOW CHEMICAL COMPANY
##OWNER=COPYRIGHT (C) 1988 by COBLENTZ SOCIETY INC.
Collection (C) 2018 copyright by the U.S. Secretary of Commerce
on behalf of the United States of America. All rights reserved.
##DATE=1965/01/12
##NAMES=ethyl 3-aminobenzoate methanesulfonate
##MOLFORM=C10 H15 N O5 S
##SOURCE REFERENCE=COBLENTZ NO. 09980
##$NIST ID=B6009980
##$NIST SOURCE=COBLENTZ
##$NIST IMAGE=cob9980
##SPECTROMETER/DATA SYSTEM=DOW KBr FOREPRISM-GRATING
##INSTRUMENT PARAMETERS=BLAZED AT 3.5, 12.0, 20.0 MICRON AND CHANGED AT 5.0, 7.5, 14.9 MICRON
##STATE=SOLID (SPLIT MULL), FLUOROLUBE FOR 3800-1330 CM^-^1, NUJOL FOR 1330-460 CM^-^1
##SAMPLING PROCEDURE=TRANSMISSION
##RESOLUTION=2
##DATA PROCESSING=DIGITIZED BY COBLENTZ SOCIETY (BATCH I) FROM HARD COPY
##XUNITS=1/CM
##YUNITS=TRANSMITTANCE
##XFACTOR=1
##YFACTOR=1
##DELTAX=1
##FIRSTX=3796
##LASTX=459
##FIRSTY=0.6482
##MAXX=3796
##MINX=459
##MAXY=0.8703
##MINY=0.0139
##NPOINTS=3338
##XYDATA=(X++(Y..Y))
3796.000000 0.6482 0.6482 0.6483 0.6487 0.6491
3791.000000 0.6495 0.6499 0.6503 0.6507 0.6511
3786.000000 0.6515 0.6518 0.6522 0.6525 0.6530
3781.000000 0.6534 0.6538 0.6542 0.6546 0.6550
3776.000000 0.6554 0.6558 0.6561 0.6564 0.6565
3771.000000 0.6567 0.6568 0.6571 0.6572 0.6574
3766.000000 0.6575 0.6578 0.6580 0.6582 0.6585
3761.000000 0.6587 0.6590 0.6592 0.6595 0.6597
3756.000000 0.6600 0.6601 0.6605 0.6607 0.6610
3751.000000 0.6611 0.6615 0.6617 0.6618 0.6619
3746.000000 0.6621 0.6622 0.6625 0.6625 0.6628
3741.000000 0.6628 0.6631 0.6632 0.6634 0.6636
3736.000000 0.6638 0.6639 0.6641 0.6642 0.6644
3731.000000 0.6645 0.6647 0.6648 0.6650 0.6651
3726.000000 0.6654 0.6655 0.6657 0.6658 0.6660
3721.000000 0.6661 0.6664 0.6665 0.6668 0.6671
3716.000000 0.6672 0.6675 0.6676 0.6678 0.6681
3711.000000 0.6683 0.6686 0.6688 0.6690 0.6692
3706.000000 0.6694 0.6696 0.6698 0.6700 0.6703
3701.000000 0.6705 0.6707 0.6708 0.6711 0.6712
3696.000000 0.6715 0.6717 0.6719 0.6721 0.6724
3691.000000 0.6725 0.6728 0.6730 0.6732 0.6734
3686.000000 0.6737 0.6739 0.6741 0.6742 0.6744
3681.000000 0.6745 0.6747 0.6749 0.6751 0.6751
3676.000000 0.6754 0.6756 0.6758 0.6758 0.6761
3671.000000 0.6762 0.6765 0.6765 0.6768 0.6769
3666.000000 0.6771 0.6772 0.6775 0.6775 0.6778
3661.000000 0.6780 0.6782 0.6783 0.6785 0.6787
3656.000000 0.6789 0.6790 0.6792 0.6794 0.6796
3651.000000 0.6797 0.6799 0.6801 0.6803 0.6805
3646.000000 0.6807 0.6808 0.6811 0.6812 0.6815
3641.000000 0.6817 0.6818 0.6821 0.6822 0.6825
3636.000000 0.6826 0.6828 0.6831 0.6833 0.6836
3631.000000 0.6838 0.6840 0.6842 0.6844 0.6846
3626.000000 0.6848 0.6850 0.6851 0.6854 0.6856
3621.000000 0.6858 0.6860 0.6861 0.6864 0.6865
3616.000000 0.6868 0.6869 0.6872 0.6875 0.6876
3611.000000 0.6878 0.6881 0.6883 0.6885 0.6887
3606.000000 0.6890 0.6892 0.6894 0.6896 0.6898
3601.000000 0.6900 0.6901 0.6904 0.6907 0.6908
3596.000000 0.6911 0.6912 0.6915 0.6917 0.6919
3591.000000 0.6921 0.6924 0.6925 0.6928 0.6930
3586.000000 0.6933 0.6935 0.6937 0.6939 0.6941
3581.000000 0.6943 0.6945 0.6947 0.6950 0.6951
3576.000000 0.6954 0.6956 0.6958 0.6960 0.6962
3571.000000 0.6965 0.6967 0.6968 0.6971 0.6972
3566.000000 0.6975 0.6976 0.6978 0.6981 0.6984
3561.000000 0.6986 0.6988 0.6990 0.6992 0.6994
3556.000000 0.6996 0.6998 0.7000 0.7001 0.7005
3551.000000 0.7007 0.7008 0.7011 0.7012 0.7015
3546.000000 0.7017 0.7018 0.7021 0.7022 0.7025
3541.000000 0.7026 0.7030 0.7032 0.7034 0.7036
3536.000000 0.7038 0.7040 0.7042 0.7044 0.7046
3531.000000 0.7048 0.7051 0.7053 0.7055 0.7056
3526.000000 0.7058 0.7058 0.7061 0.7062 0.7065
3521.000000 0.7065 0.7068 0.7069 0.7071 0.7072
3516.000000 0.7075 0.7076 0.7078 0.7080 0.7082
3511.000000 0.7084 0.7086 0.7087 0.7089 0.7090
3506.000000 0.7092 0.7094 0.7096 0.7097 0.7099
3501.000000 0.7101 0.7103 0.7104 0.7106 0.7108
3496.000000 0.7110 0.7111 0.7112 0.7115 0.7117
3491.000000 0.7118 0.7121 0.7122 0.7125 0.7126
3486.000000 0.7128 0.7130 0.7132 0.7134 0.7136
3481.000000 0.7138 0.7140 0.7142 0.7144 0.7146
3476.000000 0.7148 0.7150 0.7151 0.7154 0.7156
3471.000000 0.7158 0.7160 0.7161 0.7165 0.7167
3466.000000 0.7169 0.7171 0.7175 0.7178 0.7181
3461.000000 0.7183 0.7186 0.7188 0.7191 0.7194
3456.000000 0.7197 0.7199 0.7201 0.7204 0.7206
3451.000000 0.7208 0.7210 0.7211 0.7214 0.7215
3446.000000 0.7218 0.7219 0.7221 0.7224 0.7225
3441.000000 0.7228 0.7230 0.7232 0.7234 0.7236
3436.000000 0.7239 0.7241 0.7243 0.7243 0.7243
3431.000000 0.7243 0.7243 0.7236 0.7230 0.7221
3426.000000 0.7215 0.7207 0.7200 0.7192 0.7185
3421.000000 0.7176 0.7169 0.7174 0.7178 0.7185
3416.000000 0.7192 0.7199 0.7206 0.7212 0.7219
3411.000000 0.7226 0.7234 0.7242 0.7250 0.7257
3406.000000 0.7265 0.7271 0.7280 0.7288 0.7296
3401.000000 0.7301 0.7306 0.7308 0.7312 0.7317
3396.000000 0.7321 0.7325 0.7328 0.7333 0.7337
3391.000000 0.7341 0.7345 0.7348 0.7351 0.7351
3386.000000 0.7353 0.7353 0.7353 0.7353 0.7354
3381.000000 0.7354 0.7354 0.7354 0.7355 0.7355
3376.000000 0.7355 0.7355 0.7356 0.7356 0.7356
3371.000000 0.7357 0.7358 0.7361 0.7364 0.7365
3366.000000 0.7368 0.7369 0.7371 0.7374 0.7375
3361.000000 0.7378 0.7380 0.7383 0.7386 0.7390
3356.000000 0.7395 0.7400 0.7405 0.7408 0.7414
3351.000000 0.7418 0.7422 0.7426 0.7432 0.7436
3346.000000 0.7441 0.7445 0.7450 0.7454 0.7458
3341.000000 0.7462 0.7468 0.7471 0.7475 0.7478
3336.000000 0.7481 0.7484 0.7487 0.7490 0.7493
3331.000000 0.7496 0.7499 0.7501 0.7505 0.7508
3326.000000 0.7511 0.7514 0.7517 0.7519 0.7524
3321.000000 0.7526 0.7531 0.7534 0.7538 0.7541
3316.000000 0.7545 0.7548 0.7551 0.7555 0.7558
3311.000000 0.7561 0.7565 0.7568 0.7569 0.7571
3306.000000 0.7572 0.7574 0.7575 0.7576 0.7578
3301.000000 0.7580 0.7582 0.7583 0.7585 0.7586
3296.000000 0.7595 0.7589 0.7591 0.7591 0.7591
3291.000000 0.7590 0.7590 0.7590 0.7590 0.7589
3286.000000 0.7588 0.7586 0.7584 0.7581 0.7578
3281.000000 0.7575 0.7574 0.7571 0.7568 0.7565
3276.000000 0.7562 0.7558 0.7555 0.7550 0.7546
3271.000000 0.7541 0.7537 0.7531 0.7525 0.7518
3266.000000 0.7514 0.7508 0.7501 0.7495 0.7488
3261.000000 0.7480 0.7472 0.7465 0.7457 0.7448
3256.000000 0.7440 0.7431 0.7422 0.7414 0.7406
3251.000000 0.7397 0.7388 0.7378 0.7371 0.7361
3246.000000 0.7354 0.7340 0.7326 0.7312 0.7299
3241.000000 0.7285 0.7271 0.7256 0.7242 0.7228
3236.000000 0.7214 0.7199 0.7185 0.7168 0.7151
3231.000000 0.7133 0.7114 0.7095 0.7076 0.7058
3226.000000 0.7040 0.7021 0.7003 0.6984 0.6965
3221.000000 0.6944 0.6924 0.6901 0.6880 0.6858
3216.000000 0.6837 0.6815 0.6793 0.6771 0.6751
3211.000000 0.6731 0.6711 0.6692 0.6672 0.6653
3206.000000 0.6634 0.6614 0.6595 0.6575 0.6556
3201.000000 0.6532 0.6508 0.6481 0.6454 0.6425
3196.000000 0.6399 0.6371 0.6344 0.6304 0.6264
3191.000000 0.6221 0.6178 0.6145 0.6112 0.6078
3186.000000 0.6045 0.6022 0.6000 0.5981 0.5962
3181.000000 0.5943 0.5925 0.5907 0.5890 0.5875
3176.000000 0.5860 0.5844 0.5829 0.5816 0.5804
3171.000000 0.5792 0.5781 0.5769 0.5758 0.5747
3166.000000 0.5736 0.5724 0.5712 0.5702 0.5691
3161.000000 0.5677 0.5662 0.5647 0.5632 0.5616
3156.000000 0.5601 0.5585 0.5569 0.5553 0.5538
3151.000000 0.5522 0.5507 0.5491 0.5475 0.5459
3146.000000 0.5444 0.5428 0.5412 0.5395 0.5378
3141.000000 0.5360 0.5344 0.5326 0.5309 0.5292
3136.000000 0.5275 0.5257 0.5240 0.5223 0.5206
3131.000000 0.5192 0.5178 0.5164 0.5151 0.5137
3126.000000 0.5123 0.5109 0.5096 0.5082 0.5068
3121.000000 0.5054 0.5040 0.5026 0.5012 0.4999
3116.000000 0.4985 0.4971 0.4957 0.4943 0.4930
3111.000000 0.4920 0.4910 0.4900 0.4891 0.4881
3106.000000 0.4871 0.4860 0.4851 0.4841 0.4831
3101.000000 0.4821 0.4810 0.4799 0.4787 0.4774
3096.000000 0.4762 0.4749 0.4736 0.4723 0.4710
3091.000000 0.4698 0.4685 0.4672 0.4659 0.4617
3086.000000 0.4575 0.4400 0.4225 0.4160 0.4097
3081.000000 0.4097 0.4098 0.4098 0.4098 0.4098
3076.000000 0.4099 0.4094 0.4090 0.4082 0.4074
3071.000000 0.4066 0.4058 0.4045 0.4032 0.4004
3066.000000 0.3977 0.3949 0.3921 0.3916 0.3912
3061.000000 0.3909 0.3908 0.3906 0.3905 0.3902
3056.000000 0.3900 0.3897 0.3895 0.3892 0.3890
3051.000000 0.3887 0.3884 0.3879 0.3874 0.3860
3046.000000 0.3848 0.3834 0.3823 0.3809 0.3797
3041.000000 0.3782 0.3770 0.3741 0.3712 0.3684
3036.000000 0.3656 0.3624 0.3592 0.3559 0.3528
3031.000000 0.3498 0.3468 0.3454 0.3440 0.3425
3026.000000 0.3410 0.3397 0.3384 0.3377 0.3371
3021.000000 0.3364 0.3358 0.3350 0.3344 0.3337
3016.000000 0.3330 0.3314 0.3299 0.3280 0.3262
3011.000000 0.3202 0.3141 0.3024 0.2908 0.2814
3006.000000 0.2720 0.2651 0.2583 0.2544 0.2505
3001.000000 0.2483 0.2461 0.2458 0.2456 0.2454
2996.000000 0.2454 0.2454 0.2455 0.2460 0.2465
2991.000000 0.2473 0.2482 0.2504 0.2526 0.2549
2986.000000 0.2572 0.2589 0.2607 0.2623 0.2639
2981.000000 0.2655 0.2672 0.2681 0.2691 0.2687
2976.000000 0.2684 0.2680 0.2677 0.2673 0.2669
2971.000000 0.2664 0.2660 0.2667 0.2675 0.2687
2966.000000 0.2699 0.2712 0.2725 0.2738 0.2751
2961.000000 0.2760 0.2770 0.2779 0.2789 0.2793
2956.000000 0.2798 0.2800 0.2802 0.2804 0.2806
2951.000000 0.2807 0.2807 0.2807 0.2805 0.2802
2946.000000 0.2800 0.2800 0.2800 0.2806 0.2812
2941.000000 0.2818 0.2824 0.2831 0.2839 0.2854
2936.000000 0.2870 0.2884 0.2900 0.2910 0.2921
2931.000000 0.2929 0.2938 0.2946 0.2955 0.2963
2926.000000 0.2971 0.2972 0.2973 0.2974 0.2975
2921.000000 0.2975 0.2975 0.2968 0.2962 0.2955
2916.000000 0.2949 0.2942 0.2935 0.2930 0.2924
2911.000000 0.2919 0.2919 0.2919 0.2925 0.2934
2906.000000 0.2943 0.2952 0.2961 0.2970 0.2979
2901.000000 0.2988 0.2997 0.3006 0.3016 0.3025
2896.000000 0.3034 0.3039 0.3044 0.3045 0.3046
2891.000000 0.3047 0.3049 0.3049 0.3049 0.3049
2886.000000 0.3048 0.3046 0.3044 0.3042 0.3040
2881.000000 0.3035 0.3033 0.3028 0.3024 0.3019
2876.000000 0.3015 0.3012 0.3009 0.3006 0.3003
2871.000000 0.3000 0.2998 0.2995 0.2993 0.2990
2866.000000 0.2988 0.2984 0.2983 0.2980 0.2978
2861.000000 0.2975 0.2972 0.2970 0.2968 0.2966
2856.000000 0.2964 0.2963 0.2962 0.2961 0.2960
2851.000000 0.2959 0.2959 0.2958 0.2957 0.2962
2846.000000 0.2967 0.2971 0.2976 0.2981 0.2985
2841.000000 0.2991 0.2996 0.3000 0.3005 0.3017
2836.000000 0.3030 0.3044 0.3059 0.3073 0.3088
2831.000000 0.3102 0.3117 0.3131 0.3146 0.3161
2826.000000 0.3176 0.3190 0.3205 0.3218 0.3230
2821.000000 0.3244 0.3257 0.3270 0.3282 0.3295
2816.000000 0.3308 0.3321 0.3334 0.3347 0.3359
2811.000000 0.3373 0.3386 0.3399 0.3412 0.3425
2806.000000 0.3438 0.3450 0.3464 0.3478 0.3491
2801.000000 0.3504 0.3518 0.3530 0.3545 0.3558
2796.000000 0.3572 0.3584 0.3599 0.3612 0.3625
2791.000000 0.3638 0.3652 0.3666 0.3680 0.3695
2786.000000 0.3709 0.3724 0.3738 0.3752 0.3766
2781.000000 0.3780 0.3796 0.3809 0.3825 0.3841
2776.000000 0.3857 0.3874 0.3892 0.3909 0.3927
2771.000000 0.3944 0.3962 0.3979 0.3997 0.4014
2766.000000 0.4032 0.4049 0.4066 0.4082 0.4099
2761.000000 0.4114 0.4130 0.4145 0.4160 0.4176
2756.000000 0.4192 0.4207 0.4223 0.4237 0.4252
2751.000000 0.4266 0.4281 0.4295 0.4310 0.4324
2746.000000 0.4338 0.4352 0.4367 0.4381 0.4396
2741.000000 0.4410 0.4424 0.4438 0.4452 0.4466
2736.000000 0.4481 0.4494 0.4508 0.4521 0.4534
2731.000000 0.4547 0.4560 0.4568 0.4577 0.4586
2726.000000 0.4595 0.4602 0.4610 0.4616 0.4629
2721.000000 0.4624 0.4625 0.4622 0.4619 0.4615
2716.000000 0.4612 0.4604 0.4596 0.4588 0.4580
2711.000000 0.4572 0.4564 0.4556 0.4548 0.4540
2706.000000 0.4532 0.4524 0.4516 0.4508 0.4501
2701.000000 0.4494 0.4487 0.4479 0.4472 0.4465
2696.000000 0.4458 0.4451 0.4444 0.4436 0.4429
2691.000000 0.4420 0.4412 0.4403 0.4395 0.4386
2686.000000 0.4378 0.4369 0.4360 0.4351 0.4342
2681.000000 0.4333 0.4325 0.4309 0.4293 0.4259
2676.000000 0.4225 0.4189 0.4153 0.4115 0.4078
2671.000000 0.4032 0.3989 0.3945 0.3900 0.3853
2666.000000 0.3806 0.3709 0.3614 0.3549 0.3484
2661.000000 0.3434 0.3384 0.3362 0.3341 0.3321
2656.000000 0.3302 0.3284 0.3266 0.3250 0.3232
2651.000000 0.3218 0.3205 0.3200 0.3198 0.3195
2646.000000 0.3192 0.3190 0.3189 0.3188 0.3187
2641.000000 0.3185 0.3185 0.3200 0.3216 0.3234
2636.000000 0.3250 0.3268 0.3284 0.3308 0.3332
2631.000000 0.3357 0.3382 0.3407 0.3432 0.3457
2626.000000 0.3482 0.3509 0.3538 0.3564 0.3592
2621.000000 0.3618 0.3647 0.3674 0.3700 0.3728
2616.000000 0.3756 0.3784 0.3812 0.3843 0.3874
2611.000000 0.3904 0.3934 0.3964 0.3996 0.4026
2606.000000 0.4056 0.4078 0.4101 0.4122 0.4143
2601.000000 0.4164 0.4186 0.4207 0.4228 0.4249
2596.000000 0.4270 0.4291 0.4312 0.4333 0.4355
2591.000000 0.4376 0.4397 0.4418 0.4440 0.4467
2586.000000 0.4495 0.4522 0.4549 0.4576 0.4604
2581.000000 0.4631 0.4658 0.4685 0.4712 0.4736
2576.000000 0.4760 0.4785 0.4809 0.4833 0.4857
2571.000000 0.4881 0.4905 0.4929 0.4953 0.4972
2566.000000 0.4991 0.5009 0.5028 0.5047 0.5066
2561.000000 0.5084 0.5103 0.5121 0.5140 0.5159
2556.000000 0.5178 0.5196 0.5215 0.5233 0.5252
2551.000000 0.5270 0.5289 0.5308 0.5327 0.5344
2546.000000 0.5360 0.5378 0.5395 0.5412 0.5430
2541.000000 0.5447 0.5464 0.5481 0.5499 0.5516
2536.000000 0.5533 0.5548 0.5564 0.5577 0.5590
2531.000000 0.5603 0.5616 0.5629 0.5643 0.5656
2526.000000 0.5669 0.5682 0.5695 0.5708 0.5722
2521.000000 0.5735 0.5748 0.5760 0.5774 0.5787
2516.000000 0.5800 0.5812 0.5825 0.5836 0.5847
2511.000000 0.5857 0.5868 0.5879 0.5890 0.5900
2506.000000 0.5910 0.5920 0.5930 0.5938 0.5947
2501.000000 0.5955 0.5964 0.5972 0.5981 0.5989
2496.000000 0.5998 0.6006 0.6015 0.6023 0.6032
2491.000000 0.6040 0.6048 0.6056 0.6065 0.6073
2486.000000 0.6082 0.6090 0.6099 0.6107 0.6116
2481.000000 0.6124 0.6133 0.6141 0.6150 0.6158
2476.000000 0.6167 0.6175 0.6184 0.6192 0.6201
2471.000000 0.6209 0.6217 0.6224 0.6232 0.6239
2466.000000 0.6246 0.6253 0.6260 0.6268 0.6276
2461.000000 0.6283 0.6291 0.6298 0.6306 0.6312
2456.000000 0.6321 0.6328 0.6335 0.6342 0.6350
2451.000000 0.6357 0.6365 0.6372 0.6380 0.6387
2446.000000 0.6395 0.6400 0.6406 0.6410 0.6414
2441.000000 0.6418 0.6422 0.6426 0.6431 0.6435
2436.000000 0.6440 0.6444 0.6448 0.6451 0.6457
2431.000000 0.6461 0.6465 0.6469 0.6475 0.6480
2426.000000 0.6486 0.6491 0.6496 0.6501 0.6506
2421.000000 0.6511 0.6515 0.6521 0.6525 0.6528
2416.000000 0.6531 0.6533 0.6536 0.6538 0.6540
2411.000000 0.6542 0.6544 0.6546 0.6549 0.6551
2406.000000 0.6553 0.6554 0.6555 0.6555 0.6555
2401.000000 0.6555 0.6555 0.6555 0.6555 0.6555
2396.000000 0.6554 0.6554 0.6553 0.6550 0.6548
2391.000000 0.6545 0.6542 0.6543 0.6544 0.6548
2386.000000 0.6551 0.6556 0.6560 0.6564 0.6568
2381.000000 0.6575 0.6585 0.6593 0.6601 0.6608
2376.000000 0.6618 0.6619 0.6622 0.6622 0.6622
2371.000000 0.6622 0.6624 0.6624 0.6624 0.6622
2366.000000 0.6622 0.6621 0.6621 0.6621 0.6621
2361.000000 0.6619 0.6619 0.6618 0.6618 0.6618
2356.000000 0.6618 0.6618 0.6618 0.6617 0.6617
2351.000000 0.6615 0.6615 0.6615 0.6614 0.6612
2346.000000 0.6612 0.6611 0.6611 0.6610 0.6610
2341.000000 0.6608 0.6608 0.6607 0.6607 0.6606
2336.000000 0.6605 0.6604 0.6603 0.6601 0.6601
2331.000000 0.6601 0.6601 0.6600 0.6600 0.6600
2326.000000 0.6600 0.6599 0.6599 0.6601 0.6606
2321.000000 0.6611 0.6617 0.6622 0.6628 0.6634
2316.000000 0.6640 0.6646 0.6651 0.6657 0.6662
2311.000000 0.6668 0.6675 0.6682 0.6690 0.6697
2306.000000 0.6705 0.6711 0.6719 0.6726 0.6735
2301.000000 0.6742 0.6750 0.6757 0.6765 0.6771
2296.000000 0.6780 0.6787 0.6795 0.6801 0.6810
2291.000000 0.6817 0.6824 0.6831 0.6838 0.6844
2286.000000 0.6851 0.6857 0.6864 0.6869 0.6876
2281.000000 0.6883 0.6890 0.6897 0.6904 0.6910
2276.000000 0.6917 0.6922 0.6930 0.6935 0.6941
2271.000000 0.6944 0.6948 0.6951 0.6956 0.6960
2266.000000 0.6964 0.6968 0.6971 0.6975 0.6980
2261.000000 0.6983 0.6987 0.6988 0.6989 0.6989
2256.000000 0.6989 0.6988 0.6988 0.6989 0.6991
2251.000000 0.6992 0.6994 0.6996 0.6998 0.7005
2246.000000 0.7012 0.7019 0.7028 0.7036 0.7045
2241.000000 0.7054 0.7064 0.7072 0.7082 0.7091
2236.000000 0.7100 0.7108 0.7118 0.7128 0.7137
2231.000000 0.7146 0.7155 0.7164 0.7174 0.7182
2226.000000 0.7191 0.7199 0.7208 0.7215 0.7225
2221.000000 0.7234 0.7243 0.7251 0.7260 0.7268
2216.000000 0.7276 0.7285 0.7294 0.7301 0.7311
2211.000000 0.7318 0.7328 0.7337 0.7346 0.7354
2206.000000 0.7362 0.7371 0.7380 0.7388 0.7397
2201.000000 0.7405 0.7414 0.7421 0.7431 0.7439
2196.000000 0.7447 0.7455 0.7462 0.7471 0.7478
2191.000000 0.7487 0.7495 0.7503 0.7511 0.7518
2186.000000 0.7526 0.7533 0.7539 0.7545 0.7551
2181.000000 0.7557 0.7562 0.7568 0.7575 0.7582
2176.000000 0.7588 0.7594 0.7600 0.7606 0.7611
2171.000000 0.7618 0.7625 0.7631 0.7637 0.7643
2166.000000 0.7649 0.7655 0.7661 0.7667 0.7672
2161.000000 0.7678 0.7684 0.7689 0.7695 0.7700
2156.000000 0.7706 0.7711 0.7717 0.7721 0.7728
2151.000000 0.7733 0.7739 0.7744 0.7750 0.7755
2146.000000 0.7761 0.7765 0.7771 0.7776 0.7782
2141.000000 0.7787 0.7793 0.7798 0.7804 0.7808
2136.000000 0.7815 0.7818 0.7824 0.7828 0.7834
2131.000000 0.7838 0.7843 0.7848 0.7853 0.7857
2126.000000 0.7861 0.7865 0.7871 0.7875 0.7878
2121.000000 0.7882 0.7886 0.7889 0.7893 0.7896
2116.000000 0.7900 0.7903 0.7906 0.7908 0.7912
2111.000000 0.7915 0.7919 0.7922 0.7926 0.7930
2106.000000 0.7934 0.7938 0.7942 0.7946 0.7950
2101.000000 0.7954 0.7958 0.7961 0.7965 0.7968
2096.000000 0.7972 0.7975 0.7980 0.7983 0.7987
2091.000000 0.7990 0.7993 0.7996 0.8000 0.8003
2086.000000 0.8006 0.8008 0.8012 0.8015 0.8018
2081.000000 0.8021 0.8025 0.8028 0.8031 0.8033
2076.000000 0.8035 0.8037 0.8040 0.8042 0.8044
2071.000000 0.8046 0.8049 0.8051 0.8053 0.8055
2066.000000 0.8057 0.8058 0.8061 0.8061 0.8064
2061.000000 0.8065 0.8068 0.8068 0.8071 0.8072
2056.000000 0.8075 0.8075 0.8078 0.8078 0.8080
2051.000000 0.8081 0.8082 0.8083 0.8084 0.8084
2046.000000 0.8085 0.8086 0.8087 0.8088 0.8089
2041.000000 0.8090 0.8091 0.8092 0.8093 0.8094
2036.000000 0.8096 0.8097 0.8098 0.8098 0.8099
2031.000000 0.8100 0.8101 0.8101 0.8101 0.8103
2026.000000 0.8104 0.8105 0.8105 0.8105 0.8105
2021.000000 0.8105 0.8105 0.8103 0.8101 0.8100
2016.000000 0.8098 0.8095 0.8093 0.8091 0.8089
2011.000000 0.8086 0.8084 0.8081 0.8078 0.8075
2006.000000 0.8072 0.8069 0.8067 0.8064 0.8061
2001.000000 0.8051 0.8044 0.8035 0.8024 0.8011
1996.000000 0.7998 0.7985 0.7965 0.7945 0.7921
1991.000000 0.7919 0.7937 0.7953 0.7958 0.7956
1986.000000 0.7951 0.7948 0.7945 0.7942 0.7939
1981.000000 0.7939 0.7939 0.7943 0.7948 0.7953
1976.000000 0.7958 0.7962 0.7968 0.7972 0.7978
1971.000000 0.7982 0.7987 0.7992 0.7997 0.8001
1966.000000 0.8007 0.8011 0.8017 0.8021 0.8024
1961.000000 0.8025 0.8028 0.8031 0.8034 0.8036
1956.000000 0.8039 0.8041 0.8044 0.8046 0.8047
1951.000000 0.8048 0.8048 0.8047 0.8047 0.8047
1946.000000 0.8047 0.8048 0.8048 0.8048 0.8046
1941.000000 0.8044 0.8042 0.8039 0.8037 0.8034
1936.000000 0.8031 0.8028 0.8025 0.8022 0.8022
1931.000000 0.8022 0.8024 0.8025 0.8025 0.8026
1926.000000 0.8028 0.8030 0.8032 0.8034 0.8036
1921.000000 0.8038 0.8041 0.8044 0.8048 0.8051
1916.000000 0.8056 0.8060 0.8062 0.8067 0.8071
1911.000000 0.8075 0.8078 0.8082 0.8087 0.8094
1906.000000 0.8101 0.8108 0.8115 0.8122 0.8130
1901.000000 0.8137 0.8144 0.8149 0.8151 0.8156
1896.000000 0.8158 0.8161 0.8165 0.8168 0.8171
1891.000000 0.8175 0.8178 0.8182 0.8186 0.8190
1886.000000 0.8195 0.8199 0.8203 0.8208 0.8212
1881.000000 0.8216 0.8221 0.8225 0.8231 0.8236
1876.000000 0.8241 0.8246 0.8250 0.8255 0.8259
1871.000000 0.8263 0.8267 0.8271 0.8275 0.8278
1866.000000 0.8283 0.8287 0.8291 0.8292 0.8293
1861.000000 0.8294 0.8294 0.8295 0.8295 0.8295
1856.000000 0.8293 0.8291 0.8289 0.8287 0.8285
1851.000000 0.8283 0.8281 0.8278 0.8277 0.8273
1846.000000 0.8270 0.8270 0.8271 0.8271 0.8274
1841.000000 0.8275 0.8275 0.8277 0.8277 0.8278
1836.000000 0.8281 0.8293 0.8301 0.8310 0.8318
1831.000000 0.8318 0.8317 0.8310 0.8298 0.8287
1826.000000 0.8275 0.8268 0.8271 0.8277 0.8281
1821.000000 0.8289 0.8304 0.8320 0.8335 0.8350
1816.000000 0.8366 0.8381 0.8397 0.8406 0.8411
1811.000000 0.8416 0.8421 0.8424 0.8425 0.8428
1806.000000 0.8430 0.8432 0.8434 0.8436 0.8438
1801.000000 0.8440 0.8441 0.8442 0.8443 0.8444
1796.000000 0.8444 0.8445 0.8446 0.8446 0.8447
1791.000000 0.8448 0.8451 0.8456 0.8461 0.8466
1786.000000 0.8471 0.8477 0.8486 0.8495 0.8503
1781.000000 0.8512 0.8521 0.8531 0.8541 0.8552
1776.000000 0.8562 0.8571 0.8582 0.8592 0.8606
1771.000000 0.8621 0.8635 0.8646 0.8656 0.8667
1766.000000 0.8677 0.8682 0.8703 0.8690 0.8687
1761.000000 0.8680 0.8673 0.8667 0.8660 0.8653
1756.000000 0.8646 0.8638 0.8628 0.8618 0.8608
1751.000000 0.8599 0.8589 0.8578 0.8570 0.8556
1746.000000 0.8539 0.8523 0.8506 0.8490 0.8463
1741.000000 0.8425 0.8388 0.8351 0.8280 0.8154
1736.000000 0.8049 0.7951 0.7854 0.7760 0.7667
1731.000000 0.7574 0.7187 0.6384 0.6204 0.6040
1726.000000 0.5747 0.5090 0.4412 0.3737 0.3060
1721.000000 0.2383 0.1707 0.1030 0.0382 0.0378
1716.000000 0.0374 0.0382 0.0403 0.0451 0.0512
1711.000000 0.0611 0.0722 0.1200 0.2664 0.4279
1706.000000 0.4445 0.4610 0.4779 0.4948 0.5139
1701.000000 0.5364 0.5522 0.5659 0.5796 0.5903
1696.000000 0.5998 0.6093 0.6195 0.6309 0.6412
1691.000000 0.6476 0.6541 0.6606 0.6675 0.6739
1686.000000 0.6785 0.6832 0.6868 0.6897 0.6925
1681.000000 0.6951 0.6975 0.6996 0.7012 0.7025
1676.000000 0.7033 0.7035 0.7036 0.7037 0.7039
1671.000000 0.7046 0.7065 0.7107 0.7178 0.7264
1666.000000 0.7336 0.7382 0.7431 0.7476 0.7508
1661.000000 0.7521 0.7532 0.7524 0.7542 0.7538
1656.000000 0.7531 0.7522 0.7508 0.7494 0.7478
1651.000000 0.7441 0.7400 0.7280 0.7118 0.6915
1646.000000 0.6711 0.6507 0.6303 0.6099 0.5896
1641.000000 0.5692 0.5488 0.5393 0.5362 0.5406
1636.000000 0.5572 0.5739 0.5905 0.6071 0.6237
1631.000000 0.6403 0.6568 0.6736 0.6901 0.7053
1626.000000 0.7157 0.7233 0.7294 0.7345 0.7395
1621.000000 0.7428 0.7449 0.7468 0.7457 0.7441
1616.000000 0.7418 0.7384 0.7337 0.7290 0.7218
1611.000000 0.7128 0.7008 0.6728 0.6099 0.5672
1606.000000 0.5660 0.5693 0.5762 0.5831 0.5900
1601.000000 0.5969 0.6029 0.6030 0.5988 0.5937
1596.000000 0.5886 0.5835 0.5784 0.5750 0.5732
1591.000000 0.5739 0.5757 0.5775 0.5798 0.5822
1586.000000 0.5846 0.5877 0.5915 0.5954 0.6005
1581.000000 0.6099 0.6188 0.6260 0.6335 0.6399
1576.000000 0.6460 0.6521 0.6580 0.6633 0.6685
1571.000000 0.6738 0.6792 0.6847 0.6898 0.6935
1566.000000 0.6971 0.6999 0.7011 0.7021 0.7021
1561.000000 0.7019 0.7017 0.6984 0.6933 0.6861
1556.000000 0.6789 0.6660 0.6545 0.6449 0.6353
1551.000000 0.5888 0.5602 0.5316 0.5030 0.4744
1546.000000 0.4458 0.4172 0.3886 0.3600 0.3444
1541.000000 0.3390 0.3573 0.3722 0.3871 0.4020
1536.000000 0.4169 0.4318 0.4467 0.4616 0.4765
1531.000000 0.4914 0.5062 0.5212 0.5360 0.5510
1526.000000 0.5660 0.5809 0.5958 0.6107 0.6256
1521.000000 0.6405 0.6554 0.6703 0.6843 0.6888
1516.000000 0.6933 0.6974 0.7011 0.7035 0.7051
1511.000000 0.7055 0.7068 0.7058 0.7042 0.7025
1506.000000 0.7008 0.6990 0.6936 0.6882 0.6806
1501.000000 0.6719 0.6590 0.6003 0.5014 0.4025
1496.000000 0.3830 0.3840 0.4116 0.4392 0.4668
1491.000000 0.4944 0.5220 0.5496 0.5772 0.6048
1486.000000 0.6324 0.6600 0.6822 0.6787 0.6551
1481.000000 0.6043 0.5536 0.5029 0.4880 0.5018
1476.000000 0.5285 0.5552 0.5818 0.6085 0.6351
1471.000000 0.6618 0.6884 0.7049 0.7121 0.7185
1466.000000 0.7215 0.7237 0.7267 0.7247 0.7235
1461.000000 0.7218 0.7169 0.7111 0.6972 0.6755
1456.000000 0.6538 0.6348 0.6169 0.5796 0.5424
1451.000000 0.5408 0.5416 0.5885 0.6296 0.6706
1446.000000 0.7117 0.7231 0.7299 0.7350 0.7398
1441.000000 0.7431 0.7464 0.7492 0.7508 0.7519
1436.000000 0.7555 0.7525 0.7526 0.7521 0.7499
1431.000000 0.7456 0.7362 0.7258 0.7188 0.7148
1426.000000 0.7130 0.7131 0.7139 0.7167 0.7196
1421.000000 0.7278 0.7375 0.7464 0.7514 0.7558
1416.000000 0.7585 0.7610 0.7635 0.7653 0.7665
1411.000000 0.7678 0.7682 0.7682 0.7682 0.7683
1406.000000 0.7675 0.7665 0.7655 0.7624 0.7591
1401.000000 0.7556 0.7515 0.7443 0.6948 0.6557
1396.000000 0.6561 0.6675 0.6805 0.6935 0.7065
1391.000000 0.7195 0.7325 0.7355 0.7365 0.7371
1386.000000 0.7376 0.7395 0.7371 0.7368 0.7365
1381.000000 0.7350 0.7328 0.7307 0.7161 0.6572
1376.000000 0.5983 0.5393 0.4804 0.4214 0.3624
1371.000000 0.3403 0.3509 0.3921 0.4333 0.4745
1366.000000 0.5157 0.5569 0.5981 0.6393 0.6704
1361.000000 0.6738 0.6765 0.6785 0.6804 0.6804
1356.000000 0.6803 0.6786 0.6760 0.6643 0.6514
1351.000000 0.6382 0.6249 0.6116 0.5984 0.5851
1346.000000 0.5719 0.5586 0.5453 0.5321 0.5188
1341.000000 0.5091 0.5089 0.5132 0.5233 0.5334
1336.000000 0.5435 0.5536 0.5580 0.5591 0.5595
1331.000000 0.5597 0.5619 0.5595 0.5575 0.5482
1326.000000 0.5046 0.4573 0.4100 0.3627 0.3154
1321.000000 0.2681 0.2208 0.1735 0.0871 0.0889
1316.000000 0.0875 0.1198 0.1542 0.1889 0.2234
1311.000000 0.2580 0.2925 0.3270 0.3616 0.3960
1306.000000 0.4292 0.4374 0.4402 0.4441 0.4415
1301.000000 0.4407 0.4194 0.3782 0.3371 0.2960
1296.000000 0.2549 0.2138 0.1727 0.1316 0.0905
1291.000000 0.0493 0.0273 0.0254 0.0287 0.0517
1286.000000 0.0897 0.1279 0.1659 0.2040 0.2421
1281.000000 0.2801 0.3182 0.3562 0.3943 0.4101
1276.000000 0.4231 0.4360 0.4491 0.4621 0.4751
1271.000000 0.4864 0.4898 0.4885 0.4845 0.4787
1266.000000 0.4728 0.4670 0.4610 0.4552 0.4494
1261.000000 0.4435 0.4385 0.4359 0.4353 0.4426
1256.000000 0.4522 0.4619 0.4716 0.4812 0.4910
1251.000000 0.5007 0.5103 0.5200 0.5297 0.5347
1246.000000 0.5365 0.5381 0.5391 0.5388 0.5373
1241.000000 0.5358 0.5321 0.5250 0.5150 0.4988
1236.000000 0.4825 0.4662 0.4500 0.4337 0.4174
1231.000000 0.4010 0.3849 0.3686 0.3536 0.3117
1226.000000 0.2887 0.2643 0.2400 0.2156 0.1912
1221.000000 0.1668 0.1425 0.1181 0.0937 0.0765
1216.000000 0.0703 0.0640 0.0498 0.0333 0.0190
1211.000000 0.0166 0.0160 0.0154 0.0148 0.0143
1206.000000 0.0141 0.0139 0.0139 0.0155 0.0172
1201.000000 0.0204 0.0238 0.0283 0.0329 0.0366
1196.000000 0.0403 0.0427 0.0453 0.0477 0.0496
1191.000000 0.0512 0.0527 0.0524 0.0511 0.0492
1186.000000 0.0473 0.0455 0.0442 0.0429 0.0417
1181.000000 0.0411 0.0413 0.0403 0.0406 0.0416
1176.000000 0.0441 0.0473 0.0539 0.0563 0.0569
1171.000000 0.0551 0.0518 0.0499 0.0500 0.0532
1166.000000 0.0578 0.0632 0.0793 0.0966 0.1138
1161.000000 0.1310 0.1483 0.1654 0.1827 0.2000
1156.000000 0.2172 0.2314 0.2337 0.2361 0.2378
1151.000000 0.2384 0.2393 0.2399 0.2399 0.2398
1146.000000 0.2425 0.2589 0.2758 0.2926 0.3095
1141.000000 0.3262 0.3430 0.3600 0.3768 0.3937
1136.000000 0.4105 0.4274 0.4403 0.4453 0.4498
1131.000000 0.4569 0.4550 0.4538 0.4494 0.4344
1126.000000 0.4066 0.3788 0.3509 0.3232 0.2953
1121.000000 0.2675 0.2450 0.2471 0.2549 0.2663
1116.000000 0.2776 0.2890 0.3003 0.3209 0.3216
1111.000000 0.3212 0.3063 0.2456 0.1869 0.1868
1106.000000 0.1853 0.2172 0.2507 0.2843 0.3179
1101.000000 0.3514 0.3850 0.4186 0.4522 0.4858
1096.000000 0.5194 0.5399 0.5468 0.5533 0.5600
1091.000000 0.5682 0.5783 0.5884 0.5947 0.5981
1086.000000 0.6014 0.6010 0.6007 0.6003 0.5998
1081.000000 0.5717 0.5422 0.5127 0.4832 0.4656
1076.000000 0.4625 0.4632 0.4936 0.5240 0.5544
1071.000000 0.5848 0.6152 0.6439 0.6501 0.6562
1066.000000 0.6628 0.6672 0.6704 0.6754 0.6733
1061.000000 0.6737 0.6731 0.6715 0.6671 0.6625
1056.000000 0.6472 0.6189 0.5557 0.4290 0.3023
1051.000000 0.1756 0.0489 0.0268 0.0291 0.0292
1046.000000 0.0655 0.1132 0.1609 0.2087 0.2564
1041.000000 0.3041 0.3518 0.3996 0.4473 0.4951
1036.000000 0.5428 0.5905 0.6239 0.6258 0.6269
1031.000000 0.6272 0.6154 0.5936 0.5718 0.5499
1026.000000 0.5281 0.5062 0.4845 0.4627 0.4491
1021.000000 0.4483 0.4649 0.4952 0.5255 0.5751
1016.000000 0.5977 0.6104 0.6189 0.6274 0.6365
1011.000000 0.6455 0.6539 0.6622 0.6712 0.6833
1006.000000 0.6891 0.6912 0.6926 0.6894 0.6800
1001.000000 0.6707 0.6697 0.6757 0.6907 0.7058
996.000000 0.7208 0.7262 0.7288 0.7312 0.7338
991.000000 0.7364 0.7390 0.7412 0.7430 0.7446
986.000000 0.7462 0.7480 0.7496 0.7511 0.7521
981.000000 0.7531 0.7541 0.7546 0.7551 0.7551
976.000000 0.7544 0.7537 0.7528 0.7521 0.7515
971.000000 0.7508 0.7507 0.7507 0.7510 0.7511
966.000000 0.7515 0.7525 0.7539 0.7551 0.7565
961.000000 0.7580 0.7595 0.7608 0.7622 0.7638
956.000000 0.7651 0.7667 0.7681 0.7692 0.7701
951.000000 0.7711 0.7721 0.7731 0.7741 0.7751
946.000000 0.7761 0.7769 0.7772 0.7775 0.7775
941.000000 0.7774 0.7771 0.7767 0.7738 0.7657
936.000000 0.7549 0.7442 0.7432 0.7462 0.7498
931.000000 0.7533 0.7537 0.7425 0.7440 0.7451
926.000000 0.7510 0.7568 0.7626 0.7686 0.7715
921.000000 0.7728 0.7739 0.7733 0.7655 0.7592
916.000000 0.7597 0.7624 0.7651 0.7678 0.7705
911.000000 0.7733 0.7760 0.7787 0.7811 0.7818
906.000000 0.7828 0.7836 0.7844 0.7853 0.7861
901.000000 0.7868 0.7875 0.7882 0.7888 0.7895
896.000000 0.7901 0.7907 0.7944 0.7911 0.7914
891.000000 0.7915 0.7918 0.7918 0.7915 0.7912
886.000000 0.7910 0.7907 0.7900 0.7893 0.7886
881.000000 0.7878 0.7865 0.7847 0.7825 0.7793
876.000000 0.7751 0.7676 0.7504 0.7188 0.6872
871.000000 0.6405 0.6426 0.6430 0.6710 0.6993
866.000000 0.7275 0.7510 0.7626 0.7696 0.7765
861.000000 0.7821 0.7851 0.7883 0.7912 0.7935
856.000000 0.7951 0.7967 0.7982 0.7989 0.7995
851.000000 0.8001 0.8008 0.8014 0.8017 0.8018
846.000000 0.8021 0.8025 0.8033 0.8033 0.8032
841.000000 0.8032 0.8031 0.8030 0.8021 0.8015
836.000000 0.7997 0.7971 0.7940 0.7768 0.7191
831.000000 0.5741 0.6037 0.5815 0.5907 0.6222
826.000000 0.6537 0.6851 0.7093 0.7304 0.7628
821.000000 0.7811 0.7890 0.7926 0.7954 0.7956
816.000000 0.7961 0.7942 0.7890 0.7838 0.7775
811.000000 0.7708 0.7568 0.7405 0.7133 0.7154
806.000000 0.7212 0.7517 0.7821 0.7951 0.7997
801.000000 0.8036 0.8060 0.8085 0.8096 0.8103
796.000000 0.8110 0.8117 0.8117 0.8121 0.8111
791.000000 0.8101 0.8089 0.8044 0.7989 0.7918
786.000000 0.7846 0.7687 0.6558 0.5440 0.4321
781.000000 0.2008 0.2084 0.1959 0.2402 0.3190
776.000000 0.3978 0.4767 0.5555 0.6343 0.6471
771.000000 0.6494 0.6597 0.6750 0.6903 0.7057
766.000000 0.7132 0.7133 0.7143 0.6193 0.5120
761.000000 0.4048 0.2975 0.1903 0.0859 0.0855
756.000000 0.1489 0.2145 0.2801 0.3457 0.4112
751.000000 0.4768 0.5424 0.6080 0.6736 0.7392
746.000000 0.7617 0.7615 0.7607 0.7637 0.7704
741.000000 0.7771 0.7836 0.7860 0.7874 0.7883
736.000000 0.7893 0.7896 0.7897 0.7935 0.7895
731.000000 0.7889 0.7883 0.7875 0.7862 0.7846
726.000000 0.7828 0.7808 0.7786 0.7758 0.7711
721.000000 0.7734 0.7737 0.7743 0.7791 0.7861
716.000000 0.7921 0.7976 0.8032 0.8084 0.8135
711.000000 0.8182 0.8215 0.8249 0.8275 0.8294
706.000000 0.8312 0.8330 0.8342 0.8350 0.8358
701.000000 0.8365 0.8373 0.8381 0.8386 0.8389
696.000000 0.8392 0.8392 0.8392 0.8400 0.8399
691.000000 0.8399 0.8398 0.8391 0.8378 0.8352
686.000000 0.8289 0.8081 0.7224 0.6367 0.4547
681.000000 0.4653 0.4538 0.5681 0.7130 0.8058
676.000000 0.8051 0.8075 0.7891 0.7696 0.7644
671.000000 0.7655 0.7774 0.7893 0.8012 0.8132
666.000000 0.8252 0.8368 0.8375 0.8383 0.8390
661.000000 0.8397 0.8404 0.8411 0.8418 0.8425
656.000000 0.8433 0.8439 0.8445 0.8452 0.8458
651.000000 0.8465 0.8471 0.8478 0.8484 0.8491
646.000000 0.8497 0.8501 0.8505 0.8509 0.8513
641.000000 0.8536 0.8524 0.8528 0.8535 0.8538
636.000000 0.8539 0.8540 0.8540 0.8532 0.8520
631.000000 0.8508 0.8486 0.8462 0.8439 0.8416
626.000000 0.8395 0.8374 0.8353 0.8332 0.8311
621.000000 0.8291 0.8278 0.8266 0.8271 0.8286
616.000000 0.8323 0.8361 0.8396 0.8428 0.8462
611.000000 0.8478 0.8490 0.8503 0.8515 0.8525
606.000000 0.8527 0.8528 0.8528 0.8531 0.8532
601.000000 0.8532 0.8527 0.8523 0.8518 0.8514
596.000000 0.8497 0.8497 0.8497 0.8491 0.8484
591.000000 0.8477 0.8470 0.8464 0.8456 0.8449
586.000000 0.8441 0.8434 0.8425 0.8418 0.8410
581.000000 0.8400 0.8390 0.8378 0.8368 0.8355
576.000000 0.8335 0.8315 0.8287 0.8245 0.8196
571.000000 0.8111 0.8032 0.7956 0.6988 0.6217
566.000000 0.5446 0.4676 0.3905 0.3134 0.2364
561.000000 0.1592 0.1472 0.1456 0.2310 0.3189
556.000000 0.4068 0.4947 0.5826 0.6705 0.6838
551.000000 0.6869 0.6450 0.6020 0.5591 0.5160
546.000000 0.4732 0.4302 0.3873 0.3443 0.3148
541.000000 0.3157 0.3875 0.4524 0.4468 0.4396
536.000000 0.4326 0.4483 0.4800 0.4910 0.4847
531.000000 0.4653 0.4546 0.4922 0.5462 0.6003
526.000000 0.6543 0.7084 0.7101 0.7118 0.7050
521.000000 0.6921 0.6794 0.6667 0.6539 0.6434
516.000000 0.6424 0.6419 0.6480 0.6547 0.6615
511.000000 0.6660 0.6689 0.6681 0.6630 0.6578
506.000000 0.6525 0.6474 0.6433 0.6418 0.6428
501.000000 0.6565 0.6769 0.6974 0.7178 0.7367
496.000000 0.7410 0.7454 0.7497 0.7539 0.7576
491.000000 0.7615 0.7653 0.7691 0.7724 0.7756
486.000000 0.7789 0.7818 0.7837 0.7855 0.7872
481.000000 0.7892 0.7910 0.7926 0.7934 0.7941
476.000000 0.7947 0.7954 0.7961 0.7961 0.7961
471.000000 0.7962 0.7962 0.7964 0.7964 0.7964
466.000000 0.7956 0.7949 0.7941 0.7933 0.7922
461.000000 0.7911 0.7898 0.7874
##END=
