##TITLE=DIBROMO-Beta-NAPHTHOL
##JCAMP-DX=4.24
##DATA TYPE=INFRARED SPECTRUM
##CLASS=COBLENTZ
##ORIGIN=ANDERSON PHYSICAL LABORATORY
##OWNER=COBLENTZ SOCIETY
Collection (C) 2018 copyright by the U.S. Secretary of Commerce
on behalf of the United States of America. All rights reserved.
##DATE=Not specified, most likely prior to 1970
##MOLFORM=C10 H6 Br2 O
##SOURCE REFERENCE=COBLENTZ NO. 2595
##$NIST ID=B6002595
##$NIST SOURCE=COBLENTZ
##$NIST IMAGE=cob2595
##SPECTROMETER/DATA SYSTEM=Not specified, most likely a prism, grating, or hybrid spectrometer.
##STATE=SOLID (1.0% IN KBr PELLET)
##PATH LENGTH=0.0355 CM
##SAMPLING PROCEDURE=TRANSMISSION
##RESOLUTION=4
##DATA PROCESSING=DIGITIZED BY NIST FROM HARD COPY (FROM TWO SEGMENTS)
##XUNITS=1/CM
##YUNITS=TRANSMITTANCE
##XFACTOR=1.000000
##YFACTOR=1
##DELTAX=0.933419
##FIRSTX=668.015
##LASTX=3988.19
##FIRSTY=0.794
##MAXX=3988.19
##MINX=668.015
##MAXY=0.904
##MINY=0.0830024
##NPOINTS=3558
##XYDATA=(X++(Y..Y))
668.015000 0.7940 0.7930 0.7910 0.7880 0.7850
672.682097 0.7760 0.7720 0.7720 0.7720 0.7700
677.349194 0.7700 0.7700 0.7720 0.7720 0.7730
682.016291 0.7760 0.7840 0.7940 0.8079 0.8289
686.683388 0.8450 0.8590 0.8710 0.8810 0.8920
691.350485 0.8990 0.8990 0.9010 0.9020 0.9020
696.017582 0.9020 0.9040 0.9040 0.9020 0.9020
700.684679 0.9020 0.9010 0.9010 0.9010 0.9010
705.351776 0.8990 0.8990 0.8980 0.8980 0.8980
710.018873 0.8980 0.8980 0.8960 0.8960 0.8960
714.685970 0.8960 0.8950 0.8920 0.8920 0.8900
719.353067 0.8890 0.8890 0.8870 0.8860 0.8860
724.020165 0.8840 0.8810 0.8780 0.8770 0.8750
728.687262 0.8740 0.8720 0.8720 0.8710 0.8690
733.354359 0.8660 0.8630 0.8590 0.8540 0.8510
738.021456 0.8500 0.8480 0.8440 0.8420 0.8410
742.688553 0.8390 0.8380 0.8350 0.8350 0.8300
747.355650 0.8270 0.8230 0.8230 0.8210 0.8200
752.022747 0.8180 0.8180 0.8170 0.8170 0.8170
756.689844 0.8170 0.8170 0.8170 0.8180 0.8180
761.356941 0.8180 0.8170 0.8150 0.8120 0.8080
766.024038 0.8050 0.8020 0.7970 0.7930 0.7870
770.691135 0.7820 0.7780 0.7700 0.7670 0.7600
775.358232 0.7540 0.7480 0.7450 0.7420 0.7400
780.025329 0.7390 0.7390 0.7390 0.7400 0.7420
784.692426 0.7480 0.7580 0.7699 0.7730 0.7730
789.359523 0.7730 0.7720 0.7700 0.7640 0.7630
794.026620 0.7580 0.7520 0.7510 0.7460 0.7450
798.693717 0.7390 0.7330 0.7270 0.7180 0.7090
803.360814 0.6980 0.6880 0.6760 0.6651 0.6531
808.027911 0.6380 0.6220 0.6070 0.5890 0.5740
812.695008 0.5570 0.5411 0.5211 0.5001 0.4731
817.362105 0.4430 0.4120 0.3790 0.3471 0.3191
822.029202 0.2901 0.2661 0.2471 0.2450 0.2440
826.696299 0.2450 0.2470 0.2600 0.2780 0.2950
831.363396 0.3159 0.3499 0.3828 0.4029 0.4388
836.030494 0.4760 0.5080 0.5420 0.5769 0.6189
840.697591 0.6579 0.6889 0.7179 0.7459 0.7748
845.364688 0.8330 0.8890 0.8890 0.8890 0.8830
850.031785 0.8810 0.8750 0.8710 0.8630 0.8560
854.698882 0.8510 0.8440 0.8360 0.8300 0.8230
859.365979 0.8180 0.8110 0.8080 0.8000 0.7940
864.033076 0.7870 0.7780 0.7690 0.7600 0.7520
868.700173 0.7450 0.7360 0.7270 0.7151 0.7001
873.367270 0.6850 0.6700 0.6530 0.6380 0.6190
878.034367 0.5951 0.5691 0.5421 0.5122 0.4842
882.701464 0.4550 0.4280 0.4070 0.4030 0.4000
887.368561 0.4000 0.4010 0.4040 0.4060 0.4130
892.035658 0.4190 0.4240 0.4700 0.5199 0.5539
896.702755 0.6039 0.6439 0.6818 0.7158 0.7359
901.369852 0.7480 0.7570 0.7640 0.7690 0.7690
906.036949 0.7690 0.7670 0.7660 0.7630 0.7600
910.704046 0.7520 0.7480 0.7430 0.7330 0.7220
915.371143 0.7190 0.7150 0.7060 0.7010 0.6950
920.038240 0.6850 0.6770 0.6670 0.6530 0.6380
924.705337 0.6220 0.6041 0.5861 0.5681 0.5481
929.372434 0.5200 0.4970 0.4790 0.4640 0.4490
934.039531 0.4360 0.4191 0.4041 0.3950 0.3940
938.706628 0.3920 0.3940 0.3970 0.4070 0.4339
943.373726 0.4659 0.5168 0.5658 0.6168 0.6767
948.040823 0.7120 0.7280 0.7310 0.7310 0.7310
952.707920 0.7300 0.7250 0.7210 0.7071 0.6921
957.375017 0.6790 0.6650 0.6550 0.6440 0.6350
962.042114 0.6230 0.6140 0.6020 0.5980 0.5960
966.709211 0.5960 0.5980 0.5980 0.6040 0.6100
971.376308 0.6160 0.6220 0.6310 0.6410 0.6529
976.043405 0.6650 0.6790 0.6940 0.7000 0.7040
980.710502 0.7120 0.7180 0.7190 0.7300 0.7360
985.377599 0.7450 0.7520 0.7630 0.7660 0.7660
990.044696 0.7640 0.7630 0.7610 0.7600 0.7570
994.711793 0.7540 0.7510 0.7490 0.7490 0.7490
999.378890 0.7490 0.7510 0.7540 0.7540 0.7580
1004.045987 0.7610 0.7630 0.7640 0.7640 0.7630
1008.713084 0.7630 0.7630 0.7600 0.7570 0.7520
1013.380181 0.7490 0.7480 0.7430 0.7370 0.7360
1018.047278 0.7330 0.7300 0.7280 0.7250 0.7220
1022.714375 0.7210 0.7190 0.7150 0.7120 0.7100
1027.381472 0.7090 0.7060 0.7030 0.7030 0.7030
1032.048569 0.7030 0.7010 0.7010 0.7010 0.7010
1036.715666 0.6980 0.6980 0.6920 0.6890 0.6890
1041.382763 0.6880 0.6860 0.6850 0.6800 0.6770
1046.049860 0.6740 0.6710 0.6680 0.6610 0.6580
1050.716958 0.6530 0.6470 0.6460 0.6410 0.6380
1055.384055 0.6320 0.6260 0.6160 0.6080 0.5981
1060.051152 0.5900 0.5800 0.5720 0.5660 0.5560
1064.718249 0.5510 0.5450 0.5350 0.5231 0.5091
1069.385346 0.5000 0.4960 0.4870 0.4750 0.4520
1074.052443 0.4420 0.4280 0.4160 0.4060 0.4030
1078.719540 0.3980 0.3940 0.3920 0.3920 0.3950
1083.386637 0.3970 0.4000 0.4040 0.4130 0.4239
1088.053734 0.4300 0.4400 0.4550 0.4700 0.4840
1092.720831 0.4930 0.5110 0.5110 0.5359 0.5380
1097.387928 0.5390 0.5390 0.5410 0.5420 0.5420
1102.055025 0.5410 0.5390 0.5360 0.5330 0.5290
1106.722122 0.5230 0.5150 0.5060 0.5000 0.4940
1111.389219 0.4870 0.4790 0.4730 0.4670 0.4610
1116.056316 0.4540 0.4450 0.4360 0.4270 0.4160
1120.723413 0.4070 0.3970 0.3860 0.3760 0.3641
1125.390510 0.3520 0.3410 0.3280 0.3160 0.3040
1130.057607 0.2900 0.2770 0.2630 0.2481 0.2351
1134.724704 0.2200 0.2030 0.1930 0.1850 0.1840
1139.391801 0.1820 0.1820 0.1840 0.1840 0.1840
1144.058898 0.1850 0.1850 0.1850 0.1840 0.1760
1148.725995 0.1670 0.1580 0.1480 0.1420 0.1390
1153.393092 0.1330 0.1280 0.1270 0.1270 0.1270
1158.060189 0.1310 0.1360 0.1460 0.1520 0.1600
1162.727287 0.1750 0.1880 0.1970 0.1990 0.2000
1167.394384 0.1990 0.1970 0.1791 0.1571 0.1431
1172.061481 0.1100 0.0940 0.0860 0.0850 0.0830
1176.728578 0.0850 0.0860 0.0890 0.0950 0.0980
1181.395675 0.1030 0.1120 0.1250 0.1430 0.1640
1186.062772 0.1870 0.2139 0.2409 0.2689 0.2979
1190.729869 0.3261 0.3550 0.3820 0.4090 0.4310
1195.396966 0.4520 0.4690 0.4820 0.4900 0.5029
1200.064063 0.5050 0.5050 0.5050 0.5020 0.4990
1204.731160 0.4930 0.4870 0.4790 0.4720 0.4630
1209.398257 0.4520 0.4420 0.4270 0.4150 0.4060
1214.065354 0.3970 0.3890 0.3830 0.3740 0.3650
1218.732451 0.3530 0.3410 0.3170 0.2870 0.2540
1223.399548 0.2261 0.2021 0.1821 0.1661 0.1600
1228.066645 0.1570 0.1550 0.1550 0.1580 0.1600
1232.733742 0.1790 0.1999 0.2239 0.2469 0.2799
1237.400839 0.3161 0.3551 0.4010 0.4490 0.4910
1242.067936 0.5359 0.5739 0.6099 0.6369 0.6579
1246.735033 0.6740 0.6890 0.7030 0.7070 0.7070
1251.402130 0.7040 0.7010 0.6980 0.6860 0.6800
1256.069227 0.6680 0.6580 0.6430 0.6290 0.6140
1260.736324 0.6020 0.5920 0.5810 0.5740 0.5710
1265.403421 0.5660 0.5660 0.5690 0.5710 0.5720
1270.070519 0.5750 0.5780 0.5800 0.5830 0.5840
1274.737616 0.5840 0.5830 0.5800 0.5780 0.5720
1279.404713 0.5630 0.5500 0.5291 0.5180 0.5140
1284.071810 0.5120 0.5140 0.5360 0.5630 0.5900
1288.738907 0.6160 0.6340 0.6490 0.6649 0.6650
1293.406004 0.6650 0.6650 0.6640 0.6620 0.6620
1298.073101 0.6620 0.6650 0.6650 0.6670 0.6670
1302.740198 0.6650 0.6580 0.6520 0.6440 0.6310
1307.407295 0.6170 0.6040 0.5920 0.5800 0.5651
1312.074392 0.5510 0.5350 0.5150 0.4990 0.4810
1316.741489 0.4580 0.4370 0.4151 0.3951 0.3761
1321.408586 0.3590 0.3459 0.3220 0.3160 0.3160
1326.075683 0.3170 0.3190 0.3230 0.3370 0.3549
1330.742780 0.3791 0.4001 0.4240 0.4450 0.4660
1335.409877 0.4780 0.4870 0.4900 0.4880 0.4870
1340.076974 0.4840 0.4790 0.4750 0.4670 0.4570
1344.744071 0.4520 0.4450 0.4420 0.4310 0.4191
1349.411168 0.4060 0.3920 0.3800 0.3670 0.3530
1354.078265 0.3400 0.3280 0.3160 0.3040 0.2930
1358.745362 0.2830 0.2740 0.2660 0.2630 0.2620
1363.412459 0.2620 0.2630 0.2690 0.2770 0.2989
1368.079556 0.3321 0.3731 0.4181 0.4600 0.4970
1372.746653 0.5210 0.5569 0.5650 0.5650 0.5620
1377.413751 0.5570 0.5530 0.5380 0.5240 0.5110
1382.080848 0.4940 0.4780 0.4570 0.4331 0.4031
1386.747945 0.3669 0.3459 0.3220 0.3040 0.2890
1391.415042 0.2750 0.2660 0.2660 0.2650 0.2650
1396.082139 0.2650 0.2660 0.2680 0.2900 0.3200
1400.749236 0.3639 0.4089 0.4479 0.4689 0.5198
1405.416333 0.5591 0.5890 0.6100 0.6250 0.6340
1410.083430 0.6400 0.6430 0.6430 0.6400 0.6400
1414.750527 0.6400 0.6400 0.6400 0.6400 0.6400
1419.417624 0.6410 0.6470 0.6470 0.6590 0.6700
1424.084721 0.6800 0.6910 0.6920 0.6950 0.6970
1428.751818 0.6970 0.6970 0.6970 0.6970 0.6980
1433.418915 0.7000 0.7090 0.7220 0.7360 0.7460
1438.086012 0.7510 0.7550 0.7600 0.7640 0.7670
1442.753109 0.7700 0.7700 0.7700 0.7700 0.7690
1447.420206 0.7640 0.7610 0.7580 0.7540 0.7510
1452.087303 0.7490 0.7480 0.7480 0.7480 0.7480
1456.754400 0.7480 0.7460 0.7400 0.7360 0.7330
1461.421497 0.7270 0.7220 0.7070 0.7040 0.6920
1466.088594 0.6790 0.6680 0.6550 0.6410 0.6251
1470.755691 0.6039 0.5840 0.5660 0.5500 0.5380
1475.422788 0.5290 0.5210 0.5150 0.5120 0.5060
1480.089885 0.5020 0.5000 0.4990 0.5000 0.5000
1484.756982 0.5050 0.5140 0.5260 0.5390 0.5500
1489.424080 0.5590 0.5600 0.5600 0.5570 0.5540
1494.091177 0.5480 0.5410 0.5300 0.5210 0.5060
1498.758274 0.4839 0.4569 0.4269 0.3970 0.3670
1503.425371 0.3430 0.3220 0.3080 0.2980 0.2930
1508.092468 0.2900 0.2890 0.2870 0.2890 0.2920
1512.759565 0.2980 0.3050 0.3170 0.3339 0.3549
1517.426662 0.3801 0.4131 0.4521 0.4990 0.5510
1522.093759 0.6220 0.6759 0.7179 0.7459 0.7639
1526.760856 0.7690 0.7750 0.7790 0.7820 0.7840
1531.427953 0.7840 0.7850 0.7850 0.7840 0.7820
1536.095050 0.7810 0.7810 0.7810 0.7790 0.7780
1540.762147 0.7760 0.7730 0.7690 0.7640 0.7550
1545.429244 0.7510 0.7420 0.7310 0.7210 0.7090
1550.096341 0.6980 0.6880 0.6790 0.6680 0.6610
1554.763438 0.6530 0.6470 0.6410 0.6370 0.6310
1559.430535 0.6260 0.6230 0.6220 0.6140 0.6070
1564.097632 0.5990 0.5890 0.5750 0.5630 0.5480
1568.764729 0.5330 0.5150 0.4960 0.4790 0.4641
1573.431826 0.4520 0.4430 0.4340 0.4270 0.4180
1578.098923 0.4100 0.4010 0.3910 0.3790 0.3591
1582.766020 0.3349 0.3099 0.2900 0.2750 0.2650
1587.433117 0.2560 0.2510 0.2470 0.2390 0.2320
1592.100214 0.2240 0.2180 0.2080 0.2000 0.1910
1596.767312 0.1840 0.1750 0.1720 0.1670 0.1660
1601.434409 0.1660 0.1670 0.1690 0.1780 0.1910
1606.101506 0.2110 0.2350 0.2620 0.2929 0.3259
1610.768603 0.3621 0.3971 0.4300 0.4490 0.4660
1615.435700 0.4900 0.4970 0.4970 0.4970 0.4880
1620.102797 0.4639 0.4360 0.4190 0.4090 0.3980
1624.769894 0.3980 0.4000 0.4419 0.4520 0.4869
1629.436991 0.5261 0.5681 0.6131 0.6550 0.6920
1634.104088 0.7240 0.7450 0.7540 0.7670 0.7730
1638.771185 0.7790 0.7840 0.7870 0.7870 0.7880
1643.438282 0.7880 0.7880 0.7900 0.7900 0.7930
1648.105379 0.7940 0.7960 0.7970 0.8000 0.8020
1652.772476 0.8020 0.8030 0.8030 0.8050 0.8050
1657.439573 0.8050 0.8050 0.8050 0.8050 0.8050
1662.106670 0.8050 0.8050 0.8050 0.8050 0.8030
1666.773767 0.8030 0.8020 0.8000 0.7990 0.7970
1671.440864 0.7960 0.7930 0.7910 0.7880 0.7840
1676.107961 0.7820 0.7780 0.7730 0.7670 0.7640
1680.775058 0.7600 0.7570 0.7540 0.7520 0.7520
1685.442155 0.7520 0.7520 0.7510 0.7510 0.7510
1690.109252 0.7510 0.7510 0.7520 0.7520 0.7520
1694.776349 0.7540 0.7540 0.7540 0.7520 0.7520
1699.443446 0.7510 0.7510 0.7490 0.7490 0.7490
1704.110544 0.7480 0.7480 0.7480 0.7480 0.7480
1708.777641 0.7490 0.7490 0.7490 0.7480 0.7480
1713.444738 0.7480 0.7480 0.7480 0.7480 0.7480
1718.111835 0.7460 0.7460 0.7460 0.7460 0.7460
1722.778932 0.7460 0.7460 0.7450 0.7450 0.7450
1727.446029 0.7450 0.7450 0.7430 0.7430 0.7430
1732.113126 0.7420 0.7390 0.7390 0.7370 0.7370
1736.780223 0.7370 0.7370 0.7370 0.7370 0.7370
1741.447320 0.7360 0.7340 0.7340 0.7340 0.7330
1746.114417 0.7310 0.7310 0.7300 0.7270 0.7240
1750.781514 0.7210 0.7190 0.7190 0.7180 0.7160
1755.448611 0.7120 0.7100 0.7090 0.7040 0.7030
1760.115708 0.7010 0.7010 0.7000 0.6980 0.6970
1764.782805 0.6970 0.6970 0.6950 0.6950 0.6940
1769.449902 0.6940 0.6940 0.6940 0.6940 0.6950
1774.116999 0.6970 0.6970 0.6980 0.7010 0.7030
1778.784096 0.7040 0.7060 0.7090 0.7120 0.7180
1783.451193 0.7210 0.7220 0.7250 0.7270 0.7280
1788.118290 0.7300 0.7310 0.7330 0.7340 0.7340
1792.785387 0.7340 0.7340 0.7360 0.7360 0.7360
1797.452484 0.7370 0.7370 0.7360 0.7360 0.7360
1802.119581 0.7360 0.7360 0.7360 0.7360 0.7340
1806.786678 0.7330 0.7330 0.7330 0.7310 0.7310
1811.453775 0.7310 0.7310 0.7300 0.7300 0.7300
1816.120873 0.7300 0.7300 0.7300 0.7300 0.7300
1820.787970 0.7300 0.7300 0.7300 0.7280 0.7270
1825.455067 0.7250 0.7240 0.7240 0.7220 0.7210
1830.122164 0.7210 0.7210 0.7180 0.7150 0.7130
1834.789261 0.7130 0.7120 0.7120 0.7120 0.7120
1839.456358 0.7120 0.7100 0.7100 0.7100 0.7100
1844.123455 0.7100 0.7100 0.7090 0.7090 0.7090
1848.790552 0.7070 0.7070 0.7070 0.7070 0.7060
1853.457649 0.7060 0.7060 0.7040 0.7040 0.7040
1858.124746 0.7030 0.7030 0.7010 0.7010 0.7000
1862.791843 0.7000 0.7000 0.7000 0.7000 0.7000
1867.458940 0.7000 0.7000 0.7000 0.7000 0.7000
1872.126037 0.7000 0.7000 0.6980 0.6980 0.6970
1876.793134 0.6950 0.6950 0.6950 0.6940 0.6920
1881.460231 0.6910 0.6890 0.6880 0.6860 0.6850
1886.127328 0.6820 0.6800 0.6790 0.6770 0.6760
1890.794425 0.6760 0.6740 0.6710 0.6680 0.6670
1895.461522 0.6640 0.6640 0.6620 0.6590 0.6580
1900.128619 0.6530 0.6520 0.6500 0.6490 0.6470
1904.795716 0.6410 0.6400 0.6370 0.6340 0.6340
1909.462813 0.6320 0.6320 0.6320 0.6320 0.6320
1914.129910 0.6320 0.6340 0.6340 0.6340 0.6340
1918.797007 0.6350 0.6350 0.6370 0.6380 0.6380
1923.464105 0.6410 0.6470 0.6490 0.6500 0.6500
1928.131202 0.6520 0.6520 0.6530 0.6550 0.6550
1932.798299 0.6550 0.6550 0.6550 0.6550 0.6550
1937.465396 0.6560 0.6560 0.6560 0.6560 0.6580
1942.132493 0.6580 0.6580 0.6590 0.6610 0.6610
1946.799590 0.6620 0.6620 0.6620 0.6620 0.6620
1951.466687 0.6640 0.6640 0.6640 0.6640 0.6640
1956.133784 0.6640 0.6640 0.6640 0.6640 0.6640
1960.800881 0.6640 0.6640 0.6640 0.6640 0.6640
1965.467978 0.6640 0.6640 0.6640 0.6620 0.6610
1970.135075 0.6610 0.6590 0.6590 0.6580 0.6580
1974.802172 0.6560 0.6560 0.6550 0.6530 0.6530
1979.469269 0.6530 0.6520 0.6520 0.6520 0.6520
1984.136366 0.6500 0.6500 0.6500 0.6500 0.6500
1988.803463 0.6500 0.6490 0.6490 0.6470 0.6470
1993.470560 0.6460 0.6460 0.6440 0.6430 0.6430
1998.137657 0.6380 0.6340 0.6320 0.6312 0.6305
2002.804754 0.6298 0.6290 0.6283 0.6275 0.6268
2007.471851 0.6260 0.6253 0.6245 0.6238 0.6230
2012.138948 0.6223 0.6215 0.6208 0.6200 0.6193
2016.806045 0.6185 0.6178 0.6170 0.6168 0.6165
2021.473142 0.6163 0.6160 0.6160 0.6160 0.6160
2026.140239 0.6160 0.6155 0.6150 0.6145 0.6140
2030.807337 0.6133 0.6126 0.6118 0.6111 0.6108
2035.474434 0.6105 0.6103 0.6100 0.6095 0.6090
2040.141531 0.6085 0.6080 0.6080 0.6080 0.6080
2044.808628 0.6080 0.6078 0.6075 0.6073 0.6070
2049.475725 0.6059 0.6046 0.6034 0.6021 0.6020
2054.142822 0.6020 0.6020 0.6020 0.6013 0.6006
2058.809919 0.5998 0.5991 0.5988 0.5985 0.5983
2063.477016 0.5980 0.5980 0.5980 0.5980 0.5980
2068.144113 0.5976 0.5971 0.5966 0.5961 0.5958
2072.811210 0.5955 0.5953 0.5950 0.5936 0.5921
2077.478307 0.5907 0.5892 0.5883 0.5876 0.5868
2082.145404 0.5861 0.5856 0.5851 0.5846 0.5841
2086.812501 0.5838 0.5835 0.5833 0.5830 0.5824
2091.479598 0.5816 0.5809 0.5801 0.5794 0.5786
2096.146695 0.5779 0.5771 0.5770 0.5770 0.5770
2100.813792 0.5770 0.5764 0.5756 0.5749 0.5741
2105.480889 0.5736 0.5731 0.5726 0.5721 0.5718
2110.147986 0.5715 0.5713 0.5710 0.5706 0.5701
2114.815083 0.5696 0.5691 0.5688 0.5685 0.5683
2119.482180 0.5680 0.5674 0.5666 0.5659 0.5651
2124.149277 0.5646 0.5641 0.5636 0.5631 0.5630
2128.816374 0.5630 0.5630 0.5630 0.5630 0.5630
2133.483471 0.5630 0.5630 0.5624 0.5617 0.5609
2138.150568 0.5602 0.5600 0.5600 0.5600 0.5600
2142.817666 0.5598 0.5596 0.5593 0.5591 0.5590
2147.484763 0.5590 0.5590 0.5590 0.5590 0.5590
2152.151860 0.5590 0.5590 0.5590 0.5590 0.5590
2156.818957 0.5590 0.5590 0.5590 0.5590 0.5590
2161.486054 0.5590 0.5590 0.5590 0.5590 0.5586
2166.153151 0.5581 0.5576 0.5571 0.5570 0.5570
2170.820248 0.5570 0.5570 0.5565 0.5557 0.5550
2175.487345 0.5542 0.5535 0.5527 0.5520 0.5512
2180.154442 0.5510 0.5510 0.5510 0.5510 0.5508
2184.821539 0.5506 0.5503 0.5501 0.5494 0.5487
2189.488636 0.5479 0.5472 0.5470 0.5470 0.5470
2194.155733 0.5470 0.5466 0.5461 0.5456 0.5451
2198.822830 0.5443 0.5433 0.5423 0.5413 0.5405
2203.489927 0.5397 0.5390 0.5382 0.5380 0.5380
2208.157024 0.5380 0.5380 0.5375 0.5367 0.5360
2212.824121 0.5352 0.5345 0.5338 0.5330 0.5323
2217.491218 0.5317 0.5312 0.5307 0.5302 0.5298
2222.158315 0.5296 0.5293 0.5291 0.5290 0.5290
2226.825412 0.5290 0.5290 0.5290 0.5290 0.5290
2231.492509 0.5290 0.5287 0.5282 0.5277 0.5272
2236.159606 0.5268 0.5266 0.5263 0.5261 0.5257
2240.826703 0.5252 0.5247 0.5242 0.5235 0.5228
2245.493800 0.5220 0.5213 0.5205 0.5198 0.5190
2250.160898 0.5183 0.5175 0.5168 0.5160 0.5153
2254.827995 0.5150 0.5150 0.5150 0.5150 0.5145
2259.495092 0.5138 0.5130 0.5123 0.5115 0.5108
2264.162189 0.5100 0.5093 0.5088 0.5086 0.5083
2268.829286 0.5081 0.5075 0.5068 0.5060 0.5053
2273.496383 0.5050 0.5050 0.5050 0.5050 0.5047
2278.163480 0.5042 0.5037 0.5032 0.5029 0.5026
2282.830577 0.5024 0.5021 0.5017 0.5012 0.5007
2287.497674 0.5002 0.4999 0.4996 0.4994 0.4991
2292.164771 0.4987 0.4982 0.4977 0.4972 0.4966
2296.831868 0.4958 0.4951 0.4943 0.4935 0.4928
2301.498965 0.4921 0.4913 0.4909 0.4906 0.4904
2306.166062 0.4901 0.4896 0.4888 0.4881 0.4873
2310.833159 0.4867 0.4862 0.4857 0.4852 0.4849
2315.500256 0.4846 0.4844 0.4841 0.4837 0.4832
2320.167353 0.4827 0.4822 0.4819 0.4816 0.4814
2324.834450 0.4811 0.4806 0.4799 0.4791 0.4784
2329.501547 0.4777 0.4772 0.4768 0.4763 0.4760
2334.168644 0.4760 0.4760 0.4760 0.4759 0.4756
2338.835741 0.4754 0.4751 0.4747 0.4742 0.4737
2343.502838 0.4732 0.4730 0.4730 0.4730 0.4730
2348.169935 0.4730 0.4730 0.4730 0.4730 0.4730
2352.837032 0.4730 0.4730 0.4730 0.4730 0.4730
2357.504129 0.4730 0.4730 0.4730 0.4730 0.4730
2362.171227 0.4730 0.4730 0.4730 0.4730 0.4730
2366.838324 0.4729 0.4726 0.4724 0.4721 0.4720
2371.505421 0.4720 0.4720 0.4720 0.4720 0.4720
2376.172518 0.4720 0.4720 0.4720 0.4720 0.4720
2380.839615 0.4720 0.4720 0.4720 0.4720 0.4720
2385.506712 0.4720 0.4720 0.4720 0.4720 0.4718
2390.173809 0.4713 0.4708 0.4703 0.4699 0.4696
2394.840906 0.4694 0.4691 0.4685 0.4672 0.4660
2399.508003 0.4647 0.4636 0.4626 0.4616 0.4606
2404.175100 0.4595 0.4582 0.4570 0.4558 0.4547
2408.842197 0.4539 0.4532 0.4524 0.4520 0.4520
2413.509294 0.4520 0.4520 0.4519 0.4516 0.4514
2418.176391 0.4511 0.4508 0.4503 0.4498 0.4493
2422.843488 0.4490 0.4490 0.4490 0.4490 0.4490
2427.510585 0.4490 0.4490 0.4490 0.4489 0.4487
2432.177682 0.4484 0.4482 0.4480 0.4480 0.4480
2436.844779 0.4480 0.4478 0.4473 0.4468 0.4463
2441.511876 0.4460 0.4460 0.4460 0.4460 0.4459
2446.178973 0.4457 0.4454 0.4451 0.4448 0.4443
2450.846070 0.4438 0.4433 0.4430 0.4430 0.4430
2455.513167 0.4430 0.4429 0.4427 0.4424 0.4422
2460.180264 0.4418 0.4413 0.4408 0.4403 0.4400
2464.847361 0.4400 0.4400 0.4400 0.4399 0.4397
2469.514459 0.4394 0.4392 0.4390 0.4390 0.4390
2474.181556 0.4390 0.4388 0.4383 0.4378 0.4373
2478.848653 0.4369 0.4367 0.4364 0.4362 0.4360
2483.515750 0.4360 0.4360 0.4360 0.4358 0.4353
2488.182847 0.4348 0.4343 0.4339 0.4337 0.4334
2492.849944 0.4332 0.4328 0.4323 0.4318 0.4313
2497.517041 0.4309 0.4307 0.4304 0.4302 0.4298
2502.184138 0.4293 0.4288 0.4284 0.4279 0.4277
2506.851235 0.4274 0.4272 0.4269 0.4264 0.4259
2511.518332 0.4254 0.4249 0.4247 0.4244 0.4242
2516.185429 0.4239 0.4234 0.4229 0.4224 0.4219
2520.852526 0.4217 0.4214 0.4212 0.4208 0.4203
2525.519623 0.4198 0.4194 0.4189 0.4187 0.4184
2530.186720 0.4182 0.4179 0.4174 0.4169 0.4164
2534.853817 0.4159 0.4157 0.4154 0.4152 0.4149
2539.520914 0.4144 0.4139 0.4134 0.4129 0.4127
2544.188011 0.4124 0.4122 0.4119 0.4114 0.4109
2548.855108 0.4104 0.4100 0.4100 0.4100 0.4100
2553.522205 0.4099 0.4097 0.4094 0.4092 0.4090
2558.189302 0.4090 0.4090 0.4090 0.4089 0.4084
2562.856399 0.4079 0.4074 0.4070 0.4070 0.4070
2567.523496 0.4070 0.4070 0.4070 0.4070 0.4070
2572.190593 0.4070 0.4070 0.4070 0.4070 0.4070
2576.857691 0.4070 0.4070 0.4070 0.4070 0.4070
2581.524788 0.4070 0.4070 0.4070 0.4070 0.4070
2586.191885 0.4070 0.4070 0.4070 0.4070 0.4070
2590.858982 0.4070 0.4067 0.4065 0.4062 0.4060
2595.526079 0.4060 0.4060 0.4060 0.4060 0.4060
2600.193176 0.4060 0.4060 0.4060 0.4060 0.4060
2604.860273 0.4060 0.4060 0.4060 0.4060 0.4060
2609.527370 0.4060 0.4060 0.4060 0.4060 0.4059
2614.194467 0.4054 0.4049 0.4044 0.4040 0.4040
2618.861564 0.4040 0.4040 0.4040 0.4037 0.4035
2623.528661 0.4032 0.4030 0.4030 0.4030 0.4030
2628.195758 0.4030 0.4030 0.4030 0.4030 0.4030
2632.862855 0.4024 0.4019 0.4014 0.4010 0.4007
2637.529952 0.4005 0.4002 0.3999 0.3994 0.3989
2642.197049 0.3984 0.3980 0.3980 0.3980 0.3980
2646.864146 0.3980 0.3980 0.3980 0.3980 0.3980
2651.531243 0.3977 0.3975 0.3972 0.3970 0.3970
2656.198340 0.3970 0.3970 0.3970 0.3965 0.3960
2660.865437 0.3955 0.3950 0.3950 0.3950 0.3950
2665.532534 0.3950 0.3950 0.3950 0.3950 0.3950
2670.199631 0.3950 0.3950 0.3950 0.3950 0.3947
2674.866728 0.3945 0.3942 0.3940 0.3940 0.3940
2679.533825 0.3940 0.3940 0.3940 0.3940 0.3940
2684.200922 0.3940 0.3940 0.3940 0.3940 0.3940
2688.868020 0.3935 0.3930 0.3925 0.3920 0.3920
2693.535117 0.3920 0.3920 0.3920 0.3917 0.3915
2698.202214 0.3912 0.3910 0.3905 0.3900 0.3895
2702.869311 0.3890 0.3890 0.3890 0.3890 0.3890
2707.536408 0.3887 0.3885 0.3882 0.3880 0.3880
2712.203505 0.3880 0.3880 0.3880 0.3880 0.3880
2716.870602 0.3880 0.3880 0.3875 0.3870 0.3865
2721.537699 0.3860 0.3852 0.3845 0.3837 0.3830
2726.204796 0.3830 0.3830 0.3830 0.3830 0.3823
2730.871893 0.3815 0.3808 0.3800 0.3793 0.3785
2735.538990 0.3778 0.3770 0.3768 0.3765 0.3763
2740.206087 0.3760 0.3760 0.3760 0.3760 0.3760
2744.873184 0.3755 0.3750 0.3745 0.3740 0.3737
2749.540281 0.3735 0.3733 0.3730 0.3725 0.3720
2754.207378 0.3715 0.3710 0.3710 0.3710 0.3710
2758.874475 0.3710 0.3703 0.3695 0.3688 0.3680
2763.541572 0.3678 0.3675 0.3673 0.3670 0.3665
2768.208669 0.3660 0.3655 0.3650 0.3648 0.3645
2772.875766 0.3643 0.3640 0.3633 0.3626 0.3618
2777.542863 0.3611 0.3605 0.3600 0.3596 0.3591
2782.209960 0.3590 0.3590 0.3590 0.3590 0.3588
2786.877057 0.3585 0.3583 0.3580 0.3575 0.3570
2791.544154 0.3565 0.3560 0.3560 0.3560 0.3560
2796.211252 0.3560 0.3560 0.3560 0.3560 0.3560
2800.878349 0.3558 0.3555 0.3553 0.3550 0.3550
2805.545446 0.3550 0.3550 0.3550 0.3550 0.3550
2810.212543 0.3550 0.3550 0.3546 0.3541 0.3536
2814.879640 0.3531 0.3530 0.3530 0.3530 0.3530
2819.546737 0.3528 0.3525 0.3523 0.3520 0.3520
2824.213834 0.3520 0.3520 0.3520 0.3516 0.3511
2828.880931 0.3506 0.3501 0.3493 0.3486 0.3478
2833.548028 0.3471 0.3468 0.3465 0.3463 0.3460
2838.215125 0.3454 0.3446 0.3439 0.3431 0.3426
2842.882222 0.3421 0.3416 0.3411 0.3410 0.3410
2847.549319 0.3410 0.3410 0.3408 0.3405 0.3403
2852.216416 0.3400 0.3400 0.3400 0.3400 0.3400
2856.883513 0.3396 0.3391 0.3386 0.3381 0.3380
2861.550610 0.3380 0.3380 0.3380 0.3378 0.3375
2866.217707 0.3373 0.3370 0.3370 0.3370 0.3370
2870.884804 0.3370 0.3370 0.3370 0.3370 0.3370
2875.551901 0.3370 0.3370 0.3370 0.3370 0.3370
2880.218998 0.3370 0.3370 0.3370 0.3370 0.3370
2884.886095 0.3370 0.3370 0.3370 0.3370 0.3370
2889.553192 0.3370 0.3370 0.3370 0.3370 0.3370
2894.220289 0.3366 0.3361 0.3356 0.3351 0.3350
2898.887386 0.3350 0.3350 0.3350 0.3350 0.3350
2903.554484 0.3350 0.3350 0.3348 0.3346 0.3343
2908.221581 0.3341 0.3336 0.3331 0.3326 0.3321
2912.888678 0.3318 0.3316 0.3313 0.3311 0.3310
2917.555775 0.3310 0.3310 0.3310 0.3310 0.3310
2922.222872 0.3310 0.3310 0.3310 0.3310 0.3310
2926.889969 0.3310 0.3306 0.3301 0.3296 0.3292
2931.557066 0.3288 0.3286 0.3283 0.3281 0.3271
2936.224163 0.3258 0.3246 0.3233 0.3228 0.3226
2940.891260 0.3223 0.3221 0.3211 0.3198 0.3186
2945.558357 0.3173 0.3163 0.3153 0.3143 0.3133
2950.225454 0.3126 0.3121 0.3116 0.3111 0.3098
2954.892551 0.3080 0.3063 0.3045 0.3037 0.3032
2959.559648 0.3027 0.3022 0.3018 0.3016 0.3013
2964.226745 0.3011 0.3007 0.3002 0.2997 0.2992
2968.893842 0.2988 0.2986 0.2983 0.2981 0.2980
2973.560939 0.2980 0.2980 0.2980 0.2977 0.2972
2978.228036 0.2967 0.2962 0.2960 0.2960 0.2960
2982.895133 0.2960 0.2958 0.2956 0.2953 0.2951
2987.562230 0.2950 0.2950 0.2950 0.2950 0.2947
2992.229327 0.2942 0.2937 0.2932 0.2928 0.2926
2996.896424 0.2923 0.2921 0.2917 0.2912 0.2907
3001.563521 0.2902 0.2900 0.2900 0.2900 0.2900
3006.230618 0.2900 0.2900 0.2900 0.2900 0.2900
3010.897715 0.2900 0.2900 0.2900 0.2900 0.2900
3015.564813 0.2900 0.2900 0.2898 0.2896 0.2893
3020.231910 0.2891 0.2890 0.2890 0.2890 0.2890
3024.899007 0.2887 0.2882 0.2877 0.2872 0.2869
3029.566104 0.2866 0.2864 0.2861 0.2857 0.2852
3034.233201 0.2847 0.2842 0.2840 0.2840 0.2840
3038.900298 0.2840 0.2840 0.2840 0.2840 0.2840
3043.567395 0.2840 0.2840 0.2840 0.2840 0.2840
3048.234492 0.2840 0.2840 0.2840 0.2840 0.2840
3052.901589 0.2840 0.2840 0.2840 0.2840 0.2840
3057.568686 0.2840 0.2843 0.2848 0.2853 0.2858
3062.235783 0.2860 0.2860 0.2860 0.2860 0.2860
3066.902880 0.2860 0.2860 0.2860 0.2860 0.2860
3071.569977 0.2860 0.2860 0.2857 0.2852 0.2847
3076.237074 0.2842 0.2840 0.2840 0.2840 0.2840
3080.904171 0.2839 0.2836 0.2834 0.2831 0.2830
3085.571268 0.2830 0.2830 0.2830 0.2827 0.2822
3090.238365 0.2817 0.2812 0.2809 0.2806 0.2804
3094.905462 0.2801 0.2800 0.2800 0.2800 0.2800
3099.572559 0.2797 0.2792 0.2787 0.2782 0.2780
3104.239656 0.2780 0.2780 0.2780 0.2779 0.2776
3108.906753 0.2774 0.2771 0.2770 0.2770 0.2770
3113.573850 0.2770 0.2770 0.2770 0.2770 0.2770
3118.240947 0.2770 0.2770 0.2770 0.2770 0.2767
3122.908045 0.2762 0.2757 0.2752 0.2750 0.2750
3127.575142 0.2750 0.2750 0.2749 0.2746 0.2744
3132.242239 0.2741 0.2736 0.2729 0.2721 0.2714
3136.909336 0.2707 0.2699 0.2692 0.2684 0.2680
3141.576433 0.2680 0.2680 0.2680 0.2680 0.2680
3146.243530 0.2680 0.2680 0.2678 0.2673 0.2668
3150.910627 0.2663 0.2659 0.2656 0.2654 0.2651
3155.577724 0.2645 0.2632 0.2620 0.2607 0.2599
3160.244821 0.2596 0.2594 0.2591 0.2588 0.2583
3164.911918 0.2578 0.2573 0.2569 0.2566 0.2564
3169.579015 0.2561 0.2558 0.2553 0.2548 0.2543
3174.246112 0.2540 0.2540 0.2540 0.2540 0.2539
3178.913209 0.2537 0.2534 0.2532 0.2530 0.2530
3183.580306 0.2530 0.2530 0.2528 0.2523 0.2518
3188.247403 0.2513 0.2509 0.2507 0.2504 0.2502
3192.914500 0.2498 0.2493 0.2488 0.2483 0.2476
3197.581597 0.2466 0.2456 0.2446 0.2438 0.2433
3202.248694 0.2428 0.2423 0.2417 0.2410 0.2402
3206.915791 0.2395 0.2387 0.2380 0.2372 0.2365
3211.582888 0.2359 0.2357 0.2354 0.2352 0.2348
3216.249985 0.2343 0.2338 0.2333 0.2330 0.2330
3220.917082 0.2330 0.2330 0.2329 0.2327 0.2324
3225.584179 0.2322 0.2318 0.2313 0.2308 0.2303
3230.251277 0.2298 0.2290 0.2282 0.2275 0.2270
3234.918374 0.2270 0.2270 0.2270 0.2269 0.2267
3239.585471 0.2264 0.2262 0.2258 0.2253 0.2248
3244.252568 0.2243 0.2239 0.2237 0.2234 0.2232
3248.919665 0.2230 0.2230 0.2230 0.2230 0.2230
3253.586762 0.2230 0.2230 0.2230 0.2229 0.2224
3258.253859 0.2219 0.2214 0.2209 0.2207 0.2204
3262.920956 0.2202 0.2200 0.2200 0.2200 0.2200
3267.588053 0.2199 0.2194 0.2189 0.2183 0.2180
3272.255150 0.2180 0.2180 0.2180 0.2180 0.2180
3276.922247 0.2180 0.2180 0.2179 0.2177 0.2174
3281.589344 0.2172 0.2168 0.2160 0.2153 0.2146
3286.256441 0.2137 0.2124 0.2112 0.2099 0.2088
3290.923538 0.2081 0.2073 0.2066 0.2059 0.2057
3295.590635 0.2054 0.2052 0.2049 0.2044 0.2039
3300.257732 0.2034 0.2029 0.2027 0.2024 0.2022
3304.924829 0.2019 0.2014 0.2009 0.2004 0.1998
3309.591926 0.1991 0.1983 0.1976 0.1966 0.1948
3314.259023 0.1931 0.1913 0.1897 0.1885 0.1872
3318.926120 0.1860 0.1848 0.1841 0.1833 0.1826
3323.593217 0.1818 0.1808 0.1798 0.1788 0.1778
3328.260314 0.1771 0.1764 0.1756 0.1749 0.1744
3332.927411 0.1739 0.1734 0.1729 0.1721 0.1714
3337.594508 0.1706 0.1698 0.1688 0.1678 0.1668
3342.261606 0.1659 0.1654 0.1649 0.1644 0.1638
3346.928703 0.1631 0.1623 0.1616 0.1608 0.1601
3351.595800 0.1594 0.1586 0.1578 0.1568 0.1558
3356.262897 0.1548 0.1539 0.1531 0.1524 0.1516
3360.929994 0.1509 0.1501 0.1494 0.1486 0.1479
3365.597091 0.1471 0.1464 0.1456 0.1448 0.1433
3370.264188 0.1418 0.1403 0.1388 0.1373 0.1358
3374.931285 0.1343 0.1329 0.1324 0.1319 0.1314
3379.598382 0.1309 0.1302 0.1294 0.1286 0.1279
3384.265479 0.1271 0.1264 0.1256 0.1249 0.1241
3388.932576 0.1234 0.1226 0.1218 0.1203 0.1188
3393.599673 0.1173 0.1160 0.1157 0.1155 0.1152
3398.266770 0.1149 0.1144 0.1139 0.1134 0.1130
3402.933867 0.1127 0.1125 0.1122 0.1120 0.1120
3407.600964 0.1120 0.1120 0.1120 0.1120 0.1120
3412.268061 0.1120 0.1120 0.1123 0.1125 0.1128
3416.935158 0.1130 0.1135 0.1140 0.1146 0.1151
3421.602255 0.1161 0.1171 0.1181 0.1191 0.1204
3426.269352 0.1216 0.1229 0.1242 0.1264 0.1287
3430.936449 0.1309 0.1332 0.1357 0.1382 0.1407
3435.603546 0.1431 0.1446 0.1461 0.1476 0.1490
3440.270643 0.1495 0.1500 0.1505 0.1510 0.1510
3444.937740 0.1510 0.1510 0.1510 0.1510 0.1510
3449.604838 0.1510 0.1510 0.1510 0.1510 0.1510
3454.271935 0.1510 0.1510 0.1510 0.1510 0.1510
3458.939032 0.1510 0.1510 0.1510 0.1510 0.1510
3463.606129 0.1510 0.1510 0.1510 0.1513 0.1515
3468.273226 0.1518 0.1520 0.1520 0.1520 0.1520
3472.940323 0.1520 0.1535 0.1550 0.1565 0.1580
3477.607420 0.1618 0.1655 0.1692 0.1730 0.1752
3482.274517 0.1775 0.1797 0.1820 0.1842 0.1864
3486.941614 0.1887 0.1909 0.1929 0.1949 0.1969
3491.608711 0.1989 0.2021 0.2054 0.2088 0.2121
3496.275808 0.2173 0.2226 0.2278 0.2330 0.2365
3500.942905 0.2400 0.2435 0.2470 0.2487 0.2505
3505.610002 0.2522 0.2540 0.2547 0.2555 0.2562
3510.277099 0.2570 0.2584 0.2599 0.2614 0.2629
3514.944196 0.2635 0.2640 0.2645 0.2650 0.2652
3519.611293 0.2655 0.2657 0.2660 0.2667 0.2674
3524.278390 0.2682 0.2689 0.2690 0.2690 0.2690
3528.945487 0.2690 0.2695 0.2700 0.2705 0.2710
3533.612584 0.2717 0.2725 0.2732 0.2740 0.2747
3538.279681 0.2755 0.2762 0.2770 0.2772 0.2775
3542.946778 0.2777 0.2780 0.2785 0.2790 0.2795
3547.613875 0.2800 0.2800 0.2800 0.2800 0.2800
3552.280972 0.2800 0.2800 0.2800 0.2800 0.2796
3556.948070 0.2791 0.2786 0.2781 0.2780 0.2780
3561.615167 0.2780 0.2780 0.2780 0.2780 0.2780
3566.282264 0.2780 0.2778 0.2775 0.2773 0.2770
3570.949361 0.2770 0.2770 0.2770 0.2770 0.2770
3575.616458 0.2770 0.2770 0.2770 0.2770 0.2770
3580.283555 0.2770 0.2770 0.2770 0.2770 0.2770
3584.950652 0.2770 0.2770 0.2770 0.2770 0.2770
3589.617749 0.2770 0.2770 0.2770 0.2770 0.2770
3594.284846 0.2770 0.2770 0.2770 0.2770 0.2770
3598.951943 0.2770 0.2770 0.2776 0.2784 0.2791
3603.619040 0.2799 0.2800 0.2800 0.2800 0.2800
3608.286137 0.2800 0.2800 0.2800 0.2800 0.2800
3612.953234 0.2800 0.2800 0.2800 0.2800 0.2800
3617.620331 0.2800 0.2800 0.2800 0.2800 0.2800
3622.287428 0.2800 0.2800 0.2800 0.2800 0.2800
3626.954525 0.2800 0.2800 0.2800 0.2800 0.2800
3631.621622 0.2800 0.2800 0.2800 0.2796 0.2791
3636.288719 0.2786 0.2781 0.2778 0.2776 0.2773
3640.955816 0.2771 0.2766 0.2761 0.2756 0.2751
3645.622913 0.2748 0.2745 0.2743 0.2740 0.2736
3650.290010 0.2731 0.2726 0.2721 0.2720 0.2720
3654.957107 0.2720 0.2720 0.2720 0.2720 0.2720
3659.624204 0.2720 0.2720 0.2720 0.2720 0.2720
3664.291301 0.2720 0.2720 0.2720 0.2720 0.2720
3668.958399 0.2720 0.2720 0.2720 0.2718 0.2716
3673.625496 0.2713 0.2711 0.2710 0.2710 0.2710
3678.292593 0.2710 0.2706 0.2701 0.2696 0.2691
3682.959690 0.2690 0.2690 0.2690 0.2690 0.2690
3687.626787 0.2690 0.2690 0.2690 0.2690 0.2690
3692.293884 0.2690 0.2690 0.2688 0.2686 0.2683
3696.960981 0.2681 0.2676 0.2671 0.2666 0.2661
3701.628078 0.2653 0.2643 0.2633 0.2623 0.2611
3706.295175 0.2599 0.2586 0.2574 0.2570 0.2570
3710.962272 0.2570 0.2570 0.2565 0.2558 0.2550
3715.629369 0.2543 0.2540 0.2540 0.2540 0.2540
3720.296466 0.2538 0.2536 0.2533 0.2531 0.2530
3724.963563 0.2530 0.2530 0.2530 0.2527 0.2522
3729.630660 0.2517 0.2512 0.2510 0.2510 0.2510
3734.297757 0.2510 0.2508 0.2506 0.2503 0.2501
3738.964854 0.2500 0.2500 0.2500 0.2500 0.2500
3743.631951 0.2500 0.2500 0.2500 0.2500 0.2500
3748.299048 0.2500 0.2500 0.2497 0.2492 0.2487
3752.966145 0.2482 0.2478 0.2476 0.2473 0.2471
3757.633242 0.2470 0.2470 0.2470 0.2470 0.2470
3762.300339 0.2470 0.2470 0.2470 0.2470 0.2470
3766.967436 0.2470 0.2470 0.2470 0.2470 0.2470
3771.634533 0.2470 0.2470 0.2470 0.2470 0.2470
3776.301631 0.2470 0.2470 0.2470 0.2470 0.2470
3780.968728 0.2470 0.2470 0.2470 0.2470 0.2470
3785.635825 0.2470 0.2470 0.2470 0.2470 0.2470
3790.302922 0.2470 0.2467 0.2462 0.2457 0.2452
3794.970019 0.2450 0.2450 0.2450 0.2450 0.2450
3799.637116 0.2450 0.2450 0.2450 0.2450 0.2450
3804.304213 0.2450 0.2450 0.2450 0.2450 0.2450
3808.971310 0.2450 0.2450 0.2450 0.2450 0.2450
3813.638407 0.2450 0.2450 0.2450 0.2450 0.2450
3818.305504 0.2450 0.2450 0.2450 0.2450 0.2450
3822.972601 0.2450 0.2450 0.2450 0.2450 0.2450
3827.639698 0.2450 0.2450 0.2450 0.2450 0.2450
3832.306795 0.2450 0.2450 0.2450 0.2450 0.2449
3836.973892 0.2446 0.2444 0.2441 0.2437 0.2432
3841.640989 0.2427 0.2422 0.2420 0.2420 0.2420
3846.308086 0.2420 0.2420 0.2420 0.2420 0.2420
3850.975183 0.2420 0.2420 0.2420 0.2420 0.2420
3855.642280 0.2420 0.2420 0.2420 0.2420 0.2420
3860.309377 0.2420 0.2420 0.2420 0.2420 0.2420
3864.976474 0.2420 0.2420 0.2420 0.2420 0.2420
3869.643571 0.2420 0.2420 0.2420 0.2420 0.2420
3874.310668 0.2420 0.2420 0.2420 0.2419 0.2416
3878.977765 0.2414 0.2411 0.2410 0.2410 0.2410
3883.644862 0.2410 0.2410 0.2410 0.2410 0.2410
3888.311960 0.2410 0.2410 0.2410 0.2410 0.2410
3892.979057 0.2410 0.2410 0.2410 0.2410 0.2410
3897.646154 0.2410 0.2410 0.2408 0.2403 0.2398
3902.313251 0.2393 0.2390 0.2390 0.2390 0.2390
3906.980348 0.2390 0.2390 0.2390 0.2390 0.2387
3911.647445 0.2379 0.2372 0.2364 0.2359 0.2356
3916.314542 0.2354 0.2351 0.2350 0.2350 0.2350
3920.981639 0.2350 0.2350 0.2350 0.2350 0.2350
3925.648736 0.2348 0.2343 0.2338 0.2333 0.2330
3930.315833 0.2330 0.2330 0.2330 0.2329 0.2327
3934.982930 0.2324 0.2322 0.2320 0.2320 0.2320
3939.650027 0.2320 0.2320 0.2320 0.2320 0.2320
3944.317124 0.2320 0.2320 0.2320 0.2320 0.2320
3948.984221 0.2320 0.2320 0.2320 0.2320 0.2320
3953.651318 0.2320 0.2320 0.2320 0.2320 0.2320
3958.318415 0.2320 0.2320 0.2320 0.2320 0.2320
3962.985512 0.2320 0.2320 0.2320 0.2320 0.2318
3967.652609 0.2313 0.2308 0.2303 0.2300 0.2300
3972.319706 0.2300 0.2300 0.2300 0.2300 0.2300
3976.986803 0.2300 0.2300 0.2300 0.2300 0.2300
3981.653900 0.2300 0.2300 0.2300 0.2300 0.2300
3986.320997 0.2300 0.2300 0.2300
##END=
