##TITLE=POTASSIUM METASILICATE
$$ C.P.
##JCAMP-DX=4.24
##DATA TYPE=INFRARED SPECTRUM
##CLASS=COBLENTZ
##ORIGIN=MELLON INSTITUTE
##OWNER=COBLENTZ SOCIETY
Collection (C) 2018 copyright by the U.S. Secretary of Commerce
on behalf of the United States of America. All rights reserved.
##DATE=Not specified, most likely prior to 1970
##MOLFORM=K2 Si O3
##SOURCE REFERENCE=COBLENTZ NO. 515
##$NIST ID=B6000515
##$NIST SOURCE=COBLENTZ
##$NIST IMAGE=cob515
##SPECTROMETER/DATA SYSTEM=Not specified, most likely a prism, grating, or hybrid spectrometer.
##STATE=SOLID (NUJOL MULL)
##PATH LENGTH=
$$SPECTRAL CONTAMINATION DUE TO OIL AROUND 2900, 1450, 1380, 720 CM^-^1
##SAMPLING PROCEDURE=TRANSMISSION
##RESOLUTION=4
##DATA PROCESSING=DIGITIZED BY NIST FROM HARD COPY
##XUNITS=MICROMETERS
##YUNITS=TRANSMITTANCE
##XFACTOR=1.000000
##YFACTOR=1
##DELTAX=000.006828
##FIRSTX=2.024
##LASTX=15.9872
##FIRSTY=0.963
##MAXX=15.9872
##MINX=2.024
##MAXY=0.979
##MINY=0.02
##NPOINTS=2046
##XYDATA=(X++(Y..Y))
2.024000 0.9630 0.9630 0.9630 0.9650 0.9650
2.058157 0.9690 0.9700 0.9740 0.9740 0.9750
2.092000 0.9770 0.9770 0.9770 0.9770 0.9770
2.126157 0.9770 0.9790 0.9770 0.9770 0.9770
2.160000 0.9770 0.9770 0.9770 0.9770 0.9770
2.194157 0.9770 0.9770 0.9770 0.9770 0.9770
2.228000 0.9770 0.9750 0.9750 0.9750 0.9740
2.262157 0.9670 0.9620 0.9550 0.9450 0.9390
2.297000 0.9270 0.9200 0.9080 0.8960 0.8950
2.331157 0.8900 0.8900 0.8860 0.8840 0.8830
2.365000 0.8830 0.8790 0.8780 0.8780 0.8760
2.399157 0.8760 0.8740 0.8720 0.8710 0.8710
2.433000 0.8690 0.8650 0.8640 0.8640 0.8640
2.467157 0.8640 0.8620 0.8620 0.8620 0.8640
2.502000 0.8640 0.8640 0.8620 0.8600 0.8600
2.536157 0.8590 0.8530 0.8530 0.8520 0.8500
2.570000 0.8470 0.8430 0.8410 0.8400 0.8360
2.604157 0.8360 0.8350 0.8330 0.8330 0.8290
2.638000 0.8260 0.8160 0.8020 0.7860 0.7810
2.672157 0.7740 0.7730 0.7690 0.7690 0.7690
2.706000 0.7690 0.7640 0.7590 0.7400 0.7190
2.740157 0.7040 0.6900 0.6630 0.6460 0.6350
2.775000 0.6270 0.6030 0.6010 0.5920 0.5820
2.809157 0.5790 0.5750 0.5700 0.5670 0.5650
2.843000 0.5610 0.5540 0.5530 0.5510 0.5410
2.877157 0.5390 0.5370 0.5320 0.5290 0.5250
2.911000 0.5240 0.5220 0.5200 0.5150 0.5120
2.945157 0.5100 0.5080 0.5060 0.5060 0.5060
2.980000 0.5050 0.5050 0.5030 0.5030 0.5010
3.014157 0.5010 0.5010 0.5010 0.5010 0.5010
3.048000 0.5010 0.5030 0.5030 0.5030 0.5030
3.082157 0.5030 0.5030 0.5030 0.5030 0.5010
3.116000 0.5010 0.5000 0.5000 0.4980 0.4980
3.150157 0.4960 0.4940 0.4930 0.4910 0.4890
3.184000 0.4870 0.4870 0.4870 0.4870 0.4870
3.218157 0.4860 0.4860 0.4840 0.4820 0.4740
3.253000 0.4690 0.4630 0.4500 0.4410 0.4290
3.287157 0.4030 0.3950 0.3650 0.3380 0.2980
3.321000 0.2470 0.1820 0.1300 0.1010 0.0890
3.355157 0.0730 0.0530 0.0490 0.0440 0.0370
3.389000 0.0320 0.0290 0.0250 0.0240 0.0220
3.423157 0.0240 0.0240 0.0250 0.0250 0.0240
3.457000 0.0220 0.0200 0.0200 0.0220 0.0240
3.491157 0.0300 0.0420 0.0840 0.1820 0.2610
3.526000 0.3020 0.3500 0.4120 0.4620 0.4910
3.560157 0.5200 0.5440 0.5800 0.5920 0.6010
3.594000 0.6210 0.6270 0.6420 0.6490 0.6580
3.628157 0.6590 0.6630 0.6630 0.6630 0.6610
3.662000 0.6610 0.6630 0.6700 0.6760 0.6820
3.696157 0.6830 0.6830 0.6830 0.6830 0.6820
3.731000 0.6830 0.6890 0.6900 0.6940 0.6970
3.765157 0.7010 0.7020 0.7110 0.7130 0.7140
3.799000 0.7160 0.7160 0.7190 0.7330 0.7380
3.833157 0.7430 0.7490 0.7540 0.7590 0.7680
3.867000 0.7740 0.7810 0.7850 0.7920 0.7980
3.901157 0.8100 0.8120 0.8190 0.8260 0.8310
3.935000 0.8350 0.8380 0.8450 0.8470 0.8480
3.969157 0.8480 0.8480 0.8480 0.8480 0.8530
4.004000 0.8570 0.8600 0.8600 0.8600 0.8600
4.038157 0.8600 0.8600 0.8600 0.8600 0.8600
4.072000 0.8600 0.8620 0.8620 0.8600 0.8600
4.106157 0.8600 0.8600 0.8590 0.8550 0.8520
4.140000 0.8480 0.8450 0.8450 0.8450 0.8430
4.174157 0.8430 0.8380 0.8330 0.8290 0.8260
4.209000 0.8190 0.8160 0.8040 0.8020 0.8020
4.243157 0.8000 0.7980 0.7970 0.7980 0.7980
4.277000 0.7980 0.7980 0.7980 0.7930 0.7920
4.311157 0.7920 0.7920 0.7920 0.7920 0.7920
4.345000 0.7920 0.7930 0.7970 0.7980 0.8020
4.379157 0.8170 0.8190 0.8190 0.8210 0.8210
4.413000 0.8190 0.8170 0.8160 0.8170 0.8190
4.447157 0.8210 0.8230 0.8240 0.8240 0.8240
4.482000 0.8230 0.8240 0.8240 0.8240 0.8240
4.516157 0.8240 0.8240 0.8260 0.8260 0.8260
4.550000 0.8280 0.8310 0.8350 0.8360 0.8360
4.584157 0.8360 0.8360 0.8350 0.8350 0.8350
4.618000 0.8350 0.8350 0.8350 0.8360 0.8360
4.652157 0.8380 0.8380 0.8380 0.8380 0.8400
4.687000 0.8400 0.8410 0.8410 0.8430 0.8470
4.721157 0.8480 0.8480 0.8500 0.8500 0.8500
4.755000 0.8480 0.8470 0.8430 0.8400 0.8400
4.789157 0.8380 0.8400 0.8380 0.8380 0.8380
4.823000 0.8360 0.8350 0.8330 0.8280 0.8240
4.857157 0.8240 0.8240 0.8230 0.8230 0.8230
4.891000 0.8240 0.8240 0.8230 0.8230 0.8230
4.925157 0.8160 0.8120 0.8120 0.8120 0.8100
4.960000 0.8100 0.8100 0.8070 0.8050 0.8040
4.994157 0.8040 0.8000 0.8000 0.7980 0.7980
5.028000 0.7950 0.7950 0.7950 0.7930 0.7880
5.062157 0.7830 0.7800 0.7740 0.7740 0.7710
5.096000 0.7710 0.7690 0.7660 0.7640 0.7640
5.130157 0.7620 0.7610 0.7560 0.7520 0.7500
5.164000 0.7490 0.7490 0.7450 0.7380 0.7380
5.198157 0.7350 0.7310 0.7300 0.7300 0.7260
5.233000 0.7230 0.7190 0.7160 0.7140 0.7130
5.267157 0.7110 0.7090 0.7040 0.7040 0.7040
5.301000 0.7040 0.7020 0.7020 0.6950 0.6940
5.335157 0.6920 0.6870 0.6830 0.6820 0.6820
5.369000 0.6820 0.6780 0.6780 0.6760 0.6750
5.403157 0.6730 0.6710 0.6710 0.6700 0.6700
5.438000 0.6660 0.6660 0.6660 0.6640 0.6590
5.472157 0.6590 0.6580 0.6580 0.6580 0.6580
5.506000 0.6560 0.6540 0.6540 0.6520 0.6520
5.540157 0.6490 0.6460 0.6440 0.6400 0.6370
5.574000 0.6370 0.6370 0.6350 0.6350 0.6340
5.608157 0.6320 0.6300 0.6280 0.6280 0.6270
5.642000 0.6280 0.6280 0.6300 0.6280 0.6250
5.676157 0.6210 0.6200 0.6200 0.6200 0.6210
5.711000 0.6200 0.6200 0.6200 0.6200 0.6200
5.745157 0.6180 0.6130 0.6090 0.6080 0.6060
5.779000 0.6040 0.6030 0.6010 0.6010 0.5990
5.813157 0.5970 0.5970 0.5960 0.5940 0.5920
5.847000 0.5910 0.5890 0.5870 0.5870 0.5890
5.881157 0.5890 0.5870 0.5840 0.5820 0.5790
5.916000 0.5770 0.5730 0.5700 0.5700 0.5670
5.950157 0.5630 0.5600 0.5600 0.5600 0.5580
5.984000 0.5540 0.5540 0.5530 0.5480 0.5460
6.018157 0.5420 0.5370 0.5320 0.5290 0.5270
6.052000 0.5250 0.5240 0.5240 0.5240 0.5240
6.086157 0.5220 0.5200 0.5180 0.5180 0.5180
6.120000 0.5150 0.5150 0.5150 0.5150 0.5130
6.154157 0.5130 0.5150 0.5150 0.5200 0.5200
6.189000 0.5220 0.5220 0.5240 0.5270 0.5320
6.223157 0.5360 0.5360 0.5370 0.5410 0.5420
6.257000 0.5420 0.5420 0.5440 0.5440 0.5410
6.291157 0.5390 0.5390 0.5370 0.5360 0.5360
6.325000 0.5340 0.5340 0.5340 0.5360 0.5360
6.359157 0.5370 0.5390 0.5390 0.5390 0.5360
6.394000 0.5360 0.5360 0.5340 0.5320 0.5320
6.428157 0.5320 0.5320 0.5340 0.5340 0.5340
6.462000 0.5340 0.5320 0.5290 0.5290 0.5290
6.496157 0.5300 0.5300 0.5300 0.5300 0.5290
6.530000 0.5290 0.5290 0.5270 0.5270 0.5250
6.564157 0.5250 0.5240 0.5240 0.5240 0.5240
6.598000 0.5220 0.5200 0.5180 0.5180 0.5170
6.632157 0.5150 0.5150 0.5150 0.5120 0.5100
6.667000 0.5050 0.5030 0.5030 0.4980 0.4940
6.701157 0.4910 0.4890 0.4840 0.4740 0.4580
6.735000 0.4340 0.4170 0.4020 0.3840 0.3640
6.769157 0.3550 0.3480 0.3290 0.3000 0.2690
6.803000 0.2300 0.2040 0.1890 0.1710 0.1630
6.837157 0.1560 0.1540 0.1540 0.1520 0.1510
6.872000 0.1440 0.1400 0.1390 0.1390 0.1390
6.906157 0.1370 0.1370 0.1390 0.1420 0.1490
6.940000 0.1540 0.1630 0.1710 0.1820 0.1990
6.974157 0.2060 0.2190 0.2380 0.2570 0.2740
7.008000 0.2950 0.3040 0.3120 0.3120 0.3120
7.042157 0.3120 0.3190 0.3240 0.3330 0.3410
7.076000 0.3520 0.3550 0.3600 0.3640 0.3640
7.110157 0.3640 0.3640 0.3640 0.3640 0.3640
7.145000 0.3640 0.3590 0.3570 0.3550 0.3530
7.179157 0.3450 0.3410 0.3140 0.2930 0.2730
7.213000 0.2570 0.2400 0.2230 0.2160 0.2020
7.247157 0.2020 0.2020 0.2020 0.2020 0.2020
7.281000 0.2020 0.2020 0.2020 0.2040 0.2110
7.315157 0.2130 0.2250 0.2350 0.2450 0.2520
7.349000 0.2620 0.2680 0.2760 0.2860 0.2920
7.383157 0.2930 0.2980 0.3020 0.3040 0.3040
7.418000 0.3050 0.3050 0.3050 0.3050 0.3140
7.452157 0.3160 0.3170 0.3230 0.3240 0.3260
7.486000 0.3280 0.3310 0.3350 0.3350 0.3380
7.520157 0.3410 0.3450 0.3450 0.3450 0.3450
7.554000 0.3470 0.3500 0.3530 0.3550 0.3550
7.588157 0.3550 0.3550 0.3530 0.3550 0.3550
7.623000 0.3550 0.3570 0.3550 0.3550 0.3550
7.657157 0.3550 0.3550 0.3550 0.3530 0.3530
7.691000 0.3530 0.3530 0.3550 0.3570 0.3570
7.725157 0.3570 0.3550 0.3570 0.3570 0.3590
7.759000 0.3590 0.3590 0.3570 0.3570 0.3550
7.793157 0.3530 0.3530 0.3530 0.3530 0.3520
7.827000 0.3520 0.3520 0.3520 0.3500 0.3500
7.861157 0.3500 0.3500 0.3480 0.3470 0.3410
7.896000 0.3400 0.3400 0.3410 0.3410 0.3430
7.930157 0.3450 0.3480 0.3530 0.3530 0.3530
7.964000 0.3530 0.3520 0.3520 0.3530 0.3550
7.998157 0.3570 0.3570 0.3570 0.3570 0.3570
8.032000 0.3550 0.3530 0.3520 0.3500 0.3500
8.066157 0.3500 0.3470 0.3470 0.3450 0.3450
8.101000 0.3450 0.3450 0.3450 0.3450 0.3430
8.135157 0.3430 0.3410 0.3400 0.3380 0.3360
8.169000 0.3360 0.3360 0.3350 0.3330 0.3330
8.203157 0.3310 0.3290 0.3260 0.3240 0.3230
8.237000 0.3210 0.3190 0.3140 0.3100 0.3050
8.271157 0.3050 0.3050 0.3050 0.3050 0.3050
8.305000 0.3050 0.3040 0.3040 0.3020 0.3020
8.339157 0.3020 0.3020 0.2980 0.2970 0.2950
8.374000 0.2930 0.2930 0.2920 0.2860 0.2850
8.408157 0.2850 0.2850 0.2830 0.2830 0.2830
8.442000 0.2830 0.2800 0.2740 0.2710 0.2710
8.476157 0.2690 0.2690 0.2680 0.2620 0.2610
8.510000 0.2590 0.2570 0.2540 0.2520 0.2500
8.544157 0.2500 0.2490 0.2470 0.2450 0.2450
8.579000 0.2430 0.2430 0.2400 0.2350 0.2300
8.613157 0.2230 0.2230 0.2230 0.2210 0.2190
8.647000 0.2190 0.2180 0.2160 0.2140 0.2130
8.681157 0.2090 0.2040 0.2020 0.2040 0.2020
8.715000 0.2010 0.2010 0.2010 0.2010 0.2010
8.749157 0.1990 0.1990 0.1990 0.1990 0.1970
8.783000 0.1970 0.1950 0.1940 0.1920 0.1920
8.817157 0.1920 0.1920 0.1900 0.1890 0.1830
8.852000 0.1820 0.1780 0.1780 0.1780 0.1780
8.886157 0.1780 0.1780 0.1780 0.1780 0.1780
8.920000 0.1780 0.1780 0.1780 0.1760 0.1760
8.954157 0.1760 0.1750 0.1750 0.1750 0.1730
8.988000 0.1730 0.1730 0.1710 0.1700 0.1680
9.022157 0.1680 0.1680 0.1680 0.1680 0.1660
9.056000 0.1660 0.1660 0.1660 0.1660 0.1660
9.090157 0.1660 0.1660 0.1660 0.1640 0.1640
9.125000 0.1640 0.1640 0.1630 0.1630 0.1630
9.159157 0.1640 0.1660 0.1660 0.1660 0.1660
9.193000 0.1660 0.1640 0.1640 0.1630 0.1630
9.227157 0.1610 0.1610 0.1610 0.1590 0.1560
9.261000 0.1580 0.1580 0.1580 0.1580 0.1580
9.295157 0.1580 0.1540 0.1540 0.1540 0.1540
9.330000 0.1540 0.1540 0.1540 0.1520 0.1520
9.364157 0.1520 0.1490 0.1470 0.1470 0.1490
9.398000 0.1490 0.1460 0.1460 0.1460 0.1460
9.432157 0.1460 0.1460 0.1440 0.1400 0.1400
9.466000 0.1390 0.1390 0.1390 0.1390 0.1390
9.500157 0.1390 0.1390 0.1390 0.1390 0.1390
9.534000 0.1390 0.1390 0.1390 0.1370 0.1370
9.568157 0.1370 0.1370 0.1350 0.1350 0.1370
9.603000 0.1350 0.1350 0.1350 0.1340 0.1340
9.637157 0.1300 0.1300 0.1300 0.1300 0.1300
9.671000 0.1300 0.1300 0.1300 0.1300 0.1300
9.705157 0.1300 0.1300 0.1300 0.1300 0.1300
9.739000 0.1280 0.1270 0.1270 0.1270 0.1270
9.773157 0.1250 0.1250 0.1250 0.1230 0.1230
9.808000 0.1230 0.1230 0.1230 0.1230 0.1210
9.842157 0.1210 0.1200 0.1200 0.1200 0.1200
9.876000 0.1180 0.1180 0.1180 0.1180 0.1180
9.910157 0.1160 0.1160 0.1160 0.1160 0.1180
9.944000 0.1180 0.1160 0.1160 0.1180 0.1160
9.978157 0.1160 0.1160 0.1150 0.1150 0.1150
10.012000 0.1150 0.1150 0.1150 0.1150 0.1130
10.046157 0.1130 0.1130 0.1130 0.1130 0.1150
10.081000 0.1150 0.1150 0.1130 0.1130 0.1130
10.115157 0.1130 0.1130 0.1150 0.1150 0.1130
10.149000 0.1130 0.1130 0.1150 0.1150 0.1150
10.183157 0.1150 0.1150 0.1150 0.1150 0.1150
10.217000 0.1150 0.1150 0.1150 0.1150 0.1160
10.251157 0.1160 0.1160 0.1160 0.1150 0.1150
10.286000 0.1150 0.1150 0.1160 0.1160 0.1180
10.320157 0.1180 0.1160 0.1160 0.1160 0.1160
10.354000 0.1160 0.1180 0.1200 0.1200 0.1200
10.388157 0.1230 0.1230 0.1270 0.1280 0.1300
10.422000 0.1300 0.1320 0.1320 0.1320 0.1320
10.456157 0.1320 0.1340 0.1340 0.1340 0.1340
10.490000 0.1350 0.1350 0.1370 0.1370 0.1370
10.524157 0.1390 0.1400 0.1390 0.1390 0.1390
10.559000 0.1390 0.1390 0.1390 0.1390 0.1400
10.593157 0.1400 0.1420 0.1420 0.1440 0.1460
10.627000 0.1460 0.1460 0.1460 0.1460 0.1460
10.661157 0.1460 0.1460 0.1440 0.1420 0.1420
10.695000 0.1420 0.1440 0.1440 0.1440 0.1460
10.729157 0.1460 0.1460 0.1460 0.1460 0.1490
10.764000 0.1520 0.1520 0.1520 0.1510 0.1510
10.798157 0.1520 0.1520 0.1510 0.1510 0.1510
10.832000 0.1520 0.1520 0.1540 0.1560 0.1560
10.866157 0.1560 0.1560 0.1560 0.1560 0.1560
10.900000 0.1560 0.1560 0.1540 0.1540 0.1580
10.934157 0.1580 0.1560 0.1560 0.1580 0.1590
10.968000 0.1610 0.1610 0.1630 0.1630 0.1640
11.002157 0.1640 0.1660 0.1660 0.1640 0.1640
11.037000 0.1630 0.1640 0.1640 0.1640 0.1640
11.071157 0.1640 0.1640 0.1640 0.1640 0.1660
11.105000 0.1660 0.1660 0.1660 0.1660 0.1660
11.139157 0.1660 0.1640 0.1640 0.1640 0.1640
11.173000 0.1640 0.1640 0.1640 0.1640 0.1640
11.207157 0.1640 0.1640 0.1640 0.1640 0.1660
11.241000 0.1660 0.1660 0.1660 0.1680 0.1700
11.275157 0.1700 0.1700 0.1700 0.1710 0.1710
11.310000 0.1730 0.1730 0.1730 0.1730 0.1730
11.344157 0.1730 0.1730 0.1760 0.1760 0.1780
11.378000 0.1780 0.1800 0.1850 0.1850 0.1890
11.412157 0.1900 0.1900 0.1890 0.1890 0.1890
11.446000 0.1890 0.1900 0.1920 0.1920 0.1920
11.480157 0.1920 0.1920 0.1920 0.1950 0.1990
11.515000 0.2010 0.2010 0.2010 0.2010 0.2010
11.549157 0.2010 0.2020 0.2020 0.2020 0.2020
11.583000 0.2020 0.2020 0.2020 0.2020 0.2020
11.617157 0.2020 0.2020 0.2020 0.2020 0.2020
11.651000 0.2020 0.2020 0.2040 0.2040 0.2020
11.685157 0.2040 0.2040 0.2070 0.2090 0.2090
11.719000 0.2090 0.2110 0.2110 0.2110 0.2110
11.753157 0.2130 0.2130 0.2140 0.2140 0.2140
11.788000 0.2160 0.2180 0.2190 0.2190 0.2190
11.822157 0.2190 0.2210 0.2210 0.2230 0.2230
11.856000 0.2250 0.2260 0.2260 0.2280 0.2280
11.890157 0.2280 0.2350 0.2400 0.2400 0.2400
11.924000 0.2420 0.2420 0.2420 0.2430 0.2430
11.958157 0.2470 0.2500 0.2500 0.2500 0.2520
11.993000 0.2540 0.2560 0.2560 0.2590 0.2610
12.027157 0.2620 0.2640 0.2660 0.2680 0.2690
12.061000 0.2730 0.2780 0.2800 0.2810 0.2830
12.095157 0.2880 0.2900 0.2930 0.3000 0.3000
12.129000 0.3020 0.3040 0.3040 0.3040 0.3040
12.163157 0.3040 0.3040 0.3090 0.3100 0.3100
12.197000 0.3170 0.3230 0.3260 0.3290 0.3330
12.231157 0.3360 0.3360 0.3360 0.3400 0.3410
12.266000 0.3430 0.3430 0.3450 0.3450 0.3470
12.300157 0.3470 0.3480 0.3500 0.3530 0.3550
12.334000 0.3550 0.3590 0.3600 0.3600 0.3620
12.368157 0.3620 0.3640 0.3640 0.3650 0.3670
12.402000 0.3690 0.3710 0.3710 0.3720 0.3740
12.436157 0.3760 0.3760 0.3760 0.3780 0.3780
12.471000 0.3780 0.3790 0.3810 0.3830 0.3840
12.505157 0.3840 0.3840 0.3840 0.3840 0.3840
12.539000 0.3840 0.3840 0.3840 0.3840 0.3840
12.573157 0.3840 0.3840 0.3840 0.3840 0.3840
12.607000 0.3830 0.3840 0.3840 0.3860 0.3860
12.641157 0.3860 0.3860 0.3860 0.3860 0.3880
12.675000 0.3910 0.3910 0.3930 0.3930 0.3950
12.709157 0.3950 0.3960 0.3980 0.3980 0.3980
12.744000 0.4000 0.4000 0.4000 0.4000 0.4000
12.778157 0.4000 0.4000 0.4000 0.4000 0.4000
12.812000 0.4000 0.3980 0.4000 0.4000 0.3980
12.846157 0.3960 0.3950 0.3950 0.3930 0.3910
12.880000 0.3900 0.3880 0.3840 0.3840 0.3840
12.914157 0.3840 0.3840 0.3840 0.3840 0.3840
12.948000 0.3830 0.3830 0.3810 0.3810 0.3790
12.982157 0.3790 0.3790 0.3810 0.3810 0.3810
13.017000 0.3810 0.3810 0.3810 0.3810 0.3810
13.051157 0.3810 0.3830 0.3830 0.3810 0.3810
13.085000 0.3810 0.3810 0.3810 0.3810 0.3830
13.119157 0.3830 0.3830 0.3840 0.3840 0.3840
13.153000 0.3860 0.3860 0.3860 0.3860 0.3880
13.187157 0.3880 0.3900 0.3900 0.3930 0.3930
13.222000 0.3930 0.3930 0.3950 0.3950 0.3960
13.256157 0.3960 0.3980 0.3980 0.3980 0.4000
13.290000 0.4000 0.4000 0.4020 0.4020 0.4030
13.324157 0.4030 0.4030 0.4050 0.4100 0.4100
13.358000 0.4120 0.4120 0.4150 0.4170 0.4170
13.392157 0.4200 0.4200 0.4200 0.4220 0.4240
13.426000 0.4240 0.4240 0.4240 0.4260 0.4260
13.460157 0.4240 0.4240 0.4240 0.4240 0.4240
13.495000 0.4240 0.4310 0.4340 0.4340 0.4340
13.529157 0.4340 0.4360 0.4380 0.4390 0.4390
13.563000 0.4430 0.4460 0.4480 0.4480 0.4480
13.597157 0.4480 0.4510 0.4510 0.4510 0.4510
13.631000 0.4530 0.4530 0.4530 0.4530 0.4550
13.665157 0.4550 0.4550 0.4550 0.4510 0.4510
13.700000 0.4530 0.4550 0.4550 0.4550 0.4570
13.734157 0.4550 0.4550 0.4550 0.4530 0.4530
13.768000 0.4580 0.4620 0.4620 0.4620 0.4620
13.802157 0.4600 0.4600 0.4580 0.4600 0.4600
13.836000 0.4620 0.4620 0.4620 0.4620 0.4630
13.870157 0.4630 0.4630 0.4690 0.4740 0.4770
13.904000 0.4790 0.4810 0.4840 0.4840 0.4870
13.938157 0.4910 0.4940 0.4980 0.5010 0.5030
13.973000 0.5030 0.5060 0.5080 0.5080 0.5100
14.007157 0.5130 0.5170 0.5180 0.5200 0.5220
14.041000 0.5220 0.5220 0.5240 0.5250 0.5270
14.075157 0.5270 0.5270 0.5320 0.5340 0.5340
14.109000 0.5340 0.5360 0.5370 0.5370 0.5370
14.143157 0.5390 0.5410 0.5420 0.5420 0.5490
14.178000 0.5510 0.5510 0.5530 0.5540 0.5540
14.212157 0.5580 0.5600 0.5600 0.5610 0.5610
14.246000 0.5630 0.5650 0.5650 0.5670 0.5680
14.280157 0.5720 0.5730 0.5750 0.5770 0.5770
14.314000 0.5790 0.5790 0.5820 0.5840 0.5850
14.348157 0.5870 0.5890 0.5890 0.5910 0.5910
14.382000 0.5940 0.5960 0.5990 0.5990 0.6010
14.416157 0.6010 0.6010 0.5990 0.5990 0.6010
14.451000 0.6010 0.6010 0.6010 0.6010 0.6030
14.485157 0.6030 0.6030 0.6030 0.6030 0.6030
14.519000 0.6040 0.6040 0.6040 0.6040 0.6040
14.553157 0.6040 0.6030 0.6040 0.6040 0.6060
14.587000 0.6060 0.6080 0.6060 0.6080 0.6080
14.621157 0.6110 0.6130 0.6130 0.6130 0.6130
14.655000 0.6110 0.6110 0.6110 0.6110 0.6090
14.689157 0.6090 0.6090 0.6080 0.6090 0.6080
14.724000 0.6060 0.6060 0.6040 0.6030 0.6030
14.758157 0.6010 0.6010 0.6010 0.6010 0.6010
14.792000 0.6010 0.6010 0.6010 0.6010 0.6010
14.826157 0.6010 0.6010 0.6010 0.6010 0.6030
14.860000 0.6030 0.6030 0.6010 0.5990 0.5990
14.894157 0.5990 0.5970 0.5960 0.5940 0.5920
14.929000 0.5890 0.5850 0.5850 0.5840 0.5840
14.963157 0.5840 0.5820 0.5820 0.5840 0.5840
14.997000 0.5840 0.5840 0.5820 0.5820 0.5820
15.031157 0.5850 0.5850 0.5870 0.5870 0.5870
15.065000 0.5890 0.5890 0.5870 0.5870 0.5850
15.099157 0.5850 0.5850 0.5840 0.5840 0.5840
15.133000 0.5840 0.5840 0.5850 0.5850 0.5850
15.167157 0.5870 0.5890 0.5890 0.5850 0.5840
15.202000 0.5840 0.5820 0.5820 0.5820 0.5800
15.236157 0.5800 0.5800 0.5800 0.5800 0.5800
15.270000 0.5800 0.5790 0.5790 0.5770 0.5770
15.304157 0.5770 0.5750 0.5750 0.5750 0.5770
15.338000 0.5750 0.5750 0.5750 0.5750 0.5770
15.372157 0.5770 0.5750 0.5750 0.5770 0.5770
15.407000 0.5770 0.5750 0.5750 0.5720 0.5680
15.441157 0.5680 0.5670 0.5670 0.5650 0.5650
15.475000 0.5650 0.5630 0.5630 0.5610 0.5610
15.509157 0.5630 0.5610 0.5610 0.5610 0.5580
15.543000 0.5580 0.5580 0.5560 0.5560 0.5560
15.577157 0.5560 0.5560 0.5560 0.5560 0.5560
15.611000 0.5540 0.5540 0.5540 0.5560 0.5540
15.645157 0.5540 0.5540 0.5540 0.5540 0.5540
15.680000 0.5540 0.5560 0.5560 0.5560 0.5560
15.714157 0.5560 0.5560 0.5540 0.5540 0.5540
15.748000 0.5560 0.5540 0.5540 0.5530 0.5530
15.782157 0.5530 0.5530 0.5530 0.5540 0.5540
15.816000 0.5560 0.5540 0.5540 0.5540 0.5540
15.850157 0.5540 0.5540 0.5540 0.5530 0.5530
15.885000 0.5510 0.5510 0.5510 0.5530 0.5540
15.919157 0.5540 0.5540 0.5540 0.5540 0.5540
15.953000 0.5540 0.5540 0.5540 0.5540 0.5560
15.987157 0.5540
##END=
