##TITLE=ASPARTIC ACID, DIBENZYL ESTER, HYDROCHLORIDE
##JCAMP-DX=4.24
##DATA TYPE=INFRARED SPECTRUM
##CLASS=COBLENTZ III
##ORIGIN=SOUTHERN RESEARCH INSTITUTE
##OWNER=COBLENTZ SOCIETY
Collection (C) 2018 copyright by the U.S. Secretary of Commerce
on behalf of the United States of America. All rights reserved.
##DATE=1960/04/29
##NAMES=dibenzyl 2-aminosuccinate hydrochloride
##MOLFORM=C18 H20 Cl N O4
##SOURCE REFERENCE=COBLENTZ NO. 7355
##$NIST ID=B6007355
##$NIST SOURCE=COBLENTZ
##$NIST IMAGE=cob7355
##SPECTROMETER/DATA SYSTEM=PERKIN-ELMER 21 (GRATING)
##INSTRUMENT PARAMETERS=FILTER CHANGE AT ABOUT 1025 CM^-^1
##STATE=SOLID (0.7 mg / 650 mg KBr DISC)
$$ PURITY - ANALYTICAL
$$SPECTRAL CONTAMINATION DUE TO H2O AROUND 3450 CM^-^1
##SAMPLING PROCEDURE=TRANSMISSION
##RESOLUTION=2
##DATA PROCESSING=DIGITIZED BY NIST FROM HARD COPY (FROM TWO SEGMENTS)
##XUNITS=1/CM
##YUNITS=TRANSMITTANCE
##XFACTOR=1.000000
##YFACTOR=1
##DELTAX=1.294498
##FIRSTX=605.204
##LASTX=4004.56
##FIRSTY=0.779
##MAXX=4004.56
##MINX=605.204
##MAXY=0.965
##MINY=0.186493
##NPOINTS=2627
##XYDATA=(X++(Y..Y))
605.204000 0.7790 0.7780 0.7770 0.7770 0.7750
611.676490 0.7740 0.7740 0.7730 0.7701 0.7681
618.148980 0.7680 0.7680 0.7661 0.7660 0.7651
624.621470 0.7641 0.7622 0.7620 0.7611 0.7574
631.093960 0.7561 0.7551 0.7550 0.7532 0.7513
637.566450 0.7510 0.7501 0.7474 0.7445 0.7432
644.038940 0.7430 0.7405 0.7392 0.7390 0.7390
650.511430 0.7382 0.7372 0.7370 0.7354 0.7350
656.983920 0.7342 0.7332 0.7306 0.7277 0.7247
663.456410 0.7240 0.7225 0.7212 0.7203 0.7170
669.928900 0.7153 0.7150 0.7150 0.7157 0.7203
676.401390 0.7213 0.7203 0.7200 0.7200 0.7165
682.873880 0.7129 0.7092 0.7046 0.6983 0.6913
689.346370 0.6830 0.6728 0.6422 0.5633 0.5107
695.818860 0.4824 0.4535 0.4417 0.4423 0.4436
702.291350 0.4581 0.4810 0.5177 0.5574 0.6021
708.763840 0.6371 0.6576 0.6877 0.7086 0.7171
715.236330 0.7210 0.7204 0.7183 0.7165 0.7122
721.708820 0.7079 0.6973 0.6763 0.6561 0.6480
728.181310 0.6183 0.5849 0.5695 0.5565 0.5374
734.653800 0.5195 0.5205 0.5254 0.5304 0.5348
741.126290 0.5417 0.5483 0.5523 0.5544 0.5546
747.598780 0.5536 0.5517 0.5474 0.5398 0.5336
754.071270 0.5330 0.5334 0.5392 0.5529 0.5643
760.543760 0.5695 0.5805 0.6258 0.7000 0.7509
767.016250 0.7836 0.8036 0.8141 0.8218 0.8314
773.488740 0.8387 0.8457 0.8500 0.8523 0.8539
779.961230 0.8563 0.8570 0.8570 0.8570 0.8570
786.433720 0.8570 0.8573 0.8580 0.8577 0.8570
792.906210 0.8567 0.8552 0.8525 0.8510 0.8505
799.378700 0.8490 0.8490 0.8488 0.8478 0.8466
805.851190 0.8446 0.8424 0.8392 0.8358 0.8345
812.323680 0.8316 0.8298 0.8290 0.8292 0.8300
818.796170 0.8303 0.8325 0.8351 0.8360 0.8363
825.268660 0.8381 0.8390 0.8391 0.8401 0.8410
831.741150 0.8410 0.8412 0.8434 0.8471 0.8482
838.213640 0.8514 0.8562 0.8581 0.8600 0.8601
844.686130 0.8610 0.8610 0.8620 0.8620 0.8620
851.158620 0.8620 0.8620 0.8620 0.8610 0.8600
857.631110 0.8580 0.8580 0.8580 0.8580 0.8580
864.103600 0.8580 0.8570 0.8570 0.8560 0.8541
870.576090 0.8540 0.8540 0.8531 0.8521 0.8511
877.048580 0.8492 0.8481 0.8480 0.8471 0.8452
883.521070 0.8432 0.8403 0.8391 0.8355 0.8324
889.993560 0.8303 0.8274 0.8218 0.8106 0.8004
896.466050 0.7930 0.7844 0.7763 0.7658 0.7532
902.938540 0.7370 0.7134 0.7074 0.7086 0.7114
909.411030 0.7152 0.7192 0.7255 0.7333 0.7467
915.883520 0.7577 0.7631 0.7701 0.7728 0.7745
922.356010 0.7765 0.7770 0.7777 0.7780 0.7780
928.828500 0.7758 0.7736 0.7701 0.7633 0.7547
935.300990 0.7422 0.7325 0.7245 0.7179 0.7140
941.773480 0.7123 0.7127 0.7150 0.7173 0.7193
948.245970 0.7206 0.7216 0.7239 0.7275 0.7321
954.718460 0.7371 0.7433 0.7552 0.7665 0.7742
961.190950 0.7830 0.7894 0.7939 0.8018 0.8077
967.663440 0.8090 0.8096 0.8100 0.8111 0.8120
974.135930 0.8120 0.8120 0.8109 0.8100 0.8100
980.608420 0.8100 0.8100 0.8100 0.8100 0.8095
987.080910 0.8090 0.8090 0.8090 0.8085 0.8071
993.553400 0.8046 0.7993 0.7936 0.7915 0.7892
1000.025890 0.7834 0.7750 0.7652 0.7539 0.7419
1006.498380 0.7313 0.7239 0.7193 0.7133 0.7048
1012.970870 0.6949 0.6866 0.6860 0.6864 0.6881
1019.443360 0.6904 0.6921 0.6947 0.6999 0.7091
1025.915850 0.7161 0.7250 0.7320 0.7360 0.7470
1032.388340 0.7670 0.7817 0.7928 0.8017 0.8107
1038.860830 0.8205 0.8324 0.8438 0.8518 0.8548
1045.333320 0.8570 0.8573 0.8580 0.8580 0.8580
1051.805810 0.8580 0.8580 0.8578 0.8563 0.8538
1058.278300 0.8528 0.8520 0.8518 0.8506 0.8486
1064.750790 0.8462 0.8423 0.8385 0.8358 0.8345
1071.223280 0.8315 0.8281 0.8219 0.8140 0.8014
1077.695770 0.7907 0.7813 0.7683 0.7558 0.7458
1084.168260 0.7359 0.7261 0.7166 0.7038 0.6916
1090.640750 0.6755 0.6445 0.5838 0.5820 0.5822
1097.113240 0.5870 0.6206 0.6486 0.6602 0.6831
1103.585730 0.7079 0.7318 0.7566 0.7790 0.7790
1110.058220 0.7790 0.7790 0.7769 0.7680 0.7610
1116.530710 0.7590 0.7531 0.7423 0.7313 0.7127
1123.003200 0.6708 0.6309 0.6109 0.5948 0.5808
1129.475690 0.5791 0.5753 0.5750 0.5869 0.6263
1135.948180 0.6563 0.6743 0.7194 0.7851 0.7920
1142.420670 0.7902 0.7900 0.7883 0.7871 0.7827
1148.893160 0.7760 0.7699 0.7613 0.7524 0.7434
1155.365650 0.7345 0.7255 0.7108 0.6982 0.6806
1161.838140 0.6625 0.6454 0.6316 0.6290 0.6290
1168.310630 0.6392 0.6467 0.6580 0.6633 0.6640
1174.783120 0.6602 0.6583 0.6453 0.6276 0.6112
1181.255610 0.5842 0.5381 0.5045 0.4748 0.4497
1187.728100 0.4170 0.3830 0.3262 0.2997 0.2970
1194.200590 0.2997 0.3152 0.3348 0.3576 0.4062
1200.673080 0.4557 0.4859 0.5141 0.5411 0.5647
1207.145570 0.5724 0.5720 0.5689 0.5615 0.5501
1213.618060 0.5378 0.5270 0.5123 0.4955 0.4784
1220.090550 0.4588 0.4362 0.4175 0.4054 0.3938
1226.563040 0.3786 0.3683 0.3638 0.3615 0.3583
1233.035530 0.3533 0.3452 0.3348 0.3254 0.3134
1239.508020 0.2980 0.2771 0.2581 0.2471 0.2362
1245.980510 0.2214 0.2082 0.2021 0.1995 0.1995
1252.453000 0.2018 0.2058 0.2120 0.2205 0.2324
1258.925490 0.2480 0.2805 0.3340 0.3694 0.3836
1265.397980 0.3970 0.4228 0.4557 0.4802 0.5008
1271.870470 0.5354 0.5729 0.5939 0.6119 0.6327
1278.342960 0.6513 0.6698 0.6874 0.6970 0.7033
1284.815450 0.7163 0.7305 0.7474 0.7636 0.7789
1291.287940 0.7927 0.7993 0.8012 0.8046 0.8068
1297.760430 0.8098 0.8120 0.8123 0.8130 0.8133
1304.232920 0.8140 0.8145 0.8160 0.8160 0.8160
1310.705410 0.8160 0.8160 0.8160 0.8160 0.8160
1317.177900 0.8160 0.8160 0.8160 0.8160 0.8160
1323.650390 0.8155 0.8125 0.8092 0.8048 0.8040
1330.122880 0.8041 0.8050 0.8061 0.8141 0.8218
1336.595370 0.8275 0.8321 0.8408 0.8470 0.8471
1343.067860 0.8480 0.8480 0.8479 0.8465 0.8408
1349.540350 0.8377 0.8320 0.8032 0.7744 0.7643
1356.012840 0.7503 0.7336 0.6967 0.6539 0.5941
1362.485330 0.5640 0.5620 0.5621 0.5721 0.5940
1368.957820 0.6158 0.6456 0.6764 0.6986 0.7176
1375.430310 0.7326 0.7456 0.7470 0.7470 0.7461
1381.902800 0.7422 0.7317 0.7143 0.6990 0.6785
1388.375290 0.6540 0.6273 0.5968 0.5787 0.5752
1394.847780 0.5759 0.5955 0.6112 0.6315 0.6515
1401.320270 0.6862 0.7091 0.7197 0.7287 0.7402
1407.792760 0.7512 0.7580 0.7673 0.7723 0.7780
1414.265250 0.7847 0.7876 0.7904 0.7902 0.7900
1420.737740 0.7900 0.7884 0.7872 0.7870 0.7870
1427.210230 0.7893 0.7938 0.8018 0.8078 0.8157
1433.682720 0.8313 0.8375 0.8380 0.8365 0.8360
1440.155210 0.8360 0.8360 0.8353 0.8308 0.8200
1446.627700 0.8043 0.7908 0.7775 0.7507 0.7104
1453.100190 0.6767 0.6465 0.6340 0.6336 0.6353
1459.572680 0.6500 0.6656 0.6831 0.6985 0.7055
1466.045170 0.7162 0.7342 0.7486 0.7578 0.7746
1472.517660 0.7840 0.7823 0.7764 0.7638 0.7484
1478.990150 0.7392 0.7275 0.7056 0.6781 0.6455
1485.462640 0.6039 0.5519 0.5036 0.4631 0.4300
1491.935130 0.4160 0.4150 0.4210 0.4315 0.4404
1498.407620 0.4581 0.4844 0.5188 0.5618 0.6033
1504.880110 0.6445 0.6858 0.7243 0.7587 0.7889
1511.352600 0.8118 0.8254 0.8317 0.8344 0.8350
1517.825090 0.8362 0.8388 0.8428 0.8509 0.8593
1524.297580 0.8657 0.8715 0.8755 0.8784 0.8790
1530.770070 0.8790 0.8794 0.8800 0.8807 0.8820
1537.242560 0.8820 0.8820 0.8820 0.8820 0.8820
1543.715050 0.8820 0.8820 0.8814 0.8797 0.8781
1550.187540 0.8754 0.8729 0.8692 0.8665 0.8629
1556.660030 0.8554 0.8510 0.8505 0.8490 0.8476
1563.132520 0.8423 0.8396 0.8373 0.8344 0.8316
1569.605010 0.8294 0.8268 0.8258 0.8252 0.8262
1576.077500 0.8270 0.8273 0.8290 0.8292 0.8300
1582.549990 0.8300 0.8300 0.8300 0.8300 0.8300
1589.022480 0.8300 0.8300 0.8299 0.8286 0.8243
1595.494970 0.8182 0.8109 0.8003 0.7918 0.7687
1601.967460 0.7660 0.7661 0.7683 0.7724 0.7786
1608.439950 0.7875 0.7964 0.8044 0.8135 0.8252
1614.912440 0.8312 0.8380 0.8400 0.8430 0.8440
1621.384930 0.8430 0.8410 0.8400 0.8380 0.8380
1627.857420 0.8380 0.8380 0.8380 0.8380 0.8390
1634.329910 0.8428 0.8449 0.8469 0.8470 0.8479
1640.802400 0.8480 0.8489 0.8490 0.8481 0.8480
1647.274890 0.8489 0.8517 0.8529 0.8557 0.8578
1653.747380 0.8597 0.8609 0.8619 0.8620 0.8629
1660.219870 0.8621 0.8628 0.8647 0.8658 0.8660
1666.692360 0.8660 0.8668 0.8670 0.8670 0.8662
1673.164850 0.8636 0.8614 0.8578 0.8539 0.8514
1679.637340 0.8487 0.8472 0.8455 0.8435 0.8400
1686.109830 0.8367 0.8353 0.8313 0.8212 0.8027
1692.582320 0.7811 0.7643 0.7579 0.7478 0.7426
1699.054810 0.7420 0.7406 0.7386 0.7298 0.7158
1705.527300 0.7009 0.6428 0.5619 0.5066 0.4639
1711.999790 0.4210 0.3796 0.3375 0.2948 0.2564
1718.472280 0.2244 0.2118 0.2098 0.2078 0.2082
1724.944770 0.2186 0.2327 0.2439 0.2509 0.2570
1731.417260 0.2628 0.2678 0.2739 0.2770 0.2753
1737.889750 0.2691 0.2406 0.2173 0.2097 0.2013
1744.362240 0.1933 0.1880 0.1865 0.1875 0.1960
1750.834730 0.2334 0.2911 0.3282 0.3716 0.4379
1757.307220 0.4771 0.4997 0.5330 0.5663 0.6002
1763.779710 0.6338 0.6710 0.7298 0.7857 0.8072
1770.252200 0.8187 0.8255 0.8356 0.8450 0.8538
1776.724690 0.8608 0.8666 0.8725 0.8803 0.8859
1783.197180 0.8905 0.8948 0.8994 0.9034 0.9077
1789.669670 0.9124 0.9150 0.9157 0.9173 0.9186
1796.142160 0.9206 0.9223 0.9233 0.9240 0.9246
1802.614650 0.9260 0.9263 0.9270 0.9273 0.9280
1809.087140 0.9285 0.9300 0.9300 0.9300 0.9300
1815.559630 0.9300 0.9300 0.9300 0.9302 0.9312
1822.032120 0.9326 0.9354 0.9376 0.9400 0.9400
1828.504610 0.9400 0.9402 0.9408 0.9402 0.9410
1834.977100 0.9410 0.9413 0.9430 0.9437 0.9480
1841.449590 0.9480 0.9480 0.9480 0.9480 0.9480
1847.922080 0.9480 0.9480 0.9480 0.9480 0.9478
1854.394570 0.9460 0.9460 0.9460 0.9459 0.9450
1860.867060 0.9449 0.9440 0.9440 0.9440 0.9440
1867.339550 0.9440 0.9440 0.9440 0.9440 0.9440
1873.812040 0.9440 0.9450 0.9450 0.9450 0.9450
1880.284530 0.9450 0.9460 0.9460 0.9460 0.9460
1886.757020 0.9460 0.9460 0.9479 0.9480 0.9480
1893.229510 0.9480 0.9480 0.9480 0.9462 0.9460
1899.702000 0.9460 0.9460 0.9460 0.9460 0.9460
1906.174490 0.9460 0.9478 0.9462 0.9460 0.9460
1912.646980 0.9460 0.9460 0.9460 0.9460 0.9460
1919.119470 0.9452 0.9450 0.9442 0.9432 0.9430
1925.591960 0.9430 0.9414 0.9410 0.9410 0.9410
1932.064450 0.9402 0.9400 0.9392 0.9359 0.9312
1938.536940 0.9300 0.9285 0.9273 0.9263 0.9245
1945.009430 0.9233 0.9223 0.9206 0.9193 0.9190
1951.481920 0.9183 0.9152 0.9140 0.9133 0.9116
1957.954410 0.9103 0.9093 0.9090 0.9090 0.9090
1964.426900 0.9090 0.9090 0.9090 0.9090 0.9090
1970.899390 0.9084 0.9067 0.9035 0.8995 0.8974
1977.371880 0.8958 0.8932 0.8902 0.8890 0.8884
1983.844370 0.8880 0.8868 0.8849 0.8834 0.8824
1990.316860 0.8809 0.8795 0.8785 0.8769 0.8760
1996.789350 0.8760 0.8755 0.8745 0.8735 0.8720
2003.261840 0.8710 0.8710 0.8710 0.8710 0.8710
2009.734330 0.8720 0.8730 0.8730 0.8735 0.8745
2016.206820 0.8755 0.8760 0.8776 0.8816 0.8850
2022.679310 0.8870 0.8916 0.8981 0.9015 0.9036
2029.151800 0.9076 0.9121 0.9171 0.9231 0.9281
2035.624290 0.9310 0.9325 0.9340 0.9371 0.9395
2042.096780 0.9416 0.9435 0.9450 0.9481 0.9510
2048.569270 0.9525 0.9535 0.9545 0.9560 0.9580
2055.041760 0.9606 0.9620 0.9620 0.9625 0.9630
2061.514250 0.9630 0.9630 0.9640 0.9650 0.9650
2067.986740 0.9650 0.9640 0.9630 0.9630 0.9630
2074.459230 0.9630 0.9630 0.9630 0.9630 0.9630
2080.931720 0.9630 0.9630 0.9630 0.9630 0.9630
2087.404210 0.9630 0.9630 0.9630 0.9630 0.9630
2093.876700 0.9630 0.9630 0.9630 0.9630 0.9630
2100.349190 0.9630 0.9630 0.9630 0.9630 0.9630
2106.821680 0.9630 0.9630 0.9630 0.9630 0.9630
2113.294170 0.9630 0.9630 0.9630 0.9630 0.9630
2119.766660 0.9630 0.9630 0.9630 0.9630 0.9630
2126.239150 0.9630 0.9630 0.9630 0.9640 0.9640
2132.711640 0.9630 0.9630 0.9630 0.9630 0.9630
2139.184130 0.9630 0.9630 0.9630 0.9630 0.9630
2145.656620 0.9630 0.9630 0.9630 0.9630 0.9630
2152.129110 0.9630 0.9630 0.9630 0.9630 0.9625
2158.601600 0.9625 0.9630 0.9630 0.9630 0.9630
2165.074090 0.9630 0.9630 0.9630 0.9630 0.9630
2171.546580 0.9630 0.9630 0.9630 0.9630 0.9630
2178.019070 0.9630 0.9630 0.9630 0.9630 0.9630
2184.491560 0.9630 0.9630 0.9630 0.9630 0.9630
2190.964050 0.9630 0.9630 0.9640 0.9650 0.9650
2197.436540 0.9650 0.9650 0.9650 0.9650 0.9650
2203.909030 0.9650 0.9650 0.9650 0.9650 0.9650
2210.381520 0.9650 0.9650 0.9635 0.9620 0.9620
2216.854010 0.9620 0.9620 0.9620 0.9620 0.9620
2223.326500 0.9620 0.9620 0.9620 0.9620 0.9620
2229.798990 0.9615 0.9610 0.9610 0.9610 0.9600
2236.271480 0.9590 0.9590 0.9590 0.9590 0.9590
2242.743970 0.9585 0.9580 0.9580 0.9580 0.9575
2249.216460 0.9575 0.9580 0.9585 0.9590 0.9590
2255.688950 0.9590 0.9590 0.9590 0.9590 0.9590
2262.161440 0.9590 0.9590 0.9590 0.9590 0.9590
2268.633930 0.9590 0.9585 0.9580 0.9575 0.9570
2275.106420 0.9560 0.9550 0.9545 0.9540 0.9535
2281.578910 0.9525 0.9520 0.9520 0.9520 0.9510
2288.051400 0.9495 0.9490 0.9490 0.9490 0.9490
2294.523890 0.9490 0.9490 0.9490 0.9490 0.9490
2300.996380 0.9490 0.9490 0.9485 0.9480 0.9480
2307.468870 0.9480 0.9480 0.9480 0.9470 0.9470
2313.941360 0.9480 0.9480 0.9480 0.9485 0.9490
2320.413850 0.9490 0.9490 0.9490 0.9490 0.9490
2326.886340 0.9495 0.9500 0.9500 0.9500 0.9500
2333.358830 0.9500 0.9510 0.9520 0.9520 0.9520
2339.831320 0.9520 0.9520 0.9520 0.9520 0.9520
2346.303810 0.9520 0.9520 0.9520 0.9520 0.9520
2352.776300 0.9520 0.9520 0.9520 0.9520 0.9520
2359.248790 0.9520 0.9520 0.9520 0.9520 0.9520
2365.721280 0.9520 0.9520 0.9520 0.9520 0.9520
2372.193770 0.9510 0.9500 0.9495 0.9485 0.9480
2378.666260 0.9470 0.9450 0.9440 0.9435 0.9430
2385.138750 0.9420 0.9405 0.9400 0.9395 0.9380
2391.611240 0.9370 0.9365 0.9355 0.9335 0.9315
2398.083730 0.9295 0.9275 0.9265 0.9260 0.9250
2404.556220 0.9235 0.9225 0.9210 0.9195 0.9169
2411.028710 0.9129 0.9105 0.9090 0.9070 0.9060
2417.501200 0.9055 0.9045 0.9030 0.9015 0.9005
2423.973690 0.8990 0.8970 0.8955 0.8950 0.8940
2430.446180 0.8930 0.8930 0.8925 0.8920 0.8915
2436.918670 0.8910 0.8910 0.8910 0.8910 0.8910
2443.391160 0.8900 0.8890 0.8890 0.8890 0.8885
2449.863650 0.8880 0.8880 0.8875 0.8870 0.8865
2456.336140 0.8860 0.8850 0.8840 0.8835 0.8825
2462.808630 0.8820 0.8810 0.8800 0.8795 0.8790
2469.281120 0.8774 0.8755 0.8745 0.8735 0.8720
2475.753610 0.8705 0.8695 0.8680 0.8660 0.8640
2482.226100 0.8620 0.8605 0.8590 0.8580 0.8575
2488.698590 0.8565 0.8560 0.8550 0.8535 0.8530
2495.171080 0.8525 0.8504 0.8490 0.8490 0.8490
2501.643570 0.8485 0.8480 0.8480 0.8480 0.8475
2508.116060 0.8470 0.8470 0.8460 0.8450 0.8450
2514.588550 0.8445 0.8440 0.8440 0.8435 0.8430
2521.061040 0.8420 0.8405 0.8400 0.8395 0.8385
2527.533530 0.8370 0.8355 0.8350 0.8345 0.8330
2534.006020 0.8315 0.8300 0.8290 0.8280 0.8270
2540.478510 0.8260 0.8235 0.8215 0.8200 0.8190
2546.951000 0.8185 0.8170 0.8144 0.8115 0.8079
2553.423490 0.8050 0.8025 0.8000 0.7969 0.7934
2559.895980 0.7899 0.7870 0.7834 0.7795 0.7765
2566.368470 0.7724 0.7679 0.7634 0.7584 0.7534
2572.840960 0.7484 0.7444 0.7430 0.7430 0.7425
2579.313450 0.7420 0.7410 0.7400 0.7400 0.7400
2585.785940 0.7400 0.7400 0.7410 0.7425 0.7435
2592.258430 0.7440 0.7455 0.7475 0.7480 0.7506
2598.730920 0.7561 0.7606 0.7630 0.7645 0.7655
2605.203410 0.7660 0.7660 0.7670 0.7680 0.7670
2611.675900 0.7655 0.7650 0.7645 0.7614 0.7580
2618.148390 0.7565 0.7539 0.7494 0.7454 0.7430
2624.620880 0.7404 0.7385 0.7364 0.7340 0.7315
2631.093370 0.7285 0.7260 0.7245 0.7230 0.7215
2637.565860 0.7205 0.7190 0.7175 0.7165 0.7155
2644.038350 0.7150 0.7140 0.7130 0.7130 0.7125
2650.510840 0.7120 0.7120 0.7120 0.7115 0.7110
2656.983330 0.7110 0.7110 0.7100 0.7090 0.7090
2663.455820 0.7090 0.7090 0.7090 0.7090 0.7090
2669.928310 0.7090 0.7090 0.7085 0.7080 0.7075
2676.400800 0.7070 0.7060 0.7050 0.7045 0.7040
2682.873290 0.7035 0.7025 0.7020 0.7010 0.6995
2689.345780 0.6969 0.6940 0.6930 0.6930 0.6930
2695.818270 0.6930 0.6930 0.6930 0.6930 0.6930
2702.290760 0.6930 0.6920 0.6910 0.6910 0.6910
2708.763250 0.6910 0.6910 0.6905 0.6900 0.6895
2715.235740 0.6890 0.6880 0.6865 0.6855 0.6840
2721.708230 0.6830 0.6820 0.6794 0.6770 0.6750
2728.180720 0.6735 0.6714 0.6669 0.6609 0.6565
2734.653210 0.6529 0.6505 0.6479 0.6444 0.6404
2741.125700 0.6370 0.6339 0.6320 0.6310 0.6300
2747.598190 0.6295 0.6285 0.6280 0.6270 0.6260
2754.070680 0.6255 0.6250 0.6245 0.6235 0.6215
2760.543170 0.6185 0.6165 0.6155 0.6150 0.6150
2767.015660 0.6150 0.6129 0.6089 0.6044 0.6015
2773.488150 0.6010 0.6010 0.6000 0.5980 0.5960
2779.960640 0.5945 0.5919 0.5879 0.5834 0.5789
2786.433130 0.5765 0.5734 0.5689 0.5634 0.5574
2792.905620 0.5524 0.5500 0.5479 0.5434 0.5374
2799.378110 0.5309 0.5254 0.5209 0.5185 0.5180
2805.850600 0.5164 0.5134 0.5104 0.5069 0.5029
2812.323090 0.5005 0.4949 0.4885 0.4839 0.4800
2818.795580 0.4769 0.4734 0.4699 0.4675 0.4608
2825.268070 0.4514 0.4423 0.4323 0.4259 0.4209
2831.740560 0.4164 0.4129 0.4094 0.4070 0.4034
2838.213050 0.3989 0.3944 0.3899 0.3880 0.3870
2844.685540 0.3844 0.3809 0.3769 0.3729 0.3689
2851.158030 0.3660 0.3640 0.3620 0.3605 0.3600
2857.630520 0.3590 0.3580 0.3575 0.3570 0.3570
2864.103010 0.3570 0.3570 0.3570 0.3570 0.3575
2870.575500 0.3580 0.3590 0.3600 0.3600 0.3605
2877.047990 0.3610 0.3610 0.3610 0.3610 0.3610
2883.520480 0.3610 0.3610 0.3610 0.3610 0.3610
2889.992970 0.3610 0.3610 0.3605 0.3600 0.3600
2896.465460 0.3600 0.3590 0.3580 0.3580 0.3575
2902.937950 0.3570 0.3565 0.3560 0.3560 0.3550
2909.410440 0.3540 0.3540 0.3535 0.3525 0.3520
2915.882930 0.3515 0.3500 0.3490 0.3485 0.3475
2922.355420 0.3460 0.3450 0.3445 0.3425 0.3410
2928.827910 0.3410 0.3410 0.3405 0.3405 0.3410
2935.300400 0.3420 0.3430 0.3435 0.3440 0.3440
2941.772890 0.3445 0.3460 0.3475 0.3485 0.3500
2948.245380 0.3515 0.3525 0.3535 0.3540 0.3550
2954.717870 0.3570 0.3590 0.3605 0.3615 0.3625
2961.190360 0.3640 0.3655 0.3675 0.3695 0.3705
2967.662850 0.3720 0.3740 0.3755 0.3776 0.3795
2974.135340 0.3800 0.3810 0.3825 0.3851 0.3875
2980.607830 0.3895 0.3946 0.3990 0.4021 0.4045
2987.080320 0.4071 0.4121 0.4165 0.4180 0.4190
2993.552810 0.4215 0.4256 0.4321 0.4386 0.4426
3000.025300 0.4450 0.4470 0.4485 0.4495 0.4510
3006.497790 0.4530 0.4545 0.4560 0.4570 0.4575
3012.970280 0.4596 0.4610 0.4615 0.4646 0.4675
3019.442770 0.4680 0.4690 0.4710 0.4741 0.4760
3025.915260 0.4781 0.4836 0.4880 0.4936 0.4990
3032.387750 0.5051 0.5121 0.5171 0.5221 0.5292
3038.860240 0.5350 0.5370 0.5395 0.5436 0.5481
3045.332730 0.5531 0.5581 0.5615 0.5656 0.5701
3051.805220 0.5725 0.5740 0.5755 0.5781 0.5821
3058.277710 0.5845 0.5850 0.5855 0.5870 0.5896
3064.750200 0.5946 0.5996 0.6082 0.6155 0.6222
3071.222690 0.6280 0.6301 0.6372 0.6425 0.6456
3077.695180 0.6511 0.6545 0.6555 0.6570 0.6595
3084.167670 0.6625 0.6645 0.6696 0.6771 0.6805
3090.640160 0.6820 0.6846 0.6865 0.6880 0.6916
3097.112650 0.6961 0.6985 0.7006 0.7030 0.7045
3103.585140 0.7066 0.7096 0.7120 0.7145 0.7170
3110.057630 0.7180 0.7190 0.7210 0.7241 0.7276
3116.530120 0.7321 0.7366 0.7385 0.7395 0.7415
3123.002610 0.7451 0.7496 0.7541 0.7586 0.7615
3129.475100 0.7620 0.7630 0.7661 0.7701 0.7725
3135.947590 0.7740 0.7786 0.7820 0.7825 0.7851
3142.420080 0.7875 0.7890 0.7900 0.7905 0.7915
3148.892570 0.7946 0.7991 0.8020 0.8035 0.8045
3155.365060 0.8055 0.8060 0.8060 0.8060 0.8070
3161.837550 0.8090 0.8110 0.8125 0.8135 0.8156
3168.310040 0.8175 0.8185 0.8190 0.8205 0.8225
3174.782530 0.8230 0.8230 0.8230 0.8230 0.8230
3181.255020 0.8230 0.8240 0.8255 0.8265 0.8270
3187.727510 0.8270 0.8270 0.8270 0.8270 0.8270
3194.200000 0.8286 0.8305 0.8315 0.8330 0.8345
3200.672490 0.8355 0.8360 0.8360 0.8360 0.8355
3207.144980 0.8350 0.8350 0.8350 0.8350 0.8365
3213.617470 0.8385 0.8390 0.8395 0.8405 0.8410
3220.089960 0.8410 0.8410 0.8420 0.8430 0.8430
3226.562450 0.8430 0.8430 0.8430 0.8435 0.8440
3233.034940 0.8440 0.8440 0.8440 0.8440 0.8440
3239.507430 0.8440 0.8440 0.8440 0.8440 0.8440
3245.979920 0.8440 0.8440 0.8440 0.8440 0.8440
3252.452410 0.8440 0.8440 0.8440 0.8440 0.8440
3258.924900 0.8440 0.8440 0.8440 0.8440 0.8440
3265.397390 0.8440 0.8440 0.8440 0.8440 0.8440
3271.869880 0.8440 0.8440 0.8440 0.8440 0.8435
3278.342370 0.8430 0.8430 0.8430 0.8430 0.8430
3284.814860 0.8430 0.8430 0.8430 0.8430 0.8420
3291.287350 0.8410 0.8410 0.8410 0.8410 0.8410
3297.759840 0.8405 0.8400 0.8395 0.8390 0.8385
3304.232330 0.8380 0.8370 0.8360 0.8355 0.8345
3310.704820 0.8340 0.8330 0.8315 0.8310 0.8300
3317.177310 0.8290 0.8280 0.8270 0.8265 0.8255
3323.649800 0.8250 0.8240 0.8220 0.8210 0.8210
3330.122290 0.8200 0.8180 0.8154 0.8130 0.8120
3336.594780 0.8110 0.8079 0.8045 0.8020 0.8005
3343.067270 0.7995 0.7980 0.7960 0.7945 0.7930
3349.539760 0.7915 0.7905 0.7869 0.7825 0.7800
3356.012250 0.7785 0.7765 0.7745 0.7735 0.7725
3362.484740 0.7699 0.7670 0.7660 0.7650 0.7614
3368.957230 0.7569 0.7550 0.7540 0.7520 0.7505
3375.429720 0.7500 0.7490 0.7475 0.7465 0.7460
3381.902210 0.7460 0.7450 0.7440 0.7440 0.7430
3388.374700 0.7410 0.7400 0.7395 0.7395 0.7400
3394.847190 0.7395 0.7380 0.7360 0.7340 0.7314
3401.319680 0.7300 0.7300 0.7300 0.7300 0.7300
3407.792170 0.7295 0.7295 0.7300 0.7300 0.7300
3414.264660 0.7295 0.7290 0.7280 0.7270 0.7280
3420.737150 0.7290 0.7290 0.7290 0.7290 0.7290
3427.209640 0.7280 0.7270 0.7280 0.7295 0.7305
3433.682130 0.7310 0.7310 0.7310 0.7310 0.7310
3440.154620 0.7310 0.7320 0.7330 0.7330 0.7330
3446.627110 0.7330 0.7330 0.7330 0.7330 0.7330
3453.099600 0.7330 0.7330 0.7330 0.7330 0.7330
3459.572090 0.7330 0.7335 0.7340 0.7340 0.7345
3466.044580 0.7350 0.7350 0.7350 0.7350 0.7350
3472.517070 0.7350 0.7360 0.7375 0.7385 0.7406
3478.989560 0.7451 0.7490 0.7500 0.7505 0.7510
3485.462050 0.7515 0.7525 0.7545 0.7565 0.7580
3491.934540 0.7595 0.7610 0.7641 0.7675 0.7705
3498.407030 0.7730 0.7761 0.7806 0.7846 0.7860
3504.879520 0.7891 0.7920 0.7930 0.7940 0.7950
3511.352010 0.7965 0.7985 0.8005 0.8026 0.8045
3517.824500 0.8055 0.8070 0.8085 0.8090 0.8095
3524.296990 0.8100 0.8100 0.8110 0.8130 0.8156
3530.769480 0.8175 0.8180 0.8185 0.8200 0.8215
3537.241970 0.8225 0.8230 0.8240 0.8255 0.8260
3543.714460 0.8260 0.8265 0.8270 0.8270 0.8280
3550.186950 0.8290 0.8290 0.8290 0.8290 0.8280
3556.659440 0.8286 0.8305 0.8315 0.8335 0.8355
3563.131930 0.8360 0.8370 0.8380 0.8385 0.8390
3569.604420 0.8395 0.8405 0.8410 0.8410 0.8420
3576.076910 0.8435 0.8455 0.8480 0.8500 0.8515
3582.549400 0.8525 0.8535 0.8540 0.8550 0.8565
3589.021890 0.8575 0.8595 0.8631 0.8660 0.8680
3595.494380 0.8695 0.8705 0.8746 0.8806 0.8856
3601.966870 0.8895 0.8915 0.8925 0.8946 0.8965
3608.439360 0.8975 0.9016 0.9071 0.9111 0.9135
3614.911850 0.9155 0.9180 0.9185 0.9190 0.9210
3621.384340 0.9230 0.9240 0.9250 0.9260 0.9265
3627.856830 0.9285 0.9310 0.9325 0.9340 0.9350
3634.329320 0.9350 0.9350 0.9350 0.9350 0.9340
3640.801810 0.9340 0.9350 0.9355 0.9360 0.9365
3647.274300 0.9370 0.9370 0.9380 0.9390 0.9390
3653.746790 0.9390 0.9390 0.9390 0.9390 0.9380
3660.219280 0.9380 0.9390 0.9390 0.9390 0.9395
3666.691770 0.9395 0.9390 0.9390 0.9390 0.9390
3673.164260 0.9395 0.9405 0.9410 0.9410 0.9410
3679.636750 0.9420 0.9435 0.9440 0.9445 0.9450
3686.109240 0.9450 0.9455 0.9460 0.9460 0.9470
3692.581730 0.9480 0.9480 0.9480 0.9480 0.9480
3699.054220 0.9480 0.9480 0.9480 0.9480 0.9480
3705.526710 0.9480 0.9480 0.9480 0.9480 0.9480
3711.999200 0.9480 0.9480 0.9480 0.9480 0.9480
3718.471690 0.9480 0.9480 0.9480 0.9480 0.9480
3724.944180 0.9480 0.9480 0.9480 0.9480 0.9480
3731.416670 0.9480 0.9485 0.9490 0.9490 0.9485
3737.889160 0.9480 0.9480 0.9480 0.9480 0.9480
3744.361650 0.9480 0.9480 0.9485 0.9490 0.9506
3750.834140 0.9520 0.9525 0.9530 0.9535 0.9540
3757.306630 0.9540 0.9545 0.9550 0.9550 0.9550
3763.779120 0.9550 0.9550 0.9550 0.9550 0.9550
3770.251610 0.9550 0.9550 0.9550 0.9550 0.9550
3776.724100 0.9550 0.9545 0.9540 0.9540 0.9540
3783.196590 0.9535 0.9530 0.9530 0.9514 0.9500
3789.669080 0.9495 0.9490 0.9485 0.9470 0.9470
3796.141570 0.9480 0.9480 0.9480 0.9480 0.9480
3802.614060 0.9480 0.9480 0.9480 0.9480 0.9480
3809.086550 0.9480 0.9480 0.9480 0.9480 0.9480
3815.559040 0.9480 0.9480 0.9480 0.9480 0.9480
3822.031530 0.9480 0.9480 0.9480 0.9480 0.9480
3828.504020 0.9480 0.9480 0.9480 0.9480 0.9480
3834.976510 0.9480 0.9480 0.9480 0.9480 0.9480
3841.449000 0.9480 0.9480 0.9480 0.9480 0.9480
3847.921490 0.9480 0.9480 0.9480 0.9480 0.9480
3854.393980 0.9480 0.9480 0.9480 0.9480 0.9480
3860.866470 0.9480 0.9480 0.9480 0.9480 0.9480
3867.338960 0.9480 0.9480 0.9480 0.9480 0.9480
3873.811450 0.9480 0.9480 0.9480 0.9480 0.9480
3880.283940 0.9480 0.9480 0.9480 0.9480 0.9480
3886.756430 0.9480 0.9480 0.9480 0.9480 0.9480
3893.228920 0.9480 0.9480 0.9480 0.9480 0.9480
3899.701410 0.9480 0.9480 0.9480 0.9480 0.9480
3906.173900 0.9480 0.9480 0.9480 0.9480 0.9480
3912.646390 0.9480 0.9480 0.9480 0.9480 0.9480
3919.118880 0.9480 0.9470 0.9460 0.9460 0.9455
3925.591370 0.9445 0.9440 0.9440 0.9440 0.9440
3932.063860 0.9440 0.9440 0.9435 0.9430 0.9430
3938.536350 0.9430 0.9430 0.9430 0.9430 0.9435
3945.008840 0.9435 0.9430 0.9430 0.9430 0.9430
3951.481330 0.9430 0.9430 0.9430 0.9430 0.9430
3957.953820 0.9430 0.9430 0.9430 0.9430 0.9430
3964.426310 0.9430 0.9430 0.9430 0.9430 0.9420
3970.898800 0.9410 0.9410 0.9410 0.9410 0.9405
3977.371290 0.9395 0.9380 0.9370 0.9380 0.9390
3983.843780 0.9390 0.9390 0.9390 0.9390 0.9380
3990.316270 0.9370 0.9370 0.9365 0.9360 0.9365
3996.788760 0.9365 0.9360 0.9355 0.9350 0.9340
4003.261250 0.9325 0.9320
##END=
