##TITLE=COBALTOUS CHLORIDE HEXAHYDRATE
$$ REAGENT GRADE
##JCAMP-DX=4.24
##DATA TYPE=INFRARED SPECTRUM
##CLASS=COBLENTZ
##ORIGIN=WYANDOTTE CHEMICALS CORP., WYANDOTTE, MICHIGAN, USA
##OWNER=COBLENTZ SOCIETY
Collection (C) 2018 copyright by the U.S. Secretary of Commerce
on behalf of the United States of America. All rights reserved.
##DATE=Not specified, most likely prior to 1970
##MOLFORM=Co Cl2  * 6 H2 O
##SOURCE REFERENCE=COBLENTZ NO. 3069
##$NIST ID=B6003069
##$NIST SOURCE=COBLENTZ
##$NIST IMAGE=cob3069
##SPECTROMETER/DATA SYSTEM=Not specified, most likely a prism, grating, or hybrid spectrometer.
##STATE=SOLID (MINERAL OIL MULL)
##PATH LENGTH=
$$SPECTRAL CONTAMINATION DUE TO OIL AROUND 2900, 1450, 1380 CM^-^1
##SAMPLING PROCEDURE=TRANSMISSION
##RESOLUTION=4
##DATA PROCESSING=DIGITIZED BY NIST FROM HARD COPY
##XUNITS=MICROMETERS
##YUNITS=TRANSMITTANCE
##XFACTOR=1.000000
##YFACTOR=1
##DELTAX=000.006786
##FIRSTX=2.007
##LASTX=15.9801
##FIRSTY=0.891
##MAXX=15.9801
##MINX=2.007
##MAXY=0.96
##MINY=0.03
##NPOINTS=2060
##XYDATA=(X++(Y..Y))
2.007000 0.8910 0.8980 0.8910 0.8980 0.9040
2.040948 0.9060 0.9100 0.9100 0.9100 0.9110
2.075000 0.9110 0.9130 0.9200 0.9210 0.9210
2.108948 0.9230 0.9260 0.9300 0.9320 0.9370
2.143000 0.9380 0.9420 0.9470 0.9500 0.9520
2.176948 0.9520 0.9550 0.9570 0.9570 0.9520
2.210000 0.9520 0.9520 0.9490 0.9470 0.9470
2.243948 0.9470 0.9470 0.9490 0.9500 0.9520
2.278000 0.9520 0.9520 0.9520 0.9540 0.9550
2.311948 0.9590 0.9600 0.9600 0.9600 0.9600
2.346000 0.9540 0.9520 0.9520 0.9520 0.9500
2.379948 0.9500 0.9490 0.9470 0.9470 0.9450
2.414000 0.9450 0.9430 0.9430 0.9420 0.9420
2.447948 0.9420 0.9420 0.9420 0.9430 0.9430
2.482000 0.9430 0.9470 0.9500 0.9520 0.9520
2.515948 0.9540 0.9550 0.9550 0.9590 0.9600
2.550000 0.9600 0.9590 0.9590 0.9590 0.9570
2.583948 0.9540 0.9520 0.9490 0.9470 0.9370
2.618000 0.9230 0.9080 0.8930 0.8890 0.8820
2.651948 0.8770 0.8670 0.8500 0.8380 0.8210
2.685000 0.8080 0.7910 0.7720 0.7520 0.7300
2.718948 0.7070 0.6770 0.6120 0.5890 0.5610
2.753000 0.5310 0.4900 0.4580 0.4290 0.4090
2.786948 0.3420 0.2460 0.2080 0.1660 0.1250
2.821000 0.1000 0.0810 0.0670 0.0540 0.0500
2.854948 0.0470 0.0440 0.0450 0.0490 0.0520
2.889000 0.0540 0.0540 0.0500 0.0500 0.0490
2.922948 0.0490 0.0440 0.0400 0.0350 0.0350
2.957000 0.0320 0.0320 0.0300 0.0300 0.0300
2.990948 0.0300 0.0300 0.0300 0.0300 0.0300
3.025000 0.0320 0.0320 0.0320 0.0330 0.0350
3.058948 0.0350 0.0370 0.0370 0.0390 0.0400
3.093000 0.0400 0.0400 0.0400 0.0400 0.0400
3.126948 0.0390 0.0390 0.0390 0.0370 0.0370
3.160000 0.0350 0.0350 0.0330 0.0330 0.0330
3.193948 0.0350 0.0350 0.0350 0.0390 0.0400
3.228000 0.0440 0.0470 0.0500 0.0570 0.0620
3.261948 0.0640 0.0730 0.0810 0.0890 0.0980
3.296000 0.1000 0.1010 0.1080 0.1120 0.1200
3.329948 0.1230 0.1270 0.1290 0.1290 0.1120
3.364000 0.1010 0.0790 0.0740 0.0610 0.0440
3.397948 0.0400 0.0370 0.0350 0.0350 0.0350
3.432000 0.0370 0.0370 0.0390 0.0420 0.0440
3.465948 0.0500 0.0610 0.0690 0.0810 0.0910
3.500000 0.0980 0.1000 0.1000 0.1000 0.1000
3.533948 0.1010 0.1080 0.1200 0.1690 0.2900
3.568000 0.3490 0.4090 0.4880 0.5460 0.5610
3.601948 0.5770 0.5940 0.6110 0.6260 0.6310
3.635000 0.6410 0.6430 0.6500 0.6530 0.6570
3.668948 0.6620 0.6630 0.6650 0.6680 0.6700
3.703000 0.6740 0.6740 0.6790 0.6820 0.6870
3.736948 0.6920 0.6970 0.7010 0.7070 0.7110
3.771000 0.7130 0.7180 0.7190 0.7230 0.7280
3.804948 0.7330 0.7400 0.7470 0.7480 0.7500
3.839000 0.7500 0.7520 0.7530 0.7600 0.7670
3.872948 0.7720 0.7740 0.7770 0.7790 0.7790
3.907000 0.7790 0.7800 0.7820 0.7860 0.7870
3.940948 0.7910 0.7920 0.7960 0.7990 0.8010
3.975000 0.8060 0.8060 0.8080 0.8110 0.8130
4.008948 0.8180 0.8200 0.8200 0.8200 0.8200
4.043000 0.8200 0.8200 0.8200 0.8210 0.8210
4.076948 0.8210 0.8230 0.8260 0.8250 0.8230
4.111000 0.8210 0.8230 0.8230 0.8230 0.8260
4.144948 0.8260 0.8280 0.8280 0.8300 0.8310
4.178000 0.8310 0.8310 0.8330 0.8330 0.8310
4.211948 0.8300 0.8280 0.8280 0.8260 0.8260
4.246000 0.8230 0.8210 0.8180 0.8110 0.8010
4.279948 0.7970 0.7970 0.7920 0.7910 0.7910
4.314000 0.7960 0.7970 0.7990 0.7990 0.7990
4.347948 0.7990 0.8010 0.8010 0.8010 0.8040
4.382000 0.8090 0.8260 0.8300 0.8380 0.8420
4.415948 0.8420 0.8420 0.8420 0.8420 0.8380
4.450000 0.8310 0.8300 0.8230 0.8210 0.8200
4.483948 0.8180 0.8160 0.8160 0.8140 0.8140
4.518000 0.8140 0.8140 0.8110 0.8090 0.8090
4.551948 0.8080 0.8060 0.8060 0.8040 0.8040
4.586000 0.8030 0.8030 0.8030 0.8010 0.8010
4.619948 0.8010 0.8010 0.8010 0.7990 0.7990
4.653000 0.7990 0.7990 0.7970 0.7970 0.7970
4.686948 0.7970 0.7990 0.7990 0.7990 0.8010
4.721000 0.8010 0.8010 0.8010 0.8030 0.8010
4.754948 0.8010 0.8010 0.8010 0.8010 0.8010
4.789000 0.8010 0.7970 0.7970 0.7990 0.7970
4.822948 0.7970 0.7970 0.7970 0.7970 0.7920
4.857000 0.7910 0.7910 0.7870 0.7860 0.7820
4.890948 0.7820 0.7820 0.7800 0.7800 0.7800
4.925000 0.7800 0.7800 0.7800 0.7800 0.7820
4.958948 0.7820 0.7820 0.7820 0.7820 0.7870
4.993000 0.7920 0.7970 0.8030 0.8080 0.8130
5.026948 0.8160 0.8180 0.8230 0.8300 0.8350
5.061000 0.8400 0.8400 0.8450 0.8450 0.8450
5.094948 0.8450 0.8500 0.8570 0.8620 0.8650
5.128000 0.8690 0.8700 0.8700 0.8720 0.8720
5.161948 0.8740 0.8790 0.8820 0.8820 0.8840
5.196000 0.8860 0.8870 0.8910 0.8930 0.8930
5.229948 0.8940 0.8940 0.8940 0.8960 0.8960
5.264000 0.8980 0.8980 0.8980 0.8980 0.8990
5.297948 0.8990 0.8990 0.8990 0.8990 0.8980
5.332000 0.8980 0.8980 0.8980 0.8980 0.8980
5.365948 0.8980 0.8980 0.8980 0.8980 0.8980
5.400000 0.8940 0.8940 0.8980 0.8990 0.8990
5.433948 0.8990 0.8980 0.8940 0.8930 0.8870
5.468000 0.8840 0.8840 0.8870 0.8890 0.8890
5.501948 0.8890 0.8890 0.8870 0.8870 0.8890
5.536000 0.8870 0.8870 0.8860 0.8840 0.8820
5.569948 0.8810 0.8790 0.8790 0.8790 0.8790
5.603000 0.8760 0.8720 0.8690 0.8690 0.8690
5.636948 0.8670 0.8640 0.8640 0.8600 0.8590
5.671000 0.8530 0.8500 0.8480 0.8480 0.8480
5.704948 0.8450 0.8420 0.8330 0.8250 0.8160
5.739000 0.8130 0.8110 0.8030 0.7990 0.7970
5.772948 0.7860 0.7770 0.7740 0.7600 0.7500
5.807000 0.7380 0.7260 0.7140 0.7060 0.6970
5.840948 0.6800 0.6700 0.6480 0.6290 0.6170
5.875000 0.6070 0.5990 0.5780 0.5610 0.5480
5.908948 0.5210 0.4990 0.4780 0.4580 0.4480
5.943000 0.4310 0.4140 0.4000 0.3870 0.3610
5.976948 0.3580 0.3370 0.3050 0.2800 0.2590
6.011000 0.2490 0.2420 0.2290 0.2220 0.2190
6.044948 0.2120 0.2100 0.2080 0.2050 0.2030
6.079000 0.2020 0.2000 0.1980 0.1980 0.1950
6.112948 0.1950 0.1930 0.1910 0.1910 0.1900
6.146000 0.1880 0.1830 0.1810 0.1810 0.1810
6.179948 0.1790 0.1790 0.1910 0.2030 0.2130
6.214000 0.2250 0.2370 0.2390 0.2490 0.2630
6.247948 0.2880 0.3020 0.3190 0.3290 0.3390
6.282000 0.3580 0.3680 0.3800 0.4000 0.4140
6.315948 0.4220 0.4310 0.4390 0.4510 0.4630
6.350000 0.4650 0.4710 0.4780 0.4870 0.4920
6.383948 0.4970 0.4990 0.5000 0.5020 0.5110
6.418000 0.5190 0.5280 0.5290 0.5290 0.5310
6.451948 0.5330 0.5330 0.5340 0.5380 0.5380
6.486000 0.5390 0.5430 0.5500 0.5530 0.5580
6.519948 0.5580 0.5580 0.5580 0.5600 0.5600
6.554000 0.5600 0.5610 0.5630 0.5730 0.5730
6.587948 0.5770 0.5770 0.5730 0.5720 0.5720
6.621000 0.5700 0.5720 0.5720 0.5730 0.5770
6.654948 0.5730 0.5730 0.5720 0.5680 0.5680
6.689000 0.5680 0.5670 0.5670 0.5630 0.5610
6.722948 0.5580 0.5510 0.5390 0.5280 0.5120
6.757000 0.4970 0.4820 0.4700 0.4560 0.4530
6.790948 0.4170 0.3730 0.3630 0.2970 0.2680
6.825000 0.2590 0.2580 0.2520 0.2510 0.2520
6.858948 0.2580 0.2610 0.2710 0.2880 0.2980
6.893000 0.3120 0.3270 0.3340 0.3390 0.3580
6.926948 0.3760 0.3880 0.4000 0.4190 0.4410
6.961000 0.4580 0.4780 0.4970 0.5210 0.5330
6.994948 0.5430 0.5670 0.5820 0.5890 0.5990
7.029000 0.5990 0.6010 0.6010 0.6020 0.6020
7.062948 0.6020 0.6110 0.6120 0.6120 0.6120
7.096000 0.6110 0.6110 0.6090 0.6070 0.6020
7.129948 0.6070 0.6120 0.6140 0.6140 0.6140
7.164000 0.6120 0.6110 0.6090 0.6040 0.5990
7.197948 0.5920 0.5840 0.5680 0.5440 0.5220
7.232000 0.4990 0.4970 0.4650 0.4320 0.4190
7.265948 0.4090 0.4040 0.3930 0.3830 0.3930
7.300000 0.4020 0.4190 0.4490 0.4780 0.4830
7.333948 0.4900 0.5040 0.5070 0.5170 0.5290
7.368000 0.5500 0.5610 0.5700 0.5730 0.5770
7.401948 0.5800 0.5800 0.5800 0.5820 0.5850
7.436000 0.5890 0.5920 0.5940 0.5950 0.5950
7.469948 0.5970 0.5970 0.5970 0.5990 0.5990
7.504000 0.6020 0.6060 0.6060 0.6070 0.6070
7.537948 0.6070 0.6090 0.6090 0.6090 0.6110
7.571000 0.6110 0.6110 0.6110 0.6120 0.6140
7.604948 0.6140 0.6120 0.6120 0.6120 0.6120
7.639000 0.6120 0.6120 0.6120 0.6120 0.6110
7.672948 0.6110 0.6110 0.6110 0.6110 0.6110
7.707000 0.6110 0.6120 0.6140 0.6170 0.6190
7.740948 0.6210 0.6230 0.6240 0.6260 0.6240
7.775000 0.6260 0.6260 0.6260 0.6280 0.6280
7.808948 0.6290 0.6290 0.6290 0.6290 0.6290
7.843000 0.6290 0.6290 0.6310 0.6310 0.6310
7.876948 0.6310 0.6310 0.6310 0.6330 0.6330
7.911000 0.6340 0.6340 0.6360 0.6380 0.6380
7.944948 0.6380 0.6380 0.6380 0.6400 0.6400
7.979000 0.6400 0.6410 0.6410 0.6410 0.6410
8.012948 0.6410 0.6410 0.6410 0.6410 0.6430
8.047000 0.6430 0.6430 0.6450 0.6450 0.6450
8.080948 0.6430 0.6450 0.6450 0.6450 0.6480
8.114000 0.6480 0.6480 0.6500 0.6510 0.6530
8.147948 0.6530 0.6570 0.6580 0.6600 0.6600
8.182000 0.6600 0.6600 0.6600 0.6580 0.6570
8.215948 0.6530 0.6530 0.6530 0.6530 0.6570
8.250000 0.6580 0.6600 0.6600 0.6620 0.6630
8.283948 0.6630 0.6630 0.6630 0.6630 0.6630
8.318000 0.6630 0.6630 0.6650 0.6650 0.6670
8.351948 0.6670 0.6670 0.6680 0.6680 0.6680
8.386000 0.6680 0.6680 0.6680 0.6680 0.6670
8.419948 0.6680 0.6680 0.6700 0.6700 0.6700
8.454000 0.6720 0.6740 0.6740 0.6740 0.6720
8.487948 0.6720 0.6700 0.6680 0.6680 0.6680
8.522000 0.6670 0.6670 0.6670 0.6630 0.6620
8.555948 0.6600 0.6600 0.6600 0.6600 0.6530
8.589000 0.6530 0.6580 0.6600 0.6600 0.6600
8.622948 0.6600 0.6600 0.6600 0.6600 0.6600
8.657000 0.6600 0.6580 0.6530 0.6530 0.6570
8.690948 0.6580 0.6580 0.6580 0.6580 0.6580
8.725000 0.6580 0.6570 0.6530 0.6530 0.6580
8.758948 0.6600 0.6630 0.6650 0.6670 0.6670
8.793000 0.6630 0.6630 0.6630 0.6630 0.6630
8.826948 0.6630 0.6630 0.6620 0.6620 0.6620
8.861000 0.6620 0.6630 0.6630 0.6630 0.6650
8.894948 0.6630 0.6620 0.6600 0.6600 0.6580
8.929000 0.6570 0.6570 0.6530 0.6530 0.6530
8.962948 0.6550 0.6550 0.6550 0.6570 0.6570
8.997000 0.6530 0.6530 0.6530 0.6510 0.6500
9.030948 0.6480 0.6480 0.6480 0.6480 0.6500
9.064000 0.6500 0.6510 0.6510 0.6530 0.6530
9.097948 0.6530 0.6530 0.6530 0.6530 0.6550
9.132000 0.6580 0.6580 0.6530 0.6530 0.6530
9.165948 0.6530 0.6530 0.6550 0.6570 0.6580
9.200000 0.6600 0.6580 0.6580 0.6580 0.6600
9.233948 0.6600 0.6600 0.6600 0.6580 0.6580
9.268000 0.6530 0.6530 0.6580 0.6580 0.6580
9.301948 0.6580 0.6580 0.6530 0.6530 0.6530
9.336000 0.6530 0.6530 0.6550 0.6580 0.6600
9.369948 0.6600 0.6600 0.6580 0.6580 0.6570
9.404000 0.6580 0.6580 0.6600 0.6580 0.6580
9.437948 0.6600 0.6600 0.6600 0.6600 0.6600
9.472000 0.6600 0.6580 0.6600 0.6600 0.6600
9.505948 0.6580 0.6580 0.6580 0.6580 0.6580
9.540000 0.6580 0.6580 0.6600 0.6600 0.6600
9.573948 0.6600 0.6580 0.6600 0.6600 0.6620
9.607000 0.6620 0.6620 0.6620 0.6620 0.6580
9.640948 0.6570 0.6550 0.6570 0.6580 0.6620
9.675000 0.6630 0.6620 0.6620 0.6620 0.6620
9.708948 0.6620 0.6620 0.6630 0.6630 0.6630
9.743000 0.6650 0.6650 0.6650 0.6650 0.6650
9.776948 0.6650 0.6650 0.6670 0.6670 0.6680
9.811000 0.6680 0.6700 0.6700 0.6700 0.6700
9.844948 0.6700 0.6720 0.6740 0.6750 0.6750
9.879000 0.6750 0.6750 0.6750 0.6750 0.6750
9.912948 0.6740 0.6740 0.6740 0.6740 0.6740
9.947000 0.6740 0.6750 0.6770 0.6770 0.6790
9.980948 0.6790 0.6790 0.6800 0.6800 0.6800
10.015000 0.6800 0.6800 0.6800 0.6800 0.6820
10.048948 0.6820 0.6820 0.6820 0.6800 0.6790
10.082000 0.6790 0.6800 0.6820 0.6820 0.6820
10.115948 0.6800 0.6800 0.6820 0.6820 0.6820
10.150000 0.6800 0.6770 0.6770 0.6770 0.6770
10.183948 0.6770 0.6740 0.6740 0.6790 0.6790
10.218000 0.6790 0.6790 0.6770 0.6750 0.6740
10.251948 0.6740 0.6740 0.6740 0.6740 0.6740
10.286000 0.6740 0.6700 0.6700 0.6680 0.6670
10.319948 0.6650 0.6650 0.6630 0.6650 0.6670
10.354000 0.6670 0.6740 0.6740 0.6700 0.6700
10.387948 0.6680 0.6670 0.6630 0.6630 0.6630
10.422000 0.6630 0.6650 0.6650 0.6650 0.6650
10.455948 0.6630 0.6620 0.6600 0.6600 0.6600
10.490000 0.6600 0.6600 0.6600 0.6580 0.6580
10.523948 0.6580 0.6580 0.6570 0.6570 0.6570
10.557000 0.6570 0.6570 0.6570 0.6530 0.6530
10.590948 0.6530 0.6530 0.6530 0.6530 0.6550
10.625000 0.6550 0.6530 0.6530 0.6530 0.6530
10.658948 0.6510 0.6510 0.6510 0.6500 0.6500
10.693000 0.6500 0.6500 0.6480 0.6450 0.6430
10.726948 0.6430 0.6430 0.6430 0.6430 0.6430
10.761000 0.6430 0.6410 0.6410 0.6410 0.6410
10.794948 0.6410 0.6410 0.6400 0.6400 0.6400
10.829000 0.6400 0.6400 0.6400 0.6380 0.6380
10.862948 0.6380 0.6360 0.6360 0.6360 0.6360
10.897000 0.6360 0.6340 0.6330 0.6330 0.6330
10.930948 0.6310 0.6290 0.6290 0.6290 0.6290
10.965000 0.6290 0.6290 0.6290 0.6290 0.6290
10.998948 0.6290 0.6290 0.6290 0.6290 0.6280
11.032000 0.6260 0.6240 0.6230 0.6230 0.6230
11.065948 0.6210 0.6210 0.6210 0.6210 0.6210
11.100000 0.6190 0.6190 0.6190 0.6170 0.6170
11.133948 0.6170 0.6170 0.6170 0.6140 0.6120
11.168000 0.6090 0.6070 0.6060 0.6040 0.6020
11.201948 0.6010 0.6010 0.6010 0.6010 0.6010
11.236000 0.5970 0.5950 0.5940 0.5940 0.5940
11.269948 0.5940 0.5950 0.5970 0.5970 0.5950
11.304000 0.5950 0.5940 0.5900 0.5900 0.5890
11.337948 0.5890 0.5850 0.5820 0.5820 0.5820
11.372000 0.5800 0.5800 0.5780 0.5780 0.5780
11.405948 0.5750 0.5720 0.5680 0.5680 0.5680
11.440000 0.5670 0.5670 0.5670 0.5670 0.5630
11.473948 0.5610 0.5600 0.5580 0.5580 0.5560
11.508000 0.5510 0.5510 0.5510 0.5500 0.5460
11.541948 0.5430 0.5410 0.5390 0.5360 0.5360
11.575000 0.5340 0.5330 0.5310 0.5290 0.5290
11.608948 0.5260 0.5210 0.5190 0.5190 0.5160
11.643000 0.5140 0.5120 0.5110 0.5090 0.5090
11.676948 0.5050 0.5000 0.5000 0.4970 0.4970
11.711000 0.4920 0.4880 0.4870 0.4830 0.4820
11.744948 0.4770 0.4710 0.4700 0.4680 0.4660
11.779000 0.4660 0.4630 0.4610 0.4580 0.4560
11.812948 0.4550 0.4510 0.4480 0.4480 0.4430
11.847000 0.4430 0.4380 0.4320 0.4310 0.4270
11.880948 0.4240 0.4240 0.4220 0.4210 0.4140
11.915000 0.4140 0.4100 0.4070 0.4040 0.4020
11.948948 0.4020 0.3980 0.3930 0.3920 0.3900
11.983000 0.3830 0.3820 0.3800 0.3760 0.3750
12.016948 0.3710 0.3680 0.3650 0.3630 0.3610
12.050000 0.3590 0.3540 0.3530 0.3490 0.3440
12.083948 0.3420 0.3410 0.3370 0.3340 0.3340
12.118000 0.3290 0.3240 0.3220 0.3200 0.3170
12.151948 0.3140 0.3120 0.3080 0.3030 0.3030
12.186000 0.3000 0.2980 0.2980 0.2950 0.2930
12.219948 0.2930 0.2920 0.2880 0.2850 0.2830
12.254000 0.2800 0.2750 0.2730 0.2710 0.2690
12.287948 0.2660 0.2640 0.2630 0.2630 0.2630
12.322000 0.2610 0.2610 0.2590 0.2590 0.2580
12.355948 0.2540 0.2520 0.2520 0.2520 0.2510
12.390000 0.2490 0.2470 0.2460 0.2440 0.2420
12.423948 0.2420 0.2420 0.2410 0.2410 0.2410
12.458000 0.2410 0.2410 0.2410 0.2410 0.2410
12.491948 0.2410 0.2370 0.2350 0.2340 0.2340
12.525000 0.2350 0.2370 0.2370 0.2410 0.2410
12.558948 0.2420 0.2420 0.2420 0.2420 0.2410
12.593000 0.2410 0.2420 0.2420 0.2420 0.2420
12.626948 0.2440 0.2440 0.2470 0.2470 0.2490
12.661000 0.2490 0.2510 0.2520 0.2520 0.2520
12.694948 0.2540 0.2580 0.2590 0.2590 0.2590
12.729000 0.2610 0.2630 0.2630 0.2660 0.2660
12.762948 0.2680 0.2680 0.2690 0.2710 0.2710
12.797000 0.2730 0.2760 0.2800 0.2810 0.2810
12.830948 0.2830 0.2830 0.2880 0.2900 0.2920
12.865000 0.2930 0.2980 0.3000 0.3020 0.3020
12.898948 0.3030 0.3030 0.3050 0.3080 0.3080
12.933000 0.3120 0.3140 0.3170 0.3190 0.3190
12.966948 0.3190 0.3190 0.3190 0.3200 0.3200
13.000000 0.3200 0.3220 0.3240 0.3270 0.3290
13.033948 0.3310 0.3320 0.3340 0.3340 0.3370
13.068000 0.3410 0.3410 0.3410 0.3410 0.3410
13.101948 0.3420 0.3440 0.3440 0.3440 0.3440
13.136000 0.3480 0.3510 0.3530 0.3530 0.3530
13.169948 0.3530 0.3530 0.3530 0.3530 0.3530
13.204000 0.3540 0.3530 0.3580 0.3590 0.3610
13.237948 0.3630 0.3650 0.3660 0.3680 0.3700
13.272000 0.3700 0.3700 0.3680 0.3680 0.3680
13.305948 0.3700 0.3710 0.3730 0.3750 0.3760
13.340000 0.3760 0.3760 0.3780 0.3800 0.3820
13.373948 0.3820 0.3820 0.3830 0.3830 0.3850
13.408000 0.3850 0.3870 0.3880 0.3880 0.3880
13.441948 0.3880 0.3880 0.3870 0.3850 0.3830
13.476000 0.3830 0.3830 0.3850 0.3870 0.3900
13.509948 0.3920 0.3920 0.3920 0.3920 0.3920
13.543000 0.3920 0.3920 0.3920 0.3920 0.3920
13.576948 0.3920 0.3920 0.3920 0.3920 0.3920
13.611000 0.3920 0.3920 0.3920 0.3920 0.3920
13.644948 0.3900 0.3900 0.3900 0.3900 0.3900
13.679000 0.3900 0.3900 0.3900 0.3880 0.3870
13.712948 0.3880 0.3900 0.3900 0.3900 0.3920
13.747000 0.3920 0.3920 0.3900 0.3900 0.3880
13.780948 0.3870 0.3830 0.3830 0.3870 0.3880
13.815000 0.3870 0.3870 0.3870 0.3870 0.3870
13.848948 0.3830 0.3830 0.3820 0.3820 0.3820
13.883000 0.3820 0.3780 0.3780 0.3780 0.3760
13.916948 0.3750 0.3730 0.3710 0.3710 0.3710
13.951000 0.3730 0.3710 0.3710 0.3700 0.3700
13.984948 0.3700 0.3700 0.3730 0.3710 0.3700
14.018000 0.3700 0.3700 0.3700 0.3700 0.3650
14.051948 0.3650 0.3650 0.3630 0.3650 0.3650
14.086000 0.3650 0.3650 0.3650 0.3650 0.3650
14.119948 0.3630 0.3610 0.3590 0.3580 0.3560
14.154000 0.3540 0.3540 0.3530 0.3530 0.3510
14.187948 0.3490 0.3480 0.3480 0.3480 0.3440
14.222000 0.3420 0.3420 0.3420 0.3420 0.3420
14.255948 0.3410 0.3360 0.3320 0.3320 0.3320
14.290000 0.3320 0.3320 0.3320 0.3320 0.3310
14.323948 0.3290 0.3250 0.3240 0.3220 0.3220
14.358000 0.3220 0.3200 0.3170 0.3140 0.3120
14.391948 0.3100 0.3100 0.3100 0.3100 0.3100
14.426000 0.3080 0.3080 0.3030 0.3020 0.3020
14.459948 0.3020 0.3020 0.3000 0.3000 0.3020
14.493000 0.3000 0.3000 0.3000 0.2980 0.2970
14.526948 0.2970 0.2970 0.2930 0.2930 0.2920
14.561000 0.2900 0.2880 0.2880 0.2880 0.2880
14.594948 0.2880 0.2860 0.2860 0.2850 0.2850
14.629000 0.2850 0.2830 0.2830 0.2810 0.2800
14.662948 0.2780 0.2760 0.2750 0.2730 0.2730
14.697000 0.2730 0.2730 0.2730 0.2710 0.2710
14.730948 0.2710 0.2710 0.2690 0.2680 0.2680
14.765000 0.2680 0.2680 0.2680 0.2680 0.2680
14.798948 0.2680 0.2640 0.2640 0.2640 0.2640
14.833000 0.2640 0.2640 0.2640 0.2640 0.2640
14.866948 0.2640 0.2640 0.2640 0.2640 0.2630
14.901000 0.2630 0.2610 0.2610 0.2590 0.2590
14.934948 0.2590 0.2590 0.2580 0.2580 0.2560
14.968000 0.2560 0.2560 0.2580 0.2580 0.2590
15.001948 0.2590 0.2610 0.2630 0.2660 0.2680
15.036000 0.2710 0.2750 0.2810 0.2850 0.2920
15.069948 0.2920 0.2970 0.3070 0.3100 0.3100
15.104000 0.3120 0.3120 0.3120 0.3120 0.3070
15.137948 0.3020 0.2980 0.2930 0.2900 0.2860
15.172000 0.2830 0.2800 0.2760 0.2750 0.2730
15.205948 0.2730 0.2690 0.2690 0.2680 0.2680
15.240000 0.2690 0.2690 0.2710 0.2730 0.2760
15.273948 0.2760 0.2780 0.2780 0.2800 0.2810
15.308000 0.2830 0.2830 0.2900 0.2930 0.2930
15.341948 0.2980 0.3000 0.3020 0.3030 0.3030
15.376000 0.3050 0.3050 0.3050 0.3050 0.3050
15.409948 0.3070 0.3070 0.3100 0.3100 0.3120
15.444000 0.3140 0.3190 0.3220 0.3240 0.3310
15.477948 0.3320 0.3340 0.3390 0.3420 0.3420
15.511000 0.3420 0.3440 0.3440 0.3440 0.3460
15.544948 0.3460 0.3480 0.3480 0.3480 0.3480
15.579000 0.3480 0.3490 0.3510 0.3530 0.3580
15.612948 0.3590 0.3610 0.3630 0.3630 0.3630
15.647000 0.3630 0.3680 0.3710 0.3710 0.3730
15.680948 0.3730 0.3730 0.3730 0.3760 0.3800
15.715000 0.3830 0.3880 0.3900 0.3930 0.3980
15.748948 0.3980 0.4000 0.4000 0.4020 0.4020
15.783000 0.4020 0.4070 0.4100 0.4140 0.4170
15.816948 0.4190 0.4190 0.4210 0.4220 0.4240
15.851000 0.4240 0.4290 0.4320 0.4340 0.4340
15.884948 0.4390 0.4430 0.4440 0.4480 0.4490
15.919000 0.4490 0.4510 0.4510 0.4530 0.4530
15.952948 0.4530 0.4580 0.4600 0.4630 0.4630
##END=
