##TITLE=HEXANAL, 4-OXO-6-METHYLPYRIMIDIN-2-YLHYDRAZONE (KETO FORM)
##JCAMP-DX=4.24
##DATA TYPE=INFRARED SPECTRUM
##CLASS=COBLENTZ III
##ORIGIN=DOW CHEMICAL COMPANY
##OWNER=COBLENTZ SOCIETY
Collection (C) 2018 copyright by the U.S. Secretary of Commerce
on behalf of the United States of America. All rights reserved.
##DATE=1965/02/16
##NAMES=(1E)-hexanal (4-methyl-6-oxo-1,6-dihydro-2-pyrimidinyl)hydrazone
##MOLFORM=C11 H18 N4 O
##MP=170 C
##SOURCE REFERENCE=COBLENTZ NO. 9995
##$NIST ID=B6009995
##$NIST SOURCE=COBLENTZ
##$NIST IMAGE=cob9995
##SPECTROMETER/DATA SYSTEM=BECKMAN IR-9 (GRATING)
##INSTRUMENT PARAMETERS=ORDER CHANGES: 670, 1200, 2000 CM^-^1
##STATE=SOLID (SPLIT MULL), FLUOROLUBE FOR 3800-1330 CM^-^1, NUJOL FOR 1330-400 CM^-^1
$$ CALSS II TECHNICAL QUALITY
##SAMPLING PROCEDURE=TRANSMISSION
##RESOLUTION=2
##DATA PROCESSING=DIGITIZED BY NIST FROM HARD COPY (FROM TWO SEGMENTS)
##XUNITS=1/CM
##YUNITS=TRANSMITTANCE
##XFACTOR=1.000000
##YFACTOR=1
##DELTAX=0.877194
##FIRSTX=400
##LASTX=3790.35
##FIRSTY=0.683
##MAXX=3790.35
##MINX=400
##MAXY=0.985993
##MINY=0.016
##NPOINTS=3866
##XYDATA=(X++(Y..Y))
400.000000 0.6830 0.6830 0.6830 0.6810 0.6800
404.385970 0.6780 0.6770 0.6760 0.6720 0.6690
408.771939 0.6630 0.6580 0.6540 0.6540 0.6530
413.157909 0.6530 0.6530 0.6540 0.6550 0.6570
417.543878 0.6610 0.6620 0.6630 0.6650 0.6690
421.929848 0.6730 0.6770 0.6810 0.6850 0.6870
426.315817 0.6910 0.6930 0.6960 0.7020 0.7070
430.701787 0.7110 0.7170 0.7260 0.7300 0.7340
435.087757 0.7400 0.7430 0.7440 0.7510 0.7590
439.473726 0.7620 0.7700 0.7740 0.7780 0.7850
443.859696 0.7860 0.7890 0.7890 0.7900 0.7920
448.245665 0.7950 0.7960 0.7960 0.7970 0.7970
452.631635 0.7970 0.7970 0.7960 0.7960 0.7950
457.017604 0.7920 0.7920 0.7900 0.7900 0.7920
461.403574 0.8000 0.8030 0.8100 0.8250 0.8410
465.789543 0.8510 0.8520 0.8620 0.8700 0.8720
470.175513 0.8750 0.8810 0.8890 0.8920 0.8930
474.561483 0.8970 0.8980 0.9000 0.9030 0.9070
478.947452 0.9110 0.9150 0.9190 0.9220 0.9240
483.333422 0.9280 0.9310 0.9340 0.9350 0.9380
487.719391 0.9390 0.9390 0.9390 0.9410 0.9420
492.105361 0.9430 0.9430 0.9430 0.9430 0.9430
496.491330 0.9430 0.9420 0.9420 0.9410 0.9390
500.877300 0.9350 0.9300 0.9240 0.9190 0.9150
505.263270 0.9110 0.9010 0.8930 0.8371 0.7821
509.649239 0.7182 0.6622 0.6610 0.6620 0.7148
514.035209 0.7520 0.8000 0.8410 0.8590 0.8820
518.421178 0.8980 0.9110 0.9130 0.9150 0.9160
522.807148 0.9150 0.9130 0.9110 0.9080 0.9070
527.193117 0.9050 0.9070 0.9110 0.9180 0.9240
531.579087 0.9370 0.9430 0.9460 0.9560 0.9570
535.965056 0.9590 0.9630 0.9640 0.9640 0.9640
540.351026 0.9650 0.9650 0.9670 0.9670 0.9650
544.736996 0.9650 0.9650 0.9640 0.9610 0.9610
549.122965 0.9600 0.9600 0.9600 0.9600 0.9600
553.508935 0.9590 0.9590 0.9570 0.9570 0.9560
557.894904 0.9560 0.9560 0.9560 0.9560 0.9570
562.280874 0.9570 0.9530 0.9450 0.9311 0.9121
566.666843 0.8870 0.8860 0.8890 0.8940 0.9040
571.052813 0.9070 0.9040 0.8970 0.8851 0.8711
575.438783 0.8510 0.8440 0.8420 0.8410 0.8310
579.824752 0.8071 0.7442 0.6285 0.6220 0.6290
584.210722 0.6550 0.6780 0.7399 0.7819 0.8269
588.596691 0.8589 0.8809 0.9029 0.9120 0.9309
592.982661 0.9330 0.9330 0.9310 0.9200 0.9120
597.368630 0.9040 0.9000 0.9000 0.9179 0.9260
601.754600 0.9340 0.9420 0.9460 0.9490 0.9500
606.140569 0.9560 0.9610 0.9650 0.9650 0.9630
610.526539 0.9600 0.9490 0.9310 0.9190 0.9070
614.912509 0.8960 0.8820 0.8700 0.8590 0.8590
619.298478 0.8620 0.8700 0.8850 0.9000 0.9150
623.684448 0.9260 0.9300 0.9340 0.9380 0.9420
628.070417 0.9480 0.9530 0.9570 0.9630 0.9650
632.456387 0.9690 0.9720 0.9750 0.9760 0.9780
636.842356 0.9790 0.9800 0.9820 0.9830 0.9840
641.228326 0.9840 0.9840 0.9860 0.9840 0.9840
645.614296 0.9840 0.9840 0.9840 0.9830 0.9830
650.000265 0.9820 0.9820 0.9800 0.9790 0.9790
654.386235 0.9780 0.9760 0.9760 0.9740 0.9710
658.772204 0.9710 0.9710 0.9720 0.9720 0.9740
663.158174 0.9740 0.9750 0.9750 0.9750 0.9760
667.544143 0.9760 0.9790 0.9800 0.9800 0.9800
671.930113 0.9800 0.9780 0.9750 0.9750 0.9750
676.316082 0.9750 0.9750 0.9740 0.9740 0.9740
680.702052 0.9720 0.9720 0.9720 0.9690 0.9690
685.088022 0.9680 0.9680 0.9670 0.9650 0.9640
689.473991 0.9630 0.9610 0.9590 0.9590 0.9570
693.859961 0.9560 0.9540 0.9520 0.9460 0.9450
698.245930 0.9410 0.9370 0.9310 0.9240 0.9110
702.631900 0.8940 0.8721 0.8481 0.8161 0.7623
707.017869 0.7130 0.7100 0.7130 0.7340 0.7799
711.403839 0.8179 0.8449 0.8589 0.8680 0.8700
715.789809 0.8680 0.8520 0.8400 0.8310 0.8230
720.175778 0.8150 0.8140 0.8100 0.8060 0.8010
724.561748 0.7990 0.7960 0.7950 0.7950 0.7960
728.947717 0.7970 0.7990 0.8010 0.8040 0.8060
733.333687 0.8110 0.8140 0.8160 0.8160 0.8180
737.719656 0.8180 0.8160 0.8160 0.8150 0.8140
742.105626 0.8070 0.7960 0.7850 0.7770 0.7740
746.491595 0.7710 0.7650 0.7580 0.7550 0.7560
750.877565 0.7600 0.7620 0.7630 0.7630 0.7590
755.263535 0.7550 0.7470 0.7370 0.7250 0.7140
759.649504 0.7060 0.6950 0.6930 0.6960 0.7210
764.035474 0.7549 0.8178 0.8619 0.8670 0.8720
768.421443 0.8770 0.8780 0.8790 0.8790 0.8810
772.807413 0.8790 0.8810 0.8810 0.8810 0.8790
777.193382 0.8790 0.8780 0.8780 0.8770 0.8750
781.579352 0.8720 0.8710 0.8700 0.8700 0.8700
785.965322 0.8680 0.8680 0.8670 0.8670 0.8670
790.351291 0.8660 0.8660 0.8660 0.8640 0.8640
794.737261 0.8640 0.8640 0.8640 0.8640 0.8640
799.123230 0.8640 0.8630 0.8630 0.8620 0.8600
803.509200 0.8600 0.8600 0.8590 0.8590 0.8530
807.895169 0.8490 0.8460 0.8420 0.8380 0.8330
812.281139 0.8230 0.8110 0.7930 0.7700 0.7361
816.667109 0.7001 0.6591 0.6241 0.5941 0.5353
821.053078 0.5340 0.5350 0.5730 0.6129 0.6499
825.439048 0.6949 0.7438 0.8028 0.8070 0.8418
829.825017 0.8520 0.8520 0.8510 0.8490 0.7961
834.210987 0.7631 0.7620 0.7630 0.7660 0.7690
838.596956 0.7700 0.7700 0.7700 0.7690 0.7670
842.982926 0.7630 0.7600 0.7620 0.7750 0.7860
847.368895 0.7930 0.8110 0.8340 0.8530 0.8640
851.754865 0.8700 0.8740 0.8750 0.8790 0.8820
856.140835 0.8820 0.8780 0.8770 0.8770 0.8750
860.526804 0.8750 0.8770 0.8780 0.8790 0.8790
864.912774 0.8790 0.8790 0.8780 0.8780 0.8770
869.298743 0.8720 0.8700 0.8670 0.8670 0.8670
873.684713 0.8680 0.8680 0.8700 0.8710 0.8710
878.070682 0.8740 0.8750 0.8770 0.8780 0.8790
882.456652 0.8810 0.8820 0.8830 0.8850 0.8850
886.842622 0.8850 0.8850 0.8850 0.8830 0.8830
891.228591 0.8830 0.8820 0.8810 0.8780 0.8770
895.614561 0.8750 0.8740 0.8720 0.8710 0.8680
900.000530 0.8660 0.8600 0.8570 0.8520 0.8480
904.386500 0.8440 0.8370 0.8360 0.8310 0.8300
908.772469 0.8290 0.8290 0.8270 0.8260 0.8230
913.158439 0.8220 0.8210 0.8180 0.8120 0.8030
917.544408 0.7950 0.7890 0.7810 0.7730 0.7660
921.930378 0.7580 0.7480 0.7410 0.7330 0.7250
926.316348 0.7180 0.7090 0.6960 0.6830 0.6391
930.702317 0.6320 0.6270 0.6210 0.6160 0.6100
935.088287 0.6050 0.5990 0.5940 0.5920 0.5910
939.474256 0.5920 0.6070 0.6319 0.6420 0.6440
943.860226 0.6530 0.6630 0.6630 0.6620 0.6570
948.246195 0.6510 0.6460 0.6390 0.6290 0.6270
952.632165 0.6200 0.6140 0.6120 0.6090 0.6020
957.018135 0.6010 0.5960 0.5900 0.5830 0.5770
961.404104 0.5750 0.5660 0.5640 0.5620 0.5640
965.790074 0.5650 0.5730 0.5810 0.5880 0.6019
970.176043 0.6130 0.6330 0.6400 0.6420 0.6420
974.562013 0.6370 0.6350 0.6350 0.6360 0.6390
978.947982 0.6510 0.6760 0.7020 0.7110 0.7210
983.333952 0.7220 0.7220 0.7220 0.7210 0.7190
987.719921 0.7190 0.7220 0.7400 0.7510 0.7820
992.105891 0.8060 0.8150 0.8260 0.8310 0.8459
996.491861 0.8510 0.8620 0.8640 0.8680 0.8770
1000.877830 0.8780 0.8790 0.8820 0.8830 0.8850
1005.263800 0.8850 0.8830 0.8820 0.8820 0.8810
1009.649769 0.8790 0.8780 0.8750 0.8720 0.8710
1014.035739 0.8700 0.8700 0.8680 0.8660 0.8620
1018.421708 0.8520 0.8410 0.8290 0.8270 0.8290
1022.807678 0.8370 0.8440 0.8480 0.8510 0.8560
1027.193648 0.8570 0.8560 0.8520 0.8490 0.8450
1031.579617 0.8310 0.8270 0.8250 0.8190 0.8100
1035.965587 0.7990 0.7930 0.7900 0.7860 0.7800
1040.351556 0.7740 0.7660 0.7480 0.7370 0.7330
1044.737526 0.7220 0.7150 0.7100 0.7070 0.7040
1049.123495 0.7020 0.6990 0.6960 0.6930 0.6920
1053.509465 0.6910 0.6890 0.6870 0.6810 0.6720
1057.895434 0.6550 0.6460 0.6430 0.6430 0.6440
1062.281404 0.6510 0.6610 0.6760 0.6909 0.7069
1066.667374 0.7240 0.7370 0.7470 0.7600 0.7730
1071.053343 0.7850 0.7960 0.8080 0.8190 0.8290
1075.439313 0.8380 0.8450 0.8490 0.8550 0.8620
1079.825282 0.8670 0.8720 0.8750 0.8810 0.8820
1084.211252 0.8830 0.8860 0.8870 0.8890 0.8890
1088.597221 0.8890 0.8890 0.8890 0.8890 0.8890
1092.983191 0.8900 0.8900 0.8890 0.8890 0.8890
1097.369161 0.8870 0.8870 0.8820 0.8770 0.8710
1101.755130 0.8700 0.8670 0.8630 0.8600 0.8600
1106.141100 0.8590 0.8590 0.8590 0.8600 0.8600
1110.527069 0.8600 0.8590 0.8570 0.8560 0.8520
1114.913039 0.8490 0.8440 0.8370 0.8290 0.8180
1119.299008 0.7960 0.7660 0.7300 0.6760 0.6590
1123.684978 0.6420 0.6280 0.6160 0.6030 0.6010
1128.070947 0.6020 0.6030 0.6090 0.6140 0.6200
1132.456917 0.6280 0.6390 0.6470 0.6570 0.6650
1136.842887 0.6800 0.6890 0.7100 0.7260 0.7280
1141.228856 0.7290 0.7280 0.7250 0.7220 0.7170
1145.614826 0.7100 0.7060 0.7030 0.7000 0.6990
1150.000795 0.6890 0.6850 0.6840 0.6850 0.6890
1154.386765 0.7170 0.7280 0.7290 0.7400 0.7410
1158.772734 0.7590 0.7750 0.7929 0.8070 0.8080
1163.158704 0.8080 0.8080 0.8040 0.8010 0.7660
1167.544674 0.7291 0.7090 0.7000 0.6920 0.6880
1171.930643 0.6870 0.6840 0.6830 0.6830 0.6840
1176.316613 0.6990 0.7150 0.7698 0.8009 0.8209
1180.702582 0.8300 0.8410 0.8590 0.8620 0.8740
1185.088552 0.8780 0.8780 0.8780 0.8780 0.8770
1189.474521 0.8740 0.8720 0.8640 0.8620 0.8520
1193.860491 0.8261 0.7731 0.7551 0.7371 0.7191
1198.246461 0.7020 0.6840 0.5531 0.4371 0.4350
1202.632430 0.4370 0.5058 0.5528 0.6168 0.6827
1207.018400 0.7430 0.7850 0.8120 0.8370 0.8480
1211.404369 0.8600 0.8700 0.8790 0.8830 0.8850
1215.790339 0.8870 0.8870 0.8900 0.8940 0.8960
1220.176308 0.8980 0.8980 0.8980 0.8970 0.8930
1224.562278 0.8740 0.8570 0.8460 0.8370 0.8300
1228.948247 0.8230 0.8190 0.8150 0.8100 0.8040
1233.334217 0.8030 0.8000 0.8010 0.8060 0.8120
1237.720187 0.8250 0.8340 0.8450 0.8530 0.8560
1242.106156 0.8590 0.8600 0.8600 0.8600 0.8620
1246.492126 0.8670 0.8720 0.8790 0.8810 0.8870
1250.878095 0.8890 0.8900 0.8920 0.8920 0.8920
1255.264065 0.8900 0.8900 0.8900 0.8890 0.8890
1259.650034 0.8890 0.8870 0.8850 0.8780 0.8720
1264.036004 0.8670 0.8590 0.8510 0.8450 0.8400
1268.421974 0.8370 0.8340 0.8310 0.8230 0.8120
1272.807943 0.7990 0.7860 0.7740 0.7710 0.7700
1277.193913 0.7700 0.7710 0.7730 0.7740 0.7800
1281.579882 0.7850 0.7920 0.8010 0.8080 0.8150
1285.965852 0.8210 0.8220 0.8220 0.8210 0.8190
1290.351821 0.8180 0.8100 0.8040 0.7970 0.7930
1294.737791 0.7900 0.7900 0.7900 0.7890 0.7890
1299.123760 0.7880 0.7880 0.7840 0.7770 0.7670
1303.509730 0.7590 0.7410 0.7220 0.7030 0.6830
1307.895700 0.6610 0.6361 0.6290 0.6200 0.6180
1312.281669 0.6210 0.6290 0.6310 0.6310 0.6290
1316.667639 0.6240 0.6140 0.5951 0.5791 0.5651
1321.053608 0.5420 0.5050 0.4940 0.4221 0.4040
1325.439578 0.3850 0.3660 0.3461 0.3271 0.2702
1329.825547 0.2300 0.1930 0.1850 0.1730 0.1620
1334.211517 0.1500 0.1390 0.1290 0.1270 0.1280
1338.597487 0.1320 0.1390 0.1460 0.1530 0.1590
1342.983456 0.1630 0.1840 0.2000 0.2090 0.2150
1347.369426 0.2210 0.2300 0.2360 0.2390 0.2400
1351.755395 0.2410 0.2430 0.2450 0.2480 0.2500
1356.141365 0.2620 0.2810 0.2970 0.3120 0.3260
1360.527334 0.3410 0.3570 0.3740 0.3939 0.4129
1364.913304 0.4340 0.4530 0.4710 0.4900 0.5060
1369.299273 0.5210 0.5350 0.5400 0.5460 0.5430
1373.685243 0.5420 0.5380 0.5340 0.5200 0.5150
1378.071213 0.5080 0.5040 0.5000 0.4980 0.4980
1382.457182 0.5000 0.5080 0.5120 0.5200 0.5320
1386.843152 0.5500 0.5710 0.5860 0.5870 0.5940
1391.229121 0.5990 0.6020 0.6050 0.6070 0.6090
1395.615091 0.6120 0.6120 0.6130 0.6100 0.6030
1400.001060 0.6010 0.5910 0.5680 0.5650 0.5640
1404.387030 0.5580 0.5540 0.5470 0.5380 0.5231
1408.773000 0.5100 0.5010 0.4900 0.4870 0.4840
1413.158969 0.4800 0.4780 0.4760 0.4750 0.4740
1417.544939 0.4710 0.4650 0.4600 0.4490 0.4031
1421.930908 0.4000 0.3980 0.3980 0.4000 0.4030
1426.316878 0.4050 0.4070 0.4110 0.4130 0.4160
1430.702847 0.4190 0.4200 0.4200 0.4200 0.4200
1435.088817 0.4190 0.4180 0.4150 0.4130 0.4120
1439.474786 0.4120 0.4110 0.4110 0.4090 0.4090
1443.860756 0.4090 0.4090 0.4110 0.4110 0.4110
1448.246726 0.4090 0.4070 0.4010 0.3851 0.3701
1452.632695 0.3550 0.3450 0.3400 0.3300 0.3290
1457.018665 0.3250 0.3210 0.3190 0.3160 0.3120
1461.404634 0.3070 0.3040 0.3010 0.2990 0.2990
1465.790604 0.2990 0.3000 0.3160 0.3340 0.3509
1470.176573 0.3620 0.3770 0.3960 0.4130 0.4280
1474.562543 0.4340 0.4450 0.4490 0.4540 0.4600
1478.948513 0.4650 0.4690 0.4760 0.4780 0.4800
1483.334482 0.4830 0.4870 0.4890 0.4910 0.4930
1487.720452 0.4950 0.4970 0.4980 0.4980 0.4980
1492.106421 0.5000 0.5000 0.5000 0.5000 0.4980
1496.492391 0.4980 0.4970 0.4970 0.4950 0.4940
1500.878360 0.4910 0.4900 0.4870 0.4840 0.4820
1505.264330 0.4780 0.4760 0.4740 0.4720 0.4690
1509.650299 0.4650 0.4610 0.4570 0.4520 0.4480
1514.036269 0.4450 0.4420 0.4390 0.4330 0.4310
1518.422239 0.4270 0.4200 0.4150 0.4080 0.4010
1522.808208 0.3940 0.3870 0.3810 0.3740 0.3670
1527.194178 0.3620 0.3560 0.3510 0.3460 0.3440
1531.580147 0.3410 0.3380 0.3340 0.3310 0.3310
1535.966117 0.3300 0.3290 0.3290 0.3290 0.3290
1540.352086 0.3290 0.3290 0.3290 0.3290 0.3290
1544.738056 0.3290 0.3270 0.3270 0.3260 0.3250
1549.124026 0.3220 0.3160 0.3110 0.3060 0.3030
1553.509995 0.3030 0.2990 0.2960 0.2920 0.2890
1557.895965 0.2850 0.2820 0.2750 0.2710 0.2550
1562.281934 0.2430 0.2400 0.2370 0.2340 0.2330
1566.667904 0.2330 0.2330 0.2340 0.2360 0.2400
1571.053873 0.2440 0.2480 0.2520 0.2590 0.2650
1575.439843 0.2710 0.2770 0.2890 0.3040 0.3070
1579.825812 0.3100 0.3160 0.3180 0.3190 0.3190
1584.211782 0.3190 0.3180 0.3160 0.3120 0.3100
1588.597752 0.2970 0.2850 0.2740 0.2620 0.2510
1592.983721 0.2390 0.2280 0.2170 0.2040 0.1930
1597.369691 0.1810 0.1690 0.1550 0.1430 0.1280
1601.755660 0.0990 0.0830 0.0650 0.0490 0.0460
1606.141630 0.0430 0.0430 0.0420 0.0420 0.0430
1610.527599 0.0450 0.0460 0.0490 0.0560 0.0580
1614.913569 0.0750 0.0960 0.1060 0.1140 0.1180
1619.299539 0.1430 0.1570 0.1630 0.1660 0.1680
1623.685508 0.1680 0.1700 0.1720 0.1720 0.1700
1628.071478 0.1700 0.1660 0.1650 0.1550 0.1510
1632.457447 0.1500 0.1500 0.1500 0.1510 0.1570
1636.843417 0.1620 0.1680 0.1730 0.1770 0.1850
1641.229386 0.1930 0.2000 0.2060 0.2130 0.2170
1645.615356 0.2180 0.2190 0.2210 0.2210 0.2150
1650.001326 0.2140 0.2100 0.2070 0.2000 0.1930
1654.387295 0.1840 0.1760 0.1650 0.1550 0.1510
1658.773265 0.1470 0.1440 0.1370 0.1280 0.1170
1663.159234 0.0950 0.0840 0.0730 0.0640 0.0540
1667.545204 0.0450 0.0380 0.0310 0.0270 0.0230
1671.931173 0.0210 0.0210 0.0200 0.0190 0.0190
1676.317143 0.0170 0.0160 0.0160 0.0170 0.0200
1680.703112 0.0300 0.0310 0.0420 0.0540 0.0660
1685.089082 0.0790 0.0880 0.1050 0.1210 0.1529
1689.475052 0.1840 0.2130 0.2410 0.2700 0.2970
1693.861021 0.3230 0.3489 0.3719 0.3959 0.4189
1698.246991 0.4410 0.4610 0.4800 0.5000 0.5160
1702.632960 0.5340 0.5490 0.5620 0.5760 0.5880
1707.018930 0.5990 0.6090 0.6180 0.6270 0.6320
1711.404899 0.6420 0.6480 0.6570 0.6650 0.6760
1715.790869 0.6880 0.6990 0.7100 0.7240 0.7370
1720.176839 0.7480 0.7600 0.7700 0.7780 0.7860
1724.562808 0.7920 0.7950 0.7960 0.8030 0.8040
1728.948778 0.8080 0.8120 0.8160 0.8220 0.8260
1733.334747 0.8300 0.8310 0.8310 0.8330 0.8370
1737.720717 0.8370 0.8380 0.8380 0.8400 0.8410
1742.106686 0.8410 0.8410 0.8440 0.8440 0.8440
1746.492656 0.8440 0.8440 0.8440 0.8440 0.8440
1750.878625 0.8450 0.8460 0.8480 0.8490 0.8490
1755.264595 0.8510 0.8510 0.8520 0.8530 0.8550
1759.650565 0.8560 0.8570 0.8590 0.8620 0.8630
1764.036534 0.8640 0.8660 0.8680 0.8700 0.8720
1768.422504 0.8720 0.8750 0.8770 0.8780 0.8810
1772.808473 0.8830 0.8830 0.8850 0.8860 0.8870
1777.194443 0.8870 0.8870 0.8890 0.8890 0.8890
1781.580412 0.8890 0.8890 0.8890 0.8890 0.8890
1785.966382 0.8890 0.8890 0.8890 0.8890 0.8890
1790.352352 0.8890 0.8870 0.8870 0.8870 0.8860
1794.738321 0.8860 0.8860 0.8850 0.8830 0.8820
1799.124291 0.8820 0.8820 0.8820 0.8810 0.8810
1803.510260 0.8790 0.8790 0.8780 0.8780 0.8750
1807.896230 0.8750 0.8750 0.8740 0.8720 0.8720
1812.282199 0.8720 0.8720 0.8720 0.8720 0.8720
1816.668169 0.8710 0.8710 0.8670 0.8620 0.8600
1821.054138 0.8590 0.8590 0.8570 0.8560 0.8560
1825.440108 0.8550 0.8530 0.8520 0.8520 0.8510
1829.826078 0.8480 0.8480 0.8480 0.8480 0.8460
1834.212047 0.8460 0.8460 0.8460 0.8450 0.8450
1838.598017 0.8450 0.8450 0.8450 0.8450 0.8450
1842.983986 0.8450 0.8450 0.8450 0.8460 0.8480
1847.369956 0.8480 0.8480 0.8480 0.8480 0.8490
1851.755925 0.8490 0.8510 0.8510 0.8510 0.8520
1856.141895 0.8520 0.8530 0.8530 0.8550 0.8550
1860.527865 0.8550 0.8560 0.8560 0.8560 0.8560
1864.913834 0.8570 0.8570 0.8590 0.8590 0.8600
1869.299804 0.8600 0.8620 0.8620 0.8630 0.8630
1873.685773 0.8640 0.8640 0.8640 0.8660 0.8680
1878.071743 0.8680 0.8700 0.8700 0.8700 0.8700
1882.457712 0.8700 0.8710 0.8710 0.8720 0.8720
1886.843682 0.8720 0.8740 0.8750 0.8770 0.8770
1891.229651 0.8770 0.8770 0.8770 0.8770 0.8770
1895.615621 0.8770 0.8770 0.8780 0.8780 0.8780
1900.001591 0.8780 0.8770 0.8770 0.8770 0.8750
1904.387560 0.8740 0.8740 0.8740 0.8740 0.8720
1908.773530 0.8720 0.8720 0.8720 0.8720 0.8720
1913.159499 0.8720 0.8720 0.8720 0.8720 0.8720
1917.545469 0.8720 0.8720 0.8740 0.8740 0.8750
1921.931438 0.8750 0.8750 0.8750 0.8750 0.8750
1926.317408 0.8750 0.8750 0.8750 0.8770 0.8770
1930.703378 0.8770 0.8780 0.8790 0.8790 0.8790
1935.089347 0.8790 0.8810 0.8820 0.8820 0.8820
1939.475317 0.8820 0.8820 0.8820 0.8820 0.8820
1943.861286 0.8820 0.8820 0.8820 0.8820 0.8820
1948.247256 0.8820 0.8820 0.8820 0.8820 0.8820
1952.633225 0.8820 0.8820 0.8820 0.8820 0.8820
1957.019195 0.8830 0.8830 0.8830 0.8830 0.8830
1961.405164 0.8830 0.8850 0.8850 0.8850 0.8850
1965.791134 0.8850 0.8850 0.8850 0.8850 0.8850
1970.177104 0.8850 0.8850 0.8850 0.8850 0.8850
1974.563073 0.8850 0.8850 0.8850 0.8850 0.8850
1978.949043 0.8850 0.8850 0.8850 0.8850 0.8850
1983.335012 0.8850 0.8850 0.8850 0.8850 0.8830
1987.720982 0.8830 0.8830 0.8830 0.8830 0.8830
1992.106951 0.8820 0.8820 0.8820 0.8820 0.8810
1996.492921 0.8810 0.8790 0.8790 0.8780 0.8780
2000.878891 0.8775 0.8770 0.8760 0.8750 0.8750
2005.264860 0.8750 0.8745 0.8740 0.8730 0.8720
2009.650830 0.8720 0.8720 0.8715 0.8710 0.8705
2014.036799 0.8700 0.8700 0.8699 0.8689 0.8679
2018.422769 0.8674 0.8670 0.8670 0.8669 0.8664
2022.808738 0.8660 0.8660 0.8659 0.8649 0.8639
2027.194708 0.8634 0.8629 0.8624 0.8620 0.8620
2031.580678 0.8620 0.8620 0.8618 0.8608 0.8600
2035.966647 0.8600 0.8600 0.8600 0.8599 0.8594
2040.352617 0.8590 0.8590 0.8588 0.8578 0.8570
2044.738586 0.8570 0.8569 0.8564 0.8560 0.8560
2049.124556 0.8559 0.8554 0.8550 0.8550 0.8547
2053.510525 0.8537 0.8528 0.8523 0.8520 0.8520
2057.896495 0.8520 0.8520 0.8518 0.8513 0.8510
2062.282464 0.8510 0.8510 0.8510 0.8506 0.8496
2066.668434 0.8490 0.8490 0.8490 0.8490 0.8488
2071.054404 0.8483 0.8480 0.8480 0.8476 0.8466
2075.440373 0.8460 0.8460 0.8460 0.8460 0.8458
2079.826343 0.8453 0.8450 0.8450 0.8450 0.8450
2084.212312 0.8448 0.8443 0.8440 0.8440 0.8440
2088.598282 0.8440 0.8435 0.8425 0.8417 0.8412
2092.984251 0.8410 0.8410 0.8410 0.8410 0.8407
2097.370221 0.8402 0.8400 0.8400 0.8394 0.8384
2101.756191 0.8380 0.8380 0.8377 0.8372 0.8367
2106.142160 0.8362 0.8360 0.8360 0.8354 0.8344
2110.528130 0.8340 0.8340 0.8337 0.8332 0.8324
2114.914099 0.8314 0.8310 0.8310 0.8307 0.8302
2119.300069 0.8300 0.8300 0.8297 0.8292 0.8283
2123.686038 0.8273 0.8270 0.8270 0.8263 0.8253
2128.072008 0.8250 0.8250 0.8250 0.8250 0.8250
2132.457977 0.8250 0.8242 0.8232 0.8230 0.8230
2136.843947 0.8230 0.8230 0.8226 0.8221 0.8220
2141.229917 0.8220 0.8216 0.8211 0.8210 0.8210
2145.615886 0.8202 0.8192 0.8190 0.8190 0.8186
2150.001856 0.8181 0.8180 0.8180 0.8171 0.8161
2154.387825 0.8156 0.8151 0.8146 0.8141 0.8126
2158.773795 0.8111 0.8110 0.8110 0.8096 0.8081
2163.159764 0.8075 0.8070 0.8065 0.8060 0.8060
2167.545734 0.8060 0.8050 0.8040 0.8026 0.8011
2171.931704 0.8000 0.7990 0.7980 0.7970 0.7965
2176.317673 0.7960 0.7955 0.7950 0.7950 0.7950
2180.703643 0.7950 0.7950 0.7950 0.7950 0.7940
2185.089612 0.7930 0.7930 0.7930 0.7930 0.7930
2189.475582 0.7925 0.7919 0.7909 0.7900 0.7900
2193.861551 0.7899 0.7894 0.7890 0.7890 0.7889
2198.247521 0.7884 0.7880 0.7880 0.7879 0.7869
2202.633490 0.7860 0.7860 0.7859 0.7854 0.7848
2207.019460 0.7832 0.7820 0.7820 0.7818 0.7808
2211.405430 0.7800 0.7800 0.7798 0.7788 0.7780
2215.791399 0.7780 0.7779 0.7774 0.7770 0.7770
2220.177369 0.7768 0.7757 0.7747 0.7737 0.7726
2224.563338 0.7711 0.7694 0.7674 0.7655 0.7640
2228.949308 0.7628 0.7623 0.7617 0.7607 0.7598
2233.335277 0.7593 0.7588 0.7583 0.7577 0.7567
2237.721247 0.7560 0.7560 0.7558 0.7553 0.7550
2242.107217 0.7550 0.7548 0.7543 0.7534 0.7519
2246.493186 0.7508 0.7503 0.7494 0.7479 0.7466
2250.879156 0.7456 0.7448 0.7443 0.7438 0.7433
2255.265125 0.7430 0.7430 0.7425 0.7415 0.7410
2259.651095 0.7410 0.7408 0.7403 0.7398 0.7392
2264.037064 0.7385 0.7375 0.7367 0.7362 0.7355
2268.423034 0.7345 0.7337 0.7332 0.7327 0.7322
2272.809003 0.7312 0.7297 0.7290 0.7290 0.7287
2277.194973 0.7282 0.7274 0.7264 0.7260 0.7260
2281.580943 0.7257 0.7252 0.7247 0.7242 0.7240
2285.966912 0.7240 0.7231 0.7215 0.7200 0.7185
2290.352882 0.7177 0.7172 0.7163 0.7153 0.7147
2294.738851 0.7142 0.7137 0.7132 0.7123 0.7113
2299.124821 0.7110 0.7110 0.7110 0.7110 0.7106
2303.510790 0.7101 0.7100 0.7100 0.7100 0.7100
2307.896760 0.7096 0.7091 0.7082 0.7072 0.7070
2312.282730 0.7070 0.7070 0.7070 0.7070 0.7070
2316.668699 0.7070 0.7070 0.7070 0.7070 0.7066
2321.054669 0.7061 0.7060 0.7060 0.7060 0.7060
2325.440638 0.7060 0.7060 0.7051 0.7041 0.7040
2329.826608 0.7040 0.7040 0.7040 0.7040 0.7040
2334.212577 0.7040 0.7040 0.7040 0.7040 0.7040
2338.598547 0.7040 0.7040 0.7040 0.7049 0.7059
2342.984516 0.7060 0.7060 0.7050 0.7040 0.7040
2347.370486 0.7040 0.7040 0.7040 0.7035 0.7030
2351.756456 0.7005 0.6980 0.6970 0.6960 0.6960
2356.142425 0.6960 0.6970 0.6980 0.6990 0.7000
2360.528395 0.7000 0.7001 0.7021 0.7041 0.7051
2364.914364 0.7060 0.7065 0.7070 0.7070 0.7069
2369.300334 0.7064 0.7059 0.7049 0.7037 0.7012
2373.686303 0.6989 0.6984 0.6976 0.6946 0.6916
2378.072273 0.6891 0.6865 0.6829 0.6795 0.6765
2382.458243 0.6736 0.6710 0.6686 0.6666 0.6648
2386.844212 0.6638 0.6628 0.6618 0.6610 0.6610
2391.230182 0.6608 0.6598 0.6589 0.6584 0.6579
2395.616151 0.6574 0.6566 0.6551 0.6540 0.6540
2400.002121 0.6539 0.6534 0.6530 0.6530 0.6525
2404.388090 0.6510 0.6500 0.6500 0.6497 0.6487
2408.774060 0.6478 0.6473 0.6468 0.6463 0.6457
2413.160030 0.6446 0.6436 0.6426 0.6420 0.6420
2417.545999 0.6416 0.6406 0.6398 0.6393 0.6386
2421.931969 0.6376 0.6370 0.6370 0.6368 0.6363
2426.317938 0.6358 0.6353 0.6343 0.6328 0.6320
2430.703908 0.6320 0.6318 0.6313 0.6305 0.6295
2435.089877 0.6288 0.6283 0.6278 0.6272 0.6262
2439.475847 0.6247 0.6240 0.6240 0.6235 0.6225
2443.861816 0.6215 0.6205 0.6192 0.6177 0.6167
2448.247786 0.6162 0.6152 0.6137 0.6119 0.6099
2452.633756 0.6084 0.6074 0.6064 0.6054 0.6050
2457.019725 0.6050 0.6050 0.6050 0.6044 0.6034
2461.405695 0.6030 0.6030 0.6027 0.6022 0.6020
2465.791664 0.6020 0.6017 0.6012 0.6003 0.5993
2470.177634 0.5990 0.5990 0.5987 0.5981 0.5973
2474.563603 0.5963 0.5956 0.5951 0.5946 0.5941
2478.949573 0.5933 0.5923 0.5916 0.5911 0.5906
2483.335543 0.5901 0.5900 0.5900 0.5892 0.5882
2487.721512 0.5880 0.5880 0.5872 0.5862 0.5840
2492.107482 0.5815 0.5806 0.5801 0.5796 0.5791
2496.493451 0.5782 0.5772 0.5766 0.5761 0.5747
2500.879421 0.5732 0.5726 0.5721 0.5716 0.5711
2505.265390 0.5697 0.5682 0.5671 0.5661 0.5651
2509.651360 0.5641 0.5626 0.5611 0.5605 0.5600
2514.037329 0.5591 0.5581 0.5575 0.5570 0.5565
2518.423299 0.5560 0.5550 0.5540 0.5535 0.5530
2522.809269 0.5520 0.5510 0.5505 0.5500 0.5495
2527.195238 0.5490 0.5480 0.5470 0.5465 0.5460
2531.581208 0.5445 0.5430 0.5425 0.5419 0.5404
2535.967177 0.5390 0.5385 0.5379 0.5364 0.5350
2540.353147 0.5345 0.5339 0.5324 0.5309 0.5304
2544.739116 0.5298 0.5283 0.5269 0.5259 0.5249
2549.125086 0.5239 0.5228 0.5213 0.5198 0.5183
2553.511056 0.5169 0.5164 0.5158 0.5143 0.5129
2557.897025 0.5124 0.5118 0.5108 0.5098 0.5088
2562.282995 0.5078 0.5068 0.5059 0.5054 0.5047
2566.668964 0.5032 0.5019 0.5014 0.5006 0.4991
2571.054934 0.4976 0.4961 0.4947 0.4937 0.4927
2575.440903 0.4917 0.4907 0.4897 0.4887 0.4877
2579.826873 0.4865 0.4850 0.4837 0.4827 0.4817
2584.212842 0.4807 0.4797 0.4787 0.4777 0.4767
2588.598812 0.4756 0.4746 0.4736 0.4726 0.4714
2592.984782 0.4699 0.4686 0.4676 0.4666 0.4656
2597.370751 0.4646 0.4636 0.4626 0.4616 0.4606
2601.756721 0.4596 0.4586 0.4576 0.4561 0.4541
2606.142690 0.4521 0.4501 0.4488 0.4483 0.4468
2610.528660 0.4443 0.4420 0.4400 0.4385 0.4375
2614.914629 0.4365 0.4355 0.4345 0.4335 0.4325
2619.300599 0.4315 0.4307 0.4302 0.4295 0.4285
2623.686569 0.4269 0.4249 0.4229 0.4209 0.4197
2628.072538 0.4192 0.4187 0.4182 0.4174 0.4164
2632.458508 0.4151 0.4136 0.4127 0.4122 0.4111
2636.844477 0.4096 0.4084 0.4074 0.4064 0.4054
2641.230447 0.4043 0.4033 0.4020 0.4005 0.3993
2645.616416 0.3983 0.3973 0.3963 0.3953 0.3943
2650.002386 0.3936 0.3931 0.3919 0.3904 0.3896
2654.388355 0.3891 0.3883 0.3873 0.3870 0.3870
2658.774325 0.3866 0.3861 0.3860 0.3860 0.3860
2663.160295 0.3860 0.3856 0.3851 0.3842 0.3832
2667.546264 0.3830 0.3830 0.3830 0.3830 0.3830
2671.932234 0.3830 0.3826 0.3821 0.3820 0.3820
2676.318203 0.3820 0.3820 0.3816 0.3811 0.3810
2680.704173 0.3810 0.3801 0.3791 0.3785 0.3780
2685.090142 0.3762 0.3742 0.3722 0.3701 0.3681
2689.476112 0.3661 0.3646 0.3631 0.3625 0.3620
2693.862082 0.3610 0.3600 0.3595 0.3590 0.3580
2698.248051 0.3570 0.3565 0.3560 0.3555 0.3550
2702.634021 0.3540 0.3530 0.3525 0.3520 0.3505
2707.019990 0.3489 0.3474 0.3460 0.3450 0.3439
2711.405960 0.3408 0.3379 0.3369 0.3359 0.3349
2715.791929 0.3340 0.3335 0.3329 0.3319 0.3309
2720.177899 0.3304 0.3299 0.3294 0.3289 0.3279
2724.563868 0.3269 0.3259 0.3249 0.3239 0.3229
2728.949838 0.3224 0.3219 0.3214 0.3207 0.3192
2733.335808 0.3177 0.3162 0.3150 0.3150 0.3149
2737.721777 0.3144 0.3140 0.3140 0.3138 0.3128
2742.107747 0.3119 0.3114 0.3110 0.3110 0.3110
2746.493716 0.3110 0.3109 0.3104 0.3100 0.3100
2750.879686 0.3097 0.3087 0.3080 0.3080 0.3078
2755.265655 0.3073 0.3070 0.3070 0.3070 0.3070
2759.651625 0.3068 0.3063 0.3060 0.3060 0.3060
2764.037595 0.3060 0.3056 0.3046 0.3040 0.3040
2768.423564 0.3040 0.3040 0.3040 0.3040 0.3038
2772.809534 0.3033 0.3030 0.3030 0.3026 0.3016
2777.195503 0.3010 0.3010 0.3010 0.3010 0.3008
2781.581473 0.3003 0.3000 0.3000 0.3000 0.3000
2785.967442 0.3000 0.3000 0.2997 0.2992 0.2990
2790.353412 0.2990 0.2985 0.2975 0.2970 0.2970
2794.739382 0.2970 0.2970 0.2970 0.2970 0.2970
2799.125351 0.2970 0.2970 0.2970 0.2976 0.2986
2803.511321 0.2990 0.2990 0.2990 0.2990 0.2993
2807.897290 0.2998 0.3000 0.3000 0.3000 0.3000
2812.283260 0.3003 0.3008 0.3010 0.3010 0.3010
2816.669229 0.3010 0.3010 0.3010 0.3017 0.3027
2821.055199 0.3030 0.3030 0.3030 0.3030 0.3030
2825.441168 0.3030 0.3030 0.3030 0.3030 0.3030
2829.827138 0.3034 0.3039 0.3040 0.3040 0.3040
2834.213108 0.3040 0.3040 0.3040 0.3036 0.3031
2838.599077 0.3018 0.3003 0.2988 0.2973 0.2970
2842.985047 0.2970 0.2966 0.2961 0.2956 0.2951
2847.371016 0.2950 0.2950 0.2950 0.2950 0.2954
2851.756986 0.2959 0.2964 0.2969 0.2970 0.2970
2856.142955 0.2966 0.2961 0.2946 0.2931 0.2930
2860.528925 0.2930 0.2916 0.2901 0.2891 0.2881
2864.914895 0.2871 0.2861 0.2851 0.2841 0.2840
2869.300864 0.2840 0.2845 0.2850 0.2899 0.2950
2873.686834 0.3010 0.3070 0.3265 0.3460 0.3485
2878.072803 0.3510 0.3530 0.3550 0.3555 0.3560
2882.458773 0.3565 0.3570 0.3580 0.3590 0.3590
2886.844742 0.3590 0.3590 0.3590 0.3590 0.3589
2891.230712 0.3574 0.3560 0.3560 0.3559 0.3554
2895.616681 0.3549 0.3539 0.3528 0.3507 0.3489
2900.002651 0.3484 0.3477 0.3457 0.3437 0.3417
2904.388621 0.3397 0.3377 0.3358 0.3342 0.3326
2908.774590 0.3306 0.3286 0.3266 0.3244 0.3214
2913.160560 0.3186 0.3166 0.3146 0.3125 0.3107
2917.546529 0.3091 0.3075 0.3055 0.3034 0.3009
2921.932499 0.2976 0.2921 0.2869 0.2829 0.2796
2926.318468 0.2781 0.2770 0.2770 0.2775 0.2790
2930.704438 0.2819 0.2879 0.2939 0.3000 0.3060
2935.090408 0.3120 0.3172 0.3207 0.3237 0.3257
2939.476377 0.3275 0.3290 0.3328 0.3404 0.3456
2943.862347 0.3471 0.3474 0.3459 0.3269 0.2822
2948.248316 0.2489 0.2319 0.2214 0.2199 0.2194
2952.634286 0.2204 0.2239 0.2304 0.2371 0.2442
2957.020255 0.2514 0.2590 0.2663 0.2734 0.2807
2961.406225 0.2882 0.2955 0.3025 0.3093 0.3158
2965.792194 0.3229 0.3304 0.3377 0.3447 0.3520
2970.178164 0.3595 0.3668 0.3738 0.3803 0.3863
2974.564134 0.4018 0.4249 0.4393 0.4469 0.4509
2978.950103 0.4524 0.4563 0.4618 0.4661 0.4696
2983.336073 0.4732 0.4767 0.4792 0.4813 0.4833
2987.722042 0.4853 0.4870 0.4885 0.4893 0.4898
2992.108012 0.4903 0.4908 0.4917 0.4927 0.4937
2996.493981 0.4947 0.4957 0.4967 0.4974 0.4979
3000.879951 0.4987 0.4997 0.5014 0.5035 0.5062
3005.265921 0.5092 0.5107 0.5117 0.5135 0.5155
3009.651890 0.5164 0.5169 0.5182 0.5197 0.5204
3014.037860 0.5209 0.5226 0.5246 0.5262 0.5277
3018.423829 0.5296 0.5316 0.5328 0.5338 0.5357
3022.809799 0.5377 0.5388 0.5398 0.5421 0.5446
3027.195768 0.5459 0.5469 0.5487 0.5508 0.5541
3031.581738 0.5576 0.5607 0.5637 0.5658 0.5678
3035.967707 0.5694 0.5709 0.5728 0.5749 0.5769
3040.353677 0.5789 0.5799 0.5809 0.5824 0.5839
3044.739647 0.5850 0.5860 0.5870 0.5880 0.5890
3049.125616 0.5900 0.5910 0.5920 0.5930 0.5940
3053.511586 0.5945 0.5950 0.5965 0.5980 0.5985
3057.897555 0.5990 0.6000 0.6010 0.6015 0.6020
3062.283525 0.6025 0.6031 0.6041 0.6050 0.6055
3066.669494 0.6060 0.6065 0.6071 0.6081 0.6091
3071.055464 0.6096 0.6101 0.6111 0.6121 0.6126
3075.441434 0.6131 0.6136 0.6141 0.6151 0.6162
3079.827403 0.6172 0.6182 0.6192 0.6201 0.6206
3084.213373 0.6211 0.6216 0.6222 0.6232 0.6241
3088.599342 0.6246 0.6252 0.6262 0.6271 0.6276
3092.985312 0.6280 0.6280 0.6280 0.6280 0.6281
3097.371281 0.6286 0.6290 0.6290 0.6290 0.6290
3101.757251 0.6290 0.6290 0.6290 0.6290 0.6290
3106.143220 0.6290 0.6293 0.6303 0.6310 0.6310
3110.529190 0.6310 0.6310 0.6312 0.6317 0.6320
3114.915160 0.6320 0.6320 0.6320 0.6322 0.6327
3119.301129 0.6330 0.6330 0.6330 0.6330 0.6330
3123.687099 0.6330 0.6336 0.6351 0.6360 0.6360
3128.073068 0.6367 0.6382 0.6397 0.6412 0.6422
3132.459038 0.6427 0.6432 0.6437 0.6447 0.6462
3136.845007 0.6480 0.6500 0.6515 0.6525 0.6533
3141.230977 0.6538 0.6548 0.6563 0.6573 0.6578
3145.616947 0.6588 0.6603 0.6613 0.6618 0.6628
3150.002916 0.6643 0.6653 0.6658 0.6666 0.6676
3154.388886 0.6683 0.6688 0.6690 0.6690 0.6693
3158.774855 0.6698 0.6706 0.6716 0.6720 0.6720
3163.160825 0.6723 0.6728 0.6730 0.6730 0.6733
3167.546794 0.6738 0.6740 0.6740 0.6747 0.6757
3171.932764 0.6760 0.6760 0.6760 0.6760 0.6764
3176.318734 0.6769 0.6770 0.6770 0.6770 0.6770
3180.704703 0.6770 0.6770 0.6774 0.6779 0.6780
3185.090673 0.6780 0.6788 0.6798 0.6812 0.6827
3189.476642 0.6838 0.6848 0.6858 0.6868 0.6874
3193.862612 0.6879 0.6892 0.6907 0.6927 0.6947
3198.248581 0.6967 0.6987 0.7003 0.7018 0.7037
3202.634551 0.7057 0.7064 0.7069 0.7070 0.7070
3207.020520 0.7088 0.7108 0.7128 0.7148 0.7150
3211.406490 0.7150 0.7159 0.7169 0.7175 0.7180
3215.792460 0.7194 0.7209 0.7215 0.7220 0.7230
3220.178429 0.7240 0.7245 0.7250 0.7255 0.7260
3224.564399 0.7270 0.7280 0.7285 0.7290 0.7290
3228.950368 0.7290 0.7295 0.7300 0.7300 0.7300
3233.336338 0.7300 0.7300 0.7300 0.7300 0.7300
3237.722307 0.7300 0.7300 0.7300 0.7300 0.7300
3242.108277 0.7300 0.7300 0.7300 0.7300 0.7300
3246.494247 0.7300 0.7300 0.7300 0.7300 0.7300
3250.880216 0.7300 0.7300 0.7300 0.7300 0.7300
3255.266186 0.7300 0.7300 0.7300 0.7300 0.7300
3259.652155 0.7300 0.7300 0.7300 0.7300 0.7300
3264.038125 0.7300 0.7300 0.7300 0.7300 0.7300
3268.424094 0.7300 0.7300 0.7300 0.7303 0.7313
3272.810064 0.7320 0.7320 0.7321 0.7326 0.7330
3277.196033 0.7330 0.7332 0.7337 0.7343 0.7353
3281.582003 0.7362 0.7367 0.7370 0.7370 0.7375
3285.967973 0.7390 0.7400 0.7400 0.7402 0.7407
3290.353942 0.7410 0.7410 0.7414 0.7424 0.7430
3294.739912 0.7430 0.7432 0.7437 0.7440 0.7440
3299.125881 0.7442 0.7447 0.7450 0.7450 0.7450
3303.511851 0.7450 0.7450 0.7450 0.7450 0.7450
3307.897820 0.7450 0.7450 0.7450 0.7450 0.7450
3312.283790 0.7450 0.7450 0.7450 0.7450 0.7450
3316.669760 0.7450 0.7450 0.7450 0.7450 0.7450
3321.055729 0.7450 0.7450 0.7450 0.7450 0.7450
3325.441699 0.7450 0.7450 0.7450 0.7450 0.7450
3329.827668 0.7450 0.7450 0.7450 0.7450 0.7450
3334.213638 0.7450 0.7450 0.7450 0.7450 0.7450
3338.599607 0.7450 0.7450 0.7450 0.7450 0.7450
3342.985577 0.7447 0.7442 0.7440 0.7440 0.7440
3347.371546 0.7440 0.7440 0.7440 0.7440 0.7440
3351.757516 0.7436 0.7431 0.7430 0.7430 0.7430
3356.143486 0.7430 0.7430 0.7430 0.7422 0.7412
3360.529455 0.7410 0.7410 0.7410 0.7410 0.7410
3364.915425 0.7410 0.7410 0.7410 0.7410 0.7410
3369.301394 0.7410 0.7410 0.7410 0.7410 0.7410
3373.687364 0.7410 0.7410 0.7410 0.7410 0.7410
3378.073333 0.7410 0.7410 0.7410 0.7410 0.7410
3382.459303 0.7410 0.7410 0.7410 0.7405 0.7400
3386.845273 0.7400 0.7400 0.7400 0.7400 0.7400
3391.231242 0.7400 0.7400 0.7400 0.7400 0.7400
3395.617212 0.7400 0.7400 0.7400 0.7400 0.7400
3400.003181 0.7400 0.7400 0.7400 0.7405 0.7410
3404.389151 0.7410 0.7410 0.7410 0.7410 0.7410
3408.775120 0.7410 0.7410 0.7410 0.7410 0.7410
3413.161090 0.7410 0.7410 0.7410 0.7410 0.7405
3417.547059 0.7400 0.7400 0.7400 0.7400 0.7400
3421.933029 0.7400 0.7399 0.7394 0.7390 0.7390
3426.318999 0.7390 0.7390 0.7389 0.7378 0.7370
3430.704968 0.7370 0.7370 0.7370 0.7370 0.7370
3435.090938 0.7370 0.7370 0.7370 0.7370 0.7370
3439.476907 0.7370 0.7370 0.7370 0.7369 0.7364
3443.862877 0.7360 0.7360 0.7360 0.7360 0.7360
3448.248846 0.7360 0.7360 0.7360 0.7360 0.7360
3452.634816 0.7360 0.7360 0.7357 0.7347 0.7340
3457.020786 0.7340 0.7340 0.7340 0.7340 0.7340
3461.406755 0.7340 0.7340 0.7340 0.7340 0.7340
3465.792725 0.7340 0.7338 0.7333 0.7330 0.7330
3470.178694 0.7330 0.7330 0.7330 0.7330 0.7330
3474.564664 0.7330 0.7330 0.7330 0.7330 0.7330
3478.950633 0.7330 0.7330 0.7330 0.7330 0.7332
3483.336603 0.7337 0.7340 0.7340 0.7340 0.7340
3487.722572 0.7340 0.7340 0.7340 0.7340 0.7340
3492.108542 0.7340 0.7340 0.7340 0.7340 0.7340
3496.494512 0.7340 0.7340 0.7340 0.7340 0.7340
3500.880481 0.7340 0.7340 0.7340 0.7337 0.7332
3505.266451 0.7330 0.7330 0.7330 0.7330 0.7330
3509.652420 0.7330 0.7330 0.7330 0.7330 0.7330
3514.038390 0.7330 0.7330 0.7330 0.7330 0.7327
3518.424359 0.7322 0.7320 0.7320 0.7320 0.7320
3522.810329 0.7320 0.7320 0.7320 0.7320 0.7320
3527.196299 0.7320 0.7320 0.7320 0.7313 0.7303
3531.582268 0.7300 0.7300 0.7300 0.7300 0.7300
3535.968238 0.7300 0.7300 0.7300 0.7300 0.7300
3540.354207 0.7300 0.7300 0.7300 0.7300 0.7300
3544.740177 0.7300 0.7300 0.7300 0.7300 0.7300
3549.126146 0.7300 0.7300 0.7300 0.7300 0.7300
3553.512116 0.7300 0.7300 0.7300 0.7300 0.7300
3557.898086 0.7300 0.7300 0.7300 0.7300 0.7300
3562.284055 0.7300 0.7300 0.7300 0.7295 0.7290
3566.670025 0.7290 0.7290 0.7290 0.7290 0.7290
3571.055994 0.7290 0.7285 0.7280 0.7280 0.7280
3575.441964 0.7280 0.7280 0.7280 0.7280 0.7280
3579.827933 0.7280 0.7280 0.7280 0.7280 0.7280
3584.213903 0.7280 0.7280 0.7280 0.7280 0.7280
3588.599872 0.7279 0.7269 0.7261 0.7271 0.7280
3592.985842 0.7280 0.7280 0.7280 0.7280 0.7280
3597.371812 0.7280 0.7280 0.7280 0.7280 0.7280
3601.757781 0.7280 0.7280 0.7280 0.7280 0.7280
3606.143751 0.7280 0.7280 0.7280 0.7280 0.7280
3610.529720 0.7280 0.7280 0.7280 0.7280 0.7280
3614.915690 0.7280 0.7280 0.7280 0.7280 0.7280
3619.301659 0.7280 0.7280 0.7280 0.7280 0.7280
3623.687629 0.7280 0.7280 0.7280 0.7280 0.7280
3628.073599 0.7280 0.7280 0.7280 0.7277 0.7267
3632.459568 0.7260 0.7260 0.7260 0.7260 0.7260
3636.845538 0.7260 0.7260 0.7260 0.7260 0.7260
3641.231507 0.7258 0.7253 0.7250 0.7250 0.7250
3645.617477 0.7250 0.7250 0.7250 0.7248 0.7243
3650.003446 0.7240 0.7240 0.7240 0.7240 0.7240
3654.389416 0.7240 0.7236 0.7225 0.7220 0.7220
3658.775385 0.7220 0.7220 0.7220 0.7220 0.7218
3663.161355 0.7212 0.7210 0.7210 0.7210 0.7210
3667.547325 0.7205 0.7195 0.7190 0.7190 0.7190
3671.933294 0.7190 0.7190 0.7190 0.7190 0.7190
3676.319264 0.7190 0.7190 0.7190 0.7190 0.7190
3680.705233 0.7190 0.7187 0.7182 0.7180 0.7180
3685.091203 0.7180 0.7180 0.7180 0.7180 0.7180
3689.477172 0.7180 0.7180 0.7180 0.7180 0.7180
3693.863142 0.7180 0.7180 0.7180 0.7180 0.7180
3698.249112 0.7180 0.7180 0.7180 0.7176 0.7171
3702.635081 0.7170 0.7170 0.7170 0.7170 0.7170
3707.021051 0.7170 0.7170 0.7170 0.7170 0.7170
3711.407020 0.7170 0.7170 0.7170 0.7170 0.7170
3715.792990 0.7170 0.7170 0.7170 0.7170 0.7170
3720.178959 0.7170 0.7170 0.7162 0.7152 0.7150
3724.564929 0.7150 0.7150 0.7150 0.7150 0.7150
3728.950898 0.7146 0.7141 0.7140 0.7140 0.7140
3733.336868 0.7140 0.7135 0.7130 0.7130 0.7130
3737.722838 0.7121 0.7111 0.7110 0.7110 0.7110
3742.108807 0.7110 0.7110 0.7110 0.7110 0.7110
3746.494777 0.7110 0.7110 0.7110 0.7110 0.7110
3750.880746 0.7110 0.7105 0.7100 0.7100 0.7100
3755.266716 0.7085 0.7070 0.7070 0.7070 0.7070
3759.652685 0.7070 0.7070 0.7070 0.7070 0.7070
3764.038655 0.7065 0.7060 0.7060 0.7060 0.7060
3768.424625 0.7059 0.7049 0.7040 0.7040 0.7040
3772.810594 0.7040 0.7040 0.7040 0.7040 0.7040
3777.196564 0.7040 0.7040 0.7040 0.7040 0.7040
3781.582533 0.7040 0.7040 0.7040 0.7040 0.7040
3785.968503 0.7040 0.7040 0.7040 0.7040 0.7040
3790.354472 0.7040
##END=
