##TITLE=4,7,13,16-TETRAOXA-1,10-DITHIACYCLOOCTADECANE-1,10-METHO-P-TOSYLATE
##JCAMP-DX=4.24
##DATA TYPE=INFRARED SPECTRUM
##CLASS=COBLENTZ
##ORIGIN=EASTMAN KODAK COMPANY, RESEARCH LABORATORIES, ROCHESTER, N.Y.
##OWNER=COBLENTZ SOCIETY
Collection (C) 2018 copyright by the U.S. Secretary of Commerce
on behalf of the United States of America. All rights reserved.
##DATE=Not specified, most likely prior to 1970
##NAMES=7,16-dimethyl-7,16-bis([(4-methylphenyl)sulfonyl]oxy)-1,4,10,13-tetraoxa-7.lambda.<4>,16.lambda.<4>-dithiacyclooctadecane
##MOLFORM=C28 H44 O10 S4
$$ J. ORG. CHEM. 26, 1991(1961), COMPOUND VI
##MP=147 C
##SOURCE REFERENCE=COBLENTZ NO. 2152
##$NIST ID=B6002152
##$NIST SOURCE=COBLENTZ
##$NIST IMAGE=cob2152
##SPECTROMETER/DATA SYSTEM=Not specified, most likely a prism, grating, or hybrid spectrometer.
##STATE=SOLID (KBr PRESSING)
##SAMPLING PROCEDURE=TRANSMISSION
##RESOLUTION=4
##DATA PROCESSING=DIGITIZED BY NIST FROM HARD COPY
##XUNITS=MICROMETERS
##YUNITS=TRANSMITTANCE
##XFACTOR=1.000000
##YFACTOR=1
##DELTAX=000.007054
##FIRSTX=2.041
##LASTX=16.007
##FIRSTY=0.687
##MAXX=16.007
##MINX=2.041
##MAXY=1.047
##MINY=0.015
##NPOINTS=1981
##XYDATA=(X++(Y..Y))
2.041000 0.6870 0.6870 0.6870 0.6910 0.6920
2.076286 0.6920 0.6940 0.6960 0.6960 0.6980
2.111000 0.7070 0.7100 0.7150 0.7210 0.7220
2.146286 0.7220 0.7220 0.7220 0.7220 0.7220
2.182000 0.7210 0.7210 0.7190 0.7170 0.7150
2.217286 0.7140 0.7100 0.7080 0.7070 0.7050
2.252000 0.7050 0.7050 0.7080 0.7120 0.7220
2.287286 0.7290 0.7310 0.7350 0.7380 0.7380
2.323000 0.7380 0.7360 0.7310 0.7290 0.7290
2.358286 0.7310 0.7330 0.7360 0.7400 0.7420
2.393000 0.7420 0.7420 0.7400 0.7400 0.7380
2.428286 0.7380 0.7380 0.7400 0.7400 0.7400
2.464000 0.7400 0.7330 0.7310 0.7310 0.7310
2.499286 0.7350 0.7430 0.7470 0.7520 0.7540
2.534000 0.7540 0.7570 0.7590 0.7640 0.7770
2.569286 0.7820 0.7890 0.7960 0.8000 0.8030
2.605000 0.8050 0.8100 0.8120 0.8140 0.8150
2.640286 0.8190 0.8220 0.8240 0.8260 0.8280
2.676000 0.8280 0.8280 0.8280 0.8280 0.8280
2.711286 0.8260 0.8240 0.8240 0.8240 0.8220
2.746000 0.8220 0.8190 0.8120 0.8030 0.7940
2.781286 0.7840 0.7710 0.7590 0.7470 0.7220
2.817000 0.7100 0.7030 0.6980 0.6940 0.6890
2.852286 0.6710 0.6640 0.6540 0.6450 0.6380
2.887000 0.6360 0.6310 0.6290 0.6260 0.6260
2.922286 0.6260 0.6290 0.6330 0.6360 0.6500
2.958000 0.6610 0.6700 0.6780 0.6870 0.6980
2.993286 0.7070 0.7170 0.7240 0.7310 0.7360
3.028000 0.7400 0.7420 0.7450 0.7520 0.7590
3.063286 0.7610 0.7630 0.7630 0.7640 0.7640
3.099000 0.7700 0.7750 0.7800 0.7820 0.7820
3.134286 0.7820 0.7820 0.7850 0.7940 0.8010
3.169000 0.8010 0.8010 0.8000 0.7980 0.7960
3.204286 0.7960 0.7920 0.7920 0.7910 0.7890
3.240000 0.7850 0.7750 0.7640 0.7540 0.7290
3.275286 0.7070 0.6380 0.5870 0.5350 0.4940
3.310000 0.4540 0.4520 0.4520 0.4520 0.4560
3.345286 0.4850 0.5100 0.6030 0.6210 0.6280
3.381000 0.6280 0.6260 0.5590 0.4920 0.4700
3.416286 0.4500 0.4310 0.4220 0.4150 0.4000
3.451000 0.3400 0.3210 0.3050 0.3030 0.3070
3.486286 0.3520 0.4150 0.4660 0.5050 0.5610
3.522000 0.5800 0.5980 0.6140 0.6310 0.6500
3.557286 0.6640 0.6710 0.6840 0.7000 0.7050
3.593000 0.7140 0.7360 0.7700 0.7700 0.7700
3.628286 0.7730 0.7800 0.7820 0.7890 0.7960
3.663000 0.7960 0.8050 0.8050 0.8210 0.8350
3.698286 0.8430 0.8500 0.8500 0.8500 0.8500
3.734000 0.8500 0.8540 0.8610 0.8750 0.8800
3.769286 0.8800 0.8800 0.8800 0.8800 0.8820
3.804000 0.8910 0.8940 0.8960 0.8960 0.9000
3.839286 0.9010 0.9010 0.9030 0.9030 0.9050
3.875000 0.9070 0.9080 0.9150 0.9170 0.9170
3.910286 0.9190 0.9220 0.9220 0.9240 0.9280
3.945000 0.9290 0.9290 0.9290 0.9290 0.9290
3.980286 0.9290 0.9290 0.9310 0.9350 0.9400
4.016000 0.9450 0.9490 0.9490 0.9490 0.9500
4.051286 0.9500 0.9500 0.9500 0.9500 0.9500
4.086000 0.9490 0.9490 0.9470 0.9450 0.9420
4.121286 0.9420 0.9420 0.9400 0.9400 0.9380
4.157000 0.9380 0.9380 0.9380 0.9380 0.9400
4.192286 0.9400 0.9420 0.9450 0.9520 0.9540
4.227000 0.9560 0.9590 0.9610 0.9610 0.9640
4.262286 0.9680 0.9700 0.9700 0.9700 0.9700
4.298000 0.9710 0.9730 0.9750 0.9780 0.9820
4.333286 0.9840 0.9850 0.9850 0.9820 0.9780
4.368000 0.9780 0.9780 0.9800 0.9870 0.9890
4.403286 0.9890 0.9850 0.9820 0.9800 0.9750
4.439000 0.9700 0.9640 0.9610 0.9540 0.9520
4.474286 0.9520 0.9520 0.9400 0.9310 0.9290
4.509000 0.9290 0.9290 0.9330 0.9380 0.9430
4.544286 0.9500 0.9540 0.9590 0.9640 0.9770
4.580000 0.9800 0.9820 0.9850 1.0010 1.0030
4.615286 1.0070 1.0100 1.0120 1.0140 1.0150
4.651000 1.0170 1.0190 1.0220 1.0220 1.0240
4.686286 1.0240 1.0260 1.0260 1.0280 1.0280
4.721000 1.0280 1.0280 1.0280 1.0280 1.0280
4.756286 1.0280 1.0310 1.0330 1.0350 1.0350
4.792000 1.0350 1.0350 1.0350 1.0350 1.0350
4.827286 1.0350 1.0330 1.0310 1.0290 1.0280
4.862000 1.0210 1.0140 1.0100 1.0030 1.0010
4.897286 1.0010 1.0010 1.0030 1.0070 1.0100
4.933000 1.0100 1.0010 1.0000 1.0000 1.0000
4.968286 1.0010 1.0050 1.0080 1.0120 1.0150
5.003000 1.0190 1.0220 1.0260 1.0260 1.0220
5.038286 1.0190 1.0170 1.0170 1.0150 1.0150
5.074000 1.0150 1.0150 1.0120 1.0100 1.0100
5.109286 1.0050 1.0010 1.0000 0.9980 0.9920
5.144000 0.9820 0.9360 0.9240 0.9210 0.9190
5.179286 0.9190 0.9210 0.9360 0.9540 0.9590
5.215000 0.9630 0.9710 0.9800 0.9840 0.9960
5.250286 1.0120 1.0150 1.0190 1.0220 1.0240
5.285000 1.0260 1.0260 1.0260 1.0260 1.0140
5.320286 1.0140 1.0140 1.0140 1.0220 1.0260
5.356000 1.0280 1.0310 1.0350 1.0350 1.0350
5.391286 1.0350 1.0350 1.0380 1.0400 1.0420
5.426000 1.0430 1.0450 1.0470 1.0470 1.0430
5.461286 1.0420 1.0400 1.0380 1.0360 1.0330
5.497000 1.0280 1.0260 1.0220 1.0220 1.0220
5.532286 1.0260 1.0290 1.0330 1.0360 1.0380
5.568000 1.0380 1.0380 1.0380 1.0380 1.0360
5.603286 1.0350 1.0350 1.0350 1.0350 1.0380
5.638000 1.0400 1.0430 1.0450 1.0450 1.0450
5.673286 1.0450 1.0430 1.0380 1.0350 1.0330
5.709000 1.0310 1.0310 1.0310 1.0260 1.0240
5.744286 1.0220 1.0220 1.0220 1.0210 1.0120
5.779000 1.0080 1.0070 1.0070 1.0070 1.0070
5.814286 1.0070 1.0070 1.0070 1.0070 1.0080
5.850000 1.0080 1.0080 1.0100 1.0100 1.0100
5.885286 1.0120 1.0120 1.0120 1.0120 1.0120
5.920000 1.0120 1.0100 1.0100 1.0080 1.0050
5.955286 1.0000 0.9910 0.9800 0.9560 0.9430
5.991000 0.9380 0.9290 0.9140 0.9120 0.9120
6.026286 0.9120 0.9210 0.9400 0.9490 0.9500
6.061000 0.9520 0.9520 0.9520 0.9520 0.9400
6.096286 0.9360 0.9360 0.9360 0.9330 0.9330
6.132000 0.9330 0.9420 0.9420 0.9400 0.9330
6.167286 0.9310 0.9210 0.8820 0.8500 0.8420
6.202000 0.8310 0.8210 0.8070 0.8030 0.7820
6.237286 0.7590 0.7290 0.7290 0.7360 0.8260
6.273000 0.8570 0.8850 0.9010 0.9120 0.9190
6.308286 0.9220 0.9290 0.9360 0.9400 0.9420
6.343000 0.9420 0.9450 0.9520 0.9610 0.9610
6.378286 0.9610 0.9630 0.9710 0.9770 0.9780
6.414000 0.9770 0.9730 0.9710 0.9630 0.9610
6.449286 0.9610 0.9630 0.9700 0.9710 0.9710
6.485000 0.9660 0.9540 0.9520 0.9500 0.9500
6.520286 0.9490 0.9470 0.9450 0.9450 0.9450
6.555000 0.9470 0.9500 0.9500 0.9500 0.9500
6.590286 0.9500 0.9500 0.9450 0.9430 0.9420
6.626000 0.9290 0.8820 0.8490 0.8240 0.8000
6.661286 0.7700 0.7490 0.7260 0.6710 0.5890
6.696000 0.5050 0.4980 0.4940 0.4920 0.4910
6.731286 0.4920 0.5260 0.6100 0.6420 0.6890
6.767000 0.7000 0.7000 0.6910 0.6360 0.6240
6.802286 0.6030 0.5840 0.5660 0.5570 0.5500
6.837000 0.5490 0.5470 0.5450 0.5400 0.5310
6.872286 0.5220 0.5070 0.5050 0.5080 0.5170
6.908000 0.5350 0.5400 0.5400 0.5150 0.4910
6.943286 0.4430 0.4220 0.4190 0.4150 0.4150
6.978000 0.4140 0.3940 0.3220 0.3010 0.2780
7.013286 0.2770 0.2800 0.3660 0.4010 0.4420
7.049000 0.4420 0.4330 0.4210 0.4190 0.4220
7.084286 0.4540 0.4980 0.5310 0.5710 0.5820
7.119000 0.5840 0.5840 0.5710 0.5710 0.5710
7.154286 0.5770 0.5840 0.6010 0.6170 0.6380
7.190000 0.6660 0.6850 0.6960 0.7010 0.7030
7.225286 0.7050 0.7100 0.7170 0.7170 0.7120
7.260000 0.7050 0.6960 0.6640 0.5940 0.5360
7.295286 0.4780 0.4120 0.4080 0.4120 0.4700
7.331000 0.4960 0.6400 0.6490 0.6500 0.6490
7.366286 0.5490 0.4490 0.3380 0.3260 0.3260
7.402000 0.3800 0.4750 0.5290 0.6400 0.6960
7.437286 0.7260 0.7450 0.7500 0.7520 0.7560
7.472000 0.7700 0.7700 0.7680 0.7660 0.7640
7.507286 0.7630 0.7630 0.7630 0.7630 0.7680
7.543000 0.7700 0.7710 0.7750 0.7780 0.7780
7.578286 0.7780 0.7800 0.7840 0.7870 0.7870
7.613000 0.7870 0.7870 0.7750 0.7610 0.7500
7.648286 0.7380 0.7260 0.7100 0.7100 0.6850
7.684000 0.5920 0.5660 0.5380 0.5080 0.4560
7.719286 0.4260 0.4070 0.3820 0.3640 0.3470
7.754000 0.3240 0.3120 0.3000 0.2920 0.2920
7.789286 0.2920 0.3560 0.3960 0.4360 0.4700
7.825000 0.4910 0.5050 0.5310 0.5490 0.5490
7.860286 0.5490 0.5430 0.5360 0.5350 0.5310
7.895000 0.5280 0.5220 0.5170 0.5100 0.4960
7.930286 0.4800 0.4630 0.4470 0.4290 0.4080
7.966000 0.3870 0.3640 0.3380 0.3120 0.3030
8.001286 0.2940 0.2800 0.2660 0.2380 0.2000
8.036000 0.1640 0.1500 0.1490 0.1500 0.1660
8.071286 0.1890 0.2030 0.2240 0.2310 0.2310
8.107000 0.2290 0.2240 0.2100 0.1980 0.1800
8.142286 0.1590 0.1470 0.1400 0.1310 0.1210
8.177000 0.1100 0.0980 0.0820 0.0710 0.0660
8.212286 0.0610 0.0490 0.0380 0.0290 0.0260
8.248000 0.0220 0.0210 0.0170 0.0150 0.0150
8.283286 0.0150 0.0150 0.0170 0.0170 0.0170
8.319000 0.0170 0.0210 0.0220 0.0260 0.0260
8.354286 0.0240 0.0240 0.0240 0.0260 0.0260
8.389000 0.0280 0.0280 0.0260 0.0240 0.0240
8.424286 0.0260 0.0260 0.0280 0.0280 0.0280
8.460000 0.0290 0.0290 0.0290 0.0310 0.0310
8.495286 0.0310 0.0310 0.0310 0.0330 0.0350
8.530000 0.0380 0.0450 0.0570 0.0890 0.1010
8.565286 0.1120 0.1260 0.1420 0.1700 0.1940
8.601000 0.2030 0.2240 0.2430 0.2610 0.2710
8.636286 0.2840 0.2960 0.3220 0.3310 0.3360
8.671000 0.3380 0.3400 0.3520 0.3590 0.3610
8.706286 0.3630 0.3590 0.3400 0.3190 0.3100
8.742000 0.3000 0.2820 0.2610 0.2420 0.2080
8.777286 0.1940 0.1640 0.1360 0.1210 0.1010
8.812000 0.0890 0.0770 0.0680 0.0610 0.0520
8.847286 0.0470 0.0430 0.0430 0.0420 0.0420
8.883000 0.0420 0.0380 0.0360 0.0350 0.0350
8.918286 0.0330 0.0310 0.0280 0.0280 0.0260
8.953000 0.0260 0.0240 0.0220 0.0220 0.0220
8.988286 0.0220 0.0220 0.0260 0.0260 0.0260
9.024000 0.0280 0.0280 0.0280 0.0380 0.0470
9.059286 0.0560 0.0590 0.0610 0.0630 0.0920
9.094000 0.1140 0.1280 0.1500 0.1590 0.1700
9.129286 0.1870 0.2000 0.2140 0.2190 0.2420
9.165000 0.2540 0.2680 0.2750 0.2820 0.2840
9.200286 0.2820 0.2800 0.2780 0.2680 0.2500
9.235000 0.2310 0.2080 0.2000 0.1980 0.2000
9.270286 0.2170 0.2280 0.2290 0.2290 0.2260
9.306000 0.2050 0.1750 0.1430 0.1150 0.0820
9.341286 0.0710 0.0680 0.0680 0.0660 0.0630
9.377000 0.0630 0.0640 0.0980 0.1050 0.1280
9.412286 0.1400 0.1500 0.1560 0.1570 0.1560
9.447000 0.1450 0.1310 0.1260 0.1260 0.1330
9.482286 0.1470 0.1680 0.1870 0.1960 0.2030
9.518000 0.2170 0.2350 0.2540 0.2710 0.2850
9.553286 0.2910 0.2980 0.3030 0.3030 0.2980
9.588000 0.2910 0.2730 0.2560 0.2400 0.2080
9.623286 0.1780 0.1540 0.1190 0.0780 0.0700
9.659000 0.0590 0.0450 0.0430 0.0430 0.0470
9.694286 0.1140 0.1400 0.1640 0.1890 0.2140
9.729000 0.2400 0.2700 0.3400 0.3630 0.3800
9.764286 0.3940 0.3980 0.4050 0.4330 0.4430
9.800000 0.4520 0.4560 0.4540 0.4430 0.4240
9.835286 0.3910 0.3150 0.2800 0.2450 0.1640
9.870000 0.1240 0.1050 0.0730 0.0680 0.0630
9.905286 0.0630 0.0960 0.1290 0.1640 0.2000
9.941000 0.2330 0.2630 0.2890 0.3260 0.3310
9.976286 0.3400 0.3490 0.3540 0.3590 0.3630
10.011000 0.3640 0.3680 0.3700 0.3730 0.3820
10.046286 0.3890 0.4000 0.4030 0.4120 0.4170
10.082000 0.4190 0.4170 0.4120 0.4030 0.3960
10.117286 0.3800 0.3660 0.3610 0.3610 0.3680
10.152000 0.3710 0.3820 0.3960 0.4030 0.4080
10.187286 0.4100 0.4140 0.4210 0.4220 0.4260
10.223000 0.4280 0.4290 0.4350 0.4380 0.4380
10.258286 0.4500 0.4610 0.4700 0.4780 0.4850
10.294000 0.4980 0.5010 0.5100 0.5140 0.5220
10.329286 0.5380 0.5420 0.5490 0.5560 0.5590
10.364000 0.5630 0.5700 0.5730 0.5730 0.5730
10.399286 0.5750 0.5750 0.5730 0.5710 0.5700
10.435000 0.5630 0.5560 0.5470 0.5380 0.5380
10.470286 0.5420 0.5500 0.5590 0.5730 0.5780
10.505000 0.5820 0.5840 0.5960 0.6100 0.6190
10.540286 0.6210 0.6210 0.6220 0.6260 0.6310
10.576000 0.6360 0.6420 0.6450 0.6470 0.6490
10.611286 0.6500 0.6520 0.6560 0.6610 0.6700
10.646000 0.6700 0.6710 0.6710 0.6700 0.6680
10.681286 0.6680 0.6680 0.6680 0.6700 0.6800
10.717000 0.6840 0.6870 0.6870 0.6890 0.6920
10.752286 0.6920 0.6910 0.6850 0.6840 0.6840
10.787000 0.6850 0.6960 0.6980 0.6980 0.6980
10.822286 0.6980 0.6980 0.6960 0.6920 0.6890
10.858000 0.6870 0.6870 0.6850 0.6850 0.6820
10.893286 0.6780 0.6710 0.6640 0.6590 0.6450
10.928000 0.6190 0.5920 0.5590 0.5450 0.5310
10.963286 0.4730 0.4140 0.3610 0.3070 0.2780
10.999000 0.2490 0.2080 0.1940 0.1800 0.1710
11.034286 0.1610 0.1560 0.1540 0.1570 0.1630
11.069000 0.1710 0.1940 0.2140 0.2750 0.3490
11.104286 0.3890 0.4150 0.4450 0.4610 0.4780
11.140000 0.5000 0.5120 0.5220 0.5420 0.5520
11.175286 0.5660 0.5780 0.5850 0.5960 0.6010
11.211000 0.6120 0.6170 0.6190 0.6190 0.6260
11.246286 0.6330 0.6470 0.6540 0.6590 0.6590
11.281000 0.6590 0.6630 0.6660 0.6680 0.6680
11.316286 0.6680 0.6640 0.6610 0.6610 0.6640
11.352000 0.6680 0.6710 0.6730 0.6780 0.6820
11.387286 0.6850 0.6890 0.6920 0.6920 0.6920
11.422000 0.6920 0.6920 0.6920 0.6920 0.6920
11.457286 0.6920 0.6920 0.6940 0.6960 0.7000
11.493000 0.7000 0.6980 0.6920 0.6920 0.6920
11.528286 0.6920 0.6960 0.6960 0.6940 0.6940
11.563000 0.6980 0.7010 0.7080 0.7100 0.7080
11.598286 0.7030 0.7010 0.7000 0.7000 0.7000
11.634000 0.6980 0.6980 0.7000 0.7000 0.7000
11.669286 0.7000 0.7000 0.6980 0.6980 0.6980
11.704000 0.6980 0.6980 0.7000 0.7000 0.7010
11.739286 0.7010 0.7000 0.7000 0.7000 0.7000
11.775000 0.6980 0.6910 0.6910 0.6910 0.6890
11.810286 0.6870 0.6870 0.6850 0.6850 0.6840
11.845000 0.6820 0.6800 0.6780 0.6730 0.6660
11.880286 0.6660 0.6680 0.6680 0.6680 0.6680
11.916000 0.6640 0.6630 0.6590 0.6570 0.6520
11.951286 0.6490 0.6470 0.6330 0.6100 0.5920
11.986000 0.5660 0.5470 0.5400 0.5330 0.5240
12.021286 0.5120 0.5000 0.4750 0.4540 0.4260
12.057000 0.4030 0.3710 0.3430 0.3150 0.3000
12.092286 0.2820 0.2420 0.1850 0.1500 0.1240
12.128000 0.1010 0.0840 0.0700 0.0680 0.0680
12.163286 0.0710 0.0800 0.0920 0.1050 0.1190
12.198000 0.1400 0.1590 0.1800 0.2010 0.2280
12.233286 0.2570 0.2730 0.3290 0.3540 0.3700
12.269000 0.3960 0.4080 0.4290 0.4540 0.4700
12.304286 0.4820 0.4980 0.5010 0.5190 0.5290
12.339000 0.5310 0.5350 0.5350 0.5350 0.5330
12.374286 0.5310 0.5290 0.5220 0.5030 0.4840
12.410000 0.4590 0.4350 0.4150 0.3960 0.3560
12.445286 0.3220 0.3010 0.3000 0.2980 0.2920
12.480000 0.2910 0.2890 0.2910 0.3360 0.3640
12.515286 0.3910 0.4150 0.4350 0.4540 0.4700
12.551000 0.4850 0.4980 0.5000 0.5080 0.5190
12.586286 0.5290 0.5470 0.5540 0.5610 0.5640
12.621000 0.5660 0.5680 0.5800 0.5940 0.6000
12.656286 0.6030 0.6100 0.6170 0.6210 0.6280
12.692000 0.6330 0.6350 0.6330 0.6310 0.6310
12.727286 0.6260 0.6260 0.6400 0.6450 0.6470
12.762000 0.6470 0.6470 0.6470 0.6450 0.6450
12.797286 0.6490 0.6500 0.6540 0.6540 0.6520
12.833000 0.6500 0.6520 0.6520 0.6520 0.6540
12.868286 0.6570 0.6570 0.6570 0.6560 0.6560
12.903000 0.6560 0.6560 0.6610 0.6660 0.6680
12.938286 0.6700 0.6710 0.6770 0.6770 0.6730
12.974000 0.6700 0.6660 0.6630 0.6630 0.6640
13.009286 0.6660 0.6660 0.6680 0.6680 0.6680
13.044000 0.6680 0.6680 0.6660 0.6660 0.6660
13.079286 0.6680 0.6700 0.6730 0.6730 0.6710
13.115000 0.6710 0.6710 0.6710 0.6710 0.6710
13.150286 0.6710 0.6710 0.6710 0.6710 0.6730
13.186000 0.6730 0.6730 0.6730 0.6710 0.6710
13.221286 0.6710 0.6710 0.6710 0.6710 0.6730
13.256000 0.6730 0.6730 0.6730 0.6730 0.6730
13.291286 0.6730 0.6730 0.6730 0.6730 0.6730
13.327000 0.6730 0.6730 0.6730 0.6730 0.6730
13.362286 0.6730 0.6730 0.6730 0.6730 0.6730
13.397000 0.6750 0.6750 0.6750 0.6750 0.6750
13.432286 0.6750 0.6750 0.6780 0.6800 0.6820
13.468000 0.6820 0.6840 0.6850 0.6850 0.6850
13.503286 0.6850 0.6840 0.6840 0.6840 0.6820
13.538000 0.6820 0.6800 0.6800 0.6800 0.6800
13.573286 0.6800 0.6800 0.6780 0.6770 0.6770
13.609000 0.6770 0.6800 0.6800 0.6780 0.6780
13.644286 0.6800 0.6820 0.6820 0.6800 0.6800
13.679000 0.6800 0.6800 0.6780 0.6780 0.6800
13.714286 0.6800 0.6780 0.6770 0.6750 0.6730
13.750000 0.6730 0.6710 0.6710 0.6710 0.6710
13.785286 0.6700 0.6700 0.6680 0.6660 0.6640
13.820000 0.6570 0.6420 0.6290 0.6290 0.6310
13.855286 0.6330 0.6290 0.6260 0.6220 0.6170
13.891000 0.6030 0.5910 0.5520 0.5420 0.5310
13.926286 0.5100 0.4710 0.4350 0.3910 0.3590
13.961000 0.3450 0.3310 0.3310 0.3350 0.3560
13.996286 0.3700 0.3890 0.4050 0.4280 0.4520
14.032000 0.4750 0.4890 0.5010 0.5190 0.5310
14.067286 0.5490 0.5540 0.5630 0.5700 0.5780
14.103000 0.5820 0.5840 0.5910 0.5920 0.5920
14.138286 0.5920 0.5920 0.5920 0.5920 0.5910
14.173000 0.5910 0.5870 0.5850 0.5840 0.5820
14.208286 0.5820 0.5800 0.5710 0.5700 0.5700
14.244000 0.5680 0.5660 0.5640 0.5630 0.5540
14.279286 0.5520 0.5500 0.5470 0.5420 0.5380
14.314000 0.5350 0.5290 0.5220 0.5120 0.5080
14.349286 0.5030 0.5010 0.5010 0.4910 0.4820
14.385000 0.4800 0.4800 0.4780 0.4770 0.4730
14.420286 0.4660 0.4640 0.4610 0.4590 0.4560
14.455000 0.4500 0.4490 0.4400 0.4400 0.4360
14.490286 0.4290 0.4100 0.4030 0.3980 0.3870
14.526000 0.3700 0.3590 0.3500 0.3400 0.3290
14.561286 0.3170 0.3050 0.3010 0.3000 0.2960
14.596000 0.2780 0.2640 0.2450 0.2280 0.2190
14.631286 0.2080 0.2000 0.1870 0.1700 0.1590
14.667000 0.1500 0.1380 0.1260 0.1150 0.1000
14.702286 0.0960 0.0910 0.0870 0.0800 0.0770
14.737000 0.0730 0.0710 0.0710 0.0710 0.0710
14.772286 0.0710 0.0710 0.0710 0.0700 0.0700
14.808000 0.0700 0.0710 0.0770 0.0800 0.0820
14.843286 0.0910 0.1000 0.1030 0.1120 0.1220
14.878000 0.1330 0.1380 0.1430 0.1500 0.1610
14.913286 0.1700 0.1850 0.1980 0.2070 0.2100
14.949000 0.2170 0.2220 0.2280 0.2310 0.2330
14.984286 0.2350 0.2350 0.2360 0.2380 0.2420
15.020000 0.2490 0.2560 0.2660 0.2730 0.2870
15.055286 0.2980 0.3150 0.3220 0.3280 0.3380
15.090000 0.3490 0.3560 0.3590 0.3630 0.3710
15.125286 0.3730 0.3770 0.3770 0.3780 0.3840
15.161000 0.3850 0.3870 0.3870 0.3890 0.3910
15.196286 0.3920 0.4000 0.4030 0.4140 0.4170
15.231000 0.4210 0.4220 0.4260 0.4260 0.4240
15.266286 0.4220 0.4220 0.4220 0.4220 0.4240
15.302000 0.4240 0.4280 0.4280 0.4290 0.4290
15.337286 0.4310 0.4310 0.4310 0.4330 0.4360
15.372000 0.4420 0.4450 0.4490 0.4490 0.4490
15.407286 0.4500 0.4500 0.4500 0.4500 0.4500
15.443000 0.4520 0.4520 0.4520 0.4520 0.4520
15.478286 0.4520 0.4540 0.4560 0.4590 0.4640
15.513000 0.4680 0.4680 0.4680 0.4680 0.4680
15.548286 0.4680 0.4680 0.4660 0.4630 0.4610
15.584000 0.4610 0.4590 0.4590 0.4590 0.4610
15.619286 0.4610 0.4610 0.4640 0.4660 0.4660
15.654000 0.4630 0.4630 0.4630 0.4630 0.4640
15.689286 0.4660 0.4640 0.4610 0.4610 0.4610
15.725000 0.4610 0.4610 0.4610 0.4610 0.4630
15.760286 0.4640 0.4640 0.4640 0.4660 0.4660
15.795000 0.4640 0.4640 0.4640 0.4640 0.4640
15.830286 0.4640 0.4640 0.4630 0.4630 0.4630
15.866000 0.4630 0.4630 0.4630 0.4640 0.4640
15.901286 0.4640 0.4640 0.4640 0.4640 0.4660
15.937000 0.4700 0.4700 0.4710 0.4710 0.4750
15.972286 0.4750 0.4730 0.4730 0.4710 0.4700
16.007000 0.4630
##END=
