##TITLE=BARIUM BUTYRATE
##JCAMP-DX=4.24
##DATA TYPE=INFRARED SPECTRUM
##CLASS=COBLENTZ
##OWNER=COBLENTZ SOCIETY
Collection (C) 2018 copyright by the U.S. Secretary of Commerce
on behalf of the United States of America. All rights reserved.
##DATE=Not specified, most likely prior to 1970
##MOLFORM=C8 H14 Ba O4
##SOURCE REFERENCE=COBLENTZ NO. 149
##$NIST ID=B6000149
##$NIST SOURCE=COBLENTZ
##$NIST IMAGE=cob149
##SPECTROMETER/DATA SYSTEM=Not specified, most likely a prism, grating, or hybrid spectrometer.
##STATE=SOLID (0.12% IN KBr PELLET)
##PATH LENGTH=0.0031 CM THICK
##SAMPLING PROCEDURE=TRANSMISSION
##RESOLUTION=4
##DATA PROCESSING=DIGITIZED BY NIST FROM HARD COPY
##XUNITS=MICROMETERS
##YUNITS=TRANSMITTANCE
##XFACTOR=1.000000
##YFACTOR=1
##DELTAX=000.006469
##FIRSTX=2.03
##LASTX=16.0095
##FIRSTY=0.176
##MAXX=16.0095
##MINX=2.03
##MAXY=1.008
##MINY=0
##NPOINTS=2162
##XYDATA=(X++(Y..Y))
2.030000 0.1760 0.1760 0.1780 0.1780 0.1800
2.062360 0.1800 0.1800 0.1810 0.1810 0.1810
2.094000 0.1800 0.1800 0.1800 0.1810 0.1850
2.126360 0.1880 0.1890 0.1960 0.1980 0.1990
2.159000 0.2010 0.2020 0.2070 0.2090 0.2110
2.191360 0.2110 0.2110 0.2110 0.2110 0.2090
2.224000 0.2090 0.2140 0.2170 0.2200 0.2220
2.256360 0.2220 0.2240 0.2250 0.2250 0.2270
2.288000 0.2270 0.2280 0.2320 0.2330 0.2350
2.320360 0.2370 0.2400 0.2410 0.2430 0.2460
2.353000 0.2500 0.2530 0.2530 0.2540 0.2560
2.385360 0.2580 0.2620 0.2660 0.2710 0.2740
2.418000 0.2790 0.2820 0.2850 0.2870 0.2870
2.450360 0.2870 0.2870 0.2880 0.2900 0.2930
2.482000 0.2970 0.2980 0.3000 0.3030 0.3030
2.514360 0.3050 0.3060 0.3060 0.3060 0.3050
2.547000 0.3060 0.3100 0.3130 0.3160 0.3180
2.579360 0.3210 0.3240 0.3290 0.3310 0.3390
2.612000 0.3450 0.3470 0.3470 0.3450 0.3450
2.644360 0.3450 0.3470 0.3500 0.3570 0.3620
2.677000 0.3630 0.3630 0.3650 0.3660 0.3680
2.709360 0.3680 0.3650 0.3650 0.3650 0.3660
2.741000 0.3660 0.3680 0.3700 0.3710 0.3710
2.773360 0.3730 0.3760 0.3760 0.3760 0.3750
2.806000 0.3680 0.3650 0.3600 0.3580 0.3580
2.838360 0.3580 0.3600 0.3600 0.3600 0.3620
2.871000 0.3630 0.3630 0.3650 0.3650 0.3660
2.903360 0.3660 0.3680 0.3680 0.3700 0.3710
2.935000 0.3760 0.3780 0.3810 0.3830 0.3860
2.967360 0.3890 0.3920 0.3940 0.3960 0.3970
3.000000 0.3990 0.4040 0.4090 0.4130 0.4200
3.032360 0.4260 0.4260 0.4280 0.4280 0.4300
3.065000 0.4300 0.4300 0.4310 0.4310 0.4350
3.097360 0.4350 0.4360 0.4390 0.4410 0.4430
3.129000 0.4480 0.4510 0.4520 0.4540 0.4540
3.161360 0.4540 0.4540 0.4560 0.4560 0.4570
3.194000 0.4590 0.4650 0.4690 0.4690 0.4690
3.226360 0.4690 0.4690 0.4670 0.4640 0.4610
3.259000 0.4590 0.4590 0.4570 0.4570 0.4560
3.291360 0.4510 0.4440 0.4380 0.4310 0.4230
3.323000 0.4000 0.3840 0.3680 0.3290 0.2880
3.355360 0.2500 0.1830 0.1590 0.1310 0.1030
3.388000 0.0920 0.0790 0.0770 0.0790 0.1180
3.420360 0.1410 0.1550 0.1760 0.1980 0.2220
3.453000 0.2430 0.2640 0.2820 0.2970 0.2980
3.485360 0.2740 0.2740 0.2820 0.3270 0.3620
3.518000 0.4380 0.4610 0.4750 0.4900 0.5040
3.550360 0.5110 0.5160 0.5210 0.5240 0.5300
3.582000 0.5350 0.5420 0.5480 0.5560 0.5640
3.614360 0.5690 0.5760 0.5790 0.5810 0.5860
3.647000 0.5900 0.5940 0.5940 0.5950 0.5970
3.679360 0.5990 0.6000 0.6030 0.6100 0.6130
3.712000 0.6150 0.6160 0.6160 0.6100 0.6100
3.744360 0.6130 0.6160 0.6180 0.6200 0.6250
3.776000 0.6340 0.6390 0.6440 0.6440 0.6460
3.808360 0.6470 0.6460 0.6460 0.6460 0.6470
3.841000 0.6520 0.6570 0.6590 0.6590 0.6590
3.873360 0.6590 0.6590 0.6590 0.6600 0.6600
3.906000 0.6600 0.6620 0.6650 0.6720 0.6750
3.938360 0.6760 0.6780 0.6800 0.6800 0.6830
3.970000 0.6830 0.6830 0.6800 0.6780 0.6780
4.002360 0.6780 0.6780 0.6910 0.6810 0.6750
4.035000 0.6720 0.6730 0.6800 0.6880 0.6910
4.067360 0.6980 0.6990 0.6930 0.6860 0.6880
4.100000 0.6960 0.7040 0.7060 0.7090 0.7120
4.132360 0.7150 0.7190 0.7200 0.7200 0.7220
4.164000 0.7220 0.7220 0.7220 0.7170 0.7200
4.196360 0.7270 0.7300 0.7330 0.7350 0.7370
4.229000 0.7380 0.7400 0.7400 0.7410 0.7430
4.261360 0.7450 0.7450 0.7450 0.7460 0.7480
4.294000 0.7500 0.7500 0.7510 0.7510 0.7530
4.326360 0.7530 0.7540 0.7540 0.7560 0.7580
4.358000 0.7590 0.7610 0.7610 0.7610 0.7610
4.390360 0.7610 0.7610 0.7610 0.7640 0.7640
4.423000 0.7670 0.7710 0.7720 0.7740 0.7750
4.455360 0.7770 0.7790 0.7790 0.7800 0.7800
4.488000 0.7820 0.7820 0.7820 0.7820 0.7720
4.520360 0.7720 0.7790 0.7840 0.7850 0.7850
4.553000 0.7870 0.7900 0.7930 0.7970 0.7980
4.585360 0.7980 0.8000 0.8000 0.8000 0.7880
4.617000 0.7920 0.7970 0.8030 0.8010 0.7980
4.649360 0.8010 0.8030 0.8060 0.8060 0.8060
4.682000 0.8080 0.8100 0.7980 0.7980 0.7980
4.714360 0.8060 0.8080 0.8100 0.8130 0.8130
4.747000 0.8130 0.8140 0.8140 0.8160 0.8210
4.779360 0.8240 0.8260 0.8270 0.8240 0.8180
4.811000 0.8180 0.8230 0.8270 0.8320 0.8340
4.843360 0.8340 0.8320 0.8310 0.8310 0.8290
4.876000 0.8290 0.8310 0.8340 0.8360 0.8370
4.908360 0.8360 0.8370 0.8400 0.8440 0.8470
4.941000 0.8500 0.8490 0.8370 0.8370 0.8400
4.973360 0.8520 0.8530 0.8570 0.8570 0.8550
5.005000 0.8400 0.8420 0.8450 0.8520 0.8580
5.037360 0.8630 0.8630 0.8600 0.8580 0.8580
5.070000 0.8530 0.8530 0.8570 0.8730 0.8700
5.102360 0.8530 0.8530 0.8580 0.8620 0.8700
5.135000 0.8700 0.8580 0.8580 0.8650 0.8730
5.167360 0.8780 0.8790 0.8810 0.8810 0.8790
5.199000 0.8830 0.8840 0.8870 0.8890 0.8910
5.231360 0.8920 0.8920 0.8920 0.8920 0.8920
5.264000 0.8940 0.8940 0.8940 0.8920 0.8870
5.296360 0.8870 0.8910 0.8920 0.8920 0.8920
5.329000 0.8920 0.8920 0.8910 0.8830 0.8830
5.361360 0.8860 0.8960 0.9070 0.9170 0.9180
5.394000 0.9170 0.9040 0.9020 0.8970 0.8870
5.426360 0.8840 0.8860 0.8910 0.9000 0.9070
5.458000 0.9090 0.9070 0.8920 0.8870 0.8860
5.490360 0.8910 0.9040 0.9100 0.9120 0.9100
5.523000 0.8960 0.8920 0.8940 0.8970 0.9040
5.555360 0.9040 0.9000 0.8970 0.8890 0.8840
5.588000 0.8830 0.8760 0.8990 0.8970 0.8970
5.620360 0.8890 0.8860 0.8760 0.8710 0.8780
5.652000 0.8870 0.8910 0.8910 0.8860 0.8750
5.684360 0.8700 0.8680 0.8660 0.8620 0.8550
5.717000 0.8470 0.8420 0.8420 0.8470 0.8600
5.749360 0.8620 0.8600 0.8470 0.8440 0.8270
5.782000 0.8240 0.8240 0.8270 0.8530 0.8580
5.814360 0.8600 0.8570 0.8240 0.7970 0.7930
5.846000 0.7980 0.8260 0.8580 0.8650 0.8650
5.878360 0.8490 0.8310 0.8230 0.8230 0.8210
5.911000 0.8230 0.8520 0.8710 0.8710 0.8680
5.943360 0.8420 0.8190 0.8180 0.8210 0.8550
5.976000 0.8550 0.8500 0.8400 0.8370 0.8270
6.008360 0.8270 0.8260 0.8240 0.8180 0.8030
6.040000 0.7980 0.7840 0.7460 0.7430 0.7430
6.072360 0.7510 0.7710 0.7710 0.7740 0.7750
6.105000 0.7620 0.7480 0.7410 0.7380 0.7370
6.137360 0.7350 0.7280 0.7170 0.7090 0.7060
6.170000 0.7010 0.6990 0.6980 0.6930 0.6860
6.202360 0.6780 0.6670 0.6520 0.6410 0.6210
6.235000 0.6020 0.5840 0.5680 0.5480 0.5270
6.267360 0.5010 0.4720 0.4350 0.4130 0.3910
6.299000 0.3370 0.2820 0.2220 0.1630 0.1070
6.331360 0.0860 0.0640 0.0380 0.0170 0.0160
6.364000 0.0160 0.0170 0.0190 0.0240 0.0270
6.396360 0.0270 0.0250 0.0240 0.0220 0.0210
6.429000 0.0190 0.0160 0.0090 0.0080 0.0030
6.461360 0.0030 0.0010 0.0010 0.0010 0.0010
6.493000 0.0000 0.0000 0.0000 0.0000 0.0210
6.525360 0.0190 0.0170 0.0140 0.0120 0.0110
6.558000 0.0090 0.0080 0.0080 0.0080 0.0090
6.590360 0.0170 0.0250 0.0380 0.0500 0.0530
6.623000 0.0640 0.0730 0.0840 0.1200 0.1440
6.655360 0.1680 0.1810 0.1960 0.2150 0.2370
6.687000 0.2590 0.2790 0.2950 0.3130 0.3340
6.719360 0.3650 0.3860 0.4120 0.4120 0.4090
6.752000 0.4000 0.3970 0.3940 0.3870 0.3830
6.784360 0.3760 0.3660 0.3440 0.2660 0.2500
6.817000 0.1600 0.1500 0.1500 0.1590 0.1830
6.849360 0.1890 0.1940 0.1960 0.1930 0.1750
6.881000 0.1340 0.1050 0.0950 0.0860 0.0690
6.913360 0.0530 0.0300 0.0190 0.0080 0.0060
6.946000 0.0060 0.0080 0.0080 0.0080 0.0080
6.978360 0.0090 0.0090 0.0110 0.0140 0.0170
7.011000 0.0250 0.0270 0.0290 0.0300 0.0340
7.043360 0.0350 0.0430 0.0580 0.0690 0.0790
7.075000 0.0890 0.0970 0.1150 0.1230 0.1340
7.107360 0.1460 0.1570 0.1720 0.1880 0.1980
7.140000 0.2110 0.2280 0.2480 0.2690 0.2870
7.172360 0.3100 0.3390 0.3700 0.3940 0.4510
7.205000 0.4590 0.4590 0.4090 0.3920 0.3760
7.237360 0.3600 0.3530 0.2950 0.2950 0.3230
7.270000 0.3500 0.3780 0.4280 0.5110 0.5630
7.302360 0.6030 0.6360 0.6600 0.6780 0.6930
7.334000 0.7150 0.7250 0.7350 0.7380 0.7380
7.366360 0.7350 0.7250 0.7150 0.7060 0.6990
7.399000 0.6930 0.6730 0.6490 0.6130 0.5640
7.431360 0.5400 0.5270 0.5010 0.4980 0.4700
7.464000 0.4700 0.4950 0.5630 0.6180 0.6630
7.496360 0.7300 0.7530 0.7720 0.7880 0.8030
7.528000 0.8160 0.8180 0.8230 0.8290 0.8320
7.560360 0.8340 0.8370 0.8400 0.8440 0.8440
7.593000 0.8470 0.8470 0.8440 0.8420 0.8370
7.625360 0.8320 0.8260 0.8190 0.8130 0.8110
7.658000 0.8080 0.8080 0.8080 0.8060 0.8050
7.690360 0.7980 0.7980 0.7900 0.7790 0.7660
7.722000 0.7530 0.7400 0.7280 0.7200 0.7190
7.754360 0.7200 0.7330 0.7510 0.7710 0.7880
7.787000 0.8050 0.8210 0.8360 0.8470 0.8570
7.819360 0.8630 0.8660 0.8710 0.8730 0.8750
7.852000 0.8730 0.8630 0.8520 0.8400 0.8310
7.884360 0.8190 0.8060 0.7870 0.7660 0.7270
7.916000 0.6880 0.6470 0.5790 0.5380 0.4740
7.948360 0.4250 0.4050 0.3840 0.3550 0.3260
7.981000 0.2970 0.2970 0.3470 0.3960 0.4900
8.013360 0.5840 0.6310 0.6680 0.6980 0.7480
8.046000 0.7710 0.7920 0.8100 0.8260 0.8400
8.078360 0.8530 0.8650 0.8730 0.8790 0.8840
8.111000 0.8860 0.8860 0.8840 0.8840 0.8830
8.143360 0.8780 0.8730 0.8630 0.8520 0.8390
8.175000 0.8320 0.8320 0.8340 0.8450 0.8570
8.207360 0.8650 0.8750 0.8830 0.8920 0.9000
8.240000 0.9040 0.9120 0.9180 0.9200 0.9180
8.272360 0.9200 0.9200 0.9220 0.9230 0.9250
8.305000 0.9250 0.9260 0.9280 0.9300 0.9350
8.337360 0.9410 0.9440 0.9480 0.9490 0.9510
8.369000 0.9490 0.9510 0.9520 0.9540 0.9560
8.401360 0.9560 0.9560 0.9570 0.9570 0.9560
8.434000 0.9560 0.9570 0.9590 0.9610 0.9610
8.466360 0.9610 0.9610 0.9590 0.9590 0.9590
8.499000 0.9590 0.9590 0.9620 0.9670 0.9720
8.531360 0.9720 0.9720 0.9700 0.9690 0.9650
8.563000 0.9650 0.9650 0.9650 0.9670 0.9670
8.595360 0.9650 0.9670 0.9690 0.9720 0.9720
8.628000 0.9740 0.9750 0.9770 0.9780 0.9770
8.660360 0.9720 0.9690 0.9700 0.9700 0.9690
8.693000 0.9690 0.9690 0.9690 0.9690 0.9690
8.725360 0.9670 0.9670 0.9670 0.9650 0.9650
8.757000 0.9690 0.9720 0.9750 0.9770 0.9780
8.789360 0.9820 0.9820 0.9800 0.9750 0.9740
8.822000 0.9700 0.9690 0.9690 0.9690 0.9690
8.854360 0.9700 0.9720 0.9720 0.9720 0.9670
8.887000 0.9560 0.9490 0.9460 0.9440 0.9440
8.919360 0.9440 0.9440 0.9360 0.9300 0.9150
8.951000 0.9040 0.8910 0.8790 0.8680 0.8580
8.983360 0.8470 0.8360 0.8190 0.8010 0.7800
9.016000 0.7720 0.7540 0.7320 0.7040 0.6930
9.048360 0.6800 0.6570 0.6410 0.6250 0.5970
9.081000 0.5820 0.5820 0.5890 0.6120 0.6390
9.113360 0.6650 0.6890 0.7350 0.7560 0.7750
9.146000 0.7920 0.8080 0.8190 0.8290 0.8360
9.178360 0.8420 0.8470 0.8580 0.8700 0.8760
9.210000 0.8830 0.8890 0.8940 0.8970 0.9000
9.242360 0.9050 0.9090 0.9100 0.9130 0.9170
9.275000 0.9200 0.9200 0.9180 0.9170 0.9170
9.307360 0.9170 0.9170 0.9170 0.9180 0.9200
9.340000 0.9200 0.9180 0.9170 0.9170 0.9170
9.372360 0.9180 0.9230 0.9260 0.9310 0.9330
9.404000 0.9330 0.9330 0.9330 0.9300 0.9300
9.436360 0.9330 0.9350 0.9350 0.9360 0.9360
9.469000 0.9360 0.9360 0.9380 0.9360 0.9220
9.501360 0.9200 0.9330 0.9330 0.9330 0.9330
9.534000 0.9330 0.9330 0.9330 0.9300 0.9220
9.566360 0.9130 0.9040 0.8960 0.8870 0.8730
9.598000 0.8440 0.8290 0.8140 0.8000 0.7980
9.630360 0.8000 0.8130 0.8210 0.8290 0.8420
9.663000 0.8680 0.8750 0.8780 0.8810 0.8840
9.695360 0.8890 0.8960 0.9040 0.9100 0.9150
9.728000 0.9180 0.9180 0.9200 0.9200 0.9200
9.760360 0.9220 0.9150 0.9150 0.9220 0.9230
9.792000 0.9260 0.9260 0.9280 0.9300 0.9280
9.824360 0.9300 0.9330 0.9390 0.9460 0.9480
9.857000 0.9480 0.9490 0.9490 0.9490 0.9490
9.889360 0.9490 0.9510 0.9540 0.9570 0.9620
9.922000 0.9640 0.9650 0.9690 0.9700 0.9700
9.954360 0.9700 0.9700 0.9700 0.9700 0.9700
9.987000 0.9720 0.9720 0.9750 0.9700 0.9750
10.019360 0.9770 0.9770 0.9780 0.9780 0.9780
10.051000 0.9780 0.9800 0.9780 0.9800 0.9800
10.083360 0.9820 0.9820 0.9850 0.9900 0.9980
10.116000 1.0000 1.0000 0.9960 0.9930 0.9930
10.148360 0.9930 0.9930 0.9910 0.9880 0.9830
10.181000 0.9800 0.9800 0.9830 0.9880 0.9900
10.213360 0.9930 0.9980 1.0000 1.0000 1.0000
10.245000 0.9950 0.9900 0.9880 0.9850 0.9780
10.277360 0.9770 0.9780 0.9780 0.9780 0.9780
10.310000 0.9780 0.9770 0.9720 0.9700 0.9720
10.342360 0.9770 0.9780 0.9800 0.9820 0.9830
10.375000 0.9850 0.9870 0.9900 0.9910 0.9910
10.407360 0.9930 0.9930 0.9930 0.9910 0.9910
10.439000 0.9910 0.9900 0.9880 0.9850 0.9780
10.471360 0.9780 0.9800 0.9830 0.9880 0.9900
10.504000 0.9900 0.9880 0.9800 0.9780 0.9740
10.536360 0.9720 0.9640 0.9480 0.9300 0.9090
10.569000 0.8870 0.8700 0.8530 0.8440 0.8340
10.601360 0.8230 0.8190 0.8190 0.8210 0.8390
10.633000 0.8530 0.8660 0.8810 0.8920 0.9040
10.665360 0.9130 0.9220 0.9300 0.9410 0.9510
10.698000 0.9610 0.9670 0.9690 0.9690 0.9740
10.730360 0.9770 0.9800 0.9820 0.9830 0.9830
10.763000 0.9850 0.9850 0.9870 0.9880 0.9880
10.795360 0.9870 0.9880 0.9900 0.9910 0.9930
10.827000 0.9930 0.9950 0.9930 0.9930 0.9910
10.859360 0.9930 0.9930 0.9950 0.9980 1.0000
10.892000 1.0000 0.9980 0.9960 0.9960 0.9950
10.924360 0.9960 0.9950 0.9950 0.9950 0.9930
10.957000 0.9900 0.9880 0.9900 0.9900 0.9900
10.989360 0.9880 0.9870 0.9850 0.9820 0.9780
11.022000 0.9740 0.9740 0.9720 0.9690 0.9650
11.054360 0.9610 0.9520 0.9440 0.9350 0.9260
11.086000 0.9150 0.9050 0.8920 0.8810 0.8660
11.118360 0.8360 0.8050 0.7720 0.7430 0.7170
11.151000 0.7060 0.6940 0.6780 0.6670 0.6630
11.183360 0.6550 0.6440 0.6310 0.6150 0.5950
11.216000 0.5730 0.5600 0.5500 0.5480 0.5510
11.248360 0.5680 0.5820 0.5970 0.6030 0.6080
11.280000 0.6100 0.6120 0.6150 0.6200 0.6260
11.312360 0.6340 0.6360 0.6370 0.6370 0.6370
11.345000 0.6290 0.6290 0.6390 0.6720 0.7350
11.377360 0.7640 0.7920 0.8190 0.8450 0.8680
11.410000 0.8890 0.9070 0.9250 0.9380 0.9480
11.442360 0.9560 0.9590 0.9620 0.9640 0.9650
11.474000 0.9670 0.9700 0.9740 0.9800 0.9820
11.506360 0.9850 0.9870 0.9880 0.9880 0.9880
11.539000 0.9880 0.9900 0.9930 0.9980 1.0000
11.571360 0.9960 0.9930 0.9950 0.9960 0.9960
11.604000 0.9960 0.9980 1.0000 1.0000 0.9980
11.636360 1.0000 0.9980 0.9980 1.0010 1.0010
11.668000 0.9980 0.9950 0.9930 0.9930 0.9930
11.700360 0.9910 0.9900 0.9900 0.9910 0.9910
11.733000 0.9910 0.9910 0.9950 0.9950 0.9980
11.765360 1.0000 1.0000 1.0000 1.0000 0.9980
11.798000 0.9980 0.9960 0.9950 0.9930 0.9930
11.830360 1.0000 0.9950 0.9900 0.9900 0.9900
11.863000 0.9910 0.9950 0.9960 0.9980 0.9980
11.895360 1.0000 1.0000 1.0000 0.9980 1.0000
11.927000 1.0030 1.0030 1.0030 1.0030 1.0010
11.959360 0.9980 0.9980 0.9980 1.0010 1.0030
11.992000 1.0010 1.0030 1.0010 1.0000 1.0000
12.024360 0.9980 0.9980 1.0010 1.0010 1.0030
12.057000 1.0040 1.0060 1.0060 1.0080 1.0060
12.089360 1.0040 1.0080 1.0080 1.0080 1.0060
12.121000 1.0060 1.0060 1.0060 1.0010 0.9980
12.153360 0.9950 0.9910 1.0010 0.9930 0.9950
12.186000 0.9950 1.0030 1.0030 1.0040 1.0040
12.218360 1.0040 1.0030 1.0000 0.9960 0.9950
12.251000 0.9930 0.9930 0.9900 0.9880 0.9870
12.283360 0.9930 0.9910 0.9850 0.9850 0.9850
12.315000 0.9910 0.9910 0.9880 0.9830 0.9820
12.347360 0.9830 0.9820 0.9820 0.9780 0.9780
12.380000 0.9780 0.9770 0.9740 0.9720 0.9770
12.412360 0.9780 0.9780 0.9800 0.9800 0.9820
12.445000 0.9830 0.9830 0.9830 0.9830 0.9800
12.477360 0.9690 0.9700 0.9700 0.9700 0.9770
12.509000 0.9800 0.9850 0.9870 0.9870 0.9850
12.541360 0.9850 0.9800 0.9870 0.9870 0.9820
12.574000 0.9780 0.9780 0.9780 0.9740 0.9640
12.606360 0.9570 0.9750 0.9750 0.9750 0.9750
12.639000 0.9520 0.9700 0.9700 0.9700 0.9700
12.671360 0.9700 0.9700 0.9700 0.9650 0.9650
12.704000 0.9690 0.9670 0.9650 0.9620 0.9570
12.736360 0.9520 0.9510 0.9440 0.9440 0.9460
12.768000 0.9490 0.9540 0.9560 0.9590 0.9590
12.800360 0.9560 0.9540 0.9540 0.9540 0.9540
12.833000 0.9520 0.9480 0.9510 0.9490 0.9480
12.865360 0.9440 0.9390 0.9330 0.9310 0.9280
12.898000 0.9250 0.9200 0.9150 0.9120 0.9150
12.930360 0.9070 0.9040 0.8990 0.8960 0.8890
12.962000 0.8920 0.8840 0.8760 0.8700 0.8620
12.994360 0.8530 0.8440 0.8360 0.8240 0.8130
13.027000 0.8000 0.7870 0.7690 0.7510 0.7320
13.059360 0.7070 0.6960 0.6830 0.6540 0.6210
13.092000 0.5940 0.5640 0.5320 0.5010 0.4690
13.124360 0.4390 0.4100 0.3990 0.3860 0.3650
13.156000 0.3550 0.3470 0.3450 0.3490 0.3650
13.188360 0.3680 0.3840 0.3890 0.3970 0.4170
13.221000 0.4180 0.4180 0.4220 0.4330 0.4410
13.253360 0.4460 0.4740 0.4930 0.5090 0.5250
13.286000 0.5470 0.5730 0.5900 0.6100 0.6310
13.318360 0.6540 0.6730 0.6930 0.7170 0.7200
13.350000 0.7320 0.7400 0.7480 0.7530 0.7590
13.382360 0.7660 0.7720 0.7840 0.7970 0.8000
13.415000 0.8050 0.8110 0.8180 0.8240 0.8310
13.447360 0.8370 0.8420 0.8470 0.8490 0.8520
13.480000 0.8550 0.8550 0.8570 0.8550 0.8530
13.512360 0.8520 0.8550 0.8600 0.8600 0.8680
13.544000 0.8680 0.8630 0.8580 0.8570 0.8580
13.576360 0.8600 0.8650 0.8700 0.8750 0.8750
13.609000 0.8760 0.8790 0.8830 0.8840 0.8810
13.641360 0.8790 0.8760 0.8780 0.8790 0.8780
13.674000 0.8760 0.8730 0.8710 0.8700 0.8700
13.706360 0.8710 0.8730 0.8780 0.8780 0.8760
13.739000 0.8660 0.8620 0.8550 0.8500 0.8470
13.771360 0.8420 0.8400 0.8420 0.8420 0.8420
13.803000 0.8420 0.8400 0.8390 0.8310 0.8240
13.835360 0.8190 0.8140 0.8160 0.8160 0.8160
13.868000 0.8130 0.8110 0.8030 0.8010 0.8010
13.900360 0.8000 0.7980 0.7970 0.7930 0.7880
13.933000 0.7870 0.7850 0.7820 0.7790 0.7740
13.965360 0.7720 0.7690 0.7670 0.7670 0.7660
13.997000 0.7620 0.7610 0.7580 0.7540 0.7480
14.029360 0.7460 0.7410 0.7350 0.7280 0.7240
14.062000 0.7170 0.7120 0.7090 0.7070 0.7070
14.094360 0.7070 0.7110 0.7110 0.7110 0.7110
14.127000 0.7090 0.7060 0.7010 0.6980 0.6940
14.159360 0.6860 0.6780 0.6700 0.6620 0.6600
14.191000 0.6550 0.6520 0.6460 0.6410 0.6360
14.223360 0.6290 0.6260 0.6210 0.6130 0.6050
14.256000 0.5990 0.5970 0.5900 0.5810 0.5730
14.288360 0.5610 0.5510 0.5450 0.5380 0.5350
14.321000 0.5250 0.5160 0.5060 0.4960 0.4880
14.353360 0.4800 0.4700 0.4610 0.4510 0.4390
14.385000 0.4260 0.4100 0.4050 0.4020 0.3990
14.417360 0.3940 0.3920 0.3910 0.3890 0.3890
14.450000 0.3910 0.3920 0.3960 0.4040 0.4220
14.482360 0.4350 0.4410 0.4590 0.4750 0.4910
14.515000 0.5060 0.5190 0.5320 0.5430 0.5550
14.547360 0.5640 0.5760 0.5860 0.5950 0.6030
14.580000 0.6130 0.6230 0.6330 0.6410 0.6500
14.612360 0.6540 0.6600 0.6670 0.6750 0.6830
14.644000 0.6910 0.7060 0.7120 0.7140 0.7220
14.676360 0.7280 0.7350 0.7430 0.7500 0.7560
14.709000 0.7610 0.7640 0.7710 0.7750 0.7790
14.741360 0.7820 0.7870 0.7880 0.7920 0.7950
14.774000 0.7980 0.8010 0.8010 0.8030 0.8050
14.806360 0.8050 0.8080 0.8110 0.8160 0.8160
14.838000 0.8180 0.8180 0.8210 0.8260 0.8270
14.870360 0.8270 0.8270 0.8260 0.8210 0.8210
14.903000 0.8240 0.8260 0.8260 0.8230 0.8240
14.935360 0.8260 0.8270 0.8270 0.8290 0.8290
14.968000 0.8310 0.8320 0.8340 0.8360 0.8400
15.000360 0.8420 0.8450 0.8450 0.8470 0.8470
15.032000 0.8470 0.8450 0.8420 0.8390 0.8390
15.064360 0.8340 0.8260 0.8230 0.8190 0.8180
15.097000 0.8180 0.8180 0.8160 0.8180 0.8210
15.129360 0.8210 0.8130 0.8080 0.8130 0.8100
15.162000 0.8080 0.8060 0.8030 0.8030 0.8010
15.194360 0.8030 0.8010 0.8010 0.8030 0.8030
15.226000 0.8030 0.8010 0.8000 0.8000 0.7970
15.258360 0.8000 0.7980 0.7950 0.7920 0.7900
15.291000 0.7880 0.7880 0.8000 0.8000 0.7930
15.323360 0.7900 0.7900 0.7880 0.7880 0.7870
15.356000 0.7850 0.7850 0.7820 0.7850 0.7840
15.388360 0.7840 0.7800 0.7790 0.7750 0.7750
15.420000 0.7740 0.7740 0.7750 0.7770 0.7770
15.452360 0.7770 0.7770 0.7770 0.7750 0.7690
15.485000 0.7710 0.7720 0.7710 0.7710 0.7710
15.517360 0.7690 0.7670 0.7660 0.7640 0.7610
15.550000 0.7620 0.7610 0.7590 0.7580 0.7620
15.582360 0.7620 0.7580 0.7530 0.7500 0.7410
15.615000 0.7400 0.7410 0.7430 0.7480 0.7510
15.647360 0.7510 0.7510 0.7500 0.7370 0.7370
15.679000 0.7370 0.7410 0.7400 0.7380 0.7350
15.711360 0.7330 0.7320 0.7320 0.7300 0.7270
15.744000 0.7270 0.7300 0.7350 0.7330 0.7300
15.776360 0.7280 0.7220 0.7190 0.7170 0.7150
15.809000 0.7170 0.7190 0.7190 0.7170 0.7150
15.841360 0.7140 0.7120 0.7110 0.7090 0.7070
15.873000 0.7040 0.7020 0.7010 0.7010 0.7020
15.905360 0.7010 0.7010 0.7010 0.6990 0.6990
15.938000 0.6990 0.6990 0.6980 0.6940 0.6940
15.970360 0.6940 0.6960 0.6960 0.6960 0.6940
16.003000 0.6910 0.6880
##END=
