##TITLE=Alloxantin, dihydrate
##JCAMP-DX=4.24
##DATA TYPE=INFRARED SPECTRUM
##CLASS=COBLENTZ II
##ORIGIN=DOW CHEMICAL COMPANY
##OWNER=COBLENTZ SOC.
Collection (C) 2018 copyright by the U.S. Secretary of Commerce
on behalf of the United States of America. All rights reserved.
##DATE=1963/01/23
##NAMES=5,5'-BIBARBITURIC ACID, 5,5'-DIHYDROXY-, DIHYDRATE
##MOLFORM=C8 H6 N4 O8  * 2 H2 O
##SOURCE REFERENCE=COBLENTZ NO. 08969
##$NIST ID=B6008969
##$NIST SOURCE=COBLENTZ
##$NIST IMAGE=cob8969
##SPECTROMETER/DATA SYSTEM=DOW KBr FOREPRISM-GRATING
##INSTRUMENT PARAMETERS=BLAZED AT 3.5, 12.0, 20.0 MICRON AND CHANGED AT 5.0, 7.5, 14.9 MICRON
##STATE=SOLID (SPLIT MULL), FLUOROLUBE FOR 3800-1330 CM^-^1, NUJOL FOR 1330-400 CM^-^1
$$ SPECTRAL FEATURE AT 1994 CM^-^1 IS PROBABLY AN ARTIFACT CAUSED BY GRATING CHANGE
##SAMPLING PROCEDURE=TRANSMISSION
##RESOLUTION=2
##DATA PROCESSING=DIGITIZED BY COBLENTZ SOCIETY (BATCH I) FROM HARD COPY
##XUNITS=1/CM
##YUNITS=TRANSMITTANCE
##XLABEL=Wavenumbers (cm-1)
##YLABEL=% Transmission
##XFACTOR=1
##YFACTOR=1
##DELTAX=1
##FIRSTX=383
##LASTX=3800
##FIRSTY=0.6436
##MAXX=3800
##MINX=383
##MAXY=1.0256
##MINY=0.0682
##NPOINTS=3418
##XYDATA=(X++(Y..Y))
383.000000 0.6436 0.6436 0.6435 0.6428 0.6421
388.000000 0.6411 0.6404 0.6395 0.6387 0.6379
393.000000 0.6371 0.6362 0.6354 0.6342 0.6338
398.000000 0.6331 0.6325 0.6318 0.6310 0.6305
403.000000 0.6304 0.6302 0.6301 0.6301 0.6300
408.000000 0.6305 0.6310 0.6315 0.6324 0.6339
413.000000 0.6354 0.6371 0.6410 0.6449 0.6487
418.000000 0.6528 0.6580 0.6632 0.6682 0.6715
423.000000 0.6728 0.6731 0.6731 0.6747 0.6721
428.000000 0.6701 0.6651 0.6553 0.6451 0.6255
433.000000 0.6060 0.5865 0.5669 0.5474 0.5279
438.000000 0.5083 0.4888 0.4693 0.4496 0.4344
443.000000 0.4253 0.4122 0.3972 0.3905 0.3882
448.000000 0.3889 0.3864 0.3926 0.3984 0.4096
453.000000 0.4221 0.4325 0.4459 0.4874 0.5272
458.000000 0.5670 0.6069 0.6467 0.6865 0.7094
463.000000 0.7183 0.7269 0.7418 0.7639 0.7757
468.000000 0.7875 0.8095 0.8260 0.8397 0.8507
473.000000 0.8604 0.8637 0.8661 0.8678 0.8692
478.000000 0.8693 0.8693 0.8681 0.8671 0.8653
483.000000 0.8634 0.8605 0.8566 0.8498 0.8431
488.000000 0.8362 0.8292 0.8211 0.8112 0.7924
493.000000 0.7814 0.7718 0.7636 0.7557 0.7433
498.000000 0.7307 0.7035 0.6653 0.6270 0.5888
503.000000 0.5506 0.5123 0.4741 0.4359 0.3976
508.000000 0.3725 0.3689 0.3703 0.3709 0.4030
513.000000 0.4466 0.4900 0.5335 0.5769 0.6203
518.000000 0.6638 0.6908 0.7032 0.7083 0.7101
523.000000 0.7112 0.7150 0.7111 0.7104 0.7096
528.000000 0.7076 0.7041 0.6997 0.6944 0.6878
533.000000 0.6744 0.6658 0.6571 0.6484 0.6393
538.000000 0.6301 0.6208 0.6110 0.6010 0.5910
543.000000 0.5827 0.5744 0.5656 0.5559 0.5466
548.000000 0.5378 0.5294 0.5214 0.5138 0.5062
553.000000 0.4989 0.4915 0.4865 0.4819 0.4781
558.000000 0.4754 0.4734 0.4720 0.4694 0.4717
563.000000 0.4733 0.4764 0.4809 0.4860 0.4915
568.000000 0.4962 0.5010 0.5073 0.5136 0.5255
573.000000 0.5355 0.5457 0.5559 0.5660 0.5748
578.000000 0.5780 0.5836 0.5926 0.6229 0.6415
583.000000 0.6512 0.6575 0.6667 0.6789 0.6869
588.000000 0.6907 0.6861 0.6810 0.6791 0.6817
593.000000 0.6843 0.6875 0.6906 0.6932 0.6958
598.000000 0.6984 0.7017 0.7054 0.7091 0.7128
603.000000 0.7168 0.7208 0.7248 0.7291 0.7342
608.000000 0.7393 0.7444 0.7480 0.7515 0.7551
613.000000 0.7587 0.7621 0.7664 0.7711 0.7758
618.000000 0.7807 0.7855 0.7900 0.7942 0.7984
623.000000 0.8025 0.8068 0.8108 0.8150 0.8188
628.000000 0.8214 0.8241 0.8267 0.8292 0.8306
633.000000 0.8318 0.8332 0.8343 0.8353 0.8362
638.000000 0.8370 0.8374 0.8377 0.8377 0.8377
643.000000 0.8375 0.8375 0.8375 0.8375 0.8388
648.000000 0.8418 0.8458 0.8493 0.8528 0.8581
653.000000 0.8638 0.8675 0.8714 0.8744 0.8760
658.000000 0.8775 0.8792 0.8797 0.8800 0.8803
663.000000 0.8794 0.8785 0.8768 0.8739 0.8721
668.000000 0.8720 0.8728 0.8754 0.8841 0.8912
673.000000 0.8925 0.8924 0.8918 0.8912 0.8905
678.000000 0.8896 0.8886 0.8886 0.8891 0.8918
683.000000 0.8955 0.9001 0.9028 0.9049 0.9063
688.000000 0.9064 0.9065 0.9059 0.9044 0.8992
693.000000 0.8913 0.8835 0.8756 0.8668 0.7974
698.000000 0.7425 0.6878 0.6515 0.6511 0.7008
703.000000 0.7508 0.8008 0.8436 0.8451 0.8409
708.000000 0.8285 0.8024 0.7908 0.7811 0.7746
713.000000 0.7678 0.7608 0.7498 0.7318 0.7140
718.000000 0.6960 0.6781 0.6601 0.6540 0.6532
723.000000 0.6528 0.6587 0.6661 0.6738 0.6812
728.000000 0.6889 0.6955 0.6951 0.6947 0.6932
733.000000 0.6900 0.6803 0.6701 0.6608 0.6428
738.000000 0.6214 0.6000 0.5785 0.5571 0.5518
743.000000 0.5521 0.5671 0.5835 0.5998 0.6162
748.000000 0.6326 0.6490 0.6589 0.6607 0.5919
753.000000 0.5504 0.5090 0.4676 0.4262 0.3909
758.000000 0.3925 0.4226 0.4516 0.4807 0.5098
763.000000 0.5389 0.5679 0.5970 0.6138 0.6153
768.000000 0.5930 0.5779 0.5628 0.5478 0.5464
773.000000 0.5839 0.6112 0.6387 0.6661 0.6803
778.000000 0.7022 0.7154 0.7225 0.7299 0.7349
783.000000 0.7397 0.7443 0.7488 0.7533 0.7578
788.000000 0.7618 0.7660 0.7700 0.7741 0.7783
793.000000 0.7825 0.7869 0.7912 0.7941 0.7960
798.000000 0.7978 0.7995 0.7987 0.7986 0.7985
803.000000 0.7968 0.7951 0.7933 0.7908 0.7885
808.000000 0.7861 0.7837 0.7812 0.7789 0.7751
813.000000 0.7711 0.7669 0.7626 0.7584 0.7538
818.000000 0.7478 0.7419 0.7361 0.7307 0.7253
823.000000 0.7199 0.7146 0.7075 0.6991 0.6907
828.000000 0.6824 0.6731 0.6639 0.6547 0.6478
833.000000 0.6415 0.6354 0.6270 0.6123 0.5976
838.000000 0.5829 0.5683 0.5536 0.5389 0.5242
843.000000 0.5095 0.4949 0.4821 0.4714 0.4617
848.000000 0.4518 0.4412 0.4328 0.4309 0.4310
853.000000 0.4312 0.4348 0.4392 0.4451 0.4548
858.000000 0.4633 0.4764 0.4939 0.5114 0.5290
863.000000 0.5465 0.5640 0.5815 0.6408 0.6607
868.000000 0.6725 0.6890 0.7125 0.7392 0.7468
873.000000 0.7546 0.7624 0.7696 0.7765 0.7835
878.000000 0.7904 0.7968 0.8032 0.8092 0.8124
883.000000 0.8156 0.8188 0.8215 0.8236 0.8257
888.000000 0.8278 0.8299 0.8318 0.8340 0.8361
893.000000 0.8383 0.8406 0.8430 0.8454 0.8477
898.000000 0.8501 0.8524 0.8548 0.8568 0.8590
903.000000 0.8611 0.8628 0.8635 0.8651 0.8617
908.000000 0.8607 0.8597 0.8586 0.8575 0.8566
913.000000 0.8550 0.8535 0.8514 0.8490 0.8465
918.000000 0.8421 0.8357 0.8249 0.8136 0.8108
923.000000 0.8124 0.8115 0.8168 0.8259 0.8350
928.000000 0.8440 0.8521 0.8545 0.8554 0.8558
933.000000 0.8550 0.8543 0.8535 0.8523 0.8512
938.000000 0.8501 0.8490 0.8480 0.8465 0.8450
943.000000 0.8434 0.8410 0.8386 0.8360 0.8332
948.000000 0.8293 0.8254 0.8207 0.8160 0.8111
953.000000 0.8061 0.8011 0.7962 0.7915 0.7868
958.000000 0.7833 0.7798 0.7762 0.7728 0.7697
963.000000 0.7665 0.7632 0.7605 0.7578 0.7546
968.000000 0.7508 0.7412 0.7250 0.7087 0.6924
973.000000 0.6761 0.6598 0.6435 0.6322 0.6252
978.000000 0.6167 0.6190 0.6175 0.6327 0.6539
983.000000 0.6750 0.6961 0.7172 0.7385 0.7596
988.000000 0.7774 0.7862 0.7967 0.8064 0.8149
993.000000 0.8228 0.8301 0.8331 0.8350 0.8360
998.000000 0.8361 0.8361 0.8362 0.8358 0.8350
1003.000000 0.8341 0.8325 0.8296 0.8267 0.8223
1008.000000 0.8167 0.8095 0.8006 0.7903 0.7849
1013.000000 0.7751 0.7543 0.7334 0.7125 0.6918
1018.000000 0.6710 0.6538 0.6486 0.6508 0.6639
1023.000000 0.6891 0.7144 0.7396 0.7648 0.7871
1028.000000 0.7956 0.8039 0.8118 0.8168 0.8217
1033.000000 0.8243 0.8270 0.8284 0.8298 0.8312
1038.000000 0.8315 0.8318 0.8318 0.8318 0.8314
1043.000000 0.8311 0.8309 0.8306 0.8301 0.8296
1048.000000 0.8290 0.8285 0.8280 0.8274 0.8268
1053.000000 0.8261 0.8254 0.8245 0.8237 0.8228
1058.000000 0.8221 0.8214 0.8207 0.8200 0.8192
1063.000000 0.8187 0.8182 0.8176 0.8171 0.8167
1068.000000 0.8161 0.8158 0.8157 0.8178 0.8154
1073.000000 0.8151 0.8150 0.8150 0.8151 0.8153
1078.000000 0.8155 0.8158 0.8168 0.8178 0.8187
1083.000000 0.8196 0.8206 0.8216 0.8225 0.8234
1088.000000 0.8236 0.8237 0.8239 0.8240 0.8241
1093.000000 0.8238 0.8235 0.8228 0.8218 0.8204
1098.000000 0.8191 0.8176 0.8161 0.8146 0.8130
1103.000000 0.8115 0.8097 0.8078 0.8060 0.8042
1108.000000 0.8022 0.8005 0.7983 0.7958 0.7935
1113.000000 0.7911 0.7887 0.7864 0.7837 0.7808
1118.000000 0.7778 0.7750 0.7719 0.7689 0.7657
1123.000000 0.7625 0.7586 0.7543 0.7500 0.7450
1128.000000 0.7400 0.7350 0.7287 0.7212 0.7151
1133.000000 0.7097 0.7043 0.6990 0.6937 0.6892
1138.000000 0.6854 0.6818 0.6788 0.6728 0.6601
1143.000000 0.6455 0.6336 0.6226 0.6094 0.5857
1148.000000 0.5689 0.5559 0.5434 0.5309 0.5194
1153.000000 0.5080 0.4899 0.4753 0.4637 0.4376
1158.000000 0.3984 0.3592 0.3200 0.2808 0.2494
1163.000000 0.2329 0.2166 0.1995 0.1800 0.1541
1168.000000 0.1431 0.1377 0.1372 0.1374 0.1399
1173.000000 0.1455 0.1512 0.1644 0.2147 0.2657
1178.000000 0.3166 0.3676 0.4185 0.4695 0.5202
1183.000000 0.5419 0.6268 0.6397 0.6525 0.6654
1188.000000 0.6780 0.6907 0.7057 0.7208 0.7310
1193.000000 0.7410 0.7461 0.7508 0.7555 0.7581
1198.000000 0.7601 0.7618 0.7621 0.7619 0.7614
1203.000000 0.7618 0.7611 0.7603 0.7591 0.7562
1208.000000 0.7518 0.7469 0.7411 0.7344 0.7268
1213.000000 0.7183 0.7103 0.7028 0.6954 0.6880
1218.000000 0.6775 0.6655 0.6501 0.6338 0.6212
1223.000000 0.6099 0.5984 0.5848 0.5690 0.5552
1228.000000 0.5419 0.5276 0.5112 0.4730 0.4456
1233.000000 0.4290 0.4150 0.4050 0.3952 0.3818
1238.000000 0.3489 0.3191 0.3191 0.3190 0.3218
1243.000000 0.3490 0.3773 0.4055 0.4338 0.4620
1248.000000 0.4902 0.5185 0.5403 0.5555 0.5739
1253.000000 0.5886 0.6012 0.6118 0.6222 0.6329
1258.000000 0.6399 0.6492 0.6626 0.6698 0.6750
1263.000000 0.6797 0.6821 0.6837 0.6842 0.6851
1268.000000 0.6830 0.6819 0.6806 0.6785 0.6758
1273.000000 0.6733 0.6703 0.6672 0.6642 0.6610
1278.000000 0.6578 0.6546 0.6511 0.6469 0.6428
1283.000000 0.6386 0.6335 0.6284 0.6232 0.6168
1288.000000 0.6104 0.6056 0.6010 0.5965 0.5920
1293.000000 0.5866 0.5810 0.5754 0.5689 0.5619
1298.000000 0.5509 0.5385 0.5260 0.5137 0.5047
1303.000000 0.4980 0.4916 0.4848 0.4729 0.4643
1308.000000 0.4573 0.4502 0.4430 0.4356 0.4260
1313.000000 0.4158 0.4036 0.3918 0.3806 0.3690
1318.000000 0.3568 0.3420 0.3259 0.3156 0.3062
1323.000000 0.2983 0.2905 0.2774 0.2640 0.2419
1328.000000 0.2158 0.1979 0.1886 0.1782 0.1662
1333.000000 0.1557 0.1496 0.1436 0.1375 0.1283
1338.000000 0.1213 0.1163 0.1130 0.1102 0.1080
1343.000000 0.1068 0.1086 0.1088 0.1109 0.1137
1348.000000 0.1172 0.1211 0.1252 0.1301 0.1355
1353.000000 0.1418 0.1481 0.1542 0.1604 0.1663
1358.000000 0.1729 0.1817 0.1968 0.2062 0.2249
1363.000000 0.2445 0.2641 0.2837 0.3033 0.3229
1368.000000 0.3425 0.3621 0.3818 0.4014 0.4210
1373.000000 0.4370 0.4464 0.4644 0.4793 0.5007
1378.000000 0.5129 0.5210 0.5236 0.5243 0.5244
1383.000000 0.5218 0.5190 0.5125 0.5042 0.4939
1388.000000 0.4836 0.4777 0.4696 0.4540 0.4385
1393.000000 0.4229 0.4073 0.3918 0.3762 0.3606
1398.000000 0.3450 0.3295 0.3139 0.2984 0.2940
1403.000000 0.2958 0.2947 0.2961 0.2995 0.3142
1408.000000 0.3289 0.3437 0.3584 0.3730 0.3879
1413.000000 0.3998 0.4044 0.4068 0.4048 0.4034
1418.000000 0.3872 0.3608 0.3344 0.3080 0.2816
1423.000000 0.2553 0.2358 0.2329 0.2343 0.2359
1428.000000 0.2561 0.2869 0.3176 0.3482 0.3790
1433.000000 0.4097 0.4352 0.4458 0.5297 0.5566
1438.000000 0.5724 0.5886 0.6044 0.6186 0.6321
1443.000000 0.6447 0.6511 0.6565 0.6585 0.6598
1448.000000 0.6621 0.6578 0.6508 0.6412 0.6318
1453.000000 0.6223 0.6129 0.6034 0.5939 0.5844
1458.000000 0.5810 0.5830 0.5972 0.6129 0.6286
1463.000000 0.6443 0.6600 0.6757 0.6914 0.7071
1468.000000 0.7254 0.7368 0.7444 0.7507 0.7569
1473.000000 0.7605 0.7641 0.7676 0.7712 0.7745
1478.000000 0.7775 0.7805 0.7835 0.7860 0.7878
1483.000000 0.7896 0.7914 0.7932 0.7943 0.7951
1488.000000 0.7961 0.7961 0.7962 0.7969 0.7969
1493.000000 0.7961 0.7954 0.7946 0.7934 0.7921
1498.000000 0.7908 0.7897 0.7886 0.7875 0.7864
1503.000000 0.7851 0.7841 0.7830 0.7818 0.7807
1508.000000 0.7791 0.7772 0.7756 0.7739 0.7719
1513.000000 0.7701 0.7682 0.7662 0.7644 0.7625
1518.000000 0.7606 0.7587 0.7565 0.7539 0.7514
1523.000000 0.7488 0.7462 0.7437 0.7411 0.7385
1528.000000 0.7358 0.7342 0.7332 0.7328 0.7324
1533.000000 0.7341 0.7357 0.7388 0.7415 0.7440
1538.000000 0.7464 0.7489 0.7515 0.7543 0.7575
1543.000000 0.7604 0.7604 0.7600 0.7596 0.7588
1548.000000 0.7576 0.7565 0.7554 0.7540 0.7521
1553.000000 0.7501 0.7483 0.7460 0.7436 0.7412
1558.000000 0.7389 0.7362 0.7337 0.7311 0.7286
1563.000000 0.7258 0.7226 0.7196 0.7164 0.7133
1568.000000 0.7101 0.7064 0.7015 0.6968 0.6918
1573.000000 0.6868 0.6818 0.6768 0.6717 0.6665
1578.000000 0.6608 0.6551 0.6496 0.6440 0.6379
1583.000000 0.6317 0.6254 0.6180 0.6096 0.6012
1588.000000 0.5885 0.5749 0.5645 0.5564 0.5482
1593.000000 0.5400 0.5306 0.5208 0.5024 0.4778
1598.000000 0.4662 0.4384 0.4105 0.3827 0.3548
1603.000000 0.3270 0.3016 0.2873 0.2740 0.2565
1608.000000 0.2416 0.2294 0.2234 0.2260 0.2251
1613.000000 0.2345 0.2484 0.2593 0.2694 0.2851
1618.000000 0.2975 0.3115 0.3759 0.4164 0.4546
1623.000000 0.4743 0.4941 0.5143 0.5238 0.5332
1628.000000 0.5427 0.5519 0.5610 0.5705 0.5803
1633.000000 0.5888 0.5952 0.6008 0.6046 0.6079
1638.000000 0.6095 0.6110 0.6127 0.6129 0.6131
1643.000000 0.6120 0.6108 0.6092 0.6070 0.6040
1648.000000 0.6014 0.5988 0.5943 0.5898 0.5840
1653.000000 0.5789 0.5740 0.5699 0.5658 0.5614
1658.000000 0.5568 0.5522 0.5475 0.5427 0.5378
1663.000000 0.5328 0.5278 0.5226 0.5175 0.5122
1668.000000 0.5062 0.5004 0.4943 0.4846 0.4749
1673.000000 0.4653 0.4560 0.4480 0.4398 0.4278
1678.000000 0.4140 0.3973 0.3859 0.3748 0.3623
1683.000000 0.3497 0.3368 0.3282 0.3210 0.3139
1688.000000 0.3067 0.2976 0.2860 0.2744 0.2648
1693.000000 0.2562 0.2475 0.2389 0.2275 0.2156
1698.000000 0.2037 0.1934 0.1834 0.1734 0.1644
1703.000000 0.1563 0.1482 0.1400 0.1310 0.1213
1708.000000 0.1115 0.1017 0.0917 0.0828 0.0774
1713.000000 0.0728 0.0697 0.0682 0.0682 0.0686
1718.000000 0.0693 0.0696 0.0708 0.0727 0.0752
1723.000000 0.0795 0.0831 0.0859 0.0879 0.0896
1728.000000 0.0906 0.0901 0.0893 0.0887 0.0872
1733.000000 0.0856 0.0839 0.0822 0.0805 0.0789
1738.000000 0.0772 0.0757 0.0743 0.0730 0.0716
1743.000000 0.0708 0.0701 0.0695 0.0694 0.0694
1748.000000 0.0684 0.0698 0.0705 0.0716 0.0729
1753.000000 0.0745 0.0762 0.0784 0.0810 0.0847
1758.000000 0.0958 0.1049 0.1223 0.1398 0.1572
1763.000000 0.1745 0.1920 0.2095 0.2269 0.2443
1768.000000 0.2617 0.2903 0.3057 0.3262 0.3760
1773.000000 0.3858 0.3954 0.4050 0.4190 0.4407
1778.000000 0.4795 0.5007 0.5240 0.5406 0.5496
1783.000000 0.5586 0.5685 0.5787 0.5890 0.6017
1788.000000 0.6187 0.6299 0.6404 0.6508 0.6648
1793.000000 0.6795 0.6900 0.6993 0.7087 0.7171
1798.000000 0.7253 0.7335 0.7401 0.7461 0.7519
1803.000000 0.7580 0.7639 0.7686 0.7732 0.7778
1808.000000 0.7825 0.7871 0.7918 0.7951 0.7983
1813.000000 0.8015 0.8042 0.8057 0.8072 0.8088
1818.000000 0.8104 0.8118 0.8128 0.8141 0.8151
1823.000000 0.8164 0.8175 0.8187 0.8199 0.8211
1828.000000 0.8221 0.8234 0.8246 0.8258 0.8268
1833.000000 0.8278 0.8290 0.8301 0.8312 0.8323
1838.000000 0.8334 0.8345 0.8358 0.8371 0.8386
1843.000000 0.8400 0.8414 0.8428 0.8442 0.8456
1848.000000 0.8470 0.8484 0.8497 0.8511 0.8524
1853.000000 0.8538 0.8551 0.8565 0.8578 0.8591
1858.000000 0.8604 0.8616 0.8628 0.8642 0.8654
1863.000000 0.8667 0.8681 0.8697 0.8709 0.8718
1868.000000 0.8727 0.8735 0.8743 0.8751 0.8759
1873.000000 0.8767 0.8775 0.8782 0.8788 0.8794
1878.000000 0.8801 0.8807 0.8810 0.8812 0.8814
1883.000000 0.8817 0.8818 0.8821 0.8823 0.8824
1888.000000 0.8825 0.8825 0.8825 0.8827 0.8827
1893.000000 0.8828 0.8828 0.8828 0.8828 0.8830
1898.000000 0.8830 0.8831 0.8831 0.8832 0.8834
1903.000000 0.8835 0.8837 0.8839 0.8840 0.8842
1908.000000 0.8844 0.8845 0.8847 0.8848 0.8850
1913.000000 0.8851 0.8853 0.8854 0.8856 0.8858
1918.000000 0.8859 0.8861 0.8862 0.8864 0.8865
1923.000000 0.8867 0.8868 0.8870 0.8873 0.8875
1928.000000 0.8878 0.8880 0.8882 0.8885 0.8886
1933.000000 0.8888 0.8890 0.8891 0.8893 0.8894
1938.000000 0.8896 0.8899 0.8903 0.8907 0.8912
1943.000000 0.8917 0.8918 0.8918 0.8948 0.9007
1948.000000 0.9066 0.9044 0.8983 0.8923 0.8932
1953.000000 0.8943 0.8978 0.9008 1.0140 1.0256
1958.000000 1.0223 0.9905 0.9587 0.9268 0.8951
1963.000000 0.8906 0.8897 0.8889 0.8880 0.8873
1968.000000 0.8868 0.8868 0.8868 0.8867 0.8863
1973.000000 0.8859 0.8855 0.8851 0.8845 0.8840
1978.000000 0.8834 0.8828 0.8823 0.8817 0.8810
1983.000000 0.8804 0.8797 0.8790 0.8783 0.8775
1988.000000 0.8768 0.8759 0.8750 0.8598 0.8427
1993.000000 0.8313 0.8323 0.8437 0.8578 0.8721
1998.000000 0.8764 0.8771 0.9151 0.9475 0.9802
2003.000000 0.9796 0.9791 0.9690 0.9590 0.9489
2008.000000 0.9389 0.9288 0.9188 0.9152 0.9117
2013.000000 0.9121 0.9125 0.9125 0.9125 0.9123
2018.000000 0.9121 0.9118 0.9115 0.9112 0.9109
2023.000000 0.9101 0.9093 0.9120 0.9147 0.9297
2028.000000 0.9447 0.9481 0.9515 0.9516 0.9517
2033.000000 0.9418 0.9321 0.9175 0.9028 0.9013
2038.000000 0.8998 0.8991 0.8985 0.8975 0.8968
2043.000000 0.8964 0.8960 0.8955 0.8951 0.8947
2048.000000 0.8944 0.8941 0.8938 0.8935 0.8933
2053.000000 0.8931 0.8930 0.8928 0.8928 0.8928
2058.000000 0.8930 0.8930 0.8931 0.8931 0.8932
2063.000000 0.8932 0.8932 0.8932 0.8932 0.8932
2068.000000 0.8932 0.8932 0.8933 0.8933 0.8934
2073.000000 0.8934 0.8935 0.8935 0.8935 0.8932
2078.000000 0.8928 0.8925 0.8923 0.8918 0.8916
2083.000000 0.8913 0.8910 0.8906 0.8903 0.8899
2088.000000 0.8896 0.8892 0.8889 0.8885 0.8882
2093.000000 0.8878 0.8875 0.8871 0.8867 0.8863
2098.000000 0.8860 0.8856 0.8853 0.8849 0.8845
2103.000000 0.8840 0.8836 0.8831 0.8827 0.8821
2108.000000 0.8818 0.8814 0.8810 0.8805 0.8801
2113.000000 0.8798 0.8795 0.8792 0.8790 0.8787
2118.000000 0.8784 0.8781 0.8778 0.8775 0.8773
2123.000000 0.8770 0.8767 0.8764 0.8761 0.8758
2128.000000 0.8756 0.8753 0.8751 0.8749 0.8747
2133.000000 0.8744 0.8742 0.8740 0.8738 0.8735
2138.000000 0.8733 0.8730 0.8727 0.8724 0.8721
2143.000000 0.8718 0.8716 0.8713 0.8710 0.8707
2148.000000 0.8705 0.8702 0.8699 0.8696 0.8693
2153.000000 0.8689 0.8685 0.8681 0.8678 0.8674
2158.000000 0.8671 0.8667 0.8664 0.8659 0.8655
2163.000000 0.8650 0.8646 0.8641 0.8637 0.8632
2168.000000 0.8628 0.8624 0.8620 0.8617 0.8614
2173.000000 0.8610 0.8607 0.8603 0.8600 0.8596
2178.000000 0.8593 0.8590 0.8587 0.8583 0.8580
2183.000000 0.8575 0.8573 0.8570 0.8567 0.8563
2188.000000 0.8560 0.8558 0.8557 0.8556 0.8555
2193.000000 0.8554 0.8554 0.8553 0.8553 0.8552
2198.000000 0.8551 0.8550 0.8550 0.8549 0.8548
2203.000000 0.8547 0.8547 0.8546 0.8546 0.8546
2208.000000 0.8546 0.8545 0.8545 0.8544 0.8544
2213.000000 0.8543 0.8542 0.8540 0.8539 0.8538
2218.000000 0.8537 0.8533 0.8528 0.8525 0.8521
2223.000000 0.8516 0.8512 0.8507 0.8503 0.8499
2228.000000 0.8495 0.8488 0.8481 0.8473 0.8466
2233.000000 0.8459 0.8452 0.8444 0.8437 0.8428
2238.000000 0.8421 0.8411 0.8402 0.8392 0.8383
2243.000000 0.8373 0.8364 0.8354 0.8345 0.8336
2248.000000 0.8327 0.8318 0.8310 0.8301 0.8293
2253.000000 0.8285 0.8277 0.8271 0.8266 0.8261
2258.000000 0.8257 0.8252 0.8247 0.8242 0.8238
2263.000000 0.8233 0.8228 0.8223 0.8218 0.8214
2268.000000 0.8209 0.8204 0.8200 0.8195 0.8190
2273.000000 0.8184 0.8178 0.8171 0.8165 0.8160
2278.000000 0.8154 0.8148 0.8142 0.8136 0.8130
2283.000000 0.8124 0.8118 0.8111 0.8106 0.8100
2288.000000 0.8095 0.8090 0.8085 0.8078 0.8074
2293.000000 0.8068 0.8064 0.8058 0.8053 0.8047
2298.000000 0.8042 0.8037 0.8032 0.8026 0.8021
2303.000000 0.8017 0.8011 0.8007 0.8001 0.7997
2308.000000 0.7992 0.7987 0.7982 0.7976 0.7971
2313.000000 0.7965 0.7961 0.7956 0.7951 0.7945
2318.000000 0.7939 0.7932 0.7925 0.7918 0.7911
2323.000000 0.7905 0.7899 0.7892 0.7886 0.7878
2328.000000 0.7871 0.7865 0.7861 0.7858 0.7855
2333.000000 0.7851 0.7850 0.7847 0.7845 0.7845
2338.000000 0.7845 0.7846 0.7847 0.7853 0.7844
2343.000000 0.7867 0.7874 0.7878 0.7884 0.7883
2348.000000 0.7882 0.7878 0.7875 0.7868 0.7861
2353.000000 0.7854 0.7847 0.7846 0.7846 0.7846
2358.000000 0.7847 0.7850 0.7854 0.7858 0.7864
2363.000000 0.7869 0.7875 0.7882 0.7889 0.7896
2368.000000 0.7903 0.7911 0.7921 0.7934 0.7946
2373.000000 0.7958 0.7971 0.7983 0.7996 0.8008
2378.000000 0.8019 0.8026 0.8034 0.8039 0.8044
2383.000000 0.8045 0.8046 0.8047 0.8049 0.8049
2388.000000 0.8049 0.8048 0.8046 0.8044 0.8042
2393.000000 0.8039 0.8037 0.8033 0.8030 0.8025
2398.000000 0.8022 0.8018 0.8015 0.8011 0.8008
2403.000000 0.8005 0.8001 0.7998 0.7995 0.7991
2408.000000 0.7988 0.7985 0.7982 0.7978 0.7975
2413.000000 0.7971 0.7968 0.7965 0.7961 0.7958
2418.000000 0.7956 0.7953 0.7951 0.7948 0.7946
2423.000000 0.7943 0.7941 0.7938 0.7936 0.7933
2428.000000 0.7931 0.7928 0.7925 0.7922 0.7921
2433.000000 0.7918 0.7915 0.7912 0.7911 0.7908
2438.000000 0.7908 0.7907 0.7907 0.7906 0.7905
2443.000000 0.7904 0.7904 0.7903 0.7903 0.7903
2448.000000 0.7904 0.7905 0.7906 0.7907 0.7908
2453.000000 0.7908 0.7908 0.7910 0.7911 0.7911
2458.000000 0.7912 0.7912 0.7914 0.7915 0.7915
2463.000000 0.7915 0.7917 0.7918 0.7921 0.7922
2468.000000 0.7925 0.7928 0.7931 0.7933 0.7936
2473.000000 0.7938 0.7940 0.7942 0.7944 0.7946
2478.000000 0.7948 0.7949 0.7951 0.7951 0.7954
2483.000000 0.7955 0.7957 0.7958 0.7960 0.7961
2488.000000 0.7962 0.7962 0.7964 0.7964 0.7965
2493.000000 0.7965 0.7965 0.7967 0.7968 0.7968
2498.000000 0.7968 0.7968 0.7968 0.7968 0.7968
2503.000000 0.7967 0.7967 0.7965 0.7965 0.7964
2508.000000 0.7962 0.7961 0.7961 0.7961 0.7960
2513.000000 0.7958 0.7958 0.7956 0.7955 0.7954
2518.000000 0.7953 0.7951 0.7950 0.7948 0.7946
2523.000000 0.7943 0.7941 0.7938 0.7936 0.7933
2528.000000 0.7931 0.7928 0.7925 0.7922 0.7921
2533.000000 0.7917 0.7912 0.7908 0.7904 0.7899
2538.000000 0.7894 0.7889 0.7885 0.7880 0.7875
2543.000000 0.7871 0.7867 0.7862 0.7858 0.7855
2548.000000 0.7851 0.7848 0.7845 0.7841 0.7838
2553.000000 0.7834 0.7831 0.7826 0.7824 0.7819
2558.000000 0.7815 0.7811 0.7807 0.7801 0.7798
2563.000000 0.7793 0.7789 0.7784 0.7780 0.7775
2568.000000 0.7771 0.7765 0.7761 0.7757 0.7753
2573.000000 0.7748 0.7744 0.7740 0.7736 0.7731
2578.000000 0.7726 0.7721 0.7718 0.7714 0.7710
2583.000000 0.7705 0.7701 0.7696 0.7692 0.7688
2588.000000 0.7684 0.7678 0.7675 0.7669 0.7665
2593.000000 0.7661 0.7657 0.7653 0.7649 0.7644
2598.000000 0.7640 0.7635 0.7631 0.7625 0.7621
2603.000000 0.7617 0.7612 0.7608 0.7604 0.7599
2608.000000 0.7595 0.7590 0.7586 0.7581 0.7576
2613.000000 0.7571 0.7567 0.7561 0.7557 0.7551
2618.000000 0.7546 0.7541 0.7536 0.7531 0.7525
2623.000000 0.7519 0.7515 0.7510 0.7505 0.7500
2628.000000 0.7495 0.7489 0.7484 0.7478 0.7471
2633.000000 0.7465 0.7461 0.7455 0.7449 0.7443
2638.000000 0.7437 0.7431 0.7425 0.7419 0.7414
2643.000000 0.7408 0.7403 0.7397 0.7391 0.7385
2648.000000 0.7378 0.7371 0.7365 0.7358 0.7350
2653.000000 0.7341 0.7333 0.7325 0.7317 0.7308
2658.000000 0.7301 0.7293 0.7285 0.7276 0.7268
2663.000000 0.7261 0.7253 0.7245 0.7237 0.7228
2668.000000 0.7221 0.7212 0.7205 0.7197 0.7189
2673.000000 0.7180 0.7171 0.7162 0.7155 0.7147
2678.000000 0.7139 0.7130 0.7121 0.7112 0.7105
2683.000000 0.7096 0.7088 0.7078 0.7071 0.7061
2688.000000 0.7054 0.7044 0.7034 0.7024 0.7014
2693.000000 0.7004 0.6995 0.6985 0.6975 0.6965
2698.000000 0.6955 0.6945 0.6936 0.6925 0.6915
2703.000000 0.6906 0.6896 0.6886 0.6876 0.6867
2708.000000 0.6857 0.6847 0.6837 0.6826 0.6818
2713.000000 0.6808 0.6798 0.6788 0.6778 0.6767
2718.000000 0.6757 0.6747 0.6737 0.6725 0.6714
2723.000000 0.6701 0.6691 0.6678 0.6667 0.6655
2728.000000 0.6644 0.6632 0.6621 0.6608 0.6598
2733.000000 0.6586 0.6575 0.6562 0.6551 0.6539
2738.000000 0.6528 0.6515 0.6504 0.6492 0.6480
2743.000000 0.6468 0.6457 0.6445 0.6433 0.6421
2748.000000 0.6408 0.6397 0.6385 0.6371 0.6357
2753.000000 0.6339 0.6321 0.6302 0.6284 0.6266
2758.000000 0.6248 0.6230 0.6212 0.6194 0.6176
2763.000000 0.6158 0.6140 0.6121 0.6102 0.6082
2768.000000 0.6062 0.6044 0.6025 0.6005 0.5986
2773.000000 0.5967 0.5948 0.5928 0.5909 0.5888
2778.000000 0.5867 0.5846 0.5825 0.5804 0.5783
2783.000000 0.5760 0.5740 0.5719 0.5698 0.5676
2788.000000 0.5655 0.5630 0.5605 0.5580 0.5556
2793.000000 0.5531 0.5507 0.5483 0.5459 0.5435
2798.000000 0.5410 0.5387 0.5364 0.5340 0.5317
2803.000000 0.5293 0.5270 0.5249 0.5229 0.5208
2808.000000 0.5188 0.5167 0.5147 0.5123 0.5099
2813.000000 0.5073 0.5048 0.5024 0.5000 0.4984
2818.000000 0.4968 0.4952 0.4936 0.4920 0.4904
2823.000000 0.4888 0.4872 0.4846 0.4820 0.4785
2828.000000 0.4751 0.4728 0.4705 0.4695 0.4685
2833.000000 0.4680 0.4676 0.4675 0.4675 0.4675
2838.000000 0.4676 0.4680 0.4660 0.4693 0.4703
2843.000000 0.4724 0.4745 0.4770 0.4795 0.4822
2848.000000 0.4849 0.4876 0.4904 0.4941 0.4979
2853.000000 0.5021 0.5062 0.5098 0.5133 0.5164
2858.000000 0.5196 0.5226 0.5257 0.5279 0.5302
2863.000000 0.5324 0.5347 0.5365 0.5383 0.5397
2868.000000 0.5410 0.5425 0.5440 0.5454 0.5468
2873.000000 0.5481 0.5494 0.5507 0.5521 0.5537
2878.000000 0.5554 0.5574 0.5595 0.5621 0.5648
2883.000000 0.5696 0.5744 0.5816 0.5889 0.5930
2888.000000 0.5972 0.5994 0.6016 0.6033 0.6051
2893.000000 0.6067 0.6084 0.6095 0.6107 0.6118
2898.000000 0.6130 0.6136 0.6143 0.6146 0.6149
2903.000000 0.6150 0.6149 0.6149 0.6147 0.6144
2908.000000 0.6142 0.6139 0.6137 0.6130 0.6124
2913.000000 0.6118 0.6112 0.6104 0.6097 0.6088
2918.000000 0.6079 0.6069 0.6060 0.6049 0.6039
2923.000000 0.6022 0.6005 0.5988 0.5972 0.5947
2928.000000 0.5923 0.5897 0.5871 0.5845 0.5819
2933.000000 0.5798 0.5777 0.5757 0.5737 0.5717
2938.000000 0.5697 0.5677 0.5657 0.5639 0.5622
2943.000000 0.5606 0.5591 0.5576 0.5560 0.5545
2948.000000 0.5530 0.5514 0.5499 0.5479 0.5459
2953.000000 0.5439 0.5419 0.5399 0.5379 0.5360
2958.000000 0.5341 0.5325 0.5309 0.5293 0.5278
2963.000000 0.5262 0.5246 0.5230 0.5215 0.5199
2968.000000 0.5183 0.5162 0.5144 0.5124 0.5105
2973.000000 0.5085 0.5066 0.5046 0.5026 0.5007
2978.000000 0.4988 0.4969 0.4950 0.4931 0.4912
2983.000000 0.4893 0.4874 0.4855 0.4836 0.4817
2988.000000 0.4798 0.4781 0.4764 0.4747 0.4730
2993.000000 0.4712 0.4696 0.4679 0.4662 0.4645
2998.000000 0.4628 0.4615 0.4603 0.4592 0.4582
3003.000000 0.4572 0.4562 0.4551 0.4541 0.4530
3008.000000 0.4520 0.4510 0.4500 0.4493 0.4486
3013.000000 0.4479 0.4473 0.4466 0.4460 0.4453
3018.000000 0.4447 0.4446 0.4445 0.4445 0.4445
3023.000000 0.4445 0.4445 0.4446 0.4447 0.4447
3028.000000 0.4448 0.4449 0.4450 0.4459 0.4468
3033.000000 0.4477 0.4487 0.4497 0.4507 0.4518
3038.000000 0.4530 0.4541 0.4553 0.4564 0.4575
3043.000000 0.4585 0.4596 0.4607 0.4618 0.4628
3048.000000 0.4639 0.4650 0.4660 0.4673 0.4686
3053.000000 0.4700 0.4714 0.4728 0.4742 0.4756
3058.000000 0.4770 0.4784 0.4798 0.4812 0.4826
3063.000000 0.4840 0.4854 0.4865 0.4876 0.4875
3068.000000 0.4874 0.4872 0.4891 0.4866 0.4862
3073.000000 0.4859 0.4855 0.4850 0.4845 0.4838
3078.000000 0.4831 0.4824 0.4817 0.4810 0.4803
3083.000000 0.4796 0.4790 0.4783 0.4776 0.4769
3088.000000 0.4762 0.4757 0.4751 0.4745 0.4739
3093.000000 0.4732 0.4726 0.4720 0.4714 0.4707
3098.000000 0.4700 0.4693 0.4687 0.4680 0.4673
3103.000000 0.4666 0.4659 0.4651 0.4644 0.4636
3108.000000 0.4629 0.4621 0.4614 0.4606 0.4598
3113.000000 0.4590 0.4583 0.4575 0.4568 0.4560
3118.000000 0.4552 0.4544 0.4537 0.4529 0.4522
3123.000000 0.4514 0.4507 0.4499 0.4491 0.4483
3128.000000 0.4476 0.4467 0.4459 0.4450 0.4442
3133.000000 0.4440 0.4438 0.4438 0.4439 0.4440
3138.000000 0.4441 0.4442 0.4443 0.4444 0.4445
3143.000000 0.4445 0.4445 0.4445 0.4445 0.4444
3148.000000 0.4444 0.4443 0.4443 0.4442 0.4442
3153.000000 0.4436 0.4431 0.4423 0.4415 0.4403
3158.000000 0.4392 0.4375 0.4359 0.4343 0.4327
3163.000000 0.4312 0.4300 0.4287 0.4274 0.4259
3168.000000 0.4245 0.4227 0.4210 0.4192 0.4174
3173.000000 0.4156 0.4138 0.4119 0.4101 0.4079
3178.000000 0.4058 0.4037 0.4016 0.3994 0.3973
3183.000000 0.3952 0.3930 0.3908 0.3884 0.3859
3188.000000 0.3836 0.3810 0.3787 0.3762 0.3738
3193.000000 0.3709 0.3680 0.3647 0.3612 0.3579
3198.000000 0.3545 0.3510 0.3478 0.3441 0.3405
3203.000000 0.3364 0.3325 0.3284 0.3245 0.3204
3208.000000 0.3164 0.3123 0.3083 0.3041 0.2999
3213.000000 0.2957 0.2916 0.2874 0.2832 0.2768
3218.000000 0.2705 0.2618 0.2532 0.2458 0.2384
3223.000000 0.2296 0.2208 0.2124 0.2040 0.1984
3228.000000 0.1929 0.1875 0.1820 0.1768 0.1717
3233.000000 0.1668 0.1620 0.1583 0.1546 0.1525
3238.000000 0.1505 0.1496 0.1487 0.1481 0.1498
3243.000000 0.1484 0.1492 0.1506 0.1521 0.1575
3248.000000 0.1629 0.1744 0.1860 0.1975 0.2091
3253.000000 0.2206 0.2322 0.2438 0.2554 0.2669
3258.000000 0.2784 0.2900 0.3016 0.3132 0.3248
3263.000000 0.3362 0.3479 0.3594 0.3709 0.3760
3268.000000 0.3812 0.3859 0.3909 0.3955 0.4000
3273.000000 0.4045 0.4090 0.4130 0.4171 0.4210
3278.000000 0.4250 0.4284 0.4319 0.4342 0.4366
3283.000000 0.4380 0.4394 0.4397 0.4397 0.4397
3288.000000 0.4397 0.4393 0.4389 0.4383 0.4377
3293.000000 0.4366 0.4355 0.4341 0.4328 0.4315
3298.000000 0.4302 0.4287 0.4272 0.4255 0.4238
3303.000000 0.4219 0.4201 0.4166 0.4131 0.4084
3308.000000 0.4037 0.4000 0.3966 0.3934 0.3905
3313.000000 0.3875 0.3845 0.3803 0.3762 0.3730
3318.000000 0.3700 0.3695 0.3690 0.3689 0.3688
3323.000000 0.3688 0.3659 0.3692 0.3696 0.3726
3328.000000 0.3756 0.3839 0.3922 0.3958 0.3994
3333.000000 0.4030 0.4068 0.4106 0.4144 0.4186
3338.000000 0.4229 0.4276 0.4323 0.4369 0.4415
3343.000000 0.4455 0.4495 0.4535 0.4575 0.4619
3348.000000 0.4664 0.4710 0.4759 0.4806 0.4854
3353.000000 0.4908 0.4962 0.5012 0.5062 0.5099
3358.000000 0.5136 0.5172 0.5209 0.5248 0.5287
3363.000000 0.5327 0.5368 0.5404 0.5440 0.5469
3368.000000 0.5498 0.5526 0.5555 0.5584 0.5612
3373.000000 0.5646 0.5680 0.5718 0.5756 0.5794
3378.000000 0.5833 0.5859 0.5886 0.5906 0.5926
3383.000000 0.5946 0.5966 0.5986 0.6006 0.6026
3388.000000 0.6046 0.6066 0.6086 0.6105 0.6124
3393.000000 0.6143 0.6162 0.6182 0.6201 0.6220
3398.000000 0.6240 0.6257 0.6275 0.6292 0.6310
3403.000000 0.6327 0.6344 0.6360 0.6379 0.6396
3408.000000 0.6414 0.6431 0.6448 0.6465 0.6485
3413.000000 0.6503 0.6521 0.6539 0.6558 0.6575
3418.000000 0.6595 0.6612 0.6631 0.6645 0.6660
3423.000000 0.6672 0.6687 0.6700 0.6714 0.6726
3428.000000 0.6740 0.6753 0.6767 0.6778 0.6790
3433.000000 0.6796 0.6803 0.6808 0.6815 0.6821
3438.000000 0.6828 0.6833 0.6837 0.6839 0.6842
3443.000000 0.6843 0.6844 0.6843 0.6843 0.6842
3448.000000 0.6841 0.6839 0.6857 0.6831 0.6825
3453.000000 0.6821 0.6815 0.6811 0.6806 0.6801
3458.000000 0.6797 0.6792 0.6787 0.6782 0.6776
3463.000000 0.6771 0.6768 0.6762 0.6758 0.6753
3468.000000 0.6749 0.6744 0.6740 0.6735 0.6730
3473.000000 0.6725 0.6721 0.6715 0.6711 0.6706
3478.000000 0.6701 0.6697 0.6693 0.6688 0.6684
3483.000000 0.6680 0.6675 0.6671 0.6667 0.6662
3488.000000 0.6658 0.6654 0.6650 0.6645 0.6641
3493.000000 0.6634 0.6626 0.6618 0.6608 0.6600
3498.000000 0.6591 0.6581 0.6571 0.6555 0.6539
3503.000000 0.6522 0.6507 0.6491 0.6475 0.6448
3508.000000 0.6419 0.6388 0.6357 0.6327 0.6298
3513.000000 0.6234 0.6170 0.6060 0.5953 0.5844
3518.000000 0.5735 0.5626 0.5518 0.5409 0.5301
3523.000000 0.5192 0.5084 0.4975 0.4867 0.4758
3528.000000 0.4650 0.4541 0.4433 0.4389 0.4345
3533.000000 0.4309 0.4273 0.4243 0.4212 0.4190
3538.000000 0.4168 0.4162 0.4164 0.4164 0.4136
3543.000000 0.4314 0.4458 0.4642 0.4827 0.5010
3548.000000 0.5195 0.5379 0.5564 0.5748 0.5932
3553.000000 0.5974 0.6017 0.6016 0.6016 0.6012
3558.000000 0.6027 0.6002 0.5996 0.5944 0.5892
3563.000000 0.5762 0.5632 0.5502 0.5372 0.5242
3568.000000 0.5112 0.4982 0.4852 0.4722 0.4592
3573.000000 0.4462 0.4332 0.4202 0.4072 0.3942
3578.000000 0.3812 0.3682 0.3552 0.3443 0.3334
3583.000000 0.3243 0.3152 0.3113 0.3075 0.3055
3588.000000 0.3034 0.3021 0.3008 0.3004 0.2996
3593.000000 0.3019 0.3038 0.3131 0.3225 0.3386
3598.000000 0.3547 0.3708 0.3868 0.4029 0.4190
3603.000000 0.4351 0.4512 0.4673 0.4834 0.4995
3608.000000 0.5156 0.5317 0.5478 0.5639 0.5800
3613.000000 0.5941 0.6083 0.6401 0.6721 0.6822
3618.000000 0.6925 0.6998 0.7071 0.7130 0.7190
3623.000000 0.7243 0.7296 0.7338 0.7380 0.7407
3628.000000 0.7434 0.7458 0.7483 0.7499 0.7515
3633.000000 0.7532 0.7549 0.7565 0.7583 0.7599
3638.000000 0.7615 0.7633 0.7651 0.7668 0.7686
3643.000000 0.7703 0.7721 0.7738 0.7756 0.7772
3648.000000 0.7791 0.7811 0.7832 0.7855 0.7878
3653.000000 0.7901 0.7925 0.7941 0.7956 0.7969
3658.000000 0.7985 0.7999 0.8014 0.8021 0.8028
3663.000000 0.8034 0.8040 0.8045 0.8035 0.8051
3668.000000 0.8053 0.8054 0.8055 0.8055 0.8056
3673.000000 0.8056 0.8056 0.8055 0.8055 0.8054
3678.000000 0.8054 0.8053 0.8053 0.8051 0.8049
3683.000000 0.8047 0.8046 0.8044 0.8042 0.8040
3688.000000 0.8038 0.8036 0.8034 0.8031 0.8028
3693.000000 0.8025 0.8022 0.8019 0.8017 0.8014
3698.000000 0.8011 0.8008 0.8006 0.8003 0.8001
3703.000000 0.7998 0.7995 0.7992 0.7989 0.7986
3708.000000 0.7983 0.7980 0.7976 0.7974 0.7971
3713.000000 0.7967 0.7964 0.7961 0.7958 0.7955
3718.000000 0.7953 0.7950 0.7948 0.7945 0.7943
3723.000000 0.7940 0.7937 0.7934 0.7932 0.7928
3728.000000 0.7926 0.7924 0.7921 0.7918 0.7917
3733.000000 0.7914 0.7911 0.7908 0.7906 0.7903
3738.000000 0.7901 0.7898 0.7895 0.7892 0.7890
3743.000000 0.7887 0.7884 0.7881 0.7878 0.7875
3748.000000 0.7872 0.7869 0.7868 0.7865 0.7861
3753.000000 0.7858 0.7857 0.7854 0.7851 0.7848
3758.000000 0.7846 0.7843 0.7840 0.7837 0.7835
3763.000000 0.7832 0.7828 0.7825 0.7824 0.7821
3768.000000 0.7818 0.7815 0.7812 0.7808 0.7806
3773.000000 0.7801 0.7799 0.7795 0.7791 0.7787
3778.000000 0.7783 0.7778 0.7775 0.7771 0.7768
3783.000000 0.7764 0.7760 0.7757 0.7754 0.7751
3788.000000 0.7748 0.7745 0.7742 0.7739 0.7736
3793.000000 0.7732 0.7728 0.7725 0.7722 0.7719
3798.000000 0.7717 0.7714 0.7711
##END=
