##TITLE=Zinc, bis(2-benzothiazolethiolato)-
##JCAMP-DX=4.24
##DATA TYPE=INFRARED SPECTRUM
##CLASS=COBLENTZ III
##ORIGIN=WYANDOTTE CHEMICALS CORP.
##OWNER=Copyright (C) 1987 by the Coblentz Society
Collection (C) 2018 copyright by the U.S. Secretary of Commerce
on behalf of the United States of America. All rights reserved.
##DATE=Not specified, most likely prior to 1977
##MOLFORM=C14 H8 N2 S4 Zn
##SOURCE REFERENCE=COBLENTZ NO. 9816
##$NIST ID=B6009816
##$NIST SOURCE=COBLENTZ
##$NIST IMAGE=cob9816
##SPECTROMETER/DATA SYSTEM=BAIRD (PRISM)
##INSTRUMENT PARAMETERS=NaCl PRISM
##STATE=SOLID (OIL MULL)
$$SPECTRAL CONTAMINATION DUE TO OIL AROUND 2900, 1460 CM^-^1
##SAMPLING PROCEDURE=TRANSMISSION
##RESOLUTION=2
##DATA PROCESSING=DIGITIZED BY COBLENTZ SOCIETY (BATCH II) FROM HARD COPY
##XUNITS=1/CM
##YUNITS=TRANSMITTANCE
##XFACTOR=1.0
##YFACTOR=1
##FIRSTX=626
##LASTX=4000
##FIRSTY=0.5399
##MAXX=4000
##MINX=626
##MAXY=0.983
##MINY=0.0137
##NPOINTS=3375
##XYDATA=(X++(Y..Y))
626.000000 0.5399 0.5496 0.5585 0.5669 0.5729
631.000000 0.5801 0.5870 0.5935 0.6025 0.6116
636.000000 0.6209 0.6299 0.6392 0.6489 0.6572
641.000000 0.6648 0.6710 0.6748 0.6774 0.6794
646.000000 0.6841 0.6937 0.7081 0.7123 0.7135
651.000000 0.7170 0.7263 0.7306 0.7330 0.7344
656.000000 0.7359 0.7403 0.7438 0.7428 0.7350
661.000000 0.7237 0.7033 0.6674 0.6312 0.5931
666.000000 0.5882 0.6143 0.6576 0.7012 0.7537
671.000000 0.7995 0.8402 0.8600 0.8788 0.8944
676.000000 0.9057 0.9181 0.9195 0.9198 0.9231
681.000000 0.9294 0.9307 0.9304 0.9301 0.9289
686.000000 0.9289 0.9289 0.9290 0.9294 0.9314
691.000000 0.9333 0.9318 0.9292 0.9258 0.9204
696.000000 0.9130 0.9038 0.8908 0.8665 0.8313
701.000000 0.7802 0.7292 0.6709 0.6636 0.6652
706.000000 0.7422 0.7953 0.8484 0.8737 0.8839
711.000000 0.8851 0.8731 0.8615 0.8465 0.8253
716.000000 0.7884 0.7479 0.7127 0.6666 0.5788
721.000000 0.4606 0.3781 0.3711 0.3676 0.4018
726.000000 0.4792 0.5574 0.6355 0.6459 0.6429
731.000000 0.6402 0.6400 0.6482 0.6672 0.6856
736.000000 0.7114 0.7254 0.7259 0.7235 0.7184
741.000000 0.7095 0.6966 0.6817 0.6636 0.6360
746.000000 0.6056 0.5674 0.4745 0.3764 0.2784
751.000000 0.1456 0.0972 0.0645 0.0646 0.1033
756.000000 0.1581 0.2127 0.2563 0.2574 0.2111
761.000000 0.1614 0.1610 0.2398 0.3437 0.4473
766.000000 0.6771 0.7647 0.7913 0.8158 0.8374
771.000000 0.8779 0.8925 0.9018 0.9083 0.9140
776.000000 0.9196 0.9248 0.9296 0.9335 0.9374
781.000000 0.9416 0.9458 0.9501 0.9546 0.9599
786.000000 0.9634 0.9664 0.9687 0.9688 0.9690
791.000000 0.9693 0.9694 0.9672 0.9641 0.9603
796.000000 0.9567 0.9531 0.9498 0.9465 0.9467
801.000000 0.9476 0.9490 0.9506 0.9524 0.9546
806.000000 0.9567 0.9569 0.9562 0.9543 0.9520
811.000000 0.9491 0.9459 0.9467 0.9486 0.9530
816.000000 0.9565 0.9586 0.9611 0.9689 0.9775
821.000000 0.9806 0.9818 0.9819 0.9818 0.9817
826.000000 0.9830 0.9812 0.9809 0.9803 0.9797
831.000000 0.9788 0.9778 0.9762 0.9745 0.9733
836.000000 0.9722 0.9716 0.9697 0.9665 0.9629
841.000000 0.9589 0.9542 0.9480 0.9416 0.9268
846.000000 0.9053 0.8791 0.8756 0.8715 0.8929
851.000000 0.9040 0.9075 0.9058 0.9014 0.9011
856.000000 0.9093 0.9189 0.9224 0.9232 0.9238
861.000000 0.9269 0.9306 0.9294 0.9277 0.9229
866.000000 0.9169 0.9095 0.9008 0.8964 0.8942
871.000000 0.8993 0.9074 0.9167 0.9269 0.9367
876.000000 0.9424 0.9438 0.9445 0.9450 0.9448
881.000000 0.9452 0.9461 0.9487 0.9501 0.9485
886.000000 0.9465 0.9433 0.9408 0.9379 0.9380
891.000000 0.9389 0.9403 0.9415 0.9408 0.9393
896.000000 0.9374 0.9360 0.9346 0.9333 0.9321
901.000000 0.9312 0.9302 0.9301 0.9307 0.9333
906.000000 0.9331 0.9312 0.9285 0.9258 0.9224
911.000000 0.9191 0.9160 0.9128 0.9104 0.9082
916.000000 0.9070 0.9059 0.9045 0.9014 0.8969
921.000000 0.8906 0.8847 0.8789 0.8713 0.8619
926.000000 0.8476 0.8342 0.8210 0.7968 0.7885
931.000000 0.7859 0.7976 0.8054 0.8090 0.8127
936.000000 0.8052 0.7963 0.7917 0.7899 0.8033
941.000000 0.8212 0.8414 0.8552 0.8620 0.8673
946.000000 0.8695 0.8713 0.8726 0.8733 0.8725
951.000000 0.8720 0.8691 0.8655 0.8631 0.8618
956.000000 0.8587 0.8573 0.8560 0.8546 0.8511
961.000000 0.8463 0.8402 0.8331 0.8259 0.8233
966.000000 0.8231 0.8229 0.8219 0.8189 0.8149
971.000000 0.8106 0.8056 0.8004 0.7948 0.7887
976.000000 0.7824 0.7740 0.7653 0.7598 0.7627
981.000000 0.7691 0.7763 0.7799 0.7803 0.7786
986.000000 0.7764 0.7722 0.7673 0.7629 0.7575
991.000000 0.7485 0.7333 0.7127 0.6951 0.6849
996.000000 0.6722 0.6621 0.6565 0.6509 0.6461
1001.000000 0.6414 0.6329 0.6226 0.5983 0.5629
1006.000000 0.5276 0.4979 0.4834 0.4711 0.4390
1011.000000 0.4129 0.3833 0.3449 0.3006 0.2254
1016.000000 0.1906 0.1669 0.1453 0.1241 0.1174
1021.000000 0.1178 0.1666 0.2419 0.3141 0.3287
1026.000000 0.3284 0.3156 0.2544 0.1899 0.1256
1031.000000 0.0773 0.0432 0.0418 0.0417 0.0650
1036.000000 0.0974 0.1627 0.2293 0.2958 0.3622
1041.000000 0.4283 0.5375 0.6236 0.6717 0.6929
1046.000000 0.7094 0.7221 0.7346 0.7451 0.7539
1051.000000 0.7619 0.7681 0.7708 0.7729 0.7778
1056.000000 0.7809 0.7809 0.7805 0.7837 0.7788
1061.000000 0.7776 0.7765 0.7754 0.7739 0.7709
1066.000000 0.7666 0.7639 0.7634 0.7617 0.7549
1071.000000 0.7439 0.7323 0.7183 0.7005 0.6600
1076.000000 0.6158 0.5777 0.5396 0.5016 0.4736
1081.000000 0.4611 0.4581 0.4563 0.4537 0.4188
1086.000000 0.3744 0.3301 0.2859 0.2418 0.1978
1091.000000 0.1771 0.1781 0.1940 0.2566 0.3225
1096.000000 0.3883 0.4540 0.5195 0.5823 0.6036
1101.000000 0.6075 0.6101 0.6032 0.5811 0.5546
1106.000000 0.5281 0.5017 0.4777 0.4755 0.4738
1111.000000 0.5210 0.5636 0.6086 0.6536 0.6985
1116.000000 0.7129 0.7134 0.7146 0.7169 0.7206
1121.000000 0.7255 0.7311 0.7347 0.7363 0.7371
1126.000000 0.7366 0.7344 0.7296 0.7169 0.7077
1131.000000 0.7068 0.7090 0.7113 0.7109 0.7091
1136.000000 0.7000 0.6669 0.6351 0.6276 0.6249
1141.000000 0.6310 0.6509 0.6712 0.6916 0.7118
1146.000000 0.7292 0.7356 0.7388 0.7399 0.7403
1151.000000 0.7388 0.7238 0.6993 0.6751 0.6509
1156.000000 0.6268 0.6134 0.6142 0.6344 0.6533
1161.000000 0.6722 0.6755 0.6594 0.6435 0.6448
1166.000000 0.6729 0.7067 0.7372 0.7480 0.7490
1171.000000 0.7500 0.7543 0.7596 0.7609 0.7606
1176.000000 0.7623 0.7594 0.7589 0.7584 0.7578
1181.000000 0.7572 0.7566 0.7556 0.7546 0.7536
1186.000000 0.7528 0.7520 0.7522 0.7541 0.7573
1191.000000 0.7608 0.7613 0.7606 0.7594 0.7569
1196.000000 0.7536 0.7491 0.7448 0.7406 0.7363
1201.000000 0.7317 0.7271 0.7235 0.7204 0.7173
1206.000000 0.7140 0.7107 0.7086 0.7077 0.7078
1211.000000 0.7085 0.7095 0.7104 0.7112 0.7101
1216.000000 0.7078 0.7049 0.7021 0.6992 0.6965
1221.000000 0.6938 0.6910 0.6883 0.6854 0.6819
1226.000000 0.6775 0.6725 0.6664 0.6603 0.6553
1231.000000 0.6526 0.6507 0.6472 0.6430 0.6376
1236.000000 0.6308 0.6227 0.6138 0.6046 0.5949
1241.000000 0.5822 0.5479 0.4454 0.3447 0.2441
1246.000000 0.2216 0.2213 0.2221 0.2645 0.3208
1251.000000 0.3769 0.4329 0.4888 0.5199 0.5301
1256.000000 0.6015 0.6189 0.6348 0.6520 0.6719
1261.000000 0.6887 0.6974 0.7047 0.7085 0.7119
1266.000000 0.7133 0.7105 0.7123 0.7083 0.7017
1271.000000 0.6954 0.6889 0.6808 0.6690 0.6535
1276.000000 0.6317 0.6041 0.5763 0.5513 0.5502
1281.000000 0.5506 0.5517 0.5513 0.5556 0.5600
1286.000000 0.5676 0.5871 0.6066 0.6262 0.6458
1291.000000 0.6652 0.6847 0.7024 0.7120 0.7170
1296.000000 0.7204 0.7208 0.7210 0.7233 0.7201
1301.000000 0.7187 0.7148 0.7099 0.7042 0.6970
1306.000000 0.6907 0.6825 0.6732 0.6639 0.6532
1311.000000 0.6392 0.6166 0.5602 0.4935 0.4416
1316.000000 0.4280 0.4220 0.4164 0.4140 0.4128
1321.000000 0.4144 0.4157 0.4182 0.4221 0.4371
1326.000000 0.4668 0.4966 0.5263 0.5560 0.5855
1331.000000 0.6151 0.6336 0.6407 0.6433 0.6432
1336.000000 0.6424 0.6425 0.6359 0.6302 0.6245
1341.000000 0.6180 0.6130 0.6085 0.6044 0.6003
1346.000000 0.5954 0.5899 0.5841 0.5772 0.5697
1351.000000 0.5588 0.5439 0.5092 0.4671 0.4251
1356.000000 0.3831 0.3320 0.3042 0.2609 0.2156
1361.000000 0.1585 0.1373 0.1252 0.1131 0.0994
1366.000000 0.0843 0.0626 0.0397 0.0291 0.0234
1371.000000 0.0215 0.0198 0.0175 0.0200 0.0219
1376.000000 0.0353 0.0689 0.1025 0.1359 0.1694
1381.000000 0.2028 0.2361 0.2694 0.3026 0.3358
1386.000000 0.3690 0.4020 0.4351 0.4684 0.5046
1391.000000 0.5496 0.5809 0.6145 0.6433 0.6563
1396.000000 0.6656 0.6700 0.6745 0.6798 0.6788
1401.000000 0.6800 0.6805 0.6806 0.6801 0.6797
1406.000000 0.6793 0.6789 0.6781 0.6773 0.6765
1411.000000 0.6756 0.6740 0.6718 0.6688 0.6657
1416.000000 0.6627 0.6597 0.6560 0.6495 0.6396
1421.000000 0.6286 0.6206 0.6095 0.5911 0.5710
1426.000000 0.5555 0.5457 0.5329 0.5083 0.4821
1431.000000 0.4561 0.4324 0.4255 0.4259 0.4264
1436.000000 0.4285 0.4382 0.4580 0.4778 0.4976
1441.000000 0.5164 0.5216 0.5208 0.5192 0.5130
1446.000000 0.5008 0.4867 0.4692 0.4414 0.4096
1451.000000 0.3779 0.3462 0.3146 0.2620 0.2190
1456.000000 0.1851 0.1538 0.1391 0.1322 0.1299
1461.000000 0.1299 0.1304 0.1319 0.1351 0.1398
1466.000000 0.1471 0.1562 0.1655 0.1754 0.1913
1471.000000 0.2119 0.2316 0.2487 0.2671 0.2933
1476.000000 0.3200 0.3466 0.3731 0.3997 0.4262
1481.000000 0.4517 0.4805 0.4935 0.5096 0.5374
1486.000000 0.5628 0.5790 0.5931 0.6064 0.6176
1491.000000 0.6283 0.6368 0.6423 0.6459 0.6466
1496.000000 0.6504 0.6441 0.6314 0.6211 0.6094
1501.000000 0.5965 0.5878 0.5784 0.5713 0.5663
1506.000000 0.5638 0.5642 0.5652 0.5632 0.5801
1511.000000 0.5974 0.6148 0.6321 0.6495 0.6668
1516.000000 0.6841 0.7015 0.7188 0.7352 0.7468
1521.000000 0.7614 0.7887 0.8076 0.8099 0.8117
1526.000000 0.8139 0.8123 0.8118 0.8112 0.8106
1531.000000 0.8104 0.8103 0.8102 0.8102 0.8105
1536.000000 0.8112 0.8120 0.8129 0.8137 0.8145
1541.000000 0.8154 0.8162 0.8171 0.8173 0.8171
1546.000000 0.8170 0.8168 0.8160 0.8152 0.8143
1551.000000 0.8132 0.8107 0.8084 0.8065 0.8052
1556.000000 0.8050 0.8049 0.8048 0.8048 0.8047
1561.000000 0.8045 0.8044 0.8041 0.8040 0.8034
1566.000000 0.7950 0.7807 0.7665 0.7523 0.7381
1571.000000 0.7240 0.7098 0.6981 0.6912 0.6807
1576.000000 0.6723 0.6684 0.6670 0.6664 0.6663
1581.000000 0.6660 0.6737 0.6902 0.7093 0.7284
1586.000000 0.7467 0.7522 0.7523 0.7516 0.7524
1591.000000 0.7421 0.7366 0.7311 0.7256 0.7201
1596.000000 0.7146 0.7092 0.7037 0.6982 0.6941
1601.000000 0.6915 0.6893 0.6873 0.6859 0.6849
1606.000000 0.6840 0.6835 0.6834 0.6834 0.6848
1611.000000 0.6858 0.6993 0.7191 0.7381 0.7458
1616.000000 0.7509 0.7513 0.7518 0.7508 0.7504
1621.000000 0.7493 0.7480 0.7464 0.7449 0.7435
1626.000000 0.7422 0.7410 0.7404 0.7404 0.7415
1631.000000 0.7426 0.7444 0.7462 0.7479 0.7494
1636.000000 0.7504 0.7507 0.7509 0.7511 0.7508
1641.000000 0.7536 0.7487 0.7475 0.7461 0.7441
1646.000000 0.7422 0.7400 0.7372 0.7365 0.7359
1651.000000 0.7351 0.7343 0.7328 0.7287 0.7229
1656.000000 0.7168 0.7100 0.7033 0.6990 0.6948
1661.000000 0.6904 0.6879 0.6885 0.6882 0.6892
1666.000000 0.6904 0.6920 0.6942 0.6970 0.7001
1671.000000 0.7030 0.7055 0.7079 0.7101 0.7120
1676.000000 0.7138 0.7154 0.7167 0.7177 0.7187
1681.000000 0.7196 0.7201 0.7205 0.7206 0.7204
1686.000000 0.7202 0.7201 0.7199 0.7196 0.7194
1691.000000 0.7194 0.7195 0.7198 0.7203 0.7215
1696.000000 0.7239 0.7266 0.7291 0.7314 0.7337
1701.000000 0.7359 0.7376 0.7375 0.7375 0.7374
1706.000000 0.7371 0.7367 0.7362 0.7360 0.7375
1711.000000 0.7397 0.7422 0.7449 0.7476 0.7498
1716.000000 0.7514 0.7530 0.7545 0.7560 0.7568
1721.000000 0.7564 0.7555 0.7548 0.7549 0.7551
1726.000000 0.7553 0.7557 0.7564 0.7572 0.7582
1731.000000 0.7592 0.7597 0.7590 0.7575 0.7594
1736.000000 0.7550 0.7539 0.7528 0.7522 0.7523
1741.000000 0.7524 0.7524 0.7525 0.7526 0.7528
1746.000000 0.7531 0.7535 0.7539 0.7543 0.7547
1751.000000 0.7550 0.7554 0.7558 0.7562 0.7566
1756.000000 0.7568 0.7566 0.7562 0.7559 0.7555
1761.000000 0.7551 0.7545 0.7539 0.7527 0.7510
1766.000000 0.7491 0.7470 0.7441 0.7409 0.7372
1771.000000 0.7338 0.7314 0.7310 0.7308 0.7310
1776.000000 0.7317 0.7329 0.7341 0.7387 0.7430
1781.000000 0.7458 0.7463 0.7463 0.7462 0.7461
1786.000000 0.7460 0.7459 0.7458 0.7457 0.7457
1791.000000 0.7456 0.7456 0.7456 0.7456 0.7455
1796.000000 0.7454 0.7452 0.7449 0.7446 0.7442
1801.000000 0.7437 0.7432 0.7427 0.7422 0.7418
1806.000000 0.7415 0.7413 0.7409 0.7406 0.7404
1811.000000 0.7401 0.7399 0.7396 0.7393 0.7390
1816.000000 0.7387 0.7384 0.7381 0.7378 0.7375
1821.000000 0.7372 0.7371 0.7370 0.7369 0.7367
1826.000000 0.7367 0.7365 0.7364 0.7362 0.7361
1831.000000 0.7359 0.7358 0.7357 0.7357 0.7358
1836.000000 0.7358 0.7358 0.7358 0.7359 0.7358
1841.000000 0.7356 0.7355 0.7353 0.7352 0.7351
1846.000000 0.7350 0.7346 0.7340 0.7334 0.7329
1851.000000 0.7323 0.7316 0.7303 0.7280 0.7259
1856.000000 0.7243 0.7241 0.7239 0.7236 0.7234
1861.000000 0.7232 0.7229 0.7227 0.7225 0.7225
1866.000000 0.7225 0.7225 0.7224 0.7224 0.7224
1871.000000 0.7224 0.7224 0.7224 0.7224 0.7220
1876.000000 0.7214 0.7206 0.7198 0.7189 0.7181
1881.000000 0.7173 0.7165 0.7157 0.7148 0.7134
1886.000000 0.7119 0.7105 0.7091 0.7085 0.7084
1891.000000 0.7084 0.7085 0.7087 0.7090 0.7092
1896.000000 0.7095 0.7098 0.7100 0.7103 0.7105
1901.000000 0.7107 0.7109 0.7111 0.7112 0.7114
1906.000000 0.7114 0.7112 0.7110 0.7106 0.7101
1911.000000 0.7094 0.7089 0.7081 0.7068 0.7054
1916.000000 0.7040 0.7026 0.7012 0.6999 0.6986
1921.000000 0.6973 0.6960 0.6947 0.6934 0.6921
1926.000000 0.6908 0.6895 0.6882 0.6869 0.6856
1931.000000 0.6846 0.6840 0.6840 0.6840 0.6840
1936.000000 0.6840 0.6840 0.6841 0.6844 0.6850
1941.000000 0.6860 0.6868 0.6881 0.6899 0.6909
1946.000000 0.6915 0.6917 0.6918 0.6916 0.6913
1951.000000 0.6910 0.6907 0.6904 0.6901 0.6897
1956.000000 0.6893 0.6890 0.6886 0.6882 0.6879
1961.000000 0.6875 0.6872 0.6869 0.6866 0.6864
1966.000000 0.6861 0.6858 0.6856 0.6853 0.6851
1971.000000 0.6848 0.6845 0.6843 0.6841 0.6839
1976.000000 0.6837 0.6836 0.6834 0.6832 0.6831
1981.000000 0.6829 0.6828 0.6826 0.6825 0.6823
1986.000000 0.6821 0.6819 0.6818 0.6816 0.6814
1991.000000 0.6812 0.6811 0.6809 0.6807 0.6805
1996.000000 0.6803 0.6801 0.6799 0.6797 0.6796
2001.000000 0.6794 0.6791 0.6787 0.6784 0.6781
2006.000000 0.6777 0.6773 0.6770 0.6767 0.6763
2011.000000 0.6759 0.6756 0.6752 0.6742 0.6731
2016.000000 0.6719 0.6707 0.6695 0.6686 0.6681
2021.000000 0.6678 0.6675 0.6673 0.6670 0.6668
2026.000000 0.6665 0.6662 0.6659 0.6657 0.6655
2031.000000 0.6652 0.6650 0.6647 0.6644 0.6642
2036.000000 0.6639 0.6637 0.6634 0.6632 0.6629
2041.000000 0.6626 0.6624 0.6622 0.6621 0.6620
2046.000000 0.6619 0.6618 0.6617 0.6617 0.6616
2051.000000 0.6614 0.6614 0.6613 0.6612 0.6611
2056.000000 0.6610 0.6602 0.6594 0.6584 0.6575
2061.000000 0.6565 0.6549 0.6537 0.6536 0.6535
2066.000000 0.6534 0.6532 0.6531 0.6530 0.6529
2071.000000 0.6528 0.6526 0.6523 0.6521 0.6519
2076.000000 0.6516 0.6514 0.6512 0.6510 0.6507
2081.000000 0.6504 0.6502 0.6499 0.6497 0.6494
2086.000000 0.6490 0.6486 0.6482 0.6478 0.6472
2091.000000 0.6464 0.6454 0.6444 0.6434 0.6425
2096.000000 0.6418 0.6412 0.6407 0.6402 0.6398
2101.000000 0.6395 0.6392 0.6389 0.6386 0.6383
2106.000000 0.6380 0.6377 0.6373 0.6370 0.6367
2111.000000 0.6363 0.6359 0.6356 0.6351 0.6347
2116.000000 0.6343 0.6339 0.6335 0.6331 0.6326
2121.000000 0.6322 0.6318 0.6315 0.6311 0.6306
2126.000000 0.6302 0.6296 0.6289 0.6283 0.6276
2131.000000 0.6270 0.6264 0.6257 0.6251 0.6245
2136.000000 0.6238 0.6232 0.6225 0.6219 0.6213
2141.000000 0.6206 0.6199 0.6192 0.6184 0.6177
2146.000000 0.6169 0.6161 0.6153 0.6145 0.6138
2151.000000 0.6130 0.6122 0.6115 0.6107 0.6100
2156.000000 0.6093 0.6087 0.6083 0.6080 0.6077
2161.000000 0.6074 0.6071 0.6067 0.6064 0.6061
2166.000000 0.6059 0.6056 0.6052 0.6049 0.6046
2171.000000 0.6044 0.6042 0.6039 0.6037 0.6035
2176.000000 0.6033 0.6031 0.6029 0.6027 0.6025
2181.000000 0.6023 0.6020 0.6018 0.6016 0.6014
2186.000000 0.6012 0.6010 0.6007 0.6004 0.6001
2191.000000 0.5998 0.5995 0.5991 0.5988 0.5985
2196.000000 0.5982 0.5979 0.5976 0.5973 0.5970
2201.000000 0.5967 0.5963 0.5960 0.5957 0.5954
2206.000000 0.5952 0.5949 0.5946 0.5943 0.5940
2211.000000 0.5937 0.5934 0.5932 0.5929 0.5926
2216.000000 0.5923 0.5917 0.5911 0.5905 0.5899
2221.000000 0.5893 0.5888 0.5882 0.5876 0.5870
2226.000000 0.5865 0.5860 0.5855 0.5851 0.5846
2231.000000 0.5841 0.5836 0.5832 0.5827 0.5822
2236.000000 0.5817 0.5813 0.5808 0.5803 0.5798
2241.000000 0.5793 0.5788 0.5783 0.5778 0.5774
2246.000000 0.5769 0.5764 0.5759 0.5755 0.5750
2251.000000 0.5745 0.5740 0.5735 0.5731 0.5726
2256.000000 0.5721 0.5716 0.5711 0.5708 0.5706
2261.000000 0.5704 0.5702 0.5701 0.5699 0.5698
2266.000000 0.5696 0.5694 0.5692 0.5691 0.5689
2271.000000 0.5688 0.5686 0.5684 0.5683 0.5681
2276.000000 0.5679 0.5678 0.5678 0.5677 0.5677
2281.000000 0.5677 0.5677 0.5677 0.5677 0.5677
2286.000000 0.5676 0.5676 0.5675 0.5675 0.5673
2291.000000 0.5671 0.5670 0.5668 0.5666 0.5664
2296.000000 0.5662 0.5655 0.5649 0.5641 0.5634
2301.000000 0.5626 0.5618 0.5607 0.5597 0.5585
2306.000000 0.5574 0.5562 0.5550 0.5537 0.5522
2311.000000 0.5506 0.5488 0.5470 0.5451 0.5433
2316.000000 0.5417 0.5400 0.5384 0.5368 0.5357
2321.000000 0.5347 0.5341 0.5336 0.5331 0.5325
2326.000000 0.5320 0.5315 0.5310 0.5305 0.5300
2331.000000 0.5290 0.5279 0.5266 0.5251 0.5242
2336.000000 0.5235 0.5230 0.5228 0.5226 0.5223
2341.000000 0.5221 0.5219 0.5217 0.5214 0.5212
2346.000000 0.5212 0.5212 0.5212 0.5213 0.5214
2351.000000 0.5214 0.5215 0.5215 0.5215 0.5215
2356.000000 0.5215 0.5215 0.5215 0.5215 0.5215
2361.000000 0.5215 0.5215 0.5214 0.5214 0.5214
2366.000000 0.5214 0.5214 0.5214 0.5214 0.5215
2371.000000 0.5216 0.5218 0.5218 0.5219 0.5220
2376.000000 0.5221 0.5221 0.5219 0.5218 0.5216
2381.000000 0.5213 0.5211 0.5209 0.5207 0.5205
2386.000000 0.5203 0.5201 0.5199 0.5196 0.5193
2391.000000 0.5189 0.5185 0.5181 0.5178 0.5174
2396.000000 0.5170 0.5166 0.5162 0.5158 0.5154
2401.000000 0.5148 0.5143 0.5137 0.5132 0.5126
2406.000000 0.5120 0.5115 0.5109 0.5104 0.5098
2411.000000 0.5092 0.5086 0.5080 0.5074 0.5068
2416.000000 0.5062 0.5056 0.5049 0.5043 0.5037
2421.000000 0.5031 0.5025 0.5019 0.5014 0.5009
2426.000000 0.5004 0.4999 0.4994 0.4989 0.4984
2431.000000 0.4980 0.4975 0.4970 0.4965 0.4960
2436.000000 0.4955 0.4951 0.4946 0.4941 0.4940
2441.000000 0.4940 0.4939 0.4939 0.4938 0.4937
2446.000000 0.4937 0.4936 0.4936 0.4935 0.4935
2451.000000 0.4934 0.4933 0.4931 0.4930 0.4928
2456.000000 0.4927 0.4926 0.4924 0.4923 0.4921
2461.000000 0.4920 0.4918 0.4917 0.4914 0.4912
2466.000000 0.4908 0.4902 0.4896 0.4890 0.4885
2471.000000 0.4880 0.4876 0.4873 0.4869 0.4865
2476.000000 0.4861 0.4857 0.4854 0.4852 0.4850
2481.000000 0.4850 0.4850 0.4849 0.4849 0.4849
2486.000000 0.4849 0.4849 0.4848 0.4848 0.4848
2491.000000 0.4848 0.4848 0.4847 0.4847 0.4847
2496.000000 0.4846 0.4846 0.4845 0.4845 0.4845
2501.000000 0.4845 0.4845 0.4844 0.4844 0.4844
2506.000000 0.4842 0.4841 0.4839 0.4836 0.4833
2511.000000 0.4829 0.4826 0.4822 0.4819 0.4816
2516.000000 0.4812 0.4809 0.4804 0.4799 0.4793
2521.000000 0.4787 0.4780 0.4774 0.4767 0.4761
2526.000000 0.4755 0.4748 0.4741 0.4735 0.4729
2531.000000 0.4722 0.4715 0.4708 0.4701 0.4693
2536.000000 0.4686 0.4679 0.4672 0.4665 0.4657
2541.000000 0.4650 0.4643 0.4636 0.4632 0.4628
2546.000000 0.4625 0.4621 0.4618 0.4614 0.4611
2551.000000 0.4608 0.4604 0.4601 0.4597 0.4594
2556.000000 0.4590 0.4587 0.4583 0.4580 0.4577
2561.000000 0.4573 0.4570 0.4566 0.4563 0.4560
2566.000000 0.4557 0.4554 0.4550 0.4547 0.4544
2571.000000 0.4541 0.4538 0.4534 0.4531 0.4527
2576.000000 0.4524 0.4521 0.4518 0.4515 0.4511
2581.000000 0.4508 0.4505 0.4502 0.4499 0.4496
2586.000000 0.4492 0.4489 0.4485 0.4482 0.4480
2591.000000 0.4476 0.4473 0.4470 0.4466 0.4463
2596.000000 0.4460 0.4456 0.4452 0.4448 0.4444
2601.000000 0.4440 0.4436 0.4433 0.4429 0.4425
2606.000000 0.4421 0.4417 0.4413 0.4410 0.4406
2611.000000 0.4402 0.4398 0.4392 0.4385 0.4378
2616.000000 0.4369 0.4361 0.4352 0.4343 0.4334
2621.000000 0.4326 0.4317 0.4308 0.4299 0.4291
2626.000000 0.4282 0.4274 0.4265 0.4257 0.4248
2631.000000 0.4240 0.4231 0.4223 0.4214 0.4206
2636.000000 0.4198 0.4191 0.4183 0.4175 0.4167
2641.000000 0.4159 0.4151 0.4143 0.4135 0.4127
2646.000000 0.4120 0.4114 0.4108 0.4104 0.4101
2651.000000 0.4098 0.4094 0.4091 0.4087 0.4084
2656.000000 0.4081 0.4078 0.4074 0.4071 0.4067
2661.000000 0.4064 0.4061 0.4058 0.4056 0.4054
2666.000000 0.4052 0.4050 0.4049 0.4047 0.4045
2671.000000 0.4043 0.4042 0.4040 0.4038 0.4036
2676.000000 0.4035 0.4028 0.4012 0.3997 0.3983
2681.000000 0.3972 0.3960 0.3951 0.3942 0.3934
2686.000000 0.3926 0.3917 0.3909 0.3902 0.3896
2691.000000 0.3890 0.3886 0.3882 0.3878 0.3874
2696.000000 0.3870 0.3866 0.3862 0.3858 0.3855
2701.000000 0.3854 0.3853 0.3852 0.3852 0.3851
2706.000000 0.3850 0.3849 0.3848 0.3847 0.3847
2711.000000 0.3847 0.3847 0.3848 0.3848 0.3849
2716.000000 0.3850 0.3850 0.3851 0.3852 0.3852
2721.000000 0.3853 0.3854 0.3854 0.3855 0.3856
2726.000000 0.3857 0.3858 0.3858 0.3858 0.3859
2731.000000 0.3859 0.3859 0.3860 0.3860 0.3860
2736.000000 0.3860 0.3860 0.3860 0.3859 0.3858
2741.000000 0.3858 0.3856 0.3855 0.3853 0.3851
2746.000000 0.3850 0.3848 0.3846 0.3845 0.3843
2751.000000 0.3841 0.3840 0.3838 0.3835 0.3830
2756.000000 0.3826 0.3821 0.3816 0.3811 0.3805
2761.000000 0.3799 0.3794 0.3787 0.3780 0.3772
2766.000000 0.3764 0.3754 0.3745 0.3735 0.3726
2771.000000 0.3717 0.3707 0.3697 0.3686 0.3675
2776.000000 0.3665 0.3654 0.3643 0.3632 0.3621
2781.000000 0.3610 0.3597 0.3584 0.3571 0.3556
2786.000000 0.3541 0.3527 0.3511 0.3496 0.3481
2791.000000 0.3466 0.3452 0.3437 0.3421 0.3404
2796.000000 0.3387 0.3369 0.3352 0.3334 0.3316
2801.000000 0.3298 0.3279 0.3255 0.3217 0.3178
2806.000000 0.3132 0.3045 0.2957 0.2869 0.2776
2811.000000 0.2683 0.2589 0.2496 0.2403 0.2310
2816.000000 0.2217 0.2123 0.2030 0.1937 0.1844
2821.000000 0.1752 0.1659 0.1566 0.1474 0.1381
2826.000000 0.1289 0.1196 0.1104 0.1013 0.0922
2831.000000 0.0831 0.0778 0.0737 0.0697 0.0663
2836.000000 0.0635 0.0607 0.0579 0.0552 0.0525
2841.000000 0.0499 0.0479 0.0460 0.0440 0.0422
2846.000000 0.0403 0.0385 0.0372 0.0362 0.0352
2851.000000 0.0345 0.0340 0.0335 0.0330 0.0327
2856.000000 0.0323 0.0320 0.0319 0.0318 0.0318
2861.000000 0.0317 0.0317 0.0316 0.0315 0.0314
2866.000000 0.0313 0.0312 0.0312 0.0311 0.0310
2871.000000 0.0309 0.0308 0.0307 0.0306 0.0305
2876.000000 0.0304 0.0302 0.0300 0.0299 0.0297
2881.000000 0.0293 0.0289 0.0285 0.0280 0.0276
2886.000000 0.0272 0.0268 0.0263 0.0257 0.0252
2891.000000 0.0246 0.0238 0.0231 0.0224 0.0217
2896.000000 0.0210 0.0204 0.0198 0.0193 0.0188
2901.000000 0.0184 0.0180 0.0176 0.0172 0.0169
2906.000000 0.0165 0.0161 0.0158 0.0154 0.0151
2911.000000 0.0149 0.0148 0.0146 0.0145 0.0144
2916.000000 0.0144 0.0143 0.0142 0.0140 0.0139
2921.000000 0.0138 0.0138 0.0137 0.0137 0.0137
2926.000000 0.0137 0.0137 0.0138 0.0138 0.0138
2931.000000 0.0139 0.0139 0.0139 0.0139 0.0140
2936.000000 0.0140 0.0140 0.0141 0.0142 0.0142
2941.000000 0.0143 0.0145 0.0148 0.0150 0.0152
2946.000000 0.0155 0.0158 0.0160 0.0163 0.0165
2951.000000 0.0168 0.0172 0.0179 0.0185 0.0192
2956.000000 0.0199 0.0205 0.0212 0.0219 0.0228
2961.000000 0.0238 0.0247 0.0257 0.0267 0.0277
2966.000000 0.0288 0.0298 0.0308 0.0318 0.0339
2971.000000 0.0361 0.0383 0.0408 0.0439 0.0470
2976.000000 0.0502 0.0533 0.0564 0.0595 0.0630
2981.000000 0.0678 0.0726 0.0774 0.0828 0.0885
2986.000000 0.0941 0.0998 0.1058 0.1118 0.1178
2991.000000 0.1235 0.1289 0.1343 0.1398 0.1429
2996.000000 0.1461 0.1492 0.1517 0.1534 0.1550
3001.000000 0.1567 0.1582 0.1597 0.1612 0.1627
3006.000000 0.1640 0.1652 0.1665 0.1678 0.1691
3011.000000 0.1703 0.1716 0.1725 0.1735 0.1744
3016.000000 0.1752 0.1758 0.1764 0.1770 0.1776
3021.000000 0.1782 0.1788 0.1794 0.1797 0.1800
3026.000000 0.1803 0.1806 0.1808 0.1811 0.1813
3031.000000 0.1815 0.1817 0.1819 0.1822 0.1824
3036.000000 0.1826 0.1828 0.1830 0.1832 0.1835
3041.000000 0.1837 0.1839 0.1841 0.1843 0.1845
3046.000000 0.1847 0.1849 0.1851 0.1853 0.1855
3051.000000 0.1857 0.1859 0.1861 0.1863 0.1865
3056.000000 0.1867 0.1869 0.1871 0.1873 0.1875
3061.000000 0.1876 0.1878 0.1880 0.1882 0.1886
3066.000000 0.1889 0.1892 0.1897 0.1902 0.1908
3071.000000 0.1914 0.1920 0.1925 0.1931 0.1936
3076.000000 0.1945 0.1955 0.1964 0.1974 0.1986
3081.000000 0.1998 0.2010 0.2022 0.2034 0.2046
3086.000000 0.2058 0.2070 0.2082 0.2094 0.2106
3091.000000 0.2117 0.2129 0.2140 0.2152 0.2163
3096.000000 0.2173 0.2184 0.2194 0.2204 0.2213
3101.000000 0.2222 0.2231 0.2240 0.2249 0.2258
3106.000000 0.2268 0.2277 0.2287 0.2297 0.2306
3111.000000 0.2314 0.2323 0.2331 0.2337 0.2343
3116.000000 0.2349 0.2355 0.2361 0.2367 0.2373
3121.000000 0.2379 0.2384 0.2389 0.2394 0.2399
3126.000000 0.2402 0.2406 0.2409 0.2413 0.2416
3131.000000 0.2420 0.2424 0.2427 0.2430 0.2434
3136.000000 0.2437 0.2440 0.2443 0.2446 0.2449
3141.000000 0.2451 0.2453 0.2456 0.2458 0.2460
3146.000000 0.2462 0.2464 0.2465 0.2467 0.2468
3151.000000 0.2468 0.2469 0.2470 0.2471 0.2471
3156.000000 0.2472 0.2473 0.2474 0.2474 0.2475
3161.000000 0.2477 0.2480 0.2483 0.2487 0.2492
3166.000000 0.2499 0.2506 0.2513 0.2521 0.2527
3171.000000 0.2534 0.2541 0.2548 0.2555 0.2561
3176.000000 0.2568 0.2574 0.2580 0.2586 0.2592
3181.000000 0.2598 0.2604 0.2609 0.2615 0.2619
3186.000000 0.2623 0.2626 0.2630 0.2633 0.2636
3191.000000 0.2640 0.2643 0.2646 0.2649 0.2652
3196.000000 0.2656 0.2659 0.2662 0.2666 0.2669
3201.000000 0.2672 0.2676 0.2679 0.2682 0.2685
3206.000000 0.2687 0.2688 0.2689 0.2690 0.2691
3211.000000 0.2691 0.2692 0.2692 0.2693 0.2693
3216.000000 0.2693 0.2693 0.2694 0.2694 0.2694
3221.000000 0.2694 0.2694 0.2692 0.2690 0.2688
3226.000000 0.2686 0.2684 0.2682 0.2680 0.2677
3231.000000 0.2676 0.2674 0.2672 0.2670 0.2667
3236.000000 0.2665 0.2663 0.2660 0.2657 0.2654
3241.000000 0.2651 0.2648 0.2645 0.2642 0.2638
3246.000000 0.2635 0.2632 0.2628 0.2625 0.2622
3251.000000 0.2618 0.2615 0.2612 0.2608 0.2605
3256.000000 0.2602 0.2599 0.2596 0.2593 0.2590
3261.000000 0.2587 0.2584 0.2581 0.2578 0.2575
3266.000000 0.2572 0.2568 0.2565 0.2562 0.2559
3271.000000 0.2556 0.2553 0.2550 0.2547 0.2544
3276.000000 0.2541 0.2538 0.2535 0.2532 0.2529
3281.000000 0.2526 0.2523 0.2520 0.2517 0.2514
3286.000000 0.2511 0.2508 0.2504 0.2501 0.2498
3291.000000 0.2495 0.2492 0.2489 0.2486 0.2483
3296.000000 0.2481 0.2478 0.2476 0.2474 0.2471
3301.000000 0.2469 0.2467 0.2464 0.2462 0.2460
3306.000000 0.2458 0.2455 0.2453 0.2451 0.2448
3311.000000 0.2446 0.2444 0.2442 0.2439 0.2437
3316.000000 0.2435 0.2433 0.2431 0.2429 0.2427
3321.000000 0.2424 0.2422 0.2420 0.2418 0.2415
3326.000000 0.2413 0.2411 0.2409 0.2406 0.2405
3331.000000 0.2403 0.2401 0.2399 0.2397 0.2396
3336.000000 0.2394 0.2393 0.2391 0.2390 0.2388
3341.000000 0.2386 0.2385 0.2383 0.2382 0.2381
3346.000000 0.2379 0.2378 0.2377 0.2375 0.2373
3351.000000 0.2372 0.2370 0.2369 0.2368 0.2366
3356.000000 0.2365 0.2364 0.2362 0.2361 0.2360
3361.000000 0.2359 0.2358 0.2358 0.2357 0.2356
3366.000000 0.2356 0.2356 0.2355 0.2355 0.2354
3371.000000 0.2353 0.2353 0.2352 0.2351 0.2351
3376.000000 0.2351 0.2350 0.2350 0.2349 0.2348
3381.000000 0.2348 0.2347 0.2346 0.2346 0.2346
3386.000000 0.2345 0.2345 0.2344 0.2344 0.2343
3391.000000 0.2342 0.2342 0.2341 0.2341 0.2340
3396.000000 0.2340 0.2339 0.2339 0.2338 0.2337
3401.000000 0.2337 0.2336 0.2335 0.2335 0.2334
3406.000000 0.2333 0.2333 0.2333 0.2332 0.2332
3411.000000 0.2331 0.2331 0.2330 0.2330 0.2330
3416.000000 0.2329 0.2329 0.2328 0.2328 0.2327
3421.000000 0.2327 0.2327 0.2326 0.2326 0.2325
3426.000000 0.2325 0.2325 0.2324 0.2324 0.2322
3431.000000 0.2321 0.2319 0.2317 0.2316 0.2314
3436.000000 0.2312 0.2311 0.2309 0.2307 0.2305
3441.000000 0.2304 0.2302 0.2300 0.2299 0.2297
3446.000000 0.2295 0.2294 0.2292 0.2290 0.2289
3451.000000 0.2287 0.2286 0.2285 0.2283 0.2282
3456.000000 0.2281 0.2280 0.2279 0.2278 0.2277
3461.000000 0.2276 0.2275 0.2274 0.2273 0.2272
3466.000000 0.2271 0.2270 0.2269 0.2268 0.2267
3471.000000 0.2266 0.2265 0.2264 0.2264 0.2264
3476.000000 0.2264 0.2264 0.2263 0.2263 0.2262
3481.000000 0.2262 0.2261 0.2261 0.2261 0.2261
3486.000000 0.2261 0.2260 0.2260 0.2260 0.2260
3491.000000 0.2260 0.2259 0.2259 0.2259 0.2259
3496.000000 0.2259 0.2258 0.2258 0.2258 0.2258
3501.000000 0.2258 0.2257 0.2257 0.2257 0.2257
3506.000000 0.2257 0.2255 0.2252 0.2250 0.2248
3511.000000 0.2245 0.2242 0.2239 0.2236 0.2233
3516.000000 0.2230 0.2226 0.2222 0.2218 0.2214
3521.000000 0.2210 0.2206 0.2201 0.2197 0.2192
3526.000000 0.2188 0.2183 0.2179 0.2175 0.2170
3531.000000 0.2166 0.2162 0.2157 0.2153 0.2149
3536.000000 0.2145 0.2141 0.2137 0.2133 0.2129
3541.000000 0.2125 0.2122 0.2120 0.2117 0.2114
3546.000000 0.2112 0.2109 0.2107 0.2104 0.2101
3551.000000 0.2099 0.2096 0.2094 0.2092 0.2089
3556.000000 0.2087 0.2084 0.2082 0.2079 0.2077
3561.000000 0.2074 0.2073 0.2072 0.2071 0.2070
3566.000000 0.2069 0.2069 0.2069 0.2069 0.2069
3571.000000 0.2069 0.2069 0.2069 0.2069 0.2069
3576.000000 0.2069 0.2070 0.2070 0.2071 0.2072
3581.000000 0.2072 0.2073 0.2074 0.2074 0.2075
3586.000000 0.2076 0.2077 0.2077 0.2078 0.2079
3591.000000 0.2080 0.2081 0.2082 0.2082 0.2083
3596.000000 0.2084 0.2085 0.2086 0.2087 0.2088
3601.000000 0.2089 0.2090 0.2091 0.2092 0.2093
3606.000000 0.2094 0.2095 0.2096 0.2097 0.2098
3611.000000 0.2099 0.2100 0.2101 0.2101 0.2101
3616.000000 0.2102 0.2102 0.2103 0.2103 0.2103
3621.000000 0.2104 0.2104 0.2104 0.2105 0.2105
3626.000000 0.2105 0.2105 0.2105 0.2106 0.2106
3631.000000 0.2106 0.2107 0.2107 0.2108 0.2108
3636.000000 0.2108 0.2109 0.2109 0.2109 0.2109
3641.000000 0.2108 0.2107 0.2106 0.2106 0.2105
3646.000000 0.2103 0.2102 0.2101 0.2099 0.2098
3651.000000 0.2097 0.2096 0.2095 0.2094 0.2092
3656.000000 0.2091 0.2090 0.2089 0.2087 0.2086
3661.000000 0.2085 0.2084 0.2083 0.2081 0.2080
3666.000000 0.2079 0.2078 0.2076 0.2075 0.2074
3671.000000 0.2073 0.2071 0.2070 0.2069 0.2068
3676.000000 0.2067 0.2066 0.2065 0.2063 0.2062
3681.000000 0.2061 0.2059 0.2058 0.2057 0.2056
3686.000000 0.2055 0.2054 0.2054 0.2054 0.2054
3691.000000 0.2054 0.2054 0.2055 0.2055 0.2055
3696.000000 0.2055 0.2055 0.2055 0.2056 0.2056
3701.000000 0.2056 0.2056 0.2056 0.2057 0.2057
3706.000000 0.2057 0.2057 0.2057 0.2057 0.2058
3711.000000 0.2058 0.2058 0.2058 0.2058 0.2058
3716.000000 0.2058 0.2057 0.2057 0.2056 0.2056
3721.000000 0.2055 0.2055 0.2054 0.2053 0.2053
3726.000000 0.2052 0.2052 0.2051 0.2051 0.2050
3731.000000 0.2050 0.2049 0.2049 0.2048 0.2048
3736.000000 0.2047 0.2046 0.2046 0.2045 0.2044
3741.000000 0.2044 0.2043 0.2042 0.2040 0.2039
3746.000000 0.2038 0.2036 0.2035 0.2033 0.2031
3751.000000 0.2029 0.2027 0.2025 0.2023 0.2021
3756.000000 0.2020 0.2018 0.2016 0.2014 0.2012
3761.000000 0.2011 0.2009 0.2007 0.2005 0.2004
3766.000000 0.2002 0.2000 0.1998 0.1996 0.1994
3771.000000 0.1992 0.1990 0.1987 0.1985 0.1983
3776.000000 0.1980 0.1978 0.1976 0.1974 0.1972
3781.000000 0.1970 0.1968 0.1966 0.1963 0.1961
3786.000000 0.1959 0.1956 0.1954 0.1952 0.1950
3791.000000 0.1947 0.1945 0.1943 0.1941 0.1938
3796.000000 0.1936 0.1934 0.1932 0.1929 0.1927
3801.000000 0.1925 0.1923 0.1921 0.1919 0.1917
3806.000000 0.1914 0.1911 0.1909 0.1906 0.1903
3811.000000 0.1900 0.1898 0.1895 0.1892 0.1889
3816.000000 0.1886 0.1883 0.1880 0.1877 0.1874
3821.000000 0.1871 0.1868 0.1865 0.1863 0.1860
3826.000000 0.1857 0.1855 0.1852 0.1849 0.1846
3831.000000 0.1843 0.1840 0.1837 0.1835 0.1832
3836.000000 0.1829 0.1826 0.1823 0.1820 0.1817
3841.000000 0.1814 0.1811 0.1809 0.1806 0.1803
3846.000000 0.1800 0.1797 0.1794 0.1791 0.1788
3851.000000 0.1786 0.1783 0.1780 0.1777 0.1775
3856.000000 0.1772 0.1769 0.1767 0.1764 0.1761
3861.000000 0.1758 0.1755 0.1752 0.1749 0.1747
3866.000000 0.1744 0.1741 0.1738 0.1735 0.1732
3871.000000 0.1730 0.1727 0.1724 0.1722 0.1719
3876.000000 0.1716 0.1714 0.1711 0.1708 0.1705
3881.000000 0.1702 0.1699 0.1697 0.1694 0.1691
3886.000000 0.1688 0.1685 0.1683 0.1680 0.1677
3891.000000 0.1674 0.1671 0.1669 0.1666 0.1663
3896.000000 0.1660 0.1658 0.1655 0.1653 0.1650
3901.000000 0.1647 0.1644 0.1642 0.1639 0.1636
3906.000000 0.1633 0.1631 0.1629 0.1627 0.1625
3911.000000 0.1623 0.1621 0.1619 0.1618 0.1616
3916.000000 0.1614 0.1612 0.1610 0.1609 0.1607
3921.000000 0.1605 0.1604 0.1602 0.1601 0.1599
3926.000000 0.1597 0.1595 0.1594 0.1592 0.1590
3931.000000 0.1588 0.1586 0.1585 0.1583 0.1581
3936.000000 0.1579 0.1578 0.1576 0.1574 0.1573
3941.000000 0.1571 0.1569 0.1568 0.1566 0.1564
3946.000000 0.1563 0.1561 0.1559 0.1557 0.1556
3951.000000 0.1554 0.1552 0.1550 0.1548 0.1547
3956.000000 0.1545 0.1543 0.1542 0.1540 0.1539
3961.000000 0.1537 0.1535 0.1535 0.1535 0.1535
3966.000000 0.1534 0.1534 0.1534 0.1533 0.1533
3971.000000 0.1533 0.1532 0.1532 0.1532 0.1531
3976.000000 0.1531 0.1531 0.1530 0.1530 0.1530
3981.000000 0.1529 0.1529 0.1529 0.1529 0.1528
3986.000000 0.1528 0.1528 0.1527 0.1527 0.1527
3991.000000 0.1526 0.1526 0.1526 0.1525 0.1525
3996.000000 0.1524 0.1524 0.1523 0.1523 0.1523
##END=
