##TITLE=SODIUM TRIPOLYPHOSPHATE, HEXAHYDRATE
##JCAMP-DX=4.24
##DATA TYPE=INFRARED SPECTRUM
##CLASS=COBLENTZ
##ORIGIN=PROCTER AND GAMBLE CO.
##OWNER=COBLENTZ SOCIETY
Collection (C) 2018 copyright by the U.S. Secretary of Commerce
on behalf of the United States of America. All rights reserved.
##DATE=Not specified, most likely prior to 1970
##MOLFORM=Na5 P3 O10  * 6 H2 O
##SOURCE REFERENCE=COBLENTZ NO. 2078
##$NIST ID=B6002078
##$NIST SOURCE=COBLENTZ
##$NIST IMAGE=cob2078
##SPECTROMETER/DATA SYSTEM=PERKIN-ELMER
##STATE=SOLID (1.46 mg / 400 mg KBr PELLET)
##SAMPLING PROCEDURE=TRANSMISSION
##RESOLUTION=4
##DATA PROCESSING=DIGITIZED BY NIST FROM HARD COPY (FROM TWO SEGMENTS)
##XUNITS=1/CM
##YUNITS=TRANSMITTANCE
##XFACTOR=1.000000
##YFACTOR=1
##DELTAX=1.126974
##FIRSTX=474.08
##LASTX=3999.26
##FIRSTY=0.575
##MAXX=3999.26
##MINX=474.08
##MAXY=0.965
##MINY=0.098
##NPOINTS=3129
##XYDATA=(X++(Y..Y))
474.080000 0.5750 0.5750 0.5730 0.5730 0.5730
479.714872 0.5730 0.5730 0.5730 0.5730 0.5730
485.349743 0.5730 0.5730 0.5730 0.5730 0.5730
490.984615 0.5730 0.5730 0.5730 0.5730 0.5730
496.619486 0.5710 0.5710 0.5710 0.5710 0.5730
502.254358 0.5730 0.5730 0.5730 0.5730 0.5730
507.889229 0.5730 0.5730 0.5730 0.5710 0.5710
513.524101 0.5710 0.5710 0.5710 0.5710 0.5710
519.158973 0.5710 0.5710 0.5710 0.5710 0.5710
524.793844 0.5690 0.5690 0.5690 0.5690 0.5680
530.428716 0.5680 0.5680 0.5680 0.5680 0.5640
536.063587 0.5630 0.5580 0.5461 0.5291 0.5220
541.698459 0.5110 0.5060 0.5030 0.5030 0.5030
547.333330 0.5030 0.5030 0.5060 0.5080 0.5150
552.968202 0.5250 0.5250 0.5250 0.5230 0.5001
558.603074 0.4811 0.4671 0.4551 0.4431 0.4301
564.237945 0.4300 0.4330 0.4410 0.4530 0.4620
569.872817 0.4740 0.4790 0.4810 0.4820 0.4820
575.507688 0.4840 0.4840 0.4880 0.4940 0.5060
581.142560 0.5180 0.5349 0.5509 0.5590 0.5709
586.777431 0.5850 0.5980 0.6140 0.6260 0.6380
592.412303 0.6450 0.6460 0.6500 0.6510 0.6510
598.047174 0.6500 0.6390 0.6340 0.6210 0.6070
603.682046 0.5970 0.5851 0.5760 0.5690 0.5660
609.316918 0.5640 0.5640 0.5590 0.5490 0.5370
614.951789 0.5290 0.5170 0.5060 0.5030 0.5030
620.586661 0.5080 0.5290 0.5510 0.5810 0.5970
626.221532 0.6269 0.6559 0.6719 0.6889 0.7109
631.856404 0.7320 0.7490 0.7610 0.7690 0.7760
637.491275 0.7790 0.7840 0.7900 0.7930 0.7960
643.126147 0.7980 0.7980 0.8030 0.8050 0.8050
648.761019 0.8050 0.8050 0.8020 0.7960 0.7910
654.395890 0.7810 0.7760 0.7660 0.7550 0.7470
660.030762 0.7380 0.7320 0.7230 0.7210 0.7200
665.665633 0.7180 0.7180 0.7200 0.7230 0.7260
671.300505 0.7300 0.7330 0.7370 0.7420 0.7490
676.935376 0.7520 0.7570 0.7610 0.7620 0.7670
682.570248 0.7690 0.7730 0.7730 0.7740 0.7740
688.205120 0.7740 0.7740 0.7730 0.7710 0.7640
693.839991 0.7590 0.7540 0.7440 0.7370 0.7251
699.474863 0.7130 0.6990 0.6870 0.6750 0.6670
705.109734 0.6600 0.6510 0.6430 0.6340 0.6270
710.744606 0.6260 0.6220 0.6170 0.6140 0.6100
716.379477 0.6090 0.6090 0.6100 0.6140 0.6170
722.014349 0.6190 0.6240 0.6290 0.6310 0.6360
727.649221 0.6450 0.6480 0.6510 0.6580 0.6630
733.284092 0.6700 0.6770 0.6800 0.6910 0.7010
738.918964 0.7150 0.7319 0.7469 0.7619 0.7789
744.553835 0.7930 0.8030 0.8130 0.8240 0.8310
750.188707 0.8320 0.8390 0.8430 0.8430 0.8430
755.823578 0.8440 0.8430 0.8410 0.8370 0.8340
761.458450 0.8310 0.8250 0.8220 0.8170 0.8170
767.093322 0.8120 0.8030 0.8020 0.8020 0.8020
772.728193 0.8030 0.8070 0.8120 0.8170 0.8220
778.363065 0.8270 0.8320 0.8360 0.8410 0.8490
783.997936 0.8560 0.8630 0.8680 0.8700 0.8700
789.632808 0.8720 0.8750 0.8780 0.8800 0.8820
795.267679 0.8820 0.8820 0.8820 0.8820 0.8820
800.902551 0.8820 0.8820 0.8820 0.8820 0.8830
806.537422 0.8830 0.8830 0.8850 0.8870 0.8870
812.172294 0.8890 0.8890 0.8900 0.8900 0.8900
817.807166 0.8900 0.8920 0.8920 0.8920 0.8920
823.442037 0.8920 0.8920 0.8920 0.8920 0.8920
829.076909 0.8920 0.8920 0.8920 0.8920 0.8900
834.711780 0.8890 0.8800 0.8750 0.8720 0.8660
840.346652 0.8600 0.8530 0.8480 0.8410 0.8360
845.981523 0.8270 0.8170 0.8070 0.7960 0.7840
851.616395 0.7710 0.7550 0.7401 0.7201 0.6971
857.251267 0.6790 0.6580 0.6340 0.6170 0.5950
862.886138 0.5691 0.5511 0.5271 0.5011 0.4791
868.521010 0.4530 0.4300 0.4020 0.3631 0.3480
874.155881 0.3310 0.3081 0.2881 0.2711 0.2591
879.790753 0.2500 0.2440 0.2380 0.2300 0.2250
885.425624 0.2230 0.2230 0.2230 0.2260 0.2280
891.060496 0.2350 0.2380 0.2450 0.2500 0.2570
896.695368 0.2710 0.2830 0.2950 0.3050 0.3169
902.330239 0.3290 0.3370 0.3480 0.3540 0.3600
907.965111 0.3770 0.3850 0.3940 0.4020 0.4159
913.599982 0.4350 0.4450 0.4650 0.4770 0.4880
919.234854 0.4980 0.5110 0.5229 0.5399 0.5559
924.869725 0.5680 0.5780 0.5850 0.5900 0.5970
930.504597 0.6070 0.6219 0.6330 0.6360 0.6459
936.139469 0.6530 0.6630 0.6740 0.6800 0.6840
941.774340 0.6870 0.6920 0.6960 0.6990 0.6990
947.409212 0.7010 0.7010 0.7010 0.6970 0.6920
953.044083 0.6870 0.6800 0.6740 0.6601 0.6431
958.678955 0.6360 0.6330 0.6330 0.6360 0.6550
964.313826 0.6680 0.6839 0.7009 0.7159 0.7369
969.948698 0.7470 0.7540 0.7740 0.7910 0.7950
975.583570 0.8000 0.8080 0.8150 0.8220 0.8290
981.218441 0.8290 0.8360 0.8430 0.8440 0.8460
986.853313 0.8480 0.8480 0.8490 0.8490 0.8510
992.488184 0.8530 0.8530 0.8540 0.8580 0.8610
998.123056 0.8680 0.8700 0.8700 0.8720 0.8730
1003.757927 0.8730 0.8730 0.8730 0.8720 0.8700
1009.392799 0.8660 0.8600 0.8580 0.8490 0.8391
1015.027671 0.8190 0.8150 0.8170 0.8250 0.8340
1020.662542 0.8490 0.8510 0.8510 0.8490 0.8490
1026.297414 0.8480 0.8460 0.8430 0.8390 0.8370
1031.932285 0.8360 0.8320 0.8310 0.8270 0.8220
1037.567157 0.8130 0.8080 0.8030 0.8020 0.7980
1043.202028 0.7930 0.7830 0.7760 0.7740 0.7641
1048.836900 0.7550 0.7470 0.7330 0.7180 0.7030
1054.471771 0.6870 0.6740 0.6650 0.6531 0.6341
1060.106643 0.6170 0.6020 0.5810 0.5630 0.5440
1065.741515 0.5250 0.5081 0.4911 0.4741 0.4571
1071.376386 0.4400 0.4230 0.4040 0.3870 0.3630
1077.011258 0.3510 0.3410 0.3241 0.3170 0.3170
1082.646129 0.3170 0.3170 0.3240 0.3270 0.3360
1088.281001 0.3430 0.3440 0.3440 0.3440 0.3430
1093.915872 0.3410 0.3360 0.3290 0.3150 0.3100
1099.550744 0.3100 0.3190 0.3489 0.3918 0.4089
1105.185616 0.4451 0.4840 0.5150 0.5470 0.5510
1110.820487 0.5510 0.5470 0.5321 0.5101 0.4861
1116.455359 0.4550 0.4140 0.3770 0.3510 0.2911
1122.090230 0.2451 0.2181 0.1941 0.1751 0.1700
1127.725102 0.1680 0.1670 0.1680 0.1750 0.1790
1133.359973 0.1840 0.1940 0.2059 0.2199 0.2299
1138.994845 0.2320 0.2320 0.2300 0.2180 0.2090
1144.629717 0.2030 0.1910 0.1770 0.1651 0.1501
1150.264588 0.1360 0.1220 0.1070 0.0980 0.0980
1155.899460 0.1000 0.1070 0.1209 0.1329 0.1579
1161.534331 0.1820 0.1990 0.2210 0.2370 0.2500
1167.169203 0.2640 0.2780 0.2949 0.3099 0.3269
1172.804074 0.3430 0.3580 0.3730 0.3920 0.4060
1178.438946 0.4190 0.4310 0.4450 0.4599 0.4700
1184.073818 0.4760 0.4810 0.4890 0.5000 0.5060
1189.708689 0.5130 0.5349 0.5420 0.5420 0.5400
1195.343561 0.5370 0.5300 0.5170 0.5000 0.4810
1200.978432 0.4181 0.3701 0.3461 0.3032 0.2622
1206.613304 0.2280 0.1990 0.1970 0.1990 0.2130
1212.248175 0.2230 0.2449 0.2659 0.2809 0.3098
1217.883047 0.3320 0.3490 0.3700 0.3890 0.4070
1223.517919 0.4230 0.4380 0.4530 0.4669 0.4789
1229.152790 0.4910 0.5030 0.5150 0.5270 0.5350
1234.787662 0.5460 0.5560 0.5610 0.5690 0.5760
1240.422533 0.5830 0.5900 0.5970 0.6000 0.6040
1246.057405 0.6100 0.6140 0.6170 0.6210 0.6260
1251.692276 0.6310 0.6390 0.6450 0.6480 0.6530
1257.327148 0.6580 0.6620 0.6680 0.6720 0.6750
1262.962019 0.6790 0.6800 0.6820 0.6870 0.6920
1268.596891 0.6960 0.6970 0.6990 0.7030 0.7060
1274.231763 0.7080 0.7090 0.7110 0.7180 0.7230
1279.866634 0.7260 0.7280 0.7300 0.7320 0.7330
1285.501506 0.7350 0.7370 0.7420 0.7440 0.7470
1291.136377 0.7500 0.7520 0.7540 0.7540 0.7550
1296.771249 0.7570 0.7570 0.7610 0.7620 0.7640
1302.406120 0.7670 0.7690 0.7710 0.7710 0.7730
1308.040992 0.7730 0.7740 0.7740 0.7760 0.7780
1313.675864 0.7790 0.7810 0.7830 0.7840 0.7860
1319.310735 0.7880 0.7880 0.7900 0.7910 0.7930
1324.945607 0.7930 0.7960 0.7960 0.7980 0.8020
1330.580478 0.8020 0.8030 0.8050 0.8050 0.8070
1336.215350 0.8070 0.8080 0.8100 0.8100 0.8120
1341.850221 0.8120 0.8130 0.8130 0.8130 0.8130
1347.485093 0.8170 0.8200 0.8220 0.8240 0.8240
1353.119965 0.8250 0.8270 0.8270 0.8290 0.8290
1358.754836 0.8310 0.8310 0.8310 0.8310 0.8320
1364.389708 0.8320 0.8320 0.8340 0.8340 0.8340
1370.024579 0.8340 0.8360 0.8360 0.8370 0.8370
1375.659451 0.8390 0.8390 0.8410 0.8410 0.8410
1381.294322 0.8410 0.8410 0.8430 0.8440 0.8440
1386.929194 0.8460 0.8480 0.8480 0.8480 0.8490
1392.564066 0.8490 0.8510 0.8510 0.8530 0.8530
1398.198937 0.8530 0.8530 0.8540 0.8560 0.8560
1403.833809 0.8560 0.8580 0.8580 0.8580 0.8580
1409.468680 0.8580 0.8580 0.8580 0.8580 0.8580
1415.103552 0.8580 0.8600 0.8580 0.8580 0.8580
1420.738423 0.8580 0.8580 0.8580 0.8580 0.8600
1426.373295 0.8600 0.8610 0.8610 0.8610 0.8630
1432.008167 0.8630 0.8630 0.8630 0.8630 0.8630
1437.643038 0.8610 0.8610 0.8600 0.8600 0.8600
1443.277910 0.8600 0.8600 0.8600 0.8600 0.8580
1448.912781 0.8580 0.8580 0.8560 0.8560 0.8560
1454.547653 0.8560 0.8560 0.8560 0.8560 0.8560
1460.182524 0.8560 0.8560 0.8530 0.8530 0.8530
1465.817396 0.8530 0.8530 0.8530 0.8530 0.8540
1471.452267 0.8560 0.8560 0.8600 0.8650 0.8650
1477.087139 0.8680 0.8720 0.8720 0.8720 0.8730
1482.722011 0.8730 0.8750 0.8750 0.8750 0.8750
1488.356882 0.8750 0.8750 0.8770 0.8770 0.8770
1493.991754 0.8780 0.8780 0.8780 0.8800 0.8800
1499.626625 0.8800 0.8820 0.8820 0.8820 0.8830
1505.261497 0.8830 0.8830 0.8850 0.8850 0.8850
1510.896368 0.8850 0.8870 0.8870 0.8870 0.8870
1516.531240 0.8890 0.8890 0.8890 0.8890 0.8890
1522.166112 0.8900 0.8920 0.8920 0.8920 0.8940
1527.800983 0.8940 0.8940 0.8940 0.8940 0.8940
1533.435855 0.8940 0.8940 0.8940 0.8940 0.8940
1539.070726 0.8940 0.8940 0.8940 0.8940 0.8940
1544.705598 0.8920 0.8920 0.8900 0.8900 0.8900
1550.340469 0.8890 0.8890 0.8890 0.8870 0.8870
1555.975341 0.8850 0.8830 0.8820 0.8820 0.8800
1561.610213 0.8780 0.8780 0.8780 0.8780 0.8780
1567.245084 0.8780 0.8780 0.8780 0.8780 0.8780
1572.879956 0.8780 0.8780 0.8780 0.8800 0.8800
1578.514827 0.8800 0.8800 0.8800 0.8800 0.8800
1584.149699 0.8780 0.8770 0.8770 0.8770 0.8770
1589.784570 0.8750 0.8750 0.8750 0.8730 0.8730
1595.419442 0.8730 0.8730 0.8730 0.8720 0.8720
1601.054314 0.8720 0.8720 0.8700 0.8700 0.8700
1606.689185 0.8700 0.8680 0.8680 0.8680 0.8680
1612.324057 0.8680 0.8660 0.8630 0.8610 0.8600
1617.958928 0.8580 0.8540 0.8530 0.8510 0.8480
1623.593800 0.8460 0.8430 0.8390 0.8360 0.8310
1629.228671 0.8290 0.8240 0.8220 0.8150 0.8070
1634.863543 0.7980 0.7930 0.7830 0.7710 0.7660
1640.498415 0.7590 0.7490 0.7380 0.7330 0.7300
1646.133286 0.7260 0.7160 0.6990 0.6940 0.6800
1651.768158 0.6790 0.6790 0.6860 0.6990 0.7040
1657.403029 0.7080 0.7110 0.7130 0.7150 0.7150
1663.037901 0.7130 0.7130 0.7090 0.7080 0.7080
1668.672772 0.7080 0.7060 0.7060 0.7040 0.6990
1674.307644 0.6970 0.6970 0.6960 0.6960 0.6960
1679.942515 0.6960 0.6970 0.6970 0.6970 0.6970
1685.577387 0.6990 0.6990 0.7030 0.7090 0.7110
1691.212259 0.7150 0.7160 0.7260 0.7380 0.7440
1696.847130 0.7550 0.7640 0.7690 0.7760 0.7840
1702.482002 0.7910 0.7980 0.8030 0.8100 0.8130
1708.116873 0.8200 0.8290 0.8340 0.8360 0.8430
1713.751745 0.8490 0.8530 0.8560 0.8580 0.8630
1719.386616 0.8650 0.8680 0.8700 0.8720 0.8730
1725.021488 0.8770 0.8770 0.8780 0.8800 0.8800
1730.656360 0.8820 0.8830 0.8850 0.8870 0.8890
1736.291231 0.8890 0.8900 0.8920 0.8920 0.8940
1741.926103 0.8950 0.8970 0.8990 0.8990 0.9020
1747.560974 0.9070 0.9090 0.9110 0.9120 0.9120
1753.195846 0.9140 0.9140 0.9160 0.9160 0.9190
1758.830717 0.9190 0.9230 0.9230 0.9230 0.9230
1764.465589 0.9230 0.9240 0.9240 0.9240 0.9240
1770.100461 0.9240 0.9240 0.9260 0.9260 0.9280
1775.735332 0.9280 0.9300 0.9310 0.9310 0.9310
1781.370204 0.9310 0.9310 0.9330 0.9330 0.9330
1787.005075 0.9350 0.9350 0.9360 0.9360 0.9380
1792.639947 0.9380 0.9380 0.9380 0.9380 0.9380
1798.274818 0.9400 0.9400 0.9400 0.9410 0.9410
1803.909690 0.9410 0.9410 0.9410 0.9410 0.9410
1809.544562 0.9410 0.9410 0.9410 0.9410 0.9410
1815.179433 0.9410 0.9410 0.9410 0.9410 0.9410
1820.814305 0.9410 0.9410 0.9430 0.9430 0.9430
1826.449176 0.9450 0.9450 0.9450 0.9450 0.9470
1832.084048 0.9470 0.9470 0.9470 0.9470 0.9470
1837.718919 0.9470 0.9470 0.9470 0.9480 0.9480
1843.353791 0.9480 0.9480 0.9480 0.9480 0.9480
1848.988663 0.9480 0.9480 0.9480 0.9480 0.9480
1854.623534 0.9480 0.9480 0.9480 0.9480 0.9480
1860.258406 0.9500 0.9500 0.9520 0.9520 0.9530
1865.893277 0.9530 0.9530 0.9530 0.9530 0.9520
1871.528149 0.9520 0.9530 0.9530 0.9530 0.9520
1877.163020 0.9520 0.9520 0.9520 0.9520 0.9530
1882.797892 0.9550 0.9550 0.9550 0.9550 0.9550
1888.432764 0.9550 0.9530 0.9530 0.9530 0.9530
1894.067635 0.9530 0.9530 0.9530 0.9530 0.9550
1899.702507 0.9550 0.9550 0.9550 0.9550 0.9550
1905.337378 0.9550 0.9550 0.9550 0.9550 0.9550
1910.972250 0.9550 0.9550 0.9550 0.9550 0.9550
1916.607121 0.9570 0.9590 0.9590 0.9590 0.9600
1922.241993 0.9600 0.9600 0.9600 0.9600 0.9600
1927.876864 0.9600 0.9600 0.9600 0.9600 0.9600
1933.511736 0.9600 0.9600 0.9600 0.9600 0.9600
1939.146608 0.9600 0.9600 0.9600 0.9600 0.9600
1944.781479 0.9600 0.9600 0.9600 0.9600 0.9600
1950.416351 0.9600 0.9600 0.9600 0.9600 0.9600
1956.051222 0.9620 0.9620 0.9620 0.9620 0.9620
1961.686094 0.9620 0.9600 0.9600 0.9600 0.9600
1967.320965 0.9590 0.9590 0.9590 0.9590 0.9590
1972.955837 0.9590 0.9590 0.9590 0.9570 0.9570
1978.590709 0.9570 0.9570 0.9590 0.9590 0.9570
1984.225580 0.9550 0.9550 0.9550 0.9550 0.9600
1989.860452 0.9600 0.9600 0.9590 0.9550 0.9550
1995.495323 0.9550 0.9550 0.9550 0.9530 0.9520
2001.130195 0.9520 0.9520 0.9520 0.9520 0.9520
2006.765066 0.9540 0.9560 0.9580 0.9600 0.9620
2012.399938 0.9628 0.9636 0.9642 0.9646 0.9650
2018.034810 0.9650 0.9650 0.9650 0.9650 0.9650
2023.669681 0.9650 0.9650 0.9650 0.9650 0.9650
2029.304553 0.9650 0.9650 0.9650 0.9650 0.9650
2034.939424 0.9650 0.9650 0.9650 0.9650 0.9650
2040.574296 0.9650 0.9650 0.9650 0.9650 0.9650
2046.209167 0.9650 0.9650 0.9650 0.9650 0.9650
2051.844039 0.9650 0.9650 0.9648 0.9644 0.9640
2057.478911 0.9640 0.9640 0.9640 0.9640 0.9640
2063.113782 0.9632 0.9624 0.9616 0.9608 0.9600
2068.748654 0.9600 0.9600 0.9598 0.9594 0.9590
2074.383525 0.9590 0.9590 0.9586 0.9578 0.9570
2080.018397 0.9554 0.9538 0.9530 0.9530 0.9530
2085.653268 0.9518 0.9506 0.9500 0.9500 0.9500
2091.288140 0.9492 0.9484 0.9478 0.9474 0.9470
2096.923012 0.9454 0.9438 0.9426 0.9418 0.9410
2102.557883 0.9406 0.9402 0.9400 0.9400 0.9400
2108.192755 0.9400 0.9400 0.9400 0.9400 0.9400
2113.827626 0.9404 0.9408 0.9410 0.9410 0.9410
2119.462498 0.9410 0.9410 0.9408 0.9404 0.9400
2125.097369 0.9400 0.9400 0.9400 0.9400 0.9400
2130.732241 0.9400 0.9400 0.9402 0.9406 0.9410
2136.367112 0.9410 0.9410 0.9410 0.9410 0.9410
2142.001984 0.9410 0.9410 0.9410 0.9410 0.9410
2147.636856 0.9410 0.9410 0.9410 0.9410 0.9410
2153.271727 0.9410 0.9410 0.9410 0.9410 0.9410
2158.906599 0.9410 0.9410 0.9410 0.9410 0.9410
2164.541470 0.9410 0.9410 0.9414 0.9422 0.9430
2170.176342 0.9430 0.9430 0.9430 0.9430 0.9430
2175.811213 0.9430 0.9430 0.9430 0.9430 0.9430
2181.446085 0.9430 0.9430 0.9430 0.9430 0.9430
2187.080957 0.9430 0.9430 0.9430 0.9430 0.9430
2192.715828 0.9430 0.9430 0.9430 0.9430 0.9430
2198.350700 0.9430 0.9430 0.9434 0.9442 0.9450
2203.985571 0.9450 0.9450 0.9454 0.9462 0.9470
2209.620443 0.9470 0.9470 0.9470 0.9470 0.9470
2215.255314 0.9470 0.9470 0.9470 0.9470 0.9470
2220.890186 0.9462 0.9454 0.9450 0.9450 0.9450
2226.525058 0.9450 0.9450 0.9450 0.9450 0.9450
2232.159929 0.9450 0.9450 0.9446 0.9438 0.9430
2237.794801 0.9430 0.9430 0.9430 0.9430 0.9430
2243.429672 0.9430 0.9430 0.9430 0.9430 0.9430
2249.064544 0.9430 0.9430 0.9430 0.9430 0.9430
2254.699415 0.9430 0.9430 0.9430 0.9430 0.9430
2260.334287 0.9430 0.9430 0.9430 0.9430 0.9430
2265.969159 0.9422 0.9414 0.9410 0.9410 0.9410
2271.604030 0.9410 0.9410 0.9410 0.9410 0.9410
2277.238902 0.9406 0.9402 0.9400 0.9400 0.9400
2282.873773 0.9392 0.9384 0.9376 0.9368 0.9360
2288.508645 0.9356 0.9352 0.9350 0.9350 0.9350
2294.143516 0.9350 0.9350 0.9350 0.9350 0.9350
2299.778388 0.9350 0.9350 0.9350 0.9350 0.9350
2305.413260 0.9350 0.9350 0.9350 0.9350 0.9350
2311.048131 0.9350 0.9350 0.9350 0.9350 0.9350
2316.683003 0.9350 0.9350 0.9350 0.9350 0.9350
2322.317874 0.9350 0.9350 0.9350 0.9350 0.9350
2327.952746 0.9350 0.9350 0.9352 0.9356 0.9360
2333.587617 0.9360 0.9360 0.9369 0.9385 0.9400
2339.222489 0.9400 0.9400 0.9400 0.9400 0.9400
2344.857360 0.9400 0.9400 0.9400 0.9400 0.9400
2350.492232 0.9400 0.9400 0.9400 0.9400 0.9400
2356.127104 0.9400 0.9400 0.9400 0.9400 0.9400
2361.761975 0.9400 0.9400 0.9400 0.9400 0.9400
2367.396847 0.9400 0.9400 0.9400 0.9400 0.9400
2373.031718 0.9400 0.9400 0.9400 0.9400 0.9400
2378.666590 0.9400 0.9400 0.9400 0.9400 0.9400
2384.301461 0.9404 0.9408 0.9410 0.9410 0.9410
2389.936333 0.9410 0.9410 0.9410 0.9410 0.9411
2395.571205 0.9419 0.9427 0.9430 0.9430 0.9430
2401.206076 0.9430 0.9430 0.9430 0.9430 0.9430
2406.840948 0.9430 0.9430 0.9430 0.9430 0.9430
2412.475819 0.9430 0.9430 0.9430 0.9430 0.9430
2418.110691 0.9430 0.9430 0.9430 0.9430 0.9430
2423.745562 0.9430 0.9430 0.9430 0.9430 0.9430
2429.380434 0.9430 0.9430 0.9430 0.9430 0.9430
2435.015306 0.9430 0.9430 0.9430 0.9430 0.9430
2440.650177 0.9430 0.9430 0.9430 0.9430 0.9430
2446.285049 0.9430 0.9430 0.9430 0.9430 0.9430
2451.919920 0.9430 0.9430 0.9430 0.9430 0.9430
2457.554792 0.9430 0.9430 0.9430 0.9430 0.9430
2463.189663 0.9430 0.9430 0.9430 0.9430 0.9430
2468.824535 0.9430 0.9430 0.9430 0.9430 0.9430
2474.459407 0.9430 0.9430 0.9426 0.9417 0.9410
2480.094278 0.9410 0.9410 0.9410 0.9410 0.9410
2485.729150 0.9410 0.9410 0.9410 0.9410 0.9410
2491.364021 0.9410 0.9410 0.9408 0.9404 0.9400
2496.998893 0.9400 0.9400 0.9400 0.9400 0.9400
2502.633764 0.9400 0.9400 0.9400 0.9400 0.9399
2508.268636 0.9391 0.9383 0.9380 0.9380 0.9380
2513.903508 0.9380 0.9380 0.9380 0.9380 0.9380
2519.538379 0.9380 0.9380 0.9380 0.9380 0.9380
2525.173251 0.9380 0.9380 0.9380 0.9380 0.9380
2530.808122 0.9380 0.9380 0.9380 0.9380 0.9380
2536.442994 0.9380 0.9380 0.9380 0.9380 0.9380
2542.077865 0.9380 0.9380 0.9380 0.9380 0.9380
2547.712737 0.9380 0.9380 0.9380 0.9380 0.9381
2553.347608 0.9389 0.9397 0.9400 0.9400 0.9400
2558.982480 0.9400 0.9400 0.9400 0.9400 0.9400
2564.617352 0.9400 0.9400 0.9400 0.9400 0.9400
2570.252223 0.9400 0.9400 0.9400 0.9400 0.9400
2575.887095 0.9400 0.9400 0.9402 0.9406 0.9410
2581.521966 0.9410 0.9410 0.9410 0.9410 0.9410
2587.156838 0.9410 0.9410 0.9410 0.9410 0.9410
2592.791709 0.9410 0.9410 0.9410 0.9410 0.9410
2598.426581 0.9410 0.9410 0.9410 0.9410 0.9411
2604.061453 0.9419 0.9427 0.9430 0.9430 0.9430
2609.696324 0.9430 0.9430 0.9430 0.9430 0.9430
2615.331196 0.9430 0.9430 0.9430 0.9430 0.9430
2620.966067 0.9430 0.9430 0.9430 0.9430 0.9430
2626.600939 0.9430 0.9430 0.9430 0.9430 0.9430
2632.235810 0.9430 0.9430 0.9430 0.9430 0.9430
2637.870682 0.9430 0.9430 0.9430 0.9430 0.9430
2643.505554 0.9430 0.9430 0.9430 0.9430 0.9430
2649.140425 0.9430 0.9430 0.9430 0.9430 0.9430
2654.775297 0.9430 0.9430 0.9430 0.9430 0.9430
2660.410168 0.9430 0.9430 0.9430 0.9430 0.9430
2666.045040 0.9430 0.9430 0.9430 0.9430 0.9430
2671.679911 0.9430 0.9430 0.9430 0.9430 0.9430
2677.314783 0.9430 0.9430 0.9430 0.9430 0.9430
2682.949655 0.9430 0.9430 0.9430 0.9430 0.9430
2688.584526 0.9430 0.9430 0.9430 0.9430 0.9430
2694.219398 0.9430 0.9430 0.9425 0.9417 0.9410
2699.854269 0.9410 0.9410 0.9410 0.9410 0.9410
2705.489141 0.9410 0.9410 0.9410 0.9410 0.9410
2711.124012 0.9410 0.9410 0.9410 0.9410 0.9410
2716.758884 0.9406 0.9402 0.9400 0.9400 0.9400
2722.393756 0.9404 0.9408 0.9410 0.9410 0.9410
2728.028627 0.9410 0.9410 0.9410 0.9410 0.9409
2733.663499 0.9406 0.9402 0.9400 0.9400 0.9400
2739.298370 0.9400 0.9400 0.9400 0.9400 0.9400
2744.933242 0.9400 0.9400 0.9395 0.9387 0.9380
2750.568113 0.9380 0.9380 0.9380 0.9380 0.9380
2756.202985 0.9380 0.9380 0.9380 0.9380 0.9380
2761.837857 0.9380 0.9380 0.9375 0.9367 0.9360
2767.472728 0.9360 0.9360 0.9360 0.9360 0.9360
2773.107600 0.9360 0.9360 0.9360 0.9360 0.9360
2778.742471 0.9360 0.9360 0.9358 0.9354 0.9350
2784.377343 0.9350 0.9350 0.9345 0.9337 0.9330
2790.012214 0.9330 0.9330 0.9325 0.9317 0.9310
2795.647086 0.9310 0.9310 0.9310 0.9310 0.9310
2801.281957 0.9306 0.9302 0.9300 0.9300 0.9299
2806.916829 0.9291 0.9283 0.9280 0.9280 0.9279
2812.551701 0.9271 0.9263 0.9255 0.9247 0.9239
2818.186572 0.9235 0.9231 0.9225 0.9217 0.9209
2823.821444 0.9201 0.9193 0.9187 0.9183 0.9179
2829.456315 0.9171 0.9163 0.9155 0.9147 0.9139
2835.091187 0.9131 0.9123 0.9120 0.9120 0.9119
2840.726058 0.9107 0.9095 0.9073 0.9044 0.9015
2846.360930 0.8983 0.8951 0.8912 0.8868 0.8813
2851.995802 0.8693 0.8574 0.8525 0.8517 0.8511
2857.630673 0.8519 0.8527 0.8538 0.8550 0.8563
2863.265545 0.8583 0.8602 0.8622 0.8642 0.8663
2868.900416 0.8687 0.8711 0.8722 0.8727 0.8730
2874.535288 0.8730 0.8730 0.8730 0.8730 0.8730
2880.170159 0.8730 0.8730 0.8730 0.8730 0.8729
2885.805031 0.8725 0.8721 0.8720 0.8720 0.8719
2891.439903 0.8711 0.8703 0.8695 0.8687 0.8678
2897.074774 0.8658 0.8638 0.8622 0.8610 0.8596
2902.709646 0.8572 0.8548 0.8527 0.8507 0.8487
2908.344517 0.8467 0.8447 0.8422 0.8394 0.8367
2913.979389 0.8343 0.8319 0.8274 0.8218 0.8162
2919.614260 0.8102 0.8042 0.7980 0.7916 0.7856
2925.249132 0.7824 0.7792 0.7775 0.7767 0.7761
2930.884004 0.7769 0.7777 0.7806 0.7846 0.7883
2936.518875 0.7903 0.7923 0.7953 0.7989 0.8025
2942.153747 0.8057 0.8089 0.8118 0.8146 0.8171
2947.788618 0.8179 0.8187 0.8190 0.8190 0.8190
2953.423490 0.8190 0.8190 0.8185 0.8177 0.8167
2959.058361 0.8151 0.8135 0.8127 0.8123 0.8120
2964.693233 0.8120 0.8120 0.8120 0.8120 0.8121
2970.328105 0.8125 0.8129 0.8130 0.8130 0.8132
2975.962976 0.8148 0.8164 0.8170 0.8170 0.8170
2981.597848 0.8170 0.8170 0.8165 0.8157 0.8148
2987.232719 0.8136 0.8124 0.8115 0.8107 0.8098
2992.867591 0.8086 0.8074 0.8059 0.8043 0.8028
2998.502462 0.8016 0.8004 0.7990 0.7974 0.7956
3004.137334 0.7932 0.7908 0.7884 0.7861 0.7837
3009.772205 0.7813 0.7789 0.7770 0.7753 0.7739
3015.407077 0.7735 0.7731 0.7714 0.7690 0.7666
3021.041949 0.7642 0.7618 0.7591 0.7563 0.7534
3026.676820 0.7498 0.7462 0.7432 0.7404 0.7376
3032.311692 0.7352 0.7328 0.7302 0.7274 0.7245
3037.946563 0.7209 0.7173 0.7142 0.7113 0.7084
3043.581435 0.7052 0.7020 0.6986 0.6950 0.6914
3049.216306 0.6883 0.6851 0.6816 0.6780 0.6747
3054.851178 0.6727 0.6707 0.6681 0.6653 0.6629
3060.486050 0.6625 0.6621 0.6609 0.6594 0.6578
3066.120921 0.6566 0.6554 0.6545 0.6537 0.6530
3071.755793 0.6530 0.6530 0.6530 0.6530 0.6531
3077.390664 0.6539 0.6547 0.6553 0.6557 0.6561
3083.025536 0.6569 0.6577 0.6580 0.6580 0.6581
3088.660407 0.6589 0.6597 0.6605 0.6613 0.6620
3094.295279 0.6620 0.6620 0.6623 0.6627 0.6632
3099.930151 0.6639 0.6647 0.6655 0.6663 0.6670
3105.565022 0.6670 0.6670 0.6670 0.6670 0.6670
3111.199894 0.6670 0.6670 0.6665 0.6657 0.6650
3116.834765 0.6650 0.6650 0.6645 0.6637 0.6629
3122.469637 0.6625 0.6621 0.6620 0.6620 0.6620
3128.104508 0.6620 0.6620 0.6614 0.6606 0.6599
3133.739380 0.6591 0.6583 0.6580 0.6580 0.6578
3139.374252 0.6566 0.6554 0.6539 0.6523 0.6509
3145.009123 0.6505 0.6501 0.6489 0.6473 0.6458
3150.643995 0.6446 0.6434 0.6419 0.6403 0.6386
3156.278866 0.6366 0.6346 0.6337 0.6333 0.6327
3161.913738 0.6311 0.6295 0.6282 0.6270 0.6255
3167.548609 0.6227 0.6199 0.6182 0.6170 0.6157
3173.183481 0.6141 0.6125 0.6101 0.6073 0.6047
3178.818353 0.6027 0.6007 0.5981 0.5953 0.5926
3184.453224 0.5906 0.5886 0.5866 0.5846 0.5825
3190.088096 0.5797 0.5769 0.5738 0.5706 0.5675
3195.722967 0.5647 0.5619 0.5585 0.5549 0.5514
3201.357839 0.5482 0.5450 0.5421 0.5393 0.5364
3206.992710 0.5332 0.5300 0.5271 0.5243 0.5214
3212.627582 0.5186 0.5158 0.5130 0.5102 0.5074
3218.262453 0.5046 0.5018 0.4991 0.4963 0.4936
3223.897325 0.4916 0.4896 0.4876 0.4856 0.4836
3229.532197 0.4816 0.4796 0.4765 0.4729 0.4698
3235.167068 0.4686 0.4674 0.4656 0.4636 0.4614
3240.801940 0.4586 0.4558 0.4530 0.4502 0.4474
3246.436811 0.4446 0.4418 0.4396 0.4376 0.4356
3252.071683 0.4336 0.4316 0.4307 0.4303 0.4295
3257.706554 0.4271 0.4247 0.4232 0.4220 0.4208
3263.341426 0.4196 0.4184 0.4169 0.4153 0.4138
3268.976298 0.4130 0.4122 0.4117 0.4113 0.4108
3274.611169 0.4100 0.4092 0.4084 0.4076 0.4069
3280.246041 0.4065 0.4061 0.4060 0.4060 0.4058
3285.880912 0.4050 0.4042 0.4040 0.4040 0.4038
3291.515784 0.4030 0.4022 0.4017 0.4013 0.4010
3297.150655 0.4010 0.4010 0.4004 0.3996 0.3990
3302.785527 0.3990 0.3990 0.3984 0.3976 0.3970
3308.420399 0.3970 0.3970 0.3964 0.3956 0.3950
3314.055270 0.3950 0.3950 0.3947 0.3943 0.3940
3319.690142 0.3940 0.3940 0.3934 0.3926 0.3918
3325.325013 0.3910 0.3902 0.3900 0.3900 0.3899
3330.959885 0.3895 0.3891 0.3884 0.3876 0.3870
3336.594756 0.3870 0.3870 0.3859 0.3843 0.3829
3342.229628 0.3825 0.3821 0.3814 0.3806 0.3798
3347.864500 0.3790 0.3782 0.3777 0.3773 0.3768
3353.499371 0.3760 0.3752 0.3744 0.3736 0.3729
3359.134243 0.3725 0.3721 0.3708 0.3693 0.3673
3364.769114 0.3641 0.3609 0.3580 0.3552 0.3522
3370.403986 0.3486 0.3450 0.3417 0.3385 0.3354
3376.038857 0.3326 0.3298 0.3279 0.3262 0.3249
3381.673729 0.3245 0.3241 0.3240 0.3240 0.3241
3387.308601 0.3245 0.3249 0.3267 0.3291 0.3311
3392.943472 0.3315 0.3319 0.3334 0.3354 0.3373
3398.578344 0.3389 0.3405 0.3416 0.3424 0.3433
3404.213215 0.3445 0.3456 0.3466 0.3474 0.3481
3409.848087 0.3485 0.3489 0.3496 0.3504 0.3510
3415.482958 0.3510 0.3510 0.3516 0.3524 0.3531
3421.117830 0.3535 0.3539 0.3546 0.3554 0.3560
3426.752701 0.3560 0.3560 0.3566 0.3574 0.3580
3432.387573 0.3580 0.3580 0.3589 0.3601 0.3610
3438.022445 0.3610 0.3610 0.3616 0.3624 0.3632
3443.657316 0.3640 0.3648 0.3650 0.3650 0.3651
3449.292188 0.3655 0.3659 0.3666 0.3674 0.3684
3454.927059 0.3700 0.3716 0.3723 0.3727 0.3732
3460.561931 0.3740 0.3748 0.3759 0.3771 0.3780
3466.196802 0.3780 0.3780 0.3786 0.3794 0.3800
3471.831674 0.3800 0.3800 0.3806 0.3814 0.3821
3477.466546 0.3825 0.3829 0.3842 0.3858 0.3875
3483.101417 0.3895 0.3915 0.3929 0.3941 0.3952
3488.736289 0.3960 0.3968 0.3976 0.3984 0.3993
3494.371160 0.4005 0.4017 0.4026 0.4034 0.4042
3500.006032 0.4050 0.4058 0.4075 0.4095 0.4117
3505.640903 0.4145 0.4173 0.4189 0.4201 0.4215
3511.275775 0.4235 0.4255 0.4266 0.4274 0.4283
3516.910647 0.4295 0.4307 0.4322 0.4338 0.4358
3522.545518 0.4390 0.4422 0.4436 0.4444 0.4457
3528.180390 0.4485 0.4513 0.4520 0.4520 0.4527
3533.815261 0.4555 0.4583 0.4605 0.4625 0.4645
3539.450133 0.4665 0.4685 0.4714 0.4746 0.4775
3545.085004 0.4795 0.4815 0.4832 0.4848 0.4865
3550.719876 0.4885 0.4905 0.4925 0.4945 0.4965
3556.354748 0.4985 0.5005 0.5037 0.5073 0.5105
3561.989619 0.5125 0.5145 0.5174 0.5206 0.5237
3567.624491 0.5265 0.5293 0.5315 0.5335 0.5354
3573.259362 0.5370 0.5386 0.5399 0.5411 0.5430
3578.894234 0.5466 0.5502 0.5541 0.5581 0.5617
3584.529105 0.5645 0.5673 0.5695 0.5715 0.5737
3590.163977 0.5765 0.5793 0.5815 0.5835 0.5858
3595.798849 0.5890 0.5922 0.5957 0.5993 0.6030
3601.433720 0.6070 0.6110 0.6162 0.6219 0.6263
3607.068592 0.6275 0.6287 0.6290 0.6290 0.6279
3612.703463 0.6239 0.6199 0.6159 0.6120 0.6058
3618.338335 0.5934 0.5810 0.5641 0.5457 0.5139
3623.973206 0.4428 0.3717 0.3537 0.3533 0.3531
3629.608078 0.3535 0.3539 0.3661 0.3823 0.3951
3635.242950 0.3991 0.4031 0.4055 0.4075 0.4101
3640.877821 0.4141 0.4181 0.4227 0.4275 0.4325
3646.512693 0.4381 0.4437 0.4496 0.4556 0.4620
3652.147564 0.4696 0.4772 0.4841 0.4909 0.4977
3657.782436 0.5045 0.5113 0.5182 0.5251 0.5316
3663.417307 0.5372 0.5428 0.5484 0.5540 0.5583
3669.052179 0.5595 0.5607 0.5632 0.5660 0.5681
3674.687050 0.5685 0.5689 0.5711 0.5739 0.5770
3680.321922 0.5805 0.5841 0.5874 0.5906 0.5935
3685.956794 0.5955 0.5975 0.6001 0.6030 0.6056
3691.591665 0.6076 0.6096 0.6119 0.6143 0.6163
3697.226537 0.6175 0.6187 0.6199 0.6211 0.6224
3702.861408 0.6240 0.6256 0.6263 0.6267 0.6274
3708.496280 0.6290 0.6306 0.6319 0.6331 0.6344
3714.131151 0.6360 0.6376 0.6380 0.6380 0.6386
3719.766023 0.6406 0.6426 0.6436 0.6444 0.6451
3725.400895 0.6455 0.6459 0.6476 0.6496 0.6512
3731.035766 0.6520 0.6528 0.6530 0.6530 0.6533
3736.670638 0.6545 0.6557 0.6566 0.6574 0.6582
3742.305509 0.6590 0.6598 0.6606 0.6614 0.6621
3747.940381 0.6625 0.6629 0.6636 0.6644 0.6652
3753.575252 0.6660 0.6668 0.6679 0.6691 0.6700
3759.210124 0.6700 0.6700 0.6706 0.6714 0.6722
3764.844996 0.6730 0.6738 0.6740 0.6740 0.6741
3770.479867 0.6745 0.6749 0.6756 0.6764 0.6770
3776.114739 0.6770 0.6770 0.6776 0.6784 0.6790
3781.749610 0.6790 0.6790 0.6793 0.6797 0.6800
3787.384482 0.6800 0.6800 0.6806 0.6814 0.6820
3793.019353 0.6820 0.6820 0.6820 0.6820 0.6822
3798.654225 0.6830 0.6838 0.6840 0.6840 0.6840
3804.289097 0.6840 0.6840 0.6846 0.6854 0.6861
3809.923968 0.6865 0.6869 0.6870 0.6870 0.6872
3815.558840 0.6880 0.6888 0.6896 0.6904 0.6910
3821.193711 0.6910 0.6910 0.6913 0.6917 0.6920
3826.828583 0.6920 0.6920 0.6920 0.6920 0.6922
3832.463454 0.6930 0.6938 0.6940 0.6940 0.6940
3838.098326 0.6940 0.6940 0.6946 0.6954 0.6960
3843.733198 0.6960 0.6960 0.6960 0.6960 0.6961
3849.368069 0.6965 0.6969 0.6970 0.6970 0.6970
3855.002941 0.6970 0.6970 0.6976 0.6984 0.6990
3860.637812 0.6990 0.6990 0.6996 0.7004 0.7010
3866.272684 0.7010 0.7010 0.7010 0.7010 0.7012
3871.907555 0.7020 0.7028 0.7030 0.7030 0.7031
3877.542427 0.7035 0.7039 0.7040 0.7040 0.7040
3883.177298 0.7040 0.7040 0.7040 0.7040 0.7040
3888.812170 0.7040 0.7040 0.7040 0.7040 0.7040
3894.447042 0.7040 0.7040 0.7046 0.7054 0.7060
3900.081913 0.7060 0.7060 0.7060 0.7060 0.7060
3905.716785 0.7060 0.7060 0.7060 0.7060 0.7060
3911.351656 0.7060 0.7060 0.7060 0.7060 0.7060
3916.986528 0.7060 0.7060 0.7060 0.7060 0.7060
3922.621399 0.7060 0.7060 0.7060 0.7060 0.7060
3928.256271 0.7060 0.7060 0.7060 0.7060 0.7060
3933.891143 0.7060 0.7060 0.7060 0.7060 0.7060
3939.526014 0.7060 0.7060 0.7060 0.7060 0.7060
3945.160886 0.7060 0.7060 0.7060 0.7060 0.7060
3950.795757 0.7060 0.7060 0.7060 0.7060 0.7060
3956.430629 0.7060 0.7060 0.7060 0.7060 0.7060
3962.065500 0.7060 0.7060 0.7060 0.7060 0.7058
3967.700372 0.7050 0.7042 0.7040 0.7040 0.7040
3973.335244 0.7040 0.7040 0.7040 0.7040 0.7039
3978.970115 0.7035 0.7031 0.7030 0.7030 0.7027
3984.604987 0.7019 0.7011 0.7010 0.7010 0.7007
3990.239858 0.6999 0.6991 0.6990 0.6990 0.6988
3995.874730 0.6980 0.6972 0.6970 0.6970
##END=
