##TITLE=PROPIONIC ACID, 2,3,3-TRICHLORO-2-CHLOROMETHYL, METHYL ESTER
##JCAMP-DX=4.24
##DATA TYPE=INFRARED SPECTRUM
##CLASS=COBLENTZ
##ORIGIN=TENNESSEE EASTMAN COMPANY, RESEARCH LABORATORIES
##OWNER=COBLENTZ SOCIETY
Collection (C) 2018 copyright by the U.S. Secretary of Commerce
on behalf of the United States of America. All rights reserved.
##DATE=Not specified, most likely prior to 1970
##NAMES=methyl 2,3,3,3-tetrachloro-2-methylpropanoate
##MOLFORM=C5 H6 Cl4 O2
##SOURCE REFERENCE=COBLENTZ NO. 1955
##$NIST ID=B6001955
##$NIST SOURCE=COBLENTZ
##$NIST IMAGE=cob1955
##SPECTROMETER/DATA SYSTEM=Not specified, most likely a prism, grating, or hybrid spectrometer.
##PATH LENGTH=SMEAR
##SAMPLING PROCEDURE=TRANSMISSION
##RESOLUTION=4
##DATA PROCESSING=DIGITIZED BY NIST FROM HARD COPY
##XUNITS=MICROMETERS
##YUNITS=TRANSMITTANCE
##XFACTOR=1.000000
##YFACTOR=1
##DELTAX=000.006826
##FIRSTX=2.02
##LASTX=15.986
##FIRSTY=0.936
##MAXX=15.986
##MINX=2.02
##MAXY=0.982
##MINY=0.039
##NPOINTS=2047
##XYDATA=(X++(Y..Y))
2.020000 0.9360 0.9390 0.9410 0.9450 0.9480
2.054146 0.9500 0.9510 0.9530 0.9530 0.9550
2.089000 0.9550 0.9570 0.9580 0.9580 0.9600
2.123146 0.9600 0.9620 0.9670 0.9700 0.9740
2.157000 0.9770 0.9790 0.9810 0.9820 0.9820
2.191146 0.9620 0.9600 0.9500 0.9460 0.9360
2.225000 0.9310 0.9270 0.9260 0.9260 0.9260
2.259146 0.9260 0.9270 0.9290 0.9290 0.9290
2.294000 0.9290 0.9290 0.9290 0.9290 0.9270
2.328146 0.9270 0.9240 0.9200 0.9190 0.9190
2.362000 0.9170 0.9150 0.9150 0.9150 0.9170
2.396146 0.9200 0.9240 0.9270 0.9290 0.9310
2.430000 0.9320 0.9340 0.9340 0.9360 0.9360
2.464146 0.9380 0.9380 0.9380 0.9390 0.9390
2.498000 0.9410 0.9410 0.9410 0.9430 0.9430
2.532146 0.9430 0.9430 0.9430 0.9430 0.9430
2.567000 0.9430 0.9430 0.9430 0.9430 0.9450
2.601146 0.9450 0.9450 0.9450 0.9450 0.9450
2.635000 0.9450 0.9450 0.9450 0.9450 0.9450
2.669146 0.9450 0.9450 0.9450 0.9450 0.9450
2.703000 0.9450 0.9450 0.9450 0.9450 0.9450
2.737146 0.9450 0.9430 0.9430 0.9410 0.9410
2.771000 0.9390 0.9390 0.9380 0.9380 0.9320
2.805146 0.9290 0.9240 0.9200 0.9150 0.9100
2.840000 0.9050 0.9020 0.8960 0.8900 0.8840
2.874146 0.8790 0.8780 0.8740 0.8720 0.8720
2.908000 0.8740 0.8740 0.8760 0.8760 0.8740
2.942146 0.8740 0.8740 0.8720 0.8670 0.8640
2.976000 0.8570 0.8500 0.8430 0.8360 0.8290
3.010146 0.8210 0.8160 0.8120 0.8100 0.8070
3.044000 0.8050 0.8040 0.8040 0.8020 0.8020
3.078146 0.8020 0.8020 0.8020 0.8040 0.8070
3.113000 0.8100 0.8140 0.8190 0.8210 0.8230
3.147146 0.8280 0.8290 0.8310 0.8330 0.8350
3.181000 0.8350 0.8360 0.8360 0.8360 0.8360
3.215146 0.8350 0.8350 0.8330 0.8290 0.8260
3.249000 0.8190 0.8100 0.8000 0.7850 0.7540
3.283146 0.7160 0.6640 0.6110 0.5540 0.4910
3.317000 0.4320 0.4270 0.4270 0.4430 0.5240
3.351146 0.5420 0.5420 0.5150 0.5130 0.5170
3.386000 0.5820 0.6390 0.7180 0.7640 0.7900
3.420146 0.7980 0.8000 0.8000 0.8040 0.8090
3.454000 0.8120 0.8190 0.8190 0.8210 0.8210
3.488146 0.8190 0.8000 0.8000 0.8000 0.8120
3.522000 0.8470 0.8620 0.8760 0.8830 0.8900
3.556146 0.8960 0.9020 0.9050 0.9120 0.9120
3.590000 0.9150 0.9190 0.9200 0.9200 0.9220
3.624146 0.9220 0.9260 0.9260 0.9260 0.9260
3.659000 0.9260 0.9260 0.9270 0.9270 0.9270
3.693146 0.9270 0.9270 0.9270 0.9290 0.9290
3.727000 0.9310 0.9320 0.9340 0.9340 0.9340
3.761146 0.9340 0.9340 0.9340 0.9340 0.9340
3.795000 0.9340 0.9320 0.9320 0.9320 0.9310
3.829146 0.9310 0.9290 0.9270 0.9240 0.9220
3.863000 0.9200 0.9200 0.9190 0.9170 0.9170
3.897146 0.9150 0.9150 0.9150 0.9150 0.9150
3.932000 0.9170 0.9170 0.9170 0.9170 0.9190
3.966146 0.9190 0.9170 0.9170 0.9170 0.9170
4.000000 0.9170 0.9150 0.9150 0.9150 0.9150
4.034146 0.9170 0.9170 0.9190 0.9190 0.9200
4.068000 0.9220 0.9220 0.9240 0.9240 0.9260
4.102146 0.9260 0.9260 0.9260 0.9260 0.9260
4.137000 0.9260 0.9260 0.9260 0.9260 0.9270
4.171146 0.9270 0.9310 0.9340 0.9360 0.9390
4.205000 0.9410 0.9430 0.9460 0.9480 0.9500
4.239146 0.9510 0.9530 0.9530 0.9530 0.9510
4.273000 0.9500 0.9500 0.9500 0.9500 0.9500
4.307146 0.9500 0.9500 0.9500 0.9500 0.9500
4.341000 0.9510 0.9510 0.9530 0.9530 0.9530
4.375146 0.9550 0.9550 0.9570 0.9600 0.9620
4.410000 0.9630 0.9630 0.9650 0.9650 0.9670
4.444146 0.9690 0.9690 0.9690 0.9700 0.9700
4.478000 0.9700 0.9700 0.9740 0.9740 0.9750
4.512146 0.9750 0.9770 0.9790 0.9790 0.9790
4.546000 0.9770 0.9770 0.9750 0.9740 0.9740
4.580146 0.9720 0.9700 0.9700 0.9690 0.9690
4.614000 0.9690 0.9690 0.9690 0.9690 0.9690
4.648146 0.9690 0.9690 0.9670 0.9650 0.9620
4.683000 0.9580 0.9580 0.9550 0.9550 0.9530
4.717146 0.9510 0.9510 0.9510 0.9510 0.9510
4.751000 0.9510 0.9510 0.9510 0.9510 0.9510
4.785146 0.9510 0.9510 0.9530 0.9530 0.9530
4.819000 0.9530 0.9530 0.9530 0.9530 0.9530
4.853146 0.9530 0.9550 0.9550 0.9570 0.9570
4.887000 0.9570 0.9580 0.9580 0.9570 0.9550
4.921146 0.9550 0.9550 0.9550 0.9550 0.9570
4.956000 0.9570 0.9580 0.9580 0.9600 0.9620
4.990146 0.9630 0.9670 0.9690 0.9700 0.9720
5.024000 0.9720 0.9720 0.9740 0.9740 0.9740
5.058146 0.9740 0.9740 0.9740 0.9740 0.9740
5.092000 0.9720 0.9720 0.9700 0.9690 0.9690
5.126146 0.9670 0.9670 0.9670 0.9650 0.9650
5.160000 0.9650 0.9650 0.9650 0.9650 0.9650
5.194146 0.9630 0.9630 0.9620 0.9600 0.9580
5.229000 0.9530 0.9510 0.9510 0.9500 0.9500
5.263146 0.9460 0.9430 0.9430 0.9430 0.9430
5.297000 0.9430 0.9410 0.9410 0.9390 0.9390
5.331146 0.9360 0.9320 0.9310 0.9290 0.9270
5.365000 0.9260 0.9240 0.9220 0.9220 0.9220
5.399146 0.9200 0.9200 0.9190 0.9170 0.9140
5.433000 0.9100 0.9050 0.9030 0.9000 0.8960
5.467146 0.8930 0.8880 0.8830 0.8780 0.8710
5.502000 0.8640 0.8570 0.8520 0.8410 0.8310
5.536146 0.8190 0.8040 0.7860 0.7640 0.7380
5.570000 0.7060 0.6890 0.6350 0.5600 0.4670
5.604146 0.3690 0.2690 0.1890 0.1540 0.1510
5.638000 0.1420 0.1370 0.1280 0.1160 0.1080
5.672146 0.0990 0.0940 0.0910 0.0870 0.0870
5.706000 0.0870 0.0890 0.0910 0.0910 0.0940
5.740146 0.1010 0.1030 0.1230 0.1300 0.1540
5.775000 0.1730 0.1920 0.2110 0.2300 0.2430
5.809146 0.3330 0.4030 0.4600 0.5010 0.5340
5.843000 0.5580 0.5770 0.5920 0.6080 0.6250
5.877146 0.6460 0.6710 0.6870 0.7060 0.7260
5.911000 0.7450 0.7620 0.7710 0.7800 0.7860
5.945146 0.7920 0.8020 0.8140 0.8260 0.8310
5.980000 0.8350 0.8380 0.8400 0.8430 0.8430
6.014146 0.8470 0.8480 0.8500 0.8520 0.8530
6.048000 0.8530 0.8530 0.8520 0.8500 0.8520
6.082146 0.8520 0.8530 0.8570 0.8590 0.8590
6.116000 0.8590 0.8590 0.8590 0.8590 0.8590
6.150146 0.8590 0.8590 0.8570 0.8570 0.8570
6.184000 0.8550 0.8550 0.8530 0.8530 0.8530
6.218146 0.8530 0.8530 0.8520 0.8520 0.8500
6.253000 0.8500 0.8520 0.8530 0.8550 0.8570
6.287146 0.8570 0.8600 0.8620 0.8620 0.8620
6.321000 0.8640 0.8640 0.8640 0.8640 0.8640
6.355146 0.8640 0.8640 0.8620 0.8600 0.8590
6.389000 0.8570 0.8530 0.8520 0.8500 0.8470
6.423146 0.8450 0.8450 0.8470 0.8480 0.8480
6.457000 0.8480 0.8480 0.8480 0.8480 0.8480
6.491146 0.8480 0.8480 0.8480 0.8480 0.8480
6.526000 0.8480 0.8480 0.8480 0.8480 0.8480
6.560146 0.8480 0.8480 0.8480 0.8480 0.8480
6.594000 0.8480 0.8480 0.8480 0.8470 0.8430
6.628146 0.8380 0.8360 0.8350 0.8350 0.8330
6.662000 0.8310 0.8310 0.8280 0.8240 0.8190
6.696146 0.8160 0.8100 0.8040 0.7950 0.7880
6.730000 0.7830 0.7760 0.7660 0.7560 0.7450
6.764146 0.7280 0.7110 0.6940 0.6760 0.6560
6.799000 0.6320 0.6040 0.5720 0.5320 0.5100
6.833146 0.4790 0.4450 0.4100 0.3740 0.3400
6.867000 0.3100 0.2880 0.2710 0.2560 0.2430
6.901146 0.2180 0.1940 0.1610 0.1390 0.1210
6.935000 0.1010 0.0960 0.0970 0.1040 0.1270
6.969146 0.1710 0.1970 0.2210 0.2450 0.2690
7.003000 0.2980 0.3290 0.3650 0.4070 0.4570
7.037146 0.5120 0.5750 0.6490 0.6780 0.7020
7.072000 0.7140 0.7250 0.7330 0.7420 0.7490
7.106146 0.7500 0.7520 0.7560 0.7590 0.7590
7.140000 0.7610 0.7620 0.7620 0.7620 0.7620
7.174146 0.7620 0.7610 0.7560 0.7450 0.7330
7.208000 0.7140 0.7020 0.6920 0.6780 0.6760
7.242146 0.6780 0.6870 0.7010 0.7140 0.7250
7.276000 0.7310 0.7370 0.7380 0.7400 0.7400
7.310146 0.7400 0.7380 0.7350 0.7330 0.7300
7.345000 0.7260 0.7230 0.7190 0.7180 0.7130
7.379146 0.7090 0.7060 0.7040 0.7010 0.6990
7.413000 0.6920 0.6920 0.6900 0.6890 0.6850
7.447146 0.6820 0.6760 0.6730 0.6680 0.6580
7.481000 0.6470 0.6340 0.6160 0.5990 0.5790
7.515146 0.5580 0.5340 0.5100 0.4840 0.4580
7.549000 0.4310 0.4020 0.3690 0.3450 0.3240
7.583146 0.3090 0.2920 0.2690 0.2420 0.2020
7.618000 0.1490 0.1370 0.1180 0.1030 0.0870
7.652146 0.0800 0.0720 0.0670 0.0600 0.0540
7.686000 0.0530 0.0510 0.0490 0.0460 0.0440
7.720146 0.0440 0.0420 0.0410 0.0410 0.0420
7.754000 0.0420 0.0420 0.0440 0.0510 0.0600
7.788146 0.0700 0.0770 0.0820 0.0870 0.0890
7.823000 0.0910 0.0920 0.0920 0.0920 0.0910
7.857146 0.0890 0.0890 0.0890 0.0890 0.0890
7.891000 0.0890 0.0890 0.0890 0.0870 0.0840
7.925146 0.0790 0.0730 0.0670 0.0610 0.0540
7.959000 0.0530 0.0510 0.0460 0.0440 0.0440
7.993146 0.0420 0.0410 0.0390 0.0390 0.0410
8.027000 0.0410 0.0410 0.0420 0.0480 0.0560
8.061146 0.0670 0.0790 0.0920 0.1040 0.1180
8.096000 0.1300 0.1470 0.1630 0.1750 0.1820
8.130146 0.1890 0.1890 0.1920 0.1920 0.1940
8.164000 0.1940 0.1920 0.1870 0.1750 0.1700
8.198146 0.1610 0.1510 0.1440 0.1340 0.1250
8.232000 0.1180 0.1110 0.1060 0.1010 0.0990
8.266146 0.0990 0.0990 0.0970 0.0960 0.0920
8.300000 0.0920 0.0910 0.0850 0.0820 0.0790
8.334146 0.0770 0.0770 0.0790 0.0800 0.0870
8.369000 0.0960 0.1040 0.1130 0.1200 0.1280
8.403146 0.1340 0.1370 0.1370 0.1370 0.1280
8.437000 0.1270 0.1230 0.1180 0.1090 0.1010
8.471146 0.1010 0.1010 0.1010 0.1010 0.1080
8.505000 0.1210 0.1460 0.1820 0.2130 0.2420
8.539146 0.2710 0.3040 0.3400 0.3790 0.4220
8.573000 0.4450 0.4670 0.4860 0.5060 0.5240
8.607146 0.5390 0.5510 0.5610 0.5680 0.5750
8.642000 0.5850 0.5940 0.6040 0.6150 0.6210
8.676146 0.6320 0.6390 0.6460 0.6490 0.6540
8.710000 0.6590 0.6660 0.6700 0.6750 0.6800
8.744146 0.6830 0.6900 0.6950 0.6990 0.7040
8.778000 0.7070 0.7090 0.7140 0.7140 0.7160
8.812146 0.7180 0.7180 0.7180 0.7180 0.7180
8.846000 0.7180 0.7180 0.7160 0.7130 0.7090
8.880146 0.7040 0.6970 0.6900 0.6800 0.6700
8.915000 0.6590 0.6460 0.6320 0.6180 0.6030
8.949146 0.5850 0.5670 0.5480 0.5300 0.5150
8.983000 0.5030 0.4890 0.4770 0.4620 0.4450
9.017146 0.4240 0.4150 0.4120 0.4100 0.4100
9.051000 0.4100 0.4120 0.4290 0.4430 0.4630
9.085146 0.4770 0.4940 0.5120 0.5300 0.5490
9.119000 0.5670 0.5800 0.5890 0.5940 0.5970
9.153146 0.5990 0.5990 0.5990 0.5990 0.5960
9.188000 0.5940 0.5910 0.5890 0.5890 0.5890
9.222146 0.5910 0.5940 0.5990 0.6040 0.6110
9.256000 0.6200 0.6320 0.6460 0.6580 0.6610
9.290146 0.6640 0.6730 0.6780 0.6780 0.6780
9.324000 0.6780 0.6780 0.6760 0.6730 0.6680
9.358146 0.6560 0.6460 0.6300 0.6090 0.5840
9.392000 0.5650 0.5390 0.5080 0.4750 0.4390
9.426146 0.4030 0.3710 0.3400 0.3120 0.2970
9.461000 0.2740 0.2570 0.2470 0.2400 0.2300
9.495146 0.2260 0.2190 0.2180 0.2180 0.2190
9.529000 0.2260 0.2310 0.2500 0.2710 0.2850
9.563146 0.3020 0.3210 0.3410 0.3640 0.3880
9.597000 0.4120 0.4340 0.4580 0.4810 0.5010
9.631146 0.5200 0.5360 0.5480 0.5600 0.5700
9.666000 0.5800 0.5890 0.5920 0.5970 0.5970
9.700146 0.5990 0.5990 0.5990 0.5990 0.5920
9.734000 0.5770 0.5680 0.5510 0.5250 0.5030
9.768146 0.4770 0.4530 0.4290 0.4070 0.3860
9.802000 0.3600 0.3360 0.3260 0.3140 0.3090
9.836146 0.3070 0.3090 0.3160 0.3210 0.3350
9.870000 0.3480 0.3620 0.3760 0.3910 0.4020
9.904146 0.4120 0.4200 0.4240 0.4290 0.4290
9.939000 0.4290 0.4290 0.4220 0.4100 0.4050
9.973146 0.3960 0.3910 0.3900 0.3900 0.3910
10.007000 0.3960 0.4050 0.4150 0.4240 0.4340
10.041146 0.4450 0.4510 0.4570 0.4600 0.4620
10.075000 0.4670 0.4670 0.4650 0.4650 0.4630
10.109146 0.4580 0.4510 0.4450 0.4410 0.4360
10.143000 0.4320 0.4290 0.4270 0.4260 0.4260
10.177146 0.4260 0.4260 0.4260 0.4290 0.4380
10.212000 0.4450 0.4530 0.4630 0.4720 0.4790
10.246146 0.4870 0.4940 0.4980 0.5030 0.5080
10.280000 0.5080 0.5080 0.5080 0.5010 0.4930
10.314146 0.4750 0.4600 0.4500 0.4320 0.4100
10.348000 0.3960 0.3760 0.3640 0.3530 0.3360
10.382146 0.3230 0.3170 0.3160 0.3140 0.3040
10.416000 0.3000 0.2980 0.2970 0.2950 0.2950
10.450146 0.2950 0.2950 0.2950 0.2970 0.2970
10.485000 0.3000 0.3020 0.3070 0.3100 0.3160
10.519146 0.3210 0.3280 0.3350 0.3410 0.3480
10.553000 0.3520 0.3600 0.3650 0.3760 0.3830
10.587146 0.3900 0.3950 0.3980 0.4030 0.4080
10.621000 0.4120 0.4170 0.4220 0.4270 0.4340
10.655146 0.4390 0.4480 0.4550 0.4630 0.4720
10.689000 0.4810 0.4910 0.5000 0.5100 0.5180
10.723146 0.5290 0.5390 0.5480 0.5560 0.5650
10.758000 0.5720 0.5770 0.5820 0.5870 0.5890
10.792146 0.5910 0.5940 0.5970 0.6040 0.6110
10.826000 0.6180 0.6270 0.6340 0.6440 0.6520
10.860146 0.6630 0.6730 0.6850 0.6950 0.7060
10.894000 0.7180 0.7280 0.7370 0.7470 0.7560
10.928146 0.7620 0.7690 0.7740 0.7810 0.7860
10.962000 0.7930 0.7980 0.8040 0.8040 0.8070
10.996146 0.8090 0.8120 0.8140 0.8170 0.8190
11.031000 0.8190 0.8210 0.8230 0.8240 0.8260
11.065146 0.8260 0.8260 0.8260 0.8260 0.8260
11.099000 0.8260 0.8260 0.8260 0.8260 0.8260
11.133146 0.8260 0.8260 0.8240 0.8230 0.8210
11.167000 0.8140 0.8120 0.8090 0.8070 0.8070
11.201146 0.8040 0.8020 0.8020 0.8000 0.7980
11.235000 0.7970 0.7970 0.7950 0.7950 0.7950
11.269146 0.7970 0.7970 0.7970 0.7950 0.7930
11.304000 0.7900 0.7880 0.7830 0.7780 0.7730
11.338146 0.7680 0.7610 0.7560 0.7470 0.7400
11.372000 0.7300 0.7180 0.7060 0.6900 0.6730
11.406146 0.6540 0.6350 0.6130 0.5920 0.5700
11.440000 0.5480 0.5250 0.5050 0.4820 0.4630
11.474146 0.4460 0.4290 0.4150 0.4050 0.3950
11.509000 0.3860 0.3780 0.3670 0.3590 0.3500
11.543146 0.3410 0.3350 0.3260 0.3160 0.3070
11.577000 0.3000 0.2980 0.2980 0.3000 0.3070
11.611146 0.3140 0.3210 0.3290 0.3360 0.3450
11.645000 0.3530 0.3600 0.3620 0.3600 0.3530
11.679146 0.3410 0.3310 0.3160 0.3050 0.2970
11.713000 0.2880 0.2810 0.2780 0.2760 0.2780
11.747146 0.2880 0.3000 0.3260 0.3500 0.3740
11.782000 0.3950 0.4170 0.4380 0.4550 0.4720
11.816146 0.4890 0.5030 0.5150 0.5250 0.5320
11.850000 0.5370 0.5460 0.5490 0.5530 0.5580
11.884146 0.5600 0.5610 0.5610 0.5610 0.5610
11.918000 0.5600 0.5580 0.5530 0.5460 0.5360
11.952146 0.5270 0.5170 0.5060 0.4960 0.4910
11.986000 0.4820 0.4690 0.4530 0.4360 0.4170
12.020146 0.4000 0.3830 0.3670 0.3530 0.3400
12.055000 0.3210 0.3070 0.2930 0.2800 0.2660
12.089146 0.2540 0.2420 0.2300 0.2180 0.2060
12.123000 0.1940 0.1760 0.1700 0.1610 0.1520
12.157146 0.1460 0.1390 0.1300 0.1250 0.1200
12.191000 0.1180 0.1150 0.1130 0.1110 0.1090
12.225146 0.1080 0.1080 0.1080 0.1080 0.1080
12.259000 0.1090 0.1150 0.1200 0.1270 0.1320
12.293146 0.1390 0.1460 0.1510 0.1540 0.1590
12.328000 0.1630 0.1680 0.1700 0.1730 0.1750
12.362146 0.1780 0.1800 0.1800 0.1820 0.1830
12.396000 0.1850 0.1870 0.1870 0.1870 0.1870
12.430146 0.1870 0.1870 0.1870 0.1870 0.1870
12.464000 0.1870 0.1870 0.1870 0.1870 0.1870
12.498146 0.1890 0.1890 0.1890 0.1890 0.1890
12.532000 0.1890 0.1890 0.1890 0.1890 0.1900
12.566146 0.1940 0.1970 0.2010 0.2060 0.2130
12.601000 0.2190 0.2260 0.2350 0.2430 0.2520
12.635146 0.2620 0.2730 0.2830 0.2930 0.3040
12.669000 0.3140 0.3240 0.3350 0.3450 0.3530
12.703146 0.3640 0.3710 0.3790 0.3840 0.3910
12.737000 0.3980 0.4070 0.4120 0.4190 0.4240
12.771146 0.4310 0.4320 0.4380 0.4390 0.4410
12.805000 0.4460 0.4500 0.4530 0.4570 0.4600
12.839146 0.4630 0.4690 0.4720 0.4770 0.4810
12.874000 0.4860 0.4910 0.4960 0.5010 0.5050
12.908146 0.5100 0.5150 0.5180 0.5220 0.5270
12.942000 0.5300 0.5340 0.5370 0.5390 0.5390
12.976146 0.5410 0.5410 0.5410 0.5410 0.5410
13.010000 0.5390 0.5320 0.5300 0.5240 0.5180
13.044146 0.5100 0.5030 0.4960 0.4860 0.4750
13.078000 0.4650 0.4570 0.4460 0.4380 0.4260
13.112146 0.4140 0.3980 0.3840 0.3690 0.3570
13.147000 0.3430 0.3310 0.3190 0.3050 0.2920
13.181146 0.2760 0.2610 0.2540 0.2400 0.2280
13.215000 0.2180 0.2070 0.1970 0.1950 0.1920
13.249146 0.1850 0.1820 0.1800 0.1780 0.1760
13.283000 0.1760 0.1760 0.1760 0.1760 0.1760
13.317146 0.1760 0.1760 0.1760 0.1760 0.1780
13.352000 0.1780 0.1820 0.1850 0.1890 0.1920
13.386146 0.1920 0.1950 0.1990 0.2020 0.2090
13.420000 0.2110 0.2130 0.2160 0.2180 0.2190
13.454146 0.2210 0.2210 0.2230 0.2230 0.2230
13.488000 0.2230 0.2230 0.2230 0.2210 0.2160
13.522146 0.2110 0.2070 0.2020 0.1990 0.1950
13.556000 0.1920 0.1890 0.1870 0.1830 0.1820
13.590146 0.1820 0.1820 0.1820 0.1820 0.1820
13.625000 0.1820 0.1820 0.1830 0.1830 0.1870
13.659146 0.1870 0.1900 0.1920 0.1920 0.1950
13.693000 0.1970 0.1970 0.1970 0.1970 0.1970
13.727146 0.1900 0.1900 0.1890 0.1850 0.1820
13.761000 0.1760 0.1730 0.1680 0.1630 0.1590
13.795146 0.1560 0.1540 0.1520 0.1490 0.1470
13.829000 0.1460 0.1440 0.1420 0.1420 0.1420
13.863146 0.1420 0.1420 0.1440 0.1470 0.1520
13.898000 0.1580 0.1640 0.1730 0.1820 0.1920
13.932146 0.2020 0.2130 0.2250 0.2370 0.2470
13.966000 0.2610 0.2730 0.2850 0.2970 0.3090
14.000146 0.3190 0.3290 0.3400 0.3500 0.3600
14.034000 0.3690 0.3790 0.3900 0.3980 0.4070
14.068146 0.4150 0.4220 0.4290 0.4360 0.4410
14.102000 0.4480 0.4510 0.4570 0.4600 0.4650
14.136146 0.4670 0.4690 0.4720 0.4740 0.4750
14.171000 0.4750 0.4790 0.4790 0.4790 0.4790
14.205146 0.4790 0.4790 0.4790 0.4770 0.4750
14.239000 0.4720 0.4670 0.4620 0.4570 0.4510
14.273146 0.4500 0.4480 0.4460 0.4410 0.4380
14.307000 0.4310 0.4270 0.4220 0.4170 0.4120
14.341146 0.4030 0.4020 0.3960 0.3910 0.3860
14.375000 0.3790 0.3740 0.3670 0.3620 0.3570
14.409146 0.3530 0.3470 0.3410 0.3350 0.3290
14.444000 0.3210 0.3120 0.3040 0.3000 0.2980
14.478146 0.2950 0.2850 0.2810 0.2740 0.2660
14.512000 0.2590 0.2540 0.2500 0.2450 0.2420
14.546146 0.2380 0.2330 0.2300 0.2280 0.2260
14.580000 0.2210 0.2190 0.2180 0.2180 0.2160
14.614146 0.2160 0.2140 0.2140 0.2160 0.2160
14.648000 0.2160 0.2180 0.2180 0.2180 0.2190
14.682146 0.2250 0.2300 0.2350 0.2400 0.2470
14.717000 0.2520 0.2590 0.2660 0.2690 0.2760
14.751146 0.2810 0.2880 0.2980 0.3050 0.3120
14.785000 0.3210 0.3280 0.3350 0.3450 0.3530
14.819146 0.3640 0.3720 0.3810 0.3930 0.4020
14.853000 0.4120 0.4170 0.4270 0.4360 0.4450
14.887146 0.4500 0.4570 0.4650 0.4720 0.4790
14.922000 0.4840 0.4910 0.4980 0.5050 0.5100
14.956146 0.5120 0.5180 0.5250 0.5290 0.5370
14.990000 0.5410 0.5480 0.5510 0.5580 0.5610
15.024146 0.5680 0.5700 0.5770 0.5790 0.5800
15.058000 0.5850 0.5870 0.5870 0.5870 0.5890
15.092146 0.5890 0.5910 0.5910 0.5920 0.5920
15.126000 0.5920 0.5940 0.5970 0.5970 0.5990
15.160146 0.6010 0.6010 0.6030 0.6030 0.6040
15.195000 0.6060 0.6060 0.6080 0.6080 0.6080
15.229146 0.6080 0.6090 0.6090 0.6110 0.6110
15.263000 0.6110 0.6110 0.6130 0.6130 0.6130
15.297146 0.6150 0.6150 0.6150 0.6150 0.6150
15.331000 0.6150 0.6150 0.6160 0.6160 0.6160
15.365146 0.6160 0.6160 0.6160 0.6160 0.6160
15.399000 0.6160 0.6160 0.6160 0.6160 0.6160
15.433146 0.6160 0.6160 0.6160 0.6160 0.6160
15.468000 0.6160 0.6160 0.6160 0.6160 0.6160
15.502146 0.6160 0.6160 0.6160 0.6160 0.6160
15.536000 0.6160 0.6180 0.6160 0.6160 0.6160
15.570146 0.6160 0.6160 0.6160 0.6160 0.6160
15.604000 0.6160 0.6180 0.6160 0.6160 0.6160
15.638146 0.6160 0.6160 0.6160 0.6160 0.6160
15.672000 0.6160 0.6160 0.6160 0.6160 0.6160
15.706146 0.6160 0.6160 0.6160 0.6160 0.6160
15.741000 0.6160 0.6160 0.6160 0.6160 0.6160
15.775146 0.6160 0.6160 0.6160 0.6160 0.6160
15.809000 0.6180 0.6180 0.6160 0.6160 0.6150
15.843146 0.6150 0.6150 0.6150 0.6150 0.6150
15.877000 0.6160 0.6160 0.6150 0.6160 0.6160
15.911146 0.6160 0.6160 0.6160 0.6160 0.6160
15.945000 0.6160 0.6160 0.6160 0.6160 0.6160
15.979146 0.6160 0.6150
##END=
