##TITLE=SABINANE (CIS)
##JCAMP-DX=4.24
##DATA TYPE=INFRARED SPECTRUM
##CLASS=COBLENTZ
##ORIGIN=INTERNATIONAL FLAVORS & FRAGRANCES, INC.
##OWNER=COBLENTZ SOCIETY
Collection (C) 2018 copyright by the U.S. Secretary of Commerce
on behalf of the United States of America. All rights reserved.
##DATE=Not specified, most likely prior to 1970
##NAMES=1-isopropyl-4-methylbicyclo[3.1.0]hexane
##MOLFORM=C10 H18
##SOURCE REFERENCE=COBLENTZ NO. 4989
##$NIST ID=B6004989
##$NIST SOURCE=COBLENTZ
##$NIST IMAGE=cob4989
##SPECTROMETER/DATA SYSTEM=Not specified, most likely a prism, grating, or hybrid spectrometer.
##SAMPLING PROCEDURE=TRANSMISSION
##RESOLUTION=4
##DATA PROCESSING=DIGITIZED BY NIST FROM HARD COPY (FROM TWO SEGMENTS)
##XUNITS=MICROMETERS
##YUNITS=TRANSMITTANCE
##XFACTOR=1.000000
##YFACTOR=1
##DELTAX=0.006036
##FIRSTX=2.036
##LASTX=15.0013
##FIRSTY=0.946
##MAXX=15.0013
##MINX=2.036
##MAXY=0.969
##MINY=0.076
##NPOINTS=2149
##XYDATA=(X++(Y..Y))
2.036000 0.9460 0.9460 0.9460 0.9470 0.9470
2.066180 0.9470 0.9470 0.9470 0.9470 0.9470
2.096360 0.9488 0.9490 0.9490 0.9490 0.9490
2.126540 0.9490 0.9490 0.9490 0.9499 0.9491
2.156720 0.9471 0.9489 0.9490 0.9490 0.9490
2.186900 0.9490 0.9471 0.9470 0.9461 0.9441
2.217080 0.9440 0.9430 0.9400 0.9350 0.9300
2.247260 0.9290 0.9270 0.9210 0.9070 0.9030
2.277440 0.8975 0.8907 0.8864 0.8833 0.8785
2.307620 0.8753 0.8705 0.8691 0.8690 0.8699
2.337800 0.8700 0.8719 0.8739 0.8769 0.8808
2.367980 0.8839 0.8897 0.8938 0.8978 0.8999
2.398160 0.9011 0.9030 0.9040 0.9060 0.9070
2.428340 0.9070 0.9060 0.9060 0.9060 0.9060
2.458520 0.9032 0.9030 0.9012 0.9010 0.9010
2.488700 0.9028 0.9094 0.9118 0.9147 0.9150
2.518880 0.9170 0.9170 0.9170 0.9180 0.9180
2.549060 0.9199 0.9210 0.9229 0.9240 0.9288
2.579240 0.9290 0.9300 0.9300 0.9300 0.9300
2.609420 0.9300 0.9300 0.9300 0.9300 0.9300
2.639600 0.9300 0.9319 0.9320 0.9329 0.9367
2.669780 0.9379 0.9408 0.9428 0.9439 0.9440
2.699960 0.9460 0.9460 0.9460 0.9460 0.9460
2.730140 0.9460 0.9470 0.9470 0.9470 0.9470
2.760320 0.9470 0.9488 0.9490 0.9499 0.9518
2.790500 0.9520 0.9520 0.9520 0.9520 0.9520
2.820680 0.9520 0.9520 0.9520 0.9501 0.9500
2.850860 0.9491 0.9490 0.9490 0.9490 0.9471
2.881040 0.9460 0.9460 0.9460 0.9460 0.9460
2.911220 0.9440 0.9440 0.9430 0.9430 0.9430
2.941400 0.9430 0.9430 0.9430 0.9430 0.9412
2.971580 0.9410 0.9410 0.9410 0.9410 0.9410
3.001760 0.9429 0.9430 0.9430 0.9430 0.9440
3.031940 0.9440 0.9459 0.9460 0.9460 0.9460
3.062120 0.9460 0.9460 0.9440 0.9430 0.9399
3.092300 0.9299 0.9179 0.9100 0.9060 0.9030
3.122480 0.9012 0.9001 0.8982 0.8980 0.8980
3.152660 0.8971 0.8970 0.8970 0.8970 0.8970
3.182840 0.8980 0.8980 0.8980 0.8970 0.8941
3.213020 0.8073 0.7531 0.7289 0.6926 0.5841
3.243200 0.5814 0.6521 0.6526 0.6047 0.5567
3.273380 0.5457 0.5329 0.4808 0.3638 0.2925
3.303560 0.2557 0.2317 0.2125 0.1843 0.1333
3.333740 0.1107 0.1017 0.0937 0.0866 0.0787
3.363920 0.0760 0.0760 0.0760 0.0760 0.0760
3.394100 0.0780 0.0780 0.0790 0.0790 0.0790
3.424280 0.0808 0.0810 0.0810 0.0819 0.0855
3.454460 0.0973 0.1563 0.2196 0.2850 0.3509
3.484640 0.4227 0.4861 0.5396 0.6149 0.6358
3.514820 0.6723 0.6926 0.7070 0.7274 0.7677
3.545000 0.7750 0.7830 0.8009 0.8209 0.8428
3.575180 0.8460 0.8519 0.8569 0.8600 0.8600
3.605360 0.8609 0.8610 0.8610 0.8628 0.8630
3.635540 0.8630 0.8630 0.8612 0.8601 0.8600
3.665720 0.8628 0.8687 0.8737 0.8797 0.8857
3.695900 0.8917 0.8967 0.8970 0.8979 0.8999
3.726080 0.9040 0.9040 0.9060 0.9090 0.9090
3.756260 0.9090 0.9090 0.9090 0.9090 0.9090
3.786440 0.9090 0.9090 0.9090 0.9072 0.9070
3.816620 0.9043 0.9031 0.9012 0.9028 0.9039
3.846800 0.9069 0.9099 0.9129 0.9178 0.9209
3.876980 0.9229 0.9240 0.9259 0.9270 0.9298
3.907160 0.9321 0.9351 0.9381 0.9430 0.9430
3.937340 0.9440 0.9440 0.9460 0.9470 0.9490
3.967520 0.9490 0.9499 0.9500 0.9500 0.9500
3.997700 0.9518 0.9520 0.9520 0.9529 0.9530
4.027880 0.9530 0.9550 0.9550 0.9550 0.9560
4.058060 0.9560 0.9560 0.9579 0.9580 0.9580
4.088240 0.9580 0.9580 0.9580 0.9580 0.9580
4.118420 0.9580 0.9580 0.9563 0.9560 0.9551
4.148600 0.9531 0.9521 0.9520 0.9501 0.9491
4.178780 0.9490 0.9472 0.9461 0.9442 0.9440
4.208960 0.9460 0.9470 0.9500 0.9549 0.9580
4.239140 0.9600 0.9610 0.9639 0.9660 0.9660
4.269320 0.9660 0.9669 0.9670 0.9688 0.9690
4.299500 0.9690 0.9690 0.9690 0.9690 0.9690
4.329680 0.9690 0.9690 0.9690 0.9671 0.9670
4.359860 0.9661 0.9660 0.9632 0.9602 0.9563
4.390040 0.9550 0.9550 0.9550 0.9550 0.9550
4.420220 0.9560 0.9580 0.9580 0.9580 0.9580
4.450400 0.9580 0.9580 0.9580 0.9580 0.9580
4.480580 0.9580 0.9580 0.9580 0.9580 0.9580
4.510760 0.9580 0.9580 0.9580 0.9599 0.9600
4.540940 0.9610 0.9629 0.9639 0.9640 0.9659
4.571120 0.9660 0.9660 0.9670 0.9670 0.9670
4.601300 0.9670 0.9660 0.9660 0.9660 0.9640
4.631480 0.9631 0.9630 0.9612 0.9610 0.9601
4.661660 0.9600 0.9600 0.9600 0.9609 0.9610
4.691840 0.9610 0.9610 0.9629 0.9630 0.9630
4.722020 0.9630 0.9640 0.9640 0.9659 0.9670
4.752200 0.9670 0.9687 0.9690 0.9690 0.9690
4.782380 0.9690 0.9690 0.9673 0.9670 0.9670
4.812560 0.9661 0.9660 0.9632 0.9612 0.9601
4.842740 0.9563 0.9551 0.9532 0.9521 0.9493
4.872920 0.9470 0.9460 0.9460 0.9460 0.9460
4.903100 0.9470 0.9470 0.9489 0.9490 0.9500
4.933280 0.9518 0.9520 0.9520 0.9520 0.9529
4.963460 0.9530 0.9530 0.9530 0.9521 0.9520
4.993640 0.9520 0.9529 0.9530 0.9530 0.9530
5.023820 0.9530 0.9546 0.9558 0.9575 0.9580
5.054000 0.9593 0.9600 0.9607 0.9622 0.9630
5.084180 0.9630 0.9630 0.9620 0.9605 0.9600
5.114360 0.9600 0.9593 0.9580 0.9580 0.9580
5.144540 0.9580 0.9580 0.9581 0.9600 0.9600
5.174720 0.9610 0.9610 0.9639 0.9640 0.9640
5.204900 0.9640 0.9657 0.9660 0.9660 0.9645
5.235080 0.9640 0.9633 0.9630 0.9630 0.9617
5.265260 0.9604 0.9588 0.9580 0.9580 0.9580
5.295440 0.9580 0.9580 0.9572 0.9560 0.9556
5.325620 0.9543 0.9530 0.9527 0.9515 0.9500
5.355800 0.9500 0.9503 0.9523 0.9550 0.9579
5.385980 0.9598 0.9609 0.9610 0.9610 0.9602
5.416160 0.9585 0.9565 0.9560 0.9574 0.9594
5.446340 0.9600 0.9600 0.9600 0.9589 0.9580
5.476520 0.9580 0.9580 0.9580 0.9589 0.9604
5.506700 0.9618 0.9630 0.9630 0.9630 0.9630
5.536880 0.9630 0.9632 0.9640 0.9640 0.9638
5.567060 0.9623 0.9577 0.9549 0.9530 0.9530
5.597240 0.9530 0.9549 0.9559 0.9578 0.9603
5.627420 0.9624 0.9630 0.9630 0.9618 0.9610
5.657600 0.9610 0.9605 0.9590 0.9571 0.9560
5.687780 0.9556 0.9550 0.9554 0.9560 0.9560
5.717960 0.9560 0.9560 0.9560 0.9560 0.9560
5.748140 0.9560 0.9560 0.9559 0.9550 0.9549
5.778320 0.9530 0.9530 0.9520 0.9520 0.9520
5.808500 0.9520 0.9520 0.9503 0.9492 0.9490
5.838680 0.9475 0.9470 0.9470 0.9470 0.9470
5.868860 0.9470 0.9465 0.9460 0.9452 0.9429
5.899040 0.9407 0.9403 0.9410 0.9403 0.9378
5.929220 0.9370 0.9370 0.9370 0.9370 0.9370
5.959400 0.9371 0.9380 0.9380 0.9380 0.9370
5.989580 0.9352 0.9350 0.9332 0.9330 0.9330
6.019760 0.9330 0.9346 0.9350 0.9350 0.9350
6.049940 0.9363 0.9376 0.9380 0.9380 0.9359
6.080120 0.9330 0.9337 0.9376 0.9430 0.9430
6.110300 0.9425 0.9404 0.9380 0.9380 0.9380
6.140480 0.9380 0.9380 0.9380 0.9381 0.9410
6.170660 0.9410 0.9410 0.9400 0.9372 0.9370
6.200840 0.9370 0.9370 0.9370 0.9370 0.9377
6.231020 0.9380 0.9394 0.9400 0.9400 0.9400
6.261200 0.9400 0.9400 0.9400 0.9400 0.9400
6.291380 0.9400 0.9400 0.9393 0.9380 0.9380
6.321560 0.9384 0.9400 0.9400 0.9400 0.9400
6.351740 0.9400 0.9400 0.9400 0.9381 0.9380
6.381920 0.9380 0.9398 0.9409 0.9426 0.9430
6.412100 0.9430 0.9430 0.9430 0.9430 0.9416
6.442280 0.9410 0.9404 0.9400 0.9389 0.9375
6.472460 0.9370 0.9361 0.9341 0.9317 0.9296
6.502640 0.9278 0.9253 0.9237 0.9224 0.9207
6.532820 0.9195 0.9178 0.9167 0.9146 0.9120
6.563000 0.9072 0.9061 0.9042 0.9014 0.9002
6.593180 0.8960 0.8927 0.8883 0.8849 0.8797
6.623360 0.8738 0.8646 0.8572 0.8495 0.8391
6.653540 0.8297 0.8234 0.8181 0.8100 0.7974
6.683720 0.7768 0.7448 0.7000 0.6564 0.6328
6.713900 0.6111 0.5890 0.5643 0.5478 0.5261
6.744080 0.4688 0.3752 0.2955 0.2255 0.2071
6.774260 0.1899 0.1821 0.1753 0.1658 0.1641
6.804440 0.1625 0.1634 0.1716 0.1829 0.1920
6.834620 0.2021 0.2154 0.2321 0.2510 0.2704
6.864800 0.2888 0.3035 0.3125 0.3191 0.3251
6.894980 0.3300 0.3396 0.3488 0.3548 0.3752
6.925160 0.4125 0.4441 0.4809 0.5262 0.5903
6.955340 0.6133 0.6459 0.6711 0.6914 0.7080
6.985520 0.7218 0.7301 0.7364 0.7472 0.7625
7.015700 0.7744 0.7817 0.7869 0.7917 0.7971
7.045880 0.8054 0.8115 0.8129 0.8140 0.8140
7.076060 0.8140 0.8143 0.8150 0.8159 0.8185
7.106240 0.8200 0.8200 0.8200 0.8195 0.8166
7.136420 0.8138 0.8117 0.8085 0.7991 0.7633
7.166600 0.7226 0.6959 0.6732 0.6665 0.6651
7.196780 0.5626 0.4463 0.3293 0.3040 0.3164
7.226960 0.3238 0.3437 0.3610 0.3675 0.3666
7.257140 0.3289 0.2810 0.2898 0.3195 0.3538
7.287320 0.3695 0.3775 0.3824 0.3831 0.3758
7.317500 0.3590 0.3613 0.3895 0.5122 0.6039
7.347680 0.6253 0.6544 0.6711 0.7000 0.7029
7.377860 0.6741 0.6283 0.5959 0.5635 0.5297
7.408040 0.4562 0.4340 0.4607 0.4977 0.5338
7.438220 0.5915 0.6535 0.6955 0.7232 0.7463
7.468400 0.7652 0.7803 0.7918 0.7995 0.8065
7.498580 0.8149 0.8191 0.8243 0.8260 0.8258
7.528760 0.8226 0.8002 0.7741 0.7547 0.7412
7.558940 0.7400 0.7409 0.7526 0.7721 0.7775
7.589120 0.7780 0.7757 0.7552 0.7466 0.7474
7.619300 0.7590 0.7706 0.7828 0.7898 0.7916
7.649480 0.7947 0.8000 0.8068 0.8141 0.8214
7.679660 0.8286 0.8332 0.8357 0.8373 0.8377
7.709840 0.8362 0.8302 0.8165 0.8092 0.8006
7.740020 0.7980 0.7980 0.7999 0.8055 0.8139
7.770200 0.8286 0.8416 0.8503 0.8565 0.8602
7.800380 0.8632 0.8661 0.8684 0.8696 0.8725
7.830560 0.8746 0.8767 0.8790 0.8820 0.8854
7.860740 0.8883 0.8909 0.8920 0.8928 0.8940
7.890920 0.8934 0.8914 0.8897 0.8885 0.8864
7.921100 0.8831 0.8778 0.8701 0.8393 0.8167
7.951280 0.8042 0.7563 0.6706 0.6550 0.6697
7.981460 0.6896 0.7271 0.7562 0.7825 0.8103
8.011640 0.8295 0.8470 0.8596 0.8668 0.8741
8.041820 0.8794 0.8819 0.8849 0.8892 0.8932
8.072000 0.8957 0.8973 0.8986 0.9003 0.9010
8.102180 0.9010 0.9008 0.8994 0.8958 0.8890
8.132360 0.8820 0.8732 0.8628 0.8580 0.8570
8.162540 0.8570 0.8579 0.8676 0.8775 0.8829
8.192720 0.8874 0.8897 0.8912 0.8932 0.8946
8.222900 0.8961 0.8975 0.8990 0.9005 0.9024
8.253080 0.9048 0.9064 0.9077 0.9090 0.9093
8.283260 0.9100 0.9105 0.9120 0.9120 0.9120
8.313440 0.9117 0.9099 0.9088 0.9069 0.9060
8.343620 0.9060 0.9060 0.9041 0.9011 0.8954
8.373800 0.8878 0.8766 0.8683 0.8526 0.8321
8.403980 0.8071 0.7823 0.7743 0.7792 0.7900
8.434160 0.7989 0.8036 0.8086 0.8136 0.8187
8.464340 0.8191 0.8164 0.8112 0.8000 0.8014
8.494520 0.8120 0.8376 0.8514 0.8614 0.8727
8.524700 0.8802 0.8841 0.8870 0.8870 0.8899
8.554880 0.8919 0.8920 0.8920 0.8903 0.8892
8.585060 0.8843 0.8769 0.8685 0.8598 0.8452
8.615240 0.8243 0.8001 0.7793 0.7538 0.7343
8.645420 0.7285 0.7280 0.7285 0.7312 0.7362
8.675600 0.7423 0.7508 0.7584 0.7648 0.7694
8.705780 0.7722 0.7742 0.7772 0.7831 0.7918
8.735960 0.8039 0.8223 0.8314 0.8419 0.8508
8.766140 0.8570 0.8604 0.8625 0.8637 0.8654
8.796320 0.8660 0.8667 0.8670 0.8670 0.8664
8.826500 0.8631 0.8610 0.8625 0.8640 0.8640
8.856680 0.8640 0.8637 0.8623 0.8594 0.8555
8.886860 0.8473 0.8363 0.8231 0.8131 0.7977
8.917040 0.7881 0.7840 0.7840 0.7859 0.7915
8.947220 0.7938 0.7949 0.8016 0.8038 0.8063
8.977400 0.8070 0.8048 0.7954 0.7879 0.7847
9.007580 0.7852 0.7943 0.8022 0.8067 0.8120
9.037760 0.8178 0.8238 0.8293 0.8341 0.8370
9.067940 0.8374 0.8377 0.8346 0.8261 0.8145
9.098120 0.8012 0.7924 0.7834 0.7660 0.7457
9.128300 0.7244 0.7212 0.7210 0.7252 0.7463
9.158480 0.7627 0.7825 0.7993 0.8185 0.8332
9.188660 0.8437 0.8534 0.8613 0.8669 0.8723
9.218840 0.8766 0.8795 0.8820 0.8830 0.8834
9.249020 0.8840 0.8840 0.8840 0.8840 0.8840
9.279200 0.8840 0.8838 0.8830 0.8826 0.8808
9.309380 0.8800 0.8801 0.8810 0.8811 0.8830
9.339560 0.8830 0.8840 0.8840 0.8864 0.8870
9.369740 0.8848 0.8778 0.8710 0.8652 0.8564
9.399920 0.8452 0.8325 0.8028 0.7641 0.7372
9.430100 0.7099 0.6481 0.5783 0.5465 0.5250
9.460280 0.5320 0.5611 0.6018 0.6251 0.6487
9.490460 0.6719 0.6956 0.7363 0.7526 0.7672
9.520640 0.7833 0.7910 0.7949 0.7969 0.7970
9.550820 0.7951 0.7923 0.7911 0.7918 0.7960
9.581000 0.8063 0.8157 0.8244 0.8338 0.8411
9.611180 0.8481 0.8534 0.8563 0.8588 0.8612
9.641360 0.8634 0.8640 0.8640 0.8640 0.8640
9.671540 0.8640 0.8638 0.8626 0.8608 0.8596
9.701720 0.8561 0.8464 0.8366 0.8240 0.8047
9.731900 0.7883 0.7670 0.7476 0.7229 0.6882
9.762080 0.6598 0.6231 0.5859 0.5601 0.5435
9.792260 0.5293 0.5225 0.5220 0.5276 0.5401
9.822440 0.5504 0.5533 0.5479 0.5357 0.5185
9.852620 0.4946 0.4727 0.4461 0.4438 0.4522
9.882800 0.4835 0.5306 0.5942 0.6211 0.6433
9.912980 0.6627 0.6780 0.6906 0.7004 0.7183
9.943160 0.7332 0.7460 0.7643 0.7821 0.7943
9.973340 0.8100 0.8208 0.8287 0.8378 0.8481
10.003520 0.8575 0.8674 0.8764 0.8821 0.8864
10.033700 0.8895 0.8908 0.8926 0.8943 0.8957
10.063880 0.8986 0.9013 0.9031 0.9040 0.9041
10.094060 0.9060 0.9070 0.9090 0.9100 0.9119
10.124240 0.9120 0.9129 0.9130 0.9130 0.9130
10.154420 0.9130 0.9130 0.9130 0.9123 0.9120
10.184600 0.9107 0.9100 0.9094 0.9061 0.9024
10.214780 0.8990 0.8937 0.8872 0.8808 0.8722
10.244960 0.8612 0.8499 0.8376 0.8239 0.8140
10.275140 0.8055 0.8044 0.8070 0.8124 0.8211
10.305320 0.8347 0.8435 0.8495 0.8597 0.8678
10.335500 0.8731 0.8787 0.8823 0.8853 0.8867
10.365680 0.8884 0.8890 0.8890 0.8878 0.8870
10.395860 0.8870 0.8838 0.8775 0.8686 0.8548
10.426040 0.8419 0.8324 0.8217 0.8118 0.8034
10.456220 0.7977 0.7973 0.7987 0.8023 0.8081
10.486400 0.8129 0.8176 0.8218 0.8274 0.8310
10.516580 0.8309 0.8290 0.8271 0.8232 0.8206
10.546760 0.8200 0.8185 0.8159 0.8123 0.8078
10.576940 0.7993 0.7933 0.7915 0.7900 0.7890
10.607120 0.7900 0.7915 0.7942 0.7999 0.8070
10.637300 0.8137 0.8183 0.8224 0.8273 0.8319
10.667480 0.8357 0.8386 0.8415 0.8443 0.8460
10.697660 0.8461 0.8471 0.8490 0.8500 0.8490
10.727840 0.8448 0.8409 0.8340 0.8277 0.8219
10.758020 0.8115 0.7989 0.7880 0.7722 0.7539
10.788200 0.7355 0.7203 0.7116 0.7071 0.7056
10.818380 0.7054 0.7093 0.7193 0.7331 0.7469
10.848560 0.7548 0.7650 0.7726 0.7801 0.7903
10.878740 0.7978 0.8034 0.8073 0.8121 0.8150
10.908920 0.8150 0.8150 0.8121 0.8036 0.7949
10.939100 0.7914 0.7868 0.7788 0.7731 0.7698
10.969280 0.7683 0.7680 0.7680 0.7685 0.7728
10.999460 0.7788 0.7822 0.7871 0.7931 0.7995
11.029640 0.8133 0.8259 0.8337 0.8425 0.8481
11.059820 0.8529 0.8576 0.8619 0.8697 0.8772
11.090000 0.8801 0.8840 0.8890 0.8900 0.8938
11.120180 0.8977 0.9033 0.9066 0.9095 0.9116
11.150360 0.9128 0.9145 0.9165 0.9177 0.9194
11.180540 0.9220 0.9236 0.9252 0.9260 0.9265
11.210720 0.9270 0.9270 0.9266 0.9251 0.9225
11.240900 0.9210 0.9210 0.9210 0.9209 0.9200
11.271080 0.9199 0.9180 0.9170 0.9170 0.9170
11.301260 0.9170 0.9170 0.9170 0.9170 0.9170
11.331440 0.9170 0.9170 0.9170 0.9170 0.9170
11.361620 0.9170 0.9177 0.9193 0.9206 0.9222
11.391800 0.9235 0.9250 0.9260 0.9265 0.9270
11.421980 0.9270 0.9270 0.9266 0.9260 0.9254
11.452160 0.9237 0.9225 0.9208 0.9197 0.9179
11.482340 0.9150 0.9150 0.9093 0.9044 0.8978
11.512520 0.8927 0.8845 0.8742 0.8520 0.8290
11.542700 0.8149 0.7975 0.7802 0.7743 0.7746
11.572880 0.7816 0.7939 0.8059 0.8171 0.8305
11.603060 0.8449 0.8571 0.8647 0.8702 0.8772
11.633240 0.8830 0.8891 0.8956 0.9002 0.9016
11.663420 0.9042 0.9072 0.9120 0.9149 0.9169
11.693600 0.9179 0.9206 0.9235 0.9256 0.9260
11.723780 0.9260 0.9260 0.9260 0.9260 0.9260
11.753960 0.9260 0.9260 0.9260 0.9260 0.9260
11.784140 0.9250 0.9225 0.9196 0.9167 0.9138
11.814320 0.9112 0.9086 0.9050 0.9015 0.8972
11.844500 0.8948 0.8886 0.8694 0.8558 0.8320
11.874680 0.8008 0.7754 0.7478 0.7279 0.7230
11.904860 0.7230 0.7297 0.7429 0.7566 0.7702
11.935040 0.7789 0.7843 0.7892 0.7910 0.7916
11.965220 0.7936 0.7993 0.8088 0.8185 0.8281
11.995400 0.8379 0.8466 0.8554 0.8637 0.8709
12.025580 0.8764 0.8816 0.8868 0.8902 0.8948
12.055760 0.8989 0.9034 0.9061 0.9072 0.9090
12.085940 0.9100 0.9120 0.9130 0.9149 0.9150
12.116120 0.9150 0.9150 0.9150 0.9150 0.9150
12.146300 0.9165 0.9170 0.9170 0.9170 0.9170
12.176480 0.9170 0.9161 0.9150 0.9150 0.9143
12.206660 0.9130 0.9127 0.9106 0.9070 0.9062
12.236840 0.9031 0.8989 0.8929 0.8865 0.8824
12.267020 0.8765 0.8698 0.8630 0.8497 0.8371
12.297200 0.8236 0.8100 0.7965 0.7855 0.7782
12.327380 0.7722 0.7656 0.7610 0.7585 0.7580
12.357560 0.7594 0.7673 0.7792 0.7882 0.7967
12.387740 0.8064 0.8161 0.8239 0.8302 0.8374
12.417920 0.8446 0.8504 0.8556 0.8585 0.8617
12.448100 0.8663 0.8691 0.8701 0.8720 0.8740
12.478280 0.8750 0.8779 0.8799 0.8827 0.8839
12.508460 0.8840 0.8856 0.8868 0.8870 0.8870
12.538640 0.8870 0.8884 0.8890 0.8890 0.8890
12.568820 0.8890 0.8890 0.8890 0.8890 0.8890
12.599000 0.8890 0.8890 0.8893 0.8900 0.8900
12.629180 0.8900 0.8900 0.8900 0.8900 0.8901
12.659360 0.8920 0.8920 0.8920 0.8920 0.8920
12.689540 0.8902 0.8874 0.8862 0.8860 0.8860
12.719720 0.8860 0.8860 0.8860 0.8860 0.8860
12.749900 0.8860 0.8866 0.8882 0.8895 0.8910
12.780080 0.8920 0.8930 0.8931 0.8911 0.8884
12.810260 0.8849 0.8820 0.8791 0.8756 0.8712
12.840440 0.8686 0.8670 0.8670 0.8660 0.8660
12.870620 0.8670 0.8670 0.8697 0.8717 0.8720
12.900800 0.8736 0.8748 0.8766 0.8793 0.8807
12.930980 0.8810 0.8823 0.8817 0.8804 0.8789
12.961160 0.8764 0.8745 0.8730 0.8710 0.8668
12.991340 0.8596 0.8518 0.8445 0.8373 0.8293
13.021520 0.8200 0.8085 0.7937 0.7763 0.7552
13.051700 0.7298 0.7008 0.6845 0.6699 0.6550
13.081880 0.6540 0.6550 0.6660 0.6760 0.6934
13.112060 0.7039 0.7159 0.7274 0.7400 0.7493
13.142240 0.7590 0.7701 0.7826 0.7901 0.7915
13.172420 0.7972 0.8065 0.8139 0.8191 0.8238
13.202600 0.8306 0.8357 0.8419 0.8484 0.8525
13.232780 0.8548 0.8591 0.8644 0.8672 0.8693
13.262960 0.8721 0.8740 0.8750 0.8800 0.8810
13.293140 0.8838 0.8858 0.8887 0.8899 0.8916
13.323320 0.8936 0.8940 0.8947 0.8950 0.8950
13.353500 0.8950 0.8950 0.8959 0.8970 0.8970
13.383680 0.8970 0.8973 0.8977 0.8970 0.8970
13.413860 0.8970 0.8970 0.8970 0.8970 0.8970
13.444040 0.8970 0.8970 0.8970 0.8970 0.8950
13.474220 0.8950 0.8940 0.8940 0.8940 0.8940
13.504400 0.8940 0.8924 0.8920 0.8920 0.8920
13.534580 0.8920 0.8909 0.8900 0.8900 0.8887
13.564760 0.8866 0.8860 0.8860 0.8860 0.8854
13.594940 0.8840 0.8840 0.8838 0.8826 0.8810
13.625120 0.8810 0.8809 0.8798 0.8779 0.8769
13.655300 0.8750 0.8739 0.8691 0.8671 0.8661
13.685480 0.8633 0.8613 0.8602 0.8584 0.8572
13.715660 0.8555 0.8527 0.8506 0.8493 0.8477
13.745840 0.8432 0.8392 0.8374 0.8343 0.8295
13.776020 0.8266 0.8244 0.8207 0.8192 0.8163
13.806200 0.8140 0.8137 0.8120 0.8119 0.8108
13.836380 0.8090 0.8090 0.8090 0.8090 0.8109
13.866560 0.8110 0.8110 0.8119 0.8137 0.8165
13.896740 0.8194 0.8224 0.8238 0.8255 0.8281
13.926920 0.8310 0.8333 0.8358 0.8376 0.8391
13.957100 0.8405 0.8420 0.8435 0.8450 0.8460
13.987280 0.8464 0.8470 0.8477 0.8490 0.8493
14.017460 0.8500 0.8504 0.8520 0.8521 0.8540
14.047640 0.8550 0.8550 0.8550 0.8568 0.8570
14.077820 0.8570 0.8578 0.8580 0.8580 0.8595
14.108000 0.8600 0.8600 0.8600 0.8600 0.8588
14.138180 0.8580 0.8580 0.8580 0.8580 0.8580
14.168360 0.8580 0.8580 0.8576 0.8570 0.8563
14.198540 0.8550 0.8547 0.8540 0.8535 0.8520
14.228720 0.8516 0.8498 0.8490 0.8488 0.8470
14.258900 0.8470 0.8460 0.8460 0.8443 0.8440
14.289080 0.8440 0.8433 0.8430 0.8416 0.8403
14.319260 0.8388 0.8374 0.8359 0.8344 0.8329
14.349440 0.8315 0.8262 0.8196 0.8176 0.8150
14.379620 0.8109 0.8070 0.8012 0.7945 0.7849
14.409800 0.7765 0.7750 0.7748 0.7740 0.7740
14.439980 0.7741 0.7751 0.7770 0.7770 0.7796
14.470160 0.7800 0.7832 0.7871 0.7887 0.7925
14.500340 0.7947 0.7963 0.7976 0.7992 0.8006
14.530520 0.8010 0.8021 0.8035 0.8040 0.8049
14.560700 0.8060 0.8071 0.8097 0.8113 0.8129
14.590880 0.8156 0.8170 0.8172 0.8180 0.8180
14.621060 0.8180 0.8180 0.8180 0.8179 0.8170
14.651240 0.8170 0.8170 0.8170 0.8151 0.8141
14.681420 0.8122 0.8120 0.8120 0.8112 0.8110
14.711600 0.8110 0.8110 0.8110 0.8110 0.8110
14.741780 0.8101 0.8090 0.8078 0.8049 0.8023
14.771960 0.8007 0.7994 0.7980 0.7977 0.7970
14.802140 0.7970 0.7967 0.7950 0.7949 0.7938
14.832320 0.7909 0.7890 0.7889 0.7860 0.7831
14.862500 0.7802 0.7773 0.7744 0.7723 0.7712
14.892680 0.7687 0.7649 0.7632 0.7608 0.7565
14.922860 0.7523 0.7472 0.7438 0.7418 0.7388
14.953040 0.7355 0.7340 0.7333 0.7317 0.7302
14.983220 0.7280 0.7276 0.7258 0.7252
##END=
