##TITLE=Pentadecanoic acid, 2-(dimethylamino)ethyl ester
##JCAMP-DX=4.24
##DATA TYPE=INFRARED SPECTRUM
##CLASS=COBLENTZ III
##ORIGIN=DOW CHEMICAL COMPANY
##OWNER=Copyright (C) 1987 by the Coblentz Society
Collection (C) 2018 copyright by the U.S. Secretary of Commerce
on behalf of the United States of America. All rights reserved.
##DATE=1963/10/18
##NAMES=2-(dimethylamino)ethyl pentadecanoate
##MOLFORM=C19 H39 N O2
##SOURCE REFERENCE=COBLENTZ NO. 8061
##$NIST ID=B6008061
##$NIST SOURCE=COBLENTZ
##$NIST IMAGE=cob8061
##SPECTROMETER/DATA SYSTEM=DOW KBr FOREPRISM-GRATING
##INSTRUMENT PARAMETERS=BLAZED AT 3.5, 12.0, 20.0 MICRON AND CHANGED AT 5.0, 7.5, 14.9 MICRON
##STATE=SOLUTION (10% CCl4 FOR 3800-1330, 10% CS2 FOR 1330-400 CM^-^1)
##PATH LENGTH=0.011 CM, 0.011 CM
$$SPECTRAL CONTAMINATION DUE TO CS2 AROUND 850, CCl4 AROUND 1550, AND AN UNKNOWN AROUND 400 CM^-^1
##SAMPLING PROCEDURE=TRANSMISSION
##RESOLUTION=2
##DATA PROCESSING=DIGITIZED BY COBLENTZ SOCIETY (BATCH II) FROM HARD COPY
##XUNITS=1/CM
##YUNITS=TRANSMITTANCE
##XFACTOR=1.0
##YFACTOR=1
##FIRSTX=383
##LASTX=3802
##FIRSTY=0.3055
##MAXX=3802
##MINX=383
##MAXY=0.9407
##MINY=0.0102
##NPOINTS=3420
##XYDATA=(X++(Y..Y))
383.000000 0.3055 0.3096 0.3139 0.3183 0.3228
388.000000 0.3273 0.3327 0.3387 0.3447 0.3507
393.000000 0.3586 0.3671 0.3756 0.3900 0.4122
398.000000 0.4392 0.4661 0.4931 0.5200 0.5448
403.000000 0.5597 0.5829 0.6063 0.6454 0.6582
408.000000 0.6751 0.6978 0.7101 0.7275 0.7468
413.000000 0.7678 0.7851 0.7996 0.8107 0.8215
418.000000 0.8288 0.8359 0.8414 0.8469 0.8517
423.000000 0.8554 0.8591 0.8628 0.8648 0.8667
428.000000 0.8685 0.8703 0.8721 0.8738 0.8756
433.000000 0.8773 0.8791 0.8811 0.8831 0.8851
438.000000 0.8871 0.8887 0.8903 0.8919 0.8936
443.000000 0.8950 0.8965 0.8979 0.8994 0.9008
448.000000 0.9024 0.9041 0.9058 0.9077 0.9099
453.000000 0.9125 0.9151 0.9197 0.9247 0.9289
458.000000 0.9313 0.9331 0.9350 0.9360 0.9370
463.000000 0.9377 0.9381 0.9385 0.9389 0.9393
468.000000 0.9394 0.9393 0.9393 0.9392 0.9407
473.000000 0.9390 0.9388 0.9387 0.9385 0.9384
478.000000 0.9382 0.9377 0.9373 0.9368 0.9364
483.000000 0.9359 0.9355 0.9347 0.9340 0.9332
488.000000 0.9324 0.9317 0.9306 0.9295 0.9285
493.000000 0.9274 0.9263 0.9252 0.9237 0.9222
498.000000 0.9207 0.9192 0.9178 0.9164 0.9150
503.000000 0.9136 0.9122 0.9109 0.9098 0.9086
508.000000 0.9075 0.9064 0.9047 0.9020 0.8993
513.000000 0.8971 0.8950 0.8929 0.8908 0.8892
518.000000 0.8876 0.8860 0.8845 0.8834 0.8829
523.000000 0.8829 0.8829 0.8829 0.8822 0.8838
528.000000 0.8844 0.8850 0.8855 0.8861 0.8866
533.000000 0.8872 0.8880 0.8888 0.8896 0.8907
538.000000 0.8922 0.8936 0.8950 0.8965 0.8979
543.000000 0.8994 0.9008 0.9023 0.9037 0.9052
548.000000 0.9066 0.9080 0.9100 0.9120 0.9140
553.000000 0.9156 0.9167 0.9178 0.9191 0.9203
558.000000 0.9204 0.9204 0.9204 0.9203 0.9200
563.000000 0.9197 0.9194 0.9192 0.9184 0.9175
568.000000 0.9167 0.9158 0.9150 0.9142 0.9134
573.000000 0.9125 0.9117 0.9118 0.9120 0.9123
578.000000 0.9128 0.9130 0.9135 0.9140 0.9145
583.000000 0.9151 0.9155 0.9160 0.9165 0.9169
588.000000 0.9173 0.9177 0.9181 0.9184 0.9188
593.000000 0.9190 0.9191 0.9193 0.9195 0.9196
598.000000 0.9198 0.9200 0.9201 0.9199 0.9197
603.000000 0.9195 0.9194 0.9192 0.9190 0.9188
608.000000 0.9186 0.9184 0.9182 0.9180 0.9178
613.000000 0.9175 0.9173 0.9171 0.9169 0.9165
618.000000 0.9160 0.9156 0.9149 0.9142 0.9135
623.000000 0.9128 0.9120 0.9108 0.9095 0.9082
628.000000 0.9070 0.9056 0.9040 0.9024 0.9008
633.000000 0.8988 0.8966 0.8944 0.8922 0.8896
638.000000 0.8864 0.8833 0.8793 0.8749 0.8706
643.000000 0.8664 0.8626 0.8594 0.8572 0.8556
648.000000 0.8560 0.8563 0.8575 0.8603 0.8651
653.000000 0.8696 0.8758 0.8826 0.8882 0.8930
658.000000 0.8965 0.9001 0.9042 0.9082 0.9121
663.000000 0.9150 0.9179 0.9197 0.9221 0.9206
668.000000 0.9203 0.9199 0.9195 0.9191 0.9184
673.000000 0.9176 0.9168 0.9159 0.9151 0.9141
678.000000 0.9131 0.9121 0.9109 0.9096 0.9083
683.000000 0.9071 0.9056 0.9038 0.9021 0.9003
688.000000 0.8986 0.8970 0.8953 0.8936 0.8919
693.000000 0.8891 0.8862 0.8834 0.8801 0.8769
698.000000 0.8735 0.8696 0.8658 0.8615 0.8566
703.000000 0.8516 0.8464 0.8400 0.8337 0.8264
708.000000 0.8181 0.8096 0.8010 0.7872 0.7702
713.000000 0.7541 0.7263 0.7122 0.7028 0.6941
718.000000 0.6916 0.6924 0.6944 0.7170 0.7316
723.000000 0.7434 0.7535 0.7627 0.7705 0.7779
728.000000 0.7852 0.7909 0.7954 0.8000 0.8046
733.000000 0.8092 0.8136 0.8181 0.8226 0.8268
738.000000 0.8308 0.8348 0.8377 0.8405 0.8426
743.000000 0.8438 0.8450 0.8456 0.8456 0.8456
748.000000 0.8452 0.8448 0.8442 0.8431 0.8421
753.000000 0.8411 0.8398 0.8385 0.8371 0.8356
758.000000 0.8332 0.8307 0.8278 0.8246 0.8215
763.000000 0.8184 0.8152 0.8122 0.8093 0.8063
768.000000 0.8034 0.8004 0.7974 0.7934 0.7895
773.000000 0.7855 0.7815 0.7758 0.7697 0.7630
778.000000 0.7536 0.7456 0.7417 0.7416 0.7424
783.000000 0.7437 0.7459 0.7496 0.7554 0.7619
788.000000 0.7686 0.7783 0.7888 0.8004 0.8120
793.000000 0.8188 0.8255 0.8326 0.8392 0.8423
798.000000 0.8413 0.8412 0.8411 0.8409 0.8406
803.000000 0.8401 0.8395 0.8390 0.8380 0.8370
808.000000 0.8360 0.8346 0.8330 0.8314 0.8298
813.000000 0.8280 0.8261 0.8242 0.8224 0.8204
818.000000 0.8179 0.8154 0.8129 0.8104 0.8079
823.000000 0.8044 0.8009 0.7973 0.7938 0.7898
828.000000 0.7857 0.7816 0.7770 0.7721 0.7672
833.000000 0.7622 0.7565 0.7509 0.7451 0.7388
838.000000 0.7326 0.7264 0.7180 0.7065 0.6952
843.000000 0.6840 0.6777 0.6720 0.6664 0.6606
848.000000 0.6565 0.6549 0.6547 0.6547 0.6547
853.000000 0.6558 0.6572 0.6589 0.6621 0.6658
858.000000 0.6699 0.6763 0.6821 0.6877 0.6931
863.000000 0.6976 0.7021 0.7065 0.7112 0.7165
868.000000 0.7219 0.7272 0.7315 0.7350 0.7385
873.000000 0.7421 0.7456 0.7491 0.7535 0.7583
878.000000 0.7631 0.7679 0.7722 0.7765 0.7808
883.000000 0.7851 0.7890 0.7929 0.7968 0.8006
888.000000 0.8040 0.8073 0.8107 0.8135 0.8160
893.000000 0.8184 0.8206 0.8226 0.8241 0.8247
898.000000 0.8247 0.8246 0.8246 0.8245 0.8244
903.000000 0.8243 0.8242 0.8241 0.8240 0.8239
908.000000 0.8238 0.8237 0.8236 0.8239 0.8242
913.000000 0.8246 0.8250 0.8257 0.8266 0.8275
918.000000 0.8285 0.8294 0.8303 0.8312 0.8312
923.000000 0.8312 0.8311 0.8311 0.8317 0.8306
928.000000 0.8303 0.8300 0.8297 0.8284 0.8271
933.000000 0.8258 0.8243 0.8216 0.8190 0.8162
938.000000 0.8123 0.8082 0.8028 0.7973 0.7897
943.000000 0.7840 0.7787 0.7745 0.7714 0.7686
948.000000 0.7510 0.7202 0.6973 0.6978 0.6987
953.000000 0.7008 0.7029 0.7056 0.7078 0.7095
958.000000 0.7113 0.7132 0.7150 0.7170 0.7191
963.000000 0.7210 0.7228 0.7246 0.7266 0.7302
968.000000 0.7339 0.7387 0.7431 0.7469 0.7508
973.000000 0.7522 0.7532 0.7542 0.7542 0.7540
978.000000 0.7538 0.7549 0.7533 0.7526 0.7519
983.000000 0.7512 0.7505 0.7495 0.7481 0.7468
988.000000 0.7451 0.7428 0.7403 0.7374 0.7345
993.000000 0.7297 0.7240 0.7187 0.7136 0.7085
998.000000 0.7033 0.6982 0.6929 0.6877 0.6823
1003.000000 0.6759 0.6696 0.6632 0.6568 0.6490
1008.000000 0.6405 0.6321 0.6248 0.6179 0.6110
1013.000000 0.6042 0.5974 0.5906 0.5837 0.5759
1018.000000 0.5681 0.5603 0.5518 0.5434 0.5349
1023.000000 0.5240 0.5151 0.5088 0.5025 0.4962
1028.000000 0.4909 0.4861 0.4812 0.4775 0.4748
1033.000000 0.4731 0.4714 0.4667 0.4589 0.4528
1038.000000 0.4479 0.4467 0.4485 0.4616 0.4917
1043.000000 0.5218 0.5519 0.5821 0.6122 0.6295
1048.000000 0.6327 0.6334 0.6331 0.6325 0.6312
1053.000000 0.6295 0.6273 0.6256 0.6241 0.6232
1058.000000 0.6230 0.6232 0.6244 0.6258 0.6278
1063.000000 0.6305 0.6321 0.6326 0.6337 0.6322
1068.000000 0.6318 0.6313 0.6305 0.6298 0.6291
1073.000000 0.6286 0.6280 0.6272 0.6263 0.6240
1078.000000 0.6214 0.6181 0.6147 0.6110 0.6067
1083.000000 0.6025 0.5988 0.5953 0.5919 0.5892
1088.000000 0.5869 0.5847 0.5832 0.5771 0.5524
1093.000000 0.5187 0.5083 0.4994 0.4993 0.5080
1098.000000 0.5264 0.5316 0.5314 0.5307 0.5238
1103.000000 0.5160 0.5083 0.5005 0.4928 0.4844
1108.000000 0.4729 0.4688 0.4674 0.4673 0.4668
1113.000000 0.4690 0.4724 0.4787 0.4872 0.4971
1118.000000 0.5195 0.5306 0.5407 0.5503 0.5595
1123.000000 0.5746 0.6330 0.6466 0.6523 0.6529
1128.000000 0.6536 0.6525 0.6515 0.6499 0.6470
1133.000000 0.6398 0.6282 0.6176 0.5933 0.5679
1138.000000 0.5425 0.5171 0.4917 0.4663 0.4409
1143.000000 0.4155 0.3901 0.3676 0.3465 0.3340
1148.000000 0.3217 0.3018 0.2745 0.2542 0.2386
1153.000000 0.2318 0.2250 0.2180 0.2108 0.2039
1158.000000 0.1971 0.1919 0.1867 0.1820 0.1783
1163.000000 0.1769 0.1764 0.1759 0.1761 0.1743
1168.000000 0.1780 0.1803 0.1838 0.1878 0.1918
1173.000000 0.1955 0.1991 0.2087 0.2193 0.2299
1178.000000 0.2404 0.2493 0.2595 0.2691 0.2764
1183.000000 0.2830 0.2909 0.2997 0.3070 0.3150
1188.000000 0.3237 0.3327 0.3392 0.3445 0.3498
1193.000000 0.3558 0.3626 0.3693 0.3767 0.3839
1198.000000 0.3909 0.3975 0.4028 0.4081 0.4128
1203.000000 0.4175 0.4212 0.4241 0.4270 0.4299
1208.000000 0.4328 0.4357 0.4383 0.4405 0.4425
1213.000000 0.4441 0.4474 0.4450 0.4451 0.4448
1218.000000 0.4445 0.4440 0.4435 0.4428 0.4420
1223.000000 0.4411 0.4397 0.4382 0.4363 0.4339
1228.000000 0.4310 0.4277 0.4242 0.4193 0.4155
1233.000000 0.4116 0.4080 0.4067 0.4061 0.4067
1238.000000 0.4073 0.4085 0.4100 0.4124 0.4152
1243.000000 0.4186 0.4225 0.4266 0.4313 0.4344
1248.000000 0.4360 0.4362 0.4367 0.4359 0.4353
1253.000000 0.4347 0.4340 0.4316 0.4282 0.4242
1258.000000 0.4212 0.4200 0.4196 0.4193 0.4193
1263.000000 0.4193 0.4176 0.4192 0.4192 0.4198
1268.000000 0.4204 0.4210 0.4216 0.4231 0.4249
1273.000000 0.4268 0.4287 0.4308 0.4333 0.4358
1278.000000 0.4373 0.4378 0.4383 0.4388 0.4393
1283.000000 0.4398 0.4412 0.4428 0.4445 0.4462
1288.000000 0.4488 0.4521 0.4554 0.4587 0.4623
1293.000000 0.4662 0.4701 0.4740 0.4779 0.4830
1298.000000 0.4884 0.4939 0.4993 0.5053 0.5112
1303.000000 0.5171 0.5235 0.5299 0.5366 0.5441
1308.000000 0.5516 0.5581 0.5630 0.5679 0.5728
1313.000000 0.5774 0.5819 0.5863 0.5908 0.5985
1318.000000 0.6064 0.6160 0.6262 0.6296 0.6323
1323.000000 0.6352 0.6399 0.6695 0.6746 0.6756
1328.000000 0.6762 0.6768 0.6758 0.6752 0.6747
1333.000000 0.6725 0.6700 0.6668 0.6630 0.6589
1338.000000 0.6550 0.6510 0.6462 0.6410 0.6367
1343.000000 0.6328 0.6291 0.6259 0.6226 0.6192
1348.000000 0.6183 0.6195 0.6209 0.6232 0.6260
1353.000000 0.6298 0.6346 0.6397 0.6437 0.6449
1358.000000 0.6451 0.6446 0.6432 0.6404 0.6362
1363.000000 0.6307 0.6241 0.6190 0.6114 0.5951
1368.000000 0.5862 0.5807 0.5751 0.5682 0.5627
1373.000000 0.5594 0.5586 0.5588 0.5597 0.5593
1378.000000 0.5747 0.6129 0.6511 0.6890 0.6927
1383.000000 0.6931 0.6926 0.6915 0.6894 0.6870
1388.000000 0.6841 0.6812 0.6791 0.6792 0.6802
1393.000000 0.6815 0.6827 0.6852 0.6899 0.6962
1398.000000 0.7031 0.7145 0.7333 0.7501 0.7589
1403.000000 0.7631 0.7649 0.7652 0.7645 0.7629
1408.000000 0.7607 0.7578 0.7460 0.7332 0.7205
1413.000000 0.7077 0.6950 0.6846 0.6790 0.6779
1418.000000 0.6785 0.6809 0.6880 0.6945 0.6990
1423.000000 0.6990 0.6988 0.6984 0.6977 0.6966
1428.000000 0.6949 0.6910 0.6837 0.6729 0.6634
1433.000000 0.6538 0.6429 0.6309 0.6173 0.5976
1438.000000 0.5766 0.5564 0.5396 0.5192 0.4898
1443.000000 0.4727 0.4676 0.4634 0.4606 0.4576
1448.000000 0.4542 0.4446 0.4128 0.3811 0.3493
1453.000000 0.3175 0.2858 0.2540 0.2510 0.2503
1458.000000 0.2497 0.2483 0.2461 0.2367 0.2297
1463.000000 0.2210 0.2064 0.2005 0.1989 0.1993
1468.000000 0.2008 0.2453 0.3109 0.3765 0.4421
1473.000000 0.5077 0.5491 0.5719 0.5903 0.6050
1478.000000 0.6206 0.6733 0.6874 0.7309 0.7386
1483.000000 0.7449 0.7493 0.7536 0.7564 0.7583
1488.000000 0.7547 0.7586 0.7585 0.7578 0.7570
1493.000000 0.7559 0.7548 0.7536 0.7517 0.7497
1498.000000 0.7475 0.7450 0.7424 0.7393 0.7362
1503.000000 0.7329 0.7294 0.7259 0.7224 0.7189
1508.000000 0.7150 0.7110 0.7071 0.7031 0.6990
1513.000000 0.6950 0.6910 0.6869 0.6824 0.6775
1518.000000 0.6727 0.6678 0.6637 0.6595 0.6554
1523.000000 0.6513 0.6471 0.6425 0.6378 0.6330
1528.000000 0.6284 0.6237 0.6191 0.6145 0.6090
1533.000000 0.6024 0.5958 0.5862 0.5753 0.5629
1538.000000 0.5490 0.5287 0.5114 0.5017 0.4890
1543.000000 0.4802 0.4772 0.4756 0.4755 0.4757
1548.000000 0.4761 0.4768 0.4778 0.4786 0.4803
1553.000000 0.4824 0.4852 0.4896 0.4986 0.5180
1558.000000 0.5298 0.5388 0.5467 0.5547 0.5629
1563.000000 0.5710 0.5816 0.5923 0.6036 0.6139
1568.000000 0.6229 0.6293 0.6350 0.6397 0.6430
1573.000000 0.6450 0.6468 0.6487 0.6502 0.6513
1578.000000 0.6524 0.6534 0.6548 0.6565 0.6583
1583.000000 0.6600 0.6617 0.6639 0.6669 0.6700
1588.000000 0.6744 0.6792 0.6855 0.6961 0.7062
1593.000000 0.7158 0.7254 0.7346 0.7438 0.7529
1598.000000 0.7616 0.7702 0.7789 0.7874 0.7960
1603.000000 0.8045 0.8121 0.8197 0.8277 0.8360
1608.000000 0.8433 0.8486 0.8538 0.8583 0.8612
1613.000000 0.8642 0.8663 0.8678 0.8692 0.8707
1618.000000 0.8722 0.8740 0.8757 0.8775 0.8791
1623.000000 0.8807 0.8822 0.8835 0.8841 0.8848
1628.000000 0.8855 0.8861 0.8866 0.8872 0.8877
1633.000000 0.8879 0.8880 0.8864 0.8882 0.8883
1638.000000 0.8883 0.8882 0.8878 0.8875 0.8871
1643.000000 0.8868 0.8864 0.8861 0.8856 0.8849
1648.000000 0.8843 0.8837 0.8831 0.8825 0.8818
1653.000000 0.8812 0.8806 0.8800 0.8793 0.8786
1658.000000 0.8778 0.8771 0.8763 0.8756 0.8748
1663.000000 0.8741 0.8733 0.8726 0.8716 0.8705
1668.000000 0.8694 0.8684 0.8673 0.8662 0.8641
1673.000000 0.8614 0.8587 0.8560 0.8533 0.8506
1678.000000 0.8473 0.8438 0.8403 0.8368 0.8328
1683.000000 0.8284 0.8240 0.8196 0.8152 0.8114
1688.000000 0.8078 0.8041 0.8004 0.7968 0.7931
1693.000000 0.7894 0.7856 0.7818 0.7780 0.7748
1698.000000 0.7729 0.7709 0.7689 0.7664 0.7634
1703.000000 0.7605 0.7569 0.7509 0.7450 0.7390
1708.000000 0.7330 0.7270 0.7147 0.7019 0.6844
1713.000000 0.6642 0.6330 0.6070 0.5883 0.4951
1718.000000 0.4435 0.3879 0.3322 0.2765 0.2209
1723.000000 0.1415 0.1279 0.1159 0.1039 0.0914
1728.000000 0.0786 0.0575 0.0380 0.0337 0.0324
1733.000000 0.0322 0.0326 0.0334 0.0342 0.0352
1738.000000 0.0373 0.0409 0.0482 0.0589 0.0788
1743.000000 0.1054 0.1146 0.1409 0.2024 0.2639
1748.000000 0.3253 0.3868 0.4483 0.5113 0.5210
1753.000000 0.5345 0.6083 0.6332 0.6478 0.6771
1758.000000 0.6952 0.7089 0.7212 0.7313 0.7412
1763.000000 0.7513 0.7615 0.7685 0.7755 0.7825
1768.000000 0.7897 0.7970 0.8052 0.8136 0.8189
1773.000000 0.8243 0.8295 0.8346 0.8396 0.8445
1778.000000 0.8493 0.8532 0.8560 0.8586 0.8609
1783.000000 0.8631 0.8654 0.8666 0.8676 0.8686
1788.000000 0.8696 0.8706 0.8717 0.8728 0.8738
1793.000000 0.8749 0.8760 0.8772 0.8783 0.8795
1798.000000 0.8807 0.8817 0.8824 0.8832 0.8840
1803.000000 0.8848 0.8856 0.8864 0.8871 0.8876
1808.000000 0.8882 0.8886 0.8890 0.8894 0.8898
1813.000000 0.8901 0.8905 0.8909 0.8912 0.8916
1818.000000 0.8920 0.8924 0.8928 0.8932 0.8936
1823.000000 0.8939 0.8943 0.8947 0.8951 0.8954
1828.000000 0.8954 0.8954 0.8956 0.8958 0.8961
1833.000000 0.8964 0.8966 0.8969 0.8972 0.8974
1838.000000 0.8977 0.8980 0.8982 0.8984 0.8986
1843.000000 0.8988 0.8990 0.8992 0.8994 0.8996
1848.000000 0.8998 0.9000 0.9002 0.9004 0.9006
1853.000000 0.9008 0.9010 0.9012 0.9014 0.9016
1858.000000 0.9017 0.9019 0.9021 0.9023 0.9025
1863.000000 0.9027 0.9028 0.9030 0.9032 0.9034
1868.000000 0.9036 0.9038 0.9040 0.9042 0.9044
1873.000000 0.9046 0.9049 0.9051 0.9053 0.9053
1878.000000 0.9054 0.9054 0.9054 0.9054 0.9055
1883.000000 0.9055 0.9055 0.9056 0.9056 0.9056
1888.000000 0.9057 0.9057 0.9057 0.9057 0.9057
1893.000000 0.9057 0.9057 0.9057 0.9057 0.9057
1898.000000 0.9057 0.9057 0.9057 0.9057 0.9057
1903.000000 0.9057 0.9056 0.9056 0.9056 0.9055
1908.000000 0.9055 0.9066 0.9054 0.9054 0.9054
1913.000000 0.9053 0.9053 0.9052 0.9051 0.9050
1918.000000 0.9050 0.9049 0.9048 0.9047 0.9046
1923.000000 0.9046 0.9045 0.9044 0.9043 0.9042
1928.000000 0.9042 0.9042 0.9042 0.9042 0.9042
1933.000000 0.9042 0.9042 0.9042 0.9042 0.9042
1938.000000 0.9042 0.9042 0.9042 0.9044 0.9046
1943.000000 0.9048 0.9051 0.9053 0.9055 0.9058
1948.000000 0.9061 0.9066 0.9072 0.9081 0.9093
1953.000000 0.9106 0.9117 0.9128 0.9138 0.9147
1958.000000 0.9142 0.9128 0.9091 0.9038 0.9007
1963.000000 0.9002 0.8999 0.8996 0.8994 0.8992
1968.000000 0.8989 0.8986 0.8983 0.8981 0.8978
1973.000000 0.8974 0.8971 0.8967 0.8964 0.8960
1978.000000 0.8956 0.8952 0.8945 0.8939 0.8932
1983.000000 0.8926 0.8919 0.8912 0.8900 0.8886
1988.000000 0.8873 0.8860 0.8839 0.8814 0.8788
1993.000000 0.8762 0.8738 0.8740 0.8741 0.8742
1998.000000 0.8754 0.8771 0.8792 0.8797 0.8803
2003.000000 0.8803 0.8803 0.8803 0.8803 0.8802
2008.000000 0.8802 0.8801 0.8801 0.8800 0.8800
2013.000000 0.8799 0.8799 0.8798 0.8798 0.8795
2018.000000 0.8793 0.8790 0.8787 0.8784 0.8782
2023.000000 0.8779 0.8776 0.8773 0.8770 0.8767
2028.000000 0.8764 0.8761 0.8759 0.8756 0.8754
2033.000000 0.8753 0.8752 0.8751 0.8750 0.8749
2038.000000 0.8749 0.8750 0.8752 0.8754 0.8756
2043.000000 0.8757 0.8759 0.8761 0.8763 0.8765
2048.000000 0.8768 0.8770 0.8773 0.8775 0.8778
2053.000000 0.8780 0.8783 0.8786 0.8789 0.8791
2058.000000 0.8794 0.8796 0.8799 0.8801 0.8803
2063.000000 0.8804 0.8806 0.8808 0.8810 0.8811
2068.000000 0.8813 0.8814 0.8816 0.8817 0.8818
2073.000000 0.8819 0.8820 0.8821 0.8823 0.8824
2078.000000 0.8825 0.8826 0.8827 0.8828 0.8829
2083.000000 0.8830 0.8832 0.8833 0.8834 0.8835
2088.000000 0.8836 0.8837 0.8838 0.8839 0.8840
2093.000000 0.8841 0.8842 0.8842 0.8843 0.8843
2098.000000 0.8844 0.8844 0.8845 0.8845 0.8846
2103.000000 0.8846 0.8846 0.8846 0.8847 0.8847
2108.000000 0.8848 0.8848 0.8848 0.8848 0.8848
2113.000000 0.8848 0.8848 0.8848 0.8848 0.8848
2118.000000 0.8848 0.8848 0.8848 0.8848 0.8848
2123.000000 0.8848 0.8848 0.8848 0.8848 0.8848
2128.000000 0.8848 0.8848 0.8848 0.8847 0.8847
2133.000000 0.8847 0.8847 0.8846 0.8846 0.8846
2138.000000 0.8846 0.8845 0.8845 0.8844 0.8844
2143.000000 0.8844 0.8844 0.8843 0.8843 0.8843
2148.000000 0.8843 0.8842 0.8842 0.8841 0.8840
2153.000000 0.8839 0.8839 0.8838 0.8837 0.8836
2158.000000 0.8836 0.8835 0.8834 0.8833 0.8833
2163.000000 0.8832 0.8831 0.8830 0.8830 0.8829
2168.000000 0.8829 0.8828 0.8827 0.8825 0.8824
2173.000000 0.8822 0.8821 0.8820 0.8819 0.8817
2178.000000 0.8816 0.8814 0.8813 0.8812 0.8811
2183.000000 0.8809 0.8808 0.8806 0.8805 0.8803
2188.000000 0.8802 0.8801 0.8800 0.8798 0.8797
2193.000000 0.8795 0.8794 0.8792 0.8791 0.8790
2198.000000 0.8789 0.8787 0.8786 0.8784 0.8783
2203.000000 0.8781 0.8780 0.8778 0.8776 0.8774
2208.000000 0.8772 0.8770 0.8768 0.8766 0.8764
2213.000000 0.8762 0.8760 0.8757 0.8755 0.8753
2218.000000 0.8751 0.8749 0.8747 0.8745 0.8743
2223.000000 0.8738 0.8734 0.8730 0.8726 0.8721
2228.000000 0.8717 0.8713 0.8709 0.8704 0.8700
2233.000000 0.8696 0.8692 0.8687 0.8683 0.8679
2238.000000 0.8675 0.8670 0.8666 0.8662 0.8658
2243.000000 0.8653 0.8649 0.8644 0.8639 0.8634
2248.000000 0.8629 0.8624 0.8619 0.8613 0.8608
2253.000000 0.8603 0.8598 0.8592 0.8587 0.8582
2258.000000 0.8578 0.8574 0.8570 0.8566 0.8562
2263.000000 0.8558 0.8555 0.8551 0.8547 0.8543
2268.000000 0.8539 0.8535 0.8531 0.8529 0.8527
2273.000000 0.8525 0.8523 0.8521 0.8520 0.8518
2278.000000 0.8517 0.8515 0.8513 0.8511 0.8510
2283.000000 0.8508 0.8507 0.8506 0.8505 0.8503
2288.000000 0.8502 0.8500 0.8499 0.8499 0.8500
2293.000000 0.8500 0.8501 0.8501 0.8502 0.8502
2298.000000 0.8502 0.8502 0.8503 0.8503 0.8504
2303.000000 0.8504 0.8505 0.8505 0.8506 0.8507
2308.000000 0.8508 0.8508 0.8509 0.8509 0.8510
2313.000000 0.8510 0.8511 0.8511 0.8512 0.8512
2318.000000 0.8512 0.8512 0.8513 0.8513 0.8514
2323.000000 0.8514 0.8515 0.8516 0.8518 0.8520
2328.000000 0.8523 0.8525 0.8528 0.8530 0.8533
2333.000000 0.8535 0.8537 0.8539 0.8542 0.8544
2338.000000 0.8547 0.8549 0.8551 0.8553 0.8556
2343.000000 0.8558 0.8560 0.8561 0.8563 0.8564
2348.000000 0.8566 0.8568 0.8570 0.8571 0.8573
2353.000000 0.8574 0.8575 0.8575 0.8576 0.8576
2358.000000 0.8577 0.8577 0.8578 0.8578 0.8578
2363.000000 0.8578 0.8579 0.8579 0.8580 0.8578
2368.000000 0.8576 0.8574 0.8572 0.8570 0.8568
2373.000000 0.8566 0.8564 0.8562 0.8560 0.8558
2378.000000 0.8556 0.8554 0.8552 0.8550 0.8548
2383.000000 0.8546 0.8544 0.8542 0.8540 0.8538
2388.000000 0.8536 0.8534 0.8532 0.8529 0.8526
2393.000000 0.8522 0.8518 0.8513 0.8509 0.8505
2398.000000 0.8501 0.8496 0.8492 0.8488 0.8484
2403.000000 0.8479 0.8475 0.8471 0.8467 0.8462
2408.000000 0.8458 0.8454 0.8450 0.8445 0.8441
2413.000000 0.8437 0.8433 0.8428 0.8424 0.8420
2418.000000 0.8416 0.8412 0.8409 0.8405 0.8401
2423.000000 0.8397 0.8393 0.8389 0.8386 0.8382
2428.000000 0.8378 0.8374 0.8370 0.8366 0.8363
2433.000000 0.8360 0.8358 0.8355 0.8353 0.8350
2438.000000 0.8348 0.8345 0.8343 0.8341 0.8339
2443.000000 0.8336 0.8334 0.8331 0.8329 0.8326
2448.000000 0.8324 0.8323 0.8322 0.8321 0.8320
2453.000000 0.8319 0.8318 0.8317 0.8317 0.8316
2458.000000 0.8315 0.8314 0.8314 0.8313 0.8313
2463.000000 0.8312 0.8312 0.8312 0.8312 0.8311
2468.000000 0.8311 0.8310 0.8310 0.8310 0.8310
2473.000000 0.8309 0.8309 0.8309 0.8309 0.8309
2478.000000 0.8309 0.8309 0.8310 0.8310 0.8310
2483.000000 0.8310 0.8310 0.8310 0.8311 0.8311
2488.000000 0.8311 0.8311 0.8311 0.8311 0.8312
2493.000000 0.8312 0.8313 0.8313 0.8314 0.8314
2498.000000 0.8315 0.8315 0.8316 0.8317 0.8318
2503.000000 0.8318 0.8319 0.8319 0.8320 0.8320
2508.000000 0.8321 0.8321 0.8321 0.8320 0.8320
2513.000000 0.8319 0.8319 0.8319 0.8319 0.8318
2518.000000 0.8318 0.8317 0.8317 0.8317 0.8317
2523.000000 0.8316 0.8315 0.8313 0.8312 0.8310
2528.000000 0.8309 0.8307 0.8305 0.8303 0.8302
2533.000000 0.8300 0.8299 0.8297 0.8296 0.8291
2538.000000 0.8286 0.8281 0.8276 0.8271 0.8266
2543.000000 0.8261 0.8256 0.8250 0.8244 0.8237
2548.000000 0.8230 0.8223 0.8216 0.8209 0.8202
2553.000000 0.8195 0.8188 0.8181 0.8174 0.8169
2558.000000 0.8165 0.8160 0.8155 0.8150 0.8146
2563.000000 0.8141 0.8136 0.8131 0.8127 0.8122
2568.000000 0.8118 0.8114 0.8111 0.8108 0.8106
2573.000000 0.8104 0.8102 0.8099 0.8097 0.8095
2578.000000 0.8093 0.8090 0.8088 0.8086 0.8085
2583.000000 0.8084 0.8084 0.8083 0.8083 0.8082
2588.000000 0.8081 0.8080 0.8080 0.8079 0.8078
2593.000000 0.8077 0.8076 0.8074 0.8073 0.8071
2598.000000 0.8070 0.8068 0.8067 0.8065 0.8064
2603.000000 0.8062 0.8061 0.8059 0.8058 0.8056
2608.000000 0.8054 0.8050 0.8047 0.8044 0.8041
2613.000000 0.8037 0.8034 0.8031 0.8028 0.8024
2618.000000 0.8021 0.8018 0.8015 0.8010 0.8006
2623.000000 0.8001 0.7996 0.7991 0.7987 0.7982
2628.000000 0.7978 0.7973 0.7969 0.7964 0.7959
2633.000000 0.7954 0.7950 0.7945 0.7941 0.7936
2638.000000 0.7932 0.7928 0.7924 0.7919 0.7915
2643.000000 0.7911 0.7907 0.7903 0.7899 0.7894
2648.000000 0.7890 0.7886 0.7882 0.7877 0.7873
2653.000000 0.7869 0.7865 0.7861 0.7857 0.7852
2658.000000 0.7848 0.7844 0.7840 0.7835 0.7831
2663.000000 0.7826 0.7822 0.7818 0.7814 0.7809
2668.000000 0.7805 0.7800 0.7796 0.7792 0.7788
2673.000000 0.7783 0.7779 0.7774 0.7770 0.7766
2678.000000 0.7762 0.7757 0.7753 0.7748 0.7744
2683.000000 0.7740 0.7736 0.7731 0.7727 0.7722
2688.000000 0.7718 0.7711 0.7704 0.7696 0.7688
2693.000000 0.7673 0.7659 0.7639 0.7619 0.7588
2698.000000 0.7558 0.7522 0.7486 0.7444 0.7402
2703.000000 0.7353 0.7304 0.7254 0.7205 0.7157
2708.000000 0.7110 0.7078 0.7046 0.7014 0.6982
2713.000000 0.6953 0.6925 0.6915 0.6905 0.6903
2718.000000 0.6901 0.6899 0.6898 0.6896 0.6894
2723.000000 0.6891 0.6888 0.6885 0.6883 0.6879
2728.000000 0.6876 0.6872 0.6868 0.6864 0.6860
2733.000000 0.6849 0.6839 0.6826 0.6814 0.6797
2738.000000 0.6781 0.6758 0.6736 0.6709 0.6683
2743.000000 0.6648 0.6614 0.6575 0.6536 0.6360
2748.000000 0.6185 0.6046 0.5907 0.5690 0.5473
2753.000000 0.5256 0.5039 0.4821 0.4604 0.4387
2758.000000 0.4170 0.3953 0.3736 0.3519 0.3302
2763.000000 0.3249 0.3196 0.3194 0.3192 0.3193
2768.000000 0.3194 0.3201 0.3207 0.3291 0.3375
2773.000000 0.3477 0.3579 0.3681 0.3783 0.3885
2778.000000 0.3987 0.4089 0.4191 0.4293 0.4395
2783.000000 0.4497 0.4599 0.4701 0.4803 0.4856
2788.000000 0.4909 0.4919 0.4930 0.4931 0.4957
2793.000000 0.4929 0.4927 0.4923 0.4919 0.4908
2798.000000 0.4897 0.4880 0.4863 0.4844 0.4826
2803.000000 0.4802 0.4779 0.4751 0.4724 0.4633
2808.000000 0.4543 0.4344 0.4146 0.3947 0.3748
2813.000000 0.3549 0.3351 0.3215 0.3080 0.3080
2818.000000 0.3028 0.3134 0.3188 0.3306 0.3425
2823.000000 0.3543 0.3662 0.3780 0.3899 0.3926
2828.000000 0.3954 0.3948 0.3942 0.3929 0.3980
2833.000000 0.3874 0.3832 0.3792 0.3753 0.3719
2838.000000 0.3686 0.3483 0.3281 0.2823 0.2366
2843.000000 0.1908 0.1450 0.0992 0.0535 0.0447
2848.000000 0.0359 0.0330 0.0301 0.0296 0.0291
2853.000000 0.0292 0.0293 0.0298 0.0280 0.0311
2858.000000 0.0319 0.0526 0.0734 0.0978 0.1223
2863.000000 0.1492 0.1762 0.1800 0.1839 0.1871
2868.000000 0.1903 0.2113 0.2324 0.2566 0.2808
2873.000000 0.2814 0.2820 0.2823 0.2830 0.2796
2878.000000 0.2766 0.2686 0.2607 0.2527 0.2448
2883.000000 0.2368 0.2288 0.2208 0.2129 0.2049
2888.000000 0.1970 0.1890 0.1811 0.1731 0.1652
2893.000000 0.1572 0.1492 0.1412 0.1333 0.1253
2898.000000 0.1174 0.1081 0.0989 0.0901 0.0813
2903.000000 0.0719 0.0626 0.0554 0.0482 0.0426
2908.000000 0.0370 0.0330 0.0290 0.0251 0.0213
2913.000000 0.0178 0.0144 0.0130 0.0116 0.0116
2918.000000 0.0116 0.0117 0.0118 0.0120 0.0122
2923.000000 0.0124 0.0102 0.0129 0.0132 0.0135
2928.000000 0.0139 0.0144 0.0150 0.0156 0.0162
2933.000000 0.0171 0.0181 0.0191 0.0201 0.0218
2938.000000 0.0236 0.0263 0.0291 0.0331 0.0371
2943.000000 0.0421 0.0471 0.0527 0.0584 0.0629
2948.000000 0.0675 0.0697 0.0719 0.0732 0.0746
2953.000000 0.0754 0.0762 0.0770 0.0778 0.0787
2958.000000 0.0797 0.0808 0.0820 0.0840 0.0861
2963.000000 0.0910 0.0960 0.1073 0.1186 0.1286
2968.000000 0.1387 0.1574 0.1762 0.1936 0.2111
2973.000000 0.2286 0.2461 0.2635 0.2810 0.2984
2978.000000 0.3159 0.3334 0.3509 0.3683 0.3858
2983.000000 0.4033 0.4208 0.4382 0.4557 0.4732
2988.000000 0.4907 0.5061 0.5216 0.5300 0.5384
2993.000000 0.5467 0.5550 0.5611 0.5672 0.5749
2998.000000 0.5826 0.5934 0.6042 0.6321 0.6600
3003.000000 0.6708 0.6816 0.6894 0.6972 0.7052
3008.000000 0.7133 0.7218 0.7303 0.7336 0.7370
3013.000000 0.7403 0.7437 0.7470 0.7504 0.7535
3018.000000 0.7566 0.7596 0.7627 0.7657 0.7687
3023.000000 0.7713 0.7740 0.7760 0.7781 0.7802
3028.000000 0.7823 0.7843 0.7864 0.7884 0.7905
3033.000000 0.7919 0.7933 0.7946 0.7960 0.7973
3038.000000 0.7987 0.8000 0.8013 0.8026 0.8040
3043.000000 0.8053 0.8067 0.8078 0.8089 0.8099
3048.000000 0.8110 0.8120 0.8131 0.8142 0.8153
3053.000000 0.8163 0.8174 0.8184 0.8195 0.8205
3058.000000 0.8216 0.8227 0.8238 0.8248 0.8259
3063.000000 0.8269 0.8280 0.8287 0.8294 0.8300
3068.000000 0.8307 0.8313 0.8319 0.8325 0.8331
3073.000000 0.8337 0.8344 0.8350 0.8356 0.8362
3078.000000 0.8368 0.8373 0.8379 0.8384 0.8390
3083.000000 0.8395 0.8400 0.8405 0.8411 0.8416
3088.000000 0.8421 0.8426 0.8432 0.8437 0.8442
3093.000000 0.8448 0.8454 0.8461 0.8468 0.8475
3098.000000 0.8482 0.8488 0.8494 0.8500 0.8506
3103.000000 0.8511 0.8517 0.8521 0.8525 0.8529
3108.000000 0.8533 0.8536 0.8539 0.8541 0.8543
3113.000000 0.8545 0.8547 0.8549 0.8551 0.8553
3118.000000 0.8555 0.8556 0.8558 0.8560 0.8562
3123.000000 0.8563 0.8565 0.8566 0.8567 0.8568
3128.000000 0.8570 0.8571 0.8572 0.8573 0.8575
3133.000000 0.8576 0.8577 0.8578 0.8579 0.8580
3138.000000 0.8582 0.8583 0.8584 0.8584 0.8585
3143.000000 0.8585 0.8586 0.8586 0.8587 0.8587
3148.000000 0.8588 0.8588 0.8589 0.8590 0.8591
3153.000000 0.8591 0.8592 0.8592 0.8593 0.8593
3158.000000 0.8594 0.8594 0.8595 0.8595 0.8596
3163.000000 0.8596 0.8597 0.8597 0.8598 0.8598
3168.000000 0.8599 0.8599 0.8600 0.8600 0.8600
3173.000000 0.8600 0.8601 0.8601 0.8601 0.8601
3178.000000 0.8602 0.8602 0.8603 0.8603 0.8603
3183.000000 0.8603 0.8604 0.8604 0.8605 0.8605
3188.000000 0.8606 0.8607 0.8608 0.8609 0.8610
3193.000000 0.8611 0.8612 0.8613 0.8614 0.8615
3198.000000 0.8616 0.8617 0.8618 0.8619 0.8620
3203.000000 0.8621 0.8622 0.8626 0.8630 0.8634
3208.000000 0.8638 0.8642 0.8646 0.8650 0.8654
3213.000000 0.8658 0.8662 0.8666 0.8670 0.8674
3218.000000 0.8678 0.8682 0.8686 0.8690 0.8694
3223.000000 0.8697 0.8701 0.8705 0.8709 0.8712
3228.000000 0.8716 0.8719 0.8722 0.8723 0.8724
3233.000000 0.8725 0.8726 0.8726 0.8727 0.8728
3238.000000 0.8729 0.8730 0.8731 0.8731 0.8732
3243.000000 0.8733 0.8734 0.8734 0.8735 0.8735
3248.000000 0.8735 0.8735 0.8735 0.8735 0.8735
3253.000000 0.8735 0.8735 0.8734 0.8734 0.8734
3258.000000 0.8734 0.8734 0.8734 0.8734 0.8734
3263.000000 0.8734 0.8734 0.8734 0.8734 0.8734
3268.000000 0.8734 0.8733 0.8733 0.8733 0.8733
3273.000000 0.8733 0.8733 0.8732 0.8732 0.8732
3278.000000 0.8732 0.8732 0.8732 0.8732 0.8732
3283.000000 0.8731 0.8731 0.8731 0.8731 0.8731
3288.000000 0.8731 0.8730 0.8730 0.8730 0.8730
3293.000000 0.8730 0.8730 0.8730 0.8730 0.8729
3298.000000 0.8729 0.8729 0.8729 0.8729 0.8729
3303.000000 0.8729 0.8729 0.8728 0.8728 0.8728
3308.000000 0.8728 0.8728 0.8728 0.8728 0.8728
3313.000000 0.8727 0.8727 0.8727 0.8727 0.8727
3318.000000 0.8727 0.8727 0.8727 0.8726 0.8726
3323.000000 0.8726 0.8726 0.8726 0.8710 0.8726
3328.000000 0.8726 0.8725 0.8725 0.8725 0.8725
3333.000000 0.8725 0.8725 0.8725 0.8725 0.8724
3338.000000 0.8724 0.8724 0.8724 0.8724 0.8724
3343.000000 0.8723 0.8723 0.8723 0.8723 0.8723
3348.000000 0.8723 0.8723 0.8723 0.8722 0.8722
3353.000000 0.8722 0.8722 0.8722 0.8722 0.8722
3358.000000 0.8722 0.8721 0.8721 0.8721 0.8721
3363.000000 0.8721 0.8721 0.8721 0.8721 0.8720
3368.000000 0.8720 0.8720 0.8720 0.8719 0.8718
3373.000000 0.8717 0.8717 0.8716 0.8716 0.8715
3378.000000 0.8715 0.8714 0.8714 0.8713 0.8713
3383.000000 0.8712 0.8712 0.8711 0.8711 0.8711
3388.000000 0.8711 0.8711 0.8711 0.8710 0.8710
3393.000000 0.8710 0.8710 0.8709 0.8709 0.8708
3398.000000 0.8708 0.8707 0.8706 0.8705 0.8704
3403.000000 0.8703 0.8702 0.8701 0.8700 0.8698
3408.000000 0.8697 0.8696 0.8695 0.8694 0.8693
3413.000000 0.8688 0.8684 0.8679 0.8674 0.8669
3418.000000 0.8665 0.8660 0.8655 0.8650 0.8645
3423.000000 0.8640 0.8636 0.8630 0.8624 0.8618
3428.000000 0.8613 0.8607 0.8602 0.8596 0.8591
3433.000000 0.8585 0.8579 0.8575 0.8572 0.8569
3438.000000 0.8566 0.8563 0.8560 0.8557 0.8555
3443.000000 0.8552 0.8549 0.8546 0.8544 0.8545
3448.000000 0.8546 0.8547 0.8549 0.8550 0.8551
3453.000000 0.8552 0.8554 0.8556 0.8558 0.8562
3458.000000 0.8566 0.8569 0.8573 0.8577 0.8581
3463.000000 0.8585 0.8590 0.8595 0.8600 0.8605
3468.000000 0.8610 0.8615 0.8620 0.8625 0.8630
3473.000000 0.8637 0.8644 0.8651 0.8659 0.8666
3478.000000 0.8673 0.8678 0.8684 0.8687 0.8690
3483.000000 0.8693 0.8696 0.8695 0.8695 0.8695
3488.000000 0.8695 0.8694 0.8694 0.8693 0.8693
3493.000000 0.8693 0.8693 0.8692 0.8692 0.8691
3498.000000 0.8691 0.8691 0.8691 0.8690 0.8690
3503.000000 0.8689 0.8689 0.8689 0.8689 0.8688
3508.000000 0.8688 0.8687 0.8687 0.8686 0.8685
3513.000000 0.8684 0.8684 0.8683 0.8683 0.8682
3518.000000 0.8682 0.8681 0.8681 0.8680 0.8680
3523.000000 0.8679 0.8678 0.8677 0.8677 0.8677
3528.000000 0.8677 0.8677 0.8677 0.8677 0.8677
3533.000000 0.8677 0.8677 0.8677 0.8677 0.8677
3538.000000 0.8677 0.8676 0.8676 0.8676 0.8676
3543.000000 0.8676 0.8676 0.8676 0.8676 0.8676
3548.000000 0.8676 0.8674 0.8672 0.8670 0.8668
3553.000000 0.8666 0.8664 0.8661 0.8659 0.8657
3558.000000 0.8655 0.8653 0.8651 0.8648 0.8646
3563.000000 0.8644 0.8642 0.8639 0.8637 0.8632
3568.000000 0.8627 0.8622 0.8617 0.8612 0.8607
3573.000000 0.8601 0.8596 0.8593 0.8591 0.8589
3578.000000 0.8588 0.8587 0.8586 0.8592 0.8599
3583.000000 0.8607 0.8615 0.8623 0.8631 0.8634
3588.000000 0.8637 0.8639 0.8642 0.8641 0.8640
3593.000000 0.8639 0.8639 0.8638 0.8638 0.8637
3598.000000 0.8636 0.8636 0.8636 0.8636 0.8636
3603.000000 0.8636 0.8637 0.8637 0.8637 0.8637
3608.000000 0.8637 0.8637 0.8637 0.8637 0.8638
3613.000000 0.8638 0.8638 0.8638 0.8638 0.8638
3618.000000 0.8639 0.8639 0.8639 0.8639 0.8639
3623.000000 0.8639 0.8640 0.8640 0.8640 0.8640
3628.000000 0.8640 0.8640 0.8640 0.8639 0.8638
3633.000000 0.8637 0.8637 0.8636 0.8636 0.8635
3638.000000 0.8634 0.8633 0.8633 0.8632 0.8631
3643.000000 0.8630 0.8630 0.8629 0.8628 0.8626
3648.000000 0.8624 0.8621 0.8618 0.8615 0.8612
3653.000000 0.8609 0.8606 0.8603 0.8601 0.8598
3658.000000 0.8595 0.8592 0.8589 0.8588 0.8588
3663.000000 0.8587 0.8586 0.8585 0.8584 0.8583
3668.000000 0.8582 0.8581 0.8581 0.8580 0.8579
3673.000000 0.8578 0.8577 0.8580 0.8584 0.8587
3678.000000 0.8591 0.8595 0.8599 0.8603 0.8607
3683.000000 0.8610 0.8614 0.8618 0.8623 0.8627
3688.000000 0.8632 0.8636 0.8640 0.8644 0.8649
3693.000000 0.8650 0.8651 0.8651 0.8652 0.8652
3698.000000 0.8653 0.8653 0.8654 0.8653 0.8653
3703.000000 0.8652 0.8652 0.8651 0.8651 0.8650
3708.000000 0.8650 0.8649 0.8649 0.8648 0.8648
3713.000000 0.8647 0.8647 0.8646 0.8646 0.8645
3718.000000 0.8645 0.8644 0.8644 0.8643 0.8643
3723.000000 0.8642 0.8642 0.8641 0.8641 0.8640
3728.000000 0.8640 0.8639 0.8639 0.8638 0.8638
3733.000000 0.8638 0.8638 0.8637 0.8637 0.8636
3738.000000 0.8636 0.8636 0.8636 0.8635 0.8635
3743.000000 0.8634 0.8634 0.8634 0.8634 0.8633
3748.000000 0.8633 0.8632 0.8632 0.8633 0.8635
3753.000000 0.8636 0.8637 0.8638 0.8639 0.8640
3758.000000 0.8641 0.8642 0.8644 0.8645 0.8646
3763.000000 0.8647 0.8648 0.8649 0.8651 0.8652
3768.000000 0.8653 0.8656 0.8659 0.8663 0.8667
3773.000000 0.8670 0.8674 0.8678 0.8682 0.8685
3778.000000 0.8689 0.8693 0.8697 0.8702 0.8707
3783.000000 0.8718 0.8729 0.8740 0.8752 0.8769
3788.000000 0.8786 0.8801 0.8816 0.8827 0.8838
3793.000000 0.8844 0.8851 0.8857 0.8864 0.8870
3798.000000 0.8877 0.8883 0.8890 0.8894 0.8898
##END=
