##TITLE=POTASSIUM METABISULFITE
$$ A.R.
##JCAMP-DX=4.24
##DATA TYPE=INFRARED SPECTRUM
##CLASS=COBLENTZ
##ORIGIN=MELLON INSTITUTE
##OWNER=COBLENTZ SOCIETY
Collection (C) 2018 copyright by the U.S. Secretary of Commerce
on behalf of the United States of America. All rights reserved.
##DATE=Not specified, most likely prior to 1970
##MOLFORM=K2 S2 O5
##SOURCE REFERENCE=COBLENTZ NO. 560
##$NIST ID=B6000560
##$NIST SOURCE=COBLENTZ
##$NIST IMAGE=cob560
##SPECTROMETER/DATA SYSTEM=Not specified, most likely a prism, grating, or hybrid spectrometer.
##STATE=SOLID (NUJOL MULL)
##PATH LENGTH=
$$SPECTRAL CONTAMINATION DUE TO OIL AROUND 2900, 1450, 1380 CM^-^1
##SAMPLING PROCEDURE=TRANSMISSION
##RESOLUTION=4
##DATA PROCESSING=DIGITIZED BY NIST FROM HARD COPY
##XUNITS=MICROMETERS
##YUNITS=TRANSMITTANCE
##XFACTOR=1.000000
##YFACTOR=1
##DELTAX=000.006647
##FIRSTX=2.023
##LASTX=16.0009
##FIRSTY=0.802
##MAXX=16.0009
##MINX=2.023
##MAXY=0.964
##MINY=0.139
##NPOINTS=2104
##XYDATA=(X++(Y..Y))
2.023000 0.8020 0.8020 0.8020 0.8040 0.8040
2.056248 0.8070 0.8090 0.8090 0.8100 0.8090
2.089000 0.8090 0.8070 0.8070 0.8070 0.8050
2.122248 0.8070 0.8070 0.8070 0.8070 0.8070
2.156000 0.8090 0.8070 0.8070 0.8090 0.8090
2.189248 0.8090 0.8090 0.8100 0.8100 0.8090
2.222000 0.8090 0.8070 0.8070 0.8050 0.8020
2.255248 0.8020 0.8020 0.8020 0.8020 0.8020
2.289000 0.8020 0.8000 0.8000 0.8000 0.8000
2.322248 0.8000 0.8000 0.8020 0.8020 0.8020
2.355000 0.8000 0.8000 0.8000 0.8000 0.8000
2.388248 0.8000 0.8020 0.8020 0.8020 0.8020
2.422000 0.8020 0.8020 0.8020 0.8040 0.8050
2.455248 0.8050 0.8050 0.8070 0.8070 0.8070
2.488000 0.8090 0.8090 0.8090 0.8100 0.8120
2.521248 0.8120 0.8120 0.8100 0.8100 0.8100
2.555000 0.8090 0.8090 0.8070 0.8090 0.8090
2.588248 0.8090 0.8100 0.8100 0.8100 0.8100
2.621000 0.8100 0.8120 0.8120 0.8120 0.8090
2.654248 0.8090 0.8050 0.8070 0.8070 0.8070
2.688000 0.8090 0.8100 0.8100 0.8120 0.8120
2.721248 0.8100 0.8070 0.8050 0.8040 0.8040
2.754000 0.8020 0.8000 0.8000 0.7980 0.7970
2.787248 0.7930 0.7930 0.7920 0.7920 0.7900
2.821000 0.7880 0.7900 0.7880 0.7880 0.7880
2.854248 0.7870 0.7850 0.7820 0.7820 0.7800
2.887000 0.7780 0.7800 0.7800 0.7820 0.7820
2.920248 0.7820 0.7820 0.7820 0.7830 0.7830
2.953000 0.7830 0.7850 0.7850 0.7870 0.7880
2.986248 0.7880 0.7880 0.7880 0.7880 0.7870
3.020000 0.7880 0.7900 0.7900 0.7900 0.7900
3.053248 0.7900 0.7900 0.7900 0.7900 0.7900
3.086000 0.7900 0.7900 0.7920 0.7920 0.7920
3.119248 0.7930 0.7930 0.7950 0.7970 0.7970
3.153000 0.7970 0.7970 0.7970 0.7970 0.7950
3.186248 0.7950 0.7930 0.7930 0.7950 0.7970
3.219000 0.7970 0.7980 0.7980 0.7980 0.7980
3.252248 0.7970 0.7950 0.7950 0.7900 0.7830
3.286000 0.7770 0.7750 0.7570 0.7480 0.7280
3.319248 0.6880 0.5990 0.5190 0.4890 0.4580
3.352000 0.3930 0.3680 0.3500 0.3090 0.2760
3.385248 0.2730 0.2740 0.3090 0.3450 0.3800
3.419000 0.4150 0.4520 0.4890 0.4890 0.4890
3.452248 0.4620 0.4550 0.4350 0.4330 0.4370
3.485000 0.4770 0.5760 0.6430 0.6930 0.7210
3.518248 0.7430 0.7600 0.7750 0.7800 0.7870
3.552000 0.7930 0.7970 0.8020 0.8020 0.8070
3.585248 0.8090 0.8100 0.8120 0.8120 0.8140
3.618000 0.8140 0.8140 0.8150 0.8150 0.8170
3.651248 0.8150 0.8150 0.8150 0.8150 0.8150
3.685000 0.8150 0.8150 0.8150 0.8150 0.8150
3.718248 0.8150 0.8150 0.8170 0.8170 0.8170
3.751000 0.8190 0.8190 0.8190 0.8190 0.8190
3.784248 0.8190 0.8170 0.8170 0.8190 0.8190
3.818000 0.8190 0.8190 0.8200 0.8200 0.8200
3.851248 0.8200 0.8200 0.8200 0.8220 0.8240
3.884000 0.8250 0.8250 0.8250 0.8250 0.8250
3.917248 0.8250 0.8240 0.8250 0.8250 0.8250
3.950000 0.8240 0.8240 0.8240 0.8240 0.8240
3.983248 0.8240 0.8250 0.8250 0.8250 0.8250
4.017000 0.8250 0.8270 0.8250 0.8250 0.8250
4.050248 0.8270 0.8270 0.8290 0.8290 0.8290
4.083000 0.8290 0.8290 0.8270 0.8290 0.8290
4.116248 0.8290 0.8270 0.8270 0.8250 0.8250
4.150000 0.8240 0.8240 0.8220 0.8240 0.8250
4.183248 0.8250 0.8250 0.8250 0.8240 0.8200
4.216000 0.8200 0.8170 0.8150 0.8140 0.8120
4.249248 0.8120 0.8120 0.8140 0.8140 0.8140
4.283000 0.8120 0.8100 0.8020 0.8020 0.8000
4.316248 0.8000 0.8000 0.8000 0.8020 0.8040
4.349000 0.8040 0.8100 0.8150 0.8190 0.8190
4.382248 0.8170 0.8170 0.8170 0.8170 0.8170
4.416000 0.8170 0.8190 0.8190 0.8150 0.8150
4.449248 0.8140 0.8150 0.8150 0.8170 0.8150
4.482000 0.8140 0.8140 0.8140 0.8140 0.8120
4.515248 0.8100 0.8100 0.8140 0.8140 0.8140
4.549000 0.8140 0.8140 0.8140 0.8140 0.8150
4.582248 0.8150 0.8150 0.8170 0.8190 0.8170
4.615000 0.8170 0.8170 0.8170 0.8170 0.8170
4.648248 0.8170 0.8150 0.8140 0.8140 0.8140
4.682000 0.8140 0.8140 0.8140 0.8150 0.8170
4.715248 0.8150 0.8150 0.8140 0.8150 0.8170
4.748000 0.8170 0.8170 0.8150 0.8150 0.8190
4.781248 0.8200 0.8200 0.8200 0.8190 0.8190
4.815000 0.8190 0.8190 0.8170 0.8150 0.8170
4.848248 0.8170 0.8170 0.8170 0.8150 0.8150
4.881000 0.8150 0.8150 0.8170 0.8190 0.8190
4.914248 0.8190 0.8190 0.8190 0.8200 0.8220
4.947000 0.8220 0.8220 0.8240 0.8240 0.8220
4.980248 0.8220 0.8220 0.8220 0.8250 0.8270
5.014000 0.8290 0.8290 0.8290 0.8300 0.8300
5.047248 0.8320 0.8320 0.8340 0.8340 0.8350
5.080000 0.8350 0.8350 0.8350 0.8370 0.8370
5.113248 0.8370 0.8350 0.8350 0.8350 0.8350
5.147000 0.8370 0.8370 0.8370 0.8370 0.8370
5.180248 0.8370 0.8370 0.8370 0.8390 0.8400
5.213000 0.8400 0.8400 0.8400 0.8400 0.8390
5.246248 0.8390 0.8390 0.8370 0.8390 0.8390
5.280000 0.8400 0.8400 0.8420 0.8440 0.8420
5.313248 0.8420 0.8400 0.8400 0.8400 0.8420
5.346000 0.8440 0.8450 0.8450 0.8450 0.8450
5.379248 0.8450 0.8450 0.8450 0.8440 0.8390
5.413000 0.8390 0.8390 0.8400 0.8400 0.8400
5.446248 0.8420 0.8420 0.8450 0.8420 0.8420
5.479000 0.8420 0.8400 0.8400 0.8420 0.8420
5.512248 0.8440 0.8420 0.8420 0.8420 0.8440
5.546000 0.8470 0.8490 0.8500 0.8520 0.8520
5.579248 0.8520 0.8540 0.8540 0.8520 0.8520
5.612000 0.8520 0.8520 0.8520 0.8500 0.8540
5.645248 0.8540 0.8550 0.8570 0.8590 0.8590
5.679000 0.8590 0.8590 0.8600 0.8620 0.8620
5.712248 0.8640 0.8640 0.8640 0.8640 0.8640
5.745000 0.8620 0.8620 0.8600 0.8620 0.8640
5.778248 0.8640 0.8640 0.8620 0.8640 0.8640
5.811000 0.8650 0.8650 0.8650 0.8670 0.8690
5.844248 0.8670 0.8640 0.8640 0.8690 0.8720
5.878000 0.8760 0.8760 0.8760 0.8760 0.8740
5.911248 0.8740 0.8740 0.8740 0.8740 0.8760
5.944000 0.8740 0.8720 0.8720 0.8720 0.8720
5.977248 0.8760 0.8790 0.8810 0.8790 0.8810
6.011000 0.8820 0.8820 0.8820 0.8820 0.8820
6.044248 0.8810 0.8790 0.8760 0.8760 0.8720
6.077000 0.8710 0.8690 0.8640 0.8590 0.8590
6.110248 0.8640 0.8650 0.8690 0.8710 0.8720
6.144000 0.8760 0.8790 0.8790 0.8790 0.8770
6.177248 0.8810 0.8840 0.8840 0.8870 0.8870
6.210000 0.8860 0.8860 0.8870 0.8870 0.8890
6.243248 0.8910 0.8910 0.8910 0.8890 0.8870
6.277000 0.8870 0.8870 0.8870 0.8870 0.8860
6.310248 0.8860 0.8840 0.8840 0.8820 0.8820
6.343000 0.8810 0.8810 0.8810 0.8820 0.8860
6.376248 0.8870 0.8870 0.8890 0.8870 0.8860
6.410000 0.8890 0.8890 0.8910 0.8910 0.8920
6.443248 0.8920 0.8920 0.8920 0.8920 0.8920
6.476000 0.8920 0.8920 0.8920 0.8910 0.8910
6.509248 0.8890 0.8890 0.8870 0.8870 0.8860
6.543000 0.8840 0.8840 0.8820 0.8820 0.8790
6.576248 0.8790 0.8790 0.8790 0.8790 0.8740
6.609000 0.8740 0.8740 0.8740 0.8740 0.8740
6.642248 0.8760 0.8760 0.8760 0.8760 0.8770
6.676000 0.8810 0.8810 0.8810 0.8810 0.8810
6.709248 0.8790 0.8790 0.8790 0.8770 0.8740
6.742000 0.8720 0.8650 0.8520 0.8400 0.8320
6.775248 0.8090 0.8050 0.7750 0.7620 0.7530
6.808000 0.7350 0.7210 0.7200 0.7180 0.7160
6.841248 0.7160 0.7160 0.7160 0.7180 0.7200
6.875000 0.7210 0.7250 0.7300 0.7380 0.7450
6.908248 0.7530 0.7650 0.7750 0.7850 0.7930
6.941000 0.7980 0.8000 0.8040 0.8120 0.8220
6.974248 0.8290 0.8350 0.8390 0.8420 0.8470
7.008000 0.8490 0.8500 0.8520 0.8540 0.8540
7.041248 0.8550 0.8600 0.8620 0.8640 0.8670
7.074000 0.8710 0.8720 0.8760 0.8760 0.8770
7.107248 0.8790 0.8790 0.8790 0.8790 0.8810
7.141000 0.8810 0.8810 0.8790 0.8790 0.8770
7.174248 0.8740 0.8650 0.8550 0.8490 0.8350
7.207000 0.8290 0.8170 0.8070 0.8000 0.7970
7.240248 0.7930 0.7920 0.7930 0.7970 0.7980
7.274000 0.8070 0.8150 0.8200 0.8240 0.8290
7.307248 0.8300 0.8350 0.8400 0.8440 0.8500
7.340000 0.8540 0.8570 0.8600 0.8620 0.8620
7.373248 0.8620 0.8640 0.8640 0.8640 0.8650
7.407000 0.8650 0.8640 0.8640 0.8640 0.8640
7.440248 0.8640 0.8650 0.8650 0.8690 0.8720
7.473000 0.8740 0.8760 0.8770 0.8770 0.8770
7.506248 0.8760 0.8770 0.8790 0.8790 0.8790
7.540000 0.8790 0.8790 0.8790 0.8770 0.8770
7.573248 0.8770 0.8770 0.8770 0.8770 0.8770
7.606000 0.8770 0.8760 0.8760 0.8760 0.8760
7.639248 0.8740 0.8740 0.8740 0.8720 0.8650
7.673000 0.8650 0.8640 0.8640 0.8620 0.8640
7.706248 0.8640 0.8640 0.8620 0.8620 0.8640
7.739000 0.8640 0.8640 0.8620 0.8620 0.8620
7.772248 0.8640 0.8650 0.8670 0.8670 0.8670
7.805000 0.8670 0.8670 0.8650 0.8640 0.8620
7.838248 0.8620 0.8620 0.8600 0.8570 0.8540
7.872000 0.8540 0.8540 0.8540 0.8520 0.8490
7.905248 0.8420 0.8390 0.8370 0.8350 0.8250
7.938000 0.8240 0.8240 0.8200 0.8150 0.8100
7.971248 0.8100 0.8100 0.8100 0.8090 0.8090
8.005000 0.8090 0.8090 0.8090 0.8070 0.8070
8.038248 0.8070 0.8070 0.8070 0.8070 0.8070
8.071000 0.8070 0.8050 0.8040 0.8020 0.7980
8.104248 0.7930 0.7900 0.7850 0.7820 0.7750
8.138000 0.7730 0.7700 0.7680 0.7650 0.7600
8.171248 0.7570 0.7530 0.7480 0.7430 0.7380
8.204000 0.7300 0.7250 0.7150 0.7000 0.6830
8.237248 0.6750 0.6530 0.6290 0.6040 0.5890
8.271000 0.5560 0.5360 0.5120 0.5000 0.4890
8.304248 0.4630 0.4370 0.4000 0.3780 0.3560
8.337000 0.3380 0.3190 0.2990 0.2860 0.2780
8.370248 0.2620 0.2470 0.2390 0.2310 0.2190
8.404000 0.2090 0.1990 0.1950 0.1890 0.1790
8.437248 0.1720 0.1690 0.1600 0.1540 0.1520
8.470000 0.1500 0.1470 0.1440 0.1420 0.1400
8.503248 0.1400 0.1400 0.1400 0.1390 0.1390
8.537000 0.1390 0.1400 0.1420 0.1540 0.1670
8.570248 0.1770 0.2010 0.2060 0.2240 0.2470
8.603000 0.2660 0.2890 0.3190 0.3310 0.3580
8.636248 0.3700 0.3830 0.4180 0.4350 0.4670
8.669000 0.4850 0.5290 0.5410 0.5570 0.5710
8.702248 0.5860 0.6010 0.6040 0.6130 0.6180
8.736000 0.6290 0.6340 0.6440 0.6480 0.6540
8.769248 0.6640 0.6660 0.6680 0.6700 0.6710
8.802000 0.6750 0.6760 0.6780 0.6800 0.6850
8.835248 0.6850 0.6850 0.6850 0.6850 0.6830
8.869000 0.6810 0.6800 0.6750 0.6610 0.6560
8.902248 0.6530 0.6480 0.6390 0.6310 0.6210
8.935000 0.6110 0.5990 0.5810 0.5690 0.5570
8.968248 0.5510 0.5440 0.5360 0.5120 0.5000
9.002000 0.4870 0.4790 0.4650 0.4620 0.4530
9.035248 0.4520 0.4470 0.4450 0.4450 0.4470
9.068000 0.4480 0.4530 0.4630 0.4750 0.4820
9.101248 0.4990 0.5200 0.5240 0.5300 0.5360
9.135000 0.5390 0.5410 0.5420 0.5420 0.5420
9.168248 0.5410 0.5370 0.5320 0.5270 0.5120
9.201000 0.5050 0.5020 0.5000 0.4990 0.4970
9.234248 0.4890 0.4890 0.4940 0.4970 0.5140
9.268000 0.5300 0.5490 0.5540 0.5660 0.5810
9.301248 0.5920 0.6010 0.6080 0.6290 0.6380
9.334000 0.6590 0.6760 0.6850 0.7010 0.7110
9.367248 0.7130 0.7200 0.7210 0.7230 0.7230
9.401000 0.7180 0.7060 0.6900 0.6700 0.6490
9.434248 0.6390 0.6330 0.6290 0.6280 0.6230
9.467000 0.6290 0.6310 0.6440 0.6540 0.6630
9.500248 0.6760 0.7000 0.7060 0.7210 0.7300
9.534000 0.7350 0.7520 0.7680 0.7730 0.7750
9.567248 0.7750 0.7780 0.7800 0.7830 0.7980
9.600000 0.8020 0.8050 0.8100 0.8140 0.8150
9.633248 0.8190 0.8220 0.8250 0.8270 0.8290
9.666000 0.8300 0.8320 0.8370 0.8390 0.8390
9.699248 0.8390 0.8390 0.8400 0.8420 0.8440
9.733000 0.8440 0.8450 0.8450 0.8470 0.8490
9.766248 0.8490 0.8500 0.8500 0.8520 0.8500
9.799000 0.8500 0.8520 0.8500 0.8500 0.8500
9.832248 0.8490 0.8490 0.8490 0.8470 0.8450
9.866000 0.8450 0.8450 0.8450 0.8450 0.8440
9.899248 0.8440 0.8420 0.8400 0.8390 0.8350
9.932000 0.8290 0.8220 0.8170 0.8150 0.8070
9.965248 0.8000 0.7980 0.7930 0.7900 0.7900
9.999000 0.7830 0.7770 0.7700 0.7630 0.7620
10.032248 0.7500 0.7400 0.7210 0.7010 0.6850
10.065000 0.6680 0.6510 0.6290 0.6010 0.5810
10.098248 0.5540 0.5440 0.5040 0.4850 0.4650
10.132000 0.4420 0.4130 0.3830 0.3600 0.3430
10.165248 0.3180 0.3060 0.2890 0.2760 0.2660
10.198000 0.2490 0.2420 0.2390 0.2310 0.2240
10.231248 0.2190 0.2140 0.2110 0.2090 0.2090
10.265000 0.2090 0.2090 0.2090 0.2090 0.2110
10.298248 0.2120 0.2170 0.2320 0.2440 0.2570
10.331000 0.2710 0.3060 0.3210 0.3400 0.3630
10.364248 0.3810 0.4020 0.4330 0.4620 0.4740
10.398000 0.5370 0.5570 0.5810 0.6130 0.6210
10.431248 0.6380 0.6490 0.6700 0.6860 0.6910
10.464000 0.7030 0.7180 0.7250 0.7300 0.7400
10.497248 0.7530 0.7630 0.7680 0.7720 0.7730
10.531000 0.7800 0.7870 0.7930 0.7980 0.8000
10.564248 0.8020 0.8050 0.8120 0.8120 0.8140
10.597000 0.8170 0.8200 0.8240 0.8290 0.8300
10.630248 0.8340 0.8370 0.8390 0.8390 0.8400
10.663000 0.8440 0.8470 0.8520 0.8540 0.8540
10.696248 0.8550 0.8620 0.8650 0.8650 0.8650
10.730000 0.8670 0.8670 0.8690 0.8690 0.8690
10.763248 0.8710 0.8710 0.8710 0.8710 0.8710
10.796000 0.8720 0.8740 0.8760 0.8770 0.8770
10.829248 0.8770 0.8810 0.8810 0.8820 0.8840
10.863000 0.8860 0.8870 0.8890 0.8890 0.8910
10.896248 0.8910 0.8920 0.8940 0.8960 0.8990
10.929000 0.9010 0.9020 0.9040 0.9040 0.9040
10.962248 0.9040 0.9040 0.9040 0.9040 0.9060
10.996000 0.9060 0.9070 0.9070 0.9090 0.9090
11.029248 0.9090 0.9110 0.9110 0.9110 0.9120
11.062000 0.9140 0.9160 0.9160 0.9160 0.9160
11.095248 0.9160 0.9160 0.9160 0.9140 0.9120
11.129000 0.9120 0.9140 0.9140 0.9160 0.9160
11.162248 0.9160 0.9170 0.9170 0.9160 0.9140
11.195000 0.9120 0.9120 0.9160 0.9160 0.9160
11.228248 0.9160 0.9160 0.9160 0.9160 0.9190
11.262000 0.9220 0.9220 0.9240 0.9240 0.9240
11.295248 0.9220 0.9210 0.9220 0.9240 0.9260
11.328000 0.9270 0.9290 0.9290 0.9290 0.9290
11.361248 0.9270 0.9270 0.9290 0.9310 0.9290
11.395000 0.9290 0.9290 0.9270 0.9270 0.9260
11.428248 0.9260 0.9260 0.9260 0.9270 0.9290
11.461000 0.9290 0.9310 0.9310 0.9310 0.9310
11.494248 0.9290 0.9310 0.9310 0.9310 0.9310
11.527000 0.9310 0.9310 0.9310 0.9340 0.9360
11.560248 0.9360 0.9360 0.9380 0.9380 0.9380
11.594000 0.9430 0.9430 0.9390 0.9390 0.9390
11.627248 0.9410 0.9410 0.9430 0.9430 0.9430
11.660000 0.9430 0.9430 0.9430 0.9430 0.9430
11.693248 0.9430 0.9430 0.9430 0.9430 0.9440
11.727000 0.9440 0.9460 0.9460 0.9440 0.9460
11.760248 0.9480 0.9480 0.9460 0.9440 0.9440
11.793000 0.9440 0.9460 0.9460 0.9460 0.9460
11.826248 0.9460 0.9460 0.9460 0.9460 0.9480
11.860000 0.9480 0.9460 0.9460 0.9460 0.9490
11.893248 0.9510 0.9530 0.9530 0.9530 0.9510
11.926000 0.9530 0.9530 0.9540 0.9540 0.9540
11.959248 0.9540 0.9540 0.9560 0.9560 0.9560
11.993000 0.9580 0.9590 0.9590 0.9590 0.9590
12.026248 0.9590 0.9590 0.9590 0.9580 0.9560
12.059000 0.9560 0.9580 0.9580 0.9590 0.9590
12.092248 0.9590 0.9590 0.9590 0.9610 0.9610
12.126000 0.9610 0.9610 0.9630 0.9630 0.9640
12.159248 0.9640 0.9640 0.9640 0.9630 0.9610
12.192000 0.9610 0.9590 0.9610 0.9610 0.9610
12.225248 0.9610 0.9610 0.9590 0.9590 0.9590
12.259000 0.9560 0.9540 0.9540 0.9530 0.9510
12.292248 0.9510 0.9540 0.9540 0.9540 0.9540
12.325000 0.9540 0.9540 0.9560 0.9580 0.9580
12.358248 0.9580 0.9560 0.9560 0.9560 0.9540
12.392000 0.9540 0.9540 0.9530 0.9530 0.9510
12.425248 0.9530 0.9530 0.9540 0.9560 0.9560
12.458000 0.9560 0.9540 0.9560 0.9560 0.9580
12.491248 0.9590 0.9590 0.9610 0.9630 0.9630
12.524000 0.9610 0.9590 0.9590 0.9590 0.9610
12.557248 0.9610 0.9630 0.9610 0.9610 0.9610
12.591000 0.9590 0.9560 0.9560 0.9540 0.9540
12.624248 0.9530 0.9530 0.9530 0.9530 0.9530
12.657000 0.9540 0.9540 0.9540 0.9540 0.9540
12.690248 0.9540 0.9540 0.9560 0.9560 0.9560
12.724000 0.9560 0.9560 0.9540 0.9540 0.9540
12.757248 0.9540 0.9560 0.9560 0.9530 0.9530
12.790000 0.9510 0.9510 0.9510 0.9530 0.9530
12.823248 0.9530 0.9540 0.9480 0.9460 0.9430
12.857000 0.9410 0.9430 0.9430 0.9430 0.9430
12.890248 0.9430 0.9410 0.9390 0.9390 0.9390
12.923000 0.9390 0.9390 0.9390 0.9410 0.9410
12.956248 0.9430 0.9430 0.9430 0.9430 0.9430
12.990000 0.9440 0.9440 0.9440 0.9440 0.9440
13.023248 0.9440 0.9460 0.9440 0.9430 0.9430
13.056000 0.9410 0.9390 0.9360 0.9360 0.9340
13.089248 0.9340 0.9340 0.9340 0.9340 0.9340
13.123000 0.9340 0.9340 0.9320 0.9320 0.9320
13.156248 0.9320 0.9310 0.9310 0.9290 0.9290
13.189000 0.9260 0.9260 0.9290 0.9290 0.9290
13.222248 0.9310 0.9310 0.9310 0.9310 0.9290
13.256000 0.9260 0.9260 0.9270 0.9290 0.9310
13.289248 0.9310 0.9310 0.9310 0.9290 0.9290
13.322000 0.9290 0.9290 0.9290 0.9270 0.9270
13.355248 0.9260 0.9260 0.9260 0.9260 0.9260
13.389000 0.9260 0.9260 0.9240 0.9220 0.9220
13.422248 0.9220 0.9220 0.9220 0.9220 0.9210
13.455000 0.9210 0.9190 0.9190 0.9190 0.9170
13.488248 0.9170 0.9160 0.9160 0.9160 0.9160
13.521000 0.9160 0.9140 0.9120 0.9110 0.9110
13.554248 0.9110 0.9110 0.9110 0.9060 0.9040
13.588000 0.9040 0.9040 0.9040 0.9040 0.9020
13.621248 0.9020 0.9020 0.9020 0.9020 0.9020
13.654000 0.9010 0.9010 0.9010 0.8990 0.8970
13.687248 0.8960 0.8960 0.8940 0.8910 0.8890
13.721000 0.8890 0.8910 0.8910 0.8910 0.8910
13.754248 0.8910 0.8890 0.8870 0.8860 0.8820
13.787000 0.8810 0.8810 0.8810 0.8790 0.8790
13.820248 0.8790 0.8770 0.8770 0.8770 0.8760
13.854000 0.8760 0.8760 0.8740 0.8760 0.8760
13.887248 0.8760 0.8760 0.8760 0.8760 0.8760
13.920000 0.8720 0.8710 0.8710 0.8710 0.8690
13.953248 0.8670 0.8670 0.8650 0.8650 0.8650
13.987000 0.8650 0.8650 0.8650 0.8650 0.8650
14.020248 0.8670 0.8670 0.8670 0.8650 0.8650
14.053000 0.8640 0.8640 0.8600 0.8570 0.8550
14.086248 0.8550 0.8550 0.8540 0.8540 0.8520
14.120000 0.8520 0.8520 0.8520 0.8520 0.8520
14.153248 0.8520 0.8520 0.8520 0.8520 0.8520
14.186000 0.8520 0.8500 0.8500 0.8470 0.8450
14.219248 0.8450 0.8450 0.8420 0.8420 0.8400
14.253000 0.8400 0.8390 0.8340 0.8320 0.8300
14.286248 0.8320 0.8320 0.8340 0.8350 0.8350
14.319000 0.8350 0.8340 0.8320 0.8300 0.8300
14.352248 0.8300 0.8300 0.8290 0.8270 0.8240
14.385000 0.8240 0.8240 0.8240 0.8220 0.8200
14.418248 0.8200 0.8190 0.8170 0.8150 0.8120
14.452000 0.8100 0.8090 0.8090 0.8070 0.8070
14.485248 0.8050 0.8050 0.8050 0.8050 0.8040
14.518000 0.8040 0.8040 0.8020 0.8000 0.7980
14.551248 0.7980 0.7970 0.7970 0.7950 0.7920
14.585000 0.7920 0.7900 0.7900 0.7900 0.7880
14.618248 0.7870 0.7850 0.7850 0.7850 0.7850
14.651000 0.7830 0.7820 0.7820 0.7800 0.7770
14.684248 0.7750 0.7750 0.7750 0.7750 0.7730
14.718000 0.7730 0.7700 0.7680 0.7670 0.7650
14.751248 0.7630 0.7620 0.7620 0.7600 0.7580
14.784000 0.7580 0.7580 0.7580 0.7600 0.7600
14.817248 0.7580 0.7580 0.7550 0.7520 0.7480
14.851000 0.7420 0.7370 0.7350 0.7330 0.7300
14.884248 0.7230 0.7200 0.7160 0.7060 0.7030
14.917000 0.7010 0.6930 0.6910 0.6860 0.6810
14.950248 0.6750 0.6660 0.6590 0.6480 0.6410
14.984000 0.6310 0.6210 0.6140 0.6080 0.5990
15.017248 0.5910 0.5820 0.5810 0.5770 0.5740
15.050000 0.5720 0.5690 0.5670 0.5640 0.5610
15.083248 0.5610 0.5590 0.5590 0.5590 0.5590
15.117000 0.5590 0.5590 0.5590 0.5590 0.5560
15.150248 0.5560 0.5560 0.5560 0.5560 0.5560
15.183000 0.5610 0.5610 0.5620 0.5660 0.5690
15.216248 0.5740 0.5740 0.5740 0.5770 0.5810
15.250000 0.5870 0.5910 0.5920 0.5990 0.6010
15.283248 0.6030 0.6090 0.6110 0.6140 0.6180
15.316000 0.6190 0.6230 0.6230 0.6240 0.6240
15.349248 0.6260 0.6290 0.6310 0.6340 0.6390
15.382000 0.6410 0.6410 0.6430 0.6430 0.6440
15.415248 0.6460 0.6460 0.6460 0.6460 0.6440
15.449000 0.6460 0.6460 0.6480 0.6480 0.6490
15.482248 0.6530 0.6530 0.6540 0.6540 0.6560
15.515000 0.6560 0.6560 0.6580 0.6580 0.6580
15.548248 0.6580 0.6580 0.6580 0.6580 0.6560
15.582000 0.6530 0.6530 0.6540 0.6540 0.6540
15.615248 0.6560 0.6560 0.6580 0.6580 0.6560
15.648000 0.6580 0.6560 0.6560 0.6560 0.6540
15.681248 0.6540 0.6530 0.6510 0.6510 0.6510
15.715000 0.6480 0.6490 0.6490 0.6510 0.6510
15.748248 0.6490 0.6490 0.6490 0.6480 0.6480
15.781000 0.6460 0.6480 0.6480 0.6510 0.6530
15.814248 0.6530 0.6530 0.6540 0.6540 0.6510
15.848000 0.6490 0.6460 0.6460 0.6460 0.6460
15.881248 0.6460 0.6480 0.6480 0.6480 0.6530
15.914000 0.6460 0.6440 0.6440 0.6440 0.6440
15.947248 0.6460 0.6460 0.6460 0.6510 0.6510
15.981000 0.6530 0.6540 0.6540 0.6540
##END=
