##TITLE=1,2,3,4,5,6-HEXACHLOROCYCLOHEXANE
$$ 99+% Gamma-ISOMER
##JCAMP-DX=4.24
##DATA TYPE=INFRARED SPECTRUM
##CLASS=COBLENTZ
##ORIGIN=DOW CHEMICAL COMPANY
##OWNER=COBLENTZ SOCIETY
Collection (C) 2018 copyright by the U.S. Secretary of Commerce
on behalf of the United States of America. All rights reserved.
##DATE=Not specified, most likely prior to 1970
##NAMES=LINDANE
##MOLFORM=C6 H6 Cl6
##SOURCE REFERENCE=COBLENTZ NO. 1264
##$NIST ID=B6001264
##$NIST SOURCE=COBLENTZ
##$NIST IMAGE=cob1264
##SPECTROMETER/DATA SYSTEM=Not specified, most likely a prism, grating, or hybrid spectrometer.
##STATE=SOLUTION (10% CCl4 FOR 3800-1330, 10% CS2 FOR 1330-450 CM^-^1)
##PATH LENGTH=0.011 CM, 0.011 CM
$$SPECTRAL CONTAMINATION DUE TO CCl4 AROUND 1550 CM^-^1
##SAMPLING PROCEDURE=TRANSMISSION
##RESOLUTION=4
##DATA PROCESSING=DIGITIZED BY NIST FROM HARD COPY (FROM TWO SEGMENTS)
##XUNITS=1/CM
##YUNITS=TRANSMITTANCE
##XFACTOR=1.000000
##YFACTOR=1
##DELTAX=1.220510
##FIRSTX=453.621
##LASTX=3791.72
##FIRSTY=0.937
##MAXX=3791.72
##MINX=453.621
##MAXY=1.074
##MINY=0.041
##NPOINTS=2736
##XYDATA=(X++(Y..Y))
453.621000 0.9370 0.9370 0.9380 0.9380 0.9380
459.723550 0.9380 0.9400 0.9400 0.9400 0.9400
465.826101 0.9400 0.9400 0.9380 0.9380 0.9370
471.928651 0.9370 0.9350 0.9141 0.9061 0.9000
478.031202 0.8950 0.8890 0.8331 0.7821 0.6334
484.133752 0.5095 0.4483 0.3913 0.3324 0.3300
490.236303 0.3320 0.5239 0.9095 0.9709 0.9899
496.338853 1.0069 1.0090 1.0130 1.0170 1.0200
502.441403 1.0220 1.0200 1.0220 1.0220 1.0240
508.543954 1.0260 1.0340 1.0400 1.0410 1.0430
514.646504 1.0450 1.0450 1.0450 1.0470 1.0490
520.749055 1.0510 1.0530 1.0550 1.0550 1.0550
526.851605 1.0530 1.0530 1.0530 1.0530 1.0530
532.954156 1.0530 1.0530 1.0510 1.0490 1.0490
539.056706 1.0490 1.0510 1.0530 1.0570 1.0590
545.159257 1.0590 1.0610 1.0610 1.0610 1.0620
551.261807 1.0610 1.0590 1.0590 1.0590 1.0590
557.364357 1.0570 1.0570 1.0570 1.0570 1.0550
563.466908 1.0550 1.0550 1.0550 1.0550 1.0530
569.569458 1.0530 1.0550 1.0570 1.0570 1.0590
575.672009 1.0610 1.0620 1.0640 1.0660 1.0680
581.774559 1.0700 1.0680 1.0700 1.0720 1.0740
587.877110 1.0740 1.0740 1.0740 1.0740 1.0740
593.979660 1.0740 1.0740 1.0720 1.0720 1.0720
600.082210 1.0740 1.0740 1.0740 1.0720 1.0720
606.184761 1.0720 1.0720 1.0720 1.0720 1.0700
612.287311 1.0680 1.0640 1.0640 1.0620 1.0610
618.389862 1.0610 1.0610 1.0610 1.0610 1.0610
624.492412 1.0550 1.0550 1.0530 1.0490 1.0490
630.594963 1.0470 1.0450 1.0450 1.0430 1.0360
636.697513 1.0300 1.0280 1.0260 1.0240 1.0220
642.800063 1.0200 1.0051 0.9980 0.9900 0.9900
648.902614 0.9800 0.9750 0.9710 0.9610 0.9540
655.005164 0.9520 0.9520 0.9520 0.9520 0.9441
661.107715 0.9310 0.9100 0.8930 0.8241 0.7612
667.210265 0.6693 0.6272 0.4509 0.4460 0.4480
673.312816 0.7401 0.8530 0.8740 0.8870 0.8870
679.415366 0.7574 0.6903 0.6243 0.5574 0.4258
685.517916 0.3409 0.2570 0.0412 0.0410 0.0490
691.620467 0.1766 0.3025 0.4831 0.5695 0.7260
697.723017 0.7269 0.6620 0.5761 0.4272 0.2654
703.825568 0.1922 0.1900 0.1920 0.3402 0.6252
709.928118 0.7500 0.7720 0.8909 0.9100 0.9329
716.030669 0.9519 0.9580 0.9690 0.9879 0.9960
722.133219 1.0010 1.0130 1.0150 1.0220 1.0240
728.235770 1.0240 1.0260 1.0260 1.0260 1.0260
734.338320 1.0260 1.0260 1.0240 1.0240 1.0240
740.440870 1.0240 1.0240 1.0300 1.0340 1.0360
746.543421 1.0400 1.0400 1.0410 1.0410 1.0410
752.645971 1.0400 1.0400 1.0380 1.0360 1.0340
758.748522 1.0320 1.0280 1.0220 1.0200 1.0200
764.851072 1.0150 1.0090 1.0010 0.9821 0.9651
770.953623 0.9329 0.8850 0.8110 0.7301 0.6292
777.056173 0.4594 0.4082 0.4040 0.4060 0.6188
783.158723 0.6901 0.7760 0.7740 0.7610 0.5803
789.261274 0.5760 0.5780 0.6059 0.6448 0.9403
795.363824 0.9790 0.9900 1.0000 1.0030 1.0090
801.466375 1.0150 1.0220 1.0240 1.0240 1.0240
807.568925 1.0240 1.0240 1.0240 1.0240 1.0240
813.671476 1.0240 1.0240 1.0240 1.0240 1.0240
819.774026 1.0240 1.0240 1.0240 1.0240 1.0220
825.876576 1.0200 1.0150 1.0050 1.0010 0.9980
831.979127 0.9920 0.9880 0.9790 0.9610 0.9540
838.081677 0.9420 0.9001 0.8601 0.8112 0.7652
844.184228 0.7038 0.5989 0.4940 0.4350 0.2003
850.286778 0.1980 0.2000 0.6015 0.6040 0.6706
856.389329 0.7061 0.7480 0.7690 0.7780 0.7880
862.491879 0.7950 0.8090 0.8140 0.8299 0.8390
868.594429 0.8620 0.8790 0.8950 0.9060 0.9100
874.696980 0.9120 0.9160 0.9250 0.9330 0.9370
880.799530 0.9460 0.9540 0.9540 0.9610 0.9650
886.902081 0.9770 0.9820 0.9920 0.9980 1.0000
893.004631 1.0000 1.0010 1.0010 1.0000 0.9960
899.107182 0.9920 0.9860 0.9770 0.9750 0.9631
905.209732 0.9580 0.9399 0.7930 0.6391 0.5831
911.312283 0.5381 0.5340 0.5360 0.6952 0.8551
917.414833 0.9420 0.9690 0.9860 0.9940 0.9980
923.517383 1.0010 1.0010 1.0050 1.0070 1.0090
929.619934 1.0130 1.0150 1.0170 1.0190 1.0200
935.722484 1.0200 1.0190 1.0150 1.0110 1.0070
941.825035 1.0050 1.0030 0.9980 0.9820 0.9790
947.927585 0.9461 0.9141 0.8751 0.8073 0.7424
954.030136 0.6458 0.5300 0.5260 0.5280 0.8276
960.132686 0.8559 0.8789 0.8810 0.8810 0.8790
966.235236 0.8769 0.8259 0.7720 0.7690 0.7700
972.337787 0.8828 0.9349 0.9559 0.9769 0.9899
978.440337 1.0030 1.0090 1.0110 1.0130 1.0130
984.542888 1.0130 1.0130 1.0150 1.0200 1.0220
990.645438 1.0240 1.0260 1.0260 1.0260 1.0260
996.747989 1.0260 1.0260 1.0280 1.0280 1.0280
1002.850539 1.0280 1.0260 1.0260 1.0260 1.0260
1008.953089 1.0240 1.0240 1.0260 1.0260 1.0260
1015.055640 1.0260 1.0260 1.0260 1.0260 1.0240
1021.158190 1.0220 1.0220 1.0220 1.0200 1.0110
1027.260741 1.0050 1.0010 0.9880 0.9770 0.9400
1033.363291 0.9210 0.8961 0.8641 0.8600 0.8620
1039.465842 0.8961 0.9540 0.9840 0.9940 1.0010
1045.568392 1.0090 1.0150 1.0200 1.0220 1.0220
1051.670942 1.0260 1.0280 1.0280 1.0300 1.0320
1057.773493 1.0320 1.0320 1.0320 1.0320 1.0320
1063.876043 1.0320 1.0320 1.0300 1.0300 1.0300
1069.978594 1.0300 1.0280 1.0280 1.0280 1.0280
1076.081144 1.0280 1.0260 1.0260 1.0260 1.0260
1082.183695 1.0260 1.0260 1.0260 1.0240 1.0220
1088.286245 1.0190 1.0150 1.0030 0.9980 0.9820
1094.388796 0.9630 0.9590 0.9590 0.9580 0.8754
1100.491346 0.8429 0.8119 0.7800 0.7510 0.6850
1106.593896 0.6850 0.6870 0.7478 0.8636 0.9168
1112.696447 0.9441 0.9770 0.9860 0.9940 1.0000
1118.798997 1.0070 1.0220 1.0260 1.0320 1.0320
1124.901548 1.0340 1.0360 1.0400 1.0410 1.0430
1131.004098 1.0430 1.0430 1.0430 1.0410 1.0400
1137.106649 1.0380 1.0380 1.0360 1.0320 1.0320
1143.209199 1.0320 1.0320 1.0360 1.0360 1.0360
1149.311749 1.0360 1.0380 1.0380 1.0400 1.0410
1155.414300 1.0410 1.0410 1.0410 1.0410 1.0400
1161.516850 1.0400 1.0400 1.0400 1.0400 1.0400
1167.619401 1.0380 1.0360 1.0320 1.0280 1.0260
1173.721951 1.0240 1.0220 1.0150 1.0130 0.9880
1179.824502 0.9840 0.9880 0.9940 1.0000 1.0030
1185.927052 1.0130 1.0150 1.0170 1.0170 1.0150
1192.029602 1.0130 1.0130 1.0090 0.9941 0.9880
1198.132153 0.9800 0.9610 0.9460 0.9460 0.9630
1204.234703 0.9670 0.9670 0.9650 0.9610 0.9560
1210.337254 0.9420 0.9270 0.9140 0.8830 0.8530
1216.439804 0.8121 0.7721 0.6753 0.6451 0.6450
1222.542355 0.7192 0.7952 0.8740 0.9160 0.9350
1228.644905 0.9520 0.9590 0.9610 0.9610 0.9580
1234.747455 0.9580 0.9440 0.9370 0.9100 0.8810
1240.850006 0.8121 0.7441 0.7440 0.7530 0.7630
1246.952556 0.7780 0.7931 0.8371 0.8810 0.9250
1253.055107 0.9380 0.9480 0.9560 0.9560 0.9560
1259.157657 0.9540 0.9460 0.9350 0.9270 0.9230
1265.260208 0.9230 0.9210 0.9210 0.9140 0.9120
1271.362758 0.8960 0.8910 0.8790 0.8680 0.8370
1277.465309 0.7990 0.6962 0.6920 0.6940 0.7269
1283.567859 0.7744 0.9141 0.9370 0.9610 0.9770
1289.670409 0.9860 0.9940 0.9980 1.0000 1.0000
1295.772960 1.0010 1.0010 1.0030 1.0030 1.0000
1301.875510 1.0000 0.9960 0.9940 0.9920 0.9920
1307.978061 0.9860 0.9800 0.9790 0.9690 0.9610
1314.080611 0.9580 0.9560 0.9540 0.9540 0.9540
1320.183162 0.9460 0.9460 0.9440 0.9400 0.9310
1326.285712 0.9170 0.9100 0.9020 0.8980 0.8980
1332.388262 0.8910 0.8890 0.8830 0.8770 0.8720
1338.490813 0.7950 0.7570 0.6941 0.5664 0.3568
1344.593363 0.3490 0.3490 0.3564 0.5804 0.8680
1350.695914 0.9020 0.9120 0.9250 0.9370 0.9400
1356.798464 0.9440 0.9460 0.9500 0.9590 0.9610
1362.901015 0.9670 0.9670 0.9670 0.9670 0.9650
1369.003565 0.9650 0.9630 0.9630 0.9650 0.9690
1375.106115 0.9690 0.9690 0.9690 0.9710 0.9730
1381.208666 0.9770 0.9770 0.9770 0.9790 0.9790
1387.311216 0.9790 0.9770 0.9750 0.9750 0.9770
1393.413767 0.9770 0.9770 0.9750 0.9730 0.9750
1399.516317 0.9770 0.9770 0.9790 0.9790 0.9790
1405.618868 0.9790 0.9790 0.9790 0.9790 0.9790
1411.721418 0.9790 0.9800 0.9800 0.9800 0.9800
1417.823968 0.9800 0.9790 0.9790 0.9800 0.9800
1423.926519 0.9820 0.9840 0.9820 0.9820 0.9820
1430.029069 0.9820 0.9820 0.9820 0.9820 0.9820
1436.131620 0.9820 0.9820 0.9820 0.9840 0.9820
1442.234170 0.9820 0.9820 0.9820 0.9820 0.9800
1448.336721 0.9800 0.9800 0.9800 0.9800 0.9800
1454.439271 0.9790 0.9790 0.9790 0.9770 0.9750
1460.541822 0.9770 0.9750 0.9750 0.9750 0.9750
1466.644372 0.9750 0.9750 0.9730 0.9690 0.9690
1472.746922 0.9670 0.9630 0.9580 0.9560 0.9520
1478.849473 0.9460 0.9420 0.9380 0.9350 0.9330
1484.952023 0.9330 0.9330 0.9250 0.9170 0.9120
1491.054574 0.9060 0.9020 0.8950 0.8910 0.8910
1497.157124 0.8790 0.8680 0.8540 0.8490 0.8390
1503.259675 0.8329 0.8160 0.8050 0.7990 0.7970
1509.362225 0.7950 0.7860 0.7720 0.7650 0.7630
1515.464775 0.7590 0.7570 0.7500 0.7400 0.7250
1521.567326 0.7230 0.7170 0.7130 0.7090 0.7060
1527.669876 0.6980 0.6870 0.6750 0.6620 0.6390
1533.772427 0.6240 0.6160 0.6030 0.5950 0.5621
1539.874977 0.5400 0.5340 0.5260 0.5150 0.5030
1545.977528 0.5010 0.5010 0.5010 0.5010 0.5030
1552.080078 0.5090 0.5150 0.5170 0.5281 0.5740
1558.182628 0.5800 0.5870 0.5910 0.6010 0.6160
1564.285179 0.6331 0.6450 0.6501 0.6710 0.6810
1570.387729 0.6870 0.6920 0.6920 0.6980 0.7000
1576.490280 0.7000 0.7020 0.7080 0.7130 0.7210
1582.592830 0.7230 0.7250 0.7290 0.7400 0.7440
1588.695381 0.7611 0.7780 0.7820 0.7950 0.8010
1594.797931 0.8240 0.8350 0.8490 0.8600 0.8740
1600.900481 0.8850 0.8960 0.9060 0.9140 0.9270
1607.003032 0.9310 0.9350 0.9420 0.9480 0.9560
1613.105582 0.9580 0.9630 0.9650 0.9670 0.9710
1619.208133 0.9730 0.9750 0.9750 0.9790 0.9790
1625.310683 0.9790 0.9800 0.9820 0.9840 0.9880
1631.413234 0.9920 0.9920 0.9940 0.9960 1.0000
1637.515784 1.0010 1.0010 1.0030 1.0030 1.0030
1643.618335 1.0030 1.0030 1.0030 1.0030 1.0030
1649.720885 1.0030 1.0030 1.0030 1.0010 1.0010
1655.823435 1.0010 1.0000 0.9980 0.9980 0.9980
1661.925986 1.0000 1.0000 1.0000 1.0000 1.0010
1668.028536 1.0010 1.0010 1.0010 1.0010 1.0010
1674.131087 0.9960 0.9960 0.9980 1.0000 1.0000
1680.233637 1.0000 1.0010 1.0010 1.0010 1.0010
1686.336188 1.0010 1.0030 1.0030 1.0000 1.0000
1692.438738 1.0000 0.9980 0.9980 0.9980 0.9960
1698.541288 0.9980 0.9980 0.9980 0.9980 0.9980
1704.643839 0.9980 1.0000 1.0000 1.0000 0.9980
1710.746389 1.0000 1.0000 1.0000 1.0000 1.0000
1716.848940 1.0000 1.0000 1.0000 1.0000 1.0000
1722.951490 1.0000 1.0000 0.9980 0.9980 0.9980
1729.054041 0.9980 0.9960 0.9960 0.9960 0.9960
1735.156591 0.9980 0.9980 0.9980 0.9980 0.9980
1741.259141 0.9980 0.9980 0.9980 0.9980 1.0000
1747.361692 1.0000 1.0000 1.0000 1.0000 1.0000
1753.464242 1.0010 1.0010 1.0010 1.0010 1.0000
1759.566793 1.0000 1.0000 1.0000 1.0000 1.0000
1765.669343 1.0000 1.0000 1.0000 1.0000 1.0010
1771.771894 1.0010 1.0010 1.0010 1.0010 1.0030
1777.874444 1.0030 1.0030 1.0010 1.0010 1.0010
1783.976994 1.0000 1.0000 1.0000 1.0000 1.0010
1790.079545 1.0010 0.9980 0.9980 0.9980 1.0000
1796.182095 1.0000 1.0000 1.0000 1.0000 1.0000
1802.284646 1.0000 1.0000 0.9980 0.9980 0.9980
1808.387196 0.9980 0.9980 0.9980 0.9980 0.9980
1814.489747 0.9980 0.9980 0.9980 0.9980 0.9980
1820.592297 0.9980 0.9980 0.9980 0.9980 0.9980
1826.694848 0.9980 0.9980 0.9980 0.9980 0.9960
1832.797398 0.9960 0.9960 0.9960 0.9960 0.9960
1838.899948 0.9960 0.9960 0.9960 0.9960 0.9960
1845.002499 0.9960 0.9960 0.9960 0.9980 0.9960
1851.105049 0.9960 0.9960 0.9940 0.9940 0.9940
1857.207600 0.9940 0.9960 0.9940 0.9960 0.9960
1863.310150 0.9980 0.9980 0.9980 1.0000 1.0000
1869.412701 1.0000 1.0000 1.0000 1.0000 1.0000
1875.515251 1.0000 1.0000 1.0000 1.0000 0.9980
1881.617801 0.9980 0.9960 0.9960 0.9960 0.9960
1887.720352 0.9960 0.9960 0.9960 0.9940 0.9940
1893.822902 0.9940 0.9940 0.9940 0.9940 0.9940
1899.925453 0.9940 0.9940 0.9940 0.9940 0.9960
1906.028003 0.9960 0.9980 0.9980 1.0000 1.0000
1912.130554 1.0000 1.0010 1.0010 1.0030 1.0030
1918.233104 1.0030 1.0030 1.0030 1.0030 1.0030
1924.335654 1.0030 1.0030 1.0030 1.0030 1.0050
1930.438205 1.0030 1.0010 1.0010 1.0010 1.0010
1936.540755 1.0010 1.0010 1.0010 1.0010 1.0010
1942.643306 1.0010 1.0010 1.0010 1.0030 1.0030
1948.745856 1.0030 1.0030 1.0010 0.9980 0.9980
1954.848407 1.0000 1.0010 1.0010 1.0010 1.0010
1960.950957 1.0010 1.0010 1.0000 1.0000 1.0000
1967.053507 1.0000 0.9980 0.9980 1.0000 1.0000
1973.156058 1.0000 1.0000 0.9980 0.9980 1.0000
1979.258608 1.0010 1.0010 1.0000 1.0000 1.0000
1985.361159 1.0000 1.0000 1.0000 1.0000 0.9940
1991.463709 0.9920 0.9860 0.9790 0.9790 0.9790
1997.566260 0.9840 0.9880 0.9940 0.9960 0.9980
2003.668810 0.9990 1.0000 0.9980 0.9960 0.9950
2009.771361 0.9940 0.9940 0.9940 0.9950 0.9960
2015.873911 0.9960 0.9960 0.9960 0.9960 0.9960
2021.976461 0.9960 0.9960 0.9960 0.9970 0.9980
2028.079012 0.9980 0.9980 0.9980 0.9980 0.9989
2034.181562 0.9999 1.0000 1.0000 1.0000 1.0000
2040.284113 1.0005 1.0010 1.0010 1.0010 1.0010
2046.386663 1.0010 1.0010 1.0010 1.0010 1.0010
2052.489214 1.0010 1.0010 1.0010 1.0010 1.0010
2058.591764 1.0010 1.0019 1.0029 1.0030 1.0030
2064.694314 1.0039 1.0049 1.0041 1.0031 1.0030
2070.796865 1.0030 1.0030 1.0030 1.0030 1.0030
2076.899415 1.0030 1.0030 1.0030 1.0030 1.0030
2083.001966 1.0030 1.0030 1.0030 1.0030 1.0030
2089.104516 1.0030 1.0030 1.0030 1.0030 1.0030
2095.207067 1.0030 1.0030 1.0030 1.0030 1.0030
2101.309617 1.0030 1.0030 1.0030 1.0030 1.0030
2107.412167 1.0030 1.0030 1.0030 1.0030 1.0030
2113.514718 1.0030 1.0030 1.0030 1.0030 1.0030
2119.617268 1.0030 1.0030 1.0030 1.0030 1.0030
2125.719819 1.0030 1.0030 1.0030 1.0030 1.0038
2131.822369 1.0048 1.0042 1.0032 1.0030 1.0030
2137.924920 1.0022 1.0012 1.0010 1.0010 1.0010
2144.027470 1.0010 1.0010 1.0010 1.0010 1.0010
2150.130020 1.0010 1.0010 1.0010 1.0010 1.0010
2156.232571 1.0010 1.0010 1.0010 1.0010 1.0010
2162.335121 1.0010 1.0010 1.0010 1.0010 1.0010
2168.437672 1.0010 1.0017 1.0027 1.0037 1.0047
2174.540222 1.0043 1.0033 1.0030 1.0030 1.0030
2180.642773 1.0030 1.0030 1.0030 1.0030 1.0030
2186.745323 1.0030 1.0030 1.0030 1.0030 1.0030
2192.847874 1.0030 1.0030 1.0030 1.0030 1.0030
2198.950424 1.0030 1.0030 1.0030 1.0030 1.0023
2205.052974 1.0013 1.0010 1.0010 1.0010 1.0010
2211.155525 1.0010 1.0010 1.0010 1.0010 1.0010
2217.258075 1.0010 1.0007 1.0002 1.0000 1.0000
2223.360626 0.9993 0.9983 0.9986 0.9996 1.0000
2229.463176 1.0000 0.9994 0.9984 0.9974 0.9964
2235.565727 0.9954 0.9944 0.9934 0.9924 0.9920
2241.668277 0.9920 0.9920 0.9920 0.9920 0.9920
2247.770827 0.9920 0.9920 0.9920 0.9920 0.9914
2253.873378 0.9904 0.9894 0.9884 0.9874 0.9864
2259.975928 0.9860 0.9860 0.9860 0.9860 0.9854
2266.078479 0.9844 0.9834 0.9824 0.9814 0.9804
2272.181029 0.9800 0.9800 0.9797 0.9792 0.9779
2278.283580 0.9759 0.9756 0.9766 0.9764 0.9754
2284.386130 0.9750 0.9750 0.9745 0.9735 0.9730
2290.488680 0.9730 0.9725 0.9715 0.9710 0.9710
2296.591231 0.9710 0.9710 0.9715 0.9725 0.9735
2302.693781 0.9745 0.9750 0.9750 0.9755 0.9765
2308.796332 0.9765 0.9755 0.9755 0.9765 0.9770
2314.898882 0.9770 0.9770 0.9770 0.9775 0.9785
2321.001433 0.9793 0.9798 0.9798 0.9793 0.9792
2327.103983 0.9797 0.9805 0.9815 0.9820 0.9820
2333.206533 0.9825 0.9835 0.9845 0.9855 0.9860
2339.309084 0.9860 0.9865 0.9875 0.9885 0.9895
2345.411634 0.9905 0.9915 0.9920 0.9920 0.9920
2351.514185 0.9920 0.9920 0.9920 0.9920 0.9920
2357.616735 0.9924 0.9934 0.9940 0.9940 0.9944
2363.719286 0.9954 0.9960 0.9960 0.9964 0.9974
2369.821836 0.9976 0.9966 0.9960 0.9960 0.9960
2375.924387 0.9960 0.9960 0.9960 0.9960 0.9960
2382.026937 0.9956 0.9946 0.9940 0.9940 0.9932
2388.129487 0.9912 0.9896 0.9886 0.9880 0.9880
2394.232038 0.9884 0.9894 0.9904 0.9914 0.9924
2400.334588 0.9934 0.9940 0.9940 0.9940 0.9940
2406.437139 0.9940 0.9940 0.9936 0.9927 0.9917
2412.539689 0.9907 0.9900 0.9900 0.9900 0.9900
2418.642240 0.9900 0.9900 0.9897 0.9887 0.9880
2424.744790 0.9880 0.9880 0.9880 0.9880 0.9880
2430.847340 0.9880 0.9880 0.9880 0.9880 0.9880
2436.949891 0.9880 0.9880 0.9880 0.9880 0.9880
2443.052441 0.9880 0.9880 0.9880 0.9880 0.9880
2449.154992 0.9880 0.9880 0.9880 0.9880 0.9880
2455.257542 0.9880 0.9880 0.9880 0.9880 0.9880
2461.360093 0.9880 0.9880 0.9880 0.9877 0.9867
2467.462643 0.9860 0.9860 0.9860 0.9860 0.9860
2473.565193 0.9860 0.9860 0.9860 0.9857 0.9848
2479.667744 0.9838 0.9828 0.9818 0.9808 0.9800
2485.770294 0.9800 0.9800 0.9800 0.9800 0.9800
2491.872845 0.9802 0.9812 0.9820 0.9820 0.9822
2497.975395 0.9832 0.9840 0.9840 0.9840 0.9840
2504.077946 0.9840 0.9840 0.9842 0.9852 0.9860
2510.180496 0.9860 0.9860 0.9860 0.9856 0.9836
2516.283047 0.9817 0.9802 0.9788 0.9778 0.9768
2522.385597 0.9758 0.9752 0.9762 0.9772 0.9782
2528.488147 0.9791 0.9796 0.9800 0.9800 0.9800
2534.590698 0.9800 0.9802 0.9812 0.9818 0.9808
2540.693248 0.9800 0.9800 0.9800 0.9800 0.9800
2546.795799 0.9800 0.9800 0.9800 0.9800 0.9800
2552.898349 0.9800 0.9800 0.9800 0.9800 0.9800
2559.000900 0.9800 0.9800 0.9800 0.9800 0.9800
2565.103450 0.9800 0.9800 0.9802 0.9822 0.9841
2571.206000 0.9851 0.9860 0.9860 0.9859 0.9849
2577.308551 0.9839 0.9829 0.9819 0.9809 0.9800
2583.411101 0.9800 0.9800 0.9800 0.9800 0.9800
2589.513652 0.9800 0.9800 0.9802 0.9822 0.9841
2595.616202 0.9861 0.9880 0.9880 0.9880 0.9880
2601.718753 0.9881 0.9891 0.9900 0.9900 0.9900
2607.821303 0.9900 0.9900 0.9910 0.9921 0.9931
2613.923853 0.9940 0.9940 0.9940 0.9940 0.9940
2620.026404 0.9940 0.9940 0.9930 0.9920 0.9920
2626.128954 0.9920 0.9910 0.9900 0.9900 0.9900
2632.231505 0.9880 0.9860 0.9860 0.9860 0.9860
2638.334055 0.9860 0.9860 0.9860 0.9860 0.9860
2644.436606 0.9860 0.9860 0.9860 0.9860 0.9850
2650.539156 0.9840 0.9840 0.9840 0.9840 0.9840
2656.641706 0.9830 0.9820 0.9820 0.9820 0.9810
2662.744257 0.9800 0.9810 0.9820 0.9820 0.9820
2668.846807 0.9830 0.9840 0.9859 0.9879 0.9880
2674.949358 0.9880 0.9889 0.9899 0.9909 0.9919
2681.051908 0.9920 0.9920 0.9929 0.9939 0.9940
2687.154459 0.9940 0.9940 0.9940 0.9940 0.9940
2693.257009 0.9940 0.9940 0.9940 0.9940 0.9940
2699.359560 0.9940 0.9931 0.9921 0.9920 0.9920
2705.462110 0.9920 0.9920 0.9920 0.9920 0.9920
2711.564660 0.9920 0.9920 0.9920 0.9929 0.9939
2717.667211 0.9958 0.9978 0.9980 0.9980 0.9971
2723.769761 0.9961 0.9960 0.9960 0.9960 0.9960
2729.872312 0.9960 0.9960 0.9960 0.9960 0.9960
2735.974862 0.9960 0.9960 0.9960 0.9960 0.9960
2742.077413 0.9960 0.9960 0.9960 0.9960 0.9960
2748.179963 0.9960 0.9960 0.9960 0.9960 0.9960
2754.282513 0.9960 0.9960 0.9952 0.9942 0.9940
2760.385064 0.9940 0.9940 0.9940 0.9940 0.9940
2766.487614 0.9940 0.9940 0.9940 0.9940 0.9940
2772.590165 0.9940 0.9948 0.9958 0.9960 0.9960
2778.692715 0.9960 0.9960 0.9960 0.9960 0.9960
2784.795266 0.9960 0.9960 0.9960 0.9960 0.9960
2790.897816 0.9960 0.9960 0.9960 0.9960 0.9968
2797.000366 0.9978 0.9980 0.9980 0.9980 0.9980
2803.102917 0.9980 0.9980 0.9980 0.9980 0.9980
2809.205467 0.9980 0.9973 0.9963 0.9960 0.9960
2815.308018 0.9967 0.9977 0.9980 0.9980 0.9973
2821.410568 0.9963 0.9960 0.9960 0.9960 0.9960
2827.513119 0.9960 0.9960 0.9960 0.9960 0.9960
2833.615669 0.9960 0.9953 0.9943 0.9940 0.9940
2839.718219 0.9933 0.9923 0.9920 0.9920 0.9920
2845.820770 0.9920 0.9927 0.9937 0.9940 0.9940
2851.923320 0.9947 0.9957 0.9960 0.9960 0.9960
2858.025871 0.9960 0.9960 0.9960 0.9960 0.9960
2864.128421 0.9953 0.9943 0.9940 0.9940 0.9940
2870.230972 0.9940 0.9940 0.9940 0.9940 0.9940
2876.333522 0.9940 0.9940 0.9934 0.9924 0.9920
2882.436073 0.9920 0.9920 0.9920 0.9920 0.9920
2888.538623 0.9920 0.9920 0.9920 0.9920 0.9914
2894.641173 0.9904 0.9900 0.9900 0.9900 0.9900
2900.743724 0.9894 0.9884 0.9880 0.9880 0.9874
2906.846274 0.9864 0.9854 0.9844 0.9834 0.9824
2912.948825 0.9820 0.9820 0.9811 0.9796 0.9784
2919.051375 0.9774 0.9770 0.9770 0.9759 0.9739
2925.153926 0.9692 0.9622 0.9582 0.9567 0.9515
2931.256476 0.9435 0.9386 0.9361 0.9177 0.8863
2937.359026 0.8606 0.8397 0.8228 0.8093 0.8019
2943.461577 0.7999 0.7995 0.8005 0.8113 0.8313
2949.564127 0.8581 0.8915 0.9144 0.9270 0.9359
2955.666678 0.9414 0.9450 0.9470 0.9475 0.9465
2961.769228 0.9455 0.9445 0.9418 0.9373 0.9232
2967.871779 0.8993 0.8763 0.8544 0.8420 0.8400
2973.974329 0.8390 0.8390 0.8399 0.8420 0.8471
2980.076879 0.8556 0.8641 0.8725 0.8789 0.8829
2986.179430 0.8864 0.8894 0.8915 0.8925 0.8930
2992.281980 0.8930 0.8934 0.8944 0.8965 0.9000
2998.384531 0.9042 0.9092 0.9144 0.9199 0.9252
3004.487081 0.9302 0.9339 0.9359 0.9385 0.9420
3010.589632 0.9466 0.9526 0.9564 0.9574 0.9582
3016.692182 0.9587 0.9594 0.9604 0.9626 0.9666
3022.794732 0.9694 0.9704 0.9714 0.9724 0.9734
3028.897283 0.9744 0.9754 0.9764 0.9774 0.9784
3034.999833 0.9792 0.9797 0.9800 0.9800 0.9804
3041.102384 0.9814 0.9824 0.9834 0.9840 0.9840
3047.204934 0.9844 0.9854 0.9860 0.9860 0.9860
3053.307485 0.9860 0.9864 0.9874 0.9880 0.9880
3059.410035 0.9880 0.9880 0.9880 0.9880 0.9880
3065.512586 0.9880 0.9880 0.9880 0.9880 0.9880
3071.615136 0.9880 0.9880 0.9880 0.9880 0.9883
3077.717686 0.9893 0.9900 0.9900 0.9900 0.9900
3083.820237 0.9900 0.9900 0.9900 0.9900 0.9900
3089.922787 0.9900 0.9903 0.9913 0.9923 0.9933
3096.025338 0.9940 0.9940 0.9943 0.9953 0.9957
3102.127888 0.9947 0.9943 0.9953 0.9960 0.9960
3108.230439 0.9963 0.9973 0.9980 0.9980 0.9980
3114.332989 0.9980 0.9980 0.9980 0.9980 0.9980
3120.435539 0.9982 0.9992 1.0000 1.0000 1.0000
3126.538090 1.0000 1.0000 1.0000 1.0000 1.0000
3132.640640 1.0001 1.0006 1.0010 1.0010 1.0010
3138.743191 1.0010 1.0010 1.0010 1.0010 1.0010
3144.845741 1.0010 1.0010 1.0010 1.0010 1.0012
3150.948292 1.0022 1.0030 1.0030 1.0030 1.0030
3157.050842 1.0032 1.0042 1.0050 1.0050 1.0050
3163.153392 1.0050 1.0050 1.0050 1.0050 1.0050
3169.255943 1.0050 1.0050 1.0050 1.0050 1.0050
3175.358493 1.0050 1.0050 1.0050 1.0052 1.0062
3181.461044 1.0070 1.0070 1.0070 1.0070 1.0070
3187.563594 1.0070 1.0071 1.0081 1.0090 1.0090
3193.666145 1.0090 1.0090 1.0090 1.0090 1.0090
3199.768695 1.0090 1.0090 1.0090 1.0090 1.0090
3205.871245 1.0090 1.0090 1.0090 1.0090 1.0090
3211.973796 1.0090 1.0089 1.0079 1.0070 1.0070
3218.076346 1.0070 1.0070 1.0070 1.0070 1.0071
3224.178897 1.0081 1.0090 1.0090 1.0091 1.0101
3230.281447 1.0111 1.0121 1.0130 1.0130 1.0131
3236.383998 1.0141 1.0150 1.0150 1.0149 1.0139
3242.486548 1.0130 1.0130 1.0130 1.0130 1.0130
3248.589099 1.0130 1.0130 1.0130 1.0130 1.0130
3254.691649 1.0130 1.0130 1.0130 1.0140 1.0150
3260.794199 1.0150 1.0150 1.0150 1.0150 1.0150
3266.896750 1.0150 1.0160 1.0170 1.0170 1.0170
3272.999300 1.0160 1.0150 1.0150 1.0150 1.0160
3279.101851 1.0170 1.0170 1.0170 1.0160 1.0150
3285.204401 1.0150 1.0150 1.0150 1.0150 1.0160
3291.306952 1.0170 1.0170 1.0170 1.0170 1.0170
3297.409502 1.0180 1.0190 1.0190 1.0190 1.0180
3303.512052 1.0170 1.0170 1.0170 1.0170 1.0170
3309.614603 1.0170 1.0170 1.0170 1.0170 1.0170
3315.717153 1.0170 1.0170 1.0170 1.0180 1.0190
3321.819704 1.0190 1.0190 1.0195 1.0200 1.0195
3327.922254 1.0190 1.0190 1.0190 1.0190 1.0190
3334.024805 1.0190 1.0190 1.0190 1.0190 1.0190
3340.127355 1.0190 1.0181 1.0171 1.0170 1.0170
3346.229905 1.0170 1.0170 1.0170 1.0170 1.0170
3352.332456 1.0170 1.0170 1.0170 1.0170 1.0170
3358.435006 1.0179 1.0189 1.0190 1.0190 1.0190
3364.537557 1.0190 1.0190 1.0190 1.0190 1.0190
3370.640107 1.0190 1.0190 1.0190 1.0190 1.0190
3376.742658 1.0190 1.0190 1.0190 1.0190 1.0190
3382.845208 1.0190 1.0190 1.0190 1.0190 1.0190
3388.947758 1.0190 1.0190 1.0190 1.0190 1.0190
3395.050309 1.0190 1.0190 1.0190 1.0190 1.0190
3401.152859 1.0190 1.0190 1.0190 1.0190 1.0190
3407.255410 1.0190 1.0190 1.0190 1.0190 1.0190
3413.357960 1.0190 1.0194 1.0199 1.0196 1.0191
3419.460511 1.0190 1.0190 1.0190 1.0190 1.0190
3425.563061 1.0190 1.0190 1.0190 1.0182 1.0172
3431.665612 1.0170 1.0170 1.0170 1.0170 1.0170
3437.768162 1.0170 1.0170 1.0170 1.0170 1.0170
3443.870712 1.0170 1.0170 1.0170 1.0170 1.0170
3449.973263 1.0170 1.0170 1.0170 1.0170 1.0170
3456.075813 1.0163 1.0153 1.0150 1.0150 1.0150
3462.178364 1.0150 1.0150 1.0150 1.0150 1.0150
3468.280914 1.0150 1.0150 1.0150 1.0150 1.0150
3474.383465 1.0150 1.0150 1.0150 1.0157 1.0167
3480.486015 1.0170 1.0170 1.0163 1.0153 1.0150
3486.588565 1.0150 1.0143 1.0133 1.0123 1.0113
3492.691116 1.0110 1.0110 1.0110 1.0110 1.0110
3498.793666 1.0110 1.0110 1.0110 1.0110 1.0110
3504.896217 1.0117 1.0127 1.0130 1.0130 1.0130
3510.998767 1.0130 1.0130 1.0130 1.0130 1.0130
3517.101318 1.0130 1.0130 1.0124 1.0114 1.0110
3523.203868 1.0110 1.0110 1.0110 1.0110 1.0110
3529.306418 1.0110 1.0110 1.0110 1.0110 1.0110
3535.408969 1.0110 1.0104 1.0094 1.0090 1.0090
3541.511519 1.0090 1.0090 1.0090 1.0090 1.0090
3547.614070 1.0090 1.0090 1.0090 1.0090 1.0090
3553.716620 1.0090 1.0090 1.0090 1.0090 1.0090
3559.819171 1.0090 1.0090 1.0090 1.0090 1.0090
3565.921721 1.0090 1.0090 1.0090 1.0090 1.0090
3572.024271 1.0090 1.0090 1.0090 1.0085 1.0075
3578.126822 1.0070 1.0070 1.0065 1.0055 1.0050
3584.229372 1.0050 1.0045 1.0035 1.0030 1.0030
3590.331923 1.0030 1.0030 1.0030 1.0030 1.0025
3596.434473 1.0015 1.0010 1.0010 1.0010 1.0010
3602.537024 1.0010 1.0010 1.0010 1.0010 1.0010
3608.639574 1.0010 1.0010 1.0010 1.0010 1.0010
3614.742125 1.0010 1.0010 1.0010 1.0010 1.0010
3620.844675 1.0010 1.0010 1.0010 1.0010 1.0010
3626.947225 1.0008 1.0003 1.0000 1.0000 1.0000
3633.049776 1.0000 1.0000 1.0000 1.0000 1.0000
3639.152326 1.0000 1.0000 1.0000 1.0000 1.0000
3645.254877 1.0000 1.0000 1.0000 0.9991 0.9971
3651.357427 0.9960 0.9960 0.9960 0.9960 0.9960
3657.459978 0.9960 0.9960 0.9960 0.9960 0.9960
3663.562528 0.9964 0.9974 0.9980 0.9980 0.9980
3669.665078 0.9980 0.9980 0.9980 0.9980 0.9980
3675.767629 0.9980 0.9980 0.9980 0.9980 0.9980
3681.870179 0.9980 0.9980 0.9980 0.9980 0.9980
3687.972730 0.9980 0.9980 0.9980 0.9980 0.9984
3694.075280 0.9994 1.0000 1.0000 1.0000 1.0000
3700.177831 1.0000 1.0000 1.0000 1.0000 1.0002
3706.280381 1.0007 1.0010 1.0010 1.0008 1.0003
3712.382931 1.0000 1.0000 1.0000 1.0000 1.0000
3718.485482 1.0000 0.9997 0.9987 0.9980 0.9980
3724.588032 0.9980 0.9980 0.9980 0.9980 0.9980
3730.690583 0.9980 0.9980 0.9980 0.9977 0.9967
3736.793133 0.9960 0.9960 0.9957 0.9947 0.9940
3742.895684 0.9940 0.9940 0.9940 0.9943 0.9953
3748.998234 0.9963 0.9973 0.9977 0.9967 0.9960
3755.100784 0.9960 0.9957 0.9947 0.9935 0.9915
3761.203335 0.9900 0.9900 0.9908 0.9938 0.9963
3767.305885 0.9973 0.9980 0.9980 0.9980 0.9980
3773.408436 0.9980 0.9980 0.9980 0.9980 0.9980
3779.510986 0.9980 0.9980 0.9980 0.9980 0.9980
3785.613537 0.9980 0.9980 0.9980 0.9980 0.9980
3791.716087 0.9980
##END=
