##TITLE=SUCCINIC ACID, 2-HYDROXYMETHYLENE-3-ISOPROPYLIDENE-, DIMETHYL ESTER
##JCAMP-DX=4.24
##DATA TYPE=INFRARED SPECTRUM
##CLASS=COBLENTZ
##ORIGIN=TENNESSEE EASTMAN COMPANY, RESEARCH LABORATORIES
##OWNER=COBLENTZ SOCIETY
Collection (C) 2018 copyright by the U.S. Secretary of Commerce
on behalf of the United States of America. All rights reserved.
##DATE=1960
##NAMES=dimethyl (2Z)-2-(hydroxymethylene)-3-(1-methylethylidene)butanedioate
##MOLFORM=C10 H14 O5
##SOURCE REFERENCE=COBLENTZ NO. 812
##$NIST ID=B6000812
##$NIST SOURCE=COBLENTZ
##$NIST IMAGE=cob812
##SPECTROMETER/DATA SYSTEM=Not specified, most likely a prism, grating, or hybrid spectrometer.
##PATH LENGTH=SMEAR
##SAMPLING PROCEDURE=TRANSMISSION
##RESOLUTION=4
##DATA PROCESSING=DIGITIZED BY NIST FROM HARD COPY
##XUNITS=MICROMETERS
##YUNITS=TRANSMITTANCE
##XFACTOR=1.000000
##YFACTOR=1
##DELTAX=000.006834
##FIRSTX=2.048
##LASTX=16.0163
##FIRSTY=0.903
##MAXX=16.0163
##MINX=2.048
##MAXY=0.922
##MINY=0.015
##NPOINTS=2045
##XYDATA=(X++(Y..Y))
2.048000 0.9030 0.9050 0.9030 0.9030 0.9050
2.082185 0.9050 0.9050 0.9030 0.9030 0.9030
2.116000 0.9030 0.9030 0.9030 0.9020 0.9020
2.150185 0.9020 0.9000 0.9000 0.9000 0.8980
2.185000 0.8950 0.8880 0.8790 0.8570 0.8280
2.219185 0.8160 0.8130 0.8090 0.8090 0.8130
2.253000 0.8210 0.8280 0.8330 0.8380 0.8430
2.287185 0.8450 0.8490 0.8500 0.8500 0.8500
2.321000 0.8500 0.8500 0.8520 0.8520 0.8520
2.355185 0.8520 0.8520 0.8540 0.8540 0.8550
2.390000 0.8590 0.8590 0.8610 0.8620 0.8620
2.424185 0.8620 0.8640 0.8660 0.8690 0.8690
2.458000 0.8730 0.8730 0.8740 0.8740 0.8740
2.492185 0.8740 0.8740 0.8740 0.8760 0.8790
2.526000 0.8830 0.8860 0.8880 0.8910 0.8910
2.560185 0.8970 0.9000 0.9000 0.9000 0.9020
2.595000 0.9020 0.9020 0.9020 0.9020 0.9030
2.629185 0.9030 0.9030 0.9050 0.9070 0.9090
2.663000 0.9100 0.9100 0.9100 0.9100 0.9100
2.697185 0.9100 0.9090 0.9090 0.9090 0.9070
2.731000 0.9070 0.9050 0.9030 0.9030 0.9030
2.765185 0.9030 0.9030 0.9020 0.9000 0.9000
2.800000 0.8970 0.8900 0.8830 0.8760 0.8690
2.834185 0.8620 0.8550 0.8470 0.8370 0.8260
2.868000 0.8140 0.8010 0.7830 0.7660 0.7560
2.902185 0.7440 0.7180 0.6910 0.6580 0.6220
2.936000 0.6020 0.5930 0.5790 0.5670 0.5570
2.970185 0.5480 0.5330 0.5300 0.5230 0.5180
3.005000 0.5140 0.5090 0.5070 0.5040 0.5020
3.039185 0.5020 0.5000 0.4990 0.4990 0.4920
3.073000 0.4900 0.4850 0.4780 0.4760 0.4730
3.107185 0.4710 0.4690 0.4690 0.4690 0.4690
3.141000 0.4680 0.4640 0.4630 0.4590 0.4540
3.175185 0.4450 0.4300 0.4250 0.4110 0.4010
3.210000 0.3870 0.3790 0.3700 0.3580 0.3440
3.244185 0.3290 0.3220 0.3120 0.3100 0.3050
3.278000 0.2890 0.2520 0.2260 0.2000 0.1680
3.312185 0.1400 0.1130 0.1090 0.1090 0.1090
3.346000 0.1200 0.1200 0.1110 0.0510 0.0490
3.380185 0.0490 0.0680 0.0970 0.1110 0.1230
3.415000 0.1250 0.1440 0.1740 0.2070 0.2380
3.449185 0.2640 0.2690 0.2720 0.2720 0.2710
3.483000 0.2590 0.2620 0.2890 0.3220 0.3550
3.517185 0.3940 0.4230 0.4540 0.4760 0.4900
3.551000 0.4990 0.5260 0.5360 0.5470 0.5590
3.585185 0.5660 0.5740 0.5810 0.5810 0.5790
3.620000 0.5790 0.5790 0.5790 0.5810 0.5880
3.654185 0.6000 0.6050 0.6120 0.6240 0.6360
3.688000 0.6500 0.6650 0.6770 0.6870 0.6940
3.722185 0.6990 0.7110 0.7160 0.7230 0.7270
3.756000 0.7320 0.7370 0.7400 0.7440 0.7460
3.790185 0.7470 0.7510 0.7530 0.7580 0.7650
3.825000 0.7710 0.7780 0.7780 0.7770 0.7750
3.859185 0.7710 0.7660 0.7650 0.7680 0.7770
3.893000 0.7850 0.7940 0.7990 0.8020 0.8040
3.927185 0.8060 0.8070 0.8090 0.8060 0.8020
3.961000 0.8010 0.7970 0.7950 0.8010 0.8060
3.995185 0.8090 0.8130 0.8160 0.8190 0.8210
4.030000 0.8210 0.8230 0.8210 0.8210 0.8210
4.064185 0.8190 0.8180 0.8180 0.8160 0.8140
4.098000 0.8140 0.8140 0.8140 0.8160 0.8160
4.132185 0.8140 0.8060 0.8020 0.7970 0.7940
4.166000 0.7940 0.7990 0.8040 0.8060 0.8110
4.200185 0.8250 0.8310 0.8350 0.8370 0.8400
4.235000 0.8420 0.8420 0.8430 0.8430 0.8430
4.269185 0.8430 0.8430 0.8430 0.8430 0.8430
4.303000 0.8450 0.8490 0.8550 0.8640 0.8690
4.337185 0.8760 0.8810 0.8880 0.8950 0.9030
4.371000 0.9090 0.9100 0.9120 0.9150 0.9170
4.405185 0.9170 0.9140 0.9120 0.9120 0.9100
4.440000 0.9090 0.9100 0.9120 0.9140 0.9170
4.474185 0.9190 0.9220 0.9220 0.9210 0.9170
4.508000 0.9090 0.9030 0.8980 0.8980 0.8970
4.542185 0.8980 0.9020 0.9030 0.9070 0.9090
4.576000 0.9090 0.9090 0.9070 0.9020 0.8930
4.610185 0.8760 0.8640 0.8450 0.8420 0.8430
4.645000 0.8590 0.8670 0.8730 0.8830 0.8910
4.679185 0.8930 0.8950 0.8950 0.8930 0.8900
4.713000 0.8790 0.8730 0.8670 0.8640 0.8570
4.747185 0.8520 0.8490 0.8470 0.8490 0.8520
4.781000 0.8540 0.8570 0.8610 0.8670 0.8730
4.815185 0.8790 0.8830 0.8830 0.8850 0.8860
4.850000 0.8880 0.8900 0.8910 0.8910 0.8900
4.884185 0.8860 0.8850 0.8830 0.8780 0.8710
4.918000 0.8660 0.8610 0.8570 0.8520 0.8490
4.952185 0.8430 0.8380 0.8350 0.8330 0.8330
4.986000 0.8330 0.8330 0.8350 0.8330 0.8310
5.020185 0.8230 0.8210 0.8160 0.8160 0.8140
5.055000 0.8130 0.8130 0.8110 0.8130 0.8140
5.089185 0.8160 0.8210 0.8280 0.8310 0.8350
5.123000 0.8380 0.8430 0.8490 0.8500 0.8540
5.157185 0.8550 0.8570 0.8550 0.8550 0.8550
5.191000 0.8540 0.8500 0.8500 0.8500 0.8500
5.225185 0.8500 0.8490 0.8500 0.8500 0.8540
5.260000 0.8540 0.8590 0.8620 0.8660 0.8710
5.294185 0.8810 0.8850 0.8860 0.8880 0.8880
5.328000 0.8880 0.8880 0.8880 0.8880 0.8860
5.362185 0.8810 0.8780 0.8710 0.8660 0.8570
5.396000 0.8500 0.8490 0.8450 0.8430 0.8420
5.430185 0.8420 0.8400 0.8370 0.8350 0.8310
5.465000 0.8180 0.8110 0.8040 0.7970 0.7900
5.499185 0.7830 0.7780 0.7710 0.7650 0.7580
5.533000 0.7510 0.7470 0.7440 0.7390 0.7230
5.567185 0.7100 0.6940 0.6800 0.6650 0.6510
5.601000 0.6360 0.6220 0.6070 0.5900 0.5780
5.635185 0.5640 0.5520 0.5380 0.5260 0.5120
5.670000 0.5000 0.4950 0.4880 0.4750 0.4630
5.704185 0.4490 0.4370 0.4230 0.4110 0.3970
5.738000 0.3960 0.3430 0.2670 0.1900 0.1180
5.772185 0.0730 0.0560 0.0510 0.0440 0.0390
5.806000 0.0370 0.0370 0.0390 0.0530 0.0630
5.840185 0.0750 0.0920 0.1080 0.1260 0.1440
5.875000 0.1620 0.1800 0.1880 0.2020 0.2040
5.909185 0.2020 0.2020 0.1780 0.1610 0.1110
5.943000 0.0580 0.0490 0.0440 0.0420 0.0340
5.977185 0.0290 0.0220 0.0200 0.0240 0.0270
6.011000 0.0340 0.0410 0.0480 0.0540 0.0630
6.045185 0.1020 0.1330 0.1640 0.1800 0.1950
6.080000 0.2040 0.2170 0.2280 0.2310 0.2330
6.114185 0.2220 0.2120 0.2120 0.2090 0.2090
6.148000 0.2090 0.2100 0.2140 0.2210 0.2210
6.182185 0.2170 0.2140 0.2120 0.2100 0.2090
6.216000 0.2090 0.2120 0.2210 0.2410 0.2670
6.250185 0.2860 0.3190 0.3460 0.3730 0.3970
6.285000 0.4210 0.4400 0.4680 0.4920 0.5360
6.319185 0.5550 0.5760 0.5930 0.6120 0.6310
6.353000 0.6430 0.6530 0.6740 0.6890 0.6960
6.387185 0.6990 0.7040 0.7110 0.7200 0.7280
6.421000 0.7350 0.7440 0.7590 0.7610 0.7630
6.455185 0.7630 0.7630 0.7650 0.7660 0.7710
6.490000 0.7780 0.7820 0.7850 0.7870 0.7870
6.524185 0.7890 0.7870 0.7850 0.7830 0.7830
6.558000 0.7830 0.7820 0.7820 0.7830 0.7850
6.592185 0.7850 0.7850 0.7820 0.7800 0.7780
6.626000 0.7780 0.7780 0.7750 0.7730 0.7680
6.660185 0.7630 0.7580 0.7510 0.7460 0.7400
6.695000 0.7340 0.7200 0.7110 0.7100 0.7040
6.729185 0.6940 0.6840 0.6740 0.6530 0.6220
6.763000 0.5860 0.5520 0.5210 0.5110 0.4990
6.797185 0.4830 0.4150 0.4010 0.3800 0.3530
6.831000 0.3080 0.2600 0.2380 0.2140 0.1810
6.865185 0.1660 0.1420 0.1040 0.0820 0.0730
6.900000 0.0660 0.0630 0.0630 0.0660 0.0870
6.934185 0.1080 0.1370 0.1660 0.2040 0.2290
6.968000 0.3340 0.3770 0.3910 0.4150 0.4390
7.002185 0.4630 0.4920 0.5500 0.5950 0.6050
7.036000 0.6200 0.6290 0.6340 0.6380 0.6390
7.070185 0.6430 0.6440 0.6440 0.6380 0.6290
7.105000 0.6170 0.6030 0.5880 0.5670 0.5400
7.139185 0.5140 0.4870 0.4400 0.4010 0.3680
7.173000 0.3360 0.3050 0.2710 0.2520 0.2330
7.207185 0.1880 0.1730 0.1680 0.1620 0.1500
7.241000 0.1440 0.1400 0.1350 0.1320 0.1280
7.275185 0.1140 0.1140 0.1180 0.1300 0.1470
7.310000 0.1640 0.1850 0.2040 0.2240 0.2450
7.344185 0.2760 0.2860 0.2860 0.2770 0.2590
7.378000 0.2620 0.2450 0.2280 0.1800 0.1380
7.412185 0.1280 0.1060 0.0870 0.0800 0.0730
7.446000 0.0730 0.0800 0.0940 0.1060 0.1320
7.480185 0.1560 0.1810 0.2070 0.2330 0.2830
7.515000 0.3050 0.3270 0.3460 0.3650 0.3790
7.549185 0.3960 0.4040 0.4150 0.4210 0.4270
7.583000 0.4320 0.4320 0.4320 0.4300 0.4160
7.617185 0.4030 0.3910 0.3750 0.3600 0.3370
7.651000 0.3120 0.2910 0.2830 0.2710 0.2550
7.685185 0.2520 0.2460 0.2400 0.2220 0.2050
7.720000 0.1880 0.1730 0.1570 0.1420 0.1250
7.754185 0.1060 0.0870 0.0770 0.0720 0.0660
7.788000 0.0600 0.0580 0.0540 0.0540 0.0540
7.822185 0.0530 0.0530 0.0530 0.0530 0.0580
7.856000 0.0660 0.0770 0.0900 0.1060 0.1200
7.890185 0.1330 0.1520 0.1690 0.1900 0.2070
7.925000 0.2260 0.2410 0.2710 0.2840 0.2950
7.959185 0.3050 0.3150 0.3200 0.3240 0.3310
7.993000 0.3410 0.3440 0.3440 0.3320 0.3150
8.027185 0.3010 0.2880 0.2720 0.2590 0.2430
8.062000 0.2170 0.1920 0.1660 0.1380 0.1140
8.096185 0.0940 0.0730 0.0600 0.0480 0.0410
8.130000 0.0340 0.0300 0.0290 0.0270 0.0270
8.164185 0.0250 0.0250 0.0250 0.0240 0.0240
8.198000 0.0290 0.0320 0.0320 0.0360 0.0410
8.232185 0.0480 0.0490 0.0510 0.0540 0.0580
8.267000 0.0650 0.0650 0.0410 0.0270 0.0360
8.301185 0.0490 0.0600 0.0660 0.0650 0.0490
8.335000 0.0440 0.0410 0.0360 0.0360 0.0340
8.369185 0.0340 0.0340 0.0360 0.0460 0.0560
8.403000 0.0680 0.0800 0.0960 0.1090 0.1250
8.437185 0.1420 0.1570 0.1710 0.1780 0.1800
8.472000 0.1930 0.1930 0.1920 0.1900 0.1800
8.506185 0.1640 0.1520 0.1440 0.1230 0.1020
8.540000 0.0840 0.0600 0.0510 0.0480 0.0410
8.574185 0.0370 0.0300 0.0250 0.0200 0.0180
8.608000 0.0170 0.0150 0.0150 0.0150 0.0150
8.642185 0.0150 0.0170 0.0180 0.0200 0.0220
8.677000 0.0250 0.0300 0.0390 0.0460 0.0540
8.711185 0.0580 0.0720 0.0850 0.1040 0.1200
8.745000 0.1370 0.1520 0.1690 0.1850 0.2020
8.779185 0.2170 0.2340 0.2690 0.2860 0.2980
8.813000 0.3100 0.3240 0.3320 0.3430 0.3510
8.847185 0.3610 0.3680 0.3730 0.3790 0.3840
8.882000 0.3890 0.3960 0.4010 0.4090 0.4150
8.916185 0.4210 0.4250 0.4300 0.4390 0.4470
8.950000 0.4510 0.4560 0.4590 0.4630 0.4640
8.984185 0.4660 0.4660 0.4660 0.4540 0.4510
9.018000 0.4470 0.4370 0.4250 0.4130 0.3890
9.052185 0.3610 0.3290 0.3030 0.2760 0.2620
9.087000 0.2480 0.2260 0.2040 0.1830 0.1640
9.121185 0.1440 0.1250 0.1020 0.0970 0.0900
9.155000 0.0870 0.0870 0.0890 0.0900 0.1020
9.189185 0.1140 0.1260 0.1420 0.1590 0.1810
9.223000 0.2090 0.2290 0.2710 0.2930 0.3130
9.257185 0.3340 0.3560 0.3770 0.3970 0.4180
9.292000 0.4370 0.4570 0.4760 0.4930 0.5300
9.326185 0.5450 0.5590 0.5720 0.5860 0.5960
9.360000 0.6100 0.6240 0.6360 0.6460 0.6560
9.394185 0.6670 0.6750 0.6840 0.6910 0.6990
9.428000 0.7040 0.7100 0.7150 0.7200 0.7230
9.462185 0.7270 0.7300 0.7320 0.7370 0.7400
9.497000 0.7440 0.7460 0.7470 0.7470 0.7490
9.531185 0.7510 0.7530 0.7530 0.7530 0.7530
9.565000 0.7530 0.7510 0.7510 0.7490 0.7420
9.599185 0.7350 0.7280 0.7270 0.7250 0.7220
9.633000 0.7180 0.7130 0.7100 0.7060 0.7040
9.667185 0.7030 0.7030 0.7030 0.7030 0.7030
9.702000 0.7010 0.7010 0.6980 0.6920 0.6890
9.736185 0.6860 0.6800 0.6750 0.6560 0.6410
9.770000 0.6270 0.6030 0.5880 0.5620 0.5330
9.804185 0.5020 0.4900 0.4780 0.4630 0.4420
9.838000 0.4130 0.4030 0.3820 0.3670 0.3560
9.872185 0.3460 0.3370 0.3320 0.3240 0.3190
9.907000 0.3200 0.3220 0.3320 0.3460 0.3580
9.941185 0.3720 0.3960 0.4090 0.4270 0.4390
9.975000 0.4450 0.4520 0.4590 0.4640 0.4690
10.009185 0.4710 0.4690 0.4660 0.4560 0.4470
10.043000 0.4370 0.4300 0.4180 0.4080 0.4030
10.077185 0.3990 0.3990 0.3990 0.3990 0.4030
10.112000 0.4180 0.4280 0.4390 0.4440 0.4490
10.146185 0.4510 0.4590 0.4640 0.4680 0.4730
10.180000 0.4800 0.4900 0.5120 0.5160 0.5210
10.214185 0.5230 0.5240 0.5280 0.5300 0.5330
10.248000 0.5330 0.5350 0.5350 0.5330 0.5330
10.282185 0.5310 0.5300 0.5280 0.5260 0.5260
10.317000 0.5240 0.5240 0.5230 0.5230 0.5210
10.351185 0.5230 0.5230 0.5230 0.5230 0.5230
10.385000 0.5240 0.5260 0.5280 0.5300 0.5330
10.419185 0.5470 0.5500 0.5590 0.5690 0.5790
10.453000 0.5900 0.6000 0.6100 0.6220 0.6320
10.487185 0.6430 0.6580 0.6670 0.6770 0.6940
10.522000 0.7080 0.7220 0.7320 0.7420 0.7650
10.556185 0.7710 0.7770 0.7890 0.7950 0.7990
10.590000 0.8010 0.8040 0.8070 0.8140 0.8250
10.624185 0.8280 0.8310 0.8330 0.8350 0.8350
10.658000 0.8370 0.8370 0.8370 0.8370 0.8370
10.692185 0.8370 0.8370 0.8370 0.8370 0.8370
10.727000 0.8350 0.8310 0.8280 0.8250 0.8180
10.761185 0.8130 0.8040 0.7950 0.7820 0.7680
10.795000 0.7560 0.7510 0.7470 0.7440 0.7420
10.829185 0.7390 0.7390 0.7400 0.7710 0.7820
10.863000 0.7920 0.8020 0.8090 0.8180 0.8260
10.897185 0.8350 0.8400 0.8420 0.8430 0.8450
10.932000 0.8470 0.8490 0.8500 0.8500 0.8500
10.966185 0.8520 0.8520 0.8540 0.8550 0.8590
11.000000 0.8610 0.8640 0.8660 0.8660 0.8690
11.034185 0.8730 0.8780 0.8810 0.8850 0.8900
11.068000 0.8910 0.8910 0.8910 0.8910 0.8910
11.102185 0.8910 0.8910 0.8910 0.8910 0.8910
11.137000 0.8900 0.8900 0.8900 0.8900 0.8900
11.171185 0.8880 0.8850 0.8830 0.8810 0.8780
11.205000 0.8760 0.8760 0.8740 0.8730 0.8690
11.239185 0.8660 0.8610 0.8570 0.8540 0.8540
11.273000 0.8520 0.8450 0.8400 0.8330 0.8280
11.307185 0.8230 0.8160 0.8070 0.7990 0.7900
11.342000 0.7800 0.7680 0.7560 0.7510 0.7460
11.376185 0.7320 0.7200 0.7060 0.6920 0.6750
11.410000 0.6620 0.6530 0.6430 0.6340 0.6290
11.444185 0.6240 0.6240 0.6240 0.6260 0.6310
11.478000 0.6390 0.6500 0.6600 0.6700 0.6790
11.512185 0.6860 0.6960 0.7060 0.7200 0.7270
11.547000 0.7320 0.7400 0.7440 0.7470 0.7490
11.581185 0.7540 0.7540 0.7540 0.7560 0.7540
11.615000 0.7540 0.7540 0.7530 0.7510 0.7510
11.649185 0.7490 0.7420 0.7350 0.7300 0.7280
11.683000 0.7220 0.7130 0.7110 0.7040 0.7010
11.717185 0.6980 0.6870 0.6840 0.6800 0.6720
11.752000 0.6630 0.6550 0.6480 0.6410 0.6290
11.786185 0.6260 0.6170 0.6070 0.5950 0.5840
11.820000 0.5720 0.5660 0.5590 0.5500 0.5450
11.854185 0.5360 0.5230 0.5160 0.5040 0.5000
11.888000 0.4970 0.4870 0.4780 0.4680 0.4590
11.922185 0.4510 0.4440 0.4390 0.4280 0.4200
11.957000 0.4080 0.4030 0.3990 0.3870 0.3800
11.991185 0.3750 0.3650 0.3610 0.3490 0.3430
12.025000 0.3390 0.3340 0.3320 0.3290 0.3220
12.059185 0.3190 0.3120 0.3100 0.3080 0.3070
12.093000 0.3050 0.3030 0.3010 0.2960 0.2950
12.127185 0.2930 0.2930 0.2910 0.2910 0.2910
12.162000 0.2910 0.2930 0.2930 0.2980 0.3010
12.196185 0.3070 0.3170 0.3220 0.3290 0.3320
12.230000 0.3390 0.3440 0.3530 0.3630 0.3680
12.264185 0.3840 0.3920 0.4030 0.4080 0.4160
12.298000 0.4210 0.4300 0.4390 0.4450 0.4510
12.332185 0.4540 0.4570 0.4610 0.4630 0.4640
12.367000 0.4660 0.4710 0.4730 0.4730 0.4760
12.401185 0.4780 0.4810 0.4830 0.4850 0.4870
12.435000 0.4880 0.4920 0.4950 0.5020 0.5060
12.469185 0.5110 0.5180 0.5210 0.5230 0.5240
12.503000 0.5260 0.5300 0.5310 0.5380 0.5400
12.537185 0.5400 0.5400 0.5420 0.5400 0.5400
12.572000 0.5360 0.5330 0.5280 0.5230 0.5120
12.606185 0.5040 0.5020 0.5000 0.4990 0.4970
12.640000 0.4930 0.4930 0.4930 0.4930 0.4930
12.674185 0.4950 0.4990 0.5040 0.5060 0.5090
12.708000 0.5110 0.5160 0.5190 0.5210 0.5240
12.742185 0.5310 0.5330 0.5360 0.5380 0.5400
12.777000 0.5420 0.5450 0.5470 0.5520 0.5540
12.811185 0.5570 0.5590 0.5640 0.5690 0.5720
12.845000 0.5780 0.5810 0.5830 0.5860 0.5930
12.879185 0.5980 0.6020 0.6030 0.6030 0.6050
12.913000 0.6080 0.6140 0.6150 0.6150 0.6140
12.947185 0.6120 0.6080 0.6030 0.6000 0.5930
12.982000 0.5810 0.5660 0.5520 0.5240 0.5110
13.016185 0.4950 0.4810 0.4640 0.4560 0.4420
13.050000 0.4280 0.4200 0.4110 0.4040 0.4030
13.084185 0.4030 0.4030 0.4160 0.4350 0.4510
13.118000 0.4570 0.4750 0.4920 0.5240 0.5400
13.152185 0.5550 0.5690 0.5810 0.5900 0.6000
13.187000 0.6170 0.6240 0.6380 0.6480 0.6550
13.221185 0.6600 0.6680 0.6770 0.6860 0.6940
13.255000 0.6990 0.7030 0.7100 0.7130 0.7160
13.289185 0.7220 0.7250 0.7320 0.7350 0.7400
13.323000 0.7420 0.7460 0.7470 0.7560 0.7580
13.357185 0.7590 0.7650 0.7700 0.7730 0.7750
13.392000 0.7770 0.7780 0.7800 0.7820 0.7830
13.426185 0.7850 0.7850 0.7870 0.7870 0.7900
13.460000 0.7920 0.7920 0.7940 0.7940 0.7950
13.494185 0.7950 0.7970 0.7990 0.8010 0.8010
13.528000 0.8020 0.8020 0.8020 0.8020 0.8040
13.562185 0.8040 0.8040 0.8040 0.8040 0.8040
13.597000 0.8060 0.8060 0.8060 0.8060 0.8060
13.631185 0.8060 0.8070 0.8090 0.8090 0.8110
13.665000 0.8110 0.8130 0.8130 0.8130 0.8110
13.699185 0.8130 0.8130 0.8130 0.8130 0.8140
13.733000 0.8140 0.8140 0.8140 0.8140 0.8140
13.767185 0.8140 0.8140 0.8160 0.8160 0.8180
13.802000 0.8160 0.8180 0.8180 0.8160 0.8160
13.836185 0.8140 0.8140 0.8140 0.8140 0.8140
13.870000 0.8140 0.8140 0.8160 0.8160 0.8160
13.904185 0.8160 0.8160 0.8160 0.8140 0.8140
13.938000 0.8130 0.8130 0.8130 0.8130 0.8130
13.972185 0.8140 0.8160 0.8160 0.8160 0.8180
14.007000 0.8180 0.8160 0.8160 0.8160 0.8140
14.041185 0.8140 0.8140 0.8130 0.8110 0.8130
14.075000 0.8090 0.8110 0.8110 0.8060 0.8040
14.109185 0.8040 0.8040 0.8060 0.8060 0.8060
14.144000 0.8060 0.8040 0.8020 0.8010 0.8010
14.178185 0.8010 0.8010 0.8010 0.8070 0.8070
14.212000 0.8040 0.8020 0.8020 0.8020 0.8020
14.246185 0.8040 0.8020 0.7970 0.7970 0.7970
14.280000 0.7950 0.7940 0.7920 0.7890 0.7890
14.314185 0.7890 0.7890 0.7900 0.7900 0.7890
14.349000 0.7890 0.7870 0.7870 0.7890 0.7890
14.383185 0.7850 0.7850 0.7830 0.7820 0.7820
14.417000 0.7800 0.7800 0.7800 0.7800 0.7780
14.451185 0.7780 0.7780 0.7770 0.7730 0.7730
14.485000 0.7710 0.7710 0.7710 0.7710 0.7710
14.519185 0.7700 0.7700 0.7700 0.7700 0.7680
14.554000 0.7680 0.7660 0.7660 0.7650 0.7630
14.588185 0.7610 0.7610 0.7610 0.7610 0.7610
14.622000 0.7610 0.7590 0.7580 0.7560 0.7540
14.656185 0.7530 0.7530 0.7530 0.7510 0.7510
14.690000 0.7490 0.7490 0.7510 0.7510 0.7510
14.724185 0.7490 0.7470 0.7460 0.7460 0.7440
14.759000 0.7440 0.7420 0.7420 0.7440 0.7420
14.793185 0.7420 0.7400 0.7390 0.7400 0.7370
14.827000 0.7350 0.7350 0.7350 0.7350 0.7350
14.861185 0.7340 0.7340 0.7300 0.7300 0.7300
14.895000 0.7280 0.7280 0.7250 0.7230 0.7220
14.929185 0.7200 0.7180 0.7180 0.7180 0.7180
14.964000 0.7180 0.7180 0.7160 0.7160 0.7160
14.998185 0.7150 0.7130 0.7110 0.7100 0.7060
15.032000 0.7040 0.7040 0.7040 0.7040 0.7040
15.066185 0.7040 0.7040 0.7040 0.7040 0.7030
15.100000 0.7030 0.7030 0.7010 0.7010 0.7010
15.134185 0.6990 0.6990 0.6990 0.6980 0.6980
15.169000 0.6960 0.6940 0.6920 0.6920 0.6910
15.203185 0.6890 0.6870 0.6870 0.6860 0.6860
15.237000 0.6840 0.6820 0.6800 0.6790 0.6770
15.271185 0.6790 0.6770 0.6750 0.6740 0.6740
15.305000 0.6720 0.6700 0.6700 0.6700 0.6700
15.339185 0.6700 0.6680 0.6680 0.6670 0.6650
15.374000 0.6630 0.6630 0.6630 0.6620 0.6600
15.408185 0.6600 0.6560 0.6560 0.6550 0.6550
15.442000 0.6530 0.6530 0.6530 0.6510 0.6500
15.476185 0.6500 0.6480 0.6480 0.6480 0.6480
15.510000 0.6460 0.6440 0.6440 0.6430 0.6410
15.544185 0.6380 0.6380 0.6360 0.6360 0.6360
15.579000 0.6340 0.6320 0.6320 0.6320 0.6320
15.613185 0.6310 0.6290 0.6270 0.6270 0.6260
15.647000 0.6240 0.6220 0.6220 0.6220 0.6220
15.681185 0.6200 0.6190 0.6200 0.6190 0.6190
15.715000 0.6170 0.6170 0.6150 0.6150 0.6140
15.749185 0.6120 0.6120 0.6100 0.6100 0.6080
15.784000 0.6080 0.6070 0.6070 0.6050 0.6050
15.818185 0.6030 0.6030 0.6030 0.6020 0.6020
15.852000 0.6000 0.6000 0.6000 0.5980 0.5980
15.886185 0.5980 0.5980 0.5960 0.5960 0.5950
15.920000 0.5950 0.5950 0.5930 0.5930 0.5910
15.954185 0.5910 0.5900 0.5900 0.5880 0.5880
15.989000 0.5860 0.5860 0.5860 0.5860 0.5860
##END=
