##TITLE=CALCIUM LACTATE PENTAHYDRATE
##JCAMP-DX=4.24
##DATA TYPE=INFRARED SPECTRUM
##CLASS=COBLENTZ
##OWNER=COBLENTZ SOCIETY
Collection (C) 2018 copyright by the U.S. Secretary of Commerce
on behalf of the United States of America. All rights reserved.
##DATE=Not specified, most likely prior to 1970
##MOLFORM=C6 H10 O6 Ca  * 5 H2 O
##SOURCE REFERENCE=COBLENTZ NO. 2511
##$NIST ID=B6002511
##$NIST SOURCE=COBLENTZ
##$NIST IMAGE=cob2511
##SPECTROMETER/DATA SYSTEM=Not specified, most likely a grating spectrometer.
##INSTRUMENT PARAMETERS=PERKIN-ELMER (GRATING)
##STATE=SOLID (MINERAL OIL MULL)
##PATH LENGTH=
$$SPECTRAL CONTAMINATION DUE TO OIL AROUND 2900, 1450, 1380 CM^-^1
##SAMPLING PROCEDURE=TRANSMISSION
##RESOLUTION=4
##DATA PROCESSING=DIGITIZED BY NIST FROM HARD COPY
##XUNITS=MICROMETERS
##YUNITS=TRANSMITTANCE
##XFACTOR=1.000000
##YFACTOR=1
##DELTAX=000.006739
##FIRSTX=2.034
##LASTX=14.906
##FIRSTY=0.888
##MAXX=14.906
##MINX=2.034
##MAXY=0.976
##MINY=0.049
##NPOINTS=1911
##XYDATA=(X++(Y..Y))
2.034000 0.8880 0.8890 0.8890 0.8890 0.8890
2.067714 0.8890 0.8910 0.8910 0.8930 0.8930
2.101000 0.8930 0.8940 0.8980 0.9000 0.9000
2.134714 0.9000 0.9000 0.9010 0.9010 0.9050
2.168000 0.9060 0.9080 0.9080 0.9080 0.9080
2.201714 0.9080 0.9080 0.9100 0.9110 0.9130
2.236000 0.9150 0.9160 0.9160 0.9160 0.9160
2.269714 0.9130 0.9100 0.9080 0.9030 0.9010
2.303000 0.9000 0.8930 0.8930 0.8930 0.8910
2.336714 0.8890 0.8880 0.8860 0.8860 0.8860
2.371000 0.8860 0.8860 0.8880 0.8880 0.8880
2.404714 0.8880 0.8880 0.8880 0.8880 0.8880
2.438000 0.8890 0.8910 0.8930 0.8940 0.8960
2.471714 0.9000 0.9000 0.9010 0.9010 0.9010
2.505000 0.9030 0.9030 0.9030 0.9030 0.9030
2.538714 0.9010 0.9010 0.9010 0.9050 0.9060
2.573000 0.9060 0.9060 0.9060 0.9060 0.9060
2.606714 0.9050 0.9030 0.9010 0.9000 0.8980
2.640000 0.8940 0.8940 0.8910 0.8910 0.8910
2.673714 0.8910 0.8880 0.8830 0.8790 0.8760
2.708000 0.8720 0.8640 0.8520 0.8490 0.8380
2.741714 0.8330 0.8160 0.8000 0.7880 0.7710
2.775000 0.7500 0.7280 0.7150 0.7050 0.6840
2.808714 0.6640 0.6490 0.6230 0.6000 0.5640
2.842000 0.5540 0.5400 0.5200 0.5000 0.4980
2.875714 0.4810 0.4720 0.4620 0.4620 0.4470
2.910000 0.4370 0.4350 0.4230 0.4220 0.4100
2.943714 0.4030 0.3930 0.3840 0.3770 0.3760
2.977000 0.3720 0.3710 0.3690 0.3670 0.3610
3.010714 0.3610 0.3570 0.3570 0.3540 0.3520
3.045000 0.3500 0.3490 0.3490 0.3440 0.3440
3.078714 0.3420 0.3420 0.3420 0.3420 0.3420
3.112000 0.3400 0.3400 0.3400 0.3370 0.3370
3.145714 0.3370 0.3370 0.3350 0.3350 0.3350
3.179000 0.3370 0.3370 0.3370 0.3400 0.3490
3.212714 0.3490 0.3550 0.3610 0.3660 0.3710
3.247000 0.3740 0.3770 0.3810 0.3810 0.3810
3.280714 0.3830 0.3830 0.3840 0.3840 0.3830
3.314000 0.3770 0.3660 0.3490 0.3330 0.3130
3.347714 0.2810 0.2500 0.2110 0.1720 0.1400
3.382000 0.1200 0.1050 0.0930 0.0720 0.0640
3.415714 0.0520 0.0500 0.0490 0.0490 0.0490
3.449000 0.0500 0.0500 0.0520 0.0520 0.0520
3.482714 0.0500 0.0500 0.0500 0.0500 0.0620
3.516000 0.1010 0.1540 0.2300 0.3010 0.3370
3.549714 0.3790 0.4180 0.4440 0.4620 0.4760
3.584000 0.5130 0.5230 0.5490 0.5590 0.5690
3.617714 0.5720 0.5760 0.5790 0.5840 0.5910
3.651000 0.6000 0.6010 0.6100 0.6150 0.6220
3.684714 0.6230 0.6280 0.6400 0.6490 0.6550
3.719000 0.6620 0.6670 0.6720 0.6760 0.6770
3.752714 0.6810 0.6840 0.6860 0.6890 0.6930
3.786000 0.7010 0.7030 0.7100 0.7180 0.7250
3.819714 0.7280 0.7330 0.7370 0.7500 0.7570
3.853000 0.7620 0.7670 0.7740 0.7770 0.7880
3.886714 0.7930 0.8000 0.8010 0.8010 0.8030
3.921000 0.8050 0.8050 0.8080 0.8110 0.8180
3.954714 0.8200 0.8230 0.8250 0.8280 0.8300
3.988000 0.8330 0.8400 0.8450 0.8500 0.8500
4.021714 0.8520 0.8540 0.8570 0.8590 0.8590
4.055000 0.8610 0.8610 0.8640 0.8660 0.8690
4.088714 0.8690 0.8720 0.8720 0.8720 0.8720
4.123000 0.8710 0.8710 0.8710 0.8710 0.8710
4.156714 0.8690 0.8710 0.8720 0.8740 0.8760
4.190000 0.8760 0.8760 0.8770 0.8770 0.8760
4.223714 0.8760 0.8760 0.8760 0.8760 0.8740
4.258000 0.8740 0.8740 0.8770 0.8790 0.8790
4.291714 0.8790 0.8810 0.8810 0.8830 0.8830
4.325000 0.8830 0.8830 0.8840 0.8840 0.8860
4.358714 0.8880 0.8880 0.8890 0.8890 0.8890
4.392000 0.8890 0.8910 0.8910 0.8910 0.8910
4.425714 0.8910 0.8930 0.8940 0.8940 0.8940
4.460000 0.8940 0.8940 0.8940 0.8940 0.8960
4.493714 0.8960 0.8980 0.8980 0.8980 0.8980
4.527000 0.8980 0.8980 0.8980 0.9000 0.9000
4.560714 0.8980 0.8980 0.9000 0.9010 0.9010
4.595000 0.9010 0.9030 0.9050 0.9050 0.9060
4.628714 0.9080 0.9100 0.9110 0.9130 0.9130
4.662000 0.9150 0.9160 0.9200 0.9200 0.9200
4.695714 0.9220 0.9230 0.9270 0.9300 0.9320
4.729000 0.9350 0.9380 0.9400 0.9420 0.9420
4.762714 0.9440 0.9450 0.9470 0.9490 0.9490
4.797000 0.9500 0.9500 0.9520 0.9520 0.9520
4.830714 0.9520 0.9520 0.9520 0.9520 0.9520
4.864000 0.9550 0.9570 0.9590 0.9610 0.9610
4.897714 0.9610 0.9620 0.9620 0.9620 0.9620
4.932000 0.9640 0.9640 0.9660 0.9670 0.9670
4.965714 0.9670 0.9670 0.9670 0.9670 0.9690
4.999000 0.9690 0.9690 0.9690 0.9690 0.9690
5.032714 0.9690 0.9690 0.9710 0.9710 0.9710
5.066000 0.9720 0.9720 0.9740 0.9740 0.9760
5.099714 0.9760 0.9760 0.9760 0.9760 0.9760
5.134000 0.9760 0.9760 0.9760 0.9760 0.9760
5.167714 0.9760 0.9740 0.9740 0.9740 0.9720
5.201000 0.9710 0.9690 0.9690 0.9690 0.9670
5.234714 0.9660 0.9660 0.9660 0.9660 0.9660
5.269000 0.9660 0.9660 0.9640 0.9610 0.9610
5.302714 0.9610 0.9610 0.9610 0.9590 0.9590
5.336000 0.9540 0.9520 0.9500 0.9500 0.9500
5.369714 0.9500 0.9500 0.9500 0.9500 0.9490
5.403000 0.9450 0.9380 0.9370 0.9350 0.9350
5.436714 0.9350 0.9330 0.9330 0.9320 0.9300
5.471000 0.9280 0.9270 0.9230 0.9220 0.9180
5.504714 0.9160 0.9160 0.9150 0.9130 0.9130
5.538000 0.9110 0.9080 0.9030 0.9010 0.8930
5.571714 0.8910 0.8910 0.8910 0.8880 0.8860
5.605000 0.8860 0.8840 0.8810 0.8810 0.8810
5.638714 0.8770 0.8740 0.8710 0.8690 0.8660
5.673000 0.8640 0.8610 0.8570 0.8540 0.8500
5.706714 0.8450 0.8450 0.8420 0.8420 0.8400
5.740000 0.8380 0.8370 0.8370 0.8350 0.8320
5.773714 0.8300 0.8300 0.8300 0.8270 0.8230
5.808000 0.8200 0.8160 0.8150 0.8110 0.8100
5.841714 0.8080 0.8050 0.8010 0.7940 0.7770
5.875000 0.7720 0.7710 0.7710 0.7690 0.7660
5.908714 0.7550 0.7500 0.7450 0.7420 0.7370
5.942000 0.7280 0.7230 0.7160 0.7080 0.7050
5.975714 0.6960 0.6840 0.6740 0.6690 0.6670
6.010000 0.6660 0.6610 0.6540 0.6500 0.6400
6.043714 0.6230 0.6080 0.5930 0.5860 0.5840
6.077000 0.5770 0.5570 0.5350 0.5100 0.5050
6.110714 0.5000 0.4840 0.4760 0.4670 0.4500
6.145000 0.4380 0.4280 0.4200 0.4080 0.4000
6.178714 0.3890 0.3860 0.3830 0.3770 0.3720
6.212000 0.3710 0.3660 0.3640 0.3640 0.3520
6.245714 0.3400 0.3350 0.3270 0.3160 0.3110
6.279000 0.3080 0.3050 0.3010 0.3000 0.3000
6.312714 0.2980 0.2980 0.2960 0.2960 0.2980
6.347000 0.3000 0.3050 0.3130 0.3180 0.3250
6.380714 0.3350 0.3400 0.3420 0.3500 0.3610
6.414000 0.3720 0.3910 0.4030 0.4150 0.4220
6.447714 0.4300 0.4350 0.4380 0.4470 0.4490
6.482000 0.4590 0.4830 0.4930 0.5130 0.5180
6.515714 0.5270 0.5370 0.5440 0.5450 0.5470
6.549000 0.5490 0.5620 0.5720 0.5840 0.5980
6.582714 0.6010 0.6050 0.6060 0.6110 0.6130
6.616000 0.6130 0.6130 0.6130 0.6110 0.6110
6.649714 0.6080 0.6010 0.5910 0.5790 0.5760
6.684000 0.5670 0.5570 0.5400 0.5220 0.5110
6.717714 0.5000 0.4930 0.4710 0.4450 0.4200
6.751000 0.4100 0.3980 0.3830 0.3590 0.3110
6.784714 0.2150 0.2060 0.2050 0.2030 0.2010
6.819000 0.2010 0.2010 0.2030 0.2030 0.2050
6.852714 0.2080 0.2270 0.2490 0.2690 0.2830
6.886000 0.3010 0.3110 0.3270 0.3470 0.3620
6.919714 0.3790 0.3980 0.4000 0.4030 0.4110
6.953000 0.4160 0.4230 0.4230 0.4220 0.4220
6.986714 0.4230 0.4250 0.4280 0.4320 0.4370
7.021000 0.4400 0.4440 0.4490 0.4490 0.4500
7.054714 0.4500 0.4520 0.4520 0.4520 0.4520
7.088000 0.4500 0.4490 0.4450 0.4440 0.4420
7.121714 0.4400 0.4380 0.4370 0.4370 0.4380
7.156000 0.4400 0.4400 0.4380 0.4370 0.4350
7.189714 0.4350 0.4330 0.4200 0.4030 0.3940
7.223000 0.3720 0.3590 0.3330 0.3320 0.3320
7.256714 0.3490 0.3690 0.3880 0.4110 0.4400
7.290000 0.4400 0.4380 0.4380 0.4380 0.4400
7.323714 0.4520 0.4710 0.5400 0.5590 0.5740
7.358000 0.5860 0.6010 0.6230 0.6320 0.6440
7.391714 0.6520 0.6610 0.6640 0.6720 0.6790
7.425000 0.6830 0.6890 0.6930 0.7010 0.7030
7.458714 0.7130 0.7200 0.7220 0.7230 0.7230
7.492000 0.7200 0.7160 0.7010 0.6880 0.6760
7.525714 0.6590 0.6500 0.6320 0.6200 0.6110
7.560000 0.6010 0.5840 0.5690 0.5500 0.5470
7.593714 0.5470 0.5500 0.5760 0.6080 0.6230
7.627000 0.6400 0.6610 0.6740 0.6890 0.7010
7.660714 0.7100 0.7220 0.7300 0.7350 0.7380
7.695000 0.7420 0.7440 0.7440 0.7400 0.7350
7.728714 0.7280 0.7180 0.7010 0.6830 0.6590
7.762000 0.6320 0.6050 0.5770 0.5550 0.5350
7.795714 0.5110 0.5010 0.4910 0.4740 0.4640
7.829000 0.4610 0.4610 0.4640 0.4740 0.5320
7.862714 0.5610 0.5830 0.6110 0.6270 0.6420
7.897000 0.6540 0.6670 0.6790 0.6910 0.7030
7.930714 0.7100 0.7180 0.7250 0.7300 0.7400
7.964000 0.7500 0.7550 0.7610 0.7670 0.7720
7.997714 0.7770 0.7790 0.7840 0.7890 0.7930
8.032000 0.8000 0.8030 0.8050 0.8080 0.8110
8.065714 0.8130 0.8220 0.8280 0.8330 0.8370
8.099000 0.8400 0.8440 0.8450 0.8450 0.8450
8.132714 0.8470 0.8520 0.8520 0.8540 0.8610
8.166000 0.8610 0.8590 0.8590 0.8590 0.8590
8.199714 0.8590 0.8640 0.8670 0.8690 0.8690
8.234000 0.8710 0.8710 0.8720 0.8740 0.8740
8.267714 0.8760 0.8770 0.8810 0.8840 0.8860
8.301000 0.8860 0.8860 0.8860 0.8860 0.8880
8.334714 0.8880 0.8890 0.8930 0.8940 0.8940
8.369000 0.8980 0.8980 0.8980 0.9010 0.9030
8.402714 0.9030 0.9030 0.9030 0.9050 0.9060
8.436000 0.9060 0.9100 0.9100 0.9110 0.9110
8.469714 0.9100 0.9080 0.9060 0.9050 0.9030
8.503000 0.9030 0.9010 0.9010 0.8940 0.8930
8.536714 0.8910 0.8890 0.8880 0.8880 0.8880
8.571000 0.8860 0.8840 0.8810 0.8790 0.8790
8.604714 0.8770 0.8740 0.8710 0.8690 0.8690
8.638000 0.8690 0.8690 0.8690 0.8670 0.8670
8.671714 0.8660 0.8620 0.8610 0.8570 0.8520
8.706000 0.8500 0.8490 0.8420 0.8370 0.8230
8.739714 0.8130 0.8030 0.7890 0.7740 0.7640
8.773000 0.7500 0.7270 0.7050 0.6760 0.6520
8.806714 0.6280 0.5810 0.5490 0.5160 0.4930
8.840000 0.4690 0.4300 0.4100 0.4000 0.3880
8.873714 0.3860 0.3860 0.3880 0.4050 0.4180
8.908000 0.4180 0.4150 0.4110 0.4110 0.4100
8.941714 0.4110 0.4320 0.4740 0.5520 0.5740
8.975000 0.5960 0.6180 0.6380 0.6470 0.6590
9.008714 0.6760 0.6880 0.6940 0.7010 0.7010
9.043000 0.7000 0.7000 0.6980 0.6980 0.7010
9.076714 0.7030 0.7100 0.7180 0.7300 0.7440
9.110000 0.7520 0.7590 0.7710 0.7810 0.7930
9.143714 0.8030 0.8030 0.8060 0.8100 0.8130
9.177000 0.8200 0.8270 0.8300 0.8320 0.8330
9.210714 0.8400 0.8440 0.8470 0.8490 0.8500
9.245000 0.8520 0.8540 0.8540 0.8540 0.8550
9.278714 0.8570 0.8570 0.8570 0.8570 0.8570
9.312000 0.8570 0.8570 0.8590 0.8590 0.8620
9.345714 0.8640 0.8660 0.8660 0.8640 0.8640
9.379000 0.8660 0.8670 0.8670 0.8670 0.8660
9.412714 0.8660 0.8660 0.8620 0.8570 0.8520
9.447000 0.8400 0.8220 0.8100 0.7980 0.7830
9.480714 0.7760 0.7670 0.7620 0.7620 0.7620
9.514000 0.7620 0.7710 0.7760 0.7830 0.7960
9.547714 0.8050 0.8100 0.8150 0.8270 0.8330
9.582000 0.8380 0.8450 0.8520 0.8540 0.8590
9.615714 0.8620 0.8620 0.8640 0.8660 0.8690
9.649000 0.8710 0.8720 0.8720 0.8740 0.8760
9.682714 0.8770 0.8770 0.8770 0.8790 0.8810
9.716000 0.8830 0.8830 0.8840 0.8860 0.8880
9.749714 0.8890 0.8890 0.8890 0.8910 0.8910
9.784000 0.8910 0.8910 0.8910 0.8910 0.8910
9.817714 0.8910 0.8890 0.8890 0.8890 0.8890
9.851000 0.8890 0.8910 0.8910 0.8910 0.8910
9.884714 0.8910 0.8910 0.8910 0.8910 0.8890
9.919000 0.8890 0.8890 0.8890 0.8890 0.8890
9.952714 0.8890 0.8890 0.8890 0.8880 0.8880
9.986000 0.8880 0.8880 0.8880 0.8860 0.8860
10.019714 0.8860 0.8860 0.8840 0.8860 0.8840
10.053000 0.8840 0.8840 0.8830 0.8830 0.8810
10.086714 0.8810 0.8810 0.8810 0.8770 0.8740
10.121000 0.8740 0.8740 0.8740 0.8740 0.8740
10.154714 0.8740 0.8720 0.8710 0.8670 0.8670
10.188000 0.8660 0.8660 0.8660 0.8620 0.8610
10.221714 0.8570 0.8570 0.8550 0.8540 0.8540
10.256000 0.8520 0.8490 0.8470 0.8440 0.8400
10.289714 0.8370 0.8350 0.8350 0.8330 0.8300
10.323000 0.8300 0.8280 0.8280 0.8280 0.8270
10.356714 0.8270 0.8230 0.8220 0.8200 0.8180
10.390000 0.8160 0.8130 0.8110 0.8060 0.8050
10.423714 0.8050 0.8030 0.8030 0.8010 0.7980
10.458000 0.7930 0.7910 0.7880 0.7830 0.7790
10.491714 0.7740 0.7710 0.7670 0.7640 0.7620
10.525000 0.7570 0.7540 0.7520 0.7470 0.7420
10.558714 0.7380 0.7350 0.7300 0.7230 0.7110
10.593000 0.7050 0.7030 0.6930 0.6860 0.6810
10.626714 0.6770 0.6740 0.6640 0.6610 0.6500
10.660000 0.6400 0.6350 0.6320 0.6300 0.6280
10.693714 0.6280 0.6300 0.6320 0.6350 0.6420
10.727000 0.6500 0.6570 0.6720 0.6880 0.7010
10.760714 0.7030 0.7130 0.7250 0.7370 0.7420
10.795000 0.7500 0.7520 0.7540 0.7570 0.7590
10.828714 0.7590 0.7590 0.7550 0.7550 0.7520
10.862000 0.7490 0.7470 0.7450 0.7350 0.7300
10.895714 0.7220 0.7150 0.7060 0.7030 0.7010
10.929000 0.6890 0.6860 0.6830 0.6740 0.6690
10.962714 0.6640 0.6610 0.6550 0.6500 0.6440
10.997000 0.6350 0.6330 0.6270 0.6230 0.6200
11.030714 0.6180 0.6160 0.6150 0.6130 0.6110
11.064000 0.6110 0.6100 0.6100 0.6100 0.6100
11.097714 0.6100 0.6100 0.6100 0.6100 0.6100
11.132000 0.6100 0.6100 0.6100 0.6100 0.6100
11.165714 0.6100 0.6110 0.6110 0.6130 0.6150
11.199000 0.6230 0.6250 0.6270 0.6280 0.6320
11.232714 0.6350 0.6400 0.6440 0.6490 0.6500
11.266000 0.6520 0.6540 0.6620 0.6670 0.6710
11.299714 0.6720 0.6770 0.6840 0.6880 0.6960
11.334000 0.6980 0.7000 0.7010 0.7030 0.7050
11.367714 0.7060 0.7060 0.7080 0.7130 0.7130
11.401000 0.7150 0.7160 0.7180 0.7180 0.7200
11.434714 0.7220 0.7220 0.7230 0.7250 0.7250
11.469000 0.7270 0.7270 0.7270 0.7270 0.7250
11.502714 0.7250 0.7250 0.7250 0.7230 0.7220
11.536000 0.7180 0.7130 0.7080 0.7050 0.7030
11.569714 0.7010 0.6880 0.6770 0.6760 0.6660
11.603000 0.6620 0.6590 0.6540 0.6520 0.6520
11.636714 0.6520 0.6520 0.6540 0.6540 0.6570
11.671000 0.6620 0.6660 0.6720 0.6770 0.6860
11.704714 0.6910 0.6960 0.7010 0.7030 0.7080
11.738000 0.7230 0.7320 0.7380 0.7400 0.7420
11.771714 0.7440 0.7440 0.7450 0.7520 0.7540
11.806000 0.7540 0.7550 0.7570 0.7590 0.7610
11.839714 0.7620 0.7620 0.7620 0.7620 0.7620
11.873000 0.7640 0.7660 0.7660 0.7660 0.7660
11.906714 0.7660 0.7660 0.7660 0.7670 0.7670
11.940000 0.7690 0.7690 0.7710 0.7710 0.7710
11.973714 0.7710 0.7710 0.7690 0.7690 0.7670
12.008000 0.7670 0.7640 0.7640 0.7640 0.7640
12.041714 0.7640 0.7640 0.7640 0.7640 0.7640
12.075000 0.7640 0.7640 0.7640 0.7640 0.7640
12.108714 0.7620 0.7590 0.7590 0.7570 0.7570
12.143000 0.7570 0.7570 0.7570 0.7590 0.7590
12.176714 0.7590 0.7570 0.7540 0.7520 0.7520
12.210000 0.7540 0.7540 0.7540 0.7540 0.7540
12.243714 0.7540 0.7540 0.7520 0.7520 0.7500
12.277000 0.7500 0.7490 0.7490 0.7490 0.7470
12.310714 0.7470 0.7470 0.7470 0.7450 0.7450
12.345000 0.7450 0.7440 0.7420 0.7370 0.7330
12.378714 0.7300 0.7280 0.7280 0.7270 0.7250
12.412000 0.7230 0.7220 0.7220 0.7200 0.7200
12.445714 0.7200 0.7150 0.7110 0.7100 0.7080
12.480000 0.7050 0.7030 0.7030 0.7010 0.6940
12.513714 0.6930 0.6890 0.6860 0.6840 0.6830
12.547000 0.6790 0.6760 0.6710 0.6670 0.6640
12.580714 0.6590 0.6540 0.6520 0.6520 0.6440
12.614000 0.6380 0.6330 0.6280 0.6250 0.6150
12.647714 0.6080 0.6050 0.6030 0.6010 0.5930
12.682000 0.5860 0.5770 0.5710 0.5590 0.5520
12.715714 0.5450 0.5420 0.5380 0.5330 0.5280
12.749000 0.5200 0.5130 0.5100 0.5080 0.5050
12.782714 0.5030 0.5030 0.5010 0.5010 0.5010
12.816000 0.5030 0.5030 0.5060 0.5110 0.5200
12.849714 0.5280 0.5330 0.5380 0.5490 0.5490
12.884000 0.5500 0.5590 0.5640 0.5690 0.5760
12.917714 0.5790 0.5830 0.5840 0.5860 0.5860
12.951000 0.5910 0.5940 0.5960 0.5980 0.5980
12.984714 0.5980 0.5980 0.5980 0.5980 0.5980
13.019000 0.5960 0.5960 0.5940 0.5930 0.5910
13.052714 0.5910 0.5910 0.5910 0.5910 0.5910
13.086000 0.5910 0.5910 0.5930 0.5930 0.5930
13.119714 0.5930 0.5930 0.5910 0.5880 0.5860
13.153000 0.5860 0.5860 0.5860 0.5840 0.5830
13.186714 0.5810 0.5810 0.5790 0.5770 0.5760
13.221000 0.5720 0.5710 0.5690 0.5640 0.5610
13.254714 0.5610 0.5610 0.5570 0.5550 0.5520
13.288000 0.5500 0.5490 0.5490 0.5490 0.5470
13.321714 0.5470 0.5470 0.5450 0.5420 0.5400
13.356000 0.5380 0.5380 0.5370 0.5330 0.5320
13.389714 0.5300 0.5270 0.5220 0.5200 0.5180
13.423000 0.5180 0.5180 0.5180 0.5160 0.5150
13.456714 0.5110 0.5110 0.5100 0.5080 0.5060
13.490000 0.5050 0.5010 0.5010 0.5000 0.4980
13.523714 0.4930 0.4910 0.4880 0.4830 0.4790
13.558000 0.4790 0.4770 0.4760 0.4760 0.4760
13.591714 0.4760 0.4740 0.4720 0.4720 0.4710
13.625000 0.4710 0.4710 0.4710 0.4710 0.4710
13.658714 0.4690 0.4690 0.4690 0.4670 0.4660
13.693000 0.4620 0.4590 0.4570 0.4570 0.4570
13.726714 0.4550 0.4540 0.4520 0.4520 0.4470
13.760000 0.4440 0.4440 0.4420 0.4420 0.4420
13.793714 0.4400 0.4380 0.4350 0.4320 0.4320
13.827000 0.4320 0.4300 0.4300 0.4300 0.4270
13.860714 0.4220 0.4220 0.4220 0.4200 0.4200
13.895000 0.4200 0.4200 0.4230 0.4250 0.4280
13.928714 0.4300 0.4370 0.4420 0.4440 0.4470
13.962000 0.4490 0.4490 0.4490 0.4490 0.4500
13.995714 0.4520 0.4540 0.4550 0.4550 0.4570
14.030000 0.4570 0.4590 0.4590 0.4590 0.4620
14.063714 0.4620 0.4620 0.4640 0.4660 0.4660
14.097000 0.4660 0.4660 0.4670 0.4690 0.4720
14.130714 0.4740 0.4740 0.4740 0.4760 0.4770
14.164000 0.4770 0.4770 0.4770 0.4770 0.4770
14.197714 0.4770 0.4770 0.4790 0.4790 0.4790
14.232000 0.4790 0.4810 0.4830 0.4840 0.4860
14.265714 0.4860 0.4860 0.4860 0.4880 0.4890
14.299000 0.4890 0.4890 0.4890 0.4860 0.4860
14.332714 0.4860 0.4860 0.4860 0.4860 0.4860
14.367000 0.4860 0.4860 0.4860 0.4880 0.4880
14.400714 0.4880 0.4880 0.4880 0.4890 0.4890
14.434000 0.4910 0.4910 0.4910 0.4910 0.4890
14.467714 0.4890 0.4890 0.4910 0.4910 0.4910
14.501000 0.4910 0.4910 0.4910 0.4880 0.4880
14.534714 0.4880 0.4880 0.4890 0.4890 0.4890
14.569000 0.4910 0.4910 0.4890 0.4890 0.4910
14.602714 0.4910 0.4910 0.4930 0.4930 0.4930
14.636000 0.4930 0.4930 0.4930 0.4930 0.4930
14.669714 0.4930 0.4930 0.4930 0.4930 0.4930
14.703000 0.4930 0.4940 0.4940 0.4940 0.4940
14.736714 0.4940 0.4940 0.4940 0.4940 0.4940
14.771000 0.4940 0.4940 0.4940 0.4940 0.4940
14.804714 0.4940 0.4940 0.4940 0.4940 0.4940
14.838000 0.4940 0.4940 0.4940 0.4940 0.4940
14.871714 0.4940 0.4940 0.4940 0.4940 0.4940
14.906000 0.4940
##END=
