##TITLE=LEAD CHROMATE
$$ C.P.
##JCAMP-DX=4.24
##DATA TYPE=INFRARED SPECTRUM
##CLASS=COBLENTZ
##ORIGIN=MELLON INSTITUTE
##OWNER=COBLENTZ SOCIETY
Collection (C) 2018 copyright by the U.S. Secretary of Commerce
on behalf of the United States of America. All rights reserved.
##DATE=Not specified, most likely prior to 1970
##MOLFORM=Pb Cr O4
##SOURCE REFERENCE=COBLENTZ NO. 461
##$NIST ID=B6000461
##$NIST SOURCE=COBLENTZ
##$NIST IMAGE=cob461
##SPECTROMETER/DATA SYSTEM=Not specified, most likely a prism, grating, or hybrid spectrometer.
##STATE=SOLID (NUJOL MULL)
##PATH LENGTH=
$$SPECTRAL CONTAMINATION DUE TO OIL AROUND 2900, 1450, 1380 CM^-^1
##SAMPLING PROCEDURE=TRANSMISSION
##RESOLUTION=4
##DATA PROCESSING=DIGITIZED BY NIST FROM HARD COPY
##XUNITS=MICROMETERS
##YUNITS=TRANSMITTANCE
##XFACTOR=1.000000
##YFACTOR=1
##DELTAX=000.006824
##FIRSTX=2.031
##LASTX=15.993
##FIRSTY=0.314
##MAXX=15.993
##MINX=2.031
##MAXY=0.951
##MINY=0.256
##NPOINTS=2047
##XYDATA=(X++(Y..Y))
2.031000 0.3140 0.3140 0.3160 0.3160 0.3160
2.065136 0.3160 0.3160 0.3160 0.3160 0.3160
2.099000 0.3160 0.3170 0.3170 0.3170 0.3170
2.133136 0.3170 0.3170 0.3170 0.3170 0.3170
2.167000 0.3170 0.3170 0.3170 0.3190 0.3190
2.201136 0.3190 0.3190 0.3230 0.3230 0.3230
2.236000 0.3240 0.3240 0.3240 0.3240 0.3260
2.270136 0.3260 0.3280 0.3280 0.3290 0.3310
2.304000 0.3310 0.3310 0.3350 0.3350 0.3360
2.338136 0.3380 0.3380 0.3380 0.3400 0.3400
2.372000 0.3410 0.3410 0.3430 0.3450 0.3450
2.406136 0.3470 0.3480 0.3480 0.3500 0.3520
2.440000 0.3520 0.3530 0.3530 0.3570 0.3570
2.474136 0.3590 0.3600 0.3640 0.3650 0.3650
2.509000 0.3670 0.3710 0.3720 0.3740 0.3780
2.543136 0.3790 0.3810 0.3830 0.3840 0.3860
2.577000 0.3880 0.3900 0.3910 0.3930 0.3960
2.611136 0.3980 0.4000 0.4000 0.4020 0.4020
2.645000 0.4070 0.4100 0.4100 0.4120 0.4140
2.679136 0.4150 0.4170 0.4190 0.4190 0.4200
2.713000 0.4220 0.4240 0.4260 0.4260 0.4270
2.747136 0.4270 0.4290 0.4290 0.4310 0.4320
2.782000 0.4320 0.4320 0.4340 0.4360 0.4360
2.816136 0.4360 0.4360 0.4360 0.4360 0.4380
2.850000 0.4380 0.4390 0.4390 0.4410 0.4410
2.884136 0.4430 0.4450 0.4460 0.4460 0.4480
2.918000 0.4480 0.4480 0.4480 0.4500 0.4500
2.952136 0.4500 0.4510 0.4510 0.4510 0.4510
2.986000 0.4530 0.4550 0.4550 0.4570 0.4570
3.020136 0.4580 0.4580 0.4580 0.4580 0.4580
3.055000 0.4580 0.4600 0.4600 0.4620 0.4620
3.089136 0.4630 0.4630 0.4650 0.4670 0.4670
3.123000 0.4670 0.4690 0.4690 0.4690 0.4700
3.157136 0.4720 0.4720 0.4740 0.4740 0.4750
3.191000 0.4770 0.4790 0.4810 0.4840 0.4860
3.225136 0.4870 0.4870 0.4910 0.4930 0.4940
3.259000 0.4980 0.4980 0.4960 0.4960 0.4940
3.293136 0.4910 0.4810 0.4220 0.3830 0.3670
3.328000 0.3480 0.3290 0.2980 0.2800 0.2760
3.362136 0.2710 0.2660 0.2640 0.2660 0.2690
3.396000 0.2730 0.2850 0.2970 0.3020 0.3070
3.430136 0.3100 0.3100 0.3100 0.3100 0.3160
3.464000 0.4190 0.4460 0.4770 0.5000 0.5220
3.498136 0.5410 0.5530 0.5610 0.5720 0.5790
3.532000 0.5840 0.5910 0.5970 0.6010 0.6040
3.566136 0.6110 0.6150 0.6160 0.6180 0.6210
3.600000 0.6210 0.6250 0.6270 0.6270 0.6280
3.634136 0.6300 0.6300 0.6300 0.6320 0.6340
3.669000 0.6340 0.6340 0.6370 0.6370 0.6390
3.703136 0.6390 0.6390 0.6400 0.6420 0.6420
3.737000 0.6440 0.6440 0.6460 0.6460 0.6470
3.771136 0.6490 0.6490 0.6510 0.6510 0.6510
3.805000 0.6520 0.6540 0.6540 0.6560 0.6560
3.839136 0.6560 0.6580 0.6580 0.6590 0.6590
3.873000 0.6610 0.6630 0.6630 0.6630 0.6630
3.907136 0.6640 0.6640 0.6640 0.6660 0.6660
3.942000 0.6680 0.6700 0.6700 0.6710 0.6710
3.976136 0.6730 0.6730 0.6730 0.6750 0.6750
4.010000 0.6750 0.6750 0.6750 0.6760 0.6760
4.044136 0.6780 0.6780 0.6780 0.6800 0.6800
4.078000 0.6820 0.6820 0.6830 0.6850 0.6850
4.112136 0.6850 0.6850 0.6850 0.6870 0.6870
4.146000 0.6890 0.6890 0.6890 0.6900 0.6900
4.180136 0.6900 0.6900 0.6920 0.6900 0.6920
4.215000 0.6920 0.6940 0.6940 0.6940 0.6950
4.249136 0.6950 0.6950 0.6970 0.6970 0.6990
4.283000 0.6990 0.6990 0.6990 0.6990 0.6990
4.317136 0.6990 0.6990 0.6990 0.6990 0.7010
4.351000 0.7010 0.7020 0.7020 0.7020 0.7040
4.385136 0.7040 0.7020 0.7020 0.7020 0.7020
4.419000 0.7040 0.7040 0.7040 0.7070 0.7070
4.453136 0.7070 0.7090 0.7090 0.7090 0.7090
4.488000 0.7110 0.7110 0.7110 0.7110 0.7110
4.522136 0.7130 0.7130 0.7130 0.7130 0.7130
4.556000 0.7140 0.7140 0.7140 0.7140 0.7140
4.590136 0.7140 0.7140 0.7140 0.7160 0.7160
4.624000 0.7180 0.7180 0.7180 0.7180 0.7190
4.658136 0.7190 0.7190 0.7190 0.7190 0.7190
4.692000 0.7190 0.7210 0.7210 0.7210 0.7210
4.726136 0.7230 0.7230 0.7250 0.7250 0.7250
4.761000 0.7250 0.7250 0.7260 0.7260 0.7260
4.795136 0.7280 0.7260 0.7280 0.7280 0.7300
4.829000 0.7300 0.7300 0.7300 0.7310 0.7310
4.863136 0.7310 0.7310 0.7330 0.7330 0.7350
4.897000 0.7350 0.7370 0.7370 0.7380 0.7380
4.931136 0.7380 0.7380 0.7400 0.7420 0.7420
4.965000 0.7420 0.7430 0.7450 0.7450 0.7470
4.999136 0.7470 0.7490 0.7500 0.7500 0.7520
5.033000 0.7540 0.7540 0.7560 0.7570 0.7590
5.067136 0.7590 0.7610 0.7610 0.7640 0.7640
5.102000 0.7660 0.7660 0.7680 0.7680 0.7690
5.136136 0.7690 0.7710 0.7710 0.7730 0.7730
5.170000 0.7730 0.7740 0.7760 0.7760 0.7780
5.204136 0.7780 0.7780 0.7780 0.7800 0.7800
5.238000 0.7800 0.7800 0.7800 0.7810 0.7810
5.272136 0.7830 0.7830 0.7830 0.7830 0.7830
5.306000 0.7830 0.7830 0.7830 0.7850 0.7850
5.340136 0.7850 0.7860 0.7860 0.7860 0.7860
5.375000 0.7880 0.7880 0.7880 0.7880 0.7900
5.409136 0.7900 0.7900 0.7900 0.7920 0.7920
5.443000 0.7920 0.7930 0.7950 0.7950 0.7970
5.477136 0.7980 0.7970 0.7980 0.7980 0.8000
5.511000 0.8000 0.8000 0.8000 0.8020 0.8020
5.545136 0.8020 0.8040 0.8040 0.8040 0.8040
5.579000 0.8050 0.8050 0.8070 0.8100 0.8100
5.613136 0.8100 0.8120 0.8140 0.8160 0.8160
5.648000 0.8170 0.8170 0.8190 0.8190 0.8210
5.682136 0.8210 0.8230 0.8240 0.8260 0.8260
5.716000 0.8260 0.8280 0.8280 0.8290 0.8310
5.750136 0.8310 0.8310 0.8330 0.8330 0.8350
5.784000 0.8350 0.8350 0.8360 0.8350 0.8360
5.818136 0.8360 0.8400 0.8400 0.8410 0.8410
5.852000 0.8410 0.8430 0.8430 0.8450 0.8450
5.886136 0.8470 0.8480 0.8480 0.8500 0.8500
5.921000 0.8500 0.8500 0.8520 0.8520 0.8530
5.955136 0.8530 0.8530 0.8530 0.8530 0.8530
5.989000 0.8550 0.8550 0.8550 0.8590 0.8570
6.023136 0.8570 0.8570 0.8570 0.8590 0.8590
6.057000 0.8590 0.8600 0.8600 0.8600 0.8600
6.091136 0.8620 0.8620 0.8620 0.8620 0.8620
6.125000 0.8620 0.8640 0.8640 0.8640 0.8640
6.159136 0.8650 0.8670 0.8670 0.8670 0.8670
6.194000 0.8670 0.8670 0.8670 0.8670 0.8670
6.228136 0.8670 0.8650 0.8650 0.8640 0.8620
6.262000 0.8590 0.8570 0.8550 0.8550 0.8530
6.296136 0.8520 0.8500 0.8500 0.8500 0.8480
6.330000 0.8480 0.8480 0.8480 0.8480 0.8480
6.364136 0.8480 0.8470 0.8470 0.8470 0.8480
6.398000 0.8480 0.8500 0.8500 0.8520 0.8530
6.432136 0.8530 0.8530 0.8550 0.8550 0.8530
6.467000 0.8530 0.8530 0.8530 0.8530 0.8550
6.501136 0.8550 0.8530 0.8530 0.8530 0.8530
6.535000 0.8530 0.8530 0.8530 0.8530 0.8530
6.569136 0.8550 0.8530 0.8530 0.8550 0.8570
6.603000 0.8590 0.8600 0.8620 0.8620 0.8640
6.637136 0.8650 0.8650 0.8670 0.8670 0.8670
6.671000 0.8690 0.8690 0.8690 0.8690 0.8710
6.705136 0.8710 0.8690 0.8690 0.8670 0.8620
6.739000 0.8600 0.8590 0.8550 0.8480 0.7970
6.773136 0.7760 0.7620 0.7350 0.7130 0.7020
6.808000 0.6990 0.6970 0.6970 0.6970 0.6970
6.842136 0.6990 0.7020 0.7020 0.7090 0.7210
6.876000 0.7260 0.7370 0.7450 0.7560 0.7620
6.910136 0.7680 0.7730 0.7800 0.7830 0.7880
6.944000 0.7980 0.7980 0.8020 0.8070 0.8120
6.978136 0.8160 0.8190 0.8230 0.8240 0.8280
7.012000 0.8310 0.8310 0.8330 0.8380 0.8400
7.046136 0.8410 0.8430 0.8470 0.8500 0.8520
7.081000 0.8530 0.8550 0.8570 0.8600 0.8600
7.115136 0.8600 0.8600 0.8600 0.8600 0.8570
7.149000 0.8530 0.8500 0.8450 0.8310 0.8050
7.183136 0.8020 0.7950 0.7860 0.7850 0.7800
7.217000 0.7780 0.7800 0.7860 0.7920 0.7980
7.251136 0.8020 0.8090 0.8120 0.8190 0.8230
7.285000 0.8330 0.8400 0.8480 0.8530 0.8590
7.319136 0.8640 0.8670 0.8690 0.8720 0.8740
7.354000 0.8780 0.8790 0.8790 0.8810 0.8830
7.388136 0.8840 0.8840 0.8860 0.8880 0.8880
7.422000 0.8900 0.8910 0.8930 0.8930 0.8930
7.456136 0.8950 0.8960 0.8960 0.8960 0.8980
7.490000 0.8980 0.9000 0.9020 0.9020 0.9020
7.524136 0.9020 0.9030 0.9020 0.9020 0.9030
7.558000 0.9030 0.9050 0.9050 0.9070 0.9070
7.592136 0.9080 0.9080 0.9100 0.9100 0.9100
7.627000 0.9120 0.9100 0.9100 0.9120 0.9120
7.661136 0.9120 0.9120 0.9120 0.9120 0.9120
7.695000 0.9120 0.9120 0.9120 0.9120 0.9140
7.729136 0.9140 0.9140 0.9140 0.9150 0.9150
7.763000 0.9170 0.9170 0.9170 0.9170 0.9170
7.797136 0.9170 0.9190 0.9190 0.9200 0.9200
7.831000 0.9200 0.9220 0.9220 0.9220 0.9220
7.865136 0.9220 0.9220 0.9240 0.9240 0.9240
7.900000 0.9240 0.9240 0.9240 0.9240 0.9240
7.934136 0.9240 0.9240 0.9240 0.9240 0.9240
7.968000 0.9240 0.9240 0.9240 0.9240 0.9240
8.002136 0.9240 0.9240 0.9240 0.9240 0.9240
8.036000 0.9240 0.9240 0.9240 0.9240 0.9240
8.070136 0.9240 0.9240 0.9240 0.9240 0.9260
8.104000 0.9260 0.9260 0.9260 0.9260 0.9260
8.138136 0.9270 0.9270 0.9270 0.9290 0.9290
8.172000 0.9290 0.9290 0.9290 0.9270 0.9270
8.206136 0.9270 0.9270 0.9270 0.9290 0.9290
8.241000 0.9270 0.9270 0.9270 0.9270 0.9290
8.275136 0.9290 0.9290 0.9290 0.9310 0.9310
8.309000 0.9310 0.9310 0.9320 0.9320 0.9320
8.343136 0.9340 0.9340 0.9360 0.9360 0.9360
8.377000 0.9360 0.9360 0.9360 0.9380 0.9380
8.411136 0.9360 0.9360 0.9360 0.9360 0.9360
8.445000 0.9360 0.9360 0.9360 0.9360 0.9360
8.479136 0.9380 0.9380 0.9380 0.9360 0.9360
8.514000 0.9360 0.9360 0.9380 0.9380 0.9360
8.548136 0.9360 0.9360 0.9360 0.9360 0.9380
8.582000 0.9360 0.9360 0.9360 0.9360 0.9360
8.616136 0.9360 0.9360 0.9360 0.9360 0.9360
8.650000 0.9340 0.9340 0.9340 0.9340 0.9360
8.684136 0.9340 0.9340 0.9320 0.9320 0.9310
8.718000 0.9310 0.9310 0.9310 0.9310 0.9310
8.752136 0.9310 0.9310 0.9310 0.9310 0.9310
8.787000 0.9310 0.9310 0.9310 0.9320 0.9310
8.821136 0.9310 0.9310 0.9310 0.9310 0.9310
8.855000 0.9310 0.9310 0.9310 0.9320 0.9320
8.889136 0.9320 0.9320 0.9320 0.9320 0.9340
8.923000 0.9340 0.9340 0.9340 0.9340 0.9340
8.957136 0.9340 0.9340 0.9340 0.9340 0.9340
8.991000 0.9340 0.9360 0.9360 0.9360 0.9380
9.025136 0.9380 0.9380 0.9380 0.9380 0.9380
9.060000 0.9380 0.9380 0.9380 0.9380 0.9380
9.094136 0.9380 0.9380 0.9390 0.9390 0.9390
9.128000 0.9390 0.9390 0.9390 0.9390 0.9390
9.162136 0.9390 0.9390 0.9390 0.9390 0.9390
9.196000 0.9390 0.9390 0.9410 0.9430 0.9430
9.230136 0.9430 0.9430 0.9430 0.9430 0.9450
9.264000 0.9450 0.9450 0.9450 0.9450 0.9450
9.298136 0.9460 0.9460 0.9460 0.9460 0.9460
9.333000 0.9460 0.9460 0.9460 0.9480 0.9480
9.367136 0.9460 0.9460 0.9460 0.9480 0.9480
9.401000 0.9480 0.9480 0.9480 0.9480 0.9480
9.435136 0.9480 0.9480 0.9480 0.9480 0.9480
9.469000 0.9480 0.9480 0.9480 0.9480 0.9480
9.503136 0.9480 0.9480 0.9500 0.9500 0.9480
9.537000 0.9480 0.9460 0.9460 0.9460 0.9460
9.571136 0.9460 0.9460 0.9480 0.9480 0.9480
9.605000 0.9480 0.9480 0.9480 0.9480 0.9480
9.639136 0.9480 0.9480 0.9480 0.9500 0.9500
9.674000 0.9500 0.9500 0.9480 0.9480 0.9500
9.708136 0.9500 0.9480 0.9480 0.9480 0.9480
9.742000 0.9480 0.9480 0.9480 0.9480 0.9480
9.776136 0.9500 0.9500 0.9500 0.9500 0.9480
9.810000 0.9500 0.9500 0.9510 0.9510 0.9510
9.844136 0.9510 0.9510 0.9500 0.9500 0.9500
9.878000 0.9500 0.9500 0.9500 0.9500 0.9500
9.912136 0.9500 0.9500 0.9500 0.9500 0.9500
9.947000 0.9500 0.9500 0.9500 0.9500 0.9480
9.981136 0.9480 0.9480 0.9460 0.9460 0.9460
10.015000 0.9460 0.9450 0.9450 0.9450 0.9450
10.049136 0.9450 0.9450 0.9450 0.9450 0.9450
10.083000 0.9450 0.9460 0.9460 0.9460 0.9460
10.117136 0.9460 0.9460 0.9460 0.9460 0.9460
10.151000 0.9450 0.9450 0.9450 0.9450 0.9450
10.185136 0.9450 0.9450 0.9450 0.9430 0.9410
10.220000 0.9390 0.9390 0.9380 0.9360 0.9360
10.254136 0.9340 0.9320 0.9270 0.9260 0.9240
10.288000 0.9220 0.9220 0.9170 0.9150 0.9150
10.322136 0.9140 0.9120 0.9120 0.9070 0.9050
10.356000 0.9030 0.9020 0.9000 0.8980 0.8950
10.390136 0.8930 0.8900 0.8840 0.8810 0.8760
10.424000 0.8690 0.8640 0.8570 0.8500 0.8400
10.458136 0.8310 0.8210 0.8170 0.8120 0.8050
10.493000 0.8020 0.8020 0.7930 0.7880 0.7830
10.527136 0.7760 0.7690 0.7570 0.7490 0.7380
10.561000 0.7330 0.7300 0.7190 0.7130 0.7040
10.595136 0.7010 0.6950 0.6850 0.6780 0.6730
10.629000 0.6700 0.6640 0.6580 0.6490 0.6440
10.663136 0.6350 0.6340 0.6250 0.6200 0.6110
10.697000 0.6010 0.5850 0.5770 0.5700 0.5630
10.731136 0.5560 0.5510 0.5440 0.5360 0.5290
10.766000 0.5250 0.5200 0.5180 0.5120 0.5030
10.800136 0.4930 0.4820 0.4690 0.4600 0.4410
10.834000 0.4320 0.4270 0.4200 0.4150 0.4050
10.868136 0.4020 0.3980 0.3910 0.3840 0.3830
10.902000 0.3780 0.3740 0.3710 0.3690 0.3650
10.936136 0.3640 0.3620 0.3600 0.3590 0.3550
10.970000 0.3530 0.3520 0.3480 0.3430 0.3380
11.004136 0.3350 0.3350 0.3330 0.3330 0.3330
11.038000 0.3290 0.3280 0.3260 0.3240 0.3230
11.072136 0.3210 0.3210 0.3190 0.3170 0.3170
11.107000 0.3160 0.3140 0.3120 0.3100 0.3090
11.141136 0.3070 0.3070 0.3050 0.3040 0.3040
11.175000 0.3040 0.3020 0.3020 0.3020 0.3000
11.209136 0.3000 0.2980 0.2980 0.2970 0.2970
11.243000 0.2950 0.2950 0.2950 0.2930 0.2930
11.277136 0.2920 0.2920 0.2920 0.2920 0.2900
11.311000 0.2900 0.2900 0.2900 0.2900 0.2900
11.345136 0.2900 0.2900 0.2900 0.2900 0.2900
11.380000 0.2900 0.2900 0.2900 0.2880 0.2860
11.414136 0.2860 0.2860 0.2850 0.2850 0.2830
11.448000 0.2830 0.2810 0.2800 0.2800 0.2780
11.482136 0.2760 0.2740 0.2740 0.2730 0.2710
11.516000 0.2690 0.2690 0.2690 0.2660 0.2660
11.550136 0.2640 0.2640 0.2640 0.2640 0.2620
11.584000 0.2620 0.2610 0.2610 0.2590 0.2590
11.618136 0.2590 0.2590 0.2590 0.2590 0.2590
11.653000 0.2590 0.2590 0.2590 0.2590 0.2590
11.687136 0.2570 0.2570 0.2570 0.2560 0.2560
11.721000 0.2560 0.2560 0.2560 0.2560 0.2560
11.755136 0.2560 0.2560 0.2560 0.2560 0.2560
11.789000 0.2570 0.2590 0.2590 0.2590 0.2590
11.823136 0.2610 0.2610 0.2610 0.2610 0.2620
11.857000 0.2620 0.2620 0.2640 0.2660 0.2680
11.891136 0.2690 0.2690 0.2690 0.2710 0.2730
11.926000 0.2730 0.2740 0.2740 0.2760 0.2760
11.960136 0.2760 0.2760 0.2760 0.2760 0.2780
11.994000 0.2760 0.2760 0.2760 0.2740 0.2730
12.028136 0.2730 0.2730 0.2730 0.2730 0.2730
12.062000 0.2710 0.2710 0.2710 0.2710 0.2690
12.096136 0.2690 0.2690 0.2690 0.2690 0.2710
12.130000 0.2690 0.2690 0.2710 0.2710 0.2710
12.164136 0.2710 0.2730 0.2730 0.2760 0.2780
12.199000 0.2800 0.2800 0.2810 0.2830 0.2850
12.233136 0.2860 0.2880 0.2900 0.2920 0.2930
12.267000 0.2950 0.2950 0.2970 0.3000 0.3020
12.301136 0.3040 0.3050 0.3100 0.3120 0.3160
12.335000 0.3170 0.3210 0.3230 0.3260 0.3290
12.369136 0.3310 0.3330 0.3360 0.3400 0.3430
12.403000 0.3470 0.3500 0.3520 0.3530 0.3550
12.437136 0.3550 0.3600 0.3650 0.3670 0.3690
12.471000 0.3720 0.3760 0.3760 0.3810 0.3810
12.505136 0.3840 0.3880 0.3910 0.3930 0.3960
12.540000 0.4000 0.4020 0.4030 0.4030 0.4050
12.574136 0.4100 0.4140 0.4140 0.4170 0.4200
12.608000 0.4240 0.4270 0.4290 0.4310 0.4320
12.642136 0.4340 0.4380 0.4390 0.4450 0.4460
12.676000 0.4480 0.4500 0.4510 0.4550 0.4570
12.710136 0.4600 0.4620 0.4650 0.4650 0.4690
12.744000 0.4720 0.4740 0.4750 0.4790 0.4820
12.778136 0.4860 0.4860 0.4890 0.4910 0.4940
12.813000 0.5000 0.5000 0.5030 0.5050 0.5050
12.847136 0.5120 0.5130 0.5170 0.5180 0.5220
12.881000 0.5240 0.5250 0.5290 0.5320 0.5340
12.915136 0.5360 0.5390 0.5420 0.5420 0.5460
12.949000 0.5480 0.5510 0.5530 0.5540 0.5580
12.983136 0.5610 0.5610 0.5650 0.5680 0.5720
13.017000 0.5730 0.5750 0.5790 0.5800 0.5820
13.051136 0.5840 0.5850 0.5870 0.5890 0.5910
13.086000 0.5920 0.5940 0.5970 0.5990 0.6010
13.120136 0.6010 0.6030 0.6040 0.6040 0.6080
13.154000 0.6110 0.6130 0.6130 0.6150 0.6160
13.188136 0.6180 0.6200 0.6210 0.6250 0.6250
13.222000 0.6270 0.6280 0.6300 0.6300 0.6340
13.256136 0.6340 0.6350 0.6370 0.6390 0.6390
13.290000 0.6400 0.6420 0.6440 0.6460 0.6460
13.324136 0.6490 0.6510 0.6520 0.6520 0.6540
13.359000 0.6540 0.6540 0.6560 0.6580 0.6610
13.393136 0.6610 0.6630 0.6630 0.6640 0.6660
13.427000 0.6660 0.6660 0.6700 0.6710 0.6710
13.461136 0.6730 0.6730 0.6750 0.6760 0.6780
13.495000 0.6800 0.6800 0.6820 0.6830 0.6830
13.529136 0.6850 0.6870 0.6870 0.6890 0.6890
13.563000 0.6900 0.6900 0.6920 0.6940 0.6950
13.597136 0.6950 0.6990 0.7010 0.7010 0.7010
13.632000 0.7010 0.7020 0.7040 0.7040 0.7040
13.666136 0.7040 0.7060 0.7070 0.7070 0.7090
13.700000 0.7110 0.7130 0.7140 0.7140 0.7140
13.734136 0.7160 0.7160 0.7160 0.7180 0.7180
13.768000 0.7190 0.7190 0.7190 0.7210 0.7210
13.802136 0.7230 0.7230 0.7250 0.7250 0.7250
13.836000 0.7250 0.7260 0.7260 0.7260 0.7280
13.870136 0.7280 0.7280 0.7300 0.7300 0.7300
13.904000 0.7300 0.7310 0.7330 0.7330 0.7330
13.938136 0.7330 0.7350 0.7350 0.7370 0.7370
13.973000 0.7380 0.7420 0.7420 0.7420 0.7430
14.007136 0.7450 0.7450 0.7470 0.7470 0.7490
14.041000 0.7500 0.7520 0.7520 0.7520 0.7520
14.075136 0.7540 0.7540 0.7560 0.7560 0.7560
14.109000 0.7560 0.7570 0.7570 0.7590 0.7570
14.143136 0.7570 0.7590 0.7570 0.7570 0.7570
14.177000 0.7570 0.7570 0.7570 0.7570 0.7570
14.211136 0.7570 0.7570 0.7570 0.7560 0.7560
14.246000 0.7560 0.7560 0.7540 0.7540 0.7520
14.280136 0.7520 0.7500 0.7490 0.7490 0.7450
14.314000 0.7430 0.7430 0.7420 0.7400 0.7400
14.348136 0.7400 0.7400 0.7400 0.7400 0.7380
14.382000 0.7380 0.7380 0.7380 0.7370 0.7370
14.416136 0.7350 0.7350 0.7330 0.7330 0.7310
14.450000 0.7310 0.7310 0.7300 0.7280 0.7260
14.484136 0.7250 0.7230 0.7230 0.7210 0.7190
14.519000 0.7180 0.7180 0.7160 0.7140 0.7130
14.553136 0.7110 0.7090 0.7060 0.7060 0.7040
14.587000 0.7040 0.7040 0.7020 0.7020 0.7010
14.621136 0.6990 0.6990 0.6970 0.6950 0.6950
14.655000 0.6940 0.6920 0.6890 0.6870 0.6850
14.689136 0.6830 0.6820 0.6800 0.6800 0.6780
14.723000 0.6780 0.6760 0.6750 0.6730 0.6730
14.757136 0.6710 0.6700 0.6680 0.6680 0.6660
14.792000 0.6640 0.6630 0.6610 0.6590 0.6580
14.826136 0.6580 0.6560 0.6540 0.6520 0.6520
14.860000 0.6520 0.6510 0.6490 0.6470 0.6460
14.894136 0.6440 0.6440 0.6420 0.6400 0.6400
14.928000 0.6400 0.6370 0.6350 0.6350 0.6340
14.962136 0.6340 0.6320 0.6320 0.6300 0.6300
14.996000 0.6280 0.6280 0.6280 0.6270 0.6250
15.030136 0.6230 0.6230 0.6210 0.6200 0.6200
15.065000 0.6200 0.6200 0.6160 0.6160 0.6160
15.099136 0.6150 0.6130 0.6110 0.6110 0.6110
15.133000 0.6110 0.6110 0.6090 0.6080 0.6080
15.167136 0.6060 0.6040 0.6040 0.6040 0.6040
15.201000 0.6040 0.6030 0.6030 0.6030 0.6010
15.235136 0.6010 0.6010 0.5990 0.5970 0.5960
15.269000 0.5940 0.5940 0.5920 0.5920 0.5910
15.303136 0.5910 0.5890 0.5890 0.5870 0.5850
15.337000 0.5840 0.5840 0.5820 0.5820 0.5800
15.371136 0.5790 0.5790 0.5790 0.5770 0.5770
15.406000 0.5770 0.5750 0.5750 0.5730 0.5720
15.440136 0.5720 0.5720 0.5720 0.5720 0.5700
15.474000 0.5700 0.5680 0.5680 0.5670 0.5650
15.508136 0.5650 0.5650 0.5630 0.5630 0.5630
15.542000 0.5610 0.5610 0.5610 0.5600 0.5580
15.576136 0.5580 0.5580 0.5580 0.5580 0.5560
15.610000 0.5540 0.5540 0.5540 0.5530 0.5530
15.644136 0.5510 0.5510 0.5490 0.5490 0.5490
15.679000 0.5490 0.5480 0.5480 0.5480 0.5480
15.713136 0.5460 0.5460 0.5440 0.5420 0.5420
15.747000 0.5420 0.5420 0.5410 0.5410 0.5410
15.781136 0.5390 0.5390 0.5390 0.5370 0.5370
15.815000 0.5360 0.5360 0.5360 0.5340 0.5340
15.849136 0.5340 0.5340 0.5320 0.5320 0.5300
15.883000 0.5300 0.5300 0.5300 0.5300 0.5300
15.917136 0.5290 0.5290 0.5290 0.5290 0.5290
15.952000 0.5270 0.5270 0.5270 0.5270 0.5270
15.986136 0.5270 0.5270
##END=
