##TITLE=Purine-8(9H)-thione, 7,9-bis-(piperidinomethyl)-
##JCAMP-DX=4.24
##DATA TYPE=INFRARED SPECTRUM
##CLASS=COBLENTZ III
##ORIGIN=SOUTHERN RESEARCH INSTITUTE
##OWNER=Copyright (C) 1987 by the Coblentz Society
Collection (C) 2018 copyright by the U.S. Secretary of Commerce
on behalf of the United States of America. All rights reserved.
##DATE=1960/05/16
##NAMES=7,9-bis(1-piperidinylmethyl)-7,9-dihydro-8H-purine-8-thione
##MOLFORM=C17 H26 N6 S
##SOURCE REFERENCE=COBLENTZ NO. 8727
##$NIST ID=B6008727
##$NIST SOURCE=COBLENTZ
##$NIST IMAGE=cob8727
##SPECTROMETER/DATA SYSTEM=PERKIN-ELMER 21 (GRATING)
##INSTRUMENT PARAMETERS=FILTER CHANGE ABOUT 1025 CM^-^1
##STATE=SOLID (0.8 mg / 650 mg KBr DISC)
$$SPECTRAL CONTAMINATION DUE TO H2O AROUND 3450 CM^-^1
##SAMPLING PROCEDURE=TRANSMISSION
##RESOLUTION=2
##DATA PROCESSING=DIGITIZED BY COBLENTZ SOCIETY (BATCH II) FROM HARD COPY
##XUNITS=1/CM
##YUNITS=TRANSMITTANCE
##XFACTOR=1.0
##YFACTOR=1
##FIRSTX=602
##LASTX=4000
##FIRSTY=0.4691
##MAXX=4000
##MINX=602
##MAXY=0.756
##MINY=0.0747
##NPOINTS=3399
##XYDATA=(X++(Y..Y))
602.000000 0.4691 0.4694 0.4698 0.4699 0.4701
607.000000 0.4702 0.4707 0.4710 0.4718 0.4731
612.000000 0.4751 0.4784 0.4809 0.4833 0.4857
617.000000 0.4869 0.4881 0.4892 0.4897 0.4900
622.000000 0.4904 0.4908 0.4907 0.4903 0.4900
627.000000 0.4897 0.4893 0.4892 0.4894 0.4896
632.000000 0.4898 0.4902 0.4919 0.4960 0.5055
637.000000 0.5114 0.5173 0.5217 0.5260 0.5283
642.000000 0.5289 0.5290 0.5284 0.5276 0.5265
647.000000 0.5254 0.5233 0.5173 0.5097 0.5022
652.000000 0.4946 0.4870 0.4794 0.4718 0.4642
657.000000 0.4567 0.4491 0.4415 0.4339 0.4263
662.000000 0.4188 0.4142 0.4146 0.4151 0.4123
667.000000 0.4313 0.4563 0.4814 0.5065 0.5290
672.000000 0.5287 0.5282 0.5248 0.5213 0.5179
677.000000 0.5144 0.5110 0.5085 0.5090 0.5095
682.000000 0.5203 0.5317 0.5432 0.5546 0.5660
687.000000 0.5774 0.5907 0.5916 0.5913 0.5910
692.000000 0.5883 0.5902 0.5896 0.5884 0.5873
697.000000 0.5861 0.5850 0.5838 0.5824 0.5809
702.000000 0.5795 0.5780 0.5763 0.5743 0.5722
707.000000 0.5701 0.5681 0.5659 0.5637 0.5615
712.000000 0.5593 0.5571 0.5550 0.5521 0.5490
717.000000 0.5460 0.5427 0.5393 0.5358 0.5324
722.000000 0.5272 0.5219 0.5155 0.5066 0.4982
727.000000 0.4907 0.4878 0.4857 0.4836 0.4833
732.000000 0.4836 0.4857 0.4884 0.5010 0.5146
737.000000 0.5282 0.5418 0.5553 0.5669 0.5665
742.000000 0.5674 0.5650 0.5638 0.5615 0.5588
747.000000 0.5553 0.5518 0.5475 0.5426 0.5378
752.000000 0.5277 0.5175 0.5073 0.4972 0.4870
757.000000 0.4768 0.4666 0.4490 0.4438 0.4420
762.000000 0.4404 0.4404 0.4414 0.4431 0.4490
767.000000 0.4565 0.4640 0.4715 0.4791 0.4799
772.000000 0.4790 0.4779 0.4758 0.4674 0.4520
777.000000 0.4267 0.4015 0.3762 0.3510 0.3257
782.000000 0.3226 0.3221 0.3239 0.3236 0.3349
787.000000 0.3680 0.4012 0.4343 0.4572 0.4567
792.000000 0.4564 0.4563 0.4447 0.4135 0.3967
797.000000 0.3800 0.3632 0.3464 0.3299 0.3258
802.000000 0.3236 0.3239 0.3244 0.3253 0.3260
807.000000 0.3292 0.3319 0.3350 0.3419 0.3582
812.000000 0.3745 0.3908 0.4071 0.4234 0.4397
817.000000 0.4560 0.4723 0.4821 0.4841 0.4858
822.000000 0.4871 0.4883 0.4897 0.4930 0.4963
827.000000 0.5122 0.5423 0.5725 0.5994 0.6030
832.000000 0.6040 0.6055 0.6052 0.6047 0.6041
837.000000 0.6031 0.6014 0.5991 0.5956 0.5904
842.000000 0.5843 0.5771 0.5698 0.5540 0.5445
847.000000 0.5350 0.5254 0.5159 0.5064 0.4969
852.000000 0.4924 0.4902 0.4877 0.4850 0.4821
857.000000 0.4782 0.4723 0.4586 0.4554 0.4543
862.000000 0.4546 0.4794 0.4973 0.5152 0.5330
867.000000 0.5509 0.5687 0.5831 0.5831 0.5851
872.000000 0.5826 0.5814 0.5800 0.5784 0.5760
877.000000 0.5736 0.5704 0.5670 0.5637 0.5603
882.000000 0.5569 0.5532 0.5489 0.5446 0.5402
887.000000 0.5358 0.5312 0.5266 0.5220 0.5176
892.000000 0.5133 0.5100 0.5085 0.5070 0.5055
897.000000 0.5042 0.5032 0.5023 0.5007 0.4957
902.000000 0.4908 0.4858 0.4809 0.4759 0.4710
907.000000 0.4660 0.4610 0.4405 0.4276 0.4225
912.000000 0.4215 0.4219 0.4227 0.4267 0.4379
917.000000 0.4492 0.4606 0.4719 0.4832 0.4945
922.000000 0.4966 0.4950 0.4953 0.4935 0.4904
927.000000 0.4783 0.4663 0.4542 0.4421 0.4300
932.000000 0.4179 0.4058 0.3938 0.3817 0.3696
937.000000 0.3575 0.3454 0.3333 0.3213 0.3092
942.000000 0.2989 0.2935 0.2894 0.2858 0.2823
947.000000 0.2770 0.2695 0.2659 0.2635 0.2670
952.000000 0.2695 0.2775 0.2940 0.3104 0.3269
957.000000 0.3434 0.3556 0.3575 0.3582 0.3589
962.000000 0.3593 0.3595 0.3878 0.4240 0.4303
967.000000 0.4340 0.4343 0.4346 0.4342 0.4333
972.000000 0.4257 0.4133 0.4041 0.4028 0.4016
977.000000 0.4007 0.4004 0.4000 0.3996 0.3987
982.000000 0.3977 0.3861 0.3688 0.3514 0.3341
987.000000 0.3168 0.2994 0.2821 0.2647 0.2474
992.000000 0.2300 0.2127 0.1953 0.1792 0.1771
997.000000 0.1768 0.1777 0.1796 0.2003 0.2216
1002.000000 0.2429 0.2642 0.2854 0.3067 0.3280
1007.000000 0.3492 0.3705 0.3782 0.3779 0.3767
1012.000000 0.3703 0.3589 0.3476 0.3362 0.3249
1017.000000 0.3135 0.3027 0.3032 0.3035 0.3038
1022.000000 0.3047 0.3061 0.3077 0.3096 0.3119
1027.000000 0.3357 0.3855 0.4354 0.4598 0.4601
1032.000000 0.4596 0.4553 0.4463 0.4373 0.4283
1037.000000 0.4280 0.4283 0.4583 0.5063 0.5586
1042.000000 0.5671 0.5713 0.5736 0.5753 0.5763
1047.000000 0.5755 0.5745 0.5733 0.5697 0.5664
1052.000000 0.5633 0.5596 0.5555 0.5515 0.5484
1057.000000 0.5453 0.5412 0.5370 0.5297 0.5216
1062.000000 0.5138 0.5061 0.4984 0.4869 0.4754
1067.000000 0.4554 0.4369 0.4185 0.4002 0.3818
1072.000000 0.3635 0.3409 0.3204 0.3204 0.3161
1077.000000 0.3403 0.3799 0.4195 0.4591 0.4792
1082.000000 0.4823 0.4824 0.4820 0.4811 0.4799
1087.000000 0.4682 0.4552 0.4421 0.4291 0.4160
1092.000000 0.4042 0.3999 0.3962 0.3924 0.3794
1097.000000 0.3485 0.3176 0.2742 0.2629 0.2542
1102.000000 0.2457 0.2361 0.2253 0.2132 0.2010
1107.000000 0.1988 0.1944 0.1966 0.1975 0.1996
1112.000000 0.2033 0.2073 0.2112 0.2151 0.2231
1117.000000 0.2302 0.2356 0.2405 0.2450 0.2649
1122.000000 0.3005 0.3361 0.3718 0.4074 0.4431
1127.000000 0.4433 0.4431 0.4429 0.4427 0.4409
1132.000000 0.4380 0.4266 0.4152 0.4037 0.3923
1137.000000 0.3809 0.3711 0.3718 0.3744 0.3785
1142.000000 0.3826 0.3866 0.3906 0.3902 0.3896
1147.000000 0.3810 0.3542 0.3274 0.3007 0.2915
1152.000000 0.2898 0.2883 0.2867 0.2837 0.2707
1157.000000 0.2560 0.2413 0.2294 0.2284 0.2257
1162.000000 0.2288 0.2361 0.2477 0.2593 0.2709
1167.000000 0.2803 0.2801 0.2800 0.2769 0.2616
1172.000000 0.2463 0.2310 0.2157 0.2004 0.1851
1177.000000 0.1803 0.1818 0.1853 0.2081 0.2308
1182.000000 0.2535 0.2762 0.2989 0.3217 0.3444
1187.000000 0.3671 0.3898 0.4071 0.4081 0.4077
1192.000000 0.4081 0.4079 0.4074 0.4033 0.3889
1197.000000 0.3745 0.3601 0.3457 0.3314 0.3170
1202.000000 0.3030 0.3077 0.3075 0.3139 0.3399
1207.000000 0.3658 0.3918 0.4166 0.4205 0.4236
1212.000000 0.4257 0.4271 0.4285 0.4288 0.4297
1217.000000 0.4292 0.4294 0.4286 0.4279 0.4272
1222.000000 0.4262 0.4234 0.4101 0.3982 0.3863
1227.000000 0.3745 0.3626 0.3507 0.3389 0.3270
1232.000000 0.3152 0.3033 0.2914 0.2796 0.2677
1237.000000 0.2559 0.2440 0.2231 0.2174 0.2157
1242.000000 0.2151 0.2153 0.2138 0.2192 0.2317
1247.000000 0.2443 0.2568 0.2694 0.2721 0.2714
1252.000000 0.2696 0.2690 0.2638 0.2595 0.2554
1257.000000 0.2493 0.2425 0.2335 0.2222 0.2135
1262.000000 0.2080 0.2036 0.1991 0.1946 0.1891
1267.000000 0.1834 0.1778 0.1722 0.1665 0.1609
1272.000000 0.1552 0.1495 0.1400 0.1230 0.1117
1277.000000 0.1006 0.0901 0.0806 0.0776 0.0763
1282.000000 0.0764 0.0747 0.0755 0.0779 0.0899
1287.000000 0.1019 0.1140 0.1261 0.1382 0.1439
1292.000000 0.1456 0.1473 0.1486 0.1498 0.1510
1297.000000 0.1526 0.1554 0.1584 0.1622 0.1746
1302.000000 0.1895 0.2043 0.2192 0.2340 0.2389
1307.000000 0.2394 0.2396 0.2351 0.2276 0.2200
1312.000000 0.2125 0.2049 0.1974 0.1921 0.1886
1317.000000 0.1853 0.1822 0.1790 0.1767 0.1747
1322.000000 0.1732 0.1728 0.1724 0.1729 0.1735
1327.000000 0.1677 0.1774 0.1826 0.1879 0.1956
1332.000000 0.2068 0.2228 0.2497 0.2767 0.3036
1337.000000 0.3305 0.3574 0.3612 0.3633 0.3600
1342.000000 0.3593 0.3569 0.3447 0.3325 0.3203
1347.000000 0.3082 0.2960 0.2838 0.2716 0.2631
1352.000000 0.2622 0.2611 0.2590 0.2553 0.2497
1357.000000 0.2386 0.2252 0.2183 0.2115 0.2064
1362.000000 0.2014 0.1954 0.1869 0.1783 0.1698
1367.000000 0.1612 0.1603 0.1611 0.1645 0.1603
1372.000000 0.1908 0.2039 0.2171 0.2303 0.2434
1377.000000 0.2566 0.2627 0.2609 0.2503 0.2354
1382.000000 0.2205 0.2056 0.1907 0.1757 0.1608
1387.000000 0.1567 0.1557 0.1561 0.1563 0.1570
1392.000000 0.1579 0.1592 0.1714 0.1917 0.2120
1397.000000 0.2323 0.2526 0.2729 0.2932 0.3135
1402.000000 0.3337 0.3540 0.3743 0.3946 0.4147
1407.000000 0.4241 0.4262 0.4269 0.4272 0.4269
1412.000000 0.4250 0.4000 0.3651 0.3302 0.2953
1417.000000 0.2604 0.2255 0.1945 0.1836 0.1770
1422.000000 0.1705 0.1639 0.1576 0.1515 0.1453
1427.000000 0.1421 0.1397 0.1381 0.1385 0.1385
1432.000000 0.1419 0.1463 0.1518 0.1629 0.1713
1437.000000 0.1777 0.1842 0.1922 0.2034 0.2159
1442.000000 0.2331 0.2503 0.2675 0.2846 0.3018
1447.000000 0.3105 0.3112 0.3115 0.3113 0.3128
1452.000000 0.3093 0.2955 0.2781 0.2607 0.2433
1457.000000 0.2259 0.2085 0.1911 0.1737 0.1563
1462.000000 0.1389 0.1215 0.1041 0.0945 0.0936
1467.000000 0.0935 0.0908 0.0966 0.1073 0.1261
1472.000000 0.1449 0.1637 0.1825 0.2014 0.2202
1477.000000 0.2390 0.2578 0.2766 0.2894 0.3260
1482.000000 0.3564 0.3867 0.4171 0.4474 0.4778
1487.000000 0.5192 0.5243 0.5284 0.5324 0.5365
1492.000000 0.5405 0.5490 0.5575 0.5665 0.5763
1497.000000 0.5900 0.6130 0.6205 0.6279 0.6350
1502.000000 0.6406 0.6462 0.6517 0.6580 0.6652
1507.000000 0.7043 0.7088 0.7106 0.7117 0.7127
1512.000000 0.7138 0.7147 0.7156 0.7170 0.7192
1517.000000 0.7213 0.7512 0.7530 0.7549 0.7560
1522.000000 0.7558 0.7556 0.7549 0.7544 0.7537
1527.000000 0.7533 0.7530 0.7528 0.7526 0.7524
1532.000000 0.7523 0.7521 0.7519 0.7518 0.7515
1537.000000 0.7512 0.7509 0.7506 0.7503 0.7500
1542.000000 0.7488 0.7473 0.7458 0.7443 0.7423
1547.000000 0.7394 0.7364 0.7296 0.7223 0.7174
1552.000000 0.7126 0.7078 0.7057 0.7038 0.7019
1557.000000 0.7004 0.6997 0.6990 0.6983 0.6976
1562.000000 0.6969 0.6961 0.6952 0.6944 0.6935
1567.000000 0.6897 0.6853 0.6804 0.6734 0.6655
1572.000000 0.6560 0.6469 0.6354 0.6196 0.6037
1577.000000 0.5879 0.5721 0.5562 0.5404 0.5245
1582.000000 0.5087 0.4929 0.4770 0.4612 0.4453
1587.000000 0.4330 0.4192 0.3938 0.3846 0.3685
1592.000000 0.3368 0.3050 0.2733 0.2589 0.2567
1597.000000 0.2531 0.2565 0.2570 0.2878 0.3220
1602.000000 0.3561 0.3903 0.4245 0.4587 0.4928
1607.000000 0.5270 0.5612 0.5954 0.6295 0.6637
1612.000000 0.6917 0.6946 0.6975 0.7003 0.7023
1617.000000 0.7043 0.7054 0.7062 0.7071 0.7081
1622.000000 0.7097 0.7113 0.7128 0.7145 0.7168
1627.000000 0.7191 0.7214 0.7237 0.7260 0.7279
1632.000000 0.7295 0.7311 0.7326 0.7342 0.7353
1637.000000 0.7362 0.7371 0.7380 0.7389 0.7395
1642.000000 0.7399 0.7402 0.7406 0.7410 0.7414
1647.000000 0.7417 0.7419 0.7420 0.7421 0.7423
1652.000000 0.7424 0.7425 0.7427 0.7428 0.7430
1657.000000 0.7431 0.7459 0.7434 0.7436 0.7438
1662.000000 0.7439 0.7441 0.7443 0.7445 0.7445
1667.000000 0.7445 0.7445 0.7445 0.7445 0.7444
1672.000000 0.7444 0.7444 0.7444 0.7444 0.7443
1677.000000 0.7442 0.7441 0.7440 0.7439 0.7438
1682.000000 0.7438 0.7437 0.7436 0.7435 0.7432
1687.000000 0.7430 0.7427 0.7425 0.7422 0.7420
1692.000000 0.7417 0.7415 0.7412 0.7407 0.7403
1697.000000 0.7399 0.7395 0.7391 0.7387 0.7383
1702.000000 0.7378 0.7374 0.7370 0.7366 0.7362
1707.000000 0.7358 0.7354 0.7349 0.7345 0.7341
1712.000000 0.7337 0.7333 0.7329 0.7325 0.7322
1717.000000 0.7318 0.7314 0.7311 0.7307 0.7304
1722.000000 0.7300 0.7296 0.7293 0.7291 0.7289
1727.000000 0.7288 0.7286 0.7285 0.7284 0.7284
1732.000000 0.7283 0.7282 0.7281 0.7280 0.7280
1737.000000 0.7279 0.7278 0.7277 0.7276 0.7276
1742.000000 0.7275 0.7274 0.7272 0.7270 0.7268
1747.000000 0.7267 0.7265 0.7263 0.7261 0.7260
1752.000000 0.7258 0.7256 0.7254 0.7252 0.7249
1757.000000 0.7246 0.7243 0.7240 0.7237 0.7234
1762.000000 0.7231 0.7228 0.7225 0.7222 0.7218
1767.000000 0.7215 0.7212 0.7208 0.7205 0.7202
1772.000000 0.7198 0.7195 0.7192 0.7188 0.7185
1777.000000 0.7181 0.7178 0.7172 0.7167 0.7161
1782.000000 0.7155 0.7150 0.7144 0.7138 0.7132
1787.000000 0.7127 0.7121 0.7114 0.7108 0.7101
1792.000000 0.7095 0.7088 0.7082 0.7070 0.7059
1797.000000 0.7047 0.7036 0.7024 0.7013 0.7001
1802.000000 0.6990 0.6987 0.6983 0.6980 0.6977
1807.000000 0.6973 0.6973 0.6975 0.6976 0.6978
1812.000000 0.6980 0.6981 0.6983 0.6985 0.6986
1817.000000 0.6988 0.6989 0.6991 0.6992 0.6993
1822.000000 0.6994 0.6994 0.6987 0.6981 0.6974
1827.000000 0.6968 0.6961 0.6950 0.6939 0.6927
1832.000000 0.6916 0.6904 0.6889 0.6874 0.6859
1837.000000 0.6844 0.6830 0.6815 0.6800 0.6785
1842.000000 0.6770 0.6755 0.6738 0.6722 0.6705
1847.000000 0.6689 0.6673 0.6659 0.6657 0.6655
1852.000000 0.6653 0.6659 0.6667 0.6675 0.6682
1857.000000 0.6692 0.6708 0.6725 0.6741 0.6758
1862.000000 0.6776 0.6794 0.6812 0.6827 0.6836
1867.000000 0.6845 0.6854 0.6863 0.6868 0.6871
1872.000000 0.6873 0.6875 0.6877 0.6880 0.6877
1877.000000 0.6873 0.6869 0.6865 0.6861 0.6857
1882.000000 0.6850 0.6840 0.6831 0.6821 0.6811
1887.000000 0.6802 0.6792 0.6783 0.6774 0.6767
1892.000000 0.6759 0.6752 0.6744 0.6737 0.6729
1897.000000 0.6722 0.6714 0.6710 0.6707 0.6704
1902.000000 0.6701 0.6703 0.6706 0.6709 0.6713
1907.000000 0.6723 0.6734 0.6745 0.6757 0.6768
1912.000000 0.6779 0.6789 0.6800 0.6809 0.6813
1917.000000 0.6817 0.6820 0.6821 0.6821 0.6821
1922.000000 0.6820 0.6820 0.6820 0.6820 0.6820
1927.000000 0.6819 0.6817 0.6815 0.6814 0.6812
1932.000000 0.6810 0.6808 0.6807 0.6805 0.6803
1937.000000 0.6801 0.6798 0.6795 0.6793 0.6790
1942.000000 0.6787 0.6785 0.6782 0.6779 0.6777
1947.000000 0.6774 0.6771 0.6769 0.6766 0.6763
1952.000000 0.6761 0.6758 0.6755 0.6753 0.6750
1957.000000 0.6747 0.6744 0.6741 0.6738 0.6735
1962.000000 0.6732 0.6728 0.6725 0.6722 0.6719
1967.000000 0.6716 0.6715 0.6713 0.6711 0.6710
1972.000000 0.6708 0.6706 0.6705 0.6703 0.6701
1977.000000 0.6699 0.6698 0.6696 0.6694 0.6693
1982.000000 0.6691 0.6689 0.6686 0.6684 0.6681
1987.000000 0.6678 0.6676 0.6673 0.6671 0.6668
1992.000000 0.6665 0.6663 0.6660 0.6658 0.6655
1997.000000 0.6651 0.6645 0.6640 0.6634 0.6629
2002.000000 0.6624 0.6618 0.6613 0.6608 0.6602
2007.000000 0.6597 0.6591 0.6585 0.6578 0.6572
2012.000000 0.6565 0.6558 0.6552 0.6545 0.6538
2017.000000 0.6532 0.6525 0.6518 0.6512 0.6505
2022.000000 0.6502 0.6499 0.6497 0.6494 0.6491
2027.000000 0.6488 0.6486 0.6483 0.6480 0.6477
2032.000000 0.6474 0.6472 0.6469 0.6468 0.6466
2037.000000 0.6465 0.6464 0.6463 0.6461 0.6460
2042.000000 0.6459 0.6457 0.6456 0.6455 0.6453
2047.000000 0.6449 0.6444 0.6439 0.6434 0.6429
2052.000000 0.6424 0.6419 0.6413 0.6404 0.6395
2057.000000 0.6386 0.6377 0.6367 0.6358 0.6349
2062.000000 0.6341 0.6335 0.6328 0.6321 0.6315
2067.000000 0.6308 0.6301 0.6295 0.6291 0.6289
2072.000000 0.6288 0.6286 0.6285 0.6283 0.6282
2077.000000 0.6280 0.6278 0.6277 0.6275 0.6274
2082.000000 0.6272 0.6271 0.6269 0.6268 0.6266
2087.000000 0.6265 0.6264 0.6262 0.6261 0.6259
2092.000000 0.6258 0.6257 0.6255 0.6254 0.6253
2097.000000 0.6251 0.6250 0.6248 0.6247 0.6246
2102.000000 0.6243 0.6239 0.6235 0.6232 0.6228
2107.000000 0.6224 0.6221 0.6218 0.6216 0.6214
2112.000000 0.6211 0.6209 0.6207 0.6205 0.6202
2117.000000 0.6200 0.6198 0.6196 0.6193 0.6191
2122.000000 0.6189 0.6187 0.6184 0.6182 0.6180
2127.000000 0.6178 0.6175 0.6173 0.6171 0.6169
2132.000000 0.6166 0.6164 0.6162 0.6159 0.6157
2137.000000 0.6154 0.6151 0.6148 0.6145 0.6143
2142.000000 0.6140 0.6137 0.6134 0.6131 0.6129
2147.000000 0.6126 0.6123 0.6120 0.6117 0.6114
2152.000000 0.6112 0.6109 0.6106 0.6103 0.6100
2157.000000 0.6098 0.6095 0.6092 0.6089 0.6086
2162.000000 0.6083 0.6080 0.6077 0.6074 0.6071
2167.000000 0.6068 0.6065 0.6062 0.6059 0.6056
2172.000000 0.6053 0.6050 0.6047 0.6044 0.6041
2177.000000 0.6038 0.6035 0.6032 0.6029 0.6026
2182.000000 0.6024 0.6021 0.6018 0.6015 0.6012
2187.000000 0.6009 0.6006 0.6003 0.6000 0.5997
2192.000000 0.5994 0.5991 0.5988 0.5985 0.5982
2197.000000 0.5979 0.5977 0.5974 0.5971 0.5969
2202.000000 0.5966 0.5964 0.5961 0.5958 0.5956
2207.000000 0.5953 0.5951 0.5948 0.5945 0.5943
2212.000000 0.5940 0.5938 0.5935 0.5932 0.5930
2217.000000 0.5927 0.5925 0.5922 0.5919 0.5917
2222.000000 0.5915 0.5913 0.5911 0.5909 0.5908
2227.000000 0.5906 0.5904 0.5902 0.5900 0.5898
2232.000000 0.5896 0.5894 0.5892 0.5890 0.5888
2237.000000 0.5886 0.5884 0.5883 0.5881 0.5879
2242.000000 0.5877 0.5875 0.5873 0.5871 0.5869
2247.000000 0.5867 0.5865 0.5863 0.5862 0.5860
2252.000000 0.5858 0.5856 0.5854 0.5852 0.5851
2257.000000 0.5849 0.5847 0.5845 0.5843 0.5841
2262.000000 0.5839 0.5838 0.5836 0.5834 0.5832
2267.000000 0.5828 0.5824 0.5821 0.5817 0.5813
2272.000000 0.5809 0.5805 0.5802 0.5798 0.5794
2277.000000 0.5790 0.5786 0.5783 0.5781 0.5778
2282.000000 0.5776 0.5773 0.5770 0.5768 0.5765
2287.000000 0.5763 0.5760 0.5757 0.5755 0.5752
2292.000000 0.5750 0.5748 0.5746 0.5744 0.5742
2297.000000 0.5740 0.5739 0.5737 0.5735 0.5733
2302.000000 0.5731 0.5729 0.5728 0.5726 0.5724
2307.000000 0.5723 0.5721 0.5719 0.5717 0.5716
2312.000000 0.5714 0.5712 0.5711 0.5709 0.5707
2317.000000 0.5706 0.5704 0.5702 0.5700 0.5699
2322.000000 0.5693 0.5686 0.5680 0.5673 0.5667
2327.000000 0.5660 0.5654 0.5650 0.5649 0.5648
2332.000000 0.5648 0.5647 0.5647 0.5647 0.5647
2337.000000 0.5647 0.5647 0.5647 0.5647 0.5647
2342.000000 0.5647 0.5647 0.5647 0.5647 0.5647
2347.000000 0.5647 0.5647 0.5646 0.5646 0.5646
2352.000000 0.5645 0.5645 0.5644 0.5644 0.5643
2357.000000 0.5643 0.5642 0.5641 0.5639 0.5637
2362.000000 0.5635 0.5633 0.5630 0.5628 0.5626
2367.000000 0.5624 0.5622 0.5620 0.5617 0.5615
2372.000000 0.5613 0.5609 0.5606 0.5603 0.5600
2377.000000 0.5596 0.5593 0.5590 0.5586 0.5583
2382.000000 0.5579 0.5575 0.5572 0.5568 0.5564
2387.000000 0.5561 0.5557 0.5554 0.5551 0.5549
2392.000000 0.5546 0.5543 0.5541 0.5538 0.5536
2397.000000 0.5533 0.5530 0.5528 0.5525 0.5522
2402.000000 0.5520 0.5517 0.5514 0.5512 0.5509
2407.000000 0.5506 0.5504 0.5501 0.5498 0.5496
2412.000000 0.5493 0.5490 0.5488 0.5485 0.5482
2417.000000 0.5480 0.5477 0.5474 0.5471 0.5468
2422.000000 0.5465 0.5462 0.5460 0.5457 0.5454
2427.000000 0.5451 0.5448 0.5445 0.5443 0.5440
2432.000000 0.5437 0.5434 0.5431 0.5428 0.5426
2437.000000 0.5423 0.5420 0.5416 0.5413 0.5409
2442.000000 0.5406 0.5403 0.5399 0.5396 0.5392
2447.000000 0.5389 0.5385 0.5377 0.5368 0.5359
2452.000000 0.5350 0.5341 0.5332 0.5323 0.5317
2457.000000 0.5313 0.5309 0.5304 0.5300 0.5296
2462.000000 0.5291 0.5287 0.5283 0.5279 0.5276
2467.000000 0.5274 0.5271 0.5268 0.5266 0.5263
2472.000000 0.5260 0.5257 0.5255 0.5252 0.5249
2477.000000 0.5247 0.5244 0.5241 0.5239 0.5236
2482.000000 0.5233 0.5231 0.5229 0.5227 0.5224
2487.000000 0.5222 0.5220 0.5218 0.5216 0.5213
2492.000000 0.5211 0.5209 0.5207 0.5205 0.5202
2497.000000 0.5200 0.5198 0.5196 0.5194 0.5191
2502.000000 0.5189 0.5187 0.5185 0.5182 0.5179
2507.000000 0.5176 0.5174 0.5171 0.5168 0.5165
2512.000000 0.5162 0.5160 0.5157 0.5154 0.5151
2517.000000 0.5148 0.5145 0.5143 0.5140 0.5137
2522.000000 0.5134 0.5131 0.5129 0.5126 0.5123
2527.000000 0.5120 0.5117 0.5115 0.5112 0.5109
2532.000000 0.5106 0.5104 0.5101 0.5099 0.5097
2537.000000 0.5094 0.5092 0.5090 0.5087 0.5085
2542.000000 0.5082 0.5080 0.5078 0.5075 0.5073
2547.000000 0.5070 0.5068 0.5066 0.5063 0.5061
2552.000000 0.5058 0.5055 0.5050 0.5046 0.5041
2557.000000 0.5037 0.5032 0.5028 0.5023 0.5018
2562.000000 0.5014 0.5009 0.5005 0.5000 0.4995
2567.000000 0.4990 0.4985 0.4979 0.4974 0.4969
2572.000000 0.4963 0.4958 0.4952 0.4947 0.4942
2577.000000 0.4936 0.4931 0.4926 0.4920 0.4914
2582.000000 0.4907 0.4900 0.4894 0.4887 0.4880
2587.000000 0.4873 0.4866 0.4859 0.4852 0.4845
2592.000000 0.4838 0.4832 0.4825 0.4818 0.4811
2597.000000 0.4804 0.4797 0.4790 0.4783 0.4777
2602.000000 0.4770 0.4763 0.4756 0.4748 0.4739
2607.000000 0.4730 0.4721 0.4712 0.4703 0.4694
2612.000000 0.4685 0.4676 0.4667 0.4658 0.4649
2617.000000 0.4639 0.4630 0.4621 0.4612 0.4603
2622.000000 0.4593 0.4584 0.4574 0.4565 0.4556
2627.000000 0.4546 0.4537 0.4527 0.4518 0.4508
2632.000000 0.4499 0.4490 0.4480 0.4471 0.4461
2637.000000 0.4452 0.4442 0.4433 0.4424 0.4414
2642.000000 0.4405 0.4395 0.4386 0.4376 0.4365
2647.000000 0.4355 0.4344 0.4333 0.4323 0.4312
2652.000000 0.4301 0.4291 0.4280 0.4270 0.4259
2657.000000 0.4248 0.4238 0.4227 0.4216 0.4206
2662.000000 0.4195 0.4186 0.4177 0.4169 0.4160
2667.000000 0.4152 0.4143 0.4135 0.4126 0.4118
2672.000000 0.4110 0.4101 0.4093 0.4084 0.4076
2677.000000 0.4067 0.4059 0.4050 0.4042 0.4033
2682.000000 0.4025 0.4016 0.4008 0.4000 0.3991
2687.000000 0.3983 0.3976 0.3969 0.3961 0.3954
2692.000000 0.3947 0.3940 0.3932 0.3925 0.3918
2697.000000 0.3911 0.3903 0.3896 0.3889 0.3882
2702.000000 0.3874 0.3867 0.3860 0.3852 0.3845
2707.000000 0.3838 0.3830 0.3822 0.3813 0.3804
2712.000000 0.3796 0.3787 0.3778 0.3770 0.3761
2717.000000 0.3753 0.3744 0.3735 0.3727 0.3719
2722.000000 0.3711 0.3704 0.3696 0.3689 0.3681
2727.000000 0.3673 0.3666 0.3658 0.3651 0.3643
2732.000000 0.3636 0.3628 0.3620 0.3613 0.3605
2737.000000 0.3598 0.3589 0.3581 0.3572 0.3564
2742.000000 0.3555 0.3547 0.3538 0.3530 0.3521
2747.000000 0.3513 0.3504 0.3495 0.3485 0.3475
2752.000000 0.3466 0.3456 0.3445 0.3424 0.3402
2757.000000 0.3380 0.3358 0.3336 0.3314 0.3282
2762.000000 0.3249 0.3216 0.3184 0.3151 0.3111
2767.000000 0.3065 0.3019 0.2973 0.2944 0.2915
2772.000000 0.2886 0.2861 0.2847 0.2833 0.2818
2777.000000 0.2804 0.2796 0.2794 0.2792 0.2790
2782.000000 0.2789 0.2787 0.2787 0.2789 0.2790
2787.000000 0.2792 0.2793 0.2795 0.2796 0.2798
2792.000000 0.2800 0.2801 0.2803 0.2805 0.2797
2797.000000 0.2801 0.2799 0.2798 0.2796 0.2794
2802.000000 0.2792 0.2788 0.2783 0.2779 0.2774
2807.000000 0.2770 0.2766 0.2761 0.2759 0.2756
2812.000000 0.2753 0.2750 0.2747 0.2745 0.2742
2817.000000 0.2739 0.2737 0.2737 0.2737 0.2738
2822.000000 0.2738 0.2738 0.2738 0.2742 0.2749
2827.000000 0.2756 0.2763 0.2773 0.2787 0.2801
2832.000000 0.2816 0.2851 0.2886 0.2920 0.2953
2837.000000 0.2986 0.3019 0.3062 0.3106 0.3150
2842.000000 0.3195 0.3241 0.3288 0.3323 0.3351
2847.000000 0.3358 0.3357 0.3356 0.3351 0.3341
2852.000000 0.3332 0.3319 0.3302 0.3284 0.3258
2857.000000 0.3223 0.3188 0.3152 0.3106 0.3059
2862.000000 0.3013 0.2966 0.2919 0.2873 0.2833
2867.000000 0.2797 0.2762 0.2726 0.2691 0.2631
2872.000000 0.2545 0.2479 0.2429 0.2379 0.2326
2877.000000 0.2266 0.2207 0.2148 0.2097 0.2049
2882.000000 0.2000 0.1951 0.1902 0.1848 0.1794
2887.000000 0.1748 0.1721 0.1695 0.1683 0.1674
2892.000000 0.1666 0.1658 0.1650 0.1643 0.1639
2897.000000 0.1635 0.1631 0.1627 0.1625 0.1611
2902.000000 0.1624 0.1623 0.1626 0.1629 0.1656
2907.000000 0.1715 0.1773 0.1831 0.1890 0.1928
2912.000000 0.1965 0.2001 0.2058 0.2132 0.2203
2917.000000 0.2274 0.2342 0.2398 0.2454 0.2510
2922.000000 0.2566 0.2627 0.2709 0.2791 0.3118
2927.000000 0.3273 0.3384 0.3451 0.3517 0.3584
2932.000000 0.3639 0.3692 0.3745 0.3799 0.3852
2937.000000 0.3907 0.3961 0.4015 0.4070 0.4127
2942.000000 0.4191 0.4255 0.4319 0.4383 0.4447
2947.000000 0.4526 0.4606 0.4685 0.4756 0.4814
2952.000000 0.4872 0.4931 0.4989 0.5030 0.5066
2957.000000 0.5101 0.5124 0.5137 0.5150 0.5162
2962.000000 0.5167 0.5171 0.5174 0.5228 0.5180
2967.000000 0.5181 0.5177 0.5174 0.5171 0.5161
2972.000000 0.5150 0.5139 0.5128 0.5117 0.5104
2977.000000 0.5089 0.5073 0.5058 0.5042 0.5027
2982.000000 0.5012 0.4998 0.4985 0.4971 0.4958
2987.000000 0.4945 0.4931 0.4918 0.4905 0.4891
2992.000000 0.4878 0.4865 0.4851 0.4838 0.4825
2997.000000 0.4811 0.4800 0.4789 0.4778 0.4767
3002.000000 0.4757 0.4746 0.4744 0.4743 0.4743
3007.000000 0.4742 0.4742 0.4757 0.4747 0.4752
3012.000000 0.4756 0.4760 0.4764 0.4769 0.4773
3017.000000 0.4777 0.4782 0.4786 0.4790 0.4794
3022.000000 0.4800 0.4805 0.4810 0.4816 0.4821
3027.000000 0.4826 0.4832 0.4837 0.4842 0.4848
3032.000000 0.4855 0.4863 0.4870 0.4878 0.4886
3037.000000 0.4893 0.4901 0.4909 0.4916 0.4924
3042.000000 0.4932 0.4939 0.4947 0.4954 0.4962
3047.000000 0.4970 0.4977 0.4985 0.4993 0.5001
3052.000000 0.5009 0.5017 0.5026 0.5034 0.5042
3057.000000 0.5050 0.5059 0.5067 0.5075 0.5081
3062.000000 0.5087 0.5092 0.5097 0.5103 0.5108
3067.000000 0.5113 0.5118 0.5122 0.5126 0.5130
3072.000000 0.5134 0.5138 0.5138 0.5137 0.5136
3077.000000 0.5136 0.5135 0.5134 0.5132 0.5130
3082.000000 0.5128 0.5125 0.5123 0.5120 0.5118
3087.000000 0.5115 0.5113 0.5111 0.5109 0.5107
3092.000000 0.5105 0.5103 0.5101 0.5099 0.5097
3097.000000 0.5093 0.5090 0.5086 0.5082 0.5078
3102.000000 0.5075 0.5071 0.5067 0.5063 0.5060
3107.000000 0.5056 0.5052 0.5048 0.5045 0.5041
3112.000000 0.5037 0.5033 0.5030 0.5026 0.5023
3117.000000 0.5019 0.5016 0.5012 0.5008 0.5005
3122.000000 0.5001 0.4998 0.4994 0.4990 0.4987
3127.000000 0.4983 0.4979 0.4976 0.4972 0.4968
3132.000000 0.4965 0.4961 0.4957 0.4954 0.4950
3137.000000 0.4946 0.4943 0.4939 0.4935 0.4932
3142.000000 0.4928 0.4925 0.4922 0.4919 0.4917
3147.000000 0.4914 0.4912 0.4910 0.4907 0.4905
3152.000000 0.4902 0.4900 0.4898 0.4895 0.4893
3157.000000 0.4890 0.4888 0.4886 0.4883 0.4881
3162.000000 0.4878 0.4876 0.4874 0.4871 0.4869
3167.000000 0.4866 0.4864 0.4862 0.4859 0.4857
3172.000000 0.4854 0.4852 0.4850 0.4847 0.4844
3177.000000 0.4841 0.4838 0.4835 0.4832 0.4829
3182.000000 0.4826 0.4823 0.4820 0.4817 0.4814
3187.000000 0.4811 0.4808 0.4805 0.4802 0.4799
3192.000000 0.4796 0.4793 0.4790 0.4787 0.4784
3197.000000 0.4781 0.4778 0.4775 0.4773 0.4770
3202.000000 0.4767 0.4764 0.4761 0.4758 0.4755
3207.000000 0.4752 0.4749 0.4745 0.4742 0.4739
3212.000000 0.4736 0.4733 0.4729 0.4726 0.4723
3217.000000 0.4720 0.4717 0.4714 0.4710 0.4707
3222.000000 0.4704 0.4701 0.4698 0.4694 0.4691
3227.000000 0.4688 0.4685 0.4682 0.4679 0.4675
3232.000000 0.4672 0.4669 0.4666 0.4663 0.4660
3237.000000 0.4656 0.4653 0.4650 0.4647 0.4644
3242.000000 0.4640 0.4637 0.4634 0.4630 0.4627
3247.000000 0.4623 0.4619 0.4615 0.4612 0.4608
3252.000000 0.4604 0.4601 0.4597 0.4593 0.4589
3257.000000 0.4586 0.4582 0.4578 0.4574 0.4571
3262.000000 0.4567 0.4563 0.4559 0.4556 0.4552
3267.000000 0.4548 0.4544 0.4541 0.4537 0.4533
3272.000000 0.4530 0.4526 0.4522 0.4518 0.4514
3277.000000 0.4511 0.4507 0.4503 0.4499 0.4495
3282.000000 0.4491 0.4487 0.4483 0.4479 0.4475
3287.000000 0.4472 0.4468 0.4464 0.4460 0.4456
3292.000000 0.4452 0.4448 0.4444 0.4439 0.4434
3297.000000 0.4429 0.4424 0.4419 0.4414 0.4409
3302.000000 0.4404 0.4399 0.4394 0.4389 0.4384
3307.000000 0.4379 0.4374 0.4369 0.4364 0.4359
3312.000000 0.4354 0.4349 0.4344 0.4339 0.4334
3317.000000 0.4328 0.4323 0.4317 0.4311 0.4306
3322.000000 0.4300 0.4294 0.4289 0.4283 0.4277
3327.000000 0.4272 0.4266 0.4260 0.4255 0.4249
3332.000000 0.4243 0.4238 0.4232 0.4227 0.4223
3337.000000 0.4218 0.4213 0.4208 0.4203 0.4198
3342.000000 0.4193 0.4189 0.4184 0.4179 0.4174
3347.000000 0.4169 0.4164 0.4159 0.4155 0.4150
3352.000000 0.4145 0.4141 0.4136 0.4131 0.4126
3357.000000 0.4122 0.4117 0.4112 0.4108 0.4103
3362.000000 0.4099 0.4097 0.4094 0.4092 0.4090
3367.000000 0.4087 0.4085 0.4083 0.4080 0.4078
3372.000000 0.4076 0.4073 0.4071 0.4069 0.4068
3377.000000 0.4066 0.4064 0.4062 0.4060 0.4058
3382.000000 0.4053 0.4047 0.4041 0.4035 0.4029
3387.000000 0.4024 0.4018 0.4012 0.4006 0.4003
3392.000000 0.4000 0.3998 0.3995 0.3992 0.3989
3397.000000 0.3986 0.3983 0.3981 0.3978 0.3975
3402.000000 0.3974 0.3974 0.3973 0.3973 0.3973
3407.000000 0.3973 0.3973 0.3972 0.3972 0.3972
3412.000000 0.3972 0.3972 0.3971 0.3971 0.3971
3417.000000 0.3971 0.3971 0.3971 0.3972 0.3973
3422.000000 0.3974 0.3975 0.3976 0.3977 0.3978
3427.000000 0.3978 0.3979 0.3980 0.3981 0.3982
3432.000000 0.3983 0.3984 0.3985 0.3986 0.3987
3437.000000 0.3988 0.3989 0.3990 0.3991 0.3992
3442.000000 0.3993 0.3994 0.3995 0.3997 0.3998
3447.000000 0.3999 0.4000 0.4002 0.4003 0.4004
3452.000000 0.4005 0.4007 0.4008 0.4009 0.4010
3457.000000 0.4012 0.4013 0.4014 0.4015 0.4017
3462.000000 0.4018 0.4020 0.4022 0.4023 0.4025
3467.000000 0.4026 0.4028 0.4029 0.4031 0.4033
3472.000000 0.4034 0.4036 0.4037 0.4039 0.4040
3477.000000 0.4042 0.4044 0.4045 0.4047 0.4048
3482.000000 0.4050 0.4052 0.4053 0.4055 0.4057
3487.000000 0.4059 0.4061 0.4064 0.4066 0.4068
3492.000000 0.4070 0.4072 0.4074 0.4076 0.4078
3497.000000 0.4080 0.4083 0.4085 0.4087 0.4089
3502.000000 0.4091 0.4093 0.4095 0.4097 0.4099
3507.000000 0.4102 0.4104 0.4106 0.4108 0.4110
3512.000000 0.4112 0.4115 0.4118 0.4121 0.4123
3517.000000 0.4126 0.4129 0.4132 0.4134 0.4137
3522.000000 0.4140 0.4143 0.4145 0.4148 0.4151
3527.000000 0.4154 0.4156 0.4159 0.4162 0.4165
3532.000000 0.4167 0.4170 0.4173 0.4175 0.4178
3537.000000 0.4180 0.4183 0.4185 0.4188 0.4190
3542.000000 0.4193 0.4195 0.4198 0.4200 0.4203
3547.000000 0.4205 0.4208 0.4211 0.4213 0.4216
3552.000000 0.4218 0.4221 0.4223 0.4226 0.4228
3557.000000 0.4231 0.4233 0.4236 0.4238 0.4240
3562.000000 0.4242 0.4244 0.4245 0.4247 0.4249
3567.000000 0.4251 0.4253 0.4255 0.4257 0.4259
3572.000000 0.4261 0.4263 0.4265 0.4267 0.4269
3577.000000 0.4271 0.4273 0.4275 0.4277 0.4280
3582.000000 0.4282 0.4284 0.4286 0.4288 0.4291
3587.000000 0.4293 0.4295 0.4297 0.4300 0.4302
3592.000000 0.4304 0.4306 0.4309 0.4311 0.4313
3597.000000 0.4315 0.4318 0.4320 0.4322 0.4324
3602.000000 0.4325 0.4327 0.4329 0.4331 0.4333
3607.000000 0.4334 0.4336 0.4338 0.4339 0.4340
3612.000000 0.4342 0.4343 0.4344 0.4345 0.4347
3617.000000 0.4348 0.4349 0.4350 0.4351 0.4353
3622.000000 0.4354 0.4355 0.4356 0.4358 0.4359
3627.000000 0.4360 0.4361 0.4362 0.4362 0.4361
3632.000000 0.4361 0.4360 0.4360 0.4359 0.4359
3637.000000 0.4358 0.4357 0.4357 0.4356 0.4356
3642.000000 0.4355 0.4355 0.4354 0.4353 0.4353
3647.000000 0.4352 0.4351 0.4350 0.4349 0.4349
3652.000000 0.4348 0.4347 0.4346 0.4346 0.4345
3657.000000 0.4344 0.4343 0.4342 0.4342 0.4341
3662.000000 0.4340 0.4339 0.4338 0.4338 0.4337
3667.000000 0.4337 0.4337 0.4337 0.4337 0.4336
3672.000000 0.4336 0.4336 0.4336 0.4336 0.4336
3677.000000 0.4336 0.4336 0.4337 0.4340 0.4343
3682.000000 0.4345 0.4348 0.4351 0.4354 0.4358
3687.000000 0.4361 0.4364 0.4366 0.4366 0.4366
3692.000000 0.4367 0.4367 0.4367 0.4363 0.4357
3697.000000 0.4352 0.4347 0.4341 0.4336 0.4331
3702.000000 0.4327 0.4322 0.4317 0.4312 0.4308
3707.000000 0.4304 0.4301 0.4298 0.4296 0.4293
3712.000000 0.4291 0.4290 0.4291 0.4291 0.4291
3717.000000 0.4291 0.4292 0.4292 0.4292 0.4292
3722.000000 0.4292 0.4292 0.4292 0.4292 0.4292
3727.000000 0.4292 0.4292 0.4292 0.4292 0.4292
3732.000000 0.4292 0.4292 0.4292 0.4291 0.4291
3737.000000 0.4290 0.4290 0.4289 0.4289 0.4288
3742.000000 0.4288 0.4288 0.4287 0.4287 0.4286
3747.000000 0.4286 0.4285 0.4285 0.4284 0.4284
3752.000000 0.4284 0.4283 0.4283 0.4282 0.4282
3757.000000 0.4282 0.4281 0.4281 0.4281 0.4281
3762.000000 0.4281 0.4280 0.4280 0.4280 0.4280
3767.000000 0.4280 0.4279 0.4279 0.4279 0.4279
3772.000000 0.4279 0.4278 0.4276 0.4273 0.4270
3777.000000 0.4267 0.4264 0.4261 0.4258 0.4255
3782.000000 0.4253 0.4250 0.4248 0.4246 0.4244
3787.000000 0.4243 0.4244 0.4245 0.4246 0.4247
3792.000000 0.4247 0.4248 0.4248 0.4248 0.4248
3797.000000 0.4248 0.4248 0.4248 0.4247 0.4247
3802.000000 0.4247 0.4247 0.4246 0.4246 0.4245
3807.000000 0.4245 0.4244 0.4244 0.4243 0.4242
3812.000000 0.4242 0.4241 0.4240 0.4238 0.4237
3817.000000 0.4236 0.4234 0.4233 0.4232 0.4230
3822.000000 0.4229 0.4228 0.4227 0.4225 0.4224
3827.000000 0.4223 0.4222 0.4222 0.4222 0.4222
3832.000000 0.4222 0.4222 0.4222 0.4222 0.4222
3837.000000 0.4222 0.4222 0.4222 0.4221 0.4219
3842.000000 0.4218 0.4216 0.4214 0.4212 0.4211
3847.000000 0.4209 0.4207 0.4206 0.4204 0.4202
3852.000000 0.4200 0.4199 0.4197 0.4195 0.4194
3857.000000 0.4192 0.4190 0.4188 0.4187 0.4185
3862.000000 0.4183 0.4181 0.4179 0.4177 0.4175
3867.000000 0.4173 0.4171 0.4169 0.4167 0.4165
3872.000000 0.4163 0.4161 0.4160 0.4158 0.4156
3877.000000 0.4154 0.4152 0.4150 0.4148 0.4146
3882.000000 0.4144 0.4142 0.4140 0.4138 0.4137
3887.000000 0.4135 0.4133 0.4132 0.4130 0.4128
3892.000000 0.4127 0.4125 0.4123 0.4121 0.4120
3897.000000 0.4118 0.4116 0.4115 0.4113 0.4111
3902.000000 0.4082 0.4108 0.4106 0.4105 0.4103
3907.000000 0.4102 0.4100 0.4098 0.4097 0.4095
3912.000000 0.4093 0.4092 0.4090 0.4089 0.4087
3917.000000 0.4085 0.4084 0.4082 0.4081 0.4079
3922.000000 0.4077 0.4076 0.4074 0.4073 0.4071
3927.000000 0.4069 0.4068 0.4066 0.4065 0.4063
3932.000000 0.4062 0.4060 0.4058 0.4057 0.4055
3937.000000 0.4054 0.4052 0.4051 0.4049 0.4047
3942.000000 0.4046 0.4044 0.4043 0.4041 0.4039
3947.000000 0.4037 0.4036 0.4034 0.4032 0.4030
3952.000000 0.4028 0.4027 0.4025 0.4023 0.4021
3957.000000 0.4019 0.4018 0.4017 0.4017 0.4016
3962.000000 0.4016 0.4016 0.4015 0.4015 0.4014
3967.000000 0.4014 0.4013 0.4013 0.4012 0.4012
3972.000000 0.4011 0.4011 0.4010 0.4010 0.4009
3977.000000 0.4009 0.4008 0.4008 0.4007 0.4007
3982.000000 0.4006 0.4006 0.4005 0.4005 0.4004
3987.000000 0.4004 0.4003 0.4003 0.4002 0.4002
3992.000000 0.4001 0.4001 0.4001 0.4000 0.4000
3997.000000 0.3999 0.3999 0.3998 0.3998
##END=
