##TITLE=2-(O-CHLOROPHENYL)BENZOXAZONE-4
##JCAMP-DX=4.24
##DATA TYPE=INFRARED SPECTRUM
##CLASS=COBLENTZ
##OWNER=COBLENTZ SOCIETY
Collection (C) 2018 copyright by the U.S. Secretary of Commerce
on behalf of the United States of America. All rights reserved.
##DATE=Not specified, most likely prior to 1970
##NAMES=2-(2-chlorophenyl)-2,3-dihydro-4H-1,3-benzoxazin-4-one
##MOLFORM=C14 H10 N O2 Cl
##SOURCE REFERENCE=COBLENTZ NO. 34
##$NIST ID=B6000034
##$NIST SOURCE=COBLENTZ
##$NIST IMAGE=cob34
##SPECTROMETER/DATA SYSTEM=Not specified, most likely a prism, grating, or hybrid spectrometer.
##STATE=SOLUTION (7% CHCl3)
##PATH LENGTH=0.009 CM
##SAMPLING PROCEDURE=TRANSMISSION
##RESOLUTION=4
##DATA PROCESSING=DIGITIZED BY NIST FROM HARD COPY
##XUNITS=MICROMETERS
##YUNITS=TRANSMITTANCE
##XFACTOR=1.000000
##YFACTOR=1
##DELTAX=000.007177
##FIRSTX=2.031
##LASTX=15.4446
##FIRSTY=0.982
##MAXX=15.4446
##MINX=2.031
##MAXY=0.982
##MINY=0.017
##NPOINTS=1870
##XYDATA=(X++(Y..Y))
2.031000 0.9820 0.9820 0.9820 0.9820 0.9820
2.066904 0.9820 0.9820 0.9800 0.9800 0.9780
2.103000 0.9750 0.9730 0.9730 0.9730 0.9710
2.138904 0.9710 0.9710 0.9730 0.9730 0.9730
2.175000 0.9710 0.9710 0.9710 0.9710 0.9690
2.210904 0.9730 0.9710 0.9710 0.9690 0.9710
2.246000 0.9710 0.9710 0.9710 0.9710 0.9710
2.281904 0.9710 0.9710 0.9690 0.9660 0.9660
2.318000 0.9640 0.9660 0.9660 0.9680 0.9680
2.353904 0.9660 0.9620 0.9590 0.9590 0.9570
2.390000 0.9570 0.9550 0.9550 0.9540 0.9540
2.425904 0.9540 0.9550 0.9550 0.9550 0.9550
2.462000 0.9550 0.9550 0.9550 0.9550 0.9550
2.497904 0.9550 0.9550 0.9550 0.9550 0.9550
2.533000 0.9550 0.9550 0.9550 0.9540 0.9550
2.568904 0.9550 0.9570 0.9570 0.9570 0.9570
2.605000 0.9550 0.9550 0.9550 0.9540 0.9540
2.640904 0.9540 0.9540 0.9520 0.9520 0.9520
2.677000 0.9570 0.9570 0.9540 0.9540 0.9520
2.712904 0.9500 0.9500 0.9500 0.9500 0.9540
2.749000 0.9540 0.9570 0.9570 0.9570 0.9550
2.784904 0.9550 0.9520 0.9480 0.9480 0.9390
2.821000 0.9380 0.9320 0.9290 0.9240 0.9200
2.856904 0.9180 0.9090 0.9040 0.9020 0.8970
2.892000 0.8950 0.8190 0.7420 0.6960 0.6480
2.927904 0.6460 0.6480 0.6500 0.7840 0.8120
2.964000 0.8260 0.8460 0.8480 0.8510 0.8580
2.999904 0.8600 0.8600 0.8580 0.8580 0.8550
3.036000 0.8490 0.8420 0.8350 0.8320 0.8280
3.071904 0.8250 0.8230 0.8190 0.8090 0.8000
3.108000 0.8000 0.7980 0.7950 0.7930 0.7930
3.143904 0.7930 0.7930 0.7980 0.8030 0.8090
3.179000 0.8180 0.8190 0.8250 0.8260 0.8300
3.214904 0.8300 0.8190 0.8050 0.7980 0.7870
3.251000 0.7870 0.7870 0.7870 0.7870 0.7860
3.286904 0.7820 0.7750 0.7700 0.7490 0.6920
3.323000 0.6920 0.7010 0.7240 0.7500 0.7750
3.358904 0.7950 0.8100 0.8320 0.8560 0.8580
3.395000 0.8580 0.8580 0.8580 0.8560 0.8550
3.430904 0.8550 0.8550 0.8550 0.8510 0.8510
3.467000 0.8510 0.8510 0.8560 0.8650 0.8670
3.502904 0.8710 0.8720 0.8790 0.8810 0.8860
3.538000 0.8920 0.8930 0.8950 0.8970 0.8990
3.573904 0.9010 0.9010 0.9020 0.9040 0.9060
3.610000 0.9080 0.9080 0.9090 0.9110 0.9130
3.645904 0.9150 0.9150 0.9160 0.9180 0.9180
3.682000 0.9200 0.9200 0.9220 0.9220 0.9250
3.717904 0.9250 0.9250 0.9250 0.9250 0.9250
3.754000 0.9270 0.9270 0.9270 0.9270 0.9270
3.789904 0.9270 0.9270 0.9250 0.9250 0.9250
3.825000 0.9250 0.9250 0.9240 0.9240 0.9240
3.860904 0.9240 0.9240 0.9250 0.9240 0.9240
3.897000 0.9240 0.9240 0.9240 0.9250 0.9240
3.932904 0.9240 0.9240 0.9220 0.9220 0.9200
3.969000 0.9200 0.9200 0.9200 0.9180 0.9200
4.004904 0.9200 0.9200 0.9180 0.9180 0.9180
4.041000 0.9180 0.9160 0.9160 0.9150 0.9150
4.076904 0.9150 0.9150 0.9130 0.9130 0.9130
4.112000 0.9130 0.9110 0.9110 0.9110 0.9110
4.147904 0.9110 0.9110 0.9130 0.9130 0.9130
4.184000 0.9130 0.9160 0.9160 0.9180 0.9200
4.219904 0.9220 0.9240 0.9250 0.9250 0.9270
4.256000 0.9270 0.9270 0.9290 0.9270 0.9270
4.291904 0.9270 0.9250 0.9250 0.9250 0.9240
4.328000 0.9240 0.9240 0.9220 0.9200 0.9200
4.363904 0.9200 0.9220 0.9220 0.9240 0.9240
4.400000 0.9250 0.9250 0.9250 0.9250 0.9250
4.435904 0.9250 0.9250 0.9270 0.9250 0.9270
4.471000 0.9270 0.9270 0.9270 0.9270 0.9290
4.506904 0.9290 0.9290 0.9290 0.9290 0.9290
4.543000 0.9290 0.9290 0.9290 0.9290 0.9290
4.578904 0.9290 0.9290 0.9290 0.9270 0.9270
4.615000 0.9270 0.9270 0.9270 0.9270 0.9270
4.650904 0.9270 0.9270 0.9270 0.9270 0.9270
4.687000 0.9290 0.9290 0.9290 0.9290 0.9270
4.722904 0.9270 0.9240 0.9240 0.9220 0.9220
4.758000 0.9220 0.9220 0.9220 0.9220 0.9220
4.793904 0.9220 0.9220 0.9220 0.9220 0.9220
4.830000 0.9220 0.9220 0.9220 0.9240 0.9240
4.865904 0.9240 0.9240 0.9220 0.9220 0.9220
4.902000 0.9220 0.9220 0.9240 0.9240 0.9240
4.937904 0.9240 0.9240 0.9240 0.9240 0.9250
4.974000 0.9250 0.9240 0.9240 0.9240 0.9220
5.009904 0.9240 0.9220 0.9220 0.9200 0.9200
5.045000 0.9200 0.9200 0.9180 0.9180 0.9160
5.080904 0.9130 0.9110 0.9060 0.9040 0.9040
5.117000 0.9010 0.8990 0.8990 0.9060 0.9060
5.152904 0.9040 0.9020 0.8970 0.8930 0.8920
5.189000 0.8930 0.8950 0.8970 0.9010 0.9040
5.224904 0.9080 0.9090 0.9090 0.9110 0.9110
5.261000 0.9110 0.9090 0.9090 0.9090 0.9090
5.296904 0.9110 0.9110 0.9110 0.9110 0.9130
5.333000 0.9150 0.9150 0.9150 0.9150 0.9150
5.368904 0.9150 0.9150 0.9130 0.9110 0.9090
5.404000 0.9080 0.9060 0.9060 0.9040 0.9040
5.439904 0.9020 0.9020 0.9020 0.9020 0.9010
5.476000 0.9010 0.9010 0.8990 0.8990 0.8950
5.511904 0.8930 0.8880 0.8850 0.8880 0.8930
5.548000 0.8990 0.9010 0.9020 0.9040 0.9060
5.583904 0.9080 0.9060 0.9060 0.9040 0.9020
5.620000 0.9010 0.9010 0.9010 0.9040 0.9060
5.655904 0.9040 0.9040 0.9020 0.9020 0.9020
5.691000 0.9010 0.8990 0.8950 0.8950 0.8950
5.726904 0.8950 0.8920 0.8860 0.8790 0.8740
5.763000 0.8690 0.8630 0.8550 0.8370 0.8250
5.798904 0.8120 0.7860 0.7840 0.7840 0.7770
5.835000 0.7080 0.6570 0.6060 0.5170 0.4590
5.870904 0.4010 0.3600 0.3190 0.2190 0.1160
5.907000 0.0790 0.0610 0.0470 0.0220 0.0210
5.942904 0.0170 0.0170 0.0220 0.0300 0.0400
5.978000 0.0720 0.1200 0.2220 0.2560 0.2890
6.013904 0.3810 0.3950 0.4430 0.5000 0.5830
6.050000 0.6090 0.6250 0.6500 0.6900 0.7010
6.085904 0.7150 0.7270 0.7330 0.7400 0.7400
6.122000 0.7340 0.7120 0.6920 0.6760 0.6340
6.157904 0.5900 0.5030 0.4610 0.4160 0.3710
6.194000 0.3230 0.2840 0.2820 0.2860 0.4980
6.229904 0.5420 0.5880 0.6090 0.6180 0.6200
6.266000 0.6440 0.7240 0.7330 0.7330 0.7030
6.301904 0.6730 0.6670 0.6600 0.6480 0.6390
6.337000 0.6430 0.6440 0.7270 0.7610 0.7930
6.372904 0.8050 0.8140 0.8320 0.8530 0.8560
6.409000 0.8600 0.8620 0.8670 0.8690 0.8690
6.444904 0.8710 0.8720 0.8740 0.8740 0.8740
6.481000 0.8760 0.8760 0.8780 0.8780 0.8780
6.516904 0.8780 0.8780 0.8760 0.8710 0.8670
6.553000 0.8670 0.8650 0.8630 0.8620 0.8580
6.588904 0.8530 0.8480 0.8420 0.8390 0.8370
6.624000 0.8370 0.8350 0.8330 0.8320 0.8280
6.659904 0.8250 0.8180 0.8050 0.8020 0.7910
6.696000 0.7560 0.7290 0.7100 0.7030 0.6690
6.731904 0.6360 0.5810 0.5330 0.5030 0.4730
6.768000 0.3880 0.3400 0.2910 0.2120 0.1730
6.803904 0.1340 0.0930 0.0910 0.0950 0.1250
6.840000 0.1510 0.2960 0.4220 0.4730 0.4960
6.875904 0.5030 0.5010 0.5000 0.4730 0.4160
6.911000 0.3830 0.3480 0.3480 0.3860 0.3900
6.946904 0.4160 0.4240 0.4240 0.4160 0.3510
6.983000 0.2840 0.2120 0.2060 0.2060 0.2080
7.018904 0.2260 0.2590 0.2950 0.3920 0.4250
7.055000 0.4610 0.5000 0.5580 0.5950 0.6280
7.090904 0.6480 0.6810 0.6890 0.6960 0.7010
7.127000 0.7100 0.7150 0.7170 0.7170 0.7190
7.162904 0.7170 0.7120 0.6970 0.6960 0.6740
7.199000 0.6710 0.6660 0.6530 0.6410 0.6280
7.234904 0.6160 0.6140 0.5770 0.5750 0.5700
7.270000 0.5630 0.5540 0.5190 0.5010 0.4890
7.305904 0.4750 0.4660 0.4660 0.4770 0.5450
7.342000 0.5700 0.6040 0.6270 0.6500 0.6570
7.377904 0.6800 0.6850 0.6850 0.6850 0.6850
7.414000 0.6780 0.6710 0.6620 0.6410 0.6020
7.449904 0.5560 0.5220 0.4960 0.4690 0.4290
7.486000 0.3720 0.3330 0.2950 0.2590 0.1990
7.521904 0.1760 0.1530 0.1530 0.1590 0.2190
7.557000 0.2590 0.3000 0.3230 0.3760 0.4060
7.592904 0.4380 0.4690 0.5000 0.5560 0.5740
7.629000 0.5860 0.5970 0.6020 0.6110 0.6160
7.664904 0.6280 0.6410 0.6590 0.7100 0.7260
7.701000 0.7420 0.7470 0.7540 0.7610 0.7720
7.736904 0.7800 0.7820 0.7870 0.7950 0.7950
7.773000 0.7930 0.7800 0.7650 0.7490 0.7310
7.808904 0.7060 0.6960 0.6870 0.6760 0.6760
7.844000 0.6800 0.6850 0.6940 0.7030 0.7310
7.879904 0.7450 0.7520 0.7660 0.7790 0.7840
7.916000 0.7930 0.7930 0.7930 0.7930 0.7820
7.951904 0.7770 0.7700 0.7610 0.7500 0.7430
7.988000 0.7340 0.7240 0.7150 0.7100 0.7030
8.023904 0.6900 0.6900 0.6940 0.6940 0.7010
8.060000 0.7010 0.6960 0.6940 0.6920 0.6890
8.095904 0.6690 0.6660 0.6600 0.6500 0.6300
8.132000 0.6040 0.5900 0.5700 0.5530 0.5470
8.167904 0.5440 0.5440 0.5420 0.5400 0.5400
8.203000 0.5400 0.5400 0.5440 0.5470 0.5490
8.238904 0.5530 0.5560 0.5580 0.5600 0.5600
8.275000 0.5610 0.5630 0.5610 0.5610 0.5610
8.310904 0.5610 0.5630 0.5770 0.5970 0.6180
8.347000 0.6460 0.6920 0.7080 0.7240 0.7360
8.382904 0.7490 0.7570 0.7680 0.7770 0.7870
8.419000 0.7980 0.8120 0.8160 0.8190 0.8230
8.454904 0.8280 0.8440 0.8460 0.8480 0.8490
8.490000 0.8530 0.8550 0.8550 0.8560 0.8580
8.525904 0.8600 0.8620 0.8620 0.8620 0.8620
8.562000 0.8620 0.8620 0.8620 0.8620 0.8620
8.597904 0.8510 0.8350 0.8260 0.8180 0.8120
8.634000 0.8070 0.8030 0.8030 0.8020 0.7980
8.669904 0.7930 0.7860 0.7700 0.7630 0.7490
8.706000 0.7420 0.7200 0.7060 0.6960 0.6850
8.741904 0.6730 0.6600 0.6360 0.6360 0.5830
8.778000 0.5560 0.5540 0.5540 0.5580 0.5830
8.813904 0.6250 0.6300 0.6370 0.6430 0.6460
8.849000 0.6590 0.6780 0.6940 0.7240 0.7520
8.884904 0.7750 0.7860 0.7890 0.7930 0.7950
8.921000 0.8000 0.8030 0.8070 0.8120 0.8120
8.956904 0.8140 0.8140 0.8190 0.8190 0.8090
8.993000 0.8020 0.8020 0.7980 0.7950 0.7840
9.028904 0.7750 0.7650 0.7500 0.7430 0.7340
9.065000 0.7310 0.7220 0.7130 0.7120 0.7120
9.100904 0.7120 0.7130 0.7130 0.7150 0.7130
9.136000 0.7120 0.7080 0.7060 0.7010 0.6920
9.171904 0.6870 0.6830 0.6760 0.6710 0.6660
9.208000 0.6430 0.6250 0.6210 0.6160 0.6210
9.243904 0.6250 0.6270 0.6430 0.6480 0.6640
9.280000 0.7010 0.7220 0.7330 0.7420 0.7470
9.315904 0.7520 0.7570 0.7650 0.7680 0.7700
9.352000 0.7720 0.7790 0.7800 0.7820 0.7840
9.387904 0.7840 0.7820 0.7770 0.7700 0.7650
9.423000 0.7610 0.7520 0.7400 0.7150 0.6890
9.458904 0.6810 0.6710 0.6600 0.6460 0.6440
9.495000 0.6440 0.6460 0.6510 0.7030 0.7200
9.530904 0.7310 0.7470 0.7540 0.7630 0.7630
9.567000 0.7680 0.7700 0.7750 0.7630 0.7520
9.602904 0.7170 0.6960 0.6920 0.6670 0.6670
9.639000 0.6760 0.6810 0.6940 0.7030 0.7080
9.674904 0.7030 0.7010 0.6800 0.6660 0.6500
9.711000 0.5770 0.5210 0.5220 0.5260 0.5330
9.746904 0.5420 0.6000 0.6510 0.6960 0.7330
9.782000 0.7540 0.7800 0.7870 0.7910 0.7930
9.817904 0.8070 0.8120 0.8160 0.8210 0.8210
9.854000 0.8140 0.8100 0.8070 0.7960 0.7870
9.889904 0.7790 0.7500 0.7340 0.6940 0.6760
9.926000 0.6690 0.6660 0.6620 0.6590 0.6590
9.961904 0.6640 0.6640 0.6710 0.6730 0.6760
9.998000 0.6800 0.6810 0.6850 0.6890 0.6920
10.033904 0.6920 0.6920 0.6920 0.6920 0.6920
10.069000 0.6810 0.6810 0.6810 0.6810 0.6800
10.104904 0.6800 0.6780 0.6800 0.6800 0.6800
10.141000 0.6850 0.6920 0.6970 0.7060 0.7120
10.176904 0.7150 0.7220 0.7290 0.7360 0.7430
10.213000 0.7490 0.7570 0.7630 0.7720 0.7800
10.248904 0.7860 0.7910 0.7980 0.8090 0.8180
10.285000 0.8230 0.8280 0.8400 0.8420 0.8480
10.320904 0.8510 0.8530 0.8580 0.8600 0.8620
10.356000 0.8630 0.8670 0.8690 0.8670 0.8670
10.391904 0.8650 0.8630 0.8600 0.8580 0.8560
10.428000 0.8530 0.8480 0.8400 0.8350 0.8280
10.463904 0.8140 0.8020 0.7950 0.7910 0.7910
10.500000 0.7890 0.7860 0.7890 0.7910 0.7950
10.535904 0.7980 0.8070 0.8180 0.8280 0.8420
10.572000 0.8460 0.8510 0.8580 0.8630 0.8690
10.607904 0.8690 0.8710 0.8720 0.8740 0.8740
10.644000 0.8760 0.8760 0.8760 0.8760 0.8780
10.679904 0.8790 0.8790 0.8790 0.8810 0.8810
10.715000 0.8830 0.8830 0.8830 0.8850 0.8850
10.750904 0.8850 0.8860 0.8860 0.8850 0.8850
10.787000 0.8850 0.8830 0.8810 0.8790 0.8780
10.822904 0.8760 0.8740 0.8720 0.8720 0.8740
10.859000 0.8740 0.8740 0.8740 0.8760 0.8740
10.894904 0.8740 0.8740 0.8740 0.8740 0.8740
10.931000 0.8740 0.8740 0.8740 0.8720 0.8710
10.966904 0.8650 0.8650 0.8620 0.8580 0.8550
11.002000 0.8530 0.8530 0.8480 0.8460 0.8420
11.037904 0.8390 0.8350 0.8320 0.8260 0.8180
11.074000 0.8120 0.8050 0.8000 0.7930 0.7890
11.109904 0.7820 0.7750 0.7660 0.7590 0.7540
11.146000 0.7470 0.7380 0.7310 0.7200 0.7120
11.181904 0.7040 0.6940 0.6900 0.6780 0.6730
11.218000 0.6670 0.6670 0.6660 0.6640 0.6660
11.253904 0.6730 0.6800 0.6890 0.6920 0.6940
11.289000 0.7060 0.7260 0.7450 0.7590 0.7610
11.324904 0.7650 0.7720 0.7790 0.7860 0.7930
11.361000 0.7980 0.8030 0.8100 0.8160 0.8210
11.396904 0.8230 0.8280 0.8400 0.8420 0.8440
11.433000 0.8480 0.8490 0.8490 0.8490 0.8480
11.468904 0.8440 0.8440 0.8420 0.8400 0.8420
11.505000 0.8400 0.8400 0.8400 0.8390 0.8370
11.540904 0.8330 0.8320 0.8300 0.8280 0.8230
11.577000 0.8190 0.8140 0.8070 0.8050 0.8030
11.612904 0.8070 0.8120 0.8230 0.8300 0.8400
11.648000 0.8440 0.8460 0.8480 0.8490 0.8490
11.683904 0.8490 0.8490 0.8480 0.8480 0.8480
11.720000 0.8480 0.8480 0.8460 0.8480 0.8480
11.755904 0.8440 0.8420 0.8390 0.8330 0.8300
11.792000 0.8260 0.8070 0.7950 0.7840 0.7730
11.827904 0.7660 0.7650 0.7630 0.7630 0.7680
11.864000 0.7750 0.7820 0.7890 0.7930 0.7960
11.899904 0.8000 0.8030 0.8070 0.8100 0.8160
11.935000 0.8210 0.8280 0.8460 0.8580 0.8620
11.970904 0.8650 0.8690 0.8710 0.8710 0.8720
12.007000 0.8740 0.8740 0.8740 0.8740 0.8740
12.042904 0.8740 0.8740 0.8740 0.8720 0.8720
12.079000 0.8710 0.8690 0.8690 0.8690 0.8670
12.114904 0.8670 0.8670 0.8650 0.8650 0.8630
12.151000 0.8620 0.8620 0.8600 0.8600 0.8600
12.186904 0.8600 0.8600 0.8600 0.8580 0.8600
12.222000 0.8600 0.8600 0.8620 0.8620 0.8620
12.257904 0.8620 0.8620 0.8620 0.8620 0.8620
12.294000 0.8620 0.8620 0.8620 0.8620 0.8620
12.329904 0.8600 0.8600 0.8580 0.8560 0.8550
12.366000 0.8550 0.8530 0.8510 0.8510 0.8490
12.401904 0.8490 0.8490 0.8480 0.8480 0.8490
12.438000 0.8490 0.8510 0.8530 0.8550 0.8530
12.473904 0.8560 0.8560 0.8560 0.8560 0.8560
12.510000 0.8550 0.8560 0.8560 0.8560 0.8560
12.545904 0.8560 0.8580 0.8580 0.8580 0.8600
12.581000 0.8600 0.8620 0.8600 0.8620 0.8630
12.616904 0.8650 0.8670 0.8690 0.8710 0.8710
12.653000 0.8720 0.8720 0.8720 0.8720 0.8720
12.688904 0.8720 0.8720 0.8720 0.8720 0.8720
12.725000 0.8720 0.8710 0.8710 0.8710 0.8710
12.760904 0.8710 0.8710 0.8720 0.8740 0.8740
12.797000 0.8740 0.8740 0.8740 0.8740 0.8740
12.832904 0.8740 0.8740 0.8740 0.8740 0.8740
12.868000 0.8740 0.8740 0.8740 0.8740 0.8740
12.903904 0.8780 0.8780 0.8780 0.8790 0.8810
12.940000 0.8810 0.8830 0.8830 0.8850 0.8850
12.975904 0.8850 0.8850 0.8850 0.8850 0.8850
13.012000 0.8850 0.8850 0.8850 0.8850 0.8850
13.047904 0.8850 0.8850 0.8850 0.8850 0.8850
13.084000 0.8850 0.8850 0.8850 0.8850 0.8850
13.119904 0.8850 0.8850 0.8850 0.8850 0.8850
13.156000 0.8850 0.8850 0.8850 0.8850 0.8850
13.191904 0.8850 0.8850 0.8850 0.8850 0.8850
13.227000 0.8850 0.8850 0.8850 0.8850 0.8850
13.262904 0.8850 0.8850 0.8850 0.8850 0.8850
13.299000 0.8850 0.8850 0.8860 0.8860 0.8850
13.334904 0.8850 0.8830 0.8830 0.8830 0.8830
13.371000 0.8830 0.8830 0.8830 0.8830 0.8830
13.406904 0.8830 0.8830 0.8830 0.8830 0.8830
13.443000 0.8850 0.8850 0.8850 0.8880 0.8880
13.478904 0.8880 0.8880 0.8900 0.8900 0.8900
13.514000 0.8900 0.8920 0.8920 0.8920 0.8920
13.549904 0.8920 0.8920 0.8920 0.8920 0.8920
13.586000 0.8900 0.8880 0.8860 0.8850 0.8830
13.621904 0.8830 0.8830 0.8810 0.8810 0.8790
13.658000 0.8790 0.8790 0.8780 0.8780 0.8760
13.693904 0.8760 0.8740 0.8720 0.8690 0.8670
13.730000 0.8670 0.8630 0.8600 0.8560 0.8530
13.765904 0.8490 0.8460 0.8420 0.8390 0.8350
13.801000 0.8330 0.8330 0.8320 0.8300 0.8260
13.836904 0.8210 0.8180 0.8100 0.8030 0.7910
13.873000 0.7820 0.7720 0.7650 0.7570 0.7500
13.908904 0.7450 0.7420 0.7360 0.7330 0.7270
13.945000 0.7260 0.7220 0.7170 0.7170 0.7130
13.980904 0.7120 0.7120 0.7120 0.7120 0.7120
14.017000 0.7130 0.7130 0.7150 0.7170 0.7190
14.052904 0.7190 0.7190 0.7200 0.7200 0.7200
14.089000 0.7200 0.7200 0.7200 0.7200 0.7190
14.124904 0.7190 0.7150 0.7150 0.7120 0.7100
14.160000 0.7060 0.7040 0.7030 0.7010 0.6970
14.195904 0.6960 0.6900 0.6890 0.6890 0.6890
14.232000 0.6870 0.6850 0.6850 0.6830 0.6810
14.267904 0.6830 0.6830 0.6830 0.6830 0.6850
14.304000 0.6850 0.6870 0.6890 0.6890 0.6900
14.339904 0.6900 0.6900 0.6890 0.6890 0.6870
14.376000 0.6850 0.6810 0.6760 0.6690 0.6660
14.411904 0.6620 0.6550 0.6430 0.6300 0.6180
14.447000 0.5930 0.5860 0.5740 0.5700 0.5700
14.482904 0.5700 0.5720 0.5740 0.5880 0.5900
14.519000 0.6070 0.6180 0.6370 0.6440 0.6500
14.554904 0.6570 0.6590 0.6600 0.6970 0.7130
14.591000 0.7240 0.7310 0.7380 0.7420 0.7490
14.626904 0.7540 0.7560 0.7590 0.7660 0.7730
14.663000 0.7800 0.7840 0.7840 0.7860 0.7870
14.698904 0.7870 0.7910 0.7960 0.8000 0.8070
14.734000 0.8120 0.8180 0.8250 0.8280 0.8350
14.769904 0.8390 0.8400 0.8420 0.8420 0.8420
14.806000 0.8440 0.8440 0.8460 0.8460 0.8460
14.841904 0.8460 0.8460 0.8460 0.8460 0.8460
14.878000 0.8460 0.8460 0.8460 0.8460 0.8440
14.913904 0.8440 0.8420 0.8400 0.8400 0.8390
14.950000 0.8390 0.8370 0.8370 0.8370 0.8350
14.985904 0.8320 0.8280 0.8210 0.8120 0.8030
15.022000 0.7960 0.7910 0.7840 0.7790 0.7700
15.057904 0.7650 0.7630 0.7650 0.7660 0.7770
15.093000 0.7860 0.7910 0.7950 0.8000 0.8030
15.128904 0.8070 0.8140 0.8210 0.8320 0.8390
15.165000 0.8420 0.8480 0.8510 0.8530 0.8560
15.200904 0.8600 0.8620 0.8630 0.8650 0.8650
15.237000 0.8670 0.8670 0.8670 0.8670 0.8670
15.272904 0.8670 0.8670 0.8670 0.8670 0.8670
15.309000 0.8670 0.8670 0.8670 0.8670 0.8670
15.344904 0.8670 0.8670 0.8670 0.8670 0.8690
15.380000 0.8690 0.8690 0.8690 0.8690 0.8690
15.415904 0.8690 0.8690 0.8690 0.8690 0.8690
##END=
