##TITLE=Carbanilic acid, 2,4-di-tert-butyl-, 2-chloroethyl ester
##JCAMP-DX=4.24
##DATA TYPE=INFRARED SPECTRUM
##CLASS=COBLENTZ III
##ORIGIN=MONSANTO (J. FREEMAN)
##OWNER=Copyright (C) 1987 by the Coblentz Society
Collection (C) 2018 copyright by the U.S. Secretary of Commerce
on behalf of the United States of America. All rights reserved.
##DATE=1959/03/31
##NAMES=2-chloroethyl 2,4-ditert-butylphenylcarbamate
##MOLFORM=C17 H26 Cl N O2
##MP=112 C
##SOURCE REFERENCE=COBLENTZ NO. 9309
##$NIST ID=B6009309
##$NIST SOURCE=COBLENTZ
##$NIST IMAGE=cob9309
##SPECTROMETER/DATA SYSTEM=BECKMAN IR-4 (HYBRID PRISM-GRATING)
##INSTRUMENT PARAMETERS=NaCl PRISM
##STATE=SOLID (NUJOL MULL)
$$SPECTRAL CONTAMINATION DUE TO OIL AROUND 2900, 1450, 720 CM^-^1
##SAMPLING PROCEDURE=TRANSMISSION
##RESOLUTION=2
##DATA PROCESSING=DIGITIZED BY COBLENTZ SOCIETY (BATCH II) FROM HARD COPY (ADJUSTED \addmicron\0.02um\)
##XUNITS=1/CM
##YUNITS=TRANSMITTANCE
##XFACTOR=1.0
##YFACTOR=1
##DELTAX=0.980463
##FIRSTX=626.027
##LASTX=3935.09
##FIRSTY=0.81
##MAXX=3935.09
##MINX=626.027
##MAXY=0.9379
##MINY=0
##NPOINTS=3376
##XYDATA=(X++(Y..Y))
626.027076 0.8100 0.8103 0.8099 0.8087 0.8077
630.929392 0.8067 0.8050 0.8043 0.8046 0.8051
635.831709 0.8058 0.8061 0.8059 0.8056 0.8052
640.734026 0.8052 0.8056 0.8061 0.8063 0.8056
645.636343 0.8040 0.8025 0.8023 0.8008 0.7964
650.538659 0.7913 0.7871 0.7836 0.7810 0.7798
655.440976 0.7793 0.7797 0.7809 0.7820 0.7837
660.343293 0.7858 0.7883 0.7912 0.7952 0.8003
665.245609 0.8044 0.8054 0.8037 0.8014 0.8006
670.147926 0.8026 0.8050 0.8082 0.8111 0.8145
675.050243 0.8188 0.8246 0.8327 0.8410 0.8484
679.952560 0.8548 0.8622 0.8691 0.8708 0.8716
684.854876 0.8720 0.8725 0.8702 0.8676 0.8648
689.757193 0.8600 0.8532 0.8457 0.8380 0.8282
694.659510 0.8172 0.8070 0.7995 0.7930 0.7874
699.561826 0.7832 0.7814 0.7806 0.7806 0.7818
704.464143 0.7827 0.7821 0.7798 0.7765 0.7730
709.366460 0.7706 0.7687 0.7662 0.7630 0.7580
714.268777 0.7515 0.7434 0.7350 0.7277 0.7210
719.171093 0.7147 0.7112 0.7129 0.7183 0.7255
724.073410 0.7334 0.7413 0.7471 0.7486 0.7453
728.975727 0.7404 0.7352 0.7293 0.7238 0.7193
733.878043 0.7201 0.7349 0.7636 0.7932 0.8093
738.780360 0.8171 0.8225 0.8270 0.8311 0.8338
743.682677 0.8344 0.8319 0.8258 0.8173 0.8071
748.584994 0.7931 0.7813 0.7700 0.7563 0.7410
753.487310 0.7305 0.7289 0.7333 0.7402 0.7473
758.389627 0.7476 0.7420 0.7348 0.7273 0.7211
763.291944 0.7199 0.7209 0.7229 0.7254 0.7274
768.194260 0.7271 0.7251 0.7223 0.7187 0.7143
773.096577 0.7106 0.7083 0.7154 0.7327 0.7528
777.998894 0.7729 0.7969 0.8198 0.8338 0.8414
782.901211 0.8468 0.8514 0.8550 0.8580 0.8618
787.803527 0.8671 0.8732 0.8789 0.8844 0.8901
792.705844 0.8954 0.9000 0.9041 0.9079 0.9107
797.608161 0.9132 0.9155 0.9173 0.9189 0.9200
802.510477 0.9209 0.9216 0.9218 0.9210 0.9192
807.412794 0.9172 0.9138 0.9080 0.9002 0.8868
812.315111 0.8654 0.8440 0.8227 0.8015 0.7803
817.217428 0.7584 0.7273 0.7016 0.6824 0.6640
822.119744 0.6604 0.6626 0.6780 0.7157 0.7547
827.022061 0.7935 0.8320 0.8598 0.8786 0.8892
831.924378 0.8982 0.9030 0.9068 0.9096 0.9111
836.826695 0.9124 0.9131 0.9130 0.9128 0.9122
841.729011 0.9114 0.9105 0.9095 0.9084 0.9076
846.631328 0.9069 0.9069 0.9084 0.9097 0.9113
851.533645 0.9133 0.9151 0.9167 0.9182 0.9196
856.435961 0.9204 0.9211 0.9217 0.9219 0.9219
861.338278 0.9220 0.9219 0.9219 0.9218 0.9216
866.240595 0.9212 0.9206 0.9198 0.9190 0.9179
871.142912 0.9167 0.9150 0.9125 0.9098 0.9061
876.045228 0.9022 0.8977 0.8917 0.8820 0.8615
880.947545 0.8368 0.8122 0.7875 0.7639 0.7489
885.849862 0.7558 0.8060 0.8492 0.8628 0.8727
890.752178 0.8812 0.8880 0.8931 0.8958 0.8975
895.654495 0.8980 0.8976 0.8965 0.8927 0.8875
900.556812 0.8804 0.8710 0.8631 0.8561 0.8505
905.459129 0.8484 0.8482 0.8520 0.8566 0.8612
910.361445 0.8656 0.8703 0.8743 0.8758 0.8754
915.263762 0.8741 0.8720 0.8687 0.8651 0.8616
920.166079 0.8590 0.8570 0.8560 0.8560 0.8567
925.068395 0.8575 0.8585 0.8596 0.8606 0.8616
929.970712 0.8624 0.8632 0.8635 0.8633 0.8630
934.873029 0.8625 0.8619 0.8611 0.8603 0.8594
939.775346 0.8584 0.8574 0.8564 0.8555 0.8547
944.677662 0.8540 0.8533 0.8525 0.8512 0.8488
949.579979 0.8458 0.8418 0.8376 0.8344 0.8330
954.482296 0.8332 0.8337 0.8344 0.8349 0.8365
959.384612 0.8382 0.8398 0.8412 0.8427 0.8442
964.286929 0.8453 0.8461 0.8469 0.8476 0.8481
969.189246 0.8485 0.8491 0.8505 0.8522 0.8539
974.091563 0.8559 0.8578 0.8600 0.8621 0.8643
978.993879 0.8661 0.8679 0.8696 0.8713 0.8730
983.896196 0.8748 0.8766 0.8785 0.8802 0.8817
988.798513 0.8815 0.8808 0.8800 0.8789 0.8777
993.700829 0.8765 0.8755 0.8744 0.8734 0.8724
998.603146 0.8715 0.8707 0.8698 0.8697 0.8701
1003.505463 0.8705 0.8706 0.8705 0.8701 0.8694
1008.407780 0.8684 0.8668 0.8647 0.8626 0.8602
1013.310096 0.8577 0.8553 0.8529 0.8505 0.8481
1018.212413 0.8456 0.8432 0.8409 0.8386 0.8364
1023.114730 0.8339 0.8307 0.8267 0.8221 0.8170
1028.017046 0.8119 0.8066 0.8010 0.7951 0.7881
1032.919363 0.7798 0.7688 0.7516 0.7260 0.6908
1037.821680 0.6540 0.6224 0.5911 0.5625 0.5438
1042.723997 0.5320 0.5260 0.5268 0.5328 0.5379
1047.626313 0.5383 0.5359 0.5248 0.5040 0.4842
1052.528630 0.4728 0.4772 0.5133 0.5534 0.5923
1057.430947 0.6170 0.6246 0.6266 0.6264 0.6066
1062.333264 0.5776 0.5486 0.5197 0.4909 0.4620
1067.235580 0.4333 0.4046 0.3798 0.3775 0.3791
1072.137897 0.4410 0.4900 0.5337 0.5553 0.5728
1077.040214 0.5922 0.6029 0.6094 0.6121 0.6138
1081.942530 0.6147 0.6154 0.6166 0.6560 0.7110
1086.844847 0.7405 0.7491 0.7509 0.7480 0.7298
1091.747164 0.7053 0.6803 0.6553 0.6304 0.6055
1096.649481 0.5806 0.5563 0.5445 0.5433 0.5476
1101.551797 0.5568 0.5693 0.5805 0.5890 0.5950
1106.454114 0.5993 0.6062 0.6387 0.6916 0.7299
1111.356431 0.7469 0.7540 0.7563 0.7569 0.7569
1116.258747 0.7392 0.7094 0.6860 0.6627 0.6394
1121.161064 0.6161 0.5971 0.5899 0.6027 0.6410
1126.063381 0.6928 0.7495 0.8005 0.8213 0.8275
1130.965698 0.8325 0.8362 0.8388 0.8406 0.8413
1135.868014 0.8414 0.8411 0.8404 0.8399 0.8381
1140.770331 0.8354 0.8317 0.8264 0.8198 0.8122
1145.672648 0.8068 0.8017 0.7965 0.7911 0.7857
1150.574964 0.7807 0.7776 0.7771 0.7767 0.7829
1155.477281 0.7880 0.7926 0.7971 0.8014 0.8056
1160.379598 0.8089 0.8118 0.8134 0.8142 0.8142
1165.281915 0.8137 0.8112 0.8126 0.8119 0.8112
1170.184231 0.8104 0.8096 0.8087 0.8079 0.8071
1175.086548 0.8063 0.8055 0.8046 0.8036 0.8025
1179.988865 0.8011 0.7993 0.7972 0.7944 0.7916
1184.891181 0.7876 0.7831 0.7761 0.7649 0.7286
1189.793498 0.7111 0.6999 0.6885 0.6718 0.6495
1194.695815 0.6271 0.6073 0.5894 0.5682 0.5555
1199.598132 0.5502 0.5466 0.5435 0.5411 0.5365
1204.500448 0.5266 0.5209 0.5187 0.5200 0.5197
1209.402765 0.5301 0.5500 0.5716 0.5906 0.6008
1214.305082 0.6058 0.6079 0.6077 0.6067 0.6055
1219.207398 0.5967 0.5612 0.5319 0.5136 0.4851
1224.109715 0.4519 0.4189 0.3860 0.3530 0.3202
1229.012032 0.2874 0.2546 0.2234 0.1969 0.1638
1233.914349 0.1315 0.1169 0.1101 0.1074 0.1058
1238.816665 0.1047 0.1041 0.1039 0.1048 0.1060
1243.718982 0.1067 0.1195 0.1605 0.2198 0.2790
1248.621299 0.3401 0.3890 0.4046 0.4132 0.4212
1253.523615 0.4289 0.4353 0.4391 0.4413 0.4433
1258.425932 0.4445 0.4424 0.4418 0.4412 0.4405
1263.328249 0.4397 0.4389 0.4381 0.4371 0.4357
1268.230566 0.4339 0.4315 0.4290 0.4269 0.4268
1273.132882 0.4333 0.4437 0.4362 0.4807 0.4964
1278.035199 0.5121 0.5279 0.5437 0.5561 0.5684
1282.937516 0.5793 0.5878 0.5959 0.6034 0.6105
1287.839833 0.6162 0.6214 0.6264 0.6289 0.6306
1292.742149 0.6318 0.6314 0.6323 0.6289 0.6133
1297.644466 0.5899 0.5798 0.5716 0.5637 0.5595
1302.546783 0.5592 0.5599 0.5580 0.5680 0.5753
1307.449099 0.5847 0.5956 0.6066 0.6162 0.6247
1312.351416 0.6319 0.6391 0.6515 0.6836 0.7046
1317.253733 0.7160 0.7226 0.7275 0.7321 0.7354
1322.156050 0.7377 0.7400 0.7419 0.7433 0.7446
1327.058366 0.7459 0.7465 0.7468 0.7469 0.7466
1331.960683 0.7459 0.7456 0.7447 0.7434 0.7415
1336.863000 0.7395 0.7372 0.7349 0.7325 0.7299
1341.765316 0.7273 0.7244 0.7211 0.7167 0.7121
1346.667633 0.7095 0.7081 0.7067 0.7052 0.7036
1351.569950 0.7014 0.6981 0.6935 0.6888 0.6822
1356.472267 0.6712 0.6563 0.6173 0.5595 0.5166
1361.374583 0.4856 0.4547 0.4238 0.3929 0.3622
1366.276900 0.3322 0.3179 0.3159 0.3322 0.3571
1371.179217 0.3763 0.3955 0.4146 0.4310 0.4382
1376.081533 0.4389 0.4254 0.3992 0.3746 0.3504
1380.983850 0.3322 0.3267 0.3344 0.3602 0.3990
1385.886167 0.4376 0.4762 0.5148 0.5533 0.5916
1390.788484 0.6174 0.6249 0.6293 0.6319 0.6328
1395.690800 0.6333 0.6334 0.6332 0.6326 0.6305
1400.593117 0.6248 0.6160 0.6070 0.5980 0.5916
1405.495434 0.5912 0.5926 0.6123 0.6632 0.6977
1410.397750 0.7211 0.7302 0.7354 0.7393 0.7424
1415.300067 0.7454 0.7479 0.7493 0.7502 0.7502
1420.202384 0.7499 0.7492 0.7482 0.7469 0.7449
1425.104701 0.7413 0.7335 0.7225 0.7144 0.7057
1430.007017 0.6868 0.6596 0.6325 0.6055 0.5785
1434.909334 0.5515 0.5245 0.4976 0.4708 0.4439
1439.811651 0.4172 0.3898 0.3569 0.3313 0.3178
1444.713967 0.3050 0.2935 0.2867 0.2802 0.2737
1449.616284 0.2643 0.2540 0.2413 0.2269 0.2136
1454.518601 0.1904 0.1535 0.1405 0.1311 0.1244
1459.420918 0.1194 0.1146 0.1097 0.1055 0.1045
1464.323234 0.1037 0.1031 0.1034 0.1047 0.1063
1469.225551 0.1090 0.1139 0.1213 0.1291 0.1358
1474.127868 0.1474 0.1751 0.2183 0.2646 0.3274
1479.030184 0.3789 0.3970 0.4063 0.4199 0.4389
1483.932501 0.4522 0.4614 0.4684 0.4739 0.4784
1488.834818 0.4819 0.4843 0.4858 0.4861 0.4856
1493.737135 0.4855 0.4828 0.4794 0.4763 0.4727
1498.639451 0.4687 0.4663 0.4623 0.4631 0.4654
1503.541768 0.4632 0.4542 0.4402 0.4251 0.4100
1508.444085 0.4375 0.4180 0.3649 0.3499 0.3350
1513.346401 0.3201 0.3051 0.2902 0.2754 0.2605
1518.248718 0.2456 0.2307 0.2160 0.2011 0.1863
1523.151035 0.1716 0.1576 0.1466 0.1397 0.1354
1528.053352 0.1327 0.1309 0.1297 0.1289 0.1287
1532.955668 0.1290 0.1349 0.1527 0.1752 0.1980
1537.857985 0.2207 0.2433 0.2659 0.2885 0.3112
1542.760302 0.3337 0.3561 0.3786 0.4011 0.4238
1547.662619 0.4505 0.4876 0.5266 0.5660 0.6177
1552.564935 0.6457 0.6659 0.6798 0.6918 0.7042
1557.467252 0.7175 0.7301 0.7384 0.7441 0.7494
1562.369569 0.7547 0.7616 0.7733 0.7887 0.8020
1567.271885 0.8100 0.8138 0.8165 0.8192 0.8218
1572.174202 0.8248 0.8290 0.8346 0.8422 0.8510
1577.076519 0.8578 0.8635 0.8674 0.8698 0.8719
1581.978836 0.8738 0.8754 0.8766 0.8775 0.8783
1586.881152 0.8793 0.8802 0.8808 0.8811 0.8814
1591.783469 0.8816 0.8813 0.8809 0.8804 0.8797
1596.685786 0.8785 0.8765 0.8740 0.8701 0.8646
1601.588102 0.8581 0.8507 0.8436 0.8366 0.8297
1606.490419 0.8227 0.8158 0.8088 0.8019 0.7949
1611.392736 0.7834 0.7823 0.7825 0.7978 0.8298
1616.295053 0.8546 0.8637 0.8669 0.8695 0.8722
1621.197369 0.8747 0.8769 0.8792 0.8813 0.8835
1626.099686 0.8858 0.8881 0.8897 0.8904 0.8909
1631.002003 0.8913 0.8916 0.8919 0.8920 0.8920
1635.904319 0.8907 0.8906 0.8908 0.8901 0.8894
1640.806636 0.8887 0.8880 0.8871 0.8860 0.8847
1645.708953 0.8834 0.8820 0.8803 0.8783 0.8756
1650.611270 0.8722 0.8686 0.8651 0.8615 0.8581
1655.513586 0.8544 0.8497 0.8429 0.8350 0.8271
1660.415903 0.8192 0.8113 0.8034 0.7955 0.7877
1665.318220 0.7798 0.7720 0.7642 0.7566 0.7502
1670.220536 0.7453 0.7408 0.7361 0.7305 0.7237
1675.122853 0.7162 0.7088 0.7018 0.6956 0.6894
1680.025170 0.6805 0.6678 0.6563 0.6464 0.6380
1684.927487 0.6305 0.6228 0.6135 0.5962 0.5638
1689.829803 0.5368 0.5035 0.4591 0.4144 0.3697
1694.732120 0.3251 0.2806 0.2361 0.1933 0.1609
1699.634437 0.1438 0.1317 0.1197 0.1080 0.0982
1704.536753 0.0919 0.0893 0.0886 0.0885 0.0884
1709.439070 0.0882 0.0893 0.0940 0.1071 0.1302
1714.341387 0.1533 0.1764 0.1993 0.2224 0.2454
1719.243704 0.2683 0.2913 0.3141 0.3370 0.3599
1724.146020 0.3827 0.4047 0.4214 0.4292 0.4367
1729.048337 0.4449 0.4531 0.4612 0.4705 0.4823
1733.950654 0.4930 0.5033 0.5171 0.5397 0.5626
1738.852970 0.5855 0.6084 0.6312 0.6540 0.6768
1743.755287 0.6995 0.7171 0.7294 0.7387 0.7483
1748.657604 0.7550 0.7608 0.7660 0.7707 0.7753
1753.559921 0.7802 0.7850 0.7898 0.7947 0.7995
1758.462237 0.8047 0.8103 0.8163 0.8225 0.8294
1763.364554 0.8365 0.8430 0.8492 0.8554 0.8626
1768.266871 0.8702 0.8755 0.8788 0.8819 0.8849
1773.169188 0.8877 0.8898 0.8914 0.8929 0.8944
1778.071504 0.8958 0.8973 0.8987 0.9000 0.9010
1782.973821 0.9021 0.9031 0.9041 0.9052 0.9062
1787.876138 0.9072 0.9081 0.9088 0.9095 0.9101
1792.778454 0.9108 0.9115 0.9121 0.9124 0.9126
1797.680771 0.9129 0.9131 0.9132 0.9134 0.9136
1802.583088 0.9138 0.9139 0.9141 0.9143 0.9143
1807.485405 0.9144 0.9144 0.9145 0.9145 0.9145
1812.387721 0.9146 0.9146 0.9146 0.9147 0.9147
1817.290038 0.9148 0.9148 0.9149 0.9149 0.9150
1822.192355 0.9150 0.9151 0.9152 0.9153 0.9156
1827.094671 0.9158 0.9160 0.9162 0.9166 0.9171
1831.996988 0.9178 0.9185 0.9193 0.9200 0.9208
1836.899305 0.9215 0.9223 0.9229 0.9234 0.9240
1841.801622 0.9245 0.9251 0.9257 0.9262 0.9267
1846.703938 0.9271 0.9276 0.9280 0.9284 0.9289
1851.606255 0.9293 0.9298 0.9302 0.9307 0.9311
1856.508572 0.9314 0.9317 0.9321 0.9324 0.9327
1861.410888 0.9330 0.9333 0.9336 0.9339 0.9343
1866.313205 0.9346 0.9348 0.9349 0.9351 0.9352
1871.215522 0.9354 0.9355 0.9356 0.9357 0.9358
1876.117839 0.9360 0.9361 0.9362 0.9362 0.9362
1881.020155 0.9361 0.9360 0.9360 0.9359 0.9359
1885.922472 0.9355 0.9345 0.9357 0.9356 0.9353
1890.824789 0.9351 0.9349 0.9346 0.9343 0.9341
1895.727105 0.9338 0.9335 0.9333 0.9330 0.9328
1900.629422 0.9325 0.9322 0.9320 0.9318 0.9315
1905.531739 0.9312 0.9310 0.9307 0.9304 0.9302
1910.434056 0.9302 0.9300 0.9299 0.9299 0.9298
1915.336372 0.9297 0.9297 0.9295 0.9294 0.9293
1920.238689 0.9293 0.9293 0.9293 0.9294 0.9295
1925.141006 0.9297 0.9298 0.9299 0.9301 0.9302
1930.043322 0.9303 0.9304 0.9306 0.9307 0.9309
1934.945639 0.9310 0.9311 0.9312 0.9313 0.9314
1939.847956 0.9315 0.9317 0.9318 0.9318 0.9320
1944.750273 0.9321 0.9321 0.9322 0.9324 0.9324
1949.652589 0.9325 0.9327 0.9328 0.9329 0.9331
1954.554906 0.9333 0.9334 0.9335 0.9337 0.9338
1959.457223 0.9340 0.9342 0.9343 0.9344 0.9346
1964.359539 0.9348 0.9349 0.9350 0.9352 0.9353
1969.261856 0.9355 0.9356 0.9358 0.9359 0.9359
1974.164173 0.9360 0.9362 0.9363 0.9364 0.9364
1979.066490 0.9366 0.9367 0.9368 0.9369 0.9371
1983.968806 0.9371 0.9372 0.9374 0.9375 0.9376
1988.871123 0.9376 0.9377 0.9379 0.9379 0.9378
1993.773440 0.9378 0.9377 0.9376 0.9376 0.9375
1998.675757 0.9374 0.9374 0.9373 0.9373 0.9371
2003.578073 0.9369 0.9368 0.9367 0.9366 0.9364
2008.480390 0.9362 0.9361 0.9359 0.9357 0.9356
2013.382707 0.9355 0.9354 0.9353 0.9351 0.9350
2018.285023 0.9349 0.9349 0.9348 0.9347 0.9346
2023.187340 0.9345 0.9345 0.9344 0.9343 0.9342
2028.089657 0.9341 0.9341 0.9340 0.9339 0.9339
2032.991974 0.9338 0.9337 0.9336 0.9335 0.9335
2037.894290 0.9334 0.9334 0.9334 0.9334 0.9334
2042.796607 0.9333 0.9333 0.9333 0.9333 0.9333
2047.698924 0.9333 0.9333 0.9332 0.9332 0.9332
2052.601240 0.9332 0.9332 0.9332 0.9332 0.9331
2057.503557 0.9331 0.9331 0.9331 0.9331 0.9331
2062.405874 0.9331 0.9331 0.9330 0.9330 0.9330
2067.308191 0.9330 0.9330 0.9330 0.9330 0.9330
2072.210507 0.9330 0.9329 0.9329 0.9329 0.9329
2077.112824 0.9329 0.9329 0.9329 0.9329 0.9329
2082.015141 0.9328 0.9328 0.9328 0.9328 0.9328
2086.917457 0.9328 0.9328 0.9328 0.9328 0.9328
2091.819774 0.9328 0.9328 0.9327 0.9327 0.9327
2096.722091 0.9327 0.9327 0.9327 0.9327 0.9327
2101.624408 0.9327 0.9327 0.9327 0.9327 0.9327
2106.526724 0.9326 0.9326 0.9326 0.9326 0.9325
2111.429041 0.9325 0.9324 0.9324 0.9324 0.9324
2116.331358 0.9323 0.9323 0.9322 0.9321 0.9321
2121.233674 0.9320 0.9320 0.9319 0.9319 0.9319
2126.135991 0.9319 0.9318 0.9318 0.9317 0.9316
2131.038308 0.9316 0.9315 0.9315 0.9314 0.9314
2135.940625 0.9314 0.9314 0.9313 0.9313 0.9312
2140.842941 0.9312 0.9311 0.9310 0.9310 0.9310
2145.745258 0.9310 0.9309 0.9308 0.9307 0.9306
2150.647575 0.9305 0.9305 0.9304 0.9303 0.9302
2155.549891 0.9301 0.9300 0.9299 0.9299 0.9298
2160.452208 0.9297 0.9296 0.9296 0.9295 0.9294
2165.354525 0.9293 0.9292 0.9291 0.9291 0.9290
2170.256842 0.9289 0.9288 0.9288 0.9287 0.9286
2175.159158 0.9285 0.9284 0.9283 0.9282 0.9281
2180.061475 0.9280 0.9280 0.9279 0.9278 0.9277
2184.963792 0.9277 0.9276 0.9275 0.9274 0.9274
2189.866108 0.9273 0.9272 0.9271 0.9271 0.9270
2194.768425 0.9269 0.9268 0.9268 0.9267 0.9267
2199.670742 0.9266 0.9265 0.9264 0.9264 0.9263
2204.573059 0.9263 0.9262 0.9261 0.9260 0.9260
2209.475375 0.9259 0.9259 0.9258 0.9257 0.9256
2214.377692 0.9256 0.9255 0.9255 0.9254 0.9253
2219.280009 0.9252 0.9252 0.9251 0.9251 0.9250
2224.182325 0.9249 0.9248 0.9248 0.9247 0.9247
2229.084642 0.9246 0.9245 0.9244 0.9244 0.9243
2233.986959 0.9243 0.9242 0.9241 0.9240 0.9239
2238.889276 0.9238 0.9237 0.9236 0.9235 0.9234
2243.791592 0.9233 0.9232 0.9231 0.9230 0.9229
2248.693909 0.9228 0.9227 0.9226 0.9226 0.9225
2253.596226 0.9224 0.9223 0.9222 0.9221 0.9220
2258.498543 0.9219 0.9218 0.9217 0.9216 0.9216
2263.400859 0.9215 0.9214 0.9213 0.9212 0.9211
2268.303176 0.9211 0.9210 0.9210 0.9209 0.9208
2273.205493 0.9207 0.9207 0.9206 0.9206 0.9205
2278.107809 0.9205 0.9204 0.9204 0.9203 0.9203
2283.010126 0.9203 0.9202 0.9202 0.9201 0.9201
2287.912443 0.9200 0.9200 0.9199 0.9199 0.9198
2292.814760 0.9197 0.9196 0.9196 0.9195 0.9195
2297.717076 0.9194 0.9194 0.9194 0.9193 0.9193
2302.619393 0.9192 0.9192 0.9191 0.9191 0.9191
2307.521710 0.9191 0.9191 0.9191 0.9191 0.9191
2312.424026 0.9191 0.9191 0.9191 0.9191 0.9191
2317.326343 0.9191 0.9191 0.9191 0.9191 0.9191
2322.228660 0.9191 0.9191 0.9191 0.9191 0.9191
2327.130977 0.9191 0.9191 0.9191 0.9191 0.9191
2332.033293 0.9191 0.9191 0.9191 0.9192 0.9192
2336.935610 0.9192 0.9192 0.9192 0.9192 0.9192
2341.837927 0.9194 0.9195 0.9196 0.9197 0.9198
2346.740243 0.9199 0.9201 0.9202 0.9203 0.9205
2351.642560 0.9206 0.9207 0.9209 0.9210 0.9211
2356.544877 0.9213 0.9214 0.9215 0.9216 0.9217
2361.447194 0.9217 0.9218 0.9219 0.9220 0.9221
2366.349510 0.9221 0.9222 0.9223 0.9223 0.9224
2371.251827 0.9224 0.9225 0.9226 0.9227 0.9227
2376.154144 0.9228 0.9228 0.9229 0.9229 0.9228
2381.056460 0.9227 0.9226 0.9224 0.9220 0.9215
2385.958777 0.9211 0.9207 0.9201 0.9195 0.9188
2390.861094 0.9180 0.9172 0.9165 0.9157 0.9152
2395.763411 0.9147 0.9143 0.9139 0.9135 0.9132
2400.665727 0.9128 0.9127 0.9125 0.9124 0.9123
2405.568044 0.9122 0.9121 0.9120 0.9119 0.9117
2410.470361 0.9116 0.9116 0.9115 0.9114 0.9113
2415.372677 0.9113 0.9113 0.9113 0.9113 0.9113
2420.274994 0.9112 0.9112 0.9112 0.9112 0.9112
2425.177311 0.9111 0.9111 0.9111 0.9111 0.9111
2430.079628 0.9111 0.9111 0.9110 0.9110 0.9110
2434.981944 0.9110 0.9110 0.9110 0.9110 0.9110
2439.884261 0.9110 0.9110 0.9111 0.9111 0.9111
2444.786578 0.9111 0.9111 0.9111 0.9111 0.9111
2449.688894 0.9111 0.9111 0.9111 0.9111 0.9111
2454.591211 0.9111 0.9111 0.9111 0.9111 0.9110
2459.493528 0.9110 0.9110 0.9110 0.9110 0.9110
2464.395845 0.9110 0.9110 0.9110 0.9110 0.9109
2469.298161 0.9109 0.9109 0.9109 0.9109 0.9109
2474.200478 0.9109 0.9108 0.9108 0.9108 0.9108
2479.102795 0.9108 0.9107 0.9107 0.9107 0.9106
2484.005112 0.9105 0.9104 0.9104 0.9104 0.9103
2488.907428 0.9102 0.9101 0.9100 0.9100 0.9099
2493.809745 0.9098 0.9097 0.9096 0.9096 0.9095
2498.712062 0.9095 0.9093 0.9092 0.9091 0.9089
2503.614378 0.9088 0.9087 0.9085 0.9084 0.9082
2508.516695 0.9080 0.9079 0.9077 0.9076 0.9074
2513.419012 0.9073 0.9071 0.9068 0.9065 0.9063
2518.321329 0.9060 0.9057 0.9054 0.9051 0.9048
2523.223645 0.9045 0.9043 0.9040 0.9037 0.9034
2528.125962 0.9031 0.9028 0.9025 0.9023 0.9020
2533.028279 0.9016 0.9013 0.9009 0.9005 0.9001
2537.930595 0.8997 0.8993 0.8989 0.8985 0.8981
2542.832912 0.8977 0.8973 0.8969 0.8965 0.8961
2547.735229 0.8957 0.8952 0.8948 0.8944 0.8940
2552.637546 0.8937 0.8933 0.8928 0.8924 0.8920
2557.539862 0.8916 0.8911 0.8907 0.8903 0.8899
2562.442179 0.8894 0.8890 0.8886 0.8881 0.8877
2567.344496 0.8873 0.8869 0.8864 0.8860 0.8855
2572.246812 0.8851 0.8846 0.8842 0.8838 0.8834
2577.149129 0.8830 0.8825 0.8821 0.8816 0.8811
2582.051446 0.8807 0.8802 0.8798 0.8793 0.8788
2586.953763 0.8783 0.8779 0.8774 0.8769 0.8765
2591.856079 0.8761 0.8756 0.8751 0.8746 0.8742
2596.758396 0.8737 0.8732 0.8727 0.8723 0.8718
2601.660713 0.8713 0.8708 0.8704 0.8699 0.8694
2606.563029 0.8690 0.8685 0.8680 0.8675 0.8671
2611.465346 0.8666 0.8661 0.8657 0.8652 0.8647
2616.367663 0.8643 0.8638 0.8634 0.8630 0.8625
2621.269980 0.8621 0.8616 0.8612 0.8607 0.8603
2626.172296 0.8599 0.8594 0.8590 0.8585 0.8580
2631.074613 0.8576 0.8572 0.8568 0.8563 0.8559
2635.976930 0.8555 0.8550 0.8546 0.8541 0.8536
2640.879246 0.8532 0.8527 0.8522 0.8517 0.8512
2645.781563 0.8507 0.8503 0.8498 0.8493 0.8488
2650.683880 0.8483 0.8478 0.8473 0.8468 0.8463
2655.586197 0.8459 0.8454 0.8449 0.8444 0.8439
2660.488513 0.8433 0.8428 0.8423 0.8418 0.8412
2665.390830 0.8407 0.8401 0.8396 0.8391 0.8386
2670.293147 0.8380 0.8375 0.8369 0.8364 0.8358
2675.195463 0.8353 0.8347 0.8342 0.8336 0.8331
2680.097780 0.8325 0.8319 0.8314 0.8308 0.8303
2685.000097 0.8297 0.8292 0.8286 0.8281 0.8275
2689.902414 0.8269 0.8263 0.8258 0.8252 0.8247
2694.804730 0.8241 0.8235 0.8229 0.8223 0.8217
2699.707047 0.8211 0.8205 0.8199 0.8193 0.8187
2704.609364 0.8181 0.8175 0.8170 0.8164 0.8158
2709.511681 0.8152 0.8146 0.8140 0.8134 0.8128
2714.413997 0.8122 0.8116 0.8110 0.8105 0.8099
2719.316314 0.8093 0.8087 0.8081 0.8075 0.8069
2724.218631 0.8062 0.8056 0.8050 0.8044 0.8037
2729.120947 0.8031 0.8025 0.8019 0.8012 0.8006
2734.023264 0.8000 0.7994 0.7988 0.7982 0.7976
2738.925581 0.7970 0.7964 0.7959 0.7953 0.7947
2743.827898 0.7942 0.7936 0.7931 0.7926 0.7921
2748.730214 0.7915 0.7910 0.7904 0.7899 0.7894
2753.632531 0.7888 0.7883 0.7879 0.7874 0.7870
2758.534848 0.7866 0.7862 0.7858 0.7854 0.7850
2763.437164 0.7847 0.7845 0.7842 0.7840 0.7840
2768.339481 0.7840 0.7840 0.7841 0.7841 0.7842
2773.241798 0.7843 0.7845 0.7847 0.7849 0.7851
2778.144115 0.7853 0.7854 0.7856 0.7857 0.7858
2783.046431 0.7859 0.7860 0.7860 0.7861 0.7862
2787.948748 0.7863 0.7864 0.7865 0.7866 0.7867
2792.851065 0.7867 0.7867 0.7865 0.7860 0.7855
2797.753381 0.7850 0.7843 0.7837 0.7829 0.7822
2802.655698 0.7815 0.7807 0.7796 0.7783 0.7771
2807.558015 0.7758 0.7744 0.7730 0.7713 0.7691
2812.460332 0.7669 0.7647 0.7623 0.7599 0.7575
2817.362648 0.7550 0.7524 0.7499 0.7475 0.7452
2822.264965 0.7429 0.7407 0.7385 0.7363 0.7341
2827.167282 0.7318 0.7295 0.7272 0.7245 0.7218
2832.069598 0.7190 0.7156 0.7119 0.7081 0.7015
2836.971915 0.6924 0.6833 0.6751 0.6681 0.6613
2841.874232 0.6114 0.4709 0.2867 0.1161 0.0468
2846.776549 0.0445 0.0421 0.0402 0.0386 0.0370
2851.678865 0.0357 0.0346 0.0337 0.0328 0.0322
2856.581182 0.0316 0.0311 0.0306 0.0302 0.0297
2861.483499 0.0292 0.0287 0.0283 0.0279 0.0275
2866.385815 0.0271 0.0267 0.0263 0.0259 0.0255
2871.288132 0.0251 0.0247 0.0243 0.0239 0.0236
2876.190449 0.0232 0.0228 0.0224 0.0219 0.0215
2881.092766 0.0210 0.0206 0.0201 0.0196 0.0192
2885.995082 0.0187 0.0182 0.0177 0.0171 0.0166
2890.897399 0.0160 0.0154 0.0147 0.0141 0.0134
2895.799716 0.0128 0.0121 0.0115 0.0110 0.0105
2900.702032 0.0100 0.0095 0.0090 0.0085 0.0081
2905.604349 0.0076 0.0072 0.0067 0.0063 0.0059
2910.506666 0.0055 0.0051 0.0047 0.0043 0.0039
2915.408983 0.0035 0.0031 0.0027 0.0023 0.0018
2920.311299 0.0014 0.0010 0.0007 0.0004 0.0001
2925.213616 0.0000 0.0000 0.0000 0.0000 0.0001
2930.115933 0.0001 0.0001 0.0001 0.0001 0.0001
2935.018250 0.0001 0.0001 0.0001 0.0001 0.0001
2939.920566 0.0001 0.0001 0.0001 0.0001 0.0001
2944.822883 0.0001 0.0001 0.0001 0.0001 0.0001
2949.725200 0.0001 0.0001 0.0001 0.0001 0.0001
2954.627516 0.0001 0.0001 0.0001 0.0001 0.0001
2959.529833 0.0001 0.0001 0.0001 0.0001 0.0001
2964.432150 0.0001 0.0001 0.0010 0.0048 0.0093
2969.334467 0.0139 0.0190 0.0248 0.0307 0.0366
2974.236783 0.0424 0.0483 0.0541 0.0600 0.0659
2979.139100 0.0717 0.0775 0.0834 0.0892 0.0951
2984.041417 0.1009 0.1067 0.1125 0.1183 0.1241
2988.943733 0.1299 0.1357 0.1416 0.1473 0.1531
2993.846050 0.1589 0.1647 0.1704 0.1762 0.1820
2998.748367 0.1878 0.1935 0.1993 0.2051 0.2109
3003.650684 0.2166 0.2223 0.2281 0.2338 0.2395
3008.553000 0.2453 0.2510 0.2567 0.2624 0.2681
3013.455317 0.2739 0.2795 0.2852 0.2910 0.2967
3018.357634 0.3024 0.3080 0.3137 0.3194 0.3250
3023.259950 0.3307 0.3364 0.3421 0.3478 0.3534
3028.162267 0.3591 0.3647 0.3703 0.3891 0.4262
3033.064584 0.4688 0.5113 0.5405 0.5598 0.5774
3037.966901 0.5949 0.6022 0.6057 0.6090 0.6126
3042.869217 0.6173 0.6223 0.6273 0.6326 0.6386
3047.771534 0.6447 0.6509 0.6569 0.6630 0.6690
3052.673851 0.6750 0.6797 0.6835 0.6873 0.6911
3057.576167 0.6940 0.6965 0.6991 0.7017 0.7044
3062.478484 0.7070 0.7096 0.7123 0.7152 0.7180
3067.380801 0.7210 0.7238 0.7266 0.7294 0.7322
3072.283118 0.7347 0.7368 0.7389 0.7410 0.7431
3077.185434 0.7451 0.7473 0.7494 0.7516 0.7539
3082.087751 0.7562 0.7585 0.7609 0.7634 0.7658
3086.990068 0.7683 0.7703 0.7724 0.7745 0.7765
3091.892384 0.7782 0.7798 0.7815 0.7830 0.7841
3096.794701 0.7852 0.7863 0.7873 0.7882 0.7890
3101.697018 0.7899 0.7907 0.7915 0.7924 0.7932
3106.599335 0.7940 0.7949 0.7957 0.7965 0.7973
3111.501651 0.7981 0.7989 0.7996 0.8003 0.8008
3116.403968 0.8014 0.8019 0.8025 0.8030 0.8036
3121.306285 0.8041 0.8047 0.8052 0.8058 0.8063
3126.208601 0.8068 0.8072 0.8076 0.8080 0.8083
3131.110918 0.8086 0.8089 0.8092 0.8095 0.8098
3136.013235 0.8101 0.8104 0.8107 0.8109 0.8113
3140.915552 0.8115 0.8117 0.8119 0.8121 0.8122
3145.817868 0.8123 0.8124 0.8124 0.8125 0.8125
3150.720185 0.8125 0.8125 0.8124 0.8124 0.8123
3155.622502 0.8122 0.8121 0.8121 0.8120 0.8119
3160.524818 0.8119 0.8118 0.8116 0.8115 0.8113
3165.427135 0.8119 0.8113 0.8109 0.8107 0.8106
3170.329452 0.8104 0.8102 0.8100 0.8098 0.8096
3175.231769 0.8094 0.8092 0.8090 0.8087 0.8085
3180.134085 0.8081 0.8078 0.8075 0.8072 0.8069
3185.036402 0.8064 0.8059 0.8053 0.8047 0.8041
3189.938719 0.8031 0.8021 0.8011 0.8001 0.7990
3194.841036 0.7978 0.7967 0.7955 0.7945 0.7935
3199.743352 0.7924 0.7914 0.7904 0.7894 0.7884
3204.645669 0.7874 0.7863 0.7852 0.7842 0.7831
3209.547986 0.7820 0.7808 0.7797 0.7785 0.7773
3214.450302 0.7760 0.7748 0.7736 0.7724 0.7711
3219.352619 0.7698 0.7685 0.7672 0.7658 0.7644
3224.254936 0.7631 0.7618 0.7604 0.7591 0.7578
3229.157253 0.7565 0.7551 0.7538 0.7524 0.7511
3234.059569 0.7498 0.7484 0.7469 0.7455 0.7441
3238.961886 0.7427 0.7412 0.7397 0.7382 0.7367
3243.864203 0.7352 0.7337 0.7322 0.7288 0.7210
3248.766519 0.7107 0.7005 0.6905 0.6821 0.6751
3253.668836 0.6682 0.6612 0.6543 0.6473 0.6403
3258.571153 0.6334 0.6265 0.6195 0.6126 0.6057
3263.473470 0.5988 0.5919 0.5849 0.5780 0.5711
3268.375786 0.5642 0.5573 0.5504 0.5435 0.5366
3273.278103 0.5297 0.5228 0.5159 0.5090 0.5021
3278.180420 0.4953 0.4884 0.4816 0.4747 0.4679
3283.082736 0.4611 0.4542 0.4473 0.4406 0.4337
3287.985053 0.4269 0.4201 0.4133 0.4065 0.3997
3292.887370 0.3928 0.3861 0.3793 0.3724 0.3657
3297.789687 0.3589 0.3521 0.3454 0.3386 0.3319
3302.692003 0.3264 0.3248 0.3233 0.3217 0.3203
3307.594320 0.3198 0.3196 0.3195 0.3193 0.3191
3312.496637 0.3189 0.3187 0.3186 0.3184 0.3184
3317.398953 0.3184 0.3184 0.3184 0.3185 0.3186
3322.301270 0.3187 0.3188 0.3189 0.3192 0.3196
3327.203587 0.3199 0.3201 0.3208 0.3232 0.3254
3332.105904 0.3275 0.3301 0.3349 0.3408 0.3467
3337.008220 0.3525 0.3584 0.3642 0.3701 0.3760
3341.910537 0.3819 0.3876 0.3935 0.3994 0.4052
3346.812854 0.4111 0.4169 0.4227 0.4286 0.4344
3351.715170 0.4402 0.4460 0.4518 0.4576 0.4634
3356.617487 0.4693 0.4751 0.4808 0.4866 0.4924
3361.519804 0.4982 0.5040 0.5098 0.5156 0.5213
3366.422121 0.5271 0.5328 0.5386 0.5443 0.5501
3371.324437 0.5559 0.5616 0.5678 0.5868 0.6126
3376.226754 0.6386 0.6645 0.6850 0.6925 0.6956
3381.129071 0.6986 0.7016 0.7040 0.7060 0.7078
3386.031387 0.7096 0.7114 0.7164 0.7225 0.7287
3390.933704 0.7349 0.7403 0.7433 0.7459 0.7485
3395.836021 0.7510 0.7535 0.7561 0.7586 0.7611
3400.738338 0.7636 0.7658 0.7678 0.7697 0.7717
3405.640654 0.7738 0.7754 0.7770 0.7786 0.7802
3410.542971 0.7821 0.7844 0.7868 0.7893 0.7916
3415.445288 0.7941 0.7969 0.7996 0.8023 0.8050
3420.347605 0.8068 0.8081 0.8094 0.8107 0.8120
3425.249921 0.8133 0.8146 0.8159 0.8171 0.8184
3430.152238 0.8195 0.8207 0.8219 0.8230 0.8240
3435.054555 0.8248 0.8257 0.8265 0.8272 0.8280
3439.956871 0.8288 0.8296 0.8303 0.8311 0.8318
3444.859188 0.8326 0.8334 0.8342 0.8351 0.8359
3449.761505 0.8367 0.8375 0.8383 0.8390 0.8398
3454.663822 0.8404 0.8410 0.8417 0.8422 0.8426
3459.566138 0.8429 0.8432 0.8435 0.8439 0.8442
3464.468455 0.8445 0.8448 0.8451 0.8454 0.8457
3469.370772 0.8460 0.8463 0.8466 0.8469 0.8472
3474.273088 0.8475 0.8478 0.8480 0.8483 0.8486
3479.175405 0.8488 0.8490 0.8492 0.8494 0.8497
3484.077722 0.8499 0.8501 0.8503 0.8506 0.8508
3488.980039 0.8510 0.8512 0.8514 0.8516 0.8518
3493.882355 0.8520 0.8522 0.8524 0.8526 0.8529
3498.784672 0.8531 0.8533 0.8535 0.8537 0.8538
3503.686989 0.8540 0.8542 0.8543 0.8545 0.8546
3508.589305 0.8547 0.8549 0.8550 0.8552 0.8553
3513.491622 0.8554 0.8556 0.8557 0.8558 0.8560
3518.393939 0.8561 0.8563 0.8564 0.8566 0.8567
3523.296256 0.8568 0.8570 0.8571 0.8572 0.8574
3528.198572 0.8575 0.8577 0.8578 0.8579 0.8581
3533.100889 0.8582 0.8583 0.8585 0.8586 0.8588
3538.003206 0.8589 0.8591 0.8593 0.8594 0.8595
3542.905522 0.8596 0.8597 0.8597 0.8598 0.8599
3547.807839 0.8600 0.8601 0.8602 0.8603 0.8604
3552.710156 0.8605 0.8606 0.8607 0.8608 0.8609
3557.612473 0.8609 0.8610 0.8611 0.8612 0.8613
3562.514789 0.8614 0.8615 0.8616 0.8617 0.8618
3567.417106 0.8618 0.8619 0.8620 0.8621 0.8622
3572.319423 0.8623 0.8624 0.8624 0.8625 0.8626
3577.221739 0.8627 0.8627 0.8628 0.8629 0.8630
3582.124056 0.8630 0.8631 0.8632 0.8633 0.8633
3587.026373 0.8634 0.8635 0.8635 0.8636 0.8636
3591.928690 0.8637 0.8638 0.8639 0.8639 0.8640
3596.831006 0.8641 0.8642 0.8642 0.8643 0.8644
3601.733323 0.8645 0.8645 0.8646 0.8647 0.8648
3606.635640 0.8648 0.8649 0.8650 0.8650 0.8651
3611.537956 0.8652 0.8653 0.8653 0.8654 0.8655
3616.440273 0.8656 0.8656 0.8657 0.8657 0.8658
3621.342590 0.8658 0.8659 0.8659 0.8660 0.8660
3626.244907 0.8661 0.8662 0.8662 0.8662 0.8663
3631.147223 0.8663 0.8663 0.8664 0.8664 0.8665
3636.049540 0.8666 0.8666 0.8667 0.8667 0.8667
3640.951857 0.8668 0.8668 0.8668 0.8669 0.8669
3645.854174 0.8670 0.8670 0.8670 0.8671 0.8671
3650.756490 0.8672 0.8672 0.8673 0.8673 0.8674
3655.658807 0.8674 0.8675 0.8675 0.8675 0.8676
3660.561124 0.8676 0.8676 0.8676 0.8676 0.8676
3665.463440 0.8673 0.8676 0.8676 0.8676 0.8676
3670.365757 0.8675 0.8675 0.8675 0.8675 0.8675
3675.268074 0.8675 0.8674 0.8674 0.8674 0.8674
3680.170391 0.8674 0.8674 0.8674 0.8674 0.8674
3685.072707 0.8674 0.8674 0.8673 0.8673 0.8673
3689.975024 0.8673 0.8673 0.8673 0.8672 0.8672
3694.877341 0.8672 0.8672 0.8672 0.8672 0.8672
3699.779657 0.8672 0.8672 0.8672 0.8671 0.8671
3704.681974 0.8671 0.8671 0.8671 0.8671 0.8670
3709.584291 0.8670 0.8670 0.8670 0.8670 0.8669
3714.486608 0.8669 0.8669 0.8669 0.8669 0.8669
3719.388924 0.8668 0.8668 0.8668 0.8668 0.8668
3724.291241 0.8668 0.8667 0.8667 0.8667 0.8666
3729.193558 0.8666 0.8665 0.8665 0.8665 0.8665
3734.095874 0.8665 0.8665 0.8664 0.8664 0.8664
3738.998191 0.8663 0.8663 0.8663 0.8662 0.8662
3743.900508 0.8662 0.8661 0.8661 0.8661 0.8660
3748.802825 0.8660 0.8659 0.8659 0.8658 0.8657
3753.705141 0.8657 0.8656 0.8656 0.8655 0.8655
3758.607458 0.8654 0.8654 0.8654 0.8653 0.8653
3763.509775 0.8653 0.8652 0.8652 0.8651 0.8651
3768.412091 0.8650 0.8649 0.8649 0.8648 0.8648
3773.314408 0.8647 0.8647 0.8646 0.8646 0.8646
3778.216725 0.8645 0.8645 0.8645 0.8644 0.8644
3783.119042 0.8643 0.8643 0.8642 0.8642 0.8642
3788.021358 0.8642 0.8642 0.8643 0.8643 0.8643
3792.923675 0.8644 0.8644 0.8645 0.8645 0.8646
3797.825992 0.8646 0.8647 0.8647 0.8648 0.8649
3802.728308 0.8649 0.8650 0.8650 0.8650 0.8651
3807.630625 0.8651 0.8651 0.8652 0.8652 0.8652
3812.532942 0.8653 0.8653 0.8653 0.8654 0.8654
3817.435259 0.8655 0.8655 0.8656 0.8656 0.8656
3822.337575 0.8655 0.8654 0.8654 0.8653 0.8652
3827.239892 0.8651 0.8650 0.8649 0.8648 0.8647
3832.142209 0.8646 0.8644 0.8643 0.8642 0.8641
3837.044525 0.8639 0.8638 0.8637 0.8635 0.8633
3841.946842 0.8632 0.8630 0.8629 0.8627 0.8625
3846.849159 0.8624 0.8622 0.8621 0.8620 0.8618
3851.751476 0.8616 0.8615 0.8613 0.8611 0.8609
3856.653792 0.8608 0.8606 0.8605 0.8603 0.8602
3861.556109 0.8600 0.8599 0.8597 0.8595 0.8594
3866.458426 0.8592 0.8590 0.8588 0.8586 0.8585
3871.360742 0.8583 0.8581 0.8579 0.8578 0.8576
3876.263059 0.8574 0.8572 0.8570 0.8569 0.8567
3881.165376 0.8565 0.8564 0.8562 0.8561 0.8560
3886.067693 0.8558 0.8557 0.8556 0.8555 0.8554
3890.970009 0.8553 0.8552 0.8551 0.8550 0.8549
3895.872326 0.8548 0.8547 0.8545 0.8544 0.8544
3900.774643 0.8543 0.8542 0.8540 0.8540 0.8539
3905.676960 0.8539 0.8538 0.8538 0.8537 0.8537
3910.579276 0.8536 0.8536 0.8535 0.8535 0.8534
3915.481593 0.8534 0.8533 0.8533 0.8533 0.8532
3920.383910 0.8532 0.8531 0.8531 0.8530 0.8530
3925.286226 0.8529 0.8529 0.8528 0.8528 0.8527
3930.188543 0.8527 0.8526 0.8526 0.8525 0.8525
3935.090860 0.0000
##END=
