##TITLE=Carbamic acid, ethyldithio-, compound with ethylamine
##JCAMP-DX=4.24
##DATA TYPE=INFRARED SPECTRUM
##CLASS=COBLENTZ III
##ORIGIN=DOW CHEMICAL COMPANY
##OWNER=COBLENTZ SOC.
Collection (C) 2018 copyright by the U.S. Secretary of Commerce
on behalf of the United States of America. All rights reserved.
##DATE=1965/08/04
##NAMES=ethylcarbamodithioic acid compound with ethanamine (1:1)
##MOLFORM=C5 H14 N2 S2
##SOURCE REFERENCE=COBLENTZ NO. 09211
##$NIST ID=B6009211
##$NIST SOURCE=COBLENTZ
##$NIST IMAGE=cob9211
##SPECTROMETER/DATA SYSTEM=BECKMAN IR-9 (GRATING)
##INSTRUMENT PARAMETERS=ORDER CHANGES: 670, 1200, 2000 CM^-^1
##STATE=LIQUID (NEAT)
$$ DECOMPOSES UNDER HEAT LAMP
##PATH LENGTH=SMEAR
$$SPECTRAL CONTAMINATION DUE TO H2O AROUND 2000 CM^-^1
##SAMPLING PROCEDURE=TRANSMISSION
##RESOLUTION=2
##DATA PROCESSING=DIGITIZED BY COBLENTZ SOCIETY (BATCH I) FROM HARD COPY
##XUNITS=1/CM
##YUNITS=TRANSMITTANCE
##XLABEL=Wavenumbers (cm-1)
##YLABEL=% Transmission
##XFACTOR=1
##YFACTOR=1
##DELTAX=1
##FIRSTX=405
##LASTX=3800
##FIRSTY=0.3253
##MAXX=3800
##MINX=405
##MAXY=0.8911
##MINY=0.0177
##NPOINTS=3396
##XYDATA=(X++(Y..Y))
405.000000 0.3253 0.3178 0.3130 0.3081 0.3033
410.000000 0.3003 0.2982 0.2960 0.2938 0.2923
415.000000 0.2915 0.2908 0.2903 0.2903 0.2906
420.000000 0.2911 0.2919 0.2884 0.2962 0.3137
425.000000 0.3324 0.3402 0.3468 0.3534 0.3600
430.000000 0.3664 0.3726 0.3787 0.3849 0.3909
435.000000 0.3966 0.4023 0.4059 0.4084 0.4112
440.000000 0.4119 0.4125 0.4130 0.4128 0.4127
445.000000 0.4126 0.4124 0.4123 0.4120 0.4116
450.000000 0.4112 0.4110 0.4110 0.4115 0.4135
455.000000 0.4174 0.4228 0.4282 0.4335 0.4388
460.000000 0.4449 0.4510 0.4574 0.4627 0.4679
465.000000 0.4737 0.4797 0.4831 0.4856 0.4890
470.000000 0.4907 0.4916 0.4918 0.4918 0.4918
475.000000 0.4914 0.4938 0.4903 0.4896 0.4886
480.000000 0.4875 0.4865 0.4852 0.4838 0.4824
485.000000 0.4810 0.4798 0.4786 0.4773 0.4760
490.000000 0.4748 0.4735 0.4722 0.4723 0.4725
495.000000 0.4729 0.4735 0.4741 0.4753 0.4767
500.000000 0.4782 0.4804 0.4826 0.4847 0.4864
505.000000 0.4880 0.4897 0.4908 0.4910 0.4905
510.000000 0.4897 0.4880 0.4844 0.4791 0.4735
515.000000 0.4665 0.4586 0.4526 0.4465 0.4416
520.000000 0.4402 0.4395 0.4397 0.4409 0.4412
525.000000 0.4444 0.4500 0.4564 0.4643 0.4727
530.000000 0.4819 0.4888 0.4952 0.5012 0.5048
535.000000 0.5083 0.5099 0.5153 0.5112 0.5112
540.000000 0.5110 0.5108 0.5105 0.5100 0.5096
545.000000 0.5091 0.5079 0.5067 0.5048 0.5027
550.000000 0.5010 0.4997 0.4983 0.4975 0.4966
555.000000 0.4958 0.4952 0.4950 0.4948 0.4946
560.000000 0.4944 0.4942 0.4940 0.4939 0.4938
565.000000 0.4938 0.4938 0.4940 0.4942 0.4953
570.000000 0.4959 0.4965 0.4979 0.4994 0.5009
575.000000 0.5025 0.5052 0.5079 0.5105 0.5144
580.000000 0.5188 0.5231 0.5280 0.5331 0.5371
585.000000 0.5408 0.5427 0.5441 0.5441 0.5440
590.000000 0.5436 0.5432 0.5449 0.5417 0.5399
595.000000 0.5374 0.5342 0.5309 0.5264 0.5219
600.000000 0.5172 0.5126 0.5079 0.5025 0.4965
605.000000 0.4905 0.4843 0.4778 0.4717 0.4660
610.000000 0.4605 0.4556 0.4514 0.4486 0.4480
615.000000 0.4472 0.4488 0.4499 0.4535 0.4576
620.000000 0.4618 0.4673 0.4734 0.4819 0.4912
625.000000 0.4966 0.5015 0.5064 0.5100 0.5128
630.000000 0.5154 0.5164 0.5174 0.5184 0.5194
635.000000 0.5201 0.5202 0.5202 0.5201 0.5200
640.000000 0.5196 0.5192 0.5186 0.5175 0.5164
645.000000 0.5153 0.5141 0.5117 0.5094 0.5071
650.000000 0.5047 0.5023 0.4998 0.4974 0.4949
655.000000 0.4924 0.4892 0.4858 0.4823 0.4789
660.000000 0.4756 0.4725 0.4731 0.4748 0.4752
665.000000 0.4762 0.4779 0.4798 0.4817 0.4838
670.000000 0.4858 0.4880 0.4902 0.4925 0.4950
675.000000 0.4978 0.5007 0.5034 0.5059 0.5084
680.000000 0.5109 0.5131 0.5146 0.5160 0.5176
685.000000 0.5190 0.5198 0.5206 0.5214 0.5222
690.000000 0.5226 0.5227 0.5228 0.5230 0.5231
695.000000 0.5233 0.5236 0.5239 0.5243 0.5247
700.000000 0.5250 0.5255 0.5264 0.5274 0.5283
705.000000 0.5292 0.5310 0.5328 0.5345 0.5362
710.000000 0.5381 0.5405 0.5433 0.5460 0.5488
715.000000 0.5516 0.5544 0.5571 0.5598 0.5624
720.000000 0.5650 0.5676 0.5702 0.5728 0.5754
725.000000 0.5781 0.5805 0.5829 0.5853 0.5877
730.000000 0.5902 0.5926 0.5950 0.5974 0.5999
735.000000 0.6023 0.6047 0.6072 0.6100 0.6129
740.000000 0.6157 0.6186 0.6214 0.6243 0.6271
745.000000 0.6300 0.6329 0.6354 0.6376 0.6398
750.000000 0.6419 0.6442 0.6464 0.6486 0.6508
755.000000 0.6521 0.6535 0.6549 0.6561 0.6575
760.000000 0.6589 0.6603 0.6612 0.6617 0.6621
765.000000 0.6625 0.6628 0.6634 0.6638 0.6638
770.000000 0.6638 0.6631 0.6625 0.6618 0.6601
775.000000 0.6578 0.6554 0.6525 0.6482 0.6437
780.000000 0.6379 0.6294 0.6122 0.5885 0.5645
785.000000 0.5406 0.5167 0.4928 0.4688 0.4449
790.000000 0.4210 0.3970 0.3778 0.3580 0.3018
795.000000 0.2921 0.2862 0.2831 0.2822 0.2828
800.000000 0.2856 0.2824 0.3259 0.3540 0.3821
805.000000 0.4101 0.4381 0.4660 0.4941 0.5176
810.000000 0.5346 0.5559 0.5777 0.5962 0.6149
815.000000 0.6294 0.6440 0.6580 0.6675 0.6769
820.000000 0.6865 0.6950 0.7026 0.7103 0.7180
825.000000 0.7225 0.7261 0.7299 0.7336 0.7360
830.000000 0.7378 0.7395 0.7412 0.7431 0.7448
835.000000 0.7465 0.7476 0.7490 0.7503 0.7515
840.000000 0.7528 0.7542 0.7549 0.7555 0.7561
845.000000 0.7567 0.7572 0.7601 0.7581 0.7578
850.000000 0.7572 0.7561 0.7548 0.7528 0.7507
855.000000 0.7486 0.7462 0.7440 0.7415 0.7393
860.000000 0.7371 0.7349 0.7326 0.7305 0.7276
865.000000 0.7236 0.7195 0.7154 0.7061 0.6930
870.000000 0.6749 0.6568 0.6388 0.6208 0.6027
875.000000 0.5847 0.5666 0.5486 0.5305 0.5125
880.000000 0.4944 0.4780 0.4356 0.4018 0.3824
885.000000 0.3684 0.3544 0.3393 0.3256 0.3152
890.000000 0.3067 0.3040 0.3013 0.3017 0.3023
895.000000 0.3023 0.3083 0.3284 0.3530 0.3776
900.000000 0.4021 0.4266 0.4510 0.4756 0.5002
905.000000 0.5247 0.5492 0.5737 0.5982 0.6165
910.000000 0.6269 0.6370 0.6471 0.6556 0.6639
915.000000 0.6686 0.6732 0.6749 0.6761 0.6774
920.000000 0.6775 0.6776 0.6772 0.6758 0.6746
925.000000 0.6718 0.6665 0.6603 0.6546 0.6465
930.000000 0.6376 0.6259 0.6141 0.6007 0.5870
935.000000 0.5724 0.5568 0.5412 0.5007 0.4703
940.000000 0.4400 0.4097 0.3794 0.3491 0.3188
945.000000 0.2884 0.2582 0.2279 0.1976 0.1673
950.000000 0.1369 0.1022 0.0876 0.0745 0.0625
955.000000 0.0565 0.0505 0.0473 0.0453 0.0432
960.000000 0.0413 0.0411 0.0410 0.0409 0.0414
965.000000 0.0430 0.0450 0.0482 0.0541 0.0608
970.000000 0.0730 0.1077 0.1170 0.1264 0.1380
975.000000 0.1528 0.1686 0.1848 0.2009 0.2169
980.000000 0.2330 0.2491 0.2652 0.2813 0.2973
985.000000 0.3134 0.3295 0.3456 0.3616 0.3777
990.000000 0.3938 0.4099 0.4240 0.4376 0.4510
995.000000 0.4643 0.4839 0.5026 0.5132 0.5239
1000.000000 0.5345 0.5452 0.5603 0.5760 0.5920
1005.000000 0.6014 0.6107 0.6201 0.6294 0.6386
1010.000000 0.6476 0.6568 0.6660 0.6711 0.6760
1015.000000 0.6808 0.6856 0.6891 0.6914 0.6937
1020.000000 0.6960 0.6971 0.6975 0.6962 0.6950
1025.000000 0.6930 0.6903 0.6862 0.6818 0.6756
1030.000000 0.6601 0.6372 0.6141 0.5910 0.5680
1035.000000 0.5450 0.5219 0.4989 0.4758 0.4527
1040.000000 0.4297 0.4066 0.3859 0.3758 0.3688
1045.000000 0.3647 0.3639 0.3640 0.3632 0.3653
1050.000000 0.3676 0.3739 0.3806 0.3971 0.4219
1055.000000 0.4474 0.4645 0.4816 0.4988 0.5159
1060.000000 0.5330 0.5501 0.5673 0.5844 0.6003
1065.000000 0.6103 0.6192 0.6282 0.6481 0.6656
1070.000000 0.6712 0.6765 0.6798 0.6822 0.6843
1075.000000 0.6848 0.6854 0.6860 0.6871 0.6857
1080.000000 0.6848 0.6838 0.6821 0.6757 0.6685
1085.000000 0.6565 0.6486 0.6407 0.6335 0.6264
1090.000000 0.6192 0.6119 0.6046 0.5989 0.5959
1095.000000 0.5956 0.5967 0.5976 0.5992 0.6018
1100.000000 0.6062 0.6188 0.6308 0.6387 0.6443
1105.000000 0.6500 0.6538 0.6575 0.6594 0.6608
1110.000000 0.6622 0.6628 0.6630 0.6642 0.6633
1115.000000 0.6628 0.6625 0.6619 0.6611 0.6601
1120.000000 0.6589 0.6572 0.6558 0.6542 0.6517
1125.000000 0.6490 0.6465 0.6441 0.6415 0.6385
1130.000000 0.6355 0.6322 0.6284 0.6246 0.6208
1135.000000 0.6169 0.6119 0.6070 0.6020 0.5971
1140.000000 0.5912 0.5854 0.5795 0.5736 0.5656
1145.000000 0.5552 0.5448 0.5292 0.5086 0.4389
1150.000000 0.4100 0.3809 0.3520 0.3230 0.2941
1155.000000 0.2652 0.2362 0.2072 0.1783 0.1492
1160.000000 0.1332 0.1344 0.1357 0.1811 0.2299
1165.000000 0.2788 0.3276 0.3764 0.4681 0.4868
1170.000000 0.4999 0.5130 0.5268 0.5348 0.5424
1175.000000 0.5458 0.5477 0.5497 0.5497 0.5497
1180.000000 0.5486 0.5525 0.5425 0.5380 0.5322
1185.000000 0.5266 0.5234 0.5202 0.5154 0.5100
1190.000000 0.5032 0.4995 0.4962 0.4931 0.4916
1195.000000 0.4901 0.4886 0.4875 0.4876 0.4876
1200.000000 0.4880 0.4892 0.4910 0.4933 0.4955
1205.000000 0.4979 0.5007 0.5035 0.5062 0.5085
1210.000000 0.5107 0.5121 0.5124 0.5127 0.5126
1215.000000 0.5124 0.5117 0.5101 0.5059 0.5010
1220.000000 0.4974 0.4946 0.4935 0.4943 0.4962
1225.000000 0.5000 0.5048 0.5087 0.5117 0.5146
1230.000000 0.5158 0.5168 0.5168 0.5168 0.5168
1235.000000 0.5168 0.5157 0.5137 0.5103 0.5058
1240.000000 0.4985 0.4902 0.4831 0.4738 0.4660
1245.000000 0.4618 0.4575 0.4532 0.4489 0.4445
1250.000000 0.4399 0.4354 0.4307 0.4255 0.4203
1255.000000 0.4150 0.4098 0.4046 0.3993 0.3939
1260.000000 0.3886 0.3832 0.3777 0.3714 0.3653
1265.000000 0.3587 0.3516 0.3437 0.3309 0.3209
1270.000000 0.3124 0.3042 0.2971 0.2900 0.2810
1275.000000 0.2712 0.2577 0.2376 0.2233 0.2104
1280.000000 0.1977 0.1853 0.1733 0.1670 0.1608
1285.000000 0.1587 0.1566 0.1557 0.1556 0.1557
1290.000000 0.1557 0.1610 0.1673 0.1736 0.1800
1295.000000 0.1864 0.1927 0.1991 0.2054 0.2118
1300.000000 0.2142 0.2134 0.2196 0.2116 0.2056
1305.000000 0.1999 0.1965 0.1935 0.1910 0.1884
1310.000000 0.1858 0.1839 0.1821 0.1812 0.1812
1315.000000 0.1796 0.1818 0.1826 0.1879 0.2033
1320.000000 0.2185 0.2339 0.2493 0.2646 0.2799
1325.000000 0.2952 0.3106 0.3259 0.3412 0.3564
1330.000000 0.3718 0.3872 0.4026 0.4109 0.4184
1335.000000 0.4221 0.4257 0.4286 0.4310 0.4328
1340.000000 0.4345 0.4364 0.4386 0.4408 0.4448
1345.000000 0.4510 0.4575 0.4649 0.4670 0.4684
1350.000000 0.4685 0.4686 0.4681 0.4653 0.4602
1355.000000 0.4525 0.4458 0.4395 0.4279 0.4136
1360.000000 0.3992 0.3849 0.3705 0.3562 0.3418
1365.000000 0.3275 0.3089 0.2935 0.2807 0.2717
1370.000000 0.2695 0.2695 0.2694 0.2692 0.2727
1375.000000 0.2783 0.2868 0.2954 0.3039 0.3124
1380.000000 0.3209 0.3295 0.3380 0.3466 0.3546
1385.000000 0.3623 0.3684 0.3699 0.3712 0.3714
1390.000000 0.3736 0.3709 0.3687 0.3578 0.3462
1395.000000 0.3346 0.3230 0.3114 0.3090 0.3090
1400.000000 0.3091 0.3438 0.3922 0.4406 0.4774
1405.000000 0.4870 0.4947 0.5022 0.5092 0.5162
1410.000000 0.5221 0.5273 0.5325 0.5364 0.5393
1415.000000 0.5423 0.5445 0.5460 0.5469 0.5468
1420.000000 0.5468 0.5468 0.5462 0.5453 0.5429
1425.000000 0.5400 0.5368 0.5309 0.5248 0.5184
1430.000000 0.5052 0.4918 0.4784 0.4649 0.4515
1435.000000 0.4380 0.4246 0.4112 0.3977 0.3843
1440.000000 0.3708 0.3574 0.3440 0.3305 0.3171
1445.000000 0.3037 0.2902 0.2768 0.2633 0.2499
1450.000000 0.2365 0.2248 0.2045 0.1983 0.1968
1455.000000 0.1965 0.1965 0.1970 0.1981 0.2010
1460.000000 0.2046 0.2084 0.2116 0.2132 0.2124
1465.000000 0.2113 0.2088 0.2036 0.1970 0.1872
1470.000000 0.1783 0.1713 0.1620 0.1468 0.1319
1475.000000 0.1248 0.1179 0.1117 0.1055 0.0992
1480.000000 0.0934 0.0876 0.0815 0.0753 0.0719
1485.000000 0.0685 0.0654 0.0633 0.0613 0.0593
1490.000000 0.0583 0.0576 0.0569 0.0565 0.0565
1495.000000 0.0565 0.0570 0.0576 0.0582 0.0599
1500.000000 0.0616 0.0633 0.0649 0.0673 0.0697
1505.000000 0.0720 0.0746 0.0776 0.0806 0.0836
1510.000000 0.0865 0.0897 0.0937 0.0975 0.1014
1515.000000 0.1055 0.1104 0.1154 0.1204 0.1268
1520.000000 0.1360 0.1452 0.1544 0.1635 0.1728
1525.000000 0.1820 0.1912 0.1995 0.2061 0.2127
1530.000000 0.2206 0.2284 0.3025 0.3184 0.3296
1535.000000 0.3371 0.3410 0.3448 0.3476 0.3493
1540.000000 0.3502 0.3516 0.3510 0.3509 0.3499
1545.000000 0.3475 0.3402 0.3300 0.3198 0.3100
1550.000000 0.3012 0.2921 0.2815 0.2733 0.2671
1555.000000 0.2610 0.2534 0.2356 0.2248 0.2200
1560.000000 0.2180 0.2181 0.2169 0.2202 0.2235
1565.000000 0.2309 0.2463 0.2627 0.2734 0.2841
1570.000000 0.2923 0.2998 0.3089 0.3182 0.3242
1575.000000 0.3300 0.3359 0.3418 0.3484 0.3548
1580.000000 0.3598 0.3644 0.3689 0.3729 0.3759
1585.000000 0.3782 0.3793 0.3803 0.3812 0.3823
1590.000000 0.3823 0.3823 0.3825 0.3827 0.3829
1595.000000 0.3830 0.3834 0.3838 0.3842 0.3845
1600.000000 0.3849 0.3855 0.3860 0.3875 0.3889
1605.000000 0.3908 0.3927 0.3946 0.3966 0.3990
1610.000000 0.4012 0.4040 0.4073 0.4106 0.4138
1615.000000 0.4171 0.4204 0.4248 0.4297 0.4346
1620.000000 0.4395 0.4444 0.4491 0.4530 0.4569
1625.000000 0.4608 0.4647 0.4697 0.4751 0.4804
1630.000000 0.4858 0.4912 0.4969 0.5026 0.5092
1635.000000 0.5142 0.5192 0.5242 0.5291 0.5353
1640.000000 0.5427 0.5500 0.5574 0.5644 0.5699
1645.000000 0.5753 0.5808 0.5862 0.5916 0.5971
1650.000000 0.6033 0.6100 0.6167 0.6226 0.6269
1655.000000 0.6312 0.6356 0.6399 0.6445 0.6496
1660.000000 0.6549 0.6598 0.6647 0.6695 0.6744
1665.000000 0.6814 0.6899 0.6940 0.6981 0.7021
1670.000000 0.7062 0.7104 0.7144 0.7182 0.7217
1675.000000 0.7254 0.7297 0.7339 0.7380 0.7415
1680.000000 0.7451 0.7486 0.7521 0.7557 0.7578
1685.000000 0.7601 0.7622 0.7645 0.7667 0.7688
1690.000000 0.7704 0.7718 0.7735 0.7751 0.7765
1695.000000 0.7782 0.7798 0.7807 0.7817 0.7825
1700.000000 0.7836 0.7846 0.7855 0.7865 0.7878
1705.000000 0.7889 0.7901 0.7911 0.7924 0.7940
1710.000000 0.7957 0.7975 0.7992 0.8008 0.8025
1715.000000 0.8040 0.8055 0.8069 0.8086 0.8101
1720.000000 0.8117 0.8132 0.8148 0.8162 0.8178
1725.000000 0.8194 0.8210 0.8225 0.8233 0.8241
1730.000000 0.8249 0.8256 0.8259 0.8263 0.8266
1735.000000 0.8268 0.8271 0.8275 0.8278 0.8282
1740.000000 0.8285 0.8288 0.8289 0.8291 0.8292
1745.000000 0.8293 0.8295 0.8296 0.8296 0.8296
1750.000000 0.8296 0.8296 0.8296 0.8297 0.8297
1755.000000 0.8297 0.8301 0.8302 0.8303 0.8305
1760.000000 0.8305 0.8305 0.8305 0.8305 0.8305
1765.000000 0.8304 0.8304 0.8304 0.8303 0.8303
1770.000000 0.8303 0.8302 0.8302 0.8303 0.8305
1775.000000 0.8307 0.8308 0.8310 0.8312 0.8313
1780.000000 0.8316 0.8320 0.8325 0.8328 0.8333
1785.000000 0.8338 0.8342 0.8351 0.8360 0.8368
1790.000000 0.8381 0.8393 0.8406 0.8416 0.8425
1795.000000 0.8435 0.8445 0.8454 0.8464 0.8473
1800.000000 0.8483 0.8490 0.8497 0.8504 0.8511
1805.000000 0.8518 0.8518 0.8518 0.8516 0.8514
1810.000000 0.8511 0.8509 0.8507 0.8504 0.8502
1815.000000 0.8499 0.8497 0.8495 0.8494 0.8493
1820.000000 0.8491 0.8490 0.8488 0.8486 0.8484
1825.000000 0.8482 0.8481 0.8478 0.8477 0.8475
1830.000000 0.8471 0.8467 0.8463 0.8458 0.8454
1835.000000 0.8450 0.8446 0.8442 0.8438 0.8433
1840.000000 0.8428 0.8425 0.8421 0.8417 0.8412
1845.000000 0.8406 0.8399 0.8392 0.8386 0.8378
1850.000000 0.8373 0.8366 0.8359 0.8353 0.8346
1855.000000 0.8340 0.8333 0.8325 0.8320 0.8313
1860.000000 0.8307 0.8299 0.8291 0.8282 0.8274
1865.000000 0.8265 0.8257 0.8248 0.8240 0.8231
1870.000000 0.8223 0.8214 0.8206 0.8197 0.8189
1875.000000 0.8181 0.8171 0.8164 0.8155 0.8146
1880.000000 0.8137 0.8128 0.8119 0.8111 0.8101
1885.000000 0.8093 0.8084 0.8075 0.8065 0.8051
1890.000000 0.8040 0.8025 0.8011 0.7998 0.7984
1895.000000 0.7969 0.7956 0.7942 0.7928 0.7912
1900.000000 0.7901 0.7891 0.7880 0.7868 0.7858
1905.000000 0.7847 0.7836 0.7825 0.7812 0.7801
1910.000000 0.7789 0.7776 0.7765 0.7753 0.7741
1915.000000 0.7728 0.7717 0.7704 0.7692 0.7680
1920.000000 0.7668 0.7657 0.7647 0.7637 0.7625
1925.000000 0.7615 0.7606 0.7595 0.7585 0.7575
1930.000000 0.7564 0.7554 0.7544 0.7534 0.7524
1935.000000 0.7514 0.7504 0.7494 0.7484 0.7474
1940.000000 0.7464 0.7454 0.7444 0.7435 0.7426
1945.000000 0.7418 0.7410 0.7401 0.7394 0.7385
1950.000000 0.7376 0.7368 0.7360 0.7351 0.7343
1955.000000 0.7332 0.7321 0.7311 0.7296 0.7275
1960.000000 0.7255 0.7221 0.7187 0.7161 0.7181
1965.000000 0.7200 0.7214 0.7212 0.7208 0.7206
1970.000000 0.7201 0.7195 0.7187 0.7178 0.7168
1975.000000 0.7158 0.7149 0.7140 0.7131 0.7124
1980.000000 0.7118 0.7112 0.7107 0.7101 0.7096
1985.000000 0.7091 0.7086 0.7081 0.7076 0.7071
1990.000000 0.7067 0.7062 0.7058 0.7053 0.7049
1995.000000 0.7044 0.7042 0.7040 0.7038 0.7037
2000.000000 0.7035 0.7033 0.7032 0.7032 0.7032
2005.000000 0.7032 0.7032 0.7032 0.7032 0.7032
2010.000000 0.7032 0.7032 0.7032 0.7032 0.7032
2015.000000 0.7037 0.7042 0.7046 0.7051 0.7056
2020.000000 0.7061 0.7067 0.7071 0.7076 0.7082
2025.000000 0.7087 0.7093 0.7100 0.7107 0.7114
2030.000000 0.7121 0.7128 0.7135 0.7142 0.7149
2035.000000 0.7156 0.7164 0.7172 0.7182 0.7191
2040.000000 0.7200 0.7208 0.7218 0.7226 0.7236
2045.000000 0.7245 0.7255 0.7264 0.7272 0.7282
2050.000000 0.7291 0.7300 0.7310 0.7318 0.7328
2055.000000 0.7337 0.7346 0.7355 0.7365 0.7378
2060.000000 0.7392 0.7405 0.7418 0.7432 0.7446
2065.000000 0.7458 0.7472 0.7486 0.7500 0.7512
2070.000000 0.7526 0.7540 0.7554 0.7565 0.7575
2075.000000 0.7587 0.7599 0.7610 0.7621 0.7632
2080.000000 0.7643 0.7654 0.7665 0.7675 0.7688
2085.000000 0.7699 0.7711 0.7721 0.7734 0.7745
2090.000000 0.7757 0.7768 0.7780 0.7791 0.7803
2095.000000 0.7814 0.7825 0.7834 0.7842 0.7849
2100.000000 0.7856 0.7862 0.7871 0.7878 0.7885
2105.000000 0.7892 0.7900 0.7907 0.7914 0.7921
2110.000000 0.7928 0.7936 0.7943 0.7949 0.7955
2115.000000 0.7961 0.7967 0.7972 0.7978 0.7985
2120.000000 0.7991 0.7997 0.8003 0.8008 0.8015
2125.000000 0.8019 0.8025 0.8031 0.8037 0.8043
2130.000000 0.8049 0.8054 0.8060 0.8065 0.8071
2135.000000 0.8075 0.8082 0.8086 0.8090 0.8093
2140.000000 0.8096 0.8098 0.8101 0.8104 0.8107
2145.000000 0.8108 0.8111 0.8115 0.8118 0.8119
2150.000000 0.8122 0.8122 0.8122 0.8122 0.8124
2155.000000 0.8124 0.8125 0.8125 0.8125 0.8125
2160.000000 0.8125 0.8125 0.8125 0.8125 0.8126
2165.000000 0.8126 0.8126 0.8125 0.8125 0.8122
2170.000000 0.8121 0.8119 0.8118 0.8115 0.8115
2175.000000 0.8112 0.8111 0.8110 0.8108 0.8108
2180.000000 0.8108 0.8107 0.8107 0.8106 0.8106
2185.000000 0.8105 0.8105 0.8104 0.8104 0.8103
2190.000000 0.8103 0.8101 0.8101 0.8101 0.8101
2195.000000 0.8103 0.8104 0.8105 0.8106 0.8107
2200.000000 0.8108 0.8108 0.8110 0.8111 0.8111
2205.000000 0.8114 0.8115 0.8118 0.8121 0.8125
2210.000000 0.8128 0.8132 0.8136 0.8139 0.8142
2215.000000 0.8145 0.8149 0.8153 0.8157 0.8161
2220.000000 0.8167 0.8171 0.8176 0.8182 0.8187
2225.000000 0.8192 0.8197 0.8200 0.8203 0.8205
2230.000000 0.8207 0.8209 0.8210 0.8209 0.8208
2235.000000 0.8205 0.8203 0.8200 0.8198 0.8195
2240.000000 0.8193 0.8190 0.8187 0.8184 0.8181
2245.000000 0.8178 0.8175 0.8171 0.8168 0.8165
2250.000000 0.8162 0.8158 0.8154 0.8149 0.8145
2255.000000 0.8141 0.8137 0.8132 0.8128 0.8122
2260.000000 0.8118 0.8114 0.8110 0.8105 0.8101
2265.000000 0.8097 0.8094 0.8090 0.8087 0.8083
2270.000000 0.8078 0.8075 0.8071 0.8068 0.8064
2275.000000 0.8060 0.8057 0.8053 0.8050 0.8046
2280.000000 0.8042 0.8038 0.8035 0.8031 0.8028
2285.000000 0.8024 0.8021 0.8017 0.8014 0.8010
2290.000000 0.8007 0.8003 0.7999 0.7995 0.7992
2295.000000 0.7988 0.7985 0.7982 0.7978 0.7975
2300.000000 0.7974 0.7971 0.7968 0.7965 0.7964
2305.000000 0.7961 0.7958 0.7956 0.7954 0.7951
2310.000000 0.7948 0.7945 0.7942 0.7939 0.7936
2315.000000 0.7932 0.7928 0.7925 0.7922 0.7918
2320.000000 0.7915 0.7912 0.7910 0.7906 0.7901
2325.000000 0.7896 0.7890 0.7884 0.7878 0.7872
2330.000000 0.7867 0.7861 0.7856 0.7850 0.7844
2335.000000 0.7838 0.7833 0.7826 0.7821 0.7815
2340.000000 0.7810 0.7804 0.7798 0.7792 0.7787
2345.000000 0.7778 0.7771 0.7761 0.7753 0.7744
2350.000000 0.7736 0.7726 0.7718 0.7710 0.7701
2355.000000 0.7693 0.7684 0.7675 0.7665 0.7655
2360.000000 0.7645 0.7634 0.7624 0.7612 0.7603
2365.000000 0.7592 0.7582 0.7569 0.7558 0.7546
2370.000000 0.7534 0.7521 0.7508 0.7496 0.7484
2375.000000 0.7471 0.7458 0.7445 0.7431 0.7415
2380.000000 0.7401 0.7386 0.7371 0.7356 0.7341
2385.000000 0.7325 0.7311 0.7296 0.7282 0.7267
2390.000000 0.7251 0.7237 0.7221 0.7207 0.7192
2395.000000 0.7172 0.7155 0.7136 0.7117 0.7098
2400.000000 0.7078 0.7060 0.7041 0.7021 0.7003
2405.000000 0.6984 0.6965 0.6944 0.6924 0.6900
2410.000000 0.6876 0.6853 0.6830 0.6806 0.6783
2415.000000 0.6758 0.6736 0.6711 0.6689 0.6665
2420.000000 0.6642 0.6617 0.6592 0.6561 0.6530
2425.000000 0.6498 0.6467 0.6436 0.6405 0.6371
2430.000000 0.6338 0.6293 0.6248 0.6202 0.6156
2435.000000 0.6122 0.6088 0.6056 0.6025 0.5994
2440.000000 0.5962 0.5932 0.5901 0.5844 0.5787
2445.000000 0.5736 0.5686 0.5646 0.5607 0.5569
2450.000000 0.5532 0.5500 0.5469 0.5434 0.5399
2455.000000 0.5351 0.5303 0.5255 0.5207 0.5159
2460.000000 0.5110 0.5062 0.5015 0.4985 0.4955
2465.000000 0.4930 0.4905 0.4880 0.4855 0.4828
2470.000000 0.4801 0.4773 0.4745 0.4718 0.4691
2475.000000 0.4670 0.4649 0.4646 0.4644 0.4641
2480.000000 0.4642 0.4643 0.4670 0.4651 0.4656
2485.000000 0.4660 0.4665 0.4672 0.4680 0.4688
2490.000000 0.4696 0.4710 0.4726 0.4742 0.4758
2495.000000 0.4776 0.4795 0.4814 0.4834 0.4853
2500.000000 0.4872 0.4891 0.4910 0.4931 0.4952
2505.000000 0.4973 0.4994 0.5015 0.5037 0.5057
2510.000000 0.5077 0.5097 0.5118 0.5139 0.5160
2515.000000 0.5176 0.5192 0.5197 0.5202 0.5199
2520.000000 0.5197 0.5194 0.5192 0.5187 0.5208
2525.000000 0.5174 0.5165 0.5149 0.5133 0.5110
2530.000000 0.5089 0.5066 0.5044 0.5029 0.5014
2535.000000 0.4998 0.4983 0.4967 0.4952 0.4929
2540.000000 0.4906 0.4878 0.4850 0.4825 0.4801
2545.000000 0.4779 0.4757 0.4735 0.4712 0.4691
2550.000000 0.4669 0.4643 0.4618 0.4586 0.4554
2555.000000 0.4521 0.4489 0.4464 0.4439 0.4416
2560.000000 0.4393 0.4372 0.4351 0.4336 0.4322
2565.000000 0.4307 0.4293 0.4284 0.4276 0.4268
2570.000000 0.4260 0.4255 0.4249 0.4247 0.4245
2575.000000 0.4243 0.4227 0.4238 0.4236 0.4236
2580.000000 0.4236 0.4237 0.4238 0.4240 0.4242
2585.000000 0.4246 0.4250 0.4254 0.4258 0.4262
2590.000000 0.4268 0.4275 0.4282 0.4289 0.4296
2595.000000 0.4302 0.4309 0.4315 0.4322 0.4328
2600.000000 0.4334 0.4349 0.4365 0.4380 0.4396
2605.000000 0.4406 0.4416 0.4421 0.4427 0.4426
2610.000000 0.4439 0.4423 0.4421 0.4418 0.4416
2615.000000 0.4409 0.4402 0.4390 0.4378 0.4364
2620.000000 0.4350 0.4330 0.4310 0.4291 0.4273
2625.000000 0.4255 0.4237 0.4218 0.4199 0.4179
2630.000000 0.4159 0.4138 0.4118 0.4098 0.4079
2635.000000 0.4059 0.4039 0.4018 0.4000 0.3978
2640.000000 0.3957 0.3934 0.3914 0.3892 0.3871
2645.000000 0.3848 0.3825 0.3800 0.3777 0.3753
2650.000000 0.3729 0.3705 0.3680 0.3654 0.3627
2655.000000 0.3600 0.3573 0.3546 0.3518 0.3492
2660.000000 0.3464 0.3432 0.3402 0.3370 0.3338
2665.000000 0.3306 0.3274 0.3241 0.3209 0.3177
2670.000000 0.3145 0.3110 0.3076 0.3040 0.3004
2675.000000 0.2968 0.2932 0.2899 0.2866 0.2835
2680.000000 0.2806 0.2775 0.2745 0.2725 0.2706
2685.000000 0.2692 0.2678 0.2664 0.2650 0.2634
2690.000000 0.2621 0.2607 0.2593 0.2580 0.2568
2695.000000 0.2556 0.2545 0.2533 0.2522 0.2510
2700.000000 0.2499 0.2487 0.2476 0.2469 0.2463
2705.000000 0.2456 0.2450 0.2443 0.2437 0.2430
2710.000000 0.2424 0.2417 0.2411 0.2406 0.2401
2715.000000 0.2397 0.2394 0.2390 0.2385 0.2382
2720.000000 0.2379 0.2375 0.2371 0.2367 0.2364
2725.000000 0.2360 0.2356 0.2352 0.2348 0.2338
2730.000000 0.2328 0.2318 0.2309 0.2299 0.2289
2735.000000 0.2279 0.2269 0.2254 0.2239 0.2224
2740.000000 0.2210 0.2195 0.2180 0.2154 0.2128
2745.000000 0.2101 0.2074 0.2048 0.2023 0.1999
2750.000000 0.1975 0.1950 0.1926 0.1902 0.1878
2755.000000 0.1854 0.1829 0.1806 0.1782 0.1758
2760.000000 0.1734 0.1713 0.1692 0.1674 0.1657
2765.000000 0.1640 0.1623 0.1604 0.1588 0.1573
2770.000000 0.1558 0.1545 0.1533 0.1521 0.1509
2775.000000 0.1504 0.1499 0.1494 0.1489 0.1484
2780.000000 0.1480 0.1475 0.1471 0.1466 0.1461
2785.000000 0.1456 0.1452 0.1446 0.1442 0.1438
2790.000000 0.1434 0.1430 0.1427 0.1423 0.1420
2795.000000 0.1416 0.1413 0.1409 0.1406 0.1403
2800.000000 0.1400 0.1396 0.1392 0.1390 0.1388
2805.000000 0.1386 0.1384 0.1382 0.1380 0.1378
2810.000000 0.1376 0.1373 0.1371 0.1369 0.1367
2815.000000 0.1365 0.1363 0.1362 0.1361 0.1360
2820.000000 0.1360 0.1359 0.1359 0.1358 0.1358
2825.000000 0.1355 0.1352 0.1346 0.1342 0.1337
2830.000000 0.1332 0.1322 0.1313 0.1299 0.1286
2835.000000 0.1272 0.1259 0.1245 0.1231 0.1217
2840.000000 0.1204 0.1188 0.1173 0.1156 0.1140
2845.000000 0.1123 0.1107 0.1090 0.1074 0.1057
2850.000000 0.1040 0.1022 0.1006 0.0989 0.0972
2855.000000 0.0955 0.0938 0.0921 0.0904 0.0885
2860.000000 0.0866 0.0845 0.0824 0.0803 0.0783
2865.000000 0.0762 0.0742 0.0721 0.0700 0.0680
2870.000000 0.0660 0.0646 0.0633 0.0619 0.0606
2875.000000 0.0592 0.0579 0.0572 0.0565 0.0558
2880.000000 0.0551 0.0548 0.0545 0.0541 0.0538
2885.000000 0.0534 0.0531 0.0527 0.0524 0.0520
2890.000000 0.0517 0.0513 0.0510 0.0509 0.0508
2895.000000 0.0507 0.0507 0.0506 0.0506 0.0504
2900.000000 0.0502 0.0500 0.0498 0.0497 0.0496
2905.000000 0.0495 0.0495 0.0494 0.0493 0.0492
2910.000000 0.0492 0.0491 0.0490 0.0488 0.0486
2915.000000 0.0484 0.0482 0.0480 0.0479 0.0477
2920.000000 0.0475 0.0473 0.0471 0.0469 0.0467
2925.000000 0.0461 0.0455 0.0449 0.0443 0.0431
2930.000000 0.0419 0.0406 0.0393 0.0379 0.0366
2935.000000 0.0351 0.0337 0.0328 0.0318 0.0314
2940.000000 0.0310 0.0309 0.0309 0.0310 0.0311
2945.000000 0.0313 0.0315 0.0316 0.0318 0.0322
2950.000000 0.0314 0.0327 0.0330 0.0332 0.0335
2955.000000 0.0336 0.0338 0.0339 0.0340 0.0340
2960.000000 0.0340 0.0340 0.0345 0.0338 0.0338
2965.000000 0.0337 0.0336 0.0332 0.0329 0.0322
2970.000000 0.0315 0.0306 0.0297 0.0278 0.0259
2975.000000 0.0244 0.0229 0.0217 0.0207 0.0198
2980.000000 0.0190 0.0183 0.0178 0.0177 0.0177
2985.000000 0.0180 0.0187 0.0187 0.0191 0.0194
2990.000000 0.0198 0.0202 0.0206 0.0209 0.0214
2995.000000 0.0222 0.0229 0.0236 0.0246 0.0254
3000.000000 0.0263 0.0276 0.0290 0.0305 0.0321
3005.000000 0.0339 0.0357 0.0374 0.0391 0.0408
3010.000000 0.0425 0.0439 0.0453 0.0458 0.0464
3015.000000 0.0467 0.0471 0.0475 0.0479 0.0482
3020.000000 0.0486 0.0490 0.0495 0.0499 0.0504
3025.000000 0.0508 0.0513 0.0518 0.0523 0.0527
3030.000000 0.0532 0.0535 0.0539 0.0542 0.0545
3035.000000 0.0548 0.0552 0.0555 0.0559 0.0562
3040.000000 0.0566 0.0569 0.0572 0.0576 0.0580
3045.000000 0.0584 0.0588 0.0591 0.0595 0.0599
3050.000000 0.0603 0.0607 0.0611 0.0615 0.0619
3055.000000 0.0623 0.0627 0.0632 0.0638 0.0644
3060.000000 0.0650 0.0656 0.0663 0.0669 0.0675
3065.000000 0.0681 0.0687 0.0692 0.0698 0.0704
3070.000000 0.0710 0.0715 0.0721 0.0726 0.0732
3075.000000 0.0738 0.0744 0.0749 0.0755 0.0760
3080.000000 0.0766 0.0772 0.0778 0.0784 0.0791
3085.000000 0.0797 0.0803 0.0809 0.0815 0.0821
3090.000000 0.0826 0.0833 0.0839 0.0845 0.0852
3095.000000 0.0858 0.0864 0.0870 0.0876 0.0882
3100.000000 0.0889 0.0895 0.0901 0.0908 0.0916
3105.000000 0.0924 0.0932 0.0939 0.0947 0.0955
3110.000000 0.0963 0.0971 0.0979 0.0988 0.0996
3115.000000 0.1006 0.1016 0.1025 0.1035 0.1044
3120.000000 0.1054 0.1063 0.1073 0.1084 0.1095
3125.000000 0.1106 0.1117 0.1130 0.1144 0.1159
3130.000000 0.1174 0.1188 0.1202 0.1215 0.1228
3135.000000 0.1238 0.1248 0.1257 0.1267 0.1276
3140.000000 0.1286 0.1295 0.1305 0.1314 0.1323
3145.000000 0.1329 0.1336 0.1341 0.1346 0.1348
3150.000000 0.1351 0.1353 0.1355 0.1356 0.1358
3155.000000 0.1359 0.1361 0.1363 0.1365 0.1365
3160.000000 0.1365 0.1365 0.1365 0.1365 0.1364
3165.000000 0.1364 0.1364 0.1362 0.1361 0.1360
3170.000000 0.1359 0.1358 0.1357 0.1356 0.1355
3175.000000 0.1354 0.1353 0.1352 0.1351 0.1349
3180.000000 0.1346 0.1344 0.1341 0.1338 0.1336
3185.000000 0.1333 0.1330 0.1327 0.1324 0.1320
3190.000000 0.1316 0.1312 0.1308 0.1304 0.1300
3195.000000 0.1296 0.1292 0.1286 0.1281 0.1274
3200.000000 0.1268 0.1261 0.1255 0.1248 0.1242
3205.000000 0.1235 0.1229 0.1222 0.1216 0.1207
3210.000000 0.1198 0.1189 0.1180 0.1171 0.1162
3215.000000 0.1154 0.1146 0.1142 0.1139 0.1134
3220.000000 0.1130 0.1126 0.1122 0.1120 0.1118
3225.000000 0.1117 0.1117 0.1116 0.1116 0.1116
3230.000000 0.1111 0.1118 0.1119 0.1120 0.1122
3235.000000 0.1125 0.1128 0.1131 0.1135 0.1138
3240.000000 0.1142 0.1145 0.1149 0.1153 0.1158
3245.000000 0.1163 0.1168 0.1173 0.1178 0.1184
3250.000000 0.1191 0.1196 0.1204 0.1210 0.1217
3255.000000 0.1222 0.1228 0.1233 0.1239 0.1244
3260.000000 0.1250 0.1255 0.1261 0.1266 0.1271
3265.000000 0.1277 0.1284 0.1290 0.1296 0.1303
3270.000000 0.1310 0.1316 0.1323 0.1329 0.1336
3275.000000 0.1342 0.1349 0.1355 0.1362 0.1368
3280.000000 0.1375 0.1382 0.1389 0.1395 0.1402
3285.000000 0.1409 0.1416 0.1422 0.1429 0.1436
3290.000000 0.1442 0.1449 0.1456 0.1463 0.1470
3295.000000 0.1478 0.1487 0.1495 0.1503 0.1511
3300.000000 0.1519 0.1527 0.1536 0.1544 0.1552
3305.000000 0.1560 0.1569 0.1577 0.1585 0.1592
3310.000000 0.1601 0.1610 0.1619 0.1627 0.1635
3315.000000 0.1644 0.1653 0.1661 0.1670 0.1679
3320.000000 0.1687 0.1695 0.1704 0.1713 0.1722
3325.000000 0.1731 0.1740 0.1748 0.1757 0.1766
3330.000000 0.1776 0.1784 0.1794 0.1803 0.1813
3335.000000 0.1822 0.1832 0.1842 0.1852 0.1861
3340.000000 0.1871 0.1878 0.1885 0.1893 0.1901
3345.000000 0.1908 0.1916 0.1924 0.1933 0.1942
3350.000000 0.1952 0.1961 0.1970 0.1979 0.1989
3355.000000 0.1998 0.2007 0.2016 0.2026 0.2034
3360.000000 0.2044 0.2053 0.2063 0.2072 0.2082
3365.000000 0.2091 0.2101 0.2111 0.2121 0.2130
3370.000000 0.2140 0.2149 0.2159 0.2168 0.2178
3375.000000 0.2188 0.2198 0.2208 0.2219 0.2230
3380.000000 0.2241 0.2251 0.2262 0.2273 0.2284
3385.000000 0.2294 0.2305 0.2316 0.2327 0.2337
3390.000000 0.2348 0.2359 0.2370 0.2380 0.2391
3395.000000 0.2402 0.2413 0.2424 0.2434 0.2445
3400.000000 0.2456 0.2467 0.2478 0.2489 0.2500
3405.000000 0.2510 0.2521 0.2532 0.2543 0.2554
3410.000000 0.2566 0.2577 0.2589 0.2601 0.2613
3415.000000 0.2624 0.2635 0.2648 0.2660 0.2671
3420.000000 0.2683 0.2695 0.2707 0.2718 0.2730
3425.000000 0.2741 0.2753 0.2765 0.2777 0.2788
3430.000000 0.2800 0.2811 0.2823 0.2834 0.2846
3435.000000 0.2857 0.2869 0.2880 0.2892 0.2903
3440.000000 0.2915 0.2926 0.2938 0.2949 0.2961
3445.000000 0.2972 0.2984 0.2995 0.3006 0.3017
3450.000000 0.3029 0.3040 0.3052 0.3064 0.3076
3455.000000 0.3091 0.3106 0.3120 0.3134 0.3150
3460.000000 0.3165 0.3179 0.3194 0.3209 0.3224
3465.000000 0.3239 0.3254 0.3268 0.3282 0.3298
3470.000000 0.3312 0.3328 0.3343 0.3357 0.3372
3475.000000 0.3387 0.3402 0.3418 0.3434 0.3449
3480.000000 0.3464 0.3480 0.3497 0.3512 0.3529
3485.000000 0.3544 0.3559 0.3576 0.3593 0.3609
3490.000000 0.3627 0.3644 0.3660 0.3678 0.3695
3495.000000 0.3712 0.3729 0.3746 0.3762 0.3780
3500.000000 0.3798 0.3816 0.3836 0.3855 0.3874
3505.000000 0.3893 0.3912 0.3930 0.3950 0.3968
3510.000000 0.3988 0.4007 0.4026 0.4046 0.4066
3515.000000 0.4087 0.4108 0.4128 0.4149 0.4170
3520.000000 0.4191 0.4212 0.4233 0.4253 0.4274
3525.000000 0.4295 0.4316 0.4337 0.4358 0.4378
3530.000000 0.4399 0.4420 0.4441 0.4462 0.4485
3535.000000 0.4508 0.4531 0.4553 0.4576 0.4599
3540.000000 0.4622 0.4645 0.4668 0.4693 0.4718
3545.000000 0.4744 0.4771 0.4797 0.4823 0.4849
3550.000000 0.4875 0.4901 0.4928 0.4949 0.4971
3555.000000 0.4988 0.5005 0.5022 0.5039 0.5056
3560.000000 0.5073 0.5089 0.5106 0.5123 0.5140
3565.000000 0.5157 0.5174 0.5208 0.5242 0.5288
3570.000000 0.5334 0.5380 0.5426 0.5469 0.5512
3575.000000 0.5553 0.5595 0.5635 0.5676 0.5712
3580.000000 0.5749 0.5786 0.5823 0.5857 0.5891
3585.000000 0.5916 0.5942 0.5967 0.5993 0.6018
3590.000000 0.6043 0.6068 0.6094 0.6119 0.6145
3595.000000 0.6175 0.6206 0.6243 0.6281 0.6318
3600.000000 0.6355 0.6392 0.6430 0.6465 0.6501
3605.000000 0.6535 0.6568 0.6603 0.6637 0.6671
3610.000000 0.6705 0.6738 0.6771 0.6805 0.6839
3615.000000 0.6871 0.6905 0.6938 0.6971 0.7004
3620.000000 0.7037 0.7071 0.7106 0.7143 0.7181
3625.000000 0.7218 0.7256 0.7293 0.7330 0.7361
3630.000000 0.7392 0.7418 0.7446 0.7472 0.7500
3635.000000 0.7526 0.7554 0.7578 0.7605 0.7630
3640.000000 0.7655 0.7678 0.7704 0.7728 0.7754
3645.000000 0.7778 0.7804 0.7826 0.7850 0.7872
3650.000000 0.7896 0.7918 0.7943 0.7965 0.7989
3655.000000 0.8014 0.8040 0.8068 0.8098 0.8126
3660.000000 0.8156 0.8185 0.8214 0.8242 0.8271
3665.000000 0.8296 0.8321 0.8346 0.8371 0.8397
3670.000000 0.8421 0.8445 0.8468 0.8491 0.8514
3675.000000 0.8536 0.8558 0.8580 0.8602 0.8618
3680.000000 0.8635 0.8647 0.8660 0.8673 0.8686
3685.000000 0.8698 0.8711 0.8721 0.8734 0.8740
3690.000000 0.8747 0.8753 0.8760 0.8766 0.8773
3695.000000 0.8778 0.8786 0.8791 0.8797 0.8802
3700.000000 0.8808 0.8813 0.8818 0.8823 0.8828
3705.000000 0.8832 0.8837 0.8841 0.8845 0.8849
3710.000000 0.8853 0.8855 0.8857 0.8859 0.8861
3715.000000 0.8863 0.8865 0.8867 0.8870 0.8871
3720.000000 0.8874 0.8875 0.8878 0.8880 0.8882
3725.000000 0.8883 0.8885 0.8885 0.8886 0.8886
3730.000000 0.8887 0.8887 0.8888 0.8888 0.8889
3735.000000 0.8889 0.8889 0.8889 0.8890 0.8890
3740.000000 0.8891 0.8891 0.8892 0.8892 0.8893
3745.000000 0.8893 0.8893 0.8893 0.8893 0.8893
3750.000000 0.8893 0.8893 0.8893 0.8893 0.8893
3755.000000 0.8893 0.8894 0.8894 0.8894 0.8894
3760.000000 0.8895 0.8895 0.8896 0.8896 0.8897
3765.000000 0.8897 0.8898 0.8898 0.8899 0.8899
3770.000000 0.8900 0.8900 0.8901 0.8902 0.8903
3775.000000 0.8903 0.8903 0.8904 0.8905 0.8905
3780.000000 0.8906 0.8907 0.8908 0.8908 0.8909
3785.000000 0.8909 0.8910 0.8910 0.8911 0.8911
3790.000000 0.8911 0.8911 0.8911 0.8911 0.8911
3795.000000 0.8911 0.8911 0.8911 0.8911 0.8911
3800.000000 0.8911
##END=
