##TITLE=SODIUM NITRATE
##JCAMP-DX=4.24
##DATA TYPE=INFRARED SPECTRUM
##CLASS=COBLENTZ III
##ORIGIN=SOUTHERN RESEARCH INSTITUTE (W.C. COBURN, JR.)
##OWNER=COBLENTZ SOCIETY
Collection (C) 2018 copyright by the U.S. Secretary of Commerce
on behalf of the United States of America. All rights reserved.
##DATE=1965/01/04
##MOLFORM=N O3 Na
##SOURCE REFERENCE=COBLENTZ NO. 9950
##$NIST ID=B6009950
##$NIST SOURCE=COBLENTZ
##$NIST IMAGE=cob9950
##SPECTROMETER/DATA SYSTEM=PERKIN-ELMER 521 (GRATING)
##INSTRUMENT PARAMETERS=FILTERS AT 3130, 2475, 2000, 1150, 700, 410. GRATING CHANGES: 2000, 620 CM^-^1
##STATE=SOLID (1 mg / 650 mg KBr DISC)
$$SPECTRAL CONTAMINATION DUE TO PROBABLY H2O AROUND 3400 CM^-^1
##SAMPLING PROCEDURE=TRANSMISSION
##RESOLUTION=2
##DATA PROCESSING=DIGITIZED BY NIST FROM HARD COPY (FROM TWO SEGMENTS)
##XUNITS=1/CM
##YUNITS=TRANSMITTANCE
##XFACTOR=1.000000
##YFACTOR=1
##DELTAX=1.385042
##FIRSTX=256.53
##LASTX=4016.92
##FIRSTY=0.394
##MAXX=4016.92
##MINX=256.53
##MAXY=0.95
##MINY=0.108
##NPOINTS=2716
##XYDATA=(X++(Y..Y))
256.530000 0.3940 0.3980 0.4000 0.4116 0.4244
263.455210 0.4354 0.4575 0.4692 0.4800 0.4900
270.380420 0.5009 0.5100 0.5198 0.5305 0.5474
277.305630 0.5576 0.5682 0.5774 0.5855 0.5934
284.230840 0.6014 0.6101 0.6182 0.6254 0.6368
291.156050 0.6452 0.6521 0.6590 0.6653 0.6719
298.081260 0.6775 0.6831 0.6877 0.6917 0.6950
305.006470 0.6973 0.7005 0.7039 0.7074 0.7108
311.931680 0.7138 0.7173 0.7213 0.7269 0.7317
318.856890 0.7352 0.7386 0.7410 0.7440 0.7475
325.782100 0.7505 0.7539 0.7574 0.7604 0.7629
332.707310 0.7649 0.7660 0.7735 0.7856 0.7896
339.632520 0.7935 0.7975 0.8011 0.8044 0.8084
346.557730 0.8120 0.8163 0.8216 0.8239 0.8272
353.482940 0.8309 0.8338 0.8368 0.8393 0.8407
360.408150 0.8435 0.8457 0.8484 0.8502 0.8516
367.333360 0.8542 0.8552 0.8563 0.8582 0.8593
374.258570 0.8611 0.8620 0.8621 0.8630 0.8632
381.183780 0.8652 0.8672 0.8691 0.8702 0.8730
388.108990 0.8741 0.8760 0.8770 0.8780 0.8780
395.034200 0.8800 0.8810 0.8829 0.8840 0.8840
401.959410 0.8840 0.8840 0.8849 0.8850 0.8850
408.884620 0.8868 0.8870 0.8870 0.8879 0.8880
415.809830 0.8880 0.8880 0.8880 0.8880 0.8880
422.735040 0.8880 0.8880 0.8880 0.8880 0.8880
429.660250 0.8880 0.8880 0.8880 0.8880 0.8887
436.585460 0.8890 0.8903 0.8910 0.8910 0.8916
443.510670 0.8920 0.8932 0.8940 0.8946 0.8956
450.435880 0.8971 0.8986 0.8996 0.9011 0.9020
457.361090 0.9020 0.9020 0.9025 0.9030 0.9030
464.286300 0.9030 0.9039 0.9050 0.9050 0.9050
471.211510 0.9054 0.9060 0.9064 0.9070 0.9081
478.136720 0.9100 0.9100 0.9100 0.9100 0.9100
485.061930 0.9100 0.9103 0.9116 0.9130 0.9130
491.987140 0.9130 0.9130 0.9130 0.9130 0.9130
498.912350 0.9130 0.9130 0.9130 0.9130 0.9130
505.837560 0.9130 0.9130 0.9130 0.9130 0.9130
512.762770 0.9130 0.9130 0.9130 0.9130 0.9130
519.687980 0.9130 0.9130 0.9130 0.9129 0.9110
526.613190 0.9110 0.9110 0.9100 0.9100 0.9100
533.538400 0.9100 0.9100 0.9100 0.9100 0.9100
540.463610 0.9100 0.9100 0.9100 0.9100 0.9109
547.388820 0.9110 0.9110 0.9110 0.9110 0.9110
554.314030 0.9110 0.9126 0.9130 0.9130 0.9130
561.239240 0.9138 0.9140 0.9140 0.9140 0.9140
568.164450 0.9140 0.9140 0.9154 0.9160 0.9167
575.089660 0.9170 0.9176 0.9180 0.9193 0.9200
582.014870 0.9200 0.9200 0.9200 0.9206 0.9210
588.940080 0.9210 0.9210 0.9210 0.9210 0.9210
595.865290 0.9210 0.9210 0.9210 0.9210 0.9210
602.790500 0.9210 0.9210 0.9210 0.9210 0.9210
609.715710 0.9210 0.9210 0.9210 0.9214 0.9220
616.640920 0.9227 0.9240 0.9240 0.9243 0.9250
623.566130 0.9250 0.9256 0.9270 0.9270 0.9273
630.491340 0.9280 0.9280 0.9282 0.9290 0.9290
637.416550 0.9294 0.9312 0.9322 0.9330 0.9333
644.341760 0.9352 0.9360 0.9363 0.9381 0.9391
651.266970 0.9400 0.9400 0.9402 0.9420 0.9421
658.192180 0.9430 0.9430 0.9440 0.9440 0.9440
665.117390 0.9460 0.9460 0.9460 0.9460 0.9460
672.042600 0.9469 0.9470 0.9470 0.9470 0.9470
678.967810 0.9470 0.9470 0.9470 0.9470 0.9470
685.893020 0.9470 0.9470 0.9470 0.9470 0.9470
692.818230 0.9470 0.9470 0.9470 0.9470 0.9470
699.743440 0.9470 0.9470 0.9484 0.9490 0.9490
706.668650 0.9490 0.9490 0.9490 0.9490 0.9490
713.593860 0.9490 0.9490 0.9490 0.9490 0.9490
720.519070 0.9490 0.9490 0.9490 0.9490 0.9490
727.444280 0.9490 0.9490 0.9490 0.9490 0.9495
734.369490 0.9500 0.9500 0.9500 0.9500 0.9500
741.294700 0.9500 0.9500 0.9500 0.9500 0.9500
748.219910 0.9500 0.9500 0.9500 0.9500 0.9500
755.145120 0.9500 0.9500 0.9500 0.9500 0.9500
762.070330 0.9500 0.9497 0.9490 0.9490 0.9490
768.995540 0.9490 0.9490 0.9490 0.9490 0.9486
775.920750 0.9470 0.9470 0.9470 0.9470 0.9470
782.845960 0.9470 0.9469 0.9460 0.9460 0.9460
789.771170 0.9460 0.9460 0.9459 0.9440 0.9440
796.696380 0.9440 0.9440 0.9440 0.9430 0.9420
803.621590 0.9420 0.9400 0.9400 0.9390 0.9381
810.546800 0.9361 0.9332 0.9312 0.9274 0.9225
817.472010 0.9185 0.9163 0.8953 0.8724 0.8303
824.397220 0.7848 0.7155 0.6421 0.5689 0.5516
831.322430 0.5502 0.6196 0.8001 0.9004 0.9192
838.247640 0.9207 0.9232 0.9268 0.9280 0.9280
845.172850 0.9287 0.9290 0.9290 0.9290 0.9290
852.098060 0.9290 0.9290 0.9290 0.9290 0.9290
859.023270 0.9290 0.9290 0.9290 0.9290 0.9290
865.948480 0.9290 0.9290 0.9285 0.9280 0.9280
872.873690 0.9280 0.9280 0.9275 0.9270 0.9270
879.798900 0.9261 0.9250 0.9250 0.9250 0.9250
886.724110 0.9250 0.9250 0.9246 0.9240 0.9240
893.649320 0.9240 0.9240 0.9240 0.9240 0.9240
900.574530 0.9240 0.9240 0.9235 0.9220 0.9220
907.499740 0.9220 0.9220 0.9220 0.9218 0.9210
914.424950 0.9210 0.9210 0.9210 0.9210 0.9209
921.350160 0.9200 0.9198 0.9179 0.9170 0.9169
928.275370 0.9160 0.9158 0.9130 0.9130 0.9129
935.200580 0.9110 0.9110 0.9110 0.9100 0.9100
942.125790 0.9100 0.9100 0.9090 0.9071 0.9070
949.051000 0.9070 0.9061 0.9060 0.9060 0.9051
955.976210 0.9050 0.9033 0.9030 0.9030 0.9022
962.901420 0.9004 0.9000 0.8992 0.8990 0.8982
969.826630 0.8965 0.8960 0.8953 0.8950 0.8943
976.751840 0.8926 0.8913 0.8910 0.8896 0.8890
983.677050 0.8883 0.8873 0.8870 0.8870 0.8858
990.602260 0.8850 0.8844 0.8840 0.8834 0.8819
997.527470 0.8810 0.8810 0.8805 0.8800 0.8800
1004.452680 0.8790 0.8780 0.8780 0.8775 0.8770
1011.377890 0.8770 0.8765 0.8751 0.8740 0.8736
1018.303100 0.8730 0.8726 0.8720 0.8712 0.8696
1025.228310 0.8690 0.8690 0.8683 0.8670 0.8670
1032.153520 0.8667 0.8660 0.8660 0.8657 0.8650
1039.078730 0.8650 0.8645 0.8630 0.8628 0.8620
1046.003940 0.8620 0.8620 0.8618 0.8610 0.8610
1052.929150 0.8610 0.8607 0.8590 0.8590 0.8590
1059.854360 0.8589 0.8580 0.8580 0.8579 0.8560
1066.779570 0.8560 0.8560 0.8560 0.8560 0.8560
1073.704780 0.8550 0.8550 0.8550 0.8540 0.8540
1080.629990 0.8540 0.8521 0.8520 0.8520 0.8511
1087.555200 0.8510 0.8501 0.8500 0.8500 0.8483
1094.480410 0.8472 0.8453 0.8450 0.8442 0.8440
1101.405620 0.8440 0.8432 0.8430 0.8415 0.8410
1108.330830 0.8403 0.8400 0.8393 0.8376 0.8370
1115.256040 0.8363 0.8360 0.8346 0.8333 0.8330
1122.181250 0.8311 0.8300 0.8294 0.8284 0.8280
1129.106460 0.8268 0.8254 0.8250 0.8239 0.8230
1136.031670 0.8230 0.8225 0.8215 0.8210 0.8200
1142.956880 0.8190 0.8185 0.8180 0.8166 0.8150
1149.882090 0.8146 0.8131 0.8116 0.8106 0.8100
1156.807300 0.8092 0.8076 0.8066 0.8053 0.8040
1163.732510 0.8037 0.8023 0.8003 0.7990 0.7984
1170.657720 0.7967 0.7960 0.7957 0.7945 0.7930
1177.582930 0.7928 0.7915 0.7900 0.7898 0.7888
1184.508140 0.7876 0.7858 0.7850 0.7848 0.7837
1191.433350 0.7819 0.7807 0.7788 0.7767 0.7739
1198.358560 0.7727 0.7700 0.7699 0.7679 0.7669
1205.283770 0.7639 0.7619 0.7599 0.7570 0.7550
1212.208980 0.7530 0.7510 0.7481 0.7451 0.7422
1219.134190 0.7411 0.7382 0.7352 0.7332 0.7303
1226.059400 0.7291 0.7272 0.7244 0.7223 0.7203
1232.984610 0.7183 0.7155 0.7125 0.7096 0.7074
1239.909820 0.7031 0.6989 0.6942 0.6900 0.6860
1246.835030 0.6813 0.6771 0.6731 0.6692 0.6652
1253.760240 0.6619 0.6583 0.6543 0.6504 0.6464
1260.685450 0.6431 0.6408 0.6388 0.6356 0.6310
1267.610660 0.6267 0.6227 0.6188 0.6153 0.6113
1274.535870 0.6069 0.6029 0.5984 0.5940 0.5895
1281.461080 0.5851 0.5802 0.5747 0.5702 0.5654
1288.386290 0.5599 0.5541 0.5488 0.5458 0.5420
1295.311500 0.5363 0.5294 0.5225 0.5156 0.5086
1302.236710 0.5014 0.4935 0.4859 0.4780 0.4687
1309.161920 0.4619 0.4579 0.4524 0.4428 0.4336
1316.087130 0.4235 0.4126 0.4018 0.3908 0.3797
1323.012340 0.3689 0.3632 0.3568 0.3431 0.3303
1329.937550 0.3173 0.3034 0.2903 0.2832 0.2747
1336.862760 0.2599 0.2449 0.2281 0.2127 0.2067
1343.787970 0.1988 0.1890 0.1850 0.1810 0.1731
1350.713180 0.1633 0.1553 0.1455 0.1375 0.1277
1357.638390 0.1233 0.1221 0.1193 0.1208 0.1192
1364.563600 0.1181 0.1180 0.1163 0.1143 0.1140
1371.488810 0.1124 0.1120 0.1112 0.1110 0.1102
1378.414020 0.1085 0.1080 0.1080 0.1095 0.1136
1385.339230 0.1200 0.1298 0.1406 0.1509 0.1581
1392.264440 0.1835 0.2003 0.2056 0.2089 0.2238
1399.189650 0.2499 0.2664 0.2759 0.2824 0.2881
1406.114860 0.2927 0.3068 0.3208 0.3278 0.3352
1413.040070 0.3436 0.3490 0.3598 0.3753 0.3863
1419.965280 0.3957 0.4037 0.4107 0.4179 0.4272
1426.890490 0.4363 0.4442 0.4556 0.4687 0.4756
1433.815700 0.4822 0.4881 0.4937 0.4993 0.5059
1440.740910 0.5116 0.5168 0.5222 0.5264 0.5316
1447.666120 0.5373 0.5435 0.5520 0.5564 0.5621
1454.591330 0.5673 0.5730 0.5781 0.5839 0.5892
1461.516540 0.5960 0.6019 0.6080 0.6149 0.6215
1468.441750 0.6253 0.6284 0.6326 0.6392 0.6422
1475.366960 0.6452 0.6491 0.6511 0.6541 0.6571
1482.292170 0.6610 0.6640 0.6670 0.6689 0.6719
1489.217380 0.6749 0.6778 0.6799 0.6828 0.6857
1496.142590 0.6887 0.6908 0.6936 0.6966 0.6979
1503.067800 0.7006 0.7035 0.7065 0.7078 0.7104
1509.993010 0.7118 0.7144 0.7173 0.7188 0.7213
1516.918220 0.7228 0.7237 0.7262 0.7299 0.7324
1523.843430 0.7337 0.7347 0.7370 0.7393 0.7407
1530.768640 0.7417 0.7433 0.7446 0.7456 0.7472
1537.693850 0.7486 0.7502 0.7516 0.7520 0.7526
1544.619060 0.7541 0.7555 0.7565 0.7580 0.7595
1551.544270 0.7610 0.7625 0.7635 0.7640 0.7649
1558.469480 0.7665 0.7674 0.7680 0.7688 0.7704
1565.394690 0.7718 0.7734 0.7744 0.7750 0.7757
1572.319900 0.7770 0.7773 0.7780 0.7783 0.7790
1579.245110 0.7796 0.7813 0.7825 0.7840 0.7843
1586.170320 0.7850 0.7852 0.7860 0.7860 0.7860
1593.095530 0.7860 0.7860 0.7860 0.7860 0.7860
1600.020740 0.7860 0.7860 0.7860 0.7860 0.7860
1606.945950 0.7860 0.7860 0.7860 0.7860 0.7860
1613.871160 0.7860 0.7860 0.7860 0.7880 0.7880
1620.796370 0.7890 0.7900 0.7900 0.7900 0.7919
1627.721580 0.7929 0.7949 0.7959 0.7969 0.7988
1634.646790 0.7990 0.8025 0.8056 0.8069 0.8070
1641.572000 0.8078 0.8097 0.8108 0.8134 0.8140
1648.497210 0.8179 0.8213 0.8243 0.8258 0.8282
1655.422420 0.8312 0.8327 0.8352 0.8367 0.8384
1662.347630 0.8397 0.8407 0.8410 0.8410 0.8423
1669.272840 0.8430 0.8436 0.8446 0.8462 0.8476
1676.198050 0.8480 0.8480 0.8491 0.8506 0.8515
1683.123260 0.8531 0.8540 0.8545 0.8555 0.8570
1690.048470 0.8585 0.8599 0.8610 0.8615 0.8620
1696.973680 0.8624 0.8630 0.8638 0.8650 0.8650
1703.898890 0.8650 0.8650 0.8654 0.8660 0.8663
1710.824100 0.8670 0.8677 0.8693 0.8700 0.8706
1717.749310 0.8720 0.8723 0.8733 0.8740 0.8740
1724.674520 0.8745 0.8760 0.8762 0.8770 0.8770
1731.599730 0.8772 0.8780 0.8783 0.8800 0.8801
1738.524940 0.8810 0.8810 0.8810 0.8812 0.8830
1745.450150 0.8830 0.8831 0.8840 0.8840 0.8840
1752.375360 0.8840 0.8850 0.8850 0.8850 0.8870
1759.300570 0.8870 0.8870 0.8870 0.8879 0.8880
1766.225780 0.8880 0.8871 0.8870 0.8870 0.8870
1773.150990 0.8870 0.8853 0.8722 0.8565 0.8415
1780.076200 0.8259 0.8181 0.8114 0.7981 0.7824
1787.001410 0.7782 0.7780 0.7772 0.7770 0.7755
1793.926620 0.8239 0.8701 0.8824 0.8844 0.8864
1800.851830 0.8877 0.8887 0.8890 0.8903 0.8916
1807.777040 0.8920 0.8932 0.8940 0.8946 0.8950
1814.702250 0.8956 0.8960 0.8971 0.8980 0.8985
1821.627460 0.8990 0.8995 0.9000 0.9010 0.9020
1828.552670 0.9020 0.9025 0.9030 0.9030 0.9030
1835.477880 0.9030 0.9030 0.9030 0.9030 0.9038
1842.403090 0.9050 0.9050 0.9050 0.9050 0.9050
1849.328300 0.9050 0.9050 0.9050 0.9053 0.9060
1856.253510 0.9060 0.9060 0.9060 0.9060 0.9060
1863.178720 0.9060 0.9060 0.9060 0.9062 0.9070
1870.103930 0.9070 0.9070 0.9070 0.9070 0.9070
1877.029140 0.9070 0.9070 0.9070 0.9070 0.9070
1883.954350 0.9070 0.9070 0.9070 0.9070 0.9070
1890.879560 0.9070 0.9070 0.9070 0.9090 0.9090
1897.804770 0.9090 0.9100 0.9100 0.9100 0.9109
1904.729980 0.9110 0.9110 0.9110 0.9110 0.9127
1911.655190 0.9130 0.9130 0.9130 0.9130 0.9130
1918.580400 0.9130 0.9130 0.9130 0.9130 0.9130
1925.505610 0.9130 0.9130 0.9130 0.9130 0.9130
1932.430820 0.9116 0.9110 0.9110 0.9110 0.9110
1939.356030 0.9110 0.9110 0.9110 0.9110 0.9110
1946.281240 0.9110 0.9110 0.9110 0.9110 0.9110
1953.206450 0.9110 0.9121 0.9130 0.9130 0.9130
1960.131660 0.9130 0.9135 0.9140 0.9140 0.9140
1967.056870 0.9140 0.9140 0.9140 0.9140 0.9140
1973.982080 0.9140 0.9140 0.9140 0.9140 0.9140
1980.907290 0.9140 0.9140 0.9140 0.9140 0.9140
1987.832500 0.9140 0.9137 0.9124 0.9107 0.9100
1994.757710 0.9103 0.9110 0.9110 0.9110 0.9110
2001.682920 0.9110 0.9110 0.9110 0.9110 0.9110
2008.608130 0.9110 0.9110 0.9110 0.9110 0.9110
2015.533340 0.9110 0.9110 0.9110 0.9110 0.9108
2022.458550 0.9100 0.9100 0.9100 0.9100 0.9100
2029.383760 0.9100 0.9100 0.9100 0.9100 0.9100
2036.308970 0.9098 0.9090 0.9090 0.9090 0.9090
2043.234180 0.9092 0.9100 0.9100 0.9100 0.9100
2050.159390 0.9100 0.9100 0.9100 0.9100 0.9100
2057.084600 0.9100 0.9100 0.9100 0.9100 0.9100
2064.009810 0.9100 0.9100 0.9100 0.9100 0.9100
2070.935020 0.9100 0.9100 0.9100 0.9100 0.9100
2077.860230 0.9100 0.9100 0.9098 0.9090 0.9090
2084.785440 0.9086 0.9070 0.9068 0.9060 0.9060
2091.710650 0.9060 0.9062 0.9070 0.9070 0.9074
2098.635860 0.9090 0.9090 0.9090 0.9092 0.9100
2105.561070 0.9100 0.9100 0.9102 0.9110 0.9110
2112.486280 0.9110 0.9110 0.9110 0.9110 0.9110
2119.411490 0.9110 0.9110 0.9110 0.9110 0.9110
2126.336700 0.9110 0.9110 0.9110 0.9110 0.9110
2133.261910 0.9110 0.9110 0.9110 0.9114 0.9130
2140.187120 0.9130 0.9130 0.9130 0.9130 0.9132
2147.112330 0.9140 0.9140 0.9144 0.9160 0.9160
2154.037540 0.9160 0.9160 0.9162 0.9170 0.9170
2160.962750 0.9170 0.9170 0.9172 0.9180 0.9180
2167.887960 0.9180 0.9180 0.9184 0.9200 0.9200
2174.813170 0.9200 0.9200 0.9200 0.9200 0.9200
2181.738380 0.9200 0.9200 0.9200 0.9200 0.9200
2188.663590 0.9200 0.9202 0.9210 0.9210 0.9210
2195.588800 0.9210 0.9210 0.9210 0.9210 0.9210
2202.514010 0.9210 0.9210 0.9210 0.9210 0.9212
2209.439220 0.9220 0.9220 0.9220 0.9220 0.9220
2216.364430 0.9220 0.9220 0.9220 0.9220 0.9220
2223.289640 0.9220 0.9220 0.9220 0.9220 0.9220
2230.214850 0.9220 0.9220 0.9220 0.9220 0.9220
2237.140060 0.9220 0.9220 0.9220 0.9220 0.9220
2244.065270 0.9220 0.9220 0.9220 0.9220 0.9220
2250.990480 0.9220 0.9220 0.9220 0.9220 0.9220
2257.915690 0.9220 0.9220 0.9220 0.9220 0.9220
2264.840900 0.9220 0.9220 0.9220 0.9220 0.9220
2271.766110 0.9220 0.9220 0.9220 0.9220 0.9220
2278.691320 0.9220 0.9220 0.9220 0.9220 0.9220
2285.616530 0.9220 0.9220 0.9220 0.9220 0.9220
2292.541740 0.9220 0.9220 0.9220 0.9220 0.9220
2299.466950 0.9220 0.9220 0.9220 0.9220 0.9220
2306.392160 0.9220 0.9220 0.9220 0.9220 0.9220
2313.317370 0.9220 0.9220 0.9220 0.9220 0.9220
2320.242580 0.9220 0.9220 0.9220 0.9220 0.9220
2327.167790 0.9220 0.9218 0.9210 0.9210 0.9210
2334.093000 0.9210 0.9210 0.9210 0.9210 0.9210
2341.018210 0.9210 0.9210 0.9210 0.9210 0.9210
2347.943420 0.9210 0.9210 0.9208 0.9200 0.9200
2354.868630 0.9200 0.9200 0.9200 0.9200 0.9200
2361.793840 0.9200 0.9200 0.9200 0.9200 0.9200
2368.719050 0.9200 0.9200 0.9200 0.9200 0.9200
2375.644260 0.9200 0.9200 0.9200 0.9200 0.9200
2382.569470 0.9200 0.9200 0.9200 0.9200 0.9200
2389.494680 0.9200 0.9200 0.9200 0.9196 0.9178
2396.419890 0.9168 0.9154 0.9126 0.9110 0.9108
2403.345100 0.9098 0.9086 0.9066 0.9031 0.8956
2410.270310 0.8925 0.8857 0.8795 0.8729 0.8675
2417.195520 0.8618 0.8610 0.8610 0.8610 0.8612
2424.120730 0.8620 0.8620 0.8620 0.8620 0.8620
2431.045940 0.8620 0.8620 0.8620 0.8620 0.8622
2437.971150 0.8634 0.8652 0.8660 0.8662 0.8674
2444.896360 0.8692 0.8700 0.8704 0.8722 0.8732
2451.821570 0.8744 0.8762 0.8772 0.8784 0.8802
2458.746780 0.8810 0.8810 0.8814 0.8830 0.8830
2465.671990 0.8830 0.8832 0.8840 0.8840 0.8842
2472.597200 0.8850 0.8850 0.8850 0.8854 0.8870
2479.522410 0.8870 0.8870 0.8870 0.8870 0.8870
2486.447620 0.8872 0.8880 0.8882 0.8890 0.8894
2493.372830 0.8910 0.8912 0.8924 0.8940 0.8942
2500.298040 0.8950 0.8952 0.8960 0.8964 0.8980
2507.223250 0.8980 0.8982 0.8990 0.8992 0.9000
2514.148460 0.9004 0.9022 0.9034 0.9052 0.9060
2521.073670 0.9060 0.9060 0.9060 0.9062 0.9070
2527.998880 0.9070 0.9070 0.9070 0.9070 0.9070
2534.924090 0.9070 0.9070 0.9070 0.9070 0.9070
2541.849300 0.9070 0.9070 0.9070 0.9070 0.9070
2548.774510 0.9070 0.9070 0.9070 0.9070 0.9070
2555.699720 0.9070 0.9070 0.9070 0.9070 0.9070
2562.624930 0.9074 0.9090 0.9090 0.9090 0.9090
2569.550140 0.9090 0.9090 0.9090 0.9090 0.9090
2576.475350 0.9090 0.9090 0.9090 0.9090 0.9090
2583.400560 0.9090 0.9090 0.9090 0.9090 0.9090
2590.325770 0.9090 0.9090 0.9090 0.9090 0.9090
2597.250980 0.9090 0.9090 0.9090 0.9090 0.9090
2604.176190 0.9090 0.9090 0.9090 0.9090 0.9090
2611.101400 0.9090 0.9090 0.9090 0.9090 0.9090
2618.026610 0.9090 0.9090 0.9090 0.9090 0.9090
2624.951820 0.9090 0.9086 0.9070 0.9070 0.9070
2631.877030 0.9070 0.9070 0.9070 0.9074 0.9090
2638.802240 0.9090 0.9090 0.9090 0.9086 0.9070
2645.727450 0.9070 0.9070 0.9070 0.9070 0.9070
2652.652660 0.9070 0.9070 0.9070 0.9070 0.9070
2659.577870 0.9070 0.9070 0.9070 0.9070 0.9070
2666.503080 0.9070 0.9070 0.9070 0.9070 0.9070
2673.428290 0.9070 0.9070 0.9070 0.9070 0.9070
2680.353500 0.9070 0.9070 0.9070 0.9070 0.9070
2687.278710 0.9070 0.9070 0.9070 0.9070 0.9070
2694.203920 0.9070 0.9070 0.9070 0.9070 0.9070
2701.129130 0.9070 0.9070 0.9070 0.9070 0.9070
2708.054340 0.9070 0.9070 0.9070 0.9070 0.9070
2714.979550 0.9070 0.9070 0.9068 0.9060 0.9060
2721.904760 0.9060 0.9060 0.9058 0.9050 0.9046
2728.829970 0.9030 0.9028 0.9016 0.9000 0.8998
2735.755180 0.8990 0.8988 0.8976 0.8956 0.8936
2742.680390 0.8914 0.8888 0.8878 0.8870 0.8866
2749.605600 0.8850 0.8850 0.8850 0.8854 0.8872
2756.530810 0.8880 0.8882 0.8896 0.8924 0.8942
2763.456020 0.8952 0.8960 0.8964 0.8980 0.8980
2770.381230 0.8980 0.8980 0.8980 0.8980 0.8980
2777.306440 0.8980 0.8980 0.8980 0.8980 0.8980
2784.231650 0.8980 0.8980 0.8980 0.8976 0.8958
2791.156860 0.8950 0.8950 0.8948 0.8940 0.8936
2798.082070 0.8920 0.8918 0.8906 0.8890 0.8890
2805.007280 0.8888 0.8878 0.8870 0.8870 0.8870
2811.932490 0.8866 0.8850 0.8850 0.8848 0.8840
2818.857700 0.8838 0.8830 0.8830 0.8830 0.8830
2825.782910 0.8830 0.8830 0.8826 0.8810 0.8810
2832.708120 0.8808 0.8800 0.8796 0.8776 0.8760
2839.633330 0.8760 0.8760 0.8760 0.8760 0.8760
2846.558540 0.8760 0.8762 0.8772 0.8784 0.8802
2853.483750 0.8814 0.8830 0.8834 0.8850 0.8850
2860.408960 0.8854 0.8870 0.8872 0.8880 0.8880
2867.334170 0.8880 0.8880 0.8880 0.8880 0.8880
2874.259380 0.8880 0.8880 0.8878 0.8870 0.8870
2881.184590 0.8870 0.8866 0.8850 0.8850 0.8850
2888.109800 0.8850 0.8850 0.8850 0.8848 0.8840
2895.035010 0.8840 0.8838 0.8830 0.8830 0.8830
2901.960220 0.8826 0.8810 0.8810 0.8808 0.8800
2908.885430 0.8800 0.8800 0.8800 0.8800 0.8800
2915.810640 0.8802 0.8810 0.8810 0.8810 0.8814
2922.735850 0.8830 0.8830 0.8830 0.8830 0.8832
2929.661060 0.8840 0.8840 0.8842 0.8850 0.8850
2936.586270 0.8854 0.8870 0.8870 0.8872 0.8880
2943.511480 0.8882 0.8890 0.8890 0.8894 0.8910
2950.436690 0.8910 0.8910 0.8912 0.8924 0.8942
2957.361900 0.8952 0.8964 0.8980 0.8982 0.8990
2964.287110 0.8992 0.9000 0.9000 0.9004 0.9020
2971.212320 0.9020 0.9020 0.9020 0.9020 0.9020
2978.137530 0.9020 0.9020 0.9020 0.9020 0.9020
2985.062740 0.9020 0.9020 0.9020 0.9020 0.9020
2991.987950 0.9020 0.9020 0.9020 0.9020 0.9020
2998.913160 0.9020 0.9020 0.9020 0.9020 0.9020
3005.838370 0.9020 0.9020 0.9020 0.9020 0.9020
3012.763580 0.9020 0.9020 0.9020 0.9020 0.9020
3019.688790 0.9020 0.9020 0.9020 0.9020 0.9020
3026.614000 0.9020 0.9020 0.9020 0.9020 0.9020
3033.539210 0.9020 0.9020 0.9020 0.9020 0.9020
3040.464420 0.9020 0.9016 0.9000 0.9000 0.9000
3047.389630 0.9000 0.9000 0.9000 0.9000 0.9000
3054.314840 0.9000 0.9000 0.8998 0.8990 0.8990
3061.240050 0.8990 0.8992 0.9000 0.8998 0.8990
3068.165260 0.8990 0.8990 0.8990 0.8990 0.8990
3075.090470 0.8988 0.8980 0.8980 0.8980 0.8980
3082.015680 0.8980 0.8976 0.8960 0.8960 0.8960
3088.940890 0.8960 0.8960 0.8958 0.8950 0.8950
3095.866100 0.8950 0.8948 0.8940 0.8940 0.8940
3102.791310 0.8940 0.8936 0.8920 0.8920 0.8920
3109.716520 0.8920 0.8918 0.8910 0.8910 0.8910
3116.641730 0.8910 0.8906 0.8890 0.8890 0.8890
3123.566940 0.8888 0.8880 0.8880 0.8880 0.8878
3130.492150 0.8870 0.8870 0.8870 0.8866 0.8850
3137.417360 0.8850 0.8850 0.8848 0.8840 0.8840
3144.342570 0.8840 0.8838 0.8830 0.8830 0.8830
3151.267780 0.8826 0.8810 0.8810 0.8810 0.8808
3158.192990 0.8800 0.8800 0.8800 0.8796 0.8780
3165.118200 0.8780 0.8780 0.8778 0.8770 0.8770
3172.043410 0.8770 0.8768 0.8760 0.8760 0.8760
3178.968620 0.8760 0.8756 0.8740 0.8740 0.8740
3185.893830 0.8740 0.8738 0.8730 0.8730 0.8730
3192.819040 0.8730 0.8728 0.8720 0.8720 0.8720
3199.744250 0.8720 0.8716 0.8700 0.8700 0.8700
3206.669460 0.8700 0.8698 0.8690 0.8686 0.8670
3213.594670 0.8668 0.8660 0.8660 0.8658 0.8650
3220.519880 0.8646 0.8630 0.8628 0.8620 0.8620
3227.445090 0.8620 0.8620 0.8620 0.8618 0.8610
3234.370300 0.8610 0.8610 0.8610 0.8606 0.8590
3241.295510 0.8588 0.8580 0.8580 0.8580 0.8580
3248.220720 0.8580 0.8576 0.8560 0.8560 0.8558
3255.145930 0.8550 0.8550 0.8550 0.8548 0.8540
3262.071140 0.8540 0.8536 0.8520 0.8520 0.8520
3268.996350 0.8520 0.8520 0.8520 0.8520 0.8518
3275.921560 0.8512 0.8520 0.8518 0.8510 0.8510
3282.846770 0.8510 0.8508 0.8500 0.8500 0.8496
3289.771980 0.8480 0.8478 0.8470 0.8470 0.8466
3296.697190 0.8450 0.8448 0.8440 0.8440 0.8438
3303.622400 0.8430 0.8426 0.8410 0.8410 0.8408
3310.547610 0.8400 0.8398 0.8390 0.8390 0.8386
3317.472820 0.8370 0.8368 0.8360 0.8356 0.8340
3324.398030 0.8338 0.8330 0.8330 0.8328 0.8320
3331.323240 0.8316 0.8298 0.8290 0.8288 0.8276
3338.248450 0.8260 0.8258 0.8250 0.8246 0.8228
3345.173660 0.8220 0.8218 0.8206 0.8190 0.8188
3352.098870 0.8180 0.8178 0.8166 0.8150 0.8148
3359.024080 0.8136 0.8120 0.8118 0.8108 0.8100
3365.949290 0.8096 0.8078 0.8068 0.8056 0.8040
3372.874500 0.8038 0.8030 0.8026 0.8008 0.8000
3379.799710 0.7998 0.7990 0.7986 0.7970 0.7968
3386.724920 0.7958 0.7946 0.7930 0.7928 0.7920
3393.650130 0.7916 0.7898 0.7890 0.7888 0.7880
3400.575340 0.7876 0.7858 0.7848 0.7840 0.7836
3407.500550 0.7820 0.7818 0.7806 0.7790 0.7790
3414.425760 0.7788 0.7780 0.7780 0.7780 0.7778
3421.350970 0.7770 0.7770 0.7770 0.7770 0.7770
3428.276180 0.7770 0.7770 0.7770 0.7770 0.7770
3435.201390 0.7770 0.7770 0.7770 0.7770 0.7770
3442.126600 0.7770 0.7770 0.7770 0.7772 0.7780
3449.051810 0.7780 0.7780 0.7782 0.7790 0.7790
3455.977020 0.7790 0.7794 0.7810 0.7810 0.7810
3462.902230 0.7812 0.7820 0.7820 0.7820 0.7820
3469.827440 0.7824 0.7840 0.7840 0.7840 0.7840
3476.752650 0.7842 0.7850 0.7852 0.7860 0.7860
3483.677860 0.7864 0.7880 0.7882 0.7890 0.7890
3490.603070 0.7896 0.7920 0.7920 0.7922 0.7930
3497.528280 0.7934 0.7950 0.7950 0.7952 0.7960
3504.453490 0.7960 0.7962 0.7974 0.7990 0.7992
3511.378700 0.8002 0.8010 0.8014 0.8030 0.8032
3518.303910 0.8044 0.8060 0.8062 0.8072 0.8080
3525.229120 0.8084 0.8102 0.8110 0.8112 0.8124
3532.154330 0.8142 0.8150 0.8154 0.8174 0.8194
3539.079540 0.8210 0.8212 0.8222 0.8234 0.8252
3546.004750 0.8260 0.8264 0.8282 0.8290 0.8292
3552.929960 0.8304 0.8322 0.8330 0.8332 0.8344
3559.855170 0.8362 0.8370 0.8374 0.8392 0.8402
3566.780380 0.8410 0.8414 0.8432 0.8442 0.8450
3573.705590 0.8454 0.8472 0.8480 0.8484 0.8500
3580.630800 0.8504 0.8520 0.8524 0.8540 0.8542
3587.556010 0.8550 0.8552 0.8560 0.8564 0.8580
3594.481220 0.8582 0.8594 0.8610 0.8612 0.8622
3601.406430 0.8634 0.8652 0.8662 0.8674 0.8692
3608.331640 0.8704 0.8722 0.8732 0.8740 0.8744
3615.256850 0.8762 0.8772 0.8784 0.8802 0.8814
3622.182060 0.8830 0.8830 0.8832 0.8840 0.8842
3629.107270 0.8850 0.8854 0.8870 0.8870 0.8872
3636.032480 0.8880 0.8882 0.8890 0.8890 0.8894
3642.957690 0.8910 0.8910 0.8910 0.8910 0.8910
3649.882900 0.8910 0.8910 0.8910 0.8910 0.8910
3656.808110 0.8912 0.8920 0.8920 0.8920 0.8920
3663.733320 0.8920 0.8920 0.8920 0.8920 0.8920
3670.658530 0.8920 0.8920 0.8924 0.8940 0.8940
3677.583740 0.8940 0.8940 0.8940 0.8940 0.8940
3684.508950 0.8940 0.8940 0.8940 0.8940 0.8942
3691.434160 0.8950 0.8950 0.8950 0.8950 0.8950
3698.359370 0.8950 0.8950 0.8952 0.8960 0.8960
3705.284580 0.8960 0.8964 0.8980 0.8980 0.8980
3712.209790 0.8980 0.8980 0.8980 0.8980 0.8980
3719.135000 0.8980 0.8980 0.8980 0.8982 0.8990
3726.060210 0.8990 0.8990 0.8990 0.8990 0.8990
3732.985420 0.8990 0.8990 0.8990 0.8990 0.8990
3739.910630 0.8990 0.8990 0.8990 0.8990 0.8992
3746.835840 0.9000 0.9000 0.9000 0.9000 0.9000
3753.761050 0.9000 0.9000 0.9000 0.9000 0.9000
3760.686260 0.9000 0.9000 0.9000 0.9000 0.9000
3767.611470 0.9000 0.9000 0.9000 0.9000 0.9000
3774.536680 0.9000 0.9000 0.9000 0.9000 0.9000
3781.461890 0.9000 0.9000 0.9000 0.9000 0.9000
3788.387100 0.9000 0.9000 0.9000 0.9000 0.9000
3795.312310 0.9000 0.9000 0.9000 0.9000 0.9000
3802.237520 0.9000 0.9000 0.9000 0.9000 0.9000
3809.162730 0.9000 0.9000 0.9000 0.9000 0.9000
3816.087940 0.9000 0.9000 0.9000 0.9000 0.9000
3823.013150 0.8998 0.8990 0.8990 0.8990 0.8990
3829.938360 0.8990 0.8990 0.8990 0.8990 0.8990
3836.863570 0.8990 0.8990 0.8990 0.8990 0.8990
3843.788780 0.8990 0.8990 0.8990 0.8990 0.8990
3850.713990 0.8990 0.8990 0.8990 0.8990 0.8990
3857.639200 0.8990 0.8990 0.8990 0.8990 0.8990
3864.564410 0.8990 0.8990 0.8990 0.8990 0.8990
3871.489620 0.8990 0.8990 0.8990 0.8990 0.8990
3878.414830 0.8990 0.8990 0.8990 0.8990 0.8990
3885.340040 0.8990 0.8990 0.8990 0.8990 0.8990
3892.265250 0.8990 0.8990 0.8990 0.8990 0.8990
3899.190460 0.8990 0.8990 0.8988 0.8980 0.8980
3906.115670 0.8980 0.8980 0.8980 0.8980 0.8980
3913.040880 0.8980 0.8982 0.8990 0.8990 0.8990
3919.966090 0.8990 0.8990 0.8990 0.8990 0.8990
3926.891300 0.8990 0.8990 0.8990 0.8990 0.8990
3933.816510 0.8990 0.8990 0.8990 0.8990 0.8990
3940.741720 0.8990 0.8990 0.8990 0.8990 0.8990
3947.666930 0.8990 0.8990 0.8988 0.8980 0.8980
3954.592140 0.8980 0.8980 0.8980 0.8980 0.8980
3961.517350 0.8980 0.8980 0.8980 0.8980 0.8980
3968.442560 0.8980 0.8980 0.8980 0.8980 0.8980
3975.367770 0.8980 0.8980 0.8980 0.8980 0.8976
3982.292980 0.8960 0.8960 0.8960 0.8960 0.8960
3989.218190 0.8960 0.8960 0.8960 0.8960 0.8960
3996.143400 0.8960 0.8960 0.8960 0.8958 0.8950
4003.068610 0.8950 0.8950 0.8950 0.8952 0.8960
4009.993820 0.8960 0.8958 0.8950 0.8950 0.8950
4016.919030 0.8950
##END=
