##TITLE=SODIUM THIOSULFATE, PENTAHYDRATE
$$ A.R.
##JCAMP-DX=4.24
##DATA TYPE=INFRARED SPECTRUM
##CLASS=COBLENTZ
##ORIGIN=MELLON INSTITUTE
##OWNER=COBLENTZ SOCIETY
Collection (C) 2018 copyright by the U.S. Secretary of Commerce
on behalf of the United States of America. All rights reserved.
##DATE=Not specified, most likely prior to 1970
##MOLFORM=Na2 S2 O3  * 5 H2 O
##SOURCE REFERENCE=COBLENTZ NO. 554
##$NIST ID=B6000554
##$NIST SOURCE=COBLENTZ
##$NIST IMAGE=cob554
##SPECTROMETER/DATA SYSTEM=Not specified, most likely a prism, grating, or hybrid spectrometer.
##STATE=SOLID (NUJOL MULL)
##PATH LENGTH=
$$SPECTRAL CONTAMINATION DUE TO OIL AROUND 2900, 1450, 1380 CM^-^1
##SAMPLING PROCEDURE=TRANSMISSION
##RESOLUTION=4
##DATA PROCESSING=DIGITIZED BY NIST FROM HARD COPY
##XUNITS=MICROMETERS
##YUNITS=TRANSMITTANCE
##XFACTOR=1.000000
##YFACTOR=1
##DELTAX=000.006643
##FIRSTX=2.037
##LASTX=16.0126
##FIRSTY=0.903
##MAXX=16.0126
##MINX=2.037
##MAXY=0.986
##MINY=0.123
##NPOINTS=2105
##XYDATA=(X++(Y..Y))
2.037000 0.9030 0.9040 0.9040 0.9060 0.9060
2.070228 0.9080 0.9080 0.9080 0.9080 0.9090
2.103000 0.9090 0.9090 0.9090 0.9110 0.9130
2.136228 0.9130 0.9130 0.9130 0.9140 0.9160
2.170000 0.9160 0.9160 0.9160 0.9160 0.9180
2.203228 0.9180 0.9160 0.9160 0.9180 0.9180
2.236000 0.9180 0.9180 0.9180 0.9180 0.9180
2.269228 0.9190 0.9190 0.9190 0.9190 0.9190
2.303000 0.9190 0.9180 0.9180 0.9180 0.9180
2.336228 0.9180 0.9190 0.9190 0.9180 0.9180
2.369000 0.9180 0.9180 0.9180 0.9180 0.9180
2.402228 0.9180 0.9180 0.9160 0.9160 0.9160
2.435000 0.9160 0.9160 0.9160 0.9160 0.9140
2.468228 0.9140 0.9130 0.9130 0.9130 0.9130
2.502000 0.9130 0.9130 0.9130 0.9130 0.9130
2.535228 0.9110 0.9110 0.9090 0.9090 0.9090
2.568000 0.9090 0.9090 0.9090 0.9080 0.9080
2.601228 0.9060 0.9040 0.9030 0.9030 0.9010
2.635000 0.9010 0.8990 0.8960 0.8920 0.8890
2.668228 0.8860 0.8820 0.8790 0.8740 0.8710
2.701000 0.8670 0.8660 0.8610 0.8540 0.8420
2.734228 0.8390 0.8310 0.8140 0.8010 0.7690
2.768000 0.7520 0.7120 0.6950 0.6650 0.6600
2.801228 0.5480 0.5300 0.5030 0.4740 0.4240
2.834000 0.3870 0.3710 0.3370 0.3160 0.2970
2.867228 0.2650 0.2540 0.2450 0.2320 0.2220
2.900000 0.2100 0.2050 0.2000 0.2000 0.1970
2.933228 0.1930 0.1930 0.1920 0.1920 0.1920
2.967000 0.1930 0.1930 0.1930 0.1980 0.2100
3.000228 0.2190 0.2290 0.2340 0.2450 0.2570
3.033000 0.2800 0.2820 0.2970 0.3040 0.3120
3.066228 0.3210 0.3390 0.3510 0.3640 0.3720
3.100000 0.3810 0.3990 0.4080 0.4280 0.4560
3.133228 0.4740 0.4910 0.5260 0.5410 0.5560
3.166000 0.5800 0.6000 0.6100 0.6250 0.6450
3.199228 0.6480 0.6700 0.6780 0.6830 0.7000
3.232000 0.7050 0.7120 0.7190 0.7240 0.7270
3.265228 0.7290 0.7290 0.7290 0.7270 0.7240
3.299000 0.7190 0.7090 0.6670 0.6570 0.5260
3.332228 0.4490 0.3710 0.2900 0.2340 0.1820
3.365000 0.1280 0.1250 0.1230 0.1230 0.1270
3.398228 0.1650 0.1720 0.1880 0.2420 0.2520
3.432000 0.2520 0.2500 0.2320 0.2290 0.2290
3.465228 0.2300 0.2450 0.2890 0.3140 0.3890
3.498000 0.4330 0.6020 0.7270 0.7570 0.7750
3.531228 0.8020 0.8210 0.8420 0.8540 0.8660
3.565000 0.8810 0.8890 0.8960 0.8970 0.8990
3.598228 0.9010 0.9030 0.9040 0.9080 0.9110
3.631000 0.9130 0.9140 0.9140 0.9160 0.9180
3.664228 0.9180 0.9190 0.9210 0.9210 0.9230
3.697000 0.9230 0.9240 0.9260 0.9280 0.9280
3.730228 0.9290 0.9290 0.9310 0.9330 0.9330
3.764000 0.9340 0.9360 0.9360 0.9380 0.9380
3.797228 0.9390 0.9410 0.9430 0.9440 0.9460
3.830000 0.9480 0.9480 0.9490 0.9510 0.9530
3.863228 0.9540 0.9540 0.9560 0.9580 0.9610
3.897000 0.9610 0.9630 0.9630 0.9640 0.9660
3.930228 0.9660 0.9680 0.9690 0.9690 0.9710
3.963000 0.9710 0.9730 0.9730 0.9730 0.9740
3.996228 0.9740 0.9760 0.9760 0.9760 0.9780
4.030000 0.9780 0.9790 0.9790 0.9810 0.9810
4.063228 0.9810 0.9830 0.9830 0.9830 0.9830
4.096000 0.9830 0.9840 0.9840 0.9840 0.9840
4.129228 0.9840 0.9840 0.9860 0.9840 0.9840
4.162000 0.9840 0.9840 0.9840 0.9840 0.9840
4.195228 0.9840 0.9840 0.9840 0.9840 0.9840
4.229000 0.9830 0.9830 0.9830 0.9810 0.9810
4.262228 0.9790 0.9790 0.9790 0.9780 0.9780
4.295000 0.9760 0.9760 0.9760 0.9740 0.9740
4.328228 0.9740 0.9730 0.9730 0.9710 0.9710
4.362000 0.9710 0.9690 0.9680 0.9680 0.9660
4.395228 0.9660 0.9640 0.9640 0.9640 0.9630
4.428000 0.9630 0.9630 0.9610 0.9610 0.9610
4.461228 0.9590 0.9590 0.9580 0.9580 0.9560
4.495000 0.9560 0.9540 0.9540 0.9540 0.9530
4.528228 0.9530 0.9510 0.9510 0.9490 0.9490
4.561000 0.9480 0.9460 0.9440 0.9440 0.9440
4.594228 0.9430 0.9430 0.9410 0.9410 0.9390
4.627000 0.9380 0.9380 0.9340 0.9340 0.9340
4.660228 0.9330 0.9330 0.9310 0.9310 0.9290
4.694000 0.9280 0.9260 0.9240 0.9240 0.9230
4.727228 0.9210 0.9190 0.9180 0.9160 0.9140
4.760000 0.9140 0.9130 0.9110 0.9110 0.9110
4.793228 0.9110 0.9110 0.9110 0.9110 0.9110
4.827000 0.9110 0.9110 0.9110 0.9130 0.9130
4.860228 0.9130 0.9130 0.9130 0.9140 0.9140
4.893000 0.9140 0.9140 0.9160 0.9160 0.9180
4.926228 0.9180 0.9180 0.9190 0.9190 0.9190
4.960000 0.9210 0.9210 0.9210 0.9210 0.9210
4.993228 0.9230 0.9210 0.9210 0.9210 0.9210
5.026000 0.9210 0.9230 0.9230 0.9240 0.9240
5.059228 0.9260 0.9260 0.9280 0.9290 0.9310
5.092000 0.9330 0.9330 0.9340 0.9360 0.9390
5.125228 0.9410 0.9430 0.9440 0.9460 0.9490
5.159000 0.9490 0.9510 0.9530 0.9530 0.9530
5.192228 0.9540 0.9540 0.9540 0.9540 0.9540
5.225000 0.9540 0.9540 0.9540 0.9540 0.9540
5.258228 0.9540 0.9540 0.9540 0.9540 0.9540
5.292000 0.9530 0.9530 0.9530 0.9530 0.9530
5.325228 0.9530 0.9530 0.9530 0.9530 0.9530
5.358000 0.9530 0.9530 0.9530 0.9530 0.9530
5.391228 0.9530 0.9530 0.9530 0.9530 0.9530
5.425000 0.9530 0.9540 0.9540 0.9540 0.9540
5.458228 0.9540 0.9540 0.9530 0.9530 0.9530
5.491000 0.9530 0.9530 0.9530 0.9530 0.9530
5.524228 0.9530 0.9530 0.9530 0.9530 0.9530
5.557000 0.9510 0.9510 0.9510 0.9490 0.9490
5.590228 0.9490 0.9490 0.9480 0.9460 0.9440
5.624000 0.9430 0.9430 0.9430 0.9410 0.9380
5.657228 0.9340 0.9290 0.9280 0.9240 0.9240
5.690000 0.9240 0.9230 0.9230 0.9230 0.9230
5.723228 0.9230 0.9230 0.9210 0.9210 0.9190
5.757000 0.9190 0.9190 0.9190 0.9180 0.9160
5.790228 0.9140 0.9130 0.9090 0.9060 0.9030
5.823000 0.8990 0.8970 0.8920 0.8910 0.8860
5.856228 0.8810 0.8770 0.8720 0.8670 0.8620
5.889000 0.8560 0.8510 0.8410 0.8270 0.8120
5.922228 0.7500 0.7390 0.7290 0.7150 0.7070
5.956000 0.6950 0.6850 0.6720 0.6620 0.6520
5.989228 0.6350 0.6220 0.5850 0.5610 0.5360
6.022000 0.5350 0.5160 0.5150 0.5150 0.5160
6.055228 0.5180 0.5210 0.5280 0.5500 0.5900
6.089000 0.6070 0.6620 0.6780 0.6870 0.6970
6.122228 0.6980 0.6950 0.6950 0.6770 0.6770
6.155000 0.6900 0.7000 0.7070 0.7240 0.7350
6.188228 0.7520 0.7690 0.7820 0.7970 0.7990
6.222000 0.8040 0.8090 0.8140 0.8190 0.8220
6.255228 0.8310 0.8340 0.8370 0.8390 0.8410
6.288000 0.8420 0.8440 0.8440 0.8460 0.8470
6.321228 0.8490 0.8490 0.8490 0.8490 0.8510
6.354000 0.8510 0.8510 0.8510 0.8520 0.8520
6.387228 0.8520 0.8520 0.8540 0.8540 0.8520
6.421000 0.8540 0.8540 0.8540 0.8540 0.8540
6.454228 0.8520 0.8520 0.8510 0.8470 0.8470
6.487000 0.8470 0.8470 0.8490 0.8490 0.8490
6.520228 0.8490 0.8510 0.8510 0.8490 0.8490
6.554000 0.8490 0.8490 0.8490 0.8490 0.8470
6.587228 0.8470 0.8460 0.8460 0.8460 0.8460
6.620000 0.8460 0.8440 0.8420 0.8410 0.8390
6.653228 0.8360 0.8310 0.8290 0.8240 0.8190
6.687000 0.8120 0.8090 0.8040 0.7990 0.7970
6.720228 0.7800 0.7740 0.7640 0.7490 0.7340
6.753000 0.7240 0.7090 0.6920 0.6680 0.6320
6.786228 0.6020 0.5700 0.5400 0.5150 0.4890
6.819000 0.4740 0.4690 0.4660 0.4640 0.4640
6.852228 0.4680 0.4680 0.4730 0.4980 0.5300
6.886000 0.5430 0.5600 0.5650 0.5710 0.5880
6.919228 0.6120 0.6380 0.6480 0.6630 0.6750
6.952000 0.6800 0.6980 0.7050 0.7190 0.7270
6.985228 0.7340 0.7390 0.7440 0.7520 0.7570
7.019000 0.7620 0.7640 0.7670 0.7690 0.7700
7.052228 0.7720 0.7740 0.7750 0.7770 0.7770
7.085000 0.7770 0.7770 0.7770 0.7770 0.7770
7.118228 0.7770 0.7770 0.7740 0.7720 0.7690
7.152000 0.7620 0.7550 0.7500 0.7170 0.6830
7.185228 0.6650 0.6520 0.6350 0.6200 0.6020
7.218000 0.5850 0.5830 0.5860 0.6120 0.6250
7.251228 0.6380 0.6420 0.6470 0.6500 0.6550
7.284000 0.6580 0.6630 0.6680 0.6820 0.6920
7.317228 0.6980 0.7020 0.7050 0.7120 0.7150
7.351000 0.7170 0.7200 0.7250 0.7290 0.7300
7.384228 0.7320 0.7320 0.7340 0.7350 0.7350
7.417000 0.7370 0.7390 0.7400 0.7400 0.7420
7.450228 0.7440 0.7450 0.7470 0.7500 0.7520
7.484000 0.7540 0.7540 0.7550 0.7570 0.7570
7.517228 0.7590 0.7590 0.7590 0.7590 0.7570
7.550000 0.7570 0.7540 0.7540 0.7540 0.7540
7.583228 0.7540 0.7520 0.7520 0.7520 0.7520
7.617000 0.7520 0.7520 0.7520 0.7520 0.7520
7.650228 0.7520 0.7520 0.7520 0.7540 0.7540
7.683000 0.7540 0.7540 0.7540 0.7540 0.7540
7.716228 0.7540 0.7540 0.7540 0.7540 0.7540
7.749000 0.7550 0.7550 0.7550 0.7550 0.7550
7.782228 0.7550 0.7550 0.7550 0.7540 0.7520
7.816000 0.7520 0.7520 0.7520 0.7520 0.7520
7.849228 0.7520 0.7500 0.7500 0.7500 0.7500
7.882000 0.7490 0.7490 0.7490 0.7470 0.7470
7.915228 0.7470 0.7470 0.7450 0.7450 0.7440
7.949000 0.7440 0.7440 0.7420 0.7420 0.7400
7.982228 0.7400 0.7390 0.7370 0.7350 0.7350
8.015000 0.7340 0.7320 0.7300 0.7300 0.7290
8.048228 0.7290 0.7270 0.7250 0.7240 0.7220
8.082000 0.7220 0.7200 0.7200 0.7190 0.7170
8.115228 0.7120 0.7100 0.7070 0.7040 0.7020
8.148000 0.7020 0.7000 0.6980 0.6970 0.6950
8.181228 0.6930 0.6920 0.6920 0.6900 0.6870
8.214000 0.6850 0.6820 0.6820 0.6780 0.6770
8.247228 0.6730 0.6700 0.6670 0.6630 0.6580
8.281000 0.6570 0.6530 0.6500 0.6480 0.6420
8.314228 0.6370 0.6320 0.6220 0.6170 0.6030
8.347000 0.5980 0.5900 0.5800 0.5730 0.5680
8.380228 0.5650 0.5550 0.5460 0.5380 0.5300
8.414000 0.5100 0.5010 0.4980 0.4930 0.4790
8.447228 0.4710 0.4510 0.4340 0.4190 0.3990
8.480000 0.3770 0.3470 0.3370 0.3090 0.3020
8.513228 0.2620 0.2500 0.2450 0.2350 0.2200
8.546000 0.2150 0.2150 0.2140 0.2100 0.2090
8.579228 0.2090 0.2090 0.2090 0.2100 0.2100
8.613000 0.2100 0.2100 0.2100 0.2100 0.2100
8.646228 0.2100 0.2100 0.2100 0.2100 0.2100
8.679000 0.2070 0.2050 0.2040 0.2040 0.2040
8.712228 0.2020 0.2000 0.2000 0.1980 0.1920
8.746000 0.1870 0.1830 0.1800 0.1780 0.1750
8.779228 0.1730 0.1700 0.1670 0.1650 0.1630
8.812000 0.1620 0.1600 0.1580 0.1580 0.1580
8.845228 0.1580 0.1620 0.1630 0.1650 0.1650
8.879000 0.1670 0.1670 0.1670 0.1670 0.1680
8.912228 0.1680 0.1680 0.1680 0.1680 0.1700
8.945000 0.1700 0.1700 0.1720 0.1720 0.1730
8.978228 0.1750 0.1820 0.1870 0.1970 0.2000
9.011000 0.2050 0.2150 0.2200 0.2270 0.2340
9.044228 0.2400 0.2540 0.2640 0.2720 0.2820
9.078000 0.2900 0.2990 0.3160 0.3270 0.3370
9.111228 0.3440 0.3590 0.3760 0.3870 0.3970
9.144000 0.4040 0.4110 0.4180 0.4210 0.4290
9.177228 0.4380 0.4440 0.4490 0.4560 0.4680
9.211000 0.4710 0.4790 0.4880 0.4880 0.5000
9.244228 0.5030 0.5060 0.5110 0.5150 0.5180
9.277000 0.5230 0.5260 0.5300 0.5330 0.5380
9.310228 0.5410 0.5450 0.5480 0.5510 0.5530
9.344000 0.5560 0.5630 0.5660 0.5680 0.5730
9.377228 0.5760 0.5850 0.5880 0.5900 0.5910
9.410000 0.5930 0.5960 0.5980 0.6000 0.6030
9.443228 0.6030 0.6080 0.6120 0.6130 0.6150
9.476000 0.6150 0.6170 0.6180 0.6200 0.6220
9.509228 0.6220 0.6230 0.6250 0.6250 0.6270
9.543000 0.6280 0.6280 0.6280 0.6300 0.6300
9.576228 0.6300 0.6320 0.6300 0.6300 0.6300
9.609000 0.6300 0.6300 0.6300 0.6300 0.6300
9.642228 0.6280 0.6270 0.6250 0.6230 0.6220
9.676000 0.6170 0.6130 0.6100 0.6050 0.6030
9.709228 0.6000 0.5900 0.5750 0.5510 0.5480
9.742000 0.5350 0.5310 0.5180 0.5080 0.4960
9.775228 0.4840 0.4630 0.4390 0.4330 0.4240
9.809000 0.4080 0.3970 0.3840 0.3720 0.3590
9.842228 0.3440 0.3390 0.3290 0.3160 0.3010
9.875000 0.2900 0.2790 0.2670 0.2570 0.2440
9.908228 0.2370 0.2320 0.2220 0.2150 0.2070
9.941000 0.2000 0.1870 0.1770 0.1730 0.1720
9.974228 0.1700 0.1680 0.1700 0.1720 0.1730
10.008000 0.1750 0.1820 0.1850 0.1900 0.2000
10.041228 0.2020 0.2100 0.2200 0.2270 0.2390
10.074000 0.2490 0.2640 0.2790 0.2870 0.3010
10.107228 0.3110 0.3170 0.3270 0.3420 0.3590
10.141000 0.3710 0.3810 0.3960 0.4010 0.4130
10.174228 0.4280 0.4340 0.4440 0.4490 0.4580
10.207000 0.4730 0.4810 0.4980 0.5080 0.5150
10.240228 0.5210 0.5280 0.5330 0.5380 0.5460
10.274000 0.5510 0.5560 0.5600 0.5680 0.5730
10.307228 0.5780 0.5850 0.5880 0.5910 0.6000
10.340000 0.6000 0.6030 0.6070 0.6120 0.6130
10.373228 0.6180 0.6220 0.6230 0.6280 0.6320
10.406000 0.6350 0.6380 0.6400 0.6420 0.6450
10.439228 0.6470 0.6500 0.6520 0.6530 0.6570
10.473000 0.6620 0.6630 0.6650 0.6680 0.6680
10.506228 0.6700 0.6720 0.6730 0.6750 0.6770
10.539000 0.6800 0.6820 0.6830 0.6850 0.6870
10.572228 0.6880 0.6880 0.6900 0.6900 0.6920
10.606000 0.6930 0.6950 0.7000 0.7020 0.7040
10.639228 0.7040 0.7040 0.7090 0.7090 0.7100
10.672000 0.7120 0.7120 0.7140 0.7150 0.7170
10.705228 0.7190 0.7200 0.7200 0.7220 0.7240
10.739000 0.7250 0.7270 0.7270 0.7290 0.7290
10.772228 0.7300 0.7320 0.7320 0.7320 0.7340
10.805000 0.7340 0.7350 0.7350 0.7390 0.7400
10.838228 0.7400 0.7400 0.7420 0.7440 0.7450
10.871000 0.7450 0.7470 0.7490 0.7490 0.7490
10.904228 0.7500 0.7500 0.7500 0.7520 0.7540
10.938000 0.7540 0.7540 0.7540 0.7540 0.7550
10.971228 0.7550 0.7550 0.7570 0.7570 0.7590
11.004000 0.7600 0.7600 0.7620 0.7620 0.7620
11.037228 0.7640 0.7640 0.7650 0.7650 0.7670
11.071000 0.7670 0.7690 0.7690 0.7690 0.7700
11.104228 0.7720 0.7720 0.7740 0.7740 0.7740
11.137000 0.7750 0.7750 0.7770 0.7770 0.7790
11.170228 0.7790 0.7800 0.7800 0.7820 0.7820
11.204000 0.7840 0.7850 0.7850 0.7870 0.7870
11.237228 0.7870 0.7890 0.7890 0.7900 0.7900
11.270000 0.7920 0.7920 0.7920 0.7920 0.7920
11.303228 0.7940 0.7940 0.7940 0.7950 0.7950
11.336000 0.7950 0.7970 0.7970 0.7970 0.7970
11.369228 0.7970 0.7970 0.7970 0.7970 0.7990
11.403000 0.7990 0.8010 0.7990 0.7990 0.7990
11.436228 0.7990 0.8010 0.8010 0.8010 0.8010
11.469000 0.8010 0.8010 0.8010 0.8010 0.8020
11.502228 0.8020 0.8020 0.8040 0.8040 0.8040
11.536000 0.8040 0.8040 0.8040 0.8040 0.8060
11.569228 0.8060 0.8060 0.8060 0.8060 0.8060
11.602000 0.8060 0.8040 0.8040 0.8040 0.8060
11.635228 0.8060 0.8060 0.8070 0.8070 0.8070
11.668000 0.8070 0.8070 0.8090 0.8090 0.8110
11.701228 0.8120 0.8120 0.8120 0.8140 0.8140
11.735000 0.8140 0.8140 0.8140 0.8140 0.8160
11.768228 0.8170 0.8170 0.8170 0.8190 0.8190
11.801000 0.8210 0.8210 0.8210 0.8210 0.8220
11.834228 0.8220 0.8220 0.8220 0.8220 0.8220
11.868000 0.8220 0.8220 0.8240 0.8240 0.8240
11.901228 0.8240 0.8240 0.8240 0.8240 0.8240
11.934000 0.8240 0.8260 0.8260 0.8260 0.8240
11.967228 0.8240 0.8220 0.8220 0.8220 0.8220
12.001000 0.8220 0.8220 0.8220 0.8220 0.8220
12.034228 0.8210 0.8210 0.8210 0.8210 0.8210
12.067000 0.8190 0.8190 0.8190 0.8190 0.8190
12.100228 0.8170 0.8170 0.8170 0.8170 0.8170
12.133000 0.8160 0.8160 0.8140 0.8140 0.8160
12.166228 0.8160 0.8140 0.8140 0.8140 0.8120
12.200000 0.8120 0.8120 0.8140 0.8120 0.8120
12.233228 0.8110 0.8110 0.8110 0.8090 0.8090
12.266000 0.8090 0.8070 0.8070 0.8060 0.8060
12.299228 0.8060 0.8020 0.8020 0.8020 0.8010
12.333000 0.8010 0.7990 0.7990 0.7990 0.7990
12.366228 0.7970 0.7970 0.7950 0.7950 0.7940
12.399000 0.7940 0.7920 0.7940 0.7920 0.7920
12.432228 0.7920 0.7900 0.7890 0.7890 0.7870
12.466000 0.7870 0.7850 0.7850 0.7850 0.7840
12.499228 0.7820 0.7820 0.7820 0.7820 0.7800
12.532000 0.7790 0.7790 0.7770 0.7750 0.7750
12.565228 0.7740 0.7720 0.7720 0.7720 0.7700
12.598000 0.7690 0.7690 0.7670 0.7670 0.7670
12.631228 0.7650 0.7640 0.7620 0.7600 0.7600
12.665000 0.7600 0.7590 0.7570 0.7550 0.7540
12.698228 0.7540 0.7540 0.7520 0.7520 0.7520
12.731000 0.7500 0.7490 0.7490 0.7470 0.7450
12.764228 0.7450 0.7440 0.7440 0.7420 0.7400
12.798000 0.7390 0.7370 0.7350 0.7350 0.7340
12.831228 0.7320 0.7320 0.7300 0.7300 0.7290
12.864000 0.7290 0.7270 0.7250 0.7250 0.7240
12.897228 0.7220 0.7220 0.7200 0.7190 0.7170
12.931000 0.7170 0.7150 0.7140 0.7140 0.7140
12.964228 0.7120 0.7120 0.7100 0.7100 0.7090
12.997000 0.7090 0.7070 0.7070 0.7070 0.7070
13.030228 0.7050 0.7050 0.7050 0.7040 0.7040
13.063000 0.7040 0.7020 0.7020 0.7020 0.7020
13.096228 0.7020 0.7000 0.7000 0.7000 0.7000
13.130000 0.7000 0.6980 0.6980 0.6980 0.6980
13.163228 0.6980 0.6980 0.6980 0.6980 0.6980
13.196000 0.6980 0.6980 0.6980 0.6980 0.6980
13.229228 0.6980 0.6970 0.6970 0.6970 0.6970
13.263000 0.6970 0.6970 0.6970 0.6970 0.6970
13.296228 0.6970 0.6980 0.6980 0.6970 0.6970
13.329000 0.6970 0.6970 0.6970 0.6970 0.6970
13.362228 0.6950 0.6950 0.6950 0.6950 0.6950
13.396000 0.6930 0.6930 0.6920 0.6900 0.6900
13.429228 0.6900 0.6880 0.6880 0.6880 0.6870
13.462000 0.6850 0.6830 0.6820 0.6820 0.6780
13.495228 0.6780 0.6750 0.6730 0.6720 0.6700
13.528000 0.6680 0.6670 0.6650 0.6620 0.6600
13.561228 0.6580 0.6570 0.6530 0.6520 0.6500
13.595000 0.6480 0.6450 0.6420 0.6400 0.6380
13.628228 0.6370 0.6350 0.6320 0.6320 0.6280
13.661000 0.6270 0.6250 0.6230 0.6220 0.6180
13.694228 0.6170 0.6150 0.6130 0.6120 0.6100
13.728000 0.6070 0.6020 0.6020 0.6000 0.5980
13.761228 0.5980 0.5980 0.5930 0.5910 0.5900
13.794000 0.5880 0.5860 0.5850 0.5830 0.5810
13.827228 0.5780 0.5780 0.5760 0.5750 0.5730
13.861000 0.5710 0.5710 0.5680 0.5660 0.5660
13.894228 0.5650 0.5630 0.5610 0.5600 0.5580
13.927000 0.5560 0.5530 0.5510 0.5510 0.5500
13.960228 0.5480 0.5480 0.5460 0.5450 0.5430
13.993000 0.5430 0.5430 0.5410 0.5400 0.5360
14.026228 0.5350 0.5330 0.5310 0.5310 0.5300
14.060000 0.5280 0.5280 0.5260 0.5250 0.5230
14.093228 0.5210 0.5200 0.5200 0.5180 0.5160
14.126000 0.5150 0.5150 0.5130 0.5110 0.5100
14.159228 0.5080 0.5050 0.5030 0.5030 0.5030
14.193000 0.5010 0.5010 0.5000 0.4980 0.4940
14.226228 0.4940 0.4930 0.4930 0.4910 0.4890
14.259000 0.4890 0.4880 0.4860 0.4840 0.4840
14.292228 0.4830 0.4830 0.4810 0.4790 0.4790
14.325000 0.4780 0.4780 0.4780 0.4760 0.4760
14.358228 0.4740 0.4740 0.4730 0.4730 0.4710
14.392000 0.4690 0.4690 0.4690 0.4680 0.4680
14.425228 0.4660 0.4660 0.4640 0.4640 0.4640
14.458000 0.4610 0.4610 0.4590 0.4590 0.4580
14.491228 0.4560 0.4540 0.4530 0.4530 0.4510
14.525000 0.4510 0.4510 0.4490 0.4490 0.4480
14.558228 0.4460 0.4460 0.4460 0.4440 0.4430
14.591000 0.4430 0.4430 0.4430 0.4410 0.4380
14.624228 0.4380 0.4360 0.4360 0.4360 0.4360
14.658000 0.4330 0.4330 0.4310 0.4310 0.4290
14.691228 0.4290 0.4280 0.4260 0.4260 0.4260
14.724000 0.4240 0.4240 0.4240 0.4230 0.4230
14.757228 0.4230 0.4230 0.4210 0.4210 0.4190
14.790000 0.4190 0.4190 0.4190 0.4190 0.4190
14.823228 0.4210 0.4210 0.4230 0.4230 0.4230
14.857000 0.4240 0.4230 0.4230 0.4230 0.4240
14.890228 0.4240 0.4260 0.4260 0.4260 0.4280
14.923000 0.4290 0.4290 0.4310 0.4330 0.4340
14.956228 0.4360 0.4380 0.4390 0.4390 0.4410
14.990000 0.4430 0.4440 0.4440 0.4460 0.4480
15.023228 0.4490 0.4510 0.4530 0.4540 0.4560
15.056000 0.4580 0.4590 0.4610 0.4630 0.4630
15.089228 0.4660 0.4680 0.4690 0.4690 0.4730
15.123000 0.4740 0.4760 0.4790 0.4810 0.4830
15.156228 0.4840 0.4860 0.4890 0.4930 0.4940
15.189000 0.4960 0.5000 0.5030 0.5050 0.5060
15.222228 0.5080 0.5100 0.5110 0.5160 0.5210
15.255000 0.5230 0.5250 0.5280 0.5310 0.5350
15.288228 0.5380 0.5400 0.5430 0.5450 0.5480
15.322000 0.5510 0.5530 0.5550 0.5580 0.5610
15.355228 0.5650 0.5680 0.5700 0.5730 0.5750
15.388000 0.5760 0.5760 0.5780 0.5780 0.5810
15.421228 0.5830 0.5830 0.5850 0.5850 0.5850
15.455000 0.5850 0.5860 0.5880 0.5880 0.5880
15.488228 0.5900 0.5910 0.5910 0.5910 0.5930
15.521000 0.5930 0.5950 0.5960 0.5960 0.6000
15.554228 0.6020 0.6020 0.6030 0.6050 0.6070
15.588000 0.6070 0.6100 0.6100 0.6120 0.6130
15.621228 0.6130 0.6150 0.6150 0.6170 0.6170
15.654000 0.6180 0.6180 0.6200 0.6220 0.6220
15.687228 0.6230 0.6230 0.6250 0.6270 0.6280
15.720000 0.6300 0.6320 0.6320 0.6330 0.6350
15.753228 0.6370 0.6380 0.6380 0.6400 0.6420
15.787000 0.6420 0.6430 0.6450 0.6470 0.6480
15.820228 0.6500 0.6520 0.6530 0.6530 0.6550
15.853000 0.6570 0.6570 0.6580 0.6580 0.6600
15.886228 0.6620 0.6620 0.6620 0.6630 0.6630
15.920000 0.6650 0.6650 0.6670 0.6670 0.6670
15.953228 0.6680 0.6700 0.6700 0.6700 0.6720
15.986000 0.6730 0.6730 0.6750 0.6750 0.6750
##END=
