##TITLE=PULEGONE, 2,4-DINITROPHENYL HYDRAZONE
##JCAMP-DX=4.24
##DATA TYPE=INFRARED SPECTRUM
##CLASS=COBLENTZ
##ORIGIN=CITRUS EXPERIMENT STATION, UNIVERSITY OF FLORIDA (G. EDWARDS)
##OWNER=COBLENTZ SOCIETY
Collection (C) 2018 copyright by the U.S. Secretary of Commerce
on behalf of the United States of America. All rights reserved.
##DATE=Not specified, most likely prior to 1970
##NAMES=(1E)-2-methyl-5-(1-methylethylidene)cyclohexanone (2,4-dinitrophenyl)hydrazone
##MOLFORM=C16 H20 N4 O4
##MP=142 C
##SOURCE REFERENCE=COBLENTZ NO. 2097
##$NIST ID=B6002097
##$NIST SOURCE=COBLENTZ
##$NIST IMAGE=cob2097
##SPECTROMETER/DATA SYSTEM=Not specified, most likely a grating spectrometer.
##STATE=SOLID (KBr PELLET)
##PATH LENGTH=
$$SPECTRAL CONTAMINATION DUE TO H2O AROUND 3300 CM^-^1
##SAMPLING PROCEDURE=TRANSMISSION
##RESOLUTION=4
##DATA PROCESSING=DIGITIZED BY NIST FROM HARD COPY
##XUNITS=MICROMETERS
##YUNITS=TRANSMITTANCE
##XFACTOR=1.000000
##YFACTOR=1
##DELTAX=000.006670
##FIRSTX=2.02
##LASTX=14.9934
##FIRSTY=0.692
##MAXX=14.9934
##MINX=2.02
##MAXY=0.802
##MINY=0.002
##NPOINTS=1946
##XYDATA=(X++(Y..Y))
2.020000 0.6920 0.6920 0.6920 0.6920 0.6940
2.053366 0.6960 0.6960 0.6970 0.6980 0.6980
2.087000 0.6980 0.6980 0.7000 0.7000 0.7000
2.120366 0.7000 0.7000 0.7000 0.7010 0.7010
2.153000 0.7010 0.7010 0.7010 0.7020 0.7020
2.186366 0.7020 0.7040 0.7040 0.7040 0.7050
2.220000 0.7050 0.7050 0.7060 0.7060 0.7080
2.253366 0.7080 0.7090 0.7090 0.7100 0.7100
2.287000 0.7120 0.7120 0.7130 0.7130 0.7140
2.320366 0.7140 0.7140 0.7160 0.7170 0.7180
2.354000 0.7180 0.7200 0.7200 0.7210 0.7220
2.387366 0.7220 0.7240 0.7240 0.7250 0.7260
2.420000 0.7260 0.7260 0.7260 0.7280 0.7280
2.453366 0.7290 0.7290 0.7300 0.7300 0.7300
2.487000 0.7300 0.7300 0.7300 0.7300 0.7300
2.520366 0.7320 0.7320 0.7320 0.7340 0.7370
2.554000 0.7370 0.7370 0.7380 0.7380 0.7380
2.587366 0.7380 0.7380 0.7380 0.7380 0.7380
2.620000 0.7380 0.7380 0.7380 0.7380 0.7380
2.653366 0.7380 0.7370 0.7370 0.7360 0.7340
2.687000 0.7320 0.7320 0.7300 0.7290 0.7280
2.720366 0.7240 0.7200 0.7180 0.7160 0.7160
2.754000 0.7140 0.7120 0.7100 0.7090 0.7080
2.787366 0.7060 0.7020 0.7010 0.7000 0.6980
2.820000 0.6930 0.6900 0.6890 0.6890 0.6850
2.853366 0.6840 0.6820 0.6810 0.6800 0.6800
2.887000 0.6780 0.6780 0.6780 0.6800 0.6810
2.920366 0.6810 0.6820 0.6860 0.6900 0.6930
2.954000 0.6960 0.7010 0.7020 0.7020 0.7010
2.987366 0.6800 0.6570 0.6200 0.4680 0.4360
3.020000 0.4340 0.4360 0.6000 0.6780 0.7020
3.053366 0.7240 0.7380 0.7500 0.7520 0.7600
3.087000 0.7660 0.7720 0.7780 0.7840 0.7890
3.120366 0.7900 0.7920 0.7940 0.8000 0.8000
3.154000 0.8010 0.8020 0.8020 0.8000 0.7980
3.187366 0.7860 0.7170 0.6700 0.6690 0.6700
3.221000 0.6970 0.7260 0.7490 0.7500 0.7600
3.254366 0.7640 0.7660 0.7690 0.7690 0.7640
3.287000 0.7580 0.7540 0.7500 0.7420 0.7400
3.320366 0.7300 0.7210 0.7100 0.6900 0.6600
3.354000 0.6090 0.5600 0.5010 0.4610 0.4490
3.387366 0.4480 0.4480 0.4480 0.4490 0.4540
3.421000 0.4620 0.4880 0.5060 0.5300 0.5400
3.454366 0.5410 0.5420 0.5450 0.5530 0.5660
3.487000 0.5810 0.5980 0.6180 0.6380 0.6640
3.520366 0.6850 0.7020 0.7100 0.7160 0.7200
3.554000 0.7250 0.7290 0.7300 0.7320 0.7340
3.587366 0.7400 0.7400 0.7410 0.7440 0.7460
3.621000 0.7480 0.7490 0.7500 0.7500 0.7500
3.654366 0.7520 0.7520 0.7520 0.7520 0.7520
3.687000 0.7520 0.7520 0.7520 0.7520 0.7520
3.720366 0.7520 0.7530 0.7530 0.7560 0.7560
3.754000 0.7560 0.7560 0.7560 0.7560 0.7560
3.787366 0.7560 0.7580 0.7640 0.7640 0.7640
3.821000 0.7640 0.7640 0.7640 0.7640 0.7640
3.854366 0.7650 0.7650 0.7650 0.7650 0.7650
3.888000 0.7650 0.7650 0.7650 0.7650 0.7650
3.921366 0.7650 0.7650 0.7660 0.7660 0.7700
3.954000 0.7700 0.7700 0.7700 0.7700 0.7700
3.987366 0.7700 0.7700 0.7660 0.7660 0.7660
4.021000 0.7650 0.7640 0.7640 0.7640 0.7620
4.054366 0.7620 0.7620 0.7620 0.7620 0.7640
4.088000 0.7640 0.7640 0.7650 0.7650 0.7650
4.121366 0.7650 0.7650 0.7650 0.7650 0.7650
4.154000 0.7650 0.7650 0.7640 0.7640 0.7640
4.187366 0.7650 0.7660 0.7690 0.7700 0.7700
4.221000 0.7720 0.7730 0.7740 0.7740 0.7760
4.254366 0.7760 0.7760 0.7760 0.7780 0.7780
4.288000 0.7800 0.7800 0.7800 0.7800 0.7780
4.321366 0.7780 0.7780 0.7800 0.7780 0.7780
4.354000 0.7780 0.7780 0.7780 0.7780 0.7780
4.387366 0.7770 0.7770 0.7770 0.7770 0.7770
4.421000 0.7780 0.7780 0.7800 0.7810 0.7810
4.454366 0.7820 0.7820 0.7840 0.7850 0.7850
4.488000 0.7860 0.7860 0.7860 0.7860 0.7860
4.521366 0.7860 0.7850 0.7840 0.7840 0.7840
4.555000 0.7840 0.7840 0.7850 0.7860 0.7860
4.588366 0.7860 0.7880 0.7890 0.7890 0.7890
4.621000 0.7900 0.7900 0.7900 0.7900 0.7900
4.654366 0.7900 0.7900 0.7900 0.7900 0.7900
4.688000 0.7900 0.7900 0.7900 0.7900 0.7900
4.721366 0.7900 0.7900 0.7900 0.7900 0.7920
4.755000 0.7920 0.7930 0.7930 0.7920 0.7920
4.788366 0.7920 0.7920 0.7900 0.7900 0.7890
4.821000 0.7890 0.7890 0.7890 0.7890 0.7890
4.854366 0.7890 0.7890 0.7890 0.7890 0.7890
4.888000 0.7900 0.7920 0.7920 0.7920 0.7920
4.921366 0.7920 0.7920 0.7930 0.7930 0.7930
4.955000 0.7930 0.7930 0.7920 0.7900 0.7900
4.988366 0.7890 0.7890 0.7890 0.7890 0.7900
5.021000 0.7920 0.7920 0.7920 0.7900 0.7890
5.054366 0.7860 0.7840 0.7820 0.7810 0.7810
5.088000 0.7810 0.7810 0.7820 0.7840 0.7840
5.121366 0.7850 0.7890 0.7900 0.7960 0.7960
5.155000 0.7970 0.7970 0.7970 0.7980 0.7980
5.188366 0.7980 0.7980 0.7980 0.7980 0.7980
5.222000 0.7980 0.7980 0.7980 0.7980 0.7970
5.255366 0.7970 0.7970 0.7970 0.7970 0.7980
5.288000 0.7980 0.8000 0.8000 0.8000 0.8000
5.321366 0.7980 0.7960 0.7960 0.7960 0.7960
5.355000 0.7960 0.7960 0.7960 0.7960 0.7960
5.388366 0.7960 0.7960 0.7960 0.7930 0.7920
5.422000 0.7920 0.7880 0.7850 0.7780 0.7770
5.455366 0.7770 0.7800 0.7840 0.7850 0.7880
5.488000 0.7880 0.7880 0.7880 0.7890 0.7890
5.521366 0.7900 0.7920 0.7920 0.7930 0.7930
5.555000 0.7940 0.7940 0.7960 0.7960 0.7960
5.588366 0.7960 0.7960 0.7940 0.7930 0.7930
5.622000 0.7930 0.7920 0.7920 0.7920 0.7920
5.655366 0.7920 0.7920 0.7900 0.7890 0.7890
5.688000 0.7860 0.7850 0.7860 0.7880 0.7890
5.721366 0.7890 0.7890 0.7890 0.7890 0.7900
5.755000 0.7920 0.7920 0.7920 0.7920 0.7900
5.788366 0.7880 0.7850 0.7810 0.7810 0.7840
5.822000 0.7860 0.7860 0.7850 0.7820 0.7740
5.855366 0.7720 0.7720 0.7720 0.7720 0.7720
5.889000 0.7720 0.7700 0.7690 0.7620 0.7600
5.922366 0.7580 0.7560 0.7530 0.7520 0.7500
5.955000 0.7460 0.7400 0.7330 0.7250 0.7250
5.988366 0.7240 0.7220 0.7180 0.7170 0.7120
6.022000 0.7090 0.7010 0.6900 0.6650 0.6450
6.055366 0.6360 0.6250 0.6200 0.6090 0.6000
6.089000 0.5800 0.5600 0.5040 0.4420 0.3720
6.122366 0.3210 0.2800 0.2400 0.2020 0.1460
6.155000 0.1000 0.0620 0.0560 0.0560 0.0680
6.188366 0.0820 0.1040 0.1240 0.1520 0.1820
6.222000 0.2210 0.2650 0.2730 0.2740 0.2740
6.255366 0.2500 0.2220 0.1810 0.1320 0.0520
6.289000 0.0480 0.0480 0.0610 0.1000 0.1440
6.322366 0.2010 0.2530 0.3130 0.3810 0.4220
6.355000 0.4620 0.4900 0.5380 0.5650 0.5880
6.388366 0.6050 0.6210 0.6360 0.6500 0.6530
6.422000 0.6530 0.6500 0.6490 0.6380 0.6210
6.455366 0.5900 0.5300 0.4840 0.4440 0.4280
6.489000 0.4220 0.4170 0.4120 0.4090 0.4040
6.522366 0.4010 0.3850 0.3610 0.3250 0.2820
6.556000 0.2500 0.2220 0.2100 0.2010 0.2010
6.589366 0.1940 0.1900 0.1850 0.1740 0.1610
6.622000 0.1520 0.1490 0.1480 0.1500 0.1560
6.655366 0.1820 0.2240 0.3020 0.3530 0.3820
6.689000 0.4100 0.4490 0.4940 0.5400 0.5560
6.722366 0.5700 0.5810 0.5930 0.6020 0.6200
6.756000 0.6240 0.6260 0.6260 0.6260 0.6250
6.789366 0.6220 0.6200 0.6100 0.5980 0.5810
6.822000 0.5610 0.5460 0.5260 0.5200 0.5170
6.855366 0.5170 0.5170 0.5160 0.5140 0.5120
6.889000 0.5060 0.5000 0.4840 0.4740 0.4650
6.922366 0.4520 0.4360 0.4210 0.4010 0.3980
6.956000 0.4000 0.4090 0.4160 0.4240 0.4400
6.989366 0.4410 0.4410 0.4400 0.4280 0.4200
7.022000 0.4020 0.3730 0.3340 0.3010 0.2180
7.055366 0.1900 0.1890 0.1890 0.1900 0.2040
7.089000 0.2500 0.2920 0.4140 0.4940 0.5730
7.122366 0.6240 0.6520 0.6760 0.6930 0.7050
7.156000 0.7120 0.7140 0.7140 0.7120 0.7100
7.189366 0.7000 0.6900 0.6820 0.6800 0.6740
7.222000 0.6600 0.6420 0.6210 0.5920 0.5730
7.255366 0.5340 0.4940 0.4610 0.4260 0.4010
7.289000 0.3690 0.3450 0.3360 0.3340 0.3370
7.322366 0.3720 0.4040 0.4330 0.4460 0.4620
7.356000 0.4720 0.4730 0.4720 0.4640 0.4530
7.389366 0.4440 0.4160 0.3900 0.3660 0.3370
7.423000 0.3060 0.2740 0.2360 0.1960 0.1450
7.456366 0.0920 0.0570 0.0210 0.0020 0.0020
7.489000 0.0020 0.0040 0.0100 0.0240 0.0340
7.522366 0.0520 0.0840 0.1240 0.1850 0.2320
7.556000 0.2720 0.2780 0.2840 0.2730 0.2540
7.589366 0.2300 0.1960 0.1620 0.1240 0.0980
7.623000 0.0720 0.0620 0.0520 0.0520 0.0530
7.656366 0.0540 0.0620 0.0820 0.1020 0.1340
7.689000 0.1600 0.1980 0.2480 0.2720 0.2900
7.722366 0.3120 0.3250 0.3420 0.3520 0.3570
7.756000 0.3610 0.3610 0.3600 0.3560 0.3460
7.789366 0.3400 0.3200 0.3010 0.2780 0.2620
7.823000 0.2340 0.2130 0.2020 0.1820 0.1650
7.856366 0.1540 0.1520 0.1370 0.1330 0.1220
7.889000 0.1170 0.1040 0.0860 0.0720 0.0640
7.922366 0.0520 0.0340 0.0320 0.0260 0.0240
7.956000 0.0240 0.0260 0.0360 0.0450 0.0620
7.989366 0.0810 0.0940 0.1020 0.1690 0.2460
8.023000 0.3080 0.3460 0.3820 0.4220 0.4250
8.056366 0.4500 0.4780 0.5020 0.5090 0.5250
8.090000 0.5400 0.5500 0.5500 0.5460 0.5410
8.123366 0.5330 0.5240 0.5080 0.4960 0.4730
8.156000 0.4530 0.4320 0.4090 0.3840 0.3520
8.189366 0.3220 0.2880 0.2500 0.2060 0.1860
8.223000 0.1850 0.1860 0.2020 0.2320 0.2700
8.256366 0.3140 0.3530 0.4000 0.4400 0.4720
8.290000 0.4970 0.5210 0.5480 0.5560 0.5700
8.323366 0.5820 0.5900 0.6000 0.6050 0.6130
8.356000 0.6200 0.6300 0.6330 0.6420 0.6480
8.389366 0.6500 0.6560 0.6610 0.6620 0.6620
8.423000 0.6640 0.6650 0.6660 0.6690 0.6720
8.456366 0.6730 0.6770 0.6800 0.6800 0.6820
8.490000 0.6850 0.6900 0.6930 0.6970 0.7000
8.523366 0.7020 0.7040 0.7050 0.7090 0.7100
8.556000 0.7120 0.7120 0.7130 0.7130 0.7120
8.589366 0.7090 0.7050 0.7040 0.7020 0.7020
8.623000 0.7020 0.7020 0.7020 0.7020 0.7020
8.656366 0.7010 0.7000 0.7000 0.6930 0.6900
8.690000 0.6820 0.6700 0.6520 0.6420 0.6240
8.723366 0.6020 0.5810 0.5540 0.5340 0.5120
8.757000 0.4920 0.4730 0.4520 0.4320 0.4140
8.790366 0.4020 0.3970 0.3700 0.3370 0.3240
8.823000 0.3050 0.2860 0.2540 0.2320 0.2060
8.856366 0.1760 0.1570 0.1410 0.1280 0.1280
8.890000 0.1290 0.1330 0.1410 0.1540 0.1660
8.923366 0.1900 0.2060 0.2300 0.2570 0.2740
8.957000 0.3060 0.3320 0.3540 0.3810 0.3980
8.990366 0.4160 0.4370 0.4540 0.4660 0.4810
9.023000 0.4940 0.5050 0.5100 0.5200 0.5250
9.056366 0.5300 0.5410 0.5440 0.5490 0.5500
9.090000 0.5520 0.5530 0.5560 0.5570 0.5570
9.123366 0.5570 0.5560 0.5540 0.5520 0.5500
9.157000 0.5490 0.5460 0.5440 0.5400 0.5300
9.190366 0.5290 0.5160 0.5040 0.5000 0.4860
9.223000 0.4740 0.4640 0.4500 0.4340 0.4210
9.256366 0.4130 0.4020 0.4020 0.4020 0.4060
9.290000 0.4140 0.4220 0.4520 0.4650 0.4780
9.323366 0.4940 0.5050 0.5250 0.5370 0.5520
9.357000 0.5610 0.5690 0.5800 0.5890 0.6000
9.390366 0.6010 0.6060 0.6080 0.6090 0.6050
9.424000 0.6020 0.6010 0.5900 0.5800 0.5600
9.457366 0.5370 0.5220 0.5010 0.4800 0.4620
9.490000 0.4620 0.4650 0.4740 0.4850 0.5000
9.523366 0.5130 0.5330 0.5460 0.5760 0.5900
9.557000 0.6020 0.6200 0.6300 0.6450 0.6560
9.590366 0.6650 0.6720 0.6820 0.6850 0.6900
9.624000 0.6960 0.7020 0.7050 0.7060 0.7100
9.657366 0.7100 0.7120 0.7130 0.7160 0.7160
9.690000 0.7170 0.7170 0.7180 0.7200 0.7200
9.723366 0.7200 0.7200 0.7200 0.7200 0.7200
9.757000 0.7200 0.7200 0.7180 0.7170 0.7170
9.790366 0.7170 0.7170 0.7170 0.7160 0.7140
9.824000 0.7130 0.7100 0.7100 0.7040 0.7010
9.857366 0.6960 0.6920 0.6900 0.6820 0.6780
9.890000 0.6760 0.6760 0.6770 0.6800 0.6820
9.923366 0.6900 0.6940 0.7020 0.7100 0.7130
9.957000 0.7200 0.7260 0.7300 0.7320 0.7340
9.990366 0.7360 0.7370 0.7370 0.7370 0.7370
10.024000 0.7370 0.7370 0.7370 0.7370 0.7360
10.057366 0.7360 0.7360 0.7340 0.7340 0.7320
10.091000 0.7320 0.7320 0.7300 0.7300 0.7290
10.124366 0.7290 0.7280 0.7260 0.7250 0.7240
10.157000 0.7210 0.7210 0.7200 0.7200 0.7200
10.190366 0.7200 0.7210 0.7210 0.7210 0.7220
10.224000 0.7240 0.7250 0.7280 0.7290 0.7290
10.257366 0.7300 0.7300 0.7300 0.7300 0.7300
10.291000 0.7290 0.7280 0.7280 0.7280 0.7260
10.324366 0.7260 0.7280 0.7290 0.7290 0.7290
10.357000 0.7330 0.7360 0.7380 0.7400 0.7420
10.390366 0.7480 0.7500 0.7520 0.7520 0.7530
10.424000 0.7530 0.7540 0.7540 0.7540 0.7530
10.457366 0.7530 0.7530 0.7530 0.7530 0.7520
10.491000 0.7520 0.7500 0.7490 0.7450 0.7440
10.524366 0.7440 0.7410 0.7400 0.7380 0.7380
10.557000 0.7370 0.7370 0.7380 0.7380 0.7400
10.590366 0.7400 0.7410 0.7420 0.7440 0.7460
10.624000 0.7460 0.7460 0.7460 0.7450 0.7440
10.657366 0.7420 0.7410 0.7410 0.7400 0.7400
10.691000 0.7360 0.7320 0.7300 0.7290 0.7290
10.724366 0.7210 0.7160 0.7120 0.7090 0.7010
10.758000 0.6900 0.6800 0.6690 0.6500 0.6330
10.791366 0.6210 0.5800 0.5480 0.5200 0.5060
10.824000 0.4810 0.4620 0.4620 0.4650 0.4720
10.857366 0.4800 0.4900 0.4940 0.4960 0.4960
10.891000 0.4960 0.4960 0.5010 0.5020 0.5060
10.924366 0.5200 0.5320 0.5500 0.5640 0.5800
10.958000 0.6010 0.6220 0.6410 0.6530 0.6650
10.991366 0.6760 0.6880 0.7000 0.7060 0.7120
11.024000 0.7160 0.7200 0.7240 0.7290 0.7300
11.057366 0.7320 0.7340 0.7370 0.7380 0.7380
11.091000 0.7400 0.7400 0.7410 0.7410 0.7420
11.124366 0.7440 0.7450 0.7460 0.7460 0.7490
11.158000 0.7490 0.7490 0.7490 0.7490 0.7480
11.191366 0.7480 0.7480 0.7460 0.7450 0.7450
11.224000 0.7440 0.7420 0.7420 0.7410 0.7410
11.257366 0.7400 0.7400 0.7380 0.7370 0.7330
11.291000 0.7300 0.7290 0.7210 0.7200 0.7130
11.324366 0.7100 0.7050 0.7010 0.6980 0.6970
11.358000 0.6960 0.6940 0.6940 0.6940 0.6970
11.391366 0.7010 0.7060 0.7120 0.7130 0.7160
11.424000 0.7200 0.7210 0.7250 0.7300 0.7300
11.457366 0.7320 0.7320 0.7340 0.7360 0.7400
11.491000 0.7400 0.7410 0.7420 0.7420 0.7420
11.524366 0.7450 0.7460 0.7480 0.7480 0.7480
11.558000 0.7490 0.7490 0.7500 0.7500 0.7500
11.591366 0.7490 0.7480 0.7460 0.7450 0.7440
11.625000 0.7420 0.7410 0.7400 0.7400 0.7360
11.658366 0.7330 0.7320 0.7320 0.7320 0.7320
11.691000 0.7300 0.7300 0.7300 0.7300 0.7300
11.724366 0.7320 0.7400 0.7400 0.7410 0.7410
11.758000 0.7420 0.7450 0.7460 0.7460 0.7460
11.791366 0.7460 0.7450 0.7440 0.7420 0.7420
11.825000 0.7410 0.7400 0.7400 0.7380 0.7370
11.858366 0.7360 0.7330 0.7300 0.7290 0.7250
11.891000 0.7210 0.7130 0.7050 0.7000 0.6900
11.924366 0.6820 0.6700 0.6580 0.6380 0.6160
11.958000 0.5930 0.5610 0.5320 0.5050 0.4700
11.991366 0.4610 0.4290 0.3900 0.3650 0.3560
12.025000 0.3560 0.3570 0.3720 0.3850 0.4010
12.058366 0.4280 0.4560 0.4840 0.5210 0.5420
12.091000 0.5760 0.6090 0.6360 0.6600 0.6780
12.124366 0.6960 0.7020 0.7090 0.7160 0.7200
12.158000 0.7260 0.7290 0.7300 0.7330 0.7340
12.191366 0.7340 0.7360 0.7360 0.7370 0.7370
12.225000 0.7370 0.7380 0.7380 0.7380 0.7380
12.258366 0.7400 0.7400 0.7400 0.7400 0.7400
12.292000 0.7410 0.7420 0.7420 0.7420 0.7440
12.325366 0.7440 0.7440 0.7440 0.7440 0.7440
12.358000 0.7420 0.7420 0.7420 0.7420 0.7420
12.391366 0.7420 0.7420 0.7420 0.7420 0.7420
12.425000 0.7420 0.7420 0.7420 0.7420 0.7420
12.458366 0.7410 0.7400 0.7400 0.7400 0.7380
12.492000 0.7380 0.7370 0.7360 0.7330 0.7320
12.525366 0.7300 0.7290 0.7280 0.7260 0.7250
12.558000 0.7220 0.7210 0.7200 0.7180 0.7170
12.591366 0.7160 0.7140 0.7130 0.7120 0.7120
12.625000 0.7100 0.7100 0.7090 0.7090 0.7080
12.658366 0.7050 0.7050 0.7050 0.7020 0.7020
12.692000 0.7020 0.7020 0.7010 0.7010 0.7010
12.725366 0.7010 0.7010 0.7020 0.7020 0.7040
12.758000 0.7040 0.7050 0.7060 0.7080 0.7080
12.791366 0.7080 0.7080 0.7090 0.7090 0.7100
12.825000 0.7100 0.7120 0.7130 0.7130 0.7130
12.858366 0.7130 0.7130 0.7130 0.7130 0.7130
12.892000 0.7130 0.7130 0.7130 0.7130 0.7130
12.925366 0.7130 0.7130 0.7130 0.7130 0.7130
12.959000 0.7120 0.7120 0.7120 0.7120 0.7100
12.992366 0.7100 0.7090 0.7080 0.7060 0.7060
13.025000 0.7050 0.7040 0.7020 0.7020 0.7010
13.058366 0.7000 0.6980 0.6970 0.6900 0.6890
13.092000 0.6820 0.6770 0.6700 0.6660 0.6570
13.125366 0.6520 0.6520 0.6520 0.6520 0.6530
13.159000 0.6580 0.6610 0.6680 0.6730 0.6800
13.192366 0.6820 0.6850 0.6890 0.6900 0.6920
13.225000 0.6930 0.6930 0.6930 0.6930 0.6930
13.258366 0.6920 0.6920 0.6920 0.6920 0.6900
13.292000 0.6900 0.6900 0.6890 0.6880 0.6860
13.325366 0.6850 0.6800 0.6800 0.6760 0.6720
13.359000 0.6690 0.6640 0.6600 0.6530 0.6450
13.392366 0.6410 0.6330 0.6130 0.5980 0.5820
13.425000 0.5640 0.5450 0.5210 0.4930 0.4700
13.458366 0.4400 0.4120 0.3890 0.3540 0.3360
13.492000 0.3120 0.2980 0.2980 0.2980 0.3000
13.525366 0.3120 0.3360 0.3600 0.3860 0.4200
13.559000 0.4520 0.4810 0.5180 0.5420 0.5620
13.592366 0.5730 0.5970 0.6160 0.6280 0.6380
13.626000 0.6450 0.6520 0.6600 0.6600 0.6620
13.659366 0.6650 0.6690 0.6700 0.6700 0.6700
13.692000 0.6700 0.6700 0.6700 0.6700 0.6690
13.725366 0.6690 0.6680 0.6680 0.6660 0.6650
13.759000 0.6640 0.6620 0.6620 0.6610 0.6610
13.792366 0.6610 0.6600 0.6600 0.6580 0.6580
13.826000 0.6580 0.6570 0.6560 0.6560 0.6560
13.859366 0.6560 0.6560 0.6570 0.6600 0.6610
13.892000 0.6640 0.6660 0.6690 0.6700 0.6700
13.925366 0.6700 0.6720 0.6720 0.6720 0.6720
13.959000 0.6720 0.6700 0.6700 0.6690 0.6690
13.992366 0.6680 0.6660 0.6640 0.6620 0.6610
14.026000 0.6610 0.6600 0.6600 0.6600 0.6600
14.059366 0.6600 0.6580 0.6580 0.6570 0.6540
14.092000 0.6530 0.6520 0.6520 0.6500 0.6490
14.125366 0.6490 0.6480 0.6460 0.6450 0.6440
14.159000 0.6410 0.6380 0.6370 0.6330 0.6320
14.192366 0.6300 0.6280 0.6250 0.6220 0.6200
14.226000 0.6180 0.6120 0.6090 0.6020 0.5980
14.259366 0.5930 0.5890 0.5810 0.5720 0.5620
14.293000 0.5520 0.5420 0.5330 0.5200 0.5100
14.326366 0.5020 0.4930 0.4820 0.4770 0.4700
14.359000 0.4610 0.4540 0.4520 0.4520 0.4520
14.392366 0.4530 0.4560 0.4610 0.4640 0.4690
14.426000 0.4690 0.4800 0.4890 0.5000 0.5010
14.459366 0.5090 0.5200 0.5280 0.5340 0.5400
14.493000 0.5460 0.5530 0.5580 0.5620 0.5660
14.526366 0.5680 0.5680 0.5680 0.5680 0.5680
14.559000 0.5680 0.5680 0.5680 0.5680 0.5680
14.592366 0.5680 0.5690 0.5690 0.5690 0.5690
14.626000 0.5690 0.5700 0.5720 0.5730 0.5740
14.659366 0.5740 0.5760 0.5760 0.5780 0.5780
14.693000 0.5800 0.5810 0.5820 0.5840 0.5850
14.726366 0.5880 0.5880 0.5890 0.5920 0.5930
14.759000 0.5940 0.5940 0.5940 0.5940 0.5940
14.792366 0.5940 0.5940 0.5930 0.5930 0.5930
14.826000 0.5920 0.5900 0.5890 0.5880 0.5850
14.859366 0.5840 0.5820 0.5800 0.5780 0.5770
14.893000 0.5730 0.5690 0.5620 0.5600 0.5580
14.926366 0.5560 0.5560 0.5560 0.5560 0.5560
14.960000 0.5560 0.5560 0.5570 0.5580 0.5580
14.993366 0.5580
##END=
