##TITLE=STRONTIUM CHROMATE
##JCAMP-DX=4.24
##DATA TYPE=INFRARED SPECTRUM
##CLASS=COBLENTZ III
##ORIGIN=DESOTO CHEMICAL COATINGS, INC.
##OWNER=COBLENTZ SOCIETY
Collection (C) 2018 copyright by the U.S. Secretary of Commerce
on behalf of the United States of America. All rights reserved.
##DATE=Not specified, most likely prior to 1970
##MOLFORM=Sr Cr O4
##SOURCE REFERENCE=COBLENTZ NO. 4693
##$NIST ID=B6004693
##$NIST SOURCE=COBLENTZ
##$NIST IMAGE=cob4693
##SPECTROMETER/DATA SYSTEM=BECKMAN IR-12 (GRATING)
##INSTRUMENT PARAMETERS=GRATING BLAZED AT 3330, 1330. 445, 220 CM^-^1
##STATE=SOLID (0.4 mg / 300 mg CsI DISC)
##SAMPLING PROCEDURE=TRANSMISSION
##RESOLUTION=4
##DATA PROCESSING=DIGITIZED BY NIST FROM HARD COPY (FROM TWO SEGMENTS)
##XUNITS=1/CM
##YUNITS=TRANSMITTANCE
##XFACTOR=1.000000
##YFACTOR=1
##DELTAX=1.330378
##FIRSTX=201.33
##LASTX=3986.26
##FIRSTY=0.741
##MAXX=3986.26
##MINX=201.33
##MAXY=0.967
##MINY=0.17
##NPOINTS=2846
##XYDATA=(X++(Y..Y))
201.330000 0.7410 0.7400 0.7410 0.7400 0.7400
207.981892 0.7400 0.7400 0.7410 0.7410 0.7420
214.633785 0.7440 0.7450 0.7460 0.7480 0.7490
221.285677 0.7530 0.7560 0.7570 0.7600 0.7640
227.937570 0.7690 0.7720 0.7720 0.7770 0.7870
234.589462 0.7920 0.8000 0.8050 0.8130 0.8200
241.241355 0.8240 0.8310 0.8360 0.8400 0.8420
247.893247 0.8430 0.8460 0.8470 0.8480 0.8510
254.545140 0.8540 0.8550 0.8580 0.8600 0.8620
261.197032 0.8630 0.8670 0.8680 0.8680 0.8710
267.848925 0.8720 0.8720 0.8740 0.8760 0.8780
274.500817 0.8800 0.8820 0.8820 0.8820 0.8820
281.152710 0.8820 0.8830 0.8830 0.8860 0.8870
287.804602 0.8900 0.8900 0.8910 0.8910 0.8920
294.456495 0.8920 0.8940 0.8940 0.8940 0.8940
301.108387 0.8940 0.8940 0.8920 0.8920 0.8920
307.760279 0.8920 0.8910 0.8900 0.8900 0.8880
314.412172 0.8880 0.8870 0.8870 0.8870 0.8860
321.064064 0.8860 0.8860 0.8860 0.8860 0.8860
327.715957 0.8860 0.8860 0.8840 0.8840 0.8830
334.367849 0.8830 0.8830 0.8830 0.8830 0.8800
341.019742 0.8780 0.8760 0.8750 0.8740 0.8740
347.671634 0.8750 0.8750 0.8740 0.8740 0.8710
354.323527 0.8700 0.8700 0.8710 0.8710 0.8720
360.975419 0.8720 0.8740 0.8750 0.8750 0.8760
367.627312 0.8760 0.8780 0.8780 0.8760 0.8750
374.279204 0.8740 0.8720 0.8720 0.8720 0.8720
380.931097 0.8700 0.8700 0.8680 0.8680 0.8680
387.582989 0.8670 0.8670 0.8670 0.8660 0.8660
394.234882 0.8640 0.8640 0.8630 0.8630 0.8640
400.886774 0.8640 0.8670 0.8660 0.8630 0.8600
407.538667 0.8560 0.8540 0.8480 0.8470 0.8460
414.190559 0.8470 0.8520 0.8630 0.8680 0.8740
420.842451 0.8780 0.8830 0.8840 0.8840 0.8830
427.494344 0.8780 0.8720 0.8670 0.8620 0.8620
434.146236 0.8660 0.8750 0.8790 0.8830 0.8919
440.798129 0.8960 0.9000 0.9040 0.9070 0.9070
447.450021 0.9080 0.9100 0.9120 0.9120 0.9150
454.101914 0.9180 0.9190 0.9190 0.9210 0.9230
460.753806 0.9260 0.9260 0.9260 0.9260 0.9260
467.405699 0.9260 0.9260 0.9260 0.9270 0.9290
474.057591 0.9300 0.9330 0.9330 0.9330 0.9330
480.709484 0.9330 0.9330 0.9330 0.9340 0.9340
487.361376 0.9350 0.9370 0.9380 0.9380 0.9380
494.013269 0.9380 0.9380 0.9380 0.9380 0.9380
500.665161 0.9390 0.9390 0.9390 0.9390 0.9380
507.317054 0.9380 0.9380 0.9380 0.9380 0.9380
513.968946 0.9370 0.9370 0.9380 0.9390 0.9390
520.620838 0.9390 0.9410 0.9410 0.9410 0.9410
527.272731 0.9410 0.9420 0.9430 0.9430 0.9430
533.924623 0.9430 0.9450 0.9430 0.9420 0.9420
540.576516 0.9420 0.9420 0.9420 0.9420 0.9420
547.228408 0.9430 0.9430 0.9450 0.9450 0.9460
553.880301 0.9460 0.9460 0.9460 0.9460 0.9460
560.532193 0.9460 0.9460 0.9460 0.9450 0.9450
567.184086 0.9450 0.9430 0.9430 0.9420 0.9420
573.835978 0.9450 0.9450 0.9460 0.9460 0.9460
580.487871 0.9460 0.9460 0.9460 0.9470 0.9500
587.139763 0.9500 0.9510 0.9510 0.9510 0.9510
593.791656 0.9510 0.9510 0.9510 0.9510 0.9510
600.443548 0.9510 0.9530 0.9530 0.9510 0.9510
607.095441 0.9510 0.9510 0.9530 0.9530 0.9530
613.747333 0.9530 0.9530 0.9530 0.9530 0.9530
620.399225 0.9530 0.9540 0.9540 0.9550 0.9550
627.051118 0.9550 0.9570 0.9570 0.9570 0.9570
633.703010 0.9570 0.9580 0.9580 0.9580 0.9580
640.354903 0.9590 0.9590 0.9590 0.9590 0.9590
647.006795 0.9590 0.9590 0.9580 0.9580 0.9570
653.658688 0.9570 0.9550 0.9540 0.9530 0.9510
660.310580 0.9510 0.9500 0.9500 0.9500 0.9510
666.962473 0.9510 0.9540 0.9530 0.9510 0.9500
673.614365 0.9490 0.9490 0.9500 0.9500 0.9510
680.266258 0.9530 0.9540 0.9540 0.9570 0.9570
686.918150 0.9570 0.9570 0.9580 0.9580 0.9580
693.570043 0.9580 0.9590 0.9610 0.9610 0.9590
700.221935 0.9590 0.9610 0.9620 0.9620 0.9620
706.873828 0.9620 0.9630 0.9650 0.9630 0.9630
713.525720 0.9630 0.9630 0.9630 0.9630 0.9630
720.177613 0.9630 0.9630 0.9630 0.9630 0.9630
726.829505 0.9650 0.9650 0.9650 0.9650 0.9660
733.481397 0.9660 0.9660 0.9660 0.9660 0.9660
740.133290 0.9660 0.9660 0.9660 0.9670 0.9670
746.785182 0.9670 0.9670 0.9660 0.9660 0.9660
753.437075 0.9660 0.9650 0.9660 0.9650 0.9650
760.088967 0.9650 0.9650 0.9650 0.9650 0.9650
766.740860 0.9650 0.9630 0.9620 0.9610 0.9610
773.392752 0.9620 0.9620 0.9620 0.9620 0.9620
780.044645 0.9620 0.9620 0.9620 0.9620 0.9620
786.696537 0.9610 0.9610 0.9580 0.9580 0.9570
793.348430 0.9570 0.9570 0.9570 0.9570 0.9570
800.000322 0.9570 0.9550 0.9550 0.9550 0.9540
806.652215 0.9540 0.9530 0.9530 0.9510 0.9510
813.304107 0.9500 0.9500 0.9490 0.9470 0.9460
819.956000 0.9450 0.9430 0.9420 0.9380 0.9330
826.607892 0.9300 0.9250 0.9210 0.9170 0.9120
833.259784 0.8941 0.8831 0.8621 0.8312 0.7813
839.911677 0.7340 0.6690 0.4762 0.4211 0.4010
846.563569 0.4010 0.4189 0.4708 0.5018 0.5109
853.215462 0.5110 0.5100 0.5100 0.5459 0.5969
859.867354 0.6458 0.7008 0.7319 0.7549 0.7560
866.519247 0.7530 0.7420 0.7240 0.7010 0.6621
873.171139 0.5205 0.5031 0.5030 0.5110 0.5110
879.823032 0.4790 0.4480 0.3971 0.3681 0.3381
886.474924 0.3340 0.3021 0.3020 0.3994 0.4159
893.126817 0.4530 0.4720 0.4720 0.4670 0.4590
899.778709 0.4411 0.3902 0.2546 0.2391 0.2201
906.430602 0.1830 0.1720 0.1700 0.1700 0.1760
913.082494 0.1910 0.2020 0.2110 0.2478 0.2728
919.734387 0.3050 0.3050 0.2940 0.2820 0.2660
926.386279 0.2540 0.2540 0.2580 0.2709 0.3018
933.038171 0.3270 0.3520 0.3760 0.4009 0.4489
939.690064 0.4629 0.5158 0.5468 0.5778 0.6108
946.341956 0.6510 0.7020 0.7330 0.7610 0.7909
952.993849 0.8119 0.8319 0.8430 0.8599 0.8789
959.645741 0.8830 0.8910 0.8960 0.9020 0.9120
966.297634 0.9140 0.9180 0.9210 0.9220 0.9230
972.949526 0.9330 0.9350 0.9370 0.9390 0.9410
979.601419 0.9430 0.9450 0.9470 0.9490 0.9500
986.253311 0.9510 0.9510 0.9510 0.9510 0.9510
992.905204 0.9510 0.9510 0.9530 0.9530 0.9540
999.557096 0.9530 0.9540 0.9550 0.9570 0.9570
1006.208989 0.9570 0.9570 0.9570 0.9570 0.9570
1012.860881 0.9550 0.9550 0.9550 0.9550 0.9550
1019.512774 0.9570 0.9570 0.9570 0.9570 0.9550
1026.164666 0.9540 0.9530 0.9530 0.9530 0.9510
1032.816558 0.9510 0.9510 0.9530 0.9530 0.9540
1039.468451 0.9530 0.9530 0.9530 0.9530 0.9530
1046.120343 0.9530 0.9530 0.9530 0.9530 0.9530
1052.772236 0.9540 0.9540 0.9550 0.9550 0.9550
1059.424128 0.9550 0.9550 0.9540 0.9530 0.9530
1066.076021 0.9530 0.9530 0.9530 0.9530 0.9540
1072.727913 0.9540 0.9530 0.9510 0.9510 0.9510
1079.379806 0.9510 0.9510 0.9510 0.9510 0.9500
1086.031698 0.9490 0.9490 0.9470 0.9450 0.9430
1092.683591 0.9410 0.9380 0.9340 0.9330 0.9310
1099.335483 0.9330 0.9340 0.9370 0.9390 0.9410
1105.987376 0.9410 0.9410 0.9420 0.9420 0.9450
1112.639268 0.9460 0.9500 0.9500 0.9490 0.9490
1119.291161 0.9470 0.9460 0.9450 0.9430 0.9390
1125.943053 0.9370 0.9350 0.9340 0.9340 0.9350
1132.594946 0.9370 0.9410 0.9450 0.9450 0.9470
1139.246838 0.9490 0.9500 0.9500 0.9470 0.9430
1145.898730 0.9420 0.9410 0.9410 0.9410 0.9410
1152.550623 0.9420 0.9450 0.9490 0.9510 0.9510
1159.202515 0.9510 0.9530 0.9540 0.9550 0.9550
1165.854408 0.9570 0.9580 0.9580 0.9580 0.9580
1172.506300 0.9580 0.9580 0.9590 0.9590 0.9610
1179.158193 0.9620 0.9630 0.9630 0.9630 0.9630
1185.810085 0.9630 0.9630 0.9630 0.9630 0.9620
1192.461978 0.9620 0.9620 0.9620 0.9620 0.9620
1199.113870 0.9620 0.9630 0.9630 0.9630 0.9630
1205.765763 0.9630 0.9630 0.9630 0.9630 0.9630
1212.417655 0.9630 0.9630 0.9630 0.9650 0.9650
1219.069548 0.9650 0.9650 0.9650 0.9650 0.9650
1225.721440 0.9650 0.9650 0.9650 0.9650 0.9650
1232.373333 0.9650 0.9650 0.9650 0.9650 0.9650
1239.025225 0.9650 0.9650 0.9650 0.9630 0.9630
1245.677117 0.9630 0.9630 0.9630 0.9630 0.9620
1252.329010 0.9620 0.9620 0.9620 0.9630 0.9630
1258.980902 0.9630 0.9630 0.9620 0.9610 0.9590
1265.632795 0.9590 0.9610 0.9610 0.9620 0.9620
1272.284687 0.9620 0.9620 0.9620 0.9620 0.9630
1278.936580 0.9630 0.9630 0.9630 0.9620 0.9620
1285.588472 0.9620 0.9620 0.9630 0.9630 0.9630
1292.240365 0.9630 0.9630 0.9630 0.9630 0.9630
1298.892257 0.9630 0.9630 0.9630 0.9630 0.9620
1305.544150 0.9610 0.9610 0.9610 0.9610 0.9610
1312.196042 0.9610 0.9610 0.9610 0.9610 0.9610
1318.847935 0.9610 0.9610 0.9610 0.9610 0.9610
1325.499827 0.9620 0.9610 0.9610 0.9610 0.9590
1332.151720 0.9580 0.9570 0.9570 0.9570 0.9580
1338.803612 0.9580 0.9570 0.9550 0.9550 0.9540
1345.455504 0.9530 0.9530 0.9510 0.9510 0.9490
1352.107397 0.9470 0.9450 0.9420 0.9390 0.9380
1358.759289 0.9370 0.9350 0.9350 0.9340 0.9330
1365.411182 0.9310 0.9300 0.9290 0.9290 0.9290
1372.063074 0.9270 0.9270 0.9270 0.9270 0.9270
1378.714967 0.9290 0.9290 0.9300 0.9300 0.9310
1385.366859 0.9330 0.9330 0.9340 0.9340 0.9370
1392.018752 0.9380 0.9380 0.9390 0.9390 0.9390
1398.670644 0.9390 0.9390 0.9390 0.9390 0.9390
1405.322537 0.9380 0.9380 0.9380 0.9370 0.9370
1411.974429 0.9350 0.9350 0.9350 0.9350 0.9370
1418.626322 0.9370 0.9410 0.9410 0.9410 0.9410
1425.278214 0.9410 0.9410 0.9410 0.9410 0.9410
1431.930107 0.9390 0.9390 0.9410 0.9410 0.9410
1438.581999 0.9410 0.9410 0.9420 0.9420 0.9420
1445.233892 0.9420 0.9420 0.9430 0.9430 0.9430
1451.885784 0.9430 0.9450 0.9450 0.9430 0.9450
1458.537676 0.9450 0.9420 0.9410 0.9410 0.9390
1465.189569 0.9380 0.9380 0.9380 0.9380 0.9380
1471.841461 0.9380 0.9380 0.9380 0.9390 0.9390
1478.493354 0.9390 0.9410 0.9410 0.9420 0.9430
1485.145246 0.9430 0.9430 0.9450 0.9450 0.9450
1491.797139 0.9460 0.9460 0.9460 0.9470 0.9470
1498.449031 0.9470 0.9490 0.9490 0.9490 0.9500
1505.100924 0.9500 0.9500 0.9510 0.9530 0.9530
1511.752816 0.9530 0.9530 0.9530 0.9540 0.9540
1518.404709 0.9540 0.9540 0.9550 0.9550 0.9550
1525.056601 0.9550 0.9550 0.9550 0.9550 0.9550
1531.708494 0.9550 0.9540 0.9540 0.9530 0.9530
1538.360386 0.9510 0.9510 0.9510 0.9510 0.9500
1545.012279 0.9500 0.9500 0.9490 0.9490 0.9500
1551.664171 0.9510 0.9510 0.9510 0.9510 0.9500
1558.316063 0.9500 0.9500 0.9490 0.9490 0.9490
1564.967956 0.9490 0.9470 0.9470 0.9470 0.9460
1571.619848 0.9460 0.9460 0.9450 0.9450 0.9430
1578.271741 0.9430 0.9430 0.9420 0.9420 0.9410
1584.923633 0.9390 0.9390 0.9390 0.9380 0.9370
1591.575526 0.9340 0.9330 0.9310 0.9300 0.9290
1598.227418 0.9270 0.9250 0.9250 0.9230 0.9210
1604.879311 0.9180 0.9150 0.9140 0.9120 0.9100
1611.531203 0.9100 0.9080 0.9080 0.9070 0.9070
1618.183096 0.9070 0.9070 0.9070 0.9070 0.9080
1624.834988 0.9080 0.9100 0.9100 0.9110 0.9110
1631.486881 0.9120 0.9140 0.9150 0.9170 0.9170
1638.138773 0.9180 0.9190 0.9190 0.9210 0.9230
1644.790666 0.9260 0.9270 0.9270 0.9290 0.9290
1651.442558 0.9300 0.9310 0.9310 0.9330 0.9330
1658.094450 0.9330 0.9330 0.9340 0.9340 0.9350
1664.746343 0.9380 0.9390 0.9390 0.9390 0.9390
1671.398235 0.9410 0.9420 0.9420 0.9410 0.9410
1678.050128 0.9410 0.9410 0.9410 0.9410 0.9410
1684.702020 0.9410 0.9410 0.9420 0.9430 0.9430
1691.353913 0.9430 0.9430 0.9430 0.9450 0.9450
1698.005805 0.9450 0.9450 0.9450 0.9450 0.9450
1704.657698 0.9450 0.9450 0.9460 0.9460 0.9460
1711.309590 0.9460 0.9460 0.9470 0.9470 0.9470
1717.961483 0.9470 0.9470 0.9490 0.9490 0.9500
1724.613375 0.9500 0.9500 0.9500 0.9500 0.9500
1731.265268 0.9500 0.9500 0.9500 0.9500 0.9500
1737.917160 0.9500 0.9510 0.9510 0.9510 0.9510
1744.569053 0.9510 0.9510 0.9510 0.9500 0.9500
1751.220945 0.9490 0.9490 0.9490 0.9470 0.9470
1757.872838 0.9470 0.9470 0.9470 0.9490 0.9490
1764.524730 0.9490 0.9490 0.9490 0.9490 0.9490
1771.176622 0.9470 0.9470 0.9470 0.9470 0.9470
1777.828515 0.9460 0.9460 0.9460 0.9460 0.9470
1784.480407 0.9490 0.9500 0.9500 0.9500 0.9500
1791.132300 0.9500 0.9500 0.9490 0.9490 0.9490
1797.784192 0.9500 0.9510 0.9510 0.9510 0.9510
1804.436085 0.9500 0.9500 0.9500 0.9490 0.9490
1811.087977 0.9490 0.9470 0.9470 0.9470 0.9470
1817.739870 0.9490 0.9490 0.9490 0.9490 0.9510
1824.391762 0.9510 0.9500 0.9500 0.9500 0.9510
1831.043655 0.9510 0.9510 0.9510 0.9510 0.9510
1837.695547 0.9510 0.9510 0.9510 0.9530 0.9540
1844.347440 0.9540 0.9510 0.9510 0.9510 0.9500
1850.999332 0.9500 0.9510 0.9530 0.9530 0.9530
1857.651225 0.9530 0.9530 0.9530 0.9530 0.9530
1864.303117 0.9530 0.9510 0.9510 0.9510 0.9510
1870.955009 0.9500 0.9500 0.9500 0.9510 0.9510
1877.606902 0.9530 0.9530 0.9530 0.9540 0.9540
1884.258794 0.9510 0.9510 0.9510 0.9510 0.9510
1890.910687 0.9500 0.9500 0.9510 0.9530 0.9530
1897.562579 0.9530 0.9530 0.9510 0.9510 0.9510
1904.214472 0.9510 0.9500 0.9500 0.9500 0.9500
1910.866364 0.9500 0.9500 0.9500 0.9500 0.9500
1917.518257 0.9500 0.9500 0.9490 0.9490 0.9510
1924.170149 0.9510 0.9500 0.9500 0.9510 0.9510
1930.822042 0.9510 0.9530 0.9530 0.9500 0.9500
1937.473934 0.9490 0.9490 0.9500 0.9500 0.9500
1944.125827 0.9500 0.9500 0.9500 0.9490 0.9490
1950.777719 0.9490 0.9500 0.9510 0.9510 0.9500
1957.429612 0.9500 0.9500 0.9500 0.9500 0.9510
1964.081504 0.9510 0.9500 0.9500 0.9500 0.9500
1970.733396 0.9500 0.9490 0.9490 0.9490 0.9500
1977.385289 0.9500 0.9500 0.9500 0.9490 0.9490
1984.037181 0.9470 0.9470 0.9470 0.9490 0.9500
1990.689074 0.9500 0.9500 0.9500 0.9490 0.9490
1997.340966 0.9470 0.9470 0.9460 0.9460 0.9460
2003.992859 0.9460 0.9460 0.9460 0.9460 0.9455
2010.644751 0.9450 0.9450 0.9450 0.9450 0.9450
2017.296644 0.9450 0.9450 0.9455 0.9460 0.9455
2023.948536 0.9450 0.9450 0.9450 0.9450 0.9450
2030.600429 0.9450 0.9450 0.9455 0.9460 0.9460
2037.252321 0.9460 0.9460 0.9460 0.9455 0.9450
2043.904214 0.9440 0.9430 0.9430 0.9430 0.9430
2050.556106 0.9430 0.9440 0.9450 0.9450 0.9450
2057.207999 0.9450 0.9450 0.9455 0.9460 0.9460
2063.859891 0.9460 0.9460 0.9460 0.9460 0.9460
2070.511784 0.9460 0.9460 0.9460 0.9460 0.9460
2077.163676 0.9460 0.9460 0.9460 0.9455 0.9450
2083.815568 0.9440 0.9430 0.9430 0.9430 0.9430
2090.467461 0.9430 0.9440 0.9450 0.9450 0.9450
2097.119353 0.9440 0.9430 0.9430 0.9430 0.9425
2103.771246 0.9420 0.9420 0.9420 0.9425 0.9430
2110.423138 0.9430 0.9430 0.9430 0.9430 0.9440
2117.075031 0.9450 0.9440 0.9430 0.9430 0.9430
2123.726923 0.9440 0.9450 0.9450 0.9450 0.9440
2130.378816 0.9430 0.9430 0.9430 0.9430 0.9430
2137.030708 0.9430 0.9430 0.9425 0.9420 0.9425
2143.682601 0.9430 0.9430 0.9430 0.9425 0.9420
2150.334493 0.9420 0.9420 0.9425 0.9430 0.9430
2156.986386 0.9430 0.9430 0.9431 0.9441 0.9450
2163.638278 0.9455 0.9460 0.9460 0.9460 0.9455
2170.290171 0.9450 0.9450 0.9450 0.9450 0.9450
2176.942063 0.9450 0.9450 0.9450 0.9450 0.9450
2183.593955 0.9450 0.9439 0.9430 0.9430 0.9430
2190.245848 0.9430 0.9430 0.9430 0.9430 0.9430
2196.897740 0.9430 0.9430 0.9430 0.9430 0.9430
2203.549633 0.9425 0.9420 0.9420 0.9420 0.9420
2210.201525 0.9420 0.9420 0.9420 0.9420 0.9420
2216.853418 0.9420 0.9420 0.9425 0.9430 0.9430
2223.505310 0.9431 0.9441 0.9450 0.9450 0.9449
2230.157203 0.9439 0.9430 0.9430 0.9430 0.9430
2236.809095 0.9430 0.9430 0.9430 0.9430 0.9430
2243.460988 0.9425 0.9420 0.9420 0.9420 0.9420
2250.112880 0.9420 0.9420 0.9420 0.9420 0.9420
2256.764773 0.9420 0.9420 0.9420 0.9420 0.9420
2263.416665 0.9420 0.9420 0.9420 0.9420 0.9420
2270.068558 0.9420 0.9420 0.9420 0.9420 0.9420
2276.720450 0.9420 0.9420 0.9420 0.9420 0.9420
2283.372342 0.9420 0.9420 0.9415 0.9409 0.9399
2290.024235 0.9390 0.9385 0.9380 0.9380 0.9380
2296.676127 0.9385 0.9391 0.9401 0.9410 0.9410
2303.328020 0.9410 0.9410 0.9410 0.9410 0.9409
2309.979912 0.9399 0.9390 0.9390 0.9390 0.9385
2316.631805 0.9380 0.9385 0.9390 0.9390 0.9391
2323.283697 0.9401 0.9410 0.9410 0.9411 0.9416
2329.935590 0.9420 0.9415 0.9409 0.9399 0.9390
2336.587482 0.9385 0.9380 0.9380 0.9380 0.9380
2343.239375 0.9380 0.9374 0.9370 0.9370 0.9369
2349.891267 0.9359 0.9350 0.9350 0.9349 0.9339
2356.543160 0.9330 0.9330 0.9330 0.9330 0.9330
2363.195052 0.9330 0.9329 0.9319 0.9310 0.9310
2369.846945 0.9309 0.9304 0.9299 0.9294 0.9290
2376.498837 0.9290 0.9290 0.9290 0.9290 0.9290
2383.150729 0.9291 0.9301 0.9311 0.9321 0.9331
2389.802622 0.9336 0.9340 0.9340 0.9341 0.9346
2396.454514 0.9350 0.9350 0.9350 0.9350 0.9351
2403.106407 0.9361 0.9370 0.9370 0.9369 0.9359
2409.758299 0.9349 0.9344 0.9340 0.9340 0.9340
2416.410192 0.9340 0.9341 0.9346 0.9350 0.9350
2423.062084 0.9350 0.9350 0.9349 0.9344 0.9340
2429.713977 0.9340 0.9339 0.9334 0.9329 0.9319
2436.365869 0.9310 0.9310 0.9310 0.9310 0.9310
2443.017762 0.9310 0.9311 0.9321 0.9330 0.9330
2449.669654 0.9330 0.9330 0.9330 0.9330 0.9330
2456.321547 0.9330 0.9330 0.9330 0.9330 0.9330
2462.973439 0.9330 0.9330 0.9330 0.9330 0.9329
2469.625332 0.9319 0.9310 0.9310 0.9310 0.9310
2476.277224 0.9310 0.9310 0.9312 0.9322 0.9330
2482.929117 0.9330 0.9330 0.9330 0.9330 0.9330
2489.581009 0.9330 0.9330 0.9331 0.9336 0.9340
2496.232901 0.9340 0.9339 0.9334 0.9330 0.9330
2502.884794 0.9330 0.9330 0.9328 0.9318 0.9310
2509.536686 0.9310 0.9309 0.9304 0.9300 0.9300
2516.188579 0.9299 0.9294 0.9290 0.9290 0.9291
2522.840471 0.9296 0.9300 0.9300 0.9301 0.9306
2529.492364 0.9310 0.9310 0.9312 0.9322 0.9330
2536.144256 0.9330 0.9330 0.9330 0.9330 0.9330
2542.796149 0.9330 0.9330 0.9330 0.9330 0.9328
2549.448041 0.9318 0.9310 0.9310 0.9309 0.9304
2556.099934 0.9300 0.9300 0.9299 0.9294 0.9290
2562.751826 0.9290 0.9291 0.9296 0.9300 0.9300
2569.403719 0.9300 0.9300 0.9300 0.9300 0.9300
2576.055611 0.9300 0.9300 0.9300 0.9300 0.9300
2582.707504 0.9300 0.9300 0.9300 0.9300 0.9299
2589.359396 0.9294 0.9290 0.9290 0.9288 0.9278
2596.011288 0.9270 0.9270 0.9270 0.9270 0.9269
2602.663181 0.9264 0.9260 0.9260 0.9260 0.9260
2609.315073 0.9260 0.9260 0.9260 0.9260 0.9261
2615.966966 0.9266 0.9270 0.9270 0.9270 0.9270
2622.618858 0.9269 0.9264 0.9260 0.9260 0.9259
2629.270751 0.9254 0.9250 0.9250 0.9250 0.9250
2635.922643 0.9250 0.9250 0.9248 0.9238 0.9230
2642.574536 0.9230 0.9230 0.9230 0.9230 0.9230
2649.226428 0.9230 0.9230 0.9232 0.9242 0.9250
2655.878321 0.9250 0.9250 0.9250 0.9250 0.9250
2662.530213 0.9250 0.9250 0.9248 0.9238 0.9230
2669.182106 0.9230 0.9230 0.9230 0.9230 0.9230
2675.833998 0.9229 0.9224 0.9220 0.9220 0.9220
2682.485891 0.9220 0.9220 0.9220 0.9220 0.9220
2689.137783 0.9220 0.9220 0.9220 0.9220 0.9220
2695.789675 0.9220 0.9220 0.9220 0.9220 0.9220
2702.441568 0.9220 0.9220 0.9220 0.9220 0.9220
2709.093460 0.9220 0.9219 0.9214 0.9210 0.9210
2715.745353 0.9210 0.9210 0.9210 0.9210 0.9210
2722.397245 0.9210 0.9210 0.9210 0.9210 0.9210
2729.049138 0.9210 0.9210 0.9210 0.9210 0.9210
2735.701030 0.9210 0.9210 0.9210 0.9210 0.9210
2742.352923 0.9210 0.9210 0.9210 0.9210 0.9208
2749.004815 0.9198 0.9190 0.9190 0.9190 0.9190
2755.656708 0.9189 0.9184 0.9180 0.9180 0.9180
2762.308600 0.9180 0.9180 0.9180 0.9180 0.9180
2768.960493 0.9180 0.9180 0.9180 0.9180 0.9180
2775.612385 0.9180 0.9180 0.9180 0.9180 0.9180
2782.264278 0.9179 0.9174 0.9170 0.9170 0.9170
2788.916170 0.9170 0.9170 0.9170 0.9170 0.9170
2795.568063 0.9168 0.9157 0.9150 0.9150 0.9150
2802.219955 0.9150 0.9150 0.9150 0.9150 0.9150
2808.871847 0.9150 0.9150 0.9150 0.9150 0.9150
2815.523740 0.9150 0.9150 0.9150 0.9153 0.9163
2822.175632 0.9170 0.9170 0.9170 0.9170 0.9170
2828.827525 0.9170 0.9167 0.9157 0.9149 0.9144
2835.479417 0.9140 0.9140 0.9137 0.9127 0.9117
2842.131310 0.9107 0.9097 0.9087 0.9079 0.9074
2848.783202 0.9069 0.9064 0.9057 0.9047 0.9039
2855.435095 0.9034 0.9029 0.9024 0.9020 0.9020
2862.086987 0.9020 0.9020 0.9021 0.9026 0.9030
2868.738880 0.9030 0.9030 0.9030 0.9031 0.9036
2875.390772 0.9040 0.9040 0.9040 0.9040 0.9043
2882.042665 0.9053 0.9060 0.9060 0.9060 0.9060
2888.694557 0.9060 0.9060 0.9060 0.9060 0.9057
2895.346450 0.9047 0.9039 0.9034 0.9030 0.9030
2901.998342 0.9029 0.9024 0.9017 0.9007 0.8998
2908.650234 0.8994 0.8989 0.8984 0.8977 0.8967
2915.302127 0.8957 0.8947 0.8928 0.8888 0.8854
2921.954019 0.8834 0.8817 0.8807 0.8799 0.8794
2928.605912 0.8790 0.8790 0.8790 0.8790 0.8792
2935.257804 0.8797 0.8803 0.8813 0.8829 0.8859
2941.909697 0.8883 0.8893 0.8902 0.8907 0.8910
2948.561589 0.8910 0.8910 0.8910 0.8911 0.8916
2955.213482 0.8920 0.8920 0.8920 0.8920 0.8920
2961.865374 0.8920 0.8923 0.8933 0.8942 0.8947
2968.517267 0.8950 0.8950 0.8950 0.8950 0.8952
2975.169159 0.8957 0.8963 0.8973 0.8982 0.8987
2981.821052 0.8992 0.8997 0.9000 0.9000 0.9003
2988.472944 0.9013 0.9020 0.9020 0.9020 0.9020
2995.124837 0.9020 0.9020 0.9020 0.9020 0.9020
3001.776729 0.9020 0.9022 0.9027 0.9030 0.9030
3008.428621 0.9030 0.9030 0.9030 0.9030 0.9030
3015.080514 0.9030 0.9030 0.9030 0.9030 0.9030
3021.732406 0.9030 0.9030 0.9030 0.9030 0.9030
3028.384299 0.9030 0.9030 0.9030 0.9030 0.9030
3035.036191 0.9030 0.9030 0.9030 0.9030 0.9030
3041.688084 0.9030 0.9030 0.9030 0.9030 0.9030
3048.339976 0.9030 0.9030 0.9030 0.9030 0.9030
3054.991869 0.9030 0.9030 0.9030 0.9030 0.9030
3061.643761 0.9030 0.9030 0.9030 0.9030 0.9030
3068.295654 0.9030 0.9028 0.9023 0.9020 0.9020
3074.947546 0.9020 0.9020 0.9020 0.9020 0.9017
3081.599439 0.9007 0.9000 0.9000 0.9000 0.9000
3088.251331 0.9000 0.9000 0.9000 0.9000 0.8998
3094.903224 0.8993 0.8990 0.8990 0.8990 0.8990
3101.555116 0.8990 0.8990 0.8988 0.8983 0.8980
3108.207009 0.8980 0.8980 0.8980 0.8980 0.8980
3114.858901 0.8976 0.8966 0.8960 0.8960 0.8960
3121.510793 0.8960 0.8960 0.8960 0.8958 0.8953
3128.162686 0.8950 0.8950 0.8950 0.8950 0.8950
3134.814578 0.8950 0.8950 0.8950 0.8950 0.8950
3141.466471 0.8950 0.8950 0.8950 0.8950 0.8948
3148.118363 0.8943 0.8940 0.8940 0.8936 0.8926
3154.770256 0.8920 0.8920 0.8920 0.8920 0.8918
3161.422148 0.8913 0.8910 0.8910 0.8910 0.8910
3168.074041 0.8910 0.8910 0.8908 0.8903 0.8900
3174.725933 0.8900 0.8896 0.8886 0.8878 0.8873
3181.377826 0.8870 0.8870 0.8868 0.8863 0.8860
3188.029718 0.8860 0.8856 0.8846 0.8840 0.8840
3194.681611 0.8840 0.8840 0.8840 0.8840 0.8838
3201.333503 0.8833 0.8828 0.8823 0.8820 0.8820
3207.985396 0.8820 0.8820 0.8820 0.8820 0.8820
3214.637288 0.8820 0.8820 0.8820 0.8820 0.8820
3221.289180 0.8816 0.8806 0.8800 0.8800 0.8798
3227.941073 0.8793 0.8790 0.8790 0.8788 0.8783
3234.592965 0.8780 0.8780 0.8780 0.8780 0.8780
3241.244858 0.8780 0.8776 0.8766 0.8760 0.8760
3247.896750 0.8760 0.8760 0.8760 0.8760 0.8758
3254.548643 0.8753 0.8750 0.8750 0.8748 0.8743
3261.200535 0.8740 0.8740 0.8734 0.8719 0.8710
3267.852428 0.8710 0.8708 0.8703 0.8700 0.8700
3274.504320 0.8696 0.8686 0.8680 0.8680 0.8678
3281.156213 0.8673 0.8670 0.8670 0.8668 0.8663
3287.808105 0.8660 0.8660 0.8656 0.8646 0.8640
3294.459998 0.8640 0.8638 0.8633 0.8628 0.8623
3301.111890 0.8620 0.8620 0.8616 0.8606 0.8596
3307.763783 0.8586 0.8580 0.8580 0.8574 0.8559
3314.415675 0.8550 0.8550 0.8548 0.8543 0.8536
3321.067567 0.8526 0.8516 0.8506 0.8494 0.8479
3327.719460 0.8464 0.8448 0.8440 0.8440 0.8438
3334.371352 0.8433 0.8430 0.8430 0.8428 0.8423
3341.023245 0.8416 0.8406 0.8398 0.8393 0.8383
3347.675137 0.8368 0.8358 0.8353 0.8344 0.8329
3354.327030 0.8313 0.8298 0.8285 0.8275 0.8263
3360.978922 0.8248 0.8238 0.8233 0.8223 0.8208
3367.630815 0.8191 0.8171 0.8151 0.8131 0.8118
3374.282707 0.8113 0.8101 0.8081 0.8066 0.8056
3380.934600 0.8048 0.8043 0.8038 0.8033 0.8025
3387.586492 0.8015 0.8008 0.8003 0.7998 0.7993
3394.238385 0.7985 0.7975 0.7959 0.7934 0.7913
3400.890277 0.7898 0.7881 0.7861 0.7846 0.7836
3407.542170 0.7825 0.7815 0.7808 0.7803 0.7793
3414.194062 0.7778 0.7768 0.7763 0.7758 0.7753
3420.845955 0.7745 0.7735 0.7728 0.7723 0.7720
3427.497847 0.7720 0.7718 0.7713 0.7710 0.7710
3434.149739 0.7705 0.7695 0.7688 0.7683 0.7680
3440.801632 0.7680 0.7678 0.7673 0.7670 0.7670
3447.453524 0.7665 0.7655 0.7650 0.7650 0.7650
3454.105417 0.7650 0.7650 0.7650 0.7650 0.7650
3460.757309 0.7650 0.7650 0.7655 0.7665 0.7670
3467.409202 0.7670 0.7670 0.7670 0.7672 0.7677
3474.061094 0.7680 0.7680 0.7680 0.7680 0.7682
3480.712987 0.7687 0.7690 0.7690 0.7695 0.7705
3487.364879 0.7712 0.7717 0.7720 0.7720 0.7722
3494.016772 0.7727 0.7730 0.7730 0.7735 0.7745
3500.668664 0.7750 0.7750 0.7755 0.7765 0.7775
3507.320557 0.7785 0.7792 0.7797 0.7800 0.7800
3513.972449 0.7802 0.7808 0.7815 0.7825 0.7833
3520.624342 0.7838 0.7843 0.7848 0.7850 0.7850
3527.276234 0.7855 0.7865 0.7872 0.7877 0.7882
3533.928126 0.7887 0.7895 0.7905 0.7912 0.7917
3540.580019 0.7922 0.7928 0.7938 0.7953 0.7960
3547.231911 0.7960 0.7970 0.7990 0.8008 0.8023
3553.883804 0.8033 0.8038 0.8050 0.8070 0.8083
3560.535696 0.8088 0.8100 0.8120 0.8140 0.8160
3567.187589 0.8175 0.8185 0.8193 0.8198 0.8203
3573.839481 0.8208 0.8215 0.8225 0.8240 0.8260
3580.491374 0.8275 0.8285 0.8295 0.8305 0.8310
3587.143266 0.8310 0.8313 0.8318 0.8325 0.8335
3593.795159 0.8345 0.8355 0.8371 0.8391 0.8411
3600.447051 0.8431 0.8451 0.8471 0.8480 0.8480
3607.098944 0.8488 0.8503 0.8513 0.8518 0.8525
3613.750836 0.8535 0.8543 0.8548 0.8553 0.8558
3620.402729 0.8568 0.8583 0.8598 0.8613 0.8620
3627.054621 0.8620 0.8623 0.8628 0.8633 0.8638
3633.706513 0.8656 0.8686 0.8703 0.8708 0.8713
3640.358406 0.8718 0.8720 0.8720 0.8725 0.8735
3647.010298 0.8743 0.8748 0.8750 0.8750 0.8753
3653.662191 0.8758 0.8760 0.8760 0.8760 0.8760
3660.314083 0.8760 0.8760 0.8760 0.8760 0.8760
3666.965976 0.8760 0.8760 0.8760 0.8760 0.8760
3673.617868 0.8760 0.8760 0.8760 0.8760 0.8760
3680.269761 0.8760 0.8760 0.8760 0.8760 0.8760
3686.921653 0.8760 0.8760 0.8760 0.8760 0.8760
3693.573546 0.8760 0.8760 0.8760 0.8760 0.8760
3700.225438 0.8760 0.8760 0.8760 0.8760 0.8760
3706.877331 0.8760 0.8757 0.8752 0.8750 0.8750
3713.529223 0.8750 0.8750 0.8750 0.8750 0.8753
3720.181116 0.8758 0.8760 0.8760 0.8760 0.8760
3726.833008 0.8760 0.8760 0.8760 0.8760 0.8760
3733.484900 0.8760 0.8760 0.8760 0.8760 0.8760
3740.136793 0.8760 0.8760 0.8760 0.8760 0.8760
3746.788685 0.8760 0.8760 0.8760 0.8760 0.8760
3753.440578 0.8760 0.8760 0.8760 0.8760 0.8760
3760.092470 0.8760 0.8757 0.8752 0.8750 0.8750
3766.744363 0.8750 0.8750 0.8747 0.8742 0.8740
3773.396255 0.8740 0.8740 0.8740 0.8740 0.8740
3780.048148 0.8743 0.8748 0.8750 0.8750 0.8750
3786.700040 0.8750 0.8750 0.8750 0.8750 0.8750
3793.351933 0.8753 0.8758 0.8760 0.8760 0.8760
3800.003825 0.8760 0.8757 0.8752 0.8747 0.8742
3806.655718 0.8740 0.8740 0.8740 0.8740 0.8740
3813.307610 0.8740 0.8740 0.8740 0.8740 0.8740
3819.959503 0.8740 0.8740 0.8734 0.8724 0.8720
3826.611395 0.8720 0.8726 0.8736 0.8740 0.8740
3833.263288 0.8740 0.8740 0.8740 0.8740 0.8734
3839.915180 0.8724 0.8720 0.8720 0.8720 0.8720
3846.567072 0.8726 0.8736 0.8740 0.8740 0.8740
3853.218965 0.8740 0.8743 0.8748 0.8753 0.8758
3859.870857 0.8760 0.8760 0.8757 0.8752 0.8747
3866.522750 0.8742 0.8740 0.8740 0.8734 0.8724
3873.174642 0.8720 0.8720 0.8717 0.8712 0.8707
3879.826535 0.8702 0.8694 0.8684 0.8680 0.8680
3886.478427 0.8686 0.8696 0.8700 0.8700 0.8700
3893.130320 0.8700 0.8700 0.8700 0.8700 0.8700
3899.782212 0.8700 0.8700 0.8700 0.8700 0.8700
3906.434105 0.8700 0.8700 0.8700 0.8700 0.8700
3913.085997 0.8694 0.8684 0.8680 0.8680 0.8677
3919.737890 0.8672 0.8667 0.8662 0.8660 0.8660
3926.389782 0.8660 0.8660 0.8663 0.8668 0.8670
3933.041675 0.8670 0.8673 0.8678 0.8674 0.8664
3939.693567 0.8660 0.8660 0.8660 0.8660 0.8660
3946.345459 0.8660 0.8663 0.8668 0.8673 0.8678
3952.997352 0.8677 0.8672 0.8670 0.8670 0.8670
3959.649244 0.8670 0.8670 0.8670 0.8667 0.8662
3966.301137 0.8660 0.8660 0.8653 0.8643 0.8640
3972.953029 0.8640 0.8640 0.8640 0.8640 0.8640
3979.604922 0.8637 0.8632 0.8630 0.8630 0.8630
3986.256814 0.8630
##END=
