##TITLE=bis(Methylthio)diiron hexacarbonyl
##JCAMP-DX=4.24
$$ By DXEDIT 1.05 (RS McDonald)
##DATA TYPE=INFRARED SPECTRUM
##CLASS=COBLENTZ II
##ORIGIN=DOW CHEMICAL COMPANY
##OWNER=COPYRIGHT (C) 1988 by COBLENTZ SOCIETY INC.
Collection (C) 2018 copyright by the U.S. Secretary of Commerce
on behalf of the United States of America. All rights reserved.
##DATE=1968/10/24
##MOLFORM=C8 H6 O6 S2 Fe2
##SOURCE REFERENCE=COBLENTZ NO. 08993
##$NIST ID=B6008993
##$NIST SOURCE=COBLENTZ
##$NIST IMAGE=cob8993
##SPECTROMETER/DATA SYSTEM=DOW KBr FOREPRISM-GRATING
##INSTRUMENT PARAMETERS=BLAZED AT 3.5, 12.0, 20.0 MICRON AND CHANGED AT 5.0, 7.5, 14.9 MICRON
##STATE=SOLID (SPLIT MULL), FLUOROLUBE FOR 3800-1330 CM^-^1, NUJOL FOR 1330-400 CM^-^1
$$ STRUCTURE VERIFIED BY ELEMENTAL ANALYSIS AND MASS SPECTROMETRY
##SAMPLING PROCEDURE=TRANSMISSION
##RESOLUTION=2
##DATA PROCESSING=DIGITIZED BY COBLENTZ SOCIETY (BATCH I) FROM HARD COPY
##XUNITS=1/CM
##YUNITS=TRANSMITTANCE
##XFACTOR=1
##YFACTOR=1
##DELTAX=1
##FIRSTX=3800
##LASTX=391
##FIRSTY=0.7965
##MAXX=3800
##MINX=391
##MAXY=0.9507
##MINY=0.064
##NPOINTS=3410
##XYDATA=(X++(Y..Y))
3800.000000 0.7965 0.7965 0.7965 0.7964 0.7962
3795.000000 0.7961 0.7961 0.7960 0.7958 0.7958
3790.000000 0.7958 0.7957 0.7956 0.7955 0.7954
3785.000000 0.7953 0.7951 0.7951 0.7951 0.7950
3780.000000 0.7949 0.7948 0.7947 0.7946 0.7946
3775.000000 0.7945 0.7944 0.7943 0.7942 0.7941
3770.000000 0.7940 0.7939 0.7939 0.7938 0.7937
3765.000000 0.7937 0.7938 0.7939 0.7940 0.7940
3760.000000 0.7941 0.7941 0.7942 0.7942 0.7943
3755.000000 0.7944 0.7945 0.7945 0.7946 0.7946
3750.000000 0.7947 0.7947 0.7948 0.7949 0.7950
3745.000000 0.7950 0.7951 0.7951 0.7951 0.7953
3740.000000 0.7954 0.7955 0.7957 0.7958 0.7958
3735.000000 0.7960 0.7961 0.7962 0.7965 0.7965
3730.000000 0.7967 0.7968 0.7969 0.7971 0.7971
3725.000000 0.7972 0.7975 0.7976 0.7980 0.7982
3720.000000 0.7985 0.7987 0.7990 0.7992 0.7995
3715.000000 0.7997 0.7999 0.8001 0.8004 0.8005
3710.000000 0.8006 0.8006 0.8007 0.8008 0.8008
3705.000000 0.8008 0.8010 0.8010 0.8011 0.8011
3700.000000 0.8012 0.8012 0.8014 0.8014 0.8015
3695.000000 0.8015 0.8017 0.8017 0.8018 0.8018
3690.000000 0.8018 0.8018 0.8019 0.8019 0.8021
3685.000000 0.8021 0.8021 0.8021 0.8022 0.8022
3680.000000 0.8022 0.8022 0.8024 0.8024 0.8025
3675.000000 0.8025 0.8025 0.8025 0.8025 0.8025
3670.000000 0.8026 0.8026 0.8028 0.8028 0.8028
3665.000000 0.8028 0.8028 0.8028 0.8030 0.8030
3660.000000 0.8031 0.8031 0.8031 0.8031 0.8032
3655.000000 0.8032 0.8032 0.8032 0.8032 0.8032
3650.000000 0.8032 0.8032 0.8032 0.8031 0.8031
3645.000000 0.8031 0.8031 0.8031 0.8031 0.8031
3640.000000 0.8031 0.8030 0.8030 0.8030 0.8030
3635.000000 0.8030 0.8030 0.8028 0.8028 0.8028
3630.000000 0.8028 0.8028 0.8028 0.8028 0.8028
3625.000000 0.8028 0.8028 0.8026 0.8026 0.8026
3620.000000 0.8026 0.8025 0.8025 0.8025 0.8025
3615.000000 0.8024 0.8024 0.8024 0.8024 0.8022
3610.000000 0.8022 0.8021 0.8021 0.8021 0.8019
3605.000000 0.8018 0.8018 0.8018 0.8017 0.8015
3600.000000 0.8015 0.8014 0.8012 0.8011 0.8011
3595.000000 0.8010 0.8008 0.8007 0.8006 0.8004
3590.000000 0.8003 0.8001 0.7999 0.7997 0.7996
3585.000000 0.7990 0.7985 0.7978 0.7971 0.7961
3580.000000 0.7951 0.7944 0.7936 0.7936 0.7936
3575.000000 0.7936 0.7936 0.7936 0.7937 0.7937
3570.000000 0.7937 0.7937 0.7937 0.7937 0.7938
3565.000000 0.7938 0.7938 0.7938 0.7939 0.7939
3560.000000 0.7939 0.7939 0.7940 0.7940 0.7940
3555.000000 0.7939 0.7939 0.7939 0.7939 0.7938
3550.000000 0.7938 0.7937 0.7937 0.7937 0.7937
3545.000000 0.7936 0.7936 0.7936 0.7936 0.7935
3540.000000 0.7935 0.7934 0.7934 0.7934 0.7934
3535.000000 0.7933 0.7933 0.7932 0.7932 0.7931
3530.000000 0.7931 0.7930 0.7930 0.7928 0.7928
3525.000000 0.7928 0.7928 0.7928 0.7928 0.7926
3520.000000 0.7926 0.7925 0.7925 0.7925 0.7925
3515.000000 0.7924 0.7924 0.7922 0.7922 0.7922
3510.000000 0.7922 0.7922 0.7922 0.7922 0.7922
3505.000000 0.7922 0.7922 0.7922 0.7922 0.7922
3500.000000 0.7922 0.7922 0.7922 0.7922 0.7924
3495.000000 0.7924 0.7924 0.7924 0.7924 0.7924
3490.000000 0.7924 0.7924 0.7924 0.7924 0.7924
3485.000000 0.7924 0.7924 0.7924 0.7924 0.7924
3480.000000 0.7924 0.7924 0.7924 0.7924 0.7925
3475.000000 0.7925 0.7925 0.7925 0.7925 0.7925
3470.000000 0.7925 0.7925 0.7925 0.7925 0.7925
3465.000000 0.7925 0.7926 0.7926 0.7926 0.7926
3460.000000 0.7926 0.7926 0.7928 0.7928 0.7928
3455.000000 0.7928 0.7928 0.7928 0.7928 0.7928
3450.000000 0.7928 0.7928 0.7928 0.7928 0.7928
3445.000000 0.7928 0.7930 0.7930 0.7930 0.7930
3440.000000 0.7930 0.7930 0.7930 0.7930 0.7931
3435.000000 0.7931 0.7931 0.7931 0.7931 0.7931
3430.000000 0.7931 0.7931 0.7931 0.7931 0.7932
3425.000000 0.7932 0.7932 0.7932 0.7932 0.7932
3420.000000 0.7932 0.7932 0.7933 0.7933 0.7933
3415.000000 0.7933 0.7933 0.7933 0.7933 0.7933
3410.000000 0.7933 0.7933 0.7933 0.7933 0.7933
3405.000000 0.7933 0.7933 0.7933 0.7933 0.7933
3400.000000 0.7933 0.7933 0.7933 0.7932 0.7932
3395.000000 0.7932 0.7932 0.7932 0.7932 0.7932
3390.000000 0.7932 0.7932 0.7932 0.7932 0.7932
3385.000000 0.7932 0.7932 0.7931 0.7931 0.7931
3380.000000 0.7931 0.7931 0.7931 0.7932 0.7933
3375.000000 0.7934 0.7935 0.7936 0.7937 0.7938
3370.000000 0.7939 0.7939 0.7940 0.7941 0.7942
3365.000000 0.7943 0.7944 0.7945 0.7946 0.7947
3360.000000 0.7948 0.7949 0.7950 0.7951 0.7951
3355.000000 0.7953 0.7954 0.7955 0.7956 0.7957
3350.000000 0.7958 0.7958 0.7958 0.7958 0.7958
3345.000000 0.7958 0.7958 0.7958 0.7958 0.7958
3340.000000 0.7960 0.7960 0.7960 0.7960 0.7961
3335.000000 0.7961 0.7961 0.7961 0.7961 0.7961
3330.000000 0.7961 0.7961 0.7962 0.7962 0.7962
3325.000000 0.7962 0.7964 0.7964 0.7964 0.7964
3320.000000 0.7965 0.7965 0.7965 0.7965 0.7965
3315.000000 0.7965 0.7965 0.7965 0.7967 0.7967
3310.000000 0.7968 0.7968 0.7968 0.7968 0.7969
3305.000000 0.7969 0.7971 0.7971 0.7971 0.7971
3300.000000 0.7972 0.7972 0.7974 0.7974 0.7975
3295.000000 0.7975 0.7976 0.7976 0.7978 0.7978
3290.000000 0.7978 0.7978 0.7980 0.7980 0.7981
3285.000000 0.7981 0.7982 0.7982 0.7982 0.7982
3280.000000 0.7982 0.7982 0.7982 0.7982 0.7982
3275.000000 0.7982 0.7982 0.7982 0.7982 0.7982
3270.000000 0.7982 0.7982 0.7982 0.7982 0.7982
3265.000000 0.7982 0.7983 0.7983 0.7983 0.7983
3260.000000 0.7983 0.7983 0.7983 0.7983 0.7983
3255.000000 0.7983 0.7983 0.7983 0.7983 0.7983
3250.000000 0.7983 0.7983 0.7983 0.7983 0.7983
3245.000000 0.7983 0.7983 0.7983 0.7984 0.7985
3240.000000 0.7987 0.7988 0.7989 0.7990 0.7992
3235.000000 0.7993 0.7995 0.7996 0.7997 0.7998
3230.000000 0.8000 0.8001 0.7984 0.8004 0.8006
3225.000000 0.8007 0.8008 0.8008 0.8011 0.8011
3220.000000 0.8014 0.8015 0.8017 0.8018 0.8019
3215.000000 0.8021 0.8021 0.8022 0.8025 0.8025
3210.000000 0.8028 0.8028 0.8031 0.8032 0.8034
3205.000000 0.8035 0.8037 0.8038 0.8040 0.8041
3200.000000 0.8042 0.8043 0.8045 0.8046 0.8048
3195.000000 0.8049 0.8050 0.8051 0.8053 0.8054
3190.000000 0.8055 0.8056 0.8058 0.8058 0.8060
3185.000000 0.8061 0.8061 0.8062 0.8065 0.8065
3180.000000 0.8067 0.8068 0.8069 0.8071 0.8071
3175.000000 0.8072 0.8075 0.8075 0.8075 0.8076
3170.000000 0.8078 0.8078 0.8080 0.8081 0.8082
3165.000000 0.8082 0.8083 0.8084 0.8085 0.8086
3160.000000 0.8087 0.8088 0.8089 0.8090 0.8091
3155.000000 0.8091 0.8092 0.8093 0.8094 0.8095
3150.000000 0.8096 0.8096 0.8097 0.8098 0.8099
3145.000000 0.8099 0.8100 0.8101 0.8101 0.8101
3140.000000 0.8103 0.8103 0.8104 0.8105 0.8106
3135.000000 0.8106 0.8107 0.8107 0.8108 0.8108
3130.000000 0.8110 0.8110 0.8111 0.8111 0.8111
3125.000000 0.8112 0.8114 0.8114 0.8115 0.8115
3120.000000 0.8115 0.8117 0.8118 0.8118 0.8118
3115.000000 0.8119 0.8121 0.8121 0.8121 0.8121
3110.000000 0.8122 0.8124 0.8125 0.8125 0.8125
3105.000000 0.8125 0.8126 0.8128 0.8128 0.8130
3100.000000 0.8131 0.8132 0.8133 0.8133 0.8134
3095.000000 0.8135 0.8136 0.8137 0.8138 0.8139
3090.000000 0.8140 0.8140 0.8141 0.8142 0.8143
3085.000000 0.8144 0.8145 0.8146 0.8147 0.8147
3080.000000 0.8148 0.8149 0.8150 0.8151 0.8151
3075.000000 0.8151 0.8153 0.8154 0.8155 0.8155
3070.000000 0.8156 0.8157 0.8158 0.8158 0.8160
3065.000000 0.8160 0.8161 0.8161 0.8162 0.8162
3060.000000 0.8164 0.8165 0.8165 0.8165 0.8167
3055.000000 0.8168 0.8168 0.8168 0.8168 0.8168
3050.000000 0.8168 0.8168 0.8168 0.8167 0.8167
3045.000000 0.8165 0.8165 0.8165 0.8165 0.8164
3040.000000 0.8162 0.8161 0.8161 0.8160 0.8160
3035.000000 0.8158 0.8158 0.8157 0.8156 0.8155
3030.000000 0.8155 0.8154 0.8153 0.8151 0.8151
3025.000000 0.8151 0.8151 0.8150 0.8149 0.8149
3020.000000 0.8149 0.8149 0.8150 0.8150 0.8151
3015.000000 0.8151 0.8151 0.8151 0.8153 0.8153
3010.000000 0.8154 0.8154 0.8154 0.8154 0.8155
3005.000000 0.8155 0.8156 0.8157 0.8158 0.8160
3000.000000 0.8161 0.8162 0.8165 0.8165 0.8168
2995.000000 0.8169 0.8171 0.8172 0.8175 0.8176
2990.000000 0.8178 0.8180 0.8182 0.8183 0.8185
2985.000000 0.8187 0.8190 0.8192 0.8195 0.8197
2980.000000 0.8200 0.8202 0.8205 0.8207 0.8210
2975.000000 0.8212 0.8215 0.8216 0.8218 0.8218
2970.000000 0.8221 0.8221 0.8223 0.8224 0.8225
2965.000000 0.8227 0.8228 0.8228 0.8231 0.8232
2960.000000 0.8233 0.8234 0.8236 0.8236 0.8236
2955.000000 0.8236 0.8237 0.8237 0.8238 0.8238
2950.000000 0.8238 0.8238 0.8239 0.8239 0.8239
2945.000000 0.8238 0.8237 0.8235 0.8234 0.8233
2940.000000 0.8232 0.8228 0.8225 0.8221 0.8218
2935.000000 0.8216 0.8213 0.8208 0.8204 0.8199
2930.000000 0.8195 0.8190 0.8186 0.8183 0.8180
2925.000000 0.8178 0.8175 0.8174 0.8172 0.8171
2920.000000 0.8171 0.8171 0.8174 0.8175 0.8176
2915.000000 0.8178 0.8180 0.8181 0.8183 0.8184
2910.000000 0.8185 0.8187 0.8189 0.8191 0.8194
2905.000000 0.8196 0.8198 0.8200 0.8202 0.8204
2900.000000 0.8206 0.8208 0.8210 0.8212 0.8214
2895.000000 0.8215 0.8217 0.8218 0.8220 0.8221
2890.000000 0.8223 0.8224 0.8225 0.8225 0.8228
2885.000000 0.8228 0.8231 0.8232 0.8233 0.8234
2880.000000 0.8235 0.8236 0.8237 0.8237 0.8238
2875.000000 0.8239 0.8240 0.8240 0.8241 0.8242
2870.000000 0.8243 0.8243 0.8244 0.8245 0.8246
2865.000000 0.8246 0.8247 0.8248 0.8249 0.8249
2860.000000 0.8250 0.8250 0.8251 0.8252 0.8253
2855.000000 0.8253 0.8254 0.8254 0.8255 0.8255
2850.000000 0.8256 0.8256 0.8257 0.8258 0.8259
2845.000000 0.8259 0.8260 0.8260 0.8261 0.8261
2840.000000 0.8262 0.8262 0.8263 0.8264 0.8265
2835.000000 0.8265 0.8266 0.8266 0.8267 0.8267
2830.000000 0.8268 0.8268 0.8270 0.8270 0.8271
2825.000000 0.8271 0.8271 0.8271 0.8273 0.8273
2820.000000 0.8274 0.8275 0.8275 0.8275 0.8277
2815.000000 0.8278 0.8278 0.8278 0.8280 0.8281
2810.000000 0.8282 0.8283 0.8284 0.8285 0.8286
2805.000000 0.8286 0.8287 0.8288 0.8289 0.8290
2800.000000 0.8291 0.8292 0.8293 0.8293 0.8294
2795.000000 0.8295 0.8296 0.8297 0.8298 0.8299
2790.000000 0.8300 0.8300 0.8301 0.8302 0.8303
2785.000000 0.8304 0.8305 0.8306 0.8307 0.8307
2780.000000 0.8308 0.8308 0.8309 0.8310 0.8311
2775.000000 0.8311 0.8312 0.8313 0.8314 0.8314
2770.000000 0.8315 0.8315 0.8316 0.8317 0.8318
2765.000000 0.8318 0.8318 0.8318 0.8320 0.8321
2760.000000 0.8321 0.8321 0.8323 0.8323 0.8324
2755.000000 0.8324 0.8325 0.8325 0.8325 0.8325
2750.000000 0.8325 0.8325 0.8325 0.8325 0.8325
2745.000000 0.8325 0.8325 0.8325 0.8325 0.8325
2740.000000 0.8325 0.8324 0.8324 0.8324 0.8324
2735.000000 0.8324 0.8324 0.8323 0.8323 0.8323
2730.000000 0.8323 0.8321 0.8321 0.8321 0.8321
2725.000000 0.8321 0.8321 0.8321 0.8321 0.8321
2720.000000 0.8321 0.8320 0.8320 0.8320 0.8321
2715.000000 0.8321 0.8321 0.8321 0.8321 0.8321
2710.000000 0.8321 0.8321 0.8321 0.8321 0.8321
2705.000000 0.8321 0.8321 0.8321 0.8321 0.8321
2700.000000 0.8321 0.8321 0.8321 0.8321 0.8321
2695.000000 0.8321 0.8321 0.8321 0.8321 0.8321
2690.000000 0.8321 0.8321 0.8321 0.8321 0.8323
2685.000000 0.8323 0.8324 0.8324 0.8325 0.8325
2680.000000 0.8325 0.8325 0.8327 0.8327 0.8328
2675.000000 0.8328 0.8330 0.8330 0.8331 0.8331
2670.000000 0.8332 0.8332 0.8333 0.8333 0.8334
2665.000000 0.8334 0.8335 0.8335 0.8336 0.8336
2660.000000 0.8337 0.8338 0.8339 0.8339 0.8340
2655.000000 0.8340 0.8341 0.8342 0.8343 0.8344
2650.000000 0.8345 0.8346 0.8347 0.8348 0.8349
2645.000000 0.8350 0.8351 0.8351 0.8352 0.8352
2640.000000 0.8352 0.8352 0.8352 0.8351 0.8351
2635.000000 0.8351 0.8351 0.8351 0.8351 0.8350
2630.000000 0.8350 0.8350 0.8350 0.8350 0.8350
2625.000000 0.8350 0.8350 0.8349 0.8349 0.8349
2620.000000 0.8349 0.8348 0.8348 0.8348 0.8348
2615.000000 0.8347 0.8347 0.8347 0.8347 0.8346
2610.000000 0.8346 0.8346 0.8346 0.8346 0.8347
2605.000000 0.8347 0.8347 0.8347 0.8347 0.8347
2600.000000 0.8348 0.8348 0.8348 0.8348 0.8349
2595.000000 0.8349 0.8349 0.8349 0.8349 0.8349
2590.000000 0.8350 0.8350 0.8350 0.8350 0.8350
2585.000000 0.8350 0.8351 0.8352 0.8354 0.8355
2580.000000 0.8357 0.8359 0.8361 0.8362 0.8364
2575.000000 0.8365 0.8367 0.8368 0.8370 0.8370
2570.000000 0.8370 0.8370 0.8370 0.8370 0.8371
2565.000000 0.8371 0.8371 0.8371 0.8371 0.8371
2560.000000 0.8371 0.8371 0.8373 0.8373 0.8373
2555.000000 0.8373 0.8374 0.8374 0.8375 0.8375
2550.000000 0.8375 0.8375 0.8375 0.8375 0.8377
2545.000000 0.8377 0.8378 0.8378 0.8378 0.8378
2540.000000 0.8380 0.8380 0.8380 0.8380 0.8381
2535.000000 0.8381 0.8381 0.8380 0.8380 0.8378
2530.000000 0.8378 0.8378 0.8378 0.8377 0.8377
2525.000000 0.8375 0.8375 0.8375 0.8375 0.8374
2520.000000 0.8374 0.8373 0.8373 0.8373 0.8373
2515.000000 0.8371 0.8371 0.8371 0.8371 0.8370
2510.000000 0.8370 0.8368 0.8368 0.8368 0.8368
2505.000000 0.8367 0.8367 0.8366 0.8366 0.8365
2500.000000 0.8365 0.8365 0.8365 0.8364 0.8364
2495.000000 0.8363 0.8363 0.8362 0.8362 0.8361
2490.000000 0.8361 0.8360 0.8360 0.8359 0.8359
2485.000000 0.8358 0.8358 0.8357 0.8356 0.8355
2480.000000 0.8355 0.8354 0.8354 0.8353 0.8352
2475.000000 0.8351 0.8350 0.8349 0.8348 0.8346
2470.000000 0.8345 0.8344 0.8343 0.8342 0.8341
2465.000000 0.8340 0.8340 0.8340 0.8340 0.8340
2460.000000 0.8340 0.8340 0.8340 0.8339 0.8339
2455.000000 0.8339 0.8339 0.8338 0.8338 0.8337
2450.000000 0.8337 0.8336 0.8336 0.8335 0.8335
2445.000000 0.8334 0.8334 0.8334 0.8334 0.8333
2440.000000 0.8333 0.8332 0.8332 0.8332 0.8332
2435.000000 0.8331 0.8331 0.8331 0.8331 0.8330
2430.000000 0.8330 0.8328 0.8328 0.8328 0.8328
2425.000000 0.8328 0.8328 0.8328 0.8328 0.8327
2420.000000 0.8327 0.8327 0.8327 0.8325 0.8325
2415.000000 0.8325 0.8325 0.8325 0.8325 0.8324
2410.000000 0.8324 0.8324 0.8324 0.8323 0.8323
2405.000000 0.8324 0.8325 0.8325 0.8328 0.8328
2400.000000 0.8331 0.8332 0.8334 0.8335 0.8336
2395.000000 0.8337 0.8339 0.8340 0.8342 0.8343
2390.000000 0.8345 0.8346 0.8347 0.8348 0.8350
2385.000000 0.8351 0.8353 0.8355 0.8358 0.8360
2380.000000 0.8363 0.8365 0.8367 0.8368 0.8371
2375.000000 0.8374 0.8377 0.8378 0.8382 0.8384
2370.000000 0.8387 0.8390 0.8393 0.8396 0.8399
2365.000000 0.8402 0.8406 0.8409 0.8412 0.8415
2360.000000 0.8418 0.8421 0.8424 0.8427 0.8430
2355.000000 0.8433 0.8437 0.8439 0.8442 0.8444
2350.000000 0.8446 0.8448 0.8450 0.8452 0.8454
2345.000000 0.8456 0.8459 0.8460 0.8460 0.8460
2340.000000 0.8460 0.8459 0.8459 0.8458 0.8458
2335.000000 0.8457 0.8457 0.8456 0.8456 0.8455
2330.000000 0.8455 0.8454 0.8454 0.8453 0.8453
2325.000000 0.8452 0.8452 0.8451 0.8451 0.8450
2320.000000 0.8449 0.8448 0.8448 0.8447 0.8446
2315.000000 0.8445 0.8445 0.8444 0.8443 0.8442
2310.000000 0.8442 0.8441 0.8440 0.8439 0.8439
2305.000000 0.8438 0.8438 0.8437 0.8437 0.8436
2300.000000 0.8436 0.8435 0.8435 0.8434 0.8434
2295.000000 0.8433 0.8433 0.8432 0.8432 0.8431
2290.000000 0.8431 0.8430 0.8430 0.8428 0.8428
2285.000000 0.8428 0.8427 0.8425 0.8425 0.8425
2280.000000 0.8425 0.8424 0.8423 0.8421 0.8421
2275.000000 0.8421 0.8421 0.8420 0.8418 0.8418
2270.000000 0.8418 0.8417 0.8417 0.8417 0.8417
2265.000000 0.8417 0.8418 0.8418 0.8420 0.8420
2260.000000 0.8421 0.8421 0.8423 0.8423 0.8424
2255.000000 0.8425 0.8425 0.8427 0.8428 0.8428
2250.000000 0.8428 0.8430 0.8431 0.8431 0.8432
2245.000000 0.8433 0.8434 0.8434 0.8435 0.8437
2240.000000 0.8440 0.8442 0.8444 0.8446 0.8448
2235.000000 0.8450 0.8452 0.8454 0.8456 0.8458
2230.000000 0.8460 0.8462 0.8464 0.8466 0.8468
2225.000000 0.8470 0.8471 0.8474 0.8475 0.8477
2220.000000 0.8478 0.8480 0.8482 0.8483 0.8485
2215.000000 0.8486 0.8487 0.8488 0.8490 0.8491
2210.000000 0.8493 0.8494 0.8495 0.8496 0.8498
2205.000000 0.8499 0.8501 0.8502 0.8504 0.8505
2200.000000 0.8506 0.8508 0.8511 0.8513 0.8515
2195.000000 0.8517 0.8518 0.8521 0.8524 0.8525
2190.000000 0.8528 0.8530 0.8533 0.8535 0.8537
2185.000000 0.8539 0.8542 0.8543 0.8545 0.8546
2180.000000 0.8548 0.8549 0.8551 0.8552 0.8554
2175.000000 0.8555 0.8557 0.8558 0.8560 0.8561
2170.000000 0.8563 0.8564 0.8566 0.8567 0.8568
2165.000000 0.8568 0.8570 0.8571 0.8571 0.8571
2160.000000 0.8573 0.8574 0.8575 0.8575 0.8577
2155.000000 0.8578 0.8578 0.8580 0.8581 0.8581
2150.000000 0.8582 0.8583 0.8584 0.8584 0.8585
2145.000000 0.8586 0.8587 0.8588 0.8589 0.8589
2140.000000 0.8590 0.8591 0.8592 0.8592 0.8592
2135.000000 0.8592 0.8592 0.8591 0.8591 0.8590
2130.000000 0.8589 0.8588 0.8588 0.8587 0.8586
2125.000000 0.8585 0.8584 0.8582 0.8581 0.8578
2120.000000 0.8578 0.8575 0.8574 0.8571 0.8568
2115.000000 0.8566 0.8564 0.8561 0.8559 0.8556
2110.000000 0.8554 0.8551 0.8557 0.8546 0.8544
2105.000000 0.8541 0.8538 0.8532 0.8527 0.8518
2100.000000 0.8512 0.8502 0.8493 0.8484 0.8475
2095.000000 0.8463 0.8451 0.8437 0.8424 0.8403
2090.000000 0.8383 0.8362 0.8342 0.8310 0.8278
2085.000000 0.8216 0.2752 0.5627 0.3102 0.3548
2080.000000 0.3995 0.4441 0.4887 0.5333 0.5780
2075.000000 0.6078 0.6377 0.6395 0.6412 0.6591
2070.000000 0.6768 0.6947 0.7125 0.7303 0.7482
2065.000000 0.7619 0.7758 0.7765 0.7775 0.7778
2060.000000 0.7825 0.7521 0.7261 0.6508 0.5757
2055.000000 0.5004 0.4252 0.3499 0.2747 0.1994
2050.000000 0.1242 0.0941 0.0640 0.0640 0.0640
2045.000000 0.0640 0.0642 0.0919 0.1196 0.1487
2040.000000 0.1778 0.2068 0.2358 0.2648 0.2939
2035.000000 0.3229 0.3518 0.3809 0.4100 0.4390
2030.000000 0.4680 0.4970 0.5260 0.5550 0.5841
2025.000000 0.6097 0.6354 0.6380 0.6442 0.6412
2020.000000 0.6419 0.6408 0.6399 0.6167 0.5935
2015.000000 0.5643 0.5351 0.5059 0.4768 0.4476
2010.000000 0.4184 0.3892 0.3600 0.3308 0.3016
2005.000000 0.2724 0.2432 0.2140 0.1848 0.1644
2000.000000 0.1440 0.1439 0.1456 0.1480 0.1490
1995.000000 0.1439 0.1368 0.1330 0.1344 0.1370
1990.000000 0.1452 0.1576 0.1835 0.2111 0.2387
1985.000000 0.2662 0.2938 0.3212 0.3489 0.3764
1980.000000 0.4039 0.4204 0.4360 0.4574 0.4751
1975.000000 0.4885 0.5019 0.5174 0.5305 0.5426
1970.000000 0.5539 0.5657 0.5772 0.5859 0.5940
1965.000000 0.6018 0.6097 0.6176 0.6278 0.6358
1960.000000 0.6385 0.6399 0.6388 0.6335 0.6341
1955.000000 0.6383 0.6458 0.6541 0.6607 0.6671
1950.000000 0.6749 0.6828 0.6891 0.6951 0.7012
1945.000000 0.7051 0.7089 0.7126 0.7165 0.7200
1940.000000 0.7234 0.7265 0.7290 0.7315 0.7333
1935.000000 0.7349 0.7365 0.7382 0.7398 0.7415
1930.000000 0.7433 0.7457 0.7481 0.7505 0.7528
1925.000000 0.7553 0.7569 0.7588 0.7606 0.7622
1920.000000 0.7641 0.7658 0.7675 0.7690 0.7701
1915.000000 0.7712 0.7725 0.7737 0.7749 0.7760
1910.000000 0.7771 0.7784 0.7796 0.7804 0.7811
1905.000000 0.7819 0.7828 0.7836 0.7844 0.7853
1900.000000 0.7861 0.7868 0.7876 0.7885 0.7893
1895.000000 0.7901 0.7908 0.7915 0.7919 0.7924
1890.000000 0.7928 0.7934 0.7939 0.7943 0.7948
1885.000000 0.7953 0.7957 0.7961 0.7967 0.7971
1880.000000 0.7975 0.7981 0.7985 0.7990 0.7994
1875.000000 0.7998 0.8001 0.8006 0.8011 0.8015
1870.000000 0.8018 0.8022 0.8026 0.8032 0.8036
1865.000000 0.8040 0.8044 0.8049 0.8054 0.8058
1860.000000 0.8062 0.8068 0.8072 0.8076 0.8082
1855.000000 0.8087 0.8092 0.8096 0.8101 0.8106
1850.000000 0.8111 0.8115 0.8119 0.8125 0.8130
1845.000000 0.8135 0.8140 0.8144 0.8149 0.8153
1840.000000 0.8157 0.8161 0.8165 0.8168 0.8171
1835.000000 0.8175 0.8180 0.8183 0.8187 0.8191
1830.000000 0.8195 0.8198 0.8202 0.8205 0.8209
1825.000000 0.8212 0.8215 0.8218 0.8221 0.8224
1820.000000 0.8227 0.8230 0.8233 0.8236 0.8239
1815.000000 0.8242 0.8245 0.8247 0.8249 0.8251
1810.000000 0.8253 0.8255 0.8257 0.8259 0.8261
1805.000000 0.8263 0.8265 0.8267 0.8270 0.8271
1800.000000 0.8274 0.8275 0.8278 0.8280 0.8282
1795.000000 0.8284 0.8285 0.8287 0.8289 0.8291
1790.000000 0.8293 0.8295 0.8297 0.8299 0.8301
1785.000000 0.8303 0.8305 0.8307 0.8309 0.8311
1780.000000 0.8313 0.8315 0.8317 0.8318 0.8320
1775.000000 0.8321 0.8323 0.8325 0.8325 0.8328
1770.000000 0.8328 0.8331 0.8333 0.8334 0.8336
1765.000000 0.8337 0.8339 0.8341 0.8342 0.8344
1760.000000 0.8345 0.8346 0.8348 0.8349 0.8350
1755.000000 0.8352 0.8353 0.8354 0.8355 0.8357
1750.000000 0.8358 0.8359 0.8361 0.8362 0.8363
1745.000000 0.8364 0.8367 0.8367 0.8367 0.8368
1740.000000 0.8368 0.8370 0.8371 0.8371 0.8373
1735.000000 0.8373 0.8374 0.8375 0.8375 0.8375
1730.000000 0.8375 0.8374 0.8374 0.8374 0.8374
1725.000000 0.8373 0.8373 0.8373 0.8373 0.8371
1720.000000 0.8368 0.8367 0.8364 0.8361 0.8358
1715.000000 0.8355 0.8353 0.8350 0.8347 0.8344
1710.000000 0.8342 0.8338 0.8333 0.8328 0.8323
1705.000000 0.8318 0.8313 0.8308 0.8298 0.8287
1700.000000 0.8274 0.8255 0.8235 0.8216 0.8204
1695.000000 0.8191 0.8178 0.8167 0.8155 0.8142
1690.000000 0.8128 0.8115 0.8101 0.8087 0.8071
1685.000000 0.8058 0.8055 0.8051 0.8048 0.8045
1680.000000 0.8044 0.8044 0.8044 0.8044 0.8043
1675.000000 0.8042 0.8041 0.8040 0.8038 0.8037
1670.000000 0.8036 0.8034 0.8033 0.8026 0.8019
1665.000000 0.8014 0.8008 0.8001 0.7996 0.7988
1660.000000 0.7978 0.7968 0.7958 0.7950 0.7940
1655.000000 0.7931 0.7921 0.7912 0.7904 0.7894
1650.000000 0.7885 0.7875 0.7865 0.7855 0.7845
1645.000000 0.7835 0.7825 0.7815 0.7808 0.7801
1640.000000 0.7795 0.7788 0.7782 0.7775 0.7771
1635.000000 0.7768 0.7765 0.7756 0.7757 0.7758
1630.000000 0.7757 0.7757 0.7765 0.7775 0.7785
1625.000000 0.7803 0.7821 0.7840 0.7858 0.7876
1620.000000 0.7895 0.7911 0.7926 0.7943 0.7958
1615.000000 0.7975 0.7991 0.8007 0.8022 0.8039
1610.000000 0.8055 0.8068 0.8084 0.8098 0.8112
1605.000000 0.8128 0.8142 0.8156 0.8168 0.8178
1600.000000 0.8191 0.8203 0.8215 0.8225 0.8236
1595.000000 0.8247 0.8258 0.8268 0.8278 0.8290
1590.000000 0.8301 0.8309 0.8313 0.8318 0.8321
1585.000000 0.8327 0.8331 0.8332 0.8332 0.8331
1580.000000 0.8331 0.8330 0.8328 0.8327 0.8325
1575.000000 0.8325 0.8323 0.8321 0.8321 0.8318
1570.000000 0.8318 0.8317 0.8317 0.8317 0.8318
1565.000000 0.8318 0.8320 0.8321 0.8321 0.8323
1560.000000 0.8323 0.8324 0.8325 0.8325 0.8327
1555.000000 0.8328 0.8328 0.8330 0.8331 0.8332
1550.000000 0.8332 0.8333 0.8333 0.8334 0.8334
1545.000000 0.8335 0.8335 0.8336 0.8336 0.8336
1540.000000 0.8337 0.8337 0.8338 0.8338 0.8339
1535.000000 0.8339 0.8340 0.8340 0.8341 0.8341
1530.000000 0.8341 0.8341 0.8342 0.8342 0.8342
1525.000000 0.8342 0.8343 0.8343 0.8343 0.8344
1520.000000 0.8344 0.8344 0.8344 0.8345 0.8345
1515.000000 0.8345 0.8346 0.8346 0.8346 0.8346
1510.000000 0.8347 0.8347 0.8347 0.8348 0.8348
1505.000000 0.8348 0.8349 0.8349 0.8349 0.8349
1500.000000 0.8349 0.8349 0.8349 0.8349 0.8349
1495.000000 0.8349 0.8349 0.8349 0.8349 0.8348
1490.000000 0.8348 0.8348 0.8348 0.8348 0.8348
1485.000000 0.8348 0.8347 0.8347 0.8346 0.8345
1480.000000 0.8344 0.8342 0.8341 0.8340 0.8338
1475.000000 0.8337 0.8335 0.8334 0.8333 0.8331
1470.000000 0.8330 0.8328 0.8327 0.8325 0.8321
1465.000000 0.8318 0.8315 0.8312 0.8308 0.8305
1460.000000 0.8302 0.8298 0.8295 0.8292 0.8288
1455.000000 0.8285 0.8282 0.8278 0.8273 0.8268
1450.000000 0.8264 0.8259 0.8254 0.8250 0.8244
1445.000000 0.8238 0.8233 0.8227 0.8221 0.8216
1440.000000 0.8210 0.8197 0.8183 0.8165 0.8144
1435.000000 0.8118 0.8062 0.8004 0.7954 0.7915
1430.000000 0.7884 0.7865 0.7847 0.7868 0.7855
1425.000000 0.7861 0.7868 0.7875 0.7881 0.7887
1420.000000 0.7893 0.7899 0.7905 0.7911 0.7915
1415.000000 0.7918 0.7922 0.7926 0.7932 0.7936
1410.000000 0.7940 0.7944 0.7948 0.7950 0.7953
1405.000000 0.7955 0.7958 0.7960 0.7962 0.7964
1400.000000 0.7964 0.7962 0.7961 0.7960 0.7958
1395.000000 0.7957 0.7955 0.7954 0.7951 0.7951
1390.000000 0.7949 0.7947 0.7942 0.7938 0.7921
1385.000000 0.7900 0.7880 0.7860 0.7840 0.7822
1380.000000 0.7822 0.7826 0.7833 0.7845 0.7857
1375.000000 0.7868 0.7878 0.7887 0.7895 0.7903
1370.000000 0.7910 0.7911 0.7911 0.7910 0.7907
1365.000000 0.7901 0.7897 0.7892 0.7886 0.7881
1360.000000 0.7871 0.7862 0.7853 0.7843 0.7835
1355.000000 0.7831 0.7826 0.7824 0.7821 0.7821
1350.000000 0.7821 0.7821 0.7831 0.7845 0.7861
1345.000000 0.7881 0.7908 0.7935 0.7961 0.7985
1340.000000 0.8006 0.8026 0.8040 0.8047 0.8053
1335.000000 0.8057 0.8061 0.8061 0.8062 0.8045
1330.000000 0.8021 0.7998 0.7968 0.7940 0.7911
1325.000000 0.7878 0.7845 0.7811 0.7767 0.7721
1320.000000 0.7671 0.7618 0.7565 0.7512 0.7458
1315.000000 0.7406 0.7353 0.7341 0.7331 0.7346
1310.000000 0.7368 0.7390 0.7418 0.7458 0.7469
1305.000000 0.7469 0.7469 0.7467 0.7458 0.7448
1300.000000 0.7441 0.7441 0.7440 0.7441 0.7443
1295.000000 0.7448 0.7457 0.7465 0.7475 0.7485
1290.000000 0.7496 0.7507 0.7518 0.7528 0.7540
1285.000000 0.7551 0.7558 0.7560 0.7561 0.7564
1280.000000 0.7565 0.7568 0.7569 0.7571 0.7619
1275.000000 0.7575 0.7575 0.7578 0.7578 0.7578
1270.000000 0.7578 0.7576 0.7567 0.7551 0.7534
1265.000000 0.7508 0.7483 0.7457 0.7425 0.7391
1260.000000 0.7355 0.7318 0.7278 0.7230 0.7183
1255.000000 0.7136 0.7090 0.7047 0.7004 0.6961
1250.000000 0.6928 0.6906 0.6885 0.6864 0.6843
1245.000000 0.6826 0.6811 0.6798 0.6783 0.6768
1240.000000 0.6753 0.6739 0.6726 0.6714 0.6701
1235.000000 0.6690 0.6675 0.6661 0.6648 0.6633
1230.000000 0.6618 0.6605 0.6590 0.6574 0.6558
1225.000000 0.6545 0.6531 0.6521 0.6511 0.6501
1220.000000 0.6469 0.6490 0.6489 0.6488 0.6501
1215.000000 0.6517 0.6531 0.6545 0.6558 0.6572
1210.000000 0.6585 0.6593 0.6601 0.6608 0.6611
1205.000000 0.6614 0.6617 0.6619 0.6622 0.6626
1200.000000 0.6631 0.6635 0.6643 0.6656 0.6668
1195.000000 0.6680 0.6694 0.6711 0.6726 0.6744
1190.000000 0.6758 0.6775 0.6789 0.6803 0.6815
1185.000000 0.6825 0.6835 0.6837 0.6838 0.6832
1180.000000 0.6825 0.6818 0.6815 0.6815 0.6817
1175.000000 0.6821 0.6832 0.6842 0.6851 0.6858
1170.000000 0.6867 0.6875 0.6882 0.6890 0.6898
1165.000000 0.6906 0.6914 0.6924 0.6936 0.6948
1160.000000 0.6958 0.6967 0.6978 0.6994 0.7014
1155.000000 0.7037 0.7061 0.7084 0.7124 0.7165
1150.000000 0.7211 0.7258 0.7304 0.7353 0.7401
1145.000000 0.7451 0.7500 0.7551 0.7611 0.7671
1140.000000 0.7732 0.7806 0.7883 0.7958 0.8007
1135.000000 0.8049 0.8090 0.8131 0.8172 0.8214
1130.000000 0.8255 0.8289 0.8321 0.8355 0.8388
1125.000000 0.8421 0.8448 0.8473 0.8497 0.8521
1120.000000 0.8547 0.8568 0.8585 0.8600 0.8615
1115.000000 0.8630 0.8646 0.8661 0.8675 0.8689
1110.000000 0.8703 0.8717 0.8731 0.8741 0.8750
1105.000000 0.8759 0.8768 0.8777 0.8782 0.8785
1100.000000 0.8789 0.8792 0.8793 0.8794 0.8795
1095.000000 0.8796 0.8792 0.8788 0.8784 0.8780
1090.000000 0.8775 0.8766 0.8742 0.8710 0.8671
1085.000000 0.8634 0.8592 0.8549 0.8492 0.8410
1080.000000 0.8294 0.8181 0.8067 0.7954 0.7841
1075.000000 0.7761 0.7701 0.7669 0.7674 0.7693
1070.000000 0.7739 0.7789 0.7838 0.7893 0.7939
1065.000000 0.7971 0.7992 0.8007 0.8015 0.8024
1060.000000 0.8024 0.8024 0.8011 0.7999 0.7986
1055.000000 0.7975 0.7964 0.7953 0.7943 0.7938
1050.000000 0.7938 0.7942 0.7945 0.7949 0.7956
1045.000000 0.7969 0.7984 0.7998 0.8012 0.8028
1040.000000 0.8043 0.8058 0.8069 0.8078 0.8087
1035.000000 0.8096 0.8118 0.8089 0.8075 0.8047
1030.000000 0.8015 0.7976 0.7937 0.7897 0.7858
1025.000000 0.7825 0.7792 0.7758 0.7728 0.7717
1020.000000 0.7692 0.7692 0.7692 0.7692 0.7697
1015.000000 0.7721 0.7761 0.7801 0.7847 0.7892
1010.000000 0.7937 0.7983 0.8028 0.8065 0.8105
1005.000000 0.8144 0.8183 0.8221 0.8260 0.8306
1000.000000 0.8353 0.8399 0.8445 0.8491 0.8538
995.000000 0.8584 0.8628 0.8660 0.8691 0.8723
990.000000 0.8755 0.8787 0.8818 0.8846 0.8873
985.000000 0.8901 0.8928 0.8956 0.8981 0.9005
980.000000 0.9028 0.9051 0.9068 0.9086 0.9103
975.000000 0.9121 0.9133 0.9145 0.9157 0.9168
970.000000 0.9178 0.9188 0.9197 0.9207 0.9214
965.000000 0.9231 0.9220 0.9221 0.9221 0.9217
960.000000 0.9213 0.9202 0.9192 0.9175 0.9156
955.000000 0.9135 0.9115 0.9100 0.9091 0.9059
950.000000 0.9081 0.9087 0.9102 0.9118 0.9141
945.000000 0.9166 0.9191 0.9217 0.9242 0.9265
940.000000 0.9285 0.9304 0.9324 0.9344 0.9364
935.000000 0.9378 0.9391 0.9403 0.9415 0.9428
930.000000 0.9440 0.9449 0.9454 0.9459 0.9464
925.000000 0.9468 0.9474 0.9478 0.9507 0.9486
920.000000 0.9489 0.9491 0.9493 0.9495 0.9498
915.000000 0.9499 0.9495 0.9491 0.9486 0.9482
910.000000 0.9473 0.9463 0.9453 0.9441 0.9418
905.000000 0.9396 0.9374 0.9351 0.9299 0.9244
900.000000 0.9190 0.9114 0.9028 0.8948 0.8885
895.000000 0.8823 0.8761 0.8699 0.8620 0.8541
890.000000 0.8461 0.8380 0.8298 0.8197 0.8126
885.000000 0.8076 0.8039 0.8001 0.7974 0.7946
880.000000 0.7928 0.7915 0.7901 0.7891 0.7882
875.000000 0.7881 0.7874 0.7875 0.7884 0.7904
870.000000 0.7935 0.7965 0.8018 0.8074 0.8126
865.000000 0.8178 0.8238 0.8307 0.8366 0.8386
860.000000 0.8391 0.8391 0.8391 0.8394 0.8397
855.000000 0.8403 0.8428 0.8460 0.8494 0.8530
850.000000 0.8566 0.8602 0.8638 0.8680 0.8725
845.000000 0.8768 0.8813 0.8857 0.8901 0.8944
840.000000 0.8982 0.9018 0.9056 0.9089 0.9109
835.000000 0.9128 0.9149 0.9167 0.9183 0.9199
830.000000 0.9215 0.9230 0.9244 0.9258 0.9268
825.000000 0.9278 0.9283 0.9286 0.9310 0.9292
820.000000 0.9292 0.9292 0.9292 0.9291 0.9290
815.000000 0.9289 0.9277 0.9251 0.9220 0.9191
810.000000 0.9165 0.9139 0.9118 0.9105 0.9094
805.000000 0.9088 0.9081 0.9074 0.9060 0.9047
800.000000 0.9033 0.8991 0.9007 0.8997 0.8987
795.000000 0.8984 0.8992 0.9013 0.9034 0.9087
790.000000 0.9121 0.9145 0.9168 0.9188 0.9202
785.000000 0.9216 0.9230 0.9241 0.9247 0.9252
780.000000 0.9258 0.9263 0.9268 0.9274 0.9280
775.000000 0.9286 0.9291 0.9297 0.9303 0.9309
770.000000 0.9315 0.9321 0.9327 0.9333 0.9339
765.000000 0.9345 0.9350 0.9354 0.9358 0.9362
760.000000 0.9367 0.9371 0.9375 0.9378 0.9378
755.000000 0.9381 0.9383 0.9403 0.9386 0.9387
750.000000 0.9387 0.9387 0.9386 0.9385 0.9384
745.000000 0.9383 0.9378 0.9371 0.9362 0.9353
740.000000 0.9344 0.9333 0.9321 0.9312 0.9301
735.000000 0.9290 0.9275 0.9261 0.9246 0.9232
730.000000 0.9218 0.9207 0.9194 0.9182 0.9171
725.000000 0.9161 0.9140 0.9139 0.9139 0.9136
720.000000 0.9147 0.9163 0.9178 0.9194 0.9202
715.000000 0.9210 0.9218 0.9225 0.9234 0.9242
710.000000 0.9249 0.9257 0.9264 0.9268 0.9270
705.000000 0.9271 0.9271 0.9268 0.9263 0.9258
700.000000 0.9252 0.9246 0.9242 0.9237 0.9233
695.000000 0.9228 0.9225 0.9224 0.9223 0.9221
690.000000 0.9220 0.9218 0.9218 0.9217 0.9218
685.000000 0.9220 0.9221 0.9223 0.9225 0.9225
680.000000 0.9228 0.9230 0.9231 0.9232 0.9232
675.000000 0.9233 0.9234 0.9234 0.9235 0.9236
670.000000 0.9236 0.9237 0.9237 0.9238 0.9239
665.000000 0.9239 0.9241 0.9243 0.9245 0.9246
660.000000 0.9248 0.9250 0.9254 0.9259 0.9264
655.000000 0.9270 0.9275 0.9280 0.9286 0.9291
650.000000 0.9296 0.9302 0.9307 0.9312 0.9317
645.000000 0.9321 0.9325 0.9330 0.9334 0.9335
640.000000 0.9336 0.9338 0.9339 0.9340 0.9341
635.000000 0.9343 0.9343 0.9344 0.9337 0.9331
630.000000 0.9321 0.9309 0.9292 0.9275 0.9249
625.000000 0.9221 0.9162 0.9002 0.8641 0.8280
620.000000 0.7919 0.7558 0.7354 0.7301 0.7264
615.000000 0.7232 0.7217 0.7201 0.7200 0.7207
610.000000 0.7249 0.7375 0.7507 0.7550 0.7578
605.000000 0.7607 0.7640 0.7674 0.7731 0.7793
600.000000 0.7904 0.8015 0.8125 0.8227 0.8227
595.000000 0.8061 0.7846 0.7631 0.7415 0.7201
590.000000 0.6986 0.6865 0.6775 0.6678 0.6489
585.000000 0.6307 0.6125 0.5943 0.5844 0.5829
580.000000 0.5822 0.5825 0.5847 0.5896 0.6065
575.000000 0.6241 0.6417 0.6593 0.6768 0.6945
570.000000 0.7121 0.7297 0.7469 0.7481 0.7485
565.000000 0.7487 0.7456 0.7357 0.7258 0.7158
560.000000 0.7108 0.7108 0.7125 0.7162 0.7291
555.000000 0.7501 0.7706 0.7911 0.8115 0.8320
550.000000 0.8525 0.8657 0.8716 0.8775 0.8828
545.000000 0.8866 0.8904 0.8941 0.8978 0.9005
540.000000 0.9028 0.9052 0.9075 0.9098 0.9114
535.000000 0.9130 0.9145 0.9161 0.9171 0.9180
530.000000 0.9189 0.9198 0.9206 0.9211 0.9216
525.000000 0.9221 0.9225 0.9231 0.9235 0.9240
520.000000 0.9244 0.9260 0.9253 0.9257 0.9261
515.000000 0.9264 0.9268 0.9268 0.9268 0.9268
510.000000 0.9268 0.9233 0.9178 0.9125 0.9071
505.000000 0.9018 0.8963 0.8909 0.8858 0.8807
500.000000 0.8761 0.8730 0.8700 0.8686 0.8673
495.000000 0.8662 0.8656 0.8651 0.8645 0.8661
490.000000 0.8635 0.8633 0.8630 0.8628 0.8632
485.000000 0.8635 0.8650 0.8668 0.8685 0.8702
480.000000 0.8721 0.8742 0.8763 0.8781 0.8797
475.000000 0.8806 0.8815 0.8815 0.8815 0.8812
470.000000 0.8810 0.8810 0.8810 0.8810 0.8810
465.000000 0.8810 0.8810 0.8810 0.8810 0.8810
460.000000 0.8810 0.8804 0.8800 0.8791 0.8784
455.000000 0.8778 0.8767 0.8757 0.8747 0.8724
450.000000 0.8698 0.8660 0.8620 0.8589 0.8560
445.000000 0.8532 0.8504 0.8484 0.8471 0.8458
440.000000 0.8445 0.8434 0.8427 0.8420 0.8408
435.000000 0.8397 0.8386 0.8375 0.8365 0.8355
430.000000 0.8354 0.8352 0.8350 0.8349 0.8349
425.000000 0.8350 0.8351 0.8352 0.8352 0.8350
420.000000 0.8347 0.8344 0.8339 0.8334 0.8324
415.000000 0.8314 0.8303 0.8293 0.8283 0.8275
410.000000 0.8266 0.8258 0.8251 0.8246 0.8241
405.000000 0.8236 0.8234 0.8233 0.8232 0.8230
400.000000 0.8228 0.8228 0.8227 0.8225 0.8225
395.000000 0.8225 0.8225 0.8225 0.8225 0.8225
##END=
