##TITLE=LEVULINIC ACID, BUTYL ESTER
##JCAMP-DX=4.24
##DATA TYPE=INFRARED SPECTRUM
##CLASS=COBLENTZ III
##ORIGIN=DOW CHEMICAL COMPANY
##OWNER=COBLENTZ SOC.
Collection (C) 2018 copyright by the U.S. Secretary of Commerce
on behalf of the United States of America. All rights reserved.
##DATE=1965/07/15
##MOLFORM=C9 H19 O3
##SOURCE REFERENCE=COBLENTZ NO. 07016
##$NIST ID=B6007016
##$NIST SOURCE=COBLENTZ
##$NIST IMAGE=cob7016
##SPECTROMETER/DATA SYSTEM=BECKMAN IR-9 (GRATING)
##INSTRUMENT PARAMETERS=ORDER CHANGES: 670, 1200, 2000 CM^-^1
##STATE=SOLUTION (10% CCl4 FOR 3800-1330, 10% CS2 FOR 1330-400 CM^-^1)
##PATH LENGTH=0.012 CM, 0.011 CM
$$SPECTRAL CONTAMINATION DUE TO CS2 AROUND 855, CCl4 AROUND 1555, AND AN UNKNOWN AROUND 400 CM^-^1
##SAMPLING PROCEDURE=TRANSMISSION
##RESOLUTION=2
##DATA PROCESSING=DIGITIZED BY COBLENTZ SOCIETY (BATCH I) FROM HARD COPY
##XUNITS=1/CM
##YUNITS=TRANSMITTANCE
##XLABEL=Wavenumbers (cm-1)
##YLABEL=% Transmission
##XFACTOR=1
##YFACTOR=1
##DELTAX=1
##FIRSTX=404
##LASTX=3800
##FIRSTY=0.0473
##MAXX=3800
##MINX=404
##MAXY=0.897
##MINY=0.0009
##NPOINTS=3397
##XYDATA=(X++(Y..Y))
404.000000 0.0473 0.0479 0.0490 0.0516 0.0542
409.000000 0.0568 0.0594 0.0620 0.0696 0.0773
414.000000 0.1041 0.2881 0.3124 0.3366 0.3608
419.000000 0.3850 0.4092 0.4194 0.4325 0.4455
424.000000 0.4548 0.4644 0.4741 0.4823 0.4896
429.000000 0.4966 0.5035 0.5098 0.5138 0.5178
434.000000 0.5218 0.5251 0.5278 0.5305 0.5344
439.000000 0.5405 0.5480 0.5593 0.5710 0.5828
444.000000 0.5925 0.6020 0.6102 0.6181 0.6245
449.000000 0.6289 0.6333 0.6370 0.6387 0.6405
454.000000 0.6421 0.6438 0.6453 0.6468 0.6485
459.000000 0.6500 0.6515 0.6531 0.6546 0.6561
464.000000 0.6575 0.6590 0.6608 0.6638 0.6668
469.000000 0.6697 0.6725 0.6756 0.6785 0.6815
474.000000 0.6845 0.6875 0.6905 0.6935 0.6965
479.000000 0.6997 0.7026 0.7058 0.7089 0.7124
484.000000 0.7161 0.7199 0.7208 0.7218 0.7228
489.000000 0.7235 0.7236 0.7315 0.7238 0.7236
494.000000 0.7234 0.7232 0.7224 0.7200 0.7174
499.000000 0.7146 0.7112 0.7075 0.7039 0.7001
504.000000 0.6951 0.6893 0.6834 0.6771 0.6707
509.000000 0.6619 0.6626 0.6654 0.6698 0.6749
514.000000 0.6798 0.6847 0.6893 0.6939 0.6986
519.000000 0.7032 0.7078 0.7128 0.7182 0.7236
524.000000 0.7289 0.7333 0.7375 0.7417 0.7454
529.000000 0.7491 0.7526 0.7562 0.7583 0.7603
534.000000 0.7621 0.7628 0.7633 0.7637 0.7641
539.000000 0.7642 0.7641 0.7640 0.7638 0.7630
544.000000 0.7618 0.7607 0.7596 0.7580 0.7562
549.000000 0.7545 0.7526 0.7505 0.7480 0.7456
554.000000 0.7431 0.7406 0.7380 0.7354 0.7328
559.000000 0.7301 0.7275 0.7250 0.7221 0.7193
564.000000 0.7164 0.7136 0.7107 0.7069 0.7026
569.000000 0.6984 0.6955 0.6938 0.6919 0.7026
574.000000 0.7104 0.7148 0.7191 0.7233 0.7275
579.000000 0.7318 0.7361 0.7404 0.7446 0.7489
584.000000 0.7532 0.7574 0.7617 0.7658 0.7701
589.000000 0.7744 0.7787 0.7830 0.7853 0.7874
594.000000 0.7896 0.7917 0.7946 0.7975 0.8000
599.000000 0.8012 0.8025 0.8039 0.8043 0.8042
604.000000 0.8041 0.8039 0.8038 0.8036 0.8032
609.000000 0.8026 0.8021 0.8017 0.8012 0.8008
614.000000 0.8006 0.8003 0.7999 0.7996 0.8005
619.000000 0.8015 0.8025 0.8037 0.8049 0.8064
624.000000 0.8078 0.8094 0.8110 0.8131 0.8151
629.000000 0.8172 0.8196 0.8218 0.8210 0.8210
634.000000 0.8211 0.8204 0.8191 0.8178 0.8165
639.000000 0.8145 0.8124 0.8103 0.8083 0.8061
644.000000 0.8037 0.8005 0.7972 0.7942 0.7910
649.000000 0.7874 0.7835 0.7795 0.7756 0.7719
654.000000 0.7689 0.7657 0.7625 0.7603 0.7653
659.000000 0.7738 0.7837 0.7893 0.7944 0.7991
664.000000 0.8031 0.8074 0.8119 0.8158 0.8197
669.000000 0.8233 0.8256 0.8281 0.8308 0.8335
674.000000 0.8384 0.8421 0.8451 0.8477 0.8493
679.000000 0.8509 0.8524 0.8539 0.8552 0.8564
684.000000 0.8578 0.8595 0.8611 0.8625 0.8642
689.000000 0.8658 0.8673 0.8686 0.8699 0.8712
694.000000 0.8725 0.8738 0.8749 0.8760 0.8771
699.000000 0.8783 0.8795 0.8807 0.8818 0.8823
704.000000 0.8824 0.8824 0.8825 0.8825 0.8825
709.000000 0.8821 0.8816 0.8811 0.8837 0.8800
714.000000 0.8793 0.8782 0.8770 0.8752 0.8734
719.000000 0.8714 0.8688 0.8663 0.8625 0.8583
724.000000 0.8540 0.8497 0.8418 0.8338 0.8210
729.000000 0.8083 0.8012 0.7943 0.7872 0.7793
734.000000 0.7694 0.7531 0.7411 0.7408 0.7398
739.000000 0.7501 0.7615 0.7678 0.7718 0.7748
744.000000 0.7754 0.7774 0.7749 0.7733 0.7695
749.000000 0.7640 0.7598 0.7554 0.7507 0.7462
754.000000 0.7425 0.7394 0.7325 0.7181 0.7036
759.000000 0.6891 0.6745 0.6600 0.6558 0.6558
764.000000 0.6508 0.6821 0.6985 0.7148 0.7311
769.000000 0.7475 0.7639 0.7801 0.7965 0.8101
774.000000 0.8137 0.8162 0.8189 0.8207 0.8225
779.000000 0.8238 0.8245 0.8252 0.8220 0.8260
784.000000 0.8258 0.8254 0.8246 0.8239 0.8231
789.000000 0.8221 0.8213 0.8198 0.8178 0.8161
794.000000 0.8142 0.8124 0.8106 0.8087 0.8068
799.000000 0.8051 0.8021 0.7987 0.7958 0.7938
804.000000 0.7915 0.7901 0.7892 0.7883 0.7874
809.000000 0.7868 0.7862 0.7857 0.7850 0.7844
814.000000 0.7837 0.7830 0.7815 0.7800 0.7782
819.000000 0.7751 0.7721 0.7690 0.7658 0.7618
824.000000 0.7578 0.7551 0.7528 0.7506 0.7500
829.000000 0.7496 0.7504 0.7511 0.7518 0.7524
834.000000 0.7522 0.7521 0.7498 0.7471 0.7444
839.000000 0.7417 0.7390 0.7361 0.7333 0.7304
844.000000 0.7275 0.7225 0.7172 0.7122 0.7074
849.000000 0.7025 0.6972 0.6917 0.6861 0.6806
854.000000 0.6760 0.6761 0.6764 0.6776 0.6793
859.000000 0.6810 0.6837 0.6868 0.6907 0.6960
864.000000 0.7007 0.7046 0.7086 0.7125 0.7165
869.000000 0.7204 0.7243 0.7274 0.7301 0.7326
874.000000 0.7354 0.7381 0.7408 0.7438 0.7468
879.000000 0.7498 0.7525 0.7544 0.7562 0.7582
884.000000 0.7600 0.7621 0.7642 0.7656 0.7651
889.000000 0.7632 0.7612 0.7593 0.7565 0.7536
894.000000 0.7536 0.7536 0.7557 0.7582 0.7605
899.000000 0.7621 0.7639 0.7646 0.7651 0.7650
904.000000 0.7650 0.7645 0.7634 0.7624 0.7611
909.000000 0.7589 0.7567 0.7544 0.7500 0.7456
914.000000 0.7411 0.7365 0.7319 0.7271 0.7214
919.000000 0.7155 0.7097 0.7030 0.6954 0.6878
924.000000 0.6826 0.6811 0.6797 0.6782 0.6719
929.000000 0.6628 0.6521 0.6428 0.6345 0.6260
934.000000 0.6154 0.6047 0.5952 0.5865 0.5779
939.000000 0.5698 0.5616 0.5536 0.5457 0.5382
944.000000 0.5319 0.5319 0.5320 0.5253 0.5369
949.000000 0.5531 0.5646 0.5748 0.5841 0.5918
954.000000 0.5966 0.5980 0.5990 0.5998 0.6001
959.000000 0.6015 0.5957 0.5906 0.5862 0.5799
964.000000 0.5736 0.5740 0.5706 0.5753 0.5771
969.000000 0.5904 0.6205 0.6506 0.6726 0.6794
974.000000 0.6844 0.6868 0.6875 0.6871 0.6903
979.000000 0.6862 0.6839 0.6794 0.6737 0.6641
984.000000 0.6492 0.6255 0.6171 0.6167 0.6162
989.000000 0.6160 0.6119 0.6168 0.6191 0.6225
994.000000 0.6264 0.6310 0.6391 0.6446 0.6499
999.000000 0.6533 0.6533 0.6534 0.6531 0.6528
1004.000000 0.6521 0.6512 0.6508 0.6500 0.6489
1009.000000 0.6478 0.6467 0.6455 0.6442 0.6430
1014.000000 0.6395 0.6335 0.6268 0.6194 0.6034
1019.000000 0.5865 0.5695 0.5525 0.5355 0.5186
1024.000000 0.5016 0.4846 0.4676 0.4526 0.4496
1029.000000 0.4483 0.4459 0.4499 0.4722 0.4979
1034.000000 0.5236 0.5494 0.5751 0.6008 0.6265
1039.000000 0.6521 0.6728 0.6799 0.6851 0.6871
1044.000000 0.6878 0.6904 0.6884 0.6883 0.6790
1049.000000 0.6647 0.6505 0.6362 0.6220 0.6078
1054.000000 0.5935 0.5793 0.5651 0.5536 0.5426
1059.000000 0.5307 0.5178 0.5076 0.5000 0.4923
1064.000000 0.4842 0.4751 0.4660 0.4572 0.4484
1069.000000 0.4402 0.4322 0.4244 0.4232 0.4238
1074.000000 0.4250 0.4273 0.4398 0.4647 0.4895
1079.000000 0.5143 0.5392 0.5640 0.5950 0.6101
1084.000000 0.6215 0.6323 0.6419 0.6518 0.6615
1089.000000 0.6712 0.6804 0.6891 0.6978 0.7055
1094.000000 0.7128 0.7204 0.7250 0.7296 0.7314
1099.000000 0.7326 0.7340 0.7351 0.7333 0.7337
1104.000000 0.7321 0.7305 0.7278 0.7247 0.7165
1109.000000 0.7043 0.6921 0.6800 0.6678 0.6556
1114.000000 0.6435 0.6312 0.6191 0.6070 0.5948
1119.000000 0.5826 0.5755 0.5733 0.5712 0.5696
1124.000000 0.5681 0.5671 0.5660 0.5624 0.5516
1129.000000 0.5420 0.5181 0.5024 0.4886 0.4753
1134.000000 0.4602 0.4456 0.4334 0.4237 0.4148
1139.000000 0.3923 0.3621 0.3318 0.3015 0.2713
1144.000000 0.2410 0.2108 0.1804 0.1623 0.1424
1149.000000 0.1236 0.1033 0.0831 0.0660 0.0471
1154.000000 0.0343 0.0240 0.0143 0.0087 0.0049
1159.000000 0.0039 0.0033 0.0036 0.0058 0.0075
1164.000000 0.0104 0.0149 0.0251 0.0425 0.0623
1169.000000 0.0821 0.1018 0.1270 0.1292 0.1292
1174.000000 0.1292 0.1250 0.1159 0.1067 0.0976
1179.000000 0.0884 0.0793 0.0701 0.0610 0.0518
1184.000000 0.0486 0.0457 0.0497 0.0526 0.0554
1189.000000 0.0587 0.0633 0.0682 0.0768 0.0853
1194.000000 0.0895 0.0910 0.0910 0.0910 0.0902
1199.000000 0.0880 0.0852 0.0813 0.0765 0.0716
1204.000000 0.0669 0.0622 0.0590 0.0562 0.0551
1209.000000 0.0547 0.0523 0.0556 0.0565 0.0577
1214.000000 0.0595 0.0660 0.0731 0.0807 0.0989
1219.000000 0.1188 0.1452 0.1711 0.1812 0.1876
1224.000000 0.1909 0.1921 0.1996 0.1941 0.1937
1229.000000 0.1934 0.1932 0.1922 0.1908 0.1894
1234.000000 0.1881 0.1868 0.1854 0.1842 0.1820
1239.000000 0.1854 0.1866 0.1929 0.1983 0.2036
1244.000000 0.2091 0.2145 0.2199 0.2253 0.2307
1249.000000 0.2361 0.2415 0.2469 0.2521 0.2569
1254.000000 0.2611 0.2637 0.2662 0.2680 0.2698
1259.000000 0.2715 0.2731 0.2746 0.2765 0.2784
1264.000000 0.2804 0.2835 0.2884 0.2933 0.2989
1269.000000 0.3074 0.3167 0.3232 0.3296 0.3358
1274.000000 0.3418 0.3479 0.3550 0.3622 0.3699
1279.000000 0.3779 0.3868 0.3968 0.4128 0.4297
1284.000000 0.4450 0.4553 0.4618 0.4653 0.4685
1289.000000 0.4699 0.4778 0.4718 0.4717 0.4716
1294.000000 0.4706 0.4694 0.4655 0.4580 0.4527
1299.000000 0.4451 0.4372 0.4298 0.4225 0.4127
1304.000000 0.3984 0.3866 0.3754 0.3639 0.3516
1309.000000 0.3398 0.3298 0.3204 0.3184 0.3184
1314.000000 0.3184 0.3194 0.3212 0.3360 0.3546
1319.000000 0.3730 0.3914 0.4099 0.4305 0.4400
1324.000000 0.4456 0.4503 0.4540 0.4574 0.4603
1329.000000 0.4612 0.4623 0.4631 0.4650 0.4621
1334.000000 0.4612 0.4595 0.4564 0.4529 0.4489
1339.000000 0.4436 0.4340 0.4193 0.3955 0.3732
1344.000000 0.3509 0.3288 0.3065 0.2843 0.2621
1349.000000 0.2398 0.2176 0.1953 0.1731 0.1413
1354.000000 0.0856 0.0650 0.0559 0.0495 0.0442
1359.000000 0.0419 0.0421 0.0423 0.0390 0.0465
1364.000000 0.0497 0.0537 0.0583 0.0644 0.0816
1369.000000 0.1002 0.1189 0.1376 0.1563 0.1749
1374.000000 0.1935 0.2123 0.2310 0.2496 0.2713
1379.000000 0.2893 0.3061 0.3090 0.3097 0.3106
1384.000000 0.3139 0.3232 0.3325 0.3403 0.3403
1389.000000 0.3403 0.3106 0.2728 0.2468 0.2456
1394.000000 0.2465 0.2523 0.2582 0.2640 0.2699
1399.000000 0.2757 0.2805 0.2835 0.2790 0.2668
1404.000000 0.2518 0.2384 0.2361 0.2342 0.2324
1409.000000 0.2306 0.2288 0.2252 0.2202 0.2101
1414.000000 0.2048 0.2037 0.2044 0.2052 0.2059
1419.000000 0.2066 0.2077 0.2097 0.2115 0.2131
1424.000000 0.2162 0.2212 0.2475 0.2738 0.3000
1429.000000 0.3262 0.3525 0.3788 0.3848 0.3880
1434.000000 0.3894 0.3908 0.3922 0.3949 0.3994
1439.000000 0.4089 0.4742 0.4921 0.5000 0.5037
1444.000000 0.5055 0.5074 0.5087 0.5087 0.5098
1449.000000 0.4897 0.4764 0.4631 0.4498 0.4365
1454.000000 0.4231 0.4098 0.3964 0.3832 0.3699
1459.000000 0.3623 0.3625 0.3634 0.3648 0.3662
1464.000000 0.3632 0.3554 0.3476 0.3397 0.3318
1469.000000 0.3316 0.3378 0.3595 0.3812 0.4030
1474.000000 0.4247 0.4464 0.4681 0.4899 0.5116
1479.000000 0.5333 0.5551 0.5768 0.5985 0.6214
1484.000000 0.6428 0.6587 0.6734 0.6801 0.6868
1489.000000 0.6937 0.7005 0.7034 0.7049 0.7014
1494.000000 0.7044 0.7040 0.7034 0.7026 0.7017
1499.000000 0.7003 0.6982 0.6950 0.6904 0.6862
1504.000000 0.6821 0.6781 0.6741 0.6704 0.6668
1509.000000 0.6633 0.6597 0.6551 0.6497 0.6442
1514.000000 0.6384 0.6326 0.6267 0.6221 0.6178
1519.000000 0.6136 0.6094 0.6051 0.6009 0.5965
1524.000000 0.5920 0.5876 0.5832 0.5788 0.5744
1529.000000 0.5688 0.5624 0.5559 0.5495 0.5435
1534.000000 0.5375 0.5315 0.5253 0.5183 0.5112
1539.000000 0.5043 0.4974 0.4910 0.4847 0.4784
1544.000000 0.4721 0.4653 0.4585 0.4517 0.4460
1549.000000 0.4403 0.4352 0.4332 0.4327 0.4327
1554.000000 0.4327 0.4334 0.4342 0.4350 0.4364
1559.000000 0.4379 0.4410 0.4462 0.4517 0.4582
1564.000000 0.4698 0.4794 0.4891 0.4991 0.5076
1569.000000 0.5155 0.5222 0.5289 0.5337 0.5381
1574.000000 0.5424 0.5469 0.5523 0.5578 0.5639
1579.000000 0.5701 0.5755 0.5803 0.5829 0.5855
1584.000000 0.5881 0.5906 0.5924 0.5942 0.5960
1589.000000 0.5980 0.6010 0.6040 0.6070 0.6112
1594.000000 0.6167 0.6220 0.6329 0.6537 0.6715
1599.000000 0.6861 0.6940 0.7000 0.7060 0.7150
1604.000000 0.7254 0.7308 0.7362 0.7418 0.7471
1609.000000 0.7515 0.7561 0.7606 0.7648 0.7675
1614.000000 0.7704 0.7731 0.7758 0.7780 0.7798
1619.000000 0.7815 0.7833 0.7851 0.7867 0.7881
1624.000000 0.7896 0.7911 0.7925 0.7933 0.7939
1629.000000 0.7946 0.7953 0.7960 0.7965 0.7972
1634.000000 0.7971 0.7945 0.7968 0.7967 0.7958
1639.000000 0.7951 0.7943 0.7937 0.7931 0.7925
1644.000000 0.7918 0.7907 0.7895 0.7884 0.7872
1649.000000 0.7861 0.7850 0.7838 0.7822 0.7807
1654.000000 0.7790 0.7772 0.7747 0.7715 0.7686
1659.000000 0.7655 0.7628 0.7603 0.7576 0.7551
1664.000000 0.7525 0.7501 0.7468 0.7434 0.7398
1669.000000 0.7362 0.7326 0.7275 0.7221 0.7167
1674.000000 0.7112 0.7055 0.6968 0.6882 0.6792
1679.000000 0.6687 0.6583 0.6464 0.6303 0.6145
1684.000000 0.6031 0.5917 0.5816 0.5734 0.5652
1689.000000 0.5562 0.5451 0.5340 0.5227 0.5114
1694.000000 0.4988 0.4785 0.4604 0.4443 0.4303
1699.000000 0.4201 0.4099 0.3997 0.3888 0.3777
1704.000000 0.3664 0.3434 0.3196 0.2957 0.2719
1709.000000 0.2481 0.2243 0.2004 0.1766 0.1513
1714.000000 0.1328 0.1141 0.0950 0.0356 0.0183
1719.000000 0.0083 0.0052 0.0034 0.0029 0.0028
1724.000000 0.0027 0.0027 0.0027 0.0026 0.0022
1729.000000 0.0021 0.0021 0.0021 0.0021 0.0022
1734.000000 0.0023 0.0023 0.0023 0.0022 0.0021
1739.000000 0.0021 0.0020 0.0020 0.0018 0.0017
1744.000000 0.0016 0.0015 0.0013 0.0012 0.0011
1749.000000 0.0010 0.0009 0.0262 0.0636 0.1010
1754.000000 0.1384 0.1758 0.2132 0.2506 0.2879
1759.000000 0.3253 0.3626 0.3846 0.4027 0.4414
1764.000000 0.4610 0.4784 0.4876 0.4967 0.5059
1769.000000 0.5155 0.5262 0.5370 0.5492 0.5634
1774.000000 0.5765 0.5875 0.5985 0.6062 0.6140
1779.000000 0.6218 0.6319 0.6425 0.6517 0.6598
1784.000000 0.6678 0.6751 0.6821 0.6891 0.6958
1789.000000 0.7021 0.7085 0.7148 0.7207 0.7261
1794.000000 0.7317 0.7371 0.7418 0.7458 0.7498
1799.000000 0.7537 0.7576 0.7607 0.7631 0.7655
1804.000000 0.7678 0.7703 0.7726 0.7751 0.7774
1809.000000 0.7797 0.7818 0.7842 0.7864 0.7886
1814.000000 0.7908 0.7930 0.7951 0.7974 0.7996
1819.000000 0.8017 0.8039 0.8060 0.8082 0.8103
1824.000000 0.8125 0.8146 0.8167 0.8188 0.8207
1829.000000 0.8224 0.8242 0.8260 0.8278 0.8296
1834.000000 0.8311 0.8327 0.8343 0.8358 0.8374
1839.000000 0.8389 0.8405 0.8420 0.8436 0.8452
1844.000000 0.8468 0.8478 0.8489 0.8498 0.8508
1849.000000 0.8517 0.8525 0.8533 0.8538 0.8543
1854.000000 0.8548 0.8553 0.8558 0.8564 0.8570
1859.000000 0.8575 0.8582 0.8588 0.8594 0.8600
1864.000000 0.8606 0.8612 0.8616 0.8621 0.8625
1869.000000 0.8628 0.8634 0.8638 0.8643 0.8647
1874.000000 0.8651 0.8656 0.8660 0.8664 0.8668
1879.000000 0.8671 0.8675 0.8677 0.8680 0.8683
1884.000000 0.8686 0.8689 0.8692 0.8695 0.8698
1889.000000 0.8701 0.8704 0.8707 0.8710 0.8711
1894.000000 0.8713 0.8715 0.8716 0.8718 0.8720
1899.000000 0.8721 0.8723 0.8725 0.8727 0.8728
1904.000000 0.8731 0.8734 0.8736 0.8738 0.8740
1909.000000 0.8743 0.8745 0.8747 0.8749 0.8751
1914.000000 0.8753 0.8755 0.8757 0.8759 0.8761
1919.000000 0.8763 0.8765 0.8767 0.8768 0.8771
1924.000000 0.8773 0.8775 0.8777 0.8778 0.8780
1929.000000 0.8782 0.8784 0.8785 0.8787 0.8788
1934.000000 0.8790 0.8792 0.8793 0.8796 0.8799
1939.000000 0.8802 0.8805 0.8808 0.8811 0.8811
1944.000000 0.8811 0.8810 0.8809 0.8808 0.8807
1949.000000 0.8806 0.8806 0.8803 0.8798 0.8793
1954.000000 0.8788 0.8786 0.8785 0.8783 0.8782
1959.000000 0.8781 0.8778 0.8778 0.8775 0.8775
1964.000000 0.8773 0.8771 0.8770 0.8767 0.8765
1969.000000 0.8764 0.8762 0.8760 0.8759 0.8757
1974.000000 0.8755 0.8754 0.8754 0.8754 0.8753
1979.000000 0.8753 0.8753 0.8752 0.8752 0.8751
1984.000000 0.8750 0.8746 0.8743 0.8739 0.8735
1989.000000 0.8731 0.8727 0.8723 0.8720 0.8716
1994.000000 0.8712 0.8708 0.8704 0.8700 0.8696
1999.000000 0.8692 0.8688 0.8681 0.8674 0.8673
2004.000000 0.8673 0.8671 0.8671 0.8671 0.8671
2009.000000 0.8670 0.8670 0.8668 0.8668 0.8668
2014.000000 0.8668 0.8668 0.8668 0.8670 0.8671
2019.000000 0.8673 0.8674 0.8674 0.8674 0.8675
2024.000000 0.8675 0.8677 0.8678 0.8680 0.8682
2029.000000 0.8683 0.8685 0.8686 0.8688 0.8690
2034.000000 0.8692 0.8694 0.8696 0.8698 0.8701
2039.000000 0.8703 0.8705 0.8707 0.8710 0.8712
2044.000000 0.8714 0.8716 0.8718 0.8721 0.8723
2049.000000 0.8724 0.8725 0.8725 0.8727 0.8727
2054.000000 0.8727 0.8727 0.8727 0.8727 0.8728
2059.000000 0.8728 0.8728 0.8728 0.8728 0.8728
2064.000000 0.8728 0.8728 0.8730 0.8730 0.8730
2069.000000 0.8730 0.8730 0.8728 0.8728 0.8728
2074.000000 0.8728 0.8728 0.8728 0.8727 0.8727
2079.000000 0.8725 0.8725 0.8725 0.8725 0.8725
2084.000000 0.8725 0.8724 0.8724 0.8723 0.8723
2089.000000 0.8723 0.8723 0.8721 0.8721 0.8721
2094.000000 0.8721 0.8721 0.8721 0.8721 0.8721
2099.000000 0.8721 0.8721 0.8721 0.8721 0.8720
2104.000000 0.8720 0.8720 0.8720 0.8720 0.8720
2109.000000 0.8718 0.8718 0.8718 0.8718 0.8718
2114.000000 0.8718 0.8717 0.8717 0.8716 0.8716
2119.000000 0.8716 0.8716 0.8715 0.8715 0.8714
2124.000000 0.8714 0.8714 0.8714 0.8713 0.8713
2129.000000 0.8712 0.8712 0.8711 0.8711 0.8711
2134.000000 0.8711 0.8710 0.8710 0.8709 0.8709
2139.000000 0.8709 0.8710 0.8711 0.8713 0.8715
2144.000000 0.8717 0.8718 0.8720 0.8721 0.8724
2149.000000 0.8725 0.8728 0.8728 0.8731 0.8733
2154.000000 0.8735 0.8736 0.8738 0.8740 0.8742
2159.000000 0.8744 0.8746 0.8747 0.8749 0.8751
2164.000000 0.8753 0.8754 0.8756 0.8758 0.8760
2169.000000 0.8761 0.8763 0.8764 0.8766 0.8767
2174.000000 0.8768 0.8770 0.8771 0.8774 0.8775
2179.000000 0.8777 0.8778 0.8780 0.8782 0.8783
2184.000000 0.8785 0.8787 0.8789 0.8790 0.8792
2189.000000 0.8793 0.8795 0.8796 0.8798 0.8799
2194.000000 0.8801 0.8803 0.8805 0.8806 0.8807
2199.000000 0.8808 0.8809 0.8810 0.8811 0.8812
2204.000000 0.8813 0.8814 0.8815 0.8816 0.8817
2209.000000 0.8818 0.8818 0.8820 0.8821 0.8821
2214.000000 0.8823 0.8824 0.8825 0.8825 0.8827
2219.000000 0.8827 0.8827 0.8827 0.8827 0.8827
2224.000000 0.8827 0.8825 0.8825 0.8825 0.8825
2229.000000 0.8825 0.8825 0.8825 0.8825 0.8825
2234.000000 0.8825 0.8825 0.8825 0.8824 0.8824
2239.000000 0.8821 0.8821 0.8817 0.8813 0.8809
2244.000000 0.8806 0.8802 0.8798 0.8794 0.8791
2249.000000 0.8787 0.8783 0.8778 0.8775 0.8771
2254.000000 0.8767 0.8763 0.8759 0.8755 0.8751
2259.000000 0.8746 0.8742 0.8738 0.8734 0.8728
2264.000000 0.8725 0.8721 0.8717 0.8713 0.8709
2269.000000 0.8705 0.8701 0.8696 0.8692 0.8688
2274.000000 0.8684 0.8680 0.8675 0.8671 0.8668
2279.000000 0.8664 0.8660 0.8656 0.8652 0.8648
2284.000000 0.8645 0.8642 0.8640 0.8637 0.8634
2289.000000 0.8631 0.8628 0.8625 0.8623 0.8620
2294.000000 0.8618 0.8615 0.8613 0.8610 0.8607
2299.000000 0.8604 0.8602 0.8599 0.8599 0.8599
2304.000000 0.8600 0.8601 0.8602 0.8603 0.8605
2309.000000 0.8606 0.8608 0.8609 0.8611 0.8612
2314.000000 0.8614 0.8615 0.8617 0.8618 0.8620
2319.000000 0.8621 0.8623 0.8624 0.8625 0.8625
2324.000000 0.8628 0.8628 0.8628 0.8628 0.8625
2329.000000 0.8625 0.8625 0.8624 0.8624 0.8623
2334.000000 0.8621 0.8620 0.8618 0.8618 0.8617
2339.000000 0.8616 0.8615 0.8614 0.8613 0.8612
2344.000000 0.8611 0.8610 0.8609 0.8607 0.8606
2349.000000 0.8605 0.8604 0.8602 0.8600 0.8598
2354.000000 0.8597 0.8595 0.8593 0.8591 0.8589
2359.000000 0.8587 0.8585 0.8584 0.8585 0.8585
2364.000000 0.8588 0.8590 0.8592 0.8593 0.8595
2369.000000 0.8595 0.8596 0.8597 0.8599 0.8600
2374.000000 0.8602 0.8604 0.8606 0.8612 0.8618
2379.000000 0.8625 0.8632 0.8638 0.8645 0.8653
2384.000000 0.8662 0.8670 0.8678 0.8687 0.8696
2389.000000 0.8702 0.8709 0.8713 0.8717 0.8721
2394.000000 0.8725 0.8728 0.8733 0.8735 0.8738
2399.000000 0.8740 0.8742 0.8744 0.8746 0.8748
2404.000000 0.8751 0.8753 0.8755 0.8757 0.8760
2409.000000 0.8761 0.8763 0.8764 0.8766 0.8767
2414.000000 0.8768 0.8770 0.8771 0.8773 0.8775
2419.000000 0.8775 0.8775 0.8775 0.8777 0.8777
2424.000000 0.8778 0.8778 0.8778 0.8780 0.8781
2429.000000 0.8781 0.8782 0.8782 0.8783 0.8783
2434.000000 0.8784 0.8784 0.8785 0.8785 0.8786
2439.000000 0.8786 0.8787 0.8787 0.8788 0.8789
2444.000000 0.8791 0.8798 0.8805 0.8812 0.8818
2449.000000 0.8825 0.8832 0.8837 0.8842 0.8847
2454.000000 0.8852 0.8856 0.8861 0.8862 0.8864
2459.000000 0.8864 0.8865 0.8866 0.8866 0.8866
2464.000000 0.8866 0.8865 0.8864 0.8863 0.8862
2469.000000 0.8861 0.8860 0.8859 0.8858 0.8857
2474.000000 0.8856 0.8855 0.8854 0.8853 0.8852
2479.000000 0.8851 0.8850 0.8849 0.8848 0.8847
2484.000000 0.8846 0.8845 0.8844 0.8843 0.8842
2489.000000 0.8841 0.8841 0.8841 0.8841 0.8840
2494.000000 0.8840 0.8839 0.8839 0.8839 0.8839
2499.000000 0.8838 0.8838 0.8838 0.8838 0.8837
2504.000000 0.8837 0.8837 0.8837 0.8836 0.8836
2509.000000 0.8836 0.8836 0.8835 0.8835 0.8834
2514.000000 0.8834 0.8834 0.8834 0.8834 0.8834
2519.000000 0.8834 0.8834 0.8834 0.8834 0.8834
2524.000000 0.8834 0.8833 0.8833 0.8833 0.8833
2529.000000 0.8833 0.8833 0.8833 0.8833 0.8833
2534.000000 0.8833 0.8833 0.8833 0.8832 0.8832
2539.000000 0.8832 0.8832 0.8832 0.8832 0.8832
2544.000000 0.8832 0.8832 0.8832 0.8832 0.8832
2549.000000 0.8831 0.8831 0.8831 0.8831 0.8831
2554.000000 0.8831 0.8830 0.8830 0.8828 0.8828
2559.000000 0.8828 0.8828 0.8828 0.8828 0.8827
2564.000000 0.8827 0.8825 0.8825 0.8825 0.8825
2569.000000 0.8825 0.8825 0.8824 0.8824 0.8823
2574.000000 0.8823 0.8821 0.8821 0.8821 0.8821
2579.000000 0.8821 0.8821 0.8820 0.8818 0.8818
2584.000000 0.8817 0.8816 0.8816 0.8815 0.8814
2589.000000 0.8813 0.8812 0.8811 0.8810 0.8809
2594.000000 0.8808 0.8807 0.8806 0.8805 0.8804
2599.000000 0.8803 0.8802 0.8801 0.8801 0.8800
2604.000000 0.8799 0.8798 0.8797 0.8796 0.8795
2609.000000 0.8794 0.8793 0.8792 0.8791 0.8790
2614.000000 0.8789 0.8788 0.8788 0.8788 0.8788
2619.000000 0.8788 0.8788 0.8788 0.8788 0.8788
2624.000000 0.8788 0.8788 0.8788 0.8788 0.8788
2629.000000 0.8788 0.8788 0.8788 0.8788 0.8788
2634.000000 0.8788 0.8788 0.8788 0.8786 0.8784
2639.000000 0.8781 0.8778 0.8777 0.8775 0.8771
2644.000000 0.8770 0.8768 0.8766 0.8763 0.8761
2649.000000 0.8759 0.8757 0.8754 0.8752 0.8750
2654.000000 0.8748 0.8745 0.8743 0.8741 0.8739
2659.000000 0.8736 0.8734 0.8732 0.8730 0.8727
2664.000000 0.8725 0.8723 0.8721 0.8718 0.8716
2669.000000 0.8714 0.8712 0.8709 0.8707 0.8705
2674.000000 0.8703 0.8700 0.8698 0.8696 0.8694
2679.000000 0.8693 0.8692 0.8692 0.8692 0.8691
2684.000000 0.8691 0.8691 0.8691 0.8691 0.8691
2689.000000 0.8690 0.8690 0.8690 0.8690 0.8689
2694.000000 0.8689 0.8688 0.8688 0.8686 0.8685
2699.000000 0.8684 0.8683 0.8681 0.8680 0.8678
2704.000000 0.8678 0.8675 0.8675 0.8674 0.8673
2709.000000 0.8671 0.8670 0.8668 0.8668 0.8666
2714.000000 0.8664 0.8661 0.8659 0.8657 0.8655
2719.000000 0.8653 0.8651 0.8649 0.8647 0.8645
2724.000000 0.8643 0.8641 0.8639 0.8636 0.8634
2729.000000 0.8628 0.8625 0.8620 0.8615 0.8610
2734.000000 0.8606 0.8601 0.8596 0.8591 0.8587
2739.000000 0.8582 0.8577 0.8571 0.8567 0.8561
2744.000000 0.8556 0.8549 0.8542 0.8535 0.8528
2749.000000 0.8523 0.8518 0.8525 0.8533 0.8540
2754.000000 0.8547 0.8553 0.8560 0.8566 0.8571
2759.000000 0.8578 0.8584 0.8590 0.8596 0.8597
2764.000000 0.8599 0.8599 0.8599 0.8599 0.8599
2769.000000 0.8593 0.8588 0.8582 0.8577 0.8571
2774.000000 0.8568 0.8563 0.8558 0.8553 0.8548
2779.000000 0.8541 0.8534 0.8527 0.8520 0.8513
2784.000000 0.8506 0.8498 0.8490 0.8482 0.8474
2789.000000 0.8466 0.8458 0.8449 0.8440 0.8428
2794.000000 0.8418 0.8408 0.8397 0.8386 0.8375
2799.000000 0.8364 0.8354 0.8344 0.8335 0.8325
2804.000000 0.8315 0.8305 0.8296 0.8286 0.8275
2809.000000 0.8266 0.8257 0.8247 0.8237 0.8218
2814.000000 0.8202 0.8185 0.8168 0.8150 0.8133
2819.000000 0.8115 0.8098 0.8080 0.8062 0.8043
2824.000000 0.8024 0.8003 0.7982 0.7961 0.7941
2829.000000 0.7919 0.7899 0.7875 0.7854 0.7825
2834.000000 0.7799 0.7771 0.7743 0.7715 0.7688
2839.000000 0.7660 0.7632 0.7604 0.7575 0.7522
2844.000000 0.7469 0.7414 0.7358 0.7303 0.7248
2849.000000 0.7119 0.6992 0.6775 0.6558 0.6412
2854.000000 0.6267 0.6259 0.6251 0.6245 0.6239
2859.000000 0.6232 0.6226 0.6212 0.6199 0.5968
2864.000000 0.5738 0.5641 0.5545 0.5450 0.5356
2869.000000 0.5249 0.5143 0.4984 0.4825 0.4531
2874.000000 0.4237 0.4006 0.3775 0.3544 0.3312
2879.000000 0.3082 0.2851 0.2764 0.2678 0.2681
2884.000000 0.2620 0.2850 0.3015 0.3222 0.3430
2889.000000 0.3637 0.3845 0.4052 0.4260 0.4467
2894.000000 0.4675 0.4778 0.4881 0.4881 0.4873
2899.000000 0.4796 0.4712 0.4583 0.4454 0.4325
2904.000000 0.4196 0.4066 0.3938 0.3812 0.3686
2909.000000 0.3632 0.3579 0.3502 0.3426 0.3329
2914.000000 0.3232 0.3151 0.3070 0.3012 0.2954
2919.000000 0.2903 0.2852 0.2810 0.2769 0.2727
2924.000000 0.2685 0.2643 0.2601 0.2557 0.2514
2929.000000 0.2458 0.2402 0.2302 0.2202 0.2067
2934.000000 0.1932 0.1804 0.1676 0.1548 0.1421
2939.000000 0.1387 0.1354 0.1354 0.1346 0.1361
2944.000000 0.1369 0.1438 0.1507 0.1575 0.1644
2949.000000 0.1713 0.1782 0.1850 0.1919 0.1922
2954.000000 0.1925 0.1909 0.1946 0.1748 0.1604
2959.000000 0.1460 0.1316 0.1171 0.1027 0.0882
2964.000000 0.0738 0.0593 0.0449 0.0399 0.0349
2969.000000 0.0349 0.0338 0.0353 0.0357 0.0434
2974.000000 0.0512 0.0830 0.1149 0.1468 0.1786
2979.000000 0.2105 0.2424 0.2743 0.3062 0.3760
2984.000000 0.4460 0.4617 0.4775 0.4830 0.4886
2989.000000 0.4931 0.4976 0.5021 0.5066 0.5136
2994.000000 0.5207 0.5278 0.5349 0.5483 0.5618
2999.000000 0.5788 0.5958 0.6075 0.6192 0.6278
3004.000000 0.6365 0.6478 0.6591 0.6661 0.6732
3009.000000 0.6791 0.6850 0.6904 0.6958 0.7005
3014.000000 0.7053 0.7100 0.7148 0.7195 0.7242
3019.000000 0.7289 0.7336 0.7382 0.7428 0.7468
3024.000000 0.7508 0.7545 0.7582 0.7618 0.7657
3029.000000 0.7685 0.7714 0.7736 0.7758 0.7782
3034.000000 0.7805 0.7825 0.7848 0.7865 0.7883
3039.000000 0.7900 0.7918 0.7936 0.7954 0.7971
3044.000000 0.7989 0.8003 0.8018 0.8028 0.8041
3049.000000 0.8051 0.8064 0.8075 0.8087 0.8098
3054.000000 0.8108 0.8119 0.8132 0.8143 0.8155
3059.000000 0.8165 0.8178 0.8189 0.8201 0.8212
3064.000000 0.8223 0.8233 0.8244 0.8254 0.8265
3069.000000 0.8275 0.8286 0.8296 0.8307 0.8317
3074.000000 0.8328 0.8338 0.8349 0.8359 0.8368
3079.000000 0.8378 0.8389 0.8398 0.8408 0.8418
3084.000000 0.8428 0.8437 0.8447 0.8454 0.8462
3089.000000 0.8467 0.8471 0.8477 0.8482 0.8487
3094.000000 0.8492 0.8497 0.8502 0.8507 0.8512
3099.000000 0.8517 0.8521 0.8527 0.8532 0.8537
3104.000000 0.8542 0.8547 0.8552 0.8557 0.8562
3109.000000 0.8567 0.8571 0.8575 0.8581 0.8586
3114.000000 0.8591 0.8595 0.8600 0.8603 0.8607
3119.000000 0.8611 0.8615 0.8618 0.8621 0.8624
3124.000000 0.8627 0.8628 0.8630 0.8631 0.8633
3129.000000 0.8635 0.8637 0.8638 0.8640 0.8642
3134.000000 0.8644 0.8645 0.8647 0.8648 0.8650
3139.000000 0.8652 0.8654 0.8654 0.8655 0.8656
3144.000000 0.8657 0.8658 0.8659 0.8660 0.8661
3149.000000 0.8661 0.8662 0.8663 0.8664 0.8665
3154.000000 0.8666 0.8667 0.8668 0.8668 0.8668
3159.000000 0.8668 0.8670 0.8670 0.8670 0.8670
3164.000000 0.8671 0.8671 0.8671 0.8671 0.8671
3169.000000 0.8671 0.8673 0.8673 0.8674 0.8674
3174.000000 0.8674 0.8674 0.8675 0.8675 0.8675
3179.000000 0.8675 0.8675 0.8675 0.8677 0.8677
3184.000000 0.8677 0.8677 0.8677 0.8677 0.8678
3189.000000 0.8678 0.8678 0.8678 0.8678 0.8678
3194.000000 0.8678 0.8678 0.8678 0.8678 0.8678
3199.000000 0.8678 0.8680 0.8680 0.8680 0.8680
3204.000000 0.8681 0.8681 0.8682 0.8682 0.8683
3209.000000 0.8684 0.8685 0.8685 0.8686 0.8686
3214.000000 0.8687 0.8688 0.8689 0.8689 0.8690
3219.000000 0.8690 0.8691 0.8692 0.8693 0.8693
3224.000000 0.8694 0.8694 0.8695 0.8696 0.8697
3229.000000 0.8697 0.8698 0.8698 0.8699 0.8700
3234.000000 0.8701 0.8701 0.8702 0.8703 0.8704
3239.000000 0.8704 0.8705 0.8705 0.8706 0.8707
3244.000000 0.8708 0.8708 0.8709 0.8710 0.8711
3249.000000 0.8711 0.8712 0.8712 0.8713 0.8714
3254.000000 0.8715 0.8716 0.8717 0.8718 0.8718
3259.000000 0.8720 0.8721 0.8721 0.8723 0.8724
3264.000000 0.8743 0.8725 0.8727 0.8728 0.8728
3269.000000 0.8730 0.8731 0.8732 0.8733 0.8734
3274.000000 0.8735 0.8736 0.8737 0.8737 0.8738
3279.000000 0.8738 0.8739 0.8739 0.8740 0.8740
3284.000000 0.8741 0.8741 0.8742 0.8742 0.8743
3289.000000 0.8743 0.8744 0.8744 0.8745 0.8745
3294.000000 0.8746 0.8746 0.8747 0.8747 0.8748
3299.000000 0.8748 0.8749 0.8749 0.8750 0.8750
3304.000000 0.8751 0.8751 0.8752 0.8752 0.8753
3309.000000 0.8753 0.8754 0.8754 0.8754 0.8753
3314.000000 0.8753 0.8752 0.8752 0.8751 0.8751
3319.000000 0.8750 0.8750 0.8749 0.8749 0.8748
3324.000000 0.8748 0.8747 0.8747 0.8746 0.8746
3329.000000 0.8745 0.8745 0.8744 0.8744 0.8743
3334.000000 0.8742 0.8741 0.8741 0.8740 0.8740
3339.000000 0.8739 0.8739 0.8738 0.8738 0.8737
3344.000000 0.8737 0.8736 0.8735 0.8734 0.8734
3349.000000 0.8733 0.8732 0.8731 0.8730 0.8728
3354.000000 0.8728 0.8728 0.8727 0.8725 0.8725
3359.000000 0.8724 0.8723 0.8721 0.8721 0.8721
3364.000000 0.8720 0.8718 0.8718 0.8717 0.8717
3369.000000 0.8716 0.8715 0.8714 0.8713 0.8712
3374.000000 0.8711 0.8709 0.8707 0.8705 0.8703
3379.000000 0.8701 0.8699 0.8696 0.8694 0.8692
3384.000000 0.8690 0.8688 0.8686 0.8683 0.8681
3389.000000 0.8678 0.8675 0.8670 0.8666 0.8661
3394.000000 0.8657 0.8652 0.8647 0.8642 0.8638
3399.000000 0.8633 0.8628 0.8616 0.8604 0.8589
3404.000000 0.8575 0.8559 0.8543 0.8524 0.8506
3409.000000 0.8488 0.8470 0.8452 0.8434 0.8414
3414.000000 0.8395 0.8374 0.8353 0.8332 0.8312
3419.000000 0.8291 0.8270 0.8250 0.8230 0.8212
3424.000000 0.8195 0.8178 0.8161 0.8143 0.8125
3429.000000 0.8118 0.8111 0.8106 0.8101 0.8103
3434.000000 0.8105 0.8106 0.8108 0.8108 0.8111
3439.000000 0.8112 0.8115 0.8115 0.8094 0.8119
3444.000000 0.8121 0.8125 0.8128 0.8134 0.8139
3449.000000 0.8144 0.8150 0.8155 0.8160 0.8165
3454.000000 0.8169 0.8175 0.8181 0.8186 0.8192
3459.000000 0.8198 0.8204 0.8209 0.8215 0.8225
3464.000000 0.8235 0.8247 0.8260 0.8273 0.8286
3469.000000 0.8301 0.8316 0.8332 0.8348 0.8364
3474.000000 0.8380 0.8396 0.8412 0.8428 0.8444
3479.000000 0.8461 0.8478 0.8497 0.8515 0.8532
3484.000000 0.8550 0.8566 0.8582 0.8597 0.8613
3489.000000 0.8617 0.8621 0.8625 0.8628 0.8633
3494.000000 0.8637 0.8641 0.8646 0.8650 0.8655
3499.000000 0.8657 0.8659 0.8660 0.8661 0.8661
3504.000000 0.8662 0.8663 0.8664 0.8665 0.8666
3509.000000 0.8667 0.8668 0.8668 0.8670 0.8671
3514.000000 0.8671 0.8671 0.8673 0.8673 0.8673
3519.000000 0.8673 0.8674 0.8674 0.8674 0.8674
3524.000000 0.8675 0.8675 0.8675 0.8675 0.8675
3529.000000 0.8675 0.8677 0.8677 0.8678 0.8678
3534.000000 0.8678 0.8678 0.8680 0.8681 0.8682
3539.000000 0.8682 0.8683 0.8683 0.8684 0.8685
3544.000000 0.8686 0.8686 0.8687 0.8687 0.8688
3549.000000 0.8689 0.8690 0.8690 0.8691 0.8691
3554.000000 0.8691 0.8691 0.8691 0.8691 0.8691
3559.000000 0.8691 0.8691 0.8691 0.8691 0.8691
3564.000000 0.8691 0.8691 0.8691 0.8691 0.8691
3569.000000 0.8691 0.8691 0.8691 0.8691 0.8691
3574.000000 0.8691 0.8691 0.8691 0.8691 0.8691
3579.000000 0.8691 0.8692 0.8692 0.8692 0.8692
3584.000000 0.8692 0.8692 0.8692 0.8692 0.8692
3589.000000 0.8699 0.8706 0.8713 0.8721 0.8728
3594.000000 0.8736 0.8752 0.8768 0.8778 0.8790
3599.000000 0.8793 0.8796 0.8799 0.8802 0.8805
3604.000000 0.8808 0.8811 0.8814 0.8816 0.8818
3609.000000 0.8821 0.8825 0.8825 0.8828 0.8828
3614.000000 0.8828 0.8828 0.8828 0.8828 0.8830
3619.000000 0.8830 0.8830 0.8830 0.8830 0.8830
3624.000000 0.8831 0.8831 0.8831 0.8831 0.8832
3629.000000 0.8832 0.8833 0.8834 0.8836 0.8837
3634.000000 0.8838 0.8839 0.8840 0.8841 0.8842
3639.000000 0.8843 0.8844 0.8845 0.8847 0.8848
3644.000000 0.8849 0.8850 0.8851 0.8852 0.8853
3649.000000 0.8854 0.8855 0.8856 0.8858 0.8858
3654.000000 0.8858 0.8858 0.8859 0.8859 0.8859
3659.000000 0.8859 0.8860 0.8860 0.8860 0.8860
3664.000000 0.8861 0.8861 0.8861 0.8859 0.8858
3669.000000 0.8853 0.8849 0.8844 0.8839 0.8834
3674.000000 0.8830 0.8825 0.8820 0.8815 0.8811
3679.000000 0.8806 0.8801 0.8795 0.8789 0.8783
3684.000000 0.8777 0.8770 0.8764 0.8758 0.8752
3689.000000 0.8745 0.8739 0.8733 0.8728 0.8723
3694.000000 0.8718 0.8714 0.8709 0.8711 0.8714
3699.000000 0.8717 0.8721 0.8728 0.8735 0.8743
3704.000000 0.8751 0.8759 0.8768 0.8783 0.8798
3709.000000 0.8814 0.8830 0.8842 0.8854 0.8866
3714.000000 0.8878 0.8891 0.8903 0.8914 0.8925
3719.000000 0.8927 0.8930 0.8932 0.8935 0.8937
3724.000000 0.8940 0.8942 0.8945 0.8946 0.8948
3729.000000 0.8948 0.8949 0.8949 0.8950 0.8950
3734.000000 0.8951 0.8951 0.8952 0.8952 0.8953
3739.000000 0.8953 0.8954 0.8954 0.8955 0.8955
3744.000000 0.8955 0.8955 0.8955 0.8955 0.8955
3749.000000 0.8955 0.8955 0.8955 0.8955 0.8955
3754.000000 0.8955 0.8955 0.8955 0.8955 0.8955
3759.000000 0.8955 0.8955 0.8955 0.8956 0.8956
3764.000000 0.8956 0.8956 0.8957 0.8957 0.8957
3769.000000 0.8957 0.8958 0.8958 0.8958 0.8958
3774.000000 0.8959 0.8959 0.8960 0.8960 0.8961
3779.000000 0.8961 0.8962 0.8962 0.8963 0.8963
3784.000000 0.8963 0.8963 0.8964 0.8964 0.8965
3789.000000 0.8965 0.8966 0.8966 0.8967 0.8967
3794.000000 0.8968 0.8968 0.8968 0.8968 0.8970
3799.000000 0.8970 0.8970
##END=
