##TITLE=POTASSIUM SULFATE
$$ A.R.
##JCAMP-DX=4.24
##DATA TYPE=INFRARED SPECTRUM
##CLASS=COBLENTZ
##ORIGIN=MELLON INSTITUTE
##OWNER=COBLENTZ SOCIETY
Collection (C) 2018 copyright by the U.S. Secretary of Commerce
on behalf of the United States of America. All rights reserved.
##DATE=Not specified, most likely prior to 1970
##MOLFORM=K2 S O4
##SOURCE REFERENCE=COBLENTZ NO. 543
##$NIST ID=B6000543
##$NIST SOURCE=COBLENTZ
##$NIST IMAGE=cob543
##SPECTROMETER/DATA SYSTEM=Not specified, most likely a prism, grating, or hybrid spectrometer.
##STATE=SOLID (NUJOL MULL)
##PATH LENGTH=
$$SPECTRAL CONTAMINATION DUE TO OIL AROUND 2900, 1450, 1380 CM^-^1
##SAMPLING PROCEDURE=TRANSMISSION
##RESOLUTION=4
##DATA PROCESSING=DIGITIZED BY NIST FROM HARD COPY
##XUNITS=MICROMETERS
##YUNITS=TRANSMITTANCE
##XFACTOR=1.000000
##YFACTOR=1
##DELTAX=000.006647
##FIRSTX=2.016
##LASTX=16.0006
##FIRSTY=0.602
##MAXX=16.0006
##MINX=2.016
##MAXY=0.949
##MINY=0.078
##NPOINTS=2105
##XYDATA=(X++(Y..Y))
2.016000 0.6020 0.5980 0.5980 0.5960 0.5960
2.049248 0.5960 0.5950 0.5950 0.5950 0.5930
2.083000 0.5930 0.5930 0.5910 0.5910 0.5900
2.116248 0.5900 0.5900 0.5880 0.5880 0.5880
2.149000 0.5860 0.5860 0.5850 0.5850 0.5850
2.182248 0.5850 0.5830 0.5830 0.5830 0.5830
2.216000 0.5810 0.5830 0.5810 0.5810 0.5800
2.249248 0.5800 0.5800 0.5800 0.5780 0.5780
2.282000 0.5780 0.5780 0.5780 0.5780 0.5760
2.315248 0.5760 0.5760 0.5760 0.5750 0.5750
2.349000 0.5750 0.5750 0.5730 0.5730 0.5730
2.382248 0.5710 0.5710 0.5710 0.5730 0.5730
2.415000 0.5730 0.5730 0.5730 0.5730 0.5710
2.448248 0.5710 0.5710 0.5700 0.5700 0.5700
2.482000 0.5700 0.5700 0.5680 0.5680 0.5700
2.515248 0.5700 0.5680 0.5680 0.5680 0.5680
2.548000 0.5680 0.5680 0.5680 0.5700 0.5700
2.581248 0.5700 0.5700 0.5700 0.5700 0.5710
2.615000 0.5710 0.5710 0.5710 0.5710 0.5710
2.648248 0.5700 0.5700 0.5700 0.5700 0.5700
2.681000 0.5700 0.5700 0.5680 0.5680 0.5680
2.714248 0.5680 0.5680 0.5680 0.5680 0.5680
2.747000 0.5680 0.5680 0.5680 0.5680 0.5680
2.780248 0.5680 0.5680 0.5660 0.5660 0.5660
2.814000 0.5660 0.5660 0.5660 0.5650 0.5650
2.847248 0.5650 0.5650 0.5630 0.5630 0.5630
2.880000 0.5630 0.5630 0.5630 0.5610 0.5610
2.913248 0.5610 0.5610 0.5610 0.5610 0.5610
2.947000 0.5600 0.5600 0.5600 0.5600 0.5600
2.980248 0.5600 0.5600 0.5600 0.5600 0.5600
3.013000 0.5600 0.5600 0.5600 0.5600 0.5600
3.046248 0.5600 0.5600 0.5610 0.5610 0.5610
3.080000 0.5610 0.5610 0.5610 0.5610 0.5630
3.113248 0.5630 0.5630 0.5630 0.5630 0.5630
3.146000 0.5650 0.5650 0.5650 0.5650 0.5650
3.179248 0.5650 0.5650 0.5650 0.5660 0.5650
3.213000 0.5650 0.5650 0.5650 0.5630 0.5610
3.246248 0.5600 0.5580 0.5510 0.5450 0.5310
3.279000 0.5060 0.4880 0.4660 0.4530 0.4410
3.312248 0.4090 0.3520 0.3190 0.2920 0.2620
3.346000 0.2520 0.2500 0.2540 0.2720 0.2900
3.379248 0.3010 0.3060 0.3070 0.3090 0.3110
3.412000 0.3110 0.3120 0.3160 0.3290 0.3490
3.445248 0.3790 0.4060 0.4260 0.4730 0.5050
3.479000 0.5300 0.5400 0.5480 0.5530 0.5600
3.512248 0.5630 0.5680 0.5730 0.5780 0.5830
3.545000 0.5850 0.5880 0.5900 0.5930 0.5950
3.578248 0.5960 0.5980 0.6000 0.6000 0.6020
3.611000 0.6020 0.6020 0.6030 0.6030 0.6030
3.644248 0.6050 0.6050 0.6070 0.6080 0.6100
3.678000 0.6100 0.6100 0.6120 0.6120 0.6120
3.711248 0.6120 0.6130 0.6130 0.6150 0.6150
3.744000 0.6170 0.6170 0.6180 0.6170 0.6170
3.777248 0.6180 0.6180 0.6200 0.6200 0.6200
3.811000 0.6220 0.6230 0.6230 0.6230 0.6230
3.844248 0.6230 0.6230 0.6250 0.6250 0.6250
3.877000 0.6250 0.6250 0.6270 0.6270 0.6270
3.910248 0.6270 0.6270 0.6270 0.6270 0.6280
3.944000 0.6280 0.6280 0.6280 0.6280 0.6280
3.977248 0.6280 0.6300 0.6300 0.6300 0.6300
4.010000 0.6300 0.6280 0.6300 0.6300 0.6320
4.043248 0.6320 0.6320 0.6320 0.6320 0.6320
4.077000 0.6320 0.6320 0.6320 0.6320 0.6320
4.110248 0.6320 0.6320 0.6320 0.6330 0.6330
4.143000 0.6330 0.6330 0.6330 0.6330 0.6330
4.176248 0.6330 0.6330 0.6330 0.6330 0.6330
4.210000 0.6330 0.6330 0.6330 0.6330 0.6330
4.243248 0.6330 0.6330 0.6330 0.6330 0.6330
4.276000 0.6330 0.6330 0.6330 0.6330 0.6350
4.309248 0.6350 0.6350 0.6350 0.6350 0.6350
4.343000 0.6350 0.6350 0.6370 0.6370 0.6370
4.376248 0.6370 0.6370 0.6350 0.6350 0.6370
4.409000 0.6370 0.6370 0.6370 0.6370 0.6370
4.442248 0.6370 0.6370 0.6370 0.6370 0.6370
4.476000 0.6370 0.6370 0.6370 0.6370 0.6370
4.509248 0.6370 0.6350 0.6350 0.6350 0.6350
4.542000 0.6370 0.6350 0.6350 0.6350 0.6350
4.575248 0.6350 0.6350 0.6350 0.6350 0.6350
4.608000 0.6350 0.6350 0.6350 0.6330 0.6330
4.641248 0.6350 0.6350 0.6370 0.6370 0.6370
4.675000 0.6370 0.6370 0.6370 0.6370 0.6370
4.708248 0.6370 0.6370 0.6370 0.6370 0.6380
4.741000 0.6380 0.6380 0.6400 0.6400 0.6400
4.774248 0.6420 0.6420 0.6420 0.6420 0.6420
4.808000 0.6420 0.6430 0.6430 0.6430 0.6450
4.841248 0.6450 0.6470 0.6480 0.6480 0.6480
4.874000 0.6500 0.6500 0.6520 0.6520 0.6530
4.907248 0.6530 0.6530 0.6530 0.6550 0.6580
4.941000 0.6580 0.6600 0.6600 0.6620 0.6630
4.974248 0.6630 0.6650 0.6670 0.6680 0.6700
5.007000 0.6720 0.6720 0.6730 0.6730 0.6750
5.040248 0.6770 0.6770 0.6780 0.6780 0.6800
5.074000 0.6800 0.6820 0.6830 0.6830 0.6850
5.107248 0.6850 0.6870 0.6870 0.6880 0.6900
5.140000 0.6900 0.6900 0.6900 0.6920 0.6920
5.173248 0.6920 0.6920 0.6920 0.6930 0.6950
5.207000 0.6930 0.6930 0.6930 0.6930 0.6950
5.240248 0.6950 0.6970 0.6970 0.6970 0.6980
5.273000 0.6980 0.6980 0.6980 0.6980 0.6980
5.306248 0.7000 0.7000 0.7000 0.7000 0.7000
5.340000 0.7000 0.7000 0.7020 0.7020 0.7020
5.373248 0.7020 0.7020 0.7020 0.7040 0.7040
5.406000 0.7020 0.7040 0.7050 0.7040 0.7050
5.439248 0.7050 0.7090 0.7090 0.7090 0.7090
5.473000 0.7100 0.7100 0.7120 0.7120 0.7120
5.506248 0.7140 0.7140 0.7150 0.7150 0.7150
5.539000 0.7170 0.7170 0.7190 0.7200 0.7200
5.572248 0.7200 0.7220 0.7240 0.7240 0.7250
5.605000 0.7250 0.7290 0.7300 0.7300 0.7320
5.638248 0.7320 0.7340 0.7340 0.7350 0.7370
5.672000 0.7370 0.7390 0.7400 0.7420 0.7420
5.705248 0.7420 0.7440 0.7440 0.7450 0.7450
5.738000 0.7470 0.7470 0.7470 0.7490 0.7490
5.771248 0.7490 0.7500 0.7500 0.7500 0.7500
5.805000 0.7500 0.7540 0.7540 0.7540 0.7540
5.838248 0.7540 0.7550 0.7550 0.7550 0.7570
5.871000 0.7570 0.7590 0.7590 0.7590 0.7600
5.904248 0.7600 0.7620 0.7620 0.7640 0.7640
5.938000 0.7640 0.7650 0.7650 0.7670 0.7670
5.971248 0.7670 0.7670 0.7690 0.7690 0.7700
6.004000 0.7700 0.7700 0.7700 0.7700 0.7700
6.037248 0.7700 0.7700 0.7720 0.7720 0.7740
6.071000 0.7740 0.7740 0.7740 0.7750 0.7750
6.104248 0.7750 0.7770 0.7770 0.7770 0.7770
6.137000 0.7790 0.7790 0.7790 0.7790 0.7790
6.170248 0.7790 0.7800 0.7800 0.7800 0.7800
6.204000 0.7800 0.7820 0.7820 0.7820 0.7820
6.237248 0.7820 0.7820 0.7840 0.7840 0.7840
6.270000 0.7840 0.7840 0.7850 0.7850 0.7850
6.303248 0.7850 0.7850 0.7870 0.7870 0.7870
6.337000 0.7870 0.7890 0.7890 0.7890 0.7890
6.370248 0.7900 0.7900 0.7900 0.7900 0.7920
6.403000 0.7920 0.7920 0.7920 0.7920 0.7940
6.436248 0.7940 0.7950 0.7950 0.7950 0.7950
6.469000 0.7970 0.7970 0.7970 0.7970 0.7970
6.502248 0.7990 0.7990 0.7990 0.7990 0.8010
6.536000 0.8010 0.8010 0.8010 0.8010 0.8020
6.569248 0.8020 0.8020 0.8020 0.8020 0.8020
6.602000 0.8020 0.8020 0.8020 0.8020 0.8020
6.635248 0.8040 0.8040 0.8040 0.8040 0.8040
6.669000 0.8020 0.8020 0.8020 0.8010 0.7990
6.702248 0.7990 0.7900 0.7870 0.7820 0.7620
6.735000 0.7490 0.7320 0.7170 0.7020 0.6880
6.768248 0.6750 0.6650 0.6580 0.6550 0.6500
6.802000 0.6480 0.6500 0.6520 0.6550 0.6580
6.835248 0.6600 0.6630 0.6670 0.6730 0.6780
6.868000 0.6830 0.6880 0.6980 0.7070 0.7120
6.901248 0.7220 0.7320 0.7420 0.7450 0.7520
6.935000 0.7570 0.7620 0.7690 0.7740 0.7750
6.968248 0.7750 0.7770 0.7770 0.7770 0.7770
7.001000 0.7790 0.7790 0.7820 0.7850 0.7890
7.034248 0.7920 0.7990 0.8020 0.8060 0.8090
7.068000 0.8110 0.8110 0.8090 0.8090 0.8070
7.101248 0.8070 0.8040 0.8040 0.8020 0.8020
7.134000 0.8010 0.7990 0.7940 0.7850 0.7790
7.167248 0.7650 0.7600 0.7520 0.7450 0.7420
7.201000 0.7400 0.7420 0.7440 0.7450 0.7520
7.234248 0.7590 0.7650 0.7690 0.7700 0.7750
7.267000 0.7770 0.7790 0.7820 0.7840 0.7890
7.300248 0.7900 0.7940 0.7990 0.7990 0.8010
7.334000 0.8020 0.8020 0.8020 0.8040 0.8070
7.367248 0.8070 0.8090 0.8110 0.8110 0.8120
7.400000 0.8120 0.8140 0.8140 0.8160 0.8160
7.433248 0.8170 0.8190 0.8190 0.8210 0.8210
7.466000 0.8210 0.8210 0.8210 0.8220 0.8220
7.499248 0.8240 0.8240 0.8260 0.8260 0.8260
7.533000 0.8260 0.8260 0.8270 0.8270 0.8270
7.566248 0.8270 0.8290 0.8290 0.8290 0.8290
7.599000 0.8290 0.8290 0.8290 0.8290 0.8290
7.632248 0.8310 0.8310 0.8310 0.8310 0.8310
7.666000 0.8310 0.8310 0.8310 0.8320 0.8320
7.699248 0.8320 0.8320 0.8320 0.8320 0.8320
7.732000 0.8320 0.8320 0.8320 0.8320 0.8320
7.765248 0.8320 0.8320 0.8340 0.8340 0.8340
7.799000 0.8340 0.8340 0.8320 0.8320 0.8310
7.832248 0.8310 0.8310 0.8290 0.8290 0.8290
7.865000 0.8270 0.8270 0.8270 0.8260 0.8240
7.898248 0.8240 0.8220 0.8220 0.8210 0.8210
7.932000 0.8190 0.8190 0.8170 0.8160 0.8140
7.965248 0.8120 0.8120 0.8110 0.8070 0.8040
7.998000 0.8020 0.8020 0.8010 0.7990 0.7990
8.031248 0.7990 0.7940 0.7920 0.7920 0.7900
8.065000 0.7900 0.7890 0.7870 0.7850 0.7820
8.098248 0.7800 0.7790 0.7770 0.7740 0.7700
8.131000 0.7690 0.7670 0.7620 0.7590 0.7570
8.164248 0.7550 0.7520 0.7500 0.7470 0.7440
8.198000 0.7390 0.7320 0.7300 0.7250 0.7220
8.231248 0.7170 0.7070 0.7020 0.6920 0.6880
8.264000 0.6780 0.6730 0.6650 0.6570 0.6480
8.297248 0.6420 0.6350 0.6280 0.6270 0.6230
8.331000 0.6180 0.6170 0.6050 0.6030 0.6020
8.364248 0.6000 0.5980 0.5960 0.5950 0.5930
8.397000 0.5910 0.5880 0.5860 0.5850 0.5830
8.430248 0.5780 0.5730 0.5680 0.5650 0.5610
8.463000 0.5580 0.5510 0.5400 0.5330 0.5210
8.496248 0.5150 0.5000 0.4880 0.4630 0.4490
8.530000 0.4310 0.4130 0.4080 0.3970 0.3820
8.563248 0.3690 0.3620 0.3510 0.3490 0.3370
8.596000 0.3270 0.3190 0.3120 0.3040 0.2990
8.629248 0.2900 0.2840 0.2740 0.2690 0.2640
8.663000 0.2590 0.2520 0.2470 0.2400 0.2370
8.696248 0.2300 0.2250 0.2200 0.2170 0.2140
8.729000 0.2040 0.2020 0.1980 0.1900 0.1850
8.762248 0.1780 0.1730 0.1700 0.1670 0.1620
8.796000 0.1570 0.1520 0.1470 0.1450 0.1420
8.829248 0.1380 0.1330 0.1280 0.1230 0.1200
8.862000 0.1150 0.1120 0.1070 0.1030 0.1020
8.895248 0.1000 0.0980 0.0930 0.0930 0.0900
8.929000 0.0880 0.0860 0.0850 0.0830 0.0830
8.962248 0.0810 0.0810 0.0800 0.0800 0.0800
8.995000 0.0800 0.0800 0.0780 0.0780 0.0800
9.028248 0.0800 0.0810 0.0830 0.0860 0.0880
9.062000 0.0900 0.0930 0.0980 0.1000 0.1030
9.095248 0.1170 0.1200 0.1350 0.1480 0.1530
9.128000 0.1680 0.1750 0.1870 0.1980 0.2020
9.161248 0.2170 0.2370 0.2500 0.2670 0.2740
9.195000 0.2890 0.2990 0.3170 0.3270 0.3360
9.228248 0.3510 0.3660 0.3770 0.3990 0.4060
9.261000 0.4140 0.4230 0.4330 0.4390 0.4530
9.294248 0.4580 0.4680 0.4780 0.4890 0.5010
9.327000 0.5080 0.5180 0.5250 0.5330 0.5400
9.360248 0.5500 0.5530 0.5560 0.5630 0.5700
9.394000 0.5750 0.5800 0.5850 0.5880 0.6000
9.427248 0.6000 0.6020 0.6050 0.6130 0.6170
9.460000 0.6220 0.6250 0.6280 0.6320 0.6350
9.493248 0.6400 0.6420 0.6450 0.6480 0.6530
9.527000 0.6550 0.6580 0.6630 0.6670 0.6700
9.560248 0.6730 0.6780 0.6820 0.6850 0.6880
9.593000 0.6900 0.6920 0.6970 0.7020 0.7040
9.626248 0.7070 0.7120 0.7150 0.7190 0.7200
9.660000 0.7240 0.7290 0.7320 0.7340 0.7370
9.693248 0.7400 0.7420 0.7450 0.7490 0.7500
9.726000 0.7520 0.7540 0.7540 0.7550 0.7590
9.759248 0.7600 0.7600 0.7600 0.7620 0.7640
9.793000 0.7640 0.7640 0.7670 0.7670 0.7650
9.826248 0.7670 0.7670 0.7690 0.7690 0.7700
9.859000 0.7700 0.7720 0.7720 0.7720 0.7720
9.892248 0.7740 0.7740 0.7740 0.7740 0.7750
9.926000 0.7770 0.7770 0.7790 0.7790 0.7800
9.959248 0.7800 0.7800 0.7820 0.7820 0.7820
9.992000 0.7840 0.7840 0.7850 0.7850 0.7870
10.025248 0.7870 0.7870 0.7870 0.7870 0.7890
10.059000 0.7890 0.7890 0.7890 0.7890 0.7900
10.092248 0.7900 0.7900 0.7900 0.7920 0.7920
10.125000 0.7940 0.7940 0.7940 0.7940 0.7940
10.158248 0.7990 0.7990 0.7990 0.8010 0.8010
10.192000 0.8020 0.8020 0.8020 0.8020 0.8040
10.225248 0.8060 0.8060 0.8110 0.8120 0.8140
10.258000 0.8140 0.8160 0.8170 0.8190 0.8210
10.291248 0.8220 0.8240 0.8240 0.8260 0.8270
10.324000 0.8290 0.8310 0.8310 0.8320 0.8320
10.357248 0.8340 0.8340 0.8360 0.8370 0.8370
10.391000 0.8370 0.8370 0.8370 0.8410 0.8410
10.424248 0.8410 0.8420 0.8420 0.8440 0.8440
10.457000 0.8460 0.8460 0.8470 0.8470 0.8490
10.490248 0.8490 0.8510 0.8510 0.8510 0.8520
10.524000 0.8520 0.8520 0.8540 0.8540 0.8540
10.557248 0.8540 0.8560 0.8570 0.8570 0.8590
10.590000 0.8590 0.8590 0.8590 0.8610 0.8620
10.623248 0.8620 0.8620 0.8640 0.8640 0.8640
10.657000 0.8660 0.8660 0.8670 0.8670 0.8670
10.690248 0.8670 0.8670 0.8670 0.8690 0.8710
10.723000 0.8710 0.8710 0.8720 0.8720 0.8720
10.756248 0.8740 0.8740 0.8740 0.8740 0.8740
10.790000 0.8760 0.8760 0.8760 0.8760 0.8770
10.823248 0.8770 0.8770 0.8770 0.8770 0.8770
10.856000 0.8770 0.8790 0.8790 0.8790 0.8790
10.889248 0.8790 0.8790 0.8790 0.8810 0.8810
10.923000 0.8810 0.8820 0.8820 0.8820 0.8820
10.956248 0.8820 0.8820 0.8820 0.8820 0.8820
10.989000 0.8820 0.8820 0.8820 0.8840 0.8840
11.022248 0.8840 0.8840 0.8840 0.8860 0.8860
11.056000 0.8860 0.8860 0.8860 0.8860 0.8860
11.089248 0.8870 0.8870 0.8870 0.8890 0.8890
11.122000 0.8890 0.8910 0.8910 0.8910 0.8910
11.155248 0.8920 0.8920 0.8920 0.8920 0.8920
11.189000 0.8920 0.8940 0.8940 0.8960 0.8960
11.222248 0.8960 0.8960 0.8960 0.8970 0.8970
11.255000 0.8970 0.8970 0.8990 0.8990 0.8990
11.288248 0.8990 0.9010 0.9010 0.9010 0.9010
11.321000 0.9010 0.9030 0.9030 0.9030 0.9030
11.354248 0.9040 0.9040 0.9040 0.9040 0.9040
11.388000 0.9040 0.9060 0.9060 0.9060 0.9040
11.421248 0.9060 0.9080 0.9080 0.9090 0.9090
11.454000 0.9090 0.9110 0.9110 0.9110 0.9110
11.487248 0.9110 0.9110 0.9130 0.9130 0.9130
11.521000 0.9130 0.9130 0.9140 0.9140 0.9140
11.554248 0.9140 0.9160 0.9160 0.9160 0.9160
11.587000 0.9160 0.9180 0.9180 0.9180 0.9190
11.620248 0.9190 0.9190 0.9190 0.9190 0.9190
11.654000 0.9190 0.9210 0.9210 0.9210 0.9210
11.687248 0.9230 0.9230 0.9230 0.9230 0.9240
11.720000 0.9240 0.9240 0.9240 0.9240 0.9240
11.753248 0.9240 0.9260 0.9260 0.9260 0.9260
11.787000 0.9280 0.9280 0.9280 0.9280 0.9290
11.820248 0.9290 0.9290 0.9290 0.9310 0.9310
11.853000 0.9310 0.9310 0.9310 0.9310 0.9310
11.886248 0.9310 0.9310 0.9330 0.9330 0.9330
11.920000 0.9330 0.9340 0.9340 0.9340 0.9340
11.953248 0.9340 0.9340 0.9340 0.9360 0.9360
11.986000 0.9360 0.9360 0.9360 0.9360 0.9360
12.019248 0.9360 0.9360 0.9360 0.9360 0.9360
12.053000 0.9380 0.9380 0.9380 0.9380 0.9380
12.086248 0.9380 0.9390 0.9390 0.9390 0.9390
12.119000 0.9390 0.9390 0.9390 0.9410 0.9410
12.152248 0.9410 0.9410 0.9410 0.9430 0.9430
12.185000 0.9430 0.9430 0.9430 0.9430 0.9430
12.218248 0.9430 0.9430 0.9430 0.9430 0.9440
12.252000 0.9440 0.9440 0.9440 0.9440 0.9440
12.285248 0.9440 0.9440 0.9440 0.9440 0.9440
12.318000 0.9460 0.9460 0.9460 0.9460 0.9460
12.351248 0.9460 0.9460 0.9460 0.9460 0.9460
12.385000 0.9460 0.9460 0.9460 0.9480 0.9490
12.418248 0.9480 0.9480 0.9480 0.9480 0.9480
12.451000 0.9460 0.9460 0.9460 0.9460 0.9460
12.484248 0.9460 0.9460 0.9460 0.9460 0.9460
12.518000 0.9460 0.9460 0.9460 0.9460 0.9460
12.551248 0.9460 0.9460 0.9480 0.9480 0.9480
12.584000 0.9480 0.9480 0.9480 0.9480 0.9460
12.617248 0.9480 0.9460 0.9460 0.9460 0.9460
12.651000 0.9460 0.9460 0.9460 0.9460 0.9460
12.684248 0.9460 0.9460 0.9460 0.9460 0.9460
12.717000 0.9460 0.9460 0.9460 0.9460 0.9460
12.750248 0.9460 0.9480 0.9480 0.9480 0.9480
12.784000 0.9490 0.9490 0.9480 0.9480 0.9480
12.817248 0.9480 0.9480 0.9480 0.9480 0.9480
12.850000 0.9480 0.9480 0.9480 0.9480 0.9480
12.883248 0.9480 0.9480 0.9480 0.9480 0.9480
12.917000 0.9480 0.9460 0.9440 0.9440 0.9440
12.950248 0.9440 0.9440 0.9440 0.9430 0.9430
12.983000 0.9430 0.9430 0.9430 0.9430 0.9430
13.016248 0.9430 0.9430 0.9430 0.9410 0.9410
13.050000 0.9410 0.9410 0.9410 0.9390 0.9390
13.083248 0.9390 0.9410 0.9410 0.9390 0.9390
13.116000 0.9390 0.9390 0.9390 0.9380 0.9380
13.149248 0.9380 0.9380 0.9380 0.9380 0.9380
13.182000 0.9360 0.9360 0.9360 0.9360 0.9340
13.215248 0.9340 0.9340 0.9360 0.9340 0.9340
13.249000 0.9340 0.9340 0.9340 0.9340 0.9340
13.282248 0.9340 0.9340 0.9330 0.9330 0.9330
13.315000 0.9310 0.9310 0.9310 0.9310 0.9310
13.348248 0.9290 0.9290 0.9290 0.9290 0.9290
13.382000 0.9280 0.9280 0.9260 0.9240 0.9240
13.415248 0.9240 0.9230 0.9240 0.9230 0.9230
13.448000 0.9210 0.9210 0.9210 0.9190 0.9190
13.481248 0.9180 0.9180 0.9180 0.9180 0.9160
13.515000 0.9160 0.9160 0.9140 0.9140 0.9140
13.548248 0.9140 0.9140 0.9140 0.9130 0.9130
13.581000 0.9110 0.9110 0.9110 0.9110 0.9110
13.614248 0.9090 0.9080 0.9060 0.9040 0.9040
13.648000 0.9040 0.9040 0.9040 0.9040 0.9030
13.681248 0.9030 0.9030 0.9030 0.9030 0.9010
13.714000 0.9010 0.9010 0.9010 0.8990 0.8990
13.747248 0.8960 0.8960 0.8960 0.8960 0.8940
13.781000 0.8940 0.8940 0.8920 0.8920 0.8920
13.814248 0.8920 0.8910 0.8910 0.8910 0.8910
13.847000 0.8910 0.8910 0.8890 0.8890 0.8890
13.880248 0.8870 0.8870 0.8870 0.8870 0.8860
13.914000 0.8860 0.8860 0.8860 0.8860 0.8840
13.947248 0.8840 0.8820 0.8820 0.8820 0.8820
13.980000 0.8810 0.8810 0.8810 0.8810 0.8810
14.013248 0.8790 0.8790 0.8770 0.8770 0.8770
14.047000 0.8770 0.8770 0.8760 0.8760 0.8760
14.080248 0.8760 0.8740 0.8740 0.8720 0.8720
14.113000 0.8710 0.8710 0.8710 0.8710 0.8690
14.146248 0.8690 0.8690 0.8670 0.8670 0.8660
14.179000 0.8660 0.8640 0.8640 0.8640 0.8640
14.212248 0.8640 0.8620 0.8620 0.8610 0.8610
14.246000 0.8590 0.8590 0.8560 0.8540 0.8540
14.279248 0.8540 0.8540 0.8520 0.8520 0.8510
14.312000 0.8510 0.8490 0.8470 0.8460 0.8460
14.345248 0.8440 0.8440 0.8420 0.8420 0.8410
14.379000 0.8390 0.8390 0.8370 0.8370 0.8360
14.412248 0.8360 0.8340 0.8320 0.8310 0.8290
14.445000 0.8270 0.8260 0.8260 0.8240 0.8240
14.478248 0.8220 0.8210 0.8190 0.8190 0.8170
14.512000 0.8170 0.8160 0.8160 0.8140 0.8120
14.545248 0.8120 0.8070 0.8060 0.8040 0.8040
14.578000 0.8040 0.8020 0.8020 0.8010 0.8010
14.611248 0.7990 0.7990 0.7950 0.7940 0.7940
14.645000 0.7920 0.7900 0.7900 0.7890 0.7870
14.678248 0.7870 0.7850 0.7840 0.7820 0.7800
14.711000 0.7800 0.7790 0.7770 0.7750 0.7750
14.744248 0.7740 0.7740 0.7720 0.7700 0.7700
14.778000 0.7690 0.7670 0.7650 0.7640 0.7640
14.811248 0.7620 0.7600 0.7590 0.7590 0.7570
14.844000 0.7550 0.7550 0.7540 0.7540 0.7540
14.877248 0.7520 0.7500 0.7500 0.7490 0.7490
14.911000 0.7470 0.7470 0.7450 0.7440 0.7440
14.944248 0.7420 0.7420 0.7400 0.7400 0.7390
14.977000 0.7370 0.7350 0.7340 0.7340 0.7340
15.010248 0.7340 0.7320 0.7300 0.7300 0.7290
15.044000 0.7290 0.7270 0.7250 0.7240 0.7240
15.077248 0.7240 0.7220 0.7200 0.7200 0.7190
15.110000 0.7190 0.7170 0.7150 0.7140 0.7120
15.143248 0.7100 0.7100 0.7100 0.7090 0.7090
15.176000 0.7070 0.7070 0.7070 0.7050 0.7050
15.209248 0.7040 0.7020 0.7000 0.6980 0.6980
15.243000 0.6980 0.6970 0.6950 0.6930 0.6930
15.276248 0.6920 0.6920 0.6920 0.6900 0.6880
15.309000 0.6870 0.6850 0.6830 0.6830 0.6820
15.342248 0.6820 0.6800 0.6800 0.6780 0.6780
15.376000 0.6770 0.6750 0.6750 0.6730 0.6720
15.409248 0.6700 0.6680 0.6680 0.6650 0.6650
15.442000 0.6630 0.6620 0.6600 0.6580 0.6580
15.475248 0.6570 0.6530 0.6530 0.6530 0.6520
15.509000 0.6520 0.6480 0.6470 0.6470 0.6450
15.542248 0.6450 0.6430 0.6420 0.6420 0.6400
15.575000 0.6370 0.6350 0.6330 0.6320 0.6300
15.608248 0.6280 0.6280 0.6250 0.6250 0.6230
15.642000 0.6200 0.6170 0.6170 0.6150 0.6130
15.675248 0.6120 0.6100 0.6050 0.6030 0.6030
15.708000 0.6020 0.6020 0.6000 0.6000 0.5960
15.741248 0.5930 0.5910 0.5880 0.5860 0.5810
15.775000 0.5800 0.5780 0.5750 0.5710 0.5680
15.808248 0.5650 0.5610 0.5580 0.5580 0.5560
15.841000 0.5550 0.5530 0.5500 0.5480 0.5460
15.874248 0.5450 0.5430 0.5410 0.5400 0.5400
15.908000 0.5380 0.5350 0.5350 0.5330 0.5310
15.941248 0.5310 0.5300 0.5280 0.5260 0.5250
15.974000 0.5250 0.5230 0.5230 0.5210 0.5200
##END=
