##TITLE=PHENTOLAMINE, METHANE SULFONATE
##JCAMP-DX=4.24
$$ By DXEDIT 1.05 (RS McDonald)
##DATA TYPE=INFRARED SPECTRUM
##CLASS=COBLENTZ III
##OWNER=COBLENTZ SOC.
Collection (C) 2018 copyright by the U.S. Secretary of Commerce
on behalf of the United States of America. All rights reserved.
##DATE=1962/04/26
##NAMES=3-[(4,5-dihydro-1H-imidazol-2-ylmethyl)-4-methylanilino]phenol methanesulfonate
2-[N-(m-HYDROXYPHENYL)-p-TOLUIDINOMETHYL]IMIDAZOLINE METHANESULFONATE
##MOLFORM=C18 H23 N3 O4 S
##MP=177-181 C
##SOURCE REFERENCE=COBLENTZ NO. 05074
##$NIST ID=B6005074
##$NIST SOURCE=COBLENTZ
##$NIST IMAGE=cob5074
##SPECTROMETER/DATA SYSTEM=PERKIN-ELMER 21 (GRATING)
##INSTRUMENT PARAMETERS=FILTER AT ABOUT 10 MICRONS
##STATE=SOLID (1 mg / 200 mg KBr DISC)
##PATH LENGTH=
$$ SPECTRAL FEATURE AT 1000 CM^-^1 IS AN ARTIFACT CAUSED BY FILTER CHANGE
##SAMPLING PROCEDURE=TRANSMISSION
##RESOLUTION=2
##DATA PROCESSING=DIGITIZED BY COBLENTZ SOCIETY (BATCH I) FROM HARD COPY
##XUNITS=1/CM
##YUNITS=TRANSMITTANCE
##XLABEL=Wavenumbers (cm-1)
##YLABEL=Transmittance
##XFACTOR=1
##YFACTOR=1
##DELTAX=1
##FIRSTX=4000
##LASTX=658
##FIRSTY=0.8789
##MAXX=4000
##MINX=658
##MAXY=0.9953
##MINY=0.0419
##NPOINTS=3343
##XYDATA=(X++(Y..Y))
4000.000000 0.8789 0.8790 0.8792 0.8794 0.8795
3995.000000 0.8797 0.8799 0.8801 0.8802 0.8804
3990.000000 0.8806 0.8807 0.8809 0.8811 0.8813
3985.000000 0.8815 0.8817 0.8818 0.8820 0.8821
3980.000000 0.8824 0.8827 0.8828 0.8831 0.8833
3975.000000 0.8836 0.8838 0.8840 0.8843 0.8845
3970.000000 0.8847 0.8850 0.8852 0.8854 0.8857
3965.000000 0.8859 0.8862 0.8864 0.8866 0.8868
3960.000000 0.8868 0.8870 0.8871 0.8871 0.8873
3955.000000 0.8874 0.8874 0.8874 0.8875 0.8875
3950.000000 0.8875 0.8875 0.8875 0.8877 0.8877
3945.000000 0.8878 0.8878 0.8878 0.8878 0.8880
3940.000000 0.8880 0.8881 0.8881 0.8882 0.8882
3935.000000 0.8882 0.8882 0.8882 0.8882 0.8882
3930.000000 0.8882 0.8882 0.8882 0.8882 0.8882
3925.000000 0.8882 0.8882 0.8882 0.8882 0.8882
3920.000000 0.8882 0.8882 0.8882 0.8882 0.8882
3915.000000 0.8882 0.8882 0.8882 0.8882 0.8882
3910.000000 0.8883 0.8883 0.8884 0.8884 0.8885
3905.000000 0.8885 0.8886 0.8886 0.8887 0.8887
3900.000000 0.8888 0.8888 0.8889 0.8890 0.8890
3895.000000 0.8891 0.8892 0.8892 0.8893 0.8893
3890.000000 0.8894 0.8894 0.8895 0.8895 0.8896
3885.000000 0.8896 0.8896 0.8897 0.8897 0.8898
3880.000000 0.8898 0.8899 0.8899 0.8900 0.8900
3875.000000 0.8901 0.8902 0.8903 0.8904 0.8905
3870.000000 0.8905 0.8907 0.8908 0.8909 0.8911
3865.000000 0.8912 0.8913 0.8915 0.8916 0.8918
3860.000000 0.8920 0.8921 0.8923 0.8924 0.8925
3855.000000 0.8927 0.8928 0.8930 0.8932 0.8933
3850.000000 0.8934 0.8936 0.8937 0.8938 0.8940
3845.000000 0.8941 0.8943 0.8944 0.8946 0.8947
3840.000000 0.8949 0.8950 0.8952 0.8953 0.8954
3835.000000 0.8956 0.8957 0.8959 0.8960 0.8962
3830.000000 0.8963 0.8965 0.8966 0.8968 0.8968
3825.000000 0.8971 0.8971 0.8974 0.8975 0.8978
3820.000000 0.8980 0.8982 0.8984 0.8986 0.8988
3815.000000 0.8990 0.8992 0.8994 0.8996 0.8998
3810.000000 0.9001 0.9003 0.9005 0.9007 0.9009
3805.000000 0.9011 0.9013 0.9015 0.9018 0.9020
3800.000000 0.9021 0.9024 0.9025 0.9028 0.9031
3795.000000 0.9033 0.9035 0.9037 0.9039 0.9041
3790.000000 0.9043 0.9045 0.9047 0.9049 0.9051
3785.000000 0.9054 0.9056 0.9058 0.9060 0.9062
3780.000000 0.9064 0.9067 0.9068 0.9071 0.9073
3775.000000 0.9075 0.9077 0.9078 0.9081 0.9083
3770.000000 0.9085 0.9087 0.9089 0.9091 0.9094
3765.000000 0.9096 0.9098 0.9100 0.9101 0.9103
3760.000000 0.9105 0.9107 0.9109 0.9111 0.9113
3755.000000 0.9115 0.9117 0.9118 0.9121 0.9123
3750.000000 0.9125 0.9127 0.9128 0.9131 0.9133
3745.000000 0.9135 0.9137 0.9139 0.9140 0.9141
3740.000000 0.9142 0.9143 0.9144 0.9144 0.9145
3735.000000 0.9147 0.9148 0.9149 0.9150 0.9151
3730.000000 0.9152 0.9153 0.9154 0.9155 0.9156
3725.000000 0.9157 0.9158 0.9160 0.9161 0.9162
3720.000000 0.9163 0.9164 0.9165 0.9165 0.9166
3715.000000 0.9167 0.9168 0.9168 0.9170 0.9171
3710.000000 0.9173 0.9174 0.9174 0.9174 0.9175
3705.000000 0.9175 0.9175 0.9175 0.9175 0.9177
3700.000000 0.9178 0.9178 0.9178 0.9178 0.9178
3695.000000 0.9180 0.9180 0.9180 0.9181 0.9181
3690.000000 0.9181 0.9181 0.9181 0.9182 0.9182
3685.000000 0.9182 0.9183 0.9183 0.9183 0.9184
3680.000000 0.9184 0.9185 0.9185 0.9185 0.9186
3675.000000 0.9186 0.9186 0.9186 0.9186 0.9187
3670.000000 0.9187 0.9187 0.9188 0.9188 0.9188
3665.000000 0.9189 0.9189 0.9190 0.9191 0.9191
3660.000000 0.9192 0.9192 0.9193 0.9193 0.9194
3655.000000 0.9194 0.9195 0.9196 0.9196 0.9197
3650.000000 0.9197 0.9198 0.9198 0.9198 0.9199
3645.000000 0.9199 0.9200 0.9200 0.9200 0.9200
3640.000000 0.9200 0.9201 0.9201 0.9201 0.9201
3635.000000 0.9201 0.9201 0.9201 0.9201 0.9200
3630.000000 0.9200 0.9200 0.9199 0.9199 0.9199
3625.000000 0.9199 0.9199 0.9198 0.9198 0.9198
3620.000000 0.9197 0.9197 0.9197 0.9196 0.9196
3615.000000 0.9195 0.9195 0.9195 0.9194 0.9192
3610.000000 0.9191 0.9190 0.9188 0.9185 0.9181
3605.000000 0.9175 0.9171 0.9168 0.9163 0.9156
3600.000000 0.9150 0.9143 0.9137 0.9131 0.9125
3595.000000 0.9121 0.9116 0.9111 0.9106 0.9101
3590.000000 0.9096 0.9092 0.9087 0.9082 0.9078
3585.000000 0.9074 0.9070 0.9066 0.9062 0.9059
3580.000000 0.9056 0.9053 0.9050 0.9048 0.9045
3575.000000 0.9042 0.9040 0.9037 0.9034 0.9031
3570.000000 0.9028 0.9025 0.9023 0.9020 0.9018
3565.000000 0.9015 0.9012 0.9009 0.9007 0.9003
3560.000000 0.8999 0.8995 0.8991 0.8987 0.8982
3555.000000 0.8977 0.8971 0.8966 0.8960 0.8955
3550.000000 0.8949 0.8944 0.8939 0.8933 0.8928
3545.000000 0.8923 0.8917 0.8912 0.8906 0.8901
3540.000000 0.8895 0.8889 0.8882 0.8875 0.8870
3535.000000 0.8862 0.8854 0.8847 0.8839 0.8831
3530.000000 0.8823 0.8815 0.8807 0.8800 0.8792
3525.000000 0.8784 0.8775 0.8768 0.8760 0.8753
3520.000000 0.8746 0.8738 0.8731 0.8724 0.8717
3515.000000 0.8710 0.8703 0.8696 0.8689 0.8682
3510.000000 0.8675 0.8668 0.8661 0.8654 0.8647
3505.000000 0.8640 0.8633 0.8625 0.8618 0.8612
3500.000000 0.8604 0.8597 0.8590 0.8583 0.8575
3495.000000 0.8566 0.8557 0.8549 0.8540 0.8530
3490.000000 0.8520 0.8510 0.8500 0.8490 0.8480
3485.000000 0.8470 0.8460 0.8450 0.8441 0.8430
3480.000000 0.8418 0.8407 0.8396 0.8385 0.8367
3475.000000 0.8350 0.8333 0.8316 0.8299 0.8281
3470.000000 0.8264 0.8247 0.8230 0.8211 0.8190
3465.000000 0.8168 0.8147 0.8125 0.8101 0.8075
3460.000000 0.8051 0.8025 0.7999 0.7978 0.7960
3455.000000 0.7941 0.7922 0.7904 0.7886 0.7868
3450.000000 0.7851 0.7834 0.7817 0.7799 0.7781
3445.000000 0.7764 0.7746 0.7719 0.7687 0.7654
3440.000000 0.7621 0.7588 0.7553 0.7517 0.7481
3435.000000 0.7444 0.7408 0.7376 0.7346 0.7315
3430.000000 0.7284 0.7254 0.7224 0.7194 0.7164
3425.000000 0.7134 0.7105 0.7076 0.7049 0.7021
3420.000000 0.6993 0.6968 0.6944 0.6918 0.6895
3415.000000 0.6853 0.6772 0.6692 0.6611 0.6530
3410.000000 0.6480 0.6447 0.6414 0.6381 0.6348
3405.000000 0.6314 0.6281 0.6248 0.6215 0.6181
3400.000000 0.6148 0.6115 0.6082 0.6048 0.6015
3395.000000 0.5981 0.5948 0.5915 0.5881 0.5848
3390.000000 0.5814 0.5781 0.5747 0.5714 0.5680
3385.000000 0.5646 0.5612 0.5579 0.5546 0.5512
3380.000000 0.5478 0.5444 0.5410 0.5377 0.5343
3375.000000 0.5309 0.5276 0.5253 0.5232 0.5212
3370.000000 0.5191 0.5172 0.5157 0.5142 0.5127
3365.000000 0.5112 0.5069 0.5015 0.4960 0.4907
3360.000000 0.4856 0.4817 0.4778 0.4739 0.4700
3355.000000 0.4667 0.4637 0.4606 0.4576 0.4547
3350.000000 0.4525 0.4504 0.4482 0.4460 0.4439
3345.000000 0.4418 0.4396 0.4375 0.4354 0.4335
3340.000000 0.4316 0.4297 0.4278 0.4260 0.4245
3335.000000 0.4228 0.4212 0.4196 0.4180 0.4162
3330.000000 0.4147 0.4130 0.4114 0.4098 0.4080
3325.000000 0.4064 0.4045 0.4018 0.3994 0.3968
3320.000000 0.3943 0.3914 0.3886 0.3857 0.3829
3315.000000 0.3798 0.3766 0.3734 0.3703 0.3671
3310.000000 0.3638 0.3605 0.3572 0.3539 0.3500
3305.000000 0.3462 0.3424 0.3384 0.3358 0.3342
3300.000000 0.3325 0.3308 0.3293 0.3280 0.3268
3295.000000 0.3255 0.3243 0.3230 0.3218 0.3206
3290.000000 0.3193 0.3181 0.3168 0.3156 0.3144
3285.000000 0.3132 0.3120 0.3108 0.3096 0.3084
3280.000000 0.3072 0.3060 0.3048 0.3035 0.3023
3275.000000 0.3010 0.2997 0.2983 0.2969 0.2953
3270.000000 0.2937 0.2921 0.2905 0.2888 0.2872
3265.000000 0.2855 0.2838 0.2821 0.2803 0.2785
3260.000000 0.2768 0.2751 0.2735 0.2720 0.2705
3255.000000 0.2691 0.2683 0.2676 0.2668 0.2661
3250.000000 0.2653 0.2646 0.2638 0.2630 0.2624
3245.000000 0.2618 0.2612 0.2606 0.2600 0.2594
3240.000000 0.2588 0.2582 0.2577 0.2571 0.2566
3235.000000 0.2560 0.2555 0.2551 0.2547 0.2543
3230.000000 0.2539 0.2534 0.2530 0.2526 0.2521
3225.000000 0.2517 0.2513 0.2509 0.2505 0.2502
3220.000000 0.2499 0.2496 0.2493 0.2490 0.2487
3215.000000 0.2484 0.2481 0.2479 0.2476 0.2473
3210.000000 0.2471 0.2468 0.2465 0.2463 0.2461
3205.000000 0.2458 0.2456 0.2453 0.2451 0.2448
3200.000000 0.2446 0.2444 0.2442 0.2440 0.2438
3195.000000 0.2435 0.2434 0.2432 0.2431 0.2430
3190.000000 0.2429 0.2429 0.2428 0.2427 0.2426
3185.000000 0.2426 0.2425 0.2425 0.2425 0.2425
3180.000000 0.2426 0.2428 0.2430 0.2432 0.2434
3175.000000 0.2438 0.2441 0.2444 0.2448 0.2451
3170.000000 0.2455 0.2458 0.2461 0.2465 0.2468
3165.000000 0.2471 0.2476 0.2481 0.2487 0.2492
3160.000000 0.2498 0.2504 0.2510 0.2516 0.2522
3155.000000 0.2528 0.2534 0.2540 0.2547 0.2554
3150.000000 0.2561 0.2569 0.2578 0.2590 0.2601
3145.000000 0.2613 0.2624 0.2634 0.2646 0.2657
3140.000000 0.2669 0.2680 0.2691 0.2703 0.2716
3135.000000 0.2730 0.2743 0.2757 0.2771 0.2784
3130.000000 0.2799 0.2813 0.2829 0.2844 0.2860
3125.000000 0.2876 0.2894 0.2912 0.2931 0.2949
3120.000000 0.2968 0.2987 0.3006 0.3026 0.3047
3115.000000 0.3068 0.3088 0.3109 0.3131 0.3152
3110.000000 0.3173 0.3194 0.3216 0.3238 0.3259
3105.000000 0.3282 0.3307 0.3330 0.3353 0.3377
3100.000000 0.3400 0.3424 0.3447 0.3466 0.3484
3095.000000 0.3502 0.3518 0.3536 0.3552 0.3568
3090.000000 0.3584 0.3602 0.3618 0.3634 0.3650
3085.000000 0.3668 0.3684 0.3700 0.3716 0.3732
3080.000000 0.3747 0.3762 0.3778 0.3794 0.3809
3075.000000 0.3825 0.3841 0.3856 0.3872 0.3888
3070.000000 0.3905 0.3923 0.3940 0.3958 0.3976
3065.000000 0.3994 0.4012 0.4030 0.4048 0.4064
3060.000000 0.4082 0.4097 0.4110 0.4125 0.4139
3055.000000 0.4153 0.4167 0.4181 0.4196 0.4209
3050.000000 0.4223 0.4237 0.4260 0.4286 0.4310
3045.000000 0.4336 0.4355 0.4374 0.4392 0.4409
3040.000000 0.4421 0.4433 0.4445 0.4458 0.4470
3035.000000 0.4483 0.4495 0.4510 0.4524 0.4538
3030.000000 0.4551 0.4560 0.4570 0.4579 0.4585
3025.000000 0.4588 0.4591 0.4594 0.4597 0.4600
3020.000000 0.4603 0.4605 0.4606 0.4607 0.4608
3015.000000 0.4609 0.4609 0.4610 0.4610 0.4612
3010.000000 0.4614 0.4616 0.4619 0.4621 0.4624
3005.000000 0.4627 0.4633 0.4641 0.4648 0.4658
3000.000000 0.4683 0.4707 0.4732 0.4754 0.4774
2995.000000 0.4794 0.4814 0.4828 0.4843 0.4858
2990.000000 0.4873 0.4888 0.4903 0.4917 0.4932
2985.000000 0.4947 0.4962 0.4977 0.4992 0.5007
2980.000000 0.5022 0.5037 0.5051 0.5066 0.5081
2975.000000 0.5096 0.5110 0.5125 0.5140 0.5155
2970.000000 0.5170 0.5185 0.5199 0.5214 0.5228
2965.000000 0.5242 0.5255 0.5268 0.5282 0.5295
2960.000000 0.5308 0.5321 0.5334 0.5348 0.5360
2955.000000 0.5375 0.5388 0.5402 0.5415 0.5428
2950.000000 0.5441 0.5454 0.5467 0.5478 0.5489
2945.000000 0.5500 0.5512 0.5523 0.5534 0.5545
2940.000000 0.5556 0.5567 0.5578 0.5590 0.5601
2935.000000 0.5612 0.5626 0.5648 0.5669 0.5691
2930.000000 0.5715 0.5740 0.5765 0.5787 0.5806
2925.000000 0.5826 0.5845 0.5864 0.5883 0.5901
2920.000000 0.5919 0.5936 0.5953 0.5970 0.5983
2915.000000 0.5996 0.6009 0.6023 0.6036 0.6050
2910.000000 0.6062 0.6077 0.6090 0.6103 0.6117
2905.000000 0.6130 0.6143 0.6155 0.6166 0.6176
2900.000000 0.6187 0.6197 0.6207 0.6217 0.6227
2895.000000 0.6237 0.6248 0.6258 0.6268 0.6279
2890.000000 0.6289 0.6300 0.6310 0.6321 0.6333
2885.000000 0.6346 0.6359 0.6372 0.6385 0.6398
2880.000000 0.6415 0.6454 0.6493 0.6531 0.6557
2875.000000 0.6581 0.6605 0.6635 0.6669 0.6704
2870.000000 0.6734 0.6753 0.6771 0.6790 0.6801
2865.000000 0.6815 0.6826 0.6836 0.6845 0.6853
2860.000000 0.6861 0.6865 0.6871 0.6876 0.6880
2855.000000 0.6884 0.6887 0.6890 0.6893 0.6896
2850.000000 0.6900 0.6903 0.6906 0.6910 0.6912
2845.000000 0.6917 0.6919 0.6922 0.6925 0.6928
2840.000000 0.6933 0.6936 0.6939 0.6943 0.6946
2835.000000 0.6950 0.6954 0.6960 0.6965 0.6971
2830.000000 0.6978 0.6986 0.6993 0.7000 0.7007
2825.000000 0.7014 0.7021 0.7028 0.7035 0.7045
2820.000000 0.7057 0.7068 0.7080 0.7092 0.7104
2815.000000 0.7115 0.7125 0.7138 0.7149 0.7161
2810.000000 0.7174 0.7186 0.7200 0.7214 0.7228
2805.000000 0.7242 0.7256 0.7268 0.7283 0.7297
2800.000000 0.7310 0.7321 0.7332 0.7342 0.7351
2795.000000 0.7358 0.7365 0.7374 0.7381 0.7389
2790.000000 0.7397 0.7405 0.7411 0.7419 0.7425
2785.000000 0.7431 0.7437 0.7442 0.7446 0.7451
2780.000000 0.7456 0.7461 0.7465 0.7469 0.7475
2775.000000 0.7478 0.7484 0.7489 0.7494 0.7498
2770.000000 0.7503 0.7507 0.7511 0.7515 0.7518
2765.000000 0.7521 0.7524 0.7525 0.7528 0.7531
2760.000000 0.7534 0.7536 0.7539 0.7541 0.7543
2755.000000 0.7546 0.7548 0.7550 0.7553 0.7556
2750.000000 0.7558 0.7560 0.7562 0.7565 0.7567
2745.000000 0.7569 0.7571 0.7574 0.7575 0.7576
2740.000000 0.7578 0.7581 0.7583 0.7585 0.7586
2735.000000 0.7588 0.7590 0.7592 0.7594 0.7596
2730.000000 0.7597 0.7599 0.7601 0.7605 0.7607
2725.000000 0.7611 0.7614 0.7618 0.7621 0.7624
2720.000000 0.7628 0.7631 0.7634 0.7638 0.7641
2715.000000 0.7645 0.7648 0.7651 0.7655 0.7658
2710.000000 0.7661 0.7664 0.7667 0.7671 0.7674
2705.000000 0.7678 0.7681 0.7684 0.7688 0.7691
2700.000000 0.7695 0.7698 0.7700 0.7703 0.7706
2695.000000 0.7708 0.7711 0.7714 0.7717 0.7719
2690.000000 0.7721 0.7725 0.7728 0.7731 0.7734
2685.000000 0.7737 0.7740 0.7743 0.7746 0.7748
2680.000000 0.7751 0.7754 0.7757 0.7760 0.7762
2675.000000 0.7765 0.7768 0.7771 0.7775 0.7778
2670.000000 0.7783 0.7786 0.7790 0.7793 0.7797
2665.000000 0.7800 0.7803 0.7807 0.7811 0.7815
2660.000000 0.7819 0.7828 0.7838 0.7847 0.7857
2655.000000 0.7865 0.7875 0.7884 0.7892 0.7900
2650.000000 0.7908 0.7915 0.7924 0.7933 0.7941
2645.000000 0.7947 0.7951 0.7954 0.7957 0.7958
2640.000000 0.7961 0.7964 0.7965 0.7965 0.7964
2635.000000 0.7961 0.7956 0.7951 0.7945 0.7938
2630.000000 0.7930 0.7921 0.7917 0.7911 0.7907
2625.000000 0.7904 0.7900 0.7897 0.7894 0.7891
2620.000000 0.7889 0.7888 0.7888 0.7887 0.7887
2615.000000 0.7887 0.7888 0.7890 0.7894 0.7901
2610.000000 0.7908 0.7915 0.7925 0.7933 0.7942
2605.000000 0.7951 0.7960 0.7968 0.7978 0.7988
2600.000000 0.7998 0.8007 0.8017 0.8025 0.8036
2595.000000 0.8046 0.8055 0.8065 0.8074 0.8083
2590.000000 0.8093 0.8101 0.8111 0.8119 0.8128
2585.000000 0.8138 0.8148 0.8157 0.8165 0.8175
2580.000000 0.8184 0.8195 0.8205 0.8216 0.8227
2575.000000 0.8238 0.8249 0.8260 0.8271 0.8283
2570.000000 0.8294 0.8304 0.8314 0.8323 0.8332
2565.000000 0.8341 0.8349 0.8356 0.8363 0.8368
2560.000000 0.8375 0.8382 0.8385 0.8387 0.8390
2555.000000 0.8392 0.8395 0.8397 0.8400 0.8403
2550.000000 0.8407 0.8411 0.8415 0.8420 0.8424
2545.000000 0.8428 0.8432 0.8437 0.8446 0.8454
2540.000000 0.8462 0.8471 0.8478 0.8488 0.8496
2535.000000 0.8504 0.8512 0.8518 0.8525 0.8532
2530.000000 0.8539 0.8546 0.8552 0.8558 0.8563
2525.000000 0.8568 0.8571 0.8575 0.8580 0.8584
2520.000000 0.8588 0.8592 0.8595 0.8598 0.8601
2515.000000 0.8604 0.8606 0.8608 0.8609 0.8611
2510.000000 0.8613 0.8615 0.8617 0.8618 0.8618
2505.000000 0.8618 0.8618 0.8618 0.8618 0.8618
2500.000000 0.8618 0.8618 0.8617 0.8616 0.8615
2495.000000 0.8613 0.8613 0.8612 0.8611 0.8610
2490.000000 0.8609 0.8609 0.8609 0.8610 0.8614
2485.000000 0.8617 0.8621 0.8627 0.8633 0.8641
2480.000000 0.8649 0.8657 0.8665 0.8673 0.8681
2475.000000 0.8688 0.8696 0.8704 0.8712 0.8718
2470.000000 0.8727 0.8735 0.8742 0.8749 0.8757
2465.000000 0.8762 0.8766 0.8770 0.8773 0.8777
2460.000000 0.8781 0.8785 0.8788 0.8789 0.8790
2455.000000 0.8791 0.8792 0.8793 0.8794 0.8795
2450.000000 0.8796 0.8797 0.8799 0.8801 0.8804
2445.000000 0.8808 0.8812 0.8815 0.8818 0.8823
2440.000000 0.8827 0.8831 0.8840 0.8850 0.8862
2435.000000 0.8875 0.8889 0.8902 0.8915 0.8925
2430.000000 0.8934 0.8944 0.8953 0.8962 0.8971
2425.000000 0.8978 0.8984 0.8988 0.8992 0.8996
2420.000000 0.9000 0.9004 0.9008 0.9012 0.9015
2415.000000 0.9018 0.9023 0.9027 0.9028 0.9032
2410.000000 0.9033 0.9034 0.9035 0.9035 0.9036
2405.000000 0.9036 0.9036 0.9037 0.9038 0.9039
2400.000000 0.9039 0.9040 0.9040 0.9040 0.9041
2395.000000 0.9042 0.9043 0.9043 0.9043 0.9043
2390.000000 0.9044 0.9044 0.9044 0.9044 0.9044
2385.000000 0.9045 0.9045 0.9045 0.9045 0.9045
2380.000000 0.9046 0.9046 0.9046 0.9046 0.9046
2375.000000 0.9046 0.9046 0.9046 0.9046 0.9046
2370.000000 0.9046 0.9046 0.9046 0.9046 0.9046
2365.000000 0.9045 0.9045 0.9045 0.9045 0.9045
2360.000000 0.9045 0.9045 0.9045 0.9045 0.9045
2355.000000 0.9045 0.9045 0.9045 0.9045 0.9045
2350.000000 0.9045 0.9045 0.9045 0.9045 0.9045
2345.000000 0.9045 0.9045 0.9045 0.9045 0.9045
2340.000000 0.9045 0.9045 0.9046 0.9049 0.9052
2335.000000 0.9054 0.9059 0.9066 0.9074 0.9083
2330.000000 0.9092 0.9098 0.9105 0.9108 0.9111
2325.000000 0.9112 0.9112 0.9112 0.9112 0.9112
2320.000000 0.9112 0.9112 0.9112 0.9112 0.9112
2315.000000 0.9112 0.9113 0.9114 0.9115 0.9116
2310.000000 0.9117 0.9118 0.9120 0.9121 0.9121
2305.000000 0.9123 0.9125 0.9127 0.9128 0.9130
2300.000000 0.9131 0.9133 0.9135 0.9145 0.9156
2295.000000 0.9167 0.9178 0.9187 0.9193 0.9199
2290.000000 0.9206 0.9212 0.9218 0.9225 0.9231
2285.000000 0.9237 0.9242 0.9246 0.9251 0.9256
2280.000000 0.9260 0.9265 0.9270 0.9275 0.9280
2275.000000 0.9285 0.9289 0.9293 0.9298 0.9302
2270.000000 0.9306 0.9310 0.9314 0.9318 0.9323
2265.000000 0.9327 0.9330 0.9334 0.9337 0.9340
2260.000000 0.9344 0.9347 0.9350 0.9353 0.9356
2255.000000 0.9359 0.9362 0.9366 0.9370 0.9377
2250.000000 0.9383 0.9389 0.9395 0.9405 0.9415
2245.000000 0.9427 0.9438 0.9449 0.9460 0.9468
2240.000000 0.9475 0.9483 0.9490 0.9491 0.9492
2235.000000 0.9493 0.9494 0.9495 0.9497 0.9498
2230.000000 0.9499 0.9500 0.9502 0.9503 0.9504
2225.000000 0.9505 0.9506 0.9506 0.9507 0.9508
2220.000000 0.9509 0.9510 0.9511 0.9511 0.9512
2215.000000 0.9512 0.9513 0.9513 0.9513 0.9513
2210.000000 0.9513 0.9513 0.9513 0.9513 0.9512
2205.000000 0.9511 0.9510 0.9510 0.9508 0.9504
2200.000000 0.9500 0.9495 0.9488 0.9481 0.9473
2195.000000 0.9466 0.9463 0.9461 0.9458 0.9457
2190.000000 0.9457 0.9458 0.9460 0.9464 0.9468
2185.000000 0.9473 0.9478 0.9482 0.9487 0.9494
2180.000000 0.9504 0.9513 0.9523 0.9534 0.9545
2175.000000 0.9556 0.9568 0.9580 0.9592 0.9604
2170.000000 0.9616 0.9628 0.9642 0.9653 0.9663
2165.000000 0.9671 0.9678 0.9685 0.9692 0.9700
2160.000000 0.9704 0.9708 0.9709 0.9711 0.9712
2155.000000 0.9714 0.9715 0.9717 0.9718 0.9718
2150.000000 0.9721 0.9721 0.9723 0.9725 0.9725
2145.000000 0.9725 0.9725 0.9725 0.9725 0.9725
2140.000000 0.9724 0.9724 0.9723 0.9723 0.9721
2135.000000 0.9721 0.9721 0.9720 0.9720 0.9718
2130.000000 0.9718 0.9718 0.9718 0.9718 0.9718
2125.000000 0.9717 0.9716 0.9716 0.9715 0.9715
2120.000000 0.9714 0.9714 0.9713 0.9713 0.9712
2115.000000 0.9711 0.9711 0.9710 0.9710 0.9709
2110.000000 0.9709 0.9708 0.9708 0.9706 0.9705
2105.000000 0.9704 0.9703 0.9702 0.9701 0.9700
2100.000000 0.9699 0.9697 0.9696 0.9695 0.9694
2095.000000 0.9693 0.9693 0.9692 0.9692 0.9692
2090.000000 0.9691 0.9691 0.9690 0.9690 0.9689
2085.000000 0.9688 0.9688 0.9688 0.9688 0.9687
2080.000000 0.9687 0.9686 0.9686 0.9686 0.9687
2075.000000 0.9687 0.9688 0.9688 0.9689 0.9690
2070.000000 0.9690 0.9691 0.9691 0.9692 0.9693
2065.000000 0.9694 0.9697 0.9700 0.9702 0.9705
2060.000000 0.9707 0.9709 0.9712 0.9715 0.9717
2055.000000 0.9720 0.9723 0.9727 0.9731 0.9735
2050.000000 0.9739 0.9742 0.9746 0.9749 0.9753
2045.000000 0.9756 0.9759 0.9762 0.9765 0.9768
2040.000000 0.9771 0.9775 0.9780 0.9783 0.9787
2035.000000 0.9789 0.9789 0.9789 0.9787 0.9784
2030.000000 0.9781 0.9778 0.9777 0.9774 0.9771
2025.000000 0.9768 0.9766 0.9763 0.9761 0.9757
2020.000000 0.9755 0.9753 0.9750 0.9750 0.9752
2015.000000 0.9758 0.9763 0.9768 0.9771 0.9773
2010.000000 0.9774 0.9775 0.9777 0.9778 0.9778
2005.000000 0.9780 0.9781 0.9782 0.9784 0.9786
2000.000000 0.9788 0.9789 0.9791 0.9793 0.9795
1995.000000 0.9797 0.9799 0.9801 0.9803 0.9804
1990.000000 0.9806 0.9808 0.9810 0.9812 0.9814
1985.000000 0.9816 0.9818 0.9818 0.9820 0.9821
1980.000000 0.9823 0.9824 0.9825 0.9828 0.9828
1975.000000 0.9831 0.9833 0.9835 0.9837 0.9839
1970.000000 0.9841 0.9843 0.9845 0.9847 0.9850
1965.000000 0.9852 0.9852 0.9862 0.9849 0.9839
1960.000000 0.9828 0.9816 0.9797 0.9782 0.9770
1955.000000 0.9761 0.9753 0.9746 0.9738 0.9732
1950.000000 0.9725 0.9718 0.9714 0.9714 0.9713
1945.000000 0.9716 0.9718 0.9720 0.9721 0.9724
1940.000000 0.9727 0.9728 0.9731 0.9731 0.9731
1935.000000 0.9730 0.9728 0.9725 0.9723 0.9714
1930.000000 0.9684 0.9633 0.9599 0.9568 0.9545
1925.000000 0.9521 0.9504 0.9494 0.9488 0.9482
1920.000000 0.9475 0.9487 0.9473 0.9475 0.9482
1915.000000 0.9497 0.9517 0.9542 0.9563 0.9584
1910.000000 0.9603 0.9623 0.9642 0.9660 0.9678
1905.000000 0.9697 0.9715 0.9734 0.9752 0.9768
1900.000000 0.9781 0.9793 0.9806 0.9818 0.9832
1895.000000 0.9844 0.9855 0.9866 0.9877 0.9887
1890.000000 0.9889 0.9890 0.9892 0.9893 0.9894
1885.000000 0.9895 0.9896 0.9897 0.9898 0.9899
1880.000000 0.9899 0.9900 0.9901 0.9901 0.9903
1875.000000 0.9904 0.9905 0.9905 0.9906 0.9908
1870.000000 0.9908 0.9909 0.9910 0.9912 0.9914
1865.000000 0.9915 0.9917 0.9918 0.9921 0.9925
1860.000000 0.9930 0.9935 0.9940 0.9943 0.9944
1855.000000 0.9945 0.9946 0.9948 0.9948 0.9950
1850.000000 0.9951 0.9953 0.9953 0.9953 0.9953
1845.000000 0.9953 0.9953 0.9953 0.9953 0.9953
1840.000000 0.9953 0.9953 0.9953 0.9953 0.9953
1835.000000 0.9952 0.9950 0.9949 0.9948 0.9947
1830.000000 0.9945 0.9941 0.9932 0.9921 0.9911
1825.000000 0.9900 0.9887 0.9875 0.9864 0.9857
1820.000000 0.9849 0.9842 0.9837 0.9831 0.9825
1815.000000 0.9820 0.9814 0.9810 0.9807 0.9806
1810.000000 0.9806 0.9806 0.9805 0.9805 0.9805
1805.000000 0.9805 0.9805 0.9808 0.9811 0.9815
1800.000000 0.9818 0.9821 0.9825 0.9828 0.9831
1795.000000 0.9835 0.9839 0.9843 0.9847 0.9851
1790.000000 0.9855 0.9860 0.9863 0.9865 0.9868
1785.000000 0.9870 0.9871 0.9874 0.9875 0.9878
1780.000000 0.9880 0.9882 0.9882 0.9882 0.9882
1775.000000 0.9882 0.9882 0.9882 0.9882 0.9882
1770.000000 0.9882 0.9882 0.9881 0.9878 0.9875
1765.000000 0.9871 0.9868 0.9864 0.9861 0.9857
1760.000000 0.9854 0.9850 0.9844 0.9837 0.9828
1755.000000 0.9821 0.9815 0.9809 0.9803 0.9797
1750.000000 0.9791 0.9787 0.9784 0.9782 0.9780
1745.000000 0.9778 0.9775 0.9773 0.9770 0.9770
1740.000000 0.9768 0.9768 0.9768 0.9768 0.9767
1735.000000 0.9767 0.9767 0.9766 0.9765 0.9762
1730.000000 0.9756 0.9751 0.9746 0.9740 0.9735
1725.000000 0.9730 0.9721 0.9706 0.9682 0.9657
1720.000000 0.9642 0.9635 0.9631 0.9625 0.9621
1715.000000 0.9611 0.9595 0.9577 0.9557 0.9533
1710.000000 0.9508 0.9483 0.9460 0.9446 0.9437
1705.000000 0.9427 0.9418 0.9410 0.9401 0.9393
1700.000000 0.9385 0.9377 0.9370 0.9362 0.9353
1695.000000 0.9328 0.9294 0.9257 0.9218 0.9180
1690.000000 0.9151 0.9140 0.9128 0.9118 0.9107
1685.000000 0.9095 0.9081 0.9066 0.9046 0.9011
1680.000000 0.8949 0.8891 0.8855 0.8834 0.8817
1675.000000 0.8800 0.8775 0.8743 0.8711 0.8675
1670.000000 0.8625 0.8574 0.8514 0.8409 0.8300
1665.000000 0.8230 0.8189 0.8147 0.8105 0.8062
1660.000000 0.8017 0.7964 0.7911 0.7858 0.7805
1655.000000 0.7718 0.7608 0.7499 0.7411 0.7351
1650.000000 0.7293 0.7231 0.7133 0.7025 0.6918
1645.000000 0.6634 0.6460 0.6281 0.6049 0.5817
1640.000000 0.5558 0.5237 0.4915 0.4593 0.4270
1635.000000 0.3948 0.3624 0.3300 0.2977 0.2652
1630.000000 0.2327 0.2002 0.1740 0.1644 0.1637
1625.000000 0.1636 0.1636 0.1644 0.1658 0.1674
1620.000000 0.1687 0.1689 0.1690 0.1650 0.1552
1615.000000 0.1455 0.1357 0.1259 0.1161 0.1098
1610.000000 0.1056 0.1022 0.1008 0.1002 0.0997
1605.000000 0.0997 0.0997 0.1004 0.1016 0.1036
1600.000000 0.1108 0.1289 0.1535 0.1776 0.2017
1595.000000 0.2258 0.2501 0.2744 0.2985 0.3229
1590.000000 0.3472 0.3700 0.3857 0.3924 0.3986
1585.000000 0.4048 0.4123 0.4228 0.4362 0.4595
1580.000000 0.4829 0.5062 0.5298 0.5532 0.5767
1575.000000 0.6003 0.6238 0.6474 0.6653 0.6714
1570.000000 0.6768 0.6818 0.6865 0.6906 0.6943
1565.000000 0.6976 0.7010 0.7062 0.7150 0.7264
1560.000000 0.7399 0.7518 0.7607 0.7665 0.7715
1555.000000 0.7755 0.7789 0.7822 0.7854 0.7881
1550.000000 0.7888 0.7891 0.7878 0.7898 0.7898
1545.000000 0.7893 0.7887 0.7875 0.7853 0.7830
1540.000000 0.7801 0.7764 0.7725 0.7671 0.7601
1535.000000 0.7528 0.7448 0.7361 0.7268 0.7171
1530.000000 0.7050 0.6925 0.6655 0.5667 0.5091
1525.000000 0.4515 0.3938 0.3360 0.2783 0.2283
1520.000000 0.2114 0.2092 0.2085 0.2085 0.2093
1515.000000 0.2126 0.2198 0.2354 0.2584 0.2815
1510.000000 0.3046 0.3278 0.3510 0.3743 0.3975
1505.000000 0.4208 0.4441 0.4674 0.4907 0.5052
1500.000000 0.5112 0.5166 0.5216 0.5297 0.5405
1495.000000 0.5514 0.5623 0.5732 0.5842 0.5951
1490.000000 0.6060 0.6170 0.6280 0.6390 0.6478
1485.000000 0.6518 0.6542 0.6557 0.6565 0.6571
1480.000000 0.6568 0.6567 0.6557 0.6539 0.6457
1475.000000 0.6284 0.6095 0.5906 0.5717 0.5528
1470.000000 0.5337 0.5147 0.4977 0.4951 0.4939
1465.000000 0.4938 0.4938 0.4964 0.5012 0.5124
1460.000000 0.5278 0.5431 0.5584 0.5738 0.5893
1455.000000 0.6047 0.6202 0.6356 0.6511 0.6667
1450.000000 0.6821 0.6976 0.7134 0.7286 0.7357
1445.000000 0.7393 0.7425 0.7446 0.7458 0.7482
1440.000000 0.7468 0.7453 0.7435 0.7400 0.7356
1435.000000 0.7311 0.7265 0.7218 0.7108 0.6871
1430.000000 0.6528 0.6202 0.5876 0.5549 0.5236
1425.000000 0.5068 0.4948 0.4764 0.4716 0.4712
1420.000000 0.4764 0.4946 0.5160 0.5377 0.5592
1415.000000 0.5809 0.6023 0.6133 0.6144 0.6140
1410.000000 0.6148 0.6130 0.6081 0.6031 0.5981
1405.000000 0.5931 0.5881 0.5832 0.5784 0.5748
1400.000000 0.5712 0.5677 0.5640 0.5603 0.5565
1395.000000 0.5527 0.5491 0.5455 0.5420 0.5384
1390.000000 0.5347 0.5310 0.5278 0.5249 0.5226
1385.000000 0.5206 0.5197 0.5189 0.5202 0.5210
1380.000000 0.5221 0.5233 0.5250 0.5272 0.5307
1375.000000 0.5349 0.5403 0.5462 0.5529 0.5610
1370.000000 0.5709 0.5799 0.5909 0.5986 0.6043
1365.000000 0.6100 0.6140 0.6152 0.6159 0.6171
1360.000000 0.6156 0.6121 0.6073 0.6020 0.5972
1355.000000 0.5932 0.5905 0.5879 0.5862 0.5850
1350.000000 0.5815 0.5836 0.5836 0.5836 0.5841
1345.000000 0.5854 0.5868 0.5881 0.5894 0.5908
1340.000000 0.5921 0.5930 0.5935 0.5902 0.5875
1335.000000 0.5827 0.5616 0.5172 0.4836 0.4751
1330.000000 0.4688 0.4635 0.4591 0.4560 0.4533
1325.000000 0.4483 0.4483 0.4482 0.4482 0.4503
1320.000000 0.4554 0.4671 0.4791 0.4910 0.5104
1315.000000 0.5103 0.5103 0.5079 0.4999 0.4899
1310.000000 0.4840 0.4793 0.4538 0.4204 0.3868
1305.000000 0.3468 0.3478 0.3516 0.3586 0.3654
1300.000000 0.3720 0.3749 0.3677 0.3606 0.3536
1295.000000 0.3464 0.3394 0.3310 0.3318 0.3424
1290.000000 0.3650 0.3876 0.4103 0.4346 0.4681
1285.000000 0.4890 0.5060 0.5172 0.5279 0.5378
1280.000000 0.5516 0.5601 0.5660 0.5751 0.5809
1275.000000 0.5856 0.5883 0.5914 0.5902 0.5904
1270.000000 0.5896 0.5888 0.5862 0.5776 0.5641
1265.000000 0.5457 0.5209 0.4899 0.4587 0.4276
1260.000000 0.3964 0.3650 0.3339 0.3025 0.2696
1255.000000 0.2533 0.2500 0.2480 0.2462 0.2445
1250.000000 0.2421 0.2367 0.2288 0.2180 0.2071
1245.000000 0.1961 0.1852 0.1742 0.1632 0.1542
1240.000000 0.1541 0.1541 0.1574 0.1635 0.1684
1235.000000 0.1722 0.1752 0.1776 0.1791 0.1760
1230.000000 0.1681 0.1618 0.1552 0.1486 0.1420
1225.000000 0.1354 0.1287 0.1223 0.1177 0.1135
1220.000000 0.1098 0.1066 0.1027 0.0960 0.0866
1215.000000 0.0784 0.0689 0.0585 0.0541 0.0509
1210.000000 0.0513 0.0532 0.0615 0.0704 0.0794
1205.000000 0.0892 0.1003 0.1107 0.1209 0.1319
1200.000000 0.1425 0.1548 0.1604 0.1616 0.1614
1195.000000 0.1598 0.1573 0.1570 0.1591 0.1642
1190.000000 0.1702 0.1773 0.1874 0.1945 0.1984
1185.000000 0.2034 0.2090 0.2127 0.2132 0.2117
1180.000000 0.2099 0.2100 0.2141 0.2209 0.2263
1175.000000 0.2324 0.2301 0.2304 0.2289 0.2258
1170.000000 0.2202 0.2142 0.2049 0.1809 0.1562
1165.000000 0.1315 0.1120 0.1092 0.1077 0.1064
1160.000000 0.1052 0.1016 0.0912 0.0777 0.0694
1155.000000 0.0619 0.0511 0.0423 0.0419 0.0451
1150.000000 0.0557 0.0668 0.0791 0.0958 0.1138
1145.000000 0.1318 0.1498 0.1679 0.1859 0.2040
1140.000000 0.2222 0.2404 0.2585 0.2769 0.2954
1135.000000 0.3151 0.3352 0.3530 0.3687 0.3795
1130.000000 0.3905 0.4030 0.4166 0.4383 0.4545
1125.000000 0.4672 0.4871 0.5002 0.5117 0.5221
1120.000000 0.5310 0.5366 0.5405 0.5414 0.5425
1115.000000 0.5401 0.5346 0.5291 0.5223 0.5255
1110.000000 0.5319 0.5422 0.5522 0.5633 0.5764
1105.000000 0.5809 0.5799 0.5780 0.5756 0.5737
1100.000000 0.5781 0.5974 0.6165 0.6330 0.6467
1095.000000 0.6593 0.6710 0.6811 0.6908 0.6988
1090.000000 0.7062 0.7136 0.7199 0.7261 0.7318
1085.000000 0.7371 0.7425 0.7471 0.7511 0.7512
1080.000000 0.7512 0.7512 0.7517 0.7532 0.7575
1075.000000 0.7641 0.7708 0.7760 0.7812 0.7874
1070.000000 0.7933 0.7965 0.7950 0.7953 0.7922
1065.000000 0.7862 0.7635 0.7332 0.7028 0.6724
1060.000000 0.6418 0.6275 0.6279 0.6306 0.6282
1055.000000 0.6086 0.5646 0.5212 0.4777 0.4342
1050.000000 0.3906 0.3468 0.3031 0.2593 0.2139
1045.000000 0.1603 0.1541 0.1341 0.1168 0.0991
1040.000000 0.0999 0.1031 0.1446 0.1804 0.2164
1035.000000 0.2525 0.2885 0.3247 0.3609 0.3972
1030.000000 0.4334 0.4734 0.5125 0.5406 0.5572
1025.000000 0.5764 0.5918 0.5997 0.6047 0.6077
1020.000000 0.6109 0.6206 0.6378 0.6508 0.6595
1015.000000 0.6637 0.6636 0.6635 0.6565 0.6465
1010.000000 0.6365 0.6139 0.6160 0.6162 0.6162
1005.000000 0.6266 0.6381 0.6441 0.6471 0.6460
1000.000000 0.5212 0.5262 0.5828 0.5829 0.5618
995.000000 0.5247 0.4908 0.4917 0.5052 0.5343
990.000000 0.5634 0.5926 0.6302 0.6525 0.6728
985.000000 0.6915 0.7065 0.7158 0.7248 0.7334
980.000000 0.7417 0.7489 0.7553 0.7587 0.7597
975.000000 0.7614 0.7648 0.7701 0.7760 0.7825
970.000000 0.7890 0.7947 0.8003 0.8051 0.8094
965.000000 0.8125 0.8137 0.8141 0.8133 0.8112
960.000000 0.8103 0.8118 0.8158 0.8199 0.8228
955.000000 0.8265 0.8248 0.8234 0.8172 0.8040
950.000000 0.7838 0.7594 0.7298 0.6846 0.6497
945.000000 0.5712 0.4827 0.3946 0.3689 0.3684
940.000000 0.3847 0.4191 0.4523 0.4855 0.5188
935.000000 0.5523 0.5858 0.6193 0.6431 0.6483
930.000000 0.6501 0.6522 0.6604 0.6812 0.7097
925.000000 0.7326 0.7493 0.7645 0.7765 0.7882
920.000000 0.7976 0.8028 0.8065 0.8121 0.8178
915.000000 0.8235 0.8292 0.8349 0.8397 0.8417
910.000000 0.8425 0.8446 0.8468 0.8492 0.8496
905.000000 0.8511 0.8532 0.8545 0.8552 0.8578
900.000000 0.8608 0.8618 0.8616 0.8613 0.8625
895.000000 0.8664 0.8718 0.8718 0.8718 0.8700
890.000000 0.8691 0.8718 0.8736 0.8742 0.8731
885.000000 0.8725 0.8727 0.8759 0.8750 0.8746
880.000000 0.8738 0.8725 0.8707 0.8670 0.8635
875.000000 0.8653 0.8675 0.8673 0.8633 0.8610
870.000000 0.8606 0.8601 0.8596 0.8580 0.8532
865.000000 0.8460 0.8465 0.8467 0.8446 0.8402
860.000000 0.8345 0.8248 0.8138 0.7961 0.7754
855.000000 0.7551 0.7369 0.7191 0.7101 0.7098
850.000000 0.7107 0.7114 0.7053 0.6726 0.6434
845.000000 0.6141 0.5846 0.5552 0.5256 0.4960
840.000000 0.4664 0.4429 0.4309 0.4274 0.4331
835.000000 0.4676 0.5032 0.5388 0.5746 0.5929
830.000000 0.5880 0.5616 0.5262 0.5110 0.5118
825.000000 0.5275 0.5274 0.5296 0.5467 0.5818
820.000000 0.6169 0.6511 0.6732 0.6900 0.7051
815.000000 0.7149 0.7231 0.7305 0.7356 0.7390
810.000000 0.7415 0.7437 0.7442 0.7426 0.7410
805.000000 0.7482 0.7451 0.7456 0.7428 0.7391
800.000000 0.7354 0.7311 0.7261 0.7211 0.7158
795.000000 0.7106 0.7051 0.6989 0.6918 0.6824
790.000000 0.6715 0.6569 0.6374 0.6078 0.5764
785.000000 0.5655 0.5604 0.5575 0.5545 0.5505
780.000000 0.5417 0.5255 0.4894 0.4534 0.4165
775.000000 0.3794 0.3564 0.3486 0.3376 0.3026
770.000000 0.2708 0.2412 0.2405 0.2464 0.2692
765.000000 0.2929 0.3002 0.3046 0.3108 0.3173
760.000000 0.3259 0.3348 0.3438 0.3528 0.3625
755.000000 0.3722 0.3818 0.3916 0.4032 0.4080
750.000000 0.4129 0.4170 0.4205 0.4241 0.4275
745.000000 0.4306 0.4357 0.4421 0.4485 0.4533
740.000000 0.4552 0.4564 0.4573 0.4599 0.4577
735.000000 0.4527 0.4466 0.4458 0.4440 0.4309
730.000000 0.4288 0.4397 0.4603 0.4750 0.4903
725.000000 0.5033 0.5168 0.5305 0.5402 0.5431
720.000000 0.5443 0.5489 0.5585 0.5665 0.5743
715.000000 0.5816 0.5862 0.5862 0.5879 0.6043
710.000000 0.6079 0.6134 0.6198 0.6262 0.6315
705.000000 0.6378 0.6446 0.6457 0.6471 0.6407
700.000000 0.6419 0.6364 0.6202 0.5843 0.5386
695.000000 0.4848 0.4834 0.5055 0.5355 0.5558
690.000000 0.5733 0.5867 0.5946 0.5983 0.6023
685.000000 0.6096 0.6184 0.6305 0.6491 0.6671
680.000000 0.6708 0.6841 0.6965 0.7065 0.7100
675.000000 0.7196 0.7289 0.7345 0.7371 0.7394
670.000000 0.7407 0.7443 0.7490 0.7499 0.7549
665.000000 0.7601 0.7653 0.7743 0.7743 0.7758
660.000000 0.7765 0.7785 0.7832
##END=
