##TITLE=Copper, bis(2,4-hexanedionato)-
##JCAMP-DX=4.24
$$ By DXEDIT 1.05 (RS McDonald)
##DATA TYPE=INFRARED SPECTRUM
##CLASS=COBLENTZ III
##ORIGIN=DOW CHEMICAL COMPANY
##OWNER=COPYRIGHT (C) 1988 by COBLENTZ SOCIETY INC.
Collection (C) 2018 copyright by the U.S. Secretary of Commerce
on behalf of the United States of America. All rights reserved.
##DATE=1965/12/14
##MOLFORM=C12 H18 Cu O4
##SOURCE REFERENCE=COBLENTZ NO. 07189
##$NIST ID=B6007189
##$NIST SOURCE=COBLENTZ
##$NIST IMAGE=cob7189
##SPECTROMETER/DATA SYSTEM=DOW KBr FOREPRISM-GRATING
##INSTRUMENT PARAMETERS=BLAZED AT 3.5, 12.0, 20.0 MICRON AND CHANGED AT 5.0, 7.5, 14.9 MICRON
##STATE=SOLID (SPLIT MULL), FLUOROLUBE FOR 3800-1330 CM^-^1, NUJOL FOR 1330-450 CM^-^1
$$ SPECTRAL FEATURE AT 1997 CM^-^1 IS AN ARTIFACT CAUSED BY GRATING CHANGE
##SAMPLING PROCEDURE=TRANSMISSION
##RESOLUTION=2
##DATA PROCESSING=DIGITIZED BY COBLENTZ SOCIETY (BATCH I) FROM HARD COPY
##XUNITS=1/CM
##YUNITS=TRANSMITTANCE
##XFACTOR=1
##YFACTOR=1
##DELTAX=1
##FIRSTX=3790
##LASTX=457
##FIRSTY=0.745
##MAXX=3790
##MINX=457
##MAXY=0.8824
##MINY=0.1254
##NPOINTS=3334
##XYDATA=(X++(Y..Y))
3790.000000 0.7450 0.7448 0.7446 0.7442 0.7438
3785.000000 0.7434 0.7430 0.7425 0.7421 0.7418
3780.000000 0.7415 0.7414 0.7414 0.7412 0.7411
3775.000000 0.7411 0.7411 0.7410 0.7408 0.7408
3770.000000 0.7407 0.7407 0.7408 0.7408 0.7408
3765.000000 0.7408 0.7408 0.7408 0.7410 0.7410
3760.000000 0.7411 0.7411 0.7411 0.7411 0.7412
3755.000000 0.7415 0.7418 0.7421 0.7425 0.7428
3750.000000 0.7433 0.7436 0.7440 0.7443 0.7447
3745.000000 0.7451 0.7457 0.7461 0.7465 0.7469
3740.000000 0.7475 0.7476 0.7478 0.7480 0.7482
3735.000000 0.7483 0.7484 0.7485 0.7487 0.7488
3730.000000 0.7488 0.7488 0.7488 0.7485 0.7483
3725.000000 0.7480 0.7478 0.7475 0.7472 0.7469
3720.000000 0.7468 0.7465 0.7462 0.7462 0.7462
3715.000000 0.7462 0.7462 0.7462 0.7462 0.7461
3710.000000 0.7461 0.7461 0.7461 0.7464 0.7467
3705.000000 0.7468 0.7471 0.7474 0.7476 0.7478
3700.000000 0.7480 0.7480 0.7478 0.7475 0.7474
3695.000000 0.7471 0.7468 0.7465 0.7464 0.7462
3690.000000 0.7462 0.7461 0.7461 0.7461 0.7460
3685.000000 0.7460 0.7460 0.7461 0.7464 0.7465
3680.000000 0.7468 0.7471 0.7475 0.7482 0.7488
3675.000000 0.7493 0.7499 0.7501 0.7504 0.7506
3670.000000 0.7508 0.7511 0.7514 0.7515 0.7518
3665.000000 0.7521 0.7524 0.7525 0.7528 0.7528
3660.000000 0.7528 0.7525 0.7525 0.7522 0.7521
3655.000000 0.7518 0.7515 0.7512 0.7511 0.7508
3650.000000 0.7506 0.7503 0.7500 0.7497 0.7495
3645.000000 0.7493 0.7492 0.7492 0.7493 0.7493
3640.000000 0.7494 0.7494 0.7495 0.7495 0.7496
3635.000000 0.7496 0.7496 0.7496 0.7497 0.7497
3630.000000 0.7498 0.7498 0.7499 0.7499 0.7500
3625.000000 0.7500 0.7501 0.7501 0.7501 0.7501
3620.000000 0.7503 0.7503 0.7504 0.7505 0.7507
3615.000000 0.7508 0.7508 0.7510 0.7511 0.7512
3610.000000 0.7514 0.7515 0.7515 0.7517 0.7518
3605.000000 0.7519 0.7521 0.7522 0.7525 0.7525
3600.000000 0.7528 0.7528 0.7531 0.7533 0.7535
3595.000000 0.7536 0.7538 0.7539 0.7540 0.7541
3590.000000 0.7542 0.7543 0.7545 0.7546 0.7547
3585.000000 0.7548 0.7549 0.7543 0.7537 0.7522
3580.000000 0.7508 0.7495 0.7482 0.7468 0.7454
3575.000000 0.7449 0.7444 0.7445 0.7446 0.7453
3570.000000 0.7461 0.7469 0.7478 0.7486 0.7493
3565.000000 0.7498 0.7504 0.7508 0.7515 0.7517
3560.000000 0.7518 0.7519 0.7521 0.7521 0.7522
3555.000000 0.7522 0.7524 0.7525 0.7525 0.7525
3550.000000 0.7526 0.7526 0.7526 0.7525 0.7525
3545.000000 0.7525 0.7524 0.7522 0.7521 0.7521
3540.000000 0.7521 0.7519 0.7518 0.7518 0.7517
3535.000000 0.7515 0.7515 0.7515 0.7514 0.7512
3530.000000 0.7511 0.7511 0.7511 0.7511 0.7511
3525.000000 0.7510 0.7510 0.7510 0.7510 0.7510
3520.000000 0.7510 0.7510 0.7510 0.7510 0.7510
3515.000000 0.7508 0.7508 0.7508 0.7508 0.7508
3510.000000 0.7508 0.7508 0.7508 0.7508 0.7508
3505.000000 0.7508 0.7508 0.7508 0.7508 0.7508
3500.000000 0.7508 0.7508 0.7508 0.7508 0.7508
3495.000000 0.7508 0.7510 0.7510 0.7510 0.7510
3490.000000 0.7511 0.7511 0.7511 0.7511 0.7511
3485.000000 0.7511 0.7511 0.7511 0.7511 0.7511
3480.000000 0.7512 0.7512 0.7512 0.7512 0.7514
3475.000000 0.7514 0.7514 0.7514 0.7514 0.7514
3470.000000 0.7515 0.7515 0.7515 0.7515 0.7517
3465.000000 0.7517 0.7518 0.7518 0.7518 0.7518
3460.000000 0.7519 0.7519 0.7521 0.7521 0.7521
3455.000000 0.7521 0.7522 0.7522 0.7524 0.7524
3450.000000 0.7525 0.7525 0.7525 0.7525 0.7526
3445.000000 0.7526 0.7528 0.7528 0.7528 0.7528
3440.000000 0.7530 0.7530 0.7531 0.7531 0.7532
3435.000000 0.7533 0.7534 0.7534 0.7535 0.7536
3430.000000 0.7537 0.7537 0.7538 0.7538 0.7539
3425.000000 0.7540 0.7541 0.7541 0.7542 0.7543
3420.000000 0.7544 0.7544 0.7545 0.7546 0.7547
3415.000000 0.7547 0.7548 0.7548 0.7549 0.7550
3410.000000 0.7551 0.7551 0.7551 0.7553 0.7554
3405.000000 0.7554 0.7555 0.7556 0.7557 0.7557
3400.000000 0.7558 0.7558 0.7560 0.7560 0.7561
3395.000000 0.7561 0.7561 0.7562 0.7564 0.7565
3390.000000 0.7565 0.7567 0.7568 0.7568 0.7569
3385.000000 0.7571 0.7571 0.7572 0.7574 0.7575
3380.000000 0.7576 0.7578 0.7578 0.7580 0.7581
3375.000000 0.7582 0.7583 0.7584 0.7585 0.7586
3370.000000 0.7587 0.7588 0.7590 0.7591 0.7592
3365.000000 0.7593 0.7594 0.7595 0.7596 0.7597
3360.000000 0.7598 0.7599 0.7600 0.7601 0.7603
3355.000000 0.7604 0.7605 0.7606 0.7607 0.7608
3350.000000 0.7608 0.7610 0.7611 0.7611 0.7614
3345.000000 0.7615 0.7615 0.7617 0.7618 0.7618
3340.000000 0.7619 0.7621 0.7621 0.7621 0.7622
3335.000000 0.7622 0.7624 0.7625 0.7625 0.7625
3330.000000 0.7626 0.7628 0.7628 0.7628 0.7630
3325.000000 0.7630 0.7631 0.7632 0.7633 0.7633
3320.000000 0.7634 0.7634 0.7635 0.7636 0.7637
3315.000000 0.7637 0.7638 0.7638 0.7639 0.7640
3310.000000 0.7641 0.7641 0.7642 0.7643 0.7644
3305.000000 0.7644 0.7645 0.7645 0.7646 0.7647
3300.000000 0.7648 0.7648 0.7649 0.7649 0.7650
3295.000000 0.7651 0.7651 0.7651 0.7653 0.7654
3290.000000 0.7655 0.7655 0.7656 0.7657 0.7658
3285.000000 0.7658 0.7658 0.7660 0.7661 0.7661
3280.000000 0.7661 0.7662 0.7664 0.7664 0.7665
3275.000000 0.7665 0.7667 0.7667 0.7668 0.7668
3270.000000 0.7669 0.7669 0.7671 0.7671 0.7672
3265.000000 0.7672 0.7674 0.7675 0.7675 0.7675
3260.000000 0.7676 0.7678 0.7678 0.7678 0.7680
3255.000000 0.7681 0.7682 0.7682 0.7683 0.7684
3250.000000 0.7685 0.7685 0.7686 0.7686 0.7687
3245.000000 0.7687 0.7688 0.7688 0.7689 0.7689
3240.000000 0.7690 0.7690 0.7691 0.7692 0.7693
3235.000000 0.7693 0.7694 0.7694 0.7695 0.7695
3230.000000 0.7696 0.7696 0.7697 0.7697 0.7698
3225.000000 0.7698 0.7699 0.7700 0.7701 0.7701
3220.000000 0.7701 0.7703 0.7704 0.7704 0.7705
3215.000000 0.7706 0.7707 0.7707 0.7708 0.7708
3210.000000 0.7710 0.7710 0.7711 0.7711 0.7711
3205.000000 0.7712 0.7714 0.7714 0.7715 0.7715
3200.000000 0.7715 0.7715 0.7715 0.7715 0.7717
3195.000000 0.7717 0.7717 0.7715 0.7715 0.7711
3190.000000 0.7708 0.7706 0.7704 0.7701 0.7698
3185.000000 0.7695 0.7692 0.7689 0.7686 0.7683
3180.000000 0.7681 0.7678 0.7675 0.7671 0.7668
3175.000000 0.7665 0.7661 0.7658 0.7656 0.7655
3170.000000 0.7655 0.7654 0.7654 0.7653 0.7653
3165.000000 0.7651 0.7651 0.7651 0.7653 0.7654
3160.000000 0.7655 0.7656 0.7658 0.7658 0.7660
3155.000000 0.7661 0.7662 0.7664 0.7665 0.7665
3150.000000 0.7668 0.7668 0.7671 0.7672 0.7675
3145.000000 0.7676 0.7680 0.7682 0.7684 0.7686
3140.000000 0.7688 0.7690 0.7692 0.7694 0.7696
3135.000000 0.7698 0.7700 0.7701 0.7703 0.7705
3130.000000 0.7707 0.7708 0.7710 0.7711 0.7714
3125.000000 0.7715 0.7717 0.7718 0.7719 0.7721
3120.000000 0.7724 0.7725 0.7726 0.7728 0.7730
3115.000000 0.7731 0.7733 0.7734 0.7736 0.7737
3110.000000 0.7738 0.7739 0.7741 0.7742 0.7744
3105.000000 0.7745 0.7747 0.7748 0.7750 0.7750
3100.000000 0.7751 0.7751 0.7751 0.7750 0.7750
3095.000000 0.7750 0.7750 0.7750 0.7750 0.7749
3090.000000 0.7748 0.7745 0.7742 0.7739 0.7736
3085.000000 0.7733 0.7730 0.7726 0.7724 0.7721
3080.000000 0.7718 0.7717 0.7717 0.7717 0.7718
3075.000000 0.7718 0.7719 0.7721 0.7714 0.7725
3070.000000 0.7730 0.7733 0.7718 0.7740 0.7744
3065.000000 0.7748 0.7751 0.7755 0.7758 0.7761
3060.000000 0.7765 0.7765 0.7768 0.7769 0.7771
3055.000000 0.7772 0.7775 0.7775 0.7778 0.7778
3050.000000 0.7781 0.7782 0.7784 0.7784 0.7785
3045.000000 0.7785 0.7785 0.7785 0.7785 0.7785
3040.000000 0.7786 0.7786 0.7786 0.7786 0.7786
3035.000000 0.7786 0.7786 0.7786 0.7786 0.7786
3030.000000 0.7786 0.7786 0.7786 0.7783 0.7780
3025.000000 0.7776 0.7775 0.7771 0.7768 0.7765
3020.000000 0.7764 0.7758 0.7753 0.7747 0.7742
3015.000000 0.7736 0.7731 0.7722 0.7715 0.7708
3010.000000 0.7700 0.7691 0.7683 0.7674 0.7665
3005.000000 0.7651 0.7640 0.7626 0.7615 0.7601
3000.000000 0.7590 0.7571 0.7554 0.7526 0.7501
2995.000000 0.7460 0.7418 0.7261 0.7104 0.7053
2990.000000 0.7003 0.6972 0.6943 0.6928 0.6914
2985.000000 0.6903 0.6892 0.6884 0.6875 0.6868
2980.000000 0.6860 0.6851 0.6844 0.6835 0.6826
2975.000000 0.6818 0.6811 0.6803 0.6795 0.6788
2970.000000 0.6748 0.6775 0.6751 0.6764 0.6758
2965.000000 0.6797 0.6836 0.6885 0.6934 0.6984
2960.000000 0.7035 0.7072 0.7111 0.7143 0.7175
2955.000000 0.7188 0.7201 0.7203 0.7205 0.7207
2950.000000 0.7230 0.7210 0.7211 0.7201 0.7191
2945.000000 0.7158 0.7128 0.7039 0.6950 0.6884
2940.000000 0.6818 0.6800 0.6776 0.6775 0.6771
2935.000000 0.6765 0.6760 0.6758 0.6758 0.6792
2930.000000 0.6825 0.6881 0.6936 0.6961 0.6989
2925.000000 0.7006 0.7022 0.7032 0.7042 0.7051
2920.000000 0.7061 0.7069 0.7080 0.7089 0.7099
2915.000000 0.7108 0.7118 0.7128 0.7140 0.7150
2910.000000 0.7161 0.7171 0.7182 0.7192 0.7203
2905.000000 0.7214 0.7225 0.7237 0.7249 0.7261
2900.000000 0.7272 0.7285 0.7297 0.7306 0.7315
2895.000000 0.7322 0.7331 0.7338 0.7345 0.7349
2890.000000 0.7354 0.7358 0.7361 0.7361 0.7362
2885.000000 0.7362 0.7364 0.7364 0.7364 0.7364
2880.000000 0.7364 0.7361 0.7360 0.7358 0.7357
2875.000000 0.7357 0.7357 0.7372 0.7390 0.7415
2870.000000 0.7442 0.7468 0.7497 0.7511 0.7526
2865.000000 0.7538 0.7550 0.7561 0.7574 0.7586
2860.000000 0.7598 0.7610 0.7621 0.7630 0.7638
2855.000000 0.7645 0.7653 0.7661 0.7668 0.7675
2850.000000 0.7684 0.7691 0.7699 0.7707 0.7715
2845.000000 0.7721 0.7730 0.7737 0.7744 0.7749
2840.000000 0.7755 0.7761 0.7767 0.7772 0.7778
2835.000000 0.7784 0.7790 0.7796 0.7801 0.7807
2830.000000 0.7812 0.7818 0.7825 0.7828 0.7834
2825.000000 0.7838 0.7842 0.7846 0.7850 0.7854
2820.000000 0.7858 0.7861 0.7865 0.7869 0.7874
2815.000000 0.7878 0.7882 0.7886 0.7890 0.7894
2810.000000 0.7898 0.7901 0.7906 0.7910 0.7914
2805.000000 0.7918 0.7921 0.7925 0.7928 0.7932
2800.000000 0.7935 0.7937 0.7940 0.7942 0.7944
2795.000000 0.7946 0.7949 0.7951 0.7953 0.7955
2790.000000 0.7958 0.7960 0.7961 0.7964 0.7967
2785.000000 0.7968 0.7971 0.7971 0.7974 0.7975
2780.000000 0.7976 0.7978 0.7980 0.7981 0.7983
2775.000000 0.7984 0.7986 0.7987 0.7989 0.7990
2770.000000 0.7991 0.7992 0.7994 0.7995 0.7997
2765.000000 0.7998 0.8000 0.8001 0.8003 0.8004
2760.000000 0.8006 0.8007 0.8008 0.8010 0.8011
2755.000000 0.8012 0.8014 0.8015 0.8017 0.8018
2750.000000 0.8019 0.8021 0.8022 0.8024 0.8025
2745.000000 0.8025 0.8028 0.8028 0.8031 0.8032
2740.000000 0.8033 0.8034 0.8036 0.8037 0.8039
2735.000000 0.8040 0.8042 0.8043 0.8044 0.8045
2730.000000 0.8047 0.8048 0.8050 0.8051 0.8051
2725.000000 0.8054 0.8056 0.8058 0.8060 0.8061
2720.000000 0.8064 0.8065 0.8067 0.8068 0.8071
2715.000000 0.8072 0.8075 0.8075 0.8078 0.8080
2710.000000 0.8082 0.8084 0.8086 0.8088 0.8090
2705.000000 0.8091 0.8093 0.8095 0.8097 0.8099
2700.000000 0.8101 0.8101 0.8104 0.8106 0.8108
2695.000000 0.8110 0.8111 0.8114 0.8115 0.8117
2690.000000 0.8118 0.8119 0.8121 0.8124 0.8125
2685.000000 0.8126 0.8128 0.8130 0.8132 0.8133
2680.000000 0.8135 0.8136 0.8138 0.8139 0.8140
2675.000000 0.8141 0.8143 0.8144 0.8146 0.8147
2670.000000 0.8148 0.8149 0.8151 0.8151 0.8154
2665.000000 0.8155 0.8156 0.8157 0.8158 0.8160
2660.000000 0.8161 0.8162 0.8164 0.8165 0.8167
2655.000000 0.8168 0.8169 0.8171 0.8172 0.8174
2650.000000 0.8175 0.8176 0.8178 0.8180 0.8182
2645.000000 0.8183 0.8185 0.8186 0.8188 0.8190
2640.000000 0.8192 0.8193 0.8195 0.8196 0.8197
2635.000000 0.8198 0.8199 0.8200 0.8201 0.8202
2630.000000 0.8203 0.8204 0.8205 0.8206 0.8207
2625.000000 0.8208 0.8209 0.8210 0.8212 0.8213
2620.000000 0.8215 0.8216 0.8218 0.8218 0.8221
2615.000000 0.8221 0.8224 0.8225 0.8227 0.8228
2610.000000 0.8230 0.8231 0.8233 0.8234 0.8235
2605.000000 0.8236 0.8238 0.8239 0.8240 0.8241
2600.000000 0.8242 0.8243 0.8245 0.8246 0.8247
2595.000000 0.8248 0.8249 0.8250 0.8251 0.8252
2590.000000 0.8254 0.8255 0.8256 0.8257 0.8258
2585.000000 0.8259 0.8260 0.8261 0.8262 0.8263
2580.000000 0.8264 0.8264 0.8264 0.8264 0.8265
2575.000000 0.8265 0.8266 0.8266 0.8267 0.8267
2570.000000 0.8268 0.8268 0.8268 0.8268 0.8270
2565.000000 0.8270 0.8270 0.8270 0.8271 0.8271
2560.000000 0.8271 0.8271 0.8273 0.8273 0.8274
2555.000000 0.8274 0.8275 0.8275 0.8275 0.8275
2550.000000 0.8277 0.8277 0.8277 0.8277 0.8278
2545.000000 0.8278 0.8278 0.8278 0.8280 0.8280
2540.000000 0.8281 0.8281 0.8282 0.8282 0.8283
2535.000000 0.8283 0.8284 0.8284 0.8284 0.8284
2530.000000 0.8285 0.8285 0.8286 0.8286 0.8287
2525.000000 0.8287 0.8288 0.8288 0.8289 0.8289
2520.000000 0.8290 0.8290 0.8291 0.8291 0.8292
2515.000000 0.8292 0.8292 0.8292 0.8293 0.8293
2510.000000 0.8294 0.8294 0.8295 0.8295 0.8296
2505.000000 0.8296 0.8297 0.8297 0.8298 0.8298
2500.000000 0.8299 0.8299 0.8300 0.8300 0.8301
2495.000000 0.8301 0.8302 0.8302 0.8303 0.8303
2490.000000 0.8304 0.8304 0.8305 0.8305 0.8306
2485.000000 0.8307 0.8308 0.8308 0.8309 0.8309
2480.000000 0.8309 0.8309 0.8309 0.8309 0.8309
2475.000000 0.8309 0.8309 0.8309 0.8309 0.8309
2470.000000 0.8309 0.8308 0.8308 0.8308 0.8308
2465.000000 0.8308 0.8308 0.8308 0.8308 0.8307
2460.000000 0.8307 0.8307 0.8307 0.8307 0.8307
2455.000000 0.8307 0.8307 0.8306 0.8306 0.8306
2450.000000 0.8306 0.8306 0.8306 0.8306 0.8306
2445.000000 0.8305 0.8305 0.8305 0.8305 0.8305
2440.000000 0.8306 0.8306 0.8307 0.8307 0.8308
2435.000000 0.8308 0.8309 0.8309 0.8310 0.8310
2430.000000 0.8311 0.8311 0.8312 0.8312 0.8313
2425.000000 0.8313 0.8314 0.8314 0.8315 0.8315
2420.000000 0.8316 0.8316 0.8317 0.8317 0.8318
2415.000000 0.8318 0.8318 0.8318 0.8320 0.8320
2410.000000 0.8320 0.8320 0.8320 0.8320 0.8320
2405.000000 0.8320 0.8320 0.8320 0.8320 0.8320
2400.000000 0.8320 0.8320 0.8320 0.8320 0.8320
2395.000000 0.8320 0.8320 0.8320 0.8320 0.8320
2390.000000 0.8320 0.8320 0.8320 0.8320 0.8320
2385.000000 0.8320 0.8320 0.8320 0.8320 0.8320
2380.000000 0.8321 0.8321 0.8321 0.8321 0.8321
2375.000000 0.8321 0.8321 0.8321 0.8321 0.8321
2370.000000 0.8321 0.8321 0.8323 0.8323 0.8323
2365.000000 0.8323 0.8323 0.8323 0.8324 0.8324
2360.000000 0.8324 0.8324 0.8324 0.8324 0.8325
2355.000000 0.8325 0.8325 0.8325 0.8325 0.8325
2350.000000 0.8325 0.8325 0.8325 0.8325 0.8327
2345.000000 0.8327 0.8327 0.8325 0.8325 0.8325
2340.000000 0.8325 0.8324 0.8324 0.8323 0.8323
2335.000000 0.8321 0.8321 0.8321 0.8321 0.8320
2330.000000 0.8320 0.8318 0.8318 0.8318 0.8318
2325.000000 0.8316 0.8314 0.8310 0.8306 0.8301
2320.000000 0.8297 0.8293 0.8289 0.8284 0.8280
2315.000000 0.8275 0.8271 0.8267 0.8263 0.8259
2310.000000 0.8256 0.8257 0.8259 0.8263 0.8268
2305.000000 0.8273 0.8278 0.8283 0.8288 0.8292
2300.000000 0.8296 0.8299 0.8302 0.8305 0.8309
2295.000000 0.8312 0.8315 0.8318 0.8321 0.8325
2290.000000 0.8328 0.8330 0.8333 0.8334 0.8336
2285.000000 0.8337 0.8339 0.8340 0.8342 0.8343
2280.000000 0.8345 0.8346 0.8348 0.8349 0.8351
2275.000000 0.8352 0.8354 0.8355 0.8357 0.8359
2270.000000 0.8361 0.8363 0.8365 0.8366 0.8368
2265.000000 0.8370 0.8371 0.8374 0.8375 0.8378
2260.000000 0.8380 0.8381 0.8383 0.8385 0.8387
2255.000000 0.8389 0.8391 0.8392 0.8394 0.8396
2250.000000 0.8399 0.8401 0.8404 0.8406 0.8409
2245.000000 0.8412 0.8415 0.8417 0.8420 0.8421
2240.000000 0.8425 0.8428 0.8431 0.8433 0.8436
2235.000000 0.8438 0.8441 0.8444 0.8447 0.8449
2230.000000 0.8452 0.8455 0.8458 0.8461 0.8464
2225.000000 0.8467 0.8471 0.8474 0.8477 0.8480
2220.000000 0.8484 0.8487 0.8490 0.8493 0.8496
2215.000000 0.8499 0.8503 0.8506 0.8509 0.8512
2210.000000 0.8516 0.8518 0.8521 0.8525 0.8528
2205.000000 0.8531 0.8535 0.8538 0.8541 0.8544
2200.000000 0.8548 0.8551 0.8555 0.8558 0.8561
2195.000000 0.8564 0.8568 0.8571 0.8575 0.8578
2190.000000 0.8581 0.8584 0.8588 0.8591 0.8595
2185.000000 0.8598 0.8601 0.8604 0.8608 0.8611
2180.000000 0.8615 0.8617 0.8620 0.8621 0.8624
2175.000000 0.8625 0.8628 0.8631 0.8633 0.8635
2170.000000 0.8638 0.8640 0.8643 0.8645 0.8647
2165.000000 0.8647 0.8648 0.8649 0.8650 0.8650
2160.000000 0.8651 0.8651 0.8652 0.8652 0.8653
2155.000000 0.8653 0.8654 0.8654 0.8655 0.8655
2150.000000 0.8656 0.8656 0.8657 0.8657 0.8657
2145.000000 0.8657 0.8658 0.8658 0.8658 0.8658
2140.000000 0.8659 0.8659 0.8659 0.8659 0.8659
2135.000000 0.8658 0.8658 0.8658 0.8658 0.8658
2130.000000 0.8658 0.8658 0.8658 0.8659 0.8660
2125.000000 0.8660 0.8661 0.8662 0.8663 0.8663
2120.000000 0.8664 0.8665 0.8666 0.8666 0.8667
2115.000000 0.8668 0.8668 0.8668 0.8670 0.8671
2110.000000 0.8673 0.8674 0.8675 0.8675 0.8678
2105.000000 0.8678 0.8681 0.8682 0.8684 0.8685
2100.000000 0.8687 0.8688 0.8689 0.8690 0.8692
2095.000000 0.8693 0.8695 0.8696 0.8698 0.8699
2090.000000 0.8701 0.8702 0.8704 0.8705 0.8707
2085.000000 0.8708 0.8710 0.8711 0.8712 0.8713
2080.000000 0.8715 0.8716 0.8718 0.8718 0.8718
2075.000000 0.8717 0.8717 0.8717 0.8717 0.8717
2070.000000 0.8717 0.8717 0.8717 0.8715 0.8713
2065.000000 0.8705 0.8698 0.8698 0.8699 0.8701
2060.000000 0.8704 0.8707 0.8710 0.8713 0.8716
2055.000000 0.8718 0.8721 0.8725 0.8728 0.8731
2050.000000 0.8734 0.8735 0.8736 0.8736 0.8736
2045.000000 0.8736 0.8736 0.8736 0.8736 0.8735
2040.000000 0.8735 0.8734 0.8734 0.8734 0.8734
2035.000000 0.8733 0.8733 0.8732 0.8732 0.8731
2030.000000 0.8731 0.8731 0.8731 0.8731 0.8732
2025.000000 0.8733 0.8734 0.8734 0.8735 0.8736
2020.000000 0.8737 0.8737 0.8737 0.8737 0.8738
2015.000000 0.8738 0.8738 0.8738 0.8739 0.8739
2010.000000 0.8739 0.8738 0.8738 0.8737 0.8736
2005.000000 0.8735 0.8735 0.8733 0.8732 0.8728
2000.000000 0.8727 0.8683 0.8497 0.8428 0.8486
1995.000000 0.8528 0.8549 0.8556 0.8554 0.8553
1990.000000 0.8553 0.8555 0.8557 0.8559 0.8567
1985.000000 0.8575 0.8570 0.8571 0.8571 0.8575
1980.000000 0.8581 0.8585 0.8593 0.8594 0.8588
1975.000000 0.8582 0.8582 0.8581 0.8584 0.8593
1970.000000 0.8604 0.8611 0.8617 0.8617 0.8617
1965.000000 0.8618 0.8617 0.8671 0.8725 0.8781
1960.000000 0.8824 0.8716 0.8648 0.8610 0.8610
1955.000000 0.8609 0.8614 0.8623 0.8632 0.8636
1950.000000 0.8638 0.8628 0.8618 0.8618 0.8621
1945.000000 0.8624 0.8627 0.8631 0.8635 0.8636
1940.000000 0.8636 0.8635 0.8635 0.8635 0.8635
1935.000000 0.8635 0.8634 0.8634 0.8633 0.8632
1930.000000 0.8632 0.8631 0.8630 0.8628 0.8628
1925.000000 0.8627 0.8627 0.8625 0.8625 0.8624
1920.000000 0.8624 0.8623 0.8623 0.8621 0.8621
1915.000000 0.8621 0.8620 0.8620 0.8618 0.8618
1910.000000 0.8618 0.8618 0.8617 0.8617 0.8617
1905.000000 0.8617 0.8617 0.8617 0.8617 0.8617
1900.000000 0.8618 0.8618 0.8618 0.8618 0.8618
1895.000000 0.8618 0.8618 0.8618 0.8618 0.8618
1890.000000 0.8618 0.8620 0.8620 0.8620 0.8621
1885.000000 0.8621 0.8621 0.8621 0.8621 0.8621
1880.000000 0.8623 0.8623 0.8623 0.8623 0.8624
1875.000000 0.8624 0.8624 0.8625 0.8625 0.8625
1870.000000 0.8625 0.8625 0.8625 0.8627 0.8630
1865.000000 0.8632 0.8634 0.8637 0.8641 0.8644
1860.000000 0.8648 0.8651 0.8655 0.8658 0.8662
1855.000000 0.8665 0.8668 0.8673 0.8675 0.8670
1850.000000 0.8659 0.8653 0.8649 0.8646 0.8646
1845.000000 0.8645 0.8648 0.8650 0.8653 0.8653
1840.000000 0.8653 0.8652 0.8652 0.8653 0.8654
1835.000000 0.8656 0.8657 0.8659 0.8660 0.8662
1830.000000 0.8663 0.8665 0.8666 0.8668 0.8670
1825.000000 0.8671 0.8674 0.8677 0.8678 0.8681
1820.000000 0.8683 0.8685 0.8688 0.8690 0.8692
1815.000000 0.8692 0.8693 0.8694 0.8695 0.8696
1810.000000 0.8697 0.8697 0.8698 0.8698 0.8699
1805.000000 0.8699 0.8700 0.8700 0.8701 0.8701
1800.000000 0.8702 0.8703 0.8703 0.8704 0.8704
1795.000000 0.8705 0.8705 0.8706 0.8706 0.8707
1790.000000 0.8708 0.8708 0.8709 0.8709 0.8710
1785.000000 0.8710 0.8711 0.8712 0.8712 0.8713
1780.000000 0.8713 0.8714 0.8715 0.8715 0.8716
1775.000000 0.8716 0.8717 0.8718 0.8718 0.8718
1770.000000 0.8718 0.8718 0.8718 0.8718 0.8718
1765.000000 0.8718 0.8718 0.8718 0.8718 0.8718
1760.000000 0.8718 0.8718 0.8718 0.8718 0.8718
1755.000000 0.8718 0.8718 0.8718 0.8718 0.8718
1750.000000 0.8718 0.8718 0.8718 0.8720 0.8720
1745.000000 0.8720 0.8720 0.8720 0.8720 0.8720
1740.000000 0.8720 0.8720 0.8721 0.8721 0.8721
1735.000000 0.8723 0.8724 0.8725 0.8725 0.8727
1730.000000 0.8728 0.8728 0.8730 0.8731 0.8732
1725.000000 0.8733 0.8734 0.8735 0.8736 0.8737
1720.000000 0.8738 0.8738 0.8739 0.8740 0.8741
1715.000000 0.8742 0.8742 0.8743 0.8744 0.8745
1710.000000 0.8746 0.8746 0.8739 0.8748 0.8749
1705.000000 0.8749 0.8750 0.8751 0.8752 0.8752
1700.000000 0.8752 0.8751 0.8751 0.8750 0.8750
1695.000000 0.8749 0.8749 0.8749 0.8748 0.8748
1690.000000 0.8747 0.8747 0.8746 0.8746 0.8745
1685.000000 0.8745 0.8743 0.8742 0.8740 0.8739
1680.000000 0.8737 0.8736 0.8734 0.8733 0.8731
1675.000000 0.8730 0.8728 0.8727 0.8725 0.8724
1670.000000 0.8721 0.8718 0.8716 0.8713 0.8710
1665.000000 0.8707 0.8703 0.8700 0.8697 0.8694
1660.000000 0.8691 0.8688 0.8684 0.8680 0.8675
1655.000000 0.8671 0.8667 0.8662 0.8658 0.8653
1650.000000 0.8649 0.8644 0.8640 0.8636 0.8631
1645.000000 0.8627 0.8623 0.8618 0.8614 0.8610
1640.000000 0.8605 0.8597 0.8588 0.8578 0.8571
1635.000000 0.8562 0.8554 0.8545 0.8533 0.8521
1630.000000 0.8510 0.8498 0.8486 0.8475 0.8462
1625.000000 0.8440 0.8417 0.8395 0.8373 0.8347
1620.000000 0.8318 0.8289 0.8260 0.8228 0.8193
1615.000000 0.8158 0.8121 0.8082 0.8031 0.7981
1610.000000 0.7930 0.7878 0.7814 0.7750 0.7685
1605.000000 0.7610 0.7518 0.7428 0.7330 0.7211
1600.000000 0.7093 0.6919 0.6754 0.6612 0.6475
1595.000000 0.6339 0.6154 0.4607 0.4370 0.4248
1590.000000 0.4123 0.3992 0.3703 0.3503 0.3300
1585.000000 0.2795 0.2290 0.1892 0.1785 0.1719
1580.000000 0.1658 0.1604 0.1542 0.1479 0.1262
1575.000000 0.1326 0.1254 0.1311 0.1398 0.1589
1570.000000 0.1723 0.1992 0.2293 0.2595 0.2897
1565.000000 0.3198 0.3448 0.3664 0.3914 0.4078
1560.000000 0.4155 0.4220 0.4244 0.4256 0.4272
1555.000000 0.4273 0.4274 0.4267 0.4210 0.4043
1550.000000 0.3923 0.3884 0.3873 0.3860 0.3849
1545.000000 0.3837 0.3816 0.3788 0.3754 0.3662
1540.000000 0.3554 0.3476 0.3396 0.3268 0.3142
1535.000000 0.2949 0.2800 0.2698 0.2592 0.2463
1530.000000 0.2259 0.2178 0.2137 0.2108 0.2073
1525.000000 0.2060 0.2058 0.2058 0.2179 0.2559
1520.000000 0.2763 0.3020 0.3460 0.3618 0.3757
1515.000000 0.3926 0.4096 0.4266 0.4435 0.4605
1510.000000 0.4775 0.4944 0.5346 0.5498 0.5630
1505.000000 0.5760 0.5915 0.6073 0.6207 0.6271
1500.000000 0.6334 0.6396 0.6455 0.6515 0.6580
1495.000000 0.6649 0.6710 0.6764 0.6818 0.6868
1490.000000 0.6910 0.6953 0.6989 0.7025 0.7051
1485.000000 0.7068 0.7075 0.7083 0.7087 0.7093
1480.000000 0.7091 0.7088 0.7069 0.7018 0.6965
1475.000000 0.6900 0.6819 0.6735 0.6642 0.6549
1470.000000 0.6456 0.6362 0.6247 0.6127 0.6006
1465.000000 0.5885 0.5779 0.5678 0.5587 0.5483
1460.000000 0.5388 0.5336 0.5321 0.5310 0.5352
1455.000000 0.5394 0.5436 0.5478 0.5519 0.5559
1450.000000 0.5600 0.5641 0.5686 0.5735 0.5784
1445.000000 0.5829 0.5875 0.5918 0.5948 0.5960
1440.000000 0.5975 0.5983 0.5987 0.5973 0.5982
1435.000000 0.5969 0.5941 0.5888 0.5834 0.5776
1430.000000 0.5718 0.5659 0.5600 0.5542 0.5483
1425.000000 0.5424 0.5366 0.5309 0.5252 0.5200
1420.000000 0.5153 0.5123 0.5093 0.5055 0.5047
1415.000000 0.5047 0.5050 0.5170 0.5327 0.5448
1410.000000 0.5570 0.5693 0.5798 0.5872 0.5947
1405.000000 0.6020 0.6085 0.6150 0.6215 0.6275
1400.000000 0.6333 0.6391 0.6446 0.6500 0.6547
1395.000000 0.6584 0.6612 0.6634 0.6656 0.6665
1390.000000 0.6674 0.6682 0.6688 0.6692 0.6696
1385.000000 0.6710 0.6699 0.6697 0.6696 0.6695
1380.000000 0.6686 0.6672 0.6658 0.6630 0.6575
1375.000000 0.6482 0.6312 0.6201 0.6175 0.6175
1370.000000 0.6518 0.6525 0.6525 0.6530 0.6501
1365.000000 0.6435 0.6304 0.6141 0.5972 0.5837
1360.000000 0.5805 0.5773 0.5769 0.6105 0.6214
1355.000000 0.6282 0.6355 0.6418 0.6471 0.6508
1350.000000 0.6526 0.6518 0.6545 0.6532 0.6508
1345.000000 0.6478 0.6453 0.6438 0.6438 0.6439
1340.000000 0.6417 0.6419 0.6435 0.6467 0.6530
1335.000000 0.6582 0.6684 0.6785 0.6885 0.6985
1330.000000 0.7043 0.7107 0.7151 0.7192 0.7232
1325.000000 0.7269 0.7300 0.7328 0.7346 0.7364
1320.000000 0.7381 0.7399 0.7411 0.7425 0.7439
1315.000000 0.7453 0.7458 0.7464 0.7468 0.7471
1310.000000 0.7474 0.7483 0.7496 0.7510 0.7544
1305.000000 0.7593 0.7561 0.7518 0.7549 0.7569
1300.000000 0.7590 0.7611 0.7632 0.7651 0.7668
1295.000000 0.7678 0.7672 0.7662 0.7654 0.7644
1290.000000 0.7683 0.7631 0.7631 0.7634 0.7644
1285.000000 0.7653 0.7660 0.7650 0.7625 0.7603
1280.000000 0.7578 0.7556 0.7539 0.7525 0.7512
1275.000000 0.7500 0.7487 0.7472 0.7464 0.7460
1270.000000 0.7456 0.7451 0.7442 0.7422 0.7398
1265.000000 0.7371 0.7344 0.7304 0.7264 0.7224
1260.000000 0.7186 0.7150 0.7117 0.7084 0.7051
1255.000000 0.7018 0.6987 0.6955 0.6918 0.6878
1250.000000 0.6833 0.6787 0.6755 0.6744 0.6715
1245.000000 0.6733 0.6947 0.7065 0.7185 0.7305
1240.000000 0.7394 0.7483 0.7571 0.7633 0.7694
1235.000000 0.7751 0.7797 0.7841 0.7886 0.7921
1230.000000 0.7951 0.7980 0.8010 0.8024 0.8033
1225.000000 0.8042 0.8050 0.8058 0.8065 0.8074
1220.000000 0.8082 0.8089 0.8097 0.8103 0.8108
1215.000000 0.8115 0.8121 0.8126 0.8133 0.8136
1210.000000 0.8137 0.8138 0.8139 0.8140 0.8140
1205.000000 0.8125 0.8137 0.8144 0.8121 0.8049
1200.000000 0.7975 0.7901 0.7828 0.7756 0.7682
1195.000000 0.7608 0.7536 0.7462 0.7389 0.7315
1190.000000 0.7243 0.7169 0.7096 0.7022 0.6950
1185.000000 0.6876 0.6803 0.6730 0.6657 0.6583
1180.000000 0.6481 0.6451 0.6486 0.6485 0.6574
1175.000000 0.6745 0.6915 0.7086 0.7256 0.7426
1170.000000 0.7597 0.7733 0.7800 0.7868 0.7921
1165.000000 0.7957 0.7968 0.7961 0.7961 0.7960
1160.000000 0.7961 0.7961 0.7964 0.7964 0.7965
1155.000000 0.7965 0.7965 0.7965 0.7965 0.7961
1150.000000 0.7958 0.7957 0.7954 0.7951 0.7949
1145.000000 0.7947 0.7946 0.7946 0.7946 0.7953
1140.000000 0.7961 0.7988 0.8015 0.8038 0.8055
1135.000000 0.8071 0.8075 0.8076 0.8080 0.8082
1130.000000 0.8085 0.8087 0.8090 0.8092 0.8095
1125.000000 0.8097 0.8098 0.8099 0.8100 0.8101
1120.000000 0.8103 0.8104 0.8106 0.8119 0.8108
1115.000000 0.8108 0.8111 0.8111 0.8112 0.8115
1110.000000 0.8115 0.8118 0.8118 0.8118 0.8119
1105.000000 0.8117 0.8115 0.8112 0.8110 0.8108
1100.000000 0.8106 0.8098 0.8086 0.8074 0.8061
1095.000000 0.8050 0.8033 0.8015 0.7996 0.7976
1090.000000 0.7955 0.7921 0.7886 0.7846 0.7799
1085.000000 0.7751 0.7694 0.7632 0.7568 0.7460
1080.000000 0.7098 0.6881 0.6718 0.6515 0.6414
1075.000000 0.6414 0.6415 0.6414 0.6486 0.6649
1070.000000 0.6819 0.7011 0.7243 0.7361 0.7460
1065.000000 0.7521 0.7569 0.7618 0.7661 0.7700
1060.000000 0.7740 0.7768 0.7792 0.7806 0.7818
1055.000000 0.7828 0.7841 0.7843 0.7845 0.7845
1050.000000 0.7845 0.7842 0.7839 0.7836 0.7825
1045.000000 0.7811 0.7798 0.7783 0.7768 0.7712
1040.000000 0.7654 0.7592 0.7531 0.7451 0.7367
1035.000000 0.7275 0.7182 0.6915 0.6632 0.6526
1030.000000 0.6471 0.6450 0.6465 0.6441 0.6436
1025.000000 0.6432 0.6460 0.6637 0.6776 0.6915
1020.000000 0.7039 0.7157 0.7276 0.7425 0.7565
1015.000000 0.7641 0.7714 0.7761 0.7811 0.7846
1010.000000 0.7872 0.7894 0.7912 0.7914 0.7921
1005.000000 0.7921 0.7912 0.7888 0.7862 0.7812
1000.000000 0.7764 0.7721 0.7680 0.7638 0.7596
995.000000 0.7554 0.7544 0.7531 0.7571 0.7606
990.000000 0.7640 0.7675 0.7708 0.7735 0.7758
985.000000 0.7781 0.7803 0.7825 0.7849 0.7871
980.000000 0.7887 0.7898 0.7910 0.7921 0.7933
975.000000 0.7945 0.7954 0.7958 0.7965 0.7971
970.000000 0.7975 0.7986 0.7981 0.7978 0.7978
965.000000 0.7975 0.7974 0.7957 0.7932 0.7880
960.000000 0.7815 0.7734 0.7651 0.7568 0.7141
955.000000 0.7111 0.7074 0.7089 0.7207 0.7450
950.000000 0.7555 0.7647 0.7717 0.7788 0.7832
945.000000 0.7868 0.7903 0.7915 0.7928 0.7942
940.000000 0.7955 0.7968 0.7981 0.7990 0.7999
935.000000 0.8008 0.8018 0.8026 0.8036 0.8044
930.000000 0.8050 0.8055 0.8061 0.8065 0.8068
925.000000 0.8069 0.8071 0.8072 0.8075 0.8075
920.000000 0.8078 0.8080 0.8082 0.8084 0.8087
915.000000 0.8068 0.8091 0.8094 0.8098 0.8101
910.000000 0.8103 0.8099 0.8095 0.8090 0.8086
905.000000 0.8074 0.8061 0.8048 0.8024 0.7988
900.000000 0.7947 0.7882 0.7801 0.7701 0.7580
895.000000 0.7451 0.7218 0.7171 0.7142 0.7208
890.000000 0.7308 0.7415 0.7501 0.7553 0.7604
885.000000 0.7655 0.7706 0.7753 0.7796 0.7839
880.000000 0.7881 0.7915 0.7940 0.7964 0.7988
875.000000 0.8011 0.8035 0.8054 0.8074 0.8093
870.000000 0.8107 0.8115 0.8125 0.8135 0.8144
865.000000 0.8154 0.8160 0.8160 0.8158 0.8156
860.000000 0.8154 0.8151 0.8149 0.8146 0.8144
855.000000 0.8142 0.8139 0.8139 0.8139 0.8138
850.000000 0.8138 0.8138 0.8145 0.8153 0.8161
845.000000 0.8165 0.8167 0.8168 0.8171 0.8172
840.000000 0.8172 0.8174 0.8175 0.8175 0.8176
835.000000 0.8171 0.8183 0.8185 0.8193 0.8202
830.000000 0.8210 0.8216 0.8217 0.8218 0.8213
825.000000 0.8208 0.8203 0.8197 0.8191 0.8185
820.000000 0.8171 0.8151 0.8130 0.8108 0.8068
815.000000 0.8034 0.7996 0.7951 0.7900 0.7788
810.000000 0.7538 0.7312 0.7161 0.6989 0.6888
805.000000 0.6824 0.6821 0.6844 0.6911 0.6987
800.000000 0.7092 0.7225 0.7401 0.7493 0.7578
795.000000 0.7630 0.7676 0.7661 0.7671 0.7642
790.000000 0.7547 0.7330 0.7133 0.6943 0.6522
785.000000 0.6103 0.5683 0.5262 0.4582 0.4585
780.000000 0.4601 0.4838 0.5341 0.5845 0.6349
775.000000 0.6662 0.7135 0.7330 0.7458 0.7551
770.000000 0.7645 0.7722 0.7795 0.7846 0.7896
765.000000 0.7932 0.7964 0.7992 0.8011 0.8031
760.000000 0.8047 0.8057 0.8061 0.8062 0.8064
755.000000 0.8065 0.8065 0.8065 0.8065 0.8061
750.000000 0.8058 0.8055 0.8051 0.8048 0.8034
745.000000 0.8018 0.8004 0.7988 0.7972 0.7957
740.000000 0.7938 0.7919 0.7901 0.7886 0.7869
735.000000 0.7855 0.7840 0.7825 0.7805 0.7786
730.000000 0.7765 0.7742 0.7711 0.7681 0.7642
725.000000 0.7601 0.7562 0.7531 0.7454 0.7475
720.000000 0.7478 0.7530 0.7596 0.7655 0.7714
715.000000 0.7751 0.7782 0.7811 0.7841 0.7871
710.000000 0.7905 0.7939 0.7974 0.7999 0.8021
705.000000 0.8043 0.8065 0.8084 0.8100 0.8115
700.000000 0.8132 0.8148 0.8158 0.8168 0.8178
695.000000 0.8190 0.8198 0.8200 0.8203 0.8205
690.000000 0.8206 0.8206 0.8205 0.8192 0.8203
685.000000 0.8203 0.8199 0.8193 0.8187 0.8178
680.000000 0.8169 0.8161 0.8150 0.8137 0.8118
675.000000 0.8082 0.8045 0.7999 0.7953 0.7907
670.000000 0.7861 0.7825 0.7791 0.7769 0.7756
665.000000 0.7741 0.7726 0.7718 0.7711 0.7704
660.000000 0.7701 0.7700 0.7698 0.7696 0.7694
655.000000 0.7692 0.7691 0.7689 0.7687 0.7686
650.000000 0.7684 0.7674 0.7661 0.7651 0.7639
645.000000 0.7621 0.7601 0.7583 0.7567 0.7553
640.000000 0.7540 0.7533 0.7526 0.7525 0.7525
635.000000 0.7525 0.7525 0.7525 0.7525 0.7521
630.000000 0.7518 0.7514 0.7496 0.7475 0.7449
625.000000 0.7426 0.7401 0.7395 0.7394 0.7400
620.000000 0.7421 0.7442 0.7462 0.7484 0.7501
615.000000 0.7515 0.7528 0.7543 0.7557 0.7571
610.000000 0.7585 0.7594 0.7603 0.7611 0.7621
605.000000 0.7625 0.7631 0.7636 0.7640 0.7645
600.000000 0.7650 0.7654 0.7657 0.7657 0.7658
595.000000 0.7658 0.7658 0.7658 0.7658 0.7658
590.000000 0.7657 0.7655 0.7653 0.7651 0.7650
585.000000 0.7649 0.7647 0.7645 0.7644 0.7642
580.000000 0.7640 0.7637 0.7635 0.7633 0.7630
575.000000 0.7628 0.7625 0.7622 0.7621 0.7618
570.000000 0.7615 0.7611 0.7608 0.7606 0.7603
565.000000 0.7600 0.7597 0.7594 0.7591 0.7588
560.000000 0.7585 0.7582 0.7578 0.7575 0.7572
555.000000 0.7569 0.7567 0.7564 0.7560 0.7557
550.000000 0.7554 0.7551 0.7548 0.7544 0.7541
545.000000 0.7538 0.7535 0.7532 0.7528 0.7525
540.000000 0.7521 0.7518 0.7532 0.7511 0.7507
535.000000 0.7504 0.7500 0.7496 0.7492 0.7489
530.000000 0.7485 0.7481 0.7476 0.7472 0.7469
525.000000 0.7465 0.7461 0.7458 0.7453 0.7449
520.000000 0.7445 0.7441 0.7437 0.7432 0.7428
515.000000 0.7424 0.7419 0.7415 0.7410 0.7401
510.000000 0.7391 0.7382 0.7371 0.7368 0.7367
505.000000 0.7364 0.7361 0.7360 0.7357 0.7355
500.000000 0.7353 0.7350 0.7348 0.7344 0.7341
495.000000 0.7337 0.7333 0.7328 0.7325 0.7321
490.000000 0.7317 0.7312 0.7308 0.7305 0.7299
485.000000 0.7290 0.7282 0.7274 0.7265 0.7247
480.000000 0.7221 0.7198 0.7174 0.7150 0.7122
475.000000 0.7090 0.7057 0.7022 0.6990 0.6956
470.000000 0.6915 0.6875 0.6836 0.6795 0.6755
465.000000 0.6715 0.6675 0.6638 0.6599 0.6561
460.000000 0.6521 0.6480 0.6439 0.6398
##END=
