##TITLE=1,2-DIPHENYL-3,5-DIOXO-4-n-BUTYLPYRAZOLIDINE, SODIUM SALT
##JCAMP-DX=4.24
##DATA TYPE=INFRARED SPECTRUM
##CLASS=COBLENTZ III
##ORIGIN=SMITH KLINE & FRENCH LABS.
##OWNER=COBLENTZ SOCIETY
Collection (C) 2018 copyright by the U.S. Secretary of Commerce
on behalf of the United States of America. All rights reserved.
##DATE=1963/09/30
##MOLFORM=C19 H19 N2 O2 Na
##SOURCE REFERENCE=COBLENTZ NO. 9131
##$NIST ID=B6009131
##$NIST SOURCE=COBLENTZ
##$NIST IMAGE=cob9131
##SPECTROMETER/DATA SYSTEM=Not specified, most likely a prism spectrometer.
##INSTRUMENT PARAMETERS=NaCl PRISM
##STATE=SOLID (OIL MULL)
$$SPECTRAL CONTAMINATION DUE TO OIL AROUND 2900, 1450, 1380 CM^-^1
##SAMPLING PROCEDURE=TRANSMISSION
##RESOLUTION=2
##DATA PROCESSING=DIGITIZED BY NIST FROM HARD COPY
##XUNITS=MICROMETERS
##YUNITS=TRANSMITTANCE
##XFACTOR=1.000000
##YFACTOR=1
##DELTAX=000.004892
##FIRSTX=2.007
##LASTX=15.1219
##FIRSTY=0.703
##MAXX=15.1219
##MINX=2.007
##MAXY=0.93
##MINY=0.075
##NPOINTS=2682
##XYDATA=(X++(Y..Y))
2.007000 0.7030 0.7030 0.7030 0.7030 0.7020
2.031469 0.7000 0.6990 0.6970 0.6970 0.6970
2.056000 0.6970 0.6970 0.6970 0.6950 0.6970
2.080469 0.6970 0.6980 0.6980 0.7000 0.7020
2.105000 0.7030 0.7030 0.7040 0.7050 0.7080
2.129469 0.7100 0.7110 0.7130 0.7140 0.7150
2.154000 0.7150 0.7160 0.7160 0.7160 0.7160
2.178469 0.7160 0.7150 0.7150 0.7150 0.7140
2.203000 0.7110 0.7110 0.7100 0.7100 0.7100
2.227469 0.7090 0.7090 0.7090 0.7080 0.7080
2.252000 0.7060 0.7060 0.7060 0.7050 0.7050
2.276469 0.7040 0.7040 0.7040 0.7040 0.7040
2.300000 0.7040 0.7040 0.7030 0.7050 0.7050
2.324469 0.7060 0.7080 0.7080 0.7090 0.7100
2.349000 0.7100 0.7130 0.7140 0.7150 0.7160
2.373469 0.7170 0.7190 0.7220 0.7260 0.7260
2.398000 0.7270 0.7280 0.7280 0.7300 0.7300
2.422469 0.7300 0.7300 0.7300 0.7300 0.7300
2.447000 0.7310 0.7320 0.7320 0.7330 0.7360
2.471469 0.7380 0.7410 0.7430 0.7460 0.7460
2.496000 0.7470 0.7480 0.7490 0.7520 0.7530
2.520469 0.7550 0.7580 0.7600 0.7610 0.7630
2.545000 0.7640 0.7650 0.7660 0.7680 0.7700
2.569469 0.7700 0.7700 0.7700 0.7700 0.7690
2.594000 0.7690 0.7690 0.7690 0.7680 0.7680
2.618469 0.7690 0.7690 0.7690 0.7690 0.7700
2.643000 0.7710 0.7710 0.7720 0.7720 0.7740
2.667469 0.7740 0.7750 0.7750 0.7770 0.7770
2.692000 0.7780 0.7780 0.7800 0.7800 0.7800
2.716469 0.7780 0.7780 0.7770 0.7750 0.7740
2.741000 0.7710 0.7660 0.7610 0.7590 0.7580
2.765469 0.7570 0.7570 0.7540 0.7520 0.7460
2.790000 0.7370 0.7350 0.7330 0.7320 0.7320
2.814469 0.7310 0.7300 0.7280 0.7280 0.7270
2.839000 0.7270 0.7260 0.7250 0.7250 0.7240
2.863469 0.7240 0.7220 0.7210 0.7210 0.7200
2.887000 0.7190 0.7190 0.7170 0.7160 0.7150
2.911469 0.7150 0.7140 0.7130 0.7110 0.7100
2.936000 0.7090 0.7060 0.7050 0.7040 0.7020
2.960469 0.7000 0.6980 0.6970 0.6930 0.6890
2.985000 0.6860 0.6820 0.6780 0.6770 0.6770
3.009469 0.6770 0.6760 0.6750 0.6730 0.6730
3.034000 0.6730 0.6720 0.6700 0.6670 0.6660
3.058469 0.6640 0.6630 0.6600 0.6590 0.6560
3.083000 0.6550 0.6530 0.6520 0.6520 0.6500
3.107469 0.6490 0.6480 0.6470 0.6450 0.6450
3.132000 0.6450 0.6450 0.6470 0.6470 0.6470
3.156469 0.6490 0.6500 0.6520 0.6530 0.6540
3.181000 0.6560 0.6590 0.6600 0.6630 0.6640
3.205469 0.6650 0.6660 0.6670 0.6670 0.6690
3.230000 0.6690 0.6690 0.6690 0.6690 0.6690
3.254469 0.6690 0.6690 0.6690 0.6690 0.6690
3.279000 0.6690 0.6670 0.6660 0.6640 0.6590
3.303469 0.6540 0.6500 0.6450 0.6410 0.6360
3.328000 0.6310 0.6250 0.6230 0.6010 0.5090
3.352469 0.4290 0.3930 0.3720 0.3470 0.3220
3.377000 0.2900 0.2560 0.2140 0.1850 0.1450
3.401469 0.1170 0.1120 0.1090 0.1070 0.1050
3.426000 0.1010 0.0980 0.0960 0.0940 0.0910
3.450469 0.0890 0.0870 0.0850 0.0830 0.0800
3.475000 0.0790 0.0760 0.0750 0.0750 0.0750
3.499469 0.0750 0.0760 0.0780 0.0800 0.1010
3.523000 0.1110 0.1400 0.2190 0.3050 0.3470
3.547469 0.3930 0.4320 0.4660 0.4980 0.5120
3.572000 0.5270 0.5530 0.5790 0.6050 0.6310
3.596469 0.6610 0.6880 0.7080 0.7190 0.7210
3.621000 0.7220 0.7350 0.7390 0.7420 0.7430
3.645469 0.7460 0.7500 0.7550 0.7580 0.7600
3.670000 0.7640 0.7690 0.7690 0.7720 0.7800
3.694469 0.7870 0.7940 0.7960 0.7980 0.8000
3.719000 0.8000 0.8000 0.8000 0.8000 0.8000
3.743469 0.8000 0.8000 0.8000 0.7990 0.7990
3.768000 0.7990 0.7990 0.7990 0.7990 0.7990
3.792469 0.8000 0.8020 0.8040 0.8040 0.8050
3.817000 0.8050 0.8140 0.8180 0.8190 0.8220
3.841469 0.8270 0.8300 0.8310 0.8350 0.8360
3.866000 0.8370 0.8380 0.8400 0.8410 0.8420
3.890469 0.8430 0.8440 0.8460 0.8470 0.8480
3.915000 0.8490 0.8510 0.8520 0.8530 0.8530
3.939469 0.8550 0.8550 0.8570 0.8570 0.8590
3.964000 0.8590 0.8600 0.8600 0.8640 0.8660
3.988469 0.8690 0.8690 0.8700 0.8700 0.8710
4.013000 0.8710 0.8710 0.8710 0.8730 0.8730
4.037469 0.8730 0.8730 0.8710 0.8710 0.8730
4.062000 0.8730 0.8730 0.8740 0.8740 0.8740
4.086469 0.8740 0.8750 0.8750 0.8750 0.8750
4.110000 0.8750 0.8750 0.8750 0.8750 0.8750
4.134469 0.8750 0.8750 0.8760 0.8760 0.8770
4.159000 0.8770 0.8770 0.8790 0.8790 0.8790
4.183469 0.8800 0.8810 0.8850 0.8880 0.8920
4.208000 0.8970 0.8980 0.8990 0.9030 0.9050
4.232469 0.9070 0.9080 0.9100 0.9160 0.9210
4.257000 0.9210 0.9250 0.9250 0.9260 0.9260
4.281469 0.9270 0.9270 0.9290 0.9290 0.9260
4.306000 0.9260 0.9200 0.9140 0.9120 0.9070
4.330469 0.9040 0.9020 0.8990 0.8980 0.8970
4.355000 0.8970 0.8960 0.8960 0.8940 0.8940
4.379469 0.8940 0.8940 0.8940 0.8940 0.8940
4.404000 0.8940 0.8940 0.8940 0.8940 0.8940
4.428469 0.8940 0.8940 0.8940 0.8940 0.8940
4.453000 0.8960 0.8970 0.8980 0.8990 0.9010
4.477469 0.9010 0.9010 0.9020 0.9020 0.9020
4.502000 0.9030 0.9030 0.9040 0.9040 0.9050
4.526469 0.9050 0.9070 0.9070 0.9080 0.9080
4.551000 0.9080 0.9080 0.9080 0.9080 0.9080
4.575469 0.9080 0.9070 0.9070 0.9050 0.9040
4.600000 0.9040 0.9030 0.9020 0.9010 0.8990
4.624469 0.8970 0.8940 0.8930 0.8940 0.8940
4.649000 0.8940 0.8940 0.8960 0.8960 0.8960
4.673469 0.8960 0.8960 0.8960 0.8970 0.8970
4.698000 0.8980 0.8980 0.8980 0.8990 0.9010
4.722469 0.9010 0.9010 0.9020 0.9010 0.9020
4.746000 0.9020 0.9020 0.9010 0.9010 0.9010
4.770469 0.9010 0.9010 0.9010 0.9010 0.9010
4.795000 0.9010 0.9020 0.9030 0.9030 0.9040
4.819469 0.9050 0.9070 0.9080 0.9080 0.9090
4.844000 0.9090 0.9100 0.9100 0.9130 0.9130
4.868469 0.9140 0.9140 0.9150 0.9140 0.9140
4.893000 0.9140 0.9130 0.9130 0.9130 0.9130
4.917469 0.9120 0.9100 0.9100 0.9100 0.9100
4.942000 0.9100 0.9100 0.9090 0.9090 0.9090
4.966469 0.9090 0.9090 0.9090 0.9090 0.9090
4.991000 0.9090 0.9090 0.9090 0.9090 0.9090
5.015469 0.9100 0.9090 0.9090 0.9100 0.9080
5.040000 0.9080 0.9090 0.9080 0.9080 0.9080
5.064469 0.9070 0.9070 0.9070 0.9070 0.9070
5.089000 0.9070 0.9070 0.9070 0.9070 0.9050
5.113469 0.9070 0.9070 0.9070 0.9080 0.9080
5.138000 0.9080 0.9080 0.9080 0.9090 0.9100
5.162469 0.9100 0.9100 0.9120 0.9120 0.9120
5.187000 0.9120 0.9140 0.9160 0.9180 0.9190
5.211469 0.9190 0.9190 0.9190 0.9190 0.9190
5.236000 0.9190 0.9190 0.9190 0.9190 0.9190
5.260469 0.9190 0.9180 0.9180 0.9180 0.9160
5.285000 0.9160 0.9160 0.9160 0.9160 0.9160
5.309469 0.9160 0.9180 0.9180 0.9180 0.9180
5.333000 0.9180 0.9180 0.9180 0.9180 0.9190
5.357469 0.9200 0.9200 0.9200 0.9210 0.9210
5.382000 0.9230 0.9230 0.9230 0.9240 0.9250
5.406469 0.9250 0.9260 0.9260 0.9270 0.9270
5.431000 0.9290 0.9290 0.9300 0.9300 0.9300
5.455469 0.9300 0.9300 0.9300 0.9300 0.9300
5.480000 0.9300 0.9300 0.9300 0.9300 0.9300
5.504469 0.9300 0.9290 0.9290 0.9290 0.9270
5.529000 0.9270 0.9270 0.9260 0.9260 0.9260
5.553469 0.9250 0.9250 0.9250 0.9240 0.9240
5.578000 0.9240 0.9230 0.9230 0.9230 0.9210
5.602469 0.9210 0.9210 0.9200 0.9200 0.9190
5.627000 0.9190 0.9180 0.9180 0.9160 0.9160
5.651469 0.9150 0.9150 0.9140 0.9140 0.9130
5.676000 0.9130 0.9130 0.9120 0.9120 0.9100
5.700469 0.9100 0.9090 0.9090 0.9080 0.9080
5.725000 0.9070 0.9070 0.9050 0.9050 0.9040
5.749469 0.9020 0.9010 0.8980 0.8960 0.8940
5.774000 0.8920 0.8900 0.8880 0.8870 0.8870
5.798469 0.8860 0.8850 0.8840 0.8810 0.8790
5.823000 0.8750 0.8710 0.8680 0.8650 0.8630
5.847469 0.8600 0.8570 0.8520 0.8470 0.8380
5.872000 0.8250 0.8130 0.8000 0.7940 0.7930
5.896469 0.7850 0.7800 0.7800 0.7780 0.7760
5.921000 0.7690 0.7640 0.7550 0.7530 0.7480
5.945469 0.7470 0.7480 0.7440 0.7390 0.7100
5.969000 0.7040 0.7030 0.7040 0.7090 0.7200
5.993469 0.7260 0.7320 0.7350 0.7380 0.7410
6.018000 0.7420 0.7470 0.7470 0.7430 0.7420
6.042469 0.7410 0.7390 0.7310 0.7190 0.7030
6.067000 0.6940 0.6890 0.6840 0.6830 0.6800
6.091469 0.6640 0.6430 0.6210 0.6040 0.5970
6.116000 0.5890 0.5830 0.5770 0.5680 0.5560
6.140469 0.5360 0.5100 0.4740 0.4540 0.4350
6.165000 0.4160 0.3950 0.3740 0.3520 0.3280
6.189469 0.3010 0.2800 0.2390 0.2140 0.1900
6.214000 0.1690 0.1530 0.1450 0.1450 0.1390
6.238469 0.1360 0.1360 0.1410 0.1410 0.1400
6.263000 0.1400 0.1400 0.1390 0.1370 0.1330
6.287469 0.1280 0.1190 0.1190 0.1150 0.1110
6.312000 0.1090 0.1090 0.1090 0.1090 0.1090
6.336469 0.1090 0.1090 0.1110 0.1110 0.1130
6.361000 0.1180 0.1180 0.1180 0.1180 0.1180
6.385469 0.1190 0.1220 0.1400 0.1640 0.1730
6.410000 0.1850 0.1890 0.1910 0.1950 0.2050
6.434469 0.2120 0.2270 0.2330 0.2390 0.2510
6.459000 0.2670 0.2830 0.3100 0.3260 0.3350
6.483469 0.3490 0.3670 0.3850 0.4040 0.4180
6.508000 0.4330 0.4490 0.4730 0.4830 0.4920
6.532469 0.4950 0.4980 0.5000 0.5070 0.5210
6.556000 0.5390 0.5510 0.5590 0.5700 0.5710
6.580469 0.5720 0.5720 0.5750 0.5860 0.5990
6.605000 0.6000 0.6040 0.5990 0.5840 0.5670
6.629469 0.5500 0.5330 0.5320 0.4740 0.4550
6.654000 0.4350 0.4340 0.4260 0.4200 0.4200
6.678469 0.4110 0.4100 0.4090 0.4050 0.3960
6.703000 0.3880 0.3870 0.3850 0.3870 0.3950
6.727469 0.4010 0.4070 0.4100 0.4110 0.3940
6.752000 0.3760 0.3670 0.3450 0.3060 0.2680
6.776469 0.2290 0.1890 0.1690 0.1480 0.1420
6.801000 0.1390 0.1340 0.1290 0.1240 0.1230
6.825469 0.1170 0.1130 0.1090 0.1060 0.1050
6.850000 0.1070 0.1180 0.1290 0.1390 0.1400
6.874469 0.1400 0.1450 0.1450 0.1470 0.1550
6.899000 0.1630 0.1730 0.1830 0.1920 0.1990
6.923469 0.2030 0.2250 0.2390 0.2790 0.2990
6.948000 0.3130 0.3220 0.3280 0.3320 0.3240
6.972469 0.3130 0.3060 0.3040 0.3050 0.3060
6.997000 0.3170 0.3280 0.3380 0.3470 0.3600
7.021469 0.3720 0.3880 0.4040 0.4240 0.4480
7.046000 0.4740 0.4900 0.5050 0.5250 0.5290
7.070469 0.5330 0.5430 0.5670 0.5750 0.5830
7.095000 0.5880 0.5900 0.5980 0.6000 0.6010
7.119469 0.6090 0.6110 0.6200 0.6230 0.6260
7.143000 0.6270 0.6280 0.6300 0.6300 0.6270
7.167469 0.6190 0.6000 0.5860 0.5720 0.5590
7.192000 0.5450 0.5320 0.5170 0.5010 0.4630
7.216469 0.4400 0.4130 0.3820 0.3550 0.3440
7.241000 0.3210 0.3080 0.3070 0.3100 0.3430
7.265469 0.3540 0.3660 0.4090 0.4370 0.4730
7.290000 0.4840 0.4950 0.5010 0.5060 0.5170
7.314469 0.5280 0.5390 0.5500 0.5610 0.5720
7.339000 0.5830 0.5940 0.6030 0.6100 0.6170
7.363469 0.6230 0.6270 0.6300 0.6330 0.6380
7.388000 0.6420 0.6430 0.6440 0.6450 0.6450
7.412469 0.6450 0.6410 0.6390 0.6380 0.6380
7.437000 0.6360 0.6330 0.6300 0.6260 0.6190
7.461469 0.6090 0.5970 0.5780 0.5710 0.5620
7.486000 0.5510 0.5340 0.5250 0.5230 0.5220
7.510469 0.5230 0.5250 0.5280 0.5370 0.5420
7.535000 0.5440 0.5470 0.5500 0.5540 0.5590
7.559469 0.5610 0.5660 0.5750 0.5790 0.5790
7.584000 0.5790 0.5790 0.5790 0.5790 0.5790
7.608469 0.5780 0.5770 0.5730 0.5670 0.5600
7.633000 0.5540 0.5510 0.5480 0.5470 0.5470
7.657469 0.5450 0.5430 0.5400 0.5380 0.5290
7.682000 0.5260 0.5140 0.5100 0.5030 0.4830
7.706469 0.4620 0.4520 0.4460 0.4340 0.4210
7.731000 0.4060 0.3950 0.3870 0.3840 0.3790
7.755469 0.3770 0.3760 0.3760 0.3760 0.3760
7.779000 0.3760 0.3760 0.3780 0.3870 0.3910
7.803469 0.3960 0.4010 0.4060 0.4110 0.4160
7.828000 0.4180 0.4230 0.4420 0.4620 0.4790
7.852469 0.4890 0.4920 0.4980 0.5030 0.5060
7.877000 0.5220 0.5280 0.5320 0.5440 0.5590
7.901469 0.5610 0.5640 0.5680 0.5710 0.5730
7.926000 0.5750 0.5760 0.5780 0.5790 0.5840
7.950469 0.5950 0.5980 0.6000 0.6010 0.6040
7.975000 0.6090 0.6100 0.6120 0.6230 0.6260
7.999469 0.6330 0.6420 0.6440 0.6480 0.6520
8.024000 0.6580 0.6590 0.6600 0.6640 0.6670
8.048469 0.6710 0.6800 0.6880 0.6890 0.6880
8.073000 0.6920 0.7030 0.7140 0.7200 0.7200
8.097469 0.7210 0.7220 0.7250 0.7270 0.7300
8.122000 0.7320 0.7350 0.7360 0.7370 0.7390
8.146469 0.7420 0.7470 0.7490 0.7490 0.7500
8.171000 0.7530 0.7530 0.7570 0.7600 0.7630
8.195469 0.7660 0.7700 0.7740 0.7760 0.7800
8.220000 0.7800 0.7800 0.7800 0.7800 0.7800
8.244469 0.7800 0.7800 0.7800 0.7800 0.7780
8.269000 0.7780 0.7780 0.7780 0.7780 0.7780
8.293469 0.7780 0.7780 0.7780 0.7780 0.7780
8.318000 0.7780 0.7770 0.7770 0.7760 0.7760
8.342469 0.7750 0.7750 0.7740 0.7740 0.7740
8.366000 0.7740 0.7720 0.7720 0.7720 0.7710
8.390469 0.7710 0.7710 0.7700 0.7710 0.7710
8.415000 0.7720 0.7740 0.7750 0.7750 0.7760
8.439469 0.7760 0.7760 0.7740 0.7710 0.7700
8.464000 0.7640 0.7570 0.7480 0.7390 0.7370
8.488469 0.7350 0.7270 0.7240 0.7140 0.7000
8.513000 0.6920 0.6810 0.6770 0.6710 0.6650
8.537469 0.6610 0.6590 0.6580 0.6550 0.6520
8.562000 0.6470 0.6390 0.6380 0.6370 0.6340
8.586469 0.6340 0.6300 0.6220 0.6120 0.6040
8.611000 0.5970 0.5860 0.5760 0.5660 0.5590
8.635469 0.5500 0.5490 0.5490 0.5490 0.5490
8.660000 0.5480 0.5480 0.5480 0.5470 0.5470
8.684469 0.5450 0.5450 0.5440 0.5420 0.5400
8.709000 0.5400 0.5400 0.5430 0.5450 0.5550
8.733469 0.5640 0.5670 0.5710 0.5820 0.5970
8.758000 0.6010 0.6110 0.6200 0.6300 0.6380
8.782469 0.6450 0.6500 0.6660 0.6760 0.6800
8.807000 0.6820 0.6840 0.6880 0.6950 0.7090
8.831469 0.7160 0.7200 0.7240 0.7270 0.7310
8.856000 0.7320 0.7320 0.7330 0.7330 0.7330
8.880469 0.7330 0.7330 0.7330 0.7330 0.7330
8.905000 0.7320 0.7300 0.7300 0.7270 0.7260
8.929469 0.7260 0.7260 0.7260 0.7280 0.7360
8.954000 0.7390 0.7390 0.7390 0.7410 0.7410
8.978469 0.7410 0.7410 0.7390 0.7390 0.7370
9.002000 0.7360 0.7320 0.7280 0.7270 0.7240
9.026469 0.7240 0.7220 0.7210 0.7220 0.7220
9.051000 0.7210 0.7200 0.7190 0.7160 0.7080
9.075469 0.6970 0.6830 0.6630 0.6380 0.6220
9.100000 0.6150 0.6110 0.6040 0.5980 0.5900
9.124469 0.5830 0.5820 0.5840 0.5900 0.5980
9.149000 0.6010 0.6080 0.6140 0.6230 0.6340
9.173469 0.6430 0.6480 0.6560 0.6660 0.6730
9.198000 0.6860 0.6940 0.6980 0.7000 0.7060
9.222469 0.7130 0.7150 0.7160 0.7160 0.7170
9.247000 0.7170 0.7170 0.7170 0.7160 0.7100
9.271469 0.7050 0.6980 0.6880 0.6820 0.6760
9.296000 0.6720 0.6690 0.6670 0.6690 0.6710
9.320469 0.6730 0.6830 0.6890 0.6950 0.7000
9.345000 0.7080 0.7080 0.7090 0.7100 0.7100
9.369469 0.7110 0.7110 0.7140 0.7260 0.7320
9.394000 0.7360 0.7370 0.7410 0.7420 0.7420
9.418469 0.7430 0.7430 0.7430 0.7440 0.7460
9.443000 0.7460 0.7470 0.7460 0.7460 0.7440
9.467469 0.7440 0.7420 0.7410 0.7370 0.7370
9.492000 0.7360 0.7350 0.7350 0.7330 0.7320
9.516469 0.7310 0.7300 0.7280 0.7270 0.7260
9.541000 0.7260 0.7250 0.7240 0.7210 0.7200
9.565469 0.7190 0.7190 0.7200 0.7200 0.7200
9.589000 0.7200 0.7210 0.7210 0.7220 0.7220
9.613469 0.7220 0.7250 0.7390 0.7410 0.7410
9.638000 0.7420 0.7430 0.7430 0.7460 0.7480
9.662469 0.7480 0.7480 0.7470 0.7460 0.7440
9.687000 0.7430 0.7430 0.7420 0.7410 0.7410
9.711469 0.7420 0.7430 0.7430 0.7440 0.7460
9.736000 0.7470 0.7500 0.7520 0.7520 0.7530
9.760469 0.7540 0.7640 0.7690 0.7750 0.7780
9.785000 0.7800 0.7810 0.7820 0.7830 0.7830
9.809469 0.7830 0.7830 0.7830 0.7820 0.7830
9.834000 0.7860 0.7890 0.7930 0.7980 0.8000
9.858469 0.8000 0.8030 0.8040 0.8050 0.8050
9.883000 0.8050 0.8050 0.8050 0.8050 0.8040
9.907469 0.8040 0.8050 0.8050 0.8040 0.8020
9.932000 0.7990 0.7940 0.7930 0.7930 0.7930
9.956469 0.7930 0.7930 0.7930 0.7930 0.7930
9.981000 0.7920 0.7920 0.7920 0.7920 0.7920
10.005469 0.7920 0.7930 0.7940 0.7970 0.8000
10.030000 0.8020 0.8030 0.8040 0.8040 0.8050
10.054469 0.8050 0.8070 0.8070 0.8070 0.8050
10.079000 0.8040 0.8040 0.8040 0.8040 0.8030
10.103469 0.8020 0.8000 0.7990 0.7980 0.7970
10.128000 0.7910 0.7890 0.7890 0.7920 0.7910
10.152469 0.7910 0.7920 0.7920 0.7930 0.7940
10.177000 0.7940 0.7960 0.7960 0.7970 0.7970
10.201469 0.7980 0.7990 0.7980 0.7990 0.7980
10.225000 0.7980 0.7970 0.7970 0.7960 0.7960
10.249469 0.7960 0.7940 0.7930 0.7930 0.7910
10.274000 0.7910 0.7910 0.7920 0.7920 0.7920
10.298469 0.7930 0.7940 0.7940 0.7940 0.7960
10.323000 0.7970 0.7980 0.7980 0.7980 0.7990
10.347469 0.7990 0.7990 0.7990 0.7990 0.7990
10.372000 0.7990 0.7980 0.7970 0.7960 0.7980
10.396469 0.7980 0.7980 0.7980 0.7980 0.7980
10.421000 0.7980 0.8000 0.8070 0.8110 0.8130
10.445469 0.8140 0.8150 0.8150 0.8160 0.8160
10.470000 0.8180 0.8190 0.8200 0.8200 0.8210
10.494469 0.8210 0.8220 0.8220 0.8220 0.8220
10.519000 0.8240 0.8240 0.8240 0.8240 0.8240
10.543469 0.8250 0.8250 0.8260 0.8260 0.8270
10.568000 0.8290 0.8290 0.8300 0.8310 0.8310
10.592469 0.8320 0.8320 0.8330 0.8350 0.8350
10.617000 0.8350 0.8350 0.8350 0.8330 0.8320
10.641469 0.8310 0.8290 0.8260 0.8250 0.8220
10.666000 0.8180 0.8130 0.8100 0.8100 0.8090
10.690469 0.8040 0.8030 0.8020 0.7990 0.7990
10.715000 0.7970 0.7960 0.7960 0.7940 0.7940
10.739469 0.7940 0.7960 0.7970 0.7970 0.7980
10.764000 0.7980 0.7980 0.7990 0.8000 0.8000
10.788469 0.8000 0.8000 0.8000 0.8000 0.8000
10.812000 0.7980 0.7980 0.7980 0.7980 0.7980
10.836469 0.7980 0.7990 0.8000 0.8030 0.8100
10.861000 0.8140 0.8190 0.8200 0.8250 0.8260
10.885469 0.8270 0.8290 0.8290 0.8300 0.8300
10.910000 0.8320 0.8330 0.8350 0.8350 0.8350
10.934469 0.8360 0.8360 0.8360 0.8370 0.8370
10.959000 0.8360 0.8350 0.8290 0.8290 0.8260
10.983469 0.8250 0.8240 0.8220 0.8220 0.8210
11.008000 0.8190 0.8180 0.8180 0.8160 0.8150
11.032469 0.8110 0.8030 0.7940 0.7910 0.7890
11.057000 0.7880 0.7880 0.7880 0.7880 0.7870
11.081469 0.7850 0.7820 0.7810 0.7810 0.7800
11.106000 0.7800 0.7770 0.7760 0.7760 0.7760
11.130469 0.7760 0.7760 0.7780 0.7800 0.7870
11.155000 0.7970 0.8020 0.8070 0.8090 0.8110
11.179469 0.8140 0.8150 0.8150 0.8200 0.8240
11.204000 0.8270 0.8270 0.8290 0.8300 0.8300
11.228469 0.8310 0.8310 0.8320 0.8320 0.8330
11.253000 0.8330 0.8350 0.8350 0.8350 0.8350
11.277469 0.8350 0.8350 0.8350 0.8350 0.8360
11.302000 0.8370 0.8370 0.8400 0.8420 0.8440
11.326469 0.8470 0.8480 0.8480 0.8480 0.8490
11.351000 0.8490 0.8490 0.8490 0.8490 0.8510
11.375469 0.8510 0.8520 0.8510 0.8490 0.8480
11.400000 0.8470 0.8440 0.8430 0.8380 0.8360
11.424469 0.8350 0.8320 0.8310 0.8250 0.8180
11.448000 0.8090 0.8000 0.7920 0.7810 0.7750
11.472469 0.7720 0.7690 0.7610 0.7470 0.7380
11.497000 0.7320 0.7210 0.7110 0.7030 0.6970
11.521469 0.6920 0.6870 0.6810 0.6750 0.6670
11.546000 0.6650 0.6580 0.6490 0.6430 0.6410
11.570469 0.6390 0.6380 0.6380 0.6370 0.6380
11.595000 0.6390 0.6450 0.6580 0.6810 0.7110
11.619469 0.7350 0.7480 0.7480 0.7490 0.7490
11.644000 0.7520 0.7690 0.7720 0.7760 0.7770
11.668469 0.7770 0.7770 0.7770 0.7780 0.7800
11.693000 0.7850 0.7940 0.7990 0.8020 0.8030
11.717469 0.8040 0.8090 0.8130 0.8130 0.8140
11.742000 0.8160 0.8180 0.8200 0.8210 0.8260
11.766469 0.8310 0.8330 0.8350 0.8380 0.8380
11.791000 0.8400 0.8400 0.8410 0.8410 0.8400
11.815469 0.8400 0.8400 0.8400 0.8400 0.8400
11.840000 0.8400 0.8400 0.8380 0.8380 0.8370
11.864469 0.8360 0.8350 0.8330 0.8320 0.8320
11.889000 0.8290 0.8250 0.8240 0.8240 0.8240
11.913469 0.8240 0.8240 0.8240 0.8240 0.8240
11.938000 0.8220 0.8220 0.8220 0.8220 0.8220
11.962469 0.8210 0.8210 0.8210 0.8210 0.8200
11.987000 0.8200 0.8190 0.8190 0.8180 0.8180
12.011469 0.8160 0.8160 0.8150 0.8150 0.8150
12.035000 0.8150 0.8150 0.8150 0.8150 0.8180
12.059469 0.8250 0.8270 0.8300 0.8320 0.8330
12.084000 0.8350 0.8350 0.8360 0.8360 0.8360
12.108469 0.8350 0.8350 0.8350 0.8330 0.8310
12.133000 0.8310 0.8320 0.8310 0.8310 0.8300
12.157469 0.8320 0.8320 0.8320 0.8320 0.8320
12.182000 0.8310 0.8310 0.8310 0.8310 0.8310
12.206469 0.8300 0.8300 0.8300 0.8300 0.8300
12.231000 0.8300 0.8300 0.8300 0.8290 0.8290
12.255469 0.8270 0.8260 0.8260 0.8220 0.8190
12.280000 0.8190 0.8160 0.8150 0.8150 0.8130
12.304469 0.8130 0.8130 0.8140 0.8160 0.8160
12.329000 0.8180 0.8180 0.8160 0.8080 0.8070
12.353469 0.8070 0.8070 0.8070 0.8070 0.8070
12.378000 0.8080 0.8090 0.8110 0.8190 0.8220
12.402469 0.8250 0.8250 0.8260 0.8260 0.8270
12.427000 0.8290 0.8270 0.8270 0.8270 0.8290
12.451469 0.8270 0.8270 0.8270 0.8270 0.8270
12.476000 0.8270 0.8260 0.8260 0.8260 0.8260
12.500469 0.8260 0.8250 0.8250 0.8250 0.8240
12.525000 0.8240 0.8220 0.8220 0.8210 0.8210
12.549469 0.8200 0.8200 0.8190 0.8190 0.8190
12.574000 0.8190 0.8190 0.8190 0.8190 0.8190
12.598469 0.8190 0.8180 0.8180 0.8160 0.8150
12.623000 0.8110 0.8040 0.8030 0.7990 0.7990
12.647469 0.8020 0.8030 0.8040 0.8040 0.8050
12.671000 0.8050 0.8040 0.8040 0.8000 0.7960
12.695469 0.7920 0.7910 0.7890 0.7890 0.7880
12.720000 0.7850 0.7820 0.7800 0.7760 0.7710
12.744469 0.7710 0.7700 0.7690 0.7680 0.7680
12.769000 0.7660 0.7660 0.7660 0.7600 0.7600
12.793469 0.7570 0.7540 0.7500 0.7470 0.7430
12.818000 0.7420 0.7420 0.7420 0.7420 0.7420
12.842469 0.7420 0.7420 0.7390 0.7370 0.7310
12.867000 0.7310 0.7300 0.7280 0.7280 0.7270
12.891469 0.7270 0.7260 0.7260 0.7250 0.7250
12.916000 0.7240 0.7220 0.7210 0.7210 0.7200
12.940469 0.7190 0.7170 0.7170 0.7190 0.7190
12.965000 0.7190 0.7190 0.7190 0.7200 0.7210
12.989469 0.7260 0.7300 0.7320 0.7350 0.7360
13.014000 0.7380 0.7390 0.7410 0.7410 0.7410
13.038469 0.7410 0.7420 0.7420 0.7420 0.7380
13.063000 0.7320 0.7250 0.7150 0.7060 0.6970
13.087469 0.6970 0.6970 0.6970 0.6970 0.6950
13.112000 0.6940 0.6920 0.6800 0.6720 0.6590
13.136469 0.6530 0.6470 0.6410 0.6300 0.6160
13.161000 0.5950 0.5790 0.5750 0.5640 0.5540
13.185469 0.5450 0.5390 0.5280 0.5220 0.5070
13.210000 0.5040 0.5030 0.5030 0.5030 0.5010
13.234469 0.4920 0.4870 0.4820 0.4770 0.4710
13.258000 0.4700 0.4670 0.4660 0.4660 0.4660
13.282469 0.4660 0.4660 0.4660 0.4660 0.4670
13.307000 0.4770 0.4900 0.4990 0.5060 0.5180
13.331469 0.5390 0.5600 0.5710 0.5810 0.5970
13.356000 0.6110 0.6120 0.6160 0.6190 0.6300
13.380469 0.6370 0.6420 0.6550 0.6610 0.6640
13.405000 0.6670 0.6690 0.6700 0.6710 0.6710
13.429469 0.6720 0.6730 0.6750 0.6750 0.6760
13.454000 0.6760 0.6770 0.6770 0.6780 0.6780
13.478469 0.6770 0.6770 0.6770 0.6770 0.6760
13.503000 0.6760 0.6760 0.6750 0.6750 0.6750
13.527469 0.6750 0.6730 0.6730 0.6730 0.6730
13.552000 0.6720 0.6710 0.6700 0.6690 0.6670
13.576469 0.6660 0.6650 0.6640 0.6630 0.6610
13.601000 0.6600 0.6580 0.6560 0.6560 0.6550
13.625469 0.6550 0.6550 0.6550 0.6550 0.6550
13.650000 0.6580 0.6580 0.6580 0.6590 0.6600
13.674469 0.6610 0.6670 0.6720 0.6760 0.6800
13.699000 0.6820 0.6830 0.6840 0.6840 0.6860
13.723469 0.6870 0.6890 0.6890 0.6890 0.6910
13.748000 0.6910 0.6920 0.6910 0.6910 0.6890
13.772469 0.6880 0.6880 0.6870 0.6860 0.6840
13.797000 0.6830 0.6780 0.6720 0.6650 0.6600
13.821469 0.6550 0.6530 0.6500 0.6390 0.6360
13.845000 0.6330 0.6300 0.6250 0.6250 0.6220
13.869469 0.6210 0.6190 0.6170 0.6160 0.6160
13.894000 0.6160 0.6110 0.6060 0.6050 0.6030
13.918469 0.6030 0.6030 0.6030 0.6030 0.6030
13.943000 0.6040 0.6080 0.6120 0.6140 0.6150
13.967469 0.6170 0.6230 0.6250 0.6260 0.6300
13.992000 0.6330 0.6370 0.6420 0.6450 0.6450
14.016469 0.6450 0.6450 0.6450 0.6450 0.6450
14.041000 0.6450 0.6450 0.6470 0.6480 0.6480
14.065469 0.6490 0.6490 0.6500 0.6520 0.6520
14.090000 0.6530 0.6530 0.6540 0.6550 0.6550
14.114469 0.6560 0.6560 0.6580 0.6630 0.6660
14.139000 0.6710 0.6750 0.6810 0.6810 0.6820
14.163469 0.6830 0.6840 0.6870 0.6920 0.6990
14.188000 0.7040 0.7090 0.7110 0.7160 0.7170
14.212469 0.7170 0.7190 0.7190 0.7190 0.7190
14.237000 0.7190 0.7190 0.7190 0.7190 0.7190
14.261469 0.7190 0.7170 0.7160 0.7150 0.7140
14.286000 0.7130 0.7110 0.7100 0.7080 0.7030
14.310469 0.6980 0.6920 0.6840 0.6730 0.6670
14.335000 0.6650 0.6640 0.6580 0.6520 0.6440
14.359469 0.6390 0.6360 0.6310 0.6260 0.6210
14.384000 0.6190 0.6140 0.6040 0.6000 0.5980
14.408469 0.5970 0.5950 0.5940 0.5920 0.5900
14.433000 0.5890 0.5870 0.5840 0.5830 0.5730
14.457469 0.5720 0.5710 0.5710 0.5700 0.5680
14.481000 0.5670 0.5660 0.5660 0.5660 0.5660
14.505469 0.5650 0.5650 0.5650 0.5660 0.5700
14.530000 0.5730 0.5770 0.5810 0.5890 0.5970
14.554469 0.6140 0.6280 0.6380 0.6440 0.6490
14.579000 0.6520 0.6540 0.6580 0.6630 0.6700
14.603469 0.6810 0.6840 0.6890 0.6910 0.6920
14.628000 0.6980 0.7050 0.7080 0.7080 0.7090
14.652469 0.7090 0.7100 0.7110 0.7150 0.7170
14.677000 0.7190 0.7200 0.7210 0.7210 0.7220
14.701469 0.7220 0.7220 0.7220 0.7220 0.7220
14.726000 0.7220 0.7240 0.7240 0.7240 0.7250
14.750469 0.7250 0.7250 0.7250 0.7260 0.7260
14.775000 0.7260 0.7270 0.7270 0.7280 0.7280
14.799469 0.7280 0.7300 0.7300 0.7310 0.7310
14.824000 0.7310 0.7320 0.7320 0.7330 0.7330
14.848469 0.7330 0.7330 0.7330 0.7330 0.7320
14.873000 0.7320 0.7320 0.7320 0.7310 0.7310
14.897469 0.7310 0.7310 0.7300 0.7280 0.7270
14.922000 0.7260 0.7250 0.7240 0.7220 0.7210
14.946469 0.7200 0.7190 0.7170 0.7170 0.7170
14.971000 0.7170 0.7170 0.7170 0.7170 0.7170
14.995469 0.7170 0.7170 0.7170 0.7190 0.7190
15.020000 0.7190 0.7170 0.7170 0.7170 0.7170
15.044469 0.7160 0.7160 0.7140 0.7110 0.7100
15.068000 0.7100 0.7090 0.7060 0.7050 0.7030
15.092469 0.7020 0.7020 0.7020 0.7000 0.7000
15.117000 0.7000 0.6990
##END=
