##TITLE=1,4-Butanediamine, N-(3-aminopropyl)-, phosphate (1 to 1)
##JCAMP-DX=4.24
##DATA TYPE=INFRARED SPECTRUM
##CLASS=COBLENTZ III
##ORIGIN=DOW CHEMICAL COMPANY
##OWNER=Copyright (C) 1987 by the Coblentz Society
Collection (C) 2018 copyright by the U.S. Secretary of Commerce
on behalf of the United States of America. All rights reserved.
##DATE=1966/02/04
##NAMES=phosphoric acid compound with N<1>-(3-aminopropyl)-1,4-butanediamine (1:1)
##MOLFORM=C7 H22 N3 O4 P
##SOURCE REFERENCE=COBLENTZ NO. 8073
##$NIST ID=B6008073
##$NIST SOURCE=COBLENTZ
##$NIST IMAGE=cob8073
##SPECTROMETER/DATA SYSTEM=BECKMAN IR-9 (GRATING)
##INSTRUMENT PARAMETERS=ORDER CHANGES: 670, 1200, 2000 CM^-^1
##STATE=SOLID (SPLIT MULL), FLUOROLUBE FOR 3800-1330 CM^-^1, NUJOL FOR 1330-400 CM^-^1
##SAMPLING PROCEDURE=TRANSMISSION
##RESOLUTION=2
##DATA PROCESSING=DIGITIZED BY COBLENTZ SOCIETY (BATCH II) FROM HARD COPY
##XUNITS=1/CM
##YUNITS=TRANSMITTANCE
##XFACTOR=1.0
##YFACTOR=1
##FIRSTX=403
##LASTX=3802
##FIRSTY=0.3205
##MAXX=3802
##MINX=403
##MAXY=0.8708
##MINY=0.0244
##NPOINTS=3400
##XYDATA=(X++(Y..Y))
403.000000 0.3205 0.3205 0.3205 0.3210 0.3215
408.000000 0.3221 0.3227 0.3238 0.3250 0.3261
413.000000 0.3278 0.3297 0.3317 0.3342 0.3369
418.000000 0.3396 0.3423 0.3454 0.3489 0.3525
423.000000 0.3560 0.3596 0.3636 0.3677 0.3718
428.000000 0.3759 0.3801 0.3852 0.3903 0.3954
433.000000 0.4005 0.4056 0.4098 0.4140 0.4182
438.000000 0.4223 0.4265 0.4307 0.4359 0.4424
443.000000 0.4488 0.4552 0.4593 0.4630 0.4667
448.000000 0.4695 0.4709 0.4724 0.4738 0.4742
453.000000 0.4738 0.4734 0.4729 0.4757 0.4703
458.000000 0.4687 0.4661 0.4628 0.4594 0.4561
463.000000 0.4528 0.4495 0.4462 0.4414 0.4330
468.000000 0.4247 0.4164 0.4080 0.3997 0.3913
473.000000 0.3830 0.3747 0.3663 0.3580 0.3496
478.000000 0.3413 0.3330 0.3246 0.3163 0.3079
483.000000 0.2996 0.2912 0.2829 0.2746 0.2662
488.000000 0.2579 0.2495 0.2348 0.2193 0.2043
493.000000 0.1911 0.1799 0.1700 0.1577 0.1488
498.000000 0.1433 0.1410 0.1403 0.1369 0.1426
503.000000 0.1448 0.1475 0.1503 0.1532 0.1564
508.000000 0.1597 0.1628 0.1653 0.1678 0.1689
513.000000 0.1691 0.1711 0.1679 0.1661 0.1639
518.000000 0.1610 0.1581 0.1552 0.1516 0.1475
523.000000 0.1434 0.1403 0.1373 0.1343 0.1314
528.000000 0.1299 0.1299 0.1317 0.1332 0.1371
533.000000 0.1428 0.1545 0.1629 0.1778 0.1965
538.000000 0.2123 0.2281 0.2440 0.2598 0.2749
543.000000 0.2816 0.2862 0.2898 0.2931 0.2951
548.000000 0.2972 0.2986 0.2998 0.3010 0.3021
553.000000 0.3050 0.3084 0.3156 0.3339 0.3510
558.000000 0.3745 0.3980 0.4214 0.4449 0.4684
563.000000 0.4919 0.5154 0.5389 0.5624 0.5859
568.000000 0.6085 0.6203 0.6305 0.6438 0.6566
573.000000 0.6659 0.6752 0.6938 0.7137 0.7346
578.000000 0.7529 0.7677 0.7768 0.7859 0.7924
583.000000 0.7988 0.8050 0.8095 0.8140 0.8186
588.000000 0.8229 0.8264 0.8300 0.8335 0.8371
593.000000 0.8401 0.8428 0.8455 0.8481 0.8500
598.000000 0.8513 0.8526 0.8538 0.8551 0.8564
603.000000 0.8574 0.8579 0.8584 0.8589 0.8595
608.000000 0.8600 0.8604 0.8604 0.8605 0.8604
613.000000 0.8607 0.8608 0.8608 0.8603 0.8599
618.000000 0.8594 0.8590 0.8585 0.8580 0.8570
623.000000 0.8559 0.8549 0.8539 0.8529 0.8517
628.000000 0.8501 0.8485 0.8468 0.8452 0.8435
633.000000 0.8416 0.8398 0.8380 0.8361 0.8343
638.000000 0.8324 0.8305 0.8286 0.8266 0.8247
643.000000 0.8228 0.8208 0.8189 0.8169 0.8150
648.000000 0.8131 0.8111 0.8091 0.8069 0.8047
653.000000 0.8025 0.8004 0.7982 0.7960 0.7938
658.000000 0.7916 0.7894 0.7872 0.7849 0.7825
663.000000 0.7802 0.7778 0.7755 0.7732 0.7708
668.000000 0.7685 0.7665 0.7651 0.7637 0.7623
673.000000 0.7609 0.7612 0.7615 0.7618 0.7620
678.000000 0.7612 0.7593 0.7572 0.7550 0.7528
683.000000 0.7503 0.7474 0.7440 0.7405 0.7369
688.000000 0.7332 0.7295 0.7258 0.7219 0.7176
693.000000 0.7133 0.7087 0.7030 0.6974 0.6918
698.000000 0.6849 0.6775 0.6696 0.6618 0.6543
703.000000 0.6468 0.6398 0.6342 0.6286 0.6230
708.000000 0.6174 0.6111 0.6035 0.5958 0.5880
713.000000 0.5800 0.5720 0.5639 0.5554 0.5469
718.000000 0.5334 0.5197 0.5060 0.4923 0.4776
723.000000 0.4650 0.4563 0.4544 0.4523 0.4535
728.000000 0.4523 0.4537 0.4560 0.4593 0.4632
733.000000 0.4660 0.4683 0.4693 0.4702 0.4711
738.000000 0.4690 0.4682 0.4663 0.4644 0.4623
743.000000 0.4601 0.4578 0.4553 0.4528 0.4503
748.000000 0.4477 0.4445 0.4407 0.4368 0.4327
753.000000 0.4282 0.4237 0.4192 0.4147 0.4101
758.000000 0.4054 0.4008 0.3957 0.3898 0.3839
763.000000 0.3781 0.3736 0.3690 0.3652 0.3636
768.000000 0.3621 0.3608 0.3599 0.3590 0.3581
773.000000 0.3580 0.3589 0.3579 0.3594 0.3607
778.000000 0.3626 0.3651 0.3689 0.3730 0.3770
783.000000 0.3811 0.3851 0.3928 0.4012 0.4099
788.000000 0.4185 0.4245 0.4283 0.4320 0.4339
793.000000 0.4339 0.4339 0.4335 0.4329 0.4322
798.000000 0.4316 0.4300 0.4284 0.4265 0.4237
803.000000 0.4209 0.4180 0.4142 0.4105 0.4067
808.000000 0.4028 0.3987 0.3946 0.3906 0.3865
813.000000 0.3826 0.3786 0.3746 0.3706 0.3671
818.000000 0.3639 0.3607 0.3574 0.3542 0.3510
823.000000 0.3478 0.3443 0.3405 0.3367 0.3328
828.000000 0.3290 0.3252 0.3212 0.3171 0.3129
833.000000 0.3088 0.3047 0.3007 0.2969 0.2930
838.000000 0.2891 0.2852 0.2813 0.2770 0.2727
843.000000 0.2684 0.2640 0.2597 0.2554 0.2512
848.000000 0.2477 0.2442 0.2407 0.2377 0.2357
853.000000 0.2338 0.2318 0.2302 0.2291 0.2280
858.000000 0.2269 0.2254 0.2239 0.2225 0.2210
863.000000 0.2190 0.2161 0.2131 0.2096 0.2060
868.000000 0.2025 0.1991 0.1956 0.1921 0.1886
873.000000 0.1849 0.1812 0.1775 0.1738 0.1700
878.000000 0.1659 0.1619 0.1578 0.1536 0.1491
883.000000 0.1447 0.1402 0.1358 0.1312 0.1266
888.000000 0.1220 0.1167 0.1111 0.1067 0.1040
893.000000 0.1037 0.1051 0.1061 0.1074 0.1088
898.000000 0.1105 0.1123 0.1144 0.1167 0.1191
903.000000 0.1218 0.1245 0.1272 0.1299 0.1323
908.000000 0.1334 0.1337 0.1338 0.1361 0.1331
913.000000 0.1319 0.1300 0.1272 0.1242 0.1210
918.000000 0.1170 0.1128 0.1085 0.1038 0.0991
923.000000 0.0945 0.0902 0.0860 0.0818 0.0774
928.000000 0.0724 0.0674 0.0635 0.0600 0.0566
933.000000 0.0533 0.0503 0.0472 0.0442 0.0413
938.000000 0.0396 0.0378 0.0367 0.0360 0.0359
943.000000 0.0359 0.0360 0.0362 0.0363 0.0364
948.000000 0.0364 0.0364 0.0363 0.0363 0.0363
953.000000 0.0363 0.0334 0.0362 0.0362 0.0361
958.000000 0.0361 0.0361 0.0360 0.0360 0.0360
963.000000 0.0360 0.0360 0.0364 0.0373 0.0382
968.000000 0.0413 0.0444 0.0472 0.0500 0.0527
973.000000 0.0554 0.0579 0.0599 0.0618 0.0637
978.000000 0.0656 0.0675 0.0694 0.0713 0.0731
983.000000 0.0750 0.0769 0.0787 0.0796 0.0805
988.000000 0.0814 0.0823 0.0829 0.0836 0.0843
993.000000 0.0850 0.0855 0.0860 0.0898 0.0871
998.000000 0.0870 0.0866 0.0855 0.0843 0.0830
1003.000000 0.0809 0.0789 0.0769 0.0750 0.0730
1008.000000 0.0710 0.0691 0.0672 0.0653 0.0634
1013.000000 0.0615 0.0602 0.0589 0.0575 0.0562
1018.000000 0.0549 0.0535 0.0521 0.0507 0.0493
1023.000000 0.0479 0.0465 0.0451 0.0437 0.0423
1028.000000 0.0409 0.0396 0.0382 0.0368 0.0354
1033.000000 0.0341 0.0328 0.0316 0.0304 0.0291
1038.000000 0.0288 0.0285 0.0283 0.0244 0.0278
1043.000000 0.0275 0.0273 0.0272 0.0280 0.0287
1048.000000 0.0296 0.0306 0.0316 0.0326 0.0331
1053.000000 0.0337 0.0342 0.0348 0.0356 0.0364
1058.000000 0.0372 0.0384 0.0398 0.0412 0.0426
1063.000000 0.0440 0.0454 0.0468 0.0483 0.0497
1068.000000 0.0512 0.0527 0.0541 0.0558 0.0578
1073.000000 0.0598 0.0618 0.0638 0.0659 0.0683
1078.000000 0.0706 0.0730 0.0753 0.0777 0.0803
1083.000000 0.0829 0.0855 0.0881 0.0907 0.0929
1088.000000 0.0946 0.0962 0.0978 0.0994 0.1002
1093.000000 0.1007 0.1038 0.1002 0.0997 0.0992
1098.000000 0.0987 0.0983 0.0978 0.0973 0.0968
1103.000000 0.0963 0.0953 0.0939 0.0925 0.0911
1108.000000 0.0897 0.0881 0.0863 0.0846 0.0829
1113.000000 0.0809 0.0789 0.0768 0.0749 0.0731
1118.000000 0.0714 0.0697 0.0679 0.0662 0.0641
1123.000000 0.0619 0.0603 0.0596 0.0588 0.0581
1128.000000 0.0575 0.0570 0.0569 0.0572 0.0521
1133.000000 0.0577 0.0580 0.0585 0.0589 0.0600
1138.000000 0.0611 0.0621 0.0634 0.0661 0.0689
1143.000000 0.0719 0.0748 0.0774 0.0800 0.0826
1148.000000 0.0865 0.0907 0.0948 0.0990 0.1035
1153.000000 0.1080 0.1126 0.1171 0.1220 0.1269
1158.000000 0.1318 0.1366 0.1422 0.1485 0.1549
1163.000000 0.1614 0.1683 0.1753 0.1800 0.1828
1168.000000 0.1849 0.1852 0.1855 0.1858 0.1859
1173.000000 0.1856 0.1853 0.1853 0.1864 0.1875
1178.000000 0.1886 0.1906 0.1927 0.1949 0.1973
1183.000000 0.1998 0.2024 0.2049 0.2077 0.2106
1188.000000 0.2135 0.2164 0.2192 0.2221 0.2252
1193.000000 0.2282 0.2313 0.2343 0.2373 0.2403
1198.000000 0.2430 0.2456 0.2483 0.2510 0.2536
1203.000000 0.2551 0.2564 0.2578 0.2592 0.2602
1208.000000 0.2611 0.2620 0.2629 0.2639 0.2646
1213.000000 0.2654 0.2661 0.2668 0.2678 0.2693
1218.000000 0.2708 0.2724 0.2739 0.2754 0.2769
1223.000000 0.2783 0.2798 0.2813 0.2830 0.2848
1228.000000 0.2867 0.2890 0.2913 0.2938 0.2958
1233.000000 0.2970 0.2979 0.2992 0.3022 0.3053
1238.000000 0.3085 0.3116 0.3148 0.3170 0.3190
1243.000000 0.3210 0.3230 0.3248 0.3267 0.3289
1248.000000 0.3315 0.3339 0.3348 0.3356 0.3362
1253.000000 0.3361 0.3346 0.3328 0.3304 0.3253
1258.000000 0.3220 0.3207 0.3219 0.3244 0.3292
1263.000000 0.3344 0.3396 0.3447 0.3496 0.3544
1268.000000 0.3586 0.3628 0.3651 0.3660 0.3666
1273.000000 0.3672 0.3680 0.3688 0.3697 0.3756
1278.000000 0.3829 0.3910 0.4000 0.4080 0.4154
1283.000000 0.4219 0.4283 0.4343 0.4390 0.4436
1288.000000 0.4483 0.4529 0.4573 0.4615 0.4657
1293.000000 0.4699 0.4733 0.4763 0.4793 0.4823
1298.000000 0.4854 0.4884 0.4914 0.4944 0.4975
1303.000000 0.5005 0.5035 0.5065 0.5095 0.5129
1308.000000 0.5166 0.5203 0.5240 0.5277 0.5315
1313.000000 0.5356 0.5396 0.5437 0.5471 0.5497
1318.000000 0.5523 0.5548 0.5564 0.5574 0.5584
1323.000000 0.5591 0.5595 0.5600 0.5604 0.5621
1328.000000 0.5640 0.5660 0.5685 0.5724 0.5791
1333.000000 0.5859 0.5927 0.5994 0.6062 0.6130
1338.000000 0.6197 0.6265 0.6332 0.6400 0.6406
1343.000000 0.6409 0.6415 0.6440 0.6472 0.6507
1348.000000 0.6564 0.6624 0.6728 0.6843 0.6947
1353.000000 0.7067 0.7252 0.7393 0.7688 0.7827
1358.000000 0.7925 0.8005 0.8071 0.8136 0.8191
1363.000000 0.8246 0.8299 0.8330 0.8360 0.8391
1368.000000 0.8422 0.8449 0.8476 0.8487 0.8527
1373.000000 0.8506 0.8502 0.8477 0.8444 0.8404
1378.000000 0.8356 0.8305 0.8270 0.8244 0.8233
1383.000000 0.8226 0.8225 0.8223 0.8221 0.8221
1388.000000 0.8222 0.8222 0.8211 0.8187 0.8135
1393.000000 0.8020 0.7921 0.7626 0.7283 0.6939
1398.000000 0.6596 0.6253 0.5910 0.5566 0.5244
1403.000000 0.5203 0.5179 0.5208 0.5474 0.5741
1408.000000 0.6007 0.6274 0.6541 0.6807 0.7074
1413.000000 0.7293 0.7357 0.7452 0.7578 0.7747
1418.000000 0.7873 0.7990 0.8054 0.8117 0.8160
1423.000000 0.8203 0.8244 0.8263 0.8282 0.8301
1428.000000 0.8315 0.8328 0.8339 0.8321 0.8340
1433.000000 0.8338 0.8337 0.8324 0.8309 0.8290
1438.000000 0.8265 0.8231 0.8186 0.8137 0.8078
1443.000000 0.8025 0.7972 0.7922 0.7873 0.7823
1448.000000 0.7768 0.7697 0.7622 0.7528 0.7451
1453.000000 0.7385 0.7320 0.7260 0.7203 0.7147
1458.000000 0.7095 0.7047 0.6995 0.6941 0.6885
1463.000000 0.6774 0.6541 0.6414 0.6334 0.6276
1468.000000 0.6214 0.6140 0.5998 0.5740 0.5487
1473.000000 0.4934 0.4785 0.4670 0.4578 0.4472
1478.000000 0.4388 0.4362 0.4426 0.4346 0.4792
1483.000000 0.4974 0.5157 0.5340 0.5522 0.5618
1488.000000 0.5618 0.5619 0.5619 0.5619 0.5620
1493.000000 0.5649 0.5616 0.5614 0.5612 0.5609
1498.000000 0.5605 0.5601 0.5575 0.5535 0.5468
1503.000000 0.5380 0.5294 0.5163 0.5061 0.4970
1508.000000 0.4886 0.4844 0.4833 0.4810 0.4839
1513.000000 0.4862 0.4905 0.4955 0.5073 0.5172
1518.000000 0.5258 0.5285 0.5304 0.5304 0.5304
1523.000000 0.5309 0.5256 0.5135 0.5029 0.4917
1528.000000 0.4809 0.4708 0.4595 0.4439 0.4294
1533.000000 0.4153 0.4056 0.3960 0.3837 0.3691
1538.000000 0.3602 0.3552 0.3543 0.3518 0.3588
1543.000000 0.3631 0.3685 0.3765 0.3842 0.3910
1548.000000 0.3971 0.4032 0.4094 0.4153 0.4200
1553.000000 0.4241 0.4274 0.4288 0.4291 0.4289
1558.000000 0.4268 0.4242 0.4206 0.4107 0.3990
1563.000000 0.3913 0.3894 0.3896 0.3912 0.3956
1568.000000 0.4195 0.4435 0.4675 0.4915 0.5138
1573.000000 0.5271 0.5405 0.5532 0.5644 0.5747
1578.000000 0.5829 0.5903 0.5972 0.6026 0.6065
1583.000000 0.6090 0.6103 0.6111 0.6129 0.6112
1588.000000 0.6104 0.6089 0.6073 0.6048 0.6024
1593.000000 0.5990 0.5955 0.5917 0.5879 0.5841
1598.000000 0.5798 0.5740 0.5682 0.5624 0.5564
1603.000000 0.5503 0.5443 0.5295 0.5146 0.4998
1608.000000 0.4850 0.4702 0.4544 0.4379 0.4266
1613.000000 0.4173 0.4080 0.3982 0.3883 0.3770
1618.000000 0.3644 0.3483 0.3278 0.3059 0.2908
1623.000000 0.2786 0.2691 0.2551 0.2232 0.2101
1628.000000 0.2059 0.2052 0.2052 0.2049 0.2097
1633.000000 0.2133 0.2207 0.2292 0.2446 0.2736
1638.000000 0.3025 0.3315 0.3605 0.3852 0.4013
1643.000000 0.4130 0.4200 0.4267 0.4342 0.4430
1648.000000 0.4532 0.4647 0.4786 0.4882 0.4964
1653.000000 0.5026 0.5087 0.5148 0.5221 0.5303
1658.000000 0.5373 0.5416 0.5459 0.5502 0.5545
1663.000000 0.5578 0.5610 0.5643 0.5660 0.5676
1668.000000 0.5685 0.5692 0.5700 0.5716 0.5734
1673.000000 0.5760 0.5787 0.5816 0.5844 0.5868
1678.000000 0.5892 0.5916 0.5940 0.5963 0.5986
1683.000000 0.6009 0.6032 0.6054 0.6077 0.6099
1688.000000 0.6121 0.6143 0.6165 0.6187 0.6209
1693.000000 0.6231 0.6253 0.6275 0.6296 0.6317
1698.000000 0.6338 0.6358 0.6379 0.6400 0.6421
1703.000000 0.6441 0.6462 0.6483 0.6504 0.6523
1708.000000 0.6543 0.6562 0.6582 0.6601 0.6620
1713.000000 0.6640 0.6661 0.6682 0.6702 0.6722
1718.000000 0.6739 0.6756 0.6772 0.6789 0.6806
1723.000000 0.6822 0.6839 0.6853 0.6866 0.6879
1728.000000 0.6893 0.6906 0.6919 0.6932 0.6945
1733.000000 0.6958 0.6971 0.6986 0.7002 0.7017
1738.000000 0.7033 0.7049 0.7064 0.7080 0.7094
1743.000000 0.7109 0.7123 0.7137 0.7151 0.7165
1748.000000 0.7179 0.7193 0.7210 0.7226 0.7243
1753.000000 0.7260 0.7277 0.7294 0.7310 0.7327
1758.000000 0.7344 0.7361 0.7378 0.7394 0.7413
1763.000000 0.7433 0.7452 0.7472 0.7491 0.7507
1768.000000 0.7522 0.7538 0.7554 0.7570 0.7586
1773.000000 0.7601 0.7617 0.7633 0.7649 0.7665
1778.000000 0.7682 0.7698 0.7714 0.7731 0.7747
1783.000000 0.7763 0.7779 0.7796 0.7812 0.7828
1788.000000 0.7844 0.7861 0.7877 0.7893 0.7909
1793.000000 0.7926 0.7940 0.7955 0.7969 0.7983
1798.000000 0.7997 0.8011 0.8025 0.8039 0.8054
1803.000000 0.8068 0.8082 0.8096 0.8110 0.8124
1808.000000 0.8138 0.8153 0.8167 0.8182 0.8196
1813.000000 0.8211 0.8226 0.8240 0.8255 0.8269
1818.000000 0.8280 0.8291 0.8301 0.8312 0.8323
1823.000000 0.8334 0.8345 0.8353 0.8362 0.8371
1828.000000 0.8380 0.8389 0.8398 0.8407 0.8416
1833.000000 0.8425 0.8434 0.8442 0.8449 0.8457
1838.000000 0.8464 0.8471 0.8478 0.8486 0.8493
1843.000000 0.8500 0.8507 0.8514 0.8519 0.8525
1848.000000 0.8530 0.8535 0.8540 0.8546 0.8551
1853.000000 0.8556 0.8562 0.8567 0.8572 0.8576
1858.000000 0.8578 0.8581 0.8583 0.8585 0.8588
1863.000000 0.8590 0.8592 0.8597 0.8602 0.8607
1868.000000 0.8612 0.8617 0.8622 0.8627 0.8632
1873.000000 0.8637 0.8642 0.8647 0.8651 0.8654
1878.000000 0.8658 0.8661 0.8664 0.8668 0.8671
1883.000000 0.8674 0.8678 0.8681 0.8685 0.8688
1888.000000 0.8690 0.8691 0.8693 0.8694 0.8696
1893.000000 0.8697 0.8699 0.8700 0.8701 0.8703
1898.000000 0.8704 0.8706 0.8707 0.8708 0.8697
1903.000000 0.8707 0.8707 0.8707 0.8706 0.8706
1908.000000 0.8706 0.8706 0.8706 0.8705 0.8705
1913.000000 0.8705 0.8703 0.8700 0.8697 0.8695
1918.000000 0.8692 0.8689 0.8687 0.8684 0.8681
1923.000000 0.8677 0.8670 0.8663 0.8656 0.8649
1928.000000 0.8642 0.8634 0.8627 0.8620 0.8612
1933.000000 0.8603 0.8594 0.8585 0.8576 0.8566
1938.000000 0.8557 0.8548 0.8539 0.8530 0.8520
1943.000000 0.8511 0.8501 0.8491 0.8481 0.8471
1948.000000 0.8461 0.8452 0.8442 0.8432 0.8421
1953.000000 0.8410 0.8399 0.8388 0.8377 0.8366
1958.000000 0.8355 0.8344 0.8332 0.8321 0.8309
1963.000000 0.8298 0.8286 0.8274 0.8263 0.8251
1968.000000 0.8240 0.8228 0.8217 0.8205 0.8194
1973.000000 0.8182 0.8170 0.8159 0.8147 0.8135
1978.000000 0.8119 0.8103 0.8087 0.8071 0.8056
1983.000000 0.8040 0.8024 0.8008 0.7992 0.7972
1988.000000 0.7950 0.7928 0.7906 0.7884 0.7862
1993.000000 0.7840 0.7818 0.7798 0.7778 0.7758
1998.000000 0.7738 0.7718 0.7685 0.7318 0.6952
2003.000000 0.6636 0.6320 0.6003 0.5687 0.5370
2008.000000 0.5054 0.4738 0.4422 0.4105 0.3789
2013.000000 0.3730 0.3672 0.3662 0.3653 0.3642
2018.000000 0.3632 0.3621 0.3610 0.3598 0.3587
2023.000000 0.3577 0.3568 0.3559 0.3550 0.3540
2028.000000 0.3531 0.3519 0.3508 0.3496 0.3485
2033.000000 0.3472 0.3460 0.3446 0.3432 0.3418
2038.000000 0.3405 0.3391 0.3377 0.3363 0.3349
2043.000000 0.3335 0.3322 0.3308 0.3295 0.3281
2048.000000 0.3267 0.3253 0.3240 0.3226 0.3213
2053.000000 0.3198 0.3184 0.3169 0.3155 0.3140
2058.000000 0.3126 0.3111 0.3097 0.3082 0.3068
2063.000000 0.3053 0.3039 0.3022 0.3006 0.2989
2068.000000 0.2972 0.2955 0.2939 0.2922 0.2905
2073.000000 0.2888 0.2871 0.2855 0.2840 0.2824
2078.000000 0.2809 0.2793 0.2778 0.2763 0.2748
2083.000000 0.2732 0.2717 0.2702 0.2687 0.2672
2088.000000 0.2657 0.2642 0.2628 0.2613 0.2598
2093.000000 0.2583 0.2569 0.2554 0.2539 0.2526
2098.000000 0.2513 0.2501 0.2489 0.2477 0.2466
2103.000000 0.2454 0.2442 0.2430 0.2418 0.2407
2108.000000 0.2397 0.2386 0.2376 0.2365 0.2355
2113.000000 0.2344 0.2334 0.2323 0.2313 0.2302
2118.000000 0.2292 0.2281 0.2271 0.2264 0.2257
2123.000000 0.2250 0.2244 0.2237 0.2230 0.2223
2128.000000 0.2216 0.2209 0.2202 0.2195 0.2188
2133.000000 0.2181 0.2174 0.2167 0.2161 0.2154
2138.000000 0.2147 0.2140 0.2133 0.2126 0.2120
2143.000000 0.2114 0.2108 0.2102 0.2096 0.2090
2148.000000 0.2084 0.2078 0.2072 0.2066 0.2060
2153.000000 0.2054 0.2049 0.2044 0.2039 0.2034
2158.000000 0.2029 0.2024 0.2019 0.2014 0.2009
2163.000000 0.2004 0.1999 0.1994 0.1989 0.1984
2168.000000 0.1979 0.1974 0.1970 0.1965 0.1961
2173.000000 0.1956 0.1952 0.1947 0.1943 0.1938
2178.000000 0.1934 0.1930 0.1926 0.1923 0.1920
2183.000000 0.1916 0.1913 0.1909 0.1906 0.1902
2188.000000 0.1899 0.1895 0.1892 0.1888 0.1885
2193.000000 0.1881 0.1878 0.1874 0.1871 0.1867
2198.000000 0.1864 0.1860 0.1856 0.1851 0.1847
2203.000000 0.1843 0.1839 0.1834 0.1830 0.1825
2208.000000 0.1821 0.1817 0.1813 0.1808 0.1804
2213.000000 0.1799 0.1795 0.1791 0.1787 0.1782
2218.000000 0.1778 0.1773 0.1769 0.1764 0.1760
2223.000000 0.1755 0.1750 0.1745 0.1740 0.1735
2228.000000 0.1730 0.1725 0.1721 0.1716 0.1711
2233.000000 0.1706 0.1701 0.1696 0.1691 0.1685
2238.000000 0.1680 0.1673 0.1667 0.1661 0.1655
2243.000000 0.1649 0.1643 0.1636 0.1630 0.1624
2248.000000 0.1618 0.1612 0.1606 0.1599 0.1593
2253.000000 0.1587 0.1581 0.1574 0.1568 0.1561
2258.000000 0.1555 0.1548 0.1542 0.1536 0.1530
2263.000000 0.1523 0.1517 0.1510 0.1504 0.1497
2268.000000 0.1491 0.1484 0.1478 0.1471 0.1465
2273.000000 0.1459 0.1453 0.1446 0.1439 0.1432
2278.000000 0.1426 0.1419 0.1413 0.1406 0.1400
2283.000000 0.1393 0.1387 0.1380 0.1374 0.1367
2288.000000 0.1360 0.1353 0.1347 0.1340 0.1334
2293.000000 0.1327 0.1321 0.1315 0.1309 0.1303
2298.000000 0.1297 0.1291 0.1285 0.1278 0.1272
2303.000000 0.1266 0.1260 0.1254 0.1248 0.1242
2308.000000 0.1236 0.1230 0.1224 0.1218 0.1212
2313.000000 0.1206 0.1200 0.1195 0.1191 0.1187
2318.000000 0.1184 0.1180 0.1177 0.1173 0.1169
2323.000000 0.1165 0.1162 0.1158 0.1155 0.1152
2328.000000 0.1150 0.1148 0.1147 0.1145 0.1144
2333.000000 0.1142 0.1141 0.1139 0.1138 0.1137
2338.000000 0.1136 0.1136 0.1136 0.1136 0.1137
2343.000000 0.1137 0.1137 0.1137 0.1137 0.1137
2348.000000 0.1137 0.1137 0.1137 0.1137 0.1137
2353.000000 0.1137 0.1137 0.1137 0.1137 0.1136
2358.000000 0.1136 0.1136 0.1136 0.1135 0.1135
2363.000000 0.1135 0.1135 0.1134 0.1134 0.1134
2368.000000 0.1134 0.1133 0.1133 0.1133 0.1133
2373.000000 0.1132 0.1132 0.1131 0.1131 0.1130
2378.000000 0.1130 0.1129 0.1129 0.1129 0.1129
2383.000000 0.1128 0.1128 0.1127 0.1127 0.1126
2388.000000 0.1126 0.1125 0.1125 0.1124 0.1124
2393.000000 0.1123 0.1122 0.1121 0.1120 0.1118
2398.000000 0.1117 0.1116 0.1115 0.1114 0.1113
2403.000000 0.1111 0.1110 0.1109 0.1108 0.1106
2408.000000 0.1105 0.1104 0.1103 0.1102 0.1101
2413.000000 0.1100 0.1099 0.1098 0.1097 0.1096
2418.000000 0.1095 0.1094 0.1093 0.1092 0.1091
2423.000000 0.1090 0.1089 0.1087 0.1086 0.1084
2428.000000 0.1083 0.1080 0.1078 0.1075 0.1073
2433.000000 0.1070 0.1068 0.1065 0.1063 0.1061
2438.000000 0.1059 0.1056 0.1054 0.1051 0.1049
2443.000000 0.1046 0.1044 0.1041 0.1039 0.1035
2448.000000 0.1032 0.1028 0.1025 0.1022 0.1019
2453.000000 0.1015 0.1012 0.1008 0.1005 0.1001
2458.000000 0.0998 0.0993 0.0989 0.0985 0.0981
2463.000000 0.0976 0.0972 0.0967 0.0963 0.0959
2468.000000 0.0955 0.0950 0.0946 0.0942 0.0938
2473.000000 0.0934 0.0930 0.0926 0.0923 0.0920
2478.000000 0.0917 0.0913 0.0910 0.0907 0.0905
2483.000000 0.0904 0.0903 0.0901 0.0900 0.0899
2488.000000 0.0898 0.0897 0.0896 0.0894 0.0893
2493.000000 0.0892 0.0891 0.0890 0.0889 0.0887
2498.000000 0.0886 0.0885 0.0884 0.0882 0.0881
2503.000000 0.0880 0.0879 0.0877 0.0876 0.0874
2508.000000 0.0873 0.0872 0.0871 0.0869 0.0868
2513.000000 0.0867 0.0866 0.0864 0.0863 0.0861
2518.000000 0.0859 0.0857 0.0856 0.0854 0.0852
2523.000000 0.0850 0.0849 0.0847 0.0845 0.0843
2528.000000 0.0841 0.0839 0.0838 0.0833 0.0828
2533.000000 0.0822 0.0817 0.0811 0.0806 0.0798
2538.000000 0.0791 0.0782 0.0773 0.0763 0.0754
2543.000000 0.0744 0.0735 0.0725 0.0716 0.0706
2548.000000 0.0696 0.0686 0.0677 0.0667 0.0658
2553.000000 0.0650 0.0643 0.0635 0.0628 0.0620
2558.000000 0.0612 0.0610 0.0609 0.0608 0.0607
2563.000000 0.0606 0.0605 0.0604 0.0603 0.0602
2568.000000 0.0601 0.0600 0.0599 0.0601 0.0603
2573.000000 0.0604 0.0606 0.0607 0.0609 0.0611
2578.000000 0.0613 0.0614 0.0616 0.0618 0.0620
2583.000000 0.0623 0.0627 0.0631 0.0635 0.0638
2588.000000 0.0642 0.0645 0.0649 0.0652 0.0655
2593.000000 0.0658 0.0661 0.0663 0.0665 0.0665
2598.000000 0.0665 0.0664 0.0664 0.0663 0.0663
2603.000000 0.0663 0.0663 0.0662 0.0662 0.0662
2608.000000 0.0662 0.0661 0.0661 0.0659 0.0658
2613.000000 0.0656 0.0654 0.0651 0.0649 0.0645
2618.000000 0.0642 0.0639 0.0636 0.0632 0.0629
2623.000000 0.0625 0.0622 0.0618 0.0615 0.0612
2628.000000 0.0609 0.0606 0.0603 0.0600 0.0597
2633.000000 0.0594 0.0591 0.0588 0.0585 0.0582
2638.000000 0.0580 0.0576 0.0573 0.0569 0.0566
2643.000000 0.0562 0.0559 0.0555 0.0551 0.0547
2648.000000 0.0544 0.0540 0.0537 0.0533 0.0530
2653.000000 0.0526 0.0523 0.0519 0.0516 0.0512
2658.000000 0.0509 0.0505 0.0502 0.0498 0.0495
2663.000000 0.0491 0.0488 0.0484 0.0481 0.0477
2668.000000 0.0474 0.0470 0.0467 0.0463 0.0460
2673.000000 0.0457 0.0454 0.0451 0.0449 0.0446
2678.000000 0.0443 0.0440 0.0438 0.0435 0.0432
2683.000000 0.0429 0.0426 0.0423 0.0421 0.0418
2688.000000 0.0415 0.0412 0.0409 0.0406 0.0404
2693.000000 0.0401 0.0399 0.0397 0.0396 0.0394
2698.000000 0.0392 0.0390 0.0389 0.0387 0.0385
2703.000000 0.0383 0.0381 0.0379 0.0378 0.0376
2708.000000 0.0374 0.0372 0.0371 0.0369 0.0367
2713.000000 0.0365 0.0363 0.0361 0.0360 0.0359
2718.000000 0.0358 0.0357 0.0356 0.0355 0.0354
2723.000000 0.0352 0.0351 0.0350 0.0349 0.0348
2728.000000 0.0347 0.0346 0.0345 0.0344 0.0343
2733.000000 0.0341 0.0340 0.0339 0.0338 0.0337
2738.000000 0.0336 0.0335 0.0334 0.0332 0.0331
2743.000000 0.0330 0.0329 0.0328 0.0327 0.0326
2748.000000 0.0325 0.0324 0.0323 0.0322 0.0321
2753.000000 0.0320 0.0319 0.0318 0.0317 0.0316
2758.000000 0.0315 0.0314 0.0313 0.0312 0.0311
2763.000000 0.0310 0.0309 0.0308 0.0307 0.0306
2768.000000 0.0305 0.0304 0.0303 0.0302 0.0301
2773.000000 0.0300 0.0299 0.0298 0.0297 0.0296
2778.000000 0.0295 0.0294 0.0293 0.0292 0.0291
2783.000000 0.0290 0.0289 0.0289 0.0289 0.0289
2788.000000 0.0289 0.0289 0.0289 0.0289 0.0289
2793.000000 0.0289 0.0289 0.0288 0.0288 0.0288
2798.000000 0.0288 0.0288 0.0288 0.0288 0.0288
2803.000000 0.0288 0.0288 0.0288 0.0288 0.0287
2808.000000 0.0287 0.0287 0.0287 0.0287 0.0287
2813.000000 0.0287 0.0288 0.0288 0.0288 0.0288
2818.000000 0.0289 0.0289 0.0290 0.0290 0.0290
2823.000000 0.0290 0.0291 0.0291 0.0292 0.0292
2828.000000 0.0292 0.0292 0.0293 0.0293 0.0294
2833.000000 0.0294 0.0294 0.0294 0.0295 0.0295
2838.000000 0.0296 0.0296 0.0296 0.0296 0.0297
2843.000000 0.0297 0.0297 0.0297 0.0298 0.0298
2848.000000 0.0299 0.0299 0.0305 0.0299 0.0300
2853.000000 0.0300 0.0301 0.0301 0.0301 0.0301
2858.000000 0.0302 0.0302 0.0302 0.0302 0.0303
2863.000000 0.0303 0.0304 0.0304 0.0305 0.0305
2868.000000 0.0306 0.0306 0.0307 0.0307 0.0308
2873.000000 0.0308 0.0308 0.0308 0.0309 0.0309
2878.000000 0.0310 0.0310 0.0311 0.0311 0.0312
2883.000000 0.0312 0.0313 0.0313 0.0314 0.0314
2888.000000 0.0315 0.0315 0.0316 0.0316 0.0317
2893.000000 0.0317 0.0318 0.0318 0.0319 0.0319
2898.000000 0.0320 0.0320 0.0321 0.0321 0.0321
2903.000000 0.0321 0.0322 0.0322 0.0323 0.0323
2908.000000 0.0324 0.0324 0.0325 0.0325 0.0326
2913.000000 0.0326 0.0327 0.0327 0.0328 0.0328
2918.000000 0.0329 0.0329 0.0330 0.0330 0.0331
2923.000000 0.0331 0.0332 0.0332 0.0333 0.0333
2928.000000 0.0334 0.0334 0.0335 0.0335 0.0336
2933.000000 0.0336 0.0337 0.0337 0.0338 0.0338
2938.000000 0.0339 0.0339 0.0340 0.0340 0.0341
2943.000000 0.0342 0.0343 0.0343 0.0344 0.0345
2948.000000 0.0346 0.0346 0.0347 0.0348 0.0349
2953.000000 0.0349 0.0350 0.0350 0.0351 0.0352
2958.000000 0.0353 0.0353 0.0354 0.0355 0.0356
2963.000000 0.0356 0.0357 0.0358 0.0359 0.0359
2968.000000 0.0360 0.0361 0.0362 0.0362 0.0363
2973.000000 0.0364 0.0365 0.0365 0.0366 0.0367
2978.000000 0.0368 0.0369 0.0370 0.0371 0.0372
2983.000000 0.0372 0.0373 0.0374 0.0375 0.0376
2988.000000 0.0377 0.0378 0.0379 0.0379 0.0380
2993.000000 0.0381 0.0382 0.0383 0.0384 0.0384
2998.000000 0.0385 0.0386 0.0387 0.0388 0.0389
3003.000000 0.0390 0.0391 0.0391 0.0392 0.0392
3008.000000 0.0393 0.0393 0.0394 0.0394 0.0394
3013.000000 0.0394 0.0395 0.0395 0.0396 0.0396
3018.000000 0.0397 0.0397 0.0398 0.0398 0.0399
3023.000000 0.0399 0.0400 0.0400 0.0401 0.0401
3028.000000 0.0402 0.0402 0.0403 0.0404 0.0405
3033.000000 0.0406 0.0407 0.0408 0.0409 0.0410
3038.000000 0.0411 0.0412 0.0413 0.0413 0.0414
3043.000000 0.0415 0.0416 0.0417 0.0418 0.0419
3048.000000 0.0420 0.0421 0.0422 0.0423 0.0425
3053.000000 0.0426 0.0428 0.0429 0.0431 0.0433
3058.000000 0.0435 0.0436 0.0438 0.0439 0.0441
3063.000000 0.0442 0.0444 0.0445 0.0447 0.0448
3068.000000 0.0450 0.0451 0.0453 0.0456 0.0459
3073.000000 0.0462 0.0466 0.0469 0.0473 0.0476
3078.000000 0.0479 0.0482 0.0486 0.0489 0.0493
3083.000000 0.0497 0.0501 0.0505 0.0510 0.0514
3088.000000 0.0518 0.0522 0.0527 0.0531 0.0536
3093.000000 0.0540 0.0545 0.0549 0.0554 0.0558
3098.000000 0.0563 0.0567 0.0571 0.0577 0.0583
3103.000000 0.0590 0.0597 0.0604 0.0612 0.0619
3108.000000 0.0626 0.0633 0.0641 0.0648 0.0656
3113.000000 0.0663 0.0671 0.0680 0.0689 0.0697
3118.000000 0.0706 0.0715 0.0724 0.0733 0.0742
3123.000000 0.0750 0.0759 0.0768 0.0777 0.0785
3128.000000 0.0794 0.0804 0.0814 0.0824 0.0834
3133.000000 0.0844 0.0854 0.0864 0.0875 0.0885
3138.000000 0.0895 0.0905 0.0915 0.0925 0.0935
3143.000000 0.0945 0.0955 0.0967 0.0980 0.0993
3148.000000 0.1007 0.1020 0.1034 0.1047 0.1061
3153.000000 0.1074 0.1088 0.1101 0.1115 0.1128
3158.000000 0.1142 0.1156 0.1170 0.1184 0.1198
3163.000000 0.1212 0.1226 0.1240 0.1254 0.1268
3168.000000 0.1282 0.1297 0.1312 0.1327 0.1342
3173.000000 0.1357 0.1373 0.1388 0.1404 0.1419
3178.000000 0.1434 0.1449 0.1465 0.1480 0.1496
3183.000000 0.1511 0.1527 0.1543 0.1560 0.1576
3188.000000 0.1592 0.1608 0.1625 0.1641 0.1658
3193.000000 0.1674 0.1690 0.1706 0.1723 0.1739
3198.000000 0.1756 0.1776 0.1797 0.1819 0.1842
3203.000000 0.1864 0.1886 0.1908 0.1931 0.1953
3208.000000 0.1976 0.1998 0.2021 0.2047 0.2073
3213.000000 0.2101 0.2129 0.2157 0.2186 0.2214
3218.000000 0.2242 0.2266 0.2291 0.2315 0.2339
3223.000000 0.2363 0.2388 0.2412 0.2436 0.2460
3228.000000 0.2485 0.2509 0.2534 0.2558 0.2582
3233.000000 0.2601 0.2621 0.2636 0.2651 0.2666
3238.000000 0.2681 0.2696 0.2712 0.2727 0.2742
3243.000000 0.2757 0.2772 0.2787 0.2802 0.2817
3248.000000 0.2832 0.2847 0.2862 0.2877 0.2892
3253.000000 0.2906 0.2921 0.2935 0.2950 0.2965
3258.000000 0.2980 0.2994 0.3009 0.3023 0.3038
3263.000000 0.3052 0.3067 0.3082 0.3097 0.3111
3268.000000 0.3126 0.3140 0.3155 0.3169 0.3184
3273.000000 0.3199 0.3214 0.3231 0.3248 0.3265
3278.000000 0.3283 0.3300 0.3318 0.3336 0.3354
3283.000000 0.3371 0.3389 0.3404 0.3420 0.3436
3288.000000 0.3452 0.3467 0.3483 0.3499 0.3515
3293.000000 0.3533 0.3551 0.3569 0.3588 0.3606
3298.000000 0.3625 0.3643 0.3661 0.3694 0.3728
3303.000000 0.3759 0.3791 0.3820 0.3850 0.3873
3308.000000 0.3896 0.3906 0.3917 0.3928 0.3939
3313.000000 0.3951 0.3964 0.3978 0.3992 0.4005
3318.000000 0.4019 0.4033 0.4047 0.4061 0.4076
3323.000000 0.4096 0.4116 0.4136 0.4157 0.4174
3328.000000 0.4191 0.4206 0.4221 0.4234 0.4248
3333.000000 0.4260 0.4273 0.4285 0.4297 0.4309
3338.000000 0.4321 0.4333 0.4345 0.4357 0.4369
3343.000000 0.4381 0.4394 0.4406 0.4418 0.4430
3348.000000 0.4442 0.4453 0.4465 0.4476 0.4487
3353.000000 0.4498 0.4509 0.4520 0.4531 0.4542
3358.000000 0.4553 0.4564 0.4576 0.4588 0.4600
3363.000000 0.4612 0.4625 0.4637 0.4650 0.4662
3368.000000 0.4674 0.4686 0.4699 0.4711 0.4724
3373.000000 0.4736 0.4748 0.4761 0.4774 0.4786
3378.000000 0.4799 0.4811 0.4824 0.4836 0.4849
3383.000000 0.4862 0.4875 0.4888 0.4902 0.4916
3388.000000 0.4930 0.4944 0.4958 0.4972 0.4986
3393.000000 0.5000 0.5014 0.5027 0.5040 0.5053
3398.000000 0.5066 0.5078 0.5091 0.5104 0.5117
3403.000000 0.5130 0.5143 0.5156 0.5169 0.5177
3408.000000 0.5186 0.5194 0.5202 0.5210 0.5219
3413.000000 0.5227 0.5236 0.5244 0.5253 0.5261
3418.000000 0.5270 0.5278 0.5286 0.5292 0.5299
3423.000000 0.5305 0.5312 0.5318 0.5325 0.5331
3428.000000 0.5338 0.5343 0.5348 0.5350 0.5353
3433.000000 0.5356 0.5359 0.5362 0.5365 0.5364
3438.000000 0.5364 0.5363 0.5376 0.5363 0.5363
3443.000000 0.5362 0.5362 0.5359 0.5357 0.5354
3448.000000 0.5351 0.5348 0.5346 0.5343 0.5341
3453.000000 0.5337 0.5333 0.5328 0.5323 0.5318
3458.000000 0.5313 0.5307 0.5302 0.5296 0.5290
3463.000000 0.5284 0.5278 0.5271 0.5265 0.5260
3468.000000 0.5255 0.5251 0.5248 0.5244 0.5241
3473.000000 0.5237 0.5234 0.5232 0.5231 0.5230
3478.000000 0.5230 0.5230 0.5231 0.5232 0.5237
3483.000000 0.5237 0.5241 0.5246 0.5251 0.5256
3488.000000 0.5262 0.5273 0.5285 0.5299 0.5313
3493.000000 0.5325 0.5338 0.5356 0.5374 0.5390
3498.000000 0.5407 0.5422 0.5438 0.5454 0.5471
3503.000000 0.5487 0.5504 0.5520 0.5537 0.5555
3508.000000 0.5573 0.5595 0.5617 0.5639 0.5662
3513.000000 0.5684 0.5706 0.5728 0.5750 0.5771
3518.000000 0.5792 0.5813 0.5834 0.5855 0.5876
3523.000000 0.5897 0.5918 0.5937 0.5956 0.5975
3528.000000 0.5994 0.6012 0.6031 0.6050 0.6069
3533.000000 0.6087 0.6106 0.6125 0.6144 0.6165
3538.000000 0.6187 0.6209 0.6231 0.6253 0.6275
3543.000000 0.6297 0.6319 0.6341 0.6363 0.6385
3548.000000 0.6407 0.6428 0.6450 0.6471 0.6493
3553.000000 0.6514 0.6535 0.6556 0.6578 0.6600
3558.000000 0.6622 0.6644 0.6667 0.6689 0.6712
3563.000000 0.6734 0.6756 0.6778 0.6801 0.6821
3568.000000 0.6842 0.6860 0.6879 0.6897 0.6915
3573.000000 0.6933 0.6952 0.6970 0.6988 0.7006
3578.000000 0.7025 0.7043 0.7062 0.7081 0.7101
3583.000000 0.7120 0.7140 0.7159 0.7179 0.7199
3588.000000 0.7219 0.7238 0.7258 0.7277 0.7297
3593.000000 0.7316 0.7336 0.7357 0.7378 0.7399
3598.000000 0.7420 0.7441 0.7463 0.7484 0.7505
3603.000000 0.7526 0.7548 0.7569 0.7590 0.7611
3608.000000 0.7632 0.7653 0.7674 0.7695 0.7716
3613.000000 0.7737 0.7758 0.7777 0.7797 0.7816
3618.000000 0.7835 0.7854 0.7874 0.7893 0.7912
3623.000000 0.7931 0.7951 0.7969 0.7988 0.8005
3628.000000 0.8022 0.8039 0.8056 0.8073 0.8091
3633.000000 0.8108 0.8125 0.8142 0.8159 0.8172
3638.000000 0.8186 0.8200 0.8214 0.8227 0.8241
3643.000000 0.8254 0.8268 0.8281 0.8295 0.8307
3648.000000 0.8319 0.8330 0.8342 0.8354 0.8366
3653.000000 0.8371 0.8377 0.8382 0.8388 0.8393
3658.000000 0.8398 0.8399 0.8400 0.8401 0.8403
3663.000000 0.8404 0.8405 0.8405 0.8406 0.8405
3668.000000 0.8404 0.8402 0.8385 0.8400 0.8399
3673.000000 0.8397 0.8395 0.8392 0.8390 0.8388
3678.000000 0.8386 0.8383 0.8381 0.8378 0.8376
3683.000000 0.8373 0.8370 0.8366 0.8362 0.8358
3688.000000 0.8354 0.8350 0.8346 0.8342 0.8338
3693.000000 0.8334 0.8330 0.8325 0.8321 0.8316
3698.000000 0.8312 0.8307 0.8303 0.8298 0.8294
3703.000000 0.8289 0.8284 0.8279 0.8275 0.8270
3708.000000 0.8266 0.8261 0.8256 0.8251 0.8246
3713.000000 0.8241 0.8236 0.8231 0.8226 0.8221
3718.000000 0.8217 0.8212 0.8207 0.8202 0.8197
3723.000000 0.8192 0.8187 0.8182 0.8177 0.8171
3728.000000 0.8166 0.8161 0.8156 0.8151 0.8146
3733.000000 0.8141 0.8136 0.8131 0.8126 0.8121
3738.000000 0.8116 0.8110 0.8105 0.8099 0.8094
3743.000000 0.8088 0.8083 0.8077 0.8072 0.8066
3748.000000 0.8061 0.8055 0.8050 0.8044 0.8039
3753.000000 0.8033 0.8028 0.8022 0.8017 0.8012
3758.000000 0.8007 0.8002 0.7998 0.7993 0.7989
3763.000000 0.7984 0.7980 0.7975 0.7971 0.7967
3768.000000 0.7963 0.7958 0.7954 0.7949 0.7945
3773.000000 0.7940 0.7936 0.7931 0.7927 0.7923
3778.000000 0.7919 0.7915 0.7912 0.7908 0.7904
3783.000000 0.7900 0.7897 0.7893 0.7890 0.7886
3788.000000 0.7882 0.7878 0.7875 0.7871 0.7868
3793.000000 0.7864 0.7860 0.7856 0.7852 0.7847
3798.000000 0.7843 0.7838 0.7834 0.7832 0.7830
##END=
