##TITLE=CALCIUM PHOSPHATE, MONOBASIC
$$ A.R.
##JCAMP-DX=4.24
##DATA TYPE=INFRARED SPECTRUM
##CLASS=COBLENTZ
##ORIGIN=MELLON INSTITUTE
##OWNER=COBLENTZ SOCIETY
Collection (C) 2018 copyright by the U.S. Secretary of Commerce
on behalf of the United States of America. All rights reserved.
##DATE=Not specified, most likely prior to 1970
##MOLFORM=Ca ( H2 P O4 )2  * H2 O
##SOURCE REFERENCE=COBLENTZ NO. 583
##$NIST ID=B6000583
##$NIST SOURCE=COBLENTZ
##$NIST IMAGE=cob583
##SPECTROMETER/DATA SYSTEM=Not specified, most likely a prism, grating, or hybrid spectrometer.
##STATE=SOLID (NUJOL MULL)
##PATH LENGTH=
$$SPECTRAL CONTAMINATION DUE TO OIL AROUND 2900, 1450, 1380 CM^-^1
##SAMPLING PROCEDURE=TRANSMISSION
##RESOLUTION=4
##DATA PROCESSING=DIGITIZED BY NIST FROM HARD COPY
##XUNITS=MICROMETERS
##YUNITS=TRANSMITTANCE
##XFACTOR=1.000000
##YFACTOR=1
##DELTAX=000.006663
##FIRSTX=2.027
##LASTX=15.9987
##FIRSTY=0.979
##MAXX=15.9987
##MINX=2.027
##MAXY=0.986
##MINY=0.21
##NPOINTS=2098
##XYDATA=(X++(Y..Y))
2.027000 0.9790 0.9790 0.9780 0.9760 0.9760
2.060329 0.9740 0.9740 0.9730 0.9730 0.9730
2.094000 0.9730 0.9730 0.9740 0.9760 0.9760
2.127329 0.9810 0.9830 0.9840 0.9840 0.9840
2.161000 0.9860 0.9860 0.9860 0.9860 0.9860
2.194329 0.9860 0.9860 0.9860 0.9860 0.9840
2.227000 0.9840 0.9830 0.9810 0.9760 0.9740
2.260329 0.9730 0.9740 0.9740 0.9780 0.9780
2.294000 0.9780 0.9780 0.9760 0.9740 0.9740
2.327329 0.9740 0.9740 0.9730 0.9730 0.9730
2.360000 0.9730 0.9730 0.9730 0.9730 0.9730
2.393329 0.9710 0.9680 0.9640 0.9640 0.9630
2.427000 0.9630 0.9630 0.9610 0.9630 0.9630
2.460329 0.9630 0.9610 0.9610 0.9610 0.9610
2.494000 0.9580 0.9530 0.9490 0.9490 0.9490
2.527329 0.9480 0.9460 0.9440 0.9440 0.9440
2.560000 0.9440 0.9440 0.9460 0.9480 0.9510
2.593329 0.9530 0.9510 0.9480 0.9410 0.9410
2.627000 0.9380 0.9380 0.9380 0.9390 0.9390
2.660329 0.9430 0.9430 0.9430 0.9410 0.9360
2.694000 0.9310 0.9290 0.9280 0.9210 0.9130
2.727329 0.9090 0.9010 0.8970 0.8910 0.8860
2.760000 0.8820 0.8770 0.8590 0.8520 0.8490
2.793329 0.8340 0.8220 0.7900 0.7740 0.7500
2.827000 0.7250 0.7100 0.6880 0.6700 0.6520
2.860329 0.6400 0.6300 0.6200 0.6130 0.6050
2.893000 0.6020 0.6000 0.5930 0.5910 0.5900
2.926329 0.5880 0.5830 0.5800 0.5780 0.5750
2.960000 0.5710 0.5680 0.5650 0.5610 0.5550
2.993329 0.5510 0.5430 0.5380 0.5350 0.5330
3.027000 0.5300 0.5210 0.5180 0.5100 0.5060
3.060329 0.5030 0.5010 0.5000 0.4980 0.4960
3.093000 0.4910 0.4880 0.4860 0.4830 0.4810
3.126329 0.4780 0.4760 0.4730 0.4730 0.4710
3.160000 0.4690 0.4690 0.4680 0.4680 0.4680
3.193329 0.4660 0.4640 0.4630 0.4610 0.4560
3.227000 0.4530 0.4490 0.4480 0.4460 0.4440
3.260329 0.4430 0.4410 0.4380 0.4360 0.4330
3.293000 0.4290 0.4180 0.4060 0.3860 0.3560
3.326329 0.3290 0.3020 0.2890 0.2620 0.2340
3.360000 0.2240 0.2170 0.2120 0.2100 0.2100
3.393329 0.2100 0.2150 0.2190 0.2270 0.2270
3.426000 0.2270 0.2270 0.2270 0.2270 0.2290
3.459329 0.2390 0.2590 0.2670 0.2840 0.3120
3.493000 0.3420 0.3710 0.3890 0.4010 0.4180
3.526329 0.4290 0.4390 0.4480 0.4590 0.4630
3.560000 0.4690 0.4780 0.4830 0.4890 0.4910
3.593329 0.4930 0.4940 0.4960 0.5000 0.5050
3.626000 0.5080 0.5110 0.5200 0.5230 0.5260
3.659329 0.5280 0.5300 0.5310 0.5330 0.5330
3.693000 0.5350 0.5360 0.5400 0.5410 0.5430
3.726329 0.5450 0.5460 0.5500 0.5530 0.5530
3.760000 0.5580 0.5580 0.5600 0.5610 0.5610
3.793329 0.5630 0.5660 0.5680 0.5730 0.5760
3.826000 0.5780 0.5800 0.5830 0.5850 0.5880
3.859329 0.5900 0.5900 0.5930 0.5960 0.5980
3.893000 0.6000 0.6020 0.6020 0.6020 0.6030
3.926329 0.6030 0.6030 0.6030 0.6050 0.6050
3.959000 0.6100 0.6120 0.6130 0.6130 0.6130
3.992329 0.6120 0.6120 0.6120 0.6120 0.6120
4.026000 0.6100 0.6070 0.6030 0.6020 0.5980
4.059329 0.5930 0.5930 0.5930 0.5910 0.5910
4.093000 0.5910 0.5900 0.5900 0.5900 0.5880
4.126329 0.5880 0.5880 0.5860 0.5860 0.5860
4.159000 0.5830 0.5810 0.5780 0.5760 0.5750
4.192329 0.5760 0.5760 0.5780 0.5780 0.5800
4.226000 0.5800 0.5800 0.5800 0.5800 0.5780
4.259329 0.5780 0.5760 0.5750 0.5750 0.5750
4.293000 0.5780 0.5800 0.5810 0.5810 0.5830
4.326329 0.5850 0.5850 0.5850 0.5830 0.5830
4.359000 0.5830 0.5830 0.5830 0.5810 0.5810
4.392329 0.5810 0.5830 0.5830 0.5850 0.5850
4.426000 0.5850 0.5850 0.5850 0.5860 0.5860
4.459329 0.5880 0.5880 0.5900 0.5910 0.5930
4.492000 0.6000 0.6000 0.6020 0.6070 0.6100
4.525329 0.6100 0.6120 0.6120 0.6150 0.6170
4.559000 0.6170 0.6170 0.6170 0.6180 0.6200
4.592329 0.6220 0.6230 0.6270 0.6270 0.6280
4.626000 0.6300 0.6300 0.6320 0.6330 0.6370
4.659329 0.6400 0.6420 0.6450 0.6480 0.6500
4.692000 0.6500 0.6520 0.6520 0.6530 0.6530
4.725329 0.6530 0.6530 0.6550 0.6570 0.6600
4.759000 0.6620 0.6630 0.6630 0.6670 0.6680
4.792329 0.6700 0.6700 0.6720 0.6730 0.6770
4.826000 0.6780 0.6800 0.6820 0.6820 0.6830
4.859329 0.6850 0.6870 0.6900 0.6900 0.6900
4.892000 0.6920 0.6930 0.6980 0.7040 0.7040
4.925329 0.7050 0.7050 0.7050 0.7070 0.7070
4.959000 0.7070 0.7090 0.7100 0.7120 0.7120
4.992329 0.7120 0.7120 0.7120 0.7140 0.7150
5.025000 0.7150 0.7170 0.7190 0.7220 0.7250
5.058329 0.7250 0.7270 0.7290 0.7320 0.7340
5.092000 0.7350 0.7420 0.7440 0.7440 0.7490
5.125329 0.7500 0.7520 0.7520 0.7520 0.7540
5.159000 0.7520 0.7520 0.7520 0.7520 0.7520
5.192329 0.7520 0.7520 0.7520 0.7520 0.7500
5.225000 0.7500 0.7500 0.7500 0.7520 0.7520
5.258329 0.7520 0.7540 0.7520 0.7540 0.7540
5.292000 0.7550 0.7540 0.7550 0.7550 0.7570
5.325329 0.7570 0.7570 0.7570 0.7570 0.7590
5.359000 0.7570 0.7570 0.7570 0.7570 0.7570
5.392329 0.7570 0.7570 0.7570 0.7570 0.7570
5.425000 0.7570 0.7570 0.7570 0.7570 0.7570
5.458329 0.7570 0.7590 0.7590 0.7590 0.7600
5.492000 0.7600 0.7600 0.7620 0.7640 0.7650
5.525329 0.7670 0.7670 0.7670 0.7670 0.7670
5.558000 0.7670 0.7690 0.7690 0.7690 0.7690
5.591329 0.7690 0.7690 0.7700 0.7700 0.7700
5.625000 0.7700 0.7720 0.7720 0.7720 0.7720
5.658329 0.7740 0.7740 0.7740 0.7740 0.7750
5.692000 0.7750 0.7750 0.7750 0.7770 0.7750
5.725329 0.7770 0.7770 0.7770 0.7770 0.7770
5.758000 0.7750 0.7770 0.7770 0.7790 0.7770
5.791329 0.7770 0.7750 0.7720 0.7700 0.7700
5.825000 0.7700 0.7690 0.7670 0.7670 0.7650
5.858329 0.7650 0.7620 0.7590 0.7550 0.7540
5.892000 0.7520 0.7500 0.7500 0.7490 0.7450
5.925329 0.7420 0.7390 0.7370 0.7370 0.7370
5.958000 0.7370 0.7370 0.7370 0.7370 0.7350
5.991329 0.7300 0.7270 0.7240 0.7200 0.7190
6.025000 0.7150 0.7140 0.7140 0.7140 0.7190
6.058329 0.7240 0.7240 0.7250 0.7250 0.7300
6.091000 0.7320 0.7350 0.7390 0.7390 0.7400
6.124329 0.7420 0.7490 0.7640 0.7720 0.7750
6.158000 0.7770 0.7800 0.7840 0.7840 0.7870
6.191329 0.7890 0.7900 0.7950 0.7990 0.8040
6.225000 0.8090 0.8120 0.8120 0.8120 0.8120
6.258329 0.8140 0.8210 0.8240 0.8240 0.8290
6.291000 0.8290 0.8210 0.8170 0.8190 0.8210
6.324329 0.8290 0.8320 0.8340 0.8340 0.8360
6.358000 0.8340 0.8310 0.8290 0.8260 0.8290
6.391329 0.8290 0.8320 0.8340 0.8360 0.8370
6.425000 0.8370 0.8410 0.8460 0.8460 0.8460
6.458329 0.8460 0.8460 0.8440 0.8440 0.8440
6.491000 0.8440 0.8420 0.8440 0.8490 0.8510
6.524329 0.8520 0.8540 0.8560 0.8610 0.8610
6.558000 0.8570 0.8560 0.8540 0.8520 0.8520
6.591329 0.8540 0.8540 0.8620 0.8710 0.8740
6.624000 0.8740 0.8760 0.8770 0.8810 0.8810
6.657329 0.8810 0.8810 0.8810 0.8810 0.8810
6.691000 0.8810 0.8790 0.8760 0.8740 0.8710
6.724329 0.8640 0.8520 0.8420 0.8370 0.8340
6.758000 0.8290 0.8120 0.8020 0.7870 0.7770
6.791329 0.7540 0.7420 0.7340 0.7340 0.7340
6.824000 0.7340 0.7340 0.7340 0.7340 0.7370
6.857329 0.7400 0.7450 0.7500 0.7520 0.7640
6.891000 0.7670 0.7720 0.7750 0.7770 0.7790
6.924329 0.7820 0.7920 0.8010 0.8020 0.8060
6.958000 0.8140 0.8240 0.8240 0.8270 0.8290
6.991329 0.8320 0.8360 0.8370 0.8410 0.8440
7.024000 0.8490 0.8510 0.8570 0.8640 0.8640
7.057329 0.8670 0.8690 0.8710 0.8710 0.8710
7.091000 0.8710 0.8710 0.8740 0.8740 0.8760
7.124329 0.8770 0.8790 0.8770 0.8720 0.8620
7.157000 0.8560 0.8510 0.8490 0.8360 0.8210
7.190329 0.8060 0.8020 0.7920 0.7840 0.7790
7.224000 0.7770 0.7790 0.7840 0.7870 0.7870
7.257329 0.7850 0.7850 0.7840 0.7840 0.7890
7.291000 0.7940 0.7970 0.7990 0.7990 0.7990
7.324329 0.8010 0.8010 0.8010 0.7990 0.7990
7.357000 0.7970 0.7970 0.7950 0.7940 0.7900
7.390329 0.7900 0.7900 0.7900 0.7900 0.7900
7.424000 0.7900 0.7900 0.7890 0.7870 0.7850
7.457329 0.7840 0.7800 0.7740 0.7720 0.7690
7.491000 0.7690 0.7650 0.7620 0.7550 0.7520
7.524329 0.7520 0.7500 0.7490 0.7450 0.7440
7.557000 0.7400 0.7370 0.7340 0.7300 0.7270
7.590329 0.7220 0.7140 0.7090 0.7040 0.7040
7.624000 0.7020 0.7000 0.6920 0.6900 0.6870
7.657329 0.6820 0.6720 0.6650 0.6630 0.6580
7.690000 0.6530 0.6520 0.6500 0.6400 0.6330
7.723329 0.6300 0.6300 0.6230 0.6120 0.6050
7.757000 0.6000 0.5880 0.5800 0.5780 0.5700
7.790329 0.5630 0.5580 0.5500 0.5430 0.5400
7.824000 0.5350 0.5310 0.5300 0.5250 0.5200
7.857329 0.5110 0.5080 0.5050 0.5030 0.5010
7.890000 0.5010 0.5000 0.4940 0.4890 0.4860
7.923329 0.4830 0.4760 0.4710 0.4640 0.4590
7.957000 0.4540 0.4490 0.4480 0.4440 0.4260
7.990329 0.4190 0.4130 0.4090 0.4090 0.4080
8.024000 0.4060 0.4040 0.4040 0.4030 0.4030
8.057329 0.4010 0.3990 0.3970 0.3970 0.3970
8.090000 0.3970 0.3960 0.3960 0.3960 0.3960
8.123329 0.3960 0.3960 0.3960 0.3960 0.3960
8.157000 0.3970 0.3970 0.3970 0.3990 0.4010
8.190329 0.4030 0.4040 0.4060 0.4090 0.4090
8.224000 0.4090 0.4090 0.4090 0.4110 0.4140
8.257329 0.4160 0.4210 0.4230 0.4240 0.4260
8.290000 0.4280 0.4290 0.4330 0.4340 0.4390
8.323329 0.4460 0.4530 0.4560 0.4610 0.4640
8.357000 0.4680 0.4680 0.4690 0.4690 0.4690
8.390329 0.4710 0.4730 0.4730 0.4730 0.4740
8.423000 0.4790 0.4790 0.4810 0.4810 0.4810
8.456329 0.4810 0.4810 0.4810 0.4810 0.4790
8.490000 0.4790 0.4790 0.4790 0.4780 0.4760
8.523329 0.4760 0.4740 0.4710 0.4640 0.4630
8.557000 0.4610 0.4590 0.4580 0.4560 0.4560
8.590329 0.4540 0.4540 0.4530 0.4510 0.4510
8.623000 0.4510 0.4510 0.4510 0.4510 0.4510
8.656329 0.4530 0.4560 0.4590 0.4630 0.4660
8.690000 0.4660 0.4660 0.4660 0.4680 0.4730
8.723329 0.4760 0.4760 0.4780 0.4780 0.4780
8.757000 0.4780 0.4780 0.4780 0.4780 0.4780
8.790329 0.4780 0.4760 0.4740 0.4730 0.4730
8.823000 0.4710 0.4710 0.4690 0.4660 0.4640
8.856329 0.4610 0.4580 0.4540 0.4540 0.4530
8.890000 0.4530 0.4510 0.4490 0.4490 0.4490
8.923329 0.4480 0.4440 0.4430 0.4410 0.4360
8.956000 0.4340 0.4330 0.4310 0.4310 0.4290
8.989329 0.4290 0.4280 0.4280 0.4260 0.4240
9.023000 0.4230 0.4190 0.4180 0.4160 0.4140
9.056329 0.4140 0.4110 0.4060 0.4040 0.4010
9.090000 0.4010 0.3990 0.3970 0.3960 0.3920
9.123329 0.3890 0.3840 0.3820 0.3820 0.3770
9.156000 0.3740 0.3720 0.3720 0.3710 0.3710
9.189329 0.3710 0.3690 0.3690 0.3670 0.3670
9.223000 0.3670 0.3670 0.3670 0.3670 0.3690
9.256329 0.3720 0.3770 0.3810 0.3820 0.3840
9.290000 0.3890 0.3920 0.3940 0.3990 0.4010
9.323329 0.4010 0.4030 0.4030 0.4090 0.4190
9.356000 0.4230 0.4290 0.4330 0.4360 0.4440
9.389329 0.4480 0.4560 0.4630 0.4710 0.4760
9.423000 0.4780 0.4830 0.4890 0.4980 0.5000
9.456329 0.5050 0.5050 0.5060 0.5130 0.5160
9.489000 0.5230 0.5280 0.5300 0.5330 0.5380
9.522329 0.5430 0.5500 0.5600 0.5610 0.5650
9.556000 0.5660 0.5680 0.5700 0.5730 0.5760
9.589329 0.5760 0.5810 0.5850 0.5950 0.5980
9.623000 0.6000 0.6000 0.6020 0.6030 0.6050
9.656329 0.6050 0.6080 0.6130 0.6150 0.6150
9.689000 0.6150 0.6180 0.6180 0.6200 0.6220
9.722329 0.6220 0.6230 0.6230 0.6250 0.6250
9.756000 0.6250 0.6250 0.6250 0.6230 0.6230
9.789329 0.6220 0.6200 0.6170 0.6130 0.6120
9.823000 0.6120 0.6120 0.6070 0.6030 0.6020
9.856329 0.6020 0.6000 0.5980 0.5950 0.5860
9.889000 0.5810 0.5780 0.5730 0.5730 0.5710
9.922329 0.5700 0.5680 0.5660 0.5580 0.5550
9.956000 0.5510 0.5450 0.5450 0.5400 0.5350
9.989329 0.5280 0.5200 0.5150 0.5080 0.5000
10.022000 0.5000 0.4930 0.4880 0.4830 0.4760
10.055329 0.4730 0.4680 0.4630 0.4540 0.4490
10.089000 0.4410 0.4330 0.4260 0.4180 0.4130
10.122329 0.4110 0.4060 0.4030 0.4010 0.3990
10.156000 0.3990 0.3940 0.3890 0.3860 0.3860
10.189329 0.3840 0.3840 0.3820 0.3790 0.3760
10.222000 0.3740 0.3710 0.3690 0.3660 0.3640
10.255329 0.3620 0.3620 0.3590 0.3540 0.3540
10.289000 0.3520 0.3520 0.3470 0.3440 0.3390
10.322329 0.3370 0.3360 0.3340 0.3340 0.3340
10.356000 0.3320 0.3310 0.3290 0.3270 0.3240
10.389329 0.3220 0.3210 0.3190 0.3170 0.3170
10.422000 0.3160 0.3160 0.3140 0.3140 0.3120
10.455329 0.3120 0.3120 0.3120 0.3120 0.3120
10.489000 0.3120 0.3120 0.3140 0.3160 0.3220
10.522329 0.3240 0.3270 0.3340 0.3390 0.3420
10.555000 0.3470 0.3490 0.3510 0.3510 0.3560
10.588329 0.3570 0.3640 0.3710 0.3870 0.3940
10.622000 0.4010 0.4030 0.4130 0.4160 0.4240
10.655329 0.4330 0.4390 0.4440 0.4560 0.4630
10.689000 0.4690 0.4760 0.4830 0.4890 0.5000
10.722329 0.5110 0.5210 0.5250 0.5300 0.5310
10.755000 0.5350 0.5400 0.5430 0.5500 0.5510
10.788329 0.5550 0.5600 0.5650 0.5700 0.5750
10.822000 0.5750 0.5810 0.5810 0.5810 0.5830
10.855329 0.5830 0.5830 0.5880 0.5910 0.5950
10.889000 0.5950 0.5960 0.5960 0.5960 0.5980
10.922329 0.5980 0.5980 0.6000 0.6000 0.6000
10.955000 0.6020 0.6000 0.6020 0.6070 0.6100
10.988329 0.6150 0.6200 0.6230 0.6230 0.6270
11.022000 0.6300 0.6320 0.6370 0.6420 0.6450
11.055329 0.6480 0.6520 0.6530 0.6550 0.6600
11.088000 0.6630 0.6700 0.6720 0.6730 0.6730
11.121329 0.6730 0.6730 0.6700 0.6650 0.6650
11.155000 0.6620 0.6550 0.6550 0.6480 0.6450
11.188329 0.6430 0.6400 0.6370 0.6330 0.6330
11.222000 0.6330 0.6330 0.6330 0.6330 0.6330
11.255329 0.6320 0.6300 0.6270 0.6250 0.6250
11.288000 0.6250 0.6250 0.6250 0.6270 0.6270
11.321329 0.6300 0.6300 0.6320 0.6330 0.6330
11.355000 0.6330 0.6330 0.6330 0.6330 0.6350
11.388329 0.6350 0.6350 0.6370 0.6370 0.6370
11.422000 0.6370 0.6380 0.6380 0.6400 0.6380
11.455329 0.6380 0.6380 0.6380 0.6370 0.6350
11.488000 0.6350 0.6350 0.6350 0.6350 0.6350
11.521329 0.6370 0.6370 0.6370 0.6370 0.6350
11.555000 0.6350 0.6330 0.6330 0.6330 0.6330
11.588329 0.6320 0.6300 0.6280 0.6270 0.6250
11.621000 0.6250 0.6270 0.6270 0.6300 0.6330
11.654329 0.6350 0.6380 0.6380 0.6370 0.6350
11.688000 0.6350 0.6350 0.6330 0.6330 0.6320
11.721329 0.6320 0.6300 0.6320 0.6320 0.6320
11.755000 0.6330 0.6350 0.6370 0.6380 0.6380
11.788329 0.6400 0.6400 0.6420 0.6420 0.6420
11.821000 0.6420 0.6420 0.6430 0.6430 0.6450
11.854329 0.6470 0.6500 0.6520 0.6530 0.6550
11.888000 0.6550 0.6620 0.6630 0.6670 0.6670
11.921329 0.6700 0.6700 0.6730 0.6770 0.6800
11.955000 0.6820 0.6830 0.6870 0.6900 0.6920
11.988329 0.6930 0.6950 0.6970 0.6980 0.7000
12.021000 0.7020 0.7020 0.7040 0.7050 0.7050
12.054329 0.7050 0.7070 0.7100 0.7120 0.7140
12.088000 0.7150 0.7150 0.7190 0.7200 0.7220
12.121329 0.7220 0.7240 0.7240 0.7250 0.7250
12.154000 0.7270 0.7300 0.7300 0.7320 0.7340
12.187329 0.7350 0.7370 0.7390 0.7400 0.7400
12.221000 0.7400 0.7420 0.7420 0.7440 0.7450
12.254329 0.7500 0.7500 0.7520 0.7540 0.7540
12.288000 0.7540 0.7540 0.7540 0.7540 0.7540
12.321329 0.7520 0.7520 0.7520 0.7520 0.7520
12.354000 0.7540 0.7540 0.7540 0.7540 0.7540
12.387329 0.7550 0.7550 0.7540 0.7540 0.7540
12.421000 0.7540 0.7540 0.7540 0.7540 0.7540
12.454329 0.7540 0.7540 0.7520 0.7520 0.7520
12.488000 0.7520 0.7520 0.7520 0.7540 0.7550
12.521329 0.7550 0.7550 0.7570 0.7570 0.7570
12.554000 0.7590 0.7590 0.7570 0.7570 0.7550
12.587329 0.7570 0.7570 0.7590 0.7590 0.7600
12.621000 0.7600 0.7600 0.7600 0.7570 0.7550
12.654329 0.7550 0.7540 0.7540 0.7540 0.7540
12.687000 0.7540 0.7540 0.7540 0.7540 0.7540
12.720329 0.7540 0.7520 0.7520 0.7520 0.7540
12.754000 0.7540 0.7540 0.7540 0.7540 0.7520
12.787329 0.7520 0.7500 0.7520 0.7520 0.7520
12.821000 0.7540 0.7520 0.7540 0.7540 0.7540
12.854329 0.7540 0.7540 0.7540 0.7540 0.7500
12.887000 0.7470 0.7470 0.7450 0.7470 0.7470
12.920329 0.7450 0.7450 0.7440 0.7440 0.7440
12.954000 0.7450 0.7450 0.7450 0.7470 0.7470
12.987329 0.7450 0.7440 0.7440 0.7420 0.7390
13.021000 0.7370 0.7350 0.7350 0.7370 0.7370
13.054329 0.7400 0.7390 0.7390 0.7350 0.7350
13.087000 0.7350 0.7350 0.7350 0.7350 0.7370
13.120329 0.7370 0.7390 0.7390 0.7390 0.7390
13.154000 0.7390 0.7390 0.7400 0.7390 0.7390
13.187329 0.7370 0.7370 0.7350 0.7350 0.7350
13.220000 0.7350 0.7350 0.7370 0.7400 0.7400
13.253329 0.7400 0.7400 0.7390 0.7390 0.7390
13.287000 0.7390 0.7370 0.7370 0.7350 0.7350
13.320329 0.7340 0.7320 0.7320 0.7300 0.7300
13.354000 0.7290 0.7290 0.7290 0.7270 0.7290
13.387329 0.7270 0.7270 0.7270 0.7270 0.7250
13.420000 0.7250 0.7250 0.7240 0.7220 0.7200
13.453329 0.7200 0.7200 0.7170 0.7150 0.7150
13.487000 0.7150 0.7140 0.7120 0.7120 0.7070
13.520329 0.7050 0.7040 0.7040 0.7040 0.7040
13.554000 0.7040 0.7040 0.7040 0.7040 0.7040
13.587329 0.7050 0.7050 0.7050 0.7040 0.7040
13.620000 0.7040 0.7000 0.6980 0.6950 0.6930
13.653329 0.6920 0.6920 0.6920 0.6900 0.6900
13.687000 0.6900 0.6900 0.6900 0.6900 0.6880
13.720329 0.6870 0.6850 0.6830 0.6820 0.6780
13.753000 0.6770 0.6750 0.6730 0.6730 0.6720
13.786329 0.6700 0.6680 0.6650 0.6670 0.6650
13.820000 0.6650 0.6650 0.6650 0.6650 0.6650
13.853329 0.6650 0.6630 0.6630 0.6630 0.6630
13.887000 0.6630 0.6620 0.6620 0.6600 0.6580
13.920329 0.6570 0.6570 0.6550 0.6570 0.6570
13.953000 0.6550 0.6550 0.6530 0.6520 0.6520
13.986329 0.6500 0.6480 0.6470 0.6470 0.6470
14.020000 0.6450 0.6430 0.6420 0.6400 0.6380
14.053329 0.6380 0.6370 0.6370 0.6370 0.6350
14.087000 0.6330 0.6320 0.6300 0.6300 0.6280
14.120329 0.6270 0.6250 0.6230 0.6230 0.6220
14.153000 0.6220 0.6200 0.6200 0.6180 0.6150
14.186329 0.6130 0.6120 0.6120 0.6100 0.6100
14.220000 0.6100 0.6080 0.6080 0.6070 0.6050
14.253329 0.6050 0.6030 0.6030 0.6020 0.5980
14.286000 0.5980 0.5980 0.5950 0.5950 0.5930
14.319329 0.5930 0.5910 0.5910 0.5910 0.5880
14.353000 0.5850 0.5850 0.5830 0.5830 0.5830
14.386329 0.5810 0.5810 0.5800 0.5800 0.5780
14.420000 0.5780 0.5760 0.5730 0.5710 0.5710
14.453329 0.5700 0.5700 0.5660 0.5650 0.5610
14.486000 0.5610 0.5600 0.5580 0.5560 0.5550
14.519329 0.5530 0.5530 0.5510 0.5500 0.5500
14.553000 0.5480 0.5450 0.5450 0.5430 0.5430
14.586329 0.5410 0.5410 0.5410 0.5400 0.5380
14.620000 0.5360 0.5360 0.5350 0.5350 0.5350
14.653329 0.5330 0.5330 0.5330 0.5330 0.5330
14.686000 0.5310 0.5300 0.5280 0.5280 0.5260
14.719329 0.5260 0.5260 0.5260 0.5260 0.5250
14.753000 0.5230 0.5230 0.5230 0.5230 0.5210
14.786329 0.5210 0.5210 0.5210 0.5250 0.5280
14.820000 0.5280 0.5310 0.5350 0.5400 0.5400
14.853329 0.5380 0.5380 0.5350 0.5330 0.5330
14.886000 0.5310 0.5310 0.5300 0.5280 0.5260
14.919329 0.5250 0.5250 0.5250 0.5230 0.5230
14.953000 0.5230 0.5230 0.5250 0.5260 0.5280
14.986329 0.5280 0.5280 0.5300 0.5280 0.5300
15.019000 0.5300 0.5310 0.5330 0.5330 0.5350
15.052329 0.5350 0.5360 0.5380 0.5400 0.5400
15.086000 0.5410 0.5410 0.5410 0.5400 0.5400
15.119329 0.5380 0.5400 0.5400 0.5400 0.5410
15.153000 0.5430 0.5460 0.5460 0.5480 0.5480
15.186329 0.5500 0.5500 0.5500 0.5500 0.5500
15.219000 0.5500 0.5500 0.5500 0.5500 0.5500
15.252329 0.5500 0.5500 0.5500 0.5480 0.5480
15.286000 0.5480 0.5480 0.5480 0.5480 0.5500
15.319329 0.5510 0.5530 0.5550 0.5550 0.5560
15.353000 0.5550 0.5550 0.5550 0.5550 0.5550
15.386329 0.5560 0.5560 0.5580 0.5600 0.5610
15.419000 0.5630 0.5610 0.5630 0.5630 0.5630
15.452329 0.5650 0.5650 0.5650 0.5650 0.5660
15.486000 0.5680 0.5700 0.5710 0.5710 0.5710
15.519329 0.5710 0.5710 0.5710 0.5710 0.5700
15.552000 0.5710 0.5710 0.5730 0.5730 0.5730
15.585329 0.5730 0.5730 0.5750 0.5760 0.5780
15.619000 0.5800 0.5800 0.5800 0.5810 0.5800
15.652329 0.5810 0.5810 0.5810 0.5830 0.5830
15.686000 0.5830 0.5830 0.5850 0.5850 0.5850
15.719329 0.5850 0.5860 0.5880 0.5900 0.5910
15.752000 0.5910 0.5930 0.5950 0.5960 0.5960
15.785329 0.5960 0.5980 0.6000 0.6000 0.6000
15.819000 0.6000 0.6000 0.6000 0.6000 0.6000
15.852329 0.6020 0.6030 0.6030 0.6050 0.6050
15.886000 0.6080 0.6080 0.6100 0.6120 0.6170
15.919329 0.6170 0.6200 0.6230 0.6230 0.6250
15.952000 0.6270 0.6280 0.6300 0.6300 0.6320
15.985329 0.6330 0.6330 0.6330
##END=
