##TITLE=AMMONIUM CHLORIDE
$$ A. R.
##JCAMP-DX=4.24
##DATA TYPE=INFRARED SPECTRUM
##CLASS=COBLENTZ
##ORIGIN=MELLON INSTITUTE
##OWNER=COBLENTZ SOCIETY
Collection (C) 2018 copyright by the U.S. Secretary of Commerce
on behalf of the United States of America. All rights reserved.
##DATE=Not specified, most likely prior to 1970
##MOLFORM=N H4 Cl
##SOURCE REFERENCE=COBLENTZ NO. 448
##$NIST ID=B6000448
##$NIST SOURCE=COBLENTZ
##$NIST IMAGE=cob448
##SPECTROMETER/DATA SYSTEM=Not specified, most likely a prism, grating, or hybrid spectrometer.
##STATE=SOLID (NUJOL AND FLUOROLUBE MULLS)
##SAMPLING PROCEDURE=TRANSMISSION
##RESOLUTION=4
##DATA PROCESSING=DIGITIZED BY NIST FROM HARD COPY
##XUNITS=MICROMETERS
##YUNITS=TRANSMITTANCE
##XFACTOR=1.000000
##YFACTOR=1
##DELTAX=000.006659
##FIRSTX=2.081
##LASTX=16.0446
##FIRSTY=0.794
##MAXX=16.0446
##MINX=2.081
##MAXY=1.001
##MINY=0.287
##NPOINTS=2098
##XYDATA=(X++(Y..Y))
2.081000 0.7940 0.7920 0.7940 0.7950 0.7950
2.114309 0.7970 0.7990 0.7990 0.7990 0.7990
2.148000 0.7990 0.7990 0.7990 0.7990 0.8010
2.181309 0.8020 0.8040 0.8040 0.8040 0.8040
2.214000 0.8040 0.8060 0.8060 0.8070 0.8060
2.247309 0.8070 0.8070 0.8090 0.8110 0.8120
2.281000 0.8120 0.8140 0.8140 0.8160 0.8160
2.314309 0.8160 0.8190 0.8210 0.8220 0.8240
2.347000 0.8260 0.8260 0.8270 0.8290 0.8310
2.380309 0.8310 0.8320 0.8320 0.8360 0.8370
2.414000 0.8390 0.8390 0.8410 0.8420 0.8440
2.447309 0.8460 0.8460 0.8490 0.8510 0.8520
2.481000 0.8520 0.8540 0.8540 0.8590 0.8590
2.514309 0.8610 0.8620 0.8640 0.8640 0.8640
2.547000 0.8640 0.8660 0.8710 0.8710 0.8720
2.580309 0.8720 0.8740 0.8740 0.8760 0.8760
2.614000 0.8760 0.8760 0.8770 0.8790 0.8790
2.647309 0.8810 0.8810 0.8810 0.8820 0.8840
2.680000 0.8840 0.8860 0.8860 0.8860 0.8860
2.713309 0.8890 0.8910 0.8910 0.8910 0.8920
2.747000 0.8920 0.8940 0.8940 0.8940 0.8940
2.780309 0.8960 0.8960 0.8970 0.8960 0.8970
2.814000 0.8970 0.8990 0.8970 0.8970 0.8990
2.847309 0.8990 0.8990 0.9010 0.9010 0.9010
2.880000 0.9030 0.9030 0.9040 0.9040 0.9040
2.913309 0.9040 0.9060 0.9080 0.9080 0.9090
2.947000 0.9090 0.9080 0.9080 0.9060 0.9040
2.980309 0.9040 0.9030 0.8960 0.8910 0.8820
3.013000 0.8770 0.8740 0.8710 0.8510 0.8290
3.046309 0.8090 0.7890 0.7720 0.7440 0.7270
3.080000 0.7100 0.6520 0.6320 0.6100 0.5730
3.113309 0.5430 0.5130 0.4710 0.4560 0.4410
3.146000 0.4190 0.4030 0.3960 0.3910 0.3890
3.179309 0.3910 0.3920 0.3990 0.4040 0.4110
3.213000 0.4160 0.4180 0.4230 0.4140 0.4030
3.246309 0.3820 0.3770 0.3740 0.3770 0.3840
3.280000 0.3870 0.4040 0.4140 0.4260 0.4380
3.313309 0.4530 0.4790 0.4980 0.5030 0.5130
3.346000 0.5300 0.5450 0.5750 0.5880 0.6020
3.379309 0.6130 0.6270 0.6430 0.6600 0.6720
3.413000 0.6800 0.6970 0.7020 0.7040 0.7050
3.446309 0.7090 0.7090 0.7070 0.7040 0.7000
3.479000 0.6980 0.6950 0.6920 0.6900 0.6880
3.512309 0.6870 0.6870 0.6870 0.6880 0.6980
3.546000 0.7100 0.7170 0.7240 0.7470 0.7590
3.579309 0.7700 0.7790 0.7850 0.7970 0.8010
3.613000 0.8040 0.8090 0.8120 0.8160 0.8220
3.646309 0.8270 0.8310 0.8320 0.8340 0.8390
3.679000 0.8420 0.8440 0.8510 0.8510 0.8540
3.712309 0.8560 0.8560 0.8610 0.8620 0.8640
3.746000 0.8660 0.8690 0.8710 0.8720 0.8740
3.779309 0.8740 0.8760 0.8760 0.8770 0.8810
3.812000 0.8860 0.8860 0.8870 0.8890 0.8890
3.845309 0.8890 0.8910 0.8920 0.8920 0.8940
3.879000 0.8940 0.8960 0.8990 0.8990 0.9010
3.912309 0.9010 0.9010 0.9030 0.9040 0.9040
3.946000 0.9060 0.9060 0.9080 0.9080 0.9090
3.979309 0.9110 0.9110 0.9110 0.9130 0.9140
4.012000 0.9140 0.9140 0.9140 0.9140 0.9140
4.045309 0.9160 0.9160 0.9180 0.9190 0.9190
4.079000 0.9190 0.9190 0.9190 0.9210 0.9210
4.112309 0.9210 0.9210 0.9210 0.9210 0.9210
4.145000 0.9210 0.9210 0.9230 0.9230 0.9230
4.178309 0.9230 0.9230 0.9230 0.9230 0.9240
4.212000 0.9230 0.9230 0.9230 0.9230 0.9230
4.245309 0.9230 0.9230 0.9230 0.9230 0.9230
4.278000 0.9230 0.9230 0.9230 0.9230 0.9230
4.311309 0.9230 0.9230 0.9230 0.9230 0.9230
4.345000 0.9230 0.9230 0.9230 0.9230 0.9230
4.378309 0.9230 0.9240 0.9240 0.9240 0.9240
4.412000 0.9240 0.9240 0.9240 0.9240 0.9240
4.445309 0.9260 0.9260 0.9260 0.9260 0.9260
4.478000 0.9260 0.9260 0.9260 0.9260 0.9260
4.511309 0.9260 0.9260 0.9260 0.9290 0.9290
4.545000 0.9290 0.9290 0.9290 0.9310 0.9310
4.578309 0.9310 0.9310 0.9310 0.9310 0.9310
4.611000 0.9310 0.9310 0.9310 0.9310 0.9330
4.644309 0.9330 0.9330 0.9340 0.9340 0.9340
4.678000 0.9340 0.9340 0.9340 0.9340 0.9340
4.711309 0.9340 0.9340 0.9340 0.9340 0.9340
4.745000 0.9340 0.9340 0.9340 0.9340 0.9360
4.778309 0.9360 0.9360 0.9380 0.9380 0.9360
4.811000 0.9360 0.9340 0.9380 0.9380 0.9390
4.844309 0.9390 0.9390 0.9390 0.9390 0.9390
4.878000 0.9390 0.9380 0.9380 0.9380 0.9380
4.911309 0.9380 0.9360 0.9360 0.9360 0.9360
4.944000 0.9360 0.9360 0.9360 0.9340 0.9340
4.977309 0.9340 0.9330 0.9330 0.9310 0.9310
5.011000 0.9310 0.9310 0.9310 0.9330 0.9330
5.044309 0.9310 0.9330 0.9330 0.9340 0.9340
5.077000 0.9340 0.9340 0.9360 0.9360 0.9360
5.110309 0.9360 0.9380 0.9390 0.9390 0.9410
5.144000 0.9410 0.9410 0.9430 0.9440 0.9440
5.177309 0.9440 0.9440 0.9460 0.9460 0.9480
5.211000 0.9480 0.9480 0.9490 0.9490 0.9490
5.244309 0.9490 0.9490 0.9490 0.9510 0.9510
5.277000 0.9510 0.9530 0.9510 0.9510 0.9510
5.310309 0.9510 0.9510 0.9510 0.9510 0.9510
5.344000 0.9530 0.9530 0.9530 0.9530 0.9530
5.377309 0.9530 0.9510 0.9530 0.9510 0.9510
5.410000 0.9510 0.9510 0.9510 0.9510 0.9510
5.443309 0.9490 0.9490 0.9490 0.9490 0.9490
5.477000 0.9490 0.9490 0.9490 0.9490 0.9490
5.510309 0.9480 0.9460 0.9460 0.9440 0.9440
5.544000 0.9440 0.9440 0.9440 0.9430 0.9410
5.577309 0.9390 0.9410 0.9390 0.9380 0.9360
5.610000 0.9360 0.9340 0.9330 0.9310 0.9290
5.643309 0.9280 0.9260 0.9230 0.9210 0.9160
5.677000 0.9140 0.9130 0.9130 0.9110 0.9090
5.710309 0.9080 0.9060 0.9060 0.9060 0.9060
5.743000 0.9060 0.9060 0.9080 0.9080 0.9080
5.776309 0.9090 0.9110 0.9110 0.9110 0.9140
5.810000 0.9140 0.9160 0.9180 0.9190 0.9210
5.843309 0.9230 0.9240 0.9260 0.9260 0.9290
5.877000 0.9310 0.9330 0.9340 0.9360 0.9360
5.910309 0.9410 0.9430 0.9440 0.9440 0.9460
5.943000 0.9480 0.9480 0.9490 0.9530 0.9540
5.976309 0.9560 0.9560 0.9560 0.9580 0.9560
6.010000 0.9580 0.9580 0.9590 0.9610 0.9630
6.043309 0.9630 0.9630 0.9630 0.9640 0.9640
6.076000 0.9640 0.9660 0.9660 0.9680 0.9680
6.109309 0.9690 0.9710 0.9710 0.9730 0.9730
6.143000 0.9740 0.9760 0.9760 0.9760 0.9780
6.176309 0.9790 0.9810 0.9810 0.9830 0.9830
6.209000 0.9830 0.9830 0.9830 0.9840 0.9840
6.242309 0.9830 0.9830 0.9830 0.9830 0.9830
6.276000 0.9830 0.9830 0.9830 0.9830 0.9830
6.309309 0.9830 0.9830 0.9830 0.9830 0.9830
6.343000 0.9830 0.9830 0.9830 0.9830 0.9810
6.376309 0.9810 0.9810 0.9810 0.9810 0.9810
6.409000 0.9810 0.9790 0.9780 0.9780 0.9760
6.442309 0.9760 0.9760 0.9760 0.9760 0.9760
6.476000 0.9760 0.9760 0.9760 0.9760 0.9760
6.509309 0.9760 0.9760 0.9760 0.9760 0.9760
6.542000 0.9760 0.9760 0.9760 0.9740 0.9740
6.575309 0.9740 0.9740 0.9740 0.9740 0.9740
6.609000 0.9740 0.9740 0.9740 0.9740 0.9760
6.642309 0.9760 0.9780 0.9780 0.9780 0.9780
6.676000 0.9780 0.9790 0.9790 0.9810 0.9810
6.709309 0.9810 0.9810 0.9830 0.9830 0.9830
6.742000 0.9830 0.9830 0.9830 0.9830 0.9830
6.775309 0.9830 0.9810 0.9790 0.9780 0.9760
6.809000 0.9730 0.9710 0.9690 0.9640 0.9580
6.842309 0.9430 0.9390 0.9230 0.9140 0.9060
6.875000 0.8990 0.8820 0.8610 0.8490 0.8390
6.908309 0.8210 0.8170 0.8120 0.8060 0.8010
6.942000 0.7990 0.7990 0.7920 0.7850 0.7740
6.975309 0.7520 0.7300 0.7150 0.7000 0.6620
7.008000 0.6500 0.6450 0.6020 0.5560 0.5110
7.041309 0.4760 0.4390 0.3740 0.3520 0.3290
7.075000 0.3070 0.2950 0.2890 0.2870 0.2890
7.108309 0.3010 0.3160 0.3470 0.3610 0.4310
7.142000 0.4490 0.5080 0.5210 0.5710 0.6030
7.175309 0.6250 0.6630 0.6720 0.7020 0.7190
7.208000 0.7500 0.7550 0.7620 0.7650 0.7700
7.241309 0.7800 0.7920 0.8120 0.8160 0.8260
7.275000 0.8270 0.8290 0.8310 0.8340 0.8360
7.308309 0.8370 0.8390 0.8410 0.8440 0.8460
7.341000 0.8470 0.8490 0.8510 0.8540 0.8560
7.374309 0.8570 0.8590 0.8610 0.8610 0.8620
7.408000 0.8640 0.8660 0.8670 0.8690 0.8710
7.441309 0.8710 0.8720 0.8760 0.8770 0.8790
7.475000 0.8810 0.8820 0.8840 0.8860 0.8860
7.508309 0.8870 0.8870 0.8890 0.8910 0.8920
7.541000 0.8920 0.8940 0.8960 0.8960 0.8970
7.574309 0.8970 0.9010 0.9010 0.9030 0.9030
7.608000 0.9060 0.9080 0.9090 0.9090 0.9110
7.641309 0.9130 0.9140 0.9140 0.9160 0.9160
7.674000 0.9180 0.9180 0.9190 0.9210 0.9230
7.707309 0.9230 0.9240 0.9260 0.9260 0.9260
7.741000 0.9280 0.9310 0.9310 0.9330 0.9340
7.774309 0.9340 0.9360 0.9380 0.9380 0.9390
7.808000 0.9410 0.9410 0.9430 0.9430 0.9440
7.841309 0.9440 0.9460 0.9460 0.9480 0.9480
7.874000 0.9480 0.9510 0.9510 0.9510 0.9510
7.907309 0.9530 0.9530 0.9530 0.9540 0.9540
7.941000 0.9540 0.9540 0.9560 0.9560 0.9560
7.974309 0.9580 0.9580 0.9580 0.9590 0.9580
8.007000 0.9590 0.9590 0.9590 0.9590 0.9610
8.040309 0.9630 0.9610 0.9610 0.9610 0.9610
8.074000 0.9610 0.9610 0.9610 0.9610 0.9630
8.107309 0.9630 0.9630 0.9630 0.9630 0.9630
8.140000 0.9640 0.9640 0.9640 0.9660 0.9660
8.173309 0.9660 0.9660 0.9660 0.9660 0.9660
8.207000 0.9690 0.9690 0.9690 0.9690 0.9710
8.240309 0.9730 0.9730 0.9730 0.9740 0.9730
8.274000 0.9730 0.9730 0.9730 0.9730 0.9740
8.307309 0.9740 0.9740 0.9740 0.9740 0.9740
8.340000 0.9760 0.9760 0.9760 0.9760 0.9760
8.373309 0.9760 0.9780 0.9780 0.9780 0.9780
8.407000 0.9780 0.9780 0.9780 0.9780 0.9780
8.440309 0.9780 0.9790 0.9790 0.9790 0.9790
8.473000 0.9790 0.9810 0.9810 0.9810 0.9810
8.506309 0.9810 0.9810 0.9810 0.9810 0.9810
8.540000 0.9810 0.9810 0.9810 0.9810 0.9810
8.573309 0.9830 0.9830 0.9810 0.9790 0.9810
8.607000 0.9810 0.9830 0.9840 0.9830 0.9830
8.640309 0.9830 0.9830 0.9830 0.9810 0.9810
8.673000 0.9810 0.9810 0.9810 0.9810 0.9810
8.706309 0.9810 0.9810 0.9810 0.9810 0.9810
8.740000 0.9810 0.9810 0.9810 0.9810 0.9810
8.773309 0.9810 0.9810 0.9810 0.9830 0.9810
8.806000 0.9810 0.9810 0.9810 0.9810 0.9810
8.839309 0.9810 0.9810 0.9810 0.9810 0.9830
8.873000 0.9830 0.9830 0.9830 0.9830 0.9830
8.906309 0.9830 0.9830 0.9830 0.9830 0.9830
8.939000 0.9830 0.9830 0.9830 0.9830 0.9830
8.972309 0.9830 0.9830 0.9830 0.9830 0.9840
9.006000 0.9830 0.9840 0.9840 0.9840 0.9840
9.039309 0.9840 0.9840 0.9840 0.9830 0.9830
9.073000 0.9830 0.9830 0.9830 0.9830 0.9840
9.106309 0.9840 0.9840 0.9840 0.9840 0.9840
9.139000 0.9840 0.9840 0.9830 0.9830 0.9830
9.172309 0.9830 0.9830 0.9830 0.9830 0.9830
9.206000 0.9830 0.9830 0.9830 0.9830 0.9830
9.239309 0.9830 0.9830 0.9830 0.9830 0.9830
9.272000 0.9830 0.9830 0.9830 0.9830 0.9830
9.305309 0.9840 0.9840 0.9830 0.9830 0.9830
9.339000 0.9830 0.9830 0.9830 0.9840 0.9840
9.372309 0.9830 0.9840 0.9840 0.9840 0.9840
9.406000 0.9840 0.9840 0.9840 0.9840 0.9840
9.439309 0.9840 0.9840 0.9840 0.9840 0.9840
9.472000 0.9860 0.9860 0.9860 0.9840 0.9840
9.505309 0.9840 0.9840 0.9840 0.9860 0.9860
9.539000 0.9860 0.9860 0.9860 0.9860 0.9860
9.572309 0.9860 0.9860 0.9860 0.9860 0.9860
9.605000 0.9860 0.9860 0.9860 0.9860 0.9860
9.638309 0.9860 0.9860 0.9860 0.9860 0.9860
9.672000 0.9860 0.9860 0.9860 0.9860 0.9860
9.705309 0.9840 0.9840 0.9840 0.9840 0.9840
9.738000 0.9840 0.9840 0.9860 0.9860 0.9860
9.771309 0.9860 0.9880 0.9880 0.9880 0.9880
9.805000 0.9880 0.9880 0.9880 0.9880 0.9880
9.838309 0.9880 0.9880 0.9860 0.9860 0.9880
9.872000 0.9880 0.9880 0.9890 0.9890 0.9890
9.905309 0.9890 0.9910 0.9910 0.9910 0.9910
9.938000 0.9910 0.9910 0.9910 0.9910 0.9910
9.971309 0.9910 0.9910 0.9910 0.9930 0.9930
10.005000 0.9930 0.9910 0.9910 0.9910 0.9910
10.038309 0.9910 0.9910 0.9910 0.9910 0.9910
10.071000 0.9910 0.9910 0.9910 0.9910 0.9910
10.104309 0.9910 0.9910 0.9910 0.9910 0.9910
10.138000 0.9930 0.9930 0.9930 0.9930 0.9930
10.171309 0.9930 0.9930 0.9940 0.9940 0.9940
10.205000 0.9940 0.9940 0.9940 0.9940 0.9960
10.238309 0.9960 0.9960 0.9960 0.9960 0.9960
10.271000 0.9960 0.9960 0.9960 0.9960 0.9960
10.304309 0.9960 0.9960 0.9960 0.9960 0.9960
10.338000 0.9960 0.9960 0.9960 0.9960 0.9960
10.371309 0.9960 0.9960 0.9960 0.9960 0.9960
10.404000 0.9960 0.9960 0.9960 0.9960 0.9960
10.437309 0.9960 0.9960 0.9960 0.9960 0.9960
10.471000 0.9960 0.9960 0.9960 0.9960 0.9960
10.504309 0.9960 0.9960 0.9980 0.9980 0.9980
10.538000 0.9980 0.9980 0.9980 0.9980 0.9980
10.571309 0.9980 0.9980 0.9980 0.9980 0.9980
10.604000 0.9980 0.9980 0.9980 0.9980 0.9980
10.637309 0.9980 0.9980 0.9980 0.9980 0.9980
10.671000 0.9980 0.9980 0.9980 0.9980 0.9980
10.704309 0.9980 0.9980 0.9980 0.9980 0.9980
10.737000 0.9980 0.9980 0.9980 0.9980 0.9980
10.770309 0.9980 0.9980 0.9980 0.9980 0.9980
10.804000 0.9980 0.9980 0.9980 0.9980 0.9980
10.837309 0.9980 0.9980 0.9980 0.9980 0.9980
10.870000 0.9980 0.9980 0.9980 1.0010 1.0010
10.903309 1.0010 1.0010 1.0010 1.0010 1.0010
10.937000 1.0010 1.0010 1.0010 1.0010 1.0010
10.970309 1.0010 1.0010 1.0010 1.0010 1.0010
11.004000 1.0010 1.0010 1.0010 1.0010 1.0010
11.037309 1.0010 1.0010 1.0010 1.0010 1.0010
11.070000 1.0010 1.0010 1.0010 1.0010 1.0010
11.103309 1.0010 1.0010 1.0010 1.0010 1.0010
11.137000 1.0010 1.0010 1.0000 1.0000 1.0000
11.170309 1.0000 1.0000 1.0000 1.0000 1.0000
11.203000 1.0000 1.0000 1.0000 1.0000 1.0000
11.236309 1.0000 1.0000 1.0000 0.9980 0.9980
11.270000 0.9980 1.0000 1.0000 1.0000 1.0000
11.303309 1.0000 1.0000 1.0000 1.0000 1.0000
11.337000 1.0000 1.0000 1.0000 1.0000 1.0000
11.370309 1.0000 1.0000 1.0000 1.0000 1.0000
11.403000 1.0000 1.0000 1.0000 1.0000 1.0000
11.436309 1.0000 1.0000 1.0000 1.0000 1.0000
11.470000 1.0000 1.0000 1.0000 1.0000 1.0000
11.503309 1.0000 1.0000 1.0000 1.0000 1.0000
11.536000 1.0000 1.0000 1.0000 1.0000 1.0000
11.569309 1.0000 1.0000 1.0000 1.0000 1.0000
11.603000 1.0000 1.0000 1.0000 1.0000 1.0000
11.636309 1.0000 1.0000 0.9980 1.0000 1.0000
11.669000 1.0000 1.0000 1.0000 1.0000 1.0000
11.702309 1.0000 1.0000 0.9980 0.9980 0.9980
11.736000 0.9980 0.9980 0.9980 0.9980 0.9980
11.769309 0.9980 0.9980 0.9960 0.9960 0.9960
11.803000 0.9960 0.9960 0.9960 0.9960 0.9960
11.836309 0.9960 0.9960 0.9960 0.9960 0.9960
11.869000 0.9960 0.9960 0.9960 0.9960 0.9960
11.902309 0.9960 0.9960 0.9960 0.9960 0.9960
11.936000 0.9960 0.9960 0.9960 0.9960 0.9960
11.969309 0.9960 0.9960 0.9960 0.9960 0.9960
12.002000 0.9960 0.9960 0.9960 0.9960 0.9960
12.035309 0.9980 0.9980 0.9980 0.9980 0.9980
12.069000 0.9980 0.9980 0.9980 0.9980 0.9980
12.102309 0.9980 0.9980 0.9980 0.9980 0.9980
12.136000 0.9980 0.9980 0.9980 0.9980 0.9980
12.169309 0.9980 0.9980 0.9980 0.9980 0.9980
12.202000 0.9980 0.9980 0.9980 0.9980 0.9980
12.235309 0.9980 0.9980 0.9980 0.9960 0.9960
12.269000 0.9960 0.9960 0.9960 0.9960 0.9960
12.302309 0.9960 0.9960 0.9960 0.9960 0.9960
12.335000 0.9960 0.9960 0.9960 0.9960 0.9960
12.368309 0.9960 0.9960 0.9960 0.9960 0.9960
12.402000 0.9960 0.9960 0.9980 0.9980 0.9980
12.435309 0.9980 0.9980 0.9980 0.9980 0.9980
12.469000 0.9980 0.9980 0.9980 0.9980 0.9980
12.502309 0.9980 0.9980 0.9980 0.9980 0.9980
12.535000 0.9980 0.9980 0.9980 0.9980 0.9980
12.568309 0.9980 0.9980 0.9980 0.9980 0.9980
12.602000 0.9980 0.9980 0.9980 0.9980 0.9980
12.635309 0.9980 0.9980 0.9980 0.9980 0.9980
12.668000 0.9980 0.9980 0.9960 0.9960 0.9960
12.701309 0.9960 0.9960 0.9960 0.9960 0.9960
12.735000 0.9960 0.9960 0.9960 0.9960 0.9940
12.768309 0.9940 0.9940 0.9940 0.9940 0.9960
12.801000 0.9960 0.9960 0.9960 0.9960 0.9960
12.834309 0.9960 0.9960 0.9940 0.9940 0.9940
12.868000 0.9940 0.9940 0.9940 0.9940 0.9940
12.901309 0.9940 0.9940 0.9940 0.9940 0.9930
12.935000 0.9930 0.9930 0.9930 0.9930 0.9930
12.968309 0.9930 0.9930 0.9930 0.9930 0.9930
13.001000 0.9930 0.9930 0.9910 0.9910 0.9910
13.034309 0.9910 0.9910 0.9910 0.9910 0.9910
13.068000 0.9910 0.9910 0.9910 0.9910 0.9910
13.101309 0.9910 0.9910 0.9910 0.9930 0.9910
13.134000 0.9910 0.9910 0.9910 0.9910 0.9910
13.167309 0.9890 0.9910 0.9910 0.9910 0.9910
13.201000 0.9910 0.9890 0.9890 0.9890 0.9890
13.234309 0.9890 0.9890 0.9880 0.9880 0.9880
13.268000 0.9880 0.9860 0.9860 0.9860 0.9840
13.301309 0.9840 0.9840 0.9830 0.9830 0.9830
13.334000 0.9830 0.9810 0.9810 0.9810 0.9790
13.367309 0.9790 0.9790 0.9780 0.9780 0.9780
13.401000 0.9780 0.9780 0.9760 0.9760 0.9760
13.434309 0.9740 0.9730 0.9730 0.9730 0.9730
13.467000 0.9730 0.9730 0.9710 0.9710 0.9710
13.500309 0.9710 0.9710 0.9710 0.9690 0.9680
13.534000 0.9680 0.9660 0.9660 0.9680 0.9680
13.567309 0.9680 0.9660 0.9660 0.9640 0.9640
13.600000 0.9640 0.9640 0.9630 0.9630 0.9610
13.633309 0.9610 0.9590 0.9590 0.9580 0.9560
13.667000 0.9560 0.9560 0.9560 0.9560 0.9540
13.700309 0.9540 0.9540 0.9530 0.9530 0.9530
13.734000 0.9510 0.9510 0.9490 0.9480 0.9460
13.767309 0.9460 0.9460 0.9460 0.9440 0.9440
13.800000 0.9440 0.9440 0.9430 0.9430 0.9410
13.833309 0.9410 0.9390 0.9390 0.9380 0.9360
13.867000 0.9360 0.9360 0.9340 0.9340 0.9340
13.900309 0.9330 0.9330 0.9330 0.9310 0.9310
13.933000 0.9330 0.9310 0.9310 0.9290 0.9290
13.966309 0.9280 0.9280 0.9280 0.9280 0.9260
14.000000 0.9260 0.9230 0.9210 0.9210 0.9190
14.033309 0.9180 0.9160 0.9160 0.9160 0.9140
14.067000 0.9140 0.9140 0.9130 0.9130 0.9110
14.100309 0.9090 0.9090 0.9090 0.9090 0.9080
14.133000 0.9080 0.9060 0.9060 0.9060 0.9040
14.166309 0.9040 0.9030 0.9030 0.9010 0.9010
14.200000 0.8990 0.8990 0.8990 0.8990 0.8960
14.233309 0.8960 0.8940 0.8940 0.8940 0.8920
14.266000 0.8920 0.8920 0.8910 0.8890 0.8890
14.299309 0.8890 0.8860 0.8870 0.8870 0.8870
14.333000 0.8860 0.8860 0.8860 0.8840 0.8840
14.366309 0.8840 0.8820 0.8810 0.8810 0.8790
14.400000 0.8770 0.8760 0.8760 0.8760 0.8740
14.433309 0.8740 0.8720 0.8720 0.8720 0.8710
14.466000 0.8710 0.8690 0.8670 0.8660 0.8640
14.499309 0.8640 0.8640 0.8640 0.8620 0.8610
14.533000 0.8610 0.8610 0.8570 0.8570 0.8560
14.566309 0.8560 0.8560 0.8540 0.8540 0.8540
14.599000 0.8520 0.8520 0.8510 0.8490 0.8490
14.632309 0.8490 0.8490 0.8470 0.8460 0.8460
14.666000 0.8440 0.8440 0.8420 0.8420 0.8440
14.699309 0.8420 0.8410 0.8370 0.8370 0.8360
14.732000 0.8360 0.8360 0.8340 0.8340 0.8320
14.765309 0.8310 0.8270 0.8270 0.8260 0.8260
14.799000 0.8240 0.8240 0.8220 0.8210 0.8210
14.832309 0.8190 0.8190 0.8170 0.8170 0.8160
14.866000 0.8160 0.8140 0.8120 0.8120 0.8110
14.899309 0.8090 0.8090 0.8090 0.8070 0.8070
14.932000 0.8070 0.8060 0.8060 0.8060 0.8040
14.965309 0.8040 0.8020 0.8020 0.8010 0.8010
14.999000 0.7990 0.7990 0.7970 0.7950 0.7950
15.032309 0.7940 0.7940 0.7920 0.7920 0.7900
15.065000 0.7900 0.7890 0.7900 0.7900 0.7890
15.098309 0.7890 0.7890 0.7870 0.7870 0.7870
15.132000 0.7850 0.7850 0.7850 0.7850 0.7850
15.165309 0.7850 0.7840 0.7840 0.7840 0.7820
15.199000 0.7820 0.7820 0.7820 0.7800 0.7800
15.232309 0.7800 0.7790 0.7790 0.7790 0.7770
15.265000 0.7770 0.7770 0.7750 0.7750 0.7740
15.298309 0.7750 0.7750 0.7750 0.7750 0.7740
15.332000 0.7740 0.7740 0.7720 0.7720 0.7720
15.365309 0.7700 0.7700 0.7700 0.7690 0.7690
15.398000 0.7690 0.7670 0.7670 0.7670 0.7670
15.431309 0.7650 0.7650 0.7650 0.7650 0.7670
15.465000 0.7650 0.7650 0.7650 0.7650 0.7650
15.498309 0.7640 0.7640 0.7640 0.7640 0.7640
15.531000 0.7620 0.7620 0.7620 0.7620 0.7600
15.564309 0.7600 0.7600 0.7600 0.7600 0.7600
15.598000 0.7600 0.7600 0.7590 0.7590 0.7590
15.631309 0.7590 0.7590 0.7590 0.7590 0.7590
15.665000 0.7570 0.7570 0.7570 0.7570 0.7570
15.698309 0.7590 0.7590 0.7590 0.7590 0.7590
15.731000 0.7590 0.7590 0.7590 0.7590 0.7590
15.764309 0.7590 0.7600 0.7600 0.7600 0.7600
15.798000 0.7600 0.7600 0.7600 0.7600 0.7620
15.831309 0.7620 0.7640 0.7640 0.7640 0.7640
15.864000 0.7640 0.7640 0.7650 0.7650 0.7650
15.897309 0.7670 0.7670 0.7670 0.7670 0.7690
15.931000 0.7690 0.7700 0.7700 0.7700 0.7700
15.964309 0.7700 0.7720 0.7720 0.7720 0.7740
15.998000 0.8170 0.7700 0.7700 0.7700 0.7700
16.031309 0.7720 0.7720 0.7720
##END=
