##TITLE=Indoline, 6-amino-, dihydrochloride
##JCAMP-DX=4.24
##DATA TYPE=INFRARED SPECTRUM
##CLASS=COBLENTZ III
##ORIGIN=DOW CHEMICAL COMPANY
##OWNER=Copyright (C) 1987 by the Coblentz Society
Collection (C) 2018 copyright by the U.S. Secretary of Commerce
on behalf of the United States of America. All rights reserved.
##DATE=1963/10/14
##MOLFORM=C8 H12 Cl2 N2
##SOURCE REFERENCE=COBLENTZ NO. 8137
##$NIST ID=B6008137
##$NIST SOURCE=COBLENTZ
##$NIST IMAGE=cob8137
##SPECTROMETER/DATA SYSTEM=BECKMAN IR-9 (GRATING)
##INSTRUMENT PARAMETERS=ORDER CHANGES: 670, 1200, 2000 CM^-^1
##STATE=SOLID (SPLIT MULL), FLUOROLUBE FOR 3800-1330 CM^-^1, NUJOL FOR 1330-400 CM^-^1
##SAMPLING PROCEDURE=TRANSMISSION
##RESOLUTION=2
##DATA PROCESSING=DIGITIZED BY COBLENTZ SOCIETY (BATCH II) FROM HARD COPY
##XUNITS=1/CM
##YUNITS=TRANSMITTANCE
##XFACTOR=1.0
##YFACTOR=1
##FIRSTX=384
##LASTX=3802
##FIRSTY=0.8092
##MAXX=3802
##MINX=384
##MAXY=0.9116
##MINY=0.1103
##NPOINTS=3419
##XYDATA=(X++(Y..Y))
384.000000 0.8092 0.8086 0.8079 0.8072 0.8065
389.000000 0.8058 0.8050 0.8042 0.8033 0.8025
394.000000 0.8017 0.8008 0.7994 0.7975 0.7956
399.000000 0.7937 0.7915 0.7883 0.7852 0.7821
404.000000 0.7789 0.7742 0.7682 0.7622 0.7559
409.000000 0.7478 0.7398 0.7317 0.7202 0.6847
414.000000 0.6065 0.5647 0.5228 0.4810 0.4392
419.000000 0.4108 0.4012 0.4012 0.4052 0.4393
424.000000 0.4756 0.5119 0.5483 0.5846 0.6209
429.000000 0.6408 0.6408 0.6376 0.6318 0.6269
434.000000 0.6256 0.6275 0.6303 0.6458 0.6709
439.000000 0.6959 0.7210 0.7461 0.7712 0.7862
444.000000 0.7952 0.8035 0.8368 0.8500 0.8570
449.000000 0.8640 0.8689 0.8736 0.8785 0.8820
454.000000 0.8844 0.8868 0.8887 0.8903 0.8917
459.000000 0.8931 0.8935 0.8938 0.8935 0.8931
464.000000 0.8950 0.8916 0.8897 0.8872 0.8834
469.000000 0.8751 0.8630 0.8526 0.8446 0.8437
474.000000 0.8432 0.8464 0.8527 0.8623 0.8750
479.000000 0.8863 0.8946 0.8992 0.9008 0.9020
484.000000 0.9025 0.9025 0.9022 0.9019 0.9016
489.000000 0.9041 0.9004 0.8997 0.8990 0.8983
494.000000 0.8976 0.8969 0.8963 0.8956 0.8950
499.000000 0.8944 0.8937 0.8931 0.8924 0.8918
504.000000 0.8911 0.8904 0.8897 0.8891 0.8884
509.000000 0.8877 0.8870 0.8864 0.8857 0.8851
514.000000 0.8844 0.8838 0.8831 0.8825 0.8818
519.000000 0.8812 0.8806 0.8799 0.8793 0.8786
524.000000 0.8780 0.8774 0.8767 0.8761 0.8753
529.000000 0.8746 0.8739 0.8731 0.8724 0.8717
534.000000 0.8710 0.8702 0.8694 0.8677 0.8661
539.000000 0.8617 0.8533 0.8437 0.8067 0.7938
544.000000 0.7841 0.7822 0.7788 0.7957 0.8123
549.000000 0.8289 0.8455 0.8620 0.8685 0.8739
554.000000 0.8787 0.8801 0.8811 0.8818 0.8825
559.000000 0.8828 0.8831 0.8849 0.8825 0.8822
564.000000 0.8818 0.8808 0.8798 0.8778 0.8738
569.000000 0.8673 0.8603 0.8533 0.8459 0.8330
574.000000 0.8260 0.8199 0.8150 0.8220 0.8274
579.000000 0.8353 0.8440 0.8551 0.8658 0.8751
584.000000 0.8813 0.8843 0.8858 0.8873 0.8887
589.000000 0.8893 0.8897 0.8903 0.8909 0.8915
594.000000 0.8920 0.8922 0.8924 0.8926 0.8927
599.000000 0.8929 0.8932 0.8934 0.8936 0.8939
604.000000 0.8941 0.8944 0.8946 0.8948 0.8953
609.000000 0.8958 0.8964 0.8969 0.8974 0.8979
614.000000 0.8985 0.8990 0.8995 0.9002 0.9008
619.000000 0.9014 0.9020 0.9027 0.9033 0.9039
624.000000 0.9041 0.9042 0.9044 0.9044 0.9046
629.000000 0.9047 0.9040 0.9029 0.9009 0.8988
634.000000 0.8968 0.8941 0.8891 0.8775 0.8639
639.000000 0.8470 0.7812 0.7787 0.7786 0.8017
644.000000 0.8242 0.8466 0.8691 0.8806 0.8895
649.000000 0.8949 0.9002 0.9051 0.9075 0.9088
654.000000 0.9101 0.9111 0.9116 0.9116 0.9114
659.000000 0.9112 0.9108 0.9101 0.9093 0.9084
664.000000 0.9074 0.9063 0.9093 0.9092 0.9105
669.000000 0.9088 0.9072 0.9055 0.9032 0.9009
674.000000 0.8983 0.8957 0.8926 0.8893 0.8860
679.000000 0.8818 0.8756 0.8688 0.8598 0.8488
684.000000 0.8375 0.8233 0.7338 0.6376 0.5414
689.000000 0.4575 0.5015 0.6197 0.7379 0.8221
694.000000 0.8334 0.8711 0.8762 0.8772 0.8779
699.000000 0.8786 0.8772 0.8758 0.8743 0.8727
704.000000 0.8711 0.8691 0.8660 0.8621 0.8571
709.000000 0.8522 0.8472 0.8419 0.8360 0.8302
714.000000 0.8244 0.8147 0.8051 0.7952 0.7849
719.000000 0.7739 0.7602 0.7541 0.7549 0.7518
724.000000 0.7660 0.7732 0.7790 0.7851 0.7913
729.000000 0.7962 0.7994 0.8007 0.8019 0.8018
734.000000 0.8014 0.8011 0.8002 0.7993 0.7963
739.000000 0.7833 0.7599 0.7358 0.7336 0.7311
744.000000 0.7695 0.7988 0.8180 0.8252 0.8326
749.000000 0.8387 0.8412 0.8426 0.8434 0.8435
754.000000 0.8436 0.8419 0.8435 0.8428 0.8422
759.000000 0.8415 0.8401 0.8381 0.8360 0.8339
764.000000 0.8311 0.8280 0.8250 0.8220 0.8173
769.000000 0.8115 0.8056 0.7996 0.7938 0.7876
774.000000 0.7931 0.7963 0.8012 0.8066 0.8125
779.000000 0.8187 0.8249 0.8313 0.8377 0.8426
784.000000 0.8472 0.8495 0.8510 0.8517 0.8522
789.000000 0.8464 0.8512 0.8502 0.8493 0.8483
794.000000 0.8473 0.8464 0.8445 0.8426 0.8407
799.000000 0.8388 0.8356 0.8322 0.8287 0.8253
804.000000 0.8208 0.8155 0.8102 0.8045 0.7969
809.000000 0.7893 0.7805 0.6874 0.6542 0.6186
814.000000 0.5688 0.5189 0.4691 0.4192 0.3693
819.000000 0.3195 0.2642 0.2676 0.4228 0.6673
824.000000 0.7367 0.7585 0.7739 0.7869 0.7973
829.000000 0.8043 0.8085 0.8112 0.8115 0.8108
834.000000 0.8129 0.8093 0.8072 0.8046 0.8013
839.000000 0.7972 0.7927 0.7857 0.7775 0.7689
844.000000 0.7602 0.7325 0.6978 0.6853 0.6843
849.000000 0.6850 0.7194 0.7487 0.7561 0.7592
854.000000 0.7624 0.7658 0.7693 0.7763 0.7812
859.000000 0.7825 0.7832 0.7834 0.7525 0.7345
864.000000 0.7165 0.7156 0.7094 0.7617 0.7781
869.000000 0.7727 0.7776 0.7483 0.7406 0.7379
874.000000 0.7975 0.8069 0.8163 0.8181 0.8178
879.000000 0.8181 0.8163 0.8146 0.8130 0.8114
884.000000 0.8097 0.8081 0.8064 0.8047 0.8030
889.000000 0.8016 0.8003 0.7989 0.7975 0.7960
894.000000 0.7941 0.7921 0.7902 0.7875 0.7849
899.000000 0.7822 0.7786 0.7741 0.7682 0.7601
904.000000 0.7520 0.7437 0.7149 0.6853 0.6598
909.000000 0.6543 0.6533 0.6509 0.6436 0.6328
914.000000 0.6213 0.6079 0.5881 0.5850 0.5847
919.000000 0.5830 0.6383 0.6707 0.6926 0.6957
924.000000 0.6736 0.6543 0.6350 0.6157 0.6042
929.000000 0.7507 0.7629 0.7669 0.7679 0.7648
934.000000 0.7557 0.7421 0.7284 0.7161 0.7158
939.000000 0.7414 0.7606 0.7724 0.7751 0.7747
944.000000 0.7770 0.7732 0.7720 0.7699 0.7676
949.000000 0.7642 0.7608 0.7554 0.7469 0.7292
954.000000 0.7110 0.6908 0.6545 0.6516 0.6516
959.000000 0.6667 0.6966 0.7249 0.7405 0.7504
964.000000 0.7587 0.7653 0.7698 0.7721 0.7745
969.000000 0.7764 0.7776 0.7787 0.7799 0.7811
974.000000 0.7820 0.7826 0.7832 0.7838 0.7843
979.000000 0.7846 0.7859 0.7850 0.7846 0.7835
984.000000 0.7819 0.7802 0.7753 0.7704 0.7649
989.000000 0.7550 0.7451 0.7283 0.7080 0.6941
994.000000 0.6700 0.6038 0.6021 0.6027 0.6872
999.000000 0.7584 0.7636 0.7712 0.7826 0.7917
1004.000000 0.7962 0.7991 0.8005 0.8015 0.8022
1009.000000 0.8028 0.8034 0.8012 0.8039 0.8041
1014.000000 0.8040 0.8037 0.8035 0.8032 0.8029
1019.000000 0.8024 0.8019 0.8015 0.8010 0.8006
1024.000000 0.8001 0.7996 0.7992 0.7988 0.7984
1029.000000 0.7980 0.7976 0.7972 0.7968 0.7963
1034.000000 0.7959 0.7955 0.7950 0.7946 0.7940
1039.000000 0.7932 0.7925 0.7917 0.7909 0.7902
1044.000000 0.7894 0.7884 0.7868 0.7853 0.7837
1049.000000 0.7822 0.7806 0.7791 0.7764 0.7733
1054.000000 0.7694 0.7642 0.7591 0.7403 0.7144
1059.000000 0.7073 0.6728 0.6600 0.6588 0.6614
1064.000000 0.6905 0.6961 0.6988 0.7002 0.7050
1069.000000 0.7266 0.7431 0.7516 0.7538 0.7537
1074.000000 0.7533 0.7532 0.7523 0.7514 0.7505
1079.000000 0.7495 0.7482 0.7469 0.7456 0.7438
1084.000000 0.7421 0.7399 0.7366 0.7329 0.7268
1089.000000 0.7180 0.7093 0.7012 0.6949 0.6885
1094.000000 0.6822 0.6763 0.6706 0.6649 0.6579
1099.000000 0.6485 0.6401 0.6286 0.6157 0.6081
1104.000000 0.5997 0.5885 0.5784 0.5771 0.5765
1109.000000 0.5831 0.5947 0.6057 0.6177 0.6261
1114.000000 0.6380 0.6484 0.6538 0.6586 0.6596
1119.000000 0.6606 0.6625 0.6601 0.6592 0.6565
1124.000000 0.6520 0.6445 0.6322 0.6212 0.6104
1129.000000 0.6003 0.5765 0.5742 0.5728 0.5717
1134.000000 0.5679 0.5619 0.5566 0.5507 0.5445
1139.000000 0.5404 0.5401 0.5478 0.5675 0.6018
1144.000000 0.6421 0.6519 0.6617 0.6738 0.6836
1149.000000 0.6899 0.6962 0.7022 0.7076 0.7130
1154.000000 0.7167 0.7201 0.7235 0.7266 0.7294
1159.000000 0.7322 0.7343 0.7360 0.7377 0.7406
1164.000000 0.7392 0.7392 0.7378 0.7357 0.7327
1169.000000 0.7288 0.7255 0.7222 0.7200 0.7188
1174.000000 0.7179 0.7194 0.7221 0.7238 0.7244
1179.000000 0.7244 0.7240 0.7230 0.7216 0.7198
1184.000000 0.7165 0.7120 0.7035 0.6935 0.6826
1189.000000 0.6700 0.6544 0.6466 0.6474 0.6581
1194.000000 0.6758 0.6935 0.7073 0.7142 0.7168
1199.000000 0.7189 0.7196 0.7194 0.7189 0.7174
1204.000000 0.7153 0.7132 0.7108 0.7080 0.7019
1209.000000 0.6957 0.6868 0.6735 0.6568 0.6395
1214.000000 0.6295 0.6303 0.6532 0.6839 0.7146
1219.000000 0.7365 0.7400 0.7419 0.7419 0.7419
1224.000000 0.7416 0.7410 0.7402 0.7391 0.7381
1229.000000 0.7369 0.7355 0.7341 0.7327 0.7312
1234.000000 0.7297 0.7283 0.7260 0.7231 0.7202
1239.000000 0.7162 0.7122 0.7081 0.7040 0.6998
1244.000000 0.6955 0.6885 0.6796 0.6700 0.6601
1249.000000 0.6491 0.6324 0.6154 0.6030 0.5923
1254.000000 0.5826 0.5750 0.5675 0.5613 0.5602
1259.000000 0.5589 0.5657 0.5971 0.6293 0.6537
1264.000000 0.6712 0.6797 0.6824 0.6847 0.6858
1269.000000 0.6862 0.6854 0.6847 0.6839 0.6830
1274.000000 0.6817 0.6796 0.6755 0.6705 0.6627
1279.000000 0.6551 0.6478 0.6405 0.6322 0.6235
1284.000000 0.6144 0.6046 0.5882 0.5655 0.5632
1289.000000 0.5611 0.5679 0.5778 0.5898 0.6212
1294.000000 0.6350 0.6374 0.6377 0.6377 0.6377
1299.000000 0.6374 0.6385 0.6408 0.6432 0.6447
1304.000000 0.6427 0.6396 0.6339 0.6270 0.6246
1309.000000 0.6239 0.6264 0.6320 0.6488 0.6625
1314.000000 0.6664 0.6673 0.6684 0.6673 0.6649
1319.000000 0.6625 0.6597 0.6568 0.6538 0.6505
1324.000000 0.6473 0.6441 0.6412 0.6386 0.6366
1329.000000 0.6346 0.6320 0.6289 0.6257 0.6221
1334.000000 0.6179 0.6134 0.6054 0.5937 0.5787
1339.000000 0.5659 0.5526 0.5369 0.5325 0.5328
1344.000000 0.5321 0.5417 0.5694 0.5971 0.6248
1349.000000 0.6525 0.6802 0.7126 0.7240 0.7320
1354.000000 0.7370 0.7394 0.7408 0.7418 0.7402
1359.000000 0.7390 0.7366 0.7325 0.7281 0.7206
1364.000000 0.7112 0.7017 0.6919 0.6781 0.6547
1369.000000 0.6314 0.6080 0.5846 0.5613 0.5379
1374.000000 0.5146 0.4912 0.4678 0.4432 0.4430
1379.000000 0.4485 0.4580 0.4720 0.4840 0.4935
1384.000000 0.5766 0.6077 0.6389 0.7023 0.7213
1389.000000 0.7328 0.7443 0.7596 0.7743 0.7849
1394.000000 0.7928 0.7987 0.8001 0.8013 0.8013
1399.000000 0.8014 0.8015 0.8016 0.8049 0.8013
1404.000000 0.8010 0.8007 0.8004 0.8001 0.7992
1409.000000 0.7984 0.7976 0.7967 0.7959 0.7948
1414.000000 0.7935 0.7924 0.7911 0.7899 0.7887
1419.000000 0.7876 0.7866 0.7855 0.7844 0.7833
1424.000000 0.7822 0.7811 0.7801 0.7793 0.7784
1429.000000 0.7774 0.7737 0.7658 0.7576 0.7494
1434.000000 0.7296 0.6909 0.6488 0.6398 0.6395
1439.000000 0.6541 0.6672 0.6644 0.6568 0.6531
1444.000000 0.6526 0.6646 0.6676 0.6660 0.6630
1449.000000 0.6552 0.6330 0.6108 0.5944 0.5886
1454.000000 0.5834 0.5522 0.5490 0.5498 0.6138
1459.000000 0.6687 0.7235 0.7536 0.7599 0.7617
1464.000000 0.7613 0.7620 0.7617 0.7613 0.7601
1469.000000 0.7587 0.7571 0.7552 0.7533 0.7510
1474.000000 0.7485 0.7459 0.7430 0.7396 0.7361
1479.000000 0.7300 0.7239 0.7177 0.7114 0.7052
1484.000000 0.6989 0.6926 0.6863 0.6788 0.6711
1489.000000 0.6624 0.6498 0.5712 0.5482 0.5011
1494.000000 0.4735 0.4459 0.4183 0.3907 0.3718
1499.000000 0.3623 0.3540 0.3474 0.3107 0.3077
1504.000000 0.3060 0.3060 0.3060 0.3126 0.3343
1509.000000 0.3755 0.4168 0.4580 0.4993 0.5405
1514.000000 0.5599 0.5839 0.5864 0.5859 0.5855
1519.000000 0.5847 0.5841 0.5825 0.5763 0.5680
1524.000000 0.5587 0.5472 0.5344 0.5092 0.4796
1529.000000 0.4499 0.4203 0.3906 0.3610 0.3422
1534.000000 0.3227 0.3085 0.3054 0.3048 0.3049
1539.000000 0.3061 0.3239 0.3424 0.3608 0.3793
1544.000000 0.3978 0.4038 0.4139 0.4225 0.4313
1549.000000 0.4408 0.4511 0.4612 0.4709 0.4807
1554.000000 0.4922 0.5049 0.5225 0.5368 0.5465
1559.000000 0.5540 0.5583 0.5626 0.5670 0.5713
1564.000000 0.5741 0.5767 0.5794 0.5815 0.5831
1569.000000 0.5847 0.5863 0.5878 0.5893 0.5908
1574.000000 0.5943 0.5979 0.6012 0.6043 0.6074
1579.000000 0.6121 0.6187 0.6262 0.6340 0.6417
1584.000000 0.6512 0.6613 0.6838 0.7003 0.7108
1589.000000 0.7212 0.7302 0.7391 0.7474 0.7535
1594.000000 0.7596 0.7657 0.7717 0.7777 0.7830
1599.000000 0.7881 0.7922 0.7959 0.7985 0.8000
1604.000000 0.8014 0.8020 0.8035 0.8030 0.8024
1609.000000 0.8019 0.8006 0.7989 0.7965 0.7934
1614.000000 0.7901 0.7865 0.7796 0.7747 0.7725
1619.000000 0.7739 0.7770 0.7795 0.7817 0.7837
1624.000000 0.7871 0.7848 0.7845 0.7839 0.7819
1629.000000 0.7788 0.7700 0.7624 0.7571 0.7556
1634.000000 0.7569 0.7567 0.7584 0.7619 0.7735
1639.000000 0.7901 0.8067 0.8234 0.8334 0.8382
1644.000000 0.8397 0.8412 0.8427 0.8439 0.8446
1649.000000 0.8453 0.8454 0.8452 0.8449 0.8446
1654.000000 0.8441 0.8503 0.8541 0.8573 0.8589
1659.000000 0.8605 0.8621 0.8627 0.8629 0.8630
1664.000000 0.8630 0.8630 0.8630 0.8631 0.8631
1669.000000 0.8628 0.8625 0.8622 0.8619 0.8638
1674.000000 0.8613 0.8610 0.8607 0.8605 0.8603
1679.000000 0.8601 0.8599 0.8597 0.8594 0.8591
1684.000000 0.8587 0.8605 0.8627 0.8649 0.8651
1689.000000 0.8651 0.8645 0.8638 0.8632 0.8621
1694.000000 0.8609 0.8599 0.8589 0.8584 0.8579
1699.000000 0.8575 0.8571 0.8567 0.8563 0.8561
1704.000000 0.8559 0.8557 0.8556 0.8553 0.8549
1709.000000 0.8544 0.8540 0.8534 0.8521 0.8502
1714.000000 0.8481 0.8460 0.8439 0.8418 0.8407
1719.000000 0.8404 0.8401 0.8398 0.8398 0.8398
1724.000000 0.8398 0.8398 0.8395 0.8392 0.8388
1729.000000 0.8385 0.8381 0.8379 0.8376 0.8374
1734.000000 0.8372 0.8369 0.8369 0.8369 0.8368
1739.000000 0.8368 0.8367 0.8367 0.8367 0.8366
1744.000000 0.8366 0.8364 0.8361 0.8358 0.8355
1749.000000 0.8352 0.8349 0.8346 0.8342 0.8338
1754.000000 0.8334 0.8330 0.8326 0.8321 0.8318
1759.000000 0.8315 0.8313 0.8310 0.8308 0.8305
1764.000000 0.8303 0.8300 0.8298 0.8295 0.8293
1769.000000 0.8291 0.8289 0.8288 0.8286 0.8284
1774.000000 0.8282 0.8281 0.8279 0.8277 0.8275
1779.000000 0.8271 0.8267 0.8263 0.8259 0.8255
1784.000000 0.8251 0.8248 0.8244 0.8240 0.8236
1789.000000 0.8232 0.8228 0.8224 0.8220 0.8216
1794.000000 0.8211 0.8207 0.8202 0.8197 0.8193
1799.000000 0.8188 0.8184 0.8179 0.8174 0.8170
1804.000000 0.8165 0.8160 0.8156 0.8151 0.8146
1809.000000 0.8141 0.8137 0.8132 0.8127 0.8122
1814.000000 0.8118 0.8113 0.8108 0.8103 0.8099
1819.000000 0.8094 0.8091 0.8089 0.8086 0.8083
1824.000000 0.8081 0.8079 0.8077 0.8076 0.8074
1829.000000 0.8073 0.8071 0.8070 0.8068 0.8066
1834.000000 0.8065 0.8063 0.8062 0.8060 0.8059
1839.000000 0.8058 0.8057 0.8056 0.8055 0.8054
1844.000000 0.8053 0.8052 0.8051 0.8051 0.8050
1849.000000 0.8049 0.8048 0.8047 0.8044 0.8041
1854.000000 0.8039 0.8036 0.8033 0.8030 0.8027
1859.000000 0.8024 0.8021 0.8018 0.8015 0.8012
1864.000000 0.8009 0.8005 0.8001 0.7997 0.7993
1869.000000 0.7989 0.7985 0.7981 0.7977 0.7973
1874.000000 0.7969 0.7965 0.7961 0.7958 0.7954
1879.000000 0.7950 0.7947 0.7943 0.7939 0.7935
1884.000000 0.7932 0.7928 0.7924 0.7922 0.7920
1889.000000 0.7918 0.7915 0.7913 0.7911 0.7909
1894.000000 0.7907 0.7908 0.7912 0.7916 0.7924
1899.000000 0.7932 0.7942 0.7954 0.7966 0.7978
1904.000000 0.7990 0.7989 0.7988 0.7987 0.7985
1909.000000 0.7984 0.7983 0.7982 0.7981 0.7980
1914.000000 0.7978 0.7977 0.7976 0.7975 0.7973
1919.000000 0.7972 0.7971 0.7970 0.7968 0.7968
1924.000000 0.7968 0.7968 0.7968 0.7968 0.7968
1929.000000 0.7967 0.7966 0.7965 0.7965 0.7964
1934.000000 0.7963 0.7962 0.7961 0.7960 0.7959
1939.000000 0.7959 0.7958 0.7956 0.7954 0.7953
1944.000000 0.7951 0.7950 0.7948 0.7946 0.7945
1949.000000 0.7943 0.7943 0.7942 0.7942 0.7941
1954.000000 0.7941 0.7940 0.7940 0.7942 0.7946
1959.000000 0.7951 0.7960 0.7950 0.7930 0.7898
1964.000000 0.7880 0.7862 0.7842 0.7833 0.7832
1969.000000 0.7831 0.7831 0.7831 0.7831 0.7831
1974.000000 0.7831 0.7831 0.7831 0.7831 0.7829
1979.000000 0.7826 0.7823 0.7820 0.7818 0.7815
1984.000000 0.7812 0.7809 0.7807 0.7804 0.7802
1989.000000 0.7800 0.7798 0.7795 0.7794 0.7793
1994.000000 0.7792 0.7791 0.7813 0.7845 0.7876
1999.000000 0.7879 0.7879 0.7874 0.7870 0.7864
2004.000000 0.7858 0.7852 0.7846 0.7839 0.7833
2009.000000 0.7827 0.7821 0.7815 0.7809 0.7803
2014.000000 0.7797 0.7789 0.7782 0.7774 0.7767
2019.000000 0.7759 0.7751 0.7742 0.7734 0.7725
2024.000000 0.7717 0.7708 0.7700 0.7691 0.7683
2029.000000 0.7674 0.7666 0.7657 0.7648 0.7639
2034.000000 0.7631 0.7622 0.7613 0.7604 0.7596
2039.000000 0.7587 0.7578 0.7569 0.7561 0.7552
2044.000000 0.7544 0.7535 0.7527 0.7519 0.7511
2049.000000 0.7502 0.7494 0.7485 0.7477 0.7468
2054.000000 0.7460 0.7451 0.7442 0.7432 0.7423
2059.000000 0.7413 0.7404 0.7394 0.7385 0.7375
2064.000000 0.7366 0.7356 0.7347 0.7338 0.7329
2069.000000 0.7319 0.7310 0.7301 0.7292 0.7283
2074.000000 0.7275 0.7266 0.7258 0.7249 0.7241
2079.000000 0.7232 0.7224 0.7215 0.7207 0.7198
2084.000000 0.7190 0.7181 0.7173 0.7167 0.7161
2089.000000 0.7156 0.7151 0.7146 0.7141 0.7135
2094.000000 0.7130 0.7127 0.7125 0.7122 0.7120
2099.000000 0.7118 0.7116 0.7113 0.7111 0.7107
2104.000000 0.7104 0.7100 0.7096 0.7090 0.7085
2109.000000 0.7078 0.7072 0.7065 0.7058 0.7047
2114.000000 0.7037 0.7024 0.7011 0.6998 0.6986
2119.000000 0.6973 0.6961 0.6949 0.6937 0.6925
2124.000000 0.6913 0.6901 0.6889 0.6876 0.6864
2129.000000 0.6852 0.6840 0.6827 0.6815 0.6803
2134.000000 0.6791 0.6778 0.6766 0.6754 0.6742
2139.000000 0.6729 0.6717 0.6704 0.6692 0.6680
2144.000000 0.6668 0.6655 0.6643 0.6631 0.6619
2149.000000 0.6607 0.6595 0.6583 0.6572 0.6560
2154.000000 0.6548 0.6536 0.6525 0.6513 0.6501
2159.000000 0.6489 0.6477 0.6465 0.6454 0.6442
2164.000000 0.6430 0.6418 0.6407 0.6395 0.6383
2169.000000 0.6373 0.6363 0.6354 0.6345 0.6336
2174.000000 0.6327 0.6318 0.6309 0.6300 0.6292
2179.000000 0.6283 0.6274 0.6265 0.6256 0.6247
2184.000000 0.6238 0.6229 0.6220 0.6211 0.6202
2189.000000 0.6193 0.6184 0.6175 0.6166 0.6157
2194.000000 0.6148 0.6139 0.6131 0.6122 0.6113
2199.000000 0.6104 0.6095 0.6086 0.6077 0.6068
2204.000000 0.6059 0.6050 0.6041 0.6031 0.6022
2209.000000 0.6012 0.6003 0.5994 0.5985 0.5975
2214.000000 0.5966 0.5957 0.5948 0.5938 0.5929
2219.000000 0.5919 0.5910 0.5901 0.5892 0.5882
2224.000000 0.5873 0.5864 0.5855 0.5845 0.5836
2229.000000 0.5826 0.5817 0.5808 0.5799 0.5789
2234.000000 0.5780 0.5770 0.5760 0.5750 0.5741
2239.000000 0.5731 0.5721 0.5711 0.5701 0.5691
2244.000000 0.5681 0.5671 0.5662 0.5652 0.5642
2249.000000 0.5632 0.5622 0.5612 0.5603 0.5593
2254.000000 0.5583 0.5573 0.5564 0.5554 0.5544
2259.000000 0.5534 0.5525 0.5515 0.5506 0.5496
2264.000000 0.5487 0.5477 0.5467 0.5457 0.5448
2269.000000 0.5438 0.5429 0.5419 0.5409 0.5399
2274.000000 0.5390 0.5379 0.5368 0.5356 0.5345
2279.000000 0.5333 0.5322 0.5310 0.5299 0.5287
2284.000000 0.5275 0.5263 0.5252 0.5240 0.5228
2289.000000 0.5212 0.5197 0.5181 0.5165 0.5149
2294.000000 0.5134 0.5118 0.5102 0.5086 0.5071
2299.000000 0.5054 0.5038 0.5022 0.5006 0.4989
2304.000000 0.4973 0.4957 0.4941 0.4928 0.4916
2309.000000 0.4904 0.4893 0.4882 0.4871 0.4859
2314.000000 0.4848 0.4836 0.4825 0.4813 0.4802
2319.000000 0.4790 0.4779 0.4767 0.4756 0.4744
2324.000000 0.4733 0.4721 0.4710 0.4698 0.4686
2329.000000 0.4674 0.4662 0.4650 0.4638 0.4626
2334.000000 0.4614 0.4602 0.4590 0.4578 0.4566
2339.000000 0.4554 0.4543 0.4532 0.4521 0.4510
2344.000000 0.4499 0.4488 0.4477 0.4465 0.4454
2349.000000 0.4441 0.4429 0.4416 0.4404 0.4391
2354.000000 0.4378 0.4365 0.4353 0.4339 0.4325
2359.000000 0.4306 0.4288 0.4270 0.4252 0.4233
2364.000000 0.4215 0.4197 0.4179 0.4160 0.4142
2369.000000 0.4124 0.4106 0.4088 0.4070 0.4051
2374.000000 0.4033 0.4015 0.3997 0.3978 0.3960
2379.000000 0.3949 0.3938 0.3927 0.3916 0.3905
2384.000000 0.3894 0.3882 0.3871 0.3859 0.3848
2389.000000 0.3836 0.3824 0.3810 0.3796 0.3777
2394.000000 0.3759 0.3741 0.3723 0.3704 0.3686
2399.000000 0.3668 0.3650 0.3630 0.3610 0.3590
2404.000000 0.3570 0.3550 0.3530 0.3516 0.3502
2409.000000 0.3490 0.3479 0.3468 0.3457 0.3448
2414.000000 0.3440 0.3433 0.3426 0.3418 0.3411
2419.000000 0.3402 0.3393 0.3382 0.3371 0.3360
2424.000000 0.3349 0.3338 0.3327 0.3314 0.3302
2429.000000 0.3287 0.3273 0.3258 0.3244 0.3228
2434.000000 0.3212 0.3195 0.3178 0.3159 0.3141
2439.000000 0.3115 0.3089 0.3062 0.3036 0.3011
2444.000000 0.2987 0.2965 0.2944 0.2923 0.2902
2449.000000 0.2880 0.2859 0.2838 0.2818 0.2798
2454.000000 0.2779 0.2763 0.2748 0.2738 0.2729
2459.000000 0.2719 0.2710 0.2700 0.2691 0.2685
2464.000000 0.2679 0.2673 0.2667 0.2660 0.2654
2469.000000 0.2648 0.2642 0.2637 0.2632 0.2628
2474.000000 0.2625 0.2622 0.2619 0.2616 0.2614
2479.000000 0.2611 0.2609 0.2610 0.2611 0.2612
2484.000000 0.2622 0.2616 0.2618 0.2624 0.2631
2489.000000 0.2641 0.2652 0.2669 0.2686 0.2698
2494.000000 0.2710 0.2718 0.2726 0.2729 0.2733
2499.000000 0.2730 0.2727 0.2722 0.2718 0.2714
2504.000000 0.2728 0.2702 0.2694 0.2686 0.2678
2509.000000 0.2668 0.2659 0.2650 0.2641 0.2631
2514.000000 0.2622 0.2612 0.2603 0.2590 0.2577
2519.000000 0.2562 0.2547 0.2532 0.2518 0.2502
2524.000000 0.2487 0.2471 0.2455 0.2439 0.2423
2529.000000 0.2407 0.2392 0.2376 0.2360 0.2343
2534.000000 0.2327 0.2310 0.2294 0.2277 0.2261
2539.000000 0.2244 0.2227 0.2211 0.2195 0.2178
2544.000000 0.2162 0.2145 0.2129 0.2112 0.2096
2549.000000 0.2083 0.2070 0.2058 0.2046 0.2038
2554.000000 0.2030 0.2028 0.2026 0.2024 0.2023
2559.000000 0.2021 0.2019 0.2018 0.2017 0.2016
2564.000000 0.2015 0.2013 0.2011 0.1998 0.1986
2569.000000 0.1974 0.1962 0.1948 0.1934 0.1919
2574.000000 0.1905 0.1890 0.1876 0.1862 0.1849
2579.000000 0.1835 0.1822 0.1809 0.1796 0.1783
2584.000000 0.1770 0.1760 0.1750 0.1740 0.1730
2589.000000 0.1720 0.1710 0.1702 0.1695 0.1698
2594.000000 0.1701 0.1703 0.1672 0.1709 0.1712
2599.000000 0.1715 0.1719 0.1726 0.1733 0.1743
2604.000000 0.1753 0.1767 0.1781 0.1795 0.1809
2609.000000 0.1821 0.1833 0.1844 0.1855 0.1865
2614.000000 0.1876 0.1887 0.1898 0.1908 0.1919
2619.000000 0.1930 0.1941 0.1951 0.1962 0.1972
2624.000000 0.1983 0.1993 0.2004 0.2014 0.2025
2629.000000 0.2035 0.2046 0.2056 0.2067 0.2077
2634.000000 0.2087 0.2096 0.2131 0.2111 0.2116
2639.000000 0.2114 0.2112 0.2109 0.2106 0.2097
2644.000000 0.2088 0.2079 0.2071 0.2060 0.2049
2649.000000 0.2038 0.2027 0.2018 0.2009 0.2000
2654.000000 0.1992 0.1988 0.1971 0.1986 0.1988
2659.000000 0.1998 0.2009 0.2028 0.2047 0.2067
2664.000000 0.2087 0.2101 0.2115 0.2117 0.2120
2669.000000 0.2121 0.2122 0.2123 0.2125 0.2126
2674.000000 0.2128 0.2129 0.2130 0.2131 0.2133
2679.000000 0.2134 0.2136 0.2133 0.2131 0.2128
2684.000000 0.2126 0.2123 0.2121 0.2119 0.2117
2689.000000 0.2113 0.2110 0.2106 0.2103 0.2099
2694.000000 0.2096 0.2090 0.2084 0.2078 0.2073
2699.000000 0.2067 0.2061 0.2055 0.2049 0.2043
2704.000000 0.2038 0.2030 0.2023 0.2015 0.2007
2709.000000 0.1999 0.1992 0.1984 0.1977 0.1969
2714.000000 0.1962 0.1957 0.1953 0.1950 0.1947
2719.000000 0.1944 0.1932 0.1938 0.1935 0.1932
2724.000000 0.1929 0.1927 0.1925 0.1927 0.1929
2729.000000 0.1930 0.1932 0.1934 0.1936 0.1937
2734.000000 0.1939 0.1941 0.1943 0.1946 0.1949
2739.000000 0.1952 0.1956 0.1959 0.1963 0.1966
2744.000000 0.1970 0.1973 0.1977 0.1978 0.1979
2749.000000 0.1979 0.2012 0.1970 0.1961 0.1949
2754.000000 0.1938 0.1925 0.1913 0.1900 0.1888
2759.000000 0.1872 0.1856 0.1838 0.1820 0.1801
2764.000000 0.1783 0.1763 0.1743 0.1722 0.1702
2769.000000 0.1684 0.1667 0.1650 0.1633 0.1616
2774.000000 0.1599 0.1582 0.1565 0.1548 0.1531
2779.000000 0.1511 0.1492 0.1470 0.1448 0.1426
2784.000000 0.1404 0.1392 0.1380 0.1369 0.1359
2789.000000 0.1348 0.1337 0.1326 0.1315 0.1306
2794.000000 0.1298 0.1290 0.1282 0.1273 0.1265
2799.000000 0.1257 0.1249 0.1241 0.1233 0.1227
2804.000000 0.1222 0.1216 0.1211 0.1205 0.1199
2809.000000 0.1193 0.1188 0.1182 0.1177 0.1171
2814.000000 0.1166 0.1160 0.1155 0.1152 0.1149
2819.000000 0.1146 0.1144 0.1141 0.1138 0.1135
2824.000000 0.1132 0.1129 0.1126 0.1123 0.1120
2829.000000 0.1117 0.1114 0.1112 0.1111 0.1110
2834.000000 0.1109 0.1108 0.1108 0.1107 0.1106
2839.000000 0.1105 0.1104 0.1103 0.1103 0.1103
2844.000000 0.1109 0.1104 0.1106 0.1107 0.1109
2849.000000 0.1110 0.1112 0.1114 0.1116 0.1117
2854.000000 0.1119 0.1120 0.1122 0.1123 0.1125
2859.000000 0.1127 0.1129 0.1131 0.1134 0.1137
2864.000000 0.1140 0.1142 0.1145 0.1147 0.1150
2869.000000 0.1153 0.1156 0.1158 0.1161 0.1164
2874.000000 0.1167 0.1169 0.1172 0.1175 0.1178
2879.000000 0.1181 0.1185 0.1188 0.1192 0.1195
2884.000000 0.1199 0.1203 0.1207 0.1210 0.1214
2889.000000 0.1217 0.1221 0.1225 0.1229 0.1232
2894.000000 0.1236 0.1239 0.1243 0.1247 0.1251
2899.000000 0.1254 0.1258 0.1261 0.1265 0.1269
2904.000000 0.1273 0.1276 0.1280 0.1284 0.1288
2909.000000 0.1292 0.1297 0.1301 0.1306 0.1310
2914.000000 0.1314 0.1318 0.1323 0.1327 0.1331
2919.000000 0.1335 0.1340 0.1344 0.1348 0.1353
2924.000000 0.1359 0.1364 0.1370 0.1375 0.1381
2929.000000 0.1387 0.1393 0.1398 0.1404 0.1409
2934.000000 0.1415 0.1421 0.1427 0.1432 0.1438
2939.000000 0.1445 0.1452 0.1461 0.1471 0.1481
2944.000000 0.1491 0.1500 0.1510 0.1520 0.1530
2949.000000 0.1539 0.1549 0.1558 0.1568 0.1580
2954.000000 0.1593 0.1605 0.1618 0.1631 0.1644
2959.000000 0.1656 0.1669 0.1682 0.1695 0.1714
2964.000000 0.1733 0.1751 0.1770 0.1788 0.1807
2969.000000 0.1828 0.1850 0.1873 0.1896 0.1919
2974.000000 0.1942 0.1968 0.1994 0.2020 0.2046
2979.000000 0.2072 0.2098 0.2123 0.2149 0.2175
2984.000000 0.2201 0.2227 0.2253 0.2278 0.2304
2989.000000 0.2330 0.2356 0.2381 0.2407 0.2432
2994.000000 0.2458 0.2481 0.2504 0.2524 0.2544
2999.000000 0.2564 0.2584 0.2604 0.2624 0.2644
3004.000000 0.2664 0.2684 0.2704 0.2723 0.2742
3009.000000 0.2762 0.2783 0.2803 0.2824 0.2838
3014.000000 0.2852 0.2861 0.2871 0.2881 0.2891
3019.000000 0.2900 0.2910 0.2919 0.2929 0.2938
3024.000000 0.2947 0.2956 0.2965 0.2973 0.2981
3029.000000 0.2989 0.2997 0.3004 0.3012 0.3022
3034.000000 0.3032 0.3043 0.3054 0.3065 0.3076
3039.000000 0.3088 0.3101 0.3113 0.3126 0.3173
3044.000000 0.3221 0.3263 0.3305 0.3325 0.3346
3049.000000 0.3363 0.3380 0.3390 0.3400 0.3410
3054.000000 0.3421 0.3431 0.3441 0.3450 0.3460
3059.000000 0.3469 0.3479 0.3487 0.3496 0.3504
3064.000000 0.3512 0.3519 0.3527 0.3535 0.3543
3069.000000 0.3550 0.3558 0.3563 0.3568 0.3572
3074.000000 0.3576 0.3580 0.3585 0.3677 0.3769
3079.000000 0.3806 0.3843 0.3874 0.3905 0.3938
3084.000000 0.3971 0.4009 0.4048 0.4080 0.4112
3089.000000 0.4140 0.4169 0.4194 0.4219 0.4243
3094.000000 0.4267 0.4289 0.4311 0.4331 0.4352
3099.000000 0.4372 0.4393 0.4413 0.4434 0.4453
3104.000000 0.4473 0.4491 0.4509 0.4527 0.4546
3109.000000 0.4564 0.4582 0.4600 0.4618 0.4636
3114.000000 0.4655 0.4677 0.4700 0.4723 0.4746
3119.000000 0.4768 0.4791 0.4813 0.4836 0.4860
3124.000000 0.4885 0.4910 0.4935 0.4959 0.4984
3129.000000 0.5009 0.5034 0.5058 0.5083 0.5105
3134.000000 0.5127 0.5147 0.5168 0.5188 0.5209
3139.000000 0.5229 0.5250 0.5270 0.5291 0.5312
3144.000000 0.5333 0.5354 0.5375 0.5395 0.5416
3149.000000 0.5437 0.5458 0.5482 0.5507 0.5533
3154.000000 0.5559 0.5585 0.5611 0.5637 0.5663
3159.000000 0.5689 0.5715 0.5742 0.5770 0.5797
3164.000000 0.5825 0.5852 0.5880 0.5907 0.5935
3169.000000 0.5963 0.5991 0.6022 0.6054 0.6085
3174.000000 0.6116 0.6147 0.6179 0.6199 0.6219
3179.000000 0.6238 0.6258 0.6277 0.6296 0.6315
3184.000000 0.6335 0.6354 0.6373 0.6390 0.6407
3189.000000 0.6420 0.6434 0.6447 0.6461 0.6474
3194.000000 0.6488 0.6501 0.6514 0.6527 0.6540
3199.000000 0.6553 0.6566 0.6578 0.6591 0.6606
3204.000000 0.6622 0.6638 0.6655 0.6671 0.6687
3209.000000 0.6702 0.6717 0.6731 0.6745 0.6755
3214.000000 0.6765 0.6774 0.6783 0.6792 0.6801
3219.000000 0.6810 0.6819 0.6828 0.6838 0.6846
3224.000000 0.6854 0.6862 0.6871 0.6879 0.6887
3229.000000 0.6892 0.6898 0.6903 0.6908 0.6912
3234.000000 0.6917 0.6922 0.6927 0.6931 0.6935
3239.000000 0.6937 0.6940 0.6943 0.6946 0.6948
3244.000000 0.6951 0.6954 0.6957 0.6959 0.6962
3249.000000 0.6965 0.6968 0.6969 0.6971 0.6972
3254.000000 0.6973 0.6974 0.6975 0.6976 0.6977
3259.000000 0.6978 0.6980 0.6981 0.6982 0.6983
3264.000000 0.6984 0.6985 0.6986 0.6986 0.6998
3269.000000 0.6985 0.6985 0.6984 0.6984 0.6983
3274.000000 0.6983 0.6982 0.6981 0.6980 0.6980
3279.000000 0.6979 0.6978 0.6976 0.6974 0.6972
3284.000000 0.6970 0.6968 0.6966 0.6964 0.6962
3289.000000 0.6960 0.6958 0.6956 0.6954 0.6952
3294.000000 0.6950 0.6948 0.6946 0.6944 0.6942
3299.000000 0.6940 0.6938 0.6935 0.6932 0.6929
3304.000000 0.6927 0.6924 0.6921 0.6918 0.6915
3309.000000 0.6912 0.6909 0.6906 0.6904 0.6901
3314.000000 0.6898 0.6895 0.6892 0.6889 0.6886
3319.000000 0.6883 0.6880 0.6877 0.6874 0.6870
3324.000000 0.6867 0.6864 0.6861 0.6857 0.6854
3329.000000 0.6851 0.6848 0.6844 0.6841 0.6837
3334.000000 0.6834 0.6831 0.6828 0.6824 0.6821
3339.000000 0.6818 0.6815 0.6811 0.6808 0.6803
3344.000000 0.6799 0.6795 0.6791 0.6786 0.6782
3349.000000 0.6778 0.6774 0.6770 0.6766 0.6761
3354.000000 0.6757 0.6753 0.6749 0.6744 0.6740
3359.000000 0.6736 0.6732 0.6727 0.6723 0.6719
3364.000000 0.6715 0.6710 0.6706 0.6702 0.6698
3369.000000 0.6693 0.6689 0.6685 0.6681 0.6676
3374.000000 0.6672 0.6667 0.6663 0.6658 0.6654
3379.000000 0.6649 0.6645 0.6640 0.6635 0.6630
3384.000000 0.6626 0.6621 0.6617 0.6612 0.6607
3389.000000 0.6602 0.6598 0.6593 0.6589 0.6584
3394.000000 0.6580 0.6575 0.6570 0.6565 0.6561
3399.000000 0.6556 0.6552 0.6547 0.6542 0.6537
3404.000000 0.6533 0.6528 0.6524 0.6520 0.6517
3409.000000 0.6514 0.6511 0.6508 0.6505 0.6502
3414.000000 0.6499 0.6496 0.6493 0.6490 0.6487
3419.000000 0.6484 0.6481 0.6478 0.6475 0.6472
3424.000000 0.6469 0.6465 0.6462 0.6459 0.6456
3429.000000 0.6453 0.6450 0.6447 0.6444 0.6441
3434.000000 0.6438 0.6435 0.6432 0.6430 0.6428
3439.000000 0.6426 0.6425 0.6423 0.6422 0.6420
3444.000000 0.6419 0.6417 0.6415 0.6413 0.6412
3449.000000 0.6410 0.6409 0.6407 0.6406 0.6404
3454.000000 0.6402 0.6400 0.6399 0.6397 0.6396
3459.000000 0.6394 0.6393 0.6391 0.6389 0.6387
3464.000000 0.6386 0.6384 0.6383 0.6381 0.6380
3469.000000 0.6378 0.6376 0.6374 0.6373 0.6371
3474.000000 0.6369 0.6367 0.6365 0.6363 0.6362
3479.000000 0.6360 0.6358 0.6356 0.6354 0.6352
3484.000000 0.6350 0.6348 0.6346 0.6344 0.6342
3489.000000 0.6340 0.6338 0.6336 0.6334 0.6332
3494.000000 0.6330 0.6328 0.6326 0.6324 0.6323
3499.000000 0.6321 0.6319 0.6317 0.6315 0.6313
3504.000000 0.6311 0.6309 0.6307 0.6305 0.6303
3509.000000 0.6301 0.6299 0.6297 0.6295 0.6293
3514.000000 0.6291 0.6289 0.6287 0.6285 0.6284
3519.000000 0.6282 0.6280 0.6278 0.6276 0.6274
3524.000000 0.6272 0.6270 0.6268 0.6266 0.6264
3529.000000 0.6262 0.6260 0.6258 0.6257 0.6255
3534.000000 0.6253 0.6251 0.6249 0.6247 0.6245
3539.000000 0.6243 0.6241 0.6239 0.6238 0.6236
3544.000000 0.6234 0.6232 0.6230 0.6228 0.6226
3549.000000 0.6224 0.6222 0.6220 0.6219 0.6217
3554.000000 0.6215 0.6213 0.6211 0.6209 0.6207
3559.000000 0.6205 0.6204 0.6202 0.6200 0.6198
3564.000000 0.6196 0.6194 0.6192 0.6190 0.6188
3569.000000 0.6186 0.6185 0.6183 0.6181 0.6179
3574.000000 0.6177 0.6175 0.6173 0.6170 0.6168
3579.000000 0.6165 0.6163 0.6160 0.6158 0.6155
3584.000000 0.6153 0.6150 0.6148 0.6145 0.6143
3589.000000 0.6140 0.6138 0.6135 0.6133 0.6130
3594.000000 0.6128 0.6125 0.6123 0.6120 0.6118
3599.000000 0.6115 0.6113 0.6110 0.6107 0.6104
3604.000000 0.6102 0.6099 0.6097 0.6094 0.6092
3609.000000 0.6089 0.6087 0.6084 0.6082 0.6079
3614.000000 0.6077 0.6074 0.6072 0.6069 0.6067
3619.000000 0.6064 0.6062 0.6059 0.6057 0.6054
3624.000000 0.6052 0.6049 0.6047 0.6044 0.6042
3629.000000 0.6039 0.6037 0.6034 0.6032 0.6029
3634.000000 0.6026 0.6023 0.6021 0.6018 0.6016
3639.000000 0.6013 0.6011 0.6008 0.6006 0.6003
3644.000000 0.6001 0.5998 0.5996 0.5993 0.5991
3649.000000 0.5988 0.5986 0.5983 0.5981 0.5978
3654.000000 0.5976 0.5973 0.5971 0.5968 0.5966
3659.000000 0.5963 0.5961 0.5958 0.5955 0.5952
3664.000000 0.5950 0.5948 0.5946 0.5943 0.5941
3669.000000 0.5938 0.5936 0.5934 0.5932 0.5929
3674.000000 0.5927 0.5925 0.5923 0.5920 0.5918
3679.000000 0.5915 0.5913 0.5911 0.5909 0.5906
3684.000000 0.5904 0.5902 0.5900 0.5897 0.5895
3689.000000 0.5892 0.5890 0.5888 0.5886 0.5883
3694.000000 0.5881 0.5879 0.5877 0.5874 0.5872
3699.000000 0.5869 0.5867 0.5865 0.5863 0.5860
3704.000000 0.5858 0.5856 0.5854 0.5851 0.5849
3709.000000 0.5846 0.5844 0.5842 0.5840 0.5837
3714.000000 0.5835 0.5832 0.5830 0.5827 0.5825
3719.000000 0.5822 0.5819 0.5816 0.5814 0.5811
3724.000000 0.5809 0.5806 0.5804 0.5801 0.5799
3729.000000 0.5796 0.5793 0.5790 0.5788 0.5785
3734.000000 0.5783 0.5780 0.5778 0.5775 0.5773
3739.000000 0.5770 0.5767 0.5764 0.5762 0.5759
3744.000000 0.5757 0.5754 0.5752 0.5749 0.5747
3749.000000 0.5744 0.5741 0.5739 0.5738 0.5736
3754.000000 0.5734 0.5732 0.5730 0.5728 0.5727
3759.000000 0.5725 0.5723 0.5721 0.5720 0.5718
3764.000000 0.5716 0.5714 0.5712 0.5710 0.5709
3769.000000 0.5707 0.5705 0.5703 0.5701 0.5699
3774.000000 0.5698 0.5696 0.5694 0.5692 0.5690
3779.000000 0.5687 0.5684 0.5681 0.5679 0.5676
3784.000000 0.5673 0.5670 0.5667 0.5664 0.5650
3789.000000 0.5658 0.5655 0.5652 0.5649 0.5646
3794.000000 0.5643 0.5640 0.5637 0.5634 0.5631
3799.000000 0.5628 0.5625 0.5623 0.5621
##END=
