##TITLE=CALCIUM CARBONATE (CALCITE)
##JCAMP-DX=4.24
##DATA TYPE=INFRARED SPECTRUM
##CLASS=COBLENTZ III
##ORIGIN=DESOTO CHEMICAL COATINGS, INC.
##OWNER=COBLENTZ SOCIETY
Collection (C) 2018 copyright by the U.S. Secretary of Commerce
on behalf of the United States of America. All rights reserved.
##DATE=Not specified, most likely prior to 1970
##MOLFORM=C O3 Ca
##SOURCE REFERENCE=COBLENTZ NO. 4659
##$NIST ID=B6004659
##$NIST SOURCE=COBLENTZ
##$NIST IMAGE=cob4659
##SPECTROMETER/DATA SYSTEM=BECKMAN IR-12 (GRATING)
##INSTRUMENT PARAMETERS=GRATING BLAZED AT 3330, 1330, 445, 220 CM^-^1
##STATE=SOLID (0.3 mg / 300 mg CsI DISC)
##SAMPLING PROCEDURE=TRANSMISSION
##RESOLUTION=4
##DATA PROCESSING=DIGITIZED BY NIST FROM HARD COPY (FROM TWO SEGMENTS)
##XUNITS=1/CM
##YUNITS=TRANSMITTANCE
##XFACTOR=1.000000
##YFACTOR=1
##DELTAX=1.328417
##FIRSTX=200
##LASTX=3985.99
##FIRSTY=0.826
##MAXX=3985.99
##MINX=200
##MAXY=0.974
##MINY=0.096
##NPOINTS=2851
##XYDATA=(X++(Y..Y))
200.000000 0.8260 0.8250 0.8240 0.8240 0.8260
206.642085 0.8250 0.8240 0.8240 0.8220 0.8220
213.284170 0.8200 0.8170 0.8160 0.8130 0.8120
219.926254 0.8090 0.8040 0.7980 0.7891 0.7761
226.568339 0.7540 0.7090 0.6780 0.6530 0.6301
233.210424 0.6180 0.6170 0.6180 0.6220 0.6280
239.852509 0.6490 0.6680 0.7000 0.7210 0.7250
246.494593 0.7290 0.7400 0.7440 0.7539 0.7580
253.136678 0.7620 0.7650 0.7690 0.7700 0.7730
259.778763 0.7740 0.7740 0.7740 0.7730 0.7720
266.420848 0.7700 0.7700 0.7690 0.7680 0.7660
273.062932 0.7610 0.7580 0.7500 0.7450 0.7400
279.705017 0.7380 0.7330 0.7180 0.7130 0.7060
286.347102 0.7000 0.6920 0.6801 0.6701 0.6402
292.989187 0.6090 0.5880 0.5720 0.5411 0.5250
299.631272 0.5001 0.4661 0.4570 0.4530 0.4500
306.273356 0.4440 0.4320 0.4200 0.4140 0.3422
312.915441 0.3211 0.3041 0.2881 0.2850 0.2800
319.557526 0.2770 0.2770 0.2730 0.2730 0.2720
326.199611 0.2720 0.2730 0.2839 0.2850 0.2999
332.841695 0.3120 0.3290 0.3410 0.3530 0.3650
339.483780 0.3730 0.3800 0.3890 0.3999 0.4050
346.125865 0.4080 0.4120 0.4170 0.4180 0.4210
352.767950 0.4280 0.4290 0.4300 0.4340 0.4400
359.410034 0.4410 0.4460 0.4520 0.4540 0.4660
366.052119 0.4809 0.4999 0.5050 0.5179 0.5299
372.694204 0.5490 0.5520 0.5530 0.5660 0.5800
379.336289 0.5890 0.5980 0.6099 0.6279 0.6290
385.978373 0.6380 0.6420 0.6490 0.6580 0.6690
392.620458 0.6730 0.6800 0.6890 0.6900 0.6920
399.262543 0.6920 0.6960 0.7020 0.7040 0.7090
405.904628 0.7100 0.7160 0.7200 0.7210 0.7240
412.546713 0.7250 0.7330 0.7340 0.7380 0.7400
419.188797 0.7410 0.7440 0.7500 0.7540 0.7580
425.830882 0.7610 0.7610 0.7620 0.7690 0.7720
432.472967 0.7760 0.7770 0.7780 0.7820 0.7840
439.115052 0.7850 0.7850 0.7890 0.7890 0.7900
445.757136 0.7920 0.7940 0.7970 0.7970 0.8000
452.399221 0.8040 0.8060 0.8060 0.8090 0.8090
459.041306 0.8100 0.8120 0.8120 0.8130 0.8160
465.683391 0.8170 0.8180 0.8200 0.8220 0.8240
472.325475 0.8250 0.8260 0.8290 0.8320 0.8320
478.967560 0.8330 0.8330 0.8340 0.8380 0.8400
485.609645 0.8410 0.8420 0.8420 0.8420 0.8420
492.251730 0.8450 0.8490 0.8540 0.8560 0.8570
498.893815 0.8570 0.8580 0.8600 0.8640 0.8660
505.535899 0.8690 0.8700 0.8720 0.8730 0.8760
512.177984 0.8780 0.8800 0.8800 0.8800 0.8810
518.820069 0.8820 0.8820 0.8820 0.8850 0.8860
525.462154 0.8860 0.8880 0.8880 0.8880 0.8880
532.104238 0.8890 0.8900 0.8900 0.8920 0.8920
538.746323 0.8930 0.8940 0.8960 0.8980 0.9000
545.388408 0.9000 0.9010 0.9010 0.9010 0.9010
552.030493 0.9010 0.9020 0.9020 0.9020 0.9040
558.672577 0.9040 0.9040 0.9050 0.9050 0.9050
565.314662 0.9060 0.9060 0.9060 0.9060 0.9060
571.956747 0.9080 0.9080 0.9080 0.9080 0.9080
578.598832 0.9080 0.9090 0.9090 0.9100 0.9120
585.240917 0.9130 0.9130 0.9130 0.9120 0.9120
591.883001 0.9100 0.9100 0.9100 0.9100 0.9120
598.525086 0.9120 0.9130 0.9140 0.9160 0.9160
605.167171 0.9160 0.9160 0.9160 0.9160 0.9160
611.809256 0.9170 0.9170 0.9170 0.9180 0.9200
618.451340 0.9200 0.9210 0.9210 0.9220 0.9220
625.093425 0.9220 0.9240 0.9240 0.9250 0.9250
631.735510 0.9260 0.9260 0.9280 0.9280 0.9280
638.377595 0.9280 0.9280 0.9280 0.9280 0.9280
645.019679 0.9280 0.9290 0.9290 0.9290 0.9290
651.661764 0.9290 0.9300 0.9320 0.9320 0.9330
658.303849 0.9360 0.9370 0.9380 0.9380 0.9380
664.945934 0.9380 0.9400 0.9410 0.9410 0.9410
671.588018 0.9410 0.9420 0.9440 0.9450 0.9460
678.230103 0.9460 0.9480 0.9490 0.9500 0.9520
684.872188 0.9530 0.9530 0.9540 0.9540 0.9560
691.514273 0.9560 0.9570 0.9570 0.9570 0.9570
698.156358 0.9570 0.9570 0.9570 0.9570 0.9560
704.798442 0.9560 0.9540 0.9500 0.9490 0.9410
711.440527 0.9400 0.8443 0.7962 0.7263 0.7260
718.082612 0.7581 0.8220 0.8660 0.8850 0.9020
724.724697 0.9120 0.9200 0.9300 0.9419 0.9440
731.366781 0.9410 0.9400 0.9410 0.9420 0.9460
738.008866 0.9480 0.9490 0.9520 0.9560 0.9570
744.650951 0.9580 0.9580 0.9580 0.9600 0.9600
751.293036 0.9620 0.9640 0.9640 0.9650 0.9660
757.935120 0.9660 0.9680 0.9690 0.9690 0.9690
764.577205 0.9690 0.9690 0.9660 0.9660 0.9660
771.219290 0.9660 0.9650 0.9650 0.9650 0.9650
777.861375 0.9650 0.9650 0.9650 0.9650 0.9640
784.503460 0.9640 0.9640 0.9640 0.9620 0.9620
791.145544 0.9620 0.9620 0.9620 0.9640 0.9650
797.787629 0.9650 0.9650 0.9660 0.9660 0.9660
804.429714 0.9660 0.9660 0.9680 0.9680 0.9680
811.071799 0.9690 0.9690 0.9700 0.9700 0.9700
817.713883 0.9700 0.9700 0.9700 0.9700 0.9700
824.355968 0.9700 0.9700 0.9700 0.9700 0.9720
830.998053 0.9720 0.9720 0.9720 0.9720 0.9730
837.640138 0.9730 0.9740 0.9740 0.9740 0.9740
844.282222 0.9730 0.9730 0.9720 0.9700 0.9690
850.924307 0.9660 0.9560 0.9560 0.9600 0.9610
857.566392 0.9610 0.9580 0.9560 0.9560 0.9451
864.208477 0.9330 0.9200 0.8820 0.8520 0.8221
870.850561 0.7163 0.5466 0.5221 0.4961 0.4701
877.492646 0.4701 0.5170 0.5610 0.6040 0.6619
884.134731 0.6770 0.7039 0.7299 0.7887 0.8298
890.776816 0.8440 0.8650 0.8810 0.8850 0.8880
897.418901 0.8920 0.8970 0.8970 0.9000 0.9010
904.060985 0.9050 0.9080 0.9100 0.9120 0.9130
910.703070 0.9140 0.9180 0.9200 0.9210 0.9220
917.345155 0.9220 0.9220 0.9240 0.9240 0.9250
923.987240 0.9250 0.9260 0.9260 0.9260 0.9280
930.629324 0.9280 0.9280 0.9280 0.9280 0.9280
937.271409 0.9280 0.9280 0.9280 0.9280 0.9280
943.913494 0.9280 0.9280 0.9280 0.9280 0.9280
950.555579 0.9280 0.9280 0.9290 0.9290 0.9290
957.197663 0.9290 0.9280 0.9280 0.9280 0.9280
963.839748 0.9260 0.9260 0.9260 0.9260 0.9260
970.481833 0.9260 0.9250 0.9250 0.9240 0.9240
977.123918 0.9240 0.9220 0.9220 0.9220 0.9210
983.766003 0.9200 0.9180 0.9180 0.9170 0.9160
990.408087 0.9130 0.9130 0.9100 0.9090 0.9090
997.050172 0.9080 0.9060 0.9050 0.9050 0.9020
1003.692257 0.9020 0.9010 0.9000 0.8970 0.8970
1010.334342 0.8960 0.8940 0.8930 0.8920 0.8890
1016.976426 0.8890 0.8880 0.8860 0.8840 0.8820
1023.618511 0.8810 0.8780 0.8770 0.8770 0.8760
1030.260596 0.8760 0.8760 0.8760 0.8740 0.8720
1036.902681 0.8720 0.8700 0.8690 0.8690 0.8690
1043.544765 0.8690 0.8680 0.8660 0.8650 0.8620
1050.186850 0.8610 0.8610 0.8610 0.8600 0.8560
1056.828935 0.8560 0.8540 0.8530 0.8500 0.8490
1063.471020 0.8480 0.8460 0.8450 0.8450 0.8440
1070.113105 0.8440 0.8420 0.8410 0.8410 0.8400
1076.755189 0.8380 0.8380 0.8380 0.8380 0.8370
1083.397274 0.8370 0.8370 0.8370 0.8360 0.8360
1090.039359 0.8360 0.8360 0.8360 0.8340 0.8340
1096.681444 0.8340 0.8340 0.8340 0.8340 0.8330
1103.323528 0.8330 0.8320 0.8320 0.8320 0.8320
1109.965613 0.8320 0.8300 0.8300 0.8300 0.8320
1116.607698 0.8320 0.8320 0.8320 0.8320 0.8320
1123.249783 0.8320 0.8320 0.8330 0.8330 0.8320
1129.891867 0.8320 0.8320 0.8320 0.8320 0.8320
1136.533952 0.8330 0.8340 0.8340 0.8360 0.8360
1143.176037 0.8360 0.8360 0.8360 0.8340 0.8340
1149.818122 0.8330 0.8320 0.8320 0.8300 0.8300
1156.460206 0.8290 0.8290 0.8280 0.8260 0.8250
1163.102291 0.8250 0.8240 0.8240 0.8220 0.8220
1169.744376 0.8220 0.8220 0.8220 0.8210 0.8210
1176.386461 0.8210 0.8200 0.8200 0.8200 0.8200
1183.028546 0.8200 0.8200 0.8200 0.8180 0.8180
1189.670630 0.8180 0.8180 0.8160 0.8160 0.8140
1196.312715 0.8140 0.8130 0.8120 0.8120 0.8100
1202.954800 0.8090 0.8090 0.8090 0.8080 0.8080
1209.596885 0.8080 0.8060 0.8060 0.8050 0.8040
1216.238969 0.8040 0.8020 0.8020 0.8010 0.8000
1222.881054 0.7980 0.7970 0.7960 0.7940 0.7930
1229.523139 0.7920 0.7900 0.7900 0.7880 0.7850
1236.165224 0.7840 0.7840 0.7840 0.7820 0.7810
1242.807308 0.7770 0.7760 0.7760 0.7760 0.7740
1249.449393 0.7740 0.7740 0.7720 0.7680 0.7660
1256.091478 0.7640 0.7610 0.7600 0.7580 0.7570
1262.733563 0.7560 0.7530 0.7500 0.7500 0.7460
1269.375648 0.7450 0.7440 0.7440 0.7420 0.7410
1276.017732 0.7370 0.7360 0.7340 0.7330 0.7290
1282.659817 0.7280 0.7240 0.7220 0.7200 0.7140
1289.301902 0.7130 0.7130 0.7100 0.7040 0.7020
1295.943987 0.7020 0.7010 0.6940 0.6920 0.6880
1302.586071 0.6840 0.6810 0.6770 0.6740 0.6730
1309.228156 0.6700 0.6640 0.6610 0.6580 0.6530
1315.870241 0.6500 0.6450 0.6420 0.6410 0.6370
1322.512326 0.6280 0.6240 0.6200 0.6180 0.6120
1329.154410 0.6090 0.6090 0.6040 0.6000 0.5900
1335.796495 0.5890 0.5840 0.5810 0.5760 0.5700
1342.438580 0.5610 0.5580 0.5540 0.5450 0.5410
1349.080665 0.5400 0.5300 0.5250 0.5200 0.5160
1355.722750 0.5100 0.5020 0.4920 0.4860 0.4820
1362.364834 0.4720 0.4660 0.4610 0.4540 0.4500
1369.006919 0.4410 0.4370 0.4220 0.4160 0.4090
1375.649004 0.4040 0.4010 0.3900 0.3741 0.3601
1382.291089 0.3460 0.3400 0.3300 0.3220 0.3130
1388.933173 0.3010 0.2890 0.2691 0.2620 0.2530
1395.575258 0.2400 0.2300 0.2210 0.2140 0.2120
1402.217343 0.2060 0.1940 0.1810 0.1700 0.1610
1408.859428 0.1520 0.1360 0.1180 0.1170 0.1130
1415.501512 0.1100 0.1080 0.1050 0.1040 0.1010
1422.143597 0.0980 0.0970 0.0960 0.0960 0.0960
1428.785682 0.0970 0.1000 0.1040 0.1060 0.1080
1435.427767 0.1100 0.1130 0.1140 0.1160 0.1180
1442.069851 0.1220 0.1240 0.1260 0.1290 0.1320
1448.711936 0.1330 0.1400 0.1450 0.1490 0.1490
1455.354021 0.1540 0.1610 0.1650 0.1730 0.1800
1461.996106 0.1850 0.1890 0.1920 0.2000 0.2050
1468.638191 0.2090 0.2170 0.2250 0.2380 0.2450
1475.280275 0.2520 0.2560 0.2640 0.2800 0.2930
1481.922360 0.3020 0.3100 0.3170 0.3220 0.3300
1488.564445 0.3380 0.3420 0.3500 0.3600 0.3700
1495.206530 0.3760 0.3800 0.3810 0.3850 0.3930
1501.848614 0.4020 0.4090 0.4180 0.4200 0.4250
1508.490699 0.4300 0.4370 0.4410 0.4500 0.4500
1515.132784 0.4540 0.4620 0.4690 0.4730 0.4770
1521.774869 0.4840 0.4860 0.4890 0.4940 0.5000
1528.416953 0.5020 0.5100 0.5140 0.5200 0.5210
1535.059038 0.5260 0.5330 0.5360 0.5370 0.5370
1541.701123 0.5440 0.5460 0.5490 0.5500 0.5500
1548.343208 0.5520 0.5530 0.5600 0.5640 0.5680
1554.985293 0.5700 0.5730 0.5760 0.5800 0.5840
1561.627377 0.5850 0.5860 0.5900 0.5920 0.5930
1568.269462 0.5940 0.5970 0.6000 0.6000 0.6010
1574.911547 0.6020 0.6040 0.6050 0.6060 0.6080
1581.553632 0.6100 0.6100 0.6120 0.6120 0.6130
1588.195716 0.6130 0.6140 0.6140 0.6160 0.6160
1594.837801 0.6160 0.6160 0.6170 0.6170 0.6180
1601.479886 0.6200 0.6210 0.6210 0.6210 0.6210
1608.121971 0.6210 0.6210 0.6210 0.6220 0.6240
1614.764055 0.6240 0.6240 0.6250 0.6260 0.6280
1621.406140 0.6290 0.6300 0.6330 0.6330 0.6330
1628.048225 0.6340 0.6340 0.6370 0.6400 0.6440
1634.690310 0.6460 0.6480 0.6500 0.6520 0.6530
1641.332395 0.6540 0.6560 0.6570 0.6570 0.6570
1647.974479 0.6600 0.6620 0.6650 0.6660 0.6680
1654.616564 0.6690 0.6690 0.6690 0.6700 0.6700
1661.258649 0.6700 0.6720 0.6740 0.6740 0.6760
1667.900734 0.6760 0.6760 0.6760 0.6800 0.6800
1674.542818 0.6800 0.6800 0.6800 0.6800 0.6800
1681.184903 0.6800 0.6810 0.6810 0.6810 0.6820
1687.826988 0.6820 0.6840 0.6860 0.6880 0.6890
1694.469073 0.6890 0.6890 0.6890 0.6900 0.6900
1701.111157 0.6920 0.6930 0.6940 0.6940 0.6960
1707.753242 0.6960 0.6970 0.6970 0.6970 0.6980
1714.395327 0.7000 0.7000 0.7000 0.7000 0.7010
1721.037412 0.7010 0.7010 0.7020 0.7040 0.7040
1727.679496 0.7050 0.7050 0.7060 0.7080 0.7090
1734.321581 0.7090 0.7090 0.7090 0.7090 0.7090
1740.963666 0.7100 0.7100 0.7100 0.7100 0.7100
1747.605751 0.7100 0.7120 0.7130 0.7140 0.7160
1754.247836 0.7160 0.7160 0.7160 0.7170 0.7180
1760.889920 0.7200 0.7210 0.7210 0.7220 0.7240
1767.532005 0.7250 0.7250 0.7260 0.7280 0.7280
1774.174090 0.7290 0.7290 0.7290 0.7300 0.7300
1780.816175 0.7300 0.7300 0.7290 0.7290 0.7280
1787.458259 0.7260 0.7250 0.7240 0.7210 0.7140
1794.100344 0.7100 0.7060 0.7040 0.7040 0.7020
1800.742429 0.7020 0.7040 0.7050 0.7060 0.7090
1807.384514 0.7120 0.7140 0.7160 0.7170 0.7170
1814.026598 0.7200 0.7200 0.7210 0.7210 0.7220
1820.668683 0.7220 0.7240 0.7240 0.7240 0.7250
1827.310768 0.7250 0.7260 0.7260 0.7260 0.7260
1833.952853 0.7300 0.7300 0.7320 0.7320 0.7320
1840.594938 0.7320 0.7320 0.7320 0.7320 0.7320
1847.237022 0.7330 0.7340 0.7360 0.7360 0.7360
1853.879107 0.7380 0.7400 0.7400 0.7400 0.7400
1860.521192 0.7380 0.7380 0.7370 0.7370 0.7370
1867.163277 0.7380 0.7400 0.7400 0.7400 0.7400
1873.805361 0.7400 0.7400 0.7380 0.7380 0.7370
1880.447446 0.7370 0.7360 0.7370 0.7400 0.7400
1887.089531 0.7400 0.7380 0.7380 0.7380 0.7370
1893.731616 0.7370 0.7380 0.7400 0.7410 0.7410
1900.373700 0.7410 0.7410 0.7400 0.7400 0.7400
1907.015785 0.7400 0.7400 0.7410 0.7410 0.7410
1913.657870 0.7400 0.7400 0.7410 0.7410 0.7410
1920.299955 0.7410 0.7420 0.7410 0.7410 0.7410
1926.942039 0.7410 0.7420 0.7420 0.7450 0.7460
1933.584124 0.7460 0.7480 0.7480 0.7460 0.7460
1940.226209 0.7460 0.7460 0.7450 0.7450 0.7440
1946.868294 0.7440 0.7450 0.7450 0.7450 0.7460
1953.510379 0.7460 0.7460 0.7460 0.7480 0.7480
1960.152463 0.7480 0.7480 0.7480 0.7480 0.7480
1966.794548 0.7480 0.7480 0.7490 0.7490 0.7490
1973.436633 0.7490 0.7490 0.7490 0.7490 0.7490
1980.078718 0.7480 0.7480 0.7500 0.7500 0.7490
1986.720802 0.7490 0.7480 0.7480 0.7480 0.7480
1993.362887 0.7490 0.7490 0.7490 0.7490 0.7490
2000.004972 0.7490 0.7490 0.7490 0.7475 0.7460
2006.647057 0.7460 0.7460 0.7470 0.7480 0.7480
2013.289141 0.7480 0.7480 0.7480 0.7480 0.7480
2019.931226 0.7480 0.7480 0.7470 0.7460 0.7460
2026.573311 0.7460 0.7460 0.7460 0.7460 0.7460
2033.215396 0.7470 0.7480 0.7485 0.7490 0.7490
2039.857481 0.7490 0.7490 0.7490 0.7490 0.7490
2046.499565 0.7490 0.7490 0.7490 0.7490 0.7490
2053.141650 0.7490 0.7490 0.7490 0.7490 0.7490
2059.783735 0.7490 0.7490 0.7490 0.7490 0.7490
2066.425820 0.7490 0.7495 0.7500 0.7500 0.7500
2073.067904 0.7500 0.7500 0.7500 0.7500 0.7500
2079.709989 0.7500 0.7500 0.7500 0.7500 0.7500
2086.352074 0.7500 0.7500 0.7500 0.7500 0.7509
2092.994159 0.7519 0.7520 0.7520 0.7520 0.7520
2099.636243 0.7525 0.7530 0.7530 0.7530 0.7530
2106.278328 0.7530 0.7530 0.7530 0.7535 0.7540
2112.920413 0.7540 0.7540 0.7540 0.7540 0.7540
2119.562498 0.7540 0.7540 0.7540 0.7540 0.7540
2126.204583 0.7536 0.7531 0.7530 0.7530 0.7530
2132.846667 0.7530 0.7530 0.7530 0.7530 0.7530
2139.488752 0.7530 0.7530 0.7530 0.7530 0.7534
2146.130837 0.7539 0.7540 0.7540 0.7540 0.7540
2152.772922 0.7540 0.7540 0.7540 0.7540 0.7540
2159.415006 0.7540 0.7540 0.7540 0.7540 0.7540
2166.057091 0.7540 0.7540 0.7540 0.7540 0.7540
2172.699176 0.7540 0.7540 0.7540 0.7549 0.7558
2179.341261 0.7560 0.7560 0.7560 0.7560 0.7560
2185.983345 0.7560 0.7560 0.7560 0.7551 0.7541
2192.625430 0.7540 0.7540 0.7540 0.7540 0.7536
2199.267515 0.7531 0.7530 0.7530 0.7530 0.7530
2205.909600 0.7534 0.7539 0.7540 0.7540 0.7540
2212.551684 0.7540 0.7548 0.7558 0.7560 0.7560
2219.193769 0.7560 0.7560 0.7560 0.7560 0.7560
2225.835854 0.7560 0.7560 0.7560 0.7560 0.7560
2232.477939 0.7560 0.7560 0.7560 0.7560 0.7560
2239.120024 0.7560 0.7560 0.7560 0.7560 0.7560
2245.762108 0.7560 0.7560 0.7560 0.7560 0.7560
2252.404193 0.7560 0.7560 0.7560 0.7560 0.7560
2259.046278 0.7560 0.7560 0.7560 0.7560 0.7560
2265.688363 0.7560 0.7552 0.7542 0.7540 0.7540
2272.330447 0.7540 0.7540 0.7540 0.7540 0.7540
2278.972532 0.7540 0.7540 0.7540 0.7540 0.7540
2285.614617 0.7540 0.7540 0.7540 0.7540 0.7540
2292.256702 0.7540 0.7540 0.7540 0.7540 0.7540
2298.898786 0.7548 0.7558 0.7560 0.7560 0.7564
2305.540871 0.7569 0.7570 0.7570 0.7570 0.7570
2312.182956 0.7570 0.7570 0.7574 0.7579 0.7580
2318.825041 0.7580 0.7580 0.7580 0.7580 0.7580
2325.467126 0.7587 0.7597 0.7600 0.7600 0.7600
2332.109210 0.7600 0.7600 0.7600 0.7604 0.7609
2338.751295 0.7610 0.7610 0.7610 0.7610 0.7610
2345.393380 0.7610 0.7610 0.7610 0.7610 0.7610
2352.035465 0.7606 0.7601 0.7600 0.7600 0.7600
2358.677549 0.7600 0.7600 0.7600 0.7600 0.7600
2365.319634 0.7600 0.7600 0.7600 0.7600 0.7593
2371.961719 0.7583 0.7576 0.7571 0.7566 0.7561
2378.603804 0.7560 0.7560 0.7560 0.7560 0.7560
2385.245888 0.7560 0.7563 0.7568 0.7570 0.7570
2391.887973 0.7570 0.7570 0.7570 0.7570 0.7570
2398.530058 0.7570 0.7573 0.7578 0.7580 0.7580
2405.172143 0.7580 0.7580 0.7580 0.7580 0.7577
2411.814228 0.7572 0.7567 0.7562 0.7553 0.7543
2418.456312 0.7537 0.7532 0.7530 0.7530 0.7530
2425.098397 0.7530 0.7530 0.7530 0.7530 0.7530
2431.740482 0.7533 0.7538 0.7540 0.7540 0.7540
2438.382567 0.7540 0.7540 0.7540 0.7540 0.7540
2445.024651 0.7537 0.7532 0.7530 0.7530 0.7530
2451.666736 0.7530 0.7533 0.7538 0.7540 0.7540
2458.308821 0.7546 0.7556 0.7563 0.7568 0.7570
2464.950906 0.7570 0.7570 0.7570 0.7570 0.7570
2471.592990 0.7567 0.7562 0.7560 0.7560 0.7554
2478.235075 0.7544 0.7540 0.7540 0.7546 0.7556
2484.877160 0.7560 0.7560 0.7560 0.7560 0.7560
2491.519245 0.7560 0.7560 0.7560 0.7560 0.7560
2498.161329 0.7554 0.7544 0.7540 0.7540 0.7534
2504.803414 0.7524 0.7511 0.7496 0.7490 0.7490
2511.445499 0.7466 0.7426 0.7401 0.7386 0.7374
2518.087584 0.7364 0.7354 0.7344 0.7334 0.7324
2524.729669 0.7311 0.7296 0.7287 0.7282 0.7274
2531.371753 0.7264 0.7257 0.7252 0.7250 0.7250
2538.013838 0.7253 0.7258 0.7266 0.7276 0.7280
2544.655923 0.7280 0.7286 0.7296 0.7306 0.7316
2551.298008 0.7323 0.7328 0.7330 0.7330 0.7333
2557.940092 0.7338 0.7346 0.7356 0.7360 0.7360
2564.582177 0.7360 0.7360 0.7360 0.7360 0.7363
2571.224262 0.7368 0.7370 0.7370 0.7370 0.7370
2577.866347 0.7370 0.7370 0.7370 0.7370 0.7370
2584.508431 0.7370 0.7373 0.7378 0.7380 0.7380
2591.150516 0.7377 0.7372 0.7370 0.7370 0.7370
2597.792601 0.7370 0.7370 0.7370 0.7370 0.7370
2604.434686 0.7370 0.7370 0.7370 0.7370 0.7370
2611.076771 0.7370 0.7373 0.7378 0.7380 0.7380
2617.718855 0.7380 0.7380 0.7380 0.7380 0.7380
2624.360940 0.7380 0.7380 0.7380 0.7385 0.7395
2631.003025 0.7400 0.7400 0.7400 0.7400 0.7400
2637.645110 0.7400 0.7400 0.7400 0.7400 0.7400
2644.287194 0.7402 0.7407 0.7408 0.7403 0.7400
2650.929279 0.7400 0.7400 0.7400 0.7400 0.7400
2657.571364 0.7402 0.7407 0.7410 0.7410 0.7412
2664.213449 0.7417 0.7420 0.7420 0.7420 0.7420
2670.855533 0.7420 0.7420 0.7420 0.7420 0.7418
2677.497618 0.7413 0.7410 0.7410 0.7410 0.7410
2684.139703 0.7410 0.7410 0.7410 0.7410 0.7410
2690.781788 0.7410 0.7410 0.7410 0.7410 0.7410
2697.423873 0.7410 0.7410 0.7410 0.7410 0.7410
2704.065957 0.7410 0.7410 0.7410 0.7410 0.7410
2710.708042 0.7410 0.7410 0.7410 0.7410 0.7410
2717.350127 0.7410 0.7410 0.7410 0.7410 0.7410
2723.992212 0.7410 0.7410 0.7410 0.7410 0.7410
2730.634296 0.7410 0.7410 0.7410 0.7410 0.7410
2737.276381 0.7410 0.7410 0.7410 0.7410 0.7410
2743.918466 0.7410 0.7410 0.7410 0.7410 0.7410
2750.560551 0.7410 0.7410 0.7410 0.7410 0.7410
2757.202635 0.7410 0.7410 0.7410 0.7410 0.7410
2763.844720 0.7410 0.7410 0.7410 0.7410 0.7410
2770.486805 0.7410 0.7410 0.7410 0.7408 0.7403
2777.128890 0.7400 0.7400 0.7400 0.7400 0.7400
2783.770974 0.7400 0.7400 0.7400 0.7400 0.7400
2790.413059 0.7400 0.7400 0.7400 0.7400 0.7396
2797.055144 0.7386 0.7380 0.7380 0.7380 0.7380
2803.697229 0.7380 0.7380 0.7380 0.7380 0.7380
2810.339314 0.7380 0.7380 0.7380 0.7380 0.7380
2816.981398 0.7380 0.7380 0.7380 0.7380 0.7380
2823.623483 0.7380 0.7380 0.7380 0.7380 0.7380
2830.265568 0.7380 0.7380 0.7378 0.7373 0.7370
2836.907653 0.7370 0.7370 0.7370 0.7368 0.7363
2843.549737 0.7357 0.7347 0.7338 0.7333 0.7328
2850.191822 0.7323 0.7317 0.7307 0.7298 0.7293
2856.833907 0.7290 0.7290 0.7288 0.7283 0.7280
2863.475992 0.7280 0.7274 0.7254 0.7237 0.7227
2870.118076 0.7220 0.7220 0.7218 0.7213 0.7210
2876.760161 0.7210 0.7205 0.7190 0.7178 0.7173
2883.402246 0.7170 0.7170 0.7170 0.7170 0.7170
2890.044331 0.7170 0.7170 0.7170 0.7170 0.7170
2896.686416 0.7171 0.7176 0.7180 0.7180 0.7179
2903.328500 0.7174 0.7170 0.7170 0.7170 0.7170
2909.970585 0.7169 0.7164 0.7157 0.7147 0.7140
2916.612670 0.7140 0.7139 0.7134 0.7129 0.7124
2923.254755 0.7120 0.7120 0.7117 0.7107 0.7100
2929.896839 0.7100 0.7100 0.7100 0.7100 0.7100
2936.538924 0.7100 0.7100 0.7103 0.7113 0.7120
2943.181009 0.7120 0.7121 0.7126 0.7131 0.7136
2949.823094 0.7145 0.7165 0.7180 0.7180 0.7178
2956.465178 0.7167 0.7160 0.7160 0.7160 0.7160
2963.107263 0.7161 0.7166 0.7171 0.7176 0.7180
2969.749348 0.7180 0.7180 0.7180 0.7180 0.7180
2976.391433 0.7179 0.7174 0.7170 0.7170 0.7169
2983.033517 0.7164 0.7160 0.7160 0.7160 0.7160
2989.675602 0.7160 0.7160 0.7160 0.7160 0.7160
2996.317687 0.7160 0.7160 0.7160 0.7160 0.7160
3002.959772 0.7161 0.7166 0.7170 0.7170 0.7171
3009.601857 0.7176 0.7180 0.7180 0.7182 0.7192
3016.243941 0.7201 0.7206 0.7210 0.7210 0.7210
3022.886026 0.7210 0.7210 0.7210 0.7210 0.7210
3029.528111 0.7210 0.7210 0.7210 0.7210 0.7210
3036.170196 0.7210 0.7207 0.7192 0.7180 0.7180
3042.812280 0.7180 0.7180 0.7180 0.7180 0.7180
3049.454365 0.7180 0.7180 0.7180 0.7182 0.7192
3056.096450 0.7201 0.7206 0.7210 0.7210 0.7209
3062.738535 0.7204 0.7198 0.7188 0.7180 0.7180
3069.380619 0.7180 0.7180 0.7180 0.7180 0.7179
3076.022704 0.7174 0.7170 0.7170 0.7170 0.7170
3082.664789 0.7171 0.7176 0.7180 0.7180 0.7180
3089.306874 0.7180 0.7180 0.7180 0.7180 0.7180
3095.948959 0.7180 0.7180 0.7180 0.7180 0.7180
3102.591043 0.7180 0.7180 0.7180 0.7180 0.7180
3109.233128 0.7180 0.7180 0.7180 0.7180 0.7181
3115.875213 0.7191 0.7199 0.7189 0.7180 0.7180
3122.517298 0.7179 0.7174 0.7170 0.7170 0.7169
3129.159382 0.7164 0.7160 0.7160 0.7160 0.7160
3135.801467 0.7160 0.7160 0.7160 0.7160 0.7160
3142.443552 0.7160 0.7161 0.7166 0.7170 0.7170
3149.085637 0.7170 0.7170 0.7170 0.7170 0.7170
3155.727721 0.7175 0.7180 0.7180 0.7180 0.7175
3162.369806 0.7170 0.7165 0.7159 0.7149 0.7140
3169.011891 0.7140 0.7140 0.7140 0.7140 0.7135
3175.653976 0.7130 0.7130 0.7130 0.7125 0.7120
3182.296061 0.7120 0.7120 0.7120 0.7120 0.7120
3188.938145 0.7119 0.7109 0.7100 0.7095 0.7090
3195.580230 0.7090 0.7090 0.7090 0.7090 0.7085
3202.222315 0.7079 0.7069 0.7060 0.7060 0.7061
3208.864400 0.7071 0.7080 0.7085 0.7090 0.7090
3215.506484 0.7090 0.7090 0.7090 0.7090 0.7090
3222.148569 0.7085 0.7080 0.7080 0.7080 0.7070
3228.790654 0.7060 0.7055 0.7050 0.7050 0.7050
3235.432739 0.7045 0.7040 0.7025 0.7010 0.7010
3242.074823 0.7010 0.7010 0.7010 0.7010 0.7010
3248.716908 0.7015 0.7020 0.7020 0.7020 0.7020
3255.358993 0.7020 0.7020 0.7020 0.7015 0.7010
3262.001078 0.7005 0.7000 0.6990 0.6980 0.6980
3268.643162 0.6980 0.6980 0.6980 0.6980 0.6980
3275.285247 0.6975 0.6970 0.6965 0.6960 0.6950
3281.927332 0.6940 0.6935 0.6930 0.6925 0.6920
3288.569417 0.6920 0.6920 0.6920 0.6920 0.6910
3295.211502 0.6900 0.6900 0.6900 0.6895 0.6890
3301.853586 0.6875 0.6860 0.6855 0.6850 0.6850
3308.495671 0.6850 0.6850 0.6850 0.6850 0.6850
3315.137756 0.6850 0.6850 0.6850 0.6850 0.6845
3321.779841 0.6840 0.6830 0.6820 0.6820 0.6820
3328.421925 0.6820 0.6820 0.6820 0.6820 0.6820
3335.064010 0.6820 0.6820 0.6820 0.6815 0.6810
3341.706095 0.6796 0.6781 0.6761 0.6741 0.6740
3348.348180 0.6740 0.6735 0.6730 0.6730 0.6730
3354.990264 0.6725 0.6720 0.6706 0.6691 0.6685
3361.632349 0.6680 0.6671 0.6661 0.6655 0.6650
3368.274434 0.6645 0.6640 0.6640 0.6640 0.6631
3374.916519 0.6621 0.6620 0.6620 0.6620 0.6620
3381.558604 0.6615 0.6610 0.6605 0.6600 0.6586
3388.200688 0.6571 0.6556 0.6541 0.6540 0.6540
3394.842773 0.6531 0.6521 0.6520 0.6520 0.6502
3401.484858 0.6482 0.6480 0.6480 0.6467 0.6452
3408.126943 0.6446 0.6440 0.6422 0.6402 0.6400
3414.769027 0.6400 0.6391 0.6381 0.6376 0.6371
3421.411112 0.6370 0.6370 0.6366 0.6361 0.6360
3428.053197 0.6360 0.6360 0.6360 0.6351 0.6341
3434.695282 0.6340 0.6340 0.6336 0.6331 0.6330
3441.337366 0.6330 0.6330 0.6330 0.6326 0.6321
3447.979451 0.6320 0.6320 0.6320 0.6320 0.6320
3454.621536 0.6320 0.6311 0.6301 0.6300 0.6300
3461.263621 0.6296 0.6291 0.6290 0.6290 0.6290
3467.905706 0.6290 0.6290 0.6290 0.6290 0.6290
3474.547790 0.6290 0.6290 0.6290 0.6290 0.6294
3481.189875 0.6299 0.6300 0.6300 0.6300 0.6300
3487.831960 0.6300 0.6300 0.6300 0.6300 0.6308
3494.474045 0.6318 0.6320 0.6320 0.6324 0.6329
3501.116129 0.6330 0.6330 0.6342 0.6357 0.6368
3507.758214 0.6378 0.6380 0.6380 0.6388 0.6398
3514.400299 0.6400 0.6400 0.6400 0.6400 0.6400
3521.042384 0.6400 0.6404 0.6409 0.6414 0.6419
3527.684468 0.6420 0.6420 0.6420 0.6420 0.6428
3534.326553 0.6438 0.6440 0.6440 0.6444 0.6449
3540.968638 0.6462 0.6477 0.6480 0.6480 0.6484
3547.610723 0.6489 0.6490 0.6490 0.6494 0.6499
3554.252807 0.6500 0.6500 0.6508 0.6518 0.6528
3560.894892 0.6538 0.6548 0.6558 0.6564 0.6569
3567.536977 0.6574 0.6579 0.6580 0.6580 0.6588
3574.179062 0.6598 0.6604 0.6609 0.6625 0.6645
3580.821147 0.6654 0.6659 0.6660 0.6660 0.6660
3587.463231 0.6660 0.6668 0.6677 0.6680 0.6680
3594.105316 0.6684 0.6689 0.6690 0.6690 0.6694
3600.747401 0.6699 0.6700 0.6700 0.6711 0.6726
3607.389486 0.6734 0.6739 0.6747 0.6757 0.6760
3614.031570 0.6760 0.6764 0.6769 0.6770 0.6770
3620.673655 0.6774 0.6779 0.6787 0.6797 0.6800
3627.315740 0.6800 0.6800 0.6800 0.6800 0.6800
3633.957825 0.6804 0.6809 0.6810 0.6810 0.6814
3640.599909 0.6819 0.6820 0.6820 0.6827 0.6837
3647.241994 0.6840 0.6840 0.6833 0.6823 0.6820
3653.884079 0.6820 0.6820 0.6820 0.6820 0.6820
3660.526164 0.6827 0.6837 0.6840 0.6840 0.6843
3667.168249 0.6848 0.6850 0.6850 0.6847 0.6842
3673.810333 0.6840 0.6840 0.6840 0.6840 0.6840
3680.452418 0.6840 0.6840 0.6840 0.6833 0.6823
3687.094503 0.6820 0.6820 0.6817 0.6812 0.6810
3693.736588 0.6810 0.6810 0.6810 0.6820 0.6835
3700.378672 0.6843 0.6848 0.6853 0.6858 0.6860
3707.020757 0.6860 0.6857 0.6852 0.6847 0.6842
3713.662842 0.6840 0.6840 0.6833 0.6823 0.6820
3720.304927 0.6820 0.6820 0.6820 0.6820 0.6820
3726.947011 0.6820 0.6820 0.6820 0.6820 0.6820
3733.589096 0.6820 0.6820 0.6820 0.6820 0.6820
3740.231181 0.6820 0.6820 0.6820 0.6820 0.6820
3746.873266 0.6820 0.6820 0.6820 0.6826 0.6836
3753.515350 0.6834 0.6824 0.6817 0.6812 0.6810
3760.157435 0.6810 0.6810 0.6810 0.6810 0.6810
3766.799520 0.6813 0.6818 0.6820 0.6820 0.6820
3773.441605 0.6820 0.6820 0.6820 0.6820 0.6820
3780.083690 0.6817 0.6812 0.6810 0.6810 0.6810
3786.725774 0.6810 0.6810 0.6810 0.6810 0.6810
3793.367859 0.6810 0.6810 0.6810 0.6810 0.6813
3800.009944 0.6818 0.6817 0.6812 0.6810 0.6810
3806.652029 0.6810 0.6810 0.6807 0.6802 0.6800
3813.294113 0.6800 0.6800 0.6800 0.6800 0.6800
3819.936198 0.6800 0.6800 0.6803 0.6808 0.6810
3826.578283 0.6810 0.6810 0.6810 0.6810 0.6810
3833.220368 0.6810 0.6810 0.6807 0.6802 0.6800
3839.862452 0.6800 0.6800 0.6800 0.6803 0.6808
3846.504537 0.6810 0.6810 0.6807 0.6802 0.6794
3853.146622 0.6785 0.6780 0.6780 0.6785 0.6795
3859.788707 0.6800 0.6800 0.6800 0.6800 0.6800
3866.430792 0.6800 0.6795 0.6785 0.6780 0.6780
3873.072876 0.6780 0.6780 0.6785 0.6795 0.6795
3879.714961 0.6785 0.6780 0.6780 0.6777 0.6772
3886.357046 0.6770 0.6770 0.6770 0.6770 0.6770
3892.999131 0.6770 0.6767 0.6762 0.6760 0.6760
3899.641215 0.6760 0.6760 0.6763 0.6768 0.6767
3906.283300 0.6762 0.6760 0.6760 0.6760 0.6760
3912.925385 0.6760 0.6760 0.6755 0.6745 0.6740
3919.567470 0.6740 0.6740 0.6740 0.6740 0.6740
3926.209554 0.6738 0.6733 0.6730 0.6730 0.6730
3932.851639 0.6730 0.6730 0.6730 0.6730 0.6730
3939.493724 0.6730 0.6730 0.6730 0.6730 0.6728
3946.135809 0.6723 0.6720 0.6720 0.6720 0.6720
3952.777894 0.6720 0.6720 0.6720 0.6720 0.6720
3959.419978 0.6720 0.6715 0.6705 0.6700 0.6700
3966.062063 0.6700 0.6700 0.6700 0.6700 0.6705
3972.704148 0.6715 0.6720 0.6720 0.6720 0.6720
3979.346233 0.6722 0.6727 0.6730 0.6730 0.6730
3985.988317 0.6730
##END=
