##TITLE=Diisopropylamine hydrofluoride
##JCAMP-DX=4.24
##DATA TYPE=INFRARED SPECTRUM
##CLASS=COBLENTZ III
##ORIGIN=DOW CHEMICAL COMPANY
##OWNER=COBLENTZ SOC.
Collection (C) 2018 copyright by the U.S. Secretary of Commerce
on behalf of the United States of America. All rights reserved.
##DATE=1959/08/04
##NAMES=N,N-diisopropylamine hydrofluoride
##MOLFORM=C6 H16 F N
##SOURCE REFERENCE=COBLENTZ NO. 09687
##$NIST ID=B6009687
##$NIST SOURCE=COBLENTZ
##$NIST IMAGE=cob9687
##SPECTROMETER/DATA SYSTEM=DOW KBr FOREPRISM-GRATING
##INSTRUMENT PARAMETERS=BLAZED AT 3.5, 12.0, 20.0 MICRON AND CHANGED AT 5.0, 7.5, 14.9 MICRON
##STATE=SOLID (NUJOL MULL)
##PATH LENGTH=(BaF2 PLATES)
$$SPECTRAL CONTAMINATION DUE TO AN UNKNOWN AROUND 700 CM^-^1
##SAMPLING PROCEDURE=TRANSMISSION
##RESOLUTION=2
##DATA PROCESSING=DIGITIZED BY COBLENTZ SOCIETY (BATCH I) FROM HARD COPY
##XUNITS=1/CM
##YUNITS=TRANSMITTANCE
##XLABEL=Wavenumbers (cm-1)
##YLABEL=% Transmission
##XFACTOR=1
##YFACTOR=1
##DELTAX=1
##FIRSTX=708
##LASTX=3798
##FIRSTY=0.0004
##MAXX=3798
##MINX=708
##MAXY=0.7235
##MINY=0.0004
##NPOINTS=3091
##XYDATA=(X++(Y..Y))
708.000000 0.0004 0.0006 0.0009 0.0012 0.0015
713.000000 0.0018 0.0020 0.0023 0.0026 0.0029
718.000000 0.0032 0.0034 0.0037 0.0041 0.0048
723.000000 0.0055 0.0061 0.0065 0.0069 0.0072
728.000000 0.0076 0.0079 0.0083 0.0087 0.0090
733.000000 0.0094 0.0097 0.0101 0.0104 0.0110
738.000000 0.0115 0.0120 0.0125 0.0130 0.0134
743.000000 0.0141 0.0147 0.0152 0.0158 0.0164
748.000000 0.0170 0.0176 0.0181 0.0187 0.0194
753.000000 0.0201 0.0208 0.0215 0.0224 0.0231
758.000000 0.0238 0.0248 0.0259 0.0270 0.0281
763.000000 0.0292 0.0303 0.0314 0.0325 0.0336
768.000000 0.0347 0.0359 0.0371 0.0383 0.0395
773.000000 0.0407 0.0419 0.0431 0.0443 0.0455
778.000000 0.0467 0.0479 0.0492 0.0505 0.0518
783.000000 0.0531 0.0545 0.0558 0.0571 0.0584
788.000000 0.0608 0.0632 0.0656 0.0679 0.0704
793.000000 0.0731 0.0758 0.0784 0.0811 0.0830
798.000000 0.0846 0.0862 0.0860 0.0851 0.0842
803.000000 0.0819 0.0794 0.0764 0.0730 0.0706
808.000000 0.0692 0.0679 0.0682 0.0738 0.0834
813.000000 0.1003 0.1145 0.1287 0.1419 0.1496
818.000000 0.1570 0.1644 0.1721 0.1792 0.1854
823.000000 0.1916 0.1969 0.2018 0.2066 0.2114
828.000000 0.2163 0.2211 0.2260 0.2308 0.2355
833.000000 0.2402 0.2449 0.2478 0.2501 0.2524
838.000000 0.2547 0.2571 0.2596 0.2642 0.2767
843.000000 0.2847 0.2892 0.2937 0.2982 0.3027
848.000000 0.3072 0.3117 0.3162 0.3202 0.3241
853.000000 0.3268 0.3297 0.3324 0.3352 0.3386
858.000000 0.3424 0.3462 0.3514 0.3582 0.3652
863.000000 0.3703 0.3743 0.3782 0.3823 0.3862
868.000000 0.3903 0.3939 0.3974 0.4009 0.4050
873.000000 0.4095 0.4139 0.4184 0.4232 0.4288
878.000000 0.4343 0.4399 0.4455 0.4508 0.4551
883.000000 0.4593 0.4635 0.4677 0.4720 0.4760
888.000000 0.4798 0.4835 0.4873 0.4910 0.4949
893.000000 0.4987 0.5022 0.5057 0.5091 0.5126
898.000000 0.5160 0.5194 0.5224 0.5250 0.5276
903.000000 0.5301 0.5327 0.5353 0.5379 0.5401
908.000000 0.5421 0.5442 0.5462 0.5483 0.5503
913.000000 0.5519 0.5533 0.5546 0.5559 0.5577
918.000000 0.5616 0.5673 0.5709 0.5735 0.5744
923.000000 0.5750 0.5749 0.5748 0.5742 0.5735
928.000000 0.5729 0.5715 0.5695 0.5601 0.5480
933.000000 0.5395 0.5395 0.5395 0.5408 0.5483
938.000000 0.5537 0.5555 0.5554 0.5544 0.5482
943.000000 0.5423 0.5422 0.5421 0.5507 0.5645
948.000000 0.5782 0.5920 0.5955 0.5955 0.5947
953.000000 0.5936 0.5914 0.5885 0.5807 0.5710
958.000000 0.5615 0.5560 0.5562 0.5574 0.5595
963.000000 0.5692 0.5795 0.5899 0.6002 0.6105
968.000000 0.6158 0.6162 0.6152 0.6140 0.6121
973.000000 0.6095 0.5944 0.5753 0.5562 0.5370
978.000000 0.5179 0.5133 0.5127 0.5131 0.5309
983.000000 0.5562 0.5816 0.6065 0.6139 0.6203
988.000000 0.6260 0.6306 0.6339 0.6357 0.6366
993.000000 0.6366 0.6360 0.6356 0.6351 0.6347
998.000000 0.6340 0.6331 0.6322 0.6308 0.6295
1003.000000 0.6285 0.6276 0.6265 0.6249 0.6233
1008.000000 0.6216 0.6197 0.6179 0.6160 0.6138
1013.000000 0.6114 0.6090 0.6064 0.6023 0.5981
1018.000000 0.5940 0.5897 0.5852 0.5807 0.5762
1023.000000 0.5717 0.5672 0.5626 0.5580 0.5533
1028.000000 0.5479 0.5424 0.5370 0.5315 0.5257
1033.000000 0.5198 0.5138 0.5079 0.5020 0.4968
1038.000000 0.4916 0.4865 0.4812 0.4760 0.4695
1043.000000 0.4628 0.4562 0.4482 0.4399 0.4242
1048.000000 0.4036 0.3822 0.3608 0.3394 0.3225
1053.000000 0.3096 0.2972 0.2818 0.2610 0.2312
1058.000000 0.2015 0.1718 0.1421 0.1131 0.1021
1063.000000 0.1008 0.0978 0.1014 0.1022 0.1051
1068.000000 0.1185 0.1318 0.1451 0.1585 0.1718
1073.000000 0.1852 0.1984 0.2118 0.2252 0.2384
1078.000000 0.2471 0.2484 0.2511 0.2482 0.2474
1083.000000 0.2454 0.2416 0.2346 0.2205 0.2040
1088.000000 0.1876 0.1711 0.1546 0.1382 0.1217
1093.000000 0.1053 0.0888 0.0776 0.0703 0.0636
1098.000000 0.0590 0.0544 0.0503 0.0467 0.0469
1103.000000 0.0475 0.0479 0.0499 0.0529 0.0564
1108.000000 0.0603 0.0636 0.0883 0.1171 0.1459
1113.000000 0.1746 0.2034 0.2324 0.2612 0.2900
1118.000000 0.3188 0.3476 0.3739 0.3926 0.4077
1123.000000 0.4212 0.4342 0.4469 0.4581 0.4692
1128.000000 0.4754 0.4801 0.4849 0.4868 0.4885
1133.000000 0.4917 0.4899 0.4884 0.4862 0.4820
1138.000000 0.4744 0.4662 0.4588 0.4514 0.4415
1143.000000 0.4290 0.4135 0.3979 0.3824 0.3668
1148.000000 0.3512 0.3357 0.3200 0.3046 0.2890
1153.000000 0.2787 0.2787 0.2767 0.2799 0.2823
1158.000000 0.2907 0.3085 0.3264 0.3443 0.3622
1163.000000 0.3800 0.3979 0.4157 0.4336 0.4514
1168.000000 0.4688 0.4775 0.4823 0.4832 0.4835
1173.000000 0.4837 0.4838 0.4851 0.4883 0.4932
1178.000000 0.4947 0.4967 0.4957 0.4790 0.4623
1183.000000 0.4455 0.4288 0.4121 0.3953 0.3804
1188.000000 0.3814 0.3900 0.4373 0.4844 0.5316
1193.000000 0.5681 0.5804 0.5860 0.5873 0.5877
1198.000000 0.5892 0.5843 0.5760 0.5678 0.5596
1203.000000 0.5512 0.5431 0.5348 0.5266 0.5183
1208.000000 0.5131 0.5139 0.5404 0.5670 0.5935
1213.000000 0.6196 0.6343 0.6455 0.6594 0.6722
1218.000000 0.6815 0.6887 0.6926 0.6967 0.7007
1223.000000 0.7042 0.7076 0.7108 0.7126 0.7145
1228.000000 0.7164 0.7174 0.7180 0.7187 0.7194
1233.000000 0.7201 0.7205 0.7208 0.7211 0.7215
1238.000000 0.7218 0.7221 0.7224 0.7225 0.7226
1243.000000 0.7228 0.7230 0.7232 0.7233 0.7235
1248.000000 0.7235 0.7235 0.7234 0.7233 0.7207
1253.000000 0.7230 0.7228 0.7226 0.7225 0.7224
1258.000000 0.7221 0.7219 0.7218 0.7215 0.7214
1263.000000 0.7211 0.7208 0.7207 0.7205 0.7203
1268.000000 0.7201 0.7199 0.7197 0.7193 0.7190
1273.000000 0.7186 0.7182 0.7178 0.7174 0.7171
1278.000000 0.7167 0.7162 0.7158 0.7156 0.7151
1283.000000 0.7147 0.7142 0.7136 0.7131 0.7125
1288.000000 0.7118 0.7114 0.7108 0.7103 0.7097
1293.000000 0.7091 0.7082 0.7072 0.7064 0.7055
1298.000000 0.7045 0.7036 0.7026 0.7018 0.6991
1303.000000 0.6964 0.6938 0.6911 0.6884 0.6855
1308.000000 0.6826 0.6798 0.6767 0.6731 0.6694
1313.000000 0.6657 0.6601 0.6535 0.6448 0.6350
1318.000000 0.6289 0.6220 0.5985 0.5749 0.5514
1323.000000 0.5383 0.5386 0.5379 0.6005 0.6344
1328.000000 0.6456 0.6456 0.6455 0.6475 0.6441
1333.000000 0.6421 0.6364 0.6187 0.5960 0.5770
1338.000000 0.5792 0.5916 0.6040 0.6164 0.6228
1343.000000 0.6224 0.6214 0.6193 0.6144 0.5951
1348.000000 0.5758 0.5566 0.5436 0.5445 0.5657
1353.000000 0.5877 0.6078 0.6086 0.6085 0.6078
1358.000000 0.5982 0.5814 0.5647 0.5480 0.5312
1363.000000 0.5403 0.5660 0.5916 0.5962 0.5962
1368.000000 0.5962 0.5960 0.5951 0.5940 0.5900
1373.000000 0.5622 0.5250 0.4877 0.4505 0.4133
1378.000000 0.3759 0.3388 0.3015 0.2863 0.2861
1383.000000 0.2881 0.3187 0.3514 0.3843 0.4099
1388.000000 0.4156 0.4168 0.4167 0.4167 0.4143
1393.000000 0.3932 0.3400 0.2868 0.2337 0.1804
1398.000000 0.1273 0.1201 0.1195 0.1596 0.1992
1403.000000 0.2388 0.2783 0.3178 0.3574 0.3968
1408.000000 0.4364 0.4760 0.5079 0.5189 0.5297
1413.000000 0.5399 0.5490 0.5543 0.5590 0.5632
1418.000000 0.5671 0.5744 0.5722 0.5737 0.5739
1423.000000 0.5738 0.5737 0.5734 0.5725 0.5712
1428.000000 0.5697 0.5670 0.5623 0.5590 0.5556
1433.000000 0.5522 0.5444 0.5341 0.5238 0.5134
1438.000000 0.5031 0.4998 0.4987 0.4957 0.4912
1443.000000 0.4848 0.4760 0.4655 0.4559 0.4394
1448.000000 0.4195 0.3996 0.3797 0.3598 0.3398
1453.000000 0.3209 0.3090 0.3018 0.2988 0.2978
1458.000000 0.2971 0.2966 0.2960 0.2951 0.2809
1463.000000 0.2609 0.2409 0.2272 0.2261 0.2262
1468.000000 0.2269 0.2510 0.2811 0.3111 0.3406
1473.000000 0.3484 0.3516 0.3522 0.3522 0.3499
1478.000000 0.3418 0.3340 0.3259 0.3234 0.3380
1483.000000 0.3814 0.4250 0.4684 0.4994 0.5038
1488.000000 0.5055 0.5040 0.5027 0.5009 0.4964
1493.000000 0.4892 0.4814 0.4735 0.4625 0.4520
1498.000000 0.4429 0.4337 0.4192 0.4046 0.3918
1503.000000 0.3788 0.3491 0.3166 0.2841 0.2534
1508.000000 0.2433 0.2389 0.2368 0.2369 0.2364
1513.000000 0.2387 0.2457 0.2720 0.2985 0.3252
1518.000000 0.3518 0.3784 0.4050 0.4317 0.4582
1523.000000 0.4707 0.4795 0.4880 0.4958 0.5037
1528.000000 0.5119 0.5202 0.5290 0.5386 0.5479
1533.000000 0.5554 0.5617 0.5662 0.5700 0.5723
1538.000000 0.5744 0.5755 0.5765 0.5770 0.5775
1543.000000 0.5779 0.5784 0.5788 0.5790 0.5791
1548.000000 0.5793 0.5794 0.5795 0.5797 0.5799
1553.000000 0.5802 0.5805 0.5807 0.5810 0.5812
1558.000000 0.5815 0.5817 0.5817 0.5818 0.5818
1563.000000 0.5818 0.5818 0.5818 0.5819 0.5822
1568.000000 0.5825 0.5828 0.5831 0.5834 0.5838
1573.000000 0.5845 0.5851 0.5857 0.5864 0.5870
1578.000000 0.5876 0.5878 0.5878 0.5878 0.5881
1583.000000 0.5882 0.5882 0.5881 0.5880 0.5879
1588.000000 0.5878 0.5877 0.5876 0.5874 0.5872
1593.000000 0.5869 0.5867 0.5862 0.5856 0.5850
1598.000000 0.5844 0.5837 0.5826 0.5815 0.5803
1603.000000 0.5792 0.5775 0.5757 0.5738 0.5715
1608.000000 0.5690 0.5664 0.5627 0.5589 0.5550
1613.000000 0.5507 0.5462 0.5419 0.5362 0.5301
1618.000000 0.5223 0.5131 0.4993 0.4708 0.4422
1623.000000 0.4136 0.3850 0.3564 0.3279 0.2994
1628.000000 0.2708 0.2422 0.2388 0.2404 0.2528
1633.000000 0.2765 0.3017 0.2983 0.2963 0.2888
1638.000000 0.2812 0.2737 0.2687 0.2688 0.2702
1643.000000 0.2993 0.3308 0.3623 0.3937 0.4252
1648.000000 0.4567 0.4881 0.5196 0.5510 0.5738
1653.000000 0.5755 0.5777 0.5789 0.5795 0.5799
1658.000000 0.5801 0.5796 0.5804 0.5806 0.5807
1663.000000 0.5801 0.5794 0.5787 0.5780 0.5767
1668.000000 0.5755 0.5742 0.5728 0.5712 0.5697
1673.000000 0.5679 0.5660 0.5645 0.5634 0.5623
1678.000000 0.5616 0.5612 0.5608 0.5603 0.5601
1683.000000 0.5600 0.5600 0.5599 0.5599 0.5598
1688.000000 0.5594 0.5591 0.5586 0.5562 0.5541
1693.000000 0.5528 0.5515 0.5510 0.5508 0.5505
1698.000000 0.5500 0.5494 0.5488 0.5483 0.5477
1703.000000 0.5470 0.5464 0.5458 0.5452 0.5446
1708.000000 0.5440 0.5434 0.5428 0.5422 0.5416
1713.000000 0.5409 0.5402 0.5394 0.5387 0.5379
1718.000000 0.5372 0.5364 0.5357 0.5350 0.5342
1723.000000 0.5335 0.5327 0.5318 0.5308 0.5298
1728.000000 0.5287 0.5277 0.5267 0.5257 0.5246
1733.000000 0.5236 0.5226 0.5216 0.5205 0.5195
1738.000000 0.5185 0.5174 0.5162 0.5153 0.5142
1743.000000 0.5132 0.5121 0.5110 0.5100 0.5089
1748.000000 0.5077 0.5066 0.5054 0.5043 0.5031
1753.000000 0.5019 0.5008 0.4995 0.4983 0.4970
1758.000000 0.4957 0.4944 0.4932 0.4917 0.4900
1763.000000 0.4883 0.4866 0.4847 0.4825 0.4804
1768.000000 0.4782 0.4745 0.4703 0.4660 0.4619
1773.000000 0.4577 0.4536 0.4492 0.4446 0.4400
1778.000000 0.4355 0.4307 0.4259 0.4210 0.4167
1783.000000 0.4134 0.4102 0.4072 0.4050 0.4029
1788.000000 0.4007 0.3987 0.3979 0.3971 0.3964
1793.000000 0.3957 0.3950 0.3944 0.3938 0.3928
1798.000000 0.3918 0.3908 0.3898 0.3884 0.3871
1803.000000 0.3858 0.3844 0.3830 0.3812 0.3790
1808.000000 0.3768 0.3746 0.3724 0.3700 0.3678
1813.000000 0.3655 0.3621 0.3584 0.3548 0.3510
1818.000000 0.3474 0.3438 0.3400 0.3364 0.3328
1823.000000 0.3291 0.3254 0.3218 0.3181 0.3144
1828.000000 0.3108 0.3071 0.3034 0.2998 0.2961
1833.000000 0.2924 0.2864 0.2803 0.2756 0.2710
1838.000000 0.2663 0.2616 0.2569 0.2521 0.2473
1843.000000 0.2418 0.2363 0.2307 0.2252 0.2195
1848.000000 0.2137 0.2078 0.2019 0.1966 0.1916
1853.000000 0.1865 0.1814 0.1763 0.1703 0.1635
1858.000000 0.1569 0.1502 0.1434 0.1366 0.1298
1863.000000 0.1231 0.1171 0.1112 0.1053 0.0993
1868.000000 0.0943 0.0893 0.0845 0.0795 0.0746
1873.000000 0.0699 0.0657 0.0615 0.0573 0.0533
1878.000000 0.0498 0.0464 0.0430 0.0412 0.0400
1883.000000 0.0387 0.0374 0.0361 0.0348 0.0335
1888.000000 0.0322 0.0314 0.0306 0.0298 0.0290
1893.000000 0.0282 0.0274 0.0266 0.0258 0.0252
1898.000000 0.0247 0.0241 0.0235 0.0230 0.0225
1903.000000 0.0218 0.0213 0.0208 0.0204 0.0199
1908.000000 0.0198 0.0196 0.0195 0.0194 0.0192
1913.000000 0.0191 0.0190 0.0190 0.0190 0.0191
1918.000000 0.0192 0.0192 0.0193 0.0193 0.0194
1923.000000 0.0195 0.0199 0.0204 0.0208 0.0212
1928.000000 0.0217 0.0222 0.0227 0.0232 0.0235
1933.000000 0.0241 0.0247 0.0253 0.0258 0.0264
1938.000000 0.0270 0.0276 0.0281 0.0287 0.0295
1943.000000 0.0304 0.0313 0.0321 0.0330 0.0339
1948.000000 0.0348 0.0356 0.0368 0.0388 0.0406
1953.000000 0.0423 0.0443 0.0461 0.0480 0.0528
1958.000000 0.0576 0.0625 0.0703 0.0798 0.0872
1963.000000 0.0935 0.0996 0.1060 0.1123 0.1185
1968.000000 0.1248 0.1311 0.1374 0.1436 0.1499
1973.000000 0.1562 0.1624 0.1686 0.1750 0.1813
1978.000000 0.1875 0.1937 0.2001 0.2063 0.2126
1983.000000 0.2189 0.2251 0.2314 0.2377 0.2440
1988.000000 0.2502 0.2565 0.2618 0.2663 0.2708
1993.000000 0.2751 0.2795 0.2839 0.2899 0.2962
1998.000000 0.3024 0.3084 0.3143 0.3202 0.3260
2003.000000 0.3289 0.3316 0.3344 0.3371 0.3397
2008.000000 0.3424 0.3450 0.3478 0.3504 0.3530
2013.000000 0.3558 0.3584 0.3610 0.3637 0.3662
2018.000000 0.3688 0.3712 0.3739 0.3764 0.3789
2023.000000 0.3814 0.3840 0.3858 0.3877 0.3891
2028.000000 0.3906 0.3920 0.3934 0.3948 0.3962
2033.000000 0.3977 0.3991 0.4003 0.4014 0.4026
2038.000000 0.4038 0.4050 0.4062 0.4075 0.4088
2043.000000 0.4105 0.4123 0.4140 0.4158 0.4175
2048.000000 0.4193 0.4212 0.4233 0.4255 0.4277
2053.000000 0.4299 0.4322 0.4345 0.4369 0.4394
2058.000000 0.4419 0.4444 0.4470 0.4492 0.4514
2063.000000 0.4533 0.4553 0.4572 0.4592 0.4609
2068.000000 0.4626 0.4639 0.4652 0.4662 0.4672
2073.000000 0.4672 0.4672 0.4671 0.4670 0.4668
2078.000000 0.4666 0.4662 0.4699 0.4656 0.4653
2083.000000 0.4649 0.4645 0.4641 0.4637 0.4629
2088.000000 0.4621 0.4612 0.4604 0.4596 0.4588
2093.000000 0.4580 0.4572 0.4562 0.4553 0.4542
2098.000000 0.4532 0.4512 0.4492 0.4471 0.4451
2103.000000 0.4430 0.4410 0.4388 0.4366 0.4342
2108.000000 0.4319 0.4295 0.4272 0.4248 0.4225
2113.000000 0.4202 0.4179 0.4155 0.4132 0.4107
2118.000000 0.4082 0.4057 0.4032 0.4006 0.3980
2123.000000 0.3956 0.3930 0.3905 0.3879 0.3847
2128.000000 0.3814 0.3782 0.3750 0.3718 0.3686
2133.000000 0.3654 0.3622 0.3566 0.3512 0.3459
2138.000000 0.3405 0.3360 0.3316 0.3275 0.3232
2143.000000 0.3191 0.3149 0.3069 0.2990 0.2942
2148.000000 0.2895 0.2855 0.2815 0.2797 0.2779
2153.000000 0.2772 0.2759 0.2766 0.2768 0.2775
2158.000000 0.2782 0.2859 0.2935 0.3015 0.3094
2163.000000 0.3173 0.3252 0.3330 0.3409 0.3489
2168.000000 0.3568 0.3647 0.3726 0.3805 0.3884
2173.000000 0.3962 0.4042 0.4121 0.4200 0.4279
2178.000000 0.4358 0.4390 0.4423 0.4439 0.4455
2183.000000 0.4465 0.4476 0.4482 0.4489 0.4495
2188.000000 0.4502 0.4506 0.4510 0.4514 0.4518
2193.000000 0.4521 0.4525 0.4528 0.4532 0.4535
2198.000000 0.4538 0.4541 0.4544 0.4547 0.4550
2203.000000 0.4551 0.4553 0.4554 0.4555 0.4556
2208.000000 0.4558 0.4559 0.4559 0.4559 0.4558
2213.000000 0.4557 0.4555 0.4553 0.4551 0.4548
2218.000000 0.4546 0.4541 0.4537 0.4529 0.4522
2223.000000 0.4515 0.4508 0.4498 0.4489 0.4476
2228.000000 0.4462 0.4450 0.4438 0.4420 0.4402
2233.000000 0.4380 0.4358 0.4332 0.4307 0.4281
2238.000000 0.4256 0.4230 0.4205 0.4176 0.4147
2243.000000 0.4115 0.4082 0.4050 0.4018 0.3980
2248.000000 0.3943 0.3904 0.3864 0.3832 0.3802
2253.000000 0.3772 0.3742 0.3712 0.3682 0.3649
2258.000000 0.3616 0.3575 0.3534 0.3493 0.3452
2263.000000 0.3392 0.3332 0.3272 0.3210 0.3149
2268.000000 0.3088 0.3027 0.2966 0.2905 0.2844
2273.000000 0.2783 0.2722 0.2660 0.2599 0.2538
2278.000000 0.2477 0.2416 0.2355 0.2293 0.2232
2283.000000 0.2171 0.2110 0.2049 0.1987 0.1927
2288.000000 0.1866 0.1804 0.1743 0.1682 0.1621
2293.000000 0.1560 0.1499 0.1438 0.1377 0.1315
2298.000000 0.1254 0.1195 0.1137 0.1117 0.1098
2303.000000 0.1078 0.1059 0.1054 0.1049 0.1049
2308.000000 0.1049 0.1052 0.1056 0.1060 0.1065
2313.000000 0.1071 0.1077 0.1084 0.1091 0.1098
2318.000000 0.1105 0.1112 0.1120 0.1133 0.1146
2323.000000 0.1159 0.1172 0.1183 0.1195 0.1207
2328.000000 0.1219 0.1231 0.1242 0.1255 0.1267
2333.000000 0.1278 0.1289 0.1299 0.1310 0.1320
2338.000000 0.1331 0.1340 0.1349 0.1354 0.1359
2343.000000 0.1364 0.1369 0.1373 0.1377 0.1378
2348.000000 0.1380 0.1381 0.1382 0.1382 0.1382
2353.000000 0.1379 0.1376 0.1373 0.1370 0.1364
2358.000000 0.1358 0.1351 0.1344 0.1337 0.1331
2363.000000 0.1324 0.1317 0.1307 0.1296 0.1285
2368.000000 0.1274 0.1262 0.1250 0.1235 0.1221
2373.000000 0.1204 0.1188 0.1167 0.1146 0.1124
2378.000000 0.1101 0.1078 0.1056 0.1026 0.0996
2383.000000 0.0963 0.0929 0.0895 0.0861 0.0829
2388.000000 0.0798 0.0766 0.0735 0.0709 0.0683
2393.000000 0.0660 0.0637 0.0614 0.0591 0.0568
2398.000000 0.0545 0.0521 0.0498 0.0469 0.0442
2403.000000 0.0419 0.0396 0.0383 0.0371 0.0358
2408.000000 0.0346 0.0339 0.0332 0.0330 0.0329
2413.000000 0.0327 0.0326 0.0325 0.0324 0.0323
2418.000000 0.0323 0.0323 0.0323 0.0322 0.0322
2423.000000 0.0322 0.0322 0.0322 0.0322 0.0321
2428.000000 0.0321 0.0321 0.0321 0.0321 0.0322
2433.000000 0.0322 0.0323 0.0324 0.0325 0.0325
2438.000000 0.0326 0.0327 0.0328 0.0328 0.0329
2443.000000 0.0329 0.0330 0.0330 0.0330 0.0330
2448.000000 0.0330 0.0330 0.0330 0.0330 0.0331
2453.000000 0.0333 0.0335 0.0336 0.0338 0.0340
2458.000000 0.0342 0.0343 0.0345 0.0348 0.0352
2463.000000 0.0356 0.0360 0.0364 0.0367 0.0372
2468.000000 0.0376 0.0380 0.0384 0.0388 0.0392
2473.000000 0.0396 0.0400 0.0403 0.0407 0.0410
2478.000000 0.0414 0.0417 0.0421 0.0423 0.0423
2483.000000 0.0423 0.0423 0.0423 0.0423 0.0423
2488.000000 0.0423 0.0423 0.0425 0.0425 0.0427
2493.000000 0.0427 0.0427 0.0429 0.0430 0.0431
2498.000000 0.0432 0.0433 0.0434 0.0434 0.0435
2503.000000 0.0436 0.0437 0.0440 0.0443 0.0445
2508.000000 0.0448 0.0450 0.0453 0.0456 0.0459
2513.000000 0.0461 0.0464 0.0466 0.0469 0.0471
2518.000000 0.0475 0.0477 0.0482 0.0486 0.0490
2523.000000 0.0494 0.0498 0.0502 0.0506 0.0509
2528.000000 0.0513 0.0519 0.0525 0.0535 0.0545
2533.000000 0.0554 0.0564 0.0573 0.0583 0.0592
2538.000000 0.0602 0.0611 0.0621 0.0632 0.0643
2543.000000 0.0657 0.0672 0.0686 0.0700 0.0714
2548.000000 0.0729 0.0743 0.0758 0.0769 0.0781
2553.000000 0.0791 0.0802 0.0812 0.0822 0.0832
2558.000000 0.0842 0.0850 0.0857 0.0862 0.0868
2563.000000 0.0872 0.0879 0.0883 0.0887 0.0888
2568.000000 0.0889 0.0884 0.0879 0.0872 0.0865
2573.000000 0.0859 0.0854 0.0847 0.0842 0.0842
2578.000000 0.0842 0.0841 0.0841 0.0839 0.0839
2583.000000 0.0842 0.0846 0.0856 0.0866 0.0897
2588.000000 0.0930 0.0961 0.0992 0.1025 0.1057
2593.000000 0.1089 0.1121 0.1153 0.1185 0.1217
2598.000000 0.1249 0.1280 0.1312 0.1344 0.1376
2603.000000 0.1408 0.1440 0.1472 0.1504 0.1535
2608.000000 0.1567 0.1588 0.1610 0.1622 0.1634
2613.000000 0.1648 0.1661 0.1668 0.1675 0.1679
2618.000000 0.1684 0.1684 0.1684 0.1684 0.1685
2623.000000 0.1685 0.1685 0.1684 0.1683 0.1679
2628.000000 0.1676 0.1672 0.1668 0.1660 0.1652
2633.000000 0.1643 0.1634 0.1613 0.1592 0.1569
2638.000000 0.1546 0.1520 0.1494 0.1468 0.1442
2643.000000 0.1411 0.1380 0.1349 0.1319 0.1288
2648.000000 0.1257 0.1229 0.1202 0.1174 0.1146
2653.000000 0.1120 0.1092 0.1065 0.1038 0.1010
2658.000000 0.0983 0.0955 0.0928 0.0900 0.0872
2663.000000 0.0845 0.0818 0.0800 0.0782 0.0764
2668.000000 0.0747 0.0729 0.0711 0.0693 0.0675
2673.000000 0.0657 0.0640 0.0622 0.0605 0.0587
2678.000000 0.0570 0.0553 0.0536 0.0521 0.0507
2683.000000 0.0495 0.0484 0.0471 0.0461 0.0449
2688.000000 0.0438 0.0425 0.0415 0.0409 0.0403
2693.000000 0.0398 0.0394 0.0389 0.0385 0.0380
2698.000000 0.0376 0.0372 0.0367 0.0365 0.0362
2703.000000 0.0359 0.0357 0.0354 0.0351 0.0348
2708.000000 0.0346 0.0344 0.0344 0.0344 0.0346
2713.000000 0.0348 0.0350 0.0352 0.0355 0.0359
2718.000000 0.0363 0.0366 0.0372 0.0376 0.0380
2723.000000 0.0384 0.0388 0.0392 0.0397 0.0401
2728.000000 0.0406 0.0411 0.0416 0.0421 0.0425
2733.000000 0.0431 0.0436 0.0441 0.0446 0.0453
2738.000000 0.0460 0.0467 0.0475 0.0484 0.0492
2743.000000 0.0500 0.0508 0.0515 0.0523 0.0534
2748.000000 0.0546 0.0557 0.0569 0.0581 0.0593
2753.000000 0.0604 0.0616 0.0628 0.0640 0.0651
2758.000000 0.0663 0.0674 0.0686 0.0697 0.0709
2763.000000 0.0720 0.0732 0.0746 0.0761 0.0776
2768.000000 0.0792 0.0808 0.0824 0.0839 0.0856
2773.000000 0.0872 0.0888 0.0907 0.0926 0.0946
2778.000000 0.0967 0.0987 0.1007 0.1026 0.1046
2783.000000 0.1064 0.1082 0.1100 0.1118 0.1136
2788.000000 0.1154 0.1170 0.1187 0.1198 0.1210
2793.000000 0.1222 0.1234 0.1246 0.1258 0.1270
2798.000000 0.1282 0.1292 0.1304 0.1315 0.1326
2803.000000 0.1336 0.1346 0.1354 0.1362 0.1363
2808.000000 0.1364 0.1364 0.1365 0.1361 0.1358
2813.000000 0.1353 0.1348 0.1331 0.1314 0.1280
2818.000000 0.1246 0.1214 0.1181 0.1146 0.1114
2823.000000 0.1080 0.1046 0.1013 0.0980 0.0946
2828.000000 0.0914 0.0880 0.0846 0.0813 0.0780
2833.000000 0.0746 0.0713 0.0680 0.0647 0.0613
2838.000000 0.0580 0.0546 0.0513 0.0486 0.0460
2843.000000 0.0452 0.0445 0.0446 0.0447 0.0448
2848.000000 0.0450 0.0454 0.0458 0.0461 0.0465
2853.000000 0.0467 0.0471 0.0475 0.0480 0.0484
2858.000000 0.0489 0.0493 0.0498 0.0502 0.0506
2863.000000 0.0510 0.0514 0.0518 0.0523 0.0527
2868.000000 0.0531 0.0535 0.0539 0.0542 0.0546
2873.000000 0.0549 0.0553 0.0556 0.0559 0.0562
2878.000000 0.0565 0.0567 0.0569 0.0569 0.0570
2883.000000 0.0570 0.0571 0.0571 0.0572 0.0572
2888.000000 0.0572 0.0570 0.0569 0.0567 0.0566
2893.000000 0.0564 0.0562 0.0560 0.0559 0.0557
2898.000000 0.0556 0.0552 0.0549 0.0544 0.0540
2903.000000 0.0535 0.0531 0.0526 0.0521 0.0515
2908.000000 0.0509 0.0503 0.0498 0.0492 0.0487
2913.000000 0.0482 0.0477 0.0471 0.0467 0.0467
2918.000000 0.0467 0.0467 0.0469 0.0471 0.0475
2923.000000 0.0499 0.0523 0.0551 0.0579 0.0602
2928.000000 0.0625 0.0651 0.0677 0.0686 0.0695
2933.000000 0.0697 0.0697 0.0697 0.0695 0.0691
2938.000000 0.0688 0.0685 0.0682 0.0678 0.0675
2943.000000 0.0672 0.0670 0.0667 0.0665 0.0664
2948.000000 0.0664 0.0669 0.0675 0.0681 0.0687
2953.000000 0.0693 0.0700 0.0705 0.0711 0.0716
2958.000000 0.0722 0.0727 0.0732 0.0739 0.0746
2963.000000 0.0759 0.0773 0.0801 0.0830 0.0871
2968.000000 0.0912 0.0939 0.0968 0.0987 0.1006
2973.000000 0.1009 0.1010 0.1009 0.1008 0.1003
2978.000000 0.0999 0.0983 0.0968 0.0957 0.0946
2983.000000 0.0942 0.0941 0.1057 0.1174 0.1342
2988.000000 0.1513 0.1682 0.1852 0.2021 0.2191
2993.000000 0.2360 0.2529 0.2698 0.2868 0.3014
2998.000000 0.3160 0.3182 0.3204 0.3212 0.3221
3003.000000 0.3224 0.3225 0.3225 0.3225 0.3214
3008.000000 0.3205 0.3189 0.3174 0.3158 0.3143
3013.000000 0.3080 0.3018 0.2952 0.2887 0.2821
3018.000000 0.2756 0.2690 0.2625 0.2559 0.2493
3023.000000 0.2427 0.2362 0.2296 0.2231 0.2165
3028.000000 0.2099 0.2041 0.1984 0.1979 0.1975
3033.000000 0.1975 0.1975 0.1978 0.1981 0.1985
3038.000000 0.1992 0.2000 0.2009 0.2019 0.2029
3043.000000 0.2046 0.2064 0.2091 0.2118 0.2152
3048.000000 0.2185 0.2250 0.2314 0.2374 0.2434
3053.000000 0.2513 0.2592 0.2794 0.2996 0.3045
3058.000000 0.3094 0.3142 0.3191 0.3240 0.3289
3063.000000 0.3337 0.3386 0.3443 0.3500 0.3537
3068.000000 0.3574 0.3602 0.3630 0.3662 0.3695
3073.000000 0.3746 0.3797 0.3846 0.3895 0.3939
3078.000000 0.3982 0.4022 0.4060 0.4100 0.4139
3083.000000 0.4175 0.4212 0.4247 0.4282 0.4317
3088.000000 0.4352 0.4384 0.4416 0.4441 0.4466
3093.000000 0.4491 0.4516 0.4541 0.4567 0.4592
3098.000000 0.4617 0.4641 0.4666 0.4683 0.4701
3103.000000 0.4719 0.4737 0.4755 0.4773 0.4791
3108.000000 0.4809 0.4826 0.4844 0.4860 0.4878
3113.000000 0.4895 0.4912 0.4928 0.4945 0.4962
3118.000000 0.4979 0.4996 0.5012 0.5031 0.5049
3123.000000 0.5067 0.5085 0.5103 0.5121 0.5139
3128.000000 0.5157 0.5175 0.5193 0.5210 0.5229
3133.000000 0.5247 0.5266 0.5284 0.5302 0.5320
3138.000000 0.5339 0.5357 0.5376 0.5394 0.5412
3143.000000 0.5430 0.5449 0.5467 0.5485 0.5501
3148.000000 0.5517 0.5533 0.5550 0.5566 0.5583
3153.000000 0.5599 0.5616 0.5630 0.5644 0.5657
3158.000000 0.5670 0.5683 0.5696 0.5709 0.5722
3163.000000 0.5733 0.5744 0.5751 0.5759 0.5766
3168.000000 0.5774 0.5781 0.5789 0.5796 0.5804
3173.000000 0.5810 0.5818 0.5823 0.5829 0.5835
3178.000000 0.5841 0.5846 0.5852 0.5858 0.5864
3183.000000 0.5870 0.5876 0.5881 0.5887 0.5893
3188.000000 0.5899 0.5904 0.5910 0.5914 0.5919
3193.000000 0.5923 0.5928 0.5932 0.5936 0.5940
3198.000000 0.5945 0.5949 0.5953 0.5957 0.5960
3203.000000 0.5965 0.5969 0.5973 0.5977 0.5981
3208.000000 0.5985 0.5989 0.5993 0.5997 0.6001
3213.000000 0.6005 0.6009 0.6012 0.6017 0.6021
3218.000000 0.6026 0.6030 0.6034 0.6038 0.6042
3223.000000 0.6044 0.6047 0.6048 0.6049 0.6050
3228.000000 0.6051 0.6052 0.6053 0.6054 0.6055
3233.000000 0.6056 0.6057 0.6057 0.6057 0.6057
3238.000000 0.6056 0.6055 0.6055 0.6054 0.6054
3243.000000 0.6053 0.6053 0.6051 0.6050 0.6046
3248.000000 0.6043 0.6040 0.6037 0.6034 0.6031
3253.000000 0.6027 0.6024 0.6020 0.6016 0.6010
3258.000000 0.6006 0.6009 0.6012 0.6014 0.6017
3263.000000 0.6020 0.6023 0.6029 0.6036 0.6051
3268.000000 0.6067 0.6082 0.6098 0.6112 0.6128
3273.000000 0.6143 0.6158 0.6172 0.6187 0.6202
3278.000000 0.6217 0.6231 0.6246 0.6255 0.6265
3283.000000 0.6275 0.6285 0.6294 0.6304 0.6312
3288.000000 0.6323 0.6329 0.6336 0.6340 0.6345
3293.000000 0.6350 0.6355 0.6359 0.6364 0.6368
3298.000000 0.6373 0.6376 0.6380 0.6383 0.6386
3303.000000 0.6389 0.6393 0.6396 0.6400 0.6401
3308.000000 0.6404 0.6406 0.6408 0.6411 0.6412
3313.000000 0.6415 0.6417 0.6418 0.6421 0.6424
3318.000000 0.6425 0.6428 0.6430 0.6432 0.6435
3323.000000 0.6436 0.6437 0.6437 0.6438 0.6438
3328.000000 0.6439 0.6440 0.6441 0.6441 0.6442
3333.000000 0.6442 0.6443 0.6443 0.6444 0.6444
3338.000000 0.6445 0.6445 0.6445 0.6445 0.6446
3343.000000 0.6446 0.6447 0.6447 0.6447 0.6447
3348.000000 0.6448 0.6448 0.6448 0.6448 0.6449
3353.000000 0.6449 0.6450 0.6450 0.6450 0.6450
3358.000000 0.6450 0.6450 0.6450 0.6449 0.6449
3363.000000 0.6449 0.6449 0.6449 0.6449 0.6449
3368.000000 0.6449 0.6449 0.6449 0.6449 0.6449
3373.000000 0.6448 0.6448 0.6448 0.6448 0.6447
3378.000000 0.6447 0.6446 0.6445 0.6444 0.6443
3383.000000 0.6442 0.6441 0.6440 0.6440 0.6439
3388.000000 0.6438 0.6437 0.6436 0.6435 0.6435
3393.000000 0.6435 0.6435 0.6435 0.6435 0.6435
3398.000000 0.6435 0.6435 0.6436 0.6436 0.6436
3403.000000 0.6436 0.6436 0.6436 0.6436 0.6436
3408.000000 0.6436 0.6437 0.6439 0.6441 0.6443
3413.000000 0.6445 0.6447 0.6449 0.6451 0.6453
3418.000000 0.6455 0.6457 0.6458 0.6461 0.6462
3423.000000 0.6465 0.6467 0.6468 0.6471 0.6472
3428.000000 0.6475 0.6476 0.6478 0.6481 0.6484
3433.000000 0.6486 0.6489 0.6491 0.6494 0.6496
3438.000000 0.6499 0.6501 0.6504 0.6506 0.6508
3443.000000 0.6511 0.6514 0.6515 0.6518 0.6521
3448.000000 0.6524 0.6525 0.6528 0.6531 0.6534
3453.000000 0.6537 0.6540 0.6543 0.6546 0.6549
3458.000000 0.6553 0.6556 0.6558 0.6561 0.6565
3463.000000 0.6568 0.6571 0.6574 0.6576 0.6580
3468.000000 0.6583 0.6586 0.6589 0.6590 0.6592
3473.000000 0.6593 0.6595 0.6596 0.6598 0.6599
3478.000000 0.6600 0.6601 0.6603 0.6604 0.6606
3483.000000 0.6607 0.6608 0.6608 0.6611 0.6611
3488.000000 0.6614 0.6615 0.6617 0.6618 0.6618
3493.000000 0.6619 0.6621 0.6622 0.6625 0.6625
3498.000000 0.6628 0.6628 0.6630 0.6631 0.6633
3503.000000 0.6634 0.6636 0.6637 0.6639 0.6640
3508.000000 0.6642 0.6643 0.6644 0.6647 0.6650
3513.000000 0.6654 0.6658 0.6661 0.6665 0.6668
3518.000000 0.6672 0.6676 0.6681 0.6685 0.6689
3523.000000 0.6693 0.6697 0.6701 0.6705 0.6708
3528.000000 0.6712 0.6717 0.6721 0.6725 0.6728
3533.000000 0.6733 0.6737 0.6741 0.6745 0.6749
3538.000000 0.6753 0.6757 0.6761 0.6765 0.6768
3543.000000 0.6772 0.6776 0.6780 0.6783 0.6786
3548.000000 0.6789 0.6792 0.6795 0.6798 0.6801
3553.000000 0.6804 0.6807 0.6810 0.6814 0.6817
3558.000000 0.6819 0.6822 0.6825 0.6828 0.6832
3563.000000 0.6835 0.6838 0.6841 0.6844 0.6847
3568.000000 0.6850 0.6853 0.6856 0.6858 0.6861
3573.000000 0.6862 0.6865 0.6865 0.6868 0.6869
3578.000000 0.6871 0.6872 0.6875 0.6875 0.6878
3583.000000 0.6878 0.6881 0.6882 0.6884 0.6885
3588.000000 0.6887 0.6888 0.6890 0.6891 0.6892
3593.000000 0.6892 0.6893 0.6893 0.6894 0.6894
3598.000000 0.6895 0.6896 0.6897 0.6897 0.6898
3603.000000 0.6898 0.6899 0.6899 0.6900 0.6901
3608.000000 0.6901 0.6901 0.6903 0.6903 0.6904
3613.000000 0.6904 0.6905 0.6906 0.6907 0.6907
3618.000000 0.6908 0.6908 0.6908 0.6908 0.6908
3623.000000 0.6908 0.6908 0.6908 0.6908 0.6908
3628.000000 0.6908 0.6908 0.6910 0.6910 0.6910
3633.000000 0.6910 0.6910 0.6910 0.6910 0.6908
3638.000000 0.6907 0.6905 0.6904 0.6901 0.6900
3643.000000 0.6898 0.6897 0.6895 0.6893 0.6891
3648.000000 0.6890 0.6888 0.6886 0.6884 0.6883
3653.000000 0.6881 0.6880 0.6878 0.6875 0.6872
3658.000000 0.6871 0.6867 0.6864 0.6861 0.6858
3663.000000 0.6854 0.6851 0.6847 0.6844 0.6841
3668.000000 0.6838 0.6834 0.6831 0.6826 0.6824
3673.000000 0.6821 0.6819 0.6818 0.6815 0.6814
3678.000000 0.6811 0.6811 0.6811 0.6811 0.6811
3683.000000 0.6812 0.6814 0.6815 0.6818 0.6821
3688.000000 0.6822 0.6825 0.6828 0.6830 0.6832
3693.000000 0.6834 0.6836 0.6838 0.6841 0.6844
3698.000000 0.6847 0.6850 0.6854 0.6857 0.6860
3703.000000 0.6862 0.6865 0.6868 0.6872 0.6875
3708.000000 0.6878 0.6882 0.6885 0.6889 0.6893
3713.000000 0.6896 0.6900 0.6903 0.6907 0.6911
3718.000000 0.6915 0.6918 0.6921 0.6925 0.6930
3723.000000 0.6933 0.6937 0.6940 0.6944 0.6947
3728.000000 0.6950 0.6953 0.6956 0.6958 0.6961
3733.000000 0.6962 0.6965 0.6968 0.6971 0.6974
3738.000000 0.6976 0.6980 0.6983 0.6985 0.6988
3743.000000 0.6991 0.6994 0.6996 0.6999 0.7001
3748.000000 0.7003 0.7005 0.7007 0.7008 0.7010
3753.000000 0.7011 0.7014 0.7015 0.6982 0.7018
3758.000000 0.7021 0.7021 0.7024 0.7025 0.7028
3763.000000 0.7028 0.7028 0.7028 0.7030 0.7030
3768.000000 0.7030 0.7030 0.7031 0.7031 0.7032
3773.000000 0.7032 0.7032 0.7032 0.7032 0.7031
3778.000000 0.7031 0.7030 0.7028 0.7028 0.7028
3783.000000 0.7026 0.7025 0.7025 0.7025 0.7024
3788.000000 0.7022 0.7021 0.7021 0.7021 0.7019
3793.000000 0.7018 0.7018 0.7018 0.7017 0.7015
3798.000000 0.7015
##END=
