##TITLE=Hydroxylamine, N-ethyl-, hydrochloride
##JCAMP-DX=4.24
$$ By DXEDIT 1.05 (RS McDonald)
##DATA TYPE=INFRARED SPECTRUM
##CLASS=COBLENTZ III
##ORIGIN=DOW CHEMICAL COMPANY
##OWNER=COPYRIGHT (C) 1988 by COBLENTZ SOCIETY INC.
Collection (C) 2018 copyright by the U.S. Secretary of Commerce
on behalf of the United States of America. All rights reserved.
##DATE=1964/12/30
##NAMES=N-ethylhydroxylamine hydrochloride
##MOLFORM=C2 H8 Cl N O
##SOURCE REFERENCE=COBLENTZ NO. 07611
##$NIST ID=B6007611
##$NIST SOURCE=COBLENTZ
##$NIST IMAGE=cob7611
##SPECTROMETER/DATA SYSTEM=BECKMAN IR-9 (GRATING)
##INSTRUMENT PARAMETERS=ORDER CHANGES: 670, 1200, 2000 CM^-^1
##STATE=LIQUID (NEAT)
##PATH LENGTH=CAPILLARY
$$SPECTRAL CONTAMINATION DUE TO H2O AROUND 3400 CM^-^1
##SAMPLING PROCEDURE=TRANSMISSION
##RESOLUTION=2
##DATA PROCESSING=DIGITIZED BY COBLENTZ SOCIETY (BATCH I) FROM HARD COPY
##XUNITS=1/CM
##YUNITS=TRANSMITTANCE
##XFACTOR=1
##YFACTOR=1
##DELTAX=1
##FIRSTX=3800
##LASTX=402
##FIRSTY=0.8749
##MAXX=3800
##MINX=402
##MAXY=0.8768
##MINY=0.0368
##NPOINTS=3399
##XYDATA=(X++(Y..Y))
3800.000000 0.8749 0.8749 0.8749 0.8750 0.8751
3795.000000 0.8751 0.8752 0.8753 0.8754 0.8755
3790.000000 0.8756 0.8757 0.8758 0.8759 0.8760
3785.000000 0.8761 0.8762 0.8763 0.8764 0.8765
3780.000000 0.8766 0.8766 0.8767 0.8768 0.8768
3775.000000 0.8768 0.8768 0.8768 0.8768 0.8767
3770.000000 0.8767 0.8766 0.8766 0.8765 0.8765
3765.000000 0.8764 0.8764 0.8763 0.8763 0.8762
3760.000000 0.8762 0.8762 0.8762 0.8762 0.8762
3755.000000 0.8761 0.8761 0.8761 0.8761 0.8760
3750.000000 0.8760 0.8760 0.8760 0.8759 0.8759
3745.000000 0.8759 0.8759 0.8759 0.8760 0.8760
3740.000000 0.8760 0.8760 0.8760 0.8760 0.8760
3735.000000 0.8760 0.8760 0.8760 0.8761 0.8761
3730.000000 0.8761 0.8761 0.8761 0.8761 0.8761
3725.000000 0.8761 0.8761 0.8761 0.8761 0.8761
3720.000000 0.8760 0.8759 0.8758 0.8757 0.8757
3715.000000 0.8756 0.8755 0.8754 0.8753 0.8752
3710.000000 0.8751 0.8750 0.8750 0.8749 0.8748
3705.000000 0.8746 0.8744 0.8740 0.8736 0.8732
3700.000000 0.8728 0.8724 0.8720 0.8716 0.8712
3695.000000 0.8707 0.8703 0.8699 0.8695 0.8691
3690.000000 0.8687 0.8683 0.8678 0.8675 0.8671
3685.000000 0.8666 0.8662 0.8657 0.8652 0.8647
3680.000000 0.8642 0.8637 0.8632 0.8627 0.8623
3675.000000 0.8618 0.8613 0.8608 0.8603 0.8598
3670.000000 0.8593 0.8587 0.8581 0.8573 0.8566
3665.000000 0.8558 0.8551 0.8543 0.8536 0.8528
3660.000000 0.8521 0.8514 0.8507 0.8499 0.8492
3655.000000 0.8484 0.8477 0.8467 0.8457 0.8445
3650.000000 0.8434 0.8421 0.8410 0.8397 0.8384
3645.000000 0.8368 0.8355 0.8341 0.8327 0.8313
3640.000000 0.8299 0.8285 0.8271 0.8257 0.8243
3635.000000 0.8228 0.8215 0.8200 0.8186 0.8171
3630.000000 0.8157 0.8141 0.8125 0.8110 0.8094
3625.000000 0.8075 0.8058 0.8040 0.8022 0.8005
3620.000000 0.7987 0.7968 0.7951 0.7933 0.7915
3615.000000 0.7899 0.7882 0.7864 0.7847 0.7830
3610.000000 0.7812 0.7796 0.7778 0.7761 0.7744
3605.000000 0.7726 0.7710 0.7693 0.7675 0.7661
3600.000000 0.7647 0.7633 0.7618 0.7604 0.7590
3595.000000 0.7575 0.7561 0.7548 0.7534 0.7519
3590.000000 0.7506 0.7492 0.7478 0.7464 0.7450
3585.000000 0.7436 0.7421 0.7406 0.7391 0.7374
3580.000000 0.7358 0.7341 0.7325 0.7308 0.7291
3575.000000 0.7274 0.7258 0.7241 0.7225 0.7208
3570.000000 0.7191 0.7174 0.7158 0.7141 0.7125
3565.000000 0.7108 0.7094 0.7078 0.7064 0.7049
3560.000000 0.7034 0.7018 0.7004 0.6989 0.6975
3555.000000 0.6960 0.6945 0.6930 0.6915 0.6900
3550.000000 0.6885 0.6869 0.6855 0.6840 0.6825
3545.000000 0.6811 0.6797 0.6783 0.6768 0.6754
3540.000000 0.6740 0.6725 0.6711 0.6697 0.6683
3535.000000 0.6668 0.6655 0.6640 0.6625 0.6608
3530.000000 0.6592 0.6575 0.6558 0.6542 0.6525
3525.000000 0.6508 0.6493 0.6475 0.6460 0.6443
3520.000000 0.6426 0.6410 0.6393 0.6376 0.6359
3515.000000 0.6342 0.6325 0.6308 0.6291 0.6274
3510.000000 0.6257 0.6240 0.6223 0.6206 0.6189
3505.000000 0.6172 0.6156 0.6141 0.6126 0.6110
3500.000000 0.6097 0.6082 0.6067 0.6052 0.6038
3495.000000 0.6023 0.6008 0.5993 0.5979 0.5964
3490.000000 0.5949 0.5934 0.5920 0.5905 0.5890
3485.000000 0.5875 0.5860 0.5846 0.5831 0.5817
3480.000000 0.5803 0.5789 0.5776 0.5762 0.5749
3475.000000 0.5735 0.5722 0.5708 0.5695 0.5681
3470.000000 0.5668 0.5654 0.5641 0.5627 0.5614
3465.000000 0.5600 0.5587 0.5573 0.5560 0.5549
3460.000000 0.5539 0.5529 0.5519 0.5509 0.5500
3455.000000 0.5490 0.5480 0.5470 0.5460 0.5450
3450.000000 0.5440 0.5430 0.5420 0.5410 0.5400
3445.000000 0.5390 0.5380 0.5370 0.5360 0.5351
3440.000000 0.5342 0.5334 0.5327 0.5319 0.5312
3435.000000 0.5304 0.5297 0.5289 0.5282 0.5275
3430.000000 0.5268 0.5260 0.5253 0.5245 0.5238
3425.000000 0.5230 0.5223 0.5215 0.5208 0.5200
3420.000000 0.5193 0.5186 0.5179 0.5172 0.5165
3415.000000 0.5159 0.5153 0.5147 0.5141 0.5135
3410.000000 0.5129 0.5122 0.5116 0.5110 0.5104
3405.000000 0.5098 0.5092 0.5087 0.5083 0.5080
3400.000000 0.5078 0.5075 0.5072 0.5069 0.5066
3395.000000 0.5062 0.5060 0.5057 0.5056 0.5056
3390.000000 0.5057 0.5058 0.5060 0.5060 0.5062
3385.000000 0.5062 0.5065 0.5066 0.5068 0.5069
3380.000000 0.5070 0.5070 0.5070 0.5070 0.5071
3375.000000 0.5071 0.5071 0.5071 0.5071 0.5071
3370.000000 0.5071 0.5071 0.5071 0.5071 0.5071
3365.000000 0.5071 0.5071 0.5071 0.5071 0.5071
3360.000000 0.5071 0.5071 0.5071 0.5071 0.5071
3355.000000 0.5071 0.5071 0.5071 0.5071 0.5071
3350.000000 0.5071 0.5070 0.5070 0.5069 0.5069
3345.000000 0.5068 0.5068 0.5067 0.5067 0.5066
3340.000000 0.5066 0.5065 0.5065 0.5064 0.5064
3335.000000 0.5062 0.5062 0.5062 0.5062 0.5060
3330.000000 0.5060 0.5060 0.5060 0.5059 0.5059
3325.000000 0.5057 0.5055 0.5053 0.5051 0.5048
3320.000000 0.5046 0.5043 0.5041 0.5039 0.5037
3315.000000 0.5034 0.5032 0.5029 0.5027 0.5025
3310.000000 0.5023 0.5020 0.5018 0.5015 0.5012
3305.000000 0.5004 0.4997 0.4989 0.4981 0.4973
3300.000000 0.4965 0.4957 0.4949 0.4938 0.4927
3295.000000 0.4916 0.4906 0.4895 0.4884 0.4873
3290.000000 0.4862 0.4853 0.4843 0.4833 0.4823
3285.000000 0.4812 0.4802 0.4790 0.4778 0.4766
3280.000000 0.4754 0.4742 0.4730 0.4718 0.4706
3275.000000 0.4691 0.4677 0.4657 0.4637 0.4620
3270.000000 0.4604 0.4587 0.4570 0.4553 0.4537
3265.000000 0.4520 0.4504 0.4487 0.4470 0.4453
3260.000000 0.4437 0.4420 0.4403 0.4383 0.4364
3255.000000 0.4345 0.4326 0.4306 0.4287 0.4267
3250.000000 0.4248 0.4228 0.4209 0.4189 0.4170
3245.000000 0.4150 0.4130 0.4107 0.4084 0.4062
3240.000000 0.4040 0.4018 0.3996 0.3973 0.3950
3235.000000 0.3928 0.3906 0.3884 0.3862 0.3839
3230.000000 0.3816 0.3794 0.3772 0.3746 0.3720
3225.000000 0.3693 0.3666 0.3640 0.3612 0.3586
3220.000000 0.3559 0.3532 0.3507 0.3478 0.3450
3215.000000 0.3418 0.3388 0.3357 0.3326 0.3295
3210.000000 0.3264 0.3232 0.3203 0.3173 0.3144
3205.000000 0.3118 0.3093 0.3067 0.3042 0.3016
3200.000000 0.2991 0.2965 0.2940 0.2914 0.2888
3195.000000 0.2863 0.2839 0.2819 0.2799 0.2779
3190.000000 0.2759 0.2738 0.2718 0.2698 0.2678
3185.000000 0.2658 0.2638 0.2618 0.2598 0.2578
3180.000000 0.2558 0.2537 0.2517 0.2496 0.2476
3175.000000 0.2453 0.2430 0.2406 0.2383 0.2359
3170.000000 0.2335 0.2313 0.2290 0.2266 0.2243
3165.000000 0.2220 0.2197 0.2172 0.2147 0.2122
3160.000000 0.2097 0.2072 0.2046 0.2022 0.1996
3155.000000 0.1972 0.1946 0.1922 0.1896 0.1874
3150.000000 0.1852 0.1829 0.1807 0.1784 0.1762
3145.000000 0.1740 0.1718 0.1694 0.1673 0.1650
3140.000000 0.1628 0.1607 0.1587 0.1566 0.1546
3135.000000 0.1525 0.1505 0.1485 0.1465 0.1449
3130.000000 0.1434 0.1418 0.1403 0.1387 0.1372
3125.000000 0.1356 0.1341 0.1325 0.1310 0.1296
3120.000000 0.1283 0.1270 0.1258 0.1245 0.1232
3115.000000 0.1221 0.1211 0.1202 0.1194 0.1189
3110.000000 0.1184 0.1181 0.1178 0.1174 0.1171
3105.000000 0.1168 0.1165 0.1161 0.1158 0.1155
3100.000000 0.1152 0.1150 0.1149 0.1146 0.1146
3095.000000 0.1144 0.1142 0.1140 0.1139 0.1137
3090.000000 0.1136 0.1134 0.1132 0.1130 0.1129
3085.000000 0.1127 0.1126 0.1124 0.1122 0.1121
3080.000000 0.1120 0.1118 0.1117 0.1115 0.1114
3075.000000 0.1112 0.1111 0.1110 0.1109 0.1107
3070.000000 0.1106 0.1104 0.1103 0.1101 0.1100
3065.000000 0.1098 0.1096 0.1095 0.1094 0.1091
3060.000000 0.1089 0.1086 0.1083 0.1079 0.1076
3055.000000 0.1073 0.1070 0.1066 0.1063 0.1059
3050.000000 0.1056 0.1046 0.1037 0.1027 0.1018
3045.000000 0.1006 0.0995 0.0979 0.0963 0.0946
3040.000000 0.0931 0.0914 0.0897 0.0882 0.0866
3035.000000 0.0850 0.0834 0.0820 0.0807 0.0793
3030.000000 0.0780 0.0767 0.0754 0.0741 0.0728
3025.000000 0.0714 0.0701 0.0688 0.0675 0.0664
3020.000000 0.0653 0.0642 0.0632 0.0621 0.0611
3015.000000 0.0600 0.0590 0.0579 0.0568 0.0557
3010.000000 0.0547 0.0536 0.0526 0.0515 0.0505
3005.000000 0.0494 0.0483 0.0471 0.0460 0.0449
3000.000000 0.0439 0.0437 0.0435 0.0433 0.0432
2995.000000 0.0430 0.0427 0.0425 0.0425 0.0423
2990.000000 0.0421 0.0419 0.0417 0.0416 0.0414
2985.000000 0.0413 0.0413 0.0412 0.0411 0.0410
2980.000000 0.0410 0.0409 0.0409 0.0408 0.0408
2975.000000 0.0407 0.0407 0.0406 0.0406 0.0405
2970.000000 0.0405 0.0404 0.0368 0.0402 0.0402
2965.000000 0.0401 0.0400 0.0399 0.0398 0.0397
2960.000000 0.0396 0.0395 0.0394 0.0393 0.0392
2955.000000 0.0391 0.0390 0.0389 0.0388 0.0387
2950.000000 0.0386 0.0385 0.0385 0.0385 0.0386
2945.000000 0.0389 0.0392 0.0395 0.0398 0.0401
2940.000000 0.0404 0.0408 0.0413 0.0417 0.0423
2935.000000 0.0429 0.0434 0.0439 0.0445 0.0450
2930.000000 0.0456 0.0461 0.0467 0.0471 0.0477
2925.000000 0.0483 0.0489 0.0494 0.0500 0.0505
2920.000000 0.0511 0.0517 0.0523 0.0529 0.0536
2915.000000 0.0542 0.0548 0.0554 0.0561 0.0567
2910.000000 0.0573 0.0579 0.0586 0.0591 0.0597
2905.000000 0.0602 0.0608 0.0613 0.0618 0.0623
2900.000000 0.0629 0.0633 0.0638 0.0638 0.0638
2895.000000 0.0638 0.0638 0.0638 0.0639 0.0639
2890.000000 0.0639 0.0639 0.0639 0.0639 0.0639
2885.000000 0.0644 0.0649 0.0654 0.0660 0.0665
2880.000000 0.0671 0.0677 0.0683 0.0687 0.0692
2875.000000 0.0697 0.0702 0.0706 0.0711 0.0715
2870.000000 0.0720 0.0723 0.0727 0.0727 0.0728
2865.000000 0.0728 0.0728 0.0728 0.0728 0.0728
2860.000000 0.0728 0.0728 0.0728 0.0728 0.0728
2855.000000 0.0728 0.0728 0.0728 0.0728 0.0727
2850.000000 0.0727 0.0727 0.0727 0.0726 0.0726
2845.000000 0.0726 0.0726 0.0726 0.0726 0.0725
2840.000000 0.0725 0.0725 0.0725 0.0724 0.0724
2835.000000 0.0724 0.0724 0.0723 0.0723 0.0723
2830.000000 0.0723 0.0722 0.0722 0.0722 0.0722
2825.000000 0.0722 0.0722 0.0721 0.0721 0.0721
2820.000000 0.0721 0.0720 0.0720 0.0721 0.0722
2815.000000 0.0723 0.0724 0.0725 0.0726 0.0727
2810.000000 0.0728 0.0729 0.0733 0.0732 0.0731
2805.000000 0.0733 0.0735 0.0738 0.0741 0.0743
2800.000000 0.0746 0.0749 0.0752 0.0754 0.0757
2795.000000 0.0760 0.0763 0.0768 0.0774 0.0780
2790.000000 0.0786 0.0792 0.0798 0.0804 0.0810
2785.000000 0.0816 0.0822 0.0826 0.0833 0.0838
2780.000000 0.0843 0.0850 0.0856 0.0861 0.0867
2775.000000 0.0870 0.0874 0.0875 0.0876 0.0878
2770.000000 0.0880 0.0881 0.0883 0.0884 0.0886
2765.000000 0.0887 0.0888 0.0889 0.0891 0.0892
2760.000000 0.0892 0.0892 0.0893 0.0893 0.0893
2755.000000 0.0893 0.0895 0.0895 0.0896 0.0896
2750.000000 0.0896 0.0896 0.0896 0.0896 0.0897
2745.000000 0.0897 0.0899 0.0899 0.0900 0.0900
2740.000000 0.0900 0.0900 0.0900 0.0900 0.0900
2735.000000 0.0900 0.0900 0.0900 0.0900 0.0900
2730.000000 0.0900 0.0900 0.0901 0.0902 0.0903
2725.000000 0.0904 0.0906 0.0907 0.0908 0.0909
2720.000000 0.0910 0.0911 0.0912 0.0913 0.0915
2715.000000 0.0916 0.0917 0.0918 0.0920 0.0922
2710.000000 0.0925 0.0926 0.0930 0.0932 0.0935
2705.000000 0.0937 0.0939 0.0942 0.0945 0.0947
2700.000000 0.0952 0.0955 0.0958 0.0961 0.0965
2695.000000 0.0971 0.0978 0.0984 0.0989 0.0996
2690.000000 0.1003 0.1009 0.1015 0.1025 0.1035
2685.000000 0.1048 0.1061 0.1074 0.1087 0.1100
2680.000000 0.1113 0.1126 0.1139 0.1159 0.1179
2675.000000 0.1205 0.1231 0.1257 0.1284 0.1313
2670.000000 0.1342 0.1374 0.1406 0.1438 0.1470
2665.000000 0.1501 0.1533 0.1559 0.1586 0.1611
2660.000000 0.1635 0.1661 0.1686 0.1712 0.1737
2655.000000 0.1763 0.1789 0.1816 0.1844 0.1873
2650.000000 0.1902 0.1931 0.1961 0.1990 0.2020
2645.000000 0.2049 0.2079 0.2108 0.2137 0.2166
2640.000000 0.2196 0.2225 0.2254 0.2283 0.2312
2635.000000 0.2341 0.2370 0.2412 0.2454 0.2507
2630.000000 0.2560 0.2612 0.2664 0.2706 0.2748
2625.000000 0.2790 0.2833 0.2875 0.2917 0.2965
2620.000000 0.3013 0.3065 0.3117 0.3169 0.3222
2615.000000 0.3268 0.3316 0.3362 0.3409 0.3456
2610.000000 0.3503 0.3553 0.3604 0.3655 0.3706
2605.000000 0.3752 0.3799 0.3839 0.3880 0.3921
2600.000000 0.3962 0.4002 0.4043 0.4097 0.4151
2595.000000 0.4195 0.4240 0.4269 0.4298 0.4324
2590.000000 0.4350 0.4371 0.4392 0.4412 0.4433
2585.000000 0.4453 0.4474 0.4494 0.4514 0.4534
2580.000000 0.4555 0.4574 0.4593 0.4612 0.4631
2575.000000 0.4650 0.4669 0.4690 0.4710 0.4736
2570.000000 0.4760 0.4774 0.4788 0.4801 0.4814
2565.000000 0.4821 0.4828 0.4832 0.4836 0.4838
2560.000000 0.4865 0.4842 0.4844 0.4845 0.4846
2555.000000 0.4846 0.4847 0.4847 0.4847 0.4847
2550.000000 0.4847 0.4847 0.4848 0.4840 0.4832
2545.000000 0.4819 0.4807 0.4782 0.4757 0.4725
2540.000000 0.4693 0.4660 0.4628 0.4594 0.4560
2535.000000 0.4526 0.4493 0.4458 0.4423 0.4387
2530.000000 0.4351 0.4315 0.4280 0.4235 0.4190
2525.000000 0.4144 0.4098 0.4055 0.4012 0.3972
2520.000000 0.3932 0.3884 0.3836 0.3805 0.3775
2515.000000 0.3734 0.3694 0.3670 0.3647 0.3636
2510.000000 0.3625 0.3623 0.3622 0.3621 0.3620
2505.000000 0.3620 0.3620 0.3621 0.3623 0.3632
2500.000000 0.3641 0.3650 0.3659 0.3668 0.3677
2495.000000 0.3698 0.3718 0.3757 0.3795 0.3832
2490.000000 0.3872 0.3910 0.3950 0.3991 0.4030
2485.000000 0.4072 0.4112 0.4156 0.4199 0.4241
2480.000000 0.4284 0.4327 0.4370 0.4423 0.4476
2475.000000 0.4541 0.4607 0.4672 0.4737 0.4791
2470.000000 0.4846 0.4889 0.4933 0.4976 0.5020
2465.000000 0.5062 0.5107 0.5150 0.5194 0.5231
2460.000000 0.5268 0.5304 0.5341 0.5377 0.5412
2455.000000 0.5449 0.5486 0.5522 0.5558 0.5594
2450.000000 0.5631 0.5660 0.5692 0.5720 0.5748
2445.000000 0.5776 0.5804 0.5832 0.5860 0.5888
2440.000000 0.5916 0.5944 0.5972 0.5997 0.6023
2435.000000 0.6047 0.6072 0.6096 0.6120 0.6144
2430.000000 0.6169 0.6193 0.6218 0.6242 0.6267
2425.000000 0.6287 0.6307 0.6326 0.6345 0.6362
2420.000000 0.6382 0.6401 0.6419 0.6438 0.6457
2415.000000 0.6475 0.6495 0.6514 0.6534 0.6553
2410.000000 0.6571 0.6591 0.6611 0.6626 0.6643
2405.000000 0.6655 0.6668 0.6680 0.6693 0.6706
2400.000000 0.6718 0.6731 0.6744 0.6761 0.6778
2395.000000 0.6795 0.6811 0.6828 0.6846 0.6862
2390.000000 0.6880 0.6897 0.6914 0.6931 0.6948
2385.000000 0.6965 0.6984 0.7001 0.7018 0.7038
2380.000000 0.7057 0.7082 0.7107 0.7131 0.7156
2375.000000 0.7180 0.7205 0.7298 0.7392 0.7512
2370.000000 0.7634 0.7675 0.7715 0.7745 0.7774
2365.000000 0.7800 0.7825 0.7839 0.7851 0.7855
2360.000000 0.7858 0.7861 0.7864 0.7865 0.7868
2355.000000 0.7875 0.7884 0.7894 0.7905 0.7915
2350.000000 0.7925 0.7936 0.7947 0.7962 0.7978
2345.000000 0.7996 0.8012 0.8028 0.8044 0.8051
2340.000000 0.8060 0.8068 0.8075 0.8082 0.8088
2335.000000 0.8090 0.8093 0.8096 0.8099 0.8101
2330.000000 0.8104 0.8107 0.8110 0.8111 0.8115
2325.000000 0.8118 0.8121 0.8122 0.8125 0.8128
2320.000000 0.8131 0.8134 0.8137 0.8140 0.8144
2315.000000 0.8148 0.8151 0.8155 0.8158 0.8162
2310.000000 0.8167 0.8169 0.8174 0.8178 0.8182
2305.000000 0.8185 0.8189 0.8193 0.8197 0.8200
2300.000000 0.8204 0.8208 0.8212 0.8216 0.8220
2295.000000 0.8225 0.8231 0.8236 0.8242 0.8247
2290.000000 0.8253 0.8258 0.8264 0.8268 0.8275
2285.000000 0.8280 0.8286 0.8291 0.8297 0.8302
2280.000000 0.8308 0.8313 0.8318 0.8325 0.8331
2275.000000 0.8338 0.8345 0.8352 0.8359 0.8366
2270.000000 0.8373 0.8378 0.8383 0.8386 0.8389
2265.000000 0.8392 0.8395 0.8398 0.8401 0.8404
2260.000000 0.8407 0.8410 0.8413 0.8416 0.8418
2255.000000 0.8421 0.8424 0.8425 0.8428 0.8431
2250.000000 0.8434 0.8437 0.8440 0.8443 0.8447
2245.000000 0.8451 0.8456 0.8460 0.8465 0.8468
2240.000000 0.8474 0.8478 0.8483 0.8487 0.8492
2235.000000 0.8496 0.8500 0.8504 0.8509 0.8513
2230.000000 0.8518 0.8523 0.8528 0.8534 0.8541
2225.000000 0.8547 0.8554 0.8560 0.8567 0.8573
2220.000000 0.8580 0.8586 0.8593 0.8596 0.8600
2215.000000 0.8603 0.8606 0.8609 0.8612 0.8615
2210.000000 0.8618 0.8621 0.8625 0.8628 0.8631
2205.000000 0.8634 0.8637 0.8640 0.8643 0.8646
2200.000000 0.8650 0.8653 0.8656 0.8659 0.8662
2195.000000 0.8665 0.8668 0.8671 0.8674 0.8675
2190.000000 0.8678 0.8680 0.8682 0.8683 0.8685
2185.000000 0.8686 0.8688 0.8689 0.8691 0.8692
2180.000000 0.8694 0.8694 0.8695 0.8696 0.8697
2175.000000 0.8698 0.8699 0.8700 0.8701 0.8701
2170.000000 0.8702 0.8703 0.8704 0.8705 0.8706
2165.000000 0.8706 0.8707 0.8706 0.8705 0.8703
2160.000000 0.8701 0.8699 0.8697 0.8694 0.8692
2155.000000 0.8690 0.8688 0.8686 0.8684 0.8682
2150.000000 0.8680 0.8677 0.8675 0.8673 0.8671
2145.000000 0.8668 0.8667 0.8665 0.8663 0.8660
2140.000000 0.8658 0.8655 0.8653 0.8650 0.8648
2135.000000 0.8645 0.8643 0.8640 0.8638 0.8635
2130.000000 0.8633 0.8630 0.8628 0.8625 0.8623
2125.000000 0.8620 0.8617 0.8614 0.8612 0.8609
2120.000000 0.8607 0.8604 0.8602 0.8600 0.8599
2115.000000 0.8597 0.8596 0.8594 0.8592 0.8590
2110.000000 0.8589 0.8587 0.8585 0.8583 0.8582
2105.000000 0.8580 0.8578 0.8577 0.8575 0.8573
2100.000000 0.8571 0.8570 0.8568 0.8568 0.8568
2095.000000 0.8567 0.8566 0.8565 0.8565 0.8564
2090.000000 0.8564 0.8563 0.8563 0.8562 0.8562
2085.000000 0.8561 0.8560 0.8559 0.8559 0.8558
2080.000000 0.8558 0.8558 0.8559 0.8561 0.8563
2075.000000 0.8565 0.8567 0.8568 0.8571 0.8573
2070.000000 0.8575 0.8577 0.8578 0.8581 0.8583
2065.000000 0.8585 0.8587 0.8589 0.8591 0.8593
2060.000000 0.8595 0.8597 0.8599 0.8601 0.8603
2055.000000 0.8604 0.8606 0.8607 0.8608 0.8609
2050.000000 0.8611 0.8612 0.8613 0.8614 0.8615
2045.000000 0.8616 0.8617 0.8618 0.8620 0.8621
2040.000000 0.8621 0.8623 0.8624 0.8625 0.8627
2035.000000 0.8628 0.8628 0.8630 0.8631 0.8632
2030.000000 0.8634 0.8635 0.8636 0.8637 0.8638
2025.000000 0.8639 0.8640 0.8642 0.8644 0.8646
2020.000000 0.8648 0.8649 0.8651 0.8653 0.8655
2015.000000 0.8657 0.8659 0.8661 0.8663 0.8665
2010.000000 0.8667 0.8668 0.8670 0.8671 0.8674
2005.000000 0.8675 0.8678 0.8680 0.8682 0.8685
2000.000000 0.8689 0.8693 0.8697 0.8701 0.8703
1995.000000 0.8705 0.8706 0.8708 0.8710 0.8712
1990.000000 0.8714 0.8716 0.8718 0.8720 0.8721
1985.000000 0.8723 0.8724 0.8720 0.8716 0.8712
1980.000000 0.8709 0.8705 0.8701 0.8697 0.8694
1975.000000 0.8690 0.8686 0.8682 0.8675 0.8670
1970.000000 0.8664 0.8658 0.8652 0.8646 0.8640
1965.000000 0.8634 0.8628 0.8621 0.8617 0.8613
1960.000000 0.8608 0.8604 0.8600 0.8595 0.8591
1955.000000 0.8588 0.8586 0.8583 0.8581 0.8578
1950.000000 0.8575 0.8573 0.8571 0.8568 0.8566
1945.000000 0.8564 0.8563 0.8563 0.8562 0.8561
1940.000000 0.8561 0.8560 0.8559 0.8559 0.8558
1935.000000 0.8558 0.8557 0.8556 0.8556 0.8555
1930.000000 0.8555 0.8556 0.8558 0.8559 0.8560
1925.000000 0.8561 0.8563 0.8564 0.8565 0.8566
1920.000000 0.8568 0.8568 0.8570 0.8571 0.8573
1915.000000 0.8574 0.8577 0.8580 0.8582 0.8585
1910.000000 0.8588 0.8591 0.8593 0.8596 0.8599
1905.000000 0.8601 0.8604 0.8606 0.8607 0.8608
1900.000000 0.8609 0.8610 0.8611 0.8612 0.8613
1895.000000 0.8614 0.8615 0.8616 0.8617 0.8618
1890.000000 0.8618 0.8620 0.8621 0.8623 0.8624
1885.000000 0.8625 0.8625 0.8625 0.8625 0.8624
1880.000000 0.8623 0.8621 0.8621 0.8621 0.8620
1875.000000 0.8618 0.8616 0.8615 0.8613 0.8611
1870.000000 0.8609 0.8606 0.8604 0.8602 0.8600
1865.000000 0.8597 0.8596 0.8596 0.8596 0.8596
1860.000000 0.8596 0.8596 0.8596 0.8596 0.8596
1855.000000 0.8598 0.8599 0.8600 0.8602 0.8603
1850.000000 0.8604 0.8606 0.8607 0.8608 0.8608
1845.000000 0.8609 0.8609 0.8609 0.8610 0.8610
1840.000000 0.8610 0.8611 0.8611 0.8611 0.8612
1835.000000 0.8612 0.8613 0.8613 0.8613 0.8613
1830.000000 0.8613 0.8613 0.8614 0.8614 0.8614
1825.000000 0.8614 0.8614 0.8615 0.8615 0.8615
1820.000000 0.8615 0.8615 0.8615 0.8616 0.8616
1815.000000 0.8616 0.8616 0.8617 0.8617 0.8618
1810.000000 0.8618 0.8618 0.8618 0.8618 0.8620
1805.000000 0.8620 0.8621 0.8621 0.8621 0.8621
1800.000000 0.8621 0.8623 0.8623 0.8623 0.8624
1795.000000 0.8624 0.8624 0.8624 0.8623 0.8621
1790.000000 0.8620 0.8618 0.8617 0.8615 0.8614
1785.000000 0.8613 0.8611 0.8610 0.8608 0.8607
1780.000000 0.8606 0.8604 0.8603 0.8601 0.8600
1775.000000 0.8599 0.8597 0.8596 0.8594 0.8593
1770.000000 0.8592 0.8590 0.8589 0.8587 0.8586
1765.000000 0.8585 0.8583 0.8581 0.8578 0.8575
1760.000000 0.8574 0.8571 0.8568 0.8566 0.8564
1755.000000 0.8561 0.8559 0.8556 0.8554 0.8552
1750.000000 0.8549 0.8547 0.8544 0.8542 0.8539
1745.000000 0.8537 0.8534 0.8532 0.8528 0.8527
1740.000000 0.8524 0.8521 0.8520 0.8517 0.8514
1735.000000 0.8510 0.8507 0.8503 0.8499 0.8496
1730.000000 0.8492 0.8488 0.8484 0.8481 0.8477
1725.000000 0.8473 0.8468 0.8466 0.8460 0.8455
1720.000000 0.8450 0.8445 0.8440 0.8435 0.8430
1715.000000 0.8424 0.8417 0.8410 0.8404 0.8397
1710.000000 0.8390 0.8383 0.8375 0.8370 0.8363
1705.000000 0.8356 0.8349 0.8342 0.8335 0.8328
1700.000000 0.8321 0.8315 0.8308 0.8301 0.8294
1695.000000 0.8287 0.8280 0.8273 0.8266 0.8258
1690.000000 0.8251 0.8240 0.8228 0.8217 0.8205
1685.000000 0.8193 0.8182 0.8168 0.8157 0.8144
1680.000000 0.8131 0.8118 0.8106 0.8093 0.8081
1675.000000 0.8068 0.8055 0.8043 0.8030 0.8017
1670.000000 0.8005 0.7988 0.7968 0.7950 0.7931
1665.000000 0.7911 0.7893 0.7874 0.7856 0.7837
1660.000000 0.7815 0.7793 0.7769 0.7747 0.7722
1655.000000 0.7700 0.7676 0.7653 0.7628 0.7605
1650.000000 0.7581 0.7557 0.7530 0.7497 0.7462
1645.000000 0.7428 0.7395 0.7360 0.7322 0.7285
1640.000000 0.7248 0.7212 0.7186 0.7158 0.7132
1635.000000 0.7105 0.7083 0.7068 0.7053 0.7037
1630.000000 0.7021 0.7007 0.6991 0.6975 0.6961
1625.000000 0.6945 0.6928 0.6912 0.6897 0.6881
1620.000000 0.6865 0.6850 0.6833 0.6814 0.6795
1615.000000 0.6775 0.6757 0.6738 0.6719 0.6688
1610.000000 0.6653 0.6618 0.6571 0.6518 0.6475
1605.000000 0.6431 0.6385 0.6324 0.6262 0.6200
1600.000000 0.6132 0.6062 0.5984 0.5906 0.5804
1595.000000 0.5751 0.5705 0.5659 0.5615 0.5586
1590.000000 0.5564 0.5551 0.5537 0.5529 0.5504
1585.000000 0.5522 0.5521 0.5540 0.5575 0.5609
1580.000000 0.5638 0.5667 0.5696 0.5726 0.5755
1575.000000 0.5784 0.5812 0.5843 0.5873 0.5902
1570.000000 0.5932 0.5962 0.5992 0.6022 0.6052
1565.000000 0.6082 0.6114 0.6146 0.6178 0.6209
1560.000000 0.6241 0.6259 0.6277 0.6277 0.6278
1555.000000 0.6277 0.6286 0.6273 0.6270 0.6268
1550.000000 0.6265 0.6262 0.6250 0.6238 0.6226
1545.000000 0.6212 0.6201 0.6189 0.6173 0.6156
1540.000000 0.6140 0.6124 0.6108 0.6087 0.6064
1535.000000 0.6042 0.6019 0.5997 0.5974 0.5952
1530.000000 0.5929 0.5902 0.5865 0.5828 0.5791
1525.000000 0.5754 0.5718 0.5681 0.5642 0.5604
1520.000000 0.5566 0.5528 0.5496 0.5465 0.5433
1515.000000 0.5404 0.5381 0.5359 0.5339 0.5335
1510.000000 0.5320 0.5329 0.5329 0.5328 0.5330
1505.000000 0.5331 0.5332 0.5338 0.5346 0.5355
1500.000000 0.5362 0.5371 0.5378 0.5385 0.5393
1495.000000 0.5400 0.5408 0.5417 0.5427 0.5434
1490.000000 0.5439 0.5440 0.5441 0.5439 0.5429
1485.000000 0.5417 0.5401 0.5373 0.5346 0.5310
1480.000000 0.5253 0.5195 0.5126 0.5056 0.4992
1475.000000 0.4930 0.4869 0.4807 0.4747 0.4686
1470.000000 0.4626 0.4571 0.4520 0.4468 0.4419
1465.000000 0.4373 0.4326 0.4269 0.4212 0.4165
1460.000000 0.4120 0.4075 0.4034 0.4003 0.4007
1455.000000 0.3993 0.3994 0.4000 0.4012 0.4034
1450.000000 0.4058 0.4082 0.4106 0.4139 0.4178
1445.000000 0.4217 0.4257 0.4296 0.4358 0.4462
1440.000000 0.4612 0.4769 0.4874 0.4970 0.5035
1435.000000 0.5101 0.5157 0.5200 0.5244 0.5287
1430.000000 0.5328 0.5367 0.5404 0.5424 0.5435
1425.000000 0.5433 0.5412 0.5430 0.5420 0.5406
1420.000000 0.5392 0.5378 0.5357 0.5324 0.5292
1415.000000 0.5260 0.5215 0.5170 0.5122 0.5065
1410.000000 0.5019 0.4967 0.4991 0.4987 0.4987
1405.000000 0.4987 0.4988 0.4990 0.5012 0.5072
1400.000000 0.5100 0.5108 0.5115 0.5123 0.5128
1395.000000 0.5134 0.5141 0.5151 0.5160 0.5171
1390.000000 0.5183 0.5195 0.5207 0.5241 0.5279
1385.000000 0.5317 0.5362 0.5422 0.5480 0.5539
1380.000000 0.5622 0.5712 0.5802 0.5922 0.6076
1375.000000 0.6204 0.6305 0.6407 0.6505 0.6601
1370.000000 0.6685 0.6751 0.6818 0.6869 0.6914
1365.000000 0.6942 0.6960 0.6978 0.6997 0.7012
1360.000000 0.7025 0.7035 0.7045 0.7050 0.7062
1355.000000 0.7053 0.7048 0.7039 0.7015 0.6993
1350.000000 0.6969 0.6942 0.6907 0.6871 0.6836
1345.000000 0.6804 0.6774 0.6744 0.6714 0.6704
1340.000000 0.6695 0.6685 0.6675 0.6665 0.6626
1335.000000 0.6661 0.6661 0.6658 0.6664 0.6669
1330.000000 0.6678 0.6689 0.6699 0.6718 0.6741
1325.000000 0.6762 0.6785 0.6807 0.6828 0.6851
1320.000000 0.6872 0.6895 0.6915 0.6938 0.6960
1315.000000 0.6982 0.7004 0.7025 0.7047 0.7068
1310.000000 0.7092 0.7115 0.7139 0.7162 0.7186
1305.000000 0.7208 0.7230 0.7251 0.7268 0.7281
1300.000000 0.7293 0.7300 0.7308 0.7308 0.7308
1295.000000 0.7307 0.7298 0.7289 0.7278 0.7255
1290.000000 0.7233 0.7167 0.7115 0.7068 0.7026
1285.000000 0.6995 0.6961 0.6928 0.6908 0.6887
1280.000000 0.6865 0.6826 0.6836 0.6844 0.6869
1275.000000 0.6908 0.6949 0.6991 0.7033 0.7075
1270.000000 0.7122 0.7171 0.7221 0.7271 0.7317
1265.000000 0.7361 0.7406 0.7450 0.7495 0.7525
1260.000000 0.7554 0.7583 0.7611 0.7641 0.7669
1255.000000 0.7699 0.7714 0.7728 0.7741 0.7755
1250.000000 0.7768 0.7782 0.7791 0.7797 0.7803
1245.000000 0.7808 0.7815 0.7821 0.7828 0.7834
1240.000000 0.7840 0.7846 0.7850 0.7853 0.7855
1235.000000 0.7858 0.7860 0.7862 0.7865 0.7868
1230.000000 0.7869 0.7872 0.7875 0.7878 0.7881
1225.000000 0.7883 0.7885 0.7886 0.7887 0.7864
1220.000000 0.7889 0.7890 0.7890 0.7891 0.7889
1215.000000 0.7888 0.7886 0.7885 0.7883 0.7882
1210.000000 0.7880 0.7878 0.7876 0.7872 0.7865
1205.000000 0.7860 0.7853 0.7846 0.7828 0.7811
1200.000000 0.7793 0.7775 0.7756 0.7738 0.7721
1195.000000 0.7707 0.7693 0.7678 0.7664 0.7650
1190.000000 0.7636 0.7621 0.7608 0.7594 0.7580
1185.000000 0.7562 0.7546 0.7530 0.7512 0.7496
1180.000000 0.7478 0.7464 0.7448 0.7432 0.7417
1175.000000 0.7401 0.7388 0.7375 0.7362 0.7351
1170.000000 0.7338 0.7330 0.7322 0.7276 0.7317
1165.000000 0.7319 0.7325 0.7335 0.7345 0.7355
1160.000000 0.7364 0.7378 0.7395 0.7411 0.7426
1155.000000 0.7448 0.7468 0.7490 0.7511 0.7531
1150.000000 0.7548 0.7565 0.7583 0.7598 0.7608
1145.000000 0.7618 0.7625 0.7625 0.7626 0.7625
1140.000000 0.7601 0.7578 0.7554 0.7506 0.7451
1135.000000 0.7398 0.7322 0.7247 0.7165 0.7082
1130.000000 0.6999 0.6915 0.6836 0.6762 0.6704
1125.000000 0.6665 0.6680 0.6680 0.6689 0.6767
1120.000000 0.6847 0.6941 0.7035 0.7126 0.7214
1115.000000 0.7301 0.7400 0.7511 0.7611 0.7688
1110.000000 0.7746 0.7784 0.7821 0.7844 0.7865
1105.000000 0.7885 0.7906 0.7914 0.7922 0.7931
1100.000000 0.7940 0.7948 0.7951 0.7953 0.7954
1095.000000 0.7954 0.7955 0.7956 0.7957 0.7958
1090.000000 0.7958 0.7958 0.7958 0.7958 0.7958
1085.000000 0.7957 0.7956 0.7956 0.7955 0.7955
1080.000000 0.7954 0.7953 0.7951 0.7951 0.7950
1075.000000 0.7948 0.7940 0.7933 0.7925 0.7918
1070.000000 0.7907 0.7892 0.7876 0.7861 0.7825
1065.000000 0.7765 0.7708 0.7661 0.7600 0.7438
1060.000000 0.7330 0.7214 0.7082 0.6942 0.6821
1055.000000 0.6725 0.6622 0.6512 0.6255 0.6255
1050.000000 0.6254 0.6259 0.6269 0.6323 0.6398
1045.000000 0.6480 0.6564 0.6649 0.6734 0.6824
1040.000000 0.6914 0.6995 0.7051 0.7108 0.7165
1035.000000 0.7214 0.7261 0.7308 0.7357 0.7401
1030.000000 0.7447 0.7487 0.7525 0.7561 0.7593
1025.000000 0.7608 0.7618 0.7618 0.7619 0.7604
1020.000000 0.7583 0.7561 0.7522 0.7478 0.7434
1015.000000 0.7393 0.7349 0.7282 0.7218 0.7161
1010.000000 0.7028 0.6826 0.6625 0.6424 0.6154
1005.000000 0.6165 0.6175 0.6193 0.6543 0.6896
1000.000000 0.7248 0.7493 0.7575 0.7658 0.7722
995.000000 0.7771 0.7818 0.7850 0.7862 0.7894
990.000000 0.7874 0.7876 0.7868 0.7860 0.7851
985.000000 0.7841 0.7819 0.7798 0.7776 0.7755
980.000000 0.7715 0.7661 0.7606 0.7549 0.7395
975.000000 0.7237 0.7061 0.6818 0.6504 0.6191
970.000000 0.5878 0.5565 0.5422 0.5419 0.5410
965.000000 0.5444 0.5651 0.5876 0.6101 0.6326
960.000000 0.6551 0.6775 0.7001 0.7178 0.7258
955.000000 0.7338 0.7390 0.7435 0.7478 0.7507
950.000000 0.7524 0.7541 0.7558 0.7574 0.7588
945.000000 0.7600 0.7611 0.7624 0.7637 0.7649
940.000000 0.7661 0.7672 0.7685 0.7697 0.7708
935.000000 0.7721 0.7735 0.7748 0.7760 0.7772
930.000000 0.7786 0.7799 0.7811 0.7824 0.7837
925.000000 0.7848 0.7860 0.7871 0.7884 0.7895
920.000000 0.7907 0.7918 0.7930 0.7942 0.7955
915.000000 0.7971 0.7988 0.8004 0.8019 0.8037
910.000000 0.8053 0.8067 0.8078 0.8092 0.8104
905.000000 0.8117 0.8128 0.8141 0.8151 0.8162
900.000000 0.8174 0.8186 0.8196 0.8203 0.8210
895.000000 0.8218 0.8225 0.8224 0.8224 0.8223
890.000000 0.8213 0.8204 0.8195 0.8185 0.8161
885.000000 0.8137 0.8111 0.8088 0.8028 0.7965
880.000000 0.7921 0.7858 0.7805 0.7771 0.7761
875.000000 0.7751 0.7751 0.7753 0.7754 0.7769
870.000000 0.7817 0.7850 0.7874 0.7918 0.7890
865.000000 0.7895 0.7878 0.7849 0.7806 0.7762
860.000000 0.7708 0.7621 0.7601 0.7611 0.7606
855.000000 0.7615 0.7635 0.7660 0.7699 0.7778
850.000000 0.7851 0.7911 0.7971 0.8028 0.8069
845.000000 0.8110 0.8149 0.8189 0.8228 0.8237
840.000000 0.8246 0.8255 0.8263 0.8268 0.8271
835.000000 0.8277 0.8288 0.8283 0.8281 0.8278
830.000000 0.8277 0.8275 0.8271 0.8262 0.8252
825.000000 0.8242 0.8232 0.8210 0.8175 0.8135
820.000000 0.8088 0.8042 0.7995 0.7949 0.7904
815.000000 0.7858 0.7811 0.7732 0.7647 0.7568
810.000000 0.7444 0.7242 0.7171 0.7101 0.7046
805.000000 0.7003 0.6991 0.6978 0.6971 0.6961
800.000000 0.6968 0.6969 0.6969 0.6969 0.6971
795.000000 0.6983 0.7041 0.7128 0.7228 0.7358
790.000000 0.7448 0.7536 0.7624 0.7690 0.7753
785.000000 0.7815 0.7880 0.7935 0.7989 0.8044
780.000000 0.8089 0.8128 0.8167 0.8190 0.8206
775.000000 0.8221 0.8238 0.8254 0.8257 0.8256
770.000000 0.8255 0.8255 0.8254 0.8253 0.8252
765.000000 0.8251 0.8251 0.8249 0.8246 0.8244
760.000000 0.8241 0.8238 0.8235 0.8233 0.8230
755.000000 0.8227 0.8224 0.8221 0.8218 0.8241
750.000000 0.8213 0.8211 0.8208 0.8206 0.8204
745.000000 0.8201 0.8199 0.8197 0.8194 0.8192
740.000000 0.8190 0.8188 0.8185 0.8182 0.8178
735.000000 0.8175 0.8171 0.8168 0.8164 0.8161
730.000000 0.8157 0.8153 0.8150 0.8146 0.8142
725.000000 0.8139 0.8135 0.8131 0.8128 0.8121
720.000000 0.8111 0.8101 0.8092 0.8082 0.8071
715.000000 0.8061 0.8051 0.8042 0.8032 0.8021
710.000000 0.8011 0.8001 0.7992 0.7982 0.7971
705.000000 0.7960 0.7947 0.7933 0.7919 0.7907
700.000000 0.7894 0.7880 0.7867 0.7854 0.7841
695.000000 0.7828 0.7814 0.7801 0.7788 0.7775
690.000000 0.7761 0.7748 0.7735 0.7721 0.7707
685.000000 0.7692 0.7676 0.7662 0.7648 0.7633
680.000000 0.7618 0.7603 0.7588 0.7572 0.7558
675.000000 0.7543 0.7526 0.7511 0.7496 0.7480
670.000000 0.7464 0.7448 0.7432 0.7417 0.7401
665.000000 0.7385 0.7368 0.7353 0.7337 0.7321
660.000000 0.7305 0.7289 0.7272 0.7254 0.7234
655.000000 0.7214 0.7194 0.7175 0.7161 0.7147
650.000000 0.7132 0.7118 0.7103 0.7089 0.7074
645.000000 0.7060 0.7045 0.7031 0.7015 0.7001
640.000000 0.6987 0.6972 0.6958 0.6944 0.6928
635.000000 0.6915 0.6900 0.6886 0.6869 0.6854
630.000000 0.6838 0.6821 0.6806 0.6790 0.6775
625.000000 0.6762 0.6750 0.6737 0.6724 0.6711
620.000000 0.6698 0.6685 0.6671 0.6658 0.6646
615.000000 0.6633 0.6621 0.6612 0.6605 0.6597
610.000000 0.6589 0.6581 0.6572 0.6567 0.6560
605.000000 0.6553 0.6546 0.6542 0.6538 0.6534
600.000000 0.6530 0.6525 0.6521 0.6517 0.6512
595.000000 0.6508 0.6505 0.6501 0.6496 0.6492
590.000000 0.6469 0.6484 0.6480 0.6475 0.6471
585.000000 0.6472 0.6474 0.6475 0.6476 0.6478
580.000000 0.6478 0.6480 0.6481 0.6483 0.6484
575.000000 0.6485 0.6487 0.6491 0.6495 0.6499
570.000000 0.6503 0.6507 0.6511 0.6515 0.6518
565.000000 0.6522 0.6526 0.6531 0.6534 0.6538
560.000000 0.6542 0.6546 0.6549 0.6553 0.6557
555.000000 0.6560 0.6564 0.6567 0.6571 0.6571
550.000000 0.6571 0.6572 0.6572 0.6572 0.6574
545.000000 0.6574 0.6575 0.6575 0.6575 0.6575
540.000000 0.6575 0.6576 0.6576 0.6576 0.6576
535.000000 0.6576 0.6576 0.6576 0.6576 0.6576
530.000000 0.6591 0.6571 0.6568 0.6562 0.6558
525.000000 0.6551 0.6539 0.6528 0.6515 0.6495
520.000000 0.6475 0.6441 0.6397 0.6353 0.6309
515.000000 0.6264 0.6200 0.6135 0.6071 0.6017
510.000000 0.5962 0.5918 0.5874 0.5855 0.5843
505.000000 0.5835 0.5825 0.5843 0.5851 0.5862
500.000000 0.5898 0.5932 0.5969 0.6010 0.6052
495.000000 0.6093 0.6135 0.6176 0.6216 0.6256
490.000000 0.6296 0.6336 0.6375 0.6411 0.6446
485.000000 0.6481 0.6503 0.6525 0.6546 0.6574
480.000000 0.6551 0.6550 0.6547 0.6545 0.6537
475.000000 0.6508 0.6480 0.6425 0.6344 0.6273
470.000000 0.6219 0.6164 0.6114 0.6064 0.6003
465.000000 0.5912 0.5889 0.5881 0.5881 0.5881
460.000000 0.5890 0.5946 0.5984 0.6014 0.6121
455.000000 0.6062 0.6086 0.6092 0.6097 0.6096
450.000000 0.6080 0.6062 0.6041 0.6019 0.5997
445.000000 0.5974 0.5948 0.5921 0.5894 0.5866
440.000000 0.5839 0.5810 0.5783 0.5755 0.5719
435.000000 0.5681 0.5643 0.5605 0.5572 0.5541
430.000000 0.5510 0.5479 0.5454 0.5433 0.5412
425.000000 0.5391 0.5376 0.5369 0.5362 0.5355
420.000000 0.5388 0.5346 0.5343 0.5340 0.5337
415.000000 0.5334 0.5356 0.5378 0.5400 0.5422
410.000000 0.5451 0.5501 0.5551 0.5599 0.5642
405.000000 0.5685 0.5729 0.5773 0.5816
##END=
