##TITLE=Methanesulfonic acid, cmpd with 3-ethyl-2-(1-methyl-2-piperidyl)indole
##JCAMP-DX=4.24
##DATA TYPE=INFRARED SPECTRUM
##CLASS=COBLENTZ III
##ORIGIN=SMITH, KLINE & FRENCH LABS.
##OWNER=Copyright (C) 1987 by the Coblentz Society
Collection (C) 2018 copyright by the U.S. Secretary of Commerce
on behalf of the United States of America. All rights reserved.
##DATE=1957/01/21
##NAMES=3-ethyl-2-(1-methyl-2-piperidinyl)-1H-indole methanesulfonate
##MOLFORM=C17 H26 N2 O3 S
##SOURCE REFERENCE=COBLENTZ NO. 7330
##$NIST ID=B6007330
##$NIST SOURCE=COBLENTZ
##$NIST IMAGE=cob7330
##SPECTROMETER/DATA SYSTEM=PERKIN-ELMER 21 (GRATING)
##INSTRUMENT PARAMETERS=NaCl PRISM
##STATE=SOLID (OIL MULL)
$$SPECTRAL CONTAMINATION DUE TO OIL AROUND 2900, 1460, 1370 CM^-^1
$$ SPECTRAL FEATURE AT 1075 CM^-^1 IS AN ARTIFACT CAUSED BY A CHANGE IN RECORDING PARAMETER
##SAMPLING PROCEDURE=TRANSMISSION
##RESOLUTION=2
##DATA PROCESSING=DIGITIZED BY COBLENTZ SOCIETY (BATCH II) FROM HARD COPY
##XUNITS=1/CM
##YUNITS=TRANSMITTANCE
##XFACTOR=1.0
##YFACTOR=1
##FIRSTX=654
##LASTX=4000
##FIRSTY=0.7118
##MAXX=4000
##MINX=654
##MAXY=0.8467
##MINY=0.0476
##NPOINTS=3347
##XYDATA=(X++(Y..Y))
654.000000 0.7118 0.7100 0.7093 0.7087 0.7080
659.000000 0.7071 0.7056 0.7026 0.6992 0.7020
664.000000 0.7158 0.7204 0.7222 0.7240 0.7263
669.000000 0.7293 0.7338 0.7408 0.7460 0.7467
674.000000 0.7471 0.7480 0.7497 0.7520 0.7542
679.000000 0.7546 0.7529 0.7516 0.7536 0.7525
684.000000 0.7501 0.7502 0.7499 0.7494 0.7490
689.000000 0.7505 0.7543 0.7582 0.7622 0.7663
694.000000 0.7705 0.7747 0.7754 0.7740 0.7720
699.000000 0.7700 0.7686 0.7686 0.7756 0.7739
704.000000 0.7609 0.7613 0.7615 0.7607 0.7585
709.000000 0.7547 0.7509 0.7454 0.7388 0.7308
714.000000 0.7225 0.7143 0.7060 0.6976 0.6894
719.000000 0.6809 0.6726 0.6648 0.6634 0.6636
724.000000 0.6632 0.6621 0.6603 0.6554 0.6501
729.000000 0.6456 0.6428 0.6405 0.6389 0.6372
734.000000 0.6360 0.6386 0.6338 0.6268 0.6189
739.000000 0.6168 0.6196 0.6209 0.6179 0.6208
744.000000 0.6283 0.6363 0.6436 0.6468 0.6468
749.000000 0.6460 0.6425 0.6399 0.6387 0.6381
754.000000 0.6385 0.6371 0.6290 0.6138 0.5970
759.000000 0.5643 0.5256 0.4807 0.4358 0.3913
764.000000 0.3472 0.3456 0.3844 0.3926 0.3927
769.000000 0.3565 0.2777 0.1973 0.1767 0.1793
774.000000 0.2129 0.3023 0.3914 0.4803 0.5503
779.000000 0.6021 0.6188 0.6302 0.6401 0.6503
784.000000 0.6659 0.6935 0.7167 0.7328 0.7471
789.000000 0.7572 0.7653 0.7735 0.7821 0.7891
794.000000 0.7933 0.7962 0.8022 0.8086 0.8100
799.000000 0.8106 0.8111 0.8121 0.8133 0.8173
804.000000 0.8218 0.8226 0.8208 0.8189 0.8178
809.000000 0.8189 0.8272 0.8309 0.8314 0.8353
814.000000 0.8346 0.8293 0.8280 0.8298 0.8330
819.000000 0.8343 0.8335 0.8319 0.8305 0.8297
824.000000 0.8303 0.8344 0.8355 0.8319 0.8242
829.000000 0.8256 0.8290 0.8281 0.8242 0.8239
834.000000 0.8261 0.8289 0.8322 0.8339 0.8354
839.000000 0.8364 0.8368 0.8369 0.8370 0.8371
844.000000 0.8367 0.8357 0.8343 0.8315 0.8287
849.000000 0.8256 0.8210 0.8183 0.8171 0.8178
854.000000 0.8231 0.8291 0.8348 0.8395 0.8398
859.000000 0.8398 0.8398 0.8398 0.8397 0.8396
864.000000 0.8394 0.8383 0.8371 0.8356 0.8317
869.000000 0.8256 0.8253 0.8257 0.8152 0.8028
874.000000 0.7897 0.7771 0.7603 0.7493 0.7506
879.000000 0.7571 0.7869 0.8070 0.8098 0.8102
884.000000 0.7892 0.7671 0.7443 0.7305 0.7303
889.000000 0.7291 0.7917 0.8099 0.8155 0.8189
894.000000 0.8222 0.8240 0.8257 0.8274 0.8269
899.000000 0.8239 0.8233 0.8282 0.8325 0.8310
904.000000 0.8207 0.8183 0.8227 0.8231 0.8162
909.000000 0.8067 0.8033 0.8004 0.7981 0.7961
914.000000 0.7939 0.7916 0.7892 0.7860 0.7824
919.000000 0.7770 0.7709 0.7613 0.7475 0.7348
924.000000 0.7293 0.7257 0.7094 0.6861 0.6609
929.000000 0.6329 0.5841 0.5331 0.4892 0.4883
934.000000 0.5306 0.5979 0.6652 0.7318 0.7501
939.000000 0.7592 0.7648 0.7684 0.7706 0.7718
944.000000 0.7731 0.7695 0.7652 0.7598 0.7531
949.000000 0.7358 0.7236 0.7085 0.6903 0.6812
954.000000 0.6775 0.6760 0.6749 0.6734 0.6967
959.000000 0.7276 0.7342 0.7352 0.7330 0.7179
964.000000 0.6901 0.6624 0.6347 0.5778 0.5493
969.000000 0.5482 0.5521 0.5630 0.5949 0.6272
974.000000 0.6595 0.6917 0.7074 0.7129 0.7157
979.000000 0.7161 0.7025 0.6854 0.6680 0.6382
984.000000 0.6086 0.5896 0.5900 0.6034 0.6471
989.000000 0.6907 0.7278 0.7401 0.7513 0.7585
994.000000 0.7600 0.7598 0.7616 0.7680 0.7705
999.000000 0.7710 0.7688 0.7657 0.7613 0.7555
1004.000000 0.7486 0.7405 0.7294 0.7254 0.7258
1009.000000 0.7285 0.7343 0.7444 0.7503 0.7510
1014.000000 0.7496 0.7475 0.7444 0.7400 0.7349
1019.000000 0.7285 0.7205 0.7111 0.6979 0.6755
1024.000000 0.6474 0.6097 0.5859 0.5498 0.4501
1029.000000 0.3693 0.2886 0.2082 0.1400 0.1319
1034.000000 0.1261 0.1073 0.1035 0.1048 0.1179
1039.000000 0.1449 0.1722 0.2114 0.3016 0.3933
1044.000000 0.4848 0.5762 0.6690 0.6873 0.6924
1049.000000 0.6944 0.6938 0.6889 0.6732 0.6560
1054.000000 0.6389 0.6218 0.6048 0.5929 0.5893
1059.000000 0.5886 0.5874 0.5895 0.5935 0.6006
1064.000000 0.6117 0.6403 0.6784 0.6905 0.6910
1069.000000 0.6915 0.6836 0.6657 0.6530 0.6235
1074.000000 0.5780 0.6128 0.5565 0.6383 0.6697
1079.000000 0.6700 0.6471 0.6345 0.6219 0.6180
1084.000000 0.6202 0.6366 0.6541 0.6698 0.6733
1089.000000 0.6743 0.6720 0.6717 0.6699 0.6673
1094.000000 0.6634 0.6582 0.6509 0.6447 0.6372
1099.000000 0.6245 0.5934 0.5712 0.5661 0.5656
1104.000000 0.5641 0.5850 0.6097 0.6303 0.6352
1109.000000 0.6359 0.6354 0.6328 0.6335 0.6320
1114.000000 0.6301 0.6280 0.6240 0.6198 0.6139
1119.000000 0.6077 0.5993 0.5893 0.5647 0.5387
1124.000000 0.5127 0.4867 0.4608 0.4349 0.4090
1129.000000 0.3833 0.3582 0.3423 0.3259 0.3067
1134.000000 0.2820 0.2230 0.1763 0.1585 0.1406
1139.000000 0.1260 0.1193 0.1173 0.1172 0.1228
1144.000000 0.1348 0.1471 0.1541 0.1601 0.1660
1149.000000 0.1839 0.2120 0.2402 0.2683 0.2962
1154.000000 0.3242 0.3522 0.3801 0.4076 0.4277
1159.000000 0.4368 0.4407 0.4417 0.4395 0.4388
1164.000000 0.4365 0.4342 0.4310 0.4270 0.4231
1169.000000 0.4203 0.4188 0.4183 0.4204 0.4279
1174.000000 0.4616 0.4979 0.5173 0.5232 0.5264
1179.000000 0.5280 0.5295 0.5286 0.5282 0.5264
1184.000000 0.5241 0.5215 0.5188 0.5156 0.5121
1189.000000 0.5098 0.5078 0.5075 0.5074 0.5078
1194.000000 0.5085 0.5093 0.5101 0.5110 0.5117
1199.000000 0.5104 0.5087 0.5060 0.5030 0.4997
1204.000000 0.4953 0.4908 0.4859 0.4807 0.4750
1209.000000 0.4672 0.4538 0.4335 0.4133 0.3930
1214.000000 0.3728 0.3526 0.3346 0.3222 0.3041
1219.000000 0.2879 0.2726 0.2589 0.2455 0.2320
1224.000000 0.2169 0.2005 0.1859 0.1704 0.1514
1229.000000 0.1084 0.0935 0.0845 0.0784 0.0765
1234.000000 0.0758 0.0762 0.0761 0.0782 0.0819
1239.000000 0.0885 0.1126 0.1471 0.1813 0.2154
1244.000000 0.2495 0.2836 0.3176 0.3598 0.3769
1249.000000 0.3939 0.4110 0.4280 0.4449 0.4619
1254.000000 0.4789 0.4957 0.5126 0.5312 0.5501
1259.000000 0.5634 0.5728 0.5821 0.5907 0.5991
1264.000000 0.6070 0.6128 0.6183 0.6238 0.6288
1269.000000 0.6319 0.6346 0.6375 0.6388 0.6396
1274.000000 0.6404 0.6415 0.6437 0.6462 0.6537
1279.000000 0.6629 0.6707 0.6761 0.6794 0.6818
1284.000000 0.6821 0.6816 0.6814 0.6805 0.6795
1289.000000 0.6782 0.6758 0.6733 0.6708 0.6652
1294.000000 0.6592 0.6536 0.6480 0.6417 0.6272
1299.000000 0.6098 0.5937 0.5796 0.5655 0.5542
1304.000000 0.5480 0.5472 0.5471 0.5485 0.5511
1309.000000 0.5612 0.5729 0.5845 0.5960 0.6077
1314.000000 0.6193 0.6308 0.6365 0.6361 0.6359
1319.000000 0.6314 0.6147 0.5945 0.5744 0.5557
1324.000000 0.5491 0.5469 0.5505 0.5650 0.5950
1329.000000 0.6249 0.6547 0.6738 0.6766 0.6730
1334.000000 0.6564 0.6322 0.6080 0.5838 0.5671
1339.000000 0.5642 0.5643 0.5649 0.5617 0.5755
1344.000000 0.5877 0.6000 0.6123 0.6245 0.6367
1349.000000 0.6458 0.6484 0.6487 0.6487 0.6495
1354.000000 0.6477 0.6467 0.6437 0.6296 0.6094
1359.000000 0.5892 0.5691 0.5490 0.5289 0.5089
1364.000000 0.4897 0.4787 0.4717 0.4655 0.4590
1369.000000 0.4521 0.4496 0.4479 0.4478 0.4488
1374.000000 0.4504 0.4583 0.4789 0.5008 0.5226
1379.000000 0.5445 0.5664 0.5911 0.6329 0.6451
1384.000000 0.6551 0.6637 0.6736 0.6867 0.6998
1389.000000 0.7125 0.7210 0.7267 0.7322 0.7354
1394.000000 0.7380 0.7405 0.7432 0.7459 0.7468
1399.000000 0.7474 0.7473 0.7473 0.7472 0.7468
1404.000000 0.7458 0.7437 0.7416 0.7396 0.7372
1409.000000 0.7343 0.7315 0.7284 0.7234 0.7168
1414.000000 0.7010 0.6894 0.6824 0.6777 0.6747
1419.000000 0.6723 0.6703 0.6684 0.6669 0.6651
1424.000000 0.6611 0.6485 0.6268 0.6049 0.5830
1429.000000 0.5611 0.5392 0.5174 0.4965 0.4803
1434.000000 0.4602 0.4401 0.4245 0.4129 0.4068
1439.000000 0.4019 0.3964 0.3866 0.3754 0.3645
1444.000000 0.3556 0.3477 0.3395 0.3203 0.2950
1449.000000 0.2698 0.2437 0.2350 0.2286 0.2154
1454.000000 0.1940 0.1831 0.1769 0.1746 0.1732
1459.000000 0.1729 0.1737 0.1744 0.1758 0.1782
1464.000000 0.1861 0.2016 0.2188 0.2412 0.2642
1469.000000 0.2871 0.3100 0.3329 0.3557 0.3785
1474.000000 0.4013 0.4239 0.4476 0.4671 0.4706
1479.000000 0.4741 0.4772 0.4803 0.4837 0.4903
1484.000000 0.5019 0.5254 0.5540 0.5825 0.6109
1489.000000 0.6394 0.6678 0.6944 0.7112 0.7165
1494.000000 0.7177 0.7181 0.7177 0.7170 0.7156
1499.000000 0.7135 0.7116 0.7107 0.7104 0.7104
1504.000000 0.7263 0.7564 0.7857 0.7881 0.7881
1509.000000 0.7881 0.7881 0.7883 0.7887 0.7891
1514.000000 0.7895 0.7899 0.7902 0.7923 0.7998
1519.000000 0.8043 0.8061 0.8065 0.8068 0.8068
1524.000000 0.8065 0.8060 0.8055 0.8049 0.8040
1529.000000 0.8030 0.8021 0.8020 0.8020 0.8026
1534.000000 0.8041 0.8055 0.8066 0.8074 0.8080
1539.000000 0.8079 0.8076 0.8072 0.8064 0.8052
1544.000000 0.8040 0.8028 0.8013 0.7998 0.7982
1549.000000 0.7967 0.7953 0.7941 0.7929 0.7917
1554.000000 0.7906 0.7894 0.7884 0.7877 0.7868
1559.000000 0.7863 0.7862 0.7864 0.7866 0.7868
1564.000000 0.7870 0.7872 0.7886 0.7911 0.7935
1569.000000 0.7958 0.7981 0.8003 0.8025 0.8035
1574.000000 0.8040 0.8044 0.8049 0.8054 0.8056
1579.000000 0.8048 0.8038 0.8027 0.8017 0.8006
1584.000000 0.7995 0.7983 0.7972 0.7973 0.7979
1589.000000 0.7988 0.8011 0.8045 0.8080 0.8112
1594.000000 0.8144 0.8167 0.8173 0.8170 0.8167
1599.000000 0.8163 0.8156 0.8144 0.8132 0.8119
1604.000000 0.8108 0.8104 0.8110 0.8112 0.8111
1609.000000 0.8110 0.8109 0.8108 0.8107 0.8102
1614.000000 0.8079 0.8056 0.8033 0.8005 0.7973
1619.000000 0.7943 0.7919 0.7916 0.7917 0.7919
1624.000000 0.7927 0.7946 0.7969 0.7988 0.8001
1629.000000 0.8014 0.8025 0.8030 0.8034 0.8038
1634.000000 0.8050 0.8061 0.8084 0.8122 0.8150
1639.000000 0.8162 0.8169 0.8177 0.8185 0.8193
1644.000000 0.8200 0.8206 0.8213 0.8219 0.8227
1649.000000 0.8229 0.8232 0.8235 0.8237 0.8239
1654.000000 0.8242 0.8244 0.8246 0.8248 0.8249
1659.000000 0.8250 0.8250 0.8250 0.8251 0.8251
1664.000000 0.8252 0.8252 0.8253 0.8254 0.8254
1669.000000 0.8253 0.8253 0.8253 0.8252 0.8251
1674.000000 0.8251 0.8250 0.8249 0.8248 0.8248
1679.000000 0.8247 0.8247 0.8246 0.8244 0.8242
1684.000000 0.8239 0.8237 0.8234 0.8231 0.8231
1689.000000 0.8229 0.8228 0.8227 0.8226 0.8224
1694.000000 0.8223 0.8221 0.8221 0.8219 0.8218
1699.000000 0.8217 0.8216 0.8214 0.8214 0.8215
1704.000000 0.8215 0.8216 0.8217 0.8218 0.8219
1709.000000 0.8220 0.8221 0.8221 0.8223 0.8228
1714.000000 0.8234 0.8240 0.8246 0.8253 0.8259
1719.000000 0.8265 0.8272 0.8278 0.8284 0.8292
1724.000000 0.8299 0.8306 0.8314 0.8321 0.8328
1729.000000 0.8335 0.8345 0.8355 0.8365 0.8375
1734.000000 0.8385 0.8392 0.8397 0.8397 0.8395
1739.000000 0.8392 0.8390 0.8387 0.8385 0.8382
1744.000000 0.8380 0.8378 0.8376 0.8374 0.8374
1749.000000 0.8379 0.8385 0.8392 0.8399 0.8406
1754.000000 0.8414 0.8421 0.8428 0.8436 0.8443
1759.000000 0.8446 0.8449 0.8452 0.8454 0.8456
1764.000000 0.8457 0.8467 0.8451 0.8448 0.8444
1769.000000 0.8440 0.8436 0.8432 0.8427 0.8422
1774.000000 0.8416 0.8410 0.8404 0.8399 0.8393
1779.000000 0.8387 0.8382 0.8377 0.8372 0.8366
1784.000000 0.8361 0.8355 0.8350 0.8344 0.8340
1789.000000 0.8335 0.8330 0.8328 0.8328 0.8328
1794.000000 0.8328 0.8327 0.8327 0.8327 0.8326
1799.000000 0.8326 0.8325 0.8325 0.8325 0.8324
1804.000000 0.8324 0.8324 0.8325 0.8326 0.8326
1809.000000 0.8327 0.8327 0.8328 0.8328 0.8329
1814.000000 0.8329 0.8330 0.8329 0.8327 0.8326
1819.000000 0.8324 0.8323 0.8321 0.8321 0.8318
1824.000000 0.8315 0.8312 0.8309 0.8306 0.8303
1829.000000 0.8301 0.8301 0.8302 0.8304 0.8306
1834.000000 0.8308 0.8310 0.8312 0.8314 0.8318
1839.000000 0.8323 0.8329 0.8335 0.8341 0.8347
1844.000000 0.8353 0.8358 0.8364 0.8368 0.8371
1849.000000 0.8375 0.8379 0.8381 0.8381 0.8378
1854.000000 0.8375 0.8372 0.8368 0.8366 0.8363
1859.000000 0.8360 0.8356 0.8353 0.8350 0.8346
1864.000000 0.8336 0.8322 0.8306 0.8291 0.8278
1869.000000 0.8269 0.8261 0.8254 0.8248 0.8241
1874.000000 0.8234 0.8228 0.8225 0.8223 0.8222
1879.000000 0.8220 0.8219 0.8218 0.8216 0.8215
1884.000000 0.8213 0.8211 0.8211 0.8211 0.8211
1889.000000 0.8211 0.8211 0.8211 0.8211 0.8211
1894.000000 0.8212 0.8212 0.8212 0.8212 0.8212
1899.000000 0.8212 0.8212 0.8212 0.8211 0.8211
1904.000000 0.8211 0.8211 0.8211 0.8211 0.8211
1909.000000 0.8211 0.8211 0.8212 0.8213 0.8215
1914.000000 0.8215 0.8217 0.8218 0.8219 0.8220
1919.000000 0.8221 0.8222 0.8227 0.8232 0.8237
1924.000000 0.8242 0.8248 0.8253 0.8258 0.8261
1929.000000 0.8263 0.8265 0.8267 0.8269 0.8271
1934.000000 0.8271 0.8270 0.8268 0.8266 0.8264
1939.000000 0.8262 0.8260 0.8257 0.8255 0.8254
1944.000000 0.8252 0.8250 0.8247 0.8243 0.8239
1949.000000 0.8236 0.8233 0.8229 0.8224 0.8216
1954.000000 0.8198 0.8180 0.8165 0.8156 0.8149
1959.000000 0.8142 0.8141 0.8142 0.8142 0.8142
1964.000000 0.8143 0.8143 0.8144 0.8146 0.8147
1969.000000 0.8148 0.8148 0.8149 0.8149 0.8149
1974.000000 0.8147 0.8146 0.8145 0.8144 0.8143
1979.000000 0.8142 0.8141 0.8139 0.8139 0.8138
1984.000000 0.8136 0.8133 0.8130 0.8127 0.8124
1989.000000 0.8121 0.8118 0.8115 0.8112 0.8109
1994.000000 0.8106 0.8103 0.8100 0.8098 0.8103
1999.000000 0.8112 0.8124 0.8133 0.8143 0.8153
2004.000000 0.8160 0.8167 0.8168 0.8170 0.8171
2009.000000 0.8173 0.8174 0.8174 0.8173 0.8171
2014.000000 0.8169 0.8166 0.8162 0.8158 0.8154
2019.000000 0.8150 0.8146 0.8142 0.8138 0.8135
2024.000000 0.8134 0.8135 0.8138 0.8140 0.8142
2029.000000 0.8144 0.8146 0.8148 0.8148 0.8148
2034.000000 0.8148 0.8147 0.8147 0.8147 0.8147
2039.000000 0.8147 0.8147 0.8147 0.8147 0.8146
2044.000000 0.8146 0.8144 0.8143 0.8141 0.8140
2049.000000 0.8138 0.8136 0.8134 0.8132 0.8131
2054.000000 0.8130 0.8128 0.8126 0.8125 0.8124
2059.000000 0.8122 0.8121 0.8120 0.8118 0.8116
2064.000000 0.8115 0.8113 0.8112 0.8110 0.8110
2069.000000 0.8110 0.8110 0.8111 0.8112 0.8113
2074.000000 0.8113 0.8114 0.8114 0.8115 0.8115
2079.000000 0.8116 0.8117 0.8117 0.8118 0.8118
2084.000000 0.8117 0.8117 0.8116 0.8115 0.8115
2089.000000 0.8115 0.8115 0.8114 0.8114 0.8113
2094.000000 0.8112 0.8109 0.8106 0.8103 0.8100
2099.000000 0.8097 0.8093 0.8090 0.8087 0.8084
2104.000000 0.8081 0.8078 0.8075 0.8073 0.8070
2109.000000 0.8068 0.8066 0.8064 0.8061 0.8059
2114.000000 0.8057 0.8055 0.8052 0.8050 0.8048
2119.000000 0.8047 0.8047 0.8048 0.8048 0.8049
2124.000000 0.8049 0.8051 0.8052 0.8052 0.8053
2129.000000 0.8053 0.8054 0.8055 0.8055 0.8055
2134.000000 0.8055 0.8054 0.8054 0.8054 0.8054
2139.000000 0.8053 0.8053 0.8051 0.8048 0.8043
2144.000000 0.8037 0.8031 0.8024 0.8013 0.8001
2149.000000 0.7979 0.7964 0.7957 0.7951 0.7945
2154.000000 0.7939 0.7934 0.7928 0.7923 0.7917
2159.000000 0.7912 0.7908 0.7904 0.7903 0.7901
2164.000000 0.7900 0.7902 0.7906 0.7910 0.7914
2169.000000 0.7919 0.7923 0.7926 0.7928 0.7931
2174.000000 0.7934 0.7936 0.7939 0.7942 0.7944
2179.000000 0.7946 0.7948 0.7948 0.7949 0.7949
2184.000000 0.7949 0.7949 0.7950 0.7950 0.7951
2189.000000 0.7951 0.7951 0.7951 0.7952 0.7952
2194.000000 0.7952 0.7953 0.7953 0.7953 0.7953
2199.000000 0.7954 0.7954 0.7954 0.7954 0.7953
2204.000000 0.7952 0.7951 0.7951 0.7950 0.7949
2209.000000 0.7948 0.7948 0.7947 0.7946 0.7945
2214.000000 0.7945 0.7944 0.7943 0.7942 0.7942
2219.000000 0.7940 0.7938 0.7936 0.7935 0.7933
2224.000000 0.7931 0.7929 0.7928 0.7926 0.7924
2229.000000 0.7921 0.7919 0.7913 0.7906 0.7898
2234.000000 0.7891 0.7885 0.7878 0.7871 0.7864
2239.000000 0.7857 0.7851 0.7843 0.7836 0.7826
2244.000000 0.7815 0.7805 0.7794 0.7784 0.7774
2249.000000 0.7768 0.7764 0.7761 0.7758 0.7756
2254.000000 0.7753 0.7751 0.7749 0.7747 0.7744
2259.000000 0.7742 0.7739 0.7737 0.7735 0.7733
2264.000000 0.7731 0.7728 0.7726 0.7725 0.7725
2269.000000 0.7725 0.7725 0.7725 0.7725 0.7725
2274.000000 0.7725 0.7725 0.7725 0.7726 0.7726
2279.000000 0.7726 0.7726 0.7726 0.7726 0.7726
2284.000000 0.7726 0.7726 0.7727 0.7727 0.7727
2289.000000 0.7727 0.7727 0.7727 0.7727 0.7727
2294.000000 0.7728 0.7728 0.7726 0.7720 0.7714
2299.000000 0.7705 0.7696 0.7687 0.7678 0.7673
2304.000000 0.7668 0.7666 0.7665 0.7663 0.7662
2309.000000 0.7661 0.7659 0.7658 0.7656 0.7655
2314.000000 0.7654 0.7654 0.7658 0.7662 0.7665
2319.000000 0.7669 0.7673 0.7677 0.7680 0.7681
2324.000000 0.7681 0.7679 0.7678 0.7677 0.7675
2329.000000 0.7674 0.7672 0.7671 0.7670 0.7661
2334.000000 0.7651 0.7639 0.7625 0.7614 0.7603
2339.000000 0.7595 0.7591 0.7587 0.7582 0.7578
2344.000000 0.7573 0.7569 0.7565 0.7560 0.7556
2349.000000 0.7551 0.7547 0.7543 0.7540 0.7541
2354.000000 0.7542 0.7544 0.7546 0.7547 0.7549
2359.000000 0.7550 0.7552 0.7554 0.7555 0.7557
2364.000000 0.7557 0.7558 0.7557 0.7554 0.7552
2369.000000 0.7550 0.7548 0.7546 0.7543 0.7542
2374.000000 0.7540 0.7538 0.7535 0.7533 0.7531
2379.000000 0.7528 0.7521 0.7515 0.7507 0.7498
2384.000000 0.7490 0.7481 0.7472 0.7464 0.7456
2389.000000 0.7451 0.7445 0.7439 0.7433 0.7427
2394.000000 0.7421 0.7415 0.7410 0.7404 0.7399
2399.000000 0.7394 0.7390 0.7387 0.7384 0.7381
2404.000000 0.7378 0.7375 0.7372 0.7369 0.7366
2409.000000 0.7363 0.7360 0.7357 0.7355 0.7353
2414.000000 0.7351 0.7349 0.7347 0.7345 0.7343
2419.000000 0.7341 0.7340 0.7338 0.7336 0.7332
2424.000000 0.7324 0.7316 0.7308 0.7299 0.7291
2429.000000 0.7282 0.7274 0.7266 0.7258 0.7249
2434.000000 0.7241 0.7227 0.7212 0.7197 0.7181
2439.000000 0.7165 0.7149 0.7134 0.7118 0.7103
2444.000000 0.7086 0.7067 0.7047 0.7027 0.7007
2449.000000 0.6987 0.6968 0.6948 0.6928 0.6908
2454.000000 0.6890 0.6874 0.6858 0.6846 0.6833
2459.000000 0.6821 0.6808 0.6796 0.6784 0.6771
2464.000000 0.6759 0.6746 0.6734 0.6722 0.6710
2469.000000 0.6698 0.6685 0.6672 0.6660 0.6647
2474.000000 0.6634 0.6621 0.6608 0.6595 0.6582
2479.000000 0.6569 0.6556 0.6543 0.6530 0.6518
2484.000000 0.6507 0.6496 0.6487 0.6477 0.6467
2489.000000 0.6458 0.6448 0.6439 0.6429 0.6420
2494.000000 0.6410 0.6401 0.6391 0.6381 0.6372
2499.000000 0.6363 0.6354 0.6346 0.6339 0.6332
2504.000000 0.6325 0.6319 0.6311 0.6304 0.6297
2509.000000 0.6291 0.6284 0.6277 0.6270 0.6263
2514.000000 0.6256 0.6249 0.6242 0.6235 0.6228
2519.000000 0.6221 0.6215 0.6208 0.6201 0.6195
2524.000000 0.6188 0.6182 0.6176 0.6169 0.6162
2529.000000 0.6156 0.6150 0.6144 0.6137 0.6131
2534.000000 0.6124 0.6118 0.6111 0.6105 0.6099
2539.000000 0.6092 0.6086 0.6079 0.6073 0.6066
2544.000000 0.6059 0.6053 0.6046 0.6040 0.6033
2549.000000 0.6027 0.6020 0.6014 0.6006 0.5999
2554.000000 0.5992 0.5984 0.5976 0.5969 0.5961
2559.000000 0.5953 0.5946 0.5938 0.5931 0.5923
2564.000000 0.5916 0.5901 0.5884 0.5861 0.5823
2569.000000 0.5785 0.5763 0.5751 0.5740 0.5728
2574.000000 0.5716 0.5706 0.5700 0.5694 0.5688
2579.000000 0.5683 0.5677 0.5672 0.5667 0.5662
2584.000000 0.5656 0.5650 0.5644 0.5637 0.5630
2589.000000 0.5624 0.5618 0.5611 0.5605 0.5599
2594.000000 0.5593 0.5587 0.5581 0.5575 0.5569
2599.000000 0.5563 0.5557 0.5551 0.5526 0.5485
2604.000000 0.5444 0.5410 0.5377 0.5342 0.5289
2609.000000 0.5235 0.5187 0.5148 0.5109 0.5070
2614.000000 0.5031 0.4992 0.4950 0.4909 0.4867
2619.000000 0.4827 0.4787 0.4753 0.4728 0.4703
2624.000000 0.4678 0.4653 0.4628 0.4608 0.4589
2629.000000 0.4571 0.4558 0.4545 0.4532 0.4520
2634.000000 0.4507 0.4494 0.4481 0.4468 0.4460
2639.000000 0.4452 0.4444 0.4436 0.4429 0.4423
2644.000000 0.4420 0.4417 0.4416 0.4416 0.4416
2649.000000 0.4403 0.4386 0.4368 0.4344 0.4320
2654.000000 0.4294 0.4261 0.4227 0.4196 0.4171
2659.000000 0.4145 0.4123 0.4106 0.4089 0.4071
2664.000000 0.4055 0.4038 0.4021 0.4005 0.3988
2669.000000 0.3973 0.3958 0.3943 0.3936 0.3930
2674.000000 0.3923 0.3917 0.3910 0.3905 0.3903
2679.000000 0.3901 0.3900 0.3899 0.3899 0.3903
2684.000000 0.3898 0.3898 0.3898 0.3898 0.3898
2689.000000 0.3907 0.3916 0.3926 0.3955 0.3985
2694.000000 0.4015 0.4044 0.4074 0.4104 0.4134
2699.000000 0.4164 0.4194 0.4224 0.4254 0.4283
2704.000000 0.4313 0.4343 0.4372 0.4402 0.4431
2709.000000 0.4461 0.4490 0.4520 0.4549 0.4579
2714.000000 0.4608 0.4638 0.4667 0.4697 0.4726
2719.000000 0.4756 0.4785 0.4815 0.4844 0.4873
2724.000000 0.4903 0.4932 0.4961 0.4991 0.5020
2729.000000 0.5049 0.5078 0.5107 0.5136 0.5166
2734.000000 0.5195 0.5224 0.5253 0.5282 0.5311
2739.000000 0.5340 0.5369 0.5398 0.5427 0.5456
2744.000000 0.5485 0.5507 0.5527 0.5546 0.5557
2749.000000 0.5564 0.5571 0.5576 0.5580 0.5583
2754.000000 0.5586 0.5588 0.5591 0.5592 0.5594
2759.000000 0.5595 0.5596 0.5598 0.5599 0.5600
2764.000000 0.5600 0.5600 0.5600 0.5600 0.5599
2769.000000 0.5603 0.5597 0.5596 0.5595 0.5595
2774.000000 0.5594 0.5593 0.5591 0.5588 0.5586
2779.000000 0.5582 0.5579 0.5575 0.5571 0.5568
2784.000000 0.5564 0.5556 0.5547 0.5539 0.5502
2789.000000 0.5463 0.5423 0.5330 0.5225 0.5120
2794.000000 0.5014 0.4909 0.4804 0.4699 0.4594
2799.000000 0.4488 0.4384 0.4279 0.4174 0.4069
2804.000000 0.3965 0.3860 0.3755 0.3651 0.3547
2809.000000 0.3442 0.3339 0.3235 0.3131 0.3027
2814.000000 0.2923 0.2819 0.2716 0.2612 0.2508
2819.000000 0.2405 0.2301 0.2198 0.2094 0.1991
2824.000000 0.1888 0.1785 0.1682 0.1579 0.1476
2829.000000 0.1374 0.1271 0.1169 0.1096 0.1032
2834.000000 0.0969 0.0928 0.0907 0.0886 0.0868
2839.000000 0.0857 0.0846 0.0835 0.0829 0.0823
2844.000000 0.0817 0.0819 0.0822 0.0825 0.0829
2849.000000 0.0832 0.0835 0.0839 0.0842 0.0845
2854.000000 0.0848 0.0850 0.0853 0.0855 0.0858
2859.000000 0.0860 0.0862 0.0865 0.0866 0.0868
2864.000000 0.0870 0.0871 0.0872 0.0874 0.0875
2869.000000 0.0877 0.0878 0.0878 0.0876 0.0875
2874.000000 0.0874 0.0871 0.0869 0.0867 0.0859
2879.000000 0.0851 0.0844 0.0835 0.0825 0.0815
2884.000000 0.0801 0.0783 0.0764 0.0736 0.0659
2889.000000 0.0582 0.0505 0.0488 0.0483 0.0478
2894.000000 0.0476 0.0476 0.0476 0.0477 0.0477
2899.000000 0.0477 0.0477 0.0479 0.0481 0.0482
2904.000000 0.0485 0.0487 0.0490 0.0493 0.0501
2909.000000 0.0510 0.0518 0.0530 0.0542 0.0555
2914.000000 0.0569 0.0587 0.0605 0.0624 0.0635
2919.000000 0.0645 0.0655 0.0664 0.0672 0.0680
2924.000000 0.0689 0.0693 0.0697 0.0701 0.0704
2929.000000 0.0706 0.0708 0.0710 0.0712 0.0715
2934.000000 0.0717 0.0719 0.0722 0.0724 0.0747
2939.000000 0.0826 0.0904 0.0983 0.1059 0.1134
2944.000000 0.1209 0.1284 0.1359 0.1434 0.1509
2949.000000 0.1584 0.1658 0.1733 0.1808 0.1883
2954.000000 0.1958 0.2032 0.2107 0.2181 0.2255
2959.000000 0.2330 0.2404 0.2478 0.2552 0.2626
2964.000000 0.2701 0.2775 0.2849 0.2923 0.2997
2969.000000 0.3071 0.3171 0.3274 0.3378 0.3466
2974.000000 0.3525 0.3584 0.3643 0.3685 0.3722
2979.000000 0.3760 0.3797 0.3832 0.3868 0.3903
2984.000000 0.3938 0.3972 0.4007 0.4041 0.4074
2989.000000 0.4107 0.4139 0.4175 0.4214 0.4253
2994.000000 0.4291 0.4333 0.4375 0.4417 0.4454
2999.000000 0.4483 0.4511 0.4540 0.4563 0.4586
3004.000000 0.4608 0.4631 0.4652 0.4673 0.4694
3009.000000 0.4712 0.4729 0.4746 0.4763 0.4779
3014.000000 0.4796 0.4813 0.4829 0.4844 0.4858
3019.000000 0.4873 0.4885 0.4896 0.4908 0.4919
3024.000000 0.4930 0.4941 0.4952 0.4963 0.4974
3029.000000 0.4985 0.4996 0.5004 0.5010 0.5016
3034.000000 0.5022 0.5028 0.5034 0.5040 0.5046
3039.000000 0.5052 0.5058 0.5064 0.5069 0.5074
3044.000000 0.5079 0.5083 0.5088 0.5092 0.5097
3049.000000 0.5102 0.5106 0.5111 0.5115 0.5120
3054.000000 0.5125 0.5130 0.5135 0.5141 0.5147
3059.000000 0.5153 0.5159 0.5162 0.5166 0.5169
3064.000000 0.5172 0.5176 0.5179 0.5183 0.5185
3069.000000 0.5187 0.5189 0.5190 0.5190 0.5190
3074.000000 0.5190 0.5190 0.5189 0.5188 0.5188
3079.000000 0.5187 0.5187 0.5187 0.5187 0.5218
3084.000000 0.5186 0.5186 0.5186 0.5184 0.5181
3089.000000 0.5178 0.5175 0.5172 0.5168 0.5165
3094.000000 0.5162 0.5155 0.5148 0.5142 0.5135
3099.000000 0.5128 0.5121 0.5114 0.5108 0.5100
3104.000000 0.5093 0.5086 0.5078 0.5069 0.5061
3109.000000 0.5052 0.5041 0.5028 0.5014 0.5001
3114.000000 0.4975 0.4943 0.4912 0.4880 0.4848
3119.000000 0.4817 0.4785 0.4754 0.4722 0.4691
3124.000000 0.4660 0.4629 0.4597 0.4566 0.4534
3129.000000 0.4503 0.4471 0.4440 0.4409 0.4377
3134.000000 0.4346 0.4315 0.4284 0.4253 0.4222
3139.000000 0.4191 0.4159 0.4128 0.4097 0.4066
3144.000000 0.4035 0.4004 0.3973 0.3942 0.3911
3149.000000 0.3881 0.3850 0.3819 0.3788 0.3757
3154.000000 0.3726 0.3695 0.3664 0.3633 0.3603
3159.000000 0.3572 0.3542 0.3511 0.3480 0.3449
3164.000000 0.3419 0.3391 0.3368 0.3345 0.3322
3169.000000 0.3304 0.3293 0.3282 0.3272 0.3262
3174.000000 0.3255 0.3248 0.3240 0.3234 0.3231
3179.000000 0.3227 0.3224 0.3222 0.3223 0.3224
3184.000000 0.3226 0.3242 0.3232 0.3236 0.3239
3189.000000 0.3244 0.3249 0.3253 0.3258 0.3264
3194.000000 0.3270 0.3277 0.3283 0.3291 0.3306
3199.000000 0.3322 0.3337 0.3353 0.3399 0.3446
3204.000000 0.3493 0.3540 0.3586 0.3633 0.3680
3209.000000 0.3726 0.3773 0.3819 0.3866 0.3912
3214.000000 0.3959 0.4006 0.4052 0.4099 0.4146
3219.000000 0.4192 0.4238 0.4284 0.4331 0.4377
3224.000000 0.4423 0.4469 0.4515 0.4561 0.4608
3229.000000 0.4654 0.4700 0.4746 0.4792 0.4838
3234.000000 0.4883 0.4929 0.4975 0.5021 0.5067
3239.000000 0.5113 0.5158 0.5204 0.5250 0.5294
3244.000000 0.5337 0.5380 0.5423 0.5459 0.5472
3249.000000 0.5485 0.5499 0.5512 0.5523 0.5535
3254.000000 0.5547 0.5558 0.5577 0.5598 0.5618
3259.000000 0.5639 0.5660 0.5682 0.5703 0.5724
3264.000000 0.5745 0.5763 0.5780 0.5798 0.5816
3269.000000 0.5835 0.5854 0.5874 0.5893 0.5916
3274.000000 0.5942 0.5967 0.5992 0.6010 0.6020
3279.000000 0.6030 0.6040 0.6050 0.6056 0.6063
3284.000000 0.6070 0.6076 0.6083 0.6089 0.6096
3289.000000 0.6102 0.6109 0.6115 0.6122 0.6128
3294.000000 0.6135 0.6140 0.6146 0.6151 0.6157
3299.000000 0.6161 0.6165 0.6169 0.6173 0.6176
3304.000000 0.6180 0.6184 0.6188 0.6192 0.6196
3309.000000 0.6200 0.6204 0.6207 0.6211 0.6214
3314.000000 0.6217 0.6220 0.6224 0.6227 0.6231
3319.000000 0.6234 0.6237 0.6241 0.6244 0.6247
3324.000000 0.6250 0.6255 0.6262 0.6268 0.6275
3329.000000 0.6281 0.6287 0.6294 0.6300 0.6306
3334.000000 0.6313 0.6320 0.6326 0.6333 0.6340
3339.000000 0.6348 0.6355 0.6363 0.6371 0.6378
3344.000000 0.6386 0.6393 0.6401 0.6409 0.6418
3349.000000 0.6427 0.6436 0.6446 0.6459 0.6474
3354.000000 0.6489 0.6504 0.6519 0.6534 0.6549
3359.000000 0.6563 0.6578 0.6593 0.6607 0.6621
3364.000000 0.6635 0.6649 0.6662 0.6675 0.6689
3369.000000 0.6702 0.6709 0.6714 0.6719 0.6724
3374.000000 0.6728 0.6733 0.6738 0.6742 0.6747
3379.000000 0.6751 0.6755 0.6759 0.6763 0.6767
3384.000000 0.6769 0.6771 0.6773 0.6775 0.6778
3389.000000 0.6780 0.6782 0.6784 0.6786 0.6788
3394.000000 0.6791 0.6793 0.6795 0.6797 0.6799
3399.000000 0.6801 0.6804 0.6806 0.6808 0.6810
3404.000000 0.6812 0.6814 0.6817 0.6819 0.6821
3409.000000 0.6823 0.6825 0.6827 0.6829 0.6832
3414.000000 0.6834 0.6836 0.6838 0.6840 0.6842
3419.000000 0.6844 0.6847 0.6849 0.6851 0.6853
3424.000000 0.6855 0.6857 0.6859 0.6861 0.6863
3429.000000 0.6865 0.6867 0.6869 0.6871 0.6872
3434.000000 0.6874 0.6876 0.6879 0.6881 0.6883
3439.000000 0.6885 0.6887 0.6889 0.6891 0.6893
3444.000000 0.6894 0.6896 0.6898 0.6900 0.6902
3449.000000 0.6903 0.6905 0.6906 0.6907 0.6908
3454.000000 0.6908 0.6908 0.6907 0.6907 0.6906
3459.000000 0.6906 0.6906 0.6905 0.6905 0.6904
3464.000000 0.6904 0.6904 0.6903 0.6903 0.6902
3469.000000 0.6902 0.6902 0.6902 0.6902 0.6901
3474.000000 0.6901 0.6900 0.6900 0.6900 0.6900
3479.000000 0.6900 0.6901 0.6901 0.6902 0.6902
3484.000000 0.6902 0.6903 0.6903 0.6904 0.6904
3489.000000 0.6905 0.6906 0.6906 0.6907 0.6907
3494.000000 0.6907 0.6908 0.6908 0.6909 0.6909
3499.000000 0.6910 0.6910 0.6910 0.6911 0.6911
3504.000000 0.6912 0.6913 0.6913 0.6914 0.6915
3509.000000 0.6916 0.6917 0.6918 0.6921 0.6923
3514.000000 0.6926 0.6928 0.6931 0.6934 0.6936
3519.000000 0.6939 0.6942 0.6944 0.6947 0.6949
3524.000000 0.6952 0.6955 0.6957 0.6960 0.6962
3529.000000 0.6965 0.6968 0.6970 0.6972 0.6974
3534.000000 0.6975 0.6977 0.6978 0.6979 0.6979
3539.000000 0.6980 0.6980 0.6980 0.6981 0.6981
3544.000000 0.6981 0.6981 0.6981 0.6982 0.6982
3549.000000 0.6982 0.6982 0.6982 0.6983 0.6983
3554.000000 0.6984 0.6984 0.6984 0.7017 0.6985
3559.000000 0.6985 0.6985 0.6985 0.6986 0.6986
3564.000000 0.6987 0.6987 0.6987 0.6987 0.6987
3569.000000 0.6987 0.6987 0.6987 0.6986 0.6986
3574.000000 0.6985 0.6985 0.6985 0.6984 0.6984
3579.000000 0.6984 0.6984 0.6984 0.6983 0.6983
3584.000000 0.6983 0.6982 0.6982 0.6981 0.6981
3589.000000 0.6981 0.6981 0.6981 0.6980 0.6980
3594.000000 0.6980 0.6979 0.6979 0.6979 0.6978
3599.000000 0.6978 0.6978 0.6978 0.6978 0.6977
3604.000000 0.6977 0.6976 0.6976 0.6976 0.6975
3609.000000 0.6974 0.6973 0.6972 0.6971 0.6970
3614.000000 0.6968 0.6966 0.6964 0.6961 0.6959
3619.000000 0.6957 0.6955 0.6953 0.6950 0.6948
3624.000000 0.6946 0.6944 0.6942 0.6940 0.6937
3629.000000 0.6935 0.6933 0.6931 0.6929 0.6927
3634.000000 0.6925 0.6923 0.6920 0.6918 0.6916
3639.000000 0.6914 0.6911 0.6909 0.6907 0.6905
3644.000000 0.6903 0.6901 0.6898 0.6895 0.6893
3649.000000 0.6890 0.6888 0.6885 0.6882 0.6880
3654.000000 0.6877 0.6874 0.6872 0.6869 0.6867
3659.000000 0.6864 0.6861 0.6859 0.6856 0.6854
3664.000000 0.6851 0.6848 0.6846 0.6843 0.6840
3669.000000 0.6838 0.6835 0.6833 0.6831 0.6829
3674.000000 0.6828 0.6826 0.6824 0.6823 0.6823
3679.000000 0.6823 0.6823 0.6823 0.6822 0.6822
3684.000000 0.6822 0.6821 0.6821 0.6821 0.6820
3689.000000 0.6820 0.6820 0.6820 0.6820 0.6819
3694.000000 0.6819 0.6819 0.6819 0.6819 0.6819
3699.000000 0.6819 0.6819 0.6819 0.6819 0.6819
3704.000000 0.6819 0.6819 0.6819 0.6820 0.6820
3709.000000 0.6820 0.6821 0.6821 0.6822 0.6822
3714.000000 0.6822 0.6823 0.6823 0.6823 0.6824
3719.000000 0.6824 0.6824 0.6825 0.6825 0.6825
3724.000000 0.6826 0.6826 0.6827 0.6827 0.6827
3729.000000 0.6827 0.6827 0.6827 0.6828 0.6828
3734.000000 0.6828 0.6829 0.6829 0.6829 0.6829
3739.000000 0.6829 0.6828 0.6828 0.6828 0.6827
3744.000000 0.6827 0.6826 0.6826 0.6825 0.6825
3749.000000 0.6824 0.6824 0.6823 0.6822 0.6822
3754.000000 0.6821 0.6821 0.6820 0.6819 0.6818
3759.000000 0.6818 0.6817 0.6817 0.6816 0.6816
3764.000000 0.6815 0.6815 0.6813 0.6812 0.6811
3769.000000 0.6810 0.6808 0.6807 0.6805 0.6804
3774.000000 0.6802 0.6800 0.6798 0.6797 0.6795
3779.000000 0.6793 0.6791 0.6790 0.6788 0.6786
3784.000000 0.6784 0.6783 0.6781 0.6779 0.6777
3789.000000 0.6775 0.6773 0.6772 0.6770 0.6768
3794.000000 0.6766 0.6764 0.6762 0.6761 0.6759
3799.000000 0.6757 0.6756 0.6755 0.6753 0.6752
3804.000000 0.6751 0.6750 0.6749 0.6748 0.6747
3809.000000 0.6746 0.6745 0.6744 0.6744 0.6743
3814.000000 0.6742 0.6742 0.6741 0.6740 0.6739
3819.000000 0.6739 0.6738 0.6737 0.6736 0.6735
3824.000000 0.6733 0.6731 0.6729 0.6727 0.6725
3829.000000 0.6721 0.6713 0.6706 0.6698 0.6691
3834.000000 0.6683 0.6676 0.6669 0.6662 0.6655
3839.000000 0.6647 0.6640 0.6637 0.6634 0.6632
3844.000000 0.6629 0.6626 0.6624 0.6621 0.6619
3849.000000 0.6616 0.6613 0.6610 0.6608 0.6605
3854.000000 0.6603 0.6600 0.6598 0.6595 0.6593
3859.000000 0.6590 0.6587 0.6585 0.6582 0.6579
3864.000000 0.6576 0.6576 0.6575 0.6575 0.6574
3869.000000 0.6574 0.6573 0.6573 0.6572 0.6572
3874.000000 0.6571 0.6571 0.6570 0.6570 0.6570
3879.000000 0.6569 0.6569 0.6569 0.6568 0.6568
3884.000000 0.6567 0.6567 0.6567 0.6566 0.6566
3889.000000 0.6565 0.6565 0.6565 0.6564 0.6564
3894.000000 0.6564 0.6563 0.6563 0.6562 0.6562
3899.000000 0.6561 0.6561 0.6560 0.6560 0.6560
3904.000000 0.6559 0.6559 0.6559 0.6558 0.6558
3909.000000 0.6558 0.6557 0.6557 0.6557 0.6556
3914.000000 0.6556 0.6556 0.6555 0.6555 0.6555
3919.000000 0.6554 0.6554 0.6554 0.6553 0.6553
3924.000000 0.6553 0.6552 0.6552 0.6552 0.6551
3929.000000 0.6551 0.6551 0.6550 0.6550 0.6550
3934.000000 0.6549 0.6549 0.6549 0.6549 0.6548
3939.000000 0.6548 0.6548 0.6548 0.6548 0.6548
3944.000000 0.6547 0.6546 0.6546 0.6545 0.6544
3949.000000 0.6544 0.6543 0.6542 0.6541 0.6540
3954.000000 0.6539 0.6538 0.6537 0.6536 0.6536
3959.000000 0.6535 0.6534 0.6533 0.6532 0.6532
3964.000000 0.6531 0.6530 0.6529 0.6528 0.6527
3969.000000 0.6526 0.6525 0.6524 0.6523 0.6522
3974.000000 0.6521 0.6520 0.6518 0.6516 0.6515
3979.000000 0.6513 0.6511 0.6509 0.6507 0.6505
3984.000000 0.6502 0.6500 0.6497 0.6495 0.6493
3989.000000 0.6490 0.6488 0.6486 0.6483 0.6481
3994.000000 0.6479 0.6476 0.6474 0.6472 0.6470
3999.000000 0.6468 0.6466
##END=
