##TITLE=Ammonium yttrium oxalate, hydrate
##JCAMP-DX=4.24
$$ By DXEDIT 1.05 (RS McDonald)
##DATA TYPE=INFRARED SPECTRUM
##CLASS=COBLENTZ III
##ORIGIN=DOW CHEMICAL COMPANY
##OWNER=COPYRIGHT (C) 1988 by COBLENTZ SOCIETY INC.
Collection (C) 2018 copyright by the U.S. Secretary of Commerce
on behalf of the United States of America. All rights reserved.
##DATE=1968/10/24
##MOLFORM=C8 H8 N2 O16 Y2  * 6-8 H2 O
##SOURCE REFERENCE=COBLENTZ NO. 08636
##$NIST ID=B6008636
##$NIST SOURCE=COBLENTZ
##$NIST IMAGE=cob8636
##SPECTROMETER/DATA SYSTEM=DOW KBr FOREPRISM-GRATING
##INSTRUMENT PARAMETERS=BLAZED AT 3.5, 12.0, 20.0 MICRON AND CHANGED AT 5.0, 7.5, 14.9 MICRON
##STATE=SOLID (SPLIT MULL), FLUOROLUBE FOR 3800-1330 CM^-^1, NUJOL FOR 1330-400 CM^-^1
$$SPECTRAL CONTAMINATION DUE TO AN IMPURITY (C=O) AROUND 1740 CM^-^1
##SAMPLING PROCEDURE=TRANSMISSION
##RESOLUTION=2
##DATA PROCESSING=DIGITIZED BY COBLENTZ SOCIETY (BATCH I) FROM HARD COPY
##XUNITS=1/CM
##YUNITS=TRANSMITTANCE
##XFACTOR=1
##YFACTOR=1
##DELTAX=1
##FIRSTX=3798
##LASTX=387
##FIRSTY=0.8762
##MAXX=3798
##MINX=387
##MAXY=0.8915
##MINY=0.0415
##NPOINTS=3412
##XYDATA=(X++(Y..Y))
3798.000000 0.8762 0.8762 0.8762 0.8762 0.8762
3793.000000 0.8762 0.8762 0.8762 0.8762 0.8762
3788.000000 0.8763 0.8763 0.8763 0.8763 0.8763
3783.000000 0.8763 0.8763 0.8763 0.8763 0.8763
3778.000000 0.8764 0.8765 0.8766 0.8767 0.8768
3773.000000 0.8768 0.8770 0.8771 0.8771 0.8773
3768.000000 0.8774 0.8775 0.8775 0.8777 0.8778
3763.000000 0.8778 0.8778 0.8781 0.8783 0.8785
3758.000000 0.8788 0.8790 0.8793 0.8795 0.8798
3753.000000 0.8800 0.8802 0.8804 0.8807 0.8809
3748.000000 0.8812 0.8814 0.8817 0.8818 0.8821
3743.000000 0.8823 0.8825 0.8828 0.8830 0.8832
3738.000000 0.8834 0.8835 0.8837 0.8838 0.8840
3733.000000 0.8842 0.8844 0.8845 0.8847 0.8848
3728.000000 0.8850 0.8850 0.8850 0.8855 0.8857
3723.000000 0.8858 0.8860 0.8862 0.8864 0.8866
3718.000000 0.8868 0.8870 0.8871 0.8874 0.8875
3713.000000 0.8878 0.8880 0.8882 0.8884 0.8886
3708.000000 0.8888 0.8890 0.8892 0.8894 0.8896
3703.000000 0.8898 0.8900 0.8900 0.8901 0.8902
3698.000000 0.8903 0.8904 0.8905 0.8906 0.8907
3693.000000 0.8908 0.8909 0.8910 0.8911 0.8912
3688.000000 0.8913 0.8914 0.8915 0.8915 0.8915
3683.000000 0.8914 0.8914 0.8914 0.8914 0.8913
3678.000000 0.8913 0.8912 0.8912 0.8912 0.8912
3673.000000 0.8911 0.8911 0.8910 0.8910 0.8910
3668.000000 0.8910 0.8905 0.8903 0.8901 0.8899
3663.000000 0.8896 0.8894 0.8892 0.8890 0.8885
3658.000000 0.8881 0.8875 0.8871 0.8867 0.8863
3653.000000 0.8858 0.8854 0.8848 0.8843 0.8835
3648.000000 0.8827 0.8818 0.8812 0.8804 0.8797
3643.000000 0.8789 0.8781 0.8768 0.8758 0.8746
3638.000000 0.8734 0.8721 0.8710 0.8694 0.8678
3633.000000 0.8656 0.8635 0.8613 0.8592 0.8570
3628.000000 0.8549 0.8525 0.8501 0.8475 0.8452
3623.000000 0.8427 0.8403 0.8355 0.8308 0.8257
3618.000000 0.8207 0.8155 0.8103 0.8050 0.7997
3613.000000 0.7938 0.7878 0.7803 0.7726 0.7681
3608.000000 0.7635 0.7600 0.7565 0.7540 0.7515
3603.000000 0.7508 0.7501 0.7503 0.7504 0.7505
3598.000000 0.7507 0.7508 0.7510 0.7511 0.7515
3593.000000 0.7517 0.7517 0.7517 0.7515 0.7515
3588.000000 0.7514 0.7511 0.7511 0.7507 0.7504
3583.000000 0.7500 0.7497 0.7493 0.7489 0.7485
3578.000000 0.7481 0.7475 0.7471 0.7467 0.7462
3573.000000 0.7458 0.7455 0.7450 0.7446 0.7442
3568.000000 0.7438 0.7433 0.7428 0.7424 0.7418
3563.000000 0.7411 0.7406 0.7399 0.7393 0.7376
3558.000000 0.7361 0.7344 0.7326 0.7306 0.7285
3553.000000 0.7253 0.7221 0.7182 0.7143 0.7086
3548.000000 0.7028 0.6965 0.6901 0.6834 0.6767
3543.000000 0.6699 0.6632 0.6578 0.6526 0.6487
3538.000000 0.6447 0.6418 0.6392 0.6377 0.6362
3533.000000 0.6351 0.6340 0.6330 0.6321 0.6310
3528.000000 0.6302 0.6292 0.6283 0.6272 0.6260
3523.000000 0.6250 0.6239 0.6227 0.6216 0.6205
3518.000000 0.6194 0.6180 0.6166 0.6151 0.6136
3513.000000 0.6121 0.6106 0.6089 0.6072 0.6051
3508.000000 0.6031 0.6010 0.5990 0.5967 0.5944
3503.000000 0.5919 0.5894 0.5869 0.5844 0.5823
3498.000000 0.5802 0.5781 0.5760 0.5736 0.5712
3493.000000 0.5685 0.5657 0.5628 0.5599 0.5586
3488.000000 0.5573 0.5562 0.5552 0.5542 0.5532
3483.000000 0.5521 0.5510 0.5497 0.5485 0.5472
3478.000000 0.5460 0.5447 0.5435 0.5423 0.5412
3473.000000 0.5402 0.5392 0.5382 0.5372 0.5362
3468.000000 0.5352 0.5341 0.5331 0.5321 0.5310
3463.000000 0.5305 0.5300 0.5297 0.5295 0.5294
3458.000000 0.5293 0.5291 0.5291 0.5291 0.5292
3453.000000 0.5300 0.5308 0.5316 0.5325 0.5334
3448.000000 0.5344 0.5353 0.5362 0.5371 0.5381
3443.000000 0.5390 0.5399 0.5408 0.5417 0.5427
3438.000000 0.5437 0.5452 0.5467 0.5482 0.5497
3433.000000 0.5510 0.5526 0.5541 0.5556 0.5571
3428.000000 0.5586 0.5601 0.5616 0.5628 0.5641
3423.000000 0.5653 0.5666 0.5679 0.5692 0.5704
3418.000000 0.5717 0.5729 0.5742 0.5754 0.5767
3413.000000 0.5779 0.5792 0.5804 0.5817 0.5830
3408.000000 0.5843 0.5855 0.5868 0.5881 0.5894
3403.000000 0.5906 0.5919 0.5931 0.5944 0.5957
3398.000000 0.5970 0.5982 0.5995 0.6007 0.6019
3393.000000 0.6027 0.6036 0.6044 0.6053 0.6060
3388.000000 0.6070 0.6078 0.6087 0.6095 0.6104
3383.000000 0.6112 0.6121 0.6129 0.6138 0.6146
3378.000000 0.6155 0.6162 0.6172 0.6179 0.6187
3373.000000 0.6193 0.6200 0.6207 0.6214 0.6220
3368.000000 0.6227 0.6234 0.6241 0.6247 0.6254
3363.000000 0.6260 0.6268 0.6272 0.6276 0.6279
3358.000000 0.6283 0.6287 0.6291 0.6294 0.6298
3353.000000 0.6301 0.6305 0.6309 0.6312 0.6316
3348.000000 0.6320 0.6323 0.6327 0.6330 0.6334
3343.000000 0.6336 0.6338 0.6339 0.6341 0.6343
3338.000000 0.6345 0.6347 0.6349 0.6350 0.6352
3333.000000 0.6354 0.6356 0.6357 0.6358 0.6358
3328.000000 0.6359 0.6359 0.6359 0.6359 0.6359
3323.000000 0.6359 0.6359 0.6359 0.6360 0.6360
3318.000000 0.6360 0.6360 0.6360 0.6360 0.6360
3313.000000 0.6359 0.6359 0.6357 0.6356 0.6354
3308.000000 0.6338 0.6351 0.6350 0.6348 0.6347
3303.000000 0.6345 0.6343 0.6340 0.6337 0.6334
3298.000000 0.6331 0.6327 0.6324 0.6321 0.6318
3293.000000 0.6315 0.6312 0.6307 0.6303 0.6297
3288.000000 0.6292 0.6287 0.6282 0.6276 0.6271
3283.000000 0.6262 0.6255 0.6247 0.6239 0.6230
3278.000000 0.6222 0.6214 0.6206 0.6197 0.6189
3273.000000 0.6177 0.6166 0.6154 0.6143 0.6131
3268.000000 0.6120 0.6108 0.6097 0.6085 0.6074
3263.000000 0.6062 0.6051 0.6035 0.6020 0.6005
3258.000000 0.5990 0.5975 0.5960 0.5945 0.5930
3253.000000 0.5915 0.5900 0.5885 0.5870 0.5852
3248.000000 0.5835 0.5815 0.5796 0.5777 0.5758
3243.000000 0.5738 0.5719 0.5700 0.5682 0.5665
3238.000000 0.5649 0.5632 0.5616 0.5599 0.5582
3233.000000 0.5565 0.5549 0.5533 0.5517 0.5502
3228.000000 0.5488 0.5473 0.5459 0.5444 0.5430
3223.000000 0.5415 0.5401 0.5386 0.5372 0.5360
3218.000000 0.5349 0.5338 0.5327 0.5316 0.5305
3213.000000 0.5294 0.5283 0.5272 0.5260 0.5252
3208.000000 0.5244 0.5236 0.5228 0.5219 0.5210
3203.000000 0.5202 0.5194 0.5186 0.5178 0.5169
3198.000000 0.5160 0.5154 0.5148 0.5143 0.5139
3193.000000 0.5134 0.5129 0.5124 0.5120 0.5115
3188.000000 0.5110 0.5107 0.5103 0.5102 0.5102
3183.000000 0.5101 0.5101 0.5100 0.5099 0.5099
3178.000000 0.5099 0.5100 0.5102 0.5104 0.5106
3173.000000 0.5107 0.5109 0.5110 0.5112 0.5119
3168.000000 0.5126 0.5134 0.5142 0.5150 0.5158
3163.000000 0.5166 0.5174 0.5186 0.5198 0.5210
3158.000000 0.5224 0.5237 0.5250 0.5262 0.5276
3153.000000 0.5291 0.5307 0.5324 0.5342 0.5360
3148.000000 0.5378 0.5395 0.5412 0.5430 0.5448
3143.000000 0.5464 0.5481 0.5498 0.5515 0.5531
3138.000000 0.5548 0.5558 0.5569 0.5579 0.5590
3133.000000 0.5600 0.5610 0.5620 0.5630 0.5637
3128.000000 0.5644 0.5650 0.5657 0.5657 0.5656
3123.000000 0.5656 0.5656 0.5652 0.5649 0.5644
3118.000000 0.5639 0.5633 0.5628 0.5623 0.5618
3113.000000 0.5612 0.5607 0.5601 0.5595 0.5588
3108.000000 0.5581 0.5574 0.5567 0.5560 0.5553
3103.000000 0.5546 0.5539 0.5532 0.5526 0.5519
3098.000000 0.5512 0.5504 0.5496 0.5488 0.5480
3093.000000 0.5472 0.5465 0.5457 0.5449 0.5441
3088.000000 0.5434 0.5427 0.5421 0.5417 0.5414
3083.000000 0.5410 0.5407 0.5403 0.5400 0.5398
3078.000000 0.5397 0.5395 0.5394 0.5392 0.5391
3073.000000 0.5389 0.5388 0.5386 0.5385 0.5383
3068.000000 0.5374 0.5380 0.5379 0.5378 0.5378
3063.000000 0.5378 0.5379 0.5379 0.5379 0.5379
3058.000000 0.5380 0.5384 0.5389 0.5395 0.5402
3053.000000 0.5408 0.5415 0.5421 0.5428 0.5434
3048.000000 0.5441 0.5447 0.5454 0.5460 0.5467
3043.000000 0.5473 0.5480 0.5488 0.5497 0.5506
3038.000000 0.5516 0.5525 0.5535 0.5544 0.5554
3033.000000 0.5562 0.5573 0.5582 0.5591 0.5600
3028.000000 0.5610 0.5619 0.5629 0.5638 0.5648
3023.000000 0.5657 0.5667 0.5676 0.5686 0.5695
3018.000000 0.5705 0.5716 0.5727 0.5737 0.5748
3013.000000 0.5759 0.5770 0.5781 0.5792 0.5803
3008.000000 0.5814 0.5824 0.5835 0.5846 0.5857
3003.000000 0.5868 0.5879 0.5890 0.5901 0.5912
2998.000000 0.5923 0.5934 0.5946 0.5957 0.5968
2993.000000 0.5979 0.5991 0.6002 0.6012 0.6024
2988.000000 0.6036 0.6047 0.6058 0.6069 0.6081
2983.000000 0.6089 0.6097 0.6104 0.6110 0.6118
2978.000000 0.6126 0.6133 0.6140 0.6147 0.6155
2973.000000 0.6162 0.6169 0.6176 0.6184 0.6191
2968.000000 0.6198 0.6205 0.6212 0.6220 0.6228
2963.000000 0.6235 0.6243 0.6250 0.6258 0.6266
2958.000000 0.6274 0.6283 0.6293 0.6302 0.6310
2953.000000 0.6320 0.6330 0.6339 0.6349 0.6358
2948.000000 0.6367 0.6376 0.6386 0.6395 0.6405
2943.000000 0.6414 0.6422 0.6432 0.6441 0.6450
2938.000000 0.6460 0.6468 0.6478 0.6487 0.6497
2933.000000 0.6506 0.6515 0.6525 0.6535 0.6546
2928.000000 0.6557 0.6568 0.6578 0.6590 0.6601
2923.000000 0.6611 0.6622 0.6633 0.6643 0.6651
2918.000000 0.6660 0.6668 0.6678 0.6686 0.6695
2913.000000 0.6703 0.6711 0.6719 0.6728 0.6734
2908.000000 0.6741 0.6748 0.6755 0.6761 0.6768
2903.000000 0.6775 0.6782 0.6786 0.6791 0.6794
2898.000000 0.6798 0.6801 0.6806 0.6808 0.6812
2893.000000 0.6815 0.6818 0.6819 0.6831 0.6821
2888.000000 0.6822 0.6818 0.6812 0.6791 0.6768
2883.000000 0.6744 0.6719 0.6704 0.6689 0.6672
2878.000000 0.6657 0.6638 0.6619 0.6601 0.6584
2873.000000 0.6568 0.6553 0.6538 0.6522 0.6512
2868.000000 0.6503 0.6494 0.6486 0.6483 0.6480
2863.000000 0.6480 0.6480 0.6480 0.6480 0.6483
2858.000000 0.6486 0.6493 0.6500 0.6508 0.6517
2853.000000 0.6526 0.6537 0.6547 0.6558 0.6568
2848.000000 0.6578 0.6589 0.6601 0.6611 0.6624
2843.000000 0.6636 0.6648 0.6658 0.6671 0.6684
2838.000000 0.6698 0.6711 0.6726 0.6742 0.6757
2833.000000 0.6771 0.6786 0.6800 0.6814 0.6824
2828.000000 0.6835 0.6845 0.6856 0.6865 0.6876
2823.000000 0.6887 0.6898 0.6908 0.6918 0.6928
2818.000000 0.6940 0.6950 0.6961 0.6971 0.6982
2813.000000 0.6992 0.7003 0.7011 0.7021 0.7028
2808.000000 0.7038 0.7047 0.7056 0.7064 0.7072
2803.000000 0.7081 0.7090 0.7099 0.7108 0.7115
2798.000000 0.7125 0.7133 0.7142 0.7151 0.7160
2793.000000 0.7168 0.7175 0.7183 0.7191 0.7198
2788.000000 0.7205 0.7211 0.7219 0.7226 0.7235
2783.000000 0.7242 0.7250 0.7257 0.7265 0.7271
2778.000000 0.7280 0.7287 0.7294 0.7301 0.7308
2773.000000 0.7315 0.7324 0.7330 0.7337 0.7343
2768.000000 0.7349 0.7355 0.7361 0.7367 0.7372
2763.000000 0.7378 0.7385 0.7391 0.7397 0.7403
2758.000000 0.7408 0.7415 0.7421 0.7426 0.7433
2753.000000 0.7439 0.7445 0.7451 0.7457 0.7462
2748.000000 0.7468 0.7475 0.7481 0.7487 0.7493
2743.000000 0.7499 0.7505 0.7508 0.7512 0.7517
2738.000000 0.7521 0.7525 0.7528 0.7533 0.7537
2733.000000 0.7541 0.7545 0.7549 0.7553 0.7557
2728.000000 0.7561 0.7565 0.7569 0.7574 0.7578
2723.000000 0.7582 0.7586 0.7590 0.7594 0.7598
2718.000000 0.7601 0.7606 0.7610 0.7614 0.7618
2713.000000 0.7621 0.7626 0.7631 0.7635 0.7639
2708.000000 0.7643 0.7646 0.7650 0.7654 0.7658
2703.000000 0.7661 0.7665 0.7668 0.7672 0.7676
2698.000000 0.7681 0.7684 0.7688 0.7692 0.7696
2693.000000 0.7700 0.7704 0.7707 0.7711 0.7715
2688.000000 0.7718 0.7722 0.7726 0.7730 0.7734
2683.000000 0.7738 0.7742 0.7745 0.7749 0.7753
2678.000000 0.7757 0.7761 0.7765 0.7768 0.7771
2673.000000 0.7775 0.7780 0.7783 0.7787 0.7791
2668.000000 0.7795 0.7799 0.7803 0.7806 0.7810
2663.000000 0.7814 0.7818 0.7821 0.7825 0.7828
2658.000000 0.7833 0.7836 0.7840 0.7844 0.7848
2653.000000 0.7851 0.7855 0.7858 0.7862 0.7865
2648.000000 0.7869 0.7874 0.7878 0.7881 0.7885
2643.000000 0.7889 0.7893 0.7896 0.7900 0.7904
2638.000000 0.7908 0.7911 0.7915 0.7918 0.7922
2633.000000 0.7926 0.7931 0.7934 0.7938 0.7941
2628.000000 0.7945 0.7948 0.7951 0.7954 0.7957
2623.000000 0.7960 0.7962 0.7965 0.7968 0.7971
2618.000000 0.7975 0.7978 0.7981 0.7984 0.7987
2613.000000 0.7989 0.7992 0.7995 0.7998 0.8001
2608.000000 0.8004 0.8007 0.8010 0.8012 0.8015
2603.000000 0.8018 0.8021 0.8025 0.8028 0.8031
2598.000000 0.8034 0.8037 0.8040 0.8042 0.8045
2593.000000 0.8047 0.8050 0.8051 0.8055 0.8057
2588.000000 0.8060 0.8061 0.8065 0.8067 0.8068
2583.000000 0.8071 0.8074 0.8075 0.8078 0.8081
2578.000000 0.8084 0.8086 0.8089 0.8091 0.8094
2573.000000 0.8096 0.8099 0.8101 0.8104 0.8106
2568.000000 0.8108 0.8111 0.8114 0.8115 0.8118
2563.000000 0.8121 0.8124 0.8125 0.8128 0.8128
2558.000000 0.8131 0.8132 0.8134 0.8135 0.8136
2553.000000 0.8137 0.8139 0.8140 0.8142 0.8143
2548.000000 0.8144 0.8145 0.8147 0.8148 0.8150
2543.000000 0.8151 0.8153 0.8154 0.8155 0.8156
2538.000000 0.8158 0.8158 0.8161 0.8161 0.8162
2533.000000 0.8164 0.8165 0.8167 0.8168 0.8169
2528.000000 0.8171 0.8171 0.8172 0.8174 0.8175
2523.000000 0.8176 0.8178 0.8178 0.8180 0.8181
2518.000000 0.8183 0.8184 0.8185 0.8186 0.8188
2513.000000 0.8189 0.8190 0.8191 0.8192 0.8193
2508.000000 0.8195 0.8196 0.8197 0.8198 0.8199
2503.000000 0.8200 0.8202 0.8203 0.8204 0.8205
2498.000000 0.8206 0.8207 0.8209 0.8210 0.8211
2493.000000 0.8212 0.8213 0.8214 0.8215 0.8216
2488.000000 0.8217 0.8218 0.8218 0.8220 0.8221
2483.000000 0.8221 0.8223 0.8224 0.8225 0.8225
2478.000000 0.8227 0.8228 0.8228 0.8230 0.8231
2473.000000 0.8232 0.8234 0.8235 0.8236 0.8237
2468.000000 0.8238 0.8239 0.8240 0.8241 0.8242
2463.000000 0.8243 0.8244 0.8245 0.8246 0.8246
2458.000000 0.8247 0.8247 0.8248 0.8248 0.8249
2453.000000 0.8249 0.8250 0.8251 0.8252 0.8252
2448.000000 0.8253 0.8253 0.8254 0.8254 0.8255
2443.000000 0.8255 0.8256 0.8256 0.8257 0.8258
2438.000000 0.8259 0.8259 0.8260 0.8260 0.8261
2433.000000 0.8261 0.8262 0.8262 0.8263 0.8263
2428.000000 0.8264 0.8264 0.8265 0.8265 0.8266
2423.000000 0.8266 0.8267 0.8267 0.8268 0.8268
2418.000000 0.8268 0.8268 0.8270 0.8270 0.8271
2413.000000 0.8271 0.8271 0.8271 0.8273 0.8273
2408.000000 0.8274 0.8274 0.8274 0.8274 0.8274
2403.000000 0.8274 0.8275 0.8275 0.8275 0.8275
2398.000000 0.8275 0.8275 0.8277 0.8277 0.8278
2393.000000 0.8278 0.8278 0.8280 0.8281 0.8281
2388.000000 0.8282 0.8282 0.8283 0.8283 0.8284
2383.000000 0.8284 0.8285 0.8286 0.8287 0.8288
2378.000000 0.8289 0.8290 0.8291 0.8292 0.8293
2373.000000 0.8294 0.8295 0.8296 0.8297 0.8298
2368.000000 0.8299 0.8300 0.8301 0.8301 0.8302
2363.000000 0.8303 0.8304 0.8305 0.8306 0.8307
2358.000000 0.8308 0.8308 0.8309 0.8310 0.8311
2353.000000 0.8311 0.8312 0.8312 0.8312 0.8312
2348.000000 0.8313 0.8313 0.8313 0.8313 0.8314
2343.000000 0.8314 0.8315 0.8315 0.8315 0.8315
2338.000000 0.8316 0.8316 0.8316 0.8316 0.8316
2333.000000 0.8313 0.8311 0.8308 0.8306 0.8303
2328.000000 0.8301 0.8295 0.8290 0.8284 0.8278
2323.000000 0.8273 0.8267 0.8262 0.8257 0.8252
2318.000000 0.8247 0.8242 0.8237 0.8232 0.8227
2313.000000 0.8221 0.8218 0.8216 0.8215 0.8213
2308.000000 0.8211 0.8209 0.8207 0.8205 0.8203
2303.000000 0.8201 0.8199 0.8197 0.8195 0.8193
2298.000000 0.8191 0.8190 0.8189 0.8187 0.8186
2293.000000 0.8185 0.8184 0.8183 0.8182 0.8181
2288.000000 0.8181 0.8180 0.8180 0.8180 0.8180
2283.000000 0.8180 0.8178 0.8178 0.8178 0.8178
2278.000000 0.8178 0.8178 0.8178 0.8181 0.8183
2273.000000 0.8184 0.8186 0.8188 0.8190 0.8191
2268.000000 0.8193 0.8195 0.8197 0.8198 0.8200
2263.000000 0.8202 0.8204 0.8205 0.8207 0.8209
2258.000000 0.8211 0.8212 0.8214 0.8216 0.8218
2253.000000 0.8220 0.8223 0.8225 0.8227 0.8228
2248.000000 0.8231 0.8233 0.8236 0.8238 0.8240
2243.000000 0.8242 0.8245 0.8247 0.8249 0.8251
2238.000000 0.8254 0.8257 0.8260 0.8263 0.8267
2233.000000 0.8270 0.8273 0.8275 0.8278 0.8282
2228.000000 0.8286 0.8289 0.8293 0.8296 0.8300
2223.000000 0.8303 0.8307 0.8310 0.8314 0.8317
2218.000000 0.8321 0.8325 0.8328 0.8332 0.8336
2213.000000 0.8339 0.8343 0.8346 0.8350 0.8353
2208.000000 0.8356 0.8359 0.8362 0.8364 0.8367
2203.000000 0.8370 0.8373 0.8375 0.8378 0.8382
2198.000000 0.8385 0.8387 0.8390 0.8393 0.8396
2193.000000 0.8399 0.8402 0.8404 0.8407 0.8409
2188.000000 0.8412 0.8414 0.8417 0.8418 0.8421
2183.000000 0.8424 0.8427 0.8428 0.8432 0.8434
2178.000000 0.8437 0.8439 0.8441 0.8443 0.8446
2173.000000 0.8448 0.8451 0.8453 0.8456 0.8458
2168.000000 0.8461 0.8463 0.8466 0.8468 0.8471
2163.000000 0.8473 0.8475 0.8478 0.8480 0.8482
2158.000000 0.8485 0.8487 0.8489 0.8491 0.8493
2153.000000 0.8495 0.8497 0.8499 0.8501 0.8503
2148.000000 0.8505 0.8507 0.8509 0.8511 0.8514
2143.000000 0.8516 0.8518 0.8521 0.8525 0.8527
2138.000000 0.8530 0.8532 0.8535 0.8538 0.8541
2133.000000 0.8543 0.8546 0.8548 0.8551 0.8554
2128.000000 0.8557 0.8559 0.8561 0.8563 0.8566
2123.000000 0.8568 0.8571 0.8573 0.8575 0.8578
2118.000000 0.8581 0.8583 0.8586 0.8588 0.8591
2113.000000 0.8593 0.8596 0.8598 0.8601 0.8603
2108.000000 0.8605 0.8607 0.8609 0.8611 0.8613
2103.000000 0.8614 0.8616 0.8618 0.8620 0.8621
2098.000000 0.8624 0.8625 0.8628 0.8630 0.8632
2093.000000 0.8633 0.8635 0.8637 0.8639 0.8641
2088.000000 0.8643 0.8645 0.8647 0.8649 0.8651
2083.000000 0.8653 0.8655 0.8657 0.8659 0.8660
2078.000000 0.8662 0.8664 0.8666 0.8668 0.8670
2073.000000 0.8671 0.8674 0.8675 0.8678 0.8680
2068.000000 0.8682 0.8684 0.8686 0.8688 0.8691
2063.000000 0.8693 0.8695 0.8697 0.8699 0.8701
2058.000000 0.8703 0.8705 0.8707 0.8709 0.8711
2053.000000 0.8711 0.8712 0.8713 0.8714 0.8714
2048.000000 0.8715 0.8715 0.8716 0.8717 0.8718
2043.000000 0.8718 0.8720 0.8721 0.8723 0.8724
2038.000000 0.8725 0.8725 0.8728 0.8728 0.8730
2033.000000 0.8731 0.8732 0.8733 0.8734 0.8734
2028.000000 0.8735 0.8736 0.8737 0.8737 0.8738
2023.000000 0.8738 0.8739 0.8739 0.8739 0.8739
2018.000000 0.8740 0.8741 0.8743 0.8744 0.8746
2013.000000 0.8747 0.8749 0.8751 0.8754 0.8756
2008.000000 0.8758 0.8759 0.8761 0.8762 0.8764
2003.000000 0.8766 0.8768 0.8768 0.8770 0.8771
1998.000000 0.8773 0.8774 0.8785 0.8763 0.8725
1993.000000 0.8689 0.8648 0.8670 0.8677 0.8687
1988.000000 0.8704 0.8721 0.8736 0.8742 0.8749
1983.000000 0.8754 0.8757 0.8760 0.8762 0.8765
1978.000000 0.8768 0.8771 0.8774 0.8775 0.8775
1973.000000 0.8771 0.8770 0.8767 0.8762 0.8755
1968.000000 0.8750 0.8745 0.8740 0.8736 0.8731
1963.000000 0.8725 0.8721 0.8718 0.8715 0.8711
1958.000000 0.8707 0.8704 0.8700 0.8696 0.8692
1953.000000 0.8688 0.8685 0.8681 0.8677 0.8673
1948.000000 0.8668 0.8663 0.8659 0.8654 0.8650
1943.000000 0.8645 0.8640 0.8636 0.8631 0.8625
1938.000000 0.8621 0.8617 0.8613 0.8608 0.8603
1933.000000 0.8599 0.8594 0.8589 0.8585 0.8581
1928.000000 0.8578 0.8575 0.8571 0.8568 0.8565
1923.000000 0.8562 0.8559 0.8555 0.8552 0.8549
1918.000000 0.8545 0.8542 0.8539 0.8536 0.8531
1913.000000 0.8525 0.8521 0.8516 0.8511 0.8506
1908.000000 0.8501 0.8496 0.8491 0.8486 0.8480
1903.000000 0.8475 0.8473 0.8468 0.8465 0.8461
1898.000000 0.8457 0.8453 0.8449 0.8445 0.8441
1893.000000 0.8437 0.8433 0.8428 0.8425 0.8420
1888.000000 0.8415 0.8410 0.8406 0.8401 0.8396
1883.000000 0.8391 0.8387 0.8382 0.8377 0.8371
1878.000000 0.8368 0.8363 0.8358 0.8353 0.8349
1873.000000 0.8344 0.8339 0.8334 0.8330 0.8324
1868.000000 0.8317 0.8311 0.8304 0.8297 0.8290
1863.000000 0.8284 0.8277 0.8270 0.8262 0.8254
1858.000000 0.8246 0.8238 0.8230 0.8221 0.8214
1853.000000 0.8206 0.8198 0.8190 0.8178 0.8167
1848.000000 0.8156 0.8144 0.8133 0.8121 0.8108
1843.000000 0.8098 0.8086 0.8074 0.8062 0.8051
1838.000000 0.8039 0.8028 0.8015 0.8004 0.7993
1833.000000 0.7981 0.7968 0.7958 0.7948 0.7937
1828.000000 0.7925 0.7915 0.7904 0.7893 0.7883
1823.000000 0.7871 0.7861 0.7850 0.7839 0.7825
1818.000000 0.7810 0.7796 0.7782 0.7767 0.7753
1813.000000 0.7739 0.7724 0.7710 0.7696 0.7683
1808.000000 0.7669 0.7656 0.7643 0.7630 0.7615
1803.000000 0.7603 0.7587 0.7571 0.7557 0.7541
1798.000000 0.7525 0.7511 0.7495 0.7480 0.7464
1793.000000 0.7449 0.7434 0.7418 0.7404 0.7389
1788.000000 0.7375 0.7360 0.7345 0.7330 0.7312
1783.000000 0.7292 0.7271 0.7251 0.7231 0.7210
1778.000000 0.7190 0.7168 0.7149 0.7125 0.7101
1773.000000 0.7078 0.7055 0.7032 0.7008 0.6985
1768.000000 0.6960 0.6928 0.6898 0.6868 0.6837
1763.000000 0.6800 0.6762 0.6725 0.6678 0.6630
1758.000000 0.6581 0.6532 0.6478 0.6424 0.6368
1753.000000 0.6306 0.6227 0.6117 0.6002 0.5827
1748.000000 0.5606 0.5512 0.5448 0.5389 0.5345
1743.000000 0.5312 0.5299 0.5298 0.5298 0.5298
1738.000000 0.5298 0.5298 0.5297 0.5297 0.5297
1733.000000 0.5294 0.5290 0.5286 0.5281 0.5276
1728.000000 0.5260 0.5247 0.5229 0.5200 0.5168
1723.000000 0.5135 0.5102 0.5066 0.5012 0.4960
1718.000000 0.4896 0.4829 0.4765 0.4709 0.4654
1713.000000 0.4599 0.4543 0.4468 0.4373 0.3982
1708.000000 0.3805 0.3712 0.3621 0.3556 0.3491
1703.000000 0.3426 0.3360 0.3296 0.3230 0.3165
1698.000000 0.3073 0.2958 0.2812 0.2717 0.2649
1693.000000 0.2581 0.2513 0.2446 0.2378 0.2308
1688.000000 0.2237 0.2167 0.2096 0.2021 0.1943
1683.000000 0.1865 0.1794 0.1720 0.1651 0.1596
1678.000000 0.1542 0.1488 0.1434 0.1384 0.1335
1673.000000 0.1286 0.1240 0.1198 0.1156 0.1114
1668.000000 0.1073 0.1032 0.0992 0.0961 0.0930
1663.000000 0.0897 0.0867 0.0835 0.0804 0.0772
1658.000000 0.0741 0.0709 0.0678 0.0646 0.0615
1653.000000 0.0587 0.0567 0.0544 0.0522 0.0504
1648.000000 0.0488 0.0475 0.0465 0.0455 0.0446
1643.000000 0.0438 0.0431 0.0423 0.0419 0.0425
1638.000000 0.0415 0.0417 0.0423 0.0432 0.0441
1633.000000 0.0455 0.0471 0.0488 0.0510 0.0532
1628.000000 0.0556 0.0592 0.0628 0.0674 0.0721
1623.000000 0.0768 0.0822 0.0895 0.0962 0.1020
1618.000000 0.1077 0.1135 0.1196 0.1263 0.1331
1613.000000 0.1398 0.1471 0.1546 0.1623 0.1701
1608.000000 0.1783 0.1865 0.1944 0.2013 0.2081
1603.000000 0.2149 0.2239 0.2358 0.2477 0.2545
1598.000000 0.2613 0.2681 0.2749 0.2814 0.2879
1593.000000 0.2944 0.3009 0.3075 0.3147 0.3218
1588.000000 0.3289 0.3366 0.3460 0.3556 0.3650
1583.000000 0.3712 0.3776 0.3839 0.3902 0.3953
1578.000000 0.4000 0.4047 0.4095 0.4142 0.4191
1573.000000 0.4239 0.4288 0.4336 0.4385 0.4443
1568.000000 0.4501 0.4558 0.4616 0.4671 0.4727
1563.000000 0.4782 0.4838 0.4890 0.4941 0.4993
1558.000000 0.5044 0.5095 0.5140 0.5186 0.5231
1553.000000 0.5276 0.5322 0.5367 0.5412 0.5455
1548.000000 0.5496 0.5536 0.5576 0.5617 0.5657
1543.000000 0.5697 0.5737 0.5774 0.5810 0.5846
1538.000000 0.5882 0.5918 0.5955 0.5988 0.6020
1533.000000 0.6051 0.6082 0.6114 0.6145 0.6176
1528.000000 0.6208 0.6239 0.6270 0.6300 0.6329
1523.000000 0.6358 0.6388 0.6417 0.6446 0.6475
1518.000000 0.6504 0.6531 0.6558 0.6586 0.6612
1513.000000 0.6641 0.6668 0.6695 0.6719 0.6745
1508.000000 0.6769 0.6793 0.6815 0.6838 0.6860
1503.000000 0.6883 0.6903 0.6921 0.6940 0.6958
1498.000000 0.6971 0.6985 0.6992 0.6999 0.6997
1493.000000 0.6994 0.6969 0.6868 0.6739 0.6595
1488.000000 0.6514 0.6442 0.6407 0.6368 0.6353
1483.000000 0.6351 0.6351 0.6365 0.6397 0.6442
1478.000000 0.6485 0.6525 0.6565 0.6607 0.6641
1473.000000 0.6675 0.6708 0.6733 0.6757 0.6782
1468.000000 0.6799 0.6815 0.6818 0.6828 0.6828
1463.000000 0.6830 0.6831 0.6821 0.6811 0.6781
1458.000000 0.6731 0.6640 0.6451 0.6338 0.6207
1453.000000 0.5942 0.5884 0.5843 0.5823 0.5797
1448.000000 0.5821 0.5872 0.5931 0.6006 0.6081
1443.000000 0.6142 0.6201 0.6253 0.6301 0.6349
1438.000000 0.6398 0.6448 0.6495 0.6537 0.6580
1433.000000 0.6615 0.6647 0.6678 0.6710 0.6742
1428.000000 0.6774 0.6806 0.6839 0.6868 0.6894
1423.000000 0.6918 0.6943 0.6967 0.6992 0.7015
1418.000000 0.7039 0.7061 0.7075 0.7090 0.7104
1413.000000 0.7118 0.7133 0.7145 0.7155 0.7165
1408.000000 0.7175 0.7186 0.7196 0.7207 0.7214
1403.000000 0.7219 0.7225 0.7232 0.7238 0.7244
1398.000000 0.7247 0.7250 0.7251 0.7272 0.7258
1393.000000 0.7258 0.7261 0.7251 0.7230 0.7186
1388.000000 0.7136 0.7065 0.6994 0.6921 0.6850
1383.000000 0.6782 0.6715 0.6649 0.6582 0.6503
1378.000000 0.6422 0.6339 0.6250 0.6160 0.6075
1373.000000 0.5994 0.5912 0.5826 0.5729 0.5602
1368.000000 0.5438 0.5348 0.5286 0.5236 0.5188
1363.000000 0.5147 0.5121 0.5106 0.5094 0.5085
1358.000000 0.5084 0.5088 0.5093 0.5105 0.5129
1353.000000 0.5171 0.5221 0.5277 0.5332 0.5393
1348.000000 0.5446 0.5488 0.5515 0.5541 0.5558
1343.000000 0.5574 0.5614 0.5580 0.5580 0.5577
1338.000000 0.5557 0.5529 0.5508 0.5496 0.5484
1333.000000 0.5468 0.5418 0.5312 0.4323 0.4153
1328.000000 0.4012 0.3757 0.3639 0.3509 0.3396
1323.000000 0.3308 0.3259 0.3250 0.3239 0.3258
1318.000000 0.3432 0.3545 0.3612 0.3721 0.3841
1313.000000 0.3959 0.4079 0.4199 0.4318 0.4438
1308.000000 0.4557 0.4677 0.4796 0.4879 0.4894
1303.000000 0.4895 0.4897 0.4890 0.4733 0.4510
1298.000000 0.4356 0.4338 0.4306 0.4328 0.4341
1293.000000 0.4392 0.4464 0.4560 0.4796 0.5030
1288.000000 0.5176 0.5442 0.5605 0.5707 0.5783
1283.000000 0.5854 0.5921 0.5983 0.6044 0.6103
1278.000000 0.6160 0.6215 0.6254 0.6286 0.6310
1273.000000 0.6325 0.6337 0.6349 0.6392 0.6359
1268.000000 0.6362 0.6364 0.6365 0.6365 0.6362
1263.000000 0.6362 0.6346 0.6328 0.6310 0.6292
1258.000000 0.6264 0.6236 0.6208 0.6180 0.6151
1253.000000 0.6120 0.6090 0.6064 0.6046 0.6028
1248.000000 0.6010 0.5993 0.5975 0.5957 0.5943
1243.000000 0.5930 0.5916 0.5903 0.5889 0.5876
1238.000000 0.5862 0.5849 0.5837 0.5826 0.5815
1233.000000 0.5804 0.5793 0.5782 0.5772 0.5764
1228.000000 0.5757 0.5750 0.5743 0.5735 0.5731
1223.000000 0.5727 0.5723 0.5719 0.5718 0.5723
1218.000000 0.5726 0.5728 0.5731 0.5738 0.5750
1213.000000 0.5764 0.5786 0.5807 0.5829 0.5843
1208.000000 0.5853 0.5862 0.5873 0.5882 0.5892
1203.000000 0.5901 0.5910 0.5919 0.5928 0.5939
1198.000000 0.5957 0.5975 0.5993 0.6010 0.6031
1193.000000 0.6055 0.6079 0.6103 0.6127 0.6146
1188.000000 0.6160 0.6174 0.6188 0.6203 0.6210
1183.000000 0.6216 0.6221 0.6226 0.6231 0.6236
1178.000000 0.6246 0.6256 0.6267 0.6280 0.6294
1173.000000 0.6308 0.6314 0.6319 0.6324 0.6329
1168.000000 0.6336 0.6343 0.6351 0.6362 0.6373
1163.000000 0.6384 0.6395 0.6406 0.6417 0.6426
1158.000000 0.6438 0.6458 0.6482 0.6515 0.6562
1153.000000 0.6610 0.6661 0.6712 0.6765 0.6815
1148.000000 0.6867 0.6918 0.6965 0.7011 0.7058
1143.000000 0.7105 0.7142 0.7178 0.7214 0.7251
1138.000000 0.7287 0.7325 0.7364 0.7403 0.7442
1133.000000 0.7480 0.7515 0.7550 0.7584 0.7606
1128.000000 0.7628 0.7651 0.7672 0.7695 0.7717
1123.000000 0.7738 0.7757 0.7775 0.7794 0.7811
1118.000000 0.7828 0.7842 0.7855 0.7868 0.7881
1113.000000 0.7894 0.7907 0.7919 0.7925 0.7932
1108.000000 0.7938 0.7943 0.7949 0.7954 0.7958
1103.000000 0.7964 0.7968 0.7972 0.7976 0.7982
1098.000000 0.7987 0.7991 0.8031 0.8001 0.8005
1093.000000 0.8010 0.8011 0.8011 0.8011 0.8006
1088.000000 0.8000 0.7971 0.7943 0.7881 0.7805
1083.000000 0.7726 0.7649 0.7560 0.7462 0.7368
1078.000000 0.7268 0.7199 0.7172 0.7153 0.7139
1073.000000 0.7111 0.7133 0.7145 0.7165 0.7195
1068.000000 0.7228 0.7261 0.7289 0.7315 0.7343
1063.000000 0.7350 0.7356 0.7378 0.7344 0.7331
1058.000000 0.7317 0.7303 0.7291 0.7286 0.7281
1053.000000 0.7275 0.7292 0.7292 0.7292 0.7300
1048.000000 0.7314 0.7331 0.7348 0.7365 0.7385
1043.000000 0.7404 0.7422 0.7437 0.7448 0.7458
1038.000000 0.7462 0.7450 0.7468 0.7465 0.7462
1033.000000 0.7460 0.7441 0.7421 0.7371 0.7325
1028.000000 0.7282 0.7240 0.7211 0.7186 0.7172
1023.000000 0.7160 0.7151 0.7147 0.7143 0.7138
1018.000000 0.7138 0.7138 0.7178 0.7218 0.7260
1013.000000 0.7290 0.7319 0.7351 0.7381 0.7418
1008.000000 0.7460 0.7503 0.7545 0.7584 0.7619
1003.000000 0.7655 0.7690 0.7725 0.7760 0.7795
998.000000 0.7832 0.7869 0.7908 0.7945 0.7983
993.000000 0.8018 0.8049 0.8078 0.8110 0.8141
988.000000 0.8168 0.8196 0.8223 0.8249 0.8275
983.000000 0.8295 0.8314 0.8332 0.8350 0.8368
978.000000 0.8386 0.8401 0.8413 0.8425 0.8437
973.000000 0.8449 0.8461 0.8474 0.8486 0.8497
968.000000 0.8509 0.8521 0.8533 0.8545 0.8557
963.000000 0.8568 0.8581 0.8593 0.8604 0.8615
958.000000 0.8627 0.8638 0.8650 0.8661 0.8671
953.000000 0.8684 0.8695 0.8707 0.8718 0.8728
948.000000 0.8736 0.8744 0.8752 0.8761 0.8768
943.000000 0.8777 0.8783 0.8789 0.8796 0.8802
938.000000 0.8809 0.8815 0.8821 0.8827 0.8832
933.000000 0.8836 0.8840 0.8845 0.8849 0.8850
928.000000 0.8850 0.8850 0.8850 0.8848 0.8848
923.000000 0.8848 0.8833 0.8825 0.8818 0.8799
918.000000 0.8775 0.8761 0.8759 0.8758 0.8758
913.000000 0.8757 0.8757 0.8757 0.8755 0.8751
908.000000 0.8748 0.8740 0.8715 0.8691 0.8648
903.000000 0.8594 0.8538 0.8461 0.8384 0.8263
898.000000 0.8121 0.8031 0.7925 0.7814 0.7741
893.000000 0.7682 0.7636 0.7603 0.7581 0.7560
888.000000 0.7541 0.7522 0.7504 0.7484 0.7461
883.000000 0.7439 0.7422 0.7408 0.7393 0.7375
878.000000 0.7357 0.7339 0.7318 0.7300 0.7282
873.000000 0.7281 0.7286 0.7300 0.7333 0.7391
868.000000 0.7487 0.7549 0.7578 0.7600 0.7608
863.000000 0.7618 0.7628 0.7628 0.7628 0.7630
858.000000 0.7631 0.7632 0.7633 0.7635 0.7640
853.000000 0.7646 0.7651 0.7676 0.7721 0.7765
848.000000 0.7825 0.7885 0.7939 0.7993 0.8042
843.000000 0.8089 0.8118 0.8148 0.8174 0.8195
838.000000 0.8211 0.8221 0.8231 0.8238 0.8242
833.000000 0.8260 0.8244 0.8241 0.8224 0.8203
828.000000 0.8168 0.8118 0.8062 0.7965 0.7861
823.000000 0.7694 0.7593 0.7448 0.7292 0.7201
818.000000 0.7112 0.7018 0.6818 0.6312 0.6035
813.000000 0.5758 0.5480 0.5203 0.4925 0.4868
808.000000 0.4901 0.4937 0.4999 0.5012 0.5039
803.000000 0.5021 0.5017 0.4926 0.4751 0.4591
798.000000 0.4543 0.4705 0.5037 0.5362 0.6436
793.000000 0.6658 0.7044 0.7147 0.7246 0.7361
788.000000 0.7503 0.7598 0.7693 0.7758 0.7814
783.000000 0.7869 0.7922 0.7951 0.7980 0.8008
778.000000 0.8034 0.8051 0.8068 0.8084 0.8101
773.000000 0.8111 0.8121 0.8131 0.8140 0.8147
768.000000 0.8151 0.8155 0.8160 0.8164 0.8164
763.000000 0.8161 0.8157 0.8143 0.8150 0.8147
758.000000 0.8143 0.8136 0.8128 0.8122 0.8115
753.000000 0.8108 0.8101 0.8096 0.8090 0.8084
748.000000 0.8078 0.8071 0.8065 0.8060 0.8054
743.000000 0.8048 0.8043 0.8037 0.8031 0.8025
738.000000 0.8018 0.8006 0.7995 0.7983 0.7971
733.000000 0.7949 0.7925 0.7901 0.7876 0.7834
728.000000 0.7790 0.7755 0.7725 0.7700 0.7685
723.000000 0.7658 0.7654 0.7653 0.7651 0.7653
718.000000 0.7654 0.7668 0.7685 0.7701 0.7718
713.000000 0.7734 0.7748 0.7761 0.7775 0.7790
708.000000 0.7803 0.7817 0.7831 0.7845 0.7854
703.000000 0.7862 0.7871 0.7880 0.7885 0.7885
698.000000 0.7885 0.7884 0.7884 0.7884 0.7884
693.000000 0.7884 0.7883 0.7883 0.7880 0.7876
688.000000 0.7874 0.7871 0.7868 0.7865 0.7861
683.000000 0.7858 0.7845 0.7832 0.7818 0.7805
678.000000 0.7790 0.7775 0.7761 0.7747 0.7739
673.000000 0.7733 0.7726 0.7719 0.7715 0.7714
668.000000 0.7711 0.7708 0.7706 0.7704 0.7701
663.000000 0.7646 0.7699 0.7700 0.7700 0.7704
658.000000 0.7707 0.7710 0.7714 0.7717 0.7721
653.000000 0.7725 0.7730 0.7735 0.7739 0.7744
648.000000 0.7748 0.7751 0.7757 0.7758 0.7761
643.000000 0.7765 0.7767 0.7769 0.7771 0.7775
638.000000 0.7776 0.7780 0.7784 0.7787 0.7791
633.000000 0.7795 0.7799 0.7801 0.7806 0.7810
628.000000 0.7812 0.7814 0.7815 0.7815 0.7825
623.000000 0.7818 0.7819 0.7814 0.7775 0.7738
618.000000 0.7700 0.7649 0.7596 0.7543 0.7490
613.000000 0.7437 0.7381 0.7321 0.7262 0.7186
608.000000 0.7111 0.7042 0.6967 0.6926 0.6886
603.000000 0.6899 0.6899 0.6951 0.7005 0.7068
598.000000 0.7136 0.7165 0.7192 0.7181 0.7136
593.000000 0.7068 0.6992 0.6834 0.6712 0.6569
588.000000 0.6491 0.6432 0.6385 0.6350 0.6327
583.000000 0.6312 0.6272 0.6298 0.6332 0.6395
578.000000 0.6454 0.6494 0.6533 0.6578 0.6632
573.000000 0.6682 0.6724 0.6775 0.6839 0.6928
568.000000 0.7022 0.7111 0.7182 0.7240 0.7297
563.000000 0.7342 0.7386 0.7430 0.7472 0.7515
558.000000 0.7544 0.7567 0.7590 0.7612 0.7624
553.000000 0.7635 0.7646 0.7657 0.7661 0.7664
548.000000 0.7665 0.7668 0.7669 0.7672 0.7672
543.000000 0.7665 0.7667 0.7664 0.7661 0.7658
538.000000 0.7649 0.7640 0.7630 0.7619 0.7610
533.000000 0.7592 0.7572 0.7554 0.7535 0.7515
528.000000 0.7497 0.7475 0.7453 0.7428 0.7406
523.000000 0.7382 0.7358 0.7328 0.7297 0.7265
518.000000 0.7233 0.7201 0.7162 0.7122 0.7083
513.000000 0.7042 0.6994 0.6935 0.6875 0.6797
508.000000 0.6717 0.6644 0.6572 0.6486 0.6355
503.000000 0.6275 0.6195 0.6103 0.6010 0.5945
498.000000 0.5890 0.5834 0.5777 0.5717 0.5680
493.000000 0.5650 0.5622 0.5603 0.5530 0.5576
488.000000 0.5567 0.5624 0.5688 0.5783 0.5881
483.000000 0.5950 0.6018 0.6087 0.6155 0.6255
478.000000 0.6360 0.6447 0.6525 0.6603 0.6651
473.000000 0.6694 0.6738 0.6772 0.6807 0.6841
468.000000 0.6875 0.6906 0.6928 0.6950 0.6971
463.000000 0.6994 0.7005 0.7014 0.7022 0.7032
458.000000 0.7041 0.7050 0.7056 0.7060 0.7062
453.000000 0.7067 0.7069 0.7071 0.7071 0.7068
448.000000 0.7064 0.7054 0.7041 0.7028 0.7015
443.000000 0.7003 0.6992 0.6981 0.6968 0.6958
438.000000 0.6945 0.6930 0.6915 0.6899 0.6885
433.000000 0.6872 0.6861 0.6856 0.6851 0.6846
428.000000 0.6841 0.6839 0.6839 0.6839 0.6838
423.000000 0.6831 0.6822 0.6815 0.6807 0.6786
418.000000 0.6780 0.6767 0.6753 0.6740 0.6725
413.000000 0.6712 0.6700 0.6689 0.6678 0.6668
408.000000 0.6658 0.6648 0.6638 0.6628 0.6618
403.000000 0.6614 0.6608 0.6605 0.6600 0.6596
398.000000 0.6594 0.6592 0.6590 0.6588 0.6587
393.000000 0.6585 0.6583 0.6583 0.6584 0.6586
388.000000 0.6587 0.6589
##END=
