##TITLE=1,2,4-TRIAZOLE, 3-AMINO-, PICRATE
##JCAMP-DX=4.24
##DATA TYPE=INFRARED SPECTRUM
##CLASS=COBLENTZ
##ORIGIN=TENNESSEE EASTMAN COMPANY, RESEARCH LABORATORIES
##OWNER=COBLENTZ SOCIETY
Collection (C) 2018 copyright by the U.S. Secretary of Commerce
on behalf of the United States of America. All rights reserved.
##DATE=Not specified, most likely prior to 1970
##MOLFORM=C8 H7 N7 O7
##SOURCE REFERENCE=COBLENTZ NO. 1681
##$NIST ID=B6001681
##$NIST SOURCE=COBLENTZ
##$NIST IMAGE=cob1681
##SPECTROMETER/DATA SYSTEM=Not specified, most likely a prism, grating, or hybrid spectrometer.
##STATE=SOLID (NUJOL MULL)
##SAMPLING PROCEDURE=TRANSMISSION
##RESOLUTION=4
##DATA PROCESSING=DIGITIZED BY NIST FROM HARD COPY
##XUNITS=MICROMETERS
##YUNITS=TRANSMITTANCE
##XFACTOR=1.000000
##YFACTOR=1
##DELTAX=000.006826
##FIRSTX=2.041
##LASTX=16.007
##FIRSTY=0.536
##MAXX=16.007
##MINX=2.041
##MAXY=0.989
##MINY=0.01
##NPOINTS=2047
##XYDATA=(X++(Y..Y))
2.041000 0.5360 0.5360 0.5380 0.5400 0.5410
2.075146 0.5430 0.5460 0.5500 0.5500 0.5510
2.109000 0.5530 0.5600 0.5650 0.5680 0.5720
2.143146 0.5740 0.5770 0.5790 0.5800 0.5820
2.177000 0.5860 0.5890 0.5890 0.5910 0.5910
2.211146 0.5910 0.5910 0.5910 0.5910 0.5910
2.246000 0.5890 0.5890 0.5890 0.5890 0.5890
2.280146 0.5890 0.5890 0.5890 0.5890 0.5890
2.314000 0.5910 0.5910 0.5920 0.5920 0.5970
2.348146 0.5970 0.5990 0.6030 0.6080 0.6090
2.382000 0.6090 0.6090 0.6110 0.6140 0.6180
2.416146 0.6180 0.6210 0.6230 0.6260 0.6280
2.451000 0.6320 0.6330 0.6370 0.6400 0.6420
2.485146 0.6430 0.6490 0.6500 0.6500 0.6570
2.519000 0.6590 0.6600 0.6620 0.6660 0.6690
2.553146 0.6710 0.6710 0.6720 0.6720 0.6720
2.587000 0.6760 0.6760 0.6790 0.6810 0.6830
2.621146 0.6840 0.6860 0.6890 0.6960 0.7010
2.655000 0.7060 0.7080 0.7120 0.7170 0.7200
2.689146 0.7240 0.7270 0.7300 0.7370 0.7410
2.724000 0.7440 0.7470 0.7470 0.7490 0.7510
2.758146 0.7590 0.7610 0.7680 0.7700 0.7700
2.792000 0.7750 0.7750 0.7810 0.7900 0.7970
2.826146 0.7970 0.8000 0.8020 0.8070 0.8120
2.860000 0.8120 0.8070 0.8050 0.6640 0.6140
2.894146 0.5000 0.3850 0.3810 0.3850 0.4440
2.928000 0.6210 0.6210 0.6090 0.5650 0.5110
2.962146 0.4990 0.4870 0.4480 0.4170 0.4120
2.997000 0.4170 0.4490 0.4630 0.4780 0.5290
3.031146 0.5410 0.5430 0.5510 0.5650 0.5790
3.065000 0.5960 0.6010 0.6060 0.6090 0.6140
3.099146 0.6260 0.6300 0.6330 0.6350 0.6370
3.133000 0.6400 0.6400 0.6370 0.6210 0.5940
3.167146 0.5890 0.5940 0.5960 0.6010 0.6010
3.201000 0.5990 0.5500 0.5280 0.5160 0.5020
3.235146 0.5000 0.5000 0.5000 0.4970 0.4940
3.270000 0.4900 0.4820 0.4770 0.4730 0.4710
3.304146 0.4650 0.4530 0.4190 0.3780 0.3300
3.338000 0.2840 0.2350 0.1150 0.0730 0.0560
3.372146 0.0440 0.0340 0.0270 0.0230 0.0180
3.406000 0.0130 0.0110 0.0110 0.0100 0.0100
3.440146 0.0110 0.0170 0.0250 0.0300 0.0320
3.474000 0.0320 0.0320 0.0350 0.0510 0.0690
3.508146 0.1730 0.2180 0.2820 0.4200 0.4750
3.543000 0.4900 0.5260 0.5530 0.5580 0.5700
3.577146 0.5840 0.5920 0.5990 0.6040 0.6090
3.611000 0.6140 0.6180 0.6200 0.6230 0.6250
3.645146 0.6250 0.6250 0.6250 0.6250 0.6230
3.679000 0.6230 0.6250 0.6280 0.6300 0.6330
3.713146 0.6380 0.6420 0.6430 0.6490 0.6500
3.747000 0.6520 0.6550 0.6550 0.6590 0.6640
3.781146 0.6720 0.6760 0.6790 0.6830 0.6880
3.816000 0.6950 0.6960 0.7000 0.7010 0.7060
3.850146 0.7100 0.7170 0.7200 0.7220 0.7220
3.884000 0.7240 0.7270 0.7390 0.7460 0.7490
3.918146 0.7540 0.7560 0.7590 0.7630 0.7640
3.952000 0.7640 0.7680 0.7710 0.7750 0.7760
3.986146 0.7780 0.7800 0.7800 0.7830 0.7850
4.020000 0.7870 0.7880 0.7900 0.7920 0.7920
4.054146 0.7930 0.7950 0.7970 0.7980 0.8000
4.089000 0.8000 0.8040 0.8070 0.8090 0.8120
4.123146 0.8120 0.8140 0.8140 0.8160 0.8160
4.157000 0.8160 0.8160 0.8160 0.8160 0.8170
4.191146 0.8170 0.8170 0.8210 0.8270 0.8340
4.225000 0.8360 0.8430 0.8460 0.8500 0.8510
4.259146 0.8510 0.8510 0.8510 0.8510 0.8510
4.294000 0.8510 0.8510 0.8510 0.8510 0.8510
4.328146 0.8530 0.8530 0.8530 0.8530 0.8530
4.362000 0.8530 0.8560 0.8560 0.8560 0.8580
4.396146 0.8600 0.8620 0.8620 0.8620 0.8630
4.430000 0.8650 0.8650 0.8650 0.8650 0.8650
4.464146 0.8650 0.8670 0.8670 0.8670 0.8680
4.498000 0.8720 0.8750 0.8770 0.8800 0.8840
4.532146 0.8850 0.8870 0.8870 0.8900 0.8900
4.567000 0.8920 0.8940 0.8960 0.8960 0.8960
4.601146 0.8960 0.8960 0.8970 0.8990 0.9010
4.635000 0.9020 0.9040 0.9060 0.9090 0.9110
4.669146 0.9130 0.9140 0.9160 0.9160 0.9180
4.703000 0.9180 0.9180 0.9180 0.9180 0.9180
4.737146 0.9180 0.9190 0.9190 0.9190 0.9190
4.771000 0.9210 0.9210 0.9230 0.9250 0.9260
4.805146 0.9280 0.9300 0.9310 0.9310 0.9310
4.840000 0.9310 0.9310 0.9310 0.9310 0.9310
4.874146 0.9310 0.9330 0.9330 0.9330 0.9350
4.908000 0.9360 0.9380 0.9380 0.9400 0.9400
4.942146 0.9400 0.9400 0.9420 0.9430 0.9450
4.976000 0.9450 0.9470 0.9480 0.9480 0.9500
5.010146 0.9500 0.9500 0.9520 0.9520 0.9520
5.044000 0.9520 0.9520 0.9520 0.9540 0.9540
5.078146 0.9550 0.9550 0.9550 0.9570 0.9570
5.113000 0.9590 0.9600 0.9600 0.9620 0.9620
5.147146 0.9620 0.9640 0.9640 0.9640 0.9650
5.181000 0.9670 0.9690 0.9690 0.9710 0.9710
5.215146 0.9710 0.9710 0.9710 0.9710 0.9710
5.249000 0.9710 0.9710 0.9710 0.9710 0.9710
5.283146 0.9710 0.9710 0.9710 0.9710 0.9710
5.317000 0.9710 0.9710 0.9710 0.9710 0.9690
5.351146 0.9690 0.9670 0.9670 0.9670 0.9670
5.386000 0.9670 0.9670 0.9670 0.9670 0.9670
5.420146 0.9690 0.9690 0.9720 0.9720 0.9740
5.454000 0.9760 0.9760 0.9770 0.9770 0.9770
5.488146 0.9790 0.9810 0.9840 0.9860 0.9880
5.522000 0.9880 0.9890 0.9890 0.9890 0.9890
5.556146 0.9890 0.9890 0.9890 0.9890 0.9880
5.590000 0.9880 0.9880 0.9880 0.9880 0.9880
5.624146 0.9880 0.9880 0.9880 0.9880 0.9880
5.659000 0.9890 0.9880 0.9880 0.9880 0.9880
5.693146 0.9860 0.9860 0.9820 0.9810 0.9760
5.727000 0.9740 0.9690 0.9650 0.9640 0.9600
5.761146 0.9550 0.9330 0.9090 0.8970 0.8410
5.795000 0.7920 0.7520 0.7130 0.6720 0.6710
5.829146 0.5940 0.5140 0.5120 0.5020 0.4920
5.863000 0.4680 0.4050 0.3710 0.3470 0.3440
5.897146 0.3470 0.4150 0.5340 0.6010 0.6160
5.932000 0.6380 0.6710 0.7150 0.7350 0.7630
5.966146 0.7730 0.7800 0.7870 0.7980 0.8000
6.000000 0.8020 0.8020 0.8000 0.7900 0.7710
6.034146 0.7490 0.6810 0.6060 0.5310 0.5190
6.068000 0.4780 0.4370 0.4000 0.3370 0.3200
6.102146 0.3110 0.3110 0.3330 0.3660 0.4390
6.137000 0.4490 0.4650 0.4780 0.4780 0.4820
6.171146 0.4830 0.4950 0.5050 0.5120 0.5170
6.205000 0.6160 0.7180 0.7250 0.7370 0.7580
6.239146 0.7580 0.7540 0.7460 0.6570 0.5920
6.273000 0.5580 0.5240 0.5210 0.5240 0.5340
6.307146 0.5500 0.5860 0.6230 0.6230 0.6180
6.341000 0.5750 0.5240 0.4710 0.4390 0.3740
6.375146 0.3440 0.3420 0.3400 0.3400 0.3570
6.410000 0.3610 0.3620 0.3620 0.3330 0.3330
6.444146 0.3350 0.3660 0.3740 0.4240 0.4870
6.478000 0.5630 0.5860 0.6040 0.6230 0.6280
6.512146 0.6370 0.6370 0.6350 0.6160 0.5740
6.546000 0.5240 0.4900 0.4540 0.3670 0.3250
6.580146 0.3100 0.3080 0.3100 0.3270 0.3610
6.614000 0.3850 0.5220 0.5220 0.5170 0.5040
6.648146 0.4900 0.4900 0.4900 0.4900 0.4990
6.683000 0.5360 0.5330 0.5290 0.5240 0.5140
6.717146 0.5090 0.5040 0.4990 0.4780 0.4680
6.751000 0.4530 0.4100 0.3610 0.3570 0.3230
6.785146 0.3100 0.2870 0.2720 0.2620 0.2530
6.819000 0.2480 0.2470 0.2470 0.2480 0.2520
6.853146 0.2580 0.2790 0.3040 0.3230 0.3390
6.887000 0.3590 0.3830 0.3950 0.4170 0.4420
6.921146 0.4650 0.4870 0.4920 0.4940 0.4940
6.956000 0.4940 0.4940 0.4940 0.4940 0.4970
6.990146 0.5620 0.5840 0.6040 0.6260 0.6490
7.024000 0.6690 0.6910 0.7130 0.7470 0.7630
7.058146 0.7660 0.7730 0.7780 0.7780 0.7780
7.092000 0.7680 0.7590 0.7540 0.7520 0.7520
7.126146 0.7510 0.7510 0.7510 0.7510 0.7510
7.160000 0.7510 0.7470 0.7410 0.7170 0.7000
7.194146 0.6830 0.6790 0.6540 0.6260 0.5970
7.229000 0.5400 0.4800 0.4220 0.4050 0.3730
7.263146 0.3570 0.3320 0.3250 0.3150 0.3040
7.297000 0.2940 0.2870 0.2790 0.2770 0.2770
7.331146 0.2790 0.2960 0.3210 0.3330 0.3330
7.365000 0.3300 0.3210 0.3160 0.3130 0.3080
7.399146 0.2980 0.2910 0.2870 0.2840 0.2770
7.433000 0.2600 0.2330 0.1990 0.1850 0.1720
7.467146 0.1600 0.1480 0.1460 0.1440 0.1440
7.502000 0.1460 0.1660 0.1890 0.2120 0.2380
7.536146 0.2650 0.2980 0.3330 0.3730 0.4030
7.570000 0.4100 0.4340 0.4590 0.4650 0.4770
7.604146 0.4940 0.5360 0.5570 0.5680 0.5840
7.638000 0.5990 0.6080 0.6110 0.6160 0.6160
7.672146 0.6160 0.6140 0.6060 0.5920 0.5890
7.706000 0.5870 0.5870 0.5870 0.5870 0.5890
7.740146 0.5890 0.5890 0.5860 0.5740 0.5580
7.775000 0.5000 0.4850 0.4680 0.4370 0.3980
7.809146 0.3860 0.3610 0.3590 0.3610 0.3760
7.843000 0.3930 0.4080 0.4250 0.4420 0.4580
7.877146 0.4750 0.4820 0.4880 0.4990 0.5400
7.911000 0.5460 0.5500 0.5670 0.5680 0.5670
7.945146 0.5140 0.4820 0.4490 0.4250 0.4220
7.980000 0.4240 0.4310 0.4440 0.4650 0.5430
8.014146 0.5510 0.5600 0.5840 0.6010 0.6090
8.048000 0.6260 0.6330 0.6470 0.6570 0.6640
8.082146 0.6710 0.6780 0.6860 0.6950 0.7050
8.116000 0.7130 0.7220 0.7290 0.7350 0.7390
8.150146 0.7470 0.7540 0.7580 0.7590 0.7660
8.184000 0.7680 0.7700 0.7710 0.7750 0.7750
8.218146 0.7780 0.7780 0.7800 0.7810 0.7810
8.253000 0.7850 0.7870 0.7880 0.7900 0.7920
8.287146 0.7930 0.7970 0.7980 0.8000 0.8020
8.321000 0.8040 0.8050 0.8070 0.8090 0.8120
8.355146 0.8140 0.8170 0.8170 0.8190 0.8190
8.389000 0.8210 0.8220 0.8220 0.8240 0.8240
8.423146 0.8240 0.8260 0.8270 0.8270 0.8260
8.457000 0.8260 0.8260 0.8220 0.8210 0.8140
8.491146 0.8040 0.7610 0.7320 0.7030 0.6740
8.526000 0.6470 0.6230 0.5990 0.5960 0.5990
8.560146 0.6280 0.6400 0.6500 0.6640 0.6760
8.594000 0.6840 0.7030 0.7270 0.7410 0.7460
8.628146 0.7520 0.7640 0.7680 0.7700 0.7730
8.662000 0.7760 0.7800 0.7800 0.7870 0.7900
8.696146 0.7980 0.7980 0.8020 0.8050 0.8090
8.730000 0.8120 0.8160 0.8170 0.8170 0.8190
8.764146 0.8210 0.8210 0.8260 0.8260 0.8260
8.799000 0.8270 0.8290 0.8390 0.8410 0.8440
8.833146 0.8500 0.8530 0.8530 0.8560 0.8560
8.867000 0.8560 0.8580 0.8560 0.8560 0.8560
8.901146 0.8560 0.8560 0.8580 0.8580 0.8580
8.935000 0.8600 0.8600 0.8600 0.8600 0.8600
8.969146 0.8600 0.8600 0.8600 0.8600 0.8620
9.003000 0.8620 0.8620 0.8620 0.8620 0.8620
9.037146 0.8620 0.8620 0.8620 0.8620 0.8620
9.072000 0.8600 0.8600 0.8580 0.8530 0.8500
9.106146 0.8440 0.8380 0.8330 0.8220 0.8140
9.140000 0.8120 0.8070 0.7980 0.7970 0.7930
9.174146 0.7800 0.7640 0.7580 0.7520 0.7460
9.208000 0.7440 0.7440 0.7470 0.7520 0.7590
9.242146 0.7680 0.7760 0.7800 0.7810 0.7810
9.276000 0.7810 0.7800 0.7800 0.7800 0.7800
9.310146 0.7810 0.7810 0.7850 0.7880 0.7880
9.345000 0.7900 0.7920 0.7930 0.7970 0.7980
9.379146 0.7980 0.8000 0.8020 0.8050 0.8090
9.413000 0.8090 0.8090 0.8090 0.8090 0.8090
9.447146 0.8070 0.8020 0.7830 0.7660 0.7590
9.481000 0.7540 0.7470 0.7440 0.7460 0.7510
9.515146 0.7590 0.7700 0.7780 0.7830 0.7950
9.549000 0.8000 0.8040 0.8090 0.8090 0.8170
9.583146 0.8210 0.8240 0.8260 0.8260 0.8270
9.618000 0.8270 0.8270 0.8290 0.8330 0.8410
9.652146 0.8510 0.8560 0.8560 0.8560 0.8580
9.686000 0.8580 0.8580 0.8580 0.8580 0.8580
9.720146 0.8580 0.8600 0.8600 0.8600 0.8600
9.754000 0.8600 0.8600 0.8600 0.8600 0.8600
9.788146 0.8600 0.8600 0.8600 0.8620 0.8620
9.823000 0.8620 0.8620 0.8630 0.8630 0.8670
9.857146 0.8670 0.8670 0.8670 0.8670 0.8670
9.891000 0.8650 0.8650 0.8670 0.8670 0.8650
9.925146 0.8650 0.8670 0.8670 0.8670 0.8670
9.959000 0.8680 0.8680 0.8680 0.8680 0.8700
9.993146 0.8700 0.8700 0.8700 0.8700 0.8700
10.027000 0.8700 0.8700 0.8680 0.8680 0.8680
10.061146 0.8680 0.8680 0.8680 0.8680 0.8680
10.096000 0.8700 0.8700 0.8700 0.8680 0.8680
10.130146 0.8680 0.8680 0.8680 0.8680 0.8680
10.164000 0.8680 0.8680 0.8680 0.8680 0.8680
10.198146 0.8680 0.8680 0.8680 0.8670 0.8670
10.232000 0.8670 0.8650 0.8650 0.8650 0.8650
10.266146 0.8630 0.8630 0.8630 0.8630 0.8620
10.300000 0.8620 0.8620 0.8620 0.8620 0.8620
10.334146 0.8620 0.8620 0.8620 0.8630 0.8630
10.369000 0.8630 0.8630 0.8630 0.8630 0.8630
10.403146 0.8630 0.8620 0.8580 0.8580 0.8560
10.437000 0.8530 0.8510 0.8440 0.8380 0.8270
10.471146 0.7920 0.7640 0.7520 0.6980 0.6670
10.505000 0.6300 0.6040 0.5890 0.5870 0.5890
10.539146 0.6130 0.6370 0.6490 0.7000 0.7200
10.573000 0.7290 0.7300 0.7300 0.7300 0.7290
10.607146 0.7270 0.7250 0.7240 0.7220 0.7240
10.642000 0.7300 0.7420 0.7520 0.7640 0.7780
10.676146 0.7800 0.8000 0.8040 0.8070 0.8100
10.710000 0.8160 0.8170 0.8170 0.8170 0.8170
10.744146 0.8170 0.8170 0.8170 0.8100 0.7970
10.778000 0.7800 0.7680 0.7590 0.7490 0.7370
10.812146 0.7200 0.7200 0.7080 0.7060 0.7100
10.846000 0.7270 0.7420 0.7470 0.7490 0.7490
10.880146 0.7470 0.7370 0.7350 0.7350 0.7370
10.915000 0.7540 0.7730 0.7880 0.8090 0.8140
10.949146 0.8270 0.8410 0.8440 0.8560 0.8600
10.983000 0.8630 0.8650 0.8670 0.8700 0.8720
11.017146 0.8730 0.8750 0.8770 0.8820 0.8870
11.051000 0.8870 0.8900 0.8920 0.8940 0.8960
11.085146 0.8970 0.8990 0.8990 0.9010 0.9010
11.119000 0.9020 0.9020 0.9020 0.9020 0.9020
11.153146 0.9020 0.9040 0.9040 0.9060 0.9060
11.188000 0.9060 0.9060 0.9060 0.9060 0.9060
11.222146 0.9060 0.9060 0.9060 0.9080 0.9080
11.256000 0.9080 0.9080 0.9080 0.9080 0.9080
11.290146 0.9080 0.9080 0.9080 0.9080 0.9080
11.324000 0.9080 0.9080 0.9080 0.9080 0.9080
11.358146 0.9080 0.9080 0.9080 0.9080 0.9080
11.392000 0.9080 0.9080 0.9080 0.9080 0.9080
11.426146 0.9080 0.9060 0.9060 0.9040 0.9010
11.461000 0.8970 0.8960 0.8940 0.8890 0.8870
11.495146 0.8840 0.8700 0.8670 0.8580 0.8530
11.529000 0.8530 0.8480 0.8440 0.8270 0.8100
11.563146 0.7950 0.7590 0.7490 0.7240 0.7080
11.597000 0.6840 0.6660 0.6450 0.6420 0.6380
11.631146 0.6380 0.6570 0.6880 0.7250 0.7540
11.666000 0.7800 0.8000 0.8210 0.8380 0.8500
11.700146 0.8550 0.8600 0.8670 0.8730 0.8770
11.734000 0.8820 0.8850 0.8870 0.8920 0.8960
11.768146 0.8970 0.8990 0.9020 0.9020 0.9060
11.802000 0.9060 0.9060 0.9060 0.9060 0.9060
11.836146 0.9060 0.9040 0.9010 0.8990 0.8990
11.870000 0.8970 0.8940 0.8890 0.8850 0.8840
11.904146 0.8800 0.8790 0.8790 0.8790 0.8790
11.939000 0.8800 0.8800 0.8820 0.8820 0.8840
11.973146 0.8840 0.8840 0.8840 0.8840 0.8840
12.007000 0.8840 0.8840 0.8820 0.8820 0.8790
12.041146 0.8730 0.8680 0.8630 0.8600 0.8560
12.075000 0.8480 0.8460 0.8440 0.8360 0.8310
12.109146 0.8270 0.8220 0.8070 0.7970 0.7900
12.143000 0.7800 0.7800 0.7780 0.7760 0.7760
12.177146 0.7750 0.7750 0.7730 0.7710 0.7710
12.212000 0.7700 0.7700 0.7680 0.7680 0.7680
12.246146 0.7680 0.7680 0.7680 0.7680 0.7680
12.280000 0.7700 0.7700 0.7700 0.7700 0.7710
12.314146 0.7750 0.7760 0.7780 0.7800 0.7810
12.348000 0.7850 0.7900 0.7930 0.7970 0.8000
12.382146 0.8040 0.8070 0.8100 0.8120 0.8210
12.416000 0.8260 0.8270 0.8310 0.8360 0.8390
12.450146 0.8440 0.8480 0.8510 0.8530 0.8560
12.485000 0.8580 0.8580 0.8600 0.8600 0.8620
12.519146 0.8620 0.8620 0.8630 0.8630 0.8670
12.553000 0.8670 0.8670 0.8670 0.8670 0.8670
12.587146 0.8650 0.8650 0.8620 0.8600 0.8530
12.621000 0.8460 0.8390 0.7900 0.7750 0.6740
12.655146 0.6160 0.5920 0.5620 0.5340 0.5190
12.689000 0.5170 0.5190 0.5330 0.5530 0.6090
12.723146 0.6130 0.6420 0.6780 0.7240 0.7370
12.758000 0.7460 0.7780 0.7920 0.7920 0.7970
12.792146 0.8050 0.8160 0.8260 0.8360 0.8460
12.826000 0.8500 0.8560 0.8580 0.8600 0.8600
12.860146 0.8620 0.8620 0.8620 0.8630 0.8630
12.894000 0.8650 0.8650 0.8650 0.8650 0.8650
12.928146 0.8670 0.8670 0.8670 0.8670 0.8670
12.962000 0.8680 0.8700 0.8700 0.8700 0.8720
12.996146 0.8730 0.8750 0.8750 0.8790 0.8800
13.031000 0.8820 0.8840 0.8840 0.8850 0.8850
13.065146 0.8870 0.8870 0.8870 0.8870 0.8870
13.099000 0.8870 0.8870 0.8840 0.8840 0.8820
13.133146 0.8800 0.8750 0.8670 0.8620 0.8530
13.167000 0.8480 0.8460 0.8430 0.8330 0.8240
13.201146 0.8190 0.8160 0.8100 0.8090 0.8090
13.235000 0.8090 0.8090 0.8090 0.8090 0.8070
13.269146 0.8020 0.7930 0.7880 0.7710 0.7610
13.304000 0.7460 0.7300 0.7130 0.7030 0.6980
13.338146 0.6930 0.6910 0.6930 0.6980 0.7010
13.372000 0.7120 0.7240 0.7370 0.7470 0.7580
13.406146 0.7660 0.7780 0.7930 0.8000 0.8020
13.440000 0.8090 0.8160 0.8170 0.8190 0.8210
13.474146 0.8210 0.8220 0.8220 0.8220 0.8220
13.509000 0.8220 0.8220 0.8220 0.8220 0.8220
13.543146 0.8210 0.8210 0.8210 0.8190 0.8160
13.577000 0.8140 0.8090 0.8040 0.7970 0.7900
13.611146 0.7800 0.7680 0.7580 0.7520 0.7410
13.645000 0.7320 0.7240 0.7120 0.7010 0.6880
13.679146 0.6790 0.6720 0.6670 0.6620 0.6600
13.713000 0.6590 0.6590 0.6590 0.6620 0.6690
13.747146 0.6740 0.6790 0.6860 0.6890 0.6960
13.782000 0.7010 0.7030 0.7060 0.7060 0.7060
13.816146 0.7060 0.7060 0.7060 0.7060 0.7060
13.850000 0.7050 0.7050 0.7010 0.7000 0.6960
13.884146 0.6950 0.6930 0.6880 0.6860 0.6780
13.918000 0.6720 0.6660 0.6620 0.6540 0.6450
13.952146 0.6350 0.6260 0.6200 0.6160 0.6090
13.986000 0.6010 0.5990 0.5970 0.5970 0.5970
14.020146 0.5970 0.5990 0.5990 0.5990 0.6010
14.055000 0.6010 0.6010 0.6010 0.6010 0.5990
14.089146 0.5970 0.5940 0.5890 0.5840 0.5800
14.123000 0.5790 0.5790 0.5790 0.5790 0.5790
14.157146 0.5820 0.5870 0.5970 0.6010 0.6090
14.191000 0.6180 0.6250 0.6370 0.6490 0.6640
14.225146 0.6710 0.6780 0.6840 0.6930 0.6980
14.259000 0.7080 0.7120 0.7170 0.7250 0.7270
14.293146 0.7320 0.7350 0.7390 0.7440 0.7460
14.328000 0.7490 0.7510 0.7560 0.7590 0.7610
14.362146 0.7660 0.7680 0.7700 0.7730 0.7750
14.396000 0.7760 0.7780 0.7800 0.7800 0.7810
14.430146 0.7830 0.7830 0.7830 0.7850 0.7850
14.464000 0.7850 0.7870 0.7870 0.7870 0.7870
14.498146 0.7870 0.7870 0.7870 0.7870 0.7870
14.532000 0.7880 0.7880 0.7880 0.7880 0.7880
14.566146 0.7880 0.7880 0.7880 0.7880 0.7880
14.601000 0.7880 0.7880 0.7880 0.7880 0.7880
14.635146 0.7880 0.7880 0.7880 0.7880 0.7880
14.669000 0.7880 0.7880 0.7880 0.7880 0.7880
14.703146 0.7880 0.7880 0.7880 0.7880 0.7880
14.737000 0.7880 0.7880 0.7870 0.7870 0.7870
14.771146 0.7870 0.7870 0.7850 0.7850 0.7850
14.805000 0.7850 0.7830 0.7830 0.7810 0.7800
14.839146 0.7780 0.7780 0.7760 0.7760 0.7760
14.874000 0.7750 0.7730 0.7730 0.7710 0.7710
14.908146 0.7710 0.7700 0.7700 0.7700 0.7700
14.942000 0.7680 0.7680 0.7680 0.7660 0.7640
14.976146 0.7640 0.7630 0.7610 0.7590 0.7580
15.010000 0.7540 0.7490 0.7460 0.7420 0.7390
15.044146 0.7370 0.7350 0.7320 0.7290 0.7270
15.078000 0.7250 0.7180 0.7170 0.7150 0.7130
15.112146 0.7130 0.7120 0.7100 0.7080 0.7060
15.147000 0.7050 0.7030 0.7010 0.6980 0.6960
15.181146 0.6950 0.6880 0.6860 0.6860 0.6840
15.215000 0.6830 0.6810 0.6790 0.6780 0.6760
15.249146 0.6740 0.6720 0.6710 0.6690 0.6690
15.283000 0.6690 0.6690 0.6670 0.6670 0.6670
15.317146 0.6670 0.6660 0.6670 0.6660 0.6660
15.352000 0.6660 0.6660 0.6660 0.6660 0.6660
15.386146 0.6640 0.6640 0.6660 0.6660 0.6660
15.420000 0.6660 0.6660 0.6660 0.6660 0.6670
15.454146 0.6670 0.6670 0.6670 0.6670 0.6670
15.488000 0.6670 0.6690 0.6690 0.6710 0.6690
15.522146 0.6710 0.6720 0.6720 0.6740 0.6740
15.556000 0.6760 0.6760 0.6780 0.6780 0.6780
15.590146 0.6780 0.6780 0.6790 0.6790 0.6790
15.625000 0.6790 0.6790 0.6790 0.6790 0.6790
15.659146 0.6790 0.6790 0.6790 0.6810 0.6810
15.693000 0.6830 0.6830 0.6830 0.6830 0.6840
15.727146 0.6860 0.6860 0.6880 0.6880 0.6880
15.761000 0.6880 0.6880 0.6880 0.6880 0.6880
15.795146 0.6880 0.6880 0.6890 0.6890 0.6890
15.829000 0.6890 0.6890 0.6890 0.6890 0.6910
15.863146 0.6910 0.6910 0.6930 0.6930 0.6930
15.898000 0.6950 0.6950 0.6950 0.6930 0.6950
15.932146 0.6950 0.6950 0.6950 0.6950 0.6950
15.966000 0.6950 0.6950 0.6950 0.6950 0.6950
16.000146 0.6930 0.6950
##END=
