##TITLE=LEAD ORTHOARSENATE, DIBASIC
$$ C.P.
##JCAMP-DX=4.24
##DATA TYPE=INFRARED SPECTRUM
##CLASS=COBLENTZ
##ORIGIN=MELLON INSTITUTE
##OWNER=COBLENTZ SOCIETY
Collection (C) 2018 copyright by the U.S. Secretary of Commerce
on behalf of the United States of America. All rights reserved.
##DATE=Not specified, most likely prior to 1970
##MOLFORM=Pb H As O4
##SOURCE REFERENCE=COBLENTZ NO. 500
##$NIST ID=B6000500
##$NIST SOURCE=COBLENTZ
##$NIST IMAGE=cob500
##SPECTROMETER/DATA SYSTEM=Not specified, most likely a prism, grating, or hybrid spectrometer.
##STATE=SOLID (NUJOL MULL)
##PATH LENGTH=
$$SPECTRAL CONTAMINATION DUE TO OIL AROUND 2900, 1450, 1380 CM^-^1
##SAMPLING PROCEDURE=TRANSMISSION
##RESOLUTION=4
##DATA PROCESSING=DIGITIZED BY NIST FROM HARD COPY
##XUNITS=MICROMETERS
##YUNITS=TRANSMITTANCE
##XFACTOR=1.000000
##YFACTOR=1
##DELTAX=000.006828
##FIRSTX=2.01
##LASTX=15.9868
##FIRSTY=0.73
##MAXX=15.9868
##MINX=2.01
##MAXY=0.991
##MINY=0.182
##NPOINTS=2048
##XYDATA=(X++(Y..Y))
2.010000 0.7300 0.7310 0.7330 0.7350 0.7350
2.044157 0.7380 0.7380 0.7400 0.7400 0.7420
2.078000 0.7450 0.7490 0.7500 0.7520 0.7540
2.112157 0.7540 0.7560 0.7590 0.7590 0.7610
2.146000 0.7640 0.7640 0.7660 0.7680 0.7690
2.180157 0.7710 0.7730 0.7740 0.7740 0.7740
2.215000 0.7780 0.7800 0.7810 0.7810 0.7810
2.249157 0.7830 0.7810 0.7810 0.7810 0.7810
2.283000 0.7830 0.7850 0.7860 0.7860 0.7900
2.317157 0.7900 0.7900 0.7920 0.7930 0.7970
2.351000 0.8000 0.8000 0.8000 0.8000 0.8000
2.385157 0.8020 0.8020 0.8040 0.8070 0.8090
2.420000 0.8100 0.8120 0.8120 0.8140 0.8160
2.454157 0.8170 0.8190 0.8210 0.8210 0.8230
2.488000 0.8240 0.8240 0.8260 0.8280 0.8290
2.522157 0.8290 0.8330 0.8310 0.8310 0.8310
2.556000 0.8330 0.8350 0.8360 0.8360 0.8360
2.590157 0.8360 0.8380 0.8410 0.8450 0.8470
2.624000 0.8480 0.8480 0.8470 0.8450 0.8430
2.658157 0.8450 0.8480 0.8530 0.8550 0.8550
2.693000 0.8570 0.8570 0.8530 0.8550 0.8550
2.727157 0.8550 0.8550 0.8570 0.8550 0.8550
2.761000 0.8570 0.8570 0.8590 0.8600 0.8600
2.795157 0.8620 0.8640 0.8650 0.8670 0.8670
2.829000 0.8670 0.8670 0.8670 0.8670 0.8650
2.863157 0.8670 0.8670 0.8690 0.8690 0.8690
2.898000 0.8690 0.8690 0.8710 0.8690 0.8690
2.932157 0.8690 0.8710 0.8720 0.8720 0.8720
2.966000 0.8720 0.8740 0.8760 0.8760 0.8740
3.000157 0.8760 0.8760 0.8740 0.8740 0.8740
3.034000 0.8740 0.8760 0.8760 0.8760 0.8760
3.068157 0.8760 0.8760 0.8760 0.8760 0.8740
3.102000 0.8780 0.8780 0.8790 0.8790 0.8790
3.136157 0.8790 0.8790 0.8790 0.8790 0.8790
3.171000 0.8790 0.8810 0.8830 0.8830 0.8830
3.205157 0.8830 0.8810 0.8810 0.8810 0.8810
3.239000 0.8780 0.8760 0.8740 0.8740 0.8710
3.273157 0.8670 0.8550 0.8430 0.8260 0.8090
3.307000 0.7830 0.7010 0.6370 0.5130 0.4460
3.341157 0.3880 0.3500 0.3290 0.2850 0.2490
3.376000 0.2450 0.2490 0.2730 0.3480 0.4020
3.410157 0.4570 0.4910 0.5100 0.5060 0.4980
3.444000 0.4890 0.4630 0.4620 0.4630 0.5030
3.478157 0.5790 0.6710 0.7130 0.7730 0.8120
3.512000 0.8410 0.8600 0.8670 0.8780 0.8900
3.546157 0.8950 0.8980 0.8980 0.9020 0.9030
3.580000 0.9030 0.9050 0.9070 0.9070 0.9070
3.614157 0.9070 0.9080 0.9080 0.9100 0.9100
3.649000 0.9100 0.9100 0.9120 0.9120 0.9120
3.683157 0.9120 0.9140 0.9150 0.9150 0.9150
3.717000 0.9150 0.9170 0.9200 0.9220 0.9220
3.751157 0.9240 0.9240 0.9240 0.9260 0.9260
3.785000 0.9260 0.9270 0.9290 0.9310 0.9310
3.819157 0.9310 0.9310 0.9310 0.9320 0.9320
3.854000 0.9340 0.9340 0.9340 0.9340 0.9340
3.888157 0.9340 0.9340 0.9340 0.9340 0.9340
3.922000 0.9360 0.9360 0.9360 0.9360 0.9360
3.956157 0.9360 0.9360 0.9360 0.9340 0.9340
3.990000 0.9320 0.9320 0.9320 0.9310 0.9290
4.024157 0.9290 0.9290 0.9270 0.9270 0.9270
4.058000 0.9270 0.9270 0.9270 0.9270 0.9260
4.092157 0.9240 0.9190 0.9190 0.9190 0.9190
4.127000 0.9190 0.9200 0.9190 0.9190 0.9190
4.161157 0.9170 0.9170 0.9170 0.9120 0.9120
4.195000 0.9100 0.9080 0.9070 0.9030 0.9000
4.229157 0.8980 0.8980 0.8980 0.8980 0.8960
4.263000 0.8960 0.8960 0.8950 0.8950 0.8930
4.297157 0.8930 0.8910 0.8900 0.8900 0.8900
4.331000 0.8900 0.8910 0.8930 0.8960 0.9000
4.365157 0.9000 0.9020 0.9020 0.9020 0.9030
4.400000 0.9050 0.9070 0.9070 0.9070 0.9070
4.434157 0.9070 0.9050 0.9050 0.9030 0.9030
4.468000 0.9030 0.9030 0.9030 0.9030 0.9030
4.502157 0.9030 0.9030 0.9030 0.9030 0.9030
4.536000 0.9030 0.9030 0.9030 0.9030 0.9030
4.570157 0.9030 0.9030 0.9030 0.9030 0.9030
4.605000 0.9030 0.9030 0.9030 0.9050 0.9150
4.639157 0.9150 0.9150 0.9150 0.9150 0.9150
4.673000 0.9170 0.9170 0.9190 0.9190 0.9200
4.707157 0.9200 0.9200 0.9200 0.9200 0.9220
4.741000 0.9240 0.9240 0.9260 0.9260 0.9260
4.775157 0.9270 0.9260 0.9260 0.9260 0.9260
4.809000 0.9290 0.9290 0.9290 0.9290 0.9290
4.843157 0.9290 0.9310 0.9310 0.9320 0.9340
4.878000 0.9360 0.9380 0.9380 0.9380 0.9390
4.912157 0.9390 0.9410 0.9410 0.9410 0.9410
4.946000 0.9410 0.9430 0.9430 0.9430 0.9430
4.980157 0.9410 0.9410 0.9410 0.9410 0.9430
5.014000 0.9450 0.9450 0.9450 0.9460 0.9500
5.048157 0.9500 0.9480 0.9500 0.9500 0.9510
5.083000 0.9510 0.9510 0.9510 0.9530 0.9530
5.117157 0.9530 0.9530 0.9550 0.9550 0.9550
5.151000 0.9550 0.9570 0.9580 0.9600 0.9620
5.185157 0.9620 0.9620 0.9630 0.9650 0.9650
5.219000 0.9650 0.9650 0.9650 0.9650 0.9650
5.253157 0.9650 0.9650 0.9670 0.9650 0.9670
5.287000 0.9670 0.9670 0.9650 0.9650 0.9650
5.321157 0.9650 0.9650 0.9650 0.9650 0.9650
5.356000 0.9650 0.9650 0.9650 0.9650 0.9650
5.390157 0.9650 0.9650 0.9650 0.9650 0.9650
5.424000 0.9650 0.9650 0.9650 0.9650 0.9650
5.458157 0.9650 0.9630 0.9620 0.9600 0.9580
5.492000 0.9570 0.9550 0.9550 0.9570 0.9580
5.526157 0.9580 0.9600 0.9600 0.9600 0.9550
5.561000 0.9550 0.9570 0.9580 0.9580 0.9580
5.595157 0.9600 0.9580 0.9600 0.9620 0.9620
5.629000 0.9600 0.9600 0.9570 0.9550 0.9510
5.663157 0.9500 0.9480 0.9500 0.9500 0.9510
5.697000 0.9530 0.9570 0.9570 0.9550 0.9550
5.731157 0.9550 0.9550 0.9530 0.9500 0.9450
5.765000 0.9450 0.9450 0.9450 0.9450 0.9450
5.799157 0.9450 0.9460 0.9430 0.9390 0.9360
5.834000 0.9340 0.9340 0.9320 0.9310 0.9320
5.868157 0.9320 0.9320 0.9310 0.9290 0.9270
5.902000 0.9260 0.9260 0.9270 0.9290 0.9290
5.936157 0.9220 0.9220 0.9200 0.9220 0.9240
5.970000 0.9260 0.9260 0.9260 0.9260 0.9260
6.004157 0.9290 0.9290 0.9220 0.9200 0.9200
6.038000 0.9150 0.9140 0.9120 0.9120 0.9140
6.072157 0.9140 0.9140 0.9150 0.9170 0.9190
6.107000 0.9190 0.9190 0.9190 0.9200 0.9190
6.141157 0.9200 0.9190 0.9190 0.9190 0.9190
6.175000 0.9200 0.9190 0.9190 0.9190 0.9200
6.209157 0.9200 0.9200 0.9200 0.9220 0.9240
6.243000 0.9270 0.9270 0.9270 0.9260 0.9240
6.277157 0.9260 0.9260 0.9310 0.9320 0.9320
6.312000 0.9310 0.9310 0.9270 0.9240 0.9200
6.346157 0.9200 0.9240 0.9290 0.9310 0.9310
6.380000 0.9310 0.9310 0.9270 0.9240 0.9240
6.414157 0.9270 0.9290 0.9310 0.9320 0.9310
6.448000 0.9290 0.9270 0.9270 0.9260 0.9240
6.482157 0.9220 0.9220 0.9200 0.9190 0.9190
6.516000 0.9190 0.9200 0.9220 0.9260 0.9270
6.550157 0.9290 0.9310 0.9310 0.9310 0.9310
6.585000 0.9270 0.9260 0.9240 0.9220 0.9240
6.619157 0.9260 0.9270 0.9290 0.9290 0.9290
6.653000 0.9290 0.9270 0.9270 0.9270 0.9270
6.687157 0.9270 0.9260 0.9260 0.9220 0.9200
6.721000 0.9150 0.9140 0.9030 0.8980 0.8900
6.755157 0.8760 0.8670 0.8520 0.8480 0.8310
6.790000 0.8140 0.7520 0.7500 0.7400 0.7350
6.824157 0.7310 0.7280 0.7250 0.7230 0.7230
6.858000 0.7260 0.7300 0.7330 0.7490 0.7520
6.892157 0.7620 0.7660 0.7860 0.8000 0.8120
6.926000 0.8190 0.8240 0.8260 0.8330 0.8380
6.960157 0.8500 0.8640 0.8710 0.8790 0.8900
6.994000 0.9000 0.9000 0.9020 0.9030 0.9030
7.028157 0.9030 0.9030 0.9050 0.9050 0.9050
7.063000 0.9050 0.9080 0.9150 0.9170 0.9190
7.097157 0.9200 0.9190 0.9190 0.9190 0.9170
7.131000 0.9150 0.9140 0.9140 0.9120 0.9120
7.165157 0.9100 0.9030 0.8950 0.8910 0.8790
7.199000 0.8670 0.8480 0.8290 0.8160 0.8140
7.233157 0.8090 0.8050 0.8090 0.8140 0.8230
7.268000 0.8330 0.8400 0.8450 0.8470 0.8480
7.302157 0.8520 0.8600 0.8690 0.8740 0.8840
7.336000 0.8900 0.8930 0.8950 0.8960 0.8980
7.370157 0.8980 0.8980 0.8980 0.9000 0.9020
7.404000 0.9030 0.9030 0.9020 0.9000 0.9020
7.438157 0.9030 0.9030 0.9080 0.9100 0.9120
7.472000 0.9120 0.9140 0.9150 0.9150 0.9170
7.506157 0.9190 0.9190 0.9190 0.9190 0.9150
7.541000 0.9140 0.9140 0.9140 0.9150 0.9170
7.575157 0.9170 0.9190 0.9200 0.9200 0.9200
7.609000 0.9200 0.9190 0.9170 0.9150 0.9170
7.643157 0.9170 0.9190 0.9200 0.9220 0.9220
7.677000 0.9220 0.9240 0.9260 0.9260 0.9260
7.711157 0.9260 0.9260 0.9260 0.9260 0.9260
7.745000 0.9260 0.9270 0.9310 0.9310 0.9310
7.779157 0.9320 0.9320 0.9340 0.9340 0.9320
7.814000 0.9320 0.9320 0.9320 0.9310 0.9310
7.848157 0.9290 0.9270 0.9310 0.9340 0.9360
7.882000 0.9380 0.9390 0.9410 0.9430 0.9430
7.916157 0.9430 0.9430 0.9430 0.9430 0.9430
7.950000 0.9430 0.9430 0.9430 0.9430 0.9430
7.984157 0.9430 0.9450 0.9450 0.9450 0.9430
8.019000 0.9430 0.9430 0.9430 0.9450 0.9450
8.053157 0.9430 0.9410 0.9410 0.9430 0.9450
8.087000 0.9460 0.9450 0.9450 0.9450 0.9460
8.121157 0.9460 0.9450 0.9460 0.9480 0.9500
8.155000 0.9480 0.9460 0.9460 0.9460 0.9460
8.189157 0.9480 0.9500 0.9510 0.9510 0.9510
8.223000 0.9510 0.9510 0.9510 0.9510 0.9510
8.257157 0.9530 0.9510 0.9510 0.9510 0.9500
8.292000 0.9500 0.9500 0.9510 0.9510 0.9530
8.326157 0.9550 0.9550 0.9550 0.9550 0.9550
8.360000 0.9550 0.9550 0.9550 0.9550 0.9550
8.394157 0.9550 0.9550 0.9550 0.9550 0.9530
8.428000 0.9530 0.9550 0.9550 0.9550 0.9570
8.462157 0.9550 0.9550 0.9550 0.9550 0.9550
8.497000 0.9550 0.9550 0.9550 0.9550 0.9550
8.531157 0.9550 0.9550 0.9550 0.9550 0.9550
8.565000 0.9550 0.9550 0.9570 0.9570 0.9580
8.599157 0.9580 0.9580 0.9580 0.9570 0.9580
8.633000 0.9580 0.9580 0.9580 0.9570 0.9550
8.667157 0.9550 0.9570 0.9580 0.9580 0.9600
8.701000 0.9600 0.9620 0.9620 0.9600 0.9580
8.735157 0.9600 0.9600 0.9600 0.9600 0.9600
8.770000 0.9600 0.9580 0.9600 0.9600 0.9620
8.804157 0.9620 0.9630 0.9650 0.9650 0.9650
8.838000 0.9650 0.9650 0.9670 0.9670 0.9670
8.872157 0.9650 0.9650 0.9630 0.9630 0.9620
8.906000 0.9620 0.9600 0.9600 0.9620 0.9630
8.940157 0.9630 0.9630 0.9650 0.9650 0.9650
8.975000 0.9670 0.9650 0.9650 0.9650 0.9650
9.009157 0.9650 0.9650 0.9670 0.9650 0.9650
9.043000 0.9650 0.9650 0.9650 0.9630 0.9670
9.077157 0.9690 0.9700 0.9700 0.9720 0.9720
9.111000 0.9720 0.9700 0.9690 0.9690 0.9670
9.145157 0.9670 0.9700 0.9720 0.9720 0.9720
9.179000 0.9740 0.9740 0.9700 0.9700 0.9700
9.213157 0.9700 0.9700 0.9720 0.9720 0.9720
9.248000 0.9700 0.9700 0.9750 0.9750 0.9750
9.282157 0.9750 0.9740 0.9720 0.9720 0.9740
9.316000 0.9720 0.9720 0.9720 0.9740 0.9750
9.350157 0.9770 0.9770 0.9790 0.9810 0.9810
9.384000 0.9810 0.9810 0.9820 0.9810 0.9810
9.418157 0.9810 0.9790 0.9810 0.9810 0.9810
9.453000 0.9810 0.9810 0.9820 0.9810 0.9820
9.487157 0.9820 0.9820 0.9820 0.9820 0.9840
9.521000 0.9840 0.9840 0.9820 0.9820 0.9820
9.555157 0.9840 0.9840 0.9840 0.9840 0.9840
9.589000 0.9840 0.9820 0.9820 0.9820 0.9810
9.623157 0.9770 0.9770 0.9770 0.9790 0.9810
9.657000 0.9810 0.9790 0.9790 0.9810 0.9810
9.691157 0.9820 0.9820 0.9790 0.9790 0.9810
9.726000 0.9810 0.9810 0.9810 0.9810 0.9790
9.760157 0.9790 0.9820 0.9820 0.9820 0.9840
9.794000 0.9820 0.9840 0.9820 0.9820 0.9820
9.828157 0.9820 0.9840 0.9840 0.9840 0.9820
9.862000 0.9820 0.9820 0.9820 0.9810 0.9770
9.896157 0.9740 0.9750 0.9750 0.9770 0.9750
9.930000 0.9750 0.9750 0.9770 0.9790 0.9790
9.964157 0.9790 0.9770 0.9810 0.9820 0.9840
9.999000 0.9860 0.9870 0.9870 0.9890 0.9890
10.033157 0.9890 0.9910 0.9890 0.9890 0.9870
10.067000 0.9840 0.9840 0.9840 0.9840 0.9810
10.101157 0.9810 0.9810 0.9810 0.9790 0.9810
10.135000 0.9810 0.9770 0.9750 0.9750 0.9720
10.169157 0.9740 0.9750 0.9750 0.9750 0.9790
10.204000 0.9790 0.9750 0.9740 0.9720 0.9720
10.238157 0.9720 0.9720 0.9720 0.9700 0.9700
10.272000 0.9700 0.9720 0.9720 0.9720 0.9720
10.306157 0.9700 0.9700 0.9670 0.9650 0.9650
10.340000 0.9620 0.9600 0.9600 0.9600 0.9600
10.374157 0.9600 0.9570 0.9570 0.9550 0.9570
10.408000 0.9550 0.9550 0.9550 0.9550 0.9550
10.442157 0.9550 0.9530 0.9530 0.9530 0.9510
10.477000 0.9530 0.9530 0.9570 0.9570 0.9550
10.511157 0.9550 0.9550 0.9570 0.9580 0.9620
10.545000 0.9570 0.9550 0.9550 0.9530 0.9530
10.579157 0.9510 0.9510 0.9510 0.9530 0.9530
10.613000 0.9530 0.9530 0.9530 0.9530 0.9510
10.647157 0.9500 0.9480 0.9450 0.9430 0.9450
10.682000 0.9450 0.9500 0.9500 0.9430 0.9410
10.716157 0.9410 0.9410 0.9410 0.9410 0.9410
10.750000 0.9410 0.9410 0.9430 0.9410 0.9410
10.784157 0.9410 0.9410 0.9390 0.9360 0.9360
10.818000 0.9380 0.9380 0.9360 0.9380 0.9360
10.852157 0.9360 0.9380 0.9360 0.9340 0.9320
10.886000 0.9320 0.9340 0.9380 0.9380 0.9390
10.920157 0.9390 0.9390 0.9410 0.9410 0.9430
10.955000 0.9450 0.9430 0.9430 0.9430 0.9430
10.989157 0.9430 0.9390 0.9430 0.9390 0.9390
11.023000 0.9390 0.9390 0.9390 0.9390 0.9390
11.057157 0.9390 0.9390 0.9390 0.9380 0.9340
11.091000 0.9320 0.9340 0.9340 0.9360 0.9360
11.125157 0.9360 0.9360 0.9390 0.9390 0.9390
11.160000 0.9380 0.9380 0.9360 0.9360 0.9360
11.194157 0.9340 0.9310 0.9310 0.9290 0.9290
11.228000 0.9310 0.9310 0.9310 0.9270 0.9260
11.262157 0.9270 0.9260 0.9260 0.9260 0.9240
11.296000 0.9200 0.9200 0.9190 0.9170 0.9170
11.330157 0.9170 0.9150 0.9150 0.9150 0.9140
11.364000 0.9140 0.9140 0.9120 0.9120 0.9100
11.398157 0.9080 0.9080 0.9050 0.9050 0.9030
11.433000 0.9030 0.9020 0.9020 0.9000 0.8950
11.467157 0.8910 0.8910 0.8860 0.8810 0.8760
11.501000 0.8740 0.8740 0.8690 0.8650 0.8570
11.535157 0.8550 0.8520 0.8450 0.8400 0.8350
11.569000 0.8280 0.8210 0.8160 0.8120 0.8040
11.603157 0.8000 0.7970 0.7930 0.7930 0.7900
11.637000 0.7850 0.7740 0.7730 0.7710 0.7610
11.671157 0.7540 0.7520 0.7470 0.7450 0.7420
11.706000 0.7350 0.7260 0.7210 0.7180 0.7160
11.740157 0.7130 0.7040 0.7040 0.7040 0.7010
11.774000 0.7010 0.6990 0.6990 0.6940 0.6900
11.808157 0.6830 0.6800 0.6800 0.6780 0.6750
11.842000 0.6730 0.6710 0.6680 0.6660 0.6630
11.876157 0.6610 0.6540 0.6540 0.6520 0.6490
11.911000 0.6460 0.6420 0.6370 0.6340 0.6300
11.945157 0.6270 0.6230 0.6160 0.6150 0.6150
11.979000 0.6060 0.6010 0.5920 0.5870 0.5840
12.013157 0.5800 0.5750 0.5720 0.5650 0.5630
12.047000 0.5540 0.5490 0.5440 0.5340 0.5270
12.081157 0.5240 0.5200 0.5100 0.5030 0.5010
12.115000 0.4980 0.4890 0.4810 0.4740 0.4650
12.149157 0.4600 0.4530 0.4500 0.4430 0.4340
12.184000 0.4310 0.4190 0.4100 0.4020 0.4000
12.218157 0.3900 0.3830 0.3760 0.3710 0.3600
12.252000 0.3520 0.3500 0.3400 0.3330 0.3230
12.286157 0.3120 0.3040 0.3020 0.2920 0.2850
12.320000 0.2830 0.2780 0.2620 0.2570 0.2500
12.354157 0.2420 0.2330 0.2300 0.2250 0.2250
12.389000 0.2160 0.2130 0.2090 0.2040 0.2020
12.423157 0.2010 0.2010 0.1990 0.1990 0.1940
12.457000 0.1900 0.1900 0.1870 0.1870 0.1830
12.491157 0.1830 0.1820 0.1820 0.1820 0.1820
12.525000 0.1820 0.1820 0.1830 0.1870 0.1900
12.559157 0.1940 0.1940 0.2010 0.2040 0.2110
12.593000 0.2280 0.2380 0.2490 0.2610 0.2710
12.627157 0.2740 0.2800 0.3000 0.3040 0.3190
12.662000 0.3290 0.3410 0.3520 0.3620 0.3740
12.696157 0.3880 0.4070 0.4150 0.4200 0.4320
12.730000 0.4500 0.4600 0.4630 0.4810 0.4870
12.764157 0.5010 0.5100 0.5220 0.5360 0.5440
12.798000 0.5510 0.5700 0.5730 0.5770 0.5800
12.832157 0.5840 0.5870 0.5940 0.6010 0.6010
12.867000 0.6130 0.6180 0.6270 0.6300 0.6340
12.901157 0.6390 0.6440 0.6490 0.6520 0.6540
12.935000 0.6560 0.6590 0.6610 0.6610 0.6630
12.969157 0.6640 0.6660 0.6700 0.6710 0.6710
13.003000 0.6730 0.6730 0.6730 0.6730 0.6730
13.037157 0.6730 0.6730 0.6730 0.6730 0.6710
13.071000 0.6710 0.6700 0.6700 0.6700 0.6680
13.105157 0.6660 0.6640 0.6630 0.6630 0.6610
13.140000 0.6590 0.6580 0.6560 0.6560 0.6540
13.174157 0.6520 0.6510 0.6490 0.6490 0.6470
13.208000 0.6470 0.6460 0.6460 0.6440 0.6420
13.242157 0.6400 0.6400 0.6390 0.6350 0.6340
13.276000 0.6320 0.6320 0.6300 0.6280 0.6270
13.310157 0.6250 0.6230 0.6210 0.6210 0.6200
13.345000 0.6200 0.6180 0.6180 0.6180 0.6160
13.379157 0.6160 0.6160 0.6160 0.6160 0.6160
13.413000 0.6160 0.6160 0.6160 0.6160 0.6160
13.447157 0.6160 0.6160 0.6160 0.6160 0.6160
13.481000 0.6160 0.6180 0.6180 0.6180 0.6180
13.515157 0.6180 0.6180 0.6180 0.6180 0.6180
13.549000 0.6180 0.6180 0.6180 0.6200 0.6210
13.583157 0.6250 0.6280 0.6300 0.6320 0.6340
13.618000 0.6340 0.6350 0.6350 0.6340 0.6340
13.652157 0.6340 0.6340 0.6340 0.6350 0.6370
13.686000 0.6420 0.6460 0.6490 0.6520 0.6540
13.720157 0.6560 0.6560 0.6560 0.6610 0.6610
13.754000 0.6630 0.6640 0.6660 0.6680 0.6680
13.788157 0.6700 0.6700 0.6710 0.6730 0.6750
13.822000 0.6760 0.6780 0.6800 0.6820 0.6830
13.856157 0.6830 0.6870 0.6900 0.6900 0.6920
13.891000 0.6920 0.6940 0.6950 0.6950 0.7010
13.925157 0.7040 0.7040 0.7060 0.7110 0.7130
13.959000 0.7130 0.7140 0.7160 0.7180 0.7190
13.993157 0.7190 0.7250 0.7260 0.7280 0.7280
14.027000 0.7300 0.7300 0.7310 0.7310 0.7330
14.061157 0.7330 0.7370 0.7380 0.7400 0.7400
14.096000 0.7420 0.7430 0.7430 0.7450 0.7450
14.130157 0.7450 0.7470 0.7500 0.7520 0.7520
14.164000 0.7540 0.7540 0.7560 0.7560 0.7560
14.198157 0.7560 0.7570 0.7570 0.7570 0.7570
14.232000 0.7570 0.7610 0.7610 0.7610 0.7610
14.266157 0.7610 0.7610 0.7620 0.7640 0.7640
14.300000 0.7640 0.7640 0.7640 0.7660 0.7680
14.334157 0.7680 0.7690 0.7730 0.7740 0.7730
14.369000 0.7730 0.7710 0.7710 0.7710 0.7710
14.403157 0.7710 0.7710 0.7710 0.7710 0.7710
14.437000 0.7710 0.7690 0.7690 0.7690 0.7690
14.471157 0.7690 0.7690 0.7690 0.7690 0.7690
14.505000 0.7680 0.7680 0.7680 0.7680 0.7690
14.539157 0.7690 0.7680 0.7690 0.7690 0.7690
14.574000 0.7690 0.7690 0.7690 0.7690 0.7690
14.608157 0.7680 0.7680 0.7660 0.7660 0.7680
14.642000 0.7690 0.7690 0.7690 0.7690 0.7680
14.676157 0.7680 0.7660 0.7660 0.7660 0.7660
14.710000 0.7640 0.7620 0.7620 0.7620 0.7620
14.744157 0.7620 0.7610 0.7610 0.7590 0.7570
14.778000 0.7560 0.7540 0.7540 0.7520 0.7490
14.812157 0.7490 0.7470 0.7470 0.7490 0.7490
14.847000 0.7490 0.7490 0.7490 0.7500 0.7500
14.881157 0.7490 0.7500 0.7490 0.7500 0.7500
14.915000 0.7470 0.7450 0.7450 0.7450 0.7430
14.949157 0.7430 0.7450 0.7450 0.7450 0.7450
14.983000 0.7450 0.7470 0.7470 0.7450 0.7450
15.017157 0.7450 0.7450 0.7430 0.7420 0.7420
15.052000 0.7400 0.7400 0.7400 0.7380 0.7380
15.086157 0.7370 0.7350 0.7370 0.7380 0.7370
15.120000 0.7350 0.7350 0.7330 0.7310 0.7300
15.154157 0.7300 0.7300 0.7300 0.7300 0.7300
15.188000 0.7300 0.7300 0.7280 0.7280 0.7260
15.222157 0.7250 0.7230 0.7230 0.7230 0.7210
15.256000 0.7210 0.7210 0.7210 0.7190 0.7190
15.290157 0.7190 0.7190 0.7190 0.7210 0.7210
15.325000 0.7190 0.7180 0.7190 0.7190 0.7210
15.359157 0.7210 0.7210 0.7210 0.7210 0.7210
15.393000 0.7210 0.7210 0.7190 0.7180 0.7160
15.427157 0.7140 0.7130 0.7130 0.7110 0.7110
15.461000 0.7110 0.7110 0.7090 0.7070 0.7060
15.495157 0.7060 0.7060 0.7060 0.7060 0.7060
15.529000 0.7040 0.7040 0.7040 0.7020 0.7040
15.563157 0.7040 0.7040 0.7040 0.7040 0.7040
15.598000 0.7040 0.7060 0.7040 0.7040 0.7040
15.632157 0.7040 0.7020 0.7020 0.7010 0.6990
15.666000 0.6970 0.6950 0.6940 0.6940 0.6940
15.700157 0.6940 0.6920 0.6920 0.6940 0.6950
15.734000 0.6950 0.6950 0.6940 0.6920 0.6940
15.768157 0.6950 0.6950 0.6950 0.6950 0.6950
15.803000 0.6940 0.6920 0.6900 0.6890 0.6870
15.837157 0.6870 0.6870 0.6870 0.6870 0.6870
15.871000 0.6890 0.6890 0.6890 0.6870 0.6870
15.905157 0.6890 0.6890 0.6890 0.6890 0.6870
15.939000 0.6870 0.6850 0.6850 0.6870 0.6870
15.973157 0.6890 0.6890 0.6890
##END=
