##TITLE=4-(Delta'-CYCLOHEXENYL)-1-METHYL-ISONIPECOTONITRILE
##JCAMP-DX=4.24
##DATA TYPE=INFRARED SPECTRUM
##CLASS=COBLENTZ
##OWNER=COBLENTZ SOCIETY
Collection (C) 2018 copyright by the U.S. Secretary of Commerce
on behalf of the United States of America. All rights reserved.
##DATE=Not specified, most likely prior to 1970
##NAMES=4-(1-cyclohexen-1-yl)-1-methyl-4-piperidinecarbonitrile
##MOLFORM=C13 H20 N2
##SOURCE REFERENCE=COBLENTZ NO. 672
##$NIST ID=B6000672
##$NIST SOURCE=COBLENTZ
##$NIST IMAGE=cob672
##SPECTROMETER/DATA SYSTEM=Not specified, most likely a prism, grating, or hybrid spectrometer.
##STATE=LIQUID
##PATH LENGTH=0.00125 CM
##SAMPLING PROCEDURE=TRANSMISSION
##RESOLUTION=4
##DATA PROCESSING=DIGITIZED BY NIST FROM HARD COPY
##XUNITS=MICROMETERS
##YUNITS=TRANSMITTANCE
##XFACTOR=1.000000
##YFACTOR=1
##DELTAX=000.006556
##FIRSTX=2.026
##LASTX=15.459
##FIRSTY=0.895
##MAXX=15.459
##MINX=2.026
##MAXY=0.898
##MINY=0.016
##NPOINTS=2050
##XYDATA=(X++(Y..Y))
2.026000 0.8950 0.8950 0.8950 0.8950 0.8950
2.058795 0.8950 0.8930 0.8930 0.8930 0.8930
2.092000 0.8930 0.8930 0.8930 0.8950 0.8950
2.124795 0.8960 0.8960 0.8960 0.8980 0.8980
2.157000 0.8980 0.8980 0.8980 0.8980 0.8980
2.189795 0.8960 0.8960 0.8950 0.8930 0.8910
2.223000 0.8900 0.8850 0.8830 0.8820 0.8790
2.255795 0.8750 0.8690 0.8640 0.8610 0.8560
2.288000 0.8510 0.8500 0.8500 0.8500 0.8500
2.320795 0.8480 0.8480 0.8480 0.8480 0.8500
2.354000 0.8510 0.8510 0.8530 0.8530 0.8540
2.386795 0.8540 0.8540 0.8560 0.8560 0.8580
2.420000 0.8580 0.8590 0.8590 0.8610 0.8610
2.452795 0.8610 0.8610 0.8610 0.8610 0.8610
2.485000 0.8610 0.8590 0.8610 0.8610 0.8590
2.517795 0.8590 0.8590 0.8590 0.8590 0.8610
2.551000 0.8610 0.8620 0.8670 0.8690 0.8700
2.583795 0.8720 0.8740 0.8740 0.8750 0.8770
2.616000 0.8770 0.8770 0.8770 0.8790 0.8790
2.648795 0.8790 0.8800 0.8800 0.8800 0.8800
2.682000 0.8800 0.8800 0.8800 0.8800 0.8800
2.714795 0.8790 0.8750 0.8720 0.8670 0.8640
2.747000 0.8640 0.8620 0.8620 0.8620 0.8620
2.779795 0.8620 0.8620 0.8620 0.8620 0.8620
2.813000 0.8620 0.8620 0.8620 0.8610 0.8610
2.845795 0.8590 0.8590 0.8560 0.8530 0.8510
2.878000 0.8500 0.8480 0.8450 0.8450 0.8430
2.910795 0.8430 0.8430 0.8410 0.8400 0.8380
2.944000 0.8370 0.8350 0.8320 0.8300 0.8320
2.976795 0.8320 0.8330 0.8330 0.8350 0.8370
3.010000 0.8400 0.8400 0.8400 0.8400 0.8400
3.042795 0.8400 0.8380 0.8380 0.8380 0.8380
3.075000 0.8380 0.8350 0.8330 0.8320 0.8330
3.107795 0.8330 0.8320 0.8300 0.8270 0.8270
3.141000 0.8270 0.8300 0.8320 0.8350 0.8370
3.173795 0.8380 0.8380 0.8370 0.8300 0.8220
3.206000 0.8060 0.7900 0.7790 0.7660 0.7540
3.238795 0.7460 0.7380 0.7370 0.7350 0.7330
3.272000 0.7330 0.7160 0.6950 0.6670 0.6220
3.304795 0.5580 0.4770 0.3820 0.2720 0.1500
3.337000 0.1250 0.1000 0.0790 0.0580 0.0410
3.369795 0.0270 0.0190 0.0170 0.0160 0.0190
3.403000 0.0370 0.0530 0.0670 0.0820 0.1030
3.435795 0.1290 0.1410 0.1410 0.1380 0.1320
3.468000 0.1270 0.1190 0.1160 0.1190 0.1560
3.500795 0.2060 0.2400 0.2410 0.2290 0.2060
3.534000 0.1500 0.1000 0.0980 0.1010 0.1220
3.566795 0.1460 0.1830 0.1950 0.2190 0.2370
3.600000 0.2540 0.2740 0.3000 0.3350 0.3850
3.632795 0.4500 0.5330 0.5930 0.5930 0.5900
3.665000 0.5800 0.5790 0.5500 0.5410 0.5410
3.697795 0.5430 0.5460 0.5960 0.6320 0.6560
3.731000 0.6740 0.6830 0.6900 0.6960 0.7060
3.763795 0.7170 0.7290 0.7410 0.7540 0.7690
3.796000 0.7830 0.7960 0.8090 0.8170 0.8220
3.828795 0.8270 0.8320 0.8370 0.8380 0.8400
3.862000 0.8410 0.8410 0.8450 0.8450 0.8450
3.894795 0.8430 0.8430 0.8410 0.8400 0.8400
3.927000 0.8370 0.8370 0.8370 0.8350 0.8350
3.959795 0.8330 0.8370 0.8380 0.8380 0.8400
3.993000 0.8410 0.8410 0.8410 0.8410 0.8400
4.025795 0.8400 0.8400 0.8400 0.8400 0.8400
4.058000 0.8410 0.8450 0.8480 0.8500 0.8510
4.090795 0.8540 0.8590 0.8610 0.8620 0.8620
4.124000 0.8620 0.8620 0.8610 0.8620 0.8610
4.156795 0.8590 0.8590 0.8590 0.8560 0.8580
4.190000 0.8590 0.8590 0.8590 0.8590 0.8590
4.222795 0.8610 0.8610 0.8620 0.8640 0.8660
4.255000 0.8660 0.8640 0.8640 0.8640 0.8620
4.287795 0.8610 0.8580 0.8580 0.8610 0.8620
4.321000 0.8640 0.8640 0.8620 0.8610 0.8610
4.353795 0.8610 0.8590 0.8580 0.8510 0.8500
4.386000 0.8480 0.8480 0.8430 0.8400 0.8370
4.418795 0.8350 0.8330 0.8040 0.7910 0.7690
4.452000 0.7450 0.7170 0.6480 0.6090 0.6090
4.484795 0.6110 0.7640 0.7800 0.7930 0.8030
4.517000 0.8120 0.8190 0.8250 0.8300 0.8370
4.549795 0.8430 0.8500 0.8510 0.8530 0.8540
4.583000 0.8580 0.8580 0.8590 0.8590 0.8610
4.615795 0.8620 0.8640 0.8640 0.8620 0.8620
4.649000 0.8660 0.8660 0.8660 0.8660 0.8670
4.681795 0.8670 0.8670 0.8690 0.8690 0.8690
4.714000 0.8700 0.8720 0.8720 0.8740 0.8740
4.746795 0.8740 0.8740 0.8720 0.8720 0.8720
4.780000 0.8700 0.8690 0.8670 0.8660 0.8640
4.812795 0.8620 0.8620 0.8610 0.8590 0.8580
4.845000 0.8580 0.8560 0.8560 0.8580 0.8620
4.877795 0.8670 0.8690 0.8690 0.8670 0.8670
4.911000 0.8690 0.8690 0.8690 0.8700 0.8690
4.943795 0.8690 0.8670 0.8640 0.8610 0.8610
4.976000 0.8590 0.8590 0.8590 0.8590 0.8610
5.008795 0.8720 0.8720 0.8700 0.8660 0.8620
5.042000 0.8620 0.8620 0.8590 0.8590 0.8620
5.074795 0.8640 0.8660 0.8670 0.8700 0.8700
5.107000 0.8670 0.8660 0.8660 0.8640 0.8640
5.139795 0.8620 0.8610 0.8610 0.8590 0.8590
5.173000 0.8610 0.8640 0.8640 0.8640 0.8640
5.205795 0.8640 0.8640 0.8640 0.8590 0.8620
5.239000 0.8610 0.8610 0.8590 0.8590 0.8610
5.271795 0.8610 0.8610 0.8610 0.8670 0.8670
5.304000 0.8660 0.8660 0.8660 0.8690 0.8690
5.336795 0.8660 0.8640 0.8640 0.8640 0.8620
5.370000 0.8610 0.8590 0.8590 0.8610 0.8610
5.402795 0.8610 0.8620 0.8620 0.8640 0.8660
5.435000 0.8660 0.8670 0.8690 0.8700 0.8690
5.467795 0.8690 0.8690 0.8670 0.8670 0.8740
5.501000 0.8740 0.8670 0.8670 0.8670 0.8670
5.533795 0.8690 0.8690 0.8690 0.8690 0.8690
5.566000 0.8690 0.8700 0.8700 0.8690 0.8690
5.598795 0.8690 0.8660 0.8620 0.8620 0.8590
5.632000 0.8590 0.8580 0.8560 0.8560 0.8560
5.664795 0.8540 0.8560 0.8530 0.8540 0.8560
5.697000 0.8560 0.8560 0.8540 0.8530 0.8510
5.729795 0.8500 0.8500 0.8480 0.8480 0.8480
5.763000 0.8460 0.8430 0.8410 0.8410 0.8400
5.795795 0.8380 0.8380 0.8370 0.8370 0.8330
5.829000 0.8330 0.8330 0.8330 0.8320 0.8330
5.861795 0.8330 0.8320 0.8320 0.8300 0.8300
5.894000 0.8270 0.8270 0.8250 0.8240 0.8240
5.926795 0.8220 0.8240 0.8240 0.8240 0.8240
5.960000 0.8240 0.8240 0.8190 0.8120 0.8110
5.992795 0.8080 0.8080 0.8080 0.8080 0.8080
6.025000 0.8090 0.8090 0.8090 0.8090 0.8110
6.057795 0.8110 0.8110 0.8110 0.8110 0.8110
6.091000 0.8110 0.8110 0.8110 0.8120 0.8120
6.123795 0.8140 0.8140 0.8160 0.8160 0.8160
6.156000 0.8170 0.8170 0.8190 0.8200 0.8200
6.188795 0.8220 0.8220 0.8240 0.8240 0.8250
6.222000 0.8250 0.8270 0.8270 0.8290 0.8290
6.254795 0.8290 0.8300 0.8320 0.8330 0.8350
6.287000 0.8380 0.8380 0.8410 0.8450 0.8460
6.319795 0.8460 0.8480 0.8480 0.8480 0.8480
6.353000 0.8480 0.8480 0.8480 0.8480 0.8460
6.385795 0.8480 0.8480 0.8480 0.8480 0.8460
6.419000 0.8450 0.8430 0.8400 0.8380 0.8380
6.451795 0.8380 0.8400 0.8430 0.8410 0.8430
6.484000 0.8430 0.8450 0.8460 0.8460 0.8460
6.516795 0.8460 0.8460 0.8460 0.8460 0.8450
6.550000 0.8450 0.8430 0.8430 0.8410 0.8380
6.582795 0.8350 0.8320 0.8320 0.8300 0.8290
6.615000 0.8270 0.8250 0.8240 0.8220 0.8220
6.647795 0.8190 0.8140 0.8040 0.8010 0.8010
6.681000 0.7980 0.7950 0.7870 0.7790 0.7690
6.713795 0.7590 0.7460 0.7330 0.7110 0.6910
6.746000 0.6690 0.6380 0.5880 0.5140 0.4080
6.778795 0.2610 0.1980 0.1700 0.1750 0.2060
6.812000 0.2090 0.2380 0.2460 0.2510 0.2540
6.844795 0.2580 0.2540 0.2480 0.2330 0.1950
6.877000 0.1700 0.1580 0.1400 0.1270 0.1220
6.909795 0.1240 0.1270 0.1370 0.1580 0.1750
6.943000 0.1900 0.2110 0.2270 0.2700 0.3090
6.975795 0.3410 0.3610 0.3790 0.3980 0.4190
7.009000 0.4450 0.4700 0.4980 0.5250 0.5530
7.041795 0.5800 0.6060 0.6560 0.6790 0.6910
7.074000 0.7030 0.7110 0.7190 0.7240 0.7270
7.106795 0.7300 0.7320 0.7320 0.7320 0.7320
7.140000 0.7290 0.7200 0.7190 0.7140 0.7030
7.172795 0.6980 0.6170 0.5820 0.5250 0.4690
7.205000 0.4110 0.4090 0.3040 0.1980 0.1960
7.237795 0.2000 0.2080 0.3820 0.4120 0.4460
7.271000 0.4640 0.4830 0.5060 0.5320 0.5620
7.303795 0.5960 0.6240 0.6480 0.6690 0.6830
7.336000 0.6930 0.6930 0.6930 0.6790 0.6580
7.368795 0.6250 0.5800 0.5380 0.5190 0.4960
7.402000 0.4820 0.4590 0.4430 0.4400 0.4410
7.434795 0.4610 0.4740 0.4910 0.5290 0.5460
7.467000 0.5610 0.5770 0.6000 0.6250 0.6410
7.499795 0.6540 0.6640 0.6790 0.6960 0.7030
7.533000 0.7120 0.7170 0.7160 0.7090 0.7080
7.565795 0.7080 0.7030 0.7000 0.6960 0.6950
7.599000 0.6900 0.6850 0.6750 0.6610 0.6560
7.631795 0.6500 0.6480 0.6290 0.6030 0.5690
7.664000 0.5330 0.4980 0.4700 0.4540 0.4320
7.696795 0.4300 0.4270 0.4250 0.4220 0.3800
7.730000 0.3200 0.2770 0.2220 0.1790 0.1270
7.762795 0.1200 0.1220 0.1250 0.1690 0.2080
7.795000 0.2370 0.2820 0.3320 0.3720 0.4040
7.827795 0.4270 0.4430 0.4530 0.4590 0.4660
7.861000 0.4740 0.4850 0.5010 0.5270 0.5610
7.893795 0.6090 0.6690 0.6930 0.7030 0.7160
7.926000 0.7270 0.7450 0.7500 0.7510 0.7590
7.958795 0.7610 0.7620 0.7670 0.7690 0.7670
7.992000 0.7660 0.7620 0.7590 0.7510 0.7450
8.024795 0.7400 0.7330 0.7320 0.7330 0.7410
8.057000 0.7510 0.7610 0.7690 0.7740 0.7800
8.089795 0.7830 0.7870 0.7900 0.7880 0.7900
8.123000 0.7910 0.7950 0.7980 0.7980 0.7980
8.155795 0.7980 0.8000 0.8010 0.8010 0.8010
8.189000 0.8010 0.8010 0.8010 0.8010 0.8010
8.221795 0.7980 0.7870 0.7830 0.7790 0.7740
8.254000 0.7670 0.7580 0.7430 0.7220 0.7090
8.286795 0.6900 0.6700 0.6510 0.6350 0.6200
8.320000 0.6110 0.5900 0.6060 0.6110 0.6170
8.352795 0.6200 0.6250 0.6290 0.6330 0.6350
8.385000 0.6350 0.6220 0.6080 0.5930 0.5790
8.417795 0.5640 0.5500 0.5480 0.5400 0.5300
8.451000 0.5190 0.5120 0.5090 0.5090 0.5090
8.483795 0.5160 0.5240 0.5330 0.5460 0.5640
8.516000 0.5870 0.6000 0.6190 0.6410 0.6640
8.548795 0.6790 0.6800 0.6900 0.6980 0.6980
8.582000 0.6980 0.6980 0.6790 0.6590 0.6510
8.614795 0.6410 0.6380 0.6010 0.5640 0.4610
8.648000 0.3910 0.3140 0.2560 0.2250 0.1930
8.680795 0.1720 0.1720 0.1740 0.1740 0.1930
8.713000 0.2160 0.2480 0.2750 0.2960 0.3060
8.745795 0.3140 0.3290 0.3320 0.3270 0.3240
8.779000 0.3120 0.3030 0.2950 0.2880 0.2850
8.811795 0.2830 0.2800 0.2770 0.2740 0.2770
8.844000 0.3090 0.3240 0.3370 0.3500 0.3560
8.876795 0.3640 0.3740 0.3820 0.3950 0.4120
8.910000 0.4300 0.4510 0.4700 0.4880 0.5000
8.942795 0.5010 0.5080 0.5120 0.5170 0.5220
8.975000 0.5290 0.5370 0.5450 0.5540 0.5640
9.007795 0.5750 0.5880 0.6000 0.6120 0.6170
9.041000 0.6190 0.6200 0.6190 0.5950 0.5740
9.073795 0.5430 0.5300 0.4910 0.4670 0.4620
9.106000 0.4620 0.4660 0.4820 0.5060 0.5300
9.138795 0.5510 0.5660 0.5980 0.6120 0.6300
9.172000 0.6480 0.6590 0.6610 0.6660 0.6640
9.204795 0.6590 0.6560 0.6500 0.6430 0.6330
9.238000 0.6240 0.6110 0.5950 0.5880 0.5850
9.270795 0.5830 0.5830 0.5870 0.5880 0.5900
9.303000 0.5910 0.5790 0.5700 0.5560 0.5350
9.335795 0.5110 0.4800 0.4480 0.4090 0.3830
9.369000 0.3620 0.3460 0.3460 0.3670 0.3900
9.401795 0.4220 0.4460 0.4690 0.4950 0.5160
9.434000 0.5300 0.5450 0.5580 0.5590 0.5590
9.466795 0.5590 0.5590 0.5580 0.5580 0.5580
9.500000 0.5610 0.5740 0.5870 0.6030 0.6240
9.532795 0.6410 0.6590 0.6610 0.6690 0.6720
9.565000 0.6800 0.6870 0.6850 0.6820 0.6770
9.597795 0.6670 0.6580 0.6450 0.6300 0.6240
9.631000 0.6160 0.6090 0.6010 0.5950 0.5870
9.663795 0.5870 0.5870 0.5830 0.5830 0.5870
9.696000 0.6190 0.6370 0.6450 0.6510 0.6610
9.728795 0.6700 0.6790 0.6790 0.6690 0.6620
9.762000 0.6190 0.5870 0.5560 0.5370 0.4980
9.794795 0.4700 0.4690 0.4720 0.5380 0.5510
9.828000 0.5850 0.6010 0.6330 0.6560 0.6880
9.860795 0.6950 0.7140 0.7200 0.7300 0.7400
9.893000 0.7410 0.7410 0.7370 0.7370 0.7330
9.925795 0.7250 0.7140 0.7080 0.7010 0.6880
9.959000 0.6690 0.6400 0.6010 0.5480 0.4870
9.991795 0.3830 0.3410 0.2980 0.2590 0.2380
10.024000 0.2400 0.2740 0.3220 0.3580 0.3910
10.056795 0.4250 0.4580 0.4900 0.5200 0.5500
10.090000 0.5770 0.6030 0.6270 0.6500 0.6670
10.122795 0.6790 0.6910 0.7060 0.7170 0.7270
10.155000 0.7290 0.7350 0.7430 0.7460 0.7480
10.187795 0.7510 0.7510 0.7510 0.7510 0.7510
10.221000 0.7500 0.7500 0.7480 0.7450 0.7380
10.253795 0.7290 0.7270 0.7190 0.7090 0.6930
10.286000 0.6750 0.6580 0.6460 0.6400 0.6270
10.318795 0.6220 0.6190 0.6220 0.6250 0.6300
10.352000 0.6450 0.6640 0.6750 0.6930 0.7090
10.384795 0.7200 0.7320 0.7410 0.7500 0.7590
10.418000 0.7670 0.7750 0.7800 0.7820 0.7900
10.450795 0.7930 0.8000 0.8000 0.8040 0.8040
10.483000 0.8040 0.8040 0.8030 0.8000 0.8000
10.515795 0.7950 0.7850 0.7750 0.7590 0.7560
10.549000 0.7380 0.7160 0.6930 0.6750 0.6590
10.581795 0.6530 0.6500 0.6480 0.6460 0.6460
10.614000 0.6460 0.6460 0.6480 0.6480 0.6500
10.646795 0.6540 0.6590 0.6590 0.6580 0.6560
10.680000 0.6530 0.6410 0.6350 0.6240 0.6120
10.712795 0.5960 0.5880 0.5740 0.5560 0.5500
10.745000 0.5480 0.5510 0.5560 0.5610 0.5660
10.777795 0.5700 0.5700 0.5700 0.5660 0.5640
10.811000 0.5480 0.5300 0.5140 0.5120 0.5120
10.843795 0.5300 0.5500 0.5610 0.5740 0.5850
10.876000 0.6160 0.6380 0.6540 0.6670 0.6770
10.908795 0.6830 0.6900 0.6960 0.7040 0.7110
10.942000 0.7140 0.7170 0.7200 0.7250 0.7330
10.974795 0.7460 0.7500 0.7530 0.7560 0.7590
11.008000 0.7640 0.7690 0.7740 0.7790 0.7830
11.040795 0.7880 0.7960 0.8040 0.8110 0.8140
11.073000 0.8170 0.8190 0.8200 0.8240 0.8250
11.105795 0.8250 0.8290 0.8320 0.8350 0.8330
11.139000 0.8330 0.8320 0.8320 0.8320 0.8320
11.171795 0.8320 0.8330 0.8330 0.8330 0.8350
11.204000 0.8350 0.8350 0.8300 0.8250 0.8250
11.236795 0.8200 0.8190 0.8160 0.8120 0.8080
11.270000 0.7960 0.7850 0.7750 0.7610 0.7460
11.302795 0.7330 0.7270 0.7220 0.7170 0.7170
11.335000 0.7270 0.7400 0.7480 0.7560 0.7640
11.367795 0.7750 0.7900 0.7980 0.8000 0.8080
11.401000 0.8160 0.8200 0.8270 0.8300 0.8330
11.433795 0.8330 0.8350 0.8400 0.8410 0.8430
11.466000 0.8430 0.8450 0.8450 0.8460 0.8460
11.498795 0.8460 0.8480 0.8480 0.8480 0.8480
11.532000 0.8480 0.8480 0.8480 0.8480 0.8480
11.564795 0.8480 0.8480 0.8480 0.8480 0.8480
11.598000 0.8480 0.8460 0.8460 0.8460 0.8450
11.630795 0.8430 0.8430 0.8410 0.8400 0.8380
11.663000 0.8350 0.8350 0.8350 0.8330 0.8320
11.695795 0.8320 0.8300 0.8300 0.8290 0.8290
11.729000 0.8270 0.8250 0.8250 0.8240 0.8240
11.761795 0.8220 0.8170 0.8110 0.8080 0.8040
11.794000 0.8030 0.7960 0.7850 0.7620 0.7500
11.826795 0.7380 0.7300 0.7190 0.7040 0.6820
11.860000 0.6620 0.6460 0.6450 0.6380 0.6300
11.892795 0.6290 0.6290 0.6300 0.6370 0.6400
11.925000 0.6510 0.6640 0.6720 0.6750 0.6830
11.957795 0.7010 0.7080 0.7140 0.7170 0.7190
11.991000 0.7190 0.7190 0.7170 0.7110 0.7080
12.023795 0.7040 0.6870 0.6850 0.6800 0.6750
12.056000 0.6700 0.6640 0.6620 0.6620 0.6660
12.088795 0.6750 0.6980 0.7160 0.7250 0.7400
12.122000 0.7430 0.7540 0.7590 0.7660 0.7770
12.154795 0.7790 0.7830 0.7880 0.7910 0.7910
12.188000 0.7910 0.7910 0.7910 0.7900 0.7880
12.220795 0.7870 0.7820 0.7800 0.7750 0.7740
12.253000 0.7720 0.7700 0.7700 0.7690 0.7690
12.285795 0.7670 0.7670 0.7670 0.7670 0.7660
12.319000 0.7660 0.7640 0.7610 0.7580 0.7560
12.351795 0.7530 0.7510 0.7410 0.7330 0.7300
12.384000 0.7240 0.7140 0.6950 0.6830 0.6690
12.416795 0.6430 0.6350 0.6240 0.6040 0.5830
12.450000 0.5620 0.5480 0.5410 0.5240 0.5190
12.482795 0.5190 0.5190 0.5190 0.5220 0.5320
12.515000 0.5410 0.5540 0.5660 0.5770 0.5880
12.547795 0.6010 0.6120 0.6250 0.6380 0.6530
12.581000 0.6670 0.6790 0.6850 0.6910 0.6950
12.613795 0.7000 0.7040 0.7080 0.7080 0.7080
12.646000 0.7080 0.7080 0.7060 0.7060 0.7040
12.678795 0.7010 0.6960 0.6900 0.6850 0.6740
12.712000 0.6640 0.6450 0.6320 0.6250 0.6170
12.744795 0.5950 0.5590 0.5460 0.5270 0.5030
12.778000 0.4800 0.4610 0.4410 0.4240 0.4060
12.810795 0.3950 0.3830 0.3790 0.3770 0.3790
12.843000 0.3790 0.3800 0.3800 0.3820 0.3850
12.875795 0.3900 0.3960 0.3980 0.4030 0.4110
12.909000 0.4220 0.4330 0.4450 0.4560 0.4690
12.941795 0.4800 0.4880 0.5080 0.5250 0.5430
12.974000 0.5560 0.5690 0.5820 0.5960 0.6110
13.006795 0.6240 0.6330 0.6430 0.6500 0.6610
13.040000 0.6720 0.6850 0.6950 0.7040 0.7110
13.072795 0.7170 0.7220 0.7300 0.7370 0.7430
13.105000 0.7500 0.7580 0.7620 0.7670 0.7750
13.137795 0.7770 0.7800 0.7820 0.7900 0.7980
13.171000 0.8000 0.8010 0.8010 0.8010 0.8030
13.203795 0.8040 0.8060 0.8060 0.8060 0.8080
13.237000 0.8090 0.8110 0.8140 0.8170 0.8170
13.269795 0.8190 0.8200 0.8220 0.8220 0.8220
13.302000 0.8240 0.8270 0.8270 0.8270 0.8250
13.334795 0.8250 0.8250 0.8250 0.8250 0.8250
13.368000 0.8250 0.8250 0.8270 0.8270 0.8270
13.400795 0.8270 0.8270 0.8270 0.8270 0.8270
13.433000 0.8270 0.8270 0.8270 0.8270 0.8270
13.465795 0.8270 0.8290 0.8290 0.8290 0.8290
13.499000 0.8290 0.8300 0.8300 0.8300 0.8300
13.531795 0.8300 0.8300 0.8320 0.8320 0.8320
13.564000 0.8320 0.8320 0.8320 0.8320 0.8320
13.596795 0.8300 0.8300 0.8300 0.8300 0.8290
13.630000 0.8290 0.8270 0.8270 0.8250 0.8250
13.662795 0.8240 0.8240 0.8220 0.8200 0.8200
13.695000 0.8190 0.8170 0.8140 0.8120 0.8110
13.727795 0.8090 0.8060 0.8030 0.8010 0.8000
13.761000 0.7980 0.7930 0.7880 0.7800 0.7740
13.793795 0.7660 0.7560 0.7460 0.7380 0.7290
13.827000 0.7200 0.7120 0.7030 0.6980 0.6930
13.859795 0.6880 0.6870 0.6880 0.6880 0.6910
13.892000 0.6950 0.6980 0.7030 0.7090 0.7160
13.924795 0.7220 0.7300 0.7380 0.7480 0.7560
13.958000 0.7590 0.7740 0.7820 0.7870 0.7900
13.990795 0.7910 0.7950 0.8010 0.8090 0.8120
14.023000 0.8140 0.8140 0.8160 0.8170 0.8190
14.055795 0.8190 0.8200 0.8200 0.8220 0.8220
14.089000 0.8240 0.8250 0.8250 0.8270 0.8270
14.121795 0.8290 0.8290 0.8290 0.8290 0.8300
14.154000 0.8300 0.8320 0.8320 0.8320 0.8320
14.186795 0.8320 0.8320 0.8320 0.8320 0.8320
14.220000 0.8320 0.8320 0.8320 0.8320 0.8320
14.252795 0.8320 0.8320 0.8320 0.8320 0.8320
14.285000 0.8300 0.8300 0.8300 0.8300 0.8290
14.317795 0.8290 0.8290 0.8290 0.8270 0.8270
14.351000 0.8270 0.8250 0.8250 0.8250 0.8250
14.383795 0.8250 0.8240 0.8240 0.8240 0.8240
14.417000 0.8220 0.8220 0.8220 0.8220 0.8200
14.449795 0.8200 0.8200 0.8190 0.8190 0.8170
14.482000 0.8160 0.8140 0.8140 0.8140 0.8140
14.514795 0.8120 0.8110 0.8110 0.8110 0.8110
14.548000 0.8090 0.8090 0.8090 0.8090 0.8090
14.580795 0.8080 0.8080 0.8080 0.8080 0.8080
14.613000 0.8080 0.8080 0.8080 0.8080 0.8060
14.645795 0.8040 0.8030 0.8010 0.8010 0.8010
14.679000 0.8010 0.8010 0.8010 0.8010 0.8000
14.711795 0.8000 0.8000 0.7960 0.7980 0.7980
14.744000 0.7960 0.7960 0.7950 0.7950 0.7930
14.776795 0.7930 0.7910 0.7910 0.7910 0.7910
14.810000 0.7910 0.7910 0.7910 0.7900 0.7880
14.842795 0.7870 0.7850 0.7820 0.7820 0.7820
14.875000 0.7820 0.7800 0.7800 0.7800 0.7790
14.907795 0.7790 0.7790 0.7790 0.7790 0.7790
14.941000 0.7790 0.7800 0.7800 0.7820 0.7830
14.973795 0.7830 0.7820 0.7820 0.7770 0.7750
15.007000 0.7700 0.7660 0.7610 0.7580 0.7540
15.039795 0.7510 0.7480 0.7480 0.7450 0.7450
15.072000 0.7430 0.7410 0.7410 0.7410 0.7380
15.104795 0.7370 0.7330 0.7300 0.7270 0.7240
15.138000 0.7190 0.7140 0.7120 0.7110 0.7090
15.170795 0.7090 0.7080 0.7060 0.7060 0.7060
15.203000 0.7060 0.7060 0.7080 0.7080 0.7080
15.235795 0.7080 0.7080 0.7090 0.7110 0.7120
15.269000 0.7120 0.7140 0.7160 0.7160 0.7170
15.301795 0.7190 0.7190 0.7190 0.7190 0.7200
15.334000 0.7200 0.7200 0.7200 0.7220 0.7220
15.366795 0.7220 0.7220 0.7220 0.7200 0.7200
15.400000 0.7190 0.7190 0.7190 0.7170 0.7170
15.432795 0.7170 0.7160 0.7160 0.7160 0.7140
##END=
