##TITLE=Formic acid, (phenylazo)thio-, 2-phenylhydrazide, manganese derivative-
##JCAMP-DX=4.24
$$ By DXEDIT 1.05 (RS McDonald)
##DATA TYPE=INFRARED SPECTRUM
##CLASS=COBLENTZ III
##ORIGIN=DOW CHEMICAL COMPANY
##OWNER=COPYRIGHT (C) 1988 by COBLENTZ SOCIETY INC.
Collection (C) 2018 copyright by the U.S. Secretary of Commerce
on behalf of the United States of America. All rights reserved.
##DATE=1965/12/17
##MOLFORM=C26 H22 Mn N8 S2
##SOURCE REFERENCE=COBLENTZ NO. 09982
##$NIST ID=B6009982
##$NIST SOURCE=COBLENTZ
##$NIST IMAGE=cob9982
##SPECTROMETER/DATA SYSTEM=BECKMAN IR-9 (GRATING)
##INSTRUMENT PARAMETERS=ORDER CHANGES: 670, 1200, 2000 CM^-^1
##STATE=SOLID (SPLIT MULL), FLUOROLUBE FOR 3800-1330 CM^-^1, NUJOL FOR 1330-400 CM^-^1
$$ CLASS II TECHNICAL QUALITY
##SAMPLING PROCEDURE=TRANSMISSION
##RESOLUTION=2
##DATA PROCESSING=DIGITIZED BY COBLENTZ SOCIETY (BATCH I) FROM HARD COPY
##XUNITS=1/CM
##YUNITS=TRANSMITTANCE
##XFACTOR=1
##YFACTOR=1
##DELTAX=1
##FIRSTX=3800
##LASTX=403
##FIRSTY=0.5896
##MAXX=3800
##MINX=403
##MAXY=0.8541
##MINY=0.0119
##NPOINTS=3398
##XYDATA=(X++(Y..Y))
3800.000000 0.5896 0.5896 0.5896 0.5897 0.5898
3795.000000 0.5899 0.5901 0.5902 0.5903 0.5904
3790.000000 0.5905 0.5906 0.5908 0.5909 0.5910
3785.000000 0.5910 0.5912 0.5912 0.5915 0.5916
3780.000000 0.5917 0.5918 0.5919 0.5920 0.5922
3775.000000 0.5923 0.5924 0.5925 0.5926 0.5927
3770.000000 0.5929 0.5930 0.5931 0.5932 0.5933
3765.000000 0.5934 0.5935 0.5936 0.5937 0.5938
3760.000000 0.5939 0.5940 0.5941 0.5942 0.5943
3755.000000 0.5943 0.5944 0.5945 0.5946 0.5947
3750.000000 0.5948 0.5949 0.5950 0.5951 0.5952
3745.000000 0.5952 0.5953 0.5954 0.5955 0.5956
3740.000000 0.5957 0.5957 0.5958 0.5959 0.5960
3735.000000 0.5960 0.5962 0.5962 0.5962 0.5964
3730.000000 0.5965 0.5966 0.5967 0.5967 0.5968
3725.000000 0.5969 0.5970 0.5971 0.5972 0.5972
3720.000000 0.5973 0.5974 0.5975 0.5976 0.5977
3715.000000 0.5977 0.5978 0.5979 0.5980 0.5981
3710.000000 0.5982 0.5983 0.5985 0.5986 0.5987
3705.000000 0.5988 0.5990 0.5991 0.5993 0.5994
3700.000000 0.5995 0.5996 0.5998 0.5999 0.6000
3695.000000 0.6001 0.6003 0.6004 0.6005 0.6006
3690.000000 0.6008 0.6009 0.6010 0.6012 0.6012
3685.000000 0.6014 0.6016 0.6017 0.6018 0.6019
3680.000000 0.6021 0.6022 0.6023 0.6024 0.6026
3675.000000 0.6027 0.6029 0.6030 0.6031 0.6032
3670.000000 0.6034 0.6035 0.6036 0.6037 0.6039
3665.000000 0.6040 0.6041 0.6042 0.6043 0.6044
3660.000000 0.6046 0.6047 0.6048 0.6049 0.6051
3655.000000 0.6052 0.6053 0.6054 0.6055 0.6056
3650.000000 0.6058 0.6059 0.6060 0.6060 0.6062
3645.000000 0.6064 0.6065 0.6066 0.6067 0.6068
3640.000000 0.6070 0.6071 0.6072 0.6073 0.6075
3635.000000 0.6076 0.6077 0.6078 0.6080 0.6081
3630.000000 0.6082 0.6083 0.6084 0.6085 0.6087
3625.000000 0.6088 0.6089 0.6090 0.6092 0.6093
3620.000000 0.6094 0.6095 0.6097 0.6098 0.6099
3615.000000 0.6100 0.6102 0.6103 0.6105 0.6106
3610.000000 0.6108 0.6109 0.6110 0.6110 0.6112
3605.000000 0.6114 0.6116 0.6117 0.6118 0.6119
3600.000000 0.6121 0.6122 0.6124 0.6125 0.6127
3595.000000 0.6128 0.6129 0.6130 0.6132 0.6133
3590.000000 0.6135 0.6136 0.6138 0.6139 0.6140
3585.000000 0.6141 0.6143 0.6144 0.6146 0.6147
3580.000000 0.6149 0.6150 0.6151 0.6152 0.6154
3575.000000 0.6155 0.6157 0.6158 0.6160 0.6160
3570.000000 0.6162 0.6162 0.6165 0.6166 0.6168
3565.000000 0.6169 0.6171 0.6172 0.6173 0.6174
3560.000000 0.6176 0.6177 0.6178 0.6179 0.6180
3555.000000 0.6181 0.6183 0.6184 0.6185 0.6186
3550.000000 0.6187 0.6188 0.6189 0.6190 0.6191
3545.000000 0.6192 0.6193 0.6194 0.6195 0.6196
3540.000000 0.6197 0.6198 0.6199 0.6200 0.6201
3535.000000 0.6202 0.6203 0.6204 0.6205 0.6206
3530.000000 0.6207 0.6208 0.6209 0.6210 0.6210
3525.000000 0.6212 0.6212 0.6214 0.6215 0.6216
3520.000000 0.6217 0.6218 0.6219 0.6220 0.6221
3515.000000 0.6222 0.6223 0.6224 0.6225 0.6226
3510.000000 0.6227 0.6228 0.6229 0.6230 0.6232
3505.000000 0.6233 0.6234 0.6235 0.6237 0.6238
3500.000000 0.6240 0.6241 0.6243 0.6244 0.6245
3495.000000 0.6246 0.6248 0.6249 0.6251 0.6252
3490.000000 0.6253 0.6254 0.6256 0.6257 0.6259
3485.000000 0.6260 0.6262 0.6262 0.6264 0.6265
3480.000000 0.6267 0.6268 0.6270 0.6271 0.6272
3475.000000 0.6273 0.6275 0.6276 0.6278 0.6279
3470.000000 0.6281 0.6282 0.6283 0.6284 0.6286
3465.000000 0.6287 0.6289 0.6290 0.6292 0.6293
3460.000000 0.6294 0.6295 0.6297 0.6298 0.6300
3455.000000 0.6302 0.6304 0.6305 0.6307 0.6309
3450.000000 0.6310 0.6312 0.6314 0.6316 0.6318
3445.000000 0.6319 0.6321 0.6322 0.6324 0.6326
3440.000000 0.6328 0.6329 0.6331 0.6333 0.6335
3435.000000 0.6336 0.6338 0.6340 0.6342 0.6343
3430.000000 0.6345 0.6347 0.6349 0.6350 0.6352
3425.000000 0.6354 0.6356 0.6357 0.6359 0.6360
3420.000000 0.6362 0.6364 0.6366 0.6367 0.6369
3415.000000 0.6371 0.6373 0.6374 0.6376 0.6378
3410.000000 0.6380 0.6382 0.6384 0.6385 0.6387
3405.000000 0.6389 0.6391 0.6393 0.6395 0.6397
3400.000000 0.6399 0.6401 0.6403 0.6404 0.6406
3395.000000 0.6408 0.6410 0.6411 0.6414 0.6415
3390.000000 0.6418 0.6418 0.6421 0.6422 0.6425
3385.000000 0.6426 0.6428 0.6431 0.6433 0.6435
3380.000000 0.6437 0.6438 0.6440 0.6442 0.6444
3375.000000 0.6446 0.6448 0.6450 0.6451 0.6454
3370.000000 0.6456 0.6458 0.6460 0.6461 0.6465
3365.000000 0.6467 0.6468 0.6471 0.6474 0.6475
3360.000000 0.6478 0.6480 0.6483 0.6485 0.6487
3355.000000 0.6489 0.6492 0.6494 0.6496 0.6498
3350.000000 0.6501 0.6503 0.6505 0.6507 0.6510
3345.000000 0.6511 0.6514 0.6515 0.6518 0.6521
3340.000000 0.6524 0.6525 0.6528 0.6530 0.6533
3335.000000 0.6535 0.6538 0.6540 0.6542 0.6544
3330.000000 0.6547 0.6549 0.6551 0.6554 0.6557
3325.000000 0.6558 0.6561 0.6562 0.6565 0.6568
3320.000000 0.6571 0.6572 0.6575 0.6576 0.6580
3315.000000 0.6582 0.6585 0.6587 0.6589 0.6590
3310.000000 0.6592 0.6594 0.6596 0.6598 0.6600
3305.000000 0.6601 0.6603 0.6605 0.6607 0.6608
3300.000000 0.6610 0.6611 0.6614 0.6615 0.6618
3295.000000 0.6618 0.6621 0.6622 0.6625 0.6625
3290.000000 0.6626 0.6628 0.6630 0.6631 0.6633
3285.000000 0.6634 0.6635 0.6636 0.6638 0.6639
3280.000000 0.6641 0.6642 0.6643 0.6644 0.6646
3275.000000 0.6647 0.6649 0.6650 0.6651 0.6651
3270.000000 0.6651 0.6651 0.6651 0.6651 0.6651
3265.000000 0.6651 0.6651 0.6651 0.6651 0.6651
3260.000000 0.6651 0.6651 0.6653 0.6653 0.6653
3255.000000 0.6651 0.6651 0.6650 0.6649 0.6647
3250.000000 0.6645 0.6643 0.6642 0.6640 0.6638
3245.000000 0.6634 0.6631 0.6626 0.6624 0.6619
3240.000000 0.6615 0.6611 0.6608 0.6604 0.6600
3235.000000 0.6594 0.6588 0.6582 0.6575 0.6569
3230.000000 0.6564 0.6557 0.6550 0.6542 0.6535
3225.000000 0.6526 0.6519 0.6505 0.6491 0.6472
3220.000000 0.6456 0.6426 0.6399 0.6364 0.6329
3215.000000 0.6106 0.5883 0.5630 0.5377 0.5123
3210.000000 0.4870 0.4617 0.4364 0.4295 0.4295
3205.000000 0.4295 0.4364 0.4535 0.4706 0.4877
3200.000000 0.5049 0.5220 0.5391 0.5562 0.5733
3195.000000 0.5904 0.6075 0.6215 0.6356 0.6382
3190.000000 0.6408 0.6434 0.6460 0.6485 0.6511
3185.000000 0.6530 0.6549 0.6568 0.6588 0.6607
3180.000000 0.6625 0.6636 0.6647 0.6654 0.6661
3175.000000 0.6668 0.6675 0.6681 0.6688 0.6695
3170.000000 0.6701 0.6708 0.6715 0.6722 0.6730
3165.000000 0.6734 0.6738 0.6741 0.6745 0.6748
3160.000000 0.6751 0.6755 0.6758 0.6761 0.6765
3155.000000 0.6768 0.6771 0.6772 0.6774 0.6774
3150.000000 0.6775 0.6775 0.6775 0.6775 0.6776
3145.000000 0.6778 0.6778 0.6778 0.6780 0.6780
3140.000000 0.6781 0.6781 0.6782 0.6783 0.6784
3135.000000 0.6784 0.6785 0.6786 0.6787 0.6788
3130.000000 0.6789 0.6789 0.6790 0.6790 0.6790
3125.000000 0.6790 0.6789 0.6788 0.6788 0.6787
3120.000000 0.6787 0.6786 0.6786 0.6785 0.6785
3115.000000 0.6784 0.6783 0.6781 0.6778 0.6776
3110.000000 0.6775 0.6774 0.6771 0.6769 0.6768
3105.000000 0.6765 0.6765 0.6762 0.6761 0.6758
3100.000000 0.6758 0.6754 0.6751 0.6747 0.6743
3095.000000 0.6739 0.6735 0.6728 0.6721 0.6712
3090.000000 0.6705 0.6697 0.6689 0.6681 0.6672
3085.000000 0.6664 0.6656 0.6647 0.6639 0.6630
3080.000000 0.6621 0.6612 0.6604 0.6588 0.6571
3075.000000 0.6555 0.6538 0.6519 0.6503 0.6480
3070.000000 0.6458 0.6430 0.6403 0.6372 0.6342
3065.000000 0.6297 0.6253 0.6219 0.6185 0.6179
3060.000000 0.6173 0.6172 0.6172 0.6171 0.6172
3055.000000 0.6194 0.6217 0.6248 0.6279 0.6325
3050.000000 0.6371 0.6403 0.6436 0.6461 0.6487
3045.000000 0.6503 0.6518 0.6535 0.6551 0.6558
3040.000000 0.6565 0.6572 0.6581 0.6588 0.6596
3035.000000 0.6604 0.6611 0.6618 0.6626 0.6634
3030.000000 0.6642 0.6648 0.6655 0.6661 0.6668
3025.000000 0.6675 0.6682 0.6688 0.6695 0.6701
3020.000000 0.6708 0.6714 0.6719 0.6725 0.6730
3015.000000 0.6735 0.6740 0.6745 0.6750 0.6757
3010.000000 0.6765 0.6775 0.6785 0.6795 0.6805
3005.000000 0.6814 0.6824 0.6834 0.6844 0.6854
3000.000000 0.6865 0.6875 0.6887 0.6898 0.6910
2995.000000 0.6921 0.6932 0.6941 0.6950 0.6956
2990.000000 0.6961 0.6968 0.6974 0.6978 0.6985
2985.000000 0.6986 0.6988 0.6989 0.6991 0.6992
2980.000000 0.6994 0.6996 0.6998 0.6999 0.7001
2975.000000 0.7001 0.7004 0.7005 0.7007 0.7008
2970.000000 0.7010 0.7010 0.7011 0.7011 0.7011
2965.000000 0.7011 0.7012 0.7012 0.7012 0.7012
2960.000000 0.7014 0.7014 0.7015 0.7015 0.7015
2955.000000 0.7015 0.7017 0.7017 0.7017 0.7017
2950.000000 0.7018 0.7018 0.7018 0.7018 0.7019
2945.000000 0.7019 0.7021 0.7021 0.7021 0.7021
2940.000000 0.7021 0.7021 0.7022 0.7022 0.7024
2935.000000 0.7024 0.7025 0.7025 0.7025 0.7025
2930.000000 0.7026 0.7028 0.7031 0.7033 0.7036
2925.000000 0.7038 0.7040 0.7042 0.7044 0.7046
2920.000000 0.7049 0.7051 0.7053 0.7055 0.7057
2915.000000 0.7058 0.7061 0.7064 0.7065 0.7068
2910.000000 0.7069 0.7071 0.7075 0.7076 0.7078
2905.000000 0.7081 0.7083 0.7086 0.7089 0.7092
2900.000000 0.7095 0.7098 0.7101 0.7104 0.7107
2895.000000 0.7110 0.7114 0.7117 0.7119 0.7122
2890.000000 0.7125 0.7128 0.7132 0.7135 0.7138
2885.000000 0.7140 0.7142 0.7143 0.7144 0.7144
2880.000000 0.7145 0.7146 0.7147 0.7147 0.7148
2875.000000 0.7148 0.7149 0.7150 0.7151 0.7151
2870.000000 0.7153 0.7154 0.7155 0.7156 0.7157
2865.000000 0.7158 0.7158 0.7160 0.7161 0.7161
2860.000000 0.7164 0.7167 0.7171 0.7175 0.7180
2855.000000 0.7184 0.7188 0.7192 0.7197 0.7201
2850.000000 0.7205 0.7208 0.7212 0.7215 0.7218
2845.000000 0.7221 0.7224 0.7225 0.7228 0.7231
2840.000000 0.7234 0.7235 0.7237 0.7238 0.7239
2835.000000 0.7240 0.7242 0.7243 0.7244 0.7245
2830.000000 0.7246 0.7247 0.7248 0.7249 0.7251
2825.000000 0.7251 0.7253 0.7253 0.7254 0.7254
2820.000000 0.7254 0.7254 0.7255 0.7255 0.7256
2815.000000 0.7256 0.7257 0.7257 0.7258 0.7258
2810.000000 0.7258 0.7258 0.7258 0.7258 0.7260
2805.000000 0.7260 0.7261 0.7261 0.7261 0.7261
2800.000000 0.7262 0.7262 0.7264 0.7264 0.7265
2795.000000 0.7265 0.7267 0.7267 0.7268 0.7268
2790.000000 0.7268 0.7269 0.7271 0.7271 0.7271
2785.000000 0.7272 0.7274 0.7275 0.7276 0.7278
2780.000000 0.7280 0.7281 0.7283 0.7284 0.7286
2775.000000 0.7287 0.7289 0.7290 0.7292 0.7294
2770.000000 0.7296 0.7297 0.7299 0.7300 0.7301
2765.000000 0.7303 0.7305 0.7306 0.7308 0.7308
2760.000000 0.7311 0.7312 0.7315 0.7315 0.7318
2755.000000 0.7319 0.7321 0.7324 0.7325 0.7328
2750.000000 0.7330 0.7332 0.7334 0.7335 0.7337
2745.000000 0.7339 0.7341 0.7343 0.7345 0.7347
2740.000000 0.7349 0.7350 0.7351 0.7354 0.7356
2735.000000 0.7358 0.7360 0.7361 0.7364 0.7365
2730.000000 0.7367 0.7368 0.7371 0.7372 0.7375
2725.000000 0.7376 0.7378 0.7380 0.7382 0.7384
2720.000000 0.7386 0.7388 0.7390 0.7391 0.7393
2715.000000 0.7395 0.7397 0.7399 0.7401 0.7401
2710.000000 0.7404 0.7405 0.7407 0.7408 0.7411
2705.000000 0.7411 0.7414 0.7415 0.7418 0.7418
2700.000000 0.7421 0.7421 0.7424 0.7425 0.7428
2695.000000 0.7428 0.7431 0.7433 0.7435 0.7436
2690.000000 0.7438 0.7440 0.7442 0.7443 0.7445
2685.000000 0.7446 0.7448 0.7450 0.7451 0.7453
2680.000000 0.7455 0.7457 0.7458 0.7460 0.7461
2675.000000 0.7462 0.7465 0.7467 0.7468 0.7469
2670.000000 0.7471 0.7474 0.7475 0.7476 0.7478
2665.000000 0.7481 0.7483 0.7484 0.7486 0.7487
2660.000000 0.7489 0.7491 0.7493 0.7494 0.7496
2655.000000 0.7497 0.7498 0.7499 0.7501 0.7501
2650.000000 0.7504 0.7505 0.7507 0.7508 0.7510
2645.000000 0.7511 0.7514 0.7515 0.7517 0.7518
2640.000000 0.7519 0.7521 0.7524 0.7525 0.7526
2635.000000 0.7528 0.7531 0.7532 0.7534 0.7535
2630.000000 0.7537 0.7538 0.7539 0.7540 0.7541
2625.000000 0.7542 0.7543 0.7544 0.7545 0.7546
2620.000000 0.7547 0.7548 0.7549 0.7550 0.7551
2615.000000 0.7551 0.7553 0.7554 0.7555 0.7556
2610.000000 0.7557 0.7557 0.7558 0.7558 0.7560
2605.000000 0.7561 0.7561 0.7562 0.7564 0.7565
2600.000000 0.7565 0.7567 0.7568 0.7568 0.7569
2595.000000 0.7571 0.7571 0.7572 0.7574 0.7575
2590.000000 0.7575 0.7576 0.7578 0.7578 0.7580
2585.000000 0.7581 0.7582 0.7583 0.7584 0.7584
2580.000000 0.7585 0.7586 0.7587 0.7587 0.7588
2575.000000 0.7589 0.7590 0.7590 0.7591 0.7591
2570.000000 0.7592 0.7593 0.7594 0.7594 0.7595
2565.000000 0.7596 0.7597 0.7597 0.7598 0.7599
2560.000000 0.7600 0.7600 0.7601 0.7601 0.7601
2555.000000 0.7601 0.7603 0.7603 0.7604 0.7605
2550.000000 0.7606 0.7606 0.7607 0.7607 0.7608
2545.000000 0.7608 0.7608 0.7608 0.7610 0.7610
2540.000000 0.7611 0.7611 0.7612 0.7612 0.7614
2535.000000 0.7614 0.7615 0.7615 0.7615 0.7615
2530.000000 0.7617 0.7617 0.7617 0.7617 0.7618
2525.000000 0.7618 0.7618 0.7618 0.7618 0.7618
2520.000000 0.7618 0.7618 0.7618 0.7618 0.7618
2515.000000 0.7618 0.7619 0.7619 0.7619 0.7619
2510.000000 0.7621 0.7621 0.7621 0.7619 0.7619
2505.000000 0.7618 0.7618 0.7617 0.7617 0.7615
2500.000000 0.7615 0.7614 0.7614 0.7612 0.7611
2495.000000 0.7611 0.7611 0.7610 0.7610 0.7608
2490.000000 0.7608 0.7607 0.7607 0.7606 0.7605
2485.000000 0.7604 0.7604 0.7603 0.7601 0.7601
2480.000000 0.7601 0.7600 0.7600 0.7599 0.7599
2475.000000 0.7598 0.7597 0.7596 0.7596 0.7595
2470.000000 0.7595 0.7594 0.7594 0.7593 0.7592
2465.000000 0.7591 0.7591 0.7590 0.7590 0.7589
2460.000000 0.7589 0.7588 0.7587 0.7587 0.7587
2455.000000 0.7587 0.7587 0.7587 0.7588 0.7588
2450.000000 0.7588 0.7588 0.7588 0.7588 0.7588
2445.000000 0.7588 0.7589 0.7589 0.7589 0.7589
2440.000000 0.7589 0.7589 0.7590 0.7590 0.7590
2435.000000 0.7590 0.7590 0.7590 0.7591 0.7592
2430.000000 0.7593 0.7594 0.7595 0.7596 0.7597
2425.000000 0.7597 0.7598 0.7599 0.7600 0.7601
2420.000000 0.7601 0.7603 0.7604 0.7605 0.7606
2415.000000 0.7607 0.7608 0.7608 0.7610 0.7611
2410.000000 0.7611 0.7611 0.7612 0.7614 0.7615
2405.000000 0.7615 0.7617 0.7618 0.7618 0.7619
2400.000000 0.7621 0.7621 0.7622 0.7622 0.7624
2395.000000 0.7624 0.7624 0.7624 0.7624 0.7624
2390.000000 0.7625 0.7625 0.7625 0.7624 0.7622
2385.000000 0.7621 0.7621 0.7619 0.7618 0.7618
2380.000000 0.7617 0.7615 0.7615 0.7615 0.7614
2375.000000 0.7612 0.7611 0.7611 0.7610 0.7608
2370.000000 0.7608 0.7608 0.7608 0.7607 0.7607
2365.000000 0.7606 0.7606 0.7606 0.7606 0.7605
2360.000000 0.7605 0.7604 0.7604 0.7604 0.7604
2355.000000 0.7603 0.7603 0.7603 0.7603 0.7601
2350.000000 0.7601 0.7601 0.7601 0.7601 0.7601
2345.000000 0.7601 0.7601 0.7601 0.7601 0.7601
2340.000000 0.7601 0.7601 0.7603 0.7603 0.7603
2335.000000 0.7603 0.7603 0.7603 0.7603 0.7603
2330.000000 0.7603 0.7604 0.7605 0.7606 0.7607
2325.000000 0.7608 0.7608 0.7610 0.7611 0.7611
2320.000000 0.7612 0.7614 0.7615 0.7615 0.7617
2315.000000 0.7618 0.7618 0.7619 0.7621 0.7621
2310.000000 0.7622 0.7622 0.7624 0.7624 0.7625
2305.000000 0.7625 0.7625 0.7625 0.7626 0.7626
2300.000000 0.7628 0.7628 0.7630 0.7630 0.7631
2295.000000 0.7631 0.7632 0.7632 0.7633 0.7633
2290.000000 0.7634 0.7634 0.7635 0.7636 0.7637
2285.000000 0.7638 0.7639 0.7641 0.7644 0.7646
2280.000000 0.7649 0.7651 0.7654 0.7656 0.7658
2275.000000 0.7661 0.7664 0.7665 0.7668 0.7671
2270.000000 0.7674 0.7675 0.7678 0.7681 0.7684
2265.000000 0.7686 0.7689 0.7691 0.7694 0.7697
2260.000000 0.7700 0.7703 0.7707 0.7710 0.7714
2255.000000 0.7717 0.7721 0.7724 0.7728 0.7731
2250.000000 0.7734 0.7737 0.7741 0.7744 0.7748
2245.000000 0.7751 0.7755 0.7758 0.7761 0.7765
2240.000000 0.7768 0.7771 0.7775 0.7778 0.7782
2235.000000 0.7785 0.7789 0.7792 0.7796 0.7799
2230.000000 0.7801 0.7805 0.7808 0.7811 0.7815
2225.000000 0.7818 0.7821 0.7825 0.7828 0.7831
2220.000000 0.7835 0.7838 0.7841 0.7844 0.7848
2215.000000 0.7851 0.7854 0.7857 0.7861 0.7864
2210.000000 0.7867 0.7869 0.7874 0.7876 0.7880
2205.000000 0.7883 0.7887 0.7889 0.7892 0.7895
2200.000000 0.7898 0.7901 0.7904 0.7906 0.7908
2195.000000 0.7911 0.7915 0.7918 0.7921 0.7924
2190.000000 0.7926 0.7928 0.7932 0.7935 0.7938
2185.000000 0.7941 0.7944 0.7946 0.7949 0.7951
2180.000000 0.7955 0.7958 0.7961 0.7962 0.7965
2175.000000 0.7968 0.7971 0.7975 0.7978 0.7980
2170.000000 0.7983 0.7986 0.7989 0.7991 0.7994
2165.000000 0.7997 0.8000 0.8003 0.8006 0.8008
2160.000000 0.8011 0.8015 0.8018 0.8021 0.8024
2155.000000 0.8026 0.8030 0.8033 0.8036 0.8039
2150.000000 0.8042 0.8045 0.8048 0.8051 0.8054
2145.000000 0.8056 0.8058 0.8061 0.8065 0.8068
2140.000000 0.8071 0.8074 0.8076 0.8081 0.8085
2135.000000 0.8088 0.8092 0.8095 0.8099 0.8101
2130.000000 0.8106 0.8108 0.8112 0.8115 0.8119
2125.000000 0.8122 0.8126 0.8130 0.8134 0.8138
2120.000000 0.8142 0.8145 0.8149 0.8151 0.8156
2115.000000 0.8158 0.8162 0.8165 0.8169 0.8172
2110.000000 0.8176 0.8180 0.8184 0.8188 0.8192
2105.000000 0.8195 0.8199 0.8201 0.8204 0.8206
2100.000000 0.8209 0.8211 0.8213 0.8215 0.8217
2095.000000 0.8218 0.8221 0.8223 0.8225 0.8227
2090.000000 0.8228 0.8231 0.8233 0.8234 0.8236
2085.000000 0.8237 0.8239 0.8240 0.8242 0.8243
2080.000000 0.8245 0.8247 0.8249 0.8250 0.8252
2075.000000 0.8253 0.8255 0.8256 0.8258 0.8259
2070.000000 0.8261 0.8262 0.8264 0.8265 0.8267
2065.000000 0.8268 0.8270 0.8271 0.8273 0.8274
2060.000000 0.8275 0.8277 0.8278 0.8280 0.8282
2055.000000 0.8284 0.8286 0.8288 0.8290 0.8291
2050.000000 0.8293 0.8295 0.8297 0.8299 0.8301
2045.000000 0.8303 0.8306 0.8308 0.8311 0.8313
2040.000000 0.8316 0.8318 0.8321 0.8323 0.8325
2035.000000 0.8328 0.8331 0.8333 0.8335 0.8337
2030.000000 0.8339 0.8341 0.8344 0.8346 0.8348
2025.000000 0.8350 0.8352 0.8353 0.8354 0.8354
2020.000000 0.8355 0.8356 0.8357 0.8358 0.8359
2015.000000 0.8360 0.8362 0.8363 0.8364 0.8365
2010.000000 0.8367 0.8368 0.8368 0.8356 0.8343
2005.000000 0.8324 0.8306 0.8288 0.8270 0.8233
2000.000000 0.8196 0.8160 0.8122 0.8087 0.8053
1995.000000 0.8051 0.8051 0.8082 0.8131 0.8178
1990.000000 0.8218 0.8249 0.8260 0.8268 0.8277
1985.000000 0.8278 0.8278 0.8280 0.8281 0.8282
1980.000000 0.8283 0.8278 0.8274 0.8264 0.8249
1975.000000 0.8234 0.8217 0.8199 0.8181 0.8168
1970.000000 0.8156 0.8148 0.8142 0.8135 0.8135
1965.000000 0.8135 0.8139 0.8147 0.8153 0.8158
1960.000000 0.8165 0.8169 0.8175 0.8178 0.8182
1955.000000 0.8185 0.8187 0.8188 0.8189 0.8189
1950.000000 0.8188 0.8188 0.8181 0.8174 0.8169
1945.000000 0.8165 0.8161 0.8160 0.8160 0.8162
1940.000000 0.8165 0.8168 0.8171 0.8183 0.8198
1935.000000 0.8212 0.8227 0.8240 0.8254 0.8268
1930.000000 0.8281 0.8285 0.8288 0.8291 0.8294
1925.000000 0.8294 0.8293 0.8293 0.8292 0.8292
1920.000000 0.8293 0.8293 0.8293 0.8284 0.8270
1915.000000 0.8256 0.8245 0.8237 0.8228 0.8221
1910.000000 0.8213 0.8206 0.8206 0.8205 0.8215
1905.000000 0.8233 0.8250 0.8264 0.8275 0.8277
1900.000000 0.8278 0.8278 0.8280 0.8280 0.8280
1895.000000 0.8280 0.8278 0.8278 0.8278 0.8278
1890.000000 0.8278 0.8277 0.8277 0.8277 0.8275
1885.000000 0.8275 0.8275 0.8275 0.8275 0.8274
1880.000000 0.8274 0.8275 0.8275 0.8277 0.8278
1875.000000 0.8278 0.8280 0.8281 0.8282 0.8283
1870.000000 0.8284 0.8285 0.8285 0.8286 0.8287
1865.000000 0.8288 0.8289 0.8293 0.8297 0.8302
1860.000000 0.8306 0.8309 0.8311 0.8312 0.8313
1855.000000 0.8314 0.8314 0.8315 0.8311 0.8306
1850.000000 0.8302 0.8298 0.8294 0.8290 0.8286
1845.000000 0.8286 0.8286 0.8290 0.8294 0.8299
1840.000000 0.8305 0.8311 0.8317 0.8323 0.8328
1835.000000 0.8332 0.8335 0.8338 0.8341 0.8344
1830.000000 0.8347 0.8351 0.8354 0.8357 0.8360
1825.000000 0.8363 0.8366 0.8370 0.8370 0.8370
1820.000000 0.8370 0.8368 0.8368 0.8368 0.8366
1815.000000 0.8364 0.8362 0.8360 0.8358 0.8356
1810.000000 0.8354 0.8352 0.8350 0.8348 0.8346
1805.000000 0.8344 0.8342 0.8340 0.8338 0.8336
1800.000000 0.8334 0.8332 0.8330 0.8328 0.8325
1795.000000 0.8324 0.8323 0.8321 0.8320 0.8318
1790.000000 0.8317 0.8315 0.8314 0.8312 0.8311
1785.000000 0.8309 0.8308 0.8306 0.8305 0.8303
1780.000000 0.8302 0.8301 0.8301 0.8303 0.8305
1775.000000 0.8308 0.8310 0.8312 0.8314 0.8316
1770.000000 0.8318 0.8318 0.8320 0.8320 0.8321
1765.000000 0.8321 0.8323 0.8324 0.8325 0.8325
1760.000000 0.8327 0.8327 0.8328 0.8328 0.8328
1755.000000 0.8328 0.8330 0.8330 0.8331 0.8331
1750.000000 0.8332 0.8332 0.8333 0.8333 0.8334
1745.000000 0.8334 0.8334 0.8334 0.8335 0.8335
1740.000000 0.8335 0.8335 0.8335 0.8335 0.8335
1735.000000 0.8335 0.8335 0.8334 0.8333 0.8333
1730.000000 0.8332 0.8331 0.8330 0.8328 0.8328
1725.000000 0.8327 0.8325 0.8325 0.8325 0.8324
1720.000000 0.8323 0.8321 0.8321 0.8321 0.8320
1715.000000 0.8320 0.8318 0.8318 0.8318 0.8317
1710.000000 0.8317 0.8317 0.8317 0.8321 0.8327
1705.000000 0.8332 0.8337 0.8342 0.8348 0.8354
1700.000000 0.8359 0.8365 0.8370 0.8375 0.8381
1695.000000 0.8385 0.8389 0.8389 0.8388 0.8385
1690.000000 0.8382 0.8380 0.8377 0.8374 0.8371
1685.000000 0.8368 0.8365 0.8363 0.8361 0.8358
1680.000000 0.8356 0.8356 0.8356 0.8364 0.8371
1675.000000 0.8378 0.8386 0.8394 0.8400 0.8405
1670.000000 0.8411 0.8417 0.8423 0.8428 0.8428
1665.000000 0.8428 0.8425 0.8421 0.8417 0.8413
1660.000000 0.8409 0.8407 0.8405 0.8404 0.8402
1655.000000 0.8402 0.8405 0.8407 0.8410 0.8413
1650.000000 0.8415 0.8418 0.8421 0.8424 0.8425
1645.000000 0.8428 0.8430 0.8432 0.8434 0.8434
1640.000000 0.8434 0.8434 0.8434 0.8434 0.8432
1635.000000 0.8428 0.8424 0.8421 0.8417 0.8413
1630.000000 0.8406 0.8398 0.8391 0.8382 0.8371
1625.000000 0.8360 0.8349 0.8337 0.8325 0.8311
1620.000000 0.8288 0.8265 0.8242 0.8218 0.8194
1615.000000 0.8153 0.8111 0.8065 0.8007 0.7949
1610.000000 0.7890 0.7821 0.7746 0.7671 0.7596
1605.000000 0.7532 0.6861 0.6135 0.5428 0.5427
1600.000000 0.5520 0.5616 0.5647 0.5404 0.5001
1595.000000 0.4599 0.4305 0.4283 0.4665 0.5074
1590.000000 0.5484 0.5893 0.6303 0.6711 0.7121
1585.000000 0.7272 0.7400 0.7531 0.7654 0.7751
1580.000000 0.7824 0.7871 0.7890 0.7904 0.7914
1575.000000 0.7924 0.7934 0.7942 0.7950 0.7958
1570.000000 0.7965 0.7972 0.7978 0.7985 0.7988
1565.000000 0.7988 0.7989 0.7993 0.7984 0.7976
1560.000000 0.7969 0.7964 0.7957 0.7944 0.7930
1555.000000 0.7915 0.7895 0.7868 0.7843 0.7808
1550.000000 0.7768 0.7728 0.7686 0.7639 0.7592
1545.000000 0.7545 0.7485 0.7408 0.7333 0.7254
1540.000000 0.7098 0.6925 0.6587 0.6308 0.6127
1535.000000 0.5969 0.5785 0.5522 0.5142 0.4604
1530.000000 0.4066 0.3530 0.2993 0.2455 0.1918
1525.000000 0.1381 0.1133 0.1164 0.1286 0.1556
1520.000000 0.1825 0.2095 0.2364 0.2633 0.2903
1515.000000 0.3172 0.3442 0.3710 0.3980 0.4250
1510.000000 0.4519 0.4789 0.5058 0.5327 0.5597
1505.000000 0.5866 0.6136 0.6405 0.6634 0.6631
1500.000000 0.6541 0.6451 0.6360 0.6271 0.6200
1495.000000 0.6174 0.6162 0.6270 0.6399 0.6528
1490.000000 0.6658 0.6787 0.6815 0.6810 0.6811
1485.000000 0.6811 0.6748 0.6718 0.6765 0.6861
1480.000000 0.6958 0.7014 0.7022 0.6984 0.6808
1475.000000 0.6408 0.6010 0.5610 0.5210 0.4912
1470.000000 0.4898 0.5097 0.5371 0.5645 0.5920
1465.000000 0.6194 0.6468 0.6742 0.7015 0.7186
1460.000000 0.6899 0.6352 0.5805 0.5258 0.4710
1455.000000 0.4599 0.4619 0.5729 0.6657 0.7585
1450.000000 0.7722 0.7786 0.7810 0.7830 0.7838
1445.000000 0.7844 0.7856 0.7853 0.7853 0.7853
1440.000000 0.7845 0.7836 0.7814 0.7771 0.7725
1435.000000 0.7630 0.7535 0.7368 0.6778 0.6186
1430.000000 0.5699 0.5754 0.5991 0.6229 0.6467
1425.000000 0.6705 0.6943 0.7181 0.7418 0.7657
1420.000000 0.7801 0.7840 0.7865 0.7884 0.7897
1415.000000 0.7901 0.7905 0.7908 0.7914 0.7918
1410.000000 0.7921 0.7921 0.7919 0.7918 0.7918
1405.000000 0.7915 0.7905 0.7894 0.7883 0.7865
1400.000000 0.7845 0.7824 0.7805 0.7787 0.7768
1395.000000 0.7751 0.7744 0.7736 0.7728 0.7725
1390.000000 0.7721 0.7718 0.7715 0.7707 0.7697
1385.000000 0.7687 0.7667 0.7646 0.7615 0.7557
1380.000000 0.7491 0.7425 0.7405 0.7387 0.7371
1375.000000 0.7357 0.7338 0.7319 0.7285 0.7241
1370.000000 0.7197 0.7153 0.7108 0.7065 0.7021
1365.000000 0.6957 0.6891 0.6825 0.6749 0.6658
1360.000000 0.6565 0.6451 0.6315 0.6093 0.5881
1355.000000 0.5698 0.5309 0.4617 0.4273 0.3704
1350.000000 0.3134 0.2565 0.1994 0.1425 0.0856
1345.000000 0.0452 0.0467 0.0441 0.0637 0.1049
1340.000000 0.1461 0.1874 0.2285 0.2699 0.3111
1335.000000 0.3524 0.3936 0.4349 0.4669 0.4691
1330.000000 0.4273 0.3841 0.3409 0.2978 0.2546
1325.000000 0.2387 0.2402 0.2463 0.2525 0.2587
1320.000000 0.2595 0.2315 0.1917 0.1519 0.1471
1315.000000 0.1429 0.1431 0.1722 0.2068 0.2414
1310.000000 0.2760 0.3106 0.3452 0.3798 0.4144
1305.000000 0.4490 0.4836 0.5182 0.5210 0.5221
1300.000000 0.5238 0.5237 0.5067 0.4775 0.4484
1295.000000 0.4193 0.3902 0.3610 0.3318 0.3028
1290.000000 0.2737 0.2446 0.2154 0.2004 0.2033
1285.000000 0.1995 0.2053 0.2339 0.2626 0.2913
1280.000000 0.3200 0.3486 0.3668 0.3688 0.3707
1275.000000 0.3728 0.3750 0.3780 0.3870 0.4055
1270.000000 0.4239 0.4424 0.4608 0.4793 0.4977
1265.000000 0.5162 0.5346 0.5472 0.5503 0.5535
1260.000000 0.5564 0.5595 0.5628 0.5664 0.5702
1255.000000 0.5727 0.5744 0.5749 0.5758 0.5754
1250.000000 0.5621 0.5487 0.5354 0.5221 0.5088
1245.000000 0.4955 0.4821 0.4688 0.4555 0.4422
1240.000000 0.4288 0.4225 0.4198 0.4184 0.4170
1235.000000 0.4150 0.4118 0.4080 0.4023 0.3875
1230.000000 0.3584 0.3295 0.3005 0.2714 0.2424
1225.000000 0.2134 0.1844 0.1554 0.1264 0.0974
1220.000000 0.0684 0.0393 0.0138 0.0119 0.0119
1215.000000 0.0129 0.0142 0.0171 0.0225 0.0299
1210.000000 0.0481 0.0629 0.0896 0.1182 0.1468
1205.000000 0.1754 0.2039 0.2325 0.2611 0.2897
1200.000000 0.3182 0.3468 0.3754 0.3850 0.3850
1195.000000 0.3850 0.3584 0.3039 0.2493 0.1948
1190.000000 0.1402 0.0931 0.0907 0.1014 0.1320
1185.000000 0.1626 0.1931 0.2237 0.2543 0.2848
1180.000000 0.3154 0.3459 0.3590 0.3580 0.3530
1175.000000 0.3438 0.3358 0.3305 0.3280 0.3047
1170.000000 0.1848 0.0735 0.0735 0.0736 0.0826
1165.000000 0.0934 0.1041 0.1148 0.1255 0.1362
1160.000000 0.1413 0.1426 0.1418 0.1338 0.1246
1155.000000 0.1155 0.1064 0.0972 0.0881 0.0860
1150.000000 0.0903 0.0880 0.0985 0.1206 0.1426
1145.000000 0.1645 0.1866 0.2087 0.2307 0.2527
1140.000000 0.2747 0.2968 0.3111 0.3191 0.3255
1135.000000 0.3298 0.3318 0.3337 0.3356 0.3368
1130.000000 0.3382 0.3395 0.3408 0.3422 0.3436
1125.000000 0.3462 0.3503 0.3550 0.3598 0.3645
1120.000000 0.3702 0.3927 0.4184 0.4442 0.4465
1115.000000 0.4475 0.4482 0.4488 0.4488 0.4487
1110.000000 0.4455 0.4404 0.4367 0.4347 0.4338
1105.000000 0.4352 0.4401 0.4476 0.4576 0.4760
1100.000000 0.4950 0.5140 0.5331 0.5371 0.5436
1095.000000 0.5500 0.5565 0.5630 0.5694 0.5759
1090.000000 0.5824 0.5888 0.5951 0.5966 0.5978
1085.000000 0.5985 0.5985 0.5985 0.5837 0.5432
1080.000000 0.5028 0.4623 0.4218 0.3814 0.3505
1075.000000 0.3486 0.3910 0.4378 0.4845 0.5312
1070.000000 0.5780 0.6247 0.6350 0.6383 0.6415
1065.000000 0.6444 0.6471 0.6494 0.6519 0.6561
1060.000000 0.6601 0.6643 0.6684 0.6725 0.6765
1055.000000 0.6807 0.6848 0.6889 0.6930 0.6971
1050.000000 0.7011 0.7053 0.7094 0.7135 0.7175
1045.000000 0.7217 0.7258 0.7299 0.7340 0.7381
1040.000000 0.7421 0.7449 0.7462 0.7498 0.7484
1035.000000 0.7492 0.7493 0.7493 0.7488 0.7472
1030.000000 0.7364 0.7243 0.7121 0.7085 0.7058
1025.000000 0.7210 0.7378 0.7546 0.7651 0.7697
1020.000000 0.7733 0.7764 0.7778 0.7789 0.7798
1015.000000 0.7807 0.7815 0.7838 0.7839 0.7839
1010.000000 0.7846 0.7851 0.7855 0.7858 0.7858
1005.000000 0.7861 0.7832 0.7706 0.7580 0.7454
1000.000000 0.7356 0.7362 0.7401 0.7530 0.7658
995.000000 0.7789 0.7918 0.7938 0.7949 0.7958
990.000000 0.7960 0.7960 0.7957 0.7935 0.7907
985.000000 0.7883 0.7868 0.7862 0.7849 0.7825
980.000000 0.7780 0.7765 0.7761 0.7768 0.7822
975.000000 0.7874 0.7908 0.7938 0.7951 0.7958
970.000000 0.7965 0.7968 0.7958 0.7949 0.7918
965.000000 0.7760 0.7583 0.7406 0.7228 0.7203
960.000000 0.7332 0.7504 0.7675 0.7849 0.8021
955.000000 0.8051 0.8071 0.8086 0.8094 0.8101
950.000000 0.8111 0.8118 0.8118 0.8118 0.8118
945.000000 0.8118 0.8115 0.8111 0.8107 0.8103
940.000000 0.8094 0.8083 0.8071 0.8061 0.8045
935.000000 0.8028 0.8011 0.7985 0.7957 0.7911
930.000000 0.7803 0.7615 0.7006 0.6375 0.5744
925.000000 0.5112 0.4482 0.3850 0.3220 0.2711
920.000000 0.2966 0.3753 0.4539 0.5326 0.6112
915.000000 0.6900 0.7580 0.7588 0.7599 0.7485
910.000000 0.7367 0.7249 0.7131 0.6985 0.6965
905.000000 0.7039 0.7194 0.7349 0.7504 0.7658
900.000000 0.7814 0.7940 0.7951 0.7949 0.7928
895.000000 0.7903 0.7865 0.7826 0.7789 0.7617
890.000000 0.6790 0.6762 0.6834 0.7019 0.7207
885.000000 0.7394 0.7581 0.7767 0.7954 0.8141
880.000000 0.8263 0.8305 0.8334 0.8354 0.8365
875.000000 0.8370 0.8371 0.8371 0.8370 0.8362
870.000000 0.8353 0.8332 0.8312 0.8277 0.8239
865.000000 0.8121 0.7685 0.7218 0.6750 0.5888
860.000000 0.5873 0.5875 0.6248 0.6725 0.7201
855.000000 0.7678 0.8155 0.8371 0.8416 0.8441
850.000000 0.8459 0.8478 0.8487 0.8490 0.8494
845.000000 0.8507 0.8499 0.8498 0.8496 0.8488
840.000000 0.8471 0.8456 0.8435 0.8414 0.8402
835.000000 0.8399 0.8393 0.8384 0.8371 0.8241
830.000000 0.8081 0.8072 0.8089 0.8125 0.8161
825.000000 0.8199 0.8235 0.8268 0.8256 0.8014
820.000000 0.7712 0.7518 0.7515 0.7692 0.7868
815.000000 0.8046 0.8223 0.8400 0.8474 0.8493
810.000000 0.8501 0.8509 0.8517 0.8524 0.8528
805.000000 0.8533 0.8536 0.8541 0.8541 0.8541
800.000000 0.8541 0.8541 0.8541 0.8535 0.8528
795.000000 0.8521 0.8514 0.8494 0.8471 0.8449
790.000000 0.8427 0.8382 0.8334 0.8287 0.8225
785.000000 0.8156 0.8068 0.7940 0.7814 0.7688
780.000000 0.7462 0.7291 0.7086 0.6428 0.5601
775.000000 0.4774 0.3947 0.3199 0.3210 0.3509
770.000000 0.3907 0.4305 0.4703 0.5101 0.5499
765.000000 0.5897 0.6295 0.6693 0.7090 0.7187
760.000000 0.7200 0.7191 0.6921 0.6307 0.5693
755.000000 0.5079 0.4464 0.3850 0.3236 0.2622
750.000000 0.2008 0.1394 0.0965 0.0981 0.0987
745.000000 0.1288 0.2122 0.2955 0.3789 0.4623
740.000000 0.5950 0.5959 0.5956 0.5601 0.5170
735.000000 0.4678 0.4700 0.4947 0.5370 0.5793
730.000000 0.6216 0.6639 0.6958 0.6957 0.6938
725.000000 0.6924 0.6911 0.6899 0.6895 0.6893
720.000000 0.6418 0.5824 0.5228 0.4632 0.4036
715.000000 0.4018 0.4195 0.4748 0.5301 0.5853
710.000000 0.6406 0.6958 0.7511 0.8045 0.8105
705.000000 0.8132 0.8148 0.8161 0.8161 0.8161
700.000000 0.8143 0.8107 0.7632 0.7125 0.6618
695.000000 0.6112 0.5606 0.5100 0.4593 0.4087
690.000000 0.3580 0.3074 0.2567 0.2061 0.1554
685.000000 0.1048 0.0570 0.0577 0.0589 0.1186
680.000000 0.3230 0.5275 0.7142 0.7251 0.7343
675.000000 0.7439 0.7557 0.7665 0.7698 0.7698
670.000000 0.7699 0.7699 0.7717 0.7735 0.7753
665.000000 0.7795 0.7842 0.7895 0.7964 0.8032
660.000000 0.8085 0.8137 0.8184 0.8218 0.8237
655.000000 0.8256 0.8268 0.8282 0.8284 0.8287
650.000000 0.8289 0.8305 0.8284 0.8278 0.8273
645.000000 0.8267 0.8253 0.8237 0.8221 0.8204
640.000000 0.8185 0.8165 0.8147 0.8128 0.8101
635.000000 0.8068 0.8033 0.7993 0.7951 0.7884
630.000000 0.7790 0.7683 0.7543 0.7415 0.7275
625.000000 0.6978 0.6480 0.5981 0.5481 0.4982
620.000000 0.4589 0.4636 0.4748 0.4859 0.4970
615.000000 0.5083 0.5210 0.5325 0.5734 0.6148
610.000000 0.6561 0.6975 0.7390 0.7784 0.7775
605.000000 0.7515 0.7162 0.6811 0.6458 0.6230
600.000000 0.6179 0.6931 0.7742 0.8250 0.8262
595.000000 0.8264 0.8271 0.8286 0.8314 0.8354
590.000000 0.8390 0.8410 0.8428 0.8437 0.8442
585.000000 0.8446 0.8450 0.8453 0.8456 0.8451
580.000000 0.8449 0.8448 0.8447 0.8432 0.8415
575.000000 0.8398 0.8381 0.8363 0.8334 0.8305
570.000000 0.8275 0.8247 0.8218 0.8183 0.8131
565.000000 0.8078 0.8021 0.7950 0.7880 0.7794
560.000000 0.7703 0.7581 0.7358 0.7153 0.7025
555.000000 0.6645 0.6264 0.5882 0.5501 0.5120
550.000000 0.4582 0.4573 0.4574 0.5007 0.5446
545.000000 0.5885 0.6332 0.6340 0.6129 0.5904
540.000000 0.5434 0.5454 0.5474 0.5872 0.6270
535.000000 0.6668 0.7061 0.7051 0.7041 0.6887
530.000000 0.6546 0.6204 0.5862 0.5520 0.5179
525.000000 0.4837 0.4495 0.4162 0.4170 0.4242
520.000000 0.4664 0.5086 0.5507 0.5929 0.6351
515.000000 0.6772 0.7122 0.7124 0.7125 0.7054
510.000000 0.6510 0.5965 0.5421 0.4877 0.4333
505.000000 0.3788 0.3244 0.2700 0.2156 0.1694
500.000000 0.1751 0.1858 0.2393 0.2929 0.3464
495.000000 0.4000 0.4536 0.5072 0.5608 0.6144
490.000000 0.6680 0.6984 0.7048 0.7111 0.7171
485.000000 0.7211 0.7253 0.7293 0.7322 0.7350
480.000000 0.7375 0.7401 0.7411 0.7421 0.7430
475.000000 0.7428 0.7449 0.7446 0.7440 0.7435
470.000000 0.7430 0.7418 0.7408 0.7398 0.7387
465.000000 0.7376 0.7358 0.7337 0.7315 0.7296
460.000000 0.7245 0.7171 0.7061 0.6839 0.6769
455.000000 0.6701 0.6633 0.5862 0.5852 0.5882
450.000000 0.5934 0.5987 0.6040 0.6045 0.5737
445.000000 0.5328 0.4919 0.4509 0.4257 0.4260
440.000000 0.4560 0.4860 0.5159 0.5458 0.5757
435.000000 0.5795 0.5812 0.5804 0.5801 0.5791
430.000000 0.5754 0.5709 0.5649 0.5589 0.5529
425.000000 0.5469 0.5409 0.5355 0.5303 0.5250
420.000000 0.5197 0.5146 0.5100 0.5053 0.5006
415.000000 0.4969 0.4934 0.4899 0.4877 0.4866
410.000000 0.4865 0.4864 0.4862 0.4860 0.4860
405.000000 0.4862 0.4864 0.4865
##END=
