##TITLE=1-PHENYL-4-METHYL-3-PYRAZOLIDONE
##JCAMP-DX=4.24
##DATA TYPE=INFRARED SPECTRUM
##CLASS=COBLENTZ
##ORIGIN=EASTMAN KODAK COMPANY, RESEARCH LABORATORIES, ROCHESTER, N.Y.
##OWNER=COBLENTZ SOCIETY
Collection (C) 2018 copyright by the U.S. Secretary of Commerce
on behalf of the United States of America. All rights reserved.
##DATE=Not specified, most likely prior to 1970
##MOLFORM=C9 H12 N2 O
$$ J.ORG.CHEM. 26, 2803(1961) COMPOUND II
##MP=140-141 C
##SOURCE REFERENCE=COBLENTZ NO. 2116
##$NIST ID=B6002116
##$NIST SOURCE=COBLENTZ
##$NIST IMAGE=cob2116
##SPECTROMETER/DATA SYSTEM=Not specified, most likely a prism, grating, or hybrid spectrometer.
##STATE=SOLID (KBr PRESSING)
##SAMPLING PROCEDURE=TRANSMISSION
##RESOLUTION=4
##DATA PROCESSING=DIGITIZED BY NIST FROM HARD COPY
##XUNITS=MICROMETERS
##YUNITS=TRANSMITTANCE
##XFACTOR=1.000000
##YFACTOR=1
##DELTAX=000.007028
##FIRSTX=2.028
##LASTX=15.9862
##FIRSTY=0.08
##MAXX=15.9862
##MINX=2.028
##MAXY=0.863
##MINY=0.05
##NPOINTS=1987
##XYDATA=(X++(Y..Y))
2.028000 0.0800 0.0800 0.0820 0.0830 0.0830
2.063158 0.0870 0.0890 0.0900 0.0900 0.0920
2.098000 0.0940 0.0940 0.0940 0.0940 0.0940
2.133158 0.0950 0.0970 0.0970 0.0990 0.0990
2.169000 0.1010 0.1010 0.1020 0.1020 0.1040
2.204158 0.1040 0.1040 0.1080 0.1090 0.1110
2.239000 0.1130 0.1130 0.1150 0.1160 0.1160
2.274158 0.1180 0.1180 0.1200 0.1200 0.1220
2.309000 0.1220 0.1230 0.1270 0.1290 0.1300
2.344158 0.1300 0.1320 0.1340 0.1360 0.1390
2.380000 0.1430 0.1480 0.1550 0.1640 0.1740
2.415158 0.1790 0.1830 0.1860 0.1900 0.1930
2.450000 0.1970 0.2000 0.2020 0.2040 0.2090
2.485158 0.2110 0.2110 0.2120 0.2180 0.2190
2.520000 0.2230 0.2280 0.2300 0.2320 0.2330
2.555158 0.2350 0.2350 0.2370 0.2370 0.2390
2.590000 0.2390 0.2400 0.2440 0.2510 0.2540
2.625158 0.2600 0.2630 0.2650 0.2680 0.2700
2.661000 0.2720 0.2730 0.2750 0.2790 0.2790
2.696158 0.2820 0.2860 0.2890 0.2910 0.2940
2.731000 0.2960 0.2980 0.3010 0.3030 0.3050
2.766158 0.3080 0.3140 0.3150 0.3190 0.3210
2.801000 0.3240 0.3260 0.3260 0.3280 0.3280
2.836158 0.3280 0.3310 0.3330 0.3330 0.3350
2.871000 0.3360 0.3360 0.3380 0.3400 0.3420
2.906158 0.3420 0.3430 0.3470 0.3490 0.3520
2.942000 0.3540 0.3570 0.3590 0.3630 0.3660
2.977158 0.3710 0.3730 0.3750 0.3760 0.3780
3.012000 0.3780 0.3800 0.3800 0.3800 0.3820
3.047158 0.3820 0.3820 0.3830 0.3830 0.3830
3.082000 0.3830 0.3830 0.3820 0.3800 0.3780
3.117158 0.3710 0.3690 0.3680 0.3630 0.3610
3.153000 0.3560 0.3470 0.3360 0.3280 0.3150
3.188158 0.3000 0.2770 0.2630 0.2540 0.2460
3.223000 0.2390 0.2370 0.2350 0.2370 0.2400
3.258158 0.2420 0.2420 0.2420 0.2400 0.2350
3.293000 0.2260 0.2120 0.2040 0.2000 0.1970
3.328158 0.1950 0.1930 0.1930 0.1930 0.1930
3.363000 0.1930 0.1930 0.1950 0.1970 0.1980
3.398158 0.2020 0.2070 0.2180 0.2180 0.2190
3.434000 0.2190 0.2210 0.2210 0.2230 0.2300
3.469158 0.2330 0.2370 0.2400 0.2440 0.2420
3.504000 0.2330 0.2320 0.2320 0.2320 0.2320
3.539158 0.2320 0.2320 0.2330 0.2350 0.2400
3.574000 0.2460 0.2540 0.2630 0.2750 0.2890
3.609158 0.2960 0.3000 0.3050 0.3220 0.3360
3.645000 0.3470 0.3570 0.3660 0.3760 0.3850
3.680158 0.3970 0.4040 0.4110 0.4150 0.4180
3.715000 0.4240 0.4310 0.4410 0.4570 0.4620
3.750158 0.4690 0.4690 0.4760 0.4850 0.4930
3.785000 0.5070 0.5140 0.5200 0.5230 0.5270
3.820158 0.5300 0.5390 0.5460 0.5560 0.5650
3.855000 0.5750 0.5820 0.5840 0.5880 0.5910
3.890158 0.5960 0.5980 0.6000 0.6020 0.6100
3.926000 0.6160 0.6190 0.6190 0.6210 0.6210
3.961158 0.6230 0.6240 0.6280 0.6310 0.6400
3.996000 0.6430 0.6450 0.6490 0.6490 0.6500
4.031158 0.6540 0.6570 0.6590 0.6610 0.6630
4.066000 0.6680 0.6700 0.6730 0.6780 0.6780
4.101158 0.6780 0.6780 0.6780 0.6800 0.6890
4.137000 0.6990 0.7010 0.7030 0.7030 0.7030
4.172158 0.7030 0.7010 0.7010 0.7010 0.7030
4.207000 0.7030 0.7050 0.7060 0.7080 0.7100
4.242158 0.7120 0.7120 0.7100 0.7100 0.7100
4.277000 0.7100 0.7100 0.7120 0.7130 0.7170
4.312158 0.7190 0.7190 0.7200 0.7240 0.7270
4.347000 0.7290 0.7290 0.7310 0.7320 0.7320
4.382158 0.7380 0.7430 0.7450 0.7460 0.7460
4.418000 0.7480 0.7500 0.7520 0.7530 0.7550
4.453158 0.7570 0.7590 0.7590 0.7600 0.7600
4.488000 0.7640 0.7660 0.7670 0.7690 0.7690
4.523158 0.7710 0.7730 0.7730 0.7740 0.7760
4.558000 0.7780 0.7800 0.7830 0.7870 0.7880
4.593158 0.7900 0.7900 0.7900 0.7900 0.7900
4.629000 0.7940 0.7950 0.7970 0.7970 0.7990
4.664158 0.7990 0.7990 0.8010 0.8010 0.8020
4.699000 0.8040 0.8040 0.8080 0.8080 0.8130
4.734158 0.8180 0.8200 0.8200 0.8200 0.8200
4.769000 0.8230 0.8270 0.8270 0.8270 0.8270
4.804158 0.8250 0.8210 0.8210 0.8210 0.8210
4.839000 0.8210 0.8210 0.8210 0.8210 0.8210
4.874158 0.8210 0.8210 0.8230 0.8230 0.8250
4.910000 0.8250 0.8250 0.8250 0.8250 0.8250
4.945158 0.8250 0.8270 0.8270 0.8280 0.8280
4.980000 0.8300 0.8320 0.8340 0.8340 0.8340
5.015158 0.8340 0.8340 0.8350 0.8350 0.8350
5.050000 0.8350 0.8350 0.8350 0.8350 0.8350
5.085158 0.8340 0.8320 0.8300 0.8300 0.8280
5.120000 0.8280 0.8230 0.8180 0.8150 0.8130
5.155158 0.8130 0.8130 0.8180 0.8250 0.8280
5.191000 0.8320 0.8340 0.8350 0.8370 0.8370
5.226158 0.8390 0.8410 0.8420 0.8510 0.8550
5.261000 0.8580 0.8600 0.8620 0.8630 0.8630
5.296158 0.8620 0.8620 0.8620 0.8600 0.8580
5.331000 0.8580 0.8580 0.8550 0.8550 0.8550
5.366158 0.8490 0.8420 0.8370 0.8320 0.8280
5.402000 0.8230 0.8210 0.8230 0.8320 0.8410
5.437158 0.8420 0.8440 0.8480 0.8480 0.8510
5.472000 0.8530 0.8550 0.8560 0.8560 0.8580
5.507158 0.8580 0.8580 0.8580 0.8580 0.8580
5.542000 0.8580 0.8580 0.8580 0.8560 0.8560
5.577158 0.8550 0.8530 0.8530 0.8490 0.8440
5.612000 0.8410 0.8410 0.8390 0.8390 0.8370
5.647158 0.8320 0.8300 0.8280 0.8210 0.8180
5.683000 0.8110 0.8010 0.7990 0.7970 0.7880
5.718158 0.7780 0.7730 0.7710 0.7690 0.7620
5.753000 0.7550 0.7450 0.7310 0.7100 0.6910
5.788158 0.6710 0.6560 0.6400 0.6140 0.5820
5.823000 0.5460 0.5070 0.4650 0.4460 0.4100
5.858158 0.3850 0.3290 0.2680 0.2000 0.1620
5.894000 0.1500 0.1410 0.1390 0.1300 0.1270
5.929158 0.1150 0.0900 0.0660 0.0590 0.0550
5.964000 0.0520 0.0500 0.0500 0.0500 0.0500
5.999158 0.0500 0.0500 0.0540 0.0640 0.0990
6.034000 0.1340 0.1690 0.2000 0.2280 0.2490
6.069158 0.2540 0.2680 0.2800 0.3000 0.3150
6.104000 0.3500 0.3830 0.4010 0.4110 0.4320
6.139158 0.4550 0.4810 0.4900 0.4970 0.5040
6.175000 0.5160 0.5210 0.5250 0.5280 0.5280
6.210158 0.5300 0.5300 0.5210 0.4900 0.4040
6.245000 0.3400 0.2720 0.1370 0.1360 0.1370
6.280158 0.1600 0.1860 0.2120 0.2250 0.2370
6.315000 0.2560 0.2930 0.3540 0.3750 0.3850
6.350158 0.4010 0.4200 0.4460 0.4760 0.5000
6.386000 0.5390 0.5460 0.5560 0.5610 0.5650
6.421158 0.5720 0.5860 0.6030 0.6160 0.6240
6.456000 0.6360 0.6520 0.6630 0.6700 0.6700
6.491158 0.6680 0.6630 0.6630 0.6630 0.6630
6.526000 0.6640 0.6640 0.6640 0.6640 0.6640
6.561158 0.6640 0.6640 0.6640 0.6640 0.6660
6.596000 0.6660 0.6700 0.6710 0.6820 0.6910
6.631158 0.6940 0.6920 0.6890 0.6870 0.6840
6.667000 0.6730 0.6610 0.6030 0.4990 0.3890
6.702158 0.2790 0.2770 0.2630 0.2120 0.1970
6.737000 0.1950 0.1970 0.2530 0.3120 0.3260
6.772158 0.3820 0.4390 0.5320 0.5320 0.5270
6.807000 0.5230 0.5130 0.5090 0.5040 0.4970
6.842158 0.4860 0.4790 0.4720 0.4690 0.4570
6.878000 0.4320 0.4130 0.4060 0.4040 0.4030
6.913158 0.4030 0.4130 0.4270 0.4480 0.4810
6.948000 0.5060 0.5130 0.5250 0.5370 0.5540
6.983158 0.5700 0.5880 0.6020 0.6140 0.6230
7.018000 0.6310 0.6400 0.6420 0.6450 0.6490
7.053158 0.6500 0.6520 0.6520 0.6540 0.6560
7.088000 0.6590 0.6610 0.6610 0.6610 0.6610
7.123158 0.6610 0.6610 0.6610 0.6610 0.6610
7.159000 0.6590 0.6360 0.6190 0.5860 0.5460
7.194158 0.5020 0.4670 0.4290 0.4040 0.3870
7.229000 0.3660 0.3290 0.2980 0.2800 0.2790
7.264158 0.2870 0.3350 0.3890 0.4040 0.4180
7.299000 0.4220 0.4290 0.4310 0.4390 0.4520
7.334158 0.4650 0.4850 0.5040 0.5160 0.5230
7.369000 0.5510 0.5950 0.6210 0.6380 0.6450
7.404158 0.6500 0.6560 0.6680 0.6780 0.6850
7.440000 0.6920 0.6990 0.6990 0.6990 0.6920
7.475158 0.6850 0.6780 0.6640 0.6420 0.6190
7.510000 0.6020 0.5890 0.5820 0.5790 0.5770
7.545158 0.5680 0.5600 0.5540 0.5460 0.5350
7.580000 0.5250 0.5090 0.4970 0.4880 0.4760
7.615158 0.4670 0.4620 0.4620 0.4620 0.4620
7.651000 0.4640 0.4710 0.4810 0.4970 0.5070
7.686158 0.5250 0.5300 0.5340 0.5370 0.5370
7.721000 0.5370 0.5320 0.5300 0.5230 0.5110
7.756158 0.5020 0.4930 0.4880 0.4810 0.4780
7.791000 0.4740 0.4690 0.4620 0.4580 0.4580
7.826158 0.4620 0.4690 0.4780 0.4830 0.4850
7.861000 0.4850 0.4810 0.4720 0.4620 0.4460
7.896158 0.4200 0.4030 0.3800 0.3540 0.3240
7.932000 0.3100 0.3000 0.2890 0.2870 0.2860
7.967158 0.2820 0.2750 0.2700 0.2650 0.2600
8.002000 0.2560 0.2530 0.2530 0.2530 0.2560
8.037158 0.2860 0.3220 0.3660 0.4060 0.4290
8.072000 0.4620 0.4950 0.5110 0.5280 0.5540
8.107158 0.5720 0.5840 0.5910 0.6020 0.6210
8.143000 0.6300 0.6330 0.6360 0.6430 0.6520
8.178158 0.6640 0.6730 0.6820 0.6840 0.6870
8.213000 0.6920 0.7010 0.7050 0.7080 0.7080
8.248158 0.7080 0.7060 0.7060 0.7060 0.7060
8.283000 0.7050 0.7030 0.6700 0.6470 0.6300
8.318158 0.6050 0.5670 0.5210 0.4620 0.4150
8.353000 0.3870 0.3660 0.3630 0.3660 0.4060
8.388158 0.4340 0.4570 0.4760 0.4880 0.4920
8.424000 0.4930 0.4920 0.4760 0.4550 0.4460
8.459158 0.4340 0.4200 0.4150 0.4110 0.4100
8.494000 0.4080 0.4080 0.4080 0.4080 0.4080
8.529158 0.4080 0.4080 0.4100 0.4360 0.4570
8.564000 0.4830 0.4990 0.5280 0.5420 0.5420
8.599158 0.5390 0.5270 0.5110 0.5070 0.5110
8.635000 0.5270 0.5470 0.5770 0.6100 0.6300
8.670158 0.6400 0.6470 0.6540 0.6640 0.6710
8.705000 0.6770 0.6780 0.6800 0.6800 0.6820
8.740158 0.6840 0.6850 0.6890 0.6910 0.6920
8.775000 0.6910 0.6840 0.6750 0.6590 0.6420
8.810158 0.6230 0.6070 0.5860 0.5670 0.5510
8.845000 0.5410 0.5300 0.5200 0.5130 0.5090
8.880158 0.5070 0.5060 0.5060 0.5070 0.5110
8.916000 0.5250 0.5370 0.5510 0.5610 0.5720
8.951158 0.5840 0.5860 0.5880 0.5890 0.5890
8.986000 0.5890 0.5890 0.5890 0.5880 0.5880
9.021158 0.5880 0.5860 0.5860 0.5860 0.5880
9.056000 0.5890 0.5960 0.6000 0.6000 0.6020
9.091158 0.6070 0.6230 0.6310 0.6350 0.6400
9.127000 0.6470 0.6590 0.6660 0.6730 0.6780
9.162158 0.6840 0.6890 0.6920 0.6940 0.6960
9.197000 0.6980 0.6990 0.6960 0.6990 0.7010
9.232158 0.7050 0.7120 0.7150 0.7190 0.7240
9.267000 0.7260 0.7270 0.7320 0.7360 0.7390
9.302158 0.7390 0.7390 0.7380 0.7320 0.7290
9.337000 0.7270 0.7290 0.7310 0.7360 0.7390
9.372158 0.7390 0.7380 0.7360 0.7320 0.7320
9.408000 0.7320 0.7340 0.7340 0.7340 0.7340
9.443158 0.7340 0.7340 0.7360 0.7390 0.7500
9.478000 0.7520 0.7530 0.7530 0.7550 0.7550
9.513158 0.7570 0.7570 0.7590 0.7600 0.7620
9.548000 0.7640 0.7640 0.7620 0.7620 0.7620
9.583158 0.7620 0.7640 0.7640 0.7690 0.7710
9.618000 0.7710 0.7710 0.7710 0.7690 0.7640
9.653158 0.7600 0.7480 0.7340 0.7100 0.6800
9.689000 0.6470 0.6310 0.6210 0.6170 0.6190
9.724158 0.6260 0.6420 0.6590 0.6730 0.6850
9.759000 0.6960 0.7060 0.7150 0.7220 0.7260
9.794158 0.7290 0.7310 0.7310 0.7320 0.7410
9.829000 0.7520 0.7530 0.7570 0.7600 0.7600
9.864158 0.7620 0.7620 0.7620 0.7620 0.7640
9.900000 0.7640 0.7640 0.7640 0.7640 0.7640
9.935158 0.7640 0.7600 0.7590 0.7590 0.7550
9.970000 0.7530 0.7460 0.7390 0.7270 0.7240
10.005158 0.7130 0.7080 0.7080 0.7100 0.7170
10.040000 0.7240 0.7320 0.7390 0.7410 0.7450
10.075158 0.7460 0.7500 0.7500 0.7500 0.7460
10.110000 0.7450 0.7430 0.7430 0.7430 0.7430
10.145158 0.7430 0.7410 0.7410 0.7430 0.7430
10.181000 0.7450 0.7480 0.7480 0.7450 0.7450
10.216158 0.7430 0.7410 0.7340 0.7290 0.7190
10.251000 0.7050 0.6960 0.6820 0.6780 0.6680
10.286158 0.6490 0.6160 0.5880 0.5650 0.5420
10.321000 0.5210 0.4970 0.4760 0.4530 0.4410
10.356158 0.4340 0.4320 0.4320 0.4320 0.4380
10.392000 0.4390 0.4410 0.4450 0.4530 0.4670
10.427158 0.4920 0.5180 0.5370 0.5540 0.5650
10.462000 0.5740 0.5790 0.5880 0.5950 0.5980
10.497158 0.6000 0.6020 0.6070 0.6240 0.6360
10.532000 0.6470 0.6540 0.6630 0.6680 0.6710
10.567158 0.6750 0.6780 0.6820 0.6870 0.6910
10.602000 0.6990 0.7050 0.7060 0.7060 0.7100
10.637158 0.7130 0.7170 0.7190 0.7200 0.7200
10.673000 0.7220 0.7220 0.7240 0.7290 0.7310
10.708158 0.7320 0.7320 0.7320 0.7310 0.7270
10.743000 0.7260 0.7260 0.7220 0.7200 0.7130
10.778158 0.7010 0.6940 0.6850 0.6780 0.6700
10.813000 0.6640 0.6610 0.6560 0.6500 0.6490
10.848158 0.6500 0.6520 0.6570 0.6590 0.6660
10.884000 0.6710 0.6800 0.6890 0.6920 0.6980
10.919158 0.6990 0.7010 0.7050 0.7100 0.7130
10.954000 0.7170 0.7190 0.7200 0.7220 0.7220
10.989158 0.7220 0.7220 0.7190 0.7010 0.6870
11.024000 0.6800 0.6710 0.6610 0.6540 0.6490
11.059158 0.6400 0.6380 0.6330 0.6300 0.6280
11.094000 0.6240 0.6230 0.6230 0.6260 0.6300
11.129158 0.6380 0.6420 0.6420 0.6400 0.6400
11.165000 0.6420 0.6420 0.6430 0.6470 0.6490
11.200158 0.6500 0.6540 0.6560 0.6570 0.6590
11.235000 0.6630 0.6660 0.6680 0.6710 0.6770
11.270158 0.6800 0.6800 0.6780 0.6770 0.6750
11.305000 0.6730 0.6700 0.6660 0.6630 0.6610
11.340158 0.6590 0.6570 0.6570 0.6540 0.6520
11.376000 0.6520 0.6500 0.6470 0.6430 0.6400
11.411158 0.6300 0.6210 0.6170 0.6160 0.6160
11.446000 0.6140 0.6100 0.6050 0.6020 0.5980
11.481158 0.5890 0.5810 0.5680 0.5600 0.5510
11.516000 0.5440 0.5420 0.5410 0.5350 0.5320
11.551158 0.5280 0.5210 0.5140 0.5060 0.5020
11.586000 0.5000 0.4990 0.4990 0.4990 0.4970
11.621158 0.4970 0.4970 0.4970 0.4970 0.4970
11.657000 0.4970 0.4970 0.4970 0.4970 0.4990
11.692158 0.4990 0.4990 0.5000 0.5020 0.5040
11.727000 0.5070 0.5090 0.5130 0.5140 0.5180
11.762158 0.5210 0.5270 0.5280 0.5390 0.5420
11.797000 0.5440 0.5460 0.5470 0.5490 0.5540
11.832158 0.5670 0.5810 0.5890 0.5980 0.6020
11.867000 0.6050 0.6070 0.6070 0.6090 0.6100
11.902158 0.6120 0.6140 0.6140 0.6140 0.6140
11.938000 0.6160 0.6160 0.6160 0.6170 0.6190
11.973158 0.6210 0.6230 0.6280 0.6300 0.6300
12.008000 0.6300 0.6300 0.6300 0.6280 0.6260
12.043158 0.6230 0.6210 0.6140 0.6120 0.6100
12.078000 0.6100 0.6090 0.6090 0.6090 0.6070
12.113158 0.6070 0.6090 0.6090 0.6090 0.6090
12.149000 0.6090 0.6090 0.6070 0.6070 0.6030
12.184158 0.6000 0.5930 0.5840 0.5720 0.5650
12.219000 0.5630 0.5600 0.5530 0.5420 0.5320
12.254158 0.5200 0.5070 0.5000 0.4920 0.4920
12.289000 0.4900 0.4860 0.4780 0.4670 0.4620
12.324158 0.4550 0.4500 0.4430 0.4360 0.4320
12.359000 0.4320 0.4320 0.4320 0.4320 0.4380
12.394158 0.4390 0.4410 0.4430 0.4520 0.4530
12.430000 0.4550 0.4570 0.4570 0.4580 0.4600
12.465158 0.4600 0.4620 0.4620 0.4600 0.4530
12.500000 0.4500 0.4480 0.4480 0.4500 0.4500
12.535158 0.4520 0.4520 0.4530 0.4570 0.4580
12.570000 0.4580 0.4600 0.4640 0.4710 0.4710
12.605158 0.4690 0.4670 0.4650 0.4640 0.4600
12.641000 0.4570 0.4530 0.4520 0.4500 0.4500
12.676158 0.4450 0.4430 0.4390 0.4340 0.4320
12.711000 0.4320 0.4310 0.4220 0.4150 0.4100
12.746158 0.4030 0.4010 0.3990 0.3970 0.3920
12.781000 0.3890 0.3850 0.3780 0.3690 0.3590
12.816158 0.3520 0.3470 0.3310 0.3210 0.3140
12.851000 0.3100 0.3030 0.3010 0.2940 0.2790
12.886158 0.2650 0.2470 0.2320 0.2160 0.2040
12.922000 0.1970 0.1840 0.1650 0.1500 0.1340
12.957158 0.1220 0.1130 0.1060 0.0990 0.0900
12.992000 0.0820 0.0690 0.0620 0.0610 0.0610
13.027158 0.0610 0.0610 0.0610 0.0610 0.0620
13.062000 0.0730 0.0850 0.1020 0.1150 0.1270
13.097158 0.1390 0.1550 0.1760 0.1980 0.2040
13.133000 0.2250 0.2460 0.2560 0.2680 0.2800
13.168158 0.2890 0.2930 0.3000 0.3120 0.3240
13.203000 0.3380 0.3470 0.3500 0.3520 0.3540
13.238158 0.3590 0.3630 0.3660 0.3690 0.3710
13.273000 0.3730 0.3800 0.3850 0.3890 0.3900
13.308158 0.3900 0.3920 0.3940 0.3960 0.3970
13.343000 0.3990 0.4010 0.4010 0.4030 0.4040
13.378158 0.4060 0.4080 0.4100 0.4100 0.4110
13.414000 0.4110 0.4130 0.4150 0.4180 0.4200
13.449158 0.4240 0.4250 0.4270 0.4320 0.4340
13.484000 0.4360 0.4380 0.4390 0.4390 0.4410
13.519158 0.4410 0.4410 0.4430 0.4450 0.4460
13.554000 0.4480 0.4520 0.4550 0.4570 0.4580
13.589158 0.4580 0.4600 0.4600 0.4600 0.4600
13.624000 0.4600 0.4600 0.4600 0.4600 0.4600
13.659158 0.4620 0.4620 0.4640 0.4650 0.4670
13.695000 0.4710 0.4720 0.4760 0.4810 0.4860
13.730158 0.4900 0.4900 0.4920 0.4920 0.4920
13.765000 0.4900 0.4880 0.4830 0.4810 0.4810
13.800158 0.4830 0.4830 0.4850 0.4850 0.4860
13.835000 0.4860 0.4860 0.4860 0.4860 0.4860
13.870158 0.4860 0.4860 0.4860 0.4860 0.4860
13.906000 0.4880 0.4900 0.4900 0.4900 0.4900
13.941158 0.4880 0.4880 0.4860 0.4850 0.4850
13.976000 0.4850 0.4850 0.4830 0.4830 0.4810
14.011158 0.4790 0.4790 0.4780 0.4780 0.4760
14.046000 0.4740 0.4720 0.4690 0.4640 0.4550
14.081158 0.4520 0.4450 0.4360 0.4310 0.4250
14.116000 0.4220 0.4080 0.4030 0.3970 0.3900
14.151158 0.3850 0.3800 0.3730 0.3640 0.3570
14.187000 0.3540 0.3470 0.3400 0.3380 0.3310
14.222158 0.3220 0.3190 0.3120 0.3010 0.3000
14.257000 0.2910 0.2800 0.2700 0.2600 0.2460
14.292158 0.2320 0.2050 0.2000 0.1980 0.1970
14.327000 0.1900 0.1790 0.1690 0.1580 0.1480
14.362158 0.1390 0.1360 0.1300 0.1300 0.1290
14.398000 0.1290 0.1300 0.1320 0.1340 0.1340
14.433158 0.1360 0.1390 0.1500 0.1580 0.1620
14.468000 0.1690 0.1830 0.2020 0.2140 0.2260
14.503158 0.2350 0.2460 0.2670 0.2790 0.2870
14.538000 0.2890 0.2910 0.2980 0.3000 0.3080
14.573158 0.3140 0.3190 0.3220 0.3240 0.3260
14.608000 0.3280 0.3280 0.3290 0.3310 0.3350
14.643158 0.3360 0.3400 0.3400 0.3400 0.3400
14.679000 0.3400 0.3380 0.3380 0.3380 0.3380
14.714158 0.3380 0.3380 0.3350 0.3310 0.3280
14.749000 0.3150 0.3080 0.3070 0.3010 0.3000
14.784158 0.3000 0.2960 0.2890 0.2870 0.2840
14.819000 0.2840 0.2840 0.2820 0.2800 0.2800
14.854158 0.2800 0.2800 0.2800 0.2800 0.2790
14.890000 0.2790 0.2790 0.2800 0.2820 0.2820
14.925158 0.2820 0.2820 0.2820 0.2820 0.2840
14.960000 0.2870 0.2910 0.2930 0.2930 0.2940
14.995158 0.2940 0.2940 0.2940 0.2940 0.2940
15.030000 0.2940 0.2930 0.2930 0.2930 0.2930
15.065158 0.2960 0.2980 0.2980 0.2980 0.2980
15.100000 0.2980 0.2980 0.2980 0.2980 0.2960
15.135158 0.2960 0.2940 0.2940 0.2930 0.2930
15.171000 0.2910 0.2890 0.2890 0.2870 0.2870
15.206158 0.2870 0.2870 0.2870 0.2860 0.2840
15.241000 0.2790 0.2750 0.2750 0.2730 0.2730
15.276158 0.2730 0.2720 0.2720 0.2700 0.2700
15.311000 0.2700 0.2670 0.2600 0.2560 0.2530
15.346158 0.2530 0.2530 0.2510 0.2510 0.2510
15.382000 0.2510 0.2490 0.2490 0.2470 0.2470
15.417158 0.2470 0.2470 0.2470 0.2490 0.2490
15.452000 0.2510 0.2510 0.2510 0.2510 0.2510
15.487158 0.2510 0.2510 0.2510 0.2510 0.2510
15.522000 0.2510 0.2510 0.2510 0.2530 0.2540
15.557158 0.2580 0.2600 0.2610 0.2610 0.2630
15.592000 0.2630 0.2630 0.2630 0.2650 0.2650
15.627158 0.2650 0.2650 0.2650 0.2670 0.2680
15.663000 0.2700 0.2730 0.2770 0.2790 0.2800
15.698158 0.2890 0.2910 0.2960 0.2980 0.2980
15.733000 0.2980 0.2980 0.2980 0.2980 0.2960
15.768158 0.2960 0.2960 0.2980 0.2980 0.3000
15.803000 0.3010 0.3030 0.3030 0.3030 0.3030
15.838158 0.3030 0.3030 0.3030 0.3070 0.3120
15.873000 0.3210 0.3210 0.3220 0.3260 0.3280
15.908158 0.3280 0.3260 0.3240 0.3240 0.3240
15.944000 0.3240 0.3240 0.3290 0.3330 0.3350
15.979158 0.3360 0.3360
##END=
