##TITLE=ACETIC ACID, 2-SULFO ETHYL ESTER-, SODIUM SALT
##JCAMP-DX=4.24
##DATA TYPE=INFRARED SPECTRUM
##CLASS=COBLENTZ
##ORIGIN=TENNESSEE EASTMAN COMPANY, RESEARCH LABORATORIES
##OWNER=COBLENTZ SOCIETY
Collection (C) 2018 copyright by the U.S. Secretary of Commerce
on behalf of the United States of America. All rights reserved.
##DATE=Not specified, most likely prior to 1970
##MOLFORM=C4 H7 O5 S Na
##SOURCE REFERENCE=COBLENTZ NO. 2207
##$NIST ID=B6002207
##$NIST SOURCE=COBLENTZ
##$NIST IMAGE=cob2207
##SPECTROMETER/DATA SYSTEM=Not specified, most likely a prism, grating, or hybrid spectrometer.
##STATE=SOLID (KBr PELLET)
##SAMPLING PROCEDURE=TRANSMISSION
##RESOLUTION=4
##DATA PROCESSING=DIGITIZED BY NIST FROM HARD COPY
##XUNITS=MICROMETERS
##YUNITS=TRANSMITTANCE
##XFACTOR=1.000000
##YFACTOR=1
##DELTAX=000.006648
##FIRSTX=2.027
##LASTX=16.0136
##FIRSTY=0.866
##MAXX=16.0136
##MINX=2.027
##MAXY=0.991
##MINY=0.053
##NPOINTS=2105
##XYDATA=(X++(Y..Y))
2.027000 0.8660 0.8660 0.8700 0.8710 0.8730
2.060254 0.8750 0.8760 0.8780 0.8780 0.8800
2.093000 0.8810 0.8810 0.8830 0.8850 0.8860
2.126254 0.8900 0.8910 0.8930 0.8930 0.8960
2.160000 0.9000 0.9010 0.9010 0.9030 0.9030
2.193254 0.9050 0.9050 0.9060 0.9060 0.9060
2.226000 0.9060 0.9060 0.9080 0.9080 0.9080
2.259254 0.9080 0.9080 0.9080 0.9080 0.9080
2.292000 0.9100 0.9100 0.9100 0.9110 0.9110
2.325254 0.9110 0.9110 0.9110 0.9110 0.9110
2.359000 0.9110 0.9110 0.9130 0.9130 0.9150
2.392254 0.9150 0.9160 0.9160 0.9160 0.9180
2.425000 0.9180 0.9180 0.9180 0.9180 0.9180
2.458254 0.9180 0.9200 0.9200 0.9200 0.9210
2.492000 0.9230 0.9230 0.9230 0.9230 0.9230
2.525254 0.9230 0.9230 0.9230 0.9210 0.9200
2.558000 0.9200 0.9200 0.9200 0.9210 0.9210
2.591254 0.9210 0.9210 0.9210 0.9230 0.9230
2.625000 0.9250 0.9250 0.9250 0.9250 0.9230
2.658254 0.9230 0.9230 0.9230 0.9230 0.9200
2.691000 0.9180 0.9160 0.9130 0.9080 0.9000
2.724254 0.8860 0.8680 0.8400 0.8250 0.8100
2.758000 0.7960 0.7860 0.7800 0.7660 0.7480
2.791254 0.7330 0.7200 0.7080 0.7000 0.6950
2.824000 0.6860 0.6780 0.6730 0.6660 0.6550
2.857254 0.6450 0.6380 0.6310 0.6280 0.6260
2.891000 0.6260 0.6280 0.6310 0.6360 0.6500
2.924254 0.6610 0.6860 0.6960 0.7030 0.7150
2.957000 0.7280 0.7350 0.7430 0.7510 0.7630
2.990254 0.7730 0.7850 0.7950 0.8050 0.8100
3.024000 0.8110 0.8150 0.8200 0.8260 0.8300
3.057254 0.8330 0.8380 0.8410 0.8460 0.8500
3.090000 0.8510 0.8530 0.8580 0.8630 0.8700
3.123254 0.8800 0.8860 0.8980 0.9000 0.9010
3.157000 0.9030 0.9060 0.9100 0.9110 0.9160
3.190254 0.9160 0.9200 0.9230 0.9230 0.9250
3.223000 0.9260 0.9280 0.9280 0.9280 0.9280
3.256254 0.9300 0.9300 0.9300 0.9300 0.9300
3.290000 0.9280 0.9180 0.9000 0.8980 0.9000
3.323254 0.9060 0.9060 0.8750 0.8650 0.8560
3.356000 0.8550 0.8580 0.8850 0.9080 0.9210
3.389254 0.9280 0.9330 0.9350 0.9360 0.9380
3.423000 0.9400 0.9410 0.9410 0.9450 0.9450
3.456254 0.9460 0.9460 0.9480 0.9480 0.9500
3.489000 0.9510 0.9530 0.9530 0.9550 0.9550
3.522254 0.9560 0.9560 0.9580 0.9580 0.9600
3.556000 0.9600 0.9600 0.9600 0.9600 0.9600
3.589254 0.9600 0.9610 0.9610 0.9610 0.9610
3.622000 0.9610 0.9610 0.9610 0.9610 0.9610
3.655254 0.9610 0.9610 0.9610 0.9610 0.9610
3.689000 0.9610 0.9610 0.9630 0.9630 0.9630
3.722254 0.9630 0.9630 0.9600 0.9560 0.9560
3.755000 0.9550 0.9530 0.9530 0.9530 0.9510
3.788254 0.9510 0.9510 0.9510 0.9530 0.9530
3.821000 0.9550 0.9550 0.9560 0.9560 0.9580
3.854254 0.9580 0.9580 0.9580 0.9580 0.9580
3.888000 0.9580 0.9580 0.9580 0.9580 0.9580
3.921254 0.9580 0.9580 0.9580 0.9580 0.9580
3.954000 0.9560 0.9560 0.9560 0.9560 0.9560
3.987254 0.9560 0.9560 0.9560 0.9560 0.9560
4.021000 0.9560 0.9560 0.9560 0.9560 0.9560
4.054254 0.9560 0.9560 0.9560 0.9560 0.9560
4.087000 0.9560 0.9560 0.9560 0.9560 0.9560
4.120254 0.9560 0.9580 0.9580 0.9580 0.9600
4.154000 0.9600 0.9600 0.9600 0.9600 0.9610
4.187254 0.9610 0.9610 0.9610 0.9600 0.9600
4.220000 0.9580 0.9510 0.9480 0.9450 0.9430
4.253254 0.9410 0.9410 0.9410 0.9410 0.9410
4.287000 0.9410 0.9410 0.9410 0.9410 0.9430
4.320254 0.9460 0.9480 0.9480 0.9500 0.9510
4.353000 0.9530 0.9530 0.9560 0.9580 0.9580
4.386254 0.9580 0.9580 0.9580 0.9580 0.9580
4.420000 0.9580 0.9600 0.9600 0.9600 0.9600
4.453254 0.9610 0.9630 0.9650 0.9660 0.9660
4.486000 0.9680 0.9680 0.9660 0.9660 0.9650
4.519254 0.9650 0.9650 0.9650 0.9650 0.9650
4.553000 0.9650 0.9650 0.9650 0.9630 0.9610
4.586254 0.9610 0.9610 0.9630 0.9630 0.9630
4.619000 0.9650 0.9650 0.9650 0.9630 0.9630
4.652254 0.9610 0.9600 0.9600 0.9610 0.9610
4.686000 0.9610 0.9610 0.9610 0.9610 0.9610
4.719254 0.9630 0.9630 0.9630 0.9630 0.9630
4.752000 0.9650 0.9650 0.9650 0.9660 0.9660
4.785254 0.9680 0.9680 0.9680 0.9680 0.9680
4.819000 0.9680 0.9660 0.9650 0.9650 0.9610
4.852254 0.9610 0.9610 0.9610 0.9610 0.9610
4.885000 0.9610 0.9610 0.9630 0.9630 0.9630
4.918254 0.9610 0.9610 0.9610 0.9630 0.9650
4.952000 0.9650 0.9660 0.9660 0.9680 0.9680
4.985254 0.9700 0.9700 0.9700 0.9700 0.9680
5.018000 0.9680 0.9680 0.9680 0.9680 0.9660
5.051254 0.9660 0.9650 0.9650 0.9630 0.9610
5.085000 0.9610 0.9610 0.9610 0.9610 0.9610
5.118254 0.9630 0.9610 0.9610 0.9610 0.9630
5.151000 0.9630 0.9630 0.9630 0.9610 0.9610
5.184254 0.9600 0.9580 0.9580 0.9600 0.9600
5.217000 0.9600 0.9600 0.9600 0.9580 0.9550
5.250254 0.9510 0.9510 0.9530 0.9550 0.9550
5.284000 0.9560 0.9560 0.9560 0.9550 0.9530
5.317254 0.9510 0.9500 0.9480 0.9500 0.9500
5.350000 0.9510 0.9510 0.9510 0.9510 0.9500
5.383254 0.9500 0.9480 0.9430 0.9400 0.9400
5.417000 0.9410 0.9450 0.9450 0.9450 0.9460
5.450254 0.9460 0.9450 0.9430 0.9430 0.9430
5.483000 0.9430 0.9430 0.9410 0.9400 0.9380
5.516254 0.9380 0.9380 0.9380 0.9360 0.9310
5.550000 0.9300 0.9250 0.9210 0.9210 0.9210
5.583254 0.9210 0.9210 0.9210 0.9200 0.9150
5.616000 0.9100 0.9010 0.9000 0.9000 0.9010
5.649254 0.9010 0.9000 0.9000 0.8980 0.8950
5.683000 0.8900 0.8850 0.8710 0.8700 0.8630
5.716254 0.8560 0.8510 0.8480 0.8460 0.8460
5.749000 0.8450 0.8450 0.8450 0.8450 0.8450
5.782254 0.8410 0.8410 0.8380 0.8260 0.8230
5.816000 0.8210 0.8210 0.8210 0.8210 0.8200
5.849254 0.8150 0.8100 0.8050 0.8010 0.8000
5.882000 0.7960 0.7950 0.7930 0.7900 0.7860
5.915254 0.7830 0.7800 0.7780 0.7700 0.7700
5.949000 0.7680 0.7680 0.7650 0.7630 0.7580
5.982254 0.7560 0.7530 0.7480 0.7450 0.7400
6.015000 0.7350 0.7250 0.7130 0.6960 0.6780
6.048254 0.6700 0.6600 0.6350 0.6060 0.5900
6.082000 0.5700 0.5480 0.4900 0.4210 0.3530
6.115254 0.3200 0.2860 0.2310 0.1910 0.1350
6.148000 0.0580 0.0550 0.0550 0.0530 0.0530
6.181254 0.0530 0.0560 0.0860 0.1250 0.1680
6.215000 0.2160 0.2700 0.3260 0.4400 0.4980
6.248254 0.5510 0.6030 0.6500 0.7010 0.7250
6.281000 0.7360 0.7480 0.7580 0.7610 0.7610
6.314254 0.7630 0.7650 0.7650 0.7660 0.7800
6.348000 0.8030 0.8230 0.8250 0.8260 0.8280
6.381254 0.8280 0.8300 0.8350 0.8510 0.8630
6.414000 0.8680 0.8680 0.8650 0.8560 0.8550
6.447254 0.8550 0.8580 0.8650 0.8680 0.8710
6.481000 0.8780 0.8880 0.8900 0.8880 0.8880
6.514254 0.8830 0.8800 0.8700 0.8680 0.8680
6.547000 0.8750 0.8810 0.8850 0.8860 0.8880
6.580254 0.8880 0.8860 0.8700 0.8680 0.8680
6.613000 0.8680 0.8680 0.8680 0.8680 0.8680
6.646254 0.8680 0.8680 0.8680 0.8680 0.8660
6.680000 0.8660 0.8650 0.8650 0.8630 0.8610
6.713254 0.8600 0.8530 0.8500 0.8400 0.8280
6.746000 0.8210 0.8200 0.8200 0.8210 0.8230
6.779254 0.8250 0.8250 0.8250 0.8210 0.8180
6.813000 0.8150 0.8100 0.8060 0.8030 0.8010
6.846254 0.8010 0.8000 0.7960 0.7910 0.7810
6.879000 0.7730 0.7660 0.7560 0.7460 0.7260
6.912254 0.7010 0.6710 0.6700 0.6710 0.6980
6.946000 0.7230 0.7510 0.7650 0.7710 0.7710
6.979254 0.7510 0.7380 0.7260 0.7150 0.7030
7.012000 0.7010 0.6800 0.6700 0.6600 0.6580
7.045254 0.6600 0.6660 0.6730 0.6730 0.6760
7.079000 0.6760 0.6730 0.6700 0.6660 0.6560
7.112254 0.6510 0.6450 0.6360 0.6260 0.6130
7.145000 0.5960 0.5730 0.5450 0.5100 0.4660
7.178254 0.4200 0.3630 0.3410 0.3180 0.2830
7.212000 0.2480 0.2260 0.1910 0.1900 0.1900
7.245254 0.1910 0.2200 0.2700 0.3200 0.3930
7.278000 0.4200 0.4460 0.4730 0.5010 0.5360
7.311254 0.5780 0.6210 0.6610 0.7330 0.7650
7.345000 0.7930 0.8200 0.8310 0.8360 0.8460
7.378254 0.8510 0.8550 0.8610 0.8660 0.8730
7.411000 0.8800 0.8860 0.8910 0.8930 0.8960
7.444254 0.9000 0.9010 0.9010 0.9030 0.9060
7.478000 0.9100 0.9110 0.9130 0.9130 0.9130
7.511254 0.9130 0.9100 0.9080 0.9010 0.8960
7.544000 0.8930 0.8860 0.8800 0.8760 0.8610
7.577254 0.8600 0.8580 0.8580 0.8580 0.8580
7.611000 0.8610 0.8610 0.8660 0.8660 0.8700
7.644254 0.8700 0.8700 0.8680 0.8680 0.8650
7.677000 0.8610 0.8580 0.8530 0.8510 0.8510
7.710254 0.8500 0.8500 0.8480 0.8480 0.8500
7.744000 0.8510 0.8510 0.8510 0.8510 0.8510
7.777254 0.8510 0.8500 0.8460 0.8360 0.8260
7.810000 0.8210 0.8200 0.8160 0.8110 0.8050
7.843254 0.7960 0.7910 0.7880 0.7860 0.7760
7.877000 0.7710 0.7630 0.7610 0.7550 0.7450
7.910254 0.7330 0.7200 0.7060 0.6930 0.6780
7.943000 0.6710 0.6630 0.6450 0.6260 0.6050
7.976254 0.5800 0.5530 0.5250 0.4910 0.4530
8.009000 0.4130 0.3680 0.3430 0.3180 0.2610
8.042254 0.2260 0.1860 0.1660 0.1460 0.1330
8.076000 0.1230 0.1210 0.1230 0.1300 0.1400
8.109254 0.1510 0.1550 0.1600 0.1610 0.1630
8.142000 0.1650 0.1660 0.1680 0.1700 0.1730
8.175254 0.1880 0.1900 0.1900 0.1900 0.1850
8.209000 0.1810 0.1660 0.1510 0.1500 0.1450
8.242254 0.1430 0.1430 0.1430 0.1430 0.1410
8.275000 0.1380 0.1310 0.1210 0.1110 0.1060
8.308254 0.1060 0.1080 0.1110 0.1200 0.1300
8.342000 0.1410 0.1550 0.1710 0.1910 0.2110
8.375254 0.2330 0.2560 0.2830 0.3080 0.3700
8.408000 0.3930 0.4150 0.4400 0.4660 0.4980
8.441254 0.5250 0.5460 0.5660 0.5850 0.6000
8.475000 0.6130 0.6250 0.6360 0.6430 0.6480
8.508254 0.6530 0.6580 0.6730 0.6800 0.6810
8.541000 0.6850 0.6880 0.6900 0.6950 0.6980
8.574254 0.7000 0.7060 0.7130 0.7150 0.7160
8.608000 0.7200 0.7230 0.7260 0.7300 0.7330
8.641254 0.7360 0.7380 0.7410 0.7430 0.7450
8.674000 0.7450 0.7430 0.7430 0.7410 0.7400
8.707254 0.7400 0.7400 0.7400 0.7400 0.7400
8.741000 0.7400 0.7380 0.7380 0.7380 0.7380
8.774254 0.7380 0.7400 0.7460 0.7500 0.7510
8.807000 0.7530 0.7550 0.7600 0.7610 0.7630
8.840254 0.7630 0.7650 0.7650 0.7660 0.7660
8.874000 0.7660 0.7660 0.7660 0.7660 0.7650
8.907254 0.7630 0.7600 0.7580 0.7550 0.7500
8.940000 0.7480 0.7450 0.7430 0.7360 0.7350
8.973254 0.7350 0.7360 0.7410 0.7450 0.7500
9.007000 0.7550 0.7610 0.7660 0.7710 0.7760
9.040254 0.7800 0.7830 0.7910 0.7960 0.8000
9.073000 0.8030 0.8050 0.8060 0.8080 0.8100
9.106254 0.8100 0.8100 0.8110 0.8110 0.8130
9.140000 0.8130 0.8130 0.8150 0.8150 0.8150
9.173254 0.8150 0.8150 0.8150 0.8150 0.8150
9.206000 0.8150 0.8150 0.8150 0.8150 0.8150
9.239254 0.8150 0.8130 0.8110 0.8030 0.7930
9.273000 0.7880 0.7800 0.7700 0.7580 0.7450
9.306254 0.7250 0.7010 0.6700 0.6500 0.6300
9.339000 0.5810 0.5550 0.4700 0.4350 0.3780
9.372254 0.3210 0.2560 0.2200 0.1860 0.1680
9.406000 0.1360 0.1350 0.1380 0.1550 0.1850
9.439254 0.2210 0.2630 0.3030 0.3810 0.4110
9.472000 0.4550 0.5010 0.5360 0.5860 0.6160
9.505254 0.6430 0.6630 0.7030 0.7210 0.7350
9.538000 0.7460 0.7550 0.7630 0.7700 0.7750
9.571254 0.7810 0.7860 0.7930 0.8000 0.8010
9.605000 0.8050 0.8080 0.8080 0.8130 0.8160
9.638254 0.8200 0.8250 0.8300 0.8330 0.8380
9.671000 0.8410 0.8480 0.8510 0.8530 0.8560
9.704254 0.8580 0.8610 0.8660 0.8700 0.8760
9.738000 0.8800 0.8800 0.8860 0.8880 0.8900
9.771254 0.8900 0.8900 0.8910 0.8930 0.8960
9.804000 0.8980 0.8980 0.8980 0.8980 0.8980
9.837254 0.8980 0.8980 0.9000 0.9000 0.9010
9.871000 0.9010 0.9030 0.9050 0.9060 0.9080
9.904254 0.9100 0.9110 0.9110 0.9130 0.9150
9.937000 0.9180 0.9200 0.9210 0.9230 0.9250
9.970254 0.9280 0.9300 0.9310 0.9310 0.9330
10.004000 0.9330 0.9350 0.9350 0.9360 0.9360
10.037254 0.9380 0.9380 0.9380 0.9400 0.9400
10.070000 0.9400 0.9400 0.9400 0.9400 0.9360
10.103254 0.9360 0.9350 0.9350 0.9360 0.9380
10.137000 0.9380 0.9380 0.9380 0.9400 0.9400
10.170254 0.9410 0.9410 0.9410 0.9410 0.9430
10.203000 0.9430 0.9450 0.9460 0.9460 0.9480
10.236254 0.9480 0.9480 0.9480 0.9480 0.9480
10.270000 0.9480 0.9500 0.9510 0.9510 0.9500
10.303254 0.9500 0.9500 0.9500 0.9500 0.9500
10.336000 0.9500 0.9500 0.9510 0.9510 0.9510
10.369254 0.9500 0.9500 0.9500 0.9500 0.9460
10.403000 0.9450 0.9430 0.9430 0.9430 0.9430
10.436254 0.9430 0.9430 0.9450 0.9460 0.9460
10.469000 0.9480 0.9480 0.9500 0.9500 0.9500
10.502254 0.9500 0.9500 0.9510 0.9510 0.9510
10.536000 0.9530 0.9530 0.9550 0.9550 0.9550
10.569254 0.9550 0.9550 0.9550 0.9550 0.9550
10.602000 0.9530 0.9530 0.9510 0.9500 0.9430
10.635254 0.9360 0.9280 0.9160 0.9050 0.8910
10.669000 0.8710 0.8530 0.8380 0.8280 0.8260
10.702254 0.8260 0.8300 0.8310 0.8400 0.8480
10.735000 0.8560 0.8610 0.8660 0.8710 0.8780
10.768254 0.8800 0.8800 0.8800 0.8710 0.8560
10.802000 0.8410 0.8200 0.8030 0.7860 0.7610
10.835254 0.7400 0.7200 0.7160 0.7160 0.7200
10.868000 0.7500 0.7860 0.8160 0.8400 0.8610
10.901254 0.8780 0.8910 0.9050 0.9150 0.9250
10.934000 0.9260 0.9380 0.9410 0.9480 0.9500
10.967254 0.9500 0.9510 0.9510 0.9530 0.9530
11.001000 0.9560 0.9580 0.9600 0.9610 0.9610
11.034254 0.9630 0.9630 0.9650 0.9650 0.9660
11.067000 0.9680 0.9700 0.9700 0.9730 0.9750
11.100254 0.9760 0.9780 0.9780 0.9800 0.9810
11.134000 0.9830 0.9830 0.9850 0.9850 0.9860
11.167254 0.9860 0.9880 0.9880 0.9880 0.9880
11.200000 0.9880 0.9880 0.9880 0.9880 0.9880
11.233254 0.9860 0.9860 0.9860 0.9860 0.9860
11.267000 0.9860 0.9830 0.9810 0.9810 0.9810
11.300254 0.9810 0.9810 0.9810 0.9830 0.9830
11.333000 0.9830 0.9830 0.9830 0.9850 0.9850
11.366254 0.9850 0.9830 0.9830 0.9830 0.9830
11.400000 0.9850 0.9860 0.9860 0.9880 0.9880
11.433254 0.9900 0.9900 0.9900 0.9900 0.9900
11.466000 0.9900 0.9900 0.9900 0.9900 0.9900
11.499254 0.9910 0.9910 0.9910 0.9910 0.9910
11.533000 0.9900 0.9900 0.9900 0.9900 0.9850
11.566254 0.9850 0.9830 0.9810 0.9800 0.9760
11.599000 0.9730 0.9700 0.9660 0.9650 0.9630
11.632254 0.9600 0.9560 0.9530 0.9500 0.9480
11.666000 0.9430 0.9360 0.9300 0.9160 0.9030
11.699254 0.8900 0.8750 0.8600 0.8410 0.8230
11.732000 0.8030 0.7780 0.7560 0.7210 0.6780
11.765254 0.6580 0.6380 0.6010 0.5750 0.5410
11.799000 0.5300 0.5300 0.5300 0.5310 0.5700
11.832254 0.5980 0.6250 0.6550 0.7230 0.7530
11.865000 0.7800 0.8030 0.8230 0.8380 0.8500
11.898254 0.8560 0.8630 0.8710 0.8800 0.8910
11.932000 0.9010 0.9100 0.9180 0.9210 0.9250
11.965254 0.9280 0.9330 0.9380 0.9400 0.9410
11.998000 0.9430 0.9500 0.9510 0.9530 0.9550
12.031254 0.9550 0.9560 0.9600 0.9610 0.9610
12.065000 0.9630 0.9630 0.9650 0.9650 0.9650
12.098254 0.9660 0.9660 0.9660 0.9680 0.9680
12.131000 0.9680 0.9680 0.9700 0.9700 0.9700
12.164254 0.9700 0.9700 0.9700 0.9700 0.9710
12.198000 0.9700 0.9710 0.9710 0.9710 0.9710
12.231254 0.9730 0.9730 0.9730 0.9730 0.9750
12.264000 0.9750 0.9750 0.9750 0.9750 0.9750
12.297254 0.9750 0.9730 0.9730 0.9730 0.9730
12.330000 0.9730 0.9710 0.9710 0.9710 0.9700
12.363254 0.9700 0.9700 0.9680 0.9680 0.9660
12.397000 0.9660 0.9660 0.9660 0.9650 0.9650
12.430254 0.9650 0.9650 0.9630 0.9630 0.9630
12.463000 0.9630 0.9650 0.9650 0.9650 0.9650
12.496254 0.9660 0.9660 0.9660 0.9680 0.9680
12.530000 0.9680 0.9680 0.9680 0.9680 0.9680
12.563254 0.9700 0.9700 0.9700 0.9700 0.9700
12.596000 0.9700 0.9700 0.9700 0.9700 0.9700
12.629254 0.9700 0.9710 0.9710 0.9710 0.9710
12.663000 0.9710 0.9710 0.9710 0.9710 0.9710
12.696254 0.9710 0.9710 0.9710 0.9710 0.9710
12.729000 0.9710 0.9710 0.9700 0.9700 0.9700
12.762254 0.9680 0.9680 0.9680 0.9660 0.9660
12.796000 0.9650 0.9650 0.9650 0.9650 0.9630
12.829254 0.9630 0.9630 0.9630 0.9630 0.9630
12.862000 0.9610 0.9600 0.9600 0.9600 0.9600
12.895254 0.9580 0.9580 0.9560 0.9560 0.9550
12.929000 0.9550 0.9530 0.9530 0.9500 0.9480
12.962254 0.9430 0.9400 0.9330 0.9280 0.9210
12.995000 0.9150 0.8980 0.8730 0.8300 0.8160
13.028254 0.7960 0.7750 0.7510 0.7260 0.7000
13.062000 0.6750 0.6610 0.6480 0.6230 0.6030
13.095254 0.5880 0.5780 0.5750 0.5750 0.5760
13.128000 0.6000 0.6230 0.6480 0.6960 0.7210
13.161254 0.7450 0.7660 0.7880 0.8050 0.8200
13.195000 0.8300 0.8430 0.8580 0.8650 0.8760
13.228254 0.8860 0.8930 0.9000 0.9050 0.9110
13.261000 0.9160 0.9200 0.9230 0.9250 0.9280
13.294254 0.9310 0.9330 0.9350 0.9400 0.9410
13.328000 0.9410 0.9450 0.9460 0.9460 0.9480
13.361254 0.9480 0.9510 0.9510 0.9530 0.9550
13.394000 0.9550 0.9550 0.9560 0.9580 0.9580
13.427254 0.9580 0.9580 0.9600 0.9600 0.9600
13.461000 0.9600 0.9610 0.9610 0.9610 0.9610
13.494254 0.9630 0.9630 0.9630 0.9630 0.9650
13.527000 0.9650 0.9650 0.9650 0.9650 0.9650
13.560254 0.9650 0.9650 0.9650 0.9650 0.9650
13.594000 0.9650 0.9650 0.9650 0.9650 0.9650
13.627254 0.9650 0.9650 0.9650 0.9650 0.9660
13.660000 0.9660 0.9660 0.9660 0.9660 0.9660
13.693254 0.9660 0.9660 0.9650 0.9650 0.9630
13.726000 0.9630 0.9610 0.9610 0.9610 0.9600
13.759254 0.9600 0.9600 0.9600 0.9580 0.9580
13.793000 0.9580 0.9580 0.9560 0.9560 0.9560
13.826254 0.9560 0.9560 0.9560 0.9560 0.9560
13.859000 0.9560 0.9560 0.9560 0.9560 0.9560
13.892254 0.9560 0.9560 0.9560 0.9560 0.9560
13.926000 0.9560 0.9580 0.9580 0.9580 0.9580
13.959254 0.9580 0.9580 0.9580 0.9580 0.9580
13.992000 0.9580 0.9580 0.9580 0.9580 0.9580
14.025254 0.9580 0.9580 0.9580 0.9580 0.9580
14.059000 0.9580 0.9580 0.9580 0.9580 0.9580
14.092254 0.9580 0.9580 0.9580 0.9580 0.9580
14.125000 0.9560 0.9560 0.9560 0.9550 0.9530
14.158254 0.9510 0.9510 0.9510 0.9510 0.9510
14.192000 0.9510 0.9510 0.9500 0.9500 0.9480
14.225254 0.9480 0.9460 0.9460 0.9450 0.9450
14.258000 0.9450 0.9430 0.9430 0.9410 0.9400
14.291254 0.9360 0.9350 0.9350 0.9350 0.9330
14.325000 0.9330 0.9310 0.9310 0.9300 0.9280
14.358254 0.9280 0.9280 0.9230 0.9230 0.9230
14.391000 0.9210 0.9210 0.9210 0.9210 0.9200
14.424254 0.9180 0.9160 0.9160 0.9150 0.9130
14.458000 0.9130 0.9130 0.9130 0.9130 0.9130
14.491254 0.9110 0.9110 0.9100 0.9100 0.9080
14.524000 0.9060 0.9050 0.9030 0.9030 0.9010
14.557254 0.9010 0.9000 0.9000 0.9000 0.9000
14.591000 0.9000 0.8980 0.8960 0.8950 0.8930
14.624254 0.8910 0.8910 0.8880 0.8860 0.8850
14.657000 0.8850 0.8830 0.8830 0.8810 0.8810
14.690254 0.8780 0.8750 0.8750 0.8730 0.8710
14.724000 0.8710 0.8710 0.8710 0.8700 0.8660
14.757254 0.8650 0.8630 0.8600 0.8550 0.8530
14.790000 0.8530 0.8530 0.8530 0.8530 0.8510
14.823254 0.8500 0.8450 0.8430 0.8410 0.8410
14.857000 0.8400 0.8380 0.8360 0.8350 0.8300
14.890254 0.8250 0.8210 0.8210 0.8180 0.8150
14.923000 0.8110 0.8080 0.8050 0.8030 0.8010
14.956254 0.7980 0.7930 0.7880 0.7810 0.7780
14.990000 0.7710 0.7700 0.7660 0.7650 0.7610
15.023254 0.7610 0.7600 0.7550 0.7530 0.7530
15.056000 0.7500 0.7480 0.7450 0.7410 0.7380
15.089254 0.7360 0.7310 0.7280 0.7210 0.7150
15.123000 0.7080 0.6980 0.6900 0.6780 0.6700
15.156254 0.6650 0.6600 0.6480 0.6380 0.6260
15.189000 0.6150 0.6010 0.5900 0.5780 0.5660
15.222254 0.5530 0.5410 0.5300 0.5200 0.5080
15.255000 0.4980 0.4880 0.4800 0.4710 0.4630
15.288254 0.4560 0.4480 0.4450 0.4380 0.4350
15.322000 0.4350 0.4310 0.4310 0.4300 0.4300
15.355254 0.4300 0.4310 0.4350 0.4380 0.4430
15.388000 0.4460 0.4550 0.4610 0.4680 0.4730
15.421254 0.4780 0.4830 0.4900 0.4930 0.4980
15.455000 0.5030 0.5080 0.5130 0.5200 0.5250
15.488254 0.5300 0.5360 0.5430 0.5510 0.5580
15.521000 0.5630 0.5660 0.5700 0.5710 0.5750
15.554254 0.5750 0.5800 0.5850 0.5880 0.5910
15.588000 0.5930 0.5930 0.5950 0.5950 0.5980
15.621254 0.5980 0.6000 0.6000 0.6010 0.6030
15.654000 0.6030 0.6030 0.6030 0.6030 0.6030
15.687254 0.6030 0.6030 0.6030 0.6030 0.6030
15.721000 0.6030 0.6030 0.6010 0.6010 0.6000
15.754254 0.6000 0.5980 0.5980 0.5960 0.5960
15.787000 0.5960 0.5960 0.5950 0.5950 0.5950
15.820254 0.5950 0.5930 0.5930 0.5900 0.5880
15.854000 0.5860 0.5860 0.5850 0.5850 0.5850
15.887254 0.5830 0.5830 0.5810 0.5810 0.5810
15.920000 0.5810 0.5810 0.5810 0.5800 0.5800
15.953254 0.5800 0.5800 0.5800 0.5800 0.5800
15.987000 0.5800 0.5810 0.5810 0.5810 0.5810
##END=
