##TITLE=Guanidine, amino-, nitrate, hydrate
##JCAMP-DX=4.24
$$ By DXEDIT 1.05 (RS McDonald)
##DATA TYPE=INFRARED SPECTRUM
##CLASS=COBLENTZ III
##ORIGIN=DOW CHEMICAL COMPANY
##OWNER=COPYRIGHT (C) 1988 by COBLENTZ SOCIETY INC.
Collection (C) 2018 copyright by the U.S. Secretary of Commerce
on behalf of the United States of America. All rights reserved.
##DATE=1965/02/16
##MOLFORM=C H7 N5 O3  * 2 H2 O
##MP=105 C DECOMPOSES
##SOURCE REFERENCE=COBLENTZ NO. 9163
##$NIST ID=B6009163
##$NIST SOURCE=COBLENTZ
##$NIST IMAGE=cob9163
##SPECTROMETER/DATA SYSTEM=BECKMAN IR-9 (GRATING)
##INSTRUMENT PARAMETERS=ORDER CHANGES: 670, 1200, 2000 CM^-^1
##STATE=SOLID (SPLIT MULL), FLUOROLUBE FOR 3800-1330 CM^-^1, NUJOL FOR 1330-400 CM^-^1
##SAMPLING PROCEDURE=TRANSMISSION
##RESOLUTION=2
##DATA PROCESSING=DIGITIZED BY COBLENTZ SOCIETY (BATCH I) FROM HARD COPY
##XUNITS=1/CM
##YUNITS=TRANSMITTANCE
##XFACTOR=1
##YFACTOR=1
##DELTAX=1
##FIRSTX=3800
##LASTX=402
##FIRSTY=0.7792
##MAXX=3800
##MINX=402
##MAXY=0.9477
##MINY=0.0097
##NPOINTS=3399
##XYDATA=(X++(Y..Y))
3800.000000 0.7792 0.7792 0.7793 0.7795 0.7797
3795.000000 0.7799 0.7801 0.7804 0.7807 0.7808
3790.000000 0.7811 0.7814 0.7815 0.7818 0.7821
3785.000000 0.7822 0.7825 0.7828 0.7830 0.7832
3780.000000 0.7835 0.7838 0.7842 0.7846 0.7851
3775.000000 0.7855 0.7860 0.7864 0.7868 0.7872
3770.000000 0.7878 0.7882 0.7887 0.7892 0.7897
3765.000000 0.7901 0.7906 0.7910 0.7915 0.7919
3760.000000 0.7925 0.7930 0.7936 0.7941 0.7946
3755.000000 0.7951 0.7956 0.7961 0.7965 0.7971
3750.000000 0.7975 0.7981 0.7987 0.7992 0.7997
3745.000000 0.8001 0.8007 0.8011 0.8017 0.8021
3740.000000 0.8026 0.8033 0.8039 0.8045 0.8051
3735.000000 0.8057 0.8062 0.8068 0.8075 0.8081
3730.000000 0.8088 0.8094 0.8100 0.8106 0.8111
3725.000000 0.8118 0.8125 0.8131 0.8137 0.8143
3720.000000 0.8149 0.8155 0.8161 0.8167 0.8174
3715.000000 0.8180 0.8186 0.8192 0.8198 0.8204
3710.000000 0.8210 0.8216 0.8223 0.8228 0.8235
3705.000000 0.8241 0.8247 0.8253 0.8260 0.8266
3700.000000 0.8271 0.8278 0.8284 0.8290 0.8296
3695.000000 0.8302 0.8309 0.8315 0.8321 0.8327
3690.000000 0.8333 0.8339 0.8345 0.8351 0.8358
3685.000000 0.8364 0.8370 0.8375 0.8382 0.8388
3680.000000 0.8394 0.8400 0.8407 0.8413 0.8418
3675.000000 0.8425 0.8431 0.8437 0.8444 0.8450
3670.000000 0.8456 0.8461 0.8467 0.8471 0.8478
3665.000000 0.8483 0.8489 0.8494 0.8500 0.8505
3660.000000 0.8511 0.8516 0.8521 0.8525 0.8532
3655.000000 0.8537 0.8543 0.8548 0.8554 0.8559
3650.000000 0.8565 0.8570 0.8575 0.8580 0.8586
3645.000000 0.8591 0.8597 0.8602 0.8608 0.8613
3640.000000 0.8618 0.8624 0.8628 0.8634 0.8640
3635.000000 0.8645 0.8651 0.8656 0.8661 0.8666
3630.000000 0.8671 0.8675 0.8681 0.8686 0.8691
3625.000000 0.8696 0.8701 0.8706 0.8711 0.8716
3620.000000 0.8721 0.8725 0.8731 0.8736 0.8741
3615.000000 0.8746 0.8752 0.8757 0.8762 0.8767
3610.000000 0.8771 0.8775 0.8780 0.8780 0.8780
3605.000000 0.8778 0.8778 0.8778 0.8778 0.8777
3600.000000 0.8775 0.8774 0.8771 0.8770 0.8768
3595.000000 0.8766 0.8766 0.8766 0.8768 0.8771
3590.000000 0.8775 0.8778 0.8782 0.8785 0.8788
3585.000000 0.8792 0.8797 0.8801 0.8806 0.8810
3580.000000 0.8815 0.8818 0.8823 0.8827 0.8832
3575.000000 0.8835 0.8839 0.8841 0.8843 0.8845
3570.000000 0.8848 0.8850 0.8853 0.8855 0.8858
3565.000000 0.8860 0.8862 0.8864 0.8867 0.8868
3560.000000 0.8871 0.8874 0.8875 0.8877 0.8878
3555.000000 0.8878 0.8880 0.8880 0.8881 0.8881
3550.000000 0.8881 0.8882 0.8883 0.8883 0.8884
3545.000000 0.8884 0.8885 0.8885 0.8886 0.8886
3540.000000 0.8887 0.8887 0.8887 0.8885 0.8884
3535.000000 0.8882 0.8881 0.8878 0.8877 0.8875
3530.000000 0.8874 0.8871 0.8871 0.8868 0.8868
3525.000000 0.8866 0.8865 0.8862 0.8859 0.8856
3520.000000 0.8853 0.8849 0.8846 0.8843 0.8840
3515.000000 0.8836 0.8833 0.8830 0.8827 0.8824
3510.000000 0.8821 0.8815 0.8809 0.8803 0.8797
3505.000000 0.8790 0.8784 0.8777 0.8771 0.8764
3500.000000 0.8758 0.8752 0.8746 0.8739 0.8733
3495.000000 0.8718 0.8703 0.8685 0.8667 0.8649
3490.000000 0.8631 0.8613 0.8596 0.8578 0.8560
3485.000000 0.8523 0.8486 0.8447 0.8409 0.8359
3480.000000 0.8310 0.8221 0.8134 0.8048 0.7962
3475.000000 0.7878 0.7796 0.7650 0.7504 0.7401
3470.000000 0.7300 0.7200 0.7100 0.6994 0.6889
3465.000000 0.6778 0.6669 0.6595 0.6521 0.6446
3460.000000 0.6372 0.6297 0.6222 0.6147 0.6073
3455.000000 0.5998 0.5924 0.5849 0.5775 0.5700
3450.000000 0.5626 0.5551 0.5477 0.5402 0.5327
3445.000000 0.5252 0.5178 0.5103 0.5029 0.4954
3440.000000 0.4880 0.4805 0.4731 0.4656 0.4582
3435.000000 0.4507 0.4432 0.4357 0.4283 0.4208
3430.000000 0.4134 0.4059 0.3984 0.3909 0.3836
3425.000000 0.3760 0.3687 0.3612 0.3537 0.3462
3420.000000 0.3388 0.3312 0.3239 0.3164 0.3090
3415.000000 0.3015 0.2941 0.2866 0.2792 0.2717
3410.000000 0.2642 0.2567 0.2493 0.2373 0.2254
3405.000000 0.2133 0.2012 0.1941 0.1871 0.1825
3400.000000 0.1779 0.1749 0.1719 0.1689 0.1660
3395.000000 0.1631 0.1603 0.1586 0.1569 0.1559
3390.000000 0.1550 0.1546 0.1514 0.1539 0.1536
3385.000000 0.1532 0.1532 0.1531 0.1534 0.1537
3380.000000 0.1541 0.1544 0.1548 0.1551 0.1555
3375.000000 0.1560 0.1565 0.1579 0.1592 0.1607
3370.000000 0.1622 0.1639 0.1656 0.1684 0.1714
3365.000000 0.1744 0.1777 0.1813 0.1849 0.1862
3360.000000 0.1875 0.1882 0.1889 0.1894 0.1902
3355.000000 0.1904 0.1907 0.1894 0.1882 0.1871
3350.000000 0.1861 0.1854 0.1846 0.1840 0.1833
3345.000000 0.1834 0.1835 0.1839 0.1843 0.1854
3340.000000 0.1865 0.1875 0.1885 0.1896 0.1908
3335.000000 0.1919 0.1931 0.1944 0.1959 0.1973
3330.000000 0.1987 0.2002 0.2017 0.2031 0.2044
3325.000000 0.2059 0.2074 0.2088 0.2103 0.2117
3320.000000 0.2132 0.2147 0.2162 0.2177 0.2192
3315.000000 0.2207 0.2222 0.2237 0.2252 0.2265
3310.000000 0.2279 0.2291 0.2304 0.2316 0.2328
3305.000000 0.2335 0.2345 0.2351 0.2357 0.2363
3300.000000 0.2369 0.2375 0.2381 0.2384 0.2414
3295.000000 0.2391 0.2393 0.2394 0.2396 0.2397
3290.000000 0.2399 0.2400 0.2402 0.2395 0.2389
3285.000000 0.2381 0.2373 0.2364 0.2356 0.2345
3280.000000 0.2334 0.2323 0.2312 0.2301 0.2291
3275.000000 0.2280 0.2269 0.2258 0.2248 0.2237
3270.000000 0.2227 0.2217 0.2207 0.2196 0.2185
3265.000000 0.2179 0.2172 0.2166 0.2160 0.2154
3260.000000 0.2148 0.2142 0.2135 0.2130 0.2124
3255.000000 0.2121 0.2118 0.2116 0.2114 0.2112
3250.000000 0.2111 0.2111 0.2112 0.2113 0.2114
3245.000000 0.2114 0.2115 0.2116 0.2117 0.2117
3240.000000 0.2118 0.2119 0.2120 0.2120 0.2121
3235.000000 0.2121 0.2122 0.2122 0.2122 0.2122
3230.000000 0.2121 0.2120 0.2119 0.2118 0.2117
3225.000000 0.2116 0.2115 0.2114 0.2113 0.2111
3220.000000 0.2110 0.2107 0.2104 0.2100 0.2097
3215.000000 0.2094 0.2091 0.2087 0.2084 0.2080
3210.000000 0.2077 0.2071 0.2066 0.2057 0.2048
3205.000000 0.2039 0.2031 0.2022 0.2014 0.2004
3200.000000 0.1995 0.1986 0.1979 0.1965 0.1952
3195.000000 0.1933 0.1915 0.1895 0.1878 0.1860
3190.000000 0.1842 0.1818 0.1794 0.1768 0.1742
3185.000000 0.1715 0.1689 0.1663 0.1636 0.1610
3180.000000 0.1584 0.1554 0.1525 0.1492 0.1462
3175.000000 0.1431 0.1400 0.1368 0.1337 0.1308
3170.000000 0.1279 0.1251 0.1223 0.1195 0.1167
3165.000000 0.1138 0.1110 0.1074 0.1038 0.0989
3160.000000 0.0941 0.0896 0.0852 0.0811 0.0771
3155.000000 0.0741 0.0711 0.0687 0.0664 0.0650
3150.000000 0.0637 0.0623 0.0610 0.0603 0.0596
3145.000000 0.0590 0.0584 0.0578 0.0572 0.0567
3140.000000 0.0562 0.0560 0.0558 0.0556 0.0555
3135.000000 0.0553 0.0551 0.0549 0.0549 0.0549
3130.000000 0.0551 0.0552 0.0554 0.0555 0.0557
3125.000000 0.0558 0.0560 0.0564 0.0568 0.0577
3120.000000 0.0586 0.0594 0.0603 0.0612 0.0621
3115.000000 0.0629 0.0638 0.0658 0.0679 0.0702
3110.000000 0.0725 0.0747 0.0770 0.0794 0.0819
3105.000000 0.0843 0.0870 0.0895 0.0921 0.0946
3100.000000 0.0972 0.0996 0.1022 0.1049 0.1075
3095.000000 0.1102 0.1129 0.1155 0.1182 0.1209
3090.000000 0.1236 0.1262 0.1289 0.1316 0.1342
3085.000000 0.1369 0.1395 0.1418 0.1441 0.1464
3080.000000 0.1488 0.1511 0.1535 0.1558 0.1582
3075.000000 0.1602 0.1622 0.1642 0.1663 0.1683
3070.000000 0.1703 0.1723 0.1743 0.1763 0.1783
3065.000000 0.1803 0.1823 0.1840 0.1858 0.1875
3060.000000 0.1892 0.1909 0.1927 0.1941 0.1956
3055.000000 0.1970 0.1984 0.1992 0.2000 0.2007
3050.000000 0.2014 0.2015 0.2017 0.2018 0.2020
3045.000000 0.2021 0.2022 0.2023 0.2025 0.2026
3040.000000 0.2028 0.2029 0.2029 0.2031 0.2032
3035.000000 0.2033 0.2034 0.2034 0.2035 0.2036
3030.000000 0.2039 0.2043 0.2046 0.2051 0.2056
3025.000000 0.2060 0.2064 0.2068 0.2073 0.2077
3020.000000 0.2081 0.2084 0.2090 0.2094 0.2098
3015.000000 0.2103 0.2109 0.2114 0.2119 0.2124
3010.000000 0.2129 0.2134 0.2139 0.2144 0.2149
3005.000000 0.2156 0.2163 0.2170 0.2177 0.2184
3000.000000 0.2191 0.2198 0.2205 0.2212 0.2220
2995.000000 0.2227 0.2234 0.2241 0.2248 0.2255
2990.000000 0.2263 0.2270 0.2277 0.2284 0.2291
2985.000000 0.2302 0.2313 0.2326 0.2340 0.2353
2980.000000 0.2367 0.2380 0.2394 0.2408 0.2422
2975.000000 0.2434 0.2449 0.2462 0.2476 0.2489
2970.000000 0.2503 0.2516 0.2529 0.2540 0.2552
2965.000000 0.2564 0.2576 0.2587 0.2599 0.2611
2960.000000 0.2623 0.2634 0.2646 0.2658 0.2670
2955.000000 0.2681 0.2693 0.2705 0.2717 0.2728
2950.000000 0.2740 0.2751 0.2763 0.2775 0.2787
2945.000000 0.2798 0.2810 0.2821 0.2833 0.2843
2940.000000 0.2853 0.2863 0.2873 0.2883 0.2893
2935.000000 0.2903 0.2914 0.2924 0.2934 0.2944
2930.000000 0.2954 0.2964 0.2974 0.2984 0.2995
2925.000000 0.3005 0.3015 0.3025 0.3034 0.3045
2920.000000 0.3056 0.3066 0.3076 0.3085 0.3096
2915.000000 0.3106 0.3116 0.3126 0.3137 0.3147
2910.000000 0.3157 0.3166 0.3175 0.3184 0.3193
2905.000000 0.3200 0.3209 0.3218 0.3227 0.3234
2900.000000 0.3244 0.3252 0.3260 0.3268 0.3278
2895.000000 0.3286 0.3295 0.3303 0.3312 0.3320
2890.000000 0.3328 0.3336 0.3344 0.3350 0.3359
2885.000000 0.3366 0.3375 0.3382 0.3391 0.3399
2880.000000 0.3407 0.3414 0.3423 0.3430 0.3438
2875.000000 0.3447 0.3456 0.3464 0.3473 0.3480
2870.000000 0.3490 0.3499 0.3508 0.3516 0.3525
2865.000000 0.3532 0.3542 0.3550 0.3559 0.3568
2860.000000 0.3577 0.3584 0.3594 0.3602 0.3610
2855.000000 0.3618 0.3628 0.3636 0.3645 0.3653
2850.000000 0.3662 0.3670 0.3679 0.3684 0.3689
2845.000000 0.3693 0.3698 0.3702 0.3707 0.3710
2840.000000 0.3716 0.3720 0.3724 0.3728 0.3732
2835.000000 0.3737 0.3742 0.3747 0.3752 0.3756
2830.000000 0.3760 0.3764 0.3770 0.3775 0.3780
2825.000000 0.3784 0.3789 0.3794 0.3799 0.3803
2820.000000 0.3808 0.3812 0.3816 0.3822 0.3827
2815.000000 0.3830 0.3836 0.3840 0.3845 0.3854
2810.000000 0.3864 0.3874 0.3884 0.3895 0.3905
2805.000000 0.3914 0.3926 0.3936 0.3946 0.3956
2800.000000 0.3966 0.3976 0.3986 0.3996 0.4006
2795.000000 0.4016 0.4026 0.4036 0.4046 0.4056
2790.000000 0.4066 0.4076 0.4086 0.4094 0.4103
2785.000000 0.4112 0.4121 0.4129 0.4138 0.4147
2780.000000 0.4156 0.4157 0.4157 0.4157 0.4157
2775.000000 0.4157 0.4157 0.4156 0.4156 0.4155
2770.000000 0.4155 0.4154 0.4154 0.4153 0.4153
2765.000000 0.4151 0.4150 0.4149 0.4148 0.4146
2760.000000 0.4145 0.4144 0.4143 0.4142 0.4141
2755.000000 0.4139 0.4138 0.4137 0.4136 0.4134
2750.000000 0.4133 0.4132 0.4131 0.4130 0.4130
2745.000000 0.4129 0.4129 0.4128 0.4128 0.4127
2740.000000 0.4127 0.4128 0.4129 0.4133 0.4137
2735.000000 0.4140 0.4144 0.4148 0.4152 0.4156
2730.000000 0.4160 0.4164 0.4168 0.4171 0.4175
2725.000000 0.4179 0.4183 0.4187 0.4191 0.4194
2720.000000 0.4198 0.4202 0.4206 0.4210 0.4214
2715.000000 0.4218 0.4223 0.4228 0.4233 0.4237
2710.000000 0.4242 0.4247 0.4252 0.4256 0.4260
2705.000000 0.4266 0.4271 0.4276 0.4281 0.4285
2700.000000 0.4290 0.4295 0.4300 0.4305 0.4310
2695.000000 0.4314 0.4319 0.4324 0.4329 0.4333
2690.000000 0.4338 0.4343 0.4348 0.4353 0.4358
2685.000000 0.4362 0.4367 0.4372 0.4377 0.4382
2680.000000 0.4387 0.4391 0.4396 0.4401 0.4406
2675.000000 0.4410 0.4415 0.4420 0.4425 0.4429
2670.000000 0.4434 0.4438 0.4443 0.4447 0.4452
2665.000000 0.4456 0.4460 0.4465 0.4470 0.4474
2660.000000 0.4479 0.4484 0.4489 0.4493 0.4498
2655.000000 0.4502 0.4507 0.4510 0.4516 0.4520
2650.000000 0.4525 0.4529 0.4534 0.4538 0.4543
2645.000000 0.4548 0.4553 0.4556 0.4560 0.4562
2640.000000 0.4566 0.4569 0.4573 0.4576 0.4579
2635.000000 0.4582 0.4585 0.4588 0.4591 0.4594
2630.000000 0.4597 0.4600 0.4603 0.4606 0.4609
2625.000000 0.4612 0.4615 0.4618 0.4621 0.4623
2620.000000 0.4626 0.4629 0.4632 0.4635 0.4638
2615.000000 0.4640 0.4643 0.4646 0.4649 0.4652
2610.000000 0.4656 0.4659 0.4662 0.4666 0.4670
2605.000000 0.4673 0.4676 0.4679 0.4683 0.4686
2600.000000 0.4690 0.4694 0.4698 0.4703 0.4708
2595.000000 0.4712 0.4717 0.4722 0.4727 0.4731
2590.000000 0.4736 0.4740 0.4744 0.4748 0.4752
2585.000000 0.4756 0.4760 0.4764 0.4768 0.4772
2580.000000 0.4776 0.4779 0.4783 0.4787 0.4792
2575.000000 0.4796 0.4801 0.4806 0.4810 0.4814
2570.000000 0.4814 0.4812 0.4809 0.4805 0.4802
2565.000000 0.4800 0.4798 0.4795 0.4793 0.4790
2560.000000 0.4788 0.4786 0.4784 0.4781 0.4779
2555.000000 0.4778 0.4778 0.4778 0.4778 0.4778
2550.000000 0.4778 0.4778 0.4779 0.4779 0.4779
2545.000000 0.4779 0.4779 0.4779 0.4780 0.4780
2540.000000 0.4781 0.4784 0.4787 0.4789 0.4792
2535.000000 0.4795 0.4798 0.4800 0.4803 0.4805
2530.000000 0.4808 0.4812 0.4817 0.4821 0.4826
2525.000000 0.4830 0.4835 0.4839 0.4844 0.4848
2520.000000 0.4853 0.4857 0.4862 0.4866 0.4871
2515.000000 0.4875 0.4880 0.4886 0.4892 0.4898
2510.000000 0.4904 0.4910 0.4916 0.4921 0.4927
2505.000000 0.4933 0.4939 0.4945 0.4951 0.4956
2500.000000 0.4962 0.4968 0.4974 0.4980 0.4986
2495.000000 0.4989 0.4993 0.4996 0.4999 0.5002
2490.000000 0.5005 0.5008 0.5010 0.5014 0.5017
2485.000000 0.5019 0.5022 0.5024 0.5026 0.5028
2480.000000 0.5030 0.5030 0.5030 0.5029 0.5029
2475.000000 0.5029 0.5029 0.5028 0.5028 0.5027
2470.000000 0.5027 0.5022 0.5017 0.5010 0.5006
2465.000000 0.5000 0.4995 0.4989 0.4984 0.4978
2460.000000 0.4973 0.4968 0.4964 0.4960 0.4956
2455.000000 0.4951 0.4947 0.4942 0.4938 0.4934
2450.000000 0.4930 0.4925 0.4920 0.4914 0.4909
2445.000000 0.4903 0.4897 0.4891 0.4885 0.4879
2440.000000 0.4873 0.4871 0.4869 0.4867 0.4866
2435.000000 0.4865 0.4864 0.4862 0.4860 0.4860
2430.000000 0.4859 0.4858 0.4857 0.4860 0.4865
2425.000000 0.4893 0.4921 0.4938 0.4956 0.4971
2420.000000 0.4986 0.5001 0.5017 0.5032 0.5047
2415.000000 0.5062 0.5078 0.5090 0.5102 0.5110
2410.000000 0.5119 0.5127 0.5135 0.5143 0.5151
2405.000000 0.5159 0.5168 0.5176 0.5184 0.5192
2400.000000 0.5200 0.5203 0.5206 0.5208 0.5210
2395.000000 0.5214 0.5217 0.5219 0.5222 0.5222
2390.000000 0.5222 0.5222 0.5223 0.5223 0.5223
2385.000000 0.5223 0.5224 0.5232 0.5240 0.5259
2380.000000 0.5279 0.5297 0.5316 0.5334 0.5353
2375.000000 0.5371 0.5390 0.5410 0.5431 0.5459
2370.000000 0.5488 0.5515 0.5542 0.5554 0.5566
2365.000000 0.5564 0.5562 0.5560 0.5559 0.5555
2360.000000 0.5552 0.5548 0.5545 0.5545 0.5546
2355.000000 0.5546 0.5547 0.5550 0.5553 0.5557
2350.000000 0.5560 0.5565 0.5569 0.5573 0.5578
2345.000000 0.5582 0.5586 0.5590 0.5594 0.5598
2340.000000 0.5602 0.5606 0.5610 0.5614 0.5619
2335.000000 0.5623 0.5627 0.5631 0.5635 0.5639
2330.000000 0.5644 0.5650 0.5657 0.5662 0.5670
2325.000000 0.5676 0.5683 0.5689 0.5696 0.5702
2320.000000 0.5709 0.5715 0.5722 0.5728 0.5735
2315.000000 0.5741 0.5748 0.5754 0.5760 0.5767
2310.000000 0.5774 0.5781 0.5789 0.5798 0.5807
2305.000000 0.5816 0.5825 0.5834 0.5843 0.5852
2300.000000 0.5860 0.5870 0.5879 0.5888 0.5897
2295.000000 0.5905 0.5914 0.5923 0.5932 0.5941
2290.000000 0.5951 0.5960 0.5970 0.5980 0.5990
2285.000000 0.5999 0.6009 0.6019 0.6029 0.6039
2280.000000 0.6049 0.6058 0.6068 0.6078 0.6088
2275.000000 0.6098 0.6108 0.6117 0.6127 0.6137
2270.000000 0.6147 0.6157 0.6167 0.6176 0.6186
2265.000000 0.6196 0.6206 0.6216 0.6226 0.6235
2260.000000 0.6245 0.6255 0.6265 0.6275 0.6285
2255.000000 0.6299 0.6312 0.6327 0.6342 0.6357
2250.000000 0.6372 0.6382 0.6393 0.6401 0.6411
2245.000000 0.6421 0.6430 0.6439 0.6448 0.6457
2240.000000 0.6465 0.6475 0.6484 0.6493 0.6501
2235.000000 0.6511 0.6521 0.6530 0.6540 0.6549
2230.000000 0.6558 0.6568 0.6578 0.6587 0.6597
2225.000000 0.6606 0.6615 0.6622 0.6631 0.6638
2220.000000 0.6646 0.6651 0.6658 0.6665 0.6671
2215.000000 0.6676 0.6683 0.6684 0.6686 0.6687
2210.000000 0.6687 0.6687 0.6686 0.6683 0.6681
2205.000000 0.6675 0.6671 0.6667 0.6662 0.6658
2200.000000 0.6655 0.6651 0.6649 0.6646 0.6644
2195.000000 0.6644 0.6644 0.6648 0.6653 0.6657
2190.000000 0.6661 0.6669 0.6678 0.6685 0.6693
2185.000000 0.6701 0.6708 0.6717 0.6725 0.6732
2180.000000 0.6740 0.6748 0.6756 0.6762 0.6771
2175.000000 0.6778 0.6788 0.6797 0.6806 0.6815
2170.000000 0.6824 0.6832 0.6841 0.6850 0.6858
2165.000000 0.6867 0.6875 0.6885 0.6894 0.6901
2160.000000 0.6911 0.6921 0.6932 0.6944 0.6957
2155.000000 0.6968 0.6982 0.6991 0.7000 0.7007
2150.000000 0.7014 0.7019 0.7026 0.7033 0.7040
2145.000000 0.7041 0.7043 0.7044 0.7046 0.7047
2140.000000 0.7049 0.7051 0.7056 0.7060 0.7064
2135.000000 0.7068 0.7072 0.7076 0.7081 0.7085
2130.000000 0.7089 0.7093 0.7098 0.7101 0.7106
2125.000000 0.7110 0.7114 0.7118 0.7122 0.7130
2120.000000 0.7137 0.7146 0.7155 0.7162 0.7171
2115.000000 0.7180 0.7189 0.7198 0.7207 0.7214
2110.000000 0.7221 0.7228 0.7237 0.7245 0.7253
2105.000000 0.7260 0.7268 0.7275 0.7283 0.7290
2100.000000 0.7298 0.7305 0.7312 0.7319 0.7326
2095.000000 0.7334 0.7341 0.7348 0.7355 0.7361
2090.000000 0.7368 0.7375 0.7383 0.7390 0.7397
2085.000000 0.7404 0.7411 0.7418 0.7425 0.7432
2080.000000 0.7439 0.7446 0.7453 0.7458 0.7465
2075.000000 0.7471 0.7478 0.7484 0.7491 0.7497
2070.000000 0.7503 0.7508 0.7515 0.7521 0.7528
2065.000000 0.7535 0.7541 0.7546 0.7551 0.7557
2060.000000 0.7562 0.7568 0.7574 0.7578 0.7585
2055.000000 0.7590 0.7596 0.7601 0.7607 0.7611
2050.000000 0.7618 0.7622 0.7628 0.7634 0.7640
2045.000000 0.7645 0.7651 0.7656 0.7661 0.7668
2040.000000 0.7674 0.7678 0.7682 0.7685 0.7689
2035.000000 0.7692 0.7696 0.7699 0.7703 0.7706
2030.000000 0.7708 0.7711 0.7715 0.7718 0.7722
2025.000000 0.7725 0.7726 0.7728 0.7730 0.7731
2020.000000 0.7733 0.7734 0.7736 0.7737 0.7739
2015.000000 0.7743 0.7748 0.7753 0.7758 0.7762
2010.000000 0.7768 0.7772 0.7778 0.7783 0.7788
2005.000000 0.7793 0.7798 0.7801 0.7806 0.7812
2000.000000 0.7819 0.7828 0.7833 0.7833 0.7834
1995.000000 0.7834 0.7835 0.7835 0.7835 0.7834
1990.000000 0.7834 0.7833 0.7832 0.7832 0.7831
1985.000000 0.7831 0.7831 0.7832 0.7832 0.7832
1980.000000 0.7833 0.7833 0.7834 0.7836 0.7837
1975.000000 0.7839 0.7841 0.7844 0.7847 0.7850
1970.000000 0.7851 0.7855 0.7858 0.7861 0.7864
1965.000000 0.7867 0.7869 0.7872 0.7875 0.7878
1960.000000 0.7887 0.7895 0.7901 0.7910 0.7918
1955.000000 0.7925 0.7933 0.7941 0.7948 0.7956
1950.000000 0.7967 0.7978 0.7990 0.8001 0.8012
1945.000000 0.8024 0.8035 0.8047 0.8058 0.8069
1940.000000 0.8081 0.8093 0.8105 0.8117 0.8130
1935.000000 0.8142 0.8154 0.8167 0.8178 0.8192
1930.000000 0.8204 0.8216 0.8228 0.8241 0.8253
1925.000000 0.8266 0.8278 0.8290 0.8303 0.8315
1920.000000 0.8328 0.8340 0.8353 0.8365 0.8378
1915.000000 0.8391 0.8404 0.8416 0.8428 0.8442
1910.000000 0.8455 0.8467 0.8480 0.8493 0.8506
1905.000000 0.8518 0.8531 0.8544 0.8557 0.8570
1900.000000 0.8583 0.8595 0.8608 0.8621 0.8634
1895.000000 0.8647 0.8660 0.8671 0.8685 0.8698
1890.000000 0.8711 0.8724 0.8737 0.8751 0.8765
1885.000000 0.8778 0.8793 0.8806 0.8820 0.8834
1880.000000 0.8848 0.8862 0.8875 0.8890 0.8904
1875.000000 0.8918 0.8932 0.8946 0.8960 0.8974
1870.000000 0.8988 0.9002 0.9015 0.9028 0.9043
1865.000000 0.9054 0.9065 0.9075 0.9087 0.9098
1860.000000 0.9109 0.9120 0.9131 0.9142 0.9153
1855.000000 0.9164 0.9175 0.9186 0.9197 0.9208
1850.000000 0.9218 0.9230 0.9241 0.9249 0.9258
1845.000000 0.9267 0.9275 0.9284 0.9292 0.9301
1840.000000 0.9310 0.9318 0.9327 0.9336 0.9343
1835.000000 0.9349 0.9355 0.9361 0.9367 0.9373
1830.000000 0.9378 0.9385 0.9391 0.9397 0.9403
1825.000000 0.9408 0.9413 0.9418 0.9423 0.9427
1820.000000 0.9432 0.9437 0.9441 0.9446 0.9451
1815.000000 0.9455 0.9460 0.9462 0.9464 0.9466
1810.000000 0.9468 0.9468 0.9471 0.9473 0.9475
1805.000000 0.9475 0.9475 0.9475 0.9477 0.9477
1800.000000 0.9475 0.9473 0.9470 0.9467 0.9462
1795.000000 0.9456 0.9450 0.9437 0.9418 0.9396
1790.000000 0.9362 0.9328 0.9294 0.9247 0.9193
1785.000000 0.9165 0.9138 0.9110 0.9082 0.9056
1780.000000 0.9032 0.9015 0.8998 0.8982 0.8957
1775.000000 0.8932 0.8890 0.8834 0.8618 0.8496
1770.000000 0.8461 0.8488 0.8513 0.8582 0.8661
1765.000000 0.8761 0.8917 0.9007 0.9035 0.9023
1760.000000 0.9021 0.9001 0.8948 0.8862 0.8782
1755.000000 0.8705 0.8645 0.8644 0.8643 0.8650
1750.000000 0.8658 0.8666 0.8661 0.8641 0.8621
1745.000000 0.8598 0.8545 0.8493 0.8436 0.8337
1740.000000 0.8046 0.7628 0.7587 0.7560 0.7525
1735.000000 0.7478 0.7418 0.7358 0.7301 0.7243
1730.000000 0.7185 0.7126 0.7011 0.6862 0.6633
1725.000000 0.6492 0.6381 0.6131 0.5864 0.5596
1720.000000 0.5329 0.5060 0.4794 0.4527 0.4259
1715.000000 0.3992 0.3724 0.3457 0.3190 0.2922
1710.000000 0.2655 0.2388 0.2120 0.1870 0.1657
1705.000000 0.1550 0.1431 0.1309 0.1235 0.1206
1700.000000 0.1192 0.1158 0.1189 0.1190 0.1196
1695.000000 0.1206 0.1245 0.1300 0.1384 0.1477
1690.000000 0.1563 0.1640 0.1717 0.1803 0.1903
1685.000000 0.2002 0.2084 0.2160 0.2233 0.2298
1680.000000 0.2352 0.2418 0.2370 0.2366 0.2359
1675.000000 0.2310 0.2228 0.2147 0.2003 0.1848
1670.000000 0.1704 0.1568 0.1461 0.1391 0.1351
1665.000000 0.1295 0.1319 0.1317 0.1392 0.1558
1660.000000 0.1764 0.1963 0.2104 0.2244 0.2384
1655.000000 0.2527 0.2677 0.2827 0.2910 0.2976
1650.000000 0.3030 0.3046 0.3112 0.3071 0.3075
1645.000000 0.3052 0.3012 0.2916 0.2820 0.2724
1640.000000 0.2431 0.2229 0.2111 0.2000 0.1912
1635.000000 0.1827 0.1767 0.1729 0.1759 0.1767
1630.000000 0.1812 0.1856 0.1900 0.1949 0.2008
1625.000000 0.2068 0.2127 0.2185 0.2246 0.2321
1620.000000 0.2402 0.2482 0.2562 0.2643 0.2729
1615.000000 0.2818 0.2907 0.2993 0.3069 0.3145
1610.000000 0.3221 0.3300 0.3397 0.3424 0.3449
1605.000000 0.3473 0.3496 0.3520 0.3544 0.3568
1600.000000 0.3592 0.3621 0.3649 0.3677 0.3706
1595.000000 0.3734 0.3762 0.3792 0.3821 0.3850
1590.000000 0.3879 0.3893 0.3897 0.3900 0.3884
1585.000000 0.3870 0.3853 0.3832 0.3810 0.3790
1580.000000 0.3768 0.3758 0.3749 0.3712 0.3739
1575.000000 0.3741 0.3742 0.3744 0.3770 0.3807
1570.000000 0.3849 0.3904 0.3959 0.4014 0.4073
1565.000000 0.4146 0.4219 0.4293 0.4366 0.4438
1560.000000 0.4494 0.4550 0.4605 0.4657 0.4703
1555.000000 0.4749 0.4786 0.4810 0.4836 0.4854
1550.000000 0.4854 0.4872 0.4844 0.4833 0.4812
1545.000000 0.4782 0.4751 0.4702 0.4653 0.4608
1540.000000 0.4565 0.4534 0.4512 0.4445 0.4482
1535.000000 0.4478 0.4475 0.4487 0.4587 0.4718
1530.000000 0.4790 0.4860 0.4932 0.5003 0.5082
1525.000000 0.5173 0.5264 0.5355 0.5446 0.5534
1520.000000 0.5615 0.5696 0.5778 0.5859 0.6036
1515.000000 0.6166 0.6241 0.6298 0.6334 0.6370
1510.000000 0.6406 0.6443 0.6481 0.6519 0.6549
1505.000000 0.6565 0.6581 0.6597 0.6607 0.6617
1500.000000 0.6626 0.6633 0.6633 0.6628 0.6625
1495.000000 0.6621 0.6611 0.6598 0.6585 0.6572
1490.000000 0.6560 0.6539 0.6517 0.6494 0.6458
1485.000000 0.6421 0.6386 0.6350 0.6278 0.6205
1480.000000 0.6132 0.6047 0.5927 0.5807 0.5688
1475.000000 0.5571 0.5455 0.5339 0.5231 0.5141
1470.000000 0.5052 0.4962 0.4873 0.4793 0.4715
1465.000000 0.4636 0.4557 0.4479 0.4398 0.4309
1460.000000 0.4221 0.4132 0.4044 0.3956 0.3816
1455.000000 0.3671 0.3530 0.3439 0.3349 0.3258
1450.000000 0.3167 0.3080 0.3010 0.2941 0.2871
1445.000000 0.2802 0.2725 0.2642 0.2559 0.2481
1440.000000 0.2407 0.2332 0.2244 0.2154 0.2063
1435.000000 0.1973 0.1882 0.1792 0.1701 0.1610
1430.000000 0.1520 0.1429 0.1339 0.1248 0.1158
1425.000000 0.1067 0.0976 0.0886 0.0795 0.0720
1420.000000 0.0658 0.0597 0.0544 0.0491 0.0438
1415.000000 0.0385 0.0348 0.0316 0.0285 0.0254
1410.000000 0.0224 0.0198 0.0172 0.0155 0.0144
1405.000000 0.0133 0.0127 0.0124 0.0122 0.0120
1400.000000 0.0097 0.0131 0.0138 0.0149 0.0160
1395.000000 0.0171 0.0181 0.0198 0.0225 0.0252
1390.000000 0.0279 0.0306 0.0334 0.0360 0.0386
1385.000000 0.0412 0.0438 0.0464 0.0490 0.0516
1380.000000 0.0541 0.0566 0.0592 0.0617 0.0636
1375.000000 0.0651 0.0667 0.0681 0.0690 0.0699
1370.000000 0.0707 0.0707 0.0708 0.0705 0.0700
1365.000000 0.0689 0.0678 0.0667 0.0654 0.0633
1360.000000 0.0611 0.0590 0.0568 0.0545 0.0522
1355.000000 0.0499 0.0475 0.0452 0.0432 0.0411
1350.000000 0.0391 0.0370 0.0357 0.0344 0.0331
1345.000000 0.0323 0.0317 0.0314 0.0309 0.0307
1340.000000 0.0306 0.0305 0.0304 0.0303 0.0301
1335.000000 0.0300 0.0299 0.0303 0.0307 0.0318
1330.000000 0.0339 0.0359 0.0380 0.0401 0.0419
1325.000000 0.0421 0.0423 0.0423 0.0425 0.0427
1320.000000 0.0430 0.0433 0.0435 0.0438 0.0440
1315.000000 0.0442 0.0445 0.0447 0.0450 0.0452
1310.000000 0.0455 0.0457 0.0459 0.0480 0.0530
1305.000000 0.0582 0.0634 0.0687 0.0740 0.0793
1300.000000 0.0845 0.0897 0.0950 0.1000 0.1051
1295.000000 0.1101 0.1152 0.1202 0.1252 0.1303
1290.000000 0.1353 0.1403 0.1445 0.1487 0.1529
1285.000000 0.1570 0.1612 0.1654 0.1695 0.1736
1280.000000 0.1779 0.1821 0.1863 0.1919 0.1984
1275.000000 0.2049 0.2114 0.2179 0.2229 0.2277
1270.000000 0.2325 0.2373 0.2422 0.2469 0.2516
1265.000000 0.2562 0.2605 0.2647 0.2672 0.2748
1260.000000 0.2688 0.2696 0.2696 0.2696 0.2696
1255.000000 0.2695 0.2689 0.2682 0.2651 0.2611
1250.000000 0.2570 0.2533 0.2499 0.2464 0.2431
1245.000000 0.2402 0.2373 0.2345 0.2326 0.2311
1240.000000 0.2287 0.2296 0.2297 0.2297 0.2343
1235.000000 0.2401 0.2460 0.2522 0.2584 0.2645
1230.000000 0.2707 0.2776 0.2864 0.2952 0.3040
1225.000000 0.3101 0.3159 0.3216 0.3274 0.3327
1220.000000 0.3359 0.3393 0.3426 0.3459 0.3495
1215.000000 0.3532 0.3558 0.3568 0.3580 0.3586
1210.000000 0.3590 0.3595 0.3600 0.3604 0.3608
1205.000000 0.3609 0.3614 0.3622 0.3630 0.3668
1200.000000 0.3718 0.3768 0.3820 0.3871 0.3922
1195.000000 0.3973 0.4040 0.4117 0.4193 0.4270
1190.000000 0.4326 0.4380 0.4434 0.4478 0.4512
1185.000000 0.4529 0.4546 0.4545 0.4541 0.4537
1180.000000 0.4536 0.4535 0.4533 0.4532 0.4560
1175.000000 0.4597 0.4634 0.4670 0.4707 0.4744
1170.000000 0.4781 0.4818 0.4856 0.4894 0.4932
1165.000000 0.4970 0.5007 0.5045 0.5080 0.5112
1160.000000 0.5145 0.5178 0.5207 0.5227 0.5247
1155.000000 0.5268 0.5288 0.5309 0.5329 0.5349
1150.000000 0.5370 0.5390 0.5410 0.5431 0.5451
1145.000000 0.5471 0.5485 0.5499 0.5512 0.5526
1140.000000 0.5539 0.5551 0.5558 0.5566 0.5573
1135.000000 0.5581 0.5587 0.5590 0.5592 0.5592
1130.000000 0.5581 0.5571 0.5560 0.5550 0.5539
1125.000000 0.5528 0.5517 0.5505 0.5500 0.5498
1120.000000 0.5497 0.5497 0.5498 0.5504 0.5510
1115.000000 0.5518 0.5525 0.5532 0.5554 0.5578
1110.000000 0.5603 0.5627 0.5668 0.5710 0.5755
1105.000000 0.5793 0.5828 0.5862 0.5897 0.5938
1100.000000 0.5967 0.5989 0.6010 0.6033 0.6050
1095.000000 0.6059 0.6068 0.6069 0.6070 0.6069
1090.000000 0.6074 0.6078 0.6083 0.6088 0.6101
1085.000000 0.6114 0.6128 0.6142 0.6155 0.6170
1080.000000 0.6199 0.6227 0.6256 0.6285 0.6315
1075.000000 0.6346 0.6378 0.6410 0.6441 0.6472
1070.000000 0.6505 0.6538 0.6569 0.6601 0.6635
1065.000000 0.6664 0.6691 0.6718 0.6743 0.6765
1060.000000 0.6819 0.6796 0.6801 0.6804 0.6290
1055.000000 0.5467 0.4387 0.4389 0.4615 0.5220
1050.000000 0.5825 0.6408 0.6365 0.6266 0.5906
1045.000000 0.5545 0.5184 0.4823 0.4462 0.4102
1040.000000 0.3744 0.3758 0.4036 0.4316 0.4597
1035.000000 0.4877 0.5157 0.5437 0.5718 0.5998
1030.000000 0.6278 0.6442 0.6548 0.6635 0.6711
1025.000000 0.6788 0.6840 0.6885 0.6931 0.6972
1020.000000 0.7008 0.7043 0.7078 0.7104 0.7125
1015.000000 0.7148 0.7168 0.7184 0.7200 0.7215
1010.000000 0.7232 0.7245 0.7257 0.7268 0.7281
1005.000000 0.7283 0.7275 0.7269 0.7261 0.7248
1000.000000 0.7236 0.7222 0.7211 0.7198 0.7186
995.000000 0.7172 0.7165 0.7158 0.7153 0.7147
990.000000 0.7142 0.7136 0.7130 0.7124 0.7124
985.000000 0.7124 0.7125 0.7133 0.7160 0.7188
980.000000 0.7215 0.7242 0.7268 0.7295 0.7321
975.000000 0.7347 0.7374 0.7400 0.7425 0.7451
970.000000 0.7475 0.7494 0.7511 0.7531 0.7549
965.000000 0.7562 0.7576 0.7590 0.7604 0.7607
960.000000 0.7607 0.7607 0.7598 0.7589 0.7576
955.000000 0.7565 0.7554 0.7543 0.7531 0.7518
950.000000 0.7507 0.7495 0.7486 0.7480 0.7471
945.000000 0.7519 0.7545 0.7572 0.7601 0.7628
940.000000 0.7657 0.7685 0.7712 0.7741 0.7768
935.000000 0.7795 0.7818 0.7841 0.7865 0.7888
930.000000 0.7911 0.7935 0.7958 0.7981 0.8005
925.000000 0.8024 0.8042 0.8061 0.8078 0.8097
920.000000 0.8115 0.8134 0.8151 0.8169 0.8189
915.000000 0.8207 0.8225 0.8244 0.8262 0.8280
910.000000 0.8297 0.8315 0.8333 0.8351 0.8368
905.000000 0.8387 0.8405 0.8421 0.8432 0.8444
900.000000 0.8456 0.8467 0.8478 0.8491 0.8503
895.000000 0.8514 0.8525 0.8536 0.8546 0.8556
890.000000 0.8566 0.8575 0.8585 0.8595 0.8605
885.000000 0.8615 0.8624 0.8634 0.8643 0.8653
880.000000 0.8662 0.8671 0.8681 0.8690 0.8699
875.000000 0.8709 0.8718 0.8724 0.8728 0.8735
870.000000 0.8740 0.8745 0.8750 0.8756 0.8761
865.000000 0.8766 0.8768 0.8771 0.8773 0.8775
860.000000 0.8778 0.8780 0.8782 0.8784 0.8785
855.000000 0.8774 0.8788 0.8789 0.8791 0.8792
850.000000 0.8789 0.8787 0.8784 0.8781 0.8778
845.000000 0.8774 0.8761 0.8748 0.8678 0.8575
840.000000 0.8483 0.8433 0.8398 0.8378 0.8360
835.000000 0.8335 0.8309 0.8284 0.8258 0.8186
830.000000 0.8057 0.7101 0.6478 0.5857 0.5235
825.000000 0.4612 0.3990 0.3368 0.3298 0.3305
820.000000 0.4279 0.5253 0.6227 0.7201 0.8064
815.000000 0.8321 0.8466 0.8518 0.8562 0.8585
810.000000 0.8608 0.8631 0.8644 0.8655 0.8667
805.000000 0.8678 0.8686 0.8688 0.8689 0.8696
800.000000 0.8695 0.8694 0.8694 0.8689 0.8684
795.000000 0.8680 0.8675 0.8670 0.8665 0.8660
790.000000 0.8656 0.8645 0.8630 0.8616 0.8602
785.000000 0.8588 0.8573 0.8559 0.8545 0.8531
780.000000 0.8510 0.8485 0.8460 0.8435 0.8410
775.000000 0.8384 0.8359 0.8333 0.8297 0.8260
770.000000 0.8224 0.8188 0.8151 0.8115 0.8078
765.000000 0.8037 0.7997 0.7956 0.7915 0.7875
760.000000 0.7834 0.7794 0.7740 0.7684 0.7626
755.000000 0.7571 0.7514 0.7448 0.7380 0.7311
750.000000 0.7243 0.7175 0.7094 0.7007 0.6918
745.000000 0.6815 0.6641 0.6483 0.6352 0.6115
740.000000 0.5867 0.5700 0.5618 0.5535 0.5362
735.000000 0.5047 0.4731 0.4414 0.4098 0.3982
730.000000 0.4354 0.4805 0.5256 0.5369 0.5405
725.000000 0.5441 0.5479 0.5517 0.5555 0.5595
720.000000 0.5651 0.5706 0.5779 0.5855 0.5930
715.000000 0.6204 0.6326 0.6447 0.6599 0.6796
710.000000 0.6931 0.7076 0.7128 0.7176 0.7204
705.000000 0.7228 0.7248 0.7265 0.7291 0.7262
700.000000 0.7235 0.7206 0.7168 0.7117 0.7065
695.000000 0.7014 0.6962 0.6896 0.6817 0.6739
690.000000 0.6661 0.6583 0.6492 0.6383 0.6274
685.000000 0.6166 0.6057 0.5970 0.5886 0.5802
680.000000 0.5719 0.5635 0.5537 0.5426 0.5314
675.000000 0.5202 0.5098 0.5035 0.4972 0.4909
670.000000 0.4845 0.4782 0.4705 0.4626 0.4503
665.000000 0.4367 0.4267 0.4167 0.4066 0.3966
660.000000 0.3868 0.3768 0.3668 0.3568 0.3468
655.000000 0.3368 0.3279 0.3248 0.3222 0.3222
650.000000 0.3220 0.3230 0.3250 0.3282 0.3314
645.000000 0.3347 0.3384 0.3434 0.3482 0.3532
640.000000 0.3582 0.3626 0.3671 0.3716 0.3760
635.000000 0.3802 0.3834 0.3868 0.3900 0.3926
630.000000 0.3948 0.3966 0.3976 0.3986 0.4027
625.000000 0.3999 0.3999 0.3998 0.3986 0.3964
620.000000 0.3942 0.3887 0.3830 0.3742 0.3620
615.000000 0.3580 0.3540 0.3497 0.3453 0.3442
610.000000 0.3430 0.3416 0.3434 0.3494 0.3632
605.000000 0.3760 0.3877 0.3992 0.4107 0.4199
600.000000 0.4279 0.4359 0.4439 0.4520 0.4600
595.000000 0.4682 0.4766 0.4849 0.4932 0.5012
590.000000 0.5082 0.5151 0.5220 0.5289 0.5358
585.000000 0.5412 0.5460 0.5508 0.5555 0.5603
580.000000 0.5650 0.5693 0.5728 0.5762 0.5797
575.000000 0.5832 0.5866 0.5901 0.5941 0.5980
570.000000 0.6019 0.6058 0.6078 0.6098 0.6115
565.000000 0.6132 0.6149 0.6165 0.6181 0.6184
560.000000 0.6187 0.6190 0.6193 0.6196 0.6197
555.000000 0.6198 0.6197 0.6194 0.6191 0.6188
550.000000 0.6185 0.6182 0.6180 0.6178 0.6175
545.000000 0.6173 0.6171 0.6171 0.6174 0.6188
540.000000 0.6179 0.6182 0.6185 0.6188 0.6190
535.000000 0.6195 0.6201 0.6207 0.6212 0.6218
530.000000 0.6220 0.6221 0.6222 0.6223 0.6224
525.000000 0.6224 0.6224 0.6219 0.6212 0.6208
520.000000 0.6202 0.6190 0.6173 0.6156 0.6138
515.000000 0.6108 0.6076 0.6044 0.6010 0.5979
510.000000 0.5941 0.5897 0.5854 0.5810 0.5766
505.000000 0.5740 0.5714 0.5688 0.5662 0.5644
500.000000 0.5628 0.5612 0.5596 0.5579 0.5562
495.000000 0.5540 0.5517 0.5494 0.5467 0.5428
490.000000 0.5389 0.5350 0.5304 0.5251 0.5197
485.000000 0.5148 0.5119 0.5091 0.5062 0.5033
480.000000 0.5009 0.4993 0.4977 0.4960 0.4946
475.000000 0.4930 0.4914 0.4898 0.4888 0.4883
470.000000 0.4877 0.4871 0.4866 0.4865 0.4856
465.000000 0.4854 0.4852 0.4850 0.4848 0.4846
460.000000 0.4850 0.4860 0.4871 0.4882 0.4892
455.000000 0.4902 0.4922 0.4942 0.4962 0.4983
450.000000 0.5004 0.5033 0.5062 0.5088 0.5087
445.000000 0.5086 0.5086 0.5086 0.5095 0.5103
440.000000 0.5112 0.5127 0.5146 0.5166 0.5186
435.000000 0.5193 0.5201 0.5205 0.5207 0.5209
430.000000 0.5210 0.5212 0.5206 0.5198 0.5189
425.000000 0.5181 0.5167 0.5146 0.5126 0.5112
420.000000 0.5107 0.5102 0.5098 0.5093 0.5088
415.000000 0.5084 0.5079 0.5080 0.5080 0.5080
410.000000 0.5081 0.5081 0.5081 0.5081 0.5079
405.000000 0.5076 0.5074 0.5071 0.5071
##END=
