##TITLE=GUANIDINE, ACETATE
##JCAMP-DX=4.24
##DATA TYPE=INFRARED SPECTRUM
##CLASS=COBLENTZ III
##ORIGIN=DOW CHEMICAL COMPANY
##OWNER=COBLENTZ SOC.
Collection (C) 2018 copyright by the U.S. Secretary of Commerce
on behalf of the United States of America. All rights reserved.
##DATE=1963/01/24
##NAMES=guanidine acetate
##MOLFORM=C3 H9 N3 O2
##SOURCE REFERENCE=COBLENTZ NO. 06432
##$NIST ID=B6006432
##$NIST SOURCE=COBLENTZ
##$NIST IMAGE=cob6432
##SPECTROMETER/DATA SYSTEM=DOW KBr FOREPRISM-GRATING
##INSTRUMENT PARAMETERS=BLAZED AT 3.5, 12.0, 20.0 MICRON AND CHANGED AT 5.0, 7.5, 14.9 MICRON
##STATE=SOLID (SPLIT MULL)
$$ SPECTRAL FEATURE AT 1992 CM^-^1 IS PROBABLY AN ARTIFACT CAUSED BY GRATING CHANGE
##SAMPLING PROCEDURE=TRANSMISSION
##RESOLUTION=2
##DATA PROCESSING=DIGITIZED BY COBLENTZ SOCIETY (BATCH I) FROM HARD COPY
##XUNITS=1/CM
##YUNITS=TRANSMITTANCE
##XLABEL=Wavenumbers (cm-1)
##YLABEL=% Transmission
##XFACTOR=1
##YFACTOR=1
##DELTAX=1
##FIRSTX=382
##LASTX=3794
##FIRSTY=0.9331
##MAXX=3794
##MINX=382
##MAXY=0.9962
##MINY=0.0536
##NPOINTS=3413
##XYDATA=(X++(Y..Y))
382.000000 0.9331 0.9333 0.9334 0.9335 0.9335
387.000000 0.9335 0.9333 0.9330 0.9328 0.9325
392.000000 0.9323 0.9320 0.9318 0.9315 0.9312
397.000000 0.9309 0.9305 0.9301 0.9297 0.9293
402.000000 0.9289 0.9286 0.9282 0.9278 0.9273
407.000000 0.9268 0.9263 0.9258 0.9253 0.9248
412.000000 0.9243 0.9243 0.9243 0.9228 0.9224
417.000000 0.9218 0.9215 0.9211 0.9206 0.9202
422.000000 0.9198 0.9193 0.9189 0.9185 0.9178
427.000000 0.9171 0.9164 0.9157 0.9150 0.9143
432.000000 0.9136 0.9128 0.9121 0.9114 0.9103
437.000000 0.9092 0.9081 0.9070 0.9059 0.9049
442.000000 0.9033 0.9010 0.8986 0.8962 0.8939
447.000000 0.8915 0.8892 0.8871 0.8856 0.8841
452.000000 0.8825 0.8810 0.8795 0.8778 0.8763
457.000000 0.8746 0.8730 0.8713 0.8697 0.8680
462.000000 0.8659 0.8633 0.8606 0.8580 0.8554
467.000000 0.8528 0.8502 0.8475 0.8451 0.8425
472.000000 0.8398 0.8371 0.8345 0.8318 0.8292
477.000000 0.8265 0.8230 0.8194 0.8158 0.8121
482.000000 0.8085 0.8049 0.7986 0.7921 0.7858
487.000000 0.7793 0.7728 0.7662 0.7598 0.7533
492.000000 0.7476 0.7421 0.7365 0.7308 0.7254
497.000000 0.7197 0.7133 0.7068 0.7005 0.6941
502.000000 0.6876 0.6750 0.6607 0.6494 0.6421
507.000000 0.6347 0.6273 0.6199 0.6114 0.6023
512.000000 0.5933 0.5842 0.5731 0.5610 0.5491
517.000000 0.5384 0.5276 0.5137 0.4860 0.4629
522.000000 0.3888 0.3020 0.2730 0.2542 0.2354
527.000000 0.2166 0.2099 0.2096 0.2093 0.2081
532.000000 0.2714 0.3065 0.3414 0.3766 0.4117
537.000000 0.4468 0.4818 0.4850 0.4850 0.4846
542.000000 0.4600 0.4462 0.4325 0.4199 0.4198
547.000000 0.4196 0.4170 0.4509 0.4667 0.4826
552.000000 0.4940 0.4962 0.4848 0.4625 0.4402
557.000000 0.4302 0.4299 0.4282 0.4304 0.4321
562.000000 0.4345 0.4369 0.4395 0.4421 0.4447
567.000000 0.4479 0.4514 0.4548 0.4583 0.4617
572.000000 0.4651 0.4685 0.4719 0.4753 0.4788
577.000000 0.4823 0.4858 0.4893 0.4928 0.4968
582.000000 0.5012 0.5057 0.5102 0.5177 0.5256
587.000000 0.5303 0.5303 0.5298 0.5254 0.5201
592.000000 0.5219 0.5239 0.5258 0.5276 0.5294
597.000000 0.5310 0.5329 0.5348 0.5366 0.5385
602.000000 0.5403 0.5420 0.5437 0.5453 0.5470
607.000000 0.5486 0.5494 0.5499 0.5504 0.5516
612.000000 0.5462 0.5426 0.5389 0.5246 0.5085
617.000000 0.4925 0.4764 0.4604 0.4443 0.4283
622.000000 0.4122 0.3962 0.3668 0.3580 0.3582
627.000000 0.3564 0.3566 0.3576 0.3596 0.3642
632.000000 0.3675 0.3682 0.3694 0.3664 0.3648
637.000000 0.3618 0.3590 0.3556 0.3509 0.3460
642.000000 0.3395 0.3322 0.3234 0.3146 0.3053
647.000000 0.2954 0.2856 0.2723 0.1743 0.1670
652.000000 0.1668 0.1662 0.1698 0.1731 0.1764
657.000000 0.1800 0.1835 0.1879 0.1925 0.1967
662.000000 0.1998 0.1996 0.1995 0.1984 0.1972
667.000000 0.1960 0.1945 0.1929 0.1911 0.1894
672.000000 0.1873 0.1846 0.1822 0.1807 0.1793
677.000000 0.1778 0.1764 0.1750 0.1741 0.1733
682.000000 0.1724 0.1715 0.1706 0.1699 0.1692
687.000000 0.1684 0.1678 0.1689 0.1679 0.1681
692.000000 0.1682 0.1684 0.1694 0.1704 0.1721
697.000000 0.1739 0.1757 0.1776 0.1794 0.1812
702.000000 0.1832 0.1854 0.1875 0.1896 0.1919
707.000000 0.1944 0.1971 0.1999 0.2027 0.2057
712.000000 0.2087 0.2118 0.2148 0.2182 0.2217
717.000000 0.2252 0.2290 0.2351 0.2413 0.2474
722.000000 0.2549 0.2650 0.2751 0.2850 0.2949
727.000000 0.3029 0.3100 0.3171 0.3241 0.3355
732.000000 0.3470 0.3562 0.3684 0.3892 0.4101
737.000000 0.4309 0.4518 0.4638 0.4626 0.4581
742.000000 0.4515 0.4450 0.4385 0.4319 0.4282
747.000000 0.4285 0.4312 0.4271 0.4460 0.4534
752.000000 0.4608 0.4682 0.4756 0.4830 0.4912
757.000000 0.5002 0.5089 0.5176 0.5505 0.5588
762.000000 0.5672 0.5755 0.5828 0.5884 0.5940
767.000000 0.5995 0.6051 0.6107 0.6164 0.6221
772.000000 0.6278 0.6335 0.6390 0.6440 0.6490
777.000000 0.6540 0.6591 0.6641 0.6694 0.6747
782.000000 0.6800 0.6851 0.6898 0.6945 0.6992
787.000000 0.7038 0.7084 0.7128 0.7174 0.7218
792.000000 0.7261 0.7303 0.7343 0.7372 0.7385
797.000000 0.7386 0.7387 0.7389 0.7390 0.7391
802.000000 0.7392 0.7382 0.7386 0.7376 0.7368
807.000000 0.7358 0.7348 0.7338 0.7326 0.7317
812.000000 0.7307 0.7297 0.7287 0.7276 0.7268
817.000000 0.7258 0.7249 0.7240 0.7232 0.7222
822.000000 0.7215 0.7206 0.7198 0.7189 0.7182
827.000000 0.7175 0.7168 0.7161 0.7155 0.7140
832.000000 0.7169 0.7178 0.7192 0.7206 0.7219
837.000000 0.7244 0.7269 0.7296 0.7321 0.7347
842.000000 0.7372 0.7399 0.7426 0.7465 0.7503
847.000000 0.7541 0.7580 0.7621 0.7665 0.7708
852.000000 0.7751 0.7796 0.7842 0.7892 0.7941
857.000000 0.7991 0.8041 0.8091 0.8139 0.8186
862.000000 0.8233 0.8280 0.8325 0.8365 0.8402
867.000000 0.8439 0.8475 0.8512 0.8546 0.8580
872.000000 0.8612 0.8633 0.8654 0.8665 0.8674
877.000000 0.8683 0.8691 0.8696 0.8702 0.8707
882.000000 0.8713 0.8718 0.8721 0.8725 0.8728
887.000000 0.8732 0.8736 0.8739 0.8742 0.8745
892.000000 0.8748 0.8750 0.8753 0.8756 0.8765
897.000000 0.8765 0.8765 0.8765 0.8766 0.8749
902.000000 0.8731 0.8713 0.8695 0.8664 0.8604
907.000000 0.8489 0.8307 0.7904 0.7699 0.7305
912.000000 0.6911 0.6517 0.6123 0.5729 0.5334
917.000000 0.4940 0.4914 0.4901 0.6403 0.8069
922.000000 0.8182 0.8438 0.8578 0.8668 0.8703
927.000000 0.8714 0.8718 0.8717 0.8716 0.8693
932.000000 0.8710 0.8705 0.8701 0.8697 0.8694
937.000000 0.8691 0.8689 0.8686 0.8683 0.8680
942.000000 0.8675 0.8668 0.8663 0.8657 0.8650
947.000000 0.8642 0.8635 0.8628 0.8621 0.8614
952.000000 0.8602 0.8586 0.8571 0.8555 0.8535
957.000000 0.8511 0.8488 0.8465 0.8441 0.8418
962.000000 0.8391 0.8365 0.8338 0.8312 0.8285
967.000000 0.8258 0.8230 0.8201 0.8172 0.8145
972.000000 0.8115 0.8088 0.8060 0.8031 0.8001
977.000000 0.7961 0.7921 0.7882 0.7842 0.7801
982.000000 0.7762 0.7724 0.7685 0.7646 0.7607
987.000000 0.7561 0.7507 0.7451 0.7396 0.7325
992.000000 0.7256 0.7186 0.7115 0.7046 0.6974
997.000000 0.6892 0.6810 0.6697 0.6524 0.6431
1002.000000 0.6337 0.6123 0.5864 0.5849 0.5828
1007.000000 0.5837 0.5860 0.5976 0.6112 0.6250
1012.000000 0.6386 0.6522 0.6660 0.6797 0.6933
1017.000000 0.7069 0.7207 0.7289 0.7301 0.7303
1022.000000 0.7303 0.7293 0.7319 0.7271 0.7260
1027.000000 0.7247 0.7228 0.7211 0.7190 0.7168
1032.000000 0.7146 0.7124 0.7088 0.7047 0.7008
1037.000000 0.6969 0.6932 0.6891 0.6849 0.6806
1042.000000 0.6762 0.6719 0.6675 0.6625 0.6575
1047.000000 0.6508 0.6447 0.6434 0.6434 0.6422
1052.000000 0.6448 0.6472 0.6499 0.6525 0.6561
1057.000000 0.6597 0.6636 0.6676 0.6715 0.6751
1062.000000 0.6789 0.6819 0.6844 0.6856 0.6867
1067.000000 0.6878 0.6887 0.6894 0.6900 0.6906
1072.000000 0.6911 0.6917 0.6921 0.6928 0.6933
1077.000000 0.6939 0.6944 0.6950 0.6955 0.6961
1082.000000 0.6965 0.6971 0.6978 0.6983 0.6989
1087.000000 0.6994 0.7001 0.7007 0.7012 0.7019
1092.000000 0.7025 0.7032 0.7037 0.7040 0.7042
1097.000000 0.7045 0.6945 0.7050 0.7051 0.7044
1102.000000 0.7037 0.7028 0.7021 0.7012 0.7005
1107.000000 0.6997 0.6989 0.6976 0.6964 0.6950
1112.000000 0.6937 0.6922 0.6910 0.6897 0.6883
1117.000000 0.6869 0.6856 0.6843 0.6830 0.6815
1122.000000 0.6803 0.6789 0.6775 0.6760 0.6745
1127.000000 0.6728 0.6714 0.6699 0.6684 0.6668
1132.000000 0.6653 0.6638 0.6622 0.6607 0.6589
1137.000000 0.6571 0.6554 0.6536 0.6518 0.6501
1142.000000 0.6483 0.6465 0.6447 0.6430 0.6411
1147.000000 0.6394 0.6377 0.6351 0.6322 0.6293
1152.000000 0.6264 0.6233 0.6202 0.6170 0.6139
1157.000000 0.6107 0.6084 0.6062 0.6041 0.6020
1162.000000 0.5999 0.5978 0.5958 0.5938 0.5917
1167.000000 0.5897 0.5876 0.5862 0.5859 0.5856
1172.000000 0.5853 0.5853 0.5853 0.5853 0.5853
1177.000000 0.5853 0.5854 0.5854 0.5854 0.5854
1182.000000 0.5856 0.5862 0.5871 0.5880 0.5889
1187.000000 0.5898 0.5910 0.5925 0.5939 0.5953
1192.000000 0.5966 0.5979 0.5994 0.6010 0.6027
1197.000000 0.6043 0.6057 0.6070 0.6083 0.6097
1202.000000 0.6106 0.6112 0.6118 0.6123 0.6129
1207.000000 0.6134 0.6140 0.6143 0.6145 0.6146
1212.000000 0.6201 0.6150 0.6152 0.6152 0.6152
1217.000000 0.6150 0.6148 0.6146 0.6144 0.6135
1222.000000 0.6124 0.6112 0.6103 0.6092 0.6074
1227.000000 0.6054 0.6034 0.6014 0.5994 0.5973
1232.000000 0.5952 0.5931 0.5910 0.5891 0.5880
1237.000000 0.5869 0.5859 0.5848 0.5837 0.5827
1242.000000 0.5828 0.5829 0.5831 0.5831 0.5831
1247.000000 0.5831 0.5831 0.5824 0.5817 0.5809
1252.000000 0.5801 0.5793 0.5785 0.5778 0.5770
1257.000000 0.5762 0.5755 0.5748 0.5740 0.5730
1262.000000 0.5719 0.5709 0.5698 0.5687 0.5676
1267.000000 0.5665 0.5651 0.5636 0.5622 0.5608
1272.000000 0.5594 0.5580 0.5565 0.5551 0.5537
1277.000000 0.5523 0.5509 0.5494 0.5479 0.5459
1282.000000 0.5439 0.5418 0.5398 0.5378 0.5358
1287.000000 0.5332 0.5300 0.5268 0.5237 0.5205
1292.000000 0.5172 0.5119 0.5067 0.5015 0.4977
1297.000000 0.4943 0.4909 0.4876 0.4849 0.4832
1302.000000 0.4814 0.4797 0.4780 0.4762 0.4745
1307.000000 0.4728 0.4710 0.4692 0.4674 0.4657
1312.000000 0.4638 0.4617 0.4595 0.4574 0.4552
1317.000000 0.4531 0.4500 0.4470 0.4440 0.4409
1322.000000 0.4379 0.4344 0.4300 0.4255 0.4210
1327.000000 0.4153 0.4084 0.4014 0.3907 0.3766
1332.000000 0.3684 0.3662 0.3641 0.3621 0.3599
1337.000000 0.3576 0.3553 0.3480 0.3190 0.2898
1342.000000 0.2725 0.2725 0.2725 0.2827 0.2699
1347.000000 0.3242 0.3450 0.3658 0.3843 0.3889
1352.000000 0.3934 0.3966 0.3974 0.3974 0.3974
1357.000000 0.3973 0.3972 0.3972 0.3960 0.3945
1362.000000 0.3923 0.3891 0.3855 0.3818 0.3777
1367.000000 0.3737 0.3686 0.3632 0.3580 0.3526
1372.000000 0.3473 0.3421 0.3370 0.3318 0.3268
1377.000000 0.3214 0.3149 0.3083 0.3017 0.2944
1382.000000 0.2853 0.2779 0.2737 0.2718 0.2700
1387.000000 0.2683 0.2654 0.2530 0.2422 0.2267
1392.000000 0.2144 0.2026 0.1929 0.1831 0.1739
1397.000000 0.1657 0.1574 0.1492 0.1246 0.1152
1402.000000 0.1059 0.0970 0.0903 0.0837 0.0776
1407.000000 0.0719 0.0703 0.0688 0.0681 0.0682
1412.000000 0.0660 0.0703 0.0725 0.0758 0.0800
1417.000000 0.0872 0.0967 0.1062 0.1166 0.1292
1422.000000 0.1460 0.1674 0.1843 0.1990 0.2125
1427.000000 0.2250 0.2343 0.2416 0.2489 0.2555
1432.000000 0.2610 0.2665 0.2719 0.2774 0.2832
1437.000000 0.2899 0.2966 0.3032 0.3076 0.3119
1442.000000 0.3163 0.3206 0.3236 0.3260 0.3286
1447.000000 0.3310 0.3330 0.3349 0.3366 0.3386
1452.000000 0.3400 0.3412 0.3424 0.3441 0.3441
1457.000000 0.3440 0.3439 0.3437 0.3432 0.3429
1462.000000 0.3425 0.3414 0.3405 0.3395 0.3384
1467.000000 0.3375 0.3359 0.3341 0.3324 0.3305
1472.000000 0.3280 0.3256 0.3232 0.3207 0.3182
1477.000000 0.3155 0.3123 0.3091 0.3059 0.3028
1482.000000 0.2997 0.2966 0.2934 0.2903 0.2872
1487.000000 0.2841 0.2809 0.2776 0.2744 0.2711
1492.000000 0.2679 0.2641 0.2602 0.2562 0.2523
1497.000000 0.2484 0.2444 0.2405 0.2362 0.2314
1502.000000 0.2266 0.2218 0.2171 0.2123 0.2075
1507.000000 0.2029 0.1986 0.1945 0.1904 0.1863
1512.000000 0.1821 0.1779 0.1737 0.1696 0.1656
1517.000000 0.1614 0.1573 0.1531 0.1490 0.1445
1522.000000 0.1400 0.1355 0.1310 0.1265 0.1219
1527.000000 0.1181 0.1144 0.1106 0.1069 0.1031
1532.000000 0.1007 0.0982 0.0957 0.0932 0.0908
1537.000000 0.0885 0.0862 0.0846 0.0834 0.0822
1542.000000 0.0809 0.0810 0.0811 0.0811 0.0812
1547.000000 0.0825 0.0841 0.0857 0.0874 0.0892
1552.000000 0.0911 0.0932 0.0959 0.0987 0.1024
1557.000000 0.1075 0.1163 0.1215 0.1266 0.1314
1562.000000 0.1356 0.1398 0.1475 0.1574 0.1661
1567.000000 0.1754 0.1858 0.1971 0.2087 0.2320
1572.000000 0.2592 0.2743 0.2823 0.2903 0.2982
1577.000000 0.3059 0.3131 0.3203 0.3275 0.3350
1582.000000 0.3442 0.3534 0.3627 0.3686 0.3742
1587.000000 0.3798 0.3880 0.3978 0.4066 0.4155
1592.000000 0.4229 0.4288 0.4346 0.4405 0.4450
1597.000000 0.4490 0.4530 0.4560 0.4586 0.4607
1602.000000 0.4625 0.4636 0.4639 0.4643 0.4646
1607.000000 0.4657 0.4640 0.4632 0.4618 0.4600
1612.000000 0.4581 0.4556 0.4520 0.4462 0.4401
1617.000000 0.4329 0.4248 0.4174 0.4104 0.4034
1622.000000 0.3957 0.3853 0.3749 0.3657 0.3566
1627.000000 0.3476 0.3384 0.3297 0.3212 0.3126
1632.000000 0.3041 0.2956 0.2855 0.2712 0.2575
1637.000000 0.2460 0.2344 0.2229 0.2142 0.2055
1642.000000 0.1968 0.1876 0.1784 0.1694 0.1604
1647.000000 0.1515 0.1374 0.1196 0.1009 0.0922
1652.000000 0.0836 0.0712 0.0654 0.0609 0.0576
1657.000000 0.0548 0.0539 0.0536 0.0550 0.0566
1662.000000 0.0595 0.0632 0.0664 0.0684 0.0705
1667.000000 0.0725 0.0784 0.0737 0.0736 0.0736
1672.000000 0.0731 0.0726 0.0720 0.0715 0.0715
1677.000000 0.0715 0.0799 0.1042 0.1135 0.1211
1682.000000 0.1286 0.1389 0.1434 0.1479 0.1523
1687.000000 0.1587 0.1676 0.1814 0.1962 0.2092
1692.000000 0.2221 0.2358 0.2495 0.2728 0.3114
1697.000000 0.3264 0.3398 0.3528 0.3620 0.3712
1702.000000 0.3806 0.3899 0.4018 0.4141 0.4262
1707.000000 0.4358 0.4453 0.4548 0.4643 0.4739
1712.000000 0.4835 0.4936 0.5062 0.5188 0.5303
1717.000000 0.5410 0.5516 0.5623 0.5705 0.5783
1722.000000 0.5862 0.5941 0.6016 0.6075 0.6134
1727.000000 0.6192 0.6251 0.6309 0.6368 0.6426
1732.000000 0.6488 0.6548 0.6608 0.6668 0.6722
1737.000000 0.6775 0.6830 0.6883 0.6938 0.6998
1742.000000 0.7057 0.7117 0.7171 0.7205 0.7238
1747.000000 0.7271 0.7306 0.7340 0.7368 0.7395
1752.000000 0.7419 0.7445 0.7469 0.7495 0.7519
1757.000000 0.7537 0.7553 0.7571 0.7590 0.7610
1762.000000 0.7628 0.7648 0.7665 0.7684 0.7703
1767.000000 0.7721 0.7739 0.7757 0.7775 0.7793
1772.000000 0.7811 0.7828 0.7847 0.7865 0.7884
1777.000000 0.7901 0.7919 0.7938 0.7956 0.7972
1782.000000 0.7991 0.8008 0.8026 0.8045 0.8061
1787.000000 0.8080 0.8097 0.8111 0.8125 0.8139
1792.000000 0.8153 0.8171 0.8188 0.8206 0.8223
1797.000000 0.8228 0.8234 0.8239 0.8244 0.8249
1802.000000 0.8254 0.8260 0.8265 0.8270 0.8275
1807.000000 0.8280 0.8285 0.8290 0.8296 0.8301
1812.000000 0.8305 0.8310 0.8314 0.8318 0.8324
1817.000000 0.8328 0.8333 0.8337 0.8342 0.8347
1822.000000 0.8351 0.8355 0.8358 0.8362 0.8366
1827.000000 0.8368 0.8371 0.8375 0.8377 0.8380
1832.000000 0.8383 0.8385 0.8371 0.8389 0.8392
1837.000000 0.8407 0.8421 0.8434 0.8446 0.8458
1842.000000 0.8467 0.8468 0.8471 0.8473 0.8475
1847.000000 0.8478 0.8480 0.8482 0.8484 0.8485
1852.000000 0.8485 0.8485 0.8485 0.8484 0.8484
1857.000000 0.8484 0.8484 0.8483 0.8483 0.8483
1862.000000 0.8482 0.8482 0.8482 0.8481 0.8481
1867.000000 0.8481 0.8482 0.8484 0.8486 0.8487
1872.000000 0.8489 0.8490 0.8491 0.8492 0.8493
1877.000000 0.8494 0.8495 0.8496 0.8497 0.8499
1882.000000 0.8500 0.8501 0.8502 0.8503 0.8504
1887.000000 0.8505 0.8505 0.8505 0.8505 0.8504
1892.000000 0.8503 0.8503 0.8502 0.8501 0.8501
1897.000000 0.8500 0.8499 0.8498 0.8497 0.8496
1902.000000 0.8495 0.8494 0.8493 0.8492 0.8491
1907.000000 0.8490 0.8489 0.8488 0.8487 0.8487
1912.000000 0.8486 0.8485 0.8485 0.8484 0.8484
1917.000000 0.8483 0.8483 0.8482 0.8482 0.8482
1922.000000 0.8482 0.8482 0.8482 0.8482 0.8483
1927.000000 0.8485 0.8486 0.8488 0.8489 0.8491
1932.000000 0.8493 0.8496 0.8498 0.8500 0.8503
1937.000000 0.8505 0.8507 0.8511 0.8514 0.8523
1942.000000 0.8532 0.8548 0.8607 0.8640 0.8639
1947.000000 0.8637 0.8613 0.8563 0.8556 0.8557
1952.000000 0.8560 0.9962 0.9861 0.9704 0.9547
1957.000000 0.9389 0.9232 0.9075 0.8918 0.8761
1962.000000 0.8603 0.8488 0.8475 0.8467 0.8460
1967.000000 0.8455 0.8450 0.8445 0.8440 0.8435
1972.000000 0.8430 0.8423 0.8416 0.8409 0.8402
1977.000000 0.8395 0.8388 0.8381 0.8375 0.8368
1982.000000 0.8362 0.8355 0.8349 0.8346 0.8343
1987.000000 0.8340 0.8338 0.8214 0.8071 0.7930
1992.000000 0.7907 0.7905 0.7964 0.8082 0.8200
1997.000000 0.8318 0.8328 0.8328 0.8328 0.8488
2002.000000 0.8648 0.8559 0.8471 0.8411 0.8351
2007.000000 0.8351 0.8352 0.8354 0.8356 0.8357
2012.000000 0.8359 0.8359 0.8359 0.8358 0.8357
2017.000000 0.8356 0.8355 0.8353 0.8352 0.8413
2022.000000 0.8474 0.8540 0.8606 0.8654 0.8702
2027.000000 0.8707 0.8713 0.8661 0.8609 0.8557
2032.000000 0.8505 0.8452 0.8400 0.8373 0.8346
2037.000000 0.8339 0.8332 0.8325 0.8318 0.8313
2042.000000 0.8309 0.8305 0.8301 0.8299 0.8297
2047.000000 0.8293 0.8290 0.8286 0.8282 0.8278
2052.000000 0.8275 0.8271 0.8267 0.8263 0.8260
2057.000000 0.8256 0.8253 0.8250 0.8247 0.8243
2062.000000 0.8240 0.8237 0.8234 0.8230 0.8227
2067.000000 0.8223 0.8220 0.8216 0.8213 0.8209
2072.000000 0.8205 0.8201 0.8197 0.8193 0.8190
2077.000000 0.8186 0.8182 0.8178 0.8175 0.8171
2082.000000 0.8168 0.8165 0.8162 0.8160 0.8157
2087.000000 0.8153 0.8150 0.8147 0.8144 0.8141
2092.000000 0.8138 0.8135 0.8132 0.8128 0.8125
2097.000000 0.8122 0.8119 0.8117 0.8114 0.8111
2102.000000 0.8108 0.8105 0.8101 0.8099 0.8096
2107.000000 0.8093 0.8090 0.8087 0.8084 0.8080
2112.000000 0.8076 0.8074 0.8071 0.8068 0.8065
2117.000000 0.8061 0.8058 0.8056 0.8053 0.8050
2122.000000 0.8047 0.8044 0.8041 0.8038 0.8035
2127.000000 0.8031 0.8026 0.8022 0.8019 0.8015
2132.000000 0.8011 0.8008 0.8004 0.8000 0.7997
2137.000000 0.7993 0.7989 0.7985 0.7981 0.7976
2142.000000 0.7974 0.7969 0.7965 0.7961 0.7958
2147.000000 0.7954 0.7951 0.7947 0.7943 0.7939
2152.000000 0.7935 0.7930 0.7925 0.7921 0.7917
2157.000000 0.7912 0.7908 0.7904 0.7900 0.7895
2162.000000 0.7891 0.7886 0.7882 0.7878 0.7874
2167.000000 0.7868 0.7865 0.7860 0.7856 0.7851
2172.000000 0.7847 0.7843 0.7839 0.7835 0.7831
2177.000000 0.7826 0.7824 0.7819 0.7817 0.7812
2182.000000 0.7808 0.7805 0.7801 0.7798 0.7795
2187.000000 0.7791 0.7787 0.7783 0.7780 0.7775
2192.000000 0.7771 0.7768 0.7765 0.7761 0.7758
2197.000000 0.7754 0.7750 0.7747 0.7744 0.7741
2202.000000 0.7738 0.7735 0.7732 0.7728 0.7725
2207.000000 0.7722 0.7719 0.7717 0.7714 0.7711
2212.000000 0.7708 0.7705 0.7701 0.7699 0.7696
2217.000000 0.7692 0.7689 0.7685 0.7681 0.7675
2222.000000 0.7671 0.7665 0.7661 0.7656 0.7651
2227.000000 0.7645 0.7640 0.7635 0.7630 0.7625
2232.000000 0.7619 0.7615 0.7610 0.7605 0.7600
2237.000000 0.7598 0.7597 0.7596 0.7595 0.7594
2242.000000 0.7593 0.7592 0.7591 0.7590 0.7589
2247.000000 0.7587 0.7585 0.7583 0.7581 0.7578
2252.000000 0.7576 0.7575 0.7572 0.7571 0.7568
2257.000000 0.7565 0.7564 0.7561 0.7560 0.7558
2262.000000 0.7556 0.7554 0.7551 0.7550 0.7548
2267.000000 0.7546 0.7544 0.7542 0.7540 0.7538
2272.000000 0.7536 0.7534 0.7532 0.7530 0.7528
2277.000000 0.7525 0.7524 0.7521 0.7521 0.7518
2282.000000 0.7517 0.7515 0.7512 0.7511 0.7508
2287.000000 0.7506 0.7504 0.7500 0.7497 0.7493
2292.000000 0.7490 0.7487 0.7484 0.7480 0.7476
2297.000000 0.7474 0.7471 0.7467 0.7464 0.7460
2302.000000 0.7457 0.7454 0.7451 0.7447 0.7444
2307.000000 0.7440 0.7437 0.7433 0.7428 0.7421
2312.000000 0.7412 0.7404 0.7396 0.7388 0.7380
2317.000000 0.7371 0.7362 0.7355 0.7347 0.7339
2322.000000 0.7331 0.7321 0.7312 0.7303 0.7293
2327.000000 0.7283 0.7272 0.7260 0.7248 0.7238
2332.000000 0.7228 0.7228 0.7228 0.7228 0.7230
2337.000000 0.7230 0.7231 0.7236 0.7242 0.7251
2342.000000 0.7261 0.7271 0.7281 0.7290 0.7300
2347.000000 0.7307 0.7314 0.7319 0.7326 0.7333
2352.000000 0.7340 0.7340 0.7341 0.7342 0.7343
2357.000000 0.7344 0.7345 0.7345 0.7346 0.7347
2362.000000 0.7348 0.7349 0.7350 0.7351 0.7351
2367.000000 0.7350 0.7348 0.7346 0.7344 0.7341
2372.000000 0.7341 0.7341 0.7341 0.7349 0.7357
2377.000000 0.7365 0.7372 0.7383 0.7393 0.7401
2382.000000 0.7411 0.7422 0.7435 0.7449 0.7462
2387.000000 0.7469 0.7476 0.7482 0.7488 0.7490
2392.000000 0.7492 0.7493 0.7495 0.7496 0.7496
2397.000000 0.7496 0.7495 0.7494 0.7494 0.7493
2402.000000 0.7492 0.7491 0.7491 0.7494 0.7497
2407.000000 0.7500 0.7503 0.7506 0.7510 0.7512
2412.000000 0.7515 0.7515 0.7517 0.7517 0.7518
2417.000000 0.7518 0.7518 0.7518 0.7518 0.7518
2422.000000 0.7518 0.7518 0.7518 0.7518 0.7518
2427.000000 0.7518 0.7518 0.7518 0.7518 0.7518
2432.000000 0.7518 0.7518 0.7518 0.7517 0.7517
2437.000000 0.7515 0.7515 0.7514 0.7514 0.7512
2442.000000 0.7512 0.7511 0.7511 0.7511 0.7511
2447.000000 0.7511 0.7511 0.7511 0.7511 0.7511
2452.000000 0.7511 0.7511 0.7511 0.7511 0.7511
2457.000000 0.7510 0.7510 0.7510 0.7510 0.7508
2462.000000 0.7507 0.7504 0.7501 0.7498 0.7495
2467.000000 0.7492 0.7489 0.7486 0.7483 0.7480
2472.000000 0.7476 0.7474 0.7471 0.7468 0.7465
2477.000000 0.7461 0.7458 0.7456 0.7453 0.7450
2482.000000 0.7447 0.7444 0.7441 0.7438 0.7435
2487.000000 0.7432 0.7428 0.7425 0.7422 0.7419
2492.000000 0.7417 0.7414 0.7411 0.7408 0.7405
2497.000000 0.7401 0.7399 0.7396 0.7393 0.7390
2502.000000 0.7387 0.7384 0.7381 0.7378 0.7375
2507.000000 0.7371 0.7368 0.7365 0.7362 0.7360
2512.000000 0.7357 0.7354 0.7351 0.7347 0.7344
2517.000000 0.7341 0.7338 0.7335 0.7332 0.7328
2522.000000 0.7325 0.7322 0.7319 0.7317 0.7314
2527.000000 0.7311 0.7308 0.7305 0.7303 0.7300
2532.000000 0.7297 0.7294 0.7291 0.7288 0.7286
2537.000000 0.7282 0.7278 0.7272 0.7268 0.7262
2542.000000 0.7258 0.7253 0.7248 0.7243 0.7238
2547.000000 0.7233 0.7228 0.7222 0.7218 0.7212
2552.000000 0.7208 0.7204 0.7199 0.7194 0.7189
2557.000000 0.7184 0.7178 0.7174 0.7168 0.7164
2562.000000 0.7158 0.7154 0.7150 0.7145 0.7140
2567.000000 0.7135 0.7130 0.7124 0.7118 0.7111
2572.000000 0.7104 0.7096 0.7089 0.7082 0.7075
2577.000000 0.7068 0.7061 0.7053 0.7046 0.7039
2582.000000 0.7032 0.7025 0.7018 0.7010 0.7003
2587.000000 0.6996 0.6989 0.6982 0.6975 0.6967
2592.000000 0.6960 0.6953 0.6946 0.6939 0.6932
2597.000000 0.6924 0.6917 0.6910 0.6903 0.6893
2602.000000 0.6884 0.6874 0.6865 0.6855 0.6846
2607.000000 0.6836 0.6826 0.6817 0.6808 0.6798
2612.000000 0.6789 0.6778 0.6769 0.6760 0.6751
2617.000000 0.6741 0.6731 0.6718 0.6707 0.6695
2622.000000 0.6683 0.6671 0.6658 0.6646 0.6634
2627.000000 0.6621 0.6610 0.6598 0.6586 0.6574
2632.000000 0.6561 0.6549 0.6537 0.6525 0.6512
2637.000000 0.6501 0.6489 0.6475 0.6462 0.6450
2642.000000 0.6437 0.6424 0.6411 0.6399 0.6386
2647.000000 0.6373 0.6360 0.6347 0.6335 0.6322
2652.000000 0.6309 0.6296 0.6283 0.6270 0.6257
2657.000000 0.6244 0.6232 0.6219 0.6206 0.6193
2662.000000 0.6180 0.6167 0.6155 0.6142 0.6129
2667.000000 0.6116 0.6103 0.6090 0.6078 0.6065
2672.000000 0.6052 0.6039 0.6026 0.6012 0.6001
2677.000000 0.5987 0.5974 0.5960 0.5947 0.5933
2682.000000 0.5920 0.5906 0.5893 0.5879 0.5866
2687.000000 0.5852 0.5838 0.5824 0.5810 0.5797
2692.000000 0.5784 0.5770 0.5757 0.5743 0.5730
2697.000000 0.5716 0.5703 0.5689 0.5675 0.5660
2702.000000 0.5646 0.5631 0.5617 0.5602 0.5588
2707.000000 0.5573 0.5559 0.5544 0.5530 0.5515
2712.000000 0.5501 0.5486 0.5472 0.5457 0.5443
2717.000000 0.5428 0.5414 0.5399 0.5384 0.5369
2722.000000 0.5354 0.5339 0.5324 0.5308 0.5293
2727.000000 0.5278 0.5262 0.5248 0.5233 0.5220
2732.000000 0.5207 0.5195 0.5183 0.5171 0.5159
2737.000000 0.5147 0.5135 0.5122 0.5110 0.5098
2742.000000 0.5086 0.5074 0.5062 0.5050 0.5038
2747.000000 0.5025 0.5012 0.5000 0.4988 0.4975
2752.000000 0.4962 0.4950 0.4938 0.4925 0.4912
2757.000000 0.4901 0.4889 0.4879 0.4870 0.4860
2762.000000 0.4852 0.4842 0.4833 0.4824 0.4815
2767.000000 0.4805 0.4796 0.4786 0.4777 0.4768
2772.000000 0.4759 0.4749 0.4740 0.4731 0.4722
2777.000000 0.4712 0.4703 0.4693 0.4683 0.4672
2782.000000 0.4662 0.4651 0.4641 0.4630 0.4620
2787.000000 0.4610 0.4600 0.4589 0.4579 0.4568
2792.000000 0.4558 0.4546 0.4535 0.4518 0.4502
2797.000000 0.4485 0.4469 0.4452 0.4436 0.4419
2802.000000 0.4403 0.4386 0.4370 0.4351 0.4333
2807.000000 0.4312 0.4294 0.4275 0.4256 0.4237
2812.000000 0.4218 0.4198 0.4179 0.4155 0.4132
2817.000000 0.4105 0.4078 0.4050 0.4024 0.3991
2822.000000 0.3958 0.3912 0.3868 0.3832 0.3797
2827.000000 0.3784 0.3772 0.3766 0.3759 0.3756
2832.000000 0.3777 0.3748 0.3745 0.3743 0.3744
2837.000000 0.3745 0.3748 0.3755 0.3762 0.3779
2842.000000 0.3795 0.3809 0.3825 0.3840 0.3856
2847.000000 0.3859 0.3864 0.3868 0.3872 0.3876
2852.000000 0.3880 0.3884 0.3888 0.3886 0.3886
2857.000000 0.3882 0.3880 0.3877 0.3875 0.3872
2862.000000 0.3870 0.3866 0.3864 0.3860 0.3859
2867.000000 0.3855 0.3850 0.3847 0.3843 0.3839
2872.000000 0.3834 0.3830 0.3825 0.3818 0.3812
2877.000000 0.3806 0.3800 0.3794 0.3788 0.3780
2882.000000 0.3775 0.3768 0.3762 0.3756 0.3749
2887.000000 0.3738 0.3728 0.3716 0.3707 0.3696
2892.000000 0.3684 0.3674 0.3664 0.3653 0.3643
2897.000000 0.3629 0.3616 0.3600 0.3587 0.3572
2902.000000 0.3558 0.3543 0.3529 0.3512 0.3497
2907.000000 0.3480 0.3462 0.3446 0.3429 0.3412
2912.000000 0.3395 0.3378 0.3362 0.3345 0.3328
2917.000000 0.3310 0.3295 0.3278 0.3262 0.3245
2922.000000 0.3229 0.3212 0.3195 0.3178 0.3162
2927.000000 0.3149 0.3135 0.3123 0.3111 0.3098
2932.000000 0.3085 0.3073 0.3061 0.3048 0.3035
2937.000000 0.3023 0.3011 0.2998 0.2985 0.2973
2942.000000 0.2961 0.2950 0.2939 0.2929 0.2919
2947.000000 0.2909 0.2899 0.2888 0.2878 0.2868
2952.000000 0.2858 0.2848 0.2838 0.2827 0.2817
2957.000000 0.2807 0.2797 0.2787 0.2777 0.2767
2962.000000 0.2757 0.2746 0.2735 0.2724 0.2712
2967.000000 0.2699 0.2687 0.2675 0.2663 0.2651
2972.000000 0.2639 0.2627 0.2615 0.2602 0.2590
2977.000000 0.2578 0.2566 0.2552 0.2538 0.2522
2982.000000 0.2507 0.2492 0.2477 0.2461 0.2446
2987.000000 0.2431 0.2416 0.2400 0.2384 0.2369
2992.000000 0.2354 0.2335 0.2318 0.2292 0.2267
2997.000000 0.2241 0.2215 0.2189 0.2164 0.2141
3002.000000 0.2118 0.2098 0.2079 0.2059 0.2039
3007.000000 0.2019 0.2000 0.1979 0.1961 0.1941
3012.000000 0.1922 0.1903 0.1884 0.1866 0.1846
3017.000000 0.1828 0.1810 0.1791 0.1773 0.1754
3022.000000 0.1734 0.1716 0.1698 0.1685 0.1675
3027.000000 0.1664 0.1653 0.1641 0.1629 0.1619
3032.000000 0.1608 0.1596 0.1585 0.1574 0.1563
3037.000000 0.1554 0.1545 0.1536 0.1528 0.1519
3042.000000 0.1511 0.1502 0.1494 0.1485 0.1477
3047.000000 0.1468 0.1460 0.1451 0.1442 0.1435
3052.000000 0.1427 0.1418 0.1410 0.1402 0.1394
3057.000000 0.1386 0.1378 0.1370 0.1362 0.1353
3062.000000 0.1345 0.1337 0.1329 0.1321 0.1313
3067.000000 0.1305 0.1296 0.1289 0.1281 0.1273
3072.000000 0.1265 0.1260 0.1249 0.1248 0.1246
3077.000000 0.1245 0.1244 0.1242 0.1241 0.1240
3082.000000 0.1240 0.1241 0.1244 0.1246 0.1251
3087.000000 0.1254 0.1258 0.1261 0.1265 0.1267
3092.000000 0.1269 0.1271 0.1274 0.1276 0.1279
3097.000000 0.1281 0.1283 0.1284 0.1286 0.1288
3102.000000 0.1290 0.1292 0.1294 0.1296 0.1299
3107.000000 0.1301 0.1304 0.1307 0.1310 0.1312
3112.000000 0.1315 0.1318 0.1321 0.1325 0.1329
3117.000000 0.1332 0.1336 0.1339 0.1342 0.1346
3122.000000 0.1351 0.1354 0.1358 0.1362 0.1366
3127.000000 0.1372 0.1378 0.1386 0.1394 0.1400
3132.000000 0.1406 0.1412 0.1418 0.1424 0.1430
3137.000000 0.1436 0.1442 0.1448 0.1454 0.1460
3142.000000 0.1466 0.1472 0.1478 0.1483 0.1489
3147.000000 0.1495 0.1501 0.1507 0.1513 0.1519
3152.000000 0.1525 0.1531 0.1538 0.1544 0.1551
3157.000000 0.1557 0.1564 0.1571 0.1578 0.1584
3162.000000 0.1591 0.1598 0.1604 0.1611 0.1618
3167.000000 0.1624 0.1631 0.1636 0.1644 0.1649
3172.000000 0.1654 0.1660 0.1666 0.1671 0.1677
3177.000000 0.1683 0.1689 0.1694 0.1699 0.1703
3182.000000 0.1708 0.1712 0.1717 0.1721 0.1726
3187.000000 0.1729 0.1734 0.1739 0.1744 0.1748
3192.000000 0.1753 0.1758 0.1763 0.1768 0.1774
3197.000000 0.1779 0.1784 0.1790 0.1794 0.1800
3202.000000 0.1806 0.1811 0.1816 0.1821 0.1827
3207.000000 0.1832 0.1836 0.1842 0.1848 0.1853
3212.000000 0.1859 0.1864 0.1869 0.1874 0.1879
3217.000000 0.1884 0.1890 0.1894 0.1901 0.1906
3222.000000 0.1912 0.1918 0.1925 0.1931 0.1936
3227.000000 0.1943 0.1950 0.1956 0.1963 0.1969
3232.000000 0.1976 0.1982 0.1989 0.1994 0.2002
3237.000000 0.2008 0.2015 0.2014 0.2014 0.2012
3242.000000 0.2011 0.2010 0.2009 0.2007 0.2006
3247.000000 0.2003 0.2000 0.1994 0.1991 0.1985
3252.000000 0.1982 0.1978 0.1974 0.1968 0.1963
3257.000000 0.1957 0.1952 0.1946 0.1942 0.1936
3262.000000 0.1932 0.1929 0.1927 0.1924 0.1921
3267.000000 0.1918 0.1916 0.1913 0.1910 0.1907
3272.000000 0.1904 0.1902 0.1900 0.1896 0.1894
3277.000000 0.1890 0.1886 0.1879 0.1874 0.1868
3282.000000 0.1862 0.1856 0.1850 0.1851 0.1853
3287.000000 0.1854 0.1856 0.1857 0.1859 0.1862
3292.000000 0.1865 0.1868 0.1871 0.1874 0.1877
3297.000000 0.1882 0.1887 0.1893 0.1898 0.1903
3302.000000 0.1908 0.1911 0.1914 0.1917 0.1921
3307.000000 0.1924 0.1927 0.1929 0.1934 0.1936
3312.000000 0.1940 0.1941 0.1942 0.1943 0.1944
3317.000000 0.1944 0.1945 0.1945 0.1946 0.1948
3322.000000 0.1948 0.1946 0.1945 0.1944 0.1942
3327.000000 0.1940 0.1939 0.1936 0.1934 0.1922
3332.000000 0.1909 0.1895 0.1884 0.1871 0.1858
3337.000000 0.1842 0.1827 0.1810 0.1793 0.1776
3342.000000 0.1760 0.1744 0.1728 0.1712 0.1696
3347.000000 0.1681 0.1665 0.1648 0.1632 0.1615
3352.000000 0.1599 0.1582 0.1565 0.1558 0.1552
3357.000000 0.1548 0.1544 0.1542 0.1540 0.1540
3362.000000 0.1540 0.1540 0.1540 0.1542 0.1544
3367.000000 0.1546 0.1549 0.1561 0.1573 0.1592
3372.000000 0.1612 0.1662 0.1713 0.1765 0.1817
3377.000000 0.1852 0.1887 0.1915 0.1943 0.1971
3382.000000 0.1999 0.2026 0.2054 0.2090 0.2126
3387.000000 0.2167 0.2209 0.2252 0.2295 0.2340
3392.000000 0.2385 0.2432 0.2478 0.2511 0.2545
3397.000000 0.2578 0.2611 0.2643 0.2676 0.2704
3402.000000 0.2733 0.2759 0.2784 0.2809 0.2834
3407.000000 0.2857 0.2880 0.2901 0.2922 0.2930
3412.000000 0.2938 0.2938 0.2937 0.2937 0.2950
3417.000000 0.2933 0.2931 0.2928 0.2926 0.2924
3422.000000 0.2922 0.2919 0.2917 0.2887 0.2858
3427.000000 0.2818 0.2779 0.2732 0.2685 0.2654
3432.000000 0.2623 0.2593 0.2563 0.2542 0.2522
3437.000000 0.2506 0.2491 0.2475 0.2460 0.2459
3442.000000 0.2459 0.2460 0.2461 0.2463 0.2444
3447.000000 0.2468 0.2471 0.2475 0.2480 0.2490
3452.000000 0.2501 0.2518 0.2535 0.2556 0.2576
3457.000000 0.2610 0.2644 0.2673 0.2703 0.2729
3462.000000 0.2755 0.2885 0.3018 0.3058 0.3099
3467.000000 0.3523 0.3948 0.4026 0.4104 0.4182
3472.000000 0.4260 0.4379 0.4497 0.4612 0.4727
3477.000000 0.4791 0.4855 0.4917 0.4980 0.5024
3482.000000 0.5068 0.5110 0.5155 0.5198 0.5242
3487.000000 0.5285 0.5329 0.5404 0.5479 0.5608
3492.000000 0.5737 0.5988 0.6239 0.6397 0.6555
3497.000000 0.6619 0.6686 0.6734 0.6783 0.6831
3502.000000 0.6880 0.6925 0.6972 0.7018 0.7062
3507.000000 0.7107 0.7151 0.7198 0.7245 0.7292
3512.000000 0.7339 0.7386 0.7433 0.7458 0.7485
3517.000000 0.7511 0.7538 0.7564 0.7590 0.7606
3522.000000 0.7622 0.7639 0.7656 0.7671 0.7688
3527.000000 0.7704 0.7721 0.7737 0.7754 0.7769
3532.000000 0.7786 0.7801 0.7817 0.7830 0.7843
3537.000000 0.7855 0.7868 0.7881 0.7894 0.7907
3542.000000 0.7919 0.7932 0.7945 0.7957 0.7969
3547.000000 0.7980 0.7990 0.8000 0.8010 0.8019
3552.000000 0.8030 0.8039 0.8049 0.8058 0.8068
3557.000000 0.8076 0.8085 0.8092 0.8100 0.8107
3562.000000 0.8114 0.8121 0.8128 0.8135 0.8142
3567.000000 0.8149 0.8156 0.8160 0.8164 0.8168
3572.000000 0.8171 0.8175 0.8180 0.8184 0.8188
3577.000000 0.8192 0.8196 0.8200 0.8204 0.8207
3582.000000 0.8210 0.8212 0.8215 0.8218 0.8221
3587.000000 0.8223 0.8225 0.8228 0.8231 0.8234
3592.000000 0.8237 0.8239 0.8242 0.8244 0.8247
3597.000000 0.8250 0.8253 0.8255 0.8258 0.8260
3602.000000 0.8263 0.8266 0.8268 0.8271 0.8274
3607.000000 0.8275 0.8277 0.8278 0.8278 0.8278
3612.000000 0.8278 0.8283 0.8284 0.8285 0.8286
3617.000000 0.8287 0.8289 0.8290 0.8291 0.8292
3622.000000 0.8293 0.8294 0.8295 0.8295 0.8295
3627.000000 0.8295 0.8295 0.8295 0.8296 0.8296
3632.000000 0.8296 0.8296 0.8296 0.8296 0.8296
3637.000000 0.8296 0.8296 0.8296 0.8296 0.8296
3642.000000 0.8296 0.8296 0.8296 0.8295 0.8295
3647.000000 0.8294 0.8293 0.8292 0.8292 0.8291
3652.000000 0.8291 0.8290 0.8289 0.8288 0.8288
3657.000000 0.8287 0.8287 0.8286 0.8285 0.8284
3662.000000 0.8284 0.8283 0.8282 0.8281 0.8280
3667.000000 0.8278 0.8278 0.8275 0.8275 0.8274
3672.000000 0.8273 0.8271 0.8271 0.8268 0.8268
3677.000000 0.8267 0.8266 0.8265 0.8264 0.8263
3682.000000 0.8262 0.8260 0.8259 0.8258 0.8257
3687.000000 0.8255 0.8254 0.8253 0.8252 0.8250
3692.000000 0.8249 0.8248 0.8247 0.8245 0.8244
3697.000000 0.8242 0.8241 0.8240 0.8239 0.8237
3702.000000 0.8236 0.8234 0.8233 0.8231 0.8230
3707.000000 0.8228 0.8225 0.8224 0.8223 0.8221
3712.000000 0.8218 0.8217 0.8215 0.8213 0.8212
3717.000000 0.8210 0.8208 0.8206 0.8205 0.8203
3722.000000 0.8201 0.8199 0.8197 0.8195 0.8194
3727.000000 0.8192 0.8190 0.8188 0.8187 0.8185
3732.000000 0.8183 0.8181 0.8178 0.8176 0.8175
3737.000000 0.8174 0.8171 0.8169 0.8168 0.8165
3742.000000 0.8165 0.8162 0.8161 0.8158 0.8157
3747.000000 0.8155 0.8154 0.8151 0.8150 0.8148
3752.000000 0.8146 0.8144 0.8143 0.8141 0.8139
3757.000000 0.8137 0.8135 0.8133 0.8132 0.8130
3762.000000 0.8128 0.8125 0.8124 0.8121 0.8121
3767.000000 0.8118 0.8117 0.8115 0.8112 0.8110
3772.000000 0.8107 0.8103 0.8100 0.8097 0.8094
3777.000000 0.8091 0.8088 0.8085 0.8082 0.8080
3782.000000 0.8078 0.8075 0.8074 0.8071 0.8071
3787.000000 0.8068 0.8067 0.8065 0.8062 0.8061
3792.000000 0.8058 0.8058 0.8058
##END=
