##TITLE=DESOSAMINE
##JCAMP-DX=4.24
##DATA TYPE=INFRARED SPECTRUM
##CLASS=COBLENTZ
##ORIGIN=ABBOTT LABORATORIES
##OWNER=COBLENTZ SOCIETY
Collection (C) 2018 copyright by the U.S. Secretary of Commerce
on behalf of the United States of America. All rights reserved.
##DATE=1960
##MOLFORM=C8 H17 O3
##SOURCE REFERENCE=COBLENTZ NO. 869
##$NIST ID=B6000869
##$NIST SOURCE=COBLENTZ
##$NIST IMAGE=cob869
##SPECTROMETER/DATA SYSTEM=Not specified, most likely a grating spectrometer.
##STATE=SOLID (NUJOL MULL)
##SAMPLING PROCEDURE=TRANSMISSION
##RESOLUTION=4
##DATA PROCESSING=DIGITIZED BY NIST FROM HARD COPY
##XUNITS=MICROMETERS
##YUNITS=TRANSMITTANCE
##XFACTOR=1.000000
##YFACTOR=1
##DELTAX=000.007194
##FIRSTX=1.964
##LASTX=15.489
##FIRSTY=0.818
##MAXX=15.489
##MINX=1.964
##MAXY=0.932
##MINY=0.014
##NPOINTS=1881
##XYDATA=(X++(Y..Y))
1.964000 0.8180 0.8200 0.8200 0.8210 0.8210
1.999990 0.8250 0.8270 0.8270 0.8300 0.8300
2.036000 0.8300 0.8320 0.8340 0.8340 0.8350
2.071990 0.8370 0.8390 0.8410 0.8410 0.8430
2.108000 0.8440 0.8460 0.8460 0.8480 0.8480
2.143990 0.8500 0.8500 0.8510 0.8510 0.8530
2.180000 0.8550 0.8580 0.8620 0.8650 0.8670
2.215990 0.8670 0.8650 0.8640 0.8580 0.8530
2.252000 0.8500 0.8460 0.8410 0.8370 0.8350
2.287990 0.8340 0.8340 0.8340 0.8340 0.8340
2.324000 0.8350 0.8350 0.8350 0.8370 0.8370
2.359990 0.8390 0.8390 0.8410 0.8410 0.8440
2.396000 0.8460 0.8480 0.8480 0.8510 0.8510
2.431990 0.8530 0.8550 0.8570 0.8620 0.8650
2.468000 0.8670 0.8690 0.8710 0.8730 0.8740
2.503990 0.8760 0.8760 0.8810 0.8830 0.8850
2.540000 0.8880 0.8900 0.8920 0.8920 0.8940
2.575990 0.8950 0.8950 0.8970 0.8990 0.8990
2.612000 0.9020 0.9040 0.9060 0.9060 0.9080
2.647990 0.9100 0.9100 0.9110 0.9130 0.9130
2.683000 0.9150 0.9170 0.9200 0.9220 0.9220
2.718990 0.9240 0.9240 0.9240 0.9240 0.9240
2.755000 0.9220 0.9110 0.9010 0.8850 0.8670
2.790990 0.8510 0.8140 0.7810 0.7170 0.6710
2.827000 0.5970 0.5410 0.4740 0.4170 0.3700
2.862990 0.3010 0.2430 0.1940 0.1530 0.1480
2.899000 0.1420 0.1260 0.1160 0.1090 0.1070
2.934990 0.1050 0.1050 0.1050 0.1050 0.1050
2.971000 0.1050 0.1050 0.1040 0.1020 0.1020
3.006990 0.1000 0.0980 0.0930 0.0890 0.0880
3.043000 0.0840 0.0810 0.0750 0.0700 0.0670
3.078990 0.0650 0.0630 0.0610 0.0590 0.0590
3.115000 0.0580 0.0580 0.0580 0.0580 0.0590
3.150990 0.0610 0.0650 0.0700 0.0770 0.0820
3.187000 0.0950 0.1040 0.1160 0.1340 0.1490
3.222990 0.1600 0.1720 0.1990 0.2110 0.2220
3.259000 0.2250 0.2320 0.2380 0.2380 0.2270
3.294990 0.2110 0.2040 0.1900 0.1760 0.1480
3.331000 0.1230 0.1040 0.0910 0.0740 0.0630
3.366990 0.0540 0.0450 0.0330 0.0260 0.0210
3.403000 0.0190 0.0170 0.0210 0.0400 0.0440
3.438990 0.0400 0.0370 0.0330 0.0310 0.0310
3.475000 0.0330 0.0350 0.0370 0.0470 0.0610
3.510990 0.0820 0.1280 0.1850 0.2450 0.2940
3.547000 0.3290 0.3350 0.3500 0.3580 0.3650
3.582990 0.3700 0.3720 0.3750 0.3750 0.3720
3.619000 0.3610 0.3500 0.3430 0.3330 0.3240
3.654990 0.3150 0.3060 0.3010 0.2910 0.2780
3.691000 0.2690 0.2620 0.2530 0.2460 0.2380
3.726990 0.2290 0.2200 0.2130 0.2090 0.2060
3.763000 0.2040 0.2040 0.2060 0.2150 0.2290
3.798990 0.2390 0.2530 0.2820 0.2920 0.3050
3.835000 0.3170 0.3280 0.3360 0.3470 0.3590
3.870990 0.3720 0.3880 0.4000 0.4090 0.4280
3.906000 0.4320 0.4330 0.4320 0.4320 0.4280
3.941990 0.4230 0.4170 0.4160 0.4170 0.4250
3.978000 0.4320 0.4420 0.4490 0.4600 0.4670
4.013990 0.4760 0.4920 0.4970 0.5070 0.5130
4.050000 0.5180 0.5270 0.5300 0.5360 0.5430
4.085990 0.5480 0.5550 0.5660 0.5830 0.5990
4.122000 0.6110 0.6240 0.6360 0.6450 0.6520
4.157990 0.6610 0.6680 0.6770 0.6870 0.7000
4.194000 0.7080 0.7190 0.7260 0.7330 0.7380
4.229990 0.7460 0.7490 0.7510 0.7530 0.7530
4.266000 0.7540 0.7560 0.7560 0.7560 0.7580
4.301990 0.7600 0.7610 0.7650 0.7670 0.7720
4.338000 0.7760 0.7810 0.7840 0.7900 0.7970
4.373990 0.8040 0.8130 0.8230 0.8350 0.8370
4.410000 0.8410 0.8480 0.8510 0.8530 0.8570
4.445990 0.8580 0.8600 0.8620 0.8640 0.8650
4.482000 0.8650 0.8670 0.8710 0.8730 0.8730
4.517990 0.8740 0.8740 0.8740 0.8740 0.8740
4.554000 0.8740 0.8740 0.8730 0.8710 0.8710
4.589990 0.8690 0.8670 0.8670 0.8650 0.8650
4.626000 0.8640 0.8640 0.8620 0.8620 0.8620
4.661990 0.8620 0.8620 0.8640 0.8650 0.8650
4.698000 0.8670 0.8710 0.8740 0.8760 0.8780
4.733990 0.8810 0.8880 0.8920 0.8940 0.8950
4.770000 0.8950 0.8970 0.8970 0.8990 0.8990
4.805990 0.9010 0.9010 0.9010 0.9020 0.9020
4.842000 0.9020 0.9040 0.9040 0.9040 0.9040
4.877990 0.9060 0.9080 0.9080 0.9080 0.9100
4.914000 0.9100 0.9100 0.9110 0.9110 0.9110
4.949990 0.9110 0.9130 0.9130 0.9130 0.9130
4.986000 0.9130 0.9150 0.9150 0.9150 0.9150
5.021990 0.9150 0.9150 0.9150 0.9170 0.9170
5.058000 0.9170 0.9180 0.9180 0.9180 0.9180
5.093990 0.9200 0.9200 0.9200 0.9200 0.9220
5.129000 0.9220 0.9220 0.9220 0.9220 0.9220
5.164990 0.9200 0.9200 0.9200 0.9200 0.9200
5.201000 0.9200 0.9200 0.9200 0.9200 0.9180
5.236990 0.9200 0.9200 0.9200 0.9220 0.9220
5.273000 0.9220 0.9220 0.9220 0.9240 0.9240
5.308990 0.9240 0.9240 0.9240 0.9240 0.9240
5.345000 0.9240 0.9240 0.9240 0.9240 0.9240
5.380990 0.9240 0.9240 0.9240 0.9240 0.9240
5.417000 0.9240 0.9240 0.9240 0.9240 0.9240
5.452990 0.9240 0.9240 0.9240 0.9240 0.9240
5.489000 0.9250 0.9270 0.9270 0.9290 0.9290
5.524990 0.9290 0.9310 0.9310 0.9310 0.9320
5.561000 0.9310 0.9290 0.9290 0.9310 0.9310
5.596990 0.9320 0.9320 0.9320 0.9320 0.9310
5.633000 0.9310 0.9310 0.9310 0.9310 0.9310
5.668990 0.9310 0.9310 0.9310 0.9310 0.9310
5.705000 0.9290 0.9290 0.9290 0.9290 0.9290
5.740990 0.9290 0.9290 0.9290 0.9290 0.9290
5.777000 0.9290 0.9270 0.9270 0.9270 0.9250
5.812990 0.9250 0.9240 0.9220 0.9200 0.9170
5.849000 0.9130 0.9100 0.9060 0.9020 0.8990
5.884990 0.8950 0.8920 0.8900 0.8920 0.8920
5.921000 0.8900 0.8880 0.8880 0.8870 0.8850
5.956990 0.8830 0.8800 0.8730 0.8650 0.8600
5.993000 0.8530 0.8410 0.8340 0.8250 0.8180
6.028990 0.8110 0.8020 0.7970 0.7880 0.7860
6.065000 0.7880 0.7900 0.7910 0.7950 0.8040
6.100990 0.8090 0.8110 0.8140 0.8180 0.8210
6.137000 0.8250 0.8280 0.8320 0.8350 0.8390
6.172990 0.8430 0.8460 0.8510 0.8550 0.8580
6.209000 0.8580 0.8570 0.8570 0.8550 0.8530
6.244990 0.8530 0.8510 0.8510 0.8510 0.8530
6.281000 0.8550 0.8550 0.8570 0.8570 0.8580
6.316990 0.8600 0.8600 0.8620 0.8620 0.8620
6.353000 0.8640 0.8640 0.8650 0.8650 0.8670
6.388990 0.8670 0.8650 0.8650 0.8640 0.8620
6.424000 0.8640 0.8580 0.8570 0.8550 0.8530
6.459990 0.8510 0.8500 0.8460 0.8440 0.8440
6.496000 0.8410 0.8390 0.8370 0.8350 0.8350
6.531990 0.8340 0.8300 0.8280 0.8270 0.8250
6.568000 0.8230 0.8210 0.8200 0.8180 0.8160
6.603990 0.8110 0.8070 0.8040 0.8020 0.7980
6.640000 0.7950 0.7880 0.7840 0.7760 0.7670
6.675990 0.7540 0.7420 0.7260 0.7070 0.6890
6.712000 0.6400 0.5250 0.4970 0.3790 0.2610
6.747990 0.2320 0.2110 0.2020 0.1880 0.1760
6.784000 0.1670 0.1580 0.1550 0.1490 0.1490
6.819990 0.1510 0.1510 0.1530 0.1530 0.1550
6.856000 0.1550 0.1550 0.1530 0.1530 0.1580
6.891990 0.1650 0.1690 0.1760 0.1850 0.1950
6.928000 0.2090 0.2230 0.2390 0.2570 0.2750
6.963990 0.2920 0.3100 0.3260 0.3420 0.3560
7.000000 0.3700 0.3790 0.3860 0.3910 0.3960
7.035990 0.4000 0.4050 0.4050 0.4070 0.4090
7.072000 0.4090 0.4070 0.4000 0.3860 0.3120
7.107990 0.2480 0.1940 0.1690 0.1670 0.1710
7.144000 0.1860 0.1920 0.1970 0.2040 0.2150
7.179990 0.2230 0.2340 0.2430 0.2450 0.2460
7.216000 0.2390 0.1780 0.1350 0.1210 0.1120
7.251990 0.1070 0.0980 0.0970 0.0950 0.0970
7.288000 0.1020 0.1210 0.1420 0.1620 0.1810
7.323990 0.2020 0.2290 0.2590 0.2870 0.3260
7.360000 0.3700 0.3960 0.4160 0.4230 0.4230
7.395990 0.4160 0.4140 0.4100 0.4070 0.4050
7.432000 0.4090 0.4250 0.4230 0.4190 0.4120
7.467990 0.4050 0.4030 0.4050 0.4140 0.4250
7.504000 0.4460 0.4630 0.4830 0.4990 0.5070
7.539990 0.5110 0.5130 0.5110 0.4630 0.4630
7.576000 0.4770 0.4950 0.5090 0.5230 0.5360
7.611990 0.5460 0.5590 0.5690 0.5780 0.5890
7.647000 0.5990 0.6080 0.6190 0.6290 0.6330
7.682990 0.6340 0.6270 0.6190 0.5990 0.5900
7.719000 0.5830 0.5780 0.5710 0.5640 0.5570
7.754990 0.5550 0.5520 0.5390 0.5070 0.4490
7.791000 0.4420 0.4420 0.4460 0.4510 0.4600
7.826990 0.4650 0.4790 0.4970 0.5130 0.5320
7.863000 0.5500 0.5670 0.5820 0.5940 0.6010
7.898990 0.6130 0.6170 0.6220 0.6170 0.6080
7.935000 0.5970 0.5820 0.5660 0.5440 0.5140
7.970990 0.5000 0.4790 0.4650 0.4550 0.4530
8.007000 0.4490 0.4490 0.4530 0.4690 0.4760
8.042990 0.4850 0.4950 0.5020 0.5130 0.5270
8.079000 0.5440 0.5600 0.5820 0.5970 0.6080
8.114990 0.6200 0.6310 0.6360 0.6410 0.6490
8.151000 0.6500 0.6540 0.6570 0.6570 0.6560
8.186990 0.6540 0.6500 0.6470 0.6400 0.6330
8.223000 0.6260 0.6150 0.6040 0.6030 0.6030
8.258990 0.6040 0.6080 0.6240 0.6310 0.6360
8.295000 0.6380 0.6400 0.6410 0.6380 0.6330
8.330990 0.6240 0.6030 0.5800 0.5570 0.5340
8.367000 0.5270 0.5270 0.5200 0.4860 0.4120
8.402990 0.3950 0.3730 0.3240 0.3220 0.3220
8.439000 0.3280 0.3520 0.3930 0.4140 0.4420
8.474990 0.4630 0.4760 0.4950 0.5020 0.5090
8.511000 0.5200 0.5200 0.5140 0.3950 0.3380
8.546990 0.2710 0.2680 0.2680 0.2870 0.2960
8.583000 0.3050 0.3150 0.3240 0.3330 0.3400
8.618990 0.3490 0.3680 0.3730 0.3680 0.3630
8.655000 0.3500 0.3490 0.3470 0.3450 0.3450
8.690990 0.3450 0.3470 0.3500 0.3520 0.3630
8.727000 0.3660 0.3800 0.3860 0.3890 0.3930
8.762990 0.3890 0.3730 0.3660 0.3540 0.3520
8.799000 0.3490 0.3490 0.3630 0.3630 0.3590
8.834990 0.3470 0.3240 0.3150 0.2960 0.2680
8.871000 0.2410 0.2340 0.2320 0.2360 0.2450
8.906990 0.2500 0.2520 0.2550 0.2500 0.2310
8.942000 0.2160 0.1950 0.1600 0.1600 0.1640
8.977990 0.1720 0.2010 0.2160 0.2340 0.2610
9.014000 0.2750 0.2850 0.2850 0.2800 0.2500
9.049990 0.2380 0.2250 0.2160 0.2110 0.2040
9.086000 0.1970 0.1850 0.1720 0.1600 0.1460
9.121990 0.1340 0.1210 0.1090 0.0970 0.0860
9.158000 0.0750 0.0680 0.0630 0.0590 0.0590
9.193990 0.0700 0.0980 0.1190 0.1410 0.1600
9.230000 0.1790 0.1990 0.2200 0.2430 0.2590
9.265990 0.2750 0.2800 0.2870 0.2920 0.2850
9.302000 0.2640 0.2430 0.2290 0.2020 0.1900
9.337990 0.1780 0.1640 0.1550 0.1510 0.1410
9.374000 0.1320 0.1280 0.1230 0.1190 0.1160
9.409990 0.1120 0.1070 0.1040 0.0980 0.0930
9.446000 0.0880 0.0840 0.0790 0.0720 0.0650
9.481990 0.0580 0.0450 0.0420 0.0330 0.0260
9.518000 0.0220 0.0190 0.0170 0.0170 0.0150
9.553990 0.0140 0.0150 0.0170 0.0220 0.0220
9.590000 0.0240 0.0240 0.0240 0.0240 0.0240
9.625990 0.0240 0.0240 0.0240 0.0240 0.0260
9.662000 0.0260 0.0260 0.0290 0.0440 0.0590
9.697990 0.0680 0.0840 0.1070 0.1320 0.1480
9.734000 0.1480 0.1460 0.1440 0.1420 0.1370
9.769990 0.1280 0.1230 0.1140 0.1050 0.1020
9.806000 0.0980 0.0980 0.1000 0.1020 0.1070
9.841990 0.1140 0.1180 0.1210 0.1230 0.1250
9.878000 0.1260 0.1280 0.1280 0.1320 0.1370
9.913990 0.1420 0.1480 0.1620 0.1850 0.2060
9.950000 0.2250 0.2460 0.2610 0.2610 0.2570
9.985990 0.2550 0.2320 0.2150 0.1940 0.1620
10.022000 0.1370 0.1370 0.1420 0.1480 0.1580
10.057990 0.1860 0.2130 0.2550 0.2750 0.2870
10.094000 0.2920 0.2990 0.3120 0.3350 0.3730
10.129990 0.4350 0.4550 0.4760 0.4860 0.4990
10.165000 0.5070 0.5130 0.5230 0.5290 0.5360
10.200990 0.5390 0.5440 0.5520 0.5530 0.5550
10.237000 0.5530 0.5500 0.5410 0.5290 0.5220
10.272990 0.5130 0.5020 0.4900 0.4740 0.4670
10.309000 0.4650 0.4690 0.4740 0.4790 0.4900
10.344990 0.5090 0.5370 0.5730 0.5870 0.5960
10.381000 0.6010 0.6060 0.6110 0.6170 0.6170
10.416990 0.6220 0.6220 0.6240 0.6270 0.6270
10.453000 0.6240 0.6220 0.6110 0.5940 0.5600
10.488990 0.5110 0.4700 0.4330 0.4320 0.4300
10.525000 0.4330 0.4390 0.4550 0.4850 0.5060
10.560990 0.5270 0.5460 0.5640 0.5800 0.5940
10.597000 0.5990 0.6040 0.6040 0.5990 0.5890
10.632990 0.5710 0.5520 0.5270 0.5020 0.4740
10.669000 0.4460 0.4190 0.4000 0.3980 0.4000
10.704990 0.4050 0.4390 0.4630 0.5070 0.5340
10.741000 0.5590 0.5820 0.6040 0.6240 0.6400
10.776990 0.6540 0.6640 0.6700 0.6840 0.6930
10.813000 0.7010 0.7080 0.7160 0.7210 0.7260
10.848990 0.7300 0.7370 0.7400 0.7400 0.7380
10.885000 0.7380 0.7330 0.7310 0.7300 0.7280
10.920990 0.7260 0.7230 0.7210 0.7190 0.7160
10.957000 0.7170 0.7210 0.7260 0.7300 0.7330
10.992990 0.7370 0.7420 0.7530 0.7540 0.7580
11.029000 0.7610 0.7670 0.7700 0.7720 0.7740
11.064990 0.7740 0.7760 0.7760 0.7760 0.7760
11.101000 0.7770 0.7770 0.7770 0.7770 0.7770
11.136990 0.7760 0.7740 0.7720 0.7670 0.7630
11.173000 0.7580 0.7530 0.7460 0.7370 0.7280
11.208990 0.7190 0.7010 0.6820 0.6430 0.6110
11.245000 0.5990 0.5730 0.5660 0.5660 0.5730
11.280990 0.5780 0.5820 0.5970 0.6080 0.6290
11.317000 0.6470 0.6610 0.6710 0.6820 0.6910
11.352990 0.7030 0.7160 0.7310 0.7400 0.7470
11.388000 0.7530 0.7560 0.7580 0.7580 0.7580
11.423990 0.7560 0.7560 0.7540 0.7530 0.7510
11.460000 0.7470 0.7370 0.7260 0.7160 0.7050
11.495990 0.6930 0.6790 0.6630 0.6430 0.6190
11.532000 0.5620 0.5110 0.4700 0.4400 0.4100
11.567990 0.3890 0.3720 0.3700 0.3680 0.3700
11.604000 0.3890 0.3980 0.4020 0.4070 0.4020
11.639990 0.3860 0.3610 0.3310 0.3060 0.3010
11.676000 0.2980 0.2990 0.3130 0.3450 0.3960
11.711990 0.4390 0.4670 0.5000 0.5300 0.5550
11.748000 0.5800 0.5990 0.6190 0.6340 0.6490
11.783990 0.6610 0.6710 0.6820 0.6910 0.6980
11.820000 0.7050 0.7100 0.7190 0.7240 0.7280
11.855990 0.7300 0.7350 0.7380 0.7400 0.7400
11.892000 0.7420 0.7440 0.7440 0.7420 0.7400
11.927990 0.7380 0.7370 0.7370 0.7350 0.7310
11.964000 0.7300 0.7280 0.7260 0.7240 0.7240
11.999990 0.7260 0.7260 0.7280 0.7300 0.7420
12.036000 0.7470 0.7530 0.7540 0.7540 0.7560
12.071990 0.7560 0.7560 0.7540 0.7540 0.7540
12.108000 0.7530 0.7530 0.7510 0.7510 0.7510
12.143990 0.7530 0.7560 0.7580 0.7600 0.7600
12.180000 0.7600 0.7610 0.7630 0.7630 0.7650
12.215990 0.7650 0.7650 0.7650 0.7630 0.7610
12.252000 0.7530 0.7510 0.7470 0.7440 0.7400
12.287990 0.7370 0.7330 0.7300 0.7260 0.7190
12.324000 0.7120 0.7050 0.6940 0.6820 0.6660
12.359990 0.6490 0.6290 0.6060 0.5800 0.5480
12.396000 0.5140 0.4760 0.4320 0.4100 0.4050
12.431990 0.4030 0.4050 0.4100 0.4470 0.4740
12.468000 0.4970 0.5180 0.5390 0.5570 0.5740
12.503990 0.5890 0.6010 0.6110 0.6190 0.6260
12.540000 0.6310 0.6380 0.6430 0.6490 0.6520
12.575990 0.6560 0.6610 0.6630 0.6660 0.6700
12.612000 0.6700 0.6700 0.6710 0.6700 0.6700
12.647990 0.6700 0.6680 0.6660 0.6660 0.6630
12.683000 0.6630 0.6610 0.6570 0.6560 0.6540
12.718990 0.6540 0.6520 0.6520 0.6520 0.6500
12.755000 0.6500 0.6500 0.6490 0.6470 0.6450
12.790990 0.6450 0.6410 0.6400 0.6340 0.6330
12.827000 0.6290 0.6270 0.6240 0.6200 0.6190
12.862990 0.6150 0.6130 0.6100 0.6060 0.6030
12.899000 0.5990 0.5940 0.5920 0.5900 0.5890
12.934990 0.5870 0.5850 0.5830 0.5820 0.5760
12.971000 0.5730 0.5670 0.5640 0.5600 0.5570
13.006990 0.5550 0.5520 0.5500 0.5460 0.5440
13.043000 0.5430 0.5410 0.5410 0.5390 0.5370
13.078990 0.5370 0.5360 0.5340 0.5320 0.5300
13.115000 0.5300 0.5300 0.5290 0.5290 0.5300
13.150990 0.5300 0.5300 0.5300 0.5300 0.5300
13.187000 0.5290 0.5270 0.5270 0.5270 0.5250
13.222990 0.5230 0.5220 0.5220 0.5220 0.5200
13.259000 0.5200 0.5180 0.5160 0.5160 0.5140
13.294990 0.5130 0.5130 0.5130 0.5110 0.5110
13.331000 0.5070 0.5070 0.5060 0.5060 0.5040
13.366990 0.5020 0.5000 0.4990 0.4970 0.4950
13.403000 0.4930 0.4930 0.4900 0.4860 0.4860
13.438990 0.4850 0.4830 0.4810 0.4770 0.4740
13.475000 0.4700 0.4690 0.4650 0.4630 0.4620
13.510990 0.4600 0.4550 0.4530 0.4490 0.4470
13.547000 0.4460 0.4420 0.4400 0.4390 0.4390
13.582990 0.4370 0.4330 0.4280 0.4230 0.4210
13.619000 0.4190 0.4160 0.4140 0.4140 0.4140
13.654990 0.4140 0.4120 0.4120 0.4120 0.4120
13.691000 0.4120 0.4120 0.4120 0.4100 0.4090
13.726990 0.4090 0.4070 0.4050 0.4050 0.4030
13.763000 0.4030 0.4050 0.4050 0.4070 0.4070
13.798990 0.4090 0.4090 0.4100 0.4120 0.4140
13.835000 0.4160 0.4190 0.4230 0.4260 0.4320
13.870990 0.4350 0.4420 0.4470 0.4550 0.4620
13.906000 0.4690 0.4700 0.4770 0.4830 0.4880
13.941990 0.4920 0.4950 0.5000 0.5020 0.5060
13.978000 0.5110 0.5160 0.5200 0.5230 0.5250
14.013990 0.5300 0.5360 0.5390 0.5430 0.5430
14.050000 0.5480 0.5500 0.5530 0.5530 0.5550
14.085990 0.5550 0.5550 0.5550 0.5550 0.5550
14.122000 0.5550 0.5550 0.5550 0.5550 0.5530
14.157990 0.5550 0.5530 0.5530 0.5520 0.5520
14.194000 0.5520 0.5500 0.5480 0.5460 0.5440
14.229990 0.5440 0.5430 0.5410 0.5410 0.5390
14.266000 0.5360 0.5360 0.5360 0.5320 0.5290
14.301990 0.5270 0.5250 0.5220 0.5200 0.5180
14.338000 0.5160 0.5130 0.5110 0.5090 0.5070
14.373990 0.5040 0.5020 0.5000 0.4970 0.4930
14.410000 0.4930 0.4920 0.4900 0.4880 0.4860
14.445990 0.4860 0.4850 0.4810 0.4770 0.4740
14.482000 0.4720 0.4700 0.4700 0.4700 0.4670
14.517990 0.4670 0.4650 0.4630 0.4600 0.4600
14.554000 0.4580 0.4560 0.4550 0.4550 0.4530
14.589990 0.4510 0.4490 0.4470 0.4460 0.4440
14.626000 0.4440 0.4420 0.4420 0.4420 0.4420
14.661990 0.4400 0.4400 0.4390 0.4390 0.4390
14.698000 0.4390 0.4390 0.4370 0.4370 0.4370
14.733990 0.4370 0.4370 0.4370 0.4370 0.4370
14.770000 0.4370 0.4370 0.4370 0.4370 0.4370
14.805990 0.4370 0.4370 0.4370 0.4390 0.4390
14.842000 0.4400 0.4400 0.4420 0.4420 0.4440
14.877990 0.4470 0.4510 0.4530 0.4560 0.4580
14.914000 0.4580 0.4620 0.4630 0.4630 0.4650
14.949990 0.4650 0.4670 0.4670 0.4690 0.4690
14.986000 0.4720 0.4760 0.4770 0.4790 0.4830
15.021990 0.4850 0.4850 0.4860 0.4880 0.4900
15.058000 0.4900 0.4900 0.4920 0.4920 0.4920
15.093990 0.4930 0.4950 0.4970 0.4970 0.4990
15.129000 0.4990 0.5000 0.5000 0.5020 0.5020
15.164990 0.5020 0.5040 0.5040 0.5070 0.5070
15.201000 0.5070 0.5070 0.5090 0.5090 0.5090
15.236990 0.5090 0.5110 0.5110 0.5110 0.5130
15.273000 0.5140 0.5140 0.5180 0.5180 0.5180
15.308990 0.5180 0.5160 0.5130 0.5130 0.5110
15.345000 0.5110 0.5110 0.5090 0.5040 0.4930
15.380990 0.4930 0.4920 0.4850 0.4810 0.4720
15.417000 0.4650 0.4560 0.4510 0.4420 0.4350
15.452990 0.4260 0.4250 0.4230 0.4210 0.4120
15.489000 0.4050
##END=
