##TITLE=3-NITROPHTHALIMIDE, POTASSIUM SALT
##JCAMP-DX=4.24
##DATA TYPE=INFRARED SPECTRUM
##CLASS=COBLENTZ
##ORIGIN=WYANDOTTE CHEMICALS CORP., WYANDOTTE, MICHIGAN, USA
##OWNER=COBLENTZ SOCIETY
Collection (C) 2018 copyright by the U.S. Secretary of Commerce
on behalf of the United States of America. All rights reserved.
##DATE=Not specified, most likely prior to 1970
##MOLFORM=C8 H3 N2 O4 K
##SOURCE REFERENCE=COBLENTZ NO. 3328
##$NIST ID=B6003328
##$NIST SOURCE=COBLENTZ
##$NIST IMAGE=cob3328
##SPECTROMETER/DATA SYSTEM=Not specified, most likely a prism, grating, or hybrid spectrometer.
##STATE=SOLID (MINERAL OIL MULL)
##PATH LENGTH=
$$SPECTRAL CONTAMINATION DUE TO OIL AROUND 2900 CM^-^1
##SAMPLING PROCEDURE=TRANSMISSION
##RESOLUTION=4
##DATA PROCESSING=DIGITIZED BY NIST FROM HARD COPY
##XUNITS=MICROMETERS
##YUNITS=TRANSMITTANCE
##XFACTOR=1.000000
##YFACTOR=1
##DELTAX=000.006823
##FIRSTX=2.007
##LASTX=15.9864
##FIRSTY=0.74
##MAXX=15.9864
##MINX=2.007
##MAXY=0.943
##MINY=0.034
##NPOINTS=2050
##XYDATA=(X++(Y..Y))
2.007000 0.7400 0.7460 0.7470 0.7490 0.7490
2.041130 0.7490 0.7490 0.7490 0.7510 0.7530
2.075000 0.7540 0.7560 0.7590 0.7610 0.7610
2.109130 0.7590 0.7590 0.7590 0.7590 0.7610
2.143000 0.7610 0.7590 0.7580 0.7580 0.7540
2.177130 0.7530 0.7510 0.7510 0.7490 0.7440
2.212000 0.7400 0.7400 0.7420 0.7440 0.7460
2.246130 0.7470 0.7470 0.7490 0.7490 0.7510
2.280000 0.7530 0.7530 0.7540 0.7540 0.7540
2.314130 0.7540 0.7540 0.7580 0.7610 0.7680
2.348000 0.7680 0.7630 0.7610 0.7590 0.7610
2.382130 0.7650 0.7700 0.7710 0.7750 0.7750
2.416000 0.7750 0.7750 0.7770 0.7780 0.7780
2.450130 0.7780 0.7800 0.7800 0.7800 0.7800
2.484000 0.7800 0.7800 0.7800 0.7780 0.7780
2.518130 0.7780 0.7800 0.7800 0.7780 0.7800
2.553000 0.7890 0.7950 0.8010 0.8060 0.8090
2.587130 0.8060 0.7940 0.7800 0.7730 0.7730
2.621000 0.7820 0.7970 0.8090 0.8130 0.8110
2.655130 0.8090 0.8040 0.8040 0.8040 0.8040
2.689000 0.8060 0.8040 0.7990 0.7920 0.7900
2.723130 0.7920 0.7920 0.7940 0.7990 0.7990
2.757000 0.7990 0.7940 0.7920 0.7900 0.7890
2.791130 0.7830 0.7800 0.7780 0.7770 0.7770
2.826000 0.7770 0.7770 0.7770 0.7750 0.7730
2.860130 0.7700 0.7630 0.7560 0.7530 0.7540
2.894000 0.7540 0.7530 0.7510 0.7400 0.7390
2.928130 0.7370 0.7340 0.7280 0.7230 0.7180
2.962000 0.7030 0.6920 0.6800 0.6720 0.6600
2.996130 0.6480 0.6320 0.6310 0.6320 0.6410
3.030000 0.6530 0.6600 0.6680 0.6770 0.6820
3.064130 0.6960 0.6980 0.6990 0.6990 0.6990
3.098000 0.6980 0.6920 0.6910 0.6890 0.6800
3.132130 0.6750 0.6700 0.6650 0.6530 0.6410
3.167000 0.6360 0.6320 0.6320 0.6360 0.6380
3.201130 0.6380 0.6440 0.6460 0.6440 0.6430
3.235000 0.6460 0.6560 0.6600 0.6650 0.6740
3.269130 0.6800 0.6870 0.6890 0.6860 0.6750
3.303000 0.6600 0.6460 0.6270 0.5930 0.5280
3.337130 0.4450 0.3770 0.3010 0.2210 0.1520
3.371000 0.0850 0.0480 0.0460 0.0480 0.0480
3.405130 0.0460 0.0420 0.0420 0.0510 0.0600
3.440000 0.0700 0.0870 0.1060 0.1260 0.1420
3.474130 0.1450 0.1450 0.1380 0.1130 0.1130
3.508000 0.1320 0.1610 0.2100 0.2880 0.3770
3.542130 0.4570 0.5590 0.6620 0.7010 0.7030
3.576000 0.7100 0.7160 0.7370 0.7540 0.7650
3.610130 0.7710 0.7710 0.7710 0.7710 0.7730
3.644000 0.7730 0.7770 0.7780 0.7780 0.7750
3.678130 0.7710 0.7700 0.7710 0.7800 0.7830
3.712000 0.7870 0.7870 0.7870 0.7890 0.7900
3.746130 0.7920 0.7920 0.7990 0.8010 0.8010
3.781000 0.8090 0.8110 0.8110 0.8090 0.8090
3.815130 0.8090 0.8090 0.8090 0.8090 0.8110
3.849000 0.8110 0.8130 0.8140 0.8160 0.8190
3.883130 0.8210 0.8250 0.8350 0.8370 0.8380
3.917000 0.8380 0.8400 0.8420 0.8420 0.8380
3.951130 0.8350 0.8330 0.8330 0.8350 0.8370
3.985000 0.8380 0.8400 0.8420 0.8450 0.8470
4.019130 0.8490 0.8500 0.8500 0.8500 0.8500
4.054000 0.8520 0.8500 0.8500 0.8430 0.8420
4.088130 0.8420 0.8420 0.8430 0.8500 0.8520
4.122000 0.8540 0.8540 0.8540 0.8550 0.8550
4.156130 0.8550 0.8570 0.8570 0.8590 0.8610
4.190000 0.8620 0.8640 0.8620 0.8540 0.8540
4.224130 0.8610 0.8640 0.8620 0.8610 0.8520
4.258000 0.8490 0.8490 0.8500 0.8520 0.8520
4.292130 0.8540 0.8550 0.8550 0.8570 0.8570
4.327000 0.8610 0.8660 0.8710 0.8740 0.8790
4.361130 0.8810 0.8900 0.8930 0.8950 0.9000
4.395000 0.8980 0.8930 0.8910 0.8910 0.8910
4.429130 0.8910 0.8900 0.8860 0.8860 0.8910
4.463000 0.8930 0.8930 0.8930 0.8950 0.9000
4.497130 0.9000 0.9020 0.9020 0.9020 0.9020
4.531000 0.9030 0.9030 0.9050 0.9050 0.9050
4.565130 0.9050 0.9030 0.9030 0.9030 0.9030
4.599000 0.9030 0.9030 0.9050 0.9050 0.9070
4.633130 0.9090 0.9090 0.9090 0.9090 0.9020
4.668000 0.9020 0.9070 0.9100 0.9100 0.9100
4.702130 0.9140 0.9190 0.9220 0.9260 0.9260
4.736000 0.9240 0.9220 0.9210 0.9190 0.9210
4.770130 0.9240 0.9240 0.9260 0.9260 0.9270
4.804000 0.9270 0.9290 0.9290 0.9310 0.9310
4.838130 0.9310 0.9310 0.9290 0.9290 0.9290
4.872000 0.9290 0.9290 0.9310 0.9290 0.9290
4.906130 0.9310 0.9310 0.9340 0.9340 0.9290
4.941000 0.9310 0.9310 0.9330 0.9330 0.9330
4.975130 0.9340 0.9340 0.9340 0.9340 0.9390
5.009000 0.9390 0.9330 0.9340 0.9340 0.9340
5.043130 0.9380 0.9360 0.9310 0.9270 0.9270
5.077000 0.9330 0.9390 0.9390 0.9330 0.9330
5.111130 0.9330 0.9310 0.9310 0.9290 0.9270
5.145000 0.9270 0.9310 0.9360 0.9390 0.9390
5.179130 0.9360 0.9290 0.9290 0.9410 0.9410
5.213000 0.9390 0.9360 0.9270 0.9240 0.9240
5.247130 0.9220 0.9220 0.9240 0.9240 0.9220
5.282000 0.9220 0.9240 0.9310 0.9330 0.9340
5.316130 0.9380 0.9390 0.9390 0.9390 0.9390
5.350000 0.9390 0.9380 0.9330 0.9290 0.9290
5.384130 0.9290 0.9310 0.9340 0.9340 0.9340
5.418000 0.9340 0.9340 0.9330 0.9310 0.9310
5.452130 0.9330 0.9360 0.9390 0.9410 0.9410
5.486000 0.9390 0.9330 0.9330 0.9380 0.9410
5.520130 0.9430 0.9410 0.9340 0.9330 0.9360
5.555000 0.9360 0.9360 0.9340 0.9310 0.9310
5.589130 0.9310 0.9270 0.9240 0.9210 0.9170
5.623000 0.9120 0.9030 0.9000 0.8850 0.8810
5.657130 0.8900 0.8900 0.8900 0.8850 0.8850
5.691000 0.8790 0.8690 0.8620 0.8540 0.8490
5.725130 0.8300 0.7990 0.7660 0.7420 0.7110
5.759000 0.6190 0.5590 0.4920 0.4800 0.4830
5.793130 0.5620 0.6120 0.6260 0.6430 0.6630
5.827000 0.6820 0.6960 0.6990 0.7010 0.7030
5.861130 0.7100 0.7130 0.7150 0.7180 0.7180
5.896000 0.7150 0.7030 0.6890 0.6770 0.6580
5.930130 0.6240 0.5860 0.5330 0.5000 0.4930
5.964000 0.4930 0.4970 0.5070 0.5120 0.5280
5.998130 0.5300 0.5300 0.5240 0.5210 0.5120
6.032000 0.4990 0.4450 0.3920 0.3190 0.2520
6.066130 0.1860 0.1520 0.1400 0.1320 0.1080
6.100000 0.0610 0.0340 0.0340 0.0490 0.0530
6.134130 0.0540 0.0540 0.0580 0.0820 0.1250
6.169000 0.1620 0.1640 0.1610 0.1370 0.1130
6.203130 0.0900 0.0750 0.0510 0.0490 0.0510
6.237000 0.0610 0.0720 0.0770 0.0820 0.1180
6.271130 0.1540 0.1920 0.2280 0.2640 0.3080
6.305000 0.3480 0.3920 0.4570 0.4730 0.4810
6.339130 0.4880 0.5020 0.5060 0.5110 0.5120
6.373000 0.5160 0.5210 0.5210 0.5230 0.5210
6.407130 0.5040 0.4830 0.4630 0.4180 0.3970
6.442000 0.3700 0.3480 0.3190 0.2880 0.2480
6.476130 0.2190 0.1830 0.1440 0.1420 0.1440
6.510000 0.1660 0.1880 0.2070 0.2280 0.2590
6.544130 0.3290 0.3840 0.4440 0.4970 0.5380
6.578000 0.5690 0.5910 0.5980 0.6120 0.6200
6.612130 0.6310 0.6430 0.6550 0.6560 0.6580
6.646000 0.6580 0.6580 0.6600 0.6580 0.6560
6.680130 0.6560 0.6530 0.6510 0.6500 0.6500
6.714000 0.6460 0.6430 0.6430 0.6290 0.6150
6.748130 0.6020 0.5830 0.5230 0.4630 0.3990
6.783000 0.3360 0.3130 0.3010 0.2890 0.2880
6.817130 0.2880 0.2950 0.3010 0.3070 0.3220
6.851000 0.3360 0.3480 0.3580 0.3820 0.4080
6.885130 0.4230 0.4390 0.4560 0.4710 0.4810
6.919000 0.4870 0.4990 0.5380 0.5570 0.5780
6.953130 0.6070 0.6290 0.6480 0.6580 0.6770
6.987000 0.6920 0.7270 0.7300 0.7300 0.7300
7.021130 0.7270 0.7270 0.7250 0.7150 0.7030
7.056000 0.6920 0.6820 0.6750 0.6620 0.6510
7.090130 0.6340 0.6070 0.5830 0.5620 0.5540
7.124000 0.5480 0.5430 0.5420 0.5400 0.5400
7.158130 0.5450 0.5540 0.5540 0.5520 0.5470
7.192000 0.5380 0.5230 0.4880 0.4350 0.4210
7.226130 0.3970 0.3720 0.3440 0.3200 0.3010
7.260000 0.2740 0.2190 0.1800 0.1470 0.1140
7.294130 0.1110 0.1130 0.1180 0.1250 0.1450
7.328000 0.1610 0.1620 0.1610 0.1490 0.1350
7.362130 0.1200 0.1130 0.1130 0.1440 0.1800
7.397000 0.2290 0.2770 0.3130 0.3530 0.3870
7.431130 0.4350 0.4660 0.4880 0.5070 0.5310
7.465000 0.5620 0.5860 0.6080 0.6270 0.6410
7.499130 0.6550 0.6680 0.6770 0.6840 0.6910
7.533000 0.6990 0.7040 0.7110 0.7150 0.7220
7.567130 0.7220 0.7220 0.7230 0.7250 0.7270
7.601000 0.7250 0.7200 0.7130 0.7110 0.7040
7.635130 0.7010 0.6920 0.6820 0.6630 0.6240
7.670000 0.5830 0.5360 0.4780 0.4280 0.3630
7.704130 0.3240 0.2640 0.2600 0.2640 0.2980
7.738000 0.3370 0.3700 0.3990 0.4400 0.4830
7.772130 0.5380 0.5900 0.6150 0.6410 0.6630
7.806000 0.6750 0.6870 0.6920 0.7030 0.7080
7.840130 0.7130 0.7150 0.7160 0.7160 0.7160
7.874000 0.7160 0.7160 0.7130 0.7110 0.7040
7.908130 0.6980 0.6820 0.6720 0.6620 0.6480
7.942000 0.6190 0.5900 0.5590 0.5260 0.5000
7.976130 0.4590 0.4210 0.3910 0.3560 0.3510
8.011000 0.3000 0.2840 0.3030 0.3550 0.3970
8.045130 0.4440 0.4880 0.5280 0.5590 0.5980
8.079000 0.6170 0.6320 0.6500 0.6770 0.6990
8.113130 0.7080 0.7220 0.7340 0.7490 0.7650
8.147000 0.7730 0.7820 0.7850 0.7920 0.7950
8.181130 0.8020 0.8110 0.8110 0.8070 0.8040
8.215000 0.8020 0.8020 0.8020 0.8040 0.8040
8.249130 0.8040 0.8060 0.8110 0.8070 0.8040
8.284000 0.8020 0.8010 0.7890 0.7750 0.7580
8.318130 0.7300 0.6990 0.6720 0.6150 0.5740
8.352000 0.5280 0.4630 0.4200 0.3840 0.3580
8.386130 0.3480 0.3340 0.3310 0.3200 0.3150
8.420000 0.3150 0.3240 0.3460 0.3720 0.4010
8.454130 0.4300 0.4630 0.4970 0.5310 0.5660
8.488000 0.6000 0.6340 0.6670 0.6940 0.7080
8.522130 0.7220 0.7340 0.7400 0.7420 0.7440
8.557000 0.7470 0.7470 0.7460 0.7440 0.7370
8.591130 0.7300 0.7270 0.7280 0.7300 0.7340
8.625000 0.7510 0.7540 0.7630 0.7710 0.7800
8.659130 0.7830 0.7830 0.7800 0.7650 0.7580
8.693000 0.7580 0.7630 0.7730 0.7940 0.8160
8.727130 0.8230 0.8260 0.8310 0.8330 0.8370
8.761000 0.8380 0.8380 0.8370 0.8370 0.8370
8.795130 0.8380 0.8380 0.8380 0.8370 0.8350
8.829000 0.8330 0.8310 0.8250 0.8180 0.8070
8.863130 0.7940 0.7630 0.7350 0.7080 0.6550
8.898000 0.6140 0.5830 0.5810 0.5810 0.5910
8.932130 0.6310 0.6680 0.7110 0.7490 0.7680
8.966000 0.7780 0.7850 0.7940 0.7990 0.8060
9.000130 0.8130 0.8210 0.8280 0.8330 0.8350
9.034000 0.8350 0.8370 0.8370 0.8400 0.8370
9.068130 0.8330 0.8330 0.8310 0.8330 0.8370
9.102000 0.8400 0.8400 0.8400 0.8380 0.8370
9.136130 0.8330 0.8310 0.8300 0.8300 0.8300
9.171000 0.8300 0.8280 0.8260 0.8250 0.8230
9.205130 0.8230 0.8250 0.8260 0.8260 0.8280
9.239000 0.8300 0.8300 0.8300 0.8300 0.8300
9.273130 0.8310 0.8310 0.8300 0.8300 0.8300
9.307000 0.8300 0.8310 0.8330 0.8350 0.8350
9.341130 0.8350 0.8370 0.8370 0.8370 0.8380
9.375000 0.8380 0.8400 0.8400 0.8400 0.8430
9.409130 0.8430 0.8420 0.8420 0.8420 0.8420
9.443000 0.8380 0.8370 0.8370 0.8400 0.8400
9.477130 0.8400 0.8400 0.8420 0.8420 0.8400
9.512000 0.8400 0.8370 0.8330 0.8330 0.8330
9.546130 0.8380 0.8400 0.8420 0.8430 0.8500
9.580000 0.8520 0.8540 0.8550 0.8550 0.8590
9.614130 0.8610 0.8640 0.8660 0.8670 0.8690
9.648000 0.8690 0.8690 0.8690 0.8710 0.8690
9.682130 0.8690 0.8640 0.8620 0.8610 0.8610
9.716000 0.8620 0.8660 0.8690 0.8710 0.8710
9.750130 0.8710 0.8690 0.8670 0.8660 0.8660
9.785000 0.8660 0.8660 0.8660 0.8660 0.8670
9.819130 0.8710 0.8710 0.8730 0.8760 0.8780
9.853000 0.8780 0.8790 0.8790 0.8790 0.8810
9.887130 0.8810 0.8830 0.8830 0.8830 0.8830
9.921000 0.8830 0.8860 0.8860 0.8880 0.8880
9.955130 0.8880 0.8880 0.8880 0.8880 0.8900
9.989000 0.8900 0.8900 0.8910 0.8930 0.8910
10.023130 0.8900 0.8860 0.8830 0.8830 0.8810
10.058000 0.8810 0.8830 0.8830 0.8850 0.8850
10.092130 0.8810 0.8790 0.8730 0.8710 0.8690
10.126000 0.8690 0.8690 0.8640 0.8610 0.8590
10.160130 0.8540 0.8520 0.8500 0.8500 0.8490
10.194000 0.8470 0.8450 0.8430 0.8400 0.8400
10.228130 0.8490 0.8590 0.8640 0.8660 0.8670
10.262000 0.8690 0.8690 0.8690 0.8690 0.8690
10.296130 0.8690 0.8690 0.8670 0.8670 0.8670
10.330000 0.8690 0.8710 0.8710 0.8710 0.8710
10.364130 0.8710 0.8730 0.8730 0.8730 0.8730
10.399000 0.8760 0.8760 0.8740 0.8740 0.8740
10.433130 0.8780 0.8780 0.8740 0.8730 0.8730
10.467000 0.8710 0.8730 0.8730 0.8740 0.8740
10.501130 0.8740 0.8730 0.8740 0.8740 0.8760
10.535000 0.8790 0.8790 0.8790 0.8790 0.8790
10.569130 0.8780 0.8780 0.8740 0.8740 0.8740
10.603000 0.8740 0.8730 0.8740 0.8740 0.8730
10.637130 0.8730 0.8710 0.8690 0.8690 0.8660
10.672000 0.8620 0.8610 0.8590 0.8570 0.8570
10.706130 0.8590 0.8590 0.8590 0.8570 0.8570
10.740000 0.8570 0.8540 0.8540 0.8550 0.8550
10.774130 0.8590 0.8590 0.8610 0.8610 0.8610
10.808000 0.8590 0.8570 0.8540 0.8520 0.8500
10.842130 0.8470 0.8420 0.8310 0.8280 0.8280
10.876000 0.8330 0.8370 0.8370 0.8400 0.8400
10.910130 0.8310 0.8310 0.8250 0.8130 0.8070
10.944000 0.8020 0.8010 0.8010 0.8020 0.8060
10.978130 0.8110 0.8160 0.8210 0.8260 0.8300
11.013000 0.8350 0.8400 0.8430 0.8490 0.8520
11.047130 0.8540 0.8570 0.8590 0.8610 0.8640
11.081000 0.8660 0.8670 0.8710 0.8730 0.8740
11.115130 0.8740 0.8760 0.8760 0.8780 0.8780
11.149000 0.8780 0.8790 0.8790 0.8790 0.8790
11.183130 0.8810 0.8830 0.8850 0.8850 0.8790
11.217000 0.8790 0.8810 0.8830 0.8850 0.8860
11.251130 0.8880 0.8880 0.8880 0.8900 0.8900
11.286000 0.8900 0.8900 0.8900 0.8880 0.8880
11.320130 0.8880 0.8880 0.8900 0.9000 0.9000
11.354000 0.8980 0.8980 0.8900 0.8900 0.8880
11.388130 0.8900 0.8900 0.8900 0.8880 0.8850
11.422000 0.8830 0.8790 0.8760 0.8730 0.8690
11.456130 0.8710 0.8740 0.8710 0.8710 0.8710
11.490000 0.8730 0.8760 0.8790 0.8830 0.8880
11.524130 0.8930 0.9000 0.9020 0.9020 0.9020
11.558000 0.9020 0.9020 0.9020 0.9020 0.9020
11.592130 0.9020 0.8910 0.8910 0.8970 0.8970
11.627000 0.8980 0.9000 0.9000 0.8980 0.8980
11.661130 0.8980 0.8980 0.8970 0.8970 0.8950
11.695000 0.8950 0.8930 0.8910 0.8900 0.8900
11.729130 0.8900 0.8900 0.8900 0.8900 0.8900
11.763000 0.8880 0.8850 0.8810 0.8790 0.8780
11.797130 0.8760 0.8740 0.8730 0.8690 0.8620
11.831000 0.8590 0.8550 0.8500 0.8490 0.8400
11.865130 0.8330 0.8300 0.8280 0.8250 0.8230
11.900000 0.8230 0.8230 0.8210 0.8190 0.8210
11.934130 0.8230 0.8250 0.8250 0.8230 0.8190
11.968000 0.8130 0.8040 0.7900 0.7730 0.7590
12.002130 0.7440 0.7350 0.7150 0.7130 0.7160
12.036000 0.7220 0.7300 0.7370 0.7490 0.7510
12.070130 0.7530 0.7510 0.7490 0.7400 0.7250
12.104000 0.7150 0.6940 0.6510 0.6070 0.5600
12.138130 0.5260 0.4950 0.4710 0.4680 0.4710
12.173000 0.4920 0.5400 0.6050 0.6270 0.6840
12.207130 0.7340 0.7650 0.7870 0.7990 0.8090
12.241000 0.8190 0.8300 0.8370 0.8470 0.8540
12.275130 0.8590 0.8620 0.8690 0.8690 0.8710
12.309000 0.8710 0.8710 0.8710 0.8710 0.8710
12.343130 0.8710 0.8710 0.8710 0.8740 0.8740
12.377000 0.8740 0.8730 0.8690 0.8670 0.8670
12.411130 0.8710 0.8710 0.8730 0.8780 0.8780
12.445000 0.8780 0.8790 0.8830 0.8830 0.8810
12.479130 0.8810 0.8790 0.8790 0.8790 0.8780
12.514000 0.8780 0.8780 0.8780 0.8780 0.8780
12.548130 0.8780 0.8780 0.8740 0.8690 0.8640
12.582000 0.8590 0.8540 0.8470 0.8370 0.8210
12.616130 0.8060 0.8020 0.7940 0.7820 0.7680
12.650000 0.7510 0.7320 0.7060 0.6770 0.6550
12.684130 0.6390 0.6320 0.6310 0.6320 0.6320
12.718000 0.6310 0.6200 0.6050 0.5790 0.5550
12.752130 0.5240 0.4970 0.4930 0.5000 0.5310
12.787000 0.5690 0.5950 0.6410 0.6860 0.7080
12.821130 0.7300 0.7470 0.7660 0.7820 0.7890
12.855000 0.7900 0.7990 0.8010 0.8020 0.8090
12.889130 0.8110 0.8190 0.8230 0.8250 0.8250
12.923000 0.8280 0.8280 0.8250 0.8210 0.8190
12.957130 0.8140 0.8090 0.8020 0.7950 0.7850
12.991000 0.7770 0.7560 0.7270 0.7010 0.6770
13.025130 0.6480 0.6120 0.5600 0.5260 0.4970
13.059000 0.4680 0.4420 0.4350 0.4350 0.4510
13.093130 0.4710 0.5060 0.5550 0.6020 0.6360
13.128000 0.6670 0.6960 0.7200 0.7400 0.7540
13.162130 0.7660 0.7750 0.7820 0.7890 0.7900
13.196000 0.7920 0.7990 0.8010 0.8020 0.8020
13.230130 0.8040 0.8060 0.8060 0.8090 0.8110
13.264000 0.8110 0.8110 0.8130 0.8130 0.8090
13.298130 0.8060 0.8060 0.8020 0.8020 0.8020
13.332000 0.8040 0.8040 0.8040 0.8040 0.8070
13.366130 0.8070 0.8130 0.8180 0.8230 0.8230
13.401000 0.8250 0.8230 0.8230 0.8230 0.8230
13.435130 0.8230 0.8300 0.8300 0.8300 0.8300
13.469000 0.8300 0.8300 0.8280 0.8230 0.8190
13.503130 0.8160 0.8180 0.8160 0.8110 0.8020
13.537000 0.7970 0.7890 0.7830 0.7830 0.7820
13.571130 0.7730 0.7680 0.7650 0.7590 0.7540
13.605000 0.7530 0.7490 0.7490 0.7470 0.7470
13.639130 0.7490 0.7490 0.7510 0.7510 0.7530
13.673000 0.7530 0.7530 0.7540 0.7530 0.7510
13.707130 0.7490 0.7440 0.7400 0.7340 0.7230
13.742000 0.7110 0.6980 0.6820 0.6670 0.6500
13.776130 0.6290 0.6080 0.5880 0.5640 0.5400
13.810000 0.5140 0.4900 0.4610 0.4320 0.4010
13.844130 0.3730 0.3480 0.3310 0.3070 0.2910
13.878000 0.2710 0.2550 0.2460 0.2430 0.2430
13.912130 0.2480 0.2600 0.2760 0.2980 0.3220
13.946000 0.3610 0.3960 0.4250 0.4610 0.4900
13.980130 0.5110 0.5450 0.5780 0.6070 0.6310
14.015000 0.6500 0.6670 0.6820 0.6980 0.7130
14.049130 0.7280 0.7320 0.7390 0.7460 0.7510
14.083000 0.7540 0.7630 0.7700 0.7710 0.7730
14.117130 0.7780 0.7780 0.7820 0.7890 0.7890
14.151000 0.7890 0.7900 0.7900 0.7970 0.7990
14.185130 0.8010 0.8020 0.8020 0.8020 0.8040
14.219000 0.8040 0.8040 0.8040 0.8070 0.8090
14.253130 0.8130 0.8190 0.8230 0.8250 0.8250
14.288000 0.8250 0.8260 0.8260 0.8260 0.8280
14.322130 0.8300 0.8310 0.8310 0.8330 0.8330
14.356000 0.8330 0.8330 0.8350 0.8350 0.8310
14.390130 0.8310 0.8330 0.8370 0.8370 0.8370
14.424000 0.8380 0.8380 0.8380 0.8350 0.8330
14.458130 0.8310 0.8300 0.8280 0.8260 0.8250
14.492000 0.8230 0.8210 0.8230 0.8230 0.8280
14.526130 0.8280 0.8210 0.8110 0.8040 0.8020
14.560000 0.8010 0.7990 0.7950 0.7900 0.7870
14.594130 0.7830 0.7820 0.7800 0.7780 0.7800
14.629000 0.7820 0.7830 0.7850 0.7820 0.7830
14.663130 0.7890 0.7950 0.7990 0.8010 0.8040
14.697000 0.8070 0.8070 0.8070 0.8090 0.8110
14.731130 0.8130 0.8140 0.8180 0.8190 0.8230
14.765000 0.8230 0.8250 0.8260 0.8260 0.8260
14.799130 0.8260 0.8250 0.8210 0.8190 0.8180
14.833000 0.8180 0.8160 0.8110 0.8180 0.8140
14.867130 0.8130 0.8090 0.8070 0.8070 0.8070
14.902000 0.8070 0.8060 0.8040 0.8020 0.8010
14.936130 0.8020 0.8040 0.8060 0.8070 0.8070
14.970000 0.8010 0.7970 0.7950 0.7920 0.7830
15.004130 0.7710 0.7660 0.7610 0.7590 0.7530
15.038000 0.7440 0.7350 0.7320 0.7300 0.7300
15.072130 0.7280 0.7280 0.7280 0.7280 0.7300
15.106000 0.7320 0.7370 0.7390 0.7400 0.7440
15.140130 0.7490 0.7540 0.7590 0.7650 0.7680
15.174000 0.7700 0.7710 0.7730 0.7710 0.7700
15.208130 0.7700 0.7700 0.7680 0.7680 0.7700
15.243000 0.7780 0.7780 0.7770 0.7770 0.7770
15.277130 0.7710 0.7750 0.7770 0.7750 0.7730
15.311000 0.7710 0.7730 0.7710 0.7710 0.7710
15.345130 0.7680 0.7510 0.7490 0.7490 0.7510
15.379000 0.7510 0.7540 0.7580 0.7590 0.7590
15.413130 0.7580 0.7540 0.7490 0.7390 0.7350
15.447000 0.7320 0.7320 0.7300 0.7280 0.7280
15.481130 0.7250 0.7250 0.7230 0.7230 0.7230
15.516000 0.7220 0.7180 0.7150 0.7130 0.7130
15.550130 0.7160 0.7160 0.7200 0.7200 0.7220
15.584000 0.7220 0.7220 0.7220 0.7200 0.7180
15.618130 0.7180 0.7180 0.7160 0.7160 0.7110
15.652000 0.7100 0.7060 0.7060 0.7100 0.7100
15.686130 0.7080 0.7080 0.7060 0.7080 0.7080
15.720000 0.7080 0.7060 0.7040 0.7030 0.7010
15.754130 0.6990 0.6980 0.6960 0.6960 0.6920
15.788000 0.6920 0.6910 0.6910 0.6910 0.6920
15.822130 0.6940 0.6940 0.6940 0.6940 0.6920
15.857000 0.6920 0.6910 0.6910 0.6890 0.6870
15.891130 0.6840 0.6820 0.6800 0.6770 0.6740
15.925000 0.6720 0.6700 0.6700 0.6700 0.6720
15.959130 0.6720 0.6720 0.6740 0.6740 0.6740
##END=
