##TITLE=1,1'-FERROCENEDICARBOXYLIC ACID, DIGLYCIDYL ESTER
##JCAMP-DX=4.24
##DATA TYPE=INFRARED SPECTRUM
##CLASS=COBLENTZ
##ORIGIN=WYANDOTTE CHEMICALS CORP., WYANDOTTE, MICHIGAN, USA
##OWNER=COBLENTZ SOCIETY
Collection (C) 2018 copyright by the U.S. Secretary of Commerce
on behalf of the United States of America. All rights reserved.
##DATE=Not specified, most likely prior to 1970
##MOLFORM=C18 H18 Fe O6
##MP=52-53 C
##SOURCE REFERENCE=COBLENTZ NO. 3331
##$NIST ID=B6003331
##$NIST SOURCE=COBLENTZ
##$NIST IMAGE=cob3331
##SPECTROMETER/DATA SYSTEM=Not specified, most likely a prism, grating, or hybrid spectrometer.
##STATE=SOLID (MINERAL OIL MULL)
##PATH LENGTH=
$$SPECTRAL CONTAMINATION DUE TO OIL AROUND 2900 CM^-^1
##SAMPLING PROCEDURE=TRANSMISSION
##RESOLUTION=4
##DATA PROCESSING=DIGITIZED BY NIST FROM HARD COPY
##XUNITS=MICROMETERS
##YUNITS=TRANSMITTANCE
##XFACTOR=1.000000
##YFACTOR=1
##DELTAX=000.006813
##FIRSTX=2.027
##LASTX=15.993
##FIRSTY=0.668
##MAXX=15.993
##MINX=2.027
##MAXY=0.962
##MINY=0.089
##NPOINTS=2051
##XYDATA=(X++(Y..Y))
2.027000 0.6680 0.6700 0.6680 0.6680 0.6670
2.061080 0.6680 0.6720 0.6770 0.6790 0.6770
2.095000 0.6740 0.6720 0.6720 0.6740 0.6770
2.129080 0.6820 0.6840 0.6840 0.6820 0.6800
2.164000 0.6790 0.6770 0.6770 0.6750 0.6750
2.198080 0.6740 0.6720 0.6700 0.6720 0.6770
2.232000 0.6790 0.6800 0.6800 0.6800 0.6790
2.266080 0.6770 0.6750 0.6790 0.6860 0.6940
2.300000 0.6980 0.6990 0.6990 0.6960 0.6960
2.334080 0.6960 0.6980 0.6980 0.7010 0.7030
2.368000 0.7030 0.7030 0.7040 0.7040 0.7040
2.402080 0.6990 0.7010 0.7010 0.7040 0.7040
2.436000 0.7030 0.7030 0.7040 0.7080 0.7080
2.470080 0.7040 0.7030 0.6990 0.6990 0.7010
2.504000 0.7080 0.7110 0.7130 0.7110 0.7160
2.538080 0.7200 0.7270 0.7280 0.7320 0.7370
2.572000 0.7370 0.7340 0.7300 0.7300 0.7270
2.606080 0.7250 0.7230 0.7220 0.7230 0.7250
2.640000 0.7280 0.7300 0.7320 0.7340 0.7370
2.674080 0.7420 0.7420 0.7390 0.7390 0.7390
2.709000 0.7390 0.7390 0.7400 0.7420 0.7420
2.743080 0.7440 0.7440 0.7400 0.7370 0.7320
2.777000 0.7320 0.7350 0.7400 0.7400 0.7370
2.811080 0.7300 0.7250 0.7220 0.7230 0.7250
2.845000 0.7230 0.7220 0.7200 0.7160 0.7180
2.879080 0.7150 0.7130 0.7110 0.7110 0.7110
2.913000 0.7100 0.7080 0.7060 0.7080 0.7040
2.947080 0.6990 0.6990 0.6980 0.6980 0.6910
2.981000 0.6840 0.6840 0.6860 0.6920 0.7030
3.015080 0.7030 0.7010 0.6990 0.6890 0.6870
3.049000 0.6860 0.6860 0.6870 0.6870 0.6870
3.083080 0.6870 0.6890 0.6890 0.6890 0.6890
3.117000 0.6910 0.6910 0.6920 0.6920 0.6940
3.151080 0.6920 0.6910 0.6870 0.6790 0.6740
3.185000 0.6740 0.6740 0.6630 0.6460 0.6220
3.219080 0.5930 0.5670 0.5640 0.5710 0.6000
3.254000 0.6220 0.6290 0.6320 0.6310 0.6310
3.288080 0.6310 0.6240 0.6050 0.5720 0.5230
3.322000 0.4800 0.4440 0.4210 0.4030 0.3730
3.356080 0.3430 0.2890 0.2240 0.1640 0.1400
3.390000 0.1370 0.1330 0.1250 0.1180 0.1140
3.424080 0.1140 0.1200 0.1470 0.1730 0.1860
3.458000 0.2070 0.2260 0.2430 0.2500 0.2520
3.492080 0.2500 0.2310 0.2280 0.2280 0.2380
3.526000 0.2640 0.3360 0.4450 0.5710 0.6500
3.560080 0.6920 0.7200 0.7300 0.7390 0.7460
3.594000 0.7610 0.7730 0.7780 0.7820 0.7780
3.628080 0.7800 0.7820 0.7850 0.7850 0.7820
3.662000 0.7770 0.7700 0.7630 0.7710 0.8040
3.696080 0.7730 0.7730 0.7900 0.7900 0.7900
3.730000 0.7890 0.7890 0.7870 0.7890 0.7950
3.764080 0.8010 0.8060 0.8090 0.8110 0.8130
3.799000 0.8140 0.8160 0.8180 0.8190 0.8190
3.833080 0.8210 0.8210 0.8210 0.8210 0.8210
3.867000 0.8180 0.8190 0.8250 0.8300 0.8330
3.901080 0.8330 0.8310 0.8300 0.8250 0.8230
3.935000 0.8250 0.8300 0.8330 0.8330 0.8350
3.969080 0.8400 0.8430 0.8470 0.8490 0.8500
4.003000 0.8520 0.8520 0.8520 0.8500 0.8490
4.037080 0.8430 0.8430 0.8430 0.8430 0.8450
4.071000 0.8490 0.8500 0.8550 0.8620 0.8620
4.105080 0.8520 0.8520 0.8540 0.8550 0.8570
4.139000 0.8590 0.8590 0.8570 0.8550 0.8570
4.173080 0.8570 0.8590 0.8610 0.8610 0.8610
4.207000 0.8610 0.8590 0.8590 0.8570 0.8590
4.241080 0.8590 0.8660 0.8660 0.8620 0.8590
4.275000 0.8590 0.8610 0.8610 0.8620 0.8620
4.309080 0.8620 0.8610 0.8610 0.8610 0.8610
4.344000 0.8620 0.8620 0.8640 0.8690 0.8710
4.378080 0.8710 0.8730 0.8730 0.8730 0.8710
4.412000 0.8690 0.8690 0.8690 0.8710 0.8710
4.446080 0.8710 0.8710 0.8710 0.8710 0.8570
4.480000 0.8570 0.8640 0.8710 0.8710 0.8690
4.514080 0.8670 0.8670 0.8660 0.8670 0.8710
4.548000 0.8760 0.8810 0.8880 0.8910 0.8950
4.582080 0.8950 0.8950 0.8970 0.8970 0.8980
4.616000 0.8980 0.8980 0.8980 0.8970 0.8970
4.650080 0.8950 0.8930 0.8910 0.8930 0.8970
4.684000 0.9000 0.9020 0.9030 0.9030 0.9030
4.718080 0.9050 0.9070 0.9120 0.9100 0.9090
4.752000 0.9050 0.9030 0.9050 0.9050 0.9070
4.786080 0.9090 0.9090 0.9090 0.9070 0.9090
4.820000 0.9090 0.9100 0.9120 0.9100 0.9120
4.854080 0.9120 0.9120 0.9150 0.9150 0.9120
4.889000 0.9100 0.9100 0.9140 0.9140 0.9120
4.923080 0.9090 0.9100 0.9100 0.9100 0.9090
4.957000 0.9100 0.9090 0.9090 0.9100 0.9100
4.991080 0.9120 0.9140 0.9150 0.9190 0.9190
5.025000 0.9170 0.9150 0.9150 0.9150 0.9170
5.059080 0.9190 0.9210 0.9220 0.9240 0.9260
5.093000 0.9290 0.9310 0.9310 0.9340 0.9360
5.127080 0.9380 0.9340 0.9340 0.9330 0.9340
5.161000 0.9360 0.9340 0.9340 0.9330 0.9330
5.195080 0.9290 0.9260 0.9260 0.9290 0.9310
5.229000 0.9310 0.9310 0.9310 0.9330 0.9390
5.263080 0.9410 0.9410 0.9430 0.9430 0.9430
5.297000 0.9460 0.9510 0.9510 0.9530 0.9550
5.331080 0.9570 0.9570 0.9570 0.9570 0.9570
5.365000 0.9530 0.9550 0.9600 0.9620 0.9600
5.399080 0.9580 0.9580 0.9580 0.9580 0.9600
5.434000 0.9620 0.9570 0.9530 0.9530 0.9530
5.468080 0.9530 0.9510 0.9500 0.9450 0.9430
5.502000 0.9380 0.9360 0.9330 0.9310 0.9290
5.536080 0.9260 0.9240 0.9150 0.9100 0.9030
5.570000 0.8980 0.8950 0.8950 0.8970 0.9070
5.604080 0.9050 0.8910 0.8860 0.8850 0.8830
5.638000 0.8760 0.8710 0.8710 0.8710 0.8690
5.672080 0.8690 0.8640 0.8590 0.8500 0.8370
5.706000 0.8190 0.8040 0.7820 0.7560 0.7370
5.740080 0.7160 0.6860 0.6310 0.5950 0.5310
5.774000 0.4450 0.3750 0.3200 0.2520 0.1970
5.808080 0.1680 0.1470 0.1420 0.1300 0.1110
5.842000 0.0990 0.0920 0.0900 0.0890 0.0900
5.876080 0.1010 0.1210 0.1450 0.1730 0.2000
5.910000 0.2190 0.2310 0.2530 0.2840 0.3150
5.944080 0.3460 0.3700 0.3910 0.4030 0.4180
5.979000 0.4370 0.4440 0.4590 0.4810 0.5020
6.013080 0.5210 0.5380 0.5470 0.5640 0.5790
6.047000 0.5960 0.6260 0.6410 0.6440 0.6500
6.081080 0.6560 0.6700 0.6840 0.6840 0.6800
6.115000 0.6770 0.6770 0.6790 0.6790 0.6860
6.149080 0.6980 0.7030 0.7100 0.7130 0.7130
6.183000 0.7130 0.7130 0.7150 0.7100 0.7100
6.217080 0.7150 0.7220 0.7300 0.7400 0.7510
6.251000 0.7580 0.7610 0.7680 0.7730 0.7780
6.285080 0.7770 0.7780 0.7800 0.7820 0.7820
6.319000 0.7800 0.7730 0.7710 0.7710 0.7710
6.353080 0.7770 0.7770 0.7650 0.7610 0.7610
6.387000 0.7590 0.7560 0.7530 0.7490 0.7420
6.421080 0.7350 0.7320 0.7280 0.7230 0.7230
6.455000 0.7250 0.7280 0.7340 0.7390 0.7320
6.489080 0.7320 0.7320 0.7340 0.7340 0.7370
6.524000 0.7390 0.7350 0.7400 0.7460 0.7540
6.558080 0.7610 0.7660 0.7680 0.7680 0.7700
6.592000 0.7700 0.7710 0.7750 0.7750 0.7730
6.626080 0.7730 0.7710 0.7710 0.7700 0.7660
6.660000 0.7610 0.7580 0.7510 0.7510 0.7440
6.694080 0.7270 0.7060 0.6890 0.6720 0.6500
6.728000 0.6170 0.5910 0.5740 0.5500 0.4950
6.762080 0.4350 0.3600 0.2790 0.2240 0.1900
6.796000 0.1680 0.1500 0.1470 0.1470 0.1520
6.830080 0.1740 0.1900 0.2040 0.2210 0.2380
6.864000 0.2520 0.2710 0.2890 0.3010 0.3170
6.898080 0.3360 0.3560 0.3730 0.3990 0.4300
6.932000 0.4470 0.4630 0.4810 0.4920 0.5060
6.966080 0.5190 0.5550 0.5790 0.5880 0.6000
7.000000 0.6100 0.6170 0.6200 0.6220 0.6310
7.034080 0.6410 0.6580 0.6630 0.6720 0.6790
7.069000 0.6800 0.6800 0.6800 0.6770 0.6720
7.103080 0.6560 0.6440 0.6150 0.5860 0.5660
7.137000 0.5500 0.5400 0.5420 0.5570 0.5910
7.171080 0.6140 0.6170 0.6140 0.6030 0.5670
7.205000 0.5110 0.4610 0.4230 0.3870 0.3560
7.239080 0.3200 0.3050 0.2810 0.2640 0.2640
7.273000 0.2710 0.2880 0.3220 0.3630 0.3990
7.307080 0.4510 0.4970 0.5160 0.5240 0.5300
7.341000 0.5330 0.5330 0.5300 0.5090 0.4730
7.375080 0.4660 0.4680 0.4780 0.4970 0.5110
7.409000 0.5190 0.5300 0.5350 0.5400 0.5500
7.443080 0.5570 0.5780 0.6070 0.6270 0.6550
7.477000 0.7030 0.7110 0.7150 0.7220 0.7440
7.511080 0.7440 0.7230 0.7160 0.7220 0.7250
7.545000 0.7280 0.7300 0.7300 0.7280 0.7270
7.579080 0.7270 0.7250 0.7200 0.7130 0.7040
7.614000 0.7030 0.7010 0.7010 0.6940 0.6800
7.648080 0.6680 0.6510 0.6390 0.6260 0.6070
7.682000 0.6000 0.5900 0.5670 0.5420 0.5060
7.716080 0.4660 0.4370 0.4060 0.3800 0.3560
7.750000 0.3270 0.2810 0.2480 0.2170 0.1930
7.784080 0.1680 0.1570 0.1450 0.1330 0.1260
7.818000 0.1210 0.1160 0.1090 0.1040 0.1020
7.852080 0.1010 0.0990 0.1010 0.1130 0.1280
7.886000 0.1500 0.1860 0.2160 0.2430 0.2590
7.920080 0.2740 0.2890 0.2950 0.3000 0.3030
7.954000 0.3150 0.3290 0.3480 0.3730 0.3970
7.988080 0.4210 0.4420 0.4610 0.4760 0.4950
8.022000 0.5060 0.5240 0.5500 0.5670 0.5830
8.056080 0.5950 0.6020 0.6030 0.6080 0.6120
8.091000 0.6200 0.6220 0.6310 0.6360 0.6410
8.125080 0.6410 0.6430 0.6440 0.6410 0.6360
8.159000 0.6220 0.6120 0.5960 0.5830 0.5790
8.193080 0.5780 0.5830 0.6270 0.6460 0.6620
8.227000 0.6670 0.6750 0.6800 0.6840 0.7030
8.261080 0.7040 0.7080 0.7100 0.7100 0.7100
8.295000 0.7100 0.7110 0.7150 0.7130 0.7150
8.329080 0.7180 0.7180 0.7150 0.7130 0.7110
8.363000 0.7040 0.7010 0.6990 0.6910 0.6870
8.397080 0.6820 0.6820 0.6840 0.6860 0.6940
8.431000 0.7030 0.7180 0.7200 0.7220 0.7200
8.465080 0.7200 0.7160 0.7110 0.7030 0.6940
8.499000 0.6910 0.6800 0.6700 0.6530 0.6270
8.533080 0.5960 0.5710 0.5540 0.5380 0.5300
8.567000 0.5300 0.5330 0.5420 0.5540 0.5620
8.601080 0.5620 0.5590 0.5520 0.5400 0.5240
8.636000 0.5060 0.4780 0.4440 0.3990 0.3720
8.670080 0.3440 0.3150 0.2910 0.2670 0.2410
8.704000 0.2140 0.1970 0.1740 0.1640 0.1590
8.738080 0.1570 0.1560 0.1560 0.1540 0.1540
8.772000 0.1520 0.1520 0.1520 0.1540 0.1520
8.806080 0.1490 0.1420 0.1420 0.1440 0.1470
8.840000 0.1500 0.1560 0.1590 0.1620 0.1620
8.874080 0.1620 0.1610 0.1540 0.1500 0.1440
8.908000 0.1400 0.1400 0.1440 0.1560 0.1680
8.942080 0.1860 0.2170 0.2480 0.2770 0.3080
8.976000 0.3390 0.3720 0.3910 0.4010 0.4130
9.010080 0.4270 0.4400 0.4540 0.4640 0.4990
9.044000 0.5110 0.5210 0.5260 0.5300 0.5400
9.078080 0.5520 0.5590 0.5720 0.5810 0.5860
9.112000 0.5930 0.5980 0.6020 0.6030 0.6030
9.146080 0.6080 0.6100 0.6120 0.6150 0.6200
9.181000 0.6190 0.6150 0.6140 0.6100 0.6070
9.215080 0.6020 0.6020 0.5980 0.5960 0.5950
9.249000 0.5930 0.5930 0.5960 0.5980 0.5960
9.283080 0.5950 0.5910 0.5900 0.5840 0.5830
9.317000 0.5810 0.5810 0.5810 0.5830 0.5840
9.351080 0.5910 0.5880 0.5740 0.5620 0.5500
9.385000 0.5420 0.5380 0.5360 0.5420 0.5540
9.419080 0.5690 0.5790 0.5780 0.5660 0.5590
9.453000 0.5570 0.5540 0.5540 0.5710 0.5860
9.487080 0.6020 0.6170 0.6410 0.6500 0.6530
9.521000 0.6650 0.6790 0.6860 0.6910 0.6920
9.555080 0.6940 0.6980 0.6990 0.6990 0.6990
9.589000 0.6990 0.6920 0.6860 0.6720 0.6630
9.623080 0.6440 0.6190 0.5860 0.5520 0.5180
9.657000 0.4870 0.4510 0.4150 0.3910 0.3610
9.691080 0.3460 0.3460 0.3510 0.3680 0.3820
9.726000 0.4040 0.4200 0.4350 0.4610 0.4870
9.760080 0.5140 0.5400 0.5690 0.5960 0.6140
9.794000 0.6240 0.6360 0.6560 0.6670 0.6740
9.828080 0.6840 0.6870 0.6910 0.6940 0.7010
9.862000 0.7100 0.7150 0.7150 0.7150 0.7160
9.896080 0.7160 0.7200 0.7230 0.7300 0.7340
9.930000 0.7350 0.7350 0.7340 0.7320 0.7320
9.964080 0.7300 0.7300 0.7300 0.7320 0.7320
9.998000 0.7320 0.7320 0.7300 0.7230 0.7160
10.032080 0.7110 0.7040 0.6990 0.6910 0.6820
10.066000 0.6750 0.6670 0.6580 0.6510 0.6410
10.100080 0.6290 0.6200 0.6100 0.6030 0.6000
10.134000 0.5910 0.5860 0.5840 0.5810 0.5720
10.168080 0.5640 0.5480 0.5350 0.5230 0.5120
10.202000 0.5000 0.4800 0.4690 0.4590 0.4510
10.236080 0.4330 0.4270 0.4210 0.4160 0.4160
10.271000 0.4180 0.4210 0.4330 0.4520 0.4690
10.305080 0.4750 0.4870 0.4990 0.5140 0.5330
10.339000 0.5420 0.5600 0.5760 0.5910 0.6020
10.373080 0.6030 0.6070 0.6100 0.6170 0.6240
10.407000 0.6360 0.6500 0.6550 0.6680 0.6800
10.441080 0.6860 0.6890 0.7010 0.7060 0.7150
10.475000 0.7220 0.7280 0.7350 0.7400 0.7400
10.509080 0.7420 0.7440 0.7490 0.7510 0.7530
10.543000 0.7540 0.7580 0.7540 0.7560 0.7580
10.577080 0.7580 0.7590 0.7610 0.7650 0.7630
10.611000 0.7660 0.7660 0.7680 0.7700 0.7680
10.645080 0.7700 0.7700 0.7710 0.7780 0.7800
10.679000 0.7820 0.7820 0.7830 0.7820 0.7830
10.713080 0.7830 0.7850 0.7870 0.7890 0.7870
10.747000 0.7870 0.7830 0.7870 0.7850 0.7820
10.781080 0.7800 0.7820 0.7850 0.7850 0.7800
10.816000 0.7750 0.7730 0.7700 0.7650 0.7540
10.850080 0.7400 0.7300 0.7060 0.6910 0.6650
10.884000 0.6430 0.6120 0.5930 0.5540 0.5300
10.918080 0.4970 0.4610 0.4280 0.4090 0.3970
10.952000 0.3800 0.3610 0.3430 0.3310 0.3220
10.986080 0.3190 0.3150 0.3070 0.2980 0.2890
11.020000 0.2880 0.2840 0.2810 0.2790 0.2810
11.054080 0.2890 0.3000 0.3080 0.3270 0.3410
11.088000 0.3550 0.3750 0.4010 0.4270 0.4440
11.122080 0.4630 0.4710 0.4780 0.4780 0.4750
11.156000 0.4690 0.4540 0.4400 0.4330 0.4230
11.190080 0.4200 0.4090 0.4010 0.4010 0.4030
11.224000 0.4200 0.4400 0.4640 0.4920 0.5120
11.258080 0.5310 0.5500 0.5640 0.5810 0.6000
11.292000 0.6020 0.6050 0.6050 0.6030 0.6000
11.326080 0.5830 0.5720 0.5620 0.5600 0.5540
11.361000 0.5500 0.5500 0.5480 0.5430 0.5310
11.395080 0.5240 0.5070 0.4930 0.4760 0.4710
11.429000 0.4690 0.4690 0.4710 0.4780 0.4970
11.463080 0.5110 0.5230 0.5330 0.5430 0.5500
11.497000 0.5540 0.5550 0.5550 0.5520 0.5500
11.531080 0.5360 0.5190 0.5040 0.4920 0.4760
11.565000 0.4690 0.4640 0.4630 0.4630 0.4610
11.599080 0.4590 0.4630 0.4800 0.4810 0.4850
11.633000 0.4870 0.4830 0.4800 0.4760 0.4730
11.667080 0.4710 0.4690 0.4880 0.4660 0.4590
11.701000 0.4590 0.4630 0.4640 0.4690 0.4810
11.735080 0.4870 0.4990 0.5000 0.5020 0.5090
11.769000 0.5120 0.5210 0.5240 0.5280 0.5310
11.803080 0.5400 0.5500 0.5540 0.5600 0.5600
11.837000 0.5620 0.5640 0.5660 0.5660 0.5640
11.871080 0.5640 0.5600 0.5570 0.5540 0.5520
11.906000 0.5500 0.5430 0.5380 0.5310 0.5210
11.940080 0.5090 0.5020 0.4950 0.4930 0.4930
11.974000 0.4930 0.4930 0.4990 0.5090 0.5140
12.008080 0.5300 0.5500 0.5710 0.5840 0.5980
12.042000 0.6050 0.6200 0.6320 0.6510 0.6620
12.076080 0.6750 0.6820 0.6920 0.7030 0.7100
12.110000 0.7180 0.7220 0.7250 0.7270 0.7270
12.144080 0.7300 0.7350 0.7390 0.7400 0.7420
12.178000 0.7460 0.7510 0.7530 0.7540 0.7560
12.212080 0.7610 0.7630 0.7650 0.7680 0.7680
12.246000 0.7700 0.7750 0.7750 0.7730 0.7730
12.280080 0.7710 0.7710 0.7710 0.7680 0.7680
12.314000 0.7730 0.7770 0.7770 0.7750 0.7730
12.348080 0.7750 0.7750 0.7750 0.7750 0.7730
12.382000 0.7730 0.7710 0.7710 0.7680 0.7650
12.416080 0.7590 0.7560 0.7510 0.7420 0.7340
12.451000 0.7250 0.7160 0.7010 0.6870 0.6800
12.485080 0.6750 0.6720 0.6700 0.6680 0.6680
12.519000 0.6680 0.6630 0.6620 0.6630 0.6620
12.553080 0.6620 0.6500 0.6380 0.6200 0.6030
12.587000 0.5930 0.5910 0.5880 0.5880 0.6220
12.621080 0.6390 0.6620 0.6860 0.7040 0.7220
12.655000 0.7280 0.7320 0.7340 0.7340 0.7340
12.689080 0.7320 0.7300 0.7200 0.7100 0.6990
12.723000 0.6910 0.6860 0.6800 0.6740 0.6720
12.757080 0.6740 0.6800 0.6890 0.6980 0.6990
12.791000 0.7060 0.7080 0.7080 0.7060 0.7030
12.825080 0.6990 0.6820 0.6620 0.6340 0.6030
12.859000 0.5660 0.5260 0.4810 0.4450 0.4040
12.893080 0.3730 0.3430 0.3200 0.3070 0.3070
12.927000 0.3120 0.3200 0.3460 0.3730 0.4040
12.961080 0.4450 0.4660 0.4970 0.5190 0.5430
12.996000 0.5640 0.5760 0.5900 0.6020 0.6120
13.030080 0.6140 0.6190 0.6220 0.6240 0.6290
13.064000 0.6340 0.6500 0.6550 0.6620 0.6740
13.098080 0.6800 0.6840 0.6840 0.6800 0.6740
13.132000 0.6680 0.6580 0.6500 0.6390 0.6290
13.166080 0.6190 0.6020 0.5930 0.5840 0.5830
13.200000 0.5830 0.5830 0.5810 0.5810 0.5810
13.234080 0.5810 0.5810 0.5780 0.5760 0.5720
13.268000 0.5710 0.5690 0.5660 0.5600 0.5500
13.302080 0.5470 0.5430 0.5420 0.5420 0.5470
13.336000 0.5590 0.5740 0.5910 0.6030 0.6080
13.370080 0.6200 0.6320 0.6480 0.6600 0.6650
13.404000 0.6770 0.6920 0.6990 0.7030 0.7100
13.438080 0.7200 0.7250 0.7340 0.7390 0.7420
13.473000 0.7460 0.7490 0.7490 0.7510 0.7530
13.507080 0.7540 0.7580 0.7590 0.7610 0.7630
13.541000 0.7650 0.7680 0.7700 0.7680 0.7630
13.575080 0.7610 0.7610 0.7630 0.7710 0.7710
13.609000 0.7750 0.7770 0.7750 0.7750 0.7730
13.643080 0.7750 0.7730 0.7700 0.7710 0.7750
13.677000 0.7800 0.7820 0.7820 0.7780 0.7780
13.711080 0.7770 0.7770 0.7780 0.7800 0.7800
13.745000 0.7820 0.7820 0.7820 0.7800 0.7800
13.779080 0.7800 0.7780 0.7780 0.7800 0.7800
13.813000 0.7820 0.7830 0.7820 0.7800 0.7800
13.847080 0.7800 0.7800 0.7800 0.7800 0.7780
13.881000 0.7780 0.7780 0.7780 0.7780 0.7800
13.915080 0.7820 0.7800 0.7830 0.7830 0.7830
13.949000 0.7870 0.7900 0.7890 0.7900 0.7920
13.983080 0.7920 0.7920 0.7940 0.7950 0.7970
14.018000 0.7990 0.7990 0.7990 0.8010 0.8020
14.052080 0.8040 0.8040 0.8090 0.8110 0.8130
14.086000 0.8140 0.8160 0.8180 0.8180 0.8160
14.120080 0.8160 0.8160 0.8160 0.8210 0.8210
14.154000 0.8180 0.8180 0.8180 0.8180 0.8190
14.188080 0.8210 0.8250 0.8250 0.8250 0.8250
14.222000 0.8250 0.8250 0.8250 0.8250 0.8250
14.256080 0.8250 0.8250 0.8230 0.8230 0.8210
14.290000 0.8190 0.8190 0.8160 0.8160 0.8180
14.324080 0.8210 0.8250 0.8260 0.8260 0.8230
14.358000 0.8210 0.8190 0.8180 0.8160 0.8140
14.392080 0.8130 0.8110 0.8110 0.8130 0.8130
14.426000 0.8130 0.8160 0.8180 0.8190 0.8190
14.460080 0.8190 0.8180 0.8160 0.8160 0.8160
14.494000 0.8160 0.8160 0.8160 0.8160 0.8160
14.528080 0.8160 0.8180 0.8140 0.8130 0.8130
14.563000 0.8110 0.8110 0.8160 0.8140 0.8130
14.597080 0.8110 0.8140 0.8140 0.8110 0.8110
14.631000 0.8110 0.8090 0.8070 0.8070 0.8070
14.665080 0.8070 0.8060 0.8060 0.8060 0.8040
14.699000 0.8040 0.8040 0.8040 0.8040 0.8040
14.733080 0.8060 0.8060 0.8060 0.8060 0.8020
14.767000 0.8020 0.8010 0.7990 0.8010 0.7990
14.801080 0.7970 0.7940 0.7940 0.7940 0.7940
14.835000 0.7940 0.7940 0.7940 0.7920 0.7920
14.869080 0.7900 0.7900 0.7900 0.7900 0.7920
14.903000 0.7920 0.7920 0.7900 0.7890 0.7870
14.937080 0.7900 0.7900 0.7890 0.7870 0.7850
14.971000 0.7870 0.7830 0.7800 0.7800 0.7730
15.005080 0.7650 0.7580 0.7540 0.7530 0.7510
15.039000 0.7440 0.7400 0.7370 0.7340 0.7320
15.073080 0.7300 0.7250 0.7230 0.7230 0.7250
15.108000 0.7250 0.7270 0.7300 0.7320 0.7400
15.142080 0.7510 0.7540 0.7580 0.7610 0.7660
15.176000 0.7660 0.7650 0.7630 0.7630 0.7630
15.210080 0.7610 0.7590 0.7580 0.7580 0.7590
15.244000 0.7610 0.7610 0.7590 0.7590 0.7560
15.278080 0.7540 0.7530 0.7530 0.7530 0.7530
15.312000 0.7540 0.7580 0.7580 0.7580 0.7580
15.346080 0.7590 0.7590 0.7580 0.7530 0.7510
15.380000 0.7460 0.7460 0.7440 0.7440 0.7440
15.414080 0.7440 0.7440 0.7440 0.7440 0.7390
15.448000 0.7390 0.7420 0.7700 0.7510 0.7340
15.482080 0.7280 0.7250 0.7230 0.7230 0.7230
15.516000 0.7230 0.7220 0.7220 0.7200 0.7220
15.550080 0.7220 0.7200 0.7200 0.7200 0.7200
15.584000 0.7220 0.7220 0.7220 0.7220 0.7200
15.618080 0.7200 0.7180 0.7160 0.7180 0.7200
15.653000 0.7220 0.7230 0.7220 0.7200 0.7180
15.687080 0.7180 0.7180 0.7160 0.7150 0.7110
15.721000 0.7110 0.7100 0.7080 0.7060 0.7040
15.755080 0.7040 0.7060 0.7060 0.7060 0.7080
15.789000 0.7080 0.7040 0.7030 0.7030 0.7010
15.823080 0.7010 0.6990 0.6990 0.6960 0.6960
15.857000 0.6940 0.6920 0.6920 0.6920 0.6920
15.891080 0.6940 0.6940 0.6910 0.6890 0.6840
15.925000 0.6820 0.6820 0.6820 0.6840 0.6840
15.959080 0.6840 0.6820 0.6800 0.6770 0.6770
15.993000 0.6750
##END=
