##TITLE=POTASSIUM THIOSULFATE
$$ C.P.
##JCAMP-DX=4.24
##DATA TYPE=INFRARED SPECTRUM
##CLASS=COBLENTZ
##ORIGIN=MELLON INSTITUTE
##OWNER=COBLENTZ SOCIETY
Collection (C) 2018 copyright by the U.S. Secretary of Commerce
on behalf of the United States of America. All rights reserved.
##DATE=Not specified, most likely prior to 1970
##MOLFORM=K2 S2 O3  * H2 O
##SOURCE REFERENCE=COBLENTZ NO. 555
##$NIST ID=B6000555
##$NIST SOURCE=COBLENTZ
##$NIST IMAGE=cob555
##SPECTROMETER/DATA SYSTEM=Not specified, most likely a prism, grating, or hybrid spectrometer.
##STATE=SOLID (NUJOL MULL)
##PATH LENGTH=
$$SPECTRAL CONTAMINATION DUE TO OIL AROUND 2900, 1450, 1380 CM^-^1
##SAMPLING PROCEDURE=TRANSMISSION
##RESOLUTION=4
##DATA PROCESSING=DIGITIZED BY NIST FROM HARD COPY
##XUNITS=MICROMETERS
##YUNITS=TRANSMITTANCE
##XFACTOR=1.000000
##YFACTOR=1
##DELTAX=000.006634
##FIRSTX=2.011
##LASTX=15.9838
##FIRSTY=0.901
##MAXX=15.9838
##MINX=2.011
##MAXY=0.981
##MINY=0.115
##NPOINTS=2107
##XYDATA=(X++(Y..Y))
2.011000 0.9010 0.9010 0.9010 0.9010 0.9030
2.044188 0.9030 0.9030 0.9030 0.9030 0.9030
2.078000 0.9040 0.9040 0.9040 0.9060 0.9060
2.111188 0.9060 0.9060 0.9060 0.9090 0.9110
2.144000 0.9110 0.9110 0.9110 0.9110 0.9130
2.177188 0.9130 0.9130 0.9130 0.9130 0.9140
2.210000 0.9140 0.9140 0.9140 0.9140 0.9140
2.243188 0.9140 0.9140 0.9130 0.9130 0.9130
2.277000 0.9130 0.9130 0.9130 0.9130 0.9090
2.310188 0.9040 0.9040 0.9030 0.9030 0.9010
2.343000 0.8990 0.8990 0.8990 0.8990 0.9010
2.376188 0.9030 0.9030 0.9040 0.9040 0.9040
2.410000 0.9060 0.9080 0.9080 0.9080 0.9080
2.443188 0.9080 0.9090 0.9090 0.9090 0.9110
2.476000 0.9110 0.9110 0.9130 0.9140 0.9160
2.509188 0.9160 0.9180 0.9190 0.9190 0.9190
2.542000 0.9210 0.9210 0.9230 0.9230 0.9230
2.575188 0.9210 0.9210 0.9210 0.9210 0.9210
2.609000 0.9210 0.9190 0.9160 0.9160 0.9180
2.642188 0.9190 0.9210 0.9260 0.9280 0.9280
2.675000 0.9280 0.9280 0.9260 0.9230 0.9190
2.708188 0.9180 0.9180 0.9210 0.9210 0.9230
2.741000 0.9240 0.9240 0.9240 0.9240 0.9240
2.774188 0.9240 0.9230 0.9180 0.9130 0.9130
2.808000 0.9090 0.9010 0.8990 0.8940 0.8890
2.841188 0.8860 0.8790 0.8690 0.8610 0.8540
2.874000 0.8470 0.8410 0.8360 0.8310 0.8270
2.907188 0.8220 0.8190 0.8160 0.8120 0.8110
2.940000 0.8040 0.8010 0.8010 0.8010 0.7970
2.973188 0.7920 0.7850 0.7840 0.7800 0.7670
3.007000 0.7540 0.7470 0.7400 0.7340 0.7320
3.040188 0.7320 0.7350 0.7370 0.7470 0.7570
3.073000 0.7690 0.7840 0.7970 0.7990 0.8090
3.106188 0.8110 0.8190 0.8220 0.8270 0.8340
3.139000 0.8420 0.8470 0.8520 0.8560 0.8590
3.172188 0.8620 0.8660 0.8690 0.8720 0.8760
3.206000 0.8770 0.8810 0.8820 0.8840 0.8840
3.239188 0.8840 0.8840 0.8840 0.8840 0.8840
3.272000 0.8820 0.8810 0.8790 0.8770 0.8720
3.305188 0.8520 0.8390 0.8290 0.7990 0.7720
3.338000 0.7300 0.6580 0.5410 0.4190 0.3060
3.371188 0.2420 0.2000 0.1750 0.1570 0.1230
3.405000 0.1170 0.1150 0.1170 0.1450 0.1870
3.438188 0.2200 0.2690 0.3090 0.3120 0.3070
3.471000 0.3010 0.2890 0.2790 0.2770 0.2790
3.504188 0.3140 0.3740 0.4910 0.6170 0.6670
3.537000 0.7350 0.7740 0.8010 0.8290 0.8470
3.570188 0.8610 0.8810 0.8910 0.8970 0.8990
3.604000 0.9090 0.9130 0.9140 0.9190 0.9230
3.637188 0.9230 0.9240 0.9240 0.9240 0.9230
3.670000 0.9230 0.9240 0.9240 0.9240 0.9240
3.703188 0.9240 0.9240 0.9240 0.9240 0.9240
3.736000 0.9240 0.9240 0.9260 0.9260 0.9260
3.769188 0.9280 0.9290 0.9310 0.9310 0.9310
3.803000 0.9330 0.9330 0.9330 0.9330 0.9340
3.836188 0.9360 0.9380 0.9390 0.9410 0.9430
3.869000 0.9430 0.9440 0.9440 0.9440 0.9460
3.902188 0.9460 0.9480 0.9480 0.9490 0.9490
3.935000 0.9490 0.9490 0.9490 0.9510 0.9510
3.968188 0.9510 0.9530 0.9530 0.9540 0.9540
4.002000 0.9560 0.9560 0.9560 0.9560 0.9560
4.035188 0.9560 0.9560 0.9560 0.9580 0.9590
4.068000 0.9590 0.9590 0.9590 0.9590 0.9610
4.101188 0.9590 0.9590 0.9590 0.9590 0.9590
4.134000 0.9610 0.9610 0.9610 0.9610 0.9610
4.167188 0.9610 0.9610 0.9610 0.9610 0.9610
4.201000 0.9610 0.9590 0.9610 0.9610 0.9610
4.234188 0.9610 0.9610 0.9590 0.9580 0.9560
4.267000 0.9540 0.9540 0.9510 0.9510 0.9490
4.300188 0.9460 0.9430 0.9430 0.9410 0.9390
4.334000 0.9390 0.9390 0.9380 0.9340 0.9340
4.367188 0.9330 0.9330 0.9340 0.9390 0.9410
4.400000 0.9410 0.9430 0.9430 0.9440 0.9460
4.433188 0.9460 0.9480 0.9480 0.9480 0.9480
4.466000 0.9490 0.9490 0.9490 0.9490 0.9490
4.499188 0.9490 0.9490 0.9490 0.9510 0.9510
4.533000 0.9510 0.9510 0.9510 0.9510 0.9510
4.566188 0.9510 0.9510 0.9510 0.9510 0.9510
4.599000 0.9510 0.9510 0.9530 0.9530 0.9530
4.632188 0.9530 0.9510 0.9510 0.9510 0.9510
4.665000 0.9490 0.9490 0.9490 0.9490 0.9490
4.698188 0.9480 0.9480 0.9430 0.9410 0.9410
4.732000 0.9410 0.9390 0.9390 0.9390 0.9390
4.765188 0.9380 0.9380 0.9380 0.9390 0.9410
4.798000 0.9430 0.9430 0.9430 0.9440 0.9440
4.831188 0.9440 0.9460 0.9480 0.9490 0.9490
4.864000 0.9490 0.9480 0.9480 0.9480 0.9490
4.897188 0.9490 0.9490 0.9490 0.9510 0.9510
4.931000 0.9510 0.9510 0.9510 0.9510 0.9510
4.964188 0.9530 0.9540 0.9540 0.9540 0.9540
4.997000 0.9560 0.9580 0.9580 0.9580 0.9580
5.030188 0.9580 0.9580 0.9580 0.9580 0.9580
5.063000 0.9580 0.9590 0.9590 0.9590 0.9590
5.096188 0.9610 0.9630 0.9630 0.9630 0.9630
5.130000 0.9630 0.9630 0.9630 0.9630 0.9630
5.163188 0.9640 0.9640 0.9640 0.9640 0.9640
5.196000 0.9640 0.9640 0.9640 0.9640 0.9640
5.229188 0.9640 0.9660 0.9660 0.9660 0.9660
5.262000 0.9660 0.9660 0.9660 0.9660 0.9660
5.295188 0.9660 0.9660 0.9660 0.9660 0.9660
5.329000 0.9680 0.9680 0.9680 0.9660 0.9660
5.362188 0.9660 0.9660 0.9660 0.9660 0.9640
5.395000 0.9640 0.9640 0.9660 0.9660 0.9640
5.428188 0.9640 0.9640 0.9640 0.9640 0.9640
5.461000 0.9640 0.9640 0.9640 0.9660 0.9660
5.494188 0.9640 0.9640 0.9640 0.9660 0.9660
5.528000 0.9660 0.9660 0.9660 0.9680 0.9680
5.561188 0.9680 0.9660 0.9660 0.9660 0.9660
5.594000 0.9660 0.9680 0.9680 0.9680 0.9680
5.627188 0.9680 0.9680 0.9660 0.9660 0.9660
5.660000 0.9660 0.9690 0.9690 0.9680 0.9680
5.693188 0.9680 0.9690 0.9690 0.9690 0.9690
5.727000 0.9690 0.9690 0.9690 0.9690 0.9690
5.760188 0.9710 0.9690 0.9690 0.9690 0.9690
5.793000 0.9690 0.9690 0.9690 0.9710 0.9690
5.826188 0.9690 0.9690 0.9690 0.9690 0.9690
5.859000 0.9690 0.9690 0.9690 0.9690 0.9690
5.892188 0.9690 0.9710 0.9710 0.9710 0.9710
5.926000 0.9690 0.9680 0.9680 0.9680 0.9680
5.959188 0.9660 0.9660 0.9660 0.9640 0.9640
5.992000 0.9640 0.9630 0.9630 0.9630 0.9630
6.025188 0.9630 0.9640 0.9640 0.9660 0.9660
6.059000 0.9680 0.9680 0.9630 0.9630 0.9610
6.092188 0.9580 0.9540 0.9510 0.9460 0.9340
6.125000 0.9310 0.9260 0.9240 0.9230 0.9230
6.158188 0.9230 0.9240 0.9260 0.9290 0.9330
6.191000 0.9340 0.9410 0.9460 0.9530 0.9540
6.224188 0.9580 0.9590 0.9590 0.9630 0.9640
6.258000 0.9640 0.9640 0.9660 0.9660 0.9680
6.291188 0.9680 0.9680 0.9660 0.9660 0.9660
6.324000 0.9660 0.9680 0.9680 0.9660 0.9640
6.357188 0.9640 0.9640 0.9640 0.9630 0.9630
6.390000 0.9630 0.9630 0.9630 0.9630 0.9630
6.423188 0.9630 0.9630 0.9630 0.9630 0.9630
6.457000 0.9630 0.9630 0.9630 0.9640 0.9640
6.490188 0.9660 0.9680 0.9680 0.9660 0.9660
6.523000 0.9660 0.9660 0.9640 0.9640 0.9640
6.556188 0.9630 0.9610 0.9610 0.9610 0.9610
6.589000 0.9610 0.9610 0.9610 0.9630 0.9630
6.622188 0.9630 0.9630 0.9590 0.9560 0.9540
6.656000 0.9540 0.9560 0.9580 0.9580 0.9580
6.689188 0.9540 0.9530 0.9510 0.9510 0.9510
6.722000 0.9490 0.9460 0.9440 0.9410 0.9380
6.755188 0.9330 0.9260 0.9230 0.9160 0.9080
6.788000 0.8970 0.8860 0.8620 0.8340 0.8010
6.821188 0.7670 0.7490 0.7120 0.6880 0.6750
6.855000 0.6700 0.6630 0.6580 0.6520 0.6500
6.888188 0.6500 0.6500 0.6500 0.6500 0.6530
6.921000 0.6620 0.6650 0.6700 0.6870 0.7120
6.954188 0.7250 0.7340 0.7400 0.7470 0.7640
6.987000 0.7790 0.7920 0.8070 0.8220 0.8390
7.020188 0.8560 0.8710 0.8710 0.8790 0.8820
7.054000 0.8860 0.8870 0.8890 0.8940 0.8970
7.087188 0.9030 0.9090 0.9140 0.9190 0.9230
7.120000 0.9240 0.9280 0.9290 0.9310 0.9330
7.153188 0.9330 0.9330 0.9330 0.9330 0.9310
7.186000 0.9290 0.9230 0.9060 0.8940 0.8670
7.219188 0.8510 0.8320 0.8210 0.8010 0.7790
7.253000 0.7700 0.7690 0.7640 0.7620 0.7650
7.286188 0.7690 0.7820 0.7990 0.8020 0.8110
7.319000 0.8210 0.8220 0.8270 0.8360 0.8460
7.352188 0.8520 0.8620 0.8660 0.8720 0.8760
7.385000 0.8790 0.8820 0.8860 0.8890 0.8920
7.418188 0.8940 0.8970 0.8990 0.8990 0.9010
7.452000 0.9010 0.9010 0.9010 0.9010 0.9010
7.485188 0.9030 0.9040 0.9060 0.9080 0.9090
7.518000 0.9130 0.9140 0.9160 0.9160 0.9180
7.551188 0.9180 0.9190 0.9210 0.9210 0.9230
7.584000 0.9230 0.9230 0.9230 0.9230 0.9240
7.617188 0.9240 0.9240 0.9240 0.9240 0.9240
7.651000 0.9240 0.9240 0.9240 0.9240 0.9240
7.684188 0.9240 0.9240 0.9240 0.9240 0.9240
7.717000 0.9240 0.9240 0.9240 0.9240 0.9240
7.750188 0.9240 0.9240 0.9240 0.9260 0.9260
7.783000 0.9260 0.9260 0.9260 0.9260 0.9240
7.816188 0.9240 0.9260 0.9260 0.9240 0.9240
7.850000 0.9240 0.9260 0.9260 0.9260 0.9260
7.883188 0.9260 0.9240 0.9240 0.9240 0.9240
7.916000 0.9240 0.9240 0.9230 0.9230 0.9210
7.949188 0.9210 0.9210 0.9210 0.9190 0.9180
7.983000 0.9180 0.9160 0.9140 0.9140 0.9140
8.016188 0.9130 0.9130 0.9130 0.9110 0.9110
8.049000 0.9090 0.9090 0.9060 0.9040 0.9040
8.082188 0.9030 0.9030 0.9030 0.9030 0.9010
8.115000 0.9010 0.9010 0.9010 0.9010 0.8990
8.148188 0.8990 0.8990 0.8990 0.8990 0.8990
8.182000 0.8970 0.8970 0.8960 0.8960 0.8920
8.215188 0.8910 0.8910 0.8910 0.8910 0.8910
8.248000 0.8890 0.8860 0.8840 0.8840 0.8820
8.281188 0.8820 0.8810 0.8790 0.8790 0.8770
8.314000 0.8760 0.8740 0.8740 0.8720 0.8710
8.347188 0.8670 0.8670 0.8640 0.8610 0.8560
8.381000 0.8520 0.8510 0.8470 0.8440 0.8390
8.414188 0.8340 0.8310 0.8260 0.8210 0.8160
8.447000 0.8070 0.8010 0.7890 0.7770 0.7620
8.480188 0.7500 0.7300 0.7150 0.7040 0.6920
8.513000 0.6770 0.6650 0.6550 0.6470 0.6350
8.546188 0.6200 0.6070 0.6000 0.5780 0.5500
8.580000 0.5380 0.5150 0.4910 0.4680 0.4490
8.613188 0.4390 0.4160 0.4090 0.4030 0.3990
8.646000 0.3890 0.3790 0.3720 0.3620 0.3520
8.679188 0.3490 0.3420 0.3310 0.3210 0.3120
8.712000 0.3070 0.2920 0.2840 0.2800 0.2690
8.745188 0.2620 0.2540 0.2500 0.2470 0.2440
8.779000 0.2370 0.2340 0.2320 0.2290 0.2250
8.812188 0.2220 0.2190 0.2150 0.2140 0.2120
8.845000 0.2050 0.2020 0.2020 0.2000 0.1980
8.878188 0.1980 0.1900 0.1870 0.1850 0.1830
8.911000 0.1820 0.1800 0.1780 0.1770 0.1770
8.944188 0.1770 0.1770 0.1770 0.1780 0.1780
8.978000 0.1780 0.1780 0.1780 0.1820 0.1830
9.011188 0.1830 0.1830 0.1870 0.1880 0.1880
9.044000 0.1920 0.1980 0.1980 0.2000 0.2070
9.077188 0.2140 0.2190 0.2290 0.2490 0.2570
9.110000 0.2690 0.2800 0.2990 0.3090 0.3240
9.143188 0.3320 0.3520 0.3660 0.3820 0.4010
9.177000 0.4090 0.4280 0.4430 0.4530 0.4730
9.210188 0.4860 0.5050 0.5200 0.5280 0.5380
9.243000 0.5480 0.5660 0.5760 0.5810 0.5930
9.276188 0.6020 0.6150 0.6270 0.6400 0.6480
9.309000 0.6550 0.6620 0.6720 0.6800 0.6850
9.342188 0.7000 0.7040 0.7120 0.7200 0.7270
9.376000 0.7320 0.7370 0.7390 0.7440 0.7490
9.409188 0.7540 0.7570 0.7600 0.7640 0.7670
9.442000 0.7700 0.7740 0.7770 0.7790 0.7820
9.475188 0.7850 0.7890 0.7920 0.7940 0.7990
9.508000 0.8010 0.8020 0.8060 0.8110 0.8120
9.541188 0.8160 0.8170 0.8210 0.8220 0.8220
9.575000 0.8240 0.8240 0.8260 0.8270 0.8290
9.608188 0.8310 0.8320 0.8340 0.8360 0.8370
9.641000 0.8390 0.8410 0.8410 0.8410 0.8420
9.674188 0.8420 0.8440 0.8460 0.8460 0.8460
9.707000 0.8460 0.8490 0.8490 0.8490 0.8490
9.740188 0.8490 0.8490 0.8490 0.8490 0.8490
9.774000 0.8470 0.8410 0.8370 0.8340 0.8240
9.807188 0.8110 0.8010 0.7890 0.7700 0.7450
9.840000 0.7120 0.6920 0.6650 0.6330 0.6080
9.873188 0.5710 0.5480 0.5210 0.5000 0.4780
9.907000 0.4610 0.4530 0.4410 0.4330 0.4290
9.940188 0.4190 0.4060 0.4010 0.3970 0.3860
9.973000 0.3820 0.3720 0.3660 0.3640 0.3610
10.006188 0.3520 0.3470 0.3420 0.3360 0.3320
10.039000 0.3290 0.3270 0.3270 0.3270 0.3290
10.072188 0.3320 0.3390 0.3570 0.3670 0.4010
10.106000 0.4190 0.4390 0.4590 0.4840 0.5000
10.139188 0.5230 0.5450 0.5680 0.5760 0.6020
10.172000 0.6080 0.6320 0.6430 0.6600 0.6680
10.205188 0.6770 0.6920 0.7070 0.7140 0.7220
10.238000 0.7320 0.7370 0.7440 0.7540 0.7590
10.271188 0.7650 0.7700 0.7770 0.7820 0.7890
10.305000 0.7940 0.8010 0.8040 0.8120 0.8160
10.338188 0.8240 0.8270 0.8290 0.8310 0.8320
10.371000 0.8360 0.8370 0.8410 0.8440 0.8470
10.404188 0.8510 0.8520 0.8540 0.8540 0.8540
10.437000 0.8560 0.8590 0.8610 0.8620 0.8620
10.470188 0.8640 0.8660 0.8660 0.8670 0.8690
10.504000 0.8720 0.8760 0.8770 0.8820 0.8840
10.537188 0.8860 0.8870 0.8890 0.8940 0.8960
10.570000 0.8970 0.9010 0.9010 0.9010 0.9030
10.603188 0.9030 0.9040 0.9040 0.9040 0.9030
10.636000 0.9030 0.9040 0.9060 0.9080 0.9090
10.669188 0.9090 0.9110 0.9130 0.9130 0.9140
10.703000 0.9160 0.9160 0.9160 0.9160 0.9180
10.736188 0.9180 0.9190 0.9210 0.9210 0.9230
10.769000 0.9240 0.9240 0.9240 0.9240 0.9240
10.802188 0.9260 0.9260 0.9260 0.9260 0.9260
10.835000 0.9260 0.9280 0.9290 0.9310 0.9310
10.868188 0.9310 0.9310 0.9310 0.9310 0.9310
10.902000 0.9330 0.9330 0.9330 0.9330 0.9330
10.935188 0.9330 0.9330 0.9330 0.9340 0.9340
10.968000 0.9360 0.9360 0.9360 0.9360 0.9360
11.001188 0.9380 0.9380 0.9390 0.9390 0.9390
11.034000 0.9390 0.9410 0.9410 0.9410 0.9410
11.067188 0.9410 0.9410 0.9410 0.9430 0.9430
11.101000 0.9440 0.9440 0.9440 0.9440 0.9460
11.134188 0.9460 0.9460 0.9460 0.9460 0.9460
11.167000 0.9480 0.9480 0.9480 0.9480 0.9490
11.200188 0.9490 0.9510 0.9510 0.9490 0.9510
11.233000 0.9510 0.9530 0.9530 0.9530 0.9530
11.266188 0.9530 0.9530 0.9530 0.9530 0.9530
11.300000 0.9530 0.9530 0.9530 0.9530 0.9530
11.333188 0.9540 0.9540 0.9540 0.9540 0.9540
11.366000 0.9540 0.9540 0.9540 0.9540 0.9540
11.399188 0.9540 0.9540 0.9560 0.9560 0.9560
11.432000 0.9560 0.9560 0.9560 0.9580 0.9560
11.465188 0.9560 0.9560 0.9560 0.9560 0.9580
11.499000 0.9590 0.9590 0.9590 0.9590 0.9610
11.532188 0.9590 0.9590 0.9590 0.9610 0.9610
11.565000 0.9610 0.9630 0.9630 0.9630 0.9630
11.598188 0.9630 0.9640 0.9640 0.9640 0.9640
11.631000 0.9640 0.9640 0.9660 0.9660 0.9660
11.664188 0.9640 0.9660 0.9640 0.9640 0.9640
11.698000 0.9640 0.9640 0.9660 0.9660 0.9660
11.731188 0.9660 0.9660 0.9660 0.9660 0.9660
11.764000 0.9660 0.9660 0.9660 0.9660 0.9660
11.797188 0.9660 0.9660 0.9660 0.9660 0.9660
11.831000 0.9660 0.9680 0.9660 0.9660 0.9660
11.864188 0.9660 0.9660 0.9660 0.9660 0.9660
11.897000 0.9660 0.9660 0.9660 0.9660 0.9660
11.930188 0.9680 0.9680 0.9680 0.9680 0.9680
11.963000 0.9690 0.9690 0.9690 0.9690 0.9690
11.996188 0.9690 0.9710 0.9710 0.9710 0.9710
12.030000 0.9710 0.9730 0.9710 0.9710 0.9710
12.063188 0.9710 0.9730 0.9740 0.9740 0.9730
12.096000 0.9730 0.9730 0.9740 0.9740 0.9740
12.129188 0.9740 0.9740 0.9740 0.9740 0.9740
12.162000 0.9740 0.9740 0.9740 0.9760 0.9760
12.195188 0.9760 0.9760 0.9760 0.9760 0.9760
12.229000 0.9760 0.9760 0.9760 0.9760 0.9780
12.262188 0.9780 0.9780 0.9780 0.9780 0.9780
12.295000 0.9760 0.9760 0.9760 0.9760 0.9780
12.328188 0.9780 0.9760 0.9760 0.9780 0.9780
12.361000 0.9780 0.9780 0.9780 0.9780 0.9780
12.394188 0.9780 0.9780 0.9790 0.9780 0.9780
12.428000 0.9780 0.9780 0.9780 0.9780 0.9780
12.461188 0.9780 0.9780 0.9780 0.9780 0.9780
12.494000 0.9780 0.9790 0.9790 0.9790 0.9790
12.527188 0.9790 0.9780 0.9780 0.9780 0.9790
12.560000 0.9790 0.9790 0.9790 0.9790 0.9790
12.593188 0.9790 0.9790 0.9790 0.9790 0.9790
12.627000 0.9780 0.9780 0.9780 0.9780 0.9780
12.660188 0.9790 0.9790 0.9790 0.9780 0.9780
12.693000 0.9780 0.9780 0.9780 0.9780 0.9790
12.726188 0.9790 0.9780 0.9780 0.9790 0.9790
12.759000 0.9810 0.9810 0.9810 0.9810 0.9790
12.792188 0.9790 0.9790 0.9780 0.9790 0.9790
12.826000 0.9790 0.9790 0.9790 0.9780 0.9780
12.859188 0.9780 0.9780 0.9760 0.9760 0.9760
12.892000 0.9760 0.9760 0.9780 0.9780 0.9780
12.925188 0.9760 0.9760 0.9760 0.9780 0.9760
12.958000 0.9760 0.9760 0.9760 0.9760 0.9760
12.991188 0.9760 0.9760 0.9780 0.9780 0.9780
13.025000 0.9780 0.9780 0.9780 0.9780 0.9760
13.058188 0.9760 0.9760 0.9760 0.9760 0.9760
13.091000 0.9760 0.9760 0.9760 0.9760 0.9760
13.124188 0.9760 0.9760 0.9760 0.9760 0.9760
13.157000 0.9760 0.9760 0.9740 0.9740 0.9740
13.190188 0.9740 0.9740 0.9740 0.9740 0.9740
13.224000 0.9740 0.9740 0.9740 0.9740 0.9760
13.257188 0.9760 0.9760 0.9760 0.9760 0.9760
13.290000 0.9740 0.9740 0.9740 0.9740 0.9760
13.323188 0.9760 0.9740 0.9740 0.9740 0.9730
13.356000 0.9730 0.9730 0.9710 0.9710 0.9690
13.389188 0.9690 0.9690 0.9690 0.9690 0.9680
13.423000 0.9680 0.9680 0.9680 0.9660 0.9660
13.456188 0.9660 0.9660 0.9660 0.9640 0.9640
13.489000 0.9640 0.9640 0.9640 0.9640 0.9640
13.522188 0.9640 0.9630 0.9630 0.9630 0.9640
13.555000 0.9640 0.9640 0.9630 0.9630 0.9630
13.588188 0.9630 0.9630 0.9630 0.9630 0.9630
13.622000 0.9630 0.9610 0.9610 0.9610 0.9590
13.655188 0.9580 0.9560 0.9540 0.9540 0.9540
13.688000 0.9530 0.9530 0.9530 0.9530 0.9510
13.721188 0.9510 0.9510 0.9510 0.9510 0.9510
13.755000 0.9510 0.9510 0.9530 0.9510 0.9510
13.788188 0.9490 0.9480 0.9480 0.9460 0.9440
13.821000 0.9410 0.9410 0.9390 0.9390 0.9380
13.854188 0.9360 0.9360 0.9340 0.9340 0.9330
13.887000 0.9330 0.9330 0.9310 0.9310 0.9310
13.920188 0.9330 0.9310 0.9310 0.9330 0.9330
13.954000 0.9340 0.9340 0.9340 0.9330 0.9330
13.987188 0.9310 0.9310 0.9290 0.9310 0.9290
14.020000 0.9290 0.9290 0.9290 0.9290 0.9290
14.053188 0.9290 0.9290 0.9280 0.9280 0.9260
14.086000 0.9260 0.9260 0.9260 0.9260 0.9260
14.119188 0.9260 0.9260 0.9260 0.9260 0.9260
14.153000 0.9260 0.9260 0.9240 0.9240 0.9240
14.186188 0.9240 0.9240 0.9230 0.9230 0.9230
14.219000 0.9230 0.9210 0.9210 0.9190 0.9180
14.252188 0.9160 0.9140 0.9140 0.9130 0.9130
14.285000 0.9110 0.9110 0.9090 0.9080 0.9080
14.318188 0.9060 0.9040 0.9030 0.9010 0.9010
14.352000 0.8990 0.8960 0.8920 0.8910 0.8890
14.385188 0.8870 0.8840 0.8820 0.8810 0.8790
14.418000 0.8770 0.8740 0.8720 0.8720 0.8690
14.451188 0.8690 0.8660 0.8640 0.8620 0.8610
14.484000 0.8610 0.8590 0.8540 0.8510 0.8490
14.517188 0.8470 0.8440 0.8420 0.8390 0.8370
14.551000 0.8340 0.8290 0.8260 0.8240 0.8220
14.584188 0.8190 0.8160 0.8020 0.8020 0.7840
14.617000 0.7790 0.7790 0.7700 0.7620 0.7520
14.650188 0.7450 0.7320 0.7290 0.7220 0.7200
14.683000 0.7150 0.7020 0.6980 0.6870 0.6780
14.716188 0.6700 0.6650 0.6580 0.6520 0.6470
14.750000 0.6420 0.6350 0.6300 0.6270 0.6220
14.783188 0.6200 0.6170 0.6150 0.6130 0.6130
14.816000 0.6120 0.6120 0.6120 0.6120 0.6120
14.849188 0.6100 0.6100 0.6100 0.6100 0.6100
14.882000 0.6100 0.6100 0.6100 0.6100 0.6080
14.915188 0.6070 0.6050 0.6050 0.6050 0.6050
14.949000 0.6030 0.6030 0.6030 0.6030 0.6030
14.982188 0.6030 0.6030 0.6050 0.6030 0.6030
15.015000 0.6030 0.6020 0.6000 0.5980 0.5980
15.048188 0.5950 0.5930 0.5910 0.5900 0.5900
15.081000 0.5880 0.5860 0.5850 0.5850 0.5830
15.114188 0.5810 0.5810 0.5810 0.5800 0.5800
15.148000 0.5780 0.5780 0.5760 0.5760 0.5760
15.181188 0.5760 0.5760 0.5760 0.5760 0.5760
15.214000 0.5760 0.5760 0.5780 0.5780 0.5780
15.247188 0.5800 0.5800 0.5810 0.5850 0.5860
15.280000 0.5880 0.5900 0.5900 0.5930 0.5960
15.313188 0.6000 0.6020 0.6050 0.6070 0.6130
15.347000 0.6150 0.6170 0.6200 0.6220 0.6230
15.380188 0.6270 0.6300 0.6320 0.6330 0.6370
15.413000 0.6380 0.6400 0.6420 0.6430 0.6450
15.446188 0.6450 0.6480 0.6480 0.6520 0.6530
15.479000 0.6570 0.6580 0.6580 0.6600 0.6620
15.512188 0.6620 0.6650 0.6670 0.6680 0.6680
15.546000 0.6700 0.6700 0.6720 0.6730 0.6750
15.579188 0.6770 0.6770 0.6770 0.6780 0.6780
15.612000 0.6780 0.6780 0.6800 0.6800 0.6800
15.645188 0.6800 0.6800 0.6820 0.6830 0.6830
15.679000 0.6850 0.6850 0.6870 0.6870 0.6870
15.712188 0.6880 0.6880 0.6880 0.6900 0.6900
15.745000 0.6920 0.6920 0.6920 0.6920 0.6920
15.778188 0.6920 0.6920 0.6920 0.6920 0.6920
15.811000 0.6920 0.6920 0.6920 0.6920 0.6920
15.844188 0.6920 0.6920 0.6920 0.6920 0.6920
15.878000 0.6920 0.6920 0.6920 0.6920 0.6920
15.911188 0.6920 0.6920 0.6920 0.6920 0.6920
15.944000 0.6920 0.6920 0.6920 0.6920 0.6920
15.977188 0.6920 0.6920
##END=
