##TITLE=(-)-3-MENTHOXYACETOXY-(+)-ESTRA-1,3,5(10),6,8-PENTAEN-17-ONE
##JCAMP-DX=4.24
##DATA TYPE=INFRARED SPECTRUM
##CLASS=COBLENTZ III
##ORIGIN=THE WORCESTER FOUNDATION FOR EXPERIMENTAL BIOLOGY, Neal L. McNiven
##OWNER=COBLENTZ SOCIETY
Collection (C) 2018 copyright by the U.S. Secretary of Commerce
on behalf of the United States of America. All rights reserved.
##DATE=1964/08/07
##NAMES=17-oxoestra-1,3,5(10),6,8-pentaen-3-yl [(2-isopropyl-5-methylcyclohexyl)oxy]acetate
##MOLFORM=C30 H38 O4
##SOURCE REFERENCE=COBLENTZ NO. 5428
##$NIST ID=B6005428
##$NIST SOURCE=COBLENTZ
##$NIST IMAGE=cob5428
##SPECTROMETER/DATA SYSTEM=BECKMAN IR-7
##STATE=SOLID (KBr DISC)
##SAMPLING PROCEDURE=TRANSMISSION
##RESOLUTION=4
##DATA PROCESSING=DIGITIZED BY NIST FROM HARD COPY (FROM TWO SEGMENTS)
##XUNITS=1/CM
##YUNITS=TRANSMITTANCE
##XFACTOR=1.000000
##YFACTOR=1
##DELTAX=0.727273
##FIRSTX=646.545
##LASTX=4003.64
##FIRSTY=1
##MAXX=4003.64
##MINX=646.545
##MAXY=1.008
##MINY=0.0110044
##NPOINTS=4617
##XYDATA=(X++(Y..Y))
646.545000 1.0000 0.9990 0.9990 0.9980 0.9970
650.181367 0.9741 0.9551 0.9142 0.9130 0.9140
653.817733 0.9270 0.9400 0.9530 0.9630 0.9700
657.454100 0.9840 0.9930 0.9980 1.0020 1.0060
661.090467 1.0070 1.0070 1.0080 1.0080 1.0080
664.726833 1.0080 1.0070 1.0060 1.0050 1.0050
668.363200 1.0040 1.0030 1.0020 1.0000 0.9970
671.999566 0.9910 0.9840 0.9750 0.9581 0.9580
675.635933 0.9710 0.9720 0.9720 0.9720 0.9720
679.272300 0.9710 0.9710 0.9690 0.9670 0.9650
682.908666 0.9630 0.9580 0.9540 0.9500 0.9480
686.545033 0.9470 0.9450 0.9450 0.9430 0.9420
690.181400 0.9410 0.9400 0.9370 0.9340 0.9300
693.817766 0.9290 0.9270 0.9250 0.9230 0.9210
697.454133 0.9190 0.9160 0.9130 0.9090 0.9060
701.090500 0.9030 0.8990 0.8950 0.8920 0.8880
704.726866 0.8840 0.8800 0.8760 0.8720 0.8670
708.363233 0.8630 0.8590 0.8570 0.8570 0.8590
711.999600 0.8650 0.8700 0.8710 0.8710 0.8690
715.635966 0.8650 0.8640 0.8610 0.8600 0.8570
719.272333 0.8540 0.8490 0.8460 0.8410 0.8350
722.908699 0.8280 0.8200 0.8120 0.8030 0.7941
726.545066 0.7830 0.7730 0.7630 0.7520 0.7400
730.181433 0.7290 0.7130 0.6981 0.6831 0.6681
733.817799 0.6530 0.6530 0.6660 0.6780 0.6880
737.454166 0.7020 0.7219 0.7379 0.7480 0.7560
741.090533 0.7630 0.7730 0.7890 0.7900 0.7900
744.726899 0.7900 0.7900 0.7900 0.7890 0.7820
748.363266 0.7760 0.7650 0.7460 0.7330 0.7320
751.999633 0.7330 0.7449 0.7579 0.7689 0.7779
755.635999 0.7860 0.7910 0.7960 0.8000 0.8040
759.272366 0.8070 0.8090 0.8110 0.8140 0.8160
762.908733 0.8170 0.8170 0.8170 0.8170 0.8170
766.545099 0.8170 0.8170 0.8160 0.8150 0.8150
770.181466 0.8140 0.8120 0.8120 0.8080 0.8040
773.817832 0.7980 0.7910 0.7820 0.7760 0.7621
777.454199 0.7610 0.7620 0.7640 0.7730 0.7830
781.090566 0.7860 0.7890 0.7920 0.7940 0.7960
784.726932 0.7970 0.7980 0.7980 0.7980 0.7960
788.363299 0.7960 0.7960 0.7950 0.7940 0.7920
791.999666 0.7910 0.7890 0.7880 0.7860 0.7850
795.636032 0.7820 0.7790 0.7750 0.7690 0.7600
799.272399 0.7500 0.7370 0.7210 0.7020 0.6581
802.908766 0.6431 0.6141 0.5861 0.5581 0.5580
806.545132 0.5740 0.5870 0.6010 0.6140 0.6270
810.181499 0.6380 0.6569 0.6690 0.6810 0.6969
813.817865 0.7080 0.7080 0.7080 0.6980 0.6920
817.454232 0.6741 0.6511 0.6161 0.5085 0.4911
821.090599 0.4730 0.3951 0.3111 0.2531 0.2530
824.726965 0.2969 0.3707 0.4198 0.5145 0.5697
828.363332 0.5920 0.6269 0.6510 0.6709 0.6850
831.999699 0.7059 0.7070 0.7070 0.7070 0.7060
835.636065 0.7030 0.7010 0.7000 0.6990 0.6960
839.272432 0.6920 0.6850 0.6591 0.6251 0.6001
842.908799 0.5650 0.5310 0.5310 0.5659 0.5830
846.545165 0.6009 0.6189 0.6349 0.6738 0.7058
850.181532 0.7160 0.7290 0.7450 0.7550 0.7570
853.817899 0.7580 0.7590 0.7610 0.7620 0.7620
857.454265 0.7630 0.7630 0.7630 0.7630 0.7630
861.090632 0.7630 0.7630 0.7630 0.7630 0.7620
864.726998 0.7600 0.7570 0.7540 0.7500 0.7470
868.363365 0.7420 0.7370 0.7360 0.7290 0.7171
871.999732 0.7030 0.6900 0.6790 0.6720 0.6710
875.636098 0.6541 0.6221 0.6011 0.5662 0.5262
879.272465 0.4860 0.4770 0.4770 0.5089 0.5389
882.908832 0.5679 0.5939 0.6099 0.6239 0.6419
886.545198 0.6690 0.6760 0.6940 0.7030 0.7100
890.181565 0.7160 0.7180 0.7300 0.7310 0.7310
893.817932 0.7310 0.7310 0.7310 0.7310 0.7310
897.454298 0.7310 0.7300 0.7290 0.7240 0.7180
901.090665 0.7140 0.7100 0.7060 0.7020 0.6970
904.727032 0.6920 0.6840 0.6740 0.6621 0.6461
908.363398 0.6270 0.6040 0.5771 0.5441 0.5181
911.999765 0.4921 0.4611 0.4471 0.4410 0.4380
915.636131 0.4310 0.4270 0.4190 0.4160 0.4030
919.272498 0.4030 0.4349 0.4499 0.5167 0.5369
922.908865 0.5680 0.6000 0.6220 0.6370 0.6460
926.545231 0.6530 0.6600 0.6660 0.6690 0.6730
930.181598 0.6740 0.6740 0.6750 0.6750 0.6740
933.817965 0.6600 0.6520 0.6470 0.6380 0.6300
937.454331 0.6210 0.6200 0.6210 0.6300 0.6390
941.090698 0.6480 0.6530 0.6630 0.6710 0.6790
944.727065 0.6790 0.6790 0.6790 0.6690 0.6650
948.363431 0.6620 0.6570 0.6450 0.6241 0.5872
951.999798 0.5720 0.5560 0.5450 0.5390 0.5390
955.636164 0.5520 0.5540 0.5570 0.5590 0.5580
959.272531 0.5570 0.5510 0.5410 0.5230 0.5021
962.908898 0.4920 0.4810 0.4601 0.4600 0.4680
966.545264 0.4760 0.4830 0.4910 0.5060 0.5220
970.181631 0.5250 0.5410 0.5669 0.5750 0.5820
973.817998 0.5880 0.5940 0.5950 0.5930 0.5930
977.454364 0.5910 0.5910 0.5890 0.5890 0.5940
981.090731 0.6040 0.6160 0.6160 0.6140 0.6110
984.727098 0.6060 0.6020 0.5970 0.5920 0.5880
988.363464 0.5880 0.5920 0.5960 0.6000 0.6110
991.999831 0.6220 0.6220 0.6220 0.6210 0.6200
995.636198 0.6170 0.6140 0.6100 0.6050 0.5990
999.272564 0.5930 0.5850 0.5770 0.5670 0.5560
1002.908931 0.5440 0.5290 0.5130 0.5000 0.4930
1006.545297 0.4860 0.4840 0.4840 0.4830 0.4810
1010.181664 0.4730 0.4600 0.4470 0.4390 0.4310
1013.818031 0.4290 0.4300 0.4429 0.4510 0.4779
1017.454397 0.5130 0.5240 0.5320 0.5360 0.5360
1021.090764 0.5380 0.5360 0.5320 0.5300 0.5260
1024.727131 0.5260 0.5260 0.5260 0.5230 0.5200
1028.363497 0.5140 0.5020 0.4900 0.4780 0.4561
1031.999864 0.4370 0.3940 0.3930 0.3940 0.4020
1035.636231 0.4100 0.4180 0.4240 0.4459 0.4599
1039.272597 0.4700 0.4750 0.4770 0.4780 0.4790
1042.908964 0.4810 0.4850 0.5069 0.5199 0.5329
1046.545330 0.5440 0.5520 0.5540 0.5610 0.5610
1050.181697 0.5620 0.5630 0.5650 0.5650 0.5620
1053.818064 0.5610 0.5540 0.5490 0.5440 0.5360
1057.454430 0.5260 0.5150 0.5070 0.5000 0.4821
1061.090797 0.4610 0.4370 0.4220 0.4060 0.4050
1064.727164 0.4040 0.4040 0.4050 0.4060 0.4090
1068.363530 0.4140 0.4190 0.4240 0.4260 0.4270
1071.999897 0.4400 0.4460 0.4430 0.4311 0.4280
1075.636264 0.4190 0.4120 0.4040 0.3930 0.3800
1079.272630 0.3780 0.3800 0.3900 0.4010 0.4090
1082.908997 0.4210 0.4320 0.4390 0.4440 0.4470
1086.545364 0.4470 0.4460 0.4450 0.4440 0.4420
1090.181730 0.4420 0.4310 0.4180 0.4060 0.3930
1093.818097 0.3850 0.3800 0.3641 0.3481 0.3331
1097.454463 0.3170 0.3010 0.2850 0.2690 0.2540
1101.090830 0.2391 0.2241 0.2101 0.1961 0.1841
1104.727197 0.1710 0.1600 0.1510 0.1400 0.1260
1108.363563 0.1110 0.0960 0.0801 0.0651 0.0501
1111.999930 0.0390 0.0300 0.0240 0.0230 0.0180
1115.636297 0.0150 0.0130 0.0120 0.0110 0.0130
1119.272663 0.0180 0.0240 0.0320 0.0420 0.0639
1122.909030 0.0829 0.0969 0.1179 0.1449 0.1679
1126.545397 0.1890 0.2080 0.2260 0.2420 0.2570
1130.181763 0.2730 0.2890 0.2960 0.2960 0.2890
1133.818130 0.2760 0.2640 0.2500 0.2360 0.2011
1137.454497 0.1970 0.1910 0.1850 0.1790 0.1800
1141.090863 0.1810 0.1840 0.1840 0.1740 0.1660
1144.727230 0.1530 0.1410 0.1340 0.1161 0.1120
1148.363596 0.1090 0.1050 0.1010 0.0980 0.0940
1151.999963 0.0900 0.0860 0.0820 0.0780 0.0730
1155.636330 0.0690 0.0640 0.0590 0.0530 0.0470
1159.272696 0.0410 0.0340 0.0270 0.0260 0.0260
1162.909063 0.0270 0.0310 0.0380 0.0480 0.0600
1166.545430 0.0750 0.0909 0.1089 0.1269 0.1469
1170.181796 0.1670 0.1870 0.2120 0.2350 0.2569
1173.818163 0.2769 0.2959 0.3129 0.3299 0.3449
1177.454530 0.3590 0.3720 0.3850 0.3960 0.4070
1181.090896 0.4170 0.4270 0.4350 0.4440 0.4510
1184.727263 0.4590 0.4660 0.4730 0.4790 0.4860
1188.363629 0.4930 0.5070 0.5130 0.5200 0.5280
1191.999996 0.5360 0.5450 0.5540 0.5630 0.5640
1195.636363 0.5650 0.5650 0.5650 0.5650 0.5650
1199.272729 0.5630 0.5620 0.5570 0.5550 0.5321
1202.909096 0.5131 0.5040 0.4950 0.4801 0.4661
1206.545463 0.4520 0.4370 0.4220 0.4060 0.3861
1210.181829 0.3631 0.3172 0.2961 0.2632 0.2312
1213.818196 0.1980 0.1980 0.2120 0.2250 0.2390
1217.454563 0.2470 0.2699 0.2949 0.3219 0.3469
1221.090929 0.3700 0.3880 0.4070 0.4190 0.4190
1224.727296 0.4090 0.3980 0.3920 0.3820 0.3720
1228.363663 0.3630 0.3630 0.3840 0.4060 0.4210
1232.000029 0.4350 0.4549 0.4759 0.5138 0.5150
1235.636396 0.5140 0.5120 0.5090 0.5080 0.5070
1239.272762 0.5070 0.5130 0.5250 0.5260 0.5300
1242.909129 0.5370 0.5440 0.5450 0.5520 0.5550
1246.545496 0.5580 0.5590 0.5600 0.5600 0.5600
1250.181862 0.5570 0.5520 0.5460 0.5440 0.5450
1253.818229 0.5580 0.5650 0.5720 0.5820 0.5910
1257.454596 0.5980 0.6030 0.6040 0.6100 0.6110
1261.090962 0.6110 0.6100 0.6090 0.6090 0.6070
1264.727329 0.6040 0.5980 0.5930 0.5850 0.5780
1268.363696 0.5690 0.5331 0.5280 0.5280 0.5330
1272.000062 0.5360 0.5510 0.5570 0.5670 0.5680
1275.636429 0.5680 0.5670 0.5670 0.5680 0.5780
1279.272796 0.5850 0.5940 0.5980 0.6020 0.6030
1282.909162 0.6020 0.5960 0.5880 0.5751 0.5581
1286.545529 0.5340 0.5160 0.5030 0.4950 0.4860
1290.181895 0.4691 0.4690 0.4760 0.5068 0.5319
1293.818262 0.5450 0.5590 0.5680 0.5800 0.5880
1297.454629 0.5920 0.5940 0.5960 0.5960 0.5980
1301.090995 0.5980 0.5990 0.6000 0.6010 0.6010
1304.727362 0.6010 0.5980 0.5960 0.5890 0.5781
1308.363729 0.5630 0.5470 0.5330 0.5200 0.5120
1312.000095 0.5080 0.5030 0.4980 0.4871 0.4860
1315.636462 0.4860 0.5020 0.5100 0.5180 0.5230
1319.272829 0.5380 0.5589 0.5799 0.5949 0.6040
1322.909195 0.6090 0.6110 0.6130 0.6150 0.6170
1326.545562 0.6170 0.6180 0.6180 0.6170 0.6160
1330.181928 0.6120 0.6080 0.6020 0.5960 0.5890
1333.818295 0.5830 0.5760 0.5700 0.5650 0.5610
1337.454662 0.5590 0.5590 0.5570 0.5560 0.5550
1341.091028 0.5520 0.5490 0.5460 0.5420 0.5380
1344.727395 0.5310 0.5200 0.5070 0.4970 0.4880
1348.363762 0.4631 0.4341 0.4181 0.3911 0.3621
1352.000128 0.3330 0.3050 0.3050 0.3220 0.3400
1355.636495 0.3570 0.3749 0.3919 0.4010 0.4179
1359.272862 0.4500 0.4500 0.4500 0.4510 0.4510
1362.909228 0.4500 0.3982 0.3582 0.3132 0.2563
1366.545595 0.2380 0.2200 0.2030 0.2030 0.2160
1370.181962 0.2290 0.2420 0.2530 0.2659 0.2809
1373.818328 0.2960 0.3120 0.3300 0.3490 0.3700
1377.454695 0.3920 0.4020 0.4070 0.4070 0.4060
1381.091061 0.4060 0.4020 0.3960 0.3900 0.3820
1384.727428 0.3750 0.3750 0.3740 0.3750 0.3899
1388.363795 0.4110 0.4370 0.4660 0.5209 0.5439
1392.000161 0.5610 0.5630 0.5650 0.5670 0.5690
1395.636528 0.5700 0.5700 0.5700 0.5670 0.5560
1399.272895 0.5460 0.5280 0.5081 0.4980 0.4880
1402.909261 0.4680 0.4670 0.4680 0.4750 0.5049
1406.545628 0.5150 0.5409 0.5440 0.5490 0.5560
1410.181995 0.5660 0.5730 0.5780 0.5800 0.5820
1413.818361 0.5820 0.5820 0.5820 0.5810 0.5780
1417.454728 0.5730 0.5670 0.5311 0.5080 0.4861
1421.091095 0.4551 0.4231 0.3901 0.3581 0.3560
1424.727461 0.3250 0.3250 0.3770 0.4110 0.4250
1428.363828 0.4400 0.5028 0.5050 0.5070 0.5050
1432.000194 0.4950 0.4850 0.4530 0.4390 0.4370
1435.636561 0.4380 0.4510 0.4600 0.4690 0.5068
1439.272928 0.5150 0.5180 0.5180 0.5060 0.4940
1442.909294 0.4661 0.4560 0.4470 0.4370 0.4290
1446.545661 0.4190 0.4070 0.4060 0.4060 0.4110
1450.182028 0.4120 0.4210 0.4240 0.4240 0.4240
1453.818394 0.4240 0.4230 0.4230 0.4200 0.4180
1457.454761 0.4080 0.3990 0.3910 0.3900 0.3900
1461.091128 0.4090 0.4320 0.4500 0.4630 0.4730
1464.727494 0.4830 0.5009 0.5020 0.5020 0.5020
1468.363861 0.4950 0.4890 0.4730 0.4690 0.4690
1472.000227 0.4700 0.4919 0.5020 0.5100 0.5150
1475.636594 0.5160 0.5140 0.5130 0.5070 0.5030
1479.272961 0.4980 0.4970 0.5159 0.5469 0.5669
1482.909327 0.5830 0.5930 0.6010 0.6060 0.6090
1486.545694 0.6110 0.6120 0.6190 0.6200 0.6200
1490.182061 0.6220 0.6220 0.6220 0.6210 0.6200
1493.818427 0.6190 0.6140 0.6120 0.6090 0.6040
1497.454794 0.5980 0.5910 0.5850 0.5780 0.5730
1501.091161 0.5690 0.5660 0.5650 0.5560 0.5520
1504.727527 0.5490 0.5470 0.5440 0.5370 0.5240
1508.363894 0.5050 0.4900 0.4750 0.4601 0.4451
1512.000261 0.4450 0.4450 0.4720 0.5020 0.5130
1515.636627 0.5240 0.5360 0.5539 0.5799 0.5900
1519.272994 0.5910 0.5920 0.6030 0.6120 0.6200
1522.909360 0.6270 0.6340 0.6400 0.6450 0.6500
1526.545727 0.6540 0.6580 0.6620 0.6660 0.6690
1530.182094 0.6730 0.6770 0.6780 0.6790 0.6800
1533.818460 0.6810 0.6820 0.6820 0.6820 0.6820
1537.454827 0.6800 0.6790 0.6770 0.6760 0.6740
1541.091194 0.6730 0.6730 0.6730 0.6740 0.6770
1544.727560 0.6780 0.6800 0.6820 0.6830 0.6900
1548.363927 0.6900 0.6900 0.6900 0.6900 0.6810
1552.000294 0.6810 0.6800 0.6790 0.6760 0.6740
1555.636660 0.6710 0.6690 0.6660 0.6640 0.6640
1559.273027 0.6630 0.6520 0.6400 0.6300 0.6190
1562.909393 0.6090 0.5980 0.5880 0.5780 0.5680
1566.545760 0.5570 0.5460 0.5360 0.5340 0.5340
1570.182127 0.5390 0.5610 0.5720 0.5800 0.5850
1573.818493 0.5910 0.5960 0.6010 0.6080 0.6170
1577.454860 0.6270 0.6370 0.6390 0.6400 0.6400
1581.091227 0.6400 0.6400 0.6380 0.6261 0.6180
1584.727593 0.6110 0.6020 0.5990 0.5950 0.5900
1588.363960 0.5850 0.5810 0.5760 0.5670 0.5351
1592.000327 0.5070 0.4930 0.4790 0.4520 0.4240
1595.636693 0.3971 0.3691 0.3421 0.3291 0.3131
1599.273060 0.3130 0.3480 0.3930 0.4319 0.4659
1602.909427 0.5219 0.5419 0.5579 0.5690 0.5740
1606.545793 0.5740 0.5790 0.5850 0.5860 0.5860
1610.182160 0.5860 0.5860 0.5850 0.5750 0.5730
1613.818526 0.5700 0.5640 0.5630 0.5630 0.5640
1617.454893 0.5730 0.5780 0.5830 0.5880 0.5920
1621.091260 0.5960 0.6000 0.6030 0.6060 0.6090
1624.727626 0.6110 0.6140 0.6160 0.6180 0.6190
1628.363993 0.6190 0.6220 0.6230 0.6240 0.6250
1632.000360 0.6230 0.6220 0.6220 0.6210 0.6190
1635.636726 0.6190 0.6190 0.6180 0.6180 0.6180
1639.273093 0.6190 0.6180 0.6180 0.6180 0.6180
1642.909460 0.6180 0.6180 0.6190 0.6190 0.6200
1646.545826 0.6220 0.6230 0.6240 0.6250 0.6250
1650.182193 0.6250 0.6250 0.6260 0.6260 0.6270
1653.818560 0.6270 0.6280 0.6290 0.6290 0.6290
1657.454926 0.6300 0.6300 0.6300 0.6300 0.6300
1661.091293 0.6300 0.6300 0.6290 0.6290 0.6290
1664.727659 0.6290 0.6280 0.6270 0.6260 0.6250
1668.364026 0.6250 0.6250 0.6250 0.6240 0.6240
1672.000393 0.6250 0.6250 0.6250 0.6260 0.6260
1675.636759 0.6260 0.6250 0.6240 0.6220 0.6210
1679.273126 0.6190 0.6180 0.6170 0.6150 0.6140
1682.909493 0.6110 0.6090 0.6060 0.6040 0.5990
1686.545859 0.5950 0.5900 0.5830 0.5750 0.5680
1690.182226 0.5670 0.5680 0.5720 0.5740 0.5750
1693.818593 0.5780 0.5780 0.5780 0.5780 0.5780
1697.454959 0.5780 0.5780 0.5720 0.5660 0.5600
1701.091326 0.5550 0.5510 0.5470 0.5440 0.5390
1704.727692 0.5340 0.5290 0.5220 0.5130 0.5020
1708.364059 0.4920 0.4810 0.4660 0.4550 0.4470
1712.000426 0.4440 0.4420 0.4400 0.4370 0.4330
1715.636792 0.4270 0.4160 0.4000 0.3780 0.3490
1719.273159 0.3121 0.2651 0.2072 0.1163 0.0931
1722.909526 0.0720 0.0500 0.0280 0.0280 0.0280
1726.545892 0.0290 0.0340 0.0380 0.0430 0.0500
1730.182259 0.0580 0.0660 0.0730 0.0790 0.1000
1733.818626 0.1200 0.1389 0.1559 0.1709 0.1839
1737.454992 0.1930 0.2250 0.2530 0.2780 0.3010
1741.091359 0.3199 0.3379 0.3549 0.3689 0.3819
1744.727726 0.3950 0.4060 0.4160 0.4260 0.4360
1748.364092 0.4450 0.4610 0.4740 0.4850 0.5019
1752.000459 0.5070 0.5110 0.5140 0.5150 0.5150
1755.636825 0.5160 0.5170 0.5180 0.5180 0.5180
1759.273192 0.5170 0.5160 0.5090 0.5000 0.4950
1762.909559 0.4890 0.4780 0.4501 0.4331 0.4131
1766.545925 0.3930 0.3730 0.3540 0.3330 0.2951
1770.182292 0.2561 0.1623 0.1092 0.0881 0.0671
1773.818659 0.0470 0.0280 0.0280 0.0520 0.0750
1777.455025 0.0990 0.1209 0.1489 0.1669 0.1879
1781.091392 0.2110 0.2360 0.2630 0.2890 0.3150
1784.727759 0.3409 0.3659 0.3879 0.4079 0.4239
1788.364125 0.4370 0.4450 0.4470 0.4710 0.5069
1792.000492 0.5210 0.5330 0.5440 0.5520 0.5590
1795.636859 0.5650 0.5700 0.5750 0.5800 0.5860
1799.273225 0.5920 0.5970 0.6020 0.6060 0.6090
1802.909592 0.6120 0.6140 0.6170 0.6180 0.6180
1806.545958 0.6180 0.6180 0.6180 0.6190 0.6210
1810.182325 0.6240 0.6270 0.6290 0.6310 0.6340
1813.818692 0.6360 0.6380 0.6400 0.6420 0.6430
1817.455058 0.6450 0.6450 0.6460 0.6470 0.6480
1821.091425 0.6480 0.6500 0.6510 0.6520 0.6530
1824.727792 0.6530 0.6530 0.6530 0.6540 0.6550
1828.364158 0.6560 0.6570 0.6580 0.6590 0.6610
1832.000525 0.6620 0.6630 0.6640 0.6640 0.6650
1835.636892 0.6640 0.6650 0.6650 0.6660 0.6660
1839.273258 0.6660 0.6660 0.6660 0.6670 0.6670
1842.909625 0.6680 0.6690 0.6710 0.6720 0.6730
1846.545991 0.6740 0.6750 0.6760 0.6770 0.6770
1850.182358 0.6770 0.6780 0.6790 0.6790 0.6790
1853.818725 0.6790 0.6800 0.6800 0.6800 0.6800
1857.455091 0.6820 0.6820 0.6820 0.6840 0.6840
1861.091458 0.6850 0.6850 0.6860 0.6860 0.6860
1864.727825 0.6870 0.6870 0.6870 0.6870 0.6870
1868.364191 0.6870 0.6870 0.6870 0.6870 0.6870
1872.000558 0.6880 0.6880 0.6890 0.6890 0.6870
1875.636925 0.6870 0.6870 0.6860 0.6860 0.6850
1879.273291 0.6840 0.6830 0.6830 0.6820 0.6820
1882.909658 0.6820 0.6820 0.6820 0.6810 0.6810
1886.546025 0.6800 0.6800 0.6800 0.6810 0.6820
1890.182391 0.6820 0.6820 0.6830 0.6830 0.6840
1893.818758 0.6840 0.6860 0.6870 0.6870 0.6880
1897.455124 0.6890 0.6890 0.6890 0.6890 0.6890
1901.091491 0.6880 0.6820 0.6820 0.6820 0.6810
1904.727858 0.6800 0.6790 0.6780 0.6770 0.6760
1908.364224 0.6750 0.6730 0.6710 0.6710 0.6700
1912.000591 0.6690 0.6690 0.6690 0.6680 0.6680
1915.636958 0.6670 0.6670 0.6660 0.6660 0.6640
1919.273324 0.6630 0.6620 0.6610 0.6620 0.6620
1922.909691 0.6630 0.6640 0.6660 0.6690 0.6700
1926.546058 0.6710 0.6740 0.6750 0.6760 0.6760
1930.182424 0.6770 0.6780 0.6810 0.6840 0.6850
1933.818791 0.6860 0.6860 0.6870 0.6870 0.6880
1937.455158 0.6880 0.6890 0.6890 0.6890 0.6890
1941.091524 0.6890 0.6890 0.6890 0.6890 0.6890
1944.727891 0.6880 0.6880 0.6880 0.6870 0.6870
1948.364257 0.6870 0.6860 0.6850 0.6850 0.6840
1952.000624 0.6840 0.6840 0.6830 0.6820 0.6820
1955.636991 0.6820 0.6820 0.6820 0.6820 0.6820
1959.273357 0.6820 0.6820 0.6840 0.6840 0.6850
1962.909724 0.6850 0.6850 0.6860 0.6860 0.6860
1966.546091 0.6860 0.6860 0.6860 0.6860 0.6860
1970.182457 0.6860 0.6860 0.6850 0.6850 0.6850
1973.818824 0.6850 0.6850 0.6850 0.6840 0.6840
1977.455191 0.6840 0.6840 0.6840 0.6840 0.6840
1981.091557 0.6840 0.6840 0.6830 0.6830 0.6830
1984.727924 0.6830 0.6830 0.6830 0.6830 0.6830
1988.364290 0.6830 0.6830 0.6820 0.6820 0.6820
1992.000657 0.6820 0.6820 0.6820 0.6820 0.6820
1995.637024 0.6820 0.6820 0.6820 0.6820 0.6810
1999.273390 0.6810 0.6810 0.6810 0.6810 0.6810
2002.909757 0.6810 0.6810 0.6810 0.6810 0.6810
2006.546124 0.6810 0.6810 0.6810 0.6810 0.6807
2010.182490 0.6805 0.6802 0.6800 0.6800 0.6800
2013.818857 0.6800 0.6800 0.6800 0.6800 0.6800
2017.455224 0.6800 0.6800 0.6800 0.6800 0.6800
2021.091590 0.6800 0.6800 0.6800 0.6800 0.6800
2024.727957 0.6800 0.6800 0.6800 0.6800 0.6800
2028.364324 0.6800 0.6799 0.6797 0.6794 0.6792
2032.000690 0.6790 0.6790 0.6790 0.6790 0.6790
2035.637057 0.6790 0.6790 0.6790 0.6790 0.6790
2039.273423 0.6790 0.6790 0.6789 0.6787 0.6784
2042.909790 0.6782 0.6780 0.6780 0.6780 0.6780
2046.546157 0.6780 0.6780 0.6780 0.6780 0.6779
2050.182523 0.6776 0.6774 0.6771 0.6770 0.6770
2053.818890 0.6770 0.6770 0.6770 0.6770 0.6770
2057.455257 0.6770 0.6770 0.6770 0.6770 0.6770
2061.091623 0.6770 0.6770 0.6770 0.6770 0.6770
2064.727990 0.6770 0.6770 0.6770 0.6770 0.6770
2068.364357 0.6770 0.6770 0.6770 0.6770 0.6770
2072.000723 0.6770 0.6770 0.6770 0.6770 0.6770
2075.637090 0.6770 0.6770 0.6770 0.6770 0.6770
2079.273456 0.6770 0.6770 0.6770 0.6770 0.6770
2082.909823 0.6770 0.6770 0.6770 0.6770 0.6770
2086.546190 0.6770 0.6770 0.6770 0.6770 0.6770
2090.182556 0.6770 0.6770 0.6770 0.6770 0.6770
2093.818923 0.6770 0.6770 0.6770 0.6770 0.6770
2097.455290 0.6770 0.6770 0.6770 0.6770 0.6770
2101.091656 0.6770 0.6770 0.6770 0.6770 0.6770
2104.728023 0.6767 0.6765 0.6762 0.6760 0.6760
2108.364390 0.6760 0.6760 0.6760 0.6760 0.6760
2112.000756 0.6760 0.6760 0.6760 0.6760 0.6760
2115.637123 0.6760 0.6760 0.6760 0.6760 0.6760
2119.273490 0.6760 0.6760 0.6760 0.6760 0.6760
2122.909856 0.6760 0.6760 0.6759 0.6757 0.6754
2126.546223 0.6752 0.6750 0.6750 0.6750 0.6750
2130.182589 0.6750 0.6750 0.6750 0.6750 0.6750
2133.818956 0.6750 0.6750 0.6750 0.6750 0.6750
2137.455323 0.6750 0.6750 0.6750 0.6750 0.6750
2141.091689 0.6750 0.6750 0.6750 0.6750 0.6750
2144.728056 0.6750 0.6750 0.6750 0.6750 0.6750
2148.364423 0.6750 0.6750 0.6750 0.6750 0.6750
2152.000789 0.6750 0.6750 0.6749 0.6746 0.6744
2155.637156 0.6741 0.6740 0.6740 0.6740 0.6740
2159.273523 0.6740 0.6740 0.6740 0.6740 0.6740
2162.909889 0.6740 0.6740 0.6740 0.6740 0.6740
2166.546256 0.6740 0.6740 0.6740 0.6740 0.6740
2170.182623 0.6740 0.6740 0.6740 0.6740 0.6740
2173.818989 0.6738 0.6736 0.6733 0.6731 0.6730
2177.455356 0.6730 0.6730 0.6730 0.6730 0.6730
2181.091722 0.6730 0.6730 0.6730 0.6730 0.6730
2184.728089 0.6730 0.6730 0.6730 0.6730 0.6730
2188.364456 0.6728 0.6725 0.6723 0.6720 0.6720
2192.000822 0.6720 0.6720 0.6720 0.6718 0.6715
2195.637189 0.6713 0.6710 0.6705 0.6700 0.6695
2199.273556 0.6690 0.6683 0.6675 0.6667 0.6660
2202.909922 0.6650 0.6640 0.6630 0.6620 0.6615
2206.546289 0.6610 0.6605 0.6600 0.6600 0.6600
2210.182656 0.6600 0.6600 0.6597 0.6595 0.6592
2213.819022 0.6590 0.6587 0.6585 0.6582 0.6580
2217.455389 0.6580 0.6580 0.6580 0.6579 0.6574
2221.091755 0.6569 0.6564 0.6560 0.6560 0.6560
2224.728122 0.6560 0.6559 0.6557 0.6554 0.6552
2228.364489 0.6549 0.6547 0.6544 0.6542 0.6539
2232.000855 0.6537 0.6534 0.6532 0.6530 0.6530
2235.637222 0.6530 0.6530 0.6529 0.6527 0.6524
2239.273589 0.6522 0.6519 0.6517 0.6514 0.6512
2242.909955 0.6509 0.6506 0.6504 0.6501 0.6499
2246.546322 0.6496 0.6494 0.6491 0.6489 0.6486
2250.182689 0.6484 0.6481 0.6478 0.6473 0.6468
2253.819055 0.6463 0.6458 0.6452 0.6447 0.6442
2257.455422 0.6439 0.6436 0.6434 0.6431 0.6425
2261.091789 0.6418 0.6410 0.6403 0.6398 0.6396
2264.728155 0.6393 0.6391 0.6388 0.6386 0.6383
2268.364522 0.6381 0.6380 0.6380 0.6380 0.6380
2272.000888 0.6380 0.6380 0.6380 0.6380 0.6380
2275.637255 0.6380 0.6380 0.6380 0.6382 0.6384
2279.273622 0.6387 0.6389 0.6392 0.6394 0.6397
2282.909988 0.6399 0.6400 0.6400 0.6400 0.6400
2286.546355 0.6406 0.6414 0.6422 0.6429 0.6430
2290.182722 0.6430 0.6430 0.6430 0.6430 0.6430
2293.819088 0.6430 0.6430 0.6430 0.6430 0.6430
2297.455455 0.6430 0.6430 0.6430 0.6430 0.6430
2301.091822 0.6430 0.6430 0.6430 0.6430 0.6425
2304.728188 0.6420 0.6415 0.6410 0.6407 0.6405
2308.364555 0.6402 0.6400 0.6397 0.6395 0.6392
2312.000922 0.6390 0.6387 0.6385 0.6382 0.6380
2315.637288 0.6380 0.6380 0.6380 0.6380 0.6383
2319.273655 0.6385 0.6388 0.6390 0.6390 0.6390
2322.910021 0.6390 0.6391 0.6393 0.6396 0.6398
2326.546388 0.6401 0.6403 0.6406 0.6408 0.6410
2330.182755 0.6410 0.6410 0.6410 0.6411 0.6413
2333.819121 0.6416 0.6418 0.6420 0.6420 0.6420
2337.455488 0.6420 0.6420 0.6420 0.6420 0.6420
2341.091855 0.6420 0.6420 0.6420 0.6420 0.6419
2344.728221 0.6416 0.6414 0.6411 0.6408 0.6403
2348.364588 0.6398 0.6393 0.6389 0.6386 0.6384
2352.000955 0.6381 0.6379 0.6376 0.6374 0.6371
2355.637321 0.6367 0.6362 0.6357 0.6352 0.6350
2359.273688 0.6350 0.6350 0.6350 0.6347 0.6342
2362.910054 0.6337 0.6332 0.6325 0.6318 0.6310
2366.546421 0.6303 0.6297 0.6292 0.6287 0.6282
2370.182788 0.6278 0.6276 0.6273 0.6271 0.6268
2373.819154 0.6266 0.6263 0.6261 0.6260 0.6260
2377.455521 0.6260 0.6260 0.6262 0.6264 0.6267
2381.091888 0.6270 0.6270 0.6270 0.6270 0.6270
2384.728254 0.6270 0.6270 0.6270 0.6270 0.6272
2388.364621 0.6275 0.6277 0.6280 0.6280 0.6280
2392.000988 0.6280 0.6280 0.6280 0.6280 0.6280
2395.637354 0.6280 0.6285 0.6290 0.6295 0.6300
2399.273721 0.6302 0.6305 0.6307 0.6310 0.6315
2402.910088 0.6320 0.6325 0.6330 0.6333 0.6335
2406.546454 0.6338 0.6340 0.6340 0.6340 0.6340
2410.182821 0.6340 0.6337 0.6335 0.6332 0.6330
2413.819187 0.6330 0.6330 0.6330 0.6330 0.6327
2417.455554 0.6325 0.6322 0.6319 0.6314 0.6309
2421.091921 0.6304 0.6300 0.6300 0.6300 0.6300
2424.728287 0.6299 0.6297 0.6294 0.6292 0.6290
2428.364654 0.6290 0.6290 0.6290 0.6289 0.6287
2432.001021 0.6284 0.6282 0.6280 0.6280 0.6280
2435.637387 0.6280 0.6279 0.6277 0.6274 0.6272
2439.273754 0.6270 0.6270 0.6270 0.6270 0.6270
2442.910121 0.6270 0.6270 0.6270 0.6270 0.6270
2446.546487 0.6270 0.6270 0.6270 0.6270 0.6270
2450.182854 0.6270 0.6270 0.6270 0.6270 0.6270
2453.819221 0.6270 0.6270 0.6270 0.6270 0.6270
2457.455587 0.6270 0.6270 0.6270 0.6270 0.6270
2461.091954 0.6270 0.6270 0.6270 0.6270 0.6270
2464.728320 0.6270 0.6268 0.6266 0.6263 0.6261
2468.364687 0.6260 0.6260 0.6260 0.6260 0.6258
2472.001054 0.6256 0.6253 0.6251 0.6250 0.6250
2475.637420 0.6250 0.6250 0.6248 0.6246 0.6243
2479.273787 0.6241 0.6238 0.6236 0.6233 0.6231
2482.910154 0.6228 0.6226 0.6223 0.6220 0.6220
2486.546520 0.6220 0.6220 0.6220 0.6218 0.6215
2490.182887 0.6213 0.6210 0.6208 0.6205 0.6203
2493.819254 0.6200 0.6198 0.6195 0.6193 0.6190
2497.455620 0.6190 0.6190 0.6190 0.6190 0.6190
2501.091987 0.6190 0.6190 0.6190 0.6190 0.6190
2504.728353 0.6190 0.6190 0.6187 0.6185 0.6182
2508.364720 0.6180 0.6177 0.6175 0.6172 0.6170
2512.001087 0.6170 0.6170 0.6170 0.6170 0.6170
2515.637453 0.6170 0.6170 0.6170 0.6167 0.6165
2519.273820 0.6162 0.6159 0.6157 0.6154 0.6152
2522.910187 0.6150 0.6150 0.6150 0.6150 0.6149
2526.546553 0.6147 0.6144 0.6142 0.6140 0.6140
2530.182920 0.6140 0.6140 0.6140 0.6140 0.6140
2533.819287 0.6140 0.6140 0.6140 0.6140 0.6140
2537.455653 0.6139 0.6137 0.6134 0.6132 0.6129
2541.092020 0.6127 0.6124 0.6122 0.6120 0.6120
2544.728387 0.6120 0.6120 0.6120 0.6120 0.6120
2548.364753 0.6120 0.6120 0.6120 0.6120 0.6120
2552.001120 0.6119 0.6116 0.6114 0.6111 0.6110
2555.637486 0.6110 0.6110 0.6110 0.6110 0.6110
2559.273853 0.6110 0.6110 0.6110 0.6110 0.6110
2562.910220 0.6110 0.6110 0.6110 0.6110 0.6110
2566.546586 0.6108 0.6106 0.6103 0.6101 0.6100
2570.182953 0.6100 0.6100 0.6100 0.6098 0.6096
2573.819320 0.6093 0.6091 0.6090 0.6090 0.6090
2577.455686 0.6090 0.6090 0.6090 0.6090 0.6090
2581.092053 0.6090 0.6090 0.6090 0.6090 0.6088
2584.728420 0.6085 0.6083 0.6080 0.6078 0.6075
2588.364786 0.6073 0.6070 0.6068 0.6065 0.6063
2592.001153 0.6060 0.6055 0.6050 0.6045 0.6040
2595.637519 0.6038 0.6035 0.6033 0.6030 0.6028
2599.273886 0.6025 0.6023 0.6020 0.6018 0.6015
2602.910253 0.6013 0.6010 0.6007 0.6005 0.6002
2606.546619 0.6000 0.5997 0.5995 0.5992 0.5990
2610.182986 0.5990 0.5990 0.5990 0.5990 0.5987
2613.819353 0.5985 0.5982 0.5980 0.5980 0.5980
2617.455719 0.5980 0.5980 0.5980 0.5980 0.5980
2621.092086 0.5980 0.5977 0.5975 0.5972 0.5970
2624.728453 0.5970 0.5970 0.5970 0.5969 0.5967
2628.364819 0.5964 0.5962 0.5960 0.5960 0.5960
2632.001186 0.5960 0.5959 0.5957 0.5954 0.5952
2635.637553 0.5950 0.5950 0.5950 0.5950 0.5949
2639.273919 0.5947 0.5944 0.5941 0.5940 0.5940
2642.910286 0.5940 0.5940 0.5939 0.5936 0.5934
2646.546652 0.5931 0.5930 0.5930 0.5930 0.5930
2650.183019 0.5930 0.5930 0.5930 0.5930 0.5929
2653.819386 0.5926 0.5924 0.5921 0.5919 0.5916
2657.455752 0.5914 0.5911 0.5910 0.5910 0.5910
2661.092119 0.5910 0.5909 0.5906 0.5903 0.5901
2664.728486 0.5898 0.5896 0.5893 0.5891 0.5888
2668.364852 0.5886 0.5883 0.5881 0.5880 0.5880
2672.001219 0.5880 0.5880 0.5878 0.5876 0.5873
2675.637586 0.5871 0.5870 0.5870 0.5870 0.5870
2679.273952 0.5868 0.5866 0.5863 0.5861 0.5860
2682.910319 0.5860 0.5860 0.5860 0.5858 0.5855
2686.546686 0.5853 0.5850 0.5850 0.5850 0.5850
2690.183052 0.5850 0.5850 0.5850 0.5850 0.5850
2693.819419 0.5848 0.5845 0.5843 0.5840 0.5840
2697.455785 0.5840 0.5840 0.5840 0.5838 0.5835
2701.092152 0.5833 0.5830 0.5827 0.5825 0.5822
2704.728519 0.5820 0.5817 0.5815 0.5812 0.5810
2708.364885 0.5810 0.5810 0.5810 0.5809 0.5802
2712.001252 0.5794 0.5787 0.5779 0.5772 0.5764
2715.637619 0.5757 0.5750 0.5750 0.5750 0.5750
2719.273985 0.5750 0.5747 0.5745 0.5742 0.5739
2722.910352 0.5737 0.5734 0.5732 0.5729 0.5727
2726.546719 0.5724 0.5722 0.5720 0.5720 0.5720
2730.183085 0.5720 0.5719 0.5717 0.5714 0.5712
2733.819452 0.5709 0.5707 0.5704 0.5702 0.5700
2737.455818 0.5700 0.5700 0.5700 0.5700 0.5700
2741.092185 0.5700 0.5700 0.5700 0.5700 0.5700
2744.728552 0.5700 0.5700 0.5700 0.5700 0.5700
2748.364918 0.5700 0.5700 0.5700 0.5700 0.5700
2752.001285 0.5700 0.5700 0.5700 0.5700 0.5700
2755.637652 0.5700 0.5700 0.5700 0.5700 0.5700
2759.274018 0.5700 0.5700 0.5700 0.5700 0.5700
2762.910385 0.5700 0.5700 0.5700 0.5700 0.5698
2766.546752 0.5696 0.5693 0.5691 0.5687 0.5682
2770.183118 0.5677 0.5672 0.5668 0.5666 0.5663
2773.819485 0.5661 0.5658 0.5656 0.5653 0.5651
2777.455852 0.5648 0.5646 0.5643 0.5641 0.5636
2781.092218 0.5631 0.5626 0.5621 0.5614 0.5606
2784.728585 0.5599 0.5591 0.5575 0.5557 0.5540
2788.364951 0.5522 0.5507 0.5492 0.5477 0.5462
2792.001318 0.5453 0.5446 0.5438 0.5431 0.5421
2795.637685 0.5411 0.5401 0.5391 0.5385 0.5380
2799.274051 0.5375 0.5370 0.5365 0.5360 0.5355
2802.910418 0.5350 0.5345 0.5340 0.5335 0.5330
2806.546785 0.5325 0.5320 0.5315 0.5309 0.5302
2810.183151 0.5294 0.5287 0.5279 0.5272 0.5264
2813.819518 0.5257 0.5248 0.5236 0.5223 0.5211
2817.455885 0.5198 0.5185 0.5173 0.5160 0.5146
2821.092251 0.5126 0.5106 0.5086 0.5067 0.5055
2824.728618 0.5042 0.5030 0.5017 0.5005 0.4992
2828.364985 0.4979 0.4963 0.4935 0.4908 0.4880
2832.001351 0.4850 0.4812 0.4774 0.4737 0.4696
2835.637718 0.4650 0.4605 0.4559 0.4510 0.4457
2839.274084 0.4404 0.4352 0.4295 0.4232 0.4169
2842.910451 0.4106 0.4040 0.3970 0.3899 0.3829
2846.546818 0.3753 0.3670 0.3587 0.3504 0.3415
2850.183184 0.3320 0.3224 0.3128 0.3025 0.2915
2853.819551 0.2804 0.2694 0.2608 0.2545 0.2482
2857.455918 0.2419 0.2357 0.2297 0.2237 0.2176
2861.092284 0.2116 0.2056 0.1995 0.1935 0.1873
2864.728651 0.1809 0.1745 0.1681 0.1660 0.1660
2868.365018 0.1660 0.1660 0.1707 0.1775 0.1843
2872.001384 0.1910 0.1978 0.2046 0.2114 0.2182
2875.637751 0.2250 0.2318 0.2386 0.2454 0.2514
2879.274117 0.2572 0.2630 0.2687 0.2737 0.2785
2882.910484 0.2833 0.2881 0.2900 0.2913 0.2925
2886.546851 0.2938 0.2940 0.2940 0.2940 0.2940
2890.183217 0.2938 0.2935 0.2933 0.2930 0.2930
2893.819584 0.2930 0.2930 0.2930 0.2916 0.2901
2897.455951 0.2885 0.2870 0.2850 0.2830 0.2810
2901.092317 0.2790 0.2767 0.2745 0.2722 0.2699
2904.728684 0.2669 0.2639 0.2609 0.2578 0.2540
2908.365051 0.2503 0.2465 0.2426 0.2376 0.2326
2912.001417 0.2276 0.2225 0.2167 0.2109 0.2051
2915.637784 0.1991 0.1919 0.1846 0.1773 0.1697
2919.274151 0.1607 0.1516 0.1426 0.1343 0.1297
2922.910517 0.1251 0.1205 0.1164 0.1142 0.1119
2926.546884 0.1097 0.1080 0.1080 0.1080 0.1080
2930.183250 0.1092 0.1132 0.1172 0.1212 0.1239
2933.819617 0.1237 0.1234 0.1232 0.1229 0.1227
2937.455984 0.1224 0.1222 0.1216 0.1206 0.1196
2941.092350 0.1186 0.1176 0.1166 0.1156 0.1146
2944.728717 0.1127 0.1094 0.1061 0.1029 0.0999
2948.365084 0.0974 0.0949 0.0924 0.0909 0.0906
2952.001450 0.0904 0.0901 0.0920 0.0958 0.0996
2955.637817 0.1033 0.1106 0.1206 0.1307 0.1408
2959.274184 0.1533 0.1676 0.1820 0.1963 0.2087
2962.910550 0.2197 0.2308 0.2418 0.2523 0.2623
2966.546917 0.2724 0.2825 0.2915 0.3001 0.3086
2970.183284 0.3172 0.3251 0.3326 0.3401 0.3477
2973.819650 0.3547 0.3615 0.3683 0.3751 0.3811
2977.456017 0.3869 0.3927 0.3985 0.4038 0.4089
2981.092383 0.4140 0.4191 0.4235 0.4278 0.4321
2984.728750 0.4363 0.4402 0.4440 0.4477 0.4515
2988.365117 0.4548 0.4581 0.4614 0.4646 0.4675
2992.001483 0.4702 0.4730 0.4758 0.4783 0.4808
2995.637850 0.4833 0.4858 0.4900 0.4943 0.4986
2999.274217 0.5028 0.5102 0.5178 0.5253 0.5329
3002.910583 0.5332 0.5335 0.5338 0.5340 0.5337
3006.546950 0.5335 0.5332 0.5330 0.5330 0.5330
3010.183317 0.5330 0.5330 0.5330 0.5330 0.5330
3013.819683 0.5329 0.5324 0.5319 0.5314 0.5307
3017.456050 0.5290 0.5272 0.5254 0.5236 0.5216
3021.092416 0.5196 0.5176 0.5155 0.5133 0.5110
3024.728783 0.5088 0.5066 0.5048 0.5031 0.5013
3028.365150 0.5000 0.5000 0.5000 0.5000 0.5006
3032.001516 0.5029 0.5051 0.5074 0.5097 0.5119
3035.637883 0.5142 0.5165 0.5187 0.5207 0.5227
3039.274250 0.5248 0.5267 0.5285 0.5302 0.5320
3042.910616 0.5330 0.5330 0.5330 0.5330 0.5329
3046.546983 0.5326 0.5324 0.5321 0.5319 0.5316
3050.183350 0.5314 0.5311 0.5304 0.5291 0.5279
3053.819716 0.5266 0.5250 0.5230 0.5209 0.5189
3057.456083 0.5172 0.5157 0.5142 0.5127 0.5110
3061.092450 0.5093 0.5075 0.5057 0.5050 0.5050
3064.728816 0.5050 0.5050 0.5053 0.5058 0.5063
3068.365183 0.5068 0.5086 0.5108 0.5131 0.5153
3072.001549 0.5173 0.5190 0.5208 0.5225 0.5237
3075.637916 0.5247 0.5258 0.5268 0.5278 0.5288
3079.274283 0.5298 0.5308 0.5314 0.5319 0.5324
3082.910649 0.5329 0.5330 0.5330 0.5330 0.5330
3086.547016 0.5330 0.5330 0.5330 0.5330 0.5330
3090.183383 0.5330 0.5330 0.5330 0.5332 0.5335
3093.819749 0.5337 0.5340 0.5340 0.5340 0.5340
3097.456116 0.5340 0.5342 0.5345 0.5347 0.5350
3101.092483 0.5350 0.5350 0.5350 0.5350 0.5353
3104.728849 0.5355 0.5358 0.5360 0.5360 0.5360
3108.365216 0.5360 0.5360 0.5363 0.5365 0.5368
3112.001582 0.5370 0.5373 0.5375 0.5378 0.5380
3115.637949 0.5377 0.5375 0.5372 0.5370 0.5367
3119.274316 0.5365 0.5362 0.5360 0.5360 0.5360
3122.910682 0.5360 0.5360 0.5360 0.5360 0.5360
3126.547049 0.5360 0.5360 0.5360 0.5360 0.5360
3130.183416 0.5360 0.5360 0.5360 0.5360 0.5360
3133.819782 0.5360 0.5360 0.5359 0.5357 0.5354
3137.456149 0.5352 0.5350 0.5350 0.5350 0.5350
3141.092516 0.5349 0.5347 0.5344 0.5342 0.5339
3144.728882 0.5336 0.5334 0.5331 0.5329 0.5326
3148.365249 0.5324 0.5321 0.5319 0.5316 0.5314
3152.001616 0.5311 0.5310 0.5310 0.5310 0.5310
3155.637982 0.5310 0.5310 0.5310 0.5310 0.5310
3159.274349 0.5310 0.5310 0.5310 0.5310 0.5310
3162.910715 0.5310 0.5310 0.5312 0.5314 0.5317
3166.547082 0.5319 0.5320 0.5320 0.5320 0.5320
3170.183449 0.5320 0.5320 0.5320 0.5320 0.5322
3173.819815 0.5324 0.5327 0.5329 0.5330 0.5330
3177.456182 0.5330 0.5330 0.5330 0.5330 0.5330
3181.092549 0.5330 0.5330 0.5330 0.5330 0.5330
3184.728915 0.5330 0.5330 0.5330 0.5330 0.5330
3188.365282 0.5330 0.5330 0.5330 0.5330 0.5330
3192.001649 0.5330 0.5330 0.5330 0.5330 0.5330
3195.638015 0.5330 0.5330 0.5330 0.5330 0.5330
3199.274382 0.5330 0.5330 0.5330 0.5330 0.5330
3202.910749 0.5330 0.5330 0.5330 0.5327 0.5325
3206.547115 0.5322 0.5320 0.5320 0.5320 0.5320
3210.183482 0.5320 0.5320 0.5320 0.5320 0.5320
3213.819848 0.5320 0.5320 0.5320 0.5320 0.5320
3217.456215 0.5320 0.5320 0.5320 0.5320 0.5320
3221.092582 0.5320 0.5320 0.5320 0.5320 0.5320
3224.728948 0.5319 0.5317 0.5314 0.5312 0.5310
3228.365315 0.5310 0.5310 0.5310 0.5310 0.5310
3232.001682 0.5310 0.5310 0.5310 0.5310 0.5310
3235.638048 0.5310 0.5310 0.5310 0.5310 0.5310
3239.274415 0.5310 0.5310 0.5310 0.5310 0.5310
3242.910782 0.5310 0.5310 0.5310 0.5309 0.5306
3246.547148 0.5304 0.5301 0.5300 0.5300 0.5300
3250.183515 0.5300 0.5300 0.5300 0.5300 0.5300
3253.819881 0.5299 0.5296 0.5294 0.5291 0.5290
3257.456248 0.5290 0.5290 0.5290 0.5290 0.5290
3261.092615 0.5290 0.5290 0.5289 0.5286 0.5283
3264.728981 0.5281 0.5280 0.5280 0.5280 0.5280
3268.365348 0.5280 0.5280 0.5280 0.5280 0.5280
3272.001715 0.5280 0.5280 0.5280 0.5280 0.5280
3275.638081 0.5280 0.5280 0.5280 0.5280 0.5280
3279.274448 0.5280 0.5280 0.5280 0.5280 0.5280
3282.910815 0.5278 0.5275 0.5273 0.5270 0.5268
3286.547181 0.5265 0.5263 0.5260 0.5260 0.5260
3290.183548 0.5260 0.5260 0.5260 0.5260 0.5260
3293.819915 0.5260 0.5258 0.5255 0.5253 0.5250
3297.456281 0.5250 0.5250 0.5250 0.5250 0.5247
3301.092648 0.5245 0.5242 0.5240 0.5237 0.5235
3304.729014 0.5232 0.5230 0.5230 0.5230 0.5230
3308.365381 0.5230 0.5230 0.5230 0.5230 0.5230
3312.001748 0.5227 0.5225 0.5222 0.5220 0.5220
3315.638114 0.5220 0.5220 0.5220 0.5217 0.5215
3319.274481 0.5212 0.5210 0.5207 0.5205 0.5202
3322.910848 0.5200 0.5200 0.5200 0.5200 0.5200
3326.547214 0.5200 0.5200 0.5200 0.5199 0.5197
3330.183581 0.5194 0.5192 0.5189 0.5187 0.5184
3333.819948 0.5182 0.5178 0.5173 0.5168 0.5163
3337.456314 0.5159 0.5157 0.5154 0.5152 0.5148
3341.092681 0.5143 0.5138 0.5133 0.5130 0.5130
3344.729048 0.5130 0.5130 0.5129 0.5126 0.5124
3348.365414 0.5121 0.5120 0.5120 0.5120 0.5120
3352.001781 0.5120 0.5120 0.5120 0.5120 0.5119
3355.638147 0.5116 0.5114 0.5111 0.5110 0.5110
3359.274514 0.5110 0.5110 0.5110 0.5110 0.5110
3362.910881 0.5110 0.5108 0.5106 0.5103 0.5101
3366.547247 0.5100 0.5100 0.5100 0.5100 0.5100
3370.183614 0.5100 0.5100 0.5100 0.5100 0.5100
3373.819981 0.5100 0.5100 0.5100 0.5100 0.5100
3377.456347 0.5100 0.5098 0.5096 0.5093 0.5091
3381.092714 0.5088 0.5086 0.5083 0.5081 0.5078
3384.729081 0.5075 0.5073 0.5070 0.5063 0.5056
3388.365447 0.5048 0.5041 0.5040 0.5040 0.5040
3392.001814 0.5040 0.5040 0.5040 0.5040 0.5040
3395.638180 0.5040 0.5040 0.5040 0.5040 0.5038
3399.274547 0.5035 0.5033 0.5030 0.5028 0.5025
3402.910914 0.5022 0.5020 0.5020 0.5020 0.5020
3406.547280 0.5020 0.5020 0.5020 0.5020 0.5020
3410.183647 0.5020 0.5020 0.5020 0.5020 0.5020
3413.820014 0.5020 0.5020 0.5019 0.5014 0.5009
3417.456380 0.5004 0.5000 0.5000 0.5000 0.5000
3421.092747 0.5000 0.5000 0.5000 0.5000 0.4999
3424.729114 0.4997 0.4994 0.4992 0.4989 0.4984
3428.365480 0.4979 0.4974 0.4968 0.4960 0.4953
3432.001847 0.4945 0.4938 0.4930 0.4923 0.4915
3435.638214 0.4908 0.4900 0.4893 0.4885 0.4877
3439.274580 0.4870 0.4862 0.4855 0.4849 0.4847
3442.910947 0.4844 0.4841 0.4837 0.4829 0.4822
3446.547313 0.4814 0.4811 0.4814 0.4816 0.4819
3450.183680 0.4825 0.4835 0.4845 0.4855 0.4863
3453.820047 0.4868 0.4873 0.4878 0.4881 0.4884
3457.456413 0.4886 0.4889 0.4894 0.4902 0.4909
3461.092780 0.4917 0.4926 0.4936 0.4946 0.4956
3464.729147 0.4968 0.4980 0.4993 0.5005 0.5013
3468.365513 0.5018 0.5023 0.5028 0.5033 0.5038
3472.001880 0.5044 0.5049 0.5052 0.5054 0.5057
3475.638247 0.5059 0.5062 0.5064 0.5067 0.5069
3479.274613 0.5072 0.5074 0.5077 0.5080 0.5082
3482.910980 0.5085 0.5087 0.5090 0.5092 0.5095
3486.547347 0.5097 0.5100 0.5100 0.5100 0.5100
3490.183713 0.5100 0.5104 0.5109 0.5114 0.5119
3493.820080 0.5122 0.5125 0.5127 0.5130 0.5130
3497.456446 0.5130 0.5130 0.5130 0.5130 0.5130
3501.092813 0.5130 0.5130 0.5130 0.5130 0.5130
3504.729180 0.5130 0.5130 0.5130 0.5130 0.5130
3508.365546 0.5130 0.5130 0.5130 0.5130 0.5133
3512.001913 0.5135 0.5138 0.5140 0.5143 0.5145
3515.638280 0.5148 0.5150 0.5150 0.5150 0.5150
3519.274646 0.5149 0.5144 0.5139 0.5134 0.5129
3522.911013 0.5124 0.5119 0.5114 0.5108 0.5101
3526.547380 0.5093 0.5086 0.5079 0.5077 0.5074
3530.183746 0.5072 0.5070 0.5070 0.5070 0.5070
3533.820113 0.5071 0.5073 0.5076 0.5078 0.5082
3537.456479 0.5087 0.5092 0.5097 0.5103 0.5110
3541.092846 0.5118 0.5125 0.5132 0.5137 0.5142
3544.729213 0.5147 0.5153 0.5161 0.5168 0.5176
3548.365579 0.5182 0.5187 0.5192 0.5197 0.5202
3552.001946 0.5207 0.5212 0.5217 0.5221 0.5224
3555.638313 0.5226 0.5229 0.5230 0.5230 0.5230
3559.274679 0.5230 0.5233 0.5238 0.5243 0.5248
3562.911046 0.5250 0.5250 0.5250 0.5250 0.5250
3566.547413 0.5250 0.5250 0.5250 0.5252 0.5254
3570.183779 0.5257 0.5259 0.5260 0.5260 0.5260
3573.820146 0.5260 0.5262 0.5264 0.5267 0.5269
3577.456513 0.5270 0.5270 0.5270 0.5270 0.5272
3581.092879 0.5274 0.5277 0.5279 0.5280 0.5280
3584.729246 0.5280 0.5280 0.5280 0.5280 0.5280
3588.365612 0.5280 0.5280 0.5280 0.5280 0.5280
3592.001979 0.5282 0.5285 0.5287 0.5290 0.5290
3595.638346 0.5290 0.5290 0.5290 0.5292 0.5295
3599.274712 0.5297 0.5300 0.5302 0.5305 0.5307
3602.911079 0.5310 0.5310 0.5310 0.5310 0.5310
3606.547446 0.5310 0.5310 0.5310 0.5310 0.5310
3610.183812 0.5310 0.5310 0.5310 0.5310 0.5310
3613.820179 0.5310 0.5310 0.5310 0.5310 0.5310
3617.456546 0.5310 0.5313 0.5315 0.5318 0.5320
3621.092912 0.5320 0.5320 0.5320 0.5320 0.5320
3624.729279 0.5320 0.5320 0.5320 0.5320 0.5320
3628.365645 0.5320 0.5320 0.5320 0.5320 0.5320
3632.002012 0.5320 0.5320 0.5320 0.5320 0.5320
3635.638379 0.5320 0.5320 0.5320 0.5320 0.5320
3639.274745 0.5320 0.5320 0.5320 0.5320 0.5320
3642.911112 0.5320 0.5320 0.5320 0.5320 0.5320
3646.547479 0.5320 0.5320 0.5320 0.5320 0.5320
3650.183845 0.5320 0.5320 0.5320 0.5320 0.5320
3653.820212 0.5320 0.5320 0.5320 0.5320 0.5320
3657.456579 0.5320 0.5320 0.5320 0.5320 0.5320
3661.092945 0.5320 0.5320 0.5320 0.5320 0.5320
3664.729312 0.5320 0.5320 0.5320 0.5320 0.5320
3668.365679 0.5320 0.5320 0.5320 0.5320 0.5320
3672.002045 0.5320 0.5320 0.5320 0.5320 0.5320
3675.638412 0.5320 0.5320 0.5320 0.5320 0.5320
3679.274778 0.5320 0.5320 0.5320 0.5320 0.5320
3682.911145 0.5320 0.5320 0.5320 0.5320 0.5320
3686.547512 0.5320 0.5320 0.5320 0.5320 0.5320
3690.183878 0.5320 0.5320 0.5320 0.5320 0.5318
3693.820245 0.5315 0.5313 0.5310 0.5310 0.5310
3697.456612 0.5310 0.5310 0.5310 0.5310 0.5310
3701.092978 0.5310 0.5310 0.5310 0.5310 0.5310
3704.729345 0.5310 0.5310 0.5310 0.5310 0.5310
3708.365712 0.5310 0.5310 0.5310 0.5310 0.5310
3712.002078 0.5310 0.5310 0.5310 0.5310 0.5310
3715.638445 0.5310 0.5310 0.5310 0.5310 0.5310
3719.274812 0.5310 0.5310 0.5310 0.5310 0.5310
3722.911178 0.5310 0.5310 0.5310 0.5310 0.5310
3726.547545 0.5310 0.5310 0.5310 0.5310 0.5310
3730.183911 0.5310 0.5310 0.5310 0.5310 0.5310
3733.820278 0.5310 0.5310 0.5310 0.5310 0.5310
3737.456645 0.5310 0.5310 0.5310 0.5310 0.5310
3741.093011 0.5310 0.5310 0.5310 0.5310 0.5310
3744.729378 0.5310 0.5310 0.5310 0.5310 0.5310
3748.365745 0.5310 0.5310 0.5310 0.5310 0.5310
3752.002111 0.5310 0.5310 0.5310 0.5310 0.5310
3755.638478 0.5310 0.5309 0.5306 0.5304 0.5301
3759.274845 0.5300 0.5300 0.5300 0.5300 0.5300
3762.911211 0.5300 0.5300 0.5300 0.5300 0.5300
3766.547578 0.5300 0.5300 0.5300 0.5300 0.5300
3770.183944 0.5300 0.5298 0.5296 0.5293 0.5291
3773.820311 0.5290 0.5290 0.5290 0.5290 0.5290
3777.456678 0.5290 0.5290 0.5290 0.5290 0.5290
3781.093044 0.5290 0.5290 0.5290 0.5290 0.5290
3784.729411 0.5290 0.5288 0.5285 0.5283 0.5280
3788.365778 0.5280 0.5280 0.5280 0.5280 0.5280
3792.002144 0.5280 0.5280 0.5280 0.5280 0.5280
3795.638511 0.5280 0.5280 0.5278 0.5275 0.5273
3799.274878 0.5270 0.5270 0.5270 0.5270 0.5270
3802.911244 0.5270 0.5270 0.5270 0.5270 0.5267
3806.547611 0.5265 0.5262 0.5260 0.5255 0.5250
3810.183978 0.5245 0.5240 0.5237 0.5235 0.5232
3813.820344 0.5230 0.5225 0.5219 0.5214 0.5210
3817.456711 0.5210 0.5210 0.5210 0.5210 0.5207
3821.093077 0.5204 0.5202 0.5200 0.5200 0.5200
3824.729444 0.5200 0.5200 0.5200 0.5200 0.5200
3828.365811 0.5200 0.5200 0.5200 0.5200 0.5200
3832.002177 0.5200 0.5200 0.5200 0.5200 0.5200
3835.638544 0.5200 0.5200 0.5200 0.5200 0.5200
3839.274911 0.5200 0.5200 0.5200 0.5200 0.5200
3842.911277 0.5199 0.5197 0.5194 0.5191 0.5190
3846.547644 0.5190 0.5190 0.5190 0.5190 0.5190
3850.184011 0.5190 0.5190 0.5189 0.5186 0.5184
3853.820377 0.5181 0.5180 0.5180 0.5180 0.5180
3857.456744 0.5180 0.5180 0.5180 0.5180 0.5180
3861.093111 0.5180 0.5180 0.5180 0.5180 0.5180
3864.729477 0.5180 0.5180 0.5180 0.5180 0.5180
3868.365844 0.5180 0.5180 0.5180 0.5180 0.5180
3872.002210 0.5178 0.5176 0.5173 0.5171 0.5170
3875.638577 0.5170 0.5170 0.5170 0.5170 0.5170
3879.274944 0.5170 0.5170 0.5170 0.5170 0.5170
3882.911310 0.5170 0.5170 0.5170 0.5170 0.5170
3886.547677 0.5172 0.5175 0.5177 0.5180 0.5180
3890.184044 0.5180 0.5180 0.5180 0.5180 0.5180
3893.820410 0.5180 0.5180 0.5180 0.5180 0.5180
3897.456777 0.5180 0.5178 0.5175 0.5173 0.5170
3901.093144 0.5172 0.5175 0.5177 0.5180 0.5180
3904.729510 0.5180 0.5180 0.5180 0.5180 0.5180
3908.365877 0.5180 0.5180 0.5180 0.5180 0.5180
3912.002243 0.5180 0.5180 0.5180 0.5180 0.5180
3915.638610 0.5180 0.5180 0.5180 0.5180 0.5180
3919.274977 0.5180 0.5180 0.5180 0.5180 0.5180
3922.911343 0.5180 0.5180 0.5180 0.5180 0.5180
3926.547710 0.5180 0.5180 0.5180 0.5180 0.5180
3930.184077 0.5180 0.5180 0.5180 0.5180 0.5180
3933.820443 0.5180 0.5180 0.5180 0.5180 0.5180
3937.456810 0.5180 0.5180 0.5180 0.5180 0.5180
3941.093177 0.5180 0.5180 0.5180 0.5180 0.5179
3944.729543 0.5176 0.5174 0.5171 0.5170 0.5170
3948.365910 0.5170 0.5170 0.5170 0.5170 0.5170
3952.002277 0.5170 0.5169 0.5166 0.5164 0.5161
3955.638643 0.5160 0.5160 0.5160 0.5160 0.5159
3959.275010 0.5156 0.5154 0.5151 0.5150 0.5150
3962.911376 0.5150 0.5150 0.5150 0.5150 0.5150
3966.547743 0.5150 0.5148 0.5146 0.5143 0.5141
3970.184110 0.5138 0.5136 0.5133 0.5131 0.5130
3973.820476 0.5130 0.5130 0.5130 0.5130 0.5130
3977.456843 0.5130 0.5130 0.5126 0.5121 0.5116
3981.093210 0.5111 0.5110 0.5110 0.5110 0.5110
3984.729576 0.5110 0.5110 0.5110 0.5110 0.5108
3988.365943 0.5105 0.5103 0.5100 0.5100 0.5100
3992.002310 0.5100 0.5100 0.5100 0.5100 0.5100
3995.638676 0.5100 0.5100 0.5100 0.5100 0.5100
3999.275043 0.5098 0.5095 0.5093 0.5090 0.5090
4002.911410 0.5090 0.5090
##END=
