##TITLE=BARIUM PHOSPHATE, DIBASIC
$$ C.P.
##JCAMP-DX=4.24
##DATA TYPE=INFRARED SPECTRUM
##CLASS=COBLENTZ
##ORIGIN=MELLON INSTITUTE
##OWNER=COBLENTZ SOCIETY
Collection (C) 2018 copyright by the U.S. Secretary of Commerce
on behalf of the United States of America. All rights reserved.
##DATE=Not specified, most likely prior to 1970
##MOLFORM=Ba H P O4
##SOURCE REFERENCE=COBLENTZ NO. 580
##$NIST ID=B6000580
##$NIST SOURCE=COBLENTZ
##$NIST IMAGE=cob580
##SPECTROMETER/DATA SYSTEM=Not specified, most likely a prism, grating, or hybrid spectrometer.
##STATE=SOLID (NUJOL MULL)
##PATH LENGTH=
$$SPECTRAL CONTAMINATION DUE TO OIL AROUND 2900, 1450, 1380 CM^-^1
##SAMPLING PROCEDURE=TRANSMISSION
##RESOLUTION=4
##DATA PROCESSING=DIGITIZED BY NIST FROM HARD COPY
##XUNITS=MICROMETERS
##YUNITS=TRANSMITTANCE
##XFACTOR=1.000000
##YFACTOR=1
##DELTAX=000.006663
##FIRSTX=2.061
##LASTX=15.9983
##FIRSTY=0.901
##MAXX=15.9983
##MINX=2.061
##MAXY=0.976
##MINY=0.053
##NPOINTS=2093
##XYDATA=(X++(Y..Y))
2.061000 0.9010 0.9030 0.9030 0.9040 0.9040
2.094329 0.9060 0.9090 0.9130 0.9130 0.9140
2.127000 0.9160 0.9160 0.9180 0.9180 0.9210
2.160329 0.9210 0.9230 0.9240 0.9260 0.9280
2.194000 0.9280 0.9290 0.9290 0.9290 0.9290
2.227329 0.9290 0.9310 0.9310 0.9310 0.9290
2.260000 0.9260 0.9260 0.9240 0.9230 0.9230
2.293329 0.9230 0.9230 0.9240 0.9260 0.9280
2.327000 0.9280 0.9280 0.9290 0.9290 0.9310
2.360329 0.9310 0.9330 0.9340 0.9360 0.9360
2.394000 0.9360 0.9360 0.9390 0.9390 0.9390
2.427329 0.9390 0.9410 0.9430 0.9430 0.9480
2.460000 0.9490 0.9510 0.9530 0.9560 0.9580
2.493329 0.9590 0.9590 0.9590 0.9590 0.9590
2.527000 0.9590 0.9590 0.9590 0.9590 0.9610
2.560329 0.9610 0.9610 0.9610 0.9610 0.9610
2.594000 0.9630 0.9640 0.9660 0.9690 0.9730
2.627329 0.9740 0.9760 0.9730 0.9660 0.9630
2.660000 0.9580 0.9580 0.9630 0.9680 0.9710
2.693329 0.9730 0.9730 0.9730 0.9680 0.9630
2.727000 0.9630 0.9610 0.9590 0.9590 0.9580
2.760329 0.9530 0.9530 0.9510 0.9510 0.9490
2.793000 0.9460 0.9440 0.9430 0.9410 0.9380
2.826329 0.9340 0.9290 0.9280 0.9240 0.9230
2.860000 0.9180 0.9140 0.9110 0.9090 0.9090
2.893329 0.9090 0.9090 0.9090 0.9080 0.9060
2.927000 0.9040 0.9040 0.9030 0.9010 0.8990
2.960329 0.8980 0.8980 0.8990 0.8980 0.8980
2.993000 0.8960 0.8960 0.8940 0.8930 0.8930
3.026329 0.8910 0.8890 0.8880 0.8860 0.8830
3.060000 0.8810 0.8790 0.8760 0.8740 0.8740
3.093329 0.8710 0.8680 0.8640 0.8610 0.8590
3.127000 0.8540 0.8530 0.8530 0.8510 0.8490
3.160329 0.8440 0.8430 0.8390 0.8340 0.8330
3.193000 0.8310 0.8260 0.8210 0.8180 0.8130
3.226329 0.8130 0.8040 0.8010 0.8010 0.7990
3.260000 0.7920 0.7840 0.7710 0.7610 0.7460
3.293329 0.7160 0.7010 0.6410 0.6040 0.5650
3.326000 0.4540 0.3420 0.2000 0.1830 0.1650
3.359329 0.1450 0.1280 0.0980 0.0980 0.1030
3.393000 0.1280 0.1400 0.1750 0.2380 0.2550
3.426329 0.2720 0.2720 0.2530 0.2300 0.2270
3.460000 0.2250 0.2280 0.2650 0.2830 0.3330
3.493329 0.3770 0.4690 0.5070 0.5500 0.5770
3.526000 0.5990 0.6210 0.6310 0.6320 0.6340
3.559329 0.6410 0.6420 0.6440 0.6440 0.6440
3.593000 0.6420 0.6420 0.6390 0.6370 0.6340
3.626329 0.6320 0.6290 0.6270 0.6240 0.6220
3.660000 0.6220 0.6210 0.6190 0.6170 0.6170
3.693329 0.6160 0.6140 0.6140 0.6140 0.6170
3.726000 0.6170 0.6170 0.6170 0.6190 0.6190
3.759329 0.6190 0.6210 0.6220 0.6240 0.6270
3.793000 0.6310 0.6340 0.6370 0.6410 0.6440
3.826329 0.6510 0.6520 0.6610 0.6690 0.6720
3.859000 0.6810 0.6870 0.6910 0.6940 0.6970
3.892329 0.7010 0.7020 0.7070 0.7090 0.7110
3.926000 0.7110 0.7110 0.7120 0.7170 0.7170
3.959329 0.7170 0.7170 0.7170 0.7170 0.7140
3.993000 0.7110 0.7040 0.6970 0.6890 0.6790
4.026329 0.6720 0.6570 0.6490 0.6370 0.6340
4.059000 0.6270 0.6260 0.6240 0.6210 0.6190
4.092329 0.6190 0.6190 0.6220 0.6240 0.6270
4.126000 0.6310 0.6360 0.6370 0.6390 0.6410
4.159329 0.6420 0.6470 0.6490 0.6470 0.6470
4.193000 0.6440 0.6420 0.6390 0.6370 0.6340
4.226329 0.6340 0.6320 0.6310 0.6310 0.6310
4.259000 0.6290 0.6290 0.6290 0.6270 0.6270
4.292329 0.6260 0.6260 0.6260 0.6270 0.6270
4.326000 0.6270 0.6270 0.6290 0.6310 0.6360
4.359329 0.6420 0.6460 0.6510 0.6540 0.6540
4.392000 0.6570 0.6660 0.6720 0.6740 0.6760
4.425329 0.6760 0.6770 0.6790 0.6790 0.6790
4.459000 0.6790 0.6810 0.6810 0.6820 0.6820
4.492329 0.6820 0.6840 0.6840 0.6870 0.6870
4.526000 0.6870 0.6890 0.6890 0.6890 0.6910
4.559329 0.6920 0.6920 0.6940 0.6960 0.6970
4.592000 0.6990 0.6990 0.6990 0.7020 0.7020
4.625329 0.7040 0.7070 0.7090 0.7090 0.7110
4.659000 0.7120 0.7140 0.7140 0.7160 0.7170
4.692329 0.7170 0.7190 0.7190 0.7210 0.7220
4.726000 0.7220 0.7240 0.7260 0.7260 0.7270
4.759329 0.7270 0.7290 0.7310 0.7310 0.7320
4.792000 0.7320 0.7340 0.7360 0.7390 0.7420
4.825329 0.7460 0.7460 0.7470 0.7490 0.7510
4.859000 0.7520 0.7520 0.7540 0.7590 0.7590
4.892329 0.7610 0.7610 0.7620 0.7670 0.7690
4.925000 0.7710 0.7720 0.7720 0.7760 0.7770
4.958329 0.7770 0.7790 0.7790 0.7810 0.7810
4.992000 0.7820 0.7840 0.7860 0.7870 0.7890
5.025329 0.7920 0.7920 0.7940 0.7970 0.7970
5.059000 0.7990 0.7990 0.8010 0.8010 0.8030
5.092329 0.8030 0.8030 0.8030 0.8030 0.8030
5.125000 0.8030 0.8010 0.8010 0.8010 0.8010
5.158329 0.8010 0.8010 0.8010 0.8010 0.7990
5.192000 0.7990 0.7970 0.7970 0.7990 0.7970
5.225329 0.7970 0.7970 0.7960 0.7960 0.7940
5.259000 0.7940 0.7920 0.7910 0.7890 0.7870
5.292329 0.7820 0.7810 0.7790 0.7770 0.7770
5.325000 0.7740 0.7720 0.7710 0.7690 0.7670
5.358329 0.7670 0.7620 0.7620 0.7610 0.7570
5.392000 0.7560 0.7520 0.7510 0.7470 0.7460
5.425329 0.7420 0.7410 0.7390 0.7370 0.7360
5.459000 0.7310 0.7270 0.7220 0.7210 0.7170
5.492329 0.7140 0.7110 0.7070 0.7020 0.7020
5.525000 0.7010 0.6970 0.6970 0.6890 0.6860
5.558329 0.6790 0.6720 0.6710 0.6690 0.6660
5.592000 0.6620 0.6610 0.6590 0.6570 0.6520
5.625329 0.6520 0.6510 0.6490 0.6470 0.6460
5.658000 0.6440 0.6420 0.6410 0.6360 0.6320
5.691329 0.6310 0.6290 0.6240 0.6170 0.6160
5.725000 0.6140 0.6120 0.6060 0.6040 0.6020
5.758329 0.6020 0.6020 0.6010 0.5990 0.5990
5.792000 0.5970 0.5970 0.5970 0.5950 0.5950
5.825329 0.5950 0.5950 0.5940 0.5940 0.5940
5.858000 0.5940 0.5940 0.5940 0.5950 0.5950
5.891329 0.5970 0.5970 0.5970 0.5970 0.5990
5.925000 0.5990 0.5990 0.5990 0.6020 0.6040
5.958329 0.6060 0.6060 0.6070 0.6070 0.6090
5.992000 0.6110 0.6120 0.6140 0.6160 0.6190
6.025329 0.6220 0.6240 0.6260 0.6260 0.6260
6.058000 0.6270 0.6260 0.6270 0.6270 0.6290
6.091329 0.6290 0.6290 0.6310 0.6310 0.6320
6.125000 0.6340 0.6360 0.6390 0.6390 0.6410
6.158329 0.6410 0.6440 0.6490 0.6510 0.6540
6.191000 0.6560 0.6590 0.6620 0.6660 0.6710
6.224329 0.6720 0.6740 0.6760 0.6790 0.6810
6.258000 0.6810 0.6810 0.6810 0.6820 0.6820
6.291329 0.6820 0.6820 0.6840 0.6860 0.6860
6.325000 0.6860 0.6870 0.6890 0.6890 0.6890
6.358329 0.6910 0.6920 0.6940 0.6940 0.6940
6.391000 0.6960 0.6970 0.6970 0.6990 0.6990
6.424329 0.7010 0.7010 0.7020 0.7020 0.7040
6.458000 0.7060 0.7110 0.7120 0.7120 0.7140
6.491329 0.7140 0.7140 0.7140 0.7140 0.7140
6.525000 0.7160 0.7160 0.7160 0.7160 0.7190
6.558329 0.7210 0.7220 0.7260 0.7270 0.7270
6.591000 0.7270 0.7270 0.7260 0.7270 0.7270
6.624329 0.7290 0.7310 0.7320 0.7340 0.7370
6.658000 0.7370 0.7370 0.7370 0.7370 0.7370
6.691329 0.7360 0.7340 0.7320 0.7310 0.7290
6.724000 0.7290 0.7270 0.7260 0.7210 0.7110
6.757329 0.7040 0.6990 0.6790 0.6660 0.6320
6.791000 0.6160 0.5970 0.5600 0.5350 0.5150
6.824329 0.5090 0.5020 0.5000 0.4990 0.4990
6.858000 0.4970 0.4990 0.4990 0.5020 0.5100
6.891329 0.5220 0.5290 0.5470 0.5690 0.5820
6.924000 0.5900 0.6170 0.6220 0.6270 0.6370
6.957329 0.6470 0.6610 0.6710 0.6810 0.6940
6.991000 0.7060 0.7110 0.7210 0.7240 0.7290
7.024329 0.7340 0.7340 0.7360 0.7370 0.7410
7.058000 0.7420 0.7470 0.7510 0.7520 0.7520
7.091329 0.7570 0.7590 0.7620 0.7640 0.7670
7.124000 0.7690 0.7710 0.7710 0.7710 0.7710
7.157329 0.7710 0.7710 0.7710 0.7690 0.7660
7.191000 0.7510 0.7340 0.7210 0.7070 0.6840
7.224329 0.6690 0.6590 0.6560 0.6520 0.6520
7.257000 0.6570 0.6610 0.6690 0.6790 0.6870
7.290329 0.6920 0.6970 0.6990 0.7110 0.7190
7.324000 0.7270 0.7370 0.7420 0.7490 0.7540
7.357329 0.7620 0.7640 0.7670 0.7710 0.7720
7.391000 0.7760 0.7770 0.7770 0.7790 0.7790
7.424329 0.7810 0.7790 0.7790 0.7810 0.7840
7.457000 0.7870 0.7910 0.7920 0.7920 0.7940
7.490329 0.7960 0.7960 0.7990 0.8010 0.8030
7.524000 0.8030 0.8030 0.8030 0.8030 0.8030
7.557329 0.8030 0.8030 0.8030 0.8030 0.8010
7.591000 0.8010 0.7990 0.7990 0.7970 0.7960
7.624329 0.7940 0.7910 0.7910 0.7890 0.7890
7.657000 0.7870 0.7860 0.7860 0.7840 0.7820
7.690329 0.7790 0.7770 0.7720 0.7690 0.7690
7.724000 0.7660 0.7620 0.7590 0.7520 0.7490
7.757329 0.7420 0.7370 0.7310 0.7260 0.7210
7.790000 0.7110 0.6990 0.6820 0.6690 0.6610
7.823329 0.6490 0.6290 0.6110 0.6060 0.5990
7.857000 0.5790 0.5500 0.5320 0.5090 0.4890
7.890329 0.4650 0.4420 0.4300 0.4040 0.4000
7.924000 0.4000 0.3980 0.3820 0.3750 0.3700
7.957329 0.3650 0.3650 0.3630 0.3620 0.3620
7.990000 0.3630 0.3630 0.3670 0.3700 0.3750
8.023329 0.3800 0.3880 0.4100 0.4270 0.4370
8.057000 0.4520 0.4670 0.4850 0.4990 0.5220
8.090329 0.5390 0.5500 0.5690 0.5870 0.5990
8.124000 0.6210 0.6370 0.6470 0.6520 0.6620
8.157329 0.6710 0.6810 0.6840 0.6890 0.6940
8.190000 0.6970 0.7010 0.7090 0.7170 0.7170
8.223329 0.7210 0.7270 0.7290 0.7310 0.7320
8.257000 0.7360 0.7390 0.7410 0.7440 0.7470
8.290329 0.7510 0.7520 0.7570 0.7590 0.7610
8.323000 0.7620 0.7640 0.7660 0.7690 0.7710
8.356329 0.7710 0.7720 0.7720 0.7720 0.7720
8.390000 0.7720 0.7740 0.7760 0.7760 0.7760
8.423329 0.7760 0.7760 0.7740 0.7740 0.7720
8.457000 0.7720 0.7710 0.7690 0.7690 0.7670
8.490329 0.7660 0.7640 0.7620 0.7610 0.7560
8.523000 0.7520 0.7490 0.7440 0.7440 0.7420
8.556329 0.7340 0.7320 0.7320 0.7310 0.7260
8.590000 0.7220 0.7170 0.7110 0.7020 0.6990
8.623329 0.6990 0.6820 0.6770 0.6720 0.6620
8.657000 0.6560 0.6510 0.6470 0.6390 0.6260
8.690329 0.6190 0.6020 0.6010 0.5950 0.5900
8.723000 0.5640 0.5550 0.5370 0.5220 0.5020
8.756329 0.4790 0.4500 0.4300 0.4150 0.4070
8.790000 0.3970 0.3580 0.3450 0.3230 0.3020
8.823329 0.2750 0.2650 0.2480 0.2230 0.2170
8.856000 0.2070 0.2000 0.1960 0.1910 0.1880
8.889329 0.1830 0.1780 0.1750 0.1710 0.1660
8.923000 0.1650 0.1610 0.1600 0.1600 0.1600
8.956329 0.1580 0.1580 0.1580 0.1560 0.1560
8.990000 0.1560 0.1530 0.1500 0.1500 0.1480
9.023329 0.1450 0.1430 0.1410 0.1380 0.1350
9.056000 0.1350 0.1300 0.1260 0.1250 0.1230
9.089329 0.1210 0.1180 0.1130 0.1110 0.1100
9.123000 0.1100 0.1030 0.1010 0.1000 0.0980
9.156329 0.0960 0.0950 0.0930 0.0910 0.0900
9.190000 0.0880 0.0860 0.0810 0.0810 0.0800
9.223329 0.0760 0.0750 0.0730 0.0710 0.0710
9.256000 0.0700 0.0680 0.0680 0.0680 0.0660
9.289329 0.0650 0.0610 0.0610 0.0600 0.0600
9.323000 0.0580 0.0580 0.0560 0.0560 0.0560
9.356329 0.0550 0.0550 0.0550 0.0550 0.0550
9.389000 0.0530 0.0530 0.0530 0.0530 0.0530
9.422329 0.0530 0.0530 0.0530 0.0530 0.0530
9.456000 0.0560 0.0600 0.0610 0.0650 0.0680
9.489329 0.0710 0.0760 0.0810 0.0900 0.0930
9.523000 0.1010 0.1080 0.1180 0.1280 0.1330
9.556329 0.1410 0.1510 0.1610 0.1700 0.1810
9.589000 0.1880 0.2080 0.2270 0.2300 0.2380
9.622329 0.2500 0.2620 0.2750 0.2800 0.2900
9.656000 0.2930 0.3030 0.3100 0.3130 0.3180
9.689329 0.3220 0.3250 0.3320 0.3350 0.3380
9.723000 0.3420 0.3430 0.3520 0.3520 0.3570
9.756329 0.3580 0.3620 0.3620 0.3630 0.3630
9.789000 0.3650 0.3670 0.3700 0.3720 0.3730
9.822329 0.3730 0.3730 0.3730 0.3730 0.3720
9.856000 0.3700 0.3720 0.3720 0.3700 0.3680
9.889329 0.3670 0.3650 0.3650 0.3650 0.3650
9.922000 0.3630 0.3620 0.3580 0.3530 0.3530
9.955329 0.3530 0.3500 0.3480 0.3450 0.3400
9.989000 0.3350 0.3300 0.3250 0.3200 0.3130
10.022329 0.3050 0.3000 0.2900 0.2800 0.2730
10.056000 0.2670 0.2620 0.2520 0.2480 0.2450
10.089329 0.2430 0.2420 0.2400 0.2380 0.2330
10.122000 0.2300 0.2280 0.2270 0.2270 0.2230
10.155329 0.2230 0.2230 0.2230 0.2230 0.2270
10.189000 0.2300 0.2350 0.2380 0.2450 0.2520
10.222329 0.2570 0.2720 0.2730 0.2830 0.2900
10.256000 0.3020 0.3050 0.3220 0.3280 0.3400
10.289329 0.3480 0.3580 0.3630 0.3720 0.3770
10.322000 0.3830 0.3880 0.3930 0.3980 0.4100
10.355329 0.4220 0.4270 0.4300 0.4340 0.4390
10.389000 0.4440 0.4490 0.4520 0.4540 0.4590
10.422329 0.4620 0.4640 0.4670 0.4700 0.4740
10.455000 0.4750 0.4770 0.4790 0.4800 0.4800
10.488329 0.4800 0.4800 0.4820 0.4820 0.4820
10.522000 0.4820 0.4820 0.4820 0.4820 0.4820
10.555329 0.4820 0.4820 0.4820 0.4820 0.4800
10.589000 0.4800 0.4750 0.4720 0.4690 0.4670
10.622329 0.4620 0.4600 0.4520 0.4520 0.4500
10.655000 0.4490 0.4470 0.4450 0.4420 0.4400
10.688329 0.4370 0.4350 0.4340 0.4300 0.4270
10.722000 0.4250 0.4220 0.4220 0.4200 0.4190
10.755329 0.4170 0.4140 0.4120 0.4100 0.4100
10.789000 0.4090 0.4070 0.4070 0.4050 0.4040
10.822329 0.4020 0.4020 0.4000 0.4000 0.4000
10.855000 0.3980 0.3980 0.3970 0.3970 0.3930
10.888329 0.3920 0.3920 0.3900 0.3830 0.3820
10.922000 0.3780 0.3720 0.3680 0.3620 0.3570
10.955329 0.3520 0.3470 0.3470 0.3350 0.3230
10.988000 0.3120 0.3020 0.2950 0.2880 0.2820
11.021329 0.2770 0.2720 0.2630 0.2570 0.2500
11.055000 0.2430 0.2400 0.2350 0.2320 0.2300
11.088329 0.2280 0.2270 0.2230 0.2180 0.2150
11.122000 0.2120 0.2120 0.2120 0.2120 0.2100
11.155329 0.2100 0.2100 0.2080 0.2080 0.2080
11.188000 0.2080 0.2070 0.2070 0.2070 0.2070
11.221329 0.2070 0.2070 0.2070 0.2080 0.2100
11.255000 0.2100 0.2100 0.2100 0.2120 0.2120
11.288329 0.2130 0.2150 0.2180 0.2180 0.2220
11.322000 0.2230 0.2250 0.2300 0.2320 0.2350
11.355329 0.2380 0.2400 0.2420 0.2430 0.2430
11.388000 0.2480 0.2500 0.2530 0.2550 0.2580
11.421329 0.2620 0.2630 0.2700 0.2730 0.2770
11.455000 0.2780 0.2900 0.2970 0.2980 0.3000
11.488329 0.3000 0.3020 0.3030 0.3080 0.3120
11.522000 0.3150 0.3170 0.3180 0.3200 0.3220
11.555329 0.3250 0.3270 0.3280 0.3300 0.3320
11.588000 0.3330 0.3350 0.3370 0.3380 0.3400
11.621329 0.3470 0.3480 0.3500 0.3500 0.3520
11.655000 0.3530 0.3570 0.3580 0.3600 0.3620
11.688329 0.3650 0.3680 0.3700 0.3720 0.3730
11.721000 0.3750 0.3780 0.3800 0.3820 0.3850
11.754329 0.3850 0.3870 0.3880 0.3880 0.3900
11.788000 0.3930 0.3980 0.3980 0.4000 0.4020
11.821329 0.4020 0.4050 0.4050 0.4090 0.4120
11.855000 0.4140 0.4140 0.4170 0.4190 0.4200
11.888329 0.4220 0.4240 0.4270 0.4290 0.4290
11.921000 0.4300 0.4320 0.4340 0.4350 0.4390
11.954329 0.4400 0.4400 0.4420 0.4440 0.4470
11.988000 0.4490 0.4500 0.4520 0.4540 0.4550
12.021329 0.4570 0.4600 0.4640 0.4670 0.4700
12.055000 0.4740 0.4750 0.4790 0.4840 0.4890
12.088329 0.4940 0.4970 0.5000 0.5040 0.5070
12.121000 0.5090 0.5120 0.5170 0.5190 0.5220
12.154329 0.5240 0.5270 0.5290 0.5290 0.5300
12.188000 0.5300 0.5320 0.5350 0.5370 0.5400
12.221329 0.5440 0.5470 0.5490 0.5500 0.5520
12.254000 0.5540 0.5590 0.5600 0.5640 0.5670
12.287329 0.5720 0.5740 0.5770 0.5800 0.5820
12.321000 0.5850 0.5890 0.5900 0.5940 0.5970
12.354329 0.5990 0.5990 0.6020 0.6060 0.6070
12.388000 0.6090 0.6120 0.6170 0.6210 0.6260
12.421329 0.6270 0.6310 0.6340 0.6360 0.6360
12.454000 0.6390 0.6410 0.6410 0.6410 0.6420
12.487329 0.6440 0.6490 0.6510 0.6520 0.6520
12.521000 0.6570 0.6590 0.6610 0.6620 0.6640
12.554329 0.6640 0.6640 0.6640 0.6640 0.6660
12.588000 0.6670 0.6670 0.6710 0.6720 0.6720
12.621329 0.6740 0.6760 0.6760 0.6790 0.6810
12.654000 0.6820 0.6840 0.6860 0.6860 0.6870
12.687329 0.6890 0.6910 0.6920 0.6940 0.6940
12.721000 0.6960 0.6970 0.6990 0.7010 0.7010
12.754329 0.7010 0.7020 0.7020 0.7040 0.7070
12.787000 0.7090 0.7090 0.7120 0.7120 0.7140
12.820329 0.7160 0.7170 0.7170 0.7190 0.7190
12.854000 0.7190 0.7210 0.7210 0.7210 0.7220
12.887329 0.7240 0.7260 0.7260 0.7260 0.7260
12.921000 0.7260 0.7260 0.7270 0.7290 0.7310
12.954329 0.7310 0.7320 0.7340 0.7360 0.7360
12.987000 0.7370 0.7390 0.7390 0.7420 0.7420
13.020329 0.7440 0.7460 0.7460 0.7470 0.7470
13.054000 0.7490 0.7490 0.7510 0.7510 0.7510
13.087329 0.7520 0.7520 0.7520 0.7570 0.7570
13.121000 0.7570 0.7590 0.7610 0.7610 0.7610
13.154329 0.7620 0.7660 0.7660 0.7670 0.7690
13.187000 0.7710 0.7710 0.7720 0.7720 0.7720
13.220329 0.7740 0.7740 0.7740 0.7760 0.7760
13.254000 0.7760 0.7760 0.7770 0.7770 0.7770
13.287329 0.7770 0.7770 0.7790 0.7790 0.7810
13.320000 0.7820 0.7840 0.7840 0.7860 0.7870
13.353329 0.7870 0.7870 0.7890 0.7890 0.7920
13.387000 0.7920 0.7920 0.7920 0.7920 0.7940
13.420329 0.7940 0.7940 0.7940 0.7940 0.7940
13.454000 0.7940 0.7960 0.7960 0.7960 0.7960
13.487329 0.7960 0.7970 0.7970 0.7970 0.7970
13.520000 0.7970 0.7970 0.7970 0.7990 0.7990
13.553329 0.7990 0.7990 0.7990 0.7990 0.8010
13.587000 0.8010 0.8010 0.8010 0.8010 0.8010
13.620329 0.8030 0.8030 0.8030 0.8030 0.8030
13.654000 0.8030 0.8030 0.8030 0.8030 0.8030
13.687329 0.8030 0.8030 0.8030 0.8030 0.8030
13.720000 0.8030 0.8030 0.8030 0.8030 0.8030
13.753329 0.8030 0.8030 0.8030 0.8030 0.8030
13.787000 0.8030 0.8030 0.8030 0.8030 0.8030
13.820329 0.8030 0.8030 0.8030 0.8030 0.8030
13.853000 0.8030 0.8040 0.8040 0.8040 0.8040
13.886329 0.8040 0.8040 0.8060 0.8080 0.8090
13.920000 0.8110 0.8110 0.8130 0.8130 0.8140
13.953329 0.8140 0.8140 0.8140 0.8180 0.8190
13.987000 0.8190 0.8210 0.8210 0.8230 0.8230
14.020329 0.8240 0.8240 0.8260 0.8260 0.8260
14.053000 0.8280 0.8280 0.8280 0.8280 0.8280
14.086329 0.8280 0.8280 0.8280 0.8280 0.8280
14.120000 0.8280 0.8290 0.8290 0.8290 0.8290
14.153329 0.8310 0.8310 0.8310 0.8310 0.8310
14.187000 0.8330 0.8330 0.8330 0.8330 0.8330
14.220329 0.8330 0.8330 0.8330 0.8330 0.8330
14.253000 0.8330 0.8330 0.8330 0.8330 0.8330
14.286329 0.8330 0.8330 0.8330 0.8330 0.8330
14.320000 0.8330 0.8330 0.8330 0.8330 0.8330
14.353329 0.8330 0.8330 0.8330 0.8330 0.8330
14.386000 0.8310 0.8310 0.8310 0.8310 0.8310
14.419329 0.8310 0.8290 0.8290 0.8290 0.8290
14.453000 0.8290 0.8290 0.8280 0.8280 0.8280
14.486329 0.8280 0.8260 0.8260 0.8260 0.8240
14.520000 0.8240 0.8240 0.8240 0.8230 0.8210
14.553329 0.8190 0.8180 0.8180 0.8180 0.8160
14.586000 0.8160 0.8140 0.8140 0.8160 0.8160
14.619329 0.8160 0.8140 0.8140 0.8140 0.8140
14.653000 0.8140 0.8140 0.8130 0.8130 0.8130
14.686329 0.8110 0.8090 0.8080 0.8060 0.8060
14.720000 0.8040 0.8040 0.8040 0.8030 0.8040
14.753329 0.8030 0.8030 0.8030 0.8010 0.8010
14.786000 0.7990 0.7970 0.7960 0.7960 0.7960
14.819329 0.7940 0.7940 0.7940 0.7920 0.7920
14.853000 0.7910 0.7910 0.7910 0.7910 0.7910
14.886329 0.7910 0.7910 0.7910 0.7890 0.7890
14.919000 0.7890 0.7890 0.7890 0.7890 0.7890
14.952329 0.7910 0.7910 0.7910 0.7910 0.7910
14.986000 0.7890 0.7870 0.7870 0.7860 0.7840
15.019329 0.7820 0.7810 0.7810 0.7810 0.7810
15.053000 0.7810 0.7790 0.7790 0.7790 0.7790
15.086329 0.7770 0.7770 0.7770 0.7770 0.7770
15.119000 0.7770 0.7770 0.7770 0.7770 0.7760
15.152329 0.7760 0.7760 0.7760 0.7740 0.7740
15.186000 0.7740 0.7740 0.7740 0.7720 0.7710
15.219329 0.7690 0.7690 0.7670 0.7670 0.7670
15.253000 0.7670 0.7660 0.7660 0.7660 0.7660
15.286329 0.7660 0.7660 0.7660 0.7660 0.7660
15.319000 0.7640 0.7640 0.7640 0.7620 0.7610
15.352329 0.7620 0.7620 0.7620 0.7610 0.7610
15.386000 0.7590 0.7590 0.7570 0.7560 0.7540
15.419329 0.7540 0.7520 0.7510 0.7510 0.7510
15.452000 0.7510 0.7510 0.7490 0.7490 0.7470
15.485329 0.7470 0.7460 0.7460 0.7460 0.7440
15.519000 0.7460 0.7420 0.7410 0.7410 0.7390
15.552329 0.7390 0.7370 0.7370 0.7370 0.7370
15.586000 0.7370 0.7370 0.7360 0.7340 0.7320
15.619329 0.7320 0.7310 0.7290 0.7290 0.7290
15.652000 0.7270 0.7270 0.7270 0.7260 0.7260
15.685329 0.7260 0.7260 0.7260 0.7260 0.7260
15.719000 0.7260 0.7240 0.7240 0.7240 0.7240
15.752329 0.7240 0.7240 0.7220 0.7220 0.7210
15.786000 0.7210 0.7210 0.7190 0.7190 0.7190
15.819329 0.7170 0.7170 0.7170 0.7170 0.7170
15.852000 0.7170 0.7170 0.7170 0.7170 0.7170
15.885329 0.7160 0.7160 0.7160 0.7160 0.7140
15.919000 0.7140 0.7140 0.7120 0.7120 0.7120
15.952329 0.7120 0.7140 0.7120 0.7120 0.7120
15.985000 0.7140 0.7120 0.7120
##END=
