##TITLE=Hydrazine, 1,2-dibenzoyl-2-purinyl-
##JCAMP-DX=4.24
##DATA TYPE=INFRARED SPECTRUM
##CLASS=COBLENTZ III
##ORIGIN=SOUTHERN RESEARCH INSTITUTE
##OWNER=Copyright (C) 1987 by the Coblentz Society
Collection (C) 2018 copyright by the U.S. Secretary of Commerce
on behalf of the United States of America. All rights reserved.
##DATE=1957/12/09
##NAMES=N'-benzoyl-N-(7H-purin-2-yl)benzohydrazide
##MOLFORM=C19 H14 N6 O2
##SOURCE REFERENCE=COBLENTZ NO. 8297
##$NIST ID=B6008297
##$NIST SOURCE=COBLENTZ
##$NIST IMAGE=cob8297
##SPECTROMETER/DATA SYSTEM=PERKIN-ELMER 21 (GRATING)
##INSTRUMENT PARAMETERS=FILTER CHANGE ABOUT 1090 CM^-^1
##STATE=SOLID (0.7 mg / 650 mg KBr DISC)
##SAMPLING PROCEDURE=TRANSMISSION
##RESOLUTION=2
##DATA PROCESSING=DIGITIZED BY COBLENTZ SOCIETY (BATCH II) FROM HARD COPY (ADJUSTED \addcm-1\10-8-2\)
##XUNITS=1/CM
##YUNITS=TRANSMITTANCE
##XFACTOR=1.0
##YFACTOR=1
##DELTAX=1.002349
##FIRSTX=595
##LASTX=4008
##FIRSTY=0.6482
##MAXX=4008
##MINX=595
##MAXY=0.829051
##MINY=0.100432
##NPOINTS=3406
##XYDATA=(X++(Y..Y))
595.000000 0.6482 0.6523 0.6550 0.6567 0.6585
600.011744 0.6601 0.6615 0.6630 0.6645 0.6658
605.023488 0.6694 0.6681 0.6690 0.6699 0.6687
610.035232 0.6671 0.6654 0.6632 0.6607 0.6584
615.046976 0.6567 0.6550 0.6533 0.6518 0.6505
620.058720 0.6492 0.6478 0.6467 0.6458 0.6437
625.070464 0.6453 0.6455 0.6462 0.6484 0.6511
630.082208 0.6566 0.6637 0.6696 0.6747 0.6783
635.093952 0.6815 0.6830 0.6835 0.6841 0.6844
640.105696 0.6835 0.6826 0.6804 0.6778 0.6750
645.117440 0.6705 0.6658 0.6609 0.6554 0.6501
650.129184 0.6453 0.6406 0.6358 0.6312 0.6273
655.140928 0.6233 0.6194 0.6157 0.6120 0.6086
660.152672 0.6073 0.6063 0.6058 0.6060 0.6067
665.164416 0.6080 0.6112 0.6134 0.6157 0.6177
670.176160 0.6182 0.6180 0.6179 0.6177 0.6175
675.187904 0.6167 0.6129 0.5951 0.5665 0.5379
680.199648 0.5092 0.4805 0.4519 0.4233 0.3946
685.211392 0.3660 0.3394 0.3246 0.3244 0.3245
690.223136 0.3248 0.3253 0.3264 0.3283 0.3303
695.234880 0.3301 0.3297 0.3277 0.3228 0.3156
700.246624 0.3072 0.2997 0.2912 0.2814 0.2754
705.258368 0.2732 0.2717 0.2734 0.2754 0.2844
710.270112 0.3011 0.3177 0.3344 0.3511 0.3678
715.281856 0.3846 0.4013 0.4180 0.4346 0.4513
720.293600 0.4680 0.4848 0.5015 0.5182 0.5349
725.305344 0.5515 0.5683 0.5850 0.6017 0.6184
730.317087 0.6351 0.6518 0.6686 0.6779 0.6829
735.328831 0.6854 0.6862 0.6868 0.6871 0.6872
740.340575 0.6872 0.6872 0.6873 0.6874 0.6875
745.352319 0.6877 0.6878 0.6879 0.6881 0.6882
750.364063 0.6887 0.6894 0.6905 0.6919 0.6934
755.375807 0.6953 0.6974 0.6991 0.7003 0.7015
760.387551 0.7021 0.7032 0.7033 0.7030 0.7030
765.399295 0.7029 0.7028 0.7027 0.7026 0.7018
770.411039 0.6978 0.6912 0.6827 0.6732 0.6616
775.422783 0.6487 0.6409 0.6300 0.6120 0.5916
780.434527 0.5713 0.5522 0.5396 0.5354 0.5336
785.446271 0.5327 0.5304 0.5285 0.5351 0.5404
790.458015 0.5463 0.5520 0.5570 0.5615 0.5657
795.469759 0.5698 0.5736 0.5774 0.5814 0.5854
800.481503 0.5888 0.5918 0.5947 0.5972 0.6014
805.493247 0.6178 0.6356 0.6535 0.6708 0.6812
810.504991 0.6888 0.6948 0.7003 0.7056 0.7111
815.516735 0.7167 0.7214 0.7255 0.7295 0.7316
820.528479 0.7338 0.7341 0.7337 0.7340 0.7330
825.540223 0.7317 0.7304 0.7286 0.7265 0.7242
830.551967 0.7216 0.7190 0.7148 0.7096 0.7008
835.563711 0.6923 0.6838 0.6766 0.6697 0.6614
840.575455 0.6566 0.6532 0.6504 0.6487 0.6474
845.587199 0.6463 0.6455 0.6450 0.6450 0.6437
850.598943 0.6492 0.6581 0.6661 0.6740 0.6820
855.610687 0.6900 0.6980 0.7059 0.7140 0.7200
860.622431 0.7227 0.7233 0.7235 0.7252 0.7252
865.634175 0.7247 0.7241 0.7231 0.7220 0.7208
870.645919 0.7190 0.7162 0.7126 0.7083 0.7040
875.657663 0.6998 0.6920 0.6825 0.6732 0.6638
880.669407 0.6543 0.6450 0.6356 0.6289 0.6242
885.681151 0.6213 0.6186 0.6161 0.6137 0.6111
890.692895 0.6085 0.6044 0.5868 0.5727 0.5678
895.704639 0.5657 0.5643 0.5640 0.5643 0.5646
900.716383 0.5649 0.5652 0.5659 0.5674 0.5692
905.728127 0.5714 0.5748 0.5806 0.5864 0.5922
910.739871 0.5981 0.6038 0.6108 0.6217 0.6248
915.751615 0.6259 0.6267 0.6267 0.6266 0.6256
920.763359 0.6246 0.6233 0.6212 0.6171 0.6120
925.775103 0.6068 0.6030 0.6008 0.5995 0.5986
930.786847 0.5983 0.5986 0.5989 0.5997 0.6007
935.798591 0.6027 0.6058 0.6098 0.6147 0.6209
940.810335 0.6285 0.6365 0.6434 0.6487 0.6535
945.822079 0.6588 0.6657 0.6742 0.6834 0.6877
950.833823 0.6888 0.6892 0.6893 0.6893 0.6892
955.845567 0.6891 0.6891 0.6887 0.6879 0.6871
960.857311 0.6855 0.6820 0.6774 0.6735 0.6685
965.869055 0.6653 0.6622 0.6593 0.6567 0.6548
970.880799 0.6542 0.6546 0.6548 0.6560 0.6575
975.892543 0.6593 0.6622 0.6661 0.6759 0.6890
980.904287 0.7011 0.7105 0.7161 0.7212 0.7240
985.916031 0.7241 0.7250 0.7251 0.7246 0.7233
990.927775 0.7208 0.7171 0.7142 0.7109 0.7067
995.939518 0.7013 0.6959 0.6908 0.6873 0.6873
1000.951262 0.6873 0.6881 0.6856 0.7116 0.7226
1005.963006 0.7241 0.7253 0.7261 0.7262 0.7264
1010.974750 0.7265 0.7255 0.7258 0.7255 0.7250
1015.986494 0.7240 0.7223 0.7203 0.7162 0.7059
1020.998238 0.6928 0.6793 0.6659 0.6524 0.6389
1026.009982 0.6255 0.6121 0.6053 0.6040 0.6025
1031.021726 0.6034 0.6162 0.6826 0.7203 0.7233
1036.033470 0.7254 0.7269 0.7282 0.7286 0.7288
1041.045214 0.7293 0.7293 0.7291 0.7287 0.7279
1046.056958 0.7269 0.7259 0.7248 0.7235 0.7218
1051.068702 0.7199 0.7178 0.7155 0.7133 0.7110
1056.080446 0.7087 0.7063 0.7035 0.6999 0.6957
1061.092190 0.6903 0.6820 0.6735 0.6640 0.6509
1066.103934 0.6334 0.6160 0.5985 0.5837 0.5809
1071.115678 0.5812 0.5810 0.5787 0.5822 0.5829
1076.127422 0.5862 0.5911 0.5960 0.6021 0.6074
1081.139166 0.6143 0.6412 0.6738 0.6974 0.6982
1086.150910 0.6934 0.6991 0.6478 0.6029 0.5971
1091.162654 0.5948 0.5925 0.5901 0.5875 0.5841
1096.174398 0.5806 0.5759 0.5712 0.5672 0.5635
1101.186142 0.5605 0.5577 0.5550 0.5530 0.5511
1106.197886 0.5495 0.5485 0.5477 0.5470 0.5464
1111.209630 0.5461 0.5461 0.5460 0.5460 0.5461
1116.221374 0.5468 0.5467 0.5464 0.5465 0.5467
1121.233118 0.5471 0.5475 0.5479 0.5483 0.5494
1126.244862 0.5521 0.5568 0.5629 0.5719 0.5844
1131.256606 0.6054 0.6267 0.6295 0.6312 0.6328
1136.268350 0.6341 0.6348 0.6352 0.6353 0.6353
1141.280094 0.6334 0.6299 0.6340 0.6330 0.6319
1146.291838 0.6306 0.6291 0.6268 0.6242 0.6213
1151.303582 0.6177 0.6137 0.6094 0.6049 0.5988
1156.315326 0.5905 0.5822 0.5739 0.5656 0.5574
1161.327070 0.5505 0.5473 0.5448 0.5420 0.5401
1166.338814 0.5270 0.5083 0.4896 0.4707 0.4518
1171.350558 0.4322 0.4269 0.4234 0.4200 0.4169
1176.362302 0.4158 0.4174 0.4162 0.4337 0.4444
1181.374046 0.4511 0.4572 0.4633 0.4693 0.4754
1186.385790 0.4814 0.4874 0.4935 0.4996 0.5045
1191.397534 0.5059 0.5054 0.5055 0.5025 0.4964
1196.409278 0.4895 0.4826 0.4757 0.4688 0.4620
1201.421022 0.4566 0.4541 0.4529 0.4517 0.4503
1206.432766 0.4490 0.4476 0.4460 0.4444 0.4428
1211.444510 0.4411 0.4394 0.4377 0.4361 0.4344
1216.456254 0.4327 0.4310 0.4287 0.4256 0.4226
1221.467998 0.4195 0.4164 0.4127 0.4072 0.4018
1226.479742 0.3951 0.3818 0.3614 0.3500 0.3431
1231.491486 0.3352 0.3206 0.3024 0.2843 0.2661
1236.503230 0.2479 0.2297 0.2116 0.1940 0.1881
1241.514974 0.1826 0.1817 0.1813 0.1818 0.1825
1246.526718 0.1832 0.1867 0.1926 0.1962 0.1981
1251.538462 0.1985 0.1983 0.1980 0.1978 0.1971
1256.550206 0.1956 0.1926 0.1729 0.1562 0.1479
1261.561950 0.1392 0.1323 0.1278 0.1238 0.1199
1266.573693 0.1150 0.1098 0.1052 0.1019 0.1005
1271.585437 0.1004 0.1007 0.1009 0.1013 0.1021
1276.597181 0.1037 0.1054 0.1071 0.1090 0.1108
1281.608925 0.1127 0.1144 0.1162 0.1186 0.1219
1286.620669 0.1257 0.1322 0.1438 0.1558 0.1657
1291.632413 0.1752 0.1814 0.1846 0.1874 0.1899
1296.644157 0.1922 0.1944 0.1962 0.1977 0.1990
1301.655901 0.1998 0.2001 0.2004 0.2007 0.2007
1306.667645 0.2004 0.2001 0.1998 0.1993 0.1985
1311.679389 0.1979 0.1975 0.1971 0.1971 0.1976
1316.691133 0.1986 0.1997 0.2019 0.2053 0.2095
1321.702877 0.2141 0.2189 0.2239 0.2287 0.2335
1326.714621 0.2384 0.2432 0.2482 0.2530 0.2578
1331.726365 0.2627 0.2719 0.2881 0.2932 0.2960
1336.738109 0.2976 0.2987 0.2998 0.3009 0.3021
1341.749853 0.3032 0.3047 0.3068 0.3118 0.3198
1346.761597 0.3259 0.3307 0.3347 0.3378 0.3405
1351.773341 0.3433 0.3459 0.3483 0.3506 0.3529
1356.785085 0.3551 0.3571 0.3588 0.3605 0.3617
1361.796829 0.3624 0.3643 0.3647 0.3636 0.3636
1366.808573 0.3632 0.3625 0.3617 0.3610 0.3600
1371.820317 0.3586 0.3572 0.3557 0.3538 0.3510
1376.832061 0.3475 0.3440 0.3404 0.3365 0.3325
1381.843805 0.3284 0.3245 0.3205 0.3166 0.3121
1386.855549 0.3055 0.2985 0.2907 0.2808 0.2722
1391.867293 0.2663 0.2605 0.2549 0.2496 0.2443
1396.879037 0.2387 0.2327 0.2268 0.2229 0.2217
1401.890781 0.2162 0.2217 0.2222 0.2282 0.2334
1406.902525 0.2403 0.2483 0.2562 0.2641 0.2721
1411.914269 0.2800 0.2881 0.2962 0.3042 0.3148
1416.926013 0.3227 0.3303 0.3400 0.3582 0.3725
1421.937757 0.4254 0.4310 0.4333 0.4350 0.4367
1426.949501 0.4384 0.4401 0.4420 0.4441 0.4487
1431.961245 0.4607 0.4671 0.4730 0.4778 0.4814
1436.972989 0.4833 0.4851 0.4858 0.4885 0.4872
1441.984733 0.4874 0.4872 0.4859 0.4826 0.4782
1446.996477 0.4541 0.4292 0.4045 0.3796 0.3625
1452.008221 0.3598 0.3646 0.3828 0.4090 0.4352
1457.019965 0.4614 0.4867 0.4904 0.4924 0.4939
1462.031709 0.4942 0.4947 0.4944 0.4935 0.4884
1467.043453 0.4775 0.4667 0.4559 0.4451 0.4342
1472.055197 0.4235 0.4127 0.4019 0.3910 0.3802
1477.066941 0.3694 0.3587 0.3478 0.3370 0.3266
1482.078685 0.3216 0.3146 0.3114 0.3076 0.3113
1487.090429 0.3123 0.3162 0.3412 0.3583 0.3707
1492.102173 0.3832 0.3956 0.4081 0.4206 0.4330
1497.113917 0.4455 0.4571 0.4596 0.4595 0.4560
1502.125661 0.4573 0.4500 0.4425 0.4352 0.4279
1507.137405 0.4205 0.4132 0.4058 0.3984 0.3911
1512.149149 0.3845 0.3822 0.3811 0.3806 0.3803
1517.160893 0.3795 0.3812 0.3818 0.3826 0.3834
1522.172637 0.3842 0.3851 0.3864 0.3879 0.3899
1527.184381 0.3920 0.3948 0.3979 0.4018 0.4061
1532.196124 0.4116 0.4171 0.4223 0.4281 0.4365
1537.207868 0.4464 0.4665 0.5105 0.5185 0.5222
1542.219612 0.5247 0.5265 0.5280 0.5295 0.5308
1547.231356 0.5321 0.5334 0.5342 0.5336 0.5310
1552.243100 0.5337 0.5325 0.5302 0.5262 0.5182
1557.254844 0.5046 0.4875 0.4743 0.4672 0.4637
1562.266588 0.4614 0.4592 0.4578 0.4566 0.4525
1567.278332 0.4414 0.4210 0.3948 0.3750 0.3549
1572.290076 0.3357 0.3196 0.3034 0.2872 0.2711
1577.301820 0.2549 0.2429 0.2416 0.2428 0.2438
1582.313564 0.2455 0.2489 0.2539 0.2589 0.2649
1587.325308 0.2854 0.3287 0.3721 0.4077 0.4217
1592.337052 0.4224 0.4222 0.4180 0.4036 0.3832
1597.348796 0.3628 0.3439 0.3334 0.3335 0.3340
1602.360540 0.3345 0.3379 0.3439 0.3487 0.3508
1607.372284 0.3513 0.3511 0.3509 0.3507 0.3506
1612.384028 0.3538 0.3616 0.3678 0.3740 0.3802
1617.395772 0.3864 0.3926 0.3988 0.4055 0.4137
1622.407516 0.4217 0.4299 0.4437 0.4562 0.4602
1627.419260 0.4618 0.4629 0.4631 0.4631 0.4579
1632.431004 0.4441 0.4273 0.4137 0.4048 0.3984
1637.442748 0.3932 0.3881 0.3832 0.3782 0.3732
1642.454492 0.3680 0.3623 0.3556 0.3238 0.2616
1647.466236 0.2251 0.2180 0.2128 0.2078 0.2040
1652.477980 0.2008 0.1976 0.1945 0.1915 0.1886
1657.489724 0.1856 0.1829 0.1805 0.1781 0.1757
1662.501468 0.1734 0.1712 0.1690 0.1668 0.1646
1667.513212 0.1624 0.1605 0.1588 0.1571 0.1554
1672.524956 0.1542 0.1534 0.1527 0.1520 0.1512
1677.536700 0.1505 0.1498 0.1491 0.1485 0.1478
1682.548444 0.1471 0.1496 0.1470 0.1456 0.1465
1687.560188 0.1506 0.1554 0.1592 0.1623 0.1652
1692.571932 0.1675 0.1694 0.1713 0.1735 0.1758
1697.583676 0.1782 0.1807 0.1832 0.1857 0.1883
1702.595420 0.2048 0.2232 0.2316 0.2390 0.2469
1707.607164 0.2554 0.2641 0.2756 0.2861 0.2939
1712.618908 0.3015 0.3108 0.3212 0.3483 0.3759
1717.630652 0.4033 0.4308 0.4582 0.4780 0.4868
1722.642396 0.5260 0.5366 0.5472 0.5959 0.6172
1727.654140 0.6560 0.6712 0.6792 0.6845 0.6896
1732.665884 0.6952 0.7012 0.7073 0.7130 0.7186
1737.677628 0.7243 0.7276 0.7309 0.7342 0.7375
1742.689372 0.7409 0.7440 0.7471 0.7502 0.7533
1747.701116 0.7553 0.7573 0.7592 0.7612 0.7632
1752.712860 0.7646 0.7658 0.7670 0.7682 0.7694
1757.724604 0.7705 0.7714 0.7723 0.7732 0.7742
1762.736348 0.7750 0.7754 0.7758 0.7761 0.7764
1767.748092 0.7767 0.7770 0.7773 0.7775 0.7778
1772.759836 0.7780 0.7783 0.7786 0.7792 0.7803
1777.771580 0.7813 0.7824 0.7835 0.7854 0.7882
1782.783324 0.7910 0.7939 0.7972 0.8005 0.8035
1787.795068 0.8052 0.8065 0.8079 0.8090 0.8094
1792.806812 0.8097 0.8100 0.8102 0.8102 0.8101
1797.818555 0.8101 0.8100 0.8099 0.8097 0.8095
1802.830299 0.8094 0.8094 0.8095 0.8097 0.8099
1807.842043 0.8100 0.8102 0.8106 0.8111 0.8116
1812.853787 0.8122 0.8127 0.8132 0.8138 0.8143
1817.865531 0.8148 0.8153 0.8158 0.8163 0.8168
1822.877275 0.8172 0.8174 0.8175 0.8176 0.8177
1827.889019 0.8180 0.8185 0.8190 0.8195 0.8204
1832.900763 0.8220 0.8236 0.8252 0.8265 0.8273
1837.912507 0.8279 0.8285 0.8289 0.8291 0.8290
1842.924251 0.8289 0.8289 0.8287 0.8284 0.8280
1847.935995 0.8277 0.8273 0.8269 0.8262 0.8269
1852.947739 0.8259 0.8238 0.8235 0.8237 0.8240
1857.959483 0.8243 0.8245 0.8248 0.8250 0.8252
1862.971227 0.8253 0.8252 0.8250 0.8249 0.8247
1867.982971 0.8245 0.8242 0.8238 0.8233 0.8228
1872.994715 0.8222 0.8215 0.8207 0.8199 0.8191
1878.006459 0.8184 0.8178 0.8171 0.8165 0.8158
1883.018203 0.8153 0.8148 0.8143 0.8138 0.8133
1888.029947 0.8128 0.8123 0.8118 0.8115 0.8113
1893.041691 0.8111 0.8108 0.8106 0.8104 0.8102
1898.053435 0.8102 0.8102 0.8102 0.8102 0.8101
1903.065179 0.8101 0.8101 0.8101 0.8101 0.8102
1908.076923 0.8103 0.8104 0.8105 0.8106 0.8107
1913.088667 0.8108 0.8109 0.8110 0.8111 0.8112
1918.100411 0.8114 0.8115 0.8116 0.8117 0.8121
1923.112155 0.8124 0.8126 0.8129 0.8131 0.8133
1928.123899 0.8135 0.8137 0.8140 0.8142 0.8144
1933.135643 0.8146 0.8148 0.8150 0.8153 0.8155
1938.147387 0.8157 0.8159 0.8161 0.8163 0.8164
1943.159131 0.8165 0.8166 0.8168 0.8169 0.8170
1948.170875 0.8171 0.8170 0.8169 0.8168 0.8167
1953.182619 0.8167 0.8166 0.8165 0.8164 0.8163
1958.194363 0.8163 0.8161 0.8160 0.8158 0.8156
1963.206107 0.8154 0.8152 0.8150 0.8149 0.8147
1968.217851 0.8146 0.8144 0.8143 0.8142 0.8140
1973.229595 0.8139 0.8140 0.8142 0.8145 0.8147
1978.241339 0.8149 0.8152 0.8159 0.8168 0.8177
1983.253083 0.8186 0.8194 0.8200 0.8203 0.8207
1988.264827 0.8211 0.8214 0.8218 0.8223 0.8227
1993.276571 0.8232 0.8237 0.8239 0.8240 0.8240
1998.288315 0.8241 0.8242 0.8242 0.8243 0.8244
2003.300059 0.8245 0.8246 0.8248 0.8249 0.8251
2008.311803 0.8252 0.8253 0.8254 0.8253 0.8252
2013.323547 0.8251 0.8250 0.8249 0.8248 0.8248
2018.335291 0.8247 0.8247 0.8246 0.8245 0.8243
2023.347035 0.8240 0.8237 0.8233 0.8230 0.8227
2028.358779 0.8224 0.8221 0.8218 0.8215 0.8212
2033.370523 0.8209 0.8207 0.8204 0.8201 0.8200
2038.382267 0.8201 0.8203 0.8205 0.8207 0.8209
2043.394011 0.8211 0.8213 0.8217 0.8221 0.8224
2048.405755 0.8227 0.8231 0.8235 0.8238 0.8241
2053.417499 0.8243 0.8243 0.8243 0.8243 0.8243
2058.429243 0.8243 0.8243 0.8242 0.8242 0.8242
2063.440986 0.8242 0.8242 0.8243 0.8244 0.8244
2068.452730 0.8245 0.8246 0.8246 0.8247 0.8248
2073.464474 0.8248 0.8247 0.8247 0.8246 0.8246
2078.476218 0.8246 0.8245 0.8245 0.8244 0.8244
2083.487962 0.8243 0.8243 0.8244 0.8244 0.8245
2088.499706 0.8246 0.8246 0.8247 0.8247 0.8248
2093.511450 0.8248 0.8249 0.8250 0.8250 0.8249
2098.523194 0.8248 0.8246 0.8244 0.8242 0.8240
2103.534938 0.8238 0.8236 0.8234 0.8232 0.8230
2108.546682 0.8228 0.8226 0.8224 0.8221 0.8219
2113.558426 0.8217 0.8215 0.8212 0.8210 0.8208
2118.570170 0.8206 0.8203 0.8201 0.8200 0.8199
2123.581914 0.8198 0.8197 0.8196 0.8195 0.8194
2128.593658 0.8193 0.8191 0.8190 0.8189 0.8188
2133.605402 0.8187 0.8186 0.8184 0.8182 0.8180
2138.617146 0.8178 0.8176 0.8174 0.8172 0.8170
2143.628890 0.8168 0.8166 0.8164 0.8162 0.8160
2148.640634 0.8157 0.8155 0.8152 0.8149 0.8146
2153.652378 0.8144 0.8141 0.8138 0.8136 0.8133
2158.664122 0.8130 0.8127 0.8125 0.8122 0.8119
2163.675866 0.8116 0.8113 0.8110 0.8107 0.8104
2168.687610 0.8101 0.8098 0.8095 0.8092 0.8089
2173.699354 0.8086 0.8083 0.8081 0.8078 0.8075
2178.711098 0.8072 0.8069 0.8066 0.8063 0.8061
2183.722842 0.8058 0.8055 0.8052 0.8049 0.8047
2188.734586 0.8049 0.8052 0.8055 0.8058 0.8061
2193.746330 0.8065 0.8068 0.8071 0.8074 0.8077
2198.758074 0.8080 0.8083 0.8085 0.8082 0.8077
2203.769818 0.8073 0.8068 0.8064 0.8059 0.8055
2208.781562 0.8050 0.8046 0.8042 0.8037 0.8034
2213.793306 0.8030 0.8027 0.8024 0.8023 0.8022
2218.805050 0.8022 0.8021 0.8020 0.8020 0.8019
2223.816794 0.8019 0.8018 0.8017 0.8017 0.8016
2228.828538 0.8013 0.8006 0.7998 0.7988 0.7979
2233.840282 0.7970 0.7962 0.7954 0.7946 0.7938
2238.852026 0.7930 0.7922 0.7918 0.7916 0.7915
2243.863770 0.7913 0.7911 0.7910 0.7910 0.7910
2248.875514 0.7910 0.7911 0.7911 0.7911 0.7912
2253.887258 0.7912 0.7913 0.7914 0.7916 0.7917
2258.899002 0.7918 0.7920 0.7921 0.7923 0.7924
2263.910746 0.7925 0.7927 0.7928 0.7929 0.7930
2268.922490 0.7931 0.7932 0.7931 0.7929 0.7927
2273.934234 0.7922 0.7916 0.7910 0.7903 0.7897
2278.945978 0.7890 0.7883 0.7875 0.7866 0.7857
2283.957722 0.7848 0.7839 0.7830 0.7822 0.7814
2288.969466 0.7806 0.7798 0.7790 0.7783 0.7778
2293.981210 0.7773 0.7768 0.7763 0.7761 0.7759
2298.992954 0.7757 0.7755 0.7753 0.7751 0.7749
2304.004698 0.7748 0.7747 0.7746 0.7745 0.7744
2309.016442 0.7744 0.7743 0.7741 0.7739 0.7737
2314.028186 0.7735 0.7734 0.7732 0.7730 0.7728
2319.039930 0.7726 0.7724 0.7720 0.7716 0.7712
2324.051674 0.7708 0.7704 0.7700 0.7696 0.7692
2329.063417 0.7689 0.7685 0.7681 0.7677 0.7672
2334.075161 0.7668 0.7664 0.7661 0.7657 0.7653
2339.086905 0.7649 0.7645 0.7641 0.7636 0.7632
2344.098649 0.7627 0.7622 0.7618 0.7613 0.7608
2349.110393 0.7604 0.7599 0.7594 0.7590 0.7585
2354.122137 0.7580 0.7576 0.7571 0.7566 0.7562
2359.133881 0.7557 0.7552 0.7548 0.7543 0.7538
2364.145625 0.7534 0.7529 0.7523 0.7518 0.7512
2369.157369 0.7507 0.7501 0.7496 0.7490 0.7485
2374.169113 0.7480 0.7474 0.7468 0.7463 0.7457
2379.180857 0.7451 0.7446 0.7440 0.7435 0.7428
2384.192601 0.7421 0.7414 0.7407 0.7401 0.7394
2389.204345 0.7388 0.7385 0.7383 0.7381 0.7379
2394.216089 0.7377 0.7375 0.7373 0.7371 0.7369
2399.227833 0.7367 0.7365 0.7363 0.7359 0.7355
2404.239577 0.7350 0.7346 0.7341 0.7333 0.7323
2409.251321 0.7313 0.7302 0.7292 0.7284 0.7279
2414.263065 0.7273 0.7268 0.7262 0.7257 0.7251
2419.274809 0.7247 0.7246 0.7245 0.7245 0.7244
2424.286553 0.7243 0.7243 0.7242 0.7242 0.7241
2429.298297 0.7240 0.7237 0.7234 0.7231 0.7228
2434.310041 0.7225 0.7220 0.7214 0.7207 0.7201
2439.321785 0.7194 0.7186 0.7177 0.7167 0.7157
2444.333529 0.7147 0.7137 0.7127 0.7117 0.7108
2449.345273 0.7102 0.7096 0.7090 0.7085 0.7082
2454.357017 0.7079 0.7075 0.7072 0.7068 0.7065
2459.368761 0.7061 0.7057 0.7051 0.7046 0.7041
2464.380505 0.7036 0.7030 0.7018 0.7002 0.6987
2469.392249 0.6971 0.6960 0.6954 0.6949 0.6943
2474.403993 0.6938 0.6932 0.6927 0.6922 0.6919
2479.415737 0.6918 0.6917 0.6916 0.6915 0.6914
2484.427481 0.6913 0.6912 0.6911 0.6911 0.6911
2489.439225 0.6912 0.6912 0.6912 0.6913 0.6913
2494.450969 0.6913 0.6913 0.6914 0.6914 0.6914
2499.462713 0.6914 0.6915 0.6915 0.6915 0.6916
2504.474457 0.6918 0.6921 0.6924 0.6927 0.6929
2509.486201 0.6932 0.6934 0.6936 0.6938 0.6941
2514.497945 0.6941 0.6939 0.6936 0.6933 0.6931
2519.509689 0.6928 0.6926 0.6923 0.6921 0.6918
2524.521433 0.6916 0.6913 0.6911 0.6909 0.6906
2529.533177 0.6904 0.6901 0.6899 0.6898 0.6897
2534.544921 0.6897 0.6896 0.6895 0.6894 0.6893
2539.556665 0.6892 0.6891 0.6890 0.6891 0.6891
2544.568409 0.6891 0.6891 0.6892 0.6892 0.6888
2549.580153 0.6876 0.6853 0.6808 0.6789 0.6771
2554.591897 0.6763 0.6757 0.6751 0.6746 0.6740
2559.603641 0.6738 0.6739 0.6739 0.6739 0.6739
2564.615385 0.6740 0.6741 0.6742 0.6743 0.6744
2569.627129 0.6745 0.6745 0.6745 0.6746 0.6746
2574.638873 0.6746 0.6746 0.6746 0.6745 0.6744
2579.650617 0.6743 0.6741 0.6740 0.6738 0.6736
2584.662361 0.6733 0.6731 0.6728 0.6726 0.6724
2589.674105 0.6721 0.6718 0.6715 0.6713 0.6710
2594.685849 0.6707 0.6704 0.6701 0.6698 0.6694
2599.697592 0.6691 0.6688 0.6685 0.6682 0.6679
2604.709336 0.6676 0.6673 0.6670 0.6668 0.6665
2609.721080 0.6662 0.6659 0.6656 0.6653 0.6650
2614.732824 0.6647 0.6644 0.6641 0.6638 0.6635
2619.744568 0.6632 0.6629 0.6626 0.6623 0.6621
2624.756312 0.6618 0.6615 0.6612 0.6609 0.6606
2629.768056 0.6603 0.6600 0.6597 0.6594 0.6591
2634.779800 0.6588 0.6585 0.6583 0.6583 0.6583
2639.791544 0.6583 0.6583 0.6582 0.6581 0.6580
2644.803288 0.6578 0.6577 0.6576 0.6575 0.6572
2649.815032 0.6568 0.6565 0.6561 0.6557 0.6553
2654.826776 0.6549 0.6545 0.6542 0.6538 0.6534
2659.838520 0.6530 0.6526 0.6522 0.6518 0.6514
2664.850264 0.6511 0.6507 0.6503 0.6499 0.6495
2669.862008 0.6492 0.6488 0.6485 0.6482 0.6478
2674.873752 0.6475 0.6472 0.6470 0.6467 0.6464
2679.885496 0.6462 0.6459 0.6456 0.6454 0.6452
2684.897240 0.6449 0.6447 0.6444 0.6442 0.6440
2689.908984 0.6437 0.6435 0.6432 0.6430 0.6428
2694.920728 0.6425 0.6423 0.6420 0.6414 0.6402
2699.932472 0.6389 0.6374 0.6358 0.6341 0.6323
2704.944216 0.6306 0.6289 0.6272 0.6255 0.6238
2709.955960 0.6222 0.6206 0.6190 0.6173 0.6157
2714.967704 0.6141 0.6126 0.6112 0.6099 0.6085
2719.979448 0.6071 0.6058 0.6044 0.6031 0.6022
2724.991192 0.6015 0.6009 0.6003 0.5997 0.5991
2730.002936 0.5985 0.5979 0.5973 0.5967 0.5961
2735.014680 0.5954 0.5948 0.5942 0.5935 0.5929
2740.026424 0.5923 0.5916 0.5910 0.5904 0.5898
2745.038168 0.5891 0.5885 0.5880 0.5875 0.5870
2750.049912 0.5865 0.5860 0.5855 0.5851 0.5846
2755.061656 0.5841 0.5837 0.5832 0.5827 0.5823
2760.073400 0.5818 0.5813 0.5805 0.5795 0.5785
2765.085144 0.5775 0.5765 0.5755 0.5745 0.5735
2770.096888 0.5725 0.5714 0.5704 0.5696 0.5693
2775.108632 0.5690 0.5687 0.5683 0.5680 0.5677
2780.120376 0.5673 0.5670 0.5666 0.5662 0.5659
2785.132120 0.5654 0.5648 0.5641 0.5634 0.5628
2790.143864 0.5622 0.5616 0.5610 0.5606 0.5603
2795.155608 0.5599 0.5595 0.5591 0.5588 0.5584
2800.167352 0.5581 0.5578 0.5576 0.5573 0.5571
2805.179096 0.5568 0.5565 0.5563 0.5561 0.5559
2810.190840 0.5557 0.5555 0.5553 0.5552 0.5550
2815.202584 0.5549 0.5547 0.5546 0.5543 0.5539
2820.214328 0.5535 0.5531 0.5526 0.5521 0.5516
2825.226072 0.5510 0.5505 0.5499 0.5493 0.5487
2830.237816 0.5481 0.5475 0.5469 0.5464 0.5463
2835.249560 0.5463 0.5464 0.5466 0.5467 0.5468
2840.261304 0.5470 0.5471 0.5473 0.5477 0.5481
2845.273048 0.5484 0.5488 0.5493 0.5499 0.5504
2850.284792 0.5510 0.5515 0.5520 0.5525 0.5526
2855.296536 0.5526 0.5523 0.5520 0.5517 0.5513
2860.308280 0.5510 0.5506 0.5502 0.5498 0.5494
2865.320023 0.5490 0.5488 0.5488 0.5490 0.5492
2870.331767 0.5494 0.5497 0.5500 0.5503 0.5499
2875.343511 0.5492 0.5485 0.5471 0.5449 0.5427
2880.355255 0.5404 0.5380 0.5354 0.5331 0.5310
2885.366999 0.5290 0.5272 0.5256 0.5240 0.5224
2890.378743 0.5208 0.5192 0.5177 0.5161 0.5145
2895.390487 0.5130 0.5114 0.5098 0.5081 0.5065
2900.402231 0.5049 0.5033 0.5017 0.5005 0.4993
2905.413975 0.4981 0.4969 0.4957 0.4945 0.4933
2910.425719 0.4921 0.4909 0.4898 0.4887 0.4877
2915.437463 0.4866 0.4856 0.4845 0.4835 0.4824
2920.449207 0.4814 0.4803 0.4793 0.4783 0.4776
2925.460951 0.4769 0.4763 0.4756 0.4750 0.4743
2930.472695 0.4737 0.4730 0.4723 0.4716 0.4712
2935.484439 0.4707 0.4703 0.4698 0.4694 0.4689
2940.496183 0.4685 0.4680 0.4675 0.4671 0.4666
2945.507927 0.4662 0.4657 0.4653 0.4648 0.4643
2950.519671 0.4637 0.4632 0.4626 0.4621 0.4615
2955.531415 0.4610 0.4604 0.4600 0.4595 0.4591
2960.543159 0.4586 0.4582 0.4578 0.4573 0.4569
2965.554903 0.4564 0.4559 0.4555 0.4550 0.4546
2970.566647 0.4541 0.4537 0.4532 0.4528 0.4523
2975.578391 0.4518 0.4514 0.4509 0.4505 0.4500
2980.590135 0.4498 0.4495 0.4493 0.4490 0.4488
2985.601879 0.4485 0.4483 0.4480 0.4478 0.4475
2990.613623 0.4473 0.4471 0.4469 0.4467 0.4466
2995.625367 0.4464 0.4462 0.4461 0.4460 0.4459
3000.637111 0.4459 0.4458 0.4457 0.4455 0.4449
3005.648855 0.4440 0.4430 0.4420 0.4411 0.4401
3010.660599 0.4392 0.4382 0.4372 0.4363 0.4353
3015.672343 0.4344 0.4336 0.4327 0.4321 0.4321
3020.684087 0.4323 0.4326 0.4331 0.4339 0.4347
3025.695831 0.4352 0.4354 0.4356 0.4359 0.4358
3030.707575 0.4348 0.4337 0.4328 0.4319 0.4309
3035.719319 0.4301 0.4292 0.4283 0.4272 0.4261
3040.731063 0.4250 0.4239 0.4229 0.4222 0.4215
3045.742807 0.4208 0.4201 0.4197 0.4193 0.4189
3050.754551 0.4185 0.4181 0.4178 0.4174 0.4170
3055.766295 0.4169 0.4167 0.4166 0.4166 0.4170
3060.778039 0.4174 0.4179 0.4184 0.4188 0.4191
3065.789783 0.4194 0.4197 0.4200 0.4202 0.4205
3070.801527 0.4207 0.4206 0.4205 0.4205 0.4203
3075.813271 0.4201 0.4198 0.4196 0.4193 0.4190
3080.825015 0.4185 0.4179 0.4172 0.4166 0.4160
3085.836759 0.4153 0.4147 0.4140 0.4133 0.4125
3090.848503 0.4118 0.4111 0.4105 0.4100 0.4096
3095.860247 0.4092 0.4087 0.4083 0.4079 0.4077
3100.871991 0.4078 0.4078 0.4078 0.4078 0.4079
3105.883735 0.4079 0.4079 0.4080 0.4079 0.4079
3110.895479 0.4079 0.4079 0.4078 0.4078 0.4078
3115.907223 0.4074 0.4067 0.4059 0.4045 0.4030
3120.918967 0.4019 0.4011 0.4005 0.3999 0.3994
3125.930711 0.3988 0.3982 0.3977 0.3971 0.3965
3130.942454 0.3960 0.3954 0.3950 0.3945 0.3941
3135.954198 0.3937 0.3932 0.3928 0.3923 0.3919
3140.965942 0.3914 0.3910 0.3906 0.3901 0.3897
3145.977686 0.3892 0.3889 0.3885 0.3881 0.3878
3150.989430 0.3875 0.3871 0.3868 0.3865 0.3862
3156.001174 0.3858 0.3855 0.3851 0.3848 0.3845
3161.012918 0.3841 0.3838 0.3837 0.3835 0.3834
3166.024662 0.3832 0.3830 0.3829 0.3827 0.3826
3171.036406 0.3824 0.3822 0.3821 0.3819 0.3818
3176.048150 0.3816 0.3814 0.3813 0.3811 0.3809
3181.059894 0.3808 0.3806 0.3804 0.3802 0.3800
3186.071638 0.3798 0.3796 0.3793 0.3791 0.3789
3191.083382 0.3787 0.3784 0.3782 0.3780 0.3777
3196.095126 0.3766 0.3773 0.3770 0.3767 0.3764
3201.106870 0.3760 0.3757 0.3754 0.3751 0.3748
3206.118614 0.3745 0.3744 0.3744 0.3743 0.3743
3211.130358 0.3743 0.3750 0.3757 0.3764 0.3771
3216.142102 0.3778 0.3785 0.3792 0.3798 0.3804
3221.153846 0.3811 0.3816 0.3819 0.3817 0.3816
3226.165590 0.3814 0.3812 0.3811 0.3809 0.3808
3231.177334 0.3814 0.3823 0.3833 0.3841 0.3848
3236.189078 0.3854 0.3860 0.3866 0.3872 0.3878
3241.200822 0.3883 0.3884 0.3884 0.3885 0.3885
3246.212566 0.3885 0.3885 0.3886 0.3888 0.3893
3251.224310 0.3897 0.3902 0.3909 0.3918 0.3927
3256.236054 0.3936 0.3945 0.3951 0.3957 0.3963
3261.247798 0.3969 0.3973 0.3978 0.3983 0.3987
3266.259542 0.3992 0.3997 0.4001 0.4006 0.4011
3271.271286 0.4016 0.4021 0.4026 0.4031 0.4036
3276.283030 0.4042 0.4047 0.4053 0.4061 0.4068
3281.294774 0.4076 0.4084 0.4092 0.4100 0.4107
3286.306518 0.4113 0.4118 0.4123 0.4128 0.4133
3291.318262 0.4138 0.4143 0.4147 0.4152 0.4157
3296.330006 0.4161 0.4166 0.4172 0.4179 0.4185
3301.341750 0.4192 0.4198 0.4204 0.4211 0.4218
3306.353494 0.4227 0.4238 0.4253 0.4268 0.4281
3311.365238 0.4293 0.4304 0.4316 0.4328 0.4340
3316.376982 0.4353 0.4365 0.4377 0.4390 0.4402
3321.388726 0.4414 0.4426 0.4438 0.4450 0.4462
3326.400470 0.4473 0.4483 0.4492 0.4501 0.4510
3331.412214 0.4519 0.4528 0.4536 0.4543 0.4548
3336.423958 0.4552 0.4555 0.4557 0.4560 0.4563
3341.435702 0.4566 0.4570 0.4573 0.4576 0.4579
3346.447446 0.4581 0.4584 0.4588 0.4593 0.4599
3351.459190 0.4608 0.4620 0.4634 0.4649 0.4663
3356.470934 0.4675 0.4687 0.4698 0.4710 0.4719
3361.482678 0.4725 0.4731 0.4737 0.4743 0.4749
3366.494422 0.4755 0.4761 0.4767 0.4772 0.4778
3371.506166 0.4784 0.4789 0.4795 0.4801 0.4807
3376.517910 0.4813 0.4818 0.4824 0.4830 0.4836
3381.529654 0.4841 0.4847 0.4852 0.4858 0.4863
3386.541398 0.4868 0.4874 0.4879 0.4885 0.4892
3391.553142 0.4898 0.4905 0.4911 0.4918 0.4925
3396.564885 0.4931 0.4938 0.4945 0.4951 0.4958
3401.576629 0.4965 0.4972 0.4979 0.4985 0.4992
3406.588373 0.4999 0.5006 0.5013 0.5018 0.5022
3411.600117 0.5025 0.5029 0.5032 0.5036 0.5039
3416.611861 0.5043 0.5046 0.5050 0.5053 0.5058
3421.623605 0.5063 0.5068 0.5074 0.5079 0.5084
3426.635349 0.5089 0.5094 0.5099 0.5105 0.5110
3431.647093 0.5115 0.5121 0.5126 0.5131 0.5137
3436.658837 0.5142 0.5147 0.5152 0.5157 0.5162
3441.670581 0.5167 0.5173 0.5178 0.5183 0.5189
3446.682325 0.5195 0.5202 0.5208 0.5215 0.5222
3451.694069 0.5228 0.5235 0.5241 0.5248 0.5254
3456.705813 0.5260 0.5266 0.5272 0.5278 0.5284
3461.717557 0.5291 0.5297 0.5306 0.5320 0.5335
3466.729301 0.5351 0.5366 0.5387 0.5409 0.5432
3471.741045 0.5445 0.5454 0.5464 0.5473 0.5480
3476.752789 0.5486 0.5491 0.5497 0.5503 0.5509
3481.764533 0.5515 0.5521 0.5527 0.5533 0.5539
3486.776277 0.5545 0.5551 0.5557 0.5563 0.5569
3491.788021 0.5576 0.5582 0.5588 0.5594 0.5600
3496.799765 0.5607 0.5613 0.5620 0.5626 0.5633
3501.811509 0.5639 0.5646 0.5652 0.5659 0.5666
3506.823253 0.5672 0.5679 0.5685 0.5693 0.5701
3511.834997 0.5709 0.5717 0.5725 0.5733 0.5741
3516.846741 0.5750 0.5758 0.5766 0.5774 0.5783
3521.858485 0.5792 0.5800 0.5809 0.5818 0.5826
3526.870229 0.5835 0.5843 0.5851 0.5858 0.5866
3531.881973 0.5874 0.5883 0.5900 0.5917 0.5934
3536.893717 0.5951 0.5972 0.6000 0.6030 0.6058
3541.905461 0.6081 0.6091 0.6100 0.6109 0.6119
3546.917205 0.6128 0.6137 0.6147 0.6157 0.6167
3551.928949 0.6177 0.6187 0.6198 0.6208 0.6217
3556.940693 0.6226 0.6236 0.6246 0.6255 0.6265
3561.952437 0.6275 0.6284 0.6293 0.6303 0.6312
3566.964181 0.6320 0.6328 0.6336 0.6344 0.6352
3571.975925 0.6360 0.6368 0.6377 0.6386 0.6396
3576.987669 0.6405 0.6415 0.6424 0.6434 0.6444
3581.999413 0.6455 0.6467 0.6480 0.6493 0.6506
3587.011157 0.6518 0.6531 0.6544 0.6558 0.6573
3592.022901 0.6588 0.6602 0.6617 0.6631 0.6645
3597.034645 0.6659 0.6674 0.6688 0.6702 0.6715
3602.046389 0.6720 0.6724 0.6728 0.6732 0.6736
3607.058133 0.6740 0.6743 0.6746 0.6749 0.6752
3612.069877 0.6755 0.6758 0.6766 0.6779 0.6793
3617.081621 0.6806 0.6820 0.6836 0.6852 0.6867
3622.093365 0.6883 0.6899 0.6914 0.6929 0.6941
3627.105109 0.6953 0.6964 0.6976 0.6985 0.6994
3632.116853 0.7003 0.7012 0.7021 0.7028 0.7034
3637.128597 0.7040 0.7045 0.7051 0.7057 0.7063
3642.140341 0.7069 0.7074 0.7078 0.7081 0.7085
3647.152085 0.7088 0.7090 0.7090 0.7089 0.7089
3652.163829 0.7089 0.7089 0.7088 0.7088 0.7088
3657.175573 0.7087 0.7087 0.7086 0.7086 0.7085
3662.187317 0.7084 0.7084 0.7083 0.7081 0.7078
3667.199060 0.7074 0.7071 0.7068 0.7064 0.7061
3672.210804 0.7058 0.7054 0.7051 0.7048 0.7044
3677.222548 0.7041 0.7039 0.7037 0.7035 0.7034
3682.234292 0.7032 0.7030 0.7028 0.7027 0.7028
3687.246036 0.7031 0.7035 0.7038 0.7041 0.7045
3692.257780 0.7048 0.7052 0.7056 0.7062 0.7068
3697.269524 0.7074 0.7081 0.7091 0.7101 0.7111
3702.281268 0.7121 0.7131 0.7153 0.7182 0.7157
3707.293012 0.7160 0.7158 0.7155 0.7152 0.7150
3712.304756 0.7147 0.7144 0.7140 0.7137 0.7133
3717.316500 0.7130 0.7126 0.7123 0.7120 0.7118
3722.328244 0.7115 0.7113 0.7111 0.7109 0.7108
3727.339988 0.7107 0.7106 0.7104 0.7103 0.7102
3732.351732 0.7101 0.7101 0.7101 0.7102 0.7102
3737.363476 0.7102 0.7102 0.7104 0.7105 0.7107
3742.375220 0.7108 0.7109 0.7110 0.7111 0.7112
3747.386964 0.7113 0.7114 0.7115 0.7116 0.7117
3752.398708 0.7118 0.7118 0.7118 0.7119 0.7119
3757.410452 0.7119 0.7118 0.7117 0.7116 0.7115
3762.422196 0.7114 0.7113 0.7112 0.7111 0.7110
3767.433940 0.7109 0.7108 0.7106 0.7102 0.7099
3772.445684 0.7095 0.7091 0.7087 0.7083 0.7079
3777.457428 0.7075 0.7071 0.7067 0.7064 0.7060
3782.469172 0.7054 0.7048 0.7041 0.7035 0.7029
3787.480916 0.7023 0.7017 0.7011 0.7003 0.6994
3792.492660 0.6986 0.6977 0.6969 0.6960 0.6951
3797.504404 0.6944 0.6939 0.6936 0.6933 0.6933
3802.516148 0.6937 0.6943 0.6949 0.6955 0.6961
3807.527892 0.6968 0.6976 0.6985 0.6994 0.7003
3812.539636 0.7011 0.7017 0.7019 0.7016 0.7014
3817.551380 0.7011 0.7009 0.7006 0.7004 0.7001
3822.563124 0.6997 0.6993 0.6990 0.6986 0.6982
3827.574868 0.6979 0.6975 0.6971 0.6968 0.6965
3832.586612 0.6962 0.6958 0.6955 0.6952 0.6950
3837.598356 0.6948 0.6946 0.6944 0.6942 0.6941
3842.610100 0.6939 0.6937 0.6935 0.6933 0.6931
3847.621844 0.6929 0.6928 0.6928 0.6928 0.6928
3852.633588 0.6928 0.6928 0.6928 0.6928 0.6928
3857.645332 0.6928 0.6928 0.6928 0.6928 0.6928
3862.657076 0.6928 0.6928 0.6928 0.6929 0.6929
3867.668820 0.6929 0.6930 0.6930 0.6930 0.6930
3872.680564 0.6931 0.6931 0.6931 0.6931 0.6932
3877.692308 0.6932 0.6932 0.6933 0.6933 0.6933
3882.704052 0.6933 0.6934 0.6933 0.6933 0.6932
3887.715796 0.6932 0.6931 0.6931 0.6930 0.6930
3892.727540 0.6929 0.6929 0.6926 0.6921 0.6915
3897.739284 0.6908 0.6899 0.6890 0.6880 0.6870
3902.751028 0.6863 0.6858 0.6853 0.6847 0.6842
3907.762772 0.6840 0.6844 0.6850 0.6856 0.6867
3912.774516 0.6879 0.6891 0.6902 0.6902 0.6897
3917.786260 0.6883 0.6863 0.6849 0.6842 0.6837
3922.798004 0.6833 0.6831 0.6833 0.6834 0.6836
3927.809748 0.6840 0.6844 0.6851 0.6858 0.6863
3932.821491 0.6866 0.6869 0.6871 0.6872 0.6869
3937.833235 0.6869 0.6861 0.6857 0.6853 0.6849
3942.844979 0.6845 0.6841 0.6837 0.6833 0.6829
3947.856723 0.6823 0.6818 0.6812 0.6807 0.6802
3952.868467 0.6798 0.6796 0.6793 0.6790 0.6787
3957.880211 0.6785 0.6786 0.6787 0.6788 0.6789
3962.891955 0.6790 0.6793 0.6796 0.6798 0.6801
3967.903699 0.6804 0.6807 0.6809 0.6812 0.6815
3972.915443 0.6817 0.6820 0.6823 0.6824 0.6822
3977.927187 0.6820 0.6818 0.6812 0.6805 0.6796
3982.938931 0.6787 0.6775 0.6762 0.6749 0.6734
3987.950675 0.6719 0.6712 0.6710 0.6707 0.6731
3992.962419 0.6753 0.6763 0.6772 0.6780 0.6785
3997.974163 0.6790 0.6796 0.6858 0.6877 0.6888
4002.985907 0.6899 0.6909 0.6920 0.6930 0.6941
4007.997651 0.6943
##END=
