##TITLE=Thorium sulfate hydrate
##JCAMP-DX=4.24
##DATA TYPE=INFRARED SPECTRUM
##CLASS=COBLENTZ III
##ORIGIN=DOW CHEMICAL COMPANY
##OWNER=COBLENTZ SOC.
Collection (C) 2018 copyright by the U.S. Secretary of Commerce
on behalf of the United States of America. All rights reserved.
##DATE=1965/08/23
##MOLFORM=O8 S2 Th  * 8 H2 O
##SOURCE REFERENCE=COBLENTZ NO. 08653
##$NIST ID=B6008653
##$NIST SOURCE=COBLENTZ
##$NIST IMAGE=cob8653
##SPECTROMETER/DATA SYSTEM=BECKMAN IR-9 (GRATING)
##INSTRUMENT PARAMETERS=ORDER CHANGES: 670, 1200, 2000 CM^-^1
##STATE=SOLID (SPLIT MULL), FLUOROLUBE FOR 3800-1330 CM^-^1, NUJOL FOR 1330-400 CM^-^1
$$ SPECTRAL FEATURE AT 1340 CM^-^1 IS AN ARTIFACT CAUSED BY A CHANGE IN SOLVENT
##SAMPLING PROCEDURE=TRANSMISSION
##RESOLUTION=2
##DATA PROCESSING=DIGITIZED BY COBLENTZ SOCIETY (BATCH I) FROM HARD COPY
##XUNITS=1/CM
##YUNITS=TRANSMITTANCE
##XLABEL=Wavenumbers (cm-1)
##YLABEL=% Transmission
##XFACTOR=1
##YFACTOR=1
##DELTAX=1
##FIRSTX=402
##LASTX=3804
##FIRSTY=0.4149
##MAXX=3804
##MINX=402
##MAXY=0.8639
##MINY=0
##NPOINTS=3403
##XYDATA=(X++(Y..Y))
402.000000 0.4149 0.4141 0.4135 0.4131 0.4126
407.000000 0.4122 0.4118 0.4112 0.4112 0.4115
412.000000 0.4138 0.4120 0.4122 0.4124 0.4126
417.000000 0.4132 0.4142 0.4152 0.4162 0.4171
422.000000 0.4181 0.4193 0.4208 0.4223 0.4238
427.000000 0.4253 0.4267 0.4280 0.4293 0.4306
432.000000 0.4319 0.4332 0.4346 0.4359 0.4374
437.000000 0.4391 0.4408 0.4425 0.4442 0.4459
442.000000 0.4475 0.4490 0.4504 0.4518 0.4532
447.000000 0.4546 0.4560 0.4574 0.4588 0.4602
452.000000 0.4616 0.4630 0.4649 0.4667 0.4685
457.000000 0.4703 0.4722 0.4740 0.4758 0.4775
462.000000 0.4792 0.4806 0.4810 0.4817 0.4822
467.000000 0.4827 0.4832 0.4836 0.4840 0.4845
472.000000 0.4855 0.4866 0.4879 0.4899 0.4919
477.000000 0.4942 0.4968 0.4982 0.4996 0.5010
482.000000 0.5020 0.5028 0.5035 0.5043 0.5050
487.000000 0.5058 0.5065 0.5073 0.5080 0.5087
492.000000 0.5093 0.5100 0.5107 0.5112 0.5112
497.000000 0.5112 0.5110 0.5110 0.5110 0.5110
502.000000 0.5108 0.5106 0.5104 0.5101 0.5099
507.000000 0.5087 0.5074 0.5055 0.5035 0.5019
512.000000 0.5005 0.4992 0.4979 0.4967 0.4954
517.000000 0.4943 0.4932 0.4921 0.4909 0.4898
522.000000 0.4888 0.4877 0.4867 0.4856 0.4846
527.000000 0.4836 0.4825 0.4812 0.4799 0.4785
532.000000 0.4771 0.4758 0.4744 0.4730 0.4715
537.000000 0.4696 0.4677 0.4658 0.4639 0.4619
542.000000 0.4600 0.4581 0.4560 0.4532 0.4504
547.000000 0.4476 0.4448 0.4420 0.4389 0.4354
552.000000 0.4319 0.4285 0.4250 0.4216 0.4180
557.000000 0.4127 0.4075 0.4023 0.3970 0.3893
562.000000 0.3816 0.3748 0.3700 0.3654 0.3606
567.000000 0.3559 0.3512 0.3464 0.3359 0.3240
572.000000 0.3114 0.2972 0.2860 0.2774 0.2689
577.000000 0.2603 0.2517 0.2431 0.2319 0.2178
582.000000 0.2014 0.1804 0.1753 0.1727 0.1716
587.000000 0.1704 0.1694 0.1687 0.1676 0.1743
592.000000 0.1829 0.1917 0.2004 0.2092 0.2179
597.000000 0.2266 0.2313 0.2309 0.2344 0.2226
602.000000 0.2165 0.2104 0.2043 0.1990 0.1966
607.000000 0.1982 0.2044 0.2108 0.2171 0.2234
612.000000 0.2279 0.2268 0.2173 0.2054 0.1936
617.000000 0.1936 0.1936 0.2137 0.2261 0.2298
622.000000 0.2333 0.2367 0.2402 0.2435 0.2469
627.000000 0.2496 0.2521 0.2546 0.2558 0.2560
632.000000 0.2550 0.2515 0.2470 0.2398 0.2296
637.000000 0.2176 0.2118 0.2063 0.2024 0.2001
642.000000 0.1999 0.2007 0.1984 0.2034 0.2075
647.000000 0.2267 0.2645 0.2897 0.3080 0.3257
652.000000 0.3425 0.3552 0.3662 0.3747 0.3821
657.000000 0.3895 0.3968 0.4023 0.4077 0.4132
662.000000 0.4192 0.4225 0.4251 0.4268 0.4286
667.000000 0.4303 0.4321 0.4335 0.4350 0.4365
672.000000 0.4380 0.4393 0.4401 0.4409 0.4417
677.000000 0.4425 0.4433 0.4441 0.4449 0.4454
682.000000 0.4458 0.4462 0.4466 0.4470 0.4475
687.000000 0.4479 0.4483 0.4486 0.4488 0.4490
692.000000 0.4493 0.4495 0.4497 0.4500 0.4501
697.000000 0.4501 0.4497 0.4493 0.4489 0.4484
702.000000 0.4480 0.4475 0.4468 0.4460 0.4455
707.000000 0.4448 0.4441 0.4433 0.4412 0.4392
712.000000 0.4372 0.4348 0.4316 0.4283 0.4251
717.000000 0.4218 0.4173 0.4128 0.4082 0.4030
722.000000 0.3973 0.3926 0.3907 0.3907 0.3899
727.000000 0.3912 0.3923 0.3946 0.3987 0.4042
732.000000 0.4133 0.4186 0.4241 0.4314 0.4387
737.000000 0.4467 0.4541 0.4601 0.4660 0.4721
742.000000 0.4776 0.4823 0.4870 0.4917 0.4964
747.000000 0.5010 0.5055 0.5100 0.5148 0.5196
752.000000 0.5244 0.5292 0.5337 0.5374 0.5410
757.000000 0.5446 0.5482 0.5518 0.5551 0.5581
762.000000 0.5610 0.5640 0.5670 0.5700 0.5730
767.000000 0.5760 0.5790 0.5819 0.5844 0.5870
772.000000 0.5895 0.5921 0.5947 0.5972 0.5998
777.000000 0.6023 0.6049 0.6074 0.6100 0.6124
782.000000 0.6148 0.6172 0.6196 0.6220 0.6244
787.000000 0.6269 0.6292 0.6308 0.6323 0.6339
792.000000 0.6354 0.6370 0.6385 0.6401 0.6415
797.000000 0.6432 0.6447 0.6461 0.6474 0.6488
802.000000 0.6501 0.6514 0.6526 0.6540 0.6553
807.000000 0.6568 0.6584 0.6600 0.6615 0.6631
812.000000 0.6646 0.6661 0.6676 0.6692 0.6707
817.000000 0.6721 0.6736 0.6748 0.6751 0.6757
822.000000 0.6761 0.6767 0.6771 0.6775 0.6781
827.000000 0.6785 0.6787 0.6789 0.6792 0.6794
832.000000 0.6796 0.6799 0.6801 0.6801 0.6803
837.000000 0.6798 0.6795 0.6793 0.6791 0.6789
842.000000 0.6782 0.6775 0.6768 0.6760 0.6753
847.000000 0.6746 0.6739 0.6732 0.6724 0.6711
852.000000 0.6696 0.6682 0.6667 0.6651 0.6638
857.000000 0.6622 0.6608 0.6594 0.6578 0.6562
862.000000 0.6547 0.6532 0.6515 0.6500 0.6485
867.000000 0.6468 0.6454 0.6440 0.6426 0.6415
872.000000 0.6401 0.6390 0.6378 0.6375 0.6374
877.000000 0.6372 0.6371 0.6369 0.6368 0.6367
882.000000 0.6368 0.6368 0.6388 0.6371 0.6373
887.000000 0.6374 0.6376 0.6377 0.6379 0.6380
892.000000 0.6382 0.6386 0.6391 0.6396 0.6401
897.000000 0.6411 0.6430 0.6449 0.6467 0.6499
902.000000 0.6530 0.6561 0.6592 0.6621 0.6651
907.000000 0.6678 0.6704 0.6730 0.6756 0.6782
912.000000 0.6808 0.6828 0.6841 0.6854 0.6867
917.000000 0.6874 0.6875 0.6875 0.6874 0.6872
922.000000 0.6881 0.6868 0.6862 0.6858 0.6853
927.000000 0.6845 0.6836 0.6828 0.6818 0.6810
932.000000 0.6801 0.6789 0.6775 0.6761 0.6748
937.000000 0.6731 0.6712 0.6695 0.6676 0.6660
942.000000 0.6643 0.6626 0.6610 0.6593 0.6576
947.000000 0.6560 0.6543 0.6526 0.6511 0.6495
952.000000 0.6478 0.6462 0.6447 0.6431 0.6415
957.000000 0.6391 0.6365 0.6339 0.6312 0.6287
962.000000 0.6259 0.6228 0.6198 0.6167 0.6137
967.000000 0.6106 0.6074 0.6041 0.6007 0.5974
972.000000 0.5941 0.5902 0.5844 0.5786 0.5728
977.000000 0.5670 0.5616 0.5567 0.5518 0.5470
982.000000 0.5404 0.5335 0.5265 0.5192 0.5118
987.000000 0.5045 0.4975 0.4910 0.4846 0.4781
992.000000 0.4716 0.4628 0.4489 0.4350 0.4201
997.000000 0.4048 0.3652 0.3520 0.3388 0.3256
1002.000000 0.3151 0.3061 0.2971 0.2881 0.2791
1007.000000 0.2612 0.2461 0.2406 0.2382 0.2368
1012.000000 0.2355 0.2341 0.2317 0.2284 0.2231
1017.000000 0.2144 0.1878 0.1829 0.1804 0.1768
1022.000000 0.1731 0.1682 0.1623 0.1566 0.1511
1027.000000 0.1456 0.1400 0.1345 0.1292 0.1256
1032.000000 0.1226 0.1196 0.1165 0.1142 0.1130
1037.000000 0.1117 0.1105 0.1092 0.1082 0.1071
1042.000000 0.1060 0.1049 0.1017 0.0976 0.0926
1047.000000 0.0876 0.0826 0.0637 0.0559 0.0506
1052.000000 0.0452 0.0410 0.0378 0.0345 0.0313
1057.000000 0.0293 0.0277 0.0260 0.0243 0.0227
1062.000000 0.0212 0.0199 0.0184 0.0172 0.0158
1067.000000 0.0146 0.0138 0.0129 0.0120 0.0112
1072.000000 0.0104 0.0104 0.0103 0.0101 0.0100
1077.000000 0.0100 0.0101 0.0102 0.0103 0.0105
1082.000000 0.0111 0.0116 0.0121 0.0124 0.0127
1087.000000 0.0130 0.0130 0.0130 0.0127 0.0118
1092.000000 0.0109 0.0099 0.0089 0.0079 0.0068
1097.000000 0.0058 0.0047 0.0037 0.0026 0.0016
1102.000000 0.0006 0.0000 0.0000 0.0000 0.0000
1107.000000 0.0000 0.0000 0.0000 0.0000 0.0000
1112.000000 0.0000 0.0000 0.0000 0.0000 0.0000
1117.000000 0.0000 0.0000 0.0000 0.0000 0.0000
1122.000000 0.0000 0.0000 0.0000 0.0000 0.0000
1127.000000 0.0000 0.0000 0.0000 0.0000 0.0000
1132.000000 0.0000 0.0000 0.0000 0.0000 0.0000
1137.000000 0.0000 0.0000 0.0000 0.0000 0.0000
1142.000000 0.0000 0.0000 0.0000 0.0000 0.0000
1147.000000 0.0000 0.0000 0.0000 0.0000 0.0000
1152.000000 0.0000 0.0000 0.0000 0.0000 0.0000
1157.000000 0.0000 0.0000 0.0000 0.0000 0.0000
1162.000000 0.0000 0.0000 0.0000 0.0001 0.0001
1167.000000 0.0001 0.0001 0.0001 0.0001 0.0001
1172.000000 0.0001 0.0001 0.0001 0.0001 0.0001
1177.000000 0.0001 0.0001 0.0000 0.0004 0.0009
1182.000000 0.0013 0.0017 0.0021 0.0026 0.0033
1187.000000 0.0042 0.0052 0.0067 0.0081 0.0095
1192.000000 0.0107 0.0115 0.0123 0.0131 0.0138
1197.000000 0.0145 0.0152 0.0159 0.0166 0.0174
1202.000000 0.0181 0.0188 0.0195 0.0204 0.0213
1207.000000 0.0224 0.0233 0.0244 0.0254 0.0262
1212.000000 0.0271 0.0279 0.0287 0.0293 0.0299
1217.000000 0.0305 0.0310 0.0312 0.0313 0.0314
1222.000000 0.0314 0.0315 0.0311 0.0307 0.0304
1227.000000 0.0299 0.0288 0.0278 0.0266 0.0256
1232.000000 0.0244 0.0233 0.0221 0.0208 0.0197
1237.000000 0.0183 0.0170 0.0156 0.0144 0.0133
1242.000000 0.0123 0.0113 0.0102 0.0097 0.0093
1247.000000 0.0089 0.0085 0.0082 0.0080 0.0079
1252.000000 0.0077 0.0076 0.0076 0.0076 0.0076
1257.000000 0.0076 0.0076 0.0076 0.0076 0.0077
1262.000000 0.0077 0.0078 0.0079 0.0079 0.0080
1267.000000 0.0081 0.0083 0.0085 0.0087 0.0093
1272.000000 0.0104 0.0123 0.0153 0.0198 0.0248
1277.000000 0.0302 0.0362 0.0485 0.0650 0.0816
1282.000000 0.0981 0.1146 0.1314 0.1445 0.1553
1287.000000 0.1627 0.1700 0.1784 0.1874 0.1964
1292.000000 0.2122 0.2275 0.2401 0.2477 0.2553
1297.000000 0.2623 0.2693 0.2765 0.2858 0.2951
1302.000000 0.3230 0.3353 0.3470 0.3549 0.3629
1307.000000 0.3736 0.3862 0.3989 0.4116 0.4210
1312.000000 0.4286 0.4360 0.4440 0.4530 0.4620
1317.000000 0.4692 0.4758 0.4825 0.4892 0.4960
1322.000000 0.5022 0.5070 0.5117 0.5158 0.5199
1327.000000 0.5260 0.5057 0.5368 0.3910 0.3410
1332.000000 0.3425 0.3439 0.3449 0.3459 0.3471
1337.000000 0.3484 0.3497 0.3509 0.3523 0.3536
1342.000000 0.3549 0.3562 0.3576 0.3590 0.3604
1347.000000 0.3646 0.3720 0.3832 0.3959 0.4082
1352.000000 0.4206 0.4300 0.4374 0.4421 0.4468
1357.000000 0.4514 0.4559 0.4604 0.4646 0.4681
1362.000000 0.4716 0.4751 0.4786 0.4812 0.4839
1367.000000 0.4865 0.4891 0.4914 0.4936 0.4958
1372.000000 0.4980 0.5002 0.5019 0.5036 0.5053
1377.000000 0.5070 0.5087 0.5100 0.5112 0.5125
1382.000000 0.5137 0.5149 0.5162 0.5173 0.5184
1387.000000 0.5196 0.5207 0.5218 0.5229 0.5240
1392.000000 0.5250 0.5257 0.5262 0.5269 0.5276
1397.000000 0.5282 0.5289 0.5297 0.5305 0.5312
1402.000000 0.5320 0.5327 0.5335 0.5342 0.5350
1407.000000 0.5357 0.5365 0.5372 0.5379 0.5386
1412.000000 0.5392 0.5399 0.5406 0.5415 0.5426
1417.000000 0.5437 0.5448 0.5459 0.5470 0.5480
1422.000000 0.5491 0.5502 0.5512 0.5527 0.5541
1427.000000 0.5555 0.5570 0.5584 0.5594 0.5604
1432.000000 0.5614 0.5624 0.5634 0.5642 0.5647
1437.000000 0.5652 0.5657 0.5662 0.5668 0.5674
1442.000000 0.5680 0.5686 0.5692 0.5698 0.5703
1447.000000 0.5709 0.5715 0.5721 0.5727 0.5733
1452.000000 0.5738 0.5742 0.5746 0.5750 0.5754
1457.000000 0.5757 0.5760 0.5765 0.5769 0.5773
1462.000000 0.5777 0.5780 0.5783 0.5785 0.5788
1467.000000 0.5790 0.5793 0.5795 0.5798 0.5800
1472.000000 0.5803 0.5805 0.5808 0.5810 0.5812
1477.000000 0.5815 0.5817 0.5819 0.5821 0.5823
1482.000000 0.5824 0.5826 0.5828 0.5829 0.5831
1487.000000 0.5833 0.5835 0.5836 0.5838 0.5839
1492.000000 0.5841 0.5842 0.5844 0.5845 0.5851
1497.000000 0.5848 0.5848 0.5848 0.5848 0.5848
1502.000000 0.5848 0.5848 0.5848 0.5848 0.5848
1507.000000 0.5848 0.5848 0.5848 0.5848 0.5848
1512.000000 0.5847 0.5847 0.5847 0.5846 0.5846
1517.000000 0.5846 0.5846 0.5846 0.5846 0.5846
1522.000000 0.5846 0.5843 0.5839 0.5834 0.5830
1527.000000 0.5825 0.5821 0.5817 0.5812 0.5808
1532.000000 0.5803 0.5795 0.5787 0.5779 0.5770
1537.000000 0.5762 0.5754 0.5745 0.5737 0.5728
1542.000000 0.5720 0.5712 0.5703 0.5695 0.5687
1547.000000 0.5678 0.5670 0.5660 0.5653 0.5642
1552.000000 0.5632 0.5621 0.5610 0.5600 0.5590
1557.000000 0.5580 0.5569 0.5559 0.5548 0.5535
1562.000000 0.5523 0.5510 0.5497 0.5484 0.5472
1567.000000 0.5459 0.5441 0.5420 0.5399 0.5378
1572.000000 0.5357 0.5336 0.5315 0.5294 0.5272
1577.000000 0.5246 0.5218 0.5190 0.5162 0.5134
1582.000000 0.5107 0.5078 0.5050 0.5021 0.4992
1587.000000 0.4962 0.4934 0.4905 0.4876 0.4847
1592.000000 0.4818 0.4785 0.4752 0.4719 0.4686
1597.000000 0.4653 0.4616 0.4567 0.4517 0.4468
1602.000000 0.4418 0.4368 0.4317 0.4267 0.4215
1607.000000 0.4155 0.4096 0.3986 0.3873 0.3660
1612.000000 0.3543 0.3453 0.3350 0.3237 0.3146
1617.000000 0.3103 0.3073 0.3043 0.3012 0.2982
1622.000000 0.2952 0.2921 0.2893 0.2865 0.2838
1627.000000 0.2811 0.2785 0.2771 0.2759 0.2754
1632.000000 0.2748 0.2743 0.2737 0.2732 0.2727
1637.000000 0.2728 0.2728 0.2722 0.2735 0.2748
1642.000000 0.2761 0.2773 0.2787 0.2801 0.2815
1647.000000 0.2827 0.2839 0.2851 0.2863 0.2875
1652.000000 0.2885 0.2897 0.2907 0.2918 0.2927
1657.000000 0.2935 0.2945 0.2954 0.2963 0.2968
1662.000000 0.2972 0.2976 0.2981 0.2982 0.2982
1667.000000 0.2982 0.2985 0.3001 0.3023 0.3049
1672.000000 0.3077 0.3104 0.3131 0.3160 0.3195
1677.000000 0.3229 0.3262 0.3296 0.3328 0.3359
1682.000000 0.3392 0.3429 0.3468 0.3506 0.3554
1687.000000 0.3616 0.3677 0.3738 0.3799 0.3874
1692.000000 0.3952 0.4030 0.4080 0.4121 0.4160
1697.000000 0.4201 0.4241 0.4280 0.4310 0.4341
1702.000000 0.4372 0.4402 0.4432 0.4457 0.4481
1707.000000 0.4504 0.4528 0.4552 0.4576 0.4600
1712.000000 0.4626 0.4652 0.4678 0.4704 0.4728
1717.000000 0.4747 0.4766 0.4785 0.4804 0.4822
1722.000000 0.4833 0.4844 0.4855 0.4866 0.4877
1727.000000 0.4888 0.4899 0.4910 0.4919 0.4928
1732.000000 0.4936 0.4944 0.4953 0.4960 0.4969
1737.000000 0.4978 0.4986 0.4994 0.5003 0.5010
1742.000000 0.5020 0.5028 0.5036 0.5045 0.5053
1747.000000 0.5062 0.5070 0.5078 0.5087 0.5095
1752.000000 0.5103 0.5112 0.5120 0.5129 0.5137
1757.000000 0.5145 0.5154 0.5162 0.5170 0.5178
1762.000000 0.5186 0.5194 0.5202 0.5210 0.5218
1767.000000 0.5226 0.5234 0.5242 0.5250 0.5258
1772.000000 0.5266 0.5273 0.5281 0.5289 0.5297
1777.000000 0.5304 0.5312 0.5320 0.5327 0.5335
1782.000000 0.5343 0.5350 0.5358 0.5366 0.5374
1787.000000 0.5381 0.5389 0.5397 0.5404 0.5412
1792.000000 0.5420 0.5429 0.5438 0.5448 0.5457
1797.000000 0.5466 0.5475 0.5484 0.5493 0.5502
1802.000000 0.5510 0.5520 0.5529 0.5538 0.5547
1807.000000 0.5556 0.5565 0.5574 0.5583 0.5591
1812.000000 0.5600 0.5609 0.5617 0.5626 0.5635
1817.000000 0.5643 0.5652 0.5660 0.5669 0.5678
1822.000000 0.5687 0.5695 0.5703 0.5710 0.5719
1827.000000 0.5727 0.5735 0.5743 0.5752 0.5760
1832.000000 0.5768 0.5776 0.5784 0.5792 0.5800
1837.000000 0.5808 0.5816 0.5824 0.5833 0.5841
1842.000000 0.5849 0.5857 0.5865 0.5873 0.5881
1847.000000 0.5889 0.5897 0.5905 0.5914 0.5922
1852.000000 0.5932 0.5941 0.5950 0.5960 0.5969
1857.000000 0.5978 0.5988 0.5997 0.6006 0.6016
1862.000000 0.6025 0.6034 0.6044 0.6053 0.6062
1867.000000 0.6072 0.6080 0.6087 0.6093 0.6100
1872.000000 0.6106 0.6112 0.6119 0.6126 0.6132
1877.000000 0.6139 0.6145 0.6152 0.6158 0.6165
1882.000000 0.6171 0.6178 0.6184 0.6191 0.6197
1887.000000 0.6203 0.6209 0.6215 0.6221 0.6227
1892.000000 0.6232 0.6238 0.6244 0.6250 0.6256
1897.000000 0.6262 0.6268 0.6274 0.6281 0.6289
1902.000000 0.6297 0.6305 0.6312 0.6322 0.6330
1907.000000 0.6338 0.6346 0.6354 0.6362 0.6371
1912.000000 0.6379 0.6387 0.6396 0.6404 0.6411
1917.000000 0.6419 0.6428 0.6437 0.6445 0.6453
1922.000000 0.6461 0.6467 0.6471 0.6475 0.6481
1927.000000 0.6485 0.6490 0.6494 0.6499 0.6503
1932.000000 0.6508 0.6511 0.6517 0.6521 0.6525
1937.000000 0.6528 0.6532 0.6535 0.6538 0.6541
1942.000000 0.6544 0.6547 0.6550 0.6554 0.6557
1947.000000 0.6560 0.6562 0.6565 0.6568 0.6571
1952.000000 0.6575 0.6578 0.6582 0.6585 0.6588
1957.000000 0.6591 0.6594 0.6597 0.6600 0.6603
1962.000000 0.6606 0.6608 0.6611 0.6615 0.6618
1967.000000 0.6621 0.6624 0.6626 0.6628 0.6632
1972.000000 0.6635 0.6638 0.6640 0.6643 0.6646
1977.000000 0.6648 0.6651 0.6654 0.6655 0.6656
1982.000000 0.6657 0.6657 0.6657 0.6655 0.6651
1987.000000 0.6651 0.6651 0.6644 0.6642 0.6641
1992.000000 0.6639 0.6637 0.6635 0.6634 0.6634
1997.000000 0.6634 0.6634 0.6635 0.6636 0.6637
2002.000000 0.6639 0.6639 0.6640 0.6641 0.6642
2007.000000 0.6643 0.6644 0.6645 0.6646 0.6646
2012.000000 0.6647 0.6647 0.6647 0.6647 0.6648
2017.000000 0.6648 0.6649 0.6649 0.6649 0.6649
2022.000000 0.6649 0.6649 0.6648 0.6646 0.6644
2027.000000 0.6642 0.6640 0.6638 0.6636 0.6634
2032.000000 0.6632 0.6630 0.6628 0.6624 0.6619
2037.000000 0.6615 0.6611 0.6608 0.6604 0.6600
2042.000000 0.6596 0.6592 0.6588 0.6584 0.6581
2047.000000 0.6576 0.6572 0.6568 0.6565 0.6561
2052.000000 0.6557 0.6553 0.6549 0.6545 0.6541
2057.000000 0.6537 0.6533 0.6528 0.6524 0.6518
2062.000000 0.6514 0.6508 0.6504 0.6499 0.6494
2067.000000 0.6489 0.6484 0.6478 0.6474 0.6468
2072.000000 0.6464 0.6458 0.6453 0.6448 0.6443
2077.000000 0.6438 0.6433 0.6428 0.6422 0.6418
2082.000000 0.6412 0.6408 0.6404 0.6399 0.6394
2087.000000 0.6389 0.6385 0.6380 0.6375 0.6370
2092.000000 0.6366 0.6360 0.6356 0.6351 0.6347
2097.000000 0.6342 0.6337 0.6332 0.6328 0.6323
2102.000000 0.6318 0.6312 0.6307 0.6301 0.6295
2107.000000 0.6289 0.6284 0.6278 0.6272 0.6266
2112.000000 0.6260 0.6254 0.6249 0.6243 0.6237
2117.000000 0.6231 0.6226 0.6220 0.6214 0.6208
2122.000000 0.6203 0.6197 0.6191 0.6185 0.6179
2127.000000 0.6173 0.6167 0.6160 0.6155 0.6149
2132.000000 0.6143 0.6137 0.6131 0.6125 0.6119
2137.000000 0.6112 0.6107 0.6100 0.6094 0.6088
2142.000000 0.6082 0.6076 0.6070 0.6064 0.6058
2147.000000 0.6052 0.6046 0.6040 0.6034 0.6027
2152.000000 0.6021 0.6015 0.6009 0.5999 0.5989
2157.000000 0.5978 0.5968 0.5958 0.5948 0.5937
2162.000000 0.5927 0.5917 0.5908 0.5901 0.5895
2167.000000 0.5888 0.5882 0.5876 0.5870 0.5862
2172.000000 0.5857 0.5853 0.5849 0.5845 0.5841
2177.000000 0.5837 0.5833 0.5829 0.5825 0.5821
2182.000000 0.5817 0.5816 0.5815 0.5815 0.5815
2187.000000 0.5814 0.5814 0.5812 0.5812 0.5812
2192.000000 0.5812 0.5814 0.5815 0.5816 0.5817
2197.000000 0.5818 0.5819 0.5820 0.5821 0.5821
2202.000000 0.5822 0.5823 0.5824 0.5825 0.5826
2207.000000 0.5827 0.5828 0.5830 0.5833 0.5836
2212.000000 0.5839 0.5842 0.5846 0.5849 0.5853
2217.000000 0.5855 0.5854 0.5854 0.5852 0.5849
2222.000000 0.5847 0.5844 0.5841 0.5837 0.5834
2227.000000 0.5829 0.5825 0.5820 0.5816 0.5810
2232.000000 0.5807 0.5803 0.5799 0.5794 0.5790
2237.000000 0.5785 0.5781 0.5777 0.5773 0.5768
2242.000000 0.5764 0.5759 0.5754 0.5749 0.5744
2247.000000 0.5739 0.5735 0.5730 0.5725 0.5720
2252.000000 0.5715 0.5710 0.5705 0.5700 0.5695
2257.000000 0.5690 0.5685 0.5679 0.5673 0.5667
2262.000000 0.5660 0.5655 0.5650 0.5644 0.5638
2267.000000 0.5632 0.5627 0.5621 0.5615 0.5610
2272.000000 0.5605 0.5600 0.5596 0.5591 0.5587
2277.000000 0.5582 0.5578 0.5573 0.5569 0.5565
2282.000000 0.5560 0.5557 0.5554 0.5552 0.5551
2287.000000 0.5549 0.5547 0.5545 0.5544 0.5542
2292.000000 0.5540 0.5538 0.5537 0.5536 0.5536
2297.000000 0.5536 0.5537 0.5537 0.5538 0.5539
2302.000000 0.5540 0.5540 0.5541 0.5542 0.5543
2307.000000 0.5543 0.5544 0.5545 0.5546 0.5547
2312.000000 0.5548 0.5550 0.5553 0.5555 0.5557
2317.000000 0.5559 0.5560 0.5562 0.5566 0.5568
2322.000000 0.5570 0.5572 0.5575 0.5577 0.5580
2327.000000 0.5582 0.5585 0.5588 0.5591 0.5593
2332.000000 0.5596 0.5599 0.5602 0.5606 0.5610
2337.000000 0.5614 0.5618 0.5621 0.5625 0.5629
2342.000000 0.5633 0.5637 0.5641 0.5645 0.5649
2347.000000 0.5653 0.5657 0.5660 0.5665 0.5669
2352.000000 0.5674 0.5678 0.5682 0.5686 0.5690
2357.000000 0.5694 0.5699 0.5703 0.5707 0.5710
2362.000000 0.5716 0.5722 0.5729 0.5735 0.5742
2367.000000 0.5748 0.5755 0.5767 0.5780 0.5796
2372.000000 0.5812 0.5818 0.5824 0.5821 0.5818
2377.000000 0.5812 0.5808 0.5802 0.5796 0.5784
2382.000000 0.5772 0.5759 0.5746 0.5737 0.5728
2387.000000 0.5718 0.5709 0.5703 0.5698 0.5693
2392.000000 0.5689 0.5688 0.5687 0.5686 0.5685
2397.000000 0.5684 0.5684 0.5685 0.5687 0.5689
2402.000000 0.5691 0.5693 0.5695 0.5697 0.5699
2407.000000 0.5701 0.5703 0.5704 0.5706 0.5707
2412.000000 0.5709 0.5710 0.5712 0.5714 0.5716
2417.000000 0.5717 0.5719 0.5720 0.5722 0.5723
2422.000000 0.5725 0.5726 0.5727 0.5727 0.5728
2427.000000 0.5729 0.5730 0.5730 0.5731 0.5732
2432.000000 0.5733 0.5734 0.5735 0.5735 0.5736
2437.000000 0.5736 0.5736 0.5736 0.5736 0.5736
2442.000000 0.5736 0.5736 0.5737 0.5737 0.5737
2447.000000 0.5737 0.5737 0.5737 0.5737 0.5737
2452.000000 0.5737 0.5737 0.5737 0.5737 0.5738
2457.000000 0.5738 0.5738 0.5738 0.5739 0.5739
2462.000000 0.5740 0.5740 0.5740 0.5740 0.5741
2467.000000 0.5741 0.5741 0.5741 0.5742 0.5742
2472.000000 0.5743 0.5743 0.5744 0.5744 0.5745
2477.000000 0.5745 0.5746 0.5746 0.5747 0.5747
2482.000000 0.5748 0.5748 0.5749 0.5749 0.5750
2487.000000 0.5750 0.5750 0.5750 0.5751 0.5751
2492.000000 0.5751 0.5751 0.5752 0.5752 0.5752
2497.000000 0.5752 0.5753 0.5753 0.5753 0.5753
2502.000000 0.5753 0.5753 0.5754 0.5754 0.5754
2507.000000 0.5753 0.5753 0.5753 0.5753 0.5752
2512.000000 0.5752 0.5752 0.5752 0.5752 0.5752
2517.000000 0.5751 0.5751 0.5751 0.5751 0.5750
2522.000000 0.5750 0.5750 0.5750 0.5749 0.5749
2527.000000 0.5749 0.5749 0.5748 0.5748 0.5747
2532.000000 0.5747 0.5746 0.5746 0.5745 0.5745
2537.000000 0.5744 0.5744 0.5743 0.5743 0.5742
2542.000000 0.5742 0.5741 0.5741 0.5740 0.5740
2547.000000 0.5739 0.5739 0.5738 0.5737 0.5735
2552.000000 0.5734 0.5732 0.5731 0.5729 0.5727
2557.000000 0.5725 0.5724 0.5722 0.5721 0.5719
2562.000000 0.5718 0.5716 0.5714 0.5712 0.5710
2567.000000 0.5708 0.5707 0.5705 0.5703 0.5701
2572.000000 0.5700 0.5698 0.5696 0.5694 0.5692
2577.000000 0.5690 0.5689 0.5687 0.5685 0.5683
2582.000000 0.5682 0.5680 0.5678 0.5675 0.5673
2587.000000 0.5670 0.5667 0.5664 0.5660 0.5658
2592.000000 0.5655 0.5652 0.5649 0.5646 0.5644
2597.000000 0.5641 0.5638 0.5635 0.5632 0.5629
2602.000000 0.5626 0.5623 0.5620 0.5617 0.5615
2607.000000 0.5612 0.5609 0.5606 0.5603 0.5600
2612.000000 0.5597 0.5594 0.5591 0.5588 0.5586
2617.000000 0.5583 0.5580 0.5577 0.5574 0.5571
2622.000000 0.5568 0.5565 0.5562 0.5558 0.5554
2627.000000 0.5550 0.5546 0.5542 0.5538 0.5534
2632.000000 0.5530 0.5526 0.5522 0.5518 0.5514
2637.000000 0.5510 0.5507 0.5503 0.5499 0.5495
2642.000000 0.5491 0.5487 0.5483 0.5479 0.5475
2647.000000 0.5471 0.5467 0.5462 0.5459 0.5454
2652.000000 0.5449 0.5443 0.5438 0.5432 0.5427
2657.000000 0.5421 0.5416 0.5410 0.5405 0.5399
2662.000000 0.5394 0.5388 0.5382 0.5376 0.5371
2667.000000 0.5365 0.5360 0.5354 0.5349 0.5343
2672.000000 0.5338 0.5332 0.5327 0.5321 0.5315
2677.000000 0.5309 0.5304 0.5298 0.5293 0.5286
2682.000000 0.5280 0.5273 0.5267 0.5260 0.5255
2687.000000 0.5248 0.5242 0.5235 0.5229 0.5222
2692.000000 0.5216 0.5210 0.5204 0.5197 0.5191
2697.000000 0.5184 0.5178 0.5171 0.5165 0.5159
2702.000000 0.5153 0.5146 0.5140 0.5133 0.5127
2707.000000 0.5121 0.5115 0.5108 0.5102 0.5095
2712.000000 0.5089 0.5082 0.5076 0.5070 0.5064
2717.000000 0.5057 0.5051 0.5044 0.5038 0.5031
2722.000000 0.5025 0.5018 0.5012 0.5006 0.5000
2727.000000 0.4993 0.4987 0.4980 0.4974 0.4967
2732.000000 0.4960 0.4954 0.4948 0.4940 0.4933
2737.000000 0.4926 0.4919 0.4912 0.4905 0.4898
2742.000000 0.4891 0.4883 0.4876 0.4869 0.4862
2747.000000 0.4855 0.4848 0.4841 0.4834 0.4826
2752.000000 0.4819 0.4812 0.4805 0.4798 0.4791
2757.000000 0.4784 0.4777 0.4769 0.4762 0.4754
2762.000000 0.4746 0.4737 0.4729 0.4721 0.4712
2767.000000 0.4705 0.4697 0.4689 0.4681 0.4672
2772.000000 0.4664 0.4656 0.4648 0.4640 0.4632
2777.000000 0.4624 0.4616 0.4608 0.4600 0.4591
2782.000000 0.4583 0.4575 0.4567 0.4559 0.4551
2787.000000 0.4543 0.4535 0.4527 0.4520 0.4512
2792.000000 0.4504 0.4496 0.4488 0.4480 0.4473
2797.000000 0.4465 0.4457 0.4449 0.4442 0.4434
2802.000000 0.4426 0.4418 0.4410 0.4402 0.4395
2807.000000 0.4387 0.4379 0.4371 0.4362 0.4355
2812.000000 0.4347 0.4338 0.4329 0.4320 0.4310
2817.000000 0.4302 0.4293 0.4283 0.4274 0.4265
2822.000000 0.4256 0.4247 0.4238 0.4229 0.4220
2827.000000 0.4210 0.4202 0.4192 0.4183 0.4174
2832.000000 0.4165 0.4156 0.4147 0.4138 0.4129
2837.000000 0.4120 0.4110 0.4101 0.4092 0.4082
2842.000000 0.4074 0.4064 0.4056 0.4047 0.4038
2847.000000 0.4029 0.4020 0.4009 0.4000 0.3991
2852.000000 0.3980 0.3971 0.3960 0.3950 0.3941
2857.000000 0.3930 0.3922 0.3912 0.3902 0.3892
2862.000000 0.3882 0.3872 0.3862 0.3852 0.3842
2867.000000 0.3832 0.3823 0.3812 0.3803 0.3793
2872.000000 0.3782 0.3773 0.3762 0.3753 0.3743
2877.000000 0.3732 0.3724 0.3714 0.3704 0.3694
2882.000000 0.3684 0.3674 0.3664 0.3653 0.3643
2887.000000 0.3632 0.3622 0.3610 0.3600 0.3590
2892.000000 0.3580 0.3568 0.3559 0.3548 0.3538
2897.000000 0.3527 0.3516 0.3506 0.3496 0.3484
2902.000000 0.3475 0.3464 0.3454 0.3443 0.3432
2907.000000 0.3422 0.3412 0.3400 0.3391 0.3380
2912.000000 0.3370 0.3359 0.3349 0.3338 0.3328
2917.000000 0.3316 0.3307 0.3296 0.3286 0.3275
2922.000000 0.3264 0.3254 0.3244 0.3232 0.3223
2927.000000 0.3212 0.3202 0.3191 0.3181 0.3170
2932.000000 0.3160 0.3149 0.3139 0.3128 0.3118
2937.000000 0.3107 0.3097 0.3085 0.3076 0.3065
2942.000000 0.3055 0.3044 0.3034 0.3023 0.3013
2947.000000 0.3002 0.2992 0.2981 0.2971 0.2960
2952.000000 0.2950 0.2939 0.2929 0.2918 0.2908
2957.000000 0.2897 0.2887 0.2876 0.2866 0.2855
2962.000000 0.2845 0.2834 0.2823 0.2812 0.2801
2967.000000 0.2790 0.2780 0.2769 0.2758 0.2747
2972.000000 0.2735 0.2725 0.2715 0.2704 0.2693
2977.000000 0.2682 0.2671 0.2660 0.2650 0.2639
2982.000000 0.2628 0.2617 0.2606 0.2595 0.2584
2987.000000 0.2574 0.2563 0.2552 0.2541 0.2530
2992.000000 0.2520 0.2509 0.2498 0.2487 0.2476
2997.000000 0.2464 0.2453 0.2441 0.2429 0.2417
3002.000000 0.2405 0.2393 0.2382 0.2370 0.2358
3007.000000 0.2346 0.2334 0.2322 0.2310 0.2298
3012.000000 0.2285 0.2274 0.2263 0.2251 0.2239
3017.000000 0.2227 0.2215 0.2203 0.2191 0.2179
3022.000000 0.2167 0.2155 0.2143 0.2131 0.2119
3027.000000 0.2106 0.2094 0.2082 0.2070 0.2057
3032.000000 0.2044 0.2033 0.2021 0.2008 0.1995
3037.000000 0.1984 0.1972 0.1959 0.1946 0.1934
3042.000000 0.1922 0.1910 0.1898 0.1884 0.1873
3047.000000 0.1861 0.1850 0.1839 0.1829 0.1818
3052.000000 0.1807 0.1795 0.1784 0.1774 0.1764
3057.000000 0.1753 0.1742 0.1731 0.1720 0.1709
3062.000000 0.1699 0.1687 0.1677 0.1666 0.1654
3067.000000 0.1644 0.1634 0.1623 0.1612 0.1601
3072.000000 0.1591 0.1580 0.1569 0.1558 0.1546
3077.000000 0.1536 0.1526 0.1515 0.1505 0.1494
3082.000000 0.1484 0.1473 0.1463 0.1452 0.1442
3087.000000 0.1431 0.1421 0.1410 0.1400 0.1389
3092.000000 0.1379 0.1368 0.1358 0.1346 0.1336
3097.000000 0.1325 0.1315 0.1304 0.1294 0.1283
3102.000000 0.1273 0.1262 0.1252 0.1241 0.1231
3107.000000 0.1220 0.1210 0.1199 0.1189 0.1178
3112.000000 0.1168 0.1157 0.1146 0.1136 0.1126
3117.000000 0.1115 0.1105 0.1095 0.1086 0.1077
3122.000000 0.1068 0.1059 0.1051 0.1042 0.1033
3127.000000 0.1024 0.1016 0.1007 0.0997 0.0989
3132.000000 0.0980 0.0971 0.0963 0.0954 0.0945
3137.000000 0.0936 0.0928 0.0920 0.0912 0.0904
3142.000000 0.0896 0.0889 0.0882 0.0874 0.0866
3147.000000 0.0858 0.0851 0.0842 0.0836 0.0828
3152.000000 0.0820 0.0812 0.0805 0.0797 0.0790
3157.000000 0.0785 0.0780 0.0776 0.0772 0.0767
3162.000000 0.0763 0.0759 0.0755 0.0751 0.0747
3167.000000 0.0743 0.0739 0.0734 0.0730 0.0726
3172.000000 0.0722 0.0718 0.0714 0.0710 0.0706
3177.000000 0.0701 0.0697 0.0693 0.0689 0.0685
3182.000000 0.0681 0.0676 0.0672 0.0669 0.0666
3187.000000 0.0663 0.0661 0.0658 0.0655 0.0652
3192.000000 0.0650 0.0647 0.0644 0.0641 0.0639
3197.000000 0.0636 0.0633 0.0630 0.0628 0.0625
3202.000000 0.0623 0.0620 0.0618 0.0617 0.0616
3207.000000 0.0615 0.0614 0.0613 0.0612 0.0611
3212.000000 0.0610 0.0609 0.0608 0.0607 0.0606
3217.000000 0.0605 0.0604 0.0603 0.0602 0.0601
3222.000000 0.0600 0.0599 0.0598 0.0597 0.0596
3227.000000 0.0595 0.0594 0.0592 0.0591 0.0590
3232.000000 0.0589 0.0587 0.0586 0.0585 0.0584
3237.000000 0.0583 0.0582 0.0580 0.0579 0.0578
3242.000000 0.0577 0.0576 0.0575 0.0573 0.0572
3247.000000 0.0571 0.0570 0.0568 0.0567 0.0566
3252.000000 0.0566 0.0565 0.0564 0.0563 0.0563
3257.000000 0.0562 0.0562 0.0561 0.0560 0.0559
3262.000000 0.0559 0.0558 0.0558 0.0557 0.0557
3267.000000 0.0556 0.0555 0.0554 0.0554 0.0553
3272.000000 0.0553 0.0552 0.0551 0.0550 0.0550
3277.000000 0.0549 0.0549 0.0548 0.0547 0.0546
3282.000000 0.0545 0.0544 0.0543 0.0542 0.0541
3287.000000 0.0540 0.0539 0.0538 0.0537 0.0536
3292.000000 0.0535 0.0534 0.0533 0.0532 0.0531
3297.000000 0.0530 0.0529 0.0527 0.0526 0.0524
3302.000000 0.0523 0.0521 0.0519 0.0517 0.0515
3307.000000 0.0513 0.0511 0.0509 0.0508 0.0506
3312.000000 0.0504 0.0502 0.0500 0.0498 0.0496
3317.000000 0.0494 0.0492 0.0490 0.0489 0.0487
3322.000000 0.0485 0.0484 0.0483 0.0482 0.0481
3327.000000 0.0479 0.0477 0.0477 0.0475 0.0475
3332.000000 0.0473 0.0473 0.0471 0.0469 0.0469
3337.000000 0.0467 0.0467 0.0466 0.0465 0.0464
3342.000000 0.0463 0.0462 0.0461 0.0460 0.0460
3347.000000 0.0460 0.0460 0.0460 0.0460 0.0459
3352.000000 0.0459 0.0459 0.0459 0.0459 0.0459
3357.000000 0.0458 0.0458 0.0458 0.0458 0.0458
3362.000000 0.0459 0.0461 0.0463 0.0465 0.0467
3367.000000 0.0469 0.0471 0.0473 0.0475 0.0477
3372.000000 0.0480 0.0482 0.0485 0.0487 0.0489
3377.000000 0.0491 0.0493 0.0495 0.0498 0.0500
3382.000000 0.0502 0.0504 0.0506 0.0508 0.0511
3387.000000 0.0513 0.0515 0.0517 0.0519 0.0521
3392.000000 0.0524 0.0526 0.0528 0.0530 0.0533
3397.000000 0.0535 0.0538 0.0540 0.0542 0.0544
3402.000000 0.0547 0.0549 0.0552 0.0554 0.0556
3407.000000 0.0558 0.0561 0.0563 0.0565 0.0567
3412.000000 0.0570 0.0572 0.0575 0.0577 0.0579
3417.000000 0.0582 0.0586 0.0590 0.0594 0.0598
3422.000000 0.0603 0.0607 0.0611 0.0615 0.0619
3427.000000 0.0623 0.0627 0.0631 0.0636 0.0640
3432.000000 0.0645 0.0649 0.0654 0.0658 0.0663
3437.000000 0.0667 0.0672 0.0677 0.0682 0.0686
3442.000000 0.0691 0.0695 0.0700 0.0704 0.0709
3447.000000 0.0713 0.0718 0.0723 0.0729 0.0735
3452.000000 0.0742 0.0749 0.0756 0.0762 0.0769
3457.000000 0.0776 0.0783 0.0789 0.0796 0.0803
3462.000000 0.0810 0.0818 0.0826 0.0835 0.0843
3467.000000 0.0852 0.0860 0.0868 0.0876 0.0889
3472.000000 0.0902 0.0914 0.0926 0.0939 0.0953
3477.000000 0.0965 0.0978 0.0989 0.1003 0.1016
3482.000000 0.1030 0.1044 0.1058 0.1071 0.1085
3487.000000 0.1099 0.1113 0.1126 0.1140 0.1153
3492.000000 0.1167 0.1181 0.1195 0.1208 0.1222
3497.000000 0.1236 0.1251 0.1267 0.1283 0.1299
3502.000000 0.1316 0.1332 0.1348 0.1362 0.1376
3507.000000 0.1388 0.1401 0.1413 0.1426 0.1433
3512.000000 0.1441 0.1448 0.1456 0.1463 0.1471
3517.000000 0.1477 0.1483 0.1487 0.1492 0.1496
3522.000000 0.1501 0.1505 0.1509 0.1512 0.1515
3527.000000 0.1518 0.1522 0.1525 0.1528 0.1531
3532.000000 0.1534 0.1536 0.1539 0.1541 0.1542
3537.000000 0.1545 0.1546 0.1549 0.1551 0.1553
3542.000000 0.1555 0.1557 0.1559 0.1560 0.1562
3547.000000 0.1563 0.1565 0.1566 0.1568 0.1570
3552.000000 0.1573 0.1576 0.1580 0.1583 0.1587
3557.000000 0.1601 0.1615 0.1632 0.1649 0.1670
3562.000000 0.1691 0.1735 0.1781 0.1828 0.1876
3567.000000 0.1920 0.1965 0.2006 0.2046 0.2088
3572.000000 0.2130 0.2205 0.2280 0.2349 0.2418
3577.000000 0.2462 0.2507 0.2551 0.2596 0.2637
3582.000000 0.2678 0.2708 0.2738 0.2767 0.2797
3587.000000 0.2827 0.2857 0.2885 0.2916 0.2948
3592.000000 0.2981 0.3020 0.3059 0.3098 0.3137
3597.000000 0.3176 0.3214 0.3256 0.3297 0.3340
3602.000000 0.3382 0.3425 0.3468 0.3512 0.3557
3607.000000 0.3607 0.3658 0.3709 0.3759 0.3809
3612.000000 0.3860 0.3912 0.3962 0.4021 0.4079
3617.000000 0.4142 0.4206 0.4245 0.4284 0.4327
3622.000000 0.4370 0.4415 0.4460 0.4506 0.4552
3627.000000 0.4591 0.4631 0.4669 0.4708 0.4746
3632.000000 0.4785 0.4823 0.4862 0.5026 0.5191
3637.000000 0.5265 0.5339 0.5412 0.5485 0.5608
3642.000000 0.5732 0.5817 0.5903 0.5992 0.6082
3647.000000 0.6203 0.6325 0.6393 0.6461 0.6522
3652.000000 0.6585 0.6664 0.6744 0.6825 0.6908
3657.000000 0.6971 0.7033 0.7091 0.7150 0.7211
3662.000000 0.7272 0.7339 0.7405 0.7465 0.7528
3667.000000 0.7561 0.7596 0.7628 0.7662 0.7697
3672.000000 0.7731 0.7784 0.7838 0.7895 0.7953
3677.000000 0.7988 0.8024 0.8054 0.8084 0.8111
3682.000000 0.8140 0.8161 0.8184 0.8206 0.8228
3687.000000 0.8250 0.8271 0.8292 0.8313 0.8333
3692.000000 0.8354 0.8371 0.8391 0.8404 0.8417
3697.000000 0.8430 0.8443 0.8456 0.8468 0.8478
3702.000000 0.8490 0.8499 0.8509 0.8518 0.8528
3707.000000 0.8537 0.8546 0.8554 0.8562 0.8570
3712.000000 0.8578 0.8586 0.8594 0.8600 0.8606
3717.000000 0.8610 0.8614 0.8618 0.8621 0.8625
3722.000000 0.8630 0.8631 0.8633 0.8634 0.8636
3727.000000 0.8637 0.8638 0.8638 0.8639 0.8639
3732.000000 0.8639 0.8639 0.8639 0.8639 0.8639
3737.000000 0.8639 0.8639 0.8639 0.8639 0.8638
3742.000000 0.8638 0.8638 0.8638 0.8637 0.8637
3747.000000 0.8637 0.8637 0.8636 0.8636 0.8635
3752.000000 0.8634 0.8633 0.8632 0.8631 0.8631
3757.000000 0.8630 0.8628 0.8628 0.8628 0.8627
3762.000000 0.8625 0.8625 0.8624 0.8623 0.8621
3767.000000 0.8621 0.8621 0.8620 0.8618 0.8618
3772.000000 0.8617 0.8616 0.8616 0.8615 0.8614
3777.000000 0.8613 0.8613 0.8612 0.8612 0.8611
3782.000000 0.8611 0.8610 0.8610 0.8609 0.8609
3787.000000 0.8608 0.8608 0.8607 0.8607 0.8606
3792.000000 0.8606 0.8605 0.8604 0.8603 0.8603
3797.000000 0.8602 0.8602 0.8601 0.8601 0.8600
3802.000000 0.8599 0.8598 0.8598
##END=
