##TITLE=GLUCOSE PHENYLOSAZONE
##JCAMP-DX=4.24
##DATA TYPE=INFRARED SPECTRUM
##CLASS=COBLENTZ
##ORIGIN=WYANDOTTE CHEMICALS CORP., WYANDOTTE, MICHIGAN, USA
##OWNER=COBLENTZ SOCIETY
Collection (C) 2018 copyright by the U.S. Secretary of Commerce
on behalf of the United States of America. All rights reserved.
##DATE=Not specified, most likely prior to 1970
##MOLFORM=C18 H22 N4 O4
##MP=203 C (DECOMPOSE)
##SOURCE REFERENCE=COBLENTZ NO. 3881
##$NIST ID=B6003881
##$NIST SOURCE=COBLENTZ
##$NIST IMAGE=cob3881
##SPECTROMETER/DATA SYSTEM=Not specified, most likely a prism, grating, or hybrid spectrometer.
##STATE=SOLID (MINERAL OIL MULL)
##PATH LENGTH=
$$SPECTRAL CONTAMINATION DUE TO OIL AROUND 2900 CM^-^1
##SAMPLING PROCEDURE=TRANSMISSION
##RESOLUTION=4
##DATA PROCESSING=DIGITIZED BY NIST FROM HARD COPY
##XUNITS=MICROMETERS
##YUNITS=TRANSMITTANCE
##XFACTOR=1.000000
##YFACTOR=1
##DELTAX=000.006203
##FIRSTX=2.025
##LASTX=16.0058
##FIRSTY=0.208
##MAXX=16.0058
##MINX=2.025
##MAXY=0.933
##MINY=0.02
##NPOINTS=2255
##XYDATA=(X++(Y..Y))
2.025000 0.2080 0.2090 0.2090 0.2080 0.2090
2.056028 0.2110 0.2120 0.2170 0.2200 0.2220
2.087000 0.2230 0.2230 0.2170 0.2200 0.2250
2.118028 0.2250 0.2260 0.2260 0.2260 0.2250
2.149000 0.2250 0.2200 0.2200 0.2220 0.2260
2.180028 0.2280 0.2290 0.2310 0.2310 0.2340
2.211000 0.2360 0.2360 0.2370 0.2370 0.2340
2.242028 0.2320 0.2320 0.2320 0.2320 0.2360
2.273000 0.2360 0.2370 0.2370 0.2340 0.2340
2.304028 0.2360 0.2360 0.2370 0.2390 0.2400
2.335000 0.2420 0.2430 0.2460 0.2480 0.2510
2.366028 0.2540 0.2590 0.2620 0.2650 0.2670
2.397000 0.2680 0.2700 0.2700 0.2710 0.2730
2.428028 0.2740 0.2760 0.2770 0.2790 0.2810
2.459000 0.2820 0.2840 0.2880 0.2950 0.2960
2.490028 0.2990 0.3010 0.3010 0.3020 0.3040
2.521000 0.3050 0.3090 0.3090 0.3090 0.3100
2.552028 0.3120 0.3150 0.3180 0.3220 0.3270
2.583000 0.3290 0.3300 0.3300 0.3300 0.3320
2.614028 0.3320 0.3330 0.3350 0.3360 0.3360
2.645000 0.3380 0.3410 0.3440 0.3470 0.3490
2.676028 0.3500 0.3520 0.3540 0.3570 0.3570
2.707000 0.3580 0.3580 0.3580 0.3600 0.3600
2.738028 0.3610 0.3630 0.3640 0.3660 0.3710
2.769000 0.3720 0.3740 0.3750 0.3740 0.3710
2.800028 0.3640 0.3580 0.3550 0.3500 0.3490
2.831000 0.3430 0.3330 0.3300 0.3270 0.3260
2.862028 0.3240 0.3240 0.3240 0.3260 0.3260
2.893000 0.3220 0.3160 0.3050 0.2880 0.2730
2.924028 0.2620 0.2510 0.2430 0.2420 0.2420
2.955000 0.2420 0.2420 0.2420 0.2400 0.2400
2.986028 0.2360 0.2260 0.2150 0.2030 0.1890
3.017000 0.1730 0.1580 0.1410 0.1300 0.1160
3.048028 0.1070 0.0970 0.0940 0.0850 0.0820
3.079000 0.0820 0.0830 0.0830 0.0830 0.0820
3.110028 0.0800 0.0800 0.0800 0.0820 0.0860
3.141000 0.0910 0.0960 0.0990 0.1020 0.1050
3.172028 0.1140 0.1190 0.1240 0.1280 0.1360
3.203000 0.1470 0.1520 0.1550 0.1590 0.1610
3.234028 0.1630 0.1630 0.1640 0.1670 0.1690
3.265000 0.1700 0.1700 0.1690 0.1630 0.1550
3.296028 0.1500 0.1450 0.1420 0.1390 0.1360
3.327000 0.1350 0.1280 0.1240 0.1130 0.1000
3.358028 0.0880 0.0720 0.0590 0.0480 0.0380
3.389000 0.0320 0.0310 0.0290 0.0290 0.0290
3.420028 0.0290 0.0310 0.0310 0.0290 0.0260
3.451000 0.0230 0.0210 0.0200 0.0200 0.0210
3.482028 0.0260 0.0290 0.0310 0.0310 0.0310
3.514000 0.0320 0.0340 0.0340 0.0350 0.0370
3.545028 0.0430 0.0900 0.1350 0.1770 0.2170
3.576000 0.2540 0.2870 0.3160 0.3400 0.3570
3.607028 0.3690 0.3780 0.3860 0.3920 0.3990
3.638000 0.4060 0.4140 0.4190 0.4200 0.4220
3.669028 0.4220 0.4200 0.4170 0.4170 0.4140
3.700000 0.4130 0.4130 0.4140 0.4140 0.4170
3.731028 0.4220 0.4250 0.4300 0.4310 0.4330
3.762000 0.4360 0.4400 0.4400 0.4420 0.4440
3.793028 0.4450 0.4480 0.4500 0.4530 0.4540
3.824000 0.4580 0.4610 0.4640 0.4670 0.4680
3.855028 0.4720 0.4730 0.4750 0.4750 0.4760
3.886000 0.4780 0.4790 0.4820 0.4860 0.4890
3.917028 0.4920 0.4950 0.4980 0.5000 0.5010
3.948000 0.5040 0.5090 0.5120 0.5150 0.5180
3.979028 0.5210 0.5240 0.5270 0.5290 0.5310
4.010000 0.5340 0.5350 0.5380 0.5400 0.5450
4.041028 0.5480 0.5510 0.5520 0.5540 0.5570
4.072000 0.5570 0.5590 0.5620 0.5630 0.5660
4.103028 0.5690 0.5710 0.5710 0.5760 0.5770
4.134000 0.5770 0.5790 0.5790 0.5800 0.5800
4.165028 0.5820 0.5830 0.5860 0.5900 0.5940
4.196000 0.5960 0.5970 0.5990 0.6000 0.6000
4.227028 0.6020 0.6020 0.6040 0.6050 0.6050
4.258000 0.6050 0.6070 0.6070 0.6070 0.6080
4.289028 0.6110 0.6180 0.6220 0.6280 0.6300
4.320000 0.6310 0.6360 0.6380 0.6410 0.6440
4.351028 0.6450 0.6470 0.6490 0.6500 0.6520
4.382000 0.6520 0.6530 0.6550 0.6590 0.6640
4.413028 0.6640 0.6660 0.6670 0.6700 0.6720
4.444000 0.6720 0.6730 0.6730 0.6750 0.6770
4.475028 0.6800 0.6830 0.6870 0.6870 0.6810
4.506000 0.6810 0.6810 0.6830 0.6840 0.6870
4.537028 0.6890 0.6920 0.6950 0.6980 0.7010
4.568000 0.7030 0.7060 0.7080 0.7090 0.7090
4.599028 0.7090 0.7110 0.7120 0.7120 0.7140
4.630000 0.7150 0.7180 0.7220 0.7250 0.7280
4.661028 0.7280 0.7290 0.7310 0.7310 0.7310
4.692000 0.7310 0.7320 0.7340 0.7360 0.7390
4.723028 0.7420 0.7480 0.7510 0.7530 0.7560
4.754000 0.7560 0.7570 0.7630 0.7650 0.7670
4.785028 0.7670 0.7680 0.7680 0.7700 0.7700
4.816000 0.7710 0.7730 0.7760 0.7770 0.7810
4.847028 0.7820 0.7870 0.7880 0.7910 0.7930
4.878000 0.7930 0.7930 0.7950 0.7950 0.7960
4.909028 0.7960 0.7980 0.7990 0.7990 0.8010
4.940000 0.8040 0.8050 0.8070 0.8100 0.8120
4.971028 0.8130 0.8130 0.8150 0.8150 0.8160
5.002000 0.8180 0.8210 0.8220 0.8220 0.8240
5.033028 0.8240 0.8260 0.8260 0.8260 0.8270
5.064000 0.8270 0.8270 0.8290 0.8300 0.8330
5.095028 0.8360 0.8400 0.8410 0.8440 0.8460
5.126000 0.8470 0.8500 0.8520 0.8540 0.8540
5.157028 0.8540 0.8540 0.8520 0.8490 0.8470
5.188000 0.8490 0.8500 0.8500 0.8500 0.8500
5.219028 0.8540 0.8540 0.8520 0.8460 0.8320
5.250000 0.8300 0.8300 0.8320 0.8380 0.8410
5.281028 0.8460 0.8490 0.8520 0.8540 0.8570
5.312000 0.8580 0.8630 0.8690 0.8750 0.8780
5.343028 0.8830 0.8860 0.8860 0.8890 0.8890
5.374000 0.8860 0.8830 0.8810 0.8830 0.8940
5.405028 0.8990 0.9060 0.9060 0.9090 0.9090
5.436000 0.9090 0.9060 0.8940 0.8940 0.8990
5.467028 0.9090 0.9090 0.9060 0.9030 0.9030
5.498000 0.8990 0.9000 0.9000 0.9050 0.9090
5.529028 0.9140 0.9160 0.9160 0.9170 0.9190
5.560000 0.9190 0.9190 0.9190 0.9190 0.9190
5.591028 0.9160 0.9160 0.9170 0.9220 0.9230
5.623000 0.9270 0.9280 0.9300 0.9310 0.9300
5.654028 0.9250 0.9250 0.9250 0.9270 0.9270
5.685000 0.9270 0.9300 0.9310 0.9300 0.9270
5.716028 0.9220 0.9200 0.9200 0.9220 0.9300
5.747000 0.9280 0.9250 0.9280 0.9310 0.9330
5.778028 0.9330 0.9310 0.9250 0.9160 0.9050
5.809000 0.9000 0.9000 0.9000 0.9050 0.9050
5.840028 0.9020 0.9000 0.8950 0.8910 0.8850
5.871000 0.8780 0.8750 0.8740 0.8740 0.8710
5.902028 0.8640 0.8540 0.8430 0.8320 0.8240
5.933000 0.8190 0.8130 0.8100 0.8050 0.8010
5.964028 0.7950 0.7850 0.7790 0.7770 0.7790
5.995000 0.7840 0.7870 0.7850 0.7840 0.7840
6.026028 0.7810 0.7760 0.7770 0.7850 0.7910
6.057000 0.7980 0.8020 0.8090 0.8120 0.8120
6.088028 0.8120 0.8130 0.8120 0.8020 0.7900
6.119000 0.7680 0.7500 0.7180 0.7030 0.6750
6.150028 0.6410 0.5960 0.5540 0.5000 0.3810
6.181000 0.3210 0.2620 0.2080 0.1610 0.1210
6.212028 0.0910 0.0910 0.0990 0.1450 0.2040
6.243000 0.2510 0.3040 0.3120 0.3120 0.3090
6.274028 0.2600 0.2400 0.2110 0.1940 0.1920
6.305000 0.1940 0.2110 0.2230 0.2420 0.2480
6.336028 0.2480 0.2400 0.2250 0.2150 0.2000
6.367000 0.1980 0.2000 0.2220 0.2510 0.2820
6.398028 0.3160 0.3550 0.3770 0.3910 0.4080
6.429000 0.4090 0.4110 0.4090 0.3940 0.3850
6.460028 0.3570 0.3300 0.2870 0.2460 0.2170
6.491000 0.2150 0.2180 0.2360 0.2630 0.2900
6.522028 0.3040 0.3210 0.3410 0.3500 0.3550
6.553000 0.3550 0.3500 0.3260 0.3040 0.2850
6.584028 0.2680 0.2560 0.2450 0.2370 0.2320
6.615000 0.2280 0.2230 0.2060 0.1950 0.1810
6.646028 0.1700 0.1410 0.1190 0.1000 0.0880
6.677000 0.0860 0.0900 0.1000 0.1210 0.1330
6.708028 0.1440 0.1530 0.1640 0.1770 0.1890
6.739000 0.1920 0.1970 0.1950 0.1730 0.1660
6.770028 0.1550 0.1410 0.1140 0.1070 0.0960
6.801000 0.0880 0.0860 0.0860 0.0880 0.0900
6.832028 0.0930 0.0970 0.1040 0.1100 0.1160
6.863000 0.1190 0.1240 0.1310 0.1420 0.1560
6.894028 0.1730 0.1920 0.2140 0.2370 0.2600
6.925000 0.2870 0.3150 0.3410 0.3710 0.3990
6.956028 0.4340 0.4560 0.4750 0.4870 0.4980
6.987000 0.5010 0.5040 0.5100 0.5170 0.5180
7.018028 0.5180 0.5180 0.5180 0.5150 0.5130
7.049000 0.5130 0.5120 0.5100 0.5060 0.5010
7.080028 0.4950 0.4950 0.4930 0.4900 0.4870
7.111000 0.4720 0.4650 0.4560 0.4510 0.4450
7.142028 0.4370 0.4300 0.4110 0.3920 0.3720
7.173000 0.3500 0.3400 0.3070 0.2820 0.2630
7.204028 0.2450 0.2060 0.1920 0.1770 0.1670
7.235000 0.1610 0.1530 0.1520 0.1490 0.1500
7.266028 0.1720 0.2090 0.2360 0.2540 0.2680
7.297000 0.2790 0.2880 0.2980 0.3090 0.3240
7.328028 0.3440 0.3770 0.4030 0.4270 0.4420
7.359000 0.4540 0.4620 0.4680 0.4730 0.4750
7.390028 0.4730 0.4680 0.4650 0.4620 0.4560
7.421000 0.4530 0.4440 0.4370 0.4340 0.4250
7.452028 0.4170 0.4140 0.4030 0.3950 0.3890
7.483000 0.3780 0.3680 0.3600 0.3580 0.3580
7.514028 0.3600 0.3850 0.4020 0.4140 0.4220
7.545000 0.4280 0.4300 0.4280 0.4200 0.4160
7.576028 0.4050 0.3910 0.3770 0.3610 0.3460
7.607000 0.3350 0.3270 0.3240 0.3190 0.3150
7.638028 0.3040 0.2960 0.2840 0.2760 0.2730
7.669000 0.2730 0.2710 0.2710 0.2740 0.2760
7.700028 0.2740 0.2730 0.2670 0.2620 0.2480
7.732000 0.2430 0.2360 0.2290 0.2250 0.2220
7.763028 0.2220 0.2250 0.2360 0.2480 0.2630
7.794000 0.2740 0.2840 0.2910 0.2980 0.2980
7.825028 0.2910 0.2740 0.2570 0.2420 0.2250
7.856000 0.2090 0.1940 0.1770 0.1580 0.1380
7.887028 0.1140 0.1050 0.0970 0.0940 0.0940
7.918000 0.0960 0.0990 0.1020 0.1050 0.1050
7.949028 0.1070 0.1130 0.1220 0.1350 0.1490
7.980000 0.1630 0.1780 0.1980 0.2170 0.2340
8.011028 0.2450 0.2510 0.2510 0.2530 0.2510
8.042000 0.2450 0.2310 0.2180 0.2060 0.1900
8.073028 0.1750 0.1670 0.1550 0.1520 0.1520
8.104000 0.1560 0.1720 0.1870 0.2030 0.2180
8.135028 0.2340 0.2480 0.2620 0.2740 0.2850
8.166000 0.2930 0.2980 0.2990 0.3010 0.3010
8.197028 0.3020 0.3040 0.3070 0.3130 0.3220
8.228000 0.3330 0.3440 0.3550 0.3680 0.3800
8.259028 0.3920 0.4030 0.4160 0.4280 0.4310
8.290000 0.4370 0.4440 0.4510 0.4590 0.4650
8.321028 0.4720 0.4730 0.4750 0.4750 0.4750
8.352000 0.4750 0.4720 0.4640 0.4540 0.4470
8.383028 0.4420 0.4400 0.4400 0.4400 0.4400
8.414000 0.4420 0.4450 0.4500 0.4530 0.4530
8.445028 0.4480 0.4390 0.4340 0.4250 0.4230
8.476000 0.4090 0.3990 0.3860 0.3740 0.3570
8.507028 0.3470 0.3320 0.3220 0.3160 0.3150
8.538000 0.3160 0.3190 0.3260 0.3300 0.3350
8.569028 0.3380 0.3410 0.3460 0.3500 0.3550
8.600000 0.3640 0.3750 0.3890 0.3970 0.4130
8.631028 0.4170 0.4160 0.4130 0.4080 0.4050
8.662000 0.4000 0.3990 0.3950 0.3940 0.3940
8.693028 0.3920 0.3890 0.3780 0.3710 0.3660
8.724000 0.3610 0.3540 0.3440 0.3410 0.3410
8.755028 0.3410 0.3430 0.3540 0.3710 0.3910
8.786000 0.4160 0.4390 0.4620 0.4840 0.4930
8.817028 0.5010 0.5120 0.5290 0.5370 0.5480
8.848000 0.5550 0.5620 0.5660 0.5690 0.5710
8.879028 0.5720 0.5710 0.5690 0.5680 0.5650
8.910000 0.5600 0.5520 0.5430 0.5320 0.5180
8.941028 0.5010 0.4640 0.4470 0.4300 0.4160
8.972000 0.4050 0.4000 0.3940 0.3810 0.3770
9.003028 0.3750 0.3800 0.3850 0.4000 0.4020
9.034000 0.4000 0.3920 0.3880 0.3780 0.3680
9.065028 0.3540 0.3400 0.3260 0.3100 0.2960
9.096000 0.2840 0.2730 0.2540 0.2450 0.2340
9.127028 0.2230 0.2140 0.2060 0.1980 0.1970
9.158000 0.1970 0.1970 0.1980 0.2030 0.2040
9.189028 0.2040 0.2040 0.2040 0.2010 0.1900
9.220000 0.1800 0.1730 0.1610 0.1500 0.1420
9.251028 0.1350 0.1250 0.1190 0.1140 0.1110
9.282000 0.1100 0.1110 0.1210 0.1300 0.1420
9.313028 0.1530 0.1660 0.1810 0.2000 0.2220
9.344000 0.2420 0.2650 0.2850 0.3070 0.3260
9.375028 0.3430 0.3550 0.3780 0.3990 0.4090
9.406000 0.4250 0.4300 0.4310 0.4310 0.4300
9.437028 0.4170 0.4090 0.3990 0.3720 0.3600
9.468000 0.3360 0.3130 0.2900 0.2700 0.2510
9.499028 0.2370 0.2250 0.2200 0.2180 0.2180
9.530000 0.2180 0.2170 0.2140 0.2060 0.1940
9.561028 0.1810 0.1700 0.1610 0.1520 0.1500
9.592000 0.1500 0.1490 0.1490 0.1490 0.1490
9.623028 0.1470 0.1470 0.1470 0.1470 0.1490
9.654000 0.1580 0.1720 0.1840 0.2000 0.2140
9.685028 0.2290 0.2450 0.2510 0.2560 0.2650
9.716000 0.2670 0.2700 0.2740 0.2790 0.2820
9.747028 0.2910 0.3010 0.3070 0.3090 0.3090
9.778000 0.2990 0.2900 0.2770 0.2600 0.2420
9.809028 0.2290 0.2170 0.2150 0.2040 0.2010
9.840000 0.1920 0.1900 0.1900 0.1920 0.1940
9.871028 0.1950 0.1980 0.2060 0.2220 0.2390
9.903000 0.2600 0.2820 0.3020 0.3190 0.3330
9.934028 0.3460 0.3570 0.3600 0.3600 0.3580
9.965000 0.3570 0.3410 0.3410 0.3430 0.3440
9.996028 0.3520 0.3630 0.3720 0.3750 0.3800
10.027000 0.3810 0.3810 0.3810 0.3830 0.3940
10.058028 0.4030 0.4160 0.4330 0.4450 0.4590
10.089000 0.4730 0.4840 0.4960 0.5030 0.5090
10.120028 0.5200 0.5290 0.5380 0.5490 0.5570
10.151000 0.5660 0.5740 0.5820 0.5850 0.5860
10.182028 0.5900 0.5910 0.5940 0.6000 0.6020
10.213000 0.6050 0.6100 0.6130 0.6160 0.6180
10.244028 0.6180 0.6180 0.6180 0.6180 0.6190
10.275000 0.6210 0.6250 0.6300 0.6330 0.6360
10.306028 0.6410 0.6450 0.6500 0.6520 0.6550
10.337000 0.6560 0.6560 0.6560 0.6550 0.6550
10.368028 0.6550 0.6560 0.6580 0.6640 0.6660
10.399000 0.6700 0.6700 0.6660 0.6640 0.6590
10.430028 0.6560 0.6520 0.6500 0.6490 0.6450
10.461000 0.6380 0.6300 0.6250 0.6180 0.6080
10.492028 0.5910 0.5760 0.5590 0.5460 0.5370
10.523000 0.5200 0.5170 0.5170 0.5180 0.5210
10.554028 0.5310 0.5370 0.5400 0.5410 0.5430
10.585000 0.5430 0.5460 0.5520 0.5620 0.5720
10.616028 0.5830 0.5940 0.6040 0.6100 0.6250
10.647000 0.6380 0.6500 0.6610 0.6700 0.6780
10.678028 0.6860 0.6940 0.7000 0.7060 0.7120
10.709000 0.7170 0.7220 0.7260 0.7320 0.7370
10.740028 0.7400 0.7450 0.7480 0.7500 0.7540
10.771000 0.7570 0.7590 0.7630 0.7670 0.7710
10.802028 0.7740 0.7790 0.7810 0.7840 0.7880
10.833000 0.7910 0.7950 0.7950 0.7960 0.7960
10.864028 0.7960 0.7960 0.7980 0.7990 0.8020
10.895000 0.8040 0.8090 0.8090 0.8120 0.8120
10.926028 0.8130 0.8150 0.8190 0.8210 0.8210
10.957000 0.8220 0.8260 0.8270 0.8270 0.8270
10.988028 0.8260 0.8240 0.8220 0.8190 0.8160
11.019000 0.8100 0.8020 0.7900 0.7740 0.7590
11.050028 0.7370 0.7150 0.6840 0.6590 0.6360
11.081000 0.6190 0.5970 0.5960 0.5970 0.6040
11.112028 0.6140 0.6300 0.6450 0.6550 0.6640
11.143000 0.6720 0.6730 0.6770 0.6730 0.6670
11.174028 0.6610 0.6590 0.6580 0.6560 0.6450
11.205000 0.6410 0.6350 0.6310 0.6280 0.6220
11.236028 0.6210 0.6220 0.6270 0.6350 0.6440
11.267000 0.6550 0.6640 0.6720 0.6750 0.6810
11.298028 0.6870 0.6900 0.6890 0.6840 0.6770
11.329000 0.6660 0.6550 0.6500 0.6500 0.6560
11.360028 0.6660 0.6670 0.6770 0.6900 0.7010
11.391000 0.7030 0.7040 0.7030 0.6900 0.6870
11.422028 0.6830 0.6750 0.6690 0.6580 0.6490
11.453000 0.6450 0.6390 0.6270 0.6250 0.6140
11.484028 0.6040 0.5970 0.5910 0.5800 0.5790
11.515000 0.5800 0.6080 0.6310 0.6550 0.6700
11.546028 0.6920 0.7080 0.7250 0.7340 0.7420
11.577000 0.7460 0.7530 0.7570 0.7620 0.7630
11.608028 0.7650 0.7670 0.7670 0.7670 0.7670
11.639000 0.7650 0.7630 0.7630 0.7620 0.7620
11.670028 0.7620 0.7620 0.7630 0.7680 0.7730
11.701000 0.7760 0.7790 0.7870 0.7900 0.7950
11.732028 0.7980 0.7980 0.7980 0.7980 0.7960
11.763000 0.7950 0.7910 0.7880 0.7820 0.7740
11.794028 0.7630 0.7510 0.7400 0.7260 0.7230
11.825000 0.7180 0.7140 0.7120 0.7120 0.7150
11.856028 0.7220 0.7250 0.7310 0.7400 0.7540
11.887000 0.7620 0.7700 0.7760 0.7850 0.7930
11.918028 0.7990 0.8070 0.8130 0.8180 0.8190
11.949000 0.8190 0.8210 0.8210 0.8220 0.8240
11.980028 0.8240 0.8240 0.8240 0.8220 0.8220
12.012000 0.8210 0.8190 0.8190 0.8180 0.8130
12.043028 0.8100 0.8100 0.8120 0.8160 0.8190
12.074000 0.8190 0.8190 0.8190 0.8160 0.8160
12.105028 0.8150 0.8150 0.8130 0.8120 0.8100
12.136000 0.8100 0.8090 0.8100 0.8160 0.8190
12.167028 0.8220 0.8290 0.8320 0.8330 0.8400
12.198000 0.8460 0.8550 0.8600 0.8600 0.8550
12.229028 0.8540 0.8520 0.8490 0.8470 0.8430
12.260000 0.8400 0.8320 0.8240 0.8190 0.8150
12.291028 0.8130 0.8150 0.8160 0.8180 0.8190
12.322000 0.8240 0.8260 0.8260 0.8240 0.8220
12.353028 0.8220 0.8220 0.8210 0.8210 0.8190
12.384000 0.8190 0.8190 0.8190 0.8190 0.8210
12.415028 0.8210 0.8220 0.8220 0.8240 0.8260
12.446000 0.8260 0.8270 0.8290 0.8290 0.8290
12.477028 0.8260 0.8240 0.8220 0.8210 0.8180
12.508000 0.8150 0.8100 0.8070 0.8020 0.7990
12.539028 0.7950 0.7900 0.7840 0.7810 0.7740
12.570000 0.7630 0.7540 0.7450 0.7390 0.7310
12.601028 0.7230 0.7150 0.7080 0.6950 0.6870
12.632000 0.6830 0.6770 0.6670 0.6580 0.6470
12.663028 0.6380 0.6270 0.6140 0.6040 0.5930
12.694000 0.5800 0.5710 0.5690 0.5660 0.5680
12.725028 0.5710 0.5790 0.5940 0.6020 0.6180
12.756000 0.6310 0.6440 0.6560 0.6670 0.6780
12.787028 0.6890 0.6970 0.7040 0.7120 0.7180
12.818000 0.7220 0.7250 0.7310 0.7340 0.7390
12.849028 0.7390 0.7400 0.7420 0.7420 0.7450
12.880000 0.7450 0.7460 0.7460 0.7480 0.7500
12.911028 0.7500 0.7500 0.7500 0.7510 0.7510
12.942000 0.7510 0.7530 0.7530 0.7510 0.7500
12.973028 0.7480 0.7450 0.7430 0.7420 0.7390
13.004000 0.7320 0.7320 0.7290 0.7250 0.7200
13.035028 0.7170 0.7140 0.7110 0.7080 0.7040
13.066000 0.7010 0.6970 0.6920 0.6890 0.6840
13.097028 0.6800 0.6730 0.6670 0.6630 0.6560
13.128000 0.6490 0.6410 0.6330 0.6250 0.6220
13.159028 0.6080 0.5970 0.5940 0.5770 0.5710
13.190000 0.5600 0.5490 0.5370 0.5240 0.5090
13.221028 0.5040 0.4780 0.4650 0.4530 0.4440
13.252000 0.4250 0.4050 0.3850 0.3630 0.3430
13.283028 0.3220 0.3040 0.2850 0.2680 0.2510
13.314000 0.2370 0.2230 0.2110 0.1980 0.1920
13.345028 0.1860 0.1810 0.1730 0.1660 0.1550
13.376000 0.1500 0.1440 0.1360 0.1350 0.1330
13.407028 0.1300 0.1280 0.1300 0.1330 0.1380
13.438000 0.1410 0.1470 0.1550 0.1660 0.1730
13.469028 0.1810 0.1870 0.1950 0.2010 0.2110
13.500000 0.2220 0.2340 0.2430 0.2560 0.2730
13.531028 0.2870 0.3010 0.3070 0.3160 0.3240
13.562000 0.3350 0.3440 0.3550 0.3660 0.3750
13.593028 0.3910 0.4030 0.4160 0.4250 0.4340
13.624000 0.4440 0.4510 0.4590 0.4650 0.4700
13.655028 0.4760 0.4820 0.4870 0.4920 0.4960
13.686000 0.5010 0.5040 0.5060 0.5100 0.5150
13.717028 0.5200 0.5230 0.5270 0.5310 0.5340
13.748000 0.5370 0.5400 0.5410 0.5450 0.5460
13.779028 0.5490 0.5510 0.5520 0.5540 0.5550
13.810000 0.5550 0.5570 0.5570 0.5600 0.5620
13.841028 0.5630 0.5630 0.5650 0.5650 0.5660
13.872000 0.5680 0.5680 0.5680 0.5680 0.5680
13.903028 0.5680 0.5690 0.5710 0.5740 0.5790
13.934000 0.5830 0.5880 0.5910 0.5930 0.5960
13.965028 0.5960 0.5970 0.5970 0.5990 0.6000
13.996000 0.6040 0.6040 0.6050 0.6050 0.6070
14.027028 0.6070 0.6100 0.6110 0.6130 0.6140
14.058000 0.6140 0.6160 0.6160 0.6180 0.6190
14.089028 0.6190 0.6190 0.6190 0.6190 0.6190
14.121000 0.6190 0.6190 0.6180 0.6160 0.6160
14.152028 0.6140 0.6130 0.6110 0.6080 0.6070
14.183000 0.6040 0.6020 0.5990 0.5970 0.5940
14.214028 0.5860 0.5860 0.5830 0.5820 0.5800
14.245000 0.5770 0.5740 0.5690 0.5680 0.5650
14.276028 0.5600 0.5570 0.5540 0.5490 0.5480
14.307000 0.5410 0.5400 0.5370 0.5340 0.5240
14.338028 0.5130 0.5100 0.5040 0.4950 0.4870
14.369000 0.4760 0.4680 0.4650 0.4620 0.4540
14.400028 0.4390 0.4280 0.4170 0.4110 0.4030
14.431000 0.3970 0.3880 0.3770 0.3630 0.3440
14.462028 0.3330 0.3210 0.3100 0.3020 0.2900
14.493000 0.2870 0.2810 0.2760 0.2680 0.2630
14.524028 0.2570 0.2540 0.2460 0.2420 0.2390
14.555000 0.2370 0.2360 0.2340 0.2320 0.2310
14.586028 0.2290 0.2260 0.2230 0.2220 0.2170
14.617000 0.2150 0.2140 0.2140 0.2120 0.2120
14.648028 0.2140 0.2150 0.2200 0.2230 0.2340
14.679000 0.2420 0.2500 0.2600 0.2710 0.2870
14.710028 0.3040 0.3130 0.3270 0.3430 0.3520
14.741000 0.3630 0.3710 0.3810 0.3910 0.4000
14.772028 0.4110 0.4200 0.4300 0.4370 0.4470
14.803000 0.4560 0.4640 0.4650 0.4720 0.4750
14.834028 0.4790 0.4820 0.4860 0.4900 0.4950
14.865000 0.4980 0.4980 0.5000 0.5000 0.5010
14.896028 0.5010 0.5010 0.5010 0.5010 0.5010
14.927000 0.5010 0.5010 0.5030 0.5030 0.5040
14.958028 0.5060 0.5060 0.5040 0.5000 0.4950
14.989000 0.4920 0.4870 0.4820 0.4760 0.4750
15.020028 0.4720 0.4700 0.4670 0.4650 0.4640
15.051000 0.4610 0.4610 0.4590 0.4560 0.4560
15.082028 0.4530 0.4510 0.4510 0.4510 0.4510
15.113000 0.4510 0.4510 0.4510 0.4530 0.4530
15.144028 0.4540 0.4560 0.4580 0.4590 0.4620
15.175000 0.4640 0.4670 0.4680 0.4720 0.4750
15.206028 0.4760 0.4790 0.4810 0.4820 0.4820
15.237000 0.4870 0.4900 0.4920 0.4920 0.4920
15.268028 0.4900 0.4890 0.4860 0.4840 0.4820
15.299000 0.4820 0.4840 0.4840 0.4840 0.4820
15.330028 0.4790 0.4760 0.4720 0.4680 0.4650
15.361000 0.4640 0.4610 0.4580 0.4580 0.4560
15.392028 0.4560 0.4560 0.4560 0.4560 0.4530
15.423000 0.4500 0.4480 0.4450 0.4450 0.4440
15.454028 0.4440 0.4440 0.4440 0.4440 0.4400
15.485000 0.4400 0.4390 0.4390 0.4400 0.4420
15.516028 0.4420 0.4450 0.4470 0.4470 0.4470
15.547000 0.4470 0.4470 0.4470 0.4450 0.4450
15.578028 0.4440 0.4440 0.4440 0.4440 0.4440
15.609000 0.4440 0.4440 0.4440 0.4440 0.4440
15.640028 0.4440 0.4440 0.4440 0.4440 0.4440
15.671000 0.4420 0.4420 0.4400 0.4390 0.4370
15.702028 0.4340 0.4330 0.4310 0.4310 0.4300
15.733000 0.4300 0.4270 0.4270 0.4250 0.4250
15.764028 0.4250 0.4250 0.4230 0.4230 0.4220
15.795000 0.4200 0.4170 0.4160 0.4140 0.4130
15.826028 0.4110 0.4110 0.4090 0.4090 0.4110
15.857000 0.4130 0.4140 0.4160 0.4140 0.4130
15.888028 0.4110 0.4110 0.4080 0.4050 0.4020
15.919000 0.4000 0.4000 0.4000 0.3990 0.3970
15.950028 0.3970 0.3940 0.3940 0.3940 0.3920
15.981000 0.3920 0.3910 0.3920 0.3920 0.3920
##END=
