##TITLE=2-Furamidoxime, o-(2-bromobutyryl)-5-nitro-
##JCAMP-DX=4.24
##DATA TYPE=INFRARED SPECTRUM
##CLASS=COBLENTZ III
##ORIGIN=ABBOTT LABORATORIES - WASHBURN
##OWNER=Copyright (C) 1987 by the Coblentz Society
Collection (C) 2018 copyright by the U.S. Secretary of Commerce
on behalf of the United States of America. All rights reserved.
##DATE=1965/01/08
##NAMES=N'-[(2-bromobutanoyl)oxy]-5-nitro-2-furancarboximidamide
##MOLFORM=C9 H10 Br N3 O5
##MP=121 C
##SOURCE REFERENCE=COBLENTZ NO. 9045
##$NIST ID=B6009045
##$NIST SOURCE=COBLENTZ
##$NIST IMAGE=cob9045
##SPECTROMETER/DATA SYSTEM=PERKIN-ELMER 421 (GRATING)
##INSTRUMENT PARAMETERS=GRATINGS: 1999 CM^-^1
##STATE=SOLUTION (7% CHCl3) VS SOLVENT
$$ PURITY MORE THAN 95%
##PATH LENGTH=0.03 CM
$$SPECTRAL CONTAMINATION DUE TO INACTIVE CHCl3 AROUND 1200, 700-800 CM^-^1
##SAMPLING PROCEDURE=TRANSMISSION
##RESOLUTION=2
##DATA PROCESSING=DIGITIZED BY COBLENTZ SOCIETY (BATCH II) FROM HARD COPY
##XUNITS=1/CM
##YUNITS=TRANSMITTANCE
##XFACTOR=1.0
##YFACTOR=1
##FIRSTX=660
##LASTX=4000
##FIRSTY=0.5687
##MAXX=4000
##MINX=660
##MAXY=0.9395
##MINY=0.0548
##NPOINTS=3341
##XYDATA=(X++(Y..Y))
660.000000 0.5687 0.5690 0.5694 0.5696 0.5697
665.000000 0.5699 0.5700 0.5701 0.5702 0.5703
670.000000 0.5704 0.5705 0.5706 0.5707 0.5708
675.000000 0.5709 0.5709 0.5709 0.5709 0.5709
680.000000 0.5708 0.5708 0.5708 0.5708 0.5707
685.000000 0.5707 0.5707 0.5707 0.5707 0.5706
690.000000 0.5705 0.5700 0.5696 0.5691 0.5687
695.000000 0.5682 0.5678 0.5673 0.5668 0.5664
700.000000 0.5659 0.5655 0.5650 0.5646 0.5641
705.000000 0.5636 0.5632 0.5628 0.5624 0.5620
710.000000 0.5616 0.5612 0.5609 0.5605 0.5601
715.000000 0.5597 0.5593 0.5589 0.5585 0.5581
720.000000 0.5577 0.5574 0.5570 0.5566 0.5562
725.000000 0.5558 0.5554 0.5550 0.5546 0.5542
730.000000 0.5539 0.5535 0.5531 0.5528 0.5524
735.000000 0.5520 0.5516 0.5513 0.5509 0.5505
740.000000 0.5501 0.5498 0.5494 0.5490 0.5486
745.000000 0.5483 0.5479 0.5478 0.5477 0.5476
750.000000 0.5476 0.5475 0.5474 0.5474 0.5473
755.000000 0.5473 0.5472 0.5471 0.5471 0.5470
760.000000 0.5470 0.5469 0.5468 0.5468 0.5467
765.000000 0.5466 0.5466 0.5464 0.5460 0.5457
770.000000 0.5453 0.5450 0.5446 0.5443 0.5439
775.000000 0.5436 0.5432 0.5428 0.5425 0.5421
780.000000 0.5418 0.5415 0.5412 0.5410 0.5408
785.000000 0.5405 0.5403 0.5400 0.5398 0.5396
790.000000 0.5393 0.5391 0.5388 0.5377 0.5383
795.000000 0.5381 0.5382 0.5383 0.5383 0.5384
800.000000 0.5385 0.5385 0.5386 0.5387 0.5397
805.000000 0.5408 0.5418 0.5433 0.5462 0.5491
810.000000 0.5520 0.5570 0.5621 0.5683 0.5805
815.000000 0.5928 0.6050 0.6173 0.6296 0.6701
820.000000 0.7059 0.7205 0.7310 0.7404 0.7488
825.000000 0.7561 0.7623 0.7658 0.7679 0.7700
830.000000 0.7708 0.7715 0.7723 0.7730 0.7737
835.000000 0.7739 0.7742 0.7744 0.7746 0.7748
840.000000 0.7750 0.7752 0.7754 0.7756 0.7760
845.000000 0.7765 0.7770 0.7774 0.7779 0.7793
850.000000 0.7782 0.7784 0.7786 0.7783 0.7777
855.000000 0.7772 0.7766 0.7757 0.7749 0.7740
860.000000 0.7725 0.7711 0.7697 0.7683 0.7669
865.000000 0.7649 0.7622 0.7594 0.7546 0.7484
870.000000 0.7374 0.7263 0.7152 0.7042 0.6931
875.000000 0.6821 0.6710 0.6641 0.6592 0.6599
880.000000 0.6598 0.6611 0.6678 0.6758 0.6838
885.000000 0.6917 0.6997 0.7070 0.7109 0.7123
890.000000 0.7134 0.7136 0.7138 0.7129 0.7118
895.000000 0.7100 0.7076 0.7048 0.7011 0.6973
900.000000 0.6934 0.6891 0.6848 0.6800 0.6730
905.000000 0.6655 0.6465 0.6275 0.6085 0.5895
910.000000 0.5705 0.5515 0.5325 0.5135 0.5056
915.000000 0.5050 0.5060 0.5079 0.5127 0.5228
920.000000 0.5337 0.5433 0.5518 0.5600 0.5682
925.000000 0.5772 0.5863 0.5944 0.6016 0.6088
930.000000 0.6143 0.6194 0.6246 0.6323 0.6410
935.000000 0.6469 0.6528 0.6608 0.6743 0.6963
940.000000 0.7122 0.7290 0.7379 0.7429 0.7446
945.000000 0.7452 0.7464 0.7458 0.7447 0.7433
950.000000 0.7404 0.7333 0.7244 0.7158 0.7010
955.000000 0.6861 0.6422 0.6157 0.5891 0.5626
960.000000 0.5360 0.5095 0.4829 0.4564 0.4298
965.000000 0.4032 0.3980 0.3973 0.4632 0.5296
970.000000 0.5960 0.6470 0.6581 0.6697 0.6827
975.000000 0.7238 0.7684 0.7836 0.7933 0.8030
980.000000 0.8262 0.8345 0.8406 0.8443 0.8472
985.000000 0.8500 0.8513 0.8527 0.8540 0.8544
990.000000 0.8551 0.8545 0.8543 0.8537 0.8530
995.000000 0.8513 0.8495 0.8473 0.8451 0.8415
1000.000000 0.8378 0.8334 0.8290 0.8231 0.8168
1005.000000 0.8101 0.8024 0.7933 0.7400 0.5881
1010.000000 0.4360 0.2840 0.2360 0.2369 0.2377
1015.000000 0.3503 0.4679 0.5855 0.6526 0.6662
1020.000000 0.6900 0.7028 0.7142 0.7253 0.7399
1025.000000 0.7559 0.7654 0.7745 0.7935 0.8165
1030.000000 0.8289 0.8376 0.8434 0.8468 0.8479
1035.000000 0.8520 0.8487 0.8479 0.8470 0.8462
1040.000000 0.8440 0.8416 0.8391 0.8364 0.8329
1045.000000 0.8310 0.8287 0.8244 0.8191 0.8112
1050.000000 0.8017 0.7908 0.7807 0.7711 0.7613
1055.000000 0.7508 0.7033 0.6508 0.6112 0.6057
1060.000000 0.6002 0.5988 0.5980 0.5974 0.5973
1065.000000 0.5972 0.5967 0.5954 0.5931 0.5902
1070.000000 0.5856 0.5784 0.5687 0.5579 0.5482
1075.000000 0.5257 0.5025 0.4793 0.4561 0.4329
1080.000000 0.4168 0.4162 0.4155 0.4149 0.4138
1085.000000 0.3993 0.3848 0.3703 0.3558 0.3413
1090.000000 0.3268 0.3123 0.2978 0.2847 0.2755
1095.000000 0.2715 0.2701 0.2715 0.2764 0.3020
1100.000000 0.3383 0.3746 0.4110 0.4454 0.4522
1105.000000 0.4544 0.4562 0.4571 0.4573 0.4581
1110.000000 0.4563 0.4507 0.4357 0.4206 0.4055
1115.000000 0.3905 0.3754 0.3603 0.3441 0.3253
1120.000000 0.3195 0.3178 0.3176 0.3174 0.3156
1125.000000 0.3211 0.3254 0.3601 0.3773 0.3946
1130.000000 0.4119 0.4291 0.4464 0.4637 0.4809
1135.000000 0.4982 0.5155 0.5328 0.5500 0.5673
1140.000000 0.5846 0.6018 0.6191 0.6364 0.6503
1145.000000 0.6710 0.6907 0.7012 0.7087 0.7125
1150.000000 0.7156 0.7165 0.7166 0.7131 0.7156
1155.000000 0.7148 0.7134 0.7120 0.7106 0.7077
1160.000000 0.7048 0.7017 0.6980 0.6941 0.6871
1165.000000 0.6767 0.6602 0.6434 0.6267 0.6100
1170.000000 0.5932 0.5765 0.5598 0.5440 0.5348
1175.000000 0.5274 0.5200 0.5131 0.5077 0.5056
1180.000000 0.5047 0.5047 0.5047 0.5047 0.5053
1185.000000 0.5064 0.5086 0.5103 0.5118 0.5129
1190.000000 0.5129 0.5128 0.5127 0.5127 0.5127
1195.000000 0.5127 0.5127 0.5127 0.5126 0.5126
1200.000000 0.5126 0.5125 0.5124 0.5122 0.5121
1205.000000 0.5119 0.5118 0.5116 0.5117 0.5118
1210.000000 0.5119 0.5120 0.5120 0.5122 0.5127
1215.000000 0.5131 0.5135 0.5139 0.5139 0.5137
1220.000000 0.5136 0.5135 0.5134 0.5131 0.5128
1225.000000 0.5125 0.5123 0.5120 0.5117 0.5114
1230.000000 0.5115 0.5116 0.5117 0.5118 0.5118
1235.000000 0.5119 0.5137 0.5159 0.5184 0.5210
1240.000000 0.5242 0.5273 0.5304 0.5346 0.5389
1245.000000 0.5429 0.5462 0.5496 0.5572 0.5658
1250.000000 0.5730 0.5788 0.5846 0.5904 0.5980
1255.000000 0.6077 0.6171 0.6248 0.6326 0.6413
1260.000000 0.6504 0.6543 0.6578 0.6593 0.6608
1265.000000 0.6624 0.6641 0.6662 0.6704 0.6939
1270.000000 0.7014 0.7051 0.7082 0.7084 0.7086
1275.000000 0.7077 0.7072 0.7041 0.6943 0.6820
1280.000000 0.6698 0.6576 0.6453 0.6331 0.6208
1285.000000 0.6086 0.5964 0.5868 0.5808 0.5800
1290.000000 0.5773 0.5804 0.5830 0.5862 0.5992
1295.000000 0.6131 0.6269 0.6408 0.6429 0.6427
1300.000000 0.6420 0.6420 0.6380 0.6331 0.6270
1305.000000 0.6071 0.5768 0.5465 0.5162 0.4918
1310.000000 0.4889 0.4871 0.4858 0.4858 0.4848
1315.000000 0.4886 0.4964 0.5086 0.5208 0.5330
1320.000000 0.5452 0.5574 0.5655 0.5663 0.5665
1325.000000 0.5659 0.5666 0.5619 0.5560 0.5347
1330.000000 0.5068 0.4788 0.4508 0.4274 0.4084
1335.000000 0.3304 0.2385 0.1465 0.1010 0.0913
1340.000000 0.0768 0.0666 0.0603 0.0571 0.0558
1345.000000 0.0548 0.0558 0.0573 0.0603 0.0648
1350.000000 0.0711 0.0804 0.0879 0.0945 0.0989
1355.000000 0.1029 0.1075 0.1656 0.2146 0.2637
1360.000000 0.3127 0.3618 0.4108 0.4599 0.5089
1365.000000 0.5580 0.6024 0.6228 0.6317 0.6358
1370.000000 0.6372 0.6398 0.6372 0.6352 0.6117
1375.000000 0.5881 0.5645 0.5409 0.5174 0.4938
1380.000000 0.4702 0.4466 0.4231 0.3995 0.3759
1385.000000 0.3523 0.3288 0.3052 0.3024 0.3024
1390.000000 0.3040 0.3113 0.3188 0.3260 0.3400
1395.000000 0.4234 0.5493 0.6784 0.6929 0.7146
1400.000000 0.7253 0.7368 0.7487 0.7561 0.7619
1405.000000 0.7676 0.7729 0.7764 0.7778 0.7791
1410.000000 0.7798 0.7803 0.7809 0.7827 0.7819
1415.000000 0.7821 0.7822 0.7822 0.7823 0.7824
1420.000000 0.7825 0.7825 0.7824 0.7824 0.7823
1425.000000 0.7823 0.7823 0.7825 0.7826 0.7827
1430.000000 0.7827 0.7826 0.7825 0.7824 0.7823
1435.000000 0.7822 0.7819 0.7815 0.7811 0.7807
1440.000000 0.7798 0.7783 0.7754 0.7725 0.7683
1445.000000 0.7622 0.7547 0.7468 0.7369 0.7256
1450.000000 0.7149 0.7074 0.7042 0.7031 0.7049
1455.000000 0.7053 0.7065 0.7147 0.7272 0.7396
1460.000000 0.7520 0.7672 0.7729 0.7741 0.7734
1465.000000 0.7729 0.7723 0.7714 0.7703 0.7692
1470.000000 0.7678 0.7665 0.7652 0.7638 0.7629
1475.000000 0.7622 0.7614 0.7606 0.7591 0.7542
1480.000000 0.7449 0.7363 0.7249 0.7115 0.6993
1485.000000 0.6868 0.6641 0.6472 0.6235 0.6051
1490.000000 0.5525 0.5264 0.5197 0.5059 0.4782
1495.000000 0.4505 0.4228 0.3966 0.3665 0.3492
1500.000000 0.3338 0.3252 0.3220 0.3226 0.3215
1505.000000 0.3233 0.3274 0.3393 0.3522 0.3619
1510.000000 0.3698 0.3779 0.3860 0.3885 0.3909
1515.000000 0.3915 0.3922 0.3926 0.3944 0.3924
1520.000000 0.3919 0.3909 0.3833 0.3731 0.3638
1525.000000 0.3562 0.3490 0.3431 0.3374 0.3320
1530.000000 0.3263 0.3191 0.3119 0.3051 0.2966
1535.000000 0.2870 0.2846 0.2835 0.2839 0.2853
1540.000000 0.2871 0.2895 0.2931 0.2990 0.3628
1545.000000 0.4391 0.5155 0.5919 0.6429 0.6885
1550.000000 0.6991 0.7041 0.7069 0.7090 0.7098
1555.000000 0.7097 0.7090 0.7098 0.7049 0.6995
1560.000000 0.6951 0.6907 0.6866 0.6825 0.6627
1565.000000 0.6279 0.5930 0.5581 0.5233 0.4884
1570.000000 0.4535 0.4254 0.4160 0.4099 0.4083
1575.000000 0.4035 0.4067 0.4147 0.4260 0.4373
1580.000000 0.4486 0.4599 0.4643 0.4603 0.4533
1585.000000 0.4463 0.4392 0.4322 0.4322 0.4329
1590.000000 0.4422 0.4543 0.5046 0.5565 0.6370
1595.000000 0.6490 0.6636 0.7048 0.7226 0.7285
1600.000000 0.7316 0.7336 0.7337 0.7330 0.7320
1605.000000 0.7308 0.7280 0.7248 0.7186 0.7123
1610.000000 0.7054 0.6978 0.6813 0.6720 0.6630
1615.000000 0.6554 0.6442 0.6250 0.6054 0.5858
1620.000000 0.5663 0.5467 0.5271 0.5075 0.4627
1625.000000 0.4459 0.3735 0.3326 0.2214 0.1292
1630.000000 0.1184 0.0954 0.0900 0.0859 0.0843
1635.000000 0.0846 0.0851 0.1201 0.1694 0.2188
1640.000000 0.2541 0.2595 0.2640 0.2684 0.2826
1645.000000 0.3011 0.3696 0.4612 0.5244 0.5396
1650.000000 0.5594 0.5821 0.6047 0.6274 0.6501
1655.000000 0.6728 0.6954 0.7293 0.7419 0.7513
1660.000000 0.7605 0.7679 0.7752 0.7842 0.7960
1665.000000 0.8104 0.8211 0.8282 0.8326 0.8369
1670.000000 0.8394 0.8412 0.8430 0.8448 0.8463
1675.000000 0.8472 0.8481 0.8490 0.8499 0.8508
1680.000000 0.8514 0.8520 0.8526 0.8532 0.8537
1685.000000 0.8554 0.8545 0.8548 0.8551 0.8549
1690.000000 0.8546 0.8543 0.8540 0.8538 0.8535
1695.000000 0.8532 0.8529 0.8526 0.8523 0.8519
1700.000000 0.8515 0.8510 0.8506 0.8501 0.8495
1705.000000 0.8489 0.8482 0.8476 0.8460 0.8443
1710.000000 0.8426 0.8390 0.8348 0.8310 0.8291
1715.000000 0.8272 0.8255 0.8243 0.8230 0.8219
1720.000000 0.8212 0.8204 0.8191 0.8152 0.8105
1725.000000 0.8044 0.7966 0.7881 0.7794 0.7707
1730.000000 0.7614 0.7505 0.7405 0.7277 0.7049
1735.000000 0.6762 0.6562 0.6274 0.5986 0.5698
1740.000000 0.5410 0.5123 0.4835 0.4547 0.4259
1745.000000 0.3971 0.3683 0.3549 0.3455 0.3223
1750.000000 0.3081 0.2891 0.2748 0.2628 0.2534
1755.000000 0.2440 0.2083 0.1952 0.1898 0.1887
1760.000000 0.1886 0.1885 0.1863 0.1895 0.1930
1765.000000 0.1987 0.2031 0.2075 0.2126 0.2194
1770.000000 0.2412 0.2675 0.2955 0.3234 0.3513
1775.000000 0.3792 0.4071 0.4351 0.4630 0.4909
1780.000000 0.5188 0.5467 0.5747 0.6026 0.6332
1785.000000 0.6639 0.6826 0.6948 0.7061 0.7164
1790.000000 0.7336 0.7641 0.7818 0.7959 0.8065
1795.000000 0.8153 0.8207 0.8260 0.8311 0.8361
1800.000000 0.8411 0.8444 0.8476 0.8509 0.8533
1805.000000 0.8549 0.8564 0.8580 0.8595 0.8608
1810.000000 0.8617 0.8626 0.8636 0.8645 0.8654
1815.000000 0.8663 0.8673 0.8683 0.8692 0.8702
1820.000000 0.8711 0.8720 0.8729 0.8738 0.8746
1825.000000 0.8753 0.8759 0.8765 0.8771 0.8777
1830.000000 0.8783 0.8789 0.8796 0.8800 0.8805
1835.000000 0.8810 0.8814 0.8819 0.8824 0.8828
1840.000000 0.8833 0.8838 0.8842 0.8847 0.8851
1845.000000 0.8854 0.8857 0.8861 0.8864 0.8868
1850.000000 0.8871 0.8875 0.8878 0.8882 0.8885
1855.000000 0.8889 0.8893 0.8896 0.8900 0.8904
1860.000000 0.8908 0.8911 0.8915 0.8919 0.8923
1865.000000 0.8927 0.8944 0.8934 0.8938 0.8941
1870.000000 0.8944 0.8946 0.8949 0.8951 0.8954
1875.000000 0.8956 0.8959 0.8961 0.8964 0.8966
1880.000000 0.8967 0.8969 0.8970 0.8972 0.8974
1885.000000 0.8975 0.8977 0.8979 0.8980 0.8981
1890.000000 0.8981 0.8982 0.8982 0.8982 0.8982
1895.000000 0.8983 0.8983 0.8983 0.8983 0.8984
1900.000000 0.8984 0.8985 0.8986 0.8987 0.8988
1905.000000 0.8987 0.8987 0.8986 0.8985 0.8985
1910.000000 0.8984 0.8983 0.8984 0.8985 0.8986
1915.000000 0.8987 0.8988 0.8989 0.8991 0.8992
1920.000000 0.8992 0.8993 0.8993 0.8994 0.8994
1925.000000 0.8995 0.8995 0.8996 0.8997 0.8997
1930.000000 0.8998 0.8998 0.8999 0.8999 0.9000
1935.000000 0.9000 0.9001 0.9002 0.9002 0.9003
1940.000000 0.9003 0.9004 0.9004 0.9006 0.9007
1945.000000 0.9009 0.9012 0.9015 0.9018 0.9021
1950.000000 0.9024 0.9027 0.9030 0.9033 0.9036
1955.000000 0.9039 0.9042 0.9045 0.9049 0.9052
1960.000000 0.9055 0.9058 0.9062 0.9065 0.9069
1965.000000 0.9073 0.9077 0.9081 0.9085 0.9089
1970.000000 0.9092 0.9093 0.9094 0.9096 0.9098
1975.000000 0.9100 0.9102 0.9105 0.9111 0.9117
1980.000000 0.9126 0.9135 0.9144 0.9149 0.9151
1985.000000 0.9153 0.9155 0.9153 0.9150 0.9148
1990.000000 0.9145 0.9143 0.9134 0.9126 0.9117
1995.000000 0.9108 0.9099 0.9089 0.9077 0.9066
2000.000000 0.9055 0.9048 0.9042 0.9036 0.9030
2005.000000 0.9027 0.9025 0.9025 0.9028 0.9031
2010.000000 0.9034 0.9036 0.9038 0.9040 0.9042
2015.000000 0.9044 0.9046 0.9048 0.9050 0.9053
2020.000000 0.9056 0.9059 0.9062 0.9064 0.9065
2025.000000 0.9064 0.9055 0.9046 0.9038 0.9033
2030.000000 0.9029 0.9024 0.9025 0.9031 0.9036
2035.000000 0.9041 0.9049 0.9061 0.9073 0.9084
2040.000000 0.9096 0.9107 0.9116 0.9118 0.9120
2045.000000 0.9122 0.9124 0.9120 0.9117 0.9113
2050.000000 0.9110 0.9108 0.9110 0.9112 0.9117
2055.000000 0.9121 0.9126 0.9131 0.9136 0.9140
2060.000000 0.9142 0.9145 0.9148 0.9150 0.9152
2065.000000 0.9154 0.9156 0.9158 0.9160 0.9162
2070.000000 0.9164 0.9166 0.9168 0.9171 0.9173
2075.000000 0.9176 0.9178 0.9180 0.9183 0.9185
2080.000000 0.9188 0.9190 0.9193 0.9195 0.9198
2085.000000 0.9200 0.9202 0.9204 0.9204 0.9204
2090.000000 0.9205 0.9205 0.9205 0.9205 0.9206
2095.000000 0.9206 0.9206 0.9206 0.9207 0.9207
2100.000000 0.9206 0.9205 0.9203 0.9202 0.9201
2105.000000 0.9200 0.9198 0.9197 0.9196 0.9195
2110.000000 0.9193 0.9191 0.9190 0.9188 0.9187
2115.000000 0.9186 0.9186 0.9187 0.9187 0.9187
2120.000000 0.9187 0.9189 0.9191 0.9193 0.9194
2125.000000 0.9197 0.9200 0.9203 0.9206 0.9209
2130.000000 0.9212 0.9215 0.9217 0.9220 0.9223
2135.000000 0.9226 0.9229 0.9233 0.9236 0.9239
2140.000000 0.9240 0.9237 0.9235 0.9232 0.9229
2145.000000 0.9226 0.9223 0.9219 0.9215 0.9211
2150.000000 0.9208 0.9207 0.9205 0.9204 0.9202
2155.000000 0.9201 0.9200 0.9201 0.9201 0.9202
2160.000000 0.9203 0.9204 0.9207 0.9210 0.9213
2165.000000 0.9216 0.9219 0.9220 0.9221 0.9222
2170.000000 0.9222 0.9223 0.9224 0.9224 0.9224
2175.000000 0.9224 0.9224 0.9224 0.9224 0.9223
2180.000000 0.9223 0.9223 0.9223 0.9223 0.9224
2185.000000 0.9224 0.9224 0.9224 0.9225 0.9225
2190.000000 0.9225 0.9225 0.9226 0.9227 0.9229
2195.000000 0.9230 0.9231 0.9232 0.9234 0.9235
2200.000000 0.9236 0.9237 0.9238 0.9238 0.9238
2205.000000 0.9238 0.9238 0.9238 0.9238 0.9237
2210.000000 0.9237 0.9237 0.9237 0.9237 0.9237
2215.000000 0.9237 0.9237 0.9236 0.9236 0.9236
2220.000000 0.9236 0.9236 0.9237 0.9238 0.9239
2225.000000 0.9240 0.9241 0.9242 0.9242 0.9243
2230.000000 0.9244 0.9245 0.9245 0.9245 0.9244
2235.000000 0.9244 0.9243 0.9240 0.9238 0.9235
2240.000000 0.9230 0.9220 0.9209 0.9202 0.9201
2245.000000 0.9200 0.9201 0.9203 0.9205 0.9206
2250.000000 0.9208 0.9210 0.9211 0.9213 0.9215
2255.000000 0.9216 0.9218 0.9220 0.9222 0.9223
2260.000000 0.9225 0.9226 0.9227 0.9228 0.9229
2265.000000 0.9230 0.9231 0.9232 0.9233 0.9234
2270.000000 0.9235 0.9236 0.9237 0.9238 0.9239
2275.000000 0.9241 0.9242 0.9243 0.9244 0.9245
2280.000000 0.9246 0.9247 0.9248 0.9250 0.9251
2285.000000 0.9252 0.9252 0.9252 0.9252 0.9252
2290.000000 0.9253 0.9253 0.9253 0.9253 0.9254
2295.000000 0.9254 0.9254 0.9252 0.9249 0.9247
2300.000000 0.9245 0.9243 0.9240 0.9238 0.9236
2305.000000 0.9234 0.9232 0.9231 0.9230 0.9229
2310.000000 0.9228 0.9227 0.9228 0.9231 0.9234
2315.000000 0.9237 0.9240 0.9242 0.9242 0.9242
2320.000000 0.9242 0.9243 0.9241 0.9240 0.9238
2325.000000 0.9236 0.9235 0.9233 0.9231 0.9230
2330.000000 0.9228 0.9227 0.9225 0.9224 0.9222
2335.000000 0.9220 0.9219 0.9217 0.9215 0.9212
2340.000000 0.9210 0.9208 0.9206 0.9204 0.9200
2345.000000 0.9197 0.9194 0.9191 0.9188 0.9184
2350.000000 0.9181 0.9177 0.9174 0.9170 0.9167
2355.000000 0.9163 0.9160 0.9156 0.9153 0.9149
2360.000000 0.9145 0.9141 0.9137 0.9133 0.9129
2365.000000 0.9125 0.9121 0.9117 0.9113 0.9109
2370.000000 0.9105 0.9101 0.9097 0.9093 0.9089
2375.000000 0.9085 0.9077 0.9067 0.9057 0.9047
2380.000000 0.9037 0.9023 0.9000 0.8977 0.8953
2385.000000 0.8933 0.8914 0.8895 0.8877 0.8860
2390.000000 0.8854 0.8851 0.8839 0.8850 0.8851
2395.000000 0.8851 0.8851 0.8852 0.8853 0.8855
2400.000000 0.8856 0.8858 0.8859 0.8861 0.8864
2405.000000 0.8866 0.8868 0.8871 0.8874 0.8877
2410.000000 0.8878 0.8876 0.8873 0.8871 0.8869
2415.000000 0.8867 0.8865 0.8863 0.8866 0.8870
2420.000000 0.8873 0.8878 0.8885 0.8891 0.8898
2425.000000 0.8903 0.8907 0.8911 0.8915 0.8920
2430.000000 0.8924 0.8928 0.8932 0.8935 0.8937
2435.000000 0.8939 0.8941 0.8948 0.8956 0.8963
2440.000000 0.8971 0.8979 0.8987 0.8996 0.9009
2445.000000 0.9017 0.9025 0.9033 0.9041 0.9049
2450.000000 0.9057 0.9064 0.9072 0.9080 0.9088
2455.000000 0.9096 0.9103 0.9111 0.9119 0.9126
2460.000000 0.9128 0.9127 0.9124 0.9121 0.9118
2465.000000 0.9116 0.9113 0.9109 0.9106 0.9103
2470.000000 0.9099 0.9095 0.9084 0.9072 0.9061
2475.000000 0.9045 0.9030 0.9014 0.8996 0.8980
2480.000000 0.8980 0.8985 0.8993 0.9005 0.9032
2485.000000 0.9065 0.9095 0.9115 0.9125 0.9133
2490.000000 0.9134 0.9136 0.9137 0.9135 0.9134
2495.000000 0.9135 0.9137 0.9138 0.9139 0.9140
2500.000000 0.9141 0.9142 0.9153 0.9163 0.9176
2505.000000 0.9195 0.9213 0.9232 0.9248 0.9264
2510.000000 0.9280 0.9291 0.9303 0.9314 0.9317
2515.000000 0.9320 0.9323 0.9326 0.9328 0.9327
2520.000000 0.9327 0.9326 0.9325 0.9324 0.9323
2525.000000 0.9322 0.9322 0.9321 0.9320 0.9318
2530.000000 0.9316 0.9315 0.9313 0.9311 0.9310
2535.000000 0.9308 0.9306 0.9305 0.9302 0.9300
2540.000000 0.9298 0.9296 0.9294 0.9292 0.9290
2545.000000 0.9288 0.9286 0.9284 0.9286 0.9292
2550.000000 0.9297 0.9305 0.9313 0.9321 0.9328
2555.000000 0.9335 0.9339 0.9341 0.9343 0.9344
2560.000000 0.9345 0.9344 0.9343 0.9343 0.9342
2565.000000 0.9341 0.9340 0.9337 0.9334 0.9331
2570.000000 0.9327 0.9324 0.9321 0.9318 0.9315
2575.000000 0.9312 0.9309 0.9306 0.9303 0.9300
2580.000000 0.9297 0.9294 0.9291 0.9288 0.9288
2585.000000 0.9289 0.9290 0.9294 0.9297 0.9301
2590.000000 0.9304 0.9308 0.9310 0.9313 0.9315
2595.000000 0.9318 0.9322 0.9327 0.9332 0.9337
2600.000000 0.9342 0.9347 0.9352 0.9356 0.9359
2605.000000 0.9362 0.9366 0.9369 0.9373 0.9376
2610.000000 0.9379 0.9381 0.9383 0.9386 0.9388
2615.000000 0.9390 0.9391 0.9392 0.9393 0.9393
2620.000000 0.9388 0.9395 0.9393 0.9389 0.9386
2625.000000 0.9383 0.9379 0.9376 0.9372 0.9369
2630.000000 0.9365 0.9362 0.9357 0.9352 0.9347
2635.000000 0.9342 0.9337 0.9333 0.9330 0.9327
2640.000000 0.9324 0.9321 0.9318 0.9314 0.9311
2645.000000 0.9308 0.9305 0.9302 0.9299 0.9297
2650.000000 0.9298 0.9299 0.9300 0.9301 0.9301
2655.000000 0.9302 0.9302 0.9302 0.9301 0.9299
2660.000000 0.9297 0.9295 0.9294 0.9292 0.9290
2665.000000 0.9288 0.9287 0.9286 0.9285 0.9285
2670.000000 0.9284 0.9284 0.9283 0.9282 0.9282
2675.000000 0.9279 0.9277 0.9275 0.9273 0.9271
2680.000000 0.9268 0.9266 0.9265 0.9264 0.9263
2685.000000 0.9261 0.9261 0.9265 0.9269 0.9272
2690.000000 0.9247 0.9221 0.9196 0.9163 0.9144
2695.000000 0.9128 0.9113 0.9098 0.9091 0.9086
2700.000000 0.9081 0.9076 0.9072 0.9072 0.9072
2705.000000 0.9075 0.9078 0.9081 0.9083 0.9087
2710.000000 0.9090 0.9094 0.9098 0.9099 0.9100
2715.000000 0.9101 0.9102 0.9103 0.9103 0.9098
2720.000000 0.9090 0.9082 0.9074 0.9069 0.9064
2725.000000 0.9059 0.9053 0.9048 0.9043 0.9038
2730.000000 0.9033 0.9031 0.9028 0.9026 0.9024
2735.000000 0.9022 0.9021 0.9025 0.9030 0.9040
2740.000000 0.9049 0.9059 0.9068 0.9078 0.9087
2745.000000 0.9097 0.9105 0.9109 0.9113 0.9117
2750.000000 0.9122 0.9127 0.9132 0.9137 0.9141
2755.000000 0.9146 0.9151 0.9157 0.9165 0.9174
2760.000000 0.9182 0.9191 0.9199 0.9207 0.9213
2765.000000 0.9216 0.9218 0.9220 0.9223 0.9222
2770.000000 0.9218 0.9214 0.9210 0.9195 0.9172
2775.000000 0.9158 0.9144 0.9131 0.9129 0.9127
2780.000000 0.9126 0.9127 0.9128 0.9129 0.9130
2785.000000 0.9133 0.9138 0.9147 0.9167 0.9183
2790.000000 0.9194 0.9204 0.9207 0.9209 0.9210
2795.000000 0.9211 0.9212 0.9213 0.9213 0.9212
2800.000000 0.9212 0.9211 0.9210 0.9210 0.9209
2805.000000 0.9208 0.9207 0.9206 0.9205 0.9203
2810.000000 0.9202 0.9199 0.9196 0.9193 0.9190
2815.000000 0.9188 0.9184 0.9180 0.9176 0.9173
2820.000000 0.9169 0.9165 0.9161 0.9157 0.9148
2825.000000 0.9138 0.9127 0.9116 0.9099 0.9079
2830.000000 0.9055 0.9030 0.9006 0.8982 0.8959
2835.000000 0.8939 0.8918 0.8898 0.8877 0.8857
2840.000000 0.8837 0.8816 0.8798 0.8782 0.8766
2845.000000 0.8751 0.8735 0.8724 0.8714 0.8703
2850.000000 0.8693 0.8682 0.8672 0.8665 0.8661
2855.000000 0.8656 0.8643 0.8630 0.8617 0.8604
2860.000000 0.8587 0.8562 0.8536 0.8509 0.8478
2865.000000 0.8447 0.8415 0.8381 0.8347 0.8302
2870.000000 0.8213 0.8181 0.8157 0.8159 0.8150
2875.000000 0.8170 0.8180 0.8204 0.8245 0.8334
2880.000000 0.8400 0.8447 0.8482 0.8507 0.8526
2885.000000 0.8544 0.8554 0.8563 0.8565 0.8567
2890.000000 0.8569 0.8571 0.8585 0.8569 0.8569
2895.000000 0.8564 0.8556 0.8548 0.8536 0.8523
2900.000000 0.8509 0.8495 0.8479 0.8463 0.8446
2905.000000 0.8429 0.8411 0.8393 0.8375 0.8357
2910.000000 0.8340 0.8324 0.8308 0.8293 0.8275
2915.000000 0.8247 0.8220 0.8178 0.8113 0.8042
2920.000000 0.7991 0.7958 0.7926 0.7893 0.7865
2925.000000 0.7838 0.7811 0.7784 0.7764 0.7747
2930.000000 0.7730 0.7718 0.7715 0.7713 0.7710
2935.000000 0.7707 0.7706 0.7705 0.7704 0.7704
2940.000000 0.7700 0.7696 0.7688 0.7674 0.7659
2945.000000 0.7643 0.7617 0.7592 0.7566 0.7537
2950.000000 0.7506 0.7475 0.7437 0.7396 0.7355
2955.000000 0.7314 0.7254 0.7191 0.7131 0.7046
2960.000000 0.6937 0.6843 0.6789 0.6736 0.6671
2965.000000 0.6602 0.6569 0.6540 0.6534 0.6528
2970.000000 0.6513 0.6534 0.6548 0.6569 0.6607
2975.000000 0.6695 0.6783 0.6870 0.6958 0.7046
2980.000000 0.7134 0.7222 0.7330 0.7388 0.7421
2985.000000 0.7439 0.7443 0.7444 0.7445 0.7442
2990.000000 0.7438 0.7437 0.7440 0.7443 0.7452
2995.000000 0.7462 0.7473 0.7484 0.7520 0.7557
3000.000000 0.7598 0.7639 0.7697 0.7758 0.7811
3005.000000 0.7861 0.7891 0.7914 0.7921 0.7929
3010.000000 0.7930 0.7929 0.7928 0.7927 0.7924
3015.000000 0.7922 0.7920 0.7918 0.7913 0.7908
3020.000000 0.7903 0.7898 0.7894 0.7892 0.7890
3025.000000 0.7887 0.7885 0.7883 0.7883 0.7884
3030.000000 0.7886 0.7888 0.7894 0.7901 0.7907
3035.000000 0.7916 0.7927 0.7937 0.7951 0.7964
3040.000000 0.7977 0.7992 0.8009 0.8026 0.8044
3045.000000 0.8060 0.8075 0.8090 0.8105 0.8120
3050.000000 0.8135 0.8150 0.8164 0.8179 0.8194
3055.000000 0.8208 0.8217 0.8226 0.8235 0.8244
3060.000000 0.8253 0.8261 0.8270 0.8274 0.8279
3065.000000 0.8283 0.8288 0.8292 0.8297 0.8301
3070.000000 0.8305 0.8308 0.8311 0.8314 0.8317
3075.000000 0.8320 0.8323 0.8326 0.8329 0.8331
3080.000000 0.8332 0.8334 0.8336 0.8337 0.8339
3085.000000 0.8341 0.8342 0.8344 0.8346 0.8350
3090.000000 0.8354 0.8358 0.8362 0.8366 0.8370
3095.000000 0.8374 0.8378 0.8382 0.8385 0.8388
3100.000000 0.8391 0.8411 0.8397 0.8397 0.8396
3105.000000 0.8396 0.8396 0.8394 0.8388 0.8382
3110.000000 0.8375 0.8365 0.8354 0.8344 0.8328
3115.000000 0.8310 0.8292 0.8274 0.8251 0.8225
3120.000000 0.8207 0.8192 0.8181 0.8173 0.8154
3125.000000 0.8122 0.8085 0.8021 0.7956 0.7890
3130.000000 0.7824 0.7709 0.7588 0.7462 0.7329
3135.000000 0.7271 0.7216 0.7181 0.7169 0.7156
3140.000000 0.7164 0.7164 0.7178 0.7195 0.7220
3145.000000 0.7335 0.7471 0.7606 0.7742 0.7877
3150.000000 0.8137 0.8234 0.8313 0.8353 0.8392
3155.000000 0.8428 0.8465 0.8495 0.8517 0.8540
3160.000000 0.8558 0.8575 0.8592 0.8609 0.8623
3165.000000 0.8632 0.8641 0.8650 0.8659 0.8668
3170.000000 0.8679 0.8691 0.8702 0.8713 0.8725
3175.000000 0.8738 0.8752 0.8765 0.8778 0.8794
3180.000000 0.8812 0.8831 0.8850 0.8868 0.8883
3185.000000 0.8898 0.8913 0.8928 0.8942 0.8952
3190.000000 0.8961 0.8971 0.8979 0.8987 0.8994
3195.000000 0.9002 0.9009 0.9021 0.9036 0.9050
3200.000000 0.9065 0.9081 0.9097 0.9113 0.9122
3205.000000 0.9130 0.9139 0.9147 0.9155 0.9159
3210.000000 0.9164 0.9168 0.9172 0.9177 0.9181
3215.000000 0.9185 0.9189 0.9192 0.9196 0.9200
3220.000000 0.9204 0.9207 0.9211 0.9214 0.9217
3225.000000 0.9220 0.9224 0.9227 0.9230 0.9235
3230.000000 0.9240 0.9245 0.9250 0.9255 0.9260
3235.000000 0.9265 0.9270 0.9275 0.9279 0.9282
3240.000000 0.9285 0.9287 0.9290 0.9293 0.9296
3245.000000 0.9296 0.9311 0.9295 0.9295 0.9294
3250.000000 0.9291 0.9288 0.9286 0.9283 0.9281
3255.000000 0.9278 0.9273 0.9268 0.9262 0.9257
3260.000000 0.9252 0.9246 0.9241 0.9235 0.9229
3265.000000 0.9223 0.9218 0.9212 0.9206 0.9204
3270.000000 0.9205 0.9205 0.9205 0.9205 0.9206
3275.000000 0.9206 0.9206 0.9206 0.9207 0.9207
3280.000000 0.9207 0.9206 0.9206 0.9206 0.9206
3285.000000 0.9205 0.9205 0.9202 0.9198 0.9194
3290.000000 0.9189 0.9185 0.9181 0.9177 0.9173
3295.000000 0.9169 0.9164 0.9155 0.9147 0.9139
3300.000000 0.9130 0.9122 0.9114 0.9105 0.9097
3305.000000 0.9089 0.9081 0.9074 0.9066 0.9058
3310.000000 0.9051 0.9038 0.9025 0.9011 0.8998
3315.000000 0.8984 0.8973 0.8963 0.8953 0.8943
3320.000000 0.8933 0.8923 0.8913 0.8906 0.8900
3325.000000 0.8893 0.8887 0.8880 0.8872 0.8864
3330.000000 0.8856 0.8849 0.8841 0.8833 0.8824
3335.000000 0.8816 0.8807 0.8798 0.8790 0.8781
3340.000000 0.8773 0.8765 0.8758 0.8751 0.8743
3345.000000 0.8736 0.8729 0.8722 0.8715 0.8708
3350.000000 0.8700 0.8693 0.8686 0.8680 0.8675
3355.000000 0.8669 0.8663 0.8658 0.8652 0.8646
3360.000000 0.8639 0.8630 0.8621 0.8613 0.8604
3365.000000 0.8596 0.8587 0.8575 0.8561 0.8547
3370.000000 0.8533 0.8517 0.8496 0.8475 0.8452
3375.000000 0.8423 0.8394 0.8364 0.8333 0.8279
3380.000000 0.8225 0.8170 0.8111 0.8053 0.7983
3385.000000 0.7893 0.7805 0.7735 0.7666 0.7596
3390.000000 0.7488 0.7308 0.7160 0.7007 0.6855
3395.000000 0.6703 0.6550 0.6398 0.6246 0.6093
3400.000000 0.5941 0.5789 0.5507 0.5342 0.5179
3405.000000 0.5059 0.4960 0.4769 0.4695 0.4632
3410.000000 0.4598 0.4595 0.4592 0.4589 0.4579
3415.000000 0.4607 0.4649 0.4717 0.4816 0.4925
3420.000000 0.5098 0.5349 0.5600 0.5851 0.6103
3425.000000 0.6354 0.6605 0.6856 0.7107 0.7571
3430.000000 0.7655 0.7795 0.7935 0.8052 0.8162
3435.000000 0.8261 0.8360 0.8456 0.8522 0.8575
3440.000000 0.8598 0.8615 0.8632 0.8648 0.8655
3445.000000 0.8662 0.8669 0.8672 0.8675 0.8678
3450.000000 0.8680 0.8698 0.8683 0.8680 0.8677
3455.000000 0.8673 0.8666 0.8659 0.8651 0.8644
3460.000000 0.8632 0.8618 0.8603 0.8586 0.8565
3465.000000 0.8543 0.8522 0.8498 0.8472 0.8446
3470.000000 0.8420 0.8394 0.8368 0.8338 0.8309
3475.000000 0.8280 0.8250 0.8221 0.8179 0.8131
3480.000000 0.8083 0.8014 0.7943 0.7871 0.7808
3485.000000 0.7746 0.7684 0.7620 0.7545 0.7471
3490.000000 0.7395 0.7310 0.7225 0.7140 0.7055
3495.000000 0.6970 0.6885 0.6800 0.6716 0.6631
3500.000000 0.6546 0.6461 0.6376 0.6291 0.6206
3505.000000 0.6121 0.6037 0.5952 0.5867 0.5782
3510.000000 0.5697 0.5612 0.5481 0.5324 0.5203
3515.000000 0.5105 0.5032 0.4978 0.4935 0.4920
3520.000000 0.4909 0.4895 0.4918 0.4929 0.4947
3525.000000 0.4971 0.5036 0.5148 0.5317 0.5577
3530.000000 0.5838 0.6098 0.6358 0.6618 0.6878
3535.000000 0.7138 0.7399 0.7609 0.7760 0.7905
3540.000000 0.7994 0.8120 0.8207 0.8261 0.8314
3545.000000 0.8377 0.8447 0.8520 0.8569 0.8603
3550.000000 0.8636 0.8661 0.8685 0.8705 0.8722
3555.000000 0.8731 0.8740 0.8748 0.8757 0.8765
3560.000000 0.8773 0.8779 0.8785 0.8791 0.8796
3565.000000 0.8800 0.8803 0.8806 0.8809 0.8812
3570.000000 0.8815 0.8817 0.8820 0.8822 0.8824
3575.000000 0.8826 0.8828 0.8830 0.8833 0.8838
3580.000000 0.8842 0.8847 0.8852 0.8856 0.8861
3585.000000 0.8866 0.8871 0.8877 0.8882 0.8888
3590.000000 0.8894 0.8903 0.8912 0.8921 0.8929
3595.000000 0.8938 0.8947 0.8953 0.8957 0.8960
3600.000000 0.8964 0.8968 0.8972 0.8973 0.8973
3605.000000 0.8977 0.8974 0.8974 0.8974 0.8975
3610.000000 0.8975 0.8975 0.8977 0.8979 0.8982
3615.000000 0.8984 0.8986 0.8988 0.8991 0.8987
3620.000000 0.8982 0.8977 0.8972 0.8965 0.8957
3625.000000 0.8950 0.8944 0.8946 0.8947 0.8949
3630.000000 0.8951 0.8953 0.8955 0.8955 0.8954
3635.000000 0.8953 0.8952 0.8951 0.8950 0.8946
3640.000000 0.8942 0.8939 0.8935 0.8930 0.8922
3645.000000 0.8914 0.8906 0.8897 0.8887 0.8876
3650.000000 0.8866 0.8856 0.8845 0.8835 0.8825
3655.000000 0.8815 0.8805 0.8796 0.8786 0.8777
3660.000000 0.8767 0.8757 0.8746 0.8736 0.8725
3665.000000 0.8714 0.8704 0.8693 0.8682 0.8672
3670.000000 0.8660 0.8649 0.8637 0.8584 0.8614
3675.000000 0.8611 0.8610 0.8613 0.8623 0.8631
3680.000000 0.8638 0.8645 0.8651 0.8652 0.8651
3685.000000 0.8650 0.8652 0.8654 0.8657 0.8667
3690.000000 0.8677 0.8688 0.8698 0.8713 0.8728
3695.000000 0.8743 0.8762 0.8784 0.8807 0.8829
3700.000000 0.8847 0.8860 0.8872 0.8885 0.8898
3705.000000 0.8905 0.8907 0.8910 0.8911 0.8912
3710.000000 0.8913 0.8914 0.8914 0.8915 0.8916
3715.000000 0.8918 0.8919 0.8920 0.8922 0.8923
3720.000000 0.8924 0.8923 0.8923 0.8922 0.8921
3725.000000 0.8921 0.8920 0.8919 0.8919 0.8918
3730.000000 0.8917 0.8917 0.8915 0.8914 0.8912
3735.000000 0.8910 0.8908 0.8906 0.8905 0.8903
3740.000000 0.8901 0.8899 0.8897 0.8896 0.8894
3745.000000 0.8892 0.8891 0.8889 0.8888 0.8886
3750.000000 0.8884 0.8883 0.8881 0.8879 0.8878
3755.000000 0.8877 0.8877 0.8878 0.8878 0.8879
3760.000000 0.8879 0.8880 0.8880 0.8881 0.8881
3765.000000 0.8882 0.8882 0.8883 0.8883 0.8885
3770.000000 0.8888 0.8890 0.8893 0.8896 0.8898
3775.000000 0.8901 0.8903 0.8906 0.8910 0.8914
3780.000000 0.8918 0.8922 0.8926 0.8930 0.8934
3785.000000 0.8939 0.8944 0.8947 0.8945 0.8944
3790.000000 0.8943 0.8941 0.8940 0.8939 0.8935
3795.000000 0.8930 0.8925 0.8921 0.8916 0.8911
3800.000000 0.8906 0.8900 0.8894 0.8889 0.8883
3805.000000 0.8878 0.8872 0.8868 0.8870 0.8871
3810.000000 0.8872 0.8874 0.8875 0.8877 0.8878
3815.000000 0.8879 0.8880 0.8881 0.8882 0.8883
3820.000000 0.8885 0.8885 0.8884 0.8883 0.8882
3825.000000 0.8880 0.8879 0.8878 0.8877 0.8879
3830.000000 0.8882 0.8885 0.8888 0.8891 0.8895
3835.000000 0.8898 0.8901 0.8904 0.8912 0.8920
3840.000000 0.8927 0.8935 0.8943 0.8952 0.8961
3845.000000 0.8963 0.8959 0.8955 0.8951 0.8946
3850.000000 0.8939 0.8933 0.8926 0.8919 0.8911
3855.000000 0.8898 0.8887 0.8888 0.8889 0.8890
3860.000000 0.8891 0.8892 0.8891 0.8891 0.8891
3865.000000 0.8891 0.8891 0.8890 0.8890 0.8890
3870.000000 0.8890 0.8889 0.8889 0.8889 0.8889
3875.000000 0.8889 0.8888 0.8890 0.8891 0.8893
3880.000000 0.8895 0.8897 0.8899 0.8901 0.8902
3885.000000 0.8904 0.8906 0.8908 0.8910 0.8911
3890.000000 0.8912 0.8910 0.8907 0.8905 0.8903
3895.000000 0.8901 0.8899 0.8897 0.8895 0.8893
3900.000000 0.8890 0.8888 0.8884 0.8880 0.8877
3905.000000 0.8873 0.8869 0.8866 0.8862 0.8858
3910.000000 0.8855 0.8855 0.8856 0.8857 0.8858
3915.000000 0.8859 0.8860 0.8861 0.8862 0.8863
3920.000000 0.8864 0.8864 0.8864 0.8864 0.8865
3925.000000 0.8865 0.8865 0.8865 0.8866 0.8866
3930.000000 0.8863 0.8860 0.8857 0.8854 0.8851
3935.000000 0.8849 0.8846 0.8843 0.8840 0.8835
3940.000000 0.8831 0.8827 0.8822 0.8818 0.8814
3945.000000 0.8810 0.8805 0.8801 0.8797 0.8792
3950.000000 0.8788 0.8784 0.8780 0.8775 0.8771
3955.000000 0.8767 0.8767 0.8766 0.8766 0.8765
3960.000000 0.8765 0.8764 0.8764 0.8764 0.8763
3965.000000 0.8763 0.8763 0.8764 0.8765 0.8766
3970.000000 0.8766 0.8767 0.8766 0.8763 0.8761
3975.000000 0.8758 0.8755 0.8752 0.8750 0.8747
3980.000000 0.8745 0.8743 0.8741 0.8739 0.8740
3985.000000 0.8742 0.8743 0.8745 0.8746 0.8748
3990.000000 0.8750 0.8751 0.8753 0.8754 0.8756
3995.000000 0.8757 0.8759 0.8760 0.8762 0.8763
4000.000000 0.8764
##END=
