##TITLE=Deuterophosphonic acid, dimethyl ester
##JCAMP-DX=4.24
##DATA TYPE=INFRARED SPECTRUM
##CLASS=COBLENTZ III
##ORIGIN=DOW CHEMICAL COMPANY
##OWNER=COBLENTZ SOC.
Collection (C) 2018 copyright by the U.S. Secretary of Commerce
on behalf of the United States of America. All rights reserved.
##DATE=1966/01/10
##NAMES=dimethyl phosphonate
##MOLFORM=C2 H6 O3 P D
##SOURCE REFERENCE=COBLENTZ NO. 9148
##$NIST ID=B6009148
##$NIST SOURCE=COBLENTZ
##$NIST IMAGE=cob9148
##SPECTROMETER/DATA SYSTEM=DOW KBr FOREPRISM-GRATING
##INSTRUMENT PARAMETERS=BLAZED AT 3.5, 12.0, 20.0 MICRON AND CHANGED AT 5.0, 7.5, 14.9 MICRON
##STATE=SOLUTION (10% CCl4 FOR 3800-1330, SATURATED SOLUTION OF CS2 FOR 1330-670 CM^-^1) VS SOLVENT
##PATH LENGTH=0.011 CM, 0.011 CM
$$ SEE SPECTRUM NO. 9149 FOR FAR IR
$$SPECTRAL CONTAMINATION DUE TO IMPURITY (CH3-O-D) AROUND 2550 CM^-^1
##SAMPLING PROCEDURE=TRANSMISSION
##RESOLUTION=2
##DATA PROCESSING=DIGITIZED BY COBLENTZ SOCIETY (BATCH I) FROM HARD COPY
##XUNITS=1/CM
##YUNITS=TRANSMITTANCE
##XLABEL=Wavenumbers (cm-1)
##YLABEL=% Transmission
##XFACTOR=1
##YFACTOR=1
##DELTAX=1
##FIRSTX=386
##LASTX=3740
##FIRSTY=0.8383
##MAXX=3740
##MINX=386
##MAXY=0.9359
##MINY=0.0046
##NPOINTS=3355
##XYDATA=(X++(Y..Y))
386.000000 0.8383 0.8392 0.8402 0.8407 0.8410
391.000000 0.8412 0.8414 0.8416 0.8418 0.8421
396.000000 0.8423 0.8425 0.8428 0.8431 0.8433
401.000000 0.8437 0.8443 0.8448 0.8454 0.8460
406.000000 0.8465 0.8471 0.8477 0.8486 0.8499
411.000000 0.8512 0.8524 0.8537 0.8551 0.8568
416.000000 0.8586 0.8604 0.8621 0.8635 0.8649
421.000000 0.8663 0.8671 0.8678 0.8684 0.8691
426.000000 0.8697 0.8702 0.8701 0.8700 0.8698
431.000000 0.8697 0.8696 0.8692 0.8681 0.8670
436.000000 0.8648 0.8625 0.8603 0.8575 0.8547
441.000000 0.8518 0.8489 0.8454 0.8420 0.8386
446.000000 0.8338 0.8288 0.8238 0.8188 0.8138
451.000000 0.8095 0.8058 0.8038 0.8022 0.8034
456.000000 0.8040 0.8060 0.8089 0.8122 0.8156
461.000000 0.8190 0.8223 0.8256 0.8289 0.8318
466.000000 0.8349 0.8367 0.8384 0.8394 0.8398
471.000000 0.8402 0.8395 0.8400 0.8399 0.8393
476.000000 0.8384 0.8374 0.8365 0.8353 0.8335
481.000000 0.8317 0.8299 0.8267 0.8232 0.8171
486.000000 0.8107 0.8015 0.7925 0.7834 0.7743
491.000000 0.7653 0.7561 0.7471 0.7380 0.7289
496.000000 0.7198 0.7108 0.7017 0.6925 0.6835
501.000000 0.6746 0.6693 0.6669 0.6658 0.6657
506.000000 0.6655 0.6655 0.6655 0.6651 0.6649
511.000000 0.6646 0.6640 0.6632 0.6621 0.6611
516.000000 0.6600 0.6578 0.6542 0.6494 0.6437
521.000000 0.6370 0.6303 0.6239 0.6162 0.6081
526.000000 0.5946 0.5848 0.5750 0.5641 0.5510
531.000000 0.5377 0.5238 0.5099 0.4962 0.4804
536.000000 0.4356 0.4045 0.3734 0.3424 0.3114
541.000000 0.2803 0.2493 0.2298 0.2273 0.2266
546.000000 0.2271 0.2280 0.2341 0.2651 0.2961
551.000000 0.3271 0.3580 0.3891 0.4200 0.4510
556.000000 0.4820 0.5130 0.5440 0.5750 0.6060
561.000000 0.6686 0.7001 0.7328 0.7507 0.7724
566.000000 0.7869 0.7964 0.8061 0.8171 0.8267
571.000000 0.8325 0.8383 0.8442 0.8500 0.8550
576.000000 0.8601 0.8651 0.8699 0.8735 0.8771
581.000000 0.8807 0.8837 0.8865 0.8893 0.8921
586.000000 0.8950 0.8978 0.9005 0.9021 0.9039
591.000000 0.9056 0.9071 0.9082 0.9092 0.9102
596.000000 0.9112 0.9121 0.9132 0.9141 0.9149
601.000000 0.9157 0.9165 0.9173 0.9181 0.9189
606.000000 0.9197 0.9203 0.9210 0.9217 0.9223
611.000000 0.9230 0.9236 0.9242 0.9245 0.9248
616.000000 0.9251 0.9254 0.9257 0.9260 0.9263
621.000000 0.9265 0.9268 0.9271 0.9275 0.9280
626.000000 0.9284 0.9288 0.9292 0.9295 0.9299
631.000000 0.9303 0.9306 0.9309 0.9312 0.9315
636.000000 0.9315 0.9309 0.9303 0.9297 0.9283
641.000000 0.9264 0.9245 0.9227 0.9209 0.9192
646.000000 0.9180 0.9180 0.9180 0.9162 0.9134
651.000000 0.9092 0.9045 0.9001 0.8992 0.8978
656.000000 0.9063 0.9170 0.9255 0.9300 0.9320
661.000000 0.9333 0.9338 0.9359 0.9304 0.9278
666.000000 0.9251 0.9225 0.9198 0.9171 0.9146
671.000000 0.9118 0.9107 0.9105 0.9101 0.9097
676.000000 0.9092 0.9087 0.9082 0.9077 0.9071
681.000000 0.9063 0.9055 0.9045 0.9034 0.9018
686.000000 0.8999 0.8980 0.8960 0.8925 0.8889
691.000000 0.8848 0.8790 0.8721 0.8661 0.8601
696.000000 0.8543 0.8486 0.8428 0.8371 0.8282
701.000000 0.8101 0.7922 0.7744 0.7564 0.7385
706.000000 0.7205 0.7025 0.6761 0.6698 0.6682
711.000000 0.6689 0.6724 0.6828 0.6935 0.7039
716.000000 0.7139 0.7251 0.7346 0.7346 0.7346
721.000000 0.7339 0.7331 0.7319 0.7310 0.7300
726.000000 0.7290 0.7278 0.7264 0.7250 0.7234
731.000000 0.7214 0.7193 0.7168 0.7140 0.7091
736.000000 0.7021 0.6947 0.6842 0.6708 0.6574
741.000000 0.6384 0.6328 0.6328 0.6329 0.6366
746.000000 0.6441 0.6525 0.6676 0.6781 0.6875
751.000000 0.6947 0.7014 0.7053 0.7038 0.7032
756.000000 0.7015 0.6974 0.6858 0.6744 0.6630
761.000000 0.6515 0.6401 0.6286 0.6171 0.6040
766.000000 0.5945 0.5857 0.5774 0.5676 0.5548
771.000000 0.5182 0.4976 0.4744 0.4512 0.4281
776.000000 0.4050 0.3818 0.3587 0.3356 0.3124
781.000000 0.2893 0.2662 0.2430 0.2199 0.1967
786.000000 0.1735 0.1505 0.1283 0.1107 0.0789
791.000000 0.0703 0.0726 0.0751 0.0922 0.1045
796.000000 0.1185 0.1463 0.1822 0.2180 0.2538
801.000000 0.2897 0.3193 0.3352 0.3484 0.3656
806.000000 0.3839 0.3988 0.4119 0.4218 0.4312
811.000000 0.4376 0.4439 0.4496 0.4507 0.4504
816.000000 0.4490 0.4473 0.4454 0.4426 0.4390
821.000000 0.4368 0.4345 0.4318 0.4291 0.4248
826.000000 0.4199 0.4140 0.4074 0.4003 0.3908
831.000000 0.3792 0.3644 0.3542 0.3420 0.3151
836.000000 0.2524 0.1934 0.1345 0.0755 0.0471
841.000000 0.0251 0.0167 0.0113 0.0079 0.0062
846.000000 0.0055 0.0055 0.0055 0.0061 0.0071
851.000000 0.0089 0.0112 0.0144 0.0182 0.0490
856.000000 0.0959 0.1428 0.1896 0.2366 0.2834
861.000000 0.3304 0.3662 0.3794 0.4135 0.4312
866.000000 0.4447 0.5147 0.5612 0.6124 0.6424
871.000000 0.6607 0.6746 0.6851 0.6955 0.7038
876.000000 0.7121 0.7186 0.7247 0.7331 0.7441
881.000000 0.7540 0.7601 0.7644 0.7685 0.7717
886.000000 0.7746 0.7775 0.7805 0.7831 0.7851
891.000000 0.7872 0.7894 0.7914 0.7934 0.7954
896.000000 0.7972 0.7988 0.8001 0.8015 0.8018
901.000000 0.8018 0.8019 0.8019 0.8018 0.8018
906.000000 0.8032 0.8015 0.8015 0.8011 0.8007
911.000000 0.8001 0.7997 0.7992 0.7987 0.7983
916.000000 0.7978 0.7974 0.7968 0.7961 0.7954
921.000000 0.7947 0.7939 0.7931 0.7921 0.7914
926.000000 0.7905 0.7897 0.7889 0.7880 0.7869
931.000000 0.7861 0.7851 0.7846 0.7841 0.7835
936.000000 0.7832 0.7828 0.7825 0.7821 0.7815
941.000000 0.7808 0.7801 0.7788 0.7768 0.7751
946.000000 0.7733 0.7701 0.7667 0.7635 0.7601
951.000000 0.7557 0.7506 0.7445 0.7384 0.7304
956.000000 0.7215 0.7124 0.7030 0.6933 0.6815
961.000000 0.6684 0.6461 0.6243 0.6083 0.5923
966.000000 0.5722 0.5468 0.5186 0.4853 0.4038
971.000000 0.3223 0.2633 0.2516 0.2424 0.2146
976.000000 0.2036 0.2015 0.2023 0.2034 0.2058
981.000000 0.2139 0.2310 0.2479 0.2648 0.2817
986.000000 0.2985 0.3155 0.3324 0.3494 0.3662
991.000000 0.3820 0.3934 0.4000 0.4021 0.4028
996.000000 0.4047 0.4016 0.4000 0.3980 0.3957
1001.000000 0.3924 0.3859 0.3808 0.3753 0.3673
1006.000000 0.3582 0.3504 0.3416 0.3239 0.3065
1011.000000 0.2964 0.2845 0.2564 0.2283 0.2002
1016.000000 0.1721 0.1440 0.1172 0.1050 0.0859
1021.000000 0.0725 0.0454 0.0328 0.0208 0.0080
1026.000000 0.0058 0.0052 0.0052 0.0052 0.0052
1031.000000 0.0054 0.0056 0.0058 0.0060 0.0061
1036.000000 0.0062 0.0063 0.0065 0.0066 0.0067
1041.000000 0.0068 0.0069 0.0069 0.0070 0.0071
1046.000000 0.0071 0.0072 0.0072 0.0072 0.0072
1051.000000 0.0071 0.0071 0.0070 0.0070 0.0070
1056.000000 0.0070 0.0070 0.0071 0.0072 0.0072
1061.000000 0.0073 0.0073 0.0073 0.0074 0.0077
1066.000000 0.0080 0.0084 0.0087 0.0090 0.0095
1071.000000 0.0114 0.0168 0.0220 0.0314 0.0431
1076.000000 0.0548 0.0665 0.0782 0.0900 0.1017
1081.000000 0.1134 0.1237 0.1396 0.1635 0.1765
1086.000000 0.1850 0.1937 0.2032 0.2118 0.2200
1091.000000 0.2291 0.2447 0.2563 0.2674 0.2784
1096.000000 0.2896 0.3030 0.3252 0.3416 0.3566
1101.000000 0.3720 0.3876 0.4016 0.4122 0.4187
1106.000000 0.4251 0.4323 0.4395 0.4464 0.4532
1111.000000 0.4600 0.4681 0.4764 0.4830 0.4885
1116.000000 0.4939 0.4993 0.5045 0.5094 0.5143
1121.000000 0.5192 0.5241 0.5283 0.5323 0.5364
1126.000000 0.5405 0.5442 0.5471 0.5500 0.5529
1131.000000 0.5558 0.5583 0.5607 0.5630 0.5653
1136.000000 0.5677 0.5692 0.5699 0.5707 0.5714
1141.000000 0.5721 0.5720 0.5719 0.5718 0.5710
1146.000000 0.5702 0.5692 0.5682 0.5668 0.5653
1151.000000 0.5633 0.5612 0.5592 0.5560 0.5527
1156.000000 0.5494 0.5462 0.5406 0.5350 0.5287
1161.000000 0.5224 0.5160 0.5095 0.5026 0.4944
1166.000000 0.4860 0.4779 0.4675 0.4562 0.4449
1171.000000 0.4321 0.4191 0.4047 0.3879 0.3434
1176.000000 0.3264 0.3132 0.2979 0.2795 0.2401
1181.000000 0.2188 0.2018 0.1931 0.1904 0.1869
1186.000000 0.1902 0.1914 0.1950 0.2027 0.2388
1191.000000 0.2538 0.2671 0.2877 0.3001 0.3102
1196.000000 0.3200 0.3326 0.3545 0.3790 0.4030
1201.000000 0.4236 0.4337 0.4438 0.4573 0.4720
1206.000000 0.4901 0.5027 0.5090 0.5136 0.5167
1211.000000 0.5183 0.5182 0.5181 0.5181 0.5172
1216.000000 0.5162 0.5143 0.5121 0.5096 0.5066
1221.000000 0.5037 0.4997 0.4943 0.4870 0.4796
1226.000000 0.4721 0.4645 0.4539 0.4434 0.4333
1231.000000 0.4232 0.4096 0.3932 0.3749 0.3586
1236.000000 0.3375 0.3164 0.2953 0.2742 0.2530
1241.000000 0.1894 0.1735 0.1551 0.1420 0.1314
1246.000000 0.1107 0.0861 0.0664 0.0456 0.0307
1251.000000 0.0164 0.0081 0.0052 0.0049 0.0048
1256.000000 0.0046 0.0046 0.0046 0.0046 0.0046
1261.000000 0.0046 0.0046 0.0048 0.0061 0.0052
1266.000000 0.0054 0.0057 0.0058 0.0058 0.0058
1271.000000 0.0058 0.0058 0.0060 0.0062 0.0065
1276.000000 0.0067 0.0070 0.0073 0.0075 0.0090
1281.000000 0.0126 0.0194 0.0254 0.0483 0.0571
1286.000000 0.0747 0.0985 0.1223 0.1461 0.1699
1291.000000 0.1936 0.2407 0.2682 0.3458 0.3905
1296.000000 0.4130 0.4304 0.4680 0.4769 0.4858
1301.000000 0.4946 0.5035 0.5130 0.5302 0.5529
1306.000000 0.5701 0.5894 0.5998 0.6121 0.6322
1311.000000 0.6497 0.6592 0.6647 0.6701 0.6756
1316.000000 0.6810 0.6862 0.6915 0.6964 0.7008
1321.000000 0.7054 0.7098 0.7136 0.7168 0.7203
1326.000000 0.7237 0.7265 0.7295 0.7322 0.7351
1331.000000 0.7378 0.7394 0.7408 0.7421 0.7436
1336.000000 0.7451 0.7465 0.7474 0.7476 0.7481
1341.000000 0.7484 0.7488 0.7489 0.7489 0.7512
1346.000000 0.7485 0.7476 0.7468 0.7458 0.7449
1351.000000 0.7439 0.7425 0.7408 0.7393 0.7376
1356.000000 0.7358 0.7339 0.7319 0.7301 0.7284
1361.000000 0.7268 0.7254 0.7254 0.7255 0.7257
1366.000000 0.7264 0.7271 0.7276 0.7282 0.7287
1371.000000 0.7291 0.7292 0.7291 0.7290 0.7288
1376.000000 0.7287 0.7285 0.7283 0.7281 0.7275
1381.000000 0.7268 0.7262 0.7262 0.7284 0.7308
1386.000000 0.7334 0.7358 0.7384 0.7387 0.7387
1391.000000 0.7386 0.7383 0.7381 0.7378 0.7375
1396.000000 0.7371 0.7368 0.7364 0.7360 0.7355
1401.000000 0.7348 0.7341 0.7334 0.7328 0.7321
1406.000000 0.7315 0.7308 0.7301 0.7296 0.7290
1411.000000 0.7283 0.7274 0.7265 0.7255 0.7246
1416.000000 0.7230 0.7211 0.7194 0.7175 0.7145
1421.000000 0.7115 0.7086 0.7056 0.7025 0.6986
1426.000000 0.6946 0.6899 0.6845 0.6792 0.6736
1431.000000 0.6669 0.6604 0.6521 0.6439 0.6359
1436.000000 0.6279 0.6193 0.6068 0.5946 0.5829
1441.000000 0.5573 0.5365 0.5193 0.5038 0.4674
1446.000000 0.4515 0.4177 0.3839 0.3500 0.3163
1451.000000 0.3098 0.3108 0.3169 0.3258 0.3238
1456.000000 0.3216 0.3184 0.3142 0.3072 0.3001
1461.000000 0.2987 0.2988 0.2980 0.3026 0.3063
1466.000000 0.3102 0.3138 0.3225 0.3393 0.3700
1471.000000 0.3920 0.4027 0.4152 0.4355 0.4485
1476.000000 0.4592 0.4726 0.5012 0.5217 0.5330
1481.000000 0.5449 0.5674 0.5812 0.5938 0.6037
1486.000000 0.6133 0.6226 0.6316 0.6406 0.6467
1491.000000 0.6525 0.6584 0.6645 0.6712 0.6778
1496.000000 0.6836 0.6908 0.6956 0.7015 0.7068
1501.000000 0.7110 0.7155 0.7201 0.7245 0.7284
1506.000000 0.7322 0.7361 0.7400 0.7421 0.7441
1511.000000 0.7461 0.7483 0.7504 0.7524 0.7539
1516.000000 0.7554 0.7568 0.7583 0.7598 0.7610
1521.000000 0.7621 0.7634 0.7646 0.7658 0.7669
1526.000000 0.7682 0.7695 0.7708 0.7721 0.7736
1531.000000 0.7749 0.7762 0.7775 0.7797 0.7818
1536.000000 0.7851 0.7889 0.7925 0.7947 0.7968
1541.000000 0.7987 0.7998 0.8008 0.8015 0.8018
1546.000000 0.8019 0.8021 0.8019 0.8019 0.8018
1551.000000 0.8014 0.8010 0.8006 0.8001 0.7998
1556.000000 0.7993 0.7989 0.7985 0.7981 0.7975
1561.000000 0.7969 0.7965 0.7958 0.7958 0.7958
1566.000000 0.7958 0.7958 0.7958 0.7962 0.7967
1571.000000 0.7971 0.7975 0.7981 0.7988 0.7995
1576.000000 0.8001 0.8008 0.8015 0.8024 0.8032
1581.000000 0.8040 0.8048 0.8057 0.8065 0.8071
1586.000000 0.8074 0.8076 0.8080 0.8083 0.8086
1591.000000 0.8089 0.8092 0.8095 0.8099 0.8101
1596.000000 0.8105 0.8108 0.8111 0.8114 0.8117
1601.000000 0.8119 0.8122 0.8125 0.8128 0.8132
1606.000000 0.8135 0.8138 0.8141 0.8144 0.8147
1611.000000 0.8150 0.8153 0.8156 0.8158 0.8162
1616.000000 0.8165 0.8168 0.8171 0.8175 0.8178
1621.000000 0.8178 0.8180 0.8180 0.8181 0.8182
1626.000000 0.8182 0.8185 0.8188 0.8191 0.8194
1631.000000 0.8197 0.8204 0.8211 0.8218 0.8225
1636.000000 0.8231 0.8237 0.8244 0.8251 0.8257
1641.000000 0.8264 0.8273 0.8284 0.8295 0.8306
1646.000000 0.8317 0.8328 0.8340 0.8351 0.8362
1651.000000 0.8370 0.8375 0.8381 0.8386 0.8392
1656.000000 0.8396 0.8400 0.8392 0.8408 0.8410
1661.000000 0.8410 0.8409 0.8409 0.8408 0.8408
1666.000000 0.8407 0.8405 0.8403 0.8401 0.8399
1671.000000 0.8397 0.8392 0.8387 0.8381 0.8375
1676.000000 0.8368 0.8363 0.8356 0.8348 0.8338
1681.000000 0.8325 0.8311 0.8295 0.8278 0.8261
1686.000000 0.8233 0.8205 0.8176 0.8156 0.8136
1691.000000 0.8117 0.8097 0.8083 0.8071 0.8061
1696.000000 0.8056 0.8051 0.8049 0.8047 0.8045
1701.000000 0.8043 0.8041 0.8038 0.8034 0.8028
1706.000000 0.8021 0.8015 0.8006 0.7995 0.7975
1711.000000 0.7951 0.7925 0.7892 0.7860 0.7826
1716.000000 0.7786 0.7739 0.7669 0.7565 0.7488
1721.000000 0.7431 0.7374 0.7311 0.7242 0.7172
1726.000000 0.7098 0.7017 0.6937 0.6826 0.6699
1731.000000 0.6534 0.6438 0.6360 0.6282 0.6206
1736.000000 0.6123 0.6044 0.5983 0.5919 0.5854
1741.000000 0.5793 0.5738 0.5684 0.5627 0.5560
1746.000000 0.5496 0.5445 0.5400 0.5354 0.5310
1751.000000 0.5269 0.5228 0.5188 0.5147 0.5073
1756.000000 0.5014 0.4962 0.4896 0.4810 0.4744
1761.000000 0.4681 0.4616 0.4540 0.4464 0.4389
1766.000000 0.4317 0.4245 0.4186 0.4127 0.4049
1771.000000 0.3977 0.3924 0.3893 0.3888 0.3902
1776.000000 0.3898 0.3909 0.3930 0.3970 0.4050
1781.000000 0.4212 0.4375 0.4537 0.4700 0.4862
1786.000000 0.5024 0.5187 0.5349 0.5512 0.5674
1791.000000 0.5836 0.5999 0.6152 0.6269 0.6378
1796.000000 0.6505 0.6675 0.6815 0.6931 0.7051
1801.000000 0.7215 0.7346 0.7432 0.7481 0.7525
1806.000000 0.7562 0.7596 0.7621 0.7647 0.7668
1811.000000 0.7687 0.7699 0.7708 0.7708 0.7708
1816.000000 0.7706 0.7704 0.7703 0.7701 0.7699
1821.000000 0.7698 0.7703 0.7708 0.7712 0.7718
1826.000000 0.7725 0.7735 0.7749 0.7771 0.7795
1831.000000 0.7818 0.7849 0.7881 0.7918 0.7958
1836.000000 0.7996 0.8033 0.8062 0.8092 0.8121
1841.000000 0.8151 0.8184 0.8212 0.8233 0.8247
1846.000000 0.8259 0.8268 0.8280 0.8287 0.8291
1851.000000 0.8296 0.8301 0.8306 0.8310 0.8315
1856.000000 0.8318 0.8323 0.8325 0.8330 0.8333
1861.000000 0.8333 0.8333 0.8333 0.8332 0.8330
1866.000000 0.8328 0.8324 0.8318 0.8314 0.8308
1871.000000 0.8300 0.8292 0.8284 0.8275 0.8266
1876.000000 0.8249 0.8232 0.8215 0.8198 0.8178
1881.000000 0.8158 0.8140 0.8124 0.8108 0.8093
1886.000000 0.8076 0.8069 0.8071 0.8072 0.8074
1891.000000 0.8075 0.8075 0.8076 0.8078 0.8074
1896.000000 0.8067 0.8060 0.8051 0.8042 0.8034
1901.000000 0.8024 0.8011 0.7999 0.7989 0.7982
1906.000000 0.7974 0.7967 0.7960 0.7956 0.7954
1911.000000 0.7953 0.7951 0.7942 0.7953 0.7958
1916.000000 0.7962 0.7969 0.7978 0.7986 0.7994
1921.000000 0.8021 0.8050 0.8083 0.8125 0.8165
1926.000000 0.8213 0.8262 0.8311 0.8354 0.8397
1931.000000 0.8439 0.8478 0.8507 0.8535 0.8548
1936.000000 0.8551 0.8554 0.8554 0.8555 0.8556
1941.000000 0.8557 0.8558 0.8561 0.8563 0.8565
1946.000000 0.8567 0.8570 0.8571 0.8574 0.8575
1951.000000 0.8578 0.8581 0.8583 0.8585 0.8587
1956.000000 0.8589 0.8590 0.8591 0.8592 0.8594
1961.000000 0.8595 0.8596 0.8597 0.8599 0.8599
1966.000000 0.8599 0.8599 0.8598 0.8598 0.8597
1971.000000 0.8596 0.8596 0.8595 0.8595 0.8594
1976.000000 0.8594 0.8593 0.8593 0.8593 0.8592
1981.000000 0.8592 0.8592 0.8592 0.8591 0.8591
1986.000000 0.8590 0.8588 0.8587 0.8585 0.8578
1991.000000 0.8571 0.8564 0.8556 0.8548 0.8541
1996.000000 0.8539 0.8539 0.8542 0.8545 0.8547
2001.000000 0.8548 0.8549 0.8549 0.8549 0.8546
2006.000000 0.8543 0.8537 0.8531 0.8525 0.8521
2011.000000 0.8516 0.8512 0.8506 0.8501 0.8495
2016.000000 0.8489 0.8483 0.8478 0.8473 0.8468
2021.000000 0.8464 0.8460 0.8456 0.8452 0.8451
2026.000000 0.8451 0.8450 0.8450 0.8449 0.8450
2031.000000 0.8450 0.8451 0.8452 0.8453 0.8454
2036.000000 0.8456 0.8457 0.8459 0.8461 0.8463
2041.000000 0.8465 0.8467 0.8468 0.8471 0.8473
2046.000000 0.8475 0.8475 0.8478 0.8478 0.8480
2051.000000 0.8481 0.8483 0.8484 0.8485 0.8486
2056.000000 0.8488 0.8489 0.8490 0.8491 0.8492
2061.000000 0.8493 0.8494 0.8495 0.8496 0.8496
2066.000000 0.8497 0.8498 0.8499 0.8500 0.8501
2071.000000 0.8502 0.8503 0.8503 0.8504 0.8505
2076.000000 0.8506 0.8508 0.8510 0.8512 0.8514
2081.000000 0.8515 0.8517 0.8518 0.8521 0.8523
2086.000000 0.8525 0.8525 0.8528 0.8530 0.8532
2091.000000 0.8534 0.8536 0.8538 0.8540 0.8542
2096.000000 0.8545 0.8548 0.8551 0.8554 0.8557
2101.000000 0.8560 0.8563 0.8565 0.8568 0.8571
2106.000000 0.8574 0.8575 0.8578 0.8581 0.8584
2111.000000 0.8586 0.8589 0.8591 0.8593 0.8595
2116.000000 0.8597 0.8599 0.8601 0.8603 0.8605
2121.000000 0.8607 0.8609 0.8611 0.8614 0.8616
2126.000000 0.8618 0.8620 0.8621 0.8623 0.8625
2131.000000 0.8627 0.8628 0.8630 0.8632 0.8634
2136.000000 0.8636 0.8637 0.8639 0.8639 0.8640
2141.000000 0.8640 0.8640 0.8640 0.8641 0.8641
2146.000000 0.8642 0.8642 0.8642 0.8642 0.8643
2151.000000 0.8643 0.8643 0.8644 0.8646 0.8647
2156.000000 0.8649 0.8650 0.8652 0.8653 0.8655
2161.000000 0.8656 0.8658 0.8659 0.8661 0.8662
2166.000000 0.8663 0.8663 0.8663 0.8663 0.8664
2171.000000 0.8664 0.8664 0.8664 0.8665 0.8665
2176.000000 0.8665 0.8665 0.8666 0.8666 0.8666
2181.000000 0.8666 0.8665 0.8664 0.8663 0.8662
2186.000000 0.8662 0.8661 0.8660 0.8659 0.8658
2191.000000 0.8657 0.8657 0.8656 0.8655 0.8654
2196.000000 0.8653 0.8652 0.8652 0.8651 0.8650
2201.000000 0.8649 0.8649 0.8648 0.8647 0.8646
2206.000000 0.8646 0.8645 0.8645 0.8644 0.8644
2211.000000 0.8643 0.8642 0.8641 0.8641 0.8640
2216.000000 0.8640 0.8639 0.8639 0.8638 0.8638
2221.000000 0.8637 0.8636 0.8636 0.8636 0.8636
2226.000000 0.8636 0.8636 0.8636 0.8636 0.8636
2231.000000 0.8636 0.8637 0.8637 0.8637 0.8637
2236.000000 0.8637 0.8637 0.8637 0.8637 0.8637
2241.000000 0.8638 0.8639 0.8641 0.8644 0.8647
2246.000000 0.8650 0.8652 0.8655 0.8655 0.8655
2251.000000 0.8654 0.8654 0.8654 0.8654 0.8653
2256.000000 0.8653 0.8653 0.8653 0.8652 0.8652
2261.000000 0.8652 0.8653 0.8653 0.8653 0.8653
2266.000000 0.8653 0.8653 0.8653 0.8653 0.8653
2271.000000 0.8653 0.8653 0.8653 0.8653 0.8653
2276.000000 0.8654 0.8655 0.8656 0.8656 0.8657
2281.000000 0.8657 0.8658 0.8659 0.8660 0.8660
2286.000000 0.8661 0.8662 0.8663 0.8663 0.8663
2291.000000 0.8663 0.8663 0.8662 0.8661 0.8660
2296.000000 0.8659 0.8658 0.8657 0.8656 0.8655
2301.000000 0.8651 0.8648 0.8644 0.8641 0.8637
2306.000000 0.8633 0.8628 0.8625 0.8621 0.8617
2311.000000 0.8613 0.8609 0.8605 0.8601 0.8597
2316.000000 0.8593 0.8588 0.8584 0.8580 0.8575
2321.000000 0.8573 0.8571 0.8570 0.8570 0.8568
2326.000000 0.8568 0.8567 0.8566 0.8565 0.8565
2331.000000 0.8564 0.8564 0.8564 0.8564 0.8563
2336.000000 0.8563 0.8563 0.8563 0.8562 0.8562
2341.000000 0.8562 0.8562 0.8559 0.8556 0.8550
2346.000000 0.8544 0.8534 0.8525 0.8521 0.8518
2351.000000 0.8518 0.8518 0.8517 0.8517 0.8516
2356.000000 0.8516 0.8516 0.8516 0.8516 0.8516
2361.000000 0.8516 0.8516 0.8516 0.8516 0.8515
2366.000000 0.8515 0.8514 0.8513 0.8512 0.8512
2371.000000 0.8511 0.8510 0.8505 0.8500 0.8492
2376.000000 0.8484 0.8473 0.8463 0.8452 0.8441
2381.000000 0.8428 0.8418 0.8406 0.8395 0.8383
2386.000000 0.8371 0.8361 0.8351 0.8340 0.8330
2391.000000 0.8320 0.8310 0.8299 0.8288 0.8277
2396.000000 0.8266 0.8255 0.8244 0.8232 0.8221
2401.000000 0.8209 0.8198 0.8186 0.8174 0.8161
2406.000000 0.8151 0.8139 0.8128 0.8117 0.8106
2411.000000 0.8095 0.8084 0.8072 0.8061 0.8051
2416.000000 0.8040 0.8028 0.8018 0.8008 0.7999
2421.000000 0.7989 0.7978 0.7969 0.7961 0.7953
2426.000000 0.7946 0.7941 0.7936 0.7936 0.7936
2431.000000 0.7936 0.7937 0.7940 0.7943 0.7946
2436.000000 0.7949 0.7956 0.7962 0.7971 0.7982
2441.000000 0.7992 0.8003 0.8018 0.8034 0.8054
2446.000000 0.8074 0.8096 0.8118 0.8140 0.8161
2451.000000 0.8186 0.8210 0.8234 0.8258 0.8278
2456.000000 0.8300 0.8318 0.8339 0.8352 0.8365
2461.000000 0.8375 0.8386 0.8389 0.8393 0.8397
2466.000000 0.8416 0.8400 0.8399 0.8397 0.8396
2471.000000 0.8394 0.8393 0.8391 0.8390 0.8387
2476.000000 0.8385 0.8383 0.8381 0.8378 0.8375
2481.000000 0.8374 0.8371 0.8368 0.8366 0.8362
2486.000000 0.8359 0.8355 0.8351 0.8347 0.8344
2491.000000 0.8340 0.8336 0.8328 0.8321 0.8313
2496.000000 0.8306 0.8298 0.8291 0.8283 0.8275
2501.000000 0.8268 0.8261 0.8251 0.8241 0.8231
2506.000000 0.8221 0.8211 0.8202 0.8192 0.8182
2511.000000 0.8171 0.8161 0.8151 0.8143 0.8131
2516.000000 0.8118 0.8107 0.8095 0.8083 0.8071
2521.000000 0.8058 0.8048 0.8032 0.8015 0.7998
2526.000000 0.7981 0.7964 0.7947 0.7930 0.7912
2531.000000 0.7896 0.7878 0.7861 0.7846 0.7828
2536.000000 0.7811 0.7799 0.7786 0.7774 0.7761
2541.000000 0.7749 0.7737 0.7725 0.7712 0.7705
2546.000000 0.7698 0.7691 0.7685 0.7678 0.7672
2551.000000 0.7665 0.7660 0.7654 0.7648 0.7646
2556.000000 0.7646 0.7647 0.7650 0.7651 0.7655
2561.000000 0.7658 0.7662 0.7671 0.7681 0.7689
2566.000000 0.7698 0.7710 0.7722 0.7736 0.7750
2571.000000 0.7762 0.7775 0.7789 0.7803 0.7815
2576.000000 0.7830 0.7853 0.7875 0.7899 0.7922
2581.000000 0.7945 0.7968 0.7991 0.8014 0.8034
2586.000000 0.8054 0.8071 0.8090 0.8108 0.8126
2591.000000 0.8143 0.8160 0.8175 0.8192 0.8207
2596.000000 0.8223 0.8238 0.8254 0.8263 0.8271
2601.000000 0.8280 0.8289 0.8295 0.8302 0.8305
2606.000000 0.8309 0.8312 0.8316 0.8318 0.8323
2611.000000 0.8325 0.8330 0.8333 0.8336 0.8338
2616.000000 0.8341 0.8344 0.8347 0.8350 0.8353
2621.000000 0.8355 0.8358 0.8360 0.8362 0.8363
2626.000000 0.8365 0.8367 0.8368 0.8370 0.8371
2631.000000 0.8374 0.8375 0.8377 0.8378 0.8382
2636.000000 0.8386 0.8391 0.8396 0.8402 0.8408
2641.000000 0.8415 0.8423 0.8430 0.8438 0.8445
2646.000000 0.8453 0.8461 0.8470 0.8480 0.8490
2651.000000 0.8500 0.8510 0.8518 0.8528 0.8537
2656.000000 0.8545 0.8549 0.8554 0.8556 0.8558
2661.000000 0.8560 0.8562 0.8562 0.8562 0.8562
2666.000000 0.8562 0.8561 0.8561 0.8560 0.8560
2671.000000 0.8559 0.8559 0.8558 0.8557 0.8556
2676.000000 0.8556 0.8555 0.8554 0.8553 0.8553
2681.000000 0.8552 0.8552 0.8551 0.8551 0.8550
2686.000000 0.8549 0.8548 0.8548 0.8547 0.8547
2691.000000 0.8546 0.8545 0.8543 0.8542 0.8541
2696.000000 0.8540 0.8539 0.8538 0.8536 0.8535
2701.000000 0.8534 0.8533 0.8528 0.8525 0.8523
2706.000000 0.8520 0.8517 0.8514 0.8510 0.8507
2711.000000 0.8501 0.8496 0.8491 0.8486 0.8486
2716.000000 0.8487 0.8494 0.8501 0.8516 0.8531
2721.000000 0.8547 0.8563 0.8578 0.8595 0.8611
2726.000000 0.8628 0.8646 0.8665 0.8674 0.8683
2731.000000 0.8686 0.8690 0.8690 0.8690 0.8690
2736.000000 0.8690 0.8689 0.8689 0.8688 0.8687
2741.000000 0.8685 0.8683 0.8680 0.8678 0.8675
2746.000000 0.8674 0.8671 0.8670 0.8668 0.8666
2751.000000 0.8663 0.8661 0.8659 0.8657 0.8655
2756.000000 0.8653 0.8650 0.8648 0.8646 0.8644
2761.000000 0.8641 0.8639 0.8635 0.8631 0.8627
2766.000000 0.8624 0.8620 0.8616 0.8612 0.8608
2771.000000 0.8604 0.8601 0.8597 0.8593 0.8589
2776.000000 0.8585 0.8581 0.8577 0.8573 0.8568
2781.000000 0.8564 0.8559 0.8553 0.8547 0.8540
2786.000000 0.8534 0.8525 0.8518 0.8506 0.8495
2791.000000 0.8485 0.8475 0.8465 0.8455 0.8444
2796.000000 0.8433 0.8418 0.8405 0.8391 0.8378
2801.000000 0.8359 0.8341 0.8321 0.8303 0.8285
2806.000000 0.8268 0.8244 0.8220 0.8191 0.8162
2811.000000 0.8140 0.8118 0.8099 0.8080 0.8061
2816.000000 0.8042 0.8014 0.7987 0.7957 0.7926
2821.000000 0.7896 0.7865 0.7831 0.7796 0.7738
2826.000000 0.7680 0.7630 0.7581 0.7540 0.7499
2831.000000 0.7461 0.7422 0.7387 0.7351 0.7260
2836.000000 0.7168 0.6867 0.6565 0.6265 0.5964
2841.000000 0.5662 0.5362 0.5060 0.4760 0.4458
2846.000000 0.4157 0.3856 0.3555 0.3356 0.3173
2851.000000 0.3370 0.3582 0.4292 0.5003 0.5712
2856.000000 0.6422 0.6664 0.6905 0.6969 0.7036
2861.000000 0.7148 0.7261 0.7368 0.7476 0.7517
2866.000000 0.7558 0.7575 0.7592 0.7596 0.7606
2871.000000 0.7600 0.7599 0.7599 0.7597 0.7590
2876.000000 0.7584 0.7572 0.7561 0.7547 0.7532
2881.000000 0.7512 0.7495 0.7464 0.7434 0.7404
2886.000000 0.7374 0.7334 0.7295 0.7253 0.7211
2891.000000 0.7168 0.7126 0.7038 0.6949 0.6824
2896.000000 0.6699 0.6574 0.6449 0.6394 0.6339
2901.000000 0.6340 0.6368 0.6346 0.6350 0.6366
2906.000000 0.6382 0.6418 0.6455 0.6488 0.6521
2911.000000 0.6549 0.6578 0.6585 0.6608 0.6589
2916.000000 0.6586 0.6582 0.6578 0.6568 0.6560
2921.000000 0.6549 0.6538 0.6524 0.6511 0.6471
2926.000000 0.6434 0.6371 0.6309 0.6165 0.6021
2931.000000 0.5937 0.5854 0.5712 0.5573 0.5395
2936.000000 0.5218 0.5129 0.5040 0.4781 0.4522
2941.000000 0.4251 0.3980 0.3709 0.3438 0.3166
2946.000000 0.2895 0.2624 0.2353 0.2082 0.1811
2951.000000 0.1594 0.1378 0.1380 0.1384 0.1384
2956.000000 0.1387 0.1623 0.1860 0.2141 0.2422
2961.000000 0.2703 0.2984 0.3264 0.3545 0.3826
2966.000000 0.4107 0.4387 0.4668 0.4910 0.5154
2971.000000 0.5154 0.5168 0.5143 0.5132 0.5118
2976.000000 0.5105 0.5083 0.5060 0.5025 0.4989
2981.000000 0.4957 0.4925 0.4881 0.4838 0.4806
2986.000000 0.4774 0.4746 0.4719 0.4708 0.4698
2991.000000 0.4699 0.4691 0.4703 0.4707 0.4712
2996.000000 0.4718 0.4729 0.4741 0.4756 0.4772
3001.000000 0.4786 0.4800 0.4819 0.4839 0.4859
3006.000000 0.4880 0.4898 0.4917 0.4937 0.4957
3011.000000 0.4984 0.5012 0.5047 0.5083 0.5123
3016.000000 0.5164 0.5210 0.5257 0.5298 0.5339
3021.000000 0.5383 0.5428 0.5475 0.5523 0.5568
3026.000000 0.5614 0.5890 0.6167 0.6248 0.6329
3031.000000 0.6410 0.6492 0.6753 0.7015 0.7069
3036.000000 0.7125 0.7175 0.7228 0.7275 0.7325
3041.000000 0.7368 0.7412 0.7447 0.7482 0.7511
3046.000000 0.7541 0.7571 0.7601 0.7625 0.7650
3051.000000 0.7668 0.7689 0.7701 0.7715 0.7726
3056.000000 0.7740 0.7753 0.7765 0.7778 0.7792
3061.000000 0.7806 0.7819 0.7835 0.7850 0.7865
3066.000000 0.7880 0.7895 0.7910 0.7922 0.7936
3071.000000 0.7947 0.7958 0.7969 0.7982 0.7993
3076.000000 0.8005 0.8015 0.8026 0.8038 0.8050
3081.000000 0.8061 0.8072 0.8084 0.8096 0.8108
3086.000000 0.8119 0.8132 0.8144 0.8156 0.8168
3091.000000 0.8180 0.8193 0.8205 0.8217 0.8228
3096.000000 0.8241 0.8253 0.8266 0.8278 0.8291
3101.000000 0.8304 0.8318 0.8331 0.8344 0.8355
3106.000000 0.8366 0.8374 0.8382 0.8386 0.8391
3111.000000 0.8395 0.8400 0.8404 0.8409 0.8413
3116.000000 0.8418 0.8421 0.8425 0.8430 0.8434
3121.000000 0.8438 0.8443 0.8447 0.8452 0.8458
3126.000000 0.8464 0.8468 0.8474 0.8478 0.8483
3131.000000 0.8487 0.8492 0.8496 0.8501 0.8505
3136.000000 0.8510 0.8513 0.8517 0.8520 0.8524
3141.000000 0.8528 0.8532 0.8535 0.8539 0.8542
3146.000000 0.8546 0.8550 0.8554 0.8557 0.8561
3151.000000 0.8564 0.8568 0.8571 0.8575 0.8578
3156.000000 0.8583 0.8586 0.8590 0.8593 0.8597
3161.000000 0.8601 0.8605 0.8608 0.8612 0.8615
3166.000000 0.8618 0.8621 0.8625 0.8628 0.8633
3171.000000 0.8636 0.8640 0.8643 0.8647 0.8650
3176.000000 0.8654 0.8657 0.8661 0.8663 0.8665
3181.000000 0.8666 0.8668 0.8668 0.8671 0.8671
3186.000000 0.8674 0.8675 0.8677 0.8678 0.8680
3191.000000 0.8682 0.8684 0.8685 0.8687 0.8688
3196.000000 0.8690 0.8691 0.8693 0.8694 0.8695
3201.000000 0.8696 0.8688 0.8699 0.8700 0.8701
3206.000000 0.8703 0.8704 0.8705 0.8706 0.8707
3211.000000 0.8707 0.8708 0.8708 0.8708 0.8708
3216.000000 0.8709 0.8709 0.8710 0.8710 0.8710
3221.000000 0.8710 0.8711 0.8711 0.8711 0.8711
3226.000000 0.8711 0.8711 0.8711 0.8711 0.8711
3231.000000 0.8711 0.8711 0.8711 0.8712 0.8712
3236.000000 0.8713 0.8713 0.8714 0.8714 0.8715
3241.000000 0.8715 0.8716 0.8716 0.8717 0.8717
3246.000000 0.8718 0.8718 0.8718 0.8718 0.8720
3251.000000 0.8720 0.8720 0.8720 0.8721 0.8721
3256.000000 0.8721 0.8721 0.8721 0.8721 0.8723
3261.000000 0.8723 0.8723 0.8723 0.8724 0.8724
3266.000000 0.8725 0.8725 0.8725 0.8725 0.8725
3271.000000 0.8725 0.8727 0.8727 0.8727 0.8727
3276.000000 0.8728 0.8728 0.8728 0.8728 0.8730
3281.000000 0.8730 0.8730 0.8730 0.8731 0.8731
3286.000000 0.8732 0.8732 0.8732 0.8732 0.8733
3291.000000 0.8733 0.8734 0.8734 0.8735 0.8735
3296.000000 0.8735 0.8735 0.8736 0.8736 0.8737
3301.000000 0.8737 0.8738 0.8738 0.8738 0.8738
3306.000000 0.8739 0.8739 0.8740 0.8740 0.8740
3311.000000 0.8740 0.8740 0.8740 0.8741 0.8741
3316.000000 0.8741 0.8741 0.8741 0.8741 0.8741
3321.000000 0.8741 0.8741 0.8741 0.8741 0.8741
3326.000000 0.8741 0.8741 0.8741 0.8741 0.8741
3331.000000 0.8741 0.8741 0.8741 0.8742 0.8742
3336.000000 0.8742 0.8742 0.8742 0.8741 0.8741
3341.000000 0.8740 0.8740 0.8739 0.8739 0.8739
3346.000000 0.8739 0.8738 0.8738 0.8737 0.8737
3351.000000 0.8737 0.8737 0.8736 0.8736 0.8735
3356.000000 0.8735 0.8735 0.8735 0.8734 0.8734
3361.000000 0.8733 0.8733 0.8732 0.8732 0.8731
3366.000000 0.8730 0.8727 0.8725 0.8723 0.8721
3371.000000 0.8718 0.8717 0.8715 0.8713 0.8711
3376.000000 0.8709 0.8706 0.8704 0.8702 0.8700
3381.000000 0.8698 0.8696 0.8693 0.8690 0.8687
3386.000000 0.8685 0.8682 0.8678 0.8675 0.8674
3391.000000 0.8671 0.8668 0.8665 0.8663 0.8659
3396.000000 0.8655 0.8650 0.8646 0.8641 0.8637
3401.000000 0.8632 0.8627 0.8621 0.8618 0.8613
3406.000000 0.8609 0.8605 0.8602 0.8599 0.8597
3411.000000 0.8594 0.8591 0.8588 0.8586 0.8584
3416.000000 0.8583 0.8582 0.8581 0.8580 0.8578
3421.000000 0.8578 0.8577 0.8575 0.8575 0.8574
3426.000000 0.8573 0.8571 0.8570 0.8567 0.8565
3431.000000 0.8560 0.8555 0.8544 0.8534 0.8527
3436.000000 0.8520 0.8517 0.8515 0.8515 0.8515
3441.000000 0.8515 0.8515 0.8515 0.8515 0.8515
3446.000000 0.8515 0.8515 0.8515 0.8515 0.8515
3451.000000 0.8515 0.8515 0.8515 0.8516 0.8516
3456.000000 0.8516 0.8516 0.8516 0.8516 0.8516
3461.000000 0.8516 0.8517 0.8518 0.8518 0.8520
3466.000000 0.8521 0.8524 0.8527 0.8528 0.8509
3471.000000 0.8534 0.8536 0.8538 0.8541 0.8543
3476.000000 0.8546 0.8548 0.8551 0.8553 0.8556
3481.000000 0.8558 0.8561 0.8563 0.8566 0.8568
3486.000000 0.8571 0.8574 0.8577 0.8580 0.8584
3491.000000 0.8587 0.8590 0.8593 0.8596 0.8599
3496.000000 0.8602 0.8606 0.8611 0.8615 0.8618
3501.000000 0.8623 0.8628 0.8632 0.8637 0.8641
3506.000000 0.8645 0.8649 0.8654 0.8658 0.8662
3511.000000 0.8666 0.8670 0.8673 0.8677 0.8681
3516.000000 0.8685 0.8688 0.8692 0.8696 0.8700
3521.000000 0.8703 0.8707 0.8711 0.8715 0.8718
3526.000000 0.8721 0.8725 0.8728 0.8732 0.8736
3531.000000 0.8739 0.8743 0.8746 0.8750 0.8754
3536.000000 0.8758 0.8761 0.8765 0.8768 0.8773
3541.000000 0.8777 0.8781 0.8785 0.8789 0.8792
3546.000000 0.8796 0.8801 0.8806 0.8811 0.8816
3551.000000 0.8820 0.8825 0.8830 0.8835 0.8839
3556.000000 0.8844 0.8846 0.8848 0.8850 0.8853
3561.000000 0.8855 0.8857 0.8859 0.8862 0.8864
3566.000000 0.8867 0.8868 0.8871 0.8873 0.8875
3571.000000 0.8878 0.8880 0.8882 0.8884 0.8886
3576.000000 0.8888 0.8890 0.8892 0.8893 0.8895
3581.000000 0.8895 0.8895 0.8895 0.8895 0.8895
3586.000000 0.8895 0.8895 0.8895 0.8895 0.8895
3591.000000 0.8895 0.8896 0.8896 0.8896 0.8896
3596.000000 0.8896 0.8895 0.8895 0.8894 0.8894
3601.000000 0.8894 0.8894 0.8893 0.8893 0.8892
3606.000000 0.8892 0.8892 0.8892 0.8891 0.8891
3611.000000 0.8891 0.8891 0.8890 0.8890 0.8890
3616.000000 0.8890 0.8890 0.8890 0.8890 0.8890
3621.000000 0.8890 0.8890 0.8890 0.8890 0.8890
3626.000000 0.8890 0.8890 0.8890 0.8890 0.8890
3631.000000 0.8890 0.8890 0.8890 0.8890 0.8890
3636.000000 0.8890 0.8890 0.8890 0.8889 0.8889
3641.000000 0.8889 0.8889 0.8889 0.8889 0.8888
3646.000000 0.8888 0.8888 0.8888 0.8888 0.8888
3651.000000 0.8888 0.8888 0.8887 0.8887 0.8887
3656.000000 0.8887 0.8886 0.8886 0.8886 0.8886
3661.000000 0.8885 0.8885 0.8885 0.8885 0.8885
3666.000000 0.8886 0.8887 0.8888 0.8889 0.8891
3671.000000 0.8892 0.8893 0.8894 0.8895 0.8896
3676.000000 0.8897 0.8898 0.8899 0.8899 0.8900
3681.000000 0.8900 0.8900 0.8900 0.8900 0.8900
3686.000000 0.8900 0.8900 0.8900 0.8900 0.8900
3691.000000 0.8900 0.8900 0.8900 0.8900 0.8900
3696.000000 0.8900 0.8900 0.8900 0.8899 0.8899
3701.000000 0.8899 0.8899 0.8898 0.8898 0.8898
3706.000000 0.8898 0.8897 0.8897 0.8897 0.8897
3711.000000 0.8896 0.8896 0.8896 0.8896 0.8895
3716.000000 0.8895 0.8895 0.8895 0.8895 0.8895
3721.000000 0.8895 0.8895 0.8895 0.8895 0.8895
3726.000000 0.8895 0.8895 0.8895 0.8895 0.8895
3731.000000 0.8895 0.8895 0.8895 0.8895 0.8895
3736.000000 0.8895 0.8895 0.8896 0.8896 0.8896
##END=
