##TITLE=IRON OXIDE, BLACK
##JCAMP-DX=4.24
##DATA TYPE=INFRARED SPECTRUM
##CLASS=COBLENTZ
##ORIGIN=DESOTO CHEMICAL COATINGS, INC.
##OWNER=COBLENTZ SOCIETY
Collection (C) 2018 copyright by the U.S. Secretary of Commerce
on behalf of the United States of America. All rights reserved.
##DATE=Not specified, most likely prior to 1970
##NAMES=IRON OXIDES
##MOLFORM=Fe2 O3
$$ Fe2O3 96 %
##SOURCE REFERENCE=COBLENTZ NO. 4681
##$NIST ID=B6004681
##$NIST SOURCE=COBLENTZ
##$NIST IMAGE=cob4681
##SPECTROMETER/DATA SYSTEM=Not specified, most likely a grating spectrometer.
##STATE=SOLID (0.8 mg / 300 mg CsI PELLET)
##SAMPLING PROCEDURE=TRANSMISSION
##RESOLUTION=4
##DATA PROCESSING=DIGITIZED BY NIST FROM HARD COPY (FROM TWO SEGMENTS)
##XUNITS=1/CM
##YUNITS=TRANSMITTANCE
##XFACTOR=1.000000
##YFACTOR=1
##DELTAX=1.330379
##FIRSTX=200
##LASTX=3996.9
##FIRSTY=0.952
##MAXX=3996.9
##MINX=200
##MAXY=0.964
##MINY=0.001
##NPOINTS=2855
##XYDATA=(X++(Y..Y))
200.000000 0.9520 0.9530 0.9540 0.9520 0.9530
206.651896 0.9540 0.9540 0.9570 0.9600 0.9600
213.303792 0.9610 0.9610 0.9610 0.9610 0.9620
219.955688 0.9620 0.9640 0.9640 0.9640 0.9640
226.607584 0.9640 0.9640 0.9640 0.9640 0.9640
233.259480 0.9620 0.9620 0.9620 0.9620 0.9610
239.911377 0.9600 0.9580 0.9560 0.9540 0.9530
246.563273 0.9520 0.9500 0.9500 0.9500 0.9490
253.215169 0.9490 0.9460 0.9450 0.9440 0.9420
259.867065 0.9420 0.9410 0.9400 0.9370 0.9360
266.518961 0.9320 0.9290 0.9250 0.9240 0.9200
273.170857 0.9180 0.9160 0.9140 0.9130 0.9120
279.822753 0.9100 0.9080 0.9060 0.9050 0.9050
286.474649 0.9040 0.9020 0.9010 0.8960 0.8920
293.126545 0.8900 0.8890 0.8860 0.8850 0.8840
299.778441 0.8820 0.8800 0.8760 0.8730 0.8720
306.430337 0.8720 0.8700 0.8700 0.8660 0.8640
313.082234 0.8610 0.8600 0.8560 0.8540 0.8530
319.734130 0.8520 0.8490 0.8490 0.8460 0.8420
326.386026 0.8400 0.8330 0.8300 0.8260 0.8220
333.037922 0.8170 0.8130 0.8100 0.8020 0.8000
339.689818 0.7930 0.7880 0.7761 0.7641 0.7531
346.341714 0.7420 0.7300 0.6960 0.6730 0.6530
352.993610 0.6331 0.6131 0.6021 0.5891 0.5691
359.645506 0.5500 0.5330 0.5180 0.5020 0.4930
366.297402 0.4860 0.4731 0.4690 0.4601 0.4441
372.949298 0.4440 0.4360 0.4320 0.4210 0.4170
379.601195 0.4100 0.4020 0.4010 0.3940 0.3940
386.253091 0.3920 0.3900 0.3860 0.3810 0.3780
392.904987 0.3740 0.3730 0.3720 0.3720 0.3700
399.556883 0.3700 0.3700 0.3690 0.3690 0.3690
406.208779 0.3690 0.3700 0.3700 0.3700 0.3730
412.860675 0.3740 0.3760 0.3780 0.3810 0.3850
419.512571 0.3860 0.3890 0.3930 0.3940 0.4000
426.164467 0.4010 0.4040 0.4060 0.4090 0.4100
432.816363 0.4130 0.4160 0.4170 0.4200 0.4200
439.468259 0.4210 0.4220 0.4290 0.4300 0.4300
446.120155 0.4330 0.4340 0.4370 0.4410 0.4450
452.772052 0.4480 0.4490 0.4500 0.4520 0.4530
459.423948 0.4560 0.4580 0.4620 0.4660 0.4700
466.075844 0.4730 0.4760 0.4800 0.4810 0.4820
472.727740 0.4860 0.4900 0.4900 0.4940 0.5000
479.379636 0.5010 0.5010 0.5020 0.5040 0.5060
486.031532 0.5080 0.5100 0.5100 0.5120 0.5140
492.683428 0.5180 0.5200 0.5200 0.5210 0.5220
499.335324 0.5260 0.5290 0.5320 0.5330 0.5330
505.987220 0.5340 0.5370 0.5400 0.5410 0.5440
512.639116 0.5460 0.5460 0.5480 0.5490 0.5500
519.291012 0.5500 0.5500 0.5490 0.5490 0.5450
525.942909 0.5440 0.5420 0.5400 0.5380 0.5360
532.594805 0.5320 0.5290 0.5210 0.5180 0.5100
539.246701 0.5020 0.4960 0.4880 0.4771 0.4681
545.898597 0.4420 0.4320 0.4220 0.4120 0.3960
552.550493 0.3801 0.3621 0.3481 0.3241 0.3091
559.202389 0.2930 0.2800 0.2500 0.2480 0.2320
565.854285 0.2210 0.2100 0.2020 0.1931 0.1801
572.506181 0.1760 0.1720 0.1650 0.1610 0.1600
579.158077 0.1570 0.1540 0.1530 0.1530 0.1520
585.809973 0.1520 0.1500 0.1500 0.1500 0.1500
592.461870 0.1520 0.1530 0.1540 0.1560 0.1580
599.113766 0.1600 0.1620 0.1640 0.1680 0.1690
605.765662 0.1690 0.1700 0.1730 0.1760 0.1800
612.417558 0.1810 0.1820 0.1900 0.1920 0.1930
619.069454 0.1960 0.2010 0.2020 0.2060 0.2100
625.721350 0.2120 0.2120 0.2140 0.2160 0.2200
632.373246 0.2210 0.2240 0.2300 0.2320 0.2330
639.025142 0.2370 0.2400 0.2420 0.2450 0.2500
645.677038 0.2500 0.2530 0.2530 0.2540 0.2560
652.328934 0.2600 0.2680 0.2780 0.2860 0.2900
658.980830 0.2920 0.2930 0.2980 0.3010 0.3020
665.632727 0.3040 0.3060 0.3080 0.3100 0.3100
672.284623 0.3130 0.3160 0.3170 0.3200 0.3200
678.936519 0.3210 0.3220 0.3250 0.3280 0.3300
685.588415 0.3320 0.3320 0.3330 0.3340 0.3370
692.240311 0.3400 0.3410 0.3410 0.3440 0.3440
698.892207 0.3450 0.3450 0.3480 0.3490 0.3500
705.544103 0.3500 0.3520 0.3530 0.3530 0.3570
712.195999 0.3610 0.3610 0.3620 0.3660 0.3680
718.847895 0.3700 0.3720 0.3770 0.3780 0.3800
725.499791 0.3800 0.3810 0.3840 0.3860 0.3890
732.151687 0.3900 0.3920 0.4000 0.4010 0.4010
738.803584 0.4020 0.4020 0.4040 0.4040 0.4100
745.455480 0.4100 0.4130 0.4140 0.4180 0.4210
752.107376 0.4210 0.4210 0.4220 0.4250 0.4280
758.759272 0.4280 0.4300 0.4300 0.4300 0.4300
765.411168 0.4300 0.4320 0.4330 0.4330 0.4330
772.063064 0.4340 0.4340 0.4330 0.4330 0.4330
778.714960 0.4330 0.4330 0.4340 0.4340 0.4340
785.366856 0.4340 0.4340 0.4330 0.4330 0.4330
792.018752 0.4330 0.4330 0.4330 0.4340 0.4340
798.670648 0.4360 0.4360 0.4340 0.4340 0.4340
805.322544 0.4340 0.4360 0.4360 0.4340 0.4320
811.974441 0.4300 0.4300 0.4300 0.4300 0.4300
818.626337 0.4300 0.4300 0.4290 0.4290 0.4290
825.278233 0.4290 0.4290 0.4290 0.4280 0.4280
831.930129 0.4280 0.4260 0.4260 0.4260 0.4260
838.582025 0.4260 0.4280 0.4290 0.4300 0.4300
845.233921 0.4280 0.4260 0.4250 0.4240 0.4220
851.885817 0.4220 0.4210 0.4200 0.4180 0.4180
858.537713 0.4170 0.4170 0.4160 0.4160 0.4140
865.189609 0.4140 0.4140 0.4140 0.4140 0.4130
871.841505 0.4130 0.4130 0.4120 0.4100 0.4100
878.493402 0.4080 0.4060 0.4050 0.4050 0.4040
885.145298 0.4040 0.4040 0.4020 0.4020 0.4010
891.797194 0.4010 0.4010 0.4010 0.4000 0.3980
898.449090 0.3970 0.3970 0.3940 0.3940 0.3940
905.100986 0.3930 0.3930 0.3920 0.3920 0.3920
911.752882 0.3920 0.3920 0.3920 0.3930 0.3930
918.404778 0.3930 0.3940 0.3960 0.3960 0.3960
925.056674 0.3960 0.3940 0.3940 0.3940 0.3930
931.708570 0.3930 0.3930 0.3930 0.3930 0.3940
938.360466 0.3930 0.3930 0.3920 0.3920 0.3920
945.012362 0.3920 0.3920 0.3920 0.3920 0.3920
951.664259 0.3920 0.3920 0.3920 0.3930 0.3930
958.316155 0.3930 0.3920 0.3920 0.3900 0.3880
964.968051 0.3860 0.3860 0.3860 0.3860 0.3860
971.619947 0.3860 0.3850 0.3850 0.3850 0.3850
978.271843 0.3840 0.3820 0.3820 0.3810 0.3810
984.923739 0.3810 0.3810 0.3800 0.3800 0.3770
991.575635 0.3770 0.3770 0.3770 0.3770 0.3760
998.227531 0.3760 0.3760 0.3760 0.3760 0.3760
1004.879427 0.3740 0.3740 0.3740 0.3740 0.3740
1011.531323 0.3740 0.3730 0.3720 0.3700 0.3700
1018.183219 0.3700 0.3680 0.3660 0.3660 0.3660
1024.835116 0.3680 0.3680 0.3660 0.3640 0.3620
1031.487012 0.3620 0.3610 0.3610 0.3610 0.3610
1038.138908 0.3610 0.3600 0.3580 0.3570 0.3570
1044.790804 0.3570 0.3600 0.3600 0.3600 0.3610
1051.442700 0.3610 0.3610 0.3610 0.3610 0.3610
1058.094596 0.3600 0.3600 0.3580 0.3570 0.3560
1064.746492 0.3560 0.3560 0.3570 0.3570 0.3600
1071.398388 0.3600 0.3570 0.3570 0.3570 0.3570
1078.050284 0.3560 0.3560 0.3560 0.3570 0.3540
1084.702180 0.3540 0.3540 0.3540 0.3540 0.3540
1091.354076 0.3540 0.3540 0.3540 0.3540 0.3540
1098.005973 0.3540 0.3560 0.3560 0.3530 0.3530
1104.657869 0.3530 0.3530 0.3530 0.3530 0.3530
1111.309765 0.3530 0.3530 0.3530 0.3530 0.3530
1117.961661 0.3530 0.3530 0.3520 0.3520 0.3520
1124.613557 0.3520 0.3520 0.3520 0.3530 0.3530
1131.265453 0.3530 0.3530 0.3530 0.3530 0.3530
1137.917349 0.3530 0.3530 0.3540 0.3540 0.3540
1144.569245 0.3560 0.3570 0.3570 0.3580 0.3570
1151.221141 0.3580 0.3580 0.3600 0.3600 0.3600
1157.873037 0.3600 0.3600 0.3600 0.3570 0.3570
1164.524934 0.3570 0.3570 0.3570 0.3560 0.3560
1171.176830 0.3570 0.3560 0.3540 0.3530 0.3530
1177.828726 0.3530 0.3530 0.3530 0.3540 0.3540
1184.480622 0.3530 0.3530 0.3520 0.3530 0.3530
1191.132518 0.3530 0.3530 0.3520 0.3500 0.3500
1197.784414 0.3500 0.3520 0.3520 0.3520 0.3520
1204.436310 0.3520 0.3520 0.3520 0.3520 0.3520
1211.088206 0.3500 0.3500 0.3500 0.3500 0.3500
1217.740102 0.3500 0.3490 0.3500 0.3490 0.3490
1224.391998 0.3480 0.3480 0.3460 0.3460 0.3460
1231.043894 0.3460 0.3460 0.3460 0.3460 0.3460
1237.695791 0.3450 0.3450 0.3450 0.3460 0.3450
1244.347687 0.3450 0.3440 0.3440 0.3440 0.3440
1250.999583 0.3420 0.3410 0.3410 0.3400 0.3400
1257.651479 0.3400 0.3410 0.3410 0.3410 0.3400
1264.303375 0.3400 0.3400 0.3400 0.3400 0.3400
1270.955271 0.3400 0.3370 0.3370 0.3370 0.3370
1277.607167 0.3370 0.3370 0.3360 0.3360 0.3360
1284.259063 0.3360 0.3360 0.3340 0.3330 0.3330
1290.910959 0.3320 0.3320 0.3300 0.3300 0.3300
1297.562855 0.3290 0.3280 0.3280 0.3260 0.3260
1304.214751 0.3260 0.3250 0.3250 0.3250 0.3250
1310.866648 0.3240 0.3240 0.3240 0.3240 0.3210
1317.518544 0.3210 0.3210 0.3210 0.3200 0.3200
1324.170440 0.3200 0.3180 0.3170 0.3170 0.3170
1330.822336 0.3160 0.3160 0.3140 0.3140 0.3120
1337.474232 0.3100 0.3100 0.3100 0.3100 0.3100
1344.126128 0.3100 0.3100 0.3100 0.3100 0.3090
1350.778024 0.3080 0.3060 0.3050 0.3040 0.3020
1357.429920 0.3020 0.3020 0.3020 0.3020 0.3020
1364.081816 0.3010 0.3010 0.3010 0.3000 0.3000
1370.733712 0.2980 0.2970 0.2960 0.2960 0.2960
1377.385609 0.2960 0.2960 0.2940 0.2940 0.2940
1384.037505 0.2930 0.2930 0.2930 0.2940 0.2930
1390.689401 0.2930 0.2930 0.2930 0.2930 0.2920
1397.341297 0.2920 0.2900 0.2890 0.2880 0.2860
1403.993193 0.2850 0.2840 0.2840 0.2820 0.2820
1410.645089 0.2810 0.2800 0.2800 0.2780 0.2780
1417.296985 0.2770 0.2760 0.2760 0.2760 0.2760
1423.948881 0.2740 0.2740 0.2740 0.2730 0.2730
1430.600777 0.2720 0.2720 0.2700 0.2700 0.2700
1437.252673 0.2700 0.2700 0.2690 0.2660 0.2660
1443.904569 0.2660 0.2660 0.2660 0.2660 0.2650
1450.556466 0.2650 0.2640 0.2620 0.2620 0.2620
1457.208362 0.2620 0.2620 0.2620 0.2610 0.2610
1463.860258 0.2610 0.2600 0.2600 0.2600 0.2600
1470.512154 0.2600 0.2570 0.2560 0.2560 0.2560
1477.164050 0.2570 0.2570 0.2570 0.2570 0.2560
1483.815946 0.2530 0.2530 0.2530 0.2530 0.2530
1490.467842 0.2530 0.2530 0.2520 0.2520 0.2520
1497.119738 0.2500 0.2500 0.2500 0.2490 0.2490
1503.771634 0.2490 0.2480 0.2460 0.2450 0.2440
1510.423530 0.2420 0.2410 0.2410 0.2410 0.2410
1517.075426 0.2410 0.2410 0.2410 0.2400 0.2400
1523.727323 0.2400 0.2400 0.2400 0.2400 0.2380
1530.379219 0.2370 0.2340 0.2340 0.2340 0.2340
1537.031115 0.2340 0.2340 0.2340 0.2330 0.2330
1543.683011 0.2320 0.2320 0.2320 0.2320 0.2300
1550.334907 0.2300 0.2300 0.2300 0.2290 0.2290
1556.986803 0.2290 0.2290 0.2280 0.2280 0.2280
1563.638699 0.2260 0.2250 0.2240 0.2240 0.2220
1570.290595 0.2210 0.2200 0.2200 0.2200 0.2200
1576.942491 0.2170 0.2140 0.2140 0.2130 0.2130
1583.594387 0.2120 0.2100 0.2080 0.2080 0.2080
1590.246283 0.2060 0.2060 0.2060 0.2060 0.2050
1596.898180 0.2050 0.2050 0.2040 0.2040 0.2020
1603.550076 0.2010 0.2010 0.2000 0.2000 0.1980
1610.201972 0.1980 0.1970 0.1970 0.1960 0.1940
1616.853868 0.1940 0.1940 0.1940 0.1930 0.1920
1623.505764 0.1920 0.1900 0.1900 0.1900 0.1900
1630.157660 0.1900 0.1900 0.1900 0.1900 0.1900
1636.809556 0.1900 0.1900 0.1900 0.1920 0.1920
1643.461452 0.1900 0.1900 0.1920 0.1900 0.1900
1650.113348 0.1900 0.1900 0.1900 0.1900 0.1890
1656.765244 0.1890 0.1890 0.1900 0.1900 0.1880
1663.417141 0.1880 0.1880 0.1880 0.1880 0.1880
1670.069037 0.1880 0.1860 0.1850 0.1850 0.1850
1676.720933 0.1850 0.1850 0.1850 0.1850 0.1850
1683.372829 0.1850 0.1840 0.1820 0.1820 0.1820
1690.024725 0.1820 0.1820 0.1820 0.1820 0.1820
1696.676621 0.1820 0.1820 0.1820 0.1820 0.1810
1703.328517 0.1800 0.1780 0.1780 0.1780 0.1770
1709.980413 0.1770 0.1760 0.1760 0.1740 0.1740
1716.632309 0.1740 0.1730 0.1730 0.1740 0.1730
1723.284205 0.1730 0.1730 0.1730 0.1730 0.1730
1729.936101 0.1730 0.1730 0.1730 0.1730 0.1730
1736.587998 0.1730 0.1730 0.1720 0.1720 0.1720
1743.239894 0.1720 0.1700 0.1700 0.1700 0.1700
1749.891790 0.1700 0.1700 0.1720 0.1720 0.1700
1756.543686 0.1690 0.1690 0.1690 0.1690 0.1660
1763.195582 0.1660 0.1660 0.1650 0.1640 0.1620
1769.847478 0.1620 0.1620 0.1620 0.1620 0.1620
1776.499374 0.1610 0.1610 0.1610 0.1610 0.1610
1783.151270 0.1610 0.1610 0.1610 0.1600 0.1600
1789.803166 0.1600 0.1600 0.1600 0.1570 0.1570
1796.455062 0.1560 0.1540 0.1530 0.1530 0.1530
1803.106958 0.1530 0.1530 0.1530 0.1530 0.1530
1809.758855 0.1530 0.1530 0.1520 0.1520 0.1500
1816.410751 0.1500 0.1490 0.1490 0.1490 0.1490
1823.062647 0.1500 0.1500 0.1500 0.1490 0.1490
1829.714543 0.1460 0.1450 0.1450 0.1440 0.1440
1836.366439 0.1440 0.1440 0.1420 0.1420 0.1400
1843.018335 0.1400 0.1380 0.1380 0.1380 0.1370
1849.670231 0.1370 0.1370 0.1380 0.1370 0.1370
1856.322127 0.1370 0.1360 0.1360 0.1340 0.1340
1862.974023 0.1340 0.1330 0.1330 0.1340 0.1340
1869.625919 0.1340 0.1340 0.1330 0.1320 0.1320
1876.277816 0.1320 0.1320 0.1300 0.1300 0.1290
1882.929712 0.1290 0.1290 0.1290 0.1290 0.1290
1889.581608 0.1290 0.1290 0.1290 0.1290 0.1290
1896.233504 0.1290 0.1290 0.1290 0.1290 0.1280
1902.885400 0.1260 0.1240 0.1240 0.1240 0.1240
1909.537296 0.1240 0.1240 0.1240 0.1240 0.1240
1916.189192 0.1250 0.1250 0.1240 0.1240 0.1220
1922.841088 0.1220 0.1240 0.1220 0.1220 0.1220
1929.492984 0.1220 0.1220 0.1200 0.1200 0.1200
1936.144880 0.1200 0.1200 0.1200 0.1200 0.1200
1942.796776 0.1200 0.1200 0.1200 0.1210 0.1210
1949.448673 0.1200 0.1200 0.1200 0.1180 0.1180
1956.100569 0.1180 0.1170 0.1160 0.1140 0.1140
1962.752465 0.1140 0.1140 0.1160 0.1160 0.1160
1969.404361 0.1160 0.1160 0.1160 0.1140 0.1140
1976.056257 0.1160 0.1160 0.1160 0.1160 0.1160
1982.708153 0.1140 0.1140 0.1140 0.1140 0.1140
1989.360049 0.1130 0.1130 0.1130 0.1130 0.1130
1996.011945 0.1130 0.1130 0.1120 0.1120 0.1120
2002.663841 0.1120 0.1110 0.1100 0.1100 0.1100
2009.315737 0.1095 0.1090 0.1090 0.1090 0.1085
2015.967633 0.1080 0.1070 0.1060 0.1060 0.1060
2022.619530 0.1055 0.1050 0.1050 0.1050 0.1050
2029.271426 0.1050 0.1045 0.1040 0.1040 0.1040
2035.923322 0.1040 0.1040 0.1040 0.1039 0.1029
2042.575218 0.1020 0.1020 0.1020 0.1020 0.1019
2049.227114 0.1014 0.1010 0.1010 0.1010 0.1010
2055.879010 0.1007 0.0992 0.0980 0.0980 0.0980
2062.530906 0.0980 0.0980 0.0980 0.0979 0.0974
2069.182802 0.0970 0.0970 0.0970 0.0970 0.0969
2075.834698 0.0964 0.0960 0.0960 0.0960 0.0960
2082.486594 0.0957 0.0947 0.0940 0.0940 0.0939
2089.138490 0.0934 0.0930 0.0930 0.0930 0.0930
2095.790387 0.0928 0.0923 0.0920 0.0920 0.0920
2102.442283 0.0920 0.0917 0.0907 0.0898 0.0893
2109.094179 0.0890 0.0890 0.0888 0.0883 0.0876
2115.746075 0.0866 0.0858 0.0853 0.0850 0.0850
2122.397971 0.0850 0.0850 0.0848 0.0843 0.0840
2129.049867 0.0840 0.0840 0.0840 0.0840 0.0840
2135.701763 0.0840 0.0840 0.0835 0.0825 0.0820
2142.353659 0.0820 0.0818 0.0813 0.0810 0.0810
2149.005555 0.0810 0.0810 0.0810 0.0810 0.0810
2155.657451 0.0810 0.0807 0.0802 0.0800 0.0800
2162.309348 0.0795 0.0785 0.0780 0.0780 0.0780
2168.961244 0.0780 0.0780 0.0780 0.0780 0.0780
2175.613140 0.0774 0.0764 0.0760 0.0760 0.0760
2182.265036 0.0760 0.0760 0.0760 0.0760 0.0760
2188.916932 0.0754 0.0744 0.0740 0.0740 0.0740
2195.568828 0.0740 0.0740 0.0740 0.0737 0.0732
2202.220724 0.0730 0.0730 0.0730 0.0730 0.0730
2208.872620 0.0730 0.0730 0.0730 0.0726 0.0721
2215.524516 0.0713 0.0703 0.0700 0.0700 0.0700
2222.176412 0.0700 0.0700 0.0700 0.0696 0.0691
2228.828308 0.0690 0.0690 0.0686 0.0681 0.0680
2235.480205 0.0680 0.0672 0.0662 0.0660 0.0660
2242.132101 0.0660 0.0660 0.0660 0.0660 0.0660
2248.783997 0.0660 0.0660 0.0660 0.0668 0.0678
2255.435893 0.0672 0.0662 0.0660 0.0660 0.0656
2262.087789 0.0651 0.0650 0.0650 0.0646 0.0641
2268.739685 0.0631 0.0621 0.0620 0.0620 0.0615
2275.391581 0.0610 0.0610 0.0610 0.0610 0.0610
2282.043477 0.0605 0.0600 0.0600 0.0600 0.0605
2288.695373 0.0610 0.0610 0.0610 0.0610 0.0610
2295.347269 0.0610 0.0610 0.0605 0.0600 0.0605
2301.999165 0.0610 0.0610 0.0610 0.0595 0.0580
2308.651062 0.0580 0.0580 0.0580 0.0580 0.0575
2315.302958 0.0570 0.0570 0.0570 0.0570 0.0570
2321.954854 0.0575 0.0580 0.0580 0.0580 0.0580
2328.606750 0.0580 0.0580 0.0580 0.0580 0.0580
2335.258646 0.0580 0.0580 0.0580 0.0580 0.0580
2341.910542 0.0579 0.0574 0.0570 0.0570 0.0570
2348.562438 0.0570 0.0570 0.0570 0.0569 0.0564
2355.214334 0.0560 0.0560 0.0560 0.0560 0.0560
2361.866230 0.0560 0.0562 0.0572 0.0580 0.0580
2368.518126 0.0580 0.0580 0.0580 0.0580 0.0580
2375.170023 0.0580 0.0579 0.0574 0.0569 0.0564
2381.821919 0.0557 0.0547 0.0539 0.0534 0.0529
2388.473815 0.0524 0.0520 0.0520 0.0517 0.0507
2395.125711 0.0500 0.0500 0.0500 0.0500 0.0500
2401.777607 0.0500 0.0498 0.0493 0.0490 0.0490
2408.429503 0.0490 0.0490 0.0490 0.0490 0.0490
2415.081399 0.0490 0.0490 0.0490 0.0492 0.0497
2421.733295 0.0498 0.0493 0.0490 0.0490 0.0488
2428.385191 0.0483 0.0480 0.0480 0.0480 0.0480
2435.037087 0.0480 0.0480 0.0480 0.0480 0.0475
2441.688983 0.0465 0.0455 0.0445 0.0435 0.0425
2448.340880 0.0420 0.0420 0.0420 0.0420 0.0425
2454.992776 0.0435 0.0440 0.0440 0.0435 0.0425
2461.644672 0.0420 0.0420 0.0420 0.0420 0.0417
2468.296568 0.0412 0.0410 0.0410 0.0410 0.0410
2474.948464 0.0407 0.0402 0.0400 0.0400 0.0400
2481.600360 0.0400 0.0400 0.0400 0.0400 0.0400
2488.252256 0.0400 0.0400 0.0400 0.0400 0.0400
2494.904152 0.0400 0.0400 0.0400 0.0400 0.0400
2501.556048 0.0400 0.0400 0.0400 0.0400 0.0400
2508.207944 0.0400 0.0400 0.0400 0.0400 0.0400
2514.859840 0.0393 0.0383 0.0380 0.0380 0.0380
2521.511737 0.0380 0.0380 0.0380 0.0380 0.0380
2528.163633 0.0380 0.0380 0.0380 0.0380 0.0380
2534.815529 0.0380 0.0380 0.0380 0.0380 0.0380
2541.467425 0.0372 0.0362 0.0360 0.0360 0.0360
2548.119321 0.0360 0.0360 0.0360 0.0360 0.0360
2554.771217 0.0360 0.0360 0.0360 0.0360 0.0360
2561.423113 0.0360 0.0360 0.0360 0.0360 0.0360
2568.075009 0.0360 0.0360 0.0360 0.0360 0.0347
2574.726905 0.0332 0.0330 0.0330 0.0325 0.0320
2581.378801 0.0320 0.0320 0.0325 0.0330 0.0330
2588.030697 0.0330 0.0330 0.0330 0.0330 0.0330
2594.682594 0.0325 0.0320 0.0320 0.0320 0.0320
2601.334490 0.0320 0.0320 0.0320 0.0320 0.0320
2607.986386 0.0310 0.0300 0.0300 0.0300 0.0300
2614.638282 0.0300 0.0300 0.0300 0.0300 0.0301
2621.290178 0.0311 0.0320 0.0320 0.0319 0.0309
2627.942074 0.0299 0.0289 0.0280 0.0280 0.0279
2634.593970 0.0269 0.0259 0.0254 0.0250 0.0250
2641.245866 0.0251 0.0256 0.0260 0.0260 0.0260
2647.897762 0.0260 0.0260 0.0260 0.0259 0.0254
2654.549658 0.0250 0.0250 0.0250 0.0250 0.0249
2661.201555 0.0244 0.0240 0.0240 0.0240 0.0240
2667.853451 0.0240 0.0240 0.0240 0.0240 0.0241
2674.505347 0.0246 0.0250 0.0250 0.0250 0.0250
2681.157243 0.0249 0.0244 0.0240 0.0240 0.0240
2687.809139 0.0240 0.0241 0.0247 0.0252 0.0257
2694.461035 0.0258 0.0253 0.0252 0.0257 0.0260
2701.112931 0.0260 0.0258 0.0253 0.0248 0.0243
2707.764827 0.0240 0.0240 0.0240 0.0240 0.0240
2714.416723 0.0240 0.0240 0.0240 0.0242 0.0247
2721.068619 0.0250 0.0250 0.0244 0.0229 0.0220
2727.720515 0.0220 0.0218 0.0213 0.0208 0.0203
2734.372412 0.0200 0.0200 0.0200 0.0200 0.0200
2741.024308 0.0200 0.0200 0.0200 0.0202 0.0207
2747.676204 0.0210 0.0210 0.0210 0.0210 0.0213
2754.328100 0.0218 0.0225 0.0235 0.0240 0.0240
2760.979996 0.0240 0.0240 0.0235 0.0225 0.0217
2767.631892 0.0212 0.0210 0.0210 0.0207 0.0202
2774.283788 0.0200 0.0200 0.0200 0.0200 0.0200
2780.935684 0.0200 0.0194 0.0184 0.0177 0.0172
2787.587580 0.0167 0.0162 0.0160 0.0160 0.0160
2794.239476 0.0160 0.0160 0.0160 0.0160 0.0160
2800.891372 0.0163 0.0168 0.0173 0.0178 0.0180
2807.543269 0.0180 0.0180 0.0180 0.0180 0.0180
2814.195165 0.0180 0.0180 0.0180 0.0180 0.0187
2820.847061 0.0197 0.0200 0.0200 0.0193 0.0182
2827.498957 0.0176 0.0171 0.0170 0.0170 0.0170
2834.150853 0.0170 0.0170 0.0170 0.0170 0.0170
2840.802749 0.0170 0.0170 0.0170 0.0170 0.0170
2847.454645 0.0170 0.0170 0.0170 0.0170 0.0170
2854.106541 0.0170 0.0170 0.0166 0.0161 0.0160
2860.758437 0.0160 0.0160 0.0160 0.0160 0.0160
2867.410333 0.0160 0.0160 0.0160 0.0160 0.0164
2874.062229 0.0170 0.0170 0.0170 0.0156 0.0141
2880.714126 0.0135 0.0130 0.0125 0.0120 0.0120
2887.366022 0.0120 0.0120 0.0120 0.0130 0.0140
2894.017918 0.0150 0.0160 0.0160 0.0160 0.0160
2900.669814 0.0160 0.0150 0.0140 0.0135 0.0130
2907.321710 0.0130 0.0130 0.0130 0.0130 0.0135
2913.973606 0.0140 0.0140 0.0140 0.0140 0.0140
2920.625502 0.0140 0.0140 0.0135 0.0130 0.0125
2927.277398 0.0119 0.0109 0.0100 0.0100 0.0100
2933.929294 0.0100 0.0100 0.0100 0.0100 0.0100
2940.581190 0.0102 0.0117 0.0131 0.0136 0.0140
2947.233087 0.0140 0.0139 0.0134 0.0129 0.0124
2953.884983 0.0120 0.0120 0.0120 0.0120 0.0120
2960.536879 0.0120 0.0120 0.0120 0.0120 0.0120
2967.188775 0.0118 0.0108 0.0100 0.0100 0.0100
2973.840671 0.0100 0.0100 0.0100 0.0100 0.0100
2980.492567 0.0100 0.0100 0.0103 0.0113 0.0120
2987.144463 0.0120 0.0120 0.0120 0.0120 0.0120
2993.796359 0.0120 0.0120 0.0120 0.0120 0.0120
3000.448255 0.0120 0.0122 0.0127 0.0130 0.0130
3007.100151 0.0130 0.0130 0.0128 0.0123 0.0116
3013.752047 0.0106 0.0100 0.0100 0.0100 0.0100
3020.403944 0.0100 0.0100 0.0100 0.0100 0.0100
3027.055840 0.0100 0.0100 0.0100 0.0100 0.0100
3033.707736 0.0100 0.0100 0.0100 0.0100 0.0100
3040.359632 0.0100 0.0100 0.0100 0.0100 0.0100
3047.011528 0.0100 0.0100 0.0100 0.0100 0.0100
3053.663424 0.0100 0.0100 0.0100 0.0100 0.0100
3060.315320 0.0100 0.0100 0.0097 0.0092 0.0090
3066.967216 0.0090 0.0090 0.0090 0.0090 0.0090
3073.619112 0.0090 0.0090 0.0090 0.0090 0.0090
3080.271008 0.0090 0.0090 0.0090 0.0090 0.0090
3086.922904 0.0090 0.0090 0.0090 0.0090 0.0090
3093.574801 0.0090 0.0087 0.0082 0.0080 0.0080
3100.226697 0.0080 0.0080 0.0080 0.0080 0.0080
3106.878593 0.0080 0.0080 0.0080 0.0080 0.0080
3113.530489 0.0080 0.0080 0.0080 0.0080 0.0080
3120.182385 0.0080 0.0080 0.0080 0.0080 0.0080
3126.834281 0.0080 0.0080 0.0080 0.0080 0.0080
3133.486177 0.0080 0.0080 0.0080 0.0080 0.0080
3140.138073 0.0080 0.0080 0.0072 0.0062 0.0060
3146.789969 0.0060 0.0060 0.0060 0.0056 0.0051
3153.441865 0.0050 0.0050 0.0050 0.0050 0.0050
3160.093762 0.0050 0.0054 0.0059 0.0069 0.0079
3166.745658 0.0080 0.0080 0.0080 0.0080 0.0085
3173.397554 0.0090 0.0090 0.0090 0.0095 0.0100
3180.049450 0.0095 0.0090 0.0076 0.0061 0.0055
3186.701346 0.0050 0.0050 0.0050 0.0050 0.0050
3193.353242 0.0050 0.0050 0.0050 0.0050 0.0050
3200.005138 0.0050 0.0050 0.0050 0.0050 0.0050
3206.657034 0.0050 0.0050 0.0050 0.0050 0.0050
3213.308930 0.0050 0.0050 0.0050 0.0055 0.0060
3219.960826 0.0060 0.0060 0.0055 0.0050 0.0050
3226.612722 0.0050 0.0045 0.0040 0.0040 0.0040
3233.264619 0.0040 0.0040 0.0040 0.0040 0.0040
3239.916515 0.0040 0.0040 0.0041 0.0046 0.0050
3246.568411 0.0050 0.0049 0.0044 0.0040 0.0040
3253.220307 0.0040 0.0040 0.0040 0.0040 0.0040
3259.872203 0.0040 0.0040 0.0040 0.0040 0.0040
3266.524099 0.0040 0.0040 0.0040 0.0040 0.0040
3273.175995 0.0040 0.0040 0.0040 0.0037 0.0027
3279.827891 0.0020 0.0020 0.0020 0.0020 0.0020
3286.479787 0.0020 0.0020 0.0020 0.0020 0.0020
3293.131683 0.0020 0.0020 0.0020 0.0020 0.0020
3299.783579 0.0020 0.0018 0.0013 0.0010 0.0010
3306.435476 0.0010 0.0010 0.0010 0.0010 0.0010
3313.087372 0.0010 0.0010 0.0010 0.0010 0.0010
3319.739268 0.0010 0.0010 0.0010 0.0010 0.0010
3326.391164 0.0010 0.0010 0.0010 0.0010 0.0010
3333.043060 0.0010 0.0010 0.0010 0.0010 0.0010
3339.694956 0.0010 0.0010 0.0010 0.0010 0.0010
3346.346852 0.0010 0.0010 0.0010 0.0010 0.0010
3352.998748 0.0010 0.0010 0.0010 0.0010 0.0010
3359.650644 0.0010 0.0010 0.0010 0.0010 0.0010
3366.302540 0.0010 0.0010 0.0010 0.0010 0.0010
3372.954436 0.0010 0.0010 0.0013 0.0018 0.0017
3379.606333 0.0012 0.0010 0.0010 0.0010 0.0010
3386.258229 0.0010 0.0010 0.0010 0.0010 0.0010
3392.910125 0.0010 0.0010 0.0010 0.0010 0.0010
3399.562021 0.0010 0.0010 0.0010 0.0010 0.0010
3406.213917 0.0010 0.0010 0.0010 0.0010 0.0010
3412.865813 0.0010 0.0010 0.0010 0.0010 0.0010
3419.517709 0.0010 0.0010 0.0010 0.0010 0.0010
3426.169605 0.0010 0.0010 0.0010 0.0010 0.0010
3432.821501 0.0010 0.0010 0.0010 0.0010 0.0010
3439.473397 0.0010 0.0010 0.0010 0.0010 0.0010
3446.125294 0.0010 0.0010 0.0010 0.0010 0.0010
3452.777190 0.0010 0.0010 0.0010 0.0010 0.0010
3459.429086 0.0010 0.0010 0.0010 0.0010 0.0010
3466.080982 0.0010 0.0010 0.0010 0.0010 0.0010
3472.732878 0.0010 0.0010 0.0010 0.0010 0.0010
3479.384774 0.0010 0.0010 0.0010 0.0010 0.0010
3486.036670 0.0010 0.0010 0.0010 0.0010 0.0010
3492.688566 0.0010 0.0010 0.0010 0.0010 0.0010
3499.340462 0.0010 0.0010 0.0010 0.0010 0.0010
3505.992358 0.0010 0.0010 0.0010 0.0010 0.0010
3512.644254 0.0010 0.0010 0.0010 0.0010 0.0010
3519.296151 0.0010 0.0010 0.0010 0.0010 0.0010
3525.948047 0.0010 0.0010 0.0010 0.0010 0.0010
3532.599943 0.0010 0.0010 0.0010 0.0010 0.0010
3539.251839 0.0010 0.0010 0.0010 0.0010 0.0010
3545.903735 0.0010 0.0010 0.0010 0.0010 0.0010
3552.555631 0.0010 0.0010 0.0010 0.0010 0.0010
3559.207527 0.0010 0.0010 0.0010 0.0010 0.0010
3565.859423 0.0010 0.0010 0.0010 0.0010 0.0010
3572.511319 0.0010 0.0010 0.0010 0.0010 0.0010
3579.163215 0.0010 0.0010 0.0010 0.0010 0.0010
3585.815111 0.0010 0.0010 0.0010 0.0010 0.0010
3592.467008 0.0010 0.0010 0.0010 0.0010 0.0010
3599.118904 0.0010 0.0010 0.0010 0.0010 0.0010
3605.770800 0.0010 0.0010 0.0010 0.0010 0.0010
3612.422696 0.0010 0.0010 0.0010 0.0010 0.0010
3619.074592 0.0010 0.0010 0.0012 0.0017 0.0018
3625.726488 0.0013 0.0010 0.0010 0.0010 0.0010
3632.378384 0.0010 0.0010 0.0010 0.0010 0.0010
3639.030280 0.0010 0.0010 0.0010 0.0010 0.0010
3645.682176 0.0010 0.0010 0.0010 0.0010 0.0010
3652.334072 0.0010 0.0010 0.0010 0.0010 0.0010
3658.985969 0.0010 0.0010 0.0010 0.0010 0.0010
3665.637865 0.0010 0.0010 0.0010 0.0010 0.0010
3672.289761 0.0010 0.0010 0.0010 0.0010 0.0010
3678.941657 0.0010 0.0010 0.0010 0.0010 0.0010
3685.593553 0.0010 0.0010 0.0010 0.0010 0.0010
3692.245449 0.0010 0.0010 0.0010 0.0010 0.0010
3698.897345 0.0010 0.0010 0.0010 0.0010 0.0010
3705.549241 0.0010 0.0010 0.0010 0.0010 0.0010
3712.201137 0.0010 0.0010 0.0010 0.0010 0.0010
3718.853033 0.0010 0.0010 0.0010 0.0010 0.0010
3725.504929 0.0010 0.0010 0.0010 0.0010 0.0010
3732.156826 0.0010 0.0010 0.0010 0.0010 0.0010
3738.808722 0.0010 0.0010 0.0010 0.0010 0.0010
3745.460618 0.0010 0.0010 0.0010 0.0010 0.0010
3752.112514 0.0010 0.0010 0.0010 0.0010 0.0010
3758.764410 0.0010 0.0010 0.0010 0.0010 0.0010
3765.416306 0.0010 0.0010 0.0010 0.0010 0.0010
3772.068202 0.0010 0.0010 0.0010 0.0010 0.0010
3778.720098 0.0010 0.0010 0.0010 0.0010 0.0010
3785.371994 0.0010 0.0010 0.0010 0.0010 0.0010
3792.023890 0.0010 0.0010 0.0010 0.0010 0.0010
3798.675786 0.0010 0.0010 0.0010 0.0010 0.0010
3805.327683 0.0010 0.0010 0.0010 0.0010 0.0010
3811.979579 0.0010 0.0010 0.0010 0.0010 0.0010
3818.631475 0.0010 0.0010 0.0010 0.0010 0.0010
3825.283371 0.0010 0.0010 0.0010 0.0010 0.0010
3831.935267 0.0010 0.0010 0.0010 0.0010 0.0010
3838.587163 0.0010 0.0010 0.0010 0.0010 0.0010
3845.239059 0.0010 0.0010 0.0010 0.0010 0.0010
3851.890955 0.0010 0.0010 0.0010 0.0010 0.0010
3858.542851 0.0010 0.0010 0.0010 0.0010 0.0010
3865.194747 0.0010 0.0010 0.0010 0.0010 0.0010
3871.846643 0.0010 0.0010 0.0010 0.0010 0.0010
3878.498540 0.0010 0.0010 0.0010 0.0010 0.0010
3885.150436 0.0010 0.0010 0.0010 0.0010 0.0010
3891.802332 0.0010 0.0010 0.0010 0.0010 0.0010
3898.454228 0.0010 0.0010 0.0010 0.0010 0.0010
3905.106124 0.0010 0.0010 0.0010 0.0010 0.0010
3911.758020 0.0010 0.0010 0.0010 0.0010 0.0010
3918.409916 0.0010 0.0010 0.0010 0.0010 0.0010
3925.061812 0.0010 0.0010 0.0010 0.0010 0.0010
3931.713708 0.0010 0.0010 0.0010 0.0010 0.0010
3938.365604 0.0010 0.0010 0.0010 0.0010 0.0010
3945.017501 0.0010 0.0010 0.0010 0.0010 0.0010
3951.669397 0.0010 0.0010 0.0010 0.0010 0.0010
3958.321293 0.0010 0.0010 0.0010 0.0010 0.0010
3964.973189 0.0010 0.0010 0.0010 0.0010 0.0010
3971.625085 0.0010 0.0010 0.0010 0.0010 0.0010
3978.276981 0.0010 0.0010 0.0010 0.0010 0.0010
3984.928877 0.0010 0.0010 0.0010 0.0010 0.0010
3991.580773 0.0010 0.0010 0.0010 0.0010 0.0010
##END=
