##TITLE=PICRIC ACID, SODIUM SALT
##JCAMP-DX=4.24
##DATA TYPE=INFRARED SPECTRUM
##CLASS=COBLENTZ
##ORIGIN=TENNESSEE EASTMAN COMPANY, RESEARCH LABORATORIES
##OWNER=COBLENTZ SOCIETY
Collection (C) 2018 copyright by the U.S. Secretary of Commerce
on behalf of the United States of America. All rights reserved.
##DATE=Not specified, most likely prior to 1970
##MOLFORM=C6 H2 N3 O7 Na
##SOURCE REFERENCE=COBLENTZ NO. 1782
##$NIST ID=B6001782
##$NIST SOURCE=COBLENTZ
##$NIST IMAGE=cob1782
##SPECTROMETER/DATA SYSTEM=Not specified, most likely a prism, grating, or hybrid spectrometer.
##STATE=SOLID (KBr PELLET)
##SAMPLING PROCEDURE=TRANSMISSION
##RESOLUTION=4
##DATA PROCESSING=DIGITIZED BY NIST FROM HARD COPY
##XUNITS=MICROMETERS
##YUNITS=TRANSMITTANCE
##XFACTOR=1.000000
##YFACTOR=1
##DELTAX=000.006799
##FIRSTX=2.19
##LASTX=15.9658
##FIRSTY=0.876
##MAXX=15.9658
##MINX=2.19
##MAXY=0.982
##MINY=0.07
##NPOINTS=2027
##XYDATA=(X++(Y..Y))
2.190000 0.8760 0.8760 0.8760 0.8780 0.8780
2.224014 0.8790 0.8790 0.8810 0.8810 0.8810
2.258000 0.8790 0.8790 0.8790 0.8790 0.8790
2.292014 0.8810 0.8810 0.8810 0.8810 0.8810
2.326000 0.8830 0.8850 0.8860 0.8860 0.8860
2.360014 0.8860 0.8880 0.8900 0.8900 0.8910
2.394000 0.8910 0.8930 0.8930 0.8950 0.8950
2.428014 0.8950 0.8950 0.8950 0.8950 0.8950
2.462000 0.8950 0.8970 0.8970 0.8970 0.8980
2.496014 0.8980 0.8980 0.8980 0.8980 0.8980
2.530000 0.8980 0.8980 0.8980 0.8980 0.8980
2.564014 0.8980 0.9000 0.9000 0.9000 0.8970
2.598000 0.8970 0.8970 0.8970 0.8970 0.8970
2.632014 0.8970 0.8980 0.8980 0.9000 0.9020
2.666000 0.9030 0.9030 0.9030 0.9030 0.9030
2.700014 0.9030 0.9020 0.8910 0.8760 0.8380
2.734000 0.7850 0.7150 0.6820 0.6800 0.6820
2.768014 0.7270 0.7510 0.7530 0.7530 0.7510
2.802000 0.7270 0.7220 0.7230 0.7340 0.7490
2.836014 0.7580 0.7710 0.7780 0.7850 0.7900
2.870000 0.7920 0.7920 0.7950 0.7950 0.7950
2.904014 0.7950 0.7950 0.7970 0.7970 0.8010
2.938000 0.8020 0.8040 0.8090 0.8140 0.8180
2.972014 0.8210 0.8250 0.8300 0.8350 0.8370
3.006000 0.8380 0.8400 0.8420 0.8430 0.8450
3.040014 0.8470 0.8490 0.8490 0.8500 0.8540
3.074000 0.8550 0.8570 0.8590 0.8610 0.8610
3.108014 0.8620 0.8620 0.8640 0.8660 0.8690
3.142000 0.8710 0.8730 0.8740 0.8780 0.8780
3.176014 0.8790 0.8810 0.8810 0.8810 0.8790
3.210000 0.8550 0.8420 0.8230 0.7700 0.7280
3.244014 0.7250 0.7250 0.7770 0.8260 0.8620
3.278000 0.8760 0.8810 0.8810 0.8830 0.8850
3.312014 0.8880 0.8900 0.8910 0.8910 0.8910
3.346000 0.8910 0.8900 0.8760 0.8670 0.8620
3.380014 0.8610 0.8610 0.8610 0.8550 0.8520
3.414000 0.8500 0.8520 0.8640 0.8760 0.8790
3.448014 0.8790 0.8790 0.8790 0.8790 0.8790
3.482000 0.8790 0.8780 0.8780 0.8780 0.8790
3.516014 0.8830 0.8850 0.8880 0.8900 0.8930
3.550000 0.8980 0.9000 0.9020 0.9020 0.9030
3.584014 0.9030 0.9070 0.9090 0.9120 0.9170
3.618000 0.9190 0.9210 0.9210 0.9210 0.9210
3.652014 0.9210 0.9210 0.9210 0.9220 0.9220
3.686000 0.9240 0.9260 0.9270 0.9290 0.9290
3.720014 0.9290 0.9290 0.9310 0.9310 0.9310
3.754000 0.9310 0.9310 0.9330 0.9330 0.9330
3.788014 0.9330 0.9330 0.9330 0.9330 0.9330
3.822000 0.9340 0.9340 0.9340 0.9340 0.9360
3.856014 0.9360 0.9380 0.9360 0.9360 0.9360
3.890000 0.9360 0.9360 0.9360 0.9360 0.9380
3.924014 0.9380 0.9380 0.9380 0.9380 0.9380
3.958000 0.9380 0.9360 0.9360 0.9340 0.9340
3.992014 0.9340 0.9330 0.9330 0.9330 0.9330
4.026000 0.9310 0.9290 0.9290 0.9290 0.9290
4.060014 0.9310 0.9310 0.9310 0.9330 0.9330
4.094000 0.9330 0.9340 0.9340 0.9340 0.9360
4.128014 0.9380 0.9380 0.9390 0.9390 0.9410
4.162000 0.9410 0.9410 0.9430 0.9430 0.9430
4.196014 0.9450 0.9450 0.9460 0.9500 0.9530
4.230000 0.9550 0.9550 0.9550 0.9550 0.9530
4.264014 0.9510 0.9500 0.9500 0.9460 0.9460
4.298000 0.9450 0.9450 0.9430 0.9430 0.9430
4.332014 0.9410 0.9410 0.9410 0.9410 0.9430
4.366000 0.9450 0.9480 0.9480 0.9480 0.9480
4.400014 0.9500 0.9500 0.9500 0.9480 0.9480
4.434000 0.9460 0.9450 0.9430 0.9410 0.9410
4.468014 0.9430 0.9450 0.9480 0.9480 0.9480
4.502000 0.9500 0.9500 0.9500 0.9500 0.9500
4.536014 0.9500 0.9500 0.9500 0.9510 0.9510
4.570000 0.9510 0.9530 0.9530 0.9550 0.9550
4.604014 0.9550 0.9550 0.9550 0.9550 0.9550
4.638000 0.9550 0.9550 0.9550 0.9570 0.9570
4.672014 0.9570 0.9570 0.9570 0.9550 0.9550
4.706000 0.9530 0.9510 0.9510 0.9510 0.9510
4.740014 0.9510 0.9510 0.9510 0.9510 0.9530
4.774000 0.9550 0.9550 0.9550 0.9550 0.9550
4.808014 0.9530 0.9510 0.9510 0.9530 0.9550
4.842000 0.9570 0.9570 0.9570 0.9570 0.9570
4.876014 0.9570 0.9570 0.9570 0.9580 0.9580
4.910000 0.9580 0.9580 0.9580 0.9580 0.9580
4.944014 0.9580 0.9580 0.9580 0.9580 0.9580
4.978000 0.9580 0.9580 0.9580 0.9570 0.9570
5.012014 0.9570 0.9550 0.9550 0.9550 0.9550
5.046000 0.9550 0.9550 0.9570 0.9570 0.9570
5.080014 0.9570 0.9570 0.9570 0.9570 0.9580
5.114000 0.9600 0.9630 0.9630 0.9630 0.9620
5.148014 0.9600 0.9600 0.9600 0.9600 0.9600
5.182000 0.9600 0.9600 0.9600 0.9600 0.9600
5.216014 0.9600 0.9600 0.9600 0.9600 0.9620
5.250000 0.9630 0.9630 0.9630 0.9620 0.9620
5.284014 0.9600 0.9530 0.9530 0.9510 0.9510
5.318000 0.9480 0.9460 0.9410 0.9330 0.9310
5.352014 0.9330 0.9380 0.9410 0.9500 0.9510
5.386000 0.9530 0.9550 0.9570 0.9570 0.9580
5.420014 0.9580 0.9580 0.9580 0.9580 0.9580
5.454000 0.9580 0.9580 0.9580 0.9580 0.9580
5.488014 0.9580 0.9580 0.9580 0.9600 0.9600
5.522000 0.9600 0.9620 0.9620 0.9620 0.9600
5.556014 0.9600 0.9600 0.9600 0.9600 0.9600
5.590000 0.9580 0.9580 0.9580 0.9580 0.9580
5.624014 0.9580 0.9580 0.9580 0.9580 0.9570
5.658000 0.9570 0.9570 0.9550 0.9530 0.9530
5.692014 0.9510 0.9500 0.9500 0.9480 0.9480
5.726000 0.9460 0.9460 0.9450 0.9450 0.9450
5.760014 0.9410 0.9410 0.9390 0.9390 0.9380
5.794000 0.9360 0.9360 0.9340 0.9330 0.9310
5.828014 0.9270 0.9210 0.9210 0.9190 0.9190
5.862000 0.9170 0.9150 0.9140 0.9100 0.9090
5.896014 0.9070 0.9050 0.9030 0.8980 0.8980
5.930000 0.8980 0.8970 0.8930 0.8880 0.8760
5.964014 0.8660 0.8620 0.8570 0.8470 0.8260
5.998000 0.8180 0.7900 0.7490 0.6960 0.6410
6.032014 0.5840 0.5330 0.4920 0.3800 0.2400
6.066000 0.1490 0.1490 0.1500 0.1540 0.1680
6.100014 0.1830 0.1930 0.2050 0.2330 0.2520
6.134000 0.2690 0.2830 0.3010 0.3270 0.3560
6.168014 0.3790 0.3960 0.4110 0.4520 0.4920
6.202000 0.4950 0.4990 0.5690 0.6240 0.6390
6.236014 0.6910 0.7130 0.7270 0.7440 0.7470
6.270000 0.7580 0.7660 0.7800 0.7890 0.7890
6.304014 0.7890 0.7890 0.7830 0.7750 0.7540
6.338000 0.7200 0.6630 0.5830 0.4710 0.3410
6.372014 0.2500 0.2460 0.2460 0.2480 0.2520
6.406000 0.2720 0.2980 0.3130 0.3490 0.3990
6.440014 0.4400 0.4590 0.5020 0.5450 0.5900
6.474000 0.6290 0.6500 0.6620 0.6670 0.6700
6.508014 0.6790 0.6870 0.6920 0.6980 0.6980
6.542000 0.6980 0.6910 0.6600 0.6260 0.6220
6.576014 0.6310 0.6500 0.6790 0.6890 0.6980
6.610000 0.6980 0.6980 0.6700 0.6290 0.6020
6.644014 0.5550 0.4850 0.3960 0.3480 0.3440
6.678000 0.3460 0.3720 0.4180 0.4760 0.5020
6.712014 0.5840 0.6000 0.6260 0.6430 0.6530
6.746000 0.6620 0.6700 0.6800 0.6990 0.7250
6.780014 0.7630 0.7870 0.7950 0.8060 0.8160
6.814000 0.8230 0.8280 0.8310 0.8330 0.8330
6.848014 0.8330 0.8330 0.8310 0.8280 0.8250
6.882000 0.8110 0.7950 0.7800 0.7580 0.7320
6.916014 0.6990 0.6740 0.6430 0.5740 0.4900
6.950000 0.4110 0.4060 0.4090 0.4590 0.4930
6.984014 0.5140 0.5450 0.5860 0.6290 0.6740
7.018000 0.7150 0.7470 0.7660 0.7850 0.8040
7.052014 0.8110 0.8180 0.8190 0.8190 0.8230
7.086000 0.8230 0.8260 0.8260 0.8280 0.8300
7.120014 0.8300 0.8300 0.8300 0.8300 0.8300
7.154000 0.8300 0.8280 0.8280 0.8280 0.8260
7.188014 0.8210 0.8180 0.8070 0.7940 0.7770
7.222000 0.7540 0.7270 0.6960 0.6600 0.6190
7.256014 0.5830 0.5210 0.4510 0.4110 0.3800
7.290000 0.3790 0.3800 0.3970 0.4200 0.4420
7.324014 0.4590 0.4760 0.4900 0.4920 0.4900
7.358000 0.4810 0.4680 0.4300 0.3820 0.3320
7.392014 0.2530 0.1860 0.1370 0.1060 0.0780
7.426000 0.0720 0.0700 0.0720 0.0960 0.1040
7.460014 0.1130 0.1140 0.1140 0.1090 0.0900
7.494000 0.0770 0.0750 0.0770 0.0970 0.1140
7.528014 0.1560 0.2050 0.2520 0.2960 0.3390
7.562000 0.3790 0.4160 0.4520 0.4870 0.5180
7.596014 0.5450 0.5720 0.5960 0.6190 0.6380
7.630000 0.6550 0.6680 0.6800 0.6910 0.6980
7.664014 0.6980 0.6920 0.6840 0.6720 0.6600
7.698000 0.6460 0.6290 0.6140 0.6030 0.5840
7.732014 0.5570 0.5190 0.4690 0.3960 0.3560
7.766000 0.3070 0.2600 0.2550 0.2530 0.2480
7.800014 0.2450 0.2430 0.2430 0.2410 0.2410
7.834000 0.2450 0.2480 0.2760 0.3070 0.3390
7.868014 0.3770 0.4150 0.4520 0.4900 0.5240
7.902000 0.5570 0.5840 0.6100 0.6290 0.6500
7.936014 0.6680 0.6800 0.6870 0.6920 0.6990
7.970000 0.7080 0.7100 0.7110 0.7180 0.7280
8.004014 0.7370 0.7440 0.7530 0.7590 0.7660
8.038000 0.7750 0.7850 0.7940 0.7990 0.8090
8.072014 0.8190 0.8300 0.8350 0.8450 0.8550
8.106000 0.8620 0.8690 0.8740 0.8830 0.8930
8.140014 0.9000 0.9020 0.9070 0.9090 0.9100
8.174000 0.9190 0.9210 0.9220 0.9240 0.9270
8.208014 0.9270 0.9290 0.9290 0.9310 0.9310
8.242000 0.9330 0.9330 0.9340 0.9340 0.9360
8.276014 0.9360 0.9360 0.9390 0.9390 0.9450
8.310000 0.9460 0.9480 0.9480 0.9480 0.9480
8.344014 0.9480 0.9500 0.9500 0.9510 0.9510
8.378000 0.9510 0.9480 0.9480 0.9480 0.9480
8.412014 0.9480 0.9480 0.9500 0.9530 0.9570
8.446000 0.9570 0.9570 0.9570 0.9530 0.9500
8.480014 0.9480 0.9480 0.9450 0.9330 0.9240
8.514000 0.9090 0.8930 0.8740 0.8570 0.8380
8.548014 0.8090 0.7900 0.7770 0.7650 0.7540
8.582000 0.7510 0.7490 0.7490 0.7660 0.7900
8.616014 0.8090 0.8280 0.8430 0.8570 0.8710
8.650000 0.8860 0.9000 0.9150 0.9220 0.9270
8.684014 0.9330 0.9360 0.9390 0.9410 0.9450
8.718000 0.9480 0.9500 0.9530 0.9530 0.9550
8.752014 0.9570 0.9570 0.9580 0.9600 0.9600
8.786000 0.9620 0.9620 0.9630 0.9650 0.9690
8.820014 0.9700 0.9700 0.9720 0.9740 0.9740
8.854000 0.9740 0.9740 0.9740 0.9750 0.9750
8.888014 0.9750 0.9750 0.9750 0.9750 0.9750
8.922000 0.9740 0.9740 0.9740 0.9720 0.9700
8.956014 0.9690 0.9650 0.9650 0.9650 0.9670
8.990000 0.9690 0.9700 0.9720 0.9720 0.9720
9.024014 0.9720 0.9720 0.9720 0.9720 0.9720
9.058000 0.9720 0.9720 0.9720 0.9720 0.9720
9.092014 0.9720 0.9720 0.9700 0.9700 0.9690
9.126000 0.9630 0.9600 0.9530 0.9480 0.9380
9.160014 0.9090 0.8950 0.8780 0.8610 0.8490
9.194000 0.8420 0.8330 0.8250 0.8090 0.7890
9.228014 0.7660 0.7630 0.7630 0.7680 0.7940
9.262000 0.8140 0.8380 0.8640 0.8860 0.9050
9.296014 0.9120 0.9170 0.9260 0.9330 0.9360
9.330000 0.9390 0.9430 0.9430 0.9450 0.9450
9.364014 0.9450 0.9460 0.9460 0.9480 0.9480
9.398000 0.9480 0.9480 0.9480 0.9480 0.9480
9.432014 0.9480 0.9480 0.9480 0.9480 0.9480
9.466000 0.9480 0.9480 0.9480 0.9480 0.9460
9.500014 0.9460 0.9450 0.9410 0.9390 0.9360
9.534000 0.9360 0.9330 0.9330 0.9310 0.9310
9.568014 0.9290 0.9290 0.9290 0.9290 0.9290
9.602000 0.9290 0.9290 0.9290 0.9290 0.9310
9.636014 0.9310 0.9310 0.9290 0.9290 0.9270
9.670000 0.9270 0.9260 0.9260 0.9270 0.9290
9.704014 0.9310 0.9310 0.9290 0.9270 0.9260
9.738000 0.9240 0.9220 0.9220 0.9220 0.9220
9.772014 0.9210 0.9190 0.9190 0.9170 0.9170
9.806000 0.9170 0.9170 0.9170 0.9170 0.9170
9.840014 0.9190 0.9210 0.9220 0.9220 0.9260
9.874000 0.9290 0.9310 0.9330 0.9330 0.9340
9.908014 0.9340 0.9340 0.9360 0.9360 0.9360
9.942000 0.9380 0.9380 0.9390 0.9390 0.9390
9.976014 0.9410 0.9410 0.9410 0.9430 0.9430
10.010000 0.9450 0.9450 0.9460 0.9460 0.9480
10.044014 0.9480 0.9480 0.9500 0.9500 0.9500
10.078000 0.9510 0.9510 0.9510 0.9530 0.9530
10.112014 0.9550 0.9570 0.9570 0.9570 0.9570
10.146000 0.9570 0.9570 0.9570 0.9570 0.9570
10.180014 0.9570 0.9570 0.9570 0.9570 0.9570
10.214000 0.9550 0.9550 0.9530 0.9510 0.9510
10.248014 0.9510 0.9500 0.9500 0.9510 0.9530
10.282000 0.9550 0.9570 0.9570 0.9570 0.9570
10.316014 0.9580 0.9600 0.9620 0.9630 0.9650
10.350000 0.9670 0.9670 0.9670 0.9670 0.9670
10.384014 0.9670 0.9670 0.9670 0.9670 0.9670
10.418000 0.9670 0.9650 0.9650 0.9650 0.9630
10.452014 0.9630 0.9630 0.9600 0.9580 0.9580
10.486000 0.9570 0.9550 0.9510 0.9500 0.9410
10.520014 0.9360 0.9310 0.9290 0.9290 0.9290
10.554000 0.9270 0.9260 0.9170 0.9120 0.8980
10.588014 0.8910 0.8850 0.8790 0.8780 0.8590
10.622000 0.8570 0.8590 0.8640 0.8740 0.8850
10.656014 0.8900 0.8930 0.8950 0.8980 0.8980
10.690000 0.8880 0.8590 0.8380 0.8180 0.8010
10.724014 0.7830 0.7470 0.7400 0.7400 0.7400
10.758000 0.7470 0.7800 0.8060 0.8250 0.8420
10.792014 0.8540 0.8660 0.8760 0.8880 0.9030
10.826000 0.9100 0.9140 0.9190 0.9210 0.9220
10.860014 0.9220 0.9220 0.9210 0.9140 0.9050
10.894000 0.8900 0.8690 0.8470 0.8230 0.7990
10.928014 0.7780 0.7590 0.7440 0.7340 0.7280
10.962000 0.7250 0.7270 0.7300 0.7350 0.7470
10.996014 0.7590 0.7750 0.7900 0.8070 0.8210
11.030000 0.8370 0.8500 0.8620 0.8740 0.8850
11.064014 0.8930 0.9020 0.9090 0.9140 0.9190
11.098000 0.9260 0.9310 0.9330 0.9360 0.9360
11.132014 0.9390 0.9410 0.9410 0.9430 0.9450
11.166000 0.9450 0.9460 0.9460 0.9480 0.9500
11.200014 0.9500 0.9500 0.9510 0.9510 0.9510
11.234000 0.9530 0.9530 0.9530 0.9550 0.9550
11.268014 0.9550 0.9550 0.9550 0.9550 0.9550
11.302000 0.9550 0.9550 0.9570 0.9570 0.9580
11.336014 0.9580 0.9580 0.9580 0.9600 0.9600
11.370000 0.9600 0.9620 0.9620 0.9620 0.9620
11.404014 0.9630 0.9630 0.9630 0.9650 0.9650
11.438000 0.9650 0.9650 0.9650 0.9650 0.9650
11.472014 0.9650 0.9650 0.9650 0.9650 0.9650
11.506000 0.9650 0.9650 0.9650 0.9650 0.9650
11.540014 0.9650 0.9650 0.9650 0.9650 0.9650
11.574000 0.9650 0.9650 0.9650 0.9650 0.9650
11.608014 0.9650 0.9670 0.9670 0.9670 0.9690
11.642000 0.9690 0.9690 0.9690 0.9700 0.9700
11.676014 0.9700 0.9720 0.9720 0.9720 0.9720
11.710000 0.9720 0.9720 0.9720 0.9720 0.9720
11.744014 0.9720 0.9720 0.9720 0.9700 0.9700
11.778000 0.9700 0.9700 0.9700 0.9700 0.9700
11.812014 0.9700 0.9690 0.9670 0.9670 0.9630
11.846000 0.9630 0.9630 0.9620 0.9620 0.9620
11.880014 0.9620 0.9620 0.9580 0.9570 0.9570
11.914000 0.9550 0.9530 0.9530 0.9510 0.9510
11.948014 0.9510 0.9510 0.9550 0.9550 0.9570
11.982000 0.9580 0.9620 0.9650 0.9670 0.9690
12.016014 0.9700 0.9700 0.9720 0.9720 0.9720
12.050000 0.9720 0.9720 0.9720 0.9720 0.9720
12.084014 0.9720 0.9720 0.9720 0.9700 0.9700
12.118000 0.9700 0.9690 0.9690 0.9690 0.9690
12.152014 0.9690 0.9700 0.9700 0.9700 0.9700
12.186000 0.9700 0.9700 0.9720 0.9720 0.9740
12.220014 0.9740 0.9750 0.9750 0.9750 0.9750
12.254000 0.9750 0.9770 0.9770 0.9790 0.9790
12.288014 0.9790 0.9790 0.9790 0.9790 0.9770
12.322000 0.9790 0.9790 0.9790 0.9790 0.9790
12.356014 0.9790 0.9810 0.9820 0.9820 0.9820
12.390000 0.9790 0.9770 0.9750 0.9740 0.9740
12.424014 0.9740 0.9740 0.9750 0.9750 0.9750
12.458000 0.9750 0.9750 0.9750 0.9750 0.9750
12.492014 0.9740 0.9740 0.9740 0.9690 0.9670
12.525000 0.9630 0.9600 0.9570 0.9530 0.9480
12.559014 0.9430 0.9340 0.9240 0.9030 0.8760
12.593000 0.8330 0.7850 0.7530 0.7130 0.6740
12.627014 0.6220 0.6200 0.6240 0.6650 0.6920
12.661000 0.7300 0.7770 0.8280 0.8610 0.8830
12.695014 0.9020 0.9140 0.9270 0.9390 0.9460
12.729000 0.9480 0.9500 0.9500 0.9510 0.9530
12.763014 0.9550 0.9580 0.9580 0.9600 0.9600
12.797000 0.9620 0.9630 0.9630 0.9650 0.9650
12.831014 0.9650 0.9670 0.9690 0.9690 0.9700
12.865000 0.9700 0.9700 0.9700 0.9700 0.9700
12.899014 0.9700 0.9700 0.9700 0.9700 0.9700
12.933000 0.9700 0.9700 0.9700 0.9700 0.9700
12.967014 0.9700 0.9700 0.9700 0.9700 0.9700
13.001000 0.9700 0.9700 0.9690 0.9690 0.9690
13.035014 0.9690 0.9670 0.9670 0.9670 0.9670
13.069000 0.9670 0.9690 0.9690 0.9670 0.9650
13.103014 0.9650 0.9630 0.9630 0.9620 0.9600
13.137000 0.9580 0.9580 0.9570 0.9570 0.9550
13.171014 0.9530 0.9510 0.9480 0.9460 0.9430
13.205000 0.9410 0.9380 0.9380 0.9360 0.9190
13.239014 0.9150 0.9100 0.9030 0.8930 0.8810
13.273000 0.8670 0.8520 0.8370 0.8160 0.8010
13.307014 0.7890 0.7750 0.7630 0.7560 0.7490
13.341000 0.7390 0.7390 0.7370 0.7370 0.7390
13.375014 0.7540 0.7700 0.7820 0.7940 0.8040
13.409000 0.8190 0.8370 0.8430 0.8540 0.8590
13.443014 0.8730 0.8860 0.8930 0.8970 0.9030
13.477000 0.9100 0.9150 0.9170 0.9220 0.9270
13.511014 0.9290 0.9290 0.9290 0.9310 0.9310
13.545000 0.9310 0.9310 0.9310 0.9310 0.9310
13.579014 0.9310 0.9290 0.9270 0.9260 0.9240
13.613000 0.9220 0.9210 0.9150 0.9120 0.9100
13.647014 0.9070 0.9070 0.9020 0.8930 0.8910
13.681000 0.8780 0.8710 0.8570 0.8420 0.8260
13.715014 0.8060 0.8010 0.7940 0.7820 0.7710
13.749000 0.7650 0.7610 0.7590 0.7590 0.7680
13.783014 0.7770 0.7820 0.7890 0.7950 0.8040
13.817000 0.8140 0.8210 0.8280 0.8300 0.8310
13.851014 0.8310 0.8300 0.8300 0.8260 0.8210
13.885000 0.8130 0.7950 0.7830 0.7730 0.7630
13.919014 0.7460 0.7390 0.7230 0.7100 0.7010
13.953000 0.6940 0.6870 0.6800 0.6700 0.6680
13.987014 0.6680 0.6740 0.6770 0.6820 0.6910
14.021000 0.7010 0.7110 0.7200 0.7280 0.7350
14.055014 0.7440 0.7490 0.7590 0.7660 0.7730
14.089000 0.7780 0.7890 0.7940 0.7990 0.8020
14.123014 0.8090 0.8160 0.8160 0.8190 0.8260
14.157000 0.8350 0.8400 0.8430 0.8470 0.8490
14.191014 0.8500 0.8590 0.8620 0.8670 0.8690
14.225000 0.8760 0.8780 0.8790 0.8850 0.8860
14.259014 0.8880 0.8900 0.8910 0.8930 0.8950
14.293000 0.8950 0.8970 0.8980 0.9000 0.9020
14.327014 0.9030 0.9050 0.9070 0.9090 0.9090
14.361000 0.9100 0.9100 0.9120 0.9140 0.9150
14.395014 0.9150 0.9170 0.9170 0.9190 0.9190
14.429000 0.9190 0.9170 0.9150 0.9150 0.9150
14.463014 0.9150 0.9150 0.9150 0.9150 0.9150
14.497000 0.9170 0.9170 0.9170 0.9170 0.9170
14.531014 0.9170 0.9150 0.9100 0.9070 0.9050
14.565000 0.9050 0.9030 0.9000 0.8970 0.8900
14.599014 0.8880 0.8860 0.8860 0.8830 0.8780
14.633000 0.8760 0.8710 0.8690 0.8660 0.8570
14.667014 0.8520 0.8500 0.8490 0.8470 0.8430
14.701000 0.8380 0.8370 0.8350 0.8350 0.8330
14.735014 0.8310 0.8310 0.8310 0.8330 0.8380
14.769000 0.8420 0.8450 0.8470 0.8490 0.8500
14.803014 0.8540 0.8550 0.8590 0.8640 0.8660
14.837000 0.8660 0.8670 0.8670 0.8690 0.8730
14.871014 0.8740 0.8760 0.8760 0.8760 0.8760
14.905000 0.8760 0.8760 0.8760 0.8760 0.8760
14.939014 0.8760 0.8760 0.8740 0.8740 0.8710
14.973000 0.8670 0.8620 0.8590 0.8550 0.8520
15.007014 0.8470 0.8430 0.8400 0.8380 0.8370
15.041000 0.8370 0.8370 0.8370 0.8350 0.8350
15.075014 0.8350 0.8350 0.8350 0.8370 0.8380
15.109000 0.8380 0.8380 0.8380 0.8380 0.8380
15.143014 0.8370 0.8350 0.8310 0.8300 0.8280
15.177000 0.8280 0.8280 0.8260 0.8260 0.8260
15.211014 0.8250 0.8250 0.8230 0.8230 0.8190
15.245000 0.8180 0.8160 0.8160 0.8160 0.8140
15.279014 0.8140 0.8130 0.8130 0.8130 0.8130
15.313000 0.8130 0.8090 0.8070 0.8060 0.8040
15.347014 0.8040 0.8010 0.7990 0.7970 0.7970
15.381000 0.7950 0.7950 0.7940 0.7940 0.7940
15.415014 0.7940 0.7940 0.7940 0.7920 0.7900
15.449000 0.7890 0.7850 0.7830 0.7800 0.7800
15.483014 0.7780 0.7780 0.7770 0.7770 0.7770
15.517000 0.7770 0.7770 0.7770 0.7770 0.7770
15.551014 0.7770 0.7770 0.7770 0.7770 0.7750
15.585000 0.7730 0.7730 0.7710 0.7700 0.7700
15.619014 0.7700 0.7700 0.7700 0.7700 0.7700
15.653000 0.7680 0.7680 0.7680 0.7660 0.7660
15.687014 0.7650 0.7650 0.7610 0.7610 0.7590
15.721000 0.7590 0.7590 0.7590 0.7590 0.7580
15.755014 0.7580 0.7580 0.7580 0.7580 0.7560
15.789000 0.7560 0.7540 0.7510 0.7510 0.7460
15.823014 0.7460 0.7440 0.7440 0.7440 0.7440
15.857000 0.7440 0.7440 0.7440 0.7440 0.7440
15.891014 0.7440 0.7460 0.7460 0.7460 0.7460
15.925000 0.7460 0.7460 0.7460 0.7460 0.7460
15.959014 0.7460 0.7460
##END=
