##TITLE=MAGNESIUM PHOSPHATE, TRIBASIC
$$ C.P.
##JCAMP-DX=4.24
##DATA TYPE=INFRARED SPECTRUM
##CLASS=COBLENTZ
##ORIGIN=MELLON INSTITUTE
##OWNER=COBLENTZ SOCIETY
Collection (C) 2018 copyright by the U.S. Secretary of Commerce
on behalf of the United States of America. All rights reserved.
##DATE=Not specified, most likely prior to 1970
##MOLFORM=Mg3 ( P O4)2  * 4 H2 O
##SOURCE REFERENCE=COBLENTZ NO. 568
##$NIST ID=B6000568
##$NIST SOURCE=COBLENTZ
##$NIST IMAGE=cob568
##SPECTROMETER/DATA SYSTEM=Not specified, most likely a prism, grating, or hybrid spectrometer.
##STATE=SOLID (NUJOL MULL)
##PATH LENGTH=
$$SPECTRAL CONTAMINATION DUE TO OIL AROUND 2900, 1450, 1380 CM^-^1
##SAMPLING PROCEDURE=TRANSMISSION
##RESOLUTION=4
##DATA PROCESSING=DIGITIZED BY NIST FROM HARD COPY
##XUNITS=MICROMETERS
##YUNITS=TRANSMITTANCE
##XFACTOR=1.000000
##YFACTOR=1
##DELTAX=000.006663
##FIRSTX=2.027
##LASTX=15.992
##FIRSTY=0.928
##MAXX=15.992
##MINX=2.027
##MAXY=0.961
##MINY=0.11
##NPOINTS=2097
##XYDATA=(X++(Y..Y))
2.027000 0.9280 0.9290 0.9290 0.9310 0.9310
2.060329 0.9310 0.9330 0.9330 0.9340 0.9340
2.094000 0.9360 0.9360 0.9360 0.9380 0.9390
2.127329 0.9390 0.9390 0.9410 0.9410 0.9410
2.161000 0.9410 0.9430 0.9430 0.9440 0.9480
2.194329 0.9480 0.9480 0.9490 0.9480 0.9490
2.227000 0.9490 0.9510 0.9510 0.9510 0.9510
2.260329 0.9510 0.9510 0.9510 0.9510 0.9490
2.294000 0.9480 0.9480 0.9460 0.9440 0.9430
2.327329 0.9410 0.9410 0.9410 0.9390 0.9410
2.360000 0.9410 0.9410 0.9410 0.9410 0.9430
2.393329 0.9430 0.9430 0.9430 0.9430 0.9430
2.427000 0.9410 0.9410 0.9430 0.9440 0.9460
2.460329 0.9480 0.9490 0.9490 0.9530 0.9530
2.494000 0.9560 0.9580 0.9580 0.9580 0.9560
2.527329 0.9580 0.9580 0.9580 0.9590 0.9590
2.560000 0.9590 0.9580 0.9580 0.9580 0.9580
2.593329 0.9560 0.9560 0.9560 0.9580 0.9580
2.627000 0.9590 0.9610 0.9610 0.9580 0.9540
2.660329 0.9530 0.9510 0.9490 0.9440 0.9430
2.694000 0.9430 0.9410 0.9380 0.9290 0.9240
2.727329 0.9190 0.9110 0.9080 0.9010 0.8960
2.760000 0.8810 0.8630 0.8430 0.8160 0.7990
2.793329 0.7790 0.7590 0.7370 0.7110 0.6960
2.827000 0.6670 0.6370 0.6170 0.6020 0.5900
2.860329 0.5820 0.5770 0.5750 0.5720 0.5700
2.893000 0.5670 0.5640 0.5620 0.5600 0.5590
2.926329 0.5590 0.5590 0.5590 0.5570 0.5550
2.960000 0.5520 0.5500 0.5490 0.5470 0.5420
2.993329 0.5370 0.5290 0.5200 0.5150 0.5040
3.027000 0.5000 0.4950 0.4850 0.4800 0.4740
3.060329 0.4700 0.4690 0.4670 0.4670 0.4720
3.093000 0.4740 0.4800 0.4870 0.4900 0.4970
3.126329 0.5070 0.5120 0.5140 0.5170 0.5200
3.160000 0.5220 0.5270 0.5290 0.5320 0.5350
3.193329 0.5350 0.5370 0.5390 0.5400 0.5440
3.227000 0.5450 0.5470 0.5490 0.5490 0.5500
3.260329 0.5500 0.5500 0.5500 0.5500 0.5490
3.293000 0.5450 0.5390 0.5290 0.5190 0.5000
3.326329 0.4820 0.4540 0.3780 0.2920 0.2250
3.360000 0.1810 0.1510 0.1450 0.1280 0.1150
3.393329 0.1100 0.1100 0.1110 0.1130 0.1310
3.426000 0.1630 0.1800 0.1980 0.2030 0.2030
3.459329 0.2000 0.1960 0.1950 0.1980 0.2400
3.493000 0.2770 0.3180 0.3580 0.3720 0.4100
3.526329 0.4500 0.5250 0.5350 0.5470 0.5620
3.560000 0.5690 0.5790 0.5850 0.5990 0.6040
3.593329 0.6090 0.6160 0.6210 0.6290 0.6320
3.626000 0.6390 0.6420 0.6470 0.6540 0.6590
3.659329 0.6620 0.6720 0.6810 0.6820 0.6890
3.693000 0.6960 0.6990 0.7020 0.7110 0.7140
3.726329 0.7210 0.7270 0.7290 0.7340 0.7390
3.760000 0.7420 0.7470 0.7540 0.7590 0.7670
3.793329 0.7710 0.7760 0.7810 0.7870 0.7910
3.826000 0.7940 0.7970 0.7990 0.8030 0.8090
3.859329 0.8110 0.8130 0.8160 0.8180 0.8210
3.893000 0.8230 0.8260 0.8290 0.8310 0.8310
3.926329 0.8330 0.8330 0.8340 0.8380 0.8390
3.959000 0.8410 0.8430 0.8430 0.8440 0.8460
3.992329 0.8460 0.8460 0.8460 0.8460 0.8440
4.026000 0.8440 0.8440 0.8440 0.8460 0.8460
4.059329 0.8480 0.8490 0.8530 0.8530 0.8530
4.093000 0.8540 0.8560 0.8560 0.8560 0.8560
4.126329 0.8560 0.8560 0.8560 0.8560 0.8540
4.159000 0.8530 0.8530 0.8510 0.8510 0.8480
4.192329 0.8480 0.8480 0.8410 0.8380 0.8330
4.226000 0.8310 0.8290 0.8280 0.8260 0.8240
4.259329 0.8240 0.8230 0.8230 0.8230 0.8230
4.293000 0.8210 0.8210 0.8210 0.8190 0.8190
4.326329 0.8190 0.8190 0.8190 0.8190 0.8190
4.359000 0.8210 0.8230 0.8230 0.8310 0.8340
4.392329 0.8360 0.8380 0.8380 0.8390 0.8390
4.426000 0.8380 0.8380 0.8380 0.8380 0.8390
4.459329 0.8390 0.8390 0.8380 0.8390 0.8390
4.492000 0.8410 0.8430 0.8430 0.8430 0.8440
4.525329 0.8460 0.8480 0.8480 0.8490 0.8490
4.559000 0.8490 0.8510 0.8530 0.8530 0.8540
4.592329 0.8540 0.8560 0.8580 0.8580 0.8590
4.626000 0.8590 0.8630 0.8630 0.8630 0.8630
4.659329 0.8640 0.8640 0.8640 0.8690 0.8730
4.692000 0.8740 0.8740 0.8790 0.8790 0.8810
4.725329 0.8810 0.8810 0.8810 0.8810 0.8830
4.759000 0.8830 0.8830 0.8830 0.8840 0.8860
4.792329 0.8890 0.8890 0.8910 0.8930 0.8940
4.826000 0.8940 0.8940 0.8940 0.8940 0.8940
4.859329 0.8940 0.8940 0.8940 0.8940 0.8940
4.892000 0.8940 0.8940 0.8940 0.8940 0.8940
4.925329 0.8940 0.8940 0.8940 0.8940 0.8940
4.959000 0.8940 0.8940 0.8910 0.8910 0.8910
4.992329 0.8890 0.8890 0.8890 0.8880 0.8860
5.025000 0.8860 0.8840 0.8840 0.8840 0.8840
5.058329 0.8840 0.8830 0.8830 0.8830 0.8830
5.092000 0.8810 0.8810 0.8810 0.8830 0.8810
5.125329 0.8810 0.8810 0.8810 0.8780 0.8780
5.159000 0.8760 0.8760 0.8760 0.8740 0.8730
5.192329 0.8730 0.8730 0.8710 0.8730 0.8730
5.225000 0.8740 0.8740 0.8740 0.8730 0.8710
5.258329 0.8690 0.8690 0.8680 0.8690 0.8690
5.292000 0.8730 0.8740 0.8740 0.8780 0.8790
5.325329 0.8810 0.8830 0.8830 0.8860 0.8880
5.359000 0.8880 0.8890 0.8890 0.8910 0.8930
5.392329 0.8940 0.8940 0.8960 0.8960 0.8960
5.425000 0.8960 0.8960 0.8980 0.8980 0.8990
5.458329 0.8990 0.9010 0.9010 0.9030 0.9060
5.492000 0.9080 0.9080 0.9090 0.9080 0.9040
5.525329 0.9010 0.8990 0.8990 0.8990 0.8990
5.558000 0.9010 0.9030 0.9040 0.9040 0.9030
5.591329 0.9030 0.9030 0.9030 0.9030 0.9030
5.625000 0.9010 0.8990 0.8990 0.9010 0.9030
5.658329 0.9030 0.9030 0.9030 0.9010 0.9010
5.692000 0.8990 0.8990 0.8980 0.8980 0.8980
5.725329 0.8980 0.8980 0.8980 0.8960 0.8930
5.758000 0.8930 0.8890 0.8880 0.8880 0.8840
5.791329 0.8830 0.8780 0.8760 0.8710 0.8690
5.825000 0.8660 0.8610 0.8530 0.8510 0.8480
5.858329 0.8410 0.8310 0.8260 0.8140 0.8110
5.892000 0.8060 0.8030 0.7990 0.7970 0.7920
5.925329 0.7910 0.7840 0.7770 0.7720 0.7670
5.958000 0.7640 0.7610 0.7590 0.7540 0.7490
5.991329 0.7460 0.7370 0.7270 0.7260 0.7160
6.025000 0.7120 0.7040 0.6970 0.6870 0.6810
6.058329 0.6790 0.6740 0.6710 0.6690 0.6690
6.091000 0.6690 0.6710 0.6720 0.6720 0.6770
6.124329 0.6860 0.6920 0.6970 0.7020 0.7090
6.158000 0.7110 0.7190 0.7310 0.7390 0.7410
6.191329 0.7460 0.7510 0.7590 0.7640 0.7670
6.225000 0.7690 0.7720 0.7740 0.7810 0.7840
6.258329 0.7860 0.7870 0.7890 0.7890 0.7910
6.291000 0.7910 0.7940 0.7960 0.7970 0.7970
6.324329 0.7970 0.7990 0.7990 0.8010 0.8010
6.358000 0.8010 0.8030 0.8040 0.8040 0.8060
6.391329 0.8080 0.8080 0.8090 0.8090 0.8090
6.425000 0.8090 0.8110 0.8110 0.8130 0.8140
6.458329 0.8160 0.8180 0.8180 0.8210 0.8230
6.491000 0.8240 0.8240 0.8240 0.8240 0.8240
6.524329 0.8240 0.8240 0.8240 0.8240 0.8240
6.558000 0.8240 0.8240 0.8240 0.8240 0.8240
6.591329 0.8240 0.8240 0.8240 0.8240 0.8240
6.624000 0.8240 0.8240 0.8240 0.8240 0.8240
6.657329 0.8240 0.8260 0.8280 0.8310 0.8330
6.691000 0.8360 0.8360 0.8380 0.8380 0.8380
6.724329 0.8360 0.8310 0.8310 0.8260 0.8210
6.758000 0.8180 0.8130 0.8010 0.7990 0.7870
6.791329 0.7760 0.7340 0.7170 0.6870 0.6660
6.824000 0.6360 0.6290 0.6110 0.6040 0.5990
6.857329 0.5920 0.5900 0.5890 0.5870 0.5840
6.891000 0.5840 0.5820 0.5840 0.5870 0.5970
6.924329 0.5990 0.6040 0.6170 0.6260 0.6320
6.958000 0.6420 0.6490 0.6570 0.6670 0.6840
6.991329 0.7040 0.7140 0.7310 0.7440 0.7510
7.024000 0.7590 0.7620 0.7710 0.7720 0.7790
7.057329 0.7840 0.7990 0.8030 0.8040 0.8130
7.091000 0.8140 0.8180 0.8230 0.8280 0.8310
7.124329 0.8340 0.8360 0.8380 0.8380 0.8390
7.157000 0.8390 0.8390 0.8390 0.8390 0.8360
7.190329 0.8280 0.8190 0.8130 0.8080 0.7870
7.224000 0.7710 0.7560 0.7390 0.7270 0.7220
7.257329 0.7190 0.7170 0.7170 0.7170 0.7190
7.291000 0.7210 0.7220 0.7240 0.7290 0.7320
7.324329 0.7360 0.7390 0.7560 0.7620 0.7720
7.357000 0.7810 0.7840 0.7870 0.7910 0.7960
7.390329 0.7990 0.7990 0.8010 0.8030 0.8060
7.424000 0.8090 0.8090 0.8110 0.8130 0.8130
7.457329 0.8140 0.8140 0.8160 0.8180 0.8190
7.491000 0.8210 0.8230 0.8240 0.8280 0.8310
7.524329 0.8310 0.8310 0.8330 0.8330 0.8340
7.557000 0.8340 0.8340 0.8380 0.8380 0.8380
7.590329 0.8380 0.8380 0.8380 0.8360 0.8340
7.624000 0.8340 0.8340 0.8340 0.8340 0.8340
7.657329 0.8340 0.8340 0.8340 0.8340 0.8340
7.690000 0.8340 0.8340 0.8340 0.8360 0.8360
7.723329 0.8360 0.8380 0.8380 0.8390 0.8380
7.757000 0.8380 0.8380 0.8380 0.8360 0.8360
7.790329 0.8360 0.8360 0.8360 0.8340 0.8340
7.824000 0.8340 0.8340 0.8330 0.8330 0.8330
7.857329 0.8310 0.8310 0.8290 0.8290 0.8280
7.890000 0.8280 0.8280 0.8260 0.8260 0.8240
7.923329 0.8240 0.8230 0.8210 0.8210 0.8190
7.957000 0.8180 0.8140 0.8110 0.8080 0.8040
7.990329 0.8040 0.7970 0.7970 0.7910 0.7890
8.024000 0.7840 0.7770 0.7710 0.7620 0.7590
8.057329 0.7540 0.7510 0.7470 0.7440 0.7440
8.090000 0.7410 0.7340 0.7340 0.7310 0.7290
8.123329 0.7270 0.7270 0.7270 0.7270 0.7270
8.157000 0.7310 0.7320 0.7370 0.7390 0.7410
8.190329 0.7440 0.7490 0.7510 0.7540 0.7570
8.224000 0.7590 0.7610 0.7640 0.7690 0.7690
8.257329 0.7710 0.7720 0.7720 0.7740 0.7740
8.290000 0.7740 0.7740 0.7740 0.7740 0.7720
8.323329 0.7720 0.7710 0.7710 0.7690 0.7690
8.357000 0.7670 0.7640 0.7620 0.7610 0.7520
8.390329 0.7510 0.7470 0.7410 0.7390 0.7360
8.423000 0.7320 0.7270 0.7220 0.7170 0.7140
8.456329 0.7070 0.6970 0.6920 0.6770 0.6670
8.490000 0.6520 0.6390 0.6290 0.6110 0.5990
8.523329 0.5770 0.5590 0.5390 0.5240 0.5020
8.557000 0.4950 0.4890 0.4820 0.4790 0.4700
8.590329 0.4550 0.4390 0.4290 0.4270 0.4240
8.623000 0.4240 0.4200 0.4200 0.4150 0.4120
8.656329 0.4100 0.4100 0.4090 0.4090 0.4070
8.690000 0.4070 0.4050 0.4020 0.4000 0.3980
8.723329 0.3920 0.3880 0.3800 0.3720 0.3700
8.757000 0.3630 0.3600 0.3530 0.3520 0.3480
8.790329 0.3430 0.3420 0.3420 0.3400 0.3400
8.823000 0.3380 0.3380 0.3380 0.3380 0.3420
8.856329 0.3420 0.3430 0.3430 0.3450 0.3480
8.890000 0.3500 0.3530 0.3600 0.3630 0.3680
8.923329 0.3720 0.3730 0.3800 0.3830 0.3870
8.956000 0.3930 0.3980 0.3980 0.4020 0.4050
8.989329 0.4050 0.4070 0.4070 0.4070 0.4070
9.023000 0.4070 0.4000 0.3920 0.3880 0.3850
9.056329 0.3820 0.3820 0.3780 0.3730 0.3700
9.090000 0.3650 0.3630 0.3620 0.3580 0.3520
9.123329 0.3480 0.3370 0.3270 0.3230 0.3180
9.156000 0.3150 0.3130 0.3120 0.3080 0.3080
9.189329 0.3030 0.3000 0.2980 0.2970 0.2950
9.223000 0.2930 0.2920 0.2900 0.2880 0.2880
9.256329 0.2870 0.2850 0.2850 0.2830 0.2820
9.290000 0.2800 0.2780 0.2770 0.2730 0.2700
9.323329 0.2680 0.2630 0.2600 0.2530 0.2530
9.356000 0.2500 0.2500 0.2480 0.2470 0.2450
9.389329 0.2430 0.2420 0.2370 0.2330 0.2320
9.423000 0.2300 0.2280 0.2270 0.2250 0.2250
9.456329 0.2230 0.2230 0.2220 0.2220 0.2200
9.489000 0.2200 0.2200 0.2200 0.2200 0.2200
9.522329 0.2200 0.2200 0.2180 0.2180 0.2180
9.556000 0.2170 0.2170 0.2150 0.2150 0.2130
9.589329 0.2130 0.2130 0.2130 0.2130 0.2130
9.623000 0.2130 0.2130 0.2150 0.2150 0.2170
9.656329 0.2170 0.2180 0.2180 0.2180 0.2200
9.689000 0.2200 0.2200 0.2220 0.2220 0.2230
9.722329 0.2230 0.2230 0.2230 0.2230 0.2220
9.756000 0.2220 0.2200 0.2180 0.2170 0.2150
9.789329 0.2130 0.2120 0.2120 0.2100 0.2100
9.823000 0.2080 0.2080 0.2070 0.2030 0.2030
9.856329 0.2020 0.2020 0.2000 0.2000 0.2000
9.889000 0.2000 0.2000 0.2020 0.2050 0.2070
9.922329 0.2070 0.2100 0.2130 0.2150 0.2200
9.956000 0.2250 0.2300 0.2350 0.2380 0.2430
9.989329 0.2480 0.2550 0.2620 0.2680 0.2750
10.022000 0.2820 0.2850 0.2880 0.2920 0.2980
10.055329 0.3020 0.3100 0.3150 0.3180 0.3200
10.089000 0.3230 0.3320 0.3350 0.3400 0.3430
10.122329 0.3450 0.3480 0.3520 0.3520 0.3600
10.156000 0.3620 0.3670 0.3680 0.3730 0.3770
10.189329 0.3780 0.3780 0.3820 0.3820 0.3850
10.222000 0.3880 0.3900 0.3930 0.3980 0.3980
10.255329 0.4000 0.4020 0.4070 0.4120 0.4150
10.289000 0.4190 0.4200 0.4250 0.4270 0.4300
10.322329 0.4320 0.4350 0.4400 0.4440 0.4490
10.356000 0.4520 0.4540 0.4620 0.4690 0.4720
10.389329 0.4750 0.4790 0.4820 0.4890 0.4940
10.422000 0.5070 0.5120 0.5140 0.5200 0.5250
10.455329 0.5290 0.5300 0.5300 0.5340 0.5350
10.489000 0.5390 0.5420 0.5440 0.5440 0.5450
10.522329 0.5470 0.5470 0.5490 0.5490 0.5490
10.555000 0.5470 0.5450 0.5400 0.5390 0.5370
10.588329 0.5300 0.5250 0.5190 0.5150 0.5090
10.622000 0.5020 0.5000 0.4990 0.4950 0.4940
10.655329 0.4940 0.4940 0.4940 0.4950 0.4990
10.689000 0.5020 0.5090 0.5140 0.5170 0.5240
10.722329 0.5290 0.5340 0.5390 0.5400 0.5490
10.755000 0.5540 0.5600 0.5670 0.5720 0.5790
10.788329 0.5850 0.5900 0.5950 0.6020 0.6120
10.822000 0.6140 0.6190 0.6240 0.6340 0.6370
10.855329 0.6410 0.6420 0.6490 0.6520 0.6540
10.889000 0.6590 0.6620 0.6640 0.6690 0.6710
10.922329 0.6740 0.6760 0.6770 0.6790 0.6820
10.955000 0.6840 0.6860 0.6890 0.6890 0.6910
10.988329 0.6920 0.6940 0.6940 0.6960 0.6970
11.022000 0.6990 0.6990 0.6990 0.7010 0.7010
11.055329 0.7010 0.7010 0.7010 0.7010 0.7010
11.088000 0.7010 0.7010 0.7010 0.7020 0.7020
11.121329 0.7040 0.7040 0.7020 0.7020 0.7010
11.155000 0.7010 0.7010 0.7010 0.7010 0.7010
11.188329 0.6990 0.6990 0.6990 0.6990 0.6990
11.222000 0.6990 0.6990 0.6990 0.6990 0.6990
11.255329 0.6970 0.6970 0.6990 0.6970 0.6970
11.288000 0.6970 0.6970 0.6970 0.6970 0.6970
11.321329 0.6990 0.6990 0.6990 0.7010 0.7020
11.355000 0.7020 0.7020 0.7040 0.7060 0.7070
11.388329 0.7070 0.7090 0.7120 0.7140 0.7160
11.422000 0.7160 0.7160 0.7160 0.7160 0.7170
11.455329 0.7170 0.7190 0.7190 0.7190 0.7190
11.488000 0.7190 0.7210 0.7210 0.7210 0.7210
11.521329 0.7210 0.7210 0.7220 0.7240 0.7240
11.555000 0.7240 0.7240 0.7240 0.7240 0.7260
11.588329 0.7260 0.7290 0.7310 0.7310 0.7320
11.621000 0.7340 0.7360 0.7370 0.7390 0.7390
11.654329 0.7410 0.7410 0.7410 0.7420 0.7420
11.688000 0.7420 0.7420 0.7420 0.7420 0.7440
11.721329 0.7470 0.7470 0.7470 0.7470 0.7490
11.755000 0.7510 0.7520 0.7540 0.7540 0.7570
11.788329 0.7590 0.7610 0.7620 0.7640 0.7640
11.821000 0.7640 0.7640 0.7640 0.7670 0.7690
11.854329 0.7710 0.7720 0.7720 0.7710 0.7710
11.888000 0.7710 0.7710 0.7710 0.7710 0.7710
11.921329 0.7720 0.7720 0.7720 0.7740 0.7760
11.955000 0.7760 0.7770 0.7770 0.7790 0.7790
11.988329 0.7790 0.7770 0.7790 0.7790 0.7790
12.021000 0.7770 0.7790 0.7790 0.7810 0.7820
12.054329 0.7820 0.7820 0.7820 0.7820 0.7820
12.088000 0.7820 0.7820 0.7820 0.7840 0.7840
12.121329 0.7840 0.7820 0.7820 0.7820 0.7820
12.154000 0.7820 0.7820 0.7820 0.7820 0.7820
12.187329 0.7820 0.7820 0.7820 0.7840 0.7840
12.221000 0.7860 0.7870 0.7870 0.7870 0.7870
12.254329 0.7890 0.7890 0.7910 0.7910 0.7910
12.288000 0.7910 0.7910 0.7910 0.7910 0.7920
12.321329 0.7920 0.7920 0.7920 0.7920 0.7920
12.354000 0.7920 0.7940 0.7940 0.7940 0.7940
12.387329 0.7940 0.7940 0.7940 0.7940 0.7940
12.421000 0.7940 0.7940 0.7940 0.7940 0.7940
12.454329 0.7920 0.7920 0.7920 0.7920 0.7910
12.488000 0.7920 0.7910 0.7910 0.7910 0.7910
12.521329 0.7910 0.7910 0.7910 0.7910 0.7910
12.554000 0.7910 0.7910 0.7910 0.7910 0.7910
12.587329 0.7910 0.7910 0.7890 0.7870 0.7870
12.621000 0.7860 0.7840 0.7840 0.7820 0.7820
12.654329 0.7810 0.7790 0.7790 0.7770 0.7720
12.687000 0.7720 0.7710 0.7710 0.7690 0.7640
12.720329 0.7610 0.7540 0.7520 0.7510 0.7490
12.754000 0.7420 0.7410 0.7410 0.7390 0.7370
12.787329 0.7360 0.7340 0.7320 0.7310 0.7290
12.821000 0.7290 0.7270 0.7260 0.7240 0.7240
12.854329 0.7220 0.7210 0.7190 0.7170 0.7160
12.887000 0.7140 0.7120 0.7110 0.7070 0.7070
12.920329 0.7060 0.7040 0.7020 0.7020 0.7010
12.954000 0.7010 0.7010 0.7010 0.6990 0.6990
12.987329 0.6970 0.6960 0.6960 0.6960 0.6960
13.021000 0.6960 0.6960 0.6960 0.6960 0.6960
13.054329 0.6960 0.6960 0.6970 0.6970 0.6970
13.087000 0.6970 0.6990 0.6990 0.6990 0.7010
13.120329 0.7010 0.7010 0.7020 0.7020 0.7020
13.154000 0.7020 0.7020 0.7020 0.7060 0.7070
13.187329 0.7070 0.7090 0.7090 0.7110 0.7110
13.220000 0.7110 0.7120 0.7120 0.7120 0.7120
13.253329 0.7120 0.7140 0.7160 0.7160 0.7170
13.287000 0.7170 0.7170 0.7170 0.7170 0.7190
13.320329 0.7190 0.7190 0.7190 0.7190 0.7210
13.354000 0.7210 0.7190 0.7190 0.7190 0.7170
13.387329 0.7170 0.7190 0.7170 0.7170 0.7170
13.420000 0.7170 0.7170 0.7170 0.7170 0.7190
13.453329 0.7190 0.7190 0.7190 0.7210 0.7190
13.487000 0.7190 0.7190 0.7190 0.7190 0.7190
13.520329 0.7190 0.7190 0.7210 0.7190 0.7190
13.554000 0.7190 0.7190 0.7190 0.7190 0.7170
13.587329 0.7170 0.7170 0.7170 0.7170 0.7170
13.620000 0.7170 0.7170 0.7170 0.7190 0.7190
13.653329 0.7190 0.7190 0.7190 0.7190 0.7190
13.687000 0.7170 0.7170 0.7170 0.7170 0.7140
13.720329 0.7140 0.7140 0.7140 0.7160 0.7140
13.753000 0.7160 0.7160 0.7160 0.7160 0.7170
13.786329 0.7160 0.7160 0.7160 0.7160 0.7160
13.820000 0.7140 0.7140 0.7120 0.7120 0.7120
13.853329 0.7120 0.7110 0.7110 0.7110 0.7110
13.887000 0.7110 0.7110 0.7110 0.7110 0.7090
13.920329 0.7090 0.7090 0.7090 0.7090 0.7090
13.953000 0.7090 0.7090 0.7090 0.7110 0.7110
13.986329 0.7120 0.7110 0.7110 0.7110 0.7120
14.020000 0.7120 0.7120 0.7110 0.7120 0.7120
14.053329 0.7120 0.7120 0.7120 0.7120 0.7140
14.087000 0.7160 0.7160 0.7160 0.7160 0.7160
14.120329 0.7160 0.7160 0.7160 0.7160 0.7160
14.153000 0.7170 0.7170 0.7170 0.7170 0.7170
14.186329 0.7170 0.7170 0.7170 0.7190 0.7190
14.220000 0.7190 0.7190 0.7190 0.7190 0.7190
14.253329 0.7190 0.7190 0.7190 0.7190 0.7190
14.286000 0.7190 0.7190 0.7190 0.7190 0.7170
14.319329 0.7160 0.7160 0.7160 0.7140 0.7140
14.353000 0.7120 0.7120 0.7140 0.7140 0.7160
14.386329 0.7140 0.7140 0.7140 0.7140 0.7140
14.420000 0.7140 0.7120 0.7120 0.7110 0.7110
14.453329 0.7110 0.7110 0.7110 0.7110 0.7110
14.486000 0.7110 0.7110 0.7110 0.7090 0.7090
14.519329 0.7090 0.7090 0.7090 0.7070 0.7090
14.553000 0.7070 0.7070 0.7070 0.7060 0.7060
14.586329 0.7060 0.7060 0.7060 0.7040 0.7040
14.620000 0.7040 0.7040 0.7040 0.7020 0.7020
14.653329 0.7020 0.7020 0.7020 0.7020 0.7020
14.686000 0.7020 0.7020 0.7020 0.7020 0.7020
14.719329 0.7020 0.7020 0.7020 0.7010 0.6990
14.753000 0.6990 0.6990 0.6990 0.6990 0.6990
14.786329 0.6990 0.6990 0.6990 0.6990 0.6990
14.820000 0.6990 0.6990 0.6990 0.6990 0.6990
14.853329 0.6990 0.6990 0.7010 0.7020 0.7020
14.886000 0.7040 0.7040 0.7060 0.7040 0.7040
14.919329 0.7020 0.7010 0.6990 0.6990 0.6970
14.953000 0.6960 0.6910 0.6910 0.6890 0.6890
14.986329 0.6890 0.6890 0.6890 0.6870 0.6890
15.019000 0.6890 0.6870 0.6860 0.6860 0.6860
15.052329 0.6840 0.6840 0.6840 0.6840 0.6860
15.086000 0.6860 0.6870 0.6890 0.6890 0.6890
15.119329 0.6890 0.6890 0.6890 0.6890 0.6890
15.153000 0.6890 0.6890 0.6890 0.6870 0.6870
15.186329 0.6870 0.6870 0.6860 0.6840 0.6840
15.219000 0.6820 0.6820 0.6810 0.6810 0.6810
15.252329 0.6810 0.6790 0.6790 0.6790 0.6790
15.286000 0.6770 0.6770 0.6770 0.6770 0.6770
15.319329 0.6770 0.6760 0.6760 0.6740 0.6740
15.353000 0.6740 0.6740 0.6740 0.6720 0.6720
15.386329 0.6720 0.6720 0.6720 0.6720 0.6720
15.419000 0.6710 0.6710 0.6690 0.6690 0.6690
15.452329 0.6690 0.6710 0.6710 0.6690 0.6690
15.486000 0.6690 0.6690 0.6690 0.6670 0.6670
15.519329 0.6670 0.6670 0.6660 0.6660 0.6660
15.552000 0.6660 0.6660 0.6660 0.6660 0.6640
15.585329 0.6640 0.6640 0.6640 0.6640 0.6640
15.619000 0.6640 0.6620 0.6620 0.6620 0.6610
15.652329 0.6610 0.6610 0.6610 0.6610 0.6620
15.686000 0.6640 0.6640 0.6620 0.6620 0.6620
15.719329 0.6610 0.6610 0.6590 0.6570 0.6570
15.752000 0.6560 0.6560 0.6540 0.6520 0.6520
15.785329 0.6520 0.6510 0.6520 0.6520 0.6520
15.819000 0.6520 0.6520 0.6520 0.6520 0.6510
15.852329 0.6510 0.6510 0.6510 0.6490 0.6490
15.886000 0.6490 0.6490 0.6490 0.6490 0.6490
15.919329 0.6490 0.6490 0.6490 0.6490 0.6490
15.952000 0.6510 0.6490 0.6490 0.6490 0.6490
15.985329 0.6470 0.6490
##END=
