##TITLE=PHLOROGLUCINOL DIHYDRATE
##JCAMP-DX=4.24
##DATA TYPE=INFRARED SPECTRUM
##CLASS=COBLENTZ III
##ORIGIN=WESTERN REGIONAL RES. USDA
##OWNER=COBLENTZ SOCIETY
Collection (C) 2018 copyright by the U.S. Secretary of Commerce
on behalf of the United States of America. All rights reserved.
##DATE=1964/05/15
##MOLFORM=C6 H6 O3  * 2 H2 0
##SOURCE REFERENCE=COBLENTZ NO. 6180
##$NIST ID=B6006180
##$NIST SOURCE=COBLENTZ
##$NIST IMAGE=cob6180
##SPECTROMETER/DATA SYSTEM=BECKMAN IR-7 (GRATING)
##INSTRUMENT PARAMETERS=GRATING CHANGES AT 3000, 2200, 1150 CM^-^1
##STATE=SOLID (NUJOL MULL)
##PATH LENGTH=
$$SPECTRAL CONTAMINATION DUE TO OIL AROUND 2900, AND 1460 CM^-^1
##SAMPLING PROCEDURE=TRANSMISSION
##RESOLUTION=4
##DATA PROCESSING=DIGITIZED BY NIST FROM HARD COPY (FROM TWO SEGMENTS)
##XUNITS=1/CM
##YUNITS=TRANSMITTANCE
##XFACTOR=1.000000
##YFACTOR=1
##DELTAX=0.649653
##FIRSTX=599.35
##LASTX=3994.44
##FIRSTY=0.52
##MAXX=3994.44
##MINX=599.35
##MAXY=0.754
##MINY=0.01
##NPOINTS=5227
##XYDATA=(X++(Y..Y))
599.350000 0.5200 0.5230 0.5300 0.5310 0.5360
602.598265 0.5390 0.5400 0.5500 0.5600 0.5650
605.846529 0.5740 0.5830 0.5890 0.5940 0.5970
609.094794 0.6060 0.6140 0.6160 0.6210 0.6230
612.343059 0.6270 0.6280 0.6300 0.6300 0.6320
615.591323 0.6320 0.6320 0.6330 0.6340 0.6340
618.839588 0.6360 0.6360 0.6360 0.6370 0.6370
622.087853 0.6390 0.6390 0.6410 0.6420 0.6420
625.336117 0.6420 0.6430 0.6430 0.6430 0.6430
628.584382 0.6430 0.6410 0.6390 0.6380 0.6370
631.832647 0.6360 0.6360 0.6350 0.6340 0.6330
635.080911 0.6320 0.6320 0.6320 0.6310 0.6300
638.329176 0.6300 0.6290 0.6290 0.6280 0.6280
641.577441 0.6280 0.6270 0.6260 0.6240 0.6230
644.825705 0.6230 0.6220 0.6210 0.6210 0.6210
648.073970 0.6190 0.6170 0.6160 0.6150 0.6130
651.322235 0.6120 0.6110 0.6100 0.6090 0.6080
654.570499 0.6070 0.6070 0.6050 0.6050 0.6040
657.818764 0.6030 0.6030 0.6010 0.5980 0.5960
661.067029 0.5940 0.5900 0.5830 0.5740 0.5561
664.315293 0.5410 0.5260 0.5150 0.5090 0.4980
667.563558 0.4860 0.4711 0.4272 0.4081 0.4080
670.811822 0.4120 0.4220 0.4300 0.4370 0.4460
674.060087 0.4570 0.4610 0.4640 0.4650 0.4680
677.308352 0.4700 0.4710 0.4720 0.4720 0.4720
680.556616 0.4710 0.4700 0.4670 0.4650 0.4640
683.804881 0.4630 0.4590 0.4570 0.4550 0.4550
687.053146 0.4540 0.4510 0.4460 0.4450 0.4390
690.301410 0.4360 0.4340 0.4290 0.4260 0.4240
693.549675 0.4220 0.4190 0.4170 0.4160 0.4110
696.797940 0.4100 0.4010 0.3980 0.3940 0.3890
700.046204 0.3850 0.3800 0.3770 0.3740 0.3700
703.294469 0.3670 0.3650 0.3650 0.3600 0.3560
706.542734 0.3560 0.3490 0.3460 0.3400 0.3360
709.790998 0.3300 0.3260 0.3210 0.3170 0.3150
713.039263 0.3090 0.3060 0.3020 0.2990 0.2970
716.287528 0.2890 0.2870 0.2860 0.2820 0.2790
719.535792 0.2750 0.2720 0.2680 0.2650 0.2620
722.784057 0.2600 0.2580 0.2560 0.2540 0.2540
726.032322 0.2520 0.2490 0.2480 0.2480 0.2460
729.280586 0.2460 0.2450 0.2450 0.2440 0.2430
732.528851 0.2420 0.2410 0.2410 0.2400 0.2400
735.777116 0.2390 0.2390 0.2390 0.2390 0.2390
739.025380 0.2380 0.2380 0.2380 0.2380 0.2380
742.273645 0.2380 0.2380 0.2390 0.2390 0.2390
745.521910 0.2390 0.2400 0.2410 0.2410 0.2420
748.770174 0.2430 0.2430 0.2430 0.2450 0.2450
752.018439 0.2460 0.2470 0.2480 0.2480 0.2500
755.266704 0.2500 0.2510 0.2520 0.2530 0.2540
758.514968 0.2570 0.2580 0.2600 0.2650 0.2660
761.763233 0.2700 0.2750 0.2760 0.2770 0.2790
765.011498 0.2840 0.2880 0.2900 0.2990 0.3100
768.259762 0.3180 0.3360 0.3530 0.3580 0.3580
771.508027 0.3680 0.3780 0.3870 0.3960 0.4060
774.756292 0.4180 0.4230 0.4280 0.4280 0.4270
778.004556 0.4090 0.3880 0.3471 0.2922 0.2850
781.252821 0.2640 0.2580 0.2500 0.2420 0.2410
784.501086 0.2430 0.2480 0.2540 0.2580 0.2630
787.749350 0.2680 0.2730 0.2820 0.2830 0.2940
790.997615 0.2970 0.3000 0.3060 0.3110 0.3249
794.245879 0.3290 0.3350 0.3400 0.3440 0.3460
797.494144 0.3490 0.3510 0.3550 0.3560 0.3580
800.742409 0.3580 0.3580 0.3590 0.3590 0.3580
803.990673 0.3580 0.3580 0.3570 0.3560 0.3550
807.238938 0.3530 0.3480 0.3410 0.3350 0.3260
810.487203 0.3130 0.3020 0.2890 0.2770 0.2690
813.735467 0.2620 0.2490 0.2430 0.2390 0.2380
816.983732 0.2390 0.2719 0.2860 0.3418 0.3858
820.231997 0.4070 0.4190 0.4270 0.4320 0.4450
823.480261 0.4470 0.4530 0.4560 0.4640 0.4660
826.728526 0.4720 0.4750 0.4780 0.4840 0.4900
829.976791 0.4950 0.4990 0.5040 0.5060 0.5080
833.225055 0.5100 0.5140 0.5150 0.5170 0.5200
836.473320 0.5240 0.5240 0.5260 0.5290 0.5320
839.721585 0.5350 0.5360 0.5370 0.5380 0.5400
842.969849 0.5420 0.5440 0.5450 0.5450 0.5460
846.218114 0.5470 0.5490 0.5510 0.5530 0.5540
849.466379 0.5570 0.5600 0.5610 0.5620 0.5620
852.714643 0.5640 0.5660 0.5670 0.5680 0.5700
855.962908 0.5710 0.5730 0.5740 0.5760 0.5770
859.211173 0.5790 0.5800 0.5840 0.5840 0.5850
862.459437 0.5870 0.5870 0.5900 0.5900 0.5940
865.707702 0.5940 0.5950 0.5960 0.5960 0.5970
868.955967 0.5980 0.6030 0.6050 0.6060 0.6070
872.204231 0.6080 0.6090 0.6100 0.6110 0.6120
875.452496 0.6130 0.6140 0.6160 0.6170 0.6190
878.700761 0.6200 0.6230 0.6240 0.6250 0.6250
881.949025 0.6260 0.6270 0.6270 0.6270 0.6280
885.197290 0.6290 0.6300 0.6300 0.6310 0.6320
888.445555 0.6340 0.6340 0.6350 0.6360 0.6370
891.693819 0.6370 0.6370 0.6380 0.6390 0.6390
894.942084 0.6410 0.6430 0.6430 0.6440 0.6450
898.190349 0.6460 0.6460 0.6460 0.6470 0.6470
901.438613 0.6470 0.6480 0.6480 0.6480 0.6480
904.686878 0.6490 0.6490 0.6500 0.6500 0.6500
907.935143 0.6500 0.6510 0.6510 0.6520 0.6520
911.183407 0.6520 0.6520 0.6520 0.6520 0.6520
914.431672 0.6520 0.6520 0.6520 0.6520 0.6530
917.679937 0.6530 0.6530 0.6540 0.6540 0.6540
920.928201 0.6540 0.6540 0.6550 0.6550 0.6550
924.176466 0.6550 0.6560 0.6560 0.6570 0.6570
927.424730 0.6570 0.6570 0.6580 0.6580 0.6590
930.672995 0.6590 0.6590 0.6590 0.6590 0.6590
933.921260 0.6590 0.6590 0.6600 0.6600 0.6600
937.169524 0.6600 0.6600 0.6610 0.6610 0.6610
940.417789 0.6610 0.6610 0.6610 0.6610 0.6600
943.666054 0.6600 0.6600 0.6600 0.6600 0.6590
946.914318 0.6590 0.6580 0.6580 0.6570 0.6570
950.162583 0.6570 0.6570 0.6560 0.6560 0.6550
953.410848 0.6550 0.6550 0.6550 0.6550 0.6540
956.659112 0.6540 0.6540 0.6530 0.6520 0.6510
959.907377 0.6500 0.6500 0.6490 0.6480 0.6480
963.155642 0.6470 0.6470 0.6460 0.6460 0.6450
966.403906 0.6450 0.6430 0.6430 0.6410 0.6410
969.652171 0.6390 0.6380 0.6370 0.6370 0.6360
972.900436 0.6360 0.6340 0.6340 0.6320 0.6310
976.148700 0.6300 0.6290 0.6270 0.6260 0.6240
979.396965 0.6200 0.6160 0.6140 0.6120 0.6110
982.645230 0.6100 0.6090 0.6080 0.6070 0.6070
985.893494 0.6000 0.5960 0.5940 0.5890 0.5850
989.141759 0.5760 0.5690 0.5620 0.5510 0.5261
992.390024 0.4871 0.3993 0.3880 0.3880 0.3999
995.638288 0.4020 0.4450 0.4640 0.4670 0.4660
998.886553 0.4630 0.4590 0.4191 0.3771 0.3182
1002.134818 0.2640 0.2430 0.2001 0.1800 0.1710
1005.383082 0.1391 0.1081 0.0761 0.0441 0.0430
1008.631347 0.0440 0.0540 0.1130 0.1480 0.1800
1011.879612 0.2259 0.3178 0.3848 0.4418 0.4838
1015.127876 0.5330 0.5760 0.6020 0.6270 0.6400
1018.376141 0.6560 0.6680 0.6740 0.6810 0.6840
1021.624406 0.6860 0.6920 0.6930 0.6960 0.6970
1024.872670 0.6990 0.7000 0.7010 0.7020 0.7020
1028.120935 0.7020 0.7010 0.7000 0.7000 0.7000
1031.369200 0.7000 0.6990 0.6990 0.6990 0.6990
1034.617464 0.6970 0.6970 0.6970 0.6970 0.6960
1037.865729 0.6950 0.6950 0.6930 0.6930 0.6920
1041.113994 0.6910 0.6910 0.6900 0.6900 0.6900
1044.362258 0.6890 0.6890 0.6880 0.6870 0.6860
1047.610523 0.6840 0.6830 0.6820 0.6810 0.6810
1050.858787 0.6790 0.6790 0.6780 0.6770 0.6770
1054.107052 0.6760 0.6750 0.6750 0.6740 0.6730
1057.355317 0.6710 0.6690 0.6680 0.6670 0.6670
1060.603581 0.6660 0.6660 0.6640 0.6640 0.6630
1063.851846 0.6610 0.6610 0.6610 0.6600 0.6590
1067.100111 0.6590 0.6590 0.6580 0.6580 0.6570
1070.348375 0.6570 0.6570 0.6570 0.6570 0.6560
1073.596640 0.6550 0.6550 0.6540 0.6530 0.6530
1076.844905 0.6520 0.6520 0.6520 0.6510 0.6500
1080.093169 0.6500 0.6500 0.6500 0.6500 0.6490
1083.341434 0.6490 0.6480 0.6470 0.6470 0.6460
1086.589699 0.6450 0.6440 0.6410 0.6390 0.6370
1089.837963 0.6360 0.6350 0.6340 0.6340 0.6330
1093.086228 0.6320 0.6320 0.6300 0.6290 0.6270
1096.334493 0.6230 0.6200 0.6170 0.6150 0.6130
1099.582757 0.6110 0.6100 0.6090 0.6070 0.6060
1102.831022 0.6050 0.6030 0.6010 0.6000 0.5980
1106.079287 0.5960 0.5920 0.5900 0.5870 0.5830
1109.327551 0.5810 0.5780 0.5760 0.5750 0.5720
1112.575816 0.5680 0.5650 0.5630 0.5580 0.5570
1115.824081 0.5540 0.5470 0.5450 0.5440 0.5390
1119.072345 0.5360 0.5340 0.5310 0.5290 0.5270
1122.320610 0.5260 0.5240 0.5220 0.5200 0.5180
1125.568875 0.5180 0.5150 0.5110 0.5090 0.5050
1128.817139 0.4990 0.4960 0.4900 0.4840 0.4800
1132.065404 0.4760 0.4720 0.4630 0.4570 0.4520
1135.313669 0.4460 0.4370 0.4250 0.4170 0.4011
1138.561933 0.3830 0.3740 0.3640 0.3560 0.3460
1141.810198 0.3260 0.3110 0.2970 0.2850 0.2720
1145.058463 0.2610 0.2430 0.2230 0.2030 0.1810
1148.306727 0.1630 0.1381 0.1131 0.0990 0.0860
1151.554992 0.0740 0.0630 0.0540 0.0460 0.0400
1154.803257 0.0340 0.0290 0.0250 0.0220 0.0190
1158.051521 0.0160 0.0130 0.0120 0.0110 0.0100
1161.299786 0.0100 0.0110 0.0110 0.0130 0.0180
1164.548051 0.0220 0.0320 0.0470 0.0680 0.0930
1167.796315 0.1240 0.1600 0.2009 0.2459 0.2969
1171.044580 0.3290 0.3710 0.3970 0.4230 0.4480
1174.292845 0.4730 0.4960 0.5179 0.5399 0.5589
1177.541109 0.5760 0.5920 0.6060 0.6170 0.6260
1180.789374 0.6320 0.6360 0.6370 0.6410 0.6420
1184.037638 0.6440 0.6450 0.6450 0.6440 0.6420
1187.285903 0.6400 0.6340 0.6270 0.6180 0.6100
1190.534168 0.6030 0.5940 0.5870 0.5790 0.5710
1193.782432 0.5630 0.5550 0.5470 0.5460 0.5470
1197.030697 0.5490 0.5540 0.5670 0.5760 0.6190
1200.278962 0.6410 0.6510 0.6580 0.6640 0.6670
1203.527226 0.6690 0.6700 0.6710 0.6710 0.6720
1206.775491 0.6720 0.6730 0.6730 0.6730 0.6730
1210.023756 0.6730 0.6730 0.6730 0.6730 0.6730
1213.272020 0.6730 0.6720 0.6720 0.6720 0.6720
1216.520285 0.6710 0.6710 0.6710 0.6700 0.6700
1219.768550 0.6700 0.6700 0.6690 0.6690 0.6690
1223.016814 0.6690 0.6680 0.6680 0.6680 0.6680
1226.265079 0.6670 0.6660 0.6650 0.6640 0.6630
1229.513344 0.6630 0.6610 0.6600 0.6590 0.6570
1232.761608 0.6560 0.6550 0.6540 0.6520 0.6500
1236.009873 0.6490 0.6470 0.6460 0.6450 0.6430
1239.258138 0.6390 0.6360 0.6340 0.6320 0.6300
1242.506402 0.6290 0.6280 0.6270 0.6260 0.6250
1245.754667 0.6240 0.6210 0.6180 0.6150 0.6120
1249.002932 0.6090 0.6060 0.6040 0.6020 0.6000
1252.251196 0.5980 0.5970 0.5950 0.5930 0.5920
1255.499461 0.5890 0.5870 0.5840 0.5780 0.5760
1258.747726 0.5710 0.5670 0.5630 0.5600 0.5570
1261.995990 0.5540 0.5490 0.5460 0.5440 0.5380
1265.244255 0.5360 0.5340 0.5280 0.5240 0.5170
1268.492520 0.5140 0.5020 0.4960 0.4930 0.4900
1271.740784 0.4840 0.4780 0.4720 0.4660 0.4600
1274.989049 0.4550 0.4510 0.4430 0.4340 0.4240
1278.237314 0.4140 0.4040 0.3940 0.3830 0.3730
1281.485578 0.3630 0.3550 0.3450 0.3320 0.3210
1284.733843 0.3060 0.3020 0.2860 0.2681 0.2481
1287.982108 0.2280 0.2150 0.2090 0.2030 0.2000
1291.230372 0.1940 0.1900 0.1760 0.1720 0.1670
1294.478637 0.1660 0.1620 0.1600 0.1600 0.1600
1297.726902 0.1600 0.1610 0.1630 0.1670 0.1710
1300.975166 0.1780 0.1840 0.1890 0.1940 0.1980
1304.223431 0.2020 0.2050 0.2090 0.2120 0.2120
1307.471695 0.2130 0.2140 0.2120 0.2100 0.2070
1310.719960 0.2050 0.2060 0.2080 0.2090 0.2140
1313.968225 0.2270 0.2370 0.2430 0.2480 0.2590
1317.216489 0.2700 0.2770 0.2830 0.2930 0.3020
1320.464754 0.3080 0.3130 0.3180 0.3240 0.3310
1323.713019 0.3360 0.3440 0.3500 0.3570 0.3650
1326.961283 0.3720 0.3800 0.3880 0.3960 0.4050
1330.209548 0.4130 0.4160 0.4190 0.4230 0.4270
1333.457813 0.4320 0.4360 0.4400 0.4430 0.4460
1336.706077 0.4510 0.4550 0.4590 0.4630 0.4660
1339.954342 0.4690 0.4710 0.4730 0.4750 0.4760
1343.202607 0.4770 0.4780 0.4790 0.4790 0.4790
1346.450871 0.4790 0.4800 0.4800 0.4790 0.4790
1349.699136 0.4780 0.4780 0.4770 0.4770 0.4740
1352.947401 0.4720 0.4690 0.4670 0.4640 0.4620
1356.195665 0.4590 0.4550 0.4500 0.4450 0.4380
1359.443930 0.4300 0.4210 0.4160 0.4130 0.4120
1362.692195 0.4100 0.4100 0.4100 0.4100 0.4100
1365.940459 0.4100 0.4100 0.4090 0.4080 0.4010
1369.188724 0.3970 0.3870 0.3760 0.3640 0.3530
1372.436989 0.3380 0.3320 0.3310 0.3300 0.3310
1375.685253 0.3320 0.3380 0.3410 0.3440 0.3450
1378.933518 0.3450 0.3460 0.3460 0.3460 0.3450
1382.181783 0.3450 0.3440 0.3420 0.3400 0.3400
1385.430047 0.3380 0.3350 0.3310 0.3280 0.3250
1388.678312 0.3220 0.3180 0.3130 0.3050 0.3000
1391.926577 0.2980 0.2970 0.2930 0.2910 0.2900
1395.174841 0.2870 0.2860 0.2850 0.2820 0.2760
1398.423106 0.2720 0.2680 0.2600 0.2540 0.2480
1401.671371 0.2440 0.2400 0.2360 0.2320 0.2260
1404.919635 0.2190 0.2100 0.2080 0.2030 0.2000
1408.167900 0.1980 0.1960 0.1930 0.1910 0.1890
1411.416165 0.1870 0.1830 0.1820 0.1810 0.1810
1414.664429 0.1800 0.1790 0.1780 0.1780 0.1780
1417.912694 0.1780 0.1790 0.1800 0.1830 0.1870
1421.160959 0.1900 0.1920 0.1950 0.1980 0.2000
1424.409223 0.2010 0.2030 0.2080 0.2110 0.2140
1427.657488 0.2210 0.2280 0.2340 0.2390 0.2450
1430.905753 0.2480 0.2530 0.2560 0.2590 0.2630
1434.154017 0.2650 0.2680 0.2700 0.2730 0.2760
1437.402282 0.2790 0.2810 0.2840 0.2880 0.2910
1440.650546 0.2950 0.2950 0.2960 0.2970 0.2970
1443.898811 0.2970 0.2970 0.2970 0.2970 0.2980
1447.147076 0.2980 0.2970 0.2970 0.2970 0.2950
1450.395340 0.2910 0.2880 0.2860 0.2840 0.2810
1453.643605 0.2790 0.2770 0.2750 0.2730 0.2720
1456.891870 0.2710 0.2700 0.2700 0.2700 0.2700
1460.140134 0.2700 0.2700 0.2710 0.2720 0.2720
1463.388399 0.2730 0.2740 0.2750 0.2790 0.2820
1466.636664 0.2880 0.2950 0.3050 0.3110 0.3130
1469.884928 0.3270 0.3290 0.3300 0.3310 0.3310
1473.133193 0.3310 0.3310 0.3310 0.3300 0.3290
1476.381458 0.3290 0.3240 0.3130 0.3020 0.2930
1479.629722 0.2840 0.2770 0.2690 0.2630 0.2560
1482.877987 0.2500 0.2430 0.2360 0.2290 0.2210
1486.126252 0.2120 0.1960 0.1800 0.1650 0.1530
1489.374516 0.1400 0.1290 0.1190 0.1100 0.1020
1492.622781 0.0950 0.0880 0.0820 0.0770 0.0740
1495.871046 0.0730 0.0720 0.0720 0.0730 0.0740
1499.119310 0.0770 0.0830 0.1100 0.1220 0.1310
1502.367575 0.1390 0.1450 0.1520 0.1580 0.1630
1505.615840 0.1680 0.1740 0.1800 0.1870 0.1960
1508.864104 0.2070 0.2160 0.2230 0.2300 0.2360
1512.112369 0.2420 0.2470 0.2520 0.2570 0.2630
1515.360634 0.2680 0.2740 0.2750 0.2760 0.2770
1518.608898 0.2790 0.2780 0.2770 0.2770 0.2740
1521.857163 0.2710 0.2660 0.2610 0.2550 0.2500
1525.105428 0.2460 0.2420 0.2390 0.2340 0.2280
1528.353692 0.2230 0.2190 0.2160 0.2130 0.2120
1531.601957 0.2100 0.2080 0.2070 0.2070 0.2070
1534.850222 0.2080 0.2110 0.2140 0.2270 0.2420
1538.098486 0.2710 0.3040 0.3330 0.3580 0.3790
1541.346751 0.3970 0.4120 0.4250 0.4360 0.4460
1544.595016 0.4540 0.4630 0.4700 0.4790 0.4880
1547.843280 0.4930 0.5040 0.5080 0.5090 0.5100
1551.091545 0.5110 0.5110 0.5120 0.5130 0.5130
1554.339810 0.5130 0.5130 0.5120 0.5120 0.5110
1557.588074 0.5110 0.5100 0.5090 0.5070 0.5050
1560.836339 0.5020 0.5000 0.4990 0.4970 0.4970
1564.084603 0.4960 0.4940 0.4920 0.4900 0.4860
1567.332868 0.4810 0.4730 0.4700 0.4650 0.4610
1570.581133 0.4570 0.4530 0.4490 0.4450 0.4410
1573.829397 0.4370 0.4320 0.4280 0.4240 0.4190
1577.077662 0.4140 0.4100 0.4050 0.4000 0.3940
1580.325927 0.3890 0.3820 0.3760 0.3720 0.3690
1583.574191 0.3640 0.3600 0.3540 0.3490 0.3430
1586.822456 0.3360 0.3300 0.3240 0.3170 0.3090
1590.070721 0.3020 0.2940 0.2860 0.2780 0.2700
1593.318985 0.2620 0.2540 0.2450 0.2370 0.2290
1596.567250 0.2210 0.2120 0.2040 0.1960 0.1810
1599.815515 0.1680 0.1560 0.1480 0.1420 0.1370
1603.063779 0.1350 0.1290 0.1240 0.1180 0.1130
1606.312044 0.1070 0.1020 0.0970 0.0930 0.0890
1609.560309 0.0850 0.0820 0.0770 0.0750 0.0740
1612.808573 0.0730 0.0730 0.0730 0.0720 0.0720
1616.056838 0.0720 0.0720 0.0720 0.0720 0.0730
1619.305103 0.0740 0.0760 0.0780 0.0810 0.0820
1622.553367 0.0830 0.0840 0.0840 0.0840 0.0850
1625.801632 0.0860 0.0860 0.0860 0.0870 0.0880
1629.049897 0.0880 0.0880 0.0890 0.0900 0.0910
1632.298161 0.0930 0.0990 0.1020 0.1050 0.1090
1635.546426 0.1140 0.1220 0.1330 0.1500 0.1709
1638.794691 0.1820 0.2011 0.2290 0.2530 0.2740
1642.042955 0.2920 0.3090 0.3240 0.3370 0.3490
1645.291220 0.3600 0.3710 0.3820 0.3930 0.4080
1648.539485 0.4200 0.4300 0.4380 0.4450 0.4490
1651.787749 0.4530 0.4550 0.4570 0.4590 0.4610
1655.036014 0.4620 0.4640 0.4670 0.4700 0.4740
1658.284279 0.4770 0.4800 0.4840 0.4880 0.4910
1661.532543 0.4930 0.4950 0.4970 0.5000 0.5010
1664.780808 0.5030 0.5050 0.5080 0.5090 0.5120
1668.029073 0.5150 0.5170 0.5200 0.5230 0.5250
1671.277337 0.5260 0.5280 0.5290 0.5310 0.5320
1674.525602 0.5330 0.5350 0.5360 0.5380 0.5390
1677.773867 0.5400 0.5430 0.5480 0.5490 0.5510
1681.022131 0.5520 0.5530 0.5530 0.5540 0.5550
1684.270396 0.5560 0.5580 0.5590 0.5620 0.5630
1687.518661 0.5670 0.5690 0.5710 0.5720 0.5740
1690.766925 0.5760 0.5770 0.5780 0.5780 0.5790
1694.015190 0.5800 0.5800 0.5810 0.5810 0.5830
1697.263454 0.5840 0.5850 0.5870 0.5890 0.5910
1700.511719 0.5920 0.5940 0.5950 0.5970 0.5980
1703.759984 0.6000 0.6010 0.6020 0.6040 0.6050
1707.008248 0.6070 0.6090 0.6100 0.6120 0.6140
1710.256513 0.6180 0.6200 0.6220 0.6250 0.6260
1713.504778 0.6280 0.6290 0.6310 0.6320 0.6340
1716.753042 0.6360 0.6380 0.6400 0.6450 0.6480
1720.001307 0.6520 0.6550 0.6570 0.6570 0.6600
1723.249572 0.6630 0.6640 0.6660 0.6680 0.6690
1726.497836 0.6710 0.6730 0.6750 0.6770 0.6800
1729.746101 0.6820 0.6840 0.6860 0.6870 0.6890
1732.994366 0.6900 0.6910 0.6920 0.6930 0.6940
1736.242630 0.6950 0.6960 0.6970 0.6980 0.6990
1739.490895 0.6990 0.7000 0.7000 0.7000 0.7000
1742.739160 0.7010 0.7010 0.7010 0.7010 0.7010
1745.987424 0.7010 0.7010 0.7010 0.7010 0.7000
1749.235689 0.7000 0.7000 0.7000 0.6990 0.6990
1752.483954 0.6980 0.6970 0.6960 0.6950 0.6950
1755.732218 0.6940 0.6930 0.6930 0.6930 0.6920
1758.980483 0.6920 0.6920 0.6920 0.6930 0.6930
1762.228748 0.6930 0.6940 0.6950 0.6950 0.6960
1765.477012 0.6970 0.7000 0.7020 0.7060 0.7090
1768.725277 0.7130 0.7150 0.7180 0.7200 0.7220
1771.973542 0.7240 0.7260 0.7280 0.7290 0.7310
1775.221806 0.7330 0.7340 0.7350 0.7360 0.7380
1778.470071 0.7380 0.7390 0.7390 0.7400 0.7400
1781.718336 0.7400 0.7410 0.7420 0.7420 0.7420
1784.966600 0.7430 0.7430 0.7430 0.7430 0.7430
1788.214865 0.7440 0.7440 0.7440 0.7440 0.7440
1791.463130 0.7440 0.7440 0.7440 0.7450 0.7450
1794.711394 0.7450 0.7450 0.7450 0.7450 0.7450
1797.959659 0.7450 0.7450 0.7450 0.7450 0.7450
1801.207924 0.7450 0.7450 0.7450 0.7460 0.7460
1804.456188 0.7460 0.7460 0.7460 0.7460 0.7460
1807.704453 0.7460 0.7470 0.7470 0.7470 0.7470
1810.952718 0.7470 0.7470 0.7470 0.7470 0.7470
1814.200982 0.7470 0.7470 0.7470 0.7470 0.7470
1817.449247 0.7470 0.7470 0.7470 0.7470 0.7470
1820.697511 0.7470 0.7470 0.7470 0.7470 0.7470
1823.945776 0.7470 0.7470 0.7470 0.7470 0.7470
1827.194041 0.7470 0.7480 0.7480 0.7480 0.7480
1830.442305 0.7480 0.7480 0.7480 0.7480 0.7490
1833.690570 0.7490 0.7490 0.7490 0.7500 0.7500
1836.938835 0.7510 0.7510 0.7510 0.7510 0.7520
1840.187099 0.7520 0.7530 0.7530 0.7530 0.7530
1843.435364 0.7530 0.7540 0.7540 0.7540 0.7540
1846.683629 0.7540 0.7540 0.7540 0.7540 0.7530
1849.931893 0.7530 0.7520 0.7510 0.7510 0.7510
1853.180158 0.7510 0.7510 0.7510 0.7510 0.7500
1856.428423 0.7500 0.7500 0.7500 0.7500 0.7500
1859.676687 0.7490 0.7490 0.7490 0.7490 0.7490
1862.924952 0.7480 0.7480 0.7480 0.7470 0.7470
1866.173217 0.7470 0.7470 0.7460 0.7450 0.7450
1869.421481 0.7440 0.7440 0.7440 0.7430 0.7430
1872.669746 0.7420 0.7420 0.7420 0.7410 0.7410
1875.918011 0.7400 0.7400 0.7400 0.7400 0.7400
1879.166275 0.7390 0.7390 0.7390 0.7390 0.7390
1882.414540 0.7390 0.7390 0.7390 0.7380 0.7380
1885.662805 0.7380 0.7380 0.7380 0.7380 0.7380
1888.911069 0.7380 0.7380 0.7390 0.7390 0.7390
1892.159334 0.7390 0.7390 0.7390 0.7390 0.7390
1895.407599 0.7390 0.7390 0.7400 0.7400 0.7400
1898.655863 0.7400 0.7400 0.7400 0.7400 0.7400
1901.904128 0.7400 0.7400 0.7400 0.7400 0.7400
1905.152393 0.7400 0.7400 0.7400 0.7400 0.7410
1908.400657 0.7410 0.7410 0.7410 0.7410 0.7410
1911.648922 0.7410 0.7410 0.7410 0.7410 0.7420
1914.897187 0.7420 0.7420 0.7420 0.7420 0.7420
1918.145451 0.7420 0.7420 0.7420 0.7420 0.7420
1921.393716 0.7420 0.7420 0.7420 0.7420 0.7420
1924.641981 0.7420 0.7420 0.7420 0.7420 0.7420
1927.890245 0.7420 0.7420 0.7420 0.7420 0.7420
1931.138510 0.7420 0.7420 0.7420 0.7420 0.7420
1934.386775 0.7420 0.7420 0.7420 0.7420 0.7420
1937.635039 0.7420 0.7420 0.7420 0.7420 0.7420
1940.883304 0.7420 0.7420 0.7420 0.7420 0.7420
1944.131569 0.7420 0.7410 0.7410 0.7410 0.7410
1947.379833 0.7410 0.7410 0.7410 0.7410 0.7410
1950.628098 0.7410 0.7410 0.7410 0.7410 0.7410
1953.876362 0.7400 0.7400 0.7400 0.7400 0.7400
1957.124627 0.7400 0.7400 0.7400 0.7400 0.7400
1960.372892 0.7400 0.7400 0.7400 0.7400 0.7400
1963.621156 0.7400 0.7400 0.7390 0.7390 0.7390
1966.869421 0.7390 0.7390 0.7390 0.7380 0.7380
1970.117686 0.7380 0.7380 0.7380 0.7380 0.7370
1973.365950 0.7370 0.7360 0.7360 0.7360 0.7360
1976.614215 0.7360 0.7360 0.7350 0.7350 0.7350
1979.862480 0.7350 0.7350 0.7340 0.7340 0.7340
1983.110744 0.7330 0.7330 0.7330 0.7330 0.7330
1986.359009 0.7330 0.7330 0.7320 0.7320 0.7310
1989.607274 0.7310 0.7300 0.7290 0.7290 0.7290
1992.855538 0.7290 0.7280 0.7270 0.7270 0.7270
1996.103803 0.7260 0.7260 0.7260 0.7250 0.7240
1999.352068 0.7220 0.7210 0.7207 0.7205 0.7202
2002.600332 0.7199 0.7189 0.7179 0.7169 0.7160
2005.848597 0.7157 0.7155 0.7152 0.7149 0.7144
2009.096862 0.7139 0.7134 0.7129 0.7127 0.7124
2012.345126 0.7122 0.7118 0.7113 0.7108 0.7103
2015.593391 0.7099 0.7096 0.7094 0.7091 0.7087
2018.841656 0.7082 0.7077 0.7072 0.7069 0.7066
2022.089920 0.7063 0.7061 0.7060 0.7060 0.7060
2025.338185 0.7060 0.7060 0.7060 0.7060 0.7060
2028.586450 0.7062 0.7065 0.7067 0.7070 0.7072
2031.834714 0.7075 0.7077 0.7080 0.7083 0.7085
2035.082979 0.7088 0.7090 0.7095 0.7101 0.7106
2038.331244 0.7110 0.7113 0.7115 0.7118 0.7122
2041.579508 0.7129 0.7137 0.7145 0.7152 0.7160
2044.827773 0.7168 0.7175 0.7182 0.7187 0.7192
2048.076038 0.7197 0.7201 0.7204 0.7206 0.7209
2051.324302 0.7211 0.7214 0.7217 0.7219 0.7220
2054.572567 0.7220 0.7220 0.7220 0.7220 0.7220
2057.820832 0.7220 0.7220 0.7220 0.7220 0.7220
2061.069096 0.7220 0.7222 0.7225 0.7227 0.7230
2064.317361 0.7230 0.7230 0.7230 0.7230 0.7230
2067.565626 0.7230 0.7230 0.7230 0.7230 0.7230
2070.813890 0.7230 0.7230 0.7233 0.7235 0.7238
2074.062155 0.7240 0.7240 0.7240 0.7240 0.7240
2077.310419 0.7240 0.7240 0.7240 0.7240 0.7240
2080.558684 0.7240 0.7240 0.7240 0.7240 0.7240
2083.806949 0.7240 0.7240 0.7240 0.7240 0.7240
2087.055213 0.7240 0.7240 0.7240 0.7240 0.7240
2090.303478 0.7240 0.7240 0.7240 0.7240 0.7240
2093.551743 0.7240 0.7240 0.7240 0.7240 0.7240
2096.800007 0.7240 0.7240 0.7240 0.7240 0.7240
2100.048272 0.7240 0.7240 0.7240 0.7240 0.7237
2103.296537 0.7235 0.7232 0.7230 0.7230 0.7230
2106.544801 0.7230 0.7230 0.7230 0.7230 0.7230
2109.793066 0.7229 0.7227 0.7224 0.7221 0.7220
2113.041331 0.7220 0.7220 0.7220 0.7220 0.7220
2116.289595 0.7220 0.7220 0.7220 0.7220 0.7220
2119.537860 0.7220 0.7220 0.7220 0.7220 0.7220
2122.786125 0.7218 0.7216 0.7213 0.7211 0.7210
2126.034389 0.7210 0.7210 0.7210 0.7210 0.7210
2129.282654 0.7210 0.7210 0.7207 0.7205 0.7202
2132.530919 0.7200 0.7200 0.7200 0.7200 0.7200
2135.779183 0.7200 0.7200 0.7200 0.7200 0.7200
2139.027448 0.7200 0.7200 0.7200 0.7200 0.7200
2142.275713 0.7200 0.7199 0.7197 0.7194 0.7191
2145.523977 0.7189 0.7186 0.7184 0.7181 0.7180
2148.772242 0.7180 0.7180 0.7180 0.7180 0.7180
2152.020507 0.7180 0.7180 0.7180 0.7180 0.7180
2155.268771 0.7180 0.7178 0.7175 0.7173 0.7170
2158.517036 0.7170 0.7170 0.7170 0.7170 0.7170
2161.765301 0.7170 0.7170 0.7170 0.7167 0.7165
2165.013565 0.7162 0.7160 0.7157 0.7155 0.7152
2168.261830 0.7150 0.7150 0.7150 0.7150 0.7149
2171.510095 0.7144 0.7139 0.7134 0.7129 0.7123
2174.758359 0.7118 0.7113 0.7109 0.7107 0.7104
2178.006624 0.7101 0.7099 0.7096 0.7094 0.7091
2181.254889 0.7087 0.7082 0.7077 0.7072 0.7068
2184.503153 0.7066 0.7063 0.7061 0.7056 0.7051
2187.751418 0.7046 0.7041 0.7038 0.7035 0.7033
2190.999683 0.7030 0.7028 0.7025 0.7023 0.7020
2194.247947 0.7015 0.7010 0.7005 0.7000 0.6997
2197.496212 0.6995 0.6992 0.6990 0.6987 0.6985
2200.744477 0.6982 0.6980 0.6977 0.6974 0.6972
2203.992741 0.6969 0.6967 0.6964 0.6962 0.6959
2207.241006 0.6957 0.6954 0.6952 0.6949 0.6946
2210.489270 0.6944 0.6941 0.6939 0.6936 0.6934
2213.737535 0.6931 0.6927 0.6922 0.6917 0.6912
2216.985800 0.6908 0.6906 0.6903 0.6901 0.6900
2220.234064 0.6900 0.6900 0.6900 0.6898 0.6895
2223.482329 0.6893 0.6890 0.6888 0.6885 0.6883
2226.730594 0.6880 0.6878 0.6875 0.6872 0.6870
2229.978858 0.6867 0.6865 0.6862 0.6860 0.6860
2233.227123 0.6860 0.6860 0.6860 0.6857 0.6854
2236.475388 0.6852 0.6849 0.6847 0.6844 0.6842
2239.723652 0.6839 0.6837 0.6834 0.6832 0.6830
2242.971917 0.6830 0.6830 0.6830 0.6829 0.6826
2246.220182 0.6824 0.6821 0.6820 0.6820 0.6820
2249.468446 0.6820 0.6820 0.6820 0.6820 0.6820
2252.716711 0.6820 0.6820 0.6820 0.6820 0.6820
2255.964976 0.6820 0.6820 0.6820 0.6818 0.6815
2259.213240 0.6813 0.6810 0.6810 0.6810 0.6810
2262.461505 0.6810 0.6810 0.6810 0.6810 0.6810
2265.709770 0.6810 0.6810 0.6810 0.6810 0.6810
2268.958034 0.6810 0.6810 0.6809 0.6807 0.6804
2272.206299 0.6802 0.6799 0.6797 0.6794 0.6791
2275.454564 0.6789 0.6786 0.6784 0.6781 0.6780
2278.702828 0.6780 0.6780 0.6780 0.6778 0.6776
2281.951093 0.6773 0.6771 0.6770 0.6770 0.6770
2285.199358 0.6770 0.6768 0.6766 0.6763 0.6760
2288.447622 0.6760 0.6760 0.6760 0.6760 0.6758
2291.695887 0.6755 0.6753 0.6750 0.6750 0.6750
2294.944152 0.6750 0.6750 0.6745 0.6740 0.6734
2298.192416 0.6730 0.6727 0.6725 0.6722 0.6719
2301.440681 0.6711 0.6703 0.6696 0.6688 0.6680
2304.688946 0.6672 0.6665 0.6656 0.6646 0.6636
2307.937210 0.6625 0.6616 0.6609 0.6601 0.6594
2311.185475 0.6587 0.6582 0.6577 0.6572 0.6568
2314.433740 0.6566 0.6563 0.6561 0.6558 0.6556
2317.682004 0.6553 0.6551 0.6550 0.6550 0.6550
2320.930269 0.6550 0.6550 0.6550 0.6550 0.6550
2324.178534 0.6550 0.6550 0.6550 0.6550 0.6550
2327.426798 0.6550 0.6550 0.6550 0.6550 0.6550
2330.675063 0.6550 0.6550 0.6550 0.6550 0.6550
2333.923327 0.6550 0.6550 0.6550 0.6550 0.6549
2337.171592 0.6547 0.6544 0.6542 0.6540 0.6540
2340.419857 0.6540 0.6540 0.6540 0.6540 0.6540
2343.668121 0.6540 0.6540 0.6540 0.6540 0.6540
2346.916386 0.6540 0.6540 0.6540 0.6540 0.6540
2350.164651 0.6540 0.6540 0.6540 0.6540 0.6540
2353.412915 0.6540 0.6540 0.6540 0.6540 0.6540
2356.661180 0.6540 0.6538 0.6535 0.6532 0.6530
2359.909445 0.6530 0.6530 0.6530 0.6530 0.6527
2363.157709 0.6525 0.6522 0.6519 0.6514 0.6509
2366.405974 0.6504 0.6499 0.6497 0.6494 0.6492
2369.654239 0.6488 0.6483 0.6478 0.6473 0.6469
2372.902503 0.6466 0.6464 0.6461 0.6460 0.6460
2376.150768 0.6460 0.6460 0.6459 0.6456 0.6454
2379.399033 0.6451 0.6450 0.6450 0.6450 0.6450
2382.647297 0.6450 0.6450 0.6450 0.6450 0.6448
2385.895562 0.6445 0.6443 0.6440 0.6440 0.6440
2389.143827 0.6440 0.6440 0.6438 0.6435 0.6432
2392.392091 0.6430 0.6430 0.6430 0.6430 0.6430
2395.640356 0.6430 0.6430 0.6430 0.6430 0.6430
2398.888621 0.6430 0.6430 0.6430 0.6430 0.6430
2402.136885 0.6430 0.6429 0.6427 0.6424 0.6422
2405.385150 0.6420 0.6420 0.6420 0.6420 0.6420
2408.633415 0.6420 0.6420 0.6420 0.6418 0.6416
2411.881679 0.6413 0.6411 0.6410 0.6410 0.6410
2415.129944 0.6410 0.6408 0.6406 0.6403 0.6400
2418.378209 0.6398 0.6395 0.6393 0.6390 0.6390
2421.626473 0.6390 0.6390 0.6390 0.6388 0.6385
2424.874738 0.6382 0.6380 0.6377 0.6375 0.6372
2428.123003 0.6370 0.6367 0.6365 0.6362 0.6360
2431.371267 0.6360 0.6360 0.6360 0.6358 0.6350
2434.619532 0.6342 0.6335 0.6328 0.6323 0.6318
2437.867797 0.6313 0.6309 0.6306 0.6304 0.6301
2441.116061 0.6297 0.6292 0.6287 0.6282 0.6275
2444.364326 0.6268 0.6260 0.6252 0.6247 0.6241
2447.612591 0.6236 0.6231 0.6226 0.6221 0.6216
2450.860855 0.6211 0.6208 0.6205 0.6203 0.6200
2454.109120 0.6198 0.6195 0.6193 0.6190 0.6185
2457.357385 0.6180 0.6175 0.6169 0.6162 0.6154
2460.605649 0.6146 0.6138 0.6128 0.6118 0.6108
2463.853914 0.6099 0.6097 0.6094 0.6092 0.6085
2467.102178 0.6070 0.6055 0.6039 0.6028 0.6023
2470.350443 0.6018 0.6013 0.6007 0.5999 0.5991
2473.598708 0.5984 0.5975 0.5964 0.5954 0.5944
2476.846972 0.5934 0.5924 0.5914 0.5903 0.5890
2480.095237 0.5874 0.5859 0.5844 0.5834 0.5826
2483.343502 0.5819 0.5811 0.5803 0.5796 0.5788
2486.591766 0.5780 0.5770 0.5760 0.5750 0.5740
2489.840031 0.5732 0.5725 0.5717 0.5710 0.5707
2493.088296 0.5705 0.5702 0.5700 0.5697 0.5694
2496.336560 0.5692 0.5689 0.5684 0.5679 0.5674
2499.584825 0.5668 0.5663 0.5658 0.5653 0.5648
2502.833090 0.5643 0.5638 0.5633 0.5630 0.5630
2506.081354 0.5630 0.5630 0.5629 0.5626 0.5623
2509.329619 0.5621 0.5617 0.5612 0.5606 0.5601
2512.577884 0.5598 0.5596 0.5593 0.5591 0.5588
2515.826148 0.5585 0.5583 0.5580 0.5582 0.5585
2519.074413 0.5587 0.5590 0.5592 0.5595 0.5598
2522.322678 0.5600 0.5610 0.5621 0.5631 0.5642
2525.570942 0.5662 0.5683 0.5703 0.5721 0.5729
2528.819207 0.5737 0.5744 0.5752 0.5763 0.5773
2532.067472 0.5783 0.5792 0.5797 0.5802 0.5807
2535.315736 0.5812 0.5817 0.5822 0.5827 0.5833
2538.564001 0.5838 0.5843 0.5848 0.5851 0.5854
2541.812266 0.5857 0.5859 0.5862 0.5864 0.5867
2545.060530 0.5869 0.5868 0.5866 0.5863 0.5860
2548.308795 0.5854 0.5846 0.5839 0.5831 0.5830
2551.557060 0.5830 0.5830 0.5830 0.5823 0.5815
2554.805324 0.5807 0.5800 0.5784 0.5769 0.5754
2558.053589 0.5739 0.5729 0.5718 0.5708 0.5699
2561.301854 0.5697 0.5694 0.5692 0.5683 0.5660
2564.550118 0.5637 0.5615 0.5598 0.5593 0.5588
2567.798383 0.5583 0.5570 0.5547 0.5524 0.5501
2571.046648 0.5485 0.5475 0.5464 0.5454 0.5443
2574.294912 0.5430 0.5417 0.5404 0.5397 0.5392
2577.543177 0.5386 0.5381 0.5374 0.5367 0.5359
2580.791442 0.5351 0.5340 0.5327 0.5314 0.5302
2584.039706 0.5289 0.5276 0.5263 0.5250 0.5242
2587.287971 0.5235 0.5227 0.5219 0.5201 0.5183
2590.536235 0.5165 0.5147 0.5127 0.5106 0.5086
2593.784500 0.5066 0.5048 0.5030 0.5013 0.4998
2597.032765 0.4993 0.4988 0.4983 0.4977 0.4970
2600.281029 0.4962 0.4954 0.4944 0.4932 0.4919
2603.529294 0.4906 0.4895 0.4885 0.4874 0.4864
2606.777559 0.4856 0.4848 0.4840 0.4833 0.4823
2610.025823 0.4813 0.4803 0.4792 0.4782 0.4772
2613.274088 0.4762 0.4751 0.4748 0.4745 0.4743
2616.522353 0.4740 0.4740 0.4740 0.4740 0.4740
2619.770617 0.4743 0.4745 0.4748 0.4750 0.4750
2623.018882 0.4750 0.4750 0.4750 0.4753 0.4755
2626.267147 0.4758 0.4761 0.4763 0.4766 0.4768
2629.515411 0.4772 0.4777 0.4782 0.4787 0.4790
2632.763676 0.4790 0.4790 0.4790 0.4792 0.4797
2636.011941 0.4803 0.4808 0.4811 0.4814 0.4817
2639.260205 0.4819 0.4823 0.4828 0.4833 0.4839
2642.508470 0.4840 0.4840 0.4840 0.4840 0.4846
2645.756735 0.4854 0.4861 0.4869 0.4877 0.4884
2649.004999 0.4892 0.4899 0.4900 0.4900 0.4900
2652.253264 0.4900 0.4900 0.4900 0.4900 0.4900
2655.501529 0.4900 0.4900 0.4900 0.4900 0.4900
2658.749793 0.4900 0.4900 0.4899 0.4897 0.4894
2661.998058 0.4892 0.4887 0.4880 0.4872 0.4864
2665.246323 0.4858 0.4853 0.4848 0.4843 0.4839
2668.494587 0.4836 0.4834 0.4831 0.4827 0.4822
2671.742852 0.4817 0.4812 0.4807 0.4802 0.4797
2674.991117 0.4791 0.4783 0.4773 0.4762 0.4752
2678.239381 0.4744 0.4736 0.4729 0.4721 0.4713
2681.487646 0.4706 0.4698 0.4690 0.4678 0.4665
2684.735911 0.4653 0.4640 0.4630 0.4619 0.4609
2687.984175 0.4599 0.4594 0.4589 0.4584 0.4579
2691.232440 0.4577 0.4574 0.4572 0.4569 0.4567
2694.480705 0.4564 0.4562 0.4560 0.4560 0.4560
2697.728969 0.4560 0.4561 0.4564 0.4566 0.4569
2700.977234 0.4570 0.4570 0.4570 0.4570 0.4571
2704.225499 0.4574 0.4577 0.4579 0.4582 0.4584
2707.473763 0.4587 0.4589 0.4590 0.4590 0.4590
2710.722028 0.4590 0.4594 0.4599 0.4604 0.4610
2713.970293 0.4615 0.4620 0.4625 0.4630 0.4630
2717.218557 0.4630 0.4630 0.4630 0.4635 0.4641
2720.466822 0.4646 0.4651 0.4659 0.4666 0.4674
2723.715086 0.4681 0.4683 0.4686 0.4688 0.4692
2726.963351 0.4700 0.4707 0.4715 0.4724 0.4734
2730.211616 0.4744 0.4754 0.4762 0.4767 0.4772
2733.459880 0.4777 0.4781 0.4784 0.4786 0.4789
2736.708145 0.4791 0.4794 0.4797 0.4799 0.4802
2739.956410 0.4804 0.4807 0.4809 0.4814 0.4819
2743.204674 0.4824 0.4829 0.4832 0.4835 0.4837
2746.452939 0.4840 0.4849 0.4860 0.4870 0.4880
2749.701204 0.4880 0.4880 0.4880 0.4880 0.4880
2752.949468 0.4880 0.4880 0.4880 0.4883 0.4885
2756.197733 0.4888 0.4890 0.4890 0.4890 0.4890
2759.445998 0.4889 0.4883 0.4878 0.4873 0.4867
2762.694262 0.4859 0.4852 0.4844 0.4836 0.4829
2765.942527 0.4821 0.4813 0.4807 0.4802 0.4797
2769.190792 0.4792 0.4788 0.4786 0.4783 0.4781
2772.439056 0.4773 0.4763 0.4752 0.4742 0.4732
2775.687321 0.4722 0.4712 0.4702 0.4696 0.4691
2778.935586 0.4686 0.4680 0.4666 0.4651 0.4635
2782.183850 0.4620 0.4615 0.4610 0.4605 0.4600
2785.432115 0.4597 0.4595 0.4592 0.4587 0.4569
2788.680380 0.4551 0.4533 0.4517 0.4507 0.4497
2791.928644 0.4487 0.4474 0.4456 0.4438 0.4421
2795.176909 0.4405 0.4392 0.4379 0.4367 0.4353
2798.425174 0.4337 0.4322 0.4307 0.4286 0.4260
2801.673438 0.4235 0.4209 0.4192 0.4179 0.4167
2804.921703 0.4154 0.4141 0.4128 0.4116 0.4103
2808.169968 0.4096 0.4091 0.4086 0.4081 0.4069
2811.418232 0.4056 0.4044 0.4031 0.4023 0.4015
2814.666497 0.4007 0.4000 0.4000 0.4000 0.4000
2817.914762 0.4000 0.4000 0.4000 0.4000 0.4000
2821.163026 0.3997 0.3994 0.3992 0.3990 0.3990
2824.411291 0.3990 0.3990 0.3987 0.3980 0.3972
2827.659556 0.3965 0.3954 0.3938 0.3923 0.3908
2830.907820 0.3888 0.3862 0.3837 0.3811 0.3770
2834.156085 0.3717 0.3663 0.3610 0.3539 0.3457
2837.404350 0.3376 0.3294 0.3188 0.3072 0.2956
2840.652614 0.2840 0.2719 0.2596 0.2474 0.2352
2843.900879 0.2308 0.2272 0.2237 0.2201 0.2148
2847.149143 0.2094 0.2041 0.1987 0.1934 0.1880
2850.397408 0.1827 0.1775 0.1737 0.1699 0.1661
2853.645673 0.1617 0.1551 0.1485 0.1418 0.1369
2856.893937 0.1367 0.1364 0.1362 0.1360 0.1360
2860.142202 0.1360 0.1360 0.1361 0.1364 0.1366
2863.390467 0.1369 0.1376 0.1389 0.1402 0.1415
2866.638731 0.1423 0.1428 0.1433 0.1438 0.1452
2869.886996 0.1470 0.1488 0.1506 0.1522 0.1537
2873.135261 0.1552 0.1567 0.1583 0.1598 0.1613
2876.383525 0.1629 0.1646 0.1664 0.1682 0.1700
2879.631790 0.1702 0.1705 0.1708 0.1710 0.1707
2882.880055 0.1705 0.1702 0.1700 0.1697 0.1695
2886.128319 0.1692 0.1682 0.1644 0.1606 0.1568
2889.376584 0.1527 0.1478 0.1429 0.1380 0.1331
2892.624849 0.1283 0.1234 0.1186 0.1145 0.1111
2895.873113 0.1078 0.1045 0.1023 0.1010 0.0998
2899.121378 0.0985 0.0964 0.0939 0.0913 0.0888
2902.369643 0.0861 0.0833 0.0805 0.0777 0.0749
2905.617907 0.0721 0.0693 0.0665 0.0635 0.0604
2908.866172 0.0573 0.0543 0.0505 0.0467 0.0429
2912.114437 0.0391 0.0378 0.0365 0.0352 0.0339
2915.362701 0.0329 0.0319 0.0309 0.0300 0.0297
2918.610966 0.0294 0.0292 0.0289 0.0287 0.0284
2921.859231 0.0282 0.0281 0.0283 0.0286 0.0288
2925.107495 0.0293 0.0301 0.0308 0.0316 0.0324
2928.355760 0.0331 0.0339 0.0346 0.0353 0.0358
2931.604025 0.0363 0.0368 0.0375 0.0382 0.0390
2934.852289 0.0398 0.0419 0.0447 0.0475 0.0503
2938.100554 0.0512 0.0514 0.0517 0.0520 0.0520
2941.348819 0.0520 0.0520 0.0520 0.0518 0.0515
2944.597083 0.0512 0.0510 0.0507 0.0505 0.0502
2947.845348 0.0500 0.0497 0.0495 0.0492 0.0490
2951.093613 0.0487 0.0484 0.0482 0.0480 0.0480
2954.341877 0.0480 0.0480 0.0482 0.0487 0.0492
2957.590142 0.0497 0.0502 0.0507 0.0512 0.0517
2960.838407 0.0528 0.0546 0.0564 0.0582 0.0622
2964.086671 0.0680 0.0739 0.0798 0.0844 0.0883
2967.334936 0.0921 0.0960 0.0991 0.1019 0.1047
2970.583201 0.1075 0.1105 0.1135 0.1166 0.1197
2973.831465 0.1223 0.1248 0.1274 0.1299 0.1324
2977.079730 0.1350 0.1375 0.1401 0.1418 0.1436
2980.327994 0.1454 0.1472 0.1490 0.1508 0.1525
2983.576259 0.1542 0.1552 0.1562 0.1572 0.1586
2986.824524 0.1609 0.1632 0.1655 0.1676 0.1694
2990.072788 0.1711 0.1729 0.1747 0.1765 0.1783
2993.321053 0.1801 0.1823 0.1849 0.1874 0.1900
2996.569318 0.1915 0.1922 0.1930 0.1937 0.1942
2999.817582 0.1944 0.1947 0.1949 0.1950 0.1950
3003.065847 0.1950 0.1950 0.1948 0.1945 0.1943
3006.314112 0.1940 0.1940 0.1940 0.1940 0.1940
3009.562376 0.1935 0.1930 0.1925 0.1920 0.1915
3012.810641 0.1910 0.1905 0.1900 0.1897 0.1895
3016.058906 0.1892 0.1890 0.1887 0.1884 0.1882
3019.307170 0.1876 0.1863 0.1851 0.1838 0.1829
3022.555435 0.1826 0.1824 0.1821 0.1817 0.1809
3025.803700 0.1801 0.1794 0.1787 0.1782 0.1777
3029.051964 0.1772 0.1770 0.1770 0.1770 0.1770
3032.300229 0.1765 0.1757 0.1750 0.1742 0.1738
3035.548494 0.1736 0.1733 0.1730 0.1726 0.1721
3038.796758 0.1716 0.1711 0.1703 0.1696 0.1688
3042.045023 0.1680 0.1660 0.1639 0.1619 0.1600
3045.293288 0.1594 0.1589 0.1584 0.1579 0.1574
3048.541552 0.1569 0.1564 0.1557 0.1544 0.1532
3051.789817 0.1519 0.1508 0.1503 0.1498 0.1493
3055.038082 0.1489 0.1486 0.1484 0.1481 0.1471
3058.286346 0.1450 0.1430 0.1410 0.1397 0.1392
3061.534611 0.1387 0.1382 0.1372 0.1360 0.1347
3064.782876 0.1334 0.1327 0.1321 0.1316 0.1311
3068.031140 0.1306 0.1301 0.1296 0.1291 0.1288
3071.279405 0.1285 0.1283 0.1280 0.1261 0.1240
3074.527670 0.1220 0.1200 0.1195 0.1190 0.1185
3077.775934 0.1178 0.1161 0.1143 0.1125 0.1108
3081.024199 0.1092 0.1077 0.1062 0.1046 0.1031
3084.272464 0.1016 0.1001 0.0990 0.0990 0.0990
3087.520728 0.0990 0.0988 0.0983 0.0978 0.0973
3090.768993 0.0968 0.0963 0.0957 0.0952 0.0945
3094.017258 0.0934 0.0924 0.0914 0.0907 0.0902
3097.265522 0.0896 0.0891 0.0888 0.0886 0.0883
3100.513787 0.0881 0.0872 0.0862 0.0851 0.0841
3103.762051 0.0833 0.0826 0.0818 0.0810 0.0805
3107.010316 0.0800 0.0795 0.0790 0.0785 0.0780
3110.258581 0.0775 0.0770 0.0764 0.0759 0.0754
3113.506845 0.0748 0.0735 0.0722 0.0710 0.0699
3116.755110 0.0694 0.0689 0.0684 0.0679 0.0677
3120.003375 0.0674 0.0671 0.0667 0.0659 0.0651
3123.251639 0.0644 0.0634 0.0621 0.0608 0.0595
3126.499904 0.0587 0.0582 0.0577 0.0572 0.0567
3129.748169 0.0562 0.0556 0.0551 0.0548 0.0546
3132.996433 0.0543 0.0541 0.0536 0.0531 0.0526
3136.244698 0.0521 0.0520 0.0520 0.0520 0.0520
3139.492963 0.0520 0.0520 0.0520 0.0520 0.0515
3142.741227 0.0510 0.0505 0.0500 0.0494 0.0489
3145.989492 0.0484 0.0478 0.0471 0.0463 0.0455
3149.237757 0.0447 0.0437 0.0427 0.0416 0.0410
3152.486021 0.0410 0.0410 0.0410 0.0407 0.0399
3155.734286 0.0391 0.0384 0.0377 0.0372 0.0367
3158.982551 0.0362 0.0359 0.0356 0.0353 0.0351
3162.230815 0.0348 0.0346 0.0343 0.0341 0.0338
3165.479080 0.0336 0.0333 0.0330 0.0328 0.0325
3168.727345 0.0323 0.0320 0.0318 0.0315 0.0313
3171.975609 0.0310 0.0307 0.0305 0.0302 0.0300
3175.223874 0.0300 0.0300 0.0300 0.0299 0.0294
3178.472139 0.0289 0.0284 0.0280 0.0280 0.0280
3181.720403 0.0280 0.0279 0.0277 0.0274 0.0272
3184.968668 0.0270 0.0270 0.0270 0.0270 0.0269
3188.216933 0.0266 0.0264 0.0261 0.0259 0.0256
3191.465197 0.0254 0.0251 0.0250 0.0250 0.0250
3194.713462 0.0250 0.0250 0.0250 0.0250 0.0250
3197.961727 0.0250 0.0250 0.0250 0.0250 0.0250
3201.209991 0.0250 0.0250 0.0250 0.0252 0.0255
3204.458256 0.0257 0.0260 0.0263 0.0265 0.0268
3207.706521 0.0270 0.0270 0.0270 0.0270 0.0270
3210.954785 0.0273 0.0275 0.0278 0.0280 0.0280
3214.203050 0.0280 0.0280 0.0282 0.0287 0.0292
3217.451315 0.0297 0.0301 0.0303 0.0306 0.0309
3220.699579 0.0313 0.0321 0.0329 0.0337 0.0343
3223.947844 0.0348 0.0353 0.0358 0.0362 0.0364
3227.196109 0.0367 0.0369 0.0372 0.0374 0.0377
3230.444373 0.0379 0.0382 0.0385 0.0387 0.0390
3233.692638 0.0394 0.0399 0.0405 0.0410 0.0415
3236.940902 0.0420 0.0425 0.0430 0.0443 0.0456
3240.189167 0.0468 0.0480 0.0485 0.0491 0.0496
3243.437432 0.0500 0.0503 0.0505 0.0508 0.0513
3246.685696 0.0529 0.0544 0.0560 0.0571 0.0573
3249.933961 0.0576 0.0579 0.0582 0.0587 0.0592
3253.182226 0.0597 0.0605 0.0615 0.0625 0.0636
3256.430490 0.0646 0.0656 0.0666 0.0676 0.0685
3259.678755 0.0693 0.0700 0.0708 0.0715 0.0723
3262.927020 0.0731 0.0738 0.0746 0.0754 0.0761
3266.175284 0.0769 0.0772 0.0775 0.0777 0.0780
3269.423549 0.0785 0.0790 0.0795 0.0800 0.0800
3272.671814 0.0800 0.0800 0.0801 0.0812 0.0822
3275.920078 0.0832 0.0842 0.0849 0.0857 0.0864
3279.168343 0.0872 0.0880 0.0887 0.0895 0.0902
3282.416608 0.0907 0.0912 0.0917 0.0923 0.0931
3285.664872 0.0939 0.0946 0.0953 0.0958 0.0963
3288.913137 0.0968 0.0973 0.0978 0.0983 0.0988
3292.161402 0.0990 0.0990 0.0990 0.0990 0.0992
3295.409666 0.0994 0.0997 0.0999 0.1000 0.1000
3298.657931 0.1000 0.1000 0.1000 0.1000 0.1000
3301.906196 0.1000 0.1010 0.1020 0.1030 0.1040
3305.154460 0.1045 0.1051 0.1056 0.1061 0.1066
3308.402725 0.1071 0.1076 0.1080 0.1080 0.1080
3311.650990 0.1080 0.1080 0.1080 0.1080 0.1080
3314.899254 0.1082 0.1087 0.1092 0.1097 0.1101
3318.147519 0.1104 0.1106 0.1109 0.1110 0.1110
3321.395784 0.1110 0.1110 0.1110 0.1110 0.1110
3324.644048 0.1110 0.1112 0.1114 0.1117 0.1119
3327.892313 0.1120 0.1120 0.1120 0.1120 0.1120
3331.140578 0.1120 0.1120 0.1120 0.1122 0.1125
3334.388842 0.1127 0.1130 0.1130 0.1130 0.1130
3337.637107 0.1130 0.1130 0.1130 0.1130 0.1130
3340.885372 0.1133 0.1135 0.1138 0.1141 0.1146
3344.133636 0.1151 0.1156 0.1161 0.1167 0.1172
3347.381901 0.1177 0.1180 0.1180 0.1180 0.1180
3350.630166 0.1181 0.1184 0.1186 0.1189 0.1196
3353.878430 0.1206 0.1216 0.1226 0.1240 0.1255
3357.126695 0.1270 0.1285 0.1295 0.1303 0.1311
3360.374959 0.1318 0.1334 0.1352 0.1369 0.1387
3363.623224 0.1401 0.1414 0.1426 0.1439 0.1447
3366.871489 0.1455 0.1462 0.1470 0.1475 0.1480
3370.119753 0.1485 0.1491 0.1501 0.1511 0.1521
3373.368018 0.1532 0.1545 0.1558 0.1570 0.1582
3376.616283 0.1590 0.1597 0.1605 0.1615 0.1630
3379.864547 0.1646 0.1661 0.1674 0.1684 0.1695
3383.112812 0.1705 0.1714 0.1721 0.1729 0.1737
3386.361077 0.1741 0.1744 0.1747 0.1749 0.1760
3389.609341 0.1775 0.1790 0.1805 0.1824 0.1845
3392.857606 0.1865 0.1885 0.1900 0.1913 0.1925
3396.105871 0.1938 0.1949 0.1959 0.1969 0.1979
3399.354135 0.1985 0.1990 0.1995 0.2001 0.2024
3402.602400 0.2047 0.2070 0.2093 0.2116 0.2139
3405.850665 0.2161 0.2180 0.2180 0.2180 0.2180
3409.098929 0.2181 0.2183 0.2186 0.2188 0.2193
3412.347194 0.2204 0.2214 0.2224 0.2235 0.2248
3415.595459 0.2261 0.2273 0.2281 0.2284 0.2286
3418.843723 0.2289 0.2291 0.2294 0.2297 0.2299
3422.091988 0.2302 0.2304 0.2307 0.2309 0.2317
3425.340253 0.2328 0.2338 0.2348 0.2352 0.2355
3428.588517 0.2357 0.2360 0.2362 0.2365 0.2367
3431.836782 0.2370 0.2372 0.2375 0.2378 0.2380
3435.085047 0.2380 0.2380 0.2380 0.2378 0.2363
3438.333311 0.2348 0.2332 0.2319 0.2311 0.2303
3441.581576 0.2296 0.2286 0.2271 0.2255 0.2240
3444.829841 0.2228 0.2223 0.2218 0.2213 0.2209
3448.078105 0.2206 0.2204 0.2201 0.2195 0.2185
3451.326370 0.2174 0.2164 0.2151 0.2135 0.2120
3454.574635 0.2105 0.2097 0.2091 0.2086 0.2081
3457.822899 0.2076 0.2071 0.2066 0.2061 0.2052
3461.071164 0.2041 0.2031 0.2021 0.2015 0.2010
3464.319429 0.2005 0.2000 0.2000 0.2000 0.2000
3467.567693 0.2000 0.2000 0.2000 0.2000 0.2000
3470.815958 0.2003 0.2005 0.2008 0.2012 0.2019
3474.064223 0.2027 0.2034 0.2044 0.2060 0.2075
3477.312487 0.2091 0.2108 0.2128 0.2149 0.2169
3480.560752 0.2191 0.2214 0.2237 0.2259 0.2284
3483.809017 0.2309 0.2335 0.2360 0.2389 0.2419
3487.057281 0.2450 0.2480 0.2504 0.2524 0.2545
3490.305546 0.2565 0.2595 0.2628 0.2661 0.2694
3493.553810 0.2732 0.2770 0.2808 0.2846 0.2878
3496.802075 0.2908 0.2939 0.2969 0.3005 0.3041
3500.050340 0.3076 0.3112 0.3148 0.3184 0.3220
3503.298604 0.3252 0.3262 0.3272 0.3282 0.3298
3506.546869 0.3331 0.3364 0.3398 0.3428 0.3454
3509.795134 0.3479 0.3505 0.3545 0.3609 0.3672
3513.043398 0.3736 0.3784 0.3815 0.3845 0.3876
3516.291663 0.3901 0.3921 0.3942 0.3962 0.3989
3519.539928 0.4019 0.4050 0.4080 0.4123 0.4172
3522.788192 0.4220 0.4268 0.4299 0.4325 0.4350
3526.036457 0.4376 0.4404 0.4432 0.4460 0.4489
3529.284722 0.4514 0.4540 0.4565 0.4591 0.4616
3532.532986 0.4642 0.4667 0.4693 0.4718 0.4744
3535.781251 0.4769 0.4794 0.4817 0.4840 0.4863
3539.029516 0.4886 0.4909 0.4932 0.4955 0.4979
3542.277780 0.5007 0.5035 0.5063 0.5090 0.5116
3545.526045 0.5141 0.5167 0.5182 0.5187 0.5193
3548.774310 0.5198 0.5211 0.5231 0.5252 0.5272
3552.022574 0.5310 0.5359 0.5408 0.5457 0.5489
3555.270839 0.5514 0.5540 0.5565 0.5587 0.5607
3558.519104 0.5627 0.5648 0.5675 0.5703 0.5731
3561.767368 0.5759 0.5770 0.5780 0.5790 0.5801
3565.015633 0.5824 0.5847 0.5870 0.5893 0.5918
3568.263898 0.5944 0.5969 0.5990 0.5993 0.5996
3571.512162 0.5998 0.6006 0.6029 0.6052 0.6075
3574.760427 0.6094 0.6107 0.6120 0.6132 0.6144
3578.008692 0.6154 0.6165 0.6175 0.6181 0.6184
3581.256956 0.6186 0.6189 0.6193 0.6198 0.6203
3584.505221 0.6208 0.6220 0.6236 0.6251 0.6266
3587.753486 0.6278 0.6288 0.6298 0.6308 0.6318
3591.001750 0.6329 0.6339 0.6349 0.6368 0.6388
3594.250015 0.6409 0.6429 0.6447 0.6465 0.6483
3597.498280 0.6501 0.6518 0.6536 0.6554 0.6572
3600.746544 0.6587 0.6602 0.6618 0.6630 0.6630
3603.994809 0.6630 0.6630 0.6633 0.6643 0.6654
3607.243074 0.6664 0.6674 0.6684 0.6694 0.6704
3610.491338 0.6710 0.6710 0.6710 0.6710 0.6713
3613.739603 0.6718 0.6723 0.6728 0.6735 0.6742
3616.987867 0.6750 0.6757 0.6762 0.6764 0.6767
3620.236132 0.6769 0.6772 0.6774 0.6777 0.6780
3623.484397 0.6782 0.6785 0.6787 0.6790 0.6790
3626.732661 0.6790 0.6790 0.6790 0.6797 0.6805
3629.980926 0.6813 0.6821 0.6828 0.6836 0.6844
3633.229191 0.6851 0.6859 0.6867 0.6874 0.6881
3636.477455 0.6886 0.6891 0.6896 0.6900 0.6900
3639.725720 0.6900 0.6900 0.6901 0.6904 0.6906
3642.973985 0.6909 0.6910 0.6910 0.6910 0.6910
3646.222249 0.6911 0.6914 0.6916 0.6919 0.6920
3649.470514 0.6920 0.6920 0.6920 0.6920 0.6920
3652.718779 0.6920 0.6920 0.6920 0.6920 0.6920
3655.967043 0.6920 0.6920 0.6920 0.6920 0.6920
3659.215308 0.6920 0.6920 0.6920 0.6920 0.6920
3662.463573 0.6920 0.6920 0.6920 0.6917 0.6915
3665.711837 0.6912 0.6910 0.6910 0.6910 0.6910
3668.960102 0.6910 0.6910 0.6910 0.6910 0.6910
3672.208367 0.6910 0.6910 0.6910 0.6910 0.6910
3675.456631 0.6910 0.6910 0.6910 0.6910 0.6910
3678.704896 0.6910 0.6909 0.6906 0.6903 0.6901
3681.953161 0.6900 0.6900 0.6900 0.6900 0.6900
3685.201425 0.6900 0.6900 0.6900 0.6900 0.6900
3688.449690 0.6900 0.6900 0.6898 0.6895 0.6893
3691.697955 0.6890 0.6890 0.6890 0.6890 0.6890
3694.946219 0.6890 0.6890 0.6890 0.6890 0.6890
3698.194484 0.6890 0.6890 0.6890 0.6890 0.6890
3701.442749 0.6890 0.6889 0.6887 0.6884 0.6882
3704.691013 0.6880 0.6880 0.6880 0.6880 0.6880
3707.939278 0.6880 0.6880 0.6880 0.6880 0.6880
3711.187543 0.6880 0.6880 0.6880 0.6880 0.6880
3714.435807 0.6880 0.6878 0.6876 0.6873 0.6871
3717.684072 0.6868 0.6866 0.6863 0.6860 0.6860
3720.932337 0.6860 0.6860 0.6860 0.6860 0.6860
3724.180601 0.6860 0.6860 0.6855 0.6850 0.6845
3727.428866 0.6840 0.6840 0.6840 0.6840 0.6840
3730.677131 0.6837 0.6835 0.6832 0.6829 0.6827
3733.925395 0.6824 0.6822 0.6820 0.6820 0.6820
3737.173660 0.6820 0.6820 0.6820 0.6820 0.6820
3740.421925 0.6820 0.6820 0.6820 0.6820 0.6819
3743.670189 0.6816 0.6814 0.6811 0.6810 0.6810
3746.918454 0.6810 0.6810 0.6808 0.6806 0.6803
3750.166718 0.6801 0.6798 0.6796 0.6793 0.6790
3753.414983 0.6790 0.6790 0.6790 0.6790 0.6788
3756.663248 0.6785 0.6783 0.6780 0.6780 0.6780
3759.911512 0.6780 0.6780 0.6777 0.6775 0.6772
3763.159777 0.6770 0.6767 0.6765 0.6762 0.6759
3766.408042 0.6757 0.6754 0.6752 0.6749 0.6747
3769.656306 0.6744 0.6742 0.6739 0.6737 0.6734
3772.904571 0.6731 0.6729 0.6726 0.6724 0.6721
3776.152836 0.6720 0.6720 0.6720 0.6720 0.6720
3779.401100 0.6720 0.6720 0.6720 0.6720 0.6720
3782.649365 0.6720 0.6720 0.6720 0.6720 0.6720
3785.897630 0.6720 0.6720 0.6720 0.6720 0.6720
3789.145894 0.6718 0.6715 0.6713 0.6710 0.6707
3792.394159 0.6705 0.6702 0.6700 0.6700 0.6700
3795.642424 0.6700 0.6699 0.6694 0.6689 0.6684
3798.890688 0.6679 0.6677 0.6674 0.6672 0.6668
3802.138953 0.6663 0.6658 0.6653 0.6648 0.6643
3805.387218 0.6638 0.6633 0.6630 0.6630 0.6630
3808.635482 0.6630 0.6630 0.6630 0.6630 0.6630
3811.883747 0.6628 0.6626 0.6623 0.6621 0.6620
3815.132012 0.6620 0.6620 0.6620 0.6618 0.6615
3818.380276 0.6613 0.6610 0.6610 0.6610 0.6610
3821.628541 0.6610 0.6610 0.6610 0.6610 0.6610
3824.876806 0.6607 0.6605 0.6602 0.6600 0.6597
3828.125070 0.6595 0.6592 0.6590 0.6587 0.6585
3831.373335 0.6582 0.6579 0.6577 0.6574 0.6572
3834.621600 0.6570 0.6570 0.6570 0.6570 0.6569
3837.869864 0.6566 0.6564 0.6561 0.6559 0.6556
3841.118129 0.6554 0.6551 0.6550 0.6550 0.6550
3844.366394 0.6550 0.6548 0.6546 0.6543 0.6541
3847.614658 0.6540 0.6540 0.6540 0.6540 0.6540
3850.862923 0.6540 0.6540 0.6540 0.6538 0.6535
3854.111188 0.6533 0.6530 0.6530 0.6530 0.6530
3857.359452 0.6530 0.6530 0.6530 0.6530 0.6530
3860.607717 0.6530 0.6530 0.6530 0.6529 0.6527
3863.855982 0.6524 0.6522 0.6520 0.6520 0.6520
3867.104246 0.6520 0.6520 0.6520 0.6520 0.6520
3870.352511 0.6520 0.6520 0.6520 0.6520 0.6520
3873.600775 0.6520 0.6520 0.6520 0.6520 0.6520
3876.849040 0.6520 0.6520 0.6520 0.6520 0.6520
3880.097305 0.6520 0.6518 0.6516 0.6513 0.6511
3883.345569 0.6510 0.6510 0.6510 0.6510 0.6510
3886.593834 0.6510 0.6510 0.6510 0.6507 0.6505
3889.842099 0.6502 0.6500 0.6500 0.6500 0.6500
3893.090363 0.6500 0.6500 0.6500 0.6500 0.6500
3896.338628 0.6500 0.6500 0.6500 0.6499 0.6497
3899.586893 0.6494 0.6492 0.6490 0.6490 0.6490
3902.835157 0.6490 0.6489 0.6486 0.6484 0.6481
3906.083422 0.6480 0.6480 0.6480 0.6480 0.6480
3909.331687 0.6480 0.6480 0.6480 0.6480 0.6480
3912.579951 0.6480 0.6480 0.6480 0.6480 0.6480
3915.828216 0.6480 0.6480 0.6480 0.6480 0.6480
3919.076481 0.6480 0.6480 0.6480 0.6480 0.6480
3922.324745 0.6480 0.6480 0.6480 0.6480 0.6480
3925.573010 0.6480 0.6480 0.6477 0.6475 0.6472
3928.821275 0.6470 0.6470 0.6470 0.6470 0.6469
3932.069539 0.6467 0.6464 0.6462 0.6460 0.6460
3935.317804 0.6460 0.6460 0.6460 0.6460 0.6460
3938.566069 0.6460 0.6459 0.6456 0.6454 0.6451
3941.814333 0.6450 0.6450 0.6450 0.6450 0.6450
3945.062598 0.6450 0.6450 0.6450 0.6448 0.6445
3948.310863 0.6443 0.6440 0.6438 0.6435 0.6433
3951.559127 0.6430 0.6430 0.6430 0.6430 0.6430
3954.807392 0.6430 0.6430 0.6430 0.6430 0.6425
3958.055657 0.6419 0.6414 0.6410 0.6410 0.6410
3961.303921 0.6410 0.6410 0.6410 0.6410 0.6410
3964.552186 0.6410 0.6410 0.6410 0.6410 0.6409
3967.800451 0.6406 0.6404 0.6401 0.6400 0.6400
3971.048715 0.6400 0.6400 0.6399 0.6396 0.6393
3974.296980 0.6391 0.6390 0.6390 0.6390 0.6390
3977.545245 0.6388 0.6386 0.6383 0.6381 0.6380
3980.793509 0.6380 0.6380 0.6380 0.6378 0.6375
3984.041774 0.6373 0.6370 0.6370 0.6370 0.6370
3987.290039 0.6370 0.6370 0.6370 0.6370 0.6370
3990.538303 0.6367 0.6365 0.6362 0.6360 0.6360
3993.786568 0.6360 0.6360
##END=
