##TITLE=MERCADIUM RED-LITHOPONE
##JCAMP-DX=4.24
##DATA TYPE=INFRARED SPECTRUM
##CLASS=COBLENTZ
##ORIGIN=DESOTO CHEMICAL COATINGS, INC.
##OWNER=COBLENTZ SOCIETY
Collection (C) 2018 copyright by the U.S. Secretary of Commerce
on behalf of the United States of America. All rights reserved.
##DATE=Not specified, most likely prior to 1970
##NAMES=MERCADIUM ORANGE DEEP-LITHOPONE
##MOLFORM=Ba S O4
$$ BaSO4 MIXED WITH HgS AND CdS
##SOURCE REFERENCE=COBLENTZ NO. 4695
##$NIST ID=B6004695
##$NIST SOURCE=COBLENTZ
##$NIST IMAGE=cob4695
##SPECTROMETER/DATA SYSTEM=Not specified, most likely a grating spectrometer.
##STATE=SOLID (0.3 mg / 300 mg CsI DISC)
##SAMPLING PROCEDURE=TRANSMISSION
##RESOLUTION=4
##DATA PROCESSING=DIGITIZED BY NIST FROM HARD COPY (FROM TWO SEGMENTS)
##XUNITS=1/CM
##YUNITS=TRANSMITTANCE
##XFACTOR=1.000000
##YFACTOR=1
##DELTAX=1.330379
##FIRSTX=200
##LASTX=3986.26
##FIRSTY=0.642
##MAXX=3986.26
##MINX=200
##MAXY=0.965
##MINY=0.159001
##NPOINTS=2847
##XYDATA=(X++(Y..Y))
200.000000 0.6420 0.6430 0.6420 0.6430 0.6430
206.651896 0.6440 0.6440 0.6460 0.6470 0.6500
213.303792 0.6700 0.6890 0.6910 0.7070 0.7339
219.955688 0.7489 0.7520 0.7560 0.7620 0.7660
226.607584 0.7690 0.7700 0.7700 0.7700 0.7730
233.259480 0.7760 0.7760 0.7760 0.7760 0.7730
239.911377 0.7690 0.7610 0.7520 0.7350 0.7250
246.563273 0.7101 0.7010 0.6930 0.6870 0.6641
253.215169 0.6480 0.6360 0.6240 0.5961 0.5721
259.867065 0.5650 0.5580 0.5291 0.5210 0.5200
266.518961 0.5180 0.5180 0.5200 0.5340 0.5410
273.170857 0.5559 0.5570 0.5679 0.5849 0.5910
279.822753 0.5950 0.6000 0.6190 0.6539 0.6660
286.474649 0.6780 0.6969 0.7248 0.7369 0.7459
293.126545 0.7570 0.7660 0.7700 0.7740 0.7760
299.778441 0.7760 0.7770 0.7800 0.7810 0.7810
306.430337 0.7810 0.7810 0.7820 0.7820 0.7840
313.082234 0.7840 0.7850 0.7850 0.7850 0.7850
319.734130 0.7860 0.7860 0.7880 0.7890 0.7900
326.386026 0.7890 0.7890 0.7890 0.7900 0.7900
333.037922 0.7920 0.7920 0.7920 0.7930 0.7940
339.689818 0.7930 0.7930 0.7920 0.7920 0.7920
346.341714 0.7920 0.7930 0.7930 0.7930 0.7920
352.993610 0.7920 0.7890 0.7890 0.7890 0.7890
359.645506 0.7900 0.7900 0.7900 0.7920 0.7930
366.297402 0.7930 0.7930 0.7930 0.7930 0.7930
372.949298 0.7930 0.7930 0.7930 0.7920 0.7920
379.601195 0.7920 0.7920 0.7930 0.7920 0.7920
386.253091 0.7920 0.7920 0.7920 0.7920 0.7920
392.904987 0.7930 0.7940 0.7920 0.7920 0.7920
399.556883 0.7920 0.7930 0.7930 0.7940 0.7940
406.208779 0.7940 0.7960 0.7940 0.7940 0.7930
412.860675 0.7920 0.7920 0.7920 0.7900 0.7900
419.512571 0.7890 0.7850 0.7840 0.7820 0.7810
426.164467 0.7810 0.7810 0.7800 0.7800 0.7780
432.816363 0.7780 0.7780 0.7780 0.7800 0.7800
439.468259 0.7810 0.7810 0.7810 0.7820 0.7820
446.120155 0.7840 0.7850 0.7860 0.7860 0.7880
452.772052 0.7880 0.7880 0.7890 0.7900 0.7920
459.423948 0.7920 0.7930 0.7960 0.7970 0.7980
466.075844 0.7980 0.8010 0.8010 0.8040 0.8090
472.727740 0.8120 0.8120 0.8120 0.8120 0.8130
479.379636 0.8190 0.8210 0.8210 0.8250 0.8270
486.031532 0.8270 0.8270 0.8270 0.8270 0.8280
492.683428 0.8310 0.8330 0.8330 0.8350 0.8360
499.335324 0.8390 0.8410 0.8410 0.8430 0.8430
505.987220 0.8440 0.8440 0.8440 0.8450 0.8450
512.639116 0.8470 0.8470 0.8470 0.8480 0.8480
519.291012 0.8480 0.8480 0.8490 0.8490 0.8490
525.942909 0.8490 0.8490 0.8490 0.8490 0.8490
532.594805 0.8490 0.8490 0.8510 0.8520 0.8530
539.246701 0.8530 0.8550 0.8560 0.8560 0.8560
545.898597 0.8560 0.8560 0.8570 0.8570 0.8600
552.550493 0.8610 0.8630 0.8630 0.8630 0.8630
559.202389 0.8640 0.8640 0.8650 0.8670 0.8670
565.854285 0.8690 0.8690 0.8690 0.8710 0.8720
572.506181 0.8730 0.8750 0.8760 0.8760 0.8780
579.158077 0.8780 0.8800 0.8800 0.8800 0.8800
585.809973 0.8800 0.8800 0.8800 0.8800 0.8800
592.461870 0.8790 0.8780 0.8730 0.8710 0.8640
599.113766 0.8610 0.8360 0.8080 0.7771 0.7431
605.765662 0.6623 0.6132 0.5563 0.4913 0.4582
612.417558 0.4580 0.4940 0.5060 0.5160 0.5878
619.069454 0.6618 0.6759 0.6899 0.7467 0.7649
625.721350 0.7780 0.7850 0.7920 0.7940 0.7940
632.373246 0.7930 0.7611 0.7292 0.7031 0.6404
639.025142 0.6240 0.6240 0.6510 0.6620 0.6720
645.677038 0.6899 0.6950 0.7348 0.7728 0.8008
652.328934 0.8210 0.8430 0.8790 0.8870 0.8950
658.980830 0.8980 0.9000 0.9020 0.9080 0.9199
665.632727 0.9220 0.9240 0.9260 0.9280 0.9280
672.284623 0.9320 0.9350 0.9320 0.9350 0.9360
678.936519 0.9390 0.9410 0.9420 0.9430 0.9460
685.588415 0.9490 0.9500 0.9500 0.9510 0.9510
692.240311 0.9510 0.9500 0.9510 0.9510 0.9510
698.892207 0.9530 0.9530 0.9530 0.9510 0.9510
705.544103 0.9510 0.9510 0.9510 0.9530 0.9530
712.195999 0.9540 0.9540 0.9550 0.9550 0.9550
718.847895 0.9550 0.9550 0.9550 0.9550 0.9550
725.499791 0.9570 0.9570 0.9580 0.9580 0.9580
732.151687 0.9580 0.9580 0.9580 0.9590 0.9580
738.803584 0.9580 0.9580 0.9590 0.9610 0.9610
745.455480 0.9590 0.9610 0.9610 0.9610 0.9620
752.107376 0.9620 0.9620 0.9620 0.9620 0.9620
758.759272 0.9620 0.9610 0.9610 0.9610 0.9620
765.411168 0.9630 0.9630 0.9630 0.9650 0.9650
772.063064 0.9630 0.9620 0.9620 0.9620 0.9620
778.714960 0.9620 0.9620 0.9620 0.9610 0.9610
785.366856 0.9610 0.9590 0.9590 0.9610 0.9620
792.018752 0.9620 0.9630 0.9630 0.9630 0.9620
798.670648 0.9620 0.9620 0.9620 0.9620 0.9620
805.322544 0.9610 0.9610 0.9620 0.9610 0.9610
811.974441 0.9610 0.9610 0.9610 0.9610 0.9610
818.626337 0.9610 0.9610 0.9610 0.9620 0.9620
825.278233 0.9620 0.9620 0.9620 0.9620 0.9620
831.930129 0.9620 0.9630 0.9630 0.9620 0.9610
838.582025 0.9620 0.9630 0.9630 0.9630 0.9620
845.233921 0.9620 0.9620 0.9620 0.9610 0.9610
851.885817 0.9610 0.9620 0.9610 0.9610 0.9610
858.537713 0.9610 0.9590 0.9590 0.9590 0.9590
865.189609 0.9620 0.9620 0.9620 0.9620 0.9620
871.841505 0.9620 0.9620 0.9620 0.9620 0.9620
878.493402 0.9610 0.9610 0.9610 0.9610 0.9590
885.145298 0.9590 0.9590 0.9590 0.9610 0.9610
891.797194 0.9610 0.9610 0.9580 0.9610 0.9610
898.449090 0.9610 0.9610 0.9610 0.9610 0.9590
905.100986 0.9590 0.9580 0.9610 0.9610 0.9590
911.752882 0.9590 0.9580 0.9580 0.9580 0.9580
918.404778 0.9580 0.9570 0.9570 0.9580 0.9580
925.056674 0.9570 0.9550 0.9570 0.9570 0.9570
931.708570 0.9580 0.9580 0.9580 0.9570 0.9570
938.360466 0.9570 0.9570 0.9570 0.9580 0.9570
945.012362 0.9570 0.9550 0.9540 0.9540 0.9540
951.664259 0.9550 0.9550 0.9550 0.9540 0.9540
958.316155 0.9540 0.9540 0.9530 0.9530 0.9530
964.968051 0.9510 0.9510 0.9510 0.9510 0.9500
971.619947 0.9490 0.9470 0.9460 0.9460 0.9460
978.271843 0.9450 0.9420 0.9410 0.8495 0.8321
984.923739 0.7920 0.7920 0.8680 0.8950 0.9220
991.575635 0.9230 0.9280 0.9310 0.9320 0.9340
998.227531 0.9340 0.9340 0.9320 0.9320 0.9310
1004.879427 0.9310 0.9300 0.9280 0.9280 0.9270
1011.531323 0.9260 0.9240 0.9230 0.9220 0.9200
1018.183219 0.9180 0.9160 0.9150 0.9150 0.9140
1024.835116 0.9140 0.9120 0.9110 0.9110 0.9100
1031.487012 0.9080 0.9080 0.9070 0.9060 0.9040
1038.138908 0.8990 0.8980 0.8950 0.8910 0.8820
1044.790804 0.8730 0.8710 0.8630 0.8590 0.8530
1051.442700 0.8410 0.8240 0.8080 0.7940 0.7760
1058.094596 0.7570 0.7261 0.7031 0.6403 0.5992
1064.746492 0.5540 0.5120 0.4140 0.3591 0.3171
1071.398388 0.2522 0.2171 0.1802 0.1780 0.1681
1078.050284 0.1600 0.1590 0.1630 0.1760 0.1970
1084.702180 0.2110 0.2250 0.2539 0.2888 0.3168
1091.354076 0.3820 0.4150 0.4280 0.4410 0.4669
1098.005973 0.4820 0.4890 0.4890 0.4830 0.4651
1104.657869 0.4310 0.4120 0.3840 0.3560 0.3320
1111.309765 0.2921 0.2601 0.2461 0.2301 0.2210
1117.961661 0.2130 0.2100 0.2130 0.2230 0.2569
1124.613557 0.2799 0.2890 0.3358 0.3868 0.4198
1131.265453 0.4490 0.4750 0.5160 0.5450 0.5720
1137.917349 0.5949 0.6169 0.6359 0.6539 0.6620
1144.569245 0.6700 0.6840 0.6970 0.7030 0.7090
1151.221141 0.7180 0.7250 0.7310 0.7340 0.7370
1157.873037 0.7380 0.7350 0.7340 0.7330 0.7220
1164.524934 0.6831 0.6461 0.6271 0.5931 0.5651
1171.176830 0.5360 0.5060 0.4780 0.4220 0.3960
1177.828726 0.3731 0.3511 0.3281 0.3091 0.2961
1184.480622 0.2860 0.2810 0.2780 0.2800 0.2850
1191.132518 0.3089 0.3359 0.3549 0.3819 0.4218
1197.784414 0.4320 0.4420 0.4810 0.5289 0.5669
1204.436310 0.5969 0.6239 0.6469 0.6579 0.6679
1211.088206 0.6910 0.7150 0.7420 0.7560 0.7700
1217.740102 0.7800 0.7850 0.7930 0.8000 0.8040
1224.391998 0.8100 0.8120 0.8150 0.8270 0.8350
1231.043894 0.8430 0.8530 0.8640 0.8670 0.8690
1237.695791 0.8750 0.8800 0.8830 0.8870 0.8940
1244.347687 0.8980 0.8990 0.9000 0.9000 0.9020
1250.999583 0.9040 0.9070 0.9100 0.9120 0.9140
1257.651479 0.9150 0.9180 0.9190 0.9200 0.9200
1264.303375 0.9220 0.9240 0.9240 0.9260 0.9260
1270.955271 0.9260 0.9240 0.9240 0.9260 0.9260
1277.607167 0.9260 0.9270 0.9280 0.9300 0.9300
1284.259063 0.9310 0.9300 0.9310 0.9310 0.9310
1290.910959 0.9320 0.9340 0.9350 0.9350 0.9350
1297.562855 0.9350 0.9350 0.9350 0.9360 0.9360
1304.214751 0.9380 0.9380 0.9380 0.9380 0.9380
1310.866648 0.9380 0.9380 0.9380 0.9360 0.9360
1317.518544 0.9360 0.9360 0.9360 0.9360 0.9380
1324.170440 0.9380 0.9380 0.9360 0.9360 0.9360
1330.822336 0.9360 0.9360 0.9360 0.9360 0.9360
1337.474232 0.9380 0.9380 0.9380 0.9380 0.9380
1344.126128 0.9360 0.9380 0.9360 0.9360 0.9350
1350.778024 0.9350 0.9350 0.9350 0.9340 0.9320
1357.429920 0.9320 0.9320 0.9320 0.9320 0.9320
1364.081816 0.9320 0.9320 0.9310 0.9310 0.9300
1370.733712 0.9300 0.9300 0.9300 0.9280 0.9280
1377.385609 0.9280 0.9270 0.9270 0.9270 0.9270
1384.037505 0.9270 0.9270 0.9270 0.9280 0.9280
1390.689401 0.9280 0.9280 0.9270 0.9270 0.9270
1397.341297 0.9270 0.9270 0.9260 0.9260 0.9260
1403.993193 0.9270 0.9270 0.9270 0.9270 0.9260
1410.645089 0.9240 0.9240 0.9230 0.9220 0.9220
1417.296985 0.9220 0.9220 0.9230 0.9230 0.9230
1423.948881 0.9230 0.9230 0.9220 0.9220 0.9220
1430.600777 0.9220 0.9220 0.9230 0.9230 0.9230
1437.252673 0.9230 0.9230 0.9230 0.9230 0.9230
1443.904569 0.9230 0.9230 0.9230 0.9230 0.9220
1450.556466 0.9220 0.9220 0.9220 0.9220 0.9200
1457.208362 0.9200 0.9220 0.9220 0.9200 0.9200
1463.860258 0.9190 0.9190 0.9200 0.9200 0.9200
1470.512154 0.9200 0.9200 0.9200 0.9220 0.9220
1477.164050 0.9220 0.9220 0.9230 0.9240 0.9260
1483.815946 0.9270 0.9300 0.9300 0.9300 0.9300
1490.467842 0.9300 0.9300 0.9300 0.9310 0.9310
1497.119738 0.9310 0.9310 0.9310 0.9310 0.9310
1503.771634 0.9320 0.9310 0.9310 0.9310 0.9310
1510.423530 0.9310 0.9300 0.9300 0.9280 0.9280
1517.075426 0.9270 0.9270 0.9270 0.9270 0.9260
1523.727323 0.9240 0.9240 0.9240 0.9240 0.9240
1530.379219 0.9240 0.9230 0.9230 0.9230 0.9230
1537.031115 0.9220 0.9220 0.9220 0.9220 0.9220
1543.683011 0.9220 0.9220 0.9230 0.9200 0.9200
1550.334907 0.9220 0.9200 0.9200 0.9200 0.9200
1556.986803 0.9190 0.9190 0.9190 0.9190 0.9190
1563.638699 0.9180 0.9160 0.9150 0.9150 0.9150
1570.290595 0.9150 0.9150 0.9150 0.9160 0.9160
1576.942491 0.9160 0.9160 0.9150 0.9140 0.9140
1583.594387 0.9120 0.9110 0.9100 0.9070 0.9070
1590.246283 0.9060 0.9030 0.8980 0.8940 0.8900
1596.898180 0.8860 0.8820 0.8780 0.8730 0.8690
1603.550076 0.8650 0.8610 0.8570 0.8530 0.8520
1610.201972 0.8490 0.8470 0.8440 0.8430 0.8410
1616.853868 0.8410 0.8410 0.8410 0.8430 0.8440
1623.505764 0.8450 0.8470 0.8490 0.8510 0.8560
1630.157660 0.8590 0.8610 0.8640 0.8680 0.8690
1636.809556 0.8730 0.8780 0.8820 0.8840 0.8900
1643.461452 0.8920 0.8940 0.8940 0.8960 0.8960
1650.113348 0.8980 0.8990 0.9000 0.9000 0.9020
1656.765244 0.9020 0.9020 0.9040 0.9040 0.9060
1663.417141 0.9060 0.9060 0.9070 0.9080 0.9100
1670.069037 0.9100 0.9110 0.9120 0.9140 0.9140
1676.720933 0.9140 0.9140 0.9140 0.9150 0.9160
1683.372829 0.9160 0.9180 0.9180 0.9160 0.9160
1690.024725 0.9160 0.9180 0.9200 0.9220 0.9220
1696.676621 0.9230 0.9230 0.9230 0.9240 0.9260
1703.328517 0.9260 0.9260 0.9270 0.9270 0.9270
1709.980413 0.9270 0.9280 0.9280 0.9300 0.9300
1716.632309 0.9310 0.9310 0.9310 0.9310 0.9310
1723.284205 0.9310 0.9310 0.9310 0.9310 0.9310
1729.936101 0.9310 0.9310 0.9310 0.9310 0.9310
1736.587998 0.9310 0.9320 0.9320 0.9320 0.9320
1743.239894 0.9340 0.9350 0.9350 0.9350 0.9350
1749.891790 0.9360 0.9360 0.9360 0.9360 0.9380
1756.543686 0.9380 0.9380 0.9380 0.9380 0.9380
1763.195582 0.9380 0.9390 0.9390 0.9390 0.9410
1769.847478 0.9410 0.9410 0.9420 0.9420 0.9420
1776.499374 0.9420 0.9420 0.9420 0.9420 0.9420
1783.151270 0.9430 0.9430 0.9420 0.9420 0.9420
1789.803166 0.9420 0.9420 0.9420 0.9420 0.9420
1796.455062 0.9420 0.9420 0.9420 0.9420 0.9420
1803.106958 0.9420 0.9430 0.9430 0.9420 0.9420
1809.758855 0.9420 0.9420 0.9420 0.9420 0.9420
1816.410751 0.9430 0.9430 0.9430 0.9450 0.9450
1823.062647 0.9450 0.9450 0.9450 0.9430 0.9430
1829.714543 0.9430 0.9420 0.9420 0.9420 0.9420
1836.366439 0.9420 0.9420 0.9420 0.9420 0.9430
1843.018335 0.9430 0.9420 0.9420 0.9420 0.9420
1849.670231 0.9420 0.9420 0.9420 0.9420 0.9420
1856.322127 0.9420 0.9420 0.9420 0.9410 0.9410
1862.974023 0.9410 0.9410 0.9410 0.9420 0.9420
1869.625919 0.9420 0.9420 0.9420 0.9420 0.9420
1876.277816 0.9420 0.9420 0.9420 0.9420 0.9420
1882.929712 0.9420 0.9430 0.9430 0.9430 0.9430
1889.581608 0.9430 0.9430 0.9420 0.9390 0.9390
1896.233504 0.9390 0.9390 0.9390 0.9390 0.9390
1902.885400 0.9410 0.9410 0.9380 0.9380 0.9390
1909.537296 0.9390 0.9380 0.9380 0.9380 0.9390
1916.189192 0.9390 0.9390 0.9390 0.9390 0.9390
1922.841088 0.9390 0.9380 0.9380 0.9380 0.9380
1929.492984 0.9380 0.9380 0.9380 0.9390 0.9390
1936.144880 0.9380 0.9380 0.9380 0.9360 0.9360
1942.796776 0.9380 0.9380 0.9360 0.9360 0.9360
1949.448673 0.9360 0.9360 0.9350 0.9360 0.9360
1956.100569 0.9350 0.9350 0.9350 0.9350 0.9350
1962.752465 0.9350 0.9350 0.9350 0.9350 0.9350
1969.404361 0.9350 0.9340 0.9340 0.9340 0.9340
1976.056257 0.9340 0.9350 0.9350 0.9350 0.9350
1982.708153 0.9350 0.9350 0.9350 0.9350 0.9350
1989.360049 0.9350 0.9350 0.9350 0.9350 0.9350
1996.011945 0.9350 0.9350 0.9350 0.9350 0.9350
2002.663841 0.9350 0.9350 0.9350 0.9355 0.9360
2009.315737 0.9355 0.9350 0.9350 0.9350 0.9350
2015.967633 0.9350 0.9350 0.9350 0.9350 0.9350
2022.619530 0.9350 0.9350 0.9345 0.9340 0.9340
2029.271426 0.9340 0.9340 0.9340 0.9345 0.9350
2035.923322 0.9345 0.9340 0.9340 0.9340 0.9340
2042.575218 0.9340 0.9330 0.9320 0.9320 0.9320
2049.227114 0.9315 0.9310 0.9310 0.9310 0.9305
2055.879010 0.9300 0.9300 0.9300 0.9300 0.9300
2062.530906 0.9300 0.9300 0.9291 0.9281 0.9280
2069.182802 0.9280 0.9280 0.9280 0.9280 0.9280
2075.834698 0.9280 0.9280 0.9280 0.9280 0.9275
2082.486594 0.9270 0.9275 0.9280 0.9280 0.9280
2089.138490 0.9275 0.9270 0.9265 0.9260 0.9260
2095.790387 0.9260 0.9260 0.9260 0.9260 0.9260
2102.442283 0.9260 0.9260 0.9260 0.9260 0.9260
2109.094179 0.9260 0.9260 0.9260 0.9260 0.9260
2115.746075 0.9265 0.9270 0.9270 0.9270 0.9270
2122.397971 0.9270 0.9270 0.9270 0.9274 0.9279
2129.049867 0.9280 0.9280 0.9280 0.9280 0.9275
2135.701763 0.9270 0.9270 0.9270 0.9270 0.9270
2142.353659 0.9270 0.9270 0.9270 0.9270 0.9270
2149.005555 0.9270 0.9270 0.9270 0.9274 0.9279
2155.657451 0.9280 0.9280 0.9280 0.9280 0.9280
2162.309348 0.9280 0.9289 0.9299 0.9300 0.9300
2168.961244 0.9300 0.9300 0.9300 0.9300 0.9300
2175.613140 0.9300 0.9300 0.9300 0.9300 0.9300
2182.265036 0.9300 0.9300 0.9300 0.9300 0.9300
2188.916932 0.9300 0.9300 0.9300 0.9300 0.9300
2195.568828 0.9300 0.9300 0.9300 0.9300 0.9300
2202.220724 0.9300 0.9300 0.9300 0.9300 0.9300
2208.872620 0.9292 0.9282 0.9280 0.9280 0.9280
2215.524516 0.9280 0.9280 0.9280 0.9280 0.9280
2222.176412 0.9280 0.9280 0.9276 0.9271 0.9270
2228.828308 0.9270 0.9274 0.9279 0.9288 0.9298
2235.480205 0.9300 0.9300 0.9300 0.9300 0.9300
2242.132101 0.9300 0.9300 0.9300 0.9304 0.9309
2248.783997 0.9310 0.9310 0.9310 0.9310 0.9310
2255.435893 0.9310 0.9310 0.9310 0.9306 0.9301
2262.087789 0.9300 0.9300 0.9300 0.9300 0.9300
2268.739685 0.9300 0.9300 0.9300 0.9304 0.9309
2275.391581 0.9310 0.9310 0.9310 0.9310 0.9314
2282.043477 0.9319 0.9320 0.9320 0.9316 0.9311
2288.695373 0.9310 0.9310 0.9310 0.9310 0.9310
2295.347269 0.9310 0.9306 0.9301 0.9300 0.9300
2301.999165 0.9300 0.9300 0.9300 0.9300 0.9300
2308.651062 0.9300 0.9304 0.9309 0.9310 0.9310
2315.302958 0.9310 0.9310 0.9314 0.9319 0.9320
2321.954854 0.9320 0.9316 0.9311 0.9310 0.9310
2328.606750 0.9310 0.9310 0.9310 0.9310 0.9310
2335.258646 0.9310 0.9310 0.9310 0.9310 0.9310
2341.910542 0.9310 0.9310 0.9310 0.9310 0.9310
2348.562438 0.9310 0.9314 0.9319 0.9320 0.9320
2355.214334 0.9328 0.9338 0.9344 0.9349 0.9350
2361.866230 0.9350 0.9350 0.9350 0.9350 0.9350
2368.518126 0.9350 0.9350 0.9350 0.9350 0.9350
2375.170023 0.9350 0.9350 0.9350 0.9350 0.9350
2381.821919 0.9350 0.9350 0.9350 0.9350 0.9350
2388.473815 0.9350 0.9346 0.9341 0.9333 0.9323
2395.125711 0.9316 0.9311 0.9310 0.9310 0.9310
2401.777607 0.9310 0.9310 0.9310 0.9306 0.9301
2408.429503 0.9289 0.9274 0.9270 0.9270 0.9270
2415.081399 0.9270 0.9266 0.9261 0.9260 0.9260
2421.733295 0.9260 0.9260 0.9260 0.9260 0.9260
2428.385191 0.9260 0.9260 0.9260 0.9260 0.9260
2435.037087 0.9260 0.9260 0.9260 0.9260 0.9260
2441.688983 0.9260 0.9260 0.9260 0.9263 0.9268
2448.340880 0.9270 0.9270 0.9270 0.9270 0.9270
2454.992776 0.9270 0.9270 0.9270 0.9270 0.9270
2461.644672 0.9273 0.9278 0.9280 0.9280 0.9277
2468.296568 0.9272 0.9270 0.9270 0.9267 0.9262
2474.948464 0.9253 0.9243 0.9237 0.9232 0.9227
2481.600360 0.9222 0.9220 0.9220 0.9223 0.9228
2488.252256 0.9230 0.9230 0.9233 0.9238 0.9240
2494.904152 0.9240 0.9240 0.9240 0.9240 0.9240
2501.556048 0.9237 0.9232 0.9230 0.9230 0.9230
2508.207944 0.9230 0.9230 0.9230 0.9233 0.9238
2514.859840 0.9240 0.9240 0.9240 0.9240 0.9240
2521.511737 0.9240 0.9240 0.9240 0.9240 0.9240
2528.163633 0.9240 0.9240 0.9237 0.9232 0.9230
2534.815529 0.9230 0.9230 0.9230 0.9227 0.9222
2541.467425 0.9223 0.9228 0.9233 0.9238 0.9240
2548.119321 0.9240 0.9237 0.9232 0.9230 0.9230
2554.771217 0.9230 0.9230 0.9227 0.9222 0.9226
2561.423113 0.9236 0.9240 0.9240 0.9237 0.9232
2568.075009 0.9230 0.9230 0.9230 0.9230 0.9230
2574.726905 0.9230 0.9227 0.9222 0.9220 0.9220
2581.378801 0.9214 0.9204 0.9200 0.9200 0.9206
2588.030697 0.9216 0.9220 0.9220 0.9223 0.9228
2594.682594 0.9230 0.9230 0.9227 0.9222 0.9220
2601.334490 0.9220 0.9220 0.9220 0.9220 0.9220
2607.986386 0.9214 0.9204 0.9200 0.9200 0.9200
2614.638282 0.9200 0.9200 0.9200 0.9200 0.9200
2621.290178 0.9200 0.9200 0.9200 0.9200 0.9200
2627.942074 0.9200 0.9200 0.9200 0.9206 0.9216
2634.593970 0.9214 0.9204 0.9200 0.9200 0.9200
2641.245866 0.9200 0.9197 0.9192 0.9190 0.9190
2647.897762 0.9190 0.9190 0.9190 0.9190 0.9190
2654.549658 0.9190 0.9193 0.9198 0.9200 0.9200
2661.201555 0.9197 0.9192 0.9190 0.9190 0.9190
2667.853451 0.9190 0.9190 0.9190 0.9190 0.9190
2674.505347 0.9190 0.9190 0.9193 0.9198 0.9200
2681.157243 0.9200 0.9200 0.9200 0.9197 0.9192
2687.809139 0.9190 0.9190 0.9190 0.9190 0.9190
2694.461035 0.9190 0.9190 0.9190 0.9190 0.9190
2701.112931 0.9193 0.9198 0.9197 0.9192 0.9190
2707.764827 0.9190 0.9190 0.9190 0.9190 0.9190
2714.416723 0.9190 0.9190 0.9190 0.9190 0.9190
2721.068619 0.9190 0.9182 0.9167 0.9160 0.9160
2727.720515 0.9160 0.9160 0.9160 0.9160 0.9160
2734.372412 0.9160 0.9160 0.9160 0.9160 0.9160
2741.024308 0.9160 0.9160 0.9158 0.9153 0.9150
2747.676204 0.9150 0.9150 0.9150 0.9150 0.9150
2754.328100 0.9150 0.9150 0.9152 0.9157 0.9160
2760.979996 0.9160 0.9160 0.9160 0.9160 0.9160
2767.631892 0.9160 0.9160 0.9160 0.9160 0.9158
2774.283788 0.9153 0.9150 0.9150 0.9150 0.9150
2780.935684 0.9148 0.9143 0.9140 0.9140 0.9142
2787.587580 0.9147 0.9150 0.9150 0.9150 0.9150
2794.239476 0.9150 0.9150 0.9150 0.9150 0.9150
2800.891372 0.9150 0.9148 0.9143 0.9133 0.9118
2807.543269 0.9110 0.9110 0.9110 0.9110 0.9110
2814.195165 0.9110 0.9110 0.9110 0.9110 0.9110
2820.847061 0.9108 0.9103 0.9100 0.9100 0.9100
2827.498957 0.9100 0.9100 0.9100 0.9100 0.9100
2834.150853 0.9100 0.9100 0.9096 0.9086 0.9080
2840.802749 0.9080 0.9078 0.9073 0.9068 0.9063
2847.454645 0.9054 0.9039 0.9028 0.9023 0.9003
2854.106541 0.8963 0.8931 0.8911 0.8883 0.8843
2860.758437 0.8816 0.8806 0.8804 0.8814 0.8822
2867.410333 0.8827 0.8832 0.8837 0.8844 0.8854
2874.062229 0.8864 0.8874 0.8884 0.8894 0.8900
2880.714126 0.8900 0.8902 0.8907 0.8910 0.8910
2887.366022 0.8912 0.8917 0.8920 0.8920 0.8918
2894.017918 0.8913 0.8910 0.8910 0.8910 0.8910
2900.669814 0.8908 0.8903 0.8896 0.8886 0.8876
2907.321710 0.8866 0.8860 0.8860 0.8856 0.8846
2913.973606 0.8836 0.8826 0.8803 0.8758 0.8711
2920.625502 0.8661 0.8610 0.8555 0.8518 0.8513
2927.277398 0.8499 0.8469 0.8448 0.8443 0.8440
2933.929294 0.8440 0.8440 0.8440 0.8442 0.8447
2940.581190 0.8468 0.8518 0.8557 0.8577 0.8597
2947.233087 0.8617 0.8634 0.8644 0.8655 0.8670
2953.884983 0.8682 0.8687 0.8693 0.8704 0.8714
2960.536879 0.8724 0.8734 0.8744 0.8752 0.8757
2967.188775 0.8764 0.8773 0.8783 0.8793 0.8803
2973.840671 0.8813 0.8820 0.8820 0.8823 0.8833
2980.492567 0.8843 0.8853 0.8863 0.8873 0.8883
2987.144463 0.8893 0.8902 0.8907 0.8910 0.8910
2993.796359 0.8912 0.8917 0.8923 0.8933 0.8940
3000.448255 0.8940 0.8940 0.8940 0.8940 0.8940
3007.100151 0.8940 0.8940 0.8940 0.8940 0.8940
3013.752047 0.8940 0.8940 0.8940 0.8940 0.8940
3020.403944 0.8937 0.8927 0.8920 0.8920 0.8920
3027.055840 0.8920 0.8920 0.8920 0.8920 0.8920
3033.707736 0.8920 0.8920 0.8923 0.8933 0.8940
3040.359632 0.8940 0.8942 0.8947 0.8950 0.8950
3047.011528 0.8950 0.8950 0.8951 0.8956 0.8960
3053.663424 0.8960 0.8960 0.8960 0.8963 0.8973
3060.315320 0.8980 0.8980 0.8980 0.8980 0.8980
3066.967216 0.8980 0.8977 0.8967 0.8960 0.8960
3073.619112 0.8959 0.8954 0.8950 0.8950 0.8949
3080.271008 0.8944 0.8940 0.8940 0.8940 0.8940
3086.922904 0.8940 0.8940 0.8937 0.8927 0.8920
3093.574801 0.8920 0.8920 0.8920 0.8920 0.8920
3100.226697 0.8920 0.8920 0.8920 0.8920 0.8919
3106.878593 0.8914 0.8910 0.8910 0.8910 0.8910
3113.530489 0.8910 0.8910 0.8910 0.8910 0.8910
3120.182385 0.8910 0.8910 0.8910 0.8910 0.8910
3126.834281 0.8910 0.8910 0.8910 0.8910 0.8910
3133.486177 0.8910 0.8910 0.8910 0.8910 0.8910
3140.138073 0.8909 0.8904 0.8900 0.8900 0.8900
3146.789969 0.8900 0.8898 0.8888 0.8878 0.8868
3153.441865 0.8858 0.8848 0.8840 0.8840 0.8840
3160.093762 0.8840 0.8840 0.8840 0.8840 0.8840
3166.745658 0.8840 0.8840 0.8839 0.8834 0.8830
3173.397554 0.8830 0.8829 0.8824 0.8818 0.8808
3180.049450 0.8799 0.8794 0.8790 0.8790 0.8790
3186.701346 0.8790 0.8789 0.8784 0.8780 0.8780
3193.353242 0.8778 0.8768 0.8760 0.8760 0.8759
3200.005138 0.8754 0.8750 0.8750 0.8748 0.8738
3206.657034 0.8729 0.8724 0.8720 0.8720 0.8719
3213.308930 0.8714 0.8708 0.8698 0.8690 0.8690
3219.960826 0.8688 0.8678 0.8668 0.8658 0.8650
3226.612722 0.8650 0.8649 0.8644 0.8639 0.8634
3233.264619 0.8630 0.8630 0.8628 0.8618 0.8609
3239.916515 0.8604 0.8600 0.8600 0.8600 0.8600
3246.568411 0.8599 0.8594 0.8590 0.8590 0.8590
3253.220307 0.8590 0.8590 0.8590 0.8588 0.8578
3259.872203 0.8569 0.8564 0.8560 0.8560 0.8560
3266.524099 0.8560 0.8559 0.8554 0.8550 0.8550
3273.175995 0.8549 0.8539 0.8529 0.8524 0.8520
3279.827891 0.8520 0.8519 0.8514 0.8509 0.8499
3286.479787 0.8489 0.8479 0.8468 0.8453 0.8440
3293.131683 0.8440 0.8439 0.8434 0.8429 0.8419
3299.783579 0.8409 0.8404 0.8399 0.8394 0.8389
3306.435476 0.8379 0.8369 0.8359 0.8349 0.8339
3313.087372 0.8329 0.8324 0.8320 0.8320 0.8319
3319.739268 0.8314 0.8308 0.8293 0.8278 0.8258
3326.391164 0.8239 0.8224 0.8210 0.8210 0.8209
3333.043060 0.8204 0.8199 0.8194 0.8190 0.8190
3339.694956 0.8188 0.8168 0.8149 0.8134 0.8119
3346.346852 0.8104 0.8088 0.8068 0.8049 0.8034
3352.998748 0.8020 0.8015 0.8010 0.8005 0.7999
3359.650644 0.7989 0.7976 0.7936 0.7898 0.7873
3366.302540 0.7849 0.7834 0.7819 0.7809 0.7799
3372.954436 0.7789 0.7778 0.7753 0.7730 0.7725
3379.606333 0.7719 0.7704 0.7688 0.7647 0.7609
3386.258229 0.7594 0.7578 0.7559 0.7539 0.7529
3392.910125 0.7519 0.7509 0.7499 0.7479 0.7459
3399.562021 0.7439 0.7419 0.7399 0.7379 0.7354
3406.213917 0.7329 0.7314 0.7300 0.7295 0.7289
3412.865813 0.7274 0.7259 0.7244 0.7229 0.7219
3419.517709 0.7209 0.7189 0.7169 0.7139 0.7110
3426.169605 0.7105 0.7099 0.7084 0.7070 0.7065
3432.821501 0.7060 0.7045 0.7030 0.7025 0.7019
3439.473397 0.7004 0.6990 0.6985 0.6979 0.6964
3446.125294 0.6950 0.6945 0.6940 0.6935 0.6930
3452.777190 0.6930 0.6930 0.6920 0.6910 0.6910
3459.429086 0.6910 0.6910 0.6910 0.6910 0.6910
3466.080982 0.6910 0.6910 0.6910 0.6910 0.6910
3472.732878 0.6910 0.6920 0.6930 0.6930 0.6930
3479.384774 0.6935 0.6940 0.6940 0.6940 0.6945
3486.036670 0.6950 0.6960 0.6970 0.6975 0.6980
3492.688566 0.6980 0.6980 0.6985 0.6990 0.7000
3499.340462 0.7010 0.7015 0.7020 0.7025 0.7030
3505.992358 0.7040 0.7050 0.7055 0.7060 0.7065
3512.644254 0.7070 0.7089 0.7109 0.7120 0.7130
3519.296151 0.7135 0.7140 0.7155 0.7170 0.7190
3525.948047 0.7210 0.7215 0.7220 0.7225 0.7230
3532.599943 0.7240 0.7250 0.7260 0.7270 0.7280
3539.251839 0.7290 0.7295 0.7300 0.7314 0.7330
3545.903735 0.7335 0.7340 0.7359 0.7379 0.7394
3552.555631 0.7409 0.7429 0.7449 0.7474 0.7499
3559.207527 0.7510 0.7519 0.7548 0.7578 0.7599
3565.859423 0.7619 0.7629 0.7639 0.7664 0.7689
3572.511319 0.7704 0.7719 0.7749 0.7778 0.7789
3579.163215 0.7799 0.7809 0.7819 0.7848 0.7878
3585.815111 0.7885 0.7890 0.7913 0.7938 0.7949
3592.467008 0.7959 0.7965 0.7970 0.7993 0.8018
3599.118904 0.8039 0.8059 0.8074 0.8089 0.8104
3605.770800 0.8119 0.8134 0.8149 0.8173 0.8198
3612.422696 0.8223 0.8248 0.8268 0.8288 0.8304
3619.074592 0.8319 0.8325 0.8330 0.8344 0.8359
3625.726488 0.8374 0.8389 0.8395 0.8400 0.8414
3632.378384 0.8429 0.8453 0.8478 0.8485 0.8490
3639.030280 0.8499 0.8509 0.8514 0.8519 0.8533
3645.682176 0.8548 0.8550 0.8550 0.8554 0.8560
3652.334072 0.8574 0.8588 0.8590 0.8590 0.8594
3658.985969 0.8599 0.8604 0.8609 0.8610 0.8610
3665.637865 0.8610 0.8610 0.8610 0.8610 0.8610
3672.289761 0.8610 0.8610 0.8610 0.8610 0.8610
3678.941657 0.8610 0.8610 0.8619 0.8629 0.8630
3685.593553 0.8630 0.8630 0.8630 0.8630 0.8630
3692.245449 0.8630 0.8630 0.8621 0.8611 0.8610
3698.897345 0.8610 0.8610 0.8610 0.8610 0.8610
3705.549241 0.8610 0.8610 0.8610 0.8610 0.8610
3712.201137 0.8610 0.8610 0.8610 0.8610 0.8610
3718.853033 0.8610 0.8610 0.8610 0.8610 0.8618
3725.504929 0.8628 0.8630 0.8630 0.8634 0.8639
3732.156826 0.8644 0.8649 0.8650 0.8650 0.8658
3738.808722 0.8668 0.8674 0.8679 0.8680 0.8680
3745.460618 0.8676 0.8671 0.8662 0.8652 0.8650
3752.112514 0.8650 0.8650 0.8650 0.8650 0.8650
3758.764410 0.8646 0.8641 0.8640 0.8640 0.8644
3765.416306 0.8649 0.8646 0.8641 0.8640 0.8640
3772.068202 0.8640 0.8640 0.8640 0.8640 0.8640
3778.720098 0.8640 0.8640 0.8640 0.8640 0.8640
3785.371994 0.8640 0.8640 0.8640 0.8640 0.8640
3792.023890 0.8640 0.8640 0.8640 0.8636 0.8631
3798.675786 0.8634 0.8639 0.8636 0.8631 0.8630
3805.327683 0.8630 0.8630 0.8630 0.8630 0.8630
3811.979579 0.8630 0.8630 0.8622 0.8612 0.8618
3818.631475 0.8628 0.8630 0.8630 0.8622 0.8612
3825.283371 0.8610 0.8610 0.8610 0.8610 0.8610
3831.935267 0.8610 0.8610 0.8610 0.8606 0.8601
3838.587163 0.8596 0.8591 0.8590 0.8590 0.8590
3845.239059 0.8590 0.8590 0.8590 0.8590 0.8590
3851.890955 0.8590 0.8590 0.8594 0.8599 0.8604
3858.542851 0.8609 0.8610 0.8610 0.8606 0.8601
3865.194747 0.8596 0.8591 0.8590 0.8590 0.8590
3871.846643 0.8590 0.8590 0.8590 0.8590 0.8590
3878.498540 0.8590 0.8590 0.8590 0.8590 0.8594
3885.150436 0.8599 0.8600 0.8600 0.8600 0.8600
3891.802332 0.8596 0.8591 0.8590 0.8590 0.8594
3898.454228 0.8599 0.8600 0.8600 0.8596 0.8591
3905.106124 0.8583 0.8573 0.8570 0.8570 0.8570
3911.758020 0.8570 0.8570 0.8570 0.8566 0.8561
3918.409916 0.8560 0.8560 0.8560 0.8560 0.8560
3925.061812 0.8560 0.8560 0.8560 0.8560 0.8560
3931.713708 0.8564 0.8569 0.8577 0.8587 0.8590
3938.365604 0.8590 0.8593 0.8598 0.8600 0.8600
3945.017501 0.8600 0.8600 0.8596 0.8591 0.8590
3951.669397 0.8590 0.8590 0.8590 0.8590 0.8590
3958.321293 0.8590 0.8590 0.8590 0.8590 0.8590
3964.973189 0.8590 0.8590 0.8590 0.8590 0.8590
3971.625085 0.8583 0.8573 0.8570 0.8570 0.8570
3978.276981 0.8570 0.8570 0.8570 0.8570 0.8570
3984.928877 0.8570 0.8570
##END=
