##TITLE=PYRIDYLAMINE, N-(3-DIMETHYLAMINOPROPYL)THIOPHENYL-, HYDROCHLORIDE
##JCAMP-DX=4.24
$$ By DXEDIT 1.05 (RS McDonald)
##DATA TYPE=INFRARED SPECTRUM
##CLASS=COBLENTZ III
##OWNER=COPYRIGHT (C) 1988 by COBLENTZ SOCIETY INC.
Collection (C) 2018 copyright by the U.S. Secretary of Commerce
on behalf of the United States of America. All rights reserved.
##DATE=1963/08/02
##NAMES=N,N-dimethyl-3-(10H-pyrido[3,2-b][1,4]benzothiazin-10-yl)-1-propanamine hydrochloride
PROTHIPENDYL HYDROCHLORIDE
##MOLFORM=C16 H20 Cl N3 S
##MP=108-112 C
##SOURCE REFERENCE=COBLENTZ NO. 5166
##$NIST ID=B6005166
##$NIST SOURCE=COBLENTZ
##$NIST IMAGE=cob5166
##SPECTROMETER/DATA SYSTEM=PERKIN-ELMER 21 (GRATING)
##INSTRUMENT PARAMETERS=FILTER AT ABOUT 10 MICRONS
##STATE=SOLID (KCl DISC) VS KCl
##SAMPLING PROCEDURE=TRANSMISSION
##RESOLUTION=2
##DATA PROCESSING=DIGITIZED BY COBLENTZ SOCIETY (BATCH I) FROM HARD COPY
##XUNITS=1/CM
##YUNITS=TRANSMITTANCE
##XFACTOR=1
##YFACTOR=1
##DELTAX=1
##FIRSTX=4000
##LASTX=670
##FIRSTY=0.9084
##MAXX=4000
##MINX=670
##MAXY=0.9466
##MINY=0.3239
##NPOINTS=3331
##XYDATA=(X++(Y..Y))
4000.000000 0.9084 0.9083 0.9085 0.9085 0.9086
3995.000000 0.9086 0.9087 0.9088 0.9090 0.9091
3990.000000 0.9092 0.9095 0.9096 0.9098 0.9100
3985.000000 0.9102 0.9105 0.9106 0.9109 0.9110
3980.000000 0.9113 0.9114 0.9117 0.9118 0.9121
3975.000000 0.9122 0.9125 0.9126 0.9129 0.9132
3970.000000 0.9133 0.9136 0.9137 0.9139 0.9141
3965.000000 0.9143 0.9145 0.9147 0.9148 0.9151
3960.000000 0.9154 0.9155 0.9158 0.9159 0.9162
3955.000000 0.9163 0.9166 0.9167 0.9168 0.9171
3950.000000 0.9172 0.9173 0.9175 0.9176 0.9177
3945.000000 0.9177 0.9178 0.9179 0.9181 0.9180
3940.000000 0.9182 0.9183 0.9184 0.9185 0.9185
3935.000000 0.9185 0.9186 0.9189 0.9188 0.9190
3930.000000 0.9191 0.9192 0.9193 0.9193 0.9194
3925.000000 0.9196 0.9197 0.9197 0.9198 0.9199
3920.000000 0.9200 0.9201 0.9201 0.9202 0.9204
3915.000000 0.9205 0.9206 0.9206 0.9207 0.9208
3910.000000 0.9209 0.9211 0.9210 0.9210 0.9211
3905.000000 0.9214 0.9215 0.9215 0.9216 0.9217
3900.000000 0.9218 0.9220 0.9219 0.9220 0.9222
3895.000000 0.9223 0.9224 0.9224 0.9225 0.9226
3890.000000 0.9227 0.9229 0.9230 0.9229 0.9231
3885.000000 0.9232 0.9233 0.9234 0.9234 0.9235
3880.000000 0.9236 0.9237 0.9239 0.9240 0.9239
3875.000000 0.9242 0.9243 0.9244 0.9246 0.9247
3870.000000 0.9248 0.9251 0.9252 0.9253 0.9254
3865.000000 0.9255 0.9256 0.9259 0.9260 0.9261
3860.000000 0.9262 0.9264 0.9266 0.9267 0.9267
3855.000000 0.9268 0.9271 0.9272 0.9275 0.9276
3850.000000 0.9277 0.9278 0.9279 0.9282 0.9283
3845.000000 0.9284 0.9285 0.9286 0.9289 0.9290
3840.000000 0.9291 0.9292 0.9293 0.9296 0.9297
3835.000000 0.9298 0.9299 0.9302 0.9303 0.9304
3830.000000 0.9305 0.9306 0.9309 0.9310 0.9311
3825.000000 0.9312 0.9313 0.9316 0.9317 0.9318
3820.000000 0.9319 0.9322 0.9323 0.9324 0.9325
3815.000000 0.9328 0.9329 0.9330 0.9331 0.9332
3810.000000 0.9333 0.9336 0.9337 0.9338 0.9340
3805.000000 0.9341 0.9343 0.9344 0.9346 0.9347
3800.000000 0.9348 0.9349 0.9352 0.9353 0.9354
3795.000000 0.9355 0.9358 0.9359 0.9360 0.9361
3790.000000 0.9363 0.9364 0.9366 0.9368 0.9369
3785.000000 0.9372 0.9373 0.9374 0.9376 0.9377
3780.000000 0.9378 0.9379 0.9379 0.9380 0.9381
3775.000000 0.9382 0.9383 0.9384 0.9385 0.9386
3770.000000 0.9387 0.9388 0.9390 0.9391 0.9392
3765.000000 0.9393 0.9391 0.9392 0.9394 0.9395
3760.000000 0.9395 0.9396 0.9397 0.9398 0.9399
3755.000000 0.9400 0.9401 0.9402 0.9403 0.9404
3750.000000 0.9405 0.9406 0.9407 0.9408 0.9408
3745.000000 0.9409 0.9410 0.9411 0.9412 0.9412
3740.000000 0.9413 0.9414 0.9415 0.9416 0.9417
3735.000000 0.9418 0.9419 0.9420 0.9421 0.9422
3730.000000 0.9423 0.9424 0.9425 0.9424 0.9425
3725.000000 0.9426 0.9427 0.9428 0.9429 0.9430
3720.000000 0.9431 0.9432 0.9433 0.9433 0.9434
3715.000000 0.9435 0.9436 0.9437 0.9438 0.9439
3710.000000 0.9440 0.9441 0.9442 0.9443 0.9442
3705.000000 0.9443 0.9444 0.9445 0.9445 0.9446
3700.000000 0.9447 0.9446 0.9447 0.9448 0.9448
3695.000000 0.9449 0.9448 0.9449 0.9450 0.9450
3690.000000 0.9451 0.9452 0.9451 0.9452 0.9453
3685.000000 0.9453 0.9454 0.9455 0.9453 0.9454
3680.000000 0.9456 0.9456 0.9457 0.9458 0.9457
3675.000000 0.9458 0.9458 0.9459 0.9458 0.9459
3670.000000 0.9459 0.9460 0.9461 0.9460 0.9461
3665.000000 0.9461 0.9462 0.9461 0.9461 0.9462
3660.000000 0.9461 0.9461 0.9462 0.9461 0.9461
3655.000000 0.9460 0.9461 0.9461 0.9461 0.9460
3650.000000 0.9460 0.9459 0.9460 0.9458 0.9459
3645.000000 0.9460 0.9460 0.9459 0.9459 0.9458
3640.000000 0.9458 0.9459 0.9458 0.9459 0.9459
3635.000000 0.9460 0.9459 0.9460 0.9460 0.9461
3630.000000 0.9460 0.9461 0.9461 0.9462 0.9461
3625.000000 0.9462 0.9462 0.9462 0.9462 0.9463
3620.000000 0.9462 0.9463 0.9463 0.9462 0.9462
3615.000000 0.9461 0.9461 0.9461 0.9460 0.9458
3610.000000 0.9458 0.9457 0.9455 0.9454 0.9455
3605.000000 0.9453 0.9451 0.9452 0.9451 0.9449
3600.000000 0.9449 0.9447 0.9447 0.9446 0.9444
3595.000000 0.9444 0.9443 0.9443 0.9441 0.9439
3590.000000 0.9437 0.9436 0.9434 0.9432 0.9429
3585.000000 0.9427 0.9424 0.9422 0.9420 0.9416
3580.000000 0.9410 0.9402 0.9398 0.9393 0.9387
3575.000000 0.9382 0.9376 0.9370 0.9364 0.9358
3570.000000 0.9352 0.9346 0.9340 0.9335 0.9327
3565.000000 0.9317 0.9307 0.9298 0.9289 0.9279
3560.000000 0.9269 0.9261 0.9251 0.9241 0.9231
3555.000000 0.9220 0.9209 0.9197 0.9186 0.9175
3550.000000 0.9162 0.9151 0.9139 0.9126 0.9114
3545.000000 0.9101 0.9089 0.9076 0.9065 0.9053
3540.000000 0.9037 0.9022 0.9007 0.8993 0.8978
3535.000000 0.8962 0.8947 0.8931 0.8915 0.8900
3530.000000 0.8882 0.8866 0.8848 0.8832 0.8813
3525.000000 0.8776 0.8738 0.8702 0.8665 0.8628
3520.000000 0.8593 0.8556 0.8521 0.8486 0.8442
3515.000000 0.8362 0.8280 0.8200 0.8119 0.8040
3510.000000 0.7972 0.7904 0.7838 0.7770 0.7702
3505.000000 0.7634 0.7567 0.7499 0.7431 0.7363
3500.000000 0.7295 0.7228 0.7160 0.7092 0.7026
3495.000000 0.6959 0.6891 0.6824 0.6756 0.6689
3490.000000 0.6622 0.6554 0.6486 0.6418 0.6394
3485.000000 0.6382 0.6372 0.6360 0.6349 0.6346
3480.000000 0.6344 0.6343 0.6342 0.6340 0.6340
3475.000000 0.6340 0.6341 0.6341 0.6340 0.6340
3470.000000 0.6342 0.6342 0.6343 0.6343 0.6345
3465.000000 0.6346 0.6348 0.6350 0.6353 0.6358
3460.000000 0.6364 0.6370 0.6375 0.6375 0.6374
3455.000000 0.6375 0.6374 0.6374 0.6373 0.6372
3450.000000 0.6371 0.6370 0.6369 0.6367 0.6366
3445.000000 0.6364 0.6361 0.6359 0.6355 0.6352
3440.000000 0.6350 0.6346 0.6340 0.6332 0.6326
3435.000000 0.6319 0.6311 0.6307 0.6301 0.6299
3430.000000 0.6294 0.6291 0.6287 0.6283 0.6280
3425.000000 0.6276 0.6274 0.6272 0.6270 0.6267
3420.000000 0.6266 0.6265 0.6266 0.6265 0.6265
3415.000000 0.6265 0.6268 0.6270 0.6272 0.6275
3410.000000 0.6284 0.6299 0.6313 0.6328 0.6341
3405.000000 0.6357 0.6370 0.6383 0.6397 0.6410
3400.000000 0.6423 0.6436 0.6448 0.6461 0.6473
3395.000000 0.6487 0.6500 0.6512 0.6525 0.6538
3390.000000 0.6550 0.6563 0.6576 0.6588 0.6598
3385.000000 0.6609 0.6621 0.6631 0.6641 0.6652
3380.000000 0.6662 0.6672 0.6683 0.6693 0.6702
3375.000000 0.6713 0.6723 0.6734 0.6744 0.6753
3370.000000 0.6764 0.6774 0.6785 0.6795 0.6804
3365.000000 0.6813 0.6825 0.6836 0.6846 0.6856
3360.000000 0.6865 0.6876 0.6886 0.6897 0.6906
3355.000000 0.6917 0.6926 0.6938 0.6947 0.6957
3350.000000 0.6968 0.6978 0.6988 0.6999 0.7009
3345.000000 0.7018 0.7028 0.7037 0.7048 0.7057
3340.000000 0.7067 0.7075 0.7086 0.7095 0.7105
3335.000000 0.7114 0.7125 0.7134 0.7144 0.7151
3330.000000 0.7163 0.7173 0.7182 0.7192 0.7201
3325.000000 0.7210 0.7222 0.7230 0.7241 0.7251
3320.000000 0.7261 0.7271 0.7280 0.7290 0.7298
3315.000000 0.7309 0.7319 0.7328 0.7338 0.7348
3310.000000 0.7356 0.7367 0.7376 0.7386 0.7396
3305.000000 0.7406 0.7416 0.7425 0.7434 0.7444
3300.000000 0.7454 0.7463 0.7472 0.7482 0.7489
3295.000000 0.7498 0.7507 0.7515 0.7522 0.7532
3290.000000 0.7539 0.7548 0.7556 0.7565 0.7573
3285.000000 0.7583 0.7591 0.7597 0.7607 0.7616
3280.000000 0.7625 0.7632 0.7641 0.7650 0.7658
3275.000000 0.7667 0.7675 0.7684 0.7690 0.7700
3270.000000 0.7708 0.7717 0.7725 0.7733 0.7742
3265.000000 0.7751 0.7759 0.7768 0.7776 0.7785
3260.000000 0.7794 0.7802 0.7809 0.7817 0.7824
3255.000000 0.7831 0.7837 0.7843 0.7850 0.7856
3250.000000 0.7862 0.7869 0.7876 0.7882 0.7888
3245.000000 0.7894 0.7900 0.7908 0.7914 0.7920
3240.000000 0.7927 0.7933 0.7940 0.7945 0.7952
3235.000000 0.7958 0.7964 0.7971 0.7977 0.7983
3230.000000 0.7989 0.7995 0.8002 0.8010 0.8016
3225.000000 0.8023 0.8029 0.8035 0.8041 0.8048
3220.000000 0.8054 0.8061 0.8067 0.8074 0.8080
3215.000000 0.8086 0.8093 0.8099 0.8105 0.8111
3210.000000 0.8118 0.8124 0.8132 0.8139 0.8146
3205.000000 0.8156 0.8164 0.8174 0.8183 0.8193
3200.000000 0.8202 0.8210 0.8220 0.8229 0.8239
3195.000000 0.8248 0.8257 0.8266 0.8276 0.8284
3190.000000 0.8293 0.8302 0.8311 0.8321 0.8330
3185.000000 0.8339 0.8349 0.8358 0.8368 0.8376
3180.000000 0.8385 0.8395 0.8404 0.8414 0.8423
3175.000000 0.8432 0.8441 0.8450 0.8458 0.8467
3170.000000 0.8476 0.8484 0.8491 0.8498 0.8504
3165.000000 0.8510 0.8517 0.8524 0.8530 0.8537
3160.000000 0.8542 0.8549 0.8556 0.8563 0.8569
3155.000000 0.8575 0.8582 0.8589 0.8595 0.8602
3150.000000 0.8607 0.8614 0.8621 0.8628 0.8633
3145.000000 0.8640 0.8647 0.8653 0.8658 0.8665
3140.000000 0.8671 0.8676 0.8682 0.8687 0.8693
3135.000000 0.8699 0.8704 0.8710 0.8717 0.8722
3130.000000 0.8728 0.8733 0.8739 0.8744 0.8749
3125.000000 0.8757 0.8761 0.8767 0.8772 0.8778
3120.000000 0.8783 0.8789 0.8795 0.8801 0.8805
3115.000000 0.8811 0.8816 0.8821 0.8826 0.8830
3110.000000 0.8836 0.8840 0.8845 0.8849 0.8853
3105.000000 0.8856 0.8859 0.8861 0.8864 0.8865
3100.000000 0.8867 0.8868 0.8868 0.8870 0.8871
3095.000000 0.8872 0.8872 0.8873 0.8875 0.8877
3090.000000 0.8877 0.8876 0.8875 0.8875 0.8874
3085.000000 0.8873 0.8871 0.8869 0.8868 0.8866
3080.000000 0.8864 0.8863 0.8862 0.8860 0.8859
3075.000000 0.8857 0.8854 0.8851 0.8847 0.8845
3070.000000 0.8839 0.8835 0.8829 0.8825 0.8821
3065.000000 0.8816 0.8810 0.8799 0.8786 0.8773
3060.000000 0.8759 0.8747 0.8736 0.8724 0.8714
3055.000000 0.8707 0.8702 0.8696 0.8691 0.8686
3050.000000 0.8679 0.8674 0.8669 0.8664 0.8659
3045.000000 0.8652 0.8650 0.8647 0.8644 0.8641
3040.000000 0.8638 0.8636 0.8633 0.8630 0.8627
3035.000000 0.8625 0.8622 0.8618 0.8615 0.8612
3030.000000 0.8610 0.8607 0.8604 0.8601 0.8598
3025.000000 0.8596 0.8593 0.8590 0.8586 0.8583
3020.000000 0.8581 0.8578 0.8574 0.8570 0.8566
3015.000000 0.8562 0.8558 0.8554 0.8549 0.8545
3010.000000 0.8543 0.8539 0.8535 0.8530 0.8526
3005.000000 0.8522 0.8516 0.8508 0.8502 0.8495
3000.000000 0.8485 0.8477 0.8468 0.8459 0.8450
2995.000000 0.8440 0.8431 0.8421 0.8410 0.8400
2990.000000 0.8379 0.8348 0.8316 0.8285 0.8258
2985.000000 0.8231 0.8205 0.8179 0.8152 0.8126
2980.000000 0.8099 0.8072 0.8047 0.8020 0.7993
2975.000000 0.7968 0.7941 0.7914 0.7888 0.7862
2970.000000 0.7835 0.7810 0.7783 0.7757 0.7730
2965.000000 0.7704 0.7677 0.7652 0.7624 0.7598
2960.000000 0.7572 0.7545 0.7519 0.7492 0.7466
2955.000000 0.7441 0.7414 0.7388 0.7360 0.7333
2950.000000 0.7308 0.7280 0.7256 0.7250 0.7247
2945.000000 0.7242 0.7239 0.7236 0.7203 0.7231
2940.000000 0.7229 0.7228 0.7225 0.7229 0.7233
2935.000000 0.7239 0.7248 0.7267 0.7289 0.7308
2930.000000 0.7329 0.7352 0.7373 0.7392 0.7405
2925.000000 0.7418 0.7431 0.7445 0.7458 0.7472
2920.000000 0.7486 0.7500 0.7514 0.7528 0.7541
2915.000000 0.7556 0.7571 0.7585 0.7600 0.7613
2910.000000 0.7629 0.7642 0.7656 0.7671 0.7685
2905.000000 0.7700 0.7714 0.7726 0.7738 0.7751
2900.000000 0.7762 0.7773 0.7784 0.7795 0.7806
2895.000000 0.7817 0.7827 0.7838 0.7848 0.7859
2890.000000 0.7868 0.7881 0.7892 0.7903 0.7913
2885.000000 0.7924 0.7934 0.7945 0.7954 0.7964
2880.000000 0.7974 0.7985 0.7995 0.8004 0.8014
2875.000000 0.8025 0.8035 0.8045 0.8055 0.8065
2870.000000 0.8075 0.8086 0.8096 0.8106 0.8117
2865.000000 0.8127 0.8136 0.8147 0.8157 0.8167
2860.000000 0.8177 0.8187 0.8198 0.8207 0.8217
2855.000000 0.8228 0.8237 0.8246 0.8253 0.8261
2850.000000 0.8269 0.8276 0.8284 0.8290 0.8297
2845.000000 0.8305 0.8312 0.8320 0.8327 0.8334
2840.000000 0.8342 0.8348 0.8355 0.8362 0.8370
2835.000000 0.8377 0.8384 0.8392 0.8399 0.8407
2830.000000 0.8414 0.8421 0.8428 0.8435 0.8442
2825.000000 0.8450 0.8457 0.8464 0.8472 0.8479
2820.000000 0.8485 0.8492 0.8499 0.8506 0.8512
2815.000000 0.8519 0.8525 0.8531 0.8539 0.8545
2810.000000 0.8552 0.8558 0.8565 0.8572 0.8578
2805.000000 0.8586 0.8593 0.8599 0.8606 0.8612
2800.000000 0.8618 0.8626 0.8633 0.8640 0.8646
2795.000000 0.8651 0.8656 0.8661 0.8667 0.8672
2790.000000 0.8678 0.8682 0.8687 0.8692 0.8697
2785.000000 0.8702 0.8707 0.8711 0.8714 0.8716
2780.000000 0.8718 0.8721 0.8722 0.8724 0.8726
2775.000000 0.8708 0.8728 0.8726 0.8725 0.8723
2770.000000 0.8721 0.8720 0.8717 0.8715 0.8714
2765.000000 0.8711 0.8709 0.8708 0.8704 0.8698
2760.000000 0.8693 0.8687 0.8681 0.8675 0.8669
2755.000000 0.8664 0.8658 0.8651 0.8647 0.8641
2750.000000 0.8635 0.8630 0.8624 0.8618 0.8610
2745.000000 0.8603 0.8595 0.8588 0.8580 0.8572
2740.000000 0.8565 0.8557 0.8549 0.8542 0.8534
2735.000000 0.8526 0.8515 0.8505 0.8495 0.8482
2730.000000 0.8468 0.8454 0.8440 0.8427 0.8413
2725.000000 0.8399 0.8385 0.8371 0.8357 0.8344
2720.000000 0.8327 0.8307 0.8288 0.8267 0.8246
2715.000000 0.8224 0.8202 0.8181 0.8158 0.8137
2710.000000 0.8115 0.8095 0.8072 0.8048 0.8023
2705.000000 0.7999 0.7976 0.7952 0.7925 0.7897
2700.000000 0.7870 0.7834 0.7794 0.7754 0.7715
2695.000000 0.7675 0.7635 0.7596 0.7556 0.7517
2690.000000 0.7477 0.7437 0.7398 0.7358 0.7319
2685.000000 0.7278 0.7239 0.7200 0.7159 0.7121
2680.000000 0.7081 0.7041 0.7002 0.6961 0.6922
2675.000000 0.6882 0.6843 0.6792 0.6738 0.6684
2670.000000 0.6637 0.6593 0.6550 0.6516 0.6483
2665.000000 0.6446 0.6394 0.6343 0.6300 0.6272
2660.000000 0.6243 0.6222 0.6205 0.6187 0.6175
2655.000000 0.6161 0.6148 0.6134 0.6121 0.6107
2650.000000 0.6095 0.6083 0.6071 0.6059 0.6048
2645.000000 0.6037 0.6025 0.6014 0.6002 0.5991
2640.000000 0.5980 0.5967 0.5955 0.5943 0.5925
2635.000000 0.5910 0.5894 0.5878 0.5863 0.5844
2630.000000 0.5824 0.5804 0.5789 0.5777 0.5764
2625.000000 0.5756 0.5748 0.5739 0.5732 0.5724
2620.000000 0.5716 0.5708 0.5701 0.5693 0.5685
2615.000000 0.5677 0.5668 0.5660 0.5650 0.5641
2610.000000 0.5633 0.5624 0.5615 0.5606 0.5597
2605.000000 0.5587 0.5579 0.5569 0.5559 0.5549
2600.000000 0.5539 0.5530 0.5522 0.5514 0.5507
2595.000000 0.5500 0.5493 0.5485 0.5479 0.5472
2590.000000 0.5464 0.5456 0.5448 0.5444 0.5440
2585.000000 0.5439 0.5439 0.5440 0.5441 0.5444
2580.000000 0.5446 0.5448 0.5396 0.5456 0.5467
2575.000000 0.5478 0.5490 0.5504 0.5516 0.5537
2570.000000 0.5559 0.5581 0.5603 0.5624 0.5645
2565.000000 0.5667 0.5689 0.5709 0.5731 0.5753
2560.000000 0.5775 0.5796 0.5817 0.5839 0.5861
2555.000000 0.5882 0.5903 0.5925 0.5947 0.5969
2550.000000 0.5991 0.6012 0.6034 0.6054 0.6077
2545.000000 0.6099 0.6120 0.6142 0.6163 0.6185
2540.000000 0.6206 0.6228 0.6249 0.6271 0.6292
2535.000000 0.6314 0.6336 0.6358 0.6380 0.6401
2530.000000 0.6420 0.6430 0.6441 0.6440 0.6441
2525.000000 0.6434 0.6431 0.6427 0.6419 0.6408
2520.000000 0.6395 0.6378 0.6360 0.6344 0.6328
2515.000000 0.6310 0.6303 0.6296 0.6289 0.6282
2510.000000 0.6275 0.6270 0.6264 0.6260 0.6257
2505.000000 0.6254 0.6251 0.6248 0.6245 0.6242
2500.000000 0.6241 0.6241 0.6240 0.6237 0.6236
2495.000000 0.6234 0.6233 0.6232 0.6231 0.6229
2490.000000 0.6227 0.6226 0.6224 0.6222 0.6220
2485.000000 0.6217 0.6216 0.6213 0.6212 0.6210
2480.000000 0.6207 0.6200 0.6193 0.6186 0.6179
2475.000000 0.6172 0.6164 0.6157 0.6146 0.6134
2470.000000 0.6124 0.6116 0.6108 0.6103 0.6097
2465.000000 0.6094 0.6091 0.6087 0.6085 0.6087
2460.000000 0.6086 0.6084 0.6087 0.6096 0.6104
2455.000000 0.6111 0.6118 0.6127 0.6139 0.6151
2450.000000 0.6168 0.6185 0.6203 0.6221 0.6238
2445.000000 0.6257 0.6276 0.6295 0.6315 0.6332
2440.000000 0.6352 0.6369 0.6387 0.6406 0.6424
2435.000000 0.6442 0.6460 0.6477 0.6496 0.6514
2430.000000 0.6533 0.6552 0.6571 0.6592 0.6617
2425.000000 0.6643 0.6668 0.6693 0.6717 0.6744
2420.000000 0.6769 0.6795 0.6820 0.6847 0.6873
2415.000000 0.6899 0.6927 0.6953 0.6980 0.7006
2410.000000 0.7027 0.7045 0.7063 0.7079 0.7096
2405.000000 0.7113 0.7131 0.7147 0.7164 0.7181
2400.000000 0.7198 0.7215 0.7232 0.7248 0.7265
2395.000000 0.7282 0.7299 0.7316 0.7335 0.7355
2390.000000 0.7376 0.7398 0.7418 0.7436 0.7454
2385.000000 0.7471 0.7487 0.7502 0.7519 0.7535
2380.000000 0.7551 0.7567 0.7584 0.7601 0.7617
2375.000000 0.7632 0.7645 0.7645 0.7646 0.7647
2370.000000 0.7648 0.7649 0.7649 0.7650 0.7650
2365.000000 0.7651 0.7652 0.7652 0.7653 0.7653
2360.000000 0.7654 0.7655 0.7655 0.7656 0.7656
2355.000000 0.7657 0.7658 0.7661 0.7666 0.7670
2350.000000 0.7674 0.7679 0.7684 0.7689 0.7693
2345.000000 0.7699 0.7703 0.7709 0.7714 0.7719
2340.000000 0.7726 0.7732 0.7738 0.7745 0.7751
2335.000000 0.7757 0.7764 0.7770 0.7776 0.7783
2330.000000 0.7789 0.7799 0.7809 0.7822 0.7835
2325.000000 0.7848 0.7862 0.7875 0.7888 0.7900
2320.000000 0.7914 0.7928 0.7943 0.7959 0.7974
2315.000000 0.7989 0.8005 0.8021 0.8035 0.8050
2310.000000 0.8066 0.8082 0.8099 0.8119 0.8141
2305.000000 0.8164 0.8186 0.8209 0.8231 0.8255
2300.000000 0.8279 0.8304 0.8329 0.8353 0.8378
2295.000000 0.8404 0.8429 0.8448 0.8463 0.8476
2290.000000 0.8489 0.8502 0.8514 0.8526 0.8539
2285.000000 0.8551 0.8563 0.8575 0.8587 0.8599
2280.000000 0.8611 0.8624 0.8635 0.8647 0.8659
2275.000000 0.8671 0.8683 0.8695 0.8706 0.8718
2270.000000 0.8730 0.8740 0.8748 0.8753 0.8759
2265.000000 0.8765 0.8770 0.8775 0.8781 0.8787
2260.000000 0.8792 0.8797 0.8802 0.8808 0.8814
2255.000000 0.8819 0.8825 0.8831 0.8836 0.8841
2250.000000 0.8845 0.8850 0.8854 0.8857 0.8861
2245.000000 0.8865 0.8868 0.8871 0.8875 0.8879
2240.000000 0.8883 0.8887 0.8891 0.8895 0.8899
2235.000000 0.8903 0.8906 0.8910 0.8913 0.8918
2230.000000 0.8921 0.8924 0.8927 0.8931 0.8933
2225.000000 0.8938 0.8942 0.8944 0.8948 0.8951
2220.000000 0.8954 0.8957 0.8961 0.8964 0.8968
2215.000000 0.8970 0.8974 0.8978 0.8982 0.8985
2210.000000 0.8988 0.8990 0.8992 0.8994 0.8996
2205.000000 0.8999 0.9001 0.9003 0.9004 0.9008
2200.000000 0.9010 0.9013 0.9015 0.9017 0.9019
2195.000000 0.9020 0.9022 0.9025 0.9027 0.9029
2190.000000 0.9032 0.9034 0.9036 0.9038 0.9041
2185.000000 0.9042 0.9046 0.9048 0.9050 0.9052
2180.000000 0.9056 0.9057 0.9061 0.9063 0.9066
2175.000000 0.9068 0.9070 0.9072 0.9075 0.9077
2170.000000 0.9079 0.9082 0.9084 0.9088 0.9090
2165.000000 0.9093 0.9095 0.9096 0.9100 0.9102
2160.000000 0.9104 0.9106 0.9110 0.9113 0.9115
2155.000000 0.9116 0.9119 0.9121 0.9122 0.9123
2150.000000 0.9124 0.9124 0.9126 0.9127 0.9128
2145.000000 0.9130 0.9131 0.9132 0.9134 0.9136
2140.000000 0.9137 0.9138 0.9140 0.9142 0.9143
2135.000000 0.9144 0.9146 0.9146 0.9147 0.9148
2130.000000 0.9150 0.9151 0.9152 0.9154 0.9155
2125.000000 0.9156 0.9158 0.9160 0.9161 0.9163
2120.000000 0.9163 0.9163 0.9164 0.9163 0.9164
2115.000000 0.9165 0.9164 0.9164 0.9165 0.9165
2110.000000 0.9165 0.9166 0.9166 0.9167 0.9167
2105.000000 0.9167 0.9167 0.9168 0.9168 0.9169
2100.000000 0.9169 0.9169 0.9169 0.9169 0.9168
2095.000000 0.9168 0.9167 0.9165 0.9166 0.9165
2090.000000 0.9165 0.9165 0.9163 0.9162 0.9162
2085.000000 0.9163 0.9162 0.9160 0.9159 0.9160
2080.000000 0.9160 0.9160 0.9159 0.9157 0.9155
2075.000000 0.9153 0.9151 0.9149 0.9146 0.9144
2070.000000 0.9140 0.9138 0.9137 0.9133 0.9131
2065.000000 0.9129 0.9127 0.9124 0.9121 0.9118
2060.000000 0.9115 0.9112 0.9109 0.9106 0.9103
2055.000000 0.9099 0.9096 0.9093 0.9090 0.9087
2050.000000 0.9085 0.9083 0.9081 0.9080 0.9078
2045.000000 0.9076 0.9074 0.9073 0.9071 0.9069
2040.000000 0.9068 0.9066 0.9066 0.9068 0.9069
2035.000000 0.9071 0.9074 0.9076 0.9079 0.9082
2030.000000 0.9085 0.9087 0.9089 0.9091 0.9093
2025.000000 0.9096 0.9098 0.9101 0.9105 0.9107
2020.000000 0.9112 0.9116 0.9122 0.9127 0.9131
2015.000000 0.9136 0.9142 0.9147 0.9152 0.9156
2010.000000 0.9162 0.9167 0.9172 0.9176 0.9181
2005.000000 0.9186 0.9192 0.9196 0.9202 0.9206
2000.000000 0.9212 0.9217 0.9220 0.9224 0.9229
1995.000000 0.9234 0.9238 0.9243 0.9247 0.9252
1990.000000 0.9256 0.9260 0.9264 0.9268 0.9272
1985.000000 0.9276 0.9280 0.9284 0.9285 0.9289
1980.000000 0.9292 0.9295 0.9297 0.9300 0.9303
1975.000000 0.9304 0.9306 0.9309 0.9311 0.9315
1970.000000 0.9316 0.9319 0.9320 0.9322 0.9325
1965.000000 0.9325 0.9325 0.9324 0.9324 0.9323
1960.000000 0.9323 0.9322 0.9321 0.9319 0.9320
1955.000000 0.9318 0.9317 0.9317 0.9315 0.9314
1950.000000 0.9312 0.9311 0.9311 0.9310 0.9308
1945.000000 0.9307 0.9307 0.9308 0.9307 0.9307
1940.000000 0.9308 0.9308 0.9308 0.9309 0.9310
1935.000000 0.9310 0.9310 0.9310 0.9310 0.9309
1930.000000 0.9311 0.9312 0.9312 0.9311 0.9312
1925.000000 0.9312 0.9311 0.9312 0.9311 0.9312
1920.000000 0.9311 0.9309 0.9308 0.9306 0.9304
1915.000000 0.9304 0.9302 0.9300 0.9298 0.9297
1910.000000 0.9295 0.9293 0.9291 0.9290 0.9288
1905.000000 0.9286 0.9284 0.9282 0.9281 0.9279
1900.000000 0.9277 0.9275 0.9273 0.9273 0.9273
1895.000000 0.9272 0.9271 0.9270 0.9270 0.9269
1890.000000 0.9268 0.9267 0.9267 0.9266 0.9268
1885.000000 0.9272 0.9274 0.9278 0.9281 0.9286
1880.000000 0.9291 0.9295 0.9299 0.9303 0.9305
1875.000000 0.9306 0.9310 0.9311 0.9314 0.9316
1870.000000 0.9317 0.9317 0.9317 0.9317 0.9316
1865.000000 0.9315 0.9315 0.9314 0.9313 0.9311
1860.000000 0.9309 0.9307 0.9305 0.9302 0.9300
1855.000000 0.9300 0.9301 0.9302 0.9301 0.9303
1850.000000 0.9306 0.9308 0.9309 0.9313 0.9315
1845.000000 0.9318 0.9321 0.9321 0.9326 0.9331
1840.000000 0.9336 0.9343 0.9349 0.9354 0.9359
1835.000000 0.9366 0.9372 0.9378 0.9385 0.9390
1830.000000 0.9396 0.9400 0.9403 0.9405 0.9406
1825.000000 0.9409 0.9411 0.9414 0.9415 0.9417
1820.000000 0.9419 0.9420 0.9422 0.9425 0.9427
1815.000000 0.9429 0.9431 0.9432 0.9434 0.9436
1810.000000 0.9437 0.9439 0.9440 0.9443 0.9444
1805.000000 0.9445 0.9444 0.9444 0.9443 0.9443
1800.000000 0.9442 0.9441 0.9440 0.9440 0.9439
1795.000000 0.9439 0.9437 0.9435 0.9433 0.9431
1790.000000 0.9429 0.9426 0.9425 0.9423 0.9420
1785.000000 0.9418 0.9416 0.9415 0.9413 0.9411
1780.000000 0.9409 0.9407 0.9405 0.9404 0.9402
1775.000000 0.9400 0.9398 0.9396 0.9395 0.9393
1770.000000 0.9393 0.9397 0.9408 0.9417 0.9423
1765.000000 0.9429 0.9435 0.9443 0.9450 0.9458
1760.000000 0.9462 0.9464 0.9465 0.9465 0.9466
1755.000000 0.9465 0.9465 0.9463 0.9461 0.9459
1750.000000 0.9457 0.9456 0.9455 0.9452 0.9451
1745.000000 0.9449 0.9448 0.9446 0.9443 0.9441
1740.000000 0.9438 0.9435 0.9432 0.9430 0.9427
1735.000000 0.9425 0.9421 0.9419 0.9416 0.9413
1730.000000 0.9410 0.9407 0.9403 0.9401 0.9398
1725.000000 0.9394 0.9391 0.9389 0.9385 0.9383
1720.000000 0.9381 0.9380 0.9378 0.9375 0.9374
1715.000000 0.9372 0.9370 0.9369 0.9367 0.9365
1710.000000 0.9363 0.9361 0.9359 0.9357 0.9356
1705.000000 0.9354 0.9353 0.9351 0.9350 0.9350
1700.000000 0.9349 0.9349 0.9350 0.9350 0.9351
1695.000000 0.9350 0.9350 0.9351 0.9351 0.9351
1690.000000 0.9351 0.9350 0.9347 0.9346 0.9343
1685.000000 0.9340 0.9338 0.9335 0.9328 0.9323
1680.000000 0.9319 0.9313 0.9307 0.9302 0.9296
1675.000000 0.9291 0.9285 0.9278 0.9268 0.9258
1670.000000 0.9248 0.9237 0.9228 0.9218 0.9207
1665.000000 0.9195 0.9185 0.9174 0.9163 0.9152
1660.000000 0.9139 0.9122 0.9105 0.9089 0.9071
1655.000000 0.9053 0.9034 0.9014 0.8990 0.8947
1650.000000 0.8847 0.8720 0.8592 0.8464 0.8365
1645.000000 0.8323 0.8296 0.8279 0.8270 0.8262
1640.000000 0.8263 0.8254 0.8258 0.8268 0.8290
1635.000000 0.8349 0.8402 0.8454 0.8507 0.8559
1630.000000 0.8611 0.8665 0.8717 0.8770 0.8822
1625.000000 0.8869 0.8896 0.8908 0.8916 0.8920
1620.000000 0.8922 0.8924 0.8907 0.8928 0.8926
1615.000000 0.8925 0.8922 0.8915 0.8907 0.8804
1610.000000 0.8577 0.8322 0.8068 0.7814 0.7559
1605.000000 0.7305 0.7050 0.6794 0.6539 0.6354
1600.000000 0.6291 0.6276 0.6312 0.6437 0.6637
1595.000000 0.6837 0.7038 0.7239 0.7440 0.7643
1590.000000 0.7844 0.8019 0.8103 0.8106 0.8074
1585.000000 0.8093 0.8076 0.8058 0.8037 0.8011
1580.000000 0.7986 0.7942 0.7851 0.7707 0.7561
1575.000000 0.7435 0.7372 0.7359 0.7383 0.7468
1570.000000 0.7588 0.7708 0.7830 0.7950 0.8071
1565.000000 0.8146 0.8159 0.8164 0.8166 0.8166
1560.000000 0.8165 0.8161 0.8151 0.8135 0.8124
1555.000000 0.8120 0.8116 0.8111 0.8152 0.8220
1550.000000 0.8291 0.8361 0.8433 0.8503 0.8548
1545.000000 0.8549 0.8551 0.8553 0.8583 0.8671
1540.000000 0.8760 0.8848 0.8938 0.9027 0.9116
1535.000000 0.9201 0.9236 0.9248 0.9259 0.9272
1530.000000 0.9284 0.9295 0.9305 0.9309 0.9286
1525.000000 0.9310 0.9305 0.9300 0.9293 0.9288
1520.000000 0.9281 0.9273 0.9264 0.9255 0.9246
1515.000000 0.9238 0.9227 0.9211 0.9193 0.9174
1510.000000 0.9155 0.9136 0.9117 0.9086 0.9052
1505.000000 0.9016 0.8970 0.8911 0.8811 0.8582
1500.000000 0.8293 0.8003 0.7712 0.7421 0.7130
1495.000000 0.6839 0.6548 0.6255 0.5963 0.5670
1490.000000 0.5377 0.5084 0.4906 0.4918 0.4910
1485.000000 0.4991 0.5151 0.5312 0.5473 0.5633
1480.000000 0.5770 0.5879 0.5976 0.6074 0.6144
1475.000000 0.6199 0.6255 0.6313 0.6369 0.6402
1470.000000 0.6413 0.6417 0.6427 0.6414 0.6350
1465.000000 0.6285 0.6220 0.6155 0.6088 0.6023
1460.000000 0.5959 0.5872 0.5743 0.5607 0.5471
1455.000000 0.5335 0.5199 0.5063 0.4926 0.4790
1450.000000 0.4656 0.4576 0.4583 0.4570 0.4623
1445.000000 0.4804 0.4997 0.5189 0.5381 0.5574
1440.000000 0.5767 0.5960 0.6153 0.6247 0.6248
1435.000000 0.6238 0.6119 0.5882 0.5645 0.5407
1430.000000 0.5170 0.4932 0.4693 0.4454 0.4215
1425.000000 0.3975 0.3801 0.3719 0.3652 0.3535
1420.000000 0.3415 0.3311 0.3264 0.3257 0.3254
1415.000000 0.3239 0.3279 0.3326 0.3373 0.3551
1410.000000 0.3727 0.3873 0.4020 0.4167 0.4313
1405.000000 0.4462 0.4608 0.4756 0.4850 0.4910
1400.000000 0.4961 0.5011 0.5062 0.5118 0.5172
1395.000000 0.5225 0.5261 0.5307 0.5390 0.5483
1390.000000 0.5574 0.5668 0.5760 0.5853 0.5910
1385.000000 0.5925 0.5926 0.5927 0.5919 0.5774
1380.000000 0.5628 0.5481 0.5437 0.5437 0.5438
1375.000000 0.5467 0.5660 0.5864 0.6067 0.6273
1370.000000 0.6477 0.6664 0.6792 0.6942 0.7086
1365.000000 0.7187 0.7289 0.7389 0.7482 0.7575
1360.000000 0.7665 0.7727 0.7780 0.7833 0.7887
1355.000000 0.7925 0.7951 0.7976 0.8003 0.8029
1350.000000 0.8054 0.8081 0.8106 0.8128 0.8151
1345.000000 0.8173 0.8195 0.8219 0.8240 0.8264
1340.000000 0.8287 0.8310 0.8332 0.8355 0.8374
1335.000000 0.8395 0.8410 0.8428 0.8444 0.8458
1330.000000 0.8473 0.8486 0.8499 0.8508 0.8511
1325.000000 0.8491 0.8491 0.8491 0.8466 0.8439
1320.000000 0.8414 0.8391 0.8371 0.8350 0.8330
1315.000000 0.8309 0.8288 0.8267 0.8229 0.8180
1310.000000 0.8130 0.8076 0.8022 0.7964 0.7904
1305.000000 0.7843 0.7747 0.7545 0.7312 0.7080
1300.000000 0.6847 0.6614 0.6401 0.6324 0.6331
1295.000000 0.6358 0.6408 0.6445 0.6486 0.6541
1290.000000 0.6598 0.6654 0.6710 0.6767 0.6823
1285.000000 0.6880 0.6937 0.7013 0.7130 0.7285
1280.000000 0.7441 0.7597 0.7725 0.7753 0.7777
1275.000000 0.7795 0.7802 0.7827 0.7770 0.7733
1270.000000 0.7644 0.7435 0.7209 0.6981 0.6753
1265.000000 0.6639 0.6624 0.6791 0.6903 0.7015
1260.000000 0.7127 0.7240 0.7319 0.7306 0.7166
1255.000000 0.6994 0.6822 0.6650 0.6499 0.6487
1250.000000 0.6526 0.6630 0.6737 0.6842 0.6949
1245.000000 0.6995 0.7004 0.7033 0.7076 0.7125
1240.000000 0.7171 0.7212 0.7250 0.7288 0.7322
1235.000000 0.7324 0.7316 0.7121 0.6917 0.6732
1230.000000 0.6694 0.6686 0.6685 0.6689 0.6691
1225.000000 0.6691 0.6590 0.6463 0.6335 0.6222
1220.000000 0.6185 0.6175 0.6188 0.6197 0.6241
1215.000000 0.6332 0.6538 0.6775 0.7012 0.7249
1210.000000 0.7487 0.7725 0.7818 0.7882 0.7943
1205.000000 0.8004 0.8073 0.8142 0.8179 0.8216
1200.000000 0.8252 0.8280 0.8308 0.8336 0.8353
1195.000000 0.8363 0.8372 0.8378 0.8380 0.8385
1190.000000 0.8390 0.8390 0.8400 0.8418 0.8447
1185.000000 0.8467 0.8485 0.8493 0.8492 0.8492
1180.000000 0.8472 0.8453 0.8430 0.8371 0.8198
1175.000000 0.8139 0.8084 0.8031 0.7979 0.7923
1170.000000 0.7862 0.7801 0.7701 0.7453 0.7203
1165.000000 0.6952 0.6714 0.6681 0.6664 0.6696
1160.000000 0.6749 0.6831 0.6904 0.6973 0.7062
1155.000000 0.7161 0.7258 0.7356 0.7455 0.7554
1150.000000 0.7653 0.7751 0.7850 0.7949 0.7963
1145.000000 0.7995 0.7992 0.7975 0.7954 0.7911
1140.000000 0.7875 0.7845 0.7825 0.7804 0.7784
1135.000000 0.7766 0.7741 0.7701 0.7633 0.7413
1130.000000 0.7004 0.6607 0.6487 0.6488 0.6614
1125.000000 0.6757 0.6903 0.7048 0.7193 0.7339
1120.000000 0.7485 0.7581 0.7586 0.7472 0.7259
1115.000000 0.7045 0.6832 0.6624 0.6551 0.6549
1110.000000 0.6562 0.6618 0.6687 0.6808 0.6988
1105.000000 0.7181 0.7346 0.7502 0.7658 0.7814
1100.000000 0.7928 0.8027 0.8127 0.8231 0.8335
1095.000000 0.8418 0.8453 0.8465 0.8476 0.8486
1090.000000 0.8493 0.8500 0.8506 0.8512 0.8523
1085.000000 0.8547 0.8571 0.8595 0.8626 0.8645
1080.000000 0.8663 0.8677 0.8681 0.8685 0.8690
1075.000000 0.8692 0.8684 0.8679 0.8673 0.8659
1070.000000 0.8646 0.8633 0.8619 0.8605 0.8584
1065.000000 0.8558 0.8533 0.8499 0.8454 0.8409
1060.000000 0.8361 0.8300 0.8237 0.8137 0.7977
1055.000000 0.7681 0.7619 0.7472 0.7359 0.7306
1050.000000 0.7282 0.7276 0.7269 0.7229 0.7141
1045.000000 0.7115 0.7116 0.7123 0.7180 0.7342
1040.000000 0.7522 0.7701 0.7882 0.8014 0.8004
1035.000000 0.8030 0.8028 0.7935 0.7836 0.7734
1030.000000 0.7649 0.7637 0.7621 0.7660 0.7757
1025.000000 0.7849 0.7942 0.8034 0.8106 0.8119
1020.000000 0.8143 0.8181 0.8238 0.8269 0.8291
1015.000000 0.8285 0.8313 0.8309 0.8281 0.8237
1010.000000 0.8115 0.7941 0.7766 0.7628 0.7594
1005.000000 0.7593 0.7597 0.7611 0.7657 0.7709
1000.000000 0.7771 0.7862 0.7953 0.8046 0.8138
995.000000 0.8230 0.8321 0.8369 0.8418 0.8457
990.000000 0.8498 0.8542 0.8566 0.8586 0.8577
985.000000 0.8577 0.8578 0.8561 0.8530 0.8498
980.000000 0.8471 0.8447 0.8421 0.8395 0.8369
975.000000 0.8336 0.8300 0.8265 0.8216 0.8156
970.000000 0.8018 0.7858 0.7700 0.7542 0.7383
965.000000 0.7239 0.7195 0.7198 0.7230 0.7327
960.000000 0.7473 0.7653 0.7833 0.8015 0.8195
955.000000 0.8295 0.8359 0.8432 0.8494 0.8551
950.000000 0.8604 0.8648 0.8693 0.8731 0.8758
945.000000 0.8782 0.8796 0.8806 0.8776 0.8742
940.000000 0.8717 0.8696 0.8682 0.8676 0.8678
935.000000 0.8688 0.8694 0.8699 0.8702 0.8707
930.000000 0.8693 0.8670 0.8637 0.8606 0.8578
925.000000 0.8554 0.8549 0.8585 0.8664 0.8771
920.000000 0.8855 0.8940 0.9012 0.9081 0.9122
915.000000 0.9153 0.9184 0.9206 0.9224 0.9243
910.000000 0.9262 0.9281 0.9286 0.9300 0.9296
905.000000 0.9276 0.9236 0.9187 0.9119 0.9040
900.000000 0.8950 0.8862 0.8763 0.8760 0.8751
895.000000 0.8747 0.8798 0.8903 0.8989 0.9054
890.000000 0.9110 0.9154 0.9197 0.9224 0.9252
885.000000 0.9266 0.9277 0.9288 0.9296 0.9296
880.000000 0.9284 0.9293 0.9288 0.9282 0.9266
875.000000 0.9235 0.9202 0.9176 0.9162 0.9150
870.000000 0.9143 0.9136 0.9139 0.9146 0.9153
865.000000 0.9161 0.9168 0.9176 0.9181 0.9178
860.000000 0.9152 0.9112 0.9002 0.9017 0.9036
855.000000 0.9067 0.9099 0.9129 0.9158 0.9186
850.000000 0.9214 0.9243 0.9271 0.9299 0.9317
845.000000 0.9332 0.9350 0.9362 0.9374 0.9385
840.000000 0.9397 0.9409 0.9421 0.9429 0.9437
835.000000 0.9445 0.9452 0.9458 0.9464 0.9464
830.000000 0.9465 0.9451 0.9429 0.9403 0.9384
825.000000 0.9372 0.9366 0.9365 0.9362 0.9361
820.000000 0.9358 0.9345 0.9331 0.9313 0.9288
815.000000 0.9264 0.9224 0.9179 0.9115 0.9047
810.000000 0.8986 0.8929 0.8879 0.8837 0.8803
805.000000 0.8778 0.8775 0.8796 0.8829 0.8870
800.000000 0.8914 0.8922 0.8931 0.8928 0.8860
795.000000 0.8776 0.8691 0.8606 0.8524 0.8454
790.000000 0.8428 0.8410 0.8395 0.8375 0.8345
785.000000 0.8288 0.8006 0.7563 0.7119 0.6674
780.000000 0.6228 0.5869 0.5871 0.6173 0.6699
775.000000 0.7224 0.7753 0.8282 0.8579 0.8648
770.000000 0.8688 0.8716 0.8718 0.8716 0.8687
765.000000 0.8560 0.8363 0.7688 0.6910 0.6133
760.000000 0.5353 0.4635 0.4436 0.4409 0.4503
755.000000 0.4639 0.4784 0.4772 0.4573 0.4467
750.000000 0.4482 0.4627 0.4879 0.5039 0.5170
745.000000 0.5273 0.5356 0.5598 0.6130 0.6676
740.000000 0.7062 0.7395 0.7706 0.7933 0.8090
735.000000 0.8227 0.8348 0.8443 0.8533 0.8619
730.000000 0.8691 0.8740 0.8786 0.8826 0.8863
725.000000 0.8889 0.8904 0.8907 0.8880 0.8811
720.000000 0.8726 0.8633 0.8565 0.8588 0.8615
715.000000 0.8662 0.8716 0.8778 0.8838 0.8891
710.000000 0.8942 0.8981 0.8982 0.8945 0.8904
705.000000 0.8880 0.8878 0.8900 0.8923 0.8953
700.000000 0.8982 0.9009 0.9027 0.9045 0.9061
695.000000 0.9076 0.9090 0.9105 0.9114 0.9119
690.000000 0.9119 0.9118 0.9107 0.9100 0.9092
685.000000 0.9085 0.9078 0.9080 0.9095 0.9109
680.000000 0.9118 0.9128 0.9138 0.9140 0.9145
675.000000 0.9147 0.9153 0.9157 0.9160 0.9154
670.000000 0.9145
##END=
