##TITLE=3-Penten-2-ol (trans)
##JCAMP-DX=4.24
$$ By DXEDIT 1.05 (RS McDonald)
##DATA TYPE=INFRARED SPECTRUM
##CLASS=COBLENTZ III
##ORIGIN=DOW CHEMICAL COMPANY
##OWNER=COPYRIGHT (C) 1988 by COBLENTZ SOCIETY INC.
Collection (C) 2018 copyright by the U.S. Secretary of Commerce
on behalf of the United States of America. All rights reserved.
##DATE=1962/05/09
##NAMES=(3E)-3-penten-2-ol
##MOLFORM=C5 H10 O
##SOURCE REFERENCE=COBLENTZ NO. 9168
##$NIST ID=B6009168
##$NIST SOURCE=COBLENTZ
##$NIST IMAGE=cob9168
##SPECTROMETER/DATA SYSTEM=DOW KBr FOREPRISM-GRATING
##INSTRUMENT PARAMETERS=BLAZED AT 3.5, 12.0, 20.0 MICRON AND CHANGED AT 5.0, 7.5, 14.9 MICRON
##STATE=SOLUTION (10% CCl4 FOR 3800-1330, 10% CS2 FOR 1330-400 CM^-^1)
##PATH LENGTH=0.011 CM, 0.011 CM
$$SPECTRAL CONTAMINATION DUE TO CCl4 AROUND 1550, AND AN UNKNOWN AROUND 400 CM^-^1 HAVE BEEN SUBTRACTED
$$ SPECTRAL FEATURE AROUND 1995 CM^-^1 IS PROBABLY AN ARTIFACT CAUSED BY GRATING CHANGE
##SAMPLING PROCEDURE=TRANSMISSION
##RESOLUTION=2
##DATA PROCESSING=DIGITIZED BY COBLENTZ SOCIETY (BATCH I) FROM HARD COPY
##XUNITS=1/CM
##YUNITS=TRANSMITTANCE
##XFACTOR=1
##YFACTOR=1
##DELTAX=1
##FIRSTX=3800
##LASTX=383
##FIRSTY=0.8986
##MAXX=3800
##MINX=383
##MAXY=0.941
##MINY=0.0211
##NPOINTS=3418
##XYDATA=(X++(Y..Y))
3800.000000 0.8986 0.8986 0.8986 0.8986 0.8993
3795.000000 0.8986 0.8994 0.8993 0.8993 0.8992
3790.000000 0.8992 0.8992 0.8992 0.8992 0.8992
3785.000000 0.8992 0.8986 0.8983 0.8983 0.8990
3780.000000 0.8993 0.8984 0.8992 0.8994 0.8995
3775.000000 0.8985 0.8996 0.8996 0.8997 0.8997
3770.000000 0.8998 0.8999 0.9000 0.9000 0.9001
3765.000000 0.9001 0.9002 0.9002 0.9003 0.9004
3760.000000 0.9010 0.9009 0.9006 0.9006 0.9008
3755.000000 0.9009 0.9011 0.9012 0.9013 0.9015
3750.000000 0.9016 0.9016 0.9019 0.9020 0.9022
3745.000000 0.9023 0.8979 0.9026 0.9027 0.9028
3740.000000 0.9031 0.9034 0.9044 0.9045 0.9046
3735.000000 0.9046 0.9042 0.9038 0.9044 0.9049
3730.000000 0.9050 0.9051 0.9052 0.9052 0.9053
3725.000000 0.9054 0.9055 0.9055 0.9056 0.9056
3720.000000 0.9057 0.9047 0.9047 0.9056 0.9056
3715.000000 0.9056 0.9056 0.9055 0.9058 0.9061
3710.000000 0.9058 0.9064 0.9064 0.9063 0.9063
3705.000000 0.9063 0.9063 0.9061 0.9060 0.9058
3700.000000 0.9056 0.9054 0.9052 0.9049 0.9038
3695.000000 0.9035 0.9033 0.9030 0.9028 0.9023
3690.000000 0.9017 0.9011 0.9006 0.8999 0.8986
3685.000000 0.8979 0.8974 0.8968 0.8963 0.8957
3680.000000 0.8951 0.8942 0.8934 0.8924 0.8912
3675.000000 0.8902 0.8893 0.8882 0.8872 0.8853
3670.000000 0.8844 0.8816 0.8795 0.8772 0.8749
3665.000000 0.8725 0.8701 0.8674 0.8649 0.8621
3660.000000 0.8594 0.8580 0.8567 0.8565 0.8563
3655.000000 0.8562 0.8561 0.8564 0.8567 0.8571
3650.000000 0.8575 0.8579 0.8583 0.8589 0.8595
3645.000000 0.8599 0.8606 0.8611 0.8617 0.8624
3640.000000 0.8630 0.8635 0.8641 0.8643 0.8645
3635.000000 0.8646 0.8649 0.8652 0.8663 0.8663
3630.000000 0.8660 0.8653 0.8653 0.8652 0.8645
3625.000000 0.8622 0.8600 0.8553 0.8505 0.8418
3620.000000 0.8332 0.8258 0.8183 0.8112 0.8040
3615.000000 0.7970 0.7902 0.7767 0.7631 0.7361
3610.000000 0.7094 0.6887 0.6677 0.6478 0.6272
3605.000000 0.6067 0.5861 0.5668 0.5474 0.5471
3600.000000 0.5461 0.5457 0.5451 0.5517 0.5574
3595.000000 0.5651 0.5727 0.5803 0.5879 0.5955
3590.000000 0.6031 0.6107 0.6183 0.6260 0.6336
3585.000000 0.6412 0.6488 0.6564 0.6639 0.6716
3580.000000 0.6791 0.6868 0.6943 0.7021 0.7095
3575.000000 0.7167 0.7249 0.7325 0.7398 0.7461
3570.000000 0.7529 0.7533 0.7539 0.7543 0.7548
3565.000000 0.7548 0.7551 0.7551 0.7551 0.7552
3560.000000 0.7554 0.7554 0.7554 0.7552 0.7551
3555.000000 0.7550 0.7533 0.7525 0.7522 0.7509
3550.000000 0.7494 0.7454 0.7427 0.7393 0.7359
3545.000000 0.7322 0.7288 0.7259 0.7227 0.7194
3540.000000 0.7156 0.7126 0.7091 0.7063 0.7034
3535.000000 0.7002 0.6973 0.6942 0.6912 0.6881
3530.000000 0.6850 0.6812 0.6782 0.6745 0.6709
3525.000000 0.6668 0.6625 0.6585 0.6545 0.6503
3520.000000 0.6463 0.6419 0.6375 0.6329 0.6283
3515.000000 0.6237 0.6191 0.6145 0.6099 0.6036
3510.000000 0.5974 0.5903 0.5833 0.5763 0.5692
3505.000000 0.5632 0.5570 0.5508 0.5446 0.5379
3500.000000 0.5311 0.5234 0.5157 0.5076 0.4994
3495.000000 0.4910 0.4825 0.4769 0.4714 0.4669
3490.000000 0.4625 0.4579 0.4535 0.4489 0.4444
3485.000000 0.4410 0.4376 0.4343 0.4310 0.4276
3480.000000 0.4243 0.4210 0.4177 0.4138 0.4098
3475.000000 0.4059 0.4019 0.3979 0.3939 0.3902
3470.000000 0.3864 0.3843 0.3821 0.3799 0.3779
3465.000000 0.3757 0.3734 0.3714 0.3693 0.3671
3460.000000 0.3650 0.3631 0.3612 0.3594 0.3575
3455.000000 0.3557 0.3539 0.3520 0.3502 0.3483
3450.000000 0.3466 0.3447 0.3429 0.3408 0.3389
3445.000000 0.3369 0.3348 0.3327 0.3308 0.3288
3440.000000 0.3270 0.3252 0.3233 0.3215 0.3197
3435.000000 0.3179 0.3160 0.3141 0.3124 0.3107
3430.000000 0.3092 0.3075 0.3060 0.3044 0.3029
3425.000000 0.3009 0.2996 0.2979 0.2965 0.2951
3420.000000 0.2938 0.2925 0.2914 0.2902 0.2890
3415.000000 0.2878 0.2867 0.2854 0.2843 0.2830
3410.000000 0.2819 0.2807 0.2795 0.2786 0.2774
3405.000000 0.2764 0.2755 0.2746 0.2736 0.2726
3400.000000 0.2717 0.2708 0.2698 0.2689 0.2680
3395.000000 0.2668 0.2660 0.2651 0.2642 0.2634
3390.000000 0.2626 0.2617 0.2609 0.2601 0.2593
3385.000000 0.2584 0.2575 0.2566 0.2559 0.2551
3380.000000 0.2542 0.2534 0.2526 0.2517 0.2509
3375.000000 0.2502 0.2496 0.2489 0.2481 0.2474
3370.000000 0.2469 0.2460 0.2453 0.2446 0.2439
3365.000000 0.2432 0.2425 0.2419 0.2415 0.2410
3360.000000 0.2407 0.2403 0.2399 0.2394 0.2389
3355.000000 0.2385 0.2381 0.2378 0.2375 0.2373
3350.000000 0.2371 0.2369 0.2367 0.2365 0.2363
3345.000000 0.2362 0.2361 0.2358 0.2359 0.2356
3340.000000 0.2356 0.2355 0.2358 0.2358 0.2358
3335.000000 0.2355 0.2356 0.2358 0.2361 0.2364
3330.000000 0.2366 0.2368 0.2371 0.2376 0.2381
3325.000000 0.2389 0.2399 0.2407 0.2415 0.2426
3320.000000 0.2439 0.2452 0.2466 0.2478 0.2492
3315.000000 0.2504 0.2517 0.2530 0.2546 0.2564
3310.000000 0.2582 0.2600 0.2617 0.2633 0.2653
3305.000000 0.2671 0.2688 0.2703 0.2720 0.2738
3300.000000 0.2756 0.2772 0.2792 0.2809 0.2827
3295.000000 0.2845 0.2862 0.2880 0.2897 0.2915
3290.000000 0.2932 0.2952 0.2972 0.2993 0.3016
3285.000000 0.3039 0.3062 0.3088 0.3110 0.3130
3280.000000 0.3153 0.3181 0.3205 0.3233 0.3264
3275.000000 0.3296 0.3326 0.3355 0.3385 0.3415
3270.000000 0.3444 0.3475 0.3508 0.3540 0.3573
3265.000000 0.3606 0.3639 0.3672 0.3705 0.3736
3260.000000 0.3770 0.3803 0.3837 0.3873 0.3905
3255.000000 0.3944 0.3982 0.4018 0.4054 0.4089
3250.000000 0.4125 0.4163 0.4203 0.4243 0.4284
3245.000000 0.4322 0.4364 0.4405 0.4448 0.4488
3240.000000 0.4529 0.4565 0.4603 0.4637 0.4671
3235.000000 0.4704 0.4738 0.4772 0.4806 0.4840
3230.000000 0.4874 0.4909 0.4943 0.4975 0.5004
3225.000000 0.5041 0.5080 0.5115 0.5151 0.5187
3220.000000 0.5223 0.5258 0.5294 0.5329 0.5365
3215.000000 0.5401 0.5437 0.5477 0.5518 0.5563
3210.000000 0.5607 0.5651 0.5690 0.5733 0.5777
3205.000000 0.5814 0.5850 0.5881 0.5913 0.5945
3200.000000 0.5978 0.6013 0.6041 0.6076 0.6104
3195.000000 0.6140 0.6172 0.6199 0.6226 0.6252
3190.000000 0.6275 0.6303 0.6333 0.6359 0.6382
3185.000000 0.6405 0.6432 0.6459 0.6485 0.6505
3180.000000 0.6526 0.6544 0.6564 0.6584 0.6603
3175.000000 0.6623 0.6642 0.6662 0.6681 0.6700
3170.000000 0.6719 0.6739 0.6759 0.6778 0.6798
3165.000000 0.6818 0.6840 0.6864 0.6877 0.6896
3160.000000 0.6916 0.6933 0.6945 0.6966 0.6979
3155.000000 0.6994 0.7019 0.7038 0.7055 0.7072
3150.000000 0.7090 0.7106 0.7117 0.7134 0.7150
3145.000000 0.7169 0.7186 0.7204 0.7221 0.7243
3140.000000 0.7269 0.7287 0.7308 0.7329 0.7348
3135.000000 0.7367 0.7389 0.7408 0.7428 0.7447
3130.000000 0.7467 0.7486 0.7503 0.7519 0.7535
3125.000000 0.7551 0.7566 0.7582 0.7597 0.7614
3120.000000 0.7629 0.7645 0.7660 0.7677 0.7692
3115.000000 0.7708 0.7722 0.7739 0.7754 0.7770
3110.000000 0.7785 0.7801 0.7815 0.7833 0.7848
3105.000000 0.7857 0.7867 0.7876 0.7885 0.7895
3100.000000 0.7913 0.7924 0.7934 0.7951 0.7968
3095.000000 0.7983 0.7988 0.7992 0.7996 0.7990
3090.000000 0.7991 0.7982 0.7977 0.7979 0.7986
3085.000000 0.7977 0.7973 0.7974 0.7975 0.7975
3080.000000 0.7975 0.7975 0.7980 0.7990 0.7993
3075.000000 0.7993 0.8002 0.8004 0.7996 0.7993
3070.000000 0.7993 0.7983 0.7991 0.7981 0.7979
3065.000000 0.7976 0.7975 0.7955 0.7941 0.7926
3060.000000 0.7913 0.7899 0.7880 0.7855 0.7829
3055.000000 0.7810 0.7788 0.7762 0.7741 0.7723
3050.000000 0.7705 0.7682 0.7660 0.7619 0.7583
3045.000000 0.7525 0.7472 0.7420 0.7367 0.7243
3040.000000 0.7120 0.7037 0.6953 0.6893 0.6825
3035.000000 0.6758 0.6697 0.6618 0.6541 0.6463
3030.000000 0.6382 0.6070 0.5763 0.5650 0.5537
3025.000000 0.5480 0.5423 0.5408 0.5395 0.5391
3020.000000 0.5388 0.5389 0.5387 0.5383 0.5375
3015.000000 0.5370 0.5367 0.5362 0.5357 0.5351
3010.000000 0.5346 0.5336 0.5325 0.5304 0.5288
3005.000000 0.5274 0.5255 0.5223 0.5190 0.5152
3000.000000 0.5118 0.5069 0.5018 0.4949 0.4881
2995.000000 0.4786 0.4692 0.4614 0.4533 0.4449
2990.000000 0.4365 0.4276 0.4187 0.4042 0.3896
2985.000000 0.3728 0.3563 0.3395 0.3228 0.3060
2980.000000 0.2894 0.2729 0.2561 0.2393 0.2228
2975.000000 0.2059 0.1893 0.1725 0.1558 0.1390
2970.000000 0.1223 0.1129 0.1034 0.1021 0.1009
2965.000000 0.1002 0.0996 0.0993 0.0992 0.1138
2960.000000 0.1283 0.1438 0.1592 0.1743 0.1896
2955.000000 0.2050 0.2204 0.2360 0.2514 0.2666
2950.000000 0.2820 0.2974 0.3128 0.3280 0.3432
2945.000000 0.3492 0.3538 0.3555 0.3557 0.3495
2940.000000 0.3438 0.3364 0.3287 0.3210 0.3133
2935.000000 0.3053 0.2976 0.2899 0.2822 0.2745
2930.000000 0.2669 0.2605 0.2542 0.2537 0.2532
2925.000000 0.2526 0.2523 0.2504 0.2484 0.2451
2920.000000 0.2420 0.2390 0.2360 0.2329 0.2298
2915.000000 0.2291 0.2273 0.2284 0.2284 0.2285
2910.000000 0.2288 0.2385 0.2484 0.2581 0.2676
2905.000000 0.2772 0.2870 0.2966 0.3064 0.3160
2900.000000 0.3257 0.3353 0.3451 0.3548 0.3645
2895.000000 0.3742 0.3839 0.3885 0.3930 0.3931
2890.000000 0.3928 0.3933 0.3935 0.3930 0.3926
2885.000000 0.3911 0.3896 0.3799 0.3701 0.3604
2880.000000 0.3506 0.3410 0.3313 0.3212 0.3119
2875.000000 0.3049 0.2980 0.2982 0.3009 0.2986
2870.000000 0.2988 0.2990 0.2991 0.3003 0.3015
2865.000000 0.3034 0.3054 0.3073 0.3092 0.3106
2860.000000 0.3119 0.3131 0.3143 0.3155 0.3166
2855.000000 0.3175 0.3182 0.3188 0.3213 0.3202
2850.000000 0.3209 0.3305 0.3401 0.3594 0.3790
2845.000000 0.3982 0.4174 0.4363 0.4559 0.4751
2840.000000 0.4941 0.5104 0.5274 0.5369 0.5462
2835.000000 0.5552 0.5648 0.5699 0.5751 0.5803
2830.000000 0.5855 0.5912 0.5959 0.6050 0.6137
2825.000000 0.6223 0.6314 0.6405 0.6483 0.6563
2820.000000 0.6636 0.6682 0.6722 0.6769 0.6816
2815.000000 0.6861 0.6908 0.6955 0.7002 0.7050
2810.000000 0.7096 0.7143 0.7194 0.7248 0.7300
2805.000000 0.7358 0.7417 0.7475 0.7533 0.7568
2800.000000 0.7605 0.7639 0.7675 0.7709 0.7745
2795.000000 0.7780 0.7815 0.7845 0.7877 0.7903
2790.000000 0.7939 0.7965 0.7996 0.8022 0.8046
2785.000000 0.8072 0.8098 0.8116 0.8133 0.8159
2780.000000 0.8185 0.8204 0.8223 0.8242 0.8261
2775.000000 0.8280 0.8300 0.8318 0.8336 0.8355
2770.000000 0.8374 0.8386 0.8400 0.8408 0.8418
2765.000000 0.8430 0.8440 0.8449 0.8460 0.8470
2760.000000 0.8480 0.8489 0.8498 0.8505 0.8513
2755.000000 0.8521 0.8528 0.8535 0.8543 0.8549
2750.000000 0.8555 0.8560 0.8565 0.8570 0.8576
2745.000000 0.8580 0.8584 0.8587 0.8591 0.8594
2740.000000 0.8598 0.8600 0.8600 0.8601 0.8599
2735.000000 0.8593 0.8588 0.8570 0.8554 0.8526
2730.000000 0.8500 0.8466 0.8432 0.8394 0.8356
2725.000000 0.8319 0.8285 0.8276 0.8266 0.8266
2720.000000 0.8266 0.8266 0.8266 0.8286 0.8305
2715.000000 0.8332 0.8357 0.8382 0.8407 0.8419
2710.000000 0.8433 0.8446 0.8459 0.8471 0.8485
2705.000000 0.8497 0.8511 0.8523 0.8537 0.8548
2700.000000 0.8560 0.8569 0.8577 0.8588 0.8597
2695.000000 0.8606 0.8615 0.8625 0.8635 0.8644
2690.000000 0.8654 0.8663 0.8672 0.8679 0.8684
2685.000000 0.8690 0.8695 0.8700 0.8706 0.8711
2680.000000 0.8716 0.8721 0.8725 0.8731 0.8736
2675.000000 0.8742 0.8747 0.8752 0.8757 0.8762
2670.000000 0.8768 0.8771 0.8775 0.8776 0.8777
2665.000000 0.8779 0.8780 0.8780 0.8783 0.8784
2660.000000 0.8786 0.8787 0.8790 0.8800 0.8802
2655.000000 0.8803 0.8804 0.8805 0.8807 0.8805
2650.000000 0.8801 0.8802 0.8807 0.8814 0.8815
2645.000000 0.8809 0.8806 0.8807 0.8815 0.8812
2640.000000 0.8810 0.8811 0.8812 0.8813 0.8814
2635.000000 0.8814 0.8825 0.8826 0.8826 0.8818
2630.000000 0.8820 0.8830 0.8831 0.8831 0.8832
2625.000000 0.8833 0.8834 0.8835 0.8836 0.8837
2620.000000 0.8838 0.8840 0.8841 0.8844 0.8845
2615.000000 0.8849 0.8852 0.8854 0.8856 0.8858
2610.000000 0.8860 0.8862 0.8864 0.8866 0.8869
2605.000000 0.8871 0.8873 0.8875 0.8878 0.8880
2600.000000 0.8882 0.8884 0.8887 0.8889 0.8890
2595.000000 0.8893 0.8895 0.8897 0.8900 0.8902
2590.000000 0.8904 0.8906 0.8909 0.8911 0.8913
2585.000000 0.8915 0.8918 0.8920 0.8922 0.8924
2580.000000 0.8927 0.8929 0.8932 0.8934 0.8937
2575.000000 0.8940 0.8942 0.8945 0.8948 0.8949
2570.000000 0.8952 0.8955 0.8957 0.8959 0.8962
2565.000000 0.8964 0.8967 0.8969 0.8973 0.8975
2560.000000 0.8978 0.8980 0.8983 0.8985 0.8988
2555.000000 0.8990 0.8993 0.8995 0.8998 0.9001
2550.000000 0.9004 0.9006 0.9008 0.9010 0.9013
2545.000000 0.9015 0.9018 0.9020 0.9023 0.9025
2540.000000 0.9027 0.9029 0.9033 0.9035 0.9038
2535.000000 0.9040 0.9043 0.9045 0.9047 0.9048
2530.000000 0.9052 0.9054 0.9057 0.9059 0.9063
2525.000000 0.9065 0.9067 0.9069 0.9072 0.9074
2520.000000 0.9077 0.9079 0.9081 0.9083 0.9086
2515.000000 0.9088 0.9091 0.9094 0.9096 0.9097
2510.000000 0.9100 0.9103 0.9104 0.9107 0.9110
2505.000000 0.9112 0.9115 0.9117 0.9119 0.9119
2500.000000 0.9119 0.9117 0.9115 0.9113 0.9111
2495.000000 0.9109 0.9107 0.9104 0.9104 0.9102
2490.000000 0.9100 0.9096 0.9095 0.9093 0.9092
2485.000000 0.9090 0.9088 0.9086 0.9084 0.9088
2480.000000 0.9091 0.9089 0.9088 0.9088 0.9088
2475.000000 0.9088 0.9089 0.9089 0.9089 0.9089
2470.000000 0.9089 0.9089 0.9090 0.9090 0.9090
2465.000000 0.9090 0.9090 0.9091 0.9093 0.9095
2460.000000 0.9097 0.9099 0.9096 0.9098 0.9100
2455.000000 0.9096 0.9099 0.9108 0.9114 0.9116
2450.000000 0.9109 0.9117 0.9120 0.9120 0.9121
2445.000000 0.9121 0.9122 0.9122 0.9122 0.9122
2440.000000 0.9123 0.9123 0.9124 0.9124 0.9125
2435.000000 0.9125 0.9126 0.9126 0.9127 0.9127
2430.000000 0.9127 0.9127 0.9126 0.9125 0.9125
2425.000000 0.9124 0.9123 0.9122 0.9122 0.9121
2420.000000 0.9119 0.9118 0.9118 0.9116 0.9115
2415.000000 0.9113 0.9113 0.9112 0.9111 0.9109
2410.000000 0.9109 0.9111 0.9113 0.9109 0.9116
2405.000000 0.9116 0.9118 0.9118 0.9118 0.9118
2400.000000 0.9119 0.9119 0.9119 0.9119 0.9121
2395.000000 0.9121 0.9121 0.9122 0.9123 0.9126
2390.000000 0.9131 0.9145 0.9149 0.9153 0.9157
2385.000000 0.9163 0.9176 0.9180 0.9187 0.9199
2380.000000 0.9202 0.9210 0.9222 0.9231 0.9242
2375.000000 0.9247 0.9258 0.9268 0.9274 0.9279
2370.000000 0.9286 0.9282 0.9287 0.9292 0.9298
2365.000000 0.9303 0.9309 0.9315 0.9321 0.9327
2360.000000 0.9342 0.9350 0.9366 0.9374 0.9392
2355.000000 0.9404 0.9409 0.9410 0.9410 0.9406
2350.000000 0.9400 0.9392 0.9391 0.9393 0.9390
2345.000000 0.9383 0.9369 0.9358 0.9351 0.9344
2340.000000 0.9338 0.9324 0.9327 0.9324 0.9311
2335.000000 0.9308 0.9316 0.9311 0.9308 0.9307
2330.000000 0.9314 0.9311 0.9309 0.9309 0.9315
2325.000000 0.9315 0.9320 0.9317 0.9315 0.9310
2320.000000 0.9307 0.9302 0.9298 0.9292 0.9287
2315.000000 0.9282 0.9277 0.9271 0.9266 0.9261
2310.000000 0.9255 0.9250 0.9245 0.9240 0.9234
2305.000000 0.9229 0.9224 0.9219 0.9213 0.9209
2300.000000 0.9206 0.9205 0.9208 0.9205 0.9200
2295.000000 0.9197 0.9193 0.9189 0.9186 0.9181
2290.000000 0.9178 0.9176 0.9167 0.9165 0.9166
2285.000000 0.9167 0.9169 0.9160 0.9162 0.9163
2280.000000 0.9165 0.9165 0.9157 0.9158 0.9159
2275.000000 0.9151 0.9153 0.9154 0.9152 0.9145
2270.000000 0.9148 0.9144 0.9141 0.9142 0.9144
2265.000000 0.9139 0.9137 0.9138 0.9140 0.9134
2260.000000 0.9133 0.9136 0.9130 0.9132 0.9135
2255.000000 0.9138 0.9132 0.9135 0.9138 0.9140
2250.000000 0.9134 0.9137 0.9140 0.9142 0.9146
2245.000000 0.9146 0.9142 0.9144 0.9146 0.9147
2240.000000 0.9149 0.9150 0.9151 0.9152 0.9154
2235.000000 0.9148 0.9147 0.9148 0.9150 0.9151
2230.000000 0.9152 0.9153 0.9154 0.9154 0.9154
2225.000000 0.9154 0.9155 0.9155 0.9154 0.9146
2220.000000 0.9147 0.9147 0.9148 0.9148 0.9149
2215.000000 0.9149 0.9150 0.9151 0.9153 0.9154
2210.000000 0.9155 0.9156 0.9156 0.9158 0.9159
2205.000000 0.9159 0.9162 0.9163 0.9163 0.9165
2200.000000 0.9166 0.9166 0.9168 0.9169 0.9170
2195.000000 0.9165 0.9175 0.9174 0.9168 0.9169
2190.000000 0.9171 0.9173 0.9175 0.9176 0.9178
2185.000000 0.9181 0.9188 0.9188 0.9186 0.9186
2180.000000 0.9186 0.9186 0.9194 0.9195 0.9195
2175.000000 0.9194 0.9194 0.9193 0.9193 0.9190
2170.000000 0.9187 0.9182 0.9170 0.9167 0.9164
2165.000000 0.9161 0.9158 0.9152 0.9150 0.9145
2160.000000 0.9143 0.9140 0.9137 0.9133 0.9129
2155.000000 0.9126 0.9123 0.9121 0.9120 0.9120
2150.000000 0.9121 0.9124 0.9128 0.9132 0.9137
2145.000000 0.9140 0.9144 0.9147 0.9151 0.9155
2140.000000 0.9159 0.9162 0.9166 0.9168 0.9170
2135.000000 0.9172 0.9175 0.9177 0.9180 0.9182
2130.000000 0.9185 0.9187 0.9189 0.9191 0.9194
2125.000000 0.9197 0.9200 0.9202 0.9195 0.9206
2120.000000 0.9209 0.9211 0.9214 0.9216 0.9218
2115.000000 0.9220 0.9222 0.9224 0.9226 0.9229
2110.000000 0.9231 0.9233 0.9235 0.9237 0.9239
2105.000000 0.9241 0.9243 0.9245 0.9247 0.9248
2100.000000 0.9248 0.9248 0.9243 0.9240 0.9248
2095.000000 0.9250 0.9241 0.9249 0.9251 0.9251
2090.000000 0.9251 0.9251 0.9251 0.9248 0.9248
2085.000000 0.9246 0.9244 0.9242 0.9241 0.9239
2080.000000 0.9237 0.9234 0.9232 0.9230 0.9229
2075.000000 0.9227 0.9225 0.9224 0.9224 0.9224
2070.000000 0.9225 0.9225 0.9226 0.9226 0.9227
2065.000000 0.9228 0.9230 0.9231 0.9232 0.9233
2060.000000 0.9234 0.9235 0.9236 0.9240 0.9249
2055.000000 0.9250 0.9251 0.9251 0.9247 0.9246
2050.000000 0.9253 0.9247 0.9243 0.9243 0.9244
2045.000000 0.9244 0.9246 0.9246 0.9245 0.9243
2040.000000 0.9241 0.9239 0.9238 0.9236 0.9234
2035.000000 0.9232 0.9231 0.9229 0.9227 0.9225
2030.000000 0.9224 0.9222 0.9223 0.9223 0.9214
2025.000000 0.9215 0.9219 0.9216 0.9213 0.9211
2020.000000 0.9209 0.9206 0.9204 0.9201 0.9199
2015.000000 0.9193 0.9188 0.9182 0.9177 0.9172
2010.000000 0.9166 0.9160 0.9154 0.9148 0.9141
2005.000000 0.9134 0.9128 0.9122 0.9115 0.9100
2000.000000 0.9084 0.9067 0.9045 0.8975 0.8895
1995.000000 0.8887 0.8941 0.9014 0.9074 0.8879
1990.000000 0.8801 0.8816 0.9077 0.9078 0.9069
1985.000000 0.9069 0.9068 0.9066 0.9065 0.9063
1980.000000 0.9062 0.9067 0.9064 0.9069 0.9074
1975.000000 0.9078 0.9083 0.9089 0.9089 0.9090
1970.000000 0.9083 0.9077 0.9070 0.9064 0.9063
1965.000000 0.9061 0.9057 0.9069 0.9076 0.9081
1960.000000 0.9084 0.9088 0.9094 0.9099 0.9103
1955.000000 0.9108 0.9102 0.9106 0.9110 0.9115
1950.000000 0.9117 0.9109 0.9109 0.9109 0.9108
1945.000000 0.9108 0.9108 0.9108 0.9108 0.9107
1940.000000 0.9107 0.9107 0.9106 0.9105 0.9104
1935.000000 0.9103 0.9102 0.9101 0.9100 0.9100
1930.000000 0.9099 0.9098 0.9096 0.9095 0.9094
1925.000000 0.9093 0.9093 0.9093 0.9094 0.9094
1920.000000 0.9095 0.9096 0.9096 0.9097 0.9098
1915.000000 0.9098 0.9099 0.9100 0.9100 0.9101
1910.000000 0.9102 0.9102 0.9104 0.9111 0.9115
1905.000000 0.9115 0.9115 0.9115 0.9116 0.9116
1900.000000 0.9116 0.9116 0.9117 0.9117 0.9117
1895.000000 0.9117 0.9117 0.9118 0.9118 0.9114
1890.000000 0.9107 0.9106 0.9106 0.9105 0.9104
1885.000000 0.9104 0.9110 0.9114 0.9112 0.9110
1880.000000 0.9109 0.9108 0.9106 0.9105 0.9103
1875.000000 0.9102 0.9091 0.9080 0.9071 0.9065
1870.000000 0.9057 0.9051 0.9044 0.9044 0.9044
1865.000000 0.9046 0.9048 0.9049 0.9051 0.9053
1860.000000 0.9054 0.9054 0.9054 0.9057 0.9052
1855.000000 0.9045 0.9042 0.9039 0.9037 0.9035
1850.000000 0.9034 0.9031 0.9030 0.9028 0.9027
1845.000000 0.9026 0.9024 0.9023 0.9021 0.9020
1840.000000 0.9018 0.9017 0.9015 0.9014 0.9008
1835.000000 0.9000 0.8998 0.8997 0.8995 0.8993
1830.000000 0.8991 0.8987 0.8982 0.8976 0.8973
1825.000000 0.8969 0.8964 0.8960 0.8956 0.8950
1820.000000 0.8946 0.8952 0.8949 0.8946 0.8944
1815.000000 0.8942 0.8939 0.8937 0.8935 0.8941
1810.000000 0.8946 0.8947 0.8946 0.8950 0.8954
1805.000000 0.8959 0.8957 0.8956 0.8959 0.8963
1800.000000 0.8968 0.8971 0.8975 0.8983 0.8990
1795.000000 0.8997 0.9004 0.9010 0.9018 0.9026
1790.000000 0.9030 0.9030 0.9031 0.9032 0.9032
1785.000000 0.9032 0.9032 0.9032 0.9032 0.9032
1780.000000 0.9031 0.9031 0.9027 0.9021 0.9008
1775.000000 0.8997 0.8992 0.8986 0.8979 0.8973
1770.000000 0.8967 0.8961 0.8951 0.8939 0.8928
1765.000000 0.8916 0.8903 0.8880 0.8859 0.8837
1760.000000 0.8815 0.8790 0.8756 0.8715 0.8672
1755.000000 0.8631 0.8596 0.8572 0.8548 0.8522
1750.000000 0.8497 0.8470 0.8443 0.8419 0.8401
1745.000000 0.8398 0.8413 0.8428 0.8435 0.8441
1740.000000 0.8447 0.8455 0.8459 0.8463 0.8466
1735.000000 0.8469 0.8469 0.8470 0.8467 0.8456
1730.000000 0.8443 0.8417 0.8391 0.8353 0.8307
1725.000000 0.8257 0.8178 0.8117 0.8071 0.8025
1720.000000 0.7980 0.7929 0.7892 0.7892 0.7892
1715.000000 0.7899 0.7912 0.7927 0.7945 0.7953
1710.000000 0.7953 0.7953 0.7953 0.7953 0.7954
1705.000000 0.7956 0.7991 0.8031 0.8068 0.8105
1700.000000 0.8139 0.8153 0.8167 0.8182 0.8197
1695.000000 0.8215 0.8234 0.8259 0.8284 0.8305
1690.000000 0.8325 0.8342 0.8358 0.8375 0.8381
1685.000000 0.8382 0.8383 0.8388 0.8391 0.8359
1680.000000 0.8169 0.8000 0.7760 0.7506 0.7254
1675.000000 0.7001 0.6748 0.6533 0.6485 0.6469
1670.000000 0.6471 0.6471 0.6500 0.6580 0.6718
1665.000000 0.6914 0.7072 0.7229 0.7398 0.7555
1660.000000 0.7670 0.7773 0.7900 0.8002 0.8065
1655.000000 0.8114 0.8165 0.8221 0.8273 0.8341
1650.000000 0.8397 0.8452 0.8508 0.8569 0.8622
1645.000000 0.8656 0.8652 0.8649 0.8651 0.8651
1640.000000 0.8690 0.8643 0.8645 0.8646 0.8653
1635.000000 0.8655 0.8654 0.8660 0.8661 0.8667
1630.000000 0.8584 0.8412 0.8321 0.8326 0.8315
1625.000000 0.8320 0.8360 0.8426 0.8493 0.8531
1620.000000 0.8562 0.8603 0.8633 0.8657 0.8708
1615.000000 0.8717 0.8739 0.8758 0.8783 0.8793
1610.000000 0.8790 0.8799 0.8790 0.8773 0.8775
1605.000000 0.8744 0.8737 0.8709 0.8694 0.8640
1600.000000 0.8623 0.8597 0.8579 0.8557 0.8527
1595.000000 0.8483 0.8458 0.8441 0.8448 0.8458
1590.000000 0.8439 0.8424 0.8398 0.8356 0.8329
1585.000000 0.8293 0.8263 0.8251 0.8216 0.8182
1580.000000 0.8145 0.8120 0.8093 0.8082 0.8069
1575.000000 0.8068 0.8086 0.8100 0.8112 0.8148
1570.000000 0.8164 0.8192 0.8213 0.8232 0.8226
1565.000000 0.8221 0.8220 0.8210 0.8178 0.8154
1560.000000 0.8153 0.8140 0.8107 0.8058 0.8103
1555.000000 0.8142 0.8113 0.7980 0.7876 0.7798
1550.000000 0.7685 0.7560 0.7484 0.7421 0.7369
1545.000000 0.7318 0.7269 0.7217 0.7195 0.7181
1540.000000 0.7174 0.7158 0.7159 0.7140 0.7151
1535.000000 0.7180 0.7192 0.7202 0.7217 0.7256
1530.000000 0.7300 0.7352 0.7402 0.7450 0.7504
1525.000000 0.7560 0.7624 0.7661 0.7706 0.7742
1520.000000 0.7784 0.7806 0.7819 0.7843 0.7863
1515.000000 0.7877 0.7895 0.7903 0.7916 0.7921
1510.000000 0.7930 0.7942 0.7936 0.7930 0.7923
1505.000000 0.7917 0.7916 0.7913 0.7902 0.7898
1500.000000 0.7897 0.7896 0.7884 0.7881 0.7870
1495.000000 0.7862 0.7849 0.7842 0.7824 0.7808
1490.000000 0.7772 0.7740 0.7719 0.7713 0.7714
1485.000000 0.7704 0.7697 0.7698 0.7696 0.7682
1480.000000 0.7655 0.7612 0.7555 0.7481 0.7420
1475.000000 0.7359 0.7275 0.7180 0.7081 0.6914
1470.000000 0.6730 0.6603 0.6492 0.6388 0.6296
1465.000000 0.6212 0.6097 0.5871 0.5512 0.5335
1460.000000 0.5186 0.5051 0.4913 0.4779 0.4599
1455.000000 0.4490 0.4165 0.3821 0.3479 0.3134
1450.000000 0.2789 0.2445 0.2102 0.1935 0.1962
1445.000000 0.1981 0.2091 0.2200 0.2310 0.2425
1440.000000 0.3064 0.3094 0.3111 0.3122 0.3133
1435.000000 0.3155 0.3205 0.3300 0.3643 0.3986
1430.000000 0.4327 0.4668 0.4877 0.5016 0.5109
1425.000000 0.5187 0.5257 0.5302 0.5351 0.5383
1420.000000 0.5411 0.5436 0.5440 0.5440 0.5435
1415.000000 0.5417 0.5402 0.5374 0.5341 0.5307
1410.000000 0.5274 0.5239 0.5204 0.5170 0.5136
1405.000000 0.5109 0.5091 0.5091 0.5090 0.5091
1400.000000 0.5093 0.5094 0.5097 0.5101 0.5102
1395.000000 0.5102 0.5097 0.5092 0.5085 0.5073
1390.000000 0.5067 0.5035 0.4984 0.4929 0.4853
1385.000000 0.4776 0.4674 0.4548 0.4405 0.4238
1380.000000 0.4021 0.3570 0.3318 0.3065 0.2811
1375.000000 0.2701 0.2679 0.2762 0.2974 0.3187
1370.000000 0.3388 0.3388 0.3351 0.3302 0.3253
1365.000000 0.3203 0.3191 0.3196 0.3224 0.3285
1360.000000 0.3510 0.3721 0.3933 0.4145 0.4352
1355.000000 0.4563 0.4775 0.4986 0.5198 0.5410
1350.000000 0.5621 0.5747 0.5814 0.5873 0.5916
1345.000000 0.5958 0.5981 0.6006 0.6025 0.6045
1340.000000 0.6055 0.6067 0.6075 0.6074 0.6073
1335.000000 0.6071 0.6068 0.6074 0.6087 0.6098
1330.000000 0.6111 0.6124 0.6146 0.6166 0.6186
1325.000000 0.6200 0.6215 0.6221 0.6227 0.6210
1320.000000 0.6198 0.6183 0.6155 0.6131 0.6107
1315.000000 0.6078 0.6040 0.5995 0.5950 0.5905
1310.000000 0.5857 0.5803 0.5749 0.5695 0.5625
1305.000000 0.5544 0.5458 0.5377 0.5298 0.5214
1300.000000 0.5085 0.5029 0.4981 0.4956 0.4928
1295.000000 0.4981 0.4994 0.5006 0.5020 0.5031
1290.000000 0.5042 0.5056 0.5070 0.5086 0.5105
1285.000000 0.5124 0.5144 0.5162 0.5185 0.5216
1280.000000 0.5248 0.5279 0.5308 0.5336 0.5370
1275.000000 0.5398 0.5425 0.5453 0.5481 0.5515
1270.000000 0.5552 0.5588 0.5615 0.5644 0.5674
1265.000000 0.5695 0.5716 0.5737 0.5743 0.5757
1260.000000 0.5746 0.5737 0.5710 0.5646 0.5554
1255.000000 0.5462 0.5369 0.5271 0.5178 0.5086
1250.000000 0.4994 0.4900 0.4808 0.4716 0.4624
1245.000000 0.4530 0.4470 0.4434 0.4434 0.4433
1240.000000 0.4453 0.4505 0.4647 0.4782 0.4882
1235.000000 0.4975 0.5067 0.5335 0.5494 0.5620
1230.000000 0.5716 0.5813 0.5916 0.6072 0.6234
1225.000000 0.6398 0.6539 0.6652 0.6758 0.6895
1220.000000 0.6990 0.7074 0.7167 0.7267 0.7343
1215.000000 0.7381 0.7407 0.7434 0.7466 0.7492
1210.000000 0.7517 0.7541 0.7564 0.7585 0.7608
1205.000000 0.7636 0.7673 0.7711 0.7758 0.7813
1200.000000 0.7853 0.7890 0.7918 0.7950 0.7980
1195.000000 0.8012 0.8035 0.8059 0.8076 0.8092
1190.000000 0.8102 0.8102 0.8103 0.8100 0.8099
1185.000000 0.8074 0.8031 0.7983 0.7916 0.7855
1180.000000 0.7803 0.7759 0.7722 0.7684 0.7640
1175.000000 0.7599 0.7546 0.7481 0.7418 0.7351
1170.000000 0.7273 0.7198 0.7121 0.7047 0.6964
1165.000000 0.6880 0.6795 0.6643 0.6506 0.6414
1160.000000 0.6322 0.6220 0.6044 0.5857 0.5670
1155.000000 0.5484 0.5297 0.5110 0.4923 0.4732
1150.000000 0.4547 0.4362 0.4173 0.3985 0.3904
1145.000000 0.3884 0.3869 0.3876 0.3908 0.3980
1140.000000 0.4096 0.4218 0.4342 0.4464 0.4582
1135.000000 0.4704 0.4822 0.4935 0.5053 0.5170
1130.000000 0.5289 0.5404 0.5518 0.5635 0.5716
1125.000000 0.5730 0.5748 0.5748 0.5753 0.5727
1120.000000 0.5664 0.5469 0.5273 0.5077 0.4887
1115.000000 0.4692 0.4497 0.4301 0.4106 0.4033
1110.000000 0.3987 0.3991 0.3974 0.3986 0.4009
1105.000000 0.4096 0.4189 0.4283 0.4377 0.4469
1100.000000 0.4563 0.4656 0.4750 0.4844 0.4937
1095.000000 0.5031 0.5125 0.5217 0.5311 0.5404
1090.000000 0.5469 0.5482 0.5516 0.5490 0.5485
1085.000000 0.5473 0.5453 0.5366 0.5168 0.4991
1080.000000 0.4836 0.4678 0.4519 0.4361 0.4202
1075.000000 0.4047 0.3891 0.3738 0.3585 0.3430
1070.000000 0.3274 0.3118 0.2962 0.2807 0.2651
1065.000000 0.2495 0.2340 0.2185 0.2030 0.1875
1060.000000 0.1719 0.1562 0.1408 0.1252 0.1174
1055.000000 0.1147 0.1166 0.1117 0.1116 0.1132
1050.000000 0.1203 0.1326 0.1469 0.1608 0.1745
1045.000000 0.1879 0.2033 0.2197 0.2290 0.2385
1040.000000 0.2477 0.2569 0.2662 0.2751 0.2836
1035.000000 0.2921 0.3006 0.3126 0.3276 0.3474
1030.000000 0.3631 0.3895 0.4158 0.4421 0.4621
1025.000000 0.4658 0.4670 0.4671 0.4640 0.4573
1020.000000 0.4494 0.4481 0.4476 0.4476 0.4488
1015.000000 0.4528 0.4584 0.4706 0.4830 0.4956
1010.000000 0.5066 0.5176 0.5285 0.5401 0.5520
1005.000000 0.5643 0.5741 0.5826 0.5901 0.5948
1000.000000 0.5993 0.6039 0.6080 0.6118 0.6158
995.000000 0.6192 0.6226 0.6259 0.6295 0.6330
990.000000 0.6359 0.6385 0.6393 0.6423 0.6404
985.000000 0.6401 0.6393 0.6364 0.6296 0.6204
980.000000 0.6069 0.5828 0.5450 0.5072 0.4695
975.000000 0.4317 0.3938 0.3561 0.3180 0.2806
970.000000 0.2429 0.2051 0.1673 0.1295 0.0863
965.000000 0.0673 0.0550 0.0468 0.0370 0.0308
960.000000 0.0238 0.0211 0.0219 0.0230 0.0252
955.000000 0.0342 0.0648 0.0897 0.1480 0.2206
950.000000 0.2931 0.3657 0.4382 0.4927 0.5111
945.000000 0.5295 0.5479 0.5663 0.5847 0.6031
940.000000 0.6215 0.6399 0.6583 0.6767 0.6841
935.000000 0.6877 0.6907 0.6936 0.6958 0.6980
930.000000 0.7002 0.7024 0.7040 0.7055 0.7077
925.000000 0.7063 0.7065 0.7050 0.7033 0.6971
920.000000 0.6906 0.6797 0.6632 0.6210 0.5775
915.000000 0.5334 0.4893 0.4454 0.4015 0.3576
910.000000 0.3135 0.2693 0.2255 0.1893 0.1890
905.000000 0.1887 0.1904 0.1936 0.2669 0.3400
900.000000 0.4135 0.4867 0.5605 0.6345 0.6581
895.000000 0.6859 0.7048 0.7224 0.7415 0.7596
890.000000 0.7765 0.7888 0.8001 0.8080 0.8134
885.000000 0.8176 0.8223 0.8261 0.8289 0.8316
880.000000 0.8344 0.8383 0.8380 0.8398 0.8399
875.000000 0.8395 0.8391 0.8378 0.8320 0.8251
870.000000 0.8148 0.8038 0.7885 0.7761 0.7684
865.000000 0.7607 0.7515 0.7310 0.7056 0.6801
860.000000 0.6549 0.6489 0.6457 0.6439 0.6436
855.000000 0.6436 0.6434 0.6480 0.6647 0.6830
850.000000 0.7007 0.7170 0.7330 0.7485 0.7637
845.000000 0.7793 0.7940 0.8092 0.8143 0.8168
840.000000 0.8199 0.8228 0.8246 0.8265 0.8268
835.000000 0.8291 0.8259 0.8240 0.8211 0.8150
830.000000 0.8043 0.7901 0.7793 0.7738 0.7731
825.000000 0.7728 0.7733 0.7768 0.7888 0.7961
820.000000 0.8046 0.8303 0.8489 0.8595 0.8689
815.000000 0.8741 0.8792 0.8818 0.8852 0.8886
810.000000 0.8907 0.8929 0.8937 0.8960 0.8939
805.000000 0.8949 0.8953 0.8946 0.8930 0.8897
800.000000 0.8865 0.8831 0.8798 0.8752 0.8706
795.000000 0.8661 0.8605 0.8547 0.8492 0.8454
790.000000 0.8415 0.8401 0.8398 0.8394 0.8390
785.000000 0.8386 0.8380 0.8366 0.8352 0.8347
780.000000 0.8339 0.8340 0.8338 0.8332 0.8336
775.000000 0.8351 0.8369 0.8381 0.8397 0.8417
770.000000 0.8437 0.8449 0.8471 0.8495 0.8513
765.000000 0.8520 0.8514 0.8511 0.8507 0.8504
760.000000 0.8497 0.8487 0.8478 0.8449 0.8412
755.000000 0.8375 0.8354 0.8338 0.8317 0.8305
750.000000 0.8294 0.8284 0.8274 0.8264 0.8253
745.000000 0.8239 0.8224 0.8210 0.8194 0.8180
740.000000 0.8163 0.8134 0.8106 0.8078 0.8050
735.000000 0.8015 0.7976 0.7934 0.7896 0.7858
730.000000 0.7826 0.7788 0.7751 0.7716 0.7683
725.000000 0.7660 0.7635 0.7616 0.7591 0.7587
720.000000 0.7578 0.7567 0.7555 0.7554 0.7551
715.000000 0.7546 0.7551 0.7551 0.7549 0.7547
710.000000 0.7546 0.7546 0.7545 0.7543 0.7542
705.000000 0.7542 0.7542 0.7548 0.7548 0.7550
700.000000 0.7557 0.7556 0.7556 0.7549 0.7544
695.000000 0.7532 0.7515 0.7492 0.7467 0.7440
690.000000 0.7412 0.7386 0.7365 0.7349 0.7330
685.000000 0.7320 0.7320 0.7327 0.7329 0.7328
680.000000 0.7336 0.7336 0.7353 0.7359 0.7373
675.000000 0.7367 0.7345 0.7329 0.7298 0.7273
670.000000 0.7270 0.7312 0.7341 0.7285 0.7245
665.000000 0.7303 0.7368 0.7431 0.7479 0.7489
660.000000 0.7490 0.7469 0.7365 0.7305 0.7257
655.000000 0.7198 0.7138 0.7080 0.7012 0.6968
650.000000 0.6916 0.6877 0.6868 0.6858 0.6844
645.000000 0.6850 0.6854 0.6854 0.6860 0.6862
640.000000 0.6864 0.6869 0.6871 0.6872 0.6882
635.000000 0.6891 0.6892 0.6900 0.6907 0.6913
630.000000 0.6923 0.6937 0.6944 0.6956 0.6962
625.000000 0.6973 0.6988 0.6993 0.7006 0.7019
620.000000 0.7033 0.7048 0.7066 0.7075 0.7082
615.000000 0.7095 0.7103 0.7111 0.7120 0.7128
610.000000 0.7135 0.7141 0.7148 0.7149 0.7154
605.000000 0.7160 0.7167 0.7174 0.7181 0.7188
600.000000 0.7194 0.7201 0.7205 0.7211 0.7218
595.000000 0.7223 0.7229 0.7235 0.7241 0.7246
590.000000 0.7251 0.7258 0.7262 0.7265 0.7270
585.000000 0.7277 0.7277 0.7282 0.7289 0.7294
580.000000 0.7300 0.7308 0.7314 0.7314 0.7318
575.000000 0.7325 0.7339 0.7346 0.7351 0.7354
570.000000 0.7357 0.7361 0.7365 0.7360 0.7366
565.000000 0.7376 0.7378 0.7375 0.7378 0.7383
560.000000 0.7387 0.7391 0.7391 0.7389 0.7388
555.000000 0.7383 0.7378 0.7374 0.7365 0.7366
550.000000 0.7365 0.7359 0.7354 0.7349 0.7344
545.000000 0.7336 0.7329 0.7320 0.7312 0.7304
540.000000 0.7295 0.7288 0.7286 0.7280 0.7277
535.000000 0.7265 0.7253 0.7255 0.7267 0.7279
530.000000 0.7289 0.7296 0.7300 0.7304 0.7315
525.000000 0.7303 0.7286 0.7268 0.7244 0.7206
520.000000 0.7168 0.7129 0.7086 0.7031 0.6975
515.000000 0.6920 0.6867 0.6817 0.6765 0.6714
510.000000 0.6662 0.6579 0.6578 0.6578 0.6581
505.000000 0.6584 0.6647 0.6704 0.6761 0.6798
500.000000 0.6831 0.6865 0.6878 0.6885 0.6886
495.000000 0.6850 0.6796 0.6740 0.6676 0.6628
490.000000 0.6585 0.6547 0.6556 0.6525 0.6525
485.000000 0.6553 0.6611 0.6664 0.6712 0.6752
480.000000 0.6790 0.6827 0.6859 0.6870 0.6879
475.000000 0.6886 0.6890 0.6897 0.6910 0.6920
470.000000 0.6930 0.6941 0.6951 0.6962 0.6974
465.000000 0.6984 0.6993 0.7001 0.7008 0.7015
460.000000 0.7037 0.7025 0.7023 0.7021 0.7020
455.000000 0.7018 0.7006 0.6989 0.6973 0.6956
450.000000 0.6936 0.6910 0.6882 0.6855 0.6827
445.000000 0.6801 0.6770 0.6724 0.6679 0.6634
440.000000 0.6589 0.6542 0.6486 0.6431 0.6375
435.000000 0.6320 0.6263 0.6209 0.6154 0.6099
430.000000 0.6044 0.5989 0.5929 0.5864 0.5810
425.000000 0.5782 0.5755 0.5731 0.5723 0.5713
420.000000 0.5705 0.5695 0.5683 0.5673 0.5663
415.000000 0.5649 0.5635 0.5552 0.5463 0.5362
410.000000 0.5250 0.5138 0.5029 0.4922 0.4814
405.000000 0.4707 0.4495 0.4296 0.4180 0.4047
400.000000 0.3893 0.3741 0.3614 0.3492 0.3364
395.000000 0.3243 0.3166 0.3096 0.3039 0.2995
390.000000 0.2953 0.2906 0.2863 0.2823 0.2780
385.000000 0.2728 0.2661 0.2583
##END=
