##TITLE=BROWN IRON OXIDE
##JCAMP-DX=4.24
##DATA TYPE=INFRARED SPECTRUM
##CLASS=COBLENTZ
##ORIGIN=DESOTO CHEMICAL COATINGS, INC.
##OWNER=COBLENTZ SOCIETY
Collection (C) 2018 copyright by the U.S. Secretary of Commerce
on behalf of the United States of America. All rights reserved.
##DATE=Not specified, most likely prior to 1970
##NAMES=METALLIC BROWN
##MOLFORM=O3 Fe2
$$ Fe2O3 87%, SiO3^2^- AND SiO2 11%
##SOURCE REFERENCE=COBLENTZ NO. 4676
##$NIST ID=B6004676
##$NIST SOURCE=COBLENTZ
##$NIST IMAGE=cob4676
##SPECTROMETER/DATA SYSTEM=Not specified, most likely a grating spectrometer.
##STATE=SOLID (1 mg / 300 mg CsI DISC)
##SAMPLING PROCEDURE=TRANSMISSION
##RESOLUTION=4
##DATA PROCESSING=DIGITIZED BY NIST FROM HARD COPY (FROM TWO SEGMENTS)
##XUNITS=1/CM
##YUNITS=TRANSMITTANCE
##XFACTOR=1.000000
##YFACTOR=1
##DELTAX=1.329399
##FIRSTX=197.341
##LASTX=3988.79
##FIRSTY=0.668
##MAXX=3988.79
##MINX=197.341
##MAXY=0.96
##MINY=0.203
##NPOINTS=2853
##XYDATA=(X++(Y..Y))
197.341000 0.6680 0.6680 0.7529 0.6682 0.6680
203.987996 0.6670 0.6680 0.6670 0.6670 0.6670
210.634992 0.6700 0.6700 0.6670 0.6670 0.6660
217.281987 0.6660 0.6640 0.6620 0.6600 0.6600
223.928983 0.6590 0.6580 0.6560 0.6550 0.6520
230.575979 0.6470 0.6460 0.6460 0.6400 0.6360
237.222975 0.6350 0.6350 0.6340 0.6320 0.6280
243.869970 0.6260 0.6260 0.6250 0.6230 0.6220
250.516966 0.6190 0.6170 0.6140 0.6130 0.6110
257.163962 0.6100 0.6090 0.6050 0.5970 0.5950
263.810958 0.5890 0.5860 0.5830 0.5820 0.5790
270.457953 0.5750 0.5730 0.5700 0.5690 0.5660
277.104949 0.5630 0.5620 0.5610 0.5550 0.5500
283.751945 0.5460 0.5450 0.5410 0.5380 0.5350
290.398941 0.5290 0.5250 0.5210 0.5170 0.5130
297.045937 0.5070 0.5000 0.4940 0.4900 0.4860
303.692932 0.4820 0.4800 0.4740 0.4680 0.4640
310.339928 0.4540 0.4460 0.4370 0.4261 0.4091
316.986924 0.3970 0.3820 0.3281 0.3080 0.2950
323.633920 0.2811 0.2720 0.2611 0.2550 0.2461
330.280915 0.2320 0.2270 0.2230 0.2220 0.2200
336.927911 0.2190 0.2190 0.2180 0.2180 0.2190
343.574907 0.2190 0.2220 0.2240 0.2270 0.2310
350.221903 0.2360 0.2400 0.2460 0.2500 0.2560
356.868898 0.2630 0.2670 0.2790 0.2930 0.3070
363.515894 0.3190 0.3319 0.3370 0.3410 0.3519
370.162890 0.3600 0.3680 0.3730 0.3810 0.3890
376.809886 0.3970 0.4010 0.4060 0.4100 0.4130
383.456882 0.4140 0.4170 0.4200 0.4220 0.4260
390.103877 0.4290 0.4340 0.4380 0.4410 0.4420
396.750873 0.4460 0.4460 0.4500 0.4600 0.4690
403.397869 0.4780 0.4890 0.4960 0.4980 0.5020
410.044865 0.5020 0.5000 0.5000 0.4980 0.4970
416.691860 0.4920 0.4880 0.4810 0.4760 0.4700
423.338856 0.4660 0.4610 0.4560 0.4480 0.4400
429.985852 0.4280 0.4141 0.4021 0.3960 0.3781
436.632848 0.3690 0.3570 0.3320 0.3190 0.3050
443.279844 0.2960 0.2910 0.2791 0.2720 0.2670
449.926839 0.2570 0.2520 0.2480 0.2440 0.2360
456.573835 0.2350 0.2320 0.2300 0.2280 0.2270
463.220831 0.2270 0.2270 0.2270 0.2280 0.2280
469.867827 0.2310 0.2340 0.2360 0.2390 0.2420
476.514822 0.2470 0.2550 0.2590 0.2680 0.2750
483.161818 0.2810 0.2930 0.3040 0.3229 0.3290
489.808814 0.3360 0.3530 0.3670 0.3820 0.3960
496.455810 0.4080 0.4160 0.4210 0.4250 0.4280
503.102805 0.4300 0.4300 0.4300 0.4290 0.4250
509.749801 0.4160 0.4021 0.3930 0.3801 0.3641
516.396797 0.3470 0.3240 0.3080 0.2970 0.2850
523.043793 0.2720 0.2630 0.2521 0.2421 0.2360
529.690789 0.2280 0.2260 0.2190 0.2180 0.2110
536.337784 0.2080 0.2060 0.2060 0.2040 0.2030
542.984780 0.2030 0.2030 0.2040 0.2060 0.2060
549.631776 0.2070 0.2100 0.2110 0.2150 0.2180
556.278772 0.2190 0.2220 0.2260 0.2300 0.2320
562.925767 0.2340 0.2380 0.2430 0.2470 0.2500
569.572763 0.2560 0.2590 0.2610 0.2670 0.2730
576.219759 0.2800 0.2870 0.2910 0.2960 0.2990
582.866755 0.3070 0.3130 0.3190 0.3240 0.3280
589.513750 0.3310 0.3330 0.3390 0.3410 0.3470
596.160746 0.3490 0.3560 0.3600 0.3710 0.3780
602.807742 0.3820 0.3860 0.3920 0.3930 0.3980
609.454738 0.4000 0.4080 0.4100 0.4160 0.4200
616.101734 0.4220 0.4290 0.4360 0.4420 0.4480
622.748729 0.4520 0.4570 0.4610 0.4690 0.4770
629.395725 0.4810 0.4880 0.4900 0.4970 0.5000
636.042721 0.5060 0.5110 0.5180 0.5260 0.5370
642.689717 0.5470 0.5510 0.5590 0.5670 0.5769
649.336712 0.5820 0.5910 0.5980 0.6030 0.6130
655.983708 0.6190 0.6270 0.6380 0.6559 0.6630
662.630704 0.6660 0.6670 0.6720 0.6760 0.6790
669.277700 0.6870 0.6960 0.7020 0.7080 0.7140
675.924695 0.7190 0.7220 0.7240 0.7280 0.7310
682.571691 0.7340 0.7350 0.7380 0.7390 0.7440
689.218687 0.7460 0.7480 0.7500 0.7500 0.7510
695.865683 0.7560 0.7570 0.7600 0.7670 0.7720
702.512679 0.7770 0.7810 0.7880 0.7890 0.7910
709.159674 0.7930 0.7990 0.8010 0.8050 0.8090
715.806670 0.8120 0.8150 0.8160 0.8190 0.8230
722.453666 0.8270 0.8310 0.8330 0.8350 0.8370
729.100662 0.8390 0.8450 0.8480 0.8480 0.8490
735.747657 0.8520 0.8530 0.8550 0.8570 0.8590
742.394653 0.8600 0.8600 0.8670 0.8680 0.8690
749.041649 0.8690 0.8710 0.8720 0.8720 0.8750
755.688645 0.8760 0.8760 0.8780 0.8780 0.8800
762.335640 0.8810 0.8820 0.8820 0.8810 0.8810
768.982636 0.8800 0.8770 0.8750 0.8710 0.8690
775.629632 0.8680 0.8670 0.8640 0.8610 0.8600
782.276628 0.8600 0.8610 0.8610 0.8630 0.8640
788.923624 0.8670 0.8670 0.8650 0.8640 0.8630
795.570619 0.8600 0.8600 0.8590 0.8600 0.8640
802.217615 0.8680 0.8720 0.8760 0.8770 0.8820
808.864611 0.8890 0.9020 0.9080 0.9090 0.9120
815.511607 0.9140 0.9180 0.9210 0.9240 0.9260
822.158602 0.9280 0.9300 0.9300 0.9320 0.9330
828.805598 0.9360 0.9380 0.9410 0.9420 0.9450
835.452594 0.9460 0.9460 0.9480 0.9480 0.9480
842.099590 0.9490 0.9500 0.9520 0.9520 0.9530
848.746585 0.9540 0.9560 0.9560 0.9560 0.9570
855.393581 0.9570 0.9580 0.9600 0.9600 0.9600
862.040577 0.9600 0.9600 0.9600 0.9580 0.9580
868.687573 0.9570 0.9560 0.9560 0.9540 0.9540
875.334569 0.9530 0.9520 0.9500 0.9500 0.9490
881.981564 0.9480 0.9480 0.9460 0.9450 0.9440
888.628560 0.9420 0.9420 0.9410 0.9400 0.9380
895.275556 0.9370 0.9360 0.9340 0.9330 0.9320
901.922552 0.9300 0.9290 0.9280 0.9260 0.9250
908.569547 0.9240 0.9240 0.9220 0.9210 0.9180
915.216543 0.9180 0.9170 0.9160 0.9160 0.9140
921.863539 0.9130 0.9120 0.9120 0.9100 0.9090
928.510535 0.9090 0.9080 0.9060 0.9060 0.9050
935.157531 0.9040 0.9020 0.9010 0.9010 0.9000
941.804526 0.8980 0.8970 0.8970 0.8960 0.8930
948.451522 0.8920 0.8900 0.8890 0.8880 0.8850
955.098518 0.8820 0.8810 0.8780 0.8750 0.8710
961.745514 0.8690 0.8680 0.8640 0.8600 0.8590
968.392509 0.8560 0.8520 0.8470 0.8440 0.8410
975.039505 0.8390 0.8370 0.8350 0.8280 0.8230
981.686501 0.8190 0.8160 0.8130 0.8130 0.8120
988.333497 0.8080 0.8030 0.8000 0.7970 0.7970
994.980492 0.7950 0.7920 0.7910 0.7890 0.7830
1001.627488 0.7770 0.7770 0.7720 0.7690 0.7680
1008.274484 0.7670 0.7630 0.7590 0.7530 0.7480
1014.921480 0.7440 0.7420 0.7390 0.7390 0.7340
1021.568476 0.7300 0.7260 0.7220 0.7200 0.7190
1028.215471 0.7160 0.7140 0.7110 0.7070 0.7040
1034.862467 0.7020 0.7020 0.7000 0.6990 0.6980
1041.509463 0.6950 0.6920 0.6910 0.6880 0.6840
1048.156459 0.6820 0.6820 0.6790 0.6760 0.6740
1054.803454 0.6700 0.6680 0.6630 0.6620 0.6580
1061.450450 0.6520 0.6480 0.6480 0.6420 0.6390
1068.097446 0.6350 0.6280 0.6230 0.6210 0.6190
1074.744442 0.6180 0.6140 0.6140 0.6110 0.6090
1081.391437 0.6090 0.6070 0.6070 0.6070 0.6070
1088.038433 0.6070 0.6090 0.6090 0.6100 0.6100
1094.685429 0.6100 0.6100 0.6110 0.6140 0.6180
1101.332425 0.6210 0.6230 0.6250 0.6280 0.6320
1107.979421 0.6380 0.6360 0.6420 0.6470 0.6500
1114.626416 0.6540 0.6580 0.6590 0.6620 0.6630
1121.273412 0.6660 0.6670 0.6670 0.6680 0.6710
1127.920408 0.6760 0.6790 0.6820 0.6830 0.6860
1134.567404 0.6880 0.6910 0.6920 0.6940 0.6980
1141.214399 0.6990 0.7000 0.7020 0.7020 0.7040
1147.861395 0.7080 0.7080 0.7100 0.7110 0.7120
1154.508391 0.7120 0.7150 0.7180 0.7190 0.7190
1161.155387 0.7200 0.7220 0.7220 0.7230 0.7230
1167.802382 0.7230 0.7240 0.7260 0.7280 0.7280
1174.449378 0.7300 0.7310 0.7320 0.7340 0.7360
1181.096374 0.7390 0.7430 0.7460 0.7480 0.7500
1187.743370 0.7500 0.7520 0.7530 0.7560 0.7570
1194.390366 0.7590 0.7610 0.7630 0.7640 0.7680
1201.037361 0.7710 0.7720 0.7730 0.7750 0.7760
1207.684357 0.7790 0.7790 0.7810 0.7850 0.7880
1214.331353 0.7890 0.7890 0.7910 0.7910 0.7910
1220.978349 0.7920 0.7960 0.7990 0.8000 0.8000
1227.625344 0.8010 0.8050 0.8070 0.8090 0.8120
1234.272340 0.8120 0.8130 0.8150 0.8170 0.8200
1240.919336 0.8200 0.8210 0.8230 0.8210 0.8240
1247.566332 0.8250 0.8290 0.8320 0.8330 0.8350
1254.213327 0.8360 0.8360 0.8390 0.8400 0.8400
1260.860323 0.8410 0.8410 0.8430 0.8430 0.8430
1267.507319 0.8440 0.8440 0.8450 0.8470 0.8470
1274.154315 0.8490 0.8510 0.8510 0.8490 0.8480
1280.801311 0.8470 0.8470 0.8490 0.8490 0.8490
1287.448306 0.8490 0.8490 0.8470 0.8470 0.8470
1294.095302 0.8450 0.8440 0.8430 0.8430 0.8430
1300.742298 0.8440 0.8450 0.8470 0.8480 0.8480
1307.389294 0.8480 0.8470 0.8470 0.8470 0.8450
1314.036289 0.8440 0.8440 0.8440 0.8440 0.8440
1320.683285 0.8440 0.8430 0.8430 0.8430 0.8430
1327.330281 0.8410 0.8410 0.8390 0.8390 0.8390
1333.977277 0.8400 0.8400 0.8400 0.8400 0.8400
1340.624272 0.8400 0.8390 0.8390 0.8390 0.8370
1347.271268 0.8360 0.8360 0.8370 0.8370 0.8360
1353.918264 0.8360 0.8360 0.8350 0.8350 0.8330
1360.565260 0.8330 0.8320 0.8320 0.8310 0.8310
1367.212256 0.8290 0.8280 0.8280 0.8270 0.8270
1373.859251 0.8250 0.8250 0.8240 0.8240 0.8230
1380.506247 0.8230 0.8210 0.8210 0.8210 0.8200
1387.153243 0.8200 0.8200 0.8190 0.8190 0.8190
1393.800239 0.8190 0.8190 0.8190 0.8190 0.8190
1400.447234 0.8190 0.8170 0.8170 0.8170 0.8170
1407.094230 0.8170 0.8170 0.8170 0.8170 0.8170
1413.741226 0.8170 0.8160 0.8160 0.8160 0.8160
1420.388222 0.8160 0.8160 0.8160 0.8160 0.8160
1427.035218 0.8160 0.8160 0.8150 0.8150 0.8130
1433.682213 0.8130 0.8130 0.8120 0.8120 0.8110
1440.329209 0.8110 0.8090 0.8080 0.8080 0.8070
1446.976205 0.8070 0.8050 0.8040 0.8040 0.8050
1453.623201 0.8040 0.8040 0.8040 0.8040 0.8040
1460.270196 0.8040 0.8040 0.8040 0.8040 0.8040
1466.917192 0.8040 0.8040 0.8040 0.8040 0.8040
1473.564188 0.8040 0.8040 0.8050 0.8050 0.8050
1480.211184 0.8050 0.8050 0.8040 0.8040 0.8040
1486.858179 0.8030 0.8010 0.8010 0.8010 0.8010
1493.505175 0.8010 0.8030 0.8030 0.8030 0.8030
1500.152171 0.8010 0.8010 0.8010 0.8000 0.8000
1506.799167 0.7990 0.7990 0.7990 0.7990 0.7970
1513.446163 0.7970 0.7960 0.7960 0.7950 0.7950
1520.093158 0.7950 0.7950 0.7950 0.7950 0.7950
1526.740154 0.7930 0.7930 0.7930 0.7930 0.7930
1533.387150 0.7930 0.7920 0.7920 0.7920 0.7920
1540.034146 0.7920 0.7920 0.7910 0.7910 0.7910
1546.681141 0.7890 0.7880 0.7880 0.7880 0.7870
1553.328137 0.7870 0.7850 0.7840 0.7840 0.7830
1559.975133 0.7830 0.7830 0.7810 0.7800 0.7800
1566.622129 0.7790 0.7790 0.7770 0.7760 0.7750
1573.269124 0.7730 0.7730 0.7720 0.7720 0.7710
1579.916120 0.7710 0.7680 0.7650 0.7640 0.7610
1586.563116 0.7600 0.7590 0.7590 0.7570 0.7560
1593.210112 0.7520 0.7510 0.7500 0.7500 0.7440
1599.857108 0.7430 0.7400 0.7360 0.7320 0.7310
1606.504103 0.7280 0.7270 0.7240 0.7220 0.7200
1613.151099 0.7180 0.7160 0.7150 0.7150 0.7150
1619.798095 0.7150 0.7160 0.7180 0.7180 0.7200
1626.445091 0.7200 0.7220 0.7230 0.7270 0.7280
1633.092086 0.7300 0.7310 0.7320 0.7320 0.7350
1639.739082 0.7380 0.7380 0.7390 0.7400 0.7420
1646.386078 0.7440 0.7440 0.7470 0.7480 0.7480
1653.033074 0.7500 0.7500 0.7510 0.7520 0.7520
1659.680069 0.7530 0.7530 0.7530 0.7530 0.7530
1666.327065 0.7530 0.7550 0.7550 0.7550 0.7550
1672.974061 0.7550 0.7550 0.7560 0.7560 0.7560
1679.621057 0.7560 0.7560 0.7560 0.7560 0.7560
1686.268053 0.7570 0.7570 0.7570 0.7570 0.7570
1692.915048 0.7570 0.7570 0.7570 0.7570 0.7570
1699.562044 0.7570 0.7570 0.7570 0.7570 0.7570
1706.209040 0.7570 0.7570 0.7570 0.7570 0.7570
1712.856036 0.7570 0.7570 0.7570 0.7570 0.7570
1719.503031 0.7570 0.7570 0.7570 0.7570 0.7570
1726.150027 0.7570 0.7570 0.7590 0.7590 0.7590
1732.797023 0.7590 0.7590 0.7590 0.7590 0.7590
1739.444019 0.7570 0.7570 0.7570 0.7570 0.7570
1746.091014 0.7590 0.7590 0.7590 0.7600 0.7600
1752.738010 0.7570 0.7570 0.7570 0.7570 0.7590
1759.385006 0.7590 0.7590 0.7570 0.7570 0.7560
1766.032002 0.7570 0.7590 0.7590 0.7590 0.7590
1772.678998 0.7570 0.7550 0.7530 0.7550 0.7550
1779.325993 0.7550 0.7550 0.7530 0.7520 0.7510
1785.972989 0.7510 0.7550 0.7550 0.7550 0.7550
1792.619985 0.7530 0.7530 0.7550 0.7530 0.7530
1799.266981 0.7530 0.7530 0.7520 0.7530 0.7530
1805.913976 0.7530 0.7530 0.7520 0.7520 0.7510
1812.560972 0.7510 0.7500 0.7480 0.7480 0.7480
1819.207968 0.7480 0.7480 0.7480 0.7480 0.7500
1825.854964 0.7500 0.7500 0.7500 0.7500 0.7480
1832.501960 0.7480 0.7470 0.7470 0.7470 0.7470
1839.148955 0.7470 0.7500 0.7500 0.7470 0.7470
1845.795951 0.7470 0.7460 0.7460 0.7460 0.7460
1852.442947 0.7460 0.7480 0.7480 0.7480 0.7470
1859.089943 0.7470 0.7470 0.7470 0.7470 0.7460
1865.736938 0.7460 0.7440 0.7430 0.7420 0.7400
1872.383934 0.7400 0.7390 0.7390 0.7390 0.7400
1879.030930 0.7390 0.7400 0.7400 0.7400 0.7400
1885.677926 0.7400 0.7400 0.7400 0.7400 0.7390
1892.324921 0.7390 0.7390 0.7380 0.7380 0.7380
1898.971917 0.7360 0.7360 0.7360 0.7360 0.7360
1905.618913 0.7360 0.7350 0.7350 0.7350 0.7350
1912.265909 0.7350 0.7350 0.7350 0.7350 0.7350
1918.912905 0.7340 0.7340 0.7340 0.7320 0.7320
1925.559900 0.7320 0.7320 0.7320 0.7320 0.7320
1932.206896 0.7340 0.7340 0.7340 0.7320 0.7320
1938.853892 0.7320 0.7310 0.7310 0.7300 0.7300
1945.500888 0.7300 0.7280 0.7280 0.7270 0.7270
1952.147883 0.7280 0.7310 0.7310 0.7310 0.7300
1958.794879 0.7300 0.7280 0.7280 0.7270 0.7270
1965.441875 0.7260 0.7260 0.7260 0.7240 0.7240
1972.088871 0.7230 0.7230 0.7230 0.7230 0.7230
1978.735866 0.7230 0.7230 0.7230 0.7230 0.7220
1985.382862 0.7220 0.7200 0.7200 0.7200 0.7200
1992.029858 0.7200 0.7200 0.7200 0.7200 0.7200
1998.676854 0.7220 0.7220 0.7225 0.7230 0.7235
2005.323850 0.7240 0.7240 0.7240 0.7240 0.7240
2011.970845 0.7240 0.7240 0.7240 0.7240 0.7240
2018.617841 0.7240 0.7240 0.7240 0.7240 0.7240
2025.264837 0.7235 0.7230 0.7230 0.7230 0.7230
2031.911833 0.7230 0.7225 0.7220 0.7220 0.7220
2038.558828 0.7210 0.7200 0.7200 0.7200 0.7200
2045.205824 0.7200 0.7200 0.7200 0.7195 0.7190
2051.852820 0.7190 0.7190 0.7190 0.7190 0.7190
2058.499816 0.7190 0.7185 0.7180 0.7180 0.7180
2065.146811 0.7180 0.7180 0.7180 0.7180 0.7180
2071.793807 0.7180 0.7180 0.7180 0.7180 0.7180
2078.440803 0.7180 0.7180 0.7180 0.7180 0.7170
2085.087799 0.7160 0.7160 0.7160 0.7160 0.7160
2091.734795 0.7160 0.7160 0.7155 0.7150 0.7150
2098.381790 0.7150 0.7145 0.7140 0.7140 0.7140
2105.028786 0.7130 0.7120 0.7120 0.7120 0.7115
2111.675782 0.7110 0.7110 0.7110 0.7110 0.7110
2118.322778 0.7110 0.7110 0.7105 0.7100 0.7100
2124.969773 0.7100 0.7100 0.7100 0.7100 0.7100
2131.616769 0.7100 0.7100 0.7100 0.7100 0.7090
2138.263765 0.7080 0.7080 0.7080 0.7075 0.7070
2144.910761 0.7065 0.7060 0.7050 0.7040 0.7040
2151.557756 0.7040 0.7040 0.7040 0.7040 0.7040
2158.204752 0.7035 0.7030 0.7030 0.7030 0.7030
2164.851748 0.7030 0.7025 0.7020 0.7020 0.7020
2171.498744 0.7020 0.7020 0.7020 0.7020 0.7020
2178.145740 0.7020 0.7020 0.7020 0.7020 0.7020
2184.792735 0.7020 0.7020 0.7010 0.7000 0.7000
2191.439731 0.7000 0.7000 0.7000 0.7000 0.7000
2198.086727 0.7000 0.7000 0.7000 0.7000 0.7000
2204.733723 0.7000 0.7000 0.7000 0.6995 0.6990
2211.380718 0.6990 0.6990 0.6990 0.6990 0.6990
2218.027714 0.6990 0.6990 0.6990 0.6990 0.6990
2224.674710 0.6990 0.6990 0.6990 0.6990 0.6990
2231.321706 0.6990 0.6990 0.6990 0.6985 0.6980
2237.968701 0.6980 0.6980 0.6970 0.6961 0.6960
2244.615697 0.6960 0.6955 0.6950 0.6950 0.6950
2251.262693 0.6945 0.6940 0.6940 0.6940 0.6940
2257.909689 0.6940 0.6940 0.6940 0.6940 0.6940
2264.556685 0.6940 0.6940 0.6931 0.6921 0.6920
2271.203680 0.6920 0.6915 0.6910 0.6905 0.6900
2277.850676 0.6900 0.6900 0.6886 0.6871 0.6870
2284.497672 0.6870 0.6865 0.6860 0.6860 0.6860
2291.144668 0.6860 0.6860 0.6860 0.6860 0.6860
2297.791663 0.6860 0.6860 0.6860 0.6851 0.6841
2304.438659 0.6840 0.6840 0.6840 0.6840 0.6840
2311.085655 0.6840 0.6840 0.6840 0.6840 0.6840
2317.732651 0.6840 0.6840 0.6840 0.6840 0.6840
2324.379647 0.6840 0.6840 0.6840 0.6840 0.6840
2331.026642 0.6840 0.6840 0.6840 0.6840 0.6835
2337.673638 0.6830 0.6830 0.6830 0.6825 0.6820
2344.320634 0.6820 0.6820 0.6820 0.6820 0.6820
2350.967630 0.6820 0.6820 0.6820 0.6820 0.6820
2357.614625 0.6820 0.6820 0.6820 0.6820 0.6820
2364.261621 0.6820 0.6820 0.6820 0.6820 0.6820
2370.908617 0.6820 0.6820 0.6820 0.6820 0.6820
2377.555613 0.6820 0.6820 0.6820 0.6820 0.6820
2384.202608 0.6820 0.6820 0.6820 0.6820 0.6811
2390.849604 0.6801 0.6800 0.6800 0.6800 0.6800
2397.496600 0.6791 0.6781 0.6771 0.6761 0.6755
2404.143596 0.6750 0.6750 0.6750 0.6755 0.6760
2410.790592 0.6760 0.6760 0.6769 0.6779 0.6780
2417.437587 0.6780 0.6784 0.6789 0.6790 0.6790
2424.084583 0.6790 0.6790 0.6785 0.6780 0.6780
2430.731579 0.6780 0.6780 0.6780 0.6780 0.6780
2437.378575 0.6771 0.6761 0.6756 0.6751 0.6750
2444.025570 0.6750 0.6746 0.6741 0.6727 0.6712
2450.672566 0.6710 0.6710 0.6705 0.6700 0.6700
2457.319562 0.6700 0.6700 0.6700 0.6700 0.6700
2463.966558 0.6691 0.6681 0.6680 0.6680 0.6680
2470.613553 0.6680 0.6676 0.6671 0.6666 0.6661
2477.260549 0.6660 0.6660 0.6660 0.6660 0.6651
2483.907545 0.6641 0.6640 0.6640 0.6636 0.6631
2490.554541 0.6630 0.6630 0.6626 0.6621 0.6620
2497.201537 0.6620 0.6611 0.6601 0.6600 0.6600
2503.848532 0.6600 0.6600 0.6596 0.6591 0.6590
2510.495528 0.6590 0.6590 0.6590 0.6590 0.6590
2517.142524 0.6590 0.6590 0.6590 0.6590 0.6590
2523.789520 0.6590 0.6586 0.6581 0.6580 0.6580
2530.436515 0.6580 0.6580 0.6580 0.6580 0.6580
2537.083511 0.6580 0.6580 0.6580 0.6580 0.6580
2543.730507 0.6580 0.6580 0.6580 0.6580 0.6580
2550.377503 0.6580 0.6580 0.6580 0.6571 0.6561
2557.024498 0.6560 0.6560 0.6556 0.6551 0.6550
2563.671494 0.6550 0.6546 0.6541 0.6540 0.6540
2570.318490 0.6540 0.6540 0.6540 0.6540 0.6540
2576.965486 0.6540 0.6540 0.6540 0.6540 0.6540
2583.612482 0.6540 0.6540 0.6540 0.6540 0.6540
2590.259477 0.6540 0.6531 0.6521 0.6520 0.6520
2596.906473 0.6520 0.6520 0.6516 0.6511 0.6510
2603.553469 0.6510 0.6506 0.6501 0.6492 0.6482
2610.200465 0.6480 0.6480 0.6476 0.6471 0.6470
2616.847460 0.6470 0.6470 0.6470 0.6466 0.6461
2623.494456 0.6460 0.6460 0.6460 0.6460 0.6452
2630.141452 0.6442 0.6440 0.6440 0.6436 0.6431
2636.788448 0.6430 0.6430 0.6426 0.6421 0.6420
2643.435443 0.6420 0.6411 0.6401 0.6400 0.6400
2650.082439 0.6396 0.6391 0.6390 0.6390 0.6386
2656.729435 0.6381 0.6380 0.6380 0.6380 0.6380
2663.376431 0.6380 0.6380 0.6380 0.6380 0.6384
2670.023427 0.6389 0.6390 0.6390 0.6390 0.6390
2676.670422 0.6394 0.6399 0.6408 0.6418 0.6412
2683.317418 0.6402 0.6396 0.6391 0.6386 0.6381
2689.964414 0.6372 0.6361 0.6369 0.6379 0.6372
2696.611410 0.6362 0.6356 0.6351 0.6350 0.6350
2703.258405 0.6346 0.6341 0.6340 0.6340 0.6340
2709.905401 0.6340 0.6340 0.6340 0.6340 0.6340
2716.552397 0.6340 0.6340 0.6327 0.6312 0.6310
2723.199393 0.6310 0.6310 0.6310 0.6306 0.6301
2729.846388 0.6300 0.6300 0.6300 0.6300 0.6300
2736.493384 0.6300 0.6300 0.6300 0.6300 0.6300
2743.140380 0.6300 0.6300 0.6300 0.6300 0.6300
2749.787376 0.6300 0.6308 0.6318 0.6316 0.6311
2756.434372 0.6306 0.6301 0.6292 0.6282 0.6276
2763.081367 0.6271 0.6270 0.6270 0.6270 0.6270
2769.728363 0.6266 0.6261 0.6256 0.6251 0.6250
2776.375359 0.6250 0.6242 0.6232 0.6230 0.6230
2783.022355 0.6230 0.6230 0.6230 0.6230 0.6226
2789.669350 0.6221 0.6220 0.6220 0.6220 0.6220
2796.316346 0.6216 0.6211 0.6210 0.6210 0.6210
2802.963342 0.6210 0.6210 0.6210 0.6214 0.6219
2809.610338 0.6220 0.6220 0.6220 0.6220 0.6220
2816.257334 0.6220 0.6216 0.6211 0.6202 0.6192
2822.904329 0.6186 0.6181 0.6180 0.6180 0.6180
2829.551325 0.6180 0.6180 0.6180 0.6176 0.6171
2836.198321 0.6158 0.6143 0.6140 0.6140 0.6136
2842.845317 0.6131 0.6130 0.6130 0.6130 0.6130
2849.492312 0.6122 0.6112 0.6110 0.6110 0.6106
2856.139308 0.6101 0.6100 0.6100 0.6096 0.6091
2862.786304 0.6090 0.6090 0.6090 0.6090 0.6082
2869.433300 0.6072 0.6070 0.6070 0.6066 0.6061
2876.080295 0.6060 0.6060 0.6056 0.6051 0.6050
2882.727291 0.6050 0.6042 0.6032 0.6030 0.6030
2889.374287 0.6030 0.6030 0.6026 0.6021 0.6020
2896.021283 0.6020 0.6020 0.6020 0.6016 0.6011
2902.668279 0.6010 0.6010 0.6002 0.5992 0.5990
2909.315274 0.5990 0.5986 0.5981 0.5980 0.5980
2915.962270 0.5968 0.5953 0.5942 0.5932 0.5918
2922.609266 0.5903 0.5884 0.5864 0.5860 0.5860
2929.256262 0.5864 0.5869 0.5878 0.5888 0.5890
2935.903257 0.5890 0.5894 0.5899 0.5904 0.5909
2942.550253 0.5910 0.5910 0.5910 0.5910 0.5910
2949.197249 0.5910 0.5906 0.5901 0.5900 0.5900
2955.844245 0.5900 0.5900 0.5900 0.5900 0.5900
2962.491240 0.5900 0.5900 0.5900 0.5900 0.5900
2969.138236 0.5904 0.5909 0.5910 0.5910 0.5918
2975.785232 0.5928 0.5934 0.5939 0.5936 0.5931
2982.432228 0.5930 0.5930 0.5930 0.5930 0.5930
2989.079224 0.5930 0.5922 0.5912 0.5906 0.5901
2995.726219 0.5900 0.5900 0.5912 0.5927 0.5930
3002.373215 0.5930 0.5922 0.5912 0.5910 0.5910
3009.020211 0.5906 0.5901 0.5896 0.5891 0.5890
3015.667207 0.5890 0.5890 0.5890 0.5894 0.5899
3022.314202 0.5900 0.5900 0.5900 0.5900 0.5900
3028.961198 0.5900 0.5896 0.5891 0.5890 0.5890
3035.608194 0.5890 0.5890 0.5890 0.5890 0.5894
3042.255190 0.5899 0.5900 0.5900 0.5896 0.5891
3048.902185 0.5890 0.5890 0.5882 0.5872 0.5870
3055.549181 0.5870 0.5870 0.5870 0.5866 0.5861
3062.196177 0.5860 0.5860 0.5860 0.5860 0.5860
3068.843173 0.5860 0.5856 0.5851 0.5850 0.5850
3075.490169 0.5850 0.5850 0.5850 0.5850 0.5843
3082.137164 0.5833 0.5830 0.5830 0.5830 0.5830
3088.784160 0.5830 0.5830 0.5826 0.5821 0.5820
3095.431156 0.5820 0.5820 0.5820 0.5816 0.5811
3102.078152 0.5810 0.5810 0.5810 0.5810 0.5803
3108.725147 0.5793 0.5790 0.5790 0.5790 0.5790
3115.372143 0.5786 0.5781 0.5780 0.5780 0.5780
3122.019139 0.5780 0.5776 0.5771 0.5770 0.5770
3128.666135 0.5763 0.5753 0.5750 0.5750 0.5746
3135.313130 0.5741 0.5740 0.5740 0.5736 0.5731
3141.960126 0.5730 0.5730 0.5730 0.5730 0.5723
3148.607122 0.5713 0.5710 0.5710 0.5706 0.5701
3155.254118 0.5700 0.5700 0.5700 0.5700 0.5696
3161.901114 0.5691 0.5690 0.5690 0.5683 0.5673
3168.548109 0.5670 0.5670 0.5670 0.5670 0.5666
3175.195105 0.5661 0.5660 0.5660 0.5656 0.5651
3181.842101 0.5650 0.5650 0.5650 0.5650 0.5643
3188.489097 0.5633 0.5630 0.5630 0.5630 0.5630
3195.136092 0.5626 0.5621 0.5620 0.5620 0.5620
3201.783088 0.5620 0.5616 0.5611 0.5610 0.5610
3208.430084 0.5603 0.5593 0.5590 0.5590 0.5590
3215.077080 0.5590 0.5586 0.5581 0.5580 0.5580
3221.724076 0.5580 0.5580 0.5576 0.5571 0.5570
3228.371071 0.5570 0.5563 0.5553 0.5550 0.5550
3235.018067 0.5546 0.5541 0.5540 0.5540 0.5540
3241.665063 0.5540 0.5536 0.5531 0.5530 0.5530
3248.312059 0.5523 0.5513 0.5510 0.5510 0.5510
3254.959054 0.5510 0.5506 0.5501 0.5500 0.5500
3261.606050 0.5496 0.5491 0.5490 0.5490 0.5490
3268.253046 0.5490 0.5490 0.5490 0.5483 0.5473
3274.900042 0.5470 0.5470 0.5466 0.5461 0.5460
3281.547037 0.5460 0.5460 0.5460 0.5456 0.5451
3288.194033 0.5443 0.5433 0.5426 0.5421 0.5416
3294.841029 0.5411 0.5410 0.5410 0.5403 0.5393
3301.488025 0.5390 0.5390 0.5386 0.5381 0.5380
3308.135021 0.5380 0.5376 0.5371 0.5370 0.5370
3314.782016 0.5359 0.5344 0.5340 0.5340 0.5337
3321.429012 0.5332 0.5330 0.5330 0.5320 0.5305
3328.076008 0.5290 0.5274 0.5270 0.5270 0.5256
3334.723004 0.5236 0.5226 0.5221 0.5206 0.5186
3341.369999 0.5180 0.5180 0.5166 0.5146 0.5126
3348.016995 0.5106 0.5100 0.5100 0.5097 0.5092
3354.663991 0.5083 0.5073 0.5066 0.5061 0.5056
3361.310987 0.5051 0.5043 0.5033 0.5023 0.5013
3367.957982 0.5007 0.5002 0.4993 0.4983 0.4977
3374.604978 0.4972 0.4967 0.4962 0.4950 0.4935
3381.251974 0.4920 0.4905 0.4893 0.4883 0.4859
3387.898970 0.4829 0.4817 0.4812 0.4807 0.4802
3394.545966 0.4793 0.4783 0.4777 0.4772 0.4760
3401.192961 0.4745 0.4733 0.4723 0.4713 0.4703
3407.839957 0.4697 0.4692 0.4690 0.4690 0.4687
3414.486953 0.4682 0.4673 0.4663 0.4653 0.4643
3421.133949 0.4633 0.4623 0.4620 0.4620 0.4617
3427.780944 0.4612 0.4607 0.4602 0.4593 0.4583
3434.427940 0.4577 0.4572 0.4570 0.4570 0.4567
3441.074936 0.4562 0.4553 0.4543 0.4540 0.4540
3447.721932 0.4540 0.4540 0.4537 0.4532 0.4530
3454.368927 0.4530 0.4527 0.4522 0.4520 0.4520
3461.015923 0.4513 0.4503 0.4500 0.4500 0.4500
3467.662919 0.4500 0.4500 0.4500 0.4500 0.4500
3474.309915 0.4500 0.4500 0.4507 0.4517 0.4520
3480.956911 0.4520 0.4520 0.4520 0.4520 0.4520
3487.603906 0.4523 0.4528 0.4530 0.4530 0.4530
3494.250902 0.4530 0.4533 0.4538 0.4540 0.4540
3500.897898 0.4547 0.4557 0.4560 0.4560 0.4563
3507.544894 0.4568 0.4573 0.4578 0.4580 0.4580
3514.191889 0.4587 0.4597 0.4603 0.4608 0.4610
3520.838885 0.4610 0.4613 0.4618 0.4627 0.4637
3527.485881 0.4643 0.4648 0.4653 0.4658 0.4660
3534.132877 0.4660 0.4666 0.4676 0.4693 0.4713
3540.779872 0.4723 0.4728 0.4733 0.4738 0.4740
3547.426868 0.4740 0.4747 0.4757 0.4760 0.4760
3554.073864 0.4767 0.4776 0.4786 0.4796 0.4803
3560.720860 0.4808 0.4810 0.4810 0.4813 0.4818
3567.367856 0.4830 0.4845 0.4860 0.4875 0.4880
3574.014851 0.4880 0.4883 0.4888 0.4903 0.4923
3580.661847 0.4930 0.4930 0.4933 0.4938 0.4950
3587.308843 0.4965 0.4980 0.4995 0.5006 0.5016
3593.955839 0.5023 0.5028 0.5037 0.5047 0.5050
3600.602834 0.5050 0.5053 0.5058 0.5063 0.5068
3607.249830 0.5083 0.5103 0.5116 0.5126 0.5133
3613.896826 0.5138 0.5143 0.5148 0.5156 0.5166
3620.543822 0.5170 0.5170 0.5173 0.5178 0.5180
3627.190817 0.5180 0.5183 0.5188 0.5196 0.5206
3633.837813 0.5216 0.5226 0.5236 0.5246 0.5253
3640.484809 0.5258 0.5260 0.5260 0.5263 0.5268
3647.131805 0.5270 0.5270 0.5276 0.5286 0.5290
3653.778801 0.5290 0.5293 0.5298 0.5300 0.5300
3660.425796 0.5303 0.5308 0.5310 0.5310 0.5316
3667.072792 0.5326 0.5330 0.5330 0.5333 0.5338
3673.719788 0.5340 0.5340 0.5340 0.5340 0.5337
3680.366784 0.5332 0.5330 0.5330 0.5330 0.5330
3687.013779 0.5324 0.5314 0.5310 0.5310 0.5316
3693.660775 0.5326 0.5330 0.5330 0.5336 0.5346
3700.307771 0.5359 0.5374 0.5380 0.5380 0.5380
3706.954767 0.5380 0.5377 0.5372 0.5370 0.5370
3713.601763 0.5364 0.5354 0.5350 0.5350 0.5350
3720.248758 0.5350 0.5347 0.5342 0.5340 0.5340
3726.895754 0.5337 0.5332 0.5330 0.5330 0.5324
3733.542750 0.5314 0.5310 0.5310 0.5310 0.5310
3740.189746 0.5307 0.5302 0.5300 0.5300 0.5300
3746.836741 0.5300 0.5300 0.5300 0.5297 0.5292
3753.483737 0.5290 0.5290 0.5290 0.5290 0.5290
3760.130733 0.5290 0.5290 0.5290 0.5290 0.5290
3766.777729 0.5290 0.5290 0.5290 0.5290 0.5284
3773.424724 0.5274 0.5270 0.5270 0.5270 0.5270
3780.071720 0.5270 0.5270 0.5270 0.5270 0.5270
3786.718716 0.5270 0.5276 0.5286 0.5290 0.5290
3793.365712 0.5290 0.5290 0.5290 0.5290 0.5290
3800.012708 0.5290 0.5284 0.5274 0.5270 0.5270
3806.659703 0.5270 0.5270 0.5267 0.5262 0.5260
3813.306699 0.5260 0.5260 0.5260 0.5260 0.5260
3819.953695 0.5260 0.5260 0.5257 0.5252 0.5244
3826.600691 0.5234 0.5230 0.5230 0.5227 0.5222
3833.247686 0.5217 0.5212 0.5210 0.5210 0.5204
3839.894682 0.5194 0.5190 0.5190 0.5187 0.5182
3846.541678 0.5180 0.5180 0.5180 0.5180 0.5180
3853.188674 0.5180 0.5180 0.5180 0.5180 0.5180
3859.835669 0.5183 0.5188 0.5196 0.5206 0.5210
3866.482665 0.5210 0.5204 0.5194 0.5190 0.5190
3873.129661 0.5190 0.5190 0.5190 0.5190 0.5190
3879.776657 0.5190 0.5196 0.5206 0.5210 0.5210
3886.423653 0.5210 0.5210 0.5210 0.5210 0.5204
3893.070648 0.5194 0.5190 0.5190 0.5187 0.5182
3899.717644 0.5180 0.5180 0.5180 0.5180 0.5177
3906.364640 0.5172 0.5170 0.5170 0.5164 0.5154
3913.011636 0.5150 0.5150 0.5150 0.5150 0.5147
3919.658631 0.5142 0.5140 0.5140 0.5140 0.5140
3926.305627 0.5140 0.5140 0.5137 0.5132 0.5130
3932.952623 0.5130 0.5130 0.5130 0.5130 0.5130
3939.599619 0.5130 0.5130 0.5130 0.5130 0.5130
3946.246614 0.5130 0.5130 0.5130 0.5130 0.5130
3952.893610 0.5130 0.5130 0.5130 0.5130 0.5130
3959.540606 0.5130 0.5124 0.5114 0.5110 0.5110
3966.187602 0.5110 0.5110 0.5110 0.5110 0.5110
3972.834598 0.5110 0.5110 0.5110 0.5110 0.5110
3979.481593 0.5110 0.5110 0.5107 0.5102 0.5100
3986.128589 0.5100 0.5100 0.5100
##END=
