##TITLE=2-PYRIDINAMINE, N-2-PYRIDINYL-, HYDROCHLORIDE
##JCAMP-DX=4.24
##DATA TYPE=INFRARED SPECTRUM
##CLASS=COBLENTZ III
##ORIGIN=BRITISH PETROLEUM CO. LTD., ENGLAND
##OWNER=Copyright (C) 1987 by the Coblentz Society
Collection (C) 2018 copyright by the U.S. Secretary of Commerce
on behalf of the United States of America. All rights reserved.
##DATE=1972/07/10
##NAMES=N-(2-pyridinyl)-2-pyridinamine hydrochloride
Pyridine, 2,2'-iminodi-, monohydrochloride
##MOLFORM=C10 H10 Cl N3
##SOURCE REFERENCE=COBLENTZ NO. 9352
##$NIST ID=B6009352
##$NIST SOURCE=COBLENTZ
##$NIST IMAGE=cob9352
##SPECTROMETER/DATA SYSTEM=PERKIN-ELMER 157
##STATE=SOLID (KBr DISC, 0.9% WT.)
$$ HCl RUN IN KBr MAY CONTAIN SOME HBr
$$ REF. Can. J. Spec., 18,4,101, '73 C. S. DOUSE and P. B. TOOKE
##SAMPLING PROCEDURE=TRANSMISSION
##RESOLUTION=2
##DATA PROCESSING=DIGITIZED BY COBLENTZ SOCIETY (BATCH II) FROM HARD COPY
##XUNITS=1/CM
##YUNITS=TRANSMITTANCE
##XFACTOR=1.0
##YFACTOR=1
##FIRSTX=667
##LASTX=4000
##FIRSTY=0.508
##MAXX=4000
##MINX=667
##MAXY=0.7205
##MINY=0.006
##NPOINTS=3334
##XYDATA=(X++(Y..Y))
667.000000 0.5080 0.5065 0.5048 0.5035 0.5019
672.000000 0.5022 0.5072 0.5222 0.5473 0.5682
677.000000 0.5751 0.5780 0.5796 0.5815 0.5798
682.000000 0.5788 0.5778 0.5765 0.5753 0.5729
687.000000 0.5676 0.5615 0.5550 0.5510 0.5499
692.000000 0.5493 0.5459 0.5392 0.5324 0.5258
697.000000 0.5199 0.5154 0.5109 0.5060 0.5009
702.000000 0.4949 0.4935 0.4915 0.4895 0.4866
707.000000 0.4837 0.4801 0.4763 0.4721 0.4675
712.000000 0.4631 0.4574 0.4508 0.4429 0.4346
717.000000 0.4256 0.4153 0.4071 0.4002 0.3962
722.000000 0.3979 0.3987 0.3999 0.4011 0.4018
727.000000 0.4003 0.3979 0.3915 0.3833 0.3731
732.000000 0.3612 0.3463 0.3338 0.3314 0.3321
737.000000 0.3355 0.3609 0.3644 0.3651 0.3652
742.000000 0.3651 0.3644 0.3646 0.3623 0.3591
747.000000 0.3499 0.3401 0.3320 0.3248 0.3152
752.000000 0.3053 0.2955 0.2852 0.2749 0.2637
757.000000 0.2520 0.2357 0.2171 0.2000 0.1834
762.000000 0.1659 0.1468 0.1273 0.1082 0.0875
767.000000 0.0641 0.0478 0.0384 0.0282 0.0199
772.000000 0.0189 0.0191 0.0217 0.0248 0.0269
777.000000 0.0270 0.0273 0.0369 0.0628 0.0823
782.000000 0.1020 0.1215 0.1409 0.1603 0.1797
787.000000 0.1990 0.2182 0.2400 0.2611 0.2748
792.000000 0.2863 0.2982 0.3102 0.3180 0.3212
797.000000 0.3216 0.3219 0.3212 0.3191 0.3167
802.000000 0.3125 0.3075 0.3033 0.3002 0.2958
807.000000 0.2902 0.2831 0.2752 0.2661 0.2601
812.000000 0.2549 0.2447 0.2347 0.2267 0.2188
817.000000 0.2114 0.2042 0.1970 0.1875 0.1768
822.000000 0.1671 0.1590 0.1510 0.1430 0.1350
827.000000 0.1287 0.1248 0.1209 0.1170 0.1147
832.000000 0.1125 0.1103 0.1090 0.1078 0.1066
837.000000 0.1058 0.1053 0.1048 0.1047 0.1060
842.000000 0.1083 0.1155 0.1260 0.1417 0.1669
847.000000 0.1921 0.2172 0.2423 0.2674 0.2923
852.000000 0.3172 0.3429 0.3770 0.3935 0.4094
857.000000 0.4268 0.4446 0.4539 0.4592 0.4601
862.000000 0.4621 0.4572 0.4511 0.4411 0.4259
867.000000 0.4076 0.3894 0.3711 0.3529 0.3348
872.000000 0.3193 0.3089 0.2935 0.2643 0.2353
877.000000 0.2062 0.1773 0.1548 0.1472 0.1471
882.000000 0.1480 0.1611 0.1778 0.1944 0.2111
887.000000 0.2276 0.2441 0.2606 0.2771 0.2902
892.000000 0.2937 0.2941 0.2927 0.2837 0.2598
897.000000 0.2359 0.2121 0.1883 0.1774 0.2688
902.000000 0.3517 0.3680 0.3844 0.3974 0.4035
907.000000 0.4057 0.4065 0.4073 0.4075 0.4090
912.000000 0.4046 0.4008 0.3960 0.3909 0.3850
917.000000 0.3791 0.3735 0.3659 0.3544 0.3417
922.000000 0.3314 0.3209 0.3103 0.3007 0.2913
927.000000 0.2830 0.2747 0.2667 0.2620 0.2598
932.000000 0.2579 0.2653 0.2740 0.2843 0.2945
937.000000 0.3047 0.3149 0.3250 0.3352 0.3453
942.000000 0.3554 0.3654 0.3760 0.3902 0.4012
947.000000 0.4137 0.4235 0.4264 0.4284 0.4298
952.000000 0.4312 0.4324 0.4333 0.4340 0.4346
957.000000 0.4311 0.4293 0.4273 0.4259 0.4246
962.000000 0.4202 0.4099 0.3957 0.3841 0.3795
967.000000 0.3764 0.3734 0.3701 0.3653 0.3583
972.000000 0.3500 0.3405 0.3286 0.3100 0.2998
977.000000 0.2940 0.2895 0.2858 0.2822 0.2792
982.000000 0.2766 0.2744 0.2717 0.2651 0.2590
987.000000 0.2557 0.2547 0.2547 0.2561 0.2580
992.000000 0.2708 0.2945 0.3182 0.3369 0.3399
997.000000 0.3422 0.3305 0.3143 0.2982 0.2820
1002.000000 0.2755 0.2735 0.2832 0.3076 0.3343
1007.000000 0.3610 0.3877 0.4143 0.4333 0.4428
1012.000000 0.4477 0.4521 0.4554 0.4559 0.4562
1017.000000 0.4577 0.4542 0.4523 0.4498 0.4467
1022.000000 0.4426 0.4309 0.4158 0.4081 0.4078
1027.000000 0.4073 0.4092 0.4186 0.4260 0.4334
1032.000000 0.4400 0.4433 0.4436 0.4437 0.4437
1037.000000 0.4437 0.4453 0.4481 0.4515 0.4563
1042.000000 0.4622 0.4666 0.4684 0.4694 0.4696
1047.000000 0.4695 0.4707 0.4738 0.4771 0.4776
1052.000000 0.4780 0.4779 0.4784 0.4772 0.4754
1057.000000 0.4729 0.4704 0.4698 0.4692 0.4690
1062.000000 0.4689 0.4685 0.4681 0.4676 0.4667
1067.000000 0.4659 0.4649 0.4639 0.4624 0.4608
1072.000000 0.4592 0.4574 0.4548 0.4523 0.4494
1077.000000 0.4459 0.4424 0.4390 0.4343 0.4293
1082.000000 0.4244 0.4189 0.4134 0.4079 0.4032
1087.000000 0.3993 0.3977 0.3947 0.3976 0.3991
1092.000000 0.4017 0.4056 0.4131 0.4199 0.4258
1097.000000 0.4300 0.4323 0.4332 0.4339 0.4349
1102.000000 0.4338 0.4334 0.4325 0.4311 0.4294
1107.000000 0.4277 0.4258 0.4239 0.4218 0.4188
1112.000000 0.4158 0.4118 0.4069 0.4022 0.3946
1117.000000 0.3864 0.3813 0.3793 0.3790 0.3787
1122.000000 0.3787 0.3787 0.3785 0.3762 0.3701
1127.000000 0.3679 0.3667 0.3662 0.3610 0.3526
1132.000000 0.3442 0.3345 0.3265 0.3170 0.2951
1137.000000 0.2722 0.2493 0.2259 0.1968 0.1852
1142.000000 0.1726 0.1574 0.1467 0.1371 0.1280
1147.000000 0.1173 0.1145 0.1154 0.1151 0.1176
1152.000000 0.1217 0.1248 0.1253 0.1259 0.1289
1157.000000 0.1331 0.1531 0.1840 0.2149 0.2457
1162.000000 0.2765 0.2965 0.3037 0.3138 0.3502
1167.000000 0.3596 0.3684 0.3837 0.4027 0.4174
1172.000000 0.4263 0.4343 0.4412 0.4451 0.4484
1177.000000 0.4500 0.4513 0.4518 0.4519 0.4520
1182.000000 0.4512 0.4512 0.4499 0.4485 0.4452
1187.000000 0.4438 0.4432 0.4430 0.4428 0.4426
1192.000000 0.4408 0.4381 0.4357 0.4336 0.4311
1197.000000 0.4284 0.4256 0.4227 0.4197 0.4156
1202.000000 0.4076 0.3966 0.3896 0.3816 0.3727
1207.000000 0.3607 0.3496 0.3436 0.3425 0.3415
1212.000000 0.3405 0.3398 0.3392 0.3388 0.3378
1217.000000 0.3343 0.3297 0.3253 0.3209 0.3168
1222.000000 0.3125 0.3070 0.3011 0.2958 0.2906
1227.000000 0.2846 0.2534 0.2342 0.2194 0.2071
1232.000000 0.1894 0.1697 0.1501 0.1305 0.1110
1237.000000 0.0915 0.0705 0.0654 0.0610 0.0563
1242.000000 0.0514 0.0484 0.0489 0.0474 0.0478
1247.000000 0.0487 0.0510 0.0556 0.0960 0.1525
1252.000000 0.1879 0.1933 0.1954 0.1959 0.1960
1257.000000 0.1972 0.1930 0.1874 0.1814 0.1756
1262.000000 0.1726 0.1720 0.1801 0.2217 0.2632
1267.000000 0.3047 0.3461 0.3874 0.3948 0.4029
1272.000000 0.4312 0.4418 0.4425 0.4434 0.4426
1277.000000 0.4417 0.4373 0.4320 0.4284 0.4252
1282.000000 0.4209 0.4161 0.4101 0.4037 0.3970
1287.000000 0.3900 0.3814 0.3724 0.3589 0.3402
1292.000000 0.3217 0.3031 0.2846 0.2661 0.2520
1297.000000 0.2514 0.2512 0.2576 0.2710 0.2844
1302.000000 0.2978 0.3121 0.3251 0.3439 0.3506
1307.000000 0.3573 0.3642 0.3713 0.3752 0.3781
1312.000000 0.3808 0.3827 0.3844 0.3862 0.3879
1317.000000 0.3898 0.3922 0.3947 0.3994 0.4071
1322.000000 0.4159 0.4217 0.4271 0.4337 0.4381
1327.000000 0.4397 0.4399 0.4402 0.4397 0.4386
1332.000000 0.4348 0.4297 0.4246 0.4195 0.4144
1337.000000 0.4093 0.4043 0.3992 0.3941 0.3912
1342.000000 0.3895 0.3887 0.3881 0.3875 0.3871
1347.000000 0.3865 0.3860 0.3855 0.3851 0.3846
1352.000000 0.3842 0.3835 0.3827 0.3819 0.3799
1357.000000 0.3779 0.3755 0.3730 0.3704 0.3677
1362.000000 0.3652 0.3625 0.3597 0.3565 0.3533
1367.000000 0.3471 0.3384 0.3302 0.3225 0.3161
1372.000000 0.3114 0.3073 0.3024 0.2962 0.2902
1377.000000 0.2823 0.2723 0.2664 0.2642 0.2626
1382.000000 0.2616 0.2607 0.2600 0.2595 0.2589
1387.000000 0.2583 0.2578 0.2572 0.2566 0.2561
1392.000000 0.2553 0.2544 0.2526 0.2502 0.2477
1397.000000 0.2453 0.2427 0.2400 0.2374 0.2347
1402.000000 0.2320 0.2293 0.2265 0.2230 0.2190
1407.000000 0.2150 0.2104 0.2032 0.1894 0.1742
1412.000000 0.1591 0.1471 0.1405 0.1348 0.1286
1417.000000 0.1239 0.1206 0.1183 0.1180 0.1188
1422.000000 0.1217 0.1271 0.1327 0.1367 0.1376
1427.000000 0.1366 0.1265 0.1163 0.1061 0.0959
1432.000000 0.0858 0.0757 0.0663 0.0592 0.0531
1437.000000 0.0448 0.0355 0.0283 0.0222 0.0164
1442.000000 0.0128 0.0109 0.0102 0.0102 0.0103
1447.000000 0.0104 0.0113 0.0163 0.0281 0.0414
1452.000000 0.0548 0.0682 0.0771 0.0806 0.0834
1457.000000 0.0925 0.1139 0.1353 0.1567 0.1780
1462.000000 0.1912 0.1914 0.1914 0.1925 0.1870
1467.000000 0.1814 0.1758 0.1703 0.1648 0.1593
1472.000000 0.1537 0.1483 0.1428 0.1372 0.1327
1477.000000 0.1323 0.1329 0.1352 0.1384 0.1415
1482.000000 0.1446 0.1464 0.1461 0.1434 0.1361
1487.000000 0.1274 0.1187 0.1100 0.1013 0.0927
1492.000000 0.0841 0.0749 0.0653 0.0595 0.0568
1497.000000 0.0546 0.0537 0.0545 0.0562 0.0625
1502.000000 0.0667 0.0710 0.0753 0.0778 0.0790
1507.000000 0.0807 0.0911 0.1025 0.1139 0.1252
1512.000000 0.1366 0.1469 0.1518 0.1530 0.1533
1517.000000 0.1530 0.1537 0.1519 0.1492 0.1435
1522.000000 0.1370 0.1305 0.1241 0.1176 0.1112
1527.000000 0.1047 0.0983 0.0919 0.0855 0.0791
1532.000000 0.0726 0.0662 0.0604 0.0567 0.0532
1537.000000 0.0496 0.0460 0.0432 0.0409 0.0387
1542.000000 0.0366 0.0350 0.0337 0.0323 0.0310
1547.000000 0.0306 0.0302 0.0299 0.0296 0.0295
1552.000000 0.0287 0.0293 0.0293 0.0292 0.0292
1557.000000 0.0293 0.0293 0.0294 0.0294 0.0295
1562.000000 0.0296 0.0303 0.0320 0.0355 0.0398
1567.000000 0.0434 0.0450 0.0460 0.0449 0.0447
1572.000000 0.0438 0.0418 0.0392 0.0366 0.0341
1577.000000 0.0316 0.0290 0.0263 0.0236 0.0211
1582.000000 0.0191 0.0174 0.0162 0.0152 0.0145
1587.000000 0.0140 0.0134 0.0129 0.0125 0.0124
1592.000000 0.0124 0.0128 0.0136 0.0140 0.0148
1597.000000 0.0158 0.0168 0.0179 0.0190 0.0202
1602.000000 0.0217 0.0234 0.0252 0.0269 0.0285
1607.000000 0.0301 0.0320 0.0343 0.0403 0.0573
1612.000000 0.0618 0.0657 0.0673 0.0685 0.0685
1617.000000 0.0691 0.0678 0.0674 0.0670 0.0667
1622.000000 0.0661 0.0653 0.0646 0.0640 0.0635
1627.000000 0.0629 0.0623 0.0616 0.0610 0.0603
1632.000000 0.0594 0.0570 0.0537 0.0507 0.0482
1637.000000 0.0468 0.0460 0.0451 0.0444 0.0438
1642.000000 0.0433 0.0427 0.0416 0.0396 0.0373
1647.000000 0.0347 0.0320 0.0292 0.0268 0.0252
1652.000000 0.0238 0.0229 0.0223 0.0218 0.0215
1657.000000 0.0229 0.0217 0.0223 0.0229 0.0235
1662.000000 0.0242 0.0250 0.0258 0.0267 0.0277
1667.000000 0.0287 0.0299 0.0310 0.0321 0.0338
1672.000000 0.0356 0.0379 0.0403 0.0473 0.0618
1677.000000 0.0809 0.1000 0.1190 0.1380 0.1620
1682.000000 0.1729 0.1789 0.1844 0.1996 0.2277
1687.000000 0.2407 0.2498 0.2635 0.2806 0.2985
1692.000000 0.3164 0.3342 0.3520 0.3699 0.3876
1697.000000 0.4053 0.4231 0.4587 0.4936 0.5124
1702.000000 0.5218 0.5279 0.5331 0.5379 0.5423
1707.000000 0.5463 0.5499 0.5525 0.5548 0.5571
1712.000000 0.5596 0.5627 0.5661 0.5718 0.5837
1717.000000 0.6031 0.6083 0.6129 0.6175 0.6219
1722.000000 0.6268 0.6329 0.6402 0.6463 0.6514
1727.000000 0.6563 0.6610 0.6654 0.6697 0.6730
1732.000000 0.6762 0.6792 0.6821 0.6848 0.6875
1737.000000 0.6900 0.6924 0.6946 0.6967 0.6990
1742.000000 0.7010 0.7029 0.7048 0.7067 0.7086
1747.000000 0.7105 0.7124 0.7143 0.7160 0.7173
1752.000000 0.7182 0.7186 0.7189 0.7192 0.7196
1757.000000 0.7205 0.7202 0.7202 0.7200 0.7197
1762.000000 0.7194 0.7192 0.7188 0.7185 0.7182
1767.000000 0.7179 0.7177 0.7174 0.7172 0.7171
1772.000000 0.7169 0.7168 0.7166 0.7165 0.7164
1777.000000 0.7162 0.7162 0.7162 0.7161 0.7161
1782.000000 0.7160 0.7160 0.7158 0.7152 0.7142
1787.000000 0.7132 0.7122 0.7113 0.7104 0.7097
1792.000000 0.7090 0.7083 0.7076 0.7068 0.7061
1797.000000 0.7054 0.7046 0.7039 0.7032 0.7025
1802.000000 0.7017 0.7009 0.7001 0.6993 0.6979
1807.000000 0.6963 0.6945 0.6927 0.6904 0.6880
1812.000000 0.6851 0.6814 0.6778 0.6748 0.6722
1817.000000 0.6699 0.6677 0.6655 0.6633 0.6611
1822.000000 0.6592 0.6578 0.6570 0.6566 0.6563
1827.000000 0.6560 0.6557 0.6555 0.6553 0.6551
1832.000000 0.6549 0.6547 0.6545 0.6541 0.6538
1837.000000 0.6534 0.6530 0.6527 0.6521 0.6514
1842.000000 0.6505 0.6495 0.6483 0.6469 0.6451
1847.000000 0.6429 0.6404 0.6380 0.6355 0.6331
1852.000000 0.6306 0.6282 0.6257 0.6233 0.6209
1857.000000 0.6184 0.6160 0.6136 0.6111 0.6087
1862.000000 0.6063 0.6040 0.6022 0.6016 0.6015
1867.000000 0.6014 0.6012 0.6012 0.6011 0.6011
1872.000000 0.6011 0.6011 0.6011 0.6010 0.6009
1877.000000 0.6008 0.6008 0.6007 0.6006 0.6003
1882.000000 0.5999 0.5995 0.5990 0.5983 0.5975
1887.000000 0.5965 0.5956 0.5945 0.5935 0.5926
1892.000000 0.5917 0.5908 0.5899 0.5890 0.5881
1897.000000 0.5873 0.5865 0.5857 0.5849 0.5842
1902.000000 0.5834 0.5827 0.5820 0.5814 0.5808
1907.000000 0.5802 0.5796 0.5791 0.5786 0.5783
1912.000000 0.5779 0.5775 0.5770 0.5766 0.5763
1917.000000 0.5759 0.5756 0.5753 0.5750 0.5747
1922.000000 0.5744 0.5742 0.5739 0.5736 0.5734
1927.000000 0.5731 0.5728 0.5726 0.5723 0.5720
1932.000000 0.5716 0.5704 0.5690 0.5674 0.5659
1937.000000 0.5643 0.5627 0.5613 0.5601 0.5590
1942.000000 0.5580 0.5569 0.5559 0.5548 0.5538
1947.000000 0.5529 0.5522 0.5516 0.5509 0.5502
1952.000000 0.5496 0.5493 0.5491 0.5489 0.5486
1957.000000 0.5482 0.5476 0.5466 0.5452 0.5432
1962.000000 0.5399 0.5360 0.5321 0.5295 0.5270
1967.000000 0.5244 0.5220 0.5195 0.5171 0.5146
1972.000000 0.5120 0.5092 0.5062 0.5034 0.5009
1977.000000 0.4992 0.4979 0.4966 0.4953 0.4940
1982.000000 0.4930 0.4920 0.4910 0.4900 0.4891
1987.000000 0.4881 0.4875 0.4872 0.4872 0.4873
1992.000000 0.4873 0.4873 0.4873 0.4875 0.4877
1997.000000 0.4879 0.4881 0.4883 0.4886 0.4889
2002.000000 0.4892 0.4896 0.4900 0.4904 0.4908
2007.000000 0.4911 0.4914 0.4917 0.4916 0.4908
2012.000000 0.4862 0.4807 0.4782 0.4759 0.4741
2017.000000 0.4715 0.4688 0.4661 0.4633 0.4605
2022.000000 0.4573 0.4540 0.4505 0.4475 0.4447
2027.000000 0.4428 0.4410 0.4392 0.4373 0.4355
2032.000000 0.4337 0.4319 0.4300 0.4281 0.4261
2037.000000 0.4242 0.4223 0.4203 0.4185 0.4166
2042.000000 0.4147 0.4127 0.4106 0.4101 0.4100
2047.000000 0.4099 0.4098 0.4097 0.4096 0.4096
2052.000000 0.4096 0.4097 0.4099 0.4088 0.4106
2057.000000 0.4117 0.4126 0.4132 0.4140 0.4150
2062.000000 0.4164 0.4177 0.4190 0.4203 0.4216
2067.000000 0.4226 0.4236 0.4245 0.4254 0.4262
2072.000000 0.4270 0.4277 0.4284 0.4292 0.4299
2077.000000 0.4307 0.4314 0.4322 0.4330 0.4337
2082.000000 0.4345 0.4352 0.4357 0.4361 0.4363
2087.000000 0.4365 0.4367 0.4369 0.4369 0.4382
2092.000000 0.4368 0.4365 0.4362 0.4358 0.4355
2097.000000 0.4352 0.4349 0.4346 0.4341 0.4337
2102.000000 0.4332 0.4327 0.4322 0.4317 0.4311
2107.000000 0.4306 0.4301 0.4296 0.4291 0.4286
2112.000000 0.4281 0.4276 0.4271 0.4267 0.4262
2117.000000 0.4257 0.4252 0.4248 0.4243 0.4239
2122.000000 0.4235 0.4231 0.4227 0.4223 0.4219
2127.000000 0.4215 0.4211 0.4207 0.4204 0.4202
2132.000000 0.4201 0.4200 0.4199 0.4198 0.4197
2137.000000 0.4185 0.4196 0.4195 0.4195 0.4195
2142.000000 0.4196 0.4197 0.4197 0.4198 0.4199
2147.000000 0.4200 0.4201 0.4201 0.4202 0.4203
2152.000000 0.4205 0.4207 0.4209 0.4211 0.4213
2157.000000 0.4215 0.4218 0.4221 0.4224 0.4227
2162.000000 0.4231 0.4235 0.4239 0.4244 0.4249
2167.000000 0.4253 0.4257 0.4260 0.4261 0.4263
2172.000000 0.4264 0.4266 0.4268 0.4269 0.4271
2177.000000 0.4272 0.4274 0.4274 0.4275 0.4275
2182.000000 0.4276 0.4276 0.4277 0.4277 0.4278
2187.000000 0.4278 0.4279 0.4279 0.4279 0.4280
2192.000000 0.4281 0.4281 0.4281 0.4280 0.4279
2197.000000 0.4278 0.4278 0.4277 0.4277 0.4276
2202.000000 0.4276 0.4275 0.4273 0.4272 0.4270
2207.000000 0.4269 0.4267 0.4266 0.4264 0.4263
2212.000000 0.4261 0.4260 0.4258 0.4256 0.4254
2217.000000 0.4251 0.4248 0.4245 0.4242 0.4239
2222.000000 0.4236 0.4235 0.4234 0.4233 0.4232
2227.000000 0.4231 0.4231 0.4230 0.4230 0.4229
2232.000000 0.4229 0.4229 0.4230 0.4231 0.4232
2237.000000 0.4233 0.4234 0.4235 0.4236 0.4237
2242.000000 0.4237 0.4230 0.4223 0.4215 0.4208
2247.000000 0.4200 0.4192 0.4185 0.4177 0.4170
2252.000000 0.4162 0.4155 0.4147 0.4141 0.4135
2257.000000 0.4133 0.4132 0.4131 0.4130 0.4129
2262.000000 0.4127 0.4126 0.4124 0.4123 0.4121
2267.000000 0.4120 0.4118 0.4116 0.4113 0.4110
2272.000000 0.4106 0.4102 0.4099 0.4095 0.4091
2277.000000 0.4087 0.4079 0.4072 0.4064 0.4056
2282.000000 0.4041 0.4027 0.4013 0.3999 0.3987
2287.000000 0.3975 0.3963 0.3952 0.3941 0.3930
2292.000000 0.3921 0.3913 0.3905 0.3896 0.3888
2297.000000 0.3879 0.3871 0.3863 0.3855 0.3846
2302.000000 0.3838 0.3829 0.3821 0.3811 0.3800
2307.000000 0.3790 0.3780 0.3770 0.3760 0.3750
2312.000000 0.3739 0.3730 0.3724 0.3718 0.3713
2317.000000 0.3708 0.3703 0.3698 0.3694 0.3690
2322.000000 0.3688 0.3686 0.3684 0.3682 0.3680
2327.000000 0.3678 0.3676 0.3674 0.3671 0.3669
2332.000000 0.3667 0.3664 0.3662 0.3660 0.3658
2337.000000 0.3655 0.3653 0.3650 0.3646 0.3642
2342.000000 0.3636 0.3631 0.3625 0.3620 0.3612
2347.000000 0.3603 0.3594 0.3584 0.3573 0.3563
2352.000000 0.3552 0.3541 0.3530 0.3522 0.3515
2357.000000 0.3507 0.3500 0.3494 0.3488 0.3483
2362.000000 0.3479 0.3474 0.3470 0.3466 0.3462
2367.000000 0.3458 0.3454 0.3449 0.3444 0.3440
2372.000000 0.3435 0.3427 0.3420 0.3410 0.3401
2377.000000 0.3391 0.3380 0.3370 0.3360 0.3350
2382.000000 0.3344 0.3337 0.3331 0.3325 0.3318
2387.000000 0.3312 0.3305 0.3298 0.3292 0.3286
2392.000000 0.3280 0.3273 0.3267 0.3261 0.3256
2397.000000 0.3250 0.3247 0.3244 0.3242 0.3240
2402.000000 0.3237 0.3235 0.3233 0.3231 0.3229
2407.000000 0.3221 0.3211 0.3199 0.3186 0.3172
2412.000000 0.3159 0.3145 0.3135 0.3126 0.3116
2417.000000 0.3107 0.3098 0.3089 0.3080 0.3070
2422.000000 0.3061 0.3053 0.3045 0.3037 0.3030
2427.000000 0.3022 0.3014 0.3007 0.2999 0.2990
2432.000000 0.2981 0.2968 0.2955 0.2945 0.2935
2437.000000 0.2928 0.2922 0.2917 0.2911 0.2906
2442.000000 0.2900 0.2895 0.2889 0.2882 0.2875
2447.000000 0.2865 0.2855 0.2845 0.2835 0.2825
2452.000000 0.2816 0.2806 0.2796 0.2786 0.2776
2457.000000 0.2767 0.2757 0.2747 0.2737 0.2729
2462.000000 0.2721 0.2713 0.2705 0.2697 0.2690
2467.000000 0.2682 0.2675 0.2667 0.2659 0.2649
2472.000000 0.2638 0.2627 0.2616 0.2605 0.2598
2477.000000 0.2592 0.2587 0.2583 0.2578 0.2575
2482.000000 0.2572 0.2569 0.2566 0.2563 0.2560
2487.000000 0.2557 0.2554 0.2551 0.2548 0.2541
2492.000000 0.2535 0.2526 0.2515 0.2505 0.2495
2497.000000 0.2485 0.2475 0.2465 0.2456 0.2446
2502.000000 0.2436 0.2426 0.2414 0.2403 0.2389
2507.000000 0.2375 0.2362 0.2349 0.2337 0.2326
2512.000000 0.2315 0.2304 0.2293 0.2282 0.2274
2517.000000 0.2266 0.2260 0.2254 0.2249 0.2244
2522.000000 0.2239 0.2235 0.2233 0.2231 0.2229
2527.000000 0.2228 0.2226 0.2225 0.2223 0.2222
2532.000000 0.2220 0.2218 0.2216 0.2214 0.2213
2537.000000 0.2211 0.2209 0.2205 0.2201 0.2197
2542.000000 0.2192 0.2187 0.2182 0.2177 0.2170
2547.000000 0.2158 0.2145 0.2133 0.2123 0.2113
2552.000000 0.2103 0.2094 0.2084 0.2074 0.2065
2557.000000 0.2055 0.2045 0.2035 0.2026 0.2016
2562.000000 0.2007 0.1998 0.1988 0.1979 0.1970
2567.000000 0.1961 0.1951 0.1941 0.1931 0.1921
2572.000000 0.1911 0.1901 0.1891 0.1881 0.1871
2577.000000 0.1861 0.1851 0.1841 0.1831 0.1821
2582.000000 0.1811 0.1801 0.1791 0.1782 0.1771
2587.000000 0.1759 0.1747 0.1734 0.1720 0.1706
2592.000000 0.1692 0.1678 0.1665 0.1652 0.1638
2597.000000 0.1625 0.1612 0.1599 0.1587 0.1575
2602.000000 0.1563 0.1551 0.1539 0.1527 0.1515
2607.000000 0.1503 0.1492 0.1480 0.1470 0.1462
2612.000000 0.1453 0.1445 0.1437 0.1429 0.1421
2617.000000 0.1412 0.1404 0.1397 0.1390 0.1383
2622.000000 0.1376 0.1370 0.1363 0.1356 0.1349
2627.000000 0.1342 0.1336 0.1329 0.1322 0.1315
2632.000000 0.1309 0.1303 0.1297 0.1291 0.1286
2637.000000 0.1281 0.1276 0.1271 0.1266 0.1261
2642.000000 0.1255 0.1250 0.1245 0.1240 0.1235
2647.000000 0.1231 0.1226 0.1222 0.1217 0.1213
2652.000000 0.1208 0.1204 0.1199 0.1195 0.1190
2657.000000 0.1185 0.1179 0.1174 0.1168 0.1162
2662.000000 0.1157 0.1151 0.1146 0.1140 0.1134
2667.000000 0.1129 0.1123 0.1117 0.1112 0.1106
2672.000000 0.1100 0.1094 0.1088 0.1082 0.1076
2677.000000 0.1070 0.1065 0.1059 0.1053 0.1047
2682.000000 0.1041 0.1035 0.1029 0.1023 0.1016
2687.000000 0.1007 0.0999 0.0991 0.0982 0.0974
2692.000000 0.0965 0.0957 0.0948 0.0940 0.0932
2697.000000 0.0923 0.0916 0.0908 0.0900 0.0892
2702.000000 0.0884 0.0876 0.0869 0.0861 0.0854
2707.000000 0.0846 0.0838 0.0830 0.0823 0.0815
2712.000000 0.0808 0.0800 0.0793 0.0786 0.0779
2717.000000 0.0772 0.0766 0.0759 0.0753 0.0746
2722.000000 0.0740 0.0733 0.0727 0.0721 0.0714
2727.000000 0.0708 0.0702 0.0695 0.0689 0.0682
2732.000000 0.0676 0.0670 0.0663 0.0657 0.0650
2737.000000 0.0644 0.0637 0.0631 0.0624 0.0618
2742.000000 0.0611 0.0605 0.0598 0.0592 0.0585
2747.000000 0.0579 0.0573 0.0567 0.0560 0.0555
2752.000000 0.0551 0.0546 0.0542 0.0537 0.0533
2757.000000 0.0528 0.0524 0.0519 0.0515 0.0511
2762.000000 0.0507 0.0504 0.0501 0.0498 0.0495
2767.000000 0.0492 0.0489 0.0486 0.0483 0.0480
2772.000000 0.0477 0.0475 0.0473 0.0471 0.0470
2777.000000 0.0469 0.0467 0.0467 0.0467 0.0466
2782.000000 0.0466 0.0466 0.0466 0.0466 0.0466
2787.000000 0.0466 0.0465 0.0465 0.0465 0.0464
2792.000000 0.0464 0.0464 0.0464 0.0464 0.0464
2797.000000 0.0463 0.0463 0.0463 0.0463 0.0463
2802.000000 0.0463 0.0462 0.0462 0.0462 0.0462
2807.000000 0.0462 0.0462 0.0463 0.0463 0.0463
2812.000000 0.0463 0.0463 0.0463 0.0463 0.0461
2817.000000 0.0463 0.0463 0.0463 0.0463 0.0463
2822.000000 0.0463 0.0463 0.0464 0.0465 0.0465
2827.000000 0.0465 0.0465 0.0466 0.0467 0.0467
2832.000000 0.0468 0.0468 0.0468 0.0469 0.0469
2837.000000 0.0470 0.0471 0.0471 0.0472 0.0473
2842.000000 0.0473 0.0473 0.0473 0.0474 0.0475
2847.000000 0.0475 0.0476 0.0477 0.0478 0.0479
2852.000000 0.0480 0.0481 0.0483 0.0484 0.0485
2857.000000 0.0486 0.0488 0.0489 0.0491 0.0492
2862.000000 0.0493 0.0495 0.0496 0.0497 0.0499
2867.000000 0.0501 0.0502 0.0504 0.0506 0.0508
2872.000000 0.0510 0.0512 0.0514 0.0516 0.0518
2877.000000 0.0520 0.0523 0.0527 0.0530 0.0532
2882.000000 0.0534 0.0536 0.0537 0.0538 0.0539
2887.000000 0.0540 0.0541 0.0542 0.0543 0.0544
2892.000000 0.0544 0.0544 0.0545 0.0545 0.0545
2897.000000 0.0545 0.0545 0.0545 0.0545 0.0544
2902.000000 0.0544 0.0544 0.0544 0.0544 0.0544
2907.000000 0.0543 0.0543 0.0543 0.0543 0.0542
2912.000000 0.0542 0.0541 0.0540 0.0540 0.0539
2917.000000 0.0539 0.0538 0.0538 0.0538 0.0537
2922.000000 0.0537 0.0536 0.0536 0.0536 0.0537
2927.000000 0.0537 0.0540 0.0544 0.0547 0.0551
2932.000000 0.0556 0.0561 0.0566 0.0571 0.0576
2937.000000 0.0580 0.0585 0.0589 0.0594 0.0599
2942.000000 0.0604 0.0608 0.0613 0.0618 0.0624
2947.000000 0.0629 0.0634 0.0639 0.0644 0.0649
2952.000000 0.0656 0.0664 0.0673 0.0681 0.0687
2957.000000 0.0694 0.0700 0.0705 0.0707 0.0710
2962.000000 0.0712 0.0713 0.0714 0.0715 0.0716
2967.000000 0.0716 0.0716 0.0716 0.0717 0.0717
2972.000000 0.0717 0.0717 0.0717 0.0717 0.0717
2977.000000 0.0717 0.0717 0.0717 0.0717 0.0717
2982.000000 0.0717 0.0717 0.0717 0.0717 0.0717
2987.000000 0.0718 0.0718 0.0718 0.0718 0.0718
2992.000000 0.0718 0.0718 0.0718 0.0718 0.0718
2997.000000 0.0718 0.0718 0.0718 0.0718 0.0718
3002.000000 0.0718 0.0718 0.0718 0.0718 0.0718
3007.000000 0.0719 0.0719 0.0720 0.0720 0.0721
3012.000000 0.0721 0.0722 0.0723 0.0724 0.0725
3017.000000 0.0726 0.0726 0.0727 0.0728 0.0729
3022.000000 0.0730 0.0732 0.0732 0.0733 0.0734
3027.000000 0.0735 0.0736 0.0738 0.0739 0.0742
3032.000000 0.0745 0.0748 0.0751 0.0754 0.0757
3037.000000 0.0760 0.0763 0.0766 0.0770 0.0773
3042.000000 0.0777 0.0782 0.0786 0.0790 0.0795
3047.000000 0.0799 0.0803 0.0808 0.0814 0.0820
3052.000000 0.0826 0.0832 0.0838 0.0844 0.0850
3057.000000 0.0855 0.0860 0.0866 0.0871 0.0875
3062.000000 0.0880 0.0885 0.0889 0.0892 0.0895
3067.000000 0.0897 0.0899 0.0901 0.0902 0.0903
3072.000000 0.0904 0.0906 0.0907 0.0908 0.0909
3077.000000 0.0910 0.0911 0.0912 0.0912 0.0912
3082.000000 0.0912 0.0911 0.0911 0.0911 0.0911
3087.000000 0.0911 0.0910 0.0910 0.0910 0.0909
3092.000000 0.0909 0.0909 0.0909 0.0908 0.0906
3097.000000 0.0905 0.0904 0.0902 0.0900 0.0898
3102.000000 0.0895 0.0891 0.0887 0.0882 0.0877
3107.000000 0.0873 0.0868 0.0863 0.0858 0.0853
3112.000000 0.0848 0.0843 0.0838 0.0833 0.0828
3117.000000 0.0824 0.0819 0.0814 0.0809 0.0804
3122.000000 0.0799 0.0794 0.0789 0.0785 0.0780
3127.000000 0.0775 0.0770 0.0765 0.0758 0.0752
3132.000000 0.0745 0.0738 0.0732 0.0725 0.0719
3137.000000 0.0712 0.0705 0.0699 0.0692 0.0686
3142.000000 0.0679 0.0673 0.0667 0.0660 0.0653
3147.000000 0.0647 0.0640 0.0633 0.0626 0.0619
3152.000000 0.0612 0.0606 0.0599 0.0592 0.0585
3157.000000 0.0579 0.0572 0.0566 0.0559 0.0553
3162.000000 0.0547 0.0541 0.0535 0.0530 0.0527
3167.000000 0.0524 0.0521 0.0519 0.0516 0.0514
3172.000000 0.0512 0.0509 0.0507 0.0505 0.0502
3177.000000 0.0500 0.0498 0.0496 0.0494 0.0492
3182.000000 0.0491 0.0490 0.0488 0.0487 0.0486
3187.000000 0.0485 0.0483 0.0482 0.0482 0.0481
3192.000000 0.0480 0.0479 0.0479 0.0478 0.0478
3197.000000 0.0477 0.0477 0.0476 0.0476 0.0476
3202.000000 0.0473 0.0471 0.0469 0.0467 0.0464
3207.000000 0.0462 0.0460 0.0457 0.0455 0.0453
3212.000000 0.0450 0.0448 0.0445 0.0440 0.0436
3217.000000 0.0432 0.0427 0.0422 0.0417 0.0412
3222.000000 0.0407 0.0401 0.0396 0.0391 0.0385
3227.000000 0.0380 0.0375 0.0370 0.0364 0.0359
3232.000000 0.0354 0.0349 0.0343 0.0338 0.0333
3237.000000 0.0328 0.0322 0.0317 0.0311 0.0306
3242.000000 0.0300 0.0295 0.0289 0.0283 0.0278
3247.000000 0.0272 0.0267 0.0261 0.0256 0.0250
3252.000000 0.0246 0.0242 0.0238 0.0233 0.0230
3257.000000 0.0226 0.0223 0.0219 0.0215 0.0212
3262.000000 0.0208 0.0204 0.0200 0.0197 0.0193
3267.000000 0.0190 0.0186 0.0183 0.0179 0.0175
3272.000000 0.0171 0.0168 0.0164 0.0160 0.0157
3277.000000 0.0153 0.0149 0.0145 0.0141 0.0137
3282.000000 0.0133 0.0128 0.0124 0.0120 0.0118
3287.000000 0.0116 0.0114 0.0111 0.0110 0.0109
3292.000000 0.0108 0.0106 0.0105 0.0104 0.0102
3297.000000 0.0101 0.0100 0.0099 0.0097 0.0096
3302.000000 0.0095 0.0094 0.0093 0.0092 0.0091
3307.000000 0.0089 0.0088 0.0088 0.0087 0.0086
3312.000000 0.0085 0.0084 0.0082 0.0081 0.0080
3317.000000 0.0080 0.0079 0.0079 0.0079 0.0078
3322.000000 0.0078 0.0078 0.0078 0.0077 0.0077
3327.000000 0.0077 0.0077 0.0076 0.0076 0.0076
3332.000000 0.0076 0.0076 0.0076 0.0076 0.0076
3337.000000 0.0076 0.0076 0.0076 0.0076 0.0076
3342.000000 0.0076 0.0076 0.0076 0.0076 0.0076
3347.000000 0.0060 0.0077 0.0078 0.0078 0.0078
3352.000000 0.0079 0.0079 0.0079 0.0079 0.0080
3357.000000 0.0080 0.0081 0.0081 0.0081 0.0082
3362.000000 0.0082 0.0082 0.0082 0.0083 0.0083
3367.000000 0.0083 0.0084 0.0084 0.0085 0.0085
3372.000000 0.0085 0.0085 0.0086 0.0086 0.0086
3377.000000 0.0086 0.0086 0.0087 0.0089 0.0091
3382.000000 0.0092 0.0094 0.0095 0.0097 0.0099
3387.000000 0.0101 0.0102 0.0103 0.0105 0.0106
3392.000000 0.0107 0.0109 0.0110 0.0112 0.0113
3397.000000 0.0115 0.0116 0.0118 0.0119 0.0121
3402.000000 0.0124 0.0127 0.0130 0.0133 0.0137
3407.000000 0.0140 0.0144 0.0147 0.0151 0.0155
3412.000000 0.0158 0.0162 0.0165 0.0168 0.0172
3417.000000 0.0175 0.0179 0.0182 0.0186 0.0189
3422.000000 0.0192 0.0196 0.0199 0.0203 0.0206
3427.000000 0.0209 0.0213 0.0216 0.0220 0.0223
3432.000000 0.0226 0.0230 0.0233 0.0236 0.0240
3437.000000 0.0243 0.0246 0.0249 0.0252 0.0256
3442.000000 0.0259 0.0262 0.0265 0.0268 0.0271
3447.000000 0.0274 0.0278 0.0280 0.0283 0.0286
3452.000000 0.0289 0.0291 0.0296 0.0301 0.0305
3457.000000 0.0310 0.0316 0.0332 0.0348 0.0363
3462.000000 0.0379 0.0394 0.0406 0.0419 0.0432
3467.000000 0.0444 0.0456 0.0468 0.0480 0.0491
3472.000000 0.0503 0.0514 0.0524 0.0534 0.0545
3477.000000 0.0555 0.0568 0.0582 0.0596 0.0609
3482.000000 0.0623 0.0639 0.0654 0.0670 0.0686
3487.000000 0.0701 0.0715 0.0729 0.0743 0.0757
3492.000000 0.0775 0.0800 0.0825 0.0850 0.0875
3497.000000 0.0896 0.0914 0.0932 0.0950 0.0968
3502.000000 0.0985 0.1000 0.1016 0.1031 0.1047
3507.000000 0.1061 0.1075 0.1089 0.1103 0.1117
3512.000000 0.1128 0.1139 0.1149 0.1159 0.1170
3517.000000 0.1189 0.1209 0.1230 0.1251 0.1272
3522.000000 0.1293 0.1313 0.1334 0.1355 0.1376
3527.000000 0.1396 0.1417 0.1438 0.1459 0.1480
3532.000000 0.1501 0.1521 0.1542 0.1562 0.1583
3537.000000 0.1604 0.1624 0.1645 0.1665 0.1686
3542.000000 0.1706 0.1727 0.1747 0.1768 0.1788
3547.000000 0.1809 0.1830 0.1850 0.1871 0.1892
3552.000000 0.1912 0.1933 0.1953 0.1973 0.1994
3557.000000 0.2014 0.2034 0.2055 0.2075 0.2095
3562.000000 0.2116 0.2136 0.2156 0.2176 0.2197
3567.000000 0.2217 0.2238 0.2258 0.2278 0.2299
3572.000000 0.2319 0.2339 0.2359 0.2379 0.2400
3577.000000 0.2420 0.2440 0.2460 0.2480 0.2500
3582.000000 0.2520 0.2540 0.2560 0.2580 0.2600
3587.000000 0.2620 0.2635 0.2650 0.2665 0.2680
3592.000000 0.2695 0.2702 0.2708 0.2715 0.2722
3597.000000 0.2729 0.2737 0.2746 0.2754 0.2763
3602.000000 0.2772 0.2779 0.2785 0.2792 0.2798
3607.000000 0.2804 0.2810 0.2814 0.2818 0.2822
3612.000000 0.2826 0.2829 0.2832 0.2835 0.2837
3617.000000 0.2840 0.2843 0.2845 0.2847 0.2849
3622.000000 0.2852 0.2854 0.2856 0.2857 0.2859
3627.000000 0.2860 0.2862 0.2863 0.2865 0.2866
3632.000000 0.2867 0.2869 0.2870 0.2870 0.2871
3637.000000 0.2871 0.2872 0.2872 0.2873 0.2874
3642.000000 0.2874 0.2875 0.2875 0.2876 0.2876
3647.000000 0.2877 0.2877 0.2877 0.2878 0.2878
3652.000000 0.2879 0.2879 0.2880 0.2881 0.2881
3657.000000 0.2881 0.2881 0.2881 0.2881 0.2881
3662.000000 0.2881 0.2881 0.2881 0.2881 0.2881
3667.000000 0.2881 0.2881 0.2881 0.2881 0.2881
3672.000000 0.2880 0.2880 0.2879 0.2879 0.2879
3677.000000 0.2878 0.2878 0.2878 0.2878 0.2878
3682.000000 0.2877 0.2877 0.2877 0.2876 0.2876
3687.000000 0.2876 0.2875 0.2875 0.2875 0.2874
3692.000000 0.2874 0.2873 0.2871 0.2870 0.2868
3697.000000 0.2867 0.2865 0.2863 0.2861 0.2858
3702.000000 0.2856 0.2854 0.2852 0.2848 0.2845
3707.000000 0.2842 0.2838 0.2835 0.2831 0.2827
3712.000000 0.2823 0.2819 0.2815 0.2811 0.2807
3717.000000 0.2803 0.2798 0.2794 0.2790 0.2785
3722.000000 0.2781 0.2777 0.2772 0.2768 0.2764
3727.000000 0.2759 0.2755 0.2751 0.2746 0.2742
3732.000000 0.2737 0.2732 0.2728 0.2723 0.2718
3737.000000 0.2713 0.2708 0.2702 0.2696 0.2691
3742.000000 0.2685 0.2680 0.2675 0.2669 0.2664
3747.000000 0.2659 0.2653 0.2648 0.2644 0.2639
3752.000000 0.2634 0.2629 0.2625 0.2623 0.2621
3757.000000 0.2619 0.2616 0.2614 0.2612 0.2611
3762.000000 0.2609 0.2607 0.2605 0.2604 0.2603
3767.000000 0.2602 0.2601 0.2600 0.2599 0.2598
3772.000000 0.2597 0.2597 0.2596 0.2595 0.2594
3777.000000 0.2593 0.2593 0.2592 0.2592 0.2591
3782.000000 0.2591 0.2590 0.2590 0.2589 0.2588
3787.000000 0.2588 0.2587 0.2587 0.2586 0.2585
3792.000000 0.2584 0.2583 0.2582 0.2581 0.2580
3797.000000 0.2578 0.2577 0.2576 0.2575 0.2574
3802.000000 0.2573 0.2572 0.2571 0.2570 0.2569
3807.000000 0.2568 0.2567 0.2566 0.2565 0.2563
3812.000000 0.2562 0.2561 0.2560 0.2559 0.2558
3817.000000 0.2557 0.2556 0.2556 0.2555 0.2554
3822.000000 0.2553 0.2551 0.2547 0.2542 0.2538
3827.000000 0.2534 0.2530 0.2525 0.2519 0.2514
3832.000000 0.2508 0.2503 0.2497 0.2492 0.2487
3837.000000 0.2481 0.2476 0.2470 0.2465 0.2458
3842.000000 0.2450 0.2442 0.2434 0.2426 0.2419
3847.000000 0.2416 0.2414 0.2413 0.2411 0.2409
3852.000000 0.2408 0.2407 0.2406 0.2405 0.2404
3857.000000 0.2403 0.2403 0.2402 0.2401 0.2401
3862.000000 0.2400 0.2399 0.2398 0.2398 0.2397
3867.000000 0.2396 0.2395 0.2394 0.2393 0.2393
3872.000000 0.2392 0.2392 0.2391 0.2391 0.2390
3877.000000 0.2390 0.2390 0.2389 0.2389 0.2389
3882.000000 0.2388 0.2388 0.2388 0.2388 0.2387
3887.000000 0.2387 0.2387 0.2386 0.2386 0.2385
3892.000000 0.2385 0.2384 0.2384 0.2383 0.2383
3897.000000 0.2383 0.2382 0.2382 0.2382 0.2381
3902.000000 0.2380 0.2380 0.2379 0.2378 0.2378
3907.000000 0.2377 0.2376 0.2376 0.2375 0.2374
3912.000000 0.2374 0.2372 0.2371 0.2369 0.2368
3917.000000 0.2366 0.2364 0.2362 0.2360 0.2357
3922.000000 0.2354 0.2352 0.2349 0.2346 0.2343
3927.000000 0.2340 0.2337 0.2333 0.2330 0.2327
3932.000000 0.2324 0.2320 0.2317 0.2314 0.2311
3937.000000 0.2308 0.2303 0.2299 0.2294 0.2290
3942.000000 0.2286 0.2281 0.2279 0.2276 0.2274
3947.000000 0.2272 0.2270 0.2268 0.2266 0.2264
3952.000000 0.2262 0.2260 0.2258 0.2257 0.2255
3957.000000 0.2253 0.2252 0.2250 0.2249 0.2247
3962.000000 0.2245 0.2245 0.2244 0.2243 0.2242
3967.000000 0.2241 0.2240 0.2239 0.2238 0.2237
3972.000000 0.2237 0.2236 0.2235 0.2234 0.2233
3977.000000 0.2233 0.2232 0.2231 0.2230 0.2229
3982.000000 0.2229 0.2228 0.2227 0.2226 0.2225
3987.000000 0.2225 0.2224 0.2223 0.2222 0.2222
3992.000000 0.2221 0.2220 0.2219 0.2219 0.2219
3997.000000 0.2218 0.2218 0.2218 0.2218
##END=
