##TITLE=ZINC SULFITE
$$ C.P.
##JCAMP-DX=4.24
##DATA TYPE=INFRARED SPECTRUM
##CLASS=COBLENTZ
##ORIGIN=MELLON INSTITUTE
##OWNER=COBLENTZ SOCIETY
Collection (C) 2018 copyright by the U.S. Secretary of Commerce
on behalf of the United States of America. All rights reserved.
##DATE=Not specified, most likely prior to 1970
##MOLFORM=Zn S O3  * 2 H2 O
##SOURCE REFERENCE=COBLENTZ NO. 562
##$NIST ID=B6000562
##$NIST SOURCE=COBLENTZ
##$NIST IMAGE=cob562
##SPECTROMETER/DATA SYSTEM=Not specified, most likely a prism, grating, or hybrid spectrometer.
##STATE=SOLID (NUJOL MULL)
##PATH LENGTH=
$$SPECTRAL CONTAMINATION DUE TO OIL AROUND 2900, 1450, 1380 CM^-^1
##SAMPLING PROCEDURE=TRANSMISSION
##RESOLUTION=4
##DATA PROCESSING=DIGITIZED BY NIST FROM HARD COPY
##XUNITS=MICROMETERS
##YUNITS=TRANSMITTANCE
##XFACTOR=1.000000
##YFACTOR=1
##DELTAX=000.006655
##FIRSTX=2.062
##LASTX=15.9966
##FIRSTY=0.944
##MAXX=15.9966
##MINX=2.062
##MAXY=0.966
##MINY=0.082
##NPOINTS=2095
##XYDATA=(X++(Y..Y))
2.062000 0.9440 0.9480 0.9480 0.9490 0.9490
2.095289 0.9510 0.9510 0.9530 0.9510 0.9530
2.128000 0.9530 0.9540 0.9540 0.9540 0.9580
2.161289 0.9590 0.9590 0.9610 0.9610 0.9640
2.195000 0.9640 0.9660 0.9660 0.9660 0.9660
2.228289 0.9660 0.9660 0.9660 0.9640 0.9630
2.261000 0.9610 0.9580 0.9560 0.9530 0.9490
2.294289 0.9460 0.9460 0.9440 0.9430 0.9440
2.328000 0.9440 0.9440 0.9460 0.9460 0.9460
2.361289 0.9480 0.9480 0.9480 0.9440 0.9440
2.394000 0.9440 0.9440 0.9440 0.9440 0.9440
2.427289 0.9460 0.9460 0.9480 0.9490 0.9510
2.461000 0.9530 0.9530 0.9530 0.9540 0.9580
2.494289 0.9590 0.9610 0.9630 0.9630 0.9610
2.528000 0.9610 0.9590 0.9580 0.9560 0.9540
2.561289 0.9530 0.9530 0.9530 0.9530 0.9530
2.594000 0.9530 0.9540 0.9560 0.9560 0.9560
2.627289 0.9580 0.9580 0.9580 0.9560 0.9540
2.661000 0.9510 0.9390 0.9310 0.9310 0.9290
2.694289 0.9290 0.9270 0.9220 0.9170 0.9140
2.727000 0.8990 0.8870 0.8760 0.8590 0.8450
2.760289 0.8300 0.8150 0.7870 0.7620 0.7380
2.794000 0.7000 0.6750 0.6480 0.6030 0.5720
2.827289 0.5340 0.4950 0.4720 0.4580 0.4550
2.860000 0.4530 0.4500 0.4470 0.4380 0.4270
2.893289 0.4200 0.4150 0.4130 0.4130 0.4120
2.927000 0.4100 0.4080 0.4070 0.4030 0.4020
2.960289 0.4000 0.3980 0.3980 0.3980 0.4020
2.993000 0.4030 0.4030 0.4030 0.4000 0.4000
3.026289 0.3980 0.3950 0.3910 0.3880 0.3780
3.060000 0.3750 0.3680 0.3610 0.3560 0.3530
3.093289 0.3410 0.3380 0.3350 0.3330 0.3310
3.126000 0.3280 0.3260 0.3240 0.3240 0.3240
3.159289 0.3240 0.3240 0.3260 0.3290 0.3450
3.193000 0.3530 0.3660 0.3750 0.3910 0.4050
3.226289 0.4130 0.4250 0.4330 0.4380 0.4480
3.260000 0.4550 0.4600 0.4670 0.4740 0.4750
3.293289 0.4790 0.4750 0.4700 0.4670 0.4030
3.326000 0.3580 0.3130 0.2290 0.1770 0.1540
3.359289 0.1280 0.1030 0.0870 0.0830 0.0820
3.393000 0.0830 0.1000 0.1250 0.1620 0.2360
3.426289 0.2590 0.2690 0.2690 0.2520 0.2390
3.459000 0.2370 0.2360 0.2370 0.2560 0.2910
3.492289 0.3750 0.4570 0.5810 0.6280 0.7450
3.526000 0.7630 0.7950 0.7970 0.8020 0.8170
3.559289 0.8250 0.8500 0.8570 0.8620 0.8690
3.592000 0.8740 0.8810 0.8840 0.8860 0.8890
3.625289 0.8910 0.8920 0.8940 0.8940 0.8960
3.659000 0.8960 0.8970 0.8970 0.8990 0.8990
3.692289 0.9010 0.9010 0.9020 0.9040 0.9070
3.725000 0.9090 0.9110 0.9110 0.9120 0.9120
3.758289 0.9140 0.9160 0.9160 0.9170 0.9170
3.792000 0.9190 0.9210 0.9210 0.9210 0.9220
3.825289 0.9220 0.9240 0.9240 0.9240 0.9260
3.858000 0.9270 0.9310 0.9320 0.9320 0.9340
3.891289 0.9360 0.9380 0.9380 0.9390 0.9390
3.925000 0.9390 0.9410 0.9430 0.9430 0.9430
3.958289 0.9440 0.9440 0.9440 0.9460 0.9480
3.992000 0.9480 0.9480 0.9490 0.9490 0.9490
4.025289 0.9510 0.9510 0.9510 0.9530 0.9530
4.058000 0.9530 0.9530 0.9530 0.9530 0.9530
4.091289 0.9510 0.9530 0.9510 0.9510 0.9510
4.125000 0.9490 0.9490 0.9490 0.9490 0.9480
4.158289 0.9480 0.9480 0.9480 0.9460 0.9440
4.191000 0.9410 0.9380 0.9320 0.9290 0.9290
4.224289 0.9270 0.9240 0.9160 0.9140 0.9120
4.258000 0.9110 0.9110 0.9090 0.9070 0.9020
4.291289 0.9020 0.9020 0.9020 0.9010 0.9020
4.324000 0.9020 0.9020 0.9020 0.9020 0.9020
4.357289 0.9040 0.9040 0.9060 0.9060 0.9070
4.391000 0.9090 0.9120 0.9120 0.9120 0.9120
4.424289 0.9120 0.9120 0.9120 0.9110 0.9110
4.457000 0.9110 0.9120 0.9110 0.9110 0.9110
4.490289 0.9110 0.9090 0.9090 0.9090 0.9060
4.524000 0.9060 0.9040 0.9060 0.9060 0.9070
4.557289 0.9070 0.9110 0.9120 0.9120 0.9140
4.590000 0.9140 0.9160 0.9160 0.9160 0.9160
4.623289 0.9160 0.9170 0.9170 0.9170 0.9190
4.657000 0.9190 0.9190 0.9210 0.9210 0.9210
4.690289 0.9210 0.9210 0.9220 0.9220 0.9220
4.724000 0.9240 0.9240 0.9240 0.9240 0.9240
4.757289 0.9260 0.9270 0.9270 0.9290 0.9270
4.790000 0.9290 0.9290 0.9310 0.9320 0.9320
4.823289 0.9320 0.9320 0.9340 0.9340 0.9340
4.857000 0.9340 0.9340 0.9360 0.9360 0.9360
4.890289 0.9360 0.9380 0.9380 0.9380 0.9380
4.923000 0.9380 0.9380 0.9380 0.9380 0.9380
4.956289 0.9380 0.9390 0.9410 0.9390 0.9390
4.990000 0.9390 0.9390 0.9390 0.9410 0.9410
5.023289 0.9410 0.9410 0.9410 0.9410 0.9430
5.056000 0.9440 0.9440 0.9440 0.9440 0.9440
5.089289 0.9480 0.9480 0.9490 0.9490 0.9490
5.123000 0.9490 0.9510 0.9510 0.9530 0.9510
5.156289 0.9510 0.9510 0.9510 0.9510 0.9510
5.189000 0.9490 0.9490 0.9490 0.9510 0.9510
5.222289 0.9510 0.9530 0.9530 0.9540 0.9540
5.256000 0.9560 0.9560 0.9560 0.9560 0.9560
5.289289 0.9560 0.9560 0.9560 0.9560 0.9560
5.322000 0.9540 0.9540 0.9540 0.9540 0.9540
5.355289 0.9540 0.9540 0.9560 0.9560 0.9560
5.389000 0.9560 0.9540 0.9540 0.9540 0.9540
5.422289 0.9540 0.9540 0.9540 0.9540 0.9540
5.456000 0.9540 0.9540 0.9540 0.9530 0.9510
5.489289 0.9530 0.9530 0.9530 0.9530 0.9530
5.522000 0.9510 0.9510 0.9530 0.9510 0.9530
5.555289 0.9530 0.9540 0.9530 0.9530 0.9530
5.589000 0.9540 0.9530 0.9530 0.9530 0.9530
5.622289 0.9530 0.9510 0.9510 0.9510 0.9510
5.655000 0.9510 0.9510 0.9490 0.9490 0.9480
5.688289 0.9440 0.9440 0.9440 0.9440 0.9440
5.722000 0.9440 0.9440 0.9430 0.9390 0.9380
5.755289 0.9380 0.9380 0.9360 0.9360 0.9340
5.788000 0.9310 0.9270 0.9270 0.9260 0.9260
5.821289 0.9240 0.9240 0.9220 0.9210 0.9170
5.855000 0.9140 0.9120 0.9120 0.9110 0.9090
5.888289 0.9060 0.9020 0.9010 0.8990 0.8970
5.921000 0.8970 0.8940 0.8920 0.8870 0.8820
5.954289 0.8740 0.8710 0.8640 0.8550 0.8520
5.988000 0.8390 0.8350 0.8320 0.8250 0.8140
6.021289 0.8040 0.8000 0.7970 0.7850 0.7800
6.054000 0.7730 0.7600 0.7550 0.7450 0.7250
6.087289 0.7180 0.7160 0.7150 0.7130 0.7130
6.121000 0.7130 0.7150 0.7180 0.7200 0.7300
6.154289 0.7370 0.7550 0.7730 0.7970 0.8040
6.188000 0.8150 0.8200 0.8300 0.8420 0.8420
6.221289 0.8470 0.8500 0.8540 0.8550 0.8590
6.254000 0.8620 0.8640 0.8640 0.8650 0.8650
6.287289 0.8650 0.8670 0.8670 0.8670 0.8670
6.321000 0.8650 0.8650 0.8590 0.8550 0.8520
6.354289 0.8520 0.8550 0.8570 0.8590 0.8600
6.387000 0.8620 0.8620 0.8590 0.8550 0.8550
6.420289 0.8540 0.8540 0.8550 0.8570 0.8600
6.454000 0.8620 0.8640 0.8640 0.8670 0.8690
6.487289 0.8690 0.8690 0.8690 0.8670 0.8650
6.520000 0.8650 0.8640 0.8640 0.8640 0.8640
6.553289 0.8640 0.8650 0.8710 0.8720 0.8720
6.587000 0.8740 0.8760 0.8740 0.8740 0.8760
6.620289 0.8760 0.8770 0.8770 0.8790 0.8820
6.653000 0.8820 0.8840 0.8840 0.8820 0.8810
6.686289 0.8790 0.8760 0.8740 0.8720 0.8710
6.720000 0.8690 0.8640 0.8590 0.8500 0.8400
6.753289 0.8350 0.8290 0.8140 0.8000 0.7720
6.786000 0.7280 0.7050 0.6710 0.6360 0.6140
6.819289 0.5890 0.5760 0.5690 0.5640 0.5620
6.853000 0.5610 0.5590 0.5610 0.5660 0.5690
6.886289 0.5720 0.5790 0.5940 0.6040 0.6160
6.920000 0.6360 0.6510 0.6660 0.6930 0.7060
6.953289 0.7230 0.7430 0.7570 0.7720 0.7900
6.986000 0.8040 0.8190 0.8450 0.8490 0.8500
7.019289 0.8520 0.8540 0.8570 0.8600 0.8670
7.053000 0.8720 0.8790 0.8840 0.8870 0.8920
7.086289 0.8940 0.8970 0.9010 0.9010 0.9010
7.119000 0.9010 0.9010 0.8990 0.8990 0.8990
7.152289 0.8970 0.8870 0.8770 0.8670 0.8490
7.186000 0.8350 0.8300 0.8250 0.8120 0.7920
7.219289 0.7720 0.7470 0.7350 0.7300 0.7260
7.252000 0.7300 0.7310 0.7420 0.7550 0.7700
7.285289 0.7730 0.7780 0.7830 0.7950 0.8000
7.319000 0.8170 0.8270 0.8400 0.8490 0.8520
7.352289 0.8570 0.8620 0.8670 0.8690 0.8710
7.385000 0.8740 0.8770 0.8790 0.8810 0.8820
7.418289 0.8820 0.8840 0.8840 0.8840 0.8840
7.452000 0.8870 0.8910 0.8970 0.8970 0.8990
7.485289 0.8990 0.8990 0.9010 0.9020 0.9020
7.518000 0.9040 0.9070 0.9110 0.9110 0.9120
7.551289 0.9120 0.9120 0.9120 0.9120 0.9120
7.585000 0.9120 0.9120 0.9120 0.9140 0.9120
7.618289 0.9140 0.9120 0.9120 0.9120 0.9120
7.652000 0.9120 0.9110 0.9120 0.9120 0.9160
7.685289 0.9170 0.9190 0.9190 0.9170 0.9160
7.718000 0.9160 0.9160 0.9160 0.9170 0.9160
7.751289 0.9160 0.9160 0.9140 0.9160 0.9170
7.785000 0.9210 0.9190 0.9210 0.9210 0.9210
7.818289 0.9210 0.9210 0.9210 0.9210 0.9220
7.851000 0.9220 0.9210 0.9190 0.9190 0.9190
7.884289 0.9190 0.9190 0.9190 0.9190 0.9190
7.918000 0.9190 0.9210 0.9210 0.9210 0.9220
7.951289 0.9220 0.9240 0.9260 0.9240 0.9240
7.984000 0.9220 0.9240 0.9240 0.9240 0.9220
8.017289 0.9190 0.9190 0.9190 0.9190 0.9190
8.051000 0.9190 0.9190 0.9190 0.9220 0.9220
8.084289 0.9210 0.9210 0.9210 0.9210 0.9190
8.117000 0.9190 0.9170 0.9170 0.9160 0.9160
8.150289 0.9170 0.9170 0.9210 0.9210 0.9220
8.184000 0.9260 0.9260 0.9270 0.9270 0.9270
8.217289 0.9260 0.9270 0.9270 0.9260 0.9260
8.250000 0.9270 0.9260 0.9240 0.9220 0.9220
8.283289 0.9210 0.9190 0.9190 0.9170 0.9170
8.317000 0.9170 0.9170 0.9170 0.9170 0.9160
8.350289 0.9160 0.9140 0.9110 0.9110 0.9060
8.384000 0.9020 0.8990 0.8910 0.8870 0.8840
8.417289 0.8840 0.8840 0.8820 0.8790 0.8760
8.450000 0.8710 0.8620 0.8520 0.8490 0.8400
8.483289 0.8340 0.8300 0.8270 0.8190 0.8120
8.517000 0.8070 0.8020 0.7980 0.7970 0.7880
8.550289 0.7830 0.7800 0.7770 0.7730 0.7700
8.583000 0.7650 0.7650 0.7630 0.7620 0.7620
8.616289 0.7620 0.7630 0.7630 0.7630 0.7650
8.650000 0.7700 0.7730 0.7780 0.7850 0.7950
8.683289 0.7980 0.8000 0.8050 0.8090 0.8150
8.716000 0.8200 0.8240 0.8270 0.8300 0.8320
8.749289 0.8350 0.8370 0.8370 0.8390 0.8390
8.783000 0.8390 0.8390 0.8390 0.8390 0.8390
8.816289 0.8350 0.8350 0.8340 0.8340 0.8320
8.849000 0.8300 0.8300 0.8290 0.8240 0.8220
8.882289 0.8220 0.8190 0.8170 0.8050 0.8020
8.916000 0.7980 0.7880 0.7850 0.7800 0.7780
8.949289 0.7720 0.7700 0.7670 0.7650 0.7630
8.982000 0.7620 0.7600 0.7550 0.7520 0.7500
9.015289 0.7480 0.7480 0.7470 0.7450 0.7450
9.049000 0.7450 0.7450 0.7430 0.7420 0.7420
9.082289 0.7420 0.7420 0.7420 0.7420 0.7420
9.116000 0.7420 0.7420 0.7430 0.7430 0.7450
9.149289 0.7450 0.7450 0.7450 0.7470 0.7470
9.182000 0.7470 0.7470 0.7480 0.7480 0.7480
9.215289 0.7480 0.7480 0.7480 0.7480 0.7500
9.249000 0.7500 0.7520 0.7520 0.7520 0.7530
9.282289 0.7530 0.7550 0.7550 0.7570 0.7570
9.315000 0.7570 0.7580 0.7580 0.7600 0.7600
9.348289 0.7600 0.7600 0.7600 0.7600 0.7600
9.382000 0.7600 0.7600 0.7600 0.7600 0.7600
9.415289 0.7580 0.7580 0.7570 0.7550 0.7550
9.448000 0.7530 0.7530 0.7530 0.7500 0.7480
9.481289 0.7480 0.7470 0.7430 0.7430 0.7420
9.515000 0.7420 0.7400 0.7380 0.7380 0.7370
9.548289 0.7370 0.7330 0.7310 0.7310 0.7300
9.581000 0.7280 0.7180 0.7130 0.7100 0.7030
9.614289 0.7000 0.6930 0.6800 0.6710 0.6640
9.648000 0.6580 0.6440 0.6330 0.6210 0.6030
9.681289 0.5990 0.5820 0.5690 0.5460 0.5290
9.714000 0.5190 0.5100 0.5040 0.4950 0.4840
9.747289 0.4750 0.4600 0.4470 0.4420 0.4380
9.781000 0.4370 0.4350 0.4330 0.4320 0.4320
9.814289 0.4320 0.4330 0.4330 0.4350 0.4370
9.848000 0.4380 0.4400 0.4420 0.4450 0.4480
9.881289 0.4500 0.4520 0.4580 0.4600 0.4620
9.914000 0.4650 0.4690 0.4720 0.4740 0.4770
9.947289 0.4800 0.4820 0.4850 0.4890 0.4900
9.981000 0.4970 0.4970 0.4990 0.5050 0.5090
10.014289 0.5100 0.5120 0.5150 0.5170 0.5190
10.047000 0.5200 0.5270 0.5270 0.5290 0.5300
10.080289 0.5320 0.5340 0.5360 0.5370 0.5370
10.114000 0.5370 0.5370 0.5370 0.5370 0.5370
10.147289 0.5370 0.5370 0.5370 0.5360 0.5360
10.180000 0.5340 0.5320 0.5300 0.5270 0.5270
10.213289 0.5250 0.5240 0.5220 0.5200 0.5150
10.247000 0.5140 0.5120 0.5100 0.5070 0.5020
10.280289 0.5000 0.4990 0.4970 0.4950 0.4900
10.313000 0.4870 0.4840 0.4800 0.4750 0.4700
10.346289 0.4670 0.4630 0.4580 0.4550 0.4550
10.380000 0.4520 0.4480 0.4470 0.4450 0.4420
10.413289 0.4420 0.4400 0.4380 0.4370 0.4350
10.446000 0.4330 0.4330 0.4320 0.4320 0.4320
10.479289 0.4300 0.4300 0.4280 0.4280 0.4280
10.513000 0.4270 0.4270 0.4250 0.4250 0.4250
10.546289 0.4250 0.4250 0.4250 0.4250 0.4250
10.580000 0.4250 0.4250 0.4270 0.4270 0.4280
10.613289 0.4280 0.4280 0.4300 0.4300 0.4300
10.646000 0.4320 0.4320 0.4330 0.4350 0.4370
10.679289 0.4380 0.4400 0.4420 0.4430 0.4450
10.713000 0.4450 0.4470 0.4480 0.4500 0.4500
10.746289 0.4500 0.4500 0.4500 0.4480 0.4480
10.779000 0.4470 0.4470 0.4470 0.4450 0.4450
10.812289 0.4430 0.4430 0.4430 0.4420 0.4430
10.846000 0.4430 0.4420 0.4420 0.4420 0.4400
10.879289 0.4380 0.4370 0.4350 0.4350 0.4350
10.912000 0.4330 0.4330 0.4330 0.4330 0.4320
10.945289 0.4320 0.4320 0.4320 0.4320 0.4320
10.979000 0.4320 0.4320 0.4330 0.4320 0.4320
11.012289 0.4320 0.4320 0.4320 0.4320 0.4320
11.045000 0.4320 0.4320 0.4320 0.4320 0.4300
11.078289 0.4300 0.4300 0.4300 0.4300 0.4300
11.112000 0.4300 0.4300 0.4300 0.4280 0.4280
11.145289 0.4300 0.4300 0.4300 0.4280 0.4280
11.178000 0.4280 0.4270 0.4270 0.4250 0.4230
11.211289 0.4230 0.4230 0.4230 0.4220 0.4200
11.245000 0.4180 0.4170 0.4170 0.4130 0.4130
11.278289 0.4120 0.4120 0.4120 0.4100 0.4080
11.312000 0.4070 0.4030 0.4020 0.4020 0.4000
11.345289 0.4000 0.3980 0.3980 0.3960 0.3950
11.378000 0.3930 0.3900 0.3880 0.3850 0.3850
11.411289 0.3830 0.3810 0.3800 0.3800 0.3780
11.445000 0.3750 0.3730 0.3730 0.3710 0.3700
11.478289 0.3700 0.3680 0.3680 0.3650 0.3610
11.511000 0.3600 0.3580 0.3560 0.3550 0.3530
11.544289 0.3530 0.3530 0.3530 0.3530 0.3530
11.578000 0.3550 0.3530 0.3530 0.3510 0.3510
11.611289 0.3500 0.3500 0.3500 0.3480 0.3480
11.644000 0.3460 0.3460 0.3460 0.3460 0.3460
11.677289 0.3450 0.3450 0.3450 0.3430 0.3450
11.711000 0.3450 0.3450 0.3460 0.3460 0.3460
11.744289 0.3460 0.3460 0.3480 0.3480 0.3500
11.777000 0.3530 0.3550 0.3560 0.3580 0.3600
11.810289 0.3630 0.3660 0.3680 0.3680 0.3680
11.844000 0.3700 0.3710 0.3710 0.3730 0.3760
11.877289 0.3780 0.3800 0.3800 0.3810 0.3830
11.910000 0.3850 0.3860 0.3880 0.3900 0.3930
11.943289 0.3960 0.3960 0.3960 0.3980 0.4000
11.977000 0.4020 0.4070 0.4080 0.4120 0.4130
12.010289 0.4150 0.4170 0.4180 0.4220 0.4250
12.044000 0.4270 0.4280 0.4300 0.4320 0.4330
12.077289 0.4370 0.4380 0.4400 0.4420 0.4430
12.110000 0.4470 0.4480 0.4500 0.4520 0.4520
12.143289 0.4550 0.4550 0.4570 0.4580 0.4600
12.177000 0.4600 0.4630 0.4650 0.4690 0.4700
12.210289 0.4740 0.4750 0.4800 0.4850 0.4900
12.243000 0.4950 0.4970 0.5020 0.5070 0.5090
12.276289 0.5120 0.5150 0.5200 0.5220 0.5240
12.310000 0.5240 0.5240 0.5240 0.5250 0.5250
12.343289 0.5250 0.5270 0.5290 0.5300 0.5320
12.376000 0.5320 0.5360 0.5390 0.5440 0.5510
12.409289 0.5540 0.5560 0.5570 0.5610 0.5660
12.443000 0.5710 0.5740 0.5770 0.5790 0.5790
12.476289 0.5790 0.5790 0.5740 0.5740 0.5810
12.509000 0.5820 0.5840 0.5840 0.5890 0.5890
12.542289 0.5920 0.5970 0.5990 0.5990 0.6010
12.576000 0.6010 0.6040 0.6060 0.6090 0.6180
12.609289 0.6180 0.6190 0.6210 0.6230 0.6240
12.642000 0.6260 0.6280 0.6290 0.6310 0.6330
12.675289 0.6330 0.6340 0.6340 0.6360 0.6340
12.709000 0.6360 0.6380 0.6380 0.6390 0.6410
12.742289 0.6410 0.6430 0.6440 0.6490 0.6490
12.776000 0.6510 0.6530 0.6540 0.6540 0.6560
12.809289 0.6580 0.6580 0.6590 0.6590 0.6610
12.842000 0.6630 0.6630 0.6660 0.6660 0.6700
12.875289 0.6710 0.6730 0.6750 0.6750 0.6750
12.909000 0.6760 0.6750 0.6760 0.6760 0.6780
12.942289 0.6800 0.6810 0.6810 0.6830 0.6850
12.975000 0.6900 0.6930 0.6950 0.6960 0.6950
13.008289 0.6930 0.6880 0.6860 0.6850 0.6850
13.042000 0.6830 0.6830 0.6810 0.6830 0.6830
13.075289 0.6850 0.6850 0.6860 0.6900 0.6910
13.108000 0.6910 0.6930 0.7000 0.7000 0.6980
13.141289 0.6980 0.6930 0.6910 0.6900 0.6900
13.175000 0.6880 0.6880 0.6900 0.6900 0.6900
13.208289 0.6900 0.6910 0.6910 0.6910 0.6900
13.241000 0.6900 0.6880 0.6850 0.6780 0.6750
13.274289 0.6730 0.6730 0.6750 0.6750 0.6760
13.308000 0.6750 0.6760 0.6760 0.6760 0.6780
13.341289 0.6780 0.6800 0.6850 0.6850 0.6830
13.374000 0.6810 0.6780 0.6780 0.6760 0.6710
13.407289 0.6700 0.6700 0.6680 0.6680 0.6680
13.441000 0.6660 0.6700 0.6730 0.6750 0.6800
13.474289 0.6750 0.6710 0.6680 0.6660 0.6630
13.508000 0.6630 0.6640 0.6640 0.6630 0.6630
13.541289 0.6630 0.6610 0.6610 0.6610 0.6610
13.574000 0.6590 0.6590 0.6560 0.6560 0.6560
13.607289 0.6540 0.6540 0.6530 0.6510 0.6530
13.641000 0.6510 0.6510 0.6530 0.6510 0.6510
13.674289 0.6510 0.6480 0.6460 0.6460 0.6440
13.707000 0.6440 0.6490 0.6480 0.6480 0.6480
13.740289 0.6480 0.6460 0.6440 0.6430 0.6430
13.774000 0.6410 0.6410 0.6430 0.6430 0.6430
13.807289 0.6410 0.6410 0.6410 0.6390 0.6390
13.840000 0.6390 0.6380 0.6380 0.6380 0.6360
13.873289 0.6360 0.6380 0.6380 0.6380 0.6380
13.907000 0.6380 0.6390 0.6390 0.6390 0.6390
13.940289 0.6390 0.6390 0.6380 0.6380 0.6380
13.973000 0.6380 0.6390 0.6390 0.6390 0.6390
14.006289 0.6390 0.6390 0.6390 0.6410 0.6410
14.040000 0.6410 0.6410 0.6410 0.6410 0.6410
14.073289 0.6410 0.6390 0.6390 0.6390 0.6390
14.106000 0.6380 0.6390 0.6390 0.6390 0.6390
14.139289 0.6390 0.6390 0.6390 0.6380 0.6380
14.173000 0.6380 0.6380 0.6380 0.6380 0.6360
14.206289 0.6360 0.6340 0.6330 0.6340 0.6330
14.240000 0.6330 0.6330 0.6310 0.6290 0.6280
14.273289 0.6290 0.6290 0.6290 0.6290 0.6280
14.306000 0.6260 0.6260 0.6240 0.6210 0.6210
14.339289 0.6190 0.6180 0.6160 0.6160 0.6160
14.373000 0.6160 0.6140 0.6130 0.6130 0.6110
14.406289 0.6130 0.6110 0.6110 0.6110 0.6110
14.439000 0.6080 0.6080 0.6080 0.6040 0.6060
14.472289 0.6040 0.6040 0.6060 0.6040 0.6030
14.506000 0.6030 0.6030 0.6030 0.6030 0.6010
14.539289 0.6010 0.6010 0.6010 0.5990 0.5990
14.572000 0.5990 0.5970 0.5970 0.5960 0.5960
14.605289 0.5920 0.5920 0.5940 0.5920 0.5920
14.639000 0.5920 0.5910 0.5890 0.5870 0.5870
14.672289 0.5870 0.5870 0.5870 0.5860 0.5840
14.705000 0.5840 0.5840 0.5820 0.5820 0.5820
14.738289 0.5820 0.5820 0.5810 0.5810 0.5810
14.772000 0.5790 0.5790 0.5790 0.5770 0.5790
14.805289 0.5790 0.5790 0.5770 0.5770 0.5770
14.838000 0.5770 0.5760 0.5760 0.5760 0.5740
14.871289 0.5740 0.5720 0.5720 0.5710 0.5710
14.905000 0.5690 0.5690 0.5670 0.5660 0.5660
14.938289 0.5640 0.5640 0.5620 0.5620 0.5620
14.972000 0.5610 0.5610 0.5590 0.5570 0.5560
15.005289 0.5540 0.5540 0.5520 0.5520 0.5510
15.038000 0.5490 0.5460 0.5460 0.5440 0.5420
15.071289 0.5420 0.5420 0.5410 0.5410 0.5390
15.105000 0.5390 0.5390 0.5390 0.5370 0.5360
15.138289 0.5360 0.5340 0.5340 0.5360 0.5340
15.171000 0.5340 0.5340 0.5320 0.5340 0.5340
15.204289 0.5320 0.5300 0.5300 0.5290 0.5290
15.238000 0.5290 0.5270 0.5250 0.5240 0.5240
15.271289 0.5220 0.5220 0.5220 0.5220 0.5220
15.304000 0.5200 0.5200 0.5220 0.5220 0.5220
15.337289 0.5200 0.5200 0.5190 0.5190 0.5200
15.371000 0.5200 0.5190 0.5190 0.5190 0.5190
15.404289 0.5190 0.5190 0.5190 0.5190 0.5190
15.437000 0.5190 0.5190 0.5200 0.5200 0.5200
15.470289 0.5200 0.5200 0.5190 0.5190 0.5190
15.504000 0.5190 0.5190 0.5190 0.5190 0.5190
15.537289 0.5170 0.5190 0.5220 0.5220 0.5220
15.570000 0.5220 0.5220 0.5220 0.5220 0.5220
15.603289 0.5220 0.5220 0.5220 0.5220 0.5240
15.637000 0.5240 0.5250 0.5270 0.5270 0.5270
15.670289 0.5270 0.5270 0.5270 0.5250 0.5250
15.704000 0.5270 0.5270 0.5290 0.5300 0.5290
15.737289 0.5290 0.5290 0.5290 0.5300 0.5300
15.770000 0.5300 0.5300 0.5300 0.5300 0.5300
15.803289 0.5300 0.5320 0.5320 0.5320 0.5340
15.837000 0.5340 0.5340 0.5360 0.5370 0.5390
15.870289 0.5410 0.5410 0.5420 0.5420 0.5420
15.903000 0.5420 0.5440 0.5440 0.5460 0.5460
15.936289 0.5470 0.5490 0.5490 0.5510 0.5510
15.970000 0.5520 0.5520 0.5510 0.5510 0.5520
##END=
