##TITLE=Acridan, 2-chloro-9-(3-dimethylaminopropyl)-10-ethyl-, phosphate (1 to 1),dihydrate
##JCAMP-DX=4.24
##DATA TYPE=INFRARED SPECTRUM
##CLASS=COBLENTZ
##ORIGIN=SMITH KLINE & FRENCH LABS.
##OWNER=Copyright (C) 1987 by the Coblentz Society
Collection (C) 2018 copyright by the U.S. Secretary of Commerce
on behalf of the United States of America. All rights reserved.
##DATE=1963/07/15
##MOLFORM=C20 H28 Cl N2 O4 P  * 2 H2 O
##SOURCE REFERENCE=COBLENTZ NO. 9108
##$NIST ID=B6009108
##$NIST SOURCE=COBLENTZ
##$NIST IMAGE=cob9108
##SPECTROMETER/DATA SYSTEM=PERKIN-ELMER 21 (GRATING)
##INSTRUMENT PARAMETERS=NaCl PRISM
##STATE=SOLID (NUJOL MULL)
$$SPECTRAL CONTAMINATION DUE TO OIL AROUND 2840, 1458, 1365 CM^-^1
##SAMPLING PROCEDURE=TRANSMISSION
##RESOLUTION=2
##DATA PROCESSING=DIGITIZED BY COBLENTZ SOCIETY (BATCH II) FROM HARD COPY
##XUNITS=1/CM
##YUNITS=TRANSMITTANCE
##XFACTOR=1.0
##YFACTOR=1
##FIRSTX=662
##LASTX=4000
##FIRSTY=0.7443
##MAXX=4000
##MINX=662
##MAXY=0.8241
##MINY=0.0782
##NPOINTS=3339
##XYDATA=(X++(Y..Y))
662.000000 0.7443 0.7370 0.7217 0.7212 0.7273
667.000000 0.7366 0.7468 0.7544 0.7597 0.7627
672.000000 0.7654 0.7670 0.7688 0.7704 0.7719
677.000000 0.7733 0.7749 0.7765 0.7780 0.7793
682.000000 0.7802 0.7811 0.7832 0.7834 0.7849
687.000000 0.7863 0.7876 0.7887 0.7898 0.7908
692.000000 0.7915 0.7921 0.7928 0.7935 0.7940
697.000000 0.7934 0.7929 0.7923 0.7897 0.7864
702.000000 0.7830 0.7795 0.7779 0.7786 0.7814
707.000000 0.7853 0.7846 0.7820 0.7731 0.7639
712.000000 0.7542 0.7422 0.7370 0.7389 0.7528
717.000000 0.7598 0.7666 0.7704 0.7743 0.7768
722.000000 0.7786 0.7804 0.7814 0.7818 0.7818
727.000000 0.7843 0.7800 0.7782 0.7750 0.7715
732.000000 0.7663 0.7623 0.7619 0.7667 0.7725
737.000000 0.7732 0.7717 0.7692 0.7651 0.7595
742.000000 0.7531 0.7443 0.7345 0.7244 0.7142
747.000000 0.7040 0.6920 0.6703 0.6423 0.5989
752.000000 0.5737 0.5468 0.5341 0.5302 0.5332
757.000000 0.5372 0.5468 0.5618 0.5745 0.5849
762.000000 0.5979 0.6132 0.6309 0.6446 0.6566
767.000000 0.6721 0.6899 0.7130 0.7353 0.7565
772.000000 0.7738 0.7816 0.7885 0.7933 0.7950
777.000000 0.7957 0.7956 0.7955 0.7952 0.7937
782.000000 0.7922 0.7924 0.7902 0.7914 0.7934
787.000000 0.7949 0.7960 0.7956 0.7947 0.7929
792.000000 0.7911 0.7895 0.7883 0.7871 0.7875
797.000000 0.7883 0.7875 0.7859 0.7815 0.7690
802.000000 0.7476 0.7261 0.6872 0.6624 0.6382
807.000000 0.6182 0.6144 0.6177 0.6296 0.6466
812.000000 0.6636 0.6805 0.7075 0.7315 0.7503
817.000000 0.7615 0.7691 0.7761 0.7822 0.7872
822.000000 0.7910 0.7935 0.7959 0.7967 0.7981
827.000000 0.7969 0.7964 0.7959 0.7949 0.7936
832.000000 0.7923 0.7910 0.7892 0.7871 0.7848
837.000000 0.7825 0.7794 0.7763 0.7732 0.7698
842.000000 0.7667 0.7668 0.7668 0.7669 0.7671
847.000000 0.7658 0.7610 0.7552 0.7523 0.7512
852.000000 0.7500 0.7485 0.7465 0.7435 0.7392
857.000000 0.7339 0.7281 0.7225 0.7147 0.7078
862.000000 0.7044 0.7029 0.7015 0.7002 0.6990
867.000000 0.6978 0.6965 0.6953 0.6939 0.6926
872.000000 0.6911 0.6897 0.6883 0.6869 0.6856
877.000000 0.6845 0.6834 0.6823 0.6811 0.6801
882.000000 0.6797 0.6794 0.6787 0.6777 0.6767
887.000000 0.6754 0.6713 0.6669 0.6591 0.6562
892.000000 0.6544 0.6586 0.6635 0.6689 0.6755
897.000000 0.6850 0.6923 0.6960 0.6961 0.6944
902.000000 0.6917 0.6888 0.6850 0.6812 0.6772
907.000000 0.6729 0.6686 0.6643 0.6601 0.6553
912.000000 0.6501 0.6450 0.6398 0.6345 0.6285
917.000000 0.6224 0.6164 0.6106 0.6049 0.5993
922.000000 0.5916 0.5830 0.5745 0.5660 0.5569
927.000000 0.5464 0.5358 0.5253 0.5157 0.5064
932.000000 0.4970 0.4877 0.4786 0.4696 0.4606
937.000000 0.4515 0.4426 0.4341 0.4265 0.4204
942.000000 0.4149 0.4105 0.4085 0.4077 0.4073
947.000000 0.4069 0.4064 0.4057 0.4050 0.4027
952.000000 0.4001 0.3972 0.3937 0.3883 0.3825
957.000000 0.3748 0.3670 0.3596 0.3524 0.3470
962.000000 0.3420 0.3396 0.3390 0.3400 0.3485
967.000000 0.3629 0.3773 0.3916 0.4059 0.4202
972.000000 0.4344 0.4486 0.4628 0.4769 0.4910
977.000000 0.5049 0.5160 0.5252 0.5340 0.5401
982.000000 0.5444 0.5461 0.5467 0.5459 0.5439
987.000000 0.5417 0.5382 0.5346 0.5300 0.5250
992.000000 0.5184 0.5156 0.5154 0.5179 0.5203
997.000000 0.5231 0.5257 0.5283 0.5298 0.5302
1002.000000 0.5297 0.5275 0.5252 0.5226 0.5187
1007.000000 0.5144 0.5096 0.5046 0.4990 0.4935
1012.000000 0.4880 0.4824 0.4771 0.4736 0.4702
1017.000000 0.4670 0.4640 0.4609 0.4569 0.4528
1022.000000 0.4488 0.4437 0.4381 0.4325 0.4261
1027.000000 0.4188 0.4115 0.4041 0.3966 0.3895
1032.000000 0.3828 0.3762 0.3698 0.3635 0.3572
1037.000000 0.3524 0.3485 0.3453 0.3426 0.3394
1042.000000 0.3345 0.3292 0.3221 0.3150 0.3087
1047.000000 0.3028 0.2973 0.2932 0.2916 0.2904
1052.000000 0.2908 0.2891 0.2935 0.2958 0.2995
1057.000000 0.3048 0.3086 0.3125 0.3192 0.3273
1062.000000 0.3354 0.3451 0.3549 0.3650 0.3744
1067.000000 0.3831 0.3921 0.4035 0.4178 0.4329
1072.000000 0.4392 0.4429 0.4455 0.4473 0.4488
1077.000000 0.4499 0.4513 0.4534 0.4563 0.4587
1082.000000 0.4608 0.4623 0.4637 0.4604 0.4582
1087.000000 0.4538 0.4485 0.4439 0.4391 0.4337
1092.000000 0.4263 0.4189 0.4116 0.4043 0.3965
1097.000000 0.3859 0.3751 0.3633 0.3514 0.3389
1102.000000 0.3263 0.3180 0.3109 0.3042 0.2987
1107.000000 0.2947 0.2902 0.2949 0.2968 0.2990
1112.000000 0.3012 0.3035 0.3069 0.3103 0.3137
1117.000000 0.3165 0.3185 0.3194 0.3205 0.3226
1122.000000 0.3258 0.3344 0.3549 0.3808 0.3962
1127.000000 0.4062 0.4144 0.4224 0.4298 0.4372
1132.000000 0.4446 0.4519 0.4587 0.4650 0.4699
1137.000000 0.4746 0.4768 0.4777 0.4784 0.4771
1142.000000 0.4744 0.4697 0.4638 0.4618 0.4629
1147.000000 0.4664 0.4746 0.5014 0.5197 0.5305
1152.000000 0.5362 0.5392 0.5418 0.5439 0.5476
1157.000000 0.5584 0.5691 0.5816 0.5984 0.6084
1162.000000 0.6151 0.6216 0.6286 0.6363 0.6417
1167.000000 0.6461 0.6495 0.6504 0.6509 0.6519
1172.000000 0.6500 0.6479 0.6440 0.6358 0.6235
1177.000000 0.6107 0.5979 0.5851 0.5796 0.5803
1182.000000 0.5859 0.6056 0.6257 0.6458 0.6632
1187.000000 0.6739 0.6815 0.6872 0.6919 0.6961
1192.000000 0.7001 0.7052 0.7105 0.7145 0.7172
1197.000000 0.7196 0.7208 0.7215 0.7223 0.7230
1202.000000 0.7237 0.7245 0.7247 0.7246 0.7245
1207.000000 0.7245 0.7242 0.7231 0.7220 0.7210
1212.000000 0.7196 0.7171 0.7145 0.7117 0.7080
1217.000000 0.7043 0.7010 0.6994 0.6982 0.6978
1222.000000 0.6982 0.6984 0.6988 0.6990 0.6991
1227.000000 0.6989 0.6969 0.6943 0.6911 0.6859
1232.000000 0.6800 0.6741 0.6680 0.6602 0.6518
1237.000000 0.6434 0.6318 0.6109 0.5679 0.5250
1242.000000 0.4820 0.4392 0.3965 0.3664 0.3552
1247.000000 0.3477 0.3423 0.3417 0.3412 0.3423
1252.000000 0.3444 0.3503 0.3885 0.4331 0.4775
1257.000000 0.5218 0.5662 0.5859 0.5901 0.5909
1262.000000 0.5911 0.5914 0.5907 0.5863 0.5688
1267.000000 0.5499 0.5446 0.5446 0.5442 0.5595
1272.000000 0.5734 0.5873 0.6011 0.6154 0.6289
1277.000000 0.6391 0.6476 0.6547 0.6614 0.6667
1282.000000 0.6690 0.6696 0.6702 0.6708 0.6713
1287.000000 0.6730 0.6774 0.6832 0.6899 0.6967
1292.000000 0.7031 0.7096 0.7158 0.7207 0.7257
1297.000000 0.7305 0.7345 0.7380 0.7412 0.7427
1302.000000 0.7441 0.7456 0.7470 0.7488 0.7474
1307.000000 0.7474 0.7468 0.7455 0.7441 0.7422
1312.000000 0.7400 0.7374 0.7318 0.7253 0.7181
1317.000000 0.7109 0.6982 0.6840 0.6699 0.6558
1322.000000 0.6418 0.6277 0.6136 0.6025 0.5906
1327.000000 0.5823 0.5808 0.5796 0.5785 0.5798
1332.000000 0.5808 0.5823 0.5842 0.5875 0.5920
1337.000000 0.5974 0.6045 0.6132 0.6252 0.6393
1342.000000 0.6460 0.6502 0.6521 0.6527 0.6508
1347.000000 0.6528 0.6515 0.6489 0.6438 0.6257
1352.000000 0.6030 0.5805 0.5579 0.5355 0.5129
1357.000000 0.4905 0.4681 0.4457 0.4233 0.4010
1362.000000 0.3789 0.3669 0.3630 0.3616 0.3620
1367.000000 0.3652 0.3837 0.4063 0.4290 0.4515
1372.000000 0.4741 0.4965 0.5190 0.5415 0.5639
1377.000000 0.5863 0.6086 0.6315 0.6636 0.6821
1382.000000 0.6942 0.7036 0.7140 0.7322 0.7474
1387.000000 0.7560 0.7625 0.7661 0.7696 0.7719
1392.000000 0.7735 0.7750 0.7755 0.7755 0.7755
1397.000000 0.7754 0.7747 0.7737 0.7717 0.7675
1402.000000 0.7618 0.7557 0.7475 0.7375 0.7264
1407.000000 0.7150 0.7037 0.6923 0.6818 0.6816
1412.000000 0.6819 0.6853 0.6922 0.6993 0.7055
1417.000000 0.7071 0.7066 0.7049 0.6985 0.6787
1422.000000 0.6562 0.6353 0.6145 0.5936 0.5728
1427.000000 0.5520 0.5312 0.5105 0.4930 0.4859
1432.000000 0.4791 0.4627 0.4381 0.4212 0.4127
1437.000000 0.4035 0.3904 0.3754 0.3638 0.3538
1442.000000 0.3438 0.3336 0.3229 0.3123 0.2988
1447.000000 0.2741 0.2551 0.2420 0.2290 0.2157
1452.000000 0.1998 0.1822 0.1645 0.1469 0.1310
1457.000000 0.1313 0.1331 0.1365 0.1529 0.1722
1462.000000 0.1822 0.1891 0.1956 0.2004 0.2089
1467.000000 0.2308 0.2566 0.2823 0.3080 0.3337
1472.000000 0.3593 0.3849 0.4104 0.4359 0.4614
1477.000000 0.4884 0.5120 0.5238 0.5310 0.5347
1482.000000 0.5377 0.5384 0.5387 0.5389 0.5392
1487.000000 0.5395 0.5399 0.5405 0.5482 0.5581
1492.000000 0.5648 0.6199 0.6782 0.6947 0.7037
1497.000000 0.7102 0.7146 0.7189 0.7233 0.7276
1502.000000 0.7317 0.7357 0.7397 0.7437 0.7472
1507.000000 0.7498 0.7525 0.7551 0.7577 0.7604
1512.000000 0.7630 0.7656 0.7676 0.7691 0.7706
1517.000000 0.7721 0.7736 0.7751 0.7765 0.7780
1522.000000 0.7794 0.7809 0.7824 0.7835 0.7843
1527.000000 0.7851 0.7859 0.7867 0.7876 0.7883
1532.000000 0.7891 0.7895 0.7895 0.7896 0.7896
1537.000000 0.7897 0.7897 0.7917 0.7898 0.7898
1542.000000 0.7896 0.7889 0.7883 0.7875 0.7868
1547.000000 0.7861 0.7854 0.7847 0.7840 0.7829
1552.000000 0.7820 0.7809 0.7799 0.7790 0.7779
1557.000000 0.7767 0.7747 0.7718 0.7688 0.7655
1562.000000 0.7613 0.7566 0.7519 0.7472 0.7410
1567.000000 0.7333 0.7253 0.7167 0.7043 0.6900
1572.000000 0.6756 0.6614 0.6471 0.6328 0.6186
1577.000000 0.6058 0.6025 0.6059 0.6176 0.6032
1582.000000 0.6463 0.6606 0.6750 0.6892 0.7025
1587.000000 0.7080 0.7105 0.7130 0.7148 0.7164
1592.000000 0.7180 0.7195 0.7210 0.7227 0.7245
1597.000000 0.7264 0.7293 0.7335 0.7381 0.7446
1602.000000 0.7524 0.7583 0.7618 0.7636 0.7651
1607.000000 0.7655 0.7654 0.7653 0.7652 0.7649
1612.000000 0.7641 0.7632 0.7622 0.7611 0.7604
1617.000000 0.7598 0.7593 0.7588 0.7589 0.7591
1622.000000 0.7593 0.7595 0.7598 0.7603 0.7607
1627.000000 0.7612 0.7616 0.7620 0.7625 0.7629
1632.000000 0.7634 0.7638 0.7643 0.7647 0.7652
1637.000000 0.7656 0.7660 0.7664 0.7668 0.7672
1642.000000 0.7676 0.7679 0.7681 0.7684 0.7687
1647.000000 0.7690 0.7693 0.7695 0.7698 0.7701
1652.000000 0.7704 0.7707 0.7711 0.7714 0.7717
1657.000000 0.7720 0.7724 0.7728 0.7731 0.7735
1662.000000 0.7739 0.7742 0.7746 0.7749 0.7753
1667.000000 0.7757 0.7760 0.7763 0.7765 0.7767
1672.000000 0.7770 0.7773 0.7775 0.7777 0.7780
1677.000000 0.7782 0.7784 0.7787 0.7789 0.7791
1682.000000 0.7794 0.7797 0.7800 0.7804 0.7807
1687.000000 0.7811 0.7815 0.7819 0.7822 0.7826
1692.000000 0.7829 0.7832 0.7835 0.7837 0.7838
1697.000000 0.7840 0.7843 0.7845 0.7846 0.7848
1702.000000 0.7851 0.7853 0.7854 0.7856 0.7858
1707.000000 0.7860 0.7862 0.7862 0.7860 0.7858
1712.000000 0.7856 0.7854 0.7852 0.7850 0.7848
1717.000000 0.7847 0.7845 0.7844 0.7842 0.7841
1722.000000 0.7840 0.7839 0.7838 0.7837 0.7836
1727.000000 0.7835 0.7833 0.7832 0.7832 0.7830
1732.000000 0.7830 0.7830 0.7831 0.7832 0.7832
1737.000000 0.7834 0.7835 0.7836 0.7837 0.7838
1742.000000 0.7838 0.7839 0.7840 0.7841 0.7842
1747.000000 0.7843 0.7844 0.7845 0.7846 0.7847
1752.000000 0.7848 0.7848 0.7850 0.7852 0.7854
1757.000000 0.7856 0.7858 0.7865 0.7862 0.7865
1762.000000 0.7867 0.7868 0.7871 0.7873 0.7875
1767.000000 0.7877 0.7879 0.7881 0.7883 0.7885
1772.000000 0.7887 0.7889 0.7892 0.7894 0.7896
1777.000000 0.7898 0.7900 0.7902 0.7904 0.7906
1782.000000 0.7907 0.7907 0.7908 0.7909 0.7909
1787.000000 0.7910 0.7910 0.7910 0.7911 0.7911
1792.000000 0.7911 0.7912 0.7912 0.7913 0.7913
1797.000000 0.7913 0.7914 0.7914 0.7915 0.7915
1802.000000 0.7915 0.7916 0.7916 0.7916 0.7916
1807.000000 0.7915 0.7915 0.7914 0.7914 0.7913
1812.000000 0.7913 0.7912 0.7912 0.7911 0.7911
1817.000000 0.7910 0.7910 0.7909 0.7909 0.7908
1822.000000 0.7908 0.7907 0.7907 0.7906 0.7906
1827.000000 0.7905 0.7905 0.7904 0.7904 0.7903
1832.000000 0.7903 0.7902 0.7902 0.7901 0.7901
1837.000000 0.7900 0.7900 0.7899 0.7899 0.7898
1842.000000 0.7897 0.7895 0.7894 0.7894 0.7892
1847.000000 0.7891 0.7889 0.7888 0.7886 0.7885
1852.000000 0.7883 0.7882 0.7881 0.7880 0.7878
1857.000000 0.7877 0.7876 0.7874 0.7873 0.7871
1862.000000 0.7870 0.7868 0.7868 0.7866 0.7864
1867.000000 0.7862 0.7859 0.7858 0.7856 0.7854
1872.000000 0.7852 0.7850 0.7849 0.7847 0.7844
1877.000000 0.7842 0.7840 0.7838 0.7837 0.7835
1882.000000 0.7833 0.7831 0.7828 0.7827 0.7825
1887.000000 0.7823 0.7821 0.7818 0.7816 0.7814
1892.000000 0.7812 0.7809 0.7806 0.7804 0.7802
1897.000000 0.7799 0.7797 0.7794 0.7792 0.7790
1902.000000 0.7787 0.7785 0.7783 0.7780 0.7777
1907.000000 0.7775 0.7773 0.7771 0.7768 0.7766
1912.000000 0.7764 0.7761 0.7758 0.7755 0.7753
1917.000000 0.7750 0.7747 0.7745 0.7742 0.7739
1922.000000 0.7736 0.7734 0.7731 0.7728 0.7726
1927.000000 0.7723 0.7720 0.7718 0.7715 0.7712
1932.000000 0.7709 0.7707 0.7704 0.7701 0.7699
1937.000000 0.7696 0.7693 0.7690 0.7686 0.7680
1942.000000 0.7675 0.7670 0.7665 0.7659 0.7654
1947.000000 0.7649 0.7643 0.7638 0.7633 0.7628
1952.000000 0.7622 0.7617 0.7612 0.7607 0.7601
1957.000000 0.7596 0.7591 0.7586 0.7579 0.7572
1962.000000 0.7565 0.7558 0.7551 0.7544 0.7537
1967.000000 0.7530 0.7523 0.7516 0.7509 0.7502
1972.000000 0.7495 0.7489 0.7482 0.7475 0.7468
1977.000000 0.7460 0.7453 0.7446 0.7440 0.7433
1982.000000 0.7426 0.7419 0.7412 0.7405 0.7398
1987.000000 0.7391 0.7384 0.7378 0.7371 0.7365
1992.000000 0.7358 0.7351 0.7344 0.7338 0.7332
1997.000000 0.7325 0.7319 0.7313 0.7307 0.7301
2002.000000 0.7295 0.7289 0.7283 0.7276 0.7270
2007.000000 0.7264 0.7258 0.7252 0.7246 0.7240
2012.000000 0.7234 0.7228 0.7222 0.7215 0.7209
2017.000000 0.7203 0.7197 0.7192 0.7186 0.7180
2022.000000 0.7173 0.7167 0.7161 0.7155 0.7149
2027.000000 0.7144 0.7138 0.7132 0.7126 0.7120
2032.000000 0.7114 0.7108 0.7102 0.7096 0.7089
2037.000000 0.7083 0.7077 0.7070 0.7063 0.7056
2042.000000 0.7049 0.7042 0.7035 0.7028 0.7021
2047.000000 0.7014 0.7007 0.7001 0.6994 0.6987
2052.000000 0.6980 0.6973 0.6966 0.6959 0.6953
2057.000000 0.6946 0.6939 0.6932 0.6925 0.6919
2062.000000 0.6911 0.6905 0.6898 0.6891 0.6884
2067.000000 0.6878 0.6871 0.6864 0.6857 0.6850
2072.000000 0.6844 0.6837 0.6830 0.6824 0.6817
2077.000000 0.6810 0.6803 0.6797 0.6791 0.6784
2082.000000 0.6777 0.6770 0.6763 0.6757 0.6750
2087.000000 0.6743 0.6736 0.6729 0.6723 0.6716
2092.000000 0.6710 0.6703 0.6696 0.6689 0.6683
2097.000000 0.6676 0.6670 0.6663 0.6656 0.6649
2102.000000 0.6643 0.6636 0.6630 0.6623 0.6617
2107.000000 0.6610 0.6603 0.6596 0.6590 0.6584
2112.000000 0.6577 0.6570 0.6564 0.6557 0.6550
2117.000000 0.6544 0.6537 0.6531 0.6524 0.6518
2122.000000 0.6511 0.6505 0.6499 0.6492 0.6486
2127.000000 0.6479 0.6472 0.6466 0.6459 0.6453
2132.000000 0.6447 0.6441 0.6435 0.6429 0.6423
2137.000000 0.6417 0.6412 0.6406 0.6400 0.6394
2142.000000 0.6388 0.6382 0.6377 0.6371 0.6365
2147.000000 0.6359 0.6353 0.6348 0.6342 0.6336
2152.000000 0.6330 0.6324 0.6319 0.6313 0.6308
2157.000000 0.6302 0.6296 0.6290 0.6285 0.6279
2162.000000 0.6273 0.6267 0.6261 0.6256 0.6251
2167.000000 0.6245 0.6239 0.6233 0.6227 0.6222
2172.000000 0.6217 0.6211 0.6205 0.6199 0.6193
2177.000000 0.6188 0.6182 0.6177 0.6173 0.6169
2182.000000 0.6164 0.6160 0.6156 0.6151 0.6147
2187.000000 0.6142 0.6138 0.6134 0.6130 0.6126
2192.000000 0.6122 0.6117 0.6113 0.6108 0.6104
2197.000000 0.6100 0.6096 0.6092 0.6087 0.6083
2202.000000 0.6079 0.6075 0.6070 0.6066 0.6062
2207.000000 0.6058 0.6053 0.6049 0.6045 0.6041
2212.000000 0.6037 0.6033 0.6028 0.6024 0.6020
2217.000000 0.6016 0.6012 0.6008 0.6004 0.6000
2222.000000 0.5996 0.5994 0.5991 0.5988 0.5985
2227.000000 0.5982 0.5980 0.5977 0.5974 0.5971
2232.000000 0.5968 0.5965 0.5963 0.5960 0.5957
2237.000000 0.5954 0.5952 0.5949 0.5946 0.5943
2242.000000 0.5941 0.5938 0.5935 0.5932 0.5930
2247.000000 0.5927 0.5924 0.5922 0.5919 0.5917
2252.000000 0.5915 0.5913 0.5912 0.5910 0.5909
2257.000000 0.5908 0.5907 0.5906 0.5904 0.5903
2262.000000 0.5901 0.5900 0.5898 0.5897 0.5895
2267.000000 0.5894 0.5892 0.5891 0.5889 0.5888
2272.000000 0.5887 0.5885 0.5884 0.5883 0.5882
2277.000000 0.5881 0.5881 0.5880 0.5880 0.5880
2282.000000 0.5880 0.5880 0.5879 0.5879 0.5878
2287.000000 0.5878 0.5877 0.5877 0.5876 0.5876
2292.000000 0.5876 0.5876 0.5875 0.5875 0.5874
2297.000000 0.5874 0.5873 0.5873 0.5872 0.5872
2302.000000 0.5872 0.5872 0.5872 0.5871 0.5871
2307.000000 0.5870 0.5870 0.5869 0.5869 0.5869
2312.000000 0.5869 0.5868 0.5868 0.5867 0.5867
2317.000000 0.5866 0.5866 0.5866 0.5866 0.5866
2322.000000 0.5865 0.5865 0.5838 0.5864 0.5864
2327.000000 0.5864 0.5863 0.5863 0.5862 0.5862
2332.000000 0.5862 0.5862 0.5862 0.5861 0.5861
2337.000000 0.5861 0.5861 0.5861 0.5863 0.5865
2342.000000 0.5866 0.5867 0.5869 0.5871 0.5873
2347.000000 0.5874 0.5875 0.5877 0.5878 0.5880
2352.000000 0.5882 0.5883 0.5884 0.5886 0.5888
2357.000000 0.5889 0.5891 0.5892 0.5894 0.5896
2362.000000 0.5897 0.5899 0.5900 0.5902 0.5904
2367.000000 0.5907 0.5909 0.5911 0.5913 0.5915
2372.000000 0.5918 0.5920 0.5922 0.5924 0.5927
2377.000000 0.5929 0.5931 0.5933 0.5935 0.5938
2382.000000 0.5940 0.5943 0.5945 0.5947 0.5950
2387.000000 0.5952 0.5954 0.5956 0.5958 0.5961
2392.000000 0.5964 0.5968 0.5971 0.5974 0.5977
2397.000000 0.5980 0.5983 0.5986 0.5989 0.5992
2402.000000 0.5995 0.5998 0.6001 0.6004 0.6007
2407.000000 0.6010 0.6013 0.6016 0.6019 0.6022
2412.000000 0.6025 0.6028 0.6031 0.6034 0.6037
2417.000000 0.6041 0.6044 0.6048 0.6052 0.6056
2422.000000 0.6060 0.6063 0.6067 0.6071 0.6075
2427.000000 0.6079 0.6083 0.6086 0.6090 0.6094
2432.000000 0.6098 0.6102 0.6105 0.6109 0.6113
2437.000000 0.6117 0.6121 0.6124 0.6128 0.6131
2442.000000 0.6134 0.6138 0.6141 0.6145 0.6149
2447.000000 0.6152 0.6156 0.6159 0.6162 0.6166
2452.000000 0.6169 0.6172 0.6176 0.6179 0.6182
2457.000000 0.6185 0.6189 0.6192 0.6196 0.6200
2462.000000 0.6203 0.6206 0.6210 0.6213 0.6216
2467.000000 0.6219 0.6223 0.6226 0.6229 0.6233
2472.000000 0.6237 0.6240 0.6243 0.6247 0.6250
2477.000000 0.6253 0.6257 0.6260 0.6264 0.6268
2482.000000 0.6273 0.6277 0.6281 0.6285 0.6290
2487.000000 0.6294 0.6298 0.6302 0.6306 0.6311
2492.000000 0.6315 0.6320 0.6324 0.6328 0.6332
2497.000000 0.6336 0.6340 0.6343 0.6346 0.6346
2502.000000 0.6347 0.6368 0.6348 0.6348 0.6349
2507.000000 0.6349 0.6348 0.6346 0.6344 0.6341
2512.000000 0.6339 0.6336 0.6334 0.6331 0.6328
2517.000000 0.6325 0.6323 0.6320 0.6318 0.6315
2522.000000 0.6312 0.6309 0.6305 0.6301 0.6296
2527.000000 0.6290 0.6284 0.6278 0.6273 0.6267
2532.000000 0.6261 0.6255 0.6249 0.6243 0.6237
2537.000000 0.6230 0.6223 0.6216 0.6210 0.6203
2542.000000 0.6197 0.6190 0.6183 0.6177 0.6170
2547.000000 0.6164 0.6157 0.6151 0.6146 0.6141
2552.000000 0.6135 0.6130 0.6124 0.6119 0.6114
2557.000000 0.6109 0.6104 0.6099 0.6093 0.6088
2562.000000 0.6083 0.6077 0.6072 0.6067 0.6061
2567.000000 0.6056 0.6053 0.6049 0.6045 0.6041
2572.000000 0.6038 0.6034 0.6030 0.6026 0.6022
2577.000000 0.6019 0.6015 0.6011 0.6007 0.6003
2582.000000 0.5999 0.5995 0.5991 0.5988 0.5984
2587.000000 0.5981 0.5977 0.5975 0.5973 0.5971
2592.000000 0.5969 0.5967 0.5965 0.5963 0.5962
2597.000000 0.5959 0.5957 0.5955 0.5953 0.5951
2602.000000 0.5949 0.5947 0.5945 0.5943 0.5941
2607.000000 0.5939 0.5937 0.5936 0.5934 0.5931
2612.000000 0.5929 0.5927 0.5925 0.5924 0.5922
2617.000000 0.5920 0.5918 0.5916 0.5914 0.5912
2622.000000 0.5911 0.5910 0.5909 0.5908 0.5908
2627.000000 0.5907 0.5906 0.5905 0.5905 0.5904
2632.000000 0.5903 0.5902 0.5902 0.5901 0.5900
2637.000000 0.5900 0.5899 0.5898 0.5897 0.5897
2642.000000 0.5896 0.5895 0.5895 0.5894 0.5893
2647.000000 0.5892 0.5892 0.5891 0.5891 0.5891
2652.000000 0.5891 0.5891 0.5892 0.5892 0.5893
2657.000000 0.5894 0.5894 0.5895 0.5896 0.5897
2662.000000 0.5897 0.5898 0.5899 0.5899 0.5900
2667.000000 0.5901 0.5901 0.5904 0.5906 0.5909
2672.000000 0.5911 0.5913 0.5915 0.5917 0.5920
2677.000000 0.5922 0.5924 0.5926 0.5929 0.5931
2682.000000 0.5934 0.5936 0.5938 0.5941 0.5942
2687.000000 0.5942 0.5942 0.5941 0.5941 0.5941
2692.000000 0.5940 0.5940 0.5939 0.5937 0.5934
2697.000000 0.5931 0.5928 0.5925 0.5922 0.5919
2702.000000 0.5916 0.5913 0.5907 0.5900 0.5894
2707.000000 0.5888 0.5881 0.5874 0.5865 0.5857
2712.000000 0.5848 0.5839 0.5830 0.5820 0.5811
2717.000000 0.5801 0.5791 0.5780 0.5768 0.5757
2722.000000 0.5744 0.5732 0.5720 0.5707 0.5695
2727.000000 0.5675 0.5653 0.5630 0.5607 0.5584
2732.000000 0.5561 0.5534 0.5507 0.5479 0.5448
2737.000000 0.5416 0.5384 0.5351 0.5319 0.5287
2742.000000 0.5234 0.5176 0.5117 0.5038 0.4953
2747.000000 0.4867 0.4814 0.4772 0.4730 0.4694
2752.000000 0.4660 0.4626 0.4594 0.4562 0.4531
2757.000000 0.4500 0.4470 0.4439 0.4409 0.4378
2762.000000 0.4348 0.4305 0.4254 0.4203 0.4109
2767.000000 0.3975 0.3841 0.3707 0.3574 0.3441
2772.000000 0.3308 0.3174 0.3041 0.2908 0.2775
2777.000000 0.2643 0.2510 0.2377 0.2245 0.2112
2782.000000 0.1980 0.1847 0.1715 0.1583 0.1451
2787.000000 0.1319 0.1263 0.1213 0.1163 0.1147
2792.000000 0.1139 0.1132 0.1129 0.1128 0.1128
2797.000000 0.1128 0.1128 0.1128 0.1129 0.1129
2802.000000 0.1129 0.1129 0.1129 0.1129 0.1129
2807.000000 0.1129 0.1129 0.1128 0.1127 0.1126
2812.000000 0.1125 0.1123 0.1122 0.1120 0.1118
2817.000000 0.1117 0.1115 0.1113 0.1111 0.1109
2822.000000 0.1106 0.1103 0.1099 0.1096 0.1093
2827.000000 0.1090 0.1087 0.1083 0.1080 0.1076
2832.000000 0.1072 0.1067 0.1063 0.1056 0.1047
2837.000000 0.1038 0.1030 0.1021 0.1012 0.1002
2842.000000 0.0984 0.0966 0.0948 0.0933 0.0917
2847.000000 0.0902 0.0890 0.0880 0.0870 0.0860
2852.000000 0.0850 0.0839 0.0830 0.0822 0.0814
2857.000000 0.0806 0.0799 0.0793 0.0787 0.0784
2862.000000 0.0784 0.0784 0.0783 0.0783 0.0783
2867.000000 0.0782 0.0782 0.0782 0.0782 0.0782
2872.000000 0.0783 0.0783 0.0784 0.0785 0.0786
2877.000000 0.0788 0.0789 0.0791 0.0792 0.0797
2882.000000 0.0802 0.0807 0.0813 0.0820 0.0827
2887.000000 0.0834 0.0843 0.0851 0.0860 0.0869
2892.000000 0.0877 0.0886 0.0895 0.0904 0.0913
2897.000000 0.0922 0.0933 0.0943 0.0954 0.0966
2902.000000 0.0979 0.0991 0.1025 0.1091 0.1158
2907.000000 0.1225 0.1333 0.1441 0.1549 0.1658
2912.000000 0.1766 0.1874 0.1982 0.2090 0.2197
2917.000000 0.2305 0.2413 0.2520 0.2628 0.2736
2922.000000 0.2843 0.2950 0.3057 0.3164 0.3271
2927.000000 0.3379 0.3485 0.3592 0.3699 0.3805
2932.000000 0.3912 0.4018 0.4125 0.4231 0.4337
2937.000000 0.4444 0.4550 0.4656 0.4762 0.4868
2942.000000 0.5004 0.5148 0.5291 0.5395 0.5428
2947.000000 0.5462 0.5496 0.5509 0.5520 0.5530
2952.000000 0.5541 0.5552 0.5563 0.5574 0.5585
2957.000000 0.5596 0.5608 0.5620 0.5632 0.5643
2962.000000 0.5655 0.5667 0.5679 0.5691 0.5703
2967.000000 0.5715 0.5727 0.5739 0.5751 0.5762
2972.000000 0.5774 0.5786 0.5798 0.5809 0.5821
2977.000000 0.5829 0.5836 0.5843 0.5850 0.5857
2982.000000 0.5864 0.5871 0.5877 0.5884 0.5891
2987.000000 0.5897 0.5904 0.5911 0.5918 0.5924
2992.000000 0.5931 0.5938 0.5945 0.5952 0.5959
2997.000000 0.5965 0.5974 0.5985 0.5997 0.6008
3002.000000 0.6020 0.6032 0.6045 0.6057 0.6069
3007.000000 0.6081 0.6093 0.6105 0.6117 0.6129
3012.000000 0.6141 0.6149 0.6158 0.6166 0.6174
3017.000000 0.6180 0.6186 0.6192 0.6199 0.6205
3022.000000 0.6211 0.6218 0.6224 0.6230 0.6237
3027.000000 0.6243 0.6249 0.6256 0.6263 0.6268
3032.000000 0.6273 0.6278 0.6284 0.6287 0.6291
3037.000000 0.6294 0.6298 0.6301 0.6305 0.6308
3042.000000 0.6311 0.6313 0.6316 0.6318 0.6320
3047.000000 0.6321 0.6322 0.6324 0.6325 0.6326
3052.000000 0.6328 0.6329 0.6331 0.6332 0.6333
3057.000000 0.6335 0.6336 0.6337 0.6339 0.6340
3062.000000 0.6341 0.6343 0.6361 0.6345 0.6345
3067.000000 0.6346 0.6347 0.6348 0.6349 0.6349
3072.000000 0.6350 0.6351 0.6352 0.6352 0.6353
3077.000000 0.6354 0.6354 0.6355 0.6355 0.6356
3082.000000 0.6356 0.6356 0.6356 0.6355 0.6355
3087.000000 0.6354 0.6354 0.6353 0.6353 0.6352
3092.000000 0.6352 0.6351 0.6351 0.6350 0.6349
3097.000000 0.6348 0.6347 0.6347 0.6346 0.6346
3102.000000 0.6345 0.6345 0.6344 0.6344 0.6343
3107.000000 0.6343 0.6342 0.6342 0.6341 0.6340
3112.000000 0.6340 0.6339 0.6338 0.6338 0.6337
3117.000000 0.6337 0.6336 0.6335 0.6334 0.6334
3122.000000 0.6333 0.6332 0.6331 0.6331 0.6330
3127.000000 0.6329 0.6329 0.6328 0.6328 0.6327
3132.000000 0.6326 0.6325 0.6325 0.6324 0.6324
3137.000000 0.6324 0.6324 0.6324 0.6324 0.6325
3142.000000 0.6325 0.6326 0.6327 0.6328 0.6329
3147.000000 0.6329 0.6330 0.6331 0.6332 0.6332
3152.000000 0.6333 0.6334 0.6334 0.6335 0.6335
3157.000000 0.6336 0.6337 0.6337 0.6338 0.6339
3162.000000 0.6340 0.6340 0.6341 0.6343 0.6345
3167.000000 0.6348 0.6351 0.6354 0.6357 0.6360
3172.000000 0.6363 0.6366 0.6368 0.6371 0.6374
3177.000000 0.6377 0.6380 0.6383 0.6386 0.6389
3182.000000 0.6392 0.6396 0.6400 0.6404 0.6408
3187.000000 0.6413 0.6417 0.6421 0.6426 0.6430
3192.000000 0.6435 0.6439 0.6444 0.6448 0.6452
3197.000000 0.6457 0.6461 0.6466 0.6471 0.6475
3202.000000 0.6481 0.6486 0.6491 0.6497 0.6502
3207.000000 0.6508 0.6514 0.6519 0.6525 0.6530
3212.000000 0.6535 0.6541 0.6546 0.6552 0.6558
3217.000000 0.6564 0.6570 0.6576 0.6583 0.6589
3222.000000 0.6596 0.6603 0.6610 0.6618 0.6626
3227.000000 0.6636 0.6647 0.6658 0.6669 0.6685
3232.000000 0.6700 0.6716 0.6732 0.6747 0.6762
3237.000000 0.6777 0.6792 0.6803 0.6812 0.6820
3242.000000 0.6829 0.6836 0.6843 0.6849 0.6855
3247.000000 0.6861 0.6867 0.6874 0.6880 0.6887
3252.000000 0.6893 0.6899 0.6906 0.6912 0.6917
3257.000000 0.6922 0.6927 0.6931 0.6935 0.6939
3262.000000 0.6942 0.6946 0.6949 0.6953 0.6956
3267.000000 0.6959 0.6963 0.6966 0.6970 0.6973
3272.000000 0.6977 0.6980 0.6983 0.6986 0.6990
3277.000000 0.6993 0.6997 0.7001 0.7004 0.7008
3282.000000 0.7012 0.7016 0.7020 0.7024 0.7028
3287.000000 0.7031 0.7035 0.7039 0.7042 0.7046
3292.000000 0.7050 0.7054 0.7057 0.7061 0.7065
3297.000000 0.7068 0.7072 0.7076 0.7079 0.7083
3302.000000 0.7087 0.7090 0.7094 0.7098 0.7101
3307.000000 0.7105 0.7109 0.7112 0.7116 0.7120
3312.000000 0.7125 0.7130 0.7136 0.7142 0.7148
3317.000000 0.7156 0.7163 0.7171 0.7178 0.7186
3322.000000 0.7193 0.7201 0.7208 0.7215 0.7223
3327.000000 0.7230 0.7238 0.7246 0.7258 0.7271
3332.000000 0.7283 0.7295 0.7308 0.7320 0.7333
3337.000000 0.7346 0.7358 0.7370 0.7382 0.7394
3342.000000 0.7406 0.7417 0.7428 0.7439 0.7450
3347.000000 0.7461 0.7472 0.7483 0.7494 0.7504
3352.000000 0.7513 0.7520 0.7528 0.7536 0.7544
3357.000000 0.7552 0.7559 0.7567 0.7575 0.7583
3362.000000 0.7590 0.7598 0.7606 0.7614 0.7621
3367.000000 0.7629 0.7637 0.7644 0.7652 0.7659
3372.000000 0.7667 0.7674 0.7682 0.7688 0.7694
3377.000000 0.7701 0.7707 0.7712 0.7717 0.7722
3382.000000 0.7727 0.7732 0.7737 0.7741 0.7746
3387.000000 0.7751 0.7756 0.7761 0.7765 0.7770
3392.000000 0.7775 0.7779 0.7784 0.7789 0.7793
3397.000000 0.7798 0.7803 0.7807 0.7812 0.7817
3402.000000 0.7822 0.7826 0.7831 0.7836 0.7841
3407.000000 0.7845 0.7850 0.7855 0.7859 0.7864
3412.000000 0.7869 0.7874 0.7878 0.7883 0.7888
3417.000000 0.7893 0.7897 0.7902 0.7907 0.7911
3422.000000 0.7916 0.7921 0.7925 0.7930 0.7935
3427.000000 0.7939 0.7944 0.7949 0.7954 0.7958
3432.000000 0.7963 0.7968 0.7972 0.7977 0.7982
3437.000000 0.7986 0.7991 0.7995 0.8000 0.8005
3442.000000 0.8009 0.8014 0.8019 0.8023 0.8028
3447.000000 0.8033 0.8037 0.8042 0.8046 0.8051
3452.000000 0.8056 0.8060 0.8065 0.8070 0.8074
3457.000000 0.8079 0.8083 0.8086 0.8089 0.8092
3462.000000 0.8096 0.8098 0.8101 0.8103 0.8106
3467.000000 0.8108 0.8111 0.8113 0.8116 0.8118
3472.000000 0.8121 0.8123 0.8126 0.8128 0.8131
3477.000000 0.8133 0.8136 0.8138 0.8140 0.8142
3482.000000 0.8145 0.8147 0.8150 0.8152 0.8155
3487.000000 0.8157 0.8160 0.8162 0.8165 0.8167
3492.000000 0.8169 0.8172 0.8174 0.8176 0.8178
3497.000000 0.8181 0.8183 0.8186 0.8188 0.8191
3502.000000 0.8193 0.8195 0.8197 0.8200 0.8202
3507.000000 0.8203 0.8204 0.8205 0.8206 0.8207
3512.000000 0.8208 0.8210 0.8211 0.8212 0.8213
3517.000000 0.8215 0.8216 0.8217 0.8218 0.8219
3522.000000 0.8220 0.8221 0.8222 0.8223 0.8224
3527.000000 0.8226 0.8227 0.8228 0.8229 0.8230
3532.000000 0.8224 0.8233 0.8234 0.8235 0.8236
3537.000000 0.8237 0.8238 0.8239 0.8240 0.8241
3542.000000 0.8241 0.8241 0.8241 0.8241 0.8241
3547.000000 0.8240 0.8240 0.8239 0.8239 0.8239
3552.000000 0.8238 0.8237 0.8237 0.8236 0.8236
3557.000000 0.8235 0.8235 0.8234 0.8234 0.8234
3562.000000 0.8233 0.8232 0.8232 0.8231 0.8231
3567.000000 0.8230 0.8230 0.8229 0.8228 0.8228
3572.000000 0.8227 0.8227 0.8226 0.8226 0.8226
3577.000000 0.8225 0.8225 0.8224 0.8223 0.8223
3582.000000 0.8222 0.8222 0.8221 0.8221 0.8220
3587.000000 0.8219 0.8219 0.8218 0.8217 0.8216
3592.000000 0.8215 0.8214 0.8213 0.8212 0.8211
3597.000000 0.8210 0.8208 0.8207 0.8206 0.8205
3602.000000 0.8204 0.8203 0.8202 0.8200 0.8199
3607.000000 0.8198 0.8197 0.8196 0.8195 0.8193
3612.000000 0.8192 0.8191 0.8190 0.8189 0.8188
3617.000000 0.8187 0.8186 0.8185 0.8184 0.8183
3622.000000 0.8182 0.8181 0.8180 0.8178 0.8177
3627.000000 0.8176 0.8175 0.8174 0.8172 0.8171
3632.000000 0.8170 0.8168 0.8167 0.8166 0.8164
3637.000000 0.8163 0.8162 0.8161 0.8159 0.8158
3642.000000 0.8157 0.8155 0.8154 0.8153 0.8152
3647.000000 0.8150 0.8149 0.8148 0.8147 0.8146
3652.000000 0.8144 0.8143 0.8142 0.8140 0.8139
3657.000000 0.8138 0.8137 0.8135 0.8134 0.8133
3662.000000 0.8131 0.8130 0.8129 0.8127 0.8126
3667.000000 0.8125 0.8123 0.8122 0.8121 0.8120
3672.000000 0.8118 0.8117 0.8116 0.8114 0.8113
3677.000000 0.8112 0.8111 0.8109 0.8108 0.8107
3682.000000 0.8105 0.8104 0.8103 0.8101 0.8100
3687.000000 0.8099 0.8098 0.8096 0.8095 0.8094
3692.000000 0.8092 0.8091 0.8090 0.8089 0.8087
3697.000000 0.8086 0.8085 0.8084 0.8082 0.8081
3702.000000 0.8080 0.8078 0.8077 0.8076 0.8075
3707.000000 0.8073 0.8072 0.8071 0.8069 0.8068
3712.000000 0.8067 0.8066 0.8064 0.8063 0.8062
3717.000000 0.8061 0.8059 0.8058 0.8057 0.8056
3722.000000 0.8054 0.8053 0.8052 0.8050 0.8049
3727.000000 0.8048 0.8047 0.8045 0.8044 0.8043
3732.000000 0.8042 0.8040 0.8039 0.8038 0.8037
3737.000000 0.8035 0.8034 0.8033 0.8032 0.8031
3742.000000 0.8030 0.8029 0.8028 0.8028 0.8027
3747.000000 0.8026 0.8026 0.8025 0.8024 0.8023
3752.000000 0.8023 0.8022 0.8021 0.8020 0.8020
3757.000000 0.8019 0.8018 0.8017 0.8016 0.8015
3762.000000 0.8015 0.8014 0.8013 0.8013 0.8012
3767.000000 0.8011 0.8010 0.8010 0.8009 0.8008
3772.000000 0.8008 0.8007 0.8006 0.8006 0.8005
3777.000000 0.8004 0.8003 0.8003 0.8002 0.8001
3782.000000 0.8001 0.8000 0.7999 0.7998 0.7997
3787.000000 0.7996 0.7995 0.7995 0.7994 0.7994
3792.000000 0.7993 0.7993 0.7993 0.7993 0.7993
3797.000000 0.7993 0.7993 0.7993 0.7993 0.7993
3802.000000 0.7993 0.7993 0.7993 0.7993 0.7992
3807.000000 0.7992 0.7992 0.7992 0.7992 0.7992
3812.000000 0.7992 0.7992 0.7992 0.7992 0.7992
3817.000000 0.7992 0.7992 0.7992 0.7992 0.7992
3822.000000 0.7992 0.7991 0.7991 0.7991 0.7991
3827.000000 0.7991 0.7991 0.7991 0.7991 0.7991
3832.000000 0.7991 0.7991 0.7991 0.7990 0.7990
3837.000000 0.7990 0.7989 0.7989 0.7989 0.7988
3842.000000 0.7987 0.7986 0.7985 0.7984 0.7984
3847.000000 0.7983 0.7982 0.7981 0.7980 0.7979
3852.000000 0.7978 0.7977 0.7976 0.7975 0.7974
3857.000000 0.7973 0.7972 0.7971 0.7970 0.7969
3862.000000 0.7967 0.7966 0.7965 0.7964 0.7963
3867.000000 0.7962 0.7961 0.7960 0.7959 0.7958
3872.000000 0.7956 0.7955 0.7953 0.7952 0.7950
3877.000000 0.7948 0.7946 0.7944 0.7942 0.7940
3882.000000 0.7938 0.7937 0.7935 0.7933 0.7931
3887.000000 0.7929 0.7928 0.7926 0.7924 0.7922
3892.000000 0.7920 0.7918 0.7916 0.7914 0.7912
3897.000000 0.7910 0.7908 0.7907 0.7905 0.7903
3902.000000 0.7901 0.7899 0.7897 0.7895 0.7893
3907.000000 0.7891 0.7889 0.7888 0.7886 0.7884
3912.000000 0.7882 0.7880 0.7878 0.7876 0.7874
3917.000000 0.7872 0.7870 0.7869 0.7867 0.7865
3922.000000 0.7863 0.7861 0.7860 0.7858 0.7856
3927.000000 0.7854 0.7853 0.7851 0.7849 0.7847
3932.000000 0.7845 0.7843 0.7841 0.7839 0.7837
3937.000000 0.7835 0.7832 0.7830 0.7828 0.7826
3942.000000 0.7824 0.7822 0.7820 0.7818 0.7816
3947.000000 0.7814 0.7812 0.7809 0.7807 0.7805
3952.000000 0.7803 0.7801 0.7798 0.7796 0.7794
3957.000000 0.7792 0.7790 0.7788 0.7786 0.7784
3962.000000 0.7781 0.7779 0.7777 0.7775 0.7773
3967.000000 0.7771 0.7769 0.7767 0.7765 0.7763
3972.000000 0.7761 0.7759 0.7757 0.7755 0.7753
3977.000000 0.7750 0.7748 0.7746 0.7744 0.7742
3982.000000 0.7740 0.7738 0.7736 0.7734 0.7732
3987.000000 0.7730 0.7728 0.7726 0.7723 0.7721
3992.000000 0.7719 0.7717 0.7715 0.7713 0.7711
3997.000000 0.7709 0.7707 0.7705 0.7703
##END=
