##TITLE=L-SERINE, METHYL ESTER, HYDROCHLORIDE
##JCAMP-DX=4.24
$$ By DXEDIT 1.05 (RS McDonald)
##DATA TYPE=INFRARED SPECTRUM
##CLASS=COBLENTZ II
##ORIGIN=DOW CHEMICAL COMPANY
##OWNER=COBLENTZ SOC.
Collection (C) 2018 copyright by the U.S. Secretary of Commerce
on behalf of the United States of America. All rights reserved.
##DATE=1963/10/22
##NAMES=methyl 2-amino-3-hydroxypropanoate hydrochloride
##MOLFORM=C4 H10 Cl N O3
##SOURCE REFERENCE=COBLENTZ NO. 05762
##$NIST ID=B6005762
##$NIST SOURCE=COBLENTZ
##$NIST IMAGE=cob5762
##SPECTROMETER/DATA SYSTEM=DOW KBr FOREPRISM-GRATING
##INSTRUMENT PARAMETERS=BLAZED AT 3.5, 12.0, 20.0 MICRON AND CHANGED AT 5.0, 7.5, 14.9 MICRON
##STATE=SOLID (SPLIT MULL)
##SAMPLING PROCEDURE=TRANSMISSION
##RESOLUTION=2
##DATA PROCESSING=DIGITIZED BY COBLENTZ SOCIETY (BATCH I) FROM HARD COPY
##XUNITS=1/CM
##YUNITS=TRANSMITTANCE
##XLABEL=Wavenumbers (cm-1)
##YLABEL=% Transmission
##XFACTOR=1
##YFACTOR=1
##DELTAX=1
##FIRSTX=3802
##LASTX=380
##FIRSTY=0.7795
##MAXX=3802
##MINX=380
##MAXY=0.9355
##MINY=0.074
##NPOINTS=3423
##XYDATA=(X++(Y..Y))
3802.000000 0.7795 0.7796 0.7798 0.7801 0.7805
3797.000000 0.7808 0.7811 0.7815 0.7818 0.7821
3792.000000 0.7825 0.7828 0.7832 0.7835 0.7839
3787.000000 0.7844 0.7849 0.7854 0.7860 0.7865
3782.000000 0.7871 0.7875 0.7882 0.7888 0.7894
3777.000000 0.7899 0.7905 0.7911 0.7917 0.7921
3772.000000 0.7928 0.7933 0.7938 0.7938 0.7939
3767.000000 0.7939 0.7940 0.7940 0.7941 0.7941
3762.000000 0.7941 0.7941 0.7942 0.7942 0.7943
3757.000000 0.7943 0.7943 0.7943 0.7944 0.7945
3752.000000 0.7947 0.7948 0.7950 0.7951 0.7953
3747.000000 0.7955 0.7957 0.7958 0.7960 0.7961
3742.000000 0.7962 0.7964 0.7965 0.7968 0.7969
3737.000000 0.7971 0.7974 0.7976 0.7981 0.7985
3732.000000 0.7989 0.7992 0.7996 0.7999 0.8003
3727.000000 0.8006 0.8010 0.8014 0.8018 0.8021
3722.000000 0.8025 0.8028 0.8032 0.8035 0.8039
3717.000000 0.8043 0.8047 0.8050 0.8054 0.8057
3712.000000 0.8061 0.8064 0.8068 0.8071 0.8074
3707.000000 0.8076 0.8081 0.8084 0.8088 0.8091
3702.000000 0.8094 0.8097 0.8101 0.8104 0.8107
3697.000000 0.8110 0.8114 0.8117 0.8121 0.8124
3692.000000 0.8126 0.8130 0.8134 0.8137 0.8141
3687.000000 0.8144 0.8147 0.8150 0.8153 0.8155
3682.000000 0.8158 0.8160 0.8162 0.8165 0.8168
3677.000000 0.8169 0.8172 0.8175 0.8178 0.8180
3672.000000 0.8183 0.8185 0.8188 0.8191 0.8194
3667.000000 0.8196 0.8199 0.8201 0.8204 0.8206
3662.000000 0.8209 0.8211 0.8214 0.8215 0.8216
3657.000000 0.8217 0.8218 0.8218 0.8220 0.8221
3652.000000 0.8223 0.8224 0.8225 0.8225 0.8227
3647.000000 0.8228 0.8228 0.8230 0.8231 0.8232
3642.000000 0.8233 0.8233 0.8233 0.8233 0.8232
3637.000000 0.8231 0.8231 0.8230 0.8230 0.8228
3632.000000 0.8228 0.8228 0.8227 0.8225 0.8225
3627.000000 0.8225 0.8225 0.8224 0.8224 0.8223
3622.000000 0.8223 0.8221 0.8221 0.8220 0.8220
3617.000000 0.8218 0.8218 0.8218 0.8218 0.8217
3612.000000 0.8217 0.8216 0.8215 0.8214 0.8214
3607.000000 0.8213 0.8213 0.8212 0.8212 0.8211
3602.000000 0.8210 0.8210 0.8210 0.8209 0.8208
3597.000000 0.8207 0.8207 0.8206 0.8206 0.8205
3592.000000 0.8205 0.8204 0.8204 0.8203 0.8203
3587.000000 0.8202 0.8201 0.8200 0.8200 0.8199
3582.000000 0.8199 0.8198 0.8197 0.8196 0.8195
3577.000000 0.8194 0.8193 0.8192 0.8191 0.8190
3572.000000 0.8189 0.8188 0.8187 0.8186 0.8185
3567.000000 0.8184 0.8183 0.8182 0.8181 0.8180
3562.000000 0.8178 0.8178 0.8176 0.8175 0.8174
3557.000000 0.8171 0.8168 0.8165 0.8164 0.8161
3552.000000 0.8160 0.8157 0.8155 0.8151 0.8150
3547.000000 0.8147 0.8145 0.8142 0.8140 0.8137
3542.000000 0.8135 0.8132 0.8130 0.8128 0.8125
3537.000000 0.8122 0.8121 0.8118 0.8115 0.8112
3532.000000 0.8111 0.8108 0.8106 0.8103 0.8101
3527.000000 0.8099 0.8097 0.8094 0.8092 0.8089
3522.000000 0.8087 0.8085 0.8083 0.8081 0.8078
3517.000000 0.8075 0.8074 0.8071 0.8069 0.8067
3512.000000 0.8065 0.8062 0.8061 0.8058 0.8057
3507.000000 0.8053 0.8050 0.8044 0.8039 0.8034
3502.000000 0.8028 0.8022 0.8018 0.8006 0.7995
3497.000000 0.7983 0.7971 0.7958 0.7947 0.7935
3492.000000 0.7922 0.7896 0.7868 0.7824 0.7778
3487.000000 0.7718 0.7657 0.7634 0.7611 0.7610
3482.000000 0.7608 0.7608 0.7607 0.7605 0.7604
3477.000000 0.7603 0.7601 0.7601 0.7601 0.7601
3472.000000 0.7603 0.7604 0.7605 0.7606 0.7606
3467.000000 0.7606 0.7605 0.7603 0.7601 0.7599
3462.000000 0.7598 0.7593 0.7588 0.7575 0.7561
3457.000000 0.7549 0.7537 0.7524 0.7511 0.7497
3452.000000 0.7483 0.7461 0.7439 0.7417 0.7395
3447.000000 0.7372 0.7351 0.7328 0.7307 0.7290
3442.000000 0.7274 0.7258 0.7242 0.7225 0.7208
3437.000000 0.7193 0.7176 0.7160 0.7144 0.7128
3432.000000 0.7111 0.7095 0.7078 0.7056 0.7033
3427.000000 0.7008 0.6983 0.6958 0.6933 0.6908
3422.000000 0.6884 0.6858 0.6834 0.6806 0.6778
3417.000000 0.6737 0.6696 0.6654 0.6612 0.6571
3412.000000 0.6531 0.6490 0.6449 0.6394 0.6339
3407.000000 0.6284 0.6229 0.6174 0.6119 0.6044
3402.000000 0.5970 0.5884 0.5798 0.5710 0.5624
3397.000000 0.5536 0.5449 0.5362 0.5277 0.5216
3392.000000 0.5156 0.5095 0.5034 0.4971 0.4909
3387.000000 0.4836 0.4764 0.4692 0.4621 0.4551
3382.000000 0.4482 0.4415 0.4348 0.4247 0.4146
3377.000000 0.4043 0.3940 0.3837 0.3734 0.3630
3372.000000 0.3527 0.3424 0.3321 0.3216 0.3114
3367.000000 0.3011 0.2908 0.2805 0.2702 0.2598
3362.000000 0.2495 0.2392 0.2289 0.2185 0.2083
3357.000000 0.1979 0.1876 0.1758 0.1640 0.1623
3352.000000 0.1607 0.1598 0.1583 0.1589 0.1589
3347.000000 0.1591 0.1594 0.1602 0.1611 0.1623
3342.000000 0.1635 0.1664 0.1692 0.1764 0.1836
3337.000000 0.1902 0.1968 0.2041 0.2114 0.2172
3332.000000 0.2231 0.2289 0.2347 0.2405 0.2464
3327.000000 0.2522 0.2581 0.2639 0.2698 0.2756
3322.000000 0.2815 0.2873 0.2932 0.2990 0.3048
3317.000000 0.3106 0.3165 0.3223 0.3282 0.3340
3312.000000 0.3399 0.3457 0.3516 0.3574 0.3632
3307.000000 0.3691 0.3749 0.3807 0.3866 0.3924
3302.000000 0.3982 0.4041 0.4100 0.4158 0.4217
3297.000000 0.4275 0.4334 0.4392 0.4450 0.4508
3292.000000 0.4567 0.4625 0.4684 0.4742 0.4801
3287.000000 0.4859 0.4918 0.4976 0.5035 0.5093
3282.000000 0.5151 0.5209 0.5268 0.5326 0.5385
3277.000000 0.5438 0.5492 0.5541 0.5590 0.5639
3272.000000 0.5688 0.5721 0.5755 0.5786 0.5817
3267.000000 0.5848 0.5879 0.5910 0.5941 0.5967
3262.000000 0.5994 0.6020 0.6046 0.6072 0.6098
3257.000000 0.6121 0.6144 0.6158 0.6172 0.6185
3252.000000 0.6199 0.6212 0.6226 0.6239 0.6252
3247.000000 0.6257 0.6262 0.6269 0.6275 0.6280
3242.000000 0.6286 0.6291 0.6297 0.6303 0.6309
3237.000000 0.6312 0.6317 0.6320 0.6323 0.6326
3232.000000 0.6330 0.6333 0.6337 0.6340 0.6343
3227.000000 0.6346 0.6350 0.6353 0.6357 0.6360
3222.000000 0.6362 0.6366 0.6370 0.6372 0.6375
3217.000000 0.6377 0.6383 0.6383 0.6383 0.6385
3212.000000 0.6387 0.6389 0.6391 0.6393 0.6395
3207.000000 0.6397 0.6397 0.6397 0.6395 0.6391
3202.000000 0.6387 0.6383 0.6379 0.6375 0.6371
3197.000000 0.6351 0.6331 0.6310 0.6290 0.6271
3192.000000 0.6253 0.6238 0.6224 0.6210 0.6196
3187.000000 0.6185 0.6174 0.6172 0.6171 0.6169
3182.000000 0.6168 0.6166 0.6165 0.6162 0.6160
3177.000000 0.6156 0.6151 0.6142 0.6134 0.6125
3172.000000 0.6117 0.6108 0.6100 0.6091 0.6083
3167.000000 0.6066 0.6049 0.6023 0.5998 0.5972
3162.000000 0.5947 0.5921 0.5895 0.5868 0.5842
3157.000000 0.5812 0.5782 0.5754 0.5727 0.5721
3152.000000 0.5716 0.5710 0.5706 0.5705 0.5704
3147.000000 0.5704 0.5705 0.5705 0.5706 0.5697
3142.000000 0.5688 0.5658 0.5629 0.5587 0.5546
3137.000000 0.5501 0.5456 0.5421 0.5387 0.5354
3132.000000 0.5322 0.5289 0.5257 0.5224 0.5192
3127.000000 0.5159 0.5127 0.5080 0.5034 0.4984
3122.000000 0.4934 0.4884 0.4834 0.4783 0.4733
3117.000000 0.4679 0.4625 0.4571 0.4517 0.4462
3112.000000 0.4409 0.4360 0.4310 0.4273 0.4236
3107.000000 0.4198 0.4160 0.4123 0.4086 0.4046
3102.000000 0.4006 0.3964 0.3923 0.3882 0.3841
3097.000000 0.3705 0.3568 0.3512 0.3455 0.3425
3092.000000 0.3395 0.3364 0.3336 0.3309 0.3282
3087.000000 0.3255 0.3229 0.3203 0.3177 0.3165
3082.000000 0.3154 0.3143 0.3132 0.3120 0.3109
3077.000000 0.3097 0.3085 0.3076 0.3067 0.3062
3072.000000 0.3057 0.3052 0.3047 0.3042 0.3037
3067.000000 0.3032 0.3027 0.3022 0.3017 0.3011
3062.000000 0.3006 0.3001 0.2996 0.2991 0.2985
3057.000000 0.2976 0.2966 0.2955 0.2944 0.2933
3052.000000 0.2923 0.2912 0.2901 0.2870 0.2839
3047.000000 0.2807 0.2775 0.2745 0.2716 0.2695
3042.000000 0.2674 0.2653 0.2632 0.2615 0.2599
3037.000000 0.2590 0.2581 0.2572 0.2563 0.2554
3032.000000 0.2545 0.2544 0.2544 0.2548 0.2552
3027.000000 0.2555 0.2559 0.2562 0.2566 0.2570
3022.000000 0.2574 0.2575 0.2575 0.2575 0.2574
3017.000000 0.2572 0.2571 0.2569 0.2567 0.2565
3012.000000 0.2564 0.2562 0.2561 0.2554 0.2548
3007.000000 0.2535 0.2524 0.2512 0.2500 0.2484
3002.000000 0.2468 0.2451 0.2434 0.2419 0.2403
2997.000000 0.2385 0.2370 0.2353 0.2337 0.2321
2992.000000 0.2305 0.2290 0.2275 0.2261 0.2247
2987.000000 0.2232 0.2218 0.2204 0.2190 0.2175
2982.000000 0.2161 0.2150 0.2140 0.2133 0.2127
2977.000000 0.2120 0.2114 0.2108 0.2102 0.2095
2972.000000 0.2089 0.2082 0.2076 0.2069 0.2063
2967.000000 0.2058 0.2053 0.2048 0.2043 0.2034
2962.000000 0.2025 0.2011 0.1998 0.1984 0.1972
2957.000000 0.1958 0.1944 0.1932 0.1919 0.1907
2952.000000 0.1894 0.1883 0.1871 0.1858 0.1845
2947.000000 0.1834 0.1822 0.1810 0.1799 0.1787
2942.000000 0.1777 0.1766 0.1754 0.1744 0.1733
2937.000000 0.1722 0.1712 0.1700 0.1687 0.1674
2932.000000 0.1661 0.1648 0.1634 0.1622 0.1609
2927.000000 0.1596 0.1586 0.1574 0.1563 0.1557
2922.000000 0.1552 0.1546 0.1541 0.1536 0.1518
2917.000000 0.1528 0.1524 0.1524 0.1525 0.1527
2912.000000 0.1530 0.1532 0.1535 0.1541 0.1548
2907.000000 0.1556 0.1564 0.1572 0.1580 0.1587
2902.000000 0.1595 0.1603 0.1612 0.1622 0.1632
2897.000000 0.1642 0.1653 0.1663 0.1674 0.1684
2892.000000 0.1694 0.1704 0.1715 0.1725 0.1734
2887.000000 0.1745 0.1757 0.1772 0.1787 0.1803
2882.000000 0.1819 0.1834 0.1850 0.1865 0.1881
2877.000000 0.1896 0.1914 0.1931 0.1948 0.1964
2872.000000 0.1981 0.1996 0.2014 0.2031 0.2048
2867.000000 0.2065 0.2082 0.2099 0.2116 0.2133
2862.000000 0.2150 0.2167 0.2184 0.2202 0.2219
2857.000000 0.2235 0.2253 0.2270 0.2288 0.2306
2852.000000 0.2325 0.2346 0.2368 0.2389 0.2411
2847.000000 0.2432 0.2454 0.2476 0.2498 0.2519
2842.000000 0.2541 0.2567 0.2594 0.2622 0.2650
2837.000000 0.2678 0.2706 0.2734 0.2762 0.2790
2832.000000 0.2818 0.2844 0.2871 0.2895 0.2919
2827.000000 0.2943 0.2967 0.2991 0.3015 0.3039
2822.000000 0.3063 0.3085 0.3110 0.3128 0.3147
2817.000000 0.3165 0.3184 0.3203 0.3222 0.3240
2812.000000 0.3259 0.3276 0.3294 0.3309 0.3327
2807.000000 0.3343 0.3359 0.3376 0.3393 0.3409
2802.000000 0.3427 0.3444 0.3462 0.3482 0.3502
2797.000000 0.3521 0.3541 0.3560 0.3580 0.3600
2792.000000 0.3620 0.3640 0.3659 0.3680 0.3703
2787.000000 0.3725 0.3747 0.3768 0.3792 0.3814
2782.000000 0.3836 0.3858 0.3880 0.3904 0.3929
2777.000000 0.3955 0.3980 0.4007 0.4032 0.4059
2772.000000 0.4084 0.4110 0.4137 0.4172 0.4208
2767.000000 0.4230 0.4253 0.4259 0.4266 0.4270
2762.000000 0.4270 0.4270 0.4266 0.4259 0.4252
2757.000000 0.4236 0.4221 0.4200 0.4180 0.4159
2752.000000 0.4139 0.4118 0.4098 0.4086 0.4074
2747.000000 0.4072 0.4070 0.4070 0.4070 0.4070
2742.000000 0.4070 0.4068 0.4068 0.4068 0.4068
2737.000000 0.4068 0.4068 0.4073 0.4078 0.4082
2732.000000 0.4089 0.4094 0.4100 0.4105 0.4110
2727.000000 0.4120 0.4131 0.4142 0.4153 0.4164
2722.000000 0.4176 0.4187 0.4199 0.4210 0.4223
2717.000000 0.4238 0.4253 0.4268 0.4283 0.4297
2712.000000 0.4312 0.4331 0.4350 0.4369 0.4388
2707.000000 0.4407 0.4427 0.4448 0.4470 0.4493
2702.000000 0.4516 0.4540 0.4564 0.4597 0.4631
2697.000000 0.4664 0.4698 0.4725 0.4752 0.4778
2692.000000 0.4804 0.4820 0.4837 0.4849 0.4862
2687.000000 0.4870 0.4878 0.4884 0.4890 0.4892
2682.000000 0.4895 0.4897 0.4899 0.4899 0.4903
2677.000000 0.4902 0.4902 0.4902 0.4902 0.4893
2672.000000 0.4885 0.4822 0.4759 0.4696 0.4633
2667.000000 0.4570 0.4507 0.4444 0.4381 0.4318
2662.000000 0.4255 0.4192 0.4129 0.4097 0.4064
2657.000000 0.4066 0.4055 0.4097 0.4124 0.4167
2652.000000 0.4210 0.4255 0.4299 0.4342 0.4386
2647.000000 0.4429 0.4473 0.4500 0.4530 0.4524
2642.000000 0.4521 0.4496 0.4471 0.4445 0.4420
2637.000000 0.4395 0.4370 0.4345 0.4320 0.4299
2632.000000 0.4298 0.4277 0.4276 0.4290 0.4304
2627.000000 0.4328 0.4352 0.4375 0.4399 0.4423
2622.000000 0.4447 0.4471 0.4495 0.4518 0.4542
2617.000000 0.4566 0.4590 0.4612 0.4637 0.4660
2612.000000 0.4685 0.4709 0.4733 0.4756 0.4780
2607.000000 0.4804 0.4828 0.4832 0.4836 0.4837
2602.000000 0.4839 0.4840 0.4841 0.4842 0.4844
2597.000000 0.4849 0.4855 0.4872 0.4889 0.4909
2592.000000 0.4929 0.4951 0.4974 0.4999 0.5024
2587.000000 0.5048 0.5073 0.5098 0.5123 0.5148
2582.000000 0.5173 0.5196 0.5220 0.5244 0.5268
2577.000000 0.5291 0.5315 0.5334 0.5354 0.5374
2572.000000 0.5394 0.5418 0.5443 0.5469 0.5495
2567.000000 0.5509 0.5548 0.5524 0.5526 0.5527
2562.000000 0.5528 0.5499 0.5470 0.5420 0.5370
2557.000000 0.5320 0.5270 0.5220 0.5171 0.5121
2552.000000 0.5071 0.5021 0.4972 0.4950 0.4887
2547.000000 0.4938 0.4947 0.4989 0.5031 0.5102
2542.000000 0.5174 0.5235 0.5296 0.5344 0.5393
2537.000000 0.5432 0.5472 0.5510 0.5550 0.5586
2532.000000 0.5623 0.5656 0.5689 0.5722 0.5755
2527.000000 0.5782 0.5809 0.5835 0.5860 0.5886
2522.000000 0.5912 0.5927 0.5943 0.5958 0.5974
2517.000000 0.5989 0.6004 0.6016 0.6029 0.6040
2512.000000 0.6051 0.6062 0.6073 0.6084 0.6096
2507.000000 0.6104 0.6112 0.6116 0.6121 0.6124
2502.000000 0.6132 0.6112 0.6098 0.6076 0.6055
2497.000000 0.6033 0.6012 0.5993 0.5974 0.5960
2492.000000 0.5946 0.5938 0.5893 0.5923 0.5917
2487.000000 0.5910 0.5910 0.5909 0.5912 0.5920
2482.000000 0.5927 0.5934 0.5941 0.5948 0.5956
2477.000000 0.5969 0.5983 0.6000 0.6018 0.6035
2472.000000 0.6053 0.6070 0.6088 0.6106 0.6124
2467.000000 0.6138 0.6152 0.6164 0.6177 0.6189
2462.000000 0.6202 0.6214 0.6227 0.6239 0.6252
2457.000000 0.6264 0.6277 0.6288 0.6299 0.6309
2452.000000 0.6319 0.6328 0.6338 0.6347 0.6357
2447.000000 0.6367 0.6377 0.6384 0.6392 0.6397
2442.000000 0.6401 0.6407 0.6411 0.6417 0.6421
2437.000000 0.6426 0.6432 0.6436 0.6441 0.6443
2432.000000 0.6445 0.6447 0.6450 0.6451 0.6454
2427.000000 0.6456 0.6458 0.6461 0.6462 0.6465
2422.000000 0.6467 0.6468 0.6471 0.6474 0.6475
2417.000000 0.6478 0.6482 0.6486 0.6491 0.6495
2412.000000 0.6500 0.6505 0.6510 0.6514 0.6518
2407.000000 0.6524 0.6528 0.6533 0.6538 0.6542
2402.000000 0.6547 0.6551 0.6557 0.6561 0.6568
2397.000000 0.6572 0.6578 0.6584 0.6590 0.6595
2392.000000 0.6601 0.6607 0.6612 0.6618 0.6624
2387.000000 0.6628 0.6635 0.6640 0.6646 0.6651
2382.000000 0.6657 0.6661 0.6665 0.6669 0.6674
2377.000000 0.6676 0.6681 0.6684 0.6688 0.6690
2372.000000 0.6693 0.6695 0.6698 0.6700 0.6703
2367.000000 0.6704 0.6704 0.6703 0.6699 0.6692
2362.000000 0.6685 0.6678 0.6671 0.6671 0.6671
2357.000000 0.6674 0.6675 0.6680 0.6684 0.6689
2352.000000 0.6695 0.6700 0.6706 0.6711 0.6718
2347.000000 0.6722 0.6728 0.6735 0.6741 0.6742
2342.000000 0.6744 0.6744 0.6744 0.6743 0.6743
2337.000000 0.6743 0.6743 0.6743 0.6744 0.6745
2332.000000 0.6746 0.6747 0.6749 0.6750 0.6751
2327.000000 0.6751 0.6753 0.6754 0.6755 0.6756
2322.000000 0.6757 0.6758 0.6758 0.6764 0.6768
2317.000000 0.6775 0.6782 0.6788 0.6795 0.6801
2312.000000 0.6807 0.6812 0.6819 0.6825 0.6833
2307.000000 0.6839 0.6845 0.6850 0.6856 0.6861
2302.000000 0.6868 0.6872 0.6878 0.6885 0.6891
2297.000000 0.6896 0.6901 0.6908 0.6914 0.6919
2292.000000 0.6925 0.6931 0.6936 0.6941 0.6947
2287.000000 0.6951 0.6957 0.6961 0.6968 0.6972
2282.000000 0.6978 0.6983 0.6989 0.6994 0.6999
2277.000000 0.7004 0.7010 0.7015 0.7019 0.7025
2272.000000 0.7031 0.7036 0.7041 0.7046 0.7051
2267.000000 0.7057 0.7062 0.7068 0.7074 0.7078
2262.000000 0.7085 0.7091 0.7097 0.7101 0.7108
2257.000000 0.7112 0.7118 0.7125 0.7131 0.7136
2252.000000 0.7142 0.7147 0.7153 0.7158 0.7165
2247.000000 0.7169 0.7175 0.7182 0.7188 0.7193
2242.000000 0.7199 0.7205 0.7211 0.7218 0.7225
2237.000000 0.7232 0.7239 0.7245 0.7251 0.7258
2232.000000 0.7265 0.7271 0.7278 0.7285 0.7292
2227.000000 0.7299 0.7306 0.7311 0.7318 0.7325
2222.000000 0.7332 0.7339 0.7346 0.7351 0.7358
2217.000000 0.7364 0.7368 0.7367 0.7365 0.7362
2212.000000 0.7361 0.7358 0.7355 0.7349 0.7343
2207.000000 0.7337 0.7331 0.7325 0.7325 0.7325
2202.000000 0.7331 0.7335 0.7339 0.7343 0.7348
2197.000000 0.7351 0.7357 0.7361 0.7365 0.7371
2192.000000 0.7378 0.7385 0.7392 0.7399 0.7406
2187.000000 0.7412 0.7419 0.7425 0.7433 0.7440
2182.000000 0.7447 0.7454 0.7461 0.7468 0.7475
2177.000000 0.7481 0.7488 0.7495 0.7501 0.7508
2172.000000 0.7515 0.7519 0.7525 0.7530 0.7534
2167.000000 0.7537 0.7541 0.7545 0.7549 0.7551
2162.000000 0.7556 0.7560 0.7564 0.7565 0.7567
2157.000000 0.7560 0.7554 0.7548 0.7542 0.7536
2152.000000 0.7531 0.7528 0.7525 0.7521 0.7519
2147.000000 0.7517 0.7517 0.7517 0.7518 0.7524
2142.000000 0.7528 0.7533 0.7538 0.7543 0.7548
2137.000000 0.7553 0.7558 0.7562 0.7568 0.7574
2132.000000 0.7578 0.7584 0.7590 0.7595 0.7600
2127.000000 0.7605 0.7611 0.7615 0.7621 0.7625
2122.000000 0.7632 0.7638 0.7645 0.7651 0.7657
2117.000000 0.7662 0.7668 0.7675 0.7682 0.7688
2112.000000 0.7694 0.7700 0.7706 0.7710 0.7714
2107.000000 0.7718 0.7721 0.7725 0.7728 0.7732
2102.000000 0.7736 0.7740 0.7740 0.7741 0.7738
2097.000000 0.7735 0.7732 0.7728 0.7725 0.7722
2092.000000 0.7721 0.7718 0.7715 0.7712 0.7711
2087.000000 0.7718 0.7725 0.7734 0.7744 0.7751
2082.000000 0.7760 0.7768 0.7775 0.7784 0.7792
2077.000000 0.7800 0.7808 0.7815 0.7822 0.7828
2072.000000 0.7833 0.7838 0.7843 0.7848 0.7854
2067.000000 0.7858 0.7864 0.7868 0.7874 0.7878
2062.000000 0.7884 0.7888 0.7892 0.7896 0.7900
2057.000000 0.7904 0.7908 0.7911 0.7915 0.7918
2052.000000 0.7922 0.7926 0.7931 0.7934 0.7938
2047.000000 0.7941 0.7945 0.7948 0.7951 0.7955
2042.000000 0.7958 0.7965 0.7971 0.7978 0.7985
2037.000000 0.7992 0.7999 0.8005 0.8011 0.8018
2032.000000 0.8025 0.8033 0.8041 0.8049 0.8057
2027.000000 0.8064 0.8071 0.8075 0.8080 0.8083
2022.000000 0.8087 0.8090 0.8093 0.8095 0.8097
2017.000000 0.8098 0.8099 0.8100 0.8101 0.8103
2012.000000 0.8104 0.8104 0.8105 0.8105 0.8105
2007.000000 0.8103 0.8101 0.8099 0.8096 0.8092
2002.000000 0.8089 0.8083 0.8076 0.8108 0.8141
1997.000000 0.8172 0.8204 0.8236 0.8268 0.8275
1992.000000 0.8282 0.8289 0.8297 0.8303 0.8310
1987.000000 0.8325 0.8323 0.8328 0.8332 0.8325
1982.000000 0.8318 0.8310 0.8302 0.8294 0.8284
1977.000000 0.8270 0.8256 0.8242 0.8228 0.8214
1972.000000 0.8199 0.8186 0.8172 0.8158 0.8146
1967.000000 0.8133 0.8118 0.8101 0.8087 0.8085
1962.000000 0.8092 0.8104 0.8115 0.8101 0.8071
1957.000000 0.8040 0.8011 0.7986 0.7961 0.7936
1952.000000 0.7911 0.7886 0.7861 0.7832 0.7801
1947.000000 0.7771 0.7742 0.7711 0.7682 0.7653
1942.000000 0.7630 0.7608 0.7587 0.7565 0.7546
1937.000000 0.7537 0.7528 0.7518 0.7510 0.7501
1932.000000 0.7494 0.7487 0.7481 0.7478 0.7476
1927.000000 0.7475 0.7454 0.7472 0.7471 0.7471
1922.000000 0.7471 0.7471 0.7471 0.7486 0.7501
1917.000000 0.7521 0.7543 0.7564 0.7585 0.7606
1912.000000 0.7626 0.7648 0.7665 0.7683 0.7701
1907.000000 0.7718 0.7736 0.7754 0.7771 0.7789
1902.000000 0.7807 0.7825 0.7842 0.7858 0.7872
1897.000000 0.7887 0.7901 0.7915 0.7928 0.7943
1892.000000 0.7958 0.7971 0.7986 0.7998 0.8011
1887.000000 0.8022 0.8036 0.8048 0.8060 0.8072
1882.000000 0.8085 0.8098 0.8110 0.8121 0.8137
1877.000000 0.8153 0.8168 0.8183 0.8198 0.8213
1872.000000 0.8228 0.8243 0.8259 0.8274 0.8289
1867.000000 0.8304 0.8317 0.8330 0.8343 0.8355
1862.000000 0.8368 0.8381 0.8393 0.8406 0.8418
1857.000000 0.8431 0.8442 0.8452 0.8463 0.8473
1852.000000 0.8483 0.8493 0.8504 0.8514 0.8524
1847.000000 0.8535 0.8545 0.8554 0.8563 0.8571
1842.000000 0.8581 0.8590 0.8597 0.8604 0.8611
1837.000000 0.8618 0.8621 0.8621 0.8621 0.8623
1832.000000 0.8623 0.8618 0.8614 0.8610 0.8605
1827.000000 0.8601 0.8596 0.8591 0.8587 0.8582
1822.000000 0.8578 0.8573 0.8568 0.8562 0.8556
1817.000000 0.8549 0.8542 0.8535 0.8528 0.8521
1812.000000 0.8514 0.8508 0.8501 0.8494 0.8487
1807.000000 0.8481 0.8474 0.8471 0.8471 0.8471
1802.000000 0.8471 0.8480 0.8490 0.8501 0.8511
1797.000000 0.8521 0.8532 0.8544 0.8557 0.8568
1792.000000 0.8582 0.8592 0.8597 0.8602 0.8607
1787.000000 0.8607 0.8607 0.8606 0.8605 0.8601
1782.000000 0.8593 0.8584 0.8575 0.8525 0.8475
1777.000000 0.8435 0.8395 0.8354 0.8312 0.8271
1772.000000 0.8207 0.8133 0.8058 0.7883 0.7685
1767.000000 0.7521 0.7395 0.7301 0.7210 0.7135
1762.000000 0.7060 0.6821 0.6212 0.5603 0.4994
1757.000000 0.4385 0.3775 0.3166 0.2557 0.1948
1752.000000 0.1642 0.1565 0.1486 0.1449 0.1417
1747.000000 0.1399 0.1387 0.1389 0.1379 0.1381
1742.000000 0.1412 0.1478 0.1921 0.2110 0.2175
1737.000000 0.2241 0.2310 0.2388 0.2467 0.2685
1732.000000 0.2873 0.3050 0.3228 0.3406 0.3582
1727.000000 0.3760 0.3938 0.4116 0.4294 0.4471
1722.000000 0.4649 0.4827 0.5004 0.5182 0.5359
1717.000000 0.5537 0.5715 0.5892 0.6070 0.6317
1712.000000 0.6296 0.6247 0.6143 0.6040 0.5928
1707.000000 0.5935 0.5938 0.5996 0.6210 0.6316
1702.000000 0.6421 0.6526 0.6634 0.6708 0.6761
1697.000000 0.6811 0.6864 0.6915 0.6967 0.7018
1692.000000 0.7065 0.7098 0.7131 0.7164 0.7197
1687.000000 0.7230 0.7261 0.7295 0.7328 0.7361
1682.000000 0.7386 0.7406 0.7425 0.7445 0.7465
1677.000000 0.7485 0.7505 0.7525 0.7544 0.7562
1672.000000 0.7575 0.7588 0.7600 0.7611 0.7624
1667.000000 0.7636 0.7648 0.7660 0.7672 0.7685
1662.000000 0.7697 0.7708 0.7721 0.7733 0.7745
1657.000000 0.7758 0.7769 0.7783 0.7795 0.7807
1652.000000 0.7819 0.7832 0.7844 0.7857 0.7868
1647.000000 0.7875 0.7883 0.7891 0.7898 0.7905
1642.000000 0.7911 0.7918 0.7925 0.7934 0.7941
1637.000000 0.7947 0.7951 0.7957 0.7961 0.7967
1632.000000 0.7971 0.7976 0.7982 0.7987 0.7991
1627.000000 0.7992 0.7993 0.7995 0.7996 0.7996
1622.000000 0.7994 0.7993 0.7988 0.7988 0.7982
1617.000000 0.7975 0.7968 0.7957 0.7935 0.7914
1612.000000 0.7892 0.7833 0.7772 0.7701 0.7615
1607.000000 0.7528 0.7405 0.7282 0.6985 0.6711
1602.000000 0.6275 0.5840 0.5404 0.4968 0.4533
1597.000000 0.4097 0.3904 0.4023 0.4200 0.4377
1592.000000 0.4553 0.4730 0.4907 0.5083 0.5260
1587.000000 0.5436 0.5612 0.5632 0.5671 0.5562
1582.000000 0.5469 0.5374 0.5223 0.5246 0.5281
1577.000000 0.5440 0.5807 0.6035 0.6245 0.6428
1572.000000 0.6589 0.6695 0.6761 0.6825 0.6892
1567.000000 0.6958 0.7024 0.7091 0.7158 0.7222
1562.000000 0.7275 0.7328 0.7382 0.7435 0.7476
1557.000000 0.7517 0.7557 0.7590 0.7615 0.7640
1552.000000 0.7665 0.7683 0.7698 0.7712 0.7728
1547.000000 0.7732 0.7725 0.7735 0.7737 0.7737
1542.000000 0.7737 0.7726 0.7715 0.7703 0.7691
1537.000000 0.7678 0.7665 0.7640 0.7614 0.7587
1532.000000 0.7557 0.7490 0.7421 0.7332 0.7225
1527.000000 0.7025 0.6630 0.6482 0.6312 0.6044
1522.000000 0.5827 0.4215 0.2859 0.2523 0.2491
1517.000000 0.2428 0.2459 0.2455 0.2465 0.2485
1512.000000 0.2533 0.2598 0.2675 0.2791 0.3030
1507.000000 0.3268 0.3534 0.3803 0.4070 0.4337
1502.000000 0.4604 0.4871 0.5138 0.5406 0.5673
1497.000000 0.5812 0.5930 0.6006 0.6067 0.6128
1492.000000 0.6189 0.6259 0.6329 0.6399 0.6447
1487.000000 0.6494 0.6540 0.6578 0.6617 0.6696
1482.000000 0.6650 0.6651 0.6651 0.6318 0.5772
1477.000000 0.5227 0.4681 0.4050 0.4068 0.4082
1472.000000 0.4483 0.4885 0.5286 0.5654 0.5752
1467.000000 0.5808 0.5843 0.5856 0.5859 0.5862
1462.000000 0.5862 0.5860 0.5857 0.5849 0.5832
1457.000000 0.5816 0.5800 0.5766 0.5729 0.5658
1452.000000 0.5564 0.5335 0.5009 0.4682 0.4355
1447.000000 0.4029 0.3778 0.3804 0.4076 0.4350
1442.000000 0.4625 0.4899 0.5174 0.5198 0.5198
1437.000000 0.5198 0.5034 0.4810 0.4586 0.4362
1432.000000 0.4299 0.4325 0.4568 0.4839 0.5110
1427.000000 0.5380 0.5955 0.6069 0.6162 0.6244
1422.000000 0.6326 0.6396 0.6462 0.6528 0.6584
1417.000000 0.6633 0.6681 0.6728 0.6778 0.6817
1412.000000 0.6855 0.6892 0.6918 0.6945 0.6971
1407.000000 0.6995 0.7011 0.7028 0.7039 0.7049
1402.000000 0.7053 0.7053 0.7092 0.7055 0.7041
1397.000000 0.7026 0.7005 0.6965 0.6922 0.6856
1392.000000 0.6789 0.6651 0.6539 0.6347 0.6072
1387.000000 0.5798 0.5523 0.5248 0.4974 0.4931
1382.000000 0.4956 0.5070 0.5507 0.5822 0.5940
1377.000000 0.6058 0.6145 0.6232 0.6319 0.6392
1372.000000 0.6461 0.6532 0.6586 0.6631 0.6676
1367.000000 0.6718 0.6755 0.6784 0.6800 0.6817
1362.000000 0.6822 0.6828 0.6826 0.6825 0.6821
1357.000000 0.6814 0.6780 0.6745 0.6669 0.6582
1352.000000 0.6468 0.6107 0.5720 0.5334 0.4947
1347.000000 0.4560 0.4016 0.4032 0.4241 0.4503
1342.000000 0.4765 0.5028 0.5290 0.5552 0.5771
1337.000000 0.5910 0.5991 0.6047 0.6103 0.6158
1332.000000 0.6208 0.6251 0.6282 0.6301 0.6309
1327.000000 0.6320 0.6297 0.6287 0.6270 0.6230
1322.000000 0.6190 0.6128 0.6064 0.6000 0.5923
1317.000000 0.5832 0.5740 0.5647 0.5552 0.5457
1312.000000 0.5360 0.5240 0.5120 0.4999 0.4877
1307.000000 0.4493 0.4180 0.3838 0.3495 0.3153
1302.000000 0.2811 0.2469 0.2256 0.2279 0.2268
1297.000000 0.2452 0.2645 0.2839 0.3032 0.3225
1292.000000 0.3418 0.3612 0.3806 0.3999 0.4192
1287.000000 0.4266 0.4235 0.4234 0.4227 0.4219
1282.000000 0.4160 0.4084 0.3982 0.3860 0.3699
1277.000000 0.3524 0.3348 0.3172 0.2997 0.2821
1272.000000 0.2646 0.2470 0.2295 0.2119 0.1944
1267.000000 0.1768 0.1592 0.1412 0.1230 0.1071
1262.000000 0.0980 0.0904 0.0859 0.0817 0.0803
1257.000000 0.0789 0.0775 0.0740 0.0760 0.0755
1252.000000 0.0755 0.0772 0.0790 0.0808 0.0826
1247.000000 0.0847 0.0869 0.0889 0.0911 0.0945
1242.000000 0.0991 0.1037 0.1105 0.1181 0.1257
1237.000000 0.1371 0.1514 0.1662 0.1812 0.1936
1232.000000 0.2042 0.2147 0.2252 0.2348 0.2440
1227.000000 0.2532 0.2623 0.2734 0.2849 0.2971
1222.000000 0.3130 0.3242 0.3350 0.3458 0.3566
1217.000000 0.3675 0.3782 0.3892 0.4000 0.4108
1212.000000 0.4217 0.4325 0.4433 0.4541 0.4650
1207.000000 0.4758 0.4866 0.4975 0.5083 0.5191
1202.000000 0.5300 0.5408 0.5502 0.5545 0.5575
1197.000000 0.5591 0.5596 0.5608 0.5603 0.5601
1192.000000 0.5594 0.5571 0.5516 0.5458 0.5372
1187.000000 0.5398 0.5397 0.5396 0.5410 0.5449
1182.000000 0.5507 0.5575 0.5638 0.5698 0.5760
1177.000000 0.5826 0.5853 0.5869 0.5886 0.5845
1172.000000 0.5810 0.5740 0.5655 0.5526 0.5437
1167.000000 0.5304 0.5080 0.4857 0.4633 0.4409
1162.000000 0.4185 0.3960 0.3737 0.3444 0.3457
1157.000000 0.3534 0.3724 0.3914 0.4103 0.4293
1152.000000 0.4483 0.4673 0.4855 0.4994 0.5084
1147.000000 0.5158 0.5228 0.5290 0.5352 0.5384
1142.000000 0.5394 0.5393 0.5392 0.5385 0.5340
1137.000000 0.5268 0.5150 0.4977 0.4804 0.4631
1132.000000 0.4458 0.4286 0.4125 0.4082 0.4082
1127.000000 0.4080 0.4117 0.4310 0.4424 0.4536
1122.000000 0.4649 0.4760 0.4874 0.4986 0.5099
1117.000000 0.5189 0.5235 0.5281 0.5325 0.5353
1112.000000 0.5362 0.5369 0.5380 0.5366 0.5356
1107.000000 0.5307 0.5149 0.5007 0.4748 0.4406
1102.000000 0.3816 0.3225 0.2634 0.2044 0.1684
1097.000000 0.1586 0.1495 0.1516 0.1514 0.1622
1092.000000 0.1736 0.2155 0.2874 0.3589 0.3746
1087.000000 0.3829 0.3912 0.4037 0.4164 0.4280
1082.000000 0.4399 0.4519 0.4624 0.4717 0.4821
1077.000000 0.4956 0.5052 0.5149 0.5235 0.5302
1072.000000 0.5370 0.5431 0.5486 0.5540 0.5591
1067.000000 0.5640 0.5709 0.5739 0.5743 0.5753
1062.000000 0.5740 0.5731 0.5710 0.5689 0.5648
1057.000000 0.5606 0.5531 0.5415 0.5271 0.5118
1052.000000 0.4981 0.4847 0.4417 0.4022 0.3475
1047.000000 0.2929 0.2383 0.1835 0.1287 0.1086
1042.000000 0.1010 0.0968 0.0939 0.0946 0.0955
1037.000000 0.1170 0.1814 0.1929 0.2075 0.2187
1032.000000 0.2295 0.2508 0.2747 0.2877 0.3006
1027.000000 0.3147 0.3296 0.3445 0.3595 0.3746
1022.000000 0.4046 0.4245 0.5004 0.5178 0.5360
1017.000000 0.5551 0.5747 0.5834 0.5921 0.6008
1012.000000 0.6070 0.6128 0.6186 0.6244 0.6302
1007.000000 0.6354 0.6401 0.6451 0.6500 0.6549
1002.000000 0.6635 0.6725 0.6782 0.6838 0.6890
997.000000 0.6940 0.6975 0.7006 0.7037 0.7058
992.000000 0.7044 0.7045 0.7046 0.7019 0.6995
987.000000 0.6931 0.6862 0.6721 0.6517 0.6137
982.000000 0.5695 0.5252 0.4504 0.4510 0.4547
977.000000 0.4614 0.4682 0.4749 0.4816 0.4843
972.000000 0.4838 0.4498 0.3884 0.3272 0.3197
967.000000 0.3196 0.3457 0.3822 0.4187 0.4552
962.000000 0.4917 0.5281 0.5646 0.5948 0.6194
957.000000 0.6403 0.6593 0.6688 0.6743 0.6798
952.000000 0.6853 0.6905 0.6941 0.6976 0.7012
947.000000 0.7049 0.7085 0.7121 0.7157 0.7193
942.000000 0.7228 0.7264 0.7300 0.7338 0.7375
937.000000 0.7412 0.7450 0.7488 0.7525 0.7564
932.000000 0.7599 0.7628 0.7660 0.7690 0.7721
927.000000 0.7753 0.7784 0.7804 0.7824 0.7845
922.000000 0.7854 0.7861 0.7867 0.7871 0.7876
917.000000 0.7878 0.7874 0.7865 0.7864 0.7845
912.000000 0.7825 0.7768 0.7708 0.7547 0.7437
907.000000 0.7244 0.7178 0.7114 0.6844 0.6216
902.000000 0.5587 0.4515 0.4566 0.4567 0.4678
897.000000 0.5157 0.5636 0.6115 0.6594 0.6847
892.000000 0.7061 0.7225 0.7303 0.7381 0.7458
887.000000 0.7576 0.7696 0.7774 0.7847 0.7914
882.000000 0.7969 0.8025 0.8076 0.8106 0.8135
877.000000 0.8164 0.8188 0.8211 0.8227 0.8234
872.000000 0.8242 0.8249 0.8250 0.8250 0.8251
867.000000 0.8251 0.8246 0.8241 0.8236 0.8232
862.000000 0.8227 0.8224 0.8221 0.8218 0.8216
857.000000 0.8212 0.8207 0.8200 0.8193 0.8184
852.000000 0.8167 0.8015 0.7841 0.7668 0.7494
847.000000 0.7319 0.7146 0.6972 0.6958 0.6950
842.000000 0.7265 0.7614 0.7943 0.7990 0.8037
837.000000 0.8085 0.8132 0.8171 0.8208 0.8246
832.000000 0.8284 0.8312 0.8338 0.8363 0.8375
827.000000 0.8390 0.8404 0.8418 0.8432 0.8446
822.000000 0.8460 0.8473 0.8487 0.8500 0.8513
817.000000 0.8523 0.8528 0.8534 0.8539 0.8545
812.000000 0.8550 0.8553 0.8564 0.8564 0.8563
807.000000 0.8549 0.8535 0.8516 0.8489 0.8425
802.000000 0.8334 0.8194 0.8011 0.7168 0.6324
797.000000 0.5479 0.4657 0.4633 0.4953 0.5683
792.000000 0.6412 0.7144 0.7862 0.8118 0.8165
787.000000 0.8211 0.8242 0.8267 0.8286 0.8302
782.000000 0.8318 0.8328 0.8334 0.8341 0.8347
777.000000 0.8353 0.8358 0.8360 0.8362 0.8364
772.000000 0.8367 0.8368 0.8371 0.8373 0.8375
767.000000 0.8378 0.8380 0.8381 0.8398 0.8385
762.000000 0.8386 0.8388 0.8388 0.8388 0.8385
757.000000 0.8383 0.8380 0.8371 0.8353 0.8335
752.000000 0.8317 0.8300 0.8275 0.8243 0.8211
747.000000 0.8178 0.8145 0.8110 0.8072 0.8036
742.000000 0.7999 0.7965 0.7938 0.7911 0.7883
737.000000 0.7855 0.7828 0.7803 0.7776 0.7743
732.000000 0.7694 0.7644 0.7595 0.7534 0.7464
727.000000 0.7383 0.7271 0.7194 0.7124 0.7046
722.000000 0.6826 0.6851 0.6850 0.6884 0.7550
717.000000 0.7619 0.7783 0.7917 0.7997 0.8061
712.000000 0.8124 0.8182 0.8236 0.8289 0.8321
707.000000 0.8355 0.8375 0.8395 0.8414 0.8433
702.000000 0.8448 0.8463 0.8478 0.8493 0.8506
697.000000 0.8518 0.8530 0.8540 0.8550 0.8554
692.000000 0.8555 0.8556 0.8557 0.8557 0.8558
687.000000 0.8559 0.8560 0.8560 0.8560 0.8559
682.000000 0.8560 0.8562 0.8564 0.8567 0.8568
677.000000 0.8571 0.8573 0.8573 0.8571 0.8571
672.000000 0.8573 0.8574 0.8575 0.8567 0.8557
667.000000 0.8537 0.8507 0.8487 0.8478 0.8471
662.000000 0.8464 0.8457 0.8449 0.8441 0.8434
657.000000 0.8425 0.8418 0.8411 0.8403 0.8394
652.000000 0.8386 0.8378 0.8368 0.8361 0.8352
647.000000 0.8340 0.8324 0.8308 0.8292 0.8275
642.000000 0.8260 0.8244 0.8228 0.8212 0.8196
637.000000 0.8178 0.8158 0.8135 0.8110 0.8085
632.000000 0.8058 0.8028 0.7997 0.7965 0.7936
627.000000 0.7900 0.7861 0.7821 0.7783 0.7731
622.000000 0.7680 0.7628 0.7536 0.7351 0.7278
617.000000 0.7215 0.7180 0.7155 0.7130 0.7105
612.000000 0.7080 0.7061 0.7042 0.7022 0.7001
607.000000 0.6968 0.6938 0.6907 0.6860 0.6801
602.000000 0.6740 0.6628 0.6431 0.6290 0.6149
597.000000 0.6008 0.5867 0.5727 0.5586 0.5445
592.000000 0.5304 0.5162 0.5023 0.4882 0.4741
587.000000 0.4600 0.4459 0.4319 0.4178 0.4037
582.000000 0.3896 0.3755 0.3659 0.3666 0.3672
577.000000 0.3693 0.3814 0.4027 0.4165 0.4272
572.000000 0.4352 0.4406 0.4438 0.4469 0.4501
567.000000 0.4549 0.4599 0.4649 0.4705 0.4760
562.000000 0.4818 0.4884 0.4993 0.5082 0.5142
557.000000 0.5202 0.5277 0.5387 0.5496 0.5601
552.000000 0.5705 0.5801 0.5896 0.5991 0.6131
547.000000 0.6241 0.6288 0.6336 0.6383 0.6415
542.000000 0.6442 0.6468 0.6495 0.6521 0.6548
537.000000 0.6581 0.6646 0.6711 0.6775 0.6817
532.000000 0.6858 0.6899 0.6940 0.6985 0.7031
527.000000 0.7078 0.7125 0.7169 0.7208 0.7246
522.000000 0.7285 0.7322 0.7361 0.7410 0.7457
517.000000 0.7505 0.7551 0.7599 0.7645 0.7691
512.000000 0.7737 0.7783 0.7828 0.7871 0.7911
507.000000 0.7943 0.7968 0.7995 0.8021 0.8046
502.000000 0.8068 0.8083 0.8098 0.8111 0.8124
497.000000 0.8138 0.8151 0.8165 0.8175 0.8185
492.000000 0.8189 0.8191 0.8193 0.8202 0.8190
487.000000 0.8184 0.8178 0.8154 0.8130 0.8092
482.000000 0.8036 0.7968 0.7875 0.7783 0.7690
477.000000 0.7597 0.7503 0.7410 0.7317 0.7224
472.000000 0.7131 0.7088 0.7071 0.7103 0.7380
467.000000 0.7569 0.7718 0.7848 0.7944 0.8028
462.000000 0.8112 0.8214 0.8366 0.8466 0.8565
457.000000 0.8617 0.8666 0.8715 0.8764 0.8805
452.000000 0.8846 0.8887 0.8905 0.8924 0.8942
447.000000 0.8961 0.8978 0.8997 0.9016 0.9033
442.000000 0.9043 0.9053 0.9063 0.9073 0.9083
437.000000 0.9093 0.9102 0.9112 0.9148 0.9132
432.000000 0.9141 0.9149 0.9158 0.9166 0.9175
427.000000 0.9184 0.9192 0.9201 0.9209 0.9218
422.000000 0.9227 0.9235 0.9242 0.9249 0.9256
417.000000 0.9262 0.9268 0.9275 0.9282 0.9289
412.000000 0.9296 0.9302 0.9309 0.9311 0.9313
407.000000 0.9315 0.9317 0.9318 0.9321 0.9323
402.000000 0.9325 0.9328 0.9330 0.9332 0.9334
397.000000 0.9336 0.9338 0.9340 0.9342 0.9344
392.000000 0.9346 0.9348 0.9350 0.9352 0.9353
387.000000 0.9353 0.9354 0.9354 0.9354 0.9355
382.000000 0.9348 0.9340 0.9325
##END=
