##TITLE=Arginine, N^2-p-tolylsulfonyl-, L-
##JCAMP-DX=4.24
$$ By DXEDIT 1.05 (RS McDonald)
##DATA TYPE=INFRARED SPECTRUM
##CLASS=COBLENTZ III
##ORIGIN=DOW CHEMICAL COMPANY
##OWNER=COPYRIGHT (C) 1988 by COBLENTZ SOCIETY INC.
Collection (C) 2018 copyright by the U.S. Secretary of Commerce
on behalf of the United States of America. All rights reserved.
##DATE=1965/02/16
##MOLFORM=C13 H20 N4 O4 S  * 3 H2 O
##MP=252 C DECOMP.
##SOURCE REFERENCE=COBLENTZ NO. 07529
##$NIST ID=B6007529
##$NIST SOURCE=COBLENTZ
##$NIST IMAGE=cob7529
##SPECTROMETER/DATA SYSTEM=BECKMAN IR-9 (GRATING)
##INSTRUMENT PARAMETERS=ORDER CHANGES: 670, 1200, 2000 CM^-^1
##STATE=SOLID (SPLIT MULL), FLUOROLUBE FOR 3800-1330 CM^-^1, NUJOL FOR 1330-400 CM^-^1
##SAMPLING PROCEDURE=TRANSMISSION
##RESOLUTION=2
##DATA PROCESSING=DIGITIZED BY COBLENTZ SOCIETY (BATCH I) FROM HARD COPY
##XUNITS=1/CM
##YUNITS=TRANSMITTANCE
##XFACTOR=1
##YFACTOR=1
##DELTAX=1
##FIRSTX=3800
##LASTX=401
##FIRSTY=0.631
##MAXX=3800
##MINX=401
##MAXY=0.9109
##MINY=0.0327
##NPOINTS=3400
##XYDATA=(X++(Y..Y))
3800.000000 0.6310 0.6310 0.6310 0.6310 0.6312
3795.000000 0.6314 0.6316 0.6317 0.6319 0.6320
3790.000000 0.6322 0.6323 0.6325 0.6326 0.6328
3785.000000 0.6329 0.6331 0.6334 0.6338 0.6341
3780.000000 0.6345 0.6348 0.6352 0.6355 0.6359
3775.000000 0.6362 0.6366 0.6370 0.6374 0.6377
3770.000000 0.6381 0.6385 0.6389 0.6393 0.6397
3765.000000 0.6401 0.6405 0.6408 0.6412 0.6417
3760.000000 0.6421 0.6425 0.6428 0.6433 0.6437
3755.000000 0.6440 0.6443 0.6446 0.6449 0.6451
3750.000000 0.6455 0.6458 0.6461 0.6464 0.6467
3745.000000 0.6469 0.6472 0.6475 0.6478 0.6481
3740.000000 0.6484 0.6487 0.6490 0.6493 0.6496
3735.000000 0.6499 0.6501 0.6504 0.6507 0.6510
3730.000000 0.6512 0.6515 0.6518 0.6521 0.6525
3725.000000 0.6528 0.6531 0.6534 0.6537 0.6540
3720.000000 0.6543 0.6546 0.6549 0.6551 0.6555
3715.000000 0.6558 0.6561 0.6564 0.6567 0.6569
3710.000000 0.6572 0.6575 0.6578 0.6582 0.6585
3705.000000 0.6588 0.6591 0.6593 0.6596 0.6596
3700.000000 0.6597 0.6597 0.6598 0.6598 0.6598
3695.000000 0.6597 0.6597 0.6596 0.6596 0.6595
3690.000000 0.6595 0.6591 0.6591 0.6580 0.6572
3685.000000 0.6565 0.6558 0.6550 0.6542 0.6532
3680.000000 0.6522 0.6514 0.6505 0.6495 0.6486
3675.000000 0.6475 0.6467 0.6458 0.6450 0.6442
3670.000000 0.6435 0.6426 0.6419 0.6411 0.6405
3665.000000 0.6397 0.6390 0.6382 0.6375 0.6367
3660.000000 0.6360 0.6352 0.6345 0.6337 0.6330
3655.000000 0.6325 0.6320 0.6315 0.6310 0.6305
3650.000000 0.6300 0.6295 0.6290 0.6285 0.6280
3645.000000 0.6275 0.6270 0.6265 0.6260 0.6257
3640.000000 0.6254 0.6251 0.6248 0.6245 0.6242
3635.000000 0.6239 0.6236 0.6232 0.6228 0.6222
3630.000000 0.6217 0.6210 0.6205 0.6199 0.6193
3625.000000 0.6187 0.6182 0.6173 0.6165 0.6155
3620.000000 0.6146 0.6136 0.6127 0.6117 0.6108
3615.000000 0.6100 0.6092 0.6083 0.6075 0.6067
3610.000000 0.6059 0.6050 0.6042 0.6035 0.6028
3605.000000 0.6023 0.6018 0.6012 0.6009 0.6004
3600.000000 0.5999 0.5995 0.5992 0.5990 0.5989
3595.000000 0.5987 0.5985 0.5983 0.5982 0.5980
3590.000000 0.5979 0.5977 0.5976 0.5974 0.5973
3585.000000 0.5971 0.5970 0.5969 0.5968 0.5967
3580.000000 0.5966 0.5965 0.5964 0.5962 0.5962
3575.000000 0.5960 0.5960 0.5959 0.5958 0.5957
3570.000000 0.5956 0.5954 0.5953 0.5952 0.5951
3565.000000 0.5949 0.5948 0.5947 0.5946 0.5944
3560.000000 0.5943 0.5941 0.5939 0.5937 0.5936
3555.000000 0.5934 0.5932 0.5930 0.5928 0.5926
3550.000000 0.5924 0.5921 0.5918 0.5915 0.5912
3545.000000 0.5909 0.5906 0.5903 0.5900 0.5897
3540.000000 0.5894 0.5890 0.5886 0.5881 0.5877
3535.000000 0.5873 0.5869 0.5864 0.5860 0.5855
3530.000000 0.5851 0.5845 0.5839 0.5833 0.5827
3525.000000 0.5821 0.5815 0.5809 0.5804 0.5795
3520.000000 0.5787 0.5777 0.5767 0.5757 0.5747
3515.000000 0.5737 0.5727 0.5717 0.5707 0.5696
3510.000000 0.5685 0.5671 0.5657 0.5641 0.5626
3505.000000 0.5610 0.5595 0.5570 0.5546 0.5522
3500.000000 0.5499 0.5478 0.5458 0.5437 0.5417
3495.000000 0.5394 0.5371 0.5346 0.5321 0.5296
3490.000000 0.5271 0.5241 0.5210 0.5180 0.5149
3485.000000 0.5118 0.5087 0.5053 0.5020 0.4985
3480.000000 0.4950 0.4912 0.4875 0.4837 0.4800
3475.000000 0.4748 0.4697 0.4621 0.4545 0.4510
3470.000000 0.4477 0.4443 0.4409 0.4375 0.4341
3465.000000 0.4307 0.4273 0.4239 0.4206 0.4172
3460.000000 0.4138 0.4090 0.4043 0.3950 0.3858
3455.000000 0.3814 0.3773 0.3730 0.3688 0.3646
3450.000000 0.3605 0.3564 0.3523 0.3482 0.3441
3445.000000 0.3371 0.3300 0.3216 0.3134 0.3069
3440.000000 0.3004 0.2963 0.2922 0.2881 0.2841
3435.000000 0.2797 0.2753 0.2702 0.2652 0.2597
3430.000000 0.2542 0.2484 0.2428 0.2384 0.2343
3425.000000 0.2293 0.2244 0.2188 0.2133 0.2096
3420.000000 0.2059 0.2034 0.2009 0.1992 0.1975
3415.000000 0.1958 0.1942 0.1926 0.1910 0.1895
3410.000000 0.1882 0.1868 0.1854 0.1841 0.1828
3405.000000 0.1811 0.1794 0.1778 0.1762 0.1744
3400.000000 0.1728 0.1712 0.1695 0.1679 0.1664
3395.000000 0.1648 0.1632 0.1616 0.1600 0.1583
3390.000000 0.1567 0.1551 0.1535 0.1519 0.1503
3385.000000 0.1487 0.1471 0.1456 0.1441 0.1427
3380.000000 0.1413 0.1399 0.1385 0.1371 0.1358
3375.000000 0.1346 0.1337 0.1326 0.1315 0.1308
3370.000000 0.1301 0.1296 0.1292 0.1289 0.1286
3365.000000 0.1283 0.1280 0.1277 0.1302 0.1272
3360.000000 0.1269 0.1267 0.1266 0.1265 0.1264
3355.000000 0.1264 0.1264 0.1265 0.1269 0.1272
3350.000000 0.1275 0.1278 0.1281 0.1286 0.1291
3345.000000 0.1296 0.1303 0.1308 0.1314 0.1320
3340.000000 0.1326 0.1331 0.1337 0.1342 0.1349
3335.000000 0.1354 0.1360 0.1366 0.1372 0.1378
3330.000000 0.1384 0.1390 0.1396 0.1402 0.1408
3325.000000 0.1414 0.1420 0.1426 0.1433 0.1438
3320.000000 0.1442 0.1446 0.1450 0.1454 0.1458
3315.000000 0.1462 0.1466 0.1469 0.1473 0.1476
3310.000000 0.1479 0.1482 0.1485 0.1487 0.1490
3305.000000 0.1492 0.1496 0.1499 0.1502 0.1504
3300.000000 0.1507 0.1509 0.1512 0.1514 0.1517
3295.000000 0.1519 0.1522 0.1524 0.1527 0.1529
3290.000000 0.1531 0.1533 0.1535 0.1537 0.1539
3285.000000 0.1541 0.1542 0.1545 0.1546 0.1549
3280.000000 0.1551 0.1553 0.1555 0.1557 0.1560
3275.000000 0.1561 0.1563 0.1564 0.1566 0.1567
3270.000000 0.1569 0.1570 0.1572 0.1573 0.1575
3265.000000 0.1576 0.1578 0.1579 0.1581 0.1582
3260.000000 0.1584 0.1585 0.1587 0.1588 0.1590
3255.000000 0.1591 0.1592 0.1594 0.1595 0.1596
3250.000000 0.1598 0.1599 0.1601 0.1602 0.1603
3245.000000 0.1604 0.1606 0.1607 0.1608 0.1609
3240.000000 0.1611 0.1612 0.1614 0.1615 0.1616
3235.000000 0.1616 0.1616 0.1616 0.1616 0.1616
3230.000000 0.1617 0.1617 0.1617 0.1617 0.1617
3225.000000 0.1617 0.1618 0.1618 0.1618 0.1617
3220.000000 0.1617 0.1615 0.1614 0.1612 0.1611
3215.000000 0.1610 0.1609 0.1607 0.1606 0.1604
3210.000000 0.1604 0.1602 0.1601 0.1599 0.1598
3205.000000 0.1596 0.1596 0.1594 0.1592 0.1590
3200.000000 0.1588 0.1586 0.1584 0.1582 0.1581
3195.000000 0.1579 0.1577 0.1575 0.1573 0.1571
3190.000000 0.1569 0.1567 0.1566 0.1564 0.1562
3185.000000 0.1560 0.1558 0.1556 0.1554 0.1552
3180.000000 0.1551 0.1549 0.1546 0.1545 0.1542
3175.000000 0.1541 0.1539 0.1537 0.1536 0.1534
3170.000000 0.1532 0.1530 0.1528 0.1526 0.1524
3165.000000 0.1522 0.1521 0.1519 0.1518 0.1516
3160.000000 0.1515 0.1513 0.1512 0.1510 0.1508
3155.000000 0.1506 0.1505 0.1503 0.1502 0.1501
3150.000000 0.1501 0.1500 0.1500 0.1499 0.1499
3145.000000 0.1499 0.1499 0.1498 0.1498 0.1496
3140.000000 0.1496 0.1496 0.1496 0.1495 0.1495
3135.000000 0.1495 0.1495 0.1494 0.1494 0.1492
3130.000000 0.1492 0.1495 0.1496 0.1498 0.1500
3125.000000 0.1502 0.1504 0.1505 0.1507 0.1509
3120.000000 0.1511 0.1512 0.1514 0.1516 0.1518
3115.000000 0.1519 0.1521 0.1524 0.1527 0.1531
3110.000000 0.1535 0.1538 0.1542 0.1545 0.1549
3105.000000 0.1552 0.1556 0.1560 0.1564 0.1567
3100.000000 0.1571 0.1574 0.1578 0.1581 0.1585
3095.000000 0.1589 0.1594 0.1598 0.1602 0.1606
3090.000000 0.1611 0.1615 0.1620 0.1624 0.1629
3085.000000 0.1633 0.1636 0.1641 0.1645 0.1650
3080.000000 0.1654 0.1659 0.1663 0.1671 0.1679
3075.000000 0.1687 0.1696 0.1704 0.1714 0.1722
3070.000000 0.1729 0.1737 0.1746 0.1754 0.1764
3065.000000 0.1772 0.1781 0.1793 0.1806 0.1820
3060.000000 0.1834 0.1846 0.1861 0.1874 0.1887
3055.000000 0.1902 0.1916 0.1929 0.1943 0.1957
3050.000000 0.1972 0.1987 0.2004 0.2020 0.2035
3045.000000 0.2052 0.2068 0.2084 0.2100 0.2114
3040.000000 0.2129 0.2142 0.2156 0.2170 0.2184
3035.000000 0.2198 0.2212 0.2226 0.2240 0.2253
3030.000000 0.2267 0.2281 0.2295 0.2309 0.2323
3025.000000 0.2341 0.2359 0.2380 0.2402 0.2424
3020.000000 0.2446 0.2466 0.2487 0.2507 0.2528
3015.000000 0.2548 0.2569 0.2589 0.2609 0.2629
3010.000000 0.2650 0.2670 0.2691 0.2709 0.2727
3005.000000 0.2743 0.2759 0.2775 0.2792 0.2806
3000.000000 0.2821 0.2828 0.2835 0.2834 0.2834
2995.000000 0.2834 0.2834 0.2834 0.2834 0.2833
2990.000000 0.2833 0.2832 0.2832 0.2831 0.2831
2985.000000 0.2830 0.2830 0.2829 0.2829 0.2829
2980.000000 0.2829 0.2829 0.2830 0.2830 0.2831
2975.000000 0.2831 0.2832 0.2833 0.2834 0.2834
2970.000000 0.2834 0.2835 0.2837 0.2837 0.2838
2965.000000 0.2839 0.2840 0.2840 0.2841 0.2842
2960.000000 0.2843 0.2846 0.2850 0.2853 0.2856
2955.000000 0.2864 0.2872 0.2884 0.2899 0.2911
2950.000000 0.2924 0.2934 0.2945 0.2946 0.2947
2945.000000 0.2948 0.2950 0.2951 0.2952 0.2953
2940.000000 0.2955 0.2962 0.2969 0.2976 0.2983
2935.000000 0.2990 0.2998 0.3005 0.3012 0.3019
2930.000000 0.3027 0.3037 0.3048 0.3060 0.3073
2925.000000 0.3084 0.3098 0.3123 0.3148 0.3189
2920.000000 0.3230 0.3268 0.3305 0.3342 0.3379
2915.000000 0.3414 0.3450 0.3487 0.3523 0.3554
2910.000000 0.3584 0.3595 0.3606 0.3605 0.3605
2905.000000 0.3605 0.3605 0.3604 0.3604 0.3603
2900.000000 0.3603 0.3603 0.3603 0.3602 0.3602
2895.000000 0.3603 0.3604 0.3604 0.3605 0.3592
2890.000000 0.3580 0.3564 0.3549 0.3532 0.3518
2885.000000 0.3502 0.3486 0.3472 0.3458 0.3445
2880.000000 0.3432 0.3418 0.3407 0.3400 0.3395
2875.000000 0.3390 0.3384 0.3380 0.3376 0.3371
2870.000000 0.3372 0.3372 0.3378 0.3390 0.3403
2865.000000 0.3414 0.3427 0.3439 0.3452 0.3464
2860.000000 0.3476 0.3488 0.3500 0.3512 0.3524
2855.000000 0.3536 0.3548 0.3564 0.3580 0.3605
2850.000000 0.3630 0.3656 0.3682 0.3714 0.3748
2845.000000 0.3780 0.3812 0.3845 0.3878 0.3909
2840.000000 0.3943 0.3975 0.4008 0.4039 0.4071
2835.000000 0.4102 0.4133 0.4164 0.4195 0.4223
2830.000000 0.4251 0.4277 0.4304 0.4330 0.4357
2825.000000 0.4383 0.4409 0.4450 0.4491 0.4518
2820.000000 0.4545 0.4560 0.4577 0.4593 0.4609
2815.000000 0.4625 0.4641 0.4657 0.4673 0.4686
2810.000000 0.4700 0.4710 0.4720 0.4730 0.4740
2805.000000 0.4750 0.4760 0.4762 0.4765 0.4768
2800.000000 0.4771 0.4775 0.4780 0.4785 0.4790
2795.000000 0.4795 0.4800 0.4805 0.4810 0.4815
2790.000000 0.4820 0.4825 0.4830 0.4835 0.4840
2785.000000 0.4844 0.4849 0.4854 0.4859 0.4865
2780.000000 0.4871 0.4879 0.4887 0.4895 0.4903
2775.000000 0.4910 0.4919 0.4927 0.4935 0.4942
2770.000000 0.4950 0.4957 0.4964 0.4971 0.4979
2765.000000 0.4986 0.4993 0.5000 0.5008 0.5015
2760.000000 0.5022 0.5029 0.5037 0.5044 0.5051
2755.000000 0.5058 0.5066 0.5073 0.5080 0.5090
2750.000000 0.5101 0.5110 0.5121 0.5131 0.5142
2745.000000 0.5152 0.5162 0.5173 0.5184 0.5194
2740.000000 0.5204 0.5214 0.5225 0.5236 0.5248
2735.000000 0.5260 0.5272 0.5284 0.5296 0.5308
2730.000000 0.5320 0.5332 0.5344 0.5356 0.5368
2725.000000 0.5380 0.5392 0.5404 0.5416 0.5428
2720.000000 0.5440 0.5452 0.5464 0.5476 0.5488
2715.000000 0.5499 0.5510 0.5521 0.5532 0.5543
2710.000000 0.5554 0.5564 0.5575 0.5586 0.5597
2705.000000 0.5608 0.5619 0.5629 0.5640 0.5651
2700.000000 0.5662 0.5673 0.5684 0.5694 0.5705
2695.000000 0.5716 0.5727 0.5738 0.5749 0.5759
2690.000000 0.5770 0.5780 0.5790 0.5799 0.5809
2685.000000 0.5818 0.5828 0.5838 0.5848 0.5857
2680.000000 0.5867 0.5876 0.5886 0.5896 0.5906
2675.000000 0.5915 0.5925 0.5934 0.5944 0.5954
2670.000000 0.5964 0.5973 0.5983 0.5992 0.6002
2665.000000 0.6012 0.6022 0.6030 0.6039 0.6047
2660.000000 0.6055 0.6062 0.6070 0.6077 0.6085
2655.000000 0.6092 0.6100 0.6107 0.6115 0.6123
2650.000000 0.6131 0.6138 0.6146 0.6153 0.6160
2645.000000 0.6168 0.6176 0.6184 0.6192 0.6199
2640.000000 0.6207 0.6214 0.6222 0.6229 0.6237
2635.000000 0.6245 0.6253 0.6259 0.6266 0.6273
2630.000000 0.6280 0.6287 0.6294 0.6300 0.6307
2625.000000 0.6314 0.6321 0.6328 0.6335 0.6341
2620.000000 0.6348 0.6355 0.6362 0.6369 0.6376
2615.000000 0.6382 0.6389 0.6396 0.6403 0.6410
2610.000000 0.6417 0.6422 0.6430 0.6436 0.6443
2605.000000 0.6449 0.6456 0.6461 0.6468 0.6475
2600.000000 0.6482 0.6488 0.6495 0.6501 0.6508
2595.000000 0.6514 0.6521 0.6526 0.6534 0.6540
2590.000000 0.6547 0.6553 0.6560 0.6567 0.6574
2585.000000 0.6581 0.6588 0.6594 0.6601 0.6608
2580.000000 0.6615 0.6621 0.6628 0.6635 0.6642
2575.000000 0.6649 0.6656 0.6662 0.6669 0.6675
2570.000000 0.6683 0.6689 0.6696 0.6701 0.6707
2565.000000 0.6711 0.6717 0.6721 0.6726 0.6732
2560.000000 0.6738 0.6743 0.6748 0.6753 0.6758
2555.000000 0.6762 0.6768 0.6774 0.6778 0.6784
2550.000000 0.6789 0.6794 0.6799 0.6803 0.6808
2545.000000 0.6811 0.6815 0.6819 0.6825 0.6828
2540.000000 0.6833 0.6837 0.6842 0.6846 0.6850
2535.000000 0.6854 0.6858 0.6862 0.6867 0.6871
2530.000000 0.6875 0.6880 0.6884 0.6888 0.6893
2525.000000 0.6897 0.6901 0.6905 0.6910 0.6914
2520.000000 0.6918 0.6921 0.6926 0.6930 0.6934
2515.000000 0.6937 0.6940 0.6942 0.6945 0.6948
2510.000000 0.6951 0.6953 0.6956 0.6958 0.6961
2505.000000 0.6964 0.6967 0.6968 0.6971 0.6975
2500.000000 0.6978 0.6980 0.6983 0.6985 0.6988
2495.000000 0.6991 0.6994 0.6996 0.6999 0.7001
2490.000000 0.7005 0.7007 0.7008 0.7010 0.7011
2485.000000 0.7012 0.7015 0.7015 0.7018 0.7018
2480.000000 0.7021 0.7021 0.7024 0.7025 0.7026
2475.000000 0.7028 0.7030 0.7031 0.7033 0.7034
2470.000000 0.7036 0.7037 0.7039 0.7040 0.7042
2465.000000 0.7043 0.7045 0.7046 0.7048 0.7049
2460.000000 0.7051 0.7051 0.7054 0.7055 0.7057
2455.000000 0.7058 0.7061 0.7062 0.7065 0.7068
2450.000000 0.7069 0.7071 0.7075 0.7076 0.7078
2445.000000 0.7081 0.7084 0.7086 0.7089 0.7091
2440.000000 0.7093 0.7095 0.7098 0.7100 0.7101
2435.000000 0.7104 0.7107 0.7108 0.7111 0.7114
2430.000000 0.7115 0.7118 0.7121 0.7122 0.7125
2425.000000 0.7128 0.7131 0.7133 0.7136 0.7138
2420.000000 0.7141 0.7143 0.7146 0.7148 0.7151
2415.000000 0.7153 0.7156 0.7158 0.7160 0.7161
2410.000000 0.7164 0.7165 0.7168 0.7169 0.7171
2405.000000 0.7174 0.7175 0.7178 0.7180 0.7182
2400.000000 0.7184 0.7186 0.7188 0.7191 0.7194
2395.000000 0.7197 0.7201 0.7204 0.7207 0.7210
2390.000000 0.7212 0.7215 0.7219 0.7225 0.7230
2385.000000 0.7235 0.7240 0.7245 0.7250 0.7255
2380.000000 0.7260 0.7265 0.7269 0.7275 0.7281
2375.000000 0.7286 0.7291 0.7294 0.7298 0.7301
2370.000000 0.7304 0.7307 0.7310 0.7312 0.7315
2365.000000 0.7318 0.7321 0.7321 0.7321 0.7321
2360.000000 0.7321 0.7321 0.7321 0.7321 0.7321
2355.000000 0.7321 0.7322 0.7324 0.7325 0.7325
2350.000000 0.7326 0.7328 0.7328 0.7328 0.7330
2345.000000 0.7331 0.7332 0.7333 0.7334 0.7334
2340.000000 0.7335 0.7335 0.7335 0.7334 0.7333
2335.000000 0.7332 0.7332 0.7331 0.7331 0.7330
2330.000000 0.7328 0.7328 0.7328 0.7326 0.7326
2325.000000 0.7325 0.7325 0.7325 0.7324 0.7322
2320.000000 0.7321 0.7318 0.7315 0.7312 0.7311
2315.000000 0.7308 0.7308 0.7306 0.7305 0.7304
2310.000000 0.7303 0.7303 0.7303 0.7303 0.7305
2305.000000 0.7306 0.7308 0.7310 0.7311 0.7314
2300.000000 0.7315 0.7317 0.7318 0.7321 0.7322
2295.000000 0.7325 0.7326 0.7328 0.7330 0.7332
2290.000000 0.7335 0.7337 0.7340 0.7342 0.7345
2285.000000 0.7348 0.7351 0.7353 0.7356 0.7358
2280.000000 0.7361 0.7364 0.7367 0.7371 0.7375
2275.000000 0.7378 0.7382 0.7385 0.7389 0.7393
2270.000000 0.7397 0.7400 0.7404 0.7408 0.7411
2265.000000 0.7415 0.7418 0.7422 0.7426 0.7431
2260.000000 0.7436 0.7440 0.7445 0.7449 0.7454
2255.000000 0.7458 0.7462 0.7467 0.7471 0.7476
2250.000000 0.7482 0.7486 0.7491 0.7495 0.7500
2245.000000 0.7504 0.7508 0.7512 0.7518 0.7521
2240.000000 0.7526 0.7531 0.7536 0.7540 0.7545
2235.000000 0.7549 0.7554 0.7558 0.7561 0.7565
2230.000000 0.7569 0.7574 0.7578 0.7582 0.7587
2225.000000 0.7591 0.7595 0.7599 0.7603 0.7607
2220.000000 0.7611 0.7615 0.7619 0.7624 0.7628
2215.000000 0.7633 0.7638 0.7642 0.7647 0.7651
2210.000000 0.7657 0.7661 0.7667 0.7671 0.7675
2205.000000 0.7681 0.7686 0.7691 0.7696 0.7700
2200.000000 0.7705 0.7708 0.7714 0.7718 0.7722
2195.000000 0.7728 0.7733 0.7737 0.7742 0.7746
2190.000000 0.7751 0.7755 0.7760 0.7765 0.7769
2185.000000 0.7774 0.7778 0.7783 0.7787 0.7790
2180.000000 0.7794 0.7798 0.7801 0.7805 0.7808
2175.000000 0.7812 0.7817 0.7819 0.7824 0.7828
2170.000000 0.7832 0.7835 0.7839 0.7843 0.7847
2165.000000 0.7850 0.7854 0.7858 0.7861 0.7865
2160.000000 0.7868 0.7872 0.7876 0.7880 0.7884
2155.000000 0.7887 0.7891 0.7894 0.7898 0.7901
2150.000000 0.7905 0.7908 0.7911 0.7915 0.7918
2145.000000 0.7921 0.7925 0.7928 0.7933 0.7936
2140.000000 0.7940 0.7943 0.7947 0.7950 0.7954
2135.000000 0.7957 0.7961 0.7964 0.7968 0.7971
2130.000000 0.7975 0.7978 0.7982 0.7985 0.7989
2125.000000 0.7992 0.7996 0.7999 0.8003 0.8006
2120.000000 0.8010 0.8012 0.8017 0.8021 0.8025
2115.000000 0.8028 0.8032 0.8035 0.8039 0.8042
2110.000000 0.8046 0.8049 0.8053 0.8056 0.8060
2105.000000 0.8062 0.8067 0.8071 0.8075 0.8078
2100.000000 0.8082 0.8085 0.8089 0.8092 0.8096
2095.000000 0.8099 0.8103 0.8106 0.8110 0.8112
2090.000000 0.8117 0.8119 0.8124 0.8128 0.8132
2085.000000 0.8135 0.8139 0.8142 0.8145 0.8148
2080.000000 0.8151 0.8155 0.8158 0.8161 0.8165
2075.000000 0.8168 0.8172 0.8175 0.8180 0.8183
2070.000000 0.8186 0.8189 0.8193 0.8196 0.8200
2065.000000 0.8203 0.8207 0.8210 0.8214 0.8217
2060.000000 0.8220 0.8223 0.8227 0.8230 0.8234
2055.000000 0.8237 0.8241 0.8244 0.8248 0.8251
2050.000000 0.8254 0.8257 0.8261 0.8264 0.8267
2045.000000 0.8270 0.8274 0.8277 0.8280 0.8283
2040.000000 0.8287 0.8290 0.8293 0.8296 0.8300
2035.000000 0.8303 0.8306 0.8309 0.8313 0.8316
2030.000000 0.8318 0.8321 0.8325 0.8328 0.8332
2025.000000 0.8335 0.8338 0.8341 0.8345 0.8348
2020.000000 0.8352 0.8355 0.8358 0.8361 0.8365
2015.000000 0.8368 0.8371 0.8375 0.8378 0.8382
2010.000000 0.8386 0.8389 0.8392 0.8395 0.8399
2005.000000 0.8402 0.8406 0.8409 0.8413 0.8420
2000.000000 0.8427 0.8433 0.8440 0.8446 0.8451
1995.000000 0.8455 0.8459 0.8463 0.8467 0.8471
1990.000000 0.8475 0.8480 0.8484 0.8488 0.8491
1985.000000 0.8493 0.8496 0.8498 0.8501 0.8503
1980.000000 0.8506 0.8508 0.8511 0.8513 0.8515
1975.000000 0.8518 0.8518 0.8521 0.8523 0.8525
1970.000000 0.8525 0.8528 0.8530 0.8532 0.8533
1965.000000 0.8535 0.8537 0.8538 0.8539 0.8540
1960.000000 0.8541 0.8542 0.8543 0.8544 0.8544
1955.000000 0.8544 0.8544 0.8544 0.8544 0.8544
1950.000000 0.8544 0.8543 0.8540 0.8537 0.8534
1945.000000 0.8531 0.8528 0.8525 0.8521 0.8518
1940.000000 0.8513 0.8508 0.8503 0.8499 0.8494
1935.000000 0.8490 0.8486 0.8482 0.8478 0.8474
1930.000000 0.8470 0.8465 0.8461 0.8456 0.8451
1925.000000 0.8446 0.8443 0.8440 0.8436 0.8430
1920.000000 0.8428 0.8428 0.8425 0.8425 0.8424
1915.000000 0.8433 0.8449 0.8466 0.8478 0.8489
1910.000000 0.8500 0.8512 0.8524 0.8539 0.8554
1905.000000 0.8568 0.8578 0.8589 0.8599 0.8609
1900.000000 0.8612 0.8614 0.8617 0.8620 0.8623
1895.000000 0.8625 0.8628 0.8630 0.8632 0.8634
1890.000000 0.8637 0.8639 0.8641 0.8643 0.8645
1885.000000 0.8648 0.8650 0.8652 0.8654 0.8656
1880.000000 0.8658 0.8661 0.8663 0.8665 0.8667
1875.000000 0.8668 0.8671 0.8674 0.8675 0.8678
1870.000000 0.8681 0.8683 0.8685 0.8687 0.8689
1865.000000 0.8693 0.8697 0.8701 0.8705 0.8709
1860.000000 0.8713 0.8717 0.8721 0.8725 0.8728
1855.000000 0.8733 0.8735 0.8737 0.8739 0.8742
1850.000000 0.8744 0.8746 0.8746 0.8746 0.8745
1845.000000 0.8745 0.8744 0.8744 0.8743 0.8743
1840.000000 0.8742 0.8740 0.8737 0.8735 0.8733
1835.000000 0.8730 0.8725 0.8721 0.8716 0.8712
1830.000000 0.8707 0.8703 0.8698 0.8693 0.8689
1825.000000 0.8683 0.8678 0.8673 0.8668 0.8663
1820.000000 0.8659 0.8655 0.8651 0.8647 0.8644
1815.000000 0.8641 0.8641 0.8641 0.8641 0.8641
1810.000000 0.8641 0.8643 0.8647 0.8650 0.8654
1805.000000 0.8657 0.8660 0.8662 0.8664 0.8666
1800.000000 0.8668 0.8671 0.8673 0.8673 0.8674
1795.000000 0.8674 0.8674 0.8675 0.8675 0.8674
1790.000000 0.8671 0.8668 0.8667 0.8664 0.8662
1785.000000 0.8660 0.8657 0.8655 0.8652 0.8648
1780.000000 0.8643 0.8638 0.8634 0.8628 0.8625
1775.000000 0.8620 0.8615 0.8611 0.8603 0.8596
1770.000000 0.8589 0.8581 0.8574 0.8567 0.8560
1765.000000 0.8552 0.8542 0.8531 0.8521 0.8510
1760.000000 0.8500 0.8489 0.8475 0.8462 0.8448
1755.000000 0.8434 0.8420 0.8407 0.8393 0.8380
1750.000000 0.8367 0.8348 0.8328 0.8310 0.8285
1745.000000 0.8261 0.8237 0.8213 0.8187 0.8160
1740.000000 0.8115 0.8078 0.8045 0.8011 0.7978
1735.000000 0.7941 0.7905 0.7868 0.7836 0.7806
1730.000000 0.7776 0.7747 0.7718 0.7689 0.7643
1725.000000 0.7586 0.7528 0.7465 0.7401 0.7334
1720.000000 0.7250 0.7167 0.7082 0.6996 0.6910
1715.000000 0.6799 0.6671 0.6556 0.6450 0.6342
1710.000000 0.6214 0.6086 0.5951 0.5801 0.5652
1705.000000 0.5500 0.5348 0.5202 0.5056 0.4886
1700.000000 0.4542 0.4434 0.4126 0.3768 0.3390
1695.000000 0.3172 0.2983 0.2842 0.2701 0.2562
1690.000000 0.2380 0.2150 0.1979 0.1871 0.1791
1685.000000 0.1717 0.1629 0.1532 0.1444 0.1357
1680.000000 0.1281 0.1209 0.1137 0.1057 0.0959
1675.000000 0.0847 0.0753 0.0701 0.0654 0.0606
1670.000000 0.0557 0.0528 0.0512 0.0504 0.0495
1665.000000 0.0487 0.0482 0.0467 0.0452 0.0419
1660.000000 0.0392 0.0371 0.0357 0.0349 0.0327
1655.000000 0.0342 0.0341 0.0347 0.0360 0.0373
1650.000000 0.0386 0.0406 0.0425 0.0446 0.0466
1645.000000 0.0486 0.0506 0.0526 0.0547 0.0567
1640.000000 0.0604 0.0667 0.0723 0.0772 0.0821
1635.000000 0.0872 0.0926 0.0978 0.1028 0.1077
1630.000000 0.1111 0.1132 0.1144 0.1157 0.1170
1625.000000 0.1179 0.1178 0.1178 0.1177 0.1167
1620.000000 0.1157 0.1146 0.1130 0.1107 0.1084
1615.000000 0.1061 0.1024 0.0985 0.0945 0.0904
1610.000000 0.0862 0.0814 0.0766 0.0724 0.0685
1605.000000 0.0657 0.0629 0.0604 0.0586 0.0575
1600.000000 0.0567 0.0545 0.0646 0.0734 0.0821
1595.000000 0.0907 0.0989 0.1071 0.1132 0.1194
1590.000000 0.1255 0.1325 0.1412 0.1495 0.1555
1585.000000 0.1616 0.1686 0.1717 0.1736 0.1745
1580.000000 0.1758 0.1757 0.1757 0.1761 0.1752
1575.000000 0.1742 0.1728 0.1709 0.1689 0.1670
1570.000000 0.1626 0.1575 0.1530 0.1500 0.1471
1565.000000 0.1442 0.1437 0.1452 0.1434 0.1436
1560.000000 0.1438 0.1441 0.1448 0.1466 0.1494
1555.000000 0.1521 0.1554 0.1600 0.1648 0.1703
1550.000000 0.1758 0.1813 0.1875 0.1949 0.2024
1545.000000 0.2109 0.2213 0.2315 0.2410 0.2504
1540.000000 0.2700 0.2853 0.3067 0.3142 0.3218
1535.000000 0.3294 0.3370 0.3445 0.3521 0.3597
1530.000000 0.3672 0.3748 0.3824 0.3899 0.3975
1525.000000 0.4050 0.4126 0.4202 0.4278 0.4353
1520.000000 0.4429 0.4505 0.4679 0.4749 0.4814
1515.000000 0.4869 0.4921 0.4973 0.5023 0.5073
1510.000000 0.5135 0.5162 0.5177 0.5193 0.5197
1505.000000 0.5198 0.5202 0.5202 0.5193 0.5156
1500.000000 0.5082 0.4935 0.4740 0.4687 0.4691
1495.000000 0.4684 0.4688 0.4706 0.4817 0.5069
1490.000000 0.5178 0.5306 0.5326 0.5328 0.5336
1485.000000 0.5322 0.5308 0.5281 0.5251 0.5179
1480.000000 0.5060 0.4932 0.4801 0.4668 0.4546
1475.000000 0.4428 0.4352 0.4276 0.4192 0.4107
1470.000000 0.4034 0.3999 0.3999 0.4006 0.4027
1465.000000 0.4045 0.4062 0.4079 0.4101 0.4084
1460.000000 0.4070 0.4012 0.3697 0.3521 0.3323
1455.000000 0.3223 0.3165 0.3133 0.3150 0.3128
1450.000000 0.3140 0.3171 0.3210 0.3306 0.3386
1445.000000 0.3547 0.3549 0.3550 0.3555 0.3566
1440.000000 0.3579 0.3606 0.3652 0.3700 0.3766
1435.000000 0.3843 0.3921 0.3958 0.3989 0.3987
1430.000000 0.3979 0.3995 0.3962 0.3956 0.3926
1425.000000 0.3894 0.3860 0.3823 0.3766 0.3709
1420.000000 0.3650 0.3591 0.3509 0.3427 0.3345
1415.000000 0.3225 0.3062 0.2852 0.2735 0.2621
1410.000000 0.2506 0.1922 0.1804 0.1704 0.1636
1405.000000 0.1613 0.1598 0.1594 0.1594 0.1599
1400.000000 0.1606 0.1671 0.1766 0.1865 0.1946
1395.000000 0.2033 0.2081 0.2122 0.2125 0.2128
1390.000000 0.2131 0.2107 0.2071 0.2052 0.2044
1385.000000 0.2044 0.2044 0.2045 0.2069 0.2103
1380.000000 0.2164 0.2252 0.2318 0.2383 0.2458
1375.000000 0.2548 0.2582 0.2614 0.2632 0.2651
1370.000000 0.2654 0.2656 0.2659 0.2661 0.2665
1365.000000 0.2668 0.2671 0.2674 0.2677 0.2680
1360.000000 0.2691 0.2703 0.2727 0.2752 0.2782
1355.000000 0.2811 0.2838 0.2851 0.2856 0.2861
1350.000000 0.2861 0.2860 0.2853 0.2841 0.2823
1345.000000 0.2789 0.2739 0.2642 0.2414 0.2285
1340.000000 0.2087 0.1852 0.1617 0.1381 0.1155
1335.000000 0.1134 0.1115 0.1146 0.1173 0.1294
1330.000000 0.1550 0.1884 0.1999 0.2095 0.2169
1325.000000 0.2217 0.2251 0.2284 0.2319 0.2353
1320.000000 0.2430 0.2531 0.2981 0.3119 0.3258
1315.000000 0.3397 0.3534 0.3674 0.3812 0.3887
1310.000000 0.3889 0.3857 0.3805 0.3779 0.3773
1305.000000 0.3873 0.4014 0.4156 0.4297 0.4438
1300.000000 0.4579 0.4692 0.4693 0.4697 0.4576
1295.000000 0.4426 0.4328 0.4331 0.4453 0.4610
1290.000000 0.4770 0.4929 0.5087 0.5246 0.5405
1285.000000 0.5562 0.5722 0.5881 0.6051 0.6380
1280.000000 0.6636 0.6733 0.6828 0.6925 0.7037
1275.000000 0.7148 0.7217 0.7286 0.7349 0.7408
1270.000000 0.7468 0.7514 0.7549 0.7581 0.7598
1265.000000 0.7615 0.7632 0.7648 0.7662 0.7678
1260.000000 0.7693 0.7708 0.7721 0.7736 0.7749
1255.000000 0.7762 0.7774 0.7786 0.7798 0.7808
1250.000000 0.7821 0.7834 0.7842 0.7845 0.7847
1245.000000 0.7855 0.7826 0.7787 0.7717 0.7632
1240.000000 0.7298 0.7142 0.7061 0.6971 0.6958
1235.000000 0.6937 0.6937 0.7068 0.7189 0.7274
1230.000000 0.7358 0.7505 0.7549 0.7546 0.7542
1225.000000 0.7537 0.7533 0.7528 0.7526 0.7525
1220.000000 0.7511 0.7504 0.7498 0.7492 0.7488
1215.000000 0.7485 0.7481 0.7478 0.7474 0.7471
1210.000000 0.7468 0.7468 0.7467 0.7467 0.7468
1205.000000 0.7469 0.7471 0.7475 0.7480 0.7484
1200.000000 0.7484 0.7484 0.7480 0.7476 0.7438
1195.000000 0.7383 0.7328 0.7272 0.7199 0.6975
1190.000000 0.6807 0.6315 0.6272 0.6258 0.6240
1185.000000 0.6237 0.6285 0.6437 0.6589 0.6774
1180.000000 0.6751 0.6748 0.6734 0.6660 0.6525
1175.000000 0.6364 0.6201 0.5687 0.5320 0.4867
1170.000000 0.4412 0.3959 0.3507 0.3053 0.2294
1165.000000 0.0764 0.0531 0.0457 0.0465 0.0465
1160.000000 0.0464 0.0482 0.0521 0.0572 0.0677
1155.000000 0.0803 0.1146 0.1396 0.1584 0.1936
1150.000000 0.2075 0.2229 0.2974 0.3768 0.3959
1145.000000 0.4072 0.4182 0.4362 0.4983 0.5083
1140.000000 0.5182 0.5286 0.5391 0.5490 0.5555
1135.000000 0.5614 0.5684 0.5752 0.5797 0.5810
1130.000000 0.5825 0.5827 0.5827 0.5827 0.5827
1125.000000 0.5827 0.5827 0.5833 0.5841 0.5923
1120.000000 0.6049 0.6166 0.6259 0.6334 0.6366
1115.000000 0.6398 0.6399 0.6400 0.6399 0.6398
1110.000000 0.6384 0.6364 0.6329 0.6295 0.6189
1105.000000 0.6027 0.5822 0.5662 0.5209 0.4853
1100.000000 0.4420 0.3986 0.3553 0.3119 0.2685
1095.000000 0.2401 0.2413 0.2387 0.2409 0.2466
1090.000000 0.2880 0.3275 0.3671 0.4066 0.4462
1085.000000 0.4857 0.5253 0.6043 0.6506 0.6651
1080.000000 0.6748 0.6844 0.6918 0.6989 0.7062
1075.000000 0.7154 0.7245 0.7314 0.7381 0.7441
1070.000000 0.7505 0.7555 0.7576 0.7586 0.7585
1065.000000 0.7597 0.7596 0.7578 0.7541 0.7464
1060.000000 0.7262 0.7133 0.7151 0.7151 0.7156
1055.000000 0.7208 0.7295 0.7414 0.7524 0.7644
1050.000000 0.7756 0.7884 0.7908 0.7919 0.7935
1045.000000 0.7921 0.7911 0.7878 0.7825 0.7754
1040.000000 0.7701 0.7689 0.7689 0.7693 0.7708
1035.000000 0.7725 0.7825 0.7962 0.8094 0.8307
1030.000000 0.8498 0.8588 0.8649 0.8657 0.8634
1025.000000 0.8668 0.8616 0.8528 0.8389 0.8153
1020.000000 0.8175 0.8176 0.8675 0.8866 0.8940
1015.000000 0.8978 0.9006 0.9016 0.9014 0.9023
1010.000000 0.9021 0.9012 0.8990 0.8943 0.8896
1005.000000 0.8814 0.8721 0.8625 0.8511 0.8336
1000.000000 0.8291 0.8217 0.8268 0.8265 0.8287
995.000000 0.8328 0.8384 0.8465 0.8528 0.8571
990.000000 0.8617 0.8661 0.8704 0.8746 0.8787
985.000000 0.8827 0.8865 0.8866 0.8868 0.8868
980.000000 0.8871 0.8873 0.8874 0.8905 0.8878
975.000000 0.8880 0.8882 0.8884 0.8885 0.8885
970.000000 0.8884 0.8883 0.8883 0.8882 0.8863
965.000000 0.8835 0.8797 0.8754 0.8710 0.8661
960.000000 0.8594 0.8527 0.8412 0.8283 0.8131
955.000000 0.7998 0.7893 0.7769 0.7701 0.7683
950.000000 0.7682 0.7681 0.7681 0.7711 0.7748
945.000000 0.7803 0.7858 0.7919 0.8064 0.8133
940.000000 0.8198 0.8228 0.8258 0.8284 0.8285
935.000000 0.8275 0.8270 0.8265 0.8259 0.8253
930.000000 0.8245 0.8237 0.8228 0.8221 0.8213
925.000000 0.8199 0.8184 0.8168 0.8154 0.8141
920.000000 0.8151 0.8161 0.8171 0.8184 0.8196
915.000000 0.8202 0.8182 0.8160 0.8138 0.8122
910.000000 0.8114 0.8104 0.8084 0.8092 0.8086
905.000000 0.8117 0.8161 0.8208 0.8266 0.8324
900.000000 0.8387 0.8443 0.8460 0.8457 0.8454
895.000000 0.8442 0.8421 0.8411 0.8411 0.8412
890.000000 0.8416 0.8421 0.8430 0.8460 0.8493
885.000000 0.8528 0.8566 0.8604 0.8644 0.8683
880.000000 0.8721 0.8756 0.8791 0.8825 0.8860
875.000000 0.8895 0.8934 0.8973 0.9006 0.9039
870.000000 0.9070 0.9089 0.9101 0.9108 0.9108
865.000000 0.9109 0.9099 0.9088 0.9065 0.9038
860.000000 0.9011 0.8983 0.8954 0.8911 0.8855
855.000000 0.8799 0.8746 0.8706 0.8666 0.8625
850.000000 0.8586 0.8543 0.8496 0.8448 0.8401
845.000000 0.8352 0.8299 0.8268 0.8245 0.8238
840.000000 0.8233 0.8242 0.8252 0.8259 0.8260
835.000000 0.8260 0.8257 0.8253 0.8246 0.8239
830.000000 0.8225 0.8209 0.8125 0.7515 0.7415
825.000000 0.7305 0.6967 0.6630 0.6293 0.5955
820.000000 0.5618 0.5374 0.5315 0.5278 0.5279
815.000000 0.5280 0.5309 0.5381 0.5495 0.5789
810.000000 0.5934 0.6087 0.6443 0.6811 0.6849
805.000000 0.6882 0.6921 0.6974 0.7035 0.7157
800.000000 0.7297 0.7369 0.7400 0.7424 0.7439
795.000000 0.7440 0.7440 0.7440 0.7412 0.7353
790.000000 0.7278 0.7193 0.7026 0.6892 0.6790
785.000000 0.6712 0.6654 0.6607 0.6581 0.6560
780.000000 0.6553 0.6545 0.6528 0.6506 0.6483
775.000000 0.6437 0.6392 0.6347 0.6302 0.6262
770.000000 0.6222 0.6181 0.6141 0.6092 0.6033
765.000000 0.5973 0.5915 0.5865 0.5814 0.5764
760.000000 0.5732 0.5705 0.5681 0.5672 0.5662
755.000000 0.5653 0.5643 0.5633 0.5623 0.5612
750.000000 0.5603 0.5593 0.5583 0.5572 0.5562
745.000000 0.5551 0.5516 0.5455 0.5393 0.5359
740.000000 0.5328 0.5298 0.5279 0.5252 0.5215
735.000000 0.5179 0.5137 0.5079 0.5007 0.4936
730.000000 0.4843 0.4746 0.4660 0.4576 0.4501
725.000000 0.4450 0.4424 0.4406 0.4399 0.4391
720.000000 0.4383 0.4375 0.4364 0.4335 0.4289
715.000000 0.4232 0.4149 0.4032 0.3923 0.3794
710.000000 0.3738 0.3738 0.3739 0.3741 0.3768
705.000000 0.3800 0.3903 0.3980 0.3982 0.3982
700.000000 0.3982 0.3984 0.3984 0.3984 0.3984
695.000000 0.3986 0.3986 0.3984 0.3997 0.3979
690.000000 0.3977 0.3975 0.3972 0.3970 0.3968
685.000000 0.3968 0.3966 0.3962 0.3959 0.3954
680.000000 0.3936 0.3906 0.3844 0.3750 0.3688
675.000000 0.3656 0.3623 0.3597 0.3572 0.3527
670.000000 0.3093 0.3087 0.3087 0.3088 0.3090
665.000000 0.3102 0.3129 0.3179 0.3237 0.3321
660.000000 0.3416 0.3516 0.3618 0.3718 0.3964
655.000000 0.4237 0.4510 0.4782 0.5054 0.5326
650.000000 0.5599 0.5871 0.5953 0.5982 0.6000
645.000000 0.6018 0.6030 0.6038 0.6039 0.6039
640.000000 0.6032 0.6019 0.5998 0.5989 0.5982
635.000000 0.5976 0.5969 0.5965 0.5960 0.5957
630.000000 0.5954 0.5962 0.5972 0.5981 0.5991
625.000000 0.6001 0.6010 0.6018 0.6022 0.6027
620.000000 0.6032 0.6037 0.6042 0.6047 0.6045
615.000000 0.6043 0.6051 0.6038 0.6035 0.6033
610.000000 0.6022 0.6009 0.5997 0.5984 0.5967
605.000000 0.5942 0.5916 0.5891 0.5866 0.5840
600.000000 0.5810 0.5781 0.5752 0.5719 0.5676
595.000000 0.5632 0.5588 0.5526 0.5462 0.5394
590.000000 0.5316 0.5239 0.5166 0.5099 0.5031
585.000000 0.4962 0.4876 0.4693 0.4488 0.4322
580.000000 0.4201 0.4022 0.3854 0.3599 0.3318
575.000000 0.3039 0.2759 0.2479 0.2199 0.2016
570.000000 0.2009 0.2008 0.2017 0.2053 0.2098
565.000000 0.2152 0.2206 0.2303 0.2477 0.3368
560.000000 0.3457 0.3580 0.3632 0.3639 0.3643
555.000000 0.3630 0.3526 0.3414 0.3303 0.3192
550.000000 0.3111 0.3081 0.3107 0.3133 0.3829
545.000000 0.4082 0.4254 0.4404 0.4674 0.4856
540.000000 0.4996 0.5136 0.5269 0.5402 0.5524
535.000000 0.5638 0.5738 0.5812 0.5886 0.5960
530.000000 0.6027 0.6094 0.6160 0.6226 0.6289
525.000000 0.6350 0.6408 0.6461 0.6511 0.6564
520.000000 0.6606 0.6647 0.6689 0.6722 0.6754
515.000000 0.6786 0.6818 0.6856 0.6888 0.6914
510.000000 0.6940 0.6953 0.6964 0.6974 0.6983
505.000000 0.6988 0.6994 0.6999 0.7004 0.7004
500.000000 0.7005 0.6985 0.6961 0.6936 0.6912
495.000000 0.6892 0.6875 0.6869 0.6843 0.6862
490.000000 0.6861 0.6878 0.6898 0.6919 0.6946
485.000000 0.6972 0.6999 0.7025 0.7061 0.7098
480.000000 0.7134 0.7169 0.7201 0.7230 0.7258
475.000000 0.7287 0.7315 0.7339 0.7361 0.7385
470.000000 0.7405 0.7421 0.7437 0.7448 0.7444
465.000000 0.7418 0.7436 0.7432 0.7425 0.7412
460.000000 0.7401 0.7389 0.7376 0.7364 0.7347
455.000000 0.7331 0.7315 0.7298 0.7275 0.7244
450.000000 0.7214 0.7184 0.7153 0.7115 0.7062
445.000000 0.7005 0.6941 0.6899 0.6865 0.6832
440.000000 0.6811 0.6792 0.6774 0.6760 0.6749
435.000000 0.6738 0.6726 0.6708 0.6690 0.6671
430.000000 0.6653 0.6618 0.6580 0.6541 0.6499
425.000000 0.6440 0.6382 0.6318 0.6245 0.6172
420.000000 0.6106 0.6055 0.6005 0.5954 0.5922
415.000000 0.5895 0.5881 0.5873 0.5869 0.5866
410.000000 0.5867 0.5867 0.5871 0.5876 0.5880
405.000000 0.5884 0.5888 0.5893 0.5898 0.5903
##END=
