##TITLE=ANTIMONY OXIDE
##JCAMP-DX=4.24
##DATA TYPE=INFRARED SPECTRUM
##CLASS=COBLENTZ
##ORIGIN=DESOTO, INC.
##OWNER=COBLENTZ SOCIETY
Collection (C) 2018 copyright by the U.S. Secretary of Commerce
on behalf of the United States of America. All rights reserved.
##DATE=Not specified, most likely prior to 1970
##NAMES=1,3-dioxodistiboxane
##MOLFORM=O3 Sb2
$$ 99+% PURE
##SOURCE REFERENCE=COBLENTZ NO. 4656
##$NIST ID=B6004656
##$NIST SOURCE=COBLENTZ
##$NIST IMAGE=cob4656
##SPECTROMETER/DATA SYSTEM=BECKMAN IR-12 (GRATING)
##INSTRUMENT PARAMETERS=GRATING BLAZED AT 3330, 1330, 445, 220 CM^-^1
##STATE=SOLID (0.5 mg / 300 mg CsI DISC)
##SAMPLING PROCEDURE=TRANSMISSION
##RESOLUTION=4
##DATA PROCESSING=DIGITIZED BY NIST FROM HARD COPY (FROM TWO SEGMENTS)
##XUNITS=1/CM
##YUNITS=TRANSMITTANCE
##XFACTOR=1.000000
##YFACTOR=1
##DELTAX=1.329396
##FIRSTX=203.988
##LASTX=3983.46
##FIRSTY=0.888
##MAXX=3983.46
##MINX=203.988
##MAXY=0.976
##MINY=0.125
##NPOINTS=2844
##XYDATA=(X++(Y..Y))
203.988000 0.8880 0.8880 0.8880 0.8880 0.8880
210.634978 0.8880 0.8880 0.8880 0.8880 0.8880
217.281955 0.8880 0.8880 0.8880 0.8880 0.8860
223.928933 0.8850 0.8850 0.8840 0.8820 0.8820
230.575911 0.8800 0.8800 0.8780 0.8780 0.8760
237.222889 0.8730 0.8710 0.8650 0.8600 0.8511
243.869866 0.8250 0.8080 0.7691 0.7221 0.6542
250.516844 0.6251 0.6021 0.5751 0.5412 0.5142
257.163822 0.5030 0.4860 0.4760 0.4600 0.4460
263.810799 0.4450 0.4410 0.4400 0.4380 0.4370
270.457777 0.4370 0.4370 0.4380 0.4440 0.4450
277.104755 0.4460 0.4480 0.4490 0.4530 0.4619
283.751733 0.4740 0.4780 0.4860 0.4900 0.5010
290.398710 0.5130 0.5180 0.5230 0.5389 0.5569
297.045688 0.5690 0.5790 0.5910 0.6030 0.6100
303.692666 0.6170 0.6220 0.6250 0.6260 0.6280
310.339643 0.6360 0.6430 0.6580 0.6680 0.6740
316.986621 0.6780 0.6800 0.6880 0.6979 0.7040
323.633599 0.7140 0.7220 0.7310 0.7390 0.7480
330.280577 0.7510 0.7570 0.7600 0.7680 0.7750
336.927554 0.7800 0.7840 0.7880 0.7920 0.7950
343.574532 0.7990 0.8010 0.8030 0.8040 0.8050
350.221510 0.8050 0.8080 0.8080 0.8090 0.8090
356.868487 0.8110 0.8110 0.8110 0.8110 0.8110
363.515465 0.8110 0.8090 0.8090 0.8080 0.8080
370.162443 0.8050 0.8050 0.8050 0.8040 0.8030
376.809421 0.8000 0.7970 0.7890 0.7810 0.7770
383.456398 0.7650 0.5997 0.5701 0.5113 0.4842
390.103376 0.4820 0.4840 0.5010 0.5150 0.5379
396.750354 0.5609 0.6028 0.6378 0.6658 0.6789
403.397332 0.6910 0.7160 0.7350 0.7480 0.7520
410.044309 0.7610 0.7680 0.7720 0.7790 0.7850
416.691287 0.7880 0.7920 0.7970 0.7990 0.8010
423.338265 0.8040 0.8080 0.8090 0.8110 0.8110
429.985242 0.8110 0.8120 0.8150 0.8190 0.8200
436.632220 0.8200 0.8210 0.8210 0.8210 0.8240
443.279198 0.8240 0.8280 0.8290 0.8290 0.8290
449.926176 0.8290 0.8310 0.8310 0.8310 0.8320
456.573153 0.8320 0.8320 0.8320 0.8310 0.8310
463.220131 0.8310 0.8320 0.8320 0.8320 0.8350
469.867109 0.8360 0.8360 0.8360 0.8370 0.8370
476.514086 0.8370 0.8370 0.8360 0.8360 0.8360
483.161064 0.8350 0.8330 0.8320 0.8320 0.8310
489.808042 0.8310 0.8290 0.8290 0.8290 0.8290
496.455020 0.8290 0.8290 0.8280 0.8280 0.8280
503.101997 0.8280 0.8280 0.8280 0.8280 0.8280
509.748975 0.8290 0.8290 0.8290 0.8290 0.8310
516.395953 0.8320 0.8320 0.8330 0.8350 0.8350
523.042930 0.8390 0.8390 0.8400 0.8400 0.8410
529.689908 0.8410 0.8410 0.8410 0.8410 0.8410
536.336886 0.8400 0.8390 0.8390 0.8370 0.8360
542.983864 0.8350 0.8330 0.8330 0.8330 0.8330
549.630841 0.8320 0.8320 0.8310 0.8290 0.8250
556.277819 0.8240 0.8230 0.8210 0.8200 0.8190
562.924797 0.8160 0.8130 0.8110 0.8110 0.8090
569.571774 0.8090 0.8080 0.8080 0.8070 0.8030
576.218752 0.8010 0.8000 0.7990 0.7930 0.7920
582.865730 0.7910 0.7880 0.7870 0.7850 0.7850
589.512708 0.7830 0.7800 0.7800 0.7770 0.7720
596.159685 0.7690 0.7680 0.7670 0.7650 0.7640
602.806663 0.7630 0.7610 0.7600 0.7590 0.7590
609.453641 0.7570 0.7560 0.7560 0.7560 0.7550
616.100618 0.7550 0.7550 0.7550 0.7530 0.7530
622.747596 0.7530 0.7530 0.7530 0.7530 0.7550
629.394574 0.7550 0.7550 0.7560 0.7560 0.7560
636.041552 0.7560 0.7570 0.7570 0.7590 0.7590
642.688529 0.7600 0.7600 0.7630 0.7640 0.7650
649.335507 0.7650 0.7650 0.7670 0.7680 0.7680
655.982485 0.7690 0.7690 0.7690 0.7690 0.7710
662.629462 0.7710 0.7710 0.7710 0.7690 0.7690
669.276440 0.7690 0.7690 0.7690 0.7690 0.7690
675.923418 0.7690 0.7690 0.7690 0.7690 0.7710
682.570396 0.7710 0.7710 0.7710 0.7710 0.7710
689.217373 0.7710 0.7710 0.7690 0.7690 0.7680
695.864351 0.7670 0.7650 0.7640 0.7630 0.7610
702.511329 0.7570 0.7530 0.7480 0.7440 0.7390
709.158306 0.7310 0.7280 0.7190 0.7100 0.6701
715.805284 0.6501 0.6221 0.5981 0.5592 0.4984
722.452262 0.4610 0.4090 0.3391 0.3011 0.2811
729.099240 0.2521 0.2401 0.1902 0.1801 0.1681
735.746217 0.1580 0.1420 0.1390 0.1340 0.1270
742.393195 0.1260 0.1250 0.1250 0.1260 0.1270
749.040173 0.1340 0.1420 0.1460 0.1620 0.1829
755.687151 0.1960 0.2079 0.2219 0.2389 0.2589
762.334128 0.2710 0.2850 0.2990 0.3090 0.3279
768.981106 0.3559 0.3719 0.3859 0.4198 0.4478
775.628084 0.4720 0.4970 0.5110 0.5230 0.5350
782.275061 0.5539 0.5849 0.6208 0.6439 0.6708
788.922039 0.6870 0.7020 0.7300 0.7440 0.7729
795.569017 0.7969 0.8109 0.8209 0.8309 0.8360
802.215995 0.8400 0.8470 0.8600 0.8720 0.8730
808.862972 0.8800 0.8840 0.8930 0.9000 0.9020
815.509950 0.9040 0.9090 0.9100 0.9140 0.9180
822.156928 0.9200 0.9210 0.9220 0.9250 0.9250
828.803905 0.9260 0.9280 0.9290 0.9290 0.9290
835.450883 0.9290 0.9300 0.9320 0.9320 0.9320
842.097861 0.9320 0.9330 0.9360 0.9370 0.9370
848.744839 0.9380 0.9400 0.9400 0.9400 0.9410
855.391816 0.9420 0.9420 0.9460 0.9480 0.9490
862.038794 0.9500 0.9520 0.9530 0.9530 0.9540
868.685772 0.9560 0.9570 0.9620 0.9640 0.9650
875.332749 0.9660 0.9680 0.9700 0.9700 0.9720
881.979727 0.9730 0.9740 0.9740 0.9740 0.9760
888.626705 0.9760 0.9760 0.9760 0.9760 0.9760
895.273683 0.9760 0.9740 0.9740 0.9740 0.9730
901.920660 0.9730 0.9730 0.9720 0.9700 0.9700
908.567638 0.9690 0.9680 0.9680 0.9660 0.9650
915.214616 0.9650 0.9640 0.9640 0.9640 0.9620
921.861593 0.9620 0.9610 0.9580 0.9580 0.9570
928.508571 0.9560 0.9540 0.9530 0.9520 0.9520
935.155549 0.9520 0.9520 0.9500 0.9500 0.9460
941.802527 0.9440 0.9440 0.9420 0.9420 0.9400
948.449504 0.9380 0.9360 0.9330 0.9300 0.9290
955.096482 0.9250 0.9220 0.9210 0.9200 0.9180
961.743460 0.9170 0.9160 0.9140 0.9140 0.9140
968.390437 0.9130 0.9130 0.9130 0.9130 0.9130
975.037415 0.9130 0.9130 0.9140 0.9140 0.9140
981.684393 0.9160 0.9160 0.9180 0.9180 0.9200
988.331371 0.9200 0.9210 0.9210 0.9220 0.9220
994.978348 0.9240 0.9260 0.9290 0.9300 0.9320
1001.625326 0.9340 0.9370 0.9410 0.9420 0.9440
1008.272304 0.9450 0.9450 0.9450 0.9450 0.9460
1014.919281 0.9500 0.9500 0.9500 0.9520 0.9520
1021.566259 0.9530 0.9530 0.9530 0.9540 0.9540
1028.213237 0.9530 0.9530 0.9530 0.9530 0.9530
1034.860215 0.9530 0.9530 0.9530 0.9530 0.9540
1041.507192 0.9560 0.9560 0.9540 0.9530 0.9530
1048.154170 0.9530 0.9540 0.9560 0.9570 0.9570
1054.801148 0.9570 0.9570 0.9580 0.9580 0.9580
1061.448125 0.9580 0.9570 0.9570 0.9570 0.9560
1068.095103 0.9540 0.9530 0.9530 0.9520 0.9520
1074.742081 0.9520 0.9520 0.9500 0.9500 0.9500
1081.389059 0.9520 0.9520 0.9520 0.9500 0.9500
1088.036036 0.9490 0.9490 0.9490 0.9490 0.9490
1094.683014 0.9500 0.9500 0.9500 0.9500 0.9500
1101.329992 0.9500 0.9520 0.9520 0.9520 0.9520
1107.976970 0.9500 0.9500 0.9500 0.9520 0.9520
1114.623947 0.9520 0.9520 0.9520 0.9530 0.9530
1121.270925 0.9530 0.9530 0.9530 0.9540 0.9540
1127.917903 0.9540 0.9560 0.9560 0.9560 0.9560
1134.564880 0.9560 0.9560 0.9570 0.9570 0.9570
1141.211858 0.9560 0.9560 0.9560 0.9570 0.9570
1147.858836 0.9570 0.9570 0.9570 0.9570 0.9570
1154.505814 0.9570 0.9570 0.9570 0.9570 0.9580
1161.152791 0.9580 0.9580 0.9580 0.9580 0.9580
1167.799769 0.9600 0.9600 0.9610 0.9610 0.9610
1174.446747 0.9600 0.9600 0.9610 0.9610 0.9610
1181.093724 0.9610 0.9610 0.9620 0.9620 0.9620
1187.740702 0.9640 0.9640 0.9650 0.9650 0.9650
1194.387680 0.9650 0.9650 0.9650 0.9650 0.9660
1201.034658 0.9660 0.9660 0.9660 0.9660 0.9660
1207.681635 0.9650 0.9650 0.9650 0.9660 0.9660
1214.328613 0.9660 0.9660 0.9660 0.9660 0.9680
1220.975591 0.9680 0.9680 0.9680 0.9680 0.9690
1227.622568 0.9690 0.9690 0.9690 0.9690 0.9690
1234.269546 0.9690 0.9690 0.9700 0.9700 0.9700
1240.916524 0.9700 0.9700 0.9700 0.9700 0.9700
1247.563502 0.9720 0.9720 0.9720 0.9720 0.9720
1254.210479 0.9720 0.9720 0.9720 0.9720 0.9720
1260.857457 0.9720 0.9700 0.9700 0.9700 0.9700
1267.504435 0.9720 0.9720 0.9720 0.9720 0.9730
1274.151412 0.9720 0.9720 0.9720 0.9720 0.9720
1280.798390 0.9720 0.9720 0.9720 0.9720 0.9720
1287.445368 0.9730 0.9740 0.9740 0.9740 0.9730
1294.092346 0.9720 0.9720 0.9720 0.9720 0.9720
1300.739323 0.9700 0.9690 0.9690 0.9690 0.9700
1307.386301 0.9720 0.9720 0.9720 0.9720 0.9720
1314.033279 0.9700 0.9690 0.9690 0.9700 0.9700
1320.680256 0.9700 0.9720 0.9720 0.9700 0.9700
1327.327234 0.9700 0.9700 0.9700 0.9720 0.9720
1333.974212 0.9720 0.9700 0.9700 0.9700 0.9720
1340.621190 0.9720 0.9720 0.9720 0.9720 0.9720
1347.268167 0.9720 0.9730 0.9730 0.9720 0.9720
1353.915145 0.9720 0.9720 0.9720 0.9720 0.9720
1360.562123 0.9720 0.9720 0.9720 0.9720 0.9720
1367.209100 0.9720 0.9720 0.9720 0.9700 0.9690
1373.856078 0.9690 0.9690 0.9690 0.9690 0.9700
1380.503056 0.9720 0.9720 0.9720 0.9720 0.9700
1387.150034 0.9700 0.9700 0.9720 0.9730 0.9730
1393.797011 0.9730 0.9730 0.9730 0.9720 0.9720
1400.443989 0.9720 0.9720 0.9720 0.9720 0.9720
1407.090967 0.9730 0.9730 0.9730 0.9730 0.9730
1413.737944 0.9730 0.9720 0.9720 0.9720 0.9720
1420.384922 0.9720 0.9720 0.9720 0.9720 0.9720
1427.031900 0.9720 0.9700 0.9690 0.9690 0.9690
1433.678878 0.9690 0.9690 0.9700 0.9700 0.9700
1440.325855 0.9700 0.9720 0.9720 0.9700 0.9700
1446.972833 0.9720 0.9720 0.9720 0.9700 0.9690
1453.619811 0.9690 0.9690 0.9700 0.9700 0.9700
1460.266789 0.9700 0.9700 0.9690 0.9690 0.9690
1466.913766 0.9690 0.9700 0.9700 0.9720 0.9720
1473.560744 0.9730 0.9730 0.9720 0.9720 0.9720
1480.207722 0.9720 0.9720 0.9720 0.9720 0.9720
1486.854699 0.9720 0.9720 0.9720 0.9720 0.9720
1493.501677 0.9720 0.9720 0.9720 0.9720 0.9720
1500.148655 0.9720 0.9720 0.9720 0.9720 0.9730
1506.795633 0.9740 0.9740 0.9740 0.9740 0.9740
1513.442610 0.9740 0.9740 0.9730 0.9730 0.9720
1520.089588 0.9720 0.9700 0.9700 0.9700 0.9700
1526.736566 0.9700 0.9700 0.9690 0.9690 0.9690
1533.383543 0.9690 0.9690 0.9690 0.9690 0.9680
1540.030521 0.9680 0.9680 0.9680 0.9680 0.9680
1546.677499 0.9680 0.9680 0.9680 0.9680 0.9680
1553.324477 0.9680 0.9680 0.9680 0.9660 0.9660
1559.971454 0.9660 0.9660 0.9660 0.9650 0.9650
1566.618432 0.9650 0.9650 0.9640 0.9620 0.9620
1573.265410 0.9610 0.9610 0.9600 0.9600 0.9540
1579.912387 0.9530 0.9520 0.9490 0.9490 0.9450
1586.559365 0.9440 0.9410 0.9400 0.9370 0.9340
1593.206343 0.9320 0.9290 0.9250 0.9240 0.9200
1599.853321 0.9130 0.9100 0.9060 0.9040 0.8980
1606.500298 0.8940 0.8920 0.8890 0.8850 0.8810
1613.147276 0.8800 0.8770 0.8760 0.8730 0.8690
1619.794254 0.8670 0.8650 0.8650 0.8640 0.8640
1626.441231 0.8640 0.8650 0.8650 0.8670 0.8680
1633.088209 0.8690 0.8750 0.8760 0.8800 0.8810
1639.735187 0.8840 0.8860 0.8890 0.8900 0.8920
1646.382165 0.8940 0.8960 0.8980 0.9010 0.9050
1653.029142 0.9060 0.9080 0.9100 0.9130 0.9170
1659.676120 0.9180 0.9180 0.9200 0.9210 0.9250
1666.323098 0.9290 0.9320 0.9340 0.9370 0.9380
1672.970075 0.9380 0.9380 0.9400 0.9410 0.9410
1679.617053 0.9450 0.9490 0.9500 0.9520 0.9520
1686.264031 0.9530 0.9530 0.9530 0.9530 0.9540
1692.911009 0.9540 0.9540 0.9560 0.9560 0.9580
1699.557986 0.9600 0.9600 0.9610 0.9610 0.9620
1706.204964 0.9620 0.9640 0.9640 0.9640 0.9650
1712.851942 0.9650 0.9650 0.9650 0.9660 0.9660
1719.498919 0.9660 0.9660 0.9660 0.9660 0.9660
1726.145897 0.9660 0.9660 0.9660 0.9660 0.9680
1732.792875 0.9680 0.9680 0.9680 0.9680 0.9680
1739.439853 0.9690 0.9690 0.9690 0.9690 0.9690
1746.086830 0.9690 0.9700 0.9700 0.9700 0.9700
1752.733808 0.9700 0.9700 0.9720 0.9720 0.9730
1759.380786 0.9730 0.9730 0.9730 0.9730 0.9730
1766.027763 0.9730 0.9730 0.9730 0.9730 0.9730
1772.674741 0.9730 0.9730 0.9730 0.9730 0.9730
1779.321719 0.9730 0.9730 0.9720 0.9720 0.9720
1785.968697 0.9720 0.9730 0.9740 0.9740 0.9740
1792.615674 0.9740 0.9740 0.9740 0.9740 0.9740
1799.262652 0.9740 0.9740 0.9730 0.9730 0.9720
1805.909630 0.9720 0.9720 0.9730 0.9730 0.9730
1812.556608 0.9730 0.9730 0.9730 0.9730 0.9730
1819.203585 0.9720 0.9720 0.9720 0.9720 0.9720
1825.850563 0.9700 0.9720 0.9720 0.9720 0.9730
1832.497541 0.9730 0.9720 0.9720 0.9720 0.9720
1839.144518 0.9700 0.9700 0.9690 0.9690 0.9690
1845.791496 0.9700 0.9720 0.9720 0.9720 0.9720
1852.438474 0.9720 0.9720 0.9720 0.9720 0.9720
1859.085452 0.9720 0.9730 0.9720 0.9720 0.9720
1865.732429 0.9720 0.9720 0.9720 0.9720 0.9720
1872.379407 0.9720 0.9720 0.9730 0.9730 0.9720
1879.026385 0.9720 0.9720 0.9720 0.9720 0.9720
1885.673362 0.9720 0.9720 0.9720 0.9720 0.9720
1892.320340 0.9720 0.9700 0.9700 0.9700 0.9700
1898.967318 0.9700 0.9700 0.9700 0.9700 0.9700
1905.614296 0.9700 0.9700 0.9690 0.9690 0.9690
1912.261273 0.9690 0.9690 0.9690 0.9690 0.9690
1918.908251 0.9700 0.9700 0.9700 0.9700 0.9700
1925.555229 0.9690 0.9680 0.9690 0.9680 0.9680
1932.202206 0.9660 0.9660 0.9660 0.9650 0.9650
1938.849184 0.9640 0.9640 0.9650 0.9660 0.9660
1945.496162 0.9680 0.9680 0.9680 0.9680 0.9680
1952.143140 0.9680 0.9690 0.9690 0.9690 0.9660
1958.790117 0.9680 0.9690 0.9700 0.9700 0.9690
1965.437095 0.9690 0.9680 0.9660 0.9660 0.9660
1972.084073 0.9660 0.9650 0.9650 0.9650 0.9650
1978.731050 0.9660 0.9680 0.9680 0.9660 0.9660
1985.378028 0.9660 0.9660 0.9660 0.9660 0.9660
1992.025006 0.9660 0.9660 0.9690 0.9690 0.9680
1998.671984 0.9680 0.9660 0.9660 0.9660 0.9660
2005.318961 0.9660 0.9660 0.9660 0.9655 0.9650
2011.965939 0.9645 0.9640 0.9630 0.9620 0.9615
2018.612917 0.9610 0.9610 0.9610 0.9610 0.9610
2025.259894 0.9610 0.9610 0.9610 0.9610 0.9605
2031.906872 0.9600 0.9600 0.9600 0.9600 0.9600
2038.553850 0.9600 0.9600 0.9605 0.9610 0.9610
2045.200828 0.9610 0.9610 0.9610 0.9610 0.9610
2051.847805 0.9615 0.9620 0.9620 0.9620 0.9620
2058.494783 0.9620 0.9615 0.9610 0.9610 0.9610
2065.141761 0.9610 0.9610 0.9610 0.9610 0.9615
2071.788738 0.9620 0.9620 0.9620 0.9620 0.9620
2078.435716 0.9620 0.9620 0.9620 0.9620 0.9620
2085.082694 0.9620 0.9620 0.9620 0.9615 0.9610
2091.729672 0.9610 0.9610 0.9610 0.9610 0.9610
2098.376649 0.9610 0.9615 0.9620 0.9620 0.9620
2105.023627 0.9615 0.9610 0.9610 0.9610 0.9605
2111.670605 0.9600 0.9600 0.9600 0.9600 0.9600
2118.317582 0.9600 0.9600 0.9605 0.9610 0.9615
2124.964560 0.9620 0.9620 0.9621 0.9631 0.9640
2131.611538 0.9640 0.9640 0.9640 0.9641 0.9646
2138.258516 0.9651 0.9656 0.9660 0.9660 0.9660
2144.905493 0.9660 0.9659 0.9649 0.9640 0.9640
2151.552471 0.9639 0.9629 0.9620 0.9620 0.9620
2158.199449 0.9614 0.9611 0.9616 0.9621 0.9631
2164.846426 0.9640 0.9640 0.9640 0.9640 0.9640
2171.493404 0.9640 0.9641 0.9646 0.9650 0.9650
2178.140382 0.9650 0.9650 0.9649 0.9644 0.9640
2184.787360 0.9640 0.9640 0.9640 0.9639 0.9629
2191.434337 0.9620 0.9620 0.9620 0.9620 0.9620
2198.081315 0.9620 0.9620 0.9620 0.9621 0.9631
2204.728293 0.9641 0.9646 0.9652 0.9667 0.9680
2211.375271 0.9680 0.9680 0.9680 0.9680 0.9680
2218.022248 0.9678 0.9668 0.9660 0.9660 0.9660
2224.669226 0.9660 0.9660 0.9660 0.9662 0.9672
2231.316204 0.9680 0.9680 0.9680 0.9680 0.9678
2237.963181 0.9668 0.9660 0.9660 0.9660 0.9660
2244.610159 0.9659 0.9654 0.9650 0.9650 0.9650
2251.257137 0.9650 0.9650 0.9650 0.9650 0.9650
2257.904115 0.9649 0.9644 0.9640 0.9640 0.9640
2264.551092 0.9640 0.9640 0.9640 0.9640 0.9640
2271.198070 0.9638 0.9628 0.9620 0.9620 0.9620
2277.845048 0.9620 0.9620 0.9620 0.9620 0.9620
2284.492025 0.9620 0.9620 0.9620 0.9620 0.9620
2291.139003 0.9620 0.9620 0.9620 0.9620 0.9620
2297.785981 0.9622 0.9632 0.9640 0.9640 0.9641
2304.432959 0.9646 0.9650 0.9650 0.9651 0.9656
2311.079936 0.9660 0.9660 0.9660 0.9660 0.9659
2317.726914 0.9654 0.9650 0.9650 0.9650 0.9650
2324.373892 0.9650 0.9650 0.9650 0.9650 0.9649
2331.020869 0.9644 0.9640 0.9640 0.9641 0.9646
2337.667847 0.9650 0.9650 0.9650 0.9650 0.9650
2344.314825 0.9650 0.9649 0.9644 0.9637 0.9627
2350.961803 0.9620 0.9620 0.9620 0.9620 0.9623
2357.608780 0.9633 0.9640 0.9640 0.9640 0.9640
2364.255758 0.9640 0.9640 0.9640 0.9640 0.9640
2370.902736 0.9640 0.9640 0.9640 0.9640 0.9640
2377.549713 0.9641 0.9646 0.9650 0.9650 0.9650
2384.196691 0.9650 0.9650 0.9650 0.9651 0.9656
2390.843669 0.9663 0.9673 0.9680 0.9680 0.9680
2397.490647 0.9680 0.9680 0.9680 0.9680 0.9680
2404.137624 0.9680 0.9680 0.9680 0.9680 0.9677
2410.784602 0.9667 0.9660 0.9660 0.9658 0.9653
2417.431580 0.9650 0.9650 0.9650 0.9650 0.9648
2424.078557 0.9643 0.9640 0.9640 0.9640 0.9640
2430.725535 0.9640 0.9640 0.9640 0.9640 0.9640
2437.372513 0.9640 0.9640 0.9640 0.9640 0.9640
2444.019491 0.9640 0.9640 0.9640 0.9640 0.9640
2450.666468 0.9640 0.9640 0.9640 0.9640 0.9640
2457.313446 0.9640 0.9640 0.9640 0.9640 0.9640
2463.960424 0.9640 0.9637 0.9627 0.9620 0.9620
2470.607401 0.9618 0.9613 0.9610 0.9610 0.9610
2477.254379 0.9610 0.9610 0.9610 0.9610 0.9610
2483.901357 0.9610 0.9610 0.9610 0.9610 0.9612
2490.548335 0.9617 0.9620 0.9620 0.9620 0.9620
2497.195312 0.9620 0.9620 0.9620 0.9620 0.9620
2503.842290 0.9620 0.9624 0.9634 0.9640 0.9640
2510.489268 0.9640 0.9640 0.9640 0.9640 0.9642
2517.136245 0.9647 0.9650 0.9650 0.9650 0.9650
2523.783223 0.9648 0.9643 0.9640 0.9640 0.9640
2530.430201 0.9640 0.9640 0.9640 0.9642 0.9647
2537.077179 0.9650 0.9650 0.9650 0.9650 0.9650
2543.724156 0.9650 0.9650 0.9650 0.9650 0.9650
2550.371134 0.9650 0.9650 0.9650 0.9650 0.9650
2557.018112 0.9650 0.9650 0.9650 0.9650 0.9650
2563.665090 0.9650 0.9650 0.9650 0.9650 0.9650
2570.312067 0.9650 0.9650 0.9650 0.9648 0.9643
2576.959045 0.9640 0.9640 0.9636 0.9626 0.9620
2583.606023 0.9620 0.9620 0.9620 0.9620 0.9620
2590.253000 0.9620 0.9620 0.9620 0.9620 0.9620
2596.899978 0.9620 0.9620 0.9620 0.9620 0.9620
2603.546956 0.9620 0.9620 0.9620 0.9620 0.9620
2610.193934 0.9620 0.9618 0.9613 0.9610 0.9610
2616.840911 0.9610 0.9610 0.9610 0.9610 0.9610
2623.487889 0.9610 0.9610 0.9610 0.9610 0.9610
2630.134867 0.9610 0.9610 0.9610 0.9610 0.9610
2636.781844 0.9610 0.9610 0.9610 0.9610 0.9610
2643.428822 0.9610 0.9610 0.9610 0.9610 0.9610
2650.075800 0.9610 0.9610 0.9610 0.9610 0.9610
2656.722778 0.9610 0.9610 0.9610 0.9610 0.9610
2663.369755 0.9610 0.9610 0.9610 0.9610 0.9610
2670.016733 0.9610 0.9610 0.9610 0.9610 0.9610
2676.663711 0.9610 0.9610 0.9610 0.9610 0.9610
2683.310688 0.9610 0.9610 0.9610 0.9610 0.9610
2689.957666 0.9610 0.9610 0.9610 0.9610 0.9610
2696.604644 0.9610 0.9610 0.9610 0.9610 0.9610
2703.251622 0.9610 0.9610 0.9610 0.9610 0.9610
2709.898599 0.9610 0.9610 0.9610 0.9610 0.9610
2716.545577 0.9610 0.9610 0.9610 0.9610 0.9610
2723.192555 0.9610 0.9610 0.9607 0.9602 0.9600
2729.839532 0.9600 0.9600 0.9600 0.9600 0.9600
2736.486510 0.9600 0.9600 0.9600 0.9600 0.9600
2743.133488 0.9600 0.9600 0.9600 0.9600 0.9600
2749.780466 0.9600 0.9600 0.9600 0.9600 0.9600
2756.427443 0.9600 0.9600 0.9600 0.9600 0.9600
2763.074421 0.9600 0.9600 0.9600 0.9600 0.9600
2769.721399 0.9600 0.9600 0.9600 0.9600 0.9600
2776.368376 0.9600 0.9600 0.9600 0.9600 0.9600
2783.015354 0.9600 0.9600 0.9600 0.9594 0.9584
2789.662332 0.9580 0.9580 0.9580 0.9580 0.9580
2796.309310 0.9580 0.9580 0.9580 0.9580 0.9580
2802.956287 0.9580 0.9580 0.9577 0.9572 0.9570
2809.603265 0.9570 0.9570 0.9570 0.9570 0.9570
2816.250243 0.9570 0.9570 0.9570 0.9570 0.9567
2822.897220 0.9562 0.9560 0.9560 0.9560 0.9560
2829.544198 0.9560 0.9560 0.9560 0.9560 0.9560
2836.191176 0.9560 0.9560 0.9560 0.9560 0.9560
2842.838154 0.9560 0.9560 0.9560 0.9560 0.9560
2849.485131 0.9560 0.9560 0.9560 0.9560 0.9560
2856.132109 0.9560 0.9560 0.9560 0.9560 0.9560
2862.779087 0.9560 0.9560 0.9560 0.9560 0.9560
2869.426064 0.9553 0.9543 0.9540 0.9540 0.9540
2876.073042 0.9540 0.9540 0.9540 0.9540 0.9540
2882.720020 0.9540 0.9540 0.9540 0.9540 0.9537
2889.366998 0.9532 0.9530 0.9530 0.9530 0.9530
2896.013975 0.9530 0.9530 0.9530 0.9530 0.9530
2902.660953 0.9530 0.9530 0.9530 0.9526 0.9521
2909.307931 0.9520 0.9520 0.9520 0.9520 0.9520
2915.954909 0.9520 0.9520 0.9520 0.9520 0.9520
2922.601886 0.9520 0.9520 0.9513 0.9503 0.9500
2929.248864 0.9500 0.9500 0.9500 0.9500 0.9500
2935.895842 0.9500 0.9500 0.9500 0.9500 0.9500
2942.542819 0.9500 0.9496 0.9491 0.9490 0.9490
2949.189797 0.9490 0.9490 0.9490 0.9490 0.9490
2955.836775 0.9490 0.9490 0.9490 0.9486 0.9481
2962.483753 0.9480 0.9480 0.9480 0.9480 0.9473
2969.130730 0.9463 0.9460 0.9460 0.9460 0.9460
2975.777708 0.9460 0.9460 0.9460 0.9460 0.9460
2982.424686 0.9460 0.9460 0.9460 0.9460 0.9460
2989.071663 0.9460 0.9460 0.9460 0.9460 0.9460
2995.718641 0.9460 0.9460 0.9460 0.9460 0.9460
3002.365619 0.9460 0.9460 0.9460 0.9460 0.9460
3009.012597 0.9460 0.9460 0.9460 0.9460 0.9460
3015.659574 0.9456 0.9451 0.9450 0.9450 0.9450
3022.306552 0.9450 0.9450 0.9450 0.9450 0.9450
3028.953530 0.9450 0.9450 0.9450 0.9450 0.9450
3035.600507 0.9450 0.9450 0.9450 0.9446 0.9441
3042.247485 0.9440 0.9440 0.9432 0.9422 0.9420
3048.894463 0.9420 0.9420 0.9420 0.9420 0.9420
3055.541441 0.9416 0.9411 0.9410 0.9410 0.9410
3062.188418 0.9410 0.9410 0.9410 0.9406 0.9401
3068.835396 0.9400 0.9400 0.9400 0.9400 0.9400
3075.482374 0.9400 0.9400 0.9400 0.9400 0.9400
3082.129351 0.9392 0.9382 0.9380 0.9380 0.9380
3088.776329 0.9380 0.9376 0.9371 0.9370 0.9370
3095.423307 0.9370 0.9370 0.9366 0.9361 0.9360
3102.070285 0.9360 0.9360 0.9360 0.9352 0.9342
3108.717262 0.9340 0.9340 0.9340 0.9340 0.9336
3115.364240 0.9331 0.9330 0.9330 0.9330 0.9330
3122.011218 0.9326 0.9321 0.9320 0.9320 0.9311
3128.658195 0.9301 0.9300 0.9300 0.9296 0.9291
3135.305173 0.9290 0.9290 0.9290 0.9290 0.9290
3141.952151 0.9290 0.9290 0.9290 0.9286 0.9281
3148.599129 0.9280 0.9280 0.9271 0.9261 0.9260
3155.246106 0.9260 0.9256 0.9251 0.9250 0.9250
3161.893084 0.9246 0.9241 0.9227 0.9212 0.9206
3168.540062 0.9200 0.9191 0.9181 0.9180 0.9180
3175.187039 0.9175 0.9170 0.9165 0.9160 0.9160
3181.834017 0.9160 0.9151 0.9141 0.9135 0.9130
3188.480995 0.9125 0.9120 0.9111 0.9101 0.9100
3195.127973 0.9100 0.9100 0.9100 0.9095 0.9090
3201.774950 0.9090 0.9090 0.9085 0.9080 0.9066
3208.421928 0.9051 0.9045 0.9040 0.9040 0.9040
3215.068906 0.9031 0.9021 0.9020 0.9020 0.9015
3221.715883 0.9010 0.9010 0.9010 0.9005 0.9000
3228.362861 0.8991 0.8981 0.8971 0.8961 0.8946
3235.009839 0.8931 0.8930 0.8930 0.8925 0.8920
3241.656817 0.8920 0.8920 0.8911 0.8901 0.8895
3248.303794 0.8890 0.8875 0.8860 0.8855 0.8850
3254.950772 0.8845 0.8840 0.8830 0.8820 0.8815
3261.597750 0.8810 0.8795 0.8780 0.8775 0.8770
3268.244728 0.8765 0.8760 0.8755 0.8750 0.8740
3274.891705 0.8730 0.8720 0.8710 0.8700 0.8690
3281.538683 0.8680 0.8670 0.8655 0.8640 0.8625
3288.185661 0.8610 0.8605 0.8600 0.8595 0.8590
3294.832638 0.8575 0.8560 0.8545 0.8530 0.8520
3301.479616 0.8510 0.8500 0.8490 0.8465 0.8440
3308.126594 0.8415 0.8390 0.8375 0.8360 0.8340
3314.773572 0.8320 0.8300 0.8280 0.8265 0.8250
3321.420549 0.8220 0.8190 0.8160 0.8130 0.8110
3328.067527 0.8090 0.8080 0.8069 0.8039 0.8010
3334.714505 0.8005 0.8000 0.7985 0.7970 0.7960
3341.361482 0.7949 0.7914 0.7879 0.7844 0.7810
3348.008460 0.7805 0.7800 0.7795 0.7789 0.7753
3354.655438 0.7719 0.7699 0.7679 0.7654 0.7628
3361.302416 0.7598 0.7569 0.7544 0.7519 0.7499
3367.949393 0.7479 0.7459 0.7439 0.7414 0.7389
3374.596371 0.7374 0.7360 0.7350 0.7338 0.7308
3381.243349 0.7277 0.7237 0.7198 0.7178 0.7158
3387.890326 0.7133 0.7109 0.7094 0.7078 0.7048
3394.537304 0.7019 0.7009 0.6999 0.6989 0.6979
3401.184282 0.6959 0.6939 0.6919 0.6898 0.6867
3407.831260 0.6836 0.6796 0.6758 0.6738 0.6719
3414.478237 0.6709 0.6698 0.6678 0.6659 0.6649
3421.125215 0.6639 0.6629 0.6619 0.6609 0.6599
3427.772193 0.6589 0.6579 0.6564 0.6550 0.6544
3434.419170 0.6539 0.6529 0.6519 0.6514 0.6509
3441.066148 0.6504 0.6499 0.6489 0.6480 0.6480
3447.713126 0.6479 0.6474 0.6469 0.6464 0.6460
3454.360104 0.6460 0.6460 0.6460 0.6459 0.6449
3461.007081 0.6440 0.6440 0.6440 0.6440 0.6440
3467.654059 0.6440 0.6440 0.6440 0.6441 0.6451
3474.301037 0.6460 0.6460 0.6461 0.6471 0.6480
3480.948014 0.6480 0.6482 0.6497 0.6512 0.6527
3487.594992 0.6542 0.6552 0.6562 0.6572 0.6583
3494.241970 0.6603 0.6621 0.6626 0.6631 0.6636
3500.888948 0.6643 0.6663 0.6683 0.6703 0.6722
3507.535925 0.6737 0.6753 0.6773 0.6792 0.6808
3514.182903 0.6821 0.6826 0.6833 0.6848 0.6862
3520.829881 0.6872 0.6883 0.6898 0.6914 0.6934
3527.476858 0.6953 0.6968 0.6982 0.6992 0.7003
3534.123836 0.7018 0.7034 0.7059 0.7084 0.7104
3540.770814 0.7128 0.7168 0.7206 0.7236 0.7269
3547.417792 0.7314 0.7353 0.7368 0.7382 0.7392
3554.064769 0.7408 0.7448 0.7483 0.7498 0.7514
3560.711747 0.7534 0.7555 0.7580 0.7608 0.7648
3567.358725 0.7683 0.7698 0.7717 0.7747 0.7774
3574.005702 0.7794 0.7817 0.7847 0.7872 0.7882
3580.652680 0.7899 0.7939 0.7979 0.8019 0.8053
3587.299658 0.8068 0.8083 0.8098 0.8119 0.8159
3593.946636 0.8192 0.8202 0.8218 0.8253 0.8291
3600.593613 0.8336 0.8375 0.8395 0.8415 0.8435
3607.240591 0.8458 0.8493 0.8524 0.8539 0.8556
3613.887569 0.8581 0.8606 0.8631 0.8658 0.8694
3620.534547 0.8725 0.8745 0.8768 0.8798 0.8829
3627.181524 0.8864 0.8895 0.8915 0.8936 0.8961
3633.828502 0.8984 0.8999 0.9011 0.9016 0.9024
3640.475480 0.9039 0.9055 0.9075 0.9094 0.9109
3647.122457 0.9121 0.9126 0.9134 0.9149 0.9163
3653.769435 0.9173 0.9184 0.9199 0.9211 0.9216
3660.416413 0.9223 0.9233 0.9241 0.9246 0.9251
3667.063391 0.9256 0.9263 0.9273 0.9280 0.9280
3673.710368 0.9282 0.9287 0.9292 0.9297 0.9303
3680.357346 0.9313 0.9320 0.9320 0.9322 0.9326
3687.004324 0.9330 0.9330 0.9330 0.9330 0.9332
3693.651301 0.9336 0.9340 0.9340 0.9343 0.9353
3700.298279 0.9360 0.9360 0.9360 0.9360 0.9360
3706.945257 0.9360 0.9360 0.9360 0.9360 0.9360
3713.592235 0.9360 0.9360 0.9362 0.9367 0.9370
3720.239212 0.9370 0.9370 0.9370 0.9370 0.9370
3726.886190 0.9370 0.9370 0.9370 0.9370 0.9370
3733.533168 0.9370 0.9370 0.9370 0.9372 0.9377
3740.180145 0.9380 0.9380 0.9380 0.9380 0.9380
3746.827123 0.9380 0.9380 0.9380 0.9380 0.9380
3753.474101 0.9384 0.9394 0.9400 0.9400 0.9400
3760.121079 0.9400 0.9400 0.9400 0.9400 0.9400
3766.768056 0.9400 0.9400 0.9400 0.9400 0.9400
3773.415034 0.9400 0.9400 0.9400 0.9400 0.9400
3780.062012 0.9400 0.9400 0.9400 0.9400 0.9400
3786.708989 0.9400 0.9400 0.9400 0.9400 0.9400
3793.355967 0.9400 0.9400 0.9400 0.9400 0.9400
3800.002945 0.9400 0.9400 0.9400 0.9400 0.9400
3806.649923 0.9400 0.9400 0.9394 0.9379 0.9370
3813.296900 0.9370 0.9370 0.9370 0.9370 0.9370
3819.943878 0.9370 0.9370 0.9370 0.9370 0.9370
3826.590856 0.9370 0.9370 0.9370 0.9370 0.9370
3833.237833 0.9376 0.9391 0.9400 0.9400 0.9400
3839.884811 0.9400 0.9400 0.9400 0.9400 0.9400
3846.531789 0.9400 0.9400 0.9400 0.9400 0.9400
3853.178767 0.9400 0.9396 0.9386 0.9380 0.9380
3859.825744 0.9380 0.9380 0.9384 0.9394 0.9400
3866.472722 0.9400 0.9400 0.9400 0.9400 0.9400
3873.119700 0.9400 0.9400 0.9400 0.9400 0.9400
3879.766677 0.9400 0.9393 0.9378 0.9370 0.9370
3886.413655 0.9370 0.9370 0.9370 0.9370 0.9370
3893.060633 0.9370 0.9370 0.9370 0.9370 0.9370
3899.707611 0.9370 0.9370 0.9370 0.9370 0.9370
3906.354588 0.9370 0.9370 0.9370 0.9370 0.9370
3913.001566 0.9370 0.9370 0.9370 0.9370 0.9370
3919.648544 0.9370 0.9370 0.9370 0.9372 0.9377
3926.295521 0.9380 0.9380 0.9380 0.9380 0.9380
3932.942499 0.9380 0.9380 0.9380 0.9380 0.9380
3939.589477 0.9380 0.9380 0.9380 0.9380 0.9380
3946.236455 0.9380 0.9380 0.9380 0.9380 0.9380
3952.883432 0.9380 0.9380 0.9380 0.9380 0.9380
3959.530410 0.9380 0.9380 0.9380 0.9380 0.9380
3966.177388 0.9380 0.9380 0.9380 0.9380 0.9380
3972.824366 0.9380 0.9380 0.9380 0.9380 0.9380
3979.471343 0.9380 0.9380 0.9380 0.9380
##END=
