##TITLE=NEODYMIUM OXALATE
##JCAMP-DX=4.24
##DATA TYPE=INFRARED SPECTRUM
##CLASS=COBLENTZ
##OWNER=COBLENTZ SOCIETY
Collection (C) 2018 copyright by the U.S. Secretary of Commerce
on behalf of the United States of America. All rights reserved.
##DATE=Not specified, most likely prior to 1970
##MOLFORM=Nd2 ( C2 O4)3  * 10 H2 O
##SOURCE REFERENCE=COBLENTZ NO. 76
##$NIST ID=B6000076
##$NIST SOURCE=COBLENTZ
##$NIST IMAGE=cob76
##SPECTROMETER/DATA SYSTEM=Not specified, most likely a prism, grating, or hybrid spectrometer.
##STATE=SOLID (KBr DISC)
##SAMPLING PROCEDURE=TRANSMISSION
##RESOLUTION=4
##DATA PROCESSING=DIGITIZED BY NIST FROM HARD COPY
##XUNITS=MICROMETERS
##YUNITS=TRANSMITTANCE
##XFACTOR=1.000000
##YFACTOR=1
##DELTAX=000.007614
##FIRSTX=2.036
##LASTX=14.9573
##FIRSTY=0.909
##MAXX=14.9573
##MINX=2.036
##MAXY=0.912
##MINY=0.14
##NPOINTS=1698
##XYDATA=(X++(Y..Y))
2.036000 0.9090 0.9090 0.9090 0.9090 0.9090
2.074094 0.9090 0.9090 0.9090 0.9090 0.9090
2.112000 0.9090 0.9090 0.9090 0.9090 0.9090
2.150094 0.9090 0.9090 0.9090 0.9090 0.9110
2.188000 0.9110 0.9110 0.9110 0.9110 0.9110
2.226094 0.9110 0.9110 0.9110 0.9110 0.9110
2.264000 0.9110 0.9110 0.9110 0.9110 0.9110
2.302094 0.9110 0.9110 0.9110 0.9110 0.9110
2.340000 0.9120 0.9120 0.9120 0.9120 0.9110
2.378094 0.9110 0.9110 0.9120 0.9120 0.9120
2.416000 0.9120 0.9120 0.9120 0.9120 0.9120
2.454094 0.9120 0.9120 0.9110 0.9110 0.9110
2.492000 0.9110 0.9110 0.9110 0.9110 0.9110
2.530094 0.9110 0.9110 0.9110 0.9110 0.9110
2.569000 0.9110 0.9110 0.9110 0.9110 0.9110
2.607094 0.9110 0.9110 0.9110 0.9110 0.9110
2.645000 0.9120 0.9120 0.9120 0.9120 0.9120
2.683094 0.9120 0.9120 0.9120 0.9120 0.9120
2.721000 0.9120 0.9120 0.9120 0.9110 0.9110
2.759094 0.9080 0.9020 0.8860 0.8780 0.8670
2.797000 0.8180 0.8100 0.7930 0.7710 0.7060
2.835094 0.6670 0.6290 0.6170 0.6020 0.5890
2.873000 0.5590 0.5160 0.4930 0.4780 0.4680
2.911094 0.4510 0.4430 0.4260 0.4190 0.4070
2.949000 0.3920 0.3850 0.3820 0.3780 0.3780
2.987094 0.3780 0.3760 0.3760 0.3780 0.3810
3.025000 0.3870 0.3940 0.4040 0.4090 0.4160
3.063094 0.4260 0.4340 0.4400 0.4500 0.4600
3.102000 0.4680 0.4740 0.4840 0.4900 0.4990
3.140094 0.5080 0.5180 0.5300 0.5390 0.5520
3.178000 0.5620 0.5770 0.5860 0.5930 0.5980
3.216094 0.6050 0.6120 0.6200 0.6240 0.6300
3.254000 0.6420 0.6490 0.6600 0.6830 0.6920
3.292094 0.7060 0.7110 0.7220 0.7310 0.7400
3.330000 0.7450 0.7540 0.7600 0.7630 0.7690
3.368094 0.7740 0.7780 0.7790 0.7820 0.7820
3.406000 0.7880 0.7900 0.7940 0.8000 0.8030
3.444094 0.8050 0.8090 0.8130 0.8190 0.8240
3.482000 0.8270 0.8310 0.8360 0.8380 0.8440
3.520094 0.8490 0.8520 0.8530 0.8550 0.8590
3.558000 0.8620 0.8640 0.8650 0.8670 0.8700
3.596094 0.8710 0.8740 0.8750 0.8770 0.8770
3.635000 0.8780 0.8780 0.8800 0.8810 0.8810
3.673094 0.8840 0.8860 0.8870 0.8890 0.8900
3.711000 0.8900 0.8900 0.8920 0.8920 0.8900
3.749094 0.8900 0.8900 0.8920 0.8920 0.8930
3.787000 0.8950 0.8960 0.8980 0.8990 0.8990
3.825094 0.8990 0.9010 0.9010 0.9010 0.9010
3.863000 0.9010 0.9010 0.9010 0.9010 0.9020
3.901094 0.9020 0.9020 0.9020 0.9020 0.9030
3.939000 0.9030 0.9020 0.9020 0.9030 0.9020
3.977094 0.9030 0.9050 0.9050 0.9050 0.9050
4.015000 0.9060 0.9060 0.9060 0.9060 0.9060
4.053094 0.9050 0.9050 0.9060 0.9060 0.9060
4.091000 0.9060 0.9080 0.9060 0.9080 0.9080
4.129094 0.9080 0.9080 0.9080 0.9090 0.9090
4.168000 0.9090 0.9090 0.9090 0.9090 0.9090
4.206094 0.9090 0.9090 0.9090 0.9090 0.9090
4.244000 0.9090 0.9090 0.9080 0.9080 0.9080
4.282094 0.9080 0.9080 0.9080 0.9080 0.9080
4.320000 0.9080 0.9080 0.9080 0.9080 0.9080
4.358094 0.9080 0.9080 0.9080 0.9080 0.9080
4.396000 0.9080 0.9080 0.9080 0.9080 0.9080
4.434094 0.9090 0.9090 0.9090 0.9090 0.9090
4.472000 0.9090 0.9090 0.9090 0.9090 0.9090
4.510094 0.9090 0.9090 0.9090 0.9090 0.9080
4.548000 0.9080 0.9090 0.9080 0.9080 0.9080
4.586094 0.9080 0.9080 0.9080 0.9080 0.9080
4.624000 0.9080 0.9080 0.9080 0.9080 0.9080
4.662094 0.9080 0.9060 0.9060 0.9060 0.9060
4.701000 0.9060 0.9050 0.9050 0.9050 0.9050
4.739094 0.9050 0.9050 0.9030 0.9030 0.9050
4.777000 0.9050 0.9030 0.9030 0.9030 0.9030
4.815094 0.9030 0.9030 0.9030 0.9050 0.9050
4.853000 0.9050 0.9050 0.9050 0.9050 0.9050
4.891094 0.9030 0.9030 0.9030 0.9030 0.9050
4.929000 0.9050 0.9050 0.9050 0.9050 0.9050
4.967094 0.9050 0.9050 0.9050 0.9050 0.9050
5.005000 0.9050 0.9050 0.9050 0.9050 0.9050
5.043094 0.9050 0.9050 0.9050 0.9060 0.9060
5.081000 0.9060 0.9060 0.9060 0.9060 0.9060
5.119094 0.9060 0.9060 0.9050 0.9050 0.9050
5.157000 0.9050 0.9050 0.9050 0.9050 0.9050
5.195094 0.9050 0.9050 0.9050 0.9050 0.9030
5.234000 0.9030 0.9030 0.9030 0.9030 0.9020
5.272094 0.9020 0.9020 0.9020 0.9020 0.9020
5.310000 0.9020 0.9020 0.9020 0.9020 0.9020
5.348094 0.9020 0.9020 0.9020 0.9020 0.9020
5.386000 0.9020 0.9010 0.9010 0.9010 0.9010
5.424094 0.9010 0.9010 0.9010 0.9010 0.9010
5.462000 0.9010 0.8990 0.8990 0.8990 0.8980
5.500094 0.8980 0.8960 0.8960 0.8960 0.8960
5.538000 0.8950 0.8950 0.8950 0.8950 0.8930
5.576094 0.8930 0.8920 0.8920 0.8920 0.8900
5.614000 0.8870 0.8870 0.8860 0.8860 0.8860
5.652094 0.8860 0.8840 0.8800 0.8780 0.8750
5.690000 0.8740 0.8720 0.8710 0.8710 0.8700
5.728094 0.8670 0.8640 0.8610 0.8590 0.8530
5.766000 0.8470 0.8370 0.8250 0.8150 0.7960
5.804094 0.7690 0.7590 0.7450 0.7350 0.7160
5.843000 0.6880 0.6730 0.6570 0.6150 0.5830
5.881094 0.5710 0.5610 0.5480 0.4940 0.4530
5.919000 0.4400 0.4260 0.4090 0.3820 0.3700
5.957094 0.3440 0.3290 0.3130 0.2980 0.2880
5.995000 0.2730 0.2480 0.2360 0.2340 0.2300
6.033094 0.2210 0.2060 0.1900 0.1860 0.1710
6.071000 0.1660 0.1650 0.1630 0.1580 0.1470
6.109094 0.1440 0.1410 0.1410 0.1400 0.1400
6.147000 0.1400 0.1410 0.1430 0.1470 0.1530
6.185094 0.1610 0.1770 0.1900 0.1940 0.2110
6.223000 0.2400 0.2430 0.2460 0.2610 0.2790
6.261094 0.3110 0.3580 0.3880 0.4120 0.4380
6.299000 0.4540 0.4660 0.4800 0.4900 0.5090
6.337094 0.5190 0.5370 0.5520 0.5670 0.5770
6.376000 0.5860 0.5950 0.6070 0.6140 0.6200
6.414094 0.6230 0.6300 0.6440 0.6540 0.6660
6.452000 0.6790 0.6940 0.6980 0.7030 0.7060
6.490094 0.7100 0.7140 0.7200 0.7260 0.7310
6.528000 0.7370 0.7440 0.7500 0.7530 0.7570
6.566094 0.7600 0.7620 0.7620 0.7630 0.7660
6.604000 0.7690 0.7740 0.7750 0.7760 0.7780
6.642094 0.7790 0.7790 0.7840 0.7880 0.7910
6.680000 0.7930 0.7930 0.7940 0.7940 0.7940
6.718094 0.7940 0.7960 0.7960 0.7960 0.7960
6.756000 0.7960 0.7940 0.7940 0.7910 0.7900
6.794094 0.7900 0.7880 0.7880 0.7880 0.7880
6.832000 0.7880 0.7880 0.7880 0.7880 0.7900
6.870094 0.7900 0.7910 0.7930 0.7940 0.7960
6.909000 0.7990 0.7990 0.8020 0.8060 0.8120
6.947094 0.8150 0.8150 0.8150 0.8150 0.8160
6.985000 0.8180 0.8220 0.8240 0.8270 0.8280
7.023094 0.8300 0.8310 0.8310 0.8340 0.8340
7.061000 0.8340 0.8380 0.8410 0.8430 0.8430
7.099094 0.8440 0.8440 0.8460 0.8460 0.8470
7.137000 0.8490 0.8490 0.8490 0.8490 0.8490
7.175094 0.8490 0.8500 0.8500 0.8500 0.8500
7.213000 0.8500 0.8500 0.8500 0.8500 0.8490
7.251094 0.8490 0.8470 0.8430 0.8380 0.8340
7.289000 0.8270 0.8210 0.8150 0.8090 0.8050
7.327094 0.7990 0.7910 0.7850 0.7720 0.7690
7.365000 0.7680 0.7650 0.7630 0.7630 0.7620
7.403094 0.7590 0.7570 0.7540 0.7540 0.7500
7.442000 0.7470 0.7440 0.7420 0.7410 0.7410
7.480094 0.7370 0.7320 0.7230 0.7110 0.6980
7.518000 0.6880 0.6800 0.6720 0.6610 0.6410
7.556094 0.6010 0.5700 0.5420 0.5280 0.5190
7.594000 0.5140 0.5090 0.5060 0.5050 0.5050
7.632094 0.5080 0.5120 0.5330 0.5430 0.5560
7.670000 0.5790 0.5870 0.6100 0.6210 0.6360
7.708094 0.6480 0.6850 0.6950 0.7060 0.7140
7.746000 0.7260 0.7350 0.7410 0.7450 0.7560
7.784094 0.7620 0.7660 0.7750 0.7810 0.7870
7.822000 0.7910 0.7960 0.8000 0.8060 0.8100
7.860094 0.8150 0.8180 0.8210 0.8250 0.8300
7.898000 0.8310 0.8330 0.8360 0.8400 0.8410
7.936094 0.8430 0.8440 0.8440 0.8440 0.8460
7.975000 0.8460 0.8470 0.8470 0.8490 0.8500
8.013094 0.8520 0.8550 0.8560 0.8560 0.8560
8.051000 0.8580 0.8580 0.8580 0.8580 0.8580
8.089094 0.8580 0.8590 0.8590 0.8590 0.8590
8.127000 0.8610 0.8610 0.8610 0.8610 0.8610
8.165094 0.8610 0.8610 0.8620 0.8620 0.8620
8.203000 0.8620 0.8620 0.8620 0.8640 0.8640
8.241094 0.8640 0.8650 0.8650 0.8670 0.8670
8.279000 0.8680 0.8680 0.8700 0.8700 0.8700
8.317094 0.8700 0.8700 0.8710 0.8710 0.8710
8.355000 0.8710 0.8710 0.8710 0.8710 0.8710
8.393094 0.8710 0.8720 0.8720 0.8720 0.8740
8.431000 0.8740 0.8740 0.8740 0.8740 0.8740
8.469094 0.8740 0.8740 0.8740 0.8740 0.8740
8.508000 0.8740 0.8740 0.8740 0.8740 0.8740
8.546094 0.8740 0.8750 0.8750 0.8750 0.8750
8.584000 0.8750 0.8750 0.8750 0.8750 0.8750
8.622094 0.8750 0.8750 0.8750 0.8770 0.8770
8.660000 0.8770 0.8770 0.8770 0.8770 0.8770
8.698094 0.8780 0.8780 0.8800 0.8800 0.8810
8.736000 0.8810 0.8810 0.8810 0.8810 0.8810
8.774094 0.8810 0.8810 0.8810 0.8810 0.8830
8.812000 0.8830 0.8830 0.8830 0.8830 0.8830
8.850094 0.8830 0.8830 0.8830 0.8830 0.8830
8.888000 0.8830 0.8830 0.8830 0.8830 0.8830
8.926094 0.8830 0.8830 0.8830 0.8830 0.8830
8.964000 0.8830 0.8830 0.8830 0.8830 0.8830
9.002094 0.8830 0.8830 0.8830 0.8830 0.8830
9.041000 0.8830 0.8830 0.8830 0.8830 0.8830
9.079094 0.8830 0.8810 0.8810 0.8830 0.8830
9.117000 0.8830 0.8830 0.8830 0.8810 0.8810
9.155094 0.8810 0.8830 0.8830 0.8830 0.8830
9.193000 0.8830 0.8810 0.8810 0.8810 0.8810
9.231094 0.8810 0.8810 0.8810 0.8810 0.8830
9.269000 0.8830 0.8830 0.8830 0.8830 0.8830
9.307094 0.8830 0.8830 0.8830 0.8830 0.8830
9.345000 0.8810 0.8810 0.8830 0.8830 0.8830
9.383094 0.8860 0.8860 0.8860 0.8860 0.8860
9.421000 0.8860 0.8860 0.8860 0.8860 0.8860
9.459094 0.8860 0.8860 0.8860 0.8860 0.8860
9.497000 0.8860 0.8860 0.8860 0.8860 0.8860
9.535094 0.8860 0.8860 0.8870 0.8870 0.8870
9.574000 0.8870 0.8870 0.8870 0.8870 0.8870
9.612094 0.8870 0.8870 0.8870 0.8870 0.8870
9.650000 0.8870 0.8870 0.8870 0.8890 0.8890
9.688094 0.8890 0.8890 0.8890 0.8870 0.8870
9.726000 0.8870 0.8870 0.8870 0.8870 0.8870
9.764094 0.8870 0.8870 0.8890 0.8890 0.8890
9.802000 0.8870 0.8870 0.8890 0.8890 0.8890
9.840094 0.8890 0.8870 0.8870 0.8890 0.8890
9.878000 0.8890 0.8890 0.8900 0.8900 0.8900
9.916094 0.8900 0.8900 0.8900 0.8900 0.8900
9.954000 0.8900 0.8900 0.8900 0.8900 0.8900
9.992094 0.8900 0.8900 0.8900 0.8900 0.8900
10.030000 0.8900 0.8900 0.8920 0.8920 0.8920
10.068094 0.8930 0.8930 0.8930 0.8950 0.8950
10.107000 0.8950 0.8950 0.8960 0.8960 0.8960
10.145094 0.8960 0.8960 0.8960 0.8960 0.8960
10.183000 0.8960 0.8960 0.8960 0.8960 0.8960
10.221094 0.8960 0.8960 0.8960 0.8960 0.8960
10.259000 0.8960 0.8960 0.8960 0.8960 0.8960
10.297094 0.8960 0.8960 0.8960 0.8980 0.8980
10.335000 0.8960 0.8960 0.8960 0.8960 0.8960
10.373094 0.8960 0.8960 0.8960 0.8960 0.8960
10.411000 0.8960 0.8960 0.8960 0.8960 0.8960
10.449094 0.8960 0.8960 0.8960 0.8960 0.8960
10.487000 0.8960 0.8960 0.8960 0.8960 0.8960
10.525094 0.8960 0.8960 0.8960 0.8960 0.8960
10.563000 0.8960 0.8960 0.8950 0.8950 0.8960
10.601094 0.8960 0.8960 0.8960 0.8960 0.8960
10.640000 0.8950 0.8950 0.8960 0.8960 0.8960
10.678094 0.8960 0.8960 0.8960 0.8960 0.8960
10.716000 0.8950 0.8950 0.8950 0.8950 0.8950
10.754094 0.8950 0.8950 0.8950 0.8960 0.8960
10.792000 0.8950 0.8950 0.8950 0.8950 0.8950
10.830094 0.8950 0.8950 0.8950 0.8950 0.8950
10.868000 0.8950 0.8950 0.8950 0.8950 0.8950
10.906094 0.8950 0.8950 0.8950 0.8950 0.8950
10.944000 0.8930 0.8920 0.8920 0.8900 0.8900
10.982094 0.8900 0.8890 0.8890 0.8870 0.8870
11.020000 0.8870 0.8870 0.8870 0.8860 0.8860
11.058094 0.8870 0.8870 0.8870 0.8870 0.8870
11.096000 0.8860 0.8860 0.8860 0.8860 0.8870
11.134094 0.8870 0.8870 0.8870 0.8870 0.8870
11.173000 0.8870 0.8890 0.8900 0.8900 0.8890
11.211094 0.8890 0.8890 0.8890 0.8890 0.8900
11.249000 0.8890 0.8900 0.8900 0.8900 0.8900
11.287094 0.8890 0.8900 0.8900 0.8900 0.8900
11.325000 0.8900 0.8900 0.8900 0.8900 0.8900
11.363094 0.8900 0.8900 0.8900 0.8900 0.8900
11.401000 0.8900 0.8900 0.8900 0.8900 0.8900
11.439094 0.8900 0.8900 0.8900 0.8900 0.8900
11.477000 0.8890 0.8890 0.8890 0.8890 0.8890
11.515094 0.8870 0.8870 0.8870 0.8870 0.8870
11.553000 0.8870 0.8870 0.8860 0.8860 0.8840
11.591094 0.8830 0.8810 0.8810 0.8810 0.8810
11.629000 0.8810 0.8810 0.8800 0.8800 0.8800
11.667094 0.8800 0.8800 0.8800 0.8800 0.8800
11.706000 0.8800 0.8800 0.8780 0.8780 0.8780
11.744094 0.8780 0.8780 0.8780 0.8780 0.8780
11.782000 0.8780 0.8780 0.8780 0.8780 0.8770
11.820094 0.8770 0.8770 0.8770 0.8770 0.8770
11.858000 0.8750 0.8750 0.8750 0.8740 0.8740
11.896094 0.8740 0.8740 0.8740 0.8720 0.8710
11.934000 0.8700 0.8680 0.8680 0.8670 0.8670
11.972094 0.8670 0.8670 0.8650 0.8650 0.8650
12.010000 0.8650 0.8640 0.8640 0.8620 0.8620
12.048094 0.8610 0.8590 0.8590 0.8580 0.8580
12.086000 0.8560 0.8550 0.8550 0.8530 0.8520
12.124094 0.8500 0.8500 0.8490 0.8490 0.8470
12.162000 0.8470 0.8460 0.8440 0.8430 0.8410
12.200094 0.8410 0.8400 0.8370 0.8360 0.8340
12.239000 0.8330 0.8310 0.8280 0.8250 0.8210
12.277094 0.8190 0.8150 0.8100 0.8060 0.8020
12.315000 0.7990 0.7940 0.7900 0.7850 0.7790
12.353094 0.7750 0.7720 0.7660 0.7570 0.7530
12.391000 0.7480 0.7440 0.7370 0.7310 0.7260
12.429094 0.7200 0.7160 0.7100 0.7010 0.6940
12.467000 0.6890 0.6820 0.6720 0.6610 0.6520
12.505094 0.6480 0.6420 0.6380 0.6350 0.6320
12.543000 0.6300 0.6290 0.6270 0.6260 0.6260
12.581094 0.6260 0.6240 0.6240 0.6260 0.6260
12.619000 0.6260 0.6270 0.6290 0.6300 0.6350
12.657094 0.6380 0.6410 0.6420 0.6450 0.6510
12.695000 0.6570 0.6600 0.6610 0.6630 0.6720
12.733094 0.6760 0.6790 0.6830 0.6890 0.6920
12.772000 0.6970 0.7010 0.7040 0.7060 0.7090
12.810094 0.7130 0.7140 0.7190 0.7220 0.7250
12.848000 0.7280 0.7310 0.7340 0.7370 0.7400
12.886094 0.7410 0.7450 0.7470 0.7480 0.7500
12.924000 0.7510 0.7530 0.7540 0.7560 0.7560
12.962094 0.7590 0.7600 0.7620 0.7650 0.7660
13.000000 0.7680 0.7690 0.7690 0.7690 0.7690
13.038094 0.7690 0.7690 0.7710 0.7710 0.7710
13.076000 0.7710 0.7710 0.7720 0.7720 0.7720
13.114094 0.7720 0.7720 0.7720 0.7740 0.7740
13.152000 0.7750 0.7760 0.7780 0.7780 0.7780
13.190094 0.7790 0.7790 0.7790 0.7790 0.7810
13.228000 0.7810 0.7810 0.7810 0.7810 0.7810
13.266094 0.7810 0.7810 0.7810 0.7810 0.7810
13.305000 0.7810 0.7820 0.7810 0.7810 0.7810
13.343094 0.7810 0.7810 0.7810 0.7810 0.7810
13.381000 0.7810 0.7810 0.7810 0.7810 0.7790
13.419094 0.7810 0.7810 0.7810 0.7790 0.7790
13.457000 0.7790 0.7790 0.7790 0.7790 0.7790
13.495094 0.7790 0.7780 0.7780 0.7780 0.7780
13.533000 0.7780 0.7780 0.7780 0.7790 0.7790
13.571094 0.7790 0.7790 0.7790 0.7790 0.7790
13.609000 0.7780 0.7780 0.7780 0.7780 0.7780
13.647094 0.7780 0.7780 0.7780 0.7780 0.7780
13.685000 0.7780 0.7780 0.7780 0.7780 0.7780
13.723094 0.7780 0.7780 0.7780 0.7780 0.7780
13.761000 0.7780 0.7780 0.7760 0.7780 0.7780
13.799094 0.7780 0.7760 0.7760 0.7760 0.7760
13.838000 0.7760 0.7760 0.7750 0.7750 0.7750
13.876094 0.7750 0.7750 0.7760 0.7760 0.7760
13.914000 0.7760 0.7760 0.7780 0.7760 0.7760
13.952094 0.7780 0.7780 0.7780 0.7780 0.7780
13.990000 0.7760 0.7760 0.7760 0.7760 0.7760
14.028094 0.7760 0.7760 0.7760 0.7760 0.7760
14.066000 0.7760 0.7760 0.7750 0.7750 0.7750
14.104094 0.7750 0.7750 0.7750 0.7750 0.7750
14.142000 0.7750 0.7750 0.7750 0.7750 0.7740
14.180094 0.7740 0.7750 0.7750 0.7750 0.7740
14.218000 0.7740 0.7740 0.7740 0.7740 0.7740
14.256094 0.7740 0.7740 0.7740 0.7740 0.7740
14.294000 0.7740 0.7740 0.7740 0.7740 0.7740
14.332094 0.7740 0.7740 0.7740 0.7740 0.7740
14.371000 0.7740 0.7740 0.7740 0.7740 0.7740
14.409094 0.7740 0.7740 0.7740 0.7720 0.7740
14.447000 0.7720 0.7720 0.7720 0.7720 0.7710
14.485094 0.7710 0.7710 0.7710 0.7710 0.7710
14.523000 0.7710 0.7710 0.7710 0.7710 0.7710
14.561094 0.7710 0.7710 0.7710 0.7720 0.7720
14.599000 0.7720 0.7720 0.7720 0.7720 0.7720
14.637094 0.7720 0.7720 0.7720 0.7720 0.7720
14.675000 0.7720 0.7720 0.7710 0.7710 0.7720
14.713094 0.7720 0.7720 0.7720 0.7720 0.7720
14.751000 0.7720 0.7720 0.7720 0.7720 0.7740
14.789094 0.7740 0.7740 0.7740 0.7740 0.7740
14.827000 0.7740 0.7740 0.7740 0.7740 0.7740
14.865094 0.7740 0.7740 0.7740 0.7740 0.7740
14.904000 0.7740 0.7740 0.7740 0.7740 0.7740
14.942094 0.7740 0.7740 0.7740
##END=
