##TITLE=SODIUM CHLORATE
$$ A.R.
##JCAMP-DX=4.24
##DATA TYPE=INFRARED SPECTRUM
##CLASS=COBLENTZ
##ORIGIN=MELLON INSTITUTE
##OWNER=COBLENTZ SOCIETY
Collection (C) 2018 copyright by the U.S. Secretary of Commerce
on behalf of the United States of America. All rights reserved.
##DATE=Not specified, most likely prior to 1970
##MOLFORM=Na Cl O3
##SOURCE REFERENCE=COBLENTZ NO. 528
##$NIST ID=B6000528
##$NIST SOURCE=COBLENTZ
##$NIST IMAGE=cob528
##SPECTROMETER/DATA SYSTEM=Not specified, most likely a prism, grating, or hybrid spectrometer.
##STATE=SOLID (NUJOL MULL)
##PATH LENGTH=
$$SPECTRAL CONTAMINATION DUE TO OIL AROUND 2900, 1450, 1380 CM^-^1
##SAMPLING PROCEDURE=TRANSMISSION
##RESOLUTION=4
##DATA PROCESSING=DIGITIZED BY NIST FROM HARD COPY
##XUNITS=MICROMETERS
##YUNITS=TRANSMITTANCE
##XFACTOR=1.000000
##YFACTOR=1
##DELTAX=000.006634
##FIRSTX=2.051
##LASTX=16.0238
##FIRSTY=0.822
##MAXX=16.0238
##MINX=2.051
##MAXY=0.929
##MINY=0.09
##NPOINTS=2107
##XYDATA=(X++(Y..Y))
2.051000 0.8220 0.8220 0.8220 0.8240 0.8240
2.084188 0.8240 0.8260 0.8260 0.8260 0.8260
2.118000 0.8260 0.8260 0.8260 0.8260 0.8260
2.151188 0.8260 0.8260 0.8270 0.8260 0.8260
2.184000 0.8240 0.8220 0.8220 0.8220 0.8220
2.217188 0.8220 0.8240 0.8240 0.8240 0.8240
2.250000 0.8240 0.8240 0.8240 0.8220 0.8190
2.283188 0.8160 0.8160 0.8160 0.8170 0.8170
2.317000 0.8170 0.8160 0.8160 0.8160 0.8160
2.350188 0.8160 0.8160 0.8210 0.8220 0.8220
2.383000 0.8240 0.8240 0.8220 0.8210 0.8190
2.416188 0.8190 0.8210 0.8220 0.8220 0.8240
2.449000 0.8240 0.8240 0.8240 0.8260 0.8270
2.482188 0.8270 0.8290 0.8290 0.8310 0.8310
2.516000 0.8320 0.8310 0.8320 0.8320 0.8340
2.549188 0.8340 0.8340 0.8340 0.8340 0.8340
2.582000 0.8340 0.8340 0.8320 0.8310 0.8240
2.615188 0.8220 0.8220 0.8260 0.8320 0.8370
2.648000 0.8420 0.8420 0.8410 0.8410 0.8360
2.681188 0.8320 0.8310 0.8310 0.8320 0.8320
2.715000 0.8320 0.8320 0.8320 0.8310 0.8290
2.748188 0.8310 0.8290 0.8290 0.8290 0.8270
2.781000 0.8240 0.8240 0.8220 0.8210 0.8210
2.814188 0.8190 0.8170 0.8170 0.8160 0.8140
2.847000 0.8120 0.8110 0.8090 0.8070 0.8070
2.880188 0.8070 0.8070 0.8070 0.8070 0.8070
2.914000 0.8070 0.8070 0.8070 0.8070 0.8070
2.947188 0.8070 0.8070 0.8090 0.8090 0.8110
2.980000 0.8110 0.8120 0.8120 0.8120 0.8120
3.013188 0.8120 0.8120 0.8140 0.8140 0.8140
3.046000 0.8140 0.8140 0.8140 0.8140 0.8160
3.079188 0.8160 0.8160 0.8160 0.8160 0.8160
3.113000 0.8160 0.8160 0.8170 0.8170 0.8190
3.146188 0.8190 0.8190 0.8190 0.8210 0.8210
3.179000 0.8210 0.8210 0.8220 0.8220 0.8220
3.212188 0.8220 0.8220 0.8220 0.8190 0.8190
3.245000 0.8190 0.8170 0.8160 0.8120 0.8110
3.278188 0.8060 0.8020 0.7990 0.7950 0.7820
3.312000 0.7690 0.7450 0.7140 0.6470 0.5910
3.345188 0.5360 0.4060 0.3870 0.3670 0.3460
3.378000 0.3120 0.2720 0.2450 0.2450 0.2650
3.411188 0.3160 0.3520 0.3920 0.4590 0.4710
3.445000 0.4760 0.4760 0.4710 0.4340 0.4240
3.478188 0.4240 0.4310 0.4960 0.5410 0.6400
3.511000 0.6900 0.7370 0.7650 0.7800 0.7970
3.544188 0.8140 0.8190 0.8290 0.8340 0.8370
3.577000 0.8410 0.8420 0.8460 0.8470 0.8490
3.610188 0.8510 0.8510 0.8520 0.8520 0.8520
3.644000 0.8510 0.8490 0.8470 0.8490 0.8520
3.677188 0.8520 0.8540 0.8540 0.8520 0.8520
3.710000 0.8510 0.8510 0.8490 0.8490 0.8490
3.743188 0.8490 0.8490 0.8510 0.8510 0.8510
3.776000 0.8520 0.8520 0.8520 0.8520 0.8540
3.809188 0.8540 0.8560 0.8560 0.8570 0.8570
3.843000 0.8570 0.8570 0.8590 0.8590 0.8590
3.876188 0.8610 0.8620 0.8620 0.8620 0.8610
3.909000 0.8610 0.8610 0.8610 0.8610 0.8610
3.942188 0.8610 0.8610 0.8620 0.8620 0.8640
3.975000 0.8660 0.8660 0.8660 0.8660 0.8660
4.008188 0.8660 0.8660 0.8660 0.8660 0.8660
4.042000 0.8660 0.8660 0.8660 0.8660 0.8660
4.075188 0.8660 0.8660 0.8660 0.8660 0.8660
4.108000 0.8660 0.8660 0.8660 0.8660 0.8660
4.141188 0.8660 0.8660 0.8660 0.8660 0.8660
4.174000 0.8670 0.8670 0.8710 0.8720 0.8740
4.207188 0.8740 0.8740 0.8720 0.8710 0.8670
4.241000 0.8660 0.8640 0.8620 0.8610 0.8590
4.274188 0.8570 0.8540 0.8510 0.8490 0.8470
4.307000 0.8460 0.8440 0.8440 0.8440 0.8460
4.340188 0.8460 0.8470 0.8490 0.8490 0.8490
4.373000 0.8490 0.8510 0.8510 0.8510 0.8520
4.406188 0.8520 0.8520 0.8520 0.8540 0.8540
4.440000 0.8540 0.8540 0.8540 0.8540 0.8540
4.473188 0.8540 0.8540 0.8560 0.8560 0.8560
4.506000 0.8560 0.8560 0.8560 0.8560 0.8540
4.539188 0.8540 0.8520 0.8520 0.8520 0.8520
4.572000 0.8520 0.8520 0.8520 0.8520 0.8520
4.605188 0.8520 0.8520 0.8520 0.8520 0.8520
4.639000 0.8520 0.8520 0.8520 0.8520 0.8520
4.672188 0.8520 0.8520 0.8520 0.8520 0.8520
4.705000 0.8520 0.8520 0.8520 0.8520 0.8520
4.738188 0.8520 0.8520 0.8520 0.8540 0.8540
4.771000 0.8540 0.8540 0.8540 0.8540 0.8540
4.804188 0.8560 0.8560 0.8560 0.8560 0.8560
4.838000 0.8560 0.8570 0.8570 0.8570 0.8570
4.871188 0.8570 0.8570 0.8590 0.8590 0.8590
4.904000 0.8590 0.8590 0.8590 0.8590 0.8610
4.937188 0.8590 0.8590 0.8590 0.8590 0.8590
4.970000 0.8610 0.8610 0.8610 0.8610 0.8610
5.003188 0.8610 0.8610 0.8610 0.8620 0.8640
5.037000 0.8640 0.8640 0.8640 0.8620 0.8610
5.070188 0.8610 0.8620 0.8620 0.8620 0.8620
5.103000 0.8610 0.8610 0.8620 0.8640 0.8640
5.136188 0.8620 0.8620 0.8610 0.8570 0.8560
5.169000 0.8540 0.8520 0.8510 0.8520 0.8540
5.202188 0.8520 0.8510 0.8510 0.8510 0.8510
5.236000 0.8510 0.8510 0.8510 0.8490 0.8460
5.269188 0.8420 0.8420 0.8420 0.8420 0.8420
5.302000 0.8420 0.8420 0.8420 0.8460 0.8460
5.335188 0.8440 0.8420 0.8390 0.8360 0.8320
5.369000 0.8320 0.8320 0.8320 0.8340 0.8360
5.402188 0.8370 0.8410 0.8420 0.8420 0.8410
5.435000 0.8440 0.8490 0.8540 0.8590 0.8610
5.468188 0.8610 0.8620 0.8620 0.8620 0.8640
5.501000 0.8640 0.8660 0.8670 0.8690 0.8710
5.534188 0.8710 0.8720 0.8720 0.8740 0.8740
5.568000 0.8760 0.8760 0.8770 0.8770 0.8770
5.601188 0.8770 0.8760 0.8770 0.8770 0.8790
5.634000 0.8770 0.8790 0.8810 0.8810 0.8820
5.667188 0.8840 0.8820 0.8860 0.8840 0.8860
5.700000 0.8860 0.8870 0.8890 0.8910 0.8910
5.733188 0.8910 0.8920 0.8940 0.8960 0.8960
5.767000 0.8970 0.8990 0.8990 0.8970 0.8960
5.800188 0.8970 0.8970 0.8990 0.9010 0.8990
5.833000 0.9030 0.9040 0.9060 0.9060 0.9040
5.866188 0.9040 0.9030 0.9040 0.9060 0.9060
5.899000 0.9060 0.9080 0.9090 0.9090 0.9060
5.932188 0.9030 0.9010 0.9010 0.9010 0.9010
5.966000 0.8990 0.9010 0.9010 0.9030 0.9030
5.999188 0.9080 0.9090 0.9090 0.9080 0.9060
6.032000 0.9060 0.9060 0.9110 0.9110 0.9080
6.065188 0.9080 0.9060 0.9040 0.9010 0.9010
6.098000 0.9060 0.9060 0.9040 0.9010 0.9010
6.131188 0.9030 0.9060 0.9060 0.9010 0.9010
6.165000 0.9030 0.9030 0.9060 0.9060 0.9010
6.198188 0.9010 0.9010 0.9030 0.9030 0.9090
6.231000 0.9110 0.9110 0.9090 0.9110 0.9130
6.264188 0.9130 0.9130 0.9140 0.9140 0.9090
6.297000 0.9090 0.9090 0.9130 0.9130 0.9110
6.330188 0.9110 0.9130 0.9130 0.9110 0.9090
6.364000 0.9090 0.9080 0.9090 0.9090 0.9080
6.397188 0.9060 0.9060 0.9060 0.9040 0.9040
6.430000 0.9030 0.9010 0.9010 0.8990 0.8990
6.463188 0.9010 0.9010 0.9030 0.9030 0.9010
6.496000 0.8990 0.9010 0.9010 0.9010 0.8970
6.529188 0.8960 0.8940 0.8920 0.8920 0.8960
6.563000 0.8970 0.8990 0.8990 0.9010 0.9010
6.596188 0.9040 0.9060 0.9060 0.9060 0.9080
6.629000 0.9090 0.9090 0.9110 0.9090 0.9080
6.662188 0.9090 0.9090 0.9090 0.9080 0.9080
6.695000 0.9060 0.9040 0.9010 0.9010 0.8990
6.728188 0.8970 0.8940 0.8920 0.8910 0.8890
6.762000 0.8860 0.8820 0.8760 0.8620 0.8440
6.795188 0.8170 0.7990 0.7800 0.7650 0.7500
6.828000 0.7420 0.7300 0.7240 0.7190 0.7170
6.861188 0.7150 0.7150 0.7140 0.7150 0.7190
6.894000 0.7240 0.7300 0.7350 0.7470 0.7650
6.927188 0.7820 0.7950 0.7970 0.8090 0.8120
6.961000 0.8170 0.8260 0.8360 0.8440 0.8510
6.994188 0.8520 0.8590 0.8660 0.8710 0.8740
7.027000 0.8760 0.8760 0.8760 0.8770 0.8770
7.060188 0.8810 0.8820 0.8860 0.8890 0.8940
7.093000 0.8970 0.8990 0.9010 0.9030 0.9030
7.126188 0.9030 0.9030 0.9030 0.9030 0.9010
7.160000 0.9010 0.8990 0.8940 0.8910 0.8890
7.193188 0.8840 0.8710 0.8610 0.8510 0.8410
7.226000 0.8310 0.8210 0.8110 0.8060 0.7990
7.259188 0.7990 0.7970 0.7990 0.8110 0.8170
7.293000 0.8240 0.8290 0.8320 0.8370 0.8410
7.326188 0.8460 0.8490 0.8540 0.8610 0.8660
7.359000 0.8710 0.8740 0.8770 0.8790 0.8810
7.392188 0.8820 0.8840 0.8860 0.8890 0.8910
7.425000 0.8910 0.8910 0.8910 0.8910 0.8910
7.458188 0.8890 0.8890 0.8890 0.8910 0.8940
7.492000 0.8960 0.8960 0.8960 0.8960 0.8970
7.525188 0.8990 0.8990 0.8990 0.8990 0.8990
7.558000 0.8990 0.8990 0.8990 0.9010 0.9010
7.591188 0.9010 0.9010 0.9010 0.9010 0.9010
7.624000 0.9010 0.9010 0.9030 0.9010 0.8990
7.657188 0.8990 0.8970 0.8970 0.8960 0.8960
7.691000 0.8970 0.8970 0.8970 0.8960 0.8960
7.724188 0.8960 0.8960 0.8970 0.8970 0.8970
7.757000 0.8970 0.8970 0.8990 0.8990 0.8990
7.790188 0.8990 0.8990 0.9010 0.9010 0.9010
7.823000 0.9010 0.9010 0.8990 0.8990 0.8990
7.856188 0.8970 0.8990 0.8990 0.8990 0.8990
7.890000 0.8990 0.8990 0.8990 0.8990 0.8990
7.923188 0.8990 0.8990 0.8970 0.8970 0.8960
7.956000 0.8970 0.8970 0.9010 0.9010 0.9010
7.989188 0.9030 0.9030 0.9030 0.9010 0.9010
8.022000 0.8990 0.8990 0.8990 0.8990 0.8990
8.055188 0.8990 0.8990 0.8990 0.8990 0.9010
8.089000 0.9030 0.9010 0.9010 0.9010 0.9030
8.122188 0.9010 0.8990 0.8990 0.8990 0.8990
8.155000 0.8990 0.8990 0.8990 0.8990 0.9010
8.188188 0.9030 0.8990 0.8990 0.8990 0.9010
8.221000 0.9010 0.9010 0.9010 0.9010 0.8990
8.254188 0.8990 0.8970 0.8970 0.8960 0.8960
8.288000 0.8960 0.8940 0.8940 0.8940 0.8940
8.321188 0.8940 0.8960 0.8940 0.8940 0.8940
8.354000 0.8940 0.8940 0.8920 0.8920 0.8920
8.387188 0.8920 0.8920 0.8910 0.8910 0.8910
8.420000 0.8910 0.8910 0.8890 0.8890 0.8890
8.453188 0.8890 0.8890 0.8890 0.8890 0.8890
8.487000 0.8910 0.8910 0.8890 0.8890 0.8870
8.520188 0.8870 0.8860 0.8860 0.8820 0.8820
8.553000 0.8810 0.8790 0.8790 0.8790 0.8770
8.586188 0.8770 0.8790 0.8790 0.8770 0.8760
8.619000 0.8740 0.8720 0.8720 0.8710 0.8690
8.652188 0.8710 0.8710 0.8690 0.8690 0.8670
8.686000 0.8670 0.8670 0.8670 0.8670 0.8670
8.719188 0.8660 0.8660 0.8660 0.8640 0.8640
8.752000 0.8620 0.8620 0.8610 0.8590 0.8570
8.785188 0.8590 0.8560 0.8570 0.8560 0.8540
8.818000 0.8540 0.8520 0.8520 0.8510 0.8490
8.851188 0.8490 0.8490 0.8490 0.8510 0.8510
8.885000 0.8510 0.8510 0.8510 0.8510 0.8490
8.918188 0.8490 0.8470 0.8460 0.8440 0.8420
8.951000 0.8410 0.8390 0.8360 0.8340 0.8320
8.984188 0.8310 0.8310 0.8310 0.8290 0.8310
9.017000 0.8310 0.8310 0.8310 0.8310 0.8290
9.050188 0.8290 0.8270 0.8290 0.8290 0.8290
9.084000 0.8270 0.8270 0.8270 0.8270 0.8270
9.117188 0.8260 0.8260 0.8260 0.8240 0.8220
9.150000 0.8220 0.8210 0.8210 0.8190 0.8190
9.183188 0.8170 0.8170 0.8160 0.8160 0.8140
9.217000 0.8140 0.8120 0.8120 0.8120 0.8110
9.250188 0.8110 0.8090 0.8070 0.8070 0.8060
9.283000 0.8060 0.8040 0.8040 0.8020 0.8020
9.316188 0.8010 0.8010 0.7990 0.7990 0.7970
9.349000 0.7950 0.7970 0.7950 0.7940 0.7900
9.382188 0.7900 0.7900 0.7890 0.7870 0.7850
9.416000 0.7840 0.7800 0.7820 0.7790 0.7770
9.449188 0.7720 0.7700 0.7650 0.7640 0.7600
9.482000 0.7600 0.7590 0.7570 0.7540 0.7520
9.515188 0.7490 0.7440 0.7420 0.7400 0.7390
9.548000 0.7370 0.7350 0.7320 0.7290 0.7240
9.581188 0.7200 0.7170 0.7120 0.7040 0.6970
9.615000 0.6920 0.6880 0.6850 0.6830 0.6820
9.648188 0.6770 0.6720 0.6630 0.6550 0.6470
9.681000 0.6380 0.6300 0.6220 0.6130 0.6050
9.714188 0.6000 0.5950 0.5850 0.5750 0.5650
9.747000 0.5510 0.5400 0.5250 0.5100 0.4930
9.780188 0.4740 0.4580 0.4390 0.4230 0.4060
9.814000 0.3990 0.3910 0.3760 0.3620 0.3470
9.847188 0.3360 0.3220 0.3110 0.2990 0.2870
9.880000 0.2770 0.2670 0.2570 0.2490 0.2400
9.913188 0.2320 0.2240 0.2170 0.2100 0.2040
9.946000 0.2000 0.1970 0.1920 0.1850 0.1800
9.979188 0.1730 0.1680 0.1630 0.1580 0.1530
10.013000 0.1470 0.1400 0.1330 0.1300 0.1270
10.046188 0.1250 0.1230 0.1200 0.1200 0.1170
10.079000 0.1170 0.1150 0.1150 0.1130 0.1120
10.112188 0.1120 0.1120 0.1130 0.1200 0.1230
10.145000 0.1300 0.1330 0.1400 0.1420 0.1420
10.178188 0.1420 0.1400 0.1380 0.1350 0.1320
10.212000 0.1280 0.1250 0.1220 0.1200 0.1130
10.245188 0.1100 0.1080 0.1050 0.1050 0.1030
10.278000 0.1030 0.1020 0.1020 0.1000 0.0980
10.311188 0.0980 0.0960 0.0960 0.0950 0.0950
10.344000 0.0930 0.0930 0.0930 0.0910 0.0910
10.377188 0.0900 0.0900 0.0900 0.0900 0.0900
10.411000 0.0900 0.0910 0.0950 0.0980 0.1030
10.444188 0.1100 0.1180 0.1280 0.1380 0.1480
10.477000 0.1600 0.1750 0.1870 0.1930 0.2120
10.510188 0.2220 0.2340 0.2440 0.2600 0.2720
10.543000 0.2920 0.3020 0.3190 0.3370 0.3540
10.576188 0.3620 0.3740 0.3910 0.4260 0.4310
10.610000 0.4340 0.4380 0.4390 0.4390 0.4130
10.643188 0.3840 0.3560 0.3370 0.3020 0.2840
10.676000 0.2570 0.2420 0.2270 0.2200 0.2150
10.709188 0.2120 0.2100 0.2100 0.2090 0.2090
10.742000 0.2090 0.2120 0.2190 0.2220 0.2250
10.775188 0.2340 0.2350 0.2440 0.2590 0.2750
10.809000 0.2950 0.3140 0.3340 0.3490 0.3710
10.842188 0.3890 0.4230 0.4380 0.4530 0.4640
10.875000 0.4780 0.4880 0.5010 0.5150 0.5210
10.908188 0.5330 0.5410 0.5480 0.5530 0.5610
10.941000 0.5710 0.5780 0.5850 0.5910 0.5980
10.974188 0.6220 0.6250 0.6300 0.6350 0.6400
11.008000 0.6470 0.6520 0.6550 0.6600 0.6650
11.041188 0.6720 0.6770 0.6800 0.6850 0.6880
11.074000 0.6950 0.7000 0.7050 0.7090 0.7120
11.107188 0.7140 0.7170 0.7200 0.7220 0.7240
11.141000 0.7250 0.7250 0.7300 0.7390 0.7450
11.174188 0.7500 0.7500 0.7520 0.7540 0.7590
11.207000 0.7620 0.7640 0.7670 0.7690 0.7700
11.240188 0.7720 0.7740 0.7750 0.7800 0.7850
11.273000 0.7900 0.7920 0.7970 0.7990 0.8010
11.306188 0.8020 0.8040 0.8070 0.8110 0.8110
11.340000 0.8120 0.8140 0.8140 0.8170 0.8190
11.373188 0.8210 0.8240 0.8260 0.8270 0.8290
11.406000 0.8320 0.8320 0.8340 0.8340 0.8360
11.439188 0.8370 0.8370 0.8390 0.8370 0.8410
11.472000 0.8420 0.8440 0.8440 0.8440 0.8410
11.505188 0.8340 0.8340 0.8360 0.8370 0.8370
11.539000 0.8390 0.8420 0.8420 0.8440 0.8440
11.572188 0.8460 0.8470 0.8470 0.8490 0.8510
11.605000 0.8510 0.8520 0.8540 0.8560 0.8570
11.638188 0.8590 0.8590 0.8590 0.8590 0.8590
11.671000 0.8610 0.8610 0.8620 0.8640 0.8660
11.704188 0.8660 0.8670 0.8660 0.8660 0.8660
11.738000 0.8670 0.8690 0.8720 0.8720 0.8720
11.771188 0.8720 0.8740 0.8760 0.8790 0.8810
11.804000 0.8820 0.8840 0.8860 0.8860 0.8870
11.837188 0.8910 0.8960 0.8970 0.8970 0.8990
11.870000 0.8990 0.9010 0.9030 0.9030 0.9030
11.903188 0.9040 0.9040 0.9040 0.9040 0.9060
11.937000 0.9060 0.9060 0.9060 0.9060 0.9040
11.970188 0.9040 0.9040 0.9040 0.9060 0.9060
12.003000 0.9080 0.9090 0.9090 0.9090 0.9090
12.036188 0.9110 0.9110 0.9130 0.9130 0.9130
12.069000 0.9130 0.9140 0.9140 0.9130 0.9140
12.102188 0.9140 0.9140 0.9140 0.9140 0.9140
12.136000 0.9160 0.9160 0.9160 0.9160 0.9160
12.169188 0.9160 0.9160 0.9160 0.9160 0.9160
12.202000 0.9160 0.9160 0.9160 0.9180 0.9180
12.235188 0.9180 0.9180 0.9180 0.9180 0.9180
12.268000 0.9180 0.9180 0.9180 0.9180 0.9180
12.301188 0.9180 0.9180 0.9180 0.9190 0.9160
12.335000 0.9160 0.9180 0.9210 0.9210 0.9210
12.368188 0.9210 0.9210 0.9210 0.9210 0.9190
12.401000 0.9180 0.9160 0.9160 0.9160 0.9160
12.434188 0.9160 0.9160 0.9160 0.9180 0.9190
12.467000 0.9210 0.9210 0.9210 0.9210 0.9210
12.500188 0.9210 0.9210 0.9210 0.9210 0.9190
12.534000 0.9190 0.9180 0.9180 0.9190 0.9190
12.567188 0.9190 0.9210 0.9210 0.9210 0.9230
12.600000 0.9230 0.9230 0.9240 0.9240 0.9240
12.633188 0.9260 0.9260 0.9260 0.9260 0.9260
12.666000 0.9260 0.9260 0.9260 0.9260 0.9280
12.699188 0.9280 0.9280 0.9290 0.9290 0.9290
12.733000 0.9290 0.9290 0.9290 0.9280 0.9280
12.766188 0.9280 0.9290 0.9290 0.9290 0.9290
12.799000 0.9290 0.9290 0.9290 0.9290 0.9290
12.832188 0.9290 0.9280 0.9280 0.9280 0.9280
12.866000 0.9280 0.9280 0.9280 0.9280 0.9260
12.899188 0.9260 0.9260 0.9260 0.9240 0.9240
12.932000 0.9240 0.9230 0.9230 0.9210 0.9210
12.965188 0.9210 0.9230 0.9230 0.9230 0.9240
12.998000 0.9240 0.9240 0.9240 0.9230 0.9230
13.031188 0.9230 0.9210 0.9210 0.9190 0.9180
13.065000 0.9180 0.9190 0.9190 0.9210 0.9210
13.098188 0.9210 0.9210 0.9210 0.9230 0.9210
13.131000 0.9210 0.9210 0.9190 0.9190 0.9180
13.164188 0.9140 0.9140 0.9140 0.9160 0.9160
13.197000 0.9160 0.9160 0.9160 0.9160 0.9160
13.230188 0.9160 0.9160 0.9160 0.9160 0.9160
13.264000 0.9160 0.9160 0.9160 0.9140 0.9140
13.297188 0.9140 0.9140 0.9140 0.9140 0.9140
13.330000 0.9140 0.9140 0.9140 0.9140 0.9160
13.363188 0.9140 0.9140 0.9130 0.9130 0.9130
13.396000 0.9110 0.9130 0.9130 0.9130 0.9130
13.429188 0.9130 0.9110 0.9090 0.9090 0.9080
13.463000 0.9080 0.9060 0.9040 0.9030 0.9040
13.496188 0.9040 0.9040 0.9080 0.9080 0.9040
13.529000 0.9030 0.8990 0.8990 0.8990 0.8990
13.562188 0.8990 0.8970 0.8990 0.8990 0.8990
13.595000 0.9030 0.9030 0.9030 0.9010 0.9010
13.628188 0.9010 0.8990 0.8940 0.8920 0.8920
13.662000 0.8920 0.8920 0.8940 0.8890 0.8910
13.695188 0.8910 0.8910 0.8910 0.8910 0.8910
13.728000 0.8890 0.8870 0.8860 0.8840 0.8840
13.761188 0.8820 0.8820 0.8810 0.8810 0.8790
13.794000 0.8770 0.8770 0.8760 0.8760 0.8740
13.827188 0.8720 0.8740 0.8740 0.8740 0.8740
13.861000 0.8740 0.8740 0.8720 0.8710 0.8690
13.894188 0.8690 0.8670 0.8670 0.8670 0.8670
13.927000 0.8670 0.8670 0.8670 0.8670 0.8660
13.960188 0.8660 0.8670 0.8670 0.8670 0.8670
13.993000 0.8670 0.8640 0.8640 0.8640 0.8620
14.026188 0.8620 0.8610 0.8610 0.8610 0.8610
14.060000 0.8590 0.8570 0.8570 0.8570 0.8570
14.093188 0.8560 0.8560 0.8540 0.8540 0.8520
14.126000 0.8520 0.8510 0.8510 0.8510 0.8510
14.159188 0.8490 0.8510 0.8510 0.8510 0.8510
14.192000 0.8510 0.8510 0.8510 0.8510 0.8490
14.225188 0.8440 0.8410 0.8390 0.8370 0.8370
14.259000 0.8370 0.8360 0.8360 0.8340 0.8340
14.292188 0.8320 0.8320 0.8320 0.8310 0.8310
14.325000 0.8310 0.8290 0.8290 0.8270 0.8270
14.358188 0.8270 0.8260 0.8260 0.8260 0.8240
14.391000 0.8220 0.8220 0.8210 0.8210 0.8190
14.424188 0.8190 0.8170 0.8160 0.8160 0.8140
14.458000 0.8140 0.8120 0.8110 0.8110 0.8090
14.491188 0.8070 0.8070 0.8060 0.8060 0.8040
14.524000 0.8040 0.8020 0.8020 0.8020 0.8020
14.557188 0.8020 0.8020 0.8020 0.8020 0.8020
14.590000 0.8010 0.8010 0.8010 0.8010 0.8010
14.623188 0.8010 0.7990 0.7990 0.7970 0.7970
14.657000 0.7950 0.7950 0.7940 0.7940 0.7920
14.690188 0.7920 0.7900 0.7900 0.7890 0.7870
14.723000 0.7870 0.7850 0.7840 0.7840 0.7840
14.756188 0.7800 0.7790 0.7790 0.7770 0.7750
14.790000 0.7740 0.7740 0.7740 0.7720 0.7700
14.823188 0.7690 0.7670 0.7670 0.7650 0.7640
14.856000 0.7640 0.7640 0.7640 0.7640 0.7640
14.889188 0.7670 0.7670 0.7690 0.7670 0.7640
14.922000 0.7600 0.7590 0.7570 0.7570 0.7550
14.955188 0.7540 0.7540 0.7520 0.7520 0.7500
14.989000 0.7490 0.7500 0.7500 0.7490 0.7490
15.022188 0.7470 0.7440 0.7420 0.7420 0.7400
15.055000 0.7400 0.7390 0.7370 0.7350 0.7340
15.088188 0.7340 0.7320 0.7290 0.7270 0.7270
15.121000 0.7270 0.7240 0.7250 0.7240 0.7240
15.154188 0.7220 0.7200 0.7190 0.7190 0.7190
15.188000 0.7170 0.7170 0.7150 0.7170 0.7150
15.221188 0.7150 0.7140 0.7120 0.7120 0.7100
15.254000 0.7100 0.7100 0.7100 0.7100 0.7100
15.287188 0.7090 0.7090 0.7070 0.7070 0.7050
15.320000 0.7050 0.7040 0.7040 0.7020 0.7000
15.353188 0.7000 0.6980 0.6970 0.6970 0.6950
15.387000 0.6930 0.6930 0.6930 0.6930 0.6920
15.420188 0.6900 0.6900 0.6880 0.6880 0.6880
15.453000 0.6870 0.6850 0.6830 0.6830 0.6830
15.486188 0.6820 0.6820 0.6780 0.6800 0.6780
15.519000 0.6780 0.6770 0.6750 0.6750 0.6730
15.552188 0.6730 0.6720 0.6700 0.6700 0.6700
15.586000 0.6700 0.6720 0.6700 0.6700 0.6680
15.619188 0.6650 0.6620 0.6570 0.6550 0.6530
15.652000 0.6520 0.6500 0.6470 0.6450 0.6430
15.685188 0.6420 0.6370 0.6330 0.6300 0.6270
15.718000 0.6230 0.6200 0.6180 0.6150 0.6130
15.751188 0.6080 0.6080 0.6050 0.6050 0.6050
15.785000 0.6050 0.6050 0.6050 0.6030 0.6000
15.818188 0.6000 0.6000 0.5980 0.5960 0.5960
15.851000 0.5950 0.5930 0.5910 0.5910 0.5910
15.884188 0.5910 0.5910 0.5910 0.5930 0.5910
15.917000 0.5910 0.5910 0.5910 0.5910 0.5910
15.950188 0.5930 0.5930 0.5950 0.5950 0.5960
15.984000 0.5980 0.6020 0.6020 0.6030 0.7170
16.017188 0.6020 0.6020
##END=
