##TITLE=Polythiomethylene
##JCAMP-DX=4.24
##DATA TYPE=INFRARED SPECTRUM
##CLASS=COBLENTZ III
##ORIGIN=DOW CHEMICAL COMPANY
##OWNER=COBLENTZ SOC.
Collection (C) 2018 copyright by the U.S. Secretary of Commerce
on behalf of the United States of America. All rights reserved.
##DATE=1968/05/22
##MOLFORM=C99 H99 S99
##SOURCE REFERENCE=COBLENTZ NO. 09205
##$NIST ID=B6009205
##$NIST SOURCE=COBLENTZ
##$NIST IMAGE=cob9205
##SPECTROMETER/DATA SYSTEM=DOW KBr FOREPRISM-GRATING
##INSTRUMENT PARAMETERS=BLAZED AT 3.5, 12.0, 20.0 MICRON AND CHANGED AT 5.0, 7.5, 14.9 MICRON
##STATE=SOLID (SPLIT MULL), FLUOROLUBE FOR 3800-1330 CM^-^1, NUJOL FOR 1330-400 CM^-^1
$$ SPECTRAL FEATURE AT 2005 CM^-^1 IS AN ARTIFACT CAUSED BY GRATING CHANGE
$$ SPECTRAL FEATURE AT 1334 CM^-^1 IS AN ARTIFACT CAUSED BY A CHANGE IN SOLVENT
##SAMPLING PROCEDURE=TRANSMISSION
##RESOLUTION=2
##DATA PROCESSING=DIGITIZED BY COBLENTZ SOCIETY (BATCH I) FROM HARD COPY
##XUNITS=1/CM
##YUNITS=TRANSMITTANCE
##XLABEL=Wavenumbers (cm-1)
##YLABEL=% Transmission
##XFACTOR=1
##YFACTOR=1
##DELTAX=1
##FIRSTX=389
##LASTX=3800
##FIRSTY=0.9147
##MAXX=3800
##MINX=389
##MAXY=0.9146
##MINY=0.0895
##NPOINTS=3412
##XYDATA=(X++(Y..Y))
389.000000 0.9147 0.9146 0.9146 0.9145 0.9145
394.000000 0.9144 0.9144 0.9143 0.9143 0.9142
399.000000 0.9141 0.9141 0.9140 0.9140 0.9139
404.000000 0.9139 0.9138 0.9137 0.9135 0.9134
409.000000 0.9133 0.9131 0.9130 0.9128 0.9127
414.000000 0.9125 0.9125 0.9123 0.9121 0.9120
419.000000 0.9117 0.9115 0.9093 0.9110 0.9108
424.000000 0.9106 0.9103 0.9101 0.9098 0.9096
429.000000 0.9094 0.9091 0.9089 0.9087 0.9084
434.000000 0.9082 0.9078 0.9075 0.9073 0.9070
439.000000 0.9067 0.9064 0.9060 0.9057 0.9054
444.000000 0.9051 0.9048 0.9045 0.9042 0.9039
449.000000 0.9035 0.9032 0.9028 0.9025 0.9021
454.000000 0.9018 0.9015 0.9012 0.9008 0.9005
459.000000 0.9002 0.8998 0.8995 0.8991 0.8988
464.000000 0.8985 0.8981 0.8977 0.8973 0.8968
469.000000 0.8965 0.8962 0.8958 0.8954 0.8950
474.000000 0.8946 0.8942 0.8938 0.8932 0.8925
479.000000 0.8918 0.8913 0.8906 0.8900 0.8893
484.000000 0.8887 0.8881 0.8874 0.8866 0.8858
489.000000 0.8850 0.8842 0.8835 0.8827 0.8818
494.000000 0.8811 0.8803 0.8796 0.8788 0.8780
499.000000 0.8771 0.8764 0.8757 0.8749 0.8741
504.000000 0.8733 0.8725 0.8718 0.8710 0.8702
509.000000 0.8694 0.8686 0.8678 0.8670 0.8662
514.000000 0.8654 0.8646 0.8638 0.8628 0.8621
519.000000 0.8613 0.8605 0.8597 0.8589 0.8581
524.000000 0.8573 0.8565 0.8556 0.8548 0.8540
529.000000 0.8532 0.8524 0.8516 0.8508 0.8498
534.000000 0.8488 0.8478 0.8468 0.8458 0.8449
539.000000 0.8439 0.8428 0.8418 0.8409 0.8399
544.000000 0.8389 0.8378 0.8370 0.8360 0.8350
549.000000 0.8340 0.8330 0.8320 0.8310 0.8301
554.000000 0.8291 0.8281 0.8271 0.8261 0.8252
559.000000 0.8242 0.8233 0.8223 0.8214 0.8204
564.000000 0.8195 0.8185 0.8175 0.8165 0.8156
569.000000 0.8147 0.8137 0.8128 0.8118 0.8108
574.000000 0.8099 0.8090 0.8080 0.8071 0.8061
579.000000 0.8051 0.8042 0.8032 0.8022 0.8012
584.000000 0.8004 0.7995 0.7985 0.7975 0.7967
589.000000 0.7958 0.7948 0.7939 0.7930 0.7921
594.000000 0.7911 0.7901 0.7893 0.7884 0.7875
599.000000 0.7865 0.7856 0.7847 0.7838 0.7828
604.000000 0.7818 0.7810 0.7800 0.7788 0.7775
609.000000 0.7764 0.7751 0.7740 0.7728 0.7715
614.000000 0.7703 0.7691 0.7678 0.7667 0.7655
619.000000 0.7643 0.7631 0.7618 0.7607 0.7587
624.000000 0.7564 0.7542 0.7518 0.7496 0.7474
629.000000 0.7451 0.7428 0.7406 0.7371 0.7337
634.000000 0.7301 0.7265 0.7264 0.7261 0.7258
639.000000 0.7256 0.7225 0.7174 0.7108 0.7025
644.000000 0.6938 0.6867 0.6800 0.6096 0.5599
649.000000 0.5599 0.5654 0.6288 0.6624 0.6642
654.000000 0.6564 0.6335 0.6107 0.5878 0.5688
659.000000 0.5680 0.5715 0.5831 0.5947 0.6062
664.000000 0.6179 0.6295 0.6411 0.6435 0.6412
669.000000 0.6371 0.6206 0.6041 0.5875 0.5710
674.000000 0.5545 0.5379 0.5362 0.5356 0.6241
679.000000 0.6333 0.6327 0.6322 0.6333 0.6292
684.000000 0.6270 0.6241 0.6210 0.6180 0.6150
689.000000 0.6121 0.6092 0.6064 0.6033 0.5991
694.000000 0.5946 0.5893 0.5840 0.5762 0.5687
699.000000 0.5610 0.5419 0.5210 0.4962 0.4608
704.000000 0.4105 0.3886 0.3752 0.3618 0.3037
709.000000 0.1950 0.1784 0.1668 0.1550 0.1460
714.000000 0.1408 0.1415 0.1414 0.1521 0.1945
719.000000 0.2371 0.2796 0.3153 0.3147 0.3147
724.000000 0.2977 0.2769 0.2560 0.2352 0.2144
729.000000 0.1935 0.1727 0.1519 0.1311 0.1103
734.000000 0.0903 0.0933 0.0895 0.1015 0.1723
739.000000 0.1646 0.1719 0.1729 0.1663 0.1567
744.000000 0.1472 0.1377 0.1352 0.1382 0.1384
749.000000 0.1821 0.2605 0.3390 0.4174 0.4958
754.000000 0.5742 0.6525 0.6841 0.6940 0.7447
759.000000 0.7558 0.7658 0.7706 0.7728 0.7750
764.000000 0.7747 0.7743 0.7741 0.7738 0.7735
769.000000 0.7732 0.7730 0.7726 0.7724 0.7721
774.000000 0.7718 0.7712 0.7708 0.7701 0.7696
779.000000 0.7691 0.7685 0.7678 0.7671 0.7664
784.000000 0.7657 0.7650 0.7633 0.7604 0.7592
789.000000 0.7583 0.7575 0.7568 0.7568 0.7568
794.000000 0.7567 0.7567 0.7565 0.7564 0.7561
799.000000 0.7551 0.7541 0.7531 0.7521 0.7511
804.000000 0.7501 0.7493 0.7483 0.7474 0.7461
809.000000 0.7449 0.7436 0.7422 0.7411 0.7398
814.000000 0.7385 0.7371 0.7360 0.7347 0.7335
819.000000 0.7322 0.7311 0.7298 0.7286 0.7274
824.000000 0.7261 0.7249 0.7237 0.7222 0.7205
829.000000 0.7187 0.7168 0.7151 0.7133 0.7115
834.000000 0.7097 0.7078 0.7061 0.7043 0.7025
839.000000 0.7008 0.6986 0.6961 0.6938 0.6915
844.000000 0.6891 0.6867 0.6843 0.6819 0.6796
849.000000 0.6771 0.6749 0.6715 0.6682 0.6648
854.000000 0.6614 0.6580 0.6545 0.6511 0.6475
859.000000 0.6434 0.6392 0.6350 0.6308 0.6267
864.000000 0.6212 0.6153 0.6095 0.6036 0.5951
869.000000 0.5862 0.5681 0.5288 0.4895 0.4502
874.000000 0.4109 0.3716 0.3420 0.3428 0.3730
879.000000 0.4508 0.5287 0.5882 0.5877 0.5837
884.000000 0.5799 0.5791 0.5829 0.6140 0.6451
889.000000 0.6465 0.6445 0.6440 0.6419 0.6393
894.000000 0.6366 0.6339 0.6312 0.6262 0.6212
899.000000 0.6160 0.6096 0.6003 0.5814 0.5515
904.000000 0.5369 0.5233 0.4910 0.4132 0.3352
909.000000 0.3085 0.3053 0.6567 0.6562 0.6555
914.000000 0.6534 0.6514 0.6492 0.6471 0.6449
919.000000 0.6431 0.6412 0.6395 0.6378 0.6360
924.000000 0.6343 0.6326 0.6308 0.6291 0.6274
929.000000 0.6257 0.6241 0.6226 0.6210 0.6195
934.000000 0.6180 0.6165 0.6150 0.6137 0.6124
939.000000 0.6112 0.6100 0.6087 0.6075 0.6067
944.000000 0.6062 0.6057 0.6052 0.6047 0.6041
949.000000 0.6034 0.6027 0.6020 0.6012 0.6006
954.000000 0.5999 0.5992 0.5983 0.5972 0.5960
959.000000 0.5948 0.5936 0.5924 0.5912 0.5902
964.000000 0.5892 0.5882 0.5872 0.5862 0.5852
969.000000 0.5853 0.5855 0.5856 0.5856 0.5858
974.000000 0.5862 0.5868 0.5873 0.5878 0.5883
979.000000 0.5888 0.5893 0.5900 0.5906 0.5912
984.000000 0.5912 0.5910 0.5910 0.5909 0.5908
989.000000 0.5906 0.5897 0.5888 0.5879 0.5869
994.000000 0.5860 0.5851 0.5842 0.5833 0.5825
999.000000 0.5817 0.5809 0.5801 0.5792 0.5784
1004.000000 0.5776 0.5768 0.5760 0.5756 0.5752
1009.000000 0.5747 0.5743 0.5738 0.5734 0.5730
1014.000000 0.5725 0.5719 0.5712 0.5705 0.5698
1019.000000 0.5691 0.5684 0.5677 0.5664 0.5649
1024.000000 0.5634 0.5619 0.5604 0.5591 0.5587
1029.000000 0.5582 0.5578 0.5574 0.5569 0.5565
1034.000000 0.5560 0.5555 0.5549 0.5543 0.5537
1039.000000 0.5531 0.5526 0.5520 0.5514 0.5508
1044.000000 0.5502 0.5496 0.5490 0.5483 0.5477
1049.000000 0.5470 0.5464 0.5457 0.5451 0.5445
1054.000000 0.5438 0.5432 0.5425 0.5419 0.5412
1059.000000 0.5406 0.5400 0.5393 0.5385 0.5376
1064.000000 0.5366 0.5357 0.5347 0.5338 0.5328
1069.000000 0.5319 0.5309 0.5300 0.5290 0.5281
1074.000000 0.5272 0.5262 0.5254 0.5245 0.5236
1079.000000 0.5227 0.5218 0.5209 0.5200 0.5191
1084.000000 0.5183 0.5174 0.5158 0.5137 0.5116
1089.000000 0.5094 0.5073 0.5052 0.5016 0.4978
1094.000000 0.4940 0.4935 0.4942 0.4986 0.5049
1099.000000 0.5116 0.5112 0.5107 0.5101 0.5091
1104.000000 0.5078 0.5064 0.5047 0.5028 0.5010
1109.000000 0.4991 0.4971 0.4950 0.4929 0.4908
1114.000000 0.4888 0.4867 0.4844 0.4820 0.4797
1119.000000 0.4773 0.4750 0.4726 0.4703 0.4316
1124.000000 0.4322 0.4407 0.4612 0.4693 0.4688
1129.000000 0.4682 0.4675 0.4669 0.4664 0.4653
1134.000000 0.4643 0.4629 0.4614 0.4598 0.4578
1139.000000 0.4557 0.4535 0.4512 0.4489 0.4457
1144.000000 0.4422 0.4387 0.4349 0.4306 0.4262
1149.000000 0.4219 0.4165 0.4107 0.4049 0.3991
1154.000000 0.3925 0.3850 0.3777 0.3703 0.3630
1159.000000 0.3556 0.3482 0.3395 0.3294 0.3193
1164.000000 0.3070 0.2943 0.2722 0.2454 0.2299
1169.000000 0.2144 0.1866 0.1437 0.1448 0.1461
1174.000000 0.1604 0.1746 0.1789 0.1783 0.1799
1179.000000 0.1642 0.1467 0.1292 0.1118 0.0942
1184.000000 0.0926 0.0929 0.1377 0.1973 0.2570
1189.000000 0.3166 0.3762 0.4358 0.4955 0.5212
1194.000000 0.5276 0.5294 0.5289 0.5307 0.5307
1199.000000 0.5307 0.5308 0.5296 0.5281 0.5265
1204.000000 0.5247 0.5230 0.5212 0.5196 0.5173
1209.000000 0.5135 0.5098 0.5058 0.5017 0.4975
1214.000000 0.4934 0.4788 0.4601 0.4392 0.4400
1219.000000 0.4493 0.4850 0.4791 0.4826 0.4628
1224.000000 0.4265 0.4239 0.4678 0.4923 0.4948
1229.000000 0.4966 0.4977 0.4977 0.4933 0.4969
1234.000000 0.4960 0.4945 0.4929 0.4914 0.4899
1239.000000 0.4886 0.4873 0.4860 0.4847 0.4834
1244.000000 0.4821 0.4805 0.4788 0.4772 0.4756
1249.000000 0.4740 0.4724 0.4707 0.4690 0.4673
1254.000000 0.4656 0.4640 0.4623 0.4606 0.4590
1259.000000 0.4576 0.4560 0.4547 0.4532 0.4518
1264.000000 0.4503 0.4489 0.4475 0.4460 0.4446
1269.000000 0.4431 0.4417 0.4403 0.4389 0.4376
1274.000000 0.4362 0.4349 0.4336 0.4323 0.4309
1279.000000 0.4296 0.4283 0.4269 0.4256 0.4243
1284.000000 0.4229 0.4216 0.4203 0.4189 0.4176
1289.000000 0.4162 0.4150 0.4136 0.4123 0.4110
1294.000000 0.4096 0.4082 0.4070 0.4060 0.4053
1299.000000 0.4045 0.4037 0.4029 0.4021 0.4012
1304.000000 0.4005 0.3997 0.3994 0.3992 0.3990
1309.000000 0.3987 0.3984 0.3982 0.3980 0.3978
1314.000000 0.3973 0.3968 0.3962 0.3958 0.3948
1319.000000 0.3936 0.3925 0.3914 0.3903 0.3892
1324.000000 0.3880 0.3870 0.3859 0.3848 0.3832
1329.000000 0.3818 0.3803 0.3788 0.3773 0.3758
1334.000000 0.3743 0.3997 0.4520 0.5042 0.5565
1339.000000 0.6043 0.6012 0.6000 0.5981 0.5957
1344.000000 0.5925 0.5885 0.5838 0.5790 0.5739
1349.000000 0.5689 0.5612 0.5480 0.5036 0.4593
1354.000000 0.4149 0.3706 0.3568 0.3662 0.4560
1359.000000 0.5458 0.5552 0.5539 0.5274 0.5008
1364.000000 0.4743 0.4478 0.4212 0.3947 0.3682
1369.000000 0.3514 0.3389 0.3038 0.2675 0.2313
1374.000000 0.1950 0.1529 0.1534 0.1537 0.3089
1379.000000 0.4681 0.6274 0.6303 0.6299 0.6295
1384.000000 0.6290 0.6319 0.6276 0.6269 0.6262
1389.000000 0.6134 0.5959 0.5783 0.5608 0.5433
1394.000000 0.5257 0.5082 0.4924 0.4928 0.4934
1399.000000 0.4906 0.7228 0.7264 0.7268 0.7268
1404.000000 0.7265 0.7241 0.7211 0.7187 0.7158
1409.000000 0.7134 0.7115 0.7105 0.7098 0.7092
1414.000000 0.7088 0.7086 0.7084 0.7081 0.7078
1419.000000 0.7078 0.7075 0.7075 0.7072 0.7071
1424.000000 0.7069 0.7068 0.7067 0.7065 0.7062
1429.000000 0.7061 0.7058 0.7057 0.7055 0.7054
1434.000000 0.7050 0.7045 0.7039 0.7034 0.7028
1439.000000 0.7022 0.7018 0.7012 0.7008 0.7005
1444.000000 0.7001 0.6997 0.6993 0.6993 0.6993
1449.000000 0.6994 0.6995 0.6995 0.6996 0.6999
1454.000000 0.7003 0.7006 0.7010 0.7012 0.7017
1459.000000 0.7019 0.7024 0.7026 0.7028 0.7030
1464.000000 0.7031 0.7028 0.7025 0.7022 0.7019
1469.000000 0.7017 0.7014 0.7011 0.7008 0.7006
1474.000000 0.7004 0.7001 0.6996 0.6989 0.6981
1479.000000 0.6974 0.6958 0.6944 0.6928 0.6914
1484.000000 0.6899 0.6884 0.6868 0.6855 0.6844
1489.000000 0.6839 0.6834 0.6828 0.6830 0.6831
1494.000000 0.6833 0.6834 0.6836 0.6837 0.6845
1499.000000 0.6854 0.6862 0.6869 0.6875 0.6882
1504.000000 0.6889 0.6895 0.6901 0.6907 0.6912
1509.000000 0.6918 0.6925 0.6931 0.6934 0.6937
1514.000000 0.6939 0.6942 0.6942 0.6940 0.6938
1519.000000 0.6936 0.6935 0.6933 0.6931 0.6928
1524.000000 0.6925 0.6921 0.6918 0.6914 0.6910
1529.000000 0.6906 0.6899 0.6889 0.6880 0.6871
1534.000000 0.6861 0.6853 0.6843 0.6834 0.6825
1539.000000 0.6818 0.6810 0.6801 0.6794 0.6786
1544.000000 0.6778 0.6775 0.6772 0.6769 0.6768
1549.000000 0.6765 0.6762 0.6760 0.6758 0.6757
1554.000000 0.6756 0.6754 0.6751 0.6749 0.6746
1559.000000 0.6743 0.6740 0.6737 0.6734 0.6731
1564.000000 0.6726 0.6722 0.6718 0.6715 0.6710
1569.000000 0.6706 0.6701 0.6698 0.6694 0.6690
1574.000000 0.6686 0.6681 0.6676 0.6672 0.6668
1579.000000 0.6664 0.6660 0.6655 0.6651 0.6647
1584.000000 0.6642 0.6638 0.6634 0.6628 0.6625
1589.000000 0.6621 0.6615 0.6611 0.6608 0.6604
1594.000000 0.6600 0.6596 0.6591 0.6587 0.6583
1599.000000 0.6578 0.6575 0.6571 0.6567 0.6561
1604.000000 0.6558 0.6554 0.6546 0.6537 0.6528
1609.000000 0.6519 0.6511 0.6503 0.6495 0.6486
1614.000000 0.6478 0.6468 0.6456 0.6442 0.6428
1619.000000 0.6415 0.6403 0.6389 0.6376 0.6362
1624.000000 0.6350 0.6341 0.6336 0.6330 0.6325
1629.000000 0.6320 0.6315 0.6310 0.6306 0.6305
1634.000000 0.6303 0.6301 0.6299 0.6297 0.6295
1639.000000 0.6293 0.6291 0.6289 0.6288 0.6286
1644.000000 0.6285 0.6283 0.6282 0.6280 0.6279
1649.000000 0.6278 0.6276 0.6275 0.6274 0.6273
1654.000000 0.6273 0.6273 0.6273 0.6272 0.6272
1659.000000 0.6272 0.6272 0.6272 0.6274 0.6275
1664.000000 0.6277 0.6279 0.6280 0.6282 0.6283
1669.000000 0.6285 0.6287 0.6288 0.6291 0.6293
1674.000000 0.6295 0.6297 0.6300 0.6302 0.6304
1679.000000 0.6307 0.6309 0.6310 0.6312 0.6316
1684.000000 0.6318 0.6320 0.6322 0.6323 0.6323
1689.000000 0.6322 0.6322 0.6322 0.6321 0.6321
1694.000000 0.6321 0.6321 0.6320 0.6320 0.6320
1699.000000 0.6320 0.6319 0.6319 0.6319 0.6318
1704.000000 0.6318 0.6315 0.6312 0.6310 0.6307
1709.000000 0.6304 0.6302 0.6299 0.6296 0.6294
1714.000000 0.6291 0.6288 0.6286 0.6283 0.6280
1719.000000 0.6278 0.6275 0.6272 0.6270 0.6265
1724.000000 0.6260 0.6257 0.6252 0.6248 0.6244
1729.000000 0.6240 0.6235 0.6231 0.6227 0.6222
1734.000000 0.6218 0.6214 0.6209 0.6205 0.6201
1739.000000 0.6195 0.6190 0.6184 0.6178 0.6171
1744.000000 0.6164 0.6157 0.6151 0.6144 0.6137
1749.000000 0.6130 0.6123 0.6116 0.6109 0.6102
1754.000000 0.6095 0.6088 0.6081 0.6074 0.6067
1759.000000 0.6059 0.6052 0.6044 0.6037 0.6029
1764.000000 0.6022 0.6015 0.6007 0.6000 0.5992
1769.000000 0.5985 0.5977 0.5970 0.5962 0.5955
1774.000000 0.5948 0.5942 0.5937 0.5933 0.5928
1779.000000 0.5923 0.5918 0.5912 0.5909 0.5904
1784.000000 0.5899 0.5894 0.5890 0.5885 0.5880
1789.000000 0.5875 0.5871 0.5866 0.5860 0.5856
1794.000000 0.5851 0.5846 0.5841 0.5836 0.5830
1799.000000 0.5825 0.5820 0.5815 0.5810 0.5805
1804.000000 0.5800 0.5795 0.5790 0.5785 0.5779
1809.000000 0.5774 0.5769 0.5764 0.5759 0.5754
1814.000000 0.5749 0.5744 0.5739 0.5734 0.5730
1819.000000 0.5727 0.5724 0.5721 0.5717 0.5714
1824.000000 0.5710 0.5707 0.5704 0.5701 0.5698
1829.000000 0.5694 0.5691 0.5688 0.5684 0.5681
1834.000000 0.5678 0.5675 0.5671 0.5668 0.5665
1839.000000 0.5660 0.5658 0.5655 0.5652 0.5648
1844.000000 0.5645 0.5641 0.5638 0.5634 0.5630
1849.000000 0.5627 0.5623 0.5619 0.5616 0.5612
1854.000000 0.5608 0.5605 0.5601 0.5597 0.5594
1859.000000 0.5590 0.5586 0.5582 0.5579 0.5575
1864.000000 0.5571 0.5568 0.5564 0.5560 0.5557
1869.000000 0.5553 0.5549 0.5545 0.5541 0.5538
1874.000000 0.5534 0.5530 0.5526 0.5522 0.5519
1879.000000 0.5515 0.5510 0.5507 0.5503 0.5500
1884.000000 0.5496 0.5492 0.5488 0.5484 0.5481
1889.000000 0.5477 0.5473 0.5469 0.5465 0.5462
1894.000000 0.5458 0.5455 0.5451 0.5448 0.5444
1899.000000 0.5441 0.5438 0.5434 0.5431 0.5428
1904.000000 0.5424 0.5421 0.5418 0.5414 0.5410
1909.000000 0.5407 0.5404 0.5401 0.5397 0.5394
1914.000000 0.5391 0.5387 0.5382 0.5377 0.5372
1919.000000 0.5367 0.5362 0.5357 0.5351 0.5346
1924.000000 0.5341 0.5336 0.5331 0.5326 0.5321
1929.000000 0.5314 0.5305 0.5300 0.5298 0.5296
1934.000000 0.5293 0.5291 0.5289 0.5287 0.5285
1939.000000 0.5282 0.5279 0.5276 0.5273 0.5270
1944.000000 0.5267 0.5262 0.5260 0.5257 0.5254
1949.000000 0.5251 0.5248 0.5245 0.5242 0.5239
1954.000000 0.5236 0.5233 0.5229 0.5226 0.5223
1959.000000 0.5220 0.5217 0.5214 0.5210 0.5208
1964.000000 0.5205 0.5202 0.5199 0.5195 0.5191
1969.000000 0.5187 0.5182 0.5178 0.5174 0.5169
1974.000000 0.5165 0.5160 0.5156 0.5152 0.5147
1979.000000 0.5143 0.5139 0.5134 0.5130 0.5126
1984.000000 0.5121 0.5117 0.5112 0.5107 0.5100
1989.000000 0.5093 0.5085 0.5078 0.5071 0.5064
1994.000000 0.5056 0.5049 0.5042 0.5035 0.5027
1999.000000 0.4997 0.4966 0.4950 0.4934 0.4933
2004.000000 0.4932 0.4935 0.4938 0.4960 0.4985
2009.000000 0.5055 0.5126 0.5132 0.5139 0.5136
2014.000000 0.5134 0.5130 0.5126 0.5121 0.5117
2019.000000 0.5110 0.5106 0.5100 0.5094 0.5087
2024.000000 0.5081 0.5075 0.5069 0.5062 0.5056
2029.000000 0.5050 0.5044 0.5037 0.5031 0.5024
2034.000000 0.5018 0.5010 0.5004 0.4997 0.4991
2039.000000 0.4984 0.4977 0.4970 0.4964 0.4957
2044.000000 0.4951 0.4945 0.4939 0.4932 0.4926
2049.000000 0.4920 0.4914 0.4908 0.4902 0.4896
2054.000000 0.4890 0.4885 0.4880 0.4875 0.4870
2059.000000 0.4865 0.4860 0.4855 0.4850 0.4844
2064.000000 0.4838 0.4832 0.4827 0.4821 0.4815
2069.000000 0.4809 0.4803 0.4797 0.4792 0.4786
2074.000000 0.4780 0.4774 0.4769 0.4762 0.4758
2079.000000 0.4752 0.4747 0.4741 0.4735 0.4729
2084.000000 0.4724 0.4718 0.4712 0.4707 0.4702
2089.000000 0.4696 0.4690 0.4684 0.4679 0.4673
2094.000000 0.4668 0.4662 0.4657 0.4651 0.4646
2099.000000 0.4640 0.4635 0.4630 0.4625 0.4619
2104.000000 0.4614 0.4609 0.4604 0.4598 0.4593
2109.000000 0.4589 0.4585 0.4582 0.4579 0.4575
2114.000000 0.4572 0.4569 0.4566 0.4562 0.4559
2119.000000 0.4556 0.4553 0.4549 0.4546 0.4542
2124.000000 0.4539 0.4535 0.4532 0.4528 0.4525
2129.000000 0.4521 0.4518 0.4514 0.4510 0.4507
2134.000000 0.4504 0.4500 0.4497 0.4493 0.4489
2139.000000 0.4485 0.4482 0.4478 0.4475 0.4471
2144.000000 0.4468 0.4464 0.4460 0.4457 0.4454
2149.000000 0.4450 0.4446 0.4443 0.4440 0.4436
2154.000000 0.4433 0.4430 0.4427 0.4423 0.4420
2159.000000 0.4417 0.4414 0.4410 0.4408 0.4404
2164.000000 0.4401 0.4398 0.4395 0.4391 0.4388
2169.000000 0.4385 0.4382 0.4378 0.4375 0.4372
2174.000000 0.4369 0.4366 0.4362 0.4359 0.4356
2179.000000 0.4353 0.4350 0.4346 0.4343 0.4339
2184.000000 0.4335 0.4330 0.4326 0.4321 0.4317
2189.000000 0.4312 0.4308 0.4303 0.4299 0.4294
2194.000000 0.4290 0.4285 0.4281 0.4276 0.4272
2199.000000 0.4267 0.4262 0.4258 0.4254 0.4249
2204.000000 0.4245 0.4240 0.4236 0.4231 0.4227
2209.000000 0.4222 0.4218 0.4212 0.4209 0.4205
2214.000000 0.4201 0.4196 0.4191 0.4187 0.4183
2219.000000 0.4178 0.4174 0.4169 0.4165 0.4159
2224.000000 0.4154 0.4148 0.4143 0.4137 0.4132
2229.000000 0.4126 0.4121 0.4115 0.4110 0.4104
2234.000000 0.4099 0.4093 0.4088 0.4082 0.4077
2239.000000 0.4071 0.4066 0.4059 0.4055 0.4049
2244.000000 0.4044 0.4038 0.4032 0.4027 0.4022
2249.000000 0.4016 0.4010 0.4005 0.4000 0.3994
2254.000000 0.3989 0.3982 0.3978 0.3972 0.3966
2259.000000 0.3960 0.3956 0.3950 0.3945 0.3939
2264.000000 0.3934 0.3928 0.3922 0.3916 0.3910
2269.000000 0.3905 0.3900 0.3894 0.3889 0.3884
2274.000000 0.3879 0.3873 0.3868 0.3862 0.3858
2279.000000 0.3853 0.3848 0.3843 0.3838 0.3832
2284.000000 0.3828 0.3823 0.3818 0.3812 0.3808
2289.000000 0.3802 0.3797 0.3792 0.3787 0.3782
2294.000000 0.3777 0.3772 0.3766 0.3762 0.3757
2299.000000 0.3752 0.3747 0.3742 0.3737 0.3730
2304.000000 0.3726 0.3721 0.3716 0.3710 0.3706
2309.000000 0.3700 0.3695 0.3689 0.3684 0.3678
2314.000000 0.3673 0.3666 0.3662 0.3657 0.3652
2319.000000 0.3648 0.3645 0.3642 0.3639 0.3634
2324.000000 0.3632 0.3628 0.3625 0.3621 0.3618
2329.000000 0.3614 0.3612 0.3609 0.3606 0.3603
2334.000000 0.3600 0.3599 0.3597 0.3594 0.3592
2339.000000 0.3590 0.3588 0.3586 0.3584 0.3584
2344.000000 0.3582 0.3582 0.3580 0.3580 0.3579
2349.000000 0.3578 0.3577 0.3576 0.3576 0.3575
2354.000000 0.3574 0.3573 0.3572 0.3571 0.3570
2359.000000 0.3568 0.3568 0.3566 0.3566 0.3564
2364.000000 0.3564 0.3562 0.3562 0.3562 0.3560
2369.000000 0.3559 0.3559 0.3558 0.3558 0.3557
2374.000000 0.3557 0.3557 0.3557 0.3556 0.3556
2379.000000 0.3556 0.3556 0.3555 0.3555 0.3554
2384.000000 0.3554 0.3554 0.3554 0.3553 0.3553
2389.000000 0.3553 0.3553 0.3550 0.3548 0.3545
2394.000000 0.3542 0.3539 0.3536 0.3532 0.3530
2399.000000 0.3528 0.3525 0.3522 0.3518 0.3516
2404.000000 0.3514 0.3510 0.3508 0.3505 0.3502
2409.000000 0.3499 0.3497 0.3494 0.3491 0.3488
2414.000000 0.3484 0.3482 0.3480 0.3477 0.3474
2419.000000 0.3471 0.3468 0.3466 0.3464 0.3460
2424.000000 0.3459 0.3456 0.3454 0.3450 0.3449
2429.000000 0.3446 0.3444 0.3441 0.3439 0.3436
2434.000000 0.3434 0.3430 0.3429 0.3426 0.3424
2439.000000 0.3421 0.3418 0.3416 0.3414 0.3410
2444.000000 0.3409 0.3406 0.3404 0.3400 0.3399
2449.000000 0.3396 0.3394 0.3391 0.3389 0.3386
2454.000000 0.3384 0.3380 0.3379 0.3376 0.3373
2459.000000 0.3370 0.3368 0.3364 0.3362 0.3359
2464.000000 0.3358 0.3355 0.3353 0.3350 0.3348
2469.000000 0.3345 0.3343 0.3340 0.3338 0.3334
2474.000000 0.3332 0.3330 0.3328 0.3325 0.3323
2479.000000 0.3320 0.3316 0.3314 0.3312 0.3309
2484.000000 0.3307 0.3304 0.3302 0.3299 0.3297
2489.000000 0.3294 0.3292 0.3289 0.3287 0.3284
2494.000000 0.3280 0.3278 0.3276 0.3273 0.3271
2499.000000 0.3268 0.3266 0.3262 0.3260 0.3258
2504.000000 0.3256 0.3253 0.3250 0.3247 0.3245
2509.000000 0.3242 0.3240 0.3237 0.3234 0.3232
2514.000000 0.3230 0.3227 0.3225 0.3222 0.3220
2519.000000 0.3216 0.3214 0.3210 0.3209 0.3207
2524.000000 0.3205 0.3202 0.3200 0.3198 0.3196
2529.000000 0.3193 0.3191 0.3189 0.3187 0.3184
2534.000000 0.3183 0.3180 0.3178 0.3176 0.3174
2539.000000 0.3172 0.3170 0.3167 0.3165 0.3163
2544.000000 0.3161 0.3158 0.3156 0.3154 0.3152
2549.000000 0.3150 0.3148 0.3145 0.3143 0.3141
2554.000000 0.3139 0.3135 0.3134 0.3132 0.3130
2559.000000 0.3128 0.3126 0.3123 0.3121 0.3119
2564.000000 0.3117 0.3115 0.3113 0.3110 0.3108
2569.000000 0.3106 0.3104 0.3101 0.3099 0.3097
2574.000000 0.3095 0.3093 0.3091 0.3088 0.3085
2579.000000 0.3084 0.3082 0.3079 0.3077 0.3074
2584.000000 0.3072 0.3069 0.3066 0.3063 0.3061
2589.000000 0.3058 0.3056 0.3053 0.3050 0.3047
2594.000000 0.3045 0.3042 0.3040 0.3037 0.3034
2599.000000 0.3031 0.3029 0.3026 0.3024 0.3021
2604.000000 0.3018 0.3015 0.3013 0.3010 0.3008
2609.000000 0.3005 0.3003 0.3000 0.2997 0.2994
2614.000000 0.2992 0.2989 0.2987 0.2984 0.2981
2619.000000 0.2978 0.2976 0.2973 0.2971 0.2968
2624.000000 0.2965 0.2962 0.2960 0.2957 0.2955
2629.000000 0.2952 0.2949 0.2946 0.2944 0.2941
2634.000000 0.2939 0.2935 0.2933 0.2930 0.2928
2639.000000 0.2925 0.2923 0.2920 0.2917 0.2914
2644.000000 0.2911 0.2908 0.2905 0.2902 0.2899
2649.000000 0.2896 0.2893 0.2890 0.2887 0.2884
2654.000000 0.2882 0.2879 0.2876 0.2873 0.2870
2659.000000 0.2867 0.2864 0.2861 0.2858 0.2855
2664.000000 0.2852 0.2849 0.2846 0.2843 0.2841
2669.000000 0.2838 0.2834 0.2832 0.2829 0.2826
2674.000000 0.2823 0.2820 0.2817 0.2814 0.2811
2679.000000 0.2808 0.2805 0.2802 0.2800 0.2797
2684.000000 0.2794 0.2791 0.2788 0.2784 0.2782
2689.000000 0.2779 0.2776 0.2773 0.2770 0.2767
2694.000000 0.2764 0.2761 0.2759 0.2756 0.2753
2699.000000 0.2750 0.2747 0.2744 0.2741 0.2738
2704.000000 0.2735 0.2733 0.2730 0.2727 0.2724
2709.000000 0.2721 0.2719 0.2716 0.2713 0.2710
2714.000000 0.2708 0.2705 0.2702 0.2699 0.2696
2719.000000 0.2693 0.2691 0.2688 0.2684 0.2682
2724.000000 0.2679 0.2676 0.2674 0.2671 0.2668
2729.000000 0.2665 0.2662 0.2659 0.2657 0.2654
2734.000000 0.2651 0.2648 0.2646 0.2643 0.2640
2739.000000 0.2637 0.2634 0.2631 0.2629 0.2626
2744.000000 0.2623 0.2620 0.2617 0.2614 0.2612
2749.000000 0.2608 0.2605 0.2602 0.2599 0.2595
2754.000000 0.2592 0.2589 0.2585 0.2583 0.2580
2759.000000 0.2576 0.2573 0.2570 0.2567 0.2563
2764.000000 0.2560 0.2557 0.2554 0.2551 0.2548
2769.000000 0.2544 0.2541 0.2538 0.2534 0.2531
2774.000000 0.2528 0.2525 0.2522 0.2519 0.2516
2779.000000 0.2512 0.2509 0.2506 0.2503 0.2499
2784.000000 0.2496 0.2493 0.2490 0.2487 0.2484
2789.000000 0.2481 0.2478 0.2475 0.2473 0.2470
2794.000000 0.2468 0.2465 0.2463 0.2460 0.2458
2799.000000 0.2455 0.2453 0.2450 0.2448 0.2445
2804.000000 0.2442 0.2439 0.2437 0.2434 0.2432
2809.000000 0.2429 0.2427 0.2424 0.2422 0.2419
2814.000000 0.2417 0.2414 0.2412 0.2409 0.2407
2819.000000 0.2405 0.2403 0.2401 0.2399 0.2396
2824.000000 0.2394 0.2392 0.2390 0.2388 0.2385
2829.000000 0.2384 0.2382 0.2379 0.2377 0.2373
2834.000000 0.2369 0.2365 0.2361 0.2357 0.2353
2839.000000 0.2349 0.2345 0.2341 0.2337 0.2333
2844.000000 0.2330 0.2326 0.2322 0.2318 0.2314
2849.000000 0.2310 0.2306 0.2302 0.2298 0.2294
2854.000000 0.2290 0.2285 0.2283 0.2279 0.2275
2859.000000 0.2270 0.2266 0.2261 0.2256 0.2251
2864.000000 0.2246 0.2241 0.2235 0.2231 0.2227
2869.000000 0.2222 0.2217 0.2212 0.2207 0.2202
2874.000000 0.2197 0.2190 0.2184 0.2177 0.2170
2879.000000 0.2163 0.2156 0.2149 0.2142 0.2134
2884.000000 0.2128 0.2121 0.2114 0.2107 0.2100
2889.000000 0.2093 0.2085 0.2079 0.2072 0.2065
2894.000000 0.2058 0.2050 0.2042 0.2033 0.2025
2899.000000 0.2016 0.2008 0.1999 0.1990 0.1981
2904.000000 0.1973 0.1964 0.1956 0.1952 0.1948
2909.000000 0.1948 0.1948 0.1949 0.1950 0.1976
2914.000000 0.2003 0.2025 0.2048 0.2065 0.2083
2919.000000 0.2082 0.2082 0.2080 0.2079 0.2078
2924.000000 0.2077 0.2075 0.2073 0.2070 0.2068
2929.000000 0.2062 0.2056 0.2050 0.2044 0.2037
2934.000000 0.2032 0.2025 0.2018 0.2004 0.1991
2939.000000 0.1977 0.1964 0.1950 0.1936 0.1919
2944.000000 0.1901 0.1882 0.1864 0.1843 0.1822
2949.000000 0.1799 0.1777 0.1754 0.1732 0.1703
2954.000000 0.1674 0.1659 0.1644 0.1620 0.1596
2959.000000 0.1554 0.1511 0.1468 0.1426 0.1412
2964.000000 0.1398 0.1563 0.1409 0.1934 0.2140
2969.000000 0.2140 0.2139 0.2159 0.2164 0.2166
2974.000000 0.2167 0.2168 0.2168 0.2167 0.2166
2979.000000 0.2164 0.2163 0.2162 0.2161 0.2159
2984.000000 0.2158 0.2156 0.2154 0.2152 0.2151
2989.000000 0.2149 0.2148 0.2146 0.2144 0.2141
2994.000000 0.2139 0.2137 0.2134 0.2132 0.2130
2999.000000 0.2128 0.2126 0.2124 0.2122 0.2120
3004.000000 0.2118 0.2116 0.2115 0.2113 0.2111
3009.000000 0.2109 0.2107 0.2105 0.2104 0.2102
3014.000000 0.2100 0.2098 0.2096 0.2094 0.2092
3019.000000 0.2090 0.2088 0.2085 0.2084 0.2082
3024.000000 0.2080 0.2078 0.2076 0.2074 0.2072
3029.000000 0.2070 0.2068 0.2066 0.2064 0.2061
3034.000000 0.2059 0.2056 0.2054 0.2052 0.2050
3039.000000 0.2046 0.2044 0.2042 0.2040 0.2036
3044.000000 0.2034 0.2032 0.2029 0.2028 0.2026
3049.000000 0.2023 0.2021 0.2018 0.2016 0.2013
3054.000000 0.2011 0.2008 0.2004 0.2002 0.2000
3059.000000 0.1996 0.1994 0.1991 0.1987 0.1984
3064.000000 0.1983 0.1979 0.1977 0.1974 0.1972
3069.000000 0.1969 0.1966 0.1963 0.1960 0.1957
3074.000000 0.1954 0.1952 0.1949 0.1946 0.1944
3079.000000 0.1943 0.1941 0.1939 0.1937 0.1935
3084.000000 0.1934 0.1932 0.1931 0.1929 0.1927
3089.000000 0.1925 0.1923 0.1921 0.1920 0.1918
3094.000000 0.1916 0.1914 0.1913 0.1911 0.1909
3099.000000 0.1907 0.1904 0.1903 0.1902 0.1900
3104.000000 0.1898 0.1895 0.1894 0.1893 0.1891
3109.000000 0.1889 0.1886 0.1884 0.1884 0.1882
3114.000000 0.1879 0.1878 0.1877 0.1875 0.1873
3119.000000 0.1871 0.1870 0.1868 0.1867 0.1865
3124.000000 0.1864 0.1862 0.1861 0.1859 0.1857
3129.000000 0.1854 0.1854 0.1852 0.1851 0.1849
3134.000000 0.1848 0.1845 0.1844 0.1842 0.1841
3139.000000 0.1839 0.1837 0.1835 0.1834 0.1833
3144.000000 0.1832 0.1829 0.1828 0.1826 0.1825
3149.000000 0.1823 0.1822 0.1820 0.1819 0.1817
3154.000000 0.1816 0.1814 0.1812 0.1810 0.1809
3159.000000 0.1807 0.1806 0.1804 0.1803 0.1801
3164.000000 0.1800 0.1798 0.1795 0.1794 0.1793
3169.000000 0.1791 0.1789 0.1786 0.1784 0.1783
3174.000000 0.1781 0.1779 0.1777 0.1775 0.1773
3179.000000 0.1771 0.1769 0.1767 0.1766 0.1764
3184.000000 0.1762 0.1760 0.1758 0.1756 0.1754
3189.000000 0.1752 0.1750 0.1748 0.1745 0.1744
3194.000000 0.1742 0.1740 0.1739 0.1736 0.1734
3199.000000 0.1733 0.1731 0.1729 0.1727 0.1725
3204.000000 0.1723 0.1721 0.1719 0.1717 0.1715
3209.000000 0.1713 0.1712 0.1710 0.1708 0.1706
3214.000000 0.1704 0.1702 0.1700 0.1698 0.1695
3219.000000 0.1694 0.1692 0.1690 0.1687 0.1685
3224.000000 0.1684 0.1683 0.1681 0.1679 0.1677
3229.000000 0.1675 0.1673 0.1671 0.1669 0.1667
3234.000000 0.1665 0.1663 0.1662 0.1660 0.1658
3239.000000 0.1656 0.1654 0.1652 0.1650 0.1648
3244.000000 0.1645 0.1644 0.1643 0.1641 0.1639
3249.000000 0.1636 0.1634 0.1633 0.1632 0.1629
3254.000000 0.1628 0.1626 0.1624 0.1622 0.1621
3259.000000 0.1619 0.1617 0.1615 0.1613 0.1611
3264.000000 0.1610 0.1608 0.1606 0.1604 0.1602
3269.000000 0.1600 0.1599 0.1596 0.1595 0.1592
3274.000000 0.1591 0.1589 0.1588 0.1586 0.1584
3279.000000 0.1582 0.1580 0.1578 0.1577 0.1575
3284.000000 0.1573 0.1571 0.1569 0.1567 0.1566
3289.000000 0.1564 0.1562 0.1560 0.1558 0.1556
3294.000000 0.1555 0.1553 0.1552 0.1551 0.1550
3299.000000 0.1548 0.1546 0.1546 0.1545 0.1542
3304.000000 0.1542 0.1541 0.1540 0.1538 0.1537
3309.000000 0.1536 0.1535 0.1533 0.1532 0.1531
3314.000000 0.1530 0.1528 0.1527 0.1526 0.1525
3319.000000 0.1523 0.1522 0.1521 0.1520 0.1519
3324.000000 0.1518 0.1516 0.1515 0.1514 0.1513
3329.000000 0.1511 0.1510 0.1509 0.1508 0.1506
3334.000000 0.1505 0.1504 0.1503 0.1501 0.1500
3339.000000 0.1499 0.1498 0.1496 0.1495 0.1494
3344.000000 0.1492 0.1491 0.1490 0.1489 0.1488
3349.000000 0.1486 0.1485 0.1484 0.1484 0.1483
3354.000000 0.1482 0.1481 0.1480 0.1479 0.1478
3359.000000 0.1477 0.1477 0.1476 0.1475 0.1474
3364.000000 0.1473 0.1472 0.1472 0.1471 0.1470
3369.000000 0.1469 0.1468 0.1467 0.1466 0.1465
3374.000000 0.1465 0.1464 0.1463 0.1462 0.1461
3379.000000 0.1460 0.1459 0.1458 0.1458 0.1457
3384.000000 0.1456 0.1455 0.1454 0.1453 0.1453
3389.000000 0.1452 0.1451 0.1450 0.1449 0.1448
3394.000000 0.1446 0.1446 0.1446 0.1445 0.1444
3399.000000 0.1442 0.1442 0.1441 0.1441 0.1440
3404.000000 0.1439 0.1438 0.1437 0.1436 0.1435
3409.000000 0.1434 0.1434 0.1433 0.1432 0.1431
3414.000000 0.1430 0.1429 0.1428 0.1427 0.1427
3419.000000 0.1426 0.1425 0.1424 0.1423 0.1422
3424.000000 0.1422 0.1421 0.1420 0.1419 0.1418
3429.000000 0.1417 0.1416 0.1415 0.1414 0.1413
3434.000000 0.1413 0.1412 0.1411 0.1410 0.1409
3439.000000 0.1408 0.1407 0.1406 0.1405 0.1404
3444.000000 0.1403 0.1402 0.1402 0.1401 0.1400
3449.000000 0.1399 0.1398 0.1396 0.1396 0.1395
3454.000000 0.1394 0.1392 0.1392 0.1392 0.1391
3459.000000 0.1390 0.1389 0.1388 0.1387 0.1386
3464.000000 0.1385 0.1384 0.1384 0.1383 0.1382
3469.000000 0.1381 0.1380 0.1379 0.1378 0.1377
3474.000000 0.1376 0.1375 0.1374 0.1372 0.1371
3479.000000 0.1370 0.1369 0.1367 0.1366 0.1364
3484.000000 0.1363 0.1362 0.1361 0.1359 0.1358
3489.000000 0.1357 0.1356 0.1354 0.1353 0.1352
3494.000000 0.1351 0.1349 0.1348 0.1346 0.1345
3499.000000 0.1344 0.1342 0.1341 0.1340 0.1339
3504.000000 0.1338 0.1336 0.1335 0.1334 0.1333
3509.000000 0.1331 0.1330 0.1328 0.1327 0.1326
3514.000000 0.1325 0.1323 0.1322 0.1321 0.1320
3519.000000 0.1318 0.1317 0.1316 0.1315 0.1314
3524.000000 0.1313 0.1312 0.1311 0.1310 0.1309
3529.000000 0.1308 0.1308 0.1307 0.1306 0.1305
3534.000000 0.1304 0.1303 0.1303 0.1302 0.1301
3539.000000 0.1300 0.1300 0.1299 0.1298 0.1296
3544.000000 0.1296 0.1295 0.1295 0.1294 0.1292
3549.000000 0.1292 0.1291 0.1290 0.1290 0.1289
3554.000000 0.1288 0.1287 0.1287 0.1286 0.1285
3559.000000 0.1284 0.1283 0.1282 0.1282 0.1281
3564.000000 0.1280 0.1279 0.1278 0.1277 0.1277
3569.000000 0.1276 0.1275 0.1273 0.1272 0.1271
3574.000000 0.1270 0.1269 0.1268 0.1267 0.1266
3579.000000 0.1264 0.1263 0.1262 0.1261 0.1260
3584.000000 0.1259 0.1258 0.1257 0.1255 0.1254
3589.000000 0.1253 0.1252 0.1251 0.1250 0.1249
3594.000000 0.1248 0.1246 0.1245 0.1244 0.1242
3599.000000 0.1242 0.1241 0.1240 0.1239 0.1237
3604.000000 0.1236 0.1235 0.1234 0.1233 0.1232
3609.000000 0.1231 0.1230 0.1228 0.1227 0.1226
3614.000000 0.1225 0.1224 0.1223 0.1222 0.1221
3619.000000 0.1219 0.1218 0.1217 0.1216 0.1215
3624.000000 0.1214 0.1213 0.1212 0.1211 0.1210
3629.000000 0.1209 0.1209 0.1209 0.1209 0.1208
3634.000000 0.1208 0.1207 0.1207 0.1206 0.1206
3639.000000 0.1205 0.1205 0.1205 0.1205 0.1204
3644.000000 0.1204 0.1203 0.1203 0.1202 0.1202
3649.000000 0.1201 0.1201 0.1200 0.1200 0.1200
3654.000000 0.1200 0.1199 0.1199 0.1198 0.1198
3659.000000 0.1196 0.1196 0.1196 0.1196 0.1195
3664.000000 0.1195 0.1195 0.1195 0.1194 0.1194
3669.000000 0.1192 0.1192 0.1192 0.1192 0.1191
3674.000000 0.1191 0.1191 0.1191 0.1190 0.1190
3679.000000 0.1189 0.1189 0.1188 0.1188 0.1187
3684.000000 0.1187 0.1186 0.1186 0.1186 0.1186
3689.000000 0.1185 0.1184 0.1183 0.1183 0.1182
3694.000000 0.1181 0.1180 0.1180 0.1179 0.1178
3699.000000 0.1177 0.1177 0.1176 0.1176 0.1175
3704.000000 0.1174 0.1173 0.1173 0.1172 0.1171
3709.000000 0.1170 0.1170 0.1169 0.1168 0.1167
3714.000000 0.1167 0.1166 0.1166 0.1165 0.1164
3719.000000 0.1163 0.1163 0.1162 0.1161 0.1160
3724.000000 0.1160 0.1159 0.1158 0.1157 0.1157
3729.000000 0.1156 0.1156 0.1155 0.1154 0.1153
3734.000000 0.1153 0.1152 0.1152 0.1151 0.1151
3739.000000 0.1150 0.1150 0.1149 0.1149 0.1148
3744.000000 0.1148 0.1146 0.1146 0.1146 0.1146
3749.000000 0.1145 0.1145 0.1144 0.1144 0.1142
3754.000000 0.1142 0.1142 0.1142 0.1141 0.1141
3759.000000 0.1140 0.1140 0.1139 0.1139 0.1138
3764.000000 0.1138 0.1138 0.1138 0.1137 0.1137
3769.000000 0.1136 0.1136 0.1136 0.1136 0.1135
3774.000000 0.1135 0.1135 0.1135 0.1135 0.1135
3779.000000 0.1134 0.1134 0.1134 0.1134 0.1134
3784.000000 0.1134 0.1133 0.1133 0.1133 0.1133
3789.000000 0.1133 0.1133 0.1132 0.1132 0.1132
3794.000000 0.1132 0.1132 0.1132 0.1131 0.1131
3799.000000 0.1131 0.1131
##END=
