##TITLE=Dibutylamine hydrochloride
##JCAMP-DX=4.24
##DATA TYPE=INFRARED SPECTRUM
##CLASS=COBLENTZ III
##ORIGIN=DOW CHEMICAL COMPANY
##OWNER=COBLENTZ SOC.
Collection (C) 2018 copyright by the U.S. Secretary of Commerce
on behalf of the United States of America. All rights reserved.
##DATE=1959/06/26
##NAMES=N,N-dibutylamine hydrochloride
Butanamine, N-butyl-, hydrochloride
##MOLFORM=C8 H20 Cl N
##SOURCE REFERENCE=COBLENTZ NO. 09845
##$NIST ID=B6009845
##$NIST SOURCE=COBLENTZ
##$NIST IMAGE=cob9845
##SPECTROMETER/DATA SYSTEM=DOW KBr FOREPRISM-GRATING
##INSTRUMENT PARAMETERS=BLAZED AT 3.5, 12.0, 20.0 MICRON AND CHANGED AT 5.0, 7.5, 14.9 MICRON
##STATE=SOLID (NUJOL MULL)
$$SPECTRAL CONTAMINATION DUE TO OIL AROUND 1378, 1460, 2900-3100 CM^-^1
##SAMPLING PROCEDURE=TRANSMISSION
##RESOLUTION=2
##DATA PROCESSING=DIGITIZED BY COBLENTZ SOCIETY (BATCH I) FROM HARD COPY
##XUNITS=1/CM
##YUNITS=TRANSMITTANCE
##XLABEL=Wavenumbers (cm-1)
##YLABEL=% Transmission
##XFACTOR=1
##YFACTOR=1
##DELTAX=1
##FIRSTX=452
##LASTX=3800
##FIRSTY=0.7656
##MAXX=3800
##MINX=452
##MAXY=1.0295
##MINY=0.0177
##NPOINTS=3349
##XYDATA=(X++(Y..Y))
452.000000 0.7656 0.7671 0.7684 0.7695 0.7706
457.000000 0.7717 0.7728 0.7739 0.7750 0.7760
462.000000 0.7771 0.7781 0.7792 0.7803 0.7815
467.000000 0.7828 0.7840 0.7851 0.7864 0.7876
472.000000 0.7889 0.7900 0.7910 0.7919 0.7930
477.000000 0.7940 0.7950 0.7958 0.7968 0.7978
482.000000 0.7982 0.7987 0.7991 0.7995 0.7999
487.000000 0.8003 0.8006 0.8008 0.8011 0.8014
492.000000 0.8015 0.8018 0.8021 0.8024 0.8026
497.000000 0.8031 0.8035 0.8039 0.8043 0.8047
502.000000 0.8051 0.8055 0.8058 0.8062 0.8068
507.000000 0.8074 0.8078 0.8085 0.8090 0.8096
512.000000 0.8101 0.8107 0.8111 0.8117 0.8122
517.000000 0.8128 0.8132 0.8136 0.8139 0.8143
522.000000 0.8146 0.8150 0.8154 0.8157 0.8161
527.000000 0.8165 0.8168 0.8171 0.8175 0.8178
532.000000 0.8182 0.8186 0.8189 0.8193 0.8196
537.000000 0.8200 0.8203 0.8208 0.8252 0.8223
542.000000 0.8230 0.8238 0.8245 0.8253 0.8260
547.000000 0.8263 0.8266 0.8268 0.8273 0.8275
552.000000 0.8278 0.8282 0.8285 0.8288 0.8289
557.000000 0.8290 0.8291 0.8293 0.8294 0.8295
562.000000 0.8296 0.8297 0.8298 0.8300 0.8301
567.000000 0.8302 0.8302 0.8302 0.8301 0.8301
572.000000 0.8300 0.8300 0.8299 0.8299 0.8298
577.000000 0.8298 0.8298 0.8304 0.8310 0.8317
582.000000 0.8323 0.8328 0.8336 0.8342 0.8375
587.000000 0.8414 0.8383 0.8356 0.8340 0.8323
592.000000 0.8307 0.8299 0.8299 0.8301 0.8303
597.000000 0.8305 0.8307 0.8309 0.8311 0.8311
602.000000 0.8312 0.8312 0.8313 0.8314 0.8314
607.000000 0.8315 0.8315 0.8316 0.8317 0.8317
612.000000 0.8334 0.8351 0.8363 0.8373 0.8382
617.000000 0.8381 0.8377 0.8371 0.8368 0.8362
622.000000 0.8352 0.8343 0.8334 0.8324 0.8315
627.000000 0.8311 0.8308 0.8304 0.8301 0.8298
632.000000 0.8294 0.8293 0.8294 0.8294 0.8295
637.000000 0.8296 0.8297 0.8298 0.8299 0.8300
642.000000 0.8301 0.8301 0.8302 0.8303 0.8303
647.000000 0.8302 0.8302 0.8302 0.8301 0.8301
652.000000 0.8300 0.8315 0.8349 0.8383 0.8417
657.000000 0.8451 0.8485 0.8518 0.8554 0.8588
662.000000 0.8621 0.8656 0.8690 0.8724 0.8759
667.000000 0.8793 0.8827 0.8861 0.8895 0.8928
672.000000 0.8963 0.8998 0.9032 0.9066 0.9100
677.000000 0.9134 0.9168 0.9203 0.9237 0.9271
682.000000 0.9305 0.9339 0.9373 0.9408 0.9442
687.000000 0.9475 0.9510 0.9544 0.9578 0.9612
692.000000 0.9647 0.9681 0.9715 0.9749 0.9783
697.000000 0.9817 0.9852 0.9886 0.9920 0.9954
702.000000 0.9988 1.0018 0.9990 0.9956 0.9923
707.000000 0.9900 0.9875 0.9853 0.9854 0.9855
712.000000 0.9778 0.9753 0.9728 0.9702 0.9675
717.000000 0.9646 0.9608 0.9570 0.9532 0.9496
722.000000 0.9482 0.9475 0.9468 0.9465 0.9460
727.000000 0.9455 0.9450 0.9433 0.9397 0.9363
732.000000 0.9338 0.9313 0.9241 0.9144 0.9046
737.000000 0.8949 0.8852 0.8754 0.8657 0.8584
742.000000 0.8581 0.8650 0.8816 0.8982 0.9148
747.000000 0.9314 0.9348 0.9344 0.9332 0.9307
752.000000 0.9274 0.9244 0.9212 0.9180 0.9150
757.000000 0.9174 0.9138 0.9148 0.9232 0.9316
762.000000 0.9399 0.9483 0.9563 0.9627 0.9665
767.000000 0.9677 0.9687 0.9689 0.9689 0.9688
772.000000 0.9688 0.9718 0.9681 0.9675 0.9668
777.000000 0.9662 0.9654 0.9633 0.9612 0.9591
782.000000 0.9568 0.9545 0.9521 0.9498 0.9458
787.000000 0.9417 0.9381 0.9347 0.9312 0.9298
792.000000 0.9308 0.9309 0.9320 0.9331 0.9343
797.000000 0.9357 0.9378 0.9400 0.9421 0.9445
802.000000 0.9470 0.9495 0.9523 0.9561 0.9592
807.000000 0.9616 0.9641 0.9665 0.9687 0.9704
812.000000 0.9721 0.9732 0.9741 0.9750 0.9757
817.000000 0.9761 0.9766 0.9770 0.9774 0.9803
822.000000 0.9780 0.9782 0.9783 0.9785 0.9787
827.000000 0.9787 0.9785 0.9783 0.9781 0.9778
832.000000 0.9777 0.9775 0.9773 0.9771 0.9766
837.000000 0.9761 0.9756 0.9751 0.9745 0.9740
842.000000 0.9735 0.9728 0.9720 0.9713 0.9705
847.000000 0.9697 0.9689 0.9681 0.9671 0.9661
852.000000 0.9651 0.9641 0.9631 0.9618 0.9605
857.000000 0.9591 0.9577 0.9562 0.9548 0.9534
862.000000 0.9518 0.9503 0.9486 0.9468 0.9452
867.000000 0.9435 0.9418 0.9401 0.9385 0.9370
872.000000 0.9354 0.9339 0.9323 0.9307 0.9292
877.000000 0.9275 0.9257 0.9239 0.9225 0.9212
882.000000 0.9199 0.9187 0.9174 0.9175 0.9178
887.000000 0.9191 0.9199 0.9206 0.9217 0.9232
892.000000 0.9258 0.9296 0.9342 0.9388 0.9432
897.000000 0.9475 0.9514 0.9552 0.9590 0.9597
902.000000 0.9598 0.9598 0.9598 0.9596 0.9594
907.000000 0.9591 0.9584 0.9580 0.9577 0.9574
912.000000 0.9570 0.9567 0.9564 0.9564 0.9565
917.000000 0.9568 0.9580 0.9590 0.9596 0.9602
922.000000 0.9602 0.9603 0.9603 0.9604 0.9604
927.000000 0.9604 0.9603 0.9602 0.9602 0.9601
932.000000 0.9600 0.9597 0.9593 0.9590 0.9586
937.000000 0.9583 0.9578 0.9574 0.9570 0.9565
942.000000 0.9561 0.9557 0.9553 0.9548 0.9546
947.000000 0.9543 0.9541 0.9539 0.9536 0.9534
952.000000 0.9532 0.9528 0.9527 0.9525 0.9524
957.000000 0.9521 0.9521 0.9518 0.9517 0.9516
962.000000 0.9514 0.9513 0.9511 0.9509 0.9508
967.000000 0.9508 0.9509 0.9510 0.9511 0.9512
972.000000 0.9513 0.9514 0.9515 0.9516 0.9516
977.000000 0.9516 0.9516 0.9515 0.9511 0.9498
982.000000 0.9485 0.9478 0.9475 0.9471 0.9468
987.000000 0.9466 0.9463 0.9461 0.9466 0.9471
992.000000 0.9477 0.9482 0.9484 0.9486 0.9489
997.000000 0.9491 0.9499 0.9508 0.9518 0.9525
1002.000000 0.9530 0.9535 0.9537 0.9537 0.9537
1007.000000 0.9537 0.9537 0.9537 0.9532 0.9525
1012.000000 0.9518 0.9510 0.9503 0.9496 0.9488
1017.000000 0.9484 0.9478 0.9475 0.9471 0.9466
1022.000000 0.9462 0.9457 0.9453 0.9449 0.9441
1027.000000 0.9433 0.9425 0.9416 0.9408 0.9400
1032.000000 0.9391 0.9383 0.9375 0.9365 0.9355
1037.000000 0.9345 0.9335 0.9325 0.9315 0.9305
1042.000000 0.9295 0.9295 0.9303 0.9316 0.9330
1047.000000 0.9345 0.9360 0.9368 0.9370 0.9371
1052.000000 0.9371 0.9371 0.9371 0.9370 0.9367
1057.000000 0.9364 0.9361 0.9358 0.9349 0.9340
1062.000000 0.9330 0.9321 0.9311 0.9303 0.9296
1067.000000 0.9290 0.9284 0.9278 0.9273 0.9267
1072.000000 0.9278 0.9291 0.9305 0.9321 0.9338
1077.000000 0.9356 0.9374 0.9396 0.9418 0.9439
1082.000000 0.9460 0.9481 0.9502 0.9523 0.9540
1087.000000 0.9539 0.9537 0.9534 0.9532 0.9530
1092.000000 0.9528 0.9525 0.9524 0.9523 0.9521
1097.000000 0.9518 0.9518 0.9517 0.9516 0.9515
1102.000000 0.9512 0.9513 0.9514 0.9523 0.9536
1107.000000 0.9577 0.9616 0.9654 0.9692 0.9730
1112.000000 0.9768 0.9834 0.9885 0.9937 0.9921
1117.000000 0.9921 0.9921 0.9921 0.9915 0.9909
1122.000000 0.9902 0.9892 0.9881 0.9870 0.9854
1127.000000 0.9831 0.9808 0.9784 0.9752 0.9715
1132.000000 0.9677 0.9639 0.9598 0.9548 0.9498
1137.000000 0.9441 0.9371 0.9301 0.9225 0.9150
1142.000000 0.9096 0.9096 0.9096 0.9052 0.9128
1147.000000 0.9154 0.9184 0.9225 0.9292 0.9406
1152.000000 0.9487 0.9518 0.9517 0.9513 0.9510
1157.000000 0.9507 0.9505 0.9502 0.9499 0.9496
1162.000000 0.9492 0.9488 0.9483 0.9478 0.9474
1167.000000 0.9468 0.9463 0.9458 0.9453 0.9447
1172.000000 0.9442 0.9437 0.9432 0.9427 0.9421
1177.000000 0.9417 0.9417 0.9425 0.9444 0.9470
1182.000000 0.9496 0.9528 0.9564 0.9589 0.9598
1187.000000 0.9607 0.9616 0.9618 0.9620 0.9621
1192.000000 0.9623 0.9623 0.9624 0.9625 0.9625
1197.000000 0.9625 0.9623 0.9621 0.9620 0.9618
1202.000000 0.9618 0.9625 0.9631 0.9639 0.9647
1207.000000 0.9654 0.9654 0.9654 0.9653 0.9653
1212.000000 0.9652 0.9651 0.9650 0.9648 0.9647
1217.000000 0.9646 0.9644 0.9643 0.9641 0.9639
1222.000000 0.9638 0.9636 0.9635 0.9633 0.9632
1227.000000 0.9625 0.9618 0.9611 0.9604 0.9598
1232.000000 0.9591 0.9581 0.9571 0.9560 0.9550
1237.000000 0.9539 0.9527 0.9515 0.9502 0.9490
1242.000000 0.9478 0.9466 0.9451 0.9437 0.9421
1247.000000 0.9407 0.9392 0.9377 0.9362 0.9346
1252.000000 0.9330 0.9314 0.9297 0.9281 0.9265
1257.000000 0.9255 0.9248 0.9241 0.9234 0.9227
1262.000000 0.9221 0.9217 0.9214 0.9211 0.9208
1267.000000 0.9205 0.9202 0.9199 0.9196 0.9194
1272.000000 0.9192 0.9190 0.9188 0.9186 0.9184
1277.000000 0.9183 0.9181 0.9177 0.9173 0.9168
1282.000000 0.9165 0.9161 0.9157 0.9153 0.9149
1287.000000 0.9145 0.9140 0.9131 0.9121 0.9112
1292.000000 0.9103 0.9094 0.9084 0.9078 0.9075
1297.000000 0.9071 0.9068 0.9065 0.9061 0.9060
1302.000000 0.9059 0.9059 0.9060 0.9060 0.9057
1307.000000 0.9053 0.9049 0.9046 0.9042 0.9038
1312.000000 0.9034 0.9031 0.9027 0.9024 0.9020
1317.000000 0.9017 0.9013 0.9010 0.9006 0.9003
1322.000000 0.8999 0.8991 0.8980 0.8970 0.8960
1327.000000 0.8947 0.8925 0.8904 0.8883 0.8853
1332.000000 0.8813 0.8771 0.8732 0.8691 0.8642
1337.000000 0.8583 0.8524 0.8468 0.8417 0.8364
1342.000000 0.8311 0.8249 0.8228 0.8217 0.8215
1347.000000 0.8220 0.8231 0.8241 0.8259 0.8293
1352.000000 0.8325 0.8356 0.8394 0.8447 0.8499
1357.000000 0.8545 0.8592 0.8605 0.8601 0.8592
1362.000000 0.8581 0.8566 0.8514 0.8444 0.8344
1367.000000 0.8265 0.8196 0.8151 0.8110 0.8007
1372.000000 0.7798 0.7589 0.7380 0.7171 0.6961
1377.000000 0.6753 0.6600 0.6601 0.6703 0.6862
1382.000000 0.7021 0.7165 0.7211 0.7245 0.7297
1387.000000 0.7496 0.7728 0.7960 0.8192 0.8393
1392.000000 0.8437 0.8471 0.8485 0.8499 0.8493
1397.000000 0.8483 0.8471 0.8447 0.8420 0.8354
1402.000000 0.8238 0.8121 0.8004 0.7888 0.7771
1407.000000 0.7655 0.7538 0.7421 0.7306 0.7239
1412.000000 0.7240 0.7240 0.7230 0.7295 0.7412
1417.000000 0.7531 0.7649 0.7765 0.7884 0.8001
1422.000000 0.8115 0.8133 0.8128 0.8118 0.8108
1427.000000 0.8084 0.8022 0.7949 0.7825 0.7725
1432.000000 0.7605 0.7487 0.7371 0.7222 0.7076
1437.000000 0.7056 0.7040 0.7019 0.6962 0.6905
1442.000000 0.6790 0.6649 0.6449 0.6338 0.6239
1447.000000 0.6015 0.5782 0.5548 0.5315 0.5082
1452.000000 0.4842 0.4612 0.4480 0.4377 0.4314
1457.000000 0.4291 0.4268 0.4245 0.4220 0.4197
1462.000000 0.4181 0.4184 0.4188 0.4201 0.4215
1467.000000 0.4379 0.4778 0.5177 0.5576 0.5974
1472.000000 0.6349 0.6430 0.6488 0.6537 0.6567
1477.000000 0.6584 0.6596 0.6607 0.6747 0.6918
1482.000000 0.7090 0.7261 0.7434 0.7606 0.7778
1487.000000 0.7949 0.8083 0.8198 0.8297 0.8383
1492.000000 0.8428 0.8473 0.8504 0.8531 0.8558
1497.000000 0.8580 0.8598 0.8615 0.8632 0.8643
1502.000000 0.8655 0.8666 0.8678 0.8689 0.8701
1507.000000 0.8712 0.8721 0.8730 0.8737 0.8745
1512.000000 0.8753 0.8761 0.8768 0.8775 0.8784
1517.000000 0.8792 0.8797 0.8801 0.8806 0.8811
1522.000000 0.8815 0.8820 0.8823 0.8824 0.8824
1527.000000 0.8825 0.8825 0.8825 0.8827 0.8827
1532.000000 0.8827 0.8825 0.8825 0.8824 0.8821
1537.000000 0.8821 0.8820 0.8818 0.8817 0.8815
1542.000000 0.8814 0.8812 0.8810 0.8808 0.8807
1547.000000 0.8805 0.8803 0.8799 0.8795 0.8791
1552.000000 0.8786 0.8782 0.8778 0.8774 0.8770
1557.000000 0.8766 0.8761 0.8753 0.8745 0.8737
1562.000000 0.8728 0.8721 0.8712 0.8700 0.8680
1567.000000 0.8661 0.8641 0.8621 0.8602 0.8582
1572.000000 0.8547 0.8512 0.8475 0.8440 0.8405
1577.000000 0.8366 0.8302 0.8239 0.8175 0.8110
1582.000000 0.8045 0.7978 0.7903 0.7826 0.7768
1587.000000 0.7714 0.7678 0.7665 0.7664 0.7664
1592.000000 0.7683 0.7706 0.7741 0.7812 0.7888
1597.000000 0.7962 0.8038 0.8112 0.8188 0.8263
1602.000000 0.8338 0.8403 0.8457 0.8530 0.8582
1607.000000 0.8634 0.8681 0.8720 0.8759 0.8793
1612.000000 0.8825 0.8858 0.8883 0.8905 0.8927
1617.000000 0.8948 0.8962 0.8975 0.8991 0.9005
1622.000000 0.9018 0.9031 0.9044 0.9056 0.9068
1627.000000 0.9083 0.9099 0.9115 0.9133 0.9202
1632.000000 0.9207 0.9213 0.9218 0.9223 0.9228
1637.000000 0.9254 0.9283 0.9312 0.9328 0.9343
1642.000000 0.9341 0.9337 0.9333 0.9327 0.9317
1647.000000 0.9307 0.9295 0.9278 0.9261 0.9248
1652.000000 0.9238 0.9227 0.9221 0.9218 0.9217
1657.000000 0.9216 0.9215 0.9214 0.9213 0.9212
1662.000000 0.9211 0.9210 0.9210 0.9210 0.9211
1667.000000 0.9212 0.9212 0.9213 0.9213 0.9213
1672.000000 0.9213 0.9213 0.9213 0.9213 0.9206
1677.000000 0.9199 0.9193 0.9186 0.9178 0.9180
1682.000000 0.9181 0.9186 0.9196 0.9206 0.9211
1687.000000 0.9212 0.9213 0.9213 0.9212 0.9212
1692.000000 0.9210 0.9210 0.9210 0.9212 0.9214
1697.000000 0.9216 0.9218 0.9221 0.9225 0.9230
1702.000000 0.9234 0.9237 0.9237 0.9238 0.9239
1707.000000 0.9239 0.9239 0.9238 0.9231 0.9225
1712.000000 0.9218 0.9209 0.9201 0.9201 0.9202
1717.000000 0.9215 0.9228 0.9237 0.9243 0.9244
1722.000000 0.9244 0.9243 0.9242 0.9241 0.9240
1727.000000 0.9239 0.9237 0.9235 0.9233 0.9233
1732.000000 0.9233 0.9236 0.9238 0.9241 0.9243
1737.000000 0.9246 0.9254 0.9262 0.9270 0.9278
1742.000000 0.9278 0.9278 0.9278 0.9275 0.9271
1747.000000 0.9267 0.9263 0.9259 0.9255 0.9261
1752.000000 0.9274 0.9286 0.9296 0.9306 0.9316
1757.000000 0.9325 0.9338 0.9350 0.9354 0.9355
1762.000000 0.9356 0.9357 0.9358 0.9359 0.9360
1767.000000 0.9361 0.9362 0.9363 0.9364 0.9368
1772.000000 0.9378 0.9387 0.9387 0.9388 0.9382
1777.000000 0.9377 0.9371 0.9367 0.9360 0.9355
1782.000000 0.9353 0.9352 0.9351 0.9349 0.9350
1787.000000 0.9350 0.9361 0.9368 0.9374 0.9375
1792.000000 0.9377 0.9377 0.9375 0.9375 0.9375
1797.000000 0.9375 0.9374 0.9371 0.9370 0.9368
1802.000000 0.9365 0.9362 0.9360 0.9357 0.9354
1807.000000 0.9350 0.9347 0.9343 0.9339 0.9335
1812.000000 0.9331 0.9327 0.9324 0.9318 0.9315
1817.000000 0.9310 0.9305 0.9301 0.9296 0.9291
1822.000000 0.9287 0.9282 0.9278 0.9274 0.9270
1827.000000 0.9267 0.9263 0.9260 0.9256 0.9253
1832.000000 0.9249 0.9246 0.9242 0.9238 0.9235
1837.000000 0.9231 0.9227 0.9223 0.9218 0.9215
1842.000000 0.9211 0.9207 0.9203 0.9199 0.9195
1847.000000 0.9170 0.9189 0.9186 0.9184 0.9181
1852.000000 0.9178 0.9175 0.9173 0.9170 0.9168
1857.000000 0.9168 0.9168 0.9168 0.9168 0.9168
1862.000000 0.9168 0.9168 0.9171 0.9173 0.9175
1867.000000 0.9177 0.9178 0.9181 0.9185 0.9189
1872.000000 0.9194 0.9199 0.9203 0.9209 0.9214
1877.000000 0.9220 0.9225 0.9231 0.9236 0.9242
1882.000000 0.9247 0.9253 0.9259 0.9264 0.9270
1887.000000 0.9275 0.9281 0.9287 0.9292 0.9297
1892.000000 0.9302 0.9307 0.9312 0.9317 0.9321
1897.000000 0.9327 0.9331 0.9334 0.9337 0.9340
1902.000000 0.9343 0.9344 0.9344 0.9344 0.9343
1907.000000 0.9343 0.9346 0.9349 0.9352 0.9356
1912.000000 0.9359 0.9362 0.9363 0.9365 0.9366
1917.000000 0.9368 0.9370 0.9373 0.9375 0.9378
1922.000000 0.9382 0.9382 0.9382 0.9381 0.9381
1927.000000 0.9381 0.9380 0.9380 0.9380 0.9381
1932.000000 0.9382 0.9384 0.9385 0.9387 0.9390
1937.000000 0.9393 0.9396 0.9399 0.9402 0.9405
1942.000000 0.9413 0.9421 0.9431 0.9430 0.9425
1947.000000 0.9420 0.9415 0.9410 0.9405 0.9400
1952.000000 0.9409 0.9418 0.9458 0.9752 1.0068
1957.000000 1.0295 1.0224 0.9900 0.9577 0.9389
1962.000000 0.9388 0.9388 0.9388 0.9387 0.9386
1967.000000 0.9386 0.9387 0.9387 0.9387 0.9386
1972.000000 0.9385 0.9384 0.9384 0.9384 0.9384
1977.000000 0.9385 0.9385 0.9386 0.9387 0.9389
1982.000000 0.9392 0.9396 0.9399 0.9403 0.9405
1987.000000 0.9406 0.9407 0.9407 0.9406 0.9405
1992.000000 0.9401 0.9397 0.9393 0.9389 0.9385
1997.000000 0.9367 0.9348 0.9320 0.9271 0.9267
2002.000000 0.9266 0.9265 0.9268 0.9270 0.9271
2007.000000 0.9274 0.9275 0.9278 0.9281 0.9285
2012.000000 0.9290 0.9294 0.9299 0.9303 0.9308
2017.000000 0.9313 0.9318 0.9321 0.9327 0.9332
2022.000000 0.9337 0.9341 0.9346 0.9349 0.9352
2027.000000 0.9343 0.9334 0.9320 0.9306 0.9299
2032.000000 0.9293 0.9289 0.9285 0.9281 0.9278
2037.000000 0.9275 0.9271 0.9268 0.9267 0.9264
2042.000000 0.9261 0.9257 0.9254 0.9251 0.9248
2047.000000 0.9244 0.9241 0.9236 0.9232 0.9225
2052.000000 0.9221 0.9216 0.9211 0.9206 0.9202
2057.000000 0.9198 0.9195 0.9191 0.9188 0.9184
2062.000000 0.9183 0.9183 0.9184 0.9189 0.9194
2067.000000 0.9206 0.9218 0.9228 0.9241 0.9249
2072.000000 0.9258 0.9258 0.9259 0.9260 0.9261
2077.000000 0.9262 0.9263 0.9263 0.9263 0.9263
2082.000000 0.9263 0.9262 0.9262 0.9261 0.9261
2087.000000 0.9260 0.9260 0.9259 0.9259 0.9257
2092.000000 0.9256 0.9254 0.9253 0.9252 0.9251
2097.000000 0.9249 0.9248 0.9246 0.9245 0.9244
2102.000000 0.9243 0.9241 0.9240 0.9239 0.9239
2107.000000 0.9238 0.9237 0.9236 0.9236 0.9235
2112.000000 0.9235 0.9234 0.9233 0.9232 0.9232
2117.000000 0.9231 0.9230 0.9228 0.9228 0.9228
2122.000000 0.9227 0.9225 0.9225 0.9224 0.9223
2127.000000 0.9221 0.9221 0.9220 0.9218 0.9218
2132.000000 0.9217 0.9216 0.9215 0.9214 0.9213
2137.000000 0.9212 0.9211 0.9209 0.9208 0.9206
2142.000000 0.9205 0.9203 0.9202 0.9200 0.9199
2147.000000 0.9197 0.9196 0.9194 0.9192 0.9190
2152.000000 0.9189 0.9187 0.9186 0.9184 0.9183
2157.000000 0.9181 0.9180 0.9178 0.9177 0.9175
2162.000000 0.9174 0.9171 0.9171 0.9168 0.9168
2167.000000 0.9167 0.9166 0.9165 0.9164 0.9163
2172.000000 0.9162 0.9160 0.9159 0.9158 0.9157
2177.000000 0.9156 0.9155 0.9154 0.9153 0.9151
2182.000000 0.9150 0.9149 0.9149 0.9148 0.9147
2187.000000 0.9146 0.9146 0.9145 0.9144 0.9143
2192.000000 0.9142 0.9141 0.9141 0.9140 0.9139
2197.000000 0.9138 0.9138 0.9137 0.9136 0.9135
2202.000000 0.9135 0.9134 0.9133 0.9132 0.9132
2207.000000 0.9130 0.9128 0.9127 0.9125 0.9123
2212.000000 0.9121 0.9120 0.9118 0.9116 0.9115
2217.000000 0.9113 0.9111 0.9109 0.9107 0.9105
2222.000000 0.9104 0.9102 0.9100 0.9098 0.9096
2227.000000 0.9094 0.9093 0.9091 0.9089 0.9087
2232.000000 0.9086 0.9084 0.9082 0.9080 0.9078
2237.000000 0.9077 0.9075 0.9075 0.9074 0.9071
2242.000000 0.9071 0.9070 0.9068 0.9068 0.9067
2247.000000 0.9065 0.9064 0.9063 0.9062 0.9061
2252.000000 0.9060 0.9058 0.9057 0.9056 0.9055
2257.000000 0.9054 0.9053 0.9052 0.9051 0.9051
2262.000000 0.9051 0.9051 0.9051 0.9050 0.9050
2267.000000 0.9050 0.9050 0.9050 0.9050 0.9049
2272.000000 0.9049 0.9049 0.9049 0.9049 0.9049
2277.000000 0.9048 0.9047 0.9046 0.9045 0.9044
2282.000000 0.9043 0.9042 0.9041 0.9040 0.9039
2287.000000 0.9038 0.9037 0.9036 0.9035 0.9034
2292.000000 0.9033 0.9031 0.9030 0.9027 0.9024
2297.000000 0.9021 0.9018 0.9015 0.9013 0.9010
2302.000000 0.9007 0.9004 0.9001 0.8998 0.8995
2307.000000 0.8992 0.8990 0.8985 0.8980 0.8973
2312.000000 0.8967 0.8960 0.8953 0.8946 0.8939
2317.000000 0.8932 0.8925 0.8918 0.8911 0.8904
2322.000000 0.8898 0.8890 0.8883 0.8874 0.8865
2327.000000 0.8856 0.8848 0.8839 0.8831 0.8821
2332.000000 0.8813 0.8804 0.8796 0.8783 0.8770
2337.000000 0.8756 0.8742 0.8728 0.8715 0.8701
2342.000000 0.8687 0.8673 0.8659 0.8645 0.8632
2347.000000 0.8618 0.8604 0.8584 0.8564 0.8544
2352.000000 0.8524 0.8504 0.8484 0.8464 0.8444
2357.000000 0.8424 0.8404 0.8375 0.8349 0.8318
2362.000000 0.8287 0.8256 0.8225 0.8195 0.8164
2367.000000 0.8132 0.8100 0.8064 0.8028 0.7993
2372.000000 0.7958 0.7921 0.7887 0.7851 0.7815
2377.000000 0.7747 0.7678 0.7565 0.7454 0.7422
2382.000000 0.7392 0.7372 0.7354 0.7351 0.7349
2387.000000 0.7354 0.7360 0.7365 0.7353 0.7382
2392.000000 0.7392 0.7406 0.7419 0.7437 0.7454
2397.000000 0.7475 0.7496 0.7528 0.7560 0.7603
2402.000000 0.7646 0.7681 0.7717 0.7742 0.7767
2407.000000 0.7768 0.7768 0.7768 0.7768 0.7765
2412.000000 0.7796 0.7757 0.7751 0.7742 0.7733
2417.000000 0.7712 0.7693 0.7660 0.7626 0.7594
2422.000000 0.7561 0.7534 0.7507 0.7480 0.7453
2427.000000 0.7412 0.7374 0.7304 0.7234 0.7124
2432.000000 0.7015 0.6905 0.6795 0.6685 0.6575
2437.000000 0.6465 0.6356 0.6246 0.6136 0.6026
2442.000000 0.5916 0.5806 0.5697 0.5614 0.5532
2447.000000 0.5496 0.5460 0.5441 0.5421 0.5420
2452.000000 0.5419 0.5422 0.5426 0.5452 0.5478
2457.000000 0.5552 0.5626 0.5699 0.5773 0.5847
2462.000000 0.5921 0.5995 0.6069 0.6143 0.6217
2467.000000 0.6290 0.6364 0.6438 0.6511 0.6586
2472.000000 0.6660 0.6734 0.6808 0.6881 0.6955
2477.000000 0.7028 0.7103 0.7176 0.7251 0.7325
2482.000000 0.7399 0.7471 0.7546 0.7624 0.7703
2487.000000 0.7725 0.7750 0.7760 0.7771 0.7774
2492.000000 0.7778 0.7780 0.7781 0.7781 0.7775
2497.000000 0.7775 0.7771 0.7765 0.7761 0.7751
2502.000000 0.7742 0.7728 0.7715 0.7703 0.7690
2507.000000 0.7664 0.7638 0.7611 0.7585 0.7550
2512.000000 0.7515 0.7480 0.7445 0.7405 0.7365
2517.000000 0.7325 0.7286 0.7240 0.7195 0.7136
2522.000000 0.7078 0.7018 0.6961 0.6901 0.6841
2527.000000 0.6791 0.6742 0.6706 0.6669 0.6636
2532.000000 0.6603 0.6574 0.6546 0.6517 0.6488
2537.000000 0.6457 0.6426 0.6386 0.6346 0.6250
2542.000000 0.6154 0.6097 0.6040 0.5994 0.5948
2547.000000 0.5931 0.5914 0.5906 0.5899 0.5898
2552.000000 0.5898 0.5898 0.5907 0.5922 0.5944
2557.000000 0.5986 0.6029 0.6064 0.6100 0.6126
2562.000000 0.6153 0.6178 0.6203 0.6218 0.6234
2567.000000 0.6249 0.6265 0.6281 0.6297 0.6314
2572.000000 0.6332 0.6349 0.6366 0.6391 0.6417
2577.000000 0.6444 0.6471 0.6515 0.6558 0.6597
2582.000000 0.6637 0.6674 0.6711 0.6735 0.6758
2587.000000 0.6778 0.6797 0.6804 0.6811 0.6815
2592.000000 0.6818 0.6819 0.6819 0.6819 0.6819
2597.000000 0.6815 0.6812 0.6808 0.6804 0.6794
2602.000000 0.6784 0.6772 0.6761 0.6743 0.6725
2607.000000 0.6707 0.6689 0.6667 0.6645 0.6621
2612.000000 0.6599 0.6567 0.6535 0.6492 0.6449
2617.000000 0.6392 0.6336 0.6297 0.6259 0.6220
2622.000000 0.6182 0.6143 0.6105 0.6066 0.6028
2627.000000 0.5989 0.5951 0.5912 0.5874 0.5835
2632.000000 0.5797 0.5758 0.5720 0.5681 0.5643
2637.000000 0.5604 0.5565 0.5526 0.5488 0.5449
2642.000000 0.5410 0.5372 0.5334 0.5295 0.5257
2647.000000 0.5226 0.5196 0.5170 0.5145 0.5121
2652.000000 0.5098 0.5084 0.5071 0.5057 0.5044
2657.000000 0.5031 0.5018 0.5004 0.4991 0.4978
2662.000000 0.4966 0.4954 0.4942 0.4930 0.4919
2667.000000 0.4905 0.4891 0.4877 0.4862 0.4848
2672.000000 0.4834 0.4802 0.4771 0.4734 0.4698
2677.000000 0.4658 0.4619 0.4578 0.4537 0.4492
2682.000000 0.4448 0.4398 0.4349 0.4300 0.4251
2687.000000 0.4201 0.4152 0.4103 0.4054 0.4004
2692.000000 0.3955 0.3905 0.3856 0.3807 0.3758
2697.000000 0.3708 0.3659 0.3609 0.3560 0.3510
2702.000000 0.3462 0.3412 0.3362 0.3314 0.3264
2707.000000 0.3214 0.3166 0.3117 0.3068 0.3018
2712.000000 0.2969 0.2919 0.2870 0.2821 0.2772
2717.000000 0.2722 0.2673 0.2629 0.2584 0.2558
2722.000000 0.2531 0.2502 0.2474 0.2445 0.2417
2727.000000 0.2391 0.2365 0.2346 0.2328 0.2309
2732.000000 0.2291 0.2280 0.2269 0.2258 0.2248
2737.000000 0.2237 0.2227 0.2216 0.2206 0.2197
2742.000000 0.2188 0.2181 0.2174 0.2167 0.2160
2747.000000 0.2153 0.2147 0.2143 0.2139 0.2134
2752.000000 0.2130 0.2126 0.2122 0.2120 0.2119
2757.000000 0.2117 0.2116 0.2114 0.2113 0.2111
2762.000000 0.2110 0.2109 0.2108 0.2107 0.2106
2767.000000 0.2105 0.2105 0.2104 0.2103 0.2091
2772.000000 0.2079 0.2065 0.2052 0.2031 0.2011
2777.000000 0.1989 0.1967 0.1940 0.1914 0.1884
2782.000000 0.1856 0.1832 0.1809 0.1789 0.1770
2787.000000 0.1756 0.1743 0.1737 0.1733 0.1729
2792.000000 0.1727 0.1725 0.1724 0.1727 0.1729
2797.000000 0.1733 0.1735 0.1739 0.1743 0.1745
2802.000000 0.1750 0.1753 0.1757 0.1759 0.1762
2807.000000 0.1765 0.1768 0.1771 0.1774 0.1778
2812.000000 0.1783 0.1794 0.1806 0.1817 0.1829
2817.000000 0.1857 0.1885 0.1916 0.1946 0.1960
2822.000000 0.1973 0.1978 0.1983 0.1981 0.1979
2827.000000 0.1978 0.1976 0.1973 0.1971 0.1958
2832.000000 0.1945 0.1916 0.1886 0.1779 0.1672
2837.000000 0.1548 0.1425 0.1301 0.1178 0.1069
2842.000000 0.0960 0.0942 0.0924 0.0920 0.0916
2847.000000 0.0914 0.0914 0.0914 0.0916 0.0917
2852.000000 0.0918 0.0919 0.0921 0.0922 0.0924
2857.000000 0.0926 0.0928 0.0932 0.0936 0.0939
2862.000000 0.0945 0.0951 0.0958 0.0965 0.0972
2867.000000 0.1021 0.1069 0.1182 0.1295 0.1407
2872.000000 0.1519 0.1556 0.1594 0.1600 0.1607
2877.000000 0.1607 0.1608 0.1604 0.1601 0.1596
2882.000000 0.1591 0.1558 0.1526 0.1465 0.1405
2887.000000 0.1345 0.1285 0.1225 0.1165 0.1110
2892.000000 0.1056 0.1009 0.0962 0.0905 0.0849
2897.000000 0.0817 0.0786 0.0754 0.0723 0.0692
2902.000000 0.0661 0.0630 0.0599 0.0537 0.0475
2907.000000 0.0432 0.0390 0.0366 0.0343 0.0318
2912.000000 0.0296 0.0275 0.0254 0.0233 0.0214
2917.000000 0.0199 0.0183 0.0182 0.0180 0.0179
2922.000000 0.0178 0.0177 0.0177 0.0178 0.0180
2927.000000 0.0190 0.0201 0.0212 0.0226 0.0243
2932.000000 0.0261 0.0292 0.0323 0.0337 0.0351
2937.000000 0.0351 0.0351 0.0350 0.0350 0.0349
2942.000000 0.0349 0.0340 0.0331 0.0321 0.0311
2947.000000 0.0300 0.0289 0.0279 0.0270 0.0263
2952.000000 0.0257 0.0260 0.0264 0.0267 0.0272
2957.000000 0.0287 0.0302 0.0323 0.0344 0.0372
2962.000000 0.0401 0.0453 0.0505 0.0598 0.0691
2967.000000 0.0839 0.0989 0.1137 0.1286 0.1359
2972.000000 0.1432 0.1462 0.1492 0.1551 0.1611
2977.000000 0.1682 0.1754 0.1814 0.1874 0.1934
2982.000000 0.1994 0.2082 0.2169 0.2258 0.2347
2987.000000 0.2411 0.2475 0.2522 0.2569 0.2616
2992.000000 0.2664 0.2704 0.2744 0.2783 0.2823
2997.000000 0.2862 0.2901 0.2940 0.2980 0.3038
3002.000000 0.3097 0.3157 0.3218 0.3282 0.3347
3007.000000 0.3421 0.3496 0.3571 0.3646 0.3721
3012.000000 0.3797 0.3873 0.3949 0.4014 0.4082
3017.000000 0.4146 0.4210 0.4275 0.4340 0.4427
3022.000000 0.4514 0.4598 0.4682 0.4743 0.4805
3027.000000 0.4866 0.4928 0.4990 0.5052 0.5114
3032.000000 0.5176 0.5231 0.5286 0.5330 0.5375
3037.000000 0.5416 0.5458 0.5491 0.5524 0.5556
3042.000000 0.5589 0.5621 0.5654 0.5686 0.5718
3047.000000 0.5777 0.5836 0.5917 0.5998 0.6032
3052.000000 0.6066 0.6095 0.6124 0.6155 0.6187
3057.000000 0.6221 0.6256 0.6280 0.6304 0.6328
3062.000000 0.6353 0.6378 0.6404 0.6428 0.6455
3067.000000 0.6480 0.6506 0.6533 0.6561 0.6590
3072.000000 0.6619 0.6649 0.6678 0.6715 0.6754
3077.000000 0.6792 0.6830 0.6871 0.6912 0.6961
3082.000000 0.7008 0.7057 0.7105 0.7138 0.7171
3087.000000 0.7194 0.7217 0.7239 0.7261 0.7284
3092.000000 0.7307 0.7328 0.7351 0.7375 0.7399
3097.000000 0.7422 0.7448 0.7471 0.7496 0.7515
3102.000000 0.7535 0.7554 0.7572 0.7592 0.7611
3107.000000 0.7630 0.7649 0.7668 0.7687 0.7704
3112.000000 0.7721 0.7739 0.7756 0.7772 0.7790
3117.000000 0.7806 0.7822 0.7840 0.7857 0.7868
3122.000000 0.7882 0.7892 0.7901 0.7911 0.7921
3127.000000 0.7932 0.7942 0.7951 0.7961 0.7968
3132.000000 0.7976 0.7983 0.7990 0.7996 0.8003
3137.000000 0.8008 0.8015 0.8021 0.8028 0.8034
3142.000000 0.8039 0.8042 0.8046 0.8050 0.8054
3147.000000 0.8057 0.8061 0.8064 0.8068 0.8071
3152.000000 0.8075 0.8078 0.8081 0.8084 0.8088
3157.000000 0.8091 0.8094 0.8097 0.8100 0.8103
3162.000000 0.8107 0.8110 0.8112 0.8115 0.8119
3167.000000 0.8122 0.8125 0.8128 0.8131 0.8133
3172.000000 0.8136 0.8138 0.8141 0.8143 0.8145
3177.000000 0.8147 0.8150 0.8151 0.8155 0.8157
3182.000000 0.8160 0.8164 0.8168 0.8171 0.8175
3187.000000 0.8178 0.8183 0.8187 0.8191 0.8195
3192.000000 0.8199 0.8203 0.8207 0.8215 0.8223
3197.000000 0.8231 0.8239 0.8247 0.8256 0.8264
3202.000000 0.8273 0.8281 0.8289 0.8299 0.8309
3207.000000 0.8318 0.8328 0.8339 0.8350 0.8360
3212.000000 0.8371 0.8382 0.8394 0.8405 0.8417
3217.000000 0.8428 0.8440 0.8451 0.8462 0.8473
3222.000000 0.8485 0.8494 0.8503 0.8509 0.8515
3227.000000 0.8521 0.8527 0.8533 0.8540 0.8545
3232.000000 0.8550 0.8553 0.8556 0.8558 0.8561
3237.000000 0.8564 0.8567 0.8570 0.8573 0.8575
3242.000000 0.8578 0.8581 0.8583 0.8584 0.8586
3247.000000 0.8587 0.8589 0.8590 0.8592 0.8593
3252.000000 0.8594 0.8595 0.8597 0.8598 0.8578
3257.000000 0.8601 0.8603 0.8604 0.8605 0.8605
3262.000000 0.8605 0.8604 0.8603 0.8602 0.8601
3267.000000 0.8600 0.8599 0.8598 0.8598 0.8597
3272.000000 0.8596 0.8595 0.8594 0.8593 0.8592
3277.000000 0.8591 0.8590 0.8589 0.8588 0.8587
3282.000000 0.8587 0.8586 0.8585 0.8584 0.8583
3287.000000 0.8582 0.8581 0.8578 0.8578 0.8575
3292.000000 0.8575 0.8573 0.8571 0.8570 0.8568
3297.000000 0.8566 0.8565 0.8563 0.8562 0.8560
3302.000000 0.8559 0.8557 0.8555 0.8553 0.8552
3307.000000 0.8550 0.8549 0.8547 0.8546 0.8544
3312.000000 0.8542 0.8540 0.8539 0.8537 0.8536
3317.000000 0.8533 0.8530 0.8525 0.8523 0.8518
3322.000000 0.8516 0.8513 0.8510 0.8506 0.8503
3327.000000 0.8501 0.8499 0.8497 0.8495 0.8493
3332.000000 0.8491 0.8489 0.8488 0.8486 0.8484
3337.000000 0.8482 0.8480 0.8478 0.8475 0.8474
3342.000000 0.8473 0.8471 0.8468 0.8467 0.8465
3347.000000 0.8463 0.8461 0.8459 0.8458 0.8456
3352.000000 0.8454 0.8452 0.8451 0.8449 0.8447
3357.000000 0.8445 0.8444 0.8442 0.8440 0.8438
3362.000000 0.8437 0.8435 0.8433 0.8431 0.8430
3367.000000 0.8428 0.8425 0.8424 0.8421 0.8418
3372.000000 0.8417 0.8414 0.8411 0.8408 0.8406
3377.000000 0.8403 0.8401 0.8398 0.8395 0.8392
3382.000000 0.8390 0.8387 0.8384 0.8381 0.8378
3387.000000 0.8375 0.8374 0.8371 0.8368 0.8365
3392.000000 0.8363 0.8360 0.8357 0.8354 0.8352
3397.000000 0.8349 0.8347 0.8344 0.8342 0.8339
3402.000000 0.8337 0.8334 0.8332 0.8328 0.8327
3407.000000 0.8324 0.8321 0.8318 0.8317 0.8314
3412.000000 0.8312 0.8310 0.8308 0.8305 0.8303
3417.000000 0.8300 0.8298 0.8295 0.8293 0.8290
3422.000000 0.8288 0.8285 0.8283 0.8281 0.8278
3427.000000 0.8277 0.8275 0.8274 0.8273 0.8271
3432.000000 0.8271 0.8268 0.8268 0.8266 0.8265
3437.000000 0.8263 0.8262 0.8261 0.8260 0.8258
3442.000000 0.8257 0.8255 0.8254 0.8253 0.8252
3447.000000 0.8251 0.8251 0.8250 0.8250 0.8249
3452.000000 0.8249 0.8249 0.8249 0.8248 0.8248
3457.000000 0.8247 0.8247 0.8246 0.8246 0.8246
3462.000000 0.8246 0.8245 0.8245 0.8244 0.8244
3467.000000 0.8243 0.8243 0.8243 0.8244 0.8244
3472.000000 0.8244 0.8244 0.8245 0.8245 0.8246
3477.000000 0.8246 0.8246 0.8246 0.8247 0.8247
3482.000000 0.8247 0.8248 0.8249 0.8250 0.8251
3487.000000 0.8252 0.8253 0.8254 0.8255 0.8256
3492.000000 0.8257 0.8258 0.8259 0.8260 0.8261
3497.000000 0.8262 0.8263 0.8264 0.8265 0.8266
3502.000000 0.8267 0.8268 0.8270 0.8271 0.8274
3507.000000 0.8275 0.8278 0.8280 0.8283 0.8285
3512.000000 0.8287 0.8289 0.8291 0.8293 0.8295
3517.000000 0.8297 0.8300 0.8302 0.8304 0.8306
3522.000000 0.8308 0.8310 0.8312 0.8314 0.8316
3527.000000 0.8318 0.8321 0.8323 0.8325 0.8327
3532.000000 0.8328 0.8332 0.8335 0.8338 0.8342
3537.000000 0.8345 0.8348 0.8351 0.8355 0.8358
3542.000000 0.8362 0.8365 0.8368 0.8371 0.8375
3547.000000 0.8378 0.8382 0.8385 0.8388 0.8391
3552.000000 0.8395 0.8399 0.8403 0.8407 0.8411
3557.000000 0.8415 0.8418 0.8423 0.8427 0.8431
3562.000000 0.8435 0.8439 0.8443 0.8447 0.8451
3567.000000 0.8455 0.8459 0.8462 0.8465 0.8467
3572.000000 0.8470 0.8471 0.8475 0.8477 0.8478
3577.000000 0.8481 0.8484 0.8486 0.8489 0.8491
3582.000000 0.8494 0.8496 0.8498 0.8500 0.8503
3587.000000 0.8505 0.8507 0.8507 0.8508 0.8508
3592.000000 0.8509 0.8509 0.8510 0.8510 0.8510
3597.000000 0.8510 0.8511 0.8511 0.8512 0.8512
3602.000000 0.8513 0.8513 0.8514 0.8514 0.8515
3607.000000 0.8515 0.8516 0.8516 0.8517 0.8517
3612.000000 0.8517 0.8517 0.8518 0.8518 0.8518
3617.000000 0.8518 0.8518 0.8518 0.8520 0.8520
3622.000000 0.8520 0.8520 0.8521 0.8521 0.8521
3627.000000 0.8521 0.8521 0.8521 0.8523 0.8523
3632.000000 0.8523 0.8523 0.8524 0.8524 0.8525
3637.000000 0.8525 0.8525 0.8525 0.8525 0.8525
3642.000000 0.8525 0.8525 0.8525 0.8525 0.8527
3647.000000 0.8527 0.8527 0.8527 0.8527 0.8527
3652.000000 0.8528 0.8528 0.8528 0.8528 0.8528
3657.000000 0.8528 0.8528 0.8528 0.8528 0.8528
3662.000000 0.8528 0.8528 0.8530 0.8530 0.8530
3667.000000 0.8530 0.8530 0.8528 0.8528 0.8528
3672.000000 0.8528 0.8527 0.8527 0.8525 0.8525
3677.000000 0.8525 0.8525 0.8524 0.8524 0.8524
3682.000000 0.8524 0.8523 0.8523 0.8521 0.8521
3687.000000 0.8521 0.8521 0.8520 0.8520 0.8518
3692.000000 0.8518 0.8518 0.8518 0.8518 0.8518
3697.000000 0.8517 0.8517 0.8516 0.8515 0.8514
3702.000000 0.8513 0.8512 0.8511 0.8510 0.8510
3707.000000 0.8509 0.8508 0.8507 0.8506 0.8505
3712.000000 0.8504 0.8503 0.8503 0.8502 0.8501
3717.000000 0.8500 0.8499 0.8498 0.8497 0.8496
3722.000000 0.8495 0.8494 0.8494 0.8493 0.8492
3727.000000 0.8491 0.8490 0.8489 0.8488 0.8487
3732.000000 0.8487 0.8486 0.8485 0.8484 0.8484
3737.000000 0.8483 0.8483 0.8482 0.8482 0.8481
3742.000000 0.8481 0.8480 0.8480 0.8478 0.8478
3747.000000 0.8477 0.8477 0.8475 0.8475 0.8475
3752.000000 0.8475 0.8474 0.8474 0.8473 0.8473
3757.000000 0.8473 0.8473 0.8471 0.8471 0.8471
3762.000000 0.8471 0.8471 0.8471 0.8471 0.8471
3767.000000 0.8470 0.8470 0.8470 0.8470 0.8468
3772.000000 0.8468 0.8468 0.8468 0.8468 0.8468
3777.000000 0.8468 0.8468 0.8467 0.8467 0.8467
3782.000000 0.8467 0.8466 0.8466 0.8466 0.8466
3787.000000 0.8465 0.8465 0.8465 0.8465 0.8465
3792.000000 0.8465 0.8464 0.8464 0.8464 0.8464
3797.000000 0.8463 0.8463 0.8463 0.8463
##END=
