##TITLE=LEADED ZINC OXIDE
##JCAMP-DX=4.24
##DATA TYPE=INFRARED SPECTRUM
##CLASS=COBLENTZ
##ORIGIN=DESOTO CHEMICAL COATINGS, INC.
##OWNER=COBLENTZ SOCIETY
Collection (C) 2018 copyright by the U.S. Secretary of Commerce
on behalf of the United States of America. All rights reserved.
##DATE=Not specified, most likely prior to 1970
##MOLFORM=Zn O
##SOURCE REFERENCE=COBLENTZ NO. 4651
##$NIST ID=B6004651
##$NIST SOURCE=COBLENTZ
##$NIST IMAGE=cob4651
##SPECTROMETER/DATA SYSTEM=Not specified, most likely a grating spectrometer.
##STATE=SOLID (0.8 mg / 300 mg CsI PELLET)
##SAMPLING PROCEDURE=TRANSMISSION
##RESOLUTION=4
##DATA PROCESSING=DIGITIZED BY NIST FROM HARD COPY (FROM TWO SEGMENTS)
##XUNITS=1/CM
##YUNITS=TRANSMITTANCE
##XFACTOR=1.000000
##YFACTOR=1
##DELTAX=1.329397
##FIRSTX=200
##LASTX=3986.12
##FIRSTY=0.792
##MAXX=3986.12
##MINX=200
##MAXY=0.977
##MINY=0.129
##NPOINTS=2849
##XYDATA=(X++(Y..Y))
200.000000 0.7920 0.7930 0.7940 0.7920 0.7930
206.646985 0.7940 0.7960 0.7960 0.7980 0.7980
213.293970 0.8000 0.8000 0.8000 0.7980 0.7980
219.940955 0.7970 0.7960 0.7940 0.7920 0.7890
226.587940 0.7880 0.7880 0.7880 0.7890 0.7890
233.234924 0.7920 0.7920 0.7920 0.7900 0.7900
239.881909 0.7900 0.7900 0.7890 0.7890 0.7880
246.528894 0.7860 0.7850 0.7840 0.7820 0.7820
253.175879 0.7810 0.7800 0.7800 0.7800 0.7800
259.822864 0.7810 0.7810 0.7800 0.7800 0.7780
266.469849 0.7780 0.7780 0.7800 0.7800 0.7800
273.116834 0.7770 0.7770 0.7760 0.7740 0.7740
279.763819 0.7740 0.7730 0.7730 0.7730 0.7730
286.410804 0.7730 0.7730 0.7730 0.7720 0.7720
293.057788 0.7720 0.7720 0.7700 0.7700 0.7690
299.704773 0.7680 0.7660 0.7650 0.7620 0.7600
306.351758 0.7570 0.7560 0.7560 0.7540 0.7530
312.998743 0.7520 0.7490 0.7480 0.7450 0.7420
319.645728 0.7400 0.7380 0.7360 0.7340 0.7330
326.292713 0.7300 0.7280 0.7260 0.7260 0.7250
332.939698 0.7240 0.7220 0.7210 0.7200 0.7170
339.586683 0.7140 0.7140 0.7120 0.7100 0.7090
346.233668 0.7090 0.7080 0.7080 0.7080 0.7080
352.880652 0.7060 0.7060 0.7050 0.7040 0.7020
359.527637 0.7020 0.7010 0.7010 0.7000 0.7000
366.174622 0.6980 0.6970 0.6970 0.6940 0.6930
372.821607 0.6880 0.6860 0.6850 0.6820 0.6810
379.468592 0.6800 0.6780 0.6760 0.6740 0.6651
386.115577 0.6640 0.6600 0.6540 0.6530 0.6460
392.762562 0.6400 0.6330 0.6250 0.6180 0.6130
399.409547 0.6050 0.5960 0.5810 0.5680 0.5560
406.056532 0.5450 0.5340 0.5240 0.5131 0.5001
412.703516 0.4860 0.4690 0.4500 0.4400 0.4280
419.350501 0.4081 0.3970 0.3841 0.3721 0.3621
425.997486 0.3320 0.3200 0.3120 0.3020 0.2930
432.644471 0.2840 0.2740 0.2700 0.2620 0.2580
439.291456 0.2530 0.2520 0.2490 0.2460 0.2440
445.938441 0.2420 0.2420 0.2410 0.2410 0.2400
452.585426 0.2380 0.2320 0.2260 0.2210 0.2130
459.232411 0.2050 0.1970 0.1900 0.1820 0.1701
465.879396 0.1640 0.1530 0.1480 0.1400 0.1360
472.526380 0.1330 0.1300 0.1290 0.1290 0.1300
479.173365 0.1320 0.1330 0.1340 0.1360 0.1380
485.820350 0.1400 0.1410 0.1410 0.1420 0.1420
492.467335 0.1420 0.1440 0.1450 0.1460 0.1490
499.114320 0.1520 0.1600 0.1690 0.1770 0.1899
505.761305 0.2050 0.2220 0.2440 0.2640 0.2839
512.408290 0.2970 0.3169 0.3260 0.3340 0.3499
519.055275 0.3810 0.4050 0.4290 0.4559 0.4819
525.702260 0.5119 0.5339 0.5619 0.5799 0.6009
532.349244 0.6220 0.6340 0.6500 0.6650 0.6730
538.996229 0.6810 0.6939 0.7099 0.7249 0.7320
545.643214 0.7420 0.7520 0.7540 0.7610 0.7680
552.290199 0.7780 0.7850 0.7890 0.7930 0.8009
558.937184 0.8020 0.8060 0.8120 0.8170 0.8170
565.584169 0.8200 0.8210 0.8240 0.8280 0.8300
572.231154 0.8400 0.8460 0.8460 0.8520 0.8540
578.878139 0.8560 0.8600 0.8620 0.8650 0.8660
585.525124 0.8660 0.8680 0.8690 0.8720 0.8740
592.172108 0.8760 0.8760 0.8760 0.8760 0.8730
598.819093 0.8720 0.8680 0.8620 0.8580 0.8570
605.466078 0.8570 0.8570 0.8570 0.8570 0.8570
612.113063 0.8570 0.8570 0.8570 0.8580 0.8580
618.760048 0.8610 0.8640 0.8680 0.8770 0.8810
625.407033 0.8820 0.8890 0.8940 0.9000 0.9010
632.054018 0.9020 0.9040 0.9080 0.9100 0.9120
638.701003 0.9160 0.9170 0.9200 0.9210 0.9220
645.347988 0.9240 0.9240 0.9250 0.9250 0.9250
651.994972 0.9250 0.9250 0.9250 0.9250 0.9260
658.641957 0.9260 0.9280 0.9280 0.9290 0.9290
665.288942 0.9290 0.9280 0.9280 0.9260 0.9250
671.935927 0.9240 0.9240 0.9250 0.9250 0.9260
678.582912 0.9260 0.9280 0.9280 0.9300 0.9300
685.229897 0.9300 0.9320 0.9330 0.9330 0.9340
691.876882 0.9370 0.9400 0.9400 0.9410 0.9420
698.523867 0.9420 0.9440 0.9440 0.9440 0.9450
705.170852 0.9450 0.9450 0.9450 0.9460 0.9460
711.817836 0.9460 0.9490 0.9500 0.9500 0.9540
718.464821 0.9560 0.9570 0.9580 0.9580 0.9600
725.111806 0.9600 0.9600 0.9600 0.9610 0.9620
731.758791 0.9620 0.9620 0.9620 0.9620 0.9620
738.405776 0.9620 0.9620 0.9640 0.9640 0.9650
745.052761 0.9650 0.9660 0.9660 0.9660 0.9660
751.699746 0.9650 0.9650 0.9650 0.9650 0.9650
758.346731 0.9660 0.9660 0.9690 0.9690 0.9680
764.993716 0.9680 0.9660 0.9660 0.9650 0.9650
771.640700 0.9640 0.9620 0.9610 0.9600 0.9600
778.287685 0.9600 0.9600 0.9580 0.9580 0.9580
784.934670 0.9570 0.9570 0.9560 0.9560 0.9540
791.581655 0.9540 0.9530 0.9530 0.9520 0.9520
798.228640 0.9500 0.9490 0.9490 0.9500 0.9500
804.875625 0.9500 0.9500 0.9520 0.9520 0.9520
811.522610 0.9520 0.9530 0.9560 0.9560 0.9570
818.169595 0.9570 0.9570 0.9570 0.9570 0.9570
824.816580 0.9580 0.9580 0.9580 0.9580 0.9580
831.463564 0.9580 0.9600 0.9600 0.9600 0.9610
838.110549 0.9620 0.9620 0.9640 0.9640 0.9660
844.757534 0.9660 0.9680 0.9700 0.9700 0.9700
851.404519 0.9690 0.9690 0.9690 0.9680 0.9680
858.051504 0.9680 0.9690 0.9690 0.9700 0.9720
864.698489 0.9720 0.9720 0.9720 0.9720 0.9720
871.345474 0.9720 0.9700 0.9700 0.9700 0.9720
877.992459 0.9720 0.9720 0.9720 0.9720 0.9720
884.639443 0.9720 0.9720 0.9720 0.9720 0.9720
891.286428 0.9700 0.9700 0.9690 0.9700 0.9700
897.933413 0.9700 0.9720 0.9730 0.9730 0.9730
904.580398 0.9730 0.9730 0.9730 0.9730 0.9720
911.227383 0.9720 0.9730 0.9730 0.9730 0.9730
917.874368 0.9740 0.9730 0.9740 0.9740 0.9740
924.521353 0.9760 0.9760 0.9760 0.9770 0.9770
931.168338 0.9770 0.9770 0.9770 0.9770 0.9760
937.815323 0.9760 0.9760 0.9770 0.9770 0.9760
944.462307 0.9760 0.9760 0.9760 0.9760 0.9760
951.109292 0.9760 0.9760 0.9760 0.9760 0.9760
957.756277 0.9740 0.9740 0.9740 0.9730 0.9720
964.403262 0.9720 0.9720 0.9720 0.9720 0.9700
971.050247 0.9690 0.9680 0.9680 0.9660 0.9660
977.697232 0.9650 0.9650 0.9640 0.9640 0.9640
984.344217 0.9640 0.9640 0.9620 0.9620 0.9620
990.991202 0.9610 0.9610 0.9570 0.9570 0.9560
997.638187 0.9540 0.9540 0.9520 0.9490 0.9480
1004.285171 0.9450 0.9440 0.9420 0.9420 0.9420
1010.932156 0.9410 0.9400 0.9370 0.9360 0.9330
1017.579141 0.9300 0.9260 0.9250 0.9220 0.9200
1024.226126 0.9170 0.9160 0.9140 0.9130 0.9130
1030.873111 0.9120 0.9100 0.9080 0.9060 0.9050
1037.520096 0.9040 0.9020 0.9010 0.8980 0.8960
1044.167081 0.8920 0.8900 0.8890 0.8880 0.8860
1050.814066 0.8840 0.8800 0.8780 0.8740 0.8700
1057.461051 0.8660 0.8620 0.8540 0.8520 0.8421
1064.108035 0.8340 0.8240 0.8140 0.8090 0.8010
1070.755020 0.8000 0.7920 0.7860 0.7840 0.7810
1077.402005 0.7800 0.7740 0.7730 0.7700 0.7680
1084.048990 0.7660 0.7650 0.7650 0.7650 0.7650
1090.695975 0.7650 0.7650 0.7650 0.7650 0.7650
1097.342960 0.7660 0.7660 0.7680 0.7680 0.7690
1103.989945 0.7700 0.7700 0.7730 0.7740 0.7770
1110.636930 0.7780 0.7810 0.7840 0.7850 0.7860
1117.283915 0.7890 0.7900 0.7940 0.7960 0.7980
1123.930899 0.8020 0.8020 0.8050 0.8100 0.8140
1130.577884 0.8170 0.8220 0.8300 0.8330 0.8370
1137.224869 0.8410 0.8460 0.8520 0.8540 0.8610
1143.871854 0.8690 0.8700 0.8760 0.8800 0.8820
1150.518839 0.8890 0.8930 0.8980 0.9010 0.9020
1157.165824 0.9050 0.9100 0.9130 0.9160 0.9170
1163.812809 0.9210 0.9240 0.9250 0.9280 0.9290
1170.459794 0.9300 0.9320 0.9330 0.9330 0.9340
1177.106779 0.9380 0.9400 0.9410 0.9420 0.9450
1183.753763 0.9480 0.9490 0.9500 0.9500 0.9520
1190.400748 0.9560 0.9570 0.9580 0.9580 0.9580
1197.047733 0.9580 0.9600 0.9610 0.9610 0.9640
1203.694718 0.9650 0.9660 0.9660 0.9660 0.9650
1210.341703 0.9620 0.9610 0.9650 0.9660 0.9660
1216.988688 0.9650 0.9650 0.9650 0.9650 0.9650
1223.635673 0.9690 0.9690 0.9660 0.9660 0.9650
1230.282658 0.9650 0.9660 0.9680 0.9680 0.9680
1236.929643 0.9680 0.9690 0.9700 0.9720 0.9720
1243.576627 0.9720 0.9720 0.9720 0.9700 0.9690
1250.223612 0.9690 0.9700 0.9720 0.9700 0.9690
1256.870597 0.9680 0.9680 0.9660 0.9650 0.9640
1263.517582 0.9620 0.9640 0.9650 0.9660 0.9680
1270.164567 0.9680 0.9690 0.9690 0.9680 0.9680
1276.811552 0.9680 0.9690 0.9690 0.9700 0.9700
1283.458537 0.9690 0.9690 0.9720 0.9730 0.9720
1290.105522 0.9700 0.9720 0.9730 0.9730 0.9730
1296.752507 0.9730 0.9730 0.9730 0.9730 0.9720
1303.399491 0.9700 0.9700 0.9700 0.9700 0.9700
1310.046476 0.9690 0.9690 0.9660 0.9660 0.9650
1316.693461 0.9650 0.9650 0.9650 0.9650 0.9650
1323.340446 0.9650 0.9650 0.9660 0.9660 0.9660
1329.987431 0.9660 0.9680 0.9680 0.9680 0.9660
1336.634416 0.9660 0.9660 0.9660 0.9660 0.9650
1343.281401 0.9650 0.9650 0.9650 0.9660 0.9660
1349.928386 0.9650 0.9640 0.9640 0.9660 0.9660
1356.575371 0.9660 0.9660 0.9660 0.9660 0.9660
1363.222355 0.9640 0.9620 0.9610 0.9600 0.9600
1369.869340 0.9600 0.9600 0.9600 0.9600 0.9600
1376.516325 0.9580 0.9560 0.9560 0.9560 0.9560
1383.163310 0.9570 0.9580 0.9600 0.9600 0.9600
1389.810295 0.9600 0.9600 0.9580 0.9560 0.9540
1396.457280 0.9530 0.9520 0.9520 0.9520 0.9500
1403.104265 0.9500 0.9480 0.9460 0.9450 0.9450
1409.751250 0.9440 0.9420 0.9410 0.9410 0.9420
1416.398235 0.9440 0.9450 0.9460 0.9480 0.9490
1423.045219 0.9490 0.9500 0.9500 0.9500 0.9500
1429.692204 0.9500 0.9490 0.9490 0.9490 0.9490
1436.339189 0.9500 0.9520 0.9520 0.9520 0.9530
1442.986174 0.9540 0.9560 0.9560 0.9560 0.9560
1449.633159 0.9570 0.9570 0.9560 0.9540 0.9540
1456.280144 0.9540 0.9530 0.9520 0.9520 0.9500
1462.927129 0.9500 0.9500 0.9520 0.9520 0.9520
1469.574114 0.9530 0.9540 0.9560 0.9570 0.9580
1476.221099 0.9600 0.9610 0.9610 0.9610 0.9610
1482.868083 0.9620 0.9620 0.9620 0.9640 0.9640
1489.515068 0.9660 0.9660 0.9660 0.9660 0.9650
1496.162053 0.9650 0.9640 0.9640 0.9640 0.9620
1502.809038 0.9610 0.9600 0.9600 0.9610 0.9610
1509.456023 0.9610 0.9610 0.9620 0.9620 0.9610
1516.103008 0.9600 0.9580 0.9580 0.9570 0.9570
1522.749993 0.9560 0.9540 0.9540 0.9530 0.9520
1529.396978 0.9520 0.9530 0.9530 0.9540 0.9540
1536.043963 0.9540 0.9540 0.9540 0.9540 0.9530
1542.690947 0.9520 0.9520 0.9500 0.9500 0.9490
1549.337932 0.9490 0.9490 0.9500 0.9500 0.9500
1555.984917 0.9500 0.9490 0.9480 0.9460 0.9450
1562.631902 0.9410 0.9400 0.9400 0.9400 0.9400
1569.278887 0.9410 0.9410 0.9410 0.9410 0.9410
1575.925872 0.9400 0.9400 0.9400 0.9380 0.9360
1582.572857 0.9330 0.9300 0.9300 0.9290 0.9280
1589.219842 0.9260 0.9250 0.9220 0.9180 0.9130
1595.866827 0.9100 0.9090 0.9040 0.9020 0.8980
1602.513811 0.8920 0.8880 0.8860 0.8850 0.8810
1609.160796 0.8780 0.8770 0.8760 0.8740 0.8730
1615.807781 0.8720 0.8700 0.8690 0.8690 0.8690
1622.454766 0.8700 0.8730 0.8740 0.8800 0.8820
1629.101751 0.8860 0.8900 0.8900 0.8930 0.8980
1635.748736 0.9010 0.9040 0.9050 0.9090 0.9100
1642.395721 0.9130 0.9140 0.9170 0.9180 0.9200
1649.042706 0.9210 0.9220 0.9250 0.9280 0.9280
1655.689691 0.9290 0.9290 0.9290 0.9300 0.9320
1662.336675 0.9320 0.9330 0.9340 0.9360 0.9370
1668.983660 0.9380 0.9400 0.9400 0.9410 0.9410
1675.630645 0.9410 0.9410 0.9410 0.9420 0.9420
1682.277630 0.9440 0.9460 0.9490 0.9490 0.9500
1688.924615 0.9520 0.9540 0.9560 0.9560 0.9560
1695.571600 0.9560 0.9560 0.9560 0.9540 0.9540
1702.218585 0.9580 0.9600 0.9600 0.9610 0.9610
1708.865570 0.9610 0.9600 0.9580 0.9580 0.9580
1715.512555 0.9580 0.9600 0.9600 0.9600 0.9600
1722.159539 0.9600 0.9600 0.9600 0.9610 0.9610
1728.806524 0.9610 0.9620 0.9620 0.9620 0.9640
1735.453509 0.9640 0.9640 0.9640 0.9640 0.9650
1742.100494 0.9660 0.9690 0.9690 0.9690 0.9690
1748.747479 0.9690 0.9700 0.9700 0.9720 0.9720
1755.394464 0.9720 0.9720 0.9720 0.9700 0.9700
1762.041449 0.9700 0.9700 0.9700 0.9700 0.9700
1768.688434 0.9700 0.9700 0.9700 0.9700 0.9700
1775.335419 0.9700 0.9700 0.9700 0.9700 0.9700
1781.982403 0.9700 0.9700 0.9700 0.9700 0.9700
1788.629388 0.9700 0.9700 0.9700 0.9700 0.9720
1795.276373 0.9730 0.9730 0.9730 0.9730 0.9730
1801.923358 0.9730 0.9730 0.9730 0.9730 0.9730
1808.570343 0.9730 0.9730 0.9740 0.9760 0.9740
1815.217328 0.9730 0.9730 0.9720 0.9720 0.9720
1821.864313 0.9740 0.9740 0.9730 0.9720 0.9700
1828.511298 0.9720 0.9720 0.9720 0.9740 0.9740
1835.158283 0.9730 0.9730 0.9740 0.9740 0.9740
1841.805267 0.9740 0.9740 0.9740 0.9730 0.9730
1848.452252 0.9720 0.9700 0.9700 0.9700 0.9720
1855.099237 0.9730 0.9740 0.9740 0.9740 0.9740
1861.746222 0.9740 0.9720 0.9700 0.9700 0.9720
1868.393207 0.9730 0.9760 0.9760 0.9760 0.9740
1875.040192 0.9730 0.9720 0.9700 0.9690 0.9690
1881.687177 0.9700 0.9700 0.9730 0.9730 0.9730
1888.334162 0.9740 0.9740 0.9740 0.9730 0.9730
1894.981147 0.9730 0.9720 0.9720 0.9720 0.9720
1901.628131 0.9700 0.9700 0.9700 0.9690 0.9690
1908.275116 0.9680 0.9680 0.9680 0.9680 0.9680
1914.922101 0.9680 0.9680 0.9690 0.9690 0.9700
1921.569086 0.9700 0.9700 0.9700 0.9700 0.9700
1928.216071 0.9700 0.9720 0.9720 0.9720 0.9720
1934.863056 0.9700 0.9700 0.9700 0.9700 0.9700
1941.510041 0.9700 0.9690 0.9690 0.9690 0.9700
1948.157026 0.9700 0.9690 0.9690 0.9680 0.9680
1954.804011 0.9660 0.9660 0.9660 0.9660 0.9650
1961.450995 0.9650 0.9640 0.9640 0.9640 0.9650
1968.097980 0.9650 0.9650 0.9660 0.9660 0.9680
1974.744965 0.9680 0.9680 0.9660 0.9660 0.9680
1981.391950 0.9680 0.9690 0.9690 0.9690 0.9690
1988.038935 0.9690 0.9690 0.9690 0.9690 0.9690
1994.685920 0.9690 0.9690 0.9680 0.9680 0.9660
2001.332905 0.9660 0.9660 0.9655 0.9650 0.9650
2007.979890 0.9650 0.9645 0.9640 0.9630 0.9620
2014.626875 0.9620 0.9620 0.9620 0.9620 0.9615
2021.273859 0.9610 0.9610 0.9610 0.9610 0.9610
2027.920844 0.9610 0.9610 0.9610 0.9610 0.9615
2034.567829 0.9620 0.9620 0.9620 0.9620 0.9620
2041.214814 0.9620 0.9620 0.9620 0.9620 0.9620
2047.861799 0.9620 0.9620 0.9620 0.9620 0.9620
2054.508784 0.9620 0.9620 0.9620 0.9620 0.9620
2061.155769 0.9620 0.9620 0.9621 0.9631 0.9640
2067.802754 0.9640 0.9639 0.9629 0.9620 0.9620
2074.449739 0.9619 0.9614 0.9610 0.9610 0.9610
2081.096723 0.9610 0.9610 0.9610 0.9613 0.9633
2087.743708 0.9649 0.9644 0.9640 0.9640 0.9640
2094.390693 0.9640 0.9640 0.9640 0.9638 0.9623
2101.037678 0.9610 0.9610 0.9609 0.9604 0.9600
2107.684663 0.9600 0.9601 0.9606 0.9611 0.9616
2114.331648 0.9622 0.9632 0.9638 0.9628 0.9619
2120.978633 0.9614 0.9609 0.9604 0.9600 0.9600
2127.625618 0.9602 0.9612 0.9619 0.9614 0.9609
2134.272603 0.9604 0.9600 0.9600 0.9600 0.9600
2140.919587 0.9600 0.9600 0.9598 0.9588 0.9580
2147.566572 0.9580 0.9580 0.9580 0.9579 0.9574
2154.213557 0.9571 0.9576 0.9580 0.9580 0.9583
2160.860542 0.9593 0.9600 0.9600 0.9600 0.9600
2167.507527 0.9600 0.9600 0.9601 0.9606 0.9609
2174.154512 0.9604 0.9600 0.9600 0.9600 0.9600
2180.801497 0.9600 0.9600 0.9597 0.9587 0.9583
2187.448482 0.9593 0.9600 0.9600 0.9602 0.9607
2194.095466 0.9612 0.9617 0.9620 0.9620 0.9620
2200.742451 0.9620 0.9620 0.9620 0.9618 0.9613
2207.389436 0.9608 0.9603 0.9595 0.9579 0.9570
2214.036421 0.9570 0.9576 0.9591 0.9600 0.9600
2220.683406 0.9602 0.9607 0.9612 0.9617 0.9620
2227.330391 0.9620 0.9620 0.9620 0.9624 0.9634
2233.977376 0.9636 0.9626 0.9618 0.9613 0.9610
2240.624361 0.9610 0.9608 0.9603 0.9600 0.9600
2247.271346 0.9602 0.9607 0.9610 0.9610 0.9610
2253.918330 0.9610 0.9610 0.9610 0.9610 0.9610
2260.565315 0.9608 0.9603 0.9593 0.9578 0.9570
2267.212300 0.9570 0.9577 0.9592 0.9602 0.9607
2273.859285 0.9610 0.9610 0.9610 0.9610 0.9612
2280.506270 0.9617 0.9620 0.9620 0.9620 0.9620
2287.153255 0.9618 0.9613 0.9610 0.9610 0.9610
2293.800240 0.9610 0.9607 0.9602 0.9600 0.9600
2300.447225 0.9595 0.9585 0.9585 0.9595 0.9600
2307.094210 0.9600 0.9600 0.9600 0.9600 0.9600
2313.741194 0.9595 0.9585 0.9580 0.9580 0.9580
2320.388179 0.9580 0.9580 0.9580 0.9577 0.9572
2327.035164 0.9570 0.9570 0.9573 0.9578 0.9580
2333.682149 0.9580 0.9580 0.9580 0.9580 0.9580
2340.329134 0.9577 0.9572 0.9570 0.9570 0.9570
2346.976119 0.9570 0.9570 0.9570 0.9570 0.9570
2353.623104 0.9567 0.9562 0.9560 0.9560 0.9560
2360.270089 0.9560 0.9554 0.9544 0.9540 0.9540
2366.917074 0.9540 0.9540 0.9540 0.9540 0.9537
2373.564058 0.9532 0.9530 0.9530 0.9533 0.9538
2380.211043 0.9540 0.9540 0.9540 0.9540 0.9547
2386.858028 0.9557 0.9563 0.9568 0.9570 0.9570
2393.505013 0.9570 0.9570 0.9573 0.9579 0.9580
2400.151998 0.9580 0.9580 0.9580 0.9580 0.9580
2406.798983 0.9580 0.9580 0.9580 0.9580 0.9580
2413.445968 0.9580 0.9587 0.9597 0.9600 0.9600
2420.092953 0.9600 0.9600 0.9593 0.9582 0.9580
2426.739938 0.9580 0.9580 0.9580 0.9588 0.9598
2433.386922 0.9592 0.9582 0.9580 0.9580 0.9580
2440.033907 0.9580 0.9572 0.9562 0.9552 0.9542
2446.680892 0.9540 0.9540 0.9548 0.9558 0.9564
2453.327877 0.9569 0.9570 0.9570 0.9570 0.9570
2459.974862 0.9574 0.9579 0.9580 0.9580 0.9576
2466.621847 0.9571 0.9566 0.9561 0.9560 0.9560
2473.268832 0.9560 0.9560 0.9552 0.9541 0.9540
2479.915817 0.9540 0.9549 0.9559 0.9560 0.9560
2486.562802 0.9560 0.9560 0.9560 0.9560 0.9560
2493.209786 0.9560 0.9551 0.9541 0.9540 0.9540
2499.856771 0.9540 0.9540 0.9540 0.9540 0.9540
2506.503756 0.9540 0.9540 0.9540 0.9535 0.9530
2513.150741 0.9530 0.9530 0.9530 0.9530 0.9530
2519.797726 0.9530 0.9535 0.9540 0.9540 0.9540
2526.444711 0.9540 0.9540 0.9540 0.9540 0.9535
2533.091696 0.9530 0.9530 0.9530 0.9525 0.9520
2539.738681 0.9520 0.9520 0.9530 0.9540 0.9540
2546.385666 0.9540 0.9540 0.9540 0.9540 0.9540
2553.032650 0.9540 0.9540 0.9540 0.9540 0.9530
2559.679635 0.9520 0.9510 0.9500 0.9500 0.9500
2566.326620 0.9500 0.9500 0.9510 0.9520 0.9525
2572.973605 0.9530 0.9530 0.9530 0.9535 0.9540
2579.620590 0.9540 0.9540 0.9540 0.9540 0.9530
2586.267575 0.9520 0.9520 0.9520 0.9525 0.9530
2592.914560 0.9530 0.9530 0.9535 0.9540 0.9540
2599.561545 0.9540 0.9535 0.9530 0.9530 0.9530
2606.208530 0.9525 0.9519 0.9504 0.9490 0.9490
2612.855514 0.9490 0.9485 0.9479 0.9469 0.9460
2619.502499 0.9460 0.9460 0.9460 0.9461 0.9471
2626.149484 0.9480 0.9480 0.9480 0.9480 0.9481
2632.796469 0.9486 0.9491 0.9496 0.9500 0.9500
2639.443454 0.9501 0.9511 0.9520 0.9520 0.9519
2646.090439 0.9509 0.9500 0.9500 0.9499 0.9494
2652.737424 0.9491 0.9496 0.9500 0.9500 0.9499
2659.384409 0.9494 0.9490 0.9490 0.9489 0.9484
2666.031394 0.9480 0.9480 0.9480 0.9480 0.9481
2672.678378 0.9486 0.9490 0.9490 0.9490 0.9490
2679.325363 0.9491 0.9496 0.9500 0.9500 0.9500
2685.972348 0.9500 0.9500 0.9500 0.9500 0.9500
2692.619333 0.9500 0.9500 0.9500 0.9500 0.9499
2699.266318 0.9494 0.9489 0.9484 0.9480 0.9480
2705.913303 0.9478 0.9468 0.9460 0.9460 0.9460
2712.560288 0.9460 0.9460 0.9460 0.9460 0.9460
2719.207273 0.9460 0.9460 0.9463 0.9473 0.9480
2725.854258 0.9480 0.9480 0.9480 0.9480 0.9480
2732.501242 0.9480 0.9480 0.9477 0.9467 0.9460
2739.148227 0.9460 0.9459 0.9453 0.9450 0.9450
2745.795212 0.9450 0.9450 0.9450 0.9450 0.9450
2752.442197 0.9450 0.9450 0.9450 0.9450 0.9450
2759.089182 0.9450 0.9450 0.9452 0.9457 0.9460
2765.736167 0.9460 0.9463 0.9474 0.9480 0.9480
2772.383152 0.9482 0.9487 0.9490 0.9490 0.9490
2779.030137 0.9490 0.9488 0.9483 0.9474 0.9459
2785.677122 0.9448 0.9443 0.9440 0.9440 0.9440
2792.324106 0.9440 0.9440 0.9440 0.9436 0.9426
2798.971091 0.9420 0.9420 0.9416 0.9406 0.9400
2805.618076 0.9400 0.9402 0.9407 0.9410 0.9410
2812.265061 0.9410 0.9410 0.9412 0.9417 0.9420
2818.912046 0.9420 0.9420 0.9420 0.9418 0.9413
2825.559031 0.9410 0.9410 0.9408 0.9403 0.9400
2832.206016 0.9400 0.9395 0.9385 0.9375 0.9365
2838.853001 0.9353 0.9338 0.9328 0.9323 0.9320
2845.499986 0.9320 0.9313 0.9297 0.9282 0.9267
2852.146970 0.9250 0.9230 0.9215 0.9205 0.9195
2858.793955 0.9185 0.9180 0.9180 0.9180 0.9180
2865.440940 0.9185 0.9195 0.9200 0.9200 0.9203
2872.087925 0.9208 0.9213 0.9218 0.9220 0.9220
2878.734910 0.9220 0.9220 0.9220 0.9220 0.9217
2885.381895 0.9212 0.9210 0.9210 0.9207 0.9202
2892.028880 0.9200 0.9200 0.9200 0.9200 0.9203
2898.675865 0.9208 0.9210 0.9210 0.9207 0.9202
2905.322850 0.9194 0.9184 0.9180 0.9180 0.9168
2911.969834 0.9148 0.9137 0.9132 0.9121 0.9106
2918.616819 0.9094 0.9084 0.9074 0.9064 0.9057
2925.263804 0.9052 0.9047 0.9042 0.9033 0.9023
2931.910789 0.9017 0.9012 0.9010 0.9010 0.9010
2938.557774 0.9010 0.9013 0.9018 0.9030 0.9045
2945.204759 0.9067 0.9092 0.9107 0.9117 0.9120
2951.851744 0.9120 0.9113 0.9103 0.9096 0.9091
2958.498729 0.9090 0.9090 0.9090 0.9090 0.9094
2965.145714 0.9099 0.9100 0.9100 0.9107 0.9117
2971.792698 0.9124 0.9129 0.9134 0.9139 0.9151
2978.439683 0.9166 0.9174 0.9179 0.9188 0.9198
2985.086668 0.9208 0.9218 0.9231 0.9246 0.9250
2991.733653 0.9250 0.9254 0.9259 0.9260 0.9260
2998.380638 0.9268 0.9278 0.9280 0.9280 0.9284
3005.027623 0.9289 0.9290 0.9290 0.9286 0.9281
3011.674608 0.9280 0.9280 0.9272 0.9262 0.9260
3018.321593 0.9260 0.9260 0.9260 0.9268 0.9278
3024.968578 0.9280 0.9280 0.9272 0.9262 0.9260
3031.615562 0.9260 0.9256 0.9251 0.9254 0.9259
3038.262547 0.9268 0.9278 0.9284 0.9289 0.9290
3044.909532 0.9290 0.9290 0.9290 0.9286 0.9281
3051.556517 0.9280 0.9280 0.9280 0.9280 0.9280
3058.203502 0.9280 0.9271 0.9261 0.9269 0.9279
3064.850487 0.9271 0.9261 0.9260 0.9260 0.9260
3071.497472 0.9260 0.9260 0.9260 0.9255 0.9250
3078.144457 0.9255 0.9260 0.9255 0.9250 0.9250
3084.791442 0.9250 0.9250 0.9250 0.9250 0.9250
3091.438426 0.9245 0.9240 0.9240 0.9240 0.9240
3098.085411 0.9240 0.9231 0.9221 0.9229 0.9240
3104.732396 0.9240 0.9240 0.9240 0.9240 0.9230
3111.379381 0.9220 0.9220 0.9220 0.9220 0.9220
3118.026366 0.9215 0.9210 0.9210 0.9210 0.9210
3124.673351 0.9210 0.9205 0.9200 0.9200 0.9200
3131.320336 0.9200 0.9200 0.9190 0.9180 0.9190
3137.967321 0.9200 0.9190 0.9180 0.9180 0.9180
3144.614306 0.9180 0.9180 0.9180 0.9180 0.9180
3151.261290 0.9180 0.9180 0.9180 0.9180 0.9180
3157.908275 0.9180 0.9180 0.9170 0.9160 0.9160
3164.555260 0.9159 0.9149 0.9140 0.9140 0.9140
3171.202245 0.9135 0.9130 0.9125 0.9120 0.9120
3177.849230 0.9119 0.9109 0.9100 0.9100 0.9100
3184.496215 0.9095 0.9090 0.9090 0.9090 0.9090
3191.143200 0.9090 0.9090 0.9090 0.9090 0.9089
3197.790185 0.9084 0.9079 0.9069 0.9059 0.9054
3204.437170 0.9049 0.9044 0.9039 0.9029 0.9020
3211.084154 0.9020 0.9019 0.9009 0.9000 0.9000
3217.731139 0.9000 0.9000 0.9000 0.9000 0.8998
3224.378124 0.8988 0.8980 0.8980 0.8979 0.8974
3231.025109 0.8970 0.8970 0.8969 0.8964 0.8958
3237.672094 0.8948 0.8939 0.8934 0.8930 0.8930
3244.319079 0.8929 0.8924 0.8918 0.8908 0.8899
3250.966064 0.8894 0.8890 0.8890 0.8890 0.8890
3257.613049 0.8890 0.8890 0.8890 0.8890 0.8890
3264.260034 0.8890 0.8890 0.8890 0.8890 0.8890
3270.907018 0.8889 0.8884 0.8877 0.8867 0.8855
3277.554003 0.8835 0.8817 0.8807 0.8797 0.8787
3284.200988 0.8779 0.8774 0.8766 0.8751 0.8739
3290.847973 0.8734 0.8729 0.8724 0.8720 0.8720
3297.494958 0.8717 0.8707 0.8697 0.8687 0.8677
3304.141943 0.8667 0.8654 0.8634 0.8618 0.8613
3310.788928 0.8605 0.8590 0.8577 0.8567 0.8553
3317.435913 0.8533 0.8515 0.8500 0.8488 0.8483
3324.082898 0.8470 0.8439 0.8413 0.8393 0.8380
3330.729882 0.8380 0.8376 0.8366 0.8349 0.8319
3337.376867 0.8298 0.8293 0.8284 0.8269 0.8256
3344.023852 0.8246 0.8232 0.8212 0.8189 0.8159
3350.670837 0.8130 0.8105 0.8076 0.8041 0.8016
3357.317822 0.8006 0.7988 0.7958 0.7932 0.7912
3363.964807 0.7892 0.7872 0.7852 0.7832 0.7812
3370.611792 0.7792 0.7776 0.7766 0.7754 0.7739
3377.258777 0.7721 0.7701 0.7679 0.7654 0.7631
3383.905762 0.7611 0.7591 0.7571 0.7551 0.7531
3390.552746 0.7513 0.7498 0.7488 0.7483 0.7466
3397.199731 0.7436 0.7411 0.7391 0.7368 0.7343
3403.846716 0.7320 0.7300 0.7282 0.7267 0.7255
3410.493701 0.7245 0.7230 0.7210 0.7182 0.7147
3417.140686 0.7117 0.7092 0.7072 0.7057 0.7042
3423.787671 0.7027 0.7017 0.7012 0.7002 0.6987
3430.434656 0.6977 0.6972 0.6962 0.6947 0.6934
3437.081641 0.6924 0.6914 0.6904 0.6897 0.6892
3443.728626 0.6887 0.6882 0.6880 0.6880 0.6874
3450.375610 0.6864 0.6860 0.6860 0.6860 0.6860
3457.022595 0.6857 0.6852 0.6850 0.6850 0.6850
3463.669580 0.6850 0.6850 0.6850 0.6853 0.6858
3470.316565 0.6860 0.6860 0.6866 0.6876 0.6880
3476.963550 0.6880 0.6883 0.6888 0.6893 0.6898
3483.610535 0.6906 0.6916 0.6923 0.6928 0.6933
3490.257520 0.6938 0.6950 0.6965 0.6970 0.6970
3496.904505 0.6980 0.6995 0.7003 0.7008 0.7020
3503.551490 0.7035 0.7047 0.7057 0.7067 0.7077
3510.198474 0.7087 0.7097 0.7107 0.7117 0.7127
3516.845459 0.7137 0.7154 0.7174 0.7194 0.7214
3523.492444 0.7227 0.7237 0.7247 0.7257 0.7271
3530.139429 0.7286 0.7301 0.7316 0.7324 0.7329
3536.786414 0.7341 0.7356 0.7379 0.7404 0.7425
3543.433399 0.7445 0.7465 0.7485 0.7494 0.7499
3550.080384 0.7515 0.7535 0.7566 0.7601 0.7625
3556.727369 0.7645 0.7665 0.7685 0.7709 0.7734
3563.374353 0.7755 0.7776 0.7796 0.7816 0.7848
3570.021338 0.7883 0.7910 0.7935 0.7964 0.7994
3576.668323 0.8004 0.8009 0.8014 0.8019 0.8036
3583.315308 0.8056 0.8072 0.8087 0.8110 0.8135
3589.962293 0.8156 0.8177 0.8197 0.8217 0.8249
3596.609278 0.8284 0.8319 0.8354 0.8381 0.8406
3603.256263 0.8427 0.8447 0.8467 0.8487 0.8503
3609.903248 0.8518 0.8545 0.8576 0.8593 0.8608
3616.550233 0.8632 0.8657 0.8673 0.8688 0.8708
3623.197217 0.8728 0.8748 0.8768 0.8774 0.8779
3629.844202 0.8798 0.8818 0.8833 0.8848 0.8863
3636.491187 0.8878 0.8884 0.8889 0.8908 0.8928
3643.138172 0.8935 0.8940 0.8954 0.8969 0.8975
3649.785157 0.8980 0.8980 0.8980 0.8989 0.8999
3656.432142 0.9005 0.9010 0.9010 0.9010 0.9015
3663.079127 0.9020 0.9029 0.9039 0.9049 0.9059
3669.726112 0.9060 0.9060 0.9070 0.9080 0.9085
3676.373097 0.9090 0.9095 0.9100 0.9100 0.9100
3683.020081 0.9110 0.9120 0.9120 0.9120 0.9120
3689.667066 0.9120 0.9120 0.9120 0.9120 0.9120
3696.314051 0.9120 0.9120 0.9120 0.9120 0.9120
3702.961036 0.9120 0.9120 0.9120 0.9125 0.9130
3709.608021 0.9130 0.9130 0.9125 0.9120 0.9120
3716.255006 0.9120 0.9120 0.9120 0.9120 0.9120
3722.901991 0.9120 0.9120 0.9125 0.9130 0.9135
3729.548976 0.9140 0.9140 0.9140 0.9135 0.9130
3736.195961 0.9130 0.9130 0.9130 0.9130 0.9130
3742.842945 0.9130 0.9130 0.9130 0.9130 0.9130
3749.489930 0.9130 0.9130 0.9130 0.9131 0.9136
3756.136915 0.9140 0.9140 0.9140 0.9140 0.9140
3762.783900 0.9140 0.9141 0.9151 0.9160 0.9160
3769.430885 0.9160 0.9160 0.9159 0.9149 0.9140
3776.077870 0.9140 0.9140 0.9140 0.9139 0.9134
3782.724855 0.9130 0.9130 0.9130 0.9130 0.9129
3789.371840 0.9124 0.9120 0.9120 0.9122 0.9132
3796.018825 0.9140 0.9140 0.9139 0.9134 0.9130
3802.665809 0.9130 0.9130 0.9130 0.9129 0.9124
3809.312794 0.9120 0.9120 0.9120 0.9120 0.9120
3815.959779 0.9120 0.9120 0.9120 0.9120 0.9120
3822.606764 0.9120 0.9120 0.9118 0.9108 0.9100
3829.253749 0.9100 0.9100 0.9100 0.9100 0.9100
3835.900734 0.9100 0.9100 0.9100 0.9100 0.9100
3842.547719 0.9100 0.9100 0.9100 0.9100 0.9100
3849.194704 0.9100 0.9100 0.9103 0.9113 0.9121
3855.841689 0.9126 0.9130 0.9130 0.9130 0.9130
3862.488673 0.9130 0.9130 0.9128 0.9123 0.9117
3869.135658 0.9107 0.9098 0.9093 0.9090 0.9090
3875.782643 0.9092 0.9097 0.9100 0.9100 0.9100
3882.429628 0.9100 0.9100 0.9100 0.9100 0.9100
3889.076613 0.9104 0.9114 0.9122 0.9127 0.9130
3895.723598 0.9130 0.9128 0.9123 0.9120 0.9120
3902.370583 0.9116 0.9106 0.9098 0.9093 0.9088
3909.017568 0.9083 0.9080 0.9080 0.9080 0.9080
3915.664553 0.9080 0.9080 0.9082 0.9087 0.9090
3922.311537 0.9090 0.9090 0.9090 0.9090 0.9090
3928.958522 0.9090 0.9090 0.9090 0.9090 0.9088
3935.605507 0.9083 0.9080 0.9080 0.9080 0.9080
3942.252492 0.9075 0.9065 0.9060 0.9060 0.9065
3948.899477 0.9075 0.9082 0.9087 0.9097 0.9112
3955.546462 0.9120 0.9120 0.9113 0.9098 0.9092
3962.193447 0.9097 0.9100 0.9100 0.9105 0.9115
3968.840432 0.9120 0.9120 0.9115 0.9105 0.9100
3975.487417 0.9100 0.9100 0.9100 0.9097 0.9092
3982.134401 0.9090 0.9090 0.9090 0.9090
##END=
