##TITLE=Oxadiazole, 1,2,4-, 5Beta-diethylaminoethyl-3-phenyl-, phosphate
##JCAMP-DX=4.24
##DATA TYPE=INFRARED SPECTRUM
##CLASS=COBLENTZ III
##ORIGIN=SMITH KLINE & FRENCH LABS.
##OWNER=Copyright (C) 1987 by the Coblentz Society
Collection (C) 2018 copyright by the U.S. Secretary of Commerce
on behalf of the United States of America. All rights reserved.
##DATE=1961/09/20
##NAMES=phosphoric acid compound with N,N-diethyl-2-(3-phenyl-1,2,4-oxadiazol-5-yl)ethanamine (1:1)
##MOLFORM=C14 H22 N3 O5 P
##SOURCE REFERENCE=COBLENTZ NO. 7996
##$NIST ID=B6007996
##$NIST SOURCE=COBLENTZ
##$NIST IMAGE=cob7996
##SPECTROMETER/DATA SYSTEM=PERKIN-ELMER 21 (GRATING)
##INSTRUMENT PARAMETERS=NaCl PRISM
##STATE=SOLID (OIL MULL)
$$SPECTRAL CONTAMINATION DUE TO OIL AROUND 2900, 1460 CM^-^1
##SAMPLING PROCEDURE=TRANSMISSION
##RESOLUTION=2
##DATA PROCESSING=DIGITIZED BY COBLENTZ SOCIETY (BATCH II) FROM HARD COPY
##XUNITS=1/CM
##YUNITS=TRANSMITTANCE
##XFACTOR=1.0
##YFACTOR=1
##FIRSTX=666
##LASTX=4000
##FIRSTY=0.8693
##MAXX=4000
##MINX=666
##MAXY=0.9608
##MINY=0.0282
##NPOINTS=3335
##XYDATA=(X++(Y..Y))
666.000000 0.8693 0.8742 0.9022 0.9269 0.9273
671.000000 0.9230 0.9144 0.9048 0.8982 0.8793
676.000000 0.8689 0.8679 0.8531 0.8287 0.8242
681.000000 0.8243 0.8553 0.8978 0.9041 0.9051
686.000000 0.8917 0.8679 0.8409 0.8046 0.7478
691.000000 0.6859 0.6525 0.6351 0.6315 0.6279
696.000000 0.6254 0.6449 0.7297 0.8117 0.8522
701.000000 0.8982 0.9324 0.9415 0.9315 0.9223
706.000000 0.9119 0.8915 0.8705 0.8399 0.8092
711.000000 0.7692 0.7215 0.6634 0.6175 0.5388
716.000000 0.4254 0.3421 0.3130 0.3031 0.2978
721.000000 0.2965 0.3384 0.4466 0.5546 0.6622
726.000000 0.7432 0.7822 0.8067 0.8726 0.9018
731.000000 0.9084 0.9331 0.9446 0.9474 0.9486
736.000000 0.9500 0.9520 0.9573 0.9608 0.9608
741.000000 0.9605 0.9593 0.9525 0.9428 0.9355
746.000000 0.9316 0.9298 0.9313 0.9413 0.9464
751.000000 0.9439 0.9388 0.9322 0.9260 0.9231
756.000000 0.9236 0.9243 0.9256 0.9264 0.9253
761.000000 0.9225 0.9184 0.9136 0.9065 0.8915
766.000000 0.8792 0.8609 0.8399 0.8181 0.7963
771.000000 0.7617 0.7089 0.6666 0.6143 0.5719
776.000000 0.5714 0.5963 0.6073 0.5966 0.5916
781.000000 0.5934 0.6089 0.6314 0.6432 0.6491
786.000000 0.6371 0.6133 0.5996 0.5972 0.6594
791.000000 0.7579 0.7831 0.8110 0.8296 0.8379
796.000000 0.8438 0.8478 0.8546 0.8717 0.8752
801.000000 0.8708 0.8641 0.8573 0.8503 0.8450
806.000000 0.8401 0.8253 0.8100 0.7950 0.7797
811.000000 0.7644 0.7472 0.7329 0.7283 0.7299
816.000000 0.7445 0.7455 0.7405 0.7352 0.7248
821.000000 0.6938 0.6879 0.6893 0.7015 0.7172
826.000000 0.7328 0.7406 0.7342 0.7241 0.7144
831.000000 0.6985 0.6787 0.6583 0.6261 0.5769
836.000000 0.5655 0.5615 0.5601 0.5992 0.6269
841.000000 0.6522 0.6616 0.6625 0.6626 0.6640
846.000000 0.6578 0.6529 0.6520 0.6534 0.6509
851.000000 0.6413 0.6322 0.6254 0.6184 0.6117
856.000000 0.6050 0.5976 0.5877 0.5769 0.5672
861.000000 0.5575 0.5476 0.5376 0.5254 0.5139
866.000000 0.5054 0.4951 0.4830 0.4689 0.4624
871.000000 0.4599 0.4610 0.4637 0.4746 0.4968
876.000000 0.5264 0.5522 0.5738 0.5857 0.5899
881.000000 0.5922 0.5930 0.5937 0.5937 0.5916
886.000000 0.5814 0.5643 0.5508 0.5426 0.5388
891.000000 0.5347 0.5235 0.5139 0.5052 0.4950
896.000000 0.4836 0.4810 0.4742 0.4543 0.4293
901.000000 0.4159 0.4075 0.3718 0.3178 0.2865
906.000000 0.2753 0.2821 0.2919 0.3014 0.3111
911.000000 0.3212 0.3498 0.3951 0.4292 0.4330
916.000000 0.4333 0.4298 0.4257 0.4201 0.4107
921.000000 0.3981 0.3831 0.3636 0.3503 0.3344
926.000000 0.3253 0.3214 0.3203 0.3181 0.2991
931.000000 0.2852 0.2819 0.2794 0.2720 0.2689
936.000000 0.2687 0.2687 0.2678 0.2611 0.2480
941.000000 0.2459 0.2445 0.2336 0.2178 0.2032
946.000000 0.1946 0.1899 0.1885 0.1871 0.1871
951.000000 0.1863 0.1876 0.1881 0.1896 0.1913
956.000000 0.1929 0.1953 0.1985 0.2023 0.2066
961.000000 0.2106 0.2143 0.2177 0.2212 0.2246
966.000000 0.2285 0.2324 0.2366 0.2430 0.2549
971.000000 0.2631 0.2704 0.2749 0.2803 0.2879
976.000000 0.2960 0.3118 0.3233 0.3341 0.3450
981.000000 0.3508 0.3562 0.3614 0.3649 0.3684
986.000000 0.3718 0.3754 0.3805 0.3857 0.3936
991.000000 0.4024 0.4119 0.4175 0.4191 0.4199
996.000000 0.4205 0.4210 0.4215 0.4220 0.4224
1001.000000 0.4225 0.4226 0.4250 0.4225 0.4222
1006.000000 0.4219 0.4202 0.4173 0.4127 0.4068
1011.000000 0.4001 0.3908 0.3767 0.3578 0.3390
1016.000000 0.3201 0.3034 0.2948 0.2863 0.2826
1021.000000 0.2795 0.2790 0.2789 0.2790 0.2791
1026.000000 0.2793 0.2791 0.2809 0.2782 0.2773
1031.000000 0.2764 0.2747 0.2730 0.2704 0.2641
1036.000000 0.2575 0.2506 0.2421 0.2322 0.2221
1041.000000 0.2120 0.2012 0.1922 0.1856 0.1804
1046.000000 0.1764 0.1725 0.1711 0.1708 0.1700
1051.000000 0.1720 0.1740 0.1774 0.1833 0.1927
1056.000000 0.2017 0.2105 0.2165 0.2208 0.2233
1061.000000 0.2259 0.2282 0.2305 0.2331 0.2374
1066.000000 0.2423 0.2477 0.2530 0.2557 0.2564
1071.000000 0.2571 0.2577 0.2590 0.2605 0.2647
1076.000000 0.2703 0.2768 0.2833 0.2899 0.2963
1081.000000 0.3028 0.3093 0.3157 0.3222 0.3293
1086.000000 0.3354 0.3390 0.3428 0.3467 0.3507
1091.000000 0.3526 0.3537 0.3526 0.3520 0.3501
1096.000000 0.3477 0.3447 0.3416 0.3381 0.3343
1101.000000 0.3304 0.3262 0.3214 0.3166 0.3118
1106.000000 0.3070 0.3021 0.2973 0.2924 0.2916
1111.000000 0.2915 0.2917 0.2920 0.2936 0.2962
1116.000000 0.2983 0.2996 0.3008 0.3011 0.3014
1121.000000 0.3016 0.3012 0.3008 0.3018 0.3001
1126.000000 0.2999 0.2997 0.2995 0.2993 0.2991
1131.000000 0.2992 0.2995 0.2998 0.3001 0.3004
1136.000000 0.3008 0.3011 0.3018 0.3027 0.3069
1141.000000 0.3118 0.3183 0.3254 0.3326 0.3390
1146.000000 0.3452 0.3523 0.3609 0.3707 0.3841
1151.000000 0.3978 0.4095 0.4163 0.4228 0.4299
1156.000000 0.4376 0.4451 0.4525 0.4601 0.4696
1161.000000 0.4792 0.4908 0.5012 0.5083 0.5135
1166.000000 0.5187 0.5239 0.5290 0.5342 0.5405
1171.000000 0.5471 0.5523 0.5563 0.5606 0.5655
1176.000000 0.5882 0.6101 0.6325 0.6534 0.6781
1181.000000 0.6993 0.7094 0.7231 0.7472 0.7620
1186.000000 0.7637 0.7644 0.7658 0.7654 0.7652
1191.000000 0.7645 0.7622 0.7592 0.7544 0.7477
1196.000000 0.7386 0.7291 0.7185 0.7031 0.6901
1201.000000 0.6720 0.6533 0.6346 0.6161 0.5986
1206.000000 0.5936 0.5918 0.5980 0.6042 0.6113
1211.000000 0.6247 0.6440 0.6465 0.6429 0.6482
1216.000000 0.6274 0.6228 0.6214 0.6196 0.6083
1221.000000 0.5961 0.5840 0.5718 0.5624 0.5602
1226.000000 0.5532 0.5429 0.5328 0.5226 0.5125
1231.000000 0.5024 0.4923 0.4829 0.4763 0.4675
1236.000000 0.4596 0.4560 0.4549 0.4578 0.4648
1241.000000 0.4695 0.4714 0.4731 0.4773 0.4869
1246.000000 0.4913 0.4931 0.4938 0.4943 0.4950
1251.000000 0.4971 0.5029 0.5099 0.5172 0.5197
1256.000000 0.5208 0.5218 0.5222 0.5225 0.5229
1261.000000 0.5232 0.5239 0.5247 0.5255 0.5266
1266.000000 0.5283 0.5310 0.5343 0.5383 0.5425
1271.000000 0.5469 0.5511 0.5554 0.5589 0.5600
1276.000000 0.5599 0.5635 0.5561 0.5494 0.5440
1281.000000 0.5393 0.5345 0.5287 0.5250 0.5236
1286.000000 0.5243 0.5244 0.5306 0.5425 0.5545
1291.000000 0.5663 0.5782 0.5900 0.6018 0.6136
1296.000000 0.6236 0.6247 0.6255 0.6247 0.6236
1301.000000 0.6223 0.6210 0.6196 0.6193 0.6197
1306.000000 0.6206 0.6330 0.6562 0.6795 0.7027
1311.000000 0.7259 0.7468 0.7618 0.7743 0.7814
1316.000000 0.7842 0.7854 0.7859 0.7852 0.7853
1321.000000 0.7829 0.7805 0.7754 0.7706 0.7656
1326.000000 0.7596 0.7478 0.7316 0.7155 0.6994
1331.000000 0.6834 0.6673 0.6560 0.6548 0.6548
1336.000000 0.6530 0.6559 0.6647 0.6815 0.6983
1341.000000 0.7151 0.7286 0.7326 0.7338 0.7336
1346.000000 0.7340 0.7288 0.7196 0.7120 0.7031
1351.000000 0.6792 0.6356 0.5920 0.5486 0.5190
1356.000000 0.5114 0.5039 0.4951 0.4644 0.3880
1361.000000 0.3150 0.2868 0.2813 0.2767 0.2734
1366.000000 0.2720 0.2750 0.2987 0.3195 0.3402
1371.000000 0.3586 0.3647 0.3525 0.3377 0.3230
1376.000000 0.3082 0.2966 0.2943 0.3418 0.3736
1381.000000 0.4055 0.4373 0.4691 0.5008 0.5324
1386.000000 0.5641 0.5957 0.6272 0.6587 0.6901
1391.000000 0.7215 0.7464 0.7464 0.7464 0.7327
1396.000000 0.7184 0.7040 0.6896 0.6752 0.6609
1401.000000 0.6466 0.6323 0.6180 0.6038 0.5959
1406.000000 0.5961 0.5924 0.6178 0.6332 0.6485
1411.000000 0.6639 0.6761 0.6787 0.6783 0.6807
1416.000000 0.6682 0.6622 0.6589 0.6602 0.6648
1421.000000 0.6685 0.6688 0.6684 0.6674 0.6638
1426.000000 0.6574 0.6355 0.5926 0.5497 0.5125
1431.000000 0.4961 0.4861 0.4765 0.4679 0.4555
1436.000000 0.4430 0.4342 0.4259 0.4190 0.4124
1441.000000 0.3939 0.3494 0.3165 0.3085 0.3063
1446.000000 0.2916 0.2473 0.2032 0.1696 0.1550
1451.000000 0.1467 0.1414 0.1395 0.1377 0.1362
1456.000000 0.1348 0.1337 0.1333 0.1330 0.1330
1461.000000 0.1333 0.1336 0.1343 0.1356 0.1403
1466.000000 0.1507 0.1628 0.1749 0.1870 0.1991
1471.000000 0.2111 0.2232 0.2390 0.2500 0.2566
1476.000000 0.2626 0.2661 0.2695 0.2734 0.2776
1481.000000 0.2862 0.3023 0.3194 0.3610 0.4047
1486.000000 0.4484 0.4888 0.4969 0.4966 0.4965
1491.000000 0.4946 0.4892 0.4838 0.4783 0.4729
1496.000000 0.4675 0.4621 0.4570 0.4562 0.4571
1501.000000 0.4600 0.4699 0.4828 0.4946 0.5062
1506.000000 0.5178 0.5294 0.5405 0.5483 0.5546
1511.000000 0.5642 0.5769 0.5893 0.5996 0.6082
1516.000000 0.6167 0.6252 0.6337 0.6428 0.6523
1521.000000 0.6640 0.6765 0.6814 0.6821 0.6822
1526.000000 0.6823 0.6817 0.6804 0.6779 0.6724
1531.000000 0.6659 0.6612 0.6600 0.6589 0.6593
1536.000000 0.6721 0.7015 0.7304 0.7434 0.7432
1541.000000 0.7430 0.7429 0.7429 0.7433 0.7443
1546.000000 0.7456 0.7471 0.7488 0.7502 0.7514
1551.000000 0.7518 0.7523 0.7473 0.7376 0.7251
1556.000000 0.7126 0.7000 0.6876 0.6751 0.6627
1561.000000 0.6503 0.6378 0.6254 0.6162 0.6122
1566.000000 0.6101 0.6053 0.5897 0.5681 0.5465
1571.000000 0.5250 0.5035 0.4836 0.4762 0.4745
1576.000000 0.4737 0.4738 0.4764 0.4761 0.4789
1581.000000 0.4855 0.4994 0.5103 0.5167 0.5254
1586.000000 0.5399 0.5626 0.5879 0.6132 0.6254
1591.000000 0.6273 0.6226 0.5926 0.5500 0.5073
1596.000000 0.4648 0.4223 0.3798 0.3395 0.3210
1601.000000 0.3203 0.3356 0.3670 0.4000 0.4330
1606.000000 0.4660 0.4990 0.5319 0.5647 0.5974
1611.000000 0.6302 0.6629 0.6982 0.7543 0.7570
1616.000000 0.7571 0.7570 0.7570 0.7570 0.7570
1621.000000 0.7570 0.7570 0.7570 0.7571 0.7571
1626.000000 0.7571 0.7571 0.7572 0.7572 0.7573
1631.000000 0.7574 0.7574 0.7575 0.7575 0.7575
1636.000000 0.7553 0.7505 0.7447 0.7407 0.7394
1641.000000 0.7393 0.7392 0.7390 0.7388 0.7383
1646.000000 0.7366 0.7314 0.7108 0.7108 0.7108
1651.000000 0.7108 0.7115 0.7133 0.7154 0.7177
1656.000000 0.7203 0.7229 0.7255 0.7279 0.7296
1661.000000 0.7299 0.7301 0.7303 0.7300 0.7292
1666.000000 0.7281 0.7271 0.7260 0.7248 0.7238
1671.000000 0.7226 0.7214 0.7203 0.7192 0.7180
1676.000000 0.7169 0.7158 0.7147 0.7135 0.7125
1681.000000 0.7113 0.7106 0.7102 0.7099 0.7095
1686.000000 0.7092 0.7088 0.7084 0.7088 0.7093
1691.000000 0.7100 0.7109 0.7121 0.7132 0.7143
1696.000000 0.7143 0.7128 0.7101 0.7075 0.7054
1701.000000 0.7039 0.7025 0.7009 0.7020 0.7025
1706.000000 0.7035 0.7049 0.7062 0.7076 0.7087
1711.000000 0.7094 0.7098 0.7096 0.7091 0.7085
1716.000000 0.7079 0.7071 0.7071 0.7078 0.7087
1721.000000 0.7097 0.7109 0.7128 0.7148 0.7165
1726.000000 0.7179 0.7192 0.7205 0.7220 0.7244
1731.000000 0.7267 0.7283 0.7291 0.7297 0.7303
1736.000000 0.7307 0.7310 0.7312 0.7315 0.7317
1741.000000 0.7319 0.7320 0.7321 0.7322 0.7323
1746.000000 0.7323 0.7323 0.7323 0.7324 0.7324
1751.000000 0.7324 0.7324 0.7324 0.7324 0.7324
1756.000000 0.7324 0.7325 0.7325 0.7325 0.7325
1761.000000 0.7326 0.7328 0.7329 0.7331 0.7333
1766.000000 0.7335 0.7337 0.7338 0.7340 0.7341
1771.000000 0.7342 0.7344 0.7345 0.7347 0.7349
1776.000000 0.7350 0.7352 0.7353 0.7358 0.7363
1781.000000 0.7367 0.7370 0.7373 0.7375 0.7380
1786.000000 0.7386 0.7394 0.7401 0.7409 0.7417
1791.000000 0.7426 0.7434 0.7441 0.7449 0.7458
1796.000000 0.7468 0.7479 0.7491 0.7503 0.7514
1801.000000 0.7526 0.7538 0.7550 0.7564 0.7580
1806.000000 0.7596 0.7612 0.7628 0.7644 0.7657
1811.000000 0.7667 0.7675 0.7682 0.7690 0.7698
1816.000000 0.7705 0.7711 0.7713 0.7715 0.7717
1821.000000 0.7719 0.7721 0.7723 0.7726 0.7729
1826.000000 0.7732 0.7735 0.7738 0.7741 0.7745
1831.000000 0.7748 0.7751 0.7754 0.7760 0.7771
1836.000000 0.7781 0.7794 0.7823 0.7843 0.7858
1841.000000 0.7871 0.7879 0.7882 0.7882 0.7882
1846.000000 0.7883 0.7883 0.7883 0.7883 0.7883
1851.000000 0.7883 0.7883 0.7883 0.7883 0.7882
1856.000000 0.7882 0.7882 0.7881 0.7880 0.7880
1861.000000 0.7880 0.7879 0.7879 0.7879 0.7878
1866.000000 0.7877 0.7877 0.7875 0.7874 0.7872
1871.000000 0.7872 0.7870 0.7869 0.7868 0.7882
1876.000000 0.7866 0.7864 0.7863 0.7862 0.7861
1881.000000 0.7860 0.7858 0.7857 0.7855 0.7853
1886.000000 0.7851 0.7849 0.7847 0.7845 0.7843
1891.000000 0.7841 0.7839 0.7836 0.7834 0.7832
1896.000000 0.7830 0.7828 0.7824 0.7815 0.7803
1901.000000 0.7787 0.7770 0.7754 0.7739 0.7725
1906.000000 0.7710 0.7697 0.7687 0.7679 0.7671
1911.000000 0.7664 0.7657 0.7651 0.7646 0.7640
1916.000000 0.7634 0.7630 0.7627 0.7624 0.7622
1921.000000 0.7621 0.7621 0.7621 0.7620 0.7619
1926.000000 0.7619 0.7618 0.7617 0.7617 0.7616
1931.000000 0.7615 0.7613 0.7611 0.7605 0.7595
1936.000000 0.7586 0.7577 0.7568 0.7559 0.7550
1941.000000 0.7541 0.7532 0.7523 0.7513 0.7502
1946.000000 0.7491 0.7480 0.7469 0.7459 0.7448
1951.000000 0.7438 0.7427 0.7417 0.7406 0.7394
1956.000000 0.7383 0.7371 0.7360 0.7349 0.7338
1961.000000 0.7326 0.7314 0.7302 0.7290 0.7278
1966.000000 0.7265 0.7253 0.7241 0.7228 0.7216
1971.000000 0.7203 0.7191 0.7179 0.7167 0.7156
1976.000000 0.7145 0.7135 0.7124 0.7114 0.7104
1981.000000 0.7093 0.7082 0.7072 0.7062 0.7052
1986.000000 0.7042 0.7034 0.7026 0.7018 0.7011
1991.000000 0.7003 0.6996 0.6988 0.6981 0.6973
1996.000000 0.6966 0.6958 0.6951 0.6943 0.6936
2001.000000 0.6928 0.6921 0.6913 0.6906 0.6898
2006.000000 0.6891 0.6883 0.6876 0.6869 0.6862
2011.000000 0.6854 0.6847 0.6840 0.6832 0.6824
2016.000000 0.6815 0.6806 0.6797 0.6789 0.6780
2021.000000 0.6771 0.6762 0.6752 0.6739 0.6726
2026.000000 0.6713 0.6700 0.6687 0.6674 0.6661
2031.000000 0.6647 0.6626 0.6606 0.6585 0.6564
2036.000000 0.6543 0.6523 0.6502 0.6482 0.6461
2041.000000 0.6441 0.6420 0.6401 0.6381 0.6368
2046.000000 0.6355 0.6343 0.6330 0.6318 0.6305
2051.000000 0.6293 0.6280 0.6268 0.6255 0.6244
2056.000000 0.6234 0.6223 0.6212 0.6202 0.6191
2061.000000 0.6181 0.6170 0.6159 0.6149 0.6138
2066.000000 0.6128 0.6117 0.6107 0.6096 0.6085
2071.000000 0.6073 0.6059 0.6045 0.6032 0.6018
2076.000000 0.6005 0.5991 0.5977 0.5964 0.5951
2081.000000 0.5937 0.5924 0.5910 0.5899 0.5888
2086.000000 0.5878 0.5868 0.5857 0.5847 0.5837
2091.000000 0.5826 0.5816 0.5806 0.5795 0.5785
2096.000000 0.5775 0.5764 0.5754 0.5743 0.5733
2101.000000 0.5723 0.5712 0.5701 0.5691 0.5680
2106.000000 0.5670 0.5659 0.5649 0.5639 0.5628
2111.000000 0.5618 0.5608 0.5598 0.5589 0.5579
2116.000000 0.5570 0.5561 0.5552 0.5543 0.5534
2121.000000 0.5525 0.5516 0.5507 0.5498 0.5489
2126.000000 0.5480 0.5471 0.5461 0.5453 0.5444
2131.000000 0.5435 0.5426 0.5417 0.5408 0.5399
2136.000000 0.5390 0.5381 0.5373 0.5364 0.5354
2141.000000 0.5345 0.5337 0.5328 0.5319 0.5310
2146.000000 0.5301 0.5292 0.5283 0.5275 0.5266
2151.000000 0.5255 0.5246 0.5238 0.5230 0.5221
2156.000000 0.5213 0.5205 0.5197 0.5189 0.5181
2161.000000 0.5172 0.5164 0.5156 0.5148 0.5139
2166.000000 0.5130 0.5121 0.5111 0.5101 0.5092
2171.000000 0.5083 0.5074 0.5064 0.5055 0.5045
2176.000000 0.5036 0.5031 0.5025 0.5020 0.5014
2181.000000 0.5009 0.5005 0.5003 0.5001 0.4999
2186.000000 0.4997 0.4996 0.4991 0.4986 0.4972
2191.000000 0.4956 0.4940 0.4924 0.4909 0.4895
2196.000000 0.4887 0.4879 0.4871 0.4864 0.4856
2201.000000 0.4847 0.4836 0.4824 0.4812 0.4799
2206.000000 0.4787 0.4776 0.4766 0.4757 0.4747
2211.000000 0.4738 0.4728 0.4719 0.4710 0.4697
2216.000000 0.4682 0.4664 0.4644 0.4629 0.4615
2221.000000 0.4605 0.4597 0.4589 0.4581 0.4573
2226.000000 0.4565 0.4557 0.4549 0.4541 0.4533
2231.000000 0.4524 0.4516 0.4508 0.4501 0.4493
2236.000000 0.4486 0.4478 0.4471 0.4464 0.4457
2241.000000 0.4449 0.4442 0.4434 0.4427 0.4419
2246.000000 0.4412 0.4404 0.4397 0.4390 0.4383
2251.000000 0.4377 0.4370 0.4364 0.4357 0.4351
2256.000000 0.4345 0.4338 0.4333 0.4326 0.4320
2261.000000 0.4313 0.4305 0.4297 0.4289 0.4281
2266.000000 0.4273 0.4265 0.4257 0.4249 0.4242
2271.000000 0.4234 0.4226 0.4218 0.4210 0.4202
2276.000000 0.4194 0.4186 0.4179 0.4171 0.4162
2281.000000 0.4153 0.4144 0.4135 0.4126 0.4117
2286.000000 0.4109 0.4100 0.4091 0.4082 0.4072
2291.000000 0.4062 0.4052 0.4042 0.4032 0.4022
2296.000000 0.4012 0.4002 0.3991 0.3982 0.3972
2301.000000 0.3961 0.3951 0.3940 0.3929 0.3917
2306.000000 0.3904 0.3891 0.3879 0.3866 0.3853
2311.000000 0.3838 0.3821 0.3804 0.3787 0.3769
2316.000000 0.3752 0.3734 0.3717 0.3700 0.3684
2321.000000 0.3667 0.3653 0.3641 0.3632 0.3627
2326.000000 0.3623 0.3620 0.3619 0.3619 0.3619
2331.000000 0.3619 0.3619 0.3619 0.3619 0.3619
2336.000000 0.3619 0.3619 0.3619 0.3619 0.3619
2341.000000 0.3627 0.3620 0.3620 0.3620 0.3621
2346.000000 0.3623 0.3624 0.3625 0.3626 0.3627
2351.000000 0.3628 0.3630 0.3631 0.3632 0.3634
2356.000000 0.3635 0.3637 0.3639 0.3641 0.3644
2361.000000 0.3647 0.3651 0.3654 0.3659 0.3665
2366.000000 0.3670 0.3676 0.3682 0.3687 0.3693
2371.000000 0.3699 0.3705 0.3712 0.3718 0.3725
2376.000000 0.3731 0.3738 0.3745 0.3753 0.3761
2381.000000 0.3769 0.3777 0.3785 0.3792 0.3800
2386.000000 0.3807 0.3815 0.3823 0.3831 0.3839
2391.000000 0.3847 0.3854 0.3862 0.3870 0.3877
2396.000000 0.3885 0.3892 0.3899 0.3906 0.3913
2401.000000 0.3921 0.3928 0.3935 0.3942 0.3948
2406.000000 0.3955 0.3962 0.3969 0.3975 0.3981
2411.000000 0.3987 0.3992 0.3998 0.4004 0.4010
2416.000000 0.4016 0.4021 0.4027 0.4033 0.4040
2421.000000 0.4049 0.4059 0.4069 0.4078 0.4088
2426.000000 0.4098 0.4108 0.4117 0.4127 0.4137
2431.000000 0.4147 0.4157 0.4168 0.4178 0.4189
2436.000000 0.4200 0.4211 0.4222 0.4233 0.4244
2441.000000 0.4255 0.4266 0.4277 0.4288 0.4299
2446.000000 0.4310 0.4320 0.4331 0.4342 0.4353
2451.000000 0.4365 0.4376 0.4387 0.4399 0.4412
2456.000000 0.4425 0.4439 0.4454 0.4470 0.4485
2461.000000 0.4500 0.4515 0.4531 0.4548 0.4566
2466.000000 0.4585 0.4606 0.4626 0.4647 0.4668
2471.000000 0.4689 0.4709 0.4730 0.4750 0.4770
2476.000000 0.4791 0.4811 0.4832 0.4852 0.4873
2481.000000 0.4891 0.4907 0.4923 0.4938 0.4953
2486.000000 0.4968 0.4984 0.4999 0.5014 0.5029
2491.000000 0.5044 0.5059 0.5073 0.5087 0.5100
2496.000000 0.5114 0.5128 0.5141 0.5155 0.5170
2501.000000 0.5183 0.5197 0.5211 0.5226 0.5240
2506.000000 0.5259 0.5278 0.5296 0.5314 0.5333
2511.000000 0.5353 0.5373 0.5393 0.5414 0.5435
2516.000000 0.5451 0.5467 0.5483 0.5500 0.5517
2521.000000 0.5529 0.5540 0.5550 0.5554 0.5558
2526.000000 0.5561 0.5563 0.5565 0.5566 0.5568
2531.000000 0.5570 0.5572 0.5574 0.5576 0.5578
2536.000000 0.5578 0.5577 0.5577 0.5576 0.5576
2541.000000 0.5594 0.5574 0.5574 0.5573 0.5571
2546.000000 0.5570 0.5568 0.5566 0.5564 0.5562
2551.000000 0.5560 0.5558 0.5556 0.5555 0.5555
2556.000000 0.5555 0.5556 0.5556 0.5557 0.5557
2561.000000 0.5557 0.5558 0.5558 0.5558 0.5557
2566.000000 0.5556 0.5555 0.5555 0.5554 0.5552
2571.000000 0.5550 0.5548 0.5542 0.5536 0.5528
2576.000000 0.5518 0.5509 0.5492 0.5473 0.5454
2581.000000 0.5433 0.5413 0.5392 0.5373 0.5353
2586.000000 0.5329 0.5304 0.5279 0.5247 0.5215
2591.000000 0.5189 0.5174 0.5159 0.5143 0.5127
2596.000000 0.5110 0.5094 0.5077 0.5063 0.5059
2601.000000 0.5054 0.5050 0.5046 0.5043 0.5039
2606.000000 0.5036 0.5032 0.5029 0.5025 0.5023
2611.000000 0.5020 0.5018 0.5016 0.5013 0.5011
2616.000000 0.5009 0.5007 0.5005 0.5003 0.5001
2621.000000 0.4999 0.4997 0.4995 0.4993 0.4992
2626.000000 0.4991 0.4989 0.4988 0.4986 0.4985
2631.000000 0.4984 0.4983 0.4981 0.4980 0.4979
2636.000000 0.4977 0.4976 0.4974 0.4973 0.4971
2641.000000 0.4970 0.4969 0.4967 0.4966 0.4964
2646.000000 0.4963 0.4961 0.4960 0.4958 0.4955
2651.000000 0.4953 0.4949 0.4944 0.4940 0.4937
2656.000000 0.4935 0.4932 0.4929 0.4927 0.4924
2661.000000 0.4921 0.4919 0.4916 0.4914 0.4911
2666.000000 0.4911 0.4912 0.4913 0.4914 0.4916
2671.000000 0.4917 0.4917 0.4918 0.4919 0.4920
2676.000000 0.4921 0.4923 0.4927 0.4931 0.4936
2681.000000 0.4941 0.4946 0.4952 0.4959 0.4966
2686.000000 0.4971 0.4976 0.4982 0.4985 0.4988
2691.000000 0.4990 0.4992 0.4994 0.4995 0.4995
2696.000000 0.4995 0.4994 0.4993 0.4992 0.4990
2701.000000 0.4988 0.4986 0.4984 0.4982 0.4980
2706.000000 0.4978 0.4976 0.4974 0.4973 0.4972
2711.000000 0.4970 0.4970 0.4971 0.4971 0.4973
2716.000000 0.4975 0.4978 0.4981 0.4986 0.4990
2721.000000 0.4994 0.4999 0.5003 0.5008 0.5012
2726.000000 0.5016 0.5021 0.5026 0.5031 0.5038
2731.000000 0.5046 0.5054 0.5061 0.5068 0.5076
2736.000000 0.5083 0.5090 0.5097 0.5104 0.5111
2741.000000 0.5118 0.5125 0.5132 0.5139 0.5145
2746.000000 0.5151 0.5157 0.5160 0.5163 0.5165
2751.000000 0.5167 0.5169 0.5172 0.5173 0.5174
2756.000000 0.5174 0.5175 0.5176 0.5177 0.5178
2761.000000 0.5179 0.5179 0.5180 0.5180 0.5180
2766.000000 0.5179 0.5179 0.5178 0.5177 0.5176
2771.000000 0.5174 0.5171 0.5163 0.5156 0.5148
2776.000000 0.5140 0.5132 0.5122 0.5108 0.5094
2781.000000 0.5079 0.5064 0.5048 0.5032 0.5015
2786.000000 0.4998 0.4982 0.4962 0.4942 0.4922
2791.000000 0.4901 0.4881 0.4860 0.4832 0.4801
2796.000000 0.4770 0.4744 0.4723 0.4701 0.4680
2801.000000 0.4658 0.4636 0.4613 0.4584 0.4556
2806.000000 0.4521 0.4451 0.4380 0.4310 0.4239
2811.000000 0.4169 0.4099 0.4029 0.3958 0.3888
2816.000000 0.3818 0.3748 0.3678 0.3608 0.3538
2821.000000 0.3467 0.3409 0.3372 0.3336 0.3303
2826.000000 0.3296 0.3289 0.3282 0.3275 0.3268
2831.000000 0.3260 0.3242 0.3220 0.3198 0.3117
2836.000000 0.2985 0.2854 0.2722 0.2591 0.2459
2841.000000 0.2328 0.2196 0.2065 0.1934 0.1803
2846.000000 0.1672 0.1541 0.1411 0.1280 0.1150
2851.000000 0.1020 0.0890 0.0759 0.0633 0.0538
2856.000000 0.0442 0.0347 0.0322 0.0310 0.0297
2861.000000 0.0290 0.0287 0.0284 0.0282 0.0282
2866.000000 0.0282 0.0283 0.0283 0.0284 0.0284
2871.000000 0.0285 0.0286 0.0287 0.0288 0.0289
2876.000000 0.0290 0.0292 0.0293 0.0295 0.0296
2881.000000 0.0298 0.0300 0.0302 0.0305 0.0307
2886.000000 0.0309 0.0311 0.0313 0.0315 0.0317
2891.000000 0.0319 0.0321 0.0323 0.0326 0.0328
2896.000000 0.0331 0.0334 0.0341 0.0347 0.0353
2901.000000 0.0360 0.0367 0.0373 0.0380 0.0387
2906.000000 0.0395 0.0402 0.0409 0.0416 0.0424
2911.000000 0.0432 0.0440 0.0448 0.0456 0.0464
2916.000000 0.0472 0.0480 0.0489 0.0497 0.0506
2921.000000 0.0516 0.0529 0.0541 0.0554 0.0568
2926.000000 0.0582 0.0597 0.0616 0.0638 0.0661
2931.000000 0.0680 0.0684 0.0688 0.0692 0.0695
2936.000000 0.0697 0.0698 0.0699 0.0699 0.0698
2941.000000 0.0698 0.0696 0.0695 0.0693 0.0691
2946.000000 0.0688 0.0685 0.0682 0.0679 0.0676
2951.000000 0.0673 0.0671 0.0668 0.0666 0.0664
2956.000000 0.0662 0.0660 0.0658 0.0658 0.0658
2961.000000 0.0659 0.0659 0.0661 0.0662 0.0663
2966.000000 0.0685 0.0739 0.0793 0.0847 0.1007
2971.000000 0.1181 0.1356 0.1530 0.1705 0.1879
2976.000000 0.2053 0.2108 0.2135 0.2163 0.2184
2981.000000 0.2191 0.2198 0.2205 0.2213 0.2220
2986.000000 0.2227 0.2263 0.2468 0.2673 0.2878
2991.000000 0.3002 0.3065 0.3127 0.3190 0.3252
2996.000000 0.3315 0.3378 0.3440 0.3503 0.3565
3001.000000 0.3627 0.3689 0.3752 0.3814 0.3876
3006.000000 0.3939 0.4001 0.4063 0.4125 0.4187
3011.000000 0.4249 0.4311 0.4372 0.4434 0.4496
3016.000000 0.4558 0.4620 0.4681 0.4743 0.4803
3021.000000 0.4862 0.4922 0.4980 0.5011 0.5041
3026.000000 0.5071 0.5098 0.5118 0.5138 0.5157
3031.000000 0.5176 0.5193 0.5211 0.5229 0.5246
3036.000000 0.5264 0.5282 0.5307 0.5346 0.5385
3041.000000 0.5424 0.5470 0.5519 0.5569 0.5618
3046.000000 0.5662 0.5706 0.5750 0.5793 0.5829
3051.000000 0.5866 0.5902 0.5939 0.5977 0.6015
3056.000000 0.6053 0.6089 0.6124 0.6159 0.6194
3061.000000 0.6211 0.6229 0.6246 0.6263 0.6281
3066.000000 0.6298 0.6315 0.6333 0.6350 0.6368
3071.000000 0.6385 0.6409 0.6435 0.6461 0.6488
3076.000000 0.6523 0.6558 0.6594 0.6626 0.6648
3081.000000 0.6669 0.6690 0.6709 0.6724 0.6739
3086.000000 0.6754 0.6769 0.6784 0.6799 0.6814
3091.000000 0.6829 0.6844 0.6859 0.6875 0.6889
3096.000000 0.6904 0.6919 0.6934 0.6952 0.6970
3101.000000 0.6987 0.7005 0.7023 0.7040 0.7058
3106.000000 0.7076 0.7093 0.7110 0.7128 0.7145
3111.000000 0.7163 0.7180 0.7198 0.7213 0.7228
3116.000000 0.7242 0.7257 0.7270 0.7283 0.7295
3121.000000 0.7308 0.7321 0.7334 0.7347 0.7360
3126.000000 0.7372 0.7384 0.7396 0.7407 0.7417
3131.000000 0.7427 0.7436 0.7446 0.7456 0.7466
3136.000000 0.7476 0.7486 0.7495 0.7505 0.7515
3141.000000 0.7524 0.7534 0.7544 0.7554 0.7564
3146.000000 0.7573 0.7583 0.7593 0.7602 0.7611
3151.000000 0.7621 0.7630 0.7639 0.7649 0.7658
3156.000000 0.7667 0.7677 0.7686 0.7695 0.7704
3161.000000 0.7714 0.7723 0.7732 0.7741 0.7750
3166.000000 0.7759 0.7768 0.7777 0.7786 0.7793
3171.000000 0.7800 0.7807 0.7815 0.7822 0.7829
3176.000000 0.7837 0.7844 0.7851 0.7859 0.7866
3181.000000 0.7873 0.7880 0.7888 0.7895 0.7903
3186.000000 0.7910 0.7917 0.7925 0.7932 0.7939
3191.000000 0.7946 0.7953 0.7961 0.7968 0.7975
3196.000000 0.7983 0.7990 0.8000 0.8010 0.8020
3201.000000 0.8030 0.8041 0.8052 0.8062 0.8073
3206.000000 0.8084 0.8095 0.8105 0.8116 0.8127
3211.000000 0.8138 0.8149 0.8159 0.8170 0.8181
3216.000000 0.8192 0.8202 0.8210 0.8214 0.8218
3221.000000 0.8223 0.8227 0.8231 0.8235 0.8239
3226.000000 0.8243 0.8247 0.8251 0.8256 0.8260
3231.000000 0.8264 0.8268 0.8272 0.8276 0.8280
3236.000000 0.8284 0.8288 0.8292 0.8296 0.8300
3241.000000 0.8304 0.8308 0.8312 0.8316 0.8320
3246.000000 0.8324 0.8328 0.8332 0.8336 0.8340
3251.000000 0.8344 0.8348 0.8352 0.8356 0.8360
3256.000000 0.8363 0.8367 0.8371 0.8375 0.8379
3261.000000 0.8382 0.8386 0.8390 0.8394 0.8398
3266.000000 0.8402 0.8406 0.8410 0.8413 0.8417
3271.000000 0.8421 0.8425 0.8428 0.8432 0.8436
3276.000000 0.8439 0.8457 0.8492 0.8526 0.8561
3281.000000 0.8592 0.8605 0.8619 0.8632 0.8645
3286.000000 0.8655 0.8664 0.8673 0.8681 0.8687
3291.000000 0.8689 0.8691 0.8693 0.8695 0.8697
3296.000000 0.8700 0.8702 0.8704 0.8706 0.8708
3301.000000 0.8710 0.8712 0.8715 0.8717 0.8719
3306.000000 0.8721 0.8724 0.8726 0.8727 0.8729
3311.000000 0.8731 0.8732 0.8733 0.8733 0.8734
3316.000000 0.8735 0.8736 0.8737 0.8738 0.8738
3321.000000 0.8739 0.8740 0.8741 0.8741 0.8742
3326.000000 0.8743 0.8744 0.8745 0.8746 0.8746
3331.000000 0.8747 0.8748 0.8749 0.8750 0.8751
3336.000000 0.8751 0.8752 0.8753 0.8754 0.8754
3341.000000 0.8755 0.8756 0.8757 0.8758 0.8759
3346.000000 0.8760 0.8761 0.8761 0.8762 0.8763
3351.000000 0.8763 0.8764 0.8765 0.8765 0.8766
3356.000000 0.8767 0.8767 0.8768 0.8769 0.8769
3361.000000 0.8770 0.8771 0.8771 0.8772 0.8773
3366.000000 0.8773 0.8774 0.8775 0.8775 0.8776
3371.000000 0.8777 0.8777 0.8778 0.8779 0.8779
3376.000000 0.8780 0.8781 0.8781 0.8782 0.8782
3381.000000 0.8783 0.8783 0.8784 0.8784 0.8785
3386.000000 0.8785 0.8786 0.8787 0.8787 0.8788
3391.000000 0.8789 0.8789 0.8790 0.8791 0.8791
3396.000000 0.8792 0.8793 0.8793 0.8794 0.8795
3401.000000 0.8795 0.8796 0.8797 0.8797 0.8798
3406.000000 0.8799 0.8799 0.8800 0.8800 0.8801
3411.000000 0.8802 0.8802 0.8803 0.8803 0.8803
3416.000000 0.8804 0.8805 0.8805 0.8806 0.8807
3421.000000 0.8807 0.8807 0.8808 0.8808 0.8809
3426.000000 0.8809 0.8810 0.8811 0.8811 0.8812
3431.000000 0.8812 0.8813 0.8813 0.8813 0.8814
3436.000000 0.8815 0.8815 0.8816 0.8817 0.8817
3441.000000 0.8817 0.8818 0.8818 0.8819 0.8819
3446.000000 0.8820 0.8821 0.8821 0.8822 0.8822
3451.000000 0.8823 0.8823 0.8823 0.8824 0.8825
3456.000000 0.8825 0.8826 0.8827 0.8829 0.8831
3461.000000 0.8833 0.8835 0.8838 0.8841 0.8843
3466.000000 0.8846 0.8849 0.8852 0.8855 0.8858
3471.000000 0.8861 0.8864 0.8867 0.8870 0.8873
3476.000000 0.8875 0.8878 0.8881 0.8884 0.8887
3481.000000 0.8890 0.8893 0.8895 0.8898 0.8901
3486.000000 0.8903 0.8906 0.8908 0.8910 0.8912
3491.000000 0.8914 0.8915 0.8914 0.8914 0.8913
3496.000000 0.8912 0.8911 0.8911 0.8910 0.8909
3501.000000 0.8909 0.8908 0.8906 0.8905 0.8903
3506.000000 0.8902 0.8899 0.8896 0.8893 0.8890
3511.000000 0.8887 0.8884 0.8881 0.8879 0.8876
3516.000000 0.8873 0.8870 0.8867 0.8865 0.8862
3521.000000 0.8859 0.8856 0.8852 0.8849 0.8846
3526.000000 0.8843 0.8839 0.8836 0.8833 0.8829
3531.000000 0.8826 0.8826 0.8826 0.8827 0.8827
3536.000000 0.8827 0.8828 0.8828 0.8828 0.8828
3541.000000 0.8828 0.8829 0.8829 0.8830 0.8830
3546.000000 0.8830 0.8831 0.8831 0.8832 0.8832
3551.000000 0.8832 0.8833 0.8833 0.8834 0.8834
3556.000000 0.8834 0.8835 0.8835 0.8835 0.8835
3561.000000 0.8835 0.8836 0.8836 0.8837 0.8837
3566.000000 0.8837 0.8838 0.8840 0.8841 0.8843
3571.000000 0.8844 0.8845 0.8847 0.8848 0.8849
3576.000000 0.8851 0.8852 0.8853 0.8855 0.8856
3581.000000 0.8858 0.8859 0.8860 0.8862 0.8863
3586.000000 0.8864 0.8866 0.8867 0.8868 0.8870
3591.000000 0.8871 0.8873 0.8874 0.8875 0.8876
3596.000000 0.8877 0.8878 0.8880 0.8881 0.8882
3601.000000 0.8884 0.8885 0.8886 0.8888 0.8889
3606.000000 0.8890 0.8892 0.8893 0.8894 0.8895
3611.000000 0.8897 0.8898 0.8899 0.8899 0.8900
3616.000000 0.8901 0.8902 0.8920 0.8903 0.8903
3621.000000 0.8904 0.8904 0.8904 0.8905 0.8905
3626.000000 0.8906 0.8906 0.8906 0.8907 0.8907
3631.000000 0.8907 0.8908 0.8908 0.8909 0.8909
3636.000000 0.8909 0.8910 0.8910 0.8910 0.8911
3641.000000 0.8911 0.8912 0.8912 0.8912 0.8913
3646.000000 0.8913 0.8913 0.8913 0.8913 0.8912
3651.000000 0.8911 0.8910 0.8909 0.8908 0.8907
3656.000000 0.8907 0.8906 0.8905 0.8904 0.8903
3661.000000 0.8902 0.8901 0.8900 0.8899 0.8898
3666.000000 0.8897 0.8896 0.8895 0.8894 0.8893
3671.000000 0.8893 0.8892 0.8891 0.8890 0.8890
3676.000000 0.8889 0.8888 0.8886 0.8884 0.8883
3681.000000 0.8881 0.8879 0.8877 0.8874 0.8871
3686.000000 0.8869 0.8866 0.8864 0.8861 0.8858
3691.000000 0.8855 0.8853 0.8850 0.8847 0.8845
3696.000000 0.8842 0.8840 0.8837 0.8834 0.8832
3701.000000 0.8829 0.8826 0.8823 0.8821 0.8820
3706.000000 0.8818 0.8817 0.8815 0.8814 0.8812
3711.000000 0.8811 0.8810 0.8809 0.8807 0.8806
3716.000000 0.8805 0.8804 0.8802 0.8801 0.8800
3721.000000 0.8798 0.8797 0.8796 0.8794 0.8793
3726.000000 0.8791 0.8790 0.8789 0.8787 0.8786
3731.000000 0.8785 0.8784 0.8782 0.8781 0.8780
3736.000000 0.8779 0.8777 0.8777 0.8776 0.8775
3741.000000 0.8775 0.8774 0.8773 0.8773 0.8773
3746.000000 0.8772 0.8772 0.8772 0.8771 0.8771
3751.000000 0.8770 0.8769 0.8769 0.8768 0.8768
3756.000000 0.8767 0.8767 0.8766 0.8766 0.8765
3761.000000 0.8765 0.8764 0.8764 0.8763 0.8763
3766.000000 0.8762 0.8761 0.8761 0.8760 0.8760
3771.000000 0.8759 0.8759 0.8758 0.8758 0.8757
3776.000000 0.8757 0.8756 0.8756 0.8755 0.8755
3781.000000 0.8754 0.8754 0.8753 0.8753 0.8752
3786.000000 0.8751 0.8751 0.8750 0.8750 0.8749
3791.000000 0.8749 0.8748 0.8748 0.8747 0.8747
3796.000000 0.8746 0.8746 0.8745 0.8745 0.8744
3801.000000 0.8743 0.8741 0.8740 0.8739 0.8738
3806.000000 0.8737 0.8736 0.8735 0.8734 0.8733
3811.000000 0.8731 0.8730 0.8729 0.8728 0.8727
3816.000000 0.8726 0.8725 0.8724 0.8723 0.8722
3821.000000 0.8721 0.8720 0.8719 0.8718 0.8717
3826.000000 0.8716 0.8715 0.8714 0.8710 0.8704
3831.000000 0.8699 0.8693 0.8687 0.8681 0.8676
3836.000000 0.8672 0.8667 0.8663 0.8659 0.8655
3841.000000 0.8652 0.8650 0.8648 0.8646 0.8644
3846.000000 0.8642 0.8640 0.8638 0.8636 0.8634
3851.000000 0.8632 0.8630 0.8628 0.8626 0.8625
3856.000000 0.8623 0.8621 0.8620 0.8618 0.8617
3861.000000 0.8616 0.8614 0.8613 0.8611 0.8610
3866.000000 0.8609 0.8608 0.8607 0.8606 0.8604
3871.000000 0.8603 0.8602 0.8601 0.8600 0.8599
3876.000000 0.8597 0.8596 0.8595 0.8593 0.8592
3881.000000 0.8591 0.8589 0.8588 0.8587 0.8586
3886.000000 0.8585 0.8584 0.8583 0.8581 0.8580
3891.000000 0.8579 0.8578 0.8577 0.8576 0.8574
3896.000000 0.8573 0.8572 0.8571 0.8570 0.8569
3901.000000 0.8568 0.8567 0.8567 0.8566 0.8565
3906.000000 0.8565 0.8564 0.8564 0.8563 0.8563
3911.000000 0.8562 0.8562 0.8561 0.8561 0.8560
3916.000000 0.8560 0.8559 0.8559 0.8558 0.8558
3921.000000 0.8557 0.8557 0.8556 0.8556 0.8555
3926.000000 0.8555 0.8554 0.8554 0.8553 0.8553
3931.000000 0.8552 0.8552 0.8551 0.8551 0.8550
3936.000000 0.8550 0.8550 0.8549 0.8549 0.8548
3941.000000 0.8548 0.8547 0.8547 0.8546 0.8546
3946.000000 0.8545 0.8545 0.8544 0.8544 0.8543
3951.000000 0.8543 0.8542 0.8542 0.8541 0.8541
3956.000000 0.8540 0.8540 0.8540 0.8539 0.8539
3961.000000 0.8539 0.8538 0.8538 0.8538 0.8537
3966.000000 0.8537 0.8536 0.8536 0.8535 0.8534
3971.000000 0.8534 0.8533 0.8532 0.8532 0.8530
3976.000000 0.8528 0.8525 0.8523 0.8520 0.8518
3981.000000 0.8515 0.8513 0.8510 0.8508 0.8505
3986.000000 0.8503 0.8500 0.8498 0.8495 0.8493
3991.000000 0.8490 0.8488 0.8485 0.8483 0.8480
3996.000000 0.8478 0.8475 0.8473 0.8470 0.8468
##END=
