##TITLE=UREA, AMIDINO-, SULFATE
##JCAMP-DX=4.24
$$ By DXEDIT 1.05 (RS McDonald)
##DATA TYPE=INFRARED SPECTRUM
##CLASS=COBLENTZ III
##ORIGIN=DOW CHEMICAL COMPANY
##OWNER=COBLENTZ SOC.
Collection (C) 2018 copyright by the U.S. Secretary of Commerce
on behalf of the United States of America. All rights reserved.
##DATE=1968/09/03
##MOLFORM=C4 H14 N8 O6 S
##SOURCE REFERENCE=COBLENTZ NO. 05780
##$NIST ID=B6005780
##$NIST SOURCE=COBLENTZ
##$NIST IMAGE=cob5780
##SPECTROMETER/DATA SYSTEM=DOW KBr FOREPRISM-GRATING
##INSTRUMENT PARAMETERS=BLAZED AT 3.5, 12.0, 20.0 MICRON AND CHANGED AT 5.0, 7.5, 14.9 MICRON
##STATE=SOLID (SPLIT MULL)
##SAMPLING PROCEDURE=TRANSMISSION
##RESOLUTION=2
##DATA PROCESSING=DIGITIZED BY COBLENTZ SOCIETY (BATCH I) FROM HARD COPY
##XUNITS=1/CM
##YUNITS=TRANSMITTANCE
##XLABEL=Wavenumbers (cm-1)
##YLABEL=% Transmission
##XFACTOR=1
##YFACTOR=1
##DELTAX=1
##FIRSTX=3786
##LASTX=467
##FIRSTY=0.8243
##MAXX=3786
##MINX=467
##MAXY=0.9892
##MINY=0.0626
##NPOINTS=3320
##XYDATA=(X++(Y..Y))
3786.000000 0.8243 0.8247 0.8251 0.8256 0.8262
3781.000000 0.8267 0.8273 0.8278 0.8285 0.8290
3776.000000 0.8296 0.8301 0.8307 0.8313 0.8318
3771.000000 0.8324 0.8330 0.8335 0.8341 0.8348
3766.000000 0.8355 0.8362 0.8368 0.8375 0.8383
3761.000000 0.8390 0.8398 0.8405 0.8412 0.8418
3756.000000 0.8425 0.8433 0.8441 0.8448 0.8455
3751.000000 0.8462 0.8468 0.8475 0.8483 0.8490
3746.000000 0.8498 0.8505 0.8512 0.8518 0.8525
3741.000000 0.8533 0.8541 0.8548 0.8555 0.8562
3736.000000 0.8568 0.8575 0.8583 0.8590 0.8598
3731.000000 0.8605 0.8612 0.8618 0.8625 0.8633
3726.000000 0.8641 0.8648 0.8655 0.8662 0.8668
3721.000000 0.8675 0.8683 0.8690 0.8697 0.8703
3716.000000 0.8709 0.8714 0.8720 0.8725 0.8732
3711.000000 0.8737 0.8743 0.8749 0.8755 0.8760
3706.000000 0.8766 0.8771 0.8777 0.8783 0.8789
3701.000000 0.8794 0.8800 0.8805 0.8811 0.8816
3696.000000 0.8821 0.8825 0.8830 0.8835 0.8840
3691.000000 0.8845 0.8850 0.8855 0.8860 0.8865
3686.000000 0.8870 0.8875 0.8880 0.8885 0.8890
3681.000000 0.8895 0.8900 0.8905 0.8910 0.8915
3676.000000 0.8920 0.8924 0.8928 0.8934 0.8939
3671.000000 0.8943 0.8948 0.8951 0.8954 0.8957
3666.000000 0.8961 0.8964 0.8968 0.8971 0.8974
3661.000000 0.8977 0.8981 0.8984 0.8988 0.8991
3656.000000 0.8995 0.8998 0.9001 0.9004 0.9008
3651.000000 0.9011 0.9015 0.9018 0.9021 0.9023
3646.000000 0.9025 0.9028 0.9030 0.9032 0.9034
3641.000000 0.9036 0.9038 0.9040 0.9042 0.9044
3636.000000 0.9046 0.9048 0.9050 0.9052 0.9054
3631.000000 0.9056 0.9058 0.9060 0.9062 0.9064
3626.000000 0.9066 0.9068 0.9070 0.9071 0.9073
3621.000000 0.9074 0.9075 0.9075 0.9075 0.9077
3616.000000 0.9078 0.9078 0.9078 0.9080 0.9081
3611.000000 0.9081 0.9082 0.9082 0.9083 0.9080
3606.000000 0.9077 0.9074 0.9071 0.9068 0.9091
3601.000000 0.9061 0.9058 0.9051 0.9044 0.9036
3596.000000 0.9028 0.9020 0.9012 0.9001 0.8991
3591.000000 0.8981 0.8971 0.8960 0.8950 0.8938
3586.000000 0.8925 0.8910 0.8895 0.8878 0.8864
3581.000000 0.8848 0.8833 0.8815 0.8798 0.8780
3576.000000 0.8763 0.8745 0.8728 0.8710 0.8692
3571.000000 0.8674 0.8657 0.8639 0.8621 0.8605
3566.000000 0.8588 0.8570 0.8553 0.8535 0.8518
3561.000000 0.8501 0.8484 0.8468 0.8453 0.8438
3556.000000 0.8423 0.8407 0.8392 0.8377 0.8362
3551.000000 0.8346 0.8331 0.8316 0.8301 0.8286
3546.000000 0.8271 0.8248 0.8225 0.8201 0.8175
3541.000000 0.8150 0.8125 0.8100 0.8075 0.8050
3536.000000 0.8025 0.7988 0.7951 0.7911 0.7872
3531.000000 0.7833 0.7794 0.7755 0.7717 0.7678
3526.000000 0.7641 0.7601 0.7564 0.7525 0.7488
3521.000000 0.7450 0.7411 0.7375 0.7340 0.7305
3516.000000 0.7269 0.7234 0.7199 0.7162 0.7128
3511.000000 0.7092 0.7057 0.7021 0.6985 0.6945
3506.000000 0.6906 0.6867 0.6828 0.6789 0.6750
3501.000000 0.6711 0.6671 0.6618 0.6565 0.6511
3496.000000 0.6458 0.6404 0.6350 0.6296 0.6242
3491.000000 0.6190 0.6139 0.6088 0.6038 0.5988
3486.000000 0.5938 0.5887 0.5837 0.5736 0.5635
3481.000000 0.5527 0.5420 0.5354 0.5289 0.5225
3476.000000 0.5160 0.5082 0.5004 0.4899 0.4794
3471.000000 0.4708 0.4622 0.4564 0.4507 0.4449
3466.000000 0.4391 0.4330 0.4269 0.4183 0.4097
3461.000000 0.4009 0.3924 0.3830 0.3737 0.3647
3456.000000 0.3557 0.3472 0.3387 0.3300 0.3212
3451.000000 0.2942 0.2672 0.2626 0.2581 0.2543
3446.000000 0.2506 0.2437 0.2369 0.2298 0.2227
3441.000000 0.2183 0.2140 0.2096 0.2053 0.1990
3436.000000 0.1928 0.1744 0.1563 0.1509 0.1455
3431.000000 0.1428 0.1401 0.1381 0.1361 0.1340
3426.000000 0.1320 0.1292 0.1266 0.1231 0.1196
3421.000000 0.1182 0.1167 0.1152 0.1138 0.1124
3416.000000 0.1110 0.1103 0.1096 0.1092 0.1089
3411.000000 0.1086 0.1083 0.1081 0.1059 0.1078
3406.000000 0.1077 0.1077 0.1077 0.1077 0.1077
3401.000000 0.1083 0.1089 0.1095 0.1101 0.1107
3396.000000 0.1113 0.1119 0.1125 0.1131 0.1138
3391.000000 0.1145 0.1152 0.1158 0.1165 0.1172
3386.000000 0.1179 0.1186 0.1192 0.1199 0.1206
3381.000000 0.1213 0.1220 0.1226 0.1233 0.1240
3376.000000 0.1246 0.1253 0.1260 0.1266 0.1273
3371.000000 0.1280 0.1287 0.1292 0.1300 0.1306
3366.000000 0.1313 0.1320 0.1327 0.1333 0.1340
3361.000000 0.1346 0.1355 0.1362 0.1370 0.1377
3356.000000 0.1385 0.1392 0.1400 0.1407 0.1415
3351.000000 0.1422 0.1430 0.1437 0.1445 0.1452
3346.000000 0.1460 0.1466 0.1473 0.1479 0.1486
3341.000000 0.1492 0.1498 0.1504 0.1511 0.1517
3336.000000 0.1524 0.1530 0.1536 0.1542 0.1549
3331.000000 0.1556 0.1563 0.1570 0.1577 0.1583
3326.000000 0.1590 0.1596 0.1602 0.1601 0.1600
3321.000000 0.1599 0.1598 0.1596 0.1596 0.1592
3316.000000 0.1591 0.1589 0.1587 0.1584 0.1582
3311.000000 0.1576 0.1570 0.1562 0.1554 0.1545
3306.000000 0.1537 0.1528 0.1520 0.1511 0.1502
3301.000000 0.1496 0.1491 0.1487 0.1484 0.1481
3296.000000 0.1481 0.1480 0.1460 0.1483 0.1485
3291.000000 0.1486 0.1488 0.1491 0.1494 0.1496
3286.000000 0.1501 0.1504 0.1507 0.1512 0.1518
3281.000000 0.1525 0.1532 0.1538 0.1545 0.1552
3276.000000 0.1560 0.1571 0.1582 0.1592 0.1604
3271.000000 0.1616 0.1627 0.1637 0.1650 0.1661
3266.000000 0.1672 0.1682 0.1693 0.1702 0.1712
3261.000000 0.1721 0.1731 0.1740 0.1750 0.1759
3256.000000 0.1769 0.1778 0.1787 0.1798 0.1808
3251.000000 0.1817 0.1827 0.1836 0.1846 0.1857
3246.000000 0.1867 0.1878 0.1889 0.1901 0.1913
3241.000000 0.1921 0.1929 0.1933 0.1937 0.1940
3236.000000 0.1943 0.1943 0.1944 0.1944 0.1944
3231.000000 0.1944 0.1944 0.1944 0.1944 0.1944
3226.000000 0.1944 0.1941 0.1937 0.1922 0.1907
3221.000000 0.1891 0.1876 0.1862 0.1848 0.1834
3216.000000 0.1820 0.1804 0.1787 0.1772 0.1756
3211.000000 0.1740 0.1724 0.1709 0.1694 0.1681
3206.000000 0.1668 0.1654 0.1643 0.1628 0.1614
3201.000000 0.1595 0.1576 0.1558 0.1541 0.1533
3196.000000 0.1526 0.1518 0.1511 0.1503 0.1496
3191.000000 0.1489 0.1482 0.1479 0.1477 0.1474
3186.000000 0.1471 0.1470 0.1470 0.1470 0.1471
3181.000000 0.1472 0.1474 0.1479 0.1485 0.1494
3176.000000 0.1504 0.1513 0.1523 0.1533 0.1542
3171.000000 0.1556 0.1569 0.1582 0.1595 0.1607
3166.000000 0.1620 0.1633 0.1645 0.1659 0.1672
3161.000000 0.1684 0.1698 0.1710 0.1723 0.1734
3156.000000 0.1748 0.1760 0.1773 0.1784 0.1798
3151.000000 0.1810 0.1823 0.1834 0.1848 0.1860
3146.000000 0.1873 0.1884 0.1896 0.1908 0.1920
3141.000000 0.1931 0.1943 0.1954 0.1966 0.1977
3136.000000 0.1989 0.2000 0.2012 0.2023 0.2034
3131.000000 0.2045 0.2058 0.2072 0.2085 0.2100
3126.000000 0.2114 0.2128 0.2143 0.2157 0.2172
3121.000000 0.2185 0.2201 0.2215 0.2230 0.2244
3116.000000 0.2258 0.2274 0.2290 0.2307 0.2325
3111.000000 0.2342 0.2360 0.2377 0.2395 0.2412
3106.000000 0.2430 0.2447 0.2465 0.2483 0.2501
3101.000000 0.2518 0.2535 0.2553 0.2571 0.2588
3096.000000 0.2606 0.2623 0.2641 0.2658 0.2676
3091.000000 0.2693 0.2711 0.2728 0.2746 0.2763
3086.000000 0.2781 0.2798 0.2815 0.2832 0.2850
3081.000000 0.2867 0.2884 0.2902 0.2920 0.2937
3076.000000 0.2954 0.2969 0.2984 0.3001 0.3017
3071.000000 0.3033 0.3049 0.3064 0.3080 0.3096
3066.000000 0.3112 0.3127 0.3143 0.3157 0.3172
3061.000000 0.3183 0.3195 0.3206 0.3216 0.3228
3056.000000 0.3239 0.3250 0.3262 0.3273 0.3284
3051.000000 0.3293 0.3303 0.3309 0.3318 0.3325
3046.000000 0.3332 0.3339 0.3347 0.3354 0.3362
3041.000000 0.3368 0.3377 0.3384 0.3391 0.3397
3036.000000 0.3404 0.3409 0.3416 0.3422 0.3427
3031.000000 0.3430 0.3434 0.3437 0.3441 0.3444
3026.000000 0.3448 0.3450 0.3454 0.3457 0.3460
3021.000000 0.3464 0.3470 0.3475 0.3480 0.3486
3016.000000 0.3492 0.3497 0.3503 0.3508 0.3514
3011.000000 0.3518 0.3525 0.3529 0.3534 0.3538
3006.000000 0.3543 0.3547 0.3552 0.3556 0.3560
3001.000000 0.3566 0.3571 0.3576 0.3580 0.3584
2996.000000 0.3587 0.3590 0.3593 0.3596 0.3599
2991.000000 0.3600 0.3604 0.3603 0.3602 0.3600
2986.000000 0.3600 0.3598 0.3596 0.3593 0.3590
2981.000000 0.3586 0.3582 0.3580 0.3577 0.3574
2976.000000 0.3571 0.3568 0.3564 0.3562 0.3559
2971.000000 0.3556 0.3553 0.3549 0.3546 0.3544
2966.000000 0.3542 0.3540 0.3538 0.3536 0.3534
2961.000000 0.3530 0.3529 0.3527 0.3525 0.3524
2956.000000 0.3523 0.3521 0.3518 0.3516 0.3516
2951.000000 0.3514 0.3514 0.3518 0.3523 0.3530
2946.000000 0.3537 0.3538 0.3540 0.3540 0.3516
2941.000000 0.3542 0.3543 0.3544 0.3545 0.3553
2936.000000 0.3560 0.3568 0.3577 0.3584 0.3593
2931.000000 0.3600 0.3609 0.3618 0.3627 0.3636
2926.000000 0.3645 0.3653 0.3662 0.3671 0.3680
2921.000000 0.3693 0.3706 0.3718 0.3730 0.3743
2916.000000 0.3756 0.3768 0.3780 0.3792 0.3805
2911.000000 0.3816 0.3829 0.3838 0.3848 0.3858
2906.000000 0.3868 0.3878 0.3888 0.3897 0.3907
2901.000000 0.3916 0.3927 0.3937 0.3947 0.3957
2896.000000 0.3966 0.3976 0.3986 0.3998 0.4009
2891.000000 0.4022 0.4034 0.4047 0.4059 0.4071
2886.000000 0.4084 0.4096 0.4108 0.4120 0.4133
2881.000000 0.4145 0.4157 0.4169 0.4182 0.4194
2876.000000 0.4206 0.4218 0.4231 0.4243 0.4255
2871.000000 0.4268 0.4282 0.4295 0.4309 0.4322
2866.000000 0.4336 0.4350 0.4364 0.4377 0.4391
2861.000000 0.4404 0.4418 0.4432 0.4446 0.4459
2856.000000 0.4473 0.4487 0.4501 0.4514 0.4528
2851.000000 0.4541 0.4555 0.4568 0.4581 0.4594
2846.000000 0.4607 0.4620 0.4633 0.4646 0.4659
2841.000000 0.4672 0.4686 0.4699 0.4712 0.4725
2836.000000 0.4738 0.4751 0.4764 0.4777 0.4790
2831.000000 0.4803 0.4816 0.4829 0.4842 0.4853
2826.000000 0.4865 0.4876 0.4888 0.4899 0.4910
2821.000000 0.4921 0.4932 0.4943 0.4955 0.4966
2816.000000 0.4977 0.4988 0.5000 0.5010 0.5022
2811.000000 0.5033 0.5044 0.5055 0.5067 0.5078
2806.000000 0.5089 0.5100 0.5110 0.5122 0.5134
2801.000000 0.5142 0.5151 0.5159 0.5168 0.5176
2796.000000 0.5185 0.5193 0.5201 0.5209 0.5218
2791.000000 0.5226 0.5235 0.5243 0.5251 0.5259
2786.000000 0.5268 0.5276 0.5285 0.5293 0.5301
2781.000000 0.5309 0.5318 0.5326 0.5334 0.5342
2776.000000 0.5351 0.5359 0.5368 0.5376 0.5384
2771.000000 0.5392 0.5401 0.5409 0.5418 0.5426
2766.000000 0.5435 0.5443 0.5452 0.5460 0.5469
2761.000000 0.5477 0.5486 0.5494 0.5503 0.5510
2756.000000 0.5520 0.5528 0.5537 0.5545 0.5554
2751.000000 0.5562 0.5571 0.5579 0.5588 0.5596
2746.000000 0.5605 0.5612 0.5622 0.5630 0.5639
2741.000000 0.5647 0.5656 0.5664 0.5673 0.5682
2736.000000 0.5691 0.5700 0.5710 0.5719 0.5729
2731.000000 0.5738 0.5748 0.5757 0.5767 0.5776
2726.000000 0.5786 0.5795 0.5804 0.5812 0.5823
2721.000000 0.5832 0.5842 0.5851 0.5860 0.5870
2716.000000 0.5880 0.5889 0.5899 0.5908 0.5918
2711.000000 0.5928 0.5938 0.5947 0.5957 0.5967
2706.000000 0.5977 0.5987 0.5997 0.6006 0.6016
2701.000000 0.6026 0.6036 0.6046 0.6056 0.6065
2696.000000 0.6075 0.6085 0.6095 0.6105 0.6115
2691.000000 0.6124 0.6134 0.6144 0.6154 0.6164
2686.000000 0.6174 0.6183 0.6193 0.6203 0.6212
2681.000000 0.6223 0.6233 0.6242 0.6252 0.6262
2676.000000 0.6272 0.6282 0.6292 0.6301 0.6310
2671.000000 0.6319 0.6329 0.6338 0.6347 0.6356
2666.000000 0.6366 0.6375 0.6384 0.6393 0.6401
2661.000000 0.6411 0.6421 0.6430 0.6439 0.6448
2656.000000 0.6457 0.6465 0.6475 0.6485 0.6494
2651.000000 0.6501 0.6508 0.6515 0.6524 0.6531
2646.000000 0.6539 0.6546 0.6554 0.6561 0.6568
2641.000000 0.6575 0.6583 0.6590 0.6598 0.6605
2636.000000 0.6612 0.6619 0.6628 0.6635 0.6643
2631.000000 0.6650 0.6658 0.6665 0.6671 0.6678
2626.000000 0.6687 0.6694 0.6701 0.6708 0.6717
2621.000000 0.6724 0.6732 0.6739 0.6747 0.6754
2616.000000 0.6761 0.6768 0.6775 0.6784 0.6793
2611.000000 0.6801 0.6810 0.6818 0.6825 0.6834
2606.000000 0.6843 0.6851 0.6860 0.6868 0.6875
2601.000000 0.6884 0.6893 0.6901 0.6910 0.6918
2596.000000 0.6925 0.6934 0.6943 0.6951 0.6960
2591.000000 0.6968 0.6975 0.6984 0.6993 0.7001
2586.000000 0.7010 0.7017 0.7025 0.7031 0.7038
2581.000000 0.7045 0.7051 0.7058 0.7065 0.7071
2576.000000 0.7078 0.7085 0.7092 0.7098 0.7105
2571.000000 0.7111 0.7118 0.7125 0.7132 0.7137
2566.000000 0.7143 0.7147 0.7151 0.7157 0.7161
2561.000000 0.7165 0.7171 0.7175 0.7180 0.7184
2556.000000 0.7189 0.7194 0.7199 0.7203 0.7208
2551.000000 0.7211 0.7217 0.7219 0.7224 0.7228
2546.000000 0.7232 0.7235 0.7239 0.7243 0.7247
2541.000000 0.7250 0.7254 0.7258 0.7261 0.7265
2536.000000 0.7268 0.7272 0.7276 0.7280 0.7284
2531.000000 0.7288 0.7292 0.7295 0.7299 0.7303
2526.000000 0.7308 0.7311 0.7315 0.7319 0.7324
2521.000000 0.7328 0.7332 0.7336 0.7340 0.7344
2516.000000 0.7349 0.7353 0.7357 0.7361 0.7365
2511.000000 0.7368 0.7372 0.7376 0.7382 0.7386
2506.000000 0.7390 0.7394 0.7398 0.7401 0.7406
2501.000000 0.7410 0.7414 0.7418 0.7421 0.7425
2496.000000 0.7430 0.7433 0.7437 0.7441 0.7445
2491.000000 0.7448 0.7451 0.7456 0.7460 0.7462
2486.000000 0.7467 0.7471 0.7475 0.7478 0.7482
2481.000000 0.7486 0.7490 0.7493 0.7497 0.7500
2476.000000 0.7504 0.7507 0.7511 0.7514 0.7518
2471.000000 0.7521 0.7525 0.7528 0.7532 0.7535
2466.000000 0.7539 0.7542 0.7546 0.7549 0.7553
2461.000000 0.7557 0.7561 0.7565 0.7571 0.7575
2456.000000 0.7580 0.7584 0.7589 0.7593 0.7598
2451.000000 0.7601 0.7607 0.7611 0.7615 0.7619
2446.000000 0.7625 0.7628 0.7632 0.7634 0.7636
2441.000000 0.7638 0.7641 0.7643 0.7645 0.7647
2436.000000 0.7649 0.7651 0.7654 0.7656 0.7658
2431.000000 0.7661 0.7665 0.7667 0.7669 0.7672
2426.000000 0.7675 0.7678 0.7681 0.7682 0.7658
2421.000000 0.7684 0.7686 0.7687 0.7688 0.7689
2416.000000 0.7690 0.7691 0.7693 0.7693 0.7693
2411.000000 0.7692 0.7691 0.7690 0.7690 0.7689
2406.000000 0.7688 0.7687 0.7686 0.7685 0.7684
2401.000000 0.7683 0.7682 0.7681 0.7680 0.7678
2396.000000 0.7678 0.7678 0.7678 0.7678 0.7678
2391.000000 0.7676 0.7676 0.7676 0.7676 0.7675
2386.000000 0.7675 0.7675 0.7675 0.7675 0.7675
2381.000000 0.7674 0.7674 0.7674 0.7674 0.7672
2376.000000 0.7672 0.7671 0.7671 0.7671 0.7671
2371.000000 0.7671 0.7671 0.7671 0.7671 0.7671
2366.000000 0.7671 0.7669 0.7669 0.7669 0.7669
2361.000000 0.7668 0.7668 0.7668 0.7668 0.7668
2356.000000 0.7668 0.7668 0.7668 0.7668 0.7668
2351.000000 0.7668 0.7668 0.7667 0.7667 0.7667
2346.000000 0.7667 0.7667 0.7668 0.7668 0.7668
2341.000000 0.7668 0.7669 0.7669 0.7671 0.7671
2336.000000 0.7671 0.7671 0.7671 0.7671 0.7672
2331.000000 0.7674 0.7675 0.7675 0.7675 0.7676
2326.000000 0.7678 0.7678 0.7678 0.7680 0.7681
2321.000000 0.7682 0.7684 0.7686 0.7688 0.7690
2316.000000 0.7692 0.7694 0.7696 0.7701 0.7684
2311.000000 0.7711 0.7715 0.7719 0.7725 0.7730
2306.000000 0.7735 0.7740 0.7746 0.7751 0.7757
2301.000000 0.7761 0.7768 0.7771 0.7776 0.7782
2296.000000 0.7788 0.7794 0.7800 0.7805 0.7811
2291.000000 0.7815 0.7821 0.7828 0.7834 0.7839
2286.000000 0.7845 0.7850 0.7856 0.7861 0.7868
2281.000000 0.7872 0.7878 0.7884 0.7890 0.7896
2276.000000 0.7901 0.7907 0.7912 0.7918 0.7925
2271.000000 0.7930 0.7936 0.7941 0.7947 0.7955
2266.000000 0.7962 0.7971 0.7978 0.7987 0.7996
2261.000000 0.8004 0.8012 0.8022 0.8034 0.8045
2256.000000 0.8056 0.8067 0.8078 0.8088 0.8099
2251.000000 0.8110 0.8121 0.8131 0.8141 0.8151
2246.000000 0.8161 0.8171 0.8181 0.8190 0.8200
2241.000000 0.8210 0.8220 0.8232 0.8244 0.8256
2236.000000 0.8268 0.8281 0.8293 0.8305 0.8318
2231.000000 0.8325 0.8333 0.8340 0.8347 0.8353
2226.000000 0.8360 0.8367 0.8374 0.8380 0.8386
2221.000000 0.8391 0.8396 0.8401 0.8407 0.8412
2216.000000 0.8417 0.8421 0.8427 0.8432 0.8437
2211.000000 0.8442 0.8447 0.8452 0.8457 0.8462
2206.000000 0.8467 0.8471 0.8477 0.8483 0.8489
2201.000000 0.8496 0.8504 0.8511 0.8518 0.8525
2196.000000 0.8533 0.8540 0.8547 0.8554 0.8562
2191.000000 0.8568 0.8575 0.8583 0.8591 0.8598
2186.000000 0.8605 0.8612 0.8620 0.8627 0.8635
2181.000000 0.8642 0.8650 0.8657 0.8665 0.8671
2176.000000 0.8680 0.8687 0.8695 0.8702 0.8710
2171.000000 0.8717 0.8725 0.8732 0.8740 0.8748
2166.000000 0.8756 0.8763 0.8771 0.8778 0.8785
2161.000000 0.8791 0.8798 0.8805 0.8812 0.8818
2156.000000 0.8825 0.8833 0.8840 0.8846 0.8853
2151.000000 0.8860 0.8867 0.8875 0.8884 0.8892
2146.000000 0.8901 0.8909 0.8917 0.8925 0.8934
2141.000000 0.8942 0.8951 0.8959 0.8968 0.8975
2136.000000 0.8985 0.8992 0.9000 0.9007 0.9014
2131.000000 0.9021 0.9028 0.9036 0.9044 0.9051
2126.000000 0.9059 0.9066 0.9074 0.9080 0.9087
2121.000000 0.9093 0.9100 0.9106 0.9112 0.9118
2116.000000 0.9125 0.9128 0.9132 0.9135 0.9138
2111.000000 0.9141 0.9144 0.9147 0.9150 0.9152
2106.000000 0.9155 0.9157 0.9159 0.9159 0.9159
2101.000000 0.9159 0.9160 0.9160 0.9160 0.9160
2096.000000 0.9160 0.9160 0.9161 0.9161 0.9161
2091.000000 0.9161 0.9161 0.9161 0.9162 0.9162
2086.000000 0.9162 0.9166 0.9170 0.9174 0.9178
2081.000000 0.9182 0.9187 0.9191 0.9195 0.9199
2076.000000 0.9203 0.9207 0.9212 0.9216 0.9220
2071.000000 0.9225 0.9231 0.9237 0.9244 0.9250
2066.000000 0.9256 0.9262 0.9268 0.9274 0.9281
2061.000000 0.9287 0.9293 0.9299 0.9306 0.9312
2056.000000 0.9318 0.9324 0.9331 0.9337 0.9343
2051.000000 0.9349 0.9356 0.9362 0.9368 0.9378
2046.000000 0.9389 0.9398 0.9408 0.9417 0.9425
2041.000000 0.9435 0.9444 0.9453 0.9462 0.9471
2036.000000 0.9480 0.9489 0.9498 0.9506 0.9514
2031.000000 0.9521 0.9530 0.9538 0.9547 0.9555
2026.000000 0.9563 0.9571 0.9580 0.9588 0.9596
2021.000000 0.9604 0.9613 0.9616 0.9618 0.9618
2016.000000 0.9618 0.9618 0.9618 0.9618 0.9618
2011.000000 0.9609 0.9600 0.9588 0.9575 0.9571
2006.000000 0.9567 0.9566 0.9565 0.9564 0.9563
2001.000000 0.9561 0.9560 0.9558 0.9557 0.9562
1996.000000 0.9568 0.9574 0.9580 0.9586 0.9592
1991.000000 0.9598 0.9604 0.9610 0.9615 0.9621
1986.000000 0.9628 0.9635 0.9641 0.9648 0.9654
1981.000000 0.9661 0.9667 0.9674 0.9680 0.9687
1976.000000 0.9695 0.9702 0.9710 0.9717 0.9725
1971.000000 0.9733 0.9742 0.9751 0.9760 0.9768
1966.000000 0.9778 0.9788 0.9808 0.9828 0.9851
1961.000000 0.9849 0.9848 0.9846 0.9840 0.9834
1956.000000 0.9828 0.9823 0.9821 0.9821 0.9825
1951.000000 0.9830 0.9834 0.9838 0.9842 0.9846
1946.000000 0.9850 0.9853 0.9856 0.9859 0.9863
1941.000000 0.9866 0.9868 0.9871 0.9875 0.9878
1936.000000 0.9881 0.9884 0.9887 0.9890 0.9892
1931.000000 0.9892 0.9892 0.9892 0.9892 0.9892
1926.000000 0.9892 0.9892 0.9892 0.9888 0.9885
1921.000000 0.9881 0.9877 0.9874 0.9870 0.9867
1916.000000 0.9863 0.9863 0.9865 0.9866 0.9868
1911.000000 0.9868 0.9870 0.9871 0.9873 0.9874
1906.000000 0.9875 0.9875 0.9875 0.9874 0.9873
1901.000000 0.9873 0.9871 0.9871 0.9870 0.9868
1896.000000 0.9865 0.9858 0.9850 0.9843 0.9835
1891.000000 0.9827 0.9820 0.9812 0.9805 0.9797
1886.000000 0.9789 0.9782 0.9775 0.9767 0.9760
1881.000000 0.9753 0.9746 0.9739 0.9731 0.9724
1876.000000 0.9717 0.9711 0.9705 0.9700 0.9695
1871.000000 0.9690 0.9685 0.9680 0.9675 0.9670
1866.000000 0.9668 0.9668 0.9668 0.9668 0.9668
1861.000000 0.9668 0.9668 0.9671 0.9674 0.9675
1856.000000 0.9678 0.9681 0.9684 0.9688 0.9693
1851.000000 0.9699 0.9705 0.9711 0.9714 0.9715
1846.000000 0.9715 0.9716 0.9716 0.9716 0.9717
1841.000000 0.9717 0.9715 0.9712 0.9709 0.9705
1836.000000 0.9702 0.9699 0.9695 0.9690 0.9685
1831.000000 0.9680 0.9675 0.9668 0.9664 0.9659
1826.000000 0.9653 0.9645 0.9637 0.9628 0.9620
1821.000000 0.9613 0.9606 0.9599 0.9592 0.9585
1816.000000 0.9574 0.9562 0.9551 0.9540 0.9528
1811.000000 0.9511 0.9493 0.9475 0.9458 0.9441
1806.000000 0.9424 0.9407 0.9385 0.9361 0.9338
1801.000000 0.9315 0.9292 0.9258 0.9209 0.9160
1796.000000 0.9115 0.9071 0.9028 0.8984 0.8941
1791.000000 0.8901 0.8861 0.8821 0.8780 0.8740
1786.000000 0.8686 0.8617 0.8549 0.8480 0.8424
1781.000000 0.8368 0.8312 0.8257 0.8200 0.8118
1776.000000 0.8036 0.7955 0.7862 0.7761 0.7660
1771.000000 0.7362 0.7153 0.6975 0.6811 0.6649
1766.000000 0.6366 0.5789 0.4988 0.4652 0.4523
1761.000000 0.4437 0.4423 0.4414 0.4404 0.4394
1756.000000 0.4383 0.4234 0.3905 0.3576 0.3247
1751.000000 0.2918 0.2588 0.2259 0.1929 0.1712
1746.000000 0.1596 0.1494 0.1402 0.1317 0.1231
1741.000000 0.1114 0.0920 0.0859 0.0826 0.0782
1736.000000 0.0798 0.0795 0.0803 0.0835 0.0947
1731.000000 0.1238 0.1530 0.1822 0.2113 0.2405
1726.000000 0.2697 0.2989 0.3280 0.3572 0.3864
1721.000000 0.4156 0.4234 0.4242 0.4231 0.4068
1716.000000 0.3795 0.3521 0.3247 0.2973 0.2699
1711.000000 0.2425 0.2151 0.1877 0.1603 0.1384
1706.000000 0.1237 0.1126 0.1026 0.0968 0.0909
1701.000000 0.0831 0.0805 0.0798 0.0787 0.0784
1696.000000 0.0784 0.0814 0.0846 0.0880 0.0906
1691.000000 0.0930 0.0955 0.0979 0.1013 0.1072
1686.000000 0.1146 0.1310 0.1565 0.2004 0.2284
1681.000000 0.2466 0.2647 0.2828 0.3009 0.3190
1676.000000 0.3371 0.3552 0.3732 0.3914 0.4095
1671.000000 0.4276 0.4457 0.4638 0.4804 0.4936
1666.000000 0.5054 0.5150 0.5210 0.5264 0.5317
1661.000000 0.5348 0.5379 0.5402 0.5416 0.5426
1656.000000 0.5410 0.5398 0.5385 0.5372 0.5349
1651.000000 0.5323 0.5296 0.5287 0.5282 0.5276
1646.000000 0.5271 0.5266 0.5260 0.5254 0.5232
1641.000000 0.5210 0.5188 0.5166 0.5142 0.5107
1636.000000 0.5072 0.5037 0.5001 0.4944 0.4887
1631.000000 0.4830 0.4768 0.4680 0.4593 0.4505
1626.000000 0.4364 0.4197 0.3618 0.3360 0.3154
1621.000000 0.2973 0.2790 0.2442 0.2120 0.1798
1616.000000 0.1599 0.1533 0.1485 0.1451 0.1458
1611.000000 0.1454 0.1478 0.1562 0.1636 0.1713
1606.000000 0.1806 0.1884 0.1910 0.1963 0.1925
1601.000000 0.1884 0.1829 0.1752 0.1665 0.1585
1596.000000 0.1509 0.1460 0.1414 0.1371 0.1323
1591.000000 0.1346 0.1346 0.1365 0.1481 0.1884
1586.000000 0.2029 0.2177 0.2329 0.2461 0.2552
1581.000000 0.2644 0.2752 0.2871 0.2999 0.3160
1576.000000 0.3295 0.3409 0.3518 0.3591 0.3662
1571.000000 0.3734 0.3802 0.3866 0.3929 0.3993
1566.000000 0.4057 0.4106 0.4153 0.4200 0.4246
1561.000000 0.4293 0.4340 0.4386 0.4431 0.4477
1556.000000 0.4522 0.4568 0.4612 0.4657 0.4700
1551.000000 0.4742 0.4785 0.4824 0.4859 0.4893
1546.000000 0.4928 0.4962 0.4991 0.5012 0.5034
1541.000000 0.5054 0.5075 0.5095 0.5115 0.5135
1536.000000 0.5156 0.5176 0.5202 0.5235 0.5269
1531.000000 0.5307 0.5346 0.5385 0.5432 0.5481
1526.000000 0.5531 0.5580 0.5631 0.5683 0.5735
1521.000000 0.5774 0.5808 0.5842 0.5870 0.5897
1516.000000 0.5925 0.5952 0.5979 0.6005 0.6028
1511.000000 0.6052 0.6075 0.6095 0.6114 0.6133
1506.000000 0.6153 0.6172 0.6184 0.6192 0.6198
1501.000000 0.6198 0.6198 0.6199 0.6200 0.6201
1496.000000 0.6201 0.6171 0.6129 0.6085 0.6036
1491.000000 0.5987 0.5935 0.5810 0.5686 0.5575
1486.000000 0.5464 0.5347 0.5230 0.5110 0.4985
1481.000000 0.4862 0.4752 0.4642 0.4560 0.4491
1476.000000 0.4406 0.4327 0.4264 0.4207 0.4173
1471.000000 0.4177 0.4177 0.4177 0.4179 0.4180
1466.000000 0.4184 0.4188 0.4192 0.4196 0.4204
1461.000000 0.4214 0.4224 0.4240 0.4258 0.4276
1456.000000 0.4295 0.4312 0.4331 0.4355 0.4388
1451.000000 0.4420 0.4453 0.4485 0.4518 0.4551
1446.000000 0.4590 0.4630 0.4669 0.4708 0.4752
1441.000000 0.4804 0.4856 0.4909 0.4960 0.5010
1436.000000 0.5055 0.5099 0.5143 0.5187 0.5231
1431.000000 0.5283 0.5338 0.5393 0.5448 0.5503
1426.000000 0.5560 0.5620 0.5680 0.5739 0.5799
1421.000000 0.5857 0.5915 0.5973 0.6022 0.6069
1416.000000 0.6110 0.6152 0.6188 0.6219 0.6244
1411.000000 0.6260 0.6275 0.6273 0.6271 0.6269
1406.000000 0.6275 0.6257 0.6243 0.6225 0.6192
1401.000000 0.6154 0.6090 0.6026 0.5962 0.5900
1396.000000 0.5837 0.5760 0.5668 0.5576 0.5479
1391.000000 0.5359 0.5249 0.5187 0.5126 0.5064
1386.000000 0.4983 0.4887 0.4791 0.4687 0.4582
1381.000000 0.4476 0.4367 0.4259 0.4189 0.4120
1376.000000 0.4056 0.3999 0.3942 0.3841 0.3749
1371.000000 0.3707 0.3664 0.3622 0.3580 0.3537
1366.000000 0.3493 0.3434 0.3380 0.3330 0.3307
1361.000000 0.3284 0.3262 0.3242 0.3220 0.3192
1356.000000 0.3164 0.3141 0.3123 0.3105 0.3097
1351.000000 0.3097 0.3100 0.3102 0.3103 0.3147
1346.000000 0.3229 0.3293 0.3366 0.3428 0.3459
1341.000000 0.3491 0.3508 0.3521 0.3532 0.3545
1336.000000 0.3557 0.3629 0.3708 0.3788 0.3855
1331.000000 0.3921 0.3987 0.4053 0.4123 0.4201
1326.000000 0.4279 0.4357 0.4445 0.4552 0.4659
1321.000000 0.4752 0.4820 0.4887 0.4955 0.5023
1316.000000 0.5090 0.5158 0.5226 0.5291 0.5337
1311.000000 0.5383 0.5429 0.5474 0.5520 0.5566
1306.000000 0.5610 0.5656 0.5700 0.5745 0.5789
1301.000000 0.5834 0.5866 0.5892 0.5918 0.5944
1296.000000 0.5970 0.5996 0.6022 0.6045 0.6065
1291.000000 0.6085 0.6106 0.6126 0.6146 0.6166
1286.000000 0.6187 0.6204 0.6222 0.6239 0.6256
1281.000000 0.6273 0.6291 0.6304 0.6316 0.6328
1276.000000 0.6340 0.6352 0.6364 0.6377 0.6383
1271.000000 0.6388 0.6394 0.6399 0.6404 0.6408
1266.000000 0.6411 0.6415 0.6418 0.6421 0.6424
1261.000000 0.6433 0.6447 0.6460 0.6475 0.6491
1256.000000 0.6506 0.6521 0.6535 0.6547 0.6556
1251.000000 0.6560 0.6562 0.6565 0.6598 0.6571
1246.000000 0.6575 0.6553 0.6525 0.6512 0.6500
1241.000000 0.6487 0.6478 0.6474 0.6468 0.6464
1236.000000 0.6458 0.6453 0.6447 0.6440 0.6433
1231.000000 0.6425 0.6418 0.6412 0.6407 0.6400
1226.000000 0.6394 0.6387 0.6381 0.6375 0.6368
1221.000000 0.6362 0.6356 0.6349 0.6341 0.6334
1216.000000 0.6326 0.6319 0.6310 0.6304 0.6296
1211.000000 0.6289 0.6281 0.6274 0.6266 0.6259
1206.000000 0.6251 0.6244 0.6236 0.6229 0.6220
1201.000000 0.6210 0.6200 0.6190 0.6180 0.6170
1196.000000 0.6160 0.6150 0.6140 0.6120 0.6099
1191.000000 0.6078 0.6057 0.6036 0.6015 0.5994
1186.000000 0.5966 0.5935 0.5903 0.5872 0.5842
1181.000000 0.5812 0.5784 0.5756 0.5723 0.5684
1176.000000 0.5645 0.5607 0.5573 0.5539 0.5487
1171.000000 0.5415 0.5339 0.5239 0.5146 0.5101
1166.000000 0.5055 0.5009 0.4962 0.4912 0.4864
1161.000000 0.4816 0.4767 0.4718 0.4669 0.4596
1156.000000 0.4518 0.4440 0.4362 0.4281 0.4199
1151.000000 0.4091 0.3950 0.3808 0.3712 0.3620
1146.000000 0.3528 0.3442 0.3364 0.3289 0.3212
1141.000000 0.3082 0.2912 0.2768 0.2624 0.2514
1136.000000 0.2413 0.2323 0.2245 0.2166 0.2057
1131.000000 0.1935 0.1840 0.1772 0.1704 0.1634
1126.000000 0.1556 0.1484 0.1423 0.1361 0.1308
1121.000000 0.1263 0.1221 0.1191 0.1161 0.1131
1116.000000 0.1108 0.1091 0.1074 0.1056 0.1039
1111.000000 0.1022 0.1004 0.0984 0.0963 0.0942
1106.000000 0.0921 0.0891 0.0859 0.0822 0.0786
1101.000000 0.0753 0.0729 0.0704 0.0682 0.0671
1096.000000 0.0661 0.0650 0.0642 0.0635 0.0628
1091.000000 0.0626 0.0633 0.0634 0.0634 0.0641
1086.000000 0.0648 0.0656 0.0677 0.0698 0.0721
1081.000000 0.0744 0.0771 0.0802 0.0812 0.0822
1076.000000 0.0867 0.0839 0.0846 0.0830 0.0807
1071.000000 0.0787 0.0768 0.0750 0.0745 0.0740
1066.000000 0.0740 0.0740 0.0742 0.0752 0.0794
1061.000000 0.0773 0.0784 0.0803 0.0832 0.0872
1056.000000 0.1009 0.1114 0.1205 0.1296 0.1379
1051.000000 0.1460 0.1541 0.1622 0.1714 0.1807
1046.000000 0.1900 0.1986 0.2068 0.2149 0.2233
1041.000000 0.2323 0.2413 0.2503 0.2615 0.2731
1036.000000 0.2847 0.2952 0.3048 0.3143 0.3239
1031.000000 0.3329 0.3412 0.3497 0.3573 0.3630
1026.000000 0.3688 0.3745 0.3802 0.3859 0.3999
1021.000000 0.4360 0.4612 0.4742 0.4870 0.4970
1016.000000 0.5060 0.5146 0.5229 0.5305 0.5382
1011.000000 0.5457 0.5530 0.5602 0.5653 0.5690
1006.000000 0.5726 0.5762 0.5799 0.5836 0.5872
1001.000000 0.5919 0.5967 0.6014 0.6072 0.6137
996.000000 0.6191 0.6245 0.6300 0.6344 0.6385
991.000000 0.6425 0.6468 0.6511 0.6545 0.6591
986.000000 0.6625 0.6653 0.6668 0.6684 0.6686
981.000000 0.6691 0.6535 0.6272 0.6008 0.5745
976.000000 0.5481 0.5184 0.5214 0.5480 0.5826
971.000000 0.6173 0.6508 0.6574 0.6641 0.6711
966.000000 0.6784 0.6856 0.6908 0.6949 0.6988
961.000000 0.7025 0.7060 0.7088 0.7104 0.7119
956.000000 0.7135 0.7145 0.7188 0.7153 0.7154
951.000000 0.7148 0.7132 0.7101 0.7060 0.7017
946.000000 0.6968 0.6915 0.6850 0.6791 0.6608
941.000000 0.6415 0.6223 0.6031 0.5838 0.5646
936.000000 0.5558 0.5510 0.5505 0.5499 0.5507
931.000000 0.5555 0.5667 0.5915 0.6090 0.6236
926.000000 0.6360 0.6448 0.6536 0.6622 0.6710
921.000000 0.6791 0.6871 0.6951 0.7031 0.7107
916.000000 0.7168 0.7232 0.7294 0.7357 0.7411
911.000000 0.7458 0.7506 0.7551 0.7591 0.7625
906.000000 0.7661 0.7686 0.7704 0.7721 0.7740
901.000000 0.7756 0.7762 0.7769 0.7776 0.7784
896.000000 0.7790 0.7797 0.7804 0.7811 0.7821
891.000000 0.7843 0.7865 0.7887 0.7910 0.7943
886.000000 0.7976 0.8010 0.8043 0.8075 0.8099
881.000000 0.8124 0.8149 0.8171 0.8190 0.8208
876.000000 0.8224 0.8230 0.8235 0.8240 0.8246
871.000000 0.8253 0.8260 0.8292 0.8274 0.8281
866.000000 0.8275 0.8271 0.8267 0.8262 0.8258
861.000000 0.8250 0.8238 0.8227 0.8215 0.8204
856.000000 0.8193 0.8181 0.8171 0.8165 0.8157
851.000000 0.8150 0.8142 0.8135 0.8128 0.8119
846.000000 0.8112 0.8108 0.8106 0.8104 0.8101
841.000000 0.8099 0.8097 0.8094 0.8092 0.8086
836.000000 0.8080 0.8074 0.8068 0.8061 0.8055
831.000000 0.8049 0.8043 0.8037 0.8028 0.8018
826.000000 0.8008 0.7997 0.7987 0.7976 0.7965
821.000000 0.7956 0.7944 0.7918 0.7894 0.7868
816.000000 0.7843 0.7818 0.7789 0.7755 0.7719
811.000000 0.7686 0.7651 0.7617 0.7582 0.7550
806.000000 0.7518 0.7486 0.7455 0.7422 0.7403
801.000000 0.7388 0.7372 0.7358 0.7343 0.7328
796.000000 0.7315 0.7310 0.7303 0.7297 0.7290
791.000000 0.7284 0.7276 0.7271 0.7262 0.7246
786.000000 0.7228 0.7212 0.7196 0.7182 0.7161
781.000000 0.7143 0.7124 0.7105 0.7085 0.7054
776.000000 0.7018 0.6984 0.6948 0.6842 0.6607
771.000000 0.6302 0.6112 0.5924 0.5735 0.5546
766.000000 0.5357 0.5168 0.4979 0.4790 0.4649
761.000000 0.4640 0.4634 0.4746 0.4862 0.4981
756.000000 0.5098 0.5215 0.5333 0.5450 0.5567
751.000000 0.5628 0.5637 0.5673 0.5548 0.5398
746.000000 0.5249 0.5100 0.4951 0.4802 0.4653
741.000000 0.4504 0.4355 0.4289 0.4267 0.4364
736.000000 0.4482 0.4599 0.4716 0.4833 0.5040
731.000000 0.5032 0.5038 0.4986 0.4914 0.4843
726.000000 0.4771 0.4700 0.4628 0.4557 0.4485
721.000000 0.4414 0.4342 0.4271 0.4199 0.4128
716.000000 0.4122 0.4099 0.4110 0.4130 0.4149
711.000000 0.4168 0.4182 0.4194 0.4201 0.4207
706.000000 0.4206 0.4205 0.4200 0.4195 0.4190
701.000000 0.4191 0.4192 0.4195 0.4198 0.4201
696.000000 0.4204 0.4207 0.4218 0.4228 0.4239
691.000000 0.4250 0.4260 0.4272 0.4283 0.4294
686.000000 0.4305 0.4317 0.4322 0.4512 0.4705
681.000000 0.4745 0.4741 0.4784 0.4671 0.4643
676.000000 0.4619 0.4595 0.4571 0.4557 0.4543
671.000000 0.4500 0.4448 0.4395 0.4342 0.4283
666.000000 0.4217 0.4136 0.4110 0.4086 0.4060
661.000000 0.4034 0.3990 0.3946 0.3903 0.3859
656.000000 0.3816 0.3768 0.3703 0.3637 0.3571
651.000000 0.3503 0.3432 0.3362 0.3291 0.3218
646.000000 0.3147 0.3069 0.2984 0.2900 0.2815
641.000000 0.2764 0.2718 0.2673 0.2627 0.2582
636.000000 0.2539 0.2499 0.2460 0.2420 0.2379
631.000000 0.2317 0.2257 0.2203 0.2150 0.2115
626.000000 0.2080 0.2052 0.2045 0.2044 0.2039
621.000000 0.2060 0.2166 0.2287 0.2312 0.2324
616.000000 0.2328 0.2357 0.2334 0.2331 0.2299
611.000000 0.2265 0.2231 0.2198 0.2196 0.2183
606.000000 0.2200 0.2225 0.2524 0.2594 0.2664
601.000000 0.2725 0.2772 0.2819 0.2859 0.2861
596.000000 0.2863 0.2865 0.2869 0.2875 0.2880
591.000000 0.2884 0.2890 0.2896 0.2901 0.2915
586.000000 0.2928 0.2942 0.2989 0.3033 0.3071
581.000000 0.3109 0.3146 0.3184 0.3222 0.3282
576.000000 0.3350 0.3418 0.3477 0.3534 0.3592
571.000000 0.3644 0.3694 0.3744 0.3793 0.3859
566.000000 0.3918 0.3957 0.3980 0.3982 0.3982
561.000000 0.3984 0.3986 0.3988 0.3990 0.3998
556.000000 0.4007 0.4016 0.4026 0.4089 0.4145
551.000000 0.4185 0.4225 0.4266 0.4306 0.4346
546.000000 0.4386 0.4426 0.4467 0.4507 0.4547
541.000000 0.4588 0.4629 0.4670 0.4710 0.4752
536.000000 0.4793 0.4834 0.4876 0.4919 0.4962
531.000000 0.5005 0.5047 0.5090 0.5125 0.5160
526.000000 0.5197 0.5234 0.5271 0.5307 0.5336
521.000000 0.5365 0.5379 0.5391 0.5403 0.5402
516.000000 0.5400 0.5421 0.5397 0.5396 0.5395
511.000000 0.5370 0.5344 0.5318 0.5295 0.5273
506.000000 0.5250 0.5228 0.5206 0.5184 0.5162
501.000000 0.5140 0.5117 0.5095 0.5073 0.5051
496.000000 0.5030 0.5009 0.4989 0.4968 0.4947
491.000000 0.4926 0.4906 0.4885 0.4864 0.4844
486.000000 0.4826 0.4809 0.4792 0.4774 0.4757
481.000000 0.4740 0.4722 0.4704 0.4686 0.4667
476.000000 0.4649 0.4630 0.4612 0.4601 0.4589
471.000000 0.4577 0.4566 0.4555 0.4547 0.4538
##END=
