##TITLE=Ethomeen T/12 hydrochloride
##JCAMP-DX=4.24
##DATA TYPE=INFRARED SPECTRUM
##CLASS=COBLENTZ III
##ORIGIN=BRITISH PETROLEUM CO. LTD., ENGLAND
##OWNER=Copyright (C) 1987 by the Coblentz Society
Collection (C) 2018 copyright by the U.S. Secretary of Commerce
on behalf of the United States of America. All rights reserved.
##DATE=1972/08/01
##MOLFORM=C20-22 H44-48 Cl N O2
##SOURCE REFERENCE=COBLENTZ NO. 9069
##$NIST ID=B6009069
##$NIST SOURCE=COBLENTZ
##$NIST IMAGE=cob9069
##SPECTROMETER/DATA SYSTEM=PERKIN-ELMER 157
##STATE=SEMI-SOLID (NEAT)
$$ R - DERIVED FROM TALLOW FATTY ACID SOURCE
$$ REF. Can. J. Spec., 18,4,101, '73 C. S. DOUSE and P. B. TOOKE
##SAMPLING PROCEDURE=TRANSMISSION
##RESOLUTION=2
##DATA PROCESSING=DIGITIZED BY COBLENTZ SOCIETY (BATCH II) FROM HARD COPY
##XUNITS=1/CM
##YUNITS=TRANSMITTANCE
##XFACTOR=1.0
##YFACTOR=1
##FIRSTX=668
##LASTX=4000
##FIRSTY=0.4937
##MAXX=4000
##MINX=668
##MAXY=0.7434
##MINY=0.0363
##NPOINTS=3333
##XYDATA=(X++(Y..Y))
668.000000 0.4937 0.4955 0.4977 0.5031 0.5091
673.000000 0.5124 0.5135 0.5142 0.5153 0.5171
678.000000 0.5207 0.5307 0.5339 0.5345 0.5351
683.000000 0.5352 0.5352 0.5353 0.5355 0.5357
688.000000 0.5359 0.5360 0.5364 0.5372 0.5397
693.000000 0.5425 0.5426 0.5436 0.5445 0.5454
698.000000 0.5445 0.5406 0.5363 0.5319 0.5270
703.000000 0.5231 0.5193 0.5163 0.5145 0.5127
708.000000 0.5094 0.5024 0.4910 0.4790 0.4666
713.000000 0.4540 0.4363 0.4240 0.4122 0.3943
718.000000 0.3706 0.3519 0.3437 0.3446 0.3508
723.000000 0.3551 0.3581 0.3768 0.3954 0.4084
728.000000 0.4194 0.4309 0.4412 0.4507 0.4598
733.000000 0.4682 0.4753 0.4807 0.4859 0.4916
738.000000 0.4973 0.5021 0.5068 0.5112 0.5156
743.000000 0.5197 0.5238 0.5275 0.5311 0.5337
748.000000 0.5352 0.5358 0.5366 0.5392 0.5420
753.000000 0.5449 0.5474 0.5498 0.5526 0.5562
758.000000 0.5601 0.5609 0.5612 0.5614 0.5625
763.000000 0.5648 0.5668 0.5691 0.5714 0.5738
768.000000 0.5760 0.5782 0.5803 0.5824 0.5840
773.000000 0.5855 0.5869 0.5883 0.5898 0.5912
778.000000 0.5927 0.5946 0.5964 0.5982 0.6001
783.000000 0.6019 0.6038 0.6056 0.6073 0.6090
788.000000 0.6115 0.6146 0.6168 0.6176 0.6182
793.000000 0.6188 0.6216 0.6243 0.6256 0.6255
798.000000 0.6263 0.6280 0.6297 0.6307 0.6311
803.000000 0.6314 0.6315 0.6315 0.6315 0.6316
808.000000 0.6316 0.6316 0.6316 0.6316 0.6316
813.000000 0.6315 0.6315 0.6313 0.6351 0.6310
818.000000 0.6309 0.6308 0.6305 0.6304 0.6301
823.000000 0.6297 0.6292 0.6287 0.6282 0.6276
828.000000 0.6271 0.6266 0.6260 0.6252 0.6246
833.000000 0.6239 0.6233 0.6222 0.6205 0.6188
838.000000 0.6171 0.6153 0.6136 0.6115 0.6095
843.000000 0.6075 0.6055 0.6035 0.6012 0.5990
848.000000 0.5967 0.5945 0.5916 0.5887 0.5867
853.000000 0.5851 0.5836 0.5827 0.5822 0.5818
858.000000 0.5802 0.5784 0.5757 0.5731 0.5712
863.000000 0.5693 0.5689 0.5685 0.5680 0.5671
868.000000 0.5657 0.5625 0.5571 0.5525 0.5486
873.000000 0.5430 0.5391 0.5369 0.5358 0.5345
878.000000 0.5330 0.5303 0.5267 0.5211 0.5161
883.000000 0.5128 0.5108 0.5082 0.5048 0.5010
888.000000 0.4963 0.4918 0.4877 0.4846 0.4833
893.000000 0.4826 0.4823 0.4819 0.4816 0.4814
898.000000 0.4811 0.4809 0.4807 0.4807 0.4787
903.000000 0.4807 0.4817 0.4835 0.4860 0.4892
908.000000 0.4928 0.4964 0.5000 0.5037 0.5073
913.000000 0.5110 0.5146 0.5189 0.5235 0.5279
918.000000 0.5310 0.5338 0.5354 0.5364 0.5366
923.000000 0.5367 0.5364 0.5359 0.5385 0.5349
928.000000 0.5340 0.5329 0.5317 0.5304 0.5283
933.000000 0.5263 0.5243 0.5223 0.5204 0.5185
938.000000 0.5166 0.5145 0.5121 0.5096 0.5072
943.000000 0.5047 0.5023 0.4998 0.4969 0.4938
948.000000 0.4906 0.4875 0.4843 0.4810 0.4777
953.000000 0.4744 0.4711 0.4678 0.4638 0.4600
958.000000 0.4562 0.4518 0.4474 0.4455 0.4436
963.000000 0.4424 0.4411 0.4403 0.4400 0.4399
968.000000 0.4404 0.4410 0.4415 0.4423 0.4430
973.000000 0.4437 0.4445 0.4444 0.4436 0.4425
978.000000 0.4390 0.4354 0.4317 0.4280 0.4252
983.000000 0.4226 0.4199 0.4172 0.4145 0.4118
988.000000 0.4090 0.4057 0.4015 0.3972 0.3920
993.000000 0.3855 0.3811 0.3773 0.3736 0.3699
998.000000 0.3664 0.3630 0.3597 0.3563 0.3526
1003.000000 0.3485 0.3445 0.3430 0.3419 0.3410
1008.000000 0.3404 0.3397 0.3390 0.3384 0.3377
1013.000000 0.3362 0.3341 0.3322 0.3278 0.3232
1018.000000 0.3189 0.3167 0.3145 0.3124 0.3112
1023.000000 0.3101 0.3091 0.3080 0.3056 0.3031
1028.000000 0.3004 0.2973 0.2941 0.2909 0.2873
1033.000000 0.2835 0.2796 0.2758 0.2713 0.2664
1038.000000 0.2616 0.2567 0.2520 0.2474 0.2429
1043.000000 0.2383 0.2332 0.2282 0.2232 0.2170
1048.000000 0.2107 0.2036 0.1970 0.1930 0.1893
1053.000000 0.1859 0.1826 0.1778 0.1730 0.1685
1058.000000 0.1648 0.1610 0.1576 0.1553 0.1530
1063.000000 0.1508 0.1485 0.1464 0.1450 0.1437
1068.000000 0.1423 0.1412 0.1401 0.1390 0.1380
1073.000000 0.1371 0.1363 0.1360 0.1358 0.1360
1078.000000 0.1360 0.1372 0.1395 0.1433 0.1474
1083.000000 0.1522 0.1578 0.1638 0.1699 0.1768
1088.000000 0.1851 0.1978 0.2111 0.2247 0.2295
1093.000000 0.2327 0.2359 0.2442 0.2522 0.2599
1098.000000 0.2675 0.2751 0.2828 0.2904 0.2979
1103.000000 0.3055 0.3131 0.3206 0.3282 0.3357
1108.000000 0.3432 0.3507 0.3623 0.3682 0.3748
1113.000000 0.3912 0.3994 0.4061 0.4137 0.4192
1118.000000 0.4241 0.4279 0.4316 0.4354 0.4424
1123.000000 0.4490 0.4533 0.4576 0.4602 0.4614
1128.000000 0.4615 0.4620 0.4629 0.4645 0.4685
1133.000000 0.4784 0.4845 0.4895 0.4959 0.5020
1138.000000 0.5072 0.5117 0.5145 0.5174 0.5198
1143.000000 0.5216 0.5235 0.5251 0.5262 0.5271
1148.000000 0.5276 0.5281 0.5285 0.5288 0.5292
1153.000000 0.5295 0.5298 0.5300 0.5303 0.5305
1158.000000 0.5304 0.5304 0.5308 0.5303 0.5303
1163.000000 0.5302 0.5302 0.5300 0.5299 0.5296
1168.000000 0.5294 0.5292 0.5288 0.5279 0.5271
1173.000000 0.5258 0.5243 0.5228 0.5213 0.5201
1178.000000 0.5188 0.5176 0.5162 0.5149 0.5131
1183.000000 0.5114 0.5097 0.5078 0.5050 0.5024
1188.000000 0.4997 0.4970 0.4938 0.4905 0.4870
1193.000000 0.4833 0.4792 0.4750 0.4711 0.4673
1198.000000 0.4637 0.4612 0.4588 0.4564 0.4539
1203.000000 0.4520 0.4503 0.4486 0.4469 0.4453
1208.000000 0.4439 0.4428 0.4417 0.4406 0.4396
1213.000000 0.4385 0.4376 0.4369 0.4361 0.4353
1218.000000 0.4346 0.4338 0.4331 0.4326 0.4320
1223.000000 0.4315 0.4310 0.4304 0.4299 0.4294
1228.000000 0.4292 0.4289 0.4287 0.4284 0.4283
1233.000000 0.4280 0.4276 0.4268 0.4258 0.4244
1238.000000 0.4227 0.4211 0.4198 0.4190 0.4181
1243.000000 0.4179 0.4177 0.4174 0.4171 0.4169
1248.000000 0.4168 0.4166 0.4165 0.4164 0.4162
1253.000000 0.4161 0.4160 0.4159 0.4157 0.4156
1258.000000 0.4156 0.4156 0.4156 0.4155 0.4155
1263.000000 0.4154 0.4153 0.4152 0.4151 0.4150
1268.000000 0.4149 0.4148 0.4147 0.4143 0.4135
1273.000000 0.4125 0.4097 0.4079 0.4065 0.4052
1278.000000 0.4042 0.4034 0.4026 0.4018 0.4012
1283.000000 0.4008 0.4004 0.3996 0.3990 0.3981
1288.000000 0.3962 0.3940 0.3918 0.3895 0.3871
1293.000000 0.3851 0.3838 0.3823 0.3804 0.3745
1298.000000 0.3684 0.3669 0.3654 0.3643 0.3636
1303.000000 0.3628 0.3622 0.3617 0.3612 0.3608
1308.000000 0.3603 0.3600 0.3599 0.3597 0.3596
1313.000000 0.3595 0.3593 0.3592 0.3590 0.3589
1318.000000 0.3589 0.3589 0.3589 0.3589 0.3589
1323.000000 0.3588 0.3587 0.3586 0.3585 0.3584
1328.000000 0.3582 0.3577 0.3569 0.3552 0.3534
1333.000000 0.3515 0.3496 0.3474 0.3453 0.3440
1338.000000 0.3431 0.3426 0.3420 0.3415 0.3412
1343.000000 0.3409 0.3406 0.3401 0.3389 0.3369
1348.000000 0.3260 0.3225 0.3193 0.3170 0.3157
1353.000000 0.3147 0.3142 0.3138 0.3134 0.3132
1358.000000 0.3129 0.3124 0.3110 0.3084 0.3056
1363.000000 0.3030 0.3004 0.2979 0.2955 0.2931
1368.000000 0.2908 0.2882 0.2853 0.2824 0.2795
1373.000000 0.2760 0.2703 0.2686 0.2681 0.2677
1378.000000 0.2676 0.2675 0.2675 0.2675 0.2677
1383.000000 0.2678 0.2678 0.2679 0.2679 0.2679
1388.000000 0.2679 0.2678 0.2678 0.2678 0.2678
1393.000000 0.2678 0.2678 0.2678 0.2676 0.2670
1398.000000 0.2665 0.2659 0.2651 0.2629 0.2608
1403.000000 0.2588 0.2577 0.2570 0.2564 0.2555
1408.000000 0.2541 0.2529 0.2516 0.2502 0.2490
1413.000000 0.2477 0.2464 0.2455 0.2445 0.2436
1418.000000 0.2427 0.2424 0.2421 0.2418 0.2416
1423.000000 0.2409 0.2398 0.2380 0.2359 0.2338
1428.000000 0.2305 0.2261 0.2202 0.2133 0.2062
1433.000000 0.1990 0.1944 0.1923 0.1904 0.1886
1438.000000 0.1866 0.1844 0.1815 0.1775 0.1700
1443.000000 0.1633 0.1587 0.1553 0.1529 0.1506
1448.000000 0.1480 0.1448 0.1407 0.1364 0.1320
1453.000000 0.1268 0.1218 0.1192 0.1183 0.1179
1458.000000 0.1176 0.1172 0.1165 0.1147 0.1122
1463.000000 0.1105 0.1101 0.1101 0.1108 0.1105
1468.000000 0.1118 0.1208 0.1416 0.1579 0.1741
1473.000000 0.1903 0.2065 0.2227 0.2398 0.2584
1478.000000 0.2716 0.2847 0.2979 0.3111 0.3242
1483.000000 0.3373 0.3504 0.3635 0.3765 0.3896
1488.000000 0.4026 0.4156 0.4287 0.4416 0.4581
1493.000000 0.4750 0.4820 0.4868 0.4917 0.4975
1498.000000 0.5268 0.5474 0.5625 0.5738 0.5825
1503.000000 0.5894 0.5949 0.5998 0.6046 0.6086
1508.000000 0.6121 0.6156 0.6191 0.6226 0.6260
1513.000000 0.6294 0.6325 0.6347 0.6367 0.6387
1518.000000 0.6402 0.6416 0.6426 0.6431 0.6437
1523.000000 0.6442 0.6447 0.6453 0.6459 0.6465
1528.000000 0.6473 0.6483 0.6494 0.6504 0.6515
1533.000000 0.6526 0.6538 0.6549 0.6558 0.6565
1538.000000 0.6570 0.6570 0.6568 0.6566 0.6565
1543.000000 0.6563 0.6561 0.6560 0.6563 0.6567
1548.000000 0.6573 0.6578 0.6583 0.6595 0.6593
1553.000000 0.6595 0.6595 0.6594 0.6593 0.6590
1558.000000 0.6587 0.6584 0.6581 0.6577 0.6572
1563.000000 0.6567 0.6563 0.6562 0.6562 0.6562
1568.000000 0.6561 0.6559 0.6557 0.6555 0.6551
1573.000000 0.6546 0.6541 0.6536 0.6528 0.6517
1578.000000 0.6504 0.6494 0.6489 0.6487 0.6484
1583.000000 0.6482 0.6479 0.6477 0.6476 0.6475
1588.000000 0.6474 0.6473 0.6472 0.6471 0.6470
1593.000000 0.6469 0.6468 0.6466 0.6464 0.6462
1598.000000 0.6458 0.6450 0.6443 0.6435 0.6427
1603.000000 0.6420 0.6412 0.6405 0.6399 0.6394
1608.000000 0.6388 0.6383 0.6377 0.6371 0.6366
1613.000000 0.6363 0.6361 0.6359 0.6358 0.6356
1618.000000 0.6354 0.6352 0.6350 0.6348 0.6346
1623.000000 0.6344 0.6344 0.6345 0.6346 0.6325
1628.000000 0.6350 0.6352 0.6353 0.6355 0.6359
1633.000000 0.6364 0.6369 0.6373 0.6378 0.6383
1638.000000 0.6387 0.6392 0.6398 0.6407 0.6418
1643.000000 0.6427 0.6437 0.6447 0.6459 0.6471
1648.000000 0.6482 0.6482 0.6482 0.6483 0.6484
1653.000000 0.6485 0.6489 0.6497 0.6511 0.6525
1658.000000 0.6543 0.6563 0.6584 0.6608 0.6633
1663.000000 0.6657 0.6681 0.6704 0.6725 0.6742
1668.000000 0.6760 0.6777 0.6794 0.6803 0.6811
1673.000000 0.6819 0.6822 0.6823 0.6821 0.6818
1678.000000 0.6815 0.6811 0.6807 0.6816 0.6798
1683.000000 0.6794 0.6789 0.6784 0.6779 0.6774
1688.000000 0.6770 0.6765 0.6760 0.6756 0.6751
1693.000000 0.6746 0.6741 0.6735 0.6730 0.6725
1698.000000 0.6719 0.6714 0.6709 0.6703 0.6697
1703.000000 0.6691 0.6685 0.6681 0.6677 0.6672
1708.000000 0.6669 0.6670 0.6670 0.6670 0.6671
1713.000000 0.6672 0.6673 0.6676 0.6680 0.6683
1718.000000 0.6687 0.6691 0.6697 0.6705 0.6666
1723.000000 0.6763 0.6792 0.6818 0.6843 0.6874
1728.000000 0.6912 0.6956 0.6991 0.7023 0.7052
1733.000000 0.7075 0.7095 0.7114 0.7134 0.7154
1738.000000 0.7173 0.7193 0.7211 0.7230 0.7248
1743.000000 0.7265 0.7279 0.7293 0.7307 0.7322
1748.000000 0.7336 0.7350 0.7360 0.7367 0.7374
1753.000000 0.7380 0.7386 0.7392 0.7397 0.7400
1758.000000 0.7401 0.7403 0.7404 0.7405 0.7407
1763.000000 0.7408 0.7409 0.7409 0.7409 0.7410
1768.000000 0.7410 0.7410 0.7410 0.7411 0.7411
1773.000000 0.7411 0.7411 0.7412 0.7412 0.7412
1778.000000 0.7412 0.7413 0.7413 0.7413 0.7414
1783.000000 0.7414 0.7414 0.7414 0.7415 0.7415
1788.000000 0.7415 0.7415 0.7415 0.7415 0.7415
1793.000000 0.7415 0.7415 0.7415 0.7415 0.7415
1798.000000 0.7415 0.7415 0.7415 0.7415 0.7416
1803.000000 0.7416 0.7416 0.7416 0.7416 0.7416
1808.000000 0.7416 0.7416 0.7416 0.7416 0.7416
1813.000000 0.7416 0.7416 0.7416 0.7416 0.7415
1818.000000 0.7415 0.7415 0.7415 0.7415 0.7415
1823.000000 0.7415 0.7415 0.7415 0.7415 0.7415
1828.000000 0.7415 0.7415 0.7415 0.7414 0.7414
1833.000000 0.7414 0.7414 0.7414 0.7414 0.7414
1838.000000 0.7414 0.7414 0.7414 0.7414 0.7414
1843.000000 0.7414 0.7413 0.7413 0.7413 0.7413
1848.000000 0.7412 0.7412 0.7412 0.7412 0.7411
1853.000000 0.7411 0.7411 0.7411 0.7410 0.7410
1858.000000 0.7410 0.7410 0.7410 0.7409 0.7409
1863.000000 0.7409 0.7409 0.7408 0.7408 0.7408
1868.000000 0.7408 0.7407 0.7407 0.7407 0.7407
1873.000000 0.7406 0.7406 0.7406 0.7405 0.7405
1878.000000 0.7405 0.7405 0.7404 0.7404 0.7404
1883.000000 0.7403 0.7403 0.7403 0.7402 0.7402
1888.000000 0.7402 0.7402 0.7401 0.7401 0.7401
1893.000000 0.7400 0.7399 0.7398 0.7396 0.7393
1898.000000 0.7390 0.7388 0.7386 0.7383 0.7375
1903.000000 0.7367 0.7357 0.7347 0.7338 0.7330
1908.000000 0.7322 0.7314 0.7306 0.7298 0.7290
1913.000000 0.7282 0.7278 0.7274 0.7271 0.7267
1918.000000 0.7264 0.7260 0.7256 0.7253 0.7249
1923.000000 0.7246 0.7242 0.7239 0.7237 0.7234
1928.000000 0.7231 0.7229 0.7226 0.7223 0.7220
1933.000000 0.7218 0.7216 0.7214 0.7213 0.7212
1938.000000 0.7210 0.7209 0.7208 0.7206 0.7205
1943.000000 0.7204 0.7204 0.7202 0.7201 0.7200
1948.000000 0.7198 0.7197 0.7196 0.7194 0.7193
1953.000000 0.7193 0.7193 0.7192 0.7192 0.7191
1958.000000 0.7190 0.7190 0.7189 0.7188 0.7188
1963.000000 0.7187 0.7187 0.7187 0.7186 0.7185
1968.000000 0.7185 0.7184 0.7184 0.7183 0.7182
1973.000000 0.7181 0.7180 0.7179 0.7179 0.7178
1978.000000 0.7176 0.7176 0.7175 0.7174 0.7174
1983.000000 0.7173 0.7172 0.7171 0.7169 0.7165
1988.000000 0.7160 0.7156 0.7151 0.7147 0.7142
1993.000000 0.7137 0.7133 0.7128 0.7123 0.7116
1998.000000 0.7110 0.7104 0.7098 0.7091 0.7086
2003.000000 0.7081 0.7077 0.7074 0.7071 0.7068
2008.000000 0.7065 0.7062 0.7058 0.7054 0.7053
2013.000000 0.7051 0.7050 0.7049 0.7048 0.7046
2018.000000 0.7045 0.7044 0.7043 0.7042 0.7040
2023.000000 0.7038 0.7037 0.7036 0.7034 0.7033
2028.000000 0.7032 0.7031 0.7030 0.7028 0.7027
2033.000000 0.7026 0.7025 0.7024 0.7022 0.7021
2038.000000 0.7020 0.7019 0.7016 0.7012 0.7006
2043.000000 0.6999 0.6993 0.6983 0.6973 0.6965
2048.000000 0.6961 0.6961 0.6960 0.6958 0.6958
2053.000000 0.6957 0.6957 0.6956 0.6954 0.6954
2058.000000 0.6953 0.6952 0.6951 0.6951 0.6950
2063.000000 0.6949 0.6949 0.6948 0.6947 0.6946
2068.000000 0.6945 0.6945 0.6944 0.6943 0.6942
2073.000000 0.6941 0.6941 0.6940 0.6939 0.6938
2078.000000 0.6938 0.6937 0.6935 0.6935 0.6934
2083.000000 0.6933 0.6932 0.6932 0.6931 0.6930
2088.000000 0.6929 0.6928 0.6928 0.6925 0.6922
2093.000000 0.6917 0.6913 0.6909 0.6905 0.6901
2098.000000 0.6897 0.6893 0.6889 0.6885 0.6881
2103.000000 0.6877 0.6873 0.6869 0.6865 0.6862
2108.000000 0.6858 0.6854 0.6851 0.6847 0.6844
2113.000000 0.6842 0.6840 0.6838 0.6835 0.6833
2118.000000 0.6831 0.6829 0.6826 0.6824 0.6820
2123.000000 0.6816 0.6812 0.6807 0.6803 0.6798
2128.000000 0.6794 0.6790 0.6786 0.6782 0.6777
2133.000000 0.6773 0.6769 0.6764 0.6762 0.6759
2138.000000 0.6756 0.6753 0.6751 0.6748 0.6745
2143.000000 0.6742 0.6740 0.6738 0.6735 0.6733
2148.000000 0.6730 0.6727 0.6725 0.6723 0.6722
2153.000000 0.6721 0.6720 0.6719 0.6718 0.6717
2158.000000 0.6716 0.6715 0.6714 0.6713 0.6712
2163.000000 0.6711 0.6710 0.6709 0.6709 0.6708
2168.000000 0.6707 0.6706 0.6705 0.6704 0.6704
2173.000000 0.6703 0.6703 0.6703 0.6703 0.6703
2178.000000 0.6703 0.6703 0.6702 0.6702 0.6701
2183.000000 0.6701 0.6697 0.6692 0.6687 0.6683
2188.000000 0.6677 0.6672 0.6667 0.6662 0.6654
2193.000000 0.6646 0.6639 0.6632 0.6624 0.6616
2198.000000 0.6609 0.6602 0.6594 0.6586 0.6578
2203.000000 0.6571 0.6563 0.6556 0.6549 0.6543
2208.000000 0.6538 0.6533 0.6528 0.6523 0.6517
2213.000000 0.6513 0.6508 0.6504 0.6499 0.6494
2218.000000 0.6489 0.6484 0.6480 0.6475 0.6471
2223.000000 0.6466 0.6461 0.6455 0.6449 0.6443
2228.000000 0.6436 0.6430 0.6424 0.6418 0.6412
2233.000000 0.6405 0.6398 0.6389 0.6381 0.6372
2238.000000 0.6364 0.6355 0.6347 0.6335 0.6323
2243.000000 0.6311 0.6298 0.6285 0.6272 0.6259
2248.000000 0.6246 0.6233 0.6220 0.6209 0.6199
2253.000000 0.6188 0.6178 0.6167 0.6156 0.6145
2258.000000 0.6134 0.6124 0.6114 0.6103 0.6092
2263.000000 0.6082 0.6071 0.6060 0.6049 0.6038
2268.000000 0.6027 0.6014 0.5999 0.5985 0.5970
2273.000000 0.5955 0.5940 0.5926 0.5911 0.5897
2278.000000 0.5882 0.5867 0.5852 0.5838 0.5822
2283.000000 0.5806 0.5790 0.5774 0.5757 0.5740
2288.000000 0.5724 0.5708 0.5691 0.5674 0.5658
2293.000000 0.5642 0.5625 0.5609 0.5592 0.5576
2298.000000 0.5559 0.5540 0.5522 0.5503 0.5485
2303.000000 0.5466 0.5447 0.5429 0.5411 0.5392
2308.000000 0.5374 0.5356 0.5337 0.5319 0.5301
2313.000000 0.5283 0.5266 0.5248 0.5232 0.5216
2318.000000 0.5199 0.5182 0.5166 0.5149 0.5133
2323.000000 0.5116 0.5100 0.5083 0.5064 0.5041
2328.000000 0.5017 0.4991 0.4964 0.4938 0.4911
2333.000000 0.4886 0.4862 0.4839 0.4816 0.4793
2338.000000 0.4770 0.4747 0.4725 0.4704 0.4687
2343.000000 0.4670 0.4660 0.4651 0.4641 0.4631
2348.000000 0.4621 0.4611 0.4601 0.4591 0.4582
2353.000000 0.4572 0.4562 0.4555 0.4549 0.4543
2358.000000 0.4537 0.4532 0.4526 0.4520 0.4513
2363.000000 0.4507 0.4502 0.4497 0.4494 0.4490
2368.000000 0.4486 0.4483 0.4479 0.4476 0.4472
2373.000000 0.4464 0.4456 0.4441 0.4424 0.4408
2378.000000 0.4392 0.4375 0.4359 0.4343 0.4326
2383.000000 0.4310 0.4293 0.4277 0.4260 0.4244
2388.000000 0.4228 0.4212 0.4195 0.4179 0.4163
2393.000000 0.4147 0.4131 0.4115 0.4099 0.4082
2398.000000 0.4066 0.4050 0.4034 0.4018 0.4002
2403.000000 0.3986 0.3970 0.3954 0.3938 0.3922
2408.000000 0.3906 0.3890 0.3874 0.3858 0.3842
2413.000000 0.3827 0.3811 0.3795 0.3779 0.3763
2418.000000 0.3747 0.3731 0.3716 0.3700 0.3684
2423.000000 0.3670 0.3658 0.3646 0.3632 0.3617
2428.000000 0.3603 0.3589 0.3574 0.3559 0.3542
2433.000000 0.3514 0.3485 0.3457 0.3429 0.3402
2438.000000 0.3377 0.3351 0.3330 0.3308 0.3287
2443.000000 0.3265 0.3243 0.3222 0.3200 0.3179
2448.000000 0.3159 0.3139 0.3120 0.3102 0.3083
2453.000000 0.3065 0.3046 0.3027 0.3010 0.2997
2458.000000 0.2983 0.2970 0.2958 0.2945 0.2933
2463.000000 0.2920 0.2907 0.2895 0.2882 0.2869
2468.000000 0.2856 0.2840 0.2824 0.2809 0.2794
2473.000000 0.2781 0.2776 0.2770 0.2764 0.2758
2478.000000 0.2753 0.2747 0.2741 0.2736 0.2730
2483.000000 0.2726 0.2723 0.2721 0.2718 0.2715
2488.000000 0.2712 0.2710 0.2708 0.2705 0.2703
2493.000000 0.2700 0.2698 0.2696 0.2693 0.2691
2498.000000 0.2689 0.2687 0.2685 0.2682 0.2679
2503.000000 0.2674 0.2667 0.2660 0.2652 0.2645
2508.000000 0.2638 0.2632 0.2626 0.2620 0.2615
2513.000000 0.2609 0.2603 0.2597 0.2591 0.2585
2518.000000 0.2579 0.2571 0.2563 0.2554 0.2546
2523.000000 0.2537 0.2528 0.2520 0.2511 0.2502
2528.000000 0.2493 0.2486 0.2478 0.2471 0.2464
2533.000000 0.2457 0.2450 0.2442 0.2435 0.2427
2538.000000 0.2420 0.2413 0.2405 0.2398 0.2391
2543.000000 0.2384 0.2377 0.2369 0.2361 0.2350
2548.000000 0.2340 0.2329 0.2318 0.2308 0.2297
2553.000000 0.2287 0.2276 0.2266 0.2255 0.2242
2558.000000 0.2229 0.2215 0.2201 0.2187 0.2173
2563.000000 0.2159 0.2145 0.2132 0.2120 0.2108
2568.000000 0.2097 0.2086 0.2075 0.2064 0.2053
2573.000000 0.2042 0.2032 0.2021 0.2010 0.1999
2578.000000 0.1989 0.1978 0.1968 0.1958 0.1947
2583.000000 0.1939 0.1933 0.1928 0.1924 0.1921
2588.000000 0.1917 0.1914 0.1910 0.1907 0.1906
2593.000000 0.1904 0.1904 0.1904 0.1904 0.1903
2598.000000 0.1903 0.1902 0.1902 0.1902 0.1902
2603.000000 0.1902 0.1902 0.1901 0.1901 0.1900
2608.000000 0.1900 0.1900 0.1900 0.1900 0.1900
2613.000000 0.1899 0.1899 0.1899 0.1898 0.1898
2618.000000 0.1898 0.1898 0.1898 0.1897 0.1897
2623.000000 0.1897 0.1896 0.1896 0.1896 0.1896
2628.000000 0.1896 0.1895 0.1895 0.1895 0.1894
2633.000000 0.1894 0.1894 0.1894 0.1894 0.1894
2638.000000 0.1895 0.1895 0.1896 0.1896 0.1896
2643.000000 0.1895 0.1897 0.1897 0.1898 0.1899
2648.000000 0.1899 0.1900 0.1900 0.1900 0.1901
2653.000000 0.1901 0.1902 0.1902 0.1902 0.1903
2658.000000 0.1903 0.1903 0.1904 0.1904 0.1904
2663.000000 0.1905 0.1905 0.1905 0.1906 0.1906
2668.000000 0.1906 0.1907 0.1908 0.1909 0.1909
2673.000000 0.1910 0.1911 0.1912 0.1913 0.1914
2678.000000 0.1915 0.1916 0.1917 0.1918 0.1918
2683.000000 0.1919 0.1920 0.1921 0.1922 0.1923
2688.000000 0.1923 0.1924 0.1925 0.1926 0.1927
2693.000000 0.1929 0.1930 0.1930 0.1931 0.1932
2698.000000 0.1933 0.1934 0.1935 0.1935 0.1936
2703.000000 0.1937 0.1938 0.1939 0.1940 0.1943
2708.000000 0.1945 0.1948 0.1951 0.1954 0.1957
2713.000000 0.1960 0.1962 0.1965 0.1968 0.1971
2718.000000 0.1974 0.1977 0.1980 0.1983 0.1986
2723.000000 0.1989 0.1992 0.1996 0.1999 0.2003
2728.000000 0.2006 0.2010 0.2013 0.2017 0.2021
2733.000000 0.2024 0.2027 0.2031 0.2033 0.2034
2738.000000 0.2036 0.2037 0.2038 0.2038 0.2039
2743.000000 0.2039 0.2039 0.2040 0.2041 0.2041
2748.000000 0.2042 0.2042 0.2042 0.2043 0.2044
2753.000000 0.2044 0.2045 0.2045 0.2045 0.2045
2758.000000 0.2044 0.2043 0.2049 0.2040 0.2039
2763.000000 0.2037 0.2034 0.2032 0.2028 0.2023
2768.000000 0.2018 0.2013 0.2008 0.2003 0.1997
2773.000000 0.1990 0.1983 0.1976 0.1968 0.1961
2778.000000 0.1952 0.1941 0.1930 0.1918 0.1903
2783.000000 0.1888 0.1872 0.1841 0.1810 0.1779
2788.000000 0.1745 0.1711 0.1678 0.1644 0.1610
2793.000000 0.1576 0.1543 0.1509 0.1476 0.1442
2798.000000 0.1409 0.1375 0.1341 0.1308 0.1274
2803.000000 0.1240 0.1207 0.1173 0.1140 0.1107
2808.000000 0.1073 0.1040 0.1007 0.0974 0.0940
2813.000000 0.0907 0.0874 0.0841 0.0808 0.0775
2818.000000 0.0742 0.0709 0.0676 0.0643 0.0610
2823.000000 0.0579 0.0547 0.0520 0.0513 0.0506
2828.000000 0.0499 0.0496 0.0494 0.0492 0.0491
2833.000000 0.0490 0.0489 0.0489 0.0489 0.0489
2838.000000 0.0489 0.0490 0.0491 0.0493 0.0495
2843.000000 0.0498 0.0500 0.0504 0.0508 0.0512
2848.000000 0.0516 0.0519 0.0522 0.0523 0.0519
2853.000000 0.0514 0.0509 0.0500 0.0491 0.0482
2858.000000 0.0473 0.0463 0.0454 0.0445 0.0435
2863.000000 0.0425 0.0417 0.0414 0.0410 0.0406
2868.000000 0.0400 0.0394 0.0387 0.0383 0.0381
2873.000000 0.0378 0.0376 0.0374 0.0373 0.0371
2878.000000 0.0370 0.0368 0.0367 0.0366 0.0365
2883.000000 0.0365 0.0365 0.0365 0.0365 0.0365
2888.000000 0.0365 0.0365 0.0365 0.0366 0.0367
2893.000000 0.0367 0.0363 0.0368 0.0369 0.0370
2898.000000 0.0371 0.0371 0.0372 0.0374 0.0375
2903.000000 0.0377 0.0383 0.0396 0.0409 0.0422
2908.000000 0.0446 0.0471 0.0495 0.0519 0.0543
2913.000000 0.0567 0.0590 0.0614 0.0638 0.0662
2918.000000 0.0686 0.0710 0.0734 0.0758 0.0782
2923.000000 0.0805 0.0829 0.0834 0.0840 0.0846
2928.000000 0.0850 0.0853 0.0855 0.0858 0.0861
2933.000000 0.0863 0.0866 0.0870 0.0874 0.0878
2938.000000 0.0883 0.0887 0.0891 0.0896 0.0922
2943.000000 0.0953 0.0985 0.1018 0.1056 0.1094
2948.000000 0.1132 0.1170 0.1208 0.1246 0.1284
2953.000000 0.1322 0.1360 0.1397 0.1435 0.1473
2958.000000 0.1511 0.1548 0.1586 0.1624 0.1662
2963.000000 0.1709 0.1758 0.1806 0.1839 0.1851
2968.000000 0.1863 0.1875 0.1888 0.1902 0.1915
2973.000000 0.1929 0.1946 0.1963 0.1979 0.1996
2978.000000 0.2013 0.2030 0.2048 0.2067 0.2086
2983.000000 0.2105 0.2122 0.2139 0.2155 0.2172
2988.000000 0.2186 0.2201 0.2216 0.2230 0.2242
2993.000000 0.2255 0.2267 0.2275 0.2283 0.2291
2998.000000 0.2299 0.2306 0.2314 0.2322 0.2329
3003.000000 0.2337 0.2344 0.2351 0.2354 0.2357
3008.000000 0.2360 0.2363 0.2367 0.2370 0.2373
3013.000000 0.2376 0.2379 0.2382 0.2386 0.2389
3018.000000 0.2392 0.2395 0.2397 0.2398 0.2399
3023.000000 0.2401 0.2402 0.2403 0.2404 0.2405
3028.000000 0.2406 0.2406 0.2407 0.2408 0.2408
3033.000000 0.2408 0.2408 0.2408 0.2408 0.2408
3038.000000 0.2407 0.2407 0.2406 0.2406 0.2422
3043.000000 0.2404 0.2403 0.2402 0.2400 0.2399
3048.000000 0.2398 0.2396 0.2395 0.2394 0.2393
3053.000000 0.2392 0.2390 0.2389 0.2388 0.2385
3058.000000 0.2382 0.2379 0.2376 0.2373 0.2370
3063.000000 0.2367 0.2364 0.2360 0.2357 0.2353
3068.000000 0.2350 0.2346 0.2343 0.2339 0.2336
3073.000000 0.2332 0.2329 0.2326 0.2322 0.2319
3078.000000 0.2315 0.2312 0.2308 0.2303 0.2299
3083.000000 0.2294 0.2289 0.2284 0.2279 0.2273
3088.000000 0.2268 0.2262 0.2257 0.2251 0.2246
3093.000000 0.2241 0.2236 0.2225 0.2214 0.2203
3098.000000 0.2192 0.2180 0.2167 0.2155 0.2142
3103.000000 0.2127 0.2112 0.2097 0.2082 0.2067
3108.000000 0.2052 0.2037 0.2022 0.2007 0.1992
3113.000000 0.1976 0.1961 0.1946 0.1931 0.1916
3118.000000 0.1901 0.1886 0.1871 0.1856 0.1841
3123.000000 0.1826 0.1811 0.1796 0.1780 0.1765
3128.000000 0.1750 0.1735 0.1720 0.1706 0.1691
3133.000000 0.1676 0.1661 0.1646 0.1631 0.1616
3138.000000 0.1601 0.1586 0.1571 0.1556 0.1541
3143.000000 0.1527 0.1512 0.1497 0.1482 0.1468
3148.000000 0.1453 0.1438 0.1423 0.1408 0.1393
3153.000000 0.1379 0.1366 0.1354 0.1341 0.1333
3158.000000 0.1330 0.1328 0.1326 0.1324 0.1322
3163.000000 0.1320 0.1318 0.1315 0.1313 0.1310
3168.000000 0.1308 0.1304 0.1299 0.1293 0.1288
3173.000000 0.1278 0.1261 0.1244 0.1228 0.1204
3178.000000 0.1170 0.1135 0.1100 0.1073 0.1061
3183.000000 0.1048 0.1035 0.1024 0.1015 0.1006
3188.000000 0.0997 0.0989 0.0980 0.0971 0.0962
3193.000000 0.0953 0.0945 0.0936 0.0927 0.0919
3198.000000 0.0916 0.0912 0.0908 0.0905 0.0902
3203.000000 0.0899 0.0896 0.0893 0.0890 0.0887
3208.000000 0.0885 0.0882 0.0881 0.0880 0.0879
3213.000000 0.0879 0.0878 0.0878 0.0877 0.0877
3218.000000 0.0876 0.0875 0.0875 0.0874 0.0873
3223.000000 0.0873 0.0872 0.0871 0.0870 0.0870
3228.000000 0.0870 0.0870 0.0870 0.0870 0.0870
3233.000000 0.0870 0.0870 0.0869 0.0869 0.0869
3238.000000 0.0869 0.0868 0.0868 0.0868 0.0868
3243.000000 0.0867 0.0867 0.0867 0.0867 0.0867
3248.000000 0.0867 0.0867 0.0867 0.0868 0.0868
3253.000000 0.0868 0.0868 0.0868 0.0869 0.0869
3258.000000 0.0869 0.0869 0.0870 0.0870 0.0870
3263.000000 0.0870 0.0870 0.0870 0.0870 0.0870
3268.000000 0.0871 0.0871 0.0871 0.0871 0.0871
3273.000000 0.0872 0.0872 0.0872 0.0872 0.0873
3278.000000 0.0873 0.0873 0.0873 0.0874 0.0874
3283.000000 0.0874 0.0874 0.0874 0.0875 0.0875
3288.000000 0.0876 0.0876 0.0877 0.0877 0.0878
3293.000000 0.0878 0.0859 0.0879 0.0880 0.0880
3298.000000 0.0880 0.0881 0.0881 0.0882 0.0882
3303.000000 0.0883 0.0883 0.0884 0.0884 0.0885
3308.000000 0.0885 0.0885 0.0886 0.0886 0.0887
3313.000000 0.0887 0.0887 0.0887 0.0888 0.0888
3318.000000 0.0888 0.0888 0.0888 0.0889 0.0889
3323.000000 0.0889 0.0889 0.0890 0.0894 0.0897
3328.000000 0.0900 0.0904 0.0908 0.0913 0.0917
3333.000000 0.0922 0.0926 0.0931 0.0935 0.0940
3338.000000 0.0945 0.0952 0.0958 0.0965 0.0972
3343.000000 0.0986 0.1002 0.1018 0.1035 0.1051
3348.000000 0.1069 0.1087 0.1105 0.1123 0.1134
3353.000000 0.1143 0.1152 0.1161 0.1170 0.1178
3358.000000 0.1186 0.1195 0.1203 0.1211 0.1219
3363.000000 0.1227 0.1235 0.1243 0.1251 0.1259
3368.000000 0.1267 0.1275 0.1283 0.1292 0.1300
3373.000000 0.1308 0.1316 0.1324 0.1332 0.1340
3378.000000 0.1348 0.1360 0.1373 0.1386 0.1399
3383.000000 0.1412 0.1429 0.1445 0.1462 0.1479
3388.000000 0.1496 0.1513 0.1530 0.1548 0.1565
3393.000000 0.1583 0.1602 0.1620 0.1638 0.1654
3398.000000 0.1666 0.1677 0.1688 0.1699 0.1711
3403.000000 0.1722 0.1733 0.1744 0.1755 0.1769
3408.000000 0.1783 0.1798 0.1812 0.1827 0.1842
3413.000000 0.1857 0.1873 0.1888 0.1916 0.1951
3418.000000 0.1985 0.2019 0.2053 0.2065 0.2077
3423.000000 0.2089 0.2102 0.2114 0.2126 0.2137
3428.000000 0.2149 0.2161 0.2182 0.2208 0.2234
3433.000000 0.2260 0.2286 0.2312 0.2338 0.2365
3438.000000 0.2391 0.2414 0.2425 0.2437 0.2448
3443.000000 0.2460 0.2470 0.2479 0.2489 0.2498
3448.000000 0.2508 0.2532 0.2562 0.2591 0.2621
3453.000000 0.2650 0.2681 0.2712 0.2743 0.2773
3458.000000 0.2804 0.2835 0.2866 0.2896 0.2927
3463.000000 0.2958 0.2988 0.3019 0.3049 0.3080
3468.000000 0.3111 0.3141 0.3172 0.3202 0.3233
3473.000000 0.3263 0.3294 0.3324 0.3354 0.3385
3478.000000 0.3415 0.3446 0.3476 0.3506 0.3537
3483.000000 0.3567 0.3597 0.3628 0.3658 0.3688
3488.000000 0.3718 0.3748 0.3779 0.3809 0.3839
3493.000000 0.3869 0.3899 0.3929 0.3959 0.3989
3498.000000 0.4019 0.4049 0.4079 0.4109 0.4139
3503.000000 0.4169 0.4199 0.4229 0.4259 0.4286
3508.000000 0.4311 0.4336 0.4361 0.4386 0.4428
3513.000000 0.4475 0.4523 0.4571 0.4618 0.4647
3518.000000 0.4671 0.4696 0.4720 0.4744 0.4777
3523.000000 0.4811 0.4845 0.4879 0.4913 0.4947
3528.000000 0.4981 0.5015 0.5049 0.5083 0.5117
3533.000000 0.5151 0.5185 0.5218 0.5252 0.5286
3538.000000 0.5320 0.5354 0.5388 0.5422 0.5456
3543.000000 0.5489 0.5523 0.5557 0.5590 0.5624
3548.000000 0.5657 0.5691 0.5724 0.5758 0.5791
3553.000000 0.5825 0.5858 0.5892 0.5925 0.5959
3558.000000 0.5992 0.6025 0.6059 0.6092 0.6125
3563.000000 0.6159 0.6192 0.6225 0.6258 0.6292
3568.000000 0.6325 0.6358 0.6392 0.6425 0.6451
3573.000000 0.6472 0.6492 0.6513 0.6533 0.6548
3578.000000 0.6556 0.6564 0.6572 0.6580 0.6588
3583.000000 0.6596 0.6604 0.6612 0.6620 0.6628
3588.000000 0.6636 0.6644 0.6652 0.6660 0.6668
3593.000000 0.6687 0.6706 0.6725 0.6743 0.6762
3598.000000 0.6785 0.6808 0.6831 0.6854 0.6877
3603.000000 0.6906 0.6936 0.6966 0.6997 0.7027
3608.000000 0.7051 0.7069 0.7088 0.7106 0.7124
3613.000000 0.7148 0.7189 0.7230 0.7272 0.7313
3618.000000 0.7352 0.7357 0.7362 0.7367 0.7372
3623.000000 0.7377 0.7379 0.7381 0.7383 0.7385
3628.000000 0.7388 0.7389 0.7391 0.7392 0.7393
3633.000000 0.7395 0.7396 0.7397 0.7398 0.7399
3638.000000 0.7400 0.7400 0.7401 0.7402 0.7403
3643.000000 0.7404 0.7405 0.7406 0.7407 0.7408
3648.000000 0.7409 0.7410 0.7411 0.7411 0.7411
3653.000000 0.7412 0.7412 0.7413 0.7413 0.7413
3658.000000 0.7413 0.7413 0.7413 0.7414 0.7414
3663.000000 0.7414 0.7414 0.7414 0.7415 0.7415
3668.000000 0.7415 0.7416 0.7416 0.7416 0.7417
3673.000000 0.7417 0.7417 0.7417 0.7417 0.7418
3678.000000 0.7418 0.7418 0.7418 0.7418 0.7419
3683.000000 0.7419 0.7419 0.7419 0.7419 0.7419
3688.000000 0.7420 0.7420 0.7420 0.7420 0.7420
3693.000000 0.7420 0.7420 0.7420 0.7420 0.7420
3698.000000 0.7420 0.7421 0.7421 0.7421 0.7421
3703.000000 0.7421 0.7421 0.7421 0.7421 0.7421
3708.000000 0.7421 0.7421 0.7422 0.7422 0.7422
3713.000000 0.7422 0.7422 0.7423 0.7423 0.7423
3718.000000 0.7423 0.7423 0.7423 0.7434 0.7423
3723.000000 0.7423 0.7423 0.7423 0.7424 0.7424
3728.000000 0.7424 0.7424 0.7424 0.7424 0.7424
3733.000000 0.7424 0.7424 0.7424 0.7424 0.7424
3738.000000 0.7424 0.7424 0.7424 0.7424 0.7424
3743.000000 0.7423 0.7423 0.7423 0.7423 0.7423
3748.000000 0.7423 0.7423 0.7423 0.7423 0.7423
3753.000000 0.7423 0.7422 0.7422 0.7422 0.7422
3758.000000 0.7422 0.7422 0.7421 0.7421 0.7421
3763.000000 0.7421 0.7421 0.7421 0.7421 0.7421
3768.000000 0.7421 0.7421 0.7421 0.7420 0.7420
3773.000000 0.7420 0.7419 0.7419 0.7419 0.7418
3778.000000 0.7416 0.7414 0.7412 0.7411 0.7409
3783.000000 0.7405 0.7402 0.7398 0.7394 0.7391
3788.000000 0.7387 0.7384 0.7380 0.7377 0.7373
3793.000000 0.7370 0.7366 0.7362 0.7359 0.7355
3798.000000 0.7352 0.7348 0.7344 0.7341 0.7337
3803.000000 0.7334 0.7331 0.7327 0.7324 0.7320
3808.000000 0.7317 0.7313 0.7310 0.7306 0.7303
3813.000000 0.7300 0.7296 0.7293 0.7289 0.7286
3818.000000 0.7283 0.7279 0.7276 0.7273 0.7270
3823.000000 0.7266 0.7263 0.7259 0.7256 0.7253
3828.000000 0.7249 0.7246 0.7244 0.7242 0.7239
3833.000000 0.7237 0.7234 0.7233 0.7231 0.7229
3838.000000 0.7228 0.7226 0.7225 0.7223 0.7222
3843.000000 0.7220 0.7219 0.7217 0.7216 0.7214
3848.000000 0.7213 0.7211 0.7210 0.7208 0.7207
3853.000000 0.7206 0.7205 0.7204 0.7203 0.7202
3858.000000 0.7201 0.7200 0.7199 0.7198 0.7197
3863.000000 0.7196 0.7195 0.7195 0.7194 0.7193
3868.000000 0.7192 0.7191 0.7190 0.7190 0.7189
3873.000000 0.7188 0.7187 0.7186 0.7185 0.7182
3878.000000 0.7178 0.7174 0.7170 0.7166 0.7162
3883.000000 0.7158 0.7153 0.7148 0.7143 0.7138
3888.000000 0.7134 0.7129 0.7124 0.7120 0.7115
3893.000000 0.7110 0.7106 0.7102 0.7099 0.7095
3898.000000 0.7092 0.7088 0.7085 0.7082 0.7080
3903.000000 0.7077 0.7074 0.7072 0.7069 0.7067
3908.000000 0.7065 0.7063 0.7061 0.7058 0.7056
3913.000000 0.7055 0.7054 0.7053 0.7053 0.7052
3918.000000 0.7051 0.7050 0.7049 0.7048 0.7048
3923.000000 0.7047 0.7046 0.7045 0.7045 0.7045
3928.000000 0.7044 0.7044 0.7044 0.7044 0.7044
3933.000000 0.7044 0.7044 0.7044 0.7044 0.7044
3938.000000 0.7045 0.7045 0.7045 0.7045 0.7045
3943.000000 0.7045 0.7045 0.7045 0.7045 0.7045
3948.000000 0.7045 0.7045 0.7045 0.7045 0.7045
3953.000000 0.7045 0.7045 0.7045 0.7045 0.7045
3958.000000 0.7045 0.7045 0.7045 0.7045 0.7045
3963.000000 0.7045 0.7045 0.7045 0.7045 0.7045
3968.000000 0.7045 0.7045 0.7045 0.7045 0.7045
3973.000000 0.7045 0.7045 0.7045 0.7045 0.7045
3978.000000 0.7045 0.7045 0.7045 0.7045 0.7045
3983.000000 0.7045 0.7045 0.7045 0.7045 0.7045
3988.000000 0.7045 0.7045 0.7045 0.7045 0.7045
3993.000000 0.7045 0.7045 0.7045 0.7045 0.7045
3998.000000 0.7045 0.7045 0.7045
##END=
