##TITLE=BENTYL ANALOG
##JCAMP-DX=4.24
$$ By DXEDIT 1.05 (RS McDonald)
##DATA TYPE=INFRARED SPECTRUM
##CLASS=COBLENTZ III
##OWNER=COBLENTZ SOC.
Collection (C) 2018 copyright by the U.S. Secretary of Commerce
on behalf of the United States of America. All rights reserved.
##DATE=1962/07/23
##NAMES=2-(diethylamino)ethyl 1-isopentylcyclohexanecarboxylate hydrochloride
CYCLOHEXANECARBOXYLIC ACID, 1-ISOPENTYL-,2-(DIETHYLAMINO)ETHYL ESTER, HYDROCHLORIDE
##MOLFORM=C18 H36 Cl N O2
##SOURCE REFERENCE=COBLENTZ NO. 05036
##$NIST ID=B6005036
##$NIST SOURCE=COBLENTZ
##$NIST IMAGE=cob5036
##SPECTROMETER/DATA SYSTEM=PERKIN-ELMER 21 (GRATING)
##INSTRUMENT PARAMETERS=FILTER AT ABOUT 10 MICRONS
##STATE=SOLID (KCl DISC) VS KCl
##SAMPLING PROCEDURE=TRANSMISSION
##RESOLUTION=2
##DATA PROCESSING=DIGITIZED BY COBLENTZ SOCIETY (BATCH I) FROM HARD COPY
##XUNITS=1/CM
##YUNITS=TRANSMITTANCE
##XLABEL=Wavenumbers (cm-1)
##YLABEL=Transmittance
##XFACTOR=1
##YFACTOR=1
##DELTAX=1
##FIRSTX=4000
##LASTX=670
##FIRSTY=0.8728
##MAXX=4000
##MINX=670
##MAXY=0.9548
##MINY=0.1946
##NPOINTS=3331
##XYDATA=(X++(Y..Y))
4000.000000 0.8728 0.8730 0.8731 0.8732 0.8733
3995.000000 0.8734 0.8735 0.8736 0.8737 0.8738
3990.000000 0.8739 0.8740 0.8741 0.8742 0.8743
3985.000000 0.8744 0.8745 0.8746 0.8746 0.8747
3980.000000 0.8748 0.8750 0.8751 0.8752 0.8753
3975.000000 0.8754 0.8755 0.8756 0.8757 0.8758
3970.000000 0.8759 0.8760 0.8761 0.8762 0.8763
3965.000000 0.8764 0.8765 0.8766 0.8766 0.8768
3960.000000 0.8768 0.8770 0.8771 0.8771 0.8773
3955.000000 0.8774 0.8775 0.8775 0.8777 0.8778
3950.000000 0.8778 0.8780 0.8781 0.8782 0.8783
3945.000000 0.8784 0.8785 0.8786 0.8787 0.8788
3940.000000 0.8789 0.8790 0.8791 0.8793 0.8793
3935.000000 0.8794 0.8795 0.8796 0.8797 0.8798
3930.000000 0.8799 0.8800 0.8801 0.8802 0.8803
3925.000000 0.8804 0.8805 0.8806 0.8808 0.8809
3920.000000 0.8810 0.8811 0.8812 0.8813 0.8814
3915.000000 0.8815 0.8816 0.8817 0.8818 0.8818
3910.000000 0.8820 0.8821 0.8821 0.8823 0.8824
3905.000000 0.8825 0.8825 0.8827 0.8828 0.8830
3900.000000 0.8831 0.8832 0.8833 0.8834 0.8835
3895.000000 0.8836 0.8837 0.8838 0.8839 0.8840
3890.000000 0.8841 0.8842 0.8843 0.8843 0.8844
3885.000000 0.8845 0.8845 0.8846 0.8846 0.8847
3880.000000 0.8848 0.8848 0.8849 0.8850 0.8850
3875.000000 0.8851 0.8852 0.8852 0.8853 0.8854
3870.000000 0.8854 0.8855 0.8856 0.8856 0.8857
3865.000000 0.8858 0.8858 0.8859 0.8860 0.8861
3860.000000 0.8861 0.8862 0.8863 0.8863 0.8864
3855.000000 0.8865 0.8865 0.8866 0.8867 0.8867
3850.000000 0.8868 0.8868 0.8868 0.8870 0.8871
3845.000000 0.8871 0.8871 0.8873 0.8873 0.8874
3840.000000 0.8875 0.8875 0.8875 0.8877 0.8878
3835.000000 0.8878 0.8880 0.8880 0.8881 0.8882
3830.000000 0.8882 0.8883 0.8884 0.8885 0.8885
3825.000000 0.8886 0.8887 0.8887 0.8888 0.8889
3820.000000 0.8889 0.8890 0.8891 0.8891 0.8892
3815.000000 0.8893 0.8893 0.8894 0.8895 0.8895
3810.000000 0.8896 0.8897 0.8898 0.8898 0.8899
3805.000000 0.8900 0.8900 0.8901 0.8902 0.8902
3800.000000 0.8903 0.8904 0.8904 0.8904 0.8905
3795.000000 0.8905 0.8905 0.8906 0.8906 0.8907
3790.000000 0.8907 0.8908 0.8908 0.8909 0.8909
3785.000000 0.8910 0.8911 0.8911 0.8912 0.8912
3780.000000 0.8912 0.8913 0.8913 0.8913 0.8914
3775.000000 0.8914 0.8915 0.8915 0.8916 0.8916
3770.000000 0.8917 0.8917 0.8918 0.8918 0.8918
3765.000000 0.8920 0.8920 0.8920 0.8921 0.8921
3760.000000 0.8921 0.8921 0.8921 0.8923 0.8923
3755.000000 0.8924 0.8924 0.8925 0.8925 0.8925
3750.000000 0.8925 0.8925 0.8927 0.8927 0.8928
3745.000000 0.8928 0.8928 0.8928 0.8930 0.8930
3740.000000 0.8931 0.8931 0.8932 0.8932 0.8933
3735.000000 0.8933 0.8934 0.8934 0.8934 0.8935
3730.000000 0.8935 0.8936 0.8936 0.8937 0.8937
3725.000000 0.8938 0.8938 0.8939 0.8939 0.8939
3720.000000 0.8940 0.8940 0.8941 0.8941 0.8942
3715.000000 0.8942 0.8943 0.8943 0.8944 0.8945
3710.000000 0.8945 0.8946 0.8946 0.8946 0.8947
3705.000000 0.8947 0.8947 0.8948 0.8948 0.8948
3700.000000 0.8948 0.8948 0.8949 0.8949 0.8949
3695.000000 0.8949 0.8949 0.8949 0.8950 0.8950
3690.000000 0.8950 0.8950 0.8950 0.8951 0.8951
3685.000000 0.8951 0.8951 0.8951 0.8951 0.8952
3680.000000 0.8952 0.8952 0.8952 0.8952 0.8953
3675.000000 0.8953 0.8953 0.8953 0.8953 0.8954
3670.000000 0.8954 0.8954 0.8954 0.8954 0.8954
3665.000000 0.8955 0.8955 0.8955 0.8955 0.8956
3660.000000 0.8956 0.8956 0.8956 0.8956 0.8956
3655.000000 0.8956 0.8956 0.8956 0.8956 0.8956
3650.000000 0.8956 0.8956 0.8956 0.8956 0.8956
3645.000000 0.8956 0.8956 0.8956 0.8956 0.8956
3640.000000 0.8956 0.8956 0.8956 0.8956 0.8956
3635.000000 0.8956 0.8956 0.8956 0.8956 0.8956
3630.000000 0.8956 0.8956 0.8955 0.8955 0.8954
3625.000000 0.8954 0.8953 0.8952 0.8951 0.8950
3620.000000 0.8949 0.8948 0.8947 0.8945 0.8944
3615.000000 0.8943 0.8942 0.8941 0.8940 0.8939
3610.000000 0.8937 0.8936 0.8935 0.8934 0.8932
3605.000000 0.8931 0.8928 0.8928 0.8925 0.8923
3600.000000 0.8920 0.8918 0.8915 0.8912 0.8909
3595.000000 0.8906 0.8903 0.8901 0.8898 0.8895
3590.000000 0.8892 0.8889 0.8887 0.8884 0.8881
3585.000000 0.8878 0.8875 0.8871 0.8868 0.8864
3580.000000 0.8858 0.8852 0.8846 0.8840 0.8834
3575.000000 0.8828 0.8821 0.8815 0.8809 0.8803
3570.000000 0.8797 0.8791 0.8785 0.8778 0.8771
3565.000000 0.8766 0.8760 0.8754 0.8747 0.8741
3560.000000 0.8735 0.8728 0.8721 0.8716 0.8709
3555.000000 0.8703 0.8697 0.8690 0.8684 0.8678
3550.000000 0.8671 0.8665 0.8659 0.8653 0.8647
3545.000000 0.8640 0.8634 0.8628 0.8621 0.8615
3540.000000 0.8609 0.8602 0.8596 0.8589 0.8583
3535.000000 0.8578 0.8571 0.8566 0.8561 0.8555
3530.000000 0.8549 0.8544 0.8538 0.8533 0.8527
3525.000000 0.8521 0.8515 0.8509 0.8504 0.8498
3520.000000 0.8492 0.8486 0.8481 0.8475 0.8468
3515.000000 0.8464 0.8458 0.8452 0.8446 0.8440
3510.000000 0.8434 0.8428 0.8423 0.8417 0.8412
3505.000000 0.8406 0.8400 0.8395 0.8389 0.8383
3500.000000 0.8377 0.8371 0.8365 0.8359 0.8354
3495.000000 0.8348 0.8342 0.8336 0.8331 0.8325
3490.000000 0.8318 0.8313 0.8307 0.8301 0.8295
3485.000000 0.8289 0.8283 0.8277 0.8271 0.8265
3480.000000 0.8259 0.8253 0.8247 0.8241 0.8235
3475.000000 0.8228 0.8223 0.8217 0.8211 0.8205
3470.000000 0.8199 0.8192 0.8186 0.8180 0.8174
3465.000000 0.8168 0.8161 0.8156 0.8150 0.8144
3460.000000 0.8138 0.8132 0.8125 0.8118 0.8112
3455.000000 0.8107 0.8101 0.8094 0.8087 0.8080
3450.000000 0.8072 0.8065 0.8058 0.8051 0.8043
3445.000000 0.8036 0.8028 0.8021 0.8012 0.8006
3440.000000 0.7998 0.7991 0.7984 0.7976 0.7968
3435.000000 0.7961 0.7955 0.7949 0.7944 0.7938
3430.000000 0.7932 0.7925 0.7921 0.7915 0.7908
3425.000000 0.7903 0.7898 0.7892 0.7886 0.7880
3420.000000 0.7875 0.7871 0.7865 0.7861 0.7858
3415.000000 0.7854 0.7851 0.7847 0.7843 0.7840
3410.000000 0.7836 0.7833 0.7828 0.7825 0.7822
3405.000000 0.7818 0.7815 0.7812 0.7778 0.7807
3400.000000 0.7806 0.7805 0.7804 0.7803 0.7801
3395.000000 0.7800 0.7799 0.7798 0.7797 0.7797
3390.000000 0.7797 0.7797 0.7797 0.7798 0.7799
3385.000000 0.7800 0.7801 0.7801 0.7804 0.7805
3380.000000 0.7806 0.7807 0.7808 0.7808 0.7810
3375.000000 0.7811 0.7811 0.7814 0.7817 0.7818
3370.000000 0.7821 0.7824 0.7828 0.7833 0.7837
3365.000000 0.7841 0.7846 0.7850 0.7854 0.7858
3360.000000 0.7861 0.7867 0.7871 0.7875 0.7878
3355.000000 0.7884 0.7888 0.7893 0.7897 0.7901
3350.000000 0.7906 0.7910 0.7914 0.7918 0.7922
3345.000000 0.7928 0.7933 0.7938 0.7943 0.7949
3340.000000 0.7955 0.7960 0.7965 0.7971 0.7978
3335.000000 0.7983 0.7989 0.7994 0.8000 0.8006
3330.000000 0.8011 0.8018 0.8024 0.8028 0.8035
3325.000000 0.8040 0.8046 0.8051 0.8057 0.8062
3320.000000 0.8068 0.8075 0.8081 0.8087 0.8092
3315.000000 0.8098 0.8104 0.8110 0.8115 0.8121
3310.000000 0.8126 0.8133 0.8139 0.8145 0.8151
3305.000000 0.8156 0.8161 0.8168 0.8172 0.8178
3300.000000 0.8185 0.8191 0.8196 0.8201 0.8206
3295.000000 0.8211 0.8216 0.8220 0.8225 0.8228
3290.000000 0.8234 0.8239 0.8243 0.8248 0.8253
3285.000000 0.8257 0.8262 0.8266 0.8271 0.8275
3280.000000 0.8280 0.8285 0.8289 0.8293 0.8298
3275.000000 0.8303 0.8307 0.8312 0.8317 0.8321
3270.000000 0.8325 0.8331 0.8335 0.8340 0.8345
3265.000000 0.8349 0.8354 0.8359 0.8363 0.8368
3260.000000 0.8371 0.8375 0.8380 0.8384 0.8388
3255.000000 0.8391 0.8395 0.8398 0.8402 0.8405
3250.000000 0.8409 0.8413 0.8416 0.8420 0.8423
3245.000000 0.8427 0.8430 0.8434 0.8437 0.8441
3240.000000 0.8445 0.8448 0.8452 0.8456 0.8459
3235.000000 0.8463 0.8467 0.8471 0.8474 0.8478
3230.000000 0.8481 0.8485 0.8488 0.8491 0.8495
3225.000000 0.8498 0.8501 0.8504 0.8506 0.8510
3220.000000 0.8513 0.8516 0.8518 0.8521 0.8525
3215.000000 0.8528 0.8531 0.8534 0.8536 0.8539
3210.000000 0.8542 0.8545 0.8548 0.8551 0.8554
3205.000000 0.8557 0.8560 0.8563 0.8566 0.8568
3200.000000 0.8571 0.8575 0.8578 0.8581 0.8584
3195.000000 0.8587 0.8589 0.8592 0.8595 0.8598
3190.000000 0.8601 0.8604 0.8607 0.8610 0.8613
3185.000000 0.8616 0.8618 0.8621 0.8625 0.8627
3180.000000 0.8630 0.8633 0.8636 0.8639 0.8642
3175.000000 0.8645 0.8648 0.8651 0.8654 0.8657
3170.000000 0.8660 0.8663 0.8666 0.8668 0.8671
3165.000000 0.8675 0.8678 0.8681 0.8684 0.8686
3160.000000 0.8689 0.8691 0.8694 0.8696 0.8699
3155.000000 0.8701 0.8703 0.8706 0.8708 0.8710
3150.000000 0.8712 0.8715 0.8717 0.8718 0.8721
3145.000000 0.8723 0.8725 0.8727 0.8730 0.8732
3140.000000 0.8734 0.8736 0.8738 0.8740 0.8742
3135.000000 0.8745 0.8747 0.8749 0.8751 0.8754
3130.000000 0.8756 0.8758 0.8760 0.8762 0.8764
3125.000000 0.8767 0.8768 0.8771 0.8773 0.8775
3120.000000 0.8777 0.8778 0.8778 0.8780 0.8780
3115.000000 0.8781 0.8782 0.8783 0.8784 0.8784
3110.000000 0.8785 0.8786 0.8787 0.8787 0.8788
3105.000000 0.8789 0.8790 0.8791 0.8791 0.8792
3100.000000 0.8793 0.8794 0.8794 0.8795 0.8795
3095.000000 0.8796 0.8796 0.8796 0.8795 0.8795
3090.000000 0.8794 0.8794 0.8794 0.8793 0.8793
3085.000000 0.8793 0.8792 0.8792 0.8791 0.8791
3080.000000 0.8790 0.8790 0.8789 0.8789 0.8788
3075.000000 0.8787 0.8787 0.8786 0.8786 0.8785
3070.000000 0.8785 0.8784 0.8784 0.8783 0.8783
3065.000000 0.8782 0.8782 0.8780 0.8778 0.8775
3060.000000 0.8774 0.8771 0.8768 0.8766 0.8764
3055.000000 0.8762 0.8760 0.8758 0.8755 0.8753
3050.000000 0.8750 0.8748 0.8746 0.8743 0.8741
3045.000000 0.8738 0.8735 0.8731 0.8728 0.8724
3040.000000 0.8720 0.8716 0.8712 0.8708 0.8703
3035.000000 0.8699 0.8695 0.8691 0.8686 0.8682
3030.000000 0.8678 0.8674 0.8670 0.8666 0.8662
3025.000000 0.8657 0.8653 0.8649 0.8637 0.8625
3020.000000 0.8613 0.8601 0.8589 0.8575 0.8564
3015.000000 0.8552 0.8540 0.8527 0.8514 0.8494
3010.000000 0.8473 0.8452 0.8430 0.8409 0.8387
3005.000000 0.8366 0.8344 0.8321 0.8300 0.8271
3000.000000 0.8215 0.8158 0.8103 0.8050 0.8001
2995.000000 0.7951 0.7901 0.7864 0.7828 0.7791
2990.000000 0.7751 0.7710 0.7668 0.7625 0.7557
2985.000000 0.7485 0.7411 0.7335 0.7246 0.7158
2980.000000 0.7069 0.6981 0.6893 0.6804 0.6715
2975.000000 0.6626 0.6539 0.6450 0.6362 0.6273
2970.000000 0.6184 0.6095 0.6006 0.5916 0.5827
2965.000000 0.5738 0.5649 0.5560 0.5471 0.5381
2960.000000 0.5292 0.5202 0.5112 0.5023 0.4933
2955.000000 0.4843 0.4753 0.4662 0.4573 0.4483
2950.000000 0.4393 0.4303 0.4212 0.4123 0.4032
2945.000000 0.3942 0.3850 0.3760 0.3670 0.3580
2940.000000 0.3489 0.3398 0.3308 0.3220 0.3133
2935.000000 0.3047 0.2982 0.2979 0.2975 0.2959
2930.000000 0.2968 0.2966 0.2963 0.2961 0.2960
2925.000000 0.2959 0.2958 0.2957 0.2957 0.2957
2920.000000 0.2958 0.2961 0.2964 0.2969 0.2984
2915.000000 0.3001 0.3017 0.3050 0.3089 0.3128
2910.000000 0.3175 0.3234 0.3294 0.3353 0.3412
2905.000000 0.3472 0.3532 0.3591 0.3650 0.3710
2900.000000 0.3770 0.3830 0.3891 0.3950 0.4010
2895.000000 0.4071 0.4131 0.4191 0.4251 0.4310
2890.000000 0.4371 0.4431 0.4491 0.4552 0.4612
2885.000000 0.4672 0.4733 0.4793 0.4854 0.4915
2880.000000 0.4976 0.5036 0.5097 0.5158 0.5205
2875.000000 0.5250 0.5295 0.5316 0.5320 0.5323
2870.000000 0.5326 0.5330 0.5334 0.5337 0.5341
2865.000000 0.5344 0.5347 0.5351 0.5354 0.5358
2860.000000 0.5360 0.5362 0.5365 0.5367 0.5368
2855.000000 0.5368 0.5369 0.5371 0.5372 0.5373
2850.000000 0.5374 0.5375 0.5376 0.5403 0.5472
2845.000000 0.5540 0.5609 0.5678 0.5747 0.5815
2840.000000 0.5884 0.5953 0.6022 0.6091 0.6160
2835.000000 0.6229 0.6298 0.6367 0.6436 0.6505
2830.000000 0.6575 0.6644 0.6712 0.6783 0.6851
2825.000000 0.6921 0.6991 0.7061 0.7131 0.7200
2820.000000 0.7269 0.7340 0.7405 0.7465 0.7525
2815.000000 0.7578 0.7617 0.7655 0.7691 0.7715
2810.000000 0.7738 0.7761 0.7778 0.7794 0.7810
2805.000000 0.7825 0.7841 0.7857 0.7868 0.7880
2800.000000 0.7891 0.7899 0.7906 0.7912 0.7918
2795.000000 0.7922 0.7926 0.7931 0.7931 0.7932
2790.000000 0.7933 0.7933 0.7948 0.7935 0.7935
2785.000000 0.7936 0.7936 0.7937 0.7938 0.7938
2780.000000 0.7939 0.7940 0.7940 0.7941 0.7942
2775.000000 0.7942 0.7942 0.7942 0.7942 0.7941
2770.000000 0.7940 0.7939 0.7938 0.7937 0.7936
2765.000000 0.7935 0.7934 0.7933 0.7932 0.7931
2760.000000 0.7930 0.7928 0.7925 0.7921 0.7917
2755.000000 0.7914 0.7910 0.7906 0.7901 0.7898
2750.000000 0.7894 0.7890 0.7886 0.7881 0.7875
2745.000000 0.7871 0.7865 0.7861 0.7856 0.7851
2740.000000 0.7845 0.7838 0.7832 0.7825 0.7818
2735.000000 0.7812 0.7808 0.7805 0.7801 0.7799
2730.000000 0.7796 0.7795 0.7795 0.7795 0.7794
2725.000000 0.7794 0.7793 0.7792 0.7792 0.7792
2720.000000 0.7792 0.7795 0.7797 0.7800 0.7801
2715.000000 0.7805 0.7808 0.7810 0.7812 0.7815
2710.000000 0.7818 0.7821 0.7824 0.7825 0.7828
2705.000000 0.7828 0.7830 0.7830 0.7831 0.7832
2700.000000 0.7833 0.7834 0.7835 0.7836 0.7837
2695.000000 0.7838 0.7839 0.7840 0.7842 0.7843
2690.000000 0.7843 0.7843 0.7842 0.7841 0.7839
2685.000000 0.7838 0.7837 0.7836 0.7834 0.7831
2680.000000 0.7890 0.7819 0.7811 0.7801 0.7791
2675.000000 0.7781 0.7771 0.7708 0.7633 0.7557
2670.000000 0.7522 0.7491 0.7460 0.7436 0.7411
2665.000000 0.7390 0.7372 0.7357 0.7341 0.7324
2660.000000 0.7308 0.7291 0.7275 0.7258 0.7242
2655.000000 0.7225 0.7210 0.7197 0.7185 0.7172
2650.000000 0.7162 0.7153 0.7142 0.7132 0.7121
2645.000000 0.7110 0.7099 0.7089 0.7078 0.7068
2640.000000 0.7057 0.7042 0.7025 0.7010 0.6995
2635.000000 0.6978 0.6962 0.6947 0.6930 0.6914
2630.000000 0.6898 0.6882 0.6867 0.6851 0.6834
2625.000000 0.6803 0.6771 0.6737 0.6693 0.6649
2620.000000 0.6606 0.6561 0.6518 0.6472 0.6428
2615.000000 0.6382 0.6330 0.6278 0.6226 0.6175
2610.000000 0.6123 0.6069 0.6014 0.5959 0.5903
2605.000000 0.5846 0.5796 0.5774 0.5752 0.5731
2600.000000 0.5710 0.5691 0.5670 0.5649 0.5627
2595.000000 0.5575 0.5523 0.5454 0.5357 0.5260
2590.000000 0.5162 0.5065 0.4967 0.4870 0.4772
2585.000000 0.4675 0.4577 0.4479 0.4381 0.4283
2580.000000 0.4186 0.4087 0.3989 0.3912 0.3878
2575.000000 0.3844 0.3828 0.3822 0.3816 0.3814
2570.000000 0.3777 0.3809 0.3806 0.3803 0.3800
2565.000000 0.3799 0.3798 0.3814 0.3829 0.3856
2560.000000 0.3896 0.3936 0.3975 0.4014 0.4055
2555.000000 0.4094 0.4134 0.4173 0.4212 0.4253
2550.000000 0.4293 0.4333 0.4372 0.4412 0.4452
2545.000000 0.4493 0.4533 0.4573 0.4612 0.4653
2540.000000 0.4693 0.4733 0.4773 0.4814 0.4854
2535.000000 0.4893 0.4930 0.4967 0.4994 0.5020
2530.000000 0.5045 0.5069 0.5093 0.5112 0.5131
2525.000000 0.5149 0.5168 0.5186 0.5204 0.5221
2520.000000 0.5238 0.5250 0.5262 0.5275 0.5287
2515.000000 0.5300 0.5310 0.5322 0.5331 0.5337
2510.000000 0.5344 0.5351 0.5357 0.5362 0.5367
2505.000000 0.5371 0.5373 0.5373 0.5373 0.5364
2500.000000 0.5356 0.5294 0.5233 0.5172 0.5110
2495.000000 0.5049 0.4987 0.4926 0.4865 0.4803
2490.000000 0.4742 0.4680 0.4619 0.4557 0.4495
2485.000000 0.4433 0.4371 0.4309 0.4247 0.4185
2480.000000 0.4123 0.4060 0.3999 0.3937 0.3874
2475.000000 0.3812 0.3750 0.3687 0.3625 0.3562
2470.000000 0.3518 0.3506 0.3493 0.3489 0.3450
2465.000000 0.3486 0.3486 0.3487 0.3520 0.3552
2460.000000 0.3606 0.3672 0.3737 0.3803 0.3868
2455.000000 0.3934 0.3999 0.4064 0.4131 0.4196
2450.000000 0.4262 0.4328 0.4394 0.4460 0.4527
2445.000000 0.4593 0.4659 0.4725 0.4791 0.4857
2440.000000 0.4924 0.4990 0.5057 0.5123 0.5190
2435.000000 0.5257 0.5320 0.5374 0.5427 0.5477
2430.000000 0.5525 0.5574 0.5622 0.5671 0.5719
2425.000000 0.5768 0.5815 0.5860 0.5906 0.5951
2420.000000 0.5997 0.6042 0.6088 0.6134 0.6179
2415.000000 0.6226 0.6274 0.6322 0.6370 0.6418
2410.000000 0.6467 0.6515 0.6565 0.6614 0.6661
2405.000000 0.6700 0.6739 0.6771 0.6801 0.6831
2400.000000 0.6861 0.6890 0.6919 0.6950 0.6981
2395.000000 0.7011 0.7042 0.7074 0.7106 0.7141
2390.000000 0.7175 0.7210 0.7245 0.7278 0.7314
2385.000000 0.7345 0.7371 0.7397 0.7421 0.7446
2380.000000 0.7469 0.7494 0.7515 0.7538 0.7557
2375.000000 0.7571 0.7584 0.7593 0.7601 0.7611
2370.000000 0.7619 0.7628 0.7635 0.7639 0.7640
2365.000000 0.7642 0.7644 0.7645 0.7647 0.7648
2360.000000 0.7651 0.7655 0.7658 0.7662 0.7665
2355.000000 0.7669 0.7674 0.7678 0.7682 0.7686
2350.000000 0.7689 0.7693 0.7696 0.7700 0.7704
2345.000000 0.7708 0.7711 0.7717 0.7725 0.7736
2340.000000 0.7745 0.7755 0.7767 0.7781 0.7795
2335.000000 0.7808 0.7822 0.7838 0.7853 0.7868
2330.000000 0.7882 0.7900 0.7918 0.7936 0.7953
2325.000000 0.7971 0.7988 0.8006 0.8024 0.8041
2320.000000 0.8058 0.8078 0.8097 0.8117 0.8138
2315.000000 0.8160 0.8181 0.8202 0.8224 0.8246
2310.000000 0.8267 0.8289 0.8306 0.8316 0.8325
2305.000000 0.8336 0.8346 0.8356 0.8366 0.8375
2300.000000 0.8386 0.8395 0.8405 0.8414 0.8424
2295.000000 0.8434 0.8444 0.8454 0.8464 0.8474
2290.000000 0.8484 0.8494 0.8502 0.8510 0.8517
2285.000000 0.8524 0.8532 0.8539 0.8547 0.8555
2280.000000 0.8562 0.8568 0.8577 0.8584 0.8592
2275.000000 0.8600 0.8608 0.8615 0.8623 0.8630
2270.000000 0.8638 0.8645 0.8653 0.8661 0.8668
2265.000000 0.8675 0.8683 0.8691 0.8699 0.8707
2260.000000 0.8714 0.8721 0.8728 0.8736 0.8744
2255.000000 0.8751 0.8757 0.8764 0.8771 0.8778
2250.000000 0.8785 0.8793 0.8800 0.8807 0.8814
2245.000000 0.8821 0.8828 0.8835 0.8842 0.8849
2240.000000 0.8857 0.8863 0.8870 0.8877 0.8884
2235.000000 0.8891 0.8899 0.8906 0.8914 0.8921
2230.000000 0.8928 0.8935 0.8942 0.8949 0.8956
2225.000000 0.8963 0.8971 0.8977 0.8984 0.8989
2220.000000 0.8995 0.9001 0.9007 0.9013 0.9018
2215.000000 0.9024 0.9030 0.9036 0.9042 0.9047
2210.000000 0.9053 0.9059 0.9064 0.9071 0.9077
2205.000000 0.9082 0.9088 0.9093 0.9099 0.9105
2200.000000 0.9110 0.9115 0.9120 0.9125 0.9130
2195.000000 0.9135 0.9140 0.9145 0.9151 0.9156
2190.000000 0.9160 0.9165 0.9170 0.9175 0.9181
2185.000000 0.9186 0.9191 0.9196 0.9201 0.9205
2180.000000 0.9209 0.9212 0.9215 0.9217 0.9220
2175.000000 0.9223 0.9225 0.9228 0.9232 0.9234
2170.000000 0.9237 0.9240 0.9242 0.9245 0.9248
2165.000000 0.9250 0.9253 0.9256 0.9258 0.9261
2160.000000 0.9264 0.9266 0.9268 0.9271 0.9273
2155.000000 0.9274 0.9275 0.9275 0.9277 0.9278
2150.000000 0.9280 0.9281 0.9282 0.9283 0.9284
2145.000000 0.9286 0.9287 0.9288 0.9290 0.9291
2140.000000 0.9292 0.9293 0.9294 0.9295 0.9297
2135.000000 0.9298 0.9300 0.9301 0.9302 0.9303
2130.000000 0.9304 0.9305 0.9307 0.9308 0.9309
2125.000000 0.9310 0.9312 0.9313 0.9315 0.9315
2120.000000 0.9316 0.9316 0.9317 0.9318 0.9318
2115.000000 0.9320 0.9321 0.9321 0.9321 0.9323
2110.000000 0.9324 0.9325 0.9325 0.9327 0.9328
2105.000000 0.9328 0.9328 0.9330 0.9331 0.9331
2100.000000 0.9332 0.9334 0.9334 0.9335 0.9335
2095.000000 0.9336 0.9337 0.9338 0.9339 0.9340
2090.000000 0.9341 0.9341 0.9342 0.9343 0.9344
2085.000000 0.9345 0.9346 0.9347 0.9347 0.9348
2080.000000 0.9349 0.9350 0.9351 0.9352 0.9353
2075.000000 0.9353 0.9354 0.9354 0.9356 0.9357
2070.000000 0.9357 0.9358 0.9359 0.9360 0.9361
2065.000000 0.9361 0.9362 0.9362 0.9363 0.9365
2060.000000 0.9365 0.9366 0.9366 0.9367 0.9368
2055.000000 0.9368 0.9370 0.9370 0.9371 0.9371
2050.000000 0.9373 0.9374 0.9374 0.9375 0.9375
2045.000000 0.9375 0.9378 0.9378 0.9378 0.9378
2040.000000 0.9380 0.9382 0.9382 0.9383 0.9383
2035.000000 0.9385 0.9386 0.9386 0.9387 0.9387
2030.000000 0.9388 0.9389 0.9390 0.9391 0.9391
2025.000000 0.9392 0.9393 0.9394 0.9395 0.9396
2020.000000 0.9396 0.9397 0.9398 0.9399 0.9400
2015.000000 0.9400 0.9401 0.9402 0.9403 0.9404
2010.000000 0.9404 0.9405 0.9406 0.9407 0.9408
2005.000000 0.9408 0.9409 0.9410 0.9411 0.9412
2000.000000 0.9413 0.9413 0.9414 0.9415 0.9416
1995.000000 0.9417 0.9417 0.9418 0.9420 0.9420
1990.000000 0.9421 0.9421 0.9423 0.9424 0.9424
1985.000000 0.9425 0.9425 0.9427 0.9428 0.9428
1980.000000 0.9428 0.9430 0.9431 0.9432 0.9433
1975.000000 0.9433 0.9434 0.9435 0.9436 0.9437
1970.000000 0.9438 0.9438 0.9439 0.9440 0.9441
1965.000000 0.9442 0.9442 0.9444 0.9445 0.9445
1960.000000 0.9446 0.9447 0.9448 0.9449 0.9450
1955.000000 0.9451 0.9452 0.9454 0.9454 0.9455
1950.000000 0.9457 0.9457 0.9458 0.9460 0.9460
1945.000000 0.9461 0.9463 0.9463 0.9464 0.9465
1940.000000 0.9466 0.9467 0.9468 0.9468 0.9470
1935.000000 0.9471 0.9473 0.9474 0.9474 0.9475
1930.000000 0.9477 0.9478 0.9478 0.9480 0.9481
1925.000000 0.9482 0.9483 0.9484 0.9485 0.9486
1920.000000 0.9487 0.9488 0.9489 0.9490 0.9491
1915.000000 0.9492 0.9494 0.9494 0.9496 0.9497
1910.000000 0.9497 0.9499 0.9500 0.9500 0.9502
1905.000000 0.9503 0.9504 0.9505 0.9506 0.9507
1900.000000 0.9507 0.9508 0.9508 0.9508 0.9509
1895.000000 0.9510 0.9510 0.9510 0.9511 0.9512
1890.000000 0.9512 0.9513 0.9513 0.9513 0.9514
1885.000000 0.9515 0.9515 0.9515 0.9516 0.9517
1880.000000 0.9517 0.9518 0.9518 0.9518 0.9518
1875.000000 0.9520 0.9520 0.9520 0.9521 0.9521
1870.000000 0.9521 0.9523 0.9523 0.9524 0.9524
1865.000000 0.9525 0.9525 0.9525 0.9525 0.9527
1860.000000 0.9528 0.9528 0.9528 0.9530 0.9530
1855.000000 0.9530 0.9531 0.9532 0.9532 0.9533
1850.000000 0.9534 0.9534 0.9534 0.9535 0.9536
1845.000000 0.9537 0.9537 0.9538 0.9538 0.9538
1840.000000 0.9539 0.9540 0.9540 0.9540 0.9541
1835.000000 0.9542 0.9542 0.9542 0.9543 0.9543
1830.000000 0.9544 0.9544 0.9544 0.9545 0.9545
1825.000000 0.9545 0.9546 0.9546 0.9547 0.9547
1820.000000 0.9548 0.9548 0.9547 0.9547 0.9546
1815.000000 0.9545 0.9544 0.9544 0.9543 0.9542
1810.000000 0.9541 0.9541 0.9540 0.9539 0.9538
1805.000000 0.9537 0.9537 0.9535 0.9532 0.9528
1800.000000 0.9525 0.9523 0.9520 0.9517 0.9514
1795.000000 0.9510 0.9507 0.9504 0.9501 0.9498
1790.000000 0.9496 0.9493 0.9490 0.9487 0.9483
1785.000000 0.9480 0.9477 0.9474 0.9471 0.9468
1780.000000 0.9464 0.9434 0.9455 0.9450 0.9445
1775.000000 0.9440 0.9435 0.9428 0.9423 0.9416
1770.000000 0.9409 0.9402 0.9395 0.9384 0.9371
1765.000000 0.9360 0.9348 0.9336 0.9318 0.9301
1760.000000 0.9284 0.9266 0.9248 0.9228 0.9209
1755.000000 0.9184 0.9151 0.9107 0.9062 0.8912
1750.000000 0.8788 0.8688 0.8590 0.8465 0.8136
1745.000000 0.7686 0.7207 0.6728 0.6248 0.5767
1740.000000 0.5286 0.4805 0.4323 0.3840 0.3357
1735.000000 0.2873 0.2388 0.2074 0.1946 0.1954
1730.000000 0.1967 0.2073 0.2434 0.2824 0.3212
1725.000000 0.3603 0.3993 0.4385 0.4776 0.5167
1720.000000 0.5560 0.5952 0.6345 0.6751 0.7500
1715.000000 0.7704 0.7801 0.7874 0.7931 0.7988
1710.000000 0.8045 0.8094 0.8137 0.8178 0.8220
1705.000000 0.8262 0.8305 0.8349 0.8399 0.8448
1700.000000 0.8494 0.8536 0.8573 0.8605 0.8635
1695.000000 0.8659 0.8671 0.8681 0.8691 0.8701
1690.000000 0.8709 0.8717 0.8725 0.8732 0.8744
1685.000000 0.8758 0.8773 0.8788 0.8802 0.8817
1680.000000 0.8834 0.8853 0.8871 0.8890 0.8903
1675.000000 0.8911 0.8918 0.8927 0.8936 0.8944
1670.000000 0.8953 0.8961 0.8966 0.8970 0.8973
1665.000000 0.8977 0.8980 0.8983 0.8986 0.8990
1660.000000 0.8993 0.8996 0.8999 0.9001 0.9003
1655.000000 0.9005 0.9006 0.9007 0.9009 0.9011
1650.000000 0.9013 0.9014 0.9015 0.9017 0.9018
1645.000000 0.9021 0.9025 0.9035 0.9047 0.9059
1640.000000 0.9071 0.9081 0.9086 0.9090 0.9095
1635.000000 0.9101 0.9105 0.9110 0.9115 0.9120
1630.000000 0.9123 0.9125 0.9125 0.9125 0.9125
1625.000000 0.9125 0.9125 0.9125 0.9127 0.9127
1620.000000 0.9128 0.9130 0.9131 0.9133 0.9134
1615.000000 0.9134 0.9136 0.9137 0.9139 0.9144
1610.000000 0.9150 0.9157 0.9163 0.9168 0.9175
1605.000000 0.9184 0.9192 0.9200 0.9208 0.9216
1600.000000 0.9224 0.9232 0.9240 0.9248 0.9256
1595.000000 0.9260 0.9265 0.9270 0.9275 0.9280
1590.000000 0.9284 0.9289 0.9294 0.9299 0.9303
1585.000000 0.9308 0.9313 0.9317 0.9321 0.9325
1580.000000 0.9330 0.9333 0.9336 0.9340 0.9343
1575.000000 0.9346 0.9346 0.9341 0.9336 0.9331
1570.000000 0.9327 0.9323 0.9321 0.9318 0.9317
1565.000000 0.9315 0.9313 0.9311 0.9308 0.9308
1560.000000 0.9309 0.9309 0.9310 0.9311 0.9312
1555.000000 0.9313 0.9313 0.9314 0.9315 0.9316
1550.000000 0.9316 0.9314 0.9312 0.9309 0.9307
1545.000000 0.9305 0.9303 0.9301 0.9299 0.9297
1540.000000 0.9295 0.9312 0.9290 0.9287 0.9285
1535.000000 0.9282 0.9280 0.9277 0.9275 0.9273
1530.000000 0.9270 0.9266 0.9263 0.9261 0.9258
1525.000000 0.9254 0.9250 0.9245 0.9238 0.9232
1520.000000 0.9225 0.9220 0.9213 0.9206 0.9195
1515.000000 0.9184 0.9173 0.9162 0.9151 0.9141
1510.000000 0.9130 0.9118 0.9106 0.9093 0.9080
1505.000000 0.9068 0.9055 0.9042 0.9028 0.9016
1500.000000 0.9003 0.8990 0.8977 0.8956 0.8933
1495.000000 0.8909 0.8859 0.8740 0.8527 0.8375
1490.000000 0.8287 0.8201 0.8119 0.8039 0.7956
1485.000000 0.7869 0.7787 0.7712 0.7641 0.7571
1480.000000 0.7482 0.7289 0.7068 0.6847 0.6625
1475.000000 0.6404 0.6182 0.5960 0.5737 0.5514
1470.000000 0.5376 0.5395 0.5389 0.5386 0.5383
1465.000000 0.5391 0.5415 0.5458 0.5508 0.5575
1460.000000 0.5594 0.5677 0.5610 0.5604 0.5571
1455.000000 0.5520 0.5465 0.5447 0.5405 0.5435
1450.000000 0.5445 0.5523 0.5601 0.5698 0.5964
1445.000000 0.6274 0.6585 0.6882 0.7012 0.7039
1440.000000 0.7065 0.7092 0.7119 0.7154 0.7271
1435.000000 0.7411 0.7551 0.7692 0.7832 0.7972
1430.000000 0.8112 0.8255 0.8396 0.8537 0.8630
1425.000000 0.8664 0.8697 0.8715 0.8727 0.8738
1420.000000 0.8746 0.8748 0.8750 0.8745 0.8762
1415.000000 0.8716 0.8694 0.8662 0.8625 0.8559
1410.000000 0.8375 0.8171 0.7965 0.7761 0.7556
1405.000000 0.7351 0.7145 0.6938 0.6803 0.6757
1400.000000 0.6787 0.6786 0.6851 0.6986 0.7121
1395.000000 0.7257 0.7393 0.7528 0.7664 0.7878
1390.000000 0.7844 0.7851 0.7828 0.7712 0.7548
1385.000000 0.7218 0.7255 0.7239 0.7238 0.7249
1380.000000 0.7294 0.7354 0.7465 0.7422 0.7426
1375.000000 0.7415 0.7358 0.7307 0.7264 0.7225
1370.000000 0.7194 0.7178 0.7178 0.7178 0.7207
1365.000000 0.7330 0.7453 0.7575 0.7699 0.7821
1360.000000 0.7946 0.8069 0.8289 0.8277 0.8278
1355.000000 0.8278 0.8274 0.8250 0.8213 0.8184
1350.000000 0.8158 0.8167 0.8175 0.8218 0.8297
1345.000000 0.8377 0.8414 0.8434 0.8440 0.8443
1340.000000 0.8443 0.8443 0.8438 0.8430 0.8411
1335.000000 0.8375 0.8264 0.8134 0.8003 0.7871
1330.000000 0.7740 0.7608 0.7476 0.7311 0.7301
1325.000000 0.7304 0.7312 0.7360 0.7418 0.7490
1320.000000 0.7565 0.7650 0.7776 0.7899 0.7985
1315.000000 0.8071 0.8158 0.8243 0.8327 0.8404
1310.000000 0.8475 0.8537 0.8555 0.8575 0.8566
1305.000000 0.8567 0.8567 0.8545 0.8492 0.8352
1300.000000 0.8182 0.8011 0.7842 0.7671 0.7500
1295.000000 0.7368 0.7345 0.7315 0.7350 0.7405
1290.000000 0.7578 0.7697 0.7811 0.7912 0.8011
1285.000000 0.8125 0.8273 0.8371 0.8454 0.8506
1280.000000 0.8537 0.8558 0.8575 0.8575 0.8559
1275.000000 0.8538 0.8518 0.8501 0.8485 0.8457
1270.000000 0.8482 0.8503 0.8531 0.8565 0.8604
1265.000000 0.8633 0.8653 0.8668 0.8682 0.8661
1260.000000 0.8645 0.8633 0.8624 0.8621 0.8628
1255.000000 0.8638 0.8647 0.8657 0.8668 0.8678
1250.000000 0.8702 0.8690 0.8685 0.8652 0.8434
1245.000000 0.8335 0.8248 0.8169 0.8088 0.8115
1240.000000 0.8117 0.8125 0.8158 0.8202 0.8223
1235.000000 0.8236 0.8220 0.8158 0.7972 0.7737
1230.000000 0.7678 0.7664 0.7675 0.7697 0.7735
1225.000000 0.7778 0.7821 0.7862 0.7900 0.7932
1220.000000 0.7955 0.7978 0.7994 0.7999 0.7947
1215.000000 0.7861 0.7751 0.7518 0.7191 0.6862
1210.000000 0.6534 0.6205 0.5875 0.5544 0.5214
1205.000000 0.4932 0.4378 0.4164 0.3921 0.3687
1200.000000 0.3530 0.3416 0.3320 0.3238 0.3174
1195.000000 0.3144 0.3107 0.3134 0.3180 0.3357
1190.000000 0.3766 0.4175 0.4585 0.4996 0.5481
1185.000000 0.5722 0.6087 0.6269 0.6315 0.6358
1180.000000 0.6399 0.6445 0.6512 0.6591 0.6717
1175.000000 0.6858 0.6974 0.7061 0.7099 0.7106
1170.000000 0.7115 0.6969 0.6618 0.6267 0.5915
1165.000000 0.5560 0.5208 0.4854 0.4500 0.4144
1160.000000 0.3818 0.3855 0.3876 0.4210 0.4667
1155.000000 0.5123 0.5580 0.6106 0.6651 0.6891
1150.000000 0.7125 0.7354 0.7458 0.7489 0.7505
1145.000000 0.7501 0.7492 0.7286 0.6772 0.6260
1140.000000 0.5746 0.5231 0.4715 0.4199 0.3680
1135.000000 0.3289 0.3322 0.3478 0.3992 0.4509
1130.000000 0.5025 0.5532 0.5851 0.6078 0.6270
1125.000000 0.6400 0.6515 0.6646 0.6801 0.7047
1120.000000 0.7271 0.7414 0.7575 0.7742 0.7838
1115.000000 0.7938 0.8015 0.8082 0.8139 0.8190
1110.000000 0.8242 0.8291 0.8335 0.8375 0.8412
1105.000000 0.8447 0.8474 0.8501 0.8520 0.8536
1100.000000 0.8549 0.8548 0.8547 0.8499 0.8440
1095.000000 0.8365 0.8283 0.8171 0.8037 0.7876
1090.000000 0.7857 0.7855 0.7854 0.7854 0.7848
1085.000000 0.7832 0.7794 0.7724 0.7751 0.7761
1080.000000 0.7804 0.7893 0.7980 0.8051 0.8091
1075.000000 0.8101 0.8100 0.8080 0.8061 0.8051
1070.000000 0.8054 0.8065 0.8097 0.8143 0.8191
1065.000000 0.8263 0.8339 0.8398 0.8447 0.8490
1060.000000 0.8518 0.8536 0.8536 0.8548 0.8533
1055.000000 0.8505 0.8461 0.8367 0.8239 0.8110
1050.000000 0.7982 0.7853 0.7724 0.7594 0.7464
1045.000000 0.7354 0.7330 0.7292 0.7321 0.7328
1040.000000 0.7356 0.7396 0.7467 0.7528 0.7596
1035.000000 0.7634 0.7662 0.7637 0.7608 0.7517
1030.000000 0.7339 0.7151 0.6955 0.6722 0.6454
1025.000000 0.6336 0.6336 0.6336 0.6332 0.6316
1020.000000 0.6234 0.6141 0.6090 0.6065 0.6062
1015.000000 0.6168 0.6375 0.6576 0.6778 0.6982
1010.000000 0.7186 0.7390 0.7594 0.7798 0.8001
1005.000000 0.8175 0.8275 0.8355 0.8405 0.8438
1000.000000 0.8525 0.8488 0.8254 0.8267 0.8341
995.000000 0.8389 0.8421 0.8439 0.8435 0.8395
990.000000 0.8293 0.8223 0.8183 0.8150 0.8164
985.000000 0.8190 0.8220 0.8252 0.8284 0.8318
980.000000 0.8345 0.8364 0.8382 0.8394 0.8406
975.000000 0.8402 0.8391 0.8362 0.8318 0.8228
970.000000 0.8157 0.8095 0.8030 0.7964 0.7928
965.000000 0.7911 0.7906 0.7899 0.7956 0.8036
960.000000 0.8115 0.8198 0.8283 0.8378 0.8477
955.000000 0.8530 0.8535 0.8554 0.8588 0.8644
950.000000 0.8705 0.8767 0.8818 0.8867 0.8898
945.000000 0.8921 0.8954 0.8942 0.8932 0.8903
940.000000 0.8857 0.8760 0.8702 0.8663 0.8645
935.000000 0.8655 0.8663 0.8677 0.8692 0.8707
930.000000 0.8721 0.8732 0.8738 0.8746 0.8761
925.000000 0.8780 0.8810 0.8851 0.8892 0.8945
920.000000 0.9000 0.9059 0.9117 0.9170 0.9211
915.000000 0.9225 0.9277 0.9228 0.9225 0.9223
910.000000 0.9217 0.9210 0.9195 0.9174 0.9128
905.000000 0.9082 0.9042 0.9002 0.8965 0.8927
900.000000 0.8889 0.8851 0.8816 0.8782 0.8750
895.000000 0.8728 0.8713 0.8732 0.8783 0.8860
890.000000 0.8932 0.9009 0.9094 0.9163 0.9217
885.000000 0.9254 0.9275 0.9292 0.9302 0.9313
880.000000 0.9325 0.9338 0.9351 0.9364 0.9377
875.000000 0.9389 0.9400 0.9411 0.9421 0.9428
870.000000 0.9436 0.9436 0.9437 0.9436 0.9406
865.000000 0.9389 0.9373 0.9358 0.9347 0.9341
860.000000 0.9343 0.9356 0.9368 0.9371 0.9346
855.000000 0.9286 0.9193 0.9088 0.8816 0.8883
850.000000 0.8860 0.8865 0.8870 0.8891 0.8916
845.000000 0.8954 0.8992 0.9037 0.9086 0.9145
840.000000 0.9198 0.9250 0.9300 0.9338 0.9355
835.000000 0.9365 0.9373 0.9406 0.9366 0.9354
830.000000 0.9342 0.9297 0.9204 0.9078 0.8967
825.000000 0.8871 0.8789 0.8746 0.8759 0.8778
820.000000 0.8832 0.8916 0.9000 0.9084 0.9138
815.000000 0.9191 0.9239 0.9271 0.9335 0.9290
810.000000 0.9284 0.9271 0.9227 0.9094 0.8985
805.000000 0.8901 0.8839 0.8847 0.8847 0.8908
800.000000 0.9031 0.9121 0.9177 0.9214 0.9241
795.000000 0.9262 0.9282 0.9296 0.9309 0.9323
790.000000 0.9337 0.9350 0.9363 0.9375 0.9388
785.000000 0.9401 0.9414 0.9425 0.9428 0.9451
780.000000 0.9462 0.9473 0.9478 0.9482 0.9483
775.000000 0.9483 0.9477 0.9465 0.9445 0.9408
770.000000 0.9309 0.9218 0.9147 0.9050 0.9050
765.000000 0.9110 0.9187 0.9261 0.9321 0.9368
760.000000 0.9413 0.9445 0.9457 0.9468 0.9468
755.000000 0.9468 0.9461 0.9446 0.9428 0.9404
750.000000 0.9384 0.9371 0.9359 0.9348 0.9339
745.000000 0.9339 0.9342 0.9347 0.9359 0.9371
740.000000 0.9386 0.9401 0.9418 0.9434 0.9450
735.000000 0.9462 0.9471 0.9483 0.9493 0.9504
730.000000 0.9512 0.9517 0.9523 0.9528 0.9528
725.000000 0.9528 0.9527 0.9527 0.9525 0.9525
720.000000 0.9523 0.9520 0.9517 0.9514 0.9510
715.000000 0.9507 0.9504 0.9501 0.9498 0.9495
710.000000 0.9492 0.9517 0.9487 0.9485 0.9482
705.000000 0.9480 0.9477 0.9474 0.9471 0.9467
700.000000 0.9464 0.9460 0.9457 0.9453 0.9449
695.000000 0.9446 0.9443 0.9441 0.9438 0.9427
690.000000 0.9415 0.9404 0.9395 0.9387 0.9378
685.000000 0.9370 0.9362 0.9354 0.9346 0.9347
680.000000 0.9348 0.9349 0.9351 0.9363 0.9375
675.000000 0.9387 0.9395 0.9400 0.9399 0.9381
670.000000 0.9364
##END=
