##TITLE=Hexadecane-1-sulfonic acid, sodium salt
##JCAMP-DX=4.24
##DATA TYPE=INFRARED SPECTRUM
##CLASS=COBLENTZ III
##ORIGIN=COLGATE-PALMOLIVE COMPANY (KELLENBACH)
##OWNER=Copyright (C) 1987 by the Coblentz Society
Collection (C) 2018 copyright by the U.S. Secretary of Commerce
on behalf of the United States of America. All rights reserved.
##DATE=1974/04/02
##MOLFORM=C16 H33 O3 S Na
##SOURCE REFERENCE=COBLENTZ NO. 9745
##$NIST ID=B6009745
##$NIST SOURCE=COBLENTZ
##$NIST IMAGE=cob9745
##SPECTROMETER/DATA SYSTEM=BECKMAN IR-12 (GRATING)
##INSTRUMENT PARAMETERS=GRATING
##STATE=SOLID (1 mg / 100 mg KBr DISC)
$$ SEE SPECTRUM NO. 9743 FOR "SPLIT MULL" RUN
$$SPECTRAL CONTAMINATION DUE TO H2O AROUND 3460, 1654 (H2O VAPOR), AND UNKNOWNS AROUND 2360, 200 CM^-^1
##SAMPLING PROCEDURE=TRANSMISSION
##RESOLUTION=2
##DATA PROCESSING=DIGITIZED BY COBLENTZ SOCIETY (BATCH II) FROM HARD COPY
##XUNITS=1/CM
##YUNITS=TRANSMITTANCE
##XFACTOR=1.0
##YFACTOR=1
##FIRSTX=205
##LASTX=4000
##FIRSTY=0.0876
##MAXX=4000
##MINX=205
##MAXY=0.949
##MINY=0.059
##NPOINTS=3796
##XYDATA=(X++(Y..Y))
205.000000 0.0876 0.0870 0.0876 0.0883 0.0889
210.000000 0.0895 0.0902 0.0908 0.0914 0.0941
215.000000 0.0992 0.1042 0.1093 0.1219 0.1353
220.000000 0.1487 0.1621 0.1755 0.1890 0.2024
225.000000 0.2158 0.2292 0.2426 0.2561 0.2695
230.000000 0.2829 0.2963 0.3097 0.3231 0.3366
235.000000 0.3500 0.3634 0.3768 0.3902 0.4037
240.000000 0.4171 0.4301 0.4407 0.4517 0.4608
245.000000 0.4654 0.4699 0.4745 0.4791 0.4877
250.000000 0.4991 0.5104 0.5218 0.5332 0.5446
255.000000 0.5559 0.5673 0.5787 0.5900 0.6014
260.000000 0.6128 0.6242 0.6355 0.6469 0.6583
265.000000 0.6696 0.6810 0.6924 0.7038 0.7151
270.000000 0.7265 0.7379 0.7492 0.7606 0.7695
275.000000 0.7688 0.7682 0.7676 0.7668 0.7658
280.000000 0.7679 0.7731 0.7783 0.7834 0.7886
285.000000 0.7938 0.7990 0.8042 0.8094 0.8146
290.000000 0.8198 0.8250 0.8302 0.8354 0.8406
295.000000 0.8458 0.8510 0.8525 0.8538 0.8542
300.000000 0.8552 0.8553 0.8548 0.8538 0.8528
305.000000 0.8514 0.8497 0.8480 0.8463 0.8447
310.000000 0.8437 0.8430 0.8393 0.8440 0.8450
315.000000 0.8461 0.8471 0.8482 0.8492 0.8503
320.000000 0.8514 0.8524 0.8531 0.8532 0.8533
325.000000 0.8551 0.8536 0.8537 0.8529 0.8519
330.000000 0.8508 0.8493 0.8478 0.8463 0.8448
335.000000 0.8433 0.8418 0.8404 0.8390 0.8376
340.000000 0.8362 0.8348 0.8334 0.8320 0.8306
345.000000 0.8292 0.8278 0.8264 0.8256 0.8247
350.000000 0.8238 0.8229 0.8220 0.8211 0.8203
355.000000 0.8203 0.8205 0.8205 0.8206 0.8207
360.000000 0.8211 0.8223 0.8234 0.8246 0.8274
365.000000 0.8302 0.8329 0.8357 0.8394 0.8433
370.000000 0.8472 0.8492 0.8512 0.8532 0.8546
375.000000 0.8556 0.8565 0.8575 0.8584 0.8594
380.000000 0.8604 0.8615 0.8625 0.8635 0.8645
385.000000 0.8667 0.8707 0.8747 0.8787 0.8827
390.000000 0.8867 0.8905 0.8937 0.8970 0.9002
395.000000 0.9014 0.9021 0.9029 0.9037 0.9044
400.000000 0.9052 0.9065 0.9078 0.9091 0.9104
405.000000 0.9120 0.9137 0.9155 0.9175 0.9199
410.000000 0.9222 0.9245 0.9256 0.9266 0.9276
415.000000 0.9286 0.9258 0.9224 0.9189 0.9149
420.000000 0.9100 0.9052 0.9003 0.8953 0.8952
425.000000 0.8966 0.8993 0.9021 0.9049 0.9077
430.000000 0.9105 0.9132 0.9160 0.9188 0.9216
435.000000 0.9244 0.9271 0.9299 0.9310 0.9313
440.000000 0.9317 0.9321 0.9316 0.9312 0.9307
445.000000 0.9303 0.9298 0.9294 0.9290 0.9285
450.000000 0.9285 0.9287 0.9288 0.9290 0.9292
455.000000 0.9293 0.9298 0.9304 0.9310 0.9316
460.000000 0.9322 0.9326 0.9324 0.9321 0.9319
465.000000 0.9315 0.9311 0.9308 0.9300 0.9291
470.000000 0.9283 0.9275 0.9267 0.9259 0.9251
475.000000 0.9242 0.9232 0.9223 0.9213 0.9208
480.000000 0.9220 0.9231 0.9249 0.9271 0.9293
485.000000 0.9316 0.9332 0.9348 0.9364 0.9380
490.000000 0.9384 0.9409 0.9417 0.9418 0.9419
495.000000 0.9419 0.9420 0.9421 0.9412 0.9402
500.000000 0.9391 0.9380 0.9363 0.9346 0.9329
505.000000 0.9313 0.9297 0.9281 0.9265 0.9249
510.000000 0.9232 0.9215 0.9199 0.9182 0.9178
515.000000 0.9178 0.9177 0.9177 0.9176 0.9169
520.000000 0.9098 0.9026 0.8955 0.8883 0.8812
525.000000 0.8740 0.8668 0.8597 0.8525 0.8454
530.000000 0.8382 0.8311 0.8239 0.8168 0.8096
535.000000 0.8036 0.8021 0.8017 0.8018 0.8019
540.000000 0.8030 0.8048 0.8070 0.8088 0.8089
545.000000 0.8090 0.8089 0.8080 0.8072 0.8059
550.000000 0.8045 0.8038 0.8034 0.8030 0.8029
555.000000 0.8033 0.8038 0.8042 0.8097 0.8158
560.000000 0.8220 0.8281 0.8343 0.8404 0.8466
565.000000 0.8527 0.8589 0.8650 0.8712 0.8773
570.000000 0.8835 0.8896 0.8958 0.9019 0.9081
575.000000 0.9142 0.9204 0.9247 0.9275 0.9303
580.000000 0.9331 0.9356 0.9375 0.9394 0.9413
585.000000 0.9425 0.9432 0.9439 0.9445 0.9452
590.000000 0.9457 0.9460 0.9463 0.9467 0.9470
595.000000 0.9473 0.9474 0.9474 0.9480 0.9474
600.000000 0.9474 0.9470 0.9280 0.9089 0.8899
605.000000 0.8708 0.8518 0.8327 0.8137 0.7947
610.000000 0.7756 0.7566 0.7375 0.7185 0.6994
615.000000 0.6804 0.6614 0.6423 0.6233 0.6042
620.000000 0.5852 0.5661 0.5529 0.5529 0.5532
625.000000 0.5529 0.5857 0.6097 0.6337 0.6577
630.000000 0.6817 0.7057 0.7297 0.7537 0.7777
635.000000 0.8017 0.8257 0.8497 0.8737 0.8977
640.000000 0.9216 0.9239 0.9263 0.9289 0.9327
645.000000 0.9364 0.9402 0.9445 0.9485 0.9486
650.000000 0.9488 0.9490 0.9486 0.9458 0.9469
655.000000 0.9460 0.9452 0.9444 0.9437 0.9430
660.000000 0.9423 0.9416 0.9408 0.9404 0.9399
665.000000 0.9395 0.9391 0.9387 0.9382 0.9378
670.000000 0.9374 0.9373 0.9374 0.9375 0.9376
675.000000 0.9377 0.9378 0.9379 0.9382 0.9386
680.000000 0.9391 0.9396 0.9400 0.9403 0.9406
685.000000 0.9409 0.9412 0.9415 0.9417 0.9420
690.000000 0.9422 0.9418 0.9414 0.9410 0.9406
695.000000 0.9402 0.9398 0.9394 0.9388 0.9382
700.000000 0.9377 0.9371 0.9362 0.9349 0.9337
705.000000 0.9325 0.9311 0.9296 0.9280 0.9264
710.000000 0.9248 0.9087 0.8926 0.8765 0.8604
715.000000 0.8443 0.8282 0.8121 0.7960 0.7799
720.000000 0.7638 0.7477 0.7370 0.7373 0.7370
725.000000 0.7514 0.7658 0.7802 0.7946 0.8090
730.000000 0.8235 0.8379 0.8498 0.8561 0.8615
735.000000 0.8668 0.8721 0.8774 0.8827 0.8881
740.000000 0.8934 0.8987 0.9042 0.9073 0.9104
745.000000 0.9131 0.9154 0.9178 0.9202 0.9220
750.000000 0.9236 0.9251 0.9255 0.9255 0.9255
755.000000 0.9255 0.9267 0.9280 0.9293 0.9312
760.000000 0.9335 0.9336 0.9333 0.9310 0.9269
765.000000 0.9228 0.9190 0.9152 0.9115 0.9095
770.000000 0.9071 0.9143 0.9186 0.9229 0.9272
775.000000 0.9315 0.9323 0.9326 0.9273 0.9233
780.000000 0.9201 0.9169 0.9136 0.9102 0.9068
785.000000 0.9033 0.8995 0.8955 0.8850 0.8542
790.000000 0.8415 0.8326 0.8238 0.8168 0.8098
795.000000 0.8028 0.7958 0.7889 0.7819 0.7749
800.000000 0.7679 0.7609 0.7590 0.7580 0.7656
805.000000 0.7808 0.7960 0.8112 0.8264 0.8416
810.000000 0.8567 0.8719 0.8871 0.9023 0.9142
815.000000 0.9152 0.9166 0.9178 0.9194 0.9231
820.000000 0.9269 0.9306 0.9343 0.9380 0.9418
825.000000 0.9455 0.9460 0.9460 0.9431 0.9461
830.000000 0.9461 0.9460 0.9460 0.9459 0.9459
835.000000 0.9459 0.9458 0.9458 0.9457 0.9457
840.000000 0.9456 0.9453 0.9450 0.9446 0.9443
845.000000 0.9439 0.9436 0.9433 0.9429 0.9426
850.000000 0.9422 0.9419 0.9416 0.9413 0.9410
855.000000 0.9408 0.9405 0.9402 0.9400 0.9397
860.000000 0.9394 0.9392 0.9389 0.9386 0.9384
865.000000 0.9381 0.9378 0.9376 0.9373 0.9370
870.000000 0.9368 0.9364 0.9360 0.9356 0.9352
875.000000 0.9348 0.9344 0.9339 0.9335 0.9331
880.000000 0.9327 0.9323 0.9319 0.9315 0.9311
885.000000 0.9306 0.9301 0.9292 0.9284 0.9276
890.000000 0.9267 0.9259 0.9251 0.9242 0.9234
895.000000 0.9226 0.9217 0.9209 0.9199 0.9189
900.000000 0.9178 0.9168 0.9158 0.9148 0.9138
905.000000 0.9128 0.9117 0.9107 0.9097 0.9088
910.000000 0.9081 0.9074 0.9067 0.9060 0.9053
915.000000 0.9046 0.9039 0.9032 0.9025 0.9018
920.000000 0.9011 0.9004 0.8999 0.9000 0.9000
925.000000 0.9001 0.9001 0.9002 0.9002 0.9003
930.000000 0.9003 0.9004 0.9007 0.9010 0.9012
935.000000 0.9015 0.9018 0.9020 0.9023 0.9026
940.000000 0.9028 0.9027 0.9026 0.9024 0.9023
945.000000 0.9021 0.9019 0.9018 0.9016 0.9015
950.000000 0.9013 0.9011 0.9007 0.9003 0.8998
955.000000 0.8994 0.8989 0.8985 0.8981 0.8976
960.000000 0.8972 0.8967 0.8963 0.8958 0.8954
965.000000 0.8950 0.8945 0.8938 0.8929 0.8920
970.000000 0.8911 0.8902 0.8893 0.8884 0.8875
975.000000 0.8866 0.8853 0.8833 0.8813 0.8793
980.000000 0.8773 0.8753 0.8734 0.8714 0.8703
985.000000 0.8697 0.8691 0.8685 0.8681 0.8678
990.000000 0.8674 0.8671 0.8667 0.8645 0.8628
995.000000 0.8612 0.8597 0.8597 0.8597 0.8598
1000.000000 0.8600 0.8602 0.8604 0.8606 0.8608
1005.000000 0.8611 0.8613 0.8615 0.8618 0.8620
1010.000000 0.8622 0.8625 0.8627 0.8628 0.8629
1015.000000 0.8630 0.8632 0.8633 0.8634 0.8636
1020.000000 0.8636 0.8637 0.8638 0.8639 0.8639
1025.000000 0.8624 0.8608 0.8591 0.8574 0.8551
1030.000000 0.8513 0.8476 0.8438 0.8395 0.8351
1035.000000 0.8307 0.8264 0.8214 0.8126 0.8037
1040.000000 0.7914 0.7723 0.7499 0.7324 0.7149
1045.000000 0.6975 0.6800 0.6625 0.6450 0.6275
1050.000000 0.6100 0.5926 0.5751 0.5576 0.5401
1055.000000 0.5226 0.5051 0.4877 0.4702 0.4527
1060.000000 0.4352 0.4177 0.4002 0.3828 0.3653
1065.000000 0.3478 0.3303 0.3128 0.2954 0.2779
1070.000000 0.2717 0.2698 0.2697 0.3065 0.3488
1075.000000 0.3911 0.4333 0.4756 0.5179 0.5601
1080.000000 0.6024 0.6447 0.6602 0.6692 0.6775
1085.000000 0.6877 0.6995 0.7108 0.7210 0.7311
1090.000000 0.7364 0.7416 0.7469 0.7545 0.7655
1095.000000 0.7761 0.7859 0.7892 0.7906 0.7909
1100.000000 0.7905 0.7900 0.7892 0.7905 0.7924
1105.000000 0.7943 0.7997 0.8068 0.8126 0.8168
1110.000000 0.8188 0.8208 0.8216 0.8212 0.8206
1115.000000 0.8203 0.8202 0.8211 0.8230 0.8259
1120.000000 0.8295 0.8296 0.8316 0.8313 0.8304
1125.000000 0.8291 0.8281 0.8272 0.8253 0.8232
1130.000000 0.8209 0.8185 0.8156 0.8128 0.8096
1135.000000 0.8058 0.8021 0.7983 0.7938 0.7893
1140.000000 0.7848 0.7803 0.7754 0.7703 0.7653
1145.000000 0.7603 0.7543 0.7469 0.7394 0.7194
1150.000000 0.6661 0.6470 0.6279 0.6088 0.5897
1155.000000 0.5706 0.5515 0.5324 0.5133 0.4942
1160.000000 0.4751 0.4560 0.4369 0.4178 0.3987
1165.000000 0.3796 0.3605 0.3414 0.3223 0.3032
1170.000000 0.2841 0.2650 0.2459 0.2268 0.2077
1175.000000 0.1893 0.1836 0.1810 0.1787 0.1772
1180.000000 0.1769 0.1770 0.1780 0.1776 0.1785
1185.000000 0.1799 0.1820 0.1857 0.1887 0.1915
1190.000000 0.1943 0.1971 0.1999 0.2027 0.2054
1195.000000 0.2064 0.2073 0.2083 0.2091 0.2095
1200.000000 0.2099 0.2103 0.2107 0.2111 0.2115
1205.000000 0.2120 0.2128 0.2135 0.2142 0.2170
1210.000000 0.2282 0.2333 0.2341 0.2349 0.2358
1215.000000 0.2371 0.2384 0.2397 0.2498 0.2663
1220.000000 0.2828 0.2993 0.3159 0.3324 0.3489
1225.000000 0.3654 0.3819 0.3984 0.4166 0.4188
1230.000000 0.4196 0.4203 0.4210 0.4217 0.4287
1235.000000 0.4404 0.4520 0.4637 0.4753 0.4870
1240.000000 0.4986 0.5103 0.5219 0.5336 0.5452
1245.000000 0.5568 0.5685 0.5801 0.5918 0.5996
1250.000000 0.6001 0.5973 0.5941 0.5910 0.5884
1255.000000 0.5891 0.5994 0.6135 0.6276 0.6416
1260.000000 0.6557 0.6698 0.6838 0.6979 0.7120
1265.000000 0.7218 0.7237 0.7240 0.7227 0.7209
1270.000000 0.7191 0.7173 0.7155 0.7153 0.7213
1275.000000 0.7273 0.7334 0.7394 0.7454 0.7515
1280.000000 0.7575 0.7636 0.7696 0.7757 0.7813
1285.000000 0.7813 0.7811 0.7810 0.7808 0.7804
1290.000000 0.7800 0.7795 0.7782 0.7764 0.7748
1295.000000 0.7734 0.7735 0.7759 0.7783 0.7807
1300.000000 0.7831 0.7854 0.7878 0.7902 0.7926
1305.000000 0.7950 0.7974 0.7997 0.8021 0.8045
1310.000000 0.8069 0.8093 0.8116 0.8140 0.8164
1315.000000 0.8188 0.8212 0.8236 0.8259 0.8283
1320.000000 0.8307 0.8331 0.8350 0.8366 0.8383
1325.000000 0.8399 0.8414 0.8429 0.8444 0.8459
1330.000000 0.8475 0.8482 0.8485 0.8487 0.8490
1335.000000 0.8491 0.8492 0.8494 0.8495 0.8496
1340.000000 0.8497 0.8499 0.8500 0.8501 0.8503
1345.000000 0.8508 0.8521 0.8533 0.8595 0.8558
1350.000000 0.8570 0.8574 0.8579 0.8584 0.8584
1355.000000 0.8582 0.8581 0.8580 0.8579 0.8577
1360.000000 0.8574 0.8572 0.8569 0.8567 0.8561
1365.000000 0.8553 0.8545 0.8536 0.8528 0.8520
1370.000000 0.8511 0.8496 0.8480 0.8464 0.8448
1375.000000 0.8431 0.8401 0.8371 0.8338 0.8322
1380.000000 0.8321 0.8322 0.8317 0.8376 0.8404
1385.000000 0.8436 0.8485 0.8533 0.8570 0.8592
1390.000000 0.8615 0.8638 0.8660 0.8671 0.8680
1395.000000 0.8682 0.8658 0.8669 0.8658 0.8648
1400.000000 0.8638 0.8628 0.8619 0.8609 0.8593
1405.000000 0.8577 0.8561 0.8545 0.8526 0.8504
1410.000000 0.8482 0.8460 0.8440 0.8424 0.8408
1415.000000 0.8393 0.8379 0.8371 0.8363 0.8355
1420.000000 0.8367 0.8355 0.8415 0.8439 0.8463
1425.000000 0.8487 0.8512 0.8536 0.8543 0.8551
1430.000000 0.8529 0.8516 0.8497 0.8468 0.8439
1435.000000 0.8424 0.8408 0.8392 0.8385 0.8379
1440.000000 0.8372 0.8366 0.8357 0.8346 0.8336
1445.000000 0.8317 0.8298 0.8278 0.8249 0.8214
1450.000000 0.8178 0.8141 0.8095 0.8050 0.8004
1455.000000 0.7959 0.7848 0.7705 0.7517 0.7274
1460.000000 0.7176 0.7077 0.6881 0.6614 0.6347
1465.000000 0.6080 0.5814 0.5547 0.5280 0.5013
1470.000000 0.4933 0.4942 0.5271 0.5551 0.5831
1475.000000 0.6111 0.6391 0.6671 0.6951 0.7231
1480.000000 0.7510 0.7790 0.8047 0.8112 0.8176
1485.000000 0.8240 0.8305 0.8362 0.8400 0.8437
1490.000000 0.8472 0.8491 0.8511 0.8527 0.8532
1495.000000 0.8538 0.8544 0.8549 0.8555 0.8559
1500.000000 0.8562 0.8564 0.8566 0.8568 0.8571
1505.000000 0.8573 0.8575 0.8589 0.8580 0.8582
1510.000000 0.8584 0.8585 0.8587 0.8589 0.8591
1515.000000 0.8593 0.8594 0.8596 0.8596 0.8596
1520.000000 0.8595 0.8595 0.8594 0.8593 0.8593
1525.000000 0.8592 0.8591 0.8590 0.8589 0.8589
1530.000000 0.8588 0.8587 0.8586 0.8585 0.8584
1535.000000 0.8583 0.8582 0.8581 0.8580 0.8579
1540.000000 0.8578 0.8578 0.8577 0.8576 0.8574
1545.000000 0.8573 0.8572 0.8571 0.8570 0.8569
1550.000000 0.8568 0.8567 0.8566 0.8565 0.8564
1555.000000 0.8565 0.8566 0.8567 0.8568 0.8568
1560.000000 0.8569 0.8570 0.8571 0.8572 0.8573
1565.000000 0.8574 0.8576 0.8579 0.8582 0.8585
1570.000000 0.8588 0.8591 0.8595 0.8598 0.8601
1575.000000 0.8604 0.8607 0.8610 0.8614 0.8620
1580.000000 0.8625 0.8630 0.8631 0.8632 0.8633
1585.000000 0.8634 0.8635 0.8636 0.8637 0.8639
1590.000000 0.8640 0.8638 0.8635 0.8633 0.8630
1595.000000 0.8628 0.8625 0.8623 0.8620 0.8618
1600.000000 0.8613 0.8608 0.8602 0.8597 0.8592
1605.000000 0.8586 0.8581 0.8574 0.8564 0.8555
1610.000000 0.8545 0.8535 0.8526 0.8516 0.8506
1615.000000 0.8497 0.8487 0.8478 0.8468 0.8458
1620.000000 0.8449 0.8439 0.8427 0.8414 0.8402
1625.000000 0.8390 0.8377 0.8365 0.8353 0.8340
1630.000000 0.8328 0.8315 0.8304 0.8296 0.8289
1635.000000 0.8281 0.8273 0.8265 0.8257 0.8249
1640.000000 0.8242 0.8234 0.8230 0.8228 0.8226
1645.000000 0.8224 0.8222 0.8219 0.8217 0.8215
1650.000000 0.8213 0.8211 0.8209 0.8207 0.8205
1655.000000 0.8203 0.8201 0.8204 0.8206 0.8209
1660.000000 0.8216 0.8225 0.8235 0.8245 0.8254
1665.000000 0.8265 0.8277 0.8290 0.8303 0.8315
1670.000000 0.8328 0.8340 0.8353 0.8366 0.8380
1675.000000 0.8394 0.8407 0.8419 0.8426 0.8432
1680.000000 0.8439 0.8446 0.8453 0.8460 0.8467
1685.000000 0.8474 0.8480 0.8487 0.8494 0.8501
1690.000000 0.8508 0.8515 0.8520 0.8524 0.8528
1695.000000 0.8531 0.8535 0.8538 0.8542 0.8543
1700.000000 0.8543 0.8543 0.8542 0.8542 0.8542
1705.000000 0.8541 0.8541 0.8540 0.8540 0.8540
1710.000000 0.8539 0.8539 0.8538 0.8538 0.8537
1715.000000 0.8536 0.8536 0.8535 0.8535 0.8534
1720.000000 0.8534 0.8534 0.8533 0.8533 0.8532
1725.000000 0.8532 0.8531 0.8531 0.8531 0.8530
1730.000000 0.8530 0.8529 0.8529 0.8529 0.8528
1735.000000 0.8527 0.8526 0.8525 0.8524 0.8523
1740.000000 0.8522 0.8521 0.8521 0.8523 0.8526
1745.000000 0.8528 0.8531 0.8533 0.8536 0.8538
1750.000000 0.8540 0.8543 0.8545 0.8548 0.8550
1755.000000 0.8553 0.8555 0.8559 0.8562 0.8566
1760.000000 0.8570 0.8573 0.8575 0.8577 0.8579
1765.000000 0.8581 0.8583 0.8585 0.8586 0.8586
1770.000000 0.8587 0.8587 0.8587 0.8587 0.8587
1775.000000 0.8587 0.8587 0.8588 0.8588 0.8589
1780.000000 0.8589 0.8590 0.8590 0.8591 0.8591
1785.000000 0.8592 0.8590 0.8588 0.8585 0.8583
1790.000000 0.8581 0.8579 0.8577 0.8575 0.8572
1795.000000 0.8570 0.8568 0.8566 0.8564 0.8561
1800.000000 0.8559 0.8556 0.8553 0.8551 0.8548
1805.000000 0.8545 0.8543 0.8540 0.8537 0.8535
1810.000000 0.8532 0.8528 0.8525 0.8521 0.8518
1815.000000 0.8515 0.8511 0.8508 0.8505 0.8501
1820.000000 0.8498 0.8494 0.8491 0.8491 0.8491
1825.000000 0.8491 0.8491 0.8491 0.8491 0.8491
1830.000000 0.8491 0.8491 0.8491 0.8491 0.8491
1835.000000 0.8491 0.8491 0.8491 0.8491 0.8491
1840.000000 0.8491 0.8491 0.8491 0.8493 0.8495
1845.000000 0.8498 0.8500 0.8503 0.8505 0.8508
1850.000000 0.8510 0.8513 0.8515 0.8518 0.8522
1855.000000 0.8526 0.8530 0.8535 0.8539 0.8544
1860.000000 0.8548 0.8553 0.8557 0.8560 0.8562
1865.000000 0.8564 0.8566 0.8568 0.8565 0.8560
1870.000000 0.8555 0.8550 0.8545 0.8540 0.8535
1875.000000 0.8530 0.8524 0.8517 0.8511 0.8504
1880.000000 0.8497 0.8490 0.8483 0.8476 0.8470
1885.000000 0.8464 0.8459 0.8455 0.8451 0.8447
1890.000000 0.8443 0.8439 0.8437 0.8435 0.8433
1895.000000 0.8431 0.8429 0.8427 0.8426 0.8424
1900.000000 0.8422 0.8420 0.8418 0.8416 0.8414
1905.000000 0.8413 0.8411 0.8410 0.8408 0.8407
1910.000000 0.8406 0.8404 0.8403 0.8401 0.8400
1915.000000 0.8399 0.8397 0.8396 0.8394 0.8393
1920.000000 0.8391 0.8390 0.8388 0.8387 0.8385
1925.000000 0.8384 0.8382 0.8381 0.8379 0.8378
1930.000000 0.8376 0.8375 0.8373 0.8372 0.8370
1935.000000 0.8369 0.8367 0.8366 0.8364 0.8363
1940.000000 0.8362 0.8361 0.8360 0.8359 0.8358
1945.000000 0.8357 0.8356 0.8356 0.8355 0.8354
1950.000000 0.8353 0.8352 0.8351 0.8350 0.8349
1955.000000 0.8348 0.8347 0.8346 0.8345 0.8344
1960.000000 0.8343 0.8342 0.8341 0.8340 0.8339
1965.000000 0.8337 0.8335 0.8333 0.8331 0.8330
1970.000000 0.8328 0.8326 0.8324 0.8322 0.8321
1975.000000 0.8319 0.8317 0.8315 0.8313 0.8313
1980.000000 0.8313 0.8313 0.8313 0.8312 0.8312
1985.000000 0.8312 0.8312 0.8312 0.8312 0.8312
1990.000000 0.8311 0.8311 0.8311 0.8311 0.8311
1995.000000 0.8311 0.8311 0.8310 0.8310 0.8306
2000.000000 0.8301 0.8295 0.8289 0.8286 0.8283
2005.000000 0.8280 0.8277 0.8274 0.8271 0.8268
2010.000000 0.8265 0.8262 0.8259 0.8256 0.8253
2015.000000 0.8250 0.8248 0.8245 0.8242 0.8239
2020.000000 0.8236 0.8233 0.8230 0.8227 0.8224
2025.000000 0.8221 0.8218 0.8215 0.8213 0.8210
2030.000000 0.8207 0.8204 0.8202 0.8199 0.8197
2035.000000 0.8194 0.8191 0.8188 0.8186 0.8183
2040.000000 0.8181 0.8178 0.8175 0.8172 0.8170
2045.000000 0.8167 0.8165 0.8162 0.8159 0.8157
2050.000000 0.8155 0.8153 0.8151 0.8149 0.8147
2055.000000 0.8145 0.8143 0.8141 0.8139 0.8137
2060.000000 0.8136 0.8134 0.8132 0.8130 0.8128
2065.000000 0.8126 0.8124 0.8122 0.8120 0.8118
2070.000000 0.8116 0.8114 0.8113 0.8111 0.8110
2075.000000 0.8108 0.8107 0.8105 0.8104 0.8102
2080.000000 0.8101 0.8099 0.8097 0.8095 0.8094
2085.000000 0.8092 0.8091 0.8089 0.8088 0.8086
2090.000000 0.8085 0.8083 0.8082 0.8080 0.8079
2095.000000 0.8077 0.8076 0.8074 0.8073 0.8071
2100.000000 0.8070 0.8068 0.8066 0.8064 0.8063
2105.000000 0.8061 0.8060 0.8058 0.8057 0.8055
2110.000000 0.8054 0.8052 0.8051 0.8050 0.8049
2115.000000 0.8048 0.8047 0.8046 0.8045 0.8044
2120.000000 0.8043 0.8042 0.8041 0.8040 0.8039
2125.000000 0.8038 0.8037 0.8036 0.8035 0.8034
2130.000000 0.8033 0.8032 0.8031 0.8030 0.8029
2135.000000 0.8027 0.8026 0.8025 0.8024 0.8023
2140.000000 0.8022 0.8021 0.8020 0.8019 0.8018
2145.000000 0.8017 0.8016 0.8015 0.8014 0.8013
2150.000000 0.8012 0.8011 0.8010 0.8009 0.8009
2155.000000 0.8008 0.8007 0.8006 0.8005 0.8004
2160.000000 0.8003 0.8002 0.8001 0.8000 0.7999
2165.000000 0.7998 0.7998 0.7997 0.7996 0.7995
2170.000000 0.7994 0.7993 0.7992 0.7991 0.7990
2175.000000 0.7989 0.7988 0.7987 0.7987 0.7986
2180.000000 0.7985 0.7983 0.7982 0.7980 0.7979
2185.000000 0.7977 0.7975 0.7973 0.7972 0.7970
2190.000000 0.7969 0.7967 0.7966 0.7964 0.7963
2195.000000 0.7961 0.7960 0.7958 0.7957 0.7955
2200.000000 0.7953 0.7951 0.7950 0.7948 0.7947
2205.000000 0.7945 0.7944 0.7942 0.7941 0.7939
2210.000000 0.7938 0.7934 0.7930 0.7924 0.7919
2215.000000 0.7914 0.7909 0.7903 0.7898 0.7892
2220.000000 0.7887 0.7882 0.7877 0.7871 0.7866
2225.000000 0.7860 0.7855 0.7850 0.7845 0.7841
2230.000000 0.7837 0.7833 0.7830 0.7828 0.7827
2235.000000 0.7828 0.7829 0.7830 0.7831 0.7832
2240.000000 0.7833 0.7834 0.7835 0.7836 0.7837
2245.000000 0.7838 0.7839 0.7840 0.7842 0.7843
2250.000000 0.7844 0.7845 0.7846 0.7848 0.7850
2255.000000 0.7851 0.7853 0.7855 0.7857 0.7858
2260.000000 0.7860 0.7862 0.7864 0.7865 0.7867
2265.000000 0.7868 0.7870 0.7869 0.7869 0.7868
2270.000000 0.7868 0.7867 0.7867 0.7866 0.7866
2275.000000 0.7865 0.7865 0.7865 0.7865 0.7864
2280.000000 0.7864 0.7863 0.7863 0.7862 0.7862
2285.000000 0.7858 0.7854 0.7849 0.7845 0.7841
2290.000000 0.7837 0.7832 0.7828 0.7824 0.7820
2295.000000 0.7816 0.7812 0.7807 0.7803 0.7799
2300.000000 0.7795 0.7791 0.7787 0.7783 0.7779
2305.000000 0.7775 0.7771 0.7767 0.7763 0.7759
2310.000000 0.7755 0.7751 0.7748 0.7744 0.7740
2315.000000 0.7736 0.7732 0.7728 0.7725 0.7721
2320.000000 0.7717 0.7714 0.7712 0.7710 0.7709
2325.000000 0.7707 0.7706 0.7704 0.7703 0.7701
2330.000000 0.7700 0.7694 0.7688 0.7674 0.7660
2335.000000 0.7646 0.7632 0.7618 0.7604 0.7589
2340.000000 0.7575 0.7561 0.7547 0.7533 0.7520
2345.000000 0.7514 0.7508 0.7502 0.7496 0.7490
2350.000000 0.7484 0.7478 0.7472 0.7466 0.7460
2355.000000 0.7460 0.7461 0.7462 0.7463 0.7463
2360.000000 0.7464 0.7464 0.7465 0.7465 0.7466
2365.000000 0.7471 0.7476 0.7483 0.7490 0.7497
2370.000000 0.7505 0.7512 0.7519 0.7528 0.7538
2375.000000 0.7555 0.7572 0.7588 0.7605 0.7621
2380.000000 0.7638 0.7655 0.7672 0.7689 0.7706
2385.000000 0.7722 0.7739 0.7754 0.7769 0.7774
2390.000000 0.7779 0.7784 0.7789 0.7791 0.7793
2395.000000 0.7793 0.7793 0.7792 0.7792 0.7791
2400.000000 0.7791 0.7790 0.7790 0.7789 0.7788
2405.000000 0.7787 0.7786 0.7784 0.7783 0.7782
2410.000000 0.7781 0.7779 0.7778 0.7776 0.7774
2415.000000 0.7772 0.7770 0.7768 0.7766 0.7764
2420.000000 0.7763 0.7761 0.7759 0.7757 0.7755
2425.000000 0.7753 0.7751 0.7749 0.7748 0.7746
2430.000000 0.7744 0.7742 0.7741 0.7739 0.7738
2435.000000 0.7736 0.7735 0.7733 0.7732 0.7731
2440.000000 0.7730 0.7728 0.7727 0.7725 0.7724
2445.000000 0.7722 0.7721 0.7719 0.7718 0.7716
2450.000000 0.7715 0.7714 0.7713 0.7711 0.7710
2455.000000 0.7708 0.7707 0.7706 0.7705 0.7704
2460.000000 0.7703 0.7701 0.7700 0.7699 0.7698
2465.000000 0.7696 0.7695 0.7694 0.7693 0.7692
2470.000000 0.7691 0.7689 0.7688 0.7687 0.7686
2475.000000 0.7685 0.7684 0.7682 0.7681 0.7680
2480.000000 0.7679 0.7678 0.7677 0.7675 0.7674
2485.000000 0.7673 0.7672 0.7670 0.7669 0.7668
2490.000000 0.7667 0.7666 0.7665 0.7663 0.7662
2495.000000 0.7660 0.7659 0.7657 0.7656 0.7654
2500.000000 0.7653 0.7651 0.7650 0.7648 0.7647
2505.000000 0.7645 0.7644 0.7642 0.7641 0.7639
2510.000000 0.7638 0.7636 0.7635 0.7633 0.7632
2515.000000 0.7630 0.7629 0.7627 0.7626 0.7624
2520.000000 0.7623 0.7621 0.7620 0.7618 0.7617
2525.000000 0.7615 0.7614 0.7612 0.7611 0.7609
2530.000000 0.7608 0.7606 0.7605 0.7603 0.7602
2535.000000 0.7600 0.7599 0.7597 0.7596 0.7594
2540.000000 0.7592 0.7590 0.7588 0.7585 0.7583
2545.000000 0.7581 0.7579 0.7576 0.7574 0.7572
2550.000000 0.7570 0.7567 0.7565 0.7563 0.7561
2555.000000 0.7558 0.7556 0.7554 0.7552 0.7549
2560.000000 0.7547 0.7545 0.7543 0.7540 0.7538
2565.000000 0.7536 0.7534 0.7531 0.7529 0.7527
2570.000000 0.7525 0.7523 0.7521 0.7519 0.7517
2575.000000 0.7515 0.7513 0.7511 0.7509 0.7507
2580.000000 0.7505 0.7503 0.7501 0.7499 0.7497
2585.000000 0.7495 0.7493 0.7491 0.7489 0.7487
2590.000000 0.7485 0.7483 0.7481 0.7479 0.7477
2595.000000 0.7475 0.7473 0.7470 0.7468 0.7466
2600.000000 0.7464 0.7462 0.7460 0.7458 0.7456
2605.000000 0.7454 0.7452 0.7450 0.7448 0.7445
2610.000000 0.7443 0.7440 0.7438 0.7435 0.7432
2615.000000 0.7429 0.7427 0.7424 0.7422 0.7419
2620.000000 0.7417 0.7414 0.7412 0.7409 0.7406
2625.000000 0.7403 0.7401 0.7398 0.7396 0.7393
2630.000000 0.7391 0.7388 0.7386 0.7383 0.7380
2635.000000 0.7378 0.7376 0.7374 0.7373 0.7371
2640.000000 0.7370 0.7368 0.7367 0.7365 0.7363
2645.000000 0.7361 0.7360 0.7358 0.7357 0.7355
2650.000000 0.7354 0.7352 0.7351 0.7349 0.7348
2655.000000 0.7346 0.7345 0.7343 0.7341 0.7339
2660.000000 0.7338 0.7336 0.7335 0.7333 0.7332
2665.000000 0.7330 0.7329 0.7327 0.7326 0.7324
2670.000000 0.7322 0.7321 0.7320 0.7319 0.7318
2675.000000 0.7317 0.7316 0.7315 0.7314 0.7313
2680.000000 0.7312 0.7310 0.7309 0.7308 0.7307
2685.000000 0.7306 0.7305 0.7304 0.7303 0.7302
2690.000000 0.7301 0.7300 0.7299 0.7298 0.7297
2695.000000 0.7296 0.7295 0.7294 0.7293 0.7292
2700.000000 0.7291 0.7290 0.7289 0.7288 0.7287
2705.000000 0.7285 0.7283 0.7279 0.7276 0.7272
2710.000000 0.7269 0.7265 0.7262 0.7258 0.7254
2715.000000 0.7250 0.7247 0.7243 0.7240 0.7236
2720.000000 0.7233 0.7229 0.7225 0.7221 0.7218
2725.000000 0.7214 0.7211 0.7208 0.7205 0.7203
2730.000000 0.7202 0.7200 0.7198 0.7196 0.7194
2735.000000 0.7192 0.7190 0.7188 0.7187 0.7185
2740.000000 0.7183 0.7181 0.7179 0.7177 0.7175
2745.000000 0.7173 0.7172 0.7171 0.7171 0.7171
2750.000000 0.7171 0.7171 0.7172 0.7172 0.7172
2755.000000 0.7172 0.7173 0.7173 0.7173 0.7173
2760.000000 0.7174 0.7174 0.7174 0.7170 0.7166
2765.000000 0.7161 0.7156 0.7151 0.7146 0.7141
2770.000000 0.7137 0.7130 0.7124 0.7117 0.7111
2775.000000 0.7105 0.7099 0.7092 0.7086 0.7079
2780.000000 0.7073 0.7066 0.7060 0.7051 0.7043
2785.000000 0.7034 0.7026 0.7017 0.7009 0.7000
2790.000000 0.6992 0.6983 0.6975 0.6967 0.6959
2795.000000 0.6950 0.6942 0.6928 0.6915 0.6901
2800.000000 0.6888 0.6874 0.6861 0.6847 0.6833
2805.000000 0.6819 0.6806 0.6786 0.6767 0.6745
2810.000000 0.6723 0.6700 0.6678 0.6655 0.6633
2815.000000 0.6608 0.6583 0.6557 0.6532 0.6506
2820.000000 0.6481 0.6455 0.6430 0.6402 0.6375
2825.000000 0.6343 0.6312 0.6280 0.6249 0.6217
2830.000000 0.6186 0.6154 0.6123 0.6077 0.6032
2835.000000 0.5982 0.5933 0.5858 0.5783 0.5417
2840.000000 0.5052 0.4782 0.4513 0.4243 0.3974
2845.000000 0.3704 0.3435 0.3165 0.2895 0.2625
2850.000000 0.2356 0.2086 0.1817 0.1577 0.1337
2855.000000 0.1338 0.1334 0.1638 0.1938 0.2413
2860.000000 0.2888 0.3343 0.3799 0.3827 0.3855
2865.000000 0.3878 0.3902 0.3932 0.3963 0.4011
2870.000000 0.4060 0.4109 0.4158 0.4206 0.4255
2875.000000 0.4304 0.4353 0.4373 0.4394 0.4393
2880.000000 0.4392 0.4318 0.4403 0.4157 0.4070
2885.000000 0.3983 0.3896 0.3808 0.3721 0.3633
2890.000000 0.3546 0.3459 0.3372 0.3284 0.3197
2895.000000 0.3109 0.3022 0.2934 0.2847 0.2760
2900.000000 0.2673 0.2585 0.2498 0.2410 0.2323
2905.000000 0.2236 0.2149 0.2061 0.1974 0.1886
2910.000000 0.1799 0.1712 0.1625 0.1537 0.1450
2915.000000 0.1362 0.1275 0.1188 0.1101 0.1013
2920.000000 0.0926 0.0838 0.0751 0.0680 0.0610
2925.000000 0.0609 0.0590 0.0660 0.0711 0.0840
2930.000000 0.0969 0.1097 0.1226 0.1355 0.1484
2935.000000 0.1612 0.1741 0.1870 0.1999 0.2128
2940.000000 0.2257 0.2385 0.2514 0.2643 0.2772
2945.000000 0.2900 0.3029 0.3158 0.3287 0.3412
2950.000000 0.3537 0.3535 0.3534 0.3510 0.3486
2955.000000 0.3440 0.3395 0.3355 0.3316 0.3316
2960.000000 0.3317 0.3391 0.3317 0.3581 0.3697
2965.000000 0.3813 0.3929 0.4045 0.4161 0.4276
2970.000000 0.4392 0.4508 0.4624 0.4740 0.4856
2975.000000 0.4963 0.5070 0.5208 0.5346 0.5391
2980.000000 0.5436 0.5481 0.5526 0.5565 0.5605
2985.000000 0.5636 0.5668 0.5699 0.5731 0.5771
2990.000000 0.5812 0.5849 0.5887 0.5908 0.5929
2995.000000 0.5949 0.5970 0.5990 0.6010 0.6021
3000.000000 0.6032 0.6043 0.6054 0.6065 0.6076
3005.000000 0.6087 0.6099 0.6110 0.6121 0.6132
3010.000000 0.6143 0.6151 0.6159 0.6167 0.6176
3015.000000 0.6184 0.6193 0.6201 0.6210 0.6218
3020.000000 0.6227 0.6235 0.6243 0.6250 0.6257
3025.000000 0.6263 0.6270 0.6276 0.6283 0.6289
3030.000000 0.6295 0.6301 0.6308 0.6314 0.6321
3035.000000 0.6327 0.6333 0.6339 0.6346 0.6352
3040.000000 0.6359 0.6362 0.6365 0.6368 0.6371
3045.000000 0.6373 0.6376 0.6379 0.6382 0.6385
3050.000000 0.6388 0.6391 0.6394 0.6396 0.6399
3055.000000 0.6402 0.6405 0.6408 0.6411 0.6414
3060.000000 0.6417 0.6420 0.6423 0.6425 0.6428
3065.000000 0.6429 0.6431 0.6432 0.6433 0.6434
3070.000000 0.6435 0.6436 0.6437 0.6438 0.6439
3075.000000 0.6440 0.6441 0.6442 0.6443 0.6443
3080.000000 0.6444 0.6445 0.6446 0.6447 0.6448
3085.000000 0.6449 0.6450 0.6450 0.6451 0.6452
3090.000000 0.6453 0.6453 0.6454 0.6455 0.6475
3095.000000 0.6456 0.6457 0.6458 0.6459 0.6459
3100.000000 0.6460 0.6460 0.6461 0.6462 0.6463
3105.000000 0.6463 0.6464 0.6464 0.6464 0.6464
3110.000000 0.6464 0.6463 0.6463 0.6463 0.6463
3115.000000 0.6462 0.6462 0.6461 0.6461 0.6461
3120.000000 0.6461 0.6460 0.6460 0.6460 0.6460
3125.000000 0.6459 0.6459 0.6459 0.6459 0.6458
3130.000000 0.6458 0.6458 0.6458 0.6458 0.6459
3135.000000 0.6459 0.6460 0.6460 0.6461 0.6461
3140.000000 0.6462 0.6462 0.6462 0.6462 0.6463
3145.000000 0.6463 0.6464 0.6464 0.6465 0.6465
3150.000000 0.6466 0.6466 0.6467 0.6467 0.6468
3155.000000 0.6466 0.6465 0.6463 0.6461 0.6459
3160.000000 0.6458 0.6456 0.6455 0.6453 0.6452
3165.000000 0.6450 0.6449 0.6447 0.6446 0.6444
3170.000000 0.6442 0.6437 0.6433 0.6428 0.6423
3175.000000 0.6418 0.6413 0.6408 0.6404 0.6399
3180.000000 0.6394 0.6389 0.6384 0.6379 0.6375
3185.000000 0.6373 0.6371 0.6369 0.6368 0.6366
3190.000000 0.6365 0.6364 0.6363 0.6361 0.6360
3195.000000 0.6358 0.6357 0.6355 0.6354 0.6354
3200.000000 0.6354 0.6354 0.6355 0.6355 0.6356
3205.000000 0.6356 0.6356 0.6356 0.6357 0.6357
3210.000000 0.6358 0.6358 0.6359 0.6359 0.6360
3215.000000 0.6360 0.6361 0.6361 0.6361 0.6361
3220.000000 0.6362 0.6362 0.6363 0.6363 0.6364
3225.000000 0.6363 0.6363 0.6363 0.6363 0.6362
3230.000000 0.6362 0.6361 0.6361 0.6361 0.6361
3235.000000 0.6360 0.6360 0.6359 0.6359 0.6356
3240.000000 0.6353 0.6349 0.6346 0.6342 0.6338
3245.000000 0.6334 0.6331 0.6327 0.6323 0.6319
3250.000000 0.6315 0.6309 0.6304 0.6298 0.6293
3255.000000 0.6288 0.6283 0.6277 0.6272 0.6266
3260.000000 0.6261 0.6255 0.6250 0.6244 0.6239
3265.000000 0.6235 0.6231 0.6227 0.6223 0.6219
3270.000000 0.6215 0.6211 0.6207 0.6203 0.6199
3275.000000 0.6195 0.6191 0.6187 0.6183 0.6179
3280.000000 0.6176 0.6172 0.6168 0.6164 0.6160
3285.000000 0.6156 0.6152 0.6148 0.6144 0.6140
3290.000000 0.6137 0.6133 0.6129 0.6125 0.6121
3295.000000 0.6117 0.6113 0.6109 0.6105 0.6101
3300.000000 0.6098 0.6094 0.6090 0.6086 0.6082
3305.000000 0.6078 0.6074 0.6070 0.6067 0.6063
3310.000000 0.6060 0.6056 0.6053 0.6049 0.6046
3315.000000 0.6042 0.6039 0.6035 0.6032 0.6028
3320.000000 0.6024 0.6020 0.6017 0.6013 0.6010
3325.000000 0.6006 0.6003 0.5999 0.5996 0.5992
3330.000000 0.5988 0.5983 0.5979 0.5974 0.5970
3335.000000 0.5966 0.5962 0.5957 0.5953 0.5948
3340.000000 0.5944 0.5940 0.5936 0.5931 0.5927
3345.000000 0.5922 0.5918 0.5914 0.5910 0.5905
3350.000000 0.5901 0.5896 0.5892 0.5887 0.5883
3355.000000 0.5879 0.5875 0.5870 0.5866 0.5861
3360.000000 0.5856 0.5850 0.5844 0.5837 0.5831
3365.000000 0.5825 0.5819 0.5813 0.5807 0.5800
3370.000000 0.5794 0.5788 0.5782 0.5776 0.5770
3375.000000 0.5763 0.5757 0.5751 0.5745 0.5739
3380.000000 0.5733 0.5726 0.5720 0.5714 0.5708
3385.000000 0.5701 0.5694 0.5685 0.5677 0.5668
3390.000000 0.5660 0.5651 0.5642 0.5633 0.5625
3395.000000 0.5616 0.5608 0.5599 0.5591 0.5582
3400.000000 0.5574 0.5565 0.5556 0.5547 0.5539
3405.000000 0.5530 0.5522 0.5513 0.5505 0.5498
3410.000000 0.5491 0.5484 0.5478 0.5471 0.5465
3415.000000 0.5458 0.5452 0.5445 0.5439 0.5432
3420.000000 0.5426 0.5419 0.5413 0.5406 0.5400
3425.000000 0.5393 0.5387 0.5383 0.5380 0.5376
3430.000000 0.5373 0.5369 0.5366 0.5362 0.5359
3435.000000 0.5355 0.5352 0.5349 0.5346 0.5344
3440.000000 0.5343 0.5341 0.5340 0.5339 0.5338
3445.000000 0.5336 0.5335 0.5333 0.5332 0.5330
3450.000000 0.5329 0.5327 0.5326 0.5325 0.5324
3455.000000 0.5324 0.5324 0.5324 0.5324 0.5324
3460.000000 0.5324 0.5324 0.5324 0.5324 0.5324
3465.000000 0.5324 0.5324 0.5324 0.5324 0.5323
3470.000000 0.5323 0.5323 0.5323 0.5323 0.5323
3475.000000 0.5323 0.5323 0.5323 0.5324 0.5324
3480.000000 0.5325 0.5325 0.5326 0.5326 0.5327
3485.000000 0.5327 0.5328 0.5328 0.5329 0.5329
3490.000000 0.5330 0.5332 0.5334 0.5336 0.5338
3495.000000 0.5340 0.5342 0.5344 0.5346 0.5348
3500.000000 0.5350 0.5352 0.5354 0.5355 0.5357
3505.000000 0.5359 0.5361 0.5363 0.5365 0.5367
3510.000000 0.5369 0.5371 0.5373 0.5375 0.5377
3515.000000 0.5378 0.5380 0.5383 0.5386 0.5389
3520.000000 0.5392 0.5395 0.5398 0.5401 0.5404
3525.000000 0.5407 0.5410 0.5413 0.5417 0.5420
3530.000000 0.5423 0.5426 0.5430 0.5433 0.5436
3535.000000 0.5439 0.5443 0.5446 0.5449 0.5452
3540.000000 0.5456 0.5459 0.5462 0.5465 0.5469
3545.000000 0.5472 0.5475 0.5478 0.5482 0.5485
3550.000000 0.5489 0.5493 0.5497 0.5499 0.5502
3555.000000 0.5504 0.5507 0.5509 0.5511 0.5513
3560.000000 0.5515 0.5517 0.5520 0.5524 0.5529
3565.000000 0.5533 0.5537 0.5541 0.5546 0.5550
3570.000000 0.5554 0.5558 0.5563 0.5567 0.5572
3575.000000 0.5576 0.5580 0.5588 0.5596 0.5604
3580.000000 0.5612 0.5614 0.5617 0.5620 0.5623
3585.000000 0.5626 0.5629 0.5627 0.5626 0.5624
3590.000000 0.5622 0.5620 0.5618 0.5616 0.5614
3595.000000 0.5612 0.5610 0.5610 0.5611 0.5612
3600.000000 0.5613 0.5613 0.5614 0.5615 0.5617
3605.000000 0.5619 0.5621 0.5623 0.5625 0.5627
3610.000000 0.5629 0.5631 0.5634 0.5637 0.5640
3615.000000 0.5643 0.5647 0.5650 0.5653 0.5656
3620.000000 0.5660 0.5663 0.5666 0.5669 0.5673
3625.000000 0.5676 0.5679 0.5682 0.5686 0.5689
3630.000000 0.5692 0.5695 0.5698 0.5700 0.5703
3635.000000 0.5705 0.5707 0.5709 0.5712 0.5714
3640.000000 0.5717 0.5719 0.5721 0.5723 0.5725
3645.000000 0.5726 0.5727 0.5728 0.5729 0.5729
3650.000000 0.5730 0.5731 0.5732 0.5733 0.5734
3655.000000 0.5734 0.5735 0.5736 0.5737 0.5738
3660.000000 0.5739 0.5739 0.5740 0.5740 0.5740
3665.000000 0.5739 0.5738 0.5737 0.5736 0.5735
3670.000000 0.5734 0.5733 0.5732 0.5731 0.5731
3675.000000 0.5730 0.5729 0.5728 0.5727 0.5726
3680.000000 0.5725 0.5724 0.5723 0.5722 0.5721
3685.000000 0.5720 0.5719 0.5718 0.5717 0.5715
3690.000000 0.5714 0.5712 0.5711 0.5709 0.5707
3695.000000 0.5705 0.5704 0.5702 0.5700 0.5698
3700.000000 0.5697 0.5695 0.5694 0.5692 0.5690
3705.000000 0.5688 0.5687 0.5685 0.5683 0.5681
3710.000000 0.5680 0.5678 0.5677 0.5674 0.5672
3715.000000 0.5669 0.5667 0.5664 0.5662 0.5659
3720.000000 0.5657 0.5655 0.5653 0.5650 0.5648
3725.000000 0.5645 0.5643 0.5640 0.5638 0.5636
3730.000000 0.5634 0.5631 0.5629 0.5626 0.5624
3735.000000 0.5623 0.5622 0.5621 0.5621 0.5620
3740.000000 0.5620 0.5619 0.5619 0.5619 0.5619
3745.000000 0.5618 0.5618 0.5618 0.5619 0.5621
3750.000000 0.5624 0.5626 0.5628 0.5630 0.5633
3755.000000 0.5635 0.5637 0.5640 0.5643 0.5646
3760.000000 0.5650 0.5653 0.5656 0.5659 0.5663
3765.000000 0.5666 0.5669 0.5669 0.5670 0.5670
3770.000000 0.5671 0.5671 0.5672 0.5672 0.5673
3775.000000 0.5673 0.5674 0.5674 0.5675 0.5675
3780.000000 0.5676 0.5674 0.5673 0.5671 0.5669
3785.000000 0.5667 0.5665 0.5663 0.5661 0.5659
3790.000000 0.5658 0.5656 0.5654 0.5652 0.5650
3795.000000 0.5648 0.5646 0.5644 0.5642 0.5639
3800.000000 0.5637 0.5634 0.5632 0.5629 0.5627
3805.000000 0.5624 0.5622 0.5619 0.5617 0.5614
3810.000000 0.5612 0.5609 0.5607 0.5604 0.5602
3815.000000 0.5600 0.5598 0.5596 0.5595 0.5594
3820.000000 0.5593 0.5592 0.5591 0.5590 0.5589
3825.000000 0.5588 0.5587 0.5586 0.5585 0.5584
3830.000000 0.5583 0.5582 0.5581 0.5580 0.5579
3835.000000 0.5578 0.5577 0.5576 0.5575 0.5570
3840.000000 0.5566 0.5560 0.5555 0.5549 0.5543
3845.000000 0.5537 0.5531 0.5525 0.5519 0.5513
3850.000000 0.5508 0.5502 0.5496 0.5491 0.5487
3855.000000 0.5482 0.5478 0.5474 0.5470 0.5466
3860.000000 0.5462 0.5465 0.5468 0.5472 0.5477
3865.000000 0.5482 0.5487 0.5491 0.5495 0.5498
3870.000000 0.5501 0.5504 0.5507 0.5510 0.5513
3875.000000 0.5515 0.5518 0.5517 0.5517 0.5517
3880.000000 0.5517 0.5517 0.5517 0.5517 0.5517
3885.000000 0.5516 0.5516 0.5516 0.5516 0.5516
3890.000000 0.5516 0.5516 0.5516 0.5515 0.5514
3895.000000 0.5513 0.5512 0.5511 0.5510 0.5508
3900.000000 0.5507 0.5506 0.5505 0.5504 0.5503
3905.000000 0.5502 0.5501 0.5500 0.5499 0.5498
3910.000000 0.5497 0.5496 0.5495 0.5493 0.5492
3915.000000 0.5490 0.5488 0.5486 0.5485 0.5483
3920.000000 0.5482 0.5480 0.5479 0.5477 0.5476
3925.000000 0.5474 0.5473 0.5471 0.5469 0.5467
3930.000000 0.5466 0.5464 0.5463 0.5461 0.5460
3935.000000 0.5458 0.5457 0.5455 0.5454 0.5452
3940.000000 0.5450 0.5448 0.5446 0.5444 0.5442
3945.000000 0.5439 0.5437 0.5435 0.5433 0.5431
3950.000000 0.5429 0.5426 0.5424 0.5422 0.5420
3955.000000 0.5418 0.5416 0.5414 0.5412 0.5409
3960.000000 0.5407 0.5405 0.5403 0.5401 0.5399
3965.000000 0.5397 0.5395 0.5393 0.5392 0.5390
3970.000000 0.5388 0.5386 0.5404 0.5383 0.5381
3975.000000 0.5379 0.5378 0.5376 0.5374 0.5373
3980.000000 0.5373 0.5372 0.5372 0.5371 0.5371
3985.000000 0.5370 0.5369 0.5368 0.5368 0.5367
3990.000000 0.5367 0.5366 0.5366 0.5365 0.5365
3995.000000 0.5364 0.5363 0.5362 0.5362 0.5361
4000.000000 0.5361
##END=
