##TITLE=1H-1,2,3-TRIAZOLE-5-CARBOXAMIDE, 4-AMINO-, COMPOUND WITH PICRIC ACID
##JCAMP-DX=4.24
##DATA TYPE=INFRARED SPECTRUM
##CLASS=COBLENTZ III
##ORIGIN=SOUTHERN RESEARCH INSTITUTE (W.C. COBURN, JR.)
##OWNER=COBLENTZ SOCIETY
Collection (C) 2018 copyright by the U.S. Secretary of Commerce
on behalf of the United States of America. All rights reserved.
##DATE=1956/11/15
##MOLFORM=C9 H8 N8 O8
##SOURCE REFERENCE=COBLENTZ NO. 9892
##$NIST ID=B6009892
##$NIST SOURCE=COBLENTZ
##$NIST IMAGE=cob9892
##SPECTROMETER/DATA SYSTEM=PERKIN-ELMER 21 (GRATING)
##INSTRUMENT PARAMETERS=FILTER CHANGE AT 1075 CM^-^1
##STATE=SOLID (0.8 mg / 650 mg, KBr DISC)
$$ PURITY - ANALYTICAL
##SAMPLING PROCEDURE=TRANSMISSION
##RESOLUTION=2
##DATA PROCESSING=DIGITIZED BY NIST FROM HARD COPY (FROM TWO SEGMENTS)
##XUNITS=1/CM
##YUNITS=TRANSMITTANCE
##XFACTOR=1.000000
##YFACTOR=1
##DELTAX=1.321222
##FIRSTX=618.702
##LASTX=4010.28
##FIRSTY=0.767
##MAXX=4010.28
##MINX=618.702
##MAXY=0.832
##MINY=0.130014
##NPOINTS=2568
##XYDATA=(X++(Y..Y))
618.702000 0.7670 0.7670 0.7670 0.7670 0.7670
625.308110 0.7670 0.7670 0.7670 0.7679 0.7671
631.914220 0.7670 0.7670 0.7670 0.7653 0.7642
638.520330 0.7615 0.7602 0.7576 0.7554 0.7550
645.126440 0.7534 0.7530 0.7522 0.7520 0.7520
651.732550 0.7527 0.7544 0.7557 0.7560 0.7560
658.338660 0.7553 0.7537 0.7517 0.7478 0.7441
664.944770 0.7412 0.7388 0.7357 0.7328 0.7314
671.550880 0.7265 0.7219 0.7076 0.6928 0.6874
678.156990 0.6825 0.6780 0.6755 0.6741 0.6694
684.763100 0.6646 0.6627 0.6606 0.6588 0.6530
691.369210 0.6454 0.6419 0.6385 0.6353 0.6312
697.975320 0.6223 0.6107 0.5979 0.5823 0.5641
704.581430 0.5545 0.5466 0.5407 0.5323 0.5258
711.187540 0.5202 0.5133 0.5114 0.5132 0.5166
717.793650 0.5297 0.5575 0.6591 0.6615 0.6723
724.399760 0.6823 0.6927 0.6985 0.7036 0.7100
731.005870 0.7096 0.7027 0.6963 0.6793 0.6548
737.611980 0.6440 0.6390 0.6341 0.6154 0.6150
744.218090 0.6264 0.6374 0.6399 0.6400 0.6400
750.824200 0.6400 0.6391 0.6328 0.6303 0.6300
757.430310 0.6308 0.6385 0.6498 0.6754 0.6937
764.036420 0.6978 0.6980 0.6965 0.6945 0.6873
770.642530 0.6784 0.6652 0.6518 0.6445 0.6382
777.248640 0.6306 0.6220 0.6177 0.6131 0.6059
783.854750 0.5986 0.5874 0.5688 0.5541 0.5483
790.460860 0.5476 0.5620 0.5868 0.6207 0.6421
797.066970 0.6455 0.6475 0.6495 0.6510 0.6515
803.673080 0.6520 0.6516 0.6510 0.6506 0.6492
810.279190 0.6464 0.6432 0.6412 0.6396 0.6386
816.885300 0.6366 0.6330 0.6307 0.6303 0.6313
823.491410 0.6332 0.6380 0.6441 0.6493 0.6567
830.097520 0.6592 0.6602 0.6619 0.6654 0.6672
836.703630 0.6680 0.6682 0.6701 0.6763 0.6783
843.309740 0.6801 0.6811 0.6822 0.6841 0.6850
849.915850 0.6851 0.6860 0.6860 0.6860 0.6860
856.521960 0.6860 0.6860 0.6860 0.6860 0.6860
863.128070 0.6860 0.6860 0.6860 0.6860 0.6860
869.734180 0.6851 0.6841 0.6840 0.6840 0.6840
876.340290 0.6840 0.6840 0.6823 0.6820 0.6804
882.946400 0.6784 0.6796 0.6784 0.6780 0.6772
889.552510 0.6763 0.6760 0.6753 0.6736 0.6688
896.158620 0.6601 0.6502 0.6443 0.6404 0.6344
902.764730 0.6294 0.6249 0.6181 0.6114 0.6043
909.370840 0.5981 0.5926 0.5855 0.5809 0.5789
915.976950 0.5791 0.5810 0.5835 0.5885 0.5963
922.583060 0.6085 0.6175 0.6180 0.6176 0.6161
929.189170 0.6133 0.6086 0.6038 0.5970 0.5886
935.795280 0.5880 0.5880 0.5880 0.5873 0.5860
942.401390 0.5845 0.5807 0.5791 0.5770 0.5767
949.007500 0.5760 0.5760 0.5760 0.5762 0.5770
955.613610 0.5770 0.5772 0.5780 0.5783 0.5806
962.219720 0.5843 0.5863 0.5882 0.5907 0.5964
968.825830 0.6000 0.5995 0.5928 0.5899 0.5879
975.431940 0.5849 0.5819 0.5780 0.5760 0.5760
982.038050 0.5760 0.5770 0.5885 0.6022 0.6198
988.644160 0.6404 0.6511 0.6520 0.6520 0.6520
995.250270 0.6520 0.6520 0.6512 0.6510 0.6510
1001.856380 0.6502 0.6476 0.6462 0.6436 0.6407
1008.462490 0.6392 0.6382 0.6365 0.6345 0.6319
1015.068600 0.6289 0.6273 0.6263 0.6260 0.6260
1021.674710 0.6260 0.6260 0.6260 0.6260 0.6260
1028.280820 0.6266 0.6264 0.6260 0.6254 0.6239
1034.886930 0.6225 0.6215 0.6200 0.6190 0.6185
1041.493040 0.6175 0.6170 0.6161 0.6145 0.6136
1048.099150 0.6121 0.6106 0.6100 0.6100 0.6104
1054.705260 0.6117 0.6144 0.6173 0.6180 0.6183
1061.311370 0.6190 0.6187 0.6177 0.6161 0.6140
1067.917480 0.6129 0.6092 0.6024 0.5827 0.5612
1074.523590 0.5469 0.5416 0.5349 0.5288 0.5228
1081.129700 0.5215 0.5189 0.5181 0.5192 0.5216
1087.735810 0.5268 0.5349 0.5447 0.5537 0.5631
1094.341920 0.5645 0.5764 0.5881 0.5930 0.5970
1100.948030 0.6020 0.6059 0.6070 0.6089 0.6090
1107.554140 0.6099 0.6100 0.6109 0.6110 0.6128
1114.160250 0.6139 0.6149 0.6202 0.6252 0.6302
1120.766360 0.6343 0.6350 0.6358 0.6360 0.6376
1127.372470 0.6380 0.6388 0.6390 0.6390 0.6390
1133.978580 0.6383 0.6359 0.6329 0.6293 0.6267
1140.584690 0.6240 0.6204 0.6177 0.6151 0.6134
1147.190800 0.6088 0.6036 0.5991 0.5930 0.5855
1153.796910 0.5787 0.5711 0.5606 0.5462 0.5263
1160.403020 0.5061 0.4955 0.4935 0.4930 0.4935
1167.009130 0.4953 0.4987 0.5035 0.5095 0.5286
1173.615240 0.5663 0.5894 0.5954 0.6068 0.6110
1180.221350 0.6120 0.6097 0.6081 0.6057 0.6038
1186.827460 0.6002 0.5967 0.5922 0.5900 0.5898
1193.433570 0.5883 0.5860 0.5858 0.5850 0.5845
1200.039680 0.5817 0.5795 0.5763 0.5713 0.5666
1206.645790 0.5639 0.5630 0.5628 0.5609 0.5600
1213.251900 0.5600 0.5600 0.5600 0.5590 0.5570
1219.858010 0.5530 0.5510 0.5471 0.5431 0.5363
1226.464120 0.5313 0.5226 0.5081 0.5033 0.4949
1233.070230 0.4859 0.4779 0.4753 0.4664 0.4565
1239.676340 0.4475 0.4295 0.4130 0.4060 0.3987
1246.282450 0.3797 0.3540 0.3312 0.3109 0.2956
1252.888560 0.2833 0.2771 0.2732 0.2692 0.2619
1259.494670 0.2529 0.2447 0.2354 0.2281 0.2216
1266.100780 0.2184 0.2180 0.2186 0.2190 0.2201
1272.706890 0.2221 0.2303 0.2426 0.2496 0.2667
1279.313000 0.2907 0.3090 0.3268 0.3398 0.3496
1285.919110 0.3601 0.3659 0.3670 0.3670 0.3662
1292.525220 0.3642 0.3618 0.3589 0.3563 0.3539
1299.131330 0.3517 0.3500 0.3473 0.3451 0.3421
1305.737440 0.3394 0.3372 0.3342 0.3315 0.3290
1312.343550 0.3248 0.3201 0.3161 0.3114 0.3027
1318.949660 0.2916 0.2836 0.2745 0.2588 0.2451
1325.555770 0.2369 0.2209 0.2121 0.2040 0.1936
1332.161880 0.1886 0.1836 0.1778 0.1725 0.1598
1338.767990 0.1498 0.1340 0.1310 0.1300 0.1310
1345.374100 0.1320 0.1491 0.1669 0.2023 0.2333
1351.980210 0.2495 0.2924 0.3663 0.3768 0.3753
1358.586320 0.3656 0.3497 0.3296 0.3097 0.2891
1365.192430 0.2842 0.2840 0.2848 0.2919 0.3000
1371.798540 0.3399 0.3888 0.4221 0.4717 0.5092
1378.404650 0.5419 0.5774 0.5977 0.6125 0.6186
1385.010760 0.6190 0.6190 0.6190 0.6184 0.6180
1391.616870 0.6174 0.6159 0.6144 0.6124 0.6105
1398.222980 0.6079 0.6019 0.5900 0.5737 0.5602
1404.829090 0.5494 0.5393 0.5336 0.5276 0.5199
1411.435200 0.5141 0.5072 0.5010 0.4942 0.4873
1418.041310 0.4846 0.4803 0.4753 0.4707 0.4664
1424.647420 0.4621 0.4600 0.4608 0.4635 0.4668
1431.253530 0.4735 0.4799 0.4888 0.5006 0.5119
1437.859640 0.5202 0.5268 0.5365 0.5446 0.5487
1444.465750 0.5539 0.5601 0.5610 0.5609 0.5599
1451.071860 0.5588 0.5569 0.5549 0.5530 0.5519
1457.677970 0.5477 0.5359 0.5259 0.5140 0.5012
1464.284080 0.4903 0.4890 0.4861 0.4804 0.4735
1470.890190 0.4684 0.4644 0.4613 0.4601 0.4600
1477.496300 0.4600 0.4600 0.4600 0.4592 0.4574
1484.102410 0.4538 0.4451 0.4169 0.3967 0.3792
1490.708520 0.3674 0.3605 0.3575 0.3570 0.3570
1497.314630 0.3584 0.3604 0.3624 0.3630 0.3637
1503.920740 0.3640 0.3640 0.3634 0.3618 0.3580
1510.526850 0.3490 0.3406 0.3369 0.3354 0.3334
1517.132960 0.3309 0.3284 0.3224 0.3160 0.3135
1523.739070 0.3077 0.2945 0.2833 0.2764 0.2685
1530.345180 0.2580 0.2433 0.2271 0.2158 0.2136
1536.951290 0.2123 0.2117 0.2137 0.2160 0.2206
1543.557400 0.2285 0.2355 0.2393 0.2408 0.2457
1550.163510 0.2556 0.2674 0.2836 0.2929 0.2962
1556.769620 0.2962 0.2920 0.2869 0.2817 0.2795
1563.375730 0.2746 0.2602 0.2526 0.2348 0.2259
1569.981840 0.2251 0.2261 0.2276 0.2353 0.2404
1576.587950 0.2471 0.2508 0.2802 0.2901 0.3000
1583.194060 0.3049 0.3128 0.3246 0.3260 0.3269
1589.800170 0.3270 0.3270 0.3270 0.3252 0.3143
1596.406280 0.2875 0.2606 0.2339 0.2140 0.2068
1603.012390 0.1953 0.1825 0.1784 0.1804 0.1841
1609.618500 0.1881 0.1920 0.1937 0.1984 0.2065
1616.224610 0.2118 0.2165 0.2228 0.2270 0.2293
1622.830720 0.2300 0.2300 0.2287 0.2274 0.2276
1629.436830 0.2328 0.2384 0.2417 0.2436 0.2491
1636.042940 0.2547 0.2582 0.2595 0.2595 0.2600
1642.649050 0.2600 0.2595 0.2576 0.2555 0.2518
1649.255160 0.2454 0.2386 0.2307 0.2224 0.2131
1655.861270 0.2055 0.2019 0.1993 0.1980 0.1987
1662.467380 0.2003 0.2039 0.2125 0.2245 0.2454
1669.073490 0.2647 0.2826 0.2925 0.3002 0.3010
1675.679600 0.3008 0.2983 0.2916 0.2904 0.2929
1682.285710 0.2980 0.3045 0.3137 0.3184 0.3215
1688.891820 0.3256 0.3304 0.3344 0.3397 0.3484
1695.497930 0.3551 0.3563 0.3631 0.3681 0.3750
1702.104040 0.3771 0.4166 0.4248 0.4385 0.4753
1708.710150 0.4949 0.5100 0.5202 0.5328 0.5873
1715.316260 0.6037 0.6085 0.6446 0.6646 0.6738
1721.922370 0.6800 0.6900 0.6969 0.7036 0.7058
1728.528480 0.7091 0.7162 0.7210 0.7257 0.7380
1735.134590 0.7492 0.7556 0.7591 0.7648 0.7684
1741.740700 0.7703 0.7723 0.7743 0.7788 0.7835
1748.346810 0.7850 0.7856 0.7878 0.7896 0.7917
1754.952920 0.7930 0.7947 0.7992 0.8025 0.8040
1761.559030 0.8060 0.8080 0.8090 0.8095 0.8105
1768.165140 0.8110 0.8119 0.8139 0.8163 0.8196
1774.771250 0.8232 0.8261 0.8291 0.8310 0.8314
1781.377360 0.8320 0.8320 0.8320 0.8320 0.8317
1787.983470 0.8310 0.8307 0.8295 0.8273 0.8243
1794.589580 0.8218 0.8210 0.8206 0.8190 0.8188
1801.195690 0.8180 0.8178 0.8170 0.8167 0.8150
1807.801800 0.8149 0.8139 0.8130 0.8128 0.8110
1814.407910 0.8110 0.8109 0.8100 0.8100 0.8100
1821.014020 0.8100 0.8100 0.8100 0.8100 0.8071
1827.620130 0.8070 0.8070 0.8070 0.8061 0.8060
1834.226240 0.8060 0.8051 0.8050 0.8050 0.8059
1840.832350 0.8060 0.8052 0.8050 0.8034 0.8030
1847.438460 0.8014 0.7979 0.7947 0.7925 0.7920
1854.044570 0.7905 0.7900 0.7893 0.7890 0.7883
1860.650680 0.7866 0.7873 0.7880 0.7880 0.7880
1867.256790 0.7880 0.7880 0.7880 0.7880 0.7868
1873.862900 0.7860 0.7854 0.7844 0.7829 0.7820
1880.469010 0.7815 0.7810 0.7810 0.7810 0.7805
1887.075120 0.7800 0.7800 0.7800 0.7800 0.7792
1893.681230 0.7776 0.7770 0.7770 0.7770 0.7770
1900.287340 0.7770 0.7767 0.7760 0.7760 0.7760
1906.893450 0.7760 0.7760 0.7757 0.7750 0.7750
1913.499560 0.7743 0.7718 0.7710 0.7704 0.7678
1920.105670 0.7670 0.7670 0.7670 0.7670 0.7667
1926.711780 0.7649 0.7636 0.7608 0.7590 0.7588
1933.317890 0.7569 0.7560 0.7558 0.7518 0.7479
1939.924000 0.7460 0.7440 0.7430 0.7420 0.7391
1946.530110 0.7351 0.7340 0.7312 0.7310 0.7301
1953.136220 0.7282 0.7271 0.7270 0.7261 0.7260
1959.742330 0.7251 0.7250 0.7233 0.7230 0.7230
1966.348440 0.7230 0.7230 0.7230 0.7222 0.7220
1972.954550 0.7220 0.7220 0.7220 0.7220 0.7220
1979.560660 0.7227 0.7230 0.7230 0.7230 0.7230
1986.166770 0.7243 0.7256 0.7260 0.7266 0.7270
1992.772880 0.7276 0.7280 0.7291 0.7311 0.7336
1999.378990 0.7355 0.7360 0.7376 0.7395 0.7411
2005.985100 0.7431 0.7456 0.7486 0.7505 0.7515
2012.591210 0.7541 0.7565 0.7581 0.7590 0.7590
2019.197320 0.7590 0.7590 0.7590 0.7590 0.7595
2025.803430 0.7616 0.7630 0.7651 0.7681 0.7701
2032.409540 0.7715 0.7725 0.7730 0.7741 0.7750
2039.015650 0.7750 0.7750 0.7750 0.7750 0.7739
2045.621760 0.7730 0.7730 0.7725 0.7720 0.7720
2052.227870 0.7720 0.7715 0.7710 0.7710 0.7710
2058.833980 0.7715 0.7720 0.7720 0.7715 0.7710
2065.440090 0.7710 0.7710 0.7710 0.7710 0.7710
2072.046200 0.7710 0.7710 0.7710 0.7700 0.7690
2078.652310 0.7690 0.7690 0.7690 0.7690 0.7690
2085.258420 0.7685 0.7680 0.7680 0.7675 0.7670
2091.864530 0.7659 0.7650 0.7645 0.7640 0.7635
2098.470640 0.7619 0.7610 0.7610 0.7610 0.7605
2105.076750 0.7600 0.7600 0.7595 0.7590 0.7590
2111.682860 0.7590 0.7590 0.7590 0.7590 0.7595
2118.288970 0.7600 0.7600 0.7600 0.7600 0.7600
2124.895080 0.7605 0.7610 0.7626 0.7640 0.7640
2131.501190 0.7640 0.7640 0.7640 0.7640 0.7640
2138.107300 0.7635 0.7630 0.7630 0.7630 0.7630
2144.713410 0.7614 0.7600 0.7595 0.7590 0.7590
2151.319520 0.7579 0.7570 0.7570 0.7565 0.7560
2157.925630 0.7555 0.7550 0.7550 0.7550 0.7555
2164.531740 0.7560 0.7560 0.7560 0.7560 0.7555
2171.137850 0.7534 0.7509 0.7489 0.7491 0.7489
2177.743960 0.7480 0.7480 0.7475 0.7470 0.7465
2184.350070 0.7449 0.7440 0.7435 0.7414 0.7400
2190.956180 0.7395 0.7385 0.7369 0.7355 0.7334
2197.562290 0.7320 0.7315 0.7310 0.7305 0.7300
2204.168400 0.7284 0.7270 0.7270 0.7270 0.7265
2210.774510 0.7260 0.7260 0.7260 0.7260 0.7260
2217.380620 0.7260 0.7244 0.7246 0.7260 0.7255
2223.986730 0.7250 0.7239 0.7204 0.7180 0.7180
2230.592840 0.7180 0.7180 0.7180 0.7180 0.7175
2237.198950 0.7159 0.7145 0.7135 0.7130 0.7130
2243.805060 0.7130 0.7130 0.7130 0.7130 0.7120
2250.411170 0.7110 0.7110 0.7105 0.7100 0.7095
2257.017280 0.7090 0.7079 0.7070 0.7065 0.7060
2263.623390 0.7055 0.7050 0.7039 0.7019 0.7010
2270.229500 0.7010 0.7005 0.7000 0.6989 0.6975
2276.835610 0.6954 0.6929 0.6920 0.6920 0.6920
2283.441720 0.6909 0.6900 0.6900 0.6900 0.6895
2290.047830 0.6890 0.6890 0.6885 0.6864 0.6845
2296.653940 0.6819 0.6789 0.6780 0.6775 0.6770
2303.260050 0.6765 0.6760 0.6765 0.6775 0.6780
2309.866160 0.6780 0.6780 0.6775 0.6765 0.6760
2316.472270 0.6771 0.6780 0.6780 0.6775 0.6770
2323.078380 0.6775 0.6780 0.6775 0.6765 0.6744
2329.684490 0.6730 0.6725 0.6720 0.6715 0.6699
2336.290600 0.6690 0.6685 0.6675 0.6660 0.6640
2342.896710 0.6630 0.6630 0.6619 0.6610 0.6605
2349.502820 0.6595 0.6590 0.6579 0.6570 0.6565
2356.108930 0.6560 0.6555 0.6539 0.6530 0.6530
2362.715040 0.6530 0.6530 0.6530 0.6530 0.6530
2369.321150 0.6530 0.6530 0.6530 0.6530 0.6530
2375.927260 0.6541 0.6550 0.6550 0.6540 0.6530
2382.533370 0.6525 0.6515 0.6505 0.6489 0.6480
2389.139480 0.6475 0.6475 0.6480 0.6475 0.6465
2395.745590 0.6449 0.6440 0.6440 0.6440 0.6456
2402.351700 0.6470 0.6465 0.6449 0.6435 0.6425
2408.957810 0.6420 0.6409 0.6395 0.6390 0.6390
2415.563920 0.6390 0.6385 0.6385 0.6390 0.6390
2422.170030 0.6390 0.6390 0.6390 0.6390 0.6385
2428.776140 0.6369 0.6355 0.6350 0.6355 0.6360
2435.382250 0.6355 0.6350 0.6350 0.6345 0.6340
2441.988360 0.6329 0.6320 0.6320 0.6320 0.6320
2448.594470 0.6320 0.6320 0.6320 0.6320 0.6320
2455.200580 0.6320 0.6320 0.6320 0.6320 0.6330
2461.806690 0.6340 0.6340 0.6329 0.6315 0.6289
2468.412800 0.6249 0.6225 0.6225 0.6230 0.6230
2475.018910 0.6241 0.6250 0.6255 0.6260 0.6265
2481.625020 0.6270 0.6275 0.6280 0.6291 0.6300
2488.231130 0.6305 0.6331 0.6366 0.6391 0.6400
2494.837240 0.6395 0.6390 0.6348 0.6294 0.6275
2501.443350 0.6270 0.6265 0.6260 0.6260 0.6260
2508.049460 0.6281 0.6300 0.6300 0.6300 0.6300
2514.655570 0.6289 0.6280 0.6280 0.6280 0.6280
2521.261680 0.6280 0.6280 0.6280 0.6275 0.6270
2527.867790 0.6270 0.6270 0.6270 0.6270 0.6270
2534.473900 0.6270 0.6270 0.6270 0.6265 0.6260
2541.080010 0.6260 0.6260 0.6260 0.6260 0.6255
2547.686120 0.6250 0.6250 0.6250 0.6240 0.6230
2554.292230 0.6219 0.6194 0.6175 0.6159 0.6150
2560.898340 0.6150 0.6150 0.6150 0.6145 0.6145
2567.504450 0.6150 0.6150 0.6150 0.6150 0.6145
2574.110560 0.6140 0.6140 0.6140 0.6140 0.6140
2580.716670 0.6140 0.6140 0.6140 0.6140 0.6140
2587.322780 0.6140 0.6140 0.6140 0.6140 0.6140
2593.928890 0.6140 0.6140 0.6140 0.6145 0.6166
2600.535000 0.6185 0.6206 0.6236 0.6250 0.6250
2607.141110 0.6250 0.6239 0.6219 0.6189 0.6159
2613.747220 0.6150 0.6150 0.6150 0.6150 0.6150
2620.353330 0.6150 0.6161 0.6170 0.6170 0.6170
2626.959440 0.6170 0.6170 0.6170 0.6170 0.6170
2633.565550 0.6170 0.6170 0.6170 0.6170 0.6170
2640.171660 0.6170 0.6170 0.6159 0.6145 0.6135
2646.777770 0.6130 0.6130 0.6119 0.6110 0.6110
2653.383880 0.6110 0.6110 0.6110 0.6110 0.6120
2659.989990 0.6135 0.6135 0.6130 0.6130 0.6130
2666.596100 0.6130 0.6130 0.6119 0.6110 0.6110
2673.202210 0.6110 0.6110 0.6110 0.6105 0.6095
2679.808320 0.6090 0.6090 0.6079 0.6065 0.6060
2686.414430 0.6055 0.6050 0.6050 0.6050 0.6050
2693.020540 0.6050 0.6050 0.6050 0.6050 0.6050
2699.626650 0.6039 0.6030 0.6030 0.6025 0.6025
2706.232760 0.6030 0.6030 0.6025 0.6015 0.5989
2712.838870 0.5970 0.5965 0.5960 0.5949 0.5929
2719.444980 0.5920 0.5920 0.5909 0.5900 0.5895
2726.051090 0.5885 0.5880 0.5880 0.5880 0.5869
2732.657200 0.5855 0.5850 0.5850 0.5845 0.5840
2739.263310 0.5829 0.5820 0.5820 0.5815 0.5815
2745.869420 0.5815 0.5810 0.5810 0.5810 0.5810
2752.475530 0.5805 0.5789 0.5775 0.5759 0.5729
2759.081640 0.5710 0.5699 0.5690 0.5690 0.5690
2765.687750 0.5690 0.5701 0.5710 0.5710 0.5715
2772.293860 0.5715 0.5710 0.5710 0.5710 0.5710
2778.899970 0.5715 0.5720 0.5725 0.5730 0.5730
2785.506080 0.5730 0.5725 0.5720 0.5715 0.5710
2792.112190 0.5694 0.5685 0.5690 0.5685 0.5680
2798.718300 0.5675 0.5670 0.5670 0.5670 0.5670
2805.324410 0.5670 0.5670 0.5670 0.5670 0.5670
2811.930520 0.5670 0.5670 0.5675 0.5680 0.5680
2818.536630 0.5675 0.5670 0.5670 0.5681 0.5690
2825.142740 0.5701 0.5710 0.5710 0.5710 0.5710
2831.748850 0.5715 0.5715 0.5710 0.5710 0.5710
2838.354960 0.5710 0.5710 0.5699 0.5690 0.5690
2844.961070 0.5690 0.5690 0.5690 0.5690 0.5690
2851.567180 0.5690 0.5685 0.5675 0.5670 0.5660
2858.173290 0.5629 0.5605 0.5595 0.5590 0.5590
2864.779400 0.5590 0.5590 0.5590 0.5579 0.5570
2871.385510 0.5570 0.5570 0.5570 0.5570 0.5570
2877.991620 0.5570 0.5570 0.5570 0.5570 0.5570
2884.597730 0.5570 0.5565 0.5565 0.5570 0.5570
2891.203840 0.5570 0.5565 0.5555 0.5540 0.5530
2897.809950 0.5525 0.5509 0.5489 0.5475 0.5465
2904.416060 0.5449 0.5419 0.5389 0.5380 0.5370
2911.022170 0.5360 0.5360 0.5371 0.5369 0.5360
2917.628280 0.5360 0.5355 0.5350 0.5350 0.5350
2924.234390 0.5350 0.5350 0.5350 0.5350 0.5350
2930.840500 0.5350 0.5350 0.5345 0.5340 0.5340
2937.446610 0.5329 0.5320 0.5315 0.5305 0.5300
2944.052720 0.5289 0.5280 0.5275 0.5270 0.5260
2950.658830 0.5250 0.5239 0.5225 0.5220 0.5215
2957.264940 0.5199 0.5190 0.5185 0.5175 0.5170
2963.871050 0.5159 0.5145 0.5140 0.5140 0.5135
2970.477160 0.5135 0.5135 0.5130 0.5120 0.5105
2977.083270 0.5095 0.5074 0.5055 0.5039 0.5030
2983.689380 0.5019 0.5010 0.5005 0.5000 0.4990
2990.295490 0.4980 0.4969 0.4960 0.4960 0.4949
2996.901600 0.4940 0.4940 0.4940 0.4940 0.4940
3003.507710 0.4935 0.4930 0.4930 0.4930 0.4930
3010.113820 0.4925 0.4920 0.4920 0.4920 0.4910
3016.719930 0.4900 0.4895 0.4874 0.4818 0.4775
3023.326040 0.4770 0.4765 0.4760 0.4739 0.4699
3029.932150 0.4654 0.4619 0.4605 0.4600 0.4600
3036.538260 0.4595 0.4590 0.4590 0.4580 0.4570
3043.144370 0.4549 0.4514 0.4500 0.4484 0.4470
3049.750480 0.4470 0.4470 0.4465 0.4460 0.4460
3056.356590 0.4460 0.4449 0.4440 0.4435 0.4414
3062.962700 0.4389 0.4369 0.4355 0.4345 0.4330
3069.568810 0.4315 0.4278 0.4229 0.4194 0.4175
3076.174920 0.4159 0.4150 0.4145 0.4135 0.4120
3082.781030 0.4105 0.4084 0.4070 0.4065 0.4060
3089.387140 0.4055 0.4034 0.4020 0.4020 0.4015
3095.993250 0.4010 0.4010 0.4005 0.3989 0.3980
3102.599360 0.3980 0.3980 0.3980 0.3980 0.3980
3109.205470 0.3980 0.3980 0.3980 0.3980 0.3980
3115.811580 0.3980 0.3975 0.3970 0.3970 0.3970
3122.417690 0.3965 0.3960 0.3960 0.3960 0.3949
3129.023800 0.3935 0.3925 0.3920 0.3910 0.3900
3135.629910 0.3895 0.3890 0.3885 0.3880 0.3880
3142.236020 0.3880 0.3885 0.3890 0.3890 0.3890
3148.842130 0.3890 0.3895 0.3900 0.3900 0.3911
3155.448240 0.3920 0.3920 0.3920 0.3920 0.3920
3162.054350 0.3909 0.3900 0.3900 0.3900 0.3895
3168.660460 0.3890 0.3890 0.3885 0.3880 0.3880
3175.266570 0.3880 0.3885 0.3890 0.3895 0.3911
3181.872680 0.3920 0.3920 0.3920 0.3925 0.3930
3188.478790 0.3930 0.3935 0.3951 0.3960 0.3965
3195.084900 0.3975 0.3980 0.3991 0.4005 0.4020
3201.691010 0.4046 0.4081 0.4121 0.4145 0.4161
3208.297120 0.4175 0.4185 0.4201 0.4215 0.4225
3214.903230 0.4241 0.4255 0.4265 0.4275 0.4291
3221.509340 0.4300 0.4305 0.4315 0.4331 0.4345
3228.115450 0.4350 0.4355 0.4360 0.4360 0.4371
3234.721560 0.4380 0.4380 0.4380 0.4380 0.4380
3241.327670 0.4380 0.4380 0.4380 0.4380 0.4380
3247.933780 0.4369 0.4360 0.4355 0.4350 0.4345
3254.539890 0.4340 0.4324 0.4310 0.4305 0.4300
3261.146000 0.4289 0.4275 0.4270 0.4265 0.4255
3267.752110 0.4250 0.4234 0.4220 0.4215 0.4199
3274.358220 0.4185 0.4180 0.4175 0.4159 0.4140
3280.964330 0.4130 0.4119 0.4105 0.4100 0.4095
3287.570440 0.4074 0.4060 0.4055 0.4050 0.4040
3294.176550 0.4025 0.4020 0.4015 0.4005 0.4000
3300.782660 0.3984 0.3965 0.3928 0.3890 0.3864
3307.388770 0.3850 0.3824 0.3779 0.3739 0.3704
3313.994880 0.3685 0.3664 0.3645 0.3635 0.3620
3320.600990 0.3605 0.3595 0.3579 0.3559 0.3539
3327.207100 0.3514 0.3479 0.3418 0.3369 0.3334
3333.813210 0.3284 0.3234 0.3194 0.3138 0.3079
3340.419320 0.3044 0.3019 0.3005 0.2984 0.2954
3347.025430 0.2929 0.2909 0.2895 0.2885 0.2869
3353.631540 0.2855 0.2845 0.2829 0.2815 0.2805
3360.237650 0.2800 0.2800 0.2789 0.2780 0.2775
3366.843760 0.2770 0.2770 0.2770 0.2775 0.2790
3373.449870 0.2811 0.2831 0.2851 0.2881 0.2932
3380.055980 0.3007 0.3097 0.3156 0.3181 0.3200
3386.662090 0.3247 0.3317 0.3413 0.3496 0.3525
3393.268200 0.3541 0.3561 0.3602 0.3651 0.3696
3399.874310 0.3746 0.3791 0.3836 0.3881 0.3921
3406.480420 0.3956 0.3991 0.4036 0.4065 0.4080
3413.086530 0.4095 0.4100 0.4105 0.4110 0.4110
3419.692640 0.4110 0.4105 0.4100 0.4100 0.4100
3426.298750 0.4095 0.4079 0.4070 0.4065 0.4060
3432.904860 0.4055 0.4034 0.4015 0.4005 0.3990
3439.510970 0.3980 0.3975 0.3970 0.3965 0.3949
3446.117080 0.3935 0.3930 0.3930 0.3925 0.3920
3452.723190 0.3920 0.3920 0.3920 0.3925 0.3930
3459.329300 0.3930 0.3935 0.3940 0.3951 0.3960
3465.935410 0.3971 0.3991 0.4016 0.4046 0.4076
3472.541520 0.4116 0.4166 0.4211 0.4246 0.4286
3479.147630 0.4347 0.4433 0.4543 0.4658 0.4757
3485.753740 0.4842 0.4901 0.4946 0.5022 0.5107
3492.359850 0.5156 0.5212 0.5261 0.5328 0.5422
3498.965960 0.5486 0.5531 0.5561 0.5586 0.5605
3505.572070 0.5621 0.5635 0.5656 0.5712 0.5776
3512.178180 0.5821 0.5845 0.5850 0.5855 0.5876
3518.784290 0.5906 0.5941 0.5965 0.5991 0.6015
3525.390400 0.6025 0.6041 0.6050 0.6055 0.6060
3531.996510 0.6076 0.6095 0.6116 0.6141 0.6161
3538.602620 0.6181 0.6206 0.6225 0.6246 0.6270
3545.208730 0.6291 0.6311 0.6331 0.6382 0.6425
3551.814840 0.6435 0.6451 0.6465 0.6470 0.6491
3558.420950 0.6531 0.6571 0.6601 0.6610 0.6621
3565.027060 0.6635 0.6645 0.6650 0.6666 0.6706
3571.633170 0.6730 0.6746 0.6765 0.6770 0.6775
3578.239280 0.6780 0.6791 0.6805 0.6810 0.6815
3584.845390 0.6831 0.6845 0.6866 0.6885 0.6895
3591.451500 0.6900 0.6900 0.6910 0.6920 0.6925
3598.057610 0.6946 0.6965 0.6986 0.7011 0.7036
3604.663720 0.7061 0.7081 0.7095 0.7116 0.7135
3611.269830 0.7145 0.7161 0.7175 0.7180 0.7185
3617.875940 0.7190 0.7201 0.7221 0.7230 0.7240
3624.482050 0.7250 0.7250 0.7250 0.7250 0.7255
3631.088160 0.7260 0.7265 0.7270 0.7275 0.7280
3637.694270 0.7291 0.7311 0.7331 0.7345 0.7350
3644.300380 0.7355 0.7371 0.7380 0.7380 0.7385
3650.906490 0.7406 0.7425 0.7435 0.7451 0.7471
3657.512600 0.7491 0.7500 0.7500 0.7500 0.7500
3664.118710 0.7500 0.7489 0.7491 0.7500 0.7500
3670.724820 0.7511 0.7520 0.7520 0.7520 0.7520
3677.330930 0.7520 0.7520 0.7520 0.7520 0.7520
3683.937040 0.7520 0.7520 0.7520 0.7515 0.7510
3690.543150 0.7510 0.7510 0.7505 0.7500 0.7500
3697.149260 0.7500 0.7489 0.7475 0.7465 0.7460
3703.755370 0.7465 0.7475 0.7480 0.7491 0.7505
3710.361480 0.7510 0.7510 0.7510 0.7510 0.7510
3716.967590 0.7510 0.7510 0.7510 0.7505 0.7511
3723.573700 0.7520 0.7520 0.7520 0.7520 0.7520
3730.179810 0.7520 0.7520 0.7520 0.7520 0.7520
3736.785920 0.7515 0.7510 0.7510 0.7505 0.7500
3743.392030 0.7500 0.7500 0.7500 0.7500 0.7500
3749.998140 0.7500 0.7500 0.7505 0.7510 0.7505
3756.604250 0.7484 0.7465 0.7449 0.7440 0.7440
3763.210360 0.7435 0.7430 0.7430 0.7430 0.7430
3769.816470 0.7430 0.7430 0.7425 0.7425 0.7430
3776.422580 0.7430 0.7430 0.7430 0.7425 0.7420
3783.028690 0.7420 0.7409 0.7395 0.7385 0.7380
3789.634800 0.7380 0.7380 0.7380 0.7380 0.7380
3796.240910 0.7369 0.7355 0.7350 0.7350 0.7350
3802.847020 0.7345 0.7329 0.7315 0.7294 0.7275
3809.453130 0.7270 0.7270 0.7270 0.7270 0.7270
3816.059240 0.7270 0.7270 0.7275 0.7280 0.7280
3822.665350 0.7275 0.7265 0.7260 0.7260 0.7260
3829.271460 0.7260 0.7260 0.7260 0.7260 0.7265
3835.877570 0.7270 0.7270 0.7270 0.7270 0.7270
3842.483680 0.7270 0.7270 0.7270 0.7270 0.7270
3849.089790 0.7270 0.7270 0.7270 0.7270 0.7270
3855.695900 0.7270 0.7259 0.7239 0.7230 0.7230
3862.302010 0.7230 0.7225 0.7220 0.7225 0.7230
3868.908120 0.7230 0.7225 0.7220 0.7220 0.7220
3875.514230 0.7220 0.7220 0.7220 0.7220 0.7236
3882.120340 0.7239 0.7230 0.7230 0.7230 0.7225
3888.726450 0.7220 0.7220 0.7220 0.7220 0.7220
3895.332560 0.7215 0.7210 0.7210 0.7210 0.7200
3901.938670 0.7190 0.7190 0.7190 0.7190 0.7190
3908.544780 0.7190 0.7190 0.7185 0.7180 0.7180
3915.150890 0.7180 0.7180 0.7180 0.7180 0.7180
3921.757000 0.7185 0.7190 0.7190 0.7190 0.7190
3928.363110 0.7190 0.7201 0.7210 0.7221 0.7241
3934.969220 0.7255 0.7260 0.7265 0.7270 0.7275
3941.575330 0.7291 0.7300 0.7300 0.7300 0.7289
3948.181440 0.7275 0.7270 0.7270 0.7270 0.7265
3954.787550 0.7265 0.7270 0.7270 0.7265 0.7260
3961.393660 0.7260 0.7260 0.7260 0.7255 0.7250
3967.999770 0.7250 0.7255 0.7260 0.7260 0.7260
3974.605880 0.7260 0.7255 0.7239 0.7230 0.7230
3981.211990 0.7225 0.7220 0.7225 0.7225 0.7220
3987.818100 0.7220 0.7215 0.7210 0.7200 0.7190
3994.424210 0.7190 0.7185 0.7180 0.7175 0.7175
4001.030320 0.7185 0.7201 0.7215 0.7220 0.7225
4007.636430 0.7225 0.7220 0.7225
##END=
