##TITLE=STRONTIUM MOLYBDATE
##JCAMP-DX=4.24
##DATA TYPE=INFRARED SPECTRUM
##CLASS=COBLENTZ
##ORIGIN=DESOTO CHEMICAL COATINGS, INC.
##OWNER=COBLENTZ SOCIETY
Collection (C) 2018 copyright by the U.S. Secretary of Commerce
on behalf of the United States of America. All rights reserved.
##DATE=Not specified, most likely prior to 1970
##MOLFORM=Sr Mo O4
$$ 98% PURE
##SOURCE REFERENCE=COBLENTZ NO. 4694
##$NIST ID=B6004694
##$NIST SOURCE=COBLENTZ
##$NIST IMAGE=cob4694
##SPECTROMETER/DATA SYSTEM=Not specified, most likely a grating spectrometer.
##STATE=SOLID (0.5 mg / 300 mg CsI DISC)
##SAMPLING PROCEDURE=TRANSMISSION
##RESOLUTION=4
##DATA PROCESSING=DIGITIZED BY NIST FROM HARD COPY (FROM TWO SEGMENTS)
##XUNITS=1/CM
##YUNITS=TRANSMITTANCE
##XFACTOR=1.000000
##YFACTOR=1
##DELTAX=1.330380
##FIRSTX=198.67
##LASTX=3988.92
##FIRSTY=0.76
##MAXX=3988.92
##MINX=198.67
##MAXY=0.975999
##MINY=0.094
##NPOINTS=2850
##XYDATA=(X++(Y..Y))
198.670000 0.7600 0.7600 0.7600 0.7600 0.7600
205.321900 0.7600 0.7600 0.7600 0.7610 0.7610
211.973799 0.7610 0.7640 0.7650 0.7660 0.7690
218.625699 0.7700 0.7720 0.7740 0.7780 0.7800
225.277599 0.7800 0.7800 0.7810 0.7820 0.7840
231.929499 0.7880 0.7890 0.7890 0.7900 0.7930
238.581398 0.7980 0.8000 0.8010 0.8020 0.8040
245.233298 0.8050 0.8060 0.8060 0.8080 0.8090
251.885198 0.8090 0.8090 0.8080 0.8080 0.8080
258.537097 0.8090 0.8090 0.8090 0.8090 0.8080
265.188997 0.8050 0.8000 0.7940 0.7920 0.7810
271.840897 0.7660 0.7600 0.7530 0.7450 0.7351
278.492796 0.7280 0.7240 0.7170 0.7120 0.7110
285.144696 0.7090 0.7090 0.7090 0.7110 0.7120
291.796596 0.7150 0.7200 0.7240 0.7310 0.7350
298.448496 0.7360 0.7400 0.7430 0.7440 0.7450
305.100395 0.7470 0.7490 0.7500 0.7520 0.7530
311.752295 0.7530 0.7540 0.7540 0.7540 0.7520
318.404195 0.7500 0.7480 0.7400 0.7320 0.7230
325.056094 0.7120 0.7010 0.6910 0.6811 0.6721
331.707994 0.6510 0.6430 0.6330 0.6310 0.6310
338.359894 0.6350 0.6370 0.6450 0.6559 0.6649
345.011794 0.6750 0.6910 0.7010 0.7150 0.7230
351.663693 0.7310 0.7360 0.7400 0.7430 0.7490
358.315593 0.7490 0.7520 0.7570 0.7600 0.7610
364.967493 0.7620 0.7650 0.7690 0.7700 0.7720
371.619392 0.7730 0.7730 0.7730 0.7730 0.7740
378.271292 0.7760 0.7760 0.7780 0.7800 0.7800
384.923192 0.7800 0.7800 0.7810 0.7810 0.7800
391.575092 0.7780 0.7760 0.7740 0.7720 0.7700
398.226991 0.7640 0.7570 0.7360 0.7160 0.7040
404.878891 0.6890 0.6770 0.6750 0.6750 0.6959
411.530791 0.7330 0.7370 0.7400 0.7480 0.7580
418.182690 0.7620 0.7650 0.7730 0.7849 0.7900
424.834590 0.7980 0.8020 0.8100 0.8130 0.8180
431.486490 0.8260 0.8300 0.8300 0.8340 0.8400
438.138389 0.8450 0.8490 0.8560 0.8610 0.8610
444.790289 0.8620 0.8640 0.8700 0.8740 0.8780
451.442189 0.8820 0.8860 0.8920 0.8930 0.8960
458.094089 0.9000 0.9010 0.9010 0.9010 0.9020
464.745988 0.9040 0.9060 0.9100 0.9130 0.9160
471.397888 0.9170 0.9180 0.9200 0.9200 0.9200
478.049788 0.9210 0.9210 0.9210 0.9220 0.9240
484.701687 0.9240 0.9240 0.9250 0.9260 0.9260
491.353587 0.9280 0.9280 0.9280 0.9260 0.9260
498.005487 0.9260 0.9280 0.9280 0.9290 0.9300
504.657387 0.9300 0.9300 0.9300 0.9320 0.9320
511.309286 0.9320 0.9320 0.9330 0.9340 0.9340
517.961186 0.9360 0.9370 0.9380 0.9380 0.9380
524.613086 0.9400 0.9400 0.9400 0.9400 0.9400
531.264985 0.9400 0.9400 0.9400 0.9400 0.9400
537.916885 0.9400 0.9400 0.9400 0.9400 0.9400
544.568785 0.9400 0.9400 0.9400 0.9400 0.9410
551.220685 0.9410 0.9410 0.9410 0.9410 0.9410
557.872584 0.9410 0.9410 0.9420 0.9420 0.9420
564.524484 0.9420 0.9410 0.9410 0.9410 0.9400
571.176384 0.9410 0.9410 0.9410 0.9410 0.9410
577.828283 0.9410 0.9400 0.9400 0.9400 0.9400
584.480183 0.9400 0.9410 0.9410 0.9420 0.9420
591.132083 0.9440 0.9450 0.9450 0.9450 0.9480
597.783982 0.9480 0.9480 0.9480 0.9490 0.9490
604.435882 0.9460 0.9460 0.9460 0.9480 0.9490
611.087782 0.9500 0.9520 0.9520 0.9520 0.9530
617.739682 0.9530 0.9530 0.9530 0.9530 0.9530
624.391581 0.9520 0.9520 0.9520 0.9520 0.9520
631.043481 0.9530 0.9530 0.9530 0.9530 0.9530
637.695381 0.9530 0.9530 0.9530 0.9540 0.9540
644.347280 0.9540 0.9540 0.9540 0.9560 0.9570
650.999180 0.9580 0.9580 0.9600 0.9600 0.9620
657.651080 0.9620 0.9640 0.9640 0.9640 0.9640
664.302980 0.9640 0.9640 0.9640 0.9640 0.9640
670.954879 0.9640 0.9640 0.9650 0.9650 0.9650
677.606779 0.9650 0.9640 0.9620 0.9620 0.9640
684.258679 0.9640 0.9640 0.9650 0.9650 0.9650
690.910578 0.9650 0.9650 0.9640 0.9640 0.9620
697.562478 0.9610 0.9610 0.9600 0.9600 0.9600
704.214378 0.9600 0.9600 0.9600 0.9600 0.9600
710.866278 0.9600 0.9600 0.9580 0.9580 0.9580
717.518177 0.9580 0.9570 0.9570 0.9570 0.9570
724.170077 0.9570 0.9560 0.9540 0.9540 0.9530
730.821977 0.9530 0.9520 0.9520 0.9520 0.9500
737.473876 0.9500 0.9490 0.9490 0.9490 0.9480
744.125776 0.9480 0.9460 0.9460 0.9460 0.9450
750.777676 0.9440 0.9410 0.9380 0.9370 0.9330
757.429575 0.9290 0.9250 0.9240 0.9220 0.9160
764.081475 0.9120 0.9100 0.8980 0.8960 0.8821
770.733375 0.8660 0.8480 0.8260 0.8120 0.7960
777.385275 0.7800 0.7660 0.7441 0.7151 0.6891
784.037174 0.6650 0.6430 0.6200 0.5930 0.5311
790.689074 0.4901 0.4551 0.4261 0.3912 0.3632
797.340974 0.3340 0.3020 0.2670 0.2350 0.1741
803.992873 0.1471 0.1291 0.1210 0.1150 0.1130
810.644773 0.1100 0.1090 0.1060 0.1050 0.1030
817.296673 0.1010 0.0980 0.0970 0.0950 0.0940
823.948573 0.0940 0.0940 0.0950 0.0970 0.0990
830.600472 0.1010 0.1030 0.1060 0.1150 0.1289
837.252372 0.1310 0.1390 0.1470 0.1590 0.1630
843.904272 0.1730 0.1820 0.1900 0.1970 0.2020
850.556171 0.2070 0.2180 0.2260 0.2370 0.2460
857.208071 0.2580 0.2700 0.2840 0.3019 0.3239
863.859971 0.3420 0.3630 0.3800 0.3960 0.4100
870.511870 0.4339 0.4789 0.4989 0.5080 0.5229
877.163770 0.5400 0.5480 0.5550 0.5690 0.6009
883.815670 0.6160 0.6290 0.6429 0.6530 0.6649
890.467570 0.6760 0.6930 0.7160 0.7430 0.7680
897.119469 0.7919 0.8099 0.8279 0.8449 0.8619
903.771369 0.8760 0.8820 0.8930 0.9000 0.9050
910.423269 0.9090 0.9140 0.9200 0.9250 0.9280
917.075168 0.9300 0.9330 0.9340 0.9360 0.9410
923.727068 0.9420 0.9450 0.9460 0.9460 0.9460
930.378968 0.9500 0.9520 0.9530 0.9530 0.9560
937.030868 0.9570 0.9580 0.9600 0.9610 0.9610
943.682767 0.9610 0.9620 0.9620 0.9620 0.9620
950.334667 0.9620 0.9640 0.9640 0.9650 0.9650
956.986567 0.9640 0.9650 0.9660 0.9680 0.9680
963.638466 0.9660 0.9660 0.9660 0.9650 0.9660
970.290366 0.9680 0.9680 0.9690 0.9700 0.9700
976.942266 0.9720 0.9720 0.9720 0.9720 0.9700
983.594166 0.9700 0.9700 0.9700 0.9700 0.9720
990.246065 0.9720 0.9720 0.9720 0.9720 0.9720
996.897965 0.9720 0.9720 0.9720 0.9720 0.9700
1003.549865 0.9720 0.9720 0.9700 0.9700 0.9700
1010.201764 0.9690 0.9690 0.9690 0.9690 0.9690
1016.853664 0.9690 0.9690 0.9700 0.9700 0.9690
1023.505564 0.9680 0.9680 0.9680 0.9660 0.9660
1030.157463 0.9660 0.9660 0.9650 0.9640 0.9640
1036.809363 0.9640 0.9640 0.9650 0.9650 0.9660
1043.461263 0.9660 0.9660 0.9660 0.9660 0.9660
1050.113163 0.9680 0.9680 0.9680 0.9680 0.9680
1056.765062 0.9680 0.9660 0.9660 0.9650 0.9650
1063.416962 0.9640 0.9640 0.9640 0.9640 0.9620
1070.068862 0.9620 0.9620 0.9620 0.9620 0.9620
1076.720761 0.9610 0.9610 0.9610 0.9600 0.9600
1083.372661 0.9610 0.9610 0.9600 0.9600 0.9620
1090.024561 0.9620 0.9620 0.9610 0.9610 0.9610
1096.676461 0.9620 0.9620 0.9620 0.9620 0.9640
1103.328360 0.9640 0.9640 0.9640 0.9640 0.9640
1109.980260 0.9640 0.9640 0.9620 0.9620 0.9620
1116.632160 0.9610 0.9610 0.9610 0.9610 0.9620
1123.284059 0.9620 0.9620 0.9620 0.9610 0.9610
1129.935959 0.9620 0.9620 0.9620 0.9620 0.9620
1136.587859 0.9620 0.9640 0.9640 0.9640 0.9650
1143.239759 0.9660 0.9650 0.9650 0.9650 0.9650
1149.891658 0.9650 0.9660 0.9680 0.9680 0.9690
1156.543558 0.9690 0.9690 0.9690 0.9690 0.9690
1163.195458 0.9690 0.9690 0.9690 0.9690 0.9700
1169.847357 0.9700 0.9700 0.9700 0.9700 0.9700
1176.499257 0.9700 0.9700 0.9700 0.9700 0.9700
1183.151157 0.9700 0.9700 0.9720 0.9720 0.9720
1189.803056 0.9720 0.9720 0.9720 0.9730 0.9730
1196.454956 0.9740 0.9740 0.9740 0.9740 0.9760
1203.106856 0.9740 0.9730 0.9730 0.9730 0.9730
1209.758756 0.9740 0.9740 0.9730 0.9730 0.9730
1216.410655 0.9730 0.9730 0.9730 0.9730 0.9740
1223.062555 0.9740 0.9730 0.9730 0.9740 0.9730
1229.714455 0.9720 0.9720 0.9730 0.9740 0.9730
1236.366354 0.9730 0.9730 0.9730 0.9730 0.9720
1243.018254 0.9730 0.9730 0.9730 0.9730 0.9730
1249.670154 0.9740 0.9730 0.9730 0.9730 0.9740
1256.322054 0.9730 0.9730 0.9730 0.9730 0.9720
1262.973953 0.9700 0.9700 0.9720 0.9720 0.9730
1269.625853 0.9730 0.9730 0.9700 0.9740 0.9740
1276.277753 0.9740 0.9730 0.9730 0.9730 0.9730
1282.929652 0.9700 0.9690 0.9700 0.9720 0.9720
1289.581552 0.9720 0.9720 0.9730 0.9730 0.9730
1296.233452 0.9730 0.9730 0.9730 0.9740 0.9740
1302.885352 0.9730 0.9730 0.9720 0.9720 0.9720
1309.537251 0.9720 0.9720 0.9700 0.9700 0.9700
1316.189151 0.9700 0.9700 0.9700 0.9700 0.9690
1322.841051 0.9690 0.9680 0.9660 0.9660 0.9680
1329.492950 0.9680 0.9680 0.9680 0.9660 0.9660
1336.144850 0.9660 0.9640 0.9620 0.9620 0.9620
1342.796750 0.9610 0.9610 0.9610 0.9610 0.9600
1349.448649 0.9580 0.9570 0.9560 0.9560 0.9540
1356.100549 0.9540 0.9540 0.9530 0.9530 0.9520
1362.752449 0.9520 0.9490 0.9490 0.9480 0.9480
1369.404349 0.9460 0.9450 0.9450 0.9450 0.9450
1376.056248 0.9450 0.9450 0.9450 0.9450 0.9460
1382.708148 0.9460 0.9460 0.9480 0.9480 0.9490
1389.360048 0.9490 0.9490 0.9490 0.9500 0.9500
1396.011947 0.9520 0.9520 0.9520 0.9530 0.9530
1402.663847 0.9530 0.9500 0.9500 0.9520 0.9520
1409.315747 0.9530 0.9530 0.9500 0.9500 0.9500
1415.967647 0.9500 0.9520 0.9520 0.9520 0.9530
1422.619546 0.9530 0.9530 0.9520 0.9520 0.9500
1429.271446 0.9500 0.9520 0.9530 0.9540 0.9540
1435.923346 0.9560 0.9560 0.9560 0.9560 0.9560
1442.575245 0.9540 0.9540 0.9540 0.9540 0.9530
1449.227145 0.9520 0.9520 0.9520 0.9520 0.9520
1455.879045 0.9520 0.9520 0.9530 0.9530 0.9540
1462.530944 0.9540 0.9560 0.9560 0.9560 0.9560
1469.182844 0.9570 0.9580 0.9600 0.9600 0.9600
1475.834744 0.9600 0.9600 0.9600 0.9620 0.9620
1482.486644 0.9640 0.9640 0.9640 0.9640 0.9650
1489.138543 0.9650 0.9650 0.9650 0.9650 0.9660
1495.790443 0.9660 0.9660 0.9680 0.9680 0.9660
1502.442343 0.9660 0.9650 0.9640 0.9640 0.9640
1509.094242 0.9640 0.9650 0.9650 0.9640 0.9640
1515.746142 0.9640 0.9640 0.9640 0.9640 0.9640
1522.398042 0.9620 0.9620 0.9620 0.9620 0.9620
1529.049942 0.9620 0.9620 0.9620 0.9620 0.9620
1535.701841 0.9610 0.9610 0.9610 0.9610 0.9610
1542.353741 0.9610 0.9610 0.9610 0.9600 0.9600
1549.005641 0.9600 0.9580 0.9580 0.9580 0.9580
1555.657540 0.9570 0.9560 0.9540 0.9540 0.9530
1562.309440 0.9530 0.9530 0.9520 0.9520 0.9520
1568.961340 0.9500 0.9490 0.9490 0.9490 0.9490
1575.613240 0.9480 0.9480 0.9460 0.9450 0.9450
1582.265139 0.9440 0.9440 0.9420 0.9410 0.9380
1588.917039 0.9370 0.9360 0.9330 0.9320 0.9290
1595.568939 0.9280 0.9250 0.9220 0.9210 0.9200
1602.220838 0.9140 0.9120 0.9090 0.9060 0.9040
1608.872738 0.9000 0.8940 0.8920 0.8900 0.8880
1615.524638 0.8850 0.8840 0.8820 0.8820 0.8820
1622.176537 0.8840 0.8840 0.8850 0.8860 0.8880
1628.828437 0.8890 0.8920 0.8930 0.8960 0.8980
1635.480337 0.9000 0.9010 0.9020 0.9050 0.9060
1642.132237 0.9090 0.9120 0.9140 0.9140 0.9160
1648.784136 0.9170 0.9180 0.9200 0.9210 0.9220
1655.436036 0.9240 0.9240 0.9250 0.9260 0.9260
1662.087936 0.9280 0.9280 0.9290 0.9290 0.9300
1668.739835 0.9300 0.9300 0.9300 0.9300 0.9320
1675.391735 0.9320 0.9320 0.9320 0.9330 0.9330
1682.043635 0.9330 0.9330 0.9330 0.9320 0.9320
1688.695535 0.9320 0.9330 0.9330 0.9330 0.9330
1695.347434 0.9330 0.9330 0.9340 0.9360 0.9360
1701.999334 0.9370 0.9370 0.9370 0.9370 0.9370
1708.651234 0.9380 0.9400 0.9410 0.9410 0.9410
1715.303133 0.9440 0.9440 0.9450 0.9450 0.9450
1721.955033 0.9450 0.9450 0.9460 0.9460 0.9480
1728.606933 0.9480 0.9490 0.9500 0.9500 0.9500
1735.258833 0.9500 0.9500 0.9500 0.9520 0.9520
1741.910732 0.9530 0.9540 0.9560 0.9570 0.9580
1748.562632 0.9580 0.9580 0.9600 0.9600 0.9600
1755.214532 0.9610 0.9610 0.9600 0.9600 0.9610
1761.866431 0.9620 0.9640 0.9640 0.9640 0.9640
1768.518331 0.9650 0.9650 0.9650 0.9640 0.9640
1775.170231 0.9620 0.9620 0.9620 0.9610 0.9610
1781.822130 0.9610 0.9610 0.9610 0.9610 0.9620
1788.474030 0.9610 0.9600 0.9600 0.9600 0.9610
1795.125930 0.9610 0.9610 0.9610 0.9610 0.9620
1801.777830 0.9640 0.9640 0.9640 0.9640 0.9640
1808.429729 0.9640 0.9640 0.9640 0.9640 0.9640
1815.081629 0.9640 0.9640 0.9620 0.9640 0.9640
1821.733529 0.9650 0.9660 0.9660 0.9660 0.9650
1828.385428 0.9640 0.9640 0.9640 0.9640 0.9640
1835.037328 0.9640 0.9640 0.9640 0.9640 0.9640
1841.689228 0.9640 0.9640 0.9640 0.9640 0.9660
1848.341128 0.9660 0.9660 0.9660 0.9660 0.9640
1854.993027 0.9640 0.9640 0.9640 0.9640 0.9640
1861.644927 0.9640 0.9620 0.9620 0.9620 0.9640
1868.296827 0.9660 0.9660 0.9650 0.9640 0.9640
1874.948726 0.9620 0.9620 0.9620 0.9620 0.9620
1881.600626 0.9620 0.9640 0.9640 0.9640 0.9640
1888.252526 0.9640 0.9620 0.9620 0.9620 0.9610
1894.904426 0.9600 0.9600 0.9600 0.9600 0.9610
1901.556325 0.9620 0.9640 0.9640 0.9640 0.9640
1908.208225 0.9640 0.9640 0.9640 0.9610 0.9610
1914.860125 0.9610 0.9620 0.9610 0.9610 0.9610
1921.512024 0.9610 0.9610 0.9610 0.9610 0.9610
1928.163924 0.9610 0.9600 0.9600 0.9610 0.9610
1934.815824 0.9610 0.9610 0.9610 0.9610 0.9610
1941.467723 0.9610 0.9600 0.9600 0.9580 0.9580
1948.119623 0.9600 0.9600 0.9580 0.9570 0.9570
1954.771523 0.9570 0.9570 0.9570 0.9570 0.9580
1961.423423 0.9580 0.9600 0.9600 0.9610 0.9610
1968.075322 0.9610 0.9610 0.9610 0.9610 0.9610
1974.727222 0.9610 0.9610 0.9610 0.9610 0.9610
1981.379122 0.9600 0.9600 0.9610 0.9600 0.9600
1988.031021 0.9580 0.9580 0.9580 0.9570 0.9570
1994.682921 0.9560 0.9560 0.9560 0.9560 0.9560
2001.334821 0.9560 0.9560 0.9560 0.9560 0.9550
2007.986721 0.9540 0.9540 0.9540 0.9540 0.9540
2014.638620 0.9540 0.9540 0.9540 0.9540 0.9540
2021.290520 0.9540 0.9540 0.9540 0.9540 0.9540
2027.942420 0.9540 0.9540 0.9540 0.9540 0.9540
2034.594319 0.9540 0.9540 0.9540 0.9535 0.9530
2041.246219 0.9530 0.9530 0.9530 0.9530 0.9530
2047.898119 0.9530 0.9530 0.9530 0.9525 0.9520
2054.550019 0.9525 0.9530 0.9530 0.9530 0.9530
2061.201918 0.9530 0.9530 0.9530 0.9530 0.9530
2067.853818 0.9530 0.9530 0.9515 0.9500 0.9500
2074.505718 0.9500 0.9500 0.9500 0.9500 0.9500
2081.157617 0.9500 0.9500 0.9495 0.9490 0.9490
2087.809517 0.9490 0.9495 0.9500 0.9500 0.9500
2094.461417 0.9500 0.9500 0.9510 0.9520 0.9525
2101.113316 0.9530 0.9535 0.9540 0.9540 0.9540
2107.765216 0.9540 0.9540 0.9535 0.9530 0.9530
2114.417116 0.9530 0.9530 0.9530 0.9530 0.9530
2121.069016 0.9535 0.9540 0.9540 0.9540 0.9535
2127.720915 0.9530 0.9525 0.9520 0.9520 0.9520
2134.372815 0.9520 0.9520 0.9520 0.9520 0.9520
2141.024715 0.9520 0.9520 0.9520 0.9520 0.9520
2147.676614 0.9510 0.9500 0.9510 0.9520 0.9520
2154.328514 0.9520 0.9525 0.9530 0.9530 0.9530
2160.980414 0.9530 0.9530 0.9535 0.9540 0.9540
2167.632314 0.9540 0.9535 0.9530 0.9525 0.9520
2174.284213 0.9520 0.9520 0.9530 0.9540 0.9540
2180.936113 0.9541 0.9556 0.9570 0.9570 0.9570
2187.588013 0.9565 0.9560 0.9560 0.9559 0.9549
2194.239912 0.9540 0.9540 0.9540 0.9540 0.9540
2200.891812 0.9540 0.9540 0.9540 0.9540 0.9535
2207.543712 0.9530 0.9530 0.9530 0.9530 0.9530
2214.195611 0.9530 0.9530 0.9530 0.9530 0.9535
2220.847511 0.9541 0.9551 0.9560 0.9560 0.9559
2227.499411 0.9539 0.9520 0.9520 0.9520 0.9520
2234.151311 0.9520 0.9520 0.9520 0.9520 0.9520
2240.803210 0.9520 0.9519 0.9509 0.9500 0.9500
2247.455110 0.9500 0.9500 0.9500 0.9500 0.9500
2254.107010 0.9500 0.9500 0.9500 0.9500 0.9500
2260.758909 0.9500 0.9500 0.9500 0.9500 0.9500
2267.410809 0.9500 0.9501 0.9511 0.9520 0.9525
2274.062709 0.9530 0.9530 0.9530 0.9530 0.9530
2280.714609 0.9530 0.9530 0.9530 0.9530 0.9530
2287.366508 0.9530 0.9530 0.9530 0.9530 0.9530
2294.018408 0.9530 0.9530 0.9530 0.9530 0.9530
2300.670308 0.9530 0.9530 0.9530 0.9530 0.9530
2307.322207 0.9530 0.9530 0.9525 0.9520 0.9520
2313.974107 0.9519 0.9509 0.9500 0.9500 0.9501
2320.626007 0.9511 0.9520 0.9520 0.9520 0.9520
2327.277907 0.9520 0.9520 0.9519 0.9509 0.9500
2333.929806 0.9500 0.9500 0.9500 0.9500 0.9500
2340.581706 0.9501 0.9511 0.9520 0.9520 0.9519
2347.233606 0.9509 0.9499 0.9494 0.9489 0.9484
2353.885505 0.9479 0.9469 0.9460 0.9460 0.9461
2360.537405 0.9471 0.9480 0.9480 0.9481 0.9491
2367.189305 0.9501 0.9511 0.9520 0.9520 0.9519
2373.841204 0.9509 0.9500 0.9500 0.9500 0.9500
2380.493104 0.9501 0.9511 0.9520 0.9520 0.9518
2387.145004 0.9503 0.9490 0.9490 0.9491 0.9496
2393.796904 0.9501 0.9511 0.9519 0.9509 0.9500
2400.448803 0.9500 0.9499 0.9494 0.9490 0.9490
2407.100703 0.9490 0.9490 0.9488 0.9473 0.9459
2413.752603 0.9454 0.9449 0.9444 0.9440 0.9440
2420.404502 0.9440 0.9440 0.9441 0.9446 0.9450
2427.056402 0.9450 0.9450 0.9450 0.9450 0.9450
2433.708302 0.9449 0.9444 0.9440 0.9440 0.9440
2440.360202 0.9440 0.9440 0.9440 0.9441 0.9451
2447.012101 0.9459 0.9454 0.9449 0.9444 0.9438
2453.664001 0.9428 0.9422 0.9432 0.9440 0.9440
2460.315901 0.9441 0.9451 0.9460 0.9460 0.9459
2466.967800 0.9454 0.9450 0.9450 0.9449 0.9444
2473.619700 0.9440 0.9440 0.9441 0.9446 0.9450
2480.271600 0.9450 0.9450 0.9450 0.9450 0.9450
2486.923500 0.9450 0.9450 0.9451 0.9456 0.9460
2493.575399 0.9460 0.9460 0.9460 0.9460 0.9460
2500.227299 0.9460 0.9460 0.9460 0.9460 0.9459
2506.879199 0.9454 0.9450 0.9450 0.9450 0.9450
2513.531098 0.9449 0.9444 0.9438 0.9428 0.9420
2520.182998 0.9420 0.9419 0.9414 0.9410 0.9410
2526.834898 0.9410 0.9410 0.9410 0.9410 0.9410
2533.486797 0.9410 0.9410 0.9410 0.9410 0.9410
2540.138697 0.9410 0.9410 0.9410 0.9410 0.9410
2546.790597 0.9410 0.9410 0.9410 0.9410 0.9410
2553.442497 0.9409 0.9404 0.9400 0.9400 0.9400
2560.094396 0.9400 0.9401 0.9406 0.9410 0.9410
2566.746296 0.9409 0.9404 0.9400 0.9400 0.9401
2573.398196 0.9406 0.9410 0.9410 0.9410 0.9410
2580.050095 0.9410 0.9410 0.9409 0.9404 0.9400
2586.701995 0.9400 0.9400 0.9400 0.9398 0.9388
2593.353895 0.9380 0.9380 0.9382 0.9392 0.9400
2600.005795 0.9400 0.9401 0.9406 0.9410 0.9410
2606.657694 0.9410 0.9410 0.9410 0.9410 0.9409
2613.309594 0.9404 0.9398 0.9388 0.9380 0.9380
2619.961494 0.9380 0.9380 0.9382 0.9392 0.9400
2626.613393 0.9400 0.9398 0.9388 0.9379 0.9374
2633.265293 0.9370 0.9370 0.9370 0.9370 0.9370
2639.917193 0.9370 0.9370 0.9370 0.9371 0.9376
2646.569093 0.9379 0.9374 0.9369 0.9364 0.9360
2653.220992 0.9360 0.9360 0.9360 0.9360 0.9360
2659.872892 0.9361 0.9366 0.9370 0.9370 0.9371
2666.524792 0.9376 0.9380 0.9380 0.9380 0.9380
2673.176691 0.9380 0.9380 0.9380 0.9380 0.9380
2679.828591 0.9380 0.9379 0.9374 0.9370 0.9370
2686.480491 0.9370 0.9370 0.9369 0.9364 0.9358
2693.132390 0.9348 0.9339 0.9334 0.9330 0.9330
2699.784290 0.9329 0.9324 0.9320 0.9320 0.9320
2706.436190 0.9320 0.9320 0.9320 0.9321 0.9326
2713.088090 0.9330 0.9330 0.9330 0.9330 0.9330
2719.739989 0.9330 0.9329 0.9324 0.9320 0.9320
2726.391889 0.9320 0.9320 0.9321 0.9326 0.9330
2733.043789 0.9330 0.9331 0.9336 0.9340 0.9340
2739.695688 0.9339 0.9334 0.9329 0.9324 0.9320
2746.347588 0.9320 0.9320 0.9320 0.9320 0.9320
2752.999488 0.9318 0.9308 0.9300 0.9300 0.9300
2759.651388 0.9300 0.9300 0.9300 0.9300 0.9300
2766.303287 0.9299 0.9294 0.9291 0.9296 0.9303
2772.955187 0.9313 0.9321 0.9326 0.9330 0.9330
2779.607087 0.9334 0.9349 0.9360 0.9360 0.9360
2786.258986 0.9360 0.9357 0.9347 0.9340 0.9340
2792.910886 0.9340 0.9340 0.9339 0.9334 0.9330
2799.562786 0.9330 0.9330 0.9330 0.9330 0.9330
2806.214685 0.9329 0.9324 0.9320 0.9320 0.9317
2812.866585 0.9307 0.9297 0.9287 0.9277 0.9267
2819.518485 0.9260 0.9260 0.9263 0.9273 0.9280
2826.170385 0.9280 0.9280 0.9280 0.9277 0.9267
2832.822284 0.9260 0.9260 0.9260 0.9260 0.9260
2839.474184 0.9260 0.9259 0.9254 0.9249 0.9244
2846.126084 0.9240 0.9240 0.9237 0.9227 0.9220
2852.777983 0.9220 0.9219 0.9214 0.9210 0.9210
2859.429883 0.9209 0.9204 0.9200 0.9200 0.9200
2866.081783 0.9200 0.9200 0.9200 0.9200 0.9200
2872.733683 0.9200 0.9200 0.9200 0.9200 0.9200
2879.385582 0.9200 0.9200 0.9200 0.9197 0.9187
2886.037482 0.9180 0.9180 0.9179 0.9174 0.9170
2892.689382 0.9170 0.9169 0.9164 0.9160 0.9160
2899.341281 0.9160 0.9160 0.9160 0.9160 0.9157
2905.993181 0.9147 0.9140 0.9140 0.9140 0.9140
2912.645081 0.9140 0.9140 0.9140 0.9140 0.9140
2919.296981 0.9140 0.9140 0.9140 0.9140 0.9140
2925.948880 0.9139 0.9134 0.9130 0.9130 0.9128
2932.600780 0.9123 0.9120 0.9120 0.9117 0.9107
2939.252680 0.9098 0.9093 0.9090 0.9090 0.9090
2945.904579 0.9090 0.9092 0.9097 0.9100 0.9100
2952.556479 0.9103 0.9113 0.9122 0.9127 0.9130
2959.208379 0.9130 0.9132 0.9137 0.9140 0.9140
2965.860278 0.9140 0.9140 0.9138 0.9133 0.9130
2972.512178 0.9130 0.9132 0.9137 0.9143 0.9153
2979.164078 0.9160 0.9160 0.9157 0.9147 0.9143
2985.815978 0.9153 0.9160 0.9160 0.9160 0.9160
2992.467877 0.9160 0.9160 0.9162 0.9167 0.9170
2999.119777 0.9170 0.9170 0.9170 0.9168 0.9163
3005.771677 0.9162 0.9167 0.9170 0.9170 0.9170
3012.423576 0.9170 0.9170 0.9170 0.9170 0.9170
3019.075476 0.9170 0.9170 0.9172 0.9177 0.9180
3025.727376 0.9180 0.9180 0.9180 0.9180 0.9180
3032.379276 0.9178 0.9173 0.9168 0.9163 0.9160
3039.031175 0.9160 0.9160 0.9160 0.9162 0.9167
3045.683075 0.9170 0.9170 0.9170 0.9170 0.9168
3052.334975 0.9163 0.9160 0.9160 0.9160 0.9160
3058.986874 0.9157 0.9147 0.9140 0.9140 0.9140
3065.638774 0.9140 0.9138 0.9133 0.9128 0.9123
3072.290674 0.9120 0.9120 0.9122 0.9127 0.9130
3078.942574 0.9130 0.9130 0.9130 0.9130 0.9130
3085.594473 0.9128 0.9123 0.9117 0.9106 0.9098
3092.246373 0.9093 0.9088 0.9083 0.9080 0.9080
3098.898273 0.9082 0.9087 0.9090 0.9090 0.9088
3105.550172 0.9083 0.9080 0.9080 0.9080 0.9080
3112.202072 0.9080 0.9080 0.9076 0.9066 0.9058
3118.853972 0.9053 0.9050 0.9050 0.9050 0.9050
3125.505871 0.9048 0.9043 0.9040 0.9040 0.9040
3132.157771 0.9040 0.9040 0.9040 0.9040 0.9040
3138.809671 0.9040 0.9040 0.9036 0.9026 0.9020
3145.461571 0.9020 0.9020 0.9020 0.9020 0.9020
3152.113470 0.9020 0.9020 0.9018 0.9013 0.9008
3158.765370 0.9003 0.9000 0.9000 0.8996 0.8986
3165.417270 0.8980 0.8980 0.8978 0.8973 0.8970
3172.069169 0.8970 0.8968 0.8963 0.8960 0.8960
3178.721069 0.8956 0.8946 0.8940 0.8940 0.8938
3185.372969 0.8933 0.8930 0.8930 0.8930 0.8930
3192.024869 0.8928 0.8923 0.8920 0.8920 0.8916
3198.676768 0.8906 0.8900 0.8900 0.8898 0.8893
3205.328668 0.8890 0.8890 0.8888 0.8883 0.8880
3211.980568 0.8880 0.8874 0.8859 0.8850 0.8850
3218.632467 0.8848 0.8843 0.8834 0.8819 0.8810
3225.284367 0.8810 0.8808 0.8803 0.8800 0.8800
3231.936267 0.8800 0.8800 0.8796 0.8786 0.8780
3238.588167 0.8780 0.8778 0.8773 0.8768 0.8763
3245.240066 0.8756 0.8746 0.8738 0.8733 0.8728
3251.891966 0.8723 0.8716 0.8706 0.8698 0.8693
3258.543866 0.8688 0.8683 0.8676 0.8666 0.8658
3265.195765 0.8653 0.8648 0.8643 0.8640 0.8640
3271.847665 0.8640 0.8640 0.8636 0.8626 0.8620
3278.499565 0.8620 0.8618 0.8613 0.8608 0.8603
3285.151464 0.8600 0.8600 0.8596 0.8586 0.8576
3291.803364 0.8566 0.8556 0.8546 0.8538 0.8533
3298.455264 0.8528 0.8523 0.8516 0.8506 0.8500
3305.107164 0.8500 0.8498 0.8493 0.8490 0.8490
3311.759063 0.8481 0.8461 0.8450 0.8450 0.8441
3318.410963 0.8421 0.8408 0.8403 0.8396 0.8386
3325.062863 0.8371 0.8351 0.8338 0.8333 0.8323
3331.714762 0.8308 0.8296 0.8286 0.8276 0.8266
3338.366662 0.8256 0.8246 0.8231 0.8211 0.8191
3345.018562 0.8171 0.8151 0.8131 0.8113 0.8098
3351.670462 0.8088 0.8083 0.8076 0.8065 0.8055
3358.322361 0.8045 0.8033 0.8018 0.8003 0.7988
3364.974261 0.7971 0.7951 0.7931 0.7911 0.7898
3371.626161 0.7893 0.7883 0.7868 0.7858 0.7853
3378.278060 0.7843 0.7828 0.7811 0.7791 0.7768
3384.929960 0.7743 0.7721 0.7701 0.7688 0.7683
3391.581860 0.7673 0.7658 0.7648 0.7643 0.7635
3398.233759 0.7625 0.7609 0.7584 0.7559 0.7534
3404.885659 0.7513 0.7498 0.7481 0.7461 0.7448
3411.537559 0.7443 0.7438 0.7433 0.7423 0.7408
3418.189459 0.7391 0.7371 0.7358 0.7353 0.7341
3424.841358 0.7321 0.7305 0.7295 0.7288 0.7283
3431.493258 0.7280 0.7280 0.7278 0.7273 0.7270
3438.145158 0.7270 0.7265 0.7255 0.7245 0.7235
3444.797057 0.7223 0.7208 0.7198 0.7193 0.7185
3451.448957 0.7175 0.7170 0.7170 0.7170 0.7170
3458.100857 0.7170 0.7170 0.7170 0.7170 0.7170
3464.752757 0.7170 0.7170 0.7170 0.7170 0.7170
3471.404656 0.7175 0.7185 0.7190 0.7190 0.7192
3478.056556 0.7197 0.7202 0.7207 0.7215 0.7225
3484.708456 0.7230 0.7230 0.7232 0.7237 0.7243
3491.360355 0.7248 0.7255 0.7265 0.7272 0.7277
3498.012255 0.7282 0.7287 0.7290 0.7290 0.7297
3504.664155 0.7312 0.7322 0.7327 0.7335 0.7345
3511.316055 0.7355 0.7365 0.7375 0.7385 0.7393
3517.967954 0.7398 0.7403 0.7408 0.7428 0.7463
3524.619854 0.7483 0.7488 0.7493 0.7498 0.7508
3531.271754 0.7523 0.7540 0.7560 0.7572 0.7577
3537.923653 0.7585 0.7595 0.7613 0.7638 0.7660
3544.575553 0.7680 0.7690 0.7690 0.7698 0.7713
3551.227453 0.7730 0.7750 0.7773 0.7798 0.7813
3557.879352 0.7818 0.7828 0.7843 0.7860 0.7880
3564.531252 0.7898 0.7913 0.7925 0.7935 0.7951
3571.183152 0.7971 0.7988 0.8003 0.8018 0.8033
3577.835052 0.8043 0.8048 0.8058 0.8073 0.8083
3584.486951 0.8088 0.8098 0.8113 0.8135 0.8165
3591.138851 0.8188 0.8203 0.8213 0.8218 0.8236
3597.790751 0.8266 0.8296 0.8326 0.8351 0.8371
3604.442650 0.8388 0.8403 0.8413 0.8418 0.8436
3611.094550 0.8466 0.8483 0.8488 0.8498 0.8513
3617.746450 0.8530 0.8550 0.8571 0.8591 0.8605
3624.398350 0.8615 0.8628 0.8643 0.8661 0.8681
3631.050249 0.8698 0.8713 0.8731 0.8751 0.8771
3637.702149 0.8791 0.8805 0.8815 0.8825 0.8835
3644.354049 0.8843 0.8848 0.8858 0.8873 0.8883
3651.005948 0.8888 0.8893 0.8898 0.8908 0.8923
3657.657848 0.8933 0.8938 0.8948 0.8963 0.8973
3664.309748 0.8978 0.8985 0.8995 0.9000 0.9000
3670.961648 0.9000 0.9000 0.9000 0.9000 0.9000
3677.613547 0.9000 0.9000 0.9000 0.9003 0.9008
3684.265447 0.9010 0.9010 0.9010 0.9010 0.9013
3690.917347 0.9018 0.9020 0.9020 0.9020 0.9020
3697.569246 0.9025 0.9035 0.9040 0.9040 0.9043
3704.221146 0.9048 0.9050 0.9050 0.9053 0.9058
3710.873046 0.9060 0.9060 0.9066 0.9076 0.9080
3717.524945 0.9080 0.9080 0.9080 0.9080 0.9080
3724.176845 0.9080 0.9080 0.9080 0.9080 0.9080
3730.828745 0.9080 0.9080 0.9080 0.9080 0.9080
3737.480645 0.9080 0.9080 0.9080 0.9080 0.9074
3744.132544 0.9064 0.9060 0.9060 0.9057 0.9052
3750.784444 0.9050 0.9050 0.9050 0.9050 0.9050
3757.436344 0.9050 0.9050 0.9050 0.9050 0.9050
3764.088243 0.9047 0.9042 0.9040 0.9040 0.9040
3770.740143 0.9040 0.9034 0.9024 0.9020 0.9020
3777.392043 0.9020 0.9020 0.9020 0.9020 0.9017
3784.043943 0.9012 0.9010 0.9010 0.9010 0.9010
3790.695842 0.9010 0.9010 0.9013 0.9018 0.9020
3797.347742 0.9020 0.9026 0.9036 0.9040 0.9040
3803.999642 0.9040 0.9040 0.9040 0.9040 0.9040
3810.651541 0.9040 0.9040 0.9040 0.9040 0.9040
3817.303441 0.9040 0.9040 0.9040 0.9040 0.9040
3823.955341 0.9040 0.9040 0.9040 0.9040 0.9040
3830.607241 0.9040 0.9040 0.9043 0.9048 0.9050
3837.259140 0.9050 0.9050 0.9050 0.9050 0.9050
3843.911040 0.9047 0.9042 0.9040 0.9040 0.9034
3850.562940 0.9024 0.9017 0.9012 0.9007 0.9002
3857.214839 0.9000 0.9000 0.9000 0.9000 0.9003
3863.866739 0.9008 0.9010 0.9010 0.9013 0.9018
3870.518639 0.9020 0.9020 0.9014 0.9004 0.9000
3877.170538 0.9000 0.9000 0.9000 0.9000 0.9000
3883.822438 0.9003 0.9008 0.9010 0.9010 0.9010
3890.474338 0.9010 0.9013 0.9018 0.9020 0.9020
3897.126238 0.9020 0.9020 0.9020 0.9020 0.9017
3903.778137 0.9012 0.9010 0.9010 0.9010 0.9010
3910.430037 0.9010 0.9010 0.9010 0.9010 0.9010
3917.081937 0.9010 0.9010 0.9010 0.9010 0.9010
3923.733836 0.9010 0.9010 0.9010 0.9010 0.9010
3930.385736 0.9010 0.9007 0.9002 0.9000 0.9000
3937.037636 0.8994 0.8984 0.8980 0.8980 0.8980
3943.689536 0.8980 0.8980 0.8980 0.8986 0.8996
3950.341435 0.9000 0.9000 0.9003 0.9008 0.9010
3956.993335 0.9010 0.9007 0.9002 0.9000 0.9000
3963.645235 0.9000 0.9000 0.9000 0.9000 0.9000
3970.297134 0.9000 0.9000 0.9000 0.9000 0.9000
3976.949034 0.9000 0.9000 0.9000 0.9000 0.9000
3983.600934 0.9000 0.9000 0.9000 0.9000 0.9000
##END=
