##TITLE=Aniline,2-methyl-N-(Alpha,Alpha-dimethylpropyl)-
##JCAMP-DX=4.24
##DATA TYPE=INFRARED SPECTRUM
##CLASS=COBLENTZ III
##ORIGIN=MONSANTO (J. FREEMAN)
##OWNER=Copyright (C) 1987 by the Coblentz Society
Collection (C) 2018 copyright by the U.S. Secretary of Commerce
on behalf of the United States of America. All rights reserved.
##DATE=1959/12/31
##NAMES=N-(2-methylphenyl)-N-(tert-pentyl)amine
2-methyl-N-(tert-pentyl)aniline
BENZENAMINE,2-METHYL-N-(1',1'-DIMETHYLPROPYL)-
##MOLFORM=C12 H19 N
##SOURCE REFERENCE=COBLENTZ NO. 9279
##$NIST ID=B6009279
##$NIST SOURCE=COBLENTZ
##$NIST IMAGE=cob9279
##SPECTROMETER/DATA SYSTEM=BECKMAN IR-4 (HYBRID PRISM-GRATING)
##INSTRUMENT PARAMETERS=NaCl PRISM
##STATE=LIQUID (NEAT)
##PATH LENGTH=CAPILLARY
##SAMPLING PROCEDURE=TRANSMISSION
##RESOLUTION=2
##DATA PROCESSING=DIGITIZED BY COBLENTZ SOCIETY (BATCH II) FROM HARD COPY
##XUNITS=1/CM
##YUNITS=TRANSMITTANCE
##XFACTOR=1.0
##YFACTOR=1
##FIRSTX=626
##LASTX=4000
##FIRSTY=0.8037
##MAXX=4000
##MINX=626
##MAXY=0.9782
##MINY=0.0934
##NPOINTS=3375
##XYDATA=(X++(Y..Y))
626.000000 0.8037 0.8077 0.8125 0.8184 0.8247
631.000000 0.8323 0.8396 0.8459 0.8522 0.8585
636.000000 0.8659 0.8729 0.8766 0.8770 0.8825
641.000000 0.8907 0.8989 0.9057 0.9114 0.9144
646.000000 0.9146 0.9112 0.9104 0.9100 0.9095
651.000000 0.9091 0.9084 0.9059 0.9024 0.8987
656.000000 0.8943 0.8900 0.8857 0.8807 0.8743
661.000000 0.8679 0.8602 0.8515 0.8467 0.8440
666.000000 0.8451 0.8463 0.8480 0.8499 0.8496
671.000000 0.8465 0.8424 0.8342 0.8265 0.8234
676.000000 0.8226 0.8295 0.8340 0.8361 0.8377
681.000000 0.8381 0.8386 0.8383 0.8369 0.8336
686.000000 0.8287 0.8234 0.8184 0.8167 0.8166
691.000000 0.8172 0.8177 0.8191 0.8207 0.8204
696.000000 0.8187 0.8240 0.8300 0.8330 0.8332
701.000000 0.8319 0.8296 0.8264 0.8227 0.8175
706.000000 0.8119 0.8016 0.7859 0.7707 0.7505
711.000000 0.6984 0.6658 0.6335 0.6041 0.5867
716.000000 0.5769 0.5758 0.5770 0.5933 0.6035
721.000000 0.6084 0.6065 0.6051 0.5980 0.5809
726.000000 0.5590 0.5313 0.4809 0.4493 0.4183
731.000000 0.3874 0.3565 0.3258 0.2825 0.2476
736.000000 0.2033 0.1521 0.1288 0.1124 0.1034
741.000000 0.0985 0.0957 0.0947 0.0992 0.0934
746.000000 0.1180 0.1186 0.1248 0.1470 0.2023
751.000000 0.2541 0.2777 0.3050 0.3613 0.4072
756.000000 0.4415 0.4757 0.5098 0.5417 0.5656
761.000000 0.5989 0.6177 0.6316 0.6434 0.6541
766.000000 0.6640 0.6736 0.6827 0.6892 0.6922
771.000000 0.6913 0.6888 0.6848 0.6801 0.6815
776.000000 0.6814 0.6839 0.6891 0.6952 0.6984
781.000000 0.6987 0.6987 0.6985 0.6983 0.6985
786.000000 0.7042 0.7132 0.7272 0.7414 0.7557
791.000000 0.7695 0.7819 0.7927 0.7997 0.8053
796.000000 0.8106 0.8142 0.8173 0.8199 0.8224
801.000000 0.8245 0.8265 0.8279 0.8289 0.8284
806.000000 0.8279 0.8268 0.8257 0.8246 0.8237
811.000000 0.8228 0.8222 0.8218 0.8209 0.8203
816.000000 0.8227 0.8261 0.8298 0.8341 0.8360
821.000000 0.8366 0.8357 0.8348 0.8335 0.8323
826.000000 0.8310 0.8293 0.8277 0.8267 0.8257
831.000000 0.8245 0.8232 0.8218 0.8203 0.8187
836.000000 0.8179 0.8174 0.8208 0.8262 0.8318
841.000000 0.8375 0.8432 0.8487 0.8543 0.8625
846.000000 0.8691 0.8753 0.8809 0.8847 0.8871
851.000000 0.8894 0.8919 0.8941 0.8955 0.8969
856.000000 0.8979 0.8983 0.8987 0.8988 0.8989
861.000000 0.8998 0.9011 0.9037 0.9076 0.9101
866.000000 0.9115 0.9123 0.9115 0.9124 0.9123
871.000000 0.9121 0.9113 0.9105 0.9096 0.9085
876.000000 0.9074 0.9064 0.9055 0.9046 0.9036
881.000000 0.9025 0.9013 0.9002 0.8991 0.8979
886.000000 0.8967 0.8955 0.8943 0.8928 0.8911
891.000000 0.8894 0.8876 0.8852 0.8827 0.8801
896.000000 0.8759 0.8714 0.8666 0.8606 0.8570
901.000000 0.8576 0.8660 0.8751 0.8826 0.8866
906.000000 0.8873 0.8874 0.8909 0.8845 0.8805
911.000000 0.8734 0.8647 0.8531 0.8302 0.8123
916.000000 0.8019 0.7938 0.7918 0.8105 0.8217
921.000000 0.8318 0.8396 0.8465 0.8531 0.8600
926.000000 0.8667 0.8714 0.8760 0.8799 0.8833
931.000000 0.8866 0.8895 0.8923 0.8943 0.8955
936.000000 0.8963 0.8962 0.8947 0.8947 0.8934
941.000000 0.8920 0.8906 0.8891 0.8866 0.8841
946.000000 0.8811 0.8779 0.8742 0.8704 0.8660
951.000000 0.8609 0.8558 0.8493 0.8426 0.8342
956.000000 0.8244 0.8135 0.8024 0.7907 0.7785
961.000000 0.7662 0.7540 0.7419 0.7298 0.7143
966.000000 0.7039 0.7064 0.7101 0.7160 0.7258
971.000000 0.7377 0.7466 0.7517 0.7511 0.7521
976.000000 0.7507 0.7448 0.7340 0.7142 0.6859
981.000000 0.6575 0.6293 0.6012 0.5796 0.5802
986.000000 0.6259 0.6558 0.6856 0.7154 0.7451
991.000000 0.7744 0.7874 0.7894 0.7899 0.7894
996.000000 0.7882 0.7827 0.7705 0.7548 0.7413
1001.000000 0.7377 0.7354 0.7371 0.7563 0.7683
1006.000000 0.7802 0.7922 0.8042 0.8161 0.8273
1011.000000 0.8401 0.8467 0.8501 0.8527 0.8540
1016.000000 0.8550 0.8549 0.8525 0.8472 0.8405
1021.000000 0.8335 0.8247 0.8159 0.8076 0.7997
1026.000000 0.7923 0.7851 0.7830 0.7826 0.7941
1031.000000 0.8057 0.8145 0.8184 0.8189 0.8188
1036.000000 0.8127 0.8025 0.7877 0.7613 0.7392
1041.000000 0.7166 0.6987 0.6812 0.6599 0.6346
1046.000000 0.5864 0.5270 0.4677 0.4085 0.3980
1051.000000 0.4016 0.4238 0.4654 0.5070 0.5484
1056.000000 0.5897 0.6187 0.6264 0.6325 0.6369
1061.000000 0.6434 0.6700 0.6990 0.7279 0.7568
1066.000000 0.7856 0.8143 0.8428 0.8609 0.8796
1071.000000 0.8874 0.8914 0.8934 0.8954 0.8960
1076.000000 0.8966 0.8972 0.8975 0.8980 0.8981
1081.000000 0.8981 0.8980 0.8983 0.8976 0.8973
1086.000000 0.8971 0.8973 0.8975 0.8976 0.8975
1091.000000 0.8975 0.8973 0.8970 0.8967 0.8943
1096.000000 0.8897 0.8836 0.8773 0.8698 0.8618
1101.000000 0.8526 0.8369 0.8130 0.7854 0.7579
1106.000000 0.7306 0.7032 0.6759 0.6536 0.6548
1111.000000 0.6982 0.7359 0.7735 0.8110 0.8486
1116.000000 0.8886 0.8994 0.9058 0.9100 0.9136
1121.000000 0.9152 0.9167 0.9182 0.9188 0.9192
1126.000000 0.9195 0.9196 0.9207 0.9194 0.9187
1131.000000 0.9180 0.9171 0.9157 0.9140 0.9122
1136.000000 0.9097 0.9068 0.9035 0.8987 0.8924
1141.000000 0.8847 0.8771 0.8693 0.8595 0.8499
1146.000000 0.8408 0.8303 0.8169 0.7998 0.7822
1151.000000 0.7648 0.7473 0.7299 0.7125 0.7000
1156.000000 0.6929 0.6858 0.6765 0.6664 0.6489
1161.000000 0.6357 0.6240 0.6096 0.5865 0.5623
1166.000000 0.5383 0.5143 0.4903 0.4664 0.4425
1171.000000 0.4187 0.4008 0.3933 0.3824 0.3829
1176.000000 0.3810 0.3821 0.3839 0.3862 0.3884
1181.000000 0.3885 0.3865 0.3834 0.3775 0.3714
1186.000000 0.3660 0.3594 0.3508 0.3463 0.3460
1191.000000 0.3471 0.3472 0.3575 0.3655 0.3740
1196.000000 0.3846 0.3929 0.4005 0.4095 0.4282
1201.000000 0.4488 0.4694 0.4900 0.5105 0.5310
1206.000000 0.5514 0.5673 0.5715 0.5727 0.5726
1211.000000 0.5735 0.5517 0.5249 0.4981 0.4714
1216.000000 0.4447 0.4181 0.3915 0.3650 0.3481
1221.000000 0.3456 0.3510 0.3897 0.4368 0.4838
1226.000000 0.5309 0.5777 0.6245 0.6692 0.6830
1231.000000 0.6880 0.6891 0.6885 0.6894 0.6843
1236.000000 0.6803 0.6752 0.6680 0.6590 0.6318
1241.000000 0.6128 0.5869 0.5526 0.5185 0.4844
1246.000000 0.4504 0.4168 0.3951 0.3838 0.3749
1251.000000 0.3590 0.3333 0.3077 0.2820 0.2271
1256.000000 0.2049 0.1989 0.1982 0.1983 0.1997
1261.000000 0.1953 0.2697 0.3062 0.3426 0.3790
1266.000000 0.4154 0.4516 0.4819 0.4972 0.5122
1271.000000 0.5245 0.5348 0.5427 0.5475 0.5485
1276.000000 0.5483 0.5474 0.5407 0.5334 0.5261
1281.000000 0.5189 0.5116 0.5044 0.4972 0.4900
1286.000000 0.4828 0.4757 0.4685 0.4613 0.4542
1291.000000 0.4473 0.4407 0.4333 0.4239 0.4088
1296.000000 0.3963 0.3736 0.3663 0.3656 0.3685
1301.000000 0.3705 0.3713 0.3712 0.3703 0.3683
1306.000000 0.3629 0.3533 0.3427 0.3288 0.2816
1311.000000 0.2133 0.1955 0.1871 0.1853 0.1845
1316.000000 0.1843 0.1852 0.1980 0.2302 0.2623
1321.000000 0.2944 0.3265 0.3809 0.4027 0.4245
1326.000000 0.4463 0.4680 0.4897 0.5113 0.5299
1331.000000 0.5409 0.5564 0.5706 0.5828 0.5929
1336.000000 0.6350 0.6986 0.7539 0.7689 0.7783
1341.000000 0.7835 0.7886 0.7922 0.7954 0.7981
1346.000000 0.8003 0.8014 0.8014 0.8010 0.8018
1351.000000 0.7919 0.7834 0.7486 0.7112 0.6739
1356.000000 0.6366 0.5993 0.5621 0.5250 0.4879
1361.000000 0.4509 0.4227 0.4183 0.4239 0.4161
1366.000000 0.5108 0.5503 0.5571 0.5581 0.5293
1371.000000 0.4791 0.4290 0.3842 0.3688 0.3583
1376.000000 0.3487 0.3362 0.3227 0.3158 0.3125
1381.000000 0.3110 0.3099 0.3096 0.3347 0.3818
1386.000000 0.4288 0.4759 0.5227 0.5696 0.6163
1391.000000 0.6971 0.7287 0.7411 0.7553 0.7676
1396.000000 0.7740 0.7783 0.7807 0.7832 0.7849
1401.000000 0.7860 0.7864 0.7852 0.7855 0.7841
1406.000000 0.7817 0.7772 0.7720 0.7654 0.7562
1411.000000 0.7488 0.7407 0.7339 0.7268 0.7165
1416.000000 0.6972 0.6779 0.6586 0.6392 0.6200
1421.000000 0.6008 0.5815 0.5624 0.5432 0.5241
1426.000000 0.5050 0.4859 0.4669 0.4495 0.4399
1431.000000 0.4345 0.4292 0.4237 0.4113 0.3858
1436.000000 0.3574 0.3292 0.3009 0.2726 0.2487
1441.000000 0.2467 0.2467 0.2439 0.2551 0.2663
1446.000000 0.2773 0.2846 0.2846 0.2843 0.2837
1451.000000 0.2843 0.2760 0.2691 0.2624 0.2557
1456.000000 0.2489 0.2422 0.2355 0.2288 0.2221
1461.000000 0.2174 0.2172 0.2170 0.2341 0.2441
1466.000000 0.2528 0.2545 0.2541 0.2526 0.2412
1471.000000 0.2578 0.2040 0.1855 0.1670 0.1485
1476.000000 0.1300 0.1154 0.1110 0.1117 0.1121
1481.000000 0.1267 0.1568 0.1873 0.2178 0.2483
1486.000000 0.2787 0.3092 0.3395 0.3693 0.3730
1491.000000 0.3731 0.3731 0.3746 0.3704 0.3610
1496.000000 0.3492 0.3374 0.3257 0.3139 0.3022
1501.000000 0.2905 0.2788 0.2672 0.2570 0.2496
1506.000000 0.2428 0.2339 0.2176 0.1977 0.1777
1511.000000 0.1579 0.1380 0.1217 0.1169 0.1168
1516.000000 0.1170 0.1154 0.1187 0.1204 0.1481
1521.000000 0.2288 0.2558 0.2827 0.3097 0.3365
1526.000000 0.3634 0.3902 0.4170 0.4438 0.4705
1531.000000 0.4972 0.5238 0.5504 0.5770 0.6035
1536.000000 0.6300 0.6670 0.7006 0.7150 0.7273
1541.000000 0.7392 0.7486 0.7550 0.7596 0.7624
1546.000000 0.7648 0.7666 0.7678 0.7689 0.7696
1551.000000 0.7704 0.7717 0.7732 0.7757 0.7751
1556.000000 0.7750 0.7744 0.7733 0.7718 0.7694
1561.000000 0.7660 0.7609 0.7440 0.7167 0.6894
1566.000000 0.6621 0.6348 0.6076 0.5804 0.5532
1571.000000 0.5261 0.4990 0.4720 0.4450 0.4180
1576.000000 0.3910 0.3642 0.3373 0.3104 0.2836
1581.000000 0.2568 0.2494 0.2496 0.2502 0.2653
1586.000000 0.2888 0.2491 0.3380 0.3625 0.3715
1591.000000 0.3719 0.3702 0.3745 0.3275 0.3021
1596.000000 0.2766 0.2512 0.2258 0.2005 0.1752
1601.000000 0.1528 0.1424 0.1424 0.1432 0.1595
1606.000000 0.1410 0.2395 0.2793 0.3191 0.3589
1611.000000 0.3966 0.4246 0.4512 0.4640 0.4734
1616.000000 0.4811 0.4885 0.4983 0.5445 0.5683
1621.000000 0.5864 0.6045 0.6226 0.6406 0.6586
1626.000000 0.6766 0.6946 0.7156 0.7362 0.7520
1631.000000 0.7777 0.7900 0.7958 0.8015 0.8054
1636.000000 0.8082 0.8110 0.8135 0.8158 0.8182
1641.000000 0.8211 0.8252 0.8334 0.8442 0.8506
1646.000000 0.8548 0.8586 0.8608 0.8631 0.8654
1651.000000 0.8677 0.8695 0.8710 0.8723 0.8735
1656.000000 0.8747 0.8759 0.8769 0.8776 0.8784
1661.000000 0.8792 0.8801 0.8809 0.8817 0.8827
1666.000000 0.8837 0.8848 0.8859 0.8870 0.8880
1671.000000 0.8890 0.8906 0.8924 0.8945 0.8965
1676.000000 0.8986 0.9007 0.9029 0.9051 0.9072
1681.000000 0.9096 0.9122 0.9148 0.9174 0.9200
1686.000000 0.9224 0.9243 0.9259 0.9275 0.9290
1691.000000 0.9306 0.9322 0.9336 0.9349 0.9360
1696.000000 0.9372 0.9383 0.9394 0.9406 0.9417
1701.000000 0.9428 0.9437 0.9446 0.9453 0.9462
1706.000000 0.9470 0.9478 0.9486 0.9494 0.9500
1711.000000 0.9506 0.9511 0.9517 0.9520 0.9520
1716.000000 0.9520 0.9520 0.9520 0.9521 0.9521
1721.000000 0.9521 0.9521 0.9520 0.9517 0.9513
1726.000000 0.9509 0.9506 0.9503 0.9499 0.9495
1731.000000 0.9492 0.9488 0.9481 0.9473 0.9463
1736.000000 0.9453 0.9440 0.9429 0.9417 0.9404
1741.000000 0.9393 0.9380 0.9367 0.9355 0.9342
1746.000000 0.9329 0.9316 0.9303 0.9291 0.9279
1751.000000 0.9267 0.9256 0.9253 0.9250 0.9248
1756.000000 0.9246 0.9244 0.9244 0.9247 0.9249
1761.000000 0.9252 0.9259 0.9268 0.9278 0.9290
1766.000000 0.9304 0.9317 0.9328 0.9339 0.9350
1771.000000 0.9360 0.9367 0.9369 0.9372 0.9375
1776.000000 0.9375 0.9370 0.9364 0.9355 0.9345
1781.000000 0.9336 0.9328 0.9321 0.9314 0.9309
1786.000000 0.9307 0.9303 0.9301 0.9299 0.9298
1791.000000 0.9299 0.9300 0.9302 0.9303 0.9306
1796.000000 0.9313 0.9322 0.9331 0.9340 0.9346
1801.000000 0.9351 0.9355 0.9360 0.9364 0.9368
1806.000000 0.9366 0.9362 0.9358 0.9355 0.9347
1811.000000 0.9338 0.9329 0.9321 0.9313 0.9306
1816.000000 0.9298 0.9289 0.9282 0.9276 0.9269
1821.000000 0.9263 0.9257 0.9257 0.9258 0.9258
1826.000000 0.9258 0.9259 0.9260 0.9261 0.9262
1831.000000 0.9266 0.9271 0.9275 0.9280 0.9284
1836.000000 0.9289 0.9293 0.9299 0.9304 0.9310
1841.000000 0.9315 0.9320 0.9325 0.9329 0.9331
1846.000000 0.9329 0.9327 0.9325 0.9323 0.9321
1851.000000 0.9318 0.9316 0.9314 0.9307 0.9299
1856.000000 0.9289 0.9281 0.9271 0.9262 0.9254
1861.000000 0.9234 0.9213 0.9191 0.9170 0.9144
1866.000000 0.9111 0.9068 0.9047 0.9037 0.9035
1871.000000 0.9035 0.9036 0.9038 0.9041 0.9013
1876.000000 0.9056 0.9076 0.9097 0.9114 0.9129
1881.000000 0.9145 0.9157 0.9167 0.9175 0.9182
1886.000000 0.9189 0.9197 0.9205 0.9209 0.9212
1891.000000 0.9212 0.9213 0.9214 0.9215 0.9215
1896.000000 0.9213 0.9210 0.9207 0.9204 0.9202
1901.000000 0.9199 0.9196 0.9192 0.9187 0.9183
1906.000000 0.9178 0.9173 0.9168 0.9164 0.9161
1911.000000 0.9166 0.9175 0.9185 0.9195 0.9207
1916.000000 0.9221 0.9235 0.9251 0.9269 0.9289
1921.000000 0.9303 0.9316 0.9329 0.9341 0.9352
1926.000000 0.9362 0.9371 0.9380 0.9388 0.9397
1931.000000 0.9406 0.9415 0.9425 0.9435 0.9446
1936.000000 0.9456 0.9467 0.9477 0.9486 0.9494
1941.000000 0.9502 0.9509 0.9516 0.9522 0.9530
1946.000000 0.9537 0.9544 0.9551 0.9557 0.9564
1951.000000 0.9570 0.9576 0.9582 0.9588 0.9594
1956.000000 0.9599 0.9605 0.9609 0.9613 0.9616
1961.000000 0.9620 0.9623 0.9625 0.9627 0.9628
1966.000000 0.9629 0.9630 0.9630 0.9631 0.9632
1971.000000 0.9633 0.9634 0.9634 0.9635 0.9634
1976.000000 0.9634 0.9633 0.9632 0.9632 0.9631
1981.000000 0.9631 0.9631 0.9630 0.9630 0.9629
1986.000000 0.9628 0.9628 0.9627 0.9626 0.9626
1991.000000 0.9625 0.9625 0.9625 0.9624 0.9624
1996.000000 0.9623 0.9622 0.9622 0.9622 0.9622
2001.000000 0.9622 0.9623 0.9623 0.9624 0.9625
2006.000000 0.9625 0.9626 0.9626 0.9629 0.9631
2011.000000 0.9634 0.9636 0.9639 0.9641 0.9643
2016.000000 0.9645 0.9648 0.9650 0.9653 0.9654
2021.000000 0.9655 0.9657 0.9659 0.9661 0.9662
2026.000000 0.9664 0.9665 0.9665 0.9665 0.9664
2031.000000 0.9664 0.9664 0.9663 0.9663 0.9662
2036.000000 0.9661 0.9661 0.9661 0.9661 0.9660
2041.000000 0.9659 0.9659 0.9658 0.9658 0.9658
2046.000000 0.9657 0.9657 0.9656 0.9656 0.9656
2051.000000 0.9655 0.9655 0.9654 0.9654 0.9653
2056.000000 0.9653 0.9653 0.9652 0.9652 0.9652
2061.000000 0.9652 0.9651 0.9650 0.9650 0.9650
2066.000000 0.9650 0.9649 0.9649 0.9649 0.9648
2071.000000 0.9648 0.9647 0.9646 0.9645 0.9644
2076.000000 0.9643 0.9642 0.9641 0.9640 0.9639
2081.000000 0.9638 0.9637 0.9636 0.9635 0.9634
2086.000000 0.9632 0.9631 0.9630 0.9629 0.9629
2091.000000 0.9628 0.9627 0.9625 0.9624 0.9623
2096.000000 0.9622 0.9622 0.9621 0.9620 0.9630
2101.000000 0.9617 0.9617 0.9616 0.9615 0.9614
2106.000000 0.9613 0.9612 0.9610 0.9610 0.9609
2111.000000 0.9608 0.9607 0.9606 0.9604 0.9603
2116.000000 0.9600 0.9598 0.9597 0.9595 0.9593
2121.000000 0.9592 0.9590 0.9590 0.9590 0.9590
2126.000000 0.9590 0.9590 0.9589 0.9589 0.9589
2131.000000 0.9589 0.9589 0.9589 0.9589 0.9589
2136.000000 0.9589 0.9589 0.9589 0.9589 0.9589
2141.000000 0.9589 0.9589 0.9590 0.9590 0.9591
2146.000000 0.9593 0.9594 0.9596 0.9598 0.9601
2151.000000 0.9603 0.9606 0.9609 0.9611 0.9614
2156.000000 0.9617 0.9619 0.9622 0.9625 0.9628
2161.000000 0.9631 0.9635 0.9638 0.9641 0.9644
2166.000000 0.9646 0.9648 0.9650 0.9652 0.9654
2171.000000 0.9656 0.9658 0.9661 0.9662 0.9660
2176.000000 0.9657 0.9654 0.9652 0.9650 0.9647
2181.000000 0.9645 0.9642 0.9640 0.9637 0.9634
2186.000000 0.9632 0.9629 0.9628 0.9628 0.9627
2191.000000 0.9627 0.9626 0.9625 0.9625 0.9624
2196.000000 0.9624 0.9623 0.9623 0.9622 0.9622
2201.000000 0.9621 0.9621 0.9620 0.9620 0.9620
2206.000000 0.9620 0.9620 0.9620 0.9620 0.9620
2211.000000 0.9621 0.9621 0.9621 0.9621 0.9621
2216.000000 0.9621 0.9622 0.9623 0.9628 0.9634
2221.000000 0.9640 0.9646 0.9652 0.9658 0.9665
2226.000000 0.9671 0.9678 0.9684 0.9691 0.9698
2231.000000 0.9706 0.9713 0.9721 0.9728 0.9735
2236.000000 0.9742 0.9733 0.9723 0.9714 0.9706
2241.000000 0.9699 0.9693 0.9687 0.9681 0.9676
2246.000000 0.9670 0.9663 0.9657 0.9651 0.9645
2251.000000 0.9639 0.9633 0.9627 0.9621 0.9616
2256.000000 0.9610 0.9604 0.9599 0.9594 0.9589
2261.000000 0.9585 0.9581 0.9577 0.9573 0.9569
2266.000000 0.9567 0.9565 0.9564 0.9563 0.9562
2271.000000 0.9561 0.9561 0.9561 0.9565 0.9569
2276.000000 0.9577 0.9585 0.9592 0.9600 0.9609
2281.000000 0.9618 0.9629 0.9639 0.9649 0.9659
2286.000000 0.9665 0.9670 0.9675 0.9680 0.9685
2291.000000 0.9690 0.9694 0.9696 0.9698 0.9700
2296.000000 0.9701 0.9702 0.9703 0.9703 0.9703
2301.000000 0.9702 0.9702 0.9701 0.9700 0.9699
2306.000000 0.9698 0.9696 0.9695 0.9695 0.9696
2311.000000 0.9697 0.9698 0.9699 0.9700 0.9701
2316.000000 0.9703 0.9705 0.9710 0.9715 0.9720
2321.000000 0.9726 0.9731 0.9735 0.9739 0.9742
2326.000000 0.9746 0.9750 0.9754 0.9758 0.9762
2331.000000 0.9766 0.9770 0.9774 0.9778 0.9780
2336.000000 0.9781 0.9782 0.9782 0.9782 0.9782
2341.000000 0.9781 0.9780 0.9780 0.9777 0.9775
2346.000000 0.9773 0.9770 0.9768 0.9766 0.9764
2351.000000 0.9762 0.9760 0.9758 0.9756 0.9752
2356.000000 0.9748 0.9745 0.9740 0.9737 0.9733
2361.000000 0.9729 0.9725 0.9721 0.9717 0.9713
2366.000000 0.9709 0.9705 0.9700 0.9693 0.9686
2371.000000 0.9680 0.9673 0.9666 0.9659 0.9652
2376.000000 0.9645 0.9635 0.9624 0.9613 0.9603
2381.000000 0.9592 0.9580 0.9568 0.9551 0.9533
2386.000000 0.9522 0.9520 0.9518 0.9516 0.9514
2391.000000 0.9511 0.9508 0.9506 0.9504 0.9502
2396.000000 0.9500 0.9497 0.9494 0.9491 0.9489
2401.000000 0.9486 0.9483 0.9480 0.9477 0.9475
2406.000000 0.9472 0.9469 0.9467 0.9464 0.9462
2411.000000 0.9459 0.9459 0.9459 0.9460 0.9462
2416.000000 0.9463 0.9464 0.9466 0.9468 0.9469
2421.000000 0.9471 0.9473 0.9476 0.9481 0.9485
2426.000000 0.9489 0.9494 0.9498 0.9503 0.9507
2431.000000 0.9510 0.9513 0.9515 0.9518 0.9521
2436.000000 0.9524 0.9526 0.9529 0.9531 0.9534
2441.000000 0.9537 0.9540 0.9542 0.9544 0.9544
2446.000000 0.9544 0.9545 0.9545 0.9545 0.9545
2451.000000 0.9545 0.9545 0.9545 0.9545 0.9545
2456.000000 0.9544 0.9543 0.9541 0.9539 0.9538
2461.000000 0.9536 0.9535 0.9534 0.9532 0.9530
2466.000000 0.9529 0.9527 0.9525 0.9524 0.9522
2471.000000 0.9519 0.9515 0.9512 0.9508 0.9504
2476.000000 0.9501 0.9497 0.9494 0.9490 0.9487
2481.000000 0.9484 0.9481 0.9480 0.9481 0.9482
2486.000000 0.9490 0.9498 0.9507 0.9516 0.9526
2491.000000 0.9536 0.9545 0.9555 0.9564 0.9572
2496.000000 0.9582 0.9591 0.9600 0.9609 0.9618
2501.000000 0.9619 0.9621 0.9619 0.9613 0.9608
2506.000000 0.9602 0.9596 0.9590 0.9584 0.9579
2511.000000 0.9573 0.9567 0.9561 0.9556 0.9550
2516.000000 0.9544 0.9538 0.9533 0.9527 0.9522
2521.000000 0.9517 0.9512 0.9507 0.9501 0.9496
2526.000000 0.9490 0.9484 0.9478 0.9472 0.9465
2531.000000 0.9459 0.9452 0.9446 0.9439 0.9433
2536.000000 0.9426 0.9420 0.9414 0.9407 0.9400
2541.000000 0.9393 0.9387 0.9380 0.9373 0.9366
2546.000000 0.9359 0.9351 0.9344 0.9335 0.9325
2551.000000 0.9315 0.9304 0.9294 0.9284 0.9273
2556.000000 0.9263 0.9251 0.9239 0.9227 0.9215
2561.000000 0.9202 0.9192 0.9182 0.9172 0.9166
2566.000000 0.9160 0.9155 0.9152 0.9149 0.9149
2571.000000 0.9150 0.9150 0.9151 0.9152 0.9153
2576.000000 0.9154 0.9154 0.9155 0.9156 0.9157
2581.000000 0.9159 0.9161 0.9163 0.9166 0.9169
2586.000000 0.9171 0.9174 0.9177 0.9179 0.9182
2591.000000 0.9184 0.9187 0.9190 0.9192 0.9195
2596.000000 0.9197 0.9200 0.9203 0.9205 0.9208
2601.000000 0.9210 0.9213 0.9215 0.9218 0.9221
2606.000000 0.9223 0.9226 0.9229 0.9233 0.9236
2611.000000 0.9240 0.9243 0.9247 0.9251 0.9254
2616.000000 0.9258 0.9262 0.9265 0.9269 0.9273
2621.000000 0.9276 0.9281 0.9285 0.9290 0.9294
2626.000000 0.9298 0.9303 0.9308 0.9312 0.9317
2631.000000 0.9321 0.9325 0.9329 0.9332 0.9336
2636.000000 0.9339 0.9343 0.9347 0.9350 0.9354
2641.000000 0.9357 0.9361 0.9364 0.9366 0.9368
2646.000000 0.9369 0.9371 0.9373 0.9374 0.9376
2651.000000 0.9377 0.9379 0.9380 0.9382 0.9383
2656.000000 0.9384 0.9386 0.9387 0.9388 0.9389
2661.000000 0.9389 0.9389 0.9389 0.9389 0.9389
2666.000000 0.9389 0.9389 0.9389 0.9390 0.9390
2671.000000 0.9389 0.9388 0.9387 0.9385 0.9383
2676.000000 0.9382 0.9380 0.9378 0.9376 0.9374
2681.000000 0.9372 0.9370 0.9368 0.9367 0.9365
2686.000000 0.9363 0.9362 0.9360 0.9355 0.9349
2691.000000 0.9344 0.9337 0.9329 0.9322 0.9315
2696.000000 0.9308 0.9300 0.9291 0.9281 0.9271
2701.000000 0.9260 0.9248 0.9237 0.9226 0.9215
2706.000000 0.9202 0.9183 0.9165 0.9146 0.9128
2711.000000 0.9110 0.9092 0.9075 0.9059 0.9042
2716.000000 0.9026 0.9009 0.8992 0.8975 0.8958
2721.000000 0.8943 0.8928 0.8913 0.8904 0.8898
2726.000000 0.8892 0.8890 0.8890 0.8890 0.8889
2731.000000 0.8889 0.8889 0.8898 0.8910 0.8922
2736.000000 0.8933 0.8945 0.8956 0.8966 0.8976
2741.000000 0.8986 0.8994 0.9001 0.9008 0.9018
2746.000000 0.9029 0.9041 0.9050 0.9059 0.9067
2751.000000 0.9073 0.9077 0.9081 0.9083 0.9083
2756.000000 0.9083 0.9082 0.9081 0.9079 0.9077
2761.000000 0.9074 0.9072 0.9069 0.9066 0.9064
2766.000000 0.9061 0.9059 0.9056 0.9053 0.9049
2771.000000 0.9045 0.9041 0.9036 0.9031 0.9026
2776.000000 0.9021 0.9016 0.9010 0.9004 0.8999
2781.000000 0.8993 0.8987 0.8982 0.8976 0.8969
2786.000000 0.8963 0.8956 0.8944 0.8932 0.8920
2791.000000 0.8906 0.8891 0.8877 0.8855 0.8829
2796.000000 0.8804 0.8779 0.8755 0.8731 0.8708
2801.000000 0.8686 0.8664 0.8639 0.8606 0.8572
2806.000000 0.8538 0.8499 0.8461 0.8422 0.8392
2811.000000 0.8361 0.8331 0.8307 0.8284 0.8261
2816.000000 0.8239 0.8218 0.8198 0.8177 0.8156
2821.000000 0.8135 0.8114 0.8089 0.8065 0.8039
2826.000000 0.8000 0.7961 0.7922 0.7814 0.7703
2831.000000 0.7591 0.7480 0.7369 0.7258 0.7147
2836.000000 0.7036 0.6925 0.6815 0.6704 0.6593
2841.000000 0.6482 0.6372 0.6262 0.6152 0.6042
2846.000000 0.5932 0.5821 0.5712 0.5602 0.5492
2851.000000 0.5383 0.5273 0.5163 0.5054 0.4944
2856.000000 0.4835 0.4726 0.4617 0.4508 0.4398
2861.000000 0.4318 0.4259 0.4199 0.4150 0.4123
2866.000000 0.4097 0.4070 0.4046 0.4021 0.3997
2871.000000 0.3948 0.3891 0.3834 0.3794 0.3778
2876.000000 0.3762 0.3746 0.3730 0.3714 0.3698
2881.000000 0.3683 0.3667 0.3651 0.3639 0.3629
2886.000000 0.3619 0.3609 0.3599 0.3588 0.3578
2891.000000 0.3570 0.3562 0.3555 0.3547 0.3539
2896.000000 0.3531 0.3523 0.3515 0.3507 0.3498
2901.000000 0.3489 0.3479 0.3469 0.3456 0.3441
2906.000000 0.3426 0.3410 0.3392 0.3373 0.3355
2911.000000 0.3287 0.3190 0.3093 0.2998 0.2909
2916.000000 0.2821 0.2733 0.2698 0.2673 0.2648
2921.000000 0.2622 0.2597 0.2572 0.2547 0.2524
2926.000000 0.2501 0.2478 0.2464 0.2456 0.2449
2931.000000 0.2442 0.2439 0.2436 0.2432 0.2429
2936.000000 0.2425 0.2422 0.2419 0.2415 0.2412
2941.000000 0.2408 0.2405 0.2402 0.2399 0.2394
2946.000000 0.2388 0.2382 0.2376 0.2341 0.2302
2951.000000 0.2263 0.2219 0.2169 0.2118 0.2068
2956.000000 0.2017 0.1967 0.1917 0.1866 0.1816
2961.000000 0.1766 0.1716 0.1666 0.1616 0.1565
2966.000000 0.1381 0.1468 0.1420 0.1372 0.1367
2971.000000 0.1367 0.1367 0.1367 0.1367 0.1368
2976.000000 0.1368 0.1443 0.1535 0.1627 0.1726
2981.000000 0.1848 0.1969 0.2090 0.2211 0.2332
2986.000000 0.2453 0.2574 0.2694 0.2815 0.2936
2991.000000 0.3056 0.3176 0.3297 0.3417 0.3537
2996.000000 0.3657 0.3777 0.3897 0.4017 0.4136
3001.000000 0.4256 0.4375 0.4495 0.4614 0.4733
3006.000000 0.4853 0.4972 0.5091 0.5210 0.5329
3011.000000 0.5448 0.5567 0.5647 0.5725 0.5802
3016.000000 0.5859 0.5871 0.5884 0.5896 0.5906
3021.000000 0.5916 0.5927 0.5937 0.5947 0.5957
3026.000000 0.5967 0.5977 0.5985 0.5993 0.6002
3031.000000 0.6009 0.6015 0.6021 0.6027 0.6033
3036.000000 0.6039 0.6045 0.6051 0.6057 0.6063
3041.000000 0.6069 0.6075 0.6081 0.6086 0.6092
3046.000000 0.6098 0.6104 0.6110 0.6118 0.6135
3051.000000 0.6151 0.6168 0.6273 0.6468 0.6663
3056.000000 0.6858 0.6945 0.6999 0.7053 0.7106
3061.000000 0.7145 0.7184 0.7222 0.7257 0.7281
3066.000000 0.7304 0.7328 0.7350 0.7371 0.7392
3071.000000 0.7413 0.7431 0.7447 0.7464 0.7480
3076.000000 0.7489 0.7498 0.7507 0.7516 0.7524
3081.000000 0.7532 0.7540 0.7555 0.7579 0.7604
3086.000000 0.7628 0.7662 0.7703 0.7743 0.7784
3091.000000 0.7825 0.7865 0.7906 0.7946 0.7987
3096.000000 0.8027 0.8067 0.8108 0.8148 0.8188
3101.000000 0.8229 0.8269 0.8309 0.8349 0.8389
3106.000000 0.8429 0.8469 0.8509 0.8549 0.8589
3111.000000 0.8629 0.8669 0.8709 0.8749 0.8789
3116.000000 0.8829 0.8869 0.8886 0.8897 0.8908
3121.000000 0.8918 0.8924 0.8929 0.8934 0.8940
3126.000000 0.8943 0.8947 0.8950 0.8954 0.8957
3131.000000 0.8960 0.8964 0.8967 0.8968 0.8969
3136.000000 0.8971 0.8972 0.8973 0.8975 0.8976
3141.000000 0.8978 0.8979 0.8980 0.8982 0.8983
3146.000000 0.8984 0.8985 0.8987 0.8988 0.8989
3151.000000 0.8990 0.8991 0.8992 0.8993 0.8994
3156.000000 0.8995 0.8996 0.8997 0.8998 0.8999
3161.000000 0.9000 0.9001 0.9003 0.9004 0.9005
3166.000000 0.9006 0.9007 0.9008 0.9009 0.9011
3171.000000 0.9012 0.9014 0.9016 0.9020 0.9024
3176.000000 0.9028 0.9032 0.9036 0.9040 0.9044
3181.000000 0.9048 0.9053 0.9057 0.9062 0.9068
3186.000000 0.9078 0.9088 0.9098 0.9108 0.9118
3191.000000 0.9128 0.9138 0.9148 0.9157 0.9167
3196.000000 0.9176 0.9185 0.9194 0.9202 0.9211
3201.000000 0.9219 0.9223 0.9227 0.9231 0.9235
3206.000000 0.9239 0.9242 0.9246 0.9250 0.9253
3211.000000 0.9256 0.9259 0.9261 0.9264 0.9266
3216.000000 0.9268 0.9270 0.9271 0.9273 0.9275
3221.000000 0.9277 0.9279 0.9280 0.9281 0.9283
3226.000000 0.9284 0.9284 0.9285 0.9285 0.9286
3231.000000 0.9286 0.9286 0.9286 0.9286 0.9248
3236.000000 0.9287 0.9287 0.9287 0.9286 0.9285
3241.000000 0.9283 0.9282 0.9281 0.9280 0.9279
3246.000000 0.9277 0.9276 0.9275 0.9274 0.9273
3251.000000 0.9271 0.9270 0.9269 0.9268 0.9267
3256.000000 0.9266 0.9264 0.9263 0.9262 0.9261
3261.000000 0.9259 0.9257 0.9256 0.9254 0.9251
3266.000000 0.9248 0.9244 0.9241 0.9238 0.9235
3271.000000 0.9232 0.9228 0.9225 0.9222 0.9219
3276.000000 0.9216 0.9212 0.9207 0.9202 0.9198
3281.000000 0.9193 0.9187 0.9181 0.9176 0.9170
3286.000000 0.9165 0.9159 0.9154 0.9148 0.9142
3291.000000 0.9136 0.9130 0.9124 0.9118 0.9108
3296.000000 0.9098 0.9088 0.9078 0.9068 0.9058
3301.000000 0.9048 0.9039 0.9029 0.9019 0.9009
3306.000000 0.8999 0.8989 0.8979 0.8970 0.8960
3311.000000 0.8950 0.8940 0.8930 0.8920 0.8910
3316.000000 0.8900 0.8888 0.8877 0.8865 0.8854
3321.000000 0.8843 0.8831 0.8820 0.8809 0.8797
3326.000000 0.8786 0.8775 0.8764 0.8752 0.8742
3331.000000 0.8731 0.8720 0.8709 0.8699 0.8688
3336.000000 0.8678 0.8668 0.8657 0.8647 0.8637
3341.000000 0.8626 0.8616 0.8606 0.8595 0.8585
3346.000000 0.8575 0.8565 0.8554 0.8544 0.8534
3351.000000 0.8524 0.8514 0.8504 0.8494 0.8484
3356.000000 0.8474 0.8464 0.8454 0.8444 0.8434
3361.000000 0.8424 0.8413 0.8403 0.8393 0.8383
3366.000000 0.8373 0.8363 0.8353 0.8343 0.8332
3371.000000 0.8321 0.8309 0.8298 0.8286 0.8272
3376.000000 0.8257 0.8243 0.8229 0.8215 0.8200
3381.000000 0.8186 0.8172 0.8157 0.8124 0.8091
3386.000000 0.8058 0.8025 0.7990 0.7952 0.7914
3391.000000 0.7876 0.7838 0.7801 0.7763 0.7725
3396.000000 0.7687 0.7650 0.7612 0.7574 0.7537
3401.000000 0.7499 0.7461 0.7424 0.7386 0.7349
3406.000000 0.7311 0.7274 0.7236 0.7199 0.7162
3411.000000 0.7124 0.7087 0.7049 0.7012 0.6975
3416.000000 0.6952 0.6935 0.6918 0.6901 0.6903
3421.000000 0.6885 0.6886 0.6886 0.6887 0.6888
3426.000000 0.6889 0.6889 0.6890 0.6891 0.6921
3431.000000 0.6967 0.7012 0.7058 0.7103 0.7159
3436.000000 0.7214 0.7270 0.7326 0.7381 0.7437
3441.000000 0.7493 0.7548 0.7604 0.7660 0.7715
3446.000000 0.7770 0.7826 0.7881 0.7939 0.7999
3451.000000 0.8058 0.8117 0.8176 0.8201 0.8224
3456.000000 0.8247 0.8270 0.8291 0.8305 0.8320
3461.000000 0.8334 0.8348 0.8362 0.8375 0.8388
3466.000000 0.8402 0.8415 0.8431 0.8450 0.8468
3471.000000 0.8487 0.8505 0.8526 0.8546 0.8567
3476.000000 0.8588 0.8608 0.8625 0.8641 0.8657
3481.000000 0.8673 0.8689 0.8704 0.8719 0.8734
3486.000000 0.8749 0.8764 0.8778 0.8792 0.8806
3491.000000 0.8820 0.8834 0.8847 0.8860 0.8873
3496.000000 0.8887 0.8900 0.8913 0.8927 0.8940
3501.000000 0.8953 0.8966 0.8978 0.8990 0.9002
3506.000000 0.9015 0.9027 0.9039 0.9051 0.9063
3511.000000 0.9076 0.9083 0.9089 0.9095 0.9101
3516.000000 0.9107 0.9113 0.9119 0.9125 0.9131
3521.000000 0.9137 0.9141 0.9145 0.9149 0.9153
3526.000000 0.9157 0.9160 0.9162 0.9165 0.9167
3531.000000 0.9169 0.9172 0.9174 0.9177 0.9179
3536.000000 0.9181 0.9184 0.9186 0.9189 0.9191
3541.000000 0.9193 0.9196 0.9198 0.9200 0.9203
3546.000000 0.9205 0.9207 0.9210 0.9212 0.9214
3551.000000 0.9216 0.9219 0.9221 0.9223 0.9226
3556.000000 0.9228 0.9229 0.9230 0.9231 0.9232
3561.000000 0.9233 0.9234 0.9235 0.9236 0.9236
3566.000000 0.9237 0.9238 0.9239 0.9240 0.9240
3571.000000 0.9241 0.9242 0.9243 0.9244 0.9244
3576.000000 0.9245 0.9246 0.9247 0.9247 0.9248
3581.000000 0.9249 0.9250 0.9251 0.9251 0.9252
3586.000000 0.9253 0.9254 0.9254 0.9255 0.9256
3591.000000 0.9257 0.9258 0.9258 0.9259 0.9260
3596.000000 0.9261 0.9261 0.9262 0.9263 0.9264
3601.000000 0.9264 0.9265 0.9266 0.9267 0.9268
3606.000000 0.9268 0.9269 0.9270 0.9270 0.9271
3611.000000 0.9272 0.9272 0.9273 0.9273 0.9274
3616.000000 0.9275 0.9276 0.9277 0.9277 0.9278
3621.000000 0.9279 0.9280 0.9280 0.9281 0.9282
3626.000000 0.9282 0.9283 0.9283 0.9284 0.9285
3631.000000 0.9285 0.9286 0.9287 0.9288 0.9288
3636.000000 0.9289 0.9290 0.9291 0.9291 0.9292
3641.000000 0.9293 0.9293 0.9294 0.9294 0.9295
3646.000000 0.9295 0.9296 0.9296 0.9296 0.9297
3651.000000 0.9297 0.9297 0.9297 0.9297 0.9286
3656.000000 0.9297 0.9297 0.9297 0.9297 0.9297
3661.000000 0.9297 0.9297 0.9297 0.9297 0.9297
3666.000000 0.9298 0.9298 0.9298 0.9298 0.9298
3671.000000 0.9298 0.9298 0.9298 0.9298 0.9298
3676.000000 0.9298 0.9298 0.9298 0.9298 0.9298
3681.000000 0.9298 0.9298 0.9298 0.9298 0.9298
3686.000000 0.9298 0.9298 0.9298 0.9298 0.9298
3691.000000 0.9298 0.9298 0.9297 0.9297 0.9296
3696.000000 0.9296 0.9295 0.9295 0.9294 0.9294
3701.000000 0.9293 0.9293 0.9293 0.9292 0.9292
3706.000000 0.9292 0.9291 0.9291 0.9291 0.9290
3711.000000 0.9290 0.9289 0.9288 0.9288 0.9287
3716.000000 0.9287 0.9287 0.9286 0.9286 0.9286
3721.000000 0.9285 0.9285 0.9284 0.9283 0.9283
3726.000000 0.9282 0.9282 0.9282 0.9281 0.9281
3731.000000 0.9281 0.9280 0.9279 0.9279 0.9278
3736.000000 0.9277 0.9276 0.9276 0.9275 0.9274
3741.000000 0.9273 0.9272 0.9271 0.9270 0.9269
3746.000000 0.9268 0.9268 0.9267 0.9266 0.9265
3751.000000 0.9264 0.9263 0.9262 0.9261 0.9260
3756.000000 0.9260 0.9259 0.9258 0.9257 0.9256
3761.000000 0.9255 0.9254 0.9253 0.9252 0.9252
3766.000000 0.9251 0.9250 0.9249 0.9248 0.9247
3771.000000 0.9246 0.9245 0.9245 0.9244 0.9243
3776.000000 0.9242 0.9241 0.9240 0.9239 0.9238
3781.000000 0.9238 0.9237 0.9236 0.9235 0.9234
3786.000000 0.9233 0.9232 0.9231 0.9230 0.9229
3791.000000 0.9228 0.9227 0.9226 0.9225 0.9222
3796.000000 0.9219 0.9217 0.9214 0.9212 0.9209
3801.000000 0.9206 0.9203 0.9201 0.9198 0.9195
3806.000000 0.9192 0.9190 0.9187 0.9185 0.9182
3811.000000 0.9179 0.9177 0.9175 0.9173 0.9171
3816.000000 0.9168 0.9166 0.9164 0.9162 0.9160
3821.000000 0.9158 0.9156 0.9154 0.9152 0.9150
3826.000000 0.9148 0.9146 0.9144 0.9142 0.9140
3831.000000 0.9138 0.9136 0.9134 0.9132 0.9130
3836.000000 0.9128 0.9127 0.9125 0.9123 0.9121
3841.000000 0.9119 0.9117 0.9115 0.9113 0.9111
3846.000000 0.9109 0.9107 0.9105 0.9103 0.9101
3851.000000 0.9100 0.9098 0.9096 0.9094 0.9092
3856.000000 0.9090 0.9088 0.9086 0.9084 0.9082
3861.000000 0.9080 0.9078 0.9076 0.9074 0.9072
3866.000000 0.9070 0.9068 0.9066 0.9064 0.9062
3871.000000 0.9061 0.9060 0.9058 0.9057 0.9056
3876.000000 0.9054 0.9054 0.9053 0.9052 0.9052
3881.000000 0.9051 0.9050 0.9050 0.9049 0.9048
3886.000000 0.9047 0.9046 0.9046 0.9045 0.9044
3891.000000 0.9044 0.9043 0.9042 0.9042 0.9041
3896.000000 0.9040 0.9039 0.9038 0.9037 0.9037
3901.000000 0.9036 0.9035 0.9035 0.9034 0.9033
3906.000000 0.9033 0.9032 0.9031 0.9031 0.9030
3911.000000 0.9029 0.9029 0.9028 0.9027 0.9026
3916.000000 0.9026 0.9025 0.9024 0.9023 0.9023
3921.000000 0.9022 0.9021 0.9021 0.9020 0.9019
3926.000000 0.9018 0.9018 0.9017 0.9016 0.9015
3931.000000 0.9014 0.9014 0.9013 0.9012 0.9012
3936.000000 0.9011 0.9011 0.9010 0.9009 0.9008
3941.000000 0.9007 0.9006 0.9006 0.9005 0.9004
3946.000000 0.9004 0.9003 0.9002 0.9002 0.9001
3951.000000 0.9001 0.9000 0.8999 0.8999 0.8998
3956.000000 0.8997 0.8996 0.8996 0.8995 0.8994
3961.000000 0.8993 0.8992 0.8992 0.8991 0.8991
3966.000000 0.8990 0.8989 0.8989 0.8988 0.8987
3971.000000 0.8987 0.8986 0.8985 0.8985 0.8984
3976.000000 0.8984 0.8983 0.8982 0.8982 0.8981
3981.000000 0.8980 0.8980 0.8979 0.8979 0.8978
3986.000000 0.8977 0.8977 0.8976 0.8975 0.8975
3991.000000 0.8974 0.8974 0.8973 0.8972 0.8972
3996.000000 0.8971 0.8970 0.8970 0.8969 0.8969
##END=
