##TITLE=SALICYL-3,4,5,6-d4-ALDEHYDE-d
##JCAMP-DX=4.24
##DATA TYPE=INFRARED SPECTRUM
##CLASS=COBLENTZ III
##ORIGIN=WESTERN REGIONAL RES. USDA
##OWNER=COBLENTZ SOCIETY
Collection (C) 2018 copyright by the U.S. Secretary of Commerce
on behalf of the United States of America. All rights reserved.
##DATE=1966/12/13
##NAMES=salicylaldehyde
##MOLFORM=C7 H D5 O2
##SOURCE REFERENCE=COBLENTZ NO. 7275
##$NIST ID=B6007275
##$NIST SOURCE=COBLENTZ
##$NIST IMAGE=cob7275
##SPECTROMETER/DATA SYSTEM=CARY 90 (GRATING)
##INSTRUMENT PARAMETERS=GRATING CHANGES AT 3000, 2000, 1200 CM^-^1
##STATE=SOLUTION (10% IN CCl4 FOR 4000-1270 CM^-^1, 10% IN CS2 FOR 1270-460 CM^-^1) VS. SOLVENT
##PATH LENGTH=0.010 CM, 0.010 CM
##SAMPLING PROCEDURE=TRANSMISSION
##RESOLUTION=4
##DATA PROCESSING=DIGITIZED BY NIST FROM HARD COPY (FROM TWO SEGMENTS)
##XUNITS=1/CM
##YUNITS=TRANSMITTANCE
##XFACTOR=1.000000
##YFACTOR=1
##DELTAX=0.929945
##FIRSTX=453.503
##LASTX=4002.17
##FIRSTY=0.949
##MAXX=4002.17
##MINX=453.503
##MAXY=1.147
##MINY=0
##NPOINTS=3817
##XYDATA=(X++(Y..Y))
453.503000 0.9490 0.9460 0.9450 0.9420 0.9390
458.152725 0.6658 0.6271 0.5832 0.5362 0.4883
462.802450 0.4410 0.3940 0.3940 0.4859 0.6217
467.452175 0.7437 0.7450 0.8257 0.9066 0.9597
472.101900 1.0220 1.0430 1.0600 1.0740 1.0860
476.751625 1.0950 1.1030 1.1120 1.1210 1.1329
481.401350 1.1460 1.1460 1.1470 1.1470 1.1470
486.051074 1.1470 1.1470 1.1470 1.1460 1.1440
490.700799 1.1430 1.1420 1.1400 1.1380 1.1350
495.350524 1.1340 1.1310 1.1300 1.1250 1.1180
500.000249 1.1120 1.1070 1.1010 1.0970 1.0920
504.649974 1.0870 1.0820 1.0770 1.0710 1.0670
509.299699 1.0620 1.0570 1.0520 1.0460 1.0410
513.949424 1.0370 1.0350 1.0131 1.0030 0.9940
518.599149 0.9890 0.9840 0.9760 0.9421 0.9200
523.248874 0.9060 0.8950 0.8821 0.8621 0.8312
527.898599 0.8050 0.7950 0.7790 0.7630 0.7331
532.548324 0.7310 0.7290 0.7310 0.7410 0.7529
537.198049 0.7630 0.7670 0.7740 0.7750 0.7760
541.847774 0.7740 0.7581 0.7460 0.7211 0.6941
546.497499 0.6670 0.6640 0.6350 0.6350 0.7278
551.147223 0.7679 1.0023 1.0319 1.0649 1.0700
555.796948 1.0790 1.0960 1.1080 1.1200 1.1210
560.446673 1.1210 1.1170 1.1130 1.1011 1.0821
565.096398 1.0610 1.0390 1.0150 1.0030 0.9900
569.746123 0.9631 0.9341 0.9031 0.8691 0.7576
574.395848 0.7230 0.6630 0.5631 0.4802 0.4092
579.045573 0.3482 0.2932 0.2382 0.1743 0.1014
583.695298 0.0670 0.0320 0.0230 0.1209 0.2188
588.345023 0.2330 0.4523 0.6602 0.7078 0.7458
592.994748 0.7780 0.8050 0.8320 0.8600 0.8919
597.644473 0.9329 1.0427 1.0490 1.0560 1.0610
602.294198 1.0710 1.0790 1.0860 1.0870 1.0870
606.943923 1.0870 1.0870 1.0870 1.0840 1.0820
611.593648 1.0790 1.0740 1.0670 1.0570 1.0440
616.243372 1.0280 1.0071 0.9960 0.9831 0.9541
620.893097 0.9190 0.8790 0.8340 0.7811 0.7231
625.542822 0.6562 0.5823 0.5003 0.3995 0.3513
630.192547 0.2790 0.2070 0.1350 0.1000 0.0631
634.842272 0.1179 0.1728 0.2437 0.3655 0.4795
639.491997 0.6160 0.7099 0.7709 0.8079 0.8280
644.141722 0.8420 0.8550 0.8769 0.8939 0.9079
648.791447 0.9220 0.9340 0.9450 0.9540 0.9630
653.441172 0.9710 0.9770 0.9840 0.9890 0.9930
658.090897 1.0020 1.0060 1.0100 1.0140 1.0160
662.740622 1.0190 1.0200 1.0190 1.0150 1.0060
667.390347 1.0010 0.9960 0.9860 0.9800 0.9690
672.040072 0.9670 0.9660 0.9670 0.9670 0.9680
676.689797 0.9680 0.9670 0.9470 0.9360 0.9220
681.339521 0.9080 0.8940 0.8791 0.8641 0.8471
685.989246 0.8280 0.8100 0.7890 0.7660 0.7411
690.638971 0.7330 0.7151 0.6871 0.6542 0.6142
695.288696 0.5690 0.5190 0.4670 0.4121 0.3561
699.938421 0.3001 0.2452 0.1912 0.1422 0.1181
704.588146 0.0950 0.0530 0.0450 0.0450 0.1418
709.237871 0.1909 0.2079 0.2249 0.2399 0.2410
713.887596 0.2400 0.2340 0.2280 0.2210 0.2140
718.537321 0.2070 0.2010 0.1970 0.1900 0.1890
723.187046 0.1900 0.1910 0.2010 0.2080 0.2180
727.836771 0.2290 0.2370 0.2410 0.2500 0.2629
732.486496 0.2760 0.2920 0.3220 0.3510 0.3789
737.136221 0.4079 0.4369 0.4639 0.4919 0.5189
741.785946 0.5450 0.5710 0.5970 0.6220 0.6469
746.435670 0.6709 0.6929 0.7149 0.7359 0.7569
751.085395 0.7760 0.7950 0.8120 0.8280 0.8440
755.735120 0.8570 0.8700 0.8820 0.8890 0.8900
760.384845 0.8890 0.8790 0.8650 0.8530 0.8121
765.034570 0.7501 0.6862 0.6222 0.5582 0.5580
769.684295 0.5900 0.7250 0.8359 0.9159 0.9469
774.334020 0.9729 1.0089 1.0200 1.0300 1.0360
778.983745 1.0410 1.0440 1.0480 1.0500 1.0540
783.633470 1.0580 1.0600 1.0600 1.0610 1.0610
788.283195 1.0580 1.0430 1.0400 1.0300 1.0150
792.932920 1.0060 0.9970 0.9681 0.9292 0.8753
797.582645 0.8059 0.7160 0.6031 0.5181 0.4242
802.232370 0.3322 0.2383 0.1782 0.1800 0.2099
806.882095 0.2290 0.4379 0.5748 0.6668 0.7239
811.531819 0.7539 0.7670 0.7740 0.7800 0.7969
816.181544 0.8340 0.8990 0.9040 0.9040 0.9020
820.831269 0.8152 0.7921 0.6226 0.5533 0.4505
825.480994 0.3959 0.3420 0.3420 0.4469 0.6937
830.130719 0.8317 0.9298 1.0097 1.0399 1.0410
834.780444 1.0410 1.0400 1.0370 1.0350 1.0300
839.430169 1.0240 1.0220 1.0190 1.0160 1.0110
844.079894 1.0030 0.9940 0.9770 0.9630 0.9430
848.729619 0.9240 0.9041 0.8851 0.8850 0.9208
853.379344 0.9880 0.9920 1.0010 1.0030 1.0140
858.029069 1.0310 1.0320 1.0280 1.0260 1.0190
862.678794 1.0130 1.0010 0.9960 0.9890 0.9081
867.328519 0.8661 0.8211 0.7682 0.7292 0.7270
871.978244 0.7970 0.8620 0.9249 0.9290 0.9240
876.627968 0.9070 0.8911 0.7844 0.7283 0.7280
881.277693 0.7680 0.8090 0.8730 0.9559 0.9580
885.927418 0.9999 1.0160 1.0270 1.0499 1.0619
890.577143 1.0710 1.0820 1.0900 1.0960 1.1030
895.226868 1.1070 1.1080 1.1080 1.1100 1.1120
899.876593 1.1140 1.1160 1.1160 1.1140 1.1130
904.526318 1.1100 1.1090 1.1070 1.1070 1.1030
909.176043 1.0960 1.0900 1.0820 1.0770 1.0710
913.825768 1.0670 1.0620 1.0600 1.0570 1.0560
918.475493 1.0540 1.0540 1.0530 1.0530 1.0500
923.125218 1.0490 1.0430 1.0330 1.0230 1.0101
927.774943 1.0050 0.9980 0.9850 0.9720 0.9620
932.424668 0.9510 0.9430 0.9320 0.9220 0.9200
937.074393 0.9130 0.9090 0.9000 0.8900 0.8700
941.724117 0.8471 0.8121 0.7532 0.6893 0.6462
946.373842 0.5990 0.5530 0.5060 0.4590 0.4590
951.023567 0.4670 0.4929 0.5259 0.5599 0.5919
955.673292 0.6130 0.6760 0.7339 0.7759 0.8099
960.323017 0.8379 0.8599 0.8779 0.8939 0.9059
964.972742 0.9160 0.9240 0.9330 0.9410 0.9500
969.622467 0.9620 0.9760 1.0069 1.0090 1.0090
974.272192 1.0090 1.0060 1.0030 1.0010 1.0010
978.921917 1.0000 1.0000 0.9980 0.9980 0.9980
983.571642 0.9980 0.9970 0.9970 0.9970 0.9970
988.221367 0.9960 0.9960 0.9960 0.9940 0.9920
992.871092 0.9890 0.9830 0.9730 0.9620 0.9470
997.520817 0.9320 0.9160 0.8981 0.8811 0.8641
1002.170542 0.8470 0.8310 0.8170 0.7850 0.7541
1006.820266 0.7231 0.6911 0.6601 0.6600 0.7157
1011.469991 0.7720 0.8120 0.8730 0.9130 0.9300
1016.119716 0.9420 0.9460 0.9460 0.9430 0.9072
1020.769441 0.8730 0.8530 0.8300 0.8060 0.7840
1025.419166 0.7840 0.7960 0.8727 0.9039 0.9259
1030.068891 0.9430 0.9550 0.9640 0.9690 0.9830
1034.718616 1.0050 1.0060 1.0060 1.0060 1.0050
1039.368341 1.0030 1.0030 1.0000 0.9940 0.9850
1044.018066 0.9760 0.9690 0.9630 0.9580 0.9530
1048.667791 0.9470 0.9430 0.9380 0.9340 0.9300
1053.317516 0.9260 0.9210 0.9190 0.9130 0.9060
1057.967241 0.8940 0.8810 0.8650 0.8480 0.8300
1062.616966 0.8091 0.7881 0.7661 0.7421 0.7181
1067.266691 0.6930 0.6680 0.6430 0.6180 0.5930
1071.916415 0.5920 0.5920 0.5930 0.6050 0.6130
1076.566140 0.6270 0.6600 0.6980 0.7280 0.7360
1081.215865 0.7510 0.7650 0.7760 0.7850 0.7920
1085.865590 0.7970 0.8020 0.8050 0.8080 0.8090
1090.515315 0.8100 0.8130 0.8140 0.8180 0.8210
1095.165040 0.8250 0.8280 0.8310 0.8300 0.8250
1099.814765 0.8180 0.8120 0.8040 0.7970 0.7761
1104.464490 0.7590 0.7410 0.7230 0.7030 0.6840
1109.114215 0.6640 0.6461 0.6251 0.6041 0.5841
1113.763940 0.5830 0.5840 0.5900 0.6000 0.6080
1118.413665 0.6140 0.6180 0.6220 0.6250 0.6270
1123.063390 0.6270 0.6290 0.6300 0.6310 0.6310
1127.713115 0.6330 0.6340 0.6350 0.6350 0.6350
1132.362840 0.6370 0.6370 0.6380 0.6540 0.6690
1137.012564 0.6860 0.7010 0.7150 0.7250 0.7310
1141.662289 0.7320 0.7310 0.7180 0.7120 0.7060
1146.312014 0.6780 0.6560 0.6341 0.5692 0.4983
1150.961739 0.4279 0.3590 0.2910 0.2281 0.1721
1155.611464 0.1221 0.1041 0.0841 0.0571 0.0441
1160.261189 0.0100 0.0070 0.0090 0.0360 0.0610
1164.910914 0.1399 0.1560 0.1670 0.2178 0.2678
1169.560639 0.3511 0.4320 0.4800 0.5150 0.5370
1174.210364 0.5360 0.4881 0.4491 0.4092 0.3722
1178.860089 0.3320 0.3321 0.4320 0.5239 0.6239
1183.509814 0.7228 0.7719 0.8099 0.8349 0.8360
1188.159539 0.8360 0.8320 0.8250 0.8220 0.8230
1192.809264 0.8350 0.8719 0.8959 0.9020 0.9070
1197.458989 0.9110 0.9130 0.9190 0.9200 0.9210
1202.108713 0.9220 0.9220 0.9210 0.9150 0.9031
1206.758438 0.8870 0.8660 0.8430 0.8180 0.7911
1211.408163 0.7621 0.7331 0.7061 0.6781 0.6551
1216.057888 0.6330 0.6310 0.6330 0.6370 0.6680
1220.707613 0.6989 0.7269 0.7748 0.7760 0.7750
1225.357338 0.7480 0.7360 0.7030 0.6760 0.5961
1230.007063 0.4372 0.2893 0.2711 0.2501 0.2400
1234.656788 0.2270 0.2120 0.1850 0.1820 0.1840
1239.306513 0.2618 0.4465 0.5815 0.6766 0.7407
1243.956238 0.7850 0.8180 0.8430 0.8450 0.8420
1248.605963 0.8350 0.8210 0.8040 0.7920 0.7910
1253.255688 0.7920 0.7970 0.8040 0.8100 0.8140
1257.905413 0.8150 0.8140 0.8090 0.8010 0.7910
1262.555138 0.7790 0.7650 0.7490 0.7310 0.7110
1267.204862 0.6900 0.6681 0.6441 0.6211 0.5951
1271.854587 0.5690 0.5410 0.5140 0.4860 0.4581
1276.504312 0.4291 0.4021 0.3731 0.3451 0.3171
1281.154037 0.2910 0.2650 0.2380 0.2140 0.1910
1285.803762 0.1690 0.1481 0.1291 0.1101 0.1030
1290.453487 0.0950 0.0800 0.0570 0.0560 0.0570
1295.103212 0.0610 0.0630 0.0670 0.0660 0.0580
1299.752937 0.0490 0.0410 0.0330 0.0330 0.0370
1304.402662 0.0560 0.1029 0.1249 0.1479 0.1719
1309.052387 0.1940 0.1950 0.2400 0.2400 0.2330
1313.702112 0.1821 0.1820 0.2697 0.3058 0.3418
1318.351837 0.3640 0.4080 0.5000 0.5180 0.5360
1323.001562 0.5540 0.5540 0.5660 0.5780 0.5899
1327.651287 0.6010 0.6120 0.6240 0.6350 0.6470
1332.301011 0.6590 0.6680 0.6840 0.6860 0.6910
1336.950736 0.6930 0.6990 0.7060 0.7110 0.7180
1341.600461 0.7200 0.7370 0.7529 0.7580 0.7620
1346.250186 0.7610 0.7570 0.7500 0.7410 0.7290
1350.899911 0.7150 0.6901 0.6870 0.6890 0.6970
1355.549636 0.7060 0.7070 0.7070 0.7060 0.7020
1360.199361 0.6950 0.6850 0.6740 0.6640 0.6511
1364.849086 0.6350 0.6160 0.5920 0.5630 0.5270
1369.498811 0.4461 0.3961 0.3701 0.3590 0.3530
1374.148536 0.3440 0.3210 0.3180 0.3180 0.3479
1378.798261 0.3510 0.3510 0.3480 0.3231 0.2912
1383.447986 0.2550 0.2150 0.1730 0.1330 0.1140
1388.097711 0.0950 0.0601 0.0321 0.0141 0.0050
1392.747436 0.0000 0.0000 0.0000 0.0000 0.0000
1397.397160 0.0000 0.0000 0.0219 0.1097 0.1588
1402.046885 0.2040 0.2480 0.2830 0.3090 0.3260
1406.696610 0.3300 0.3300 0.3101 0.3100 0.3299
1411.346335 0.3420 0.3440 0.3470 0.3470 0.3430
1415.996060 0.3360 0.3340 0.3350 0.3569 0.3690
1420.645785 0.3790 0.3890 0.3900 0.3870 0.3770
1425.295510 0.3531 0.3510 0.3490 0.3510 0.3958
1429.945235 0.4661 0.5150 0.5530 0.5830 0.6040
1434.594960 0.6210 0.6330 0.6420 0.6480 0.6560
1439.244685 0.6650 0.6760 0.6910 0.7030 0.7150
1443.894410 0.7250 0.7340 0.7450 0.7530 0.7610
1448.544135 0.7670 0.7740 0.7790 0.7830 0.7850
1453.193860 0.7870 0.7890 0.7930 0.7980 0.8050
1457.843585 0.8120 0.8190 0.8280 0.8360 0.8450
1462.493309 0.8520 0.8590 0.8620 0.8660 0.8700
1467.143034 0.8720 0.8730 0.8740 0.8750 0.8770
1471.792759 0.8770 0.8770 0.8780 0.8810 0.8830
1476.442484 0.8870 0.8890 0.8940 0.8960 0.9060
1481.092209 0.9090 0.9110 0.9120 0.9170 0.9200
1485.741934 0.9220 0.9240 0.9250 0.9250 0.9260
1490.391659 0.9280 0.9280 0.9280 0.9290 0.9290
1495.041384 0.9280 0.9280 0.9210 0.9160 0.9110
1499.691109 0.9080 0.9040 0.9020 0.8990 0.8950
1504.340834 0.8910 0.8860 0.8780 0.8770 0.8770
1508.990559 0.8780 0.8920 0.8950 0.9020 0.9110
1513.640284 0.9150 0.9150 0.9130 0.9120 0.9060
1518.290009 0.8990 0.8890 0.8750 0.8561 0.8321
1522.939734 0.8020 0.7670 0.7240 0.6731 0.6251
1527.589458 0.5911 0.5441 0.4394 0.3613 0.3053
1532.239183 0.2630 0.2320 0.2020 0.1710 0.1300
1536.888908 0.1011 0.0731 0.0301 0.0011 0.0000
1541.538633 0.0011 0.0441 0.1160 0.1590 0.1910
1546.188358 0.2200 0.3058 0.3050 0.2841 0.2611
1550.838083 0.2590 0.2620 0.2670 0.2740 0.2760
1555.487808 0.2800 0.2810 0.2850 0.2890 0.2950
1560.137533 0.3020 0.3140 0.3300 0.3490 0.3730
1564.787258 0.4000 0.4170 0.4290 0.4340 0.4390
1569.436983 0.4430 0.4450 0.4450 0.4450 0.4430
1574.086708 0.4300 0.4170 0.4060 0.3950 0.3811
1578.736433 0.3610 0.3340 0.2960 0.2450 0.1761
1583.386158 0.1460 0.1171 0.0971 0.0771 0.0362
1588.035883 0.0000 0.0000 0.0000 0.0100 0.0260
1592.685607 0.1168 0.1609 0.2108 0.2120 0.2030
1597.335332 0.1970 0.1950 0.2010 0.2580 0.3119
1601.985057 0.3120 0.3100 0.3090 0.2791 0.2372
1606.634782 0.2030 0.1820 0.1630 0.1430 0.1240
1611.284507 0.1050 0.1040 0.1050 0.1369 0.1649
1615.934232 0.1890 0.1970 0.2150 0.2160 0.2150
1620.583957 0.1841 0.1551 0.1271 0.1031 0.0910
1625.233682 0.0790 0.0580 0.0410 0.0270 0.0160
1629.883407 0.0100 0.0060 0.0000 0.0000 0.0000
1634.533132 0.0000 0.0000 0.0000 0.0000 0.0000
1639.182857 0.0000 0.0000 0.0000 0.0000 0.0000
1643.832582 0.0000 0.0000 0.0000 0.0000 0.0000
1648.482307 0.0000 0.0000 0.0000 0.0000 0.0000
1653.132032 0.0000 0.0000 0.0000 0.0000 0.0000
1657.781756 0.0000 0.0010 0.0030 0.0189 0.0369
1662.431481 0.1011 0.1330 0.1650 0.2010 0.2400
1667.081206 0.2839 0.3379 0.3859 0.4279 0.4659
1671.730931 0.5000 0.5300 0.5560 0.5780 0.5970
1676.380656 0.6140 0.6290 0.6400 0.6480 0.6500
1681.030381 0.6500 0.6500 0.6500 0.6510 0.6610
1685.680106 0.6740 0.6870 0.7059 0.7210 0.7339
1690.329831 0.7750 0.8010 0.8090 0.8180 0.8280
1694.979556 0.8380 0.8480 0.8600 0.8700 0.8790
1699.629281 0.8890 0.8980 0.9060 0.9110 0.9150
1704.279006 0.9210 0.9240 0.9260 0.9290 0.9300
1708.928731 0.9300 0.9320 0.9330 0.9340 0.9360
1713.578456 0.9380 0.9410 0.9420 0.9430 0.9430
1718.228181 0.9450 0.9450 0.9450 0.9430 0.9420
1722.877905 0.9390 0.9370 0.9340 0.9320 0.9290
1727.527630 0.9260 0.9240 0.9220 0.9210 0.9210
1732.177355 0.9220 0.9250 0.9280 0.9300 0.9330
1736.827080 0.9390 0.9460 0.9470 0.9470 0.9450
1741.476805 0.9320 0.9280 0.9130 0.9120 0.9130
1746.126530 0.9160 0.9260 0.9330 0.9360 0.9450
1750.776255 0.9540 0.9590 0.9600 0.9620 0.9630
1755.425980 0.9630 0.9630 0.9640 0.9660 0.9660
1760.075705 0.9670 0.9670 0.9680 0.9680 0.9690
1764.725430 0.9690 0.9690 0.9710 0.9750 0.9770
1769.375155 0.9810 0.9840 0.9850 0.9860 0.9880
1774.024880 0.9880 0.9890 0.9890 0.9880 0.9880
1778.674605 0.9860 0.9860 0.9840 0.9810 0.9760
1783.324330 0.9730 0.9720 0.9750 0.9760 0.9790
1787.974054 0.9810 0.9830 0.9850 0.9880 0.9890
1792.623779 0.9900 0.9900 0.9920 0.9920 0.9920
1797.273504 0.9930 0.9930 0.9940 0.9940 0.9960
1801.923229 0.9970 0.9970 0.9970 0.9980 1.0010
1806.572954 1.0020 1.0030 1.0030 1.0060 1.0090
1811.222679 1.0090 1.0100 1.0100 1.0100 1.0090
1815.872404 1.0090 1.0070 1.0070 1.0030 1.0000
1820.522129 0.9980 0.9970 0.9940 0.9920 0.9890
1825.171854 0.9880 0.9850 0.9840 0.9830 0.9830
1829.821579 0.9810 0.9800 0.9800 0.9790 0.9770
1834.471304 0.9760 0.9760 0.9730 0.9730 0.9720
1839.121029 0.9720 0.9720 0.9730 0.9750 0.9760
1843.770754 0.9790 0.9810 0.9810 0.9830 0.9830
1848.420479 0.9840 0.9840 0.9850 0.9850 0.9850
1853.070203 0.9840 0.9840 0.9830 0.9830 0.9810
1857.719928 0.9800 0.9800 0.9790 0.9790 0.9770
1862.369653 0.9770 0.9760 0.9750 0.9750 0.9730
1867.019378 0.9730 0.9720 0.9720 0.9710 0.9710
1871.669103 0.9710 0.9710 0.9720 0.9720 0.9720
1876.318828 0.9720 0.9720 0.9730 0.9730 0.9730
1880.968553 0.9730 0.9730 0.9730 0.9720 0.9720
1885.618278 0.9720 0.9710 0.9690 0.9670 0.9660
1890.268003 0.9640 0.9640 0.9640 0.9630 0.9630
1894.917728 0.9620 0.9620 0.9620 0.9620 0.9620
1899.567453 0.9630 0.9640 0.9660 0.9680 0.9690
1904.217178 0.9710 0.9720 0.9750 0.9760 0.9770
1908.866903 0.9790 0.9800 0.9800 0.9800 0.9800
1913.516628 0.9800 0.9800 0.9810 0.9830 0.9830
1918.166352 0.9840 0.9840 0.9850 0.9850 0.9860
1922.816077 0.9860 0.9860 0.9880 0.9880 0.9880
1927.465802 0.9880 0.9880 0.9880 0.9880 0.9880
1932.115527 0.9860 0.9860 0.9860 0.9850 0.9840
1936.765252 0.9840 0.9830 0.9830 0.9830 0.9830
1941.414977 0.9830 0.9840 0.9840 0.9840 0.9840
1946.064702 0.9850 0.9860 0.9880 0.9880 0.9890
1950.714427 0.9900 0.9920 0.9920 0.9930 0.9940
1955.364152 0.9940 0.9930 0.9920 0.9900 0.9900
1960.013877 0.9890 0.9880 0.9860 0.9850 0.9840
1964.663602 0.9830 0.9800 0.9800 0.9790 0.9790
1969.313327 0.9770 0.9760 0.9750 0.9730 0.9720
1973.963052 0.9720 0.9710 0.9690 0.9670 0.9660
1978.612777 0.9640 0.9630 0.9630 0.9620 0.9620
1983.262501 0.9620 0.9630 0.9640 0.9670 0.9690
1987.912226 0.9720 0.9730 0.9800 0.9840 0.9860
1992.561951 0.9890 0.9930 0.9960 0.9940 0.9940
1997.211676 0.9920 0.9890 0.9850 0.9810 0.9800
2001.861401 0.9790 0.9770 0.9750 0.9730 0.9710
2006.511126 0.9690 0.9670 0.9655 0.9640 0.9620
2011.160851 0.9600 0.9575 0.9550 0.9530 0.9510
2015.810576 0.9490 0.9469 0.9444 0.9419 0.9394
2020.460301 0.9369 0.9344 0.9319 0.9289 0.9259
2025.110026 0.9229 0.9198 0.9163 0.9128 0.9093
2029.759751 0.9058 0.9018 0.8978 0.8938 0.8898
2034.409476 0.8858 0.8817 0.8766 0.8719 0.8709
2039.059201 0.8693 0.8608 0.8530 0.8525 0.8520
2043.708926 0.8525 0.8535 0.8596 0.8656 0.8721
2048.358650 0.8786 0.8846 0.8905 0.8955 0.9005
2053.008375 0.9061 0.9115 0.9160 0.9204 0.9234
2057.658100 0.9262 0.9277 0.9291 0.9296 0.9300
2062.307825 0.9300 0.9300 0.9300 0.9300 0.9300
2066.957550 0.9300 0.9300 0.9299 0.9294 0.9282
2071.607275 0.9222 0.9166 0.9135 0.9095 0.8999
2076.257000 0.8908 0.8833 0.8753 0.8653 0.8552
2080.906725 0.8447 0.8340 0.8225 0.8109 0.7989
2085.556450 0.7870 0.7755 0.7639 0.7519 0.7399
2090.206175 0.7284 0.7170 0.7059 0.6949 0.6844
2094.855900 0.6743 0.6657 0.6573 0.6493 0.6416
2099.505625 0.6351 0.6228 0.5887 0.5588 0.5438
2104.155350 0.5292 0.5162 0.5010 0.4779 0.4449
2108.805075 0.3763 0.3202 0.3076 0.2947 0.2812
2113.454799 0.2677 0.2542 0.2405 0.2265 0.2126
2118.104524 0.1991 0.1890 0.1890 0.1941 0.2141
2122.754249 0.2339 0.2529 0.2697 0.2802 0.2941
2127.403974 0.3176 0.3440 0.3784 0.4119 0.4435
2132.053699 0.4743 0.5033 0.5311 0.5556 0.5788
2136.703424 0.5988 0.6168 0.6298 0.6492 0.6837
2141.353149 0.7142 0.7353 0.7539 0.7669 0.7784
2146.002874 0.7864 0.7948 0.8038 0.8145 0.8285
2150.652599 0.8414 0.8519 0.8616 0.8696 0.8775
2155.302324 0.8850 0.8920 0.8980 0.9037 0.9087
2159.952049 0.9133 0.9174 0.9210 0.9240 0.9270
2164.601774 0.9300 0.9327 0.9347 0.9364 0.9374
2169.251499 0.9382 0.9387 0.9394 0.9404 0.9412
2173.901224 0.9417 0.9420 0.9420 0.9418 0.9413
2178.550948 0.9404 0.9389 0.9371 0.9345 0.9320
2183.200673 0.9295 0.9272 0.9252 0.9230 0.9205
2187.850398 0.9147 0.9042 0.8976 0.8966 0.8960
2192.500123 0.8960 0.8964 0.8974 0.8999 0.9044
2197.149848 0.9089 0.9134 0.9173 0.9203 0.9233
2201.799573 0.9263 0.9291 0.9316 0.9341 0.9366
2206.449298 0.9387 0.9402 0.9419 0.9439 0.9452
2211.099023 0.9457 0.9462 0.9467 0.9475 0.9485
2215.748748 0.9492 0.9497 0.9500 0.9500 0.9498
2220.398473 0.9493 0.9490 0.9490 0.9485 0.9475
2225.048198 0.9470 0.9470 0.9470 0.9470 0.9468
2229.697923 0.9463 0.9458 0.9453 0.9445 0.9435
2234.347648 0.9425 0.9415 0.9400 0.9380 0.9350
2238.997373 0.9310 0.9272 0.9237 0.9196 0.9151
2243.647097 0.9104 0.9054 0.8996 0.8930 0.8868
2248.296822 0.8808 0.8748 0.8688 0.8633 0.8583
2252.946547 0.8536 0.8491 0.8456 0.8431 0.8409
2257.596272 0.8389 0.8344 0.8279 0.8193 0.8093
2262.245997 0.8002 0.7917 0.7820 0.7715 0.7616
2266.895722 0.7521 0.7434 0.7354 0.7248 0.7123
2271.545447 0.7070 0.7070 0.7233 0.7513 0.7639
2276.195172 0.7654 0.7651 0.7636 0.7600 0.7550
2280.844897 0.7442 0.7297 0.7213 0.7167 0.7107
2285.494622 0.7037 0.6976 0.6921 0.6891 0.6876
2290.144347 0.6870 0.6870 0.6867 0.6862 0.6857
2294.794072 0.6852 0.6828 0.6793 0.6751 0.6706
2299.443797 0.6674 0.6649 0.6617 0.6582 0.6505
2304.093522 0.6405 0.6363 0.6353 0.6357 0.6367
2308.743246 0.6426 0.6511 0.6570 0.6615 0.6680
2313.392971 0.6755 0.6830 0.6906 0.6951 0.6981
2318.042696 0.7000 0.7015 0.7006 0.6986 0.6931
2322.692421 0.6861 0.6767 0.6662 0.6539 0.6409
2327.342146 0.6276 0.6140 0.6019 0.5904 0.5800
2331.991871 0.5699 0.5634 0.5584 0.5552 0.5527
2336.641596 0.5520 0.5520 0.5535 0.5555 0.5611
2341.291321 0.5681 0.5785 0.5900 0.6022 0.6147
2345.941046 0.6298 0.6458 0.6556 0.6631 0.6657
2350.590771 0.6667 0.6662 0.6652 0.6615 0.6570
2355.240496 0.6514 0.6454 0.6398 0.6343 0.6241
2359.890221 0.6126 0.5925 0.5700 0.5498 0.5303
2364.539946 0.5135 0.4975 0.4834 0.4699 0.4584
2369.189671 0.4474 0.4371 0.4270 0.4194 0.4123
2373.839395 0.4045 0.3965 0.3946 0.3941 0.3944
2378.489120 0.3949 0.4003 0.4068 0.4129 0.4189
2383.138845 0.4253 0.4318 0.4379 0.4439 0.4504
2387.788570 0.4569 0.4634 0.4700 0.4761 0.4821
2392.438295 0.4885 0.4950 0.5015 0.5080 0.5146
2397.088020 0.5211 0.5276 0.5341 0.5406 0.5471
2401.737745 0.5536 0.5601 0.5662 0.5722 0.5786
2406.387470 0.5851 0.5917 0.5983 0.6039 0.6094
2411.037195 0.6153 0.6213 0.6274 0.6334 0.6394
2415.686920 0.6454 0.6505 0.6555 0.6654 0.6759
2420.336645 0.6851 0.6941 0.7027 0.7112 0.7192
2424.986370 0.7272 0.7353 0.7434 0.7500 0.7565
2429.636095 0.7635 0.7705 0.7766 0.7826 0.7877
2434.285820 0.7927 0.7986 0.8046 0.8092 0.8137
2438.935544 0.8182 0.8227 0.8268 0.8308 0.8348
2443.585269 0.8388 0.8428 0.8469 0.8499 0.8529
2448.234994 0.8564 0.8599 0.8629 0.8659 0.8689
2452.884719 0.8719 0.8744 0.8769 0.8794 0.8820
2457.534444 0.8825 0.8830 0.8850 0.8870 0.8880
2462.184169 0.8890 0.8890 0.8890 0.8880 0.8870
2466.833894 0.8865 0.8860 0.8845 0.8830 0.8820
2471.483619 0.8810 0.8810 0.8810 0.8815 0.8821
2476.133344 0.8861 0.8901 0.8931 0.8962 0.9027
2480.783069 0.9092 0.9152 0.9212 0.9247 0.9281
2485.432794 0.9301 0.9320 0.9325 0.9329 0.9314
2490.082519 0.9298 0.9268 0.9239 0.9224 0.9210
2494.732244 0.9215 0.9222 0.9252 0.9282 0.9312
2499.381969 0.9342 0.9367 0.9393 0.9423 0.9451
2504.031693 0.9461 0.9472 0.9492 0.9511 0.9526
2508.681418 0.9540 0.9545 0.9550 0.9556 0.9562
2513.331143 0.9577 0.9591 0.9596 0.9601 0.9611
2517.980868 0.9620 0.9620 0.9621 0.9626 0.9631
2522.630593 0.9636 0.9640 0.9640 0.9640 0.9640
2527.280318 0.9640 0.9640 0.9640 0.9640 0.9640
2531.930043 0.9640 0.9640 0.9640 0.9640 0.9640
2536.579768 0.9639 0.9634 0.9630 0.9630 0.9629
2541.229493 0.9624 0.9617 0.9602 0.9587 0.9572
2545.879218 0.9559 0.9554 0.9548 0.9538 0.9528
2550.528943 0.9518 0.9509 0.9504 0.9497 0.9482
2555.178668 0.9469 0.9464 0.9459 0.9454 0.9447
2559.828393 0.9432 0.9417 0.9402 0.9388 0.9378
2564.478118 0.9367 0.9352 0.9338 0.9328 0.9316
2569.127842 0.9296 0.9273 0.9243 0.9213 0.9183
2573.777567 0.9154 0.9129 0.9108 0.9098 0.9093
2578.427292 0.9103 0.9123 0.9173 0.9220 0.9260
2583.077017 0.9296 0.9321 0.9345 0.9365 0.9384
2587.726742 0.9399 0.9415 0.9435 0.9453 0.9463
2592.376467 0.9473 0.9483 0.9490 0.9490 0.9490
2597.026192 0.9490 0.9487 0.9477 0.9469 0.9464
2601.675917 0.9459 0.9454 0.9447 0.9437 0.9428
2606.325642 0.9423 0.9415 0.9400 0.9387 0.9377
2610.975367 0.9362 0.9337 0.9310 0.9280 0.9257
2615.625092 0.9247 0.9232 0.9207 0.9180 0.9150
2620.274817 0.9101 0.9016 0.8938 0.8873 0.8811
2624.924542 0.8756 0.8699 0.8639 0.8574 0.8499
2629.574267 0.8446 0.8436 0.8441 0.8471 0.8514
2634.223991 0.8579 0.8657 0.8757 0.8839 0.8889
2638.873716 0.8958 0.9058 0.9147 0.9217 0.9279
2643.523441 0.9329 0.9373 0.9409 0.9438 0.9458
2648.173166 0.9478 0.9498 0.9510 0.9510 0.9524
2652.822891 0.9559 0.9588 0.9608 0.9630 0.9655
2657.472616 0.9678 0.9698 0.9718 0.9738 0.9752
2662.122341 0.9757 0.9766 0.9781 0.9794 0.9804
2666.772066 0.9817 0.9832 0.9845 0.9855 0.9860
2671.421791 0.9860 0.9860 0.9860 0.9860 0.9860
2676.071516 0.9860 0.9860 0.9858 0.9853 0.9848
2680.721241 0.9843 0.9824 0.9789 0.9761 0.9741
2685.370966 0.9725 0.9715 0.9705 0.9695 0.9688
2690.020691 0.9683 0.9678 0.9673 0.9668 0.9663
2694.670416 0.9653 0.9637 0.9627 0.9622 0.9610
2699.320140 0.9590 0.9570 0.9550 0.9530 0.9510
2703.969865 0.9482 0.9447 0.9406 0.9361 0.9324
2708.619590 0.9294 0.9275 0.9265 0.9265 0.9275
2713.269315 0.9285 0.9295 0.9316 0.9346 0.9368
2717.919040 0.9383 0.9417 0.9467 0.9506 0.9537
2722.568765 0.9569 0.9605 0.9634 0.9659 0.9681
2727.218490 0.9701 0.9722 0.9742 0.9756 0.9766
2731.868215 0.9779 0.9794 0.9803 0.9808 0.9816
2736.517940 0.9826 0.9833 0.9838 0.9840 0.9840
2741.167665 0.9843 0.9848 0.9853 0.9858 0.9860
2745.817390 0.9860 0.9860 0.9860 0.9860 0.9860
2750.467115 0.9860 0.9860 0.9860 0.9860 0.9860
2755.116840 0.9860 0.9860 0.9860 0.9860 0.9860
2759.766565 0.9860 0.9860 0.9857 0.9852 0.9850
2764.416289 0.9850 0.9847 0.9842 0.9840 0.9840
2769.066014 0.9837 0.9832 0.9830 0.9830 0.9830
2773.715739 0.9830 0.9830 0.9830 0.9830 0.9830
2778.365464 0.9830 0.9830 0.9830 0.9830 0.9830
2783.015189 0.9830 0.9823 0.9813 0.9807 0.9801
2787.664914 0.9800 0.9800 0.9796 0.9791 0.9790
2792.314639 0.9790 0.9790 0.9790 0.9783 0.9773
2796.964364 0.9770 0.9770 0.9770 0.9770 0.9766
2801.614089 0.9761 0.9760 0.9760 0.9760 0.9760
2806.263814 0.9756 0.9751 0.9750 0.9750 0.9743
2810.913539 0.9733 0.9726 0.9721 0.9716 0.9711
2815.563264 0.9695 0.9675 0.9658 0.9643 0.9624
2820.212989 0.9604 0.9592 0.9582 0.9568 0.9553
2824.862714 0.9546 0.9541 0.9540 0.9540 0.9540
2829.512438 0.9540 0.9536 0.9531 0.9530 0.9530
2834.162163 0.9522 0.9512 0.9502 0.9492 0.9466
2838.811888 0.9436 0.9405 0.9375 0.9350 0.9324
2843.461613 0.9304 0.9284 0.9264 0.9244 0.9219
2848.111338 0.9194 0.9157 0.9117 0.9102 0.9092
2852.761063 0.9098 0.9109 0.9148 0.9193 0.9239
2857.410788 0.9284 0.9311 0.9336 0.9362 0.9387
2862.060513 0.9407 0.9427 0.9447 0.9467 0.9487
2866.710238 0.9507 0.9532 0.9557 0.9586 0.9616
2871.359963 0.9629 0.9639 0.9649 0.9659 0.9664
2876.009688 0.9669 0.9674 0.9679 0.9680 0.9680
2880.659413 0.9680 0.9680 0.9675 0.9670 0.9656
2885.309138 0.9641 0.9631 0.9621 0.9620 0.9620
2889.958863 0.9611 0.9601 0.9595 0.9590 0.9590
2894.608587 0.9590 0.9585 0.9580 0.9580 0.9580
2899.258312 0.9571 0.9561 0.9555 0.9550 0.9550
2903.908037 0.9550 0.9545 0.9540 0.9535 0.9530
2908.557762 0.9530 0.9530 0.9520 0.9510 0.9510
2913.207487 0.9510 0.9505 0.9500 0.9495 0.9490
2917.857212 0.9490 0.9490 0.9490 0.9490 0.9490
2922.506937 0.9490 0.9480 0.9470 0.9470 0.9470
2927.156662 0.9470 0.9470 0.9480 0.9490 0.9490
2931.806387 0.9490 0.9495 0.9500 0.9500 0.9500
2936.456112 0.9505 0.9510 0.9510 0.9510 0.9520
2941.105837 0.9530 0.9535 0.9540 0.9540 0.9540
2945.755562 0.9540 0.9540 0.9535 0.9530 0.9530
2950.405287 0.9530 0.9530 0.9529 0.9519 0.9510
2955.055012 0.9510 0.9510 0.9505 0.9500 0.9495
2959.704736 0.9490 0.9490 0.9490 0.9490 0.9490
2964.354461 0.9495 0.9500 0.9500 0.9500 0.9500
2969.004186 0.9500 0.9506 0.9510 0.9510 0.9510
2973.653911 0.9510 0.9511 0.9521 0.9531 0.9536
2978.303636 0.9541 0.9546 0.9552 0.9567 0.9581
2982.953361 0.9586 0.9591 0.9596 0.9602 0.9617
2987.603086 0.9632 0.9647 0.9661 0.9671 0.9682
2992.252811 0.9697 0.9711 0.9716 0.9720 0.9720
2996.902536 0.9721 0.9726 0.9730 0.9730 0.9729
3001.552261 0.9724 0.9720 0.9720 0.9717 0.9702
3006.201986 0.9690 0.9690 0.9689 0.9684 0.9679
3010.851711 0.9674 0.9669 0.9664 0.9658 0.9648
3015.501436 0.9639 0.9634 0.9629 0.9624 0.9618
3020.151161 0.9608 0.9599 0.9594 0.9589 0.9584
3024.800885 0.9578 0.9568 0.9559 0.9554 0.9550
3029.450610 0.9550 0.9549 0.9544 0.9540 0.9540
3034.100335 0.9539 0.9534 0.9528 0.9518 0.9505
3038.750060 0.9485 0.9467 0.9457 0.9445 0.9425
3043.399785 0.9404 0.9378 0.9355 0.9335 0.9312
3048.049510 0.9282 0.9255 0.9235 0.9213 0.9188
3052.699235 0.9165 0.9145 0.9123 0.9098 0.9077
3057.348960 0.9067 0.9060 0.9060 0.9061 0.9066
3061.998685 0.9072 0.9076 0.9082 0.9087 0.9095
3066.648410 0.9110 0.9122 0.9127 0.9133 0.9143
3071.298135 0.9152 0.9157 0.9160 0.9160 0.9158
3075.947860 0.9153 0.9150 0.9150 0.9145 0.9130
3080.597585 0.9118 0.9113 0.9107 0.9097 0.9088
3085.247310 0.9083 0.9078 0.9073 0.9065 0.9050
3089.897034 0.9036 0.9026 0.9015 0.9000 0.8983
3094.546759 0.8963 0.8942 0.8922 0.8902 0.8882
3099.196484 0.8866 0.8856 0.8844 0.8829 0.8818
3103.846209 0.8813 0.8806 0.8796 0.8788 0.8783
3108.495934 0.8778 0.8773 0.8764 0.8749 0.8736
3113.145659 0.8726 0.8714 0.8699 0.8680 0.8655
3117.795384 0.8629 0.8604 0.8573 0.8533 0.8491
3122.445109 0.8446 0.8394 0.8334 0.8281 0.8236
3127.094834 0.8195 0.8160 0.8136 0.8126 0.8116
3131.744559 0.8105 0.8100 0.8100 0.8100 0.8100
3136.394284 0.8105 0.8115 0.8122 0.8127 0.8130
3141.044009 0.8130 0.8132 0.8137 0.8142 0.8147
3145.693734 0.8155 0.8165 0.8175 0.8185 0.8195
3150.343459 0.8205 0.8215 0.8225 0.8235 0.8245
3154.993183 0.8255 0.8265 0.8280 0.8300 0.8313
3159.642908 0.8318 0.8325 0.8335 0.8353 0.8378
3164.292633 0.8398 0.8413 0.8420 0.8420 0.8402
3168.942358 0.8366 0.8347 0.8342 0.8335 0.8325
3173.592083 0.8325 0.8335 0.8345 0.8355 0.8371
3178.241808 0.8391 0.8408 0.8423 0.8435 0.8446
3182.891533 0.8450 0.8450 0.8467 0.8497 0.8521
3187.541258 0.8541 0.8562 0.8582 0.8596 0.8606
3192.190983 0.8619 0.8634 0.8643 0.8648 0.8659
3196.840708 0.8674 0.8686 0.8696 0.8709 0.8724
3201.490433 0.8736 0.8746 0.8759 0.8774 0.8789
3206.140158 0.8804 0.8813 0.8818 0.8823 0.8828
3210.789883 0.8836 0.8846 0.8853 0.8858 0.8860
3215.439608 0.8860 0.8860 0.8860 0.8857 0.8852
3220.089332 0.8844 0.8834 0.8827 0.8822 0.8817
3224.739057 0.8812 0.8810 0.8810 0.8803 0.8793
3229.388782 0.8790 0.8790 0.8790 0.8790 0.8790
3234.038507 0.8790 0.8790 0.8790 0.8797 0.8807
3238.688232 0.8810 0.8810 0.8813 0.8818 0.8820
3243.337957 0.8820 0.8820 0.8820 0.8820 0.8820
3247.987682 0.8816 0.8811 0.8803 0.8793 0.8786
3252.637407 0.8781 0.8780 0.8780 0.8776 0.8771
3257.287132 0.8763 0.8753 0.8746 0.8741 0.8740
3261.936857 0.8740 0.8736 0.8731 0.8730 0.8730
3266.586582 0.8730 0.8730 0.8730 0.8730 0.8734
3271.236307 0.8739 0.8744 0.8749 0.8758 0.8768
3275.886032 0.8778 0.8788 0.8798 0.8808 0.8818
3280.535757 0.8828 0.8838 0.8848 0.8854 0.8859
3285.185481 0.8872 0.8887 0.8894 0.8899 0.8904
3289.835206 0.8909 0.8926 0.8946 0.8970 0.8995
3294.484931 0.9016 0.9036 0.9052 0.9067 0.9078
3299.134656 0.9088 0.9119 0.9154 0.9172 0.9187
3303.784381 0.9202 0.9217 0.9228 0.9238 0.9240
3308.434106 0.9240 0.9257 0.9277 0.9280 0.9280
3313.083831 0.9288 0.9298 0.9308 0.9318 0.9324
3317.733556 0.9329 0.9334 0.9339 0.9349 0.9359
3322.383281 0.9369 0.9379 0.9384 0.9389 0.9399
3327.033006 0.9409 0.9414 0.9419 0.9424 0.9429
3331.682731 0.9439 0.9449 0.9454 0.9459 0.9464
3336.332456 0.9469 0.9470 0.9470 0.9479 0.9489
3340.982181 0.9495 0.9500 0.9500 0.9500 0.9505
3345.631906 0.9510 0.9519 0.9529 0.9535 0.9540
3350.281630 0.9540 0.9540 0.9545 0.9550 0.9555
3354.931355 0.9560 0.9569 0.9579 0.9580 0.9580
3359.581080 0.9585 0.9590 0.9595 0.9600 0.9600
3364.230805 0.9600 0.9610 0.9620 0.9625 0.9630
3368.880530 0.9630 0.9630 0.9635 0.9640 0.9650
3373.530255 0.9660 0.9660 0.9660 0.9665 0.9670
3378.179980 0.9675 0.9680 0.9680 0.9680 0.9685
3382.829705 0.9690 0.9700 0.9710 0.9710 0.9710
3387.479430 0.9715 0.9720 0.9725 0.9730 0.9730
3392.129155 0.9730 0.9740 0.9750 0.9755 0.9760
3396.778880 0.9760 0.9760 0.9765 0.9770 0.9780
3401.428605 0.9790 0.9790 0.9790 0.9795 0.9800
3406.078330 0.9805 0.9810 0.9820 0.9830 0.9835
3410.728055 0.9840 0.9845 0.9850 0.9850 0.9850
3415.377779 0.9855 0.9861 0.9871 0.9880 0.9880
3420.027504 0.9880 0.9885 0.9890 0.9895 0.9900
3424.677229 0.9900 0.9901 0.9911 0.9920 0.9925
3429.326954 0.9930 0.9930 0.9931 0.9936 0.9941
3433.976679 0.9951 0.9961 0.9966 0.9972 0.9987
3438.626404 1.0000 1.0000 1.0001 1.0006 1.0010
3443.276129 1.0010 1.0011 1.0016 1.0020 1.0020
3447.925854 1.0021 1.0026 1.0031 1.0041 1.0050
3452.575579 1.0050 1.0051 1.0056 1.0060 1.0060
3457.225304 1.0061 1.0066 1.0072 1.0082 1.0090
3461.875029 1.0090 1.0091 1.0096 1.0100 1.0100
3466.524754 1.0101 1.0106 1.0110 1.0110 1.0110
3471.174479 1.0110 1.0110 1.0110 1.0110 1.0110
3475.824204 1.0112 1.0122 1.0130 1.0130 1.0130
3480.473928 1.0130 1.0130 1.0130 1.0131 1.0136
3485.123653 1.0140 1.0140 1.0140 1.0140 1.0141
3489.773378 1.0146 1.0150 1.0150 1.0150 1.0150
3494.423103 1.0150 1.0150 1.0150 1.0150 1.0150
3499.072828 1.0150 1.0151 1.0156 1.0160 1.0160
3503.722553 1.0160 1.0160 1.0160 1.0160 1.0160
3508.372278 1.0160 1.0160 1.0160 1.0163 1.0173
3513.022003 1.0180 1.0180 1.0180 1.0180 1.0180
3517.671728 1.0180 1.0180 1.0180 1.0180 1.0180
3522.321453 1.0181 1.0187 1.0190 1.0190 1.0190
3526.971178 1.0190 1.0190 1.0190 1.0190 1.0190
3531.620903 1.0192 1.0197 1.0200 1.0200 1.0203
3536.270628 1.0213 1.0220 1.0220 1.0220 1.0220
3540.920353 1.0220 1.0220 1.0220 1.0220 1.0220
3545.570077 1.0220 1.0220 1.0220 1.0220 1.0220
3550.219802 1.0220 1.0220 1.0220 1.0220 1.0222
3554.869527 1.0227 1.0230 1.0230 1.0232 1.0237
3559.519252 1.0240 1.0240 1.0240 1.0240 1.0240
3564.168977 1.0240 1.0240 1.0240 1.0240 1.0240
3568.818702 1.0244 1.0254 1.0260 1.0260 1.0260
3573.468427 1.0260 1.0260 1.0260 1.0260 1.0260
3578.118152 1.0260 1.0260 1.0262 1.0267 1.0270
3582.767877 1.0270 1.0270 1.0270 1.0270 1.0270
3587.417602 1.0270 1.0270 1.0270 1.0270 1.0272
3592.067327 1.0277 1.0280 1.0280 1.0280 1.0280
3596.717052 1.0278 1.0273 1.0270 1.0270 1.0270
3601.366777 1.0270 1.0270 1.0270 1.0270 1.0270
3606.016502 1.0270 1.0270 1.0270 1.0270 1.0270
3610.666226 1.0270 1.0270 1.0270 1.0270 1.0270
3615.315951 1.0270 1.0270 1.0270 1.0270 1.0268
3619.965676 1.0263 1.0260 1.0260 1.0260 1.0260
3624.615401 1.0260 1.0260 1.0260 1.0260 1.0260
3629.265126 1.0260 1.0260 1.0260 1.0260 1.0260
3633.914851 1.0255 1.0245 1.0240 1.0240 1.0240
3638.564576 1.0240 1.0240 1.0240 1.0240 1.0240
3643.214301 1.0240 1.0240 1.0240 1.0240 1.0240
3647.864026 1.0240 1.0237 1.0232 1.0230 1.0230
3652.513751 1.0230 1.0230 1.0230 1.0230 1.0230
3657.163476 1.0230 1.0230 1.0230 1.0230 1.0230
3661.813201 1.0233 1.0238 1.0240 1.0240 1.0240
3666.462926 1.0240 1.0240 1.0240 1.0240 1.0240
3671.112651 1.0240 1.0240 1.0246 1.0256 1.0260
3675.762375 1.0260 1.0260 1.0260 1.0260 1.0260
3680.412100 1.0260 1.0260 1.0263 1.0268 1.0270
3685.061825 1.0270 1.0270 1.0270 1.0270 1.0270
3689.711550 1.0270 1.0270 1.0270 1.0270 1.0270
3694.361275 1.0270 1.0270 1.0270 1.0270 1.0270
3699.011000 1.0270 1.0270 1.0273 1.0278 1.0280
3703.660725 1.0280 1.0280 1.0280 1.0280 1.0280
3708.310450 1.0277 1.0272 1.0270 1.0270 1.0270
3712.960175 1.0270 1.0270 1.0270 1.0270 1.0270
3717.609900 1.0270 1.0270 1.0270 1.0270 1.0266
3722.259625 1.0261 1.0260 1.0260 1.0260 1.0260
3726.909350 1.0260 1.0260 1.0253 1.0243 1.0240
3731.559075 1.0240 1.0240 1.0240 1.0236 1.0231
3736.208800 1.0230 1.0230 1.0226 1.0221 1.0220
3740.858524 1.0220 1.0212 1.0202 1.0200 1.0200
3745.508249 1.0200 1.0200 1.0196 1.0191 1.0190
3750.157974 1.0190 1.0190 1.0190 1.0186 1.0181
3754.807699 1.0180 1.0180 1.0180 1.0180 1.0180
3759.457424 1.0180 1.0180 1.0180 1.0180 1.0180
3764.107149 1.0180 1.0180 1.0184 1.0189 1.0190
3768.756874 1.0190 1.0194 1.0199 1.0200 1.0200
3773.406599 1.0208 1.0218 1.0220 1.0220 1.0220
3778.056324 1.0220 1.0224 1.0229 1.0230 1.0230
3782.706049 1.0234 1.0239 1.0240 1.0240 1.0249
3787.355774 1.0259 1.0260 1.0260 1.0260 1.0260
3792.005499 1.0264 1.0269 1.0270 1.0270 1.0270
3796.655224 1.0270 1.0270 1.0270 1.0275 1.0280
3801.304949 1.0280 1.0280 1.0280 1.0280 1.0280
3805.954673 1.0280 1.0280 1.0280 1.0280 1.0280
3810.604398 1.0280 1.0280 1.0280 1.0280 1.0280
3815.254123 1.0280 1.0280 1.0280 1.0280 1.0280
3819.903848 1.0280 1.0280 1.0280 1.0280 1.0280
3824.553573 1.0280 1.0280 1.0280 1.0280 1.0280
3829.203298 1.0280 1.0280 1.0280 1.0280 1.0280
3833.853023 1.0280 1.0280 1.0280 1.0280 1.0280
3838.502748 1.0275 1.0270 1.0270 1.0270 1.0270
3843.152473 1.0270 1.0270 1.0270 1.0270 1.0270
3847.802198 1.0270 1.0270 1.0270 1.0270 1.0265
3852.451923 1.0260 1.0260 1.0260 1.0260 1.0260
3857.101648 1.0260 1.0260 1.0260 1.0260 1.0260
3861.751373 1.0260 1.0260 1.0260 1.0260 1.0260
3866.401098 1.0260 1.0260 1.0260 1.0260 1.0260
3871.050822 1.0260 1.0250 1.0240 1.0251 1.0260
3875.700547 1.0260 1.0260 1.0260 1.0260 1.0265
3880.350272 1.0270 1.0270 1.0270 1.0270 1.0270
3884.999997 1.0270 1.0270 1.0270 1.0270 1.0270
3889.649722 1.0270 1.0270 1.0270 1.0270 1.0270
3894.299447 1.0270 1.0270 1.0270 1.0270 1.0270
3898.949172 1.0270 1.0270 1.0270 1.0270 1.0270
3903.598897 1.0270 1.0270 1.0270 1.0270 1.0270
3908.248622 1.0270 1.0270 1.0270 1.0270 1.0270
3912.898347 1.0270 1.0270 1.0270 1.0270 1.0270
3917.548072 1.0270 1.0270 1.0269 1.0264 1.0260
3922.197797 1.0260 1.0260 1.0260 1.0258 1.0248
3926.847522 1.0240 1.0240 1.0240 1.0240 1.0240
3931.497247 1.0240 1.0239 1.0234 1.0230 1.0230
3936.146971 1.0229 1.0224 1.0220 1.0220 1.0220
3940.796696 1.0220 1.0220 1.0220 1.0220 1.0220
3945.446421 1.0218 1.0208 1.0200 1.0200 1.0200
3950.096146 1.0200 1.0200 1.0200 1.0199 1.0194
3954.745871 1.0190 1.0190 1.0190 1.0190 1.0190
3959.395596 1.0190 1.0190 1.0190 1.0189 1.0184
3964.045321 1.0180 1.0180 1.0180 1.0180 1.0177
3968.695046 1.0167 1.0160 1.0160 1.0160 1.0160
3973.344771 1.0160 1.0160 1.0160 1.0160 1.0159
3977.994496 1.0154 1.0150 1.0150 1.0150 1.0150
3982.644221 1.0150 1.0150 1.0150 1.0150 1.0149
3987.293946 1.0144 1.0140 1.0140 1.0140 1.0140
3991.943671 1.0138 1.0133 1.0130 1.0130 1.0130
3996.593396 1.0130 1.0127 1.0117 1.0110 1.0110
4001.243120 1.0110 1.0110
##END=
