##TITLE=3H-V-TRIAZOLO[4,5-d]PYRIMIDINE, 5-AMINO-3-BUTYL-7-HYDROXY-
##JCAMP-DX=4.24
##DATA TYPE=INFRARED SPECTRUM
##CLASS=COBLENTZ III
##ORIGIN=SOUTHERN RESEARCH INSTITUTE (W.C. COBURN, JR.)
##OWNER=COBLENTZ SOCIETY
Collection (C) 2018 copyright by the U.S. Secretary of Commerce
on behalf of the United States of America. All rights reserved.
##DATE=1960/02/16
##MOLFORM=C8 H12 N6 O
##SOURCE REFERENCE=COBLENTZ NO. 9901
##$NIST ID=B6009901
##$NIST SOURCE=COBLENTZ
##$NIST IMAGE=cob9901
##SPECTROMETER/DATA SYSTEM=PERKIN-ELMER 21 (GRATING)
##INSTRUMENT PARAMETERS=FILTER CHANGE AT 1020 CM^-^1
##STATE=SOLID (2.9 mg / 650 mg KBr DISC)
##SAMPLING PROCEDURE=TRANSMISSION
##RESOLUTION=2
##DATA PROCESSING=DIGITIZED BY NIST FROM HARD COPY (FROM TWO SEGMENTS)
##XUNITS=1/CM
##YUNITS=TRANSMITTANCE
##XFACTOR=1.000000
##YFACTOR=1
##DELTAX=1.282051
##FIRSTX=605.825
##LASTX=4018.64
##FIRSTY=0.616
##MAXX=4018.64
##MINX=605.825
##MAXY=0.96
##MINY=0.0345426
##NPOINTS=2663
##XYDATA=(X++(Y..Y))
605.825000 0.6160 0.6160 0.6160 0.6160 0.6160
612.235255 0.6160 0.6160 0.6151 0.6150 0.6141
618.645510 0.6140 0.6140 0.6122 0.6120 0.6111
625.055765 0.6110 0.6102 0.6092 0.6065 0.6052
631.466020 0.6018 0.6002 0.5969 0.5929 0.5905
637.876275 0.5862 0.5820 0.5773 0.5738 0.5723
644.286530 0.5699 0.5683 0.5673 0.5684 0.5710
650.696785 0.5760 0.5812 0.5862 0.5899 0.5922
657.107040 0.5930 0.5942 0.5950 0.5956 0.5966
663.517295 0.5993 0.6032 0.6072 0.6106 0.6120
669.927550 0.6208 0.6300 0.6305 0.6212 0.6110
676.337805 0.6095 0.6090 0.6090 0.6090 0.6081
682.748060 0.5907 0.5639 0.5532 0.5386 0.5117
689.158315 0.4718 0.4222 0.3769 0.3703 0.3677
695.568570 0.3647 0.3688 0.4050 0.4673 0.4975
701.978825 0.5540 0.5524 0.5460 0.5378 0.5289
708.389080 0.5209 0.5157 0.5129 0.5218 0.5307
714.799335 0.5409 0.5550 0.5611 0.5679 0.5731
721.209590 0.5749 0.5811 0.5829 0.5906 0.5964
727.619845 0.6004 0.6054 0.6101 0.6112 0.6140
734.030100 0.6140 0.6140 0.6160 0.6721 0.6800
740.440355 0.6810 0.6839 0.6840 0.6821 0.6622
746.850610 0.6405 0.6176 0.6095 0.6026 0.5966
753.260865 0.5907 0.5830 0.5794 0.5807 0.6048
759.671120 0.6325 0.6529 0.6717 0.7060 0.7315
766.081375 0.7408 0.7436 0.7455 0.7475 0.7480
772.491630 0.7480 0.7465 0.7460 0.7410 0.7369
778.901885 0.7318 0.7266 0.7148 0.6933 0.6660
785.312140 0.6269 0.5828 0.5378 0.4792 0.4117
791.722395 0.3838 0.5919 0.7459 0.7627 0.7706
798.132650 0.7792 0.7947 0.8047 0.8075 0.8090
804.542905 0.8110 0.8125 0.8130 0.8135 0.8140
810.953160 0.8140 0.8136 0.8130 0.8126 0.8103
817.363415 0.8068 0.8050 0.8050 0.8050 0.8050
823.773670 0.8050 0.8159 0.8374 0.8403 0.8413
830.183925 0.8420 0.8420 0.8420 0.8420 0.8417
836.594180 0.8410 0.8407 0.8400 0.8390 0.8351
843.004435 0.8307 0.8254 0.8222 0.8181 0.8124
849.414690 0.8040 0.7982 0.7932 0.7883 0.7815
855.824945 0.7641 0.7553 0.7328 0.7207 0.7073
862.235200 0.6982 0.6862 0.6729 0.6741 0.7402
868.645455 0.8261 0.8291 0.8350 0.8430 0.8460
875.055710 0.8479 0.8499 0.8500 0.8510 0.8510
881.465965 0.8510 0.8510 0.8510 0.8510 0.8510
887.876220 0.8510 0.8510 0.8510 0.8510 0.8510
894.286475 0.8510 0.8510 0.8510 0.8510 0.8510
900.696730 0.8510 0.8510 0.8510 0.8502 0.8485
907.106985 0.8480 0.8480 0.8480 0.8480 0.8473
913.517240 0.8463 0.8460 0.8440 0.8430 0.8417
919.927495 0.8391 0.8367 0.8341 0.8318 0.8292
926.337750 0.8256 0.8223 0.8199 0.8179 0.8153
932.748005 0.8140 0.8145 0.8166 0.8211 0.8255
939.158260 0.8295 0.8349 0.8380 0.8380 0.8380
945.568515 0.8380 0.8380 0.8380 0.8380 0.8380
951.978770 0.8380 0.8376 0.8366 0.8360 0.8356
958.389025 0.8350 0.8350 0.8343 0.8330 0.8327
964.799280 0.8320 0.8317 0.8310 0.8310 0.8305
971.209535 0.8290 0.8288 0.8278 0.8261 0.8228
977.619790 0.8218 0.8206 0.8190 0.8188 0.8178
984.030045 0.8167 0.8149 0.8134 0.8099 0.8084
990.440300 0.8036 0.7999 0.7989 0.7977 0.7949
996.850555 0.7938 0.7909 0.7889 0.7858 0.7799
1003.260810 0.7740 0.7720 0.7621 0.7521 0.7422
1009.671065 0.7342 0.7273 0.7185 0.7058 0.6698
1016.081320 0.6450 0.6213 0.5975 0.5700 0.5520
1022.491575 0.5343 0.5268 0.5507 0.6307 0.7214
1028.901830 0.7600 0.7836 0.7888 0.7922 0.7938
1035.312085 0.7956 0.7975 0.7980 0.7980 0.7980
1041.722340 0.7980 0.7980 0.7959 0.7880 0.7829
1048.132595 0.7800 0.7710 0.7670 0.7664 0.7660
1054.542850 0.7660 0.7660 0.7666 0.7688 0.7765
1060.953105 0.7880 0.7936 0.7940 0.7940 0.7940
1067.363360 0.7940 0.7935 0.7915 0.7890 0.7885
1073.773615 0.7885 0.7880 0.7861 0.7808 0.7770
1080.183870 0.7766 0.7739 0.7673 0.7600 0.7546
1086.594125 0.7455 0.7339 0.7257 0.7142 0.7037
1093.004380 0.7033 0.7195 0.7586 0.7753 0.7763
1099.414635 0.7770 0.7770 0.7770 0.7770 0.7767
1105.824890 0.7748 0.7696 0.7641 0.7608 0.7594
1112.235145 0.7560 0.7512 0.7478 0.7468 0.7460
1118.645400 0.7460 0.7460 0.7460 0.7460 0.7458
1125.055655 0.7439 0.7429 0.7418 0.7389 0.7379
1131.465910 0.7358 0.7330 0.7319 0.7300 0.7290
1137.876165 0.7269 0.7190 0.7180 0.7131 0.7091
1144.286420 0.7033 0.6964 0.6913 0.6855 0.6776
1150.696675 0.6724 0.6639 0.6496 0.6330 0.6258
1157.106930 0.6207 0.6158 0.6100 0.6065 0.6068
1163.517185 0.6086 0.6146 0.6200 0.6485 0.6568
1169.927440 0.6646 0.6678 0.6695 0.6715 0.6720
1176.337695 0.6713 0.6703 0.6686 0.6666 0.6640
1182.747950 0.6617 0.6584 0.6538 0.6463 0.6405
1189.158205 0.6365 0.6276 0.6152 0.5952 0.5704
1195.568460 0.5457 0.5227 0.4838 0.4314 0.4049
1201.978715 0.4019 0.4015 0.4116 0.4304 0.4580
1208.388970 0.4860 0.5793 0.7036 0.7384 0.7390
1214.799225 0.7390 0.7390 0.7390 0.7390 0.7390
1221.209480 0.7390 0.7390 0.7390 0.7390 0.7390
1227.619735 0.7380 0.7350 0.7330 0.7327 0.7320
1234.029990 0.7320 0.7320 0.7320 0.7315 0.7300
1240.440245 0.7298 0.7290 0.7290 0.7288 0.7274
1246.850500 0.7244 0.7211 0.7160 0.7098 0.7021
1253.260755 0.6951 0.6813 0.6624 0.6507 0.6480
1259.671010 0.6480 0.6480 0.6480 0.6478 0.6439
1266.081265 0.6419 0.6387 0.6301 0.5964 0.5588
1272.491520 0.5212 0.5190 0.5190 0.5190 0.5190
1278.901775 0.5190 0.5171 0.5170 0.5170 0.5170
1285.312030 0.5215 0.5584 0.6060 0.6137 0.6234
1291.722285 0.6327 0.6340 0.6340 0.6340 0.5770
1298.132540 0.5544 0.5409 0.5169 0.5087 0.5095
1304.542795 0.5206 0.5277 0.5512 0.5823 0.5917
1310.953050 0.5920 0.5920 0.5927 0.5944 0.5950
1317.363305 0.5957 0.5953 0.5802 0.5669 0.5578
1323.773560 0.5516 0.5476 0.5448 0.5417 0.5366
1330.183815 0.5317 0.5294 0.5295 0.5327 0.5392
1336.594070 0.5435 0.5440 0.5400 0.5312 0.5194
1343.004325 0.5064 0.4963 0.4875 0.4785 0.4731
1349.414580 0.4724 0.4746 0.4782 0.4812 0.4845
1355.824835 0.4885 0.4987 0.5145 0.5321 0.5610
1362.235090 0.5748 0.5911 0.6003 0.6013 0.6020
1368.645345 0.6020 0.6017 0.6010 0.6008 0.6000
1375.055600 0.5989 0.5928 0.5817 0.5661 0.5512
1381.465855 0.5350 0.5125 0.4931 0.4775 0.4750
1387.876110 0.4753 0.4788 0.5052 0.6122 0.6170
1394.286365 0.6493 0.6653 0.6848 0.7396 0.7513
1400.696620 0.7790 0.7790 0.7790 0.7790 0.7770
1407.106875 0.7760 0.7750 0.7740 0.7721 0.7711
1413.517130 0.7701 0.7691 0.7690 0.7663 0.7651
1419.927385 0.7615 0.7584 0.7563 0.7534 0.7513
1426.337640 0.7476 0.7395 0.7273 0.7153 0.6962
1432.747895 0.6833 0.6708 0.6672 0.6678 0.6703
1439.158150 0.6717 0.6742 0.6772 0.6801 0.6838
1445.568405 0.6864 0.6904 0.6920 0.6920 0.6907
1451.978660 0.6867 0.6824 0.6785 0.6714 0.6613
1458.388915 0.6510 0.6399 0.6338 0.6313 0.6300
1464.799170 0.6300 0.6305 0.6310 0.6310 0.6320
1471.209425 0.6340 0.6390 0.6454 0.6595 0.6725
1477.619680 0.6790 0.6860 0.6860 0.6860 0.6843
1484.029935 0.6804 0.6760 0.6710 0.6657 0.6605
1490.440190 0.6573 0.6549 0.6527 0.6517 0.6488
1496.850445 0.6428 0.6391 0.6352 0.6301 0.6272
1503.260700 0.6237 0.6200 0.6180 0.6097 0.6009
1509.670955 0.5936 0.5800 0.5752 0.5714 0.5686
1516.081210 0.5650 0.5542 0.5482 0.5361 0.5230
1522.491465 0.5149 0.5047 0.4846 0.4717 0.4578
1528.901720 0.4432 0.4189 0.4022 0.3863 0.3697
1535.311975 0.3618 0.3538 0.3368 0.3140 0.3051
1541.722230 0.2982 0.2951 0.2893 0.2890 0.2937
1548.132485 0.3190 0.3347 0.3469 0.3850 0.3890
1554.542740 0.3881 0.3802 0.3704 0.3469 0.3254
1560.952995 0.3021 0.2833 0.2653 0.2201 0.1909
1567.363250 0.1671 0.1411 0.1098 0.0847 0.0626
1573.773505 0.0555 0.0550 0.0550 0.0550 0.0564
1580.183760 0.0584 0.0644 0.0737 0.1020 0.1292
1586.594015 0.1478 0.1646 0.1915 0.2151 0.2335
1593.004270 0.2440 0.2460 0.2420 0.2362 0.2169
1599.414525 0.1943 0.1785 0.1484 0.1197 0.1044
1605.824780 0.0960 0.0950 0.0950 0.0950 0.0950
1612.235035 0.1012 0.1194 0.1595 0.2077 0.2345
1618.645290 0.2697 0.3083 0.3309 0.3601 0.3808
1625.055545 0.4000 0.4144 0.4187 0.4236 0.4286
1631.465800 0.4341 0.4381 0.4349 0.4309 0.4264
1637.876055 0.4205 0.4143 0.4078 0.4015 0.3912
1644.286310 0.3814 0.3644 0.3430 0.3095 0.2895
1650.696565 0.2667 0.2329 0.1981 0.1622 0.1267
1657.106820 0.0950 0.0862 0.0784 0.0713 0.0635
1663.517075 0.0563 0.0459 0.0440 0.0440 0.0453
1669.927330 0.0552 0.0651 0.0760 0.1617 0.2098
1676.337585 0.2361 0.2570 0.2825 0.2925 0.3088
1682.747840 0.3091 0.3081 0.2963 0.2870 0.2781
1689.158095 0.2596 0.2407 0.2219 0.2030 0.1850
1695.568350 0.1663 0.1321 0.1121 0.1034 0.0965
1701.978605 0.0826 0.0683 0.0537 0.0433 0.0373
1708.388860 0.0345 0.0347 0.0385 0.0532 0.0672
1714.799115 0.1028 0.1686 0.2104 0.2320 0.2506
1721.209370 0.2798 0.3067 0.3193 0.3394 0.3640
1727.619625 0.3829 0.4002 0.4192 0.4474 0.4696
1734.029880 0.4852 0.4961 0.5006 0.5080 0.5184
1740.440135 0.5424 0.5663 0.5756 0.5878 0.6019
1746.850390 0.6174 0.6413 0.6628 0.6717 0.6810
1753.260645 0.6920 0.7049 0.7156 0.7243 0.7345
1759.670900 0.7421 0.7487 0.7506 0.7523 0.7554
1766.081155 0.7625 0.7699 0.7814 0.7853 0.7865
1772.491410 0.7885 0.7902 0.7917 0.7944 0.7972
1778.901665 0.8030 0.8081 0.8133 0.8162 0.8230
1785.311920 0.8288 0.8334 0.8367 0.8411 0.8420
1791.722175 0.8421 0.8432 0.8451 0.8461 0.8473
1798.132430 0.8511 0.8521 0.8541 0.8560 0.8570
1804.542685 0.8600 0.8610 0.8610 0.8620 0.8620
1810.952940 0.8639 0.8640 0.8649 0.8650 0.8659
1817.363195 0.8660 0.8660 0.8678 0.8689 0.8690
1823.773450 0.8707 0.8744 0.8758 0.8777 0.8780
1830.183705 0.8788 0.8790 0.8806 0.8810 0.8810
1836.593960 0.8825 0.8838 0.8870 0.8909 0.8920
1843.004215 0.8927 0.8937 0.8940 0.8947 0.8977
1849.414470 0.8990 0.9003 0.9010 0.9010 0.9010
1855.824725 0.9016 0.9020 0.9032 0.9058 0.9076
1862.234980 0.9080 0.9080 0.9097 0.9110 0.9110
1868.645235 0.9110 0.9100 0.9090 0.9090 0.9085
1875.055490 0.9080 0.9080 0.9080 0.9080 0.9080
1881.465745 0.9093 0.9114 0.9120 0.9124 0.9130
1887.876000 0.9134 0.9136 0.9134 0.9140 0.9147
1894.286255 0.9160 0.9163 0.9173 0.9186 0.9203
1900.696510 0.9207 0.9203 0.9210 0.9210 0.9212
1907.106765 0.9218 0.9212 0.9220 0.9220 0.9220
1913.517020 0.9222 0.9234 0.9252 0.9263 0.9280
1919.927275 0.9283 0.9301 0.9310 0.9311 0.9320
1926.337530 0.9322 0.9340 0.9340 0.9340 0.9340
1932.747785 0.9340 0.9340 0.9340 0.9340 0.9340
1939.158040 0.9340 0.9340 0.9340 0.9340 0.9340
1945.568295 0.9340 0.9340 0.9340 0.9340 0.9349
1951.978550 0.9350 0.9350 0.9350 0.9359 0.9360
1958.388805 0.9369 0.9370 0.9370 0.9370 0.9370
1964.799060 0.9370 0.9370 0.9370 0.9370 0.9370
1971.209315 0.9370 0.9370 0.9370 0.9370 0.9370
1977.619570 0.9370 0.9370 0.9370 0.9370 0.9363
1984.029825 0.9360 0.9360 0.9360 0.9360 0.9360
1990.440080 0.9360 0.9360 0.9360 0.9360 0.9354
1996.850335 0.9350 0.9350 0.9350 0.9350 0.9345
2003.260590 0.9340 0.9340 0.9340 0.9340 0.9340
2009.670845 0.9340 0.9340 0.9329 0.9320 0.9320
2016.081100 0.9320 0.9315 0.9310 0.9305 0.9300
2022.491355 0.9300 0.9289 0.9280 0.9280 0.9280
2028.901610 0.9280 0.9280 0.9280 0.9280 0.9280
2035.311865 0.9280 0.9280 0.9280 0.9280 0.9280
2041.722120 0.9280 0.9280 0.9280 0.9280 0.9280
2048.132375 0.9280 0.9280 0.9280 0.9280 0.9280
2054.542630 0.9280 0.9280 0.9280 0.9280 0.9280
2060.952885 0.9280 0.9280 0.9280 0.9280 0.9280
2067.363140 0.9280 0.9291 0.9300 0.9300 0.9300
2073.773395 0.9305 0.9310 0.9310 0.9315 0.9320
2080.183650 0.9331 0.9340 0.9345 0.9355 0.9360
2086.593905 0.9365 0.9381 0.9390 0.9395 0.9400
2093.004160 0.9400 0.9400 0.9400 0.9405 0.9415
2099.414415 0.9420 0.9431 0.9445 0.9450 0.9455
2105.824670 0.9460 0.9460 0.9460 0.9460 0.9460
2112.234925 0.9460 0.9460 0.9455 0.9455 0.9460
2118.645180 0.9460 0.9460 0.9460 0.9460 0.9460
2125.055435 0.9460 0.9460 0.9460 0.9460 0.9460
2131.465690 0.9460 0.9460 0.9460 0.9460 0.9460
2137.875945 0.9460 0.9460 0.9460 0.9460 0.9460
2144.286200 0.9465 0.9470 0.9470 0.9470 0.9470
2150.696455 0.9470 0.9470 0.9470 0.9470 0.9470
2157.106710 0.9470 0.9470 0.9470 0.9470 0.9470
2163.516965 0.9470 0.9470 0.9470 0.9470 0.9470
2169.927220 0.9470 0.9470 0.9470 0.9470 0.9470
2176.337475 0.9470 0.9470 0.9470 0.9470 0.9470
2182.747730 0.9470 0.9465 0.9460 0.9455 0.9450
2189.157985 0.9445 0.9440 0.9429 0.9409 0.9405
2195.568240 0.9410 0.9410 0.9410 0.9410 0.9410
2201.978495 0.9410 0.9410 0.9405 0.9400 0.9400
2208.388750 0.9400 0.9400 0.9405 0.9410 0.9426
2214.799005 0.9445 0.9455 0.9460 0.9465 0.9470
2221.209260 0.9470 0.9470 0.9470 0.9470 0.9481
2227.619515 0.9490 0.9490 0.9479 0.9470 0.9470
2234.029770 0.9465 0.9460 0.9460 0.9455 0.9450
2240.440025 0.9450 0.9450 0.9450 0.9450 0.9445
2246.850280 0.9429 0.9415 0.9410 0.9410 0.9405
2253.260535 0.9400 0.9400 0.9400 0.9400 0.9395
2259.670790 0.9390 0.9379 0.9370 0.9365 0.9360
2266.081045 0.9355 0.9350 0.9350 0.9328 0.9294
2272.491300 0.9280 0.9275 0.9270 0.9265 0.9260
2278.901555 0.9255 0.9239 0.9230 0.9230 0.9230
2285.311810 0.9230 0.9230 0.9230 0.9230 0.9230
2291.722065 0.9230 0.9230 0.9230 0.9241 0.9261
2298.132320 0.9275 0.9296 0.9315 0.9320 0.9331
2304.542575 0.9345 0.9355 0.9365 0.9381 0.9390
2310.952830 0.9401 0.9426 0.9445 0.9450 0.9455
2317.363085 0.9465 0.9470 0.9481 0.9490 0.9490
2323.773340 0.9490 0.9490 0.9490 0.9495 0.9500
2330.183595 0.9500 0.9500 0.9500 0.9500 0.9500
2336.593850 0.9500 0.9500 0.9500 0.9500 0.9500
2343.004105 0.9500 0.9500 0.9500 0.9500 0.9500
2349.414360 0.9500 0.9500 0.9500 0.9500 0.9500
2355.824615 0.9500 0.9500 0.9500 0.9500 0.9500
2362.234870 0.9495 0.9490 0.9479 0.9470 0.9470
2368.645125 0.9465 0.9460 0.9449 0.9429 0.9415
2375.055380 0.9405 0.9384 0.9365 0.9349 0.9329
2381.465635 0.9315 0.9305 0.9289 0.9280 0.9280
2387.875890 0.9280 0.9280 0.9291 0.9289 0.9280
2394.286145 0.9280 0.9275 0.9275 0.9280 0.9291
2400.696400 0.9300 0.9300 0.9305 0.9310 0.9310
2407.106655 0.9310 0.9310 0.9310 0.9310 0.9310
2413.516910 0.9310 0.9310 0.9310 0.9310 0.9315
2419.927165 0.9315 0.9310 0.9305 0.9305 0.9305
2426.337420 0.9289 0.9280 0.9264 0.9250 0.9250
2432.747675 0.9250 0.9250 0.9239 0.9230 0.9230
2439.157930 0.9230 0.9230 0.9230 0.9230 0.9230
2445.568185 0.9230 0.9230 0.9230 0.9230 0.9230
2451.978440 0.9230 0.9230 0.9230 0.9230 0.9230
2458.388695 0.9241 0.9250 0.9250 0.9250 0.9239
2464.798950 0.9230 0.9230 0.9230 0.9241 0.9250
2471.209205 0.9250 0.9261 0.9265 0.9260 0.9260
2477.619460 0.9260 0.9260 0.9260 0.9260 0.9260
2484.029715 0.9260 0.9260 0.9260 0.9260 0.9260
2490.439970 0.9260 0.9260 0.9255 0.9250 0.9250
2496.850225 0.9250 0.9239 0.9230 0.9230 0.9230
2503.260480 0.9225 0.9220 0.9220 0.9215 0.9210
2509.670735 0.9210 0.9205 0.9200 0.9189 0.9175
2516.080990 0.9165 0.9149 0.9140 0.9140 0.9140
2522.491245 0.9151 0.9149 0.9140 0.9140 0.9140
2528.901500 0.9140 0.9140 0.9135 0.9130 0.9130
2535.311755 0.9125 0.9120 0.9120 0.9115 0.9110
2541.722010 0.9110 0.9110 0.9099 0.9090 0.9101
2548.132265 0.9110 0.9110 0.9110 0.9110 0.9110
2554.542520 0.9110 0.9110 0.9099 0.9101 0.9110
2560.952775 0.9110 0.9110 0.9110 0.9110 0.9110
2567.363030 0.9110 0.9110 0.9110 0.9110 0.9110
2573.773285 0.9110 0.9110 0.9110 0.9110 0.9110
2580.183540 0.9110 0.9110 0.9110 0.9110 0.9110
2586.593795 0.9110 0.9110 0.9110 0.9110 0.9110
2593.004050 0.9110 0.9110 0.9110 0.9110 0.9110
2599.414305 0.9110 0.9110 0.9110 0.9099 0.9090
2605.824560 0.9090 0.9090 0.9085 0.9080 0.9075
2612.234815 0.9070 0.9065 0.9060 0.9044 0.9025
2618.645070 0.9004 0.8990 0.8985 0.8980 0.8980
2625.055325 0.8975 0.8970 0.8959 0.8950 0.8945
2631.465580 0.8935 0.8925 0.8904 0.8890 0.8885
2637.875835 0.8880 0.8875 0.8870 0.8859 0.8850
2644.286090 0.8845 0.8840 0.8835 0.8830 0.8830
2650.696345 0.8830 0.8835 0.8835 0.8830 0.8830
2657.106600 0.8830 0.8819 0.8805 0.8800 0.8795
2663.516855 0.8790 0.8785 0.8780 0.8769 0.8755
2669.927110 0.8745 0.8735 0.8730 0.8719 0.8699
2676.337365 0.8685 0.8680 0.8669 0.8655 0.8650
2682.747620 0.8650 0.8645 0.8629 0.8615 0.8610
2689.157875 0.8599 0.8579 0.8570 0.8570 0.8570
2695.568130 0.8570 0.8570 0.8570 0.8570 0.8581
2701.978385 0.8579 0.8570 0.8570 0.8570 0.8570
2708.388640 0.8570 0.8570 0.8565 0.8560 0.8560
2714.798895 0.8560 0.8555 0.8550 0.8550 0.8545
2721.209150 0.8529 0.8520 0.8520 0.8520 0.8515
2727.619405 0.8510 0.8510 0.8510 0.8505 0.8489
2734.029660 0.8480 0.8475 0.8465 0.8460 0.8455
2740.439915 0.8450 0.8450 0.8439 0.8430 0.8419
2746.850170 0.8394 0.8380 0.8369 0.8360 0.8355
2753.260425 0.8355 0.8355 0.8339 0.8325 0.8298
2759.670680 0.8247 0.8215 0.8199 0.8185 0.8175
2766.080935 0.8159 0.8139 0.8114 0.8100 0.8095
2772.491190 0.8090 0.8085 0.8080 0.8064 0.8050
2778.901445 0.8045 0.8040 0.8035 0.8025 0.8020
2785.311700 0.8020 0.8020 0.8009 0.8000 0.7995
2791.721955 0.7990 0.7990 0.7990 0.7990 0.7990
2798.132210 0.7990 0.7990 0.7985 0.7980 0.7969
2804.542465 0.7955 0.7950 0.7945 0.7935 0.7930
2810.952720 0.7919 0.7910 0.7910 0.7905 0.7895
2817.362975 0.7885 0.7869 0.7855 0.7850 0.7845
2823.773230 0.7829 0.7815 0.7805 0.7795 0.7790
2830.183485 0.7779 0.7765 0.7755 0.7745 0.7729
2836.593740 0.7720 0.7715 0.7705 0.7695 0.7679
2843.003995 0.7665 0.7660 0.7655 0.7639 0.7625
2849.414250 0.7609 0.7589 0.7575 0.7565 0.7555
2855.824505 0.7539 0.7525 0.7515 0.7505 0.7489
2862.234760 0.7475 0.7465 0.7449 0.7440 0.7435
2868.645015 0.7419 0.7399 0.7385 0.7369 0.7349
2875.055270 0.7329 0.7309 0.7300 0.7295 0.7279
2881.465525 0.7259 0.7245 0.7229 0.7209 0.7189
2887.875780 0.7158 0.7124 0.7083 0.6984 0.6893
2894.286035 0.6854 0.6818 0.6778 0.6738 0.6698
2900.696290 0.6658 0.6624 0.6588 0.6548 0.6508
2907.106545 0.6468 0.6445 0.6413 0.6363 0.6291
2913.516800 0.6239 0.6203 0.6137 0.6073 0.6028
2919.927055 0.6005 0.5962 0.5914 0.5889 0.5864
2926.337310 0.5834 0.5777 0.5724 0.5688 0.5643
2932.747565 0.5604 0.5579 0.5559 0.5545 0.5535
2939.157820 0.5525 0.5509 0.5500 0.5495 0.5474
2945.568075 0.5444 0.5414 0.5378 0.5349 0.5340
2951.978330 0.5340 0.5340 0.5340 0.5340 0.5340
2958.388585 0.5340 0.5345 0.5366 0.5391 0.5422
2964.798840 0.5543 0.5641 0.5682 0.5737 0.5841
2971.209095 0.5958 0.6059 0.6148 0.6213 0.6273
2977.619350 0.6322 0.6372 0.6411 0.6447 0.6497
2984.029605 0.6531 0.6540 0.6540 0.6540 0.6535
2990.439860 0.6530 0.6530 0.6525 0.6520 0.6504
2996.850115 0.6485 0.6464 0.6439 0.6425 0.6409
3003.260370 0.6400 0.6400 0.6395 0.6385 0.6364
3009.670625 0.6328 0.6305 0.6295 0.6274 0.6255
3016.080880 0.6245 0.6235 0.6214 0.6195 0.6185
3022.491135 0.6169 0.6155 0.6150 0.6134 0.6115
3028.901390 0.6105 0.6084 0.6059 0.6028 0.5988
3035.311645 0.5965 0.5928 0.5884 0.5865 0.5844
3041.721900 0.5825 0.5815 0.5794 0.5775 0.5754
3048.132155 0.5735 0.5719 0.5694 0.5653 0.5603
3054.542410 0.5575 0.5548 0.5508 0.5485 0.5480
3060.952665 0.5464 0.5423 0.5378 0.5355 0.5328
3067.362920 0.5272 0.5229 0.5215 0.5178 0.5134
3073.773175 0.5115 0.5089 0.5032 0.4978 0.4933
3080.183430 0.4872 0.4802 0.4754 0.4702 0.4648
3086.593685 0.4603 0.4515 0.4438 0.4393 0.4337
3093.003940 0.4278 0.4212 0.4148 0.4088 0.4033
3099.414195 0.3988 0.3954 0.3935 0.3903 0.3858
3105.824450 0.3813 0.3758 0.3692 0.3628 0.3578
3112.234705 0.3533 0.3478 0.3439 0.3397 0.3327
3118.644960 0.3263 0.3208 0.3158 0.3129 0.3093
3125.055215 0.3048 0.3030 0.3014 0.2989 0.2964
3131.465470 0.2939 0.2919 0.2905 0.2900 0.2895
3137.875725 0.2890 0.2885 0.2880 0.2880 0.2880
3144.285980 0.2885 0.2890 0.2890 0.2895 0.2905
3150.696235 0.2921 0.2941 0.2955 0.2976 0.3006
3157.106490 0.3047 0.3097 0.3131 0.3156 0.3175
3163.516745 0.3207 0.3235 0.3267 0.3312 0.3368
3169.927000 0.3411 0.3442 0.3487 0.3537 0.3587
3176.337255 0.3658 0.3716 0.3746 0.3776 0.3801
3182.747510 0.3821 0.3841 0.3866 0.3907 0.3952
3189.157765 0.3975 0.3996 0.4015 0.4020 0.4020
3195.568020 0.4020 0.4020 0.4020 0.4020 0.4020
3201.978275 0.4020 0.4020 0.4015 0.4010 0.3999
3208.388530 0.3990 0.3985 0.3980 0.3975 0.3959
3214.798785 0.3945 0.3918 0.3889 0.3864 0.3845
3221.209040 0.3835 0.3819 0.3810 0.3810 0.3799
3227.619295 0.3790 0.3785 0.3769 0.3755 0.3728
3234.029550 0.3705 0.3695 0.3685 0.3658 0.3618
3240.439805 0.3584 0.3554 0.3529 0.3515 0.3488
3246.850060 0.3465 0.3444 0.3425 0.3409 0.3384
3253.260315 0.3365 0.3360 0.3355 0.3328 0.3310
3259.670570 0.3299 0.3290 0.3290 0.3285 0.3280
3266.080825 0.3275 0.3270 0.3265 0.3260 0.3249
3272.491080 0.3240 0.3235 0.3225 0.3215 0.3199
3278.901335 0.3190 0.3185 0.3180 0.3180 0.3175
3285.311590 0.3170 0.3159 0.3150 0.3145 0.3135
3291.721845 0.3130 0.3125 0.3109 0.3100 0.3095
3298.132100 0.3085 0.3075 0.3059 0.3050 0.3045
3304.542355 0.3035 0.3030 0.3025 0.3009 0.2995
3310.952610 0.2985 0.2969 0.2960 0.2955 0.2945
3317.362865 0.2935 0.2919 0.2910 0.2905 0.2900
3323.773120 0.2895 0.2885 0.2869 0.2860 0.2860
3330.183375 0.2860 0.2860 0.2860 0.2871 0.2885
3336.593630 0.2890 0.2890 0.2901 0.2910 0.2921
3343.003885 0.2946 0.2976 0.3006 0.3031 0.3045
3349.414140 0.3061 0.3086 0.3116 0.3141 0.3166
3355.824395 0.3185 0.3238 0.3307 0.3352 0.3375
3362.234650 0.3396 0.3432 0.3477 0.3511 0.3542
3368.644905 0.3603 0.3678 0.3726 0.3767 0.3817
3375.055160 0.3872 0.3938 0.4008 0.4078 0.4126
3381.465415 0.4135 0.4211 0.4329 0.4413 0.4472
3387.875670 0.4555 0.4653 0.4722 0.4788 0.4847
3394.285925 0.4902 0.4952 0.4997 0.5042 0.5082
3400.696180 0.5116 0.5152 0.5192 0.5232 0.5272
3407.106435 0.5306 0.5385 0.5472 0.5543 0.5591
3413.516690 0.5600 0.5660 0.5737 0.5776 0.5828
3419.926945 0.5871 0.5902 0.5947 0.5992 0.6037
3426.337200 0.6082 0.6127 0.6172 0.6212 0.6241
3432.747455 0.6272 0.6311 0.6368 0.6422 0.6467
3439.157710 0.6512 0.6552 0.6592 0.6626 0.6662
3445.567965 0.6702 0.6736 0.6766 0.6796 0.6832
3451.978220 0.6861 0.6881 0.6917 0.6945 0.6972
3458.388475 0.7017 0.7051 0.7082 0.7105 0.7126
3464.798730 0.7156 0.7175 0.7191 0.7211 0.7236
3471.208985 0.7288 0.7331 0.7351 0.7371 0.7380
3477.619240 0.7385 0.7401 0.7415 0.7425 0.7435
3484.029495 0.7451 0.7465 0.7475 0.7496 0.7532
3490.439750 0.7561 0.7570 0.7586 0.7605 0.7615
3496.850005 0.7620 0.7625 0.7641 0.7661 0.7686
3503.260260 0.7711 0.7731 0.7745 0.7761 0.7797
3509.670515 0.7858 0.7901 0.7910 0.7910 0.7910
3516.080770 0.7921 0.7930 0.7946 0.7976 0.8012
3522.491025 0.8035 0.8045 0.8066 0.8085 0.8095
3528.901280 0.8111 0.8125 0.8157 0.8180 0.8196
3535.311535 0.8215 0.8220 0.8220 0.8225 0.8252
3541.721790 0.8281 0.8290 0.8290 0.8306 0.8325
3548.132045 0.8346 0.8365 0.8375 0.8391 0.8405
3554.542300 0.8410 0.8415 0.8425 0.8441 0.8450
3560.952555 0.8461 0.8470 0.8475 0.8480 0.8491
3567.362810 0.8500 0.8505 0.8515 0.8542 0.8565
3573.773065 0.8570 0.8570 0.8570 0.8570 0.8570
3580.183320 0.8570 0.8581 0.8595 0.8605 0.8626
3586.593575 0.8645 0.8650 0.8666 0.8691 0.8700
3593.003830 0.8716 0.8741 0.8755 0.8771 0.8785
3599.414085 0.8795 0.8800 0.8805 0.8810 0.8821
3605.824340 0.8830 0.8835 0.8845 0.8861 0.8875
3612.234595 0.8885 0.8895 0.8911 0.8920 0.8931
3618.644850 0.8962 0.8980 0.9002 0.9025 0.9046
3625.055105 0.9065 0.9070 0.9097 0.9125 0.9135
3631.465360 0.9140 0.9151 0.9165 0.9170 0.9175
3637.875615 0.9191 0.9211 0.9225 0.9241 0.9250
3644.285870 0.9255 0.9260 0.9260 0.9265 0.9275
3650.696125 0.9296 0.9310 0.9315 0.9320 0.9331
3657.106380 0.9340 0.9345 0.9350 0.9345 0.9340
3663.516635 0.9340 0.9345 0.9355 0.9360 0.9360
3669.926890 0.9360 0.9365 0.9370 0.9370 0.9381
3676.337145 0.9390 0.9390 0.9390 0.9390 0.9390
3682.747400 0.9390 0.9390 0.9390 0.9395 0.9405
3689.157655 0.9415 0.9420 0.9431 0.9440 0.9440
3695.567910 0.9440 0.9440 0.9440 0.9440 0.9440
3701.978165 0.9440 0.9440 0.9440 0.9440 0.9440
3708.388420 0.9440 0.9440 0.9440 0.9440 0.9445
3714.798675 0.9450 0.9450 0.9455 0.9460 0.9465
3721.208930 0.9470 0.9470 0.9470 0.9470 0.9470
3727.619185 0.9470 0.9470 0.9470 0.9470 0.9470
3734.029440 0.9470 0.9470 0.9470 0.9470 0.9481
3740.439695 0.9490 0.9490 0.9490 0.9490 0.9479
3746.849950 0.9470 0.9481 0.9490 0.9490 0.9490
3753.260205 0.9490 0.9490 0.9495 0.9500 0.9495
3759.670460 0.9490 0.9495 0.9500 0.9505 0.9521
3766.080715 0.9530 0.9530 0.9530 0.9530 0.9535
3772.490970 0.9540 0.9551 0.9571 0.9580 0.9580
3778.901225 0.9585 0.9590 0.9590 0.9590 0.9590
3785.311480 0.9595 0.9595 0.9590 0.9590 0.9590
3791.721735 0.9595 0.9600 0.9600 0.9600 0.9600
3798.131990 0.9600 0.9600 0.9600 0.9600 0.9595
3804.542245 0.9585 0.9580 0.9580 0.9580 0.9569
3810.952500 0.9560 0.9555 0.9545 0.9535 0.9514
3817.362755 0.9500 0.9500 0.9495 0.9490 0.9479
3823.773010 0.9470 0.9465 0.9460 0.9460 0.9455
3830.183265 0.9450 0.9450 0.9450 0.9450 0.9450
3836.593520 0.9450 0.9450 0.9450 0.9450 0.9445
3843.003775 0.9440 0.9440 0.9440 0.9440 0.9440
3849.414030 0.9440 0.9440 0.9440 0.9440 0.9440
3855.824285 0.9440 0.9440 0.9440 0.9440 0.9440
3862.234540 0.9440 0.9445 0.9450 0.9450 0.9455
3868.644795 0.9460 0.9460 0.9460 0.9460 0.9460
3875.055050 0.9460 0.9460 0.9460 0.9460 0.9460
3881.465305 0.9460 0.9460 0.9460 0.9460 0.9460
3887.875560 0.9460 0.9460 0.9460 0.9460 0.9460
3894.285815 0.9460 0.9460 0.9460 0.9460 0.9460
3900.696070 0.9460 0.9460 0.9460 0.9460 0.9460
3907.106325 0.9460 0.9460 0.9460 0.9460 0.9460
3913.516580 0.9460 0.9460 0.9460 0.9460 0.9460
3919.926835 0.9455 0.9450 0.9450 0.9450 0.9450
3926.337090 0.9450 0.9450 0.9445 0.9440 0.9440
3932.747345 0.9440 0.9440 0.9429 0.9420 0.9420
3939.157600 0.9420 0.9420 0.9420 0.9420 0.9420
3945.567855 0.9420 0.9420 0.9420 0.9420 0.9420
3951.978110 0.9420 0.9420 0.9420 0.9420 0.9420
3958.388365 0.9420 0.9420 0.9420 0.9415 0.9410
3964.798620 0.9410 0.9410 0.9410 0.9410 0.9410
3971.208875 0.9410 0.9410 0.9410 0.9410 0.9410
3977.619130 0.9410 0.9410 0.9410 0.9410 0.9410
3984.029385 0.9410 0.9410 0.9410 0.9410 0.9410
3990.439640 0.9410 0.9410 0.9410 0.9405 0.9400
3996.849895 0.9395 0.9390 0.9379 0.9365 0.9360
4003.260150 0.9360 0.9360 0.9360 0.9360 0.9376
4009.670405 0.9390 0.9379 0.9365 0.9360 0.9360
4016.080660 0.9360 0.9360 0.9360
##END=
