##TITLE=COPPER ACETATE, HYDRATE
##JCAMP-DX=4.24
$$ By DXEDIT 1.05 (RS McDonald)
##DATA TYPE=INFRARED SPECTRUM
##CLASS=COBLENTZ III
##ORIGIN=DOW CHEMICAL COMPANY
##OWNER=COBLENTZ SOC.
Collection (C) 2018 copyright by the U.S. Secretary of Commerce
on behalf of the United States of America. All rights reserved.
##DATE=1959/04/02
##MOLFORM=C4 H6 Cu O4  * H2 O
##SOURCE REFERENCE=COBLENTZ NO. 05730
##$NIST ID=B6005730
##$NIST SOURCE=COBLENTZ
##$NIST IMAGE=cob5730
##SPECTROMETER/DATA SYSTEM=DOW KBr FOREPRISM-GRATING
##INSTRUMENT PARAMETERS=BLAZED AT 3.5, 12.0, 20.0 MICRON AND CHANGED AT 5.0, 7.5, 14.9 MICRON
##STATE=SOLID (SPLIT MULL)
##SAMPLING PROCEDURE=TRANSMISSION
##RESOLUTION=2
##DATA PROCESSING=DIGITIZED BY COBLENTZ SOCIETY (BATCH I) FROM HARD COPY
##XUNITS=1/CM
##YUNITS=TRANSMITTANCE
##XLABEL=Wavenumbers (cm-1)
##YLABEL=% Transmission
##XFACTOR=1
##YFACTOR=1
##DELTAX=1
##FIRSTX=3788
##LASTX=452
##FIRSTY=0.8906
##MAXX=3788
##MINX=452
##MAXY=0.917
##MINY=0.044
##NPOINTS=3337
##XYDATA=(X++(Y..Y))
3788.000000 0.8906 0.8880 0.8854 0.8837 0.8821
3783.000000 0.8816 0.8812 0.8807 0.8803 0.8799
3778.000000 0.8799 0.8800 0.8805 0.8813 0.8821
3773.000000 0.8828 0.8837 0.8845 0.8854 0.8862
3768.000000 0.8871 0.8880 0.8889 0.8897 0.8906
3763.000000 0.8911 0.8917 0.8921 0.8927 0.8931
3758.000000 0.8936 0.8939 0.8942 0.8942 0.8942
3753.000000 0.8942 0.8941 0.8936 0.8932 0.8927
3748.000000 0.8923 0.8918 0.8914 0.8913 0.8913
3743.000000 0.8918 0.8925 0.8931 0.8937 0.8937
3738.000000 0.8937 0.8937 0.8936 0.8934 0.8933
3733.000000 0.8932 0.8931 0.8928 0.8927 0.8925
3728.000000 0.8924 0.8921 0.8920 0.8918 0.8916
3723.000000 0.8914 0.8912 0.8910 0.8909 0.8907
3718.000000 0.8905 0.8904 0.8904 0.8903 0.8902
3713.000000 0.8898 0.8894 0.8884 0.8875 0.8865
3708.000000 0.8855 0.8845 0.8836 0.8824 0.8813
3703.000000 0.8800 0.8787 0.8785 0.8784 0.8789
3698.000000 0.8795 0.8800 0.8805 0.8810 0.8816
3693.000000 0.8821 0.8825 0.8828 0.8833 0.8837
3688.000000 0.8841 0.8844 0.8848 0.8851 0.8855
3683.000000 0.8859 0.8852 0.8866 0.8870 0.8871
3678.000000 0.8875 0.8868 0.8863 0.8857 0.8851
3673.000000 0.8845 0.8839 0.8830 0.8821 0.8810
3668.000000 0.8800 0.8789 0.8778 0.8768 0.8758
3663.000000 0.8757 0.8757 0.8757 0.8758 0.8761
3658.000000 0.8764 0.8768 0.8771 0.8775 0.8780
3653.000000 0.8784 0.8788 0.8792 0.8792 0.8791
3648.000000 0.8785 0.8778 0.8771 0.8763 0.8756
3643.000000 0.8748 0.8741 0.8733 0.8725 0.8723
3638.000000 0.8721 0.8718 0.8716 0.8713 0.8711
3633.000000 0.8708 0.8706 0.8703 0.8701 0.8698
3628.000000 0.8696 0.8693 0.8691 0.8688 0.8685
3623.000000 0.8682 0.8680 0.8677 0.8675 0.8671
3618.000000 0.8668 0.8656 0.8645 0.8634 0.8623
3613.000000 0.8612 0.8601 0.8590 0.8578 0.8558
3608.000000 0.8538 0.8513 0.8489 0.8467 0.8445
3603.000000 0.8424 0.8404 0.8384 0.8364 0.8344
3598.000000 0.8324 0.8303 0.8283 0.8263 0.8243
3593.000000 0.8225 0.8207 0.8190 0.8174 0.8157
3588.000000 0.8140 0.8122 0.8107 0.8090 0.8072
3583.000000 0.8056 0.8040 0.8022 0.8006 0.7989
3578.000000 0.7972 0.7956 0.7939 0.7918 0.7898
3573.000000 0.7876 0.7857 0.7836 0.7815 0.7796
3568.000000 0.7775 0.7755 0.7735 0.7714 0.7694
3563.000000 0.7662 0.7633 0.7600 0.7567 0.7534
3558.000000 0.7501 0.7468 0.7436 0.7406 0.7376
3553.000000 0.7349 0.7321 0.7292 0.7264 0.7235
3548.000000 0.7207 0.7178 0.7150 0.7117 0.7084
3543.000000 0.7050 0.7015 0.6981 0.6947 0.6912
3538.000000 0.6878 0.6844 0.6810 0.6775 0.6740
3533.000000 0.6704 0.6668 0.6633 0.6598 0.6561
3528.000000 0.6526 0.6492 0.6458 0.6426 0.6397
3523.000000 0.6367 0.6337 0.6307 0.6277 0.6246
3518.000000 0.6216 0.6186 0.6156 0.6121 0.6086
3513.000000 0.6031 0.5976 0.5920 0.5865 0.5814
3508.000000 0.5762 0.5716 0.5670 0.5632 0.5595
3503.000000 0.5562 0.5531 0.5479 0.5427 0.5389
3498.000000 0.5352 0.5324 0.5297 0.5231 0.5166
3493.000000 0.5121 0.5077 0.5039 0.5002 0.4966
3488.000000 0.4931 0.4917 0.4903 0.4896 0.4889
3483.000000 0.4885 0.4876 0.4882 0.4883 0.4892
3478.000000 0.4902 0.4919 0.4936 0.4954 0.4972
3473.000000 0.4993 0.5015 0.5036 0.5058 0.5080
3468.000000 0.5102 0.5123 0.5145 0.5166 0.5188
3463.000000 0.5209 0.5231 0.5252 0.5273 0.5294
3458.000000 0.5315 0.5335 0.5355 0.5375 0.5396
3453.000000 0.5416 0.5437 0.5457 0.5478 0.5497
3448.000000 0.5517 0.5536 0.5556 0.5576 0.5596
3443.000000 0.5615 0.5635 0.5655 0.5675 0.5695
3438.000000 0.5716 0.5736 0.5756 0.5770 0.5784
3433.000000 0.5796 0.5808 0.5812 0.5816 0.5820
3428.000000 0.5824 0.5828 0.5832 0.5834 0.5837
3423.000000 0.5836 0.5835 0.5834 0.5834 0.5828
3418.000000 0.5823 0.5812 0.5803 0.5793 0.5783
3413.000000 0.5773 0.5762 0.5734 0.5706 0.5672
3408.000000 0.5638 0.5598 0.5558 0.5491 0.5424
3403.000000 0.5362 0.5301 0.5243 0.5185 0.5139
3398.000000 0.5094 0.5055 0.5017 0.4979 0.4941
3393.000000 0.4890 0.4839 0.4766 0.4693 0.4646
3388.000000 0.4600 0.4560 0.4520 0.4493 0.4467
3383.000000 0.4451 0.4435 0.4417 0.4399 0.4393
3378.000000 0.4387 0.4387 0.4388 0.4392 0.4396
3373.000000 0.4416 0.4436 0.4522 0.4608 0.4657
3368.000000 0.4706 0.4753 0.4800 0.4847 0.4894
3363.000000 0.4942 0.4990 0.5038 0.5086 0.5143
3358.000000 0.5201 0.5281 0.5360 0.5435 0.5509
3353.000000 0.5573 0.5637 0.5701 0.5766 0.5812
3348.000000 0.5859 0.5899 0.5940 0.5981 0.6022
3343.000000 0.6062 0.6103 0.6139 0.6176 0.6210
3338.000000 0.6246 0.6281 0.6317 0.6351 0.6385
3333.000000 0.6418 0.6451 0.6485 0.6518 0.6551
3328.000000 0.6585 0.6608 0.6633 0.6653 0.6672
3323.000000 0.6692 0.6711 0.6732 0.6751 0.6771
3318.000000 0.6792 0.6811 0.6832 0.6854 0.6875
3313.000000 0.6903 0.6930 0.6956 0.6983 0.7008
3308.000000 0.7034 0.7054 0.7075 0.7090 0.7106
3303.000000 0.7115 0.7125 0.7125 0.7135 0.7121
3298.000000 0.7115 0.7106 0.7096 0.7076 0.7058
3293.000000 0.6978 0.6900 0.6818 0.6737 0.6628
3288.000000 0.6518 0.6483 0.6448 0.6417 0.6386
3283.000000 0.6362 0.6341 0.6320 0.6300 0.6281
3278.000000 0.6262 0.6252 0.6214 0.6231 0.6220
3273.000000 0.6214 0.6208 0.6203 0.6199 0.6198
3268.000000 0.6197 0.6209 0.6222 0.6257 0.6293
3263.000000 0.6359 0.6425 0.6476 0.6528 0.6580
3258.000000 0.6631 0.6678 0.6726 0.6775 0.6822
3253.000000 0.6867 0.6911 0.6951 0.6993 0.7034
3248.000000 0.7075 0.7115 0.7157 0.7196 0.7236
3243.000000 0.7262 0.7291 0.7318 0.7345 0.7371
3238.000000 0.7400 0.7426 0.7454 0.7481 0.7508
3233.000000 0.7535 0.7561 0.7578 0.7595 0.7611
3228.000000 0.7630 0.7647 0.7665 0.7682 0.7699
3223.000000 0.7715 0.7734 0.7751 0.7768 0.7786
3218.000000 0.7803 0.7815 0.7828 0.7841 0.7854
3213.000000 0.7865 0.7878 0.7892 0.7905 0.7917
3208.000000 0.7930 0.7943 0.7956 0.7968 0.7981
3203.000000 0.7993 0.8006 0.8015 0.8025 0.8032
3198.000000 0.8040 0.8048 0.8056 0.8062 0.8071
3193.000000 0.8078 0.8086 0.8093 0.8101 0.8108
3188.000000 0.8117 0.8124 0.8132 0.8139 0.8147
3183.000000 0.8154 0.8161 0.8169 0.8178 0.8185
3178.000000 0.8193 0.8200 0.8208 0.8216 0.8224
3173.000000 0.8231 0.8239 0.8247 0.8255 0.8263
3168.000000 0.8271 0.8278 0.8287 0.8295 0.8303
3163.000000 0.8310 0.8318 0.8325 0.8334 0.8342
3158.000000 0.8350 0.8358 0.8366 0.8371 0.8378
3153.000000 0.8383 0.8388 0.8392 0.8397 0.8402
3148.000000 0.8407 0.8412 0.8417 0.8421 0.8427
3143.000000 0.8432 0.8437 0.8442 0.8447 0.8451
3138.000000 0.8456 0.8461 0.8466 0.8471 0.8475
3133.000000 0.8481 0.8486 0.8490 0.8495 0.8498
3128.000000 0.8501 0.8504 0.8507 0.8509 0.8512
3123.000000 0.8515 0.8518 0.8520 0.8523 0.8525
3118.000000 0.8528 0.8531 0.8534 0.8536 0.8539
3113.000000 0.8541 0.8544 0.8547 0.8550 0.8552
3108.000000 0.8555 0.8557 0.8560 0.8562 0.8565
3103.000000 0.8567 0.8568 0.8571 0.8573 0.8575
3098.000000 0.8577 0.8578 0.8581 0.8583 0.8585
3093.000000 0.8586 0.8588 0.8589 0.8591 0.8592
3088.000000 0.8594 0.8596 0.8596 0.8596 0.8594
3083.000000 0.8590 0.8586 0.8584 0.8583 0.8582
3078.000000 0.8581 0.8578 0.8578 0.8577 0.8575
3073.000000 0.8575 0.8574 0.8573 0.8573 0.8573
3068.000000 0.8574 0.8574 0.8575 0.8575 0.8575
3063.000000 0.8575 0.8577 0.8578 0.8580 0.8581
3058.000000 0.8583 0.8584 0.8586 0.8587 0.8589
3053.000000 0.8590 0.8592 0.8594 0.8596 0.8598
3048.000000 0.8601 0.8603 0.8605 0.8607 0.8609
3043.000000 0.8611 0.8613 0.8615 0.8617 0.8621
3038.000000 0.8625 0.8631 0.8636 0.8635 0.8634
3033.000000 0.8624 0.8614 0.8598 0.8582 0.8567
3028.000000 0.8553 0.8543 0.8534 0.8539 0.8544
3023.000000 0.8549 0.8555 0.8560 0.8566 0.8568
3018.000000 0.8571 0.8574 0.8577 0.8578 0.8581
3013.000000 0.8583 0.8586 0.8588 0.8591 0.8593
3008.000000 0.8596 0.8596 0.8596 0.8594 0.8593
3003.000000 0.8591 0.8590 0.8577 0.8565 0.8552
2998.000000 0.8540 0.8527 0.8514 0.8501 0.8488
2993.000000 0.8474 0.8460 0.8442 0.8424 0.8411
2988.000000 0.8398 0.8389 0.8380 0.8377 0.8374
2983.000000 0.8371 0.8368 0.8374 0.8380 0.8391
2978.000000 0.8403 0.8413 0.8423 0.8432 0.8442
2973.000000 0.8452 0.8462 0.8471 0.8482 0.8489
2968.000000 0.8497 0.8499 0.8502 0.8504 0.8507
2963.000000 0.8510 0.8513 0.8515 0.8517 0.8518
2958.000000 0.8518 0.8520 0.8521 0.8523 0.8524
2953.000000 0.8525 0.8527 0.8521 0.8516 0.8500
2948.000000 0.8484 0.8465 0.8446 0.8425 0.8407
2943.000000 0.8390 0.8374 0.8360 0.8320 0.8336
2938.000000 0.8325 0.8318 0.8313 0.8309 0.8305
2933.000000 0.8303 0.8302 0.8308 0.8315 0.8321
2928.000000 0.8328 0.8334 0.8340 0.8344 0.8349
2923.000000 0.8353 0.8357 0.8361 0.8366 0.8370
2918.000000 0.8375 0.8378 0.8383 0.8390 0.8398
2913.000000 0.8408 0.8418 0.8428 0.8440 0.8450
2908.000000 0.8461 0.8477 0.8494 0.8512 0.8530
2903.000000 0.8543 0.8557 0.8567 0.8577 0.8586
2898.000000 0.8596 0.8606 0.8616 0.8621 0.8628
2893.000000 0.8632 0.8636 0.8640 0.8644 0.8647
2888.000000 0.8651 0.8655 0.8659 0.8663 0.8667
2883.000000 0.8670 0.8674 0.8677 0.8681 0.8683
2878.000000 0.8686 0.8688 0.8691 0.8693 0.8695
2873.000000 0.8697 0.8700 0.8702 0.8705 0.8707
2868.000000 0.8710 0.8712 0.8715 0.8717 0.8718
2863.000000 0.8720 0.8721 0.8723 0.8723 0.8723
2858.000000 0.8723 0.8716 0.8710 0.8704 0.8698
2853.000000 0.8692 0.8686 0.8678 0.8673 0.8665
2848.000000 0.8658 0.8651 0.8644 0.8637 0.8630
2843.000000 0.8634 0.8639 0.8652 0.8666 0.8675
2838.000000 0.8685 0.8694 0.8704 0.8714 0.8724
2833.000000 0.8733 0.8743 0.8749 0.8755 0.8761
2828.000000 0.8767 0.8773 0.8778 0.8785 0.8830
2823.000000 0.8797 0.8803 0.8806 0.8810 0.8814
2818.000000 0.8818 0.8821 0.8825 0.8830 0.8834
2813.000000 0.8837 0.8841 0.8845 0.8849 0.8850
2808.000000 0.8851 0.8852 0.8853 0.8853 0.8854
2803.000000 0.8855 0.8856 0.8857 0.8858 0.8858
2798.000000 0.8859 0.8860 0.8861 0.8861 0.8862
2793.000000 0.8863 0.8864 0.8865 0.8866 0.8866
2788.000000 0.8867 0.8868 0.8868 0.8870 0.8871
2783.000000 0.8873 0.8875 0.8875 0.8877 0.8878
2778.000000 0.8880 0.8881 0.8883 0.8884 0.8886
2773.000000 0.8887 0.8888 0.8889 0.8891 0.8892
2768.000000 0.8894 0.8895 0.8897 0.8898 0.8899
2763.000000 0.8900 0.8902 0.8903 0.8905 0.8906
2758.000000 0.8908 0.8909 0.8911 0.8912 0.8913
2753.000000 0.8914 0.8916 0.8917 0.8918 0.8918
2748.000000 0.8920 0.8920 0.8921 0.8921 0.8921
2743.000000 0.8923 0.8924 0.8924 0.8925 0.8925
2738.000000 0.8927 0.8927 0.8928 0.8928 0.8930
2733.000000 0.8930 0.8931 0.8932 0.8933 0.8933
2728.000000 0.8933 0.8933 0.8934 0.8934 0.8935
2723.000000 0.8935 0.8935 0.8935 0.8936 0.8936
2718.000000 0.8936 0.8936 0.8937 0.8937 0.8937
2713.000000 0.8937 0.8936 0.8935 0.8934 0.8933
2708.000000 0.8933 0.8932 0.8931 0.8930 0.8930
2703.000000 0.8928 0.8928 0.8927 0.8927 0.8925
2698.000000 0.8925 0.8925 0.8925 0.8925 0.8925
2693.000000 0.8925 0.8925 0.8925 0.8925 0.8925
2688.000000 0.8927 0.8927 0.8927 0.8927 0.8927
2683.000000 0.8927 0.8928 0.8928 0.8931 0.8932
2678.000000 0.8934 0.8936 0.8938 0.8939 0.8941
2673.000000 0.8943 0.8945 0.8946 0.8948 0.8950
2668.000000 0.8952 0.8953 0.8955 0.8956 0.8958
2663.000000 0.8960 0.8962 0.8963 0.8965 0.8966
2658.000000 0.8968 0.8968 0.8971 0.8971 0.8974
2653.000000 0.8974 0.8974 0.8974 0.8975 0.8975
2648.000000 0.8974 0.8974 0.8971 0.8965 0.8958
2643.000000 0.8951 0.8944 0.8947 0.8950 0.8953
2638.000000 0.8957 0.8960 0.8963 0.8966 0.8968
2633.000000 0.8971 0.8975 0.8975 0.8975 0.8974
2628.000000 0.8973 0.8971 0.8970 0.8968 0.8967
2623.000000 0.8965 0.8964 0.8964 0.8964 0.8965
2618.000000 0.8967 0.8968 0.8970 0.8971 0.8971
2613.000000 0.8973 0.8975 0.8975 0.8978 0.8978
2608.000000 0.8980 0.8981 0.8983 0.8985 0.8987
2603.000000 0.8988 0.8990 0.8991 0.8993 0.8993
2598.000000 0.8993 0.8993 0.8991 0.8989 0.8988
2593.000000 0.8986 0.8984 0.8982 0.8981 0.8978
2588.000000 0.8977 0.8975 0.8974 0.8968 0.8965
2583.000000 0.8960 0.8956 0.8951 0.8946 0.8941
2578.000000 0.8937 0.8935 0.8933 0.8931 0.8928
2573.000000 0.8927 0.8925 0.8923 0.8921 0.8921
2568.000000 0.8921 0.8923 0.8925 0.8927 0.8930
2563.000000 0.8932 0.8934 0.8936 0.8939 0.8941
2558.000000 0.8944 0.8946 0.8948 0.8950 0.8952
2553.000000 0.8954 0.8956 0.8958 0.8960 0.8962
2548.000000 0.8964 0.8966 0.8968 0.8970 0.8971
2543.000000 0.8974 0.8975 0.8977 0.8978 0.8978
2538.000000 0.8978 0.8978 0.8978 0.8978 0.8978
2533.000000 0.8978 0.8978 0.8977 0.8977 0.8975
2528.000000 0.8975 0.8975 0.8975 0.8975 0.8975
2523.000000 0.8974 0.8974 0.8973 0.8973 0.8973
2518.000000 0.8973 0.8973 0.8974 0.8975 0.8975
2513.000000 0.8975 0.8977 0.8978 0.8978 0.8978
2508.000000 0.8980 0.8980 0.8978 0.8978 0.8977
2503.000000 0.8974 0.8971 0.8967 0.8964 0.8960
2498.000000 0.8957 0.8954 0.8951 0.8947 0.8944
2493.000000 0.8940 0.8937 0.8933 0.8930 0.8925
2488.000000 0.8923 0.8918 0.8915 0.8911 0.8908
2483.000000 0.8904 0.8900 0.8896 0.8893 0.8889
2478.000000 0.8885 0.8880 0.8875 0.8868 0.8864
2473.000000 0.8858 0.8852 0.8846 0.8841 0.8835
2468.000000 0.8830 0.8825 0.8823 0.8818 0.8818
2463.000000 0.8818 0.8823 0.8825 0.8830 0.8842
2458.000000 0.8854 0.8861 0.8868 0.8870 0.8871
2453.000000 0.8871 0.8871 0.8873 0.8873 0.8873
2448.000000 0.8873 0.8871 0.8871 0.8870 0.8868
2443.000000 0.8868 0.8867 0.8867 0.8868 0.8870
2438.000000 0.8873 0.8875 0.8877 0.8878 0.8882
2433.000000 0.8884 0.8887 0.8889 0.8892 0.8894
2428.000000 0.8894 0.8895 0.8894 0.8893 0.8893
2423.000000 0.8892 0.8891 0.8890 0.8889 0.8888
2418.000000 0.8887 0.8886 0.8886 0.8884 0.8883
2413.000000 0.8881 0.8880 0.8878 0.8877 0.8875
2408.000000 0.8874 0.8871 0.8871 0.8868 0.8868
2403.000000 0.8866 0.8865 0.8863 0.8862 0.8860
2398.000000 0.8859 0.8857 0.8856 0.8854 0.8852
2393.000000 0.8849 0.8847 0.8845 0.8843 0.8841
2388.000000 0.8839 0.8837 0.8835 0.8832 0.8830
2383.000000 0.8828 0.8825 0.8823 0.8821 0.8818
2378.000000 0.8816 0.8814 0.8812 0.8810 0.8808
2373.000000 0.8806 0.8804 0.8802 0.8800 0.8806
2368.000000 0.8813 0.8823 0.8833 0.8844 0.8855
2363.000000 0.8866 0.8877 0.8881 0.8881 0.8882
2358.000000 0.8878 0.8875 0.8871 0.8868 0.8865
2353.000000 0.8861 0.8857 0.8856 0.8855 0.8854
2348.000000 0.8854 0.8853 0.8852 0.8851 0.8850
2343.000000 0.8849 0.8849 0.8848 0.8847 0.8846
2338.000000 0.8846 0.8846 0.8845 0.8846 0.8849
2333.000000 0.8851 0.8853 0.8855 0.8857 0.8859
2328.000000 0.8861 0.8862 0.8863 0.8859 0.8855
2323.000000 0.8851 0.8847 0.8842 0.8838 0.8834
2318.000000 0.8830 0.8825 0.8821 0.8818 0.8815
2313.000000 0.8811 0.8808 0.8804 0.8801 0.8798
2308.000000 0.8795 0.8791 0.8788 0.8786 0.8785
2303.000000 0.8783 0.8782 0.8780 0.8778 0.8777
2298.000000 0.8775 0.8774 0.8773 0.8773 0.8773
2293.000000 0.8773 0.8773 0.8773 0.8773 0.8774
2288.000000 0.8775 0.8778 0.8781 0.8784 0.8787
2283.000000 0.8790 0.8793 0.8796 0.8796 0.8796
2278.000000 0.8793 0.8789 0.8785 0.8781 0.8778
2273.000000 0.8774 0.8770 0.8766 0.8763 0.8762
2268.000000 0.8762 0.8761 0.8761 0.8760 0.8760
2263.000000 0.8760 0.8761 0.8764 0.8767 0.8768
2258.000000 0.8771 0.8775 0.8778 0.8781 0.8784
2253.000000 0.8786 0.8789 0.8790 0.8792 0.8793
2248.000000 0.8795 0.8796 0.8797 0.8798 0.8800
2243.000000 0.8801 0.8802 0.8803 0.8805 0.8806
2238.000000 0.8808 0.8810 0.8813 0.8815 0.8818
2233.000000 0.8820 0.8821 0.8824 0.8827 0.8828
2228.000000 0.8831 0.8832 0.8833 0.8834 0.8836
2223.000000 0.8837 0.8839 0.8840 0.8841 0.8842
2218.000000 0.8843 0.8844 0.8845 0.8846 0.8847
2213.000000 0.8848 0.8849 0.8850 0.8851 0.8852
2208.000000 0.8853 0.8853 0.8854 0.8855 0.8856
2203.000000 0.8857 0.8859 0.8860 0.8861 0.8862
2198.000000 0.8864 0.8865 0.8867 0.8868 0.8870
2193.000000 0.8871 0.8873 0.8874 0.8875 0.8877
2188.000000 0.8878 0.8878 0.8880 0.8881 0.8882
2183.000000 0.8883 0.8884 0.8885 0.8887 0.8888
2178.000000 0.8889 0.8890 0.8891 0.8894 0.8897
2173.000000 0.8899 0.8902 0.8904 0.8907 0.8910
2168.000000 0.8913 0.8916 0.8918 0.8925 0.8931
2163.000000 0.8937 0.8943 0.8949 0.8956 0.8967
2158.000000 0.8978 0.8989 0.9000 0.8997 0.8994
2153.000000 0.8991 0.8988 0.8985 0.8983 0.8978
2148.000000 0.8973 0.8968 0.8964 0.8959 0.8954
2143.000000 0.8950 0.8950 0.8949 0.8951 0.8952
2138.000000 0.8954 0.8956 0.8958 0.8960 0.8962
2133.000000 0.8964 0.8966 0.8967 0.8968 0.8971
2128.000000 0.8973 0.8975 0.8977 0.8978 0.8981
2123.000000 0.8982 0.8984 0.8985 0.8986 0.8987
2118.000000 0.8988 0.8989 0.8990 0.8991 0.8993
2113.000000 0.8994 0.8995 0.8996 0.8997 0.8998
2108.000000 0.8999 0.9000 0.9001 0.9003 0.9005
2103.000000 0.9007 0.9009 0.9011 0.9013 0.9015
2098.000000 0.9017 0.9018 0.9021 0.9023 0.9025
2093.000000 0.9027 0.9028 0.9030 0.9032 0.9033
2088.000000 0.9035 0.9036 0.9038 0.9039 0.9041
2083.000000 0.9042 0.9043 0.9044 0.9046 0.9047
2078.000000 0.9047 0.9047 0.9047 0.9047 0.9047
2073.000000 0.9046 0.9046 0.9045 0.9045 0.9044
2068.000000 0.9044 0.9044 0.9044 0.9043 0.9043
2063.000000 0.9044 0.9045 0.9046 0.9048 0.9050
2058.000000 0.9052 0.9054 0.9056 0.9058 0.9060
2053.000000 0.9061 0.9063 0.9065 0.9067 0.9068
2048.000000 0.9071 0.9073 0.9075 0.9077 0.9080
2043.000000 0.9082 0.9085 0.9087 0.9089 0.9091
2038.000000 0.9094 0.9096 0.9099 0.9101 0.9103
2033.000000 0.9104 0.9106 0.9106 0.9107 0.9107
2028.000000 0.9107 0.9107 0.9108 0.9108 0.9108
2023.000000 0.9108 0.9108 0.9106 0.9105 0.9103
2018.000000 0.9102 0.9100 0.9099 0.9098 0.9097
2013.000000 0.9097 0.9098 0.9098 0.9098 0.9098
2008.000000 0.9099 0.9099 0.9099 0.9099 0.9099
2003.000000 0.9101 0.9103 0.9107 0.9112 0.9116
1998.000000 0.9121 0.9125 0.9130 0.9135 0.9133
1993.000000 0.9128 0.9124 0.9120 0.9116 0.9113
1988.000000 0.9110 0.9107 0.9104 0.9101 0.9097
1983.000000 0.9094 0.9092 0.9091 0.9091 0.9091
1978.000000 0.9091 0.9090 0.9090 0.9092 0.9093
1973.000000 0.9094 0.9095 0.9097 0.9098 0.9099
1968.000000 0.9101 0.9102 0.9103 0.9105 0.9107
1963.000000 0.9111 0.9115 0.9118 0.9121 0.9123
1958.000000 0.9124 0.9127 0.9132 0.9137 0.9141
1953.000000 0.9146 0.9149 0.9151 0.9153 0.9154
1948.000000 0.9156 0.9158 0.9160 0.9161 0.9163
1943.000000 0.9165 0.9166 0.9168 0.9170 0.9170
1938.000000 0.9170 0.9168 0.9168 0.9167 0.9166
1933.000000 0.9165 0.9164 0.9163 0.9162 0.9161
1928.000000 0.9160 0.9159 0.9158 0.9157 0.9156
1923.000000 0.9155 0.9154 0.9154 0.9153 0.9152
1918.000000 0.9151 0.9150 0.9150 0.9149 0.9148
1913.000000 0.9147 0.9146 0.9146 0.9145 0.9145
1908.000000 0.9144 0.9144 0.9143 0.9143 0.9142
1903.000000 0.9142 0.9141 0.9141 0.9140 0.9140
1898.000000 0.9139 0.9138 0.9137 0.9136 0.9136
1893.000000 0.9135 0.9134 0.9133 0.9133 0.9132
1888.000000 0.9131 0.9130 0.9130 0.9128 0.9128
1883.000000 0.9127 0.9125 0.9125 0.9124 0.9121
1878.000000 0.9121 0.9118 0.9118 0.9116 0.9115
1873.000000 0.9113 0.9111 0.9110 0.9107 0.9105
1868.000000 0.9102 0.9099 0.9096 0.9094 0.9091
1863.000000 0.9088 0.9088 0.9088 0.9089 0.9090
1858.000000 0.9091 0.9092 0.9093 0.9094 0.9095
1853.000000 0.9096 0.9097 0.9098 0.9098 0.9098
1848.000000 0.9098 0.9098 0.9097 0.9097 0.9097
1843.000000 0.9097 0.9096 0.9096 0.9096 0.9096
1838.000000 0.9096 0.9095 0.9095 0.9095 0.9093
1833.000000 0.9092 0.9091 0.9089 0.9088 0.9087
1828.000000 0.9086 0.9084 0.9083 0.9082 0.9081
1823.000000 0.9078 0.9078 0.9075 0.9073 0.9071
1818.000000 0.9068 0.9067 0.9065 0.9062 0.9060
1813.000000 0.9058 0.9056 0.9055 0.9054 0.9054
1808.000000 0.9054 0.9054 0.9054 0.9053 0.9053
1803.000000 0.9053 0.9051 0.9049 0.9046 0.9044
1798.000000 0.9041 0.9039 0.9036 0.9034 0.9031
1793.000000 0.9028 0.9025 0.9025 0.9023 0.9021
1788.000000 0.9021 0.9020 0.9018 0.9018 0.9018
1783.000000 0.9020 0.9020 0.9021 0.9021 0.9023
1778.000000 0.9025 0.9028 0.9031 0.9034 0.9036
1773.000000 0.9039 0.9042 0.9041 0.9038 0.9035
1768.000000 0.9032 0.9028 0.9025 0.9023 0.9021
1763.000000 0.9021 0.9020 0.9018 0.9018 0.9016
1758.000000 0.9015 0.9011 0.9006 0.9001 0.8997
1753.000000 0.8992 0.8987 0.8982 0.8974 0.8965
1748.000000 0.8957 0.8927 0.8884 0.8843 0.8801
1743.000000 0.8785 0.8785 0.8785 0.8788 0.8792
1738.000000 0.8790 0.8782 0.8773 0.8746 0.8709
1733.000000 0.8728 0.8727 0.8725 0.8716 0.8706
1728.000000 0.8696 0.8690 0.8684 0.8678 0.8675
1723.000000 0.8670 0.8666 0.8687 0.8728 0.8758
1718.000000 0.8783 0.8795 0.8800 0.8799 0.8798
1713.000000 0.8783 0.8768 0.8753 0.8738 0.8738
1708.000000 0.8741 0.8752 0.8762 0.8773 0.8787
1703.000000 0.8806 0.8825 0.8842 0.8854 0.8866
1698.000000 0.8877 0.8841 0.8804 0.8799 0.8814
1693.000000 0.8825 0.8825 0.8813 0.8800 0.8787
1688.000000 0.8774 0.8762 0.8752 0.8760 0.8768
1683.000000 0.8777 0.8786 0.8799 0.8812 0.8825
1678.000000 0.8721 0.8645 0.8617 0.8607 0.8613
1673.000000 0.8618 0.8618 0.8618 0.8603 0.8555
1668.000000 0.8516 0.8518 0.8470 0.8323 0.8278
1663.000000 0.8257 0.8227 0.8181 0.8131 0.8071
1658.000000 0.8011 0.7953 0.7850 0.7708 0.7624
1653.000000 0.7575 0.7551 0.6425 0.6425 0.6425
1648.000000 0.6426 0.6431 0.6444 0.6596 0.6656
1643.000000 0.6708 0.6757 0.6795 0.6837 0.6808
1638.000000 0.6804 0.6695 0.6535 0.6365 0.6204
1633.000000 0.5983 0.5594 0.5089 0.4583 0.4078
1628.000000 0.3572 0.3067 0.2561 0.1996 0.1795
1623.000000 0.1684 0.1542 0.1335 0.1149 0.1005
1618.000000 0.0961 0.0926 0.0902 0.0879 0.0855
1613.000000 0.0751 0.0669 0.0591 0.0546 0.0523
1608.000000 0.0499 0.0477 0.0466 0.0440 0.0446
1603.000000 0.0443 0.0455 0.0473 0.0506 0.0550
1598.000000 0.0615 0.0689 0.0764 0.0896 0.1142
1593.000000 0.1461 0.1889 0.2275 0.2677 0.2887
1588.000000 0.3138 0.3437 0.3640 0.4087 0.4412
1583.000000 0.4538 0.4662 0.4766 0.4865 0.4967
1578.000000 0.5080 0.5192 0.5324 0.5458 0.5562
1573.000000 0.5660 0.5759 0.5860 0.5965 0.6060
1568.000000 0.6099 0.6137 0.6175 0.6212 0.6256
1563.000000 0.6300 0.6345 0.6389 0.6484 0.6545
1558.000000 0.6608 0.6626 0.6647 0.6661 0.6676
1553.000000 0.6692 0.6707 0.6728 0.6753 0.6776
1548.000000 0.6811 0.6898 0.7025 0.7056 0.7081
1543.000000 0.7101 0.7122 0.7144 0.7165 0.7186
1538.000000 0.7207 0.7228 0.7251 0.7272 0.7298
1533.000000 0.7324 0.7349 0.7371 0.7394 0.7415
1528.000000 0.7437 0.7458 0.7483 0.7508 0.7532
1523.000000 0.7558 0.7593 0.7612 0.7630 0.7618
1518.000000 0.7608 0.7598 0.7571 0.7541 0.7511
1513.000000 0.7482 0.7465 0.7465 0.7464 0.7475
1508.000000 0.7495 0.7488 0.7474 0.7458 0.7435
1503.000000 0.7439 0.7460 0.7481 0.7504 0.7518
1498.000000 0.7519 0.7521 0.7515 0.7508 0.7504
1493.000000 0.7518 0.7533 0.7548 0.7560 0.7571
1488.000000 0.7585 0.7595 0.7601 0.7607 0.7614
1483.000000 0.7621 0.7630 0.7637 0.7643 0.7650
1478.000000 0.7656 0.7658 0.7644 0.7630 0.7596
1473.000000 0.7558 0.7498 0.7425 0.7315 0.7165
1468.000000 0.6974 0.6789 0.6619 0.6445 0.6151
1463.000000 0.5608 0.5065 0.4522 0.3979 0.3436
1458.000000 0.3007 0.2923 0.2467 0.2256 0.2160
1453.000000 0.2098 0.2041 0.1900 0.1756 0.1663
1448.000000 0.1583 0.1534 0.1521 0.1522 0.1522
1443.000000 0.1551 0.1589 0.1731 0.2010 0.2137
1438.000000 0.2229 0.2356 0.2551 0.2896 0.3077
1433.000000 0.3163 0.3199 0.3218 0.3227 0.3253
1428.000000 0.3244 0.3242 0.3212 0.3132 0.3060
1423.000000 0.2910 0.2911 0.2907 0.2925 0.3407
1418.000000 0.3575 0.3843 0.4204 0.4592 0.4905
1413.000000 0.5172 0.5352 0.5617 0.5950 0.6238
1408.000000 0.6319 0.6401 0.6476 0.6546 0.6615
1403.000000 0.6683 0.6755 0.6830 0.6905 0.6978
1398.000000 0.7043 0.7108 0.7172 0.7228 0.7285
1393.000000 0.7341 0.7398 0.7461 0.7525 0.7590
1388.000000 0.7646 0.7700 0.7754 0.7808 0.7853
1383.000000 0.7895 0.7915 0.7922 0.7930 0.7937
1378.000000 0.7944 0.7951 0.7958 0.7969 0.7982
1373.000000 0.7994 0.8006 0.8018 0.8036 0.8054
1368.000000 0.8078 0.8104 0.8131 0.8145 0.8153
1363.000000 0.8151 0.8128 0.8088 0.7971 0.7830
1358.000000 0.7556 0.7282 0.6911 0.6905 0.6910
1353.000000 0.7046 0.7289 0.7504 0.7504 0.7505
1348.000000 0.7505 0.7506 0.7507 0.7530 0.7554
1343.000000 0.7591 0.7628 0.7668 0.7708 0.7750
1338.000000 0.7782 0.7814 0.7844 0.7868 0.7894
1333.000000 0.7918 0.7944 0.7964 0.7983 0.8001
1328.000000 0.8017 0.8008 0.8000 0.7992 0.7991
1323.000000 0.7990 0.7988 0.7987 0.7986 0.7985
1318.000000 0.7984 0.7983 0.7982 0.7981 0.7981
1313.000000 0.7980 0.7978 0.7974 0.7969 0.7965
1308.000000 0.7961 0.7957 0.7953 0.7953 0.7953
1303.000000 0.7953 0.7953 0.7956 0.7960 0.7962
1298.000000 0.7967 0.7971 0.7975 0.7983 0.7992
1293.000000 0.8001 0.8008 0.8018 0.8026 0.8036
1288.000000 0.8045 0.8054 0.8062 0.8069 0.8076
1283.000000 0.8083 0.8090 0.8097 0.8104 0.8111
1278.000000 0.8118 0.8124 0.8130 0.8134 0.8139
1273.000000 0.8144 0.8148 0.8153 0.8158 0.8161
1268.000000 0.8165 0.8168 0.8171 0.8174 0.8178
1263.000000 0.8181 0.8187 0.8196 0.8205 0.8215
1258.000000 0.8224 0.8233 0.8242 0.8251 0.8260
1253.000000 0.8271 0.8287 0.8301 0.8316 0.8330
1248.000000 0.8344 0.8359 0.8371 0.8385 0.8399
1243.000000 0.8412 0.8425 0.8443 0.8460 0.8478
1238.000000 0.8495 0.8513 0.8530 0.8548 0.8565
1233.000000 0.8583 0.8600 0.8616 0.8630 0.8645
1228.000000 0.8660 0.8675 0.8682 0.8687 0.8693
1223.000000 0.8699 0.8705 0.8711 0.8712 0.8712
1218.000000 0.8708 0.8708 0.8709 0.8694 0.8688
1213.000000 0.8682 0.8675 0.8668 0.8662 0.8655
1208.000000 0.8651 0.8649 0.8648 0.8648 0.8652
1203.000000 0.8656 0.8659 0.8663 0.8667 0.8671
1198.000000 0.8674 0.8678 0.8683 0.8688 0.8692
1193.000000 0.8692 0.8688 0.8685 0.8678 0.8668
1188.000000 0.8658 0.8646 0.8632 0.8617 0.8593
1183.000000 0.8559 0.8511 0.8460 0.8406 0.8445
1178.000000 0.8478 0.8508 0.8511 0.8512 0.8512
1173.000000 0.8509 0.8505 0.8502 0.8499 0.8495
1168.000000 0.8492 0.8488 0.8485 0.8482 0.8478
1163.000000 0.8473 0.8466 0.8459 0.8452 0.8445
1158.000000 0.8442 0.8439 0.8436 0.8433 0.8431
1153.000000 0.8430 0.8428 0.8425 0.8424 0.8423
1148.000000 0.8421 0.8421 0.8424 0.8425 0.8427
1143.000000 0.8431 0.8435 0.8439 0.8443 0.8460
1138.000000 0.8482 0.8494 0.8506 0.8518 0.8527
1133.000000 0.8528 0.8530 0.8531 0.8532 0.8533
1128.000000 0.8533 0.8532 0.8524 0.8516 0.8503
1123.000000 0.8488 0.8473 0.8458 0.8444 0.8428
1118.000000 0.8425 0.8425 0.8424 0.8424 0.8424
1113.000000 0.8425 0.8430 0.8434 0.8439 0.8458
1108.000000 0.8477 0.8496 0.8515 0.8533 0.8545
1103.000000 0.8557 0.8556 0.8552 0.8549 0.8545
1098.000000 0.8542 0.8538 0.8535 0.8532 0.8528
1093.000000 0.8525 0.8518 0.8510 0.8503 0.8496
1088.000000 0.8489 0.8482 0.8475 0.8460 0.8445
1083.000000 0.8430 0.8415 0.8400 0.8385 0.8370
1078.000000 0.8355 0.8340 0.8330 0.8325 0.8323
1073.000000 0.8318 0.8317 0.8316 0.8315 0.8314
1068.000000 0.8314 0.8313 0.8312 0.8278 0.8237
1063.000000 0.8119 0.7971 0.7804 0.7689 0.7510
1058.000000 0.7283 0.7057 0.6830 0.6603 0.6517
1053.000000 0.6517 0.6522 0.6554 0.6600 0.6661
1048.000000 0.6765 0.6918 0.7072 0.7228 0.7382
1043.000000 0.7526 0.7567 0.7561 0.7562 0.7546
1038.000000 0.7398 0.7089 0.6778 0.6469 0.6282
1033.000000 0.6268 0.6276 0.6918 0.7142 0.7337
1028.000000 0.7449 0.7561 0.7643 0.7715 0.7787
1023.000000 0.7858 0.7933 0.8011 0.8091 0.8162
1018.000000 0.8218 0.8274 0.8328 0.8365 0.8401
1013.000000 0.8437 0.8468 0.8490 0.8511 0.8532
1008.000000 0.8553 0.8567 0.8581 0.8594 0.8607
1003.000000 0.8618 0.8625 0.8632 0.8639 0.8646
998.000000 0.8652 0.8657 0.8661 0.8666 0.8671
993.000000 0.8671 0.8673 0.8673 0.8674 0.8674
988.000000 0.8671 0.8668 0.8665 0.8661 0.8658
983.000000 0.8655 0.8655 0.8655 0.8655 0.8654
978.000000 0.8654 0.8654 0.8654 0.8652 0.8650
973.000000 0.8648 0.8646 0.8644 0.8641 0.8639
968.000000 0.8637 0.8636 0.8636 0.8639 0.8642
963.000000 0.8646 0.8649 0.8653 0.8656 0.8660
958.000000 0.8664 0.8668 0.8671 0.8675 0.8680
953.000000 0.8684 0.8688 0.8692 0.8696 0.8700
948.000000 0.8699 0.8697 0.8695 0.8693 0.8698
943.000000 0.8703 0.8708 0.8713 0.8718 0.8723
938.000000 0.8728 0.8734 0.8740 0.8746 0.8752
933.000000 0.8758 0.8763 0.8766 0.8768 0.8770
928.000000 0.8771 0.8774 0.8775 0.8778 0.8781
923.000000 0.8783 0.8783 0.8784 0.8784 0.8785
918.000000 0.8786 0.8786 0.8787 0.8788 0.8791
913.000000 0.8795 0.8799 0.8803 0.8807 0.8811
908.000000 0.8815 0.8818 0.8823 0.8828 0.8834
903.000000 0.8840 0.8845 0.8851 0.8843 0.8835
898.000000 0.8825 0.8821 0.8820 0.8818 0.8817
893.000000 0.8817 0.8817 0.8818 0.8825 0.8830
888.000000 0.8835 0.8840 0.8845 0.8851 0.8856
883.000000 0.8861 0.8866 0.8871 0.8878 0.8890
878.000000 0.8902 0.8913 0.8925 0.8936 0.8944
873.000000 0.8949 0.8954 0.8959 0.8964 0.8968
868.000000 0.8974 0.8978 0.8981 0.8984 0.8987
863.000000 0.8981 0.8975 0.8971 0.8970 0.8968
858.000000 0.8967 0.8965 0.8963 0.8962 0.8960
853.000000 0.8958 0.8957 0.8955 0.8954 0.8954
848.000000 0.8957 0.8960 0.8963 0.8966 0.8970
843.000000 0.8973 0.8975 0.8978 0.8982 0.8985
838.000000 0.8988 0.8990 0.8993 0.8996 0.8999
833.000000 0.9000 0.9001 0.9000 0.8999 0.8998
828.000000 0.8997 0.8997 0.8996 0.8995 0.8994
823.000000 0.8993 0.8992 0.8991 0.8990 0.8989
818.000000 0.8988 0.8987 0.8986 0.8986 0.8985
813.000000 0.8984 0.8984 0.8982 0.8975 0.8966
808.000000 0.8944 0.8947 0.8951 0.8954 0.8958
803.000000 0.8959 0.8942 0.8950 0.8945 0.8941
798.000000 0.8937 0.8932 0.8925 0.8917 0.8909
793.000000 0.8901 0.8893 0.8885 0.8877 0.8868
788.000000 0.8861 0.8852 0.8842 0.8831 0.8820
783.000000 0.8809 0.8798 0.8787 0.8775 0.8768
778.000000 0.8768 0.8767 0.8767 0.8766 0.8765
773.000000 0.8764 0.8755 0.8747 0.8738 0.8730
768.000000 0.8721 0.8712 0.8702 0.8693 0.8683
763.000000 0.8674 0.8664 0.8655 0.8642 0.8624
758.000000 0.8607 0.8589 0.8571 0.8554 0.8537
753.000000 0.8518 0.8498 0.8474 0.8451 0.8428
748.000000 0.8404 0.8381 0.8353 0.8325 0.8296
743.000000 0.8267 0.8238 0.8212 0.8187 0.8162
738.000000 0.8138 0.8112 0.8088 0.8058 0.8030
733.000000 0.8001 0.7972 0.7944 0.7897 0.7849
728.000000 0.7801 0.7755 0.7708 0.7658 0.7598
723.000000 0.7538 0.7474 0.7399 0.7337 0.7339
718.000000 0.7341 0.7343 0.7345 0.7337 0.7325
713.000000 0.7237 0.7107 0.6980 0.6867 0.6751
708.000000 0.6606 0.6171 0.6027 0.5789 0.5616
703.000000 0.5512 0.5265 0.4760 0.4254 0.3749
698.000000 0.3243 0.2738 0.2233 0.1765 0.1707
693.000000 0.1681 0.1674 0.1695 0.2268 0.2492
688.000000 0.2657 0.2961 0.3326 0.3691 0.4056
683.000000 0.4422 0.4787 0.5152 0.5517 0.5882
678.000000 0.6198 0.6280 0.6362 0.6456 0.6557
673.000000 0.6668 0.6799 0.6904 0.6992 0.7080
668.000000 0.7149 0.7199 0.7242 0.7286 0.7322
663.000000 0.7360 0.7396 0.7433 0.7468 0.7504
658.000000 0.7540 0.7575 0.7589 0.7601 0.7626
653.000000 0.7618 0.7625 0.7611 0.7578 0.7507
648.000000 0.7439 0.7401 0.7372 0.7347 0.7308
643.000000 0.7264 0.7208 0.7151 0.7088 0.7015
638.000000 0.6945 0.6864 0.6775 0.6575 0.6129
633.000000 0.5681 0.5234 0.4787 0.4525 0.4301
628.000000 0.4266 0.4270 0.4275 0.4550 0.5312
623.000000 0.5914 0.6517 0.6722 0.6837 0.6943
618.000000 0.7046 0.7104 0.7161 0.7194 0.7221
613.000000 0.7242 0.7255 0.7268 0.7281 0.7294
608.000000 0.7306 0.7319 0.7325 0.7328 0.7332
603.000000 0.7360 0.7328 0.7325 0.7318 0.7308
598.000000 0.7298 0.7288 0.7276 0.7265 0.7254
593.000000 0.7242 0.7214 0.7175 0.7139 0.7117
588.000000 0.7100 0.7083 0.7065 0.7061 0.7061
583.000000 0.7062 0.7062 0.7064 0.7064 0.7058
578.000000 0.7051 0.7042 0.7034 0.7025 0.7018
573.000000 0.7001 0.6982 0.6964 0.6946 0.6926
568.000000 0.6908 0.6886 0.6862 0.6839 0.6815
563.000000 0.6792 0.6765 0.6732 0.6700 0.6667
558.000000 0.6635 0.6633 0.6630 0.6628 0.6625
553.000000 0.6624 0.6618 0.6614 0.6608 0.6603
548.000000 0.6598 0.6592 0.6587 0.6582 0.6575
543.000000 0.6567 0.6557 0.6547 0.6538 0.6528
538.000000 0.6518 0.6508 0.6499 0.6489 0.6478
533.000000 0.6467 0.6456 0.6445 0.6434 0.6422
528.000000 0.6412 0.6403 0.6394 0.6384 0.6375
523.000000 0.6368 0.6366 0.6365 0.6308 0.6362
518.000000 0.6360 0.6360 0.6359 0.6357 0.6357
513.000000 0.6357 0.6359 0.6362 0.6364 0.6367
508.000000 0.6369 0.6372 0.6374 0.6382 0.6391
503.000000 0.6400 0.6408 0.6418 0.6428 0.6437
498.000000 0.6446 0.6455 0.6464 0.6472 0.6482
493.000000 0.6492 0.6501 0.6510 0.6518 0.6528
488.000000 0.6538 0.6546 0.6555 0.6564 0.6571
483.000000 0.6581 0.6589 0.6598 0.6610 0.6625
478.000000 0.6640 0.6654 0.6668 0.6683 0.6697
473.000000 0.6710 0.6724 0.6737 0.6750 0.6764
468.000000 0.6776 0.6789 0.6799 0.6808 0.6817
463.000000 0.6825 0.6833 0.6837 0.6842 0.6846
458.000000 0.6850 0.6854 0.6858 0.6862 0.6868
453.000000 0.6872 0.6878
##END=
