##TITLE=Titanium, 2-ethyl-1,3-hexanediolate, dibutoxy-
##JCAMP-DX=4.24
$$ By DXEDIT 1.05 (RS McDonald)
##DATA TYPE=INFRARED SPECTRUM
##CLASS=COBLENTZ
##ORIGIN=DOW CHEMICAL COMPANY
##OWNER=COPYRIGHT (C) 1988 by COBLENTZ SOCIETY INC.
Collection (C) 2018 copyright by the U.S. Secretary of Commerce
on behalf of the United States of America. All rights reserved.
##DATE=1963/10/17
##MOLFORM=C16 H34 O4 Ti
##SOURCE REFERENCE=COBLENTZ NO. 7528
##$NIST ID=B6007528
##$NIST SOURCE=COBLENTZ
##$NIST IMAGE=cob7528
##SPECTROMETER/DATA SYSTEM=BECKMAN IR-9 (GRATING)
##INSTRUMENT PARAMETERS=ORDER CHANGES: 670, 1200, 2000 CM^-^1
##STATE=SOLUTION (9% CCl4 FOR 3800-1300, 10% CS2 FOR 1300-400 CM^-^1)
$$ ESTIMATED 90% PURITY
##PATH LENGTH=0.011 CM, 0.011 CM
$$SPECTRAL CONTAMINATION DUE TO CCl4 AROUND 1550 CM^-^1 HAS BEEN SUBTRACTED
$$SPECTRAL CONTAMINATION DUE TO H2O AROUND 3400 CM^-^1
$$ SPECTRAL FEATURE AT 1998 CM^-^1 IS PROBABLY AN ARTIFACT CAUSED BY GRATING CHANGE
##SAMPLING PROCEDURE=TRANSMISSION
##RESOLUTION=2
##DATA PROCESSING=DIGITIZED BY COBLENTZ SOCIETY (BATCH I) FROM HARD COPY
##XUNITS=1/CM
##YUNITS=TRANSMITTANCE
##XFACTOR=1
##YFACTOR=1
##DELTAX=1
##FIRSTX=3794
##LASTX=395
##FIRSTY=0.8773
##MAXX=3794
##MINX=395
##MAXY=0.895
##MINY=0.0373
##NPOINTS=3400
##XYDATA=(X++(Y..Y))
3794.000000 0.8773 0.8773 0.8774 0.8774 0.8774
3789.000000 0.8774 0.8775 0.8775 0.8776 0.8776
3784.000000 0.8766 0.8760 0.8761 0.8774 0.8779
3779.000000 0.8765 0.8777 0.8779 0.8780 0.8764
3774.000000 0.8781 0.8781 0.8782 0.8782 0.8783
3769.000000 0.8783 0.8784 0.8784 0.8784 0.8784
3764.000000 0.8784 0.8784 0.8784 0.8784 0.8794
3759.000000 0.8793 0.8785 0.8785 0.8785 0.8785
3754.000000 0.8785 0.8785 0.8785 0.8784 0.8784
3749.000000 0.8783 0.8782 0.8782 0.8782 0.8782
3744.000000 0.8782 0.8781 0.8781 0.8780 0.8780
3739.000000 0.8785 0.8797 0.8796 0.8796 0.8795
3734.000000 0.8786 0.8775 0.8782 0.8788 0.8787
3729.000000 0.8785 0.8784 0.8782 0.8781 0.8778
3724.000000 0.8777 0.8774 0.8774 0.8771 0.8771
3719.000000 0.8752 0.8751 0.8766 0.8764 0.8763
3714.000000 0.8762 0.8761 0.8765 0.8771 0.8764
3709.000000 0.8774 0.8773 0.8772 0.8772 0.8771
3704.000000 0.8770 0.8769 0.8768 0.8766 0.8764
3699.000000 0.8762 0.8761 0.8759 0.8742 0.8738
3694.000000 0.8737 0.8735 0.8732 0.8730 0.8729
3689.000000 0.8726 0.8723 0.8716 0.8699 0.8695
3684.000000 0.8692 0.8689 0.8686 0.8681 0.8678
3679.000000 0.8674 0.8671 0.8665 0.8661 0.8656
3674.000000 0.8651 0.8646 0.8641 0.8637 0.8646
3669.000000 0.8629 0.8622 0.8617 0.8612 0.8603
3664.000000 0.8593 0.8584 0.8574 0.8559 0.8545
3659.000000 0.8530 0.8514 0.8498 0.8481 0.8453
3654.000000 0.8425 0.8392 0.8359 0.8318 0.8277
3649.000000 0.8235 0.8194 0.8128 0.8061 0.7987
3644.000000 0.7914 0.7782 0.7650 0.7611 0.7573
3639.000000 0.7553 0.7556 0.7525 0.7516 0.7513
3634.000000 0.7511 0.7514 0.7525 0.7530 0.7530
3629.000000 0.7532 0.7552 0.7583 0.7604 0.7642
3624.000000 0.7681 0.7735 0.7789 0.7840 0.7891
3619.000000 0.7932 0.7975 0.8013 0.8051 0.8094
3614.000000 0.8139 0.8186 0.8235 0.8278 0.8320
3609.000000 0.8355 0.8376 0.8415 0.8440 0.8463
3604.000000 0.8486 0.8502 0.8516 0.8547 0.8560
3599.000000 0.8566 0.8590 0.8602 0.8604 0.8606
3594.000000 0.8607 0.8610 0.8611 0.8611 0.8613
3589.000000 0.8613 0.8613 0.8613 0.8613 0.8613
3584.000000 0.8613 0.8611 0.8611 0.8610 0.8610
3579.000000 0.8610 0.8610 0.8609 0.8604 0.8592
3574.000000 0.8601 0.8596 0.8586 0.8573 0.8570
3569.000000 0.8563 0.8558 0.8552 0.8545 0.8539
3564.000000 0.8532 0.8525 0.8519 0.8511 0.8504
3559.000000 0.8496 0.8488 0.8480 0.8474 0.8482
3554.000000 0.8459 0.8453 0.8460 0.8449 0.8436
3549.000000 0.8417 0.8420 0.8409 0.8398 0.8383
3544.000000 0.8374 0.8374 0.8365 0.8357 0.8339
3539.000000 0.8334 0.8321 0.8321 0.8318 0.8312
3534.000000 0.8307 0.8302 0.8296 0.8291 0.8285
3529.000000 0.8264 0.8259 0.8255 0.8252 0.8248
3524.000000 0.8245 0.8243 0.8242 0.8241 0.8240
3519.000000 0.8239 0.8238 0.8237 0.8236 0.8235
3514.000000 0.8233 0.8232 0.8231 0.8230 0.8230
3509.000000 0.8229 0.8228 0.8227 0.8227 0.8225
3504.000000 0.8225 0.8223 0.8223 0.8222 0.8222
3499.000000 0.8221 0.8221 0.8218 0.8218 0.8217
3494.000000 0.8217 0.8217 0.8217 0.8217 0.8217
3489.000000 0.8217 0.8217 0.8217 0.8217 0.8217
3484.000000 0.8217 0.8215 0.8215 0.8215 0.8215
3479.000000 0.8215 0.8215 0.8214 0.8214 0.8214
3474.000000 0.8214 0.8214 0.8214 0.8213 0.8213
3469.000000 0.8211 0.8211 0.8211 0.8209 0.8207
3464.000000 0.8207 0.8206 0.8206 0.8206 0.8206
3459.000000 0.8205 0.8203 0.8203 0.8203 0.8202
3454.000000 0.8202 0.8201 0.8200 0.8199 0.8199
3449.000000 0.8198 0.8195 0.8194 0.8193 0.8191
3444.000000 0.8190 0.8188 0.8187 0.8185 0.8184
3439.000000 0.8183 0.8182 0.8179 0.8178 0.8176
3434.000000 0.8174 0.8171 0.8168 0.8165 0.8163
3429.000000 0.8160 0.8159 0.8156 0.8153 0.8136
3424.000000 0.8147 0.8146 0.8144 0.8141 0.8139
3419.000000 0.8137 0.8135 0.8133 0.8130 0.8127
3414.000000 0.8125 0.8123 0.8121 0.8118 0.8116
3409.000000 0.8114 0.8111 0.8116 0.8114 0.8104
3404.000000 0.8103 0.8100 0.8099 0.8095 0.8093
3399.000000 0.8091 0.8089 0.8087 0.8085 0.8083
3394.000000 0.8080 0.8078 0.8076 0.8074 0.8073
3389.000000 0.8071 0.8070 0.8068 0.8067 0.8064
3384.000000 0.8062 0.8061 0.8060 0.8057 0.8057
3379.000000 0.8054 0.8054 0.8051 0.8051 0.8047
3374.000000 0.8046 0.8045 0.8043 0.8042 0.8054
3369.000000 0.8040 0.8039 0.8038 0.8038 0.8036
3364.000000 0.8036 0.8035 0.8034 0.8033 0.8033
3359.000000 0.8032 0.8032 0.8031 0.8031 0.8030
3354.000000 0.8030 0.8029 0.8029 0.8028 0.8028
3349.000000 0.8027 0.8027 0.8026 0.8026 0.8037
3344.000000 0.8040 0.8026 0.8038 0.8023 0.8023
3339.000000 0.8024 0.8040 0.8041 0.8040 0.8028
3334.000000 0.8029 0.8030 0.8031 0.8032 0.8033
3329.000000 0.8034 0.8035 0.8038 0.8041 0.8046
3324.000000 0.8050 0.8053 0.8056 0.8060 0.8066
3319.000000 0.8070 0.8074 0.8078 0.8082 0.8087
3314.000000 0.8091 0.8094 0.8114 0.8118 0.8121
3309.000000 0.8125 0.8126 0.8119 0.8136 0.8138
3304.000000 0.8137 0.8129 0.8132 0.8135 0.8138
3299.000000 0.8140 0.8145 0.8148 0.8151 0.8154
3294.000000 0.8157 0.8158 0.8161 0.8166 0.8169
3289.000000 0.8172 0.8175 0.8178 0.8181 0.8183
3284.000000 0.8187 0.8205 0.8205 0.8193 0.8198
3279.000000 0.8213 0.8211 0.8200 0.8209 0.8220
3274.000000 0.8224 0.8226 0.8227 0.8230 0.8231
3269.000000 0.8234 0.8235 0.8237 0.8240 0.8243
3264.000000 0.8245 0.8247 0.8249 0.8251 0.8253
3259.000000 0.8255 0.8257 0.8259 0.8247 0.8264
3254.000000 0.8266 0.8268 0.8269 0.8272 0.8273
3249.000000 0.8276 0.8278 0.8279 0.8280 0.8273
3244.000000 0.8273 0.8280 0.8280 0.8280 0.8280
3239.000000 0.8280 0.8280 0.8280 0.8280 0.8280
3234.000000 0.8280 0.8280 0.8280 0.8280 0.8280
3229.000000 0.8280 0.8280 0.8278 0.8264 0.8267
3224.000000 0.8280 0.8279 0.8279 0.8279 0.8279
3219.000000 0.8278 0.8278 0.8278 0.8278 0.8276
3214.000000 0.8276 0.8276 0.8276 0.8275 0.8275
3209.000000 0.8272 0.8259 0.8255 0.8255 0.8255
3204.000000 0.8255 0.8255 0.8255 0.8254 0.8256
3199.000000 0.8265 0.8255 0.8264 0.8257 0.8268
3194.000000 0.8268 0.8268 0.8268 0.8268 0.8260
3189.000000 0.8261 0.8268 0.8268 0.8257 0.8252
3184.000000 0.8252 0.8251 0.8251 0.8251 0.8251
3179.000000 0.8251 0.8251 0.8251 0.8251 0.8250
3174.000000 0.8250 0.8250 0.8250 0.8250 0.8250
3169.000000 0.8250 0.8250 0.8250 0.8250 0.8249
3164.000000 0.8257 0.8265 0.8257 0.8259 0.8265
3159.000000 0.8265 0.8254 0.8261 0.8253 0.8249
3154.000000 0.8263 0.8265 0.8265 0.8265 0.8265
3149.000000 0.8265 0.8249 0.8249 0.8249 0.8249
3144.000000 0.8249 0.8249 0.8249 0.8254 0.8265
3139.000000 0.8265 0.8265 0.8264 0.8264 0.8263
3134.000000 0.8263 0.8262 0.8262 0.8260 0.8260
3129.000000 0.8260 0.8260 0.8258 0.8258 0.8257
3124.000000 0.8257 0.8256 0.8256 0.8255 0.8255
3119.000000 0.8254 0.8254 0.8252 0.8251 0.8249
3114.000000 0.8247 0.8244 0.8242 0.8241 0.8240
3109.000000 0.8237 0.8235 0.8241 0.8245 0.8241
3104.000000 0.8240 0.8237 0.8234 0.8232 0.8242
3099.000000 0.8241 0.8238 0.8251 0.8266 0.8279
3094.000000 0.8277 0.8274 0.8270 0.8252 0.8247
3089.000000 0.8228 0.8214 0.8215 0.8243 0.8198
3084.000000 0.8187 0.8183 0.8180 0.8174 0.8169
3079.000000 0.8165 0.8170 0.8183 0.8184 0.8178
3074.000000 0.8186 0.8185 0.8168 0.8159 0.8155
3069.000000 0.8135 0.8146 0.8126 0.8122 0.8117
3064.000000 0.8110 0.8091 0.8087 0.8081 0.8082
3059.000000 0.8088 0.8082 0.8071 0.8056 0.8058
3054.000000 0.8053 0.8038 0.8034 0.8037 0.8037
3049.000000 0.8030 0.8024 0.8016 0.8022 0.8016
3044.000000 0.8023 0.8032 0.8043 0.8053 0.8063
3039.000000 0.8056 0.8050 0.8041 0.8018 0.7996
3034.000000 0.7983 0.7955 0.7933 0.7922 0.7905
3029.000000 0.7885 0.7874 0.7854 0.7833 0.7820
3024.000000 0.7806 0.7792 0.7778 0.7765 0.7751
3019.000000 0.7742 0.7725 0.7705 0.7671 0.7648
3014.000000 0.7628 0.7604 0.7580 0.7553 0.7526
3009.000000 0.7490 0.7452 0.7389 0.7342 0.7311
3004.000000 0.7269 0.7222 0.7175 0.7133 0.7098
2999.000000 0.7054 0.7004 0.6960 0.6917 0.6808
2994.000000 0.6701 0.6623 0.6539 0.6430 0.6323
2989.000000 0.6203 0.6083 0.6004 0.5925 0.5693
2984.000000 0.5461 0.5140 0.4820 0.4717 0.4616
2979.000000 0.4268 0.3911 0.3422 0.2941 0.2453
2974.000000 0.1965 0.1480 0.0993 0.0771 0.0549
2969.000000 0.0509 0.0470 0.0449 0.0387 0.0417
2964.000000 0.0406 0.0404 0.0403 0.0402 0.0402
2959.000000 0.0537 0.0671 0.0812 0.0953 0.1096
2954.000000 0.1238 0.1292 0.1354 0.1342 0.1341
2949.000000 0.1274 0.1209 0.1123 0.1037 0.0952
2944.000000 0.0869 0.0816 0.0763 0.0745 0.0729
2939.000000 0.0721 0.0686 0.0713 0.0711 0.0709
2934.000000 0.0710 0.0721 0.0732 0.0785 0.0838
2929.000000 0.0972 0.1105 0.1238 0.1373 0.1489
2924.000000 0.1607 0.1674 0.1740 0.1782 0.1828
2919.000000 0.1857 0.1889 0.1918 0.1947 0.1974
2914.000000 0.2000 0.2027 0.2054 0.2093 0.2132
2909.000000 0.2163 0.2198 0.2250 0.2296 0.2347
2904.000000 0.2400 0.2451 0.2503 0.2554 0.2606
2899.000000 0.2625 0.2644 0.2652 0.2695 0.2660
2894.000000 0.2660 0.2659 0.2656 0.2618 0.2579
2889.000000 0.2404 0.2229 0.2053 0.1880 0.1704
2884.000000 0.1530 0.1355 0.0963 0.1091 0.1003
2879.000000 0.1000 0.0999 0.1002 0.1012 0.1091
2874.000000 0.1171 0.1256 0.1341 0.1425 0.1511
2869.000000 0.1595 0.1680 0.1764 0.1848 0.2068
2864.000000 0.2289 0.2403 0.2517 0.2630 0.2743
2859.000000 0.2951 0.3159 0.3201 0.3242 0.3267
2854.000000 0.3287 0.3307 0.3328 0.3358 0.3388
2849.000000 0.3423 0.3459 0.3499 0.3545 0.3587
2844.000000 0.3627 0.3667 0.3716 0.3776 0.3833
2839.000000 0.3898 0.3968 0.4032 0.4093 0.4152
2834.000000 0.4213 0.4264 0.4317 0.4459 0.4601
2829.000000 0.4764 0.4913 0.5075 0.5232 0.5376
2824.000000 0.5530 0.5751 0.5950 0.6080 0.6199
2819.000000 0.6285 0.6364 0.6447 0.6530 0.6609
2814.000000 0.6688 0.6761 0.6834 0.6900 0.6967
2809.000000 0.7023 0.7088 0.7143 0.7193 0.7245
2804.000000 0.7297 0.7326 0.7356 0.7385 0.7413
2799.000000 0.7448 0.7483 0.7512 0.7541 0.7563
2794.000000 0.7585 0.7608 0.7628 0.7643 0.7674
2789.000000 0.7683 0.7705 0.7720 0.7740 0.7759
2784.000000 0.7780 0.7777 0.7773 0.7786 0.7799
2779.000000 0.7804 0.7808 0.7811 0.7815 0.7816
2774.000000 0.7817 0.7818 0.7819 0.7819 0.7835
2769.000000 0.7816 0.7814 0.7811 0.7809 0.7805
2764.000000 0.7802 0.7797 0.7793 0.7787 0.7781
2759.000000 0.7775 0.7768 0.7757 0.7748 0.7736
2754.000000 0.7728 0.7717 0.7707 0.7698 0.7689
2749.000000 0.7679 0.7670 0.7660 0.7652 0.7644
2744.000000 0.7636 0.7630 0.7624 0.7617 0.7610
2739.000000 0.7604 0.7598 0.7591 0.7584 0.7576
2734.000000 0.7559 0.7563 0.7563 0.7563 0.7571
2729.000000 0.7578 0.7586 0.7596 0.7606 0.7615
2724.000000 0.7625 0.7632 0.7642 0.7646 0.7651
2719.000000 0.7655 0.7660 0.7663 0.7670 0.7674
2714.000000 0.7678 0.7681 0.7688 0.7689 0.7692
2709.000000 0.7695 0.7698 0.7700 0.7704 0.7714
2704.000000 0.7726 0.7738 0.7749 0.7761 0.7773
2699.000000 0.7784 0.7795 0.7807 0.7818 0.7830
2694.000000 0.7841 0.7851 0.7864 0.7870 0.7878
2689.000000 0.7885 0.7893 0.7900 0.7908 0.7915
2684.000000 0.7922 0.7929 0.7936 0.7944 0.7950
2679.000000 0.7957 0.7966 0.7973 0.7981 0.7986
2674.000000 0.7991 0.7994 0.7999 0.8001 0.8004
2669.000000 0.8007 0.8013 0.8016 0.8020 0.8023
2664.000000 0.8027 0.8031 0.8035 0.8038 0.8041
2659.000000 0.8045 0.8051 0.8069 0.8072 0.8076
2654.000000 0.8081 0.8086 0.8090 0.8088 0.8083
2649.000000 0.8087 0.8099 0.8111 0.8114 0.8109
2644.000000 0.8107 0.8112 0.8128 0.8124 0.8124
2639.000000 0.8127 0.8131 0.8132 0.8135 0.8137
2634.000000 0.8154 0.8156 0.8156 0.8144 0.8148
2629.000000 0.8163 0.8164 0.8167 0.8168 0.8171
2624.000000 0.8172 0.8175 0.8176 0.8178 0.8179
2619.000000 0.8181 0.8182 0.8182 0.8182 0.8182
2614.000000 0.8183 0.8183 0.8183 0.8183 0.8185
2609.000000 0.8185 0.8185 0.8183 0.8182 0.8179
2604.000000 0.8178 0.8174 0.8173 0.8171 0.8168
2599.000000 0.8167 0.8164 0.8164 0.8164 0.8164
2594.000000 0.8166 0.8168 0.8173 0.8175 0.8181
2589.000000 0.8183 0.8188 0.8191 0.8196 0.8200
2584.000000 0.8204 0.8207 0.8211 0.8216 0.8220
2579.000000 0.8223 0.8227 0.8231 0.8235 0.8238
2574.000000 0.8243 0.8248 0.8252 0.8257 0.8262
2569.000000 0.8268 0.8273 0.8279 0.8284 0.8289
2564.000000 0.8296 0.8302 0.8308 0.8313 0.8319
2559.000000 0.8323 0.8330 0.8334 0.8340 0.8342
2554.000000 0.8346 0.8350 0.8353 0.8355 0.8358
2549.000000 0.8361 0.8364 0.8368 0.8371 0.8374
2544.000000 0.8376 0.8379 0.8384 0.8387 0.8390
2539.000000 0.8393 0.8395 0.8397 0.8400 0.8402
2534.000000 0.8403 0.8403 0.8404 0.8405 0.8406
2529.000000 0.8406 0.8407 0.8407 0.8408 0.8409
2524.000000 0.8410 0.8410 0.8411 0.8411 0.8412
2519.000000 0.8413 0.8414 0.8414 0.8415 0.8416
2514.000000 0.8417 0.8418 0.8419 0.8420 0.8421
2509.000000 0.8421 0.8423 0.8425 0.8426 0.8427
2504.000000 0.8428 0.8429 0.8429 0.8431 0.8432
2499.000000 0.8432 0.8433 0.8435 0.8436 0.8438
2494.000000 0.8439 0.8439 0.8440 0.8442 0.8442
2489.000000 0.8443 0.8446 0.8447 0.8447 0.8448
2484.000000 0.8448 0.8448 0.8448 0.8458 0.8464
2479.000000 0.8463 0.8463 0.8463 0.8463 0.8463
2474.000000 0.8463 0.8463 0.8463 0.8462 0.8462
2469.000000 0.8462 0.8462 0.8460 0.8460 0.8458
2464.000000 0.8458 0.8458 0.8458 0.8458 0.8458
2459.000000 0.8458 0.8451 0.8448 0.8447 0.8440
2454.000000 0.8440 0.8449 0.8455 0.8455 0.8442
2449.000000 0.8452 0.8455 0.8455 0.8455 0.8454
2444.000000 0.8454 0.8454 0.8454 0.8452 0.8452
2439.000000 0.8452 0.8452 0.8452 0.8452 0.8452
2434.000000 0.8452 0.8451 0.8450 0.8450 0.8450
2429.000000 0.8448 0.8448 0.8448 0.8448 0.8447
2424.000000 0.8447 0.8447 0.8447 0.8447 0.8447
2419.000000 0.8446 0.8446 0.8446 0.8446 0.8444
2414.000000 0.8444 0.8444 0.8444 0.8444 0.8444
2409.000000 0.8448 0.8457 0.8452 0.8463 0.8463
2404.000000 0.8464 0.8464 0.8467 0.8467 0.8468
2399.000000 0.8468 0.8470 0.8470 0.8471 0.8471
2394.000000 0.8471 0.8472 0.8474 0.8474 0.8474
2389.000000 0.8490 0.8491 0.8494 0.8495 0.8497
2384.000000 0.8511 0.8511 0.8517 0.8529 0.8531
2379.000000 0.8537 0.8550 0.8558 0.8568 0.8568
2374.000000 0.8578 0.8587 0.8588 0.8588 0.8589
2369.000000 0.8576 0.8572 0.8572 0.8572 0.8572
2364.000000 0.8572 0.8572 0.8572 0.8573 0.8589
2359.000000 0.8591 0.8605 0.8608 0.8625 0.8638
2354.000000 0.8638 0.8638 0.8638 0.8631 0.8621
2349.000000 0.8621 0.8630 0.8647 0.8655 0.8655
2344.000000 0.8644 0.8638 0.8638 0.8638 0.8638
2339.000000 0.8622 0.8635 0.8637 0.8620 0.8619
2334.000000 0.8636 0.8635 0.8634 0.8637 0.8651
2329.000000 0.8650 0.8650 0.8655 0.8667 0.8671
2324.000000 0.8682 0.8682 0.8682 0.8682 0.8682
2319.000000 0.8680 0.8680 0.8680 0.8680 0.8679
2314.000000 0.8679 0.8679 0.8679 0.8679 0.8679
2309.000000 0.8677 0.8677 0.8675 0.8675 0.8675
2304.000000 0.8675 0.8674 0.8674 0.8674 0.8674
2299.000000 0.8680 0.8691 0.8689 0.8689 0.8688
2294.000000 0.8688 0.8688 0.8688 0.8688 0.8688
2289.000000 0.8689 0.8678 0.8678 0.8684 0.8688
2284.000000 0.8692 0.8681 0.8684 0.8688 0.8693
2279.000000 0.8696 0.8683 0.8690 0.8691 0.8685
2274.000000 0.8692 0.8699 0.8701 0.8696 0.8703
2269.000000 0.8703 0.8698 0.8705 0.8713 0.8710
2264.000000 0.8709 0.8715 0.8720 0.8711 0.8713
2259.000000 0.8717 0.8708 0.8711 0.8716 0.8721
2254.000000 0.8710 0.8714 0.8719 0.8721 0.8712
2249.000000 0.8716 0.8723 0.8725 0.8730 0.8728
2244.000000 0.8720 0.8723 0.8726 0.8729 0.8733
2239.000000 0.8737 0.8740 0.8742 0.8745 0.8738
2234.000000 0.8736 0.8737 0.8739 0.8740 0.8743
2229.000000 0.8743 0.8746 0.8746 0.8749 0.8750
2224.000000 0.8752 0.8754 0.8753 0.8740 0.8742
2219.000000 0.8743 0.8745 0.8746 0.8748 0.8749
2214.000000 0.8751 0.8752 0.8754 0.8755 0.8757
2209.000000 0.8758 0.8759 0.8760 0.8761 0.8762
2204.000000 0.8763 0.8764 0.8765 0.8766 0.8767
2199.000000 0.8768 0.8769 0.8770 0.8769 0.8757
2194.000000 0.8773 0.8770 0.8757 0.8759 0.8760
2189.000000 0.8761 0.8761 0.8764 0.8765 0.8765
2184.000000 0.8776 0.8775 0.8769 0.8769 0.8769
2179.000000 0.8769 0.8782 0.8786 0.8787 0.8787
2174.000000 0.8787 0.8787 0.8787 0.8787 0.8787
2169.000000 0.8785 0.8771 0.8771 0.8771 0.8771
2164.000000 0.8771 0.8771 0.8771 0.8771 0.8772
2159.000000 0.8772 0.8772 0.8772 0.8772 0.8772
2154.000000 0.8772 0.8772 0.8773 0.8773 0.8773
2149.000000 0.8773 0.8774 0.8774 0.8774 0.8774
2144.000000 0.8774 0.8774 0.8775 0.8775 0.8775
2139.000000 0.8775 0.8774 0.8774 0.8776 0.8776
2134.000000 0.8775 0.8774 0.8774 0.8773 0.8773
2129.000000 0.8772 0.8772 0.8772 0.8772 0.8771
2124.000000 0.8771 0.8770 0.8756 0.8767 0.8769
2119.000000 0.8768 0.8768 0.8767 0.8767 0.8767
2114.000000 0.8767 0.8766 0.8766 0.8763 0.8763
2109.000000 0.8763 0.8763 0.8762 0.8762 0.8760
2104.000000 0.8760 0.8760 0.8759 0.8758 0.8756
2099.000000 0.8756 0.8742 0.8735 0.8749 0.8752
2094.000000 0.8736 0.8749 0.8749 0.8748 0.8747
2089.000000 0.8746 0.8745 0.8744 0.8743 0.8742
2084.000000 0.8741 0.8740 0.8738 0.8737 0.8737
2079.000000 0.8736 0.8736 0.8735 0.8735 0.8734
2074.000000 0.8734 0.8733 0.8733 0.8732 0.8732
2069.000000 0.8731 0.8731 0.8730 0.8730 0.8729
2064.000000 0.8729 0.8727 0.8727 0.8726 0.8726
2059.000000 0.8726 0.8726 0.8729 0.8741 0.8740
2054.000000 0.8740 0.8739 0.8732 0.8729 0.8738
2049.000000 0.8728 0.8720 0.8719 0.8719 0.8718
2044.000000 0.8718 0.8716 0.8715 0.8714 0.8714
2039.000000 0.8714 0.8715 0.8715 0.8715 0.8715
2034.000000 0.8716 0.8716 0.8717 0.8717 0.8718
2029.000000 0.8718 0.8724 0.8730 0.8719 0.8727
2024.000000 0.8737 0.8737 0.8739 0.8738 0.8738
2019.000000 0.8738 0.8738 0.8737 0.8736 0.8735
2014.000000 0.8735 0.8734 0.8733 0.8732 0.8731
2009.000000 0.8730 0.8729 0.8728 0.8728 0.8725
2004.000000 0.8725 0.8704 0.8684 0.8624 0.8565
1999.000000 0.8506 0.8441 0.8425 0.8469 0.8602
1994.000000 0.8666 0.8705 0.8735 0.8747 0.8748
1989.000000 0.8749 0.8750 0.8751 0.8736 0.8736
1984.000000 0.8736 0.8737 0.8737 0.8739 0.8740
1979.000000 0.8739 0.8724 0.8726 0.8727 0.8729
1974.000000 0.8731 0.8733 0.8736 0.8738 0.8740
1969.000000 0.8742 0.8744 0.8747 0.8759 0.8757
1964.000000 0.8752 0.8765 0.8773 0.8774 0.8775
1959.000000 0.8777 0.8778 0.8780 0.8782 0.8784
1954.000000 0.8769 0.8772 0.8775 0.8777 0.8777
1949.000000 0.8766 0.8768 0.8771 0.8773 0.8776
1944.000000 0.8778 0.8781 0.8782 0.8782 0.8779
1939.000000 0.8778 0.8777 0.8776 0.8774 0.8773
1934.000000 0.8772 0.8770 0.8769 0.8768 0.8767
1929.000000 0.8764 0.8762 0.8762 0.8761 0.8759
1924.000000 0.8759 0.8759 0.8758 0.8757 0.8757
1919.000000 0.8755 0.8755 0.8754 0.8754 0.8751
1914.000000 0.8751 0.8750 0.8750 0.8749 0.8748
1909.000000 0.8748 0.8747 0.8759 0.8763 0.8762
1904.000000 0.8762 0.8761 0.8760 0.8760 0.8759
1899.000000 0.8759 0.8758 0.8757 0.8757 0.8755
1894.000000 0.8755 0.8754 0.8754 0.8747 0.8735
1889.000000 0.8735 0.8734 0.8734 0.8733 0.8733
1884.000000 0.8742 0.8748 0.8748 0.8747 0.8747
1879.000000 0.8746 0.8746 0.8746 0.8745 0.8761
1874.000000 0.8762 0.8761 0.8761 0.8760 0.8759
1869.000000 0.8759 0.8759 0.8758 0.8758 0.8758
1864.000000 0.8757 0.8757 0.8757 0.8756 0.8756
1859.000000 0.8756 0.8755 0.8765 0.8761 0.8754
1854.000000 0.8754 0.8754 0.8753 0.8753 0.8752
1849.000000 0.8752 0.8751 0.8751 0.8749 0.8749
1844.000000 0.8748 0.8748 0.8747 0.8747 0.8747
1839.000000 0.8746 0.8746 0.8745 0.8739 0.8727
1834.000000 0.8727 0.8725 0.8725 0.8725 0.8725
1829.000000 0.8724 0.8724 0.8724 0.8724 0.8724
1824.000000 0.8724 0.8724 0.8724 0.8724 0.8724
1819.000000 0.8741 0.8741 0.8740 0.8740 0.8740
1814.000000 0.8740 0.8740 0.8741 0.8741 0.8741
1809.000000 0.8735 0.8724 0.8724 0.8726 0.8728
1804.000000 0.8719 0.8713 0.8714 0.8715 0.8717
1799.000000 0.8718 0.8719 0.8720 0.8721 0.8722
1794.000000 0.8724 0.8725 0.8726 0.8727 0.8728
1789.000000 0.8729 0.8729 0.8730 0.8730 0.8731
1784.000000 0.8731 0.8732 0.8732 0.8733 0.8733
1779.000000 0.8734 0.8734 0.8735 0.8725 0.8720
1774.000000 0.8720 0.8721 0.8721 0.8719 0.8719
1769.000000 0.8719 0.8718 0.8718 0.8718 0.8717
1764.000000 0.8717 0.8717 0.8716 0.8705 0.8713
1759.000000 0.8712 0.8721 0.8719 0.8717 0.8714
1754.000000 0.8712 0.8710 0.8707 0.8705 0.8703
1749.000000 0.8701 0.8698 0.8695 0.8692 0.8689
1744.000000 0.8685 0.8682 0.8679 0.8678 0.8677
1739.000000 0.8678 0.8678 0.8679 0.8680 0.8685
1734.000000 0.8688 0.8692 0.8695 0.8697 0.8699
1729.000000 0.8701 0.8703 0.8704 0.8707 0.8708
1724.000000 0.8711 0.8712 0.8714 0.8716 0.8718
1719.000000 0.8718 0.8721 0.8722 0.8725 0.8726
1714.000000 0.8728 0.8729 0.8732 0.8734 0.8735
1709.000000 0.8737 0.8737 0.8737 0.8736 0.8734
1704.000000 0.8732 0.8731 0.8729 0.8726 0.8726
1699.000000 0.8724 0.8723 0.8721 0.8720 0.8718
1694.000000 0.8718 0.8716 0.8714 0.8714 0.8714
1689.000000 0.8715 0.8715 0.8717 0.8717 0.8718
1684.000000 0.8718 0.8715 0.8713 0.8710 0.8706
1679.000000 0.8703 0.8701 0.8698 0.8695 0.8691
1674.000000 0.8689 0.8690 0.8696 0.8692 0.8686
1669.000000 0.8681 0.8676 0.8671 0.8667 0.8662
1664.000000 0.8657 0.8651 0.8645 0.8638 0.8647
1659.000000 0.8627 0.8618 0.8627 0.8621 0.8614
1654.000000 0.8607 0.8598 0.8578 0.8586 0.8579
1649.000000 0.8571 0.8564 0.8558 0.8557 0.8560
1644.000000 0.8554 0.8547 0.8548 0.8548 0.8541
1639.000000 0.8534 0.8537 0.8535 0.8540 0.8535
1634.000000 0.8528 0.8534 0.8530 0.8538 0.8529
1629.000000 0.8538 0.8529 0.8538 0.8523 0.8504
1624.000000 0.8515 0.8517 0.8532 0.8532 0.8516
1619.000000 0.8516 0.8515 0.8518 0.8529 0.8536
1614.000000 0.8541 0.8539 0.8544 0.8550 0.8535
1609.000000 0.8537 0.8533 0.8519 0.8536 0.8484
1604.000000 0.8490 0.8459 0.8455 0.8401 0.8408
1599.000000 0.8403 0.8413 0.8424 0.8419 0.8347
1594.000000 0.8290 0.8268 0.8283 0.8301 0.8277
1589.000000 0.8282 0.8312 0.8322 0.8342 0.8360
1584.000000 0.8390 0.8424 0.8416 0.8424 0.8423
1579.000000 0.8425 0.8395 0.8384 0.8354 0.8336
1574.000000 0.8338 0.8302 0.8253 0.8244 0.8202
1569.000000 0.8188 0.8113 0.8070 0.8026 0.8003
1564.000000 0.7989 0.7968 0.7949 0.7924 0.7899
1559.000000 0.7921 0.7870 0.7864 0.7917 0.8010
1554.000000 0.8105 0.8203 0.8337 0.8437 0.8501
1549.000000 0.8524 0.8556 0.8594 0.8663 0.8777
1544.000000 0.8867 0.8918 0.8950 0.8935 0.8914
1539.000000 0.8903 0.8935 0.8866 0.8867 0.8913
1534.000000 0.8910 0.8842 0.8785 0.8729 0.8688
1529.000000 0.8668 0.8656 0.8642 0.8640 0.8639
1524.000000 0.8654 0.8655 0.8659 0.8644 0.8647
1519.000000 0.8648 0.8631 0.8631 0.8628 0.8611
1514.000000 0.8611 0.8608 0.8613 0.8602 0.8590
1509.000000 0.8583 0.8565 0.8545 0.8527 0.8501
1504.000000 0.8484 0.8459 0.8415 0.8383 0.8357
1499.000000 0.8330 0.8290 0.8260 0.8234 0.8222
1494.000000 0.8189 0.8159 0.8127 0.8107 0.8064
1489.000000 0.8021 0.7975 0.7933 0.7892 0.7841
1484.000000 0.7792 0.7746 0.7711 0.7638 0.7516
1479.000000 0.7349 0.7170 0.7004 0.6848 0.6690
1474.000000 0.6483 0.6246 0.5989 0.5482 0.5075
1469.000000 0.4635 0.3953 0.3622 0.3659 0.3623
1464.000000 0.3597 0.3603 0.3629 0.3686 0.3942
1459.000000 0.4082 0.4222 0.4337 0.4419 0.4522
1454.000000 0.4726 0.4970 0.5213 0.5457 0.5695
1449.000000 0.5933 0.6176 0.6411 0.6651 0.6892
1444.000000 0.7103 0.7209 0.7315 0.7345 0.7385
1439.000000 0.7347 0.7336 0.7304 0.7259 0.7221
1434.000000 0.7179 0.7156 0.7160 0.7170 0.7204
1429.000000 0.7305 0.7402 0.7472 0.7552 0.7667
1424.000000 0.7760 0.7820 0.7851 0.7860 0.7869
1419.000000 0.7877 0.7886 0.7888 0.7875 0.7873
1414.000000 0.7871 0.7868 0.7867 0.7864 0.7857
1409.000000 0.7846 0.7836 0.7826 0.7815 0.7803
1404.000000 0.7788 0.7774 0.7761 0.7748 0.7729
1399.000000 0.7709 0.7697 0.7685 0.7660 0.7632
1394.000000 0.7604 0.7576 0.7530 0.7477 0.7431
1389.000000 0.7307 0.7134 0.6971 0.6543 0.6375
1384.000000 0.6180 0.5670 0.5170 0.4600 0.4570
1379.000000 0.4566 0.4669 0.4837 0.4874 0.4884
1374.000000 0.4895 0.4905 0.4917 0.4932 0.4949
1369.000000 0.4996 0.5068 0.5155 0.5256 0.5370
1364.000000 0.5570 0.5712 0.5845 0.5966 0.6092
1359.000000 0.6319 0.6428 0.6563 0.6764 0.6932
1354.000000 0.7094 0.7169 0.7205 0.7229 0.7252
1349.000000 0.7249 0.7256 0.7256 0.7239 0.7216
1344.000000 0.7191 0.7168 0.7141 0.7132 0.7125
1339.000000 0.7120 0.7123 0.7125 0.7128 0.7132
1334.000000 0.7132 0.7134 0.7142 0.7172 0.7199
1329.000000 0.7247 0.7300 0.7347 0.7391 0.7425
1324.000000 0.7460 0.7489 0.7510 0.7543 0.7570
1319.000000 0.7594 0.7616 0.7646 0.7672 0.7690
1314.000000 0.7704 0.7710 0.7716 0.7721 0.7721
1309.000000 0.7721 0.7721 0.7715 0.7705 0.7697
1304.000000 0.7672 0.7662 0.7651 0.7646 0.7643
1299.000000 0.7642 0.7639 0.7651 0.7666 0.7711
1294.000000 0.7747 0.7795 0.7842 0.7874 0.7899
1289.000000 0.7933 0.7945 0.7957 0.7964 0.7967
1284.000000 0.7963 0.7972 0.7961 0.7951 0.7940
1279.000000 0.7930 0.7905 0.7878 0.7861 0.7831
1274.000000 0.7804 0.7782 0.7759 0.7743 0.7725
1269.000000 0.7719 0.7711 0.7710 0.7716 0.7710
1264.000000 0.7713 0.7718 0.7716 0.7715 0.7717
1259.000000 0.7720 0.7720 0.7720 0.7720 0.7720
1254.000000 0.7714 0.7677 0.7643 0.7599 0.7553
1249.000000 0.7500 0.7489 0.7476 0.7462 0.7450
1244.000000 0.7435 0.7434 0.7434 0.7434 0.7437
1239.000000 0.7443 0.7453 0.7453 0.7417 0.7371
1234.000000 0.7340 0.7335 0.7337 0.7337 0.7335
1229.000000 0.7350 0.7406 0.7444 0.7478 0.7514
1224.000000 0.7553 0.7590 0.7626 0.7669 0.7719
1219.000000 0.7768 0.7819 0.7871 0.7920 0.7967
1214.000000 0.8006 0.8046 0.8075 0.8088 0.8139
1209.000000 0.8110 0.8120 0.8128 0.8128 0.8124
1204.000000 0.8117 0.8108 0.8100 0.8091 0.8081
1199.000000 0.8070 0.8046 0.8034 0.8020 0.8008
1194.000000 0.7994 0.7986 0.7963 0.7940 0.7914
1189.000000 0.7886 0.7856 0.7826 0.7796 0.7759
1184.000000 0.7718 0.7670 0.7613 0.7537 0.7470
1179.000000 0.7393 0.7268 0.7135 0.6981 0.6818
1174.000000 0.6632 0.6460 0.6307 0.6153 0.5999
1169.000000 0.5767 0.5512 0.5283 0.5131 0.4980
1164.000000 0.4811 0.4640 0.4329 0.3921 0.3514
1159.000000 0.3107 0.2595 0.2286 0.2113 0.2005
1154.000000 0.1873 0.1691 0.1564 0.1459 0.1356
1149.000000 0.1268 0.1177 0.1109 0.1044 0.0991
1144.000000 0.0941 0.0896 0.0866 0.0833 0.0793
1139.000000 0.0754 0.0716 0.0686 0.0660 0.0637
1134.000000 0.0618 0.0600 0.0605 0.0604 0.0603
1129.000000 0.0610 0.0616 0.0631 0.0645 0.0659
1124.000000 0.0692 0.0734 0.0794 0.0865 0.0939
1119.000000 0.0999 0.1040 0.1079 0.1102 0.1108
1114.000000 0.1121 0.1121 0.1122 0.1109 0.1026
1109.000000 0.0936 0.0847 0.0767 0.0690 0.0654
1104.000000 0.0628 0.0609 0.0603 0.0599 0.0595
1099.000000 0.0590 0.0590 0.0589 0.0590 0.0590
1094.000000 0.0590 0.0582 0.0566 0.0529 0.0486
1089.000000 0.0462 0.0438 0.0420 0.0405 0.0400
1084.000000 0.0373 0.0389 0.0389 0.0398 0.0410
1079.000000 0.0423 0.0443 0.0467 0.0492 0.0517
1074.000000 0.0559 0.0610 0.0690 0.0770 0.0924
1069.000000 0.1037 0.1123 0.1205 0.1262 0.1310
1064.000000 0.1363 0.1417 0.1473 0.1526 0.1595
1059.000000 0.1661 0.1729 0.1791 0.1884 0.1944
1054.000000 0.1990 0.2045 0.2083 0.2102 0.2115
1049.000000 0.2182 0.2123 0.2102 0.2049 0.1994
1044.000000 0.1895 0.1779 0.1688 0.1626 0.1577
1039.000000 0.1547 0.1526 0.1505 0.1492 0.1456
1034.000000 0.1477 0.1477 0.1478 0.1491 0.1500
1029.000000 0.1551 0.1601 0.1736 0.1835 0.1958
1024.000000 0.2106 0.2238 0.2357 0.2473 0.2590
1019.000000 0.2721 0.2874 0.3113 0.3279 0.3518
1014.000000 0.3688 0.3709 0.3727 0.3741 0.3746
1009.000000 0.3745 0.3718 0.3672 0.3600 0.3509
1004.000000 0.3351 0.3204 0.3061 0.2923 0.2787
999.000000 0.2651 0.2412 0.2301 0.2251 0.2221
994.000000 0.2209 0.2183 0.2196 0.2199 0.2221
989.000000 0.2276 0.2428 0.2587 0.2769 0.3173
984.000000 0.3363 0.3562 0.3858 0.4204 0.4332
979.000000 0.4511 0.4563 0.4576 0.4577 0.4578
974.000000 0.4538 0.4495 0.4443 0.4415 0.4387
969.000000 0.4379 0.4378 0.4405 0.4491 0.4681
964.000000 0.4961 0.5179 0.5398 0.5615 0.5826
959.000000 0.5914 0.6003 0.6099 0.6200 0.6306
954.000000 0.6418 0.6524 0.6597 0.6671 0.6744
949.000000 0.6817 0.6889 0.6960 0.7033 0.7109
944.000000 0.7229 0.7350 0.7450 0.7538 0.7638
939.000000 0.7861 0.7970 0.7985 0.7988 0.7989
934.000000 0.7989 0.7985 0.7976 0.7959 0.7906
929.000000 0.7761 0.7566 0.7386 0.7306 0.7254
924.000000 0.7221 0.7191 0.7214 0.7240 0.7284
919.000000 0.7337 0.7406 0.7459 0.7538 0.7591
914.000000 0.7641 0.7680 0.7714 0.7734 0.7731
909.000000 0.7784 0.7731 0.7703 0.7622 0.7367
904.000000 0.6963 0.6734 0.6730 0.6769 0.6893
899.000000 0.7008 0.7134 0.7261 0.7333 0.7358
894.000000 0.7446 0.7423 0.7443 0.7465 0.7461
889.000000 0.7433 0.7405 0.7371 0.7322 0.7260
884.000000 0.7220 0.7143 0.6989 0.6839 0.6688
879.000000 0.6529 0.6368 0.6206 0.6042 0.5875
874.000000 0.5710 0.5542 0.5373 0.5201 0.5028
869.000000 0.4854 0.4778 0.4785 0.4795 0.4738
864.000000 0.4840 0.4930 0.5120 0.5322 0.5529
859.000000 0.5731 0.5928 0.6120 0.6305 0.6484
854.000000 0.6647 0.6795 0.6932 0.7053 0.7165
849.000000 0.7252 0.7340 0.7417 0.7487 0.7500
844.000000 0.7458 0.7400 0.7327 0.7256 0.7185
839.000000 0.7116 0.7040 0.6996 0.6954 0.6944
834.000000 0.6959 0.6981 0.7085 0.7197 0.7314
829.000000 0.7434 0.7545 0.7664 0.7780 0.7900
824.000000 0.8026 0.8150 0.8277 0.8389 0.8462
819.000000 0.8479 0.8485 0.8490 0.8506 0.8516
814.000000 0.8502 0.8499 0.8514 0.8526 0.8522
809.000000 0.8531 0.8520 0.8501 0.8500 0.8504
804.000000 0.8499 0.8493 0.8484 0.8474 0.8465
799.000000 0.8456 0.8446 0.8438 0.8428 0.8418
794.000000 0.8395 0.8382 0.8371 0.8374 0.8337
789.000000 0.8313 0.8289 0.8255 0.8203 0.8152
784.000000 0.8089 0.7983 0.7879 0.7771 0.7696
779.000000 0.7642 0.7598 0.7560 0.7537 0.7520
774.000000 0.7505 0.7490 0.7475 0.7505 0.7544
769.000000 0.7556 0.7577 0.7596 0.7603 0.7598
764.000000 0.7601 0.7600 0.7627 0.7580 0.7538
759.000000 0.7477 0.7410 0.7302 0.7146 0.6991
754.000000 0.6838 0.6693 0.6537 0.6484 0.6382
749.000000 0.6411 0.6388 0.6401 0.6420 0.6503
744.000000 0.6583 0.6661 0.6916 0.6943 0.6967
739.000000 0.6993 0.7018 0.7044 0.7068 0.7094
734.000000 0.7177 0.7253 0.7344 0.7381 0.7407
729.000000 0.7420 0.7414 0.7456 0.7389 0.7381
724.000000 0.7360 0.7325 0.7284 0.7238 0.7186
719.000000 0.7125 0.7063 0.7012 0.6959 0.6905
714.000000 0.6866 0.6822 0.6773 0.6736 0.6703
709.000000 0.6669 0.6635 0.6599 0.6561 0.6522
704.000000 0.6485 0.6418 0.6330 0.6244 0.6163
699.000000 0.6074 0.5983 0.5830 0.5626 0.5436
694.000000 0.5251 0.5083 0.4915 0.4726 0.4530
689.000000 0.4313 0.4144 0.4027 0.3833 0.3638
684.000000 0.3476 0.3235 0.2986 0.2889 0.2811
679.000000 0.2712 0.2618 0.2539 0.2460 0.2372
674.000000 0.2284 0.2206 0.2125 0.2055 0.1994
669.000000 0.1956 0.1907 0.1818 0.1733 0.1669
664.000000 0.1626 0.1584 0.1547 0.1509 0.1474
659.000000 0.1442 0.1407 0.1374 0.1340 0.1302
654.000000 0.1273 0.1242 0.1212 0.1184 0.1154
649.000000 0.1126 0.1099 0.1081 0.1068 0.1041
644.000000 0.1084 0.1115 0.1158 0.1203 0.1242
639.000000 0.1283 0.1323 0.1347 0.1374 0.1400
634.000000 0.1423 0.1447 0.1470 0.1492 0.1513
629.000000 0.1526 0.1537 0.1549 0.1557 0.1564
624.000000 0.1571 0.1576 0.1577 0.1578 0.1579
619.000000 0.1581 0.1583 0.1582 0.1573 0.1567
614.000000 0.1558 0.1550 0.1543 0.1536 0.1529
609.000000 0.1515 0.1500 0.1484 0.1469 0.1454
604.000000 0.1439 0.1425 0.1410 0.1395 0.1380
599.000000 0.1366 0.1352 0.1337 0.1323 0.1315
594.000000 0.1308 0.1300 0.1293 0.1286 0.1278
589.000000 0.1270 0.1259 0.1243 0.1226 0.1212
584.000000 0.1195 0.1177 0.1154 0.1131 0.1108
579.000000 0.1085 0.1068 0.1049 0.1030 0.1015
574.000000 0.0999 0.0982 0.0963 0.0939 0.0915
569.000000 0.0891 0.0867 0.0842 0.0822 0.0803
564.000000 0.0782 0.0760 0.0741 0.0728 0.0715
559.000000 0.0701 0.0690 0.0683 0.0676 0.0669
554.000000 0.0663 0.0661 0.0661 0.0661 0.0666
549.000000 0.0671 0.0676 0.0681 0.0695 0.0710
544.000000 0.0725 0.0768 0.0826 0.0882 0.0939
539.000000 0.0995 0.1052 0.1110 0.1171 0.1230
534.000000 0.1290 0.1352 0.1413 0.1473 0.1533
529.000000 0.1594 0.1655 0.1712 0.1772 0.1830
524.000000 0.1888 0.1948 0.2005 0.2073 0.2140
519.000000 0.2205 0.2274 0.2341 0.2402 0.2462
514.000000 0.2523 0.2583 0.2643 0.2716 0.2798
509.000000 0.2880 0.2960 0.3037 0.3110 0.3162
504.000000 0.3206 0.3251 0.3295 0.3322 0.3346
499.000000 0.3351 0.3355 0.3361 0.3365 0.3369
494.000000 0.3373 0.3377 0.3379 0.3382 0.3385
489.000000 0.3392 0.3403 0.3414 0.3424 0.3438
484.000000 0.3460 0.3481 0.3501 0.3524 0.3545
479.000000 0.3567 0.3588 0.3608 0.3629 0.3651
474.000000 0.3672 0.3692 0.3714 0.3739 0.3763
469.000000 0.3787 0.3809 0.3832 0.3854 0.3875
464.000000 0.3898 0.3913 0.3926 0.3939 0.3953
459.000000 0.3967 0.3981 0.3996 0.4009 0.4018
454.000000 0.4025 0.4032 0.4040 0.4042 0.4042
449.000000 0.4042 0.4040 0.4045 0.4018 0.4006
444.000000 0.3994 0.3981 0.3955 0.3930 0.3905
439.000000 0.3875 0.3845 0.3798 0.3737 0.3680
434.000000 0.3632 0.3584 0.3535 0.3487 0.3422
429.000000 0.3361 0.3297 0.3245 0.3197 0.3149
424.000000 0.3100 0.3050 0.3007 0.2983 0.2959
419.000000 0.2934 0.2914 0.2906 0.2897 0.2890
414.000000 0.2881 0.2874 0.2868 0.2840 0.2857
409.000000 0.2855 0.2855 0.2858 0.2901 0.2949
404.000000 0.2999 0.3040 0.3079 0.3095 0.3307
399.000000 0.3575 0.3874 0.4171 0.4448 0.4733
##END=
