##TITLE=BENZOYL OSMOCENE
##JCAMP-DX=4.24
##DATA TYPE=INFRARED SPECTRUM
##CLASS=COBLENTZ
##ORIGIN=WYANDOTTE CHEMICALS CORP., WYANDOTTE, MICHIGAN, USA
##OWNER=COBLENTZ SOCIETY
Collection (C) 2018 copyright by the U.S. Secretary of Commerce
on behalf of the United States of America. All rights reserved.
##DATE=Not specified, most likely prior to 1970
##MOLFORM=C17 H14 O Os
##SOURCE REFERENCE=COBLENTZ NO. 2762
##$NIST ID=B6002762
##$NIST SOURCE=COBLENTZ
##$NIST IMAGE=cob2762
##SPECTROMETER/DATA SYSTEM=Not specified, most likely a prism, grating, or hybrid spectrometer.
##STATE=SOLID (MINERAL OIL MULL)
##PATH LENGTH=
$$SPECTRAL CONTAMINATION DUE TO OIL AROUND 2900 CM^-^1
##SAMPLING PROCEDURE=TRANSMISSION
##RESOLUTION=4
##DATA PROCESSING=DIGITIZED BY NIST FROM HARD COPY
##XUNITS=MICROMETERS
##YUNITS=TRANSMITTANCE
##XFACTOR=1.000000
##YFACTOR=1
##DELTAX=000.006651
##FIRSTX=2.02
##LASTX=16.0136
##FIRSTY=0.489
##MAXX=16.0136
##MINX=2.02
##MAXY=0.949
##MINY=0.103
##NPOINTS=2105
##XYDATA=(X++(Y..Y))
2.020000 0.4890 0.4890 0.4890 0.4900 0.4900
2.053270 0.4920 0.4920 0.4940 0.4970 0.5020
2.086000 0.5070 0.5100 0.5120 0.5120 0.5140
2.119270 0.5140 0.5190 0.5200 0.5220 0.5220
2.153000 0.5220 0.5240 0.5240 0.5250 0.5270
2.186270 0.5270 0.5270 0.5270 0.5270 0.5270
2.219000 0.5290 0.5290 0.5300 0.5340 0.5350
2.252270 0.5370 0.5370 0.5390 0.5390 0.5400
2.286000 0.5400 0.5420 0.5420 0.5440 0.5440
2.319270 0.5450 0.5450 0.5470 0.5470 0.5490
2.352000 0.5490 0.5500 0.5540 0.5550 0.5570
2.385270 0.5600 0.5620 0.5650 0.5650 0.5670
2.419000 0.5670 0.5670 0.5690 0.5690 0.5690
2.452270 0.5700 0.5700 0.5700 0.5790 0.5790
2.486000 0.5800 0.5800 0.5790 0.5790 0.5790
2.519270 0.5770 0.5740 0.5720 0.5690 0.5650
2.552000 0.5650 0.5670 0.5700 0.5720 0.5790
2.585270 0.5820 0.5920 0.5970 0.6010 0.6020
2.619000 0.6060 0.6070 0.6140 0.6140 0.6160
2.652270 0.6160 0.6140 0.6140 0.6120 0.6070
2.685000 0.6060 0.6040 0.6060 0.6140 0.6190
2.718270 0.6220 0.6240 0.6240 0.6240 0.6240
2.752000 0.6240 0.6220 0.6210 0.6210 0.6190
2.785270 0.6190 0.6170 0.6170 0.6220 0.6220
2.818000 0.6220 0.6210 0.6170 0.6160 0.6160
2.851270 0.6190 0.6190 0.6170 0.6170 0.6140
2.885000 0.6120 0.6110 0.6110 0.6120 0.6190
2.918270 0.6260 0.6240 0.6220 0.6190 0.6170
2.951000 0.6170 0.6220 0.6260 0.6270 0.6270
2.984270 0.6270 0.6270 0.6270 0.6270 0.6270
3.018000 0.6270 0.6260 0.6240 0.6220 0.6190
3.051270 0.6170 0.6170 0.6170 0.6190 0.6190
3.084000 0.6210 0.6210 0.6210 0.6220 0.6220
3.117270 0.6210 0.6160 0.6110 0.6060 0.6040
3.151000 0.6040 0.6060 0.6110 0.6140 0.6140
3.184270 0.6140 0.6140 0.6090 0.6060 0.6040
3.217000 0.6020 0.6010 0.5970 0.5950 0.5920
3.250270 0.5650 0.5270 0.5020 0.4750 0.4650
3.284000 0.4640 0.4640 0.4670 0.4840 0.4940
3.317270 0.5140 0.5290 0.5450 0.5590 0.5600
3.350000 0.5600 0.5600 0.5590 0.5300 0.5040
3.383270 0.4850 0.4670 0.4170 0.3900 0.3620
3.417000 0.3020 0.2420 0.1900 0.1680 0.1610
3.450270 0.1580 0.1530 0.1500 0.1480 0.1480
3.483000 0.1500 0.1650 0.1880 0.2100 0.2280
3.516270 0.2450 0.2980 0.3000 0.2980 0.2900
3.550000 0.2880 0.2900 0.2930 0.3150 0.3370
3.583270 0.3650 0.4800 0.5870 0.6690 0.6870
3.616000 0.6990 0.7070 0.7110 0.7210 0.7270
3.649270 0.7320 0.7370 0.7410 0.7420 0.7420
3.683000 0.7440 0.7440 0.7440 0.7440 0.7420
3.716270 0.7420 0.7420 0.7420 0.7420 0.7420
3.749000 0.7460 0.7490 0.7570 0.7570 0.7610
3.782270 0.7610 0.7570 0.7560 0.7540 0.7540
3.816000 0.7560 0.7590 0.7620 0.7670 0.7670
3.849270 0.7690 0.7690 0.7690 0.7690 0.7690
3.882000 0.7710 0.7710 0.7710 0.7720 0.7720
3.915270 0.7740 0.7740 0.7740 0.7740 0.7770
3.949000 0.7770 0.7810 0.7840 0.7840 0.7890
3.982270 0.7960 0.7990 0.8030 0.8040 0.8060
4.015000 0.8060 0.8060 0.8060 0.8060 0.8060
4.048270 0.8060 0.8080 0.8090 0.8090 0.8090
4.082000 0.8110 0.8110 0.8110 0.8110 0.8110
4.115270 0.8110 0.8110 0.8110 0.8110 0.8110
4.148000 0.8110 0.8110 0.8090 0.8090 0.8090
4.181270 0.8090 0.8090 0.8090 0.8110 0.8130
4.215000 0.8190 0.8210 0.8210 0.8230 0.8230
4.248270 0.8240 0.8260 0.8290 0.8290 0.8230
4.281000 0.8160 0.8010 0.7940 0.7790 0.7690
4.314270 0.7670 0.7670 0.7670 0.7710 0.7770
4.348000 0.7790 0.7810 0.7860 0.7870 0.7890
4.381270 0.7910 0.7960 0.8030 0.8040 0.8090
4.414000 0.8190 0.8260 0.8330 0.8430 0.8510
4.447270 0.8590 0.8610 0.8640 0.8640 0.8630
4.481000 0.8610 0.8590 0.8580 0.8510 0.8490
4.514270 0.8490 0.8490 0.8510 0.8530 0.8530
4.547000 0.8510 0.8510 0.8490 0.8490 0.8510
4.580270 0.8560 0.8560 0.8510 0.8490 0.8490
4.614000 0.8510 0.8580 0.8580 0.8580 0.8590
4.647270 0.8630 0.8710 0.8730 0.8780 0.8790
4.680000 0.8790 0.8810 0.8810 0.8830 0.8830
4.713270 0.8830 0.8830 0.8830 0.8840 0.8840
4.747000 0.8890 0.8910 0.8930 0.8940 0.8960
4.780270 0.8990 0.9010 0.9010 0.9010 0.9010
4.813000 0.9010 0.8990 0.8990 0.8990 0.8990
4.846270 0.8990 0.8990 0.8990 0.8990 0.9010
4.880000 0.9010 0.9030 0.9030 0.9080 0.9080
4.913270 0.9010 0.8980 0.8960 0.8960 0.8960
4.946000 0.9010 0.9030 0.9030 0.9010 0.9010
4.979270 0.9010 0.9010 0.9010 0.9010 0.9010
5.013000 0.9010 0.9080 0.9110 0.9140 0.9180
5.046270 0.9180 0.9190 0.9190 0.9180 0.9130
5.079000 0.9130 0.9090 0.9010 0.8980 0.8960
5.112270 0.8980 0.8990 0.9040 0.9040 0.9010
5.146000 0.8990 0.8980 0.8980 0.8980 0.8980
5.179270 0.8990 0.9040 0.9030 0.9010 0.9010
5.212000 0.8990 0.8990 0.8990 0.8990 0.8990
5.245270 0.8990 0.8990 0.9030 0.9060 0.9060
5.279000 0.9080 0.9080 0.9080 0.9080 0.9090
5.312270 0.9130 0.9190 0.9210 0.9230 0.9240
5.345000 0.9240 0.9240 0.9240 0.9240 0.9240
5.378270 0.9240 0.9260 0.9280 0.9290 0.9290
5.412000 0.9330 0.9380 0.9410 0.9460 0.9490
5.445270 0.9490 0.9460 0.9460 0.9440 0.9390
5.478000 0.9380 0.9380 0.9380 0.9380 0.9380
5.511270 0.9380 0.9340 0.9290 0.9280 0.9230
5.545000 0.9180 0.9130 0.9110 0.9080 0.9040
5.578270 0.9030 0.8990 0.8980 0.8960 0.8960
5.611000 0.8910 0.8910 0.8930 0.9010 0.9040
5.644270 0.9040 0.8980 0.8860 0.8790 0.8760
5.678000 0.8760 0.8780 0.8780 0.8790 0.8790
5.711270 0.8790 0.8790 0.8810 0.8810 0.8790
5.744000 0.8790 0.8760 0.8740 0.8730 0.8730
5.777270 0.8730 0.8740 0.8780 0.8780 0.8760
5.811000 0.8740 0.8690 0.8640 0.8630 0.8610
5.844270 0.8580 0.8560 0.8530 0.8510 0.8490
5.877000 0.8390 0.8360 0.8330 0.8330 0.8330
5.910270 0.8330 0.8430 0.8430 0.8390 0.8330
5.944000 0.8290 0.8240 0.8230 0.8180 0.7970
5.977270 0.7840 0.7710 0.7540 0.7520 0.7490
6.010000 0.7440 0.7410 0.7290 0.7090 0.6860
6.043270 0.6570 0.6290 0.6140 0.5970 0.5550
6.077000 0.5120 0.4690 0.3580 0.2480 0.1360
6.110270 0.1250 0.1130 0.1050 0.1030 0.1050
6.143000 0.1680 0.2000 0.2330 0.2950 0.3420
6.176270 0.3700 0.3920 0.4700 0.4740 0.5640
6.210000 0.5640 0.5620 0.5250 0.4870 0.4470
6.243270 0.4140 0.4120 0.4150 0.4770 0.5550
6.276000 0.6540 0.6560 0.6560 0.6160 0.5740
6.309270 0.5320 0.4890 0.4850 0.4850 0.4890
6.343000 0.5440 0.5690 0.6240 0.6690 0.6760
6.376270 0.6860 0.6920 0.7040 0.7140 0.7290
6.410000 0.7440 0.7860 0.8010 0.8110 0.8140
6.443270 0.8140 0.8110 0.8090 0.8090 0.8090
6.476000 0.8090 0.8110 0.8190 0.8210 0.8230
6.509270 0.8230 0.8230 0.8210 0.8130 0.8030
6.543000 0.7940 0.7810 0.7740 0.7740 0.7760
6.576270 0.7940 0.8060 0.8210 0.8310 0.8330
6.609000 0.8340 0.8340 0.8360 0.8410 0.8460
6.642270 0.8490 0.8480 0.8440 0.8390 0.8310
6.676000 0.8290 0.8230 0.8130 0.8090 0.8060
6.709270 0.8030 0.8010 0.7970 0.7910 0.7770
6.742000 0.7510 0.7440 0.7360 0.7170 0.7060
6.775270 0.6820 0.6560 0.6390 0.6210 0.5590
6.809000 0.5250 0.5050 0.4940 0.4820 0.4650
6.842270 0.4520 0.4070 0.3830 0.3580 0.3100
6.875000 0.2750 0.2400 0.2180 0.2170 0.2170
6.908270 0.2220 0.2870 0.3180 0.3430 0.3450
6.942000 0.3450 0.3180 0.3080 0.3070 0.3050
6.975270 0.3070 0.3570 0.4520 0.4920 0.5700
7.008000 0.6060 0.6770 0.7010 0.7160 0.7240
7.041270 0.7310 0.7390 0.7460 0.7540 0.7570
7.075000 0.7590 0.7590 0.7590 0.7540 0.7440
7.108270 0.7320 0.6940 0.6520 0.6110 0.5300
7.141000 0.5220 0.5220 0.5490 0.5840 0.6660
7.174270 0.7010 0.7440 0.7660 0.7640 0.7420
7.208000 0.7190 0.6340 0.5970 0.5590 0.5500
7.241270 0.5500 0.5690 0.5870 0.6040 0.6040
7.274000 0.6010 0.5750 0.5120 0.4490 0.3900
7.307270 0.3880 0.3900 0.4250 0.4690 0.5590
7.341000 0.5950 0.6960 0.7470 0.7970 0.8140
7.374270 0.8230 0.8280 0.8230 0.8130 0.7940
7.407000 0.7670 0.7340 0.7010 0.6870 0.6860
7.440270 0.6870 0.6970 0.7160 0.7360 0.7910
7.474000 0.8260 0.8490 0.8580 0.8580 0.8580
7.507270 0.8530 0.8460 0.7940 0.7570 0.7190
7.540000 0.6510 0.6340 0.6170 0.6110 0.6110
7.573270 0.6120 0.6240 0.6420 0.6440 0.6440
7.607000 0.6440 0.6470 0.6560 0.6760 0.6890
7.640270 0.7020 0.7110 0.7160 0.7190 0.7190
7.673000 0.7190 0.7160 0.7140 0.7090 0.6970
7.706270 0.6860 0.6660 0.6370 0.6260 0.6010
7.740000 0.5750 0.5200 0.4650 0.4190 0.3720
7.773270 0.3020 0.2730 0.2430 0.1810 0.1800
7.806000 0.1810 0.2000 0.2300 0.3080 0.3450
7.839270 0.4140 0.4350 0.4750 0.5450 0.5740
7.873000 0.5950 0.6110 0.6220 0.6470 0.6610
7.906270 0.6820 0.6940 0.7020 0.7110 0.7190
7.939000 0.7240 0.7310 0.7410 0.7490 0.7640
7.972270 0.7710 0.7790 0.7860 0.7870 0.7890
8.006000 0.7910 0.7920 0.7960 0.7990 0.8030
8.039270 0.8060 0.8090 0.8130 0.8190 0.8260
8.072000 0.8340 0.8390 0.8430 0.8510 0.8590
8.105270 0.8590 0.8610 0.8610 0.8610 0.8640
8.139000 0.8730 0.8890 0.8930 0.8930 0.8960
8.172270 0.8980 0.8980 0.8980 0.8980 0.8980
8.205000 0.8960 0.8940 0.8910 0.8890 0.8790
8.238270 0.8740 0.8680 0.8530 0.8460 0.8440
8.272000 0.8460 0.8480 0.8530 0.8610 0.8730
8.305270 0.8940 0.8990 0.9030 0.9030 0.9040
8.338000 0.9060 0.9060 0.9080 0.9080 0.9040
8.371270 0.9010 0.8990 0.8980 0.8960 0.8930
8.405000 0.8890 0.8780 0.8690 0.8610 0.8510
8.438270 0.8410 0.8330 0.8190 0.7940 0.7740
8.471000 0.7590 0.7520 0.7460 0.7410 0.7420
8.504270 0.7440 0.7470 0.7590 0.7590 0.7510
8.538000 0.7420 0.6940 0.6420 0.5900 0.5300
8.571270 0.5000 0.4700 0.4150 0.4140 0.4150
8.604000 0.4470 0.4640 0.4770 0.5340 0.5650
8.637270 0.6670 0.6840 0.7060 0.7290 0.7490
8.671000 0.7790 0.8040 0.8180 0.8310 0.8340
8.704270 0.8390 0.8410 0.8460 0.8490 0.8540
8.737000 0.8630 0.8660 0.8690 0.8710 0.8730
8.770270 0.8790 0.8830 0.8880 0.8910 0.8930
8.804000 0.8980 0.8990 0.8990 0.8990 0.8980
8.837270 0.8980 0.8980 0.8980 0.8980 0.8990
8.870000 0.8990 0.9010 0.9010 0.8990 0.8930
8.903270 0.8910 0.8910 0.8910 0.8910 0.8910
8.937000 0.8910 0.8890 0.8890 0.8860 0.8830
8.970270 0.8790 0.8780 0.8740 0.8730 0.8740
9.003000 0.8790 0.8810 0.8840 0.8860 0.8860
9.036270 0.8840 0.8830 0.8760 0.8660 0.8540
9.070000 0.7760 0.7220 0.6690 0.6260 0.5820
9.103270 0.5700 0.5700 0.5720 0.6160 0.7160
9.136000 0.7690 0.7810 0.7870 0.7890 0.7920
9.169270 0.7970 0.8090 0.8160 0.8210 0.8210
9.203000 0.8190 0.8190 0.8140 0.8080 0.7940
9.236270 0.7790 0.7610 0.7490 0.7370 0.7160
9.269000 0.6920 0.6910 0.6910 0.6920 0.7170
9.302270 0.7310 0.7460 0.7710 0.7790 0.7870
9.336000 0.7920 0.8010 0.8030 0.8090 0.8090
9.369270 0.8130 0.8190 0.8230 0.8230 0.8210
9.402000 0.8190 0.8190 0.8130 0.8110 0.8030
9.435270 0.7910 0.7690 0.7540 0.7390 0.6920
9.469000 0.6320 0.6060 0.5770 0.5370 0.5150
9.502270 0.5000 0.5000 0.4990 0.5240 0.5450
9.535000 0.5540 0.5620 0.5650 0.5600 0.5400
9.568270 0.5170 0.5070 0.4970 0.4950 0.4990
9.602000 0.5640 0.5890 0.6110 0.6820 0.7110
9.635270 0.7360 0.7670 0.7790 0.7810 0.7820
9.668000 0.7790 0.7660 0.7540 0.7420 0.7010
9.701270 0.6560 0.6340 0.6260 0.6170 0.6120
9.735000 0.6110 0.6140 0.6410 0.6390 0.6270
9.768270 0.6160 0.5870 0.5370 0.4770 0.4170
9.801000 0.4050 0.3900 0.3880 0.3920 0.4340
9.834270 0.4700 0.5550 0.5920 0.6770 0.7060
9.868000 0.7310 0.7470 0.7670 0.7760 0.7820
9.901270 0.7920 0.8040 0.8190 0.8230 0.8230
9.934000 0.8210 0.8210 0.8190 0.8130 0.7820
9.967270 0.7660 0.7490 0.7320 0.7190 0.6490
10.001000 0.6240 0.5990 0.5590 0.5190 0.5070
10.034270 0.4950 0.4820 0.4800 0.4840 0.5350
10.067000 0.5570 0.5840 0.6010 0.6110 0.6120
10.100270 0.6190 0.6440 0.6660 0.6940 0.7190
10.134000 0.7460 0.7860 0.8040 0.8180 0.8260
10.167270 0.8340 0.8430 0.8510 0.8560 0.8590
10.200000 0.8560 0.8530 0.8490 0.8490 0.8430
10.233270 0.8280 0.8040 0.7860 0.7660 0.7510
10.267000 0.7490 0.7460 0.7460 0.7470 0.7770
10.300270 0.8040 0.8240 0.8330 0.8410 0.8480
10.333000 0.8560 0.8610 0.8630 0.8640 0.8630
10.366270 0.8630 0.8640 0.8680 0.8840 0.8840
10.400000 0.8810 0.8810 0.8790 0.8780 0.8780
10.433270 0.8760 0.8760 0.8760 0.8740 0.8740
10.467000 0.8730 0.8730 0.8710 0.8690 0.8640
10.500270 0.8610 0.8530 0.8380 0.8110 0.7790
10.533000 0.7560 0.7320 0.6660 0.6360 0.6060
10.566270 0.5370 0.4690 0.4570 0.4420 0.4400
10.600000 0.4420 0.4900 0.5690 0.6110 0.6870
10.633270 0.7170 0.7470 0.7720 0.7810 0.7810
10.666000 0.7760 0.7620 0.7540 0.7460 0.7360
10.699270 0.7340 0.7340 0.7370 0.7670 0.7810
10.733000 0.7960 0.8160 0.8380 0.8530 0.8610
10.766270 0.8630 0.8660 0.8690 0.8740 0.8790
10.799000 0.8790 0.8810 0.8840 0.8880 0.8890
10.832270 0.8910 0.8930 0.8940 0.8960 0.8980
10.866000 0.8990 0.8990 0.8990 0.8990 0.8990
10.899270 0.8990 0.9010 0.9010 0.9010 0.9030
10.932000 0.9040 0.9060 0.9060 0.9040 0.9040
10.965270 0.9030 0.9010 0.8990 0.8940 0.8930
10.999000 0.8930 0.8930 0.8930 0.8980 0.9010
11.032270 0.9010 0.9010 0.9040 0.9060 0.9060
11.065000 0.9080 0.9080 0.9080 0.9080 0.9080
11.098270 0.9080 0.9060 0.9040 0.9030 0.9010
11.132000 0.9010 0.8990 0.8990 0.8990 0.8960
11.165270 0.8930 0.8890 0.8840 0.8810 0.8790
11.198000 0.8780 0.8760 0.8740 0.8710 0.8690
11.231270 0.8660 0.8640 0.8630 0.8630 0.8610
11.265000 0.8590 0.8590 0.8590 0.8580 0.8560
11.298270 0.8540 0.8530 0.8510 0.8460 0.8380
11.331000 0.8260 0.8090 0.7990 0.7910 0.7820
11.364270 0.7770 0.7760 0.7720 0.7710 0.7690
11.398000 0.7690 0.7690 0.7710 0.7710 0.7710
11.431270 0.7710 0.7710 0.7710 0.7690 0.7640
11.464000 0.7590 0.7520 0.7510 0.7510 0.7490
11.497270 0.7460 0.7440 0.7440 0.7460 0.7570
11.531000 0.7670 0.7810 0.7910 0.8010 0.8030
11.564270 0.8030 0.8090 0.8180 0.8230 0.8240
11.597000 0.8260 0.8260 0.8240 0.8230 0.8180
11.630270 0.8060 0.7860 0.7640 0.7520 0.7390
11.664000 0.7140 0.6920 0.6710 0.6560 0.6440
11.697270 0.6390 0.6340 0.6340 0.6320 0.6260
11.730000 0.6210 0.6160 0.5970 0.5700 0.5390
11.763270 0.5190 0.4990 0.4700 0.4420 0.4190
11.797000 0.4150 0.4140 0.4150 0.4290 0.4450
11.830270 0.4650 0.4840 0.5250 0.5450 0.5670
11.863000 0.5870 0.6020 0.6190 0.6220 0.6290
11.896270 0.6290 0.6310 0.6340 0.6420 0.6520
11.930000 0.6620 0.6660 0.6690 0.6690 0.6640
11.963270 0.6510 0.6290 0.6160 0.6020 0.5720
11.996000 0.5420 0.5100 0.4950 0.4800 0.4520
12.029270 0.4290 0.4100 0.3950 0.3820 0.3800
12.063000 0.3780 0.3770 0.3750 0.3720 0.3670
12.096270 0.3620 0.3580 0.3520 0.3450 0.3350
12.129000 0.3320 0.3280 0.3250 0.3250 0.3220
12.162270 0.3220 0.3220 0.3230 0.3270 0.3320
12.196000 0.3680 0.4300 0.4590 0.4850 0.5340
12.229270 0.5590 0.5850 0.5990 0.6140 0.6440
12.262000 0.6610 0.6770 0.6970 0.7160 0.7360
12.295270 0.7490 0.7810 0.7920 0.8010 0.8040
12.329000 0.8110 0.8180 0.8290 0.8330 0.8360
12.362270 0.8410 0.8440 0.8490 0.8580 0.8680
12.395000 0.8730 0.8730 0.8730 0.8730 0.8710
12.428270 0.8680 0.8640 0.8610 0.8590 0.8560
12.462000 0.8490 0.8390 0.8230 0.8010 0.7690
12.495270 0.7520 0.7340 0.6860 0.6370 0.6170
12.528000 0.5950 0.5700 0.5690 0.5700 0.6010
12.561270 0.6620 0.6890 0.7260 0.7890 0.8140
12.595000 0.8310 0.8410 0.8480 0.8510 0.8580
12.628270 0.8690 0.8830 0.8860 0.8910 0.8930
12.661000 0.8940 0.8980 0.8990 0.9010 0.9010
12.694270 0.9030 0.9030 0.9030 0.9030 0.9040
12.728000 0.9040 0.9110 0.9110 0.9130 0.9140
12.761270 0.9190 0.9210 0.9210 0.9190 0.9160
12.794000 0.9140 0.9140 0.9160 0.9180 0.9210
12.827270 0.9190 0.9160 0.9160 0.9160 0.9140
12.861000 0.9140 0.9140 0.9140 0.9140 0.9130
12.894270 0.9130 0.9140 0.9140 0.9140 0.9140
12.927000 0.9140 0.9130 0.9110 0.9110 0.9110
12.960270 0.9110 0.9110 0.9110 0.9110 0.9110
12.994000 0.9110 0.9110 0.9090 0.9090 0.9090
13.027270 0.9090 0.9110 0.9130 0.9130 0.9130
13.060000 0.9130 0.9130 0.9130 0.9110 0.9110
13.093270 0.9130 0.9130 0.9130 0.9130 0.9130
13.127000 0.9110 0.9090 0.9090 0.9080 0.9080
13.160270 0.9060 0.9060 0.9040 0.9010 0.8990
13.193000 0.8990 0.8990 0.8990 0.8990 0.8990
13.226270 0.9010 0.9040 0.9080 0.9080 0.9030
13.260000 0.9010 0.9010 0.8990 0.8990 0.9010
13.293270 0.9030 0.9030 0.9030 0.9030 0.9040
13.326000 0.9040 0.9040 0.9040 0.9030 0.9030
13.359270 0.9010 0.9010 0.9010 0.9010 0.9030
13.393000 0.9030 0.9040 0.9040 0.9040 0.9040
13.426270 0.9030 0.9030 0.9030 0.8990 0.8990
13.459000 0.8990 0.8990 0.9010 0.9030 0.9030
13.492270 0.9090 0.9090 0.9060 0.9040 0.9010
13.526000 0.9010 0.8990 0.8990 0.8990 0.8990
13.559270 0.8990 0.8980 0.8960 0.8940 0.8910
13.592000 0.8890 0.8890 0.8890 0.8890 0.8890
13.625270 0.8910 0.8910 0.8930 0.8930 0.8890
13.659000 0.8860 0.8840 0.8810 0.8760 0.8740
13.692270 0.8730 0.8690 0.8630 0.8560 0.8530
13.725000 0.8510 0.8490 0.8440 0.8330 0.8190
13.758270 0.8080 0.7920 0.7760 0.7590 0.7490
13.792000 0.7370 0.7140 0.6860 0.6560 0.6390
13.825270 0.6210 0.5900 0.5450 0.5220 0.4990
13.858000 0.4500 0.4050 0.3850 0.3630 0.3250
13.891270 0.2950 0.2700 0.2550 0.2470 0.2370
13.925000 0.2220 0.2180 0.2180 0.2200 0.2270
13.958270 0.2370 0.2700 0.2930 0.3050 0.3370
13.991000 0.3630 0.4120 0.4370 0.4620 0.4890
14.024270 0.5300 0.5540 0.5750 0.5950 0.6110
14.058000 0.6390 0.6570 0.6720 0.6860 0.7010
14.091270 0.7140 0.7270 0.7410 0.7670 0.7740
14.124000 0.7810 0.7860 0.7920 0.7970 0.8010
14.157270 0.8040 0.8060 0.8080 0.8090 0.8130
14.191000 0.8140 0.8180 0.8190 0.8210 0.8230
14.224270 0.8240 0.8240 0.8240 0.8210 0.8210
14.257000 0.8210 0.8190 0.8180 0.8140 0.8130
14.290270 0.8080 0.8030 0.7970 0.7870 0.7760
14.324000 0.7560 0.7490 0.7410 0.7310 0.7120
14.357270 0.6920 0.6670 0.6440 0.6320 0.6210
14.390000 0.5840 0.5500 0.5200 0.5090 0.4950
14.423270 0.4720 0.4500 0.4320 0.4120 0.3920
14.457000 0.3780 0.3730 0.3680 0.3650 0.3670
14.490270 0.3830 0.3950 0.4100 0.4270 0.4470
14.524000 0.4650 0.4850 0.5300 0.5600 0.5800
14.557270 0.6010 0.6160 0.6890 0.6910 0.6970
14.590000 0.7060 0.7090 0.7170 0.7270 0.7320
14.623270 0.7390 0.7470 0.7560 0.7590 0.7610
14.657000 0.7660 0.7710 0.7760 0.7790 0.7810
14.690270 0.7810 0.7820 0.7840 0.7840 0.7860
14.723000 0.7910 0.7940 0.7960 0.7970 0.7990
14.756270 0.7990 0.7990 0.7990 0.7970 0.7920
14.790000 0.7890 0.7820 0.7760 0.7690 0.7590
14.823270 0.7540 0.7470 0.7340 0.7240 0.7160
14.856000 0.6990 0.6810 0.6610 0.6440 0.6310
14.889270 0.6260 0.6240 0.6220 0.6210 0.6210
14.923000 0.6220 0.6270 0.6290 0.6310 0.6360
14.956270 0.6440 0.6520 0.6560 0.6640 0.6670
14.989000 0.6720 0.6770 0.6810 0.6840 0.6820
15.022270 0.6810 0.6760 0.6710 0.6660 0.6620
15.056000 0.6570 0.6540 0.6520 0.6470 0.6410
15.089270 0.6340 0.6310 0.6290 0.6270 0.6270
15.122000 0.6270 0.6290 0.6320 0.6340 0.6360
15.155270 0.6390 0.6420 0.6510 0.6560 0.6660
15.189000 0.6710 0.6760 0.6860 0.6960 0.7010
15.222270 0.7110 0.7140 0.7170 0.7170 0.7170
15.255000 0.7170 0.7170 0.7190 0.7190 0.7190
15.288270 0.7210 0.7240 0.7260 0.7270 0.7310
15.322000 0.7310 0.7270 0.7270 0.7240 0.7240
15.355270 0.7240 0.7260 0.7270 0.7290 0.7290
15.388000 0.7290 0.7270 0.7240 0.7210 0.7210
15.421270 0.7170 0.7160 0.7160 0.7120 0.7090
15.455000 0.7020 0.6990 0.6940 0.6890 0.6870
15.488270 0.6860 0.6860 0.6860 0.6860 0.6860
15.521000 0.6860 0.6860 0.6860 0.6870 0.6870
15.554270 0.6870 0.6890 0.6910 0.6920 0.6920
15.588000 0.6920 0.6910 0.6870 0.6860 0.6840
15.621270 0.6820 0.6810 0.6810 0.6810 0.6820
15.654000 0.6820 0.6820 0.6820 0.6810 0.6810
15.687270 0.6790 0.6790 0.6770 0.6770 0.6740
15.721000 0.6740 0.6720 0.6710 0.6660 0.6620
15.754270 0.6610 0.6610 0.6590 0.6570 0.6560
15.787000 0.6540 0.6540 0.6510 0.6490 0.6470
15.820270 0.6470 0.6460 0.6460 0.6460 0.6440
15.854000 0.6410 0.6370 0.6320 0.6290 0.6290
15.887270 0.6260 0.6240 0.6220 0.6220 0.6240
15.920000 0.6270 0.6270 0.6260 0.6260 0.6260
15.953270 0.6240 0.6220 0.6210 0.6210 0.6170
15.987000 0.6140 0.6220 0.6210 0.6210 0.6170
##END=
