##TITLE=Isooctyl decyl phthalate
##JCAMP-DX=4.24
$$ By DXEDIT 1.05 (RS McDonald)
##DATA TYPE=INFRARED SPECTRUM
##CLASS=COBLENTZ
##ORIGIN=DOW CHEMICAL COMPANY
##OWNER=COPYRIGHT (C) 1988 by COBLENTZ SOCIETY INC.
Collection (C) 2018 copyright by the U.S. Secretary of Commerce
on behalf of the United States of America. All rights reserved.
##DATE=1970/01/30
##CAS NAME=1,2-Benzenedioic acid, decyl isooctyl ester
##NAMES=1-decyl 2-(6-methylheptyl) phthalate
PX-118 (Pittsburg Coke & Chem.)
##MOLFORM=C26 H42 O4
##SOURCE REFERENCE=COBLENTZ NO. 09589
##$NIST ID=B6009589
##$NIST SOURCE=COBLENTZ
##$NIST IMAGE=cob9589
##SPECTROMETER/DATA SYSTEM=DOW KBr FOREPRISM-GRATING
##INSTRUMENT PARAMETERS=BLAZED AT 3.5, 12.0, 20.0 MICRON AND CHANGED AT 5.0, 7.5, 14.9 MICRON
##STATE=SOLUTION (10% CCl4 FOR 2.7-7.5, CS2 FOR 7.5-26 MICRON) VS SOLVENT
##PATH LENGTH=0.011 CM, 0.011 CM
##SAMPLING PROCEDURE=TRANSMISSION
##RESOLUTION=2
##DATA PROCESSING=DIGITIZED BY COBLENTZ SOCIETY (BATCH I) FROM HARD COPY
##XUNITS=1/CM
##YUNITS=TRANSMITTANCE
##XFACTOR=1
##YFACTOR=1
##DELTAX=1
##FIRSTX=3792
##LASTX=393
##FIRSTY=0.8625
##MAXX=3792
##MINX=393
##MAXY=0.9037
##MINY=0.0076
##NPOINTS=3400
##XYDATA=(X++(Y..Y))
3792.000000 0.8625 0.8625 0.8625 0.8624 0.8623
3787.000000 0.8621 0.8621 0.8620 0.8618 0.8618
3782.000000 0.8617 0.8616 0.8616 0.8615 0.8614
3777.000000 0.8613 0.8612 0.8611 0.8610 0.8609
3772.000000 0.8609 0.8608 0.8607 0.8606 0.8605
3767.000000 0.8604 0.8603 0.8602 0.8602 0.8601
3762.000000 0.8600 0.8599 0.8598 0.8598 0.8598
3757.000000 0.8597 0.8597 0.8596 0.8596 0.8595
3752.000000 0.8595 0.8594 0.8594 0.8593 0.8593
3747.000000 0.8592 0.8592 0.8591 0.8591 0.8591
3742.000000 0.8591 0.8591 0.8591 0.8591 0.8591
3737.000000 0.8591 0.8591 0.8591 0.8591 0.8591
3732.000000 0.8591 0.8591 0.8591 0.8591 0.8591
3727.000000 0.8591 0.8591 0.8591 0.8592 0.8592
3722.000000 0.8593 0.8593 0.8594 0.8594 0.8595
3717.000000 0.8596 0.8597 0.8597 0.8598 0.8598
3712.000000 0.8599 0.8599 0.8600 0.8601 0.8602
3707.000000 0.8603 0.8605 0.8606 0.8608 0.8609
3702.000000 0.8611 0.8612 0.8614 0.8615 0.8616
3697.000000 0.8617 0.8618 0.8620 0.8621 0.8624
3692.000000 0.8625 0.8628 0.8630 0.8631 0.8633
3687.000000 0.8635 0.8637 0.8638 0.8640 0.8640
3682.000000 0.8641 0.8641 0.8642 0.8642 0.8643
3677.000000 0.8643 0.8644 0.8644 0.8644 0.8644
3672.000000 0.8644 0.8641 0.8638 0.8635 0.8633
3667.000000 0.8630 0.8628 0.8625 0.8621 0.8618
3662.000000 0.8617 0.8615 0.8614 0.8614 0.8615
3657.000000 0.8615 0.8616 0.8616 0.8617 0.8617
3652.000000 0.8618 0.8618 0.8618 0.8618 0.8620
3647.000000 0.8620 0.8621 0.8621 0.8624 0.8625
3642.000000 0.8625 0.8627 0.8628 0.8630 0.8631
3637.000000 0.8632 0.8633 0.8634 0.8636 0.8637
3632.000000 0.8638 0.8639 0.8641 0.8642 0.8643
3627.000000 0.8645 0.8647 0.8648 0.8650 0.8651
3622.000000 0.8653 0.8654 0.8656 0.8657 0.8659
3617.000000 0.8660 0.8662 0.8663 0.8665 0.8666
3612.000000 0.8668 0.8668 0.8671 0.8671 0.8674
3607.000000 0.8675 0.8677 0.8678 0.8680 0.8681
3602.000000 0.8683 0.8684 0.8686 0.8687 0.8689
3597.000000 0.8690 0.8692 0.8693 0.8695 0.8696
3592.000000 0.8697 0.8698 0.8700 0.8701 0.8703
3587.000000 0.8704 0.8706 0.8707 0.8709 0.8710
3582.000000 0.8712 0.8713 0.8715 0.8716 0.8718
3577.000000 0.8718 0.8720 0.8721 0.8721 0.8723
3572.000000 0.8725 0.8725 0.8727 0.8728 0.8730
3567.000000 0.8731 0.8732 0.8733 0.8734 0.8735
3562.000000 0.8737 0.8738 0.8739 0.8740 0.8742
3557.000000 0.8743 0.8744 0.8745 0.8747 0.8748
3552.000000 0.8749 0.8750 0.8752 0.8753 0.8754
3547.000000 0.8755 0.8757 0.8758 0.8759 0.8760
3542.000000 0.8762 0.8763 0.8764 0.8765 0.8767
3537.000000 0.8768 0.8768 0.8770 0.8771 0.8773
3532.000000 0.8774 0.8775 0.8777 0.8778 0.8780
3527.000000 0.8781 0.8782 0.8783 0.8785 0.8787
3522.000000 0.8789 0.8791 0.8793 0.8794 0.8796
3517.000000 0.8798 0.8800 0.8802 0.8804 0.8806
3512.000000 0.8808 0.8810 0.8812 0.8813 0.8815
3507.000000 0.8817 0.8818 0.8821 0.8823 0.8825
3502.000000 0.8827 0.8828 0.8830 0.8831 0.8833
3497.000000 0.8834 0.8836 0.8837 0.8838 0.8839
3492.000000 0.8841 0.8842 0.8844 0.8845 0.8846
3487.000000 0.8847 0.8849 0.8850 0.8852 0.8852
3482.000000 0.8853 0.8853 0.8854 0.8854 0.8855
3477.000000 0.8855 0.8855 0.8855 0.8856 0.8856
3472.000000 0.8856 0.8856 0.8856 0.8856 0.8856
3467.000000 0.8856 0.8856 0.8856 0.8856 0.8856
3462.000000 0.8856 0.8856 0.8856 0.8856 0.8856
3457.000000 0.8856 0.8856 0.8853 0.8850 0.8846
3452.000000 0.8842 0.8837 0.8832 0.8825 0.8818
3447.000000 0.8811 0.8804 0.8794 0.8784 0.8771
3442.000000 0.8761 0.8750 0.8740 0.8732 0.8724
3437.000000 0.8716 0.8709 0.8703 0.8697 0.8691
3432.000000 0.8686 0.8681 0.8675 0.8671 0.8668
3427.000000 0.8665 0.8662 0.8659 0.8639 0.8655
3422.000000 0.8654 0.8652 0.8651 0.8651 0.8651
3417.000000 0.8655 0.8660 0.8664 0.8668 0.8673
3412.000000 0.8678 0.8684 0.8691 0.8701 0.8712
3407.000000 0.8721 0.8733 0.8743 0.8753 0.8762
3402.000000 0.8771 0.8778 0.8787 0.8795 0.8804
3397.000000 0.8812 0.8820 0.8825 0.8833 0.8838
3392.000000 0.8843 0.8848 0.8854 0.8859 0.8865
3387.000000 0.8870 0.8875 0.8880 0.8886 0.8888
3382.000000 0.8891 0.8894 0.8897 0.8899 0.8902
3377.000000 0.8904 0.8907 0.8910 0.8913 0.8915
3372.000000 0.8918 0.8918 0.8921 0.8923 0.8925
3367.000000 0.8925 0.8928 0.8930 0.8932 0.8933
3362.000000 0.8935 0.8936 0.8938 0.8940 0.8942
3357.000000 0.8943 0.8945 0.8947 0.8949 0.8950
3352.000000 0.8951 0.8952 0.8953 0.8954 0.8955
3347.000000 0.8956 0.8957 0.8958 0.8959 0.8960
3342.000000 0.8961 0.8962 0.8963 0.8964 0.8965
3337.000000 0.8966 0.8967 0.8968 0.8968 0.8970
3332.000000 0.8971 0.8971 0.8973 0.8974 0.8975
3327.000000 0.8975 0.8977 0.8978 0.8978 0.8978
3322.000000 0.8980 0.8980 0.8981 0.8981 0.8982
3317.000000 0.8982 0.8982 0.8982 0.8983 0.8983
3312.000000 0.8984 0.8984 0.8984 0.8984 0.8985
3307.000000 0.8985 0.8986 0.8986 0.8986 0.8986
3302.000000 0.8987 0.8987 0.8988 0.8988 0.8988
3297.000000 0.8988 0.8989 0.8989 0.8990 0.8990
3292.000000 0.8990 0.8990 0.8991 0.8991 0.8991
3287.000000 0.8991 0.8992 0.8992 0.8992 0.8992
3282.000000 0.8993 0.8993 0.8993 0.8993 0.8994
3277.000000 0.8994 0.8994 0.8994 0.8995 0.8995
3272.000000 0.8996 0.8996 0.8996 0.8995 0.8995
3267.000000 0.8994 0.8994 0.8993 0.8993 0.8992
3262.000000 0.8992 0.8991 0.8991 0.8990 0.8990
3257.000000 0.8989 0.8989 0.8988 0.8988 0.8987
3252.000000 0.8987 0.8986 0.8986 0.8985 0.8985
3247.000000 0.8984 0.8983 0.8981 0.8980 0.8978
3242.000000 0.8978 0.8977 0.8975 0.8975 0.8974
3237.000000 0.8973 0.8971 0.8971 0.8970 0.8968
3232.000000 0.8968 0.8967 0.8966 0.8965 0.8965
3227.000000 0.8964 0.8963 0.8962 0.8961 0.8960
3222.000000 0.8960 0.8957 0.8955 0.8952 0.8949
3217.000000 0.8946 0.8943 0.8940 0.8938 0.8935
3212.000000 0.8932 0.8928 0.8924 0.8920 0.8916
3207.000000 0.8912 0.8908 0.8903 0.8899 0.8895
3202.000000 0.8891 0.8887 0.8883 0.8878 0.8875
3197.000000 0.8871 0.8867 0.8863 0.8859 0.8854
3192.000000 0.8850 0.8846 0.8842 0.8837 0.8833
3187.000000 0.8828 0.8825 0.8820 0.8816 0.8813
3182.000000 0.8811 0.8808 0.8805 0.8802 0.8800
3177.000000 0.8797 0.8795 0.8793 0.8792 0.8790
3172.000000 0.8789 0.8788 0.8787 0.8785 0.8784
3167.000000 0.8784 0.8784 0.8784 0.8784 0.8784
3162.000000 0.8785 0.8785 0.8785 0.8785 0.8786
3157.000000 0.8786 0.8786 0.8786 0.8786 0.8786
3152.000000 0.8787 0.8787 0.8788 0.8788 0.8789
3147.000000 0.8789 0.8790 0.8790 0.8791 0.8792
3142.000000 0.8793 0.8793 0.8794 0.8794 0.8795
3137.000000 0.8795 0.8796 0.8796 0.8796 0.8796
3132.000000 0.8796 0.8796 0.8796 0.8795 0.8795
3127.000000 0.8794 0.8794 0.8794 0.8794 0.8793
3122.000000 0.8793 0.8792 0.8791 0.8789 0.8788
3117.000000 0.8786 0.8785 0.8783 0.8782 0.8780
3112.000000 0.8778 0.8777 0.8775 0.8774 0.8773
3107.000000 0.8771 0.8770 0.8768 0.8766 0.8763
3102.000000 0.8761 0.8758 0.8755 0.8752 0.8750
3097.000000 0.8747 0.8744 0.8740 0.8737 0.8733
3092.000000 0.8728 0.8725 0.8721 0.8718 0.8714
3087.000000 0.8710 0.8706 0.8701 0.8696 0.8688
3082.000000 0.8681 0.8668 0.8657 0.8645 0.8633
3077.000000 0.8611 0.8589 0.8530 0.8471 0.8398
3072.000000 0.8325 0.8252 0.8178 0.8106 0.8033
3067.000000 0.7968 0.7905 0.7891 0.7878 0.7875
3062.000000 0.7875 0.7882 0.7889 0.7903 0.7917
3057.000000 0.7932 0.7947 0.7964 0.7981 0.7999
3052.000000 0.8018 0.8036 0.8055 0.8075 0.8096
3047.000000 0.8118 0.8143 0.8165 0.8189 0.8210
3042.000000 0.8232 0.8241 0.8250 0.8257 0.8264
3037.000000 0.8266 0.8268 0.8271 0.8274 0.8277
3032.000000 0.8280 0.8280 0.8280 0.8280 0.8280
3027.000000 0.8271 0.8265 0.8255 0.8246 0.8227
3022.000000 0.8209 0.8194 0.8178 0.8168 0.8158
3017.000000 0.8149 0.8139 0.8128 0.8118 0.8107
3012.000000 0.8097 0.8086 0.8075 0.8055 0.8035
3007.000000 0.8003 0.7971 0.7931 0.7891 0.7847
3002.000000 0.7803 0.7753 0.7704 0.7641 0.7578
2997.000000 0.7504 0.7431 0.7338 0.7245 0.7095
2992.000000 0.6946 0.6696 0.6446 0.6196 0.5946
2987.000000 0.5695 0.5445 0.5195 0.4945 0.4695
2982.000000 0.4445 0.4195 0.3945 0.3694 0.3444
2977.000000 0.3194 0.2944 0.2694 0.2444 0.2194
2972.000000 0.1944 0.1693 0.1442 0.1192 0.0942
2967.000000 0.0693 0.0443 0.0396 0.0349 0.0330
2962.000000 0.0311 0.0293 0.0275 0.0260 0.0246
2957.000000 0.0241 0.0236 0.0233 0.0233 0.0233
2952.000000 0.0234 0.0266 0.0298 0.0354 0.0411
2947.000000 0.0467 0.0524 0.0580 0.0637 0.0693
2942.000000 0.0750 0.0806 0.0862 0.0918 0.0975
2937.000000 0.1031 0.1126 0.1108 0.1128 0.1124
2932.000000 0.1121 0.1080 0.1040 0.0982 0.0924
2927.000000 0.0872 0.0820 0.0810 0.0796 0.0795
2922.000000 0.0794 0.0794 0.0795 0.0805 0.0815
2917.000000 0.0845 0.0875 0.0915 0.0956 0.0996
2912.000000 0.1038 0.1078 0.1119 0.1159 0.1200
2907.000000 0.1240 0.1281 0.1322 0.1363 0.1403
2902.000000 0.1444 0.1484 0.1525 0.1563 0.1601
2897.000000 0.1674 0.1748 0.1822 0.1895 0.1969
2892.000000 0.2043 0.2117 0.2191 0.2264 0.2338
2887.000000 0.2412 0.2485 0.2559 0.2633 0.2707
2882.000000 0.2904 0.2825 0.2869 0.2870 0.2872
2877.000000 0.2743 0.2614 0.2451 0.2289 0.2126
2872.000000 0.1964 0.1801 0.1553 0.1609 0.1579
2867.000000 0.1653 0.1728 0.1818 0.1909 0.1999
2862.000000 0.2090 0.2180 0.2271 0.2361 0.2452
2857.000000 0.2542 0.2632 0.2722 0.2813 0.2922
2852.000000 0.3032 0.3084 0.3138 0.3273 0.3408
2847.000000 0.3548 0.3689 0.3829 0.3968 0.4109
2842.000000 0.4249 0.4389 0.4529 0.4669 0.4810
2837.000000 0.4950 0.5090 0.5230 0.5370 0.5510
2832.000000 0.5650 0.5790 0.5931 0.6129 0.6328
2827.000000 0.6403 0.6478 0.6576 0.6675 0.6768
2822.000000 0.6862 0.6947 0.7031 0.7125 0.7218
2817.000000 0.7280 0.7341 0.7384 0.7428 0.7469
2812.000000 0.7512 0.7542 0.7571 0.7601 0.7631
2807.000000 0.7660 0.7690 0.7715 0.7741 0.7765
2802.000000 0.7791 0.7815 0.7842 0.7867 0.7892
2797.000000 0.7917 0.7942 0.7965 0.7991 0.8015
2792.000000 0.8041 0.8064 0.8087 0.8107 0.8128
2787.000000 0.8146 0.8165 0.8178 0.8194 0.8208
2782.000000 0.8223 0.8236 0.8249 0.8261 0.8274
2777.000000 0.8286 0.8298 0.8308 0.8318 0.8327
2772.000000 0.8337 0.8340 0.8344 0.8346 0.8349
2767.000000 0.8352 0.8355 0.8358 0.8361 0.8364
2762.000000 0.8367 0.8370 0.8373 0.8375 0.8377
2757.000000 0.8378 0.8378 0.8380 0.8382 0.8382
2752.000000 0.8383 0.8383 0.8383 0.8383 0.8384
2747.000000 0.8384 0.8385 0.8385 0.8386 0.8386
2742.000000 0.8386 0.8386 0.8387 0.8387 0.8386
2737.000000 0.8386 0.8385 0.8378 0.8374 0.8368
2732.000000 0.8364 0.8358 0.8353 0.8345 0.8337
2727.000000 0.8328 0.8321 0.8316 0.8311 0.8306
2722.000000 0.8301 0.8298 0.8297 0.8297 0.8298
2717.000000 0.8298 0.8299 0.8300 0.8301 0.8302
2712.000000 0.8303 0.8309 0.8315 0.8321 0.8327
2707.000000 0.8333 0.8339 0.8345 0.8352 0.8361
2702.000000 0.8371 0.8380 0.8390 0.8399 0.8409
2697.000000 0.8416 0.8424 0.8431 0.8438 0.8445
2692.000000 0.8452 0.8459 0.8466 0.8471 0.8477
2687.000000 0.8478 0.8482 0.8484 0.8487 0.8490
2682.000000 0.8493 0.8495 0.8498 0.8500 0.8503
2677.000000 0.8505 0.8508 0.8510 0.8513 0.8515
2672.000000 0.8518 0.8520 0.8523 0.8525 0.8528
2667.000000 0.8530 0.8532 0.8534 0.8537 0.8539
2662.000000 0.8542 0.8544 0.8546 0.8548 0.8551
2657.000000 0.8553 0.8556 0.8557 0.8558 0.8559
2652.000000 0.8560 0.8561 0.8563 0.8564 0.8565
2647.000000 0.8566 0.8567 0.8568 0.8568 0.8570
2642.000000 0.8571 0.8573 0.8574 0.8575 0.8575
2637.000000 0.8575 0.8577 0.8578 0.8578 0.8580
2632.000000 0.8581 0.8581 0.8582 0.8583 0.8584
2627.000000 0.8585 0.8586 0.8586 0.8587 0.8587
2622.000000 0.8587 0.8587 0.8587 0.8587 0.8587
2617.000000 0.8587 0.8587 0.8587 0.8587 0.8585
2612.000000 0.8584 0.8581 0.8578 0.8575 0.8574
2607.000000 0.8571 0.8571 0.8568 0.8568 0.8566
2602.000000 0.8565 0.8563 0.8562 0.8561 0.8560
2597.000000 0.8559 0.8558 0.8558 0.8559 0.8560
2592.000000 0.8561 0.8561 0.8562 0.8562 0.8563
2587.000000 0.8563 0.8564 0.8565 0.8566 0.8567
2582.000000 0.8568 0.8571 0.8573 0.8574 0.8575
2577.000000 0.8577 0.8578 0.8580 0.8582 0.8583
2572.000000 0.8585 0.8587 0.8589 0.8591 0.8594
2567.000000 0.8597 0.8601 0.8604 0.8608 0.8611
2562.000000 0.8614 0.8617 0.8621 0.8624 0.8627
2557.000000 0.8631 0.8635 0.8638 0.8642 0.8645
2552.000000 0.8649 0.8652 0.8656 0.8659 0.8663
2547.000000 0.8665 0.8667 0.8668 0.8668 0.8668
2542.000000 0.8670 0.8670 0.8671 0.8671 0.8673
2537.000000 0.8673 0.8674 0.8674 0.8675 0.8675
2532.000000 0.8677 0.8677 0.8678 0.8678 0.8678
2527.000000 0.8680 0.8681 0.8683 0.8685 0.8687
2522.000000 0.8689 0.8691 0.8693 0.8695 0.8697
2517.000000 0.8698 0.8700 0.8702 0.8704 0.8706
2512.000000 0.8708 0.8710 0.8712 0.8714 0.8716
2507.000000 0.8718 0.8721 0.8723 0.8725 0.8728
2502.000000 0.8731 0.8734 0.8737 0.8739 0.8742
2497.000000 0.8744 0.8747 0.8749 0.8752 0.8754
2492.000000 0.8756 0.8758 0.8760 0.8762 0.8764
2487.000000 0.8766 0.8768 0.8770 0.8771 0.8773
2482.000000 0.8775 0.8777 0.8778 0.8780 0.8782
2477.000000 0.8782 0.8783 0.8783 0.8784 0.8784
2472.000000 0.8785 0.8786 0.8787 0.8787 0.8788
2467.000000 0.8788 0.8789 0.8789 0.8790 0.8790
2462.000000 0.8791 0.8791 0.8792 0.8792 0.8792
2457.000000 0.8792 0.8793 0.8793 0.8793 0.8793
2452.000000 0.8793 0.8793 0.8794 0.8794 0.8794
2447.000000 0.8794 0.8794 0.8794 0.8794 0.8793
2442.000000 0.8792 0.8791 0.8791 0.8790 0.8789
2437.000000 0.8788 0.8788 0.8785 0.8783 0.8780
2432.000000 0.8777 0.8774 0.8771 0.8768 0.8765
2427.000000 0.8762 0.8759 0.8756 0.8753 0.8750
2422.000000 0.8747 0.8743 0.8740 0.8737 0.8734
2417.000000 0.8731 0.8728 0.8725 0.8723 0.8723
2412.000000 0.8724 0.8724 0.8724 0.8724 0.8725
2407.000000 0.8725 0.8725 0.8725 0.8727 0.8727
2402.000000 0.8727 0.8727 0.8728 0.8728 0.8728
2397.000000 0.8728 0.8728 0.8728 0.8730 0.8730
2392.000000 0.8731 0.8731 0.8732 0.8732 0.8733
2387.000000 0.8733 0.8734 0.8734 0.8735 0.8735
2382.000000 0.8736 0.8736 0.8737 0.8737 0.8738
2377.000000 0.8738 0.8739 0.8739 0.8739 0.8739
2372.000000 0.8739 0.8739 0.8739 0.8739 0.8739
2367.000000 0.8739 0.8739 0.8739 0.8739 0.8739
2362.000000 0.8739 0.8738 0.8738 0.8737 0.8737
2357.000000 0.8736 0.8736 0.8736 0.8736 0.8735
2352.000000 0.8735 0.8734 0.8734 0.8733 0.8733
2347.000000 0.8732 0.8732 0.8732 0.8732 0.8731
2342.000000 0.8731 0.8730 0.8730 0.8728 0.8728
2337.000000 0.8728 0.8728 0.8728 0.8728 0.8727
2332.000000 0.8725 0.8725 0.8724 0.8723 0.8721
2327.000000 0.8721 0.8720 0.8718 0.8718 0.8717
2322.000000 0.8716 0.8715 0.8715 0.8714 0.8714
2317.000000 0.8713 0.8713 0.8712 0.8711 0.8710
2312.000000 0.8710 0.8709 0.8709 0.8709 0.8709
2307.000000 0.8709 0.8709 0.8709 0.8709 0.8709
2302.000000 0.8709 0.8709 0.8709 0.8709 0.8709
2297.000000 0.8709 0.8709 0.8709 0.8709 0.8709
2292.000000 0.8709 0.8708 0.8708 0.8708 0.8708
2287.000000 0.8708 0.8708 0.8708 0.8708 0.8708
2282.000000 0.8709 0.8709 0.8710 0.8710 0.8711
2277.000000 0.8711 0.8712 0.8712 0.8713 0.8713
2272.000000 0.8714 0.8714 0.8715 0.8715 0.8716
2267.000000 0.8716 0.8717 0.8717 0.8718 0.8718
2262.000000 0.8718 0.8718 0.8720 0.8720 0.8721
2257.000000 0.8721 0.8721 0.8721 0.8723 0.8724
2252.000000 0.8725 0.8725 0.8725 0.8725 0.8727
2247.000000 0.8727 0.8728 0.8728 0.8728 0.8728
2242.000000 0.8730 0.8730 0.8731 0.8731 0.8732
2237.000000 0.8733 0.8735 0.8736 0.8738 0.8739
2232.000000 0.8741 0.8742 0.8744 0.8745 0.8747
2227.000000 0.8748 0.8749 0.8750 0.8751 0.8751
2222.000000 0.8752 0.8752 0.8753 0.8753 0.8754
2217.000000 0.8754 0.8755 0.8755 0.8756 0.8757
2212.000000 0.8758 0.8759 0.8760 0.8761 0.8762
2207.000000 0.8763 0.8765 0.8766 0.8767 0.8768
2202.000000 0.8768 0.8770 0.8771 0.8773 0.8775
2197.000000 0.8775 0.8778 0.8778 0.8780 0.8781
2192.000000 0.8782 0.8784 0.8786 0.8789 0.8793
2187.000000 0.8797 0.8801 0.8808 0.8815 0.8827
2182.000000 0.8839 0.8844 0.8850 0.8855 0.8861
2177.000000 0.8864 0.8868 0.8868 0.8868 0.8868
2172.000000 0.8870 0.8870 0.8870 0.8859 0.8848
2167.000000 0.8831 0.8815 0.8812 0.8809 0.8806
2162.000000 0.8804 0.8802 0.8801 0.8799 0.8798
2157.000000 0.8796 0.8794 0.8793 0.8792 0.8790
2152.000000 0.8789 0.8788 0.8787 0.8786 0.8785
2147.000000 0.8783 0.8782 0.8781 0.8780 0.8778
2142.000000 0.8777 0.8775 0.8775 0.8774 0.8774
2137.000000 0.8773 0.8771 0.8771 0.8771 0.8770
2132.000000 0.8770 0.8768 0.8768 0.8767 0.8767
2127.000000 0.8767 0.8767 0.8766 0.8766 0.8765
2122.000000 0.8765 0.8764 0.8764 0.8764 0.8765
2117.000000 0.8766 0.8767 0.8768 0.8768 0.8770
2112.000000 0.8771 0.8771 0.8774 0.8775 0.8775
2107.000000 0.8777 0.8778 0.8778 0.8780 0.8781
2102.000000 0.8783 0.8784 0.8785 0.8785 0.8786
2097.000000 0.8786 0.8787 0.8788 0.8789 0.8789
2092.000000 0.8790 0.8790 0.8791 0.8792 0.8793
2087.000000 0.8793 0.8794 0.8794 0.8795 0.8795
2082.000000 0.8796 0.8797 0.8798 0.8798 0.8799
2077.000000 0.8800 0.8801 0.8801 0.8802 0.8803
2072.000000 0.8804 0.8804 0.8805 0.8806 0.8807
2067.000000 0.8807 0.8808 0.8809 0.8810 0.8811
2062.000000 0.8812 0.8812 0.8813 0.8814 0.8815
2057.000000 0.8815 0.8816 0.8817 0.8818 0.8818
2052.000000 0.8818 0.8820 0.8821 0.8821 0.8823
2047.000000 0.8824 0.8824 0.8825 0.8825 0.8827
2042.000000 0.8828 0.8828 0.8828 0.8828 0.8828
2037.000000 0.8828 0.8828 0.8828 0.8828 0.8828
2032.000000 0.8828 0.8827 0.8827 0.8827 0.8827
2027.000000 0.8825 0.8825 0.8825 0.8825 0.8824
2022.000000 0.8824 0.8824 0.8824 0.8823 0.8823
2017.000000 0.8821 0.8821 0.8821 0.8821 0.8821
2012.000000 0.8821 0.8821 0.8821 0.8821 0.8821
2007.000000 0.8821 0.8823 0.8823 0.8824 0.8824
2002.000000 0.8824 0.8823 0.8821 0.8821 0.8818
1997.000000 0.8817 0.8815 0.8813 0.8811 0.8810
1992.000000 0.8805 0.8800 0.8795 0.8790 0.8788
1987.000000 0.8788 0.8788 0.8789 0.8790 0.8790
1982.000000 0.8791 0.8793 0.8794 0.8795 0.8795
1977.000000 0.8795 0.8792 0.8789 0.8784 0.8775
1972.000000 0.8764 0.8750 0.8733 0.8715 0.8696
1967.000000 0.8660 0.8638 0.8639 0.8645 0.8657
1962.000000 0.8674 0.8684 0.8690 0.8697 0.8703
1957.000000 0.8709 0.8715 0.8721 0.8725 0.8732
1952.000000 0.8733 0.8733 0.8730 0.8727 0.8723
1947.000000 0.8718 0.8713 0.8701 0.8686 0.8664
1942.000000 0.8638 0.8612 0.8592 0.8575 0.8566
1937.000000 0.8558 0.8557 0.8557 0.8558 0.8564
1932.000000 0.8578 0.8593 0.8608 0.8621 0.8633
1927.000000 0.8645 0.8657 0.8665 0.8667 0.8670
1922.000000 0.8673 0.8675 0.8678 0.8678 0.8681
1917.000000 0.8683 0.8685 0.8686 0.8688 0.8690
1912.000000 0.8691 0.8693 0.8695 0.8697 0.8698
1907.000000 0.8700 0.8702 0.8704 0.8706 0.8707
1902.000000 0.8709 0.8711 0.8713 0.8715 0.8716
1897.000000 0.8718 0.8720 0.8721 0.8724 0.8725
1892.000000 0.8727 0.8728 0.8730 0.8731 0.8732
1887.000000 0.8733 0.8734 0.8735 0.8736 0.8737
1882.000000 0.8737 0.8737 0.8737 0.8736 0.8735
1877.000000 0.8733 0.8732 0.8728 0.8725 0.8723
1872.000000 0.8721 0.8718 0.8713 0.8709 0.8704
1867.000000 0.8699 0.8693 0.8686 0.8680 0.8671
1862.000000 0.8665 0.8657 0.8656 0.8655 0.8654
1857.000000 0.8653 0.8657 0.8662 0.8666 0.8670
1852.000000 0.8675 0.8678 0.8682 0.8682 0.8681
1847.000000 0.8667 0.8652 0.8636 0.8623 0.8611
1842.000000 0.8599 0.8586 0.8575 0.8564 0.8553
1837.000000 0.8544 0.8535 0.8527 0.8520 0.8512
1832.000000 0.8505 0.8499 0.8499 0.8498 0.8500
1827.000000 0.8503 0.8505 0.8506 0.8507 0.8507
1822.000000 0.8508 0.8508 0.8509 0.8510 0.8510
1817.000000 0.8511 0.8512 0.8512 0.8512 0.8512
1812.000000 0.8512 0.8512 0.8511 0.8506 0.8501
1807.000000 0.8497 0.8492 0.8488 0.8483 0.8478
1802.000000 0.8474 0.8468 0.8465 0.8459 0.8450
1797.000000 0.8441 0.8433 0.8423 0.8412 0.8401
1792.000000 0.8390 0.8378 0.8368 0.8357 0.8346
1787.000000 0.8335 0.8324 0.8304 0.8281 0.8259
1782.000000 0.8236 0.8214 0.8191 0.8167 0.8142
1777.000000 0.8118 0.8093 0.8068 0.8044 0.8015
1772.000000 0.7962 0.7910 0.7861 0.7818 0.7776
1767.000000 0.7725 0.7657 0.7589 0.7531 0.7475
1762.000000 0.7419 0.7365 0.7315 0.7265 0.7215
1757.000000 0.7164 0.7053 0.6862 0.6660 0.6471
1752.000000 0.6195 0.6034 0.5754 0.5330 0.4905
1747.000000 0.4480 0.4056 0.3630 0.3207 0.2782
1742.000000 0.2358 0.1933 0.1508 0.1084 0.0659
1737.000000 0.0423 0.0316 0.0245 0.0200 0.0167
1732.000000 0.0143 0.0123 0.0109 0.0095 0.0086
1727.000000 0.0081 0.0076 0.0076 0.0076 0.0077
1722.000000 0.0078 0.0080 0.0082 0.0098 0.0132
1717.000000 0.0196 0.0265 0.0377 0.0893 0.1172
1712.000000 0.1563 0.2344 0.2799 0.3255 0.3710
1707.000000 0.4166 0.4601 0.4857 0.5102 0.5347
1702.000000 0.5541 0.5718 0.5874 0.5998 0.6116
1697.000000 0.6227 0.6330 0.6428 0.6518 0.6588
1692.000000 0.6638 0.6686 0.6719 0.6754 0.6788
1687.000000 0.6825 0.6864 0.6901 0.6941 0.6992
1682.000000 0.7058 0.7125 0.7214 0.7307 0.7375
1677.000000 0.7436 0.7497 0.7555 0.7600 0.7645
1672.000000 0.7691 0.7736 0.7774 0.7811 0.7847
1667.000000 0.7871 0.7897 0.7921 0.7945 0.7968
1662.000000 0.7994 0.8012 0.8026 0.8041 0.8054
1657.000000 0.8068 0.8082 0.8094 0.8104 0.8114
1652.000000 0.8124 0.8134 0.8144 0.8154 0.8162
1647.000000 0.8171 0.8181 0.8190 0.8198 0.8207
1642.000000 0.8216 0.8223 0.8230 0.8237 0.8243
1637.000000 0.8250 0.8256 0.8263 0.8268 0.8274
1632.000000 0.8278 0.8284 0.8289 0.8294 0.8299
1627.000000 0.8304 0.8308 0.8311 0.8314 0.8317
1622.000000 0.8318 0.8323 0.8325 0.8328 0.8332
1617.000000 0.8335 0.8341 0.8341 0.8344 0.8345
1612.000000 0.8346 0.8342 0.8339 0.8333 0.8320
1607.000000 0.8307 0.8275 0.8202 0.7868 0.7340
1602.000000 0.6811 0.6496 0.6532 0.6572 0.6771
1597.000000 0.6969 0.7168 0.7368 0.7542 0.7655
1592.000000 0.7833 0.7947 0.7968 0.7978 0.7976
1587.000000 0.7969 0.7954 0.7917 0.7568 0.7134
1582.000000 0.6701 0.6325 0.6300 0.6511 0.6831
1577.000000 0.7151 0.7471 0.7750 0.7835 0.7918
1572.000000 0.7983 0.8040 0.8096 0.8151 0.8204
1567.000000 0.8257 0.8309 0.8344 0.8378 0.8412
1562.000000 0.8437 0.8461 0.8484 0.8504 0.8516
1557.000000 0.8528 0.8538 0.8548 0.8558 0.8568
1552.000000 0.8578 0.8588 0.8594 0.8600 0.8607
1547.000000 0.8611 0.8615 0.8599 0.8624 0.8625
1542.000000 0.8625 0.8625 0.8625 0.8617 0.8608
1537.000000 0.8600 0.8589 0.8563 0.8536 0.8513
1532.000000 0.8490 0.8467 0.8452 0.8436 0.8424
1527.000000 0.8417 0.8409 0.8405 0.8402 0.8400
1522.000000 0.8397 0.8393 0.8390 0.8387 0.8382
1517.000000 0.8377 0.8371 0.8366 0.8361 0.8351
1512.000000 0.8338 0.8325 0.8314 0.8300 0.8280
1507.000000 0.8260 0.8240 0.8215 0.8187 0.8158
1502.000000 0.8130 0.8093 0.8055 0.8000 0.7939
1497.000000 0.7875 0.7801 0.7722 0.7628 0.7518
1492.000000 0.7365 0.6341 0.6354 0.6344 0.6421
1487.000000 0.6517 0.6611 0.6708 0.6761 0.6769
1482.000000 0.6787 0.6302 0.5849 0.5397 0.4945
1477.000000 0.4738 0.4679 0.4617 0.4550 0.4191
1472.000000 0.3640 0.3089 0.2643 0.2546 0.2560
1467.000000 0.2558 0.2567 0.2584 0.2611 0.2657
1462.000000 0.2712 0.2819 0.2946 0.3097 0.3250
1457.000000 0.3409 0.3584 0.3724 0.3850 0.3955
1452.000000 0.4044 0.4133 0.4228 0.4338 0.4487
1447.000000 0.5056 0.5700 0.6200 0.6257 0.6432
1442.000000 0.6526 0.6610 0.6684 0.6750 0.6787
1437.000000 0.6824 0.6861 0.6910 0.6961 0.7040
1432.000000 0.7171 0.7368 0.7465 0.7519 0.7572
1427.000000 0.7624 0.7669 0.7705 0.7719 0.7735
1422.000000 0.7745 0.7754 0.7761 0.7767 0.7771
1417.000000 0.7797 0.7775 0.7772 0.7771 0.7768
1412.000000 0.7761 0.7755 0.7747 0.7736 0.7725
1407.000000 0.7701 0.7674 0.7643 0.7600 0.7514
1402.000000 0.7341 0.7253 0.7158 0.6976 0.6711
1397.000000 0.6365 0.6018 0.5672 0.5325 0.4979
1392.000000 0.4632 0.4286 0.3959 0.3912 0.3890
1387.000000 0.3873 0.3856 0.3849 0.3844 0.3834
1382.000000 0.3870 0.3962 0.4162 0.4426 0.4689
1377.000000 0.4952 0.5215 0.5614 0.5605 0.5607
1372.000000 0.5443 0.5277 0.5112 0.5001 0.5070
1367.000000 0.5262 0.5457 0.5651 0.5844 0.6038
1362.000000 0.6189 0.6267 0.6335 0.6396 0.6451
1357.000000 0.6495 0.6534 0.6562 0.6585 0.6607
1352.000000 0.6621 0.6628 0.6635 0.6639 0.6642
1347.000000 0.6645 0.6651 0.6651 0.6651 0.6647
1342.000000 0.6640 0.6633 0.6625 0.6606 0.6587
1337.000000 0.6568 0.6546 0.6521 0.6496 0.6469
1332.000000 0.6433 0.6391 0.6349 0.6287 0.6216
1327.000000 0.6145 0.6050 0.5955 0.5847 0.5724
1322.000000 0.5577 0.5404 0.5279 0.5167 0.5055
1317.000000 0.4737 0.4464 0.4209 0.3990 0.3794
1312.000000 0.3574 0.3430 0.3309 0.3220 0.3022
1307.000000 0.2862 0.2702 0.2542 0.2382 0.2222
1302.000000 0.2062 0.1903 0.1743 0.1583 0.1423
1297.000000 0.1263 0.1103 0.0943 0.0652 0.0504
1292.000000 0.0413 0.0333 0.0264 0.0216 0.0178
1287.000000 0.0147 0.0134 0.0124 0.0119 0.0114
1282.000000 0.0109 0.0105 0.0104 0.0103 0.0101
1277.000000 0.0099 0.0099 0.0098 0.0097 0.0097
1272.000000 0.0096 0.0096 0.0097 0.0101 0.0105
1267.000000 0.0111 0.0115 0.0127 0.0140 0.0154
1262.000000 0.0182 0.0215 0.0251 0.0285 0.0335
1257.000000 0.0397 0.0459 0.0531 0.0606 0.0691
1252.000000 0.0791 0.0891 0.1026 0.1184 0.1376
1247.000000 0.1589 0.1815 0.2804 0.3089 0.3277
1242.000000 0.3455 0.3643 0.4018 0.4193 0.4367
1237.000000 0.4541 0.4715 0.4889 0.5062 0.5237
1232.000000 0.5410 0.5565 0.5712 0.5831 0.5947
1227.000000 0.6040 0.6133 0.6217 0.6287 0.6358
1222.000000 0.6431 0.6505 0.6580 0.6645 0.6696
1217.000000 0.6747 0.6798 0.6848 0.6894 0.6939
1212.000000 0.6985 0.7025 0.7060 0.7094 0.7128
1207.000000 0.7161 0.7195 0.7225 0.7257 0.7288
1202.000000 0.7318 0.7347 0.7375 0.7404 0.7433
1197.000000 0.7461 0.7487 0.7512 0.7532 0.7550
1192.000000 0.7568 0.7583 0.7595 0.7608 0.7618
1187.000000 0.7628 0.7638 0.7641 0.7645 0.7645
1182.000000 0.7645 0.7640 0.7632 0.7618 0.7605
1177.000000 0.7591 0.7574 0.7549 0.7522 0.7485
1172.000000 0.7443 0.7400 0.7312 0.7226 0.7115
1167.000000 0.7000 0.6890 0.6791 0.6691 0.6525
1162.000000 0.6166 0.5659 0.5660 0.5739 0.5817
1157.000000 0.5865 0.5862 0.5839 0.5797 0.5743
1152.000000 0.5583 0.5303 0.5024 0.4744 0.4464
1147.000000 0.4185 0.3905 0.3626 0.3346 0.3066
1142.000000 0.2787 0.2507 0.2227 0.1948 0.1668
1137.000000 0.1399 0.1346 0.1307 0.1268 0.1221
1132.000000 0.1174 0.1130 0.1088 0.1044 0.0980
1127.000000 0.0915 0.0857 0.0809 0.0781 0.0759
1122.000000 0.0742 0.0753 0.0729 0.0733 0.0756
1117.000000 0.0854 0.0976 0.1103 0.1623 0.2146
1112.000000 0.2668 0.3190 0.3712 0.4235 0.4757
1107.000000 0.5041 0.5170 0.5326 0.5550 0.5762
1102.000000 0.5882 0.5978 0.6056 0.6133 0.6201
1097.000000 0.6257 0.6294 0.6316 0.6333 0.6346
1092.000000 0.6357 0.6334 0.6293 0.6217 0.6084
1087.000000 0.5685 0.5360 0.5005 0.4649 0.4293
1082.000000 0.3938 0.3582 0.3226 0.2871 0.2515
1077.000000 0.2159 0.1829 0.1595 0.1479 0.1437
1072.000000 0.1406 0.1410 0.1430 0.1583 0.1702
1067.000000 0.1795 0.2050 0.2374 0.2699 0.3023
1062.000000 0.3347 0.3672 0.3996 0.4320 0.4645
1057.000000 0.4969 0.5293 0.5618 0.5849 0.5952
1052.000000 0.6055 0.6147 0.6224 0.6262 0.6282
1047.000000 0.6293 0.6294 0.6286 0.6265 0.6205
1042.000000 0.5589 0.4865 0.4354 0.4347 0.4359
1037.000000 0.4400 0.4498 0.4959 0.5547 0.6135
1032.000000 0.6734 0.6904 0.7012 0.7101 0.7174
1027.000000 0.7234 0.7294 0.7350 0.7386 0.7421
1022.000000 0.7457 0.7490 0.7514 0.7537 0.7561
1017.000000 0.7581 0.7599 0.7618 0.7630 0.7639
1012.000000 0.7648 0.7657 0.7665 0.7672 0.7676
1007.000000 0.7681 0.7681 0.7681 0.7681 0.7678
1002.000000 0.7671 0.7662 0.7656 0.7646 0.7634
997.000000 0.7622 0.7611 0.7599 0.7578 0.7558
992.000000 0.7536 0.7515 0.7494 0.7472 0.7447
987.000000 0.7411 0.7376 0.7341 0.7306 0.7248
982.000000 0.7186 0.7122 0.7043 0.6958 0.6874
977.000000 0.6790 0.6706 0.6578 0.6445 0.6322
972.000000 0.6223 0.6158 0.6112 0.6078 0.6048
967.000000 0.6022 0.5996 0.5979 0.5962 0.5951
962.000000 0.5939 0.5924 0.5929 0.5928 0.5927
957.000000 0.5935 0.5943 0.5962 0.6005 0.6055
952.000000 0.6118 0.6191 0.6273 0.6388 0.6501
947.000000 0.6594 0.6682 0.6771 0.6858 0.6934
942.000000 0.7008 0.7082 0.7156 0.7221 0.7285
937.000000 0.7349 0.7411 0.7475 0.7530 0.7576
932.000000 0.7624 0.7671 0.7718 0.7765 0.7811
927.000000 0.7855 0.7891 0.7919 0.7948 0.7965
922.000000 0.7976 0.7981 0.7981 0.7983 0.7987
917.000000 0.7993 0.8006 0.8019 0.8034 0.8050
912.000000 0.8074 0.8098 0.8121 0.8139 0.8157
907.000000 0.8175 0.8193 0.8210 0.8228 0.8241
902.000000 0.8255 0.8268 0.8281 0.8294 0.8304
897.000000 0.8309 0.8315 0.8320 0.8325 0.8330
892.000000 0.8334 0.8335 0.8336 0.8336 0.8337
887.000000 0.8327 0.8316 0.8303 0.8286 0.8268
882.000000 0.8260 0.8251 0.8243 0.8234 0.8225
877.000000 0.8223 0.8220 0.8217 0.8214 0.8214
872.000000 0.8214 0.8215 0.8216 0.8217 0.8218
867.000000 0.8220 0.8221 0.8225 0.8227 0.8231
862.000000 0.8241 0.8250 0.8259 0.8268 0.8278
857.000000 0.8288 0.8301 0.8316 0.8330 0.8345
852.000000 0.8357 0.8368 0.8378 0.8389 0.8400
847.000000 0.8399 0.8399 0.8391 0.8385 0.8374
842.000000 0.8363 0.8352 0.8341 0.8331 0.8321
837.000000 0.8311 0.8306 0.8301 0.8297 0.8292
832.000000 0.8294 0.8296 0.8299 0.8303 0.8308
827.000000 0.8312 0.8317 0.8321 0.8325 0.8327
822.000000 0.8328 0.8328 0.8328 0.8328 0.8328
817.000000 0.8328 0.8325 0.8325 0.8324 0.8321
812.000000 0.8317 0.8312 0.8307 0.8303 0.8298
807.000000 0.8293 0.8287 0.8281 0.8247 0.8199
802.000000 0.8151 0.8101 0.8039 0.7976 0.7876
797.000000 0.7751 0.7637 0.7551 0.7478 0.7449
792.000000 0.7418 0.7389 0.7367 0.7347 0.7328
787.000000 0.7311 0.7298 0.7284 0.7271 0.7257
782.000000 0.7244 0.7230 0.7217 0.7205 0.7192
777.000000 0.7178 0.7165 0.7151 0.7135 0.7117
772.000000 0.7100 0.7082 0.7061 0.7040 0.7018
767.000000 0.6997 0.6975 0.6946 0.6917 0.6888
762.000000 0.6851 0.6804 0.6756 0.6701 0.6633
757.000000 0.6564 0.6485 0.6405 0.6130 0.5793
752.000000 0.5456 0.5120 0.4783 0.4446 0.4110
747.000000 0.3773 0.3436 0.3250 0.2838 0.2808
742.000000 0.2787 0.2773 0.2777 0.2810 0.3089
737.000000 0.3566 0.4042 0.4519 0.4995 0.5472
732.000000 0.5948 0.6425 0.6844 0.6988 0.7084
727.000000 0.7192 0.7301 0.7382 0.7457 0.7525
722.000000 0.7592 0.7636 0.7662 0.7682 0.7689
717.000000 0.7693 0.7700 0.7676 0.7658 0.7615
712.000000 0.7432 0.7149 0.6865 0.6582 0.6299
707.000000 0.6016 0.5733 0.5450 0.5402 0.5406
702.000000 0.5595 0.5907 0.6219 0.6532 0.6788
697.000000 0.6875 0.6951 0.7021 0.7091 0.7161
692.000000 0.7234 0.7410 0.7601 0.7795 0.7987
687.000000 0.8180 0.8371 0.8553 0.8603 0.8628
682.000000 0.8648 0.8659 0.8670 0.8682 0.8693
677.000000 0.8701 0.8708 0.8715 0.8728 0.8730
672.000000 0.8731 0.8740 0.8747 0.8820 0.8894
667.000000 0.8968 0.9037 0.9032 0.9016 0.9014
662.000000 0.8999 0.8984 0.8967 0.8942 0.8914
657.000000 0.8835 0.8663 0.8491 0.8318 0.8146
652.000000 0.7974 0.7884 0.7901 0.7921 0.7951
647.000000 0.8000 0.8065 0.8148 0.8236 0.8333
642.000000 0.8431 0.8506 0.8574 0.8642 0.8695
637.000000 0.8742 0.8760 0.8778 0.8792 0.8799
632.000000 0.8805 0.8812 0.8816 0.8817 0.8818
627.000000 0.8818 0.8818 0.8818 0.8815 0.8810
622.000000 0.8806 0.8801 0.8797 0.8788 0.8780
617.000000 0.8771 0.8756 0.8738 0.8721 0.8706
612.000000 0.8692 0.8678 0.8668 0.8666 0.8664
607.000000 0.8662 0.8660 0.8658 0.8658 0.8658
602.000000 0.8657 0.8657 0.8659 0.8660 0.8662
597.000000 0.8663 0.8665 0.8666 0.8667 0.8667
592.000000 0.8665 0.8664 0.8658 0.8646 0.8631
587.000000 0.8603 0.8575 0.8546 0.8515 0.8483
582.000000 0.8451 0.8420 0.8389 0.8357 0.8331
577.000000 0.8306 0.8285 0.8268 0.8251 0.8234
572.000000 0.8217 0.8209 0.8210 0.8211 0.8214
567.000000 0.8217 0.8220 0.8228 0.8238 0.8248
562.000000 0.8257 0.8266 0.8275 0.8285 0.8297
557.000000 0.8308 0.8320 0.8332 0.8343 0.8355
552.000000 0.8364 0.8371 0.8378 0.8387 0.8394
547.000000 0.8402 0.8408 0.8414 0.8420 0.8425
542.000000 0.8431 0.8435 0.8435 0.8436 0.8436
537.000000 0.8436 0.8433 0.8431 0.8428 0.8427
532.000000 0.8425 0.8425 0.8425 0.8425 0.8424
527.000000 0.8424 0.8423 0.8423 0.8421 0.8421
522.000000 0.8421 0.8421 0.8420 0.8420 0.8418
517.000000 0.8418 0.8418 0.8421 0.8425 0.8428
512.000000 0.8430 0.8433 0.8436 0.8439 0.8442
507.000000 0.8445 0.8450 0.8454 0.8458 0.8463
502.000000 0.8467 0.8471 0.8475 0.8480 0.8482
497.000000 0.8483 0.8484 0.8485 0.8486 0.8487
492.000000 0.8489 0.8490 0.8490 0.8490 0.8487
487.000000 0.8484 0.8482 0.8478 0.8475 0.8473
482.000000 0.8471 0.8468 0.8467 0.8466 0.8465
477.000000 0.8463 0.8462 0.8461 0.8459 0.8458
472.000000 0.8457 0.8455 0.8455 0.8454 0.8454
467.000000 0.8453 0.8453 0.8453 0.8452 0.8452
462.000000 0.8451 0.8451 0.8451 0.8451 0.8451
457.000000 0.8450 0.8450 0.8450 0.8450 0.8450
452.000000 0.8450 0.8450 0.8450 0.8450 0.8450
447.000000 0.8450 0.8450 0.8450 0.8450 0.8449
442.000000 0.8471 0.8447 0.8446 0.8445 0.8444
437.000000 0.8443 0.8442 0.8441 0.8440 0.8439
432.000000 0.8438 0.8436 0.8435 0.8435 0.8436
427.000000 0.8438 0.8439 0.8440 0.8441 0.8443
422.000000 0.8444 0.8445 0.8446 0.8448 0.8449
417.000000 0.8450 0.8451 0.8455 0.8458 0.8462
412.000000 0.8466 0.8468 0.8473 0.8477 0.8481
407.000000 0.8484 0.8488 0.8492 0.8495 0.8499
402.000000 0.8503 0.8507 0.8511 0.8515 0.8518
397.000000 0.8523 0.8523 0.8523 0.8521 0.8521
##END=
