##TITLE=DIMETHYL 1,1'-FERROCENE DICARBAMATE
##JCAMP-DX=4.24
##DATA TYPE=INFRARED SPECTRUM
##CLASS=COBLENTZ
##ORIGIN=WYANDOTTE CHEMICALS CORP., WYANDOTTE, MICHIGAN, USA
##OWNER=COBLENTZ SOCIETY
Collection (C) 2018 copyright by the U.S. Secretary of Commerce
on behalf of the United States of America. All rights reserved.
##DATE=Not specified, most likely prior to 1970
##MOLFORM=C14 H16 Fe N2 O4
##SOURCE REFERENCE=COBLENTZ NO. 3015
##$NIST ID=B6003015
##$NIST SOURCE=COBLENTZ
##$NIST IMAGE=cob3015
##SPECTROMETER/DATA SYSTEM=Not specified, most likely a prism, grating, or hybrid spectrometer.
##STATE=SOLID (MINERAL OIL MULL)
##PATH LENGTH=
$$SPECTRAL CONTAMINATION DUE TO OIL AROUND 2900 CM^-^1
##SAMPLING PROCEDURE=TRANSMISSION
##RESOLUTION=4
##DATA PROCESSING=DIGITIZED BY NIST FROM HARD COPY
##XUNITS=MICROMETERS
##YUNITS=TRANSMITTANCE
##XFACTOR=1.000000
##YFACTOR=1
##DELTAX=000.006796
##FIRSTX=2.014
##LASTX=15.9596
##FIRSTY=0.75
##MAXX=15.9596
##MINX=2.014
##MAXY=0.931
##MINY=0.034
##NPOINTS=2053
##XYDATA=(X++(Y..Y))
2.014000 0.7500 0.7500 0.7500 0.7500 0.7510
2.047997 0.7530 0.7530 0.7550 0.7560 0.7580
2.082000 0.7580 0.7600 0.7600 0.7600 0.7610
2.115997 0.7610 0.7600 0.7600 0.7600 0.7580
2.150000 0.7580 0.7560 0.7560 0.7560 0.7560
2.183997 0.7560 0.7560 0.7610 0.7610 0.7630
2.217000 0.7650 0.7650 0.7650 0.7650 0.7630
2.250997 0.7630 0.7630 0.7630 0.7630 0.7610
2.285000 0.7610 0.7630 0.7630 0.7630 0.7650
2.318997 0.7650 0.7670 0.7680 0.7680 0.7680
2.353000 0.7700 0.7720 0.7750 0.7770 0.7780
2.386997 0.7800 0.7840 0.7840 0.7840 0.7820
2.421000 0.7820 0.7820 0.7820 0.7820 0.7820
2.454997 0.7800 0.7800 0.7800 0.7780 0.7780
2.489000 0.7780 0.7780 0.7800 0.7840 0.7850
2.522997 0.7870 0.7870 0.7870 0.7890 0.7890
2.557000 0.7890 0.7900 0.7900 0.7920 0.7940
2.590997 0.7950 0.7950 0.7970 0.7990 0.8020
2.625000 0.8020 0.8040 0.8060 0.8060 0.8070
2.658997 0.8060 0.8070 0.8070 0.8070 0.8070
2.693000 0.8070 0.8070 0.8070 0.8060 0.8040
2.726997 0.8040 0.8040 0.8020 0.8010 0.7950
2.761000 0.7850 0.7780 0.7770 0.7780 0.7840
2.794997 0.7890 0.7890 0.7800 0.7780 0.7770
2.829000 0.7730 0.7720 0.7650 0.7560 0.7500
2.862997 0.7430 0.7410 0.7360 0.7260 0.7150
2.897000 0.6980 0.6610 0.6200 0.5810 0.5760
2.930997 0.5790 0.6200 0.6560 0.6800 0.6930
2.965000 0.6980 0.6980 0.6980 0.6470 0.5910
2.998997 0.5350 0.4650 0.3690 0.3230 0.2720
3.033000 0.3180 0.4060 0.5050 0.6120 0.6440
3.066997 0.6590 0.6700 0.6800 0.6870 0.6970
3.101000 0.7070 0.7170 0.7190 0.7190 0.7190
3.134997 0.7190 0.7190 0.7190 0.7190 0.7170
3.169000 0.7150 0.7150 0.7190 0.7190 0.7100
3.202997 0.6930 0.6850 0.6610 0.6510 0.6510
3.237000 0.6580 0.6920 0.7100 0.7190 0.7190
3.270997 0.7120 0.6900 0.6710 0.6560 0.6420
3.305000 0.6270 0.6070 0.5780 0.5400 0.4910
3.338997 0.4470 0.3770 0.3120 0.2360 0.1870
3.373000 0.1640 0.1560 0.1510 0.1490 0.1470
3.406997 0.1510 0.1800 0.2020 0.2360 0.2720
3.441000 0.3070 0.3310 0.3520 0.3530 0.3530
3.474997 0.3500 0.3180 0.3120 0.3140 0.3520
3.509000 0.3860 0.4400 0.5560 0.6440 0.7000
3.542997 0.7270 0.7360 0.7460 0.7500 0.7610
3.577000 0.7700 0.7780 0.7800 0.7820 0.7840
3.610997 0.7840 0.7890 0.7900 0.7900 0.7900
3.645000 0.7920 0.7940 0.7950 0.7970 0.7990
3.678997 0.8010 0.8020 0.8060 0.8070 0.8110
3.713000 0.8120 0.8140 0.8140 0.8140 0.8140
3.746997 0.8160 0.8160 0.8160 0.8180 0.8190
3.781000 0.8230 0.8240 0.8280 0.8290 0.8310
3.814997 0.8310 0.8310 0.8310 0.8310 0.8310
3.849000 0.8330 0.8350 0.8380 0.8400 0.8410
3.882997 0.8430 0.8410 0.8450 0.8450 0.8430
3.917000 0.8460 0.8480 0.8500 0.8500 0.8520
3.950997 0.8520 0.8530 0.8530 0.8550 0.8570
3.984000 0.8580 0.8580 0.8620 0.8620 0.8630
4.017997 0.8630 0.8650 0.8690 0.8690 0.8650
4.052000 0.8650 0.8650 0.8670 0.8690 0.8650
4.085997 0.8630 0.8620 0.8600 0.8620 0.8630
4.120000 0.8650 0.8690 0.8690 0.8690 0.8690
4.153997 0.8690 0.8650 0.8650 0.8670 0.8700
4.188000 0.8700 0.8700 0.8700 0.8700 0.8690
4.221997 0.8690 0.8690 0.8630 0.8620 0.8600
4.256000 0.8600 0.8600 0.8570 0.8570 0.8550
4.289997 0.8550 0.8570 0.8600 0.8630 0.8670
4.324000 0.8690 0.8650 0.8670 0.8670 0.8690
4.357997 0.8690 0.8690 0.8700 0.8720 0.8740
4.392000 0.8740 0.8750 0.8750 0.8750 0.8750
4.425997 0.8750 0.8750 0.8750 0.8750 0.8770
4.460000 0.8770 0.8770 0.8790 0.8800 0.8820
4.493997 0.8820 0.8820 0.8820 0.8820 0.8800
4.528000 0.8800 0.8800 0.8820 0.8820 0.8820
4.561997 0.8820 0.8820 0.8820 0.8820 0.8820
4.596000 0.8820 0.8800 0.8800 0.8800 0.8790
4.629997 0.8790 0.8790 0.8790 0.8790 0.8800
4.664000 0.8820 0.8820 0.8840 0.8860 0.8870
4.697997 0.8870 0.8890 0.8920 0.8940 0.8940
4.732000 0.8960 0.8990 0.9010 0.9030 0.9030
4.765997 0.9040 0.9040 0.9040 0.9040 0.9060
4.800000 0.9040 0.9040 0.9030 0.9040 0.9040
4.833997 0.9060 0.9080 0.9080 0.9080 0.9080
4.868000 0.9080 0.9080 0.9010 0.9010 0.9010
4.901997 0.9010 0.9060 0.9060 0.9080 0.9090
4.936000 0.9060 0.9090 0.9310 0.9110 0.9030
4.969997 0.8990 0.8990 0.8990 0.8990 0.8990
5.004000 0.9010 0.9080 0.9080 0.9090 0.9080
5.037997 0.9010 0.9010 0.9010 0.9010 0.9010
5.072000 0.9010 0.9010 0.9080 0.9080 0.9080
5.105997 0.9080 0.9080 0.9080 0.9080 0.9130
5.140000 0.9130 0.9110 0.9110 0.9090 0.9080
5.173997 0.9080 0.9080 0.9060 0.9060 0.9060
5.208000 0.9080 0.9080 0.9060 0.9060 0.9080
5.241997 0.9130 0.9130 0.9110 0.9110 0.9110
5.276000 0.9090 0.9110 0.9110 0.9110 0.9090
5.309997 0.9090 0.9080 0.9090 0.9080 0.9080
5.344000 0.9060 0.9060 0.9060 0.9030 0.9030
5.377997 0.9030 0.9040 0.9040 0.9040 0.9040
5.412000 0.9040 0.9060 0.9060 0.9060 0.9080
5.445997 0.9080 0.9080 0.9080 0.9080 0.9040
5.480000 0.8960 0.8890 0.8840 0.8820 0.8820
5.513997 0.8860 0.8890 0.8890 0.8870 0.8870
5.548000 0.8860 0.8820 0.8770 0.8720 0.8700
5.581997 0.8670 0.8630 0.8580 0.8520 0.8410
5.616000 0.8360 0.8310 0.8260 0.8190 0.8120
5.649997 0.8060 0.7950 0.7820 0.7670 0.7440
5.683000 0.7150 0.6850 0.6270 0.5790 0.5170
5.716997 0.4480 0.3650 0.2950 0.1880 0.1120
5.751000 0.1120 0.1320 0.2800 0.3820 0.4910
5.784997 0.6030 0.6300 0.6290 0.6030 0.5610
5.819000 0.4770 0.4140 0.3520 0.2970 0.2560
5.852997 0.2150 0.1810 0.1640 0.1540 0.1320
5.887000 0.1300 0.1300 0.1410 0.1880 0.2630
5.920997 0.3280 0.4130 0.4880 0.5660 0.6120
5.955000 0.6290 0.6440 0.6490 0.6490 0.6490
5.988997 0.6470 0.6390 0.6300 0.6300 0.6340
6.023000 0.6470 0.6590 0.6700 0.6780 0.6850
6.056997 0.6920 0.7000 0.7050 0.7090 0.7100
6.091000 0.7140 0.7170 0.7190 0.7210 0.7240
6.124997 0.7260 0.7270 0.7270 0.7270 0.7240
6.159000 0.7150 0.7050 0.6980 0.6920 0.6710
6.192997 0.6510 0.6250 0.6070 0.5910 0.5830
6.227000 0.5680 0.5510 0.5280 0.5050 0.4790
6.260997 0.4550 0.4310 0.4090 0.3960 0.3750
6.295000 0.3480 0.3140 0.2780 0.2380 0.1970
6.328997 0.1540 0.1120 0.0830 0.0660 0.0570
6.363000 0.0510 0.0440 0.0400 0.0390 0.0390
6.396997 0.0390 0.0390 0.0390 0.0390 0.0400
6.431000 0.0520 0.0710 0.0910 0.1100 0.1410
6.464997 0.1780 0.2220 0.2680 0.3160 0.3580
6.499000 0.3940 0.4210 0.4430 0.4720 0.5060
6.532997 0.5450 0.5850 0.6200 0.6540 0.6800
6.567000 0.6950 0.7100 0.7220 0.7320 0.7410
6.600997 0.7500 0.7560 0.7610 0.7610 0.7630
6.635000 0.7610 0.7550 0.7430 0.7270 0.7050
6.668997 0.6750 0.6420 0.6050 0.5610 0.5370
6.703000 0.5200 0.5180 0.5220 0.5560 0.5810
6.736997 0.6000 0.6050 0.6050 0.6030 0.5860
6.771000 0.5680 0.5490 0.5340 0.5170 0.5000
6.804997 0.4770 0.4690 0.4640 0.4550 0.4480
6.839000 0.4400 0.4350 0.4280 0.4230 0.4160
6.872997 0.4140 0.4130 0.4040 0.3890 0.3790
6.907000 0.3770 0.3790 0.4130 0.4570 0.4860
6.940997 0.5010 0.5030 0.5010 0.4790 0.4770
6.975000 0.4790 0.5690 0.6200 0.6410 0.6760
7.008997 0.7050 0.7320 0.7440 0.7510 0.7580
7.043000 0.7610 0.7600 0.7610 0.7630 0.7670
7.076997 0.7700 0.7730 0.7770 0.7780 0.7770
7.111000 0.7770 0.7730 0.7650 0.7500 0.7310
7.144997 0.7040 0.6700 0.6300 0.5830 0.5270
7.179000 0.4770 0.4480 0.4130 0.3860 0.3720
7.212997 0.3570 0.3460 0.3260 0.3190 0.3190
7.247000 0.3380 0.4210 0.4740 0.5250 0.5660
7.280997 0.6100 0.6150 0.6150 0.6120 0.5860
7.315000 0.5560 0.5200 0.4820 0.4380 0.3910
7.348997 0.3330 0.2940 0.2560 0.2530 0.2600
7.383000 0.3060 0.3520 0.3920 0.4720 0.5450
7.416997 0.5980 0.6340 0.6590 0.6760 0.6900
7.450000 0.7000 0.7120 0.7290 0.7440 0.7530
7.483997 0.7610 0.7630 0.7650 0.7650 0.7650
7.518000 0.7650 0.7650 0.7670 0.7670 0.7650
7.551997 0.7650 0.7650 0.7630 0.7610 0.7560
7.586000 0.7460 0.7340 0.7220 0.7150 0.7140
7.619997 0.7100 0.7050 0.7020 0.6950 0.6850
7.654000 0.6750 0.6640 0.6590 0.6540 0.6460
7.687997 0.6340 0.6220 0.6130 0.6100 0.6030
7.722000 0.6020 0.6000 0.5980 0.5960 0.5910
7.755997 0.5850 0.5710 0.5560 0.5450 0.5390
7.790000 0.5280 0.5110 0.4770 0.4600 0.4400
7.823997 0.4140 0.3860 0.3550 0.3230 0.2900
7.858000 0.2560 0.2220 0.1900 0.1590 0.1300
7.891997 0.1030 0.0790 0.0610 0.0470 0.0370
7.926000 0.0340 0.0370 0.0400 0.0520 0.0660
7.959997 0.0900 0.1100 0.1250 0.1320 0.1470
7.994000 0.1470 0.1440 0.1420 0.1460 0.1560
8.027997 0.1830 0.1980 0.2310 0.2580 0.2870
8.062000 0.3090 0.3290 0.3550 0.3890 0.4380
8.095997 0.5050 0.5450 0.5790 0.6100 0.6340
8.130000 0.6540 0.6710 0.6830 0.6920 0.6970
8.163997 0.7070 0.7150 0.7170 0.7150 0.7140
8.198000 0.7050 0.6920 0.6730 0.6510 0.6270
8.231997 0.5960 0.5640 0.5270 0.4880 0.4430
8.266000 0.3970 0.3460 0.2970 0.2670 0.2390
8.299997 0.2360 0.2360 0.2500 0.2900 0.3180
8.334000 0.3410 0.3620 0.3840 0.4040 0.4250
8.367997 0.4480 0.4760 0.5050 0.5130 0.5250
8.402000 0.5280 0.5230 0.5230 0.5230 0.5230
8.435997 0.5280 0.5620 0.5930 0.6120 0.6420
8.470000 0.6680 0.6970 0.7150 0.7260 0.7360
8.503997 0.7430 0.7500 0.7580 0.7650 0.7730
8.538000 0.7800 0.7850 0.7890 0.7900 0.7900
8.571997 0.7920 0.7920 0.7940 0.7970 0.7970
8.606000 0.7990 0.8010 0.8020 0.8040 0.8040
8.639997 0.8040 0.8060 0.8060 0.8090 0.8110
8.674000 0.8120 0.8140 0.8190 0.8230 0.8280
8.707997 0.8290 0.8290 0.8310 0.8330 0.8350
8.742000 0.8380 0.8460 0.8500 0.8500 0.8520
8.775997 0.8530 0.8530 0.8550 0.8550 0.8550
8.810000 0.8550 0.8550 0.8550 0.8550 0.8550
8.843997 0.8550 0.8550 0.8550 0.8550 0.8530
8.878000 0.8520 0.8500 0.8480 0.8480 0.8460
8.911997 0.8450 0.8410 0.8350 0.8310 0.8290
8.946000 0.8290 0.8290 0.8280 0.8280 0.8260
8.979997 0.8260 0.8260 0.8260 0.8210 0.8160
9.014000 0.8140 0.8120 0.8040 0.8020 0.7950
9.047997 0.7940 0.7870 0.7800 0.7730 0.7630
9.082000 0.7500 0.7340 0.7220 0.7090 0.6970
9.115997 0.6850 0.6780 0.6510 0.6000 0.5620
9.150000 0.5270 0.4890 0.4520 0.4130 0.3740
9.183997 0.3380 0.3020 0.2680 0.2380 0.2090
9.217000 0.1870 0.1660 0.1530 0.1460 0.1420
9.250997 0.1490 0.1830 0.2290 0.2850 0.3500
9.285000 0.4080 0.4740 0.5350 0.5850 0.6270
9.318997 0.6590 0.6830 0.6970 0.7050 0.7170
9.353000 0.7190 0.7190 0.7170 0.7140 0.7120
9.386997 0.7050 0.6980 0.6900 0.6830 0.6750
9.421000 0.6680 0.6610 0.6460 0.6190 0.5880
9.454997 0.5510 0.5100 0.5000 0.5000 0.5080
9.489000 0.5660 0.6050 0.6300 0.6420 0.6460
9.522997 0.6470 0.6490 0.6530 0.6630 0.6780
9.557000 0.7050 0.7410 0.7550 0.7650 0.7670
9.590997 0.7700 0.7750 0.7770 0.7730 0.7670
9.625000 0.7550 0.7430 0.7260 0.7050 0.6850
9.658997 0.6590 0.6320 0.6120 0.5830 0.5810
9.693000 0.5830 0.5910 0.6130 0.6580 0.6810
9.726997 0.6970 0.7120 0.7150 0.7140 0.6900
9.761000 0.6560 0.6250 0.5960 0.5640 0.5280
9.794997 0.4860 0.4310 0.4200 0.4200 0.4480
9.829000 0.5450 0.6000 0.6340 0.6510 0.6660
9.862997 0.6750 0.6810 0.6920 0.7020 0.7340
9.897000 0.7580 0.7730 0.7900 0.7970 0.8010
9.930997 0.8060 0.8110 0.8190 0.8290 0.8380
9.965000 0.8460 0.8480 0.8500 0.8530 0.8550
9.998997 0.8600 0.8620 0.8630 0.8650 0.8690
10.033000 0.8690 0.8700 0.8700 0.8700 0.8700
10.066997 0.8690 0.8690 0.8690 0.8690 0.8690
10.101000 0.8690 0.8700 0.8720 0.8720 0.8740
10.134997 0.8740 0.8750 0.8750 0.8770 0.8790
10.169000 0.8790 0.8790 0.8790 0.8770 0.8790
10.202997 0.8790 0.8790 0.8790 0.8800 0.8820
10.237000 0.8800 0.8800 0.8800 0.8800 0.8800
10.270997 0.8800 0.8800 0.8790 0.8790 0.8770
10.305000 0.8790 0.8790 0.8770 0.8770 0.8750
10.338997 0.8750 0.8740 0.8740 0.8720 0.8720
10.373000 0.8720 0.8720 0.8720 0.8800 0.8790
10.406997 0.8750 0.8740 0.8740 0.8720 0.8720
10.441000 0.8720 0.8700 0.8690 0.8690 0.8650
10.474997 0.8630 0.8600 0.8620 0.8600 0.8600
10.509000 0.8570 0.8520 0.8430 0.8310 0.8190
10.542997 0.8060 0.7900 0.7750 0.7580 0.7410
10.577000 0.7270 0.7120 0.7090 0.7090 0.7100
10.610997 0.7170 0.7220 0.7220 0.7240 0.7240
10.645000 0.7220 0.7090 0.6980 0.6900 0.6680
10.678997 0.6370 0.6020 0.5610 0.5180 0.4770
10.713000 0.4380 0.4040 0.3770 0.3580 0.3380
10.746997 0.3360 0.3380 0.3520 0.3740 0.4040
10.781000 0.4400 0.4770 0.5180 0.5560 0.5910
10.814997 0.6220 0.6420 0.6760 0.7040 0.7270
10.849000 0.7460 0.7610 0.7730 0.7840 0.7920
10.882997 0.7970 0.8020 0.8060 0.8090 0.8140
10.917000 0.8180 0.8230 0.8290 0.8360 0.8460
10.950997 0.8520 0.8530 0.8550 0.8600 0.8620
10.984000 0.8650 0.8670 0.8670 0.8690 0.8690
11.017997 0.8700 0.8700 0.8720 0.8740 0.8750
11.052000 0.8740 0.8740 0.8720 0.8740 0.8750
11.085997 0.8770 0.8770 0.8740 0.8750 0.8770
11.120000 0.8790 0.8790 0.8770 0.8790 0.8790
11.153997 0.8800 0.8820 0.8840 0.8840 0.8840
11.188000 0.8840 0.8870 0.8870 0.8860 0.8860
11.221997 0.8860 0.8860 0.8870 0.8890 0.8890
11.256000 0.8860 0.8820 0.8800 0.8800 0.8800
11.289997 0.8800 0.8820 0.8820 0.8840 0.8840
11.324000 0.8820 0.8840 0.8820 0.8860 0.8870
11.357997 0.8870 0.8870 0.8870 0.8860 0.8860
11.392000 0.8820 0.8820 0.8840 0.8840 0.8840
11.425997 0.8840 0.8840 0.8870 0.8860 0.8870
11.460000 0.8890 0.8890 0.8910 0.8910 0.8940
11.493997 0.8940 0.8920 0.8890 0.8840 0.8790
11.528000 0.8700 0.8630 0.8520 0.8430 0.8350
11.561997 0.8310 0.8290 0.8280 0.8260 0.8260
11.596000 0.8280 0.8310 0.8350 0.8350 0.8380
11.629997 0.8380 0.8400 0.8400 0.8410 0.8400
11.664000 0.8350 0.8260 0.8180 0.7990 0.7840
11.697997 0.7560 0.7260 0.6970 0.6660 0.6440
11.732000 0.6200 0.6080 0.5980 0.5910 0.5900
11.765997 0.5910 0.6120 0.6410 0.6630 0.6870
11.800000 0.7100 0.7360 0.7600 0.7820 0.8010
11.833997 0.8060 0.8190 0.8260 0.8350 0.8380
11.868000 0.8380 0.8380 0.8380 0.8410 0.8410
11.901997 0.8430 0.8460 0.8500 0.8530 0.8600
11.936000 0.8600 0.8580 0.8520 0.8450 0.8310
11.969997 0.8280 0.8280 0.8350 0.8410 0.8460
12.004000 0.8550 0.8620 0.8670 0.8750 0.8790
12.037997 0.8790 0.8770 0.8770 0.8740 0.8720
12.072000 0.8690 0.8690 0.8690 0.8630 0.8580
12.105997 0.8530 0.8500 0.8410 0.8400 0.8400
12.140000 0.8380 0.8410 0.8570 0.8650 0.8690
12.173997 0.8720 0.8750 0.8770 0.8770 0.8790
12.208000 0.8800 0.8790 0.8790 0.8740 0.8690
12.241997 0.8630 0.8600 0.8570 0.8530 0.8500
12.276000 0.8460 0.8450 0.8450 0.8460 0.8500
12.309997 0.8500 0.8480 0.8410 0.8330 0.8230
12.344000 0.8090 0.7890 0.7600 0.7190 0.6800
12.377997 0.6410 0.6050 0.5680 0.5300 0.4880
12.412000 0.4650 0.4420 0.4380 0.4380 0.4480
12.445997 0.4810 0.4980 0.5110 0.5230 0.5350
12.480000 0.5470 0.5610 0.5730 0.5860 0.6030
12.513997 0.6200 0.6420 0.6640 0.6760 0.6830
12.548000 0.6850 0.6870 0.6880 0.6900 0.6970
12.581997 0.7090 0.7270 0.7530 0.7720 0.7890
12.616000 0.8060 0.8160 0.8260 0.8400 0.8500
12.649997 0.8570 0.8630 0.8670 0.8740 0.8800
12.683000 0.8820 0.8820 0.8820 0.8840 0.8860
12.716997 0.8890 0.8920 0.8940 0.8940 0.8960
12.751000 0.8960 0.8960 0.8970 0.8970 0.8970
12.784997 0.8970 0.8970 0.8970 0.8970 0.8970
12.819000 0.8970 0.8970 0.8970 0.8970 0.8970
12.852997 0.8960 0.8940 0.8910 0.8890 0.8800
12.887000 0.8720 0.8690 0.8620 0.8550 0.8520
12.920997 0.8430 0.8290 0.8160 0.7990 0.7800
12.955000 0.7630 0.7460 0.7310 0.7210 0.7020
12.988997 0.7000 0.7000 0.7070 0.7290 0.7430
13.023000 0.7510 0.7560 0.7610 0.7680 0.7720
13.056997 0.7780 0.7780 0.7780 0.7720 0.7440
13.091000 0.7210 0.6980 0.6760 0.6510 0.6320
13.124997 0.6100 0.5900 0.5880 0.5900 0.5910
13.159000 0.6080 0.6270 0.6470 0.6680 0.6880
13.192997 0.7090 0.7290 0.7480 0.7610 0.7720
13.227000 0.7780 0.7850 0.7890 0.7920 0.7940
13.260997 0.7940 0.7920 0.7870 0.7800 0.7730
13.295000 0.7680 0.7600 0.7500 0.7380 0.7240
13.328997 0.7040 0.6930 0.6800 0.6610 0.6510
13.363000 0.6370 0.6270 0.6170 0.6130 0.6150
13.396997 0.6150 0.6240 0.6300 0.6370 0.6560
13.431000 0.6730 0.6900 0.7090 0.7260 0.7430
13.464997 0.7560 0.7700 0.7820 0.7900 0.7970
13.499000 0.8060 0.8140 0.8230 0.8290 0.8380
13.532997 0.8460 0.8530 0.8580 0.8650 0.8690
13.567000 0.8690 0.8690 0.8700 0.8750 0.8800
13.600997 0.8820 0.8840 0.8820 0.8820 0.8800
13.635000 0.8800 0.8820 0.8870 0.8910 0.8920
13.668997 0.8910 0.8920 0.8920 0.8920 0.8920
13.703000 0.8920 0.8940 0.8940 0.8960 0.8970
13.736997 0.8990 0.8990 0.8990 0.8990 0.8990
13.771000 0.8970 0.8970 0.8960 0.8960 0.8960
13.804997 0.8940 0.8920 0.8920 0.8920 0.8920
13.839000 0.8940 0.8960 0.8970 0.8970 0.8970
13.872997 0.8960 0.8940 0.8920 0.8910 0.8860
13.907000 0.8820 0.8770 0.8750 0.8720 0.8700
13.940997 0.8650 0.8570 0.8530 0.8460 0.8380
13.975000 0.8280 0.8140 0.8110 0.8040 0.7970
14.008997 0.7870 0.7850 0.7870 0.7940 0.8060
14.043000 0.8260 0.8310 0.8310 0.7990 0.7990
14.076997 0.8110 0.8160 0.8230 0.8280 0.8280
14.111000 0.8290 0.8280 0.8240 0.8180 0.8090
14.144997 0.7990 0.7920 0.7850 0.7820 0.7780
14.179000 0.7750 0.7720 0.7720 0.7720 0.7750
14.212997 0.7770 0.7840 0.7900 0.7990 0.8070
14.247000 0.8180 0.8290 0.8430 0.8570 0.8630
14.280997 0.8670 0.8690 0.8690 0.8690 0.8700
14.315000 0.8750 0.8790 0.8820 0.8840 0.8910
14.348997 0.8920 0.8920 0.8920 0.8920 0.8920
14.383000 0.8920 0.8920 0.8920 0.8920 0.8920
14.416997 0.8920 0.8920 0.8920 0.8920 0.8920
14.450000 0.8910 0.8910 0.8890 0.8890 0.8910
14.483997 0.8920 0.8920 0.8920 0.8910 0.8910
14.518000 0.8890 0.8910 0.8910 0.8890 0.8870
14.551997 0.8860 0.8840 0.8840 0.8820 0.8820
14.586000 0.8820 0.8820 0.8820 0.8820 0.8800
14.619997 0.8800 0.8770 0.8770 0.8750 0.8750
14.654000 0.8740 0.8740 0.8720 0.8720 0.8720
14.687997 0.8720 0.8700 0.8700 0.8700 0.8670
14.722000 0.8650 0.8600 0.8580 0.8570 0.8570
14.755997 0.8550 0.8550 0.8550 0.8530 0.8530
14.790000 0.8520 0.8500 0.8480 0.8480 0.8460
14.823997 0.8460 0.8460 0.8460 0.8450 0.8430
14.858000 0.8430 0.8410 0.8400 0.8400 0.8380
14.891997 0.8380 0.8360 0.8360 0.8350 0.8350
14.926000 0.8330 0.8310 0.8290 0.8280 0.8260
14.959997 0.8260 0.8240 0.8230 0.8210 0.8160
14.994000 0.8110 0.8040 0.7990 0.7940 0.7850
15.027997 0.7800 0.7750 0.7670 0.7610 0.7560
15.062000 0.7500 0.7440 0.7360 0.7320 0.7310
15.095997 0.7320 0.7340 0.7360 0.7340 0.7360
15.130000 0.7380 0.7390 0.7430 0.7440 0.7480
15.163997 0.7500 0.7500 0.7500 0.7430 0.7430
15.198000 0.7430 0.7390 0.7360 0.7360 0.7340
15.231997 0.7320 0.7260 0.7220 0.7190 0.7170
15.266000 0.7170 0.7170 0.7140 0.7120 0.7050
15.299997 0.6950 0.6870 0.6830 0.6810 0.6780
15.334000 0.6750 0.6730 0.6660 0.6640 0.6610
15.367997 0.6590 0.6560 0.6530 0.6490 0.6460
15.402000 0.6460 0.6420 0.6410 0.6370 0.6360
15.435997 0.6340 0.6340 0.6320 0.6320 0.6320
15.470000 0.6320 0.6340 0.6360 0.6370 0.6390
15.503997 0.6390 0.6370 0.6370 0.6410 0.6420
15.538000 0.6420 0.6460 0.6470 0.6470 0.6510
15.571997 0.6530 0.6560 0.6590 0.6660 0.6700
15.606000 0.6730 0.6730 0.6750 0.6750 0.6750
15.639997 0.6760 0.6760 0.6780 0.6810 0.6830
15.674000 0.6850 0.6850 0.6870 0.6870 0.6880
15.707997 0.6880 0.6880 0.6900 0.6900 0.6920
15.742000 0.6930 0.6930 0.6930 0.6930 0.6950
15.775997 0.6950 0.6950 0.6950 0.6950 0.6950
15.810000 0.6950 0.6970 0.6970 0.6980 0.6980
15.843997 0.7000 0.7000 0.7020 0.7020 0.7020
15.878000 0.7020 0.7020 0.7020 0.7020 0.7000
15.911997 0.7000 0.7000 0.6980 0.6970 0.6970
15.946000 0.6930 0.6900 0.6870
##END=
