##TITLE=Propionitrile, 2-amino-3-(benzylthio)-2-[(benzylthio)methyl]-, hydrochloride
##JCAMP-DX=4.24
##DATA TYPE=INFRARED SPECTRUM
##CLASS=COBLENTZ III
##ORIGIN=SOUTHERN RESEARCH INSTITUTE
##OWNER=Copyright (C) 1987 by the Coblentz Society
Collection (C) 2018 copyright by the U.S. Secretary of Commerce
on behalf of the United States of America. All rights reserved.
##DATE=1961/05/03
##NAMES=2-amino-3-(benzylsulfanyl)-2-[(benzylsulfanyl)methyl]propanenitrile hydrochloride
GLYCINONITRILE, 2,2-BIS[(BENZYLTHIO)METHYL]-, HYDROCHLORIDE
##MOLFORM=C18 H21 Cl N2 S2
##SOURCE REFERENCE=COBLENTZ NO. 8678
##$NIST ID=B6008678
##$NIST SOURCE=COBLENTZ
##$NIST IMAGE=cob8678
##SPECTROMETER/DATA SYSTEM=PERKIN-ELMER 221 (GRATING)
##INSTRUMENT PARAMETERS=FILTER AT 980 CM^-^1, GRATING 4000-1428 CM^-^1, NaCl PRISM 1428-650 CM^-^1
##STATE=SOLID (1 mg / 650 mg KBr DISC)
$$SPECTRAL CONTAMINATION DUE TO H2O AROUND 3400 CM^-^1
##SAMPLING PROCEDURE=TRANSMISSION
##RESOLUTION=2
##DATA PROCESSING=DIGITIZED BY COBLENTZ SOCIETY (BATCH II) FROM HARD COPY
##XUNITS=1/CM
##YUNITS=TRANSMITTANCE
##XFACTOR=1.0
##YFACTOR=1
##FIRSTX=637
##LASTX=4000
##FIRSTY=0.777
##MAXX=4000
##MINX=637
##MAXY=0.8612
##MINY=0.0401
##NPOINTS=3364
##XYDATA=(X++(Y..Y))
637.000000 0.7770 0.7758 0.7745 0.7732 0.7719
642.000000 0.7706 0.7691 0.7674 0.7658 0.7637
647.000000 0.7609 0.7560 0.7501 0.7408 0.7291
652.000000 0.7163 0.7054 0.6949 0.6843 0.6729
657.000000 0.6614 0.6499 0.6358 0.6205 0.6042
662.000000 0.5875 0.5707 0.5540 0.5372 0.5205
667.000000 0.5037 0.4870 0.4702 0.4535 0.4367
672.000000 0.4236 0.4237 0.4240 0.4379 0.4545
677.000000 0.4711 0.4865 0.4855 0.4849 0.4413
682.000000 0.3752 0.3092 0.2431 0.1771 0.1111
687.000000 0.0510 0.0412 0.0401 0.0427 0.0414
692.000000 0.0430 0.0573 0.0950 0.1326 0.1703
697.000000 0.2080 0.2456 0.2833 0.3210 0.3586
702.000000 0.3963 0.4340 0.4716 0.5093 0.5470
707.000000 0.5846 0.6223 0.6945 0.7117 0.7287
712.000000 0.7448 0.7591 0.7681 0.7771 0.7859
717.000000 0.7945 0.8030 0.8115 0.8185 0.8244
722.000000 0.8303 0.8340 0.8374 0.8393 0.8404
727.000000 0.8416 0.8428 0.8421 0.8433 0.8426
732.000000 0.8419 0.8412 0.8386 0.8355 0.8326
737.000000 0.8297 0.8265 0.8183 0.7625 0.7281
742.000000 0.6911 0.6541 0.6171 0.5801 0.5743
747.000000 0.5760 0.5918 0.6090 0.6262 0.6434
752.000000 0.6606 0.6774 0.6790 0.5751 0.5302
757.000000 0.4552 0.3802 0.3718 0.3714 0.4133
762.000000 0.4587 0.5041 0.5495 0.5949 0.6403
767.000000 0.6857 0.7311 0.7643 0.7649 0.7656
772.000000 0.7664 0.7613 0.7547 0.7480 0.7414
777.000000 0.7418 0.7454 0.7721 0.7987 0.8254
782.000000 0.8348 0.8457 0.8542 0.8586 0.8599
787.000000 0.8611 0.8606 0.8612 0.8577 0.8546
792.000000 0.8503 0.8460 0.8416 0.8261 0.8025
797.000000 0.7789 0.7553 0.7522 0.7523 0.7527
802.000000 0.7507 0.7764 0.8006 0.8248 0.8334
807.000000 0.8329 0.8323 0.8320 0.7799 0.7778
812.000000 0.7758 0.7741 0.7726 0.7699 0.7670
817.000000 0.7613 0.7457 0.7399 0.7379 0.7362
822.000000 0.7385 0.7553 0.7741 0.7928 0.8115
827.000000 0.8302 0.8467 0.8495 0.8504 0.8500
832.000000 0.8495 0.8491 0.8472 0.8451 0.8431
837.000000 0.8405 0.8379 0.8350 0.8312 0.8274
842.000000 0.8236 0.8198 0.8160 0.8056 0.7693
847.000000 0.7288 0.6883 0.6478 0.6235 0.6238
852.000000 0.6251 0.6275 0.6504 0.6849 0.7193
857.000000 0.7538 0.7882 0.8227 0.8438 0.8493
862.000000 0.8525 0.8531 0.8536 0.8529 0.8532
867.000000 0.8529 0.8523 0.8508 0.8490 0.8458
872.000000 0.8420 0.8374 0.8326 0.8272 0.8219
877.000000 0.8135 0.8010 0.7880 0.7747 0.7615
882.000000 0.7483 0.7350 0.7218 0.7086 0.6908
887.000000 0.6889 0.6878 0.6863 0.6894 0.7088
892.000000 0.7342 0.7595 0.7849 0.8102 0.8262
897.000000 0.8315 0.8348 0.8388 0.8377 0.8377
902.000000 0.8377 0.8372 0.8358 0.8337 0.8317
907.000000 0.8272 0.7924 0.7615 0.7307 0.6998
912.000000 0.6689 0.6585 0.6588 0.6585 0.6649
917.000000 0.7139 0.7629 0.8118 0.8234 0.8256
922.000000 0.8272 0.8275 0.8245 0.8281 0.8276
927.000000 0.8272 0.8267 0.8257 0.8246 0.8228
932.000000 0.8194 0.8122 0.8080 0.8037 0.7958
937.000000 0.7688 0.7502 0.7361 0.7265 0.7042
942.000000 0.6672 0.6302 0.5932 0.5564 0.5502
947.000000 0.5430 0.5443 0.5430 0.5439 0.5543
952.000000 0.5943 0.6342 0.6742 0.7142 0.7541
957.000000 0.7941 0.8247 0.8317 0.8351 0.8384
962.000000 0.8411 0.8436 0.8460 0.8479 0.8496
967.000000 0.8505 0.8514 0.8513 0.8546 0.8474
972.000000 0.8440 0.8365 0.8061 0.7691 0.7321
977.000000 0.6951 0.6581 0.6211 0.6080 0.6259
982.000000 0.6676 0.7092 0.7509 0.7926 0.8305
987.000000 0.8295 0.8285 0.8269 0.8252 0.8236
992.000000 0.8192 0.8097 0.7941 0.7786 0.7630
997.000000 0.7526 0.7526 0.7518 0.7546 0.7630
1002.000000 0.7715 0.7800 0.7884 0.7969 0.8044
1007.000000 0.8022 0.8026 0.8012 0.7999 0.7982
1012.000000 0.7960 0.7927 0.7880 0.7836 0.7746
1017.000000 0.7492 0.7210 0.6928 0.6752 0.6754
1022.000000 0.6733 0.6889 0.7017 0.7144 0.7272
1027.000000 0.7400 0.7527 0.7607 0.7633 0.7587
1032.000000 0.7566 0.7468 0.7328 0.7141 0.6951
1037.000000 0.6763 0.6575 0.6387 0.6140 0.6211
1042.000000 0.6215 0.6220 0.6490 0.6771 0.7052
1047.000000 0.7334 0.7615 0.7812 0.7783 0.7776
1052.000000 0.7763 0.7603 0.7390 0.7177 0.6963
1057.000000 0.6750 0.6537 0.6323 0.6149 0.6120
1062.000000 0.6094 0.6071 0.6044 0.6056 0.6055
1067.000000 0.6060 0.6317 0.6597 0.6877 0.7156
1072.000000 0.7436 0.7716 0.7970 0.8064 0.8094
1077.000000 0.8104 0.8113 0.8119 0.8121 0.8120
1082.000000 0.8118 0.8115 0.8099 0.8111 0.8108
1087.000000 0.8103 0.8097 0.8091 0.8085 0.8079
1092.000000 0.8073 0.8063 0.8054 0.8044 0.8035
1097.000000 0.8026 0.8017 0.8007 0.7998 0.7989
1102.000000 0.7980 0.7971 0.7963 0.7957 0.7951
1107.000000 0.7945 0.7939 0.7933 0.7920 0.7905
1112.000000 0.7891 0.7876 0.7844 0.7787 0.7766
1117.000000 0.7745 0.7735 0.7729 0.7722 0.7716
1122.000000 0.7710 0.7703 0.7671 0.7628 0.7527
1127.000000 0.7443 0.7362 0.7288 0.7215 0.7143
1132.000000 0.7069 0.6964 0.6860 0.6755 0.6637
1137.000000 0.6467 0.6298 0.6175 0.6052 0.5737
1142.000000 0.5727 0.5720 0.5730 0.5881 0.5710
1147.000000 0.6185 0.6337 0.6488 0.6640 0.6792
1152.000000 0.6944 0.7026 0.7023 0.7066 0.7014
1157.000000 0.7000 0.6886 0.6771 0.6657 0.6543
1162.000000 0.6429 0.6315 0.6201 0.6087 0.5973
1167.000000 0.5858 0.5847 0.5849 0.5848 0.6036
1172.000000 0.6283 0.6531 0.6778 0.7025 0.7273
1177.000000 0.7443 0.7463 0.7477 0.7492 0.7488
1182.000000 0.7487 0.7483 0.7469 0.7432 0.7337
1187.000000 0.7247 0.7157 0.6921 0.6976 0.6930
1192.000000 0.6931 0.6933 0.7034 0.7175 0.7317
1197.000000 0.7458 0.7599 0.7739 0.7761 0.7770
1202.000000 0.7779 0.7781 0.7783 0.7784 0.7784
1207.000000 0.7784 0.7769 0.7785 0.7783 0.7780
1212.000000 0.7776 0.7770 0.7760 0.7749 0.7739
1217.000000 0.7724 0.7702 0.7677 0.7643 0.7594
1222.000000 0.7531 0.7434 0.7314 0.7092 0.6855
1227.000000 0.6618 0.6382 0.6145 0.6008 0.5991
1232.000000 0.6019 0.6037 0.6154 0.6275 0.6396
1237.000000 0.6517 0.6638 0.6759 0.6880 0.7001
1242.000000 0.7122 0.7243 0.7364 0.7461 0.7504
1247.000000 0.7535 0.7548 0.7550 0.7552 0.7554
1252.000000 0.7579 0.7549 0.7545 0.7535 0.7524
1257.000000 0.7513 0.7474 0.7412 0.7341 0.7197
1262.000000 0.7030 0.6862 0.6694 0.6527 0.6359
1267.000000 0.6192 0.6024 0.5857 0.5689 0.5627
1272.000000 0.5617 0.5607 0.5608 0.5595 0.5628
1277.000000 0.5663 0.5916 0.6169 0.6421 0.6674
1282.000000 0.6926 0.7179 0.7431 0.7543 0.7588
1287.000000 0.7621 0.7647 0.7657 0.7666 0.7673
1292.000000 0.7672 0.7671 0.7671 0.7670 0.7666
1297.000000 0.7656 0.7649 0.7641 0.7634 0.7615
1302.000000 0.7591 0.7550 0.7499 0.7298 0.7129
1307.000000 0.6959 0.6790 0.6621 0.6451 0.6282
1312.000000 0.6112 0.5943 0.5773 0.5604 0.5434
1317.000000 0.5291 0.5255 0.5295 0.5304 0.5654
1322.000000 0.6192 0.6730 0.7269 0.7471 0.7534
1327.000000 0.7597 0.7645 0.7690 0.7724 0.7742
1332.000000 0.7761 0.7773 0.7775 0.7778 0.7781
1337.000000 0.7784 0.7783 0.7773 0.7778 0.7776
1342.000000 0.7773 0.7762 0.7751 0.7739 0.7728
1347.000000 0.7705 0.7682 0.7660 0.7634 0.7598
1352.000000 0.7562 0.7527 0.7490 0.7454 0.7417
1357.000000 0.7380 0.7343 0.7306 0.7264 0.7222
1362.000000 0.7180 0.7138 0.7097 0.7058 0.7020
1367.000000 0.6981 0.6942 0.6904 0.6865 0.6823
1372.000000 0.6760 0.6697 0.6633 0.6570 0.6502
1377.000000 0.6426 0.6351 0.6275 0.6199 0.6124
1382.000000 0.6051 0.5977 0.5898 0.5709 0.5452
1387.000000 0.5226 0.5096 0.4991 0.4908 0.4838
1392.000000 0.4753 0.4769 0.4758 0.4801 0.4843
1397.000000 0.4886 0.4929 0.4971 0.5005 0.5005
1402.000000 0.4997 0.4999 0.4932 0.4866 0.4799
1407.000000 0.4732 0.4666 0.4679 0.4718 0.4748
1412.000000 0.5291 0.5371 0.5439 0.5482 0.5525
1417.000000 0.5568 0.5612 0.5656 0.5700 0.5744
1422.000000 0.5790 0.5843 0.5897 0.5979 0.6064
1427.000000 0.6095 0.6126 0.6146 0.6150 0.6151
1432.000000 0.6196 0.6142 0.6088 0.5875 0.5561
1437.000000 0.5191 0.4821 0.4451 0.4081 0.3711
1442.000000 0.3341 0.2971 0.2615 0.2584 0.2616
1447.000000 0.2620 0.4149 0.5879 0.6340 0.6345
1452.000000 0.6356 0.6343 0.6337 0.6328 0.6304
1457.000000 0.6276 0.6244 0.6183 0.6142 0.6105
1462.000000 0.6069 0.6020 0.5969 0.5899 0.5811
1467.000000 0.5636 0.5531 0.5172 0.4901 0.4630
1472.000000 0.4359 0.4088 0.3817 0.3546 0.3275
1477.000000 0.3004 0.2733 0.2462 0.2191 0.1920
1482.000000 0.1649 0.1378 0.1190 0.1023 0.0969
1487.000000 0.0941 0.0914 0.0907 0.0900 0.0899
1492.000000 0.0912 0.0924 0.0900 0.1113 0.1580
1497.000000 0.2048 0.2515 0.2983 0.3451 0.3918
1502.000000 0.4386 0.4853 0.5321 0.5788 0.6159
1507.000000 0.6731 0.6925 0.7089 0.7213 0.7290
1512.000000 0.7332 0.7374 0.7396 0.7411 0.7426
1517.000000 0.7429 0.7438 0.7425 0.7424 0.7419
1522.000000 0.7413 0.7407 0.7391 0.7288 0.7195
1527.000000 0.6984 0.6773 0.6562 0.6351 0.6140
1532.000000 0.5929 0.5718 0.5507 0.5296 0.5282
1537.000000 0.5280 0.5281 0.5287 0.5256 0.5306
1542.000000 0.5457 0.5656 0.5855 0.6054 0.6253
1547.000000 0.6452 0.6651 0.6850 0.7049 0.7130
1552.000000 0.7173 0.7198 0.7215 0.7231 0.7238
1557.000000 0.7245 0.7279 0.7258 0.7260 0.7260
1562.000000 0.7261 0.7261 0.7259 0.7255 0.7252
1567.000000 0.7248 0.7238 0.7221 0.7190 0.7143
1572.000000 0.7084 0.7018 0.6944 0.6857 0.6836
1577.000000 0.6818 0.6822 0.6829 0.6836 0.6812
1582.000000 0.6674 0.6536 0.6398 0.6259 0.6121
1587.000000 0.5983 0.5845 0.5707 0.5569 0.5430
1592.000000 0.5292 0.5288 0.5291 0.5292 0.5295
1597.000000 0.5415 0.5595 0.5775 0.5955 0.6134
1602.000000 0.6314 0.6494 0.6674 0.6853 0.7033
1607.000000 0.7224 0.7258 0.7269 0.7279 0.7290
1612.000000 0.7301 0.7313 0.7324 0.7336 0.7346
1617.000000 0.7355 0.7364 0.7373 0.7382 0.7393
1622.000000 0.7406 0.7420 0.7433 0.7447 0.7460
1627.000000 0.7473 0.7487 0.7501 0.7515 0.7529
1632.000000 0.7543 0.7557 0.7570 0.7584 0.7598
1637.000000 0.7610 0.7623 0.7636 0.7648 0.7661
1642.000000 0.7674 0.7686 0.7699 0.7712 0.7724
1647.000000 0.7737 0.7749 0.7760 0.7771 0.7782
1652.000000 0.7793 0.7804 0.7815 0.7823 0.7827
1657.000000 0.7832 0.7836 0.7840 0.7845 0.7849
1662.000000 0.7854 0.7858 0.7890 0.7867 0.7869
1667.000000 0.7863 0.7857 0.7849 0.7836 0.7822
1672.000000 0.7808 0.7794 0.7781 0.7767 0.7753
1677.000000 0.7739 0.7719 0.7698 0.7678 0.7657
1682.000000 0.7638 0.7619 0.7600 0.7582 0.7570
1687.000000 0.7563 0.7555 0.7547 0.7545 0.7545
1692.000000 0.7494 0.7546 0.7550 0.7556 0.7562
1697.000000 0.7569 0.7578 0.7588 0.7598 0.7607
1702.000000 0.7617 0.7627 0.7637 0.7647 0.7657
1707.000000 0.7669 0.7681 0.7694 0.7707 0.7722
1712.000000 0.7737 0.7752 0.7767 0.7780 0.7789
1717.000000 0.7798 0.7802 0.7803 0.7805 0.7806
1722.000000 0.7807 0.7808 0.7809 0.7810 0.7811
1727.000000 0.7810 0.7807 0.7804 0.7801 0.7798
1732.000000 0.7795 0.7792 0.7789 0.7788 0.7786
1737.000000 0.7785 0.7783 0.7782 0.7780 0.7779
1742.000000 0.7777 0.7776 0.7774 0.7773 0.7771
1747.000000 0.7770 0.7768 0.7767 0.7765 0.7764
1752.000000 0.7764 0.7766 0.7767 0.7768 0.7769
1757.000000 0.7771 0.7772 0.7773 0.7776 0.7780
1762.000000 0.7783 0.7786 0.7790 0.7793 0.7796
1767.000000 0.7799 0.7799 0.7799 0.7799 0.7799
1772.000000 0.7799 0.7798 0.7798 0.7798 0.7798
1777.000000 0.7797 0.7793 0.7790 0.7786 0.7782
1782.000000 0.7778 0.7774 0.7767 0.7760 0.7753
1787.000000 0.7746 0.7736 0.7725 0.7714 0.7706
1792.000000 0.7698 0.7690 0.7683 0.7675 0.7667
1797.000000 0.7661 0.7656 0.7651 0.7646 0.7643
1802.000000 0.7646 0.7648 0.7651 0.7654 0.7657
1807.000000 0.7659 0.7662 0.7665 0.7669 0.7673
1812.000000 0.7677 0.7682 0.7686 0.7690 0.7694
1817.000000 0.7699 0.7703 0.7704 0.7706 0.7708
1822.000000 0.7709 0.7711 0.7713 0.7714 0.7716
1827.000000 0.7715 0.7712 0.7708 0.7705 0.7702
1832.000000 0.7699 0.7695 0.7690 0.7683 0.7677
1837.000000 0.7671 0.7664 0.7658 0.7652 0.7646
1842.000000 0.7638 0.7628 0.7619 0.7609 0.7600
1847.000000 0.7587 0.7574 0.7561 0.7548 0.7535
1852.000000 0.7522 0.7509 0.7496 0.7483 0.7470
1857.000000 0.7457 0.7444 0.7428 0.7410 0.7392
1862.000000 0.7374 0.7356 0.7338 0.7321 0.7303
1867.000000 0.7286 0.7270 0.7254 0.7237 0.7221
1872.000000 0.7205 0.7188 0.7176 0.7168 0.7160
1877.000000 0.7152 0.7144 0.7136 0.7128 0.7121
1882.000000 0.7116 0.7110 0.7105 0.7099 0.7094
1887.000000 0.7088 0.7083 0.7078 0.7072 0.7067
1892.000000 0.7061 0.7055 0.7050 0.7044 0.7038
1897.000000 0.7033 0.7027 0.7021 0.7012 0.7001
1902.000000 0.6990 0.6980 0.6969 0.6959 0.6948
1907.000000 0.6934 0.6904 0.6878 0.6854 0.6831
1912.000000 0.6808 0.6784 0.6761 0.6738 0.6714
1917.000000 0.6691 0.6665 0.6631 0.6597 0.6562
1922.000000 0.6528 0.6494 0.6459 0.6420 0.6380
1927.000000 0.6341 0.6302 0.6263 0.6223 0.6174
1932.000000 0.6116 0.6067 0.6043 0.6018 0.5994
1937.000000 0.5970 0.5946 0.5926 0.5919 0.5979
1942.000000 0.5918 0.5920 0.5922 0.5925 0.5931
1947.000000 0.5939 0.5950 0.5960 0.5971 0.5980
1952.000000 0.5989 0.5997 0.6004 0.6011 0.6016
1957.000000 0.6020 0.6023 0.6027 0.6030 0.6032
1962.000000 0.6064 0.6030 0.6029 0.6025 0.6021
1967.000000 0.6017 0.6007 0.5991 0.5975 0.5959
1972.000000 0.5940 0.5918 0.5896 0.5874 0.5847
1977.000000 0.5817 0.5786 0.5756 0.5731 0.5707
1982.000000 0.5683 0.5660 0.5636 0.5613 0.5589
1987.000000 0.5574 0.5563 0.5553 0.5554 0.5544
1992.000000 0.5545 0.5549 0.5559 0.5568 0.5577
1997.000000 0.5598 0.5620 0.5643 0.5689 0.5740
2002.000000 0.5791 0.5843 0.5895 0.5948 0.5993
2007.000000 0.6037 0.6082 0.6126 0.6174 0.6222
2012.000000 0.6270 0.6318 0.6362 0.6392 0.6422
2017.000000 0.6452 0.6481 0.6505 0.6530 0.6554
2022.000000 0.6559 0.6562 0.6566 0.6569 0.6570
2027.000000 0.6572 0.6573 0.6576 0.6580 0.6584
2032.000000 0.6587 0.6591 0.6595 0.6598 0.6602
2037.000000 0.6606 0.6609 0.6616 0.6626 0.6637
2042.000000 0.6647 0.6658 0.6676 0.6706 0.6736
2047.000000 0.6762 0.6788 0.6813 0.6839 0.6865
2052.000000 0.6888 0.6911 0.6933 0.6956 0.6978
2057.000000 0.6986 0.6993 0.6995 0.6998 0.7000
2062.000000 0.7003 0.7005 0.7007 0.7010 0.7012
2067.000000 0.7015 0.7017 0.7019 0.7021 0.7023
2072.000000 0.7024 0.7026 0.7028 0.7030 0.7032
2077.000000 0.7034 0.7035 0.7037 0.7038 0.7040
2082.000000 0.7042 0.7043 0.7045 0.7046 0.7048
2087.000000 0.7080 0.7051 0.7052 0.7053 0.7054
2092.000000 0.7054 0.7055 0.7056 0.7056 0.7057
2097.000000 0.7057 0.7058 0.7059 0.7059 0.7060
2102.000000 0.7059 0.7058 0.7057 0.7056 0.7055
2107.000000 0.7054 0.7052 0.7051 0.7050 0.7049
2112.000000 0.7048 0.7047 0.7046 0.7044 0.7043
2117.000000 0.7042 0.7041 0.7038 0.7035 0.7032
2122.000000 0.7030 0.7027 0.7024 0.7021 0.7018
2127.000000 0.7016 0.7013 0.7010 0.7006 0.7000
2132.000000 0.6994 0.6988 0.6983 0.6977 0.6971
2137.000000 0.6965 0.6960 0.6953 0.6945 0.6937
2142.000000 0.6929 0.6921 0.6913 0.6905 0.6897
2147.000000 0.6889 0.6881 0.6873 0.6865 0.6857
2152.000000 0.6849 0.6841 0.6833 0.6828 0.6822
2157.000000 0.6817 0.6812 0.6806 0.6801 0.6795
2162.000000 0.6790 0.6786 0.6784 0.6781 0.6779
2167.000000 0.6776 0.6774 0.6771 0.6769 0.6766
2172.000000 0.6764 0.6761 0.6759 0.6756 0.6754
2177.000000 0.6751 0.6749 0.6746 0.6743 0.6740
2182.000000 0.6738 0.6735 0.6732 0.6729 0.6727
2187.000000 0.6724 0.6721 0.6719 0.6716 0.6713
2192.000000 0.6710 0.6708 0.6706 0.6704 0.6702
2197.000000 0.6700 0.6698 0.6696 0.6694 0.6692
2202.000000 0.6690 0.6688 0.6685 0.6683 0.6681
2207.000000 0.6679 0.6677 0.6675 0.6673 0.6670
2212.000000 0.6667 0.6664 0.6661 0.6658 0.6655
2217.000000 0.6652 0.6649 0.6636 0.6619 0.6602
2222.000000 0.6586 0.6569 0.6553 0.6538 0.6522
2227.000000 0.6507 0.6491 0.6475 0.6460 0.6444
2232.000000 0.6433 0.6424 0.6416 0.6407 0.6398
2237.000000 0.6389 0.6381 0.6372 0.6363 0.6354
2242.000000 0.6346 0.6337 0.6328 0.6320 0.6310
2247.000000 0.6299 0.6287 0.6276 0.6264 0.6253
2252.000000 0.6241 0.6229 0.6218 0.6206 0.6195
2257.000000 0.6183 0.6172 0.6160 0.6148 0.6137
2262.000000 0.6125 0.6114 0.6106 0.6097 0.6088
2267.000000 0.6080 0.6071 0.6063 0.6054 0.6045
2272.000000 0.6037 0.6028 0.6020 0.6011 0.6002
2277.000000 0.5994 0.5985 0.5977 0.5968 0.5960
2282.000000 0.5951 0.5942 0.5937 0.5933 0.5930
2287.000000 0.5927 0.5923 0.5920 0.5917 0.5913
2292.000000 0.5910 0.5907 0.5904 0.5901 0.5898
2297.000000 0.5895 0.5892 0.5889 0.5886 0.5882
2302.000000 0.5879 0.5874 0.5858 0.5843 0.5827
2307.000000 0.5811 0.5796 0.5782 0.5768 0.5753
2312.000000 0.5739 0.5725 0.5711 0.5696 0.5682
2317.000000 0.5668 0.5654 0.5639 0.5625 0.5611
2322.000000 0.5597 0.5582 0.5569 0.5556 0.5543
2327.000000 0.5530 0.5517 0.5505 0.5492 0.5479
2332.000000 0.5466 0.5453 0.5440 0.5427 0.5414
2337.000000 0.5401 0.5388 0.5374 0.5360 0.5347
2342.000000 0.5333 0.5319 0.5306 0.5292 0.5278
2347.000000 0.5265 0.5251 0.5237 0.5224 0.5210
2352.000000 0.5196 0.5183 0.5169 0.5155 0.5139
2357.000000 0.5124 0.5108 0.5093 0.5078 0.5062
2362.000000 0.5047 0.5031 0.5016 0.5000 0.4985
2367.000000 0.4969 0.4954 0.4938 0.4923 0.4907
2372.000000 0.4892 0.4876 0.4859 0.4840 0.4820
2377.000000 0.4801 0.4782 0.4762 0.4743 0.4724
2382.000000 0.4704 0.4685 0.4666 0.4646 0.4627
2387.000000 0.4607 0.4588 0.4569 0.4549 0.4530
2392.000000 0.4511 0.4491 0.4472 0.4448 0.4423
2397.000000 0.4397 0.4371 0.4345 0.4320 0.4294
2402.000000 0.4268 0.4242 0.4217 0.4191 0.4165
2407.000000 0.4140 0.4114 0.4088 0.4064 0.4042
2412.000000 0.4020 0.3998 0.3976 0.3954 0.3933
2417.000000 0.3911 0.3889 0.3867 0.3845 0.3823
2422.000000 0.3801 0.3779 0.3757 0.3735 0.3713
2427.000000 0.3691 0.3669 0.3647 0.3625 0.3604
2432.000000 0.3576 0.3545 0.3515 0.3485 0.3455
2437.000000 0.3425 0.3395 0.3365 0.3334 0.3304
2442.000000 0.3274 0.3244 0.3197 0.3144 0.3091
2447.000000 0.3039 0.2986 0.2934 0.2875 0.2806
2452.000000 0.2737 0.2668 0.2599 0.2531 0.2479
2457.000000 0.2428 0.2376 0.2324 0.2280 0.2245
2462.000000 0.2211 0.2176 0.2141 0.2106 0.2071
2467.000000 0.2069 0.2069 0.2069 0.2069 0.2070
2472.000000 0.2070 0.2070 0.2070 0.2071 0.2075
2477.000000 0.2075 0.2083 0.2087 0.2092 0.2096
2482.000000 0.2100 0.2116 0.2133 0.2158 0.2184
2487.000000 0.2216 0.2460 0.2672 0.2848 0.2951
2492.000000 0.3011 0.3095 0.3173 0.3233 0.3272
2497.000000 0.3305 0.3319 0.3324 0.3325 0.3387
2502.000000 0.3311 0.3292 0.3264 0.3230 0.3188
2507.000000 0.3068 0.2998 0.2928 0.2847 0.2758
2512.000000 0.2691 0.2645 0.2600 0.2554 0.2515
2517.000000 0.2484 0.2453 0.2423 0.2420 0.2417
2522.000000 0.2344 0.2418 0.2419 0.2422 0.2430
2527.000000 0.2438 0.2447 0.2473 0.2508 0.2545
2532.000000 0.2582 0.2621 0.2665 0.2709 0.2759
2537.000000 0.2810 0.2861 0.2894 0.2907 0.2920
2542.000000 0.2933 0.2947 0.2960 0.2992 0.2962
2547.000000 0.2958 0.2954 0.2950 0.2934 0.2919
2552.000000 0.2904 0.2889 0.2873 0.2858 0.2834
2557.000000 0.2809 0.2785 0.2760 0.2735 0.2709
2562.000000 0.2682 0.2655 0.2628 0.2601 0.2574
2567.000000 0.2545 0.2516 0.2487 0.2459 0.2430
2572.000000 0.2401 0.2368 0.2329 0.2291 0.2253
2577.000000 0.2214 0.2171 0.2126 0.2080 0.2035
2582.000000 0.1989 0.1943 0.1898 0.1858 0.1818
2587.000000 0.1778 0.1738 0.1698 0.1668 0.1644
2592.000000 0.1621 0.1597 0.1573 0.1549 0.1531
2597.000000 0.1523 0.1515 0.1507 0.1499 0.1490
2602.000000 0.1486 0.1484 0.1481 0.1486 0.1491
2607.000000 0.1422 0.1501 0.1506 0.1512 0.1518
2612.000000 0.1530 0.1541 0.1553 0.1564 0.1582
2617.000000 0.1600 0.1619 0.1638 0.1657 0.1703
2622.000000 0.1752 0.1802 0.1851 0.1899 0.1917
2627.000000 0.1934 0.1952 0.1970 0.1973 0.1975
2632.000000 0.1977 0.1979 0.1976 0.1972 0.1968
2637.000000 0.1964 0.1956 0.1947 0.1938 0.1930
2642.000000 0.1920 0.1911 0.1902 0.1893 0.1887
2647.000000 0.1881 0.1875 0.1869 0.1863 0.1857
2652.000000 0.1851 0.1845 0.1840 0.1835 0.1830
2657.000000 0.1826 0.1821 0.1808 0.1794 0.1779
2662.000000 0.1765 0.1749 0.1729 0.1709 0.1689
2667.000000 0.1671 0.1656 0.1645 0.1639 0.1632
2672.000000 0.1625 0.1618 0.1612 0.1608 0.1606
2677.000000 0.1605 0.1604 0.1603 0.1602 0.1600
2682.000000 0.1596 0.1593 0.1589 0.1584 0.1575
2687.000000 0.1567 0.1558 0.1549 0.1539 0.1526
2692.000000 0.1514 0.1502 0.1489 0.1477 0.1468
2697.000000 0.1459 0.1450 0.1441 0.1432 0.1423
2702.000000 0.1416 0.1412 0.1409 0.1406 0.1402
2707.000000 0.1399 0.1395 0.1392 0.1391 0.1391
2712.000000 0.1391 0.1391 0.1391 0.1391 0.1390
2717.000000 0.1390 0.1390 0.1390 0.1390 0.1391
2722.000000 0.1392 0.1392 0.1393 0.1394 0.1395
2727.000000 0.1396 0.1397 0.1398 0.1398 0.1417
2732.000000 0.1400 0.1401 0.1402 0.1403 0.1405
2737.000000 0.1407 0.1408 0.1410 0.1411 0.1413
2742.000000 0.1414 0.1416 0.1418 0.1419 0.1421
2747.000000 0.1422 0.1424 0.1426 0.1427 0.1429
2752.000000 0.1431 0.1432 0.1434 0.1436 0.1437
2757.000000 0.1439 0.1441 0.1442 0.1444 0.1447
2762.000000 0.1450 0.1452 0.1455 0.1458 0.1461
2767.000000 0.1464 0.1466 0.1469 0.1472 0.1475
2772.000000 0.1478 0.1481 0.1485 0.1489 0.1494
2777.000000 0.1498 0.1502 0.1506 0.1512 0.1523
2782.000000 0.1533 0.1544 0.1562 0.1582 0.1602
2787.000000 0.1622 0.1641 0.1668 0.1695 0.1721
2792.000000 0.1748 0.1781 0.1814 0.1848 0.1881
2797.000000 0.1929 0.1985 0.2032 0.2071 0.2101
2802.000000 0.2118 0.2136 0.2154 0.2171 0.2176
2807.000000 0.2180 0.2184 0.2187 0.2191 0.2195
2812.000000 0.2198 0.2199 0.2199 0.2199 0.2200
2817.000000 0.2200 0.2200 0.2201 0.2201 0.2202
2822.000000 0.2207 0.2211 0.2215 0.2223 0.2234
2827.000000 0.2245 0.2257 0.2268 0.2282 0.2299
2832.000000 0.2316 0.2333 0.2346 0.2357 0.2367
2837.000000 0.2373 0.2379 0.2385 0.2391 0.2398
2842.000000 0.2406 0.2415 0.2449 0.2488 0.2540
2847.000000 0.2589 0.2621 0.2766 0.2675 0.2701
2852.000000 0.2722 0.2728 0.2733 0.2737 0.2738
2857.000000 0.2738 0.2739 0.2740 0.2741 0.2742
2862.000000 0.2742 0.2743 0.2743 0.2743 0.2743
2867.000000 0.2744 0.2744 0.2744 0.2743 0.2742
2872.000000 0.2740 0.2739 0.2737 0.2736 0.2734
2877.000000 0.2732 0.2731 0.2729 0.2728 0.2728
2882.000000 0.2728 0.2728 0.2729 0.2729 0.2729
2887.000000 0.2729 0.2730 0.2730 0.2730 0.2731
2892.000000 0.2730 0.2729 0.2728 0.2727 0.2725
2897.000000 0.2724 0.2723 0.2722 0.2721 0.2721
2902.000000 0.2722 0.2722 0.2722 0.2722 0.2724
2907.000000 0.2727 0.2730 0.2733 0.2736 0.2739
2912.000000 0.2744 0.2748 0.2753 0.2772 0.2798
2917.000000 0.2829 0.2860 0.2894 0.2921 0.2942
2922.000000 0.2963 0.2988 0.3012 0.3037 0.3066
2927.000000 0.3100 0.3170 0.3266 0.3321 0.3347
2932.000000 0.3371 0.3382 0.3392 0.3401 0.3407
2937.000000 0.3401 0.3393 0.3380 0.3362 0.3343
2942.000000 0.3324 0.3303 0.3277 0.3252 0.3226
2947.000000 0.3196 0.3161 0.3126 0.3061 0.2931
2952.000000 0.2763 0.2716 0.2700 0.2701 0.2735
2957.000000 0.2792 0.2849 0.2905 0.2962 0.3019
2962.000000 0.3076 0.3133 0.3160 0.3171 0.3173
2967.000000 0.3170 0.3168 0.3161 0.3153 0.3145
2972.000000 0.3133 0.3121 0.3109 0.3099 0.3090
2977.000000 0.3082 0.3079 0.3076 0.3074 0.3072
2982.000000 0.3072 0.3072 0.3073 0.3073 0.3075
2987.000000 0.3079 0.3083 0.3087 0.3090 0.3090
2992.000000 0.3090 0.3091 0.3091 0.3089 0.3103
2997.000000 0.3084 0.3081 0.3078 0.3075 0.3072
3002.000000 0.3069 0.3062 0.3055 0.3048 0.3041
3007.000000 0.3034 0.3027 0.3014 0.3001 0.2987
3012.000000 0.2974 0.2954 0.2934 0.2915 0.2910
3017.000000 0.2895 0.2914 0.2919 0.2924 0.2930
3022.000000 0.2938 0.2946 0.2954 0.2974 0.2997
3027.000000 0.3027 0.3057 0.3088 0.3124 0.3146
3032.000000 0.3157 0.3162 0.3165 0.3163 0.3160
3037.000000 0.3156 0.3149 0.3139 0.3128 0.3118
3042.000000 0.3105 0.3091 0.3076 0.3061 0.3047
3047.000000 0.3039 0.3032 0.3025 0.3025 0.3027
3052.000000 0.3040 0.3062 0.3123 0.3202 0.3283
3057.000000 0.3473 0.3584 0.3619 0.3655 0.3664
3062.000000 0.3669 0.3671 0.3671 0.3670 0.3669
3067.000000 0.3669 0.3670 0.3671 0.3671 0.3672
3072.000000 0.3673 0.3674 0.3675 0.3682 0.3692
3077.000000 0.3701 0.3711 0.3742 0.3776 0.3927
3082.000000 0.3988 0.4031 0.4036 0.4039 0.4041
3087.000000 0.4043 0.4044 0.4046 0.4052 0.4061
3092.000000 0.4069 0.4078 0.4106 0.4140 0.4173
3097.000000 0.4219 0.4266 0.4313 0.4364 0.4416
3102.000000 0.4471 0.4528 0.4585 0.4632 0.4674
3107.000000 0.4712 0.4734 0.4755 0.4777 0.4798
3112.000000 0.4820 0.4841 0.4863 0.4884 0.4904
3117.000000 0.4922 0.4940 0.4958 0.4976 0.4994
3122.000000 0.5011 0.5028 0.5044 0.5060 0.5076
3127.000000 0.5093 0.5109 0.5125 0.5141 0.5158
3132.000000 0.5174 0.5192 0.5211 0.5229 0.5248
3137.000000 0.5267 0.5286 0.5304 0.5323 0.5343
3142.000000 0.5363 0.5383 0.5402 0.5421 0.5436
3147.000000 0.5452 0.5467 0.5482 0.5496 0.5509
3152.000000 0.5523 0.5536 0.5550 0.5560 0.5567
3157.000000 0.5574 0.5581 0.5588 0.5595 0.5601
3162.000000 0.5605 0.5610 0.5614 0.5619 0.5624
3167.000000 0.5628 0.5631 0.5632 0.5633 0.5633
3172.000000 0.5634 0.5634 0.5635 0.5636 0.5636
3177.000000 0.5637 0.5638 0.5638 0.5638 0.5639
3182.000000 0.5639 0.5639 0.5639 0.5640 0.5640
3187.000000 0.5641 0.5646 0.5652 0.5658 0.5663
3192.000000 0.5669 0.5675 0.5681 0.5695 0.5712
3197.000000 0.5730 0.5760 0.5790 0.5818 0.5844
3202.000000 0.5871 0.5898 0.5926 0.5954 0.5982
3207.000000 0.6004 0.6025 0.6047 0.6068 0.6089
3212.000000 0.6108 0.6128 0.6147 0.6163 0.6172
3217.000000 0.6182 0.6192 0.6202 0.6211 0.6218
3222.000000 0.6225 0.6231 0.6238 0.6244 0.6247
3227.000000 0.6250 0.6253 0.6256 0.6259 0.6262
3232.000000 0.6265 0.6266 0.6267 0.6268 0.6268
3237.000000 0.6269 0.6270 0.6271 0.6271 0.6272
3242.000000 0.6272 0.6273 0.6273 0.6273 0.6274
3247.000000 0.6274 0.6274 0.6274 0.6275 0.6275
3252.000000 0.6275 0.6275 0.6276 0.6276 0.6276
3257.000000 0.6277 0.6277 0.6277 0.6277 0.6278
3262.000000 0.6278 0.6277 0.6277 0.6276 0.6276
3267.000000 0.6276 0.6275 0.6275 0.6274 0.6274
3272.000000 0.6274 0.6273 0.6271 0.6269 0.6267
3277.000000 0.6265 0.6262 0.6260 0.6258 0.6256
3282.000000 0.6253 0.6251 0.6249 0.6247 0.6244
3287.000000 0.6242 0.6239 0.6236 0.6234 0.6231
3292.000000 0.6228 0.6226 0.6223 0.6220 0.6218
3297.000000 0.6215 0.6212 0.6209 0.6207 0.6204
3302.000000 0.6200 0.6197 0.6193 0.6190 0.6187
3307.000000 0.6183 0.6180 0.6176 0.6173 0.6169
3312.000000 0.6166 0.6163 0.6159 0.6154 0.6149
3317.000000 0.6143 0.6137 0.6132 0.6126 0.6120
3322.000000 0.6115 0.6109 0.6103 0.6098 0.6092
3327.000000 0.6086 0.6081 0.6073 0.6064 0.6055
3332.000000 0.6046 0.6038 0.6029 0.6020 0.6011
3337.000000 0.6002 0.5993 0.5985 0.5975 0.5964
3342.000000 0.5953 0.5942 0.5931 0.5920 0.5909
3347.000000 0.5898 0.5887 0.5876 0.5866 0.5853
3352.000000 0.5839 0.5824 0.5810 0.5796 0.5781
3357.000000 0.5767 0.5752 0.5738 0.5724 0.5709
3362.000000 0.5694 0.5678 0.5662 0.5646 0.5630
3367.000000 0.5614 0.5598 0.5584 0.5571 0.5558
3372.000000 0.5545 0.5531 0.5518 0.5508 0.5500
3377.000000 0.5491 0.5483 0.5475 0.5467 0.5461
3382.000000 0.5458 0.5454 0.5450 0.5446 0.5443
3387.000000 0.5439 0.5435 0.5433 0.5431 0.5429
3392.000000 0.5427 0.5425 0.5423 0.5421 0.5419
3397.000000 0.5417 0.5414 0.5414 0.5415 0.5416
3402.000000 0.5417 0.5418 0.5419 0.5420 0.5420
3407.000000 0.5421 0.5422 0.5423 0.5424 0.5425
3412.000000 0.5426 0.5427 0.5428 0.5429 0.5430
3417.000000 0.5431 0.5433 0.5434 0.5435 0.5436
3422.000000 0.5439 0.5442 0.5445 0.5447 0.5450
3427.000000 0.5453 0.5456 0.5458 0.5461 0.5464
3432.000000 0.5467 0.5469 0.5472 0.5475 0.5478
3437.000000 0.5480 0.5483 0.5486 0.5489 0.5493
3442.000000 0.5497 0.5501 0.5504 0.5508 0.5512
3447.000000 0.5516 0.5520 0.5524 0.5528 0.5531
3452.000000 0.5535 0.5539 0.5543 0.5547 0.5551
3457.000000 0.5554 0.5558 0.5562 0.5566 0.5570
3462.000000 0.5574 0.5579 0.5585 0.5590 0.5595
3467.000000 0.5601 0.5606 0.5612 0.5617 0.5622
3472.000000 0.5628 0.5633 0.5638 0.5644 0.5649
3477.000000 0.5655 0.5660 0.5665 0.5670 0.5675
3482.000000 0.5680 0.5685 0.5690 0.5696 0.5701
3487.000000 0.5706 0.5711 0.5716 0.5721 0.5726
3492.000000 0.5731 0.5736 0.5741 0.5746 0.5751
3497.000000 0.5756 0.5761 0.5766 0.5771 0.5776
3502.000000 0.5781 0.5786 0.5791 0.5796 0.5801
3507.000000 0.5806 0.5811 0.5816 0.5821 0.5826
3512.000000 0.5831 0.5836 0.5841 0.5846 0.5851
3517.000000 0.5856 0.5861 0.5866 0.5871 0.5876
3522.000000 0.5880 0.5885 0.5890 0.5895 0.5900
3527.000000 0.5905 0.5910 0.5915 0.5920 0.5925
3532.000000 0.5930 0.5935 0.5940 0.5945 0.5949
3537.000000 0.5954 0.5959 0.5964 0.5969 0.5974
3542.000000 0.5979 0.5984 0.5989 0.5994 0.5998
3547.000000 0.6003 0.6008 0.6013 0.6018 0.6023
3552.000000 0.6028 0.6033 0.6038 0.6043 0.6048
3557.000000 0.6053 0.6059 0.6065 0.6071 0.6077
3562.000000 0.6084 0.6090 0.6096 0.6102 0.6108
3567.000000 0.6114 0.6120 0.6126 0.6132 0.6138
3572.000000 0.6144 0.6151 0.6157 0.6163 0.6169
3577.000000 0.6175 0.6181 0.6187 0.6193 0.6199
3582.000000 0.6205 0.6210 0.6215 0.6221 0.6226
3587.000000 0.6231 0.6236 0.6241 0.6247 0.6252
3592.000000 0.6257 0.6262 0.6267 0.6272 0.6278
3597.000000 0.6283 0.6288 0.6293 0.6298 0.6303
3602.000000 0.6308 0.6312 0.6316 0.6320 0.6324
3607.000000 0.6329 0.6333 0.6337 0.6341 0.6346
3612.000000 0.6350 0.6354 0.6357 0.6360 0.6363
3617.000000 0.6366 0.6368 0.6371 0.6374 0.6377
3622.000000 0.6380 0.6383 0.6386 0.6388 0.6391
3627.000000 0.6394 0.6397 0.6399 0.6402 0.6404
3632.000000 0.6406 0.6408 0.6410 0.6412 0.6414
3637.000000 0.6416 0.6418 0.6420 0.6422 0.6424
3642.000000 0.6427 0.6429 0.6431 0.6433 0.6435
3647.000000 0.6437 0.6439 0.6441 0.6443 0.6445
3652.000000 0.6447 0.6450 0.6452 0.6453 0.6454
3657.000000 0.6455 0.6456 0.6457 0.6458 0.6459
3662.000000 0.6461 0.6462 0.6463 0.6464 0.6465
3667.000000 0.6466 0.6467 0.6468 0.6469 0.6470
3672.000000 0.6471 0.6472 0.6473 0.6474 0.6475
3677.000000 0.6476 0.6477 0.6478 0.6479 0.6479
3682.000000 0.6479 0.6479 0.6479 0.6479 0.6479
3687.000000 0.6479 0.6479 0.6480 0.6480 0.6480
3692.000000 0.6480 0.6480 0.6480 0.6480 0.6480
3697.000000 0.6480 0.6480 0.6480 0.6480 0.6480
3702.000000 0.6480 0.6480 0.6480 0.6480 0.6480
3707.000000 0.6480 0.6480 0.6480 0.6480 0.6479
3712.000000 0.6478 0.6477 0.6476 0.6475 0.6474
3717.000000 0.6473 0.6472 0.6470 0.6469 0.6468
3722.000000 0.6467 0.6466 0.6465 0.6464 0.6463
3727.000000 0.6462 0.6460 0.6459 0.6458 0.6457
3732.000000 0.6456 0.6455 0.6454 0.6453 0.6452
3737.000000 0.6450 0.6449 0.6448 0.6447 0.6445
3742.000000 0.6444 0.6443 0.6442 0.6440 0.6439
3747.000000 0.6438 0.6437 0.6435 0.6434 0.6433
3752.000000 0.6432 0.6430 0.6429 0.6428 0.6427
3757.000000 0.6425 0.6424 0.6422 0.6420 0.6418
3762.000000 0.6417 0.6415 0.6413 0.6411 0.6410
3767.000000 0.6408 0.6406 0.6404 0.6403 0.6401
3772.000000 0.6399 0.6397 0.6395 0.6394 0.6392
3777.000000 0.6390 0.6388 0.6386 0.6384 0.6382
3782.000000 0.6380 0.6378 0.6376 0.6374 0.6372
3787.000000 0.6370 0.6368 0.6366 0.6364 0.6362
3792.000000 0.6360 0.6358 0.6356 0.6354 0.6352
3797.000000 0.6350 0.6348 0.6346 0.6344 0.6342
3802.000000 0.6340 0.6338 0.6336 0.6333 0.6331
3807.000000 0.6329 0.6327 0.6325 0.6322 0.6320
3812.000000 0.6318 0.6316 0.6313 0.6311 0.6309
3817.000000 0.6307 0.6305 0.6303 0.6301 0.6299
3822.000000 0.6297 0.6296 0.6294 0.6292 0.6290
3827.000000 0.6289 0.6287 0.6285 0.6284 0.6282
3832.000000 0.6280 0.6278 0.6277 0.6275 0.6273
3837.000000 0.6271 0.6270 0.6268 0.6266 0.6265
3842.000000 0.6263 0.6261 0.6259 0.6258 0.6257
3847.000000 0.6255 0.6254 0.6253 0.6252 0.6250
3852.000000 0.6249 0.6248 0.6246 0.6245 0.6244
3857.000000 0.6243 0.6241 0.6240 0.6239 0.6237
3862.000000 0.6236 0.6235 0.6234 0.6232 0.6231
3867.000000 0.6230 0.6229 0.6227 0.6226 0.6225
3872.000000 0.6224 0.6222 0.6221 0.6220 0.6218
3877.000000 0.6217 0.6216 0.6215 0.6213 0.6212
3882.000000 0.6211 0.6210 0.6208 0.6207 0.6206
3887.000000 0.6205 0.6203 0.6202 0.6201 0.6199
3892.000000 0.6198 0.6196 0.6194 0.6193 0.6191
3897.000000 0.6190 0.6188 0.6186 0.6185 0.6183
3902.000000 0.6181 0.6180 0.6178 0.6177 0.6175
3907.000000 0.6173 0.6172 0.6170 0.6151 0.6167
3912.000000 0.6165 0.6164 0.6163 0.6162 0.6161
3917.000000 0.6161 0.6160 0.6159 0.6158 0.6158
3922.000000 0.6157 0.6156 0.6156 0.6155 0.6154
3927.000000 0.6154 0.6153 0.6152 0.6151 0.6151
3932.000000 0.6150 0.6149 0.6149 0.6150 0.6150
3937.000000 0.6150 0.6150 0.6151 0.6151 0.6151
3942.000000 0.6151 0.6152 0.6152 0.6152 0.6153
3947.000000 0.6153 0.6153 0.6153 0.6154 0.6154
3952.000000 0.6154 0.6154 0.6155 0.6155 0.6155
3957.000000 0.6156 0.6156 0.6157 0.6158 0.6159
3962.000000 0.6160 0.6161 0.6162 0.6163 0.6164
3967.000000 0.6165 0.6166 0.6167 0.6168 0.6169
3972.000000 0.6170 0.6171 0.6172 0.6172 0.6173
3977.000000 0.6173 0.6173 0.6173 0.6174 0.6174
3982.000000 0.6174 0.6174 0.6173 0.6171 0.6170
3987.000000 0.6168 0.6167 0.6166 0.6164 0.6163
3992.000000 0.6161 0.6160 0.6159 0.6157 0.6156
3997.000000 0.6155 0.6153 0.6152 0.6151
##END=
