##TITLE=Coumarin, 6,7-bis(2-diethylaminoethoxy)-4-methyl-, dihydrochloride
##JCAMP-DX=4.24
##DATA TYPE=INFRARED SPECTRUM
##CLASS=COBLENTZ
##ORIGIN=SMITH KLINE & FRENCH LABS.
##OWNER=Copyright (C) 1987 by the Coblentz Society
Collection (C) 2018 copyright by the U.S. Secretary of Commerce
on behalf of the United States of America. All rights reserved.
##DATE=1963/08/20
##MOLFORM=C22 H36 Cl2 N2 O4
##SOURCE REFERENCE=COBLENTZ NO. 9106
##$NIST ID=B6009106
##$NIST SOURCE=COBLENTZ
##$NIST IMAGE=cob9106
##SPECTROMETER/DATA SYSTEM=PERKIN-ELMER 21 (GRATING)
##INSTRUMENT PARAMETERS=NaCl PRISM
##STATE=SOLID (KBr DISC)
##SAMPLING PROCEDURE=TRANSMISSION
##RESOLUTION=2
##DATA PROCESSING=DIGITIZED BY COBLENTZ SOCIETY (BATCH II) FROM HARD COPY
##XUNITS=1/CM
##YUNITS=TRANSMITTANCE
##XFACTOR=1.0
##YFACTOR=1
##FIRSTX=660
##LASTX=4000
##FIRSTY=0.8502
##MAXX=4000
##MINX=660
##MAXY=0.9091
##MINY=0.0733
##NPOINTS=3341
##XYDATA=(X++(Y..Y))
660.000000 0.8502 0.8556 0.8588 0.8590 0.8245
665.000000 0.8033 0.8133 0.8515 0.8718 0.8730
670.000000 0.8741 0.8753 0.8667 0.8630 0.8646
675.000000 0.8687 0.8709 0.8722 0.8657 0.8715
680.000000 0.8629 0.8668 0.8567 0.8432 0.8345
685.000000 0.8368 0.8264 0.8280 0.8350 0.8462
690.000000 0.8440 0.8642 0.8885 0.8911 0.8841
695.000000 0.8841 0.8812 0.8780 0.8802 0.8765
700.000000 0.8621 0.8444 0.8352 0.8331 0.8415
705.000000 0.8493 0.8495 0.8579 0.8689 0.8760
710.000000 0.8809 0.8804 0.8794 0.8797 0.8839
715.000000 0.8841 0.8822 0.8825 0.8842 0.8883
720.000000 0.9064 0.9069 0.8957 0.8904 0.9085
725.000000 0.9091 0.9052 0.8975 0.8913 0.8897
730.000000 0.8893 0.8793 0.8767 0.8553 0.8447
735.000000 0.8324 0.8113 0.8032 0.7953 0.7697
740.000000 0.7637 0.7435 0.7433 0.7717 0.8064
745.000000 0.8182 0.8351 0.8436 0.8660 0.8817
750.000000 0.8846 0.8810 0.8786 0.8803 0.8828
755.000000 0.8856 0.8869 0.8874 0.8865 0.8788
760.000000 0.8763 0.8816 0.8821 0.8680 0.8614
765.000000 0.8690 0.8797 0.8907 0.8832 0.8795
770.000000 0.8832 0.8861 0.8958 0.9089 0.9091
775.000000 0.9018 0.8887 0.8883 0.8877 0.8871
780.000000 0.8833 0.8743 0.8635 0.8541 0.8447
785.000000 0.8354 0.8262 0.8173 0.8085 0.7990
790.000000 0.7894 0.7799 0.7704 0.7638 0.7590
795.000000 0.7571 0.7543 0.7504 0.7463 0.7415
800.000000 0.7359 0.7306 0.7273 0.7418 0.7570
805.000000 0.7708 0.7748 0.7770 0.7788 0.7818
810.000000 0.7812 0.7795 0.7763 0.7719 0.7676
815.000000 0.7580 0.7384 0.7097 0.6865 0.6656
820.000000 0.6438 0.6150 0.5861 0.5596 0.5528
825.000000 0.5034 0.5000 0.5057 0.5105 0.5157
830.000000 0.5211 0.5316 0.5513 0.5714 0.5803
835.000000 0.5810 0.5899 0.6033 0.6078 0.6033
840.000000 0.5931 0.5844 0.5771 0.5733 0.5727
845.000000 0.5831 0.5956 0.6082 0.6134 0.6108
850.000000 0.6080 0.5812 0.5499 0.5187 0.4908
855.000000 0.4742 0.4700 0.4698 0.4707 0.4716
860.000000 0.4649 0.4548 0.4557 0.5006 0.5196
865.000000 0.5343 0.5927 0.5990 0.6060 0.6310
870.000000 0.6470 0.6608 0.6747 0.6886 0.7023
875.000000 0.7230 0.7369 0.7434 0.7562 0.7726
880.000000 0.7909 0.8001 0.8022 0.8027 0.8052
885.000000 0.8187 0.8207 0.8220 0.8215 0.8203
890.000000 0.8186 0.8152 0.8113 0.8104 0.8070
895.000000 0.7926 0.7726 0.7616 0.7511 0.7400
900.000000 0.7119 0.6988 0.6974 0.7093 0.7310
905.000000 0.7352 0.7363 0.7463 0.7545 0.7618
910.000000 0.7669 0.7684 0.7690 0.7711 0.7780
915.000000 0.7854 0.7886 0.7927 0.7961 0.7971
920.000000 0.7976 0.8033 0.8024 0.7940 0.7860
925.000000 0.7861 0.7863 0.7838 0.7735 0.7643
930.000000 0.7556 0.7409 0.7250 0.7192 0.7014
935.000000 0.6630 0.6247 0.5924 0.5864 0.5544
940.000000 0.5207 0.4869 0.4534 0.4423 0.4549
945.000000 0.4554 0.4405 0.4244 0.4046 0.3988
950.000000 0.3966 0.4016 0.4190 0.4438 0.4525
955.000000 0.4543 0.4558 0.4911 0.5294 0.5676
960.000000 0.6058 0.6397 0.6674 0.7054 0.7301
965.000000 0.7498 0.7648 0.7725 0.7796 0.7820
970.000000 0.7838 0.7840 0.7811 0.7770 0.7731
975.000000 0.7712 0.7681 0.7622 0.7535 0.7448
980.000000 0.7411 0.7381 0.7320 0.7230 0.7129
985.000000 0.7037 0.6943 0.6848 0.6841 0.6865
990.000000 0.6912 0.6915 0.6891 0.6856 0.6814
995.000000 0.6768 0.6716 0.6435 0.6325 0.6108
1000.000000 0.5891 0.5674 0.5458 0.5201 0.4996
1005.000000 0.4843 0.4621 0.4281 0.3883 0.3500
1010.000000 0.3298 0.3161 0.3042 0.2927 0.2852
1015.000000 0.2786 0.2641 0.2625 0.2705 0.2764
1020.000000 0.2805 0.2818 0.2856 0.2788 0.2730
1025.000000 0.2666 0.2612 0.2559 0.2532 0.2539
1030.000000 0.2505 0.2594 0.2657 0.2840 0.3039
1035.000000 0.3238 0.3435 0.3632 0.3830 0.4027
1040.000000 0.4223 0.4419 0.4615 0.4810 0.5005
1045.000000 0.5120 0.5117 0.5129 0.5008 0.4865
1050.000000 0.4618 0.4363 0.4108 0.3853 0.3811
1055.000000 0.3596 0.3318 0.3139 0.3079 0.3056
1060.000000 0.3065 0.3126 0.3176 0.3173 0.3112
1065.000000 0.3001 0.2907 0.2830 0.2811 0.2860
1070.000000 0.2964 0.3069 0.3189 0.3437 0.3568
1075.000000 0.3675 0.3764 0.3855 0.4547 0.5108
1080.000000 0.5418 0.5729 0.5962 0.6557 0.7023
1085.000000 0.7347 0.7626 0.7796 0.7893 0.7947
1090.000000 0.8001 0.8042 0.8065 0.8087 0.8100
1095.000000 0.8103 0.8107 0.8121 0.8137 0.8157
1100.000000 0.8172 0.8167 0.8144 0.8104 0.8064
1105.000000 0.8046 0.8033 0.8027 0.8026 0.8028
1110.000000 0.8029 0.8019 0.7987 0.7940 0.7872
1115.000000 0.7787 0.7709 0.7637 0.7568 0.7501
1120.000000 0.7439 0.7377 0.7330 0.7286 0.7248
1125.000000 0.7213 0.7142 0.7026 0.6901 0.6801
1130.000000 0.6683 0.6551 0.6390 0.6211 0.6062
1135.000000 0.6008 0.5955 0.5879 0.5724 0.5579
1140.000000 0.5508 0.5454 0.5355 0.5132 0.4797
1145.000000 0.4583 0.4369 0.4047 0.3716 0.3387
1150.000000 0.2948 0.2843 0.2731 0.2592 0.2484
1155.000000 0.2449 0.2435 0.2432 0.2451 0.2490
1160.000000 0.2552 0.2614 0.2650 0.2669 0.2678
1165.000000 0.2679 0.2658 0.2681 0.2453 0.2362
1170.000000 0.2275 0.2162 0.2104 0.2077 0.2077
1175.000000 0.2090 0.2073 0.2181 0.2276 0.2395
1180.000000 0.2550 0.3060 0.3623 0.4184 0.4912
1185.000000 0.5294 0.5731 0.5921 0.6108 0.6285
1190.000000 0.6477 0.6689 0.6754 0.6807 0.6824
1195.000000 0.6821 0.6828 0.6795 0.6757 0.6695
1200.000000 0.6578 0.6522 0.6520 0.6515 0.6452
1205.000000 0.6341 0.5964 0.5614 0.5266 0.4918
1210.000000 0.4570 0.4223 0.3877 0.3531 0.3193
1215.000000 0.3137 0.3120 0.3326 0.3483 0.3642
1220.000000 0.3777 0.3790 0.3759 0.3633 0.3415
1225.000000 0.3194 0.2973 0.2752 0.2531 0.2315
1230.000000 0.2173 0.2095 0.2056 0.2044 0.2046
1235.000000 0.2052 0.2070 0.2146 0.2390 0.2617
1240.000000 0.2970 0.3297 0.3624 0.3950 0.4240
1245.000000 0.4350 0.4644 0.4959 0.5092 0.5122
1250.000000 0.5131 0.5131 0.5135 0.5117 0.5101
1255.000000 0.5070 0.5010 0.4925 0.4742 0.4523
1260.000000 0.4256 0.4100 0.3869 0.3603 0.3339
1265.000000 0.3075 0.2826 0.2659 0.2397 0.2112
1270.000000 0.1826 0.1543 0.1370 0.1295 0.1224
1275.000000 0.1167 0.1166 0.1186 0.1283 0.1569
1280.000000 0.1873 0.2175 0.2476 0.2777 0.3078
1285.000000 0.3377 0.3678 0.3977 0.4276 0.4574
1290.000000 0.4872 0.5141 0.5277 0.5374 0.5504
1295.000000 0.5649 0.5750 0.5843 0.5964 0.6118
1300.000000 0.6285 0.6367 0.6501 0.6689 0.6793
1305.000000 0.6881 0.6954 0.7012 0.7047 0.7067
1310.000000 0.7050 0.7036 0.7000 0.6967 0.6956
1315.000000 0.6956 0.6953 0.6921 0.6842 0.6764
1320.000000 0.6697 0.6661 0.6647 0.6647 0.6647
1325.000000 0.6647 0.6643 0.6636 0.6610 0.6566
1330.000000 0.6439 0.6271 0.6103 0.5935 0.5768
1335.000000 0.5601 0.5434 0.5370 0.5200 0.4970
1340.000000 0.4742 0.4607 0.4598 0.4569 0.4682
1345.000000 0.4776 0.4870 0.4963 0.4967 0.4966
1350.000000 0.4955 0.4956 0.4946 0.4885 0.4640
1355.000000 0.4395 0.4150 0.3957 0.3878 0.3758
1360.000000 0.3568 0.3377 0.3187 0.3080 0.3051
1365.000000 0.3020 0.2989 0.2948 0.2892 0.2826
1370.000000 0.2798 0.2793 0.2797 0.2816 0.2844
1375.000000 0.2852 0.2852 0.2848 0.2758 0.2652
1380.000000 0.2553 0.2372 0.2151 0.1931 0.1712
1385.000000 0.1634 0.1636 0.1658 0.1751 0.1870
1390.000000 0.1987 0.2105 0.2222 0.2285 0.2300
1395.000000 0.2313 0.2358 0.2646 0.2844 0.2932
1400.000000 0.3004 0.3097 0.3202 0.3226 0.3236
1405.000000 0.3235 0.3213 0.3211 0.3153 0.3063
1410.000000 0.2986 0.2909 0.2832 0.2780 0.2742
1415.000000 0.2704 0.2676 0.2651 0.2628 0.2607
1420.000000 0.2524 0.2243 0.1890 0.1548 0.1354
1425.000000 0.1303 0.1252 0.1229 0.1229 0.1240
1430.000000 0.1246 0.1347 0.1472 0.1597 0.1721
1435.000000 0.1845 0.1969 0.2056 0.2109 0.2187
1440.000000 0.2278 0.2366 0.2501 0.2599 0.2664
1445.000000 0.2711 0.2759 0.2802 0.2842 0.2868
1450.000000 0.2887 0.2906 0.2921 0.2925 0.2925
1455.000000 0.2925 0.2925 0.2922 0.2912 0.2889
1460.000000 0.2864 0.2837 0.2809 0.2783 0.2771
1465.000000 0.2778 0.2805 0.2852 0.2922 0.2992
1470.000000 0.3068 0.3120 0.3148 0.3169 0.3188
1475.000000 0.3207 0.3224 0.3338 0.3657 0.3981
1480.000000 0.4306 0.4630 0.4953 0.5275 0.5598
1485.000000 0.5920 0.6136 0.6216 0.6252 0.6280
1490.000000 0.6266 0.6146 0.6012 0.5875 0.5800
1495.000000 0.5775 0.5756 0.5739 0.5405 0.4930
1500.000000 0.4456 0.3983 0.3510 0.3060 0.2887
1505.000000 0.2837 0.2797 0.2788 0.2802 0.2853
1510.000000 0.3008 0.3153 0.3297 0.3440 0.3584
1515.000000 0.3699 0.3873 0.4044 0.4214 0.4383
1520.000000 0.4552 0.4720 0.4889 0.5057 0.5225
1525.000000 0.5393 0.5561 0.5705 0.5793 0.5920
1530.000000 0.5987 0.5986 0.5987 0.5963 0.5924
1535.000000 0.5888 0.5854 0.5819 0.5790 0.5770
1540.000000 0.5748 0.5706 0.5637 0.5458 0.5340
1545.000000 0.5177 0.4883 0.4574 0.4265 0.3956
1550.000000 0.3648 0.3340 0.3033 0.2744 0.2549
1555.000000 0.2432 0.2352 0.2324 0.2302 0.2257
1560.000000 0.2204 0.2151 0.2115 0.2145 0.2129
1565.000000 0.2708 0.3053 0.3398 0.3741 0.4085
1570.000000 0.4428 0.4771 0.5113 0.5454 0.5782
1575.000000 0.6008 0.6101 0.6133 0.6148 0.6156
1580.000000 0.6155 0.6152 0.6146 0.6133 0.6111
1585.000000 0.6078 0.6047 0.6022 0.6001 0.5982
1590.000000 0.5538 0.5269 0.5221 0.5190 0.5153
1595.000000 0.5002 0.4765 0.4519 0.4273 0.4027
1600.000000 0.3782 0.3537 0.3291 0.3047 0.2813
1605.000000 0.2642 0.2551 0.2465 0.2404 0.2386
1610.000000 0.2401 0.2394 0.2424 0.2566 0.2772
1615.000000 0.2978 0.3185 0.3391 0.3596 0.3801
1620.000000 0.4006 0.4212 0.4400 0.4510 0.4596
1625.000000 0.4714 0.4848 0.4960 0.5030 0.5068
1630.000000 0.5100 0.5110 0.5120 0.5129 0.5125
1635.000000 0.5128 0.5107 0.5001 0.4882 0.4765
1640.000000 0.4647 0.4529 0.4412 0.4295 0.4177
1645.000000 0.4060 0.3956 0.3911 0.3922 0.3923
1650.000000 0.3783 0.3629 0.3475 0.3320 0.3179
1655.000000 0.3084 0.3031 0.2985 0.2948 0.2910
1660.000000 0.2872 0.2845 0.2820 0.2796 0.2768
1665.000000 0.2731 0.2669 0.2578 0.2474 0.2353
1670.000000 0.2238 0.2150 0.2069 0.1983 0.1857
1675.000000 0.1749 0.1679 0.1587 0.1450 0.1374
1680.000000 0.1257 0.1155 0.1082 0.1021 0.0971
1685.000000 0.0927 0.0877 0.0820 0.0773 0.0748
1690.000000 0.0733 0.0764 0.0746 0.0797 0.0851
1695.000000 0.0896 0.0894 0.0875 0.0848 0.0822
1700.000000 0.0812 0.0819 0.0830 0.0874 0.0948
1705.000000 0.1021 0.1095 0.1169 0.1242 0.1316
1710.000000 0.1390 0.1463 0.1540 0.1672 0.1792
1715.000000 0.1900 0.2048 0.2115 0.2179 0.2256
1720.000000 0.2304 0.2324 0.2337 0.2356 0.2423
1725.000000 0.2625 0.2823 0.3023 0.3266 0.3557
1730.000000 0.3739 0.3832 0.3908 0.3971 0.4027
1735.000000 0.4082 0.4137 0.4482 0.4678 0.4810
1740.000000 0.5021 0.5367 0.5497 0.5626 0.5755
1745.000000 0.5884 0.6014 0.6143 0.6271 0.6377
1750.000000 0.6458 0.6523 0.6585 0.6625 0.6666
1755.000000 0.6708 0.6754 0.6804 0.6855 0.6905
1760.000000 0.6956 0.7015 0.7085 0.7155 0.7263
1765.000000 0.7382 0.7490 0.7578 0.7657 0.7697
1770.000000 0.7736 0.7773 0.7805 0.7830 0.7856
1775.000000 0.7882 0.7907 0.7931 0.7955 0.7979
1780.000000 0.7986 0.7985 0.7983 0.7980 0.7978
1785.000000 0.7976 0.7979 0.7990 0.8018 0.8053
1790.000000 0.8095 0.8144 0.8197 0.8248 0.8291
1795.000000 0.8325 0.8351 0.8366 0.8373 0.8378
1800.000000 0.8380 0.8381 0.8382 0.8383 0.8384
1805.000000 0.8384 0.8390 0.8398 0.8407 0.8416
1810.000000 0.8424 0.8433 0.8439 0.8441 0.8430
1815.000000 0.8423 0.8418 0.8412 0.8406 0.8404
1820.000000 0.8410 0.8426 0.8441 0.8456 0.8472
1825.000000 0.8491 0.8516 0.8537 0.8557 0.8574
1830.000000 0.8580 0.8587 0.8593 0.8599 0.8600
1835.000000 0.8602 0.8604 0.8606 0.8607 0.8608
1840.000000 0.8608 0.8607 0.8607 0.8607 0.8606
1845.000000 0.8606 0.8605 0.8604 0.8603 0.8603
1850.000000 0.8602 0.8601 0.8600 0.8600 0.8598
1855.000000 0.8597 0.8596 0.8596 0.8595 0.8594
1860.000000 0.8593 0.8593 0.8593 0.8594 0.8594
1865.000000 0.8595 0.8598 0.8604 0.8614 0.8624
1870.000000 0.8635 0.8646 0.8657 0.8669 0.8681
1875.000000 0.8686 0.8688 0.8687 0.8687 0.8665
1880.000000 0.8665 0.8652 0.8639 0.8625 0.8611
1885.000000 0.8598 0.8586 0.8574 0.8561 0.8549
1890.000000 0.8538 0.8528 0.8526 0.8525 0.8523
1895.000000 0.8523 0.8522 0.8521 0.8520 0.8519
1900.000000 0.8519 0.8519 0.8523 0.8527 0.8530
1905.000000 0.8534 0.8539 0.8543 0.8548 0.8552
1910.000000 0.8555 0.8556 0.8557 0.8553 0.8540
1915.000000 0.8526 0.8512 0.8498 0.8484 0.8468
1920.000000 0.8450 0.8427 0.8411 0.8406 0.8401
1925.000000 0.8396 0.8393 0.8391 0.8390 0.8389
1930.000000 0.8387 0.8385 0.8383 0.8379 0.8374
1935.000000 0.8370 0.8366 0.8361 0.8357 0.8353
1940.000000 0.8346 0.8338 0.8330 0.8322 0.8314
1945.000000 0.8305 0.8297 0.8291 0.8284 0.8276
1950.000000 0.8269 0.8262 0.8256 0.8250 0.8248
1955.000000 0.8246 0.8244 0.8242 0.8241 0.8242
1960.000000 0.8245 0.8249 0.8253 0.8257 0.8261
1965.000000 0.8264 0.8267 0.8270 0.8273 0.8276
1970.000000 0.8278 0.8279 0.8278 0.8278 0.8273
1975.000000 0.8267 0.8261 0.8255 0.8249 0.8241
1980.000000 0.8232 0.8222 0.8211 0.8201 0.8190
1985.000000 0.8179 0.8168 0.8158 0.8148 0.8137
1990.000000 0.8126 0.8116 0.8105 0.8094 0.8084
1995.000000 0.8074 0.8068 0.8064 0.8059 0.8055
2000.000000 0.8052 0.8047 0.8044 0.8044 0.8044
2005.000000 0.8046 0.8047 0.8048 0.8049 0.8050
2010.000000 0.8051 0.8051 0.8052 0.8053 0.8053
2015.000000 0.8052 0.8049 0.8045 0.8041 0.8037
2020.000000 0.8033 0.8030 0.8025 0.8021 0.8017
2025.000000 0.8012 0.8006 0.8001 0.7996 0.7991
2030.000000 0.7985 0.7980 0.7974 0.7969 0.7963
2035.000000 0.7954 0.7943 0.7933 0.7922 0.7911
2040.000000 0.7898 0.7884 0.7869 0.7854 0.7839
2045.000000 0.7827 0.7818 0.7818 0.7819 0.7819
2050.000000 0.7820 0.7820 0.7818 0.7816 0.7812
2055.000000 0.7809 0.7805 0.7802 0.7797 0.7790
2060.000000 0.7784 0.7777 0.7769 0.7763 0.7756
2065.000000 0.7750 0.7743 0.7736 0.7729 0.7723
2070.000000 0.7717 0.7710 0.7704 0.7697 0.7691
2075.000000 0.7685 0.7679 0.7673 0.7667 0.7662
2080.000000 0.7656 0.7650 0.7644 0.7638 0.7633
2085.000000 0.7627 0.7621 0.7614 0.7609 0.7603
2090.000000 0.7597 0.7592 0.7586 0.7580 0.7574
2095.000000 0.7569 0.7563 0.7557 0.7552 0.7546
2100.000000 0.7542 0.7538 0.7534 0.7530 0.7526
2105.000000 0.7522 0.7518 0.7514 0.7510 0.7506
2110.000000 0.7502 0.7498 0.7495 0.7491 0.7488
2115.000000 0.7484 0.7480 0.7476 0.7472 0.7469
2120.000000 0.7466 0.7464 0.7462 0.7460 0.7458
2125.000000 0.7456 0.7454 0.7452 0.7450 0.7448
2130.000000 0.7445 0.7443 0.7441 0.7439 0.7437
2135.000000 0.7434 0.7432 0.7430 0.7428 0.7426
2140.000000 0.7424 0.7423 0.7422 0.7420 0.7419
2145.000000 0.7417 0.7415 0.7414 0.7412 0.7410
2150.000000 0.7408 0.7404 0.7400 0.7397 0.7393
2155.000000 0.7389 0.7385 0.7382 0.7374 0.7365
2160.000000 0.7351 0.7337 0.7326 0.7314 0.7302
2165.000000 0.7291 0.7280 0.7269 0.7257 0.7247
2170.000000 0.7236 0.7226 0.7216 0.7206 0.7196
2175.000000 0.7186 0.7176 0.7168 0.7160 0.7154
2180.000000 0.7147 0.7139 0.7132 0.7125 0.7118
2185.000000 0.7112 0.7105 0.7098 0.7090 0.7082
2190.000000 0.7073 0.7065 0.7057 0.7048 0.7040
2195.000000 0.7031 0.7016 0.6999 0.6972 0.6944
2200.000000 0.6917 0.6890 0.6863 0.6836 0.6808
2205.000000 0.6781 0.6755 0.6728 0.6701 0.6674
2210.000000 0.6647 0.6620 0.6593 0.6568 0.6544
2215.000000 0.6522 0.6501 0.6482 0.6464 0.6448
2220.000000 0.6432 0.6410 0.6387 0.6371 0.6357
2225.000000 0.6350 0.6345 0.6341 0.6337 0.6337
2230.000000 0.6338 0.6339 0.6340 0.6341 0.6341
2235.000000 0.6342 0.6342 0.6343 0.6343 0.6341
2240.000000 0.6338 0.6333 0.6328 0.6318 0.6306
2245.000000 0.6288 0.6269 0.6243 0.6215 0.6187
2250.000000 0.6158 0.6126 0.6094 0.6065 0.6036
2255.000000 0.6015 0.5997 0.5979 0.5961 0.5943
2260.000000 0.5926 0.5908 0.5890 0.5870 0.5848
2265.000000 0.5825 0.5801 0.5776 0.5752 0.5728
2270.000000 0.5704 0.5679 0.5654 0.5630 0.5606
2275.000000 0.5581 0.5555 0.5527 0.5495 0.5464
2280.000000 0.5431 0.5399 0.5354 0.5308 0.5262
2285.000000 0.5216 0.5176 0.5137 0.5099 0.5062
2290.000000 0.5023 0.4981 0.4923 0.4851 0.4768
2295.000000 0.4673 0.4584 0.4508 0.4439 0.4399
2300.000000 0.4360 0.4337 0.4313 0.4289 0.4265
2305.000000 0.4241 0.4217 0.4193 0.4170 0.4146
2310.000000 0.4122 0.4099 0.4075 0.4058 0.4053
2315.000000 0.4052 0.4066 0.4079 0.4086 0.4093
2320.000000 0.4095 0.4096 0.4097 0.4097 0.4093
2325.000000 0.4085 0.4072 0.4050 0.4028 0.4001
2330.000000 0.3974 0.3947 0.3920 0.3902 0.3885
2335.000000 0.3870 0.3855 0.3840 0.3826 0.3811
2340.000000 0.3798 0.3784 0.3770 0.3756 0.3747
2345.000000 0.3739 0.3733 0.3728 0.3724 0.3723
2350.000000 0.3721 0.3720 0.3718 0.3717 0.3717
2355.000000 0.3680 0.3643 0.3603 0.3563 0.3523
2360.000000 0.3483 0.3443 0.3404 0.3364 0.3325
2365.000000 0.3285 0.3245 0.3205 0.3166 0.3126
2370.000000 0.3087 0.3047 0.3009 0.2977 0.2946
2375.000000 0.2932 0.2921 0.2908 0.2894 0.2881
2380.000000 0.2868 0.2856 0.2846 0.2837 0.2827
2385.000000 0.2817 0.2805 0.2793 0.2781 0.2768
2390.000000 0.2755 0.2743 0.2731 0.2719 0.2708
2395.000000 0.2697 0.2686 0.2675 0.2663 0.2652
2400.000000 0.2639 0.2625 0.2610 0.2593 0.2577
2405.000000 0.2561 0.2544 0.2527 0.2509 0.2491
2410.000000 0.2473 0.2455 0.2436 0.2418 0.2398
2415.000000 0.2379 0.2359 0.2338 0.2319 0.2302
2420.000000 0.2285 0.2270 0.2255 0.2241 0.2227
2425.000000 0.2213 0.2197 0.2181 0.2164 0.2146
2430.000000 0.2129 0.2112 0.2095 0.2080 0.2065
2435.000000 0.2055 0.2047 0.2042 0.2042 0.2042
2440.000000 0.2042 0.2042 0.2042 0.2042 0.2039
2445.000000 0.2042 0.2042 0.2043 0.2043 0.2044
2450.000000 0.2044 0.2045 0.2051 0.2058 0.2069
2455.000000 0.2082 0.2095 0.2104 0.2114 0.2121
2460.000000 0.2127 0.2132 0.2136 0.2140 0.2143
2465.000000 0.2145 0.2147 0.2148 0.2148 0.2148
2470.000000 0.2147 0.2146 0.2144 0.2144 0.2144
2475.000000 0.2145 0.2152 0.2161 0.2171 0.2186
2480.000000 0.2201 0.2216 0.2230 0.2245 0.2259
2485.000000 0.2273 0.2281 0.2288 0.2294 0.2298
2490.000000 0.2301 0.2305 0.2309 0.2312 0.2314
2495.000000 0.2316 0.2317 0.2318 0.2328 0.2319
2500.000000 0.2320 0.2316 0.2313 0.2310 0.2306
2505.000000 0.2302 0.2297 0.2292 0.2286 0.2280
2510.000000 0.2273 0.2266 0.2259 0.2252 0.2245
2515.000000 0.2237 0.2229 0.2221 0.2214 0.2206
2520.000000 0.2199 0.2189 0.2178 0.2167 0.2156
2525.000000 0.2145 0.2136 0.2127 0.2119 0.2111
2530.000000 0.2103 0.2096 0.2088 0.2081 0.2079
2535.000000 0.2076 0.2074 0.2074 0.2074 0.2073
2540.000000 0.2073 0.2073 0.2074 0.2075 0.2059
2545.000000 0.2082 0.2086 0.2091 0.2096 0.2102
2550.000000 0.2110 0.2117 0.2125 0.2133 0.2140
2555.000000 0.2147 0.2155 0.2162 0.2169 0.2177
2560.000000 0.2184 0.2191 0.2195 0.2196 0.2197
2565.000000 0.2199 0.2200 0.2201 0.2201 0.2202
2570.000000 0.2202 0.2202 0.2202 0.2201 0.2201
2575.000000 0.2200 0.2200 0.2200 0.2203 0.2208
2580.000000 0.2214 0.2220 0.2226 0.2233 0.2239
2585.000000 0.2245 0.2251 0.2258 0.2265 0.2271
2590.000000 0.2277 0.2284 0.2290 0.2297 0.2303
2595.000000 0.2307 0.2312 0.2316 0.2320 0.2325
2600.000000 0.2329 0.2333 0.2337 0.2341 0.2345
2605.000000 0.2349 0.2353 0.2357 0.2361 0.2365
2610.000000 0.2369 0.2374 0.2378 0.2383 0.2387
2615.000000 0.2392 0.2397 0.2402 0.2406 0.2411
2620.000000 0.2416 0.2421 0.2427 0.2434 0.2442
2625.000000 0.2451 0.2460 0.2469 0.2478 0.2487
2630.000000 0.2496 0.2505 0.2514 0.2524 0.2533
2635.000000 0.2542 0.2551 0.2559 0.2568 0.2576
2640.000000 0.2584 0.2592 0.2600 0.2608 0.2616
2645.000000 0.2624 0.2633 0.2641 0.2649 0.2657
2650.000000 0.2665 0.2674 0.2682 0.2690 0.2698
2655.000000 0.2707 0.2715 0.2724 0.2733 0.2741
2660.000000 0.2750 0.2759 0.2768 0.2779 0.2793
2665.000000 0.2806 0.2820 0.2834 0.2847 0.2861
2670.000000 0.2874 0.2889 0.2929 0.2969 0.3010
2675.000000 0.3056 0.3103 0.3150 0.3200 0.3250
2680.000000 0.3299 0.3346 0.3393 0.3415 0.3420
2685.000000 0.3425 0.3430 0.3435 0.3441 0.3446
2690.000000 0.3450 0.3455 0.3456 0.3458 0.3459
2695.000000 0.3460 0.3461 0.3462 0.3462 0.3463
2700.000000 0.3464 0.3464 0.3465 0.3466 0.3469
2705.000000 0.3473 0.3478 0.3487 0.3496 0.3506
2710.000000 0.3516 0.3526 0.3540 0.3558 0.3575
2715.000000 0.3592 0.3609 0.3627 0.3645 0.3663
2720.000000 0.3682 0.3701 0.3720 0.3740 0.3759
2725.000000 0.3779 0.3799 0.3822 0.3847 0.3871
2730.000000 0.3890 0.3907 0.3924 0.3935 0.3944
2735.000000 0.3953 0.3959 0.3965 0.3971 0.3973
2740.000000 0.3974 0.3975 0.3972 0.3968 0.3964
2745.000000 0.3947 0.3955 0.3951 0.3945 0.3938
2750.000000 0.3931 0.3926 0.3920 0.3915 0.3912
2755.000000 0.3910 0.3908 0.3907 0.3905 0.3904
2760.000000 0.3903 0.3902 0.3901 0.3900 0.3899
2765.000000 0.3898 0.3897 0.3896 0.3895 0.3893
2770.000000 0.3889 0.3885 0.3881 0.3876 0.3872
2775.000000 0.3864 0.3849 0.3835 0.3820 0.3803
2780.000000 0.3787 0.3770 0.3751 0.3732 0.3713
2785.000000 0.3693 0.3673 0.3654 0.3626 0.3597
2790.000000 0.3569 0.3549 0.3532 0.3515 0.3506
2795.000000 0.3501 0.3496 0.3490 0.3485 0.3479
2800.000000 0.3474 0.3469 0.3464 0.3459 0.3455
2805.000000 0.3450 0.3445 0.3438 0.3431 0.3424
2810.000000 0.3407 0.3389 0.3371 0.3346 0.3321
2815.000000 0.3295 0.3276 0.3260 0.3244 0.3226
2820.000000 0.3206 0.3186 0.3165 0.3144 0.3123
2825.000000 0.3102 0.3082 0.3063 0.3044 0.3022
2830.000000 0.3000 0.2978 0.2958 0.2938 0.2919
2835.000000 0.2902 0.2887 0.2872 0.2860 0.2851
2840.000000 0.2842 0.2834 0.2829 0.2824 0.2818
2845.000000 0.2813 0.2808 0.2803 0.2799 0.2794
2850.000000 0.2789 0.2785 0.2781 0.2778 0.2773
2855.000000 0.2764 0.2754 0.2745 0.2736 0.2728
2860.000000 0.2720 0.2713 0.2706 0.2699 0.2695
2865.000000 0.2695 0.2695 0.2695 0.2695 0.2696
2870.000000 0.2696 0.2697 0.2698 0.2699 0.2700
2875.000000 0.2701 0.2702 0.2704 0.2705 0.2706
2880.000000 0.2707 0.2694 0.2712 0.2714 0.2717
2885.000000 0.2720 0.2722 0.2725 0.2728 0.2730
2890.000000 0.2733 0.2739 0.2745 0.2751 0.2761
2895.000000 0.2776 0.2790 0.2807 0.2845 0.2882
2900.000000 0.2920 0.2949 0.2976 0.3002 0.3029
2905.000000 0.3056 0.3083 0.3110 0.3137 0.3164
2910.000000 0.3191 0.3217 0.3244 0.3271 0.3297
2915.000000 0.3324 0.3351 0.3377 0.3404 0.3430
2920.000000 0.3457 0.3483 0.3510 0.3536 0.3563
2925.000000 0.3590 0.3616 0.3643 0.3665 0.3683
2930.000000 0.3702 0.3720 0.3733 0.3746 0.3760
2935.000000 0.3780 0.3803 0.3825 0.3863 0.3940
2940.000000 0.4018 0.4095 0.4124 0.4143 0.4162
2945.000000 0.4182 0.4201 0.4221 0.4240 0.4268
2950.000000 0.4297 0.4326 0.4347 0.4355 0.4363
2955.000000 0.4371 0.4379 0.4387 0.4395 0.4402
2960.000000 0.4409 0.4415 0.4422 0.4425 0.4427
2965.000000 0.4429 0.4431 0.4433 0.4435 0.4437
2970.000000 0.4438 0.4438 0.4438 0.4438 0.4438
2975.000000 0.4437 0.4437 0.4436 0.4435 0.4434
2980.000000 0.4433 0.4432 0.4430 0.4429 0.4427
2985.000000 0.4424 0.4421 0.4418 0.4416 0.4413
2990.000000 0.4411 0.4408 0.4406 0.4404 0.4403
2995.000000 0.4401 0.4399 0.4398 0.4398 0.4402
3000.000000 0.4406 0.4411 0.4419 0.4428 0.4438
3005.000000 0.4446 0.4451 0.4456 0.4461 0.4465
3010.000000 0.4468 0.4471 0.4473 0.4474 0.4475
3015.000000 0.4476 0.4476 0.4474 0.4473 0.4471
3020.000000 0.4470 0.4469 0.4468 0.4467 0.4467
3025.000000 0.4468 0.4468 0.4470 0.4473 0.4476
3030.000000 0.4479 0.4483 0.4487 0.4492 0.4497
3035.000000 0.4504 0.4511 0.4518 0.4526 0.4537
3040.000000 0.4547 0.4558 0.4567 0.4575 0.4583
3045.000000 0.4591 0.4553 0.4602 0.4607 0.4612
3050.000000 0.4612 0.4612 0.4612 0.4611 0.4609
3055.000000 0.4607 0.4606 0.4604 0.4603 0.4602
3060.000000 0.4600 0.4597 0.4595 0.4592 0.4589
3065.000000 0.4585 0.4582 0.4579 0.4575 0.4569
3070.000000 0.4564 0.4559 0.4554 0.4550 0.4545
3075.000000 0.4541 0.4537 0.4533 0.4529 0.4524
3080.000000 0.4518 0.4512 0.4506 0.4499 0.4489
3085.000000 0.4480 0.4470 0.4460 0.4448 0.4437
3090.000000 0.4425 0.4413 0.4402 0.4390 0.4378
3095.000000 0.4367 0.4356 0.4345 0.4333 0.4323
3100.000000 0.4313 0.4302 0.4292 0.4284 0.4276
3105.000000 0.4267 0.4259 0.4251 0.4243 0.4235
3110.000000 0.4227 0.4219 0.4210 0.4202 0.4193
3115.000000 0.4184 0.4174 0.4164 0.4155 0.4145
3120.000000 0.4136 0.4126 0.4115 0.4104 0.4092
3125.000000 0.4081 0.4068 0.4055 0.4043 0.4030
3130.000000 0.4015 0.4000 0.3985 0.3971 0.3959
3135.000000 0.3948 0.3937 0.3927 0.3923 0.3919
3140.000000 0.3915 0.3910 0.3906 0.3902 0.3897
3145.000000 0.3893 0.3889 0.3884 0.3880 0.3873
3150.000000 0.3862 0.3851 0.3840 0.3823 0.3797
3155.000000 0.3771 0.3745 0.3717 0.3687 0.3656
3160.000000 0.3626 0.3603 0.3590 0.3577 0.3564
3165.000000 0.3551 0.3538 0.3525 0.3512 0.3499
3170.000000 0.3486 0.3473 0.3460 0.3447 0.3435
3175.000000 0.3422 0.3409 0.3397 0.3384 0.3372
3180.000000 0.3360 0.3347 0.3335 0.3323 0.3310
3185.000000 0.3298 0.3285 0.3273 0.3260 0.3248
3190.000000 0.3238 0.3228 0.3217 0.3207 0.3197
3195.000000 0.3188 0.3178 0.3169 0.3162 0.3155
3200.000000 0.3149 0.3142 0.3138 0.3135 0.3131
3205.000000 0.3128 0.3124 0.3121 0.3117 0.3113
3210.000000 0.3110 0.3107 0.3104 0.3102 0.3100
3215.000000 0.3100 0.3099 0.3099 0.3095 0.3088
3220.000000 0.3080 0.3073 0.3062 0.3043 0.3023
3225.000000 0.3004 0.2985 0.2966 0.2946 0.2927
3230.000000 0.2908 0.2889 0.2869 0.2850 0.2830
3235.000000 0.2811 0.2792 0.2773 0.2754 0.2735
3240.000000 0.2716 0.2697 0.2678 0.2659 0.2640
3245.000000 0.2621 0.2602 0.2583 0.2564 0.2545
3250.000000 0.2526 0.2507 0.2488 0.2469 0.2450
3255.000000 0.2431 0.2421 0.2412 0.2404 0.2395
3260.000000 0.2390 0.2387 0.2384 0.2381 0.2378
3265.000000 0.2375 0.2372 0.2369 0.2366 0.2365
3270.000000 0.2363 0.2362 0.2360 0.2359 0.2357
3275.000000 0.2356 0.2355 0.2354 0.2352 0.2351
3280.000000 0.2350 0.2348 0.2347 0.2346 0.2345
3285.000000 0.2344 0.2343 0.2341 0.2340 0.2339
3290.000000 0.2338 0.2337 0.2336 0.2334 0.2333
3295.000000 0.2332 0.2331 0.2330 0.2329 0.2328
3300.000000 0.2326 0.2325 0.2324 0.2323 0.2322
3305.000000 0.2321 0.2320 0.2318 0.2317 0.2316
3310.000000 0.2315 0.2314 0.2311 0.2307 0.2303
3315.000000 0.2299 0.2295 0.2291 0.2287 0.2284
3320.000000 0.2280 0.2275 0.2271 0.2267 0.2263
3325.000000 0.2257 0.2249 0.2242 0.2235 0.2228
3330.000000 0.2221 0.2214 0.2208 0.2201 0.2194
3335.000000 0.2188 0.2181 0.2175 0.2169 0.2165
3340.000000 0.2162 0.2158 0.2154 0.2151 0.2149
3345.000000 0.2146 0.2143 0.2141 0.2138 0.2135
3350.000000 0.2132 0.2129 0.2128 0.2128 0.2128
3355.000000 0.2128 0.2128 0.2128 0.2128 0.2128
3360.000000 0.2128 0.2124 0.2130 0.2131 0.2132
3365.000000 0.2138 0.2161 0.2183 0.2205 0.2227
3370.000000 0.2250 0.2272 0.2294 0.2316 0.2338
3375.000000 0.2355 0.2372 0.2389 0.2406 0.2414
3380.000000 0.2417 0.2419 0.2422 0.2425 0.2427
3385.000000 0.2429 0.2431 0.2433 0.2436 0.2439
3390.000000 0.2441 0.2444 0.2447 0.2451 0.2454
3395.000000 0.2457 0.2461 0.2465 0.2469 0.2474
3400.000000 0.2478 0.2483 0.2490 0.2499 0.2507
3405.000000 0.2516 0.2525 0.2537 0.2549 0.2561
3410.000000 0.2573 0.2585 0.2597 0.2609 0.2621
3415.000000 0.2633 0.2645 0.2657 0.2669 0.2681
3420.000000 0.2693 0.2705 0.2717 0.2729 0.2741
3425.000000 0.2752 0.2763 0.2774 0.2785 0.2797
3430.000000 0.2833 0.2884 0.2934 0.2985 0.3035
3435.000000 0.3067 0.3097 0.3128 0.3158 0.3185
3440.000000 0.3198 0.3211 0.3224 0.3237 0.3250
3445.000000 0.3264 0.3278 0.3293 0.3307 0.3325
3450.000000 0.3345 0.3364 0.3384 0.3404 0.3422
3455.000000 0.3441 0.3460 0.3478 0.3495 0.3505
3460.000000 0.3514 0.3524 0.3534 0.3543 0.3553
3465.000000 0.3562 0.3571 0.3581 0.3590 0.3600
3470.000000 0.3609 0.3619 0.3628 0.3637 0.3646
3475.000000 0.3655 0.3663 0.3672 0.3681 0.3690
3480.000000 0.3699 0.3708 0.3716 0.3725 0.3734
3485.000000 0.3743 0.3752 0.3761 0.3771 0.3780
3490.000000 0.3790 0.3800 0.3810 0.3820 0.3831
3495.000000 0.3842 0.3853 0.3864 0.3875 0.3886
3500.000000 0.3897 0.3908 0.3918 0.3928 0.3938
3505.000000 0.3948 0.3958 0.3967 0.3974 0.3982
3510.000000 0.3989 0.3997 0.4004 0.4012 0.4019
3515.000000 0.4027 0.4034 0.4042 0.4049 0.4056
3520.000000 0.4063 0.4071 0.4077 0.4084 0.4091
3525.000000 0.4098 0.4105 0.4111 0.4117 0.4124
3530.000000 0.4130 0.4136 0.4164 0.4193 0.4223
3535.000000 0.4252 0.4282 0.4303 0.4324 0.4346
3540.000000 0.4367 0.4388 0.4405 0.4422 0.4439
3545.000000 0.4456 0.4473 0.4498 0.4525 0.4552
3550.000000 0.4578 0.4605 0.4620 0.4632 0.4645
3555.000000 0.4658 0.4671 0.4684 0.4697 0.4710
3560.000000 0.4722 0.4735 0.4746 0.4756 0.4766
3565.000000 0.4776 0.4786 0.4796 0.4806 0.4816
3570.000000 0.4826 0.4836 0.4845 0.4852 0.4859
3575.000000 0.4866 0.4873 0.4878 0.4883 0.4887
3580.000000 0.4891 0.4896 0.4899 0.4901 0.4903
3585.000000 0.4905 0.4907 0.4909 0.4909 0.4910
3590.000000 0.4910 0.4911 0.4912 0.4912 0.4912
3595.000000 0.4912 0.4912 0.4912 0.4912 0.4912
3600.000000 0.4912 0.4912 0.4912 0.4911 0.4911
3605.000000 0.4910 0.4910 0.4910 0.4909 0.4909
3610.000000 0.4908 0.4907 0.4907 0.4906 0.4906
3615.000000 0.4906 0.4905 0.4905 0.4905 0.4906
3620.000000 0.4908 0.4910 0.4911 0.4913 0.4916
3625.000000 0.4919 0.4923 0.4926 0.4929 0.4933
3630.000000 0.4937 0.4941 0.4945 0.4949 0.4953
3635.000000 0.4958 0.4962 0.4967 0.4972 0.4976
3640.000000 0.4981 0.4986 0.4990 0.4995 0.4999
3645.000000 0.5004 0.5008 0.5013 0.5017 0.5022
3650.000000 0.5026 0.5031 0.5035 0.5040 0.5044
3655.000000 0.5049 0.5053 0.5057 0.5062 0.5066
3660.000000 0.5070 0.5073 0.5076 0.5079 0.5082
3665.000000 0.5085 0.5087 0.5090 0.5093 0.5096
3670.000000 0.5099 0.5101 0.5102 0.5103 0.5103
3675.000000 0.5104 0.5104 0.5114 0.5105 0.5105
3680.000000 0.5105 0.5105 0.5105 0.5105 0.5105
3685.000000 0.5105 0.5105 0.5105 0.5104 0.5104
3690.000000 0.5103 0.5102 0.5102 0.5101 0.5101
3695.000000 0.5100 0.5100 0.5099 0.5099 0.5098
3700.000000 0.5098 0.5097 0.5097 0.5097 0.5096
3705.000000 0.5095 0.5093 0.5092 0.5090 0.5089
3710.000000 0.5087 0.5086 0.5084 0.5083 0.5082
3715.000000 0.5080 0.5078 0.5076 0.5074 0.5072
3720.000000 0.5070 0.5068 0.5066 0.5064 0.5061
3725.000000 0.5059 0.5057 0.5055 0.5053 0.5051
3730.000000 0.5048 0.5046 0.5043 0.5040 0.5037
3735.000000 0.5034 0.5031 0.5028 0.5025 0.5022
3740.000000 0.5019 0.5015 0.5012 0.5009 0.5006
3745.000000 0.5003 0.4999 0.4996 0.4993 0.4990
3750.000000 0.4986 0.4983 0.4979 0.4976 0.4973
3755.000000 0.4970 0.4966 0.4963 0.4960 0.4957
3760.000000 0.4954 0.4951 0.4948 0.4945 0.4942
3765.000000 0.4940 0.4938 0.4937 0.4936 0.4935
3770.000000 0.4933 0.4932 0.4931 0.4930 0.4928
3775.000000 0.4927 0.4926 0.4925 0.4924 0.4922
3780.000000 0.4921 0.4920 0.4919 0.4918 0.4917
3785.000000 0.4916 0.4914 0.4913 0.4912 0.4912
3790.000000 0.4912 0.4911 0.4911 0.4911 0.4910
3795.000000 0.4910 0.4910 0.4910 0.4910 0.4910
3800.000000 0.4910 0.4910 0.4910 0.4910 0.4910
3805.000000 0.4910 0.4911 0.4911 0.4911 0.4911
3810.000000 0.4911 0.4912 0.4912 0.4912 0.4913
3815.000000 0.4913 0.4913 0.4914 0.4914 0.4914
3820.000000 0.4914 0.4914 0.4914 0.4915 0.4915
3825.000000 0.4915 0.4915 0.4915 0.4915 0.4916
3830.000000 0.4916 0.4916 0.4917 0.4917 0.4917
3835.000000 0.4918 0.4918 0.4918 0.4918 0.4918
3840.000000 0.4918 0.4919 0.4919 0.4919 0.4919
3845.000000 0.4919 0.4919 0.4920 0.4920 0.4921
3850.000000 0.4921 0.4922 0.4922 0.4923 0.4924
3855.000000 0.4925 0.4926 0.4927 0.4927 0.4928
3860.000000 0.4929 0.4930 0.4931 0.4932 0.4933
3865.000000 0.4933 0.4934 0.4934 0.4935 0.4935
3870.000000 0.4936 0.4936 0.4936 0.4937 0.4937
3875.000000 0.4937 0.4938 0.4938 0.4938 0.4938
3880.000000 0.4938 0.4938 0.4938 0.4938 0.4937
3885.000000 0.4937 0.4937 0.4936 0.4936 0.4935
3890.000000 0.4935 0.4934 0.4934 0.4933 0.4933
3895.000000 0.4932 0.4932 0.4931 0.4931 0.4930
3900.000000 0.4930 0.4929 0.4929 0.4928 0.4928
3905.000000 0.4927 0.4927 0.4926 0.4926 0.4926
3910.000000 0.4925 0.4925 0.4925 0.4925 0.4925
3915.000000 0.4925 0.4925 0.4925 0.4925 0.4926
3920.000000 0.4929 0.4931 0.4934 0.4937 0.4940
3925.000000 0.4943 0.4946 0.4949 0.4952 0.4955
3930.000000 0.4958 0.4961 0.4964 0.4967 0.4970
3935.000000 0.4973 0.4976 0.4978 0.4981 0.4984
3940.000000 0.4987 0.4989 0.4992 0.4995 0.4998
3945.000000 0.5000 0.5003 0.5006 0.5009 0.5011
3950.000000 0.5014 0.5017 0.5020 0.5023 0.5026
3955.000000 0.5029 0.5032 0.5035 0.5038 0.5042
3960.000000 0.5045 0.5048 0.5051 0.5053 0.5056
3965.000000 0.5058 0.5061 0.5063 0.5066 0.5068
3970.000000 0.5070 0.5073 0.5075 0.5077 0.5079
3975.000000 0.5081 0.5082 0.5084 0.5085 0.5086
3980.000000 0.5087 0.5088 0.5086 0.5084 0.5082
3985.000000 0.5080 0.5078 0.5076 0.5074 0.5072
3990.000000 0.5070 0.5068 0.5067 0.5065 0.5062
3995.000000 0.5060 0.5057 0.5054 0.5051 0.5048
4000.000000 0.5046
##END=
