##TITLE=OLEIC ACID, 12,13-EPOXY-, D(+)-, (Z)-, METHYL ESTER
##JCAMP-DX=4.24
##DATA TYPE=INFRARED SPECTRUM
##CLASS=COBLENTZ III
##ORIGIN=E. REGION RESEARCH LAB.
##OWNER=COBLENTZ SOCIETY
Collection (C) 2018 copyright by the U.S. Secretary of Commerce
on behalf of the United States of America. All rights reserved.
##DATE=1961/06/06
##NAMES=methyl (9Z)-11-(3-pentyl-2-oxiranyl)-9-undecenoate
##MOLFORM=C19 H34 O3
##SOURCE REFERENCE=COBLENTZ NO. 9693
##$NIST ID=B6009693
##$NIST SOURCE=COBLENTZ
##$NIST IMAGE=cob9693
##SPECTROMETER/DATA SYSTEM=PERKIN-ELMER 21 (GRATING)
##INSTRUMENT PARAMETERS=NaCl PRISM
##STATE=LIQUID (NEAT)
##PATH LENGTH=0.004 CM
##SAMPLING PROCEDURE=TRANSMISSION
##RESOLUTION=4
##DATA PROCESSING=DIGITIZED BY NIST FROM HARD COPY (FROM TWO SEGMENTS)
##XUNITS=1/CM
##YUNITS=TRANSMITTANCE
##XFACTOR=1.000000
##YFACTOR=1
##DELTAX=0.704608
##FIRSTX=630.244
##LASTX=3987
##FIRSTY=0.714
##MAXX=3987
##MINX=630.244
##MAXY=0.994
##MINY=0.012
##NPOINTS=4765
##XYDATA=(X++(Y..Y))
630.244000 0.7140 0.7140 0.7140 0.7140 0.7140
633.767040 0.7140 0.7150 0.7150 0.7150 0.7150
637.290080 0.7150 0.7150 0.7170 0.7170 0.7170
640.813119 0.7170 0.7170 0.7170 0.7170 0.7170
644.336159 0.7170 0.7170 0.7170 0.7170 0.7170
647.859199 0.7170 0.7170 0.7170 0.7170 0.7170
651.382239 0.7150 0.7150 0.7150 0.7150 0.7150
654.905279 0.7150 0.7140 0.7140 0.7140 0.7140
658.428318 0.7120 0.7120 0.7110 0.7100 0.7080
661.951358 0.7070 0.7050 0.7040 0.7030 0.7010
665.474398 0.7000 0.6970 0.6940 0.6910 0.6870
668.997438 0.6840 0.6800 0.6760 0.6720 0.6680
672.520478 0.6650 0.6610 0.6560 0.6540 0.6510
676.043518 0.6470 0.6440 0.6400 0.6350 0.6280
679.566557 0.6230 0.6160 0.6100 0.6030 0.5990
683.089597 0.5930 0.5910 0.5880 0.5850 0.5770
686.612637 0.5720 0.5710 0.5680 0.5640 0.5610
690.135677 0.5580 0.5540 0.5510 0.5490 0.5440
693.658717 0.5420 0.5370 0.5330 0.5300 0.5280
697.181756 0.5230 0.5210 0.5180 0.5140 0.5080
700.704796 0.4950 0.4880 0.4840 0.4780 0.4740
704.227836 0.4710 0.4670 0.4640 0.4620 0.4590
707.750876 0.4560 0.4530 0.4520 0.4490 0.4410
711.273916 0.4310 0.4280 0.4250 0.4220 0.4200
714.796955 0.4170 0.4140 0.4110 0.4060 0.4010
718.319995 0.3990 0.3940 0.3920 0.3890 0.3860
721.843035 0.3820 0.3780 0.3750 0.3720 0.3690
725.366075 0.3680 0.3660 0.3660 0.3680 0.3849
728.889115 0.3890 0.4000 0.4170 0.4350 0.4550
732.412155 0.4690 0.4850 0.4980 0.5040 0.5080
735.935194 0.5140 0.5180 0.5220 0.5230 0.5250
739.458234 0.5250 0.5250 0.5230 0.5220 0.5190
742.981274 0.5180 0.5160 0.5150 0.5110 0.5080
746.504314 0.5070 0.5050 0.5070 0.5080 0.5110
750.027354 0.5140 0.5150 0.5180 0.5190 0.5210
753.550393 0.5230 0.5250 0.5280 0.5300 0.5330
757.073433 0.5370 0.5420 0.5510 0.5570 0.5630
760.596473 0.5670 0.5700 0.5750 0.5810 0.5850
764.119513 0.5880 0.5890 0.5890 0.5910 0.5910
767.642553 0.5890 0.5880 0.5860 0.5840 0.5820
771.165592 0.5740 0.5670 0.5610 0.5580 0.5540
774.688632 0.5460 0.5370 0.5320 0.5260 0.5230
778.211672 0.5210 0.5180 0.5160 0.5150 0.5140
781.734712 0.5140 0.5140 0.5140 0.5150 0.5150
785.257752 0.5160 0.5180 0.5180 0.5190 0.5190
788.780792 0.5210 0.5220 0.5250 0.5280 0.5300
792.303831 0.5350 0.5370 0.5430 0.5490 0.5540
795.826871 0.5610 0.5680 0.5770 0.5850 0.5920
799.349911 0.5980 0.6030 0.6060 0.6100 0.6130
802.872951 0.6140 0.6160 0.6170 0.6170 0.6190
806.395991 0.6190 0.6190 0.6190 0.6170 0.6160
809.919030 0.6130 0.6060 0.6000 0.5930 0.5850
813.442070 0.5790 0.5750 0.5710 0.5560 0.5390
816.965110 0.5250 0.4951 0.4810 0.4690 0.4551
820.488150 0.4420 0.4290 0.4170 0.3970 0.3960
824.011190 0.3960 0.3970 0.3990 0.4040 0.4100
827.534229 0.4170 0.4220 0.4280 0.4310 0.4350
831.057269 0.4460 0.4550 0.4600 0.4630 0.4660
834.580309 0.4670 0.4690 0.4700 0.4700 0.4690
838.103349 0.4640 0.4620 0.4590 0.4530 0.4480
841.626389 0.4410 0.4350 0.4290 0.4270 0.4250
845.149429 0.4210 0.4170 0.4130 0.4080 0.4070
848.672468 0.4080 0.4200 0.4250 0.4460 0.4630
852.195508 0.4770 0.4880 0.4980 0.5020 0.5070
855.718548 0.5140 0.5190 0.5250 0.5300 0.5360
859.241588 0.5490 0.5510 0.5570 0.5640 0.5720
862.764628 0.5790 0.5840 0.5880 0.5920 0.5930
866.287667 0.5960 0.5990 0.6020 0.6030 0.6050
869.810707 0.6050 0.6060 0.6060 0.6050 0.6050
873.333747 0.6030 0.6000 0.5960 0.5950 0.5920
876.856787 0.5890 0.5860 0.5790 0.5740 0.5680
880.379827 0.5650 0.5630 0.5610 0.5600 0.5600
883.902866 0.5600 0.5610 0.5630 0.5630 0.5650
887.425906 0.5700 0.5710 0.5740 0.5750 0.5780
890.948946 0.5810 0.5850 0.5860 0.5890 0.5950
894.471986 0.6020 0.6050 0.6130 0.6170 0.6200
897.995026 0.6340 0.6370 0.6420 0.6480 0.6520
901.518065 0.6560 0.6590 0.6620 0.6650 0.6680
905.041105 0.6700 0.6720 0.6750 0.6760 0.6770
908.564145 0.6790 0.6820 0.6830 0.6840 0.6870
912.087185 0.6890 0.6910 0.6930 0.6940 0.6960
915.610225 0.6980 0.6980 0.6980 0.6970 0.6970
919.133265 0.6940 0.6940 0.6930 0.6900 0.6890
922.656304 0.6860 0.6830 0.6790 0.6760 0.6750
926.179344 0.6720 0.6700 0.6700 0.6700 0.6720
929.702384 0.6760 0.6830 0.6900 0.6960 0.6980
933.225424 0.7030 0.7050 0.7110 0.7150 0.7210
936.748464 0.7220 0.7220 0.7220 0.7190 0.7190
940.271503 0.7150 0.7140 0.7110 0.7080 0.7050
943.794543 0.7000 0.6930 0.6870 0.6840 0.6800
947.317583 0.6760 0.6730 0.6700 0.6690 0.6680
950.840623 0.6660 0.6650 0.6650 0.6650 0.6660
954.363663 0.6700 0.6760 0.6800 0.6910 0.6980
957.886702 0.7000 0.7010 0.7030 0.7030 0.7010
961.409742 0.7010 0.7010 0.7000 0.6980 0.6960
964.932782 0.6940 0.6910 0.6900 0.6870 0.6870
968.455822 0.6830 0.6790 0.6730 0.6690 0.6650
971.978862 0.6610 0.6590 0.6580 0.6540 0.6510
975.501902 0.6470 0.6420 0.6370 0.6330 0.6270
979.024941 0.6210 0.6160 0.6090 0.6030 0.5980
982.547981 0.5910 0.5850 0.5780 0.5720 0.5650
986.071021 0.5600 0.5540 0.5490 0.5430 0.5370
989.594061 0.5320 0.5280 0.5230 0.5190 0.5150
993.117101 0.5150 0.5150 0.5120 0.5090 0.5070
996.640140 0.5040 0.5040 0.5020 0.5010 0.4980
1000.163180 0.4920 0.4880 0.4840 0.4810 0.4780
1003.686220 0.4710 0.4600 0.4570 0.4560 0.4520
1007.209260 0.4490 0.4450 0.4390 0.4360 0.4340
1010.732300 0.4310 0.4280 0.4250 0.4220 0.4210
1014.255339 0.4180 0.4170 0.4170 0.4170 0.4170
1017.778379 0.4180 0.4180 0.4240 0.4280 0.4350
1021.301419 0.4410 0.4430 0.4560 0.4640 0.4730
1024.824459 0.4770 0.4910 0.4980 0.5040 0.5050
1028.347499 0.5180 0.5190 0.5250 0.5390 0.5490
1031.870539 0.5540 0.5580 0.5610 0.5650 0.5710
1035.393578 0.5750 0.5780 0.5810 0.5840 0.5850
1038.916618 0.5890 0.5920 0.5980 0.6000 0.6030
1042.439658 0.6090 0.6160 0.6170 0.6190 0.6210
1045.962698 0.6230 0.6240 0.6270 0.6280 0.6300
1049.485738 0.6310 0.6340 0.6380 0.6380 0.6400
1053.008777 0.6400 0.6400 0.6410 0.6410 0.6420
1056.531817 0.6420 0.6440 0.6440 0.6450 0.6450
1060.054857 0.6470 0.6470 0.6490 0.6510 0.6550
1063.577897 0.6580 0.6590 0.6610 0.6610 0.6610
1067.100937 0.6610 0.6610 0.6610 0.6620 0.6620
1070.623976 0.6590 0.6560 0.6560 0.6540 0.6520
1074.147016 0.6480 0.6330 0.6210 0.6130 0.6060
1077.670056 0.6020 0.5980 0.5930 0.5880 0.5681
1081.193096 0.5570 0.5510 0.5500 0.5490 0.5460
1084.716136 0.5370 0.5280 0.5090 0.4980 0.4970
1088.239176 0.4940 0.4920 0.4900 0.4870 0.4850
1091.762215 0.4840 0.4830 0.4810 0.4780 0.4780
1095.285255 0.4770 0.4760 0.4760 0.4740 0.4730
1098.808295 0.4710 0.4710 0.4700 0.4690 0.4670
1102.331335 0.4640 0.4590 0.4550 0.4480 0.4410
1105.854375 0.4350 0.4280 0.4210 0.4150 0.4110
1109.377414 0.4070 0.4040 0.4010 0.4000 0.4000
1112.900454 0.4010 0.4030 0.4100 0.4170 0.4220
1116.423494 0.4290 0.4360 0.4450 0.4560 0.4670
1119.946534 0.4810 0.4880 0.4920 0.4970 0.4980
1123.469574 0.4980 0.4980 0.4970 0.4940 0.4850
1126.992613 0.4810 0.4690 0.4600 0.4411 0.4251
1130.515653 0.4140 0.4040 0.3970 0.3900 0.3830
1134.038693 0.3750 0.3620 0.3470 0.3370 0.3310
1137.561733 0.3290 0.3260 0.3200 0.3130 0.3080
1141.084773 0.3020 0.2980 0.2950 0.2910 0.2840
1144.607812 0.2770 0.2670 0.2600 0.2540 0.2520
1148.130852 0.2490 0.2460 0.2390 0.2290 0.2220
1151.653892 0.2150 0.2110 0.2070 0.2010 0.1960
1155.176932 0.1860 0.1730 0.1690 0.1580 0.1520
1158.699972 0.1480 0.1380 0.1280 0.1170 0.1090
1162.223012 0.1000 0.0960 0.0910 0.0860 0.0790
1165.746051 0.0740 0.0680 0.0630 0.0560 0.0500
1169.269091 0.0440 0.0400 0.0350 0.0330 0.0330
1172.792131 0.0350 0.0390 0.0420 0.0440 0.0460
1176.315171 0.0500 0.0540 0.0600 0.0650 0.0700
1179.838211 0.0720 0.0750 0.0780 0.0810 0.0840
1183.361250 0.0860 0.0880 0.0920 0.0950 0.0960
1186.884290 0.0980 0.0980 0.0980 0.0960 0.0920
1190.407330 0.0890 0.0880 0.0820 0.0750 0.0700
1193.930370 0.0610 0.0560 0.0470 0.0430 0.0400
1197.453410 0.0370 0.0360 0.0360 0.0370 0.0400
1200.976449 0.0460 0.0460 0.0500 0.0540 0.0560
1204.499489 0.0650 0.0740 0.0770 0.0790 0.0790
1208.022529 0.0810 0.0840 0.0920 0.1050 0.1120
1211.545569 0.1170 0.1200 0.1240 0.1270 0.1280
1215.068609 0.1330 0.1350 0.1400 0.1440 0.1470
1218.591649 0.1490 0.1560 0.1580 0.1590 0.1610
1222.114688 0.1630 0.1680 0.1700 0.1750 0.1790
1225.637728 0.1830 0.1840 0.1860 0.1860 0.1890
1229.160768 0.1890 0.1870 0.1870 0.1840 0.1840
1232.683808 0.1820 0.1790 0.1730 0.1690 0.1660
1236.206848 0.1650 0.1650 0.1560 0.1550 0.1520
1239.729887 0.1490 0.1470 0.1440 0.1420 0.1410
1243.252927 0.1400 0.1380 0.1370 0.1370 0.1350
1246.775967 0.1340 0.1340 0.1330 0.1330 0.1330
1250.299007 0.1340 0.1340 0.1350 0.1370 0.1370
1253.822047 0.1400 0.1410 0.1410 0.1450 0.1480
1257.345086 0.1510 0.1540 0.1580 0.1610 0.1630
1260.868126 0.1650 0.1680 0.1700 0.1730 0.1750
1264.391166 0.1790 0.1890 0.1940 0.1970 0.1980
1267.914206 0.2000 0.2030 0.2070 0.2150 0.2220
1271.437246 0.2280 0.2330 0.2390 0.2430 0.2470
1274.960286 0.2500 0.2540 0.2560 0.2590 0.2600
1278.483325 0.2600 0.2600 0.2630 0.2640 0.2670
1282.006365 0.2700 0.2740 0.2770 0.2820 0.2880
1285.529405 0.2960 0.3020 0.3080 0.3090 0.3220
1289.052445 0.3330 0.3410 0.3500 0.3580 0.3640
1292.575485 0.3690 0.3750 0.3780 0.3820 0.3850
1296.098524 0.3870 0.3890 0.3900 0.3920 0.3930
1299.621564 0.3930 0.3940 0.3940 0.3940 0.3960
1303.144604 0.3960 0.3970 0.3970 0.3990 0.4000
1306.667644 0.4000 0.4030 0.4040 0.4070 0.4130
1310.190684 0.4170 0.4180 0.4200 0.4200 0.4200
1313.713723 0.4180 0.4180 0.4140 0.4130 0.4110
1317.236763 0.4100 0.4080 0.4070 0.4060 0.4060
1320.759803 0.4060 0.4060 0.4040 0.4040 0.4040
1324.282843 0.4040 0.4040 0.4060 0.4070 0.4110
1327.805883 0.4150 0.4270 0.4350 0.4420 0.4490
1331.328923 0.4550 0.4600 0.4640 0.4690 0.4730
1334.851962 0.4770 0.4780 0.4800 0.4810 0.4810
1338.375002 0.4780 0.4780 0.4780 0.4760 0.4740
1341.898042 0.4710 0.4690 0.4560 0.4420 0.4340
1345.421082 0.4340 0.4280 0.4220 0.4170 0.4100
1348.944122 0.4030 0.3960 0.3890 0.3830 0.3760
1352.467161 0.3690 0.3640 0.3580 0.3520 0.3470
1355.990201 0.3430 0.3380 0.3330 0.3300 0.3230
1359.513241 0.3170 0.3100 0.3060 0.3050 0.3030
1363.036281 0.3030 0.3020 0.3020 0.3020 0.3030
1366.559321 0.3030 0.3030 0.3050 0.3050 0.3060
1370.082360 0.3090 0.3120 0.3150 0.3150 0.3170
1373.605400 0.3220 0.3260 0.3270 0.3270 0.3270
1377.128440 0.3260 0.3220 0.3160 0.2990 0.2880
1380.651480 0.2780 0.2600 0.2570 0.2560 0.2560
1384.174520 0.2570 0.2610 0.2700 0.2820 0.2960
1387.697559 0.3050 0.3330 0.3789 0.4199 0.4549
1391.220599 0.4840 0.4970 0.5090 0.5320 0.5510
1394.743639 0.5670 0.5810 0.5930 0.6030 0.6130
1398.266679 0.6190 0.6230 0.6240 0.6240 0.6230
1401.789719 0.6190 0.6130 0.6070 0.5960 0.5860
1405.312759 0.5630 0.5610 0.5610 0.5600 0.5600
1408.835798 0.5580 0.5580 0.5580 0.5580 0.5570
1412.358838 0.5570 0.5560 0.5540 0.5500 0.5440
1415.881878 0.5230 0.5120 0.5070 0.5040 0.4910
1419.404918 0.4740 0.4590 0.4450 0.4310 0.4180
1422.927958 0.4060 0.3930 0.3820 0.3710 0.3590
1426.450997 0.3500 0.3380 0.3290 0.3190 0.3090
1429.974037 0.2980 0.2880 0.2780 0.2670 0.2560
1433.497077 0.2429 0.1969 0.1400 0.1280 0.1140
1437.020117 0.0980 0.0920 0.0890 0.0880 0.0880
1440.543157 0.0880 0.0890 0.0910 0.0950 0.0960
1444.066196 0.0990 0.1020 0.1050 0.1070 0.1120
1447.589236 0.1120 0.1160 0.1190 0.1210 0.1230
1451.112276 0.1230 0.1200 0.1200 0.1190 0.1170
1454.635316 0.1130 0.1090 0.1060 0.1050 0.1020
1458.158356 0.1000 0.0960 0.0950 0.0920 0.0890
1461.681396 0.0860 0.0850 0.0820 0.0810 0.0810
1465.204435 0.0810 0.0810 0.0820 0.0840 0.0880
1468.727475 0.0910 0.0960 0.1050 0.1160 0.1210
1472.250515 0.1270 0.1350 0.1520 0.1770 0.2568
1475.773555 0.3271 0.3861 0.4350 0.4760 0.4940
1479.296595 0.5110 0.5370 0.5600 0.5770 0.5910
1482.819634 0.6020 0.6100 0.6190 0.6270 0.6370
1486.342674 0.6480 0.6620 0.6790 0.6940 0.7080
1489.865714 0.7190 0.7290 0.7390 0.7470 0.7530
1493.388754 0.7590 0.7640 0.7670 0.7700 0.7710
1496.911794 0.7710 0.7730 0.7740 0.7740 0.7780
1500.434833 0.7850 0.7890 0.7920 0.7950 0.7980
1503.957873 0.8020 0.8050 0.8100 0.8130 0.8150
1507.480913 0.8170 0.8200 0.8270 0.8360 0.8410
1511.003953 0.8430 0.8450 0.8470 0.8470 0.8480
1514.526993 0.8480 0.8510 0.8540 0.8540 0.8550
1518.050033 0.8570 0.8580 0.8590 0.8610 0.8640
1521.573072 0.8680 0.8690 0.8690 0.8710 0.8720
1525.096112 0.8730 0.8730 0.8750 0.8750 0.8750
1528.619152 0.8760 0.8760 0.8780 0.8780 0.8780
1532.142192 0.8760 0.8760 0.8760 0.8790 0.8790
1535.665232 0.8800 0.8830 0.8830 0.8850 0.8860
1539.188271 0.8900 0.8930 0.8960 0.8970 0.8990
1542.711311 0.9000 0.9000 0.9010 0.9010 0.9010
1546.234351 0.9010 0.9010 0.9010 0.9010 0.9010
1549.757391 0.9010 0.9010 0.9010 0.9010 0.9010
1553.280431 0.9010 0.9010 0.9010 0.9010 0.9010
1556.803470 0.9010 0.9030 0.9040 0.9040 0.9060
1560.326510 0.9060 0.9070 0.9070 0.9080 0.9080
1563.849550 0.9080 0.9080 0.9080 0.9080 0.9100
1567.372590 0.9100 0.9100 0.9100 0.9110 0.9110
1570.895630 0.9110 0.9110 0.9100 0.9100 0.9110
1574.418670 0.9110 0.9110 0.9110 0.9110 0.9110
1577.941709 0.9110 0.9110 0.9110 0.9110 0.9110
1581.464749 0.9110 0.9110 0.9110 0.9110 0.9110
1584.987789 0.9110 0.9110 0.9110 0.9110 0.9110
1588.510829 0.9130 0.9130 0.9130 0.9130 0.9130
1592.033869 0.9130 0.9130 0.9130 0.9130 0.9130
1595.556908 0.9130 0.9130 0.9130 0.9130 0.9130
1599.079948 0.9130 0.9130 0.9130 0.9130 0.9130
1602.602988 0.9130 0.9130 0.9130 0.9130 0.9130
1606.126028 0.9130 0.9130 0.9130 0.9130 0.9130
1609.649068 0.9110 0.9110 0.9110 0.9100 0.9100
1613.172107 0.9100 0.9080 0.9080 0.9080 0.9070
1616.695147 0.9070 0.9060 0.9060 0.9060 0.9060
1620.218187 0.9060 0.9060 0.9040 0.9040 0.9040
1623.741227 0.9030 0.9030 0.9030 0.9030 0.9030
1627.264267 0.9010 0.9010 0.9010 0.9010 0.9010
1630.787306 0.9000 0.8990 0.8970 0.8960 0.8940
1634.310346 0.8940 0.8930 0.8920 0.8900 0.8890
1637.833386 0.8870 0.8850 0.8830 0.8800 0.8790
1641.356426 0.8780 0.8760 0.8730 0.8720 0.8710
1644.879466 0.8690 0.8660 0.8610 0.8570 0.8510
1648.402506 0.8470 0.8450 0.8380 0.8240 0.8130
1651.925545 0.8030 0.7980 0.7920 0.7910 0.7910
1655.448585 0.7920 0.7940 0.7980 0.8010 0.8050
1658.971625 0.8080 0.8120 0.8150 0.8190 0.8220
1662.494665 0.8260 0.8290 0.8330 0.8360 0.8370
1666.017705 0.8410 0.8430 0.8440 0.8450 0.8470
1669.540744 0.8470 0.8450 0.8450 0.8440 0.8410
1673.063784 0.8380 0.8370 0.8360 0.8330 0.8290
1676.586824 0.8270 0.8200 0.8160 0.8120 0.8060
1680.109864 0.8020 0.7980 0.7920 0.7890 0.7850
1683.632904 0.7800 0.7740 0.7680 0.7630 0.7570
1687.155943 0.7520 0.7460 0.7400 0.7350 0.7290
1690.678983 0.7220 0.7170 0.7080 0.7010 0.6940
1694.202023 0.6860 0.6760 0.6660 0.6560 0.6480
1697.725063 0.6410 0.6340 0.6300 0.6240 0.6210
1701.248103 0.6190 0.6160 0.6130 0.6100 0.6070
1704.771143 0.6050 0.6000 0.5960 0.5920 0.5860
1708.294182 0.5790 0.5710 0.5700 0.5630 0.5540
1711.817222 0.5430 0.5290 0.4951 0.4770 0.4561
1715.340262 0.4350 0.4140 0.3920 0.3710 0.3480
1718.863302 0.3270 0.3080 0.2890 0.2710 0.2560
1722.386342 0.2420 0.2310 0.2150 0.1970 0.1770
1725.909381 0.1550 0.1340 0.1130 0.0930 0.0770
1729.432421 0.0640 0.0600 0.0470 0.0420 0.0320
1732.955461 0.0230 0.0160 0.0150 0.0140 0.0120
1736.478501 0.0120 0.0120 0.0120 0.0140 0.0140
1740.001541 0.0150 0.0150 0.0160 0.0190 0.0210
1743.524580 0.0230 0.0250 0.0280 0.0300 0.0330
1747.047620 0.0390 0.0510 0.0560 0.0600 0.0700
1750.570660 0.0770 0.0840 0.0910 0.0990 0.1070
1754.093700 0.1160 0.1230 0.1470 0.1660 0.1889
1757.616740 0.2141 0.2390 0.2560 0.2890 0.3160
1761.139780 0.3400 0.3570 0.3690 0.3760 0.4249
1764.662819 0.4410 0.4561 0.4910 0.5020 0.5140
1768.185859 0.5280 0.5490 0.5700 0.5880 0.6050
1771.708899 0.6210 0.6370 0.6510 0.6630 0.6760
1775.231939 0.6870 0.6980 0.7080 0.7180 0.7260
1778.754979 0.7350 0.7420 0.7490 0.7560 0.7610
1782.278018 0.7670 0.7730 0.7780 0.7840 0.7880
1785.801058 0.7940 0.7980 0.8020 0.8080 0.8120
1789.324098 0.8170 0.8230 0.8270 0.8360 0.8410
1792.847138 0.8450 0.8500 0.8540 0.8570 0.8590
1796.370178 0.8620 0.8660 0.8690 0.8720 0.8780
1799.893217 0.8820 0.8830 0.8860 0.8860 0.8870
1803.416257 0.8890 0.8920 0.8940 0.8970 0.9010
1806.939297 0.9040 0.9070 0.9130 0.9200 0.9250
1810.462337 0.9270 0.9290 0.9310 0.9310 0.9340
1813.985377 0.9360 0.9380 0.9390 0.9410 0.9430
1817.508417 0.9430 0.9450 0.9460 0.9480 0.9520
1821.031456 0.9530 0.9570 0.9590 0.9590 0.9600
1824.554496 0.9600 0.9600 0.9600 0.9620 0.9620
1828.077536 0.9620 0.9620 0.9620 0.9620 0.9620
1831.600576 0.9630 0.9640 0.9660 0.9660 0.9670
1835.123616 0.9670 0.9670 0.9690 0.9690 0.9690
1838.646655 0.9690 0.9690 0.9690 0.9690 0.9690
1842.169695 0.9700 0.9700 0.9710 0.9710 0.9730
1845.692735 0.9740 0.9740 0.9740 0.9760 0.9760
1849.215775 0.9740 0.9730 0.9730 0.9710 0.9700
1852.738815 0.9700 0.9710 0.9730 0.9740 0.9770
1856.261854 0.9770 0.9770 0.9770 0.9770 0.9780
1859.784894 0.9780 0.9800 0.9810 0.9810 0.9810
1863.307934 0.9830 0.9830 0.9810 0.9800 0.9780
1866.830974 0.9780 0.9770 0.9770 0.9770 0.9770
1870.354014 0.9770 0.9770 0.9770 0.9770 0.9770
1873.877053 0.9780 0.9780 0.9780 0.9800 0.9800
1877.400093 0.9800 0.9800 0.9800 0.9800 0.9800
1880.923133 0.9780 0.9780 0.9760 0.9760 0.9760
1884.446173 0.9760 0.9760 0.9770 0.9770 0.9780
1887.969213 0.9780 0.9780 0.9810 0.9830 0.9840
1891.492253 0.9850 0.9850 0.9850 0.9870 0.9870
1895.015292 0.9870 0.9870 0.9870 0.9870 0.9870
1898.538332 0.9880 0.9880 0.9880 0.9880 0.9880
1902.061372 0.9880 0.9880 0.9880 0.9870 0.9870
1905.584412 0.9870 0.9870 0.9870 0.9870 0.9870
1909.107452 0.9850 0.9850 0.9850 0.9850 0.9840
1912.630491 0.9840 0.9840 0.9840 0.9840 0.9840
1916.153531 0.9830 0.9830 0.9830 0.9830 0.9830
1919.676571 0.9840 0.9840 0.9850 0.9870 0.9870
1923.199611 0.9880 0.9880 0.9900 0.9900 0.9900
1926.722651 0.9900 0.9900 0.9870 0.9850 0.9840
1930.245690 0.9840 0.9830 0.9810 0.9800 0.9800
1933.768730 0.9800 0.9800 0.9800 0.9800 0.9800
1937.291770 0.9800 0.9800 0.9780 0.9780 0.9780
1940.814810 0.9770 0.9770 0.9760 0.9760 0.9760
1944.337850 0.9740 0.9730 0.9730 0.9730 0.9730
1947.860890 0.9710 0.9710 0.9710 0.9710 0.9700
1951.383929 0.9700 0.9700 0.9690 0.9690 0.9690
1954.906969 0.9690 0.9690 0.9690 0.9690 0.9690
1958.430009 0.9690 0.9690 0.9690 0.9690 0.9690
1961.953049 0.9690 0.9670 0.9670 0.9670 0.9670
1965.476089 0.9670 0.9670 0.9670 0.9670 0.9670
1968.999128 0.9670 0.9670 0.9670 0.9670 0.9690
1972.522168 0.9690 0.9690 0.9690 0.9690 0.9690
1976.045208 0.9690 0.9670 0.9670 0.9670 0.9670
1979.568248 0.9670 0.9670 0.9670 0.9670 0.9670
1983.091288 0.9670 0.9670 0.9670 0.9670 0.9670
1986.614327 0.9670 0.9670 0.9670 0.9670 0.9670
1990.137367 0.9670 0.9670 0.9670 0.9670 0.9670
1993.660407 0.9670 0.9660 0.9660 0.9660 0.9660
1997.183447 0.9660 0.9660 0.9660 0.9660 0.9660
2000.706487 0.9652 0.9645 0.9637 0.9630 0.9630
2004.229527 0.9630 0.9630 0.9630 0.9630 0.9630
2007.752566 0.9630 0.9630 0.9630 0.9630 0.9630
2011.275606 0.9630 0.9630 0.9630 0.9630 0.9630
2014.798646 0.9627 0.9625 0.9622 0.9620 0.9615
2018.321686 0.9610 0.9605 0.9600 0.9597 0.9595
2021.844726 0.9592 0.9590 0.9590 0.9590 0.9590
2025.367765 0.9590 0.9585 0.9580 0.9575 0.9570
2028.890805 0.9567 0.9565 0.9562 0.9560 0.9557
2032.413845 0.9555 0.9552 0.9549 0.9536 0.9524
2035.936885 0.9511 0.9499 0.9494 0.9489 0.9484
2039.459925 0.9479 0.9474 0.9469 0.9464 0.9460
2042.982964 0.9460 0.9460 0.9460 0.9460 0.9460
2046.506004 0.9460 0.9460 0.9460 0.9460 0.9460
2050.029044 0.9460 0.9461 0.9466 0.9471 0.9476
2053.552084 0.9480 0.9483 0.9485 0.9488 0.9492
2057.075124 0.9499 0.9507 0.9514 0.9522 0.9529
2060.598164 0.9537 0.9544 0.9551 0.9553 0.9556
2064.121203 0.9558 0.9560 0.9560 0.9560 0.9560
2067.644243 0.9561 0.9563 0.9566 0.9568 0.9571
2071.167283 0.9576 0.9581 0.9586 0.9590 0.9590
2074.690323 0.9590 0.9590 0.9591 0.9593 0.9596
2078.213363 0.9598 0.9602 0.9612 0.9622 0.9632
2081.736402 0.9641 0.9646 0.9651 0.9656 0.9661
2085.259442 0.9663 0.9666 0.9668 0.9672 0.9680
2088.782482 0.9687 0.9695 0.9700 0.9700 0.9700
2092.305522 0.9700 0.9701 0.9703 0.9706 0.9708
2095.828562 0.9714 0.9727 0.9739 0.9752 0.9763
2099.351601 0.9773 0.9783 0.9793 0.9800 0.9800
2102.874641 0.9800 0.9800 0.9801 0.9803 0.9806
2106.397681 0.9808 0.9812 0.9817 0.9822 0.9827
2109.920721 0.9832 0.9837 0.9842 0.9847 0.9853
2113.443761 0.9861 0.9868 0.9876 0.9880 0.9880
2116.966800 0.9880 0.9880 0.9883 0.9891 0.9898
2120.489840 0.9906 0.9911 0.9914 0.9916 0.9919
2124.012880 0.9920 0.9920 0.9920 0.9920 0.9922
2127.535920 0.9927 0.9932 0.9937 0.9940 0.9940
2131.058960 0.9940 0.9940 0.9940 0.9940 0.9940
2134.582000 0.9940 0.9940 0.9940 0.9940 0.9940
2138.105039 0.9940 0.9940 0.9940 0.9940 0.9937
2141.628079 0.9932 0.9927 0.9922 0.9920 0.9920
2145.151119 0.9920 0.9920 0.9915 0.9905 0.9895
2148.674159 0.9885 0.9879 0.9876 0.9874 0.9871
2152.197199 0.9870 0.9870 0.9870 0.9870 0.9867
2155.720238 0.9862 0.9857 0.9852 0.9850 0.9850
2159.243278 0.9850 0.9850 0.9850 0.9850 0.9850
2162.766318 0.9850 0.9850 0.9850 0.9850 0.9850
2166.289358 0.9853 0.9858 0.9863 0.9868 0.9870
2169.812398 0.9870 0.9870 0.9870 0.9870 0.9870
2173.335437 0.9870 0.9870 0.9870 0.9870 0.9870
2176.858477 0.9870 0.9870 0.9870 0.9870 0.9870
2180.381517 0.9872 0.9874 0.9877 0.9879 0.9880
2183.904557 0.9880 0.9880 0.9880 0.9880 0.9880
2187.427597 0.9880 0.9880 0.9880 0.9880 0.9880
2190.950637 0.9880 0.9883 0.9888 0.9893 0.9898
2194.473676 0.9900 0.9900 0.9900 0.9900 0.9900
2197.996716 0.9900 0.9900 0.9900 0.9900 0.9900
2201.519756 0.9900 0.9900 0.9900 0.9900 0.9900
2205.042796 0.9900 0.9902 0.9904 0.9907 0.9909
2208.565836 0.9910 0.9910 0.9910 0.9910 0.9910
2212.088875 0.9910 0.9910 0.9910 0.9910 0.9910
2215.611915 0.9910 0.9910 0.9910 0.9910 0.9910
2219.134955 0.9910 0.9904 0.9897 0.9889 0.9882
2222.657995 0.9878 0.9876 0.9873 0.9870 0.9870
2226.181035 0.9870 0.9870 0.9870 0.9870 0.9870
2229.704074 0.9870 0.9870 0.9870 0.9870 0.9870
2233.227114 0.9870 0.9870 0.9870 0.9870 0.9870
2236.750154 0.9878 0.9888 0.9898 0.9908 0.9910
2240.273194 0.9910 0.9910 0.9910 0.9910 0.9910
2243.796234 0.9910 0.9910 0.9908 0.9905 0.9903
2247.319274 0.9900 0.9900 0.9900 0.9900 0.9900
2250.842313 0.9900 0.9900 0.9900 0.9900 0.9900
2254.365353 0.9900 0.9900 0.9900 0.9902 0.9905
2257.888393 0.9907 0.9910 0.9910 0.9910 0.9910
2261.411433 0.9910 0.9908 0.9905 0.9903 0.9900
2264.934473 0.9895 0.9890 0.9885 0.9880 0.9878
2268.457512 0.9875 0.9873 0.9870 0.9863 0.9855
2271.980552 0.9848 0.9840 0.9838 0.9835 0.9833
2275.503592 0.9830 0.9825 0.9820 0.9815 0.9810
2279.026632 0.9810 0.9810 0.9810 0.9810 0.9810
2282.549672 0.9810 0.9810 0.9810 0.9815 0.9820
2286.072711 0.9825 0.9830 0.9833 0.9835 0.9838
2289.595751 0.9840 0.9843 0.9845 0.9848 0.9850
2293.118791 0.9855 0.9860 0.9865 0.9870 0.9870
2296.641831 0.9870 0.9870 0.9870 0.9873 0.9875
2300.164871 0.9878 0.9880 0.9885 0.9890 0.9895
2303.687911 0.9900 0.9903 0.9905 0.9908 0.9910
2307.210950 0.9910 0.9910 0.9910 0.9910 0.9910
2310.733990 0.9910 0.9910 0.9910 0.9913 0.9915
2314.257030 0.9918 0.9920 0.9920 0.9920 0.9920
2317.780070 0.9920 0.9920 0.9920 0.9920 0.9920
2321.303110 0.9920 0.9920 0.9920 0.9920 0.9920
2324.826149 0.9920 0.9920 0.9920 0.9920 0.9920
2328.349189 0.9920 0.9920 0.9920 0.9920 0.9920
2331.872229 0.9920 0.9920 0.9920 0.9920 0.9920
2335.395269 0.9920 0.9920 0.9920 0.9919 0.9917
2338.918309 0.9914 0.9912 0.9910 0.9910 0.9910
2342.441348 0.9910 0.9910 0.9910 0.9910 0.9910
2345.964388 0.9909 0.9907 0.9904 0.9902 0.9900
2349.487428 0.9900 0.9900 0.9900 0.9900 0.9900
2353.010468 0.9900 0.9900 0.9900 0.9900 0.9900
2356.533508 0.9900 0.9900 0.9900 0.9900 0.9900
2360.056547 0.9899 0.9894 0.9889 0.9884 0.9880
2363.579587 0.9880 0.9880 0.9880 0.9880 0.9880
2367.102627 0.9880 0.9880 0.9880 0.9880 0.9880
2370.625667 0.9880 0.9879 0.9877 0.9874 0.9872
2374.148707 0.9870 0.9870 0.9870 0.9870 0.9870
2377.671747 0.9870 0.9870 0.9870 0.9868 0.9863
2381.194786 0.9858 0.9853 0.9850 0.9850 0.9850
2384.717826 0.9850 0.9849 0.9847 0.9844 0.9842
2388.240866 0.9840 0.9840 0.9840 0.9840 0.9840
2391.763906 0.9840 0.9840 0.9840 0.9840 0.9840
2395.286946 0.9840 0.9840 0.9841 0.9844 0.9846
2398.809985 0.9849 0.9850 0.9850 0.9850 0.9850
2402.333025 0.9852 0.9857 0.9862 0.9867 0.9870
2405.856065 0.9870 0.9870 0.9870 0.9871 0.9874
2409.379105 0.9876 0.9879 0.9880 0.9880 0.9880
2412.902145 0.9880 0.9880 0.9880 0.9880 0.9880
2416.425184 0.9882 0.9887 0.9892 0.9897 0.9900
2419.948224 0.9900 0.9900 0.9900 0.9900 0.9900
2423.471264 0.9900 0.9900 0.9900 0.9900 0.9900
2426.994304 0.9900 0.9900 0.9900 0.9900 0.9900
2430.517344 0.9900 0.9900 0.9900 0.9900 0.9900
2434.040384 0.9900 0.9900 0.9900 0.9900 0.9900
2437.563423 0.9900 0.9900 0.9900 0.9900 0.9900
2441.086463 0.9900 0.9901 0.9904 0.9906 0.9909
2444.609503 0.9910 0.9910 0.9910 0.9910 0.9911
2448.132543 0.9914 0.9917 0.9919 0.9920 0.9920
2451.655583 0.9920 0.9920 0.9920 0.9920 0.9920
2455.178622 0.9920 0.9918 0.9916 0.9913 0.9911
2458.701662 0.9908 0.9906 0.9903 0.9901 0.9897
2462.224702 0.9892 0.9887 0.9882 0.9880 0.9880
2465.747742 0.9880 0.9880 0.9878 0.9876 0.9873
2469.270782 0.9871 0.9870 0.9870 0.9870 0.9870
2472.793821 0.9867 0.9862 0.9857 0.9852 0.9848
2476.316861 0.9846 0.9843 0.9841 0.9838 0.9836
2479.839901 0.9833 0.9831 0.9830 0.9830 0.9830
2483.362941 0.9830 0.9830 0.9830 0.9830 0.9830
2486.885981 0.9826 0.9821 0.9816 0.9811 0.9808
2490.409021 0.9806 0.9803 0.9801 0.9792 0.9782
2493.932060 0.9772 0.9762 0.9749 0.9734 0.9718
2497.455100 0.9703 0.9692 0.9682 0.9672 0.9662
2500.978140 0.9656 0.9651 0.9646 0.9641 0.9640
2504.501180 0.9640 0.9640 0.9640 0.9640 0.9640
2508.024220 0.9640 0.9640 0.9644 0.9649 0.9654
2511.547259 0.9659 0.9660 0.9660 0.9660 0.9660
2515.070299 0.9660 0.9660 0.9660 0.9660 0.9660
2518.593339 0.9660 0.9660 0.9660 0.9660 0.9660
2522.116379 0.9660 0.9660 0.9656 0.9651 0.9646
2525.639419 0.9641 0.9640 0.9640 0.9640 0.9640
2529.162458 0.9640 0.9640 0.9640 0.9640 0.9640
2532.685498 0.9640 0.9640 0.9640 0.9638 0.9635
2536.208538 0.9633 0.9630 0.9628 0.9625 0.9623
2539.731578 0.9620 0.9613 0.9605 0.9598 0.9590
2543.254618 0.9580 0.9570 0.9560 0.9550 0.9543
2546.777658 0.9535 0.9528 0.9520 0.9513 0.9505
2550.300697 0.9498 0.9490 0.9488 0.9485 0.9483
2553.823737 0.9480 0.9475 0.9470 0.9465 0.9460
2557.346777 0.9460 0.9460 0.9460 0.9460 0.9458
2560.869817 0.9455 0.9452 0.9450 0.9450 0.9450
2564.392857 0.9450 0.9450 0.9445 0.9440 0.9435
2567.915896 0.9430 0.9430 0.9430 0.9430 0.9430
2571.438936 0.9427 0.9425 0.9422 0.9420 0.9420
2574.961976 0.9420 0.9420 0.9420 0.9412 0.9404
2578.485016 0.9397 0.9390 0.9390 0.9390 0.9390
2582.008056 0.9390 0.9387 0.9385 0.9382 0.9380
2585.531095 0.9380 0.9380 0.9380 0.9380 0.9380
2589.054135 0.9380 0.9380 0.9379 0.9374 0.9369
2592.577175 0.9364 0.9360 0.9360 0.9360 0.9360
2596.100215 0.9360 0.9360 0.9360 0.9360 0.9360
2599.623255 0.9357 0.9355 0.9352 0.9350 0.9347
2603.146294 0.9345 0.9342 0.9339 0.9334 0.9329
2606.669334 0.9324 0.9320 0.9317 0.9315 0.9312
2610.192374 0.9309 0.9304 0.9299 0.9294 0.9289
2613.715414 0.9284 0.9279 0.9274 0.9269 0.9261
2617.238454 0.9253 0.9246 0.9238 0.9231 0.9223
2620.761494 0.9216 0.9209 0.9207 0.9204 0.9202
2624.284533 0.9198 0.9191 0.9183 0.9176 0.9169
2627.807573 0.9164 0.9159 0.9154 0.9149 0.9144
2631.330613 0.9139 0.9134 0.9129 0.9124 0.9119
2634.853653 0.9114 0.9109 0.9107 0.9104 0.9102
2638.376693 0.9100 0.9100 0.9100 0.9100 0.9099
2641.899732 0.9094 0.9089 0.9084 0.9079 0.9077
2645.422772 0.9074 0.9072 0.9066 0.9056 0.9046
2648.945812 0.9036 0.9028 0.9023 0.9018 0.9013
2652.468852 0.9009 0.9007 0.9004 0.9002 0.9000
2655.991892 0.9000 0.9000 0.9000 0.8999 0.8997
2659.514931 0.8994 0.8992 0.8990 0.8990 0.8990
2663.037971 0.8990 0.8988 0.8983 0.8978 0.8973
2666.561011 0.8970 0.8970 0.8970 0.8970 0.8970
2670.084051 0.8970 0.8970 0.8970 0.8972 0.8977
2673.607091 0.8982 0.8987 0.8990 0.8990 0.8990
2677.130131 0.8990 0.8992 0.8997 0.9002 0.9007
2680.653170 0.9013 0.9021 0.9028 0.9036 0.9040
2684.176210 0.9040 0.9040 0.9040 0.9040 0.9040
2687.699250 0.9040 0.9040 0.9042 0.9047 0.9052
2691.222290 0.9057 0.9060 0.9060 0.9060 0.9060
2694.745330 0.9058 0.9053 0.9048 0.9043 0.9034
2698.268369 0.9021 0.9009 0.8996 0.8986 0.8979
2701.791409 0.8971 0.8963 0.8957 0.8952 0.8947
2705.314449 0.8942 0.8937 0.8932 0.8927 0.8922
2708.837489 0.8917 0.8912 0.8907 0.8902 0.8900
2712.360529 0.8900 0.8900 0.8900 0.8896 0.8888
2715.883568 0.8881 0.8873 0.8867 0.8862 0.8857
2719.406608 0.8852 0.8847 0.8842 0.8837 0.8832
2722.929648 0.8829 0.8826 0.8824 0.8821 0.8820
2726.452688 0.8820 0.8820 0.8820 0.8817 0.8812
2729.975728 0.8807 0.8802 0.8800 0.8800 0.8800
2733.498768 0.8800 0.8797 0.8792 0.8787 0.8782
2737.021807 0.8775 0.8768 0.8760 0.8752 0.8747
2740.544847 0.8742 0.8737 0.8732 0.8728 0.8726
2744.067887 0.8723 0.8721 0.8720 0.8720 0.8720
2747.590927 0.8720 0.8718 0.8716 0.8713 0.8711
2751.113967 0.8712 0.8714 0.8717 0.8719 0.8715
2754.637006 0.8707 0.8700 0.8692 0.8688 0.8686
2758.160046 0.8683 0.8681 0.8674 0.8667 0.8659
2761.683086 0.8652 0.8639 0.8624 0.8609 0.8594
2765.206126 0.8580 0.8568 0.8555 0.8543 0.8527
2768.729166 0.8509 0.8491 0.8474 0.8458 0.8443
2772.252205 0.8428 0.8413 0.8396 0.8379 0.8361
2775.775245 0.8344 0.8318 0.8291 0.8263 0.8236
2779.298285 0.8214 0.8194 0.8174 0.8154 0.8132
2782.821325 0.8110 0.8087 0.8065 0.8046 0.8028
2786.344365 0.8010 0.7993 0.7969 0.7944 0.7918
2789.867405 0.7893 0.7860 0.7825 0.7790 0.7755
2793.390444 0.7715 0.7675 0.7635 0.7595 0.7538
2796.913484 0.7478 0.7418 0.7357 0.7282 0.7204
2800.436524 0.7127 0.7049 0.7011 0.6979 0.6946
2803.959564 0.6914 0.6861 0.6806 0.6751 0.6696
2807.482604 0.6625 0.6553 0.6480 0.6408 0.6310
2811.005643 0.6210 0.6110 0.6010 0.5895 0.5778
2814.528683 0.5661 0.5545 0.5268 0.4985 0.4703
2818.051723 0.4420 0.4251 0.4085 0.3920 0.3755
2821.574763 0.3575 0.3395 0.3215 0.3035 0.2952
2825.097803 0.2872 0.2792 0.2712 0.2587 0.2462
2828.620842 0.2337 0.2212 0.2171 0.2131 0.2091
2832.143882 0.2050 0.2005 0.1960 0.1915 0.1870
2835.666922 0.1714 0.1556 0.1398 0.1240 0.1080
2839.189962 0.0920 0.0760 0.0600 0.0592 0.0585
2842.713002 0.0577 0.0570 0.0578 0.0585 0.0593
2846.236042 0.0602 0.0640 0.0678 0.0715 0.0751
2849.759081 0.0758 0.0766 0.0773 0.0781 0.0799
2853.282121 0.0816 0.0834 0.0850 0.0853 0.0855
2856.805161 0.0858 0.0860 0.0865 0.0870 0.0875
2860.328201 0.0879 0.0872 0.0864 0.0857 0.0849
2863.851241 0.0839 0.0829 0.0819 0.0809 0.0802
2867.374280 0.0794 0.0787 0.0778 0.0763 0.0748
2870.897320 0.0733 0.0717 0.0700 0.0682 0.0665
2874.420360 0.0645 0.0615 0.0585 0.0555 0.0526
2877.943400 0.0501 0.0476 0.0451 0.0427 0.0409
2881.466440 0.0392 0.0374 0.0357 0.0342 0.0327
2884.989479 0.0312 0.0299 0.0294 0.0289 0.0284
2888.512519 0.0278 0.0265 0.0253 0.0240 0.0230
2892.035559 0.0227 0.0225 0.0222 0.0218 0.0211
2895.558599 0.0203 0.0196 0.0189 0.0187 0.0184
2899.081639 0.0182 0.0179 0.0174 0.0169 0.0164
2902.604678 0.0160 0.0160 0.0160 0.0160 0.0159
2906.127718 0.0157 0.0154 0.0152 0.0149 0.0147
2909.650758 0.0144 0.0142 0.0140 0.0140 0.0140
2913.173798 0.0140 0.0140 0.0140 0.0140 0.0140
2916.696838 0.0140 0.0140 0.0140 0.0140 0.0140
2920.219878 0.0140 0.0140 0.0140 0.0141 0.0143
2923.742917 0.0146 0.0148 0.0150 0.0150 0.0150
2927.265957 0.0150 0.0150 0.0150 0.0150 0.0150
2930.788997 0.0151 0.0153 0.0156 0.0158 0.0166
2934.312037 0.0181 0.0196 0.0211 0.0223 0.0230
2937.835077 0.0238 0.0245 0.0253 0.0260 0.0268
2941.358116 0.0275 0.0282 0.0287 0.0292 0.0297
2944.881156 0.0306 0.0321 0.0336 0.0351 0.0367
2948.404196 0.0385 0.0402 0.0420 0.0438 0.0458
2951.927236 0.0478 0.0498 0.0524 0.0557 0.0590
2955.450276 0.0623 0.0655 0.0688 0.0720 0.0753
2958.973315 0.0784 0.0814 0.0844 0.0874 0.0906
2962.496355 0.0938 0.0971 0.1003 0.1035 0.1065
2966.019395 0.1095 0.1125 0.1157 0.1192 0.1227
2969.542435 0.1262 0.1297 0.1332 0.1367 0.1402
2973.065475 0.1436 0.1469 0.1501 0.1534 0.1578
2976.588515 0.1633 0.1688 0.1743 0.1790 0.1830
2980.111554 0.1870 0.1910 0.1940 0.1961 0.1981
2983.634594 0.2001 0.2016 0.2026 0.2036 0.2046
2987.157634 0.2070 0.2105 0.2140 0.2175 0.2209
2990.680674 0.2241 0.2274 0.2307 0.2341 0.2376
2994.203714 0.2411 0.2446 0.2479 0.2512 0.2544
2997.726753 0.2577 0.2611 0.2646 0.2681 0.2716
3001.249793 0.2748 0.2778 0.2808 0.2838 0.2891
3004.772833 0.2958 0.3026 0.3094 0.3122 0.3124
3008.295873 0.3127 0.3129 0.3199 0.3310 0.3422
3011.818913 0.3534 0.3644 0.3754 0.3865 0.3975
3015.341952 0.4081 0.4187 0.4292 0.4397 0.4512
3018.864992 0.4632 0.4752 0.4873 0.4946 0.4999
3022.388032 0.5051 0.5104 0.5156 0.5209 0.5262
3025.911072 0.5314 0.5426 0.5564 0.5701 0.5839
3029.434112 0.5892 0.5910 0.5927 0.5945 0.6049
3032.957152 0.6189 0.6329 0.6470 0.6581 0.6681
3036.480191 0.6781 0.6882 0.6954 0.7015 0.7075
3040.003231 0.7136 0.7191 0.7243 0.7296 0.7348
3043.526271 0.7393 0.7436 0.7478 0.7521 0.7559
3047.049311 0.7597 0.7635 0.7672 0.7706 0.7738
3050.572351 0.7771 0.7803 0.7832 0.7859 0.7887
3054.095390 0.7914 0.7940 0.7965 0.7990 0.8015
3057.618430 0.8040 0.8065 0.8090 0.8115 0.8136
3061.141470 0.8156 0.8176 0.8196 0.8214 0.8232
3064.664510 0.8249 0.8267 0.8289 0.8312 0.8334
3068.187550 0.8357 0.8378 0.8398 0.8418 0.8438
3071.710589 0.8458 0.8478 0.8498 0.8518 0.8542
3075.233629 0.8567 0.8592 0.8617 0.8649 0.8682
3078.756669 0.8714 0.8747 0.8757 0.8764 0.8772
3082.279709 0.8779 0.8796 0.8813 0.8831 0.8848
3085.802749 0.8861 0.8874 0.8886 0.8899 0.8914
3089.325789 0.8929 0.8944 0.8959 0.8978 0.8998
3092.848828 0.9018 0.9038 0.9049 0.9060 0.9070
3096.371868 0.9080 0.9095 0.9110 0.9125 0.9140
3099.894908 0.9150 0.9160 0.9170 0.9180 0.9185
3103.417948 0.9190 0.9195 0.9200 0.9205 0.9210
3106.940988 0.9215 0.9220 0.9228 0.9235 0.9243
3110.464027 0.9250 0.9260 0.9270 0.9280 0.9290
3113.987067 0.9305 0.9320 0.9335 0.9350 0.9365
3117.510107 0.9380 0.9395 0.9410 0.9413 0.9415
3121.033147 0.9418 0.9420 0.9423 0.9425 0.9428
3124.556187 0.9430 0.9435 0.9440 0.9445 0.9450
3128.079226 0.9450 0.9450 0.9450 0.9450 0.9453
3131.602266 0.9455 0.9458 0.9460 0.9460 0.9460
3135.125306 0.9460 0.9460 0.9466 0.9471 0.9476
3138.648346 0.9480 0.9480 0.9480 0.9480 0.9480
3142.171386 0.9483 0.9485 0.9488 0.9490 0.9490
3145.694425 0.9490 0.9490 0.9490 0.9493 0.9495
3149.217465 0.9498 0.9500 0.9500 0.9500 0.9500
3152.740505 0.9501 0.9506 0.9511 0.9516 0.9520
3156.263545 0.9520 0.9520 0.9520 0.9520 0.9523
3159.786585 0.9525 0.9528 0.9530 0.9530 0.9530
3163.309625 0.9530 0.9530 0.9530 0.9530 0.9530
3166.832664 0.9531 0.9536 0.9541 0.9546 0.9551
3170.355704 0.9553 0.9556 0.9558 0.9560 0.9560
3173.878744 0.9560 0.9560 0.9561 0.9563 0.9566
3177.401784 0.9568 0.9571 0.9576 0.9581 0.9586
3180.924824 0.9590 0.9590 0.9590 0.9590 0.9591
3184.447863 0.9593 0.9596 0.9598 0.9600 0.9600
3187.970903 0.9600 0.9600 0.9601 0.9607 0.9612
3191.493943 0.9617 0.9620 0.9620 0.9620 0.9620
3195.016983 0.9621 0.9623 0.9626 0.9628 0.9630
3198.540023 0.9630 0.9630 0.9630 0.9631 0.9633
3202.063062 0.9636 0.9638 0.9640 0.9640 0.9640
3205.586102 0.9640 0.9642 0.9647 0.9652 0.9657
3209.109142 0.9660 0.9660 0.9660 0.9660 0.9660
3212.632182 0.9660 0.9660 0.9660 0.9660 0.9660
3216.155222 0.9660 0.9660 0.9661 0.9664 0.9666
3219.678262 0.9669 0.9672 0.9677 0.9682 0.9687
3223.201301 0.9690 0.9690 0.9690 0.9690 0.9691
3226.724341 0.9694 0.9696 0.9699 0.9701 0.9704
3230.247381 0.9706 0.9709 0.9710 0.9710 0.9710
3233.770421 0.9710 0.9712 0.9717 0.9722 0.9727
3237.293461 0.9730 0.9730 0.9730 0.9730 0.9730
3240.816500 0.9730 0.9730 0.9730 0.9730 0.9730
3244.339540 0.9730 0.9730 0.9730 0.9730 0.9730
3247.862580 0.9730 0.9730 0.9730 0.9730 0.9730
3251.385620 0.9727 0.9722 0.9717 0.9712 0.9710
3254.908660 0.9710 0.9710 0.9710 0.9710 0.9710
3258.431699 0.9710 0.9710 0.9710 0.9710 0.9710
3261.954739 0.9710 0.9709 0.9706 0.9704 0.9701
3265.477779 0.9700 0.9700 0.9700 0.9700 0.9700
3269.000819 0.9700 0.9700 0.9700 0.9700 0.9700
3272.523859 0.9700 0.9700 0.9698 0.9696 0.9693
3276.046899 0.9691 0.9690 0.9690 0.9690 0.9690
3279.569938 0.9690 0.9690 0.9690 0.9690 0.9690
3283.092978 0.9690 0.9690 0.9690 0.9687 0.9682
3286.616018 0.9677 0.9672 0.9670 0.9670 0.9670
3290.139058 0.9670 0.9670 0.9670 0.9670 0.9670
3293.662098 0.9670 0.9670 0.9670 0.9670 0.9670
3297.185137 0.9670 0.9670 0.9670 0.9670 0.9670
3300.708177 0.9670 0.9670 0.9668 0.9666 0.9663
3304.231217 0.9661 0.9660 0.9660 0.9660 0.9660
3307.754257 0.9660 0.9660 0.9660 0.9660 0.9660
3311.277297 0.9660 0.9660 0.9660 0.9660 0.9660
3314.800336 0.9660 0.9660 0.9660 0.9660 0.9660
3318.323376 0.9660 0.9656 0.9651 0.9646 0.9641
3321.846416 0.9640 0.9640 0.9640 0.9640 0.9640
3325.369456 0.9640 0.9640 0.9640 0.9640 0.9640
3328.892496 0.9640 0.9640 0.9640 0.9640 0.9640
3332.415536 0.9640 0.9640 0.9640 0.9640 0.9640
3335.938575 0.9638 0.9635 0.9633 0.9630 0.9628
3339.461615 0.9625 0.9623 0.9620 0.9620 0.9620
3342.984655 0.9620 0.9620 0.9620 0.9620 0.9620
3346.507695 0.9620 0.9620 0.9620 0.9620 0.9620
3350.030735 0.9616 0.9610 0.9605 0.9600 0.9600
3353.553774 0.9600 0.9600 0.9600 0.9600 0.9600
3357.076814 0.9600 0.9600 0.9598 0.9595 0.9593
3360.599854 0.9590 0.9590 0.9590 0.9590 0.9590
3364.122894 0.9590 0.9590 0.9590 0.9590 0.9585
3367.645934 0.9580 0.9575 0.9570 0.9570 0.9570
3371.168973 0.9570 0.9570 0.9568 0.9565 0.9563
3374.692013 0.9560 0.9560 0.9560 0.9560 0.9560
3378.215053 0.9557 0.9555 0.9552 0.9550 0.9550
3381.738093 0.9550 0.9550 0.9550 0.9550 0.9550
3385.261133 0.9550 0.9550 0.9545 0.9540 0.9535
3388.784172 0.9530 0.9530 0.9530 0.9530 0.9530
3392.307212 0.9527 0.9525 0.9522 0.9520 0.9520
3395.830252 0.9520 0.9520 0.9520 0.9515 0.9510
3399.353292 0.9505 0.9500 0.9497 0.9495 0.9492
3402.876332 0.9490 0.9482 0.9474 0.9467 0.9460
3406.399372 0.9457 0.9455 0.9452 0.9449 0.9444
3409.922411 0.9439 0.9434 0.9430 0.9427 0.9425
3413.445451 0.9422 0.9420 0.9417 0.9415 0.9412
3416.968491 0.9409 0.9404 0.9399 0.9394 0.9390
3420.491531 0.9387 0.9385 0.9382 0.9379 0.9374
3424.014571 0.9369 0.9364 0.9359 0.9354 0.9349
3427.537610 0.9344 0.9338 0.9326 0.9313 0.9301
3431.060650 0.9288 0.9275 0.9263 0.9250 0.9238
3434.583690 0.9228 0.9218 0.9208 0.9197 0.9185
3438.106730 0.9172 0.9160 0.9147 0.9135 0.9122
3441.629770 0.9110 0.9098 0.9091 0.9083 0.9076
3445.152809 0.9068 0.9058 0.9048 0.9038 0.9029
3448.675849 0.9024 0.9019 0.9014 0.9009 0.9007
3452.198889 0.9004 0.9002 0.8999 0.8997 0.8994
3455.721929 0.8992 0.8990 0.8990 0.8990 0.8990
3459.244969 0.8990 0.8990 0.8990 0.8990 0.8991
3462.768009 0.8993 0.8996 0.8998 0.9002 0.9010
3466.291048 0.9017 0.9025 0.9033 0.9043 0.9053
3469.814088 0.9063 0.9072 0.9080 0.9087 0.9095
3473.337128 0.9102 0.9110 0.9117 0.9125 0.9132
3476.860168 0.9137 0.9142 0.9147 0.9153 0.9160
3480.383208 0.9168 0.9175 0.9182 0.9187 0.9192
3483.906247 0.9197 0.9201 0.9203 0.9206 0.9208
3487.429287 0.9210 0.9210 0.9210 0.9210 0.9211
3490.952327 0.9214 0.9216 0.9219 0.9220 0.9220
3494.475367 0.9220 0.9220 0.9222 0.9227 0.9232
3497.998407 0.9237 0.9241 0.9244 0.9246 0.9249
3501.521446 0.9250 0.9250 0.9250 0.9250 0.9250
3505.044486 0.9250 0.9250 0.9250 0.9250 0.9250
3508.567526 0.9250 0.9250 0.9250 0.9250 0.9250
3512.090566 0.9250 0.9252 0.9257 0.9262 0.9267
3515.613606 0.9270 0.9270 0.9270 0.9270 0.9270
3519.136646 0.9270 0.9270 0.9270 0.9270 0.9270
3522.659685 0.9270 0.9270 0.9270 0.9270 0.9270
3526.182725 0.9270 0.9271 0.9274 0.9276 0.9279
3529.705765 0.9281 0.9284 0.9286 0.9289 0.9293
3533.228805 0.9298 0.9303 0.9308 0.9310 0.9310
3536.751845 0.9310 0.9310 0.9311 0.9314 0.9316
3540.274884 0.9319 0.9323 0.9328 0.9333 0.9338
3543.797924 0.9341 0.9344 0.9346 0.9349 0.9350
3547.320964 0.9350 0.9350 0.9350 0.9352 0.9354
3550.844004 0.9357 0.9359 0.9363 0.9368 0.9373
3554.367044 0.9378 0.9386 0.9396 0.9406 0.9416
3557.890083 0.9420 0.9420 0.9420 0.9420 0.9422
3561.413123 0.9424 0.9427 0.9429 0.9433 0.9438
3564.936163 0.9443 0.9448 0.9450 0.9450 0.9450
3568.459203 0.9450 0.9450 0.9450 0.9450 0.9450
3571.982243 0.9447 0.9442 0.9437 0.9431 0.9430
3575.505283 0.9430 0.9430 0.9430 0.9435 0.9443
3579.028322 0.9450 0.9458 0.9460 0.9460 0.9460
3582.551362 0.9460 0.9460 0.9460 0.9460 0.9460
3586.074402 0.9464 0.9469 0.9474 0.9479 0.9480
3589.597442 0.9480 0.9480 0.9480 0.9482 0.9484
3593.120482 0.9487 0.9489 0.9490 0.9490 0.9490
3596.643521 0.9490 0.9492 0.9494 0.9497 0.9499
3600.166561 0.9500 0.9500 0.9500 0.9500 0.9500
3603.689601 0.9500 0.9500 0.9500 0.9500 0.9500
3607.212641 0.9500 0.9500 0.9500 0.9500 0.9500
3610.735681 0.9500 0.9500 0.9500 0.9500 0.9500
3614.258720 0.9500 0.9500 0.9500 0.9500 0.9500
3617.781760 0.9500 0.9500 0.9500 0.9500 0.9500
3621.304800 0.9500 0.9500 0.9500 0.9500 0.9500
3624.827840 0.9500 0.9500 0.9500 0.9500 0.9500
3628.350880 0.9504 0.9509 0.9515 0.9520 0.9520
3631.873919 0.9520 0.9520 0.9520 0.9520 0.9520
3635.396959 0.9520 0.9520 0.9520 0.9520 0.9520
3638.919999 0.9520 0.9522 0.9525 0.9527 0.9530
3642.443039 0.9530 0.9530 0.9530 0.9530 0.9530
3645.966079 0.9530 0.9530 0.9530 0.9530 0.9530
3649.489119 0.9530 0.9530 0.9530 0.9530 0.9530
3653.012158 0.9530 0.9537 0.9545 0.9552 0.9560
3656.535198 0.9560 0.9560 0.9560 0.9560 0.9563
3660.058238 0.9565 0.9568 0.9570 0.9575 0.9580
3663.581278 0.9585 0.9590 0.9590 0.9590 0.9590
3667.104318 0.9590 0.9593 0.9595 0.9598 0.9600
3670.627357 0.9605 0.9610 0.9615 0.9620 0.9620
3674.150397 0.9620 0.9620 0.9620 0.9623 0.9625
3677.673437 0.9628 0.9630 0.9630 0.9630 0.9630
3681.196477 0.9630 0.9633 0.9635 0.9638 0.9640
3684.719517 0.9640 0.9640 0.9640 0.9640 0.9640
3688.242556 0.9640 0.9640 0.9641 0.9646 0.9651
3691.765596 0.9656 0.9660 0.9660 0.9660 0.9660
3695.288636 0.9660 0.9663 0.9665 0.9668 0.9670
3698.811676 0.9670 0.9670 0.9670 0.9670 0.9670
3702.334716 0.9670 0.9670 0.9671 0.9676 0.9681
3705.857756 0.9686 0.9690 0.9690 0.9690 0.9690
3709.380795 0.9690 0.9690 0.9690 0.9690 0.9690
3712.903835 0.9693 0.9695 0.9698 0.9700 0.9700
3716.426875 0.9700 0.9700 0.9700 0.9700 0.9700
3719.949915 0.9700 0.9701 0.9703 0.9706 0.9708
3723.472955 0.9710 0.9710 0.9710 0.9710 0.9710
3726.995994 0.9710 0.9710 0.9710 0.9711 0.9716
3730.519034 0.9721 0.9726 0.9730 0.9730 0.9730
3734.042074 0.9730 0.9730 0.9730 0.9730 0.9730
3737.565114 0.9730 0.9730 0.9730 0.9730 0.9730
3741.088154 0.9730 0.9730 0.9730 0.9730 0.9730
3744.611193 0.9730 0.9730 0.9730 0.9730 0.9730
3748.134233 0.9730 0.9728 0.9723 0.9718 0.9713
3751.657273 0.9710 0.9710 0.9710 0.9710 0.9710
3755.180313 0.9710 0.9710 0.9710 0.9709 0.9707
3758.703353 0.9704 0.9702 0.9700 0.9700 0.9700
3762.226393 0.9700 0.9700 0.9700 0.9700 0.9700
3765.749432 0.9699 0.9697 0.9694 0.9692 0.9690
3769.272472 0.9690 0.9690 0.9690 0.9688 0.9683
3772.795512 0.9678 0.9673 0.9670 0.9670 0.9670
3776.318552 0.9670 0.9670 0.9670 0.9670 0.9670
3779.841592 0.9669 0.9666 0.9664 0.9661 0.9660
3783.364631 0.9660 0.9660 0.9660 0.9658 0.9653
3786.887671 0.9648 0.9643 0.9640 0.9640 0.9640
3790.410711 0.9640 0.9640 0.9640 0.9640 0.9640
3793.933751 0.9640 0.9640 0.9640 0.9640 0.9639
3797.456791 0.9636 0.9634 0.9631 0.9630 0.9630
3800.979830 0.9630 0.9630 0.9630 0.9630 0.9630
3804.502870 0.9630 0.9630 0.9630 0.9630 0.9630
3808.025910 0.9629 0.9626 0.9624 0.9621 0.9620
3811.548950 0.9620 0.9620 0.9620 0.9620 0.9620
3815.071990 0.9620 0.9620 0.9620 0.9620 0.9620
3818.595030 0.9620 0.9620 0.9620 0.9620 0.9620
3822.118069 0.9620 0.9620 0.9620 0.9620 0.9617
3825.641109 0.9612 0.9607 0.9602 0.9600 0.9600
3829.164149 0.9600 0.9600 0.9600 0.9600 0.9600
3832.687189 0.9600 0.9600 0.9600 0.9600 0.9600
3836.210229 0.9598 0.9596 0.9593 0.9591 0.9590
3839.733268 0.9590 0.9590 0.9590 0.9590 0.9590
3843.256308 0.9590 0.9590 0.9590 0.9590 0.9590
3846.779348 0.9590 0.9590 0.9590 0.9590 0.9590
3850.302388 0.9590 0.9590 0.9590 0.9590 0.9590
3853.825428 0.9590 0.9590 0.9590 0.9590 0.9590
3857.348467 0.9590 0.9590 0.9590 0.9590 0.9590
3860.871507 0.9590 0.9590 0.9590 0.9590 0.9590
3864.394547 0.9590 0.9590 0.9590 0.9590 0.9586
3867.917587 0.9581 0.9576 0.9571 0.9570 0.9570
3871.440627 0.9570 0.9570 0.9570 0.9570 0.9570
3874.963666 0.9570 0.9570 0.9570 0.9570 0.9570
3878.486706 0.9570 0.9570 0.9570 0.9570 0.9570
3882.009746 0.9570 0.9570 0.9570 0.9568 0.9565
3885.532786 0.9563 0.9560 0.9560 0.9560 0.9560
3889.055826 0.9560 0.9560 0.9560 0.9560 0.9560
3892.578866 0.9560 0.9560 0.9560 0.9560 0.9560
3896.101905 0.9560 0.9560 0.9560 0.9558 0.9555
3899.624945 0.9553 0.9550 0.9550 0.9550 0.9550
3903.147985 0.9550 0.9550 0.9550 0.9550 0.9550
3906.671025 0.9550 0.9550 0.9550 0.9550 0.9550
3910.194065 0.9550 0.9550 0.9550 0.9545 0.9540
3913.717104 0.9535 0.9530 0.9530 0.9530 0.9530
3917.240144 0.9530 0.9530 0.9530 0.9530 0.9530
3920.763184 0.9530 0.9530 0.9530 0.9530 0.9530
3924.286224 0.9530 0.9530 0.9530 0.9528 0.9525
3927.809264 0.9523 0.9520 0.9520 0.9520 0.9520
3931.332303 0.9520 0.9520 0.9520 0.9520 0.9520
3934.855343 0.9520 0.9520 0.9520 0.9520 0.9515
3938.378383 0.9510 0.9505 0.9500 0.9500 0.9500
3941.901423 0.9500 0.9500 0.9500 0.9500 0.9500
3945.424463 0.9500 0.9497 0.9495 0.9492 0.9490
3948.947503 0.9490 0.9490 0.9490 0.9490 0.9490
3952.470542 0.9490 0.9490 0.9490 0.9490 0.9490
3955.993582 0.9490 0.9490 0.9490 0.9490 0.9490
3959.516622 0.9490 0.9490 0.9490 0.9490 0.9490
3963.039662 0.9490 0.9490 0.9490 0.9490 0.9490
3966.562702 0.9490 0.9490 0.9490 0.9490 0.9490
3970.085741 0.9490 0.9490 0.9490 0.9490 0.9490
3973.608781 0.9490 0.9490 0.9490 0.9490 0.9490
3977.131821 0.9490 0.9490 0.9490 0.9490 0.9490
3980.654861 0.9490 0.9490 0.9490 0.9490 0.9490
3984.177901 0.9490 0.9490 0.9490 0.9490 0.9490
##END=
