##TITLE=NICKEL OXALATE
##JCAMP-DX=4.24
##DATA TYPE=INFRARED SPECTRUM
##CLASS=COBLENTZ
##OWNER=COBLENTZ SOCIETY
Collection (C) 2018 copyright by the U.S. Secretary of Commerce
on behalf of the United States of America. All rights reserved.
##DATE=Not specified, most likely prior to 1970
##MOLFORM=Ni C2 O4  * 2 H2 O
##SOURCE REFERENCE=COBLENTZ NO. 63
##$NIST ID=B6000063
##$NIST SOURCE=COBLENTZ
##$NIST IMAGE=cob63
##SPECTROMETER/DATA SYSTEM=Not specified, most likely a prism, grating, or hybrid spectrometer.
##STATE=SOLID (KBr DISC)
##SAMPLING PROCEDURE=TRANSMISSION
##RESOLUTION=4
##DATA PROCESSING=DIGITIZED BY NIST FROM HARD COPY
##XUNITS=MICROMETERS
##YUNITS=TRANSMITTANCE
##XFACTOR=1.000000
##YFACTOR=1
##DELTAX=000.007640
##FIRSTX=2.044
##LASTX=15.414
##FIRSTY=0.947
##MAXX=15.414
##MINX=2.044
##MAXY=0.959
##MINY=0.035
##NPOINTS=1751
##XYDATA=(X++(Y..Y))
2.044000 0.9470 0.9470 0.9470 0.9490 0.9490
2.082222 0.9490 0.9490 0.9490 0.9490 0.9500
2.121000 0.9500 0.9500 0.9520 0.9520 0.9500
2.159222 0.9500 0.9520 0.9520 0.9520 0.9520
2.197000 0.9520 0.9520 0.9520 0.9520 0.9520
2.235222 0.9520 0.9520 0.9520 0.9530 0.9530
2.273000 0.9550 0.9550 0.9560 0.9560 0.9560
2.311222 0.9560 0.9560 0.9580 0.9560 0.9560
2.350000 0.9560 0.9560 0.9560 0.9560 0.9560
2.388222 0.9560 0.9560 0.9560 0.9560 0.9560
2.426000 0.9560 0.9580 0.9560 0.9560 0.9560
2.464222 0.9580 0.9580 0.9580 0.9560 0.9560
2.503000 0.9560 0.9560 0.9560 0.9560 0.9560
2.541222 0.9550 0.9550 0.9550 0.9550 0.9550
2.579000 0.9560 0.9550 0.9550 0.9550 0.9550
2.617222 0.9550 0.9550 0.9550 0.9550 0.9550
2.655000 0.9550 0.9550 0.9530 0.9530 0.9530
2.693222 0.9520 0.9520 0.9490 0.9410 0.9350
2.732000 0.9290 0.9170 0.9050 0.8920 0.8780
2.770222 0.8500 0.8200 0.7660 0.7500 0.7330
2.808000 0.6710 0.6440 0.6210 0.5790 0.5210
2.846222 0.5080 0.4930 0.4660 0.4330 0.4110
2.885000 0.3900 0.3660 0.3420 0.3130 0.2670
2.923222 0.2490 0.2310 0.1950 0.1820 0.1700
2.961000 0.1440 0.1390 0.1360 0.1330 0.1360
2.999222 0.1550 0.1730 0.1940 0.2250 0.2940
3.037000 0.3210 0.3390 0.3670 0.3970 0.4150
3.075222 0.4340 0.4450 0.4630 0.4850 0.5180
3.114000 0.5240 0.5330 0.5500 0.5570 0.5710
3.152222 0.5810 0.5900 0.5960 0.6060 0.6140
3.190000 0.6210 0.6260 0.6350 0.6470 0.6540
3.228222 0.6660 0.6800 0.6960 0.7020 0.7080
3.267000 0.7240 0.7410 0.7650 0.7710 0.7770
3.305222 0.7840 0.7930 0.7960 0.8020 0.8050
3.343000 0.8110 0.8140 0.8220 0.8290 0.8320
3.381222 0.8370 0.8430 0.8470 0.8530 0.8560
3.419000 0.8600 0.8690 0.8740 0.8800 0.8840
3.457222 0.8890 0.8930 0.8960 0.8980 0.9010
3.496000 0.9040 0.9070 0.9080 0.9100 0.9100
3.534222 0.9100 0.9110 0.9140 0.9140 0.9160
3.572000 0.9170 0.9190 0.9200 0.9200 0.9220
3.610222 0.9230 0.9250 0.9280 0.9310 0.9340
3.649000 0.9350 0.9350 0.9370 0.9380 0.9380
3.687222 0.9400 0.9400 0.9410 0.9410 0.9430
3.725000 0.9430 0.9430 0.9440 0.9440 0.9460
3.763222 0.9460 0.9470 0.9470 0.9470 0.9490
3.801000 0.9490 0.9490 0.9500 0.9500 0.9500
3.839222 0.9520 0.9520 0.9530 0.9550 0.9550
3.878000 0.9550 0.9550 0.9550 0.9550 0.9550
3.916222 0.9550 0.9550 0.9550 0.9550 0.9550
3.954000 0.9550 0.9550 0.9550 0.9560 0.9580
3.992222 0.9580 0.9580 0.9580 0.9560 0.9560
4.031000 0.9560 0.9560 0.9560 0.9560 0.9560
4.069222 0.9580 0.9580 0.9580 0.9560 0.9560
4.107000 0.9560 0.9560 0.9560 0.9560 0.9560
4.145222 0.9580 0.9580 0.9580 0.9580 0.9580
4.183000 0.9580 0.9580 0.9580 0.9580 0.9580
4.221222 0.9580 0.9580 0.9580 0.9580 0.9580
4.260000 0.9580 0.9580 0.9580 0.9580 0.9580
4.298222 0.9580 0.9580 0.9590 0.9590 0.9590
4.336000 0.9580 0.9590 0.9590 0.9590 0.9580
4.374222 0.9580 0.9580 0.9580 0.9580 0.9580
4.413000 0.9580 0.9580 0.9580 0.9580 0.9580
4.451222 0.9580 0.9580 0.9580 0.9580 0.9580
4.489000 0.9580 0.9590 0.9580 0.9580 0.9590
4.527222 0.9590 0.9590 0.9590 0.9590 0.9580
4.565000 0.9560 0.9550 0.9530 0.9520 0.9520
4.603222 0.9520 0.9520 0.9520 0.9520 0.9520
4.642000 0.9520 0.9520 0.9520 0.9520 0.9520
4.680222 0.9520 0.9520 0.9520 0.9520 0.9520
4.718000 0.9520 0.9520 0.9520 0.9520 0.9520
4.756222 0.9520 0.9520 0.9520 0.9520 0.9520
4.795000 0.9520 0.9520 0.9520 0.9520 0.9520
4.833222 0.9520 0.9520 0.9520 0.9520 0.9520
4.871000 0.9520 0.9520 0.9530 0.9530 0.9530
4.909222 0.9550 0.9550 0.9550 0.9550 0.9560
4.947000 0.9560 0.9560 0.9560 0.9560 0.9560
4.985222 0.9560 0.9560 0.9560 0.9580 0.9580
5.024000 0.9580 0.9580 0.9580 0.9580 0.9580
5.062222 0.9580 0.9580 0.9580 0.9580 0.9580
5.100000 0.9580 0.9560 0.9530 0.9530 0.9520
5.138222 0.9500 0.9500 0.9500 0.9500 0.9500
5.177000 0.9500 0.9520 0.9520 0.9520 0.9520
5.215222 0.9520 0.9520 0.9530 0.9530 0.9530
5.253000 0.9530 0.9530 0.9530 0.9530 0.9530
5.291222 0.9550 0.9550 0.9550 0.9550 0.9550
5.329000 0.9550 0.9550 0.9550 0.9550 0.9550
5.367222 0.9550 0.9550 0.9530 0.9530 0.9550
5.406000 0.9550 0.9550 0.9550 0.9550 0.9550
5.444222 0.9560 0.9560 0.9560 0.9560 0.9560
5.482000 0.9560 0.9580 0.9580 0.9580 0.9560
5.520222 0.9560 0.9550 0.9550 0.9530 0.9520
5.559000 0.9520 0.9520 0.9500 0.9490 0.9470
5.597222 0.9440 0.9410 0.9400 0.9380 0.9370
5.635000 0.9350 0.9290 0.9260 0.9250 0.9230
5.673222 0.9230 0.9200 0.9190 0.9170 0.9130
5.711000 0.9080 0.9050 0.8990 0.8890 0.8810
5.749222 0.8710 0.8620 0.8430 0.8170 0.7960
5.788000 0.7780 0.7540 0.7480 0.7420 0.7270
5.826222 0.7010 0.6500 0.6080 0.5910 0.5720
5.864000 0.5420 0.5200 0.5050 0.4880 0.4480
5.902222 0.4280 0.3760 0.3480 0.3270 0.3090
5.941000 0.2610 0.2490 0.2370 0.2120 0.1910
5.979222 0.1740 0.1590 0.1470 0.1360 0.1220
6.017000 0.1070 0.0890 0.0770 0.0760 0.0740
6.055222 0.0730 0.0700 0.0640 0.0580 0.0500
6.093000 0.0460 0.0430 0.0410 0.0400 0.0370
6.131222 0.0350 0.0350 0.0350 0.0350 0.0350
6.170000 0.0350 0.0370 0.0400 0.0590 0.0790
6.208222 0.1210 0.1370 0.1790 0.2250 0.2890
6.246000 0.3070 0.3520 0.3940 0.4270 0.4580
6.284222 0.4840 0.5300 0.5450 0.5590 0.5730
6.323000 0.5940 0.6230 0.6390 0.6540 0.6690
6.361222 0.6830 0.6960 0.7040 0.7050 0.7070
6.399000 0.7180 0.7260 0.7360 0.7440 0.7470
6.437222 0.7630 0.7650 0.7660 0.7680 0.7680
6.475000 0.7720 0.7750 0.7810 0.7840 0.7890
6.513222 0.7920 0.7950 0.7960 0.7980 0.7990
6.552000 0.8020 0.8040 0.8050 0.8100 0.8160
6.590222 0.8190 0.8200 0.8230 0.8230 0.8250
6.628000 0.8320 0.8370 0.8400 0.8430 0.8430
6.666222 0.8470 0.8500 0.8530 0.8550 0.8550
6.705000 0.8560 0.8570 0.8570 0.8570 0.8570
6.743222 0.8560 0.8550 0.8530 0.8530 0.8530
6.781000 0.8530 0.8530 0.8530 0.8550 0.8530
6.819222 0.8530 0.8530 0.8530 0.8530 0.8530
6.857000 0.8530 0.8530 0.8520 0.8500 0.8470
6.895222 0.8440 0.8430 0.8400 0.8370 0.8350
6.934000 0.8340 0.8320 0.8320 0.8320 0.8320
6.972222 0.8320 0.8320 0.8340 0.8340 0.8350
7.010000 0.8350 0.8370 0.8380 0.8400 0.8430
7.048222 0.8440 0.8470 0.8490 0.8520 0.8550
7.087000 0.8570 0.8570 0.8590 0.8590 0.8600
7.125222 0.8600 0.8600 0.8620 0.8620 0.8630
7.163000 0.8620 0.8630 0.8630 0.8650 0.8650
7.201222 0.8650 0.8660 0.8660 0.8660 0.8660
7.239000 0.8630 0.8600 0.8530 0.8440 0.8340
7.277222 0.8220 0.7800 0.7510 0.7210 0.6900
7.316000 0.5970 0.5390 0.5120 0.4900 0.4660
7.354222 0.4450 0.4310 0.4300 0.4300 0.4960
7.392000 0.5600 0.5730 0.5930 0.6140 0.6260
7.430222 0.6420 0.6560 0.6620 0.6660 0.6690
7.469000 0.6770 0.6810 0.6830 0.6860 0.6860
7.507222 0.6780 0.6710 0.6410 0.6210 0.5900
7.545000 0.5660 0.5350 0.5090 0.4840 0.4600
7.583222 0.4370 0.4260 0.4210 0.4170 0.4180
7.621000 0.4340 0.4550 0.4820 0.5650 0.6050
7.659222 0.6230 0.6390 0.6510 0.6630 0.6800
7.698000 0.6930 0.7070 0.7260 0.7410 0.7660
7.736222 0.7800 0.7900 0.8010 0.8130 0.8230
7.774000 0.8320 0.8380 0.8460 0.8500 0.8570
7.812222 0.8650 0.8750 0.8780 0.8780 0.8830
7.851000 0.8860 0.8900 0.8930 0.8950 0.8960
7.889222 0.8980 0.9010 0.9040 0.9050 0.9070
7.927000 0.9070 0.9080 0.9100 0.9110 0.9130
7.965222 0.9130 0.9130 0.9140 0.9140 0.9140
8.003000 0.9160 0.9160 0.9170 0.9190 0.9190
8.041222 0.9200 0.9220 0.9220 0.9220 0.9230
8.080000 0.9230 0.9230 0.9230 0.9230 0.9250
8.118222 0.9230 0.9230 0.9250 0.9250 0.9250
8.156000 0.9250 0.9250 0.9230 0.9250 0.9250
8.194222 0.9250 0.9250 0.9250 0.9250 0.9250
8.233000 0.9250 0.9250 0.9250 0.9250 0.9250
8.271222 0.9260 0.9250 0.9250 0.9250 0.9260
8.309000 0.9260 0.9260 0.9260 0.9280 0.9280
8.347222 0.9280 0.9280 0.9280 0.9280 0.9280
8.385000 0.9290 0.9290 0.9290 0.9290 0.9290
8.423222 0.9290 0.9310 0.9310 0.9310 0.9320
8.462000 0.9320 0.9350 0.9370 0.9370 0.9370
8.500222 0.9370 0.9370 0.9370 0.9380 0.9380
8.538000 0.9380 0.9380 0.9370 0.9380 0.9380
8.576222 0.9380 0.9380 0.9380 0.9370 0.9370
8.615000 0.9370 0.9370 0.9370 0.9370 0.9370
8.653222 0.9370 0.9370 0.9370 0.9350 0.9350
8.691000 0.9350 0.9370 0.9370 0.9370 0.9370
8.729222 0.9370 0.9370 0.9370 0.9370 0.9370
8.767000 0.9370 0.9370 0.9370 0.9370 0.9370
8.805222 0.9370 0.9370 0.9370 0.9370 0.9370
8.844000 0.9370 0.9370 0.9370 0.9370 0.9370
8.882222 0.9370 0.9370 0.9350 0.9350 0.9350
8.920000 0.9350 0.9350 0.9350 0.9350 0.9350
8.958222 0.9370 0.9350 0.9350 0.9350 0.9370
8.997000 0.9370 0.9370 0.9370 0.9370 0.9380
9.035222 0.9380 0.9380 0.9380 0.9400 0.9400
9.073000 0.9400 0.9400 0.9400 0.9410 0.9410
9.111222 0.9410 0.9410 0.9430 0.9430 0.9430
9.149000 0.9430 0.9430 0.9430 0.9430 0.9440
9.187222 0.9440 0.9440 0.9430 0.9430 0.9430
9.226000 0.9440 0.9440 0.9440 0.9440 0.9440
9.264222 0.9440 0.9440 0.9440 0.9440 0.9440
9.302000 0.9440 0.9440 0.9440 0.9440 0.9440
9.340222 0.9440 0.9440 0.9440 0.9440 0.9440
9.379000 0.9460 0.9460 0.9460 0.9460 0.9460
9.417222 0.9460 0.9460 0.9460 0.9460 0.9460
9.455000 0.9460 0.9460 0.9460 0.9460 0.9460
9.493222 0.9470 0.9470 0.9470 0.9470 0.9460
9.531000 0.9470 0.9470 0.9470 0.9470 0.9470
9.569222 0.9470 0.9470 0.9470 0.9470 0.9490
9.608000 0.9490 0.9490 0.9490 0.9490 0.9490
9.646222 0.9490 0.9490 0.9490 0.9490 0.9490
9.684000 0.9490 0.9490 0.9490 0.9500 0.9500
9.722222 0.9500 0.9500 0.9500 0.9500 0.9500
9.761000 0.9500 0.9500 0.9500 0.9520 0.9520
9.799222 0.9500 0.9500 0.9500 0.9500 0.9520
9.837000 0.9520 0.9520 0.9500 0.9500 0.9500
9.875222 0.9500 0.9500 0.9500 0.9520 0.9520
9.913000 0.9500 0.9500 0.9520 0.9520 0.9500
9.951222 0.9500 0.9500 0.9500 0.9490 0.9490
9.990000 0.9490 0.9490 0.9490 0.9490 0.9490
10.028222 0.9490 0.9490 0.9490 0.9490 0.9500
10.066000 0.9500 0.9500 0.9500 0.9500 0.9520
10.104222 0.9500 0.9500 0.9500 0.9490 0.9490
10.143000 0.9490 0.9490 0.9490 0.9490 0.9490
10.181222 0.9490 0.9490 0.9470 0.9470 0.9470
10.219000 0.9470 0.9460 0.9460 0.9460 0.9460
10.257222 0.9460 0.9460 0.9460 0.9460 0.9460
10.295000 0.9460 0.9440 0.9440 0.9460 0.9440
10.333222 0.9440 0.9440 0.9440 0.9410 0.9400
10.372000 0.9400 0.9400 0.9400 0.9410 0.9410
10.410222 0.9410 0.9410 0.9410 0.9410 0.9410
10.448000 0.9410 0.9400 0.9400 0.9400 0.9380
10.486222 0.9380 0.9380 0.9380 0.9370 0.9370
10.525000 0.9380 0.9380 0.9380 0.9380 0.9380
10.563222 0.9370 0.9370 0.9350 0.9350 0.9350
10.601000 0.9350 0.9350 0.9350 0.9350 0.9340
10.639222 0.9340 0.9340 0.9320 0.9320 0.9320
10.677000 0.9310 0.9310 0.9280 0.9260 0.9250
10.715222 0.9230 0.9260 0.9280 0.9280 0.9280
10.754000 0.9280 0.9280 0.9260 0.9260 0.9250
10.792222 0.9230 0.9220 0.9190 0.9190 0.9190
10.830000 0.9200 0.9200 0.9170 0.9160 0.9160
10.868222 0.9140 0.9130 0.9130 0.9160 0.9170
10.907000 0.9170 0.9170 0.9160 0.9140 0.9140
10.945222 0.9130 0.9130 0.9140 0.9140 0.9140
10.983000 0.9140 0.9160 0.9160 0.9160 0.9160
11.021222 0.9160 0.9140 0.9140 0.9140 0.9140
11.059000 0.9140 0.9160 0.9160 0.9160 0.9160
11.097222 0.9160 0.9160 0.9160 0.9140 0.9140
11.136000 0.9140 0.9130 0.9130 0.9110 0.9110
11.174222 0.9100 0.9100 0.9100 0.9100 0.9080
11.212000 0.9080 0.9080 0.9080 0.9070 0.9070
11.250222 0.9070 0.9070 0.9070 0.9050 0.9050
11.289000 0.9050 0.9070 0.9070 0.9050 0.9050
11.327222 0.9050 0.9040 0.9020 0.9020 0.9020
11.365000 0.9010 0.8990 0.8990 0.8980 0.8980
11.403222 0.8980 0.8960 0.8960 0.8960 0.8950
11.441000 0.8950 0.8930 0.8890 0.8870 0.8860
11.479222 0.8840 0.8830 0.8830 0.8830 0.8810
11.518000 0.8810 0.8800 0.8780 0.8770 0.8750
11.556222 0.8720 0.8710 0.8680 0.8660 0.8650
11.594000 0.8620 0.8570 0.8560 0.8550 0.8520
11.632222 0.8490 0.8470 0.8440 0.8430 0.8400
11.671000 0.8380 0.8370 0.8340 0.8320 0.8290
11.709222 0.8260 0.8230 0.8200 0.8170 0.8110
11.747000 0.8070 0.8020 0.7990 0.7960 0.7890
11.785222 0.7840 0.7800 0.7720 0.7660 0.7650
11.823000 0.7620 0.7560 0.7540 0.7500 0.7470
11.861222 0.7440 0.7360 0.7300 0.7240 0.7180
11.900000 0.7140 0.7080 0.7010 0.6930 0.6860
11.938222 0.6800 0.6710 0.6630 0.6590 0.6530
11.976000 0.6500 0.6450 0.6420 0.6390 0.6350
12.014222 0.6320 0.6300 0.6270 0.6230 0.6210
12.053000 0.6200 0.6200 0.6180 0.6180 0.6170
12.091222 0.6170 0.6170 0.6170 0.6170 0.6150
12.129000 0.6150 0.6150 0.6140 0.6150 0.6150
12.167222 0.6150 0.6150 0.6170 0.6180 0.6200
12.205000 0.6210 0.6210 0.6230 0.6240 0.6260
12.243222 0.6260 0.6260 0.6290 0.6290 0.6290
12.282000 0.6290 0.6300 0.6300 0.6300 0.6300
12.320222 0.6300 0.6300 0.6300 0.6320 0.6320
12.358000 0.6330 0.6330 0.6330 0.6330 0.6320
12.396222 0.6320 0.6330 0.6330 0.6350 0.6350
12.435000 0.6350 0.6360 0.6360 0.6380 0.6380
12.473222 0.6380 0.6390 0.6390 0.6390 0.6410
12.511000 0.6410 0.6410 0.6420 0.6450 0.6470
12.549222 0.6500 0.6510 0.6530 0.6540 0.6540
12.587000 0.6570 0.6590 0.6600 0.6620 0.6630
12.625222 0.6650 0.6650 0.6660 0.6660 0.6680
12.664000 0.6680 0.6680 0.6690 0.6690 0.6710
12.702222 0.6720 0.6740 0.6750 0.6770 0.6780
12.740000 0.6780 0.6780 0.6800 0.6800 0.6800
12.778222 0.6800 0.6810 0.6810 0.6810 0.6830
12.817000 0.6840 0.6860 0.6890 0.6920 0.6920
12.855222 0.6920 0.6930 0.6930 0.6930 0.6950
12.893000 0.6950 0.6960 0.6960 0.6980 0.6990
12.931222 0.7020 0.7020 0.7020 0.7020 0.7020
12.969000 0.7040 0.7050 0.7050 0.7050 0.7050
13.007222 0.7050 0.7050 0.7070 0.7070 0.7050
13.046000 0.7050 0.7040 0.7040 0.7040 0.7040
13.084222 0.7040 0.7040 0.7020 0.7020 0.7020
13.122000 0.7020 0.7040 0.7040 0.7050 0.7050
13.160222 0.7050 0.7070 0.7070 0.7050 0.7050
13.199000 0.7050 0.7070 0.7070 0.7080 0.7080
13.237222 0.7100 0.7100 0.7110 0.7110 0.7130
13.275000 0.7130 0.7140 0.7150 0.7170 0.7170
13.313222 0.7180 0.7180 0.7180 0.7180 0.7180
13.351000 0.7180 0.7180 0.7200 0.7200 0.7210
13.389222 0.7230 0.7230 0.7230 0.7230 0.7230
13.428000 0.7230 0.7240 0.7240 0.7260 0.7260
13.466222 0.7260 0.7260 0.7260 0.7260 0.7260
13.504000 0.7260 0.7260 0.7270 0.7260 0.7260
13.542222 0.7260 0.7260 0.7260 0.7260 0.7260
13.581000 0.7270 0.7270 0.7270 0.7290 0.7270
13.619222 0.7300 0.7300 0.7320 0.7320 0.7320
13.657000 0.7320 0.7330 0.7330 0.7350 0.7350
13.695222 0.7350 0.7360 0.7360 0.7360 0.7380
13.733000 0.7380 0.7380 0.7380 0.7380 0.7380
13.771222 0.7390 0.7390 0.7390 0.7410 0.7410
13.810000 0.7410 0.7410 0.7420 0.7420 0.7420
13.848222 0.7440 0.7440 0.7440 0.7450 0.7450
13.886000 0.7450 0.7450 0.7470 0.7470 0.7470
13.924222 0.7480 0.7480 0.7480 0.7480 0.7480
13.963000 0.7480 0.7480 0.7480 0.7480 0.7480
14.001222 0.7480 0.7480 0.7480 0.7500 0.7500
14.039000 0.7500 0.7500 0.7500 0.7500 0.7500
14.077222 0.7500 0.7500 0.7500 0.7530 0.7530
14.115000 0.7530 0.7530 0.7530 0.7530 0.7540
14.153222 0.7540 0.7540 0.7540 0.7540 0.7540
14.192000 0.7540 0.7540 0.7540 0.7540 0.7540
14.230222 0.7540 0.7530 0.7530 0.7530 0.7530
14.268000 0.7540 0.7540 0.7540 0.7540 0.7540
14.306222 0.7540 0.7530 0.7530 0.7530 0.7530
14.345000 0.7530 0.7530 0.7530 0.7530 0.7530
14.383222 0.7530 0.7530 0.7530 0.7530 0.7540
14.421000 0.7540 0.7540 0.7540 0.7540 0.7540
14.459222 0.7540 0.7540 0.7540 0.7540 0.7540
14.497000 0.7540 0.7540 0.7560 0.7560 0.7560
14.535222 0.7560 0.7560 0.7560 0.7560 0.7560
14.574000 0.7560 0.7560 0.7560 0.7560 0.7560
14.612222 0.7560 0.7560 0.7560 0.7560 0.7560
14.650000 0.7560 0.7560 0.7560 0.7560 0.7560
14.688222 0.7560 0.7560 0.7560 0.7560 0.7560
14.727000 0.7540 0.7540 0.7540 0.7540 0.7540
14.765222 0.7560 0.7560 0.7560 0.7560 0.7560
14.803000 0.7560 0.7560 0.7560 0.7560 0.7560
14.841222 0.7560 0.7560 0.7540 0.7540 0.7540
14.879000 0.7540 0.7540 0.7560 0.7560 0.7560
14.917222 0.7560 0.7560 0.7560 0.7560 0.7560
14.956000 0.7560 0.7560 0.7560 0.7560 0.7560
14.994222 0.7560 0.7570 0.7560 0.7560 0.7560
15.032000 0.7560 0.7560 0.7560 0.7560 0.7560
15.070222 0.7560 0.7560 0.7560 0.7560 0.7560
15.109000 0.7560 0.7560 0.7560 0.7560 0.7570
15.147222 0.7570 0.7570 0.7570 0.7570 0.7570
15.185000 0.7570 0.7570 0.7570 0.7590 0.7590
15.223222 0.7600 0.7600 0.7600 0.7600 0.7590
15.261000 0.7590 0.7590 0.7590 0.7590 0.7590
15.299222 0.7600 0.7600 0.7600 0.7620 0.7620
15.338000 0.7630 0.7630 0.7630 0.7630 0.7630
15.376222 0.7630 0.7630 0.7650 0.8600 0.7630
15.414000 0.7630
##END=
