##TITLE=Aniline, 2-tert-butyl-4-chloro-
##JCAMP-DX=4.24
##DATA TYPE=INFRARED SPECTRUM
##CLASS=COBLENTZ III
##ORIGIN=MONSANTO (J. FREEMAN)
##OWNER=Copyright (C) 1987 by the Coblentz Society
Collection (C) 2018 copyright by the U.S. Secretary of Commerce
on behalf of the United States of America. All rights reserved.
##DATE=1959/06/09
##NAMES=2-tert-butyl-4-chlorophenylamine
2-tert-butyl-4-chloroaniline
##MOLFORM=C10 H14 Cl N
##SOURCE REFERENCE=COBLENTZ NO. 8509
##$NIST ID=B6008509
##$NIST SOURCE=COBLENTZ
##$NIST IMAGE=cob8509
##SPECTROMETER/DATA SYSTEM=BECKMAN IR-4 (HYBRID PRISM-GRATING)
##INSTRUMENT PARAMETERS=NaCl PRISM
##STATE=LIQUID (NEAT)
##PATH LENGTH=0.0013 CM CELL
##SAMPLING PROCEDURE=TRANSMISSION
##RESOLUTION=2
##DATA PROCESSING=DIGITIZED BY COBLENTZ SOCIETY (BATCH II) FROM HARD COPY
##XUNITS=1/CM
##YUNITS=TRANSMITTANCE
##XFACTOR=1.0
##YFACTOR=1
##FIRSTX=627
##LASTX=4000
##FIRSTY=0.4177
##MAXX=4000
##MINX=627
##MAXY=0.9416
##MINY=0.0297
##NPOINTS=3374
##XYDATA=(X++(Y..Y))
627.000000 0.4177 0.4106 0.4051 0.4010 0.3977
632.000000 0.3946 0.3917 0.3896 0.3912 0.3867
637.000000 0.3861 0.3862 0.3856 0.3844 0.3826
642.000000 0.3815 0.3804 0.3792 0.3780 0.3769
647.000000 0.3754 0.3739 0.3682 0.3605 0.3512
652.000000 0.3410 0.3321 0.3244 0.3168 0.3081
657.000000 0.3063 0.3123 0.3433 0.3896 0.4359
662.000000 0.4787 0.5144 0.5531 0.5649 0.5707
667.000000 0.5741 0.5771 0.5820 0.5892 0.5960
672.000000 0.6020 0.6057 0.6077 0.6083 0.6075
677.000000 0.6097 0.6046 0.6042 0.6072 0.6088
682.000000 0.6072 0.6030 0.6027 0.6027 0.6028
687.000000 0.6029 0.6028 0.6024 0.6021 0.6016
692.000000 0.6013 0.6009 0.6000 0.5990 0.5978
697.000000 0.5967 0.5953 0.5938 0.5924 0.5900
702.000000 0.5876 0.5839 0.5792 0.5736 0.5666
707.000000 0.5553 0.5417 0.5269 0.5117 0.4967
712.000000 0.4800 0.4642 0.4488 0.4331 0.4297
717.000000 0.4345 0.4559 0.5012 0.5464 0.5914
722.000000 0.6314 0.6562 0.6878 0.7073 0.7217
727.000000 0.7306 0.7362 0.7387 0.7408 0.7429
732.000000 0.7445 0.7460 0.7473 0.7479 0.7486
737.000000 0.7491 0.7489 0.7486 0.7477 0.7467
742.000000 0.7463 0.7458 0.7454 0.7453 0.7456
747.000000 0.7458 0.7460 0.7468 0.7477 0.7486
752.000000 0.7495 0.7508 0.7522 0.7534 0.7540
757.000000 0.7523 0.7501 0.7479 0.7464 0.7454
762.000000 0.7490 0.7579 0.7609 0.7610 0.7605
767.000000 0.7597 0.7588 0.7563 0.7537 0.7597
772.000000 0.7685 0.7698 0.7693 0.7687 0.7761
777.000000 0.7816 0.7817 0.7806 0.7776 0.7761
782.000000 0.7787 0.7854 0.7820 0.7809 0.7797
787.000000 0.7783 0.7767 0.7747 0.7723 0.7697
792.000000 0.7659 0.7613 0.7549 0.7447 0.7307
797.000000 0.7155 0.6983 0.6649 0.6367 0.6090
802.000000 0.5817 0.5310 0.4773 0.4237 0.3624
807.000000 0.3002 0.2647 0.2039 0.1753 0.1573
812.000000 0.1435 0.1347 0.1297 0.1285 0.1307
817.000000 0.1451 0.1757 0.1950 0.2129 0.2301
822.000000 0.2544 0.2920 0.3294 0.3668 0.4013
827.000000 0.4340 0.4881 0.5235 0.5485 0.5714
832.000000 0.5901 0.6063 0.6222 0.6383 0.6519
837.000000 0.6629 0.6743 0.6862 0.6977 0.7085
842.000000 0.7168 0.7240 0.7301 0.7363 0.7410
847.000000 0.7457 0.7502 0.7538 0.7575 0.7611
852.000000 0.7641 0.7670 0.7697 0.7724 0.7751
857.000000 0.7777 0.7803 0.7828 0.7852 0.7875
862.000000 0.7890 0.7917 0.7897 0.7869 0.7812
867.000000 0.7712 0.7605 0.7447 0.7097 0.6795
872.000000 0.6095 0.5317 0.4541 0.3767 0.2994
877.000000 0.2224 0.1576 0.1397 0.1362 0.1438
882.000000 0.1872 0.2336 0.2799 0.3261 0.3722
887.000000 0.4183 0.4642 0.5100 0.5556 0.6012
892.000000 0.6374 0.6600 0.6749 0.6912 0.7068
897.000000 0.7181 0.7269 0.7320 0.7369 0.7398
902.000000 0.7423 0.7446 0.7470 0.7495 0.7529
907.000000 0.7577 0.7629 0.7700 0.7773 0.7823
912.000000 0.7874 0.7922 0.7967 0.8011 0.8034
917.000000 0.8057 0.8066 0.8062 0.8055 0.8030
922.000000 0.7985 0.7926 0.7883 0.7840 0.7796
927.000000 0.7754 0.7710 0.7666 0.7621 0.7574
932.000000 0.7539 0.7529 0.7499 0.7569 0.7621
937.000000 0.7720 0.7814 0.7912 0.8028 0.8131
942.000000 0.8203 0.8259 0.8303 0.8345 0.8385
947.000000 0.8413 0.8435 0.8451 0.8458 0.8465
952.000000 0.8470 0.8473 0.8476 0.8479 0.8480
957.000000 0.8483 0.8485 0.8487 0.8500 0.8513
962.000000 0.8526 0.8544 0.8565 0.8585 0.8606
967.000000 0.8626 0.8646 0.8666 0.8685 0.8705
972.000000 0.8723 0.8729 0.8734 0.8740 0.8746
977.000000 0.8752 0.8757 0.8763 0.8768 0.8775
982.000000 0.8778 0.8781 0.8784 0.8786 0.8789
987.000000 0.8792 0.8792 0.8793 0.8793 0.8793
992.000000 0.8794 0.8794 0.8794 0.8791 0.8789
997.000000 0.8806 0.8784 0.8781 0.8779 0.8776
1002.000000 0.8771 0.8763 0.8756 0.8748 0.8741
1007.000000 0.8732 0.8723 0.8715 0.8706 0.8695
1012.000000 0.8685 0.8633 0.8567 0.8468 0.8330
1017.000000 0.8178 0.8024 0.7893 0.7557 0.7447
1022.000000 0.7428 0.7422 0.7641 0.7789 0.7938
1027.000000 0.8037 0.8065 0.8069 0.8067 0.8059
1032.000000 0.8040 0.8029 0.8023 0.8028 0.8053
1037.000000 0.8085 0.8111 0.8134 0.8124 0.8129
1042.000000 0.8110 0.8080 0.8010 0.7941 0.7879
1047.000000 0.7805 0.7726 0.7669 0.7615 0.7570
1052.000000 0.7537 0.7504 0.7474 0.7451 0.7436
1057.000000 0.7413 0.7489 0.7523 0.7558 0.7597
1062.000000 0.7637 0.7676 0.7729 0.7781 0.7835
1067.000000 0.7930 0.8030 0.8093 0.8147 0.8170
1072.000000 0.8177 0.8171 0.8162 0.8150 0.8133
1077.000000 0.8106 0.8081 0.8082 0.8095 0.8091
1082.000000 0.8094 0.8097 0.8099 0.8101 0.8103
1087.000000 0.8106 0.8099 0.8077 0.8032 0.7977
1092.000000 0.7917 0.7813 0.7710 0.7618 0.7529
1097.000000 0.7442 0.7355 0.7266 0.7160 0.7049
1102.000000 0.6943 0.6853 0.6775 0.6746 0.6735
1107.000000 0.6729 0.6721 0.6714 0.6707 0.6669
1112.000000 0.6496 0.6329 0.5640 0.5219 0.4799
1117.000000 0.4381 0.3963 0.3545 0.3211 0.3132
1122.000000 0.3138 0.3275 0.3987 0.4731 0.5474
1127.000000 0.6216 0.6679 0.6844 0.7270 0.7561
1132.000000 0.7790 0.7947 0.8040 0.8107 0.8143
1137.000000 0.8178 0.8197 0.8212 0.8213 0.8215
1142.000000 0.8202 0.8179 0.8121 0.8055 0.7972
1147.000000 0.7863 0.7682 0.7106 0.6706 0.6287
1152.000000 0.5868 0.5450 0.5033 0.4617 0.4248
1157.000000 0.4201 0.4676 0.5164 0.5651 0.6138
1162.000000 0.6623 0.7107 0.7737 0.7898 0.8003
1167.000000 0.8114 0.8227 0.8338 0.8420 0.8493
1172.000000 0.8524 0.8554 0.8584 0.8607 0.8624
1177.000000 0.8641 0.8658 0.8670 0.8674 0.8679
1182.000000 0.8683 0.8686 0.8709 0.8680 0.8672
1187.000000 0.8661 0.8646 0.8625 0.8590 0.8544
1192.000000 0.8493 0.8430 0.8346 0.8253 0.8160
1197.000000 0.8064 0.7968 0.7838 0.7670 0.7176
1202.000000 0.6944 0.6896 0.6850 0.6829 0.6842
1207.000000 0.7046 0.7267 0.7487 0.7693 0.7812
1212.000000 0.7920 0.7998 0.8060 0.8106 0.8140
1217.000000 0.8149 0.8152 0.8165 0.8134 0.8117
1222.000000 0.8094 0.8060 0.7988 0.7894 0.7765
1227.000000 0.7663 0.7564 0.7404 0.7306 0.7246
1232.000000 0.7198 0.7164 0.7131 0.7100 0.7067
1237.000000 0.7012 0.6913 0.6772 0.6607 0.6457
1242.000000 0.6329 0.6103 0.5703 0.5295 0.4862
1247.000000 0.4545 0.4394 0.4130 0.3617 0.3105
1252.000000 0.2594 0.2083 0.1629 0.1456 0.1396
1257.000000 0.1334 0.1255 0.1171 0.1163 0.1166
1262.000000 0.1374 0.1693 0.2011 0.2329 0.2647
1267.000000 0.2964 0.3280 0.3596 0.3911 0.4226
1272.000000 0.4541 0.4854 0.5168 0.5481 0.5793
1277.000000 0.6054 0.6074 0.6070 0.6061 0.5801
1282.000000 0.5477 0.5154 0.4831 0.4508 0.4187
1287.000000 0.3865 0.3545 0.3224 0.2904 0.2585
1292.000000 0.2266 0.2017 0.1978 0.2032 0.2337
1297.000000 0.2715 0.3092 0.3469 0.3845 0.4220
1302.000000 0.4594 0.4969 0.5342 0.5715 0.6041
1307.000000 0.6163 0.6232 0.6313 0.6395 0.6458
1312.000000 0.6522 0.6621 0.6670 0.6718 0.6809
1317.000000 0.6928 0.7055 0.7218 0.7772 0.8043
1322.000000 0.8257 0.8356 0.8425 0.8470 0.8516
1327.000000 0.8561 0.8608 0.8656 0.8702 0.8740
1332.000000 0.8763 0.8785 0.8807 0.8829 0.8850
1337.000000 0.8871 0.8885 0.8899 0.8913 0.8927
1342.000000 0.8937 0.8944 0.8952 0.8959 0.8965
1347.000000 0.8966 0.8965 0.8965 0.8971 0.8958
1352.000000 0.8952 0.8945 0.8935 0.8919 0.8902
1357.000000 0.8877 0.8841 0.8803 0.8761 0.8716
1362.000000 0.8658 0.8597 0.8495 0.8391 0.8291
1367.000000 0.8181 0.8052 0.7883 0.7623 0.7442
1372.000000 0.7219 0.6346 0.5038 0.3733 0.3424
1377.000000 0.3425 0.3437 0.3440 0.4042 0.4406
1382.000000 0.4770 0.5134 0.5497 0.5859 0.6222
1387.000000 0.6582 0.6943 0.7211 0.7250 0.7236
1392.000000 0.7267 0.7263 0.7252 0.7224 0.7069
1397.000000 0.6730 0.6249 0.5768 0.5288 0.4808
1402.000000 0.4329 0.3851 0.3407 0.3177 0.3049
1407.000000 0.2826 0.2596 0.2367 0.2138 0.1909
1412.000000 0.1680 0.1452 0.1225 0.1182 0.1190
1417.000000 0.1583 0.1986 0.2389 0.2792 0.3194
1422.000000 0.3595 0.3996 0.4396 0.4795 0.5195
1427.000000 0.5593 0.5991 0.6389 0.6786 0.7029
1432.000000 0.7117 0.7241 0.7347 0.7425 0.7460
1437.000000 0.7450 0.7468 0.7464 0.7451 0.7424
1442.000000 0.7384 0.7346 0.7304 0.7262 0.7207
1447.000000 0.7116 0.6910 0.6693 0.6476 0.6259
1452.000000 0.6043 0.5828 0.5612 0.5396 0.5181
1457.000000 0.4967 0.4753 0.4538 0.4324 0.4111
1462.000000 0.3909 0.3775 0.3635 0.3498 0.3371
1467.000000 0.3245 0.3119 0.2994 0.2869 0.2744
1472.000000 0.2629 0.2592 0.2592 0.2589 0.2643
1477.000000 0.2679 0.2715 0.2750 0.2786 0.2805
1482.000000 0.2801 0.2769 0.2808 0.2415 0.2222
1487.000000 0.2029 0.1837 0.1644 0.1452 0.1260
1492.000000 0.1069 0.0870 0.0726 0.0645 0.0595
1497.000000 0.0552 0.0507 0.0448 0.0383 0.0327
1502.000000 0.0308 0.0301 0.0301 0.0297 0.0308
1507.000000 0.0357 0.0760 0.1162 0.1564 0.1965
1512.000000 0.2366 0.2766 0.3165 0.3498 0.3657
1517.000000 0.3847 0.4039 0.4230 0.4421 0.4611
1522.000000 0.4802 0.4993 0.5183 0.5372 0.5498
1527.000000 0.5559 0.5747 0.5846 0.5950 0.6087
1532.000000 0.6234 0.6418 0.6711 0.7051 0.7422
1537.000000 0.7516 0.7600 0.7674 0.7744 0.7812
1542.000000 0.7861 0.7902 0.7942 0.7982 0.8014
1547.000000 0.8032 0.8050 0.8066 0.8083 0.8100
1552.000000 0.8116 0.8130 0.8144 0.8158 0.8172
1557.000000 0.8186 0.8201 0.8218 0.8238 0.8257
1562.000000 0.8273 0.8280 0.8283 0.8286 0.8311
1567.000000 0.8285 0.8281 0.8264 0.8228 0.8187
1572.000000 0.8146 0.8105 0.8064 0.8024 0.7983
1577.000000 0.7942 0.7901 0.7888 0.7890 0.7903
1582.000000 0.7923 0.7940 0.7952 0.7963 0.7971
1587.000000 0.7976 0.7959 0.7889 0.7799 0.7708
1592.000000 0.7617 0.7526 0.7436 0.7346 0.7256
1597.000000 0.7166 0.7075 0.6985 0.6896 0.6807
1602.000000 0.6717 0.6627 0.6538 0.6463 0.6418
1607.000000 0.6380 0.6322 0.6257 0.6192 0.6113
1612.000000 0.5974 0.5824 0.5619 0.5233 0.4964
1617.000000 0.4688 0.4386 0.4142 0.3906 0.3671
1622.000000 0.3436 0.3202 0.2968 0.2733 0.2499
1627.000000 0.2265 0.2032 0.1799 0.1567 0.1334
1632.000000 0.1105 0.0915 0.0920 0.0913 0.0917
1637.000000 0.1015 0.1228 0.1466 0.1704 0.1941
1642.000000 0.2178 0.2415 0.2651 0.2887 0.3123
1647.000000 0.3359 0.3594 0.3829 0.4064 0.4298
1652.000000 0.4532 0.4766 0.5000 0.5233 0.5456
1657.000000 0.5631 0.5718 0.5772 0.5826 0.5884
1662.000000 0.5951 0.6020 0.6093 0.6172 0.6255
1667.000000 0.6390 0.6607 0.6730 0.6835 0.6954
1672.000000 0.7107 0.7201 0.7268 0.7325 0.7370
1677.000000 0.7407 0.7444 0.7481 0.7519 0.7559
1682.000000 0.7605 0.7652 0.7700 0.7758 0.7831
1687.000000 0.7904 0.7977 0.8051 0.8119 0.8179
1692.000000 0.8235 0.8291 0.8344 0.8389 0.8427
1697.000000 0.8465 0.8504 0.8559 0.8640 0.8724
1702.000000 0.8779 0.8830 0.8883 0.8937 0.8970
1707.000000 0.8990 0.9008 0.9026 0.9043 0.9060
1712.000000 0.9070 0.9080 0.9090 0.9100 0.9108
1717.000000 0.9114 0.9118 0.9120 0.9124 0.9127
1722.000000 0.9129 0.9132 0.9135 0.9138 0.9141
1727.000000 0.9144 0.9146 0.9149 0.9151 0.9154
1732.000000 0.9156 0.9159 0.9167 0.9184 0.9202
1737.000000 0.9221 0.9236 0.9250 0.9263 0.9277
1742.000000 0.9290 0.9277 0.9295 0.9294 0.9291
1747.000000 0.9281 0.9270 0.9260 0.9249 0.9237
1752.000000 0.9223 0.9205 0.9187 0.9170 0.9152
1757.000000 0.9134 0.9117 0.9099 0.9082 0.9063
1762.000000 0.9041 0.9018 0.8994 0.8971 0.8947
1767.000000 0.8921 0.8896 0.8879 0.8868 0.8860
1772.000000 0.8854 0.8854 0.8826 0.8860 0.8863
1777.000000 0.8867 0.8875 0.8883 0.8891 0.8898
1782.000000 0.8907 0.8924 0.8940 0.8957 0.8973
1787.000000 0.8991 0.9006 0.9022 0.9039 0.9054
1792.000000 0.9070 0.9086 0.9103 0.9120 0.9137
1797.000000 0.9154 0.9171 0.9189 0.9209 0.9229
1802.000000 0.9246 0.9254 0.9255 0.9255 0.9256
1807.000000 0.9258 0.9257 0.9255 0.9255 0.9253
1812.000000 0.9252 0.9250 0.9250 0.9248 0.9244
1817.000000 0.9240 0.9235 0.9230 0.9225 0.9221
1822.000000 0.9216 0.9211 0.9206 0.9201 0.9195
1827.000000 0.9190 0.9184 0.9179 0.9173 0.9168
1832.000000 0.9163 0.9159 0.9159 0.9158 0.9157
1837.000000 0.9155 0.9155 0.9154 0.9154 0.9156
1842.000000 0.9159 0.9163 0.9166 0.9169 0.9172
1847.000000 0.9175 0.9177 0.9177 0.9179 0.9180
1852.000000 0.9182 0.9182 0.9184 0.9185 0.9186
1857.000000 0.9181 0.9175 0.9168 0.9161 0.9154
1862.000000 0.9144 0.9131 0.9118 0.9105 0.9092
1867.000000 0.9079 0.9064 0.9045 0.9024 0.9003
1872.000000 0.8982 0.8961 0.8940 0.8917 0.8893
1877.000000 0.8869 0.8844 0.8831 0.8823 0.8814
1882.000000 0.8806 0.8799 0.8793 0.8793 0.8793
1887.000000 0.8794 0.8794 0.8778 0.8796 0.8798
1892.000000 0.8805 0.8812 0.8819 0.8826 0.8835
1897.000000 0.8848 0.8872 0.8891 0.8909 0.8925
1902.000000 0.8941 0.8958 0.8978 0.8997 0.9016
1907.000000 0.9036 0.9054 0.9072 0.9089 0.9107
1912.000000 0.9123 0.9138 0.9151 0.9163 0.9174
1917.000000 0.9181 0.9186 0.9191 0.9196 0.9201
1922.000000 0.9206 0.9211 0.9216 0.9221 0.9223
1927.000000 0.9225 0.9227 0.9229 0.9231 0.9234
1932.000000 0.9237 0.9239 0.9241 0.9243 0.9245
1937.000000 0.9247 0.9249 0.9251 0.9254 0.9256
1942.000000 0.9257 0.9258 0.9260 0.9262 0.9264
1947.000000 0.9265 0.9267 0.9269 0.9271 0.9273
1952.000000 0.9275 0.9276 0.9278 0.9280 0.9282
1957.000000 0.9284 0.9286 0.9287 0.9289 0.9291
1962.000000 0.9292 0.9293 0.9294 0.9294 0.9295
1967.000000 0.9296 0.9296 0.9297 0.9297 0.9298
1972.000000 0.9299 0.9299 0.9300 0.9301 0.9301
1977.000000 0.9302 0.9303 0.9303 0.9303 0.9304
1982.000000 0.9304 0.9305 0.9305 0.9305 0.9306
1987.000000 0.9306 0.9306 0.9306 0.9306 0.9307
1992.000000 0.9307 0.9307 0.9308 0.9308 0.9308
1997.000000 0.9308 0.9308 0.9309 0.9309 0.9309
2002.000000 0.9310 0.9310 0.9311 0.9311 0.9311
2007.000000 0.9312 0.9312 0.9313 0.9313 0.9314
2012.000000 0.9315 0.9317 0.9319 0.9320 0.9321
2017.000000 0.9323 0.9325 0.9327 0.9329 0.9330
2022.000000 0.9332 0.9334 0.9336 0.9338 0.9340
2027.000000 0.9344 0.9348 0.9353 0.9357 0.9361
2032.000000 0.9366 0.9371 0.9376 0.9381 0.9387
2037.000000 0.9392 0.9395 0.9396 0.9398 0.9399
2042.000000 0.9400 0.9401 0.9401 0.9401 0.9400
2047.000000 0.9400 0.9400 0.9400 0.9399 0.9399
2052.000000 0.9399 0.9398 0.9397 0.9396 0.9395
2057.000000 0.9395 0.9394 0.9394 0.9393 0.9392
2062.000000 0.9391 0.9390 0.9390 0.9389 0.9389
2067.000000 0.9387 0.9386 0.9386 0.9385 0.9385
2072.000000 0.9384 0.9383 0.9383 0.9382 0.9382
2077.000000 0.9381 0.9380 0.9379 0.9378 0.9378
2082.000000 0.9377 0.9377 0.9376 0.9376 0.9375
2087.000000 0.9374 0.9374 0.9373 0.9372 0.9371
2092.000000 0.9371 0.9370 0.9369 0.9369 0.9369
2097.000000 0.9369 0.9370 0.9370 0.9370 0.9370
2102.000000 0.9370 0.9370 0.9370 0.9370 0.9370
2107.000000 0.9370 0.9370 0.9370 0.9370 0.9370
2112.000000 0.9370 0.9370 0.9371 0.9371 0.9371
2117.000000 0.9371 0.9371 0.9371 0.9371 0.9371
2122.000000 0.9371 0.9371 0.9371 0.9371 0.9371
2127.000000 0.9371 0.9372 0.9372 0.9372 0.9372
2132.000000 0.9372 0.9372 0.9372 0.9372 0.9372
2137.000000 0.9372 0.9372 0.9372 0.9372 0.9372
2142.000000 0.9372 0.9372 0.9372 0.9373 0.9373
2147.000000 0.9373 0.9373 0.9373 0.9373 0.9373
2152.000000 0.9373 0.9373 0.9373 0.9373 0.9373
2157.000000 0.9373 0.9373 0.9373 0.9373 0.9374
2162.000000 0.9374 0.9373 0.9373 0.9372 0.9372
2167.000000 0.9372 0.9372 0.9371 0.9371 0.9370
2172.000000 0.9370 0.9369 0.9369 0.9369 0.9368
2177.000000 0.9368 0.9367 0.9367 0.9366 0.9366
2182.000000 0.9366 0.9366 0.9365 0.9365 0.9364
2187.000000 0.9364 0.9363 0.9363 0.9363 0.9363
2192.000000 0.9362 0.9361 0.9361 0.9360 0.9360
2197.000000 0.9360 0.9360 0.9359 0.9359 0.9358
2202.000000 0.9358 0.9358 0.9359 0.9360 0.9360
2207.000000 0.9361 0.9362 0.9363 0.9363 0.9364
2212.000000 0.9364 0.9365 0.9366 0.9367 0.9367
2217.000000 0.9368 0.9369 0.9370 0.9370 0.9371
2222.000000 0.9371 0.9372 0.9373 0.9374 0.9374
2227.000000 0.9375 0.9375 0.9376 0.9377 0.9378
2232.000000 0.9379 0.9380 0.9381 0.9374 0.9383
2237.000000 0.9384 0.9385 0.9386 0.9387 0.9389
2242.000000 0.9390 0.9391 0.9392 0.9393 0.9394
2247.000000 0.9395 0.9396 0.9397 0.9398 0.9399
2252.000000 0.9400 0.9401 0.9402 0.9404 0.9405
2257.000000 0.9406 0.9407 0.9408 0.9408 0.9409
2262.000000 0.9409 0.9410 0.9410 0.9411 0.9412
2267.000000 0.9413 0.9413 0.9414 0.9414 0.9415
2272.000000 0.9415 0.9416 0.9416 0.9415 0.9415
2277.000000 0.9415 0.9415 0.9415 0.9415 0.9415
2282.000000 0.9414 0.9414 0.9414 0.9414 0.9414
2287.000000 0.9414 0.9413 0.9413 0.9411 0.9408
2292.000000 0.9404 0.9400 0.9396 0.9392 0.9388
2297.000000 0.9385 0.9381 0.9377 0.9373 0.9371
2302.000000 0.9369 0.9367 0.9365 0.9363 0.9361
2307.000000 0.9359 0.9358 0.9356 0.9355 0.9353
2312.000000 0.9351 0.9350 0.9348 0.9346 0.9345
2317.000000 0.9343 0.9342 0.9340 0.9338 0.9336
2322.000000 0.9336 0.9336 0.9336 0.9336 0.9335
2327.000000 0.9335 0.9335 0.9335 0.9334 0.9334
2332.000000 0.9334 0.9334 0.9334 0.9334 0.9334
2337.000000 0.9334 0.9334 0.9334 0.9334 0.9334
2342.000000 0.9334 0.9334 0.9335 0.9335 0.9335
2347.000000 0.9335 0.9335 0.9335 0.9336 0.9336
2352.000000 0.9336 0.9336 0.9336 0.9337 0.9337
2357.000000 0.9337 0.9337 0.9337 0.9337 0.9338
2362.000000 0.9338 0.9338 0.9338 0.9338 0.9339
2367.000000 0.9339 0.9340 0.9341 0.9342 0.9343
2372.000000 0.9344 0.9344 0.9344 0.9345 0.9346
2377.000000 0.9347 0.9348 0.9349 0.9349 0.9350
2382.000000 0.9350 0.9351 0.9352 0.9353 0.9354
2387.000000 0.9354 0.9355 0.9356 0.9356 0.9357
2392.000000 0.9358 0.9359 0.9359 0.9360 0.9361
2397.000000 0.9363 0.9364 0.9366 0.9368 0.9370
2402.000000 0.9372 0.9374 0.9376 0.9378 0.9380
2407.000000 0.9382 0.9384 0.9385 0.9387 0.9389
2412.000000 0.9391 0.9393 0.9395 0.9397 0.9398
2417.000000 0.9398 0.9398 0.9398 0.9398 0.9397
2422.000000 0.9397 0.9397 0.9397 0.9397 0.9397
2427.000000 0.9397 0.9396 0.9396 0.9396 0.9396
2432.000000 0.9395 0.9395 0.9395 0.9395 0.9395
2437.000000 0.9395 0.9395 0.9395 0.9394 0.9394
2442.000000 0.9394 0.9394 0.9394 0.9394 0.9394
2447.000000 0.9393 0.9393 0.9393 0.9393 0.9392
2452.000000 0.9392 0.9392 0.9392 0.9392 0.9392
2457.000000 0.9392 0.9392 0.9391 0.9391 0.9391
2462.000000 0.9391 0.9391 0.9391 0.9391 0.9390
2467.000000 0.9390 0.9390 0.9390 0.9390 0.9390
2472.000000 0.9390 0.9389 0.9389 0.9389 0.9389
2477.000000 0.9389 0.9389 0.9389 0.9389 0.9388
2482.000000 0.9388 0.9388 0.9388 0.9388 0.9388
2487.000000 0.9388 0.9387 0.9387 0.9387 0.9387
2492.000000 0.9387 0.9387 0.9387 0.9387 0.9387
2497.000000 0.9387 0.9386 0.9386 0.9386 0.9386
2502.000000 0.9386 0.9386 0.9386 0.9386 0.9386
2507.000000 0.9386 0.9386 0.9386 0.9386 0.9385
2512.000000 0.9385 0.9385 0.9385 0.9385 0.9385
2517.000000 0.9385 0.9385 0.9385 0.9385 0.9384
2522.000000 0.9384 0.9384 0.9384 0.9384 0.9384
2527.000000 0.9384 0.9384 0.9384 0.9384 0.9383
2532.000000 0.9383 0.9383 0.9383 0.9383 0.9383
2537.000000 0.9383 0.9383 0.9382 0.9381 0.9380
2542.000000 0.9378 0.9377 0.9376 0.9374 0.9373
2547.000000 0.9372 0.9371 0.9370 0.9369 0.9368
2552.000000 0.9366 0.9364 0.9363 0.9362 0.9361
2557.000000 0.9360 0.9358 0.9357 0.9356 0.9355
2562.000000 0.9354 0.9352 0.9351 0.9349 0.9348
2567.000000 0.9347 0.9345 0.9343 0.9341 0.9339
2572.000000 0.9338 0.9336 0.9334 0.9332 0.9330
2577.000000 0.9328 0.9326 0.9324 0.9322 0.9321
2582.000000 0.9319 0.9317 0.9315 0.9314 0.9312
2587.000000 0.9310 0.9308 0.9307 0.9305 0.9303
2592.000000 0.9301 0.9299 0.9297 0.9295 0.9294
2597.000000 0.9292 0.9290 0.9288 0.9288 0.9288
2602.000000 0.9288 0.9288 0.9288 0.9287 0.9287
2607.000000 0.9287 0.9287 0.9287 0.9286 0.9286
2612.000000 0.9286 0.9285 0.9285 0.9285 0.9285
2617.000000 0.9285 0.9284 0.9284 0.9284 0.9284
2622.000000 0.9284 0.9284 0.9283 0.9283 0.9283
2627.000000 0.9284 0.9286 0.9288 0.9289 0.9291
2632.000000 0.9292 0.9294 0.9296 0.9298 0.9299
2637.000000 0.9301 0.9303 0.9305 0.9307 0.9308
2642.000000 0.9310 0.9312 0.9314 0.9316 0.9317
2647.000000 0.9319 0.9320 0.9322 0.9324 0.9325
2652.000000 0.9326 0.9328 0.9329 0.9329 0.9330
2657.000000 0.9331 0.9331 0.9332 0.9333 0.9334
2662.000000 0.9335 0.9336 0.9337 0.9337 0.9338
2667.000000 0.9338 0.9338 0.9339 0.9339 0.9339
2672.000000 0.9339 0.9339 0.9339 0.9339 0.9339
2677.000000 0.9340 0.9340 0.9340 0.9340 0.9340
2682.000000 0.9340 0.9341 0.9341 0.9341 0.9341
2687.000000 0.9341 0.9341 0.9342 0.9342 0.9342
2692.000000 0.9342 0.9342 0.9342 0.9342 0.9342
2697.000000 0.9343 0.9343 0.9343 0.9343 0.9343
2702.000000 0.9343 0.9344 0.9344 0.9344 0.9345
2707.000000 0.9345 0.9345 0.9346 0.9346 0.9346
2712.000000 0.9346 0.9346 0.9346 0.9345 0.9344
2717.000000 0.9344 0.9343 0.9342 0.9342 0.9341
2722.000000 0.9340 0.9340 0.9338 0.9337 0.9335
2727.000000 0.9333 0.9332 0.9330 0.9328 0.9327
2732.000000 0.9325 0.9323 0.9322 0.9320 0.9318
2737.000000 0.9316 0.9314 0.9312 0.9310 0.9308
2742.000000 0.9306 0.9304 0.9302 0.9300 0.9298
2747.000000 0.9296 0.9293 0.9289 0.9286 0.9282
2752.000000 0.9278 0.9274 0.9270 0.9266 0.9262
2757.000000 0.9258 0.9254 0.9251 0.9248 0.9245
2762.000000 0.9242 0.9239 0.9237 0.9235 0.9233
2767.000000 0.9231 0.9229 0.9227 0.9227 0.9226
2772.000000 0.9226 0.9227 0.9229 0.9230 0.9231
2777.000000 0.9232 0.9234 0.9235 0.9236 0.9238
2782.000000 0.9239 0.9240 0.9242 0.9242 0.9243
2787.000000 0.9243 0.9244 0.9245 0.9246 0.9247
2792.000000 0.9248 0.9248 0.9249 0.9250 0.9250
2797.000000 0.9251 0.9252 0.9252 0.9253 0.9253
2802.000000 0.9254 0.9255 0.9255 0.9256 0.9256
2807.000000 0.9256 0.9256 0.9255 0.9254 0.9253
2812.000000 0.9252 0.9250 0.9249 0.9248 0.9245
2817.000000 0.9242 0.9238 0.9234 0.9230 0.9225
2822.000000 0.9221 0.9215 0.9209 0.9203 0.9196
2827.000000 0.9188 0.9180 0.9172 0.9165 0.9157
2832.000000 0.9150 0.9142 0.9135 0.9127 0.9118
2837.000000 0.9109 0.9101 0.9092 0.9084 0.9076
2842.000000 0.9067 0.9059 0.9051 0.9042 0.9033
2847.000000 0.9024 0.9015 0.9007 0.8998 0.8989
2852.000000 0.8980 0.8971 0.8962 0.8954 0.8945
2857.000000 0.8936 0.8926 0.8915 0.8905 0.8892
2862.000000 0.8878 0.8864 0.8850 0.8837 0.8823
2867.000000 0.8809 0.8793 0.8776 0.8760 0.8739
2872.000000 0.8718 0.8696 0.8670 0.8640 0.8609
2877.000000 0.8577 0.8531 0.8485 0.8440 0.8409
2882.000000 0.8381 0.8354 0.8306 0.8239 0.8172
2887.000000 0.8086 0.7901 0.7716 0.7531 0.7346
2892.000000 0.7162 0.6977 0.6793 0.6608 0.6424
2897.000000 0.6240 0.6056 0.5873 0.5689 0.5506
2902.000000 0.5322 0.5139 0.5016 0.4984 0.4952
2907.000000 0.4921 0.4905 0.4890 0.4874 0.4860
2912.000000 0.4846 0.4832 0.4819 0.4808 0.4797
2917.000000 0.4786 0.4778 0.4770 0.4762 0.4756
2922.000000 0.4752 0.4748 0.4743 0.4740 0.4736
2927.000000 0.4732 0.4728 0.4724 0.4721 0.4717
2932.000000 0.4714 0.4712 0.4709 0.4707 0.4705
2937.000000 0.4703 0.4701 0.4699 0.4696 0.4694
2942.000000 0.4692 0.4689 0.4687 0.4682 0.4673
2947.000000 0.4663 0.4654 0.4561 0.4458 0.4355
2952.000000 0.4279 0.4243 0.4207 0.4170 0.4147
2957.000000 0.4125 0.4102 0.4077 0.4047 0.4017
2962.000000 0.3987 0.3918 0.3845 0.3772 0.3698
2967.000000 0.3621 0.3544 0.3467 0.3390 0.3313
2972.000000 0.3236 0.3159 0.3082 0.3006 0.2929
2977.000000 0.2853 0.2776 0.2700 0.2623 0.2547
2982.000000 0.2470 0.2394 0.2318 0.2242 0.2166
2987.000000 0.2090 0.2014 0.1938 0.1862 0.1786
2992.000000 0.1710 0.1634 0.1558 0.1520 0.1483
2997.000000 0.1445 0.1423 0.1424 0.1424 0.1425
3002.000000 0.1426 0.1426 0.1426 0.1416 0.1468
3007.000000 0.1502 0.1537 0.1615 0.1725 0.1836
3012.000000 0.1946 0.2057 0.2167 0.2277 0.2388
3017.000000 0.2498 0.2608 0.2718 0.2828 0.2938
3022.000000 0.3047 0.3157 0.3267 0.3376 0.3486
3027.000000 0.3595 0.3705 0.3814 0.3923 0.4033
3032.000000 0.4142 0.4251 0.4360 0.4468 0.4577
3037.000000 0.4686 0.4795 0.4903 0.5012 0.5120
3042.000000 0.5229 0.5337 0.5445 0.5553 0.5661
3047.000000 0.5769 0.5877 0.5985 0.6093 0.6201
3052.000000 0.6308 0.6416 0.6523 0.6631 0.6738
3057.000000 0.6846 0.6953 0.7060 0.7167 0.7274
3062.000000 0.7381 0.7488 0.7595 0.7701 0.7808
3067.000000 0.7915 0.8016 0.8112 0.8207 0.8303
3072.000000 0.8344 0.8365 0.8386 0.8408 0.8424
3077.000000 0.8441 0.8457 0.8472 0.8479 0.8485
3082.000000 0.8492 0.8499 0.8506 0.8513 0.8521
3087.000000 0.8527 0.8534 0.8541 0.8548 0.8555
3092.000000 0.8562 0.8570 0.8577 0.8585 0.8592
3097.000000 0.8600 0.8607 0.8616 0.8625 0.8634
3102.000000 0.8643 0.8653 0.8663 0.8674 0.8684
3107.000000 0.8694 0.8704 0.8715 0.8724 0.8733
3112.000000 0.8743 0.8752 0.8760 0.8768 0.8777
3117.000000 0.8785 0.8793 0.8801 0.8809 0.8818
3122.000000 0.8826 0.8834 0.8842 0.8851 0.8859
3127.000000 0.8867 0.8875 0.8883 0.8890 0.8897
3132.000000 0.8905 0.8911 0.8917 0.8923 0.8928
3137.000000 0.8934 0.8939 0.8945 0.8951 0.8956
3142.000000 0.8961 0.8967 0.8972 0.8977 0.8983
3147.000000 0.8989 0.8994 0.9000 0.9005 0.9011
3152.000000 0.9016 0.9022 0.9027 0.9033 0.9038
3157.000000 0.9044 0.9048 0.9053 0.9058 0.9062
3162.000000 0.9067 0.9071 0.9076 0.9080 0.9082
3167.000000 0.9085 0.9088 0.9090 0.9091 0.9093
3172.000000 0.9094 0.9095 0.9096 0.9097 0.9099
3177.000000 0.9100 0.9101 0.9102 0.9103 0.9104
3182.000000 0.9105 0.9106 0.9108 0.9108 0.9107
3187.000000 0.9106 0.9105 0.9116 0.9104 0.9103
3192.000000 0.9102 0.9101 0.9100 0.9098 0.9096
3197.000000 0.9094 0.9090 0.9086 0.9082 0.9078
3202.000000 0.9073 0.9068 0.9063 0.9058 0.9052
3207.000000 0.9045 0.9039 0.9032 0.9026 0.9019
3212.000000 0.9013 0.9007 0.9000 0.8992 0.8984
3217.000000 0.8976 0.8969 0.8961 0.8953 0.8946
3222.000000 0.8938 0.8930 0.8923 0.8916 0.8908
3227.000000 0.8900 0.8893 0.8885 0.8877 0.8867
3232.000000 0.8857 0.8847 0.8837 0.8826 0.8814
3237.000000 0.8802 0.8790 0.8781 0.8771 0.8762
3242.000000 0.8753 0.8745 0.8738 0.8731 0.8724
3247.000000 0.8718 0.8714 0.8711 0.8707 0.8703
3252.000000 0.8702 0.8701 0.8700 0.8699 0.8698
3257.000000 0.8697 0.8696 0.8695 0.8682 0.8693
3262.000000 0.8692 0.8690 0.8690 0.8692 0.8693
3267.000000 0.8695 0.8697 0.8700 0.8704 0.8708
3272.000000 0.8712 0.8715 0.8719 0.8723 0.8726
3277.000000 0.8735 0.8749 0.8762 0.8776 0.8790
3282.000000 0.8803 0.8816 0.8829 0.8842 0.8854
3287.000000 0.8866 0.8878 0.8891 0.8902 0.8912
3292.000000 0.8923 0.8933 0.8943 0.8952 0.8960
3297.000000 0.8969 0.8977 0.8981 0.8983 0.8986
3302.000000 0.8988 0.8990 0.8991 0.8992 0.8993
3307.000000 0.8993 0.8993 0.8993 0.8993 0.8993
3312.000000 0.8992 0.8992 0.8992 0.8992 0.8991
3317.000000 0.8990 0.8988 0.8987 0.8986 0.8984
3322.000000 0.8982 0.8980 0.8978 0.8976 0.8974
3327.000000 0.8971 0.8969 0.9013 0.8964 0.8962
3332.000000 0.8960 0.8957 0.8949 0.8937 0.8925
3337.000000 0.8913 0.8901 0.8890 0.8879 0.8868
3342.000000 0.8857 0.8844 0.8829 0.8814 0.8800
3347.000000 0.8783 0.8762 0.8740 0.8719 0.8697
3352.000000 0.8646 0.8586 0.8527 0.8468 0.8413
3357.000000 0.8368 0.8324 0.8279 0.8234 0.8189
3362.000000 0.8145 0.8100 0.8055 0.8011 0.7966
3367.000000 0.7922 0.7877 0.7833 0.7788 0.7744
3372.000000 0.7699 0.7655 0.7610 0.7566 0.7522
3377.000000 0.7478 0.7433 0.7389 0.7345 0.7301
3382.000000 0.7256 0.7212 0.7168 0.7124 0.7080
3387.000000 0.7036 0.6992 0.6948 0.6904 0.6860
3392.000000 0.6816 0.6772 0.6729 0.6685 0.6641
3397.000000 0.6597 0.6553 0.6510 0.6466 0.6422
3402.000000 0.6379 0.6335 0.6291 0.6248 0.6204
3407.000000 0.6161 0.6117 0.6073 0.6030 0.5986
3412.000000 0.5943 0.5899 0.5856 0.5813 0.5769
3417.000000 0.5726 0.5683 0.5640 0.5596 0.5553
3422.000000 0.5510 0.5467 0.5424 0.5381 0.5338
3427.000000 0.5295 0.5252 0.5209 0.5166 0.5123
3432.000000 0.5080 0.5037 0.4994 0.4975 0.4957
3437.000000 0.4939 0.4921 0.4907 0.4907 0.4907
3442.000000 0.4907 0.4907 0.4946 0.5028 0.5111
3447.000000 0.5194 0.5277 0.4904 0.5486 0.5594
3452.000000 0.5702 0.5810 0.5918 0.6026 0.6133
3457.000000 0.6241 0.6348 0.6456 0.6564 0.6671
3462.000000 0.6779 0.6886 0.6993 0.7100 0.7207
3467.000000 0.7314 0.7408 0.7493 0.7578 0.7663
3472.000000 0.7748 0.7767 0.7768 0.7769 0.7770
3477.000000 0.7770 0.7771 0.7772 0.7772 0.7773
3482.000000 0.7772 0.7757 0.7742 0.7727 0.7713
3487.000000 0.7776 0.7661 0.7628 0.7595 0.7563
3492.000000 0.7530 0.7498 0.7465 0.7432 0.7400
3497.000000 0.7367 0.7335 0.7302 0.7270 0.7238
3502.000000 0.7205 0.7173 0.7140 0.7108 0.7076
3507.000000 0.7043 0.7011 0.6978 0.6946 0.6913
3512.000000 0.6881 0.6849 0.6817 0.6784 0.6752
3517.000000 0.6720 0.6688 0.6656 0.6624 0.6592
3522.000000 0.6560 0.6528 0.6496 0.6463 0.6431
3527.000000 0.6400 0.6368 0.6336 0.6304 0.6272
3532.000000 0.6240 0.6208 0.6176 0.6144 0.6113
3537.000000 0.6081 0.6049 0.6017 0.5986 0.5954
3542.000000 0.5940 0.5929 0.5917 0.5905 0.5893
3547.000000 0.5891 0.5890 0.5890 0.5889 0.5889
3552.000000 0.5888 0.5888 0.5888 0.5888 0.5888
3557.000000 0.5890 0.5887 0.5886 0.5886 0.5886
3562.000000 0.5964 0.6069 0.6175 0.6280 0.6385
3567.000000 0.6492 0.6600 0.6707 0.6815 0.6922
3572.000000 0.7030 0.7137 0.7244 0.7352 0.7459
3577.000000 0.7566 0.7673 0.7780 0.7887 0.7994
3582.000000 0.8106 0.8228 0.8351 0.8473 0.8596
3587.000000 0.8698 0.8719 0.8740 0.8762 0.8783
3592.000000 0.8804 0.8821 0.8838 0.8855 0.8872
3597.000000 0.8889 0.8906 0.8922 0.8938 0.8954
3602.000000 0.8970 0.8981 0.8991 0.9001 0.9011
3607.000000 0.9021 0.9031 0.9041 0.9051 0.9061
3612.000000 0.9070 0.9080 0.9090 0.9099 0.9109
3617.000000 0.9118 0.9128 0.9136 0.9145 0.9153
3622.000000 0.9162 0.9170 0.9178 0.9187 0.9195
3627.000000 0.9203 0.9212 0.9219 0.9224 0.9230
3632.000000 0.9236 0.9241 0.9247 0.9251 0.9255
3637.000000 0.9259 0.9263 0.9267 0.9272 0.9276
3642.000000 0.9280 0.9284 0.9288 0.9291 0.9294
3647.000000 0.9297 0.9299 0.9302 0.9304 0.9305
3652.000000 0.9307 0.9308 0.9309 0.9311 0.9312
3657.000000 0.9313 0.9314 0.9316 0.9317 0.9319
3662.000000 0.9320 0.9321 0.9323 0.9324 0.9326
3667.000000 0.9327 0.9329 0.9330 0.9331 0.9332
3672.000000 0.9333 0.9333 0.9334 0.9334 0.9334
3677.000000 0.9334 0.9334 0.9334 0.9333 0.9333
3682.000000 0.9332 0.9332 0.9332 0.9332 0.9332
3687.000000 0.9332 0.9331 0.9331 0.9331 0.9331
3692.000000 0.9331 0.9330 0.9330 0.9330 0.9329
3697.000000 0.9329 0.9329 0.9328 0.9327 0.9326
3702.000000 0.9326 0.9325 0.9324 0.9324 0.9323
3707.000000 0.9322 0.9321 0.9321 0.9320 0.9319
3712.000000 0.9318 0.9318 0.9317 0.9316 0.9316
3717.000000 0.9315 0.9314 0.9313 0.9313 0.9312
3722.000000 0.9311 0.9311 0.9310 0.9309 0.9308
3727.000000 0.9308 0.9307 0.9306 0.9305 0.9305
3732.000000 0.9304 0.9303 0.9302 0.9301 0.9299
3737.000000 0.9298 0.9298 0.9297 0.9296 0.9295
3742.000000 0.9294 0.9293 0.9292 0.9291 0.9290
3747.000000 0.9290 0.9289 0.9288 0.9288 0.9287
3752.000000 0.9286 0.9286 0.9285 0.9285 0.9285
3757.000000 0.9284 0.9284 0.9284 0.9283 0.9283
3762.000000 0.9282 0.9282 0.9281 0.9281 0.9280
3767.000000 0.9280 0.9279 0.9279 0.9279 0.9278
3772.000000 0.9278 0.9278 0.9277 0.9277 0.9277
3777.000000 0.9276 0.9276 0.9276 0.9275 0.9275
3782.000000 0.9275 0.9274 0.9274 0.9274 0.9274
3787.000000 0.9274 0.9274 0.9274 0.9274 0.9274
3792.000000 0.9274 0.9274 0.9275 0.9275 0.9275
3797.000000 0.9275 0.9275 0.9275 0.9275 0.9275
3802.000000 0.9275 0.9275 0.9275 0.9275 0.9276
3807.000000 0.9276 0.9276 0.9276 0.9276 0.9276
3812.000000 0.9276 0.9276 0.9276 0.9276 0.9276
3817.000000 0.9277 0.9277 0.9277 0.9277 0.9277
3822.000000 0.9277 0.9277 0.9277 0.9277 0.9277
3827.000000 0.9277 0.9277 0.9278 0.9278 0.9278
3832.000000 0.9278 0.9278 0.9278 0.9279 0.9279
3837.000000 0.9279 0.9279 0.9279 0.9279 0.9279
3842.000000 0.9279 0.9279 0.9279 0.9279 0.9279
3847.000000 0.9280 0.9280 0.9280 0.9280 0.9280
3852.000000 0.9280 0.9280 0.9280 0.9280 0.9280
3857.000000 0.9280 0.9280 0.9281 0.9281 0.9281
3862.000000 0.9281 0.9281 0.9282 0.9282 0.9282
3867.000000 0.9282 0.9282 0.9282 0.9282 0.9282
3872.000000 0.9282 0.9282 0.9282 0.9282 0.9282
3877.000000 0.9282 0.9282 0.9282 0.9282 0.9282
3882.000000 0.9281 0.9281 0.9281 0.9281 0.9281
3887.000000 0.9281 0.9281 0.9280 0.9280 0.9280
3892.000000 0.9280 0.9280 0.9280 0.9279 0.9279
3897.000000 0.9279 0.9279 0.9279 0.9279 0.9278
3902.000000 0.9278 0.9278 0.9278 0.9278 0.9278
3907.000000 0.9278 0.9278 0.9278 0.9278 0.9278
3912.000000 0.9278 0.9277 0.9277 0.9277 0.9277
3917.000000 0.9277 0.9277 0.9277 0.9277 0.9277
3922.000000 0.9277 0.9277 0.9277 0.9277 0.9277
3927.000000 0.9277 0.9277 0.9277 0.9277 0.9277
3932.000000 0.9277 0.9277 0.9277 0.9277 0.9277
3937.000000 0.9277 0.9277 0.9277 0.9277 0.9277
3942.000000 0.9277 0.9277 0.9277 0.9277 0.9277
3947.000000 0.9277 0.9277 0.9277 0.9277 0.9277
3952.000000 0.9277 0.9277 0.9277 0.9277 0.9277
3957.000000 0.9277 0.9277 0.9277 0.9277 0.9277
3962.000000 0.9277 0.9277 0.9277 0.9277 0.9277
3967.000000 0.9277 0.9277 0.9277 0.9277 0.9277
3972.000000 0.9277 0.9277 0.9277 0.9277 0.9277
3977.000000 0.9277 0.9277 0.9277 0.9277 0.9278
3982.000000 0.9278 0.9278 0.9278 0.9278 0.9278
3987.000000 0.9278 0.9278 0.9278 0.9278 0.9278
3992.000000 0.9278 0.9278 0.9278 0.9278 0.9278
3997.000000 0.9278 0.9278 0.9278 0.9278
##END=
