##TITLE=2-HYDROXY-3-(N-TETRADECYLAMINO) PROPYL-TRIMETHYLAMMONIUM p-TOSYLATE
##JCAMP-DX=4.24
##DATA TYPE=INFRARED SPECTRUM
##CLASS=COBLENTZ
##ORIGIN=EASTMAN KODAK COMPANY, RESEARCH LABORATORIES, ROCHESTER, N.Y.
##OWNER=COBLENTZ SOCIETY
Collection (C) 2018 copyright by the U.S. Secretary of Commerce
on behalf of the United States of America. All rights reserved.
##DATE=Not specified, most likely prior to 1970
##MOLFORM=C27 H52 N2 O4 S
##MP=111-181 C
##SOURCE REFERENCE=COBLENTZ NO. 4421
##$NIST ID=B6004421
##$NIST SOURCE=COBLENTZ
##$NIST IMAGE=cob4421
##SPECTROMETER/DATA SYSTEM=Not specified, most likely a prism, grating, or hybrid spectrometer.
##STATE=SOLID (KBr PELLET)
##PATH LENGTH=
$$ SEE J. ORG. CHEM., VOL. 28, PAGE 2283 (1963)
##SAMPLING PROCEDURE=TRANSMISSION
##RESOLUTION=4
##DATA PROCESSING=DIGITIZED BY NIST FROM HARD COPY
##XUNITS=MICROMETERS
##YUNITS=TRANSMITTANCE
##XFACTOR=1.000000
##YFACTOR=1
##DELTAX=000.006648
##FIRSTX=2.013
##LASTX=16.0063
##FIRSTY=0.764
##MAXX=16.0063
##MINX=2.013
##MAXY=0.868
##MINY=0.037
##NPOINTS=2106
##XYDATA=(X++(Y..Y))
2.013000 0.7640 0.7640 0.7640 0.7640 0.7640
2.046254 0.7660 0.7660 0.7680 0.7680 0.7680
2.080000 0.7680 0.7680 0.7680 0.7680 0.7660
2.113254 0.7640 0.7630 0.7630 0.7610 0.7590
2.146000 0.7590 0.7590 0.7580 0.7560 0.7540
2.179254 0.7530 0.7530 0.7530 0.7530 0.7540
2.213000 0.7540 0.7560 0.7580 0.7580 0.7580
2.246254 0.7560 0.7560 0.7560 0.7540 0.7540
2.279000 0.7530 0.7530 0.7510 0.7510 0.7510
2.312254 0.7510 0.7510 0.7530 0.7530 0.7530
2.346000 0.7540 0.7560 0.7560 0.7580 0.7590
2.379254 0.7610 0.7630 0.7640 0.7640 0.7660
2.412000 0.7660 0.7660 0.7660 0.7660 0.7660
2.445254 0.7660 0.7660 0.7680 0.7680 0.7690
2.479000 0.7690 0.7730 0.7740 0.7760 0.7760
2.512254 0.7760 0.7760 0.7760 0.7760 0.7760
2.545000 0.7760 0.7760 0.7770 0.7770 0.7770
2.578254 0.7770 0.7770 0.7770 0.7790 0.7790
2.612000 0.7790 0.7790 0.7790 0.7790 0.7790
2.645254 0.7790 0.7790 0.7790 0.7790 0.7790
2.678000 0.7790 0.7790 0.7790 0.7790 0.7790
2.711254 0.7790 0.7790 0.7790 0.7770 0.7770
2.745000 0.7770 0.7760 0.7740 0.7710 0.7680
2.778254 0.7610 0.7480 0.7380 0.7220 0.7130
2.811000 0.7030 0.6990 0.6920 0.6820 0.6750
2.844254 0.6660 0.6560 0.6510 0.6440 0.6310
2.877000 0.6260 0.6210 0.6150 0.6060 0.5980
2.910254 0.5900 0.5780 0.5650 0.5460 0.5320
2.944000 0.5180 0.5060 0.4930 0.4800 0.4680
2.977254 0.4530 0.4390 0.4210 0.4020 0.3750
3.010000 0.3610 0.3450 0.3240 0.2990 0.2710
3.043254 0.2540 0.2400 0.2350 0.2360 0.2580
3.077000 0.2790 0.2940 0.3120 0.3370 0.3610
3.110254 0.3910 0.4190 0.4390 0.4530 0.4730
3.143000 0.4950 0.5180 0.5440 0.5670 0.5920
3.176254 0.6110 0.6280 0.6390 0.6520 0.6570
3.210000 0.6620 0.6670 0.6740 0.6790 0.6850
3.243254 0.6950 0.6970 0.6970 0.6940 0.6900
3.276000 0.6820 0.6740 0.6590 0.6340 0.6110
3.309254 0.5980 0.6000 0.6330 0.6590 0.6620
3.343000 0.6620 0.6590 0.6290 0.6050 0.5500
3.376254 0.4760 0.4160 0.3830 0.3250 0.2970
3.409000 0.2540 0.2000 0.0950 0.0590 0.0600
3.442254 0.0880 0.2000 0.2790 0.3500 0.3980
3.476000 0.3980 0.3780 0.2890 0.2730 0.2280
3.509254 0.2000 0.2000 0.2170 0.2990 0.3510
3.542000 0.4720 0.4730 0.4730 0.4760 0.5130
3.575254 0.5570 0.6460 0.6660 0.6770 0.6900
3.609000 0.6940 0.6950 0.6990 0.7000 0.7050
3.642254 0.7080 0.7130 0.7170 0.7180 0.7180
3.675000 0.7230 0.7280 0.7350 0.7360 0.7410
3.708254 0.7500 0.7530 0.7540 0.7560 0.7560
3.742000 0.7560 0.7560 0.7580 0.7590 0.7610
3.775254 0.7630 0.7640 0.7660 0.7680 0.7680
3.808000 0.7690 0.7710 0.7710 0.7740 0.7760
3.841254 0.7810 0.7870 0.7870 0.7890 0.7890
3.875000 0.7890 0.7910 0.7910 0.7910 0.7910
3.908254 0.7910 0.7920 0.7920 0.7960 0.7990
3.941000 0.8040 0.8070 0.8100 0.8120 0.8120
3.974254 0.8140 0.8140 0.8150 0.8150 0.8170
4.008000 0.8170 0.8170 0.8170 0.8170 0.8170
4.041254 0.8170 0.8170 0.8190 0.8190 0.8190
4.074000 0.8190 0.8190 0.8200 0.8200 0.8200
4.107254 0.8220 0.8220 0.8220 0.8220 0.8220
4.141000 0.8220 0.8220 0.8220 0.8200 0.8200
4.174254 0.8200 0.8200 0.8220 0.8270 0.8350
4.207000 0.8420 0.8430 0.8470 0.8470 0.8470
4.240254 0.8480 0.8480 0.8480 0.8500 0.8530
4.274000 0.8560 0.8580 0.8600 0.8600 0.8610
4.307254 0.8610 0.8600 0.8600 0.8580 0.8560
4.340000 0.8530 0.8510 0.8480 0.8400 0.8400
4.373254 0.8380 0.8380 0.8380 0.8380 0.8400
4.406000 0.8400 0.8380 0.8380 0.8380 0.8380
4.439254 0.8380 0.8380 0.8380 0.8370 0.8370
4.473000 0.8350 0.8350 0.8350 0.8350 0.8350
4.506254 0.8330 0.8320 0.8320 0.8320 0.8300
4.539000 0.8300 0.8320 0.8320 0.8330 0.8330
4.572254 0.8330 0.8350 0.8350 0.8370 0.8380
4.606000 0.8420 0.8430 0.8430 0.8450 0.8450
4.639254 0.8470 0.8470 0.8470 0.8470 0.8470
4.672000 0.8470 0.8470 0.8470 0.8470 0.8470
4.705254 0.8470 0.8470 0.8470 0.8480 0.8500
4.739000 0.8530 0.8560 0.8560 0.8560 0.8580
4.772254 0.8580 0.8580 0.8580 0.8580 0.8580
4.805000 0.8560 0.8560 0.8550 0.8530 0.8500
4.838254 0.8480 0.8470 0.8450 0.8430 0.8420
4.872000 0.8420 0.8420 0.8400 0.8400 0.8400
4.905254 0.8400 0.8400 0.8400 0.8400 0.8400
4.938000 0.8400 0.8400 0.8400 0.8400 0.8400
4.971254 0.8400 0.8400 0.8420 0.8420 0.8420
5.005000 0.8430 0.8430 0.8430 0.8430 0.8430
5.038254 0.8450 0.8470 0.8470 0.8470 0.8470
5.071000 0.8470 0.8470 0.8470 0.8470 0.8470
5.104254 0.8470 0.8470 0.8470 0.8470 0.8470
5.138000 0.8470 0.8470 0.8450 0.8450 0.8450
5.171254 0.8430 0.8420 0.8420 0.8420 0.8420
5.204000 0.8420 0.8420 0.8400 0.8400 0.8400
5.237254 0.8400 0.8400 0.8400 0.8400 0.8400
5.271000 0.8420 0.8420 0.8420 0.8420 0.8420
5.304254 0.8420 0.8420 0.8420 0.8420 0.8420
5.337000 0.8430 0.8450 0.8480 0.8510 0.8530
5.370254 0.8550 0.8530 0.8510 0.8500 0.8500
5.404000 0.8500 0.8510 0.8550 0.8550 0.8560
5.437254 0.8560 0.8560 0.8530 0.8500 0.8480
5.470000 0.8500 0.8510 0.8530 0.8550 0.8550
5.503254 0.8510 0.8500 0.8480 0.8480 0.8480
5.537000 0.8470 0.8450 0.8450 0.8470 0.8500
5.570254 0.8530 0.8560 0.8560 0.8560 0.8530
5.603000 0.8480 0.8450 0.8420 0.8400 0.8400
5.636254 0.8420 0.8430 0.8450 0.8450 0.8470
5.670000 0.8480 0.8480 0.8500 0.8500 0.8500
5.703254 0.8500 0.8500 0.8510 0.8530 0.8530
5.736000 0.8560 0.8560 0.8560 0.8560 0.8550
5.769254 0.8550 0.8530 0.8510 0.8480 0.8480
5.802000 0.8480 0.8450 0.8420 0.8400 0.8420
5.835254 0.8430 0.8450 0.8450 0.8470 0.8470
5.869000 0.8470 0.8470 0.8470 0.8470 0.8470
5.902254 0.8470 0.8470 0.8470 0.8470 0.8470
5.935000 0.8470 0.8470 0.8470 0.8450 0.8450
5.968254 0.8430 0.8420 0.8400 0.8380 0.8370
6.002000 0.8350 0.8330 0.8320 0.8320 0.8300
6.035254 0.8280 0.8240 0.8170 0.8170 0.8140
6.068000 0.8140 0.8140 0.8140 0.8120 0.8120
6.101254 0.8120 0.8100 0.8090 0.8090 0.7990
6.135000 0.7960 0.7920 0.7870 0.7860 0.7860
6.168254 0.7870 0.7870 0.7890 0.7910 0.7970
6.201000 0.7990 0.7990 0.7970 0.7890 0.7770
6.234254 0.7740 0.7590 0.7530 0.7510 0.7530
6.268000 0.7560 0.7680 0.7810 0.7960 0.8100
6.301254 0.8120 0.8120 0.8140 0.8170 0.8190
6.334000 0.8190 0.8170 0.8170 0.8150 0.8150
6.367254 0.8140 0.8150 0.8170 0.8190 0.8200
6.401000 0.8220 0.8240 0.8250 0.8250 0.8250
6.434254 0.8270 0.8270 0.8250 0.8250 0.8240
6.467000 0.8240 0.8270 0.8270 0.8280 0.8280
6.500254 0.8280 0.8270 0.8270 0.8270 0.8270
6.534000 0.8250 0.8220 0.8190 0.8150 0.8100
6.567254 0.8090 0.8070 0.8050 0.8000 0.7940
6.600000 0.7910 0.7810 0.7690 0.7610 0.7560
6.633254 0.7500 0.7460 0.7260 0.6890 0.6390
6.667000 0.6030 0.5770 0.5540 0.5290 0.4950
6.700254 0.4720 0.4370 0.3240 0.3000 0.2890
6.733000 0.2870 0.2890 0.3000 0.3220 0.3420
6.766254 0.3580 0.3700 0.3780 0.3810 0.3830
6.800000 0.3830 0.3760 0.3170 0.2840 0.2840
6.833254 0.3150 0.3600 0.3930 0.4490 0.5030
6.866000 0.5310 0.5390 0.5410 0.5420 0.5440
6.899254 0.5440 0.5470 0.5750 0.6010 0.6250
6.933000 0.6340 0.6430 0.6490 0.6570 0.6620
6.966254 0.6640 0.6640 0.6610 0.6560 0.6510
6.999000 0.6490 0.6690 0.6850 0.6900 0.6950
7.032254 0.7000 0.7080 0.7150 0.7170 0.7170
7.066000 0.7120 0.7070 0.6940 0.6840 0.6740
7.099254 0.6610 0.6560 0.6560 0.6590 0.6670
7.132000 0.6820 0.6900 0.6940 0.6950 0.6990
7.165254 0.7000 0.7000 0.6990 0.6800 0.6590
7.198000 0.6540 0.6490 0.6490 0.6670 0.6790
7.231254 0.6850 0.6890 0.6890 0.6870 0.6740
7.265000 0.6660 0.6590 0.6560 0.6560 0.6590
7.298254 0.6620 0.6660 0.6660 0.6670 0.6670
7.331000 0.6670 0.6690 0.6750 0.6790 0.6870
7.364254 0.6900 0.6950 0.6990 0.7000 0.7000
7.398000 0.7000 0.6970 0.6900 0.6770 0.6620
7.431254 0.5980 0.5880 0.5590 0.5370 0.5310
7.464000 0.5310 0.5390 0.5600 0.6050 0.6390
7.497254 0.6690 0.6840 0.7000 0.7100 0.7260
7.531000 0.7360 0.7380 0.7400 0.7400 0.7400
7.564254 0.7400 0.7410 0.7410 0.7410 0.7400
7.597000 0.7260 0.7170 0.7080 0.6990 0.6800
7.630254 0.6690 0.6560 0.6490 0.6490 0.6570
7.664000 0.6710 0.6840 0.6940 0.7030 0.7180
7.697254 0.7260 0.7280 0.7300 0.7300 0.7300
7.730000 0.7310 0.7330 0.7360 0.7360 0.7360
7.763254 0.7330 0.7310 0.7300 0.7280 0.7280
7.797000 0.7300 0.7330 0.7360 0.7380 0.7400
7.830254 0.7400 0.7410 0.7430 0.7430 0.7450
7.863000 0.7450 0.7450 0.7460 0.7460 0.7500
7.896254 0.7500 0.7500 0.7500 0.7510 0.7510
7.930000 0.7510 0.7480 0.7450 0.7430 0.7380
7.963254 0.7330 0.7260 0.7250 0.7220 0.7180
7.996000 0.7180 0.7150 0.7100 0.7050 0.7020
8.029254 0.6970 0.6900 0.6770 0.6670 0.6590
8.063000 0.6490 0.6390 0.6290 0.6260 0.6160
8.096254 0.6010 0.5780 0.5520 0.5180 0.5010
8.129000 0.4760 0.4420 0.3760 0.3220 0.2790
8.162254 0.2410 0.2100 0.1800 0.1490 0.1160
8.196000 0.0770 0.0520 0.0390 0.0370 0.0390
8.229254 0.0490 0.0620 0.0780 0.0970 0.1030
8.262000 0.1130 0.1260 0.1430 0.1570 0.1720
8.295254 0.1850 0.1970 0.2020 0.2150 0.2280
8.329000 0.2430 0.2610 0.2760 0.2820 0.2870
8.362254 0.2890 0.2870 0.2770 0.2590 0.2130
8.395000 0.1740 0.1430 0.1050 0.0930 0.0770
8.428254 0.0700 0.0670 0.0650 0.0640 0.0640
8.462000 0.0670 0.0920 0.1130 0.1480 0.1940
8.495254 0.2330 0.2610 0.2770 0.2840 0.2840
8.528000 0.2660 0.1870 0.1740 0.1750 0.1890
8.561254 0.2480 0.2870 0.3270 0.3730 0.3910
8.594000 0.3990 0.4020 0.4630 0.5130 0.5340
8.627254 0.5460 0.5640 0.5750 0.5950 0.6030
8.661000 0.6180 0.6210 0.6260 0.6280 0.6290
8.694254 0.6280 0.6250 0.6060 0.5880 0.5640
8.727000 0.5340 0.5040 0.4880 0.4850 0.4850
8.760254 0.4850 0.4850 0.4860 0.4860 0.4880
8.794000 0.4880 0.4860 0.4630 0.4400 0.4070
8.827254 0.3750 0.3420 0.3040 0.2840 0.2690
8.860000 0.2680 0.2660 0.2610 0.2460 0.2430
8.893254 0.2360 0.2260 0.1490 0.1210 0.1180
8.927000 0.0970 0.0970 0.1280 0.1610 0.1840
8.960254 0.2360 0.2810 0.3200 0.3560 0.3840
8.993000 0.4070 0.4190 0.4340 0.4400 0.4470
9.026254 0.4400 0.4160 0.3990 0.3840 0.3710
9.060000 0.3470 0.3190 0.2960 0.2890 0.2890
9.093254 0.2920 0.3190 0.3370 0.3730 0.4020
9.126000 0.4350 0.4680 0.5140 0.5460 0.5640
9.159254 0.5820 0.6030 0.6250 0.6410 0.6490
9.193000 0.6590 0.6800 0.6820 0.6840 0.6850
9.226254 0.6870 0.6870 0.6890 0.6890 0.6890
9.259000 0.6900 0.6970 0.7000 0.7020 0.7070
9.292254 0.7080 0.7120 0.7180 0.7200 0.7220
9.326000 0.7250 0.7260 0.7310 0.7380 0.7410
9.359254 0.7430 0.7480 0.7480 0.7500 0.7510
9.392000 0.7500 0.7480 0.7480 0.7460 0.7450
9.425254 0.7410 0.7380 0.7310 0.7300 0.7300
9.459000 0.7300 0.7280 0.7260 0.7180 0.7120
9.492254 0.7130 0.7200 0.7230 0.7260 0.7260
9.525000 0.7280 0.7280 0.7280 0.7260 0.7260
9.558254 0.7220 0.7150 0.6940 0.6740 0.6540
9.592000 0.6310 0.5420 0.5060 0.4550 0.4040
9.625254 0.3530 0.3170 0.2430 0.1670 0.0920
9.658000 0.0920 0.1250 0.1360 0.1800 0.2500
9.691254 0.3020 0.3680 0.4620 0.5740 0.6200
9.725000 0.6540 0.6660 0.6800 0.6870 0.6920
9.758254 0.6950 0.6990 0.7050 0.7150 0.7250
9.791000 0.7300 0.7310 0.7360 0.7360 0.7330
9.824254 0.7180 0.6870 0.6260 0.5080 0.4350
9.858000 0.3610 0.2840 0.2540 0.1970 0.1490
9.891254 0.0920 0.0920 0.1260 0.2260 0.2920
9.924000 0.3380 0.3940 0.5260 0.5500 0.6200
9.957254 0.6340 0.6480 0.6640 0.6750 0.6900
9.991000 0.7050 0.7200 0.7330 0.7450 0.7500
10.024254 0.7510 0.7580 0.7610 0.7640 0.7680
10.057000 0.7710 0.7760 0.7790 0.7790 0.7810
10.090254 0.7820 0.7840 0.7860 0.7870 0.7870
10.123000 0.7820 0.7790 0.7710 0.7680 0.7630
10.156254 0.7590 0.7480 0.7400 0.7350 0.7280
10.190000 0.7230 0.7120 0.7000 0.6790 0.6610
10.223254 0.6510 0.6250 0.6030 0.5780 0.5470
10.256000 0.5140 0.4830 0.4530 0.4060 0.3910
10.289254 0.3760 0.3750 0.3760 0.3830 0.3960
10.323000 0.4140 0.4390 0.4550 0.4730 0.4880
10.356254 0.5030 0.5290 0.5490 0.5740 0.6000
10.389000 0.6290 0.6560 0.6790 0.6990 0.7100
10.422254 0.7130 0.7220 0.7250 0.7360 0.7380
10.456000 0.7410 0.7480 0.7500 0.7500 0.7510
10.489254 0.7530 0.7540 0.7540 0.7540 0.7580
10.522000 0.7580 0.7580 0.7580 0.7560 0.7540
10.555254 0.7510 0.7510 0.7460 0.7410 0.7400
10.589000 0.7250 0.7030 0.6750 0.6460 0.6150
10.622254 0.5850 0.5550 0.5310 0.5090 0.4950
10.655000 0.4800 0.4780 0.4800 0.5000 0.5390
10.688254 0.5930 0.6390 0.6540 0.6740 0.6950
10.722000 0.7050 0.7200 0.7330 0.7510 0.7610
10.755254 0.7640 0.7690 0.7730 0.7760 0.7770
10.788000 0.7810 0.7810 0.7820 0.7820 0.7840
10.821254 0.7840 0.7820 0.7810 0.7790 0.7690
10.855000 0.7610 0.7540 0.7430 0.7250 0.7200
10.888254 0.7180 0.7200 0.7280 0.7400 0.7530
10.921000 0.7680 0.7770 0.7790 0.7870 0.7890
10.954254 0.7910 0.7910 0.7910 0.7870 0.7810
10.988000 0.7760 0.7480 0.7120 0.6710 0.6330
11.021254 0.6110 0.5770 0.5750 0.5770 0.5970
11.054000 0.6200 0.6490 0.6790 0.7080 0.7330
11.087254 0.7500 0.7640 0.7810 0.7960 0.8040
11.121000 0.8120 0.8190 0.8270 0.8300 0.8350
11.154254 0.8400 0.8420 0.8470 0.8480 0.8500
11.187000 0.8560 0.8560 0.8600 0.8600 0.8600
11.220254 0.8580 0.8580 0.8580 0.8580 0.8560
11.254000 0.8560 0.8550 0.8530 0.8510 0.8510
11.287254 0.8510 0.8500 0.8500 0.8510 0.8580
11.320000 0.8600 0.8650 0.8680 0.8680 0.8680
11.353254 0.8660 0.8660 0.8650 0.8650 0.8610
11.387000 0.8600 0.8560 0.8560 0.8580 0.8580
11.420254 0.8580 0.8580 0.8580 0.8580 0.8600
11.453000 0.8600 0.8600 0.8600 0.8580 0.8400
11.486254 0.8300 0.8220 0.8120 0.8020 0.8000
11.519000 0.8000 0.8020 0.8070 0.8150 0.8250
11.552254 0.8320 0.8330 0.8380 0.8420 0.8450
11.586000 0.8480 0.8500 0.8530 0.8580 0.8610
11.619254 0.8650 0.8660 0.8680 0.8680 0.8680
11.652000 0.8680 0.8680 0.8660 0.8660 0.8660
11.685254 0.8650 0.8650 0.8610 0.8600 0.8580
11.719000 0.8550 0.8530 0.8500 0.8480 0.8450
11.752254 0.8450 0.8380 0.8370 0.8370 0.8370
11.785000 0.8370 0.8380 0.8420 0.8470 0.8500
11.818254 0.8530 0.8580 0.8600 0.8630 0.8630
11.852000 0.8630 0.8610 0.8600 0.8580 0.8580
11.885254 0.8560 0.8560 0.8580 0.8600 0.8600
11.918000 0.8600 0.8580 0.8510 0.8500 0.8420
11.951254 0.8350 0.8280 0.8280 0.8240 0.8200
11.985000 0.8190 0.8190 0.8200 0.8240 0.8300
12.018254 0.8330 0.8380 0.8400 0.8420 0.8420
12.051000 0.8420 0.8430 0.8430 0.8430 0.8420
12.084254 0.8380 0.8380 0.8370 0.8330 0.8320
12.118000 0.8280 0.8280 0.8270 0.8200 0.8190
12.151254 0.8150 0.8090 0.8000 0.7910 0.7820
12.184000 0.7740 0.7680 0.7590 0.7510 0.7430
12.217254 0.7350 0.7260 0.7150 0.7030 0.6790
12.251000 0.6510 0.6210 0.5870 0.5500 0.5090
12.284254 0.4850 0.4550 0.4040 0.3780 0.3680
12.317000 0.3660 0.3680 0.3750 0.3860 0.3960
12.350254 0.4070 0.4170 0.4240 0.4390 0.4450
12.384000 0.4500 0.4530 0.4550 0.4580 0.4600
12.417254 0.4620 0.4670 0.4680 0.4720 0.4750
12.450000 0.4810 0.4900 0.5040 0.5140 0.5360
12.483254 0.5550 0.5770 0.6000 0.6130 0.6360
12.517000 0.6430 0.6510 0.6520 0.6510 0.6360
12.550254 0.6250 0.6150 0.6030 0.5980 0.5950
12.583000 0.5850 0.5820 0.5800 0.5780 0.5770
12.616254 0.5780 0.5880 0.5930 0.6000 0.6150
12.650000 0.6230 0.6340 0.6460 0.6560 0.6620
12.683254 0.6720 0.6790 0.6820 0.6840 0.6890
12.716000 0.6920 0.6990 0.7050 0.7120 0.7150
12.749254 0.7200 0.7200 0.7230 0.7250 0.7280
12.783000 0.7300 0.7300 0.7310 0.7330 0.7380
12.816254 0.7410 0.7410 0.7410 0.7410 0.7430
12.849000 0.7480 0.7500 0.7530 0.7560 0.7610
12.882254 0.7680 0.7760 0.7810 0.7820 0.7840
12.915000 0.7860 0.7870 0.7870 0.7890 0.7890
12.948254 0.7910 0.7910 0.7910 0.7920 0.7940
12.982000 0.7940 0.7960 0.7960 0.7960 0.7940
13.015254 0.7940 0.7920 0.7910 0.7910 0.7890
13.048000 0.7840 0.7810 0.7810 0.7810 0.7810
13.081254 0.7790 0.7790 0.7790 0.7810 0.7890
13.115000 0.7910 0.7960 0.8000 0.8020 0.8020
13.148254 0.8040 0.8050 0.8050 0.8090 0.8090
13.181000 0.8100 0.8100 0.8120 0.8120 0.8140
13.214254 0.8140 0.8140 0.8140 0.8140 0.8140
13.248000 0.8140 0.8150 0.8150 0.8150 0.8150
13.281254 0.8150 0.8150 0.8150 0.8150 0.8150
13.314000 0.8150 0.8150 0.8150 0.8150 0.8150
13.347254 0.8150 0.8150 0.8150 0.8150 0.8150
13.381000 0.8150 0.8150 0.8150 0.8150 0.8150
13.414254 0.8150 0.8140 0.8140 0.8140 0.8140
13.447000 0.8140 0.8140 0.8140 0.8140 0.8140
13.480254 0.8140 0.8140 0.8140 0.8140 0.8120
13.514000 0.8120 0.8120 0.8120 0.8120 0.8100
13.547254 0.8100 0.8100 0.8100 0.8100 0.8090
13.580000 0.8090 0.8090 0.8090 0.8090 0.8070
13.613254 0.8070 0.8070 0.8050 0.8040 0.8040
13.647000 0.8020 0.8020 0.7990 0.7970 0.7940
13.680254 0.7920 0.7890 0.7820 0.7770 0.7760
13.713000 0.7690 0.7630 0.7590 0.7540 0.7500
13.746254 0.7410 0.7380 0.7350 0.7310 0.7230
13.780000 0.7150 0.7050 0.6950 0.6850 0.6740
13.813254 0.6610 0.6490 0.6360 0.6210 0.6080
13.846000 0.5930 0.5780 0.5700 0.5590 0.5520
13.879254 0.5520 0.5570 0.5700 0.5800 0.5880
13.913000 0.5900 0.5900 0.5900 0.5880 0.5850
13.946254 0.5830 0.5820 0.5820 0.5800 0.5800
13.979000 0.5820 0.5850 0.5920 0.6110 0.6260
14.012254 0.6360 0.6440 0.6510 0.6570 0.6620
14.046000 0.6690 0.6770 0.6800 0.6820 0.6850
14.079254 0.6870 0.6890 0.6890 0.6890 0.6890
14.112000 0.6850 0.6820 0.6820 0.6820 0.6820
14.145254 0.6790 0.6790 0.6740 0.6720 0.6690
14.179000 0.6620 0.6560 0.6480 0.6460 0.6430
14.212254 0.6390 0.6310 0.6260 0.6230 0.6210
14.245000 0.6180 0.6130 0.6110 0.6060 0.6000
14.278254 0.5900 0.5820 0.5750 0.5690 0.5620
14.311000 0.5550 0.5500 0.5440 0.5410 0.5320
14.344254 0.5260 0.5190 0.5110 0.5010 0.4930
14.378000 0.4850 0.4800 0.4730 0.4680 0.4600
14.411254 0.4520 0.4390 0.4210 0.4170 0.4060
14.444000 0.3960 0.3880 0.3780 0.3660 0.3560
14.477254 0.3450 0.3330 0.3250 0.3190 0.3140
14.511000 0.3090 0.3040 0.3000 0.2990 0.2970
14.544254 0.2920 0.2890 0.2870 0.2860 0.2840
14.577000 0.2820 0.2810 0.2790 0.2770 0.2760
14.610254 0.2760 0.2740 0.2740 0.2740 0.2760
14.644000 0.2760 0.2770 0.2770 0.2810 0.2820
14.677254 0.2890 0.2970 0.3050 0.3140 0.3240
14.710000 0.3350 0.3470 0.3580 0.3710 0.3860
14.743254 0.3960 0.4040 0.4160 0.4220 0.4290
14.777000 0.4350 0.4440 0.4520 0.4620 0.4700
14.810254 0.4810 0.4910 0.4960 0.4980 0.5010
14.843000 0.5060 0.5160 0.5190 0.5240 0.5290
14.876254 0.5310 0.5320 0.5340 0.5340 0.5340
14.910000 0.5360 0.5390 0.5390 0.5360 0.5320
14.943254 0.5260 0.5230 0.5180 0.5160 0.5180
14.976000 0.5210 0.5270 0.5370 0.5540 0.5740
15.009254 0.5880 0.6000 0.6030 0.6010 0.5980
15.043000 0.5870 0.5770 0.5650 0.5620 0.5520
15.076254 0.5470 0.5440 0.5440 0.5440 0.5440
15.109000 0.5420 0.5420 0.5420 0.5420 0.5420
15.142254 0.5420 0.5420 0.5420 0.5420 0.5420
15.176000 0.5420 0.5420 0.5420 0.5420 0.5420
15.209254 0.5420 0.5420 0.5420 0.5420 0.5420
15.242000 0.5420 0.5420 0.5440 0.5440 0.5440
15.275254 0.5440 0.5440 0.5440 0.5420 0.5420
15.309000 0.5390 0.5360 0.5320 0.5320 0.5310
15.342254 0.5310 0.5290 0.5290 0.5290 0.5270
15.375000 0.5270 0.5260 0.5260 0.5260 0.5260
15.408254 0.5260 0.5240 0.5230 0.5230 0.5230
15.442000 0.5210 0.5210 0.5190 0.5190 0.5190
15.475254 0.5180 0.5180 0.5160 0.5160 0.5140
15.508000 0.5140 0.5110 0.5080 0.5040 0.5030
15.541254 0.5010 0.5000 0.5000 0.4980 0.4980
15.575000 0.4980 0.4980 0.4980 0.4960 0.4960
15.608254 0.4960 0.4960 0.4960 0.4960 0.4960
15.641000 0.4960 0.4960 0.4960 0.4960 0.4950
15.674254 0.4950 0.4930 0.4880 0.4880 0.4860
15.708000 0.4850 0.4850 0.4810 0.4810 0.4810
15.741254 0.4800 0.4800 0.4800 0.4800 0.4780
15.774000 0.4750 0.4720 0.4680 0.4670 0.4650
15.807254 0.4630 0.4620 0.4620 0.4620 0.4620
15.840000 0.4620 0.4630 0.4650 0.4650 0.4650
15.873254 0.4650 0.4650 0.4650 0.4650 0.4650
15.907000 0.4670 0.4670 0.4680 0.4680 0.4680
15.940254 0.4680 0.4680 0.4700 0.4680 0.4680
15.973000 0.4680 0.4680 0.4680 0.4680 0.4680
16.006254 0.4670
##END=
