##TITLE=M-CRESOL, 4,4'-ETHYLIDENE BIS(6-TERT-OCTYL)-
##JCAMP-DX=4.24
##DATA TYPE=INFRARED SPECTRUM
##CLASS=COBLENTZ
##ORIGIN=TENNESSEE EASTMAN COMPANY, RESEARCH LABORATORIES
##OWNER=COBLENTZ SOCIETY
Collection (C) 2018 copyright by the U.S. Secretary of Commerce
on behalf of the United States of America. All rights reserved.
##DATE=1960
##MOLFORM=C32 H50 O2
##SOURCE REFERENCE=COBLENTZ NO. 797
##$NIST ID=B6000797
##$NIST SOURCE=COBLENTZ
##$NIST IMAGE=cob797
##SPECTROMETER/DATA SYSTEM=Not specified, most likely a prism, grating, or hybrid spectrometer.
##STATE=SOLID (KBr PELLET)
##SAMPLING PROCEDURE=TRANSMISSION
##RESOLUTION=4
##DATA PROCESSING=DIGITIZED BY NIST FROM HARD COPY
##XUNITS=MICROMETERS
##YUNITS=TRANSMITTANCE
##XFACTOR=1.000000
##YFACTOR=1
##DELTAX=000.006853
##FIRSTX=2.007
##LASTX=16.0007
##FIRSTY=0.958
##MAXX=16.0007
##MINX=2.007
##MAXY=0.981
##MINY=0.027
##NPOINTS=2043
##XYDATA=(X++(Y..Y))
2.007000 0.9580 0.9580 0.9580 0.9580 0.9580
2.041283 0.9600 0.9600 0.9600 0.9600 0.9600
2.075000 0.9600 0.9620 0.9620 0.9620 0.9630
2.109283 0.9630 0.9650 0.9650 0.9650 0.9650
2.144000 0.9650 0.9650 0.9670 0.9670 0.9670
2.178283 0.9670 0.9690 0.9700 0.9700 0.9700
2.212000 0.9690 0.9690 0.9690 0.9690 0.9690
2.246283 0.9670 0.9630 0.9620 0.9600 0.9580
2.281000 0.9530 0.9500 0.9460 0.9410 0.9390
2.315283 0.9380 0.9380 0.9380 0.9380 0.9380
2.350000 0.9380 0.9380 0.9390 0.9390 0.9390
2.384283 0.9410 0.9410 0.9430 0.9430 0.9430
2.418000 0.9430 0.9430 0.9450 0.9460 0.9480
2.452283 0.9460 0.9480 0.9500 0.9510 0.9510
2.487000 0.9510 0.9510 0.9530 0.9530 0.9530
2.521283 0.9530 0.9530 0.9530 0.9530 0.9530
2.555000 0.9530 0.9530 0.9530 0.9530 0.9530
2.589283 0.9530 0.9530 0.9510 0.9530 0.9530
2.624000 0.9530 0.9530 0.9550 0.9570 0.9570
2.658283 0.9570 0.9570 0.9570 0.9580 0.9580
2.692000 0.9570 0.9550 0.9530 0.9500 0.9410
2.726283 0.9260 0.9020 0.8740 0.8450 0.8060
2.761000 0.7800 0.7390 0.6960 0.6620 0.6410
2.795283 0.6200 0.5720 0.5280 0.4850 0.4420
2.829000 0.3990 0.3580 0.3120 0.2650 0.2120
2.863283 0.1660 0.1230 0.1180 0.1210 0.1280
2.898000 0.1760 0.2090 0.2400 0.2590 0.2770
2.932283 0.2910 0.3050 0.3150 0.3270 0.3410
2.966000 0.3550 0.3700 0.3890 0.3960 0.4110
3.000283 0.4350 0.4610 0.4850 0.5070 0.5190
3.035000 0.5420 0.5570 0.5740 0.5910 0.6080
3.069283 0.6220 0.6340 0.6430 0.6530 0.6650
3.103000 0.6720 0.6820 0.6940 0.7060 0.7160
3.137283 0.7280 0.7400 0.7510 0.7590 0.7680
3.172000 0.7830 0.7940 0.8060 0.8140 0.8260
3.206283 0.8380 0.8470 0.8500 0.8540 0.8550
3.240000 0.8590 0.8620 0.8640 0.8640 0.8660
3.274283 0.8660 0.8690 0.8690 0.8660 0.8500
3.309000 0.8180 0.7770 0.7230 0.6430 0.5450
3.343283 0.4350 0.3250 0.2240 0.1380 0.0800
3.377000 0.0540 0.0480 0.0300 0.0270 0.0300
3.411283 0.0340 0.0390 0.0490 0.0580 0.0610
3.446000 0.0730 0.1020 0.1280 0.1320 0.1330
3.480283 0.1330 0.1370 0.1660 0.2170 0.2880
3.515000 0.3720 0.4640 0.5550 0.6430 0.7150
3.549283 0.7680 0.7950 0.8020 0.8110 0.8300
3.583000 0.8350 0.8500 0.8670 0.8690 0.8710
3.617283 0.8760 0.8810 0.8860 0.8910 0.8970
3.652000 0.8980 0.8980 0.8980 0.8970 0.8970
3.686283 0.8950 0.8950 0.8950 0.8950 0.8950
3.720000 0.8930 0.8930 0.8930 0.8950 0.9000
3.754283 0.9070 0.9090 0.9100 0.9140 0.9140
3.789000 0.9150 0.9150 0.9170 0.9170 0.9190
3.823283 0.9190 0.9210 0.9220 0.9270 0.9330
3.857000 0.9360 0.9380 0.9380 0.9390 0.9380
3.891283 0.9390 0.9390 0.9450 0.9460 0.9460
3.926000 0.9480 0.9480 0.9500 0.9500 0.9480
3.960283 0.9480 0.9480 0.9480 0.9480 0.9480
3.994000 0.9480 0.9480 0.9480 0.9480 0.9480
4.028283 0.9480 0.9500 0.9500 0.9500 0.9500
4.063000 0.9500 0.9500 0.9500 0.9500 0.9500
4.097283 0.9500 0.9480 0.9480 0.9480 0.9480
4.131000 0.9480 0.9480 0.9480 0.9480 0.9500
4.165283 0.9500 0.9500 0.9500 0.9500 0.9510
4.200000 0.9500 0.9500 0.9500 0.9500 0.9510
4.234283 0.9550 0.9550 0.9530 0.9530 0.9530
4.268000 0.9530 0.9530 0.9510 0.9510 0.9510
4.302283 0.9510 0.9510 0.9510 0.9510 0.9530
4.337000 0.9530 0.9530 0.9550 0.9530 0.9550
4.371283 0.9570 0.9570 0.9600 0.9630 0.9670
4.405000 0.9690 0.9700 0.9720 0.9720 0.9740
4.439283 0.9750 0.9770 0.9770 0.9790 0.9790
4.474000 0.9770 0.9770 0.9770 0.9770 0.9770
4.508283 0.9770 0.9770 0.9770 0.9770 0.9770
4.543000 0.9770 0.9770 0.9770 0.9770 0.9770
4.577283 0.9770 0.9750 0.9750 0.9750 0.9750
4.611000 0.9750 0.9750 0.9750 0.9750 0.9750
4.645283 0.9750 0.9750 0.9750 0.9750 0.9750
4.680000 0.9740 0.9740 0.9740 0.9750 0.9740
4.714283 0.9740 0.9740 0.9740 0.9740 0.9740
4.748000 0.9740 0.9740 0.9740 0.9740 0.9740
4.782283 0.9720 0.9720 0.9720 0.9720 0.9720
4.817000 0.9740 0.9740 0.9740 0.9740 0.9740
4.851283 0.9740 0.9740 0.9740 0.9740 0.9740
4.885000 0.9720 0.9700 0.9700 0.9700 0.9700
4.919283 0.9700 0.9720 0.9700 0.9700 0.9700
4.954000 0.9720 0.9720 0.9720 0.9720 0.9740
4.988283 0.9720 0.9720 0.9720 0.9720 0.9740
5.022000 0.9740 0.9740 0.9740 0.9740 0.9740
5.056283 0.9740 0.9740 0.9740 0.9750 0.9750
5.091000 0.9750 0.9750 0.9750 0.9750 0.9750
5.125283 0.9750 0.9740 0.9740 0.9740 0.9720
5.159000 0.9720 0.9720 0.9720 0.9700 0.9700
5.193283 0.9700 0.9720 0.9720 0.9740 0.9750
5.228000 0.9750 0.9750 0.9750 0.9750 0.9770
5.262283 0.9770 0.9770 0.9770 0.9770 0.9770
5.296000 0.9750 0.9750 0.9750 0.9750 0.9750
5.330283 0.9750 0.9750 0.9750 0.9770 0.9770
5.365000 0.9770 0.9770 0.9750 0.9770 0.9790
5.399283 0.9790 0.9810 0.9810 0.9810 0.9810
5.433000 0.9750 0.9750 0.9750 0.9750 0.9770
5.467283 0.9770 0.9770 0.9750 0.9740 0.9720
5.502000 0.9720 0.9720 0.9720 0.9700 0.9690
5.536283 0.9670 0.9650 0.9630 0.9620 0.9600
5.571000 0.9600 0.9580 0.9570 0.9570 0.9550
5.605283 0.9550 0.9510 0.9500 0.9480 0.9480
5.639000 0.9460 0.9460 0.9480 0.9480 0.9500
5.673283 0.9500 0.9500 0.9480 0.9480 0.9450
5.708000 0.9410 0.9340 0.9260 0.9220 0.9190
5.742283 0.9150 0.9100 0.9050 0.9030 0.9000
5.776000 0.8970 0.8910 0.8850 0.8790 0.8740
5.810283 0.8740 0.8740 0.8730 0.8710 0.8670
5.845000 0.8640 0.8620 0.8610 0.8590 0.8590
5.879283 0.8590 0.8590 0.8590 0.8590 0.8620
5.913000 0.8660 0.8690 0.8710 0.8710 0.8730
5.947283 0.8730 0.8710 0.8690 0.8670 0.8640
5.982000 0.8590 0.8540 0.8450 0.8350 0.8330
6.016283 0.8300 0.8260 0.8230 0.8140 0.8070
6.050000 0.8020 0.7940 0.7780 0.7680 0.7610
6.084283 0.7470 0.7400 0.7300 0.7230 0.7160
6.119000 0.7080 0.7010 0.6910 0.6800 0.6680
6.153283 0.6530 0.6340 0.6100 0.5980 0.5710
6.187000 0.5670 0.5710 0.5830 0.6030 0.6290
6.221283 0.6670 0.6920 0.7220 0.7340 0.7510
6.256000 0.7700 0.7870 0.7940 0.8010 0.8010
6.290283 0.8010 0.8010 0.7940 0.7780 0.7630
6.324000 0.7530 0.7340 0.7230 0.7230 0.7300
6.358283 0.7490 0.7660 0.7770 0.7830 0.7900
6.393000 0.7990 0.8110 0.8260 0.8280 0.8370
6.427283 0.8380 0.8430 0.8430 0.8430 0.8420
6.461000 0.8400 0.8350 0.8230 0.8140 0.8070
6.495283 0.8020 0.7970 0.7900 0.7830 0.7710
6.530000 0.7540 0.7220 0.6770 0.6320 0.5600
6.564283 0.4730 0.3410 0.2760 0.1880 0.1860
6.599000 0.1900 0.2480 0.3490 0.4210 0.4990
6.633283 0.5400 0.5790 0.5950 0.6200 0.6270
6.667000 0.6290 0.6260 0.5780 0.5480 0.5020
6.701283 0.4420 0.3910 0.3840 0.3800 0.3790
6.736000 0.3730 0.3610 0.3360 0.3070 0.2930
6.770283 0.2770 0.2670 0.2600 0.2500 0.2410
6.804000 0.2400 0.2400 0.2400 0.2400 0.2400
6.838283 0.2340 0.2290 0.2260 0.2210 0.2100
6.873000 0.2000 0.2000 0.2020 0.2410 0.2760
6.907283 0.3050 0.3340 0.3610 0.3870 0.4160
6.941000 0.4470 0.4810 0.4990 0.5180 0.5350
6.975283 0.5520 0.5690 0.5830 0.5960 0.6050
7.010000 0.6080 0.6080 0.6020 0.5830 0.5500
7.044283 0.5070 0.4570 0.4040 0.3480 0.2910
7.078000 0.2380 0.1860 0.1420 0.1080 0.0770
7.112283 0.0700 0.0720 0.0900 0.1230 0.1590
7.147000 0.1930 0.2190 0.2410 0.2770 0.3100
7.181283 0.3310 0.3610 0.4130 0.4200 0.4090
7.215000 0.3650 0.3290 0.2890 0.2550 0.2450
7.249283 0.2430 0.2430 0.2500 0.3070 0.3390
7.284000 0.3750 0.3990 0.4010 0.3990 0.3600
7.318283 0.3200 0.2430 0.2290 0.2290 0.2330
7.352000 0.3000 0.3510 0.4560 0.5120 0.5780
7.386283 0.6220 0.6580 0.6870 0.6920 0.6920
7.421000 0.6870 0.6680 0.6460 0.6320 0.6220
7.455283 0.6220 0.6310 0.6580 0.6740 0.6890
7.489000 0.6890 0.6860 0.6700 0.6510 0.6170
7.523283 0.5900 0.5620 0.5360 0.5020 0.5000
7.558000 0.4920 0.4920 0.5480 0.6100 0.6340
7.592283 0.6600 0.6800 0.6920 0.6920 0.6890
7.626000 0.6750 0.6410 0.6030 0.5640 0.5620
7.660283 0.5670 0.6140 0.6460 0.6750 0.6990
7.695000 0.7150 0.7230 0.7280 0.7270 0.7220
7.729283 0.7040 0.6870 0.6480 0.6220 0.5860
7.764000 0.5430 0.4950 0.4450 0.3940 0.3440
7.798283 0.2980 0.2880 0.3010 0.3580 0.3730
7.832000 0.3970 0.4110 0.4150 0.4130 0.4010
7.866283 0.3870 0.3750 0.3580 0.3390 0.3190
7.901000 0.3130 0.3190 0.3680 0.3910 0.4060
7.935283 0.4320 0.4660 0.4870 0.4990 0.5020
7.969000 0.5060 0.5000 0.4990 0.4850 0.4560
8.003283 0.4490 0.4330 0.4270 0.4230 0.4230
8.038000 0.4280 0.4450 0.4690 0.5020 0.5230
8.072283 0.5570 0.5720 0.5950 0.6050 0.6150
8.106000 0.6170 0.6190 0.6200 0.6200 0.6190
8.140283 0.6150 0.6100 0.6030 0.6020 0.5840
8.175000 0.5720 0.5690 0.5600 0.5350 0.5090
8.209283 0.4830 0.4570 0.4320 0.4060 0.3820
8.243000 0.3580 0.3340 0.3100 0.2880 0.2650
8.277283 0.2410 0.2210 0.1980 0.1780 0.1560
8.312000 0.1350 0.1060 0.0840 0.0560 0.0510
8.346283 0.0440 0.0410 0.0390 0.0420 0.0560
8.380000 0.0650 0.0920 0.1320 0.1800 0.2310
8.414283 0.2790 0.3220 0.3730 0.4160 0.4540
8.449000 0.4830 0.5090 0.5300 0.5480 0.5660
8.483283 0.5790 0.5910 0.6020 0.6020 0.6020
8.517000 0.6020 0.6020 0.6020 0.5840 0.5570
8.551283 0.5300 0.5020 0.4730 0.4390 0.4200
8.586000 0.3750 0.3250 0.2950 0.2650 0.2530
8.620283 0.2500 0.2360 0.2190 0.2020 0.1970
8.654000 0.1970 0.1980 0.2160 0.2430 0.2760
8.688283 0.3120 0.3530 0.3940 0.4330 0.4690
8.723000 0.5000 0.5230 0.5430 0.5620 0.5760
8.757283 0.5840 0.5880 0.5880 0.5880 0.5760
8.792000 0.5640 0.5590 0.5550 0.5570 0.5840
8.826283 0.6050 0.6270 0.6430 0.6560 0.6700
8.860000 0.6790 0.6940 0.7010 0.7060 0.7100
8.894283 0.7100 0.7030 0.6960 0.6840 0.6670
8.929000 0.6500 0.6320 0.6030 0.5960 0.5880
8.963283 0.5810 0.5810 0.5900 0.6100 0.6310
8.997000 0.6550 0.6770 0.6990 0.7160 0.7280
9.031283 0.7390 0.7470 0.7530 0.7590 0.7630
9.066000 0.7660 0.7680 0.7730 0.7780 0.7820
9.100283 0.7870 0.7890 0.7920 0.7990 0.8010
9.134000 0.8020 0.8040 0.8060 0.8110 0.8160
9.168283 0.8210 0.8230 0.8230 0.8230 0.8250
9.203000 0.8230 0.8210 0.8210 0.8160 0.8140
9.237283 0.8090 0.8020 0.7990 0.7890 0.7820
9.271000 0.7730 0.7440 0.7320 0.6990 0.6620
9.305283 0.6240 0.5790 0.5330 0.4810 0.4350
9.340000 0.3910 0.3700 0.3700 0.3790 0.4280
9.374283 0.4710 0.5090 0.5590 0.5980 0.6260
9.408000 0.6480 0.6650 0.6790 0.6940 0.7100
9.442283 0.7280 0.7440 0.7580 0.7710 0.7820
9.477000 0.7920 0.8010 0.8020 0.8040 0.8060
9.511283 0.8060 0.8060 0.8040 0.8040 0.8040
9.545000 0.8040 0.8040 0.8040 0.8020 0.8020
9.579283 0.7920 0.7900 0.7850 0.7780 0.7630
9.614000 0.7220 0.7220 0.7100 0.6940 0.6770
9.648283 0.6600 0.6480 0.6310 0.6200 0.6170
9.682000 0.6140 0.6140 0.6220 0.6340 0.6460
9.716283 0.6550 0.6650 0.6700 0.6700 0.6680
9.751000 0.6480 0.6260 0.6050 0.5760 0.5670
9.785283 0.5670 0.5810 0.6070 0.6260 0.6530
9.820000 0.6770 0.6990 0.7150 0.7220 0.7280
9.854283 0.7300 0.7340 0.7340 0.7300 0.7220
9.888000 0.7160 0.7110 0.6990 0.6910 0.6870
9.922283 0.6840 0.6820 0.6820 0.6860 0.6990
9.957000 0.7110 0.7220 0.7340 0.7460 0.7590
9.991283 0.7770 0.7970 0.8090 0.8160 0.8210
10.025000 0.8250 0.8330 0.8350 0.8380 0.8400
10.059283 0.8420 0.8450 0.8490 0.8490 0.8500
10.094000 0.8520 0.8540 0.8550 0.8570 0.8610
10.128283 0.8610 0.8570 0.8520 0.8490 0.8470
10.162000 0.8430 0.8420 0.8420 0.8400 0.8310
10.196283 0.8190 0.8040 0.7950 0.7830 0.7770
10.231000 0.7660 0.7630 0.7530 0.7490 0.7470
10.265283 0.7470 0.7490 0.7590 0.7730 0.7900
10.299000 0.7990 0.8060 0.8090 0.8160 0.8280
10.333283 0.8300 0.8380 0.8430 0.8490 0.8520
10.368000 0.8540 0.8550 0.8590 0.8620 0.8660
10.402283 0.8670 0.8670 0.8670 0.8670 0.8670
10.436000 0.8660 0.8660 0.8640 0.8640 0.8660
10.470283 0.8660 0.8670 0.8710 0.8710 0.8730
10.505000 0.8740 0.8740 0.8740 0.8740 0.8740
10.539283 0.8760 0.8760 0.8760 0.8760 0.8740
10.573000 0.8730 0.8760 0.8760 0.8760 0.8740
10.607283 0.8740 0.8740 0.8730 0.8710 0.8690
10.642000 0.8640 0.8610 0.8590 0.8550 0.8520
10.676283 0.8490 0.8490 0.8500 0.8500 0.8490
10.710000 0.8490 0.8490 0.8490 0.8490 0.8430
10.744283 0.8380 0.8370 0.8330 0.8310 0.8300
10.779000 0.8260 0.8210 0.8180 0.8070 0.7940
10.813283 0.7830 0.7710 0.7590 0.7460 0.7320
10.848000 0.7320 0.7350 0.7390 0.7490 0.7590
10.882283 0.7770 0.7890 0.7970 0.8020 0.8070
10.916000 0.8090 0.8130 0.8140 0.8130 0.8110
10.950283 0.8090 0.8090 0.8110 0.8130 0.8140
10.985000 0.8160 0.8210 0.8250 0.8260 0.8300
11.019283 0.8300 0.8230 0.8070 0.7970 0.7800
11.053000 0.7400 0.7130 0.6870 0.6560 0.6310
11.087283 0.6000 0.5860 0.5860 0.5910 0.6050
11.122000 0.6310 0.6500 0.6740 0.6920 0.6990
11.156283 0.6990 0.6990 0.6910 0.6680 0.6510
11.190000 0.6170 0.5840 0.5480 0.5330 0.5360
11.224283 0.5400 0.5830 0.6320 0.6750 0.7150
11.259000 0.7470 0.7750 0.7920 0.8020 0.8190
11.293283 0.8330 0.8430 0.8470 0.8500 0.8520
11.327000 0.8550 0.8590 0.8620 0.8660 0.8670
11.361283 0.8690 0.8710 0.8710 0.8730 0.8730
11.396000 0.8730 0.8710 0.8690 0.8670 0.8660
11.430283 0.8640 0.8610 0.8550 0.8490 0.8400
11.464000 0.8330 0.8260 0.8190 0.8140 0.8070
11.498283 0.8020 0.8010 0.7970 0.7900 0.7850
11.533000 0.7830 0.7710 0.7560 0.7270 0.6940
11.567283 0.6580 0.6200 0.5840 0.5640 0.5180
11.601000 0.4780 0.4490 0.4350 0.4280 0.4320
11.635283 0.4470 0.4710 0.4950 0.5120 0.5300
11.670000 0.5400 0.5450 0.5470 0.5470 0.5470
11.704283 0.5450 0.5450 0.5520 0.5740 0.5980
11.738000 0.6220 0.6480 0.6740 0.6980 0.7180
11.772283 0.7350 0.7470 0.7530 0.7630 0.7700
11.807000 0.7710 0.7710 0.7700 0.7680 0.7650
11.841283 0.7540 0.7370 0.7220 0.7040 0.6980
11.875000 0.6870 0.6790 0.6680 0.6630 0.6620
11.909283 0.6620 0.6630 0.6720 0.6820 0.6960
11.944000 0.7080 0.7180 0.7270 0.7370 0.7460
11.978283 0.7560 0.7660 0.7800 0.7920 0.8020
12.013000 0.8140 0.8230 0.8280 0.8380 0.8420
12.047283 0.8500 0.8520 0.8550 0.8610 0.8620
12.081000 0.8640 0.8670 0.8670 0.8670 0.8690
12.115283 0.8710 0.8710 0.8730 0.8730 0.8730
12.150000 0.8730 0.8740 0.8760 0.8780 0.8780
12.184283 0.8790 0.8790 0.8790 0.8810 0.8810
12.218000 0.8830 0.8830 0.8830 0.8830 0.8810
12.252283 0.8810 0.8790 0.8780 0.8730 0.8690
12.287000 0.8640 0.8610 0.8590 0.8540 0.8520
12.321283 0.8490 0.8420 0.8370 0.8260 0.8160
12.355000 0.8070 0.7990 0.7870 0.7800 0.7730
12.389283 0.7700 0.7650 0.7650 0.7660 0.7780
12.424000 0.7870 0.7970 0.8020 0.8130 0.8180
12.458283 0.8280 0.8400 0.8450 0.8500 0.8540
12.492000 0.8570 0.8610 0.8620 0.8640 0.8670
12.526283 0.8690 0.8730 0.8740 0.8760 0.8790
12.561000 0.8810 0.8830 0.8830 0.8850 0.8850
12.595283 0.8880 0.8880 0.8900 0.8900 0.8910
12.629000 0.8900 0.8880 0.8880 0.8850 0.8830
12.663283 0.8810 0.8790 0.8790 0.8790 0.8790
12.698000 0.8790 0.8810 0.8830 0.8830 0.8860
12.732283 0.8860 0.8880 0.8900 0.8910 0.8910
12.766000 0.8930 0.8930 0.8930 0.8950 0.8950
12.800283 0.8950 0.8970 0.8970 0.8980 0.8980
12.835000 0.9000 0.9000 0.9020 0.9000 0.9000
12.869283 0.9020 0.9020 0.9020 0.9020 0.9020
12.903000 0.9000 0.9000 0.9000 0.9000 0.9000
12.937283 0.8980 0.8970 0.8970 0.8970 0.8970
12.972000 0.8970 0.8970 0.8970 0.9000 0.9000
13.006283 0.9020 0.9020 0.9020 0.9020 0.9020
13.041000 0.9020 0.9000 0.9000 0.9000 0.9000
13.075283 0.9000 0.9000 0.8980 0.9000 0.8980
13.109000 0.8980 0.8980 0.8980 0.8980 0.9000
13.143283 0.9000 0.9020 0.9020 0.9020 0.9020
13.178000 0.9000 0.9000 0.9000 0.8950 0.8880
13.212283 0.8710 0.8670 0.8620 0.8540 0.8450
13.246000 0.8350 0.8280 0.8210 0.8190 0.8160
13.280283 0.8130 0.8110 0.8090 0.8090 0.8110
13.315000 0.8140 0.8160 0.8230 0.8260 0.8280
13.349283 0.8330 0.8350 0.8380 0.8420 0.8420
13.383000 0.8430 0.8450 0.8450 0.8470 0.8450
13.417283 0.8450 0.8430 0.8430 0.8400 0.8380
13.452000 0.8350 0.8330 0.8300 0.8250 0.8190
13.486283 0.8130 0.8060 0.8020 0.7970 0.7920
13.520000 0.7770 0.7680 0.7630 0.7510 0.7400
13.554283 0.7300 0.7220 0.7150 0.7110 0.7100
13.589000 0.7080 0.7080 0.7060 0.7100 0.7110
13.623283 0.7160 0.7230 0.7340 0.7470 0.7590
13.657000 0.7700 0.7780 0.7890 0.7990 0.8070
13.691283 0.8180 0.8260 0.8330 0.8380 0.8430
13.726000 0.8500 0.8520 0.8540 0.8570 0.8570
13.760283 0.8590 0.8590 0.8610 0.8640 0.8640
13.794000 0.8670 0.8710 0.8740 0.8760 0.8740
13.828283 0.8760 0.8780 0.8780 0.8790 0.8810
13.863000 0.8830 0.8830 0.8850 0.8860 0.8880
13.897283 0.8900 0.8930 0.8930 0.8950 0.8980
13.931000 0.9000 0.9000 0.9000 0.9000 0.9020
13.965283 0.9030 0.9030 0.9050 0.9030 0.9070
14.000000 0.9070 0.9090 0.9100 0.9140 0.9120
14.034283 0.9140 0.9140 0.9150 0.9170 0.9170
14.069000 0.9170 0.9170 0.9170 0.9190 0.9190
14.103283 0.9190 0.9190 0.9190 0.9190 0.9190
14.137000 0.9190 0.9190 0.9210 0.9210 0.9210
14.171283 0.9220 0.9220 0.9220 0.9220 0.9240
14.206000 0.9240 0.9260 0.9240 0.9240 0.9240
14.240283 0.9260 0.9260 0.9240 0.9240 0.9240
14.274000 0.9240 0.9240 0.9240 0.9240 0.9260
14.308283 0.9270 0.9260 0.9260 0.9260 0.9260
14.343000 0.9260 0.9260 0.9260 0.9260 0.9260
14.377283 0.9260 0.9260 0.9260 0.9260 0.9260
14.411000 0.9260 0.9240 0.9240 0.9240 0.9220
14.445283 0.9240 0.9240 0.9220 0.9220 0.9220
14.480000 0.9190 0.9190 0.9150 0.9120 0.9020
14.514283 0.9000 0.9000 0.9000 0.9000 0.9000
14.548000 0.9000 0.9000 0.9000 0.9000 0.9000
14.582283 0.9000 0.9000 0.9000 0.9000 0.9000
14.617000 0.9000 0.9020 0.9020 0.9020 0.9020
14.651283 0.9050 0.9050 0.9070 0.9070 0.9070
14.685000 0.9090 0.9090 0.9090 0.9100 0.9100
14.719283 0.9100 0.9120 0.9120 0.9140 0.9140
14.754000 0.9140 0.9150 0.9150 0.9150 0.9170
14.788283 0.9170 0.9170 0.9170 0.9190 0.9190
14.822000 0.9190 0.9190 0.9190 0.9190 0.9190
14.856283 0.9210 0.9190 0.9190 0.9190 0.9190
14.891000 0.9190 0.9190 0.9190 0.9190 0.9190
14.925283 0.9190 0.9170 0.9170 0.9150 0.9150
14.959000 0.9140 0.9120 0.9050 0.9050 0.9020
14.993283 0.9000 0.8970 0.8970 0.8950 0.8950
15.028000 0.8970 0.8950 0.8950 0.8950 0.8950
15.062283 0.8950 0.8950 0.8950 0.8950 0.8980
15.097000 0.9000 0.9000 0.9000 0.9000 0.9000
15.131283 0.9000 0.8980 0.8970 0.8930 0.8910
15.165000 0.8900 0.8880 0.8850 0.8810 0.8780
15.199283 0.8760 0.8730 0.8690 0.8660 0.8610
15.234000 0.8590 0.8540 0.8500 0.8430 0.8400
15.268283 0.8370 0.8310 0.8280 0.8230 0.8180
15.302000 0.8130 0.8090 0.8060 0.8060 0.8040
15.336283 0.8020 0.8020 0.8020 0.8010 0.8010
15.371000 0.8010 0.8010 0.8010 0.8010 0.8010
15.405283 0.8010 0.8010 0.8010 0.8010 0.8010
15.439000 0.8010 0.8020 0.8020 0.8020 0.8020
15.473283 0.8020 0.8020 0.8020 0.8020 0.8020
15.508000 0.8020 0.8020 0.8020 0.8020 0.8020
15.542283 0.8040 0.8020 0.8020 0.8020 0.8020
15.576000 0.8020 0.8020 0.8020 0.8020 0.8020
15.610283 0.8020 0.8020 0.8020 0.8020 0.8010
15.645000 0.8010 0.8010 0.7990 0.7940 0.7900
15.679283 0.7900 0.7870 0.7850 0.7830 0.7800
15.713000 0.7770 0.7730 0.7710 0.7680 0.7630
15.747283 0.7610 0.7580 0.7580 0.7540 0.7530
15.782000 0.7530 0.7510 0.7510 0.7490 0.7470
15.816283 0.7460 0.7420 0.7390 0.7370 0.7350
15.850000 0.7350 0.7350 0.7340 0.7320 0.7320
15.884283 0.7320 0.7320 0.7320 0.7300 0.7300
15.919000 0.7280 0.7270 0.7270 0.7270 0.7270
15.953283 0.7250 0.7250 0.7220 0.7220 0.7200
15.987000 0.7200 0.7180 0.7160
##END=
