##TITLE=ASPARTIC ACID, DIPHENYL ESTER, HYDROCHLORIDE
##JCAMP-DX=4.24
##DATA TYPE=INFRARED SPECTRUM
##CLASS=COBLENTZ III
##ORIGIN=SOUTHERN RESEARCH INSTITUTE
##OWNER=COBLENTZ SOCIETY
Collection (C) 2018 copyright by the U.S. Secretary of Commerce
on behalf of the United States of America. All rights reserved.
##DATE=1959/10/21
##NAMES=diphenyl 2-aminosuccinate hydrochloride
##MOLFORM=C16 H16 Cl N O4
##SOURCE REFERENCE=COBLENTZ NO. 7435
##$NIST ID=B6007435
##$NIST SOURCE=COBLENTZ
##$NIST IMAGE=cob7435
##SPECTROMETER/DATA SYSTEM=PERKIN-ELMER 21 (GRATING)
##INSTRUMENT PARAMETERS=FILTER CHANGE AT ABOUT 1020 CM^-^1.
##STATE=SOLID (0.8 mg / 650 KBr DISC)
$$SPECTRAL CONTAMINATION DUE TO H2O AROUND 3450 CM^-^1
##SAMPLING PROCEDURE=TRANSMISSION
##RESOLUTION=2
##DATA PROCESSING=DIGITIZED BY NIST FROM HARD COPY (FROM TWO SEGMENTS)
##XUNITS=1/CM
##YUNITS=TRANSMITTANCE
##XFACTOR=1.000000
##YFACTOR=1
##DELTAX=1.338912
##FIRSTX=606.102
##LASTX=4023.01
##FIRSTY=0.864
##MAXX=4023.01
##MINX=606.102
##MAXY=0.864
##MINY=0.103139
##NPOINTS=2553
##XYDATA=(X++(Y..Y))
606.102000 0.8640 0.8640 0.8640 0.8640 0.8640
612.796560 0.8640 0.8640 0.8640 0.8640 0.8640
619.491120 0.8623 0.8620 0.8612 0.8610 0.8610
626.185680 0.8602 0.8600 0.8600 0.8585 0.8580
632.880240 0.8580 0.8573 0.8570 0.8570 0.8563
639.574800 0.8560 0.8560 0.8547 0.8540 0.8534
646.269360 0.8524 0.8520 0.8502 0.8473 0.8454
652.963920 0.8444 0.8407 0.8359 0.8314 0.8255
659.658480 0.8200 0.8156 0.8116 0.8091 0.8067
666.353040 0.8037 0.8016 0.8010 0.7998 0.7976
673.047600 0.7966 0.7938 0.7886 0.7843 0.7781
679.742160 0.7699 0.7618 0.7534 0.7499 0.7420
686.436720 0.7242 0.6725 0.6179 0.5864 0.5484
693.131280 0.4902 0.4587 0.4213 0.3616 0.3591
699.825840 0.3643 0.4091 0.5034 0.5436 0.6319
706.520400 0.6724 0.6985 0.7331 0.7370 0.7370
713.214960 0.7360 0.7203 0.7113 0.7043 0.6955
719.909520 0.6783 0.6495 0.6253 0.5999 0.5707
726.604080 0.5394 0.4965 0.4503 0.4388 0.4380
733.298640 0.4396 0.4424 0.4547 0.4641 0.4720
739.993200 0.4747 0.4750 0.4750 0.4729 0.4665
746.687760 0.4572 0.4394 0.4307 0.4300 0.4300
753.382320 0.4324 0.4370 0.4461 0.4713 0.5092
760.076880 0.5989 0.7056 0.7623 0.7873 0.8055
766.771440 0.8174 0.8239 0.8274 0.8295 0.8309
773.466000 0.8329 0.8340 0.8340 0.8348 0.8360
780.160560 0.8360 0.8360 0.8360 0.8353 0.8340
786.855120 0.8334 0.8314 0.8294 0.8270 0.8233
793.549680 0.8208 0.8196 0.8178 0.8156 0.8089
800.244240 0.8033 0.7993 0.7954 0.7912 0.7860
806.938800 0.7859 0.7851 0.7860 0.7865 0.7931
813.633360 0.7942 0.7972 0.8021 0.8050 0.8080
820.327920 0.8090 0.8100 0.8119 0.8130 0.8139
827.022480 0.8159 0.8160 0.8178 0.8198 0.8209
833.717040 0.8236 0.8257 0.8277 0.8288 0.8290
840.411600 0.8298 0.8316 0.8320 0.8328 0.8323
847.106160 0.8320 0.8320 0.8320 0.8320 0.8306
853.800720 0.8300 0.8300 0.8294 0.8290 0.8284
860.495280 0.8280 0.8268 0.8260 0.8254 0.8250
867.189840 0.8245 0.8219 0.8163 0.8105 0.8065
873.884400 0.8011 0.7947 0.7902 0.7866 0.7802
880.578960 0.7715 0.7655 0.7588 0.7517 0.7461
887.273520 0.7419 0.7390 0.7353 0.7304 0.7248
893.968080 0.7173 0.7076 0.6946 0.6783 0.6616
900.662640 0.6505 0.6490 0.6490 0.6494 0.6519
907.357200 0.6567 0.6606 0.6653 0.6746 0.6860
914.051760 0.6934 0.6972 0.6991 0.7001 0.7011
920.746320 0.7030 0.7030 0.7030 0.7010 0.7000
927.440880 0.7000 0.6932 0.6854 0.6584 0.6411
934.135440 0.6317 0.6255 0.6178 0.6161 0.6160
940.830000 0.6160 0.6160 0.6168 0.6228 0.6272
947.524560 0.6400 0.6508 0.6592 0.6655 0.6759
954.219120 0.6856 0.6909 0.6969 0.7004 0.7037
960.913680 0.7117 0.7163 0.7189 0.7200 0.7200
967.608240 0.7206 0.7204 0.7200 0.7200 0.7200
974.302800 0.7200 0.7200 0.7200 0.7200 0.7200
980.997360 0.7200 0.7200 0.7200 0.7200 0.7196
987.691920 0.7190 0.7190 0.7178 0.7149 0.7123
994.386480 0.7082 0.7016 0.6931 0.6753 0.6571
1001.081040 0.6390 0.6250 0.6178 0.6087 0.5966
1007.775600 0.5879 0.5812 0.5686 0.5575 0.5497
1014.470160 0.5433 0.5394 0.5356 0.5330 0.5333
1021.164720 0.5368 0.5447 0.5524 0.5578 0.5701
1027.859280 0.5892 0.6368 0.6635 0.6911 0.7148
1034.553840 0.7512 0.7684 0.7833 0.7887 0.7937
1041.248400 0.7958 0.7969 0.7970 0.7970 0.7970
1047.942960 0.7970 0.7962 0.7960 0.7944 0.7924
1054.637520 0.7888 0.7864 0.7852 0.7827 0.7753
1061.332080 0.7694 0.7637 0.7578 0.7533 0.7486
1068.026640 0.7443 0.7404 0.7364 0.7256 0.7145
1074.721200 0.7086 0.7029 0.6937 0.6778 0.6535
1081.415760 0.6318 0.6214 0.6154 0.6060 0.5922
1088.110320 0.5711 0.5376 0.5042 0.4801 0.4651
1094.804880 0.4648 0.4858 0.5279 0.5574 0.5970
1101.499440 0.6481 0.6724 0.6870 0.6870 0.6864
1108.194000 0.6850 0.6839 0.6805 0.6790 0.6752
1114.888560 0.6608 0.6511 0.6398 0.6189 0.5974
1121.583120 0.5673 0.5009 0.4811 0.4626 0.4600
1128.277680 0.4602 0.4642 0.4888 0.5134 0.5372
1134.972240 0.5638 0.6301 0.7000 0.7000 0.7000
1141.666800 0.6990 0.6971 0.6932 0.6893 0.6835
1148.361360 0.6729 0.6585 0.6410 0.6215 0.6104
1155.055920 0.6005 0.5773 0.5615 0.5348 0.5242
1161.750480 0.5230 0.5230 0.5245 0.5310 0.5374
1168.445040 0.5477 0.5517 0.5569 0.5590 0.5590
1175.139600 0.5510 0.5248 0.4957 0.4672 0.4285
1181.834160 0.3901 0.3678 0.3529 0.3287 0.2938
1188.528720 0.2519 0.2073 0.1855 0.1860 0.1919
1195.223280 0.2031 0.2279 0.2606 0.2867 0.3125
1201.917840 0.3560 0.4141 0.4380 0.4373 0.4360
1208.612400 0.4357 0.4347 0.4254 0.4049 0.3938
1215.306960 0.3753 0.3619 0.3447 0.3223 0.3040
1222.001520 0.2881 0.2757 0.2654 0.2577 0.2510
1228.696080 0.2452 0.2401 0.2343 0.2295 0.2256
1235.390640 0.2212 0.2131 0.2022 0.1901 0.1742
1242.085200 0.1546 0.1408 0.1349 0.1270 0.1191
1248.779760 0.1132 0.1092 0.1052 0.1031 0.1048
1255.474320 0.1059 0.1168 0.1286 0.1405 0.1523
1262.168880 0.2403 0.2810 0.3073 0.3490 0.3738
1268.863440 0.3936 0.4142 0.4350 0.4564 0.4906
1275.558000 0.5140 0.5317 0.5481 0.5652 0.5803
1282.252560 0.6046 0.6234 0.6356 0.6475 0.6593
1288.947120 0.6705 0.6802 0.6885 0.6964 0.7016
1295.641680 0.7030 0.7035 0.7045 0.7050 0.7050
1302.336240 0.7050 0.7050 0.7050 0.7050 0.7050
1309.030800 0.7050 0.7050 0.7050 0.7050 0.7050
1315.725360 0.7050 0.7050 0.7050 0.7047 0.7037
1322.419920 0.7024 0.6999 0.6957 0.6913 0.6895
1329.114480 0.6927 0.7019 0.7149 0.7241 0.7297
1335.809040 0.7345 0.7437 0.7483 0.7500 0.7498
1342.503600 0.7473 0.7393 0.7303 0.7194 0.7088
1349.198160 0.7024 0.6806 0.6527 0.6202 0.6043
1355.892720 0.5875 0.5574 0.5155 0.4703 0.4240
1362.587280 0.4191 0.4199 0.4226 0.4360 0.4834
1369.281840 0.5213 0.5568 0.6070 0.6234 0.6266
1375.976400 0.6270 0.6270 0.6270 0.6255 0.6126
1382.670960 0.5958 0.5720 0.5550 0.5354 0.5088
1389.365520 0.4776 0.4437 0.4291 0.4268 0.4266
1396.060080 0.4365 0.4523 0.4771 0.4998 0.5156
1402.754640 0.5718 0.6206 0.6265 0.6324 0.6404
1409.449200 0.6473 0.6591 0.6699 0.6710 0.6710
1416.143760 0.6698 0.6665 0.6636 0.6623 0.6617
1422.838320 0.6644 0.6686 0.6745 0.6824 0.6903
1429.532880 0.7012 0.7194 0.7322 0.7328 0.7320
1436.227440 0.7318 0.7306 0.7286 0.7265 0.7234
1442.922000 0.7193 0.7139 0.7043 0.6801 0.6401
1449.616560 0.6125 0.5852 0.5615 0.5378 0.5149
1456.311120 0.5121 0.5151 0.5230 0.5319 0.5437
1463.005680 0.5594 0.5790 0.5866 0.6351 0.6572
1469.700240 0.6599 0.6573 0.6387 0.6213 0.6139
1476.394800 0.6080 0.5979 0.5854 0.5303 0.4659
1483.089360 0.4396 0.4019 0.3739 0.3503 0.2946
1489.783920 0.2753 0.2750 0.2757 0.2834 0.2969
1496.478480 0.3033 0.3040 0.3430 0.3860 0.4624
1503.173040 0.5374 0.5991 0.6505 0.6894 0.7118
1509.867600 0.7207 0.7301 0.7350 0.7355 0.7427
1516.562160 0.7528 0.7578 0.7617 0.7657 0.7696
1523.256720 0.7744 0.7803 0.7840 0.7840 0.7840
1529.951280 0.7840 0.7840 0.7840 0.7834 0.7820
1536.645840 0.7817 0.7810 0.7803 0.7780 0.7778
1543.340400 0.7768 0.7756 0.7736 0.7713 0.7669
1550.034960 0.7598 0.7522 0.7466 0.7436 0.7395
1556.729520 0.7347 0.7308 0.7279 0.7269 0.7249
1563.424080 0.7210 0.7190 0.7150 0.7121 0.7110
1570.118640 0.7091 0.7090 0.7118 0.7129 0.7166
1576.813200 0.7170 0.7188 0.7190 0.7190 0.7190
1583.507760 0.7190 0.7190 0.7190 0.7190 0.7190
1590.202320 0.7175 0.7095 0.6877 0.6795 0.6747
1596.896880 0.6694 0.6645 0.6609 0.6580 0.6583
1603.591440 0.6629 0.6694 0.6874 0.7018 0.7086
1610.286000 0.7309 0.7513 0.7616 0.7676 0.7706
1616.980560 0.7720 0.7725 0.7735 0.7750 0.7765
1623.675120 0.7770 0.7770 0.7770 0.7774 0.7780
1630.369680 0.7788 0.7800 0.7807 0.7820 0.7827
1637.064240 0.7840 0.7843 0.7850 0.7850 0.7850
1643.758800 0.7850 0.7850 0.7850 0.7850 0.7850
1650.453360 0.7848 0.7840 0.7840 0.7837 0.7820
1657.147920 0.7819 0.7810 0.7809 0.7797 0.7769
1663.842480 0.7757 0.7718 0.7688 0.7657 0.7598
1670.537040 0.7539 0.7490 0.7470 0.7441 0.7430
1677.231600 0.7411 0.7391 0.7371 0.7324 0.7284
1683.926160 0.7253 0.7206 0.7157 0.7082 0.7011
1690.620720 0.6867 0.6643 0.6302 0.6198 0.6159
1697.315280 0.6119 0.6050 0.5971 0.5899 0.5823
1704.009840 0.5744 0.5637 0.5546 0.5087 0.4445
1710.704400 0.3740 0.2994 0.2477 0.2096 0.1782
1717.398960 0.1624 0.1363 0.1184 0.1180 0.1180
1724.093520 0.1185 0.1210 0.1240 0.1288 0.1348
1730.788080 0.1379 0.1403 0.1433 0.1450 0.1450
1737.482640 0.1450 0.1450 0.1443 0.1395 0.1250
1744.177200 0.1084 0.1064 0.1053 0.1063 0.1076
1750.871760 0.1137 0.1540 0.2442 0.2814 0.3198
1757.566320 0.3749 0.4201 0.5027 0.5666 0.6444
1764.260880 0.6723 0.6954 0.7134 0.7272 0.7478
1770.955440 0.7567 0.7669 0.7802 0.7842 0.7881
1777.650000 0.7932 0.8080 0.8119 0.8101 0.8129
1784.344560 0.8130 0.8168 0.8179 0.8198 0.8209
1791.039120 0.8219 0.8220 0.8220 0.8237 0.8248
1797.733680 0.8242 0.8248 0.8250 0.8250 0.8250
1804.428240 0.8258 0.8260 0.8260 0.8260 0.8260
1811.122800 0.8274 0.8280 0.8280 0.8280 0.8280
1817.817360 0.8286 0.8296 0.8318 0.8348 0.8366
1824.511920 0.8376 0.8391 0.8400 0.8405 0.8415
1831.206480 0.8420 0.8420 0.8420 0.8420 0.8420
1837.901040 0.8420 0.8420 0.8429 0.8440 0.8440
1844.595600 0.8440 0.8440 0.8440 0.8440 0.8440
1851.290160 0.8443 0.8450 0.8450 0.8447 0.8440
1857.984720 0.8440 0.8440 0.8440 0.8440 0.8440
1864.679280 0.8440 0.8440 0.8440 0.8440 0.8440
1871.373840 0.8440 0.8440 0.8440 0.8440 0.8440
1878.068400 0.8440 0.8440 0.8440 0.8440 0.8440
1884.762960 0.8440 0.8440 0.8440 0.8440 0.8440
1891.457520 0.8440 0.8440 0.8440 0.8440 0.8440
1898.152080 0.8440 0.8440 0.8440 0.8440 0.8440
1904.846640 0.8440 0.8440 0.8424 0.8420 0.8420
1911.541200 0.8412 0.8410 0.8403 0.8400 0.8400
1918.235760 0.8400 0.8400 0.8400 0.8387 0.8374
1924.930320 0.8364 0.8348 0.8334 0.8312 0.8294
1931.624880 0.8284 0.8269 0.8260 0.8255 0.8250
1938.319440 0.8245 0.8230 0.8215 0.8196 0.8175
1945.014000 0.8166 0.8160 0.8152 0.8136 0.8126
1951.708560 0.8120 0.8113 0.8096 0.8090 0.8087
1958.403120 0.8074 0.8057 0.8047 0.8034 0.8015
1965.097680 0.8000 0.7995 0.7980 0.7978 0.7964
1971.792240 0.7938 0.7925 0.7898 0.7888 0.7877
1978.486800 0.7859 0.7849 0.7840 0.7838 0.7819
1985.181360 0.7809 0.7799 0.7779 0.7759 0.7740
1991.875920 0.7730 0.7720 0.7720 0.7720 0.7720
1998.570480 0.7701 0.7700 0.7700 0.7700 0.7700
2005.265040 0.7719 0.7729 0.7730 0.7739 0.7759
2011.959600 0.7769 0.7779 0.7799 0.7819 0.7839
2018.654160 0.7859 0.7860 0.7916 0.7957 0.7997
2025.348720 0.8037 0.8059 0.8088 0.8137 0.8177
2032.043280 0.8236 0.8259 0.8297 0.8337 0.8368
2038.737840 0.8398 0.8437 0.8449 0.8478 0.8489
2045.432400 0.8490 0.8490 0.8499 0.8519 0.8529
2052.126960 0.8539 0.8559 0.8560 0.8560 0.8560
2058.821520 0.8569 0.8579 0.8580 0.8580 0.8599
2065.516080 0.8600 0.8609 0.8610 0.8610 0.8610
2072.210640 0.8610 0.8610 0.8610 0.8610 0.8610
2078.905200 0.8610 0.8610 0.8619 0.8620 0.8620
2085.599760 0.8620 0.8620 0.8620 0.8620 0.8620
2092.294320 0.8620 0.8620 0.8620 0.8620 0.8620
2098.988880 0.8620 0.8620 0.8611 0.8619 0.8620
2105.683440 0.8620 0.8620 0.8620 0.8620 0.8620
2112.378000 0.8620 0.8620 0.8620 0.8620 0.8620
2119.072560 0.8620 0.8620 0.8620 0.8620 0.8620
2125.767120 0.8620 0.8620 0.8620 0.8620 0.8620
2132.461680 0.8620 0.8620 0.8620 0.8620 0.8620
2139.156240 0.8611 0.8610 0.8610 0.8610 0.8610
2145.850800 0.8610 0.8610 0.8610 0.8610 0.8610
2152.545360 0.8610 0.8610 0.8610 0.8610 0.8610
2159.239920 0.8610 0.8610 0.8610 0.8601 0.8600
2165.934480 0.8600 0.8600 0.8600 0.8600 0.8600
2172.629040 0.8600 0.8600 0.8600 0.8600 0.8600
2179.323600 0.8600 0.8600 0.8600 0.8600 0.8600
2186.018160 0.8600 0.8600 0.8600 0.8600 0.8600
2192.712720 0.8600 0.8600 0.8600 0.8600 0.8600
2199.407280 0.8600 0.8600 0.8609 0.8610 0.8610
2206.101840 0.8610 0.8610 0.8610 0.8610 0.8610
2212.796400 0.8610 0.8610 0.8610 0.8610 0.8610
2219.490960 0.8610 0.8610 0.8610 0.8610 0.8610
2226.185520 0.8610 0.8610 0.8610 0.8610 0.8563
2232.880080 0.8541 0.8531 0.8530 0.8530 0.8530
2239.574640 0.8521 0.8520 0.8520 0.8520 0.8529
2246.269200 0.8521 0.8520 0.8520 0.8520 0.8520
2252.963760 0.8520 0.8520 0.8520 0.8520 0.8520
2259.658320 0.8520 0.8520 0.8520 0.8520 0.8520
2266.352880 0.8520 0.8520 0.8520 0.8520 0.8520
2273.047440 0.8520 0.8520 0.8520 0.8520 0.8501
2279.742000 0.8500 0.8500 0.8491 0.8490 0.8490
2286.436560 0.8490 0.8490 0.8490 0.8490 0.8481
2293.131120 0.8480 0.8461 0.8460 0.8451 0.8450
2299.825680 0.8441 0.8440 0.8421 0.8411 0.8401
2306.520240 0.8381 0.8380 0.8380 0.8380 0.8380
2313.214800 0.8371 0.8370 0.8370 0.8370 0.8370
2319.909360 0.8370 0.8370 0.8370 0.8370 0.8361
2326.603920 0.8360 0.8360 0.8360 0.8360 0.8369
2333.298480 0.8370 0.8370 0.8361 0.8360 0.8360
2339.993040 0.8360 0.8360 0.8360 0.8360 0.8360
2346.687600 0.8360 0.8360 0.8360 0.8360 0.8360
2353.382160 0.8360 0.8360 0.8360 0.8360 0.8360
2360.076720 0.8360 0.8360 0.8360 0.8369 0.8361
2366.771280 0.8360 0.8360 0.8360 0.8360 0.8360
2373.465840 0.8360 0.8360 0.8360 0.8341 0.8340
2380.160400 0.8331 0.8330 0.8330 0.8330 0.8330
2386.854960 0.8330 0.8330 0.8330 0.8330 0.8321
2393.549520 0.8320 0.8301 0.8291 0.8290 0.8281
2400.244080 0.8252 0.8250 0.8241 0.8240 0.8221
2406.938640 0.8164 0.8104 0.8091 0.8090 0.8090
2413.633200 0.8081 0.8080 0.8052 0.8013 0.8001
2420.327760 0.7972 0.7961 0.7941 0.7940 0.7931
2427.022320 0.7930 0.7921 0.7920 0.7901 0.7900
2433.716880 0.7881 0.7880 0.7861 0.7860 0.7851
2440.411440 0.7850 0.7841 0.7840 0.7812 0.7810
2447.106000 0.7801 0.7800 0.7781 0.7771 0.7770
2453.800560 0.7761 0.7760 0.7732 0.7730 0.7730
2460.495120 0.7721 0.7720 0.7701 0.7691 0.7681
2467.189680 0.7661 0.7651 0.7613 0.7582 0.7561
2473.884240 0.7532 0.7521 0.7501 0.7472 0.7442
2480.578800 0.7431 0.7430 0.7411 0.7410 0.7410
2487.273360 0.7401 0.7400 0.7391 0.7390 0.7390
2493.967920 0.7390 0.7390 0.7390 0.7371 0.7370
2500.662480 0.7361 0.7360 0.7360 0.7351 0.7350
2507.357040 0.7322 0.7311 0.7291 0.7290 0.7281
2514.051600 0.7271 0.7270 0.7251 0.7250 0.7241
2520.746160 0.7231 0.7202 0.7191 0.7171 0.7151
2527.440720 0.7131 0.7111 0.7082 0.7043 0.7031
2534.135280 0.7030 0.7011 0.6973 0.6886 0.6843
2540.829840 0.6803 0.6735 0.6721 0.6655 0.6604
2547.524400 0.6554 0.6494 0.6471 0.6451 0.6431
2554.218960 0.6402 0.6354 0.6322 0.6311 0.6291
2560.913520 0.6281 0.6271 0.6233 0.6202 0.6200
2567.608080 0.6191 0.6190 0.6171 0.6161 0.6160
2574.302640 0.6151 0.6150 0.6131 0.6121 0.6120
2580.997200 0.6120 0.6120 0.6120 0.6120 0.6120
2587.691760 0.6111 0.6110 0.6110 0.6110 0.6110
2594.386320 0.6110 0.6156 0.6188 0.6199 0.6209
2601.080880 0.6229 0.6239 0.6249 0.6250 0.6250
2607.775440 0.6250 0.6269 0.6251 0.6250 0.6250
2614.470000 0.6250 0.6231 0.6211 0.6201 0.6172
2621.164560 0.6161 0.6151 0.6131 0.6121 0.6120
2627.859120 0.6092 0.6071 0.6014 0.5991 0.5962
2634.553680 0.5914 0.5882 0.5871 0.5851 0.5831
2641.248240 0.5839 0.5803 0.5791 0.5762 0.5751
2647.942800 0.5731 0.5711 0.5719 0.5692 0.5709
2654.637360 0.5673 0.5651 0.5650 0.5641 0.5631
2661.331920 0.5630 0.5611 0.5601 0.5600 0.5591
2668.026480 0.5571 0.5570 0.5561 0.5532 0.5530
2674.721040 0.5521 0.5520 0.5511 0.5491 0.5490
2681.415600 0.5481 0.5471 0.5470 0.5451 0.5431
2688.110160 0.5402 0.5372 0.5361 0.5351 0.5350
2694.804720 0.5331 0.5311 0.5282 0.5271 0.5242
2701.499280 0.5231 0.5230 0.5230 0.5211 0.5210
2708.193840 0.5201 0.5200 0.5200 0.5200 0.5200
2714.888400 0.5200 0.5191 0.5190 0.5190 0.5190
2721.582960 0.5162 0.5160 0.5151 0.5150 0.5122
2728.277520 0.5092 0.5081 0.5071 0.5051 0.5031
2734.972080 0.4993 0.4962 0.4960 0.4951 0.4941
2741.666640 0.4921 0.4920 0.4911 0.4873 0.4861
2748.361200 0.4832 0.4793 0.4781 0.4752 0.4741
2755.055760 0.4721 0.4701 0.4663 0.4641 0.4631
2761.750320 0.4621 0.4583 0.4552 0.4522 0.4483
2768.444880 0.4461 0.4432 0.4421 0.4401 0.4344
2775.139440 0.4312 0.4263 0.4223 0.4192 0.4162
2781.834000 0.4141 0.4103 0.4044 0.3984 0.3924
2788.528560 0.3911 0.3882 0.3861 0.3869 0.3833
2795.223120 0.3793 0.3762 0.3723 0.3701 0.3672
2801.917680 0.3642 0.3621 0.3592 0.3581 0.3552
2808.612240 0.3485 0.3471 0.3433 0.3365 0.3314
2815.306800 0.3236 0.3183 0.3152 0.3122 0.3111
2822.001360 0.3064 0.3032 0.3002 0.3000 0.2954
2828.695920 0.2885 0.2861 0.2823 0.2755 0.2741
2835.390480 0.2740 0.2712 0.2645 0.2594 0.2553
2842.085040 0.2522 0.2501 0.2472 0.2433 0.2411
2848.779600 0.2410 0.2391 0.2381 0.2380 0.2371
2855.474160 0.2342 0.2340 0.2331 0.2330 0.2311
2862.168720 0.2310 0.2291 0.2290 0.2290 0.2290
2868.863280 0.2290 0.2290 0.2290 0.2290 0.2290
2875.557840 0.2290 0.2290 0.2290 0.2290 0.2290
2882.252400 0.2290 0.2290 0.2290 0.2290 0.2290
2888.946960 0.2290 0.2290 0.2290 0.2290 0.2290
2895.641520 0.2290 0.2290 0.2290 0.2290 0.2290
2902.336080 0.2290 0.2299 0.2300 0.2300 0.2300
2909.030640 0.2300 0.2300 0.2291 0.2290 0.2290
2915.725200 0.2290 0.2290 0.2290 0.2290 0.2290
2922.419760 0.2290 0.2290 0.2290 0.2290 0.2290
2929.114320 0.2290 0.2290 0.2290 0.2290 0.2290
2935.808880 0.2290 0.2290 0.2290 0.2290 0.2290
2942.503440 0.2290 0.2299 0.2300 0.2300 0.2300
2949.198000 0.2309 0.2310 0.2310 0.2310 0.2310
2955.892560 0.2329 0.2330 0.2339 0.2340 0.2349
2962.587120 0.2350 0.2369 0.2370 0.2370 0.2379
2969.281680 0.2389 0.2409 0.2419 0.2429 0.2449
2975.976240 0.2459 0.2469 0.2489 0.2499 0.2500
2982.670800 0.2509 0.2519 0.2539 0.2549 0.2559
2989.365360 0.2579 0.2589 0.2599 0.2600 0.2619
2996.059920 0.2657 0.2716 0.2748 0.2759 0.2788
3002.754480 0.2799 0.2828 0.2839 0.2840 0.2877
3009.449040 0.2899 0.2909 0.2938 0.2949 0.2978
3016.143600 0.2989 0.2999 0.3028 0.3039 0.3059
3022.838160 0.3116 0.3120 0.3148 0.3159 0.3197
3029.532720 0.3265 0.3270 0.3307 0.3347 0.3359
3036.227280 0.3379 0.3399 0.3437 0.3459 0.3506
3042.921840 0.3547 0.3625 0.3677 0.3745 0.3824
3049.616400 0.3876 0.3917 0.3948 0.3978 0.3999
3056.310960 0.4065 0.4145 0.4159 0.4216 0.4267
3063.005520 0.4316 0.4357 0.4416 0.4494 0.4556
3069.700080 0.4625 0.4639 0.4659 0.4669 0.4698
3076.394640 0.4719 0.4757 0.4779 0.4789 0.4864
3083.089200 0.4944 0.4978 0.4989 0.5027 0.5077
3089.783760 0.5108 0.5166 0.5207 0.5247 0.5324
3096.478320 0.5386 0.5437 0.5477 0.5527 0.5567
3103.172880 0.5589 0.5599 0.5609 0.5647 0.5687
3109.867440 0.5718 0.5757 0.5797 0.5828 0.5839
3116.562000 0.5849 0.5878 0.5889 0.5918 0.5957
3123.256560 0.5969 0.5970 0.5989 0.6009 0.6084
3129.951120 0.6109 0.6119 0.6148 0.6196 0.6237
3136.645680 0.6305 0.6385 0.6409 0.6438 0.6487
3143.340240 0.6527 0.6530 0.6586 0.6636 0.6677
3150.034800 0.6671 0.6689 0.6709 0.6710 0.6719
3156.729360 0.6729 0.6758 0.6769 0.6789 0.6809
3163.423920 0.6829 0.6830 0.6849 0.6869 0.6889
3170.118480 0.6909 0.6929 0.6949 0.6950 0.6996
3176.813040 0.7009 0.7038 0.7040 0.7049 0.7050
3183.507600 0.7050 0.7069 0.7079 0.7108 0.7119
3190.202160 0.7129 0.7149 0.7150 0.7159 0.7160
3196.896720 0.7160 0.7160 0.7169 0.7189 0.7190
3203.591280 0.7199 0.7209 0.7210 0.7229 0.7239
3210.285840 0.7249 0.7250 0.7269 0.7279 0.7289
3216.980400 0.7290 0.7309 0.7319 0.7320 0.7329
3223.674960 0.7349 0.7350 0.7359 0.7360 0.7360
3230.369520 0.7369 0.7370 0.7370 0.7370 0.7370
3237.064080 0.7370 0.7370 0.7389 0.7390 0.7390
3243.758640 0.7390 0.7390 0.7390 0.7399 0.7400
3250.453200 0.7400 0.7400 0.7400 0.7400 0.7400
3257.147760 0.7400 0.7400 0.7400 0.7400 0.7400
3263.842320 0.7400 0.7400 0.7400 0.7400 0.7400
3270.536880 0.7400 0.7400 0.7400 0.7400 0.7400
3277.231440 0.7400 0.7400 0.7400 0.7400 0.7400
3283.926000 0.7400 0.7400 0.7400 0.7400 0.7400
3290.620560 0.7400 0.7400 0.7400 0.7400 0.7400
3297.315120 0.7400 0.7400 0.7400 0.7400 0.7400
3304.009680 0.7400 0.7400 0.7400 0.7400 0.7400
3310.704240 0.7400 0.7391 0.7390 0.7371 0.7370
3317.398800 0.7361 0.7360 0.7351 0.7331 0.7330
3324.093360 0.7321 0.7320 0.7311 0.7291 0.7290
3330.787920 0.7271 0.7270 0.7251 0.7250 0.7241
3337.482480 0.7240 0.7231 0.7230 0.7211 0.7201
3344.177040 0.7200 0.7191 0.7190 0.7171 0.7170
3350.871600 0.7161 0.7160 0.7160 0.7151 0.7150
3357.566160 0.7150 0.7131 0.7121 0.7111 0.7091
3364.260720 0.7081 0.7071 0.7042 0.7012 0.7010
3370.955280 0.7001 0.6991 0.6971 0.6970 0.6961
3377.649840 0.6951 0.6922 0.6911 0.6891 0.6881
3384.344400 0.6871 0.6851 0.6841 0.6831 0.6811
3391.038960 0.6791 0.6790 0.6771 0.6761 0.6760
3397.733520 0.6751 0.6722 0.6720 0.6720 0.6711
3404.428080 0.6710 0.6691 0.6690 0.6681 0.6671
3411.122640 0.6670 0.6670 0.6670 0.6670 0.6651
3417.817200 0.6650 0.6650 0.6641 0.6640 0.6640
3424.511760 0.6640 0.6640 0.6640 0.6640 0.6640
3431.206320 0.6640 0.6640 0.6640 0.6649 0.6650
3437.900880 0.6650 0.6669 0.6679 0.6680 0.6680
3444.595440 0.6680 0.6689 0.6690 0.6709 0.6710
3451.290000 0.6719 0.6720 0.6729 0.6730 0.6730
3457.984560 0.6730 0.6730 0.6730 0.6730 0.6730
3464.679120 0.6730 0.6749 0.6759 0.6760 0.6769
3471.373680 0.6770 0.6789 0.6799 0.6809 0.6829
3478.068240 0.6839 0.6849 0.6850 0.6869 0.6879
3484.762800 0.6889 0.6909 0.6929 0.6930 0.6949
3491.457360 0.6959 0.6969 0.6970 0.6989 0.6990
3498.151920 0.6999 0.7000 0.7000 0.7009 0.7010
3504.846480 0.7010 0.7029 0.7039 0.7040 0.7049
3511.541040 0.7069 0.7079 0.7080 0.7089 0.7090
3518.235600 0.7090 0.7090 0.7090 0.7109 0.7110
3524.930160 0.7119 0.7129 0.7130 0.7149 0.7150
3531.624720 0.7159 0.7169 0.7170 0.7189 0.7199
3538.319280 0.7200 0.7228 0.7239 0.7249 0.7269
3545.013840 0.7270 0.7279 0.7289 0.7318 0.7329
3551.708400 0.7358 0.7369 0.7389 0.7390 0.7390
3558.402960 0.7399 0.7400 0.7400 0.7400 0.7400
3565.097520 0.7409 0.7429 0.7439 0.7449 0.7469
3571.792080 0.7516 0.7539 0.7559 0.7569 0.7579
3578.486640 0.7599 0.7637 0.7677 0.7680 0.7689
3585.181200 0.7699 0.7719 0.7729 0.7758 0.7769
3591.875760 0.7779 0.7799 0.7837 0.7849 0.7878
3598.570320 0.7889 0.7918 0.7939 0.7968 0.7998
3605.264880 0.8037 0.8059 0.8097 0.8119 0.8120
3611.959440 0.8120 0.8129 0.8130 0.8130 0.8139
3618.654000 0.8159 0.8160 0.8169 0.8170 0.8179
3625.348560 0.8199 0.8209 0.8210 0.8219 0.8220
3632.043120 0.8239 0.8240 0.8249 0.8250 0.8259
3638.737680 0.8260 0.8260 0.8279 0.8280 0.8280
3645.432240 0.8280 0.8289 0.8290 0.8290 0.8290
3652.126800 0.8290 0.8290 0.8290 0.8299 0.8300
3658.821360 0.8300 0.8300 0.8300 0.8300 0.8300
3665.515920 0.8319 0.8320 0.8320 0.8320 0.8320
3672.210480 0.8320 0.8320 0.8320 0.8329 0.8330
3678.905040 0.8330 0.8330 0.8330 0.8330 0.8330
3685.599600 0.8330 0.8330 0.8339 0.8340 0.8340
3692.294160 0.8340 0.8340 0.8340 0.8340 0.8340
3698.988720 0.8340 0.8340 0.8340 0.8340 0.8340
3705.683280 0.8340 0.8340 0.8340 0.8340 0.8340
3712.377840 0.8340 0.8340 0.8331 0.8339 0.8340
3719.072400 0.8340 0.8340 0.8340 0.8340 0.8340
3725.766960 0.8340 0.8340 0.8340 0.8340 0.8340
3732.461520 0.8340 0.8340 0.8340 0.8340 0.8340
3739.156080 0.8340 0.8340 0.8340 0.8340 0.8340
3745.850640 0.8340 0.8340 0.8340 0.8340 0.8340
3752.545200 0.8340 0.8340 0.8340 0.8340 0.8340
3759.239760 0.8340 0.8340 0.8340 0.8340 0.8340
3765.934320 0.8340 0.8340 0.8340 0.8340 0.8340
3772.628880 0.8340 0.8340 0.8340 0.8340 0.8340
3779.323440 0.8340 0.8340 0.8340 0.8340 0.8340
3786.018000 0.8340 0.8340 0.8340 0.8340 0.8331
3792.712560 0.8330 0.8330 0.8330 0.8330 0.8330
3799.407120 0.8330 0.8330 0.8330 0.8330 0.8330
3806.101680 0.8330 0.8330 0.8330 0.8330 0.8330
3812.796240 0.8330 0.8330 0.8330 0.8330 0.8330
3819.490800 0.8330 0.8330 0.8330 0.8330 0.8330
3826.185360 0.8330 0.8330 0.8330 0.8330 0.8330
3832.879920 0.8330 0.8330 0.8330 0.8330 0.8330
3839.574480 0.8330 0.8330 0.8330 0.8330 0.8321
3846.269040 0.8320 0.8320 0.8320 0.8301 0.8300
3852.963600 0.8291 0.8299 0.8300 0.8300 0.8300
3859.658160 0.8300 0.8300 0.8300 0.8300 0.8300
3866.352720 0.8300 0.8300 0.8300 0.8300 0.8300
3873.047280 0.8300 0.8300 0.8300 0.8319 0.8320
3879.741840 0.8320 0.8320 0.8320 0.8320 0.8320
3886.436400 0.8320 0.8320 0.8320 0.8320 0.8320
3893.130960 0.8320 0.8320 0.8320 0.8320 0.8320
3899.825520 0.8320 0.8320 0.8320 0.8320 0.8320
3906.520080 0.8320 0.8320 0.8320 0.8320 0.8320
3913.214640 0.8320 0.8320 0.8320 0.8320 0.8320
3919.909200 0.8320 0.8320 0.8320 0.8320 0.8320
3926.603760 0.8320 0.8320 0.8320 0.8301 0.8300
3933.298320 0.8300 0.8300 0.8300 0.8300 0.8300
3939.992880 0.8300 0.8319 0.8320 0.8320 0.8320
3946.687440 0.8320 0.8320 0.8320 0.8301 0.8300
3953.382000 0.8300 0.8300 0.8300 0.8300 0.8300
3960.076560 0.8300 0.8300 0.8300 0.8300 0.8300
3966.771120 0.8300 0.8300 0.8300 0.8300 0.8300
3973.465680 0.8291 0.8290 0.8290 0.8290 0.8281
3980.160240 0.8280 0.8280 0.8261 0.8260 0.8260
3986.854800 0.8260 0.8251 0.8250 0.8241 0.8240
3993.549360 0.8221 0.8220 0.8211 0.8210 0.8201
4000.243920 0.8200 0.8181 0.8171 0.8161 0.8141
4006.938480 0.8131 0.8121 0.8092 0.8090 0.8081
4013.633040 0.8080 0.8061 0.8060 0.8088 0.8081
4020.327600 0.8080 0.8061 0.8060
##END=
