##TITLE=TYRAMINE METHIODIDE
##JCAMP-DX=4.24
##DATA TYPE=INFRARED SPECTRUM
##CLASS=COBLENTZ
##ORIGIN=CITRUS EXPERIMENT STATION, UNIVERSITY OF FLORIDA (G. EDWARDS)
##OWNER=COBLENTZ SOCIETY
Collection (C) 2018 copyright by the U.S. Secretary of Commerce
on behalf of the United States of America. All rights reserved.
##DATE=Not specified, most likely prior to 1970
##MOLFORM=C9 H14 I N O
##SOURCE REFERENCE=COBLENTZ NO. 3625
##$NIST ID=B6003625
##$NIST SOURCE=COBLENTZ
##$NIST IMAGE=cob3625
##SPECTROMETER/DATA SYSTEM=Not specified, most likely a grating spectrometer.
##STATE=SOLID (1.5 mg / 100 mg KBr PELLET)
##SAMPLING PROCEDURE=TRANSMISSION
##RESOLUTION=4
##DATA PROCESSING=DIGITIZED BY NIST FROM HARD COPY
##XUNITS=MICROMETERS
##YUNITS=TRANSMITTANCE
##XFACTOR=1.000000
##YFACTOR=1
##DELTAX=000.006041
##FIRSTX=2.024
##LASTX=15.0064
##FIRSTY=0.597
##MAXX=15.0064
##MINX=2.024
##MAXY=0.917
##MINY=0.367
##NPOINTS=2150
##XYDATA=(X++(Y..Y))
2.024000 0.5970 0.5970 0.5970 0.5970 0.5970
2.054219 0.6000 0.6000 0.6000 0.6000 0.6000
2.085000 0.6000 0.6010 0.6000 0.6000 0.6000
2.115219 0.6000 0.6000 0.6000 0.6000 0.5990
2.145000 0.5990 0.5980 0.5980 0.5990 0.6000
2.175219 0.6000 0.6010 0.6010 0.6060 0.6090
2.205000 0.6100 0.6100 0.6110 0.6110 0.6110
2.235219 0.6110 0.6110 0.6110 0.6120 0.6140
2.266000 0.6150 0.6160 0.6160 0.6160 0.6160
2.296219 0.6160 0.6170 0.6180 0.6200 0.6200
2.326000 0.6210 0.6220 0.6220 0.6220 0.6250
2.356219 0.6260 0.6270 0.6280 0.6280 0.6310
2.387000 0.6310 0.6320 0.6320 0.6320 0.6320
2.417219 0.6320 0.6330 0.6330 0.6330 0.6330
2.447000 0.6340 0.6350 0.6380 0.6390 0.6390
2.477219 0.6390 0.6400 0.6400 0.6400 0.6410
2.507000 0.6430 0.6440 0.6450 0.6460 0.6480
2.537219 0.6500 0.6500 0.6510 0.6520 0.6520
2.568000 0.6520 0.6520 0.6520 0.6520 0.6540
2.598219 0.6560 0.6570 0.6580 0.6600 0.6600
2.628000 0.6600 0.6600 0.6600 0.6600 0.6600
2.658219 0.6610 0.6620 0.6630 0.6630 0.6630
2.689000 0.6630 0.6630 0.6630 0.6630 0.6650
2.719219 0.6650 0.6660 0.6660 0.6660 0.6660
2.749000 0.6660 0.6670 0.6680 0.6680 0.6680
2.779219 0.6680 0.6680 0.6680 0.6680 0.6680
2.809000 0.6690 0.6690 0.6690 0.6690 0.6690
2.839219 0.6690 0.6680 0.6670 0.6670 0.6660
2.870000 0.6650 0.6630 0.6610 0.6570 0.6510
2.900219 0.6410 0.6330 0.6230 0.6120 0.6100
2.930000 0.6010 0.6010 0.5970 0.5920 0.5880
2.960219 0.5820 0.5710 0.5590 0.5400 0.5160
2.991000 0.4910 0.4640 0.4340 0.4070 0.3840
3.021219 0.3710 0.3680 0.3670 0.3700 0.3720
3.051000 0.3810 0.3870 0.4040 0.4170 0.4350
3.081219 0.4510 0.4610 0.4700 0.4810 0.4900
3.112000 0.5000 0.5070 0.5130 0.5210 0.5260
3.142219 0.5320 0.5410 0.5430 0.5500 0.5590
3.172000 0.5650 0.5710 0.5770 0.5810 0.5860
3.202219 0.5910 0.5920 0.5930 0.5940 0.5950
3.232000 0.5950 0.5950 0.5950 0.5930 0.5920
3.262219 0.5880 0.5810 0.5740 0.5700 0.5690
3.293000 0.5690 0.5830 0.5970 0.6050 0.6100
3.323219 0.6110 0.6120 0.6140 0.6150 0.6160
3.353000 0.6170 0.6210 0.6250 0.6270 0.6310
3.383219 0.6310 0.6330 0.6330 0.6330 0.6330
3.414000 0.6330 0.6330 0.6350 0.6350 0.6370
3.444219 0.6380 0.6400 0.6400 0.6410 0.6410
3.474000 0.6410 0.6410 0.6410 0.6430 0.6430
3.504219 0.6430 0.6430 0.6440 0.6440 0.6450
3.534000 0.6450 0.6460 0.6460 0.6480 0.6500
3.564219 0.6510 0.6510 0.6520 0.6540 0.6540
3.595000 0.6540 0.6540 0.6540 0.6540 0.6540
3.625219 0.6540 0.6540 0.6540 0.6550 0.6560
3.655000 0.6570 0.6570 0.6570 0.6580 0.6580
3.685219 0.6580 0.6580 0.6580 0.6580 0.6580
3.716000 0.6580 0.6580 0.6600 0.6610 0.6610
3.746219 0.6620 0.6630 0.6650 0.6660 0.6680
3.776000 0.6680 0.6680 0.6680 0.6680 0.6690
3.806219 0.6690 0.6680 0.6680 0.6670 0.6670
3.836000 0.6660 0.6650 0.6650 0.6630 0.6630
3.866219 0.6630 0.6620 0.6620 0.6620 0.6620
3.897000 0.6630 0.6630 0.6630 0.6650 0.6660
3.927219 0.6680 0.6690 0.6690 0.6710 0.6710
3.957000 0.6710 0.6690 0.6690 0.6690 0.6690
3.987219 0.6690 0.6690 0.6690 0.6710 0.6710
4.018000 0.6720 0.6730 0.6730 0.6740 0.6750
4.048219 0.6770 0.6770 0.6780 0.6780 0.6780
4.078000 0.6790 0.6790 0.6790 0.6790 0.6790
4.108219 0.6790 0.6800 0.6800 0.6820 0.6820
4.138000 0.6820 0.6830 0.6850 0.6880 0.6940
4.168219 0.6970 0.7000 0.7010 0.7010 0.7010
4.199000 0.7010 0.7010 0.7010 0.7010 0.7010
4.229219 0.7010 0.7010 0.7010 0.7010 0.7010
4.259000 0.7010 0.7010 0.7010 0.7000 0.7000
4.289219 0.7000 0.7000 0.7000 0.7000 0.7000
4.320000 0.7010 0.7010 0.7010 0.7020 0.7020
4.350219 0.7020 0.7020 0.7020 0.7020 0.7020
4.380000 0.7020 0.7020 0.7030 0.7030 0.7030
4.410219 0.7030 0.7030 0.7020 0.7020 0.7030
4.441000 0.7030 0.7030 0.7030 0.7030 0.7030
4.471219 0.7050 0.7060 0.7070 0.7070 0.7080
4.501000 0.7110 0.7120 0.7120 0.7120 0.7120
4.531219 0.7130 0.7130 0.7130 0.7130 0.7130
4.561000 0.7130 0.7140 0.7140 0.7140 0.7160
4.591219 0.7160 0.7160 0.7160 0.7160 0.7170
4.622000 0.7170 0.7170 0.7170 0.7170 0.7170
4.652219 0.7170 0.7170 0.7170 0.7180 0.7170
4.682000 0.7170 0.7180 0.7180 0.7180 0.7190
4.712219 0.7190 0.7200 0.7200 0.7220 0.7220
4.743000 0.7220 0.7220 0.7220 0.7220 0.7220
4.773219 0.7220 0.7230 0.7230 0.7230 0.7230
4.803000 0.7230 0.7240 0.7240 0.7240 0.7240
4.833219 0.7240 0.7240 0.7240 0.7240 0.7240
4.863000 0.7240 0.7240 0.7240 0.7240 0.7240
4.893219 0.7240 0.7240 0.7240 0.7240 0.7250
4.924000 0.7250 0.7250 0.7250 0.7250 0.7250
4.954219 0.7250 0.7250 0.7260 0.7260 0.7290
4.984000 0.7300 0.7300 0.7300 0.7310 0.7310
5.014219 0.7310 0.7310 0.7330 0.7330 0.7330
5.045000 0.7330 0.7330 0.7330 0.7330 0.7330
5.075219 0.7330 0.7330 0.7330 0.7330 0.7330
5.105000 0.7340 0.7340 0.7340 0.7340 0.7340
5.135219 0.7340 0.7340 0.7340 0.7340 0.7340
5.165000 0.7350 0.7350 0.7350 0.7340 0.7340
5.195219 0.7330 0.7310 0.7300 0.7280 0.7260
5.226000 0.7250 0.7240 0.7240 0.7240 0.7250
5.256219 0.7290 0.7310 0.7340 0.7350 0.7370
5.286000 0.7390 0.7390 0.7390 0.7400 0.7410
5.316219 0.7410 0.7420 0.7420 0.7420 0.7420
5.347000 0.7420 0.7430 0.7430 0.7450 0.7450
5.377219 0.7450 0.7460 0.7460 0.7460 0.7460
5.407000 0.7460 0.7460 0.7460 0.7460 0.7460
5.437219 0.7460 0.7450 0.7450 0.7450 0.7430
5.467000 0.7430 0.7430 0.7430 0.7430 0.7430
5.497219 0.7430 0.7430 0.7430 0.7430 0.7430
5.528000 0.7430 0.7430 0.7430 0.7430 0.7430
5.558219 0.7420 0.7420 0.7420 0.7430 0.7430
5.588000 0.7430 0.7460 0.7480 0.7500 0.7520
5.618219 0.7520 0.7520 0.7520 0.7520 0.7530
5.649000 0.7540 0.7570 0.7570 0.7580 0.7590
5.679219 0.7600 0.7620 0.7620 0.7620 0.7620
5.709000 0.7620 0.7620 0.7620 0.7620 0.7630
5.739219 0.7630 0.7630 0.7630 0.7630 0.7630
5.770000 0.7640 0.7640 0.7650 0.7660 0.7660
5.800219 0.7660 0.7680 0.7680 0.7680 0.7690
5.830000 0.7700 0.7700 0.7710 0.7710 0.7710
5.860219 0.7710 0.7710 0.7710 0.7710 0.7700
5.890000 0.7700 0.7710 0.7730 0.7730 0.7730
5.920219 0.7730 0.7730 0.7730 0.7730 0.7710
5.951000 0.7710 0.7710 0.7710 0.7710 0.7700
5.981219 0.7700 0.7700 0.7710 0.7730 0.7730
6.011000 0.7740 0.7760 0.7770 0.7790 0.7790
6.041219 0.7790 0.7790 0.7770 0.7760 0.7750
6.072000 0.7750 0.7740 0.7730 0.7730 0.7680
6.102219 0.7570 0.7500 0.7390 0.7290 0.7130
6.132000 0.7030 0.6900 0.6740 0.6670 0.6600
6.162219 0.6340 0.6220 0.6090 0.6040 0.6040
6.192000 0.6110 0.6280 0.6490 0.6880 0.6960
6.222219 0.6960 0.6920 0.6850 0.6750 0.6750
6.253000 0.6800 0.6920 0.7080 0.7240 0.7340
6.283219 0.7430 0.7530 0.7560 0.7680 0.7730
6.313000 0.7740 0.7750 0.7750 0.7750 0.7760
6.343219 0.7770 0.7770 0.7770 0.7770 0.7770
6.374000 0.7770 0.7770 0.7760 0.7750 0.7730
6.404219 0.7700 0.7680 0.7650 0.7590 0.7500
6.434000 0.7420 0.7370 0.7350 0.7340 0.7330
6.464219 0.7290 0.7240 0.7080 0.7020 0.6830
6.494000 0.6730 0.6620 0.6250 0.5810 0.5600
6.524219 0.5370 0.5070 0.4920 0.4830 0.4730
6.555000 0.4690 0.4690 0.4780 0.4970 0.5270
6.585219 0.5530 0.5810 0.6030 0.6080 0.6100
6.615000 0.6100 0.6100 0.6100 0.6080 0.6060
6.645219 0.6030 0.5970 0.5930 0.5830 0.5640
6.676000 0.5540 0.5530 0.5530 0.5530 0.5540
6.706219 0.5640 0.5720 0.5780 0.5820 0.5860
6.736000 0.5930 0.6040 0.6140 0.6230 0.6330
6.766219 0.6370 0.6380 0.6390 0.6460 0.6520
6.796000 0.6570 0.6580 0.6570 0.6540 0.6520
6.826219 0.6500 0.6490 0.6460 0.6450 0.6430
6.857000 0.6390 0.6330 0.6260 0.6230 0.6220
6.887219 0.6220 0.6220 0.6220 0.6230 0.6270
6.917000 0.6320 0.6380 0.6460 0.6540 0.6580
6.947219 0.6630 0.6650 0.6740 0.6790 0.6800
6.978000 0.6830 0.6840 0.6840 0.6840 0.6830
7.008219 0.6820 0.6820 0.6830 0.6850 0.6890
7.038000 0.6920 0.6950 0.6970 0.7000 0.7010
7.068219 0.7010 0.7020 0.7030 0.7060 0.7090
7.099000 0.7090 0.7080 0.7070 0.7050 0.7030
7.129219 0.7020 0.7020 0.7030 0.7050 0.7090
7.159000 0.7160 0.7230 0.7290 0.7340 0.7370
7.189219 0.7390 0.7420 0.7430 0.7450 0.7470
7.219000 0.7510 0.7530 0.7530 0.7530 0.7530
7.249219 0.7530 0.7530 0.7510 0.7500 0.7470
7.280000 0.7420 0.7370 0.7330 0.7170 0.7070
7.310219 0.6990 0.6890 0.6840 0.6830 0.6840
7.340000 0.6850 0.6920 0.6950 0.6960 0.6950
7.370219 0.6920 0.6890 0.6860 0.6850 0.6850
7.401000 0.6860 0.6860 0.6880 0.6920 0.6990
7.431219 0.7030 0.7080 0.7130 0.7170 0.7230
7.461000 0.7280 0.7340 0.7390 0.7420 0.7460
7.491219 0.7480 0.7480 0.7500 0.7500 0.7470
7.521000 0.7460 0.7430 0.7420 0.7410 0.7410
7.551219 0.7400 0.7400 0.7410 0.7420 0.7430
7.582000 0.7450 0.7470 0.7480 0.7510 0.7560
7.612219 0.7570 0.7600 0.7640 0.7660 0.7690
7.642000 0.7730 0.7730 0.7740 0.7760 0.7790
7.672219 0.7810 0.7850 0.7880 0.7910 0.7920
7.703000 0.7930 0.7930 0.7920 0.7920 0.7920
7.733219 0.7910 0.7880 0.7860 0.7830 0.7770
7.763000 0.7730 0.7650 0.7530 0.7390 0.7290
7.793219 0.7120 0.6850 0.6750 0.6650 0.6430
7.823000 0.6230 0.6030 0.5910 0.5860 0.5870
7.853219 0.5880 0.5930 0.5990 0.5990 0.5950
7.884000 0.5880 0.5780 0.5670 0.5580 0.5550
7.914219 0.5550 0.5580 0.5630 0.5740 0.5830
7.944000 0.6010 0.6170 0.6250 0.6390 0.6460
7.974219 0.6560 0.6610 0.6660 0.6780 0.6840
8.005000 0.6890 0.6920 0.6950 0.6970 0.7000
8.035219 0.7000 0.7000 0.7000 0.7000 0.6990
8.065000 0.6950 0.6920 0.6890 0.6840 0.6820
8.095219 0.6740 0.6730 0.6680 0.6630 0.6540
8.125000 0.6430 0.6250 0.6050 0.5910 0.5740
8.155219 0.5480 0.5290 0.5030 0.4870 0.4630
8.186000 0.4470 0.4400 0.4340 0.4330 0.4330
8.216219 0.4350 0.4390 0.4490 0.4550 0.4640
8.246000 0.4730 0.4860 0.5020 0.5060 0.5090
8.276219 0.5130 0.5180 0.5240 0.5320 0.5420
8.307000 0.5530 0.5700 0.5740 0.5830 0.5880
8.337219 0.5860 0.5830 0.5770 0.5740 0.5670
8.367000 0.5670 0.5700 0.5740 0.5800 0.5870
8.397219 0.5940 0.6050 0.6160 0.6230 0.6290
8.428000 0.6330 0.6340 0.6390 0.6430 0.6430
8.458219 0.6450 0.6450 0.6450 0.6440 0.6430
8.488000 0.6380 0.6350 0.6310 0.6280 0.6260
8.518219 0.6260 0.6290 0.6350 0.6430 0.6480
8.548000 0.6560 0.6580 0.6620 0.6650 0.6690
8.578219 0.6730 0.6730 0.6740 0.6740 0.6750
8.609000 0.6750 0.6770 0.6780 0.6780 0.6790
8.639219 0.6790 0.6800 0.6800 0.6830 0.6830
8.669000 0.6840 0.6840 0.6830 0.6830 0.6830
8.699219 0.6800 0.6800 0.6790 0.6790 0.6780
8.730000 0.6780 0.6770 0.6770 0.6770 0.6770
8.760219 0.6770 0.6780 0.6790 0.6800 0.6800
8.790000 0.6800 0.6800 0.6790 0.6780 0.6750
8.820219 0.6730 0.6690 0.6670 0.6630 0.6580
8.850000 0.6540 0.6520 0.6510 0.6520 0.6520
8.880219 0.6550 0.6570 0.6720 0.6780 0.6850
8.911000 0.6890 0.6940 0.6970 0.7000 0.7030
8.941219 0.7030 0.7030 0.7050 0.7060 0.7080
8.971000 0.7090 0.7090 0.7090 0.7110 0.7090
9.001219 0.7080 0.7060 0.7030 0.7030 0.7020
9.032000 0.6970 0.6940 0.6860 0.6770 0.6730
9.062219 0.6680 0.6620 0.6540 0.6520 0.6540
9.092000 0.6550 0.6610 0.6840 0.6910 0.6960
9.122219 0.7030 0.7120 0.7130 0.7170 0.7180
9.152000 0.7190 0.7230 0.7230 0.7240 0.7250
9.182219 0.7250 0.7250 0.7260 0.7280 0.7280
9.213000 0.7290 0.7290 0.7290 0.7290 0.7290
9.243219 0.7290 0.7290 0.7290 0.7290 0.7290
9.273000 0.7290 0.7290 0.7290 0.7300 0.7300
9.303219 0.7330 0.7330 0.7340 0.7350 0.7360
9.334000 0.7360 0.7370 0.7390 0.7400 0.7410
9.364219 0.7410 0.7410 0.7410 0.7420 0.7420
9.394000 0.7430 0.7430 0.7430 0.7430 0.7420
9.424219 0.7420 0.7410 0.7400 0.7390 0.7340
9.454000 0.7330 0.7250 0.7230 0.7200 0.7200
9.484219 0.7200 0.7200 0.7190 0.7180 0.7160
9.515000 0.7130 0.7090 0.7080 0.7080 0.7090
9.545219 0.7140 0.7180 0.7250 0.7280 0.7290
9.575000 0.7330 0.7350 0.7370 0.7390 0.7410
9.605219 0.7420 0.7420 0.7420 0.7430 0.7430
9.636000 0.7430 0.7430 0.7420 0.7420 0.7410
9.666219 0.7410 0.7410 0.7410 0.7420 0.7430
9.696000 0.7450 0.7460 0.7480 0.7500 0.7530
9.726219 0.7540 0.7560 0.7570 0.7570 0.7580
9.757000 0.7580 0.7580 0.7590 0.7590 0.7580
9.787219 0.7580 0.7580 0.7580 0.7590 0.7590
9.817000 0.7590 0.7590 0.7590 0.7590 0.7590
9.847219 0.7590 0.7600 0.7630 0.7630 0.7640
9.877000 0.7650 0.7650 0.7660 0.7650 0.7660
9.907219 0.7660 0.7660 0.7680 0.7680 0.7680
9.938000 0.7680 0.7690 0.7700 0.7700 0.7700
9.968219 0.7710 0.7730 0.7740 0.7750 0.7750
9.998000 0.7760 0.7770 0.7770 0.7770 0.7770
10.028219 0.7790 0.7790 0.7790 0.7790 0.7790
10.059000 0.7790 0.7790 0.7790 0.7790 0.7790
10.089219 0.7790 0.7790 0.7790 0.7790 0.7770
10.119000 0.7770 0.7750 0.7750 0.7740 0.7730
10.149219 0.7690 0.7660 0.7630 0.7560 0.7530
10.179000 0.7450 0.7400 0.7350 0.7230 0.7080
10.209219 0.7030 0.6940 0.6900 0.6890 0.6890
10.240000 0.6890 0.6890 0.6890 0.6890 0.6890
10.270219 0.6880 0.6850 0.6830 0.6800 0.6750
10.300000 0.6740 0.6740 0.6740 0.6750 0.6790
10.330219 0.6830 0.6890 0.6990 0.7080 0.7130
10.361000 0.7230 0.7250 0.7300 0.7350 0.7370
10.391219 0.7390 0.7390 0.7400 0.7400 0.7390
10.421000 0.7360 0.7330 0.7260 0.7240 0.7170
10.451219 0.7140 0.7120 0.7080 0.7030 0.7020
10.481000 0.6920 0.6790 0.6730 0.6660 0.6520
10.511219 0.6380 0.6260 0.6250 0.6260 0.6270
10.542000 0.6320 0.6380 0.6440 0.6540 0.6620
10.572219 0.6800 0.6900 0.6950 0.7000 0.7050
10.602000 0.7090 0.7160 0.7180 0.7220 0.7260
10.632219 0.7300 0.7330 0.7360 0.7400 0.7450
10.663000 0.7500 0.7530 0.7540 0.7570 0.7600
10.693219 0.7630 0.7630 0.7650 0.7680 0.7690
10.723000 0.7730 0.7730 0.7740 0.7740 0.7750
10.753219 0.7790 0.7820 0.7820 0.7830 0.7830
10.783000 0.7850 0.7850 0.7850 0.7850 0.7850
10.813219 0.7830 0.7820 0.7820 0.7800 0.7770
10.844000 0.7760 0.7740 0.7710 0.7660 0.7640
10.874219 0.7580 0.7530 0.7450 0.7390 0.7230
10.904000 0.7000 0.6890 0.6680 0.6610 0.6520
10.934219 0.6270 0.6140 0.5930 0.5780 0.5650
10.965000 0.5550 0.5530 0.5520 0.5520 0.5550
10.995219 0.5630 0.5710 0.5780 0.5910 0.5990
11.025000 0.6040 0.6140 0.6220 0.6290 0.6390
11.055219 0.6430 0.6490 0.6570 0.6630 0.6770
11.086000 0.6820 0.6860 0.6890 0.6960 0.7000
11.116219 0.7020 0.7050 0.7070 0.7090 0.7130
11.146000 0.7160 0.7170 0.7190 0.7230 0.7240
11.176219 0.7290 0.7310 0.7310 0.7330 0.7350
11.206000 0.7360 0.7390 0.7390 0.7420 0.7430
11.236219 0.7450 0.7460 0.7470 0.7480 0.7480
11.267000 0.7500 0.7520 0.7520 0.7520 0.7530
11.297219 0.7530 0.7540 0.7570 0.7580 0.7580
11.327000 0.7590 0.7590 0.7600 0.7620 0.7620
11.357219 0.7620 0.7620 0.7620 0.7630 0.7630
11.388000 0.7630 0.7630 0.7630 0.7640 0.7650
11.418219 0.7650 0.7650 0.7650 0.7650 0.7660
11.448000 0.7660 0.7680 0.7690 0.7730 0.7740
11.478219 0.7750 0.7750 0.7760 0.7760 0.7770
11.508000 0.7770 0.7770 0.7770 0.7770 0.7770
11.538219 0.7790 0.7790 0.7770 0.7770 0.7770
11.569000 0.7770 0.7770 0.7770 0.7770 0.7770
11.599219 0.7760 0.7750 0.7750 0.7740 0.7740
11.629000 0.7730 0.7710 0.7700 0.7660 0.7640
11.659219 0.7620 0.7540 0.7520 0.7460 0.7420
11.690000 0.7350 0.7250 0.7120 0.7050 0.6940
11.720219 0.6860 0.6750 0.6680 0.6670 0.6650
11.750000 0.6630 0.6630 0.6630 0.6630 0.6630
11.780219 0.6650 0.6650 0.6720 0.6780 0.6860
11.810000 0.6890 0.6950 0.6970 0.6990 0.6990
11.840219 0.6970 0.6950 0.6920 0.6890 0.6830
11.871000 0.6740 0.6690 0.6630 0.6490 0.6310
11.901219 0.6050 0.5750 0.5610 0.5410 0.5250
11.931000 0.5130 0.5090 0.5100 0.5130 0.5150
11.961219 0.5240 0.5310 0.5420 0.5550 0.5700
11.992000 0.5820 0.6000 0.6150 0.6260 0.6380
12.022219 0.6430 0.6520 0.6620 0.6650 0.6770
12.052000 0.6790 0.6820 0.6820 0.6820 0.6820
12.082219 0.6820 0.6820 0.6820 0.6800 0.6800
12.112000 0.6820 0.6820 0.6820 0.6830 0.6840
12.142219 0.6850 0.6850 0.6860 0.6860 0.6850
12.173000 0.6840 0.6820 0.6800 0.6820 0.6830
12.203219 0.6850 0.6860 0.6920 0.6960 0.7020
12.233000 0.7060 0.7120 0.7130 0.7170 0.7220
12.263219 0.7240 0.7250 0.7280 0.7290 0.7330
12.294000 0.7340 0.7340 0.7350 0.7360 0.7390
12.324219 0.7410 0.7420 0.7430 0.7450 0.7450
12.354000 0.7460 0.7460 0.7480 0.7500 0.7510
12.384219 0.7520 0.7520 0.7520 0.7530 0.7530
12.414000 0.7530 0.7530 0.7530 0.7530 0.7530
12.444219 0.7530 0.7530 0.7520 0.7520 0.7520
12.475000 0.7500 0.7480 0.7480 0.7470 0.7450
12.505219 0.7420 0.7410 0.7370 0.7360 0.7340
12.535000 0.7310 0.7260 0.7220 0.7180 0.7110
12.565219 0.7020 0.7000 0.6900 0.6830 0.6790
12.596000 0.6740 0.6730 0.6730 0.6730 0.6730
12.626219 0.6740 0.6740 0.6770 0.6790 0.6820
12.656000 0.6880 0.6920 0.6940 0.6990 0.7020
12.686219 0.7030 0.7070 0.7120 0.7140 0.7160
12.717000 0.7170 0.7180 0.7180 0.7190 0.7220
12.747219 0.7240 0.7260 0.7290 0.7310 0.7330
12.777000 0.7340 0.7340 0.7350 0.7360 0.7360
12.807219 0.7370 0.7370 0.7390 0.7390 0.7390
12.837000 0.7390 0.7390 0.7390 0.7390 0.7370
12.867219 0.7370 0.7360 0.7360 0.7350 0.7340
12.898000 0.7340 0.7330 0.7330 0.7330 0.7330
12.928219 0.7330 0.7330 0.7330 0.7330 0.7330
12.958000 0.7330 0.7330 0.7340 0.7340 0.7360
12.988219 0.7370 0.7400 0.7430 0.7450 0.7450
13.019000 0.7460 0.7480 0.7480 0.7500 0.7520
13.049219 0.7520 0.7530 0.7540 0.7560 0.7570
13.079000 0.7580 0.7580 0.7580 0.7590 0.7590
13.109219 0.7590 0.7600 0.7600 0.7620 0.7620
13.139000 0.7620 0.7620 0.7620 0.7600 0.7600
13.169219 0.7600 0.7600 0.7620 0.7620 0.7620
13.200000 0.7630 0.7630 0.7630 0.7620 0.7620
13.230219 0.7620 0.7620 0.7630 0.7630 0.7630
13.260000 0.7620 0.7620 0.7620 0.7620 0.7590
13.290219 0.7570 0.7530 0.7530 0.7520 0.7510
13.321000 0.7510 0.7500 0.7480 0.7470 0.7460
13.351219 0.7450 0.7430 0.7430 0.7430 0.7430
13.381000 0.7450 0.7450 0.7460 0.7470 0.7480
13.411219 0.7500 0.7520 0.7520 0.7530 0.7540
13.441000 0.7560 0.7560 0.7580 0.7590 0.7600
13.471219 0.7600 0.7620 0.7620 0.7620 0.7630
13.502000 0.7630 0.7630 0.7630 0.7640 0.7640
13.532219 0.7640 0.7640 0.7640 0.7640 0.7640
13.562000 0.7640 0.7640 0.7640 0.7640 0.7650
13.592219 0.7660 0.7680 0.7680 0.7690 0.7690
13.623000 0.7710 0.7730 0.7730 0.7740 0.7740
13.653219 0.7740 0.7740 0.7740 0.7750 0.7750
13.683000 0.7750 0.7750 0.7760 0.7760 0.7760
13.713219 0.7760 0.7760 0.7760 0.7760 0.7760
13.743000 0.7760 0.7760 0.7760 0.7760 0.7760
13.773219 0.7750 0.7750 0.7750 0.7750 0.7750
13.804000 0.7750 0.7750 0.7750 0.7750 0.7750
13.834219 0.7750 0.7750 0.7750 0.7750 0.7750
13.864000 0.7750 0.7760 0.7770 0.7770 0.7790
13.894219 0.7790 0.7790 0.7790 0.7790 0.7790
13.925000 0.7770 0.7770 0.7760 0.7760 0.7750
13.955219 0.7740 0.7740 0.7740 0.7750 0.7760
13.985000 0.7760 0.7770 0.7790 0.7800 0.7810
14.015219 0.7810 0.7810 0.7810 0.7810 0.7820
14.046000 0.7820 0.7820 0.7850 0.7860 0.7860
14.076219 0.7860 0.7860 0.7870 0.7870 0.7870
14.106000 0.7880 0.7900 0.7900 0.7910 0.7910
14.136219 0.7910 0.7910 0.7910 0.7910 0.7910
14.166000 0.7910 0.7910 0.7920 0.7930 0.7930
14.196219 0.7930 0.7930 0.7930 0.7930 0.7930
14.227000 0.7930 0.7930 0.7930 0.7930 0.7930
14.257219 0.7930 0.7930 0.7930 0.7930 0.7930
14.287000 0.7930 0.7930 0.7930 0.7940 0.7940
14.317219 0.7960 0.7960 0.7970 0.7970 0.7970
14.348000 0.7990 0.7990 0.7990 0.8000 0.8000
14.378219 0.8020 0.8020 0.8020 0.8020 0.8020
14.408000 0.8020 0.8030 0.8030 0.8030 0.8030
14.438219 0.8030 0.8030 0.8030 0.8030 0.8030
14.468000 0.8030 0.8030 0.8040 0.8050 0.8070
14.498219 0.8080 0.8090 0.8090 0.8090 0.8090
14.529000 0.8090 0.8090 0.8090 0.8090 0.8100
14.559219 0.8100 0.8100 0.8100 0.8100 0.8100
14.589000 0.8110 0.8110 0.8090 0.8090 0.8080
14.619219 0.8070 0.8070 0.8070 0.8070 0.8070
14.650000 0.8070 0.8070 0.8080 0.8090 0.8090
14.680219 0.8090 0.8090 0.8100 0.8100 0.8090
14.710000 0.8090 0.8090 0.8090 0.8090 0.8090
14.740219 0.8100 0.8100 0.8100 0.8100 0.8090
14.770000 0.8080 0.8070 0.8040 0.8030 0.8020
14.800219 0.8020 0.8000 0.8000 0.7990 0.7990
14.831000 0.7980 0.7970 0.7970 0.7960 0.7940
14.861219 0.7930 0.7920 0.7920 0.7920 0.7920
14.891000 0.7920 0.7930 0.7940 0.8000 0.8030
14.921219 0.8100 0.8210 0.8270 0.8420 0.8530
14.952000 0.8660 0.8760 0.8910 0.9000 0.9060
14.982219 0.9070 0.9120 0.9170 0.9070 0.9120
##END=
