##TITLE=TRIETHANOL AMINE TRICHLOROACETIC ACID SALT
##JCAMP-DX=4.24
##DATA TYPE=INFRARED SPECTRUM
##CLASS=COBLENTZ
##ORIGIN=DOW CHEMICAL COMPANY
##OWNER=COBLENTZ SOCIETY
Collection (C) 2018 copyright by the U.S. Secretary of Commerce
on behalf of the United States of America. All rights reserved.
##DATE=Not specified, most likely prior to 1970
##MOLFORM=C8 H16 Cl3 N O5
##SOURCE REFERENCE=COBLENTZ NO. 3166
##$NIST ID=B6003166
##$NIST SOURCE=COBLENTZ
##$NIST IMAGE=cob3166
##SPECTROMETER/DATA SYSTEM=Not specified, most likely a prism, grating, or hybrid spectrometer.
##STATE=SOLID (MINERAL OIL MULL)
##PATH LENGTH=
$$SPECTRAL CONTAMINATION DUE TO OIL AROUND 2900 CM^-^1
##SAMPLING PROCEDURE=TRANSMISSION
##RESOLUTION=4
##DATA PROCESSING=DIGITIZED BY NIST FROM HARD COPY
##XUNITS=MICROMETERS
##YUNITS=TRANSMITTANCE
##XFACTOR=1.000000
##YFACTOR=1
##DELTAX=000.006839
##FIRSTX=2.014
##LASTX=15.8632
##FIRSTY=0.649
##MAXX=15.8632
##MINX=2.014
##MAXY=0.881
##MINY=0.037
##NPOINTS=2026
##XYDATA=(X++(Y..Y))
2.014000 0.6490 0.6490 0.6490 0.6490 0.6510
2.048213 0.6510 0.6510 0.6510 0.6520 0.6540
2.082000 0.6540 0.6580 0.6580 0.6590 0.6590
2.116213 0.6610 0.6630 0.6640 0.6640 0.6640
2.150000 0.6640 0.6660 0.6660 0.6680 0.6680
2.184213 0.6660 0.6660 0.6640 0.6640 0.6640
2.219000 0.6630 0.6630 0.6610 0.6610 0.6590
2.253213 0.6590 0.6610 0.6610 0.6610 0.6630
2.287000 0.6640 0.6660 0.6680 0.6680 0.6700
2.321213 0.6730 0.6750 0.6760 0.6800 0.6820
2.356000 0.6830 0.6850 0.6870 0.6890 0.6890
2.390213 0.6900 0.6920 0.6920 0.6940 0.6940
2.424000 0.6950 0.6970 0.6990 0.7010 0.7010
2.458213 0.7020 0.7040 0.7060 0.7090 0.7130
2.492000 0.7140 0.7140 0.7180 0.7180 0.7190
2.526213 0.7190 0.7190 0.7210 0.7230 0.7250
2.561000 0.7260 0.7260 0.7300 0.7330 0.7350
2.595213 0.7370 0.7400 0.7400 0.7430 0.7450
2.629000 0.7450 0.7470 0.7470 0.7470 0.7500
2.663213 0.7500 0.7560 0.7560 0.7570 0.7570
2.698000 0.7570 0.7570 0.7560 0.7540 0.7520
2.732213 0.7490 0.7470 0.7430 0.7380 0.7350
2.766000 0.7300 0.7230 0.7180 0.7090 0.7010
2.800213 0.6890 0.6750 0.6630 0.6470 0.6320
2.834000 0.6160 0.5960 0.5750 0.5490 0.5290
2.868213 0.5100 0.4870 0.4630 0.4390 0.4150
2.903000 0.3880 0.3600 0.3280 0.2930 0.2560
2.937213 0.2280 0.1940 0.1640 0.1400 0.1210
2.971000 0.1080 0.0960 0.0870 0.0840 0.0850
3.005213 0.0960 0.1040 0.1150 0.1280 0.1440
3.040000 0.1630 0.1800 0.2060 0.2250 0.2490
3.074213 0.2680 0.2850 0.3000 0.3170 0.3310
3.108000 0.3430 0.3550 0.3640 0.3710 0.3760
3.142213 0.3830 0.3880 0.3880 0.3830 0.3740
3.176000 0.3590 0.3500 0.3330 0.3120 0.2950
3.210213 0.2880 0.2880 0.2900 0.3100 0.3310
3.245000 0.3600 0.3950 0.4200 0.4340 0.4390
3.279213 0.4390 0.4390 0.4290 0.4140 0.3960
3.313000 0.3740 0.3500 0.3290 0.3090 0.2800
3.347213 0.2400 0.1820 0.1460 0.1060 0.0800
3.382000 0.0630 0.0390 0.0370 0.0370 0.0410
3.416213 0.0490 0.0600 0.0700 0.0820 0.0960
3.450000 0.1080 0.1200 0.1300 0.1390 0.1440
3.484213 0.1700 0.2830 0.3500 0.4410 0.4910
3.518000 0.5300 0.5560 0.5730 0.5870 0.5940
3.552213 0.6010 0.6080 0.6130 0.6230 0.6350
3.587000 0.6470 0.6540 0.6610 0.6640 0.6680
3.621213 0.6700 0.6710 0.6730 0.6750 0.6780
3.655000 0.6800 0.6830 0.6850 0.6870 0.6890
3.689213 0.6890 0.6890 0.6870 0.6870 0.6850
3.723000 0.6830 0.6820 0.6800 0.6800 0.6800
3.757213 0.6780 0.6780 0.6780 0.6780 0.6820
3.792000 0.6850 0.6920 0.6990 0.7040 0.7070
3.826213 0.7110 0.7160 0.7190 0.7250 0.7280
3.860000 0.7310 0.7350 0.7380 0.7400 0.7420
3.894213 0.7420 0.7420 0.7400 0.7400 0.7380
3.929000 0.7380 0.7370 0.7370 0.7370 0.7370
3.963213 0.7380 0.7400 0.7420 0.7450 0.7490
3.997000 0.7520 0.7560 0.7560 0.7560 0.7540
4.031213 0.7520 0.7540 0.7540 0.7560 0.7590
4.065000 0.7610 0.7610 0.7620 0.7640 0.7690
4.099213 0.7710 0.7730 0.7740 0.7760 0.7760
4.134000 0.7780 0.7780 0.7800 0.7810 0.7810
4.168213 0.7810 0.7810 0.7810 0.7830 0.7830
4.202000 0.7850 0.7850 0.7850 0.7850 0.7850
4.236213 0.7830 0.7830 0.7850 0.7850 0.7850
4.271000 0.7860 0.7880 0.7900 0.7920 0.7930
4.305213 0.7950 0.7980 0.8020 0.8040 0.8040
4.339000 0.8040 0.8050 0.8050 0.8070 0.8070
4.373213 0.8090 0.8100 0.8120 0.8120 0.8140
4.407000 0.8140 0.8140 0.8160 0.8170 0.8170
4.441213 0.8190 0.8210 0.8210 0.8230 0.8230
4.476000 0.8240 0.8240 0.8260 0.8260 0.8260
4.510213 0.8260 0.8260 0.8260 0.8280 0.8280
4.544000 0.8280 0.8280 0.8290 0.8310 0.8310
4.578213 0.8310 0.8330 0.8330 0.8310 0.8330
4.613000 0.8330 0.8330 0.8330 0.8330 0.8350
4.647213 0.8350 0.8350 0.8350 0.8350 0.8350
4.681000 0.8350 0.8350 0.8350 0.8350 0.8350
4.715213 0.8350 0.8350 0.8350 0.8350 0.8350
4.749000 0.8360 0.8380 0.8400 0.8410 0.8430
4.783213 0.8450 0.8450 0.8470 0.8450 0.8470
4.818000 0.8480 0.8500 0.8500 0.8520 0.8520
4.852213 0.8530 0.8530 0.8570 0.8590 0.8600
4.886000 0.8600 0.8620 0.8620 0.8640 0.8640
4.920213 0.8640 0.8640 0.8650 0.8650 0.8650
4.955000 0.8650 0.8650 0.8690 0.8690 0.8710
4.989213 0.8710 0.8710 0.8710 0.8710 0.8690
5.023000 0.8690 0.8690 0.8690 0.8690 0.8690
5.057213 0.8690 0.8690 0.8690 0.8710 0.8710
5.091000 0.8720 0.8720 0.8720 0.8740 0.8740
5.125213 0.8740 0.8760 0.8760 0.8760 0.8740
5.160000 0.8740 0.8720 0.8720 0.8720 0.8710
5.194213 0.8710 0.8710 0.8710 0.8710 0.8710
5.228000 0.8720 0.8720 0.8720 0.8720 0.8740
5.262213 0.8760 0.8790 0.8790 0.8790 0.8810
5.297000 0.8810 0.8810 0.8790 0.8760 0.8760
5.331213 0.8760 0.8760 0.8790 0.8790 0.8780
5.365000 0.8740 0.8710 0.8690 0.8670 0.8670
5.399213 0.8670 0.8670 0.8670 0.8690 0.8690
5.433000 0.8690 0.8690 0.8670 0.8670 0.8650
5.467213 0.8640 0.8620 0.8590 0.8570 0.8550
5.502000 0.8530 0.8500 0.8450 0.8410 0.8360
5.536213 0.8330 0.8290 0.8260 0.8230 0.8190
5.570000 0.8160 0.8100 0.8070 0.8000 0.7930
5.604213 0.7860 0.7780 0.7680 0.7620 0.7560
5.638000 0.7490 0.7420 0.7370 0.7280 0.7210
5.672213 0.7130 0.7060 0.6970 0.6870 0.6760
5.707000 0.6640 0.6520 0.6400 0.6300 0.6180
5.741213 0.6080 0.5940 0.5800 0.5650 0.5440
5.775000 0.5320 0.5250 0.5060 0.4870 0.4670
5.809213 0.4450 0.4240 0.4030 0.3830 0.3600
5.844000 0.3410 0.3210 0.3000 0.2810 0.2690
5.878213 0.2540 0.2350 0.2160 0.1950 0.1750
5.912000 0.1580 0.1420 0.1300 0.1210 0.1130
5.946213 0.1130 0.1110 0.1130 0.1230 0.1340
5.980000 0.1460 0.1590 0.1760 0.1940 0.2110
6.014213 0.2280 0.2420 0.2520 0.2690 0.2920
6.049000 0.3170 0.3430 0.3690 0.3880 0.4030
6.083213 0.4150 0.4260 0.4360 0.4460 0.4570
6.117000 0.4670 0.4750 0.4870 0.5000 0.5120
6.151213 0.5250 0.5370 0.5460 0.5530 0.5600
6.186000 0.5650 0.5700 0.5770 0.5820 0.5890
6.220213 0.5970 0.6010 0.6060 0.6130 0.6200
6.254000 0.6270 0.6320 0.6370 0.6400 0.6440
6.288213 0.6470 0.6510 0.6520 0.6560 0.6590
6.322000 0.6640 0.6660 0.6710 0.6730 0.6750
6.356213 0.6760 0.6800 0.6800 0.6820 0.6850
6.391000 0.6870 0.6890 0.6890 0.6940 0.6940
6.425213 0.6950 0.6970 0.6970 0.6970 0.6970
6.459000 0.6990 0.6990 0.6990 0.7010 0.7010
6.493213 0.7020 0.7020 0.7020 0.7020 0.7020
6.528000 0.7020 0.7010 0.7010 0.6990 0.6990
6.562213 0.6990 0.6970 0.6970 0.6990 0.7010
6.596000 0.7020 0.7010 0.7010 0.7010 0.6970
6.630213 0.6970 0.6950 0.6920 0.6900 0.6830
6.664000 0.6760 0.6680 0.6560 0.6400 0.6280
6.698213 0.6180 0.6030 0.5840 0.5530 0.5240
6.733000 0.4980 0.4720 0.4500 0.4260 0.4020
6.767213 0.3780 0.3480 0.3160 0.3020 0.2710
6.801000 0.2450 0.2310 0.2260 0.2210 0.2180
6.835213 0.2140 0.2130 0.2110 0.2110 0.2130
6.870000 0.2230 0.2400 0.2680 0.2920 0.3100
6.904213 0.3260 0.3360 0.3410 0.3430 0.3430
6.938000 0.3410 0.3360 0.3260 0.3170 0.3070
6.972213 0.2970 0.2920 0.2860 0.2810 0.2740
7.006000 0.2680 0.2570 0.2520 0.2470 0.2420
7.040213 0.2310 0.2250 0.2230 0.2250 0.2280
7.075000 0.2330 0.2400 0.2490 0.2570 0.2660
7.109213 0.2710 0.2740 0.2810 0.2850 0.2900
7.143000 0.2900 0.2920 0.2930 0.2930 0.2920
7.177213 0.2860 0.2760 0.2610 0.2490 0.2350
7.212000 0.2160 0.2020 0.1900 0.1890 0.1870
7.246213 0.1890 0.2020 0.2210 0.2420 0.2620
7.280000 0.2730 0.2920 0.3120 0.3330 0.3410
7.314213 0.3520 0.3590 0.3670 0.3710 0.3720
7.348000 0.3760 0.3760 0.3740 0.3740 0.3740
7.382213 0.3720 0.3720 0.3860 0.4030 0.4190
7.417000 0.4220 0.4290 0.4310 0.4310 0.4260
7.451213 0.4170 0.3980 0.3780 0.3590 0.3380
7.485000 0.3260 0.2970 0.2680 0.2420 0.2260
7.519213 0.2130 0.2090 0.2110 0.2190 0.2420
7.553000 0.2640 0.2930 0.3230 0.3550 0.3840
7.587213 0.4140 0.4380 0.4570 0.4700 0.4740
7.622000 0.4770 0.4820 0.4890 0.4980 0.5080
7.656213 0.5200 0.5320 0.5440 0.5540 0.5630
7.690000 0.5700 0.5770 0.5820 0.5890 0.5910
7.724213 0.5960 0.5970 0.5990 0.6010 0.6010
7.759000 0.6030 0.6040 0.6060 0.6080 0.6080
7.793213 0.6090 0.6090 0.6110 0.6110 0.6110
7.827000 0.6110 0.6090 0.6040 0.5970 0.5890
7.861213 0.5820 0.5750 0.5670 0.5560 0.5480
7.895000 0.5390 0.5290 0.5200 0.5100 0.4980
7.929213 0.4930 0.4820 0.4810 0.4810 0.5000
7.964000 0.5270 0.5490 0.5670 0.5820 0.5960
7.998213 0.6060 0.6180 0.6320 0.6460 0.6470
8.032000 0.6490 0.6510 0.6510 0.6520 0.6520
8.066213 0.6510 0.6490 0.6440 0.6390 0.6300
8.101000 0.6230 0.6160 0.6080 0.5970 0.5850
8.135213 0.5730 0.5580 0.5390 0.5200 0.5000
8.169000 0.4750 0.4530 0.4260 0.3980 0.3670
8.203213 0.3410 0.3170 0.3000 0.2880 0.2830
8.237000 0.2860 0.3050 0.3210 0.3500 0.3810
8.271213 0.4170 0.4620 0.5000 0.5220 0.5420
8.306000 0.5580 0.5730 0.5850 0.5960 0.6060
8.340213 0.6130 0.6200 0.6300 0.6350 0.6400
8.374000 0.6460 0.6490 0.6560 0.6630 0.6700
8.408213 0.6710 0.6750 0.6780 0.6780 0.6820
8.443000 0.6830 0.6850 0.6900 0.6900 0.6900
8.477213 0.6920 0.6940 0.6940 0.6950 0.6970
8.511000 0.6970 0.6990 0.6990 0.7010 0.7010
8.545213 0.7020 0.7020 0.7020 0.7020 0.7020
8.579000 0.7040 0.7040 0.7040 0.7040 0.7040
8.613213 0.7060 0.7060 0.7070 0.7070 0.7070
8.648000 0.7070 0.7090 0.7110 0.7110 0.7130
8.682213 0.7140 0.7140 0.7160 0.7160 0.7160
8.716000 0.7180 0.7190 0.7190 0.7190 0.7210
8.750213 0.7210 0.7210 0.7230 0.7230 0.7230
8.785000 0.7230 0.7230 0.7250 0.7250 0.7250
8.819213 0.7250 0.7250 0.7230 0.7230 0.7210
8.853000 0.7190 0.7190 0.7140 0.7130 0.7110
8.887213 0.7070 0.7040 0.7020 0.6970 0.6940
8.921000 0.6900 0.6830 0.6780 0.6750 0.6680
8.955213 0.6630 0.6580 0.6490 0.6420 0.6370
8.990000 0.6280 0.6180 0.6030 0.5820 0.5680
9.024213 0.5610 0.5530 0.5410 0.5170 0.5010
9.058000 0.4810 0.4570 0.4380 0.4170 0.3950
9.092213 0.3690 0.3450 0.3230 0.2980 0.2800
9.127000 0.2610 0.2450 0.2310 0.2280 0.2300
9.161213 0.2330 0.2450 0.2800 0.2900 0.3230
9.195000 0.3720 0.4270 0.4860 0.5370 0.5510
9.229213 0.5670 0.5790 0.5910 0.5970 0.6010
9.263000 0.6030 0.6030 0.6010 0.5970 0.5870
9.297213 0.5820 0.5720 0.5630 0.5560 0.5480
9.332000 0.5410 0.5370 0.5320 0.5300 0.5290
9.366213 0.5240 0.5220 0.5170 0.5100 0.5050
9.400000 0.4980 0.4810 0.4630 0.4500 0.4390
9.434213 0.4290 0.4240 0.4240 0.4310 0.4530
9.468000 0.4720 0.4980 0.5270 0.5560 0.5820
9.502213 0.6110 0.6270 0.6370 0.6470 0.6510
9.537000 0.6540 0.6610 0.6610 0.6610 0.6590
9.571213 0.6590 0.6580 0.6510 0.6400 0.6350
9.605000 0.6340 0.6230 0.6080 0.6030 0.5920
9.639213 0.5800 0.5670 0.5510 0.5320 0.5130
9.674000 0.4930 0.4700 0.4480 0.4240 0.3980
9.708213 0.3740 0.3500 0.3240 0.3000 0.2760
9.742000 0.2520 0.2280 0.2180 0.2060 0.1970
9.776213 0.1870 0.1830 0.1830 0.1870 0.1990
9.810000 0.2140 0.2280 0.2430 0.2570 0.2760
9.844213 0.2970 0.3050 0.3170 0.3260 0.3310
9.879000 0.3330 0.3330 0.3330 0.3310 0.3260
9.913213 0.3230 0.3190 0.3140 0.3120 0.3120
9.947000 0.3120 0.3120 0.3120 0.3140 0.3160
9.981213 0.3160 0.3190 0.3230 0.3260 0.3330
10.016000 0.3650 0.3830 0.4120 0.4510 0.4840
10.050213 0.5060 0.5340 0.5560 0.5730 0.5920
10.084000 0.6080 0.6210 0.6340 0.6470 0.6580
10.118213 0.6700 0.6780 0.6850 0.6920 0.6970
10.152000 0.7040 0.7130 0.7140 0.7180 0.7230
10.186213 0.7260 0.7300 0.7330 0.7380 0.7420
10.221000 0.7430 0.7470 0.7490 0.7500 0.7540
10.255213 0.7540 0.7560 0.7570 0.7610 0.7620
10.289000 0.7620 0.7640 0.7640 0.7660 0.7660
10.323213 0.7680 0.7710 0.7710 0.7730 0.7740
10.358000 0.7740 0.7760 0.7760 0.7780 0.7780
10.392213 0.7800 0.7810 0.7800 0.7800 0.7810
10.426000 0.7810 0.7810 0.7810 0.7810 0.7830
10.460213 0.7830 0.7830 0.7850 0.7850 0.7850
10.494000 0.7850 0.7860 0.7860 0.7860 0.7880
10.528213 0.7880 0.7880 0.7880 0.7880 0.7880
10.563000 0.7880 0.7880 0.7900 0.7900 0.7900
10.597213 0.7900 0.7920 0.7920 0.7920 0.7920
10.631000 0.7920 0.7920 0.7920 0.7920 0.7920
10.665213 0.7920 0.7900 0.7880 0.7880 0.7860
10.700000 0.7850 0.7830 0.7810 0.7800 0.7760
10.734213 0.7730 0.7680 0.7620 0.7570 0.7500
10.768000 0.7420 0.7310 0.7210 0.7090 0.6970
10.802213 0.6850 0.6730 0.6610 0.6560 0.6470
10.836000 0.6370 0.6320 0.6280 0.6250 0.6250
10.870213 0.6250 0.6230 0.6230 0.6210 0.6180
10.905000 0.6090 0.5990 0.5840 0.5670 0.5480
10.939213 0.5270 0.5060 0.4860 0.4600 0.4310
10.973000 0.4050 0.3810 0.3650 0.3470 0.3280
11.007213 0.3190 0.2950 0.2920 0.2920 0.3000
11.042000 0.3360 0.3600 0.3910 0.4260 0.4750
11.076213 0.5060 0.5250 0.5390 0.5510 0.5630
11.110000 0.5720 0.5820 0.5920 0.6030 0.6130
11.144213 0.6270 0.6400 0.6490 0.6560 0.6630
11.178000 0.6710 0.6800 0.6890 0.6990 0.7070
11.212213 0.7180 0.7260 0.7370 0.7470 0.7570
11.247000 0.7680 0.7780 0.7830 0.7850 0.7880
11.281213 0.7930 0.7970 0.8000 0.8040 0.8070
11.315000 0.8090 0.8090 0.8100 0.8120 0.8120
11.349213 0.8120 0.8120 0.8120 0.8120 0.8100
11.383000 0.8100 0.8090 0.8070 0.8050 0.8000
11.417213 0.7980 0.7970 0.7950 0.7930 0.7880
11.452000 0.7850 0.7800 0.7740 0.7690 0.7620
11.486213 0.7570 0.7520 0.7470 0.7420 0.7370
11.520000 0.7300 0.7260 0.7180 0.7140 0.7110
11.554213 0.7040 0.7020 0.7010 0.6990 0.6990
11.589000 0.6970 0.6940 0.6920 0.6890 0.6870
11.623213 0.6850 0.6830 0.6820 0.6800 0.6760
11.657000 0.6730 0.6660 0.6580 0.6510 0.6420
11.691213 0.6320 0.6210 0.6090 0.5960 0.5840
11.725000 0.5700 0.5560 0.5480 0.5420 0.5370
11.759213 0.5320 0.5290 0.5240 0.5220 0.5180
11.794000 0.5150 0.5130 0.5080 0.5030 0.4980
11.828213 0.4930 0.4840 0.4700 0.4530 0.4290
11.862000 0.3960 0.3650 0.3350 0.2970 0.2660
11.896213 0.2400 0.2110 0.2040 0.1900 0.1890
11.931000 0.1900 0.2040 0.2210 0.2420 0.2660
11.965213 0.2810 0.2970 0.3100 0.3170 0.3240
11.999000 0.3260 0.3330 0.3350 0.3350 0.3310
12.033213 0.3260 0.3170 0.3100 0.3020 0.2970
12.067000 0.2900 0.2810 0.2760 0.2660 0.2590
12.101213 0.2500 0.2420 0.2310 0.2230 0.2160
12.136000 0.2090 0.2010 0.1940 0.1870 0.1780
12.170213 0.1710 0.1660 0.1630 0.1610 0.1580
12.204000 0.1560 0.1540 0.1520 0.1520 0.1520
12.238213 0.1540 0.1540 0.1580 0.1610 0.1660
12.273000 0.1730 0.1800 0.1870 0.1950 0.2010
12.307213 0.2060 0.2190 0.2260 0.2380 0.2520
12.341000 0.2620 0.2730 0.2850 0.2970 0.3120
12.375213 0.3310 0.3500 0.3620 0.3790 0.3930
12.409000 0.4070 0.4190 0.4290 0.4390 0.4460
12.443213 0.4550 0.4620 0.4670 0.4720 0.4790
12.478000 0.4820 0.4870 0.4930 0.4980 0.5030
12.512213 0.5080 0.5130 0.5170 0.5240 0.5270
12.546000 0.5340 0.5410 0.5460 0.5510 0.5560
12.580213 0.5610 0.5650 0.5700 0.5750 0.5800
12.615000 0.5840 0.5890 0.5940 0.5990 0.6030
12.649213 0.6030 0.6060 0.6090 0.6110 0.6150
12.683000 0.6160 0.6210 0.6230 0.6250 0.6270
12.717213 0.6300 0.6300 0.6320 0.6340 0.6340
12.751000 0.6350 0.6370 0.6390 0.6390 0.6400
12.785213 0.6420 0.6420 0.6460 0.6460 0.6470
12.820000 0.6470 0.6490 0.6510 0.6510 0.6510
12.854213 0.6510 0.6510 0.6510 0.6510 0.6510
12.888000 0.6510 0.6510 0.6510 0.6510 0.6510
12.922213 0.6510 0.6510 0.6510 0.6510 0.6510
12.957000 0.6510 0.6490 0.6490 0.6470 0.6470
12.991213 0.6460 0.6440 0.6420 0.6400 0.6390
13.025000 0.6370 0.6350 0.6320 0.6300 0.6270
13.059213 0.6250 0.6210 0.6200 0.6150 0.6110
13.093000 0.6080 0.6030 0.6010 0.5970 0.5920
13.127213 0.5870 0.5820 0.5770 0.5730 0.5680
13.162000 0.5650 0.5580 0.5510 0.5420 0.5370
13.196213 0.5270 0.5220 0.5060 0.4930 0.4810
13.230000 0.4720 0.4620 0.4530 0.4410 0.4260
13.264213 0.4070 0.3960 0.3840 0.3710 0.3590
13.298000 0.3470 0.3350 0.3240 0.3140 0.3050
13.332213 0.3020 0.2980 0.2950 0.2900 0.2880
13.367000 0.2880 0.2880 0.2860 0.2860 0.2860
13.401213 0.2860 0.2880 0.2900 0.2950 0.2980
13.435000 0.3050 0.3100 0.3160 0.3260 0.3350
13.469213 0.3430 0.3500 0.3590 0.3670 0.3780
13.504000 0.3880 0.3960 0.4070 0.4170 0.4270
13.538213 0.4380 0.4480 0.4580 0.4670 0.4770
13.572000 0.4860 0.4930 0.5010 0.5060 0.5130
13.606213 0.5170 0.5220 0.5250 0.5300 0.5320
13.640000 0.5360 0.5390 0.5410 0.5440 0.5480
13.674213 0.5490 0.5510 0.5530 0.5530 0.5540
13.709000 0.5540 0.5560 0.5580 0.5580 0.5600
13.743213 0.5600 0.5610 0.5610 0.5610 0.5610
13.777000 0.5610 0.5610 0.5610 0.5610 0.5610
13.811213 0.5610 0.5600 0.5580 0.5580 0.5580
13.846000 0.5560 0.5560 0.5560 0.5560 0.5560
13.880213 0.5560 0.5560 0.5600 0.5600 0.5600
13.914000 0.5600 0.5600 0.5600 0.5600 0.5580
13.948213 0.5580 0.5560 0.5560 0.5540 0.5530
13.982000 0.5530 0.5490 0.5480 0.5440 0.5390
14.016213 0.5370 0.5370 0.5340 0.5320 0.5300
14.051000 0.5250 0.5240 0.5200 0.5180 0.5150
14.085213 0.5120 0.5080 0.5060 0.5030 0.5010
14.119000 0.5000 0.5000 0.4980 0.4960 0.4960
14.153213 0.4940 0.4930 0.4910 0.4910 0.4890
14.188000 0.4890 0.4890 0.4870 0.4860 0.4860
14.222213 0.4860 0.4860 0.4840 0.4840 0.4840
14.256000 0.4840 0.4840 0.4840 0.4840 0.4820
14.290213 0.4820 0.4820 0.4820 0.4810 0.4790
14.324000 0.4770 0.4770 0.4740 0.4740 0.4720
14.358213 0.4720 0.4700 0.4690 0.4650 0.4620
14.393000 0.4600 0.4570 0.4530 0.4500 0.4460
14.427213 0.4410 0.4380 0.4320 0.4290 0.4240
14.461000 0.4170 0.4120 0.4070 0.4000 0.3930
14.495213 0.3860 0.3810 0.3760 0.3670 0.3590
14.530000 0.3500 0.3410 0.3330 0.3240 0.3160
14.564213 0.3090 0.3020 0.2930 0.2860 0.2800
14.598000 0.2730 0.2660 0.2570 0.2500 0.2430
14.632213 0.2370 0.2300 0.2230 0.2140 0.2040
14.666000 0.1970 0.1940 0.1850 0.1780 0.1730
14.700213 0.1660 0.1610 0.1560 0.1510 0.1470
14.735000 0.1420 0.1350 0.1320 0.1280 0.1250
14.769213 0.1210 0.1200 0.1180 0.1160 0.1150
14.803000 0.1130 0.1130 0.1150 0.1160 0.1180
14.837213 0.1200 0.1210 0.1230 0.1270 0.1280
14.872000 0.1320 0.1350 0.1390 0.1420 0.1460
14.906213 0.1510 0.1560 0.1610 0.1660 0.1750
14.940000 0.1830 0.1940 0.2040 0.2110 0.2250
14.974213 0.2350 0.2450 0.2560 0.2680 0.2760
15.008000 0.2860 0.2950 0.3040 0.3100 0.3160
15.042213 0.3190 0.3230 0.3260 0.3290 0.3310
15.077000 0.3350 0.3380 0.3410 0.3470 0.3500
15.111213 0.3520 0.3530 0.3550 0.3600 0.3620
15.145000 0.3640 0.3650 0.3690 0.3710 0.3720
15.179213 0.3740 0.3760 0.3760 0.3780 0.3780
15.213000 0.3810 0.3830 0.3830 0.3840 0.3860
15.247213 0.3880 0.3880 0.3900 0.3900 0.3900
15.282000 0.3900 0.3900 0.3900 0.3900 0.3900
15.316213 0.3900 0.3910 0.3910 0.3910 0.3910
15.350000 0.3910 0.3930 0.3930 0.3930 0.3950
15.384213 0.3950 0.3950 0.3950 0.3950 0.3950
15.419000 0.3950 0.3950 0.3950 0.3950 0.3950
15.453213 0.3950 0.3950 0.3950 0.3930 0.3930
15.487000 0.3910 0.3910 0.3910 0.3900 0.3900
15.521213 0.3900 0.3880 0.3880 0.3860 0.3860
15.555000 0.3860 0.3840 0.3840 0.3840 0.3830
15.589213 0.3830 0.3810 0.3810 0.3790 0.3790
15.624000 0.3790 0.3780 0.3780 0.3780 0.3780
15.658213 0.3780 0.3760 0.3760 0.3760 0.3740
15.692000 0.3740 0.3740 0.3740 0.3720 0.3720
15.726213 0.3710 0.3710 0.3690 0.3690 0.3670
15.761000 0.3650 0.3640 0.3620 0.3620 0.3620
15.795213 0.3620 0.3620 0.3620 0.3600 0.3590
15.829000 0.3570 0.3570 0.3550 0.3550 0.3550
15.863213 0.3550
##END=
