##TITLE=ADENINE, 3-(p-FLUOROBENZYL)-
##JCAMP-DX=4.24
##DATA TYPE=INFRARED SPECTRUM
##CLASS=COBLENTZ
##ORIGIN=SOUTHERN RESEARCH INST.
##OWNER=COBLENTZ SOCIETY
Collection (C) 2018 copyright by the U.S. Secretary of Commerce
on behalf of the United States of America. All rights reserved.
##DATE=1964/07/17
##NAMES=3-(4-fluorobenzyl)-3H-purin-6-ylamine
3-(4-fluorobenzyl)-3H-purin-6-amine
##MOLFORM=C12 H10 F N5
##SOURCE REFERENCE=COBLENTZ NO. 9932
##$NIST ID=B6009932
##$NIST SOURCE=COBLENTZ
##$NIST IMAGE=cob9932
##SPECTROMETER/DATA SYSTEM=PERKIN-ELMER 221 (GRATING)
##INSTRUMENT PARAMETERS=FILTER CHANGES AT 2490, 980 CM^-^1, GRATING FOR 4000-1428 CM^-^1, NaCl PRISM FOR 1428-650 CM^-^1
##STATE=SOLID (1 mg / 650 mg KBr DISC)
##PATH LENGTH=
$$ PURITY - ANALYTICAL
##SAMPLING PROCEDURE=TRANSMISSION
##RESOLUTION=4
##DATA PROCESSING=DIGITIZED BY NIST FROM HARD COPY
##XUNITS=1/CM
##YUNITS=TRANSMITTANCE
##XFACTOR=1.000000
##YFACTOR=1
##DELTAX=001.604870
##FIRSTX=605.313
##LASTX=4017.27
##FIRSTY=0.791
##MAXX=4017.27
##MINX=605.313
##MAXY=0.976
##MINY=0.218
##NPOINTS=2127
##XYDATA=(X++(Y..Y))
605.313000 0.7910 0.7920 0.7930 0.7940 0.7950
613.341126 0.7950 0.7960 0.7970 0.8000 0.8070
621.361000 0.8160 0.8300 0.8440 0.8550 0.8620
629.389126 0.8670 0.8670 0.8670 0.8670 0.8630
637.410000 0.8530 0.8440 0.8340 0.7630 0.7240
645.438126 0.6850 0.6650 0.6340 0.6190 0.6030
653.459000 0.5720 0.5410 0.5390 0.5400 0.5490
661.487126 0.5580 0.5680 0.5760 0.5860 0.5910
669.507000 0.6300 0.6500 0.6690 0.6890 0.7080
677.535126 0.7460 0.7630 0.7800 0.7960 0.8110
685.556000 0.8250 0.8370 0.8480 0.8570 0.8640
693.584126 0.8730 0.8740 0.8950 0.8970 0.8970
701.605000 0.8960 0.8900 0.8810 0.8710 0.8640
709.633126 0.8580 0.8570 0.8580 0.8830 0.9070
717.654000 0.9150 0.9200 0.9240 0.9280 0.9300
725.682126 0.9310 0.9330 0.9340 0.9350 0.9350
733.702000 0.9350 0.9350 0.9350 0.9340 0.9320
741.730126 0.9300 0.9280 0.9240 0.9160 0.9050
749.751000 0.8930 0.8770 0.8660 0.8550 0.8250
757.779126 0.7840 0.7510 0.7180 0.7160 0.7650
765.800000 0.8680 0.8690 0.7900 0.7500 0.7210
773.828126 0.6920 0.6900 0.6910 0.7080 0.8320
781.848000 0.8980 0.9290 0.9300 0.9290 0.9290
789.876126 0.9280 0.9090 0.8900 0.8870 0.8520
797.897000 0.8160 0.7680 0.7480 0.7280 0.6790
805.925126 0.6420 0.6050 0.4960 0.4960 0.4960
813.946000 0.5200 0.7490 0.7900 0.8300 0.8500
821.974126 0.8670 0.8670 0.8670 0.8630 0.8610
829.994000 0.8590 0.8560 0.8540 0.8290 0.8030
838.022126 0.7800 0.7550 0.7340 0.7120 0.7090
846.043000 0.7080 0.7080 0.7080 0.7160 0.7890
854.071126 0.8220 0.8480 0.9080 0.9570 0.9590
862.092000 0.9580 0.9580 0.9580 0.9580 0.9580
870.120126 0.9580 0.9570 0.9570 0.9570 0.9570
878.141000 0.9570 0.9560 0.9550 0.9550 0.9540
886.169126 0.9540 0.9540 0.9530 0.9510 0.9500
894.189000 0.9480 0.9430 0.9340 0.8870 0.8860
902.217126 0.8870 0.9050 0.9090 0.9400 0.9570
910.238000 0.9560 0.9540 0.9500 0.9460 0.9400
918.266126 0.9350 0.9310 0.9300 0.9290 0.9290
926.287000 0.9290 0.9290 0.9290 0.9280 0.9280
934.315126 0.9280 0.9270 0.9200 0.9130 0.9070
942.335000 0.9010 0.8950 0.8840 0.8820 0.8830
950.363126 0.9090 0.9320 0.9350 0.9360 0.9390
958.384000 0.9390 0.9390 0.9380 0.9350 0.9350
966.412126 0.9340 0.9330 0.9290 0.9240 0.9120
974.433000 0.9030 0.8970 0.8930 0.8900 0.8880
982.461126 0.8860 0.8820 0.8780 0.8750 0.8710
990.481000 0.8610 0.8470 0.8290 0.8060 0.7760
998.509126 0.7570 0.7390 0.7130 0.6700 0.6260
1006.530000 0.6050 0.5830 0.5390 0.5390 0.5470
1014.558126 0.6620 0.7900 0.8900 0.9090 0.9220
1022.579000 0.9280 0.9270 0.9280 0.9300 0.9310
1030.607126 0.9310 0.9310 0.9310 0.9310 0.9290
1038.628000 0.9280 0.9240 0.9210 0.9180 0.9130
1046.656126 0.9080 0.9010 0.8920 0.8820 0.8760
1054.676000 0.8710 0.8560 0.8310 0.8060 0.7820
1062.704126 0.7570 0.7570 0.7960 0.8970 0.8980
1070.725000 0.9050 0.9110 0.9120 0.9120 0.9120
1078.753126 0.9120 0.9110 0.9010 0.8970 0.8750
1086.774000 0.8470 0.8180 0.7510 0.7280 0.7050
1094.802126 0.7040 0.7050 0.8930 0.9050 0.9100
1102.822000 0.9110 0.9110 0.9100 0.9090 0.9080
1110.850126 0.9070 0.9070 0.9060 0.9050 0.9030
1118.871000 0.9010 0.8990 0.8970 0.8950 0.8930
1126.899126 0.8910 0.8880 0.8840 0.8790 0.8740
1134.920000 0.8710 0.8670 0.8580 0.8470 0.8340
1142.948126 0.8120 0.7600 0.7080 0.6670 0.6250
1150.969000 0.6030 0.5820 0.5390 0.4690 0.4000
1158.997126 0.3820 0.3820 0.6360 0.6810 0.7720
1167.017000 0.8150 0.8750 0.8740 0.8720 0.8710
1175.045126 0.8650 0.8560 0.8460 0.8440 0.8320
1183.066000 0.8300 0.8260 0.8240 0.8180 0.8110
1191.094126 0.8060 0.8000 0.7950 0.7910 0.7900
1199.115000 0.7880 0.7790 0.7670 0.7620 0.7570
1207.143126 0.7470 0.7410 0.7340 0.6620 0.5890
1215.163000 0.5150 0.4910 0.4710 0.4510 0.4120
1223.191126 0.3720 0.3720 0.3920 0.5170 0.6220
1231.212000 0.6800 0.7970 0.7990 0.8040 0.8080
1239.240126 0.8090 0.8100 0.8130 0.8520 0.8710
1247.261000 0.8710 0.8700 0.8690 0.8590 0.8550
1255.289126 0.8310 0.8270 0.8240 0.7950 0.7670
1263.309000 0.7540 0.7410 0.7140 0.6570 0.6330
1271.337126 0.6330 0.6810 0.7590 0.8030 0.8330
1279.358000 0.8580 0.8590 0.8590 0.8590 0.8590
1287.386126 0.8560 0.8400 0.8360 0.8310 0.8210
1295.407000 0.7950 0.7930 0.7940 0.8130 0.8210
1303.435126 0.8210 0.7610 0.7380 0.7140 0.6640
1311.455000 0.6140 0.5900 0.5640 0.5640 0.6620
1319.483126 0.7560 0.7610 0.7760 0.8060 0.8340
1327.504000 0.8450 0.8670 0.8670 0.8670 0.8640
1335.532126 0.8620 0.8590 0.8570 0.8550 0.8530
1343.553000 0.8520 0.8520 0.8520 0.8520 0.8520
1351.581126 0.8520 0.8510 0.8510 0.8510 0.8500
1359.602000 0.8510 0.8520 0.8550 0.8580 0.8630
1367.630126 0.8630 0.8620 0.8610 0.8540 0.8460
1375.650000 0.8390 0.8320 0.8250 0.8200 0.8180
1383.678126 0.7960 0.7690 0.7380 0.7080 0.6330
1391.699000 0.6120 0.5900 0.5490 0.5070 0.4860
1399.727126 0.4650 0.5140 0.7050 0.7060 0.7070
1407.748000 0.7050 0.7040 0.7020 0.7000 0.7000
1415.776126 0.7010 0.7040 0.7080 0.7190 0.7190
1423.796000 0.7190 0.7150 0.7120 0.6590 0.6340
1431.824126 0.6170 0.6010 0.5700 0.5500 0.5390
1439.845000 0.5390 0.6640 0.7910 0.7920 0.7720
1447.873126 0.7700 0.7710 0.7850 0.7960 0.8080
1455.894000 0.8220 0.8400 0.8510 0.8560 0.8620
1463.922126 0.8640 0.8810 0.8840 0.8850 0.8870
1471.943000 0.8890 0.8900 0.8900 0.8840 0.8770
1479.971126 0.8710 0.8670 0.8610 0.8530 0.8330
1487.991000 0.8210 0.8130 0.8020 0.7960 0.7880
1496.019126 0.7470 0.7250 0.7020 0.6510 0.6010
1504.040000 0.5180 0.4350 0.3510 0.3490 0.3650
1512.068126 0.5120 0.5680 0.6250 0.6480 0.6850
1520.089000 0.6970 0.6970 0.6760 0.6760 0.6960
1528.117126 0.7550 0.7690 0.7840 0.8030 0.8270
1536.137000 0.8250 0.8240 0.8240 0.8180 0.8100
1544.165126 0.7840 0.7590 0.7340 0.6850 0.6400
1552.186000 0.6130 0.5850 0.5830 0.6310 0.7750
1560.214126 0.8030 0.8250 0.8330 0.8420 0.8500
1568.235000 0.8480 0.8480 0.8450 0.8430 0.8400
1576.263126 0.8370 0.8320 0.8250 0.8170 0.8040
1584.283000 0.7880 0.7680 0.7460 0.7420 0.7380
1592.311126 0.7240 0.7110 0.6970 0.6290 0.5970
1600.332000 0.5640 0.5410 0.5180 0.4940 0.4940
1608.360126 0.6150 0.6150 0.6130 0.6090 0.6020
1616.381000 0.5720 0.5450 0.4940 0.4750 0.4550
1624.409126 0.4270 0.4080 0.3970 0.3720 0.3640
1632.429000 0.3560 0.3560 0.3930 0.4340 0.5150
1640.457126 0.5500 0.5790 0.6000 0.6080 0.6170
1648.478000 0.6180 0.6250 0.6280 0.6280 0.6420
1656.506126 0.6660 0.6710 0.6760 0.6810 0.7040
1664.527000 0.7190 0.7340 0.7340 0.7350 0.7350
1672.555126 0.7460 0.7470 0.7490 0.7500 0.7490
1680.576000 0.7440 0.7390 0.7360 0.7220 0.7070
1688.604126 0.6940 0.6850 0.6810 0.6280 0.5990
1696.624000 0.5700 0.5100 0.4800 0.4490 0.3890
1704.652126 0.3600 0.3310 0.2760 0.2520 0.2270
1712.673000 0.2180 0.2310 0.2990 0.3820 0.4920
1720.701126 0.5530 0.6670 0.7600 0.8100 0.8420
1728.722000 0.8450 0.8470 0.8590 0.8630 0.8760
1736.750126 0.8850 0.8930 0.9020 0.9110 0.9190
1744.770000 0.9260 0.9310 0.9350 0.9360 0.9410
1752.798126 0.9430 0.9450 0.9460 0.9470 0.9470
1760.819000 0.9480 0.9490 0.9500 0.9500 0.9520
1768.847126 0.9540 0.9540 0.9550 0.9550 0.9560
1776.868000 0.9560 0.9560 0.9550 0.9540 0.9540
1784.896126 0.9540 0.9530 0.9520 0.9500 0.9500
1792.917000 0.9490 0.9480 0.9470 0.9460 0.9430
1800.945126 0.9410 0.9390 0.9360 0.9310 0.9230
1808.965000 0.9150 0.9150 0.9200 0.9420 0.9540
1816.993126 0.9670 0.9750 0.9760 0.9760 0.9760
1825.014000 0.9750 0.9740 0.9730 0.9730 0.9720
1833.042126 0.9710 0.9700 0.9700 0.9700 0.9700
1841.063000 0.9690 0.9690 0.9690 0.9690 0.9690
1849.091126 0.9690 0.9690 0.9680 0.9680 0.9680
1857.111000 0.9680 0.9680 0.9670 0.9660 0.9660
1865.139126 0.9650 0.9650 0.9630 0.9610 0.9590
1873.160000 0.9580 0.9580 0.9560 0.9550 0.9540
1881.188126 0.9540 0.9540 0.9530 0.9530 0.9520
1889.209000 0.9510 0.9500 0.9500 0.9500 0.9500
1897.237126 0.9500 0.9500 0.9490 0.9490 0.9490
1905.257000 0.9480 0.9480 0.9480 0.9470 0.9470
1913.285126 0.9460 0.9460 0.9460 0.9460 0.9460
1921.306000 0.9460 0.9450 0.9450 0.9440 0.9440
1929.334126 0.9440 0.9430 0.9430 0.9430 0.9430
1937.355000 0.9430 0.9430 0.9430 0.9430 0.9430
1945.383126 0.9430 0.9430 0.9430 0.9430 0.9420
1953.403000 0.9420 0.9420 0.9420 0.9420 0.9420
1961.431126 0.9420 0.9420 0.9420 0.9410 0.9410
1969.452000 0.9410 0.9400 0.9400 0.9390 0.9390
1977.480126 0.9390 0.9390 0.9380 0.9380 0.9380
1985.501000 0.9380 0.9370 0.9360 0.9360 0.9350
1993.529126 0.9350 0.9350 0.9340 0.9330 0.9310
2001.550000 0.9310 0.9290 0.9280 0.9270 0.9260
2009.578126 0.9260 0.9250 0.9250 0.9240 0.9240
2017.598000 0.9240 0.9240 0.9240 0.9240 0.9240
2025.626126 0.9240 0.9240 0.9240 0.9240 0.9250
2033.647000 0.9250 0.9270 0.9280 0.9280 0.9280
2041.675126 0.9280 0.9280 0.9280 0.9280 0.9280
2049.696000 0.9280 0.9280 0.9280 0.9280 0.9270
2057.724126 0.9270 0.9260 0.9250 0.9240 0.9230
2065.744000 0.9240 0.9240 0.9240 0.9240 0.9240
2073.772126 0.9240 0.9240 0.9240 0.9240 0.9240
2081.793000 0.9250 0.9250 0.9250 0.9250 0.9250
2089.821126 0.9250 0.9250 0.9250 0.9250 0.9250
2097.842000 0.9250 0.9250 0.9250 0.9250 0.9250
2105.870126 0.9250 0.9250 0.9250 0.9250 0.9250
2113.890000 0.9250 0.9250 0.9250 0.9250 0.9250
2121.918126 0.9250 0.9250 0.9250 0.9250 0.9250
2129.939000 0.9250 0.9250 0.9250 0.9240 0.9240
2137.967126 0.9240 0.9240 0.9250 0.9250 0.9250
2145.988000 0.9250 0.9250 0.9250 0.9250 0.9240
2154.016126 0.9240 0.9240 0.9240 0.9240 0.9240
2162.037000 0.9240 0.9240 0.9240 0.9240 0.9240
2170.065126 0.9240 0.9240 0.9240 0.9240 0.9240
2178.085000 0.9240 0.9240 0.9240 0.9240 0.9240
2186.113126 0.9240 0.9230 0.9230 0.9230 0.9230
2194.134000 0.9230 0.9230 0.9230 0.9230 0.9230
2202.162126 0.9230 0.9230 0.9220 0.9220 0.9220
2210.183000 0.9220 0.9210 0.9210 0.9210 0.9210
2218.211126 0.9200 0.9200 0.9200 0.9200 0.9200
2226.231000 0.9200 0.9190 0.9190 0.9180 0.9180
2234.259126 0.9180 0.9170 0.9170 0.9160 0.9160
2242.280000 0.9160 0.9160 0.9150 0.9150 0.9150
2250.308126 0.9140 0.9140 0.9140 0.9120 0.9120
2258.329000 0.9120 0.9120 0.9120 0.9120 0.9120
2266.357126 0.9120 0.9120 0.9120 0.9120 0.9110
2274.377000 0.9110 0.9110 0.9090 0.9090 0.9090
2282.405126 0.9090 0.9080 0.9070 0.9070 0.9060
2290.426000 0.9050 0.9040 0.9020 0.9010 0.9000
2298.454126 0.8980 0.8970 0.8950 0.8940 0.8930
2306.475000 0.8920 0.8910 0.8910 0.8900 0.8900
2314.503126 0.8890 0.8890 0.8880 0.8880 0.8870
2322.523000 0.8870 0.8860 0.8860 0.8860 0.8860
2330.551126 0.8860 0.8860 0.8860 0.8860 0.8860
2338.572000 0.8860 0.8860 0.8860 0.8860 0.8860
2346.600126 0.8860 0.8860 0.8870 0.8880 0.8900
2354.621000 0.8900 0.8920 0.8930 0.8930 0.8950
2362.649126 0.8960 0.8970 0.8970 0.8980 0.8980
2370.670000 0.8990 0.8990 0.8990 0.8990 0.8990
2378.698126 0.8990 0.9000 0.9000 0.8990 0.8990
2386.718000 0.8980 0.8980 0.8980 0.8970 0.8970
2394.746126 0.8970 0.8970 0.8970 0.8960 0.8960
2402.767000 0.8950 0.8940 0.8930 0.8930 0.8930
2410.795126 0.8920 0.8910 0.8910 0.8900 0.8900
2418.816000 0.8890 0.8890 0.8880 0.8880 0.8870
2426.844126 0.8870 0.8860 0.8860 0.8860 0.8860
2434.865000 0.8850 0.8850 0.8850 0.8840 0.8840
2442.893126 0.8840 0.8830 0.8830 0.8830 0.8830
2450.913000 0.8830 0.8830 0.8830 0.8830 0.8830
2458.941126 0.8840 0.8840 0.8840 0.8840 0.8840
2466.962000 0.8840 0.8840 0.8840 0.8850 0.8850
2474.990126 0.8850 0.8850 0.8850 0.8840 0.8830
2483.010000 0.8830 0.8820 0.8820 0.8820 0.8810
2491.038126 0.8800 0.8800 0.8800 0.8800 0.8800
2499.059000 0.8800 0.8800 0.8790 0.8790 0.8790
2507.087126 0.8780 0.8780 0.8780 0.8780 0.8780
2515.108000 0.8780 0.8780 0.8780 0.8770 0.8770
2523.136126 0.8770 0.8760 0.8760 0.8760 0.8750
2531.157000 0.8750 0.8750 0.8750 0.8750 0.8750
2539.185126 0.8750 0.8750 0.8750 0.8750 0.8750
2547.205000 0.8750 0.8750 0.8750 0.8750 0.8740
2555.233126 0.8730 0.8730 0.8720 0.8710 0.8710
2563.254000 0.8700 0.8650 0.8630 0.8610 0.8610
2571.282126 0.8600 0.8600 0.8590 0.8590 0.8590
2579.303000 0.8590 0.8580 0.8570 0.8570 0.8560
2587.331126 0.8560 0.8560 0.8560 0.8550 0.8540
2595.351000 0.8530 0.8530 0.8520 0.8520 0.8520
2603.379126 0.8510 0.8500 0.8500 0.8500 0.8500
2611.400000 0.8500 0.8490 0.8490 0.8480 0.8470
2619.428126 0.8450 0.8440 0.8420 0.8410 0.8400
2627.449000 0.8400 0.8400 0.8390 0.8380 0.8370
2635.477126 0.8350 0.8330 0.8330 0.8320 0.8310
2643.498000 0.8310 0.8300 0.8300 0.8290 0.8290
2651.526126 0.8290 0.8280 0.8280 0.8270 0.8250
2659.546000 0.8240 0.8240 0.8230 0.8210 0.8180
2667.574126 0.8170 0.8150 0.8140 0.8140 0.8140
2675.595000 0.8120 0.8100 0.8090 0.8060 0.8050
2683.623126 0.8030 0.8000 0.7990 0.7970 0.7960
2691.644000 0.7950 0.7950 0.7950 0.7980 0.7990
2699.672126 0.8020 0.8030 0.8070 0.8100 0.8100
2707.692000 0.8110 0.8110 0.8120 0.8110 0.8120
2715.720126 0.8120 0.8120 0.8120 0.8110 0.8110
2723.741000 0.8110 0.8110 0.8100 0.8090 0.8070
2731.769126 0.8070 0.8050 0.8030 0.8000 0.7970
2739.790000 0.7950 0.7930 0.7910 0.7900 0.7880
2747.818126 0.7870 0.7890 0.7900 0.7910 0.7950
2755.838000 0.7960 0.7980 0.7990 0.8000 0.8010
2763.866126 0.8020 0.8020 0.8020 0.8030 0.8030
2771.887000 0.8030 0.8010 0.8000 0.7990 0.7970
2779.915126 0.7960 0.7950 0.7930 0.7920 0.7910
2787.936000 0.7910 0.7900 0.7890 0.7880 0.7880
2795.964126 0.7870 0.7840 0.7810 0.7790 0.7760
2803.985000 0.7750 0.7750 0.7730 0.7720 0.7720
2812.013126 0.7720 0.7710 0.7710 0.7710 0.7700
2820.033000 0.7680 0.7660 0.7640 0.7610 0.7590
2828.061126 0.7570 0.7560 0.7530 0.7510 0.7490
2836.082000 0.7460 0.7420 0.7410 0.7390 0.7350
2844.110126 0.7310 0.7270 0.7230 0.7190 0.7150
2852.131000 0.7120 0.7080 0.7040 0.7010 0.6980
2860.159126 0.6950 0.6920 0.6890 0.6890 0.6890
2868.179000 0.6890 0.6890 0.6900 0.6930 0.6970
2876.207126 0.7020 0.7050 0.7080 0.7080 0.7100
2884.228000 0.7100 0.7110 0.7110 0.7110 0.7100
2892.256126 0.7090 0.7080 0.7060 0.7030 0.6940
2900.277000 0.6900 0.6880 0.6850 0.6810 0.6800
2908.305126 0.6780 0.6780 0.6770 0.6770 0.6770
2916.325000 0.6770 0.6780 0.6780 0.6800 0.6800
2924.353126 0.6810 0.6810 0.6810 0.6810 0.6800
2932.374000 0.6790 0.6780 0.6760 0.6720 0.6680
2940.402126 0.6660 0.6620 0.6560 0.6530 0.6520
2948.423000 0.6520 0.6520 0.6530 0.6550 0.6550
2956.451126 0.6590 0.6600 0.6620 0.6620 0.6660
2964.471000 0.6670 0.6680 0.6670 0.6640 0.6600
2972.499126 0.6570 0.6540 0.6510 0.6500 0.6490
2980.520000 0.6470 0.6450 0.6420 0.6360 0.6290
2988.548126 0.6220 0.6140 0.6100 0.6060 0.5970
2996.569000 0.5950 0.5940 0.5930 0.5920 0.5910
3004.597126 0.5900 0.5900 0.5880 0.5860 0.5840
3012.618000 0.5830 0.5820 0.5800 0.5780 0.5740
3020.646126 0.5710 0.5690 0.5670 0.5640 0.5550
3028.666000 0.5450 0.5400 0.5380 0.5370 0.5370
3036.694126 0.5360 0.5350 0.5340 0.5340 0.5330
3044.715000 0.5320 0.5310 0.5300 0.5300 0.5290
3052.743126 0.5280 0.5270 0.5260 0.5240 0.5220
3060.764000 0.5220 0.5200 0.5180 0.5120 0.5040
3068.792126 0.4960 0.4920 0.4900 0.4910 0.4970
3076.813000 0.5080 0.5180 0.5260 0.5340 0.5390
3084.841126 0.5450 0.5490 0.5520 0.5550 0.5570
3092.861000 0.5590 0.5610 0.5630 0.5640 0.5670
3100.889126 0.5680 0.5690 0.5700 0.5700 0.5710
3108.910000 0.5710 0.5710 0.5720 0.5730 0.5740
3116.938126 0.5750 0.5780 0.5800 0.5820 0.5840
3124.958000 0.5860 0.5870 0.5870 0.5870 0.5870
3132.986126 0.5880 0.5890 0.5890 0.5900 0.5900
3141.007000 0.5910 0.5910 0.5910 0.5920 0.5920
3149.035126 0.5920 0.5930 0.5930 0.5930 0.5940
3157.056000 0.5940 0.5940 0.5940 0.5940 0.5930
3165.084126 0.5930 0.5920 0.5920 0.5910 0.5910
3173.104000 0.5900 0.5900 0.5900 0.5900 0.5890
3181.132126 0.5890 0.5870 0.5870 0.5860 0.5850
3189.153000 0.5840 0.5830 0.5820 0.5800 0.5770
3197.181126 0.5750 0.5730 0.5710 0.5700 0.5700
3205.202000 0.5680 0.5660 0.5640 0.5600 0.5560
3213.230126 0.5510 0.5460 0.5410 0.5360 0.5300
3221.251000 0.5240 0.5180 0.5120 0.5060 0.5000
3229.279126 0.4940 0.4880 0.4860 0.4840 0.4790
3237.299000 0.4740 0.4700 0.4700 0.4690 0.4670
3245.327126 0.4650 0.4610 0.4580 0.4550 0.4530
3253.348000 0.4520 0.4520 0.4520 0.4520 0.4530
3261.376126 0.4580 0.4620 0.4690 0.4750 0.4880
3269.397000 0.4950 0.5030 0.5110 0.5200 0.5300
3277.425126 0.5410 0.5530 0.5640 0.5750 0.5860
3285.446000 0.5950 0.6040 0.6200 0.6270 0.6330
3293.474126 0.6390 0.6430 0.6480 0.6510 0.6550
3301.494000 0.6570 0.6590 0.6590 0.6590 0.6570
3309.522126 0.6550 0.6540 0.6530 0.6540 0.6580
3317.543000 0.6630 0.6680 0.6700 0.6730 0.6740
3325.571126 0.6780 0.6830 0.6870 0.6870 0.6920
3333.592000 0.6960 0.7060 0.7140 0.7190 0.7230
3341.620126 0.7270 0.7290 0.7310 0.7310 0.7320
3349.640000 0.7340 0.7340 0.7340 0.7340 0.7340
3357.668126 0.7340 0.7330 0.7330 0.7320 0.7310
3365.689000 0.7300 0.7290 0.7280 0.7270 0.7260
3373.717126 0.7250 0.7240 0.7230 0.7230 0.7220
3381.738000 0.7230 0.7270 0.7320 0.7350 0.7380
3389.766126 0.7440 0.7470 0.7500 0.7520 0.7540
3397.786000 0.7600 0.7630 0.7660 0.7680 0.7690
3405.814126 0.7700 0.7710 0.7720 0.7720 0.7740
3413.835000 0.7740 0.7740 0.7740 0.7740 0.7750
3421.863126 0.7750 0.7750 0.7750 0.7750 0.7750
3429.884000 0.7750 0.7750 0.7740 0.7740 0.7740
3437.912126 0.7740 0.7730 0.7730 0.7730 0.7730
3445.933000 0.7730 0.7730 0.7740 0.7740 0.7750
3453.961126 0.7750 0.7750 0.7760 0.7760 0.7760
3461.981000 0.7760 0.7760 0.7770 0.7780 0.7780
3470.009126 0.7780 0.7790 0.7790 0.7800 0.7800
3478.030000 0.7810 0.7840 0.7860 0.7860 0.7870
3486.058126 0.7880 0.7890 0.7890 0.7900 0.7900
3494.079000 0.7910 0.7910 0.7910 0.7920 0.7930
3502.107126 0.7930 0.7950 0.7950 0.7950 0.7980
3510.127000 0.7990 0.7990 0.8000 0.8010 0.8020
3518.155126 0.8030 0.8030 0.8030 0.8030 0.8040
3526.176000 0.8060 0.8060 0.8080 0.8090 0.8100
3534.204126 0.8110 0.8120 0.8130 0.8140 0.8140
3542.225000 0.8140 0.8140 0.8160 0.8170 0.8180
3550.253126 0.8180 0.8190 0.8200 0.8210 0.8210
3558.273000 0.8220 0.8230 0.8240 0.8250 0.8250
3566.301126 0.8260 0.8260 0.8280 0.8300 0.8330
3574.322000 0.8340 0.8350 0.8360 0.8370 0.8380
3582.350126 0.8380 0.8400 0.8400 0.8420 0.8430
3590.371000 0.8430 0.8440 0.8460 0.8470 0.8470
3598.399126 0.8480 0.8480 0.8480 0.8480 0.8480
3606.419000 0.8490 0.8490 0.8490 0.8500 0.8510
3614.447126 0.8510 0.8520 0.8520 0.8520 0.8530
3622.468000 0.8530 0.8550 0.8560 0.8560 0.8570
3630.496126 0.8580 0.8590 0.8590 0.8610 0.8620
3638.517000 0.8630 0.8640 0.8650 0.8660 0.8670
3646.545126 0.8670 0.8670 0.8680 0.8680 0.8670
3654.566000 0.8670 0.8670 0.8660 0.8660 0.8650
3662.594126 0.8650 0.8650 0.8640 0.8640 0.8630
3670.614000 0.8630 0.8630 0.8620 0.8610 0.8610
3678.642126 0.8610 0.8620 0.8630 0.8630 0.8630
3686.663000 0.8630 0.8640 0.8640 0.8640 0.8650
3694.691126 0.8650 0.8650 0.8660 0.8660 0.8660
3702.712000 0.8660 0.8660 0.8650 0.8650 0.8650
3710.740126 0.8640 0.8640 0.8640 0.8640 0.8640
3718.760000 0.8630 0.8630 0.8630 0.8630 0.8630
3726.788126 0.8630 0.8630 0.8620 0.8620 0.8620
3734.809000 0.8610 0.8600 0.8590 0.8580 0.8570
3742.837126 0.8570 0.8570 0.8570 0.8570 0.8570
3750.858000 0.8580 0.8590 0.8600 0.8600 0.8610
3758.886126 0.8610 0.8610 0.8610 0.8620 0.8620
3766.906000 0.8620 0.8620 0.8620 0.8620 0.8620
3774.934126 0.8610 0.8610 0.8610 0.8600 0.8600
3782.955000 0.8590 0.8590 0.8590 0.8580 0.8570
3790.983126 0.8570 0.8560 0.8560 0.8560 0.8560
3799.004000 0.8550 0.8550 0.8550 0.8550 0.8550
3807.032126 0.8550 0.8550 0.8550 0.8540 0.8540
3815.052000 0.8540 0.8530 0.8530 0.8530 0.8530
3823.080126 0.8530 0.8530 0.8520 0.8520 0.8520
3831.101000 0.8520 0.8520 0.8520 0.8520 0.8520
3839.129126 0.8520 0.8510 0.8510 0.8510 0.8510
3847.150000 0.8500 0.8500 0.8500 0.8500 0.8500
3855.178126 0.8500 0.8500 0.8500 0.8500 0.8500
3863.199000 0.8500 0.8500 0.8500 0.8500 0.8500
3871.227126 0.8500 0.8500 0.8500 0.8500 0.8500
3879.247000 0.8500 0.8500 0.8500 0.8500 0.8500
3887.275126 0.8500 0.8500 0.8500 0.8500 0.8500
3895.296000 0.8500 0.8500 0.8500 0.8500 0.8500
3903.324126 0.8490 0.8490 0.8490 0.8490 0.8490
3911.345000 0.8490 0.8490 0.8490 0.8490 0.8490
3919.373126 0.8490 0.8490 0.8490 0.8480 0.8480
3927.394000 0.8480 0.8480 0.8480 0.8480 0.8480
3935.422126 0.8480 0.8480 0.8480 0.8480 0.8480
3943.442000 0.8480 0.8480 0.8480 0.8480 0.8480
3951.470126 0.8480 0.8480 0.8480 0.8480 0.8480
3959.491000 0.8480 0.8480 0.8480 0.8480 0.8480
3967.519126 0.8480 0.8480 0.8480 0.8480 0.8480
3975.540000 0.8480 0.8480 0.8480 0.8480 0.8480
3983.568126 0.8480 0.8480 0.8480 0.8480 0.8480
3991.588000 0.8480 0.8480 0.8480 0.8480 0.8480
3999.616126 0.8480 0.8480 0.8480 0.8480 0.8480
4007.637000 0.8480 0.8480 0.8480 0.8480 0.8480
4015.665126 0.8480 0.8480
##END=
