##TITLE=CHROMIUM(OUS) OXALATE
##JCAMP-DX=4.24
##DATA TYPE=INFRARED SPECTRUM
##CLASS=COBLENTZ
##OWNER=COBLENTZ SOCIETY
Collection (C) 2018 copyright by the U.S. Secretary of Commerce
on behalf of the United States of America. All rights reserved.
##DATE=Not specified, most likely prior to 1970
##MOLFORM=Cr C2 O4  * H2 O
##SOURCE REFERENCE=COBLENTZ NO. 74
##$NIST ID=B6000074
##$NIST SOURCE=COBLENTZ
##$NIST IMAGE=cob74
##SPECTROMETER/DATA SYSTEM=Not specified, most likely a prism, grating, or hybrid spectrometer.
##STATE=SOLID (KBr DISC)
##SAMPLING PROCEDURE=TRANSMISSION
##RESOLUTION=4
##DATA PROCESSING=DIGITIZED BY NIST FROM HARD COPY
##XUNITS=MICROMETERS
##YUNITS=TRANSMITTANCE
##XFACTOR=1.000000
##YFACTOR=1
##DELTAX=000.007589
##FIRSTX=1.974
##LASTX=14.95
##FIRSTY=0.78
##MAXX=14.95
##MINX=1.974
##MAXY=0.928
##MINY=0.106
##NPOINTS=1711
##XYDATA=(X++(Y..Y))
1.974000 0.7800 0.7810 0.7840 0.7800 0.7810
2.011965 0.7840 0.7860 0.7870 0.7890 0.7900
2.050000 0.7930 0.7960 0.7970 0.7990 0.8000
2.087965 0.8000 0.8020 0.8030 0.8050 0.8060
2.126000 0.8090 0.8110 0.8120 0.8140 0.8150
2.163965 0.8170 0.8180 0.8180 0.8260 0.8290
2.202000 0.8320 0.8350 0.8380 0.8390 0.8410
2.239965 0.8420 0.8430 0.8460 0.8480 0.8490
2.277000 0.8550 0.8570 0.8580 0.8600 0.8610
2.314965 0.8610 0.8630 0.8640 0.8670 0.8700
2.353000 0.8730 0.8750 0.8760 0.8790 0.8810
2.390965 0.8840 0.8840 0.8850 0.8850 0.8850
2.429000 0.8850 0.8870 0.8880 0.8880 0.8900
2.466965 0.8900 0.8910 0.8930 0.8940 0.8950
2.505000 0.8970 0.8980 0.9000 0.9000 0.9010
2.542965 0.9030 0.9040 0.9060 0.9090 0.9130
2.581000 0.9150 0.9160 0.9180 0.9190 0.9210
2.618965 0.9240 0.9250 0.9270 0.9280 0.9280
2.657000 0.9280 0.9280 0.9270 0.9250 0.9210
2.694965 0.9130 0.9030 0.8870 0.8630 0.8240
2.733000 0.7480 0.7110 0.6740 0.6400 0.6040
2.770965 0.5400 0.5120 0.4840 0.4600 0.4360
2.809000 0.4170 0.3860 0.3750 0.3670 0.3560
2.846965 0.3430 0.3310 0.3190 0.3090 0.2980
2.884000 0.2880 0.2790 0.2740 0.2700 0.2680
2.921965 0.2640 0.2640 0.2650 0.2700 0.2740
2.960000 0.2800 0.2860 0.2910 0.2950 0.3000
2.997965 0.3010 0.3040 0.3090 0.3100 0.3120
3.036000 0.3130 0.3150 0.3160 0.3170 0.3190
3.073965 0.3220 0.3260 0.3280 0.3290 0.3290
3.112000 0.3310 0.3310 0.3290 0.3290 0.3310
3.149965 0.3310 0.3310 0.3320 0.3320 0.3320
3.188000 0.3340 0.3340 0.3340 0.3340 0.3340
3.225965 0.3340 0.3340 0.3340 0.3340 0.3340
3.264000 0.3350 0.3370 0.3400 0.3430 0.3460
3.301965 0.3500 0.3520 0.3550 0.3560 0.3580
3.340000 0.3590 0.3610 0.3620 0.3650 0.3690
3.377965 0.3740 0.3770 0.3800 0.3830 0.3840
3.416000 0.3890 0.3920 0.3950 0.3980 0.3990
3.453965 0.4010 0.4040 0.4100 0.4160 0.4200
3.492000 0.4240 0.4270 0.4320 0.4380 0.4420
3.529965 0.4470 0.4500 0.4540 0.4590 0.4630
3.567000 0.4650 0.4690 0.4730 0.4780 0.4840
3.604965 0.4880 0.4960 0.4990 0.5030 0.5090
3.643000 0.5150 0.5230 0.5280 0.5340 0.5390
3.680965 0.5430 0.5490 0.5540 0.5600 0.5630
3.719000 0.5670 0.5700 0.5730 0.5760 0.5800
3.756965 0.5850 0.5890 0.5920 0.5970 0.5980
3.795000 0.6000 0.6060 0.6090 0.6130 0.6160
3.832965 0.6180 0.6210 0.6240 0.6250 0.6270
3.871000 0.6300 0.6310 0.6310 0.6320 0.6320
3.908965 0.6350 0.6370 0.6380 0.6430 0.6440
3.947000 0.6460 0.6470 0.6490 0.6500 0.6520
3.984965 0.6520 0.6530 0.6550 0.6560 0.6580
4.023000 0.6560 0.6580 0.6590 0.6610 0.6640
4.060965 0.6640 0.6650 0.6670 0.6680 0.6700
4.099000 0.6710 0.6730 0.6740 0.6770 0.6820
4.136965 0.6830 0.6840 0.6860 0.6870 0.6890
4.175000 0.6900 0.6900 0.6900 0.6920 0.6920
4.212965 0.6920 0.6920 0.6920 0.6920 0.6930
4.250000 0.6930 0.6950 0.6950 0.6960 0.6980
4.287965 0.7010 0.7040 0.7070 0.7140 0.7220
4.326000 0.7280 0.7350 0.7410 0.7470 0.7510
4.363965 0.7560 0.7630 0.7660 0.7680 0.7710
4.402000 0.7740 0.7770 0.7800 0.7810 0.7830
4.439965 0.7840 0.7860 0.7890 0.7890 0.7900
4.478000 0.7930 0.7940 0.7970 0.7990 0.8000
4.515965 0.8000 0.8030 0.8050 0.8060 0.8060
4.554000 0.8080 0.8090 0.8110 0.8120 0.8140
4.591965 0.8150 0.8150 0.8150 0.8170 0.8180
4.630000 0.8180 0.8200 0.8210 0.8230 0.8240
4.667965 0.8260 0.8270 0.8290 0.8300 0.8300
4.706000 0.8330 0.8360 0.8380 0.8380 0.8380
4.743965 0.8390 0.8410 0.8420 0.8450 0.8460
4.782000 0.8460 0.8480 0.8480 0.8480 0.8490
4.819965 0.8510 0.8520 0.8520 0.8520 0.8520
4.858000 0.8540 0.8540 0.8540 0.8540 0.8540
4.895965 0.8550 0.8570 0.8550 0.8550 0.8570
4.933000 0.8570 0.8570 0.8570 0.8580 0.8580
4.970965 0.8600 0.8600 0.8600 0.8600 0.8600
5.009000 0.8600 0.8610 0.8610 0.8610 0.8630
5.046965 0.8630 0.8630 0.8640 0.8640 0.8640
5.085000 0.8640 0.8630 0.8630 0.8610 0.8610
5.122965 0.8600 0.8580 0.8580 0.8570 0.8550
5.161000 0.8550 0.8550 0.8550 0.8540 0.8540
5.198965 0.8510 0.8490 0.8460 0.8460 0.8450
5.237000 0.8430 0.8410 0.8380 0.8350 0.8330
5.274965 0.8320 0.8300 0.8290 0.8270 0.8240
5.313000 0.8230 0.8200 0.8170 0.8120 0.8090
5.350965 0.8050 0.8020 0.7940 0.7930 0.7910
5.389000 0.7900 0.7890 0.7830 0.7750 0.7710
5.426965 0.7660 0.7600 0.7590 0.7510 0.7440
5.465000 0.7360 0.7310 0.7260 0.7200 0.7140
5.502965 0.7070 0.6990 0.6920 0.6820 0.6680
5.540000 0.6580 0.6460 0.6350 0.6240 0.6130
5.577965 0.6030 0.5790 0.5660 0.5450 0.5210
5.616000 0.5050 0.4820 0.4600 0.4410 0.4190
5.653965 0.3680 0.3460 0.3340 0.2820 0.2430
5.692000 0.2160 0.1840 0.1750 0.1690 0.1630
5.729965 0.1530 0.1380 0.1300 0.1270 0.1260
5.768000 0.1240 0.1230 0.1230 0.1200 0.1200
5.805965 0.1180 0.1200 0.1230 0.1290 0.1330
5.844000 0.1350 0.1390 0.1410 0.1420 0.1420
5.881965 0.1420 0.1410 0.1390 0.1350 0.1320
5.920000 0.1320 0.1320 0.1320 0.1320 0.1320
5.957965 0.1320 0.1320 0.1330 0.1350 0.1380
5.996000 0.1390 0.1390 0.1410 0.1410 0.1410
6.033965 0.1390 0.1330 0.1290 0.1260 0.1230
6.072000 0.1180 0.1170 0.1120 0.1090 0.1080
6.109965 0.1080 0.1080 0.1080 0.1080 0.1060
6.148000 0.1060 0.1080 0.1090 0.1110 0.1110
6.185965 0.1120 0.1140 0.1170 0.1200 0.1240
6.223000 0.1320 0.1390 0.1480 0.1600 0.1720
6.260965 0.1840 0.1990 0.2060 0.2130 0.2280
6.299000 0.2430 0.2600 0.2760 0.2910 0.3070
6.336965 0.3220 0.3370 0.3500 0.3640 0.3750
6.375000 0.3860 0.3980 0.4050 0.4130 0.4260
6.412965 0.4360 0.4440 0.4510 0.4570 0.4630
6.451000 0.4720 0.4810 0.4930 0.4990 0.5060
6.488965 0.5140 0.5180 0.5310 0.5430 0.5460
6.527000 0.5490 0.5550 0.5640 0.5720 0.5800
6.564965 0.5880 0.5910 0.5940 0.5970 0.5980
6.603000 0.6030 0.6070 0.6150 0.6160 0.6190
6.640965 0.6190 0.6190 0.6190 0.6160 0.6130
6.679000 0.6090 0.6030 0.5860 0.5750 0.5670
6.716965 0.5600 0.5490 0.5460 0.5390 0.5370
6.755000 0.5340 0.5270 0.5200 0.5120 0.5060
6.792965 0.4970 0.4840 0.4630 0.4510 0.4380
6.831000 0.4240 0.4110 0.3830 0.3690 0.3530
6.868965 0.3430 0.3400 0.3380 0.3370 0.3370
6.906000 0.3370 0.3380 0.3460 0.3530 0.3590
6.943965 0.3690 0.3750 0.3840 0.3920 0.3960
6.982000 0.3990 0.4020 0.4050 0.4070 0.4070
7.019965 0.4070 0.4070 0.4040 0.4020 0.3870
7.058000 0.3840 0.3800 0.3750 0.3710 0.3670
7.095965 0.3620 0.3560 0.3530 0.3470 0.3460
7.134000 0.3460 0.3460 0.3440 0.3440 0.3440
7.171965 0.3440 0.3470 0.3520 0.3590 0.3670
7.210000 0.3720 0.3800 0.3870 0.3950 0.3990
7.247965 0.4040 0.4140 0.4240 0.4300 0.4330
7.286000 0.4360 0.4450 0.4540 0.4630 0.4710
7.323965 0.4790 0.4880 0.4960 0.5030 0.5110
7.362000 0.5180 0.5240 0.5300 0.5330 0.5370
7.399965 0.5430 0.5480 0.5520 0.5550 0.5580
7.438000 0.5630 0.5670 0.5720 0.5750 0.5750
7.475965 0.5750 0.5730 0.5700 0.5660 0.5600
7.513000 0.5450 0.5310 0.5230 0.5120 0.5030
7.550965 0.4940 0.4870 0.4840 0.4840 0.4840
7.589000 0.4850 0.4900 0.4960 0.5050 0.5110
7.626965 0.5150 0.5180 0.5230 0.5230 0.5210
7.665000 0.5200 0.5180 0.5120 0.5050 0.4910
7.702965 0.4870 0.4810 0.4730 0.4660 0.4620
7.741000 0.4570 0.4530 0.4480 0.4420 0.4380
7.778965 0.4300 0.4260 0.4200 0.4130 0.4100
7.817000 0.4050 0.4020 0.3930 0.3930 0.3920
7.854965 0.3920 0.3920 0.3920 0.3920 0.3920
7.893000 0.3920 0.3920 0.3920 0.3930 0.3950
7.930965 0.3960 0.3960 0.3980 0.3990 0.4010
7.969000 0.4020 0.4050 0.4110 0.4190 0.4240
8.006965 0.4300 0.4360 0.4410 0.4470 0.4500
8.045000 0.4570 0.4620 0.4690 0.4750 0.4820
8.082965 0.4870 0.4960 0.5030 0.5110 0.5170
8.121000 0.5260 0.5300 0.5360 0.5420 0.5510
8.158965 0.5570 0.5610 0.5670 0.5720 0.5780
8.196000 0.5820 0.5850 0.5890 0.5950 0.5980
8.233965 0.6000 0.6070 0.6100 0.6160 0.6190
8.272000 0.6220 0.6250 0.6270 0.6280 0.6310
8.309965 0.6340 0.6370 0.6400 0.6440 0.6490
8.348000 0.6550 0.6580 0.6610 0.6620 0.6640
8.385965 0.6680 0.6730 0.6760 0.6790 0.6800
8.424000 0.6830 0.6840 0.6860 0.6900 0.6920
8.461965 0.6930 0.6950 0.6960 0.6990 0.7010
8.500000 0.7010 0.7020 0.7040 0.7070 0.7080
8.537965 0.7110 0.7130 0.7140 0.7140 0.7160
8.576000 0.7160 0.7170 0.7170 0.7190 0.7220
8.613965 0.7220 0.7230 0.7230 0.7250 0.7250
8.652000 0.7280 0.7310 0.7320 0.7340 0.7360
8.689965 0.7380 0.7380 0.7390 0.7390 0.7420
8.728000 0.7420 0.7440 0.7440 0.7440 0.7450
8.765965 0.7450 0.7450 0.7470 0.7480 0.7480
8.804000 0.7510 0.7530 0.7540 0.7540 0.7560
8.841965 0.7560 0.7570 0.7570 0.7590 0.7600
8.879000 0.7600 0.7620 0.7630 0.7660 0.7660
8.916965 0.7680 0.7680 0.7660 0.7680 0.7680
8.955000 0.7690 0.7690 0.7710 0.7710 0.7740
8.992965 0.7740 0.7750 0.7750 0.7750 0.7770
9.031000 0.7770 0.7770 0.7770 0.7770 0.7770
9.068965 0.7780 0.7780 0.7780 0.7780 0.7800
9.107000 0.7810 0.7810 0.7830 0.7830 0.7840
9.144965 0.7840 0.7840 0.7840 0.7840 0.7840
9.183000 0.7840 0.7860 0.7860 0.7860 0.7860
9.220965 0.7870 0.7870 0.7870 0.7870 0.7870
9.259000 0.7890 0.7890 0.7890 0.7890 0.7900
9.296965 0.7900 0.7900 0.7900 0.7910 0.7910
9.335000 0.7910 0.7910 0.7910 0.7910 0.7910
9.372965 0.7910 0.7900 0.7900 0.7900 0.7900
9.411000 0.7900 0.7900 0.7890 0.7890 0.7890
9.448965 0.7890 0.7890 0.7870 0.7870 0.7870
9.487000 0.7890 0.7890 0.7890 0.7900 0.7900
9.524965 0.7900 0.7910 0.7930 0.7910 0.7910
9.562000 0.7910 0.7910 0.7910 0.7910 0.7910
9.599965 0.7910 0.7910 0.7910 0.7910 0.7910
9.638000 0.7910 0.7910 0.7910 0.7910 0.7910
9.675965 0.7910 0.7910 0.7930 0.7930 0.7930
9.714000 0.7910 0.7910 0.7910 0.7930 0.7930
9.751965 0.7910 0.7910 0.7910 0.7910 0.7910
9.790000 0.7910 0.7910 0.7910 0.7910 0.7910
9.827965 0.7900 0.7900 0.7900 0.7900 0.7900
9.866000 0.7900 0.7910 0.7910 0.7910 0.7910
9.903965 0.7910 0.7910 0.7910 0.7910 0.7910
9.942000 0.7910 0.7910 0.7930 0.7930 0.7930
9.979965 0.7930 0.7930 0.7930 0.7910 0.7910
10.018000 0.7910 0.7910 0.7900 0.7900 0.7900
10.055965 0.7900 0.7900 0.7890 0.7890 0.7890
10.094000 0.7890 0.7870 0.7870 0.7870 0.7870
10.131965 0.7870 0.7860 0.7860 0.7860 0.7860
10.169000 0.7860 0.7860 0.7840 0.7840 0.7830
10.206965 0.7810 0.7810 0.7810 0.7800 0.7800
10.245000 0.7800 0.7780 0.7780 0.7780 0.7770
10.282965 0.7770 0.7770 0.7770 0.7770 0.7750
10.321000 0.7750 0.7740 0.7740 0.7740 0.7720
10.358965 0.7720 0.7720 0.7720 0.7710 0.7710
10.397000 0.7710 0.7690 0.7690 0.7680 0.7680
10.434965 0.7680 0.7660 0.7660 0.7660 0.7650
10.473000 0.7650 0.7620 0.7600 0.7600 0.7600
10.510965 0.7590 0.7570 0.7560 0.7540 0.7510
10.549000 0.7480 0.7470 0.7450 0.7440 0.7440
10.586965 0.7420 0.7420 0.7390 0.7390 0.7380
10.625000 0.7350 0.7340 0.7320 0.7310 0.7290
10.662965 0.7260 0.7230 0.7200 0.7170 0.7110
10.701000 0.7080 0.7050 0.7020 0.6990 0.6980
10.738965 0.6920 0.6890 0.6860 0.6830 0.6800
10.777000 0.6770 0.6740 0.6700 0.6650 0.6620
10.814965 0.6590 0.6580 0.6550 0.6520 0.6490
10.852000 0.6440 0.6410 0.6350 0.6340 0.6320
10.889965 0.6300 0.6280 0.6270 0.6270 0.6270
10.928000 0.6250 0.6250 0.6250 0.6250 0.6270
10.965965 0.6270 0.6270 0.6280 0.6280 0.6280
11.004000 0.6300 0.6300 0.6300 0.6310 0.6310
11.041965 0.6320 0.6340 0.6340 0.6340 0.6350
11.080000 0.6350 0.6350 0.6350 0.6350 0.6370
11.117965 0.6380 0.6400 0.6430 0.6460 0.6490
11.156000 0.6500 0.6520 0.6530 0.6550 0.6560
11.193965 0.6580 0.6590 0.6610 0.6620 0.6640
11.232000 0.6650 0.6650 0.6670 0.6670 0.6680
11.269965 0.6680 0.6700 0.6700 0.6710 0.6730
11.308000 0.6730 0.6730 0.6730 0.6730 0.6730
11.345965 0.6730 0.6710 0.6710 0.6710 0.6710
11.384000 0.6710 0.6700 0.6700 0.6700 0.6700
11.421965 0.6700 0.6700 0.6680 0.6680 0.6670
11.460000 0.6650 0.6640 0.6640 0.6640 0.6640
11.497965 0.6620 0.6620 0.6620 0.6610 0.6610
11.535000 0.6590 0.6580 0.6580 0.6560 0.6560
11.572965 0.6550 0.6550 0.6530 0.6530 0.6520
11.611000 0.6520 0.6500 0.6500 0.6490 0.6490
11.648965 0.6470 0.6460 0.6440 0.6400 0.6380
11.687000 0.6370 0.6350 0.6340 0.6320 0.6310
11.724965 0.6300 0.6280 0.6250 0.6240 0.6220
11.763000 0.6210 0.6180 0.6150 0.6150 0.6130
11.800965 0.6100 0.6090 0.6060 0.6030 0.6010
11.839000 0.5950 0.5910 0.5860 0.5820 0.5800
11.876965 0.5790 0.5760 0.5750 0.5700 0.5670
11.915000 0.5640 0.5570 0.5490 0.5490 0.5480
11.952965 0.5460 0.5430 0.5390 0.5330 0.5270
11.991000 0.5230 0.5170 0.5090 0.5030 0.4960
12.028965 0.4880 0.4790 0.4720 0.4630 0.4540
12.067000 0.4470 0.4380 0.4290 0.4200 0.4140
12.104965 0.4020 0.3890 0.3810 0.3720 0.3650
12.142000 0.3580 0.3520 0.3460 0.3370 0.3320
12.179965 0.3260 0.3230 0.3150 0.3120 0.3070
12.218000 0.3040 0.3010 0.2980 0.2940 0.2910
12.255965 0.2880 0.2860 0.2850 0.2830 0.2830
12.294000 0.2830 0.2830 0.2830 0.2830 0.2830
12.331965 0.2830 0.2850 0.2880 0.2910 0.2950
12.370000 0.3000 0.3060 0.3100 0.3170 0.3230
12.407965 0.3310 0.3380 0.3460 0.3530 0.3590
12.446000 0.3670 0.3740 0.3810 0.3870 0.3930
12.483965 0.3990 0.4020 0.4040 0.4110 0.4170
12.522000 0.4230 0.4290 0.4330 0.4390 0.4450
12.559965 0.4510 0.4570 0.4630 0.4680 0.4730
12.598000 0.4790 0.4850 0.4900 0.4930 0.4960
12.635965 0.4970 0.5030 0.5060 0.5110 0.5150
12.674000 0.5210 0.5280 0.5300 0.5340 0.5360
12.711965 0.5360 0.5390 0.5420 0.5460 0.5540
12.750000 0.5550 0.5570 0.5580 0.5580 0.5610
12.787965 0.5630 0.5640 0.5660 0.5660 0.5670
12.825000 0.5690 0.5720 0.5730 0.5750 0.5750
12.862965 0.5760 0.5760 0.5760 0.5780 0.5790
12.901000 0.5790 0.5800 0.5820 0.5830 0.5830
12.938965 0.5830 0.5850 0.5860 0.5880 0.5890
12.977000 0.5890 0.5910 0.5910 0.5920 0.5920
13.014965 0.5890 0.5890 0.5890 0.5910 0.5910
13.053000 0.5910 0.5920 0.5920 0.5940 0.5950
13.090965 0.5950 0.5950 0.5970 0.5970 0.5970
13.129000 0.5980 0.6000 0.6010 0.6030 0.6030
13.166965 0.6040 0.6040 0.6040 0.6040 0.6040
13.205000 0.6040 0.6040 0.6040 0.6060 0.6060
13.242965 0.6060 0.6060 0.6060 0.6060 0.6060
13.281000 0.6070 0.6070 0.6070 0.6070 0.6070
13.318965 0.6070 0.6070 0.6070 0.6090 0.6090
13.357000 0.6090 0.6100 0.6100 0.6120 0.6130
13.394965 0.6130 0.6130 0.6130 0.6130 0.6130
13.433000 0.6120 0.6130 0.6130 0.6130 0.6130
13.470965 0.6130 0.6130 0.6130 0.6150 0.6150
13.508000 0.6150 0.6160 0.6160 0.6180 0.6180
13.545965 0.6180 0.6180 0.6180 0.6180 0.6180
13.584000 0.6180 0.6160 0.6160 0.6160 0.6160
13.621965 0.6160 0.6160 0.6160 0.6150 0.6150
13.660000 0.6150 0.6150 0.6150 0.6150 0.6160
13.697965 0.6160 0.6160 0.6160 0.6160 0.6160
13.736000 0.6160 0.6180 0.6180 0.6180 0.6160
13.773965 0.6160 0.6160 0.6160 0.6160 0.6160
13.812000 0.6160 0.6160 0.6160 0.6160 0.6150
13.849965 0.6150 0.6150 0.6150 0.6160 0.6160
13.888000 0.6160 0.6160 0.6160 0.6160 0.6160
13.925965 0.6160 0.6160 0.6160 0.6160 0.6160
13.964000 0.6160 0.6160 0.6160 0.6160 0.6160
14.001965 0.6160 0.6160 0.6160 0.6160 0.6160
14.040000 0.6160 0.6160 0.6160 0.6160 0.6160
14.077965 0.6160 0.6180 0.6180 0.6180 0.6180
14.116000 0.6180 0.6180 0.6180 0.6180 0.6180
14.153965 0.6180 0.6180 0.6180 0.6180 0.6180
14.191000 0.6180 0.6180 0.6180 0.6180 0.6180
14.228965 0.6180 0.6180 0.6180 0.6180 0.6180
14.267000 0.6180 0.6180 0.6180 0.6180 0.6180
14.304965 0.6180 0.6180 0.6180 0.6180 0.6180
14.343000 0.6190 0.6190 0.6190 0.6180 0.6180
14.380965 0.6180 0.6180 0.6180 0.6180 0.6180
14.419000 0.6190 0.6190 0.6190 0.6190 0.6190
14.456965 0.6210 0.6210 0.6210 0.6210 0.6210
14.495000 0.6210 0.6210 0.6210 0.6210 0.6210
14.532965 0.6190 0.6180 0.6180 0.6180 0.6180
14.571000 0.6180 0.6180 0.6180 0.6180 0.6180
14.608965 0.6180 0.6180 0.6180 0.6180 0.6180
14.647000 0.6180 0.6180 0.6160 0.6160 0.6160
14.684965 0.6180 0.6180 0.6180 0.6180 0.6180
14.723000 0.6180 0.6180 0.6180 0.6180 0.6180
14.760965 0.6180 0.6180 0.6180 0.6180 0.6180
14.798000 0.6180 0.6180 0.6180 0.6180 0.6160
14.835965 0.6160 0.6160 0.6160 0.6150 0.6150
14.874000 0.6150 0.6150 0.6130 0.6130 0.6130
14.911965 0.6130 0.6130 0.6130 0.6130 0.6130
14.950000 0.6130
##END=
