##TITLE=BENZOIC ACID, P-(POTASSIUM SULFO)-
##JCAMP-DX=4.24
##DATA TYPE=INFRARED SPECTRUM
##CLASS=COBLENTZ
##ORIGIN=TENNESSEE EASTMAN COMPANY, RESEARCH LABORATORIES
##OWNER=COBLENTZ SOCIETY
Collection (C) 2018 copyright by the U.S. Secretary of Commerce
on behalf of the United States of America. All rights reserved.
##DATE=Not specified, most likely prior to 1970
##MOLFORM=C7 H5 K O5 S
##SOURCE REFERENCE=COBLENTZ NO. 2388
##$NIST ID=B6002388
##$NIST SOURCE=COBLENTZ
##$NIST IMAGE=cob2388
##SPECTROMETER/DATA SYSTEM=Not specified, most likely a prism, grating, or hybrid spectrometer.
##STATE=SOLID (KBr PELLET)
##SAMPLING PROCEDURE=TRANSMISSION
##RESOLUTION=4
##DATA PROCESSING=DIGITIZED BY NIST FROM HARD COPY
##XUNITS=MICROMETERS
##YUNITS=TRANSMITTANCE
##XFACTOR=1.000000
##YFACTOR=1
##DELTAX=000.006632
##FIRSTX=2.027
##LASTX=16.0004
##FIRSTY=0.71
##MAXX=16.0004
##MINX=2.027
##MAXY=0.988
##MINY=0.079
##NPOINTS=2108
##XYDATA=(X++(Y..Y))
2.027000 0.7100 0.7110 0.7110 0.7130 0.7130
2.060175 0.7150 0.7160 0.7200 0.7210 0.7230
2.093000 0.7250 0.7260 0.7300 0.7310 0.7330
2.126175 0.7350 0.7350 0.7360 0.7400 0.7430
2.159000 0.7430 0.7450 0.7460 0.7480 0.7510
2.192175 0.7540 0.7540 0.7560 0.7580 0.7590
2.225000 0.7590 0.7610 0.7610 0.7610 0.7630
2.258175 0.7630 0.7640 0.7640 0.7660 0.7680
2.292000 0.7690 0.7710 0.7730 0.7730 0.7730
2.325175 0.7740 0.7740 0.7740 0.7760 0.7760
2.358000 0.7780 0.7790 0.7810 0.7830 0.7830
2.391175 0.7840 0.7840 0.7860 0.7860 0.7860
2.424000 0.7880 0.7880 0.7910 0.7930 0.7960
2.457175 0.7960 0.7980 0.7990 0.7990 0.8010
2.491000 0.8020 0.8020 0.8040 0.8060 0.8060
2.524175 0.8060 0.8070 0.8070 0.8070 0.8070
2.557000 0.8090 0.8090 0.8090 0.8090 0.8090
2.590175 0.8090 0.8090 0.8090 0.8090 0.8110
2.623000 0.8120 0.8120 0.8120 0.8140 0.8160
2.656175 0.8190 0.8190 0.8190 0.8190 0.8190
2.690000 0.8190 0.8190 0.8190 0.8170 0.8120
2.723175 0.8070 0.7990 0.7910 0.7830 0.7730
2.756000 0.7640 0.7540 0.7450 0.7380 0.7300
2.789175 0.7250 0.7200 0.7160 0.7100 0.7050
2.822000 0.7030 0.7010 0.7000 0.6980 0.6950
2.855175 0.6870 0.6850 0.6820 0.6800 0.6780
2.889000 0.6780 0.6770 0.6750 0.6750 0.6750
2.922175 0.6770 0.6780 0.6820 0.6830 0.6850
2.955000 0.6870 0.6900 0.6920 0.6950 0.6980
2.988175 0.7010 0.7030 0.7050 0.7080 0.7080
3.021000 0.7080 0.7080 0.7080 0.7080 0.7080
3.054175 0.7080 0.7060 0.7030 0.7010 0.6980
3.088000 0.6970 0.6930 0.6880 0.6820 0.6770
3.121175 0.6680 0.6620 0.6530 0.6450 0.6390
3.154000 0.6300 0.6220 0.6140 0.6070 0.5990
3.187175 0.5960 0.5920 0.5860 0.5810 0.5740
3.220000 0.5660 0.5560 0.5480 0.5380 0.5280
3.253175 0.5230 0.5140 0.5080 0.5040 0.5010
3.287000 0.5010 0.5010 0.5040 0.5110 0.5140
3.320175 0.5190 0.5280 0.5340 0.5340 0.5330
3.353000 0.5330 0.5290 0.5280 0.5260 0.5240
3.386175 0.5240 0.5240 0.5280 0.5460 0.5760
3.419000 0.5920 0.6220 0.6390 0.6400 0.6440
3.452175 0.6490 0.6490 0.6500 0.6500 0.6520
3.486000 0.6670 0.6870 0.7010 0.7110 0.7200
3.519175 0.7260 0.7300 0.7310 0.7310 0.7310
3.552000 0.7310 0.7310 0.7310 0.7330 0.7360
3.585175 0.7410 0.7480 0.7580 0.7690 0.7740
3.618000 0.7790 0.7840 0.7910 0.7990 0.8010
3.651175 0.8020 0.8040 0.8060 0.8070 0.8090
3.685000 0.8110 0.8120 0.8120 0.8120 0.8140
3.718175 0.8140 0.8160 0.8160 0.8140 0.8120
3.751000 0.8110 0.8090 0.8040 0.7990 0.7980
3.784175 0.7940 0.7930 0.7860 0.7760 0.7680
3.817000 0.7640 0.7640 0.7660 0.7880 0.8040
3.850175 0.8160 0.8260 0.8320 0.8390 0.8420
3.883000 0.8490 0.8540 0.8550 0.8570 0.8590
3.916175 0.8600 0.8600 0.8640 0.8650 0.8690
3.950000 0.8700 0.8690 0.8640 0.8590 0.8570
3.983175 0.8540 0.8540 0.8520 0.8490 0.8470
4.016000 0.8470 0.8470 0.8470 0.8490 0.8550
4.049175 0.8600 0.8670 0.8720 0.8790 0.8840
4.082000 0.8900 0.8940 0.8970 0.8990 0.8990
4.115175 0.9020 0.9030 0.9030 0.9030 0.9070
4.149000 0.9070 0.9120 0.9130 0.9150 0.9150
4.182175 0.9150 0.9170 0.9170 0.9180 0.9230
4.215000 0.9270 0.9300 0.9320 0.9320 0.9300
4.248175 0.9250 0.9200 0.9120 0.9100 0.9100
4.281000 0.9100 0.9100 0.9100 0.9120 0.9120
4.314175 0.9150 0.9180 0.9230 0.9270 0.9300
4.348000 0.9320 0.9320 0.9330 0.9350 0.9370
4.381175 0.9370 0.9380 0.9380 0.9400 0.9420
4.414000 0.9430 0.9430 0.9430 0.9430 0.9430
4.447175 0.9450 0.9450 0.9450 0.9450 0.9470
4.480000 0.9470 0.9480 0.9480 0.9500 0.9500
4.513175 0.9500 0.9500 0.9500 0.9500 0.9500
4.547000 0.9500 0.9510 0.9510 0.9530 0.9530
4.580175 0.9550 0.9550 0.9560 0.9580 0.9580
4.613000 0.9580 0.9580 0.9580 0.9580 0.9580
4.646175 0.9580 0.9580 0.9580 0.9580 0.9580
4.679000 0.9580 0.9580 0.9580 0.9580 0.9580
4.712175 0.9580 0.9580 0.9580 0.9580 0.9580
4.746000 0.9560 0.9560 0.9560 0.9560 0.9560
4.779175 0.9560 0.9560 0.9560 0.9550 0.9550
4.812000 0.9550 0.9550 0.9550 0.9550 0.9550
4.845175 0.9550 0.9550 0.9550 0.9550 0.9550
4.878000 0.9550 0.9550 0.9530 0.9530 0.9530
4.911175 0.9550 0.9550 0.9580 0.9600 0.9600
4.945000 0.9600 0.9600 0.9600 0.9580 0.9580
4.978175 0.9580 0.9600 0.9630 0.9650 0.9700
5.011000 0.9710 0.9710 0.9680 0.9630 0.9580
5.044175 0.9580 0.9560 0.9560 0.9560 0.9550
5.077000 0.9550 0.9530 0.9530 0.9530 0.9530
5.110175 0.9530 0.9530 0.9510 0.9510 0.9500
5.144000 0.9480 0.9470 0.9470 0.9470 0.9480
5.177175 0.9580 0.9610 0.9610 0.9600 0.9580
5.210000 0.9530 0.9550 0.9550 0.9550 0.9580
5.243175 0.9600 0.9610 0.9610 0.9630 0.9630
5.276000 0.9600 0.9580 0.9560 0.9560 0.9560
5.309175 0.9580 0.9610 0.9610 0.9610 0.9600
5.342000 0.9580 0.9550 0.9510 0.9510 0.9510
5.375175 0.9510 0.9580 0.9580 0.9580 0.9580
5.409000 0.9560 0.9510 0.9500 0.9500 0.9480
5.442175 0.9480 0.9480 0.9480 0.9480 0.9430
5.475000 0.9400 0.9370 0.9370 0.9350 0.9350
5.508175 0.9350 0.9350 0.9330 0.9330 0.9330
5.541000 0.9330 0.9320 0.9320 0.9320 0.9320
5.574175 0.9300 0.9300 0.9300 0.9280 0.9280
5.608000 0.9280 0.9270 0.9270 0.9270 0.9270
5.641175 0.9250 0.9200 0.9080 0.8950 0.8900
5.674000 0.8870 0.8820 0.8770 0.8690 0.8540
5.707175 0.8340 0.8060 0.7680 0.7250 0.6750
5.740000 0.6090 0.5180 0.4200 0.3040 0.2200
5.773175 0.0990 0.0940 0.0970 0.1770 0.2330
5.807000 0.3040 0.3790 0.4480 0.5140 0.5790
5.840175 0.6120 0.6370 0.6620 0.6850 0.7050
5.873000 0.7260 0.7450 0.7630 0.7810 0.7960
5.906175 0.8120 0.8260 0.8320 0.8320 0.8320
5.939000 0.8320 0.8340 0.8390 0.8490 0.8540
5.972175 0.8570 0.8620 0.8690 0.8690 0.8700
6.006000 0.8720 0.8740 0.8770 0.8800 0.8840
6.039175 0.8840 0.8820 0.8800 0.8790 0.8750
6.072000 0.8740 0.8720 0.8720 0.8720 0.8740
6.105175 0.8740 0.8750 0.8750 0.8770 0.8770
6.138000 0.8790 0.8800 0.8820 0.8820 0.8850
6.171175 0.8850 0.8840 0.8820 0.8800 0.8720
6.205000 0.8570 0.8290 0.8110 0.8110 0.8120
6.238175 0.8370 0.8620 0.8770 0.8840 0.8900
6.271000 0.8990 0.9070 0.9200 0.9230 0.9220
6.304175 0.9100 0.8920 0.8700 0.8650 0.8670
6.337000 0.8870 0.9050 0.9280 0.9330 0.9370
6.370175 0.9380 0.9400 0.9400 0.9380 0.9370
6.404000 0.9330 0.9320 0.9350 0.9480 0.9530
6.437175 0.9610 0.9610 0.9580 0.9550 0.9480
6.470000 0.9450 0.9420 0.9400 0.9400 0.9420
6.503175 0.9470 0.9510 0.9550 0.9560 0.9560
6.536000 0.9550 0.9530 0.9500 0.9470 0.9450
6.569175 0.9430 0.9450 0.9470 0.9510 0.9550
6.603000 0.9580 0.9580 0.9510 0.9510 0.9530
6.636175 0.9530 0.9510 0.9450 0.9330 0.9220
6.669000 0.9200 0.9200 0.9250 0.9350 0.9430
6.702175 0.9510 0.9630 0.9700 0.9710 0.9730
6.735000 0.9730 0.9730 0.9710 0.9700 0.9630
6.768175 0.9530 0.9470 0.9420 0.9400 0.9380
6.802000 0.9350 0.9320 0.9300 0.9280 0.9280
6.835175 0.9250 0.9220 0.9180 0.9180 0.9200
6.868000 0.9230 0.9300 0.9350 0.9370 0.9380
6.901175 0.9380 0.9380 0.9380 0.9380 0.9380
6.934000 0.9380 0.9370 0.9320 0.9280 0.9270
6.967175 0.9250 0.9230 0.9220 0.9170 0.9070
7.000000 0.8950 0.8820 0.8700 0.8550 0.8370
7.033175 0.8160 0.7890 0.7560 0.7150 0.6750
7.067000 0.6350 0.6020 0.5770 0.5720 0.5710
7.100175 0.5740 0.6040 0.6340 0.6570 0.6800
7.133000 0.7030 0.7250 0.7480 0.7690 0.7880
7.166175 0.8040 0.8170 0.8310 0.8370 0.8440
7.199000 0.8470 0.8540 0.8600 0.8650 0.8690
7.232175 0.8700 0.8740 0.8770 0.8790 0.8790
7.266000 0.8800 0.8800 0.8800 0.8820 0.8820
7.299175 0.8820 0.8840 0.8840 0.8870 0.8900
7.332000 0.8950 0.9000 0.9070 0.9130 0.9220
7.365175 0.9270 0.9280 0.9320 0.9320 0.9330
7.398000 0.9330 0.9350 0.9370 0.9370 0.9370
7.431175 0.9370 0.9370 0.9370 0.9370 0.9350
7.465000 0.9350 0.9330 0.9280 0.9250 0.9230
7.498175 0.9220 0.9220 0.9180 0.9150 0.9120
7.531000 0.9050 0.9020 0.8990 0.8990 0.8920
7.564175 0.8890 0.8850 0.8800 0.8750 0.8690
7.597000 0.8520 0.8370 0.8260 0.8140 0.7990
7.630175 0.7980 0.7990 0.8120 0.8340 0.8440
7.664000 0.8540 0.8570 0.8570 0.8570 0.8500
7.697175 0.8270 0.8090 0.8020 0.7910 0.7890
7.730000 0.7930 0.7940 0.7980 0.7990 0.7910
7.763175 0.7860 0.7710 0.7530 0.7380 0.7210
7.796000 0.6970 0.6750 0.6530 0.6200 0.5870
7.829175 0.5540 0.5230 0.4910 0.4610 0.4320
7.863000 0.4020 0.3750 0.3490 0.3220 0.2980
7.896175 0.2740 0.2510 0.2310 0.2100 0.1920
7.929000 0.1750 0.1580 0.1440 0.1300 0.1190
7.962175 0.1090 0.0990 0.0940 0.0870 0.0810
7.995000 0.0790 0.0810 0.0910 0.1000 0.1200
8.028175 0.1520 0.1850 0.2210 0.2530 0.2890
8.062000 0.3120 0.3410 0.3620 0.3790 0.3950
8.095175 0.4120 0.4300 0.4470 0.4610 0.4760
8.128000 0.4900 0.4980 0.5090 0.5210 0.5330
8.161175 0.5390 0.5430 0.5460 0.5520 0.5560
8.194000 0.5660 0.5740 0.5810 0.5870 0.5960
8.227175 0.6070 0.6200 0.6300 0.6370 0.6390
8.261000 0.6470 0.6470 0.6470 0.6470 0.6470
8.294175 0.6470 0.6470 0.6420 0.6350 0.6240
8.327000 0.6150 0.6040 0.5960 0.5860 0.5720
8.360175 0.5590 0.5510 0.5410 0.5310 0.5160
8.393000 0.4980 0.4700 0.4500 0.4300 0.4100
8.426175 0.3900 0.3700 0.3550 0.3410 0.3310
8.459000 0.3240 0.3120 0.2990 0.2860 0.2740
8.492175 0.2560 0.2430 0.2300 0.2230 0.2160
8.526000 0.2150 0.2150 0.2160 0.2260 0.2480
8.559175 0.2730 0.3010 0.3340 0.3690 0.4050
8.592000 0.4450 0.4860 0.5280 0.5590 0.5870
8.625175 0.6150 0.6400 0.6650 0.6870 0.7080
8.658000 0.7260 0.7410 0.7590 0.7760 0.7880
8.691175 0.7960 0.7990 0.8020 0.8060 0.8070
8.725000 0.8070 0.8070 0.8040 0.7930 0.7780
8.758175 0.7580 0.7260 0.6980 0.6680 0.6400
8.791000 0.6100 0.5710 0.5210 0.4530 0.4100
8.824175 0.3990 0.3990 0.3990 0.4100 0.4730
8.857000 0.5160 0.5820 0.6350 0.6600 0.6830
8.890175 0.6980 0.7000 0.7000 0.6980 0.6880
8.924000 0.6720 0.6530 0.6300 0.6070 0.5840
8.957175 0.5620 0.5430 0.5260 0.5130 0.5040
8.990000 0.4810 0.4550 0.4170 0.3790 0.3520
9.023175 0.3190 0.2890 0.2840 0.2840 0.2890
9.056000 0.3190 0.3550 0.4000 0.4470 0.5030
9.089175 0.5480 0.5840 0.6120 0.6370 0.6580
9.123000 0.6800 0.7010 0.7260 0.7480 0.7680
9.156175 0.7830 0.7990 0.8170 0.8320 0.8460
9.189000 0.8500 0.8600 0.8700 0.8770 0.8800
9.222175 0.8840 0.8870 0.8900 0.8920 0.8970
9.255000 0.8990 0.9000 0.9000 0.9020 0.9030
9.288175 0.9070 0.9080 0.9080 0.9080 0.9100
9.322000 0.9100 0.9120 0.9120 0.9130 0.9130
9.355175 0.9130 0.9150 0.9170 0.9170 0.9170
9.388000 0.9170 0.9170 0.9170 0.9180 0.9180
9.421175 0.9180 0.9180 0.9180 0.9180 0.9180
9.454000 0.9180 0.9170 0.9150 0.9130 0.9080
9.487175 0.9020 0.8970 0.8900 0.8850 0.8740
9.521000 0.8590 0.8440 0.8270 0.8110 0.7940
9.554175 0.7830 0.7730 0.7610 0.7450 0.7230
9.587000 0.6970 0.6680 0.6370 0.6020 0.5660
9.620175 0.5280 0.4850 0.4480 0.4070 0.3520
9.653000 0.3070 0.2740 0.2450 0.2230 0.2200
9.686175 0.2210 0.2530 0.3070 0.3740 0.4530
9.720000 0.5280 0.6190 0.6720 0.7310 0.7730
9.753175 0.7980 0.8140 0.8260 0.8390 0.8490
9.786000 0.8490 0.8490 0.8420 0.8260 0.8010
9.819175 0.7710 0.7310 0.6830 0.6220 0.5640
9.852000 0.5030 0.4280 0.3740 0.3090 0.2500
9.885175 0.2030 0.1750 0.1500 0.1490 0.1500
9.919000 0.2150 0.2730 0.3470 0.4230 0.5010
9.952175 0.5740 0.6400 0.6970 0.7410 0.7690
9.985000 0.7760 0.7790 0.8020 0.8310 0.8520
10.018175 0.8540 0.8550 0.8600 0.8620 0.8650
10.051000 0.8700 0.8740 0.8790 0.8800 0.8840
10.084175 0.8850 0.8890 0.8900 0.8900 0.8920
10.117000 0.8940 0.8940 0.8950 0.8950 0.8950
10.150175 0.8950 0.8970 0.8970 0.8970 0.8970
10.184000 0.8970 0.8990 0.8990 0.8990 0.8990
10.217175 0.8990 0.8990 0.8990 0.8990 0.8990
10.250000 0.8990 0.8990 0.8990 0.8990 0.8990
10.283175 0.8990 0.8990 0.8990 0.8990 0.8990
10.316000 0.8990 0.8990 0.8990 0.8990 0.8990
10.349175 0.8990 0.8990 0.8990 0.8990 0.8990
10.383000 0.8990 0.8970 0.8950 0.8950 0.8950
10.416175 0.8950 0.8950 0.8950 0.8950 0.8950
10.449000 0.8970 0.8970 0.8970 0.8970 0.8970
10.482175 0.8970 0.8970 0.8970 0.8970 0.8970
10.515000 0.8970 0.8970 0.8970 0.8970 0.8970
10.548175 0.8970 0.8970 0.8970 0.8970 0.8970
10.582000 0.8970 0.8970 0.8970 0.8970 0.8970
10.615175 0.8970 0.8970 0.8970 0.8970 0.8970
10.648000 0.8970 0.8970 0.8970 0.8970 0.8970
10.681175 0.8970 0.8970 0.8970 0.8970 0.8970
10.714000 0.8970 0.8970 0.8970 0.8970 0.8970
10.747175 0.8970 0.8970 0.8970 0.8970 0.8970
10.781000 0.8970 0.8970 0.8970 0.8970 0.8970
10.814175 0.8970 0.8970 0.8970 0.8970 0.8970
10.847000 0.8970 0.8970 0.8970 0.8950 0.8950
10.880175 0.8950 0.8920 0.8900 0.8890 0.8890
10.913000 0.8870 0.8870 0.8870 0.8850 0.8850
10.946175 0.8840 0.8840 0.8840 0.8820 0.8820
10.980000 0.8800 0.8800 0.8790 0.8790 0.8770
11.013175 0.8750 0.8750 0.8720 0.8700 0.8670
11.046000 0.8670 0.8650 0.8640 0.8620 0.8590
11.079175 0.8550 0.8520 0.8500 0.8490 0.8490
11.112000 0.8490 0.8470 0.8470 0.8440 0.8420
11.145175 0.8420 0.8410 0.8390 0.8370 0.8360
11.179000 0.8360 0.8360 0.8340 0.8340 0.8340
11.212175 0.8340 0.8340 0.8320 0.8320 0.8320
11.245000 0.8320 0.8320 0.8320 0.8340 0.8340
11.278175 0.8340 0.8360 0.8370 0.8410 0.8420
11.311000 0.8460 0.8470 0.8490 0.8490 0.8500
11.344175 0.8520 0.8550 0.8590 0.8600 0.8620
11.378000 0.8640 0.8640 0.8650 0.8670 0.8700
11.411175 0.8740 0.8790 0.8800 0.8820 0.8850
11.444000 0.8870 0.8890 0.8920 0.8940 0.8970
11.477175 0.8970 0.8990 0.8990 0.8990 0.9000
11.510000 0.9020 0.9020 0.9030 0.9070 0.9070
11.543175 0.9070 0.9030 0.9020 0.8990 0.8940
11.577000 0.8840 0.8720 0.8600 0.8570 0.8390
11.610175 0.8060 0.7990 0.7860 0.7540 0.7230
11.643000 0.6900 0.6650 0.6470 0.6340 0.6320
11.676175 0.6340 0.6440 0.6580 0.6820 0.7030
11.709000 0.7230 0.7410 0.7590 0.7740 0.7890
11.742175 0.8010 0.8140 0.8240 0.8340 0.8410
11.775000 0.8470 0.8540 0.8570 0.8650 0.8690
11.808175 0.8720 0.8740 0.8750 0.8750 0.8770
11.842000 0.8790 0.8790 0.8800 0.8820 0.8850
11.875175 0.8850 0.8850 0.8850 0.8850 0.8850
11.908000 0.8870 0.8870 0.8900 0.8940 0.8990
11.941175 0.9000 0.9030 0.9030 0.9080 0.9120
11.974000 0.9170 0.9220 0.9230 0.9250 0.9270
12.007175 0.9280 0.9300 0.9320 0.9330 0.9330
12.041000 0.9350 0.9350 0.9370 0.9380 0.9380
12.074175 0.9400 0.9400 0.9400 0.9420 0.9420
12.107000 0.9430 0.9430 0.9450 0.9470 0.9480
12.140175 0.9480 0.9500 0.9510 0.9510 0.9530
12.173000 0.9530 0.9530 0.9530 0.9530 0.9530
12.206175 0.9530 0.9530 0.9550 0.9580 0.9580
12.240000 0.9610 0.9630 0.9630 0.9630 0.9630
12.273175 0.9630 0.9630 0.9630 0.9630 0.9630
12.306000 0.9650 0.9650 0.9660 0.9680 0.9700
12.339175 0.9700 0.9700 0.9700 0.9700 0.9700
12.372000 0.9700 0.9700 0.9700 0.9700 0.9700
12.405175 0.9700 0.9700 0.9700 0.9680 0.9680
12.439000 0.9660 0.9650 0.9630 0.9610 0.9610
12.472175 0.9600 0.9550 0.9510 0.9480 0.9470
12.505000 0.9430 0.9420 0.9420 0.9420 0.9420
12.538175 0.9430 0.9480 0.9500 0.9510 0.9550
12.571000 0.9600 0.9630 0.9650 0.9660 0.9700
12.604175 0.9700 0.9710 0.9710 0.9730 0.9730
12.638000 0.9730 0.9750 0.9750 0.9750 0.9750
12.671175 0.9750 0.9750 0.9750 0.9750 0.9750
12.704000 0.9750 0.9750 0.9750 0.9730 0.9730
12.737175 0.9710 0.9700 0.9700 0.9680 0.9680
12.770000 0.9680 0.9660 0.9660 0.9660 0.9660
12.803175 0.9660 0.9660 0.9650 0.9650 0.9650
12.837000 0.9630 0.9610 0.9550 0.9530 0.9500
12.870175 0.9450 0.9420 0.9370 0.9320 0.9280
12.903000 0.9200 0.9120 0.9020 0.8920 0.8800
12.936175 0.8700 0.8590 0.8460 0.8290 0.8120
12.969000 0.7930 0.7780 0.7540 0.7380 0.7110
13.002175 0.6920 0.6780 0.6580 0.6550 0.6530
13.036000 0.6550 0.6870 0.7230 0.7560 0.7860
13.069175 0.8140 0.8410 0.8620 0.8840 0.9000
13.102000 0.9150 0.9270 0.9420 0.9480 0.9580
13.135175 0.9650 0.9700 0.9730 0.9760 0.9780
13.168000 0.9800 0.9810 0.9830 0.9850 0.9830
13.201175 0.9850 0.9850 0.9860 0.9860 0.9880
13.234000 0.9880 0.9880 0.9880 0.9880 0.9880
13.267175 0.9880 0.9880 0.9880 0.9880 0.9880
13.301000 0.9880 0.9880 0.9880 0.9880 0.9880
13.334175 0.9880 0.9880 0.9880 0.9880 0.9880
13.367000 0.9880 0.9880 0.9860 0.9860 0.9860
13.400175 0.9860 0.9860 0.9860 0.9850 0.9850
13.433000 0.9830 0.9810 0.9800 0.9780 0.9780
13.466175 0.9760 0.9750 0.9730 0.9730 0.9700
13.500000 0.9700 0.9680 0.9680 0.9660 0.9650
13.533175 0.9650 0.9630 0.9610 0.9610 0.9600
13.566000 0.9580 0.9580 0.9560 0.9510 0.9510
13.599175 0.9480 0.9470 0.9450 0.9400 0.9380
13.632000 0.9370 0.9330 0.9300 0.9270 0.9230
13.665175 0.9200 0.9170 0.9120 0.9080 0.9030
13.699000 0.9000 0.8970 0.8940 0.8890 0.8820
13.732175 0.8800 0.8720 0.8670 0.8620 0.8570
13.765000 0.8520 0.8470 0.8440 0.8370 0.8310
13.798175 0.8240 0.8170 0.8120 0.8070 0.8040
13.831000 0.7990 0.7940 0.7890 0.7840 0.7780
13.864175 0.7710 0.7630 0.7540 0.7450 0.7360
13.898000 0.7260 0.7160 0.7050 0.6930 0.6820
13.931175 0.6680 0.6550 0.6400 0.6250 0.6100
13.964000 0.5940 0.5760 0.5570 0.5390 0.5180
13.997175 0.4960 0.4680 0.4430 0.4180 0.3970
14.030000 0.3750 0.3570 0.3410 0.3240 0.3070
14.063175 0.2910 0.2740 0.2610 0.2500 0.2400
14.097000 0.2300 0.2250 0.2180 0.2150 0.2130
14.130175 0.2110 0.2100 0.2100 0.2110 0.2180
14.163000 0.2260 0.2360 0.2480 0.2630 0.2780
14.196175 0.2910 0.3090 0.3360 0.3600 0.3790
14.229000 0.3990 0.4170 0.4380 0.4580 0.4760
14.262175 0.4960 0.5140 0.5310 0.5460 0.5720
14.296000 0.5890 0.6000 0.6140 0.6220 0.6350
14.329175 0.6440 0.6530 0.6630 0.6720 0.6770
14.362000 0.6800 0.6820 0.6820 0.6830 0.6870
14.395175 0.6870 0.6870 0.6850 0.6780 0.6750
14.428000 0.6720 0.6650 0.6600 0.6520 0.6470
14.461175 0.6440 0.6400 0.6370 0.6320 0.6300
14.495000 0.6300 0.6300 0.6300 0.6320 0.6390
14.528175 0.6450 0.6530 0.6650 0.6770 0.6900
14.561000 0.7000 0.7100 0.7180 0.7300 0.7410
14.594175 0.7540 0.7690 0.7840 0.7980 0.8060
14.627000 0.8140 0.8210 0.8270 0.8310 0.8370
14.660175 0.8440 0.8490 0.8540 0.8570 0.8590
14.694000 0.8620 0.8640 0.8650 0.8690 0.8700
14.727175 0.8720 0.8740 0.8740 0.8770 0.8770
14.760000 0.8770 0.8770 0.8770 0.8770 0.8770
14.793175 0.8770 0.8770 0.8770 0.8770 0.8770
14.826000 0.8770 0.8770 0.8770 0.8750 0.8750
14.859175 0.8740 0.8740 0.8720 0.8700 0.8690
14.892000 0.8670 0.8650 0.8650 0.8640 0.8620
14.925175 0.8590 0.8520 0.8490 0.8440 0.8370
14.959000 0.8310 0.8210 0.8120 0.8070 0.8010
14.992175 0.8010 0.7990 0.7960 0.7940 0.7940
15.025000 0.7940 0.7940 0.7940 0.7940 0.7960
15.058175 0.7980 0.7980 0.7990 0.7990 0.7990
15.091000 0.7990 0.7990 0.7990 0.7990 0.7980
15.124175 0.7980 0.7980 0.7980 0.7980 0.7980
15.158000 0.7930 0.7890 0.7880 0.7830 0.7810
15.191175 0.7810 0.7810 0.7810 0.7810 0.7810
15.224000 0.7780 0.7780 0.7760 0.7730 0.7710
15.257175 0.7690 0.7680 0.7630 0.7610 0.7590
15.290000 0.7580 0.7560 0.7530 0.7510 0.7480
15.323175 0.7460 0.7430 0.7400 0.7360 0.7330
15.357000 0.7310 0.7310 0.7300 0.7280 0.7250
15.390175 0.7230 0.7200 0.7150 0.7110 0.7060
15.423000 0.7030 0.7010 0.6980 0.6970 0.6930
15.456175 0.6900 0.6870 0.6850 0.6820 0.6780
15.489000 0.6770 0.6730 0.6700 0.6630 0.6580
15.522175 0.6500 0.6450 0.6370 0.6300 0.6240
15.556000 0.6190 0.6140 0.6090 0.6050 0.6000
15.589175 0.5940 0.5870 0.5810 0.5690 0.5610
15.622000 0.5560 0.5490 0.5430 0.5330 0.5180
15.655175 0.4960 0.4860 0.4750 0.4650 0.4550
15.688000 0.4450 0.4350 0.4230 0.4130 0.4030
15.721175 0.3940 0.3850 0.3790 0.3700 0.3650
15.755000 0.3590 0.3540 0.3520 0.3490 0.3460
15.788175 0.3440 0.3440 0.3440 0.3440 0.3440
15.821000 0.3440 0.3460 0.3460 0.3490 0.3520
15.854175 0.3550 0.3590 0.3650 0.3720 0.3800
15.887000 0.3890 0.3970 0.4050 0.4120 0.4200
15.920175 0.4250 0.4300 0.4350 0.4430 0.4480
15.954000 0.4510 0.4560 0.4580 0.4610 0.4630
15.987175 0.4630 0.4630 0.4600
##END=
