##TITLE=2,2'-DIHYDROXYAZONAPHTHALENE-4-SULFONIC ACID, ZINC SALT
$$ E.K. (PRAC.)
##JCAMP-DX=4.24
##DATA TYPE=INFRARED SPECTRUM
##CLASS=COBLENTZ
##ORIGIN=WYANDOTTE CHEMICALS CORP., WYANDOTTE, MICHIGAN, USA
##OWNER=COBLENTZ SOCIETY
Collection (C) 2018 copyright by the U.S. Secretary of Commerce
on behalf of the United States of America. All rights reserved.
##DATE=Not specified, most likely prior to 1970
##MOLFORM=C40 H26 N4 O10 S2 Zn
##SOURCE REFERENCE=COBLENTZ NO. 1366
##$NIST ID=B6001366
##$NIST SOURCE=COBLENTZ
##$NIST IMAGE=cob1366
##SPECTROMETER/DATA SYSTEM=Not specified, most likely a prism, grating, or hybrid spectrometer.
##STATE=SOLID (MINERAL OIL MULL)
##SAMPLING PROCEDURE=TRANSMISSION
##RESOLUTION=4
##DATA PROCESSING=DIGITIZED BY NIST FROM HARD COPY
##XUNITS=MICROMETERS
##YUNITS=TRANSMITTANCE
##XFACTOR=1.000000
##YFACTOR=1
##DELTAX=000.006806
##FIRSTX=2.027
##LASTX=15.9868
##FIRSTY=0.201
##MAXX=15.9868
##MINX=2.027
##MAXY=0.957
##MINY=0.023
##NPOINTS=2052
##XYDATA=(X++(Y..Y))
2.027000 0.2010 0.2010 0.2010 0.2030 0.2030
2.061047 0.2030 0.2030 0.2030 0.2030 0.2060
2.095000 0.2080 0.2110 0.2130 0.2150 0.2160
2.129047 0.2160 0.2200 0.2210 0.2230 0.2250
2.163000 0.2250 0.2280 0.2280 0.2300 0.2300
2.197047 0.2300 0.2300 0.2300 0.2300 0.2300
2.231000 0.2320 0.2330 0.2330 0.2330 0.2330
2.265047 0.2350 0.2370 0.2370 0.2370 0.2380
2.299000 0.2380 0.2420 0.2440 0.2470 0.2490
2.333047 0.2550 0.2590 0.2610 0.2620 0.2620
2.368000 0.2640 0.2670 0.2690 0.2710 0.2730
2.402047 0.2760 0.2780 0.2790 0.2790 0.2790
2.436000 0.2810 0.2830 0.2840 0.2860 0.2900
2.470047 0.2910 0.2930 0.2950 0.2950 0.2980
2.504000 0.3000 0.3000 0.3020 0.3050 0.3080
2.538047 0.3080 0.3150 0.3190 0.3200 0.3220
2.572000 0.3240 0.3240 0.3250 0.3250 0.3270
2.606047 0.3290 0.3310 0.3320 0.3370 0.3410
2.640000 0.3460 0.3480 0.3490 0.3530 0.3540
2.674047 0.3580 0.3580 0.3580 0.3580 0.3580
2.708000 0.3560 0.3510 0.3490 0.3430 0.3390
2.742047 0.3370 0.3320 0.3290 0.3250 0.3150
2.776000 0.3120 0.3070 0.3030 0.2960 0.2910
2.810047 0.2860 0.2840 0.2760 0.2730 0.2670
2.844000 0.2640 0.2620 0.2610 0.2590 0.2520
2.878047 0.2500 0.2490 0.2440 0.2420 0.2420
2.912000 0.2420 0.2420 0.2400 0.2380 0.2380
2.946047 0.2380 0.2370 0.2350 0.2330 0.2330
2.980000 0.2330 0.2330 0.2320 0.2320 0.2320
3.014047 0.2320 0.2320 0.2320 0.2330 0.2330
3.048000 0.2370 0.2400 0.2420 0.2450 0.2490
3.082047 0.2500 0.2520 0.2520 0.2520 0.2520
3.116000 0.2540 0.2540 0.2550 0.2570 0.2590
3.150047 0.2610 0.2610 0.2620 0.2640 0.2670
3.184000 0.2690 0.2690 0.2710 0.2710 0.2710
3.218047 0.2730 0.2730 0.2730 0.2730 0.2730
3.252000 0.2710 0.2690 0.2670 0.2610 0.2550
3.286047 0.2540 0.2500 0.2490 0.2450 0.2380
3.320000 0.2280 0.2110 0.1910 0.1630 0.1270
3.354047 0.1000 0.0680 0.0470 0.0370 0.0320
3.388000 0.0290 0.0270 0.0250 0.0230 0.0230
3.422047 0.0230 0.0230 0.0270 0.0340 0.0440
3.456000 0.0490 0.0510 0.0540 0.0540 0.0560
3.490047 0.0560 0.0580 0.0580 0.0590 0.0610
3.525000 0.0640 0.1290 0.2010 0.3150 0.3540
3.559047 0.3850 0.4070 0.4240 0.4360 0.4450
3.593000 0.4520 0.4570 0.4640 0.4650 0.4690
3.627047 0.4740 0.4740 0.4760 0.4760 0.4760
3.661000 0.4760 0.4760 0.4740 0.4740 0.4740
3.695047 0.4740 0.4720 0.4720 0.4720 0.4740
3.729000 0.4740 0.4770 0.4810 0.4820 0.4860
3.763047 0.4860 0.4880 0.4890 0.4910 0.4930
3.797000 0.4960 0.5000 0.5000 0.5030 0.5050
3.831047 0.5100 0.5100 0.5110 0.5130 0.5130
3.865000 0.5150 0.5150 0.5180 0.5200 0.5200
3.899047 0.5220 0.5290 0.5290 0.5300 0.5320
3.933000 0.5340 0.5340 0.5350 0.5370 0.5390
3.967047 0.5400 0.5420 0.5440 0.5440 0.5440
4.001000 0.5460 0.5470 0.5490 0.5510 0.5520
4.035047 0.5520 0.5560 0.5590 0.5630 0.5630
4.069000 0.5640 0.5640 0.5660 0.5660 0.5680
4.103047 0.5680 0.5690 0.5710 0.5730 0.5750
4.137000 0.5750 0.5760 0.5780 0.5780 0.5800
4.171047 0.5810 0.5830 0.5830 0.5850 0.5850
4.205000 0.5870 0.5870 0.5870 0.5880 0.5880
4.239047 0.5880 0.5880 0.5830 0.5810 0.5760
4.273000 0.5680 0.5680 0.5710 0.5800 0.5850
4.307047 0.5900 0.5900 0.5920 0.5970 0.6020
4.341000 0.6050 0.6090 0.6120 0.6160 0.6220
4.375047 0.6290 0.6330 0.6340 0.6360 0.6380
4.409000 0.6390 0.6410 0.6410 0.6430 0.6410
4.443047 0.6410 0.6410 0.6410 0.6410 0.6410
4.477000 0.6410 0.6410 0.6430 0.6430 0.6430
4.511047 0.6450 0.6450 0.6450 0.6460 0.6460
4.545000 0.6480 0.6480 0.6500 0.6500 0.6510
4.579047 0.6530 0.6550 0.6560 0.6580 0.6600
4.614000 0.6620 0.6620 0.6630 0.6620 0.6620
4.648047 0.6620 0.6620 0.6620 0.6620 0.6620
4.682000 0.6630 0.6650 0.6670 0.6700 0.6720
4.716047 0.6750 0.6790 0.6800 0.6800 0.6800
4.750000 0.6800 0.6790 0.6790 0.6790 0.6750
4.784047 0.6700 0.6630 0.6500 0.6480 0.6480
4.818000 0.6500 0.6530 0.6580 0.6670 0.6750
4.852047 0.6840 0.6890 0.6920 0.6990 0.7030
4.886000 0.7080 0.7090 0.7110 0.7130 0.7150
4.920047 0.7150 0.7160 0.7180 0.7180 0.7200
4.954000 0.7210 0.7210 0.7230 0.7250 0.7280
4.988047 0.7300 0.7320 0.7350 0.7370 0.7380
5.022000 0.7400 0.7400 0.7400 0.7420 0.7420
5.056047 0.7420 0.7420 0.7420 0.7440 0.7450
5.090000 0.7490 0.7500 0.7520 0.7520 0.7520
5.124047 0.7540 0.7550 0.7570 0.7590 0.7590
5.158000 0.7610 0.7620 0.7640 0.7660 0.7690
5.192047 0.7740 0.7760 0.7760 0.7780 0.7780
5.226000 0.7780 0.7790 0.7790 0.7790 0.7790
5.260047 0.7810 0.7830 0.7830 0.7840 0.7880
5.294000 0.7900 0.7910 0.7910 0.7910 0.7950
5.328047 0.7980 0.8020 0.8030 0.8070 0.8080
5.362000 0.8100 0.8120 0.8100 0.8130 0.8190
5.396047 0.8240 0.8270 0.8270 0.8250 0.8220
5.430000 0.8220 0.8200 0.8200 0.8200 0.8220
5.464047 0.8240 0.8250 0.8270 0.8270 0.8290
5.498000 0.8290 0.8310 0.8310 0.8320 0.8320
5.532047 0.8340 0.8360 0.8360 0.8360 0.8360
5.566000 0.8360 0.8360 0.8360 0.8360 0.8370
5.600047 0.8430 0.8490 0.8510 0.8530 0.8540
5.634000 0.8560 0.8580 0.8580 0.8580 0.8600
5.668047 0.8600 0.8610 0.8630 0.8630 0.8630
5.702000 0.8630 0.8630 0.8630 0.8610 0.8610
5.736047 0.8610 0.8630 0.8650 0.8630 0.8650
5.771000 0.8720 0.8770 0.8770 0.8730 0.8610
5.805047 0.8580 0.8580 0.8630 0.8730 0.8720
5.839000 0.8720 0.8610 0.8540 0.8490 0.8480
5.873047 0.8460 0.8460 0.8460 0.8440 0.8390
5.907000 0.8290 0.8120 0.8070 0.8020 0.8000
5.941047 0.7960 0.7930 0.7860 0.7730 0.7660
5.975000 0.7640 0.7610 0.7550 0.7500 0.7470
6.009047 0.7420 0.7330 0.7200 0.7130 0.7130
6.043000 0.7110 0.7110 0.7060 0.7010 0.6960
6.077047 0.6870 0.6800 0.6790 0.6750 0.6680
6.111000 0.6620 0.6510 0.6360 0.6100 0.5930
6.145047 0.5590 0.5560 0.5510 0.5460 0.5460
6.179000 0.5470 0.5560 0.5810 0.5810 0.5810
6.213047 0.5270 0.5130 0.4980 0.4700 0.4350
6.247000 0.4310 0.4350 0.4520 0.4760 0.4930
6.281047 0.5180 0.5300 0.5460 0.5630 0.5710
6.315000 0.5800 0.5880 0.5900 0.5930 0.5950
6.349047 0.5920 0.5900 0.5830 0.5640 0.5400
6.383000 0.5130 0.5010 0.4890 0.4690 0.4480
6.417047 0.4430 0.4430 0.4470 0.4520 0.4640
6.451000 0.4810 0.5250 0.5460 0.5660 0.5830
6.485047 0.5920 0.5970 0.6050 0.6120 0.6140
6.519000 0.6190 0.6260 0.6310 0.6340 0.6390
6.553047 0.6390 0.6340 0.6140 0.5970 0.5730
6.587000 0.5510 0.5270 0.5100 0.5030 0.4960
6.621047 0.4860 0.4770 0.4740 0.4760 0.4820
6.655000 0.4930 0.5250 0.5340 0.5440 0.5560
6.689047 0.5690 0.5730 0.5730 0.5690 0.5510
6.723000 0.5250 0.5050 0.4960 0.4860 0.4550
6.757047 0.4160 0.3600 0.2840 0.2670 0.2490
6.791000 0.2060 0.1630 0.1340 0.1240 0.1210
6.825047 0.1210 0.1220 0.1410 0.1580 0.1860
6.860000 0.1990 0.2130 0.2230 0.2330 0.2440
6.894047 0.2610 0.2690 0.2760 0.2830 0.2930
6.928000 0.3030 0.3170 0.3310 0.3460 0.3600
6.962047 0.3770 0.3920 0.4070 0.4210 0.4260
6.996000 0.4350 0.4450 0.4520 0.4530 0.4590
7.030047 0.4650 0.4690 0.4720 0.4790 0.4810
7.064000 0.4810 0.4790 0.4700 0.4690 0.4690
7.098047 0.4700 0.4700 0.4700 0.4700 0.4720
7.132000 0.4740 0.4770 0.4860 0.4960 0.5180
7.166047 0.5180 0.5180 0.5100 0.5050 0.4980
7.200000 0.4810 0.4620 0.4410 0.4280 0.4060
7.234047 0.3820 0.3560 0.3310 0.3290 0.3290
7.268000 0.3310 0.3610 0.3830 0.4010 0.4140
7.302047 0.4260 0.4410 0.4590 0.4720 0.4890
7.336000 0.5220 0.5370 0.5440 0.5460 0.5460
7.370047 0.5420 0.5400 0.5370 0.5350 0.5320
7.404000 0.5290 0.5220 0.5150 0.5080 0.5060
7.438047 0.5060 0.5060 0.5080 0.5100 0.5130
7.472000 0.5180 0.5170 0.5200 0.5250 0.5300
7.506047 0.5350 0.5460 0.5580 0.5660 0.5760
7.540000 0.5850 0.5930 0.6000 0.6040 0.6070
7.574047 0.6070 0.6070 0.6050 0.6070 0.6070
7.608000 0.6070 0.6090 0.6100 0.6120 0.6140
7.642047 0.6160 0.6190 0.6220 0.6270 0.6270
7.676000 0.6290 0.6270 0.6240 0.6210 0.6170
7.710047 0.6120 0.6040 0.5900 0.5760 0.5660
7.744000 0.5560 0.5470 0.5370 0.5250 0.5150
7.778047 0.5050 0.5000 0.4940 0.4880 0.4820
7.812000 0.4790 0.4790 0.4790 0.4810 0.4940
7.846047 0.5200 0.5350 0.5510 0.5680 0.5810
7.880000 0.5930 0.6000 0.6020 0.6000 0.5980
7.914047 0.5830 0.5760 0.5590 0.5390 0.5130
7.948000 0.5010 0.4890 0.4690 0.4530 0.4400
7.982047 0.4310 0.4240 0.4210 0.4160 0.4140
8.017000 0.4140 0.4120 0.4120 0.4110 0.4090
8.051047 0.4090 0.4070 0.4060 0.4040 0.4020
8.085000 0.3990 0.3940 0.3850 0.3780 0.3730
8.119047 0.3650 0.3600 0.3540 0.3480 0.3410
8.153000 0.3390 0.3320 0.3240 0.3190 0.3130
8.187047 0.3080 0.3000 0.2880 0.2830 0.2810
8.221000 0.2780 0.2740 0.2730 0.2710 0.2710
8.255047 0.2730 0.2740 0.2760 0.2760 0.2760
8.289000 0.2760 0.2760 0.2740 0.2730 0.2710
8.323047 0.2670 0.2660 0.2620 0.2610 0.2570
8.357000 0.2540 0.2520 0.2490 0.2450 0.2420
8.391047 0.2400 0.2400 0.2400 0.2400 0.2380
8.425000 0.2380 0.2370 0.2350 0.2330 0.2330
8.459047 0.2330 0.2320 0.2300 0.2300 0.2300
8.493000 0.2300 0.2300 0.2300 0.2300 0.2330
8.527047 0.2350 0.2420 0.2420 0.2440 0.2450
8.561000 0.2450 0.2470 0.2490 0.2490 0.2520
8.595047 0.2540 0.2570 0.2590 0.2610 0.2620
8.629000 0.2670 0.2710 0.2710 0.2690 0.2670
8.663047 0.2640 0.2620 0.2590 0.2570 0.2570
8.697000 0.2570 0.2570 0.2590 0.2570 0.2570
8.731047 0.2570 0.2590 0.2590 0.2610 0.2640
8.765000 0.2690 0.2740 0.2810 0.2880 0.2960
8.799047 0.3050 0.3130 0.3170 0.3190 0.3220
8.833000 0.3290 0.3320 0.3360 0.3390 0.3430
8.867047 0.3460 0.3480 0.3490 0.3510 0.3540
8.901000 0.3580 0.3610 0.3650 0.3720 0.3780
8.935047 0.3820 0.3870 0.3900 0.3940 0.3970
8.969000 0.4010 0.4040 0.4090 0.4180 0.4240
9.003047 0.4310 0.4410 0.4480 0.4550 0.4590
9.037000 0.4620 0.4670 0.4700 0.4770 0.4840
9.071047 0.4940 0.5000 0.5150 0.5200 0.5270
9.105000 0.5370 0.5460 0.5520 0.5560 0.5640
9.139047 0.5710 0.5760 0.5810 0.5880 0.5930
9.174000 0.5980 0.6050 0.6100 0.6170 0.6240
9.208047 0.6310 0.6330 0.6410 0.6460 0.6510
9.242000 0.6530 0.6530 0.6580 0.6600 0.6600
9.276047 0.6580 0.6550 0.6460 0.6360 0.6260
9.310000 0.6120 0.5970 0.5810 0.5630 0.5420
9.344047 0.5220 0.5010 0.4890 0.4770 0.4550
9.378000 0.4300 0.4060 0.3800 0.3540 0.3290
9.412047 0.3020 0.2830 0.2670 0.2550 0.2500
9.446000 0.2450 0.2370 0.2260 0.2160 0.2060
9.480047 0.1990 0.1960 0.1890 0.1870 0.1840
9.514000 0.1820 0.1800 0.1790 0.1800 0.1860
9.548047 0.1960 0.2040 0.2150 0.2250 0.2370
9.582000 0.2620 0.2760 0.2910 0.3070 0.3240
9.616047 0.3410 0.3560 0.3700 0.3900 0.4070
9.650000 0.4240 0.4410 0.4600 0.4790 0.4980
9.684047 0.5290 0.5400 0.5520 0.5710 0.5870
9.718000 0.5980 0.6090 0.6190 0.6270 0.6340
9.752047 0.6390 0.6450 0.6500 0.6550 0.6580
9.786000 0.6600 0.6630 0.6670 0.6680 0.6650
9.820047 0.6650 0.6650 0.6630 0.6620 0.6580
9.854000 0.6530 0.6510 0.6480 0.6460 0.6460
9.888047 0.6460 0.6480 0.6510 0.6580 0.6670
9.922000 0.6800 0.6940 0.7040 0.7110 0.7200
9.956047 0.7250 0.7330 0.7490 0.7570 0.7620
9.990000 0.7660 0.7670 0.7710 0.7730 0.7740
10.024047 0.7790 0.7790 0.7810 0.7810 0.7810
10.058000 0.7790 0.7730 0.7670 0.7620 0.7590
10.092047 0.7500 0.7490 0.7450 0.7350 0.7300
10.126000 0.7280 0.7230 0.7150 0.7090 0.7060
10.160047 0.7040 0.7040 0.7030 0.7030 0.7030
10.194000 0.7030 0.7030 0.7030 0.7040 0.7040
10.228047 0.7060 0.7060 0.7080 0.7110 0.7160
10.263000 0.7250 0.7300 0.7370 0.7400 0.7470
10.297047 0.7620 0.7710 0.7780 0.7810 0.7860
10.331000 0.7900 0.7950 0.8000 0.8030 0.8070
10.365047 0.8150 0.8190 0.8220 0.8270 0.8310
10.399000 0.8320 0.8340 0.8360 0.8370 0.8390
10.433047 0.8390 0.8430 0.8480 0.8510 0.8510
10.467000 0.8530 0.8540 0.8580 0.8600 0.8610
10.501047 0.8610 0.8630 0.8630 0.8630 0.8650
10.535000 0.8660 0.8660 0.8680 0.8700 0.8720
10.569047 0.8720 0.8720 0.8730 0.8720 0.8720
10.603000 0.8700 0.8700 0.8700 0.8700 0.8700
10.637047 0.8720 0.8730 0.8730 0.8750 0.8770
10.671000 0.8770 0.8780 0.8800 0.8800 0.8820
10.705047 0.8850 0.8890 0.8940 0.9010 0.9060
10.739000 0.9120 0.9190 0.9240 0.9240 0.9260
10.773047 0.9260 0.9260 0.9300 0.9310 0.9360
10.807000 0.9400 0.9410 0.9410 0.9410 0.9410
10.841047 0.9410 0.9410 0.9410 0.9430 0.9430
10.875000 0.9450 0.9450 0.9470 0.9480 0.9500
10.909047 0.9500 0.9500 0.9500 0.9500 0.9500
10.943000 0.9500 0.9500 0.9520 0.9520 0.9520
10.977047 0.9520 0.9530 0.9530 0.9550 0.9550
11.011000 0.9550 0.9550 0.9570 0.9550 0.9530
11.045047 0.9550 0.9530 0.9520 0.9520 0.9500
11.079000 0.9480 0.9430 0.9380 0.9360 0.9360
11.113047 0.9380 0.9400 0.9400 0.9380 0.9350
11.147000 0.9330 0.9280 0.9240 0.9210 0.9190
11.181047 0.9180 0.9160 0.9140 0.9110 0.9060
11.215000 0.9060 0.9040 0.9040 0.8990 0.8990
11.249047 0.8940 0.8940 0.8920 0.8920 0.8900
11.283000 0.8900 0.8890 0.8900 0.8900 0.8900
11.317047 0.8890 0.8890 0.8870 0.8850 0.8850
11.351000 0.8830 0.8820 0.8800 0.8780 0.8780
11.385047 0.8780 0.8800 0.8820 0.8850 0.8900
11.420000 0.8970 0.9040 0.9110 0.9210 0.9240
11.454047 0.9260 0.9300 0.9300 0.9310 0.9300
11.488000 0.9300 0.9280 0.9280 0.9260 0.9260
11.522047 0.9280 0.9300 0.9300 0.9300 0.9300
11.556000 0.9300 0.9300 0.9280 0.9280 0.9280
11.590047 0.9260 0.9240 0.9230 0.9230 0.9230
11.624000 0.9230 0.9230 0.9240 0.9240 0.9240
11.658047 0.9280 0.9300 0.9300 0.9310 0.9310
11.692000 0.9310 0.9330 0.9350 0.9360 0.9360
11.726047 0.9360 0.9360 0.9360 0.9380 0.9380
11.760000 0.9400 0.9410 0.9430 0.9430 0.9430
11.794047 0.9450 0.9450 0.9450 0.9450 0.9450
11.828000 0.9450 0.9450 0.9450 0.9450 0.9430
11.862047 0.9430 0.9430 0.9430 0.9410 0.9410
11.896000 0.9400 0.9380 0.9360 0.9350 0.9330
11.930047 0.9310 0.9300 0.9260 0.9230 0.9210
11.964000 0.9180 0.9140 0.9110 0.9070 0.9020
11.998047 0.8990 0.8920 0.8830 0.8720 0.8650
12.032000 0.8580 0.8530 0.8460 0.8370 0.8250
12.066047 0.8130 0.8070 0.8020 0.7960 0.7860
12.100000 0.7760 0.7670 0.7620 0.7590 0.7540
12.134047 0.7500 0.7470 0.7440 0.7400 0.7350
12.168000 0.7320 0.7280 0.7250 0.7230 0.7230
12.202047 0.7210 0.7210 0.7210 0.7230 0.7230
12.236000 0.7260 0.7260 0.7280 0.7300 0.7300
12.270047 0.7330 0.7370 0.7440 0.7490 0.7570
12.304000 0.7660 0.7710 0.7760 0.7790 0.7840
12.338047 0.7910 0.7950 0.7980 0.8020 0.8070
12.372000 0.8130 0.8200 0.8270 0.8370 0.8480
12.406047 0.8510 0.8540 0.8610 0.8650 0.8700
12.440000 0.8730 0.8780 0.8800 0.8850 0.8890
12.474047 0.8920 0.8970 0.9010 0.9070 0.9120
12.509000 0.9140 0.9160 0.9180 0.9210 0.9230
12.543047 0.9240 0.9280 0.9300 0.9280 0.9280
12.577000 0.9260 0.9260 0.9230 0.9230 0.9230
12.611047 0.9230 0.9230 0.9230 0.9230 0.9230
12.645000 0.9230 0.9240 0.9240 0.9260 0.9240
12.679047 0.9240 0.9230 0.9210 0.9190 0.9160
12.713000 0.9110 0.9060 0.9010 0.8950 0.8920
12.747047 0.8870 0.8820 0.8750 0.8680 0.8610
12.781000 0.8560 0.8490 0.8430 0.8360 0.8310
12.815047 0.8250 0.8220 0.8190 0.8150 0.8120
12.849000 0.8080 0.8050 0.7980 0.7910 0.7860
12.883047 0.7810 0.7760 0.7740 0.7730 0.7710
12.917000 0.7690 0.7690 0.7690 0.7670 0.7670
12.951047 0.7660 0.7640 0.7620 0.7590 0.7540
12.985000 0.7520 0.7490 0.7450 0.7420 0.7380
13.019047 0.7370 0.7370 0.7370 0.7370 0.7370
13.053000 0.7370 0.7370 0.7370 0.7370 0.7370
13.087047 0.7370 0.7350 0.7330 0.7320 0.7280
13.121000 0.7250 0.7210 0.7180 0.7150 0.7110
13.155047 0.7090 0.7040 0.7030 0.6990 0.6970
13.189000 0.6920 0.6860 0.6800 0.6770 0.6770
13.223047 0.6750 0.6680 0.6620 0.6550 0.6510
13.257000 0.6500 0.6500 0.6480 0.6430 0.6390
13.291047 0.6330 0.6260 0.6190 0.6140 0.6100
13.325000 0.6040 0.6020 0.6000 0.5980 0.5970
13.359047 0.5920 0.5880 0.5850 0.5810 0.5800
13.393000 0.5780 0.5760 0.5730 0.5710 0.5690
13.427047 0.5690 0.5680 0.5630 0.5610 0.5580
13.461000 0.5540 0.5520 0.5510 0.5510 0.5510
13.495047 0.5520 0.5540 0.5580 0.5610 0.5630
13.529000 0.5660 0.5710 0.5780 0.5850 0.5950
13.563047 0.6040 0.6160 0.6260 0.6380 0.6500
13.597000 0.6620 0.6740 0.6840 0.6940 0.7040
13.631047 0.7130 0.7210 0.7260 0.7330 0.7400
13.666000 0.7440 0.7470 0.7550 0.7610 0.7640
13.700047 0.7660 0.7660 0.7670 0.7710 0.7740
13.734000 0.7760 0.7780 0.7790 0.7810 0.7810
13.768047 0.7810 0.7810 0.7810 0.7810 0.7810
13.802000 0.7810 0.7790 0.7790 0.7790 0.7780
13.836047 0.7760 0.7710 0.7670 0.7670 0.7670
13.870000 0.7670 0.7670 0.7670 0.7670 0.7670
13.904047 0.7670 0.7670 0.7670 0.7690 0.7690
13.938000 0.7710 0.7710 0.7730 0.7760 0.7780
13.972047 0.7790 0.7810 0.7810 0.7810 0.7810
14.006000 0.7830 0.7830 0.7830 0.7840 0.7840
14.040047 0.7840 0.7840 0.7840 0.7840 0.7840
14.074000 0.7860 0.7860 0.7860 0.7880 0.7880
14.108047 0.7900 0.7900 0.7900 0.7950 0.7980
14.142000 0.8000 0.8020 0.8020 0.8030 0.8030
14.176047 0.8050 0.8050 0.8070 0.8080 0.8080
14.210000 0.8080 0.8080 0.8080 0.8080 0.8080
14.244047 0.8070 0.8070 0.8070 0.8050 0.8050
14.278000 0.8050 0.8050 0.8050 0.8050 0.8030
14.312047 0.8020 0.8020 0.8000 0.8000 0.8000
14.346000 0.7980 0.7980 0.7980 0.7980 0.7980
14.380047 0.7980 0.7980 0.7980 0.7960 0.7980
14.414000 0.7980 0.7980 0.7980 0.7960 0.7960
14.448047 0.7950 0.7950 0.7930 0.7930 0.7950
14.482000 0.7950 0.7930 0.7930 0.7910 0.7900
14.516047 0.7860 0.7830 0.7790 0.7780 0.7760
14.550000 0.7760 0.7760 0.7740 0.7740 0.7730
14.584047 0.7710 0.7690 0.7670 0.7660 0.7640
14.618000 0.7620 0.7610 0.7550 0.7520 0.7500
14.652047 0.7490 0.7440 0.7380 0.7370 0.7330
14.686000 0.7320 0.7320 0.7260 0.7210 0.7160
14.720047 0.7090 0.7040 0.7030 0.7010 0.6990
14.754000 0.6970 0.6920 0.6870 0.6860 0.6860
14.788047 0.6820 0.6770 0.6740 0.6700 0.6650
14.823000 0.6580 0.6530 0.6460 0.6410 0.6390
14.857047 0.6340 0.6310 0.6260 0.6210 0.6160
14.891000 0.6100 0.6040 0.5970 0.5900 0.5830
14.925047 0.5810 0.5780 0.5710 0.5640 0.5560
14.959000 0.5470 0.5420 0.5340 0.5250 0.5180
14.993047 0.5100 0.5050 0.5000 0.4930 0.4840
15.027000 0.4760 0.4700 0.4640 0.4520 0.4450
15.061047 0.4360 0.4300 0.4230 0.4180 0.4120
15.095000 0.4070 0.4040 0.4020 0.4010 0.3970
15.129047 0.3970 0.3950 0.3950 0.3940 0.3920
15.163000 0.3920 0.3920 0.3920 0.3920 0.3920
15.197047 0.3920 0.3890 0.3890 0.3890 0.3890
15.231000 0.3890 0.3890 0.3890 0.3890 0.3890
15.265047 0.3900 0.3920 0.3950 0.3970 0.3970
15.299000 0.4010 0.4010 0.4010 0.4010 0.4040
15.333047 0.4070 0.4110 0.4140 0.4180 0.4190
15.367000 0.4190 0.4190 0.4210 0.4230 0.4240
15.401047 0.4240 0.4260 0.4260 0.4280 0.4280
15.435000 0.4300 0.4310 0.4310 0.4330 0.4330
15.469047 0.4330 0.4330 0.4310 0.4310 0.4300
15.503000 0.4280 0.4280 0.4280 0.4280 0.4260
15.537047 0.4260 0.4260 0.4240 0.4240 0.4240
15.571000 0.4230 0.4230 0.4210 0.4210 0.4180
15.605047 0.4160 0.4160 0.4160 0.4140 0.4110
15.639000 0.4090 0.4090 0.4070 0.4060 0.4060
15.673047 0.4060 0.4060 0.4060 0.4020 0.4010
15.707000 0.3970 0.3940 0.3920 0.3940 0.3940
15.741047 0.3950 0.3970 0.3970 0.3970 0.3970
15.775000 0.3970 0.3950 0.3870 0.3870 0.3890
15.809047 0.3890 0.3900 0.3890 0.3890 0.3890
15.843000 0.3890 0.3870 0.3850 0.3850 0.3830
15.877047 0.3820 0.3820 0.3800 0.3780 0.3770
15.912000 0.3750 0.3750 0.3730 0.3730 0.3720
15.946047 0.3700 0.3700 0.3680 0.3660 0.3660
15.980000 0.3650 0.3660
##END=
