##TITLE=PHENANTHRENE, 3-METHYL-D3-
##JCAMP-DX=4.24
##DATA TYPE=INFRARED SPECTRUM
##CLASS=COBLENTZ
##ORIGIN=CENTRE D'ETUDES NUCLEAIRES DE GRENOBLE
##OWNER=COBLENTZ SOCIETY
Collection (C) 2018 copyright by the U.S. Secretary of Commerce
on behalf of the United States of America. All rights reserved.
##DATE=Not specified, most likely prior to 1970
##NAMES=3-methylphenanthrene
##MOLFORM=C15 H9 D3
##SOURCE REFERENCE=COBLENTZ NO. 4261
##$NIST ID=B6004261
##$NIST SOURCE=COBLENTZ
##$NIST IMAGE=cob4261
##SPECTROMETER/DATA SYSTEM=Not specified, most likely a prism, grating, or hybrid spectrometer.
##STATE=SOLUTION (110 g/L IN BENZENE)
##PATH LENGTH=0.05 CM
$$PURITY 90%
##SAMPLING PROCEDURE=TRANSMISSION
##RESOLUTION=4
##DATA PROCESSING=DIGITIZED BY NIST FROM HARD COPY
##XUNITS=MICROMETERS
##YUNITS=TRANSMITTANCE
##XFACTOR=1.000000
##YFACTOR=1
##DELTAX=000.011137
##FIRSTX=15.822
##LASTX=35.0114
##FIRSTY=0.77
##MAXX=35.0114
##MINX=15.822
##MAXY=1.02
##MINY=0.144
##NPOINTS=1724
##XYDATA=(X++(Y..Y))
15.822000 0.7700 0.7780 0.7810 0.7910 0.8050
15.877718 0.8250 0.8470 0.8520 0.8570 0.8590
15.933000 0.8620 0.8650 0.8670 0.8690 0.8690
15.988718 0.8700 0.8700 0.8670 0.8650 0.8570
16.045000 0.8450 0.8280 0.8170 0.8000 0.7750
16.100718 0.7580 0.7390 0.7210 0.7160 0.7090
16.156000 0.7060 0.7040 0.7060 0.7090 0.7190
16.211718 0.7260 0.7440 0.7780 0.7850 0.8030
16.267000 0.8200 0.8400 0.8590 0.8790 0.8990
16.322718 0.9010 0.9190 0.9460 0.9490 0.9580
16.379000 0.9730 0.9780 0.9810 0.9830 0.9860
16.434718 1.0010 1.0050 1.0110 1.0150 1.0160
16.490000 1.0180 1.0200 1.0200 1.0200 1.0200
16.545718 1.0200 1.0200 1.0180 1.0180 1.0180
16.601000 1.0180 1.0160 1.0160 1.0150 1.0150
16.656718 1.0130 1.0130 1.0110 1.0110 1.0100
16.713000 1.0080 1.0080 1.0100 1.0100 1.0110
16.768718 1.0130 1.0130 1.0130 1.0110 1.0110
16.824000 1.0100 1.0100 1.0080 1.0060 1.0050
16.879718 1.0050 1.0030 1.0010 1.0000 0.9980
16.936000 0.9960 0.9930 0.9910 0.9860 0.9830
16.991718 0.9760 0.9690 0.9610 0.9470 0.9410
17.047000 0.9370 0.9270 0.9140 0.9040 0.8990
17.102718 0.8940 0.8590 0.8500 0.8280 0.8130
17.158000 0.8020 0.7930 0.7860 0.7810 0.7730
17.213718 0.7700 0.7680 0.7660 0.7680 0.7700
17.270000 0.7760 0.7910 0.8000 0.8020 0.8070
17.325718 0.8230 0.8320 0.8480 0.8600 0.8670
17.381000 0.8920 0.8950 0.9060 0.9190 0.9320
17.436718 0.9370 0.9390 0.9420 0.9470 0.9530
17.492000 0.9560 0.9580 0.9590 0.9630 0.9630
17.547718 0.9640 0.9660 0.9660 0.9660 0.9660
17.604000 0.9660 0.9680 0.9680 0.9680 0.9680
17.659718 0.9680 0.9680 0.9660 0.9660 0.9660
17.715000 0.9660 0.9660 0.9660 0.9660 0.9660
17.770718 0.9660 0.9660 0.9660 0.9640 0.9640
17.826000 0.9630 0.9630 0.9630 0.9610 0.9610
17.881718 0.9590 0.9590 0.9590 0.9590 0.9580
17.938000 0.9560 0.9530 0.9530 0.9490 0.9470
17.993718 0.9420 0.9410 0.9390 0.9340 0.9290
18.049000 0.9260 0.9240 0.9210 0.9120 0.9020
18.104718 0.8920 0.8800 0.8670 0.8570 0.8300
18.161000 0.8250 0.8020 0.7960 0.7550 0.7110
18.216718 0.6990 0.6690 0.6470 0.5770 0.5720
18.272000 0.5530 0.5060 0.5000 0.4930 0.4730
18.327718 0.4530 0.4340 0.4290 0.4220 0.4170
18.383000 0.4160 0.4170 0.4190 0.4340 0.4540
18.438718 0.4740 0.4980 0.5310 0.5570 0.5900
18.495000 0.6050 0.6190 0.6740 0.6990 0.7130
18.550718 0.7260 0.7360 0.7530 0.7730 0.7800
18.606000 0.8020 0.8100 0.8350 0.8400 0.8450
18.661718 0.8520 0.8570 0.8700 0.8750 0.8800
18.717000 0.8870 0.8920 0.8950 0.8990 0.9040
18.772718 0.9060 0.9090 0.9110 0.9110 0.9120
18.829000 0.9120 0.9120 0.9120 0.9120 0.9120
18.884718 0.9120 0.9120 0.9120 0.9110 0.9110
18.940000 0.9090 0.9090 0.9070 0.9070 0.9060
18.995718 0.9060 0.9020 0.9020 0.9010 0.8990
19.052000 0.8990 0.8970 0.8950 0.8900 0.8890
19.107718 0.8870 0.8850 0.8840 0.8840 0.8840
19.163000 0.8850 0.8870 0.8890 0.8900 0.8920
19.218718 0.8940 0.8940 0.8950 0.8970 0.8970
19.274000 0.8990 0.8990 0.8990 0.8990 0.8970
19.329718 0.8970 0.8950 0.8950 0.8940 0.8940
19.386000 0.8900 0.8890 0.8870 0.8840 0.8820
19.441718 0.8820 0.8800 0.8800 0.8790 0.8750
19.497000 0.8750 0.8670 0.8620 0.8550 0.8520
19.552718 0.8480 0.8430 0.8380 0.8350 0.8100
19.608000 0.8050 0.8030 0.8000 0.7960 0.7750
19.663718 0.7650 0.7600 0.7530 0.7390 0.7160
19.720000 0.7060 0.6990 0.6760 0.6610 0.6470
19.775718 0.6320 0.6070 0.5750 0.5630 0.5500
19.831000 0.5330 0.5050 0.5010 0.4960 0.4680
19.886718 0.4170 0.4060 0.3690 0.3520 0.3320
19.943000 0.3080 0.2800 0.2710 0.2500 0.2230
19.998718 0.2030 0.1810 0.1760 0.1690 0.1620
20.054000 0.1610 0.1570 0.1560 0.1560 0.1570
20.109718 0.1610 0.1690 0.1770 0.1820 0.2040
20.165000 0.2190 0.2240 0.2510 0.2580 0.3050
20.220718 0.3200 0.3520 0.3690 0.3840 0.4060
20.277000 0.4340 0.4510 0.5000 0.5250 0.5500
20.332718 0.5970 0.6120 0.6190 0.6390 0.6570
20.388000 0.6710 0.7010 0.7090 0.7210 0.7290
20.443718 0.7430 0.7510 0.7610 0.7680 0.7860
20.499000 0.7980 0.8030 0.8080 0.8230 0.8250
20.554718 0.8350 0.8380 0.8430 0.8450 0.8470
20.611000 0.8500 0.8600 0.8670 0.8690 0.8720
20.666718 0.8740 0.8770 0.8800 0.8850 0.8870
20.722000 0.8890 0.8900 0.8920 0.8940 0.8970
20.777718 0.8990 0.8990 0.9010 0.9020 0.9040
20.834000 0.9060 0.9060 0.9070 0.9090 0.9090
20.889718 0.9110 0.9110 0.9110 0.9120 0.9120
20.945000 0.9140 0.9160 0.9160 0.9160 0.9160
21.000718 0.9170 0.9170 0.9170 0.9170 0.9170
21.056000 0.9170 0.9170 0.9160 0.9160 0.9160
21.111718 0.9140 0.9140 0.9140 0.9140 0.9120
21.168000 0.9110 0.9110 0.9110 0.9090 0.9070
21.223718 0.9070 0.9060 0.9060 0.9060 0.9060
21.279000 0.9060 0.9060 0.9040 0.9040 0.9020
21.334718 0.9020 0.9020 0.9010 0.8990 0.8970
21.390000 0.8950 0.8900 0.8890 0.8840 0.8750
21.445718 0.8740 0.8720 0.8700 0.8650 0.8540
21.502000 0.8400 0.8280 0.8170 0.8100 0.8050
21.557718 0.8000 0.7850 0.7800 0.7560 0.7410
21.613000 0.7380 0.7130 0.6990 0.6920 0.6910
21.668718 0.6790 0.6740 0.6690 0.6660 0.6620
21.725000 0.6570 0.6520 0.6510 0.6510 0.6520
21.780718 0.6540 0.6560 0.6590 0.6660 0.6760
21.836000 0.6860 0.6910 0.7030 0.7190 0.7230
21.891718 0.7290 0.7500 0.7610 0.7700 0.7810
21.947000 0.7910 0.7930 0.7980 0.8020 0.8080
22.002718 0.8130 0.8250 0.8370 0.8450 0.8480
22.059000 0.8520 0.8590 0.8620 0.8640 0.8700
22.114718 0.8720 0.8750 0.8750 0.8800 0.8820
22.170000 0.8850 0.8850 0.8850 0.8870 0.8890
22.225718 0.8890 0.8890 0.8900 0.8900 0.8900
22.281000 0.8900 0.8890 0.8890 0.8890 0.8890
22.336718 0.8870 0.8870 0.8850 0.8840 0.8820
22.393000 0.8800 0.8790 0.8790 0.8770 0.8770
22.448718 0.8750 0.8720 0.8700 0.8670 0.8650
22.504000 0.8650 0.8600 0.8570 0.8500 0.8480
22.559718 0.8470 0.8420 0.8330 0.8320 0.8280
22.615000 0.8220 0.8150 0.8130 0.8120 0.8070
22.670718 0.8030 0.7910 0.7850 0.7810 0.7800
22.727000 0.7700 0.7600 0.7530 0.7510 0.7500
22.782718 0.7460 0.7410 0.7390 0.7340 0.7230
22.838000 0.7210 0.7190 0.7160 0.7130 0.7090
22.893718 0.7040 0.6960 0.6860 0.6840 0.6810
22.950000 0.6770 0.6740 0.6620 0.6560 0.6290
23.005718 0.6200 0.6100 0.5970 0.5880 0.5670
23.061000 0.5570 0.5550 0.5410 0.5110 0.5010
23.116718 0.4940 0.4860 0.4740 0.4610 0.4340
23.172000 0.4290 0.4170 0.3770 0.3640 0.3590
23.227718 0.3350 0.3200 0.3020 0.2850 0.2700
23.284000 0.2510 0.2360 0.2260 0.2140 0.2080
23.339718 0.1940 0.1790 0.1760 0.1660 0.1620
23.395000 0.1590 0.1560 0.1520 0.1490 0.1470
23.450718 0.1450 0.1440 0.1440 0.1450 0.1470
23.506000 0.1510 0.1560 0.1590 0.1660 0.1710
23.561718 0.1890 0.1920 0.2010 0.2130 0.2310
23.618000 0.2430 0.2610 0.2710 0.2830 0.3070
23.673718 0.3200 0.3550 0.3650 0.3820 0.4010
23.729000 0.4110 0.4260 0.4560 0.4860 0.5000
23.784718 0.5260 0.5400 0.5520 0.5780 0.5850
23.841000 0.5920 0.6100 0.6200 0.6340 0.6570
23.896718 0.6690 0.7010 0.7030 0.7060 0.7110
23.952000 0.7160 0.7240 0.7430 0.7560 0.7630
24.007718 0.7680 0.7850 0.7950 0.8030 0.8050
24.063000 0.8070 0.8100 0.8170 0.8270 0.8370
24.118718 0.8400 0.8430 0.8470 0.8480 0.8500
24.175000 0.8540 0.8550 0.8590 0.8700 0.8740
24.230718 0.8750 0.8770 0.8800 0.8820 0.8820
24.286000 0.8840 0.8840 0.8850 0.8850 0.8870
24.341718 0.8870 0.8890 0.8900 0.8900 0.8940
24.397000 0.8950 0.8970 0.8990 0.8990 0.8990
24.452718 0.9010 0.9010 0.9010 0.8990 0.8990
24.509000 0.8970 0.8940 0.8900 0.8870 0.8870
24.564718 0.8850 0.8840 0.8820 0.8820 0.8820
24.620000 0.8800 0.8800 0.8790 0.8790 0.8790
24.675718 0.8790 0.8790 0.8770 0.8750 0.8750
24.732000 0.8750 0.8750 0.8770 0.8790 0.8790
24.787718 0.8790 0.8770 0.8770 0.8770 0.8770
24.843000 0.8790 0.8800 0.8840 0.8850 0.8870
24.898718 0.8890 0.8900 0.8920 0.8940 0.8950
24.954000 0.8970 0.8970 0.8990 0.9010 0.9010
25.009718 0.9020 0.9020 0.9040 0.9040 0.9060
25.066000 0.9070 0.9070 0.9090 0.9090 0.9110
25.121718 0.9110 0.9110 0.9110 0.9090 0.9090
25.177000 0.9090 0.9070 0.9070 0.9060 0.9060
25.232718 0.9060 0.9040 0.9020 0.9020 0.9010
25.288000 0.8990 0.8970 0.8970 0.8950 0.8940
25.343718 0.8920 0.8900 0.8870 0.8840 0.8820
25.400000 0.8790 0.8750 0.8720 0.8640 0.8620
25.455718 0.8600 0.8570 0.8540 0.8520 0.8500
25.511000 0.8480 0.8480 0.8470 0.8470 0.8470
25.566718 0.8470 0.8470 0.8480 0.8500 0.8540
25.623000 0.8550 0.8590 0.8640 0.8670 0.8690
25.678718 0.8720 0.8740 0.8750 0.8790 0.8800
25.734000 0.8840 0.8870 0.8900 0.8940 0.8970
25.789718 0.9010 0.9070 0.9090 0.9120 0.9170
25.845000 0.9190 0.9210 0.9220 0.9240 0.9260
25.900718 0.9270 0.9290 0.9310 0.9340 0.9370
25.957000 0.9390 0.9390 0.9390 0.9410 0.9410
26.012718 0.9420 0.9420 0.9420 0.9420 0.9440
26.068000 0.9440 0.9440 0.9440 0.9440 0.9440
26.123718 0.9460 0.9460 0.9470 0.9470 0.9470
26.179000 0.9470 0.9490 0.9490 0.9490 0.9510
26.234718 0.9510 0.9510 0.9510 0.9510 0.9510
26.291000 0.9530 0.9530 0.9530 0.9510 0.9510
26.346718 0.9530 0.9530 0.9530 0.9530 0.9540
26.402000 0.9560 0.9560 0.9560 0.9560 0.9560
26.457718 0.9560 0.9560 0.9560 0.9540 0.9560
26.513000 0.9560 0.9580 0.9580 0.9580 0.9580
26.568718 0.9580 0.9580 0.9580 0.9560 0.9560
26.625000 0.9560 0.9560 0.9560 0.9560 0.9580
26.680718 0.9580 0.9590 0.9590 0.9590 0.9590
26.736000 0.9590 0.9580 0.9580 0.9560 0.9540
26.791718 0.9540 0.9560 0.9560 0.9580 0.9580
26.848000 0.9580 0.9580 0.9580 0.9580 0.9590
26.903718 0.9590 0.9590 0.9590 0.9590 0.9580
26.959000 0.9580 0.9560 0.9560 0.9560 0.9560
27.014718 0.9580 0.9580 0.9580 0.9580 0.9590
27.070000 0.9610 0.9610 0.9630 0.9630 0.9640
27.125718 0.9640 0.9630 0.9630 0.9610 0.9610
27.182000 0.9590 0.9590 0.9590 0.9590 0.9590
27.237718 0.9610 0.9610 0.9610 0.9610 0.9610
27.293000 0.9630 0.9630 0.9640 0.9640 0.9630
27.348718 0.9630 0.9630 0.9610 0.9610 0.9590
27.404000 0.9580 0.9560 0.9560 0.9560 0.9560
27.459718 0.9560 0.9560 0.9580 0.9580 0.9580
27.516000 0.9580 0.9590 0.9590 0.9590 0.9590
27.571718 0.9580 0.9580 0.9590 0.9610 0.9630
27.627000 0.9630 0.9610 0.9610 0.9630 0.9630
27.682718 0.9630 0.9640 0.9640 0.9640 0.9640
27.739000 0.9630 0.9640 0.9640 0.9630 0.9630
27.794718 0.9630 0.9630 0.9610 0.9610 0.9610
27.850000 0.9610 0.9610 0.9610 0.9610 0.9610
27.905718 0.9630 0.9630 0.9630 0.9640 0.9640
27.961000 0.9640 0.9640 0.9630 0.9630 0.9630
28.016718 0.9610 0.9610 0.9590 0.9590 0.9590
28.073000 0.9580 0.9580 0.9580 0.9580 0.9580
28.128718 0.9560 0.9560 0.9560 0.9560 0.9560
28.184000 0.9560 0.9560 0.9560 0.9560 0.9560
28.239718 0.9540 0.9540 0.9540 0.9540 0.9530
28.295000 0.9530 0.9540 0.9540 0.9580 0.9590
28.350718 0.9590 0.9590 0.9590 0.9590 0.9580
28.407000 0.9580 0.9580 0.9580 0.9560 0.9580
28.462718 0.9580 0.9580 0.9590 0.9590 0.9580
28.518000 0.9580 0.9560 0.9560 0.9560 0.9560
28.573718 0.9560 0.9560 0.9560 0.9580 0.9590
28.630000 0.9590 0.9590 0.9590 0.9590 0.9590
28.685718 0.9590 0.9590 0.9590 0.9590 0.9590
28.741000 0.9590 0.9610 0.9610 0.9630 0.9630
28.796718 0.9630 0.9630 0.9610 0.9610 0.9590
28.852000 0.9580 0.9580 0.9560 0.9560 0.9560
28.907718 0.9560 0.9580 0.9580 0.9590 0.9590
28.964000 0.9590 0.9610 0.9610 0.9610 0.9590
29.019718 0.9590 0.9580 0.9580 0.9580 0.9560
29.075000 0.9560 0.9560 0.9560 0.9560 0.9560
29.130718 0.9580 0.9580 0.9580 0.9560 0.9560
29.186000 0.9580 0.9590 0.9590 0.9610 0.9610
29.241718 0.9610 0.9590 0.9590 0.9590 0.9590
29.298000 0.9590 0.9580 0.9560 0.9560 0.9560
29.353718 0.9560 0.9560 0.9560 0.9560 0.9560
29.409000 0.9560 0.9560 0.9580 0.9580 0.9580
29.464718 0.9560 0.9560 0.9560 0.9580 0.9580
29.521000 0.9590 0.9590 0.9580 0.9580 0.9580
29.576718 0.9560 0.9580 0.9580 0.9580 0.9580
29.632000 0.9590 0.9590 0.9580 0.9560 0.9560
29.687718 0.9540 0.9530 0.9540 0.9540 0.9540
29.743000 0.9540 0.9560 0.9560 0.9580 0.9580
29.798718 0.9580 0.9560 0.9560 0.9540 0.9540
29.855000 0.9560 0.9560 0.9580 0.9580 0.9580
29.910718 0.9590 0.9590 0.9590 0.9590 0.9580
29.966000 0.9580 0.9580 0.9580 0.9580 0.9580
30.021718 0.9590 0.9590 0.9610 0.9610 0.9610
30.077000 0.9610 0.9610 0.9590 0.9590 0.9590
30.132718 0.9580 0.9580 0.9560 0.9540 0.9540
30.189000 0.9530 0.9530 0.9530 0.9530 0.9540
30.244718 0.9540 0.9540 0.9560 0.9560 0.9560
30.300000 0.9560 0.9560 0.9560 0.9560 0.9560
30.355718 0.9560 0.9540 0.9540 0.9540 0.9560
30.411000 0.9560 0.9560 0.9560 0.9580 0.9580
30.466718 0.9560 0.9540 0.9540 0.9540 0.9540
30.523000 0.9540 0.9560 0.9560 0.9580 0.9580
30.578718 0.9580 0.9580 0.9580 0.9560 0.9560
30.634000 0.9540 0.9540 0.9540 0.9530 0.9530
30.689718 0.9510 0.9510 0.9510 0.9510 0.9510
30.746000 0.9510 0.9510 0.9510 0.9510 0.9490
30.801718 0.9510 0.9490 0.9490 0.9490 0.9490
30.857000 0.9490 0.9470 0.9460 0.9460 0.9460
30.912718 0.9440 0.9440 0.9440 0.9440 0.9460
30.968000 0.9460 0.9460 0.9440 0.9420 0.9420
31.023718 0.9420 0.9410 0.9410 0.9390 0.9360
31.080000 0.9360 0.9340 0.9340 0.9320 0.9320
31.135718 0.9320 0.9310 0.9290 0.9270 0.9260
31.191000 0.9220 0.9190 0.9170 0.9160 0.9160
31.246718 0.9140 0.9110 0.9070 0.9060 0.9060
31.302000 0.9020 0.9020 0.9010 0.8990 0.8990
31.357718 0.8950 0.8950 0.8940 0.8920 0.8900
31.414000 0.8890 0.8870 0.8840 0.8820 0.8800
31.469718 0.8790 0.8750 0.8750 0.8720 0.8690
31.525000 0.8650 0.8640 0.8620 0.8620 0.8590
31.580718 0.8570 0.8570 0.8550 0.8550 0.8540
31.637000 0.8540 0.8520 0.8520 0.8500 0.8500
31.692718 0.8500 0.8480 0.8480 0.8470 0.8470
31.748000 0.8470 0.8470 0.8480 0.8480 0.8480
31.803718 0.8480 0.8500 0.8500 0.8520 0.8520
31.859000 0.8520 0.8540 0.8540 0.8550 0.8550
31.914718 0.8570 0.8570 0.8590 0.8600 0.8620
31.971000 0.8650 0.8690 0.8700 0.8740 0.8790
32.026718 0.8800 0.8820 0.8850 0.8870 0.8890
32.082000 0.8900 0.8920 0.8940 0.8970 0.8990
32.137718 0.8990 0.9010 0.9010 0.9040 0.9060
32.193000 0.9070 0.9090 0.9110 0.9110 0.9120
32.248718 0.9140 0.9190 0.9220 0.9240 0.9260
32.305000 0.9270 0.9270 0.9270 0.9290 0.9290
32.360718 0.9320 0.9360 0.9370 0.9370 0.9390
32.416000 0.9390 0.9390 0.9390 0.9390 0.9390
32.471718 0.9390 0.9390 0.9390 0.9390 0.9390
32.528000 0.9390 0.9390 0.9390 0.9390 0.9390
32.583718 0.9390 0.9390 0.9390 0.9390 0.9390
32.639000 0.9390 0.9410 0.9410 0.9410 0.9410
32.694718 0.9420 0.9420 0.9460 0.9470 0.9490
32.750000 0.9490 0.9490 0.9490 0.9510 0.9530
32.805718 0.9530 0.9540 0.9560 0.9580 0.9580
32.862000 0.9580 0.9590 0.9590 0.9590 0.9590
32.917718 0.9580 0.9580 0.9560 0.9540 0.9540
32.973000 0.9540 0.9530 0.9530 0.9530 0.9530
33.028718 0.9530 0.9530 0.9530 0.9530 0.9530
33.084000 0.9540 0.9540 0.9540 0.9540 0.9540
33.139718 0.9540 0.9540 0.9540 0.9540 0.9540
33.196000 0.9540 0.9530 0.9530 0.9530 0.9510
33.251718 0.9510 0.9510 0.9490 0.9490 0.9470
33.307000 0.9470 0.9470 0.9470 0.9490 0.9490
33.362718 0.9510 0.9510 0.9530 0.9530 0.9530
33.419000 0.9540 0.9540 0.9540 0.9540 0.9540
33.474718 0.9540 0.9540 0.9530 0.9530 0.9510
33.530000 0.9510 0.9490 0.9490 0.9490 0.9470
33.585718 0.9470 0.9460 0.9460 0.9470 0.9470
33.641000 0.9490 0.9510 0.9510 0.9510 0.9530
33.696718 0.9530 0.9530 0.9510 0.9510 0.9510
33.753000 0.9490 0.9470 0.9470 0.9470 0.9490
33.808718 0.9490 0.9510 0.9510 0.9530 0.9510
33.864000 0.9510 0.9510 0.9490 0.9490 0.9460
33.919718 0.9460 0.9470 0.9470 0.9470 0.9470
33.975000 0.9470 0.9460 0.9470 0.9460 0.9460
34.030718 0.9460 0.9460 0.9460 0.9460 0.9460
34.087000 0.9470 0.9460 0.9460 0.9460 0.9460
34.142718 0.9440 0.9440 0.9440 0.9420 0.9390
34.198000 0.9390 0.9370 0.9340 0.9340 0.9320
34.253718 0.9320 0.9320 0.9320 0.9320 0.9340
34.309000 0.9340 0.9340 0.9360 0.9360 0.9390
34.364718 0.9390 0.9390 0.9370 0.9370 0.9370
34.421000 0.9360 0.9360 0.9360 0.9360 0.9340
34.476718 0.9340 0.9320 0.9320 0.9320 0.9310
34.532000 0.9270 0.9260 0.9240 0.9210 0.9210
34.587718 0.9190 0.9170 0.9170 0.9170 0.9170
34.644000 0.9160 0.9160 0.9140 0.9140 0.9140
34.699718 0.9090 0.9070 0.9060 0.9060 0.9040
34.755000 0.9020 0.9020 0.9010 0.9010 0.8990
34.810718 0.8950 0.8920 0.8890 0.8850 0.8750
34.866000 0.8720 0.8720 0.8700 0.8690 0.8690
34.921718 0.8690 0.8690 0.8690 0.8690 0.8690
34.978000 0.8690 0.8670 0.8650 0.8670
##END=
