##TITLE=1-ANTHRAQUINONE SULFONIC ACID, SODIUM SALT
##JCAMP-DX=4.24
##DATA TYPE=INFRARED SPECTRUM
##CLASS=COBLENTZ
##ORIGIN=CORN PRODUCTS COMPANY
##OWNER=COBLENTZ SOCIETY
Collection (C) 2018 copyright by the U.S. Secretary of Commerce
on behalf of the United States of America. All rights reserved.
##DATE=Not specified, most likely prior to 1970
##MOLFORM=C14 H7 O5 S Na
##SOURCE REFERENCE=COBLENTZ NO. 4618
##$NIST ID=B6004618
##$NIST SOURCE=COBLENTZ
##$NIST IMAGE=cob4618
##SPECTROMETER/DATA SYSTEM=Not specified, most likely a prism, grating, or hybrid spectrometer.
##STATE=SOLID (KBr PELLET)
##SAMPLING PROCEDURE=TRANSMISSION
##RESOLUTION=4
##DATA PROCESSING=DIGITIZED BY NIST FROM HARD COPY
##XUNITS=MICROMETERS
##YUNITS=TRANSMITTANCE
##XFACTOR=1.000000
##YFACTOR=1
##DELTAX=000.006765
##FIRSTX=2.034
##LASTX=15.5434
##FIRSTY=0.693
##MAXX=15.5434
##MINX=2.034
##MAXY=0.809
##MINY=0.139
##NPOINTS=1998
##XYDATA=(X++(Y..Y))
2.034000 0.6930 0.6930 0.6950 0.6950 0.6970
2.067842 0.6970 0.6980 0.6980 0.7000 0.7000
2.101000 0.7000 0.7020 0.7020 0.7020 0.7020
2.134842 0.7040 0.7040 0.7070 0.7090 0.7100
2.169000 0.7100 0.7120 0.7120 0.7120 0.7120
2.202842 0.7140 0.7140 0.7150 0.7150 0.7170
2.237000 0.7170 0.7170 0.7190 0.7190 0.7210
2.270842 0.7210 0.7210 0.7220 0.7240 0.7260
2.304000 0.7270 0.7270 0.7270 0.7290 0.7290
2.337842 0.7310 0.7320 0.7320 0.7320 0.7340
2.372000 0.7340 0.7340 0.7360 0.7360 0.7360
2.405842 0.7380 0.7380 0.7380 0.7380 0.7380
2.440000 0.7390 0.7390 0.7410 0.7410 0.7430
2.473842 0.7430 0.7430 0.7440 0.7460 0.7480
2.507000 0.7480 0.7480 0.7480 0.7500 0.7500
2.540842 0.7510 0.7510 0.7510 0.7530 0.7530
2.575000 0.7530 0.7530 0.7530 0.7530 0.7530
2.608842 0.7530 0.7530 0.7530 0.7530 0.7530
2.643000 0.7530 0.7530 0.7550 0.7550 0.7550
2.676842 0.7560 0.7560 0.7560 0.7580 0.7580
2.710000 0.7600 0.7600 0.7600 0.7600 0.7600
2.743842 0.7580 0.7580 0.7510 0.7410 0.7310
2.778000 0.7140 0.6950 0.6750 0.6540 0.6340
2.811842 0.6150 0.5980 0.5810 0.5660 0.5540
2.846000 0.5420 0.5340 0.5270 0.5220 0.5150
2.879842 0.5100 0.5030 0.4980 0.4890 0.4840
2.913000 0.4820 0.4790 0.4770 0.4760 0.4740
2.946842 0.4740 0.4740 0.4740 0.4760 0.4770
2.981000 0.4820 0.4910 0.5050 0.5150 0.5250
3.014842 0.5350 0.5450 0.5570 0.5690 0.5790
3.049000 0.5900 0.6000 0.6100 0.6190 0.6250
3.082842 0.6300 0.6360 0.6420 0.6470 0.6540
3.116000 0.6590 0.6630 0.6640 0.6680 0.6710
3.149842 0.6730 0.6800 0.6850 0.6900 0.6930
3.184000 0.6980 0.7000 0.7020 0.7020 0.7050
3.217842 0.7070 0.7100 0.7140 0.7150 0.7170
3.252000 0.7190 0.7190 0.7170 0.7170 0.7150
3.285842 0.7140 0.7120 0.7100 0.7050 0.7020
3.319000 0.7020 0.7050 0.7100 0.7140 0.7170
3.352842 0.7220 0.7240 0.7260 0.7290 0.7320
3.387000 0.7360 0.7390 0.7430 0.7440 0.7460
3.420842 0.7480 0.7500 0.7530 0.7550 0.7560
3.454000 0.7560 0.7580 0.7580 0.7600 0.7600
3.487842 0.7610 0.7630 0.7630 0.7650 0.7670
3.522000 0.7680 0.7700 0.7720 0.7730 0.7730
3.555842 0.7750 0.7750 0.7750 0.7770 0.7770
3.590000 0.7770 0.7780 0.7780 0.7800 0.7800
3.623842 0.7820 0.7820 0.7840 0.7840 0.7840
3.657000 0.7840 0.7840 0.7840 0.7840 0.7850
3.690842 0.7850 0.7850 0.7850 0.7850 0.7850
3.725000 0.7870 0.7870 0.7870 0.7870 0.7870
3.758842 0.7870 0.7870 0.7890 0.7890 0.7890
3.793000 0.7890 0.7890 0.7890 0.7890 0.7890
3.826842 0.7890 0.7890 0.7890 0.7890 0.7890
3.860000 0.7890 0.7890 0.7890 0.7890 0.7890
3.893842 0.7870 0.7870 0.7870 0.7870 0.7890
3.928000 0.7890 0.7890 0.7890 0.7900 0.7900
3.961842 0.7900 0.7900 0.7920 0.7920 0.7920
3.996000 0.7920 0.7920 0.7920 0.7920 0.7920
4.029842 0.7920 0.7920 0.7900 0.7890 0.7890
4.063000 0.7870 0.7870 0.7870 0.7870 0.7870
4.096842 0.7890 0.7900 0.7920 0.7920 0.7920
4.131000 0.7920 0.7920 0.7940 0.7940 0.7940
4.164842 0.7940 0.7940 0.7940 0.7940 0.7940
4.199000 0.7940 0.7940 0.7940 0.7940 0.7920
4.232842 0.7920 0.7920 0.7900 0.7890 0.7890
4.266000 0.7890 0.7890 0.7890 0.7890 0.7890
4.299842 0.7900 0.7900 0.7900 0.7900 0.7900
4.334000 0.7900 0.7920 0.7920 0.7920 0.7920
4.367842 0.7940 0.7940 0.7940 0.7920 0.7920
4.402000 0.7920 0.7920 0.7920 0.7920 0.7920
4.435842 0.7920 0.7920 0.7920 0.7920 0.7920
4.469000 0.7920 0.7920 0.7920 0.7920 0.7920
4.502842 0.7920 0.7920 0.7920 0.7920 0.7920
4.537000 0.7920 0.7940 0.7940 0.7950 0.7970
4.570842 0.7970 0.7970 0.7970 0.7970 0.7950
4.605000 0.7950 0.7940 0.7940 0.7920 0.7920
4.638842 0.7940 0.7940 0.7950 0.7970 0.7970
4.672000 0.7970 0.7970 0.7990 0.7990 0.7990
4.705842 0.7990 0.7990 0.7990 0.7990 0.7990
4.740000 0.7990 0.7970 0.7970 0.7970 0.7950
4.773842 0.7950 0.7950 0.7940 0.7940 0.7940
4.808000 0.7920 0.7920 0.7920 0.7900 0.7900
4.841842 0.7900 0.7920 0.7920 0.7940 0.7940
4.875000 0.7950 0.7950 0.7950 0.7970 0.7970
4.908842 0.7990 0.7990 0.7990 0.7990 0.7970
4.943000 0.7970 0.7970 0.7970 0.7950 0.7950
4.976842 0.7950 0.7950 0.7950 0.7940 0.7940
5.010000 0.7940 0.7940 0.7920 0.7920 0.7920
5.043842 0.7920 0.7920 0.7920 0.7920 0.7920
5.078000 0.7920 0.7920 0.7920 0.7940 0.7940
5.111842 0.7940 0.7950 0.7950 0.7970 0.7970
5.146000 0.7970 0.7970 0.7970 0.7970 0.7970
5.179842 0.7970 0.7970 0.7970 0.7970 0.7970
5.213000 0.7990 0.7990 0.7990 0.8010 0.8010
5.246842 0.8020 0.8020 0.8020 0.8020 0.8020
5.281000 0.8020 0.8010 0.8010 0.7990 0.7990
5.314842 0.7970 0.7970 0.7970 0.7970 0.7970
5.349000 0.7970 0.7990 0.7990 0.8010 0.8010
5.382842 0.8020 0.8020 0.8040 0.8040 0.8040
5.416000 0.8060 0.8060 0.8060 0.8070 0.8070
5.449842 0.8070 0.8070 0.8090 0.8090 0.8090
5.484000 0.8090 0.8090 0.8090 0.8090 0.8090
5.517842 0.8090 0.8090 0.8070 0.8070 0.8070
5.552000 0.8060 0.8040 0.8040 0.8040 0.8040
5.585842 0.8040 0.8020 0.8010 0.7990 0.7950
5.619000 0.7940 0.7920 0.7920 0.7900 0.7900
5.652842 0.7900 0.7900 0.7900 0.7900 0.7890
5.687000 0.7890 0.7890 0.7890 0.7890 0.7900
5.720842 0.7900 0.7890 0.7890 0.7870 0.7850
5.755000 0.7840 0.7780 0.7750 0.7730 0.7680
5.788842 0.7610 0.7560 0.7500 0.7440 0.7430
5.822000 0.7390 0.7340 0.7240 0.7140 0.6900
5.855842 0.6530 0.6100 0.5610 0.5110 0.4620
5.890000 0.4180 0.3800 0.3430 0.3410 0.3410
5.923842 0.3410 0.3410 0.3410 0.3400 0.3330
5.958000 0.3290 0.2970 0.2970 0.3290 0.3870
5.991842 0.4470 0.5060 0.5490 0.5760 0.5950
6.025000 0.6020 0.6070 0.6100 0.6130 0.6170
6.058842 0.6190 0.6200 0.6220 0.6220 0.6240
6.093000 0.6240 0.6220 0.6200 0.6200 0.6200
6.126842 0.6200 0.6200 0.6220 0.6240 0.6300
6.161000 0.6360 0.6390 0.6460 0.6490 0.6530
6.194842 0.6580 0.6640 0.6710 0.6730 0.6750
6.228000 0.6750 0.6750 0.6730 0.6580 0.6250
6.261842 0.5950 0.5760 0.5590 0.5490 0.5450
6.296000 0.5300 0.5110 0.4890 0.4690 0.4500
6.329842 0.4370 0.4350 0.4370 0.4720 0.5420
6.363000 0.5640 0.5850 0.6030 0.6190 0.6340
6.396842 0.6490 0.6630 0.6760 0.6900 0.7020
6.431000 0.7190 0.7310 0.7360 0.7480 0.7550
6.464842 0.7580 0.7600 0.7600 0.7610 0.7630
6.499000 0.7630 0.7650 0.7680 0.7700 0.7730
6.532842 0.7750 0.7770 0.7780 0.7800 0.7800
6.566000 0.7820 0.7820 0.7840 0.7840 0.7850
6.599842 0.7870 0.7870 0.7890 0.7890 0.7900
6.634000 0.7900 0.7900 0.7900 0.7920 0.7920
6.667842 0.7920 0.7940 0.7940 0.7940 0.7940
6.702000 0.7920 0.7920 0.7900 0.7890 0.7870
6.735842 0.7850 0.7800 0.7730 0.7720 0.7720
6.769000 0.7700 0.7700 0.7700 0.7700 0.7700
6.802842 0.7720 0.7770 0.7780 0.7800 0.7800
6.837000 0.7800 0.7800 0.7800 0.7780 0.7750
6.870842 0.7730 0.7720 0.7720 0.7730 0.7750
6.905000 0.7770 0.7800 0.7770 0.7770 0.7750
6.938842 0.7730 0.7730 0.7750 0.7770 0.7780
6.972000 0.7800 0.7800 0.7780 0.7780 0.7750
7.005842 0.7720 0.7680 0.7650 0.7630 0.7560
7.040000 0.7510 0.7500 0.7500 0.7510 0.7530
7.073842 0.7560 0.7630 0.7670 0.7680 0.7700
7.108000 0.7700 0.7700 0.7700 0.7700 0.7720
7.141842 0.7720 0.7720 0.7720 0.7720 0.7720
7.175000 0.7720 0.7720 0.7720 0.7730 0.7730
7.208842 0.7700 0.7700 0.7580 0.7560 0.7560
7.243000 0.7550 0.7550 0.7550 0.7560 0.7560
7.276842 0.7580 0.7600 0.7600 0.7610 0.7610
7.311000 0.7610 0.7600 0.7600 0.7600 0.7580
7.344842 0.7580 0.7580 0.7560 0.7550 0.7530
7.378000 0.7530 0.7510 0.7500 0.7460 0.7430
7.411842 0.7390 0.7380 0.7340 0.7320 0.7240
7.446000 0.7050 0.6830 0.6510 0.6320 0.6030
7.479842 0.5570 0.5220 0.4930 0.4590 0.4350
7.514000 0.4210 0.4200 0.4210 0.4250 0.4260
7.547842 0.4230 0.3960 0.3790 0.3360 0.2800
7.581000 0.2650 0.2500 0.2270 0.2070 0.1930
7.614842 0.1900 0.1880 0.1880 0.1900 0.1950
7.649000 0.1980 0.2100 0.2460 0.2610 0.2850
7.682842 0.3160 0.3480 0.3820 0.4140 0.4500
7.716000 0.4930 0.5060 0.5170 0.5300 0.5390
7.749842 0.5420 0.5420 0.5390 0.5300 0.5170
7.784000 0.4980 0.4810 0.4430 0.3970 0.3460
7.817842 0.2990 0.2600 0.2320 0.2000 0.1900
7.852000 0.1640 0.1510 0.1490 0.1510 0.1700
7.885842 0.1950 0.2320 0.2630 0.2900 0.3110
7.919000 0.3290 0.3430 0.3530 0.3550 0.3600
7.952842 0.3630 0.3670 0.3690 0.3690 0.3670
7.987000 0.3650 0.3520 0.3400 0.3120 0.2920
8.020842 0.2720 0.2560 0.2410 0.2290 0.2150
8.055000 0.2070 0.1980 0.1950 0.1920 0.1870
8.088842 0.1850 0.1830 0.1830 0.1810 0.1810
8.122000 0.1810 0.1810 0.1810 0.1810 0.1810
8.155842 0.1800 0.1800 0.1800 0.1780 0.1780
8.190000 0.1750 0.1730 0.1680 0.1610 0.1580
8.223842 0.1560 0.1530 0.1530 0.1510 0.1490
8.258000 0.1490 0.1470 0.1470 0.1460 0.1440
8.291842 0.1440 0.1420 0.1410 0.1390 0.1390
8.325000 0.1390 0.1410 0.1420 0.1460 0.1560
8.358842 0.1760 0.1870 0.1950 0.2050 0.2170
8.393000 0.2360 0.2610 0.2780 0.2920 0.3040
8.426842 0.3160 0.3260 0.3350 0.3500 0.3720
8.461000 0.3790 0.3820 0.3870 0.3920 0.3990
8.494842 0.4080 0.4180 0.4310 0.4370 0.4450
8.528000 0.4550 0.4620 0.4640 0.4690 0.4710
8.561842 0.4710 0.4710 0.4720 0.4720 0.4760
8.596000 0.4770 0.4770 0.4790 0.4790 0.4790
8.629842 0.4790 0.4790 0.4790 0.4770 0.4770
8.664000 0.4760 0.4740 0.4740 0.4760 0.4790
8.697842 0.4820 0.4890 0.4960 0.5000 0.5000
8.731000 0.4940 0.4930 0.4840 0.4760 0.4720
8.764842 0.4710 0.4650 0.4640 0.4640 0.4650
8.799000 0.4790 0.4980 0.5150 0.5320 0.5450
8.832842 0.5570 0.5660 0.5730 0.5740 0.5850
8.867000 0.5910 0.5950 0.5980 0.6000 0.6020
8.900842 0.6030 0.6100 0.6150 0.6190 0.6200
8.934000 0.6200 0.6240 0.6270 0.6270 0.6320
8.967842 0.6320 0.6340 0.6360 0.6390 0.6410
9.002000 0.6440 0.6460 0.6460 0.6460 0.6460
9.035842 0.6470 0.6510 0.6560 0.6610 0.6660
9.069000 0.6700 0.6700 0.6710 0.6730 0.6750
9.102842 0.6760 0.6780 0.6780 0.6800 0.6810
9.137000 0.6830 0.6830 0.6850 0.6850 0.6850
9.170842 0.6850 0.6830 0.6830 0.6800 0.6730
9.205000 0.6590 0.6540 0.6490 0.6460 0.6460
9.238842 0.6440 0.6440 0.6440 0.6460 0.6470
9.272000 0.6510 0.6540 0.6580 0.6590 0.6640
9.305842 0.6730 0.6760 0.6800 0.6810 0.6810
9.340000 0.6830 0.6850 0.6850 0.6850 0.6830
9.373842 0.6810 0.6800 0.6730 0.6640 0.6530
9.408000 0.6440 0.6370 0.6320 0.6240 0.6080
9.441842 0.5880 0.5540 0.5270 0.4930 0.4760
9.475000 0.4470 0.3410 0.3140 0.2990 0.2650
9.508842 0.2480 0.2360 0.2290 0.2260 0.2220
9.543000 0.2210 0.2210 0.2210 0.2220 0.2240
9.576842 0.2270 0.2340 0.2380 0.2460 0.2510
9.611000 0.2870 0.3260 0.3520 0.3720 0.4040
9.644842 0.4260 0.4670 0.5170 0.5440 0.5640
9.678000 0.5830 0.6000 0.6130 0.6250 0.6370
9.711842 0.6470 0.6580 0.6700 0.6760 0.6810
9.746000 0.6850 0.6900 0.6920 0.6930 0.6950
9.779842 0.6970 0.6980 0.7020 0.7040 0.7070
9.814000 0.7100 0.7100 0.7100 0.7100 0.7120
9.847842 0.7140 0.7140 0.7140 0.7140 0.7140
9.881000 0.7140 0.7150 0.7150 0.7150 0.7170
9.914842 0.7190 0.7190 0.7190 0.7190 0.7190
9.949000 0.7190 0.7190 0.7190 0.7210 0.7210
9.982842 0.7210 0.7210 0.7210 0.7220 0.7220
10.017000 0.7220 0.7220 0.7220 0.7210 0.7190
10.050842 0.7170 0.7170 0.7150 0.7150 0.7170
10.084000 0.7190 0.7190 0.7210 0.7210 0.7210
10.117842 0.7210 0.7210 0.7210 0.7210 0.7210
10.152000 0.7210 0.7210 0.7210 0.7220 0.7220
10.185842 0.7240 0.7240 0.7220 0.7190 0.7190
10.220000 0.7170 0.7150 0.7150 0.7140 0.7120
10.253842 0.7090 0.6980 0.6970 0.6920 0.6900
10.287000 0.6880 0.6850 0.6810 0.6800 0.6780
10.320842 0.6780 0.6780 0.6780 0.6760 0.6750
10.355000 0.6700 0.6630 0.6560 0.6490 0.6410
10.388842 0.6320 0.6120 0.5830 0.5540 0.5230
10.423000 0.4980 0.4770 0.4470 0.4310 0.4180
10.456842 0.4040 0.3940 0.3920 0.3940 0.4010
10.490000 0.4080 0.4230 0.4480 0.4810 0.5110
10.523842 0.5400 0.5590 0.5760 0.5830 0.5980
10.558000 0.6170 0.6320 0.6420 0.6490 0.6560
10.591842 0.6630 0.6710 0.6780 0.6830 0.6900
10.625000 0.6930 0.6950 0.6970 0.7000 0.7000
10.658842 0.7040 0.7100 0.7120 0.7140 0.7140
10.693000 0.7150 0.7190 0.7220 0.7240 0.7240
10.726842 0.7240 0.7290 0.7310 0.7320 0.7320
10.761000 0.7340 0.7360 0.7390 0.7390 0.7410
10.794842 0.7410 0.7440 0.7460 0.7460 0.7480
10.828000 0.7480 0.7480 0.7480 0.7460 0.7440
10.861842 0.7440 0.7430 0.7390 0.7320 0.7270
10.896000 0.7210 0.7070 0.6920 0.6760 0.6680
10.929842 0.6610 0.6590 0.6590 0.6610 0.6660
10.964000 0.6700 0.6730 0.6780 0.6830 0.6900
10.997842 0.6970 0.7040 0.7090 0.7150 0.7190
11.031000 0.7220 0.7220 0.7240 0.7240 0.7240
11.064842 0.7240 0.7220 0.7220 0.7220 0.7220
11.099000 0.7220 0.7220 0.7220 0.7220 0.7220
11.132842 0.7220 0.7240 0.7240 0.7260 0.7290
11.167000 0.7290 0.7310 0.7310 0.7320 0.7340
11.200842 0.7340 0.7360 0.7380 0.7380 0.7390
11.234000 0.7390 0.7390 0.7410 0.7410 0.7410
11.267842 0.7430 0.7430 0.7440 0.7460 0.7460
11.302000 0.7460 0.7480 0.7480 0.7480 0.7500
11.335842 0.7500 0.7500 0.7480 0.7480 0.7480
11.370000 0.7480 0.7480 0.7480 0.7480 0.7480
11.403842 0.7500 0.7500 0.7510 0.7510 0.7510
11.437000 0.7510 0.7510 0.7530 0.7530 0.7530
11.470842 0.7530 0.7530 0.7530 0.7530 0.7550
11.505000 0.7550 0.7550 0.7530 0.7530 0.7530
11.538842 0.7530 0.7530 0.7530 0.7530 0.7530
11.573000 0.7530 0.7550 0.7550 0.7550 0.7550
11.606842 0.7550 0.7550 0.7550 0.7530 0.7510
11.640000 0.7510 0.7510 0.7510 0.7510 0.7510
11.673842 0.7510 0.7510 0.7510 0.7530 0.7550
11.708000 0.7550 0.7550 0.7550 0.7550 0.7550
11.741842 0.7550 0.7530 0.7530 0.7510 0.7510
11.776000 0.7510 0.7510 0.7510 0.7510 0.7510
11.809842 0.7510 0.7510 0.7510 0.7500 0.7480
11.843000 0.7460 0.7440 0.7430 0.7410 0.7410
11.876842 0.7410 0.7410 0.7410 0.7390 0.7360
11.911000 0.7320 0.7270 0.7190 0.7090 0.7020
11.944842 0.6980 0.6870 0.6780 0.6750 0.6640
11.978000 0.6530 0.6460 0.6340 0.6290 0.6170
12.011842 0.6150 0.6170 0.6340 0.6490 0.6640
12.046000 0.6800 0.6920 0.7000 0.7020 0.7070
12.079842 0.7140 0.7210 0.7220 0.7260 0.7320
12.114000 0.7380 0.7410 0.7430 0.7440 0.7460
12.147842 0.7500 0.7510 0.7510 0.7480 0.7480
12.181000 0.7460 0.7440 0.7440 0.7440 0.7460
12.214842 0.7480 0.7480 0.7480 0.7460 0.7460
12.249000 0.7440 0.7410 0.7360 0.7340 0.7310
12.282842 0.7270 0.7260 0.7240 0.7100 0.7090
12.317000 0.7070 0.7020 0.7000 0.6980 0.6950
12.350842 0.6930 0.6870 0.6850 0.6750 0.6680
12.384000 0.6590 0.6580 0.6470 0.6370 0.6300
12.417842 0.6250 0.6170 0.6070 0.5960 0.5860
12.452000 0.5590 0.5420 0.5340 0.5280 0.5280
12.485842 0.5320 0.5510 0.5660 0.5810 0.5980
12.520000 0.6120 0.6240 0.6360 0.6440 0.6510
12.553842 0.6590 0.6730 0.6850 0.6970 0.7040
12.587000 0.7190 0.7270 0.7320 0.7320 0.7340
12.620842 0.7340 0.7360 0.7360 0.7360 0.7380
12.655000 0.7380 0.7380 0.7380 0.7390 0.7390
12.688842 0.7430 0.7460 0.7480 0.7500 0.7500
12.723000 0.7460 0.7440 0.7430 0.7430 0.7410
12.756842 0.7410 0.7430 0.7430 0.7440 0.7440
12.790000 0.7460 0.7480 0.7500 0.7500 0.7510
12.823842 0.7510 0.7530 0.7530 0.7550 0.7550
12.858000 0.7530 0.7530 0.7510 0.7510 0.7510
12.891842 0.7510 0.7510 0.7530 0.7530 0.7550
12.926000 0.7560 0.7560 0.7580 0.7580 0.7630
12.959842 0.7650 0.7650 0.7610 0.7600 0.7580
12.993000 0.7560 0.7550 0.7530 0.7510 0.7500
13.026842 0.7500 0.7480 0.7480 0.7480 0.7480
13.061000 0.7480 0.7480 0.7460 0.7460 0.7440
13.094842 0.7440 0.7430 0.7410 0.7390 0.7390
13.129000 0.7340 0.7310 0.7260 0.7190 0.7120
13.162842 0.6980 0.6970 0.6900 0.6800 0.6710
13.196000 0.6540 0.6370 0.6240 0.6120 0.6020
13.229842 0.5880 0.5780 0.5730 0.5680 0.5610
13.264000 0.5540 0.5520 0.5510 0.5520 0.5570
13.297842 0.5740 0.5860 0.5960 0.6030 0.6080
13.331000 0.6130 0.6200 0.6290 0.6390 0.6470
13.364842 0.6530 0.6590 0.6630 0.6680 0.6710
13.399000 0.6810 0.6900 0.6950 0.6980 0.7020
13.432842 0.7040 0.7050 0.7070 0.7090 0.7120
13.467000 0.7140 0.7170 0.7190 0.7210 0.7210
13.500842 0.7240 0.7240 0.7240 0.7240 0.7240
13.534000 0.7220 0.7220 0.7210 0.7190 0.7150
13.567842 0.7140 0.7100 0.7070 0.7020 0.6980
13.602000 0.6950 0.6900 0.6870 0.6830 0.6760
13.635842 0.6700 0.6660 0.6590 0.6510 0.6410
13.670000 0.6340 0.6250 0.6200 0.6150 0.6070
13.703842 0.6030 0.6000 0.5960 0.5930 0.5910
13.737000 0.5930 0.6000 0.6070 0.6130 0.6200
13.770842 0.6290 0.6360 0.6420 0.6460 0.6580
13.805000 0.6660 0.6730 0.6760 0.6800 0.6830
13.838842 0.6870 0.6900 0.6930 0.6980 0.7000
13.873000 0.7020 0.7040 0.7050 0.7070 0.7090
13.906842 0.7100 0.7100 0.7090 0.7090 0.7070
13.940000 0.7040 0.7000 0.6970 0.6950 0.6930
13.973842 0.6920 0.6900 0.6880 0.6830 0.6780
14.008000 0.6710 0.6660 0.6630 0.6560 0.6460
14.041842 0.6370 0.6240 0.6080 0.5910 0.5810
14.076000 0.5690 0.5570 0.5490 0.5370 0.5230
14.109842 0.5010 0.4820 0.4650 0.4520 0.4450
14.143000 0.4350 0.4160 0.3990 0.3700 0.3570
14.176842 0.3410 0.3260 0.3090 0.2920 0.2770
14.211000 0.2610 0.2480 0.2360 0.2270 0.2210
14.244842 0.2150 0.2140 0.2140 0.2150 0.2260
14.279000 0.2430 0.2700 0.3020 0.3380 0.3750
14.312842 0.4110 0.4450 0.4720 0.4910 0.5080
14.346000 0.5230 0.5400 0.5560 0.5730 0.5860
14.379842 0.5950 0.6000 0.6100 0.6190 0.6240
14.414000 0.6270 0.6300 0.6340 0.6390 0.6420
14.447842 0.6490 0.6560 0.6610 0.6630 0.6640
14.482000 0.6680 0.6710 0.6750 0.6780 0.6810
14.515842 0.6810 0.6830 0.6850 0.6880 0.6920
14.549000 0.6950 0.6970 0.6970 0.6980 0.6980
14.582842 0.6980 0.6980 0.6980 0.6980 0.6980
14.617000 0.7000 0.7000 0.7000 0.6980 0.6970
14.650842 0.6950 0.6930 0.6930 0.6930 0.6930
14.685000 0.6950 0.6970 0.6980 0.7000 0.7000
14.718842 0.7000 0.7000 0.6980 0.6970 0.6970
14.752000 0.6950 0.6930 0.6930 0.6930 0.6930
14.785842 0.6950 0.6950 0.6970 0.6970 0.6950
14.820000 0.6930 0.6930 0.6930 0.6950 0.6970
14.853842 0.6970 0.6950 0.6930 0.6930 0.6930
14.887000 0.6930 0.6920 0.6920 0.6900 0.6900
14.920842 0.6880 0.6870 0.6830 0.6780 0.6760
14.955000 0.6700 0.6640 0.6610 0.6580 0.6580
14.988842 0.6540 0.6510 0.6510 0.6470 0.6410
15.023000 0.6360 0.6240 0.6150 0.5980 0.5830
15.056842 0.5690 0.5560 0.5440 0.5300 0.5180
15.090000 0.5030 0.4860 0.4710 0.4520 0.4330
15.123842 0.4210 0.4080 0.3970 0.3920 0.3770
15.158000 0.3650 0.3600 0.3550 0.3520 0.3500
15.191842 0.3480 0.3480 0.3460 0.3460 0.3480
15.226000 0.3480 0.3500 0.3520 0.3580 0.3650
15.259842 0.3700 0.3750 0.3820 0.3910 0.4010
15.293000 0.4160 0.4350 0.4600 0.4910 0.4980
15.326842 0.5050 0.5130 0.5230 0.5350 0.5510
15.361000 0.5680 0.5760 0.5830 0.5850 0.5900
15.394842 0.5960 0.6050 0.6100 0.6120 0.6150
15.429000 0.6190 0.6200 0.6240 0.6270 0.6300
15.462842 0.6300 0.6300 0.6340 0.6340 0.6360
15.496000 0.6360 0.6360 0.6360 0.6340 0.6340
15.529842 0.6340 0.6340 0.6320
##END=
