##TITLE=1,1'-(5-PHENYL-1,1,3,3,5,5-HEXAMETHYLTRISILOXANYL)-FERROCENE
##JCAMP-DX=4.24
##DATA TYPE=INFRARED SPECTRUM
##CLASS=COBLENTZ
##ORIGIN=WYANDOTTE CHEMICALS CORP., WYANDOTTE, MICHIGAN, USA
##OWNER=COBLENTZ SOCIETY
Collection (C) 2018 copyright by the U.S. Secretary of Commerce
on behalf of the United States of America. All rights reserved.
##DATE=Not specified, most likely prior to 1970
##NAMES=bis[5-(1,1,3,3,5,5-hexamethyl-5-phenyltrisiloxanyl)-1,3-cyclopentadien-1-yl]iron
##MOLFORM=C34 H54 Fe O4 Si6
##SOURCE REFERENCE=COBLENTZ NO. 2681
##$NIST ID=B6002681
##$NIST SOURCE=COBLENTZ
##$NIST IMAGE=cob2681
##SPECTROMETER/DATA SYSTEM=Not specified, most likely a prism, grating, or hybrid spectrometer.
##STATE=LIQUID
##PATH LENGTH=CAPILLARY
##SAMPLING PROCEDURE=TRANSMISSION
##RESOLUTION=4
##DATA PROCESSING=DIGITIZED BY NIST FROM HARD COPY
##XUNITS=MICROMETERS
##YUNITS=TRANSMITTANCE
##XFACTOR=1.000000
##YFACTOR=1
##DELTAX=000.006623
##FIRSTX=2.06
##LASTX=16.0068
##FIRSTY=0.983
##MAXX=16.0068
##MINX=2.06
##MAXY=1
##MINY=0.041
##NPOINTS=2107
##XYDATA=(X++(Y..Y))
2.060000 0.9830 0.9810 0.9810 0.9810 0.9810
2.093128 0.9830 0.9830 0.9850 0.9850 0.9880
2.126000 0.9880 0.9880 0.9900 0.9900 0.9900
2.159128 0.9900 0.9900 0.9880 0.9880 0.9880
2.192000 0.9860 0.9850 0.9850 0.9850 0.9850
2.225128 0.9850 0.9850 0.9860 0.9860 0.9860
2.258000 0.9860 0.9860 0.9860 0.9860 0.9880
2.291128 0.9880 0.9880 0.9900 0.9900 0.9900
2.325000 0.9900 0.9900 0.9900 0.9900 0.9880
2.358128 0.9850 0.9830 0.9810 0.9800 0.9780
2.391000 0.9780 0.9800 0.9810 0.9810 0.9800
2.424128 0.9800 0.9810 0.9810 0.9810 0.9810
2.457000 0.9810 0.9810 0.9830 0.9860 0.9900
2.490128 0.9900 0.9900 0.9910 0.9910 0.9930
2.523000 0.9930 0.9910 0.9910 0.9900 0.9860
2.556128 0.9830 0.9810 0.9800 0.9800 0.9830
2.589000 0.9850 0.9860 0.9860 0.9860 0.9860
2.622128 0.9850 0.9830 0.9830 0.9830 0.9830
2.656000 0.9830 0.9850 0.9850 0.9860 0.9860
2.689128 0.9860 0.9880 0.9880 0.9900 0.9900
2.722000 0.9900 0.9900 0.9900 0.9900 0.9900
2.755128 0.9900 0.9900 0.9900 0.9900 0.9900
2.788000 0.9900 0.9900 0.9880 0.9880 0.9860
2.821128 0.9850 0.9850 0.9850 0.9850 0.9850
2.854000 0.9860 0.9860 0.9860 0.9860 0.9860
2.887128 0.9860 0.9860 0.9860 0.9860 0.9860
2.921000 0.9860 0.9860 0.9860 0.9850 0.9850
2.954128 0.9850 0.9850 0.9850 0.9830 0.9830
2.987000 0.9830 0.9830 0.9830 0.9830 0.9810
3.020128 0.9810 0.9810 0.9780 0.9780 0.9760
3.053000 0.9760 0.9760 0.9760 0.9760 0.9760
3.086128 0.9750 0.9750 0.9750 0.9730 0.9710
3.119000 0.9710 0.9700 0.9680 0.9650 0.9610
3.152128 0.9600 0.9580 0.9530 0.9450 0.9300
3.185000 0.9190 0.8970 0.8710 0.8420 0.8260
3.218128 0.8030 0.7810 0.7800 0.7810 0.7980
3.252000 0.8090 0.8230 0.8390 0.8420 0.8420
3.285128 0.8390 0.8290 0.8240 0.8160 0.7810
3.318000 0.6770 0.5860 0.4940 0.4940 0.5140
3.351128 0.5850 0.6390 0.7650 0.8080 0.8390
3.384000 0.8410 0.8410 0.8390 0.8140 0.8130
3.417128 0.8160 0.8410 0.8660 0.8870 0.8990
3.450000 0.9070 0.9190 0.9270 0.9320 0.9350
3.483128 0.9400 0.9420 0.9430 0.9450 0.9450
3.517000 0.9470 0.9470 0.9470 0.9470 0.9480
3.550128 0.9480 0.9480 0.9500 0.9530 0.9580
3.583000 0.9610 0.9660 0.9730 0.9780 0.9800
3.616128 0.9810 0.9810 0.9810 0.9810 0.9810
3.649000 0.9810 0.9830 0.9830 0.9850 0.9850
3.682128 0.9860 0.9860 0.9860 0.9860 0.9860
3.715000 0.9860 0.9860 0.9860 0.9860 0.9860
3.748128 0.9860 0.9860 0.9860 0.9880 0.9880
3.781000 0.9900 0.9900 0.9900 0.9900 0.9900
3.814128 0.9900 0.9900 0.9900 0.9900 0.9900
3.848000 0.9900 0.9900 0.9900 0.9900 0.9930
3.881128 0.9930 0.9930 0.9930 0.9930 0.9930
3.914000 0.9950 0.9950 0.9950 0.9960 0.9960
3.947128 0.9960 0.9960 0.9960 0.9960 0.9960
3.980000 0.9960 0.9960 0.9960 0.9950 0.9930
4.013128 0.9930 0.9900 0.9880 0.9860 0.9850
4.046000 0.9850 0.9850 0.9850 0.9850 0.9850
4.079128 0.9860 0.9860 0.9880 0.9880 0.9900
4.113000 0.9900 0.9900 0.9900 0.9900 0.9880
4.146128 0.9880 0.9860 0.9860 0.9860 0.9860
4.179000 0.9860 0.9880 0.9880 0.9880 0.9880
4.212128 0.9860 0.9850 0.9850 0.9850 0.9860
4.245000 0.9880 0.9910 0.9950 0.9950 0.9960
4.278128 0.9960 0.9950 0.9950 0.9950 0.9950
4.311000 0.9950 0.9960 0.9980 0.9980 0.9980
4.344128 0.9980 1.0000 1.0000 1.0000 1.0000
4.377000 1.0000 1.0000 1.0000 1.0000 0.9980
4.410128 0.9960 0.9930 0.9930 0.9930 0.9950
4.444000 0.9950 0.9930 0.9910 0.9910 0.9900
4.477128 0.9900 0.9900 0.9910 0.9930 0.9930
4.510000 0.9930 0.9930 0.9930 0.9930 0.9930
4.543128 0.9910 0.9900 0.9900 0.9900 0.9900
4.576000 0.9900 0.9900 0.9900 0.9900 0.9900
4.609128 0.9900 0.9900 0.9900 0.9930 0.9950
4.642000 0.9960 0.9960 0.9980 0.9980 0.9980
4.675128 0.9980 0.9980 0.9980 0.9980 0.9960
4.709000 0.9960 0.9960 0.9950 0.9930 0.9930
4.742128 0.9930 0.9950 0.9950 0.9950 0.9960
4.775000 0.9960 0.9960 0.9960 0.9960 0.9950
4.808128 0.9950 0.9950 0.9930 0.9930 0.9930
4.841000 0.9910 0.9900 0.9900 0.9880 0.9860
4.874128 0.9860 0.9860 0.9880 0.9880 0.9900
4.907000 0.9900 0.9900 0.9880 0.9880 0.9880
4.940128 0.9880 0.9900 0.9910 0.9910 0.9950
4.974000 0.9960 0.9960 0.9960 0.9960 0.9960
5.007128 0.9960 0.9960 0.9930 0.9930 0.9930
5.040000 0.9930 0.9910 0.9910 0.9900 0.9900
5.073128 0.9880 0.9880 0.9880 0.9880 0.9880
5.106000 0.9860 0.9850 0.9830 0.9810 0.9760
5.139128 0.9730 0.9700 0.9680 0.9660 0.9660
5.172000 0.9660 0.9680 0.9680 0.9700 0.9700
5.205128 0.9710 0.9710 0.9730 0.9750 0.9780
5.238000 0.9800 0.9800 0.9780 0.9780 0.9780
5.271128 0.9760 0.9750 0.9750 0.9750 0.9760
5.305000 0.9760 0.9780 0.9780 0.9780 0.9750
5.338128 0.9730 0.9730 0.9730 0.9760 0.9810
5.371000 0.9860 0.9880 0.9880 0.9880 0.9900
5.404128 0.9900 0.9880 0.9880 0.9860 0.9860
5.437000 0.9860 0.9850 0.9850 0.9850 0.9830
5.470128 0.9810 0.9810 0.9830 0.9830 0.9830
5.503000 0.9800 0.9750 0.9750 0.9710 0.9700
5.536128 0.9700 0.9700 0.9750 0.9800 0.9810
5.570000 0.9830 0.9830 0.9830 0.9810 0.9810
5.603128 0.9780 0.9730 0.9710 0.9680 0.9650
5.636000 0.9610 0.9600 0.9600 0.9600 0.9600
5.669128 0.9580 0.9520 0.9500 0.9470 0.9450
5.702000 0.9430 0.9430 0.9420 0.9420 0.9400
5.735128 0.9400 0.9400 0.9400 0.9400 0.9400
5.768000 0.9400 0.9400 0.9380 0.9380 0.9400
5.801128 0.9400 0.9380 0.9380 0.9380 0.9380
5.834000 0.9370 0.9320 0.9300 0.9300 0.9320
5.867128 0.9320 0.9330 0.9350 0.9330 0.9300
5.901000 0.9270 0.9270 0.9250 0.9250 0.9230
5.934128 0.9220 0.9220 0.9220 0.9200 0.9190
5.967000 0.9170 0.9150 0.9150 0.9140 0.9120
6.000128 0.9090 0.9090 0.9070 0.9070 0.9070
6.033000 0.9070 0.9070 0.9050 0.9050 0.9050
6.066128 0.9050 0.9090 0.9120 0.9170 0.9170
6.099000 0.9170 0.9170 0.9170 0.9190 0.9190
6.132128 0.9190 0.9170 0.9150 0.9150 0.9170
6.166000 0.9170 0.9190 0.9200 0.9220 0.9220
6.199128 0.9200 0.9100 0.9050 0.8950 0.8820
6.232000 0.8800 0.8800 0.8840 0.9000 0.9100
6.265128 0.9100 0.9120 0.9120 0.9170 0.9190
6.298000 0.9170 0.9140 0.9120 0.9120 0.9120
6.331128 0.9120 0.9120 0.9120 0.9140 0.9150
6.364000 0.9170 0.9170 0.9190 0.9220 0.9230
6.397128 0.9230 0.9250 0.9250 0.9250 0.9250
6.430000 0.9270 0.9270 0.9270 0.9270 0.9300
6.463128 0.9330 0.9370 0.9400 0.9420 0.9400
6.497000 0.9370 0.9350 0.9350 0.9350 0.9350
6.530128 0.9350 0.9350 0.9370 0.9380 0.9380
6.563000 0.9380 0.9380 0.9380 0.9370 0.9370
6.596128 0.9380 0.9380 0.9380 0.9380 0.9380
6.629000 0.9380 0.9370 0.9330 0.9350 0.9330
6.662128 0.9270 0.9170 0.9000 0.8990 0.9000
6.695000 0.9000 0.9040 0.9090 0.9100 0.9120
6.728128 0.9140 0.9140 0.9140 0.9120 0.9120
6.762000 0.9100 0.9090 0.9050 0.9040 0.9040
6.795128 0.9020 0.9000 0.9000 0.8970 0.8940
6.828000 0.8890 0.8800 0.8740 0.8660 0.8590
6.861128 0.8520 0.8460 0.8390 0.8330 0.8240
6.894000 0.8210 0.8180 0.8140 0.8090 0.8010
6.927128 0.7980 0.7580 0.7150 0.6720 0.6560
6.960000 0.6380 0.5710 0.5500 0.5480 0.5520
6.993128 0.6000 0.6460 0.6640 0.6890 0.6990
7.026000 0.7020 0.7000 0.6990 0.6900 0.6850
7.059128 0.6840 0.6840 0.6890 0.6990 0.7050
7.093000 0.7140 0.7250 0.7350 0.7450 0.7480
7.126128 0.7550 0.7630 0.7730 0.7810 0.7950
7.159000 0.8040 0.8130 0.8190 0.8230 0.8240
7.192128 0.8240 0.8240 0.8240 0.8260 0.8290
7.225000 0.8390 0.8460 0.8520 0.8570 0.8570
7.258128 0.8590 0.8590 0.8560 0.8360 0.8190
7.291000 0.7950 0.7730 0.7580 0.7570 0.7600
7.324128 0.7880 0.8190 0.8510 0.8670 0.8790
7.358000 0.8850 0.8920 0.8970 0.9000 0.9040
7.391128 0.9040 0.9040 0.9040 0.9040 0.9040
7.424000 0.9040 0.9020 0.9020 0.9020 0.9020
7.457128 0.9020 0.9020 0.9020 0.9020 0.9020
7.490000 0.9020 0.9040 0.9070 0.9090 0.9050
7.523128 0.9020 0.9000 0.8970 0.8950 0.8920
7.556000 0.8870 0.8820 0.8770 0.8760 0.8760
7.589128 0.8760 0.8760 0.8740 0.8720 0.8720
7.623000 0.8690 0.8660 0.8610 0.8540 0.8440
7.656128 0.8380 0.8290 0.8280 0.8290 0.8330
7.689000 0.8410 0.8460 0.8520 0.8590 0.8610
7.722128 0.8620 0.8640 0.8640 0.8620 0.8610
7.755000 0.8540 0.8510 0.8440 0.8390 0.8340
7.788128 0.8290 0.8180 0.8080 0.7980 0.7860
7.821000 0.7710 0.7530 0.7320 0.7020 0.6840
7.854128 0.6640 0.6180 0.5710 0.5140 0.4310
7.887000 0.3550 0.2770 0.2030 0.1530 0.1250
7.920128 0.1050 0.0900 0.0840 0.0840 0.0870
7.954000 0.0990 0.1070 0.1220 0.1370 0.1580
7.987128 0.1810 0.2340 0.3250 0.4110 0.4570
8.020000 0.5070 0.5530 0.5960 0.6360 0.6660
8.053128 0.7170 0.7400 0.7530 0.7710 0.7850
8.086000 0.7950 0.8030 0.8090 0.8160 0.8210
8.119128 0.8280 0.8340 0.8390 0.8440 0.8510
8.152000 0.8520 0.8520 0.8560 0.8570 0.8610
8.185128 0.8610 0.8610 0.8640 0.8660 0.8670
8.219000 0.8710 0.8720 0.8740 0.8710 0.8710
8.252128 0.8710 0.8710 0.8720 0.8740 0.8740
8.285000 0.8740 0.8740 0.8720 0.8720 0.8710
8.318128 0.8690 0.8670 0.8670 0.8670 0.8660
8.351000 0.8620 0.8560 0.8490 0.8440 0.8380
8.384128 0.8280 0.8180 0.8040 0.7900 0.7750
8.417000 0.7600 0.7450 0.7280 0.7120 0.6970
8.450128 0.6940 0.6940 0.6970 0.7050 0.7090
8.483000 0.7100 0.7100 0.6770 0.6410 0.6030
8.516128 0.5420 0.4640 0.4080 0.3600 0.3280
8.550000 0.2950 0.2890 0.2970 0.4030 0.4460
8.583128 0.4690 0.5120 0.5680 0.6330 0.6470
8.616000 0.6840 0.6970 0.7120 0.7190 0.7230
8.649128 0.7280 0.7320 0.7350 0.7370 0.7370
8.682000 0.7380 0.7400 0.7420 0.7430 0.7420
8.715128 0.7400 0.7350 0.7300 0.7230 0.7170
8.748000 0.7120 0.7090 0.6990 0.6870 0.6800
8.781128 0.6690 0.6620 0.6560 0.6410 0.6290
8.815000 0.6180 0.6000 0.5800 0.5600 0.5350
8.848128 0.5040 0.4620 0.4290 0.3810 0.3550
8.881000 0.3280 0.2770 0.2330 0.1930 0.1810
8.914128 0.1810 0.1850 0.2040 0.2280 0.2520
8.947000 0.2940 0.3200 0.3500 0.3600 0.3630
8.980128 0.3630 0.3570 0.3500 0.3370 0.3300
9.013000 0.3230 0.3140 0.3020 0.2870 0.2740
9.046128 0.2560 0.2460 0.2360 0.2240 0.2080
9.079000 0.1980 0.1880 0.1810 0.1710 0.1630
9.112128 0.1570 0.1480 0.1420 0.1380 0.1330
9.146000 0.1280 0.1250 0.1220 0.1200 0.1190
9.179128 0.1170 0.1140 0.1090 0.1000 0.0990
9.212000 0.0990 0.0970 0.0970 0.0950 0.0940
9.245128 0.0920 0.0900 0.0890 0.0870 0.0850
9.278000 0.0840 0.0840 0.0840 0.0820 0.0800
9.311128 0.0800 0.0800 0.0800 0.0800 0.0800
9.344000 0.0800 0.0790 0.0770 0.0760 0.0740
9.377128 0.0740 0.0710 0.0710 0.0690 0.0670
9.411000 0.0670 0.0660 0.0660 0.0660 0.0660
9.444128 0.0640 0.0640 0.0640 0.0640 0.0640
9.477000 0.0620 0.0620 0.0590 0.0570 0.0560
9.510128 0.0540 0.0520 0.0510 0.0490 0.0470
9.543000 0.0470 0.0460 0.0460 0.0460 0.0460
9.576128 0.0440 0.0440 0.0440 0.0420 0.0410
9.609000 0.0410 0.0420 0.0420 0.0420 0.0440
9.642128 0.0460 0.0470 0.0490 0.0520 0.0590
9.675000 0.0610 0.0620 0.0620 0.0620 0.0620
9.708128 0.0620 0.0640 0.0690 0.0720 0.0770
9.742000 0.0820 0.0870 0.0940 0.1020 0.1100
9.775128 0.1220 0.1320 0.1450 0.1570 0.1680
9.808000 0.1880 0.1950 0.2030 0.2180 0.2330
9.841128 0.2490 0.2640 0.2800 0.2940 0.3020
9.874000 0.3140 0.3270 0.3660 0.3800 0.3930
9.907128 0.4000 0.4130 0.4310 0.4470 0.4640
9.940000 0.4720 0.4890 0.5000 0.5100 0.5150
9.973128 0.5200 0.5220 0.5170 0.5090 0.4950
10.007000 0.4920 0.4890 0.4890 0.5090 0.5450
10.040128 0.5700 0.5910 0.6080 0.6190 0.6280
10.073000 0.6340 0.6390 0.6460 0.6520 0.6570
10.106128 0.6610 0.6660 0.6820 0.6870 0.6890
10.139000 0.6900 0.6950 0.6990 0.7050 0.7120
10.172128 0.7170 0.7200 0.7230 0.7270 0.7320
10.205000 0.7380 0.7400 0.7430 0.7430 0.7470
10.238128 0.7470 0.7480 0.7500 0.7520 0.7570
10.272000 0.7630 0.7650 0.7650 0.7660 0.7680
10.305128 0.7700 0.7710 0.7730 0.7750 0.7780
10.338000 0.7800 0.7810 0.7830 0.7850 0.7900
10.371128 0.7930 0.7960 0.7980 0.8000 0.8010
10.404000 0.8030 0.8080 0.8090 0.8090 0.8110
10.437128 0.8130 0.8130 0.8160 0.8180 0.8190
10.470000 0.8190 0.8190 0.8210 0.8230 0.8240
10.503128 0.8260 0.8260 0.8260 0.8280 0.8290
10.536000 0.8290 0.8310 0.8330 0.8330 0.8330
10.569128 0.8330 0.8330 0.8330 0.8340 0.8360
10.603000 0.8360 0.8360 0.8380 0.8380 0.8390
10.636128 0.8410 0.8410 0.8420 0.8420 0.8420
10.669000 0.8420 0.8420 0.8440 0.8440 0.8440
10.702128 0.8440 0.8440 0.8460 0.8460 0.8460
10.735000 0.8460 0.8460 0.8460 0.8460 0.8460
10.768128 0.8460 0.8460 0.8460 0.8460 0.8460
10.801000 0.8460 0.8460 0.8460 0.8440 0.8440
10.834128 0.8440 0.8440 0.8420 0.8410 0.8390
10.868000 0.8380 0.8380 0.8360 0.8360 0.8360
10.901128 0.8360 0.8340 0.8330 0.8310 0.8290
10.934000 0.8280 0.8280 0.8280 0.8260 0.8230
10.967128 0.8190 0.8180 0.8160 0.8130 0.8090
11.000000 0.8030 0.7960 0.7950 0.7900 0.7880
11.033128 0.7800 0.7700 0.7600 0.7500 0.7370
11.066000 0.7220 0.7100 0.7020 0.6920 0.6800
11.099128 0.6710 0.6670 0.6620 0.6560 0.6490
11.132000 0.6440 0.6380 0.6310 0.6280 0.6260
11.165128 0.6240 0.6230 0.6230 0.6280 0.6390
11.199000 0.6490 0.6570 0.6770 0.6850 0.6950
11.232128 0.7040 0.7100 0.7170 0.7200 0.7230
11.265000 0.7250 0.7270 0.7280 0.7300 0.7300
11.298128 0.7300 0.7300 0.7300 0.7320 0.7320
11.331000 0.7300 0.7300 0.7280 0.7280 0.7280
11.364128 0.7280 0.7250 0.7220 0.7200 0.7140
11.397000 0.7070 0.7020 0.6950 0.6900 0.6850
11.430128 0.6800 0.6740 0.6690 0.6660 0.6620
11.464000 0.6540 0.6460 0.6360 0.6280 0.6180
11.497128 0.6110 0.5980 0.5800 0.5630 0.5470
11.530000 0.5330 0.5230 0.5140 0.5040 0.4970
11.563128 0.4890 0.4800 0.4740 0.4710 0.4640
11.596000 0.4570 0.4540 0.4490 0.4460 0.4420
11.629128 0.4390 0.4340 0.4290 0.4280 0.4260
11.662000 0.4210 0.4160 0.4110 0.4090 0.4080
11.695128 0.4080 0.4080 0.4060 0.4060 0.4040
11.728000 0.4040 0.4040 0.4040 0.4080 0.4110
11.761128 0.4140 0.4180 0.4210 0.4210 0.4230
11.795000 0.4230 0.4230 0.4240 0.4290 0.4290
11.828128 0.4290 0.4290 0.4290 0.4280 0.4240
11.861000 0.4190 0.4140 0.4080 0.4000 0.3930
11.894128 0.3860 0.3780 0.3710 0.3630 0.3530
11.927000 0.3430 0.3380 0.3320 0.3220 0.3090
11.960128 0.2970 0.2820 0.2690 0.2590 0.2460
11.993000 0.2330 0.2190 0.2080 0.1950 0.1850
12.026128 0.1730 0.1630 0.1530 0.1480 0.1400
12.060000 0.1330 0.1270 0.1220 0.1220 0.1220
12.093128 0.1200 0.1200 0.1200 0.1200 0.1220
12.126000 0.1230 0.1250 0.1300 0.1330 0.1370
12.159128 0.1380 0.1400 0.1420 0.1420 0.1430
12.192000 0.1430 0.1430 0.1430 0.1420 0.1420
12.225128 0.1420 0.1420 0.1420 0.1430 0.1430
12.258000 0.1450 0.1450 0.1470 0.1470 0.1480
12.291128 0.1520 0.1550 0.1570 0.1570 0.1570
12.325000 0.1570 0.1570 0.1570 0.1530 0.1500
12.358128 0.1470 0.1470 0.1430 0.1380 0.1370
12.391000 0.1330 0.1280 0.1190 0.1140 0.1100
12.424128 0.1070 0.1000 0.0990 0.0950 0.0900
12.457000 0.0890 0.0870 0.0800 0.0790 0.0770
12.490128 0.0740 0.0710 0.0690 0.0620 0.0590
12.523000 0.0570 0.0570 0.0520 0.0490 0.0470
12.556128 0.0440 0.0440 0.0420 0.0420 0.0420
12.589000 0.0420 0.0410 0.0410 0.0410 0.0410
12.622128 0.0410 0.0410 0.0410 0.0410 0.0410
12.656000 0.0420 0.0440 0.0460 0.0470 0.0490
12.689128 0.0510 0.0520 0.0520 0.0540 0.0590
12.722000 0.0640 0.0690 0.0720 0.0720 0.0760
12.755128 0.0770 0.0800 0.0870 0.0920 0.0950
12.788000 0.0990 0.1050 0.1090 0.1170 0.1230
12.821128 0.1300 0.1400 0.1480 0.1530 0.1630
12.854000 0.1700 0.1780 0.1860 0.1960 0.2060
12.887128 0.2180 0.2290 0.2420 0.2560 0.2710
12.921000 0.2850 0.3000 0.3150 0.3300 0.3600
12.954128 0.3750 0.3950 0.4090 0.4230 0.4340
12.987000 0.4520 0.4640 0.4790 0.4940 0.5090
13.020128 0.5200 0.5280 0.5370 0.5450 0.5520
13.053000 0.5610 0.5700 0.5810 0.5930 0.5960
13.086128 0.6000 0.6060 0.6110 0.6190 0.6260
13.119000 0.6310 0.6380 0.6410 0.6440 0.6460
13.152128 0.6470 0.6490 0.6540 0.6590 0.6620
13.185000 0.6660 0.6660 0.6670 0.6710 0.6720
13.218128 0.6740 0.6740 0.6740 0.6740 0.6760
13.252000 0.6760 0.6760 0.6760 0.6760 0.6740
13.285128 0.6690 0.6670 0.6640 0.6610 0.6570
13.318000 0.6510 0.6470 0.6420 0.6360 0.6240
13.351128 0.6140 0.6010 0.5950 0.5850 0.5750
13.384000 0.5660 0.5580 0.5450 0.5280 0.5170
13.417128 0.5120 0.5020 0.4970 0.4940 0.4890
13.450000 0.4870 0.4850 0.4850 0.4850 0.4850
13.483128 0.4850 0.4870 0.4890 0.4900 0.4950
13.517000 0.4970 0.4970 0.4990 0.5000 0.5000
13.550128 0.5050 0.5070 0.5070 0.5090 0.5100
13.583000 0.5120 0.5150 0.5170 0.5200 0.5230
13.616128 0.5250 0.5250 0.5270 0.5270 0.5280
13.649000 0.5280 0.5320 0.5320 0.5320 0.5300
13.682128 0.5300 0.5270 0.5230 0.5220 0.5190
13.715000 0.5170 0.5140 0.5100 0.5070 0.5020
13.748128 0.4920 0.4840 0.4790 0.4740 0.4690
13.781000 0.4620 0.4570 0.4510 0.4460 0.4410
13.814128 0.4410 0.4390 0.4390 0.4410 0.4420
13.848000 0.4490 0.4540 0.4610 0.4670 0.4740
13.881128 0.4840 0.4970 0.5090 0.5170 0.5250
13.914000 0.5350 0.5480 0.5630 0.5750 0.5850
13.947128 0.5880 0.5960 0.6000 0.6080 0.6140
13.980000 0.6180 0.6190 0.6230 0.6240 0.6260
14.013128 0.6260 0.6280 0.6280 0.6280 0.6260
14.046000 0.6240 0.6230 0.6190 0.6130 0.6080
14.079128 0.6030 0.6000 0.5950 0.5830 0.5730
14.113000 0.5650 0.5530 0.5430 0.5280 0.5190
14.146128 0.5090 0.4990 0.4940 0.4820 0.4740
14.179000 0.4620 0.4490 0.4440 0.4380 0.4290
14.212128 0.4190 0.4130 0.4040 0.4000 0.3960
14.245000 0.3900 0.3880 0.3850 0.3800 0.3760
14.278128 0.3710 0.3680 0.3610 0.3550 0.3520
14.311000 0.3430 0.3350 0.3320 0.3280 0.3230
14.344128 0.3200 0.3150 0.3100 0.3090 0.3050
14.377000 0.3040 0.3020 0.2990 0.2970 0.2990
14.410128 0.3100 0.3170 0.3250 0.3480 0.3630
14.444000 0.3760 0.3930 0.4040 0.4210 0.4340
14.477128 0.4460 0.4610 0.4790 0.4950 0.5100
14.510000 0.5200 0.5330 0.5450 0.5530 0.5630
14.543128 0.5730 0.5830 0.5910 0.5950 0.6000
14.576000 0.6080 0.6090 0.6130 0.6130 0.6130
14.609128 0.6140 0.6160 0.6160 0.6180 0.6180
14.642000 0.6210 0.6230 0.6230 0.6230 0.6230
14.675128 0.6230 0.6230 0.6230 0.6210 0.6210
14.709000 0.6210 0.6190 0.6180 0.6140 0.6110
14.742128 0.6090 0.6090 0.6080 0.6040 0.6010
14.775000 0.6000 0.5980 0.5960 0.5960 0.5960
14.808128 0.5950 0.5950 0.5950 0.5950 0.5950
14.841000 0.5950 0.5950 0.5950 0.5960 0.5980
14.874128 0.6000 0.6010 0.6040 0.6060 0.6110
14.907000 0.6140 0.6190 0.6210 0.6260 0.6340
14.940128 0.6390 0.6420 0.6470 0.6540 0.6610
14.974000 0.6640 0.6710 0.6720 0.6740 0.6740
15.007128 0.6760 0.6760 0.6760 0.6770 0.6770
15.040000 0.6770 0.6790 0.6790 0.6790 0.6800
15.073128 0.6820 0.6850 0.6870 0.6900 0.6940
15.106000 0.6970 0.6990 0.7020 0.7050 0.7090
15.139128 0.7100 0.7140 0.7150 0.7190 0.7200
15.172000 0.7200 0.7170 0.7140 0.7100 0.7070
15.205128 0.6990 0.6940 0.6890 0.6820 0.6770
15.238000 0.6690 0.6660 0.6610 0.6520 0.6470
15.271128 0.6410 0.6360 0.6280 0.6210 0.6160
15.305000 0.6080 0.6030 0.6000 0.6000 0.5980
15.338128 0.5980 0.5980 0.5980 0.6000 0.6010
15.371000 0.6080 0.6110 0.6140 0.6190 0.6230
15.404128 0.6330 0.6410 0.6460 0.6520 0.6590
15.437000 0.6740 0.6800 0.6890 0.6950 0.6990
15.470128 0.7020 0.7050 0.7120 0.7170 0.7200
15.503000 0.7230 0.7270 0.7280 0.7280 0.7300
15.536128 0.7320 0.7330 0.7350 0.7370 0.7400
15.570000 0.7420 0.7430 0.7430 0.7450 0.7480
15.603128 0.7500 0.7500 0.7520 0.7520 0.7520
15.636000 0.7520 0.7520 0.7520 0.7520 0.7530
15.669128 0.7530 0.7550 0.7550 0.7570 0.7570
15.702000 0.7570 0.7570 0.7550 0.7550 0.7500
15.735128 0.7500 0.7500 0.7500 0.7500 0.7500
15.768000 0.7520 0.7520 0.7520 0.7520 0.7520
15.801128 0.7500 0.7500 0.7500 0.7500 0.7430
15.834000 0.7420 0.7400 0.7400 0.7400 0.7380
15.867128 0.7380 0.7380 0.7370 0.7350 0.7350
15.901000 0.7370 0.7380 0.7380 0.7370 0.7330
15.934128 0.7320 0.7320 0.7300 0.7280 0.7270
15.967000 0.7250 0.7250 0.7230 0.7250 0.7230
16.000128 0.7230 0.7250
##END=
