##TITLE=1,1'-DI(PENTAMETHYL DISILOXANYL) FERROCENE
##JCAMP-DX=4.24
##DATA TYPE=INFRARED SPECTRUM
##CLASS=COBLENTZ
##ORIGIN=WYANDOTTE CHEMICALS CORP., WYANDOTTE, MICHIGAN, USA
##OWNER=COBLENTZ SOCIETY
Collection (C) 2018 copyright by the U.S. Secretary of Commerce
on behalf of the United States of America. All rights reserved.
##DATE=Not specified, most likely prior to 1970
##NAMES=bis[2-(1,1,3,3,3-pentamethyldisiloxanyl)-1,4-cyclopentadien-1-yl]iron
##MOLFORM=C20 H38 Fe O2 Si4
##BP=108 C AT 0.01 mmHg
##SOURCE REFERENCE=COBLENTZ NO. 2797
##$NIST ID=B6002797
##$NIST SOURCE=COBLENTZ
##$NIST IMAGE=cob2797
##SPECTROMETER/DATA SYSTEM=Not specified, most likely a prism, grating, or hybrid spectrometer.
##STATE=LIQUID
##PATH LENGTH=0.003 CM
##SAMPLING PROCEDURE=TRANSMISSION
##RESOLUTION=4
##DATA PROCESSING=DIGITIZED BY NIST FROM HARD COPY
##XUNITS=MICROMETERS
##YUNITS=TRANSMITTANCE
##XFACTOR=1.000000
##YFACTOR=1
##DELTAX=000.006607
##FIRSTX=2.073
##LASTX=15.9999
##FIRSTY=0.99
##MAXX=15.9999
##MINX=2.073
##MAXY=1.006
##MINY=0.028
##NPOINTS=2109
##XYDATA=(X++(Y..Y))
2.073000 0.9900 0.9900 0.9900 0.9910 0.9910
2.106050 0.9910 0.9910 0.9910 0.9910 0.9910
2.139000 0.9910 0.9910 0.9910 0.9910 0.9910
2.172050 0.9910 0.9910 0.9910 0.9900 0.9880
2.205000 0.9810 0.9750 0.9700 0.9680 0.9680
2.238050 0.9680 0.9700 0.9710 0.9750 0.9810
2.271000 0.9830 0.9850 0.9850 0.9810 0.9780
2.304050 0.9760 0.9760 0.9760 0.9760 0.9780
2.337000 0.9780 0.9780 0.9780 0.9780 0.9780
2.370050 0.9780 0.9780 0.9780 0.9800 0.9800
2.403000 0.9800 0.9780 0.9780 0.9780 0.9760
2.436050 0.9760 0.9760 0.9750 0.9750 0.9750
2.469000 0.9730 0.9710 0.9700 0.9660 0.9610
2.502050 0.9600 0.9600 0.9600 0.9610 0.9660
2.535000 0.9760 0.9780 0.9810 0.9850 0.9850
2.568050 0.9850 0.9830 0.9810 0.9780 0.9750
2.601000 0.9730 0.9700 0.9650 0.9650 0.9630
2.634050 0.9630 0.9610 0.9600 0.9560 0.9560
2.667000 0.9550 0.9550 0.9550 0.9560 0.9560
2.700050 0.9580 0.9610 0.9610 0.9630 0.9630
2.733000 0.9650 0.9650 0.9660 0.9680 0.9680
2.766050 0.9710 0.9750 0.9760 0.9780 0.9780
2.799000 0.9780 0.9780 0.9780 0.9800 0.9800
2.832050 0.9800 0.9800 0.9810 0.9810 0.9810
2.866000 0.9810 0.9830 0.9830 0.9850 0.9860
2.899050 0.9860 0.9880 0.9900 0.9900 0.9900
2.932000 0.9910 0.9910 0.9910 0.9900 0.9900
2.965050 0.9880 0.9880 0.9880 0.9860 0.9860
2.998000 0.9850 0.9850 0.9850 0.9850 0.9850
3.031050 0.9850 0.9850 0.9830 0.9810 0.9810
3.064000 0.9800 0.9800 0.9780 0.9750 0.9710
3.097050 0.9700 0.9680 0.9680 0.9660 0.9650
3.130000 0.9650 0.9610 0.9560 0.9530 0.9510
3.163050 0.9500 0.9480 0.9450 0.9400 0.9280
3.196000 0.9100 0.8820 0.8550 0.8160 0.7310
3.229050 0.6700 0.6090 0.6070 0.6090 0.6650
3.262000 0.8110 0.8520 0.8550 0.8590 0.8590
3.295050 0.8590 0.8570 0.8410 0.8190 0.7910
3.328000 0.7500 0.6850 0.6390 0.5910 0.4560
3.361050 0.3360 0.2430 0.1490 0.1470 0.1490
3.394000 0.2790 0.4330 0.5030 0.5340 0.5790
3.427050 0.6240 0.6290 0.6270 0.5610 0.5430
3.460000 0.5410 0.5440 0.6300 0.7360 0.7690
3.493050 0.7960 0.8140 0.8270 0.8340 0.8390
3.526000 0.8420 0.8470 0.8500 0.8520 0.8590
3.559050 0.8640 0.8650 0.8670 0.8670 0.8690
3.592000 0.8720 0.8770 0.8850 0.8970 0.9130
3.625050 0.9330 0.9420 0.9500 0.9530 0.9560
3.658000 0.9560 0.9560 0.9560 0.9580 0.9580
3.691050 0.9580 0.9600 0.9630 0.9660 0.9700
3.724000 0.9710 0.9730 0.9750 0.9750 0.9760
3.757050 0.9760 0.9780 0.9780 0.9780 0.9800
3.790000 0.9800 0.9800 0.9810 0.9810 0.9830
3.823050 0.9850 0.9860 0.9860 0.9850 0.9850
3.857000 0.9800 0.9780 0.9760 0.9760 0.9780
3.890050 0.9800 0.9830 0.9830 0.9850 0.9850
3.923000 0.9880 0.9900 0.9900 0.9900 0.9880
3.956050 0.9830 0.9810 0.9810 0.9810 0.9830
3.989000 0.9860 0.9880 0.9900 0.9900 0.9880
4.022050 0.9880 0.9850 0.9780 0.9730 0.9710
4.055000 0.9700 0.9660 0.9650 0.9650 0.9650
4.088050 0.9660 0.9710 0.9760 0.9760 0.9760
4.121000 0.9780 0.9780 0.9780 0.9780 0.9780
4.154050 0.9780 0.9780 0.9800 0.9800 0.9810
4.187000 0.9810 0.9830 0.9830 0.9850 0.9850
4.220050 0.9850 0.9860 0.9880 0.9880 0.9900
4.253000 0.9900 0.9930 0.9930 0.9960 0.9960
4.286050 0.9980 1.0010 1.0030 1.0060 1.0060
4.319000 1.0060 1.0060 1.0060 1.0040 1.0040
4.352050 1.0030 1.0030 1.0010 1.0000 0.9960
4.385000 0.9950 0.9910 0.9910 0.9900 0.9880
4.418050 0.9860 0.9860 0.9860 0.9860 0.9860
4.451000 0.9860 0.9850 0.9830 0.9810 0.9800
4.484050 0.9780 0.9780 0.9760 0.9760 0.9760
4.517000 0.9760 0.9760 0.9760 0.9760 0.9750
4.550050 0.9750 0.9750 0.9750 0.9750 0.9750
4.583000 0.9750 0.9760 0.9760 0.9780 0.9800
4.616050 0.9810 0.9830 0.9830 0.9850 0.9850
4.649000 0.9860 0.9860 0.9900 0.9900 0.9880
4.682050 0.9880 0.9850 0.9850 0.9830 0.9830
4.715000 0.9830 0.9810 0.9810 0.9810 0.9810
4.748050 0.9810 0.9810 0.9810 0.9810 0.9810
4.782000 0.9810 0.9800 0.9760 0.9750 0.9750
4.815050 0.9730 0.9730 0.9730 0.9710 0.9710
4.848000 0.9700 0.9680 0.9680 0.9680 0.9680
4.881050 0.9680 0.9680 0.9700 0.9700 0.9710
4.914000 0.9750 0.9760 0.9760 0.9780 0.9780
4.947050 0.9780 0.9760 0.9750 0.9750 0.9730
4.980000 0.9710 0.9700 0.9700 0.9700 0.9750
5.013050 0.9750 0.9750 0.9750 0.9730 0.9730
5.046000 0.9710 0.9700 0.9700 0.9710 0.9710
5.079050 0.9730 0.9730 0.9750 0.9750 0.9760
5.112000 0.9800 0.9800 0.9780 0.9760 0.9750
5.145050 0.9730 0.9700 0.9680 0.9650 0.9580
5.178000 0.9550 0.9450 0.9280 0.9180 0.9100
5.211050 0.9080 0.9080 0.9120 0.9170 0.9220
5.244000 0.9320 0.9420 0.9470 0.9510 0.9560
5.277050 0.9600 0.9610 0.9610 0.9580 0.9580
5.310000 0.9560 0.9550 0.9550 0.9550 0.9580
5.343050 0.9580 0.9600 0.9630 0.9660 0.9710
5.376000 0.9750 0.9760 0.9800 0.9810 0.9810
5.409050 0.9830 0.9830 0.9830 0.9830 0.9850
5.442000 0.9850 0.9850 0.9850 0.9850 0.9850
5.475050 0.9850 0.9850 0.9830 0.9830 0.9810
5.508000 0.9810 0.9800 0.9780 0.9760 0.9750
5.541050 0.9750 0.9730 0.9710 0.9710 0.9700
5.574000 0.9700 0.9700 0.9700 0.9680 0.9660
5.607050 0.9650 0.9600 0.9550 0.9510 0.9470
5.640000 0.9420 0.9380 0.9320 0.9270 0.9220
5.673050 0.9200 0.9180 0.9180 0.9170 0.9120
5.706000 0.9080 0.9050 0.8970 0.8940 0.8900
5.739050 0.8890 0.8890 0.8890 0.8870 0.8870
5.773000 0.8850 0.8850 0.8850 0.8850 0.8850
5.806050 0.8840 0.8840 0.8840 0.8840 0.8840
5.839000 0.8840 0.8840 0.8820 0.8790 0.8770
5.872050 0.8740 0.8720 0.8700 0.8700 0.8720
5.905000 0.8720 0.8750 0.8770 0.8790 0.8790
5.938050 0.8790 0.8790 0.8800 0.8800 0.8820
5.971000 0.8820 0.8850 0.8900 0.8920 0.8920
6.004050 0.8890 0.8870 0.8840 0.8770 0.8720
6.037000 0.8650 0.8620 0.8600 0.8600 0.8620
6.070050 0.8620 0.8650 0.8670 0.8700 0.8740
6.103000 0.8750 0.8750 0.8720 0.8720 0.8670
6.136050 0.8570 0.8490 0.8410 0.8360 0.8320
6.169000 0.8290 0.8240 0.8190 0.8140 0.8090
6.202050 0.8070 0.8040 0.8040 0.8020 0.8020
6.235000 0.8040 0.8060 0.8060 0.8110 0.8160
6.268050 0.8260 0.8340 0.8410 0.8470 0.8540
6.301000 0.8590 0.8650 0.8720 0.8790 0.8800
6.334050 0.8840 0.8870 0.8890 0.8890 0.8890
6.367000 0.8900 0.8900 0.8940 0.8940 0.8940
6.400050 0.8950 0.8950 0.8950 0.8950 0.8950
6.433000 0.8950 0.8950 0.8970 0.8970 0.8970
6.466050 0.8990 0.9000 0.9030 0.9050 0.9070
6.499000 0.9070 0.9070 0.9050 0.9030 0.9000
6.532050 0.9000 0.8990 0.8990 0.8950 0.8950
6.565000 0.8950 0.8950 0.8950 0.8940 0.8920
6.598050 0.8900 0.8890 0.8850 0.8850 0.8840
6.631000 0.8840 0.8840 0.8840 0.8840 0.8820
6.664050 0.8800 0.8750 0.8670 0.8620 0.8600
6.697000 0.8600 0.8590 0.8540 0.8500 0.8470
6.730050 0.8410 0.8370 0.8320 0.8290 0.8240
6.764000 0.8170 0.8110 0.8040 0.7940 0.7860
6.797050 0.7760 0.7640 0.7510 0.7360 0.7130
6.830000 0.6950 0.6830 0.6780 0.6730 0.6700
6.863050 0.6670 0.6630 0.6550 0.6490 0.6420
6.896000 0.6350 0.6290 0.6220 0.6170 0.6100
6.929050 0.6040 0.6000 0.5940 0.5820 0.5590
6.962000 0.5230 0.4680 0.4250 0.4120 0.3950
6.995050 0.3940 0.3970 0.4170 0.4510 0.4810
7.028000 0.4860 0.4860 0.4750 0.4560 0.4530
7.061050 0.4510 0.4510 0.4550 0.4700 0.4800
7.094000 0.4880 0.4950 0.5000 0.5090 0.5240
7.127050 0.5380 0.5610 0.5910 0.6200 0.6490
7.160000 0.6650 0.6930 0.6970 0.6970 0.6820
7.193050 0.6720 0.6600 0.6530 0.6530 0.6550
7.226000 0.7110 0.7310 0.7380 0.7380 0.7350
7.259050 0.6880 0.6680 0.6470 0.5960 0.5480
7.292000 0.5060 0.4710 0.4700 0.4710 0.5340
7.325050 0.5960 0.6470 0.7230 0.7500 0.7680
7.358000 0.7830 0.7930 0.7980 0.8020 0.8060
7.391050 0.8110 0.8220 0.8260 0.8260 0.8270
7.424000 0.8270 0.8270 0.8270 0.8270 0.8240
7.457050 0.8190 0.8140 0.8040 0.7990 0.7940
7.490000 0.7860 0.7810 0.7730 0.7640 0.7580
7.523050 0.7540 0.7500 0.7480 0.7500 0.7510
7.556000 0.7540 0.7580 0.7590 0.7590 0.7610
7.589050 0.7630 0.7640 0.7640 0.7630 0.7530
7.622000 0.7410 0.7280 0.7160 0.7010 0.6780
7.655050 0.6770 0.6780 0.6820 0.6980 0.7050
7.689000 0.7110 0.7160 0.7210 0.7230 0.7250
7.722050 0.7230 0.7160 0.7100 0.6980 0.6870
7.755000 0.6750 0.6700 0.6650 0.6520 0.6370
7.788050 0.6190 0.5970 0.5670 0.5520 0.5280
7.821000 0.4980 0.4660 0.4400 0.4180 0.3850
7.854050 0.3590 0.3310 0.2830 0.2200 0.1600
7.887000 0.1120 0.0710 0.0440 0.0330 0.0310
7.920050 0.0310 0.0310 0.0330 0.0330 0.0330
7.953000 0.0310 0.0290 0.0290 0.0290 0.0340
7.986050 0.0410 0.0490 0.0660 0.0920 0.1270
8.019000 0.1650 0.2060 0.2500 0.2930 0.3310
8.052050 0.4100 0.4430 0.4750 0.5010 0.5280
8.085000 0.5510 0.5760 0.6000 0.6150 0.6300
8.118050 0.6440 0.6570 0.6780 0.6920 0.7050
8.151000 0.7160 0.7260 0.7350 0.7430 0.7480
8.184050 0.7530 0.7540 0.7610 0.7640 0.7710
8.217000 0.7760 0.7790 0.7810 0.7830 0.7880
8.250050 0.7910 0.7940 0.7940 0.7960 0.7960
8.283000 0.7960 0.7940 0.7930 0.7910 0.7890
8.316050 0.7860 0.7840 0.7810 0.7760 0.7710
8.349000 0.7630 0.7560 0.7450 0.7280 0.7030
8.382050 0.6720 0.6520 0.6320 0.5840 0.5360
8.415000 0.4900 0.4350 0.3870 0.3800 0.3800
8.448050 0.3820 0.4080 0.4300 0.4320 0.4320
8.481000 0.4300 0.3770 0.3220 0.2630 0.2110
8.514050 0.1620 0.1190 0.0430 0.0290 0.0280
8.547000 0.0290 0.0510 0.0740 0.1050 0.1550
8.580050 0.2160 0.2740 0.3210 0.4250 0.4700
8.613000 0.5140 0.5540 0.5790 0.5910 0.5960
8.646050 0.6000 0.6020 0.6040 0.6050 0.6050
8.680000 0.6070 0.6120 0.6170 0.6240 0.6250
8.713050 0.6250 0.6240 0.6220 0.6150 0.6090
8.746000 0.6020 0.5990 0.5960 0.5910 0.5840
8.779050 0.5760 0.5670 0.5590 0.5490 0.5410
8.812000 0.5310 0.5210 0.5060 0.4960 0.4880
8.845050 0.4830 0.4800 0.4760 0.4700 0.4610
8.878000 0.4530 0.4400 0.4280 0.4200 0.4070
8.911050 0.3940 0.3840 0.3720 0.3640 0.3540
8.944000 0.3460 0.3340 0.3290 0.3220 0.3070
8.977050 0.3010 0.2830 0.2690 0.2540 0.2410
9.010000 0.2260 0.2130 0.2050 0.1930 0.1770
9.043050 0.1570 0.1500 0.1390 0.1320 0.1220
9.076000 0.1100 0.1000 0.0940 0.0840 0.0740
9.109050 0.0670 0.0610 0.0560 0.0490 0.0440
9.142000 0.0380 0.0380 0.0360 0.0360 0.0360
9.175050 0.0360 0.0340 0.0340 0.0330 0.0330
9.208000 0.0330 0.0330 0.0330 0.0330 0.0330
9.241050 0.0310 0.0290 0.0290 0.0290 0.0290
9.274000 0.0290 0.0290 0.0290 0.0290 0.0310
9.307050 0.0330 0.0330 0.0330 0.0330 0.0330
9.340000 0.0330 0.0310 0.0310 0.0290 0.0290
9.373050 0.0280 0.0280 0.0280 0.0280 0.0280
9.406000 0.0280 0.0280 0.0280 0.0280 0.0290
9.439050 0.0290 0.0290 0.0290 0.0290 0.0290
9.472000 0.0290 0.0290 0.0290 0.0290 0.0290
9.505050 0.0290 0.0290 0.0290 0.0290 0.0290
9.538000 0.0290 0.0290 0.0290 0.0280 0.0280
9.571050 0.0280 0.0280 0.0280 0.0280 0.0280
9.605000 0.0290 0.0290 0.0290 0.0290 0.0290
9.638050 0.0290 0.0290 0.0310 0.0310 0.0330
9.671000 0.0310 0.0310 0.0310 0.0310 0.0310
9.704050 0.0310 0.0330 0.0330 0.0330 0.0340
9.737000 0.0360 0.0380 0.0380 0.0390 0.0410
9.770050 0.0430 0.0440 0.0460 0.0480 0.0510
9.803000 0.0710 0.0770 0.0860 0.0960 0.1040
9.836050 0.1150 0.1270 0.1390 0.1500 0.1630
9.869000 0.1770 0.1900 0.2010 0.2100 0.2210
9.902050 0.2310 0.2450 0.2580 0.2730 0.2860
9.935000 0.2990 0.3110 0.3210 0.3320 0.3470
9.968050 0.3550 0.3640 0.3750 0.3870 0.4000
10.001000 0.4080 0.4150 0.4180 0.4230 0.4300
10.034050 0.4400 0.4530 0.4580 0.4610 0.4660
10.067000 0.4710 0.4800 0.4880 0.4910 0.4930
10.100050 0.4950 0.4960 0.4980 0.5010 0.5060
10.133000 0.5110 0.5140 0.5180 0.5240 0.5310
10.166050 0.5380 0.5410 0.5440 0.5490 0.5540
10.199000 0.5590 0.5640 0.5710 0.5760 0.5810
10.232050 0.5870 0.5890 0.5940 0.5990 0.6050
10.265000 0.6100 0.6170 0.6220 0.6240 0.6270
10.298050 0.6290 0.6320 0.6370 0.6440 0.6490
10.331000 0.6520 0.6570 0.6600 0.6650 0.6680
10.364050 0.6700 0.6720 0.6720 0.6720 0.6720
10.397000 0.6700 0.6680 0.6670 0.6670 0.6650
10.430050 0.6630 0.6600 0.6570 0.6550 0.6550
10.463000 0.6530 0.6530 0.6530 0.6530 0.6570
10.496050 0.6780 0.6870 0.6930 0.7010 0.7130
10.529000 0.7200 0.7250 0.7300 0.7350 0.7410
10.562050 0.7480 0.7510 0.7510 0.7530 0.7540
10.596000 0.7540 0.7540 0.7560 0.7560 0.7580
10.629050 0.7590 0.7590 0.7610 0.7610 0.7610
10.662000 0.7630 0.7640 0.7680 0.7680 0.7690
10.695050 0.7690 0.7690 0.7690 0.7690 0.7660
10.728000 0.7630 0.7630 0.7590 0.7590 0.7560
10.761050 0.7540 0.7540 0.7530 0.7510 0.7500
10.794000 0.7500 0.7480 0.7450 0.7430 0.7380
10.827050 0.7330 0.7280 0.7230 0.7200 0.7180
10.860000 0.7150 0.7110 0.7080 0.7030 0.6970
10.893050 0.6900 0.6830 0.6800 0.6750 0.6700
10.926000 0.6670 0.6630 0.6570 0.6470 0.6400
10.959050 0.6300 0.6220 0.6150 0.6040 0.5870
10.992000 0.5710 0.5510 0.5290 0.5090 0.4900
11.025050 0.4710 0.4450 0.4170 0.3900 0.3640
11.058000 0.3390 0.3290 0.3190 0.3010 0.2910
11.091050 0.2840 0.2760 0.2660 0.2560 0.2500
11.124000 0.2460 0.2460 0.2460 0.2450 0.2450
11.157050 0.2450 0.2460 0.2530 0.2640 0.2840
11.190000 0.3010 0.3170 0.3260 0.3290 0.3290
11.223050 0.3290 0.3290 0.3290 0.3270 0.3220
11.256000 0.3140 0.3110 0.3090 0.3040 0.2960
11.289050 0.2880 0.2790 0.2710 0.2640 0.2540
11.322000 0.2460 0.2350 0.2250 0.2110 0.1970
11.355050 0.1780 0.1630 0.1500 0.1350 0.1240
11.388000 0.1140 0.1040 0.0970 0.0940 0.0910
11.421050 0.0870 0.0840 0.0810 0.0790 0.0790
11.454000 0.0810 0.0810 0.0820 0.0860 0.0890
11.487050 0.0910 0.0910 0.0920 0.0920 0.0910
11.521000 0.0910 0.0910 0.0890 0.0870 0.0840
11.554050 0.0810 0.0770 0.0720 0.0710 0.0670
11.587000 0.0670 0.0660 0.0640 0.0620 0.0620
11.620050 0.0620 0.0610 0.0610 0.0590 0.0590
11.653000 0.0570 0.0570 0.0520 0.0490 0.0480
11.686050 0.0440 0.0390 0.0380 0.0380 0.0380
11.719000 0.0380 0.0380 0.0380 0.0380 0.0360
11.752050 0.0340 0.0330 0.0310 0.0310 0.0310
11.785000 0.0310 0.0310 0.0310 0.0310 0.0310
11.818050 0.0310 0.0310 0.0310 0.0310 0.0310
11.851000 0.0310 0.0310 0.0310 0.0310 0.0310
11.884050 0.0310 0.0310 0.0310 0.0310 0.0310
11.917000 0.0330 0.0330 0.0330 0.0290 0.0290
11.950050 0.0280 0.0280 0.0280 0.0280 0.0290
11.983000 0.0310 0.0310 0.0310 0.0310 0.0310
12.016050 0.0330 0.0330 0.0330 0.0330 0.0330
12.049000 0.0330 0.0330 0.0330 0.0330 0.0330
12.082050 0.0310 0.0310 0.0290 0.0290 0.0290
12.115000 0.0290 0.0290 0.0290 0.0290 0.0310
12.148050 0.0310 0.0310 0.0330 0.0330 0.0330
12.181000 0.0340 0.0340 0.0340 0.0340 0.0340
12.214050 0.0340 0.0340 0.0330 0.0330 0.0330
12.247000 0.0330 0.0340 0.0340 0.0340 0.0330
12.280050 0.0330 0.0330 0.0340 0.0340 0.0340
12.313000 0.0360 0.0360 0.0380 0.0380 0.0380
12.346050 0.0390 0.0390 0.0390 0.0390 0.0390
12.379000 0.0390 0.0390 0.0380 0.0380 0.0380
12.412050 0.0360 0.0330 0.0330 0.0310 0.0310
12.445000 0.0310 0.0330 0.0330 0.0330 0.0330
12.478050 0.0330 0.0330 0.0330 0.0310 0.0310
12.512000 0.0310 0.0290 0.0290 0.0310 0.0310
12.545050 0.0340 0.0360 0.0380 0.0380 0.0360
12.578000 0.0340 0.0330 0.0330 0.0330 0.0330
12.611050 0.0330 0.0330 0.0340 0.0340 0.0380
12.644000 0.0380 0.0380 0.0380 0.0380 0.0390
12.677050 0.0390 0.0390 0.0390 0.0380 0.0380
12.710000 0.0380 0.0360 0.0360 0.0340 0.0340
12.743050 0.0360 0.0360 0.0380 0.0380 0.0380
12.776000 0.0380 0.0380 0.0360 0.0360 0.0360
12.809050 0.0340 0.0340 0.0340 0.0340 0.0360
12.842000 0.0360 0.0360 0.0360 0.0380 0.0380
12.875050 0.0390 0.0430 0.0480 0.0520 0.0560
12.908000 0.0610 0.0720 0.0840 0.0920 0.1000
12.941050 0.1120 0.1200 0.1300 0.1420 0.1530
12.974000 0.1630 0.1750 0.1880 0.2000 0.2110
13.007050 0.2250 0.2350 0.2450 0.2480 0.2510
13.040000 0.2580 0.2640 0.2730 0.2780 0.2790
13.073050 0.2810 0.2810 0.2810 0.2810 0.2810
13.106000 0.2810 0.2790 0.2710 0.2610 0.2560
13.139050 0.2500 0.2450 0.2380 0.2280 0.2160
13.172000 0.2050 0.1920 0.1850 0.1700 0.1550
13.205050 0.1500 0.1450 0.1370 0.1270 0.1190
13.238000 0.1150 0.1140 0.1100 0.1090 0.1070
13.271050 0.1050 0.1050 0.1070 0.1190 0.1290
13.304000 0.1390 0.1470 0.1530 0.1630 0.1720
13.337050 0.1850 0.1980 0.2150 0.2360 0.2540
13.370000 0.2640 0.2740 0.2910 0.3110 0.3310
13.403050 0.3540 0.3640 0.3790 0.3920 0.4080
13.437000 0.4230 0.4370 0.4470 0.4560 0.4630
13.470050 0.4710 0.4800 0.4860 0.4950 0.5010
13.503000 0.5080 0.5140 0.5210 0.5280 0.5290
13.536050 0.5330 0.5430 0.5510 0.5570 0.5590
13.569000 0.5610 0.5660 0.5720 0.5740 0.5770
13.602050 0.5840 0.5890 0.5920 0.5970 0.5990
13.635000 0.5990 0.6000 0.6020 0.6050 0.6090
13.668050 0.6140 0.6190 0.6190 0.6200 0.6250
13.701000 0.6300 0.6340 0.6370 0.6390 0.6420
13.734050 0.6440 0.6490 0.6490 0.6500 0.6530
13.767000 0.6570 0.6570 0.6580 0.6580 0.6600
13.800050 0.6630 0.6680 0.6680 0.6680 0.6680
13.833000 0.6700 0.6720 0.6730 0.6730 0.6730
13.866050 0.6730 0.6730 0.6730 0.6750 0.6770
13.899000 0.6770 0.6770 0.6770 0.6770 0.6770
13.932050 0.6770 0.6750 0.6750 0.6750 0.6770
13.965000 0.6770 0.6780 0.6780 0.6780 0.6780
13.998050 0.6770 0.6770 0.6770 0.6780 0.6780
14.031000 0.6780 0.6780 0.6770 0.6770 0.6730
14.064050 0.6730 0.6720 0.6700 0.6680 0.6680
14.097000 0.6670 0.6670 0.6650 0.6630 0.6620
14.130050 0.6600 0.6570 0.6550 0.6520 0.6490
14.163000 0.6440 0.6400 0.6390 0.6350 0.6340
14.196050 0.6290 0.6220 0.6190 0.6150 0.6090
14.229000 0.6070 0.6050 0.6040 0.6000 0.5990
14.262050 0.5920 0.5910 0.5890 0.5870 0.5860
14.295000 0.5820 0.5810 0.5790 0.5760 0.5720
14.328050 0.5710 0.5690 0.5670 0.5620 0.5590
14.361000 0.5540 0.5510 0.5460 0.5390 0.5360
14.394050 0.5310 0.5230 0.5140 0.5110 0.5030
14.428000 0.4950 0.4860 0.4800 0.4750 0.4680
14.461050 0.4600 0.4510 0.4420 0.4320 0.4200
14.494000 0.4120 0.4030 0.3970 0.3870 0.3750
14.527050 0.3700 0.3690 0.3650 0.3570 0.3500
14.560000 0.3420 0.3390 0.3360 0.3320 0.3290
14.593050 0.3240 0.3210 0.3160 0.3090 0.3060
14.626000 0.3020 0.3010 0.2990 0.2980 0.2980
14.659050 0.2960 0.2960 0.2960 0.2980 0.2980
14.692000 0.3010 0.3010 0.3040 0.3060 0.3110
14.725050 0.3170 0.3210 0.3220 0.3270 0.3310
14.758000 0.3490 0.3640 0.3740 0.3790 0.3800
14.791050 0.3940 0.4030 0.4130 0.4220 0.4330
14.824000 0.4430 0.4530 0.4650 0.4760 0.4880
14.857050 0.5000 0.5110 0.5240 0.5360 0.5480
14.890000 0.5590 0.5710 0.5820 0.5940 0.6020
14.923050 0.6090 0.6150 0.6200 0.6250 0.6350
14.956000 0.6450 0.6500 0.6520 0.6570 0.6650
14.989050 0.6750 0.6800 0.6850 0.6920 0.7000
15.022000 0.7110 0.7180 0.7210 0.7310 0.7360
15.055050 0.7450 0.7500 0.7530 0.7560 0.7580
15.088000 0.7590 0.7610 0.7640 0.7660 0.7690
15.121050 0.7730 0.7760 0.7780 0.7790 0.7810
15.154000 0.7830 0.7830 0.7840 0.7880 0.7880
15.187050 0.7880 0.7890 0.7890 0.7890 0.7890
15.220000 0.7910 0.7930 0.7940 0.7940 0.7960
15.253050 0.7980 0.7990 0.8010 0.8020 0.8020
15.286000 0.8020 0.8020 0.8010 0.7990 0.7990
15.319050 0.7980 0.7980 0.7960 0.7960 0.7960
15.353000 0.7960 0.7960 0.7980 0.7980 0.7990
15.386050 0.7990 0.7980 0.7910 0.7890 0.7840
15.419000 0.7810 0.7790 0.7790 0.7780 0.7780
15.452050 0.7760 0.7740 0.7730 0.7710 0.7710
15.485000 0.7690 0.7680 0.7640 0.7590 0.7540
15.518050 0.7500 0.7430 0.7380 0.7310 0.7250
15.551000 0.7200 0.7150 0.7080 0.7030 0.6970
15.584050 0.6900 0.6830 0.6770 0.6720 0.6680
15.617000 0.6680 0.6670 0.6670 0.6650 0.6620
15.650050 0.6600 0.6580 0.6570 0.6530 0.6520
15.683000 0.6500 0.6500 0.6500 0.6500 0.6520
15.716050 0.6570 0.6620 0.6630 0.6680 0.6700
15.749000 0.6720 0.6780 0.6850 0.6920 0.6980
15.782050 0.7050 0.7100 0.7150 0.7180 0.7200
15.815000 0.7250 0.7300 0.7350 0.7400 0.7450
15.848050 0.7500 0.7510 0.7540 0.7580 0.7610
15.881000 0.7640 0.7680 0.7690 0.7710 0.7730
15.914050 0.7730 0.7740 0.7740 0.7740 0.7740
15.947000 0.7740 0.7740 0.7740 0.7740 0.7740
15.980050 0.7740 0.7760 0.7740 0.7740
##END=
