##TITLE=N,N'-BIS(THIOSULFATOACETYL)HYDRAZINE, DISODIUM SALT
##JCAMP-DX=4.24
##DATA TYPE=INFRARED SPECTRUM
##CLASS=COBLENTZ
##ORIGIN=ARTHUR D. LITTLE, INC.
##OWNER=COBLENTZ SOCIETY
Collection (C) 2018 copyright by the U.S. Secretary of Commerce
on behalf of the United States of America. All rights reserved.
##DATE=Not specified, most likely prior to 1970
##MOLFORM=C4 H6 N2 O8 S4 Na2
##SOURCE REFERENCE=COBLENTZ NO. 4532
##$NIST ID=B6004532
##$NIST SOURCE=COBLENTZ
##$NIST IMAGE=cob4532
##SPECTROMETER/DATA SYSTEM=Not specified, most likely a prism, grating, or hybrid spectrometer.
##STATE=SOLID (NUJOL MULL)
##PATH LENGTH=
$$SPECTRAL CONTAMINATIN DUE TO OIL AROUND 2925 CM^-^1
##SAMPLING PROCEDURE=TRANSMISSION
##RESOLUTION=4
##DATA PROCESSING=DIGITIZED BY NIST FROM HARD COPY
##XUNITS=1/CM
##YUNITS=TRANSMITTANCE
##XFACTOR=1.000000
##YFACTOR=1
##DELTAX=001.594283
##FIRSTX=649.258
##LASTX=3997.25
##FIRSTY=0.211
##MAXX=3997.25
##MINX=649.258
##MAXY=1.015
##MINY=0.036
##NPOINTS=2101
##XYDATA=(X++(Y..Y))
649.258000 0.2110 0.2200 0.2540 0.2570 0.2860
657.233211 0.3240 0.3650 0.3890 0.4030 0.4180
665.201000 0.4300 0.4450 0.4570 0.4700 0.4830
673.176211 0.4960 0.5080 0.5210 0.5320 0.5450
681.143000 0.5560 0.5670 0.5780 0.5890 0.5990
689.118211 0.6100 0.6200 0.6270 0.6370 0.6450
697.086000 0.6530 0.6610 0.6670 0.6740 0.6770
705.061211 0.6780 0.6800 0.6800 0.6800 0.6820
713.029000 0.6820 0.6820 0.6830 0.6830 0.6850
721.004211 0.6910 0.6940 0.6970 0.7020 0.7070
728.972000 0.7120 0.7180 0.7240 0.7290 0.7360
736.947211 0.7400 0.7470 0.7510 0.7550 0.7580
744.915000 0.7590 0.7610 0.7640 0.7660 0.7690
752.890211 0.7710 0.7710 0.7710 0.7710 0.7710
760.858000 0.7690 0.7660 0.7610 0.7550 0.7440
768.833211 0.7340 0.7020 0.6230 0.6050 0.6050
776.800000 0.6320 0.7040 0.7440 0.7820 0.7830
784.775211 0.7980 0.8150 0.8180 0.8290 0.8310
792.743000 0.8340 0.8360 0.8370 0.8390 0.8420
800.718211 0.8440 0.8450 0.8470 0.8470 0.8480
808.686000 0.8480 0.8480 0.8480 0.8480 0.8480
816.661211 0.8480 0.8480 0.8480 0.8480 0.8480
824.629000 0.8480 0.8500 0.8500 0.8520 0.8520
832.604211 0.8520 0.8530 0.8530 0.8530 0.8530
840.572000 0.8520 0.8520 0.8520 0.8520 0.8520
848.547211 0.8500 0.8500 0.8480 0.8480 0.8470
856.515000 0.8450 0.8440 0.8420 0.8410 0.8370
864.490211 0.8360 0.8330 0.8290 0.8230 0.8070
872.457000 0.7930 0.7510 0.7180 0.6720 0.6350
880.432211 0.6000 0.6000 0.7450 0.7630 0.7770
888.400000 0.8010 0.8120 0.8230 0.8310 0.8330
896.375211 0.8340 0.8340 0.8340 0.8340 0.8330
904.343000 0.8290 0.8290 0.8260 0.8250 0.8180
912.318211 0.8120 0.8070 0.8010 0.7900 0.7740
920.286000 0.7610 0.7470 0.6770 0.6700 0.6700
928.261211 0.6850 0.6970 0.7130 0.7310 0.7470
936.229000 0.7630 0.7710 0.7720 0.7720 0.7710
944.204211 0.7710 0.7690 0.7670 0.7660 0.7660
952.172000 0.7640 0.7630 0.7630 0.7630 0.7590
960.147211 0.7560 0.7530 0.7500 0.7500 0.7480
968.114000 0.7470 0.7420 0.7390 0.7340 0.7280
976.089211 0.7210 0.7150 0.7090 0.7010 0.6940
984.057000 0.6860 0.6770 0.6690 0.6610 0.6510
992.032211 0.6420 0.6340 0.6240 0.6150 0.6050
1000.000000 0.5970 0.5860 0.5780 0.5700 0.5610
1007.975211 0.5530 0.5500 0.5480 0.5350 0.5100
1015.943000 0.4810 0.4490 0.4140 0.3760 0.3380
1023.918211 0.2970 0.2540 0.2080 0.1620 0.1120
1031.886000 0.1110 0.1110 0.1120 0.1170 0.1190
1039.861211 0.1200 0.1200 0.1220 0.1240 0.1700
1047.828000 0.2160 0.2940 0.3590 0.4110 0.4540
1055.803211 0.4890 0.5180 0.5400 0.5580 0.5750
1063.771000 0.5910 0.6070 0.6240 0.6310 0.6320
1071.746211 0.6310 0.6290 0.6290 0.6270 0.6240
1079.714000 0.6230 0.6180 0.6180 0.6130 0.6040
1087.689211 0.5930 0.5800 0.5670 0.5540 0.5430
1095.657000 0.5350 0.5310 0.5290 0.5230 0.5180
1103.632211 0.5130 0.5080 0.5030 0.5000 0.4970
1111.600000 0.4920 0.4890 0.4860 0.4830 0.4780
1119.575211 0.4750 0.4700 0.4640 0.4570 0.4510
1127.543000 0.4430 0.4350 0.4260 0.4140 0.4020
1135.518211 0.3870 0.3720 0.3560 0.3520 0.3540
1143.485000 0.3570 0.3600 0.3620 0.3650 0.3650
1151.460211 0.3650 0.3640 0.3560 0.3460 0.3350
1159.428000 0.3170 0.3020 0.2860 0.2700 0.2570
1167.403211 0.2440 0.2330 0.2220 0.2140 0.2060
1175.371000 0.2000 0.1550 0.1380 0.1140 0.1110
1183.346211 0.1080 0.1040 0.1030 0.1010 0.1010
1191.314000 0.1000 0.1000 0.1000 0.1000 0.1000
1199.289211 0.1010 0.1010 0.1030 0.1060 0.1080
1207.257000 0.1110 0.1160 0.1200 0.1270 0.1360
1215.232211 0.1490 0.1550 0.1580 0.1600 0.1630
1223.200000 0.1660 0.1660 0.1650 0.1620 0.1600
1231.175211 0.1550 0.1470 0.1390 0.1240 0.1170
1239.142000 0.1160 0.1140 0.1140 0.1140 0.1160
1247.117211 0.1160 0.1170 0.1200 0.1280 0.1350
1255.085000 0.1410 0.1470 0.1550 0.1650 0.1780
1263.060211 0.1980 0.2250 0.2550 0.2900 0.3290
1271.028000 0.3650 0.4020 0.4370 0.4680 0.4960
1279.003211 0.5150 0.5400 0.5610 0.5800 0.5940
1286.971000 0.6080 0.6200 0.6310 0.6390 0.6480
1294.946211 0.6560 0.6620 0.6700 0.6720 0.6740
1302.914000 0.6750 0.6750 0.6750 0.6770 0.6770
1310.889211 0.6770 0.6780 0.6860 0.6960 0.7130
1318.857000 0.7240 0.7310 0.7370 0.7400 0.7440
1326.832211 0.7450 0.7470 0.7470 0.7470 0.7470
1334.799000 0.7450 0.7450 0.7440 0.7400 0.7390
1342.774211 0.7390 0.7370 0.7360 0.7340 0.7320
1350.742000 0.7310 0.7290 0.7260 0.7210 0.7120
1358.717211 0.7010 0.6860 0.6670 0.6420 0.6160
1366.685000 0.6080 0.5880 0.5530 0.5240 0.5020
1374.660211 0.4910 0.4910 0.5100 0.5160 0.5190
1382.628000 0.5150 0.4960 0.4910 0.4760 0.4760
1390.603211 0.5050 0.5590 0.5690 0.5890 0.5910
1398.571000 0.5960 0.5990 0.6260 0.6560 0.6780
1406.546211 0.7070 0.7090 0.7090 0.7100 0.7100
1414.513000 0.7090 0.7070 0.7020 0.6990 0.6930
1422.488211 0.6890 0.6860 0.6800 0.6770 0.6720
1430.456000 0.6690 0.6640 0.6510 0.6270 0.6020
1438.431211 0.5750 0.5500 0.5230 0.4960 0.4700
1446.399000 0.4450 0.4190 0.3940 0.3720 0.3490
1454.374211 0.3290 0.3080 0.2760 0.2730 0.2600
1462.342000 0.2490 0.2400 0.2330 0.2300 0.2280
1470.317211 0.2270 0.2250 0.2200 0.2140 0.2050
1478.285000 0.1900 0.1740 0.1650 0.1580 0.1570
1486.260211 0.1570 0.1580 0.1580 0.1600 0.1630
1494.228000 0.1700 0.1760 0.1870 0.2000 0.2170
1502.203211 0.2400 0.2650 0.2950 0.3570 0.3910
1510.170000 0.4110 0.4240 0.4450 0.4800 0.5110
1518.145211 0.5430 0.5730 0.5970 0.6130 0.6160
1526.113000 0.6310 0.6420 0.6510 0.6580 0.6770
1534.088211 0.6890 0.7120 0.7210 0.7240 0.7260
1542.056000 0.7290 0.7310 0.7310 0.7290 0.7260
1550.031211 0.7240 0.7200 0.7130 0.7120 0.7070
1557.999000 0.7040 0.6970 0.6930 0.6860 0.6820
1565.974211 0.6750 0.6700 0.6640 0.6590 0.6560
1573.942000 0.6510 0.6480 0.6240 0.6210 0.6180
1581.917211 0.6080 0.5860 0.5700 0.5530 0.5370
1589.885000 0.5150 0.5000 0.4840 0.4800 0.4530
1597.860211 0.4300 0.3940 0.3730 0.3490 0.3290
1605.827000 0.3050 0.2860 0.2570 0.2410 0.2240
1613.802211 0.2130 0.1860 0.1660 0.1440 0.1300
1621.770000 0.1270 0.1240 0.1220 0.1200 0.1220
1629.745211 0.1240 0.1280 0.1310 0.1930 0.1920
1637.713000 0.1890 0.1870 0.1860 0.1870 0.2000
1645.688211 0.2110 0.2220 0.2360 0.2590 0.2750
1653.656000 0.3060 0.3290 0.3300 0.3490 0.3590
1661.631211 0.4030 0.4180 0.4400 0.4670 0.5000
1669.599000 0.5210 0.5460 0.5610 0.5880 0.5940
1677.574211 0.6050 0.6210 0.6260 0.6370 0.6480
1685.542000 0.6500 0.6510 0.6580 0.6660 0.6750
1693.517211 0.6820 0.6830 0.6860 0.6880 0.6910
1701.484000 0.6930 0.6960 0.6960 0.6990 0.7040
1709.459211 0.7210 0.7280 0.7400 0.7530 0.7560
1717.427000 0.7610 0.7630 0.7750 0.7910 0.8020
1725.402211 0.8060 0.8180 0.8200 0.8230 0.8330
1733.370000 0.8360 0.8420 0.8550 0.8660 0.8690
1741.345211 0.8720 0.8740 0.8740 0.8750 0.8800
1749.313000 0.8850 0.8870 0.8900 0.8930 0.8960
1757.288211 0.8980 0.8990 0.9010 0.9010 0.9030
1765.256000 0.9040 0.9060 0.9060 0.9070 0.9090
1773.231211 0.9090 0.9100 0.9100 0.9100 0.9120
1781.198000 0.9120 0.9120 0.9120 0.9140 0.9140
1789.173211 0.9140 0.9140 0.9120 0.9120 0.9120
1797.141000 0.9100 0.9100 0.9100 0.9120 0.9120
1805.116211 0.9120 0.9140 0.9140 0.9140 0.9150
1813.084000 0.9180 0.9200 0.9230 0.9230 0.9250
1821.059211 0.9250 0.9260 0.9260 0.9280 0.9280
1829.027000 0.9280 0.9300 0.9300 0.9300 0.9300
1837.002211 0.9310 0.9310 0.9330 0.9330 0.9330
1844.970000 0.9330 0.9310 0.9310 0.9310 0.9300
1852.945211 0.9300 0.9300 0.9310 0.9330 0.9330
1860.913000 0.9330 0.9340 0.9360 0.9370 0.9410
1868.888211 0.9450 0.9500 0.9580 0.9600 0.9600
1876.855000 0.9600 0.9580 0.9580 0.9570 0.9570
1884.830211 0.9550 0.9550 0.9550 0.9530 0.9530
1892.798000 0.9530 0.9530 0.9530 0.9550 0.9550
1900.773211 0.9550 0.9550 0.9550 0.9550 0.9530
1908.741000 0.9530 0.9530 0.9530 0.9530 0.9530
1916.716211 0.9520 0.9520 0.9520 0.9520 0.9520
1924.684000 0.9520 0.9520 0.9520 0.9520 0.9520
1932.659211 0.9500 0.9520 0.9520 0.9520 0.9520
1940.627000 0.9520 0.9520 0.9500 0.9500 0.9500
1948.602211 0.9500 0.9500 0.9500 0.9500 0.9500
1956.570000 0.9500 0.9500 0.9520 0.9530 0.9600
1964.545211 0.9630 0.9660 0.9660 0.9660 0.9680
1972.512000 0.9680 0.9690 0.9690 0.9710 0.9720
1980.487211 0.9720 0.9720 0.9710 0.9710 0.9710
1988.455000 0.9690 0.9690 0.9710 0.9710 0.9720
1996.430211 0.9720 0.9760 0.9800 0.9840 0.9850
2004.398000 0.9870 0.9880 0.9900 0.9920 0.9920
2012.373211 0.9930 0.9930 1.0000 1.0010 1.0070
2020.341000 1.0140 1.0140 1.0150 1.0150 1.0150
2028.316211 1.0150 1.0150 1.0150 1.0150 1.0140
2036.284000 1.0140 1.0140 1.0140 1.0140 1.0140
2044.259211 1.0140 1.0140 1.0140 1.0140 1.0140
2052.227000 1.0140 1.0140 1.0140 1.0120 1.0120
2060.202211 1.0120 1.0120 1.0120 1.0110 1.0090
2068.169000 1.0090 1.0070 1.0070 1.0060 1.0060
2076.144211 1.0040 1.0040 1.0040 1.0040 1.0060
2084.112000 1.0060 1.0060 1.0070 1.0070 1.0090
2092.087211 1.0090 1.0110 1.0110 1.0120 1.0120
2100.055000 1.0120 1.0120 1.0140 1.0140 1.0140
2108.030211 1.0140 1.0140 1.0140 1.0140 1.0140
2115.998000 1.0140 1.0140 1.0140 1.0140 1.0140
2123.973211 1.0140 1.0140 1.0120 1.0120 1.0120
2131.941000 1.0110 1.0110 1.0110 1.0090 1.0090
2139.916211 1.0090 1.0070 1.0070 1.0070 1.0060
2147.884000 1.0060 1.0060 1.0040 1.0040 1.0040
2155.859211 1.0030 1.0030 1.0030 1.0010 1.0000
2163.826000 1.0000 0.9980 0.9980 0.9960 0.9960
2171.801211 0.9950 0.9950 0.9950 0.9930 0.9930
2179.769000 0.9930 0.9920 0.9920 0.9920 0.9920
2187.744211 0.9920 0.9920 0.9920 0.9920 0.9920
2195.712000 0.9920 0.9920 0.9920 0.9900 0.9900
2203.687211 0.9900 0.9900 0.9880 0.9880 0.9870
2211.655000 0.9850 0.9840 0.9820 0.9790 0.9790
2219.630211 0.9770 0.9770 0.9760 0.9740 0.9740
2227.598000 0.9740 0.9710 0.9710 0.9710 0.9690
2235.573211 0.9690 0.9690 0.9680 0.9680 0.9680
2243.541000 0.9680 0.9660 0.9660 0.9660 0.9660
2251.516211 0.9660 0.9660 0.9660 0.9660 0.9650
2259.483000 0.9630 0.9630 0.9630 0.9630 0.9610
2267.458211 0.9610 0.9610 0.9630 0.9660 0.9690
2275.426000 0.9710 0.9720 0.9760 0.9760 0.9760
2283.401211 0.9760 0.9760 0.9760 0.9760 0.9770
2291.369000 0.9770 0.9770 0.9770 0.9770 0.9770
2299.344211 0.9770 0.9760 0.9760 0.9760 0.9760
2307.312000 0.9740 0.9720 0.9720 0.9720 0.9710
2315.287211 0.9690 0.9680 0.9660 0.9630 0.9610
2323.255000 0.9600 0.9600 0.9580 0.9580 0.9550
2331.230211 0.9550 0.9530 0.9530 0.9520 0.9500
2339.198000 0.9490 0.9490 0.9470 0.9470 0.9450
2347.173211 0.9450 0.9440 0.9440 0.9420 0.9420
2355.140000 0.9410 0.9410 0.9420 0.9440 0.9450
2363.115211 0.9470 0.9470 0.9500 0.9520 0.9530
2371.083000 0.9550 0.9570 0.9580 0.9600 0.9610
2379.058211 0.9650 0.9680 0.9690 0.9690 0.9710
2387.026000 0.9710 0.9690 0.9690 0.9690 0.9690
2395.001211 0.9690 0.9690 0.9690 0.9690 0.9690
2402.969000 0.9680 0.9680 0.9680 0.9680 0.9690
2410.944211 0.9690 0.9690 0.9690 0.9680 0.9680
2418.912000 0.9660 0.9660 0.9650 0.9650 0.9650
2426.887211 0.9650 0.9650 0.9650 0.9650 0.9650
2434.854000 0.9650 0.9650 0.9650 0.9630 0.9630
2442.829211 0.9630 0.9630 0.9630 0.9630 0.9630
2450.797000 0.9630 0.9610 0.9610 0.9610 0.9610
2458.772211 0.9610 0.9610 0.9610 0.9610 0.9600
2466.740000 0.9600 0.9600 0.9600 0.9600 0.9600
2474.715211 0.9580 0.9580 0.9580 0.9580 0.9580
2482.683000 0.9580 0.9570 0.9550 0.9530 0.9520
2490.658211 0.9520 0.9520 0.9500 0.9500 0.9490
2498.626000 0.9490 0.9470 0.9470 0.9450 0.9450
2506.601211 0.9440 0.9440 0.9440 0.9420 0.9420
2514.569000 0.9420 0.9410 0.9410 0.9390 0.9390
2522.544211 0.9370 0.9370 0.9360 0.9360 0.9360
2530.511000 0.9360 0.9340 0.9340 0.9340 0.9340
2538.486211 0.9330 0.9330 0.9330 0.9330 0.9330
2546.454000 0.9330 0.9330 0.9330 0.9330 0.9330
2554.429211 0.9310 0.9310 0.9310 0.9300 0.9300
2562.397000 0.9300 0.9300 0.9280 0.9280 0.9280
2570.372211 0.9250 0.9230 0.9230 0.9220 0.9200
2578.340000 0.9200 0.9200 0.9180 0.9180 0.9180
2586.315211 0.9150 0.9120 0.9120 0.9120 0.9100
2594.283000 0.9100 0.9090 0.9060 0.9040 0.9030
2602.258211 0.9030 0.9010 0.9010 0.8990 0.8990
2610.225000 0.8980 0.8960 0.8930 0.8930 0.8910
2618.200211 0.8900 0.8880 0.8870 0.8850 0.8850
2626.168000 0.8830 0.8820 0.8820 0.8800 0.8800
2634.143211 0.8790 0.8790 0.8790 0.8800 0.8800
2642.111000 0.8800 0.8820 0.8820 0.8830 0.8870
2650.086211 0.8900 0.8910 0.8910 0.8880 0.8870
2658.054000 0.8870 0.8850 0.8830 0.8830 0.8830
2666.029211 0.8820 0.8820 0.8820 0.8820 0.8800
2673.997000 0.8800 0.8800 0.8800 0.8790 0.8790
2681.972211 0.8790 0.8790 0.8790 0.8790 0.8790
2689.940000 0.8790 0.8790 0.8790 0.8790 0.8790
2697.915211 0.8790 0.8790 0.8770 0.8770 0.8770
2705.882000 0.8750 0.8750 0.8740 0.8740 0.8710
2713.857211 0.8710 0.8690 0.8690 0.8660 0.8640
2721.825000 0.8630 0.8630 0.8610 0.8600 0.8600
2729.800211 0.8580 0.8580 0.8600 0.8630 0.8640
2737.768000 0.8680 0.8710 0.8720 0.8740 0.8750
2745.743211 0.8750 0.8750 0.8750 0.8740 0.8740
2753.711000 0.8740 0.8740 0.8740 0.8720 0.8720
2761.686211 0.8720 0.8720 0.8710 0.8690 0.8680
2769.654000 0.8680 0.8660 0.8640 0.8630 0.8610
2777.629211 0.8600 0.8580 0.8550 0.8530 0.8520
2785.596000 0.8480 0.8450 0.8310 0.8260 0.8230
2793.571211 0.8210 0.8200 0.8170 0.8070 0.8020
2801.539000 0.7980 0.7930 0.7900 0.7850 0.7820
2809.514211 0.7790 0.7750 0.7740 0.7720 0.7660
2817.482000 0.7500 0.7510 0.7500 0.7320 0.7180
2825.457211 0.7120 0.7010 0.6850 0.6720 0.6500
2833.425000 0.6210 0.5860 0.5230 0.4860 0.4670
2841.400211 0.3990 0.3650 0.3130 0.2870 0.2350
2849.368000 0.1740 0.1710 0.1620 0.1540 0.1510
2857.343211 0.1490 0.1510 0.1520 0.1620 0.1700
2865.311000 0.1730 0.1760 0.1780 0.1790 0.1820
2873.286211 0.1890 0.2010 0.2140 0.2300 0.2330
2881.253000 0.2400 0.2410 0.2400 0.2330 0.2280
2889.228211 0.2060 0.2010 0.1890 0.1680 0.1660
2897.196000 0.1380 0.1240 0.1110 0.1090 0.1040
2905.171211 0.1040 0.1030 0.0930 0.0760 0.0690
2913.139000 0.0620 0.0570 0.0460 0.0420 0.0390
2921.114211 0.0390 0.0380 0.0360 0.0360 0.0380
2929.082000 0.0380 0.0410 0.0420 0.0440 0.0460
2937.057211 0.0500 0.0570 0.0760 0.0820 0.0850
2945.025000 0.0850 0.0840 0.0760 0.0690 0.0660
2953.000211 0.0650 0.0660 0.0680 0.0710 0.0810
2960.968000 0.0840 0.0930 0.1010 0.1030 0.1190
2968.943211 0.1380 0.1520 0.1860 0.1950 0.2300
2976.910000 0.2540 0.2680 0.3100 0.3240 0.3510
2984.885211 0.3650 0.3790 0.4000 0.4110 0.4160
2992.853000 0.4260 0.4320 0.4350 0.4400 0.4510
3000.828211 0.4560 0.4670 0.4810 0.4960 0.5030
3008.796000 0.5070 0.5110 0.5160 0.5180 0.5190
3016.771211 0.5210 0.5230 0.5240 0.5260 0.5260
3024.739000 0.5240 0.5230 0.5230 0.5210 0.5150
3032.714211 0.5110 0.5080 0.5050 0.5020 0.4990
3040.682000 0.4990 0.4910 0.4840 0.4800 0.4780
3048.657211 0.4760 0.4750 0.4730 0.4730 0.4750
3056.625000 0.4750 0.4760 0.4780 0.4810 0.4830
3064.600211 0.4860 0.4890 0.4920 0.4990 0.5020
3072.567000 0.5100 0.5110 0.5130 0.5260 0.5320
3080.542211 0.5350 0.5500 0.5580 0.5610 0.5640
3088.510000 0.5690 0.5700 0.5700 0.5720 0.5730
3096.485211 0.5730 0.5750 0.5750 0.5730 0.5720
3104.453000 0.5700 0.5690 0.5670 0.5640 0.5620
3112.428211 0.5590 0.5560 0.5560 0.5530 0.5530
3120.396000 0.5510 0.5500 0.5400 0.5370 0.5370
3128.371211 0.5350 0.5340 0.5310 0.5290 0.5210
3136.339000 0.5190 0.5160 0.5130 0.5100 0.5020
3144.314211 0.5000 0.4990 0.4960 0.4920 0.4890
3152.281000 0.4830 0.4810 0.4760 0.4700 0.4640
3160.256211 0.4610 0.4560 0.4510 0.4430 0.4410
3168.224000 0.4370 0.4340 0.4210 0.4100 0.4050
3176.199211 0.4030 0.4020 0.4000 0.3890 0.3870
3184.167000 0.3830 0.3780 0.3670 0.3570 0.3560
3192.142211 0.3510 0.3490 0.3430 0.3370 0.3300
3200.110000 0.3210 0.3160 0.3140 0.3060 0.3000
3208.085211 0.2940 0.2900 0.2890 0.2860 0.2820
3216.053000 0.2810 0.2790 0.2790 0.2780 0.2780
3224.028211 0.2780 0.2780 0.2780 0.2790 0.2790
3231.996000 0.2790 0.2810 0.2820 0.2820 0.2840
3239.971211 0.2860 0.2860 0.2900 0.2900 0.2940
3247.938000 0.2970 0.3000 0.3030 0.3030 0.3060
3255.913211 0.3100 0.3110 0.3140 0.3170 0.3210
3263.881000 0.3220 0.3250 0.3270 0.3300 0.3320
3271.856211 0.3380 0.3440 0.3490 0.3510 0.3520
3279.824000 0.3590 0.3620 0.3640 0.3700 0.3750
3287.799211 0.3780 0.3810 0.3910 0.3990 0.4020
3295.767000 0.4050 0.4110 0.4180 0.4260 0.4290
3303.742211 0.4320 0.4350 0.4380 0.4430 0.4610
3311.710000 0.4640 0.4700 0.4750 0.4800 0.4810
3319.685211 0.4910 0.5000 0.5000 0.5080 0.5110
3327.653000 0.5190 0.5240 0.5270 0.5310 0.5420
3335.628211 0.5530 0.5650 0.5670 0.5690 0.5700
3343.595000 0.5800 0.5830 0.5880 0.5890 0.5940
3351.570211 0.5970 0.6000 0.6000 0.6040 0.6070
3359.538000 0.6160 0.6260 0.6270 0.6290 0.6310
3367.513211 0.6310 0.6350 0.6350 0.6390 0.6420
3375.481000 0.6430 0.6470 0.6480 0.6500 0.6510
3383.456211 0.6510 0.6530 0.6530 0.6550 0.6550
3391.424000 0.6560 0.6560 0.6580 0.6580 0.6590
3399.399211 0.6590 0.6590 0.6590 0.6590 0.6610
3407.367000 0.6610 0.6610 0.6610 0.6620 0.6620
3415.342211 0.6620 0.6620 0.6620 0.6620 0.6620
3423.310000 0.6610 0.6610 0.6590 0.6590 0.6610
3431.285211 0.6610 0.6610 0.6610 0.6610 0.6590
3439.252000 0.6590 0.6590 0.6580 0.6580 0.6560
3447.227211 0.6560 0.6550 0.6550 0.6550 0.6550
3455.195000 0.6550 0.6550 0.6560 0.6560 0.6560
3463.170211 0.6560 0.6580 0.6580 0.6580 0.6580
3471.138000 0.6580 0.6560 0.6560 0.6550 0.6550
3479.113211 0.6530 0.6530 0.6530 0.6530 0.6530
3487.081000 0.6530 0.6550 0.6550 0.6550 0.6560
3495.056211 0.6560 0.6560 0.6560 0.6580 0.6580
3503.024000 0.6580 0.6580 0.6580 0.6580 0.6590
3510.999211 0.6590 0.6590 0.6610 0.6610 0.6620
3518.967000 0.6620 0.6640 0.6640 0.6640 0.6660
3526.942211 0.6660 0.6660 0.6670 0.6670 0.6670
3534.909000 0.6690 0.6690 0.6700 0.6700 0.6720
3542.884211 0.6720 0.6740 0.6740 0.6740 0.6770
3550.852000 0.6780 0.6800 0.6800 0.6830 0.6830
3558.827211 0.6850 0.6860 0.6880 0.6880 0.6880
3566.795000 0.6880 0.6890 0.6890 0.6890 0.6910
3574.770211 0.6940 0.6960 0.6970 0.6990 0.7020
3582.738000 0.7020 0.7050 0.7070 0.7090 0.7100
3590.713211 0.7120 0.7130 0.7130 0.7150 0.7170
3598.681000 0.7200 0.7210 0.7260 0.7280 0.7290
3606.656211 0.7310 0.7340 0.7360 0.7390 0.7480
3614.624000 0.7510 0.7580 0.7590 0.7610 0.7630
3622.599211 0.7630 0.7640 0.7660 0.7750 0.7790
3630.566000 0.7800 0.7820 0.7820 0.7820 0.7830
3638.541211 0.7860 0.7900 0.7980 0.8010 0.8020
3646.509000 0.8040 0.8090 0.8100 0.8120 0.8130
3654.484211 0.8150 0.8170 0.8170 0.8180 0.8180
3662.452000 0.8180 0.8200 0.8210 0.8230 0.8250
3670.427211 0.8260 0.8280 0.8280 0.8280 0.8260
3678.395000 0.8260 0.8260 0.8260 0.8260 0.8280
3686.370211 0.8280 0.8280 0.8280 0.8280 0.8280
3694.338000 0.8260 0.8260 0.8260 0.8250 0.8250
3702.313211 0.8260 0.8260 0.8250 0.8250 0.8250
3710.281000 0.8250 0.8250 0.8250 0.8230 0.8230
3718.256211 0.8230 0.8230 0.8230 0.8210 0.8210
3726.223000 0.8210 0.8200 0.8200 0.8180 0.8180
3734.198211 0.8170 0.8170 0.8170 0.8170 0.8170
3742.166000 0.8170 0.8170 0.8170 0.8150 0.8150
3750.141211 0.8130 0.8130 0.8120 0.8120 0.8120
3758.109000 0.8100 0.8100 0.8100 0.8100 0.8100
3766.084211 0.8100 0.8090 0.8090 0.8090 0.8090
3774.052000 0.8070 0.8070 0.8070 0.8070 0.8060
3782.027211 0.8060 0.8060 0.8060 0.8060 0.8060
3789.995000 0.8060 0.8060 0.8060 0.8060 0.8060
3797.970211 0.8060 0.8060 0.8060 0.8060 0.8040
3805.938000 0.8040 0.8040 0.8040 0.8020 0.8020
3813.913211 0.8020 0.8020 0.8010 0.7990 0.7990
3821.880000 0.7980 0.7980 0.7980 0.7990 0.7990
3829.855211 0.8010 0.8010 0.8010 0.8010 0.8010
3837.823000 0.7990 0.7980 0.7930 0.7900 0.7880
3845.798211 0.7880 0.7900 0.7910 0.7930 0.7930
3853.766000 0.7910 0.7910 0.7880 0.7860 0.7880
3861.741211 0.7900 0.7910 0.7910 0.7910 0.7880
3869.709000 0.7850 0.7850 0.7830 0.7830 0.7820
3877.684211 0.7820 0.7820 0.7820 0.7820 0.7820
3885.652000 0.7820 0.7820 0.7800 0.7800 0.7800
3893.627211 0.7800 0.7820 0.7820 0.7820 0.7790
3901.594000 0.7790 0.7790 0.7790 0.7790 0.7790
3909.569211 0.7790 0.7800 0.7820 0.7820 0.7830
3917.537000 0.7830 0.7820 0.7800 0.7790 0.7770
3925.512211 0.7770 0.7770 0.7790 0.7790 0.7820
3933.480000 0.7820 0.7770 0.7750 0.7750 0.7750
3941.455211 0.7770 0.7770 0.7770 0.7770 0.7770
3949.423000 0.7790 0.7790 0.7770 0.7770 0.7770
3957.398211 0.7770 0.7750 0.7750 0.7750 0.7750
3965.366000 0.7740 0.7740 0.7740 0.7740 0.7720
3973.341211 0.7720 0.7720 0.7710 0.7710 0.7710
3981.309000 0.7710 0.7710 0.7710 0.7710 0.7710
3989.284211 0.7710 0.7710 0.7710 0.7710 0.7710
3997.251000 0.7710
##END=
