##TITLE=2,5-DIBUTYROXY-4-HYDROXY BUTYROPHENONE
##JCAMP-DX=4.24
##DATA TYPE=INFRARED SPECTRUM
##CLASS=COBLENTZ
##ORIGIN=TENNESSEE EASTMAN COMPANY, RESEARCH LABORATORIES
##OWNER=COBLENTZ SOCIETY
Collection (C) 2018 copyright by the U.S. Secretary of Commerce
on behalf of the United States of America. All rights reserved.
##DATE=1960
##MOLFORM=C18 H24 O8
##SOURCE REFERENCE=COBLENTZ NO. 951
##$NIST ID=B6000951
##$NIST SOURCE=COBLENTZ
##$NIST IMAGE=cob951
##SPECTROMETER/DATA SYSTEM=Not specified, most likely a prism, grating, or hybrid spectrometer.
##STATE=SOLID (PELLET)
##SAMPLING PROCEDURE=TRANSMISSION
##RESOLUTION=4
##DATA PROCESSING=DIGITIZED BY NIST FROM HARD COPY
##XUNITS=MICROMETERS
##YUNITS=TRANSMITTANCE
##XFACTOR=1.000000
##YFACTOR=1
##DELTAX=000.006646
##FIRSTX=2.02
##LASTX=15.9969
##FIRSTY=0.735
##MAXX=15.9969
##MINX=2.02
##MAXY=0.956
##MINY=0.023
##NPOINTS=2104
##XYDATA=(X++(Y..Y))
2.020000 0.7350 0.7350 0.7370 0.7370 0.7390
2.053247 0.7390 0.7390 0.7390 0.7390 0.7390
2.086000 0.7420 0.7440 0.7440 0.7440 0.7450
2.119247 0.7470 0.7470 0.7470 0.7470 0.7470
2.153000 0.7470 0.7470 0.7470 0.7470 0.7490
2.186247 0.7490 0.7490 0.7520 0.7520 0.7500
2.219000 0.7520 0.7520 0.7540 0.7540 0.7540
2.252247 0.7520 0.7520 0.7500 0.7500 0.7520
2.286000 0.7540 0.7540 0.7540 0.7550 0.7550
2.319247 0.7550 0.7550 0.7570 0.7570 0.7570
2.352000 0.7570 0.7570 0.7570 0.7590 0.7590
2.385247 0.7590 0.7590 0.7590 0.7590 0.7590
2.419000 0.7600 0.7620 0.7650 0.7670 0.7670
2.452247 0.7670 0.7670 0.7670 0.7690 0.7690
2.485000 0.7690 0.7700 0.7690 0.7690 0.7700
2.518247 0.7700 0.7700 0.7720 0.7740 0.7740
2.552000 0.7740 0.7740 0.7750 0.7750 0.7750
2.585247 0.7770 0.7770 0.7770 0.7790 0.7800
2.618000 0.7820 0.7850 0.7850 0.7870 0.7870
2.651247 0.7870 0.7890 0.7890 0.7870 0.7820
2.685000 0.7790 0.7750 0.7620 0.7420 0.7190
2.718247 0.6940 0.6690 0.6520 0.6190 0.5960
2.751000 0.5730 0.5680 0.5530 0.5310 0.5260
2.784247 0.5230 0.5180 0.5110 0.4960 0.4750
2.817000 0.4650 0.4580 0.4510 0.4330 0.4050
2.850247 0.3950 0.3830 0.3670 0.3470 0.3280
2.884000 0.3080 0.2990 0.2850 0.2690 0.2440
2.917247 0.2250 0.2120 0.1970 0.1820 0.1590
2.950000 0.1370 0.1270 0.1210 0.1120 0.1060
2.983247 0.0940 0.0940 0.1040 0.1260 0.1490
3.017000 0.1720 0.1960 0.2220 0.2470 0.2720
3.050247 0.2970 0.3230 0.3470 0.3720 0.3930
3.083000 0.4000 0.4050 0.4210 0.4400 0.4550
3.116247 0.4760 0.4850 0.4880 0.4950 0.5030
3.150000 0.5140 0.5280 0.5360 0.5410 0.5480
3.183247 0.5530 0.5640 0.5690 0.5710 0.5730
3.216000 0.5740 0.5740 0.5730 0.5730 0.5740
3.249247 0.5790 0.5860 0.5910 0.5990 0.5990
3.283000 0.6010 0.6010 0.5990 0.5580 0.5040
3.316247 0.4050 0.3050 0.1890 0.1640 0.1640
3.349000 0.2150 0.3070 0.3550 0.3700 0.3980
3.382247 0.4260 0.4710 0.4780 0.4780 0.4750
3.416000 0.4750 0.4580 0.4560 0.4600 0.5310
3.449247 0.6160 0.6570 0.6760 0.6770 0.6790
3.482000 0.6870 0.6920 0.7090 0.7120 0.7170
3.515247 0.7190 0.7220 0.7250 0.7270 0.7290
3.549000 0.7290 0.7300 0.7340 0.7350 0.7390
3.582247 0.7400 0.7400 0.7400 0.7400 0.7400
3.615000 0.7400 0.7440 0.7490 0.7520 0.7600
3.648247 0.7650 0.7670 0.7700 0.7700 0.7720
3.681000 0.7700 0.7700 0.7720 0.7720 0.7720
3.714247 0.7740 0.7770 0.7790 0.7800 0.7840
3.748000 0.7850 0.7900 0.7940 0.7950 0.7950
3.781247 0.7950 0.7950 0.7970 0.7970 0.7990
3.814000 0.7990 0.8000 0.8000 0.8000 0.8000
3.847247 0.8000 0.8020 0.8020 0.8070 0.8100
3.881000 0.8120 0.8150 0.8200 0.8250 0.8270
3.914247 0.8280 0.8320 0.8330 0.8370 0.8400
3.947000 0.8420 0.8470 0.8480 0.8500 0.8500
3.980247 0.8500 0.8520 0.8530 0.8570 0.8580
4.014000 0.8600 0.8600 0.8620 0.8620 0.8620
4.047247 0.8620 0.8630 0.8630 0.8630 0.8650
4.080000 0.8670 0.8680 0.8720 0.8720 0.8720
4.113247 0.8730 0.8750 0.8770 0.8800 0.8820
4.147000 0.8820 0.8850 0.8870 0.8880 0.8920
4.180247 0.8930 0.8950 0.8970 0.8970 0.8970
4.213000 0.8970 0.8970 0.8970 0.8950 0.8950
4.246247 0.8950 0.8970 0.8970 0.8970 0.8950
4.280000 0.8950 0.8970 0.8970 0.8980 0.8980
4.313247 0.9000 0.9010 0.9030 0.9080 0.9080
4.346000 0.9100 0.9130 0.9150 0.9160 0.9200
4.379247 0.9210 0.9210 0.9230 0.9250 0.9260
4.413000 0.9260 0.9260 0.9260 0.9260 0.9300
4.446247 0.9330 0.9350 0.9350 0.9360 0.9380
4.479000 0.9410 0.9410 0.9430 0.9460 0.9480
4.512247 0.9480 0.9480 0.9480 0.9460 0.9460
4.546000 0.9460 0.9480 0.9480 0.9480 0.9480
4.579247 0.9480 0.9480 0.9480 0.9480 0.9480
4.612000 0.9480 0.9480 0.9480 0.9480 0.9480
4.645247 0.9480 0.9480 0.9480 0.9500 0.9500
4.678000 0.9480 0.9480 0.9500 0.9500 0.9500
4.711247 0.9500 0.9480 0.9480 0.9480 0.9460
4.745000 0.9460 0.9460 0.9460 0.9460 0.9460
4.778247 0.9480 0.9480 0.9480 0.9500 0.9500
4.811000 0.9480 0.9480 0.9480 0.9480 0.9480
4.844247 0.9480 0.9480 0.9480 0.9480 0.9480
4.878000 0.9480 0.9480 0.9480 0.9480 0.9480
4.911247 0.9480 0.9480 0.9480 0.9480 0.9480
4.944000 0.9480 0.9480 0.9480 0.9480 0.9480
4.977247 0.9480 0.9480 0.9480 0.9500 0.9480
5.011000 0.9480 0.9480 0.9460 0.9460 0.9460
5.044247 0.9460 0.9480 0.9480 0.9480 0.9480
5.077000 0.9480 0.9480 0.9480 0.9500 0.9510
5.110247 0.9510 0.9510 0.9510 0.9510 0.9510
5.144000 0.9530 0.9530 0.9510 0.9510 0.9530
5.177247 0.9510 0.9510 0.9480 0.9480 0.9480
5.210000 0.9500 0.9500 0.9510 0.9510 0.9510
5.243247 0.9510 0.9530 0.9550 0.9550 0.9550
5.277000 0.9550 0.9550 0.9510 0.9510 0.9530
5.310247 0.9530 0.9530 0.9550 0.9550 0.9550
5.343000 0.9550 0.9560 0.9550 0.9550 0.9550
5.376247 0.9550 0.9550 0.9550 0.9550 0.9500
5.410000 0.9450 0.9410 0.9360 0.9310 0.9310
5.443247 0.9310 0.9300 0.9300 0.9300 0.9300
5.476000 0.9280 0.9280 0.9280 0.9260 0.9210
5.509247 0.9200 0.9180 0.9160 0.9150 0.9100
5.542000 0.9030 0.9010 0.8980 0.8870 0.8670
5.575247 0.8470 0.8330 0.8230 0.7970 0.7720
5.609000 0.7420 0.7090 0.6690 0.6190 0.5960
5.642247 0.5730 0.5460 0.5260 0.5210 0.5190
5.675000 0.5010 0.4660 0.4110 0.3320 0.2620
5.708247 0.1840 0.0960 0.0580 0.0530 0.0510
5.742000 0.0530 0.1160 0.1890 0.2840 0.3750
5.775247 0.3970 0.4080 0.4110 0.5010 0.5680
5.808000 0.6070 0.6320 0.6470 0.6540 0.6770
5.841247 0.6890 0.6890 0.6910 0.6890 0.6890
5.875000 0.6860 0.6810 0.6810 0.6820 0.6820
5.908247 0.6820 0.6820 0.6820 0.6740 0.6710
5.941000 0.6670 0.6620 0.6540 0.6320 0.6110
5.974247 0.5840 0.5790 0.5530 0.5190 0.4700
6.008000 0.4100 0.3600 0.3180 0.2370 0.1620
6.041247 0.0890 0.0480 0.0380 0.0290 0.0230
6.074000 0.0230 0.0240 0.0410 0.0580 0.0780
6.107247 0.0860 0.1070 0.1140 0.1140 0.1110
6.141000 0.0990 0.0980 0.0980 0.0990 0.1410
6.174247 0.1810 0.1890 0.2320 0.2820 0.3130
6.207000 0.3230 0.3230 0.3220 0.3070 0.2770
6.240247 0.2450 0.2290 0.2200 0.2120 0.2140
6.274000 0.2540 0.3000 0.3430 0.3700 0.4110
6.307247 0.4560 0.4680 0.4760 0.4910 0.5000
6.340000 0.5010 0.5010 0.5010 0.5000 0.5010
6.373247 0.5010 0.5010 0.5060 0.5140 0.5260
6.406000 0.5380 0.5490 0.5580 0.5590 0.5610
6.439247 0.5610 0.5590 0.5390 0.5210 0.5040
6.473000 0.4830 0.4560 0.4300 0.4010 0.3750
6.506247 0.3480 0.3270 0.3100 0.2950 0.2700
6.539000 0.2240 0.1990 0.1790 0.1320 0.0930
6.572247 0.0760 0.0680 0.0590 0.0590 0.0680
6.606000 0.1110 0.1640 0.2250 0.2870 0.3480
6.639247 0.4030 0.4500 0.4810 0.4950 0.5480
6.672000 0.5740 0.6010 0.6270 0.6490 0.6490
6.705247 0.6490 0.6520 0.6540 0.6520 0.6360
6.739000 0.6090 0.5410 0.5000 0.4510 0.3930
6.772247 0.3870 0.3870 0.3970 0.4280 0.4600
6.805000 0.4750 0.4750 0.4730 0.4710 0.4700
6.838247 0.4680 0.4660 0.4430 0.4080 0.3620
6.872000 0.3130 0.2640 0.1960 0.1620 0.1320
6.905247 0.0980 0.0940 0.0910 0.0910 0.1260
6.938000 0.2220 0.2620 0.2920 0.3420 0.3870
6.971247 0.4080 0.4100 0.4210 0.4260 0.4310
7.005000 0.4310 0.4130 0.3930 0.3800 0.3730
7.038247 0.3650 0.3600 0.3580 0.3580 0.3520
7.071000 0.3380 0.3030 0.2790 0.2400 0.2040
7.104247 0.1820 0.1620 0.1470 0.1370 0.1370
7.138000 0.1390 0.1520 0.1670 0.1760 0.1770
7.171247 0.1770 0.1790 0.1770 0.1760 0.1690
7.204000 0.1590 0.1460 0.1320 0.1210 0.1170
7.237247 0.1110 0.1110 0.1160 0.1490 0.1860
7.270000 0.2250 0.2440 0.2840 0.3470 0.3670
7.303247 0.3820 0.4010 0.4380 0.4550 0.4650
7.337000 0.4730 0.4780 0.4850 0.4930 0.5010
7.370247 0.5030 0.5040 0.5080 0.5180 0.5190
7.403000 0.5190 0.5180 0.5040 0.4960 0.4800
7.436247 0.4600 0.4330 0.4010 0.3680 0.3320
7.470000 0.2950 0.2620 0.2300 0.2020 0.1760
7.503247 0.1590 0.1460 0.1370 0.1320 0.1140
7.536000 0.0990 0.0840 0.0740 0.0690 0.0630
7.569247 0.0580 0.0540 0.0530 0.0490 0.0460
7.603000 0.0460 0.0460 0.0460 0.0460 0.0480
7.636247 0.0660 0.0810 0.0990 0.1220 0.1470
7.669000 0.1760 0.2020 0.2270 0.2440 0.2650
7.702247 0.2890 0.3030 0.3130 0.3270 0.3330
7.736000 0.3330 0.3350 0.3350 0.3320 0.3270
7.769247 0.3220 0.3230 0.3230 0.3220 0.3200
7.802000 0.3170 0.3130 0.3100 0.2990 0.2840
7.835247 0.2670 0.2540 0.2420 0.2370 0.2200
7.869000 0.1990 0.1910 0.1910 0.1910 0.1910
7.902247 0.1910 0.1940 0.2100 0.2250 0.2390
7.935000 0.2440 0.2550 0.2620 0.2700 0.2750
7.968247 0.2820 0.2890 0.2950 0.3000 0.3050
8.002000 0.3070 0.3080 0.3100 0.3100 0.3080
8.035247 0.3020 0.2870 0.2740 0.2600 0.2420
8.068000 0.2240 0.2050 0.1920 0.1860 0.1520
8.101247 0.1390 0.1320 0.1270 0.1210 0.1190
8.134000 0.1210 0.1320 0.1520 0.1740 0.1940
8.167247 0.2050 0.2240 0.2300 0.2350 0.2340
8.201000 0.2170 0.2100 0.1920 0.1610 0.1470
8.234247 0.1290 0.1040 0.0810 0.0780 0.0780
8.267000 0.0810 0.1240 0.1690 0.2240 0.2520
8.300247 0.2520 0.2300 0.2290 0.2320 0.2750
8.334000 0.2840 0.2890 0.2890 0.2840 0.2770
8.367247 0.2670 0.2570 0.2450 0.2350 0.2200
8.400000 0.2050 0.1860 0.1640 0.1490 0.1290
8.433247 0.1070 0.0810 0.0590 0.0480 0.0390
8.467000 0.0340 0.0310 0.0280 0.0240 0.0240
8.500247 0.0240 0.0240 0.0240 0.0240 0.0240
8.533000 0.0240 0.0240 0.0260 0.0280 0.0290
8.566247 0.0330 0.0330 0.0340 0.0340 0.0330
8.600000 0.0330 0.0330 0.0330 0.0310 0.0310
8.633247 0.0330 0.0330 0.0330 0.0330 0.0340
8.666000 0.0390 0.0480 0.0560 0.0660 0.0740
8.699247 0.0840 0.0940 0.1120 0.1370 0.1470
8.733000 0.1510 0.1670 0.2100 0.2370 0.2500
8.766247 0.2650 0.2900 0.3030 0.3250 0.3570
8.799000 0.3820 0.4050 0.4250 0.4430 0.4580
8.832247 0.4810 0.4960 0.5040 0.5090 0.5280
8.866000 0.5440 0.5540 0.5640 0.5730 0.5840
8.899247 0.5960 0.6010 0.6020 0.6070 0.6110
8.932000 0.6120 0.6160 0.6160 0.6110 0.5990
8.965247 0.5860 0.5860 0.5690 0.5410 0.5060
8.998000 0.4710 0.4410 0.4200 0.4130 0.4100
9.031247 0.4080 0.4060 0.4010 0.4010 0.4000
9.065000 0.4000 0.4000 0.4000 0.4000 0.4000
9.098247 0.4160 0.4530 0.4760 0.5030 0.5240
9.131000 0.5410 0.5530 0.5630 0.5710 0.5780
9.164247 0.5840 0.5910 0.5990 0.6110 0.6240
9.198000 0.6420 0.6570 0.6640 0.6770 0.6940
9.231247 0.7020 0.7020 0.7100 0.7150 0.7250
9.264000 0.7300 0.7390 0.7440 0.7520 0.7620
9.297247 0.7700 0.7770 0.7840 0.7940 0.8000
9.331000 0.8080 0.8170 0.8230 0.8250 0.8300
9.364247 0.8330 0.8350 0.8370 0.8380 0.8400
9.397000 0.8430 0.8480 0.8500 0.8500 0.8520
9.430247 0.8530 0.8530 0.8530 0.8530 0.8530
9.464000 0.8550 0.8550 0.8550 0.8550 0.8530
9.497247 0.8520 0.8430 0.8370 0.8280 0.8120
9.530000 0.7990 0.7790 0.7690 0.7600 0.7520
9.563247 0.7470 0.7470 0.7500 0.7690 0.7920
9.597000 0.8100 0.8220 0.8270 0.8280 0.8300
9.630247 0.8320 0.8370 0.8430 0.8480 0.8480
9.663000 0.8500 0.8520 0.8530 0.8550 0.8550
9.696247 0.8570 0.8570 0.8580 0.8580 0.8600
9.730000 0.8600 0.8620 0.8630 0.8630 0.8630
9.763247 0.8650 0.8650 0.8670 0.8670 0.8680
9.796000 0.8680 0.8700 0.8700 0.8700 0.8730
9.829247 0.8750 0.8770 0.8800 0.8820 0.8830
9.862000 0.8870 0.8880 0.8900 0.8930 0.8950
9.895247 0.8980 0.9000 0.9000 0.9000 0.9010
9.929000 0.9010 0.9050 0.9060 0.9080 0.9080
9.962247 0.9080 0.9080 0.9080 0.9060 0.9030
9.995000 0.9010 0.8980 0.8950 0.8870 0.8830
10.028247 0.8800 0.8680 0.8600 0.8530 0.8470
10.062000 0.8350 0.8230 0.8120 0.8030 0.7940
10.095247 0.7770 0.7700 0.7690 0.7690 0.7670
10.128000 0.7670 0.7670 0.7700 0.7850 0.7970
10.161247 0.8080 0.8180 0.8270 0.8370 0.8450
10.195000 0.8530 0.8600 0.8630 0.8700 0.8720
10.228247 0.8780 0.8820 0.8850 0.8920 0.8980
10.261000 0.9030 0.9050 0.9100 0.9110 0.9180
10.294247 0.9210 0.9230 0.9250 0.9260 0.9260
10.328000 0.9280 0.9300 0.9310 0.9310 0.9330
10.361247 0.9330 0.9350 0.9350 0.9350 0.9350
10.394000 0.9350 0.9350 0.9350 0.9350 0.9330
10.427247 0.9330 0.9300 0.9280 0.9260 0.9230
10.461000 0.9200 0.9130 0.9060 0.9010 0.8980
10.494247 0.8920 0.8870 0.8620 0.8500 0.8420
10.527000 0.8300 0.8130 0.7920 0.7690 0.7440
10.560247 0.7140 0.6840 0.6520 0.6410 0.5630
10.594000 0.4960 0.4530 0.4110 0.3850 0.3500
10.627247 0.3150 0.3120 0.3150 0.3250 0.3500
10.660000 0.3820 0.4150 0.4530 0.4950 0.5340
10.693247 0.5730 0.6090 0.6390 0.6640 0.6810
10.726000 0.7070 0.7200 0.7290 0.7350 0.7470
10.759247 0.7670 0.7800 0.7900 0.7970 0.8020
10.793000 0.8080 0.8170 0.8250 0.8300 0.8350
10.826247 0.8400 0.8430 0.8500 0.8550 0.8580
10.859000 0.8600 0.8650 0.8670 0.8680 0.8680
10.892247 0.8700 0.8700 0.8650 0.8420 0.8200
10.926000 0.8050 0.7970 0.7700 0.7490 0.7370
10.959247 0.7350 0.7390 0.7520 0.7700 0.7800
10.992000 0.7920 0.8050 0.8170 0.8270 0.8300
11.025247 0.8300 0.8330 0.8350 0.8350 0.8320
11.059000 0.8270 0.8150 0.8020 0.7800 0.7670
11.092247 0.7490 0.7270 0.7150 0.7100 0.7050
11.125000 0.7000 0.7000 0.7050 0.7090 0.7140
11.158247 0.7150 0.7170 0.7170 0.7170 0.7170
11.192000 0.7170 0.7200 0.7270 0.7390 0.7500
11.225247 0.7670 0.7840 0.7950 0.7990 0.8080
11.258000 0.8130 0.8180 0.8250 0.8250 0.8280
11.291247 0.8320 0.8320 0.8320 0.8320 0.8320
11.325000 0.8300 0.8270 0.8200 0.8100 0.8020
11.358247 0.8000 0.7990 0.7900 0.7890 0.7840
11.391000 0.7770 0.7640 0.7490 0.7320 0.7140
11.424247 0.6920 0.6660 0.6340 0.5980 0.5530
11.458000 0.4980 0.4480 0.4130 0.3980 0.3980
11.491247 0.4000 0.4180 0.4780 0.5160 0.5580
11.524000 0.5940 0.6320 0.6810 0.7200 0.7270
11.557247 0.7350 0.7470 0.7670 0.7790 0.7870
11.590000 0.7970 0.8030 0.8050 0.8070 0.8070
11.623247 0.8070 0.8070 0.8070 0.8070 0.8050
11.657000 0.8000 0.7950 0.7820 0.7770 0.7700
11.690247 0.7620 0.7520 0.7300 0.7020 0.6940
11.723000 0.6840 0.6690 0.6510 0.6390 0.6260
11.756247 0.6170 0.6090 0.6010 0.5940 0.5830
11.790000 0.5740 0.5210 0.5000 0.4860 0.4650
11.823247 0.4430 0.4260 0.4080 0.3950 0.3870
11.856000 0.3830 0.3830 0.3850 0.3950 0.4260
11.889247 0.4600 0.4760 0.4900 0.5060 0.5310
11.923000 0.5590 0.5840 0.5990 0.6220 0.6410
11.956247 0.6520 0.6620 0.6660 0.6740 0.6840
11.989000 0.6960 0.7070 0.7170 0.7220 0.7250
12.022247 0.7300 0.7340 0.7390 0.7400 0.7400
12.056000 0.7420 0.7440 0.7450 0.7470 0.7470
12.089247 0.7490 0.7490 0.7490 0.7490 0.7490
12.122000 0.7500 0.7500 0.7500 0.7500 0.7490
12.155247 0.7490 0.7470 0.7470 0.7450 0.7450
12.189000 0.7440 0.7420 0.7400 0.7370 0.7350
12.222247 0.7320 0.7290 0.7250 0.7220 0.7200
12.255000 0.7140 0.7120 0.7090 0.7040 0.6960
12.288247 0.6860 0.6820 0.6790 0.6760 0.6720
12.322000 0.6710 0.6690 0.6620 0.6540 0.6490
12.355247 0.6410 0.6290 0.6190 0.6020 0.6010
12.388000 0.5940 0.5880 0.5740 0.5630 0.5530
12.421247 0.5430 0.5260 0.5130 0.5040 0.4900
12.454000 0.4710 0.4580 0.4530 0.4360 0.4250
12.487247 0.4060 0.3850 0.3770 0.3700 0.3550
12.521000 0.3350 0.3230 0.3170 0.3100 0.3030
12.554247 0.2990 0.2900 0.2840 0.2800 0.2770
12.587000 0.2720 0.2720 0.2720 0.2840 0.2940
12.620247 0.2940 0.2940 0.2950 0.3020 0.3100
12.654000 0.3230 0.3370 0.3500 0.3630 0.3750
12.687247 0.3830 0.3950 0.4110 0.4210 0.4350
12.720000 0.4450 0.4550 0.4660 0.4750 0.4900
12.753247 0.5000 0.5030 0.5080 0.5130 0.5160
12.787000 0.5180 0.5190 0.5210 0.5210 0.5210
12.820247 0.5190 0.5180 0.5160 0.5130 0.5110
12.853000 0.5080 0.5080 0.5060 0.5060 0.5080
12.886247 0.5090 0.5160 0.5210 0.5260 0.5360
12.920000 0.5430 0.5510 0.5660 0.5740 0.5830
12.953247 0.5880 0.5990 0.6140 0.6190 0.6260
12.986000 0.6320 0.6420 0.6540 0.6660 0.6690
13.019247 0.6710 0.6810 0.6840 0.6910 0.7040
13.053000 0.7090 0.7140 0.7200 0.7250 0.7270
13.086247 0.7300 0.7390 0.7440 0.7470 0.7520
13.119000 0.7570 0.7600 0.7640 0.7670 0.7690
13.152247 0.7700 0.7720 0.7750 0.7770 0.7800
13.186000 0.7800 0.7820 0.7820 0.7840 0.7840
13.219247 0.7840 0.7840 0.7820 0.7800 0.7740
13.252000 0.7700 0.7640 0.7570 0.7500 0.7370
13.285247 0.7250 0.7220 0.7150 0.7100 0.7090
13.319000 0.7070 0.7070 0.7070 0.7090 0.7100
13.352247 0.7170 0.7320 0.7500 0.7600 0.7620
13.385000 0.7670 0.7720 0.7800 0.7870 0.7900
13.418247 0.7920 0.7920 0.7920 0.7920 0.7920
13.451000 0.7900 0.7890 0.7850 0.7840 0.7800
13.484247 0.7790 0.7750 0.7740 0.7720 0.7690
13.518000 0.7690 0.7690 0.7690 0.7690 0.7690
13.551247 0.7740 0.7770 0.7800 0.7870 0.7900
13.584000 0.8000 0.8000 0.8030 0.8170 0.8200
13.617247 0.8230 0.8280 0.8330 0.8380 0.8400
13.651000 0.8430 0.8480 0.8550 0.8550 0.8600
13.684247 0.8650 0.8650 0.8670 0.8720 0.8750
13.717000 0.8820 0.8880 0.8900 0.8920 0.8930
13.750247 0.8930 0.8950 0.8970 0.8980 0.8980
13.784000 0.8980 0.9000 0.9010 0.9010 0.9010
13.817247 0.9010 0.9030 0.9050 0.9050 0.9060
13.850000 0.9060 0.9080 0.9080 0.9080 0.9080
13.883247 0.9100 0.9100 0.9100 0.9100 0.9100
13.917000 0.9100 0.9100 0.9100 0.9100 0.9100
13.950247 0.9100 0.9100 0.9080 0.9060 0.9030
13.983000 0.9010 0.8870 0.8770 0.8680 0.8580
14.016247 0.8580 0.8520 0.8450 0.8380 0.8350
14.050000 0.8320 0.8300 0.8280 0.8280 0.8270
14.083247 0.8270 0.8270 0.8280 0.8330 0.8350
14.116000 0.8380 0.8400 0.8430 0.8480 0.8520
14.149247 0.8570 0.8580 0.8620 0.8630 0.8680
14.183000 0.8720 0.8730 0.8750 0.8770 0.8780
14.216247 0.8780 0.8820 0.8830 0.8830 0.8830
14.249000 0.8830 0.8830 0.8830 0.8850 0.8850
14.282247 0.8850 0.8850 0.8870 0.8870 0.8870
14.315000 0.8870 0.8880 0.8880 0.8880 0.8880
14.348247 0.8880 0.8880 0.8880 0.8900 0.8900
14.382000 0.8880 0.8880 0.8870 0.8850 0.8830
14.415247 0.8830 0.8830 0.8820 0.8820 0.8820
14.448000 0.8800 0.8780 0.8770 0.8750 0.8720
14.481247 0.8700 0.8670 0.8600 0.8580 0.8580
14.515000 0.8580 0.8580 0.8550 0.8500 0.8480
14.548247 0.8430 0.8420 0.8380 0.8330 0.8320
14.581000 0.8300 0.8270 0.8200 0.8130 0.8100
14.614247 0.8080 0.8070 0.8070 0.8050 0.8050
14.648000 0.8020 0.8000 0.7990 0.7950 0.7940
14.681247 0.7900 0.7900 0.7890 0.7890 0.7890
14.714000 0.7890 0.7890 0.7890 0.7890 0.7890
14.747247 0.7890 0.7890 0.7890 0.7890 0.7870
14.781000 0.7870 0.7870 0.7870 0.7870 0.7870
14.814247 0.7870 0.7850 0.7850 0.7850 0.7840
14.847000 0.7820 0.7820 0.7800 0.7790 0.7750
14.880247 0.7720 0.7690 0.7640 0.7590 0.7570
14.914000 0.7550 0.7520 0.7490 0.7440 0.7400
14.947247 0.7400 0.7390 0.7370 0.7350 0.7320
14.980000 0.7300 0.7300 0.7300 0.7290 0.7270
15.013247 0.7270 0.7270 0.7270 0.7290 0.7290
15.047000 0.7300 0.7320 0.7350 0.7390 0.7420
15.080247 0.7470 0.7520 0.7540 0.7550 0.7570
15.113000 0.7600 0.7600 0.7640 0.7650 0.7670
15.146247 0.7690 0.7690 0.7690 0.7700 0.7720
15.179000 0.7720 0.7740 0.7750 0.7770 0.7790
15.212247 0.7800 0.7800 0.7800 0.7800 0.7820
15.246000 0.7840 0.7840 0.7840 0.7840 0.7840
15.279247 0.7850 0.7840 0.7840 0.7840 0.7850
15.312000 0.7840 0.7840 0.7840 0.7840 0.7840
15.345247 0.7840 0.7840 0.7820 0.7800 0.7790
15.379000 0.7770 0.7750 0.7740 0.7720 0.7720
15.412247 0.7720 0.7720 0.7700 0.7700 0.7690
15.445000 0.7690 0.7670 0.7650 0.7600 0.7590
15.478247 0.7550 0.7550 0.7540 0.7540 0.7540
15.512000 0.7520 0.7490 0.7470 0.7450 0.7440
15.545247 0.7400 0.7400 0.7390 0.7370 0.7340
15.578000 0.7320 0.7270 0.7270 0.7250 0.7220
15.611247 0.7220 0.7200 0.7200 0.7190 0.7170
15.645000 0.7150 0.7120 0.7100 0.7090 0.7070
15.678247 0.7050 0.7020 0.7000 0.6970 0.6970
15.711000 0.6960 0.6940 0.6910 0.6870 0.6840
15.744247 0.6790 0.6760 0.6720 0.6710 0.6690
15.778000 0.6670 0.6660 0.6640 0.6590 0.6570
15.811247 0.6520 0.6510 0.6490 0.6470 0.6420
15.844000 0.6390 0.6340 0.6320 0.6270 0.6220
15.877247 0.6190 0.6140 0.6120 0.6070 0.6060
15.911000 0.6010 0.5990 0.5980 0.5910 0.5890
15.944247 0.5890 0.5880 0.5880 0.5860 0.5860
15.977000 0.5840 0.5840 0.5830 0.5810
##END=
