##TITLE=O-NITRO CARBANILIC ACID, L-MENTHYL ESTER
##JCAMP-DX=4.24
##DATA TYPE=INFRARED SPECTRUM
##CLASS=COBLENTZ
##ORIGIN=CITRUS EXPERIMENT STATION, UNIVERSITY OF FLORIDA (G. EDWARDS)
##OWNER=COBLENTZ SOCIETY
Collection (C) 2018 copyright by the U.S. Secretary of Commerce
on behalf of the United States of America. All rights reserved.
##DATE=Not specified, most likely prior to 1970
##NAMES=5-isopropyl-2-methylcyclohexyl 2-nitrophenylcarbamate
##MOLFORM=C17 H24 N2 O4
##SOURCE REFERENCE=COBLENTZ NO. 2464
##$NIST ID=B6002464
##$NIST SOURCE=COBLENTZ
##$NIST IMAGE=cob2464
##SPECTROMETER/DATA SYSTEM=Not specified, most likely a grating spectrometer.
##STATE=SOLID (2.0 mg / 100 mg KBr)
##SAMPLING PROCEDURE=TRANSMISSION
##RESOLUTION=4
##DATA PROCESSING=DIGITIZED BY NIST FROM HARD COPY
##XUNITS=MICROMETERS
##YUNITS=TRANSMITTANCE
##XFACTOR=1.000000
##YFACTOR=1
##DELTAX=000.006635
##FIRSTX=2.033
##LASTX=15.0446
##FIRSTY=0.874
##MAXX=15.0446
##MINX=2.033
##MAXY=0.953
##MINY=0.086
##NPOINTS=1962
##XYDATA=(X++(Y..Y))
2.033000 0.8740 0.8740 0.8740 0.8760 0.8760
2.066192 0.8770 0.8770 0.8770 0.8760 0.8760
2.100000 0.8760 0.8770 0.8770 0.8800 0.8800
2.133192 0.8800 0.8800 0.8800 0.8810 0.8810
2.166000 0.8820 0.8820 0.8820 0.8820 0.8820
2.199192 0.8810 0.8780 0.8780 0.8780 0.8780
2.232000 0.8770 0.8770 0.8770 0.8780 0.8800
2.265192 0.8800 0.8800 0.8810 0.8810 0.8820
2.299000 0.8840 0.8840 0.8850 0.8850 0.8860
2.332192 0.8880 0.8880 0.8880 0.8880 0.8880
2.365000 0.8880 0.8880 0.8900 0.8900 0.8920
2.398192 0.8920 0.8930 0.8930 0.8930 0.8930
2.431000 0.8940 0.8960 0.8970 0.8980 0.8980
2.464192 0.9000 0.9000 0.9000 0.9010 0.9010
2.498000 0.9010 0.9010 0.9010 0.9010 0.9020
2.531192 0.9020 0.9020 0.9040 0.9040 0.9040
2.564000 0.9040 0.9040 0.9050 0.9050 0.9050
2.597192 0.9050 0.9050 0.9040 0.9040 0.9040
2.630000 0.9040 0.9040 0.9040 0.9050 0.9050
2.663192 0.9050 0.9040 0.9040 0.9020 0.9020
2.697000 0.9020 0.9020 0.9010 0.9010 0.9010
2.730192 0.9010 0.9000 0.9000 0.9000 0.9000
2.763000 0.9000 0.8980 0.8980 0.8980 0.8980
2.796192 0.8970 0.8970 0.8970 0.8960 0.8940
2.829000 0.8930 0.8930 0.8920 0.8900 0.8850
2.862192 0.8820 0.8800 0.8730 0.8700 0.8680
2.896000 0.8650 0.8620 0.8600 0.8560 0.8520
2.929192 0.8500 0.8460 0.8460 0.8460 0.8460
2.962000 0.8450 0.8440 0.8370 0.8240 0.8130
2.995192 0.8020 0.7160 0.5470 0.5450 0.5480
3.028000 0.5930 0.6370 0.6680 0.6950 0.7110
3.061192 0.7540 0.8380 0.8570 0.8640 0.8680
3.095000 0.8700 0.8730 0.8730 0.8720 0.8720
3.128192 0.8700 0.8700 0.8700 0.8700 0.8700
3.161000 0.8720 0.8760 0.8760 0.8760 0.8760
3.194192 0.8760 0.8760 0.8760 0.8740 0.8700
3.227000 0.8640 0.8560 0.8540 0.8540 0.8570
3.260192 0.8600 0.8610 0.8640 0.8700 0.8730
3.294000 0.8800 0.8850 0.8890 0.8920 0.8930
3.327192 0.8920 0.8900 0.8890 0.8820 0.8800
3.360000 0.8700 0.8610 0.8220 0.7760 0.6920
3.393192 0.6000 0.5010 0.4020 0.4000 0.4030
3.427000 0.4150 0.4270 0.4380 0.4400 0.4430
3.460192 0.4660 0.4910 0.5330 0.5610 0.5840
3.493000 0.5930 0.5960 0.5790 0.5770 0.5800
3.526192 0.6270 0.6590 0.7280 0.8370 0.8740
3.559000 0.8860 0.8930 0.8980 0.9020 0.9060
3.592192 0.9100 0.9130 0.9140 0.9170 0.9180
3.626000 0.9200 0.9200 0.9200 0.9200 0.9200
3.659192 0.9200 0.9210 0.9220 0.9220 0.9220
3.692000 0.9240 0.9260 0.9300 0.9300 0.9300
3.725192 0.9300 0.9300 0.9300 0.9290 0.9290
3.758000 0.9290 0.9290 0.9290 0.9290 0.9290
3.791192 0.9290 0.9290 0.9290 0.9290 0.9290
3.825000 0.9290 0.9290 0.9290 0.9290 0.9290
3.858192 0.9300 0.9300 0.9330 0.9360 0.9370
3.891000 0.9380 0.9380 0.9380 0.9400 0.9400
3.924192 0.9400 0.9400 0.9410 0.9410 0.9410
3.957000 0.9410 0.9420 0.9420 0.9440 0.9440
3.990192 0.9440 0.9450 0.9440 0.9420 0.9410
4.024000 0.9400 0.9400 0.9400 0.9400 0.9410
4.057192 0.9410 0.9410 0.9410 0.9400 0.9400
4.090000 0.9380 0.9380 0.9380 0.9380 0.9380
4.123192 0.9370 0.9370 0.9370 0.9370 0.9380
4.156000 0.9400 0.9400 0.9410 0.9410 0.9410
4.189192 0.9410 0.9410 0.9410 0.9410 0.9420
4.223000 0.9420 0.9420 0.9420 0.9420 0.9440
4.256192 0.9440 0.9440 0.9440 0.9440 0.9450
4.289000 0.9450 0.9450 0.9450 0.9450 0.9450
4.322192 0.9450 0.9450 0.9450 0.9450 0.9450
4.355000 0.9450 0.9450 0.9450 0.9450 0.9450
4.388192 0.9450 0.9420 0.9420 0.9420 0.9420
4.422000 0.9420 0.9420 0.9420 0.9420 0.9420
4.455192 0.9420 0.9420 0.9420 0.9420 0.9420
4.488000 0.9420 0.9420 0.9420 0.9420 0.9420
4.521192 0.9420 0.9420 0.9420 0.9420 0.9420
4.555000 0.9420 0.9440 0.9460 0.9480 0.9480
4.588192 0.9480 0.9490 0.9490 0.9490 0.9490
4.621000 0.9490 0.9490 0.9490 0.9490 0.9500
4.654192 0.9500 0.9520 0.9530 0.9530 0.9530
4.687000 0.9520 0.9500 0.9500 0.9500 0.9520
4.720192 0.9520 0.9520 0.9500 0.9500 0.9520
4.754000 0.9520 0.9530 0.9530 0.9520 0.9520
4.787192 0.9520 0.9520 0.9520 0.9520 0.9530
4.820000 0.9520 0.9520 0.9520 0.9520 0.9520
4.853192 0.9520 0.9520 0.9520 0.9520 0.9500
4.886000 0.9500 0.9500 0.9500 0.9500 0.9500
4.919192 0.9500 0.9500 0.9500 0.9490 0.9490
4.953000 0.9490 0.9490 0.9490 0.9490 0.9490
4.986192 0.9490 0.9490 0.9490 0.9490 0.9490
5.019000 0.9490 0.9480 0.9460 0.9450 0.9440
5.052192 0.9420 0.9410 0.9370 0.9370 0.9400
5.085000 0.9400 0.9410 0.9420 0.9420 0.9410
5.118192 0.9400 0.9370 0.9320 0.9300 0.9300
5.152000 0.9360 0.9400 0.9410 0.9420 0.9420
5.185192 0.9420 0.9410 0.9410 0.9410 0.9400
5.218000 0.9400 0.9400 0.9410 0.9410 0.9420
5.251192 0.9420 0.9420 0.9420 0.9420 0.9420
5.284000 0.9420 0.9410 0.9410 0.9410 0.9420
5.317192 0.9420 0.9400 0.9370 0.9360 0.9330
5.351000 0.9330 0.9330 0.9320 0.9320 0.9300
5.384192 0.9290 0.9290 0.9260 0.9250 0.9240
5.417000 0.9220 0.9210 0.9200 0.9180 0.9140
5.450192 0.9090 0.9050 0.9040 0.8940 0.8930
5.483000 0.8930 0.8930 0.8960 0.9060 0.9100
5.516192 0.9100 0.9100 0.9100 0.9060 0.9040
5.550000 0.9000 0.8940 0.8920 0.8860 0.8810
5.583192 0.8800 0.8800 0.8760 0.8730 0.8690
5.616000 0.8620 0.8500 0.8400 0.8320 0.8210
5.649192 0.8160 0.8140 0.8040 0.7920 0.7570
5.682000 0.7270 0.6810 0.5410 0.4590 0.3750
5.715192 0.2870 0.2340 0.1870 0.1590 0.1380
5.749000 0.1230 0.1110 0.1110 0.1130 0.1330
5.782192 0.1830 0.2130 0.2990 0.3640 0.4080
5.815000 0.5930 0.6370 0.6600 0.6710 0.6800
5.848192 0.6870 0.7070 0.7320 0.7520 0.7770
5.882000 0.7900 0.8040 0.8170 0.8240 0.8280
5.915192 0.8300 0.8340 0.8380 0.8440 0.8500
5.948000 0.8520 0.8520 0.8520 0.8520 0.8500
5.981192 0.8500 0.8500 0.8500 0.8500 0.8490
6.014000 0.8480 0.8460 0.8450 0.8420 0.8340
6.047192 0.8170 0.8100 0.8040 0.8020 0.8010
6.081000 0.8010 0.8010 0.8010 0.8000 0.7850
6.114192 0.7720 0.7610 0.7530 0.7490 0.7400
6.147000 0.7150 0.6720 0.6210 0.5570 0.5240
6.180192 0.4910 0.4390 0.3320 0.3310 0.3320
6.213000 0.3710 0.4070 0.4420 0.4830 0.5530
6.246192 0.5870 0.5910 0.5810 0.5450 0.5050
6.280000 0.4660 0.1410 0.1390 0.1420 0.1890
6.313192 0.2260 0.2800 0.3420 0.3960 0.4820
6.346000 0.6280 0.6630 0.6970 0.7120 0.7320
6.379192 0.7430 0.7430 0.7400 0.7210 0.6960
6.412000 0.6720 0.6670 0.6640 0.6630 0.6520
6.445192 0.6350 0.6110 0.5760 0.5170 0.5050
6.479000 0.4920 0.4880 0.4870 0.4840 0.4340
6.512192 0.3800 0.3280 0.2750 0.2220 0.1540
6.545000 0.1180 0.1020 0.0870 0.0860 0.0860
6.578192 0.0870 0.0890 0.0890 0.0890 0.0900
6.611000 0.0900 0.0900 0.0910 0.0980 0.1140
6.644192 0.1530 0.1980 0.2140 0.2600 0.3300
6.678000 0.3550 0.3820 0.4040 0.4430 0.4510
6.711192 0.4580 0.4840 0.5550 0.5810 0.5920
6.744000 0.6000 0.6080 0.6240 0.6440 0.6590
6.777192 0.6590 0.6530 0.6410 0.6270 0.6080
6.810000 0.5930 0.5850 0.5760 0.5450 0.5030
6.843192 0.4590 0.4140 0.3380 0.2290 0.2290
6.877000 0.2300 0.2310 0.2410 0.2540 0.2760
6.910192 0.2990 0.3270 0.3630 0.3720 0.3720
6.943000 0.3630 0.3140 0.2900 0.2900 0.2950
6.976192 0.3150 0.3260 0.3390 0.3540 0.3740
7.009000 0.3950 0.4140 0.4310 0.4480 0.4640
7.042192 0.4910 0.5330 0.5550 0.5670 0.5930
7.076000 0.6090 0.6230 0.6320 0.6350 0.6370
7.109192 0.6410 0.6450 0.6570 0.6680 0.6720
7.142000 0.6790 0.6850 0.6920 0.6930 0.6930
7.175192 0.6920 0.6880 0.6850 0.6790 0.6750
7.209000 0.6590 0.6470 0.6320 0.6040 0.6000
7.242192 0.6030 0.6130 0.6250 0.6290 0.6320
7.275000 0.6320 0.6320 0.6320 0.6370 0.6410
7.308192 0.6370 0.6330 0.6280 0.6210 0.6120
7.341000 0.6110 0.6120 0.6130 0.6150 0.6120
7.374192 0.6030 0.5960 0.5910 0.4900 0.3880
7.408000 0.2140 0.1930 0.1620 0.1610 0.1630
7.441192 0.1670 0.1900 0.2190 0.2490 0.2800
7.474000 0.3180 0.3440 0.3670 0.3830 0.4030
7.507192 0.4180 0.4380 0.4560 0.4750 0.4910
7.540000 0.5290 0.5490 0.5640 0.5760 0.5850
7.573192 0.5870 0.5840 0.5440 0.5070 0.4700
7.607000 0.3900 0.3880 0.3910 0.4360 0.4540
7.640192 0.4670 0.4860 0.4880 0.4860 0.4760
7.673000 0.4680 0.4660 0.4620 0.4560 0.4540
7.706192 0.4540 0.4520 0.4390 0.4240 0.4160
7.739000 0.4040 0.3960 0.3920 0.3830 0.3750
7.772192 0.3660 0.3560 0.3480 0.3430 0.3190
7.806000 0.2910 0.2640 0.2410 0.2210 0.2070
7.839192 0.2010 0.1950 0.1950 0.1980 0.2070
7.872000 0.2180 0.2310 0.2450 0.2600 0.2800
7.905192 0.2990 0.3180 0.3350 0.3520 0.3660
7.938000 0.3820 0.3940 0.4000 0.4070 0.4140
7.971192 0.4220 0.4220 0.4190 0.4080 0.4000
8.005000 0.3750 0.3440 0.3100 0.2660 0.2230
8.038192 0.1980 0.1790 0.1730 0.1730 0.1730
8.071000 0.1740 0.1850 0.2020 0.2100 0.2300
8.104192 0.2580 0.2870 0.3220 0.3580 0.3860
8.137000 0.4110 0.4440 0.4750 0.5250 0.5480
8.170192 0.5830 0.5920 0.5920 0.5920 0.5920
8.204000 0.5790 0.5630 0.5440 0.5210 0.5080
8.237192 0.4940 0.4660 0.4440 0.4310 0.3990
8.270000 0.3710 0.3500 0.3230 0.2980 0.2760
8.303192 0.2580 0.2300 0.2290 0.2270 0.2290
8.336000 0.2420 0.2580 0.2790 0.3080 0.3400
8.369192 0.3750 0.3960 0.4260 0.4550 0.4790
8.403000 0.5250 0.5430 0.5570 0.5720 0.5720
8.436192 0.5730 0.5720 0.5610 0.5450 0.5250
8.469000 0.5090 0.4920 0.4830 0.4830 0.4840
8.502192 0.4950 0.5350 0.5610 0.5870 0.5990
8.536000 0.6150 0.6280 0.6370 0.6410 0.6410
8.569192 0.6330 0.6250 0.6130 0.5970 0.5760
8.602000 0.5610 0.5470 0.5330 0.5200 0.5150
8.635192 0.5040 0.5000 0.4950 0.4820 0.4580
8.668000 0.4540 0.4540 0.4620 0.4720 0.4870
8.701192 0.4910 0.4910 0.4820 0.4540 0.4180
8.735000 0.4120 0.4140 0.4200 0.4540 0.4860
8.768192 0.5480 0.5810 0.6210 0.6470 0.6710
8.801000 0.6880 0.7030 0.7150 0.7200 0.7240
8.834192 0.7230 0.7210 0.7170 0.7080 0.7070
8.867000 0.7070 0.7070 0.7080 0.7130 0.7160
8.900192 0.7210 0.7210 0.7230 0.7250 0.7270
8.934000 0.7270 0.7320 0.7320 0.7330 0.7360
8.967192 0.7370 0.7390 0.7390 0.7410 0.7410
9.000000 0.7410 0.7410 0.7410 0.7410 0.7400
9.033192 0.7370 0.7350 0.7350 0.7330 0.7350
9.066000 0.7360 0.7390 0.7410 0.7450 0.7470
9.099192 0.7440 0.7440 0.7430 0.7210 0.7170
9.133000 0.7110 0.6990 0.6830 0.6680 0.6510
9.166192 0.6290 0.6080 0.5880 0.5600 0.5290
9.199000 0.5150 0.4950 0.4740 0.4710 0.4710
9.232192 0.4740 0.4880 0.5240 0.5410 0.5560
9.265000 0.5650 0.5770 0.5850 0.5950 0.6050
9.298192 0.6190 0.6350 0.6490 0.6650 0.6790
9.332000 0.6910 0.6990 0.7040 0.7130 0.7230
9.365192 0.7320 0.7370 0.7430 0.7490 0.7540
9.398000 0.7580 0.7610 0.7570 0.7520 0.7490
9.431192 0.7440 0.7400 0.7240 0.7150 0.7010
9.464000 0.6950 0.6800 0.6750 0.6730 0.6720
9.497192 0.6710 0.6680 0.6650 0.6600 0.6510
9.531000 0.6370 0.6200 0.5990 0.5710 0.5390
9.564192 0.5000 0.4870 0.4720 0.4440 0.4120
9.597000 0.3880 0.3680 0.3510 0.3340 0.3110
9.630192 0.3080 0.3080 0.3120 0.3150 0.3260
9.664000 0.3440 0.3630 0.3840 0.4040 0.4280
9.697192 0.4560 0.4900 0.5240 0.5390 0.5720
9.730000 0.6110 0.6330 0.6690 0.6710 0.6710
9.763192 0.6720 0.7030 0.7170 0.7320 0.7480
9.796000 0.7570 0.7620 0.7730 0.7820 0.7880
9.829192 0.7920 0.7980 0.8040 0.8060 0.8100
9.863000 0.8160 0.8240 0.8250 0.8260 0.8280
9.896192 0.8280 0.8280 0.8280 0.8280 0.8260
9.929000 0.8260 0.8260 0.8260 0.8280 0.8280
9.962192 0.8280 0.8280 0.8290 0.8290 0.8290
9.995000 0.8290 0.8300 0.8330 0.8360 0.8400
10.028192 0.8440 0.8480 0.8500 0.8520 0.8530
10.062000 0.8540 0.8560 0.8570 0.8570 0.8570
10.095192 0.8570 0.8560 0.8540 0.8530 0.8500
10.128000 0.8500 0.8420 0.8340 0.8320 0.8210
10.161192 0.8050 0.7940 0.7880 0.7800 0.7700
10.194000 0.7540 0.7470 0.7270 0.7110 0.6950
10.227192 0.6810 0.6800 0.6800 0.6810 0.6970
10.261000 0.7090 0.7250 0.7470 0.7520 0.7600
10.294192 0.7610 0.7610 0.7500 0.7440 0.7370
10.327000 0.7280 0.7120 0.6970 0.6830 0.6710
10.360192 0.6630 0.6560 0.6550 0.6550 0.6560
10.393000 0.6610 0.6630 0.6690 0.6710 0.6770
10.426192 0.6870 0.7010 0.7170 0.7310 0.7310
10.460000 0.7360 0.7440 0.7500 0.7540 0.7570
10.493192 0.7610 0.7620 0.7660 0.7690 0.7720
10.526000 0.7730 0.7730 0.7770 0.7820 0.7840
10.559192 0.7850 0.7900 0.7930 0.8000 0.8020
10.592000 0.8120 0.8210 0.8250 0.8300 0.8370
10.625192 0.8440 0.8490 0.8530 0.8560 0.8600
10.659000 0.8620 0.8640 0.8650 0.8660 0.8680
10.692192 0.8690 0.8690 0.8690 0.8690 0.8690
10.725000 0.8680 0.8660 0.8650 0.8620 0.8610
10.758192 0.8600 0.8600 0.8540 0.8520 0.8490
10.791000 0.8480 0.8450 0.8380 0.8290 0.8210
10.824192 0.8090 0.8080 0.8080 0.8080 0.8100
10.858000 0.8120 0.8170 0.8220 0.8290 0.8330
10.891192 0.8370 0.8380 0.8400 0.8450 0.8480
10.924000 0.8480 0.8520 0.8520 0.8530 0.8530
10.957192 0.8530 0.8540 0.8560 0.8610 0.8620
10.991000 0.8640 0.8660 0.8680 0.8700 0.8770
11.024192 0.8800 0.8810 0.8820 0.8840 0.8860
11.057000 0.8880 0.8900 0.8900 0.8900 0.8890
11.090192 0.8880 0.8850 0.8820 0.8810 0.8800
11.123000 0.8740 0.8720 0.8690 0.8640 0.8610
11.156192 0.8600 0.8570 0.8560 0.8560 0.8560
11.190000 0.8540 0.8540 0.8530 0.8520 0.8520
11.223192 0.8500 0.8500 0.8460 0.8450 0.8440
11.256000 0.8420 0.8340 0.8320 0.8280 0.8180
11.289192 0.8090 0.8000 0.7940 0.7940 0.7940
11.322000 0.7980 0.8020 0.8040 0.8060 0.8120
11.355192 0.8170 0.8210 0.8240 0.8300 0.8360
11.389000 0.8480 0.8540 0.8600 0.8620 0.8650
11.422192 0.8660 0.8660 0.8650 0.8650 0.8650
11.455000 0.8640 0.8620 0.8610 0.8570 0.8520
11.488192 0.8450 0.8400 0.8360 0.8200 0.8080
11.521000 0.7920 0.7480 0.7400 0.7190 0.6970
11.554192 0.6770 0.6600 0.6530 0.6520 0.6530
11.588000 0.6630 0.6710 0.6770 0.6830 0.6870
11.621192 0.6910 0.6930 0.7000 0.7030 0.7070
11.654000 0.7120 0.7240 0.7330 0.7410 0.7540
11.687192 0.7650 0.7740 0.7840 0.7880 0.7940
11.720000 0.8010 0.8020 0.8020 0.8080 0.8130
11.753192 0.8140 0.8250 0.8320 0.8330 0.8360
11.787000 0.8400 0.8440 0.8450 0.8460 0.8460
11.820192 0.8480 0.8480 0.8490 0.8500 0.8520
11.853000 0.8520 0.8520 0.8520 0.8520 0.8520
11.886192 0.8530 0.8530 0.8520 0.8520 0.8500
11.919000 0.8460 0.8450 0.8440 0.8410 0.8340
11.952192 0.8300 0.8210 0.8130 0.8020 0.7920
11.986000 0.7770 0.7620 0.7470 0.7290 0.7150
12.019192 0.7000 0.6850 0.6810 0.6800 0.6810
12.052000 0.6870 0.6970 0.7090 0.7210 0.7310
12.085192 0.7450 0.7540 0.7640 0.7720 0.7810
12.118000 0.7930 0.8080 0.8120 0.8220 0.8300
12.151192 0.8370 0.8440 0.8460 0.8520 0.8570
12.185000 0.8610 0.8610 0.8620 0.8640 0.8650
12.218192 0.8650 0.8680 0.8680 0.8690 0.8690
12.251000 0.8690 0.8690 0.8700 0.8700 0.8720
12.284192 0.8740 0.8780 0.8810 0.8820 0.8840
12.318000 0.8880 0.8880 0.8880 0.8890 0.8890
12.351192 0.8890 0.8900 0.8900 0.8900 0.8900
12.384000 0.8900 0.8900 0.8900 0.8900 0.8900
12.417192 0.8900 0.8900 0.8900 0.8900 0.8900
12.450000 0.8900 0.8890 0.8880 0.8860 0.8860
12.483192 0.8860 0.8860 0.8860 0.8860 0.8850
12.517000 0.8850 0.8840 0.8820 0.8810 0.8800
12.550192 0.8780 0.8770 0.8740 0.8740 0.8730
12.583000 0.8720 0.8700 0.8700 0.8660 0.8650
12.616192 0.8610 0.8540 0.8520 0.8500 0.8450
12.649000 0.8410 0.8370 0.8290 0.8200 0.8140
12.682192 0.8090 0.8020 0.7900 0.7770 0.7700
12.716000 0.7530 0.7170 0.7040 0.6850 0.6600
12.749192 0.6280 0.6050 0.5830 0.5800 0.5810
12.782000 0.5880 0.5970 0.6110 0.6210 0.6330
12.815192 0.6480 0.6640 0.6790 0.6910 0.6960
12.848000 0.7070 0.7170 0.7330 0.7480 0.7570
12.881192 0.7680 0.7810 0.7920 0.8010 0.8090
12.915000 0.8160 0.8210 0.8220 0.8220 0.8220
12.948192 0.8220 0.8210 0.8210 0.8160 0.8130
12.981000 0.8120 0.8100 0.8040 0.8000 0.7940
13.014192 0.7860 0.7770 0.7660 0.7560 0.7470
13.047000 0.7280 0.7160 0.7050 0.6970 0.6880
13.080192 0.6850 0.6870 0.6880 0.6930 0.6990
13.114000 0.7030 0.7080 0.7130 0.7200 0.7270
13.147192 0.7350 0.7440 0.7540 0.7650 0.7770
13.180000 0.7850 0.7920 0.8000 0.8040 0.8120
13.213192 0.8210 0.8290 0.8300 0.8300 0.8320
13.246000 0.8320 0.8320 0.8300 0.8300 0.8300
13.279192 0.8300 0.8250 0.8210 0.8200 0.8130
13.313000 0.8120 0.8090 0.8000 0.7970 0.7900
13.346192 0.7800 0.7660 0.7540 0.7360 0.7210
13.379000 0.7110 0.6960 0.6830 0.6790 0.6720
13.412192 0.6640 0.6590 0.6530 0.6490 0.6450
13.445000 0.6360 0.6280 0.6170 0.6040 0.5850
13.478192 0.5640 0.5430 0.5110 0.4940 0.4750
13.512000 0.4430 0.4260 0.4230 0.3300 0.2710
13.545192 0.2420 0.2380 0.2380 0.2390 0.2550
13.578000 0.2750 0.2910 0.3160 0.3480 0.3590
13.611192 0.4030 0.4320 0.4600 0.4900 0.5450
13.645000 0.5720 0.5960 0.6200 0.6400 0.6560
13.678192 0.6710 0.6870 0.7050 0.7120 0.7230
13.711000 0.7320 0.7430 0.7530 0.7600 0.7690
13.744192 0.7810 0.7850 0.7900 0.7920 0.7970
13.777000 0.8010 0.8040 0.8080 0.8100 0.8140
13.810192 0.8180 0.8210 0.8260 0.8280 0.8290
13.844000 0.8300 0.8300 0.8300 0.8320 0.8320
13.877192 0.8330 0.8340 0.8340 0.8360 0.8360
13.910000 0.8360 0.8360 0.8360 0.8360 0.8370
13.943192 0.8370 0.8370 0.8370 0.8370 0.8370
13.976000 0.8360 0.8360 0.8360 0.8360 0.8360
14.009192 0.8360 0.8360 0.8360 0.8360 0.8360
14.043000 0.8360 0.8370 0.8370 0.8400 0.8400
14.076192 0.8400 0.8400 0.8370 0.8360 0.8360
14.109000 0.8360 0.8360 0.8340 0.8340 0.8330
14.142192 0.8330 0.8320 0.8300 0.8300 0.8290
14.175000 0.8260 0.8260 0.8260 0.8260 0.8250
14.208192 0.8240 0.8220 0.8200 0.8180 0.8160
14.242000 0.8120 0.8100 0.8100 0.8090 0.8090
14.275192 0.8080 0.8050 0.8040 0.8010 0.8000
14.308000 0.7970 0.7960 0.7940 0.7900 0.7890
14.341192 0.7880 0.7850 0.7820 0.7810 0.7810
14.374000 0.7810 0.7800 0.7770 0.7720 0.7680
14.407192 0.7660 0.7650 0.7620 0.7600 0.7520
14.441000 0.7480 0.7430 0.7400 0.7330 0.7310
14.474192 0.7250 0.7200 0.7130 0.7110 0.7090
14.507000 0.7070 0.7030 0.7010 0.7000 0.7000
14.540192 0.7000 0.7010 0.7030 0.7030 0.7050
14.573000 0.7080 0.7090 0.7110 0.7150 0.7160
14.606192 0.7160 0.7160 0.7150 0.7130 0.7120
14.640000 0.7110 0.7090 0.7090 0.7070 0.7050
14.673192 0.7040 0.7000 0.6960 0.6950 0.6950
14.706000 0.6950 0.6950 0.6950 0.6960 0.6970
14.739192 0.6990 0.7000 0.7010 0.7070 0.7090
14.773000 0.7120 0.7150 0.7200 0.7230 0.7250
14.806192 0.7290 0.7320 0.7330 0.7350 0.7360
14.839000 0.7390 0.7410 0.7430 0.7450 0.7450
14.872192 0.7480 0.7480 0.7480 0.7490 0.7490
14.905000 0.7490 0.7490 0.7490 0.7490 0.7490
14.938192 0.7490 0.7490 0.7490 0.7490 0.7490
14.972000 0.7500 0.7520 0.7530 0.7530 0.7560
15.005192 0.7560 0.7580 0.7600 0.7600 0.7600
15.038000 0.7600 0.7600
##END=
