##TITLE=Sodium nitrite
##JCAMP-DX=4.24
##DATA TYPE=INFRARED SPECTRUM
##CLASS=COBLENTZ III
##ORIGIN=SOUTHERN RESEARCH INSTITUTE
##OWNER=Copyright (C) 1987 by the Coblentz Society
Collection (C) 2018 copyright by the U.S. Secretary of Commerce
on behalf of the United States of America. All rights reserved.
##DATE=1965/08/31
##MOLFORM=Na N O2
##SOURCE REFERENCE=COBLENTZ NO. 7909
##$NIST ID=B6007909
##$NIST SOURCE=COBLENTZ
##$NIST IMAGE=cob7909
##SPECTROMETER/DATA SYSTEM=PERKIN-ELMER 521 (GRATING)
##INSTRUMENT PARAMETERS=FILTERS AT 3150, 2500, 2000, 1150, 700, 410. GRATING CHANGES: 2000, 630
##STATE=SOLID (1 mg / 650 mg KBr DISC)
##SAMPLING PROCEDURE=TRANSMISSION
##RESOLUTION=2
##DATA PROCESSING=DIGITIZED BY COBLENTZ SOCIETY (BATCH II) FROM HARD COPY (ADJUSTED \addcm-1\15-5-2\)
##XUNITS=1/CM
##YUNITS=TRANSMITTANCE
##XFACTOR=1.0
##YFACTOR=1
##DELTAX=1.002401
##FIRSTX=258
##LASTX=4014
##FIRSTY=0.2064
##MAXX=4014
##MINX=258
##MAXY=0.964592
##MINY=0.095165
##NPOINTS=3748
##XYDATA=(X++(Y..Y))
258.000000 0.2064 0.2121 0.2179 0.2236 0.2294
263.012006 0.2351 0.2408 0.2466 0.2523 0.2580
268.024013 0.2637 0.2696 0.2753 0.2810 0.2867
273.036019 0.2924 0.2982 0.3039 0.3097 0.3164
278.048026 0.3224 0.3296 0.3371 0.3437 0.3492
283.060032 0.3548 0.3604 0.3666 0.3744 0.3821
288.072038 0.3898 0.3969 0.4041 0.4106 0.4164
293.084045 0.4221 0.4279 0.4340 0.4402 0.4463
298.096051 0.4524 0.4583 0.4642 0.4701 0.4761
303.108058 0.4823 0.4885 0.4946 0.5007 0.5066
308.120064 0.5125 0.5184 0.5242 0.5301 0.5356
313.132070 0.5411 0.5466 0.5521 0.5575 0.5629
318.144077 0.5683 0.5736 0.5786 0.5824 0.5861
323.156083 0.5898 0.5935 0.5971 0.6005 0.6037
328.168090 0.6069 0.6101 0.6134 0.6166 0.6198
333.180096 0.6230 0.6263 0.6297 0.6330 0.6363
338.192102 0.6397 0.6430 0.6463 0.6497 0.6531
343.204109 0.6565 0.6599 0.6633 0.6667 0.6701
348.216115 0.6735 0.6770 0.6805 0.6842 0.6880
353.228122 0.6918 0.6956 0.6993 0.7030 0.7066
358.240128 0.7101 0.7136 0.7172 0.7207 0.7242
363.252134 0.7277 0.7313 0.7351 0.7391 0.7431
368.264141 0.7471 0.7511 0.7550 0.7586 0.7617
373.276147 0.7648 0.7678 0.7709 0.7740 0.7770
378.288154 0.7801 0.7830 0.7858 0.7881 0.7904
383.300160 0.7927 0.7950 0.7974 0.7997 0.8022
388.312166 0.8048 0.8073 0.8099 0.8125 0.8151
393.324173 0.8177 0.8201 0.8225 0.8248 0.8271
398.336179 0.8293 0.8313 0.8329 0.8346 0.8363
403.348186 0.8380 0.8396 0.8413 0.8430 0.8446
408.360192 0.8463 0.8479 0.8495 0.8510 0.8522
413.372199 0.8535 0.8548 0.8560 0.8573 0.8586
418.384205 0.8596 0.8605 0.8615 0.8624 0.8634
423.396211 0.8643 0.8652 0.8661 0.8671 0.8680
428.408218 0.8687 0.8693 0.8699 0.8704 0.8710
433.420224 0.8716 0.8721 0.8727 0.8732 0.8738
438.432231 0.8743 0.8749 0.8754 0.8760 0.8766
443.444237 0.8774 0.8782 0.8789 0.8797 0.8804
448.456243 0.8812 0.8819 0.8825 0.8831 0.8838
453.468250 0.8844 0.8851 0.8857 0.8864 0.8871
458.480256 0.8879 0.8887 0.8895 0.8902 0.8910
463.492263 0.8918 0.8926 0.8934 0.8942 0.8950
468.504269 0.8959 0.8968 0.8978 0.8987 0.8996
473.516275 0.9006 0.9014 0.9023 0.9032 0.9041
478.528282 0.9050 0.9059 0.9068 0.9077 0.9086
483.540288 0.9095 0.9104 0.9112 0.9121 0.9129
488.552295 0.9138 0.9147 0.9154 0.9159 0.9164
493.564301 0.9168 0.9173 0.9178 0.9183 0.9187
498.576307 0.9192 0.9197 0.9202 0.9206 0.9210
503.588314 0.9212 0.9214 0.9216 0.9218 0.9220
508.600320 0.9222 0.9225 0.9227 0.9229 0.9231
513.612327 0.9233 0.9235 0.9237 0.9240 0.9242
518.624333 0.9243 0.9244 0.9244 0.9245 0.9245
523.636339 0.9246 0.9247 0.9247 0.9248 0.9248
528.648346 0.9249 0.9249 0.9250 0.9250 0.9251
533.660352 0.9251 0.9252 0.9253 0.9253 0.9254
538.672359 0.9254 0.9254 0.9254 0.9254 0.9253
543.684365 0.9253 0.9253 0.9253 0.9253 0.9252
548.696371 0.9252 0.9252 0.9252 0.9252 0.9252
553.708378 0.9251 0.9251 0.9251 0.9251 0.9251
558.720384 0.9251 0.9251 0.9251 0.9252 0.9253
563.732391 0.9254 0.9255 0.9256 0.9257 0.9258
568.744397 0.9258 0.9259 0.9260 0.9261 0.9262
573.756403 0.9263 0.9264 0.9264 0.9265 0.9267
578.768410 0.9268 0.9269 0.9270 0.9271 0.9273
583.780416 0.9274 0.9275 0.9276 0.9278 0.9279
588.792423 0.9280 0.9281 0.9282 0.9284 0.9286
593.804429 0.9288 0.9290 0.9293 0.9295 0.9297
598.816435 0.9299 0.9303 0.9307 0.9311 0.9316
603.828442 0.9319 0.9319 0.9318 0.9316 0.9312
608.840448 0.9308 0.9304 0.9283 0.9265 0.9249
613.852455 0.9234 0.9227 0.9226 0.9226 0.9226
618.864461 0.9228 0.9231 0.9233 0.9236 0.9239
623.876467 0.9242 0.9246 0.9249 0.9253 0.9256
628.888474 0.9260 0.9263 0.9265 0.9268 0.9271
633.900480 0.9274 0.9277 0.9280 0.9282 0.9283
638.912487 0.9285 0.9287 0.9288 0.9291 0.9293
643.924493 0.9295 0.9297 0.9299 0.9302 0.9304
648.936499 0.9306 0.9306 0.9306 0.9306 0.9306
653.948506 0.9307 0.9307 0.9306 0.9306 0.9305
658.960512 0.9304 0.9348 0.9424 0.9502 0.9579
663.972519 0.9641 0.9646 0.9495 0.9261 0.9025
668.984525 0.8997 0.9072 0.9170 0.9268 0.9366
673.996531 0.9392 0.9390 0.9387 0.9385 0.9387
679.008538 0.9388 0.9390 0.9391 0.9393 0.9395
684.020544 0.9398 0.9401 0.9403 0.9404 0.9405
689.032551 0.9406 0.9407 0.9409 0.9410 0.9411
694.044557 0.9413 0.9414 0.9416 0.9417 0.9419
699.056564 0.9421 0.9422 0.9424 0.9426 0.9427
704.068570 0.9429 0.9429 0.9430 0.9431 0.9431
709.080576 0.9432 0.9432 0.9433 0.9434 0.9435
714.092583 0.9437 0.9438 0.9440 0.9442 0.9443
719.104589 0.9445 0.9446 0.9447 0.9448 0.9448
724.116596 0.9449 0.9449 0.9448 0.9435 0.9450
729.128602 0.9451 0.9451 0.9452 0.9452 0.9452
734.140608 0.9453 0.9453 0.9454 0.9455 0.9456
739.152615 0.9457 0.9458 0.9460 0.9461 0.9462
744.164621 0.9463 0.9464 0.9466 0.9467 0.9468
749.176628 0.9469 0.9471 0.9472 0.9473 0.9473
754.188634 0.9474 0.9474 0.9475 0.9475 0.9475
759.200640 0.9476 0.9476 0.9477 0.9477 0.9478
764.212647 0.9478 0.9479 0.9479 0.9479 0.9479
769.224653 0.9479 0.9480 0.9480 0.9480 0.9480
774.236660 0.9480 0.9481 0.9480 0.9480 0.9480
779.248666 0.9480 0.9480 0.9479 0.9479 0.9479
784.260672 0.9479 0.9478 0.9477 0.9475 0.9473
789.272679 0.9472 0.9470 0.9468 0.9467 0.9465
794.284685 0.9462 0.9459 0.9455 0.9451 0.9448
799.296692 0.9444 0.9440 0.9436 0.9433 0.9429
804.308698 0.9425 0.9420 0.9413 0.9406 0.9400
809.320704 0.9392 0.9381 0.9366 0.9344 0.9296
814.332711 0.9228 0.9170 0.9122 0.9074 0.9021
819.344717 0.8966 0.8813 0.8427 0.7950 0.7474
824.356724 0.6998 0.6521 0.6045 0.5731 0.5713
829.368730 0.6374 0.8090 0.9092 0.9121 0.9144
834.380736 0.9170 0.9193 0.9210 0.9228 0.9244
839.392743 0.9255 0.9265 0.9265 0.9266 0.9278
844.404749 0.9280 0.9280 0.9280 0.9281 0.9281
849.416756 0.9279 0.9277 0.9275 0.9273 0.9271
854.428762 0.9269 0.9267 0.9265 0.9263 0.9261
859.440768 0.9259 0.9257 0.9255 0.9253 0.9251
864.452775 0.9248 0.9243 0.9238 0.9233 0.9228
869.464781 0.9222 0.9217 0.9212 0.9207 0.9201
874.476788 0.9196 0.9191 0.9186 0.9181 0.9176
879.488794 0.9171 0.9165 0.9160 0.9155 0.9150
884.500800 0.9145 0.9141 0.9137 0.9132 0.9128
889.512807 0.9123 0.9119 0.9115 0.9110 0.9105
894.524813 0.9100 0.9095 0.9089 0.9084 0.9079
899.536820 0.9073 0.9068 0.9062 0.9057 0.9053
904.548826 0.9049 0.9045 0.9040 0.9036 0.9032
909.560832 0.9028 0.9024 0.9019 0.9015 0.9011
914.572839 0.9007 0.9003 0.8998 0.8992 0.8987
919.584845 0.8980 0.8975 0.8969 0.8963 0.8958
924.596852 0.8952 0.8946 0.8941 0.8935 0.8929
929.608858 0.8924 0.8918 0.8912 0.8907 0.8901
934.620864 0.8895 0.8889 0.8884 0.8878 0.8869
939.632871 0.8861 0.8852 0.8844 0.8835 0.8826
944.644877 0.8818 0.8809 0.8801 0.8792 0.8783
949.656884 0.8774 0.8765 0.8756 0.8747 0.8738
954.668890 0.8729 0.8720 0.8712 0.8705 0.8698
959.680896 0.8691 0.8686 0.8681 0.8676 0.8671
964.692903 0.8666 0.8661 0.8656 0.8650 0.8645
969.704909 0.8639 0.8633 0.8627 0.8621 0.8616
974.716916 0.8610 0.8604 0.8598 0.8592 0.8586
979.728922 0.8581 0.8575 0.8570 0.8564 0.8559
984.740928 0.8553 0.8547 0.8542 0.8537 0.8531
989.752935 0.8526 0.8521 0.8516 0.8512 0.8507
994.764941 0.8502 0.8497 0.8493 0.8488 0.8483
999.776948 0.8478 0.8472 0.8465 0.8457 0.8449
1004.788954 0.8441 0.8433 0.8425 0.8417 0.8409
1009.800961 0.8399 0.8389 0.8379 0.8368 0.8358
1014.812967 0.8347 0.8337 0.8326 0.8316 0.8305
1019.824973 0.8292 0.8279 0.8266 0.8253 0.8240
1024.836980 0.8226 0.8213 0.8200 0.8187 0.8174
1029.848986 0.8161 0.8147 0.8134 0.8121 0.8108
1034.860993 0.8093 0.8078 0.8063 0.8047 0.8032
1039.872999 0.8017 0.8002 0.7987 0.7972 0.7957
1044.885005 0.7942 0.7928 0.7914 0.7900 0.7885
1049.897012 0.7871 0.7857 0.7843 0.7829 0.7814
1054.909018 0.7798 0.7782 0.7766 0.7751 0.7735
1059.921025 0.7719 0.7703 0.7687 0.7671 0.7656
1064.933031 0.7640 0.7624 0.7608 0.7592 0.7577
1069.945037 0.7562 0.7549 0.7535 0.7521 0.7507
1074.957044 0.7493 0.7479 0.7465 0.7450 0.7436
1079.969050 0.7422 0.7408 0.7394 0.7380 0.7367
1084.981057 0.7351 0.7335 0.7318 0.7302 0.7286
1089.993063 0.7269 0.7253 0.7237 0.7220 0.7204
1095.005069 0.7188 0.7171 0.7155 0.7139 0.7122
1100.017076 0.7103 0.7083 0.7064 0.7044 0.7023
1105.029082 0.7004 0.6984 0.6964 0.6944 0.6925
1110.041089 0.6905 0.6885 0.6862 0.6833 0.6804
1115.053095 0.6775 0.6746 0.6717 0.6688 0.6659
1120.065101 0.6630 0.6602 0.6573 0.6545 0.6521
1125.077108 0.6496 0.6472 0.6447 0.6423 0.6398
1130.089114 0.6374 0.6349 0.6325 0.6300 0.6273
1135.101121 0.6247 0.6222 0.6196 0.6171 0.6145
1140.113127 0.6120 0.6094 0.6068 0.6038 0.6006
1145.125133 0.5975 0.5944 0.5913 0.5881 0.5850
1150.137140 0.5819 0.5788 0.5756 0.5725 0.5694
1155.149146 0.5663 0.5632 0.5601 0.5570 0.5539
1160.161153 0.5509 0.5478 0.5445 0.5401 0.5357
1165.173159 0.5313 0.5269 0.5225 0.5181 0.5138
1170.185165 0.5094 0.5053 0.5013 0.4972 0.4931
1175.197172 0.4891 0.4850 0.4809 0.4770 0.4734
1180.209178 0.4701 0.4668 0.4635 0.4602 0.4569
1185.221185 0.4536 0.4503 0.4468 0.4423 0.4371
1190.233191 0.4319 0.4267 0.4213 0.4154 0.4085
1195.245197 0.4017 0.3949 0.3882 0.3820 0.3771
1200.257204 0.3721 0.3671 0.3622 0.3573 0.3524
1205.269210 0.3472 0.3414 0.3353 0.3292 0.3232
1210.281217 0.3166 0.3085 0.3003 0.2927 0.2864
1215.293223 0.2805 0.2746 0.2686 0.2627 0.2568
1220.305229 0.2509 0.2450 0.2395 0.2347 0.2299
1225.317236 0.2251 0.2204 0.2159 0.2116 0.2073
1230.329242 0.2033 0.1997 0.1965 0.1932 0.1900
1235.341249 0.1868 0.1835 0.1801 0.1767 0.1733
1240.353255 0.1694 0.1652 0.1610 0.1567 0.1525
1245.365261 0.1484 0.1450 0.1426 0.1402 0.1378
1250.377268 0.1354 0.1330 0.1304 0.1275 0.1247
1255.389274 0.1219 0.1190 0.1159 0.1127 0.1095
1260.401281 0.1062 0.1032 0.1004 0.0980 0.0970
1265.413287 0.0966 0.0956 0.0952 0.0972 0.0981
1270.425293 0.0991 0.1003 0.1024 0.1056 0.1112
1275.437300 0.1217 0.1356 0.1510 0.1605 0.1700
1280.449306 0.1788 0.1873 0.1965 0.2059 0.2189
1285.461313 0.2317 0.2377 0.2437 0.2499 0.2562
1290.473319 0.2624 0.2687 0.2750 0.2813 0.2876
1295.485326 0.2939 0.3002 0.3064 0.3127 0.3190
1300.497332 0.3253 0.3316 0.3379 0.3442 0.3504
1305.509338 0.3567 0.3628 0.3680 0.3723 0.3769
1310.521345 0.3816 0.3865 0.3921 0.3951 0.3971
1315.533351 0.3990 0.3966 0.3926 0.3869 0.3812
1320.545358 0.3755 0.3698 0.3645 0.3640 0.3653
1325.557364 0.3703 0.3769 0.3835 0.3902 0.3969
1330.569370 0.4039 0.4194 0.4286 0.4393 0.4465
1335.581377 0.4529 0.4566 0.4603 0.4640 0.4669
1340.593383 0.4699 0.4728 0.4757 0.4787 0.4824
1345.605390 0.4859 0.4895 0.4931 0.4967 0.5003
1350.617396 0.5040 0.5075 0.5111 0.5143 0.5169
1355.629402 0.5194 0.5219 0.5245 0.5270 0.5289
1360.641409 0.5307 0.5324 0.5342 0.5360 0.5378
1365.653415 0.5395 0.5413 0.5429 0.5445 0.5462
1370.665422 0.5478 0.5494 0.5511 0.5527 0.5543
1375.677428 0.5558 0.5571 0.5585 0.5598 0.5611
1380.689434 0.5625 0.5638 0.5651 0.5664 0.5677
1385.701441 0.5690 0.5703 0.5715 0.5727 0.5740
1390.713447 0.5752 0.5764 0.5777 0.5789 0.5801
1395.725454 0.5814 0.5826 0.5838 0.5851 0.5863
1400.737460 0.5876 0.5889 0.5902 0.5915 0.5928
1405.749466 0.5942 0.5955 0.5968 0.5982 0.5995
1410.761473 0.6008 0.6021 0.6035 0.6048 0.6061
1415.773479 0.6073 0.6085 0.6098 0.6110 0.6122
1420.785486 0.6134 0.6146 0.6158 0.6170 0.6182
1425.797492 0.6193 0.6205 0.6217 0.6229 0.6241
1430.809498 0.6253 0.6265 0.6278 0.6290 0.6303
1435.821505 0.6315 0.6327 0.6340 0.6352 0.6365
1440.833511 0.6377 0.6389 0.6402 0.6414 0.6426
1445.845518 0.6439 0.6451 0.6463 0.6476 0.6488
1450.857524 0.6501 0.6513 0.6526 0.6538 0.6550
1455.869530 0.6563 0.6575 0.6588 0.6600 0.6612
1460.881537 0.6625 0.6637 0.6650 0.6663 0.6675
1465.893543 0.6688 0.6701 0.6714 0.6727 0.6740
1470.905550 0.6752 0.6765 0.6777 0.6790 0.6801
1475.917556 0.6812 0.6823 0.6834 0.6845 0.6856
1480.929562 0.6866 0.6875 0.6885 0.6894 0.6904
1485.941569 0.6913 0.6922 0.6932 0.6941 0.6951
1490.953575 0.6960 0.6969 0.6979 0.6988 0.6996
1495.965582 0.7003 0.7010 0.7018 0.7026 0.7034
1500.977588 0.7041 0.7049 0.7057 0.7065 0.7072
1505.989594 0.7080 0.7088 0.7096 0.7103 0.7111
1511.001601 0.7119 0.7127 0.7134 0.7140 0.7146
1516.013607 0.7152 0.7158 0.7164 0.7170 0.7176
1521.025614 0.7182 0.7188 0.7194 0.7199 0.7204
1526.037620 0.7208 0.7212 0.7217 0.7221 0.7225
1531.049626 0.7230 0.7234 0.7238 0.7243 0.7247
1536.061633 0.7251 0.7256 0.7259 0.7263 0.7268
1541.073639 0.7272 0.7276 0.7280 0.7285 0.7289
1546.085646 0.7293 0.7298 0.7300 0.7303 0.7306
1551.097652 0.7309 0.7312 0.7314 0.7317 0.7320
1556.109658 0.7323 0.7326 0.7329 0.7331 0.7334
1561.121665 0.7337 0.7340 0.7343 0.7346 0.7348
1566.133671 0.7351 0.7354 0.7379 0.7360 0.7362
1571.145678 0.7364 0.7365 0.7366 0.7367 0.7367
1576.157684 0.7368 0.7369 0.7370 0.7371 0.7372
1581.169691 0.7372 0.7373 0.7374 0.7375 0.7376
1586.181697 0.7377 0.7377 0.7378 0.7378 0.7377
1591.193703 0.7375 0.7374 0.7373 0.7371 0.7370
1596.205710 0.7368 0.7367 0.7366 0.7364 0.7363
1601.217716 0.7361 0.7360 0.7359 0.7357 0.7356
1606.229723 0.7354 0.7347 0.7341 0.7334 0.7328
1611.241729 0.7321 0.7312 0.7303 0.7294 0.7285
1616.253735 0.7276 0.7267 0.7259 0.7265 0.7248
1621.265742 0.7235 0.7229 0.7231 0.7236 0.7242
1626.277748 0.7247 0.7253 0.7258 0.7263 0.7269
1631.289755 0.7277 0.7285 0.7293 0.7301 0.7308
1636.301761 0.7317 0.7325 0.7335 0.7345 0.7355
1641.313767 0.7366 0.7377 0.7391 0.7405 0.7419
1646.325774 0.7433 0.7447 0.7462 0.7476 0.7490
1651.337780 0.7505 0.7519 0.7533 0.7548 0.7565
1656.349787 0.7583 0.7601 0.7620 0.7637 0.7652
1661.361793 0.7667 0.7680 0.7688 0.7695 0.7703
1666.373799 0.7710 0.7718 0.7725 0.7732 0.7740
1671.385806 0.7747 0.7754 0.7761 0.7768 0.7776
1676.397812 0.7783 0.7789 0.7794 0.7797 0.7801
1681.409819 0.7805 0.7808 0.7812 0.7816 0.7819
1686.421825 0.7822 0.7825 0.7828 0.7832 0.7835
1691.433831 0.7838 0.7841 0.7844 0.7847 0.7850
1696.445838 0.7853 0.7857 0.7860 0.7863 0.7867
1701.457844 0.7870 0.7873 0.7877 0.7880 0.7883
1706.469851 0.7887 0.7890 0.7893 0.7897 0.7900
1711.481857 0.7903 0.7907 0.7911 0.7916 0.7921
1716.493863 0.7926 0.7931 0.7937 0.7942 0.7947
1721.505870 0.7951 0.7956 0.7961 0.7966 0.7972
1726.517876 0.7977 0.7982 0.7987 0.7992 0.7997
1731.529883 0.8002 0.8006 0.8009 0.8012 0.8016
1736.541889 0.8019 0.8022 0.8025 0.8028 0.8032
1741.553895 0.8035 0.8038 0.8041 0.8045 0.8048
1746.565902 0.8051 0.8054 0.8056 0.8058 0.8059
1751.577908 0.8060 0.8062 0.8063 0.8065 0.8066
1756.589915 0.8067 0.8069 0.8070 0.8072 0.8073
1761.601921 0.8075 0.8076 0.8077 0.8079 0.8080
1766.613927 0.8081 0.8082 0.8083 0.8085 0.8086
1771.625934 0.8087 0.8088 0.8089 0.8091 0.8092
1776.637940 0.8093 0.8094 0.8095 0.8096 0.8098
1781.649947 0.8099 0.8100 0.8101 0.8103 0.8104
1786.661953 0.8105 0.8106 0.8108 0.8109 0.8110
1791.673959 0.8111 0.8113 0.8114 0.8115 0.8116
1796.685966 0.8118 0.8119 0.8120 0.8121 0.8123
1801.697972 0.8124 0.8125 0.8126 0.8128 0.8129
1806.709979 0.8130 0.8132 0.8133 0.8134 0.8134
1811.721985 0.8135 0.8136 0.8137 0.8137 0.8138
1816.733991 0.8139 0.8139 0.8140 0.8141 0.8142
1821.745998 0.8142 0.8143 0.8144 0.8144 0.8145
1826.758004 0.8146 0.8147 0.8147 0.8148 0.8149
1831.770011 0.8149 0.8150 0.8151 0.8152 0.8152
1836.782017 0.8153 0.8154 0.8154 0.8155 0.8155
1841.794023 0.8155 0.8156 0.8156 0.8156 0.8157
1846.806030 0.8157 0.8158 0.8158 0.8158 0.8159
1851.818036 0.8159 0.8159 0.8160 0.8160 0.8160
1856.830043 0.8161 0.8161 0.8162 0.8162 0.8163
1861.842049 0.8164 0.8165 0.8166 0.8167 0.8168
1866.854055 0.8169 0.8170 0.8171 0.8172 0.8173
1871.866062 0.8174 0.8175 0.8176 0.8177 0.8178
1876.878068 0.8179 0.8180 0.8181 0.8182 0.8183
1881.890075 0.8184 0.8185 0.8186 0.8187 0.8188
1886.902081 0.8190 0.8191 0.8192 0.8193 0.8194
1891.914088 0.8195 0.8197 0.8198 0.8199 0.8200
1896.926094 0.8201 0.8203 0.8204 0.8205 0.8205
1901.938100 0.8206 0.8208 0.8209 0.8210 0.8211
1906.950107 0.8212 0.8213 0.8215 0.8216 0.8217
1911.962113 0.8218 0.8219 0.8221 0.8222 0.8223
1916.974120 0.8223 0.8224 0.8225 0.8225 0.8226
1921.986126 0.8227 0.8227 0.8228 0.8229 0.8229
1926.998132 0.8230 0.8231 0.8231 0.8232 0.8233
1932.010139 0.8233 0.8234 0.8235 0.8235 0.8236
1937.022145 0.8237 0.8237 0.8238 0.8239 0.8239
1942.034152 0.8240 0.8240 0.8241 0.8241 0.8241
1947.046158 0.8242 0.8242 0.8243 0.8243 0.8244
1952.058164 0.8244 0.8245 0.8245 0.8245 0.8243
1957.070171 0.8241 0.8239 0.8237 0.8235 0.8233
1962.082177 0.8232 0.8230 0.8228 0.8226 0.8224
1967.094184 0.8222 0.8220 0.8219 0.8217 0.8215
1972.106190 0.8213 0.8211 0.8209 0.8207 0.8205
1977.118196 0.8204 0.8202 0.8200 0.8197 0.8195
1982.130203 0.8193 0.8192 0.8190 0.8189 0.8187
1987.142209 0.8186 0.8184 0.8182 0.8181 0.8179
1992.154216 0.8178 0.8176 0.8175 0.8173 0.8172
1997.166222 0.8171 0.8170 0.8169 0.8168 0.8168
2002.178228 0.8167 0.8166 0.8165 0.8164 0.8164
2007.190235 0.8163 0.8162 0.8161 0.8160 0.8160
2012.202241 0.8159 0.8158 0.8157 0.8156 0.8156
2017.214248 0.8155 0.8154 0.8153 0.8153 0.8152
2022.226254 0.8151 0.8150 0.8149 0.8149 0.8148
2027.238260 0.8147 0.8146 0.8145 0.8145 0.8144
2032.250267 0.8143 0.8142 0.8141 0.8141 0.8140
2037.262273 0.8140 0.8140 0.8139 0.8139 0.8139
2042.274280 0.8138 0.8138 0.8138 0.8138 0.8137
2047.286286 0.8137 0.8137 0.8136 0.8136 0.8136
2052.298292 0.8136 0.8135 0.8135 0.8135 0.8135
2057.310299 0.8134 0.8134 0.8134 0.8133 0.8133
2062.322305 0.8133 0.8133 0.8132 0.8132 0.8132
2067.334312 0.8132 0.8131 0.8131 0.8132 0.8132
2072.346318 0.8133 0.8134 0.8135 0.8135 0.8136
2077.358324 0.8137 0.8137 0.8138 0.8139 0.8140
2082.370331 0.8140 0.8141 0.8142 0.8143 0.8145
2087.382337 0.8146 0.8148 0.8149 0.8151 0.8152
2092.394344 0.8154 0.8154 0.8154 0.8154 0.8153
2097.406350 0.8153 0.8153 0.8153 0.8166 0.8161
2102.418356 0.8150 0.8148 0.8147 0.8146 0.8144
2107.430363 0.8143 0.8142 0.8140 0.8139 0.8139
2112.442369 0.8139 0.8139 0.8139 0.8139 0.8139
2117.454376 0.8139 0.8139 0.8139 0.8139 0.8139
2122.466382 0.8139 0.8139 0.8139 0.8138 0.8138
2127.478388 0.8138 0.8138 0.8138 0.8138 0.8138
2132.490395 0.8139 0.8139 0.8139 0.8139 0.8139
2137.502401 0.8139 0.8139 0.8139 0.8139 0.8139
2142.514408 0.8139 0.8139 0.8139 0.8139 0.8139
2147.526414 0.8139 0.8139 0.8139 0.8139 0.8139
2152.538420 0.8139 0.8139 0.8139 0.8139 0.8140
2157.550427 0.8140 0.8141 0.8141 0.8142 0.8143
2162.562433 0.8143 0.8144 0.8144 0.8145 0.8145
2167.574440 0.8146 0.8147 0.8147 0.8148 0.8148
2172.586446 0.8149 0.8150 0.8150 0.8151 0.8151
2177.598453 0.8152 0.8152 0.8153 0.8154 0.8154
2182.610459 0.8155 0.8155 0.8156 0.8156 0.8155
2187.622465 0.8155 0.8154 0.8154 0.8153 0.8153
2192.634472 0.8152 0.8151 0.8151 0.8150 0.8150
2197.646478 0.8149 0.8149 0.8148 0.8148 0.8147
2202.658485 0.8146 0.8146 0.8145 0.8145 0.8143
2207.670491 0.8142 0.8141 0.8141 0.8142 0.8141
2212.682497 0.8141 0.8141 0.8140 0.8140 0.8139
2217.694504 0.8139 0.8138 0.8138 0.8138 0.8137
2222.706510 0.8137 0.8136 0.8136 0.8135 0.8135
2227.718517 0.8135 0.8134 0.8134 0.8133 0.8133
2232.730523 0.8133 0.8132 0.8132 0.8131 0.8131
2237.742529 0.8130 0.8130 0.8130 0.8129 0.8129
2242.754536 0.8128 0.8127 0.8125 0.8123 0.8122
2247.766542 0.8120 0.8118 0.8116 0.8114 0.8113
2252.778549 0.8111 0.8109 0.8107 0.8106 0.8104
2257.790555 0.8102 0.8100 0.8099 0.8097 0.8095
2262.802561 0.8093 0.8092 0.8090 0.8088 0.8086
2267.814568 0.8085 0.8083 0.8081 0.8079 0.8079
2272.826574 0.8078 0.8078 0.8077 0.8077 0.8076
2277.838581 0.8075 0.8075 0.8074 0.8074 0.8073
2282.850587 0.8073 0.8072 0.8072 0.8071 0.8071
2287.862593 0.8070 0.8070 0.8069 0.8069 0.8068
2292.874600 0.8067 0.8067 0.8066 0.8066 0.8065
2297.886606 0.8065 0.8064 0.8064 0.8063 0.8063
2302.898613 0.8062 0.8061 0.8060 0.8059 0.8058
2307.910619 0.8057 0.8056 0.8055 0.8054 0.8053
2312.922625 0.8052 0.8051 0.8050 0.8049 0.8048
2317.934632 0.8046 0.8045 0.8044 0.8043 0.8042
2322.946638 0.8041 0.8040 0.8039 0.8038 0.8037
2327.958645 0.8036 0.8035 0.8034 0.8033 0.8032
2332.970651 0.8031 0.8031 0.8030 0.8030 0.8030
2337.982657 0.8029 0.8029 0.8028 0.8028 0.8027
2342.994664 0.8027 0.8026 0.8026 0.8025 0.8025
2348.006670 0.8025 0.8024 0.8024 0.8023 0.8023
2353.018677 0.8022 0.8022 0.8021 0.8021 0.8020
2358.030683 0.8020 0.8019 0.8019 0.8018 0.8019
2363.042689 0.8019 0.8020 0.8021 0.8022 0.8023
2368.054696 0.8023 0.8024 0.8025 0.8026 0.8027
2373.066702 0.8027 0.8029 0.8031 0.8033 0.8034
2378.078709 0.8036 0.8037 0.8039 0.8040 0.8042
2383.090715 0.8044 0.8046 0.8047 0.8049 0.8051
2388.102721 0.8053 0.8054 0.8055 0.8056 0.8057
2393.114728 0.8058 0.8058 0.8059 0.8059 0.8058
2398.126734 0.8057 0.8056 0.8055 0.8054 0.8053
2403.138741 0.8052 0.8051 0.8050 0.8049 0.8047
2408.150747 0.8046 0.8044 0.8042 0.8040 0.8038
2413.162753 0.8036 0.8034 0.8033 0.8031 0.8029
2418.174760 0.8027 0.8025 0.8023 0.8021 0.8020
2423.186766 0.8018 0.8016 0.8014 0.8012 0.8010
2428.198773 0.8008 0.8006 0.8004 0.8002 0.8000
2433.210779 0.7998 0.7996 0.7994 0.7992 0.7991
2438.222785 0.7989 0.7987 0.7985 0.7983 0.7981
2443.234792 0.7979 0.7977 0.7975 0.7973 0.7972
2448.246798 0.7970 0.7969 0.7967 0.7966 0.7964
2453.258805 0.7962 0.7961 0.7959 0.7958 0.7956
2458.270811 0.7955 0.7953 0.7951 0.7950 0.7948
2463.282818 0.7947 0.7945 0.7946 0.7951 0.7958
2468.294824 0.7965 0.7972 0.7979 0.7984 0.7988
2473.306830 0.7992 0.7987 0.7983 0.7978 0.7973
2478.318837 0.7969 0.7964 0.7960 0.7956 0.7952
2483.330843 0.7948 0.7944 0.7941 0.7938 0.7934
2488.342850 0.7929 0.7924 0.7920 0.7915 0.7910
2493.354856 0.7905 0.7900 0.7896 0.7891 0.7886
2498.366862 0.7881 0.7876 0.7871 0.7866 0.7861
2503.378869 0.7856 0.7851 0.7845 0.7839 0.7833
2508.390875 0.7827 0.7821 0.7815 0.7809 0.7803
2513.402882 0.7798 0.7789 0.7778 0.7768 0.7757
2518.414888 0.7746 0.7735 0.7723 0.7707 0.7690
2523.426894 0.7673 0.7657 0.7635 0.7606 0.7576
2528.438901 0.7547 0.7518 0.7489 0.7461 0.7433
2533.450907 0.7404 0.7377 0.7351 0.7326 0.7303
2538.462914 0.7279 0.7255 0.7241 0.7233 0.7225
2543.474920 0.7217 0.7212 0.7208 0.7208 0.7208
2548.486926 0.7209 0.7210 0.7211 0.7215 0.7220
2553.498933 0.7225 0.7230 0.7236 0.7242 0.7248
2558.510939 0.7255 0.7264 0.7275 0.7285 0.7293
2563.522946 0.7299 0.7304 0.7308 0.7313 0.7318
2568.534952 0.7325 0.7332 0.7340 0.7348 0.7356
2573.546958 0.7363 0.7371 0.7379 0.7387 0.7395
2578.558965 0.7403 0.7411 0.7420 0.7429 0.7435
2583.570971 0.7441 0.7447 0.7453 0.7459 0.7465
2588.582978 0.7471 0.7477 0.7483 0.7488 0.7494
2593.594984 0.7500 0.7505 0.7511 0.7517 0.7522
2598.606990 0.7528 0.7534 0.7540 0.7545 0.7548
2603.618997 0.7551 0.7553 0.7555 0.7557 0.7559
2608.631003 0.7562 0.7564 0.7566 0.7568 0.7570
2613.643010 0.7571 0.7572 0.7573 0.7575 0.7577
2618.655016 0.7580 0.7583 0.7585 0.7588 0.7591
2623.667022 0.7593 0.7596 0.7598 0.7601 0.7604
2628.679029 0.7606 0.7609 0.7612 0.7615 0.7618
2633.691035 0.7621 0.7624 0.7627 0.7630 0.7633
2638.703042 0.7636 0.7639 0.7640 0.7640 0.7640
2643.715048 0.7639 0.7638 0.7636 0.7635 0.7633
2648.727054 0.7632 0.7631 0.7631 0.7632 0.7634
2653.739061 0.7636 0.7638 0.7647 0.7659 0.7671
2658.751067 0.7685 0.7699 0.7707 0.7713 0.7715
2663.763074 0.7716 0.7717 0.7718 0.7717 0.7716
2668.775080 0.7716 0.7715 0.7715 0.7715 0.7715
2673.787086 0.7716 0.7716 0.7716 0.7716 0.7716
2678.799093 0.7717 0.7717 0.7717 0.7718 0.7718
2683.811099 0.7719 0.7719 0.7720 0.7720 0.7721
2688.823106 0.7722 0.7722 0.7723 0.7724 0.7724
2693.835112 0.7725 0.7726 0.7727 0.7728 0.7729
2698.847118 0.7730 0.7731 0.7732 0.7733 0.7733
2703.859125 0.7734 0.7734 0.7735 0.7735 0.7736
2708.871131 0.7736 0.7737 0.7737 0.7738 0.7738
2713.883138 0.7739 0.7739 0.7740 0.7740 0.7741
2718.895144 0.7741 0.7742 0.7742 0.7743 0.7743
2723.907150 0.7744 0.7744 0.7745 0.7745 0.7745
2728.919157 0.7745 0.7745 0.7745 0.7745 0.7745
2733.931163 0.7745 0.7745 0.7745 0.7745 0.7745
2738.943170 0.7745 0.7745 0.7745 0.7745 0.7745
2743.955176 0.7745 0.7745 0.7745 0.7745 0.7745
2748.967182 0.7745 0.7745 0.7745 0.7744 0.7743
2753.979189 0.7741 0.7740 0.7739 0.7738 0.7737
2758.991195 0.7735 0.7734 0.7733 0.7732 0.7730
2764.003202 0.7729 0.7728 0.7727 0.7726 0.7724
2769.015208 0.7723 0.7722 0.7721 0.7720 0.7719
2774.027215 0.7717 0.7716 0.7715 0.7714 0.7713
2779.039221 0.7712 0.7710 0.7709 0.7708 0.7707
2784.051227 0.7706 0.7705 0.7703 0.7702 0.7701
2789.063234 0.7700 0.7699 0.7698 0.7697 0.7695
2794.075240 0.7694 0.7693 0.7692 0.7691 0.7690
2799.087247 0.7688 0.7687 0.7686 0.7685 0.7684
2804.099253 0.7683 0.7681 0.7680 0.7679 0.7678
2809.111259 0.7677 0.7676 0.7675 0.7674 0.7673
2814.123266 0.7672 0.7671 0.7670 0.7669 0.7668
2819.135272 0.7667 0.7666 0.7665 0.7664 0.7663
2824.147279 0.7662 0.7661 0.7660 0.7659 0.7658
2829.159285 0.7657 0.7656 0.7653 0.7649 0.7645
2834.171291 0.7641 0.7637 0.7633 0.7629 0.7625
2839.183298 0.7621 0.7616 0.7612 0.7608 0.7604
2844.195304 0.7600 0.7596 0.7592 0.7588 0.7585
2849.207311 0.7581 0.7577 0.7574 0.7571 0.7571
2854.219317 0.7572 0.7573 0.7573 0.7574 0.7575
2859.231323 0.7576 0.7577 0.7578 0.7579 0.7581
2864.243330 0.7582 0.7583 0.7585 0.7586 0.7588
2869.255336 0.7589 0.7590 0.7591 0.7593 0.7594
2874.267343 0.7593 0.7592 0.7591 0.7591 0.7590
2879.279349 0.7589 0.7588 0.7587 0.7587 0.7586
2884.291355 0.7586 0.7585 0.7584 0.7584 0.7583
2889.303362 0.7583 0.7582 0.7581 0.7580 0.7578
2894.315368 0.7577 0.7575 0.7574 0.7572 0.7571
2899.327375 0.7569 0.7566 0.7561 0.7555 0.7549
2904.339381 0.7542 0.7536 0.7530 0.7524 0.7517
2909.351387 0.7511 0.7505 0.7498 0.7490 0.7483
2914.363394 0.7475 0.7468 0.7462 0.7459 0.7459
2919.375400 0.7460 0.7463 0.7466 0.7469 0.7472
2924.387407 0.7475 0.7478 0.7481 0.7486 0.7491
2929.399413 0.7496 0.7501 0.7504 0.7508 0.7512
2934.411419 0.7516 0.7520 0.7525 0.7529 0.7533
2939.423426 0.7538 0.7542 0.7545 0.7547 0.7549
2944.435432 0.7550 0.7552 0.7554 0.7555 0.7556
2949.447439 0.7558 0.7559 0.7561 0.7562 0.7564
2954.459445 0.7565 0.7566 0.7566 0.7566 0.7565
2959.471451 0.7565 0.7565 0.7564 0.7565 0.7568
2964.483458 0.7570 0.7573 0.7576 0.7579 0.7583
2969.495464 0.7586 0.7589 0.7591 0.7595 0.7597
2974.507471 0.7599 0.7600 0.7602 0.7603 0.7605
2979.519477 0.7606 0.7607 0.7609 0.7610 0.7610
2984.531483 0.7610 0.7610 0.7610 0.7610 0.7610
2989.543490 0.7610 0.7610 0.7610 0.7609 0.7609
2994.555496 0.7609 0.7609 0.7609 0.7609 0.7610
2999.567503 0.7610 0.7610 0.7610 0.7610 0.7610
3004.579509 0.7611 0.7611 0.7611 0.7611 0.7610
3009.591515 0.7610 0.7610 0.7610 0.7609 0.7609
3014.603522 0.7609 0.7608 0.7608 0.7607 0.7607
3019.615528 0.7606 0.7606 0.7605 0.7604 0.7604
3024.627535 0.7603 0.7603 0.7602 0.7602 0.7601
3029.639541 0.7601 0.7600 0.7600 0.7599 0.7599
3034.651547 0.7598 0.7598 0.7597 0.7596 0.7595
3039.663554 0.7593 0.7592 0.7591 0.7590 0.7589
3044.675560 0.7587 0.7586 0.7585 0.7584 0.7583
3049.687567 0.7581 0.7580 0.7579 0.7578 0.7577
3054.699573 0.7575 0.7573 0.7571 0.7569 0.7568
3059.711580 0.7566 0.7564 0.7562 0.7560 0.7558
3064.723586 0.7556 0.7555 0.7553 0.7551 0.7549
3069.735592 0.7547 0.7545 0.7543 0.7542 0.7540
3074.747599 0.7538 0.7536 0.7533 0.7531 0.7529
3079.759605 0.7528 0.7526 0.7524 0.7523 0.7521
3084.771612 0.7519 0.7518 0.7516 0.7514 0.7513
3089.783618 0.7511 0.7510 0.7508 0.7506 0.7505
3094.795624 0.7503 0.7501 0.7500 0.7498 0.7496
3099.807631 0.7495 0.7493 0.7491 0.7490 0.7488
3104.819637 0.7486 0.7483 0.7480 0.7478 0.7475
3109.831644 0.7473 0.7470 0.7467 0.7464 0.7462
3114.843650 0.7459 0.7457 0.7454 0.7452 0.7449
3119.855656 0.7447 0.7447 0.7448 0.7449 0.7450
3124.867663 0.7450 0.7448 0.7445 0.7443 0.7441
3129.879669 0.7438 0.7436 0.7430 0.7423 0.7417
3134.891676 0.7411 0.7407 0.7404 0.7401 0.7398
3139.903682 0.7395 0.7392 0.7389 0.7386 0.7384
3144.915688 0.7381 0.7378 0.7376 0.7373 0.7371
3149.927695 0.7369 0.7367 0.7366 0.7364 0.7362
3154.939701 0.7360 0.7358 0.7356 0.7354 0.7352
3159.951708 0.7350 0.7348 0.7345 0.7343 0.7341
3164.963714 0.7339 0.7337 0.7335 0.7331 0.7327
3169.975720 0.7323 0.7318 0.7314 0.7310 0.7305
3174.987727 0.7301 0.7298 0.7295 0.7292 0.7289
3179.999733 0.7286 0.7283 0.7281 0.7278 0.7275
3185.011740 0.7272 0.7269 0.7266 0.7263 0.7260
3190.023746 0.7257 0.7254 0.7252 0.7249 0.7247
3195.035752 0.7244 0.7242 0.7239 0.7237 0.7234
3200.047759 0.7232 0.7229 0.7227 0.7224 0.7222
3205.059765 0.7219 0.7217 0.7214 0.7211 0.7209
3210.071772 0.7206 0.7204 0.7201 0.7198 0.7195
3215.083778 0.7192 0.7190 0.7187 0.7184 0.7181
3220.095784 0.7178 0.7175 0.7172 0.7169 0.7167
3225.107791 0.7164 0.7161 0.7158 0.7155 0.7152
3230.119797 0.7149 0.7147 0.7144 0.7141 0.7138
3235.131804 0.7135 0.7132 0.7129 0.7126 0.7124
3240.143810 0.7121 0.7118 0.7115 0.7112 0.7109
3245.155816 0.7106 0.7103 0.7100 0.7096 0.7093
3250.167823 0.7089 0.7085 0.7082 0.7078 0.7075
3255.179829 0.7071 0.7067 0.7064 0.7060 0.7057
3260.191836 0.7053 0.7050 0.7046 0.7043 0.7039
3265.203842 0.7035 0.7032 0.7028 0.7025 0.7021
3270.215848 0.7018 0.7014 0.7011 0.7007 0.7003
3275.227855 0.7000 0.6996 0.6993 0.6989 0.6986
3280.239861 0.6982 0.6979 0.6976 0.6973 0.6970
3285.251868 0.6967 0.6964 0.6962 0.6959 0.6956
3290.263874 0.6953 0.6950 0.6947 0.6944 0.6941
3295.275880 0.6938 0.6935 0.6932 0.6929 0.6925
3300.287887 0.6922 0.6919 0.6915 0.6910 0.6904
3305.299893 0.6898 0.6893 0.6887 0.6882 0.6877
3310.311900 0.6871 0.6866 0.6860 0.6855 0.6849
3315.323906 0.6842 0.6835 0.6828 0.6821 0.6814
3320.335912 0.6807 0.6800 0.6793 0.6786 0.6779
3325.347919 0.6772 0.6765 0.6758 0.6751 0.6744
3330.359925 0.6736 0.6729 0.6721 0.6713 0.6706
3335.371932 0.6698 0.6690 0.6682 0.6675 0.6667
3340.383938 0.6659 0.6652 0.6644 0.6636 0.6628
3345.395945 0.6621 0.6613 0.6605 0.6597 0.6589
3350.407951 0.6581 0.6572 0.6564 0.6555 0.6547
3355.419957 0.6538 0.6530 0.6521 0.6513 0.6504
3360.431964 0.6496 0.6487 0.6479 0.6470 0.6462
3365.443970 0.6454 0.6446 0.6438 0.6430 0.6422
3370.455977 0.6414 0.6406 0.6398 0.6390 0.6381
3375.467983 0.6371 0.6361 0.6351 0.6341 0.6331
3380.479989 0.6321 0.6311 0.6301 0.6291 0.6282
3385.491996 0.6274 0.6267 0.6260 0.6253 0.6245
3390.504002 0.6239 0.6232 0.6225 0.6218 0.6211
3395.516009 0.6204 0.6197 0.6190 0.6184 0.6177
3400.528015 0.6170 0.6164 0.6160 0.6156 0.6152
3405.540021 0.6148 0.6144 0.6141 0.6137 0.6133
3410.552028 0.6129 0.6125 0.6121 0.6117 0.6113
3415.564034 0.6110 0.6106 0.6102 0.6098 0.6096
3420.576041 0.6095 0.6093 0.6092 0.6091 0.6089
3425.588047 0.6088 0.6088 0.6088 0.6088 0.6088
3430.600053 0.6088 0.6089 0.6089 0.6089 0.6089
3435.612060 0.6089 0.6090 0.6090 0.6090 0.6090
3440.624066 0.6090 0.6090 0.6091 0.6093 0.6094
3445.636073 0.6096 0.6098 0.6099 0.6101 0.6103
3450.648079 0.6104 0.6106 0.6108 0.6109 0.6111
3455.660085 0.6113 0.6114 0.6116 0.6117 0.6119
3460.672092 0.6120 0.6121 0.6123 0.6124 0.6126
3465.684098 0.6127 0.6129 0.6130 0.6132 0.6133
3470.696105 0.6134 0.6138 0.6141 0.6145 0.6148
3475.708111 0.6152 0.6155 0.6159 0.6162 0.6166
3480.720117 0.6169 0.6173 0.6177 0.6180 0.6184
3485.732124 0.6187 0.6191 0.6194 0.6199 0.6204
3490.744130 0.6210 0.6216 0.6221 0.6227 0.6233
3495.756137 0.6238 0.6244 0.6250 0.6255 0.6261
3500.768143 0.6266 0.6272 0.6277 0.6283 0.6288
3505.780149 0.6294 0.6299 0.6305 0.6310 0.6315
3510.792156 0.6321 0.6326 0.6331 0.6337 0.6342
3515.804162 0.6347 0.6353 0.6358 0.6363 0.6369
3520.816169 0.6374 0.6379 0.6385 0.6390 0.6395
3525.828175 0.6402 0.6409 0.6415 0.6422 0.6428
3530.840181 0.6435 0.6441 0.6448 0.6455 0.6461
3535.852188 0.6468 0.6474 0.6481 0.6488 0.6494
3540.864194 0.6501 0.6507 0.6514 0.6520 0.6526
3545.876201 0.6532 0.6537 0.6543 0.6549 0.6554
3550.888207 0.6560 0.6565 0.6571 0.6577 0.6582
3555.900213 0.6588 0.6594 0.6600 0.6605 0.6611
3560.912220 0.6617 0.6622 0.6629 0.6634 0.6640
3565.924226 0.6645 0.6651 0.6657 0.6662 0.6668
3570.936233 0.6674 0.6679 0.6685 0.6691 0.6696
3575.948239 0.6702 0.6708 0.6713 0.6717 0.6722
3580.960245 0.6727 0.6732 0.6737 0.6741 0.6746
3585.972252 0.6751 0.6756 0.6760 0.6765 0.6770
3590.984258 0.6776 0.6781 0.6787 0.6793 0.6798
3595.996265 0.6804 0.6810 0.6815 0.6821 0.6827
3601.008271 0.6832 0.6838 0.6844 0.6850 0.6855
3606.020277 0.6861 0.6867 0.6874 0.6882 0.6891
3611.032284 0.6900 0.6909 0.6918 0.6924 0.6930
3616.044290 0.6936 0.6942 0.6949 0.6955 0.6961
3621.056297 0.6968 0.6974 0.6979 0.6983 0.6987
3626.068303 0.6991 0.6994 0.6998 0.7000 0.7002
3631.080309 0.7004 0.7005 0.7007 0.7010 0.7012
3636.092316 0.7015 0.7022 0.7035 0.7051 0.7067
3641.104322 0.7085 0.7094 0.7098 0.7102 0.7105
3646.116329 0.7107 0.7109 0.7110 0.7109 0.7108
3651.128335 0.7107 0.7108 0.7109 0.7111 0.7112
3656.140342 0.7114 0.7116 0.7120 0.7123 0.7127
3661.152348 0.7131 0.7135 0.7139 0.7143 0.7149
3666.164354 0.7155 0.7161 0.7167 0.7173 0.7179
3671.176361 0.7179 0.7178 0.7177 0.7176 0.7173
3676.188367 0.7169 0.7160 0.7152 0.7143 0.7131
3681.200374 0.7119 0.7108 0.7105 0.7102 0.7100
3686.212380 0.7099 0.7103 0.7107 0.7111 0.7116
3691.224386 0.7121 0.7126 0.7130 0.7135 0.7140
3696.236393 0.7144 0.7148 0.7152 0.7156 0.7159
3701.248399 0.7163 0.7166 0.7170 0.7175 0.7180
3706.260406 0.7185 0.7190 0.7195 0.7200 0.7205
3711.272412 0.7207 0.7206 0.7205 0.7203 0.7198
3716.284418 0.7191 0.7183 0.7176 0.7169 0.7161
3721.296425 0.7153 0.7145 0.7139 0.7142 0.7148
3726.308431 0.7157 0.7166 0.7172 0.7172 0.7172
3731.320438 0.7172 0.7172 0.7173 0.7172 0.7172
3736.332444 0.7172 0.7172 0.7171 0.7171 0.7171
3741.344450 0.7170 0.7170 0.7170 0.7171 0.7171
3746.356457 0.7171 0.7171 0.7170 0.7168 0.7167
3751.368463 0.7166 0.7163 0.7156 0.7150 0.7144
3756.380470 0.7137 0.7127 0.7114 0.7106 0.7104
3761.392476 0.7104 0.7104 0.7105 0.7107 0.7112
3766.404482 0.7121 0.7130 0.7140 0.7150 0.7161
3771.416489 0.7169 0.7176 0.7180 0.7180 0.7180
3776.428495 0.7181 0.7181 0.7181 0.7181 0.7181
3781.440502 0.7181 0.7182 0.7181 0.7181 0.7181
3786.452508 0.7181 0.7180 0.7180 0.7180 0.7180
3791.464514 0.7180 0.7180 0.7180 0.7180 0.7180
3796.476521 0.7180 0.7181 0.7181 0.7181 0.7181
3801.488527 0.7181 0.7182 0.7182 0.7180 0.7178
3806.500534 0.7177 0.7176 0.7174 0.7172 0.7171
3811.512540 0.7169 0.7168 0.7166 0.7163 0.7161
3816.524546 0.7158 0.7156 0.7153 0.7151 0.7149
3821.536553 0.7146 0.7144 0.7141 0.7139 0.7137
3826.548559 0.7135 0.7135 0.7135 0.7134 0.7134
3831.560566 0.7134 0.7133 0.7134 0.7135 0.7138
3836.572572 0.7140 0.7142 0.7144 0.7147 0.7149
3841.584578 0.7150 0.7149 0.7149 0.7148 0.7148
3846.596585 0.7147 0.7146 0.7143 0.7140 0.7137
3851.608591 0.7134 0.7133 0.7133 0.7134 0.7137
3856.620598 0.7142 0.7145 0.7144 0.7143 0.7142
3861.632604 0.7137 0.7128 0.7119 0.7105 0.7087
3866.644610 0.7071 0.7058 0.7048 0.7048 0.7057
3871.656617 0.7072 0.7090 0.7109 0.7126 0.7137
3876.668623 0.7145 0.7151 0.7153 0.7152 0.7151
3881.680630 0.7150 0.7149 0.7148 0.7146 0.7145
3886.692636 0.7143 0.7142 0.7140 0.7139 0.7136
3891.704642 0.7134 0.7132 0.7129 0.7127 0.7125
3896.716649 0.7124 0.7123 0.7122 0.7121 0.7120
3901.728655 0.7119 0.7120 0.7121 0.7122 0.7123
3906.740662 0.7124 0.7125 0.7126 0.7122 0.7127
3911.752668 0.7130 0.7132 0.7133 0.7135 0.7136
3916.764674 0.7138 0.7141 0.7144 0.7147 0.7149
3921.776681 0.7152 0.7155 0.7158 0.7159 0.7160
3926.788687 0.7161 0.7162 0.7164 0.7165 0.7166
3931.800694 0.7167 0.7167 0.7167 0.7167 0.7166
3936.812700 0.7166 0.7166 0.7166 0.7166 0.7166
3941.824707 0.7166 0.7165 0.7165 0.7164 0.7163
3946.836713 0.7162 0.7161 0.7159 0.7158 0.7157
3951.848719 0.7156 0.7155 0.7154 0.7153 0.7152
3956.860726 0.7150 0.7149 0.7149 0.7148 0.7148
3961.872732 0.7147 0.7147 0.7147 0.7146 0.7146
3966.884739 0.7146 0.7145 0.7145 0.7145 0.7144
3971.896745 0.7144 0.7144 0.7144 0.7144 0.7144
3976.908751 0.7144 0.7145 0.7145 0.7145 0.7145
3981.920758 0.7145 0.7145 0.7146 0.7146 0.7146
3986.932764 0.7146 0.7146 0.7146 0.7146 0.7146
3991.944771 0.7146 0.7145 0.7145 0.7145 0.7145
3996.956777 0.7145 0.7145 0.7145 0.7145 0.7145
4001.968783 0.7145 0.7144 0.7144 0.7144 0.7144
4006.980790 0.7144 0.7144 0.7144 0.7144 0.7144
4011.992796 0.7144 0.7143 0.7143
##END=
