##TITLE=BENZIMIDAZOLE, 5-AMINO-2-(TRIFLUOROMETHYL)-, DIHYDROCHLORIDE
##JCAMP-DX=4.24
##DATA TYPE=INFRARED SPECTRUM
##CLASS=COBLENTZ III
##ORIGIN=FISONS LTD., VIA S.D.C. (DR. G. T. NEWBOLD)
##OWNER=COBLENTZ SOCIETY
Collection (C) 2018 copyright by the U.S. Secretary of Commerce
on behalf of the United States of America. All rights reserved.
##DATE=Not specified, most likely prior to 1970
##MOLFORM=C8 H8 Cl2 F3 N3
##SOURCE REFERENCE=COBLENTZ NO. 6329
##$NIST ID=B6006329
##$NIST SOURCE=COBLENTZ
##$NIST IMAGE=cob6329
##SPECTROMETER/DATA SYSTEM=UNICAM SP-200
##STATE=SOLID (KBr DISC)
$$SPECTRAL CONTAMINATION DUE TO H2O AROUND 3500 CM^-^1
##SAMPLING PROCEDURE=TRANSMISSION
##RESOLUTION=2
##DATA PROCESSING=DIGITIZED BY NIST FROM HARD COPY (FROM TWO SEGMENTS)
##XUNITS=1/CM
##YUNITS=TRANSMITTANCE
##XFACTOR=1.000000
##YFACTOR=1
##DELTAX=0.890869
##FIRSTX=652.116
##LASTX=4978.18
##FIRSTY=0.859
##MAXX=4978.18
##MINX=652.116
##MAXY=0.859
##MINY=0.073
##NPOINTS=4857
##XYDATA=(X++(Y..Y))
652.116000 0.8590 0.8590 0.8590 0.8590 0.8590
656.570345 0.8590 0.8590 0.8580 0.8580 0.8580
661.024690 0.8580 0.8580 0.8570 0.8570 0.8570
665.479035 0.8570 0.8570 0.8560 0.8560 0.8550
669.933380 0.8550 0.8540 0.8530 0.8530 0.8520
674.387725 0.8510 0.8510 0.8500 0.8500 0.8490
678.842070 0.8490 0.8500 0.8500 0.8500 0.8490
683.296415 0.8460 0.8450 0.8430 0.8420 0.8400
687.750760 0.8380 0.8380 0.8370 0.8370 0.8360
692.205105 0.8350 0.8350 0.8340 0.8340 0.8340
696.659450 0.8330 0.8320 0.8320 0.8310 0.8300
701.113795 0.8300 0.8290 0.8280 0.8280 0.8290
705.568140 0.8290 0.8280 0.8270 0.8260 0.8260
710.022485 0.8260 0.8260 0.8260 0.8260 0.8220
714.476830 0.8200 0.8200 0.8190 0.8190 0.8190
718.931175 0.8190 0.8190 0.8190 0.8180 0.8150
723.385520 0.8150 0.8100 0.8060 0.8010 0.8000
727.839865 0.7880 0.7731 0.7531 0.7341 0.7141
732.294210 0.6980 0.6960 0.6950 0.6960 0.7080
736.748555 0.7369 0.7729 0.7969 0.8030 0.8149
741.202900 0.8180 0.8190 0.8190 0.8190 0.8190
745.657245 0.8190 0.8160 0.8090 0.8010 0.7891
750.111590 0.7750 0.7620 0.7520 0.7500 0.7390
754.565935 0.7161 0.6871 0.6581 0.6570 0.6580
759.020280 0.6640 0.6970 0.7210 0.7849 0.7920
763.474625 0.8030 0.8050 0.8070 0.8090 0.8090
767.928970 0.8080 0.8060 0.8020 0.8000 0.7950
772.383315 0.7890 0.7810 0.7730 0.7690 0.7601
776.837660 0.7500 0.7410 0.7240 0.6980 0.6631
781.292005 0.6381 0.6340 0.6310 0.6340 0.6430
785.746350 0.6510 0.6770 0.6960 0.7140 0.7210
790.200695 0.7300 0.7410 0.7500 0.7600 0.7699
794.655040 0.7760 0.7810 0.7890 0.7920 0.7940
799.109385 0.7980 0.8000 0.8000 0.8010 0.8000
803.563730 0.8000 0.8010 0.8010 0.8010 0.8010
808.018075 0.8010 0.8000 0.8000 0.7940 0.7900
812.472420 0.7850 0.7840 0.7800 0.7790 0.7740
816.926765 0.7710 0.7700 0.7660 0.7610 0.7511
821.381110 0.7440 0.7390 0.7300 0.7230 0.7190
825.835455 0.7140 0.7100 0.7050 0.7000 0.7000
830.289800 0.6900 0.6850 0.6800 0.6730 0.6690
834.744145 0.6650 0.6610 0.6590 0.6590 0.6501
839.198490 0.6420 0.6230 0.6130 0.6000 0.5810
843.652835 0.5710 0.5620 0.5520 0.5500 0.5460
848.107180 0.5420 0.5390 0.5330 0.5240 0.4881
852.561525 0.4730 0.4690 0.4571 0.4431 0.4420
857.015870 0.4420 0.4420 0.4420 0.4420 0.4420
861.470215 0.4400 0.4360 0.4300 0.4300 0.4300
865.924560 0.4310 0.4420 0.4610 0.4800 0.4920
870.378905 0.4980 0.5040 0.5229 0.5399 0.5589
874.833250 0.5760 0.6010 0.6150 0.6240 0.6300
879.287595 0.6360 0.6450 0.6589 0.6690 0.6799
883.741940 0.6820 0.6850 0.6890 0.6980 0.7000
888.196285 0.7050 0.7120 0.7130 0.7140 0.7150
892.650630 0.7130 0.6970 0.6760 0.6400 0.6290
897.104975 0.6190 0.6070 0.5731 0.5710 0.5730
901.559320 0.5840 0.5970 0.6440 0.7109 0.7439
906.013665 0.7500 0.7530 0.7560 0.7570 0.7580
910.468010 0.7580 0.7590 0.7600 0.7610 0.7640
914.922355 0.7690 0.7730 0.7810 0.7860 0.7880
919.376700 0.7890 0.7900 0.7940 0.7960 0.7990
923.831045 0.8000 0.8000 0.8010 0.8050 0.8070
928.285390 0.8090 0.8100 0.8100 0.8110 0.8110
932.739735 0.8110 0.8110 0.8110 0.8110 0.8110
937.194080 0.8110 0.8110 0.8110 0.8110 0.8110
941.648425 0.8110 0.8110 0.8100 0.8100 0.8100
946.102770 0.8100 0.8110 0.8110 0.8110 0.8110
950.557115 0.8110 0.8110 0.8110 0.8090 0.8070
955.011460 0.8020 0.8000 0.7990 0.7960 0.7920
959.465805 0.7850 0.7810 0.7730 0.7690 0.7650
963.920150 0.7590 0.7460 0.7380 0.7370 0.7360
968.374495 0.7360 0.7370 0.7410 0.7519 0.7689
972.828840 0.7710 0.7720 0.7710 0.7690 0.7690
977.283185 0.7670 0.7610 0.7540 0.7520 0.7510
981.737530 0.7500 0.7490 0.7450 0.7400 0.7300
986.191875 0.7150 0.6921 0.6691 0.6501 0.6490
990.646220 0.6470 0.6480 0.6590 0.6889 0.7129
995.100565 0.7459 0.7530 0.7610 0.7680 0.7760
999.554910 0.7820 0.7870 0.7880 0.7880 0.7890
1004.009255 0.7890 0.7890 0.7900 0.7910 0.7910
1008.463600 0.7920 0.7920 0.7940 0.7960 0.7960
1012.917945 0.7960 0.7970 0.7970 0.7960 0.7960
1017.372290 0.7960 0.7960 0.7950 0.7930 0.7920
1021.826635 0.7920 0.7910 0.7910 0.7910 0.7910
1026.280980 0.7900 0.7890 0.7880 0.7870 0.7870
1030.735325 0.7860 0.7870 0.7880 0.7880 0.7880
1035.189670 0.7880 0.7880 0.7880 0.7880 0.7870
1039.644015 0.7850 0.7830 0.7830 0.7820 0.7810
1044.098360 0.7810 0.7810 0.7800 0.7780 0.7730
1048.552705 0.7710 0.7700 0.7690 0.7690 0.7670
1053.007050 0.7670 0.7670 0.7660 0.7660 0.7660
1057.461395 0.7660 0.7650 0.7650 0.7620 0.7600
1061.915740 0.7580 0.7580 0.7570 0.7560 0.7560
1066.370085 0.7550 0.7540 0.7510 0.7500 0.7430
1070.824430 0.7410 0.7390 0.7380 0.7370 0.7360
1075.278775 0.7360 0.7340 0.7340 0.7320 0.7290
1079.733120 0.7260 0.7230 0.7190 0.7150 0.7100
1084.187465 0.7060 0.7010 0.7000 0.6920 0.6890
1088.641810 0.6800 0.6770 0.6730 0.6690 0.6620
1093.096155 0.6560 0.6510 0.6500 0.6420 0.6340
1097.550500 0.6220 0.6100 0.5980 0.5800 0.5640
1102.004845 0.5500 0.5380 0.5251 0.4882 0.4721
1106.459190 0.4690 0.4680 0.4690 0.4750 0.4810
1110.913535 0.4940 0.5020 0.5100 0.5249 0.5379
1115.367880 0.5520 0.5680 0.5760 0.5810 0.5850
1119.822225 0.5880 0.5880 0.5880 0.5880 0.5880
1124.276570 0.5850 0.5840 0.5800 0.5730 0.5650
1128.730915 0.5600 0.5520 0.5420 0.5301 0.5141
1133.185260 0.5110 0.4950 0.4900 0.4820 0.4730
1137.639605 0.4680 0.4610 0.4520 0.4421 0.4321
1142.093950 0.4230 0.4130 0.4030 0.3930 0.3850
1146.548295 0.3730 0.3650 0.3610 0.3610 0.3610
1151.002640 0.3610 0.3620 0.3630 0.3630 0.3620
1155.456985 0.3610 0.3610 0.3401 0.3191 0.3110
1159.911330 0.3020 0.2920 0.2830 0.2690 0.2650
1164.365675 0.2500 0.2331 0.2201 0.2041 0.1901
1168.820020 0.1800 0.1610 0.1500 0.1400 0.1310
1173.274365 0.1300 0.1270 0.1260 0.1250 0.1161
1177.728710 0.1080 0.1010 0.0940 0.0890 0.0740
1182.183055 0.0730 0.0730 0.0750 0.0820 0.0840
1186.637400 0.0930 0.1030 0.1190 0.1360 0.1500
1191.091745 0.1610 0.1759 0.1909 0.2039 0.2179
1195.546090 0.2290 0.2380 0.2470 0.2530 0.2570
1200.000435 0.2620 0.2650 0.2650 0.2660 0.2690
1204.454780 0.2660 0.2610 0.2420 0.2300 0.2110
1208.909125 0.1920 0.1800 0.1531 0.1321 0.1111
1213.363470 0.0900 0.0890 0.0880 0.0890 0.0900
1217.817815 0.1299 0.1569 0.1998 0.2458 0.2669
1222.272160 0.2930 0.3030 0.3150 0.3150 0.3160
1226.726505 0.3150 0.3130 0.3100 0.3001 0.2841
1231.180850 0.2730 0.2590 0.2480 0.2320 0.2120
1235.635195 0.1980 0.1840 0.1691 0.1551 0.1421
1240.089540 0.1340 0.1270 0.1150 0.1130 0.1150
1244.543885 0.1170 0.1479 0.1839 0.2208 0.2598
1248.998230 0.3030 0.3410 0.3730 0.4000 0.4200
1253.452575 0.4310 0.4310 0.4300 0.4240 0.4200
1257.906920 0.4120 0.4110 0.4020 0.3940 0.3780
1262.361265 0.3650 0.3530 0.3400 0.3281 0.3190
1266.815610 0.3020 0.3000 0.2890 0.2800 0.2690
1271.269955 0.2600 0.2530 0.2500 0.2420 0.2380
1275.724300 0.2310 0.2250 0.2230 0.2200 0.2190
1280.178645 0.2200 0.2210 0.2529 0.2958 0.3348
1284.632990 0.3850 0.4460 0.4839 0.5020 0.5200
1289.087335 0.5369 0.5549 0.5650 0.5730 0.5819
1293.541680 0.5850 0.5920 0.5960 0.6050 0.6130
1297.996025 0.6230 0.6330 0.6460 0.6560 0.6699
1302.450370 0.6720 0.6830 0.6960 0.7010 0.7060
1306.904715 0.7080 0.7090 0.7090 0.7090 0.7090
1311.359060 0.7090 0.7070 0.7070 0.7000 0.6950
1315.813405 0.6910 0.6850 0.6780 0.6690 0.6531
1320.267750 0.6380 0.6150 0.6050 0.5990 0.5800
1324.722095 0.5610 0.5341 0.4902 0.4721 0.4501
1329.176440 0.4250 0.4030 0.3800 0.3600 0.3410
1333.630785 0.3221 0.3100 0.3000 0.2930 0.2890
1338.085130 0.2800 0.2540 0.2420 0.2190 0.1961
1342.539475 0.1890 0.1810 0.1810 0.1830 0.1840
1346.993820 0.1880 0.1920 0.1960 0.2000 0.1960
1351.448165 0.1910 0.1850 0.1810 0.1760 0.1760
1355.902510 0.1770 0.1810 0.2290 0.2769 0.3259
1360.356855 0.3799 0.4308 0.4718 0.4879 0.5039
1364.811200 0.5300 0.5510 0.5690 0.5690 0.5680
1369.265545 0.5660 0.5660 0.5640 0.5620 0.5610
1373.719890 0.5620 0.5740 0.5860 0.5980 0.6100
1378.174235 0.6260 0.6429 0.6609 0.6759 0.6929
1382.628580 0.7020 0.7100 0.7120 0.7130 0.7160
1387.082925 0.7170 0.7190 0.7190 0.7190 0.7190
1391.537270 0.7190 0.7140 0.7110 0.7010 0.6960
1395.991615 0.6830 0.6681 0.6511 0.6341 0.6181
1400.445960 0.5980 0.5760 0.5500 0.5270 0.4901
1404.900305 0.4671 0.4441 0.4251 0.4240 0.4230
1409.354650 0.4230 0.4300 0.4680 0.5050 0.5459
1413.808995 0.5999 0.6299 0.6798 0.6959 0.7059
1418.263340 0.7220 0.7300 0.7330 0.7380 0.7390
1422.717685 0.7390 0.7400 0.7400 0.7410 0.7420
1427.172030 0.7420 0.7450 0.7460 0.7460 0.7480
1431.626375 0.7490 0.7490 0.7500 0.7500 0.7500
1436.080720 0.7510 0.7530 0.7550 0.7570 0.7590
1440.535065 0.7600 0.7610 0.7610 0.7610 0.7610
1444.989410 0.7600 0.7590 0.7590 0.7540 0.7500
1449.443755 0.7500 0.7490 0.7470 0.7420 0.7400
1453.898100 0.7350 0.7310 0.7250 0.7220 0.7160
1458.352445 0.7100 0.7010 0.6910 0.6801 0.6691
1462.806790 0.6610 0.6450 0.6310 0.6200 0.6110
1467.261135 0.6010 0.5920 0.5910 0.5910 0.5900
1471.715480 0.5900 0.5910 0.5910 0.5920 0.5920
1476.169825 0.5870 0.5850 0.5840 0.5830 0.5840
1480.624170 0.5850 0.5910 0.5990 0.6010 0.6090
1485.078515 0.6110 0.6190 0.6220 0.6270 0.6399
1489.532860 0.6500 0.6600 0.6730 0.6850 0.6970
1493.987205 0.7000 0.7000 0.7000 0.6990 0.6980
1498.441550 0.6980 0.6960 0.6950 0.6940 0.6920
1502.895895 0.6910 0.6860 0.6810 0.6750 0.6700
1507.350240 0.6610 0.6530 0.6460 0.6340 0.6240
1511.804585 0.6120 0.6030 0.5841 0.5740 0.5700
1516.258930 0.5650 0.5610 0.5590 0.5580 0.5590
1520.713275 0.5610 0.5630 0.5650 0.5660 0.5680
1525.167620 0.5690 0.5680 0.5680 0.5650 0.5610
1529.621965 0.5600 0.5530 0.5500 0.5410 0.5311
1534.076310 0.5140 0.4860 0.4740 0.4610 0.4500
1538.530655 0.4380 0.4231 0.4061 0.4030 0.4060
1542.985000 0.4120 0.4240 0.4480 0.4700 0.4920
1547.439345 0.5000 0.5090 0.5200 0.5320 0.5400
1551.893690 0.5440 0.5610 0.5720 0.5890 0.6010
1556.348035 0.6110 0.6190 0.6300 0.6419 0.6500
1560.802380 0.6520 0.6520 0.6520 0.6530 0.6530
1565.256725 0.6530 0.6540 0.6540 0.6550 0.6570
1569.711070 0.6570 0.6570 0.6570 0.6570 0.6550
1574.165415 0.6530 0.6510 0.6460 0.6400 0.6291
1578.619760 0.6200 0.6110 0.5920 0.5810 0.5690
1583.074105 0.5610 0.5570 0.5550 0.5520 0.5500
1587.528450 0.5500 0.5500 0.5500 0.5500 0.5500
1591.982795 0.5520 0.5540 0.5600 0.5610 0.5620
1596.437140 0.5660 0.5680 0.5690 0.5690 0.5770
1600.891485 0.5850 0.5950 0.6030 0.6120 0.6209
1605.345830 0.6390 0.6460 0.6550 0.6640 0.6710
1609.800175 0.6750 0.6800 0.6880 0.6920 0.6940
1614.254520 0.6960 0.6960 0.6970 0.6980 0.6990
1618.708865 0.6990 0.6990 0.6990 0.6980 0.6970
1623.163210 0.6970 0.6960 0.6950 0.6920 0.6900
1627.617555 0.6860 0.6800 0.6790 0.6770 0.6720
1632.071900 0.6700 0.6630 0.6590 0.6520 0.6500
1636.526245 0.6500 0.6430 0.6390 0.6310 0.6300
1640.980590 0.6300 0.6300 0.6300 0.6300 0.6310
1645.434935 0.6320 0.6330 0.6330 0.6340 0.6340
1649.889280 0.6340 0.6350 0.6350 0.6360 0.6360
1654.343625 0.6370 0.6380 0.6380 0.6390 0.6390
1658.797970 0.6390 0.6400 0.6400 0.6400 0.6400
1663.252315 0.6400 0.6390 0.6390 0.6360 0.6330
1667.706660 0.6310 0.6300 0.6290 0.6260 0.6220
1672.161005 0.6180 0.6150 0.6110 0.6090 0.6050
1676.615350 0.6010 0.6010 0.6000 0.6000 0.6010
1681.069695 0.6010 0.6010 0.6000 0.6000 0.6000
1685.524040 0.6000 0.5980 0.5970 0.5960 0.5960
1689.978385 0.5960 0.5940 0.5920 0.5920 0.5910
1694.432730 0.5910 0.5900 0.5890 0.5880 0.5880
1698.887075 0.5880 0.5900 0.5900 0.5930 0.5960
1703.341420 0.5980 0.6000 0.6040 0.6050 0.6080
1707.795765 0.6110 0.6150 0.6190 0.6220 0.6250
1712.250110 0.6260 0.6290 0.6300 0.6340 0.6390
1716.704455 0.6440 0.6510 0.6550 0.6590 0.6620
1721.158800 0.6670 0.6730 0.6740 0.6800 0.6800
1725.613145 0.6820 0.6850 0.6870 0.6890 0.6900
1730.067490 0.6910 0.6920 0.6920 0.6950 0.6960
1734.521835 0.6960 0.7000 0.7000 0.7010 0.7030
1738.976180 0.7090 0.7100 0.7130 0.7150 0.7160
1743.430525 0.7180 0.7190 0.7200 0.7210 0.7220
1747.884870 0.7220 0.7240 0.7250 0.7260 0.7260
1752.339215 0.7260 0.7260 0.7260 0.7250 0.7240
1756.793560 0.7210 0.7200 0.7210 0.7260 0.7300
1761.247905 0.7310 0.7310 0.7320 0.7320 0.7330
1765.702250 0.7330 0.7340 0.7340 0.7350 0.7360
1770.156595 0.7380 0.7390 0.7400 0.7410 0.7420
1774.610940 0.7440 0.7450 0.7460 0.7460 0.7470
1779.065285 0.7490 0.7500 0.7500 0.7500 0.7500
1783.519630 0.7510 0.7520 0.7520 0.7520 0.7520
1787.973975 0.7520 0.7520 0.7520 0.7530 0.7550
1792.428320 0.7570 0.7570 0.7580 0.7590 0.7590
1796.882665 0.7600 0.7610 0.7630 0.7640 0.7650
1801.337010 0.7650 0.7670 0.7670 0.7670 0.7680
1805.791355 0.7680 0.7690 0.7690 0.7690 0.7700
1810.245700 0.7710 0.7710 0.7710 0.7710 0.7710
1814.700045 0.7710 0.7700 0.7700 0.7700 0.7700
1819.154390 0.7690 0.7690 0.7690 0.7690 0.7690
1823.608735 0.7680 0.7680 0.7680 0.7690 0.7690
1828.063080 0.7690 0.7690 0.7680 0.7670 0.7660
1832.517425 0.7650 0.7650 0.7640 0.7630 0.7630
1836.971770 0.7630 0.7620 0.7620 0.7630 0.7620
1841.426115 0.7620 0.7620 0.7610 0.7610 0.7610
1845.880460 0.7610 0.7610 0.7610 0.7610 0.7610
1850.334805 0.7620 0.7620 0.7620 0.7620 0.7610
1854.789150 0.7610 0.7610 0.7610 0.7610 0.7600
1859.243495 0.7600 0.7600 0.7590 0.7590 0.7590
1863.697840 0.7590 0.7590 0.7590 0.7590 0.7590
1868.152185 0.7600 0.7590 0.7580 0.7580 0.7580
1872.606530 0.7580 0.7570 0.7570 0.7570 0.7550
1877.060875 0.7540 0.7520 0.7510 0.7500 0.7500
1881.515220 0.7500 0.7500 0.7500 0.7500 0.7480
1885.969565 0.7460 0.7450 0.7420 0.7420 0.7420
1890.423910 0.7420 0.7410 0.7400 0.7390 0.7390
1894.878255 0.7380 0.7380 0.7380 0.7380 0.7370
1899.332600 0.7360 0.7350 0.7340 0.7330 0.7300
1903.786945 0.7300 0.7290 0.7280 0.7280 0.7270
1908.241290 0.7270 0.7260 0.7260 0.7250 0.7250
1912.695635 0.7250 0.7250 0.7250 0.7240 0.7240
1917.149980 0.7240 0.7250 0.7250 0.7250 0.7250
1921.604325 0.7250 0.7260 0.7260 0.7260 0.7260
1926.058670 0.7250 0.7240 0.7230 0.7230 0.7230
1930.513015 0.7220 0.7220 0.7210 0.7210 0.7210
1934.967360 0.7210 0.7210 0.7220 0.7210 0.7210
1939.421705 0.7210 0.7210 0.7210 0.7210 0.7210
1943.876050 0.7210 0.7210 0.7220 0.7220 0.7230
1948.330395 0.7230 0.7230 0.7230 0.7220 0.7180
1952.784740 0.7110 0.7100 0.7100 0.7100 0.7090
1957.239085 0.7090 0.7080 0.7050 0.7030 0.6990
1961.693430 0.6970 0.6960 0.6960 0.6960 0.6960
1966.147775 0.6960 0.6960 0.6960 0.6950 0.6940
1970.602120 0.6920 0.6890 0.6880 0.6880 0.6880
1975.056465 0.6870 0.6870 0.6870 0.6880 0.6880
1979.510810 0.6880 0.6880 0.6890 0.6890 0.6900
1983.965155 0.6910 0.6910 0.6920 0.6920 0.6920
1988.419500 0.6940 0.6950 0.6960 0.6960 0.6960
1992.873845 0.6960 0.6950 0.6950 0.6950 0.6950
1997.328190 0.6952 0.6955 0.6957 0.6960 0.6960
2001.782535 0.6960 0.6960 0.6960 0.6965 0.6970
2006.236880 0.6975 0.6980 0.6983 0.6985 0.6988
2010.691225 0.6990 0.6990 0.6990 0.6990 0.6990
2015.145570 0.6993 0.6995 0.6998 0.7000 0.7000
2019.599915 0.7000 0.7000 0.7000 0.7000 0.7000
2024.054260 0.7000 0.7001 0.7009 0.7017 0.7024
2028.508605 0.7031 0.7036 0.7041 0.7046 0.7052
2032.962950 0.7059 0.7067 0.7075 0.7081 0.7083
2037.417295 0.7086 0.7088 0.7090 0.7090 0.7090
2041.871640 0.7090 0.7092 0.7100 0.7108 0.7115
2046.325985 0.7122 0.7127 0.7132 0.7137 0.7145
2050.780330 0.7157 0.7170 0.7182 0.7191 0.7194
2055.234675 0.7196 0.7199 0.7201 0.7204 0.7206
2059.689020 0.7209 0.7212 0.7217 0.7222 0.7228
2064.143365 0.7234 0.7241 0.7249 0.7257 0.7261
2068.597710 0.7264 0.7266 0.7269 0.7271 0.7274
2073.052055 0.7276 0.7279 0.7281 0.7284 0.7287
2077.506400 0.7289 0.7292 0.7294 0.7297 0.7299
2081.960745 0.7300 0.7300 0.7300 0.7300 0.7300
2086.415090 0.7300 0.7300 0.7300 0.7300 0.7300
2090.869435 0.7300 0.7300 0.7298 0.7296 0.7293
2095.323780 0.7291 0.7290 0.7290 0.7290 0.7290
2099.778125 0.7286 0.7281 0.7276 0.7271 0.7270
2104.232470 0.7270 0.7270 0.7270 0.7268 0.7265
2108.686815 0.7263 0.7260 0.7253 0.7246 0.7238
2113.141160 0.7231 0.7230 0.7230 0.7230 0.7230
2117.595505 0.7225 0.7220 0.7215 0.7210 0.7210
2122.049850 0.7210 0.7210 0.7210 0.7208 0.7205
2126.504195 0.7203 0.7200 0.7197 0.7195 0.7192
2130.958540 0.7190 0.7190 0.7190 0.7190 0.7189
2135.412885 0.7182 0.7174 0.7167 0.7160 0.7157
2139.867230 0.7155 0.7152 0.7150 0.7147 0.7145
2144.321575 0.7142 0.7138 0.7128 0.7118 0.7108
2148.775920 0.7100 0.7100 0.7100 0.7100 0.7099
2153.230265 0.7097 0.7094 0.7092 0.7089 0.7087
2157.684610 0.7084 0.7082 0.7077 0.7064 0.7051
2162.138955 0.7039 0.7028 0.7020 0.7013 0.7005
2166.593300 0.7000 0.7000 0.7000 0.7000 0.6999
2171.047645 0.6997 0.6994 0.6991 0.6989 0.6986
2175.501990 0.6984 0.6981 0.6975 0.6962 0.6949
2179.956335 0.6937 0.6925 0.6915 0.6905 0.6895
2184.410680 0.6888 0.6883 0.6877 0.6872 0.6848
2188.865025 0.6805 0.6763 0.6720 0.6693 0.6681
2193.319370 0.6668 0.6656 0.6646 0.6638 0.6631
2197.773715 0.6623 0.6619 0.6616 0.6614 0.6611
2202.228060 0.6607 0.6602 0.6597 0.6592 0.6587
2206.682405 0.6582 0.6577 0.6572 0.6566 0.6561
2211.136750 0.6556 0.6551 0.6550 0.6550 0.6550
2215.591095 0.6550 0.6542 0.6532 0.6522 0.6512
2220.045440 0.6500 0.6488 0.6475 0.6463 0.6444
2224.499785 0.6424 0.6404 0.6384 0.6363 0.6343
2228.954130 0.6323 0.6303 0.6296 0.6291 0.6286
2233.408475 0.6281 0.6280 0.6280 0.6280 0.6280
2237.862820 0.6280 0.6280 0.6280 0.6280 0.6280
2242.317165 0.6280 0.6280 0.6280 0.6278 0.6275
2246.771510 0.6272 0.6270 0.6267 0.6265 0.6262
2251.225855 0.6260 0.6257 0.6255 0.6252 0.6249
2255.680200 0.6237 0.6224 0.6211 0.6198 0.6178
2260.134545 0.6158 0.6138 0.6118 0.6100 0.6083
2264.588890 0.6065 0.6048 0.6036 0.6023 0.6011
2269.043235 0.6000 0.5997 0.5995 0.5992 0.5990
2273.497580 0.5987 0.5984 0.5982 0.5979 0.5974
2277.951925 0.5969 0.5964 0.5959 0.5954 0.5949
2282.406270 0.5944 0.5938 0.5930 0.5923 0.5915
2286.860615 0.5908 0.5903 0.5898 0.5893 0.5882
2291.314960 0.5859 0.5837 0.5814 0.5791 0.5769
2295.769305 0.5746 0.5724 0.5707 0.5699 0.5692
2300.223650 0.5684 0.5673 0.5655 0.5637 0.5620
2304.677995 0.5604 0.5592 0.5579 0.5567 0.5553
2309.132340 0.5538 0.5522 0.5507 0.5492 0.5477
2313.586685 0.5462 0.5447 0.5433 0.5420 0.5408
2318.041030 0.5395 0.5378 0.5358 0.5338 0.5318
2322.495375 0.5301 0.5286 0.5271 0.5255 0.5239
2326.949720 0.5221 0.5204 0.5186 0.5165 0.5142
2331.404065 0.5120 0.5097 0.5081 0.5069 0.5056
2335.858410 0.5044 0.5033 0.5023 0.5013 0.5003
2340.312755 0.4981 0.4956 0.4931 0.4906 0.4894
2344.767100 0.4887 0.4879 0.4871 0.4857 0.4842
2349.221445 0.4827 0.4812 0.4804 0.4796 0.4788
2353.675790 0.4781 0.4771 0.4761 0.4751 0.4741
2358.130135 0.4733 0.4726 0.4718 0.4711 0.4705
2362.584480 0.4700 0.4695 0.4690 0.4690 0.4690
2367.038825 0.4690 0.4690 0.4688 0.4685 0.4683
2371.493170 0.4680 0.4680 0.4680 0.4680 0.4680
2375.947515 0.4677 0.4675 0.4672 0.4670 0.4667
2380.401860 0.4665 0.4662 0.4658 0.4646 0.4633
2384.856205 0.4621 0.4610 0.4607 0.4605 0.4602
2389.310550 0.4599 0.4594 0.4589 0.4584 0.4578
2393.764895 0.4568 0.4558 0.4548 0.4538 0.4528
2398.219240 0.4518 0.4508 0.4500 0.4500 0.4500
2402.673585 0.4500 0.4499 0.4494 0.4489 0.4484
2407.127930 0.4475 0.4457 0.4440 0.4422 0.4403
2411.582275 0.4380 0.4358 0.4335 0.4307 0.4269
2416.036620 0.4231 0.4193 0.4158 0.4127 0.4097
2420.490965 0.4067 0.4034 0.3996 0.3958 0.3920
2424.945310 0.3869 0.3801 0.3733 0.3665 0.3606
2429.399655 0.3555 0.3505 0.3455 0.3402 0.3347
2433.854000 0.3291 0.3236 0.3195 0.3168 0.3140
2438.308345 0.3112 0.3073 0.3026 0.2978 0.2930
2442.762690 0.2894 0.2866 0.2839 0.2811 0.2785
2447.217035 0.2760 0.2735 0.2709 0.2686 0.2663
2451.671380 0.2640 0.2617 0.2596 0.2576 0.2556
2456.125725 0.2536 0.2523 0.2513 0.2503 0.2493
2460.580070 0.2473 0.2450 0.2428 0.2405 0.2396
2465.034415 0.2391 0.2386 0.2381 0.2372 0.2362
2469.488760 0.2352 0.2342 0.2334 0.2326 0.2319
2473.943105 0.2311 0.2306 0.2301 0.2296 0.2291
2478.397450 0.2277 0.2262 0.2247 0.2232 0.2212
2482.851795 0.2192 0.2172 0.2152 0.2141 0.2130
2487.306140 0.2120 0.2110 0.2083 0.2055 0.2027
2491.760485 0.2000 0.1980 0.1960 0.1939 0.1919
2496.214830 0.1902 0.1884 0.1867 0.1850 0.1842
2500.669175 0.1834 0.1827 0.1818 0.1793 0.1768
2505.123520 0.1742 0.1718 0.1703 0.1688 0.1673
2509.577865 0.1656 0.1623 0.1590 0.1558 0.1528
2514.032210 0.1515 0.1503 0.1490 0.1479 0.1474
2518.486555 0.1469 0.1464 0.1460 0.1460 0.1460
2522.940900 0.1460 0.1459 0.1457 0.1454 0.1452
2527.395245 0.1450 0.1450 0.1450 0.1450 0.1449
2531.849590 0.1447 0.1444 0.1442 0.1440 0.1440
2536.303935 0.1440 0.1440 0.1439 0.1437 0.1434
2540.758280 0.1432 0.1430 0.1430 0.1430 0.1430
2545.212625 0.1430 0.1430 0.1430 0.1430 0.1432
2549.666970 0.1437 0.1442 0.1447 0.1452 0.1457
2554.121315 0.1462 0.1467 0.1473 0.1478 0.1483
2558.575660 0.1488 0.1490 0.1490 0.1490 0.1490
2563.030005 0.1490 0.1490 0.1490 0.1490 0.1484
2567.484350 0.1474 0.1464 0.1454 0.1444 0.1434
2571.938695 0.1423 0.1413 0.1405 0.1397 0.1390
2576.393040 0.1382 0.1371 0.1359 0.1346 0.1334
2580.847385 0.1326 0.1321 0.1316 0.1311 0.1303
2585.301730 0.1293 0.1282 0.1272 0.1266 0.1261
2589.756075 0.1256 0.1251 0.1242 0.1232 0.1222
2594.210420 0.1211 0.1208 0.1205 0.1203 0.1200
2598.664765 0.1200 0.1200 0.1200 0.1200 0.1198
2603.119110 0.1195 0.1193 0.1190 0.1188 0.1185
2607.573455 0.1183 0.1180 0.1178 0.1175 0.1173
2612.027800 0.1170 0.1170 0.1170 0.1170 0.1170
2616.482145 0.1170 0.1170 0.1170 0.1170 0.1170
2620.936490 0.1170 0.1170 0.1170 0.1175 0.1180
2625.390835 0.1185 0.1190 0.1193 0.1195 0.1198
2629.845180 0.1202 0.1214 0.1227 0.1240 0.1251
2634.299525 0.1256 0.1261 0.1266 0.1271 0.1279
2638.753870 0.1287 0.1294 0.1301 0.1306 0.1311
2643.208215 0.1316 0.1325 0.1345 0.1365 0.1385
2647.662560 0.1406 0.1429 0.1451 0.1474 0.1490
2652.116905 0.1490 0.1490 0.1490 0.1491 0.1493
2656.571250 0.1496 0.1498 0.1501 0.1503 0.1506
2661.025595 0.1508 0.1510 0.1510 0.1510 0.1510
2665.479940 0.1510 0.1510 0.1510 0.1510 0.1510
2669.934285 0.1510 0.1510 0.1510 0.1510 0.1510
2674.388630 0.1510 0.1510 0.1510 0.1510 0.1510
2678.842975 0.1510 0.1521 0.1541 0.1561 0.1581
2683.297320 0.1594 0.1602 0.1609 0.1617 0.1629
2687.751665 0.1644 0.1659 0.1674 0.1683 0.1688
2692.206010 0.1693 0.1698 0.1703 0.1708 0.1713
2696.660355 0.1718 0.1727 0.1737 0.1747 0.1757
2701.114700 0.1765 0.1773 0.1781 0.1788 0.1801
2705.569045 0.1816 0.1831 0.1847 0.1860 0.1872
2710.023390 0.1885 0.1897 0.1900 0.1900 0.1900
2714.477735 0.1900 0.1910 0.1923 0.1935 0.1948
2718.932080 0.1954 0.1959 0.1964 0.1969 0.1972
2723.386425 0.1975 0.1977 0.1980 0.1982 0.1985
2727.840770 0.1987 0.1990 0.1992 0.1995 0.1997
2732.295115 0.2000 0.2002 0.2005 0.2007 0.2010
2736.749460 0.2020 0.2030 0.2040 0.2050 0.2063
2741.203805 0.2076 0.2088 0.2101 0.2124 0.2147
2745.658150 0.2169 0.2191 0.2201 0.2211 0.2221
2750.112495 0.2232 0.2252 0.2272 0.2293 0.2311
2754.566840 0.2316 0.2321 0.2326 0.2331 0.2336
2759.021185 0.2341 0.2346 0.2350 0.2353 0.2355
2763.475530 0.2358 0.2359 0.2354 0.2349 0.2344
2767.929875 0.2340 0.2340 0.2340 0.2340 0.2338
2772.384220 0.2333 0.2328 0.2323 0.2319 0.2317
2776.838565 0.2314 0.2312 0.2308 0.2303 0.2298
2781.292910 0.2293 0.2283 0.2266 0.2248 0.2231
2785.747255 0.2217 0.2209 0.2202 0.2194 0.2189
2790.201600 0.2186 0.2184 0.2181 0.2179 0.2176
2794.655945 0.2174 0.2171 0.2168 0.2163 0.2158
2799.110290 0.2153 0.2146 0.2139 0.2131 0.2124
2803.564635 0.2115 0.2105 0.2094 0.2084 0.2076
2808.018980 0.2068 0.2060 0.2053 0.2050 0.2050
2812.473325 0.2050 0.2050 0.2047 0.2042 0.2037
2816.927670 0.2032 0.2025 0.2017 0.2010 0.2002
2821.382015 0.2000 0.2000 0.2000 0.2000 0.1995
2825.836360 0.1987 0.1980 0.1972 0.1964 0.1957
2830.290705 0.1949 0.1942 0.1930 0.1918 0.1905
2834.745050 0.1893 0.1882 0.1872 0.1862 0.1852
2839.199395 0.1838 0.1822 0.1807 0.1792 0.1788
2843.653740 0.1785 0.1783 0.1780 0.1766 0.1751
2848.108085 0.1736 0.1721 0.1715 0.1710 0.1705
2852.562430 0.1700 0.1683 0.1666 0.1648 0.1630
2857.016775 0.1618 0.1605 0.1593 0.1580 0.1572
2861.471120 0.1565 0.1557 0.1550 0.1540 0.1530
2865.925465 0.1520 0.1510 0.1510 0.1510 0.1510
2870.379810 0.1510 0.1507 0.1505 0.1502 0.1500
2874.834155 0.1497 0.1495 0.1492 0.1489 0.1481
2879.288500 0.1474 0.1466 0.1459 0.1454 0.1449
2883.742845 0.1444 0.1438 0.1428 0.1418 0.1408
2888.197190 0.1397 0.1384 0.1372 0.1359 0.1347
2892.651535 0.1334 0.1322 0.1309 0.1296 0.1284
2897.105880 0.1271 0.1259 0.1248 0.1243 0.1238
2901.560225 0.1233 0.1229 0.1227 0.1224 0.1222
2906.014570 0.1220 0.1220 0.1220 0.1220 0.1220
2910.468915 0.1220 0.1220 0.1220 0.1221 0.1224
2914.923260 0.1226 0.1229 0.1234 0.1241 0.1249
2919.377605 0.1256 0.1263 0.1268 0.1273 0.1278
2923.831950 0.1281 0.1284 0.1286 0.1289 0.1294
2928.286295 0.1302 0.1309 0.1317 0.1323 0.1328
2932.740640 0.1333 0.1338 0.1348 0.1360 0.1373
2937.194985 0.1385 0.1392 0.1394 0.1397 0.1399
2941.649330 0.1405 0.1412 0.1420 0.1428 0.1442
2946.103675 0.1460 0.1478 0.1495 0.1509 0.1522
2950.558020 0.1535 0.1547 0.1558 0.1568 0.1578
2955.012365 0.1588 0.1594 0.1599 0.1604 0.1609
2959.466710 0.1616 0.1624 0.1631 0.1639 0.1655
2963.921055 0.1672 0.1690 0.1708 0.1721 0.1733
2968.375400 0.1746 0.1759 0.1764 0.1770 0.1775
2972.829745 0.1780 0.1787 0.1794 0.1802 0.1810
2977.284090 0.1829 0.1849 0.1869 0.1889 0.1897
2981.738435 0.1905 0.1913 0.1920 0.1933 0.1946
2986.192780 0.1958 0.1970 0.1975 0.1980 0.1985
2990.647125 0.1992 0.2014 0.2037 0.2060 0.2081
2995.101470 0.2091 0.2101 0.2111 0.2124 0.2154
2999.555815 0.2184 0.2214 0.2244 0.2272 0.2300
3004.010160 0.2327 0.2353 0.2371 0.2388 0.2406
3008.464505 0.2422 0.2432 0.2442 0.2452 0.2463
3012.918850 0.2475 0.2488 0.2501 0.2513 0.2526
3017.373195 0.2539 0.2551 0.2564 0.2577 0.2589
3021.827540 0.2602 0.2613 0.2624 0.2634 0.2644
3026.281885 0.2654 0.2664 0.2674 0.2684 0.2693
3030.736230 0.2701 0.2708 0.2716 0.2727 0.2745
3035.190575 0.2763 0.2780 0.2792 0.2797 0.2802
3039.644920 0.2807 0.2815 0.2825 0.2835 0.2845
3044.099265 0.2856 0.2869 0.2881 0.2894 0.2913
3048.553610 0.2938 0.2963 0.2988 0.3012 0.3035
3053.007955 0.3058 0.3081 0.3104 0.3126 0.3149
3057.462300 0.3172 0.3183 0.3188 0.3193 0.3198
3061.916645 0.3215 0.3238 0.3260 0.3283 0.3295
3066.370990 0.3303 0.3310 0.3318 0.3336 0.3359
3070.825335 0.3381 0.3404 0.3417 0.3427 0.3437
3075.279680 0.3448 0.3456 0.3463 0.3471 0.3478
3079.734025 0.3484 0.3489 0.3494 0.3499 0.3502
3084.188370 0.3505 0.3507 0.3510 0.3512 0.3515
3088.642715 0.3517 0.3520 0.3522 0.3525 0.3527
3093.097060 0.3530 0.3532 0.3535 0.3537 0.3540
3097.551405 0.3547 0.3555 0.3562 0.3570 0.3577
3102.005750 0.3585 0.3592 0.3600 0.3608 0.3615
3106.460095 0.3623 0.3630 0.3648 0.3666 0.3683
3110.914440 0.3701 0.3721 0.3741 0.3761 0.3782
3115.368785 0.3810 0.3837 0.3865 0.3893 0.3923
3119.823130 0.3953 0.3983 0.4014 0.4053 0.4091
3124.277475 0.4129 0.4166 0.4199 0.4232 0.4264
3128.731820 0.4293 0.4305 0.4318 0.4330 0.4344
3133.186165 0.4362 0.4379 0.4397 0.4415 0.4435
3137.640510 0.4456 0.4476 0.4492 0.4500 0.4507
3142.094855 0.4515 0.4530 0.4563 0.4596 0.4628
3146.549200 0.4654 0.4667 0.4679 0.4692 0.4708
3151.003545 0.4731 0.4753 0.4776 0.4793 0.4800
3155.457890 0.4808 0.4816 0.4830 0.4856 0.4881
3159.912235 0.4907 0.4930 0.4950 0.4970 0.4990
3164.366580 0.5006 0.5019 0.5031 0.5044 0.5058
3168.820925 0.5073 0.5088 0.5103 0.5121 0.5141
3173.275270 0.5161 0.5181 0.5194 0.5202 0.5209
3177.729615 0.5217 0.5232 0.5252 0.5272 0.5292
3182.183960 0.5303 0.5308 0.5313 0.5318 0.5328
3186.638305 0.5341 0.5353 0.5366 0.5372 0.5374
3191.092650 0.5377 0.5379 0.5385 0.5393 0.5401
3195.546995 0.5408 0.5418 0.5428 0.5438 0.5448
3200.001340 0.5464 0.5482 0.5499 0.5517 0.5522
3204.455685 0.5525 0.5527 0.5530 0.5543 0.5558
3208.910030 0.5573 0.5588 0.5592 0.5595 0.5597
3213.364375 0.5600 0.5609 0.5619 0.5629 0.5639
3217.818720 0.5649 0.5659 0.5669 0.5679 0.5689
3222.273065 0.5699 0.5710 0.5720 0.5737 0.5755
3226.727410 0.5772 0.5790 0.5793 0.5795 0.5798
3231.181755 0.5801 0.5827 0.5852 0.5877 0.5902
3235.636100 0.5924 0.5947 0.5970 0.5990 0.5993
3240.090445 0.5995 0.5998 0.6001 0.6006 0.6011
3244.544790 0.6016 0.6023 0.6040 0.6058 0.6076
3248.999135 0.6091 0.6096 0.6101 0.6106 0.6114
3253.453480 0.6134 0.6154 0.6174 0.6192 0.6199
3257.907825 0.6207 0.6214 0.6222 0.6229 0.6237
3262.362170 0.6245 0.6252 0.6260 0.6267 0.6275
3266.816515 0.6282 0.6287 0.6292 0.6297 0.6309
3271.270860 0.6334 0.6360 0.6385 0.6404 0.6414
3275.725205 0.6424 0.6434 0.6446 0.6461 0.6476
3280.179550 0.6492 0.6504 0.6515 0.6525 0.6535
3284.633895 0.6541 0.6544 0.6546 0.6549 0.6552
3289.088240 0.6557 0.6563 0.6568 0.6573 0.6578
3293.542585 0.6583 0.6588 0.6594 0.6602 0.6609
3297.996930 0.6617 0.6623 0.6628 0.6633 0.6638
3302.451275 0.6642 0.6644 0.6647 0.6649 0.6652
3306.905620 0.6654 0.6657 0.6659 0.6660 0.6660
3311.359965 0.6660 0.6660 0.6662 0.6664 0.6667
3315.814310 0.6669 0.6674 0.6679 0.6684 0.6689
3320.268655 0.6692 0.6694 0.6697 0.6699 0.6702
3324.723000 0.6704 0.6707 0.6710 0.6716 0.6724
3329.177345 0.6731 0.6739 0.6748 0.6758 0.6768
3333.631690 0.6779 0.6780 0.6780 0.6780 0.6780
3338.086035 0.6782 0.6785 0.6787 0.6790 0.6790
3342.540380 0.6790 0.6790 0.6790 0.6792 0.6795
3346.994725 0.6797 0.6800 0.6800 0.6800 0.6800
3351.449070 0.6800 0.6803 0.6805 0.6808 0.6810
3355.903415 0.6810 0.6810 0.6810 0.6810 0.6810
3360.357760 0.6810 0.6810 0.6810 0.6813 0.6815
3364.812105 0.6818 0.6820 0.6823 0.6825 0.6828
3369.266450 0.6830 0.6830 0.6830 0.6830 0.6830
3373.720795 0.6830 0.6830 0.6830 0.6830 0.6830
3378.175140 0.6830 0.6830 0.6831 0.6833 0.6836
3382.629485 0.6838 0.6841 0.6843 0.6846 0.6848
3387.083830 0.6850 0.6850 0.6850 0.6850 0.6851
3391.538175 0.6853 0.6856 0.6858 0.6860 0.6860
3395.992520 0.6860 0.6860 0.6860 0.6860 0.6860
3400.446865 0.6860 0.6859 0.6856 0.6854 0.6851
3404.901210 0.6850 0.6850 0.6850 0.6850 0.6850
3409.355555 0.6850 0.6850 0.6850 0.6845 0.6835
3413.809900 0.6825 0.6815 0.6809 0.6806 0.6804
3418.264245 0.6801 0.6797 0.6792 0.6787 0.6782
3422.718590 0.6775 0.6768 0.6760 0.6753 0.6748
3427.172935 0.6746 0.6743 0.6741 0.6740 0.6740
3431.627280 0.6740 0.6740 0.6735 0.6727 0.6720
3436.081625 0.6712 0.6708 0.6706 0.6703 0.6701
3440.535970 0.6698 0.6696 0.6693 0.6691 0.6686
3444.990315 0.6681 0.6676 0.6671 0.6670 0.6670
3449.444660 0.6670 0.6670 0.6668 0.6665 0.6663
3453.899005 0.6660 0.6660 0.6660 0.6660 0.6660
3458.353350 0.6660 0.6660 0.6660 0.6660 0.6660
3462.807695 0.6660 0.6660 0.6660 0.6660 0.6660
3467.262040 0.6660 0.6660 0.6660 0.6660 0.6660
3471.716385 0.6660 0.6662 0.6665 0.6668 0.6670
3476.170730 0.6670 0.6670 0.6670 0.6670 0.6673
3480.625075 0.6675 0.6678 0.6681 0.6686 0.6691
3485.079420 0.6696 0.6700 0.6700 0.6700 0.6700
3489.533765 0.6700 0.6703 0.6705 0.6708 0.6711
3493.988110 0.6716 0.6721 0.6726 0.6730 0.6733
3498.442455 0.6736 0.6738 0.6741 0.6746 0.6751
3502.896800 0.6756 0.6761 0.6766 0.6771 0.6776
3507.351145 0.6780 0.6780 0.6780 0.6780 0.6780
3511.805490 0.6780 0.6780 0.6780 0.6782 0.6787
3516.259835 0.6792 0.6797 0.6801 0.6804 0.6806
3520.714180 0.6809 0.6815 0.6828 0.6840 0.6853
3525.168525 0.6863 0.6871 0.6878 0.6886 0.6891
3529.622870 0.6894 0.6896 0.6899 0.6900 0.6900
3534.077215 0.6900 0.6900 0.6904 0.6911 0.6919
3538.531560 0.6926 0.6933 0.6938 0.6943 0.6948
3542.985905 0.6956 0.6966 0.6976 0.6986 0.6990
3547.440250 0.6990 0.6990 0.6990 0.6992 0.6994
3551.894595 0.6997 0.6999 0.7007 0.7017 0.7027
3556.348940 0.7037 0.7045 0.7053 0.7060 0.7068
3560.803285 0.7072 0.7074 0.7077 0.7079 0.7082
3565.257630 0.7084 0.7087 0.7089 0.7092 0.7094
3569.711975 0.7097 0.7100 0.7116 0.7136 0.7156
3574.166320 0.7176 0.7180 0.7180 0.7180 0.7180
3578.620665 0.7182 0.7185 0.7187 0.7190 0.7190
3583.075010 0.7190 0.7190 0.7190 0.7190 0.7190
3587.529355 0.7190 0.7190 0.7192 0.7195 0.7197
3591.983700 0.7200 0.7203 0.7205 0.7208 0.7210
3596.438045 0.7218 0.7225 0.7233 0.7240 0.7245
3600.892390 0.7250 0.7255 0.7260 0.7265 0.7270
3605.346735 0.7275 0.7280 0.7280 0.7280 0.7280
3609.801080 0.7280 0.7283 0.7285 0.7288 0.7290
3614.255425 0.7293 0.7295 0.7298 0.7302 0.7312
3618.709770 0.7322 0.7332 0.7341 0.7346 0.7351
3623.164115 0.7356 0.7361 0.7366 0.7371 0.7376
3627.618460 0.7381 0.7386 0.7391 0.7397 0.7400
3632.072805 0.7400 0.7400 0.7400 0.7401 0.7403
3636.527150 0.7406 0.7408 0.7410 0.7410 0.7410
3640.981495 0.7410 0.7415 0.7427 0.7440 0.7452
3645.435840 0.7464 0.7474 0.7484 0.7494 0.7505
3649.890185 0.7518 0.7531 0.7543 0.7553 0.7561
3654.344530 0.7569 0.7576 0.7583 0.7588 0.7593
3658.798875 0.7598 0.7601 0.7604 0.7606 0.7609
3663.253220 0.7616 0.7626 0.7636 0.7646 0.7652
3667.707565 0.7654 0.7657 0.7659 0.7663 0.7668
3672.161910 0.7673 0.7678 0.7682 0.7684 0.7687
3676.616255 0.7689 0.7693 0.7698 0.7703 0.7708
3681.070600 0.7715 0.7723 0.7730 0.7738 0.7742
3685.524945 0.7744 0.7747 0.7749 0.7754 0.7759
3689.979290 0.7764 0.7769 0.7772 0.7775 0.7777
3694.433635 0.7780 0.7784 0.7789 0.7794 0.7799
3698.887980 0.7804 0.7809 0.7814 0.7819 0.7824
3703.342325 0.7829 0.7835 0.7840 0.7845 0.7850
3707.796670 0.7855 0.7860 0.7862 0.7865 0.7867
3712.251015 0.7870 0.7875 0.7880 0.7885 0.7890
3716.705360 0.7892 0.7895 0.7898 0.7900 0.7900
3721.159705 0.7900 0.7900 0.7900 0.7903 0.7905
3725.614050 0.7908 0.7910 0.7910 0.7910 0.7910
3730.068395 0.7911 0.7916 0.7921 0.7926 0.7931
3734.522740 0.7936 0.7941 0.7946 0.7950 0.7953
3738.977085 0.7955 0.7958 0.7960 0.7963 0.7966
3743.431430 0.7968 0.7971 0.7976 0.7981 0.7986
3747.885775 0.7990 0.7990 0.7990 0.7990 0.7990
3752.340120 0.7990 0.7990 0.7990 0.7991 0.7993
3756.794465 0.7996 0.7998 0.8002 0.8010 0.8018
3761.248810 0.8025 0.8032 0.8037 0.8042 0.8047
3765.703155 0.8051 0.8054 0.8056 0.8059 0.8060
3770.157500 0.8060 0.8060 0.8060 0.8061 0.8064
3774.611845 0.8066 0.8069 0.8071 0.8074 0.8076
3779.066190 0.8079 0.8081 0.8084 0.8086 0.8089
3783.520535 0.8091 0.8094 0.8096 0.8099 0.8100
3787.974880 0.8100 0.8100 0.8100 0.8101 0.8104
3792.429225 0.8106 0.8109 0.8112 0.8114 0.8117
3796.883570 0.8119 0.8122 0.8124 0.8127 0.8129
3801.337915 0.8130 0.8130 0.8130 0.8130 0.8130
3805.792260 0.8130 0.8130 0.8130 0.8130 0.8130
3810.246605 0.8130 0.8130 0.8130 0.8130 0.8130
3814.700950 0.8130 0.8130 0.8130 0.8130 0.8130
3819.155295 0.8132 0.8135 0.8137 0.8140 0.8140
3823.609640 0.8140 0.8140 0.8140 0.8140 0.8140
3828.063985 0.8140 0.8140 0.8140 0.8140 0.8140
3832.518330 0.8140 0.8142 0.8145 0.8147 0.8150
3836.972675 0.8150 0.8150 0.8150 0.8150 0.8150
3841.427020 0.8150 0.8150 0.8150 0.8150 0.8150
3845.881365 0.8150 0.8150 0.8150 0.8150 0.8150
3850.335710 0.8150 0.8150 0.8150 0.8150 0.8150
3854.790055 0.8150 0.8150 0.8150 0.8150 0.8153
3859.244400 0.8155 0.8158 0.8160 0.8163 0.8165
3863.698745 0.8168 0.8170 0.8173 0.8176 0.8178
3868.153090 0.8180 0.8180 0.8180 0.8180 0.8180
3872.607435 0.8180 0.8180 0.8180 0.8180 0.8180
3877.061780 0.8180 0.8180 0.8180 0.8180 0.8180
3881.516125 0.8180 0.8180 0.8180 0.8180 0.8180
3885.970470 0.8180 0.8180 0.8180 0.8180 0.8180
3890.424815 0.8180 0.8180 0.8180 0.8180 0.8180
3894.879160 0.8180 0.8180 0.8178 0.8173 0.8168
3899.333505 0.8163 0.8160 0.8160 0.8160 0.8160
3903.787850 0.8159 0.8156 0.8154 0.8151 0.8150
3908.242195 0.8150 0.8150 0.8150 0.8149 0.8146
3912.696540 0.8143 0.8141 0.8140 0.8140 0.8140
3917.150885 0.8140 0.8140 0.8140 0.8140 0.8140
3921.605230 0.8140 0.8140 0.8140 0.8140 0.8140
3926.059575 0.8140 0.8140 0.8140 0.8140 0.8140
3930.513920 0.8140 0.8140 0.8140 0.8140 0.8140
3934.968265 0.8140 0.8140 0.8140 0.8140 0.8140
3939.422610 0.8140 0.8140 0.8140 0.8140 0.8140
3943.876955 0.8140 0.8140 0.8140 0.8140 0.8140
3948.331300 0.8140 0.8140 0.8140 0.8140 0.8140
3952.785645 0.8140 0.8140 0.8140 0.8140 0.8140
3957.239990 0.8140 0.8140 0.8140 0.8140 0.8140
3961.694335 0.8140 0.8140 0.8140 0.8137 0.8135
3966.148680 0.8132 0.8130 0.8130 0.8130 0.8130
3970.603025 0.8130 0.8130 0.8130 0.8130 0.8130
3975.057370 0.8130 0.8130 0.8130 0.8130 0.8130
3979.511715 0.8130 0.8130 0.8130 0.8127 0.8125
3983.966060 0.8122 0.8120 0.8117 0.8114 0.8112
3988.420405 0.8109 0.8107 0.8104 0.8102 0.8100
3992.874750 0.8100 0.8100 0.8100 0.8100 0.8100
3997.329095 0.8100 0.8100 0.8100 0.8100 0.8100
4001.783440 0.8100 0.8099 0.8097 0.8094 0.8092
4006.237785 0.8090 0.8090 0.8090 0.8090 0.8090
4010.692130 0.8090 0.8090 0.8090 0.8090 0.8090
4015.146475 0.8090 0.8090 0.8090 0.8090 0.8090
4019.600820 0.8090 0.8090 0.8090 0.8090 0.8090
4024.055165 0.8089 0.8086 0.8084 0.8081 0.8079
4028.509510 0.8076 0.8074 0.8071 0.8069 0.8066
4032.963855 0.8064 0.8061 0.8060 0.8060 0.8060
4037.418200 0.8060 0.8060 0.8060 0.8060 0.8060
4041.872545 0.8060 0.8060 0.8060 0.8060 0.8060
4046.326890 0.8060 0.8060 0.8060 0.8060 0.8060
4050.781235 0.8060 0.8060 0.8058 0.8056 0.8053
4055.235580 0.8051 0.8046 0.8041 0.8036 0.8031
4059.689925 0.8028 0.8025 0.8023 0.8020 0.8018
4064.144270 0.8015 0.8013 0.8010 0.8006 0.8001
4068.598615 0.7996 0.7991 0.7990 0.7990 0.7990
4073.052960 0.7990 0.7990 0.7990 0.7990 0.7990
4077.507305 0.7990 0.7990 0.7990 0.7990 0.7990
4081.961650 0.7990 0.7990 0.7990 0.7990 0.7990
4086.415995 0.7990 0.7990 0.7990 0.7990 0.7990
4090.870340 0.7990 0.7990 0.7990 0.7990 0.7990
4095.324685 0.7990 0.7990 0.7990 0.7990 0.7990
4099.779030 0.7990 0.7990 0.7989 0.7984 0.7979
4104.233375 0.7974 0.7970 0.7970 0.7970 0.7970
4108.687720 0.7969 0.7961 0.7954 0.7946 0.7939
4113.142065 0.7934 0.7929 0.7924 0.7920 0.7920
4117.596410 0.7920 0.7920 0.7920 0.7920 0.7920
4122.050755 0.7920 0.7920 0.7920 0.7920 0.7920
4126.505100 0.7920 0.7920 0.7920 0.7920 0.7921
4130.959445 0.7923 0.7926 0.7928 0.7930 0.7930
4135.413790 0.7930 0.7930 0.7930 0.7930 0.7930
4139.868135 0.7930 0.7931 0.7934 0.7936 0.7939
4144.322480 0.7940 0.7940 0.7940 0.7940 0.7940
4148.776825 0.7940 0.7940 0.7940 0.7940 0.7940
4153.231170 0.7940 0.7940 0.7940 0.7940 0.7940
4157.685515 0.7940 0.7940 0.7940 0.7940 0.7940
4162.139860 0.7940 0.7940 0.7940 0.7940 0.7938
4166.594205 0.7936 0.7933 0.7931 0.7930 0.7930
4171.048550 0.7930 0.7930 0.7928 0.7926 0.7923
4175.502895 0.7921 0.7920 0.7920 0.7920 0.7920
4179.957240 0.7918 0.7916 0.7913 0.7911 0.7908
4184.411585 0.7905 0.7903 0.7900 0.7900 0.7900
4188.865930 0.7900 0.7900 0.7900 0.7900 0.7900
4193.320275 0.7900 0.7900 0.7900 0.7900 0.7900
4197.774620 0.7900 0.7900 0.7900 0.7900 0.7900
4202.228965 0.7900 0.7900 0.7900 0.7900 0.7900
4206.683310 0.7900 0.7900 0.7900 0.7900 0.7900
4211.137655 0.7900 0.7900 0.7900 0.7900 0.7900
4215.592000 0.7900 0.7900 0.7900 0.7900 0.7900
4220.046345 0.7900 0.7900 0.7900 0.7900 0.7900
4224.500690 0.7900 0.7900 0.7900 0.7900 0.7900
4228.955035 0.7900 0.7900 0.7900 0.7900 0.7900
4233.409380 0.7900 0.7900 0.7900 0.7901 0.7903
4237.863725 0.7906 0.7908 0.7910 0.7910 0.7910
4242.318070 0.7910 0.7911 0.7913 0.7916 0.7918
4246.772415 0.7920 0.7920 0.7920 0.7920 0.7920
4251.226760 0.7920 0.7920 0.7920 0.7920 0.7920
4255.681105 0.7920 0.7920 0.7921 0.7924 0.7926
4260.135450 0.7929 0.7930 0.7930 0.7930 0.7930
4264.589795 0.7930 0.7930 0.7930 0.7930 0.7930
4269.044140 0.7930 0.7930 0.7930 0.7929 0.7926
4273.498485 0.7924 0.7921 0.7919 0.7916 0.7914
4277.952830 0.7911 0.7909 0.7906 0.7904 0.7901
4282.407175 0.7900 0.7900 0.7900 0.7900 0.7900
4286.861520 0.7900 0.7900 0.7900 0.7898 0.7896
4291.315865 0.7893 0.7891 0.7886 0.7881 0.7876
4295.770210 0.7871 0.7864 0.7857 0.7849 0.7842
4300.224555 0.7836 0.7831 0.7826 0.7821 0.7816
4304.678900 0.7811 0.7806 0.7801 0.7800 0.7800
4309.133245 0.7800 0.7800 0.7800 0.7800 0.7800
4313.587590 0.7800 0.7800 0.7800 0.7800 0.7800
4318.041935 0.7800 0.7800 0.7800 0.7800 0.7798
4322.496280 0.7795 0.7793 0.7790 0.7790 0.7790
4326.950625 0.7790 0.7790 0.7787 0.7785 0.7782
4331.404970 0.7780 0.7780 0.7780 0.7780 0.7780
4335.859315 0.7780 0.7780 0.7780 0.7780 0.7783
4340.313660 0.7785 0.7788 0.7790 0.7790 0.7790
4344.768005 0.7790 0.7790 0.7790 0.7790 0.7790
4349.222350 0.7790 0.7790 0.7790 0.7790 0.7790
4353.676695 0.7790 0.7790 0.7790 0.7791 0.7793
4358.131040 0.7796 0.7798 0.7800 0.7800 0.7800
4362.585385 0.7800 0.7800 0.7800 0.7800 0.7800
4367.039730 0.7800 0.7800 0.7800 0.7800 0.7800
4371.494075 0.7800 0.7800 0.7800 0.7800 0.7800
4375.948420 0.7800 0.7800 0.7800 0.7800 0.7800
4380.402765 0.7800 0.7800 0.7800 0.7800 0.7800
4384.857110 0.7800 0.7800 0.7800 0.7800 0.7800
4389.311455 0.7800 0.7800 0.7800 0.7800 0.7800
4393.765800 0.7800 0.7800 0.7799 0.7796 0.7794
4398.220145 0.7791 0.7790 0.7790 0.7790 0.7790
4402.674490 0.7788 0.7786 0.7783 0.7781 0.7780
4407.128835 0.7780 0.7780 0.7780 0.7780 0.7780
4411.583180 0.7780 0.7780 0.7782 0.7784 0.7787
4416.037525 0.7789 0.7790 0.7790 0.7790 0.7790
4420.491870 0.7790 0.7790 0.7790 0.7790 0.7790
4424.946215 0.7790 0.7790 0.7790 0.7790 0.7790
4429.400560 0.7790 0.7790 0.7788 0.7785 0.7783
4433.854905 0.7780 0.7780 0.7780 0.7780 0.7780
4438.309250 0.7780 0.7780 0.7780 0.7780 0.7780
4442.763595 0.7780 0.7780 0.7780 0.7780 0.7780
4447.217940 0.7780 0.7780 0.7780 0.7780 0.7780
4451.672285 0.7780 0.7777 0.7775 0.7772 0.7770
4456.126630 0.7770 0.7770 0.7770 0.7770 0.7770
4460.580975 0.7770 0.7770 0.7770 0.7770 0.7770
4465.035320 0.7770 0.7770 0.7767 0.7765 0.7762
4469.489665 0.7760 0.7760 0.7760 0.7760 0.7760
4473.944010 0.7760 0.7760 0.7760 0.7760 0.7760
4478.398355 0.7760 0.7760 0.7760 0.7760 0.7760
4482.852700 0.7760 0.7760 0.7760 0.7760 0.7760
4487.307045 0.7760 0.7760 0.7760 0.7760 0.7759
4491.761390 0.7757 0.7754 0.7752 0.7749 0.7747
4496.215735 0.7744 0.7742 0.7739 0.7737 0.7734
4500.670080 0.7732 0.7729 0.7726 0.7724 0.7721
4505.124425 0.7720 0.7720 0.7720 0.7720 0.7718
4509.578770 0.7713 0.7708 0.7702 0.7700 0.7700
4514.033115 0.7700 0.7700 0.7700 0.7700 0.7700
4518.487460 0.7700 0.7700 0.7700 0.7700 0.7700
4522.941805 0.7700 0.7700 0.7700 0.7700 0.7698
4527.396150 0.7696 0.7693 0.7691 0.7690 0.7690
4531.850495 0.7690 0.7690 0.7690 0.7690 0.7690
4536.304840 0.7690 0.7688 0.7686 0.7683 0.7681
4540.759185 0.7680 0.7680 0.7680 0.7680 0.7680
4545.213530 0.7680 0.7680 0.7680 0.7680 0.7680
4549.667875 0.7680 0.7680 0.7680 0.7680 0.7680
4554.122220 0.7680 0.7680 0.7680 0.7680 0.7680
4558.576565 0.7680 0.7680 0.7680 0.7680 0.7682
4563.030910 0.7685 0.7687 0.7690 0.7690 0.7690
4567.485255 0.7690 0.7690 0.7690 0.7690 0.7690
4571.939600 0.7690 0.7690 0.7690 0.7690 0.7690
4576.393945 0.7690 0.7690 0.7690 0.7690 0.7690
4580.848290 0.7690 0.7690 0.7690 0.7687 0.7685
4585.302635 0.7682 0.7680 0.7680 0.7680 0.7680
4589.756980 0.7680 0.7680 0.7680 0.7680 0.7680
4594.211325 0.7677 0.7675 0.7672 0.7670 0.7670
4598.665670 0.7670 0.7670 0.7670 0.7670 0.7670
4603.120015 0.7670 0.7670 0.7670 0.7670 0.7670
4607.574360 0.7670 0.7670 0.7670 0.7670 0.7670
4612.028705 0.7670 0.7670 0.7670 0.7670 0.7670
4616.483050 0.7670 0.7670 0.7670 0.7670 0.7670
4620.937395 0.7670 0.7668 0.7663 0.7658 0.7653
4625.391740 0.7650 0.7650 0.7650 0.7650 0.7650
4629.846085 0.7650 0.7650 0.7650 0.7650 0.7650
4634.300430 0.7650 0.7650 0.7649 0.7646 0.7644
4638.754775 0.7641 0.7640 0.7640 0.7640 0.7640
4643.209120 0.7640 0.7640 0.7640 0.7640 0.7640
4647.663465 0.7640 0.7640 0.7640 0.7638 0.7636
4652.117810 0.7633 0.7631 0.7628 0.7626 0.7623
4656.572155 0.7621 0.7617 0.7612 0.7606 0.7601
4661.026500 0.7596 0.7591 0.7586 0.7581 0.7578
4665.480845 0.7576 0.7573 0.7571 0.7570 0.7570
4669.935190 0.7570 0.7570 0.7570 0.7570 0.7570
4674.389535 0.7570 0.7570 0.7570 0.7570 0.7570
4678.843880 0.7570 0.7570 0.7570 0.7570 0.7570
4683.298225 0.7570 0.7570 0.7570 0.7572 0.7575
4687.752570 0.7577 0.7580 0.7582 0.7585 0.7587
4692.206915 0.7590 0.7592 0.7595 0.7597 0.7600
4696.661260 0.7600 0.7600 0.7600 0.7600 0.7600
4701.115605 0.7600 0.7600 0.7600 0.7600 0.7600
4705.569950 0.7600 0.7600 0.7600 0.7600 0.7600
4710.024295 0.7600 0.7600 0.7600 0.7600 0.7600
4714.478640 0.7600 0.7600 0.7600 0.7600 0.7600
4718.932985 0.7600 0.7600 0.7600 0.7600 0.7600
4723.387330 0.7600 0.7599 0.7597 0.7594 0.7592
4727.841675 0.7589 0.7587 0.7584 0.7582 0.7580
4732.296020 0.7580 0.7580 0.7580 0.7580 0.7580
4736.750365 0.7580 0.7580 0.7580 0.7580 0.7580
4741.204710 0.7580 0.7580 0.7580 0.7580 0.7580
4745.659055 0.7580 0.7580 0.7580 0.7580 0.7581
4750.113400 0.7584 0.7586 0.7589 0.7590 0.7590
4754.567745 0.7590 0.7590 0.7590 0.7590 0.7590
4759.022090 0.7590 0.7590 0.7590 0.7590 0.7590
4763.476435 0.7589 0.7586 0.7584 0.7581 0.7581
4767.930780 0.7584 0.7586 0.7589 0.7592 0.7594
4772.385125 0.7597 0.7599 0.7600 0.7600 0.7600
4776.839470 0.7600 0.7600 0.7600 0.7600 0.7600
4781.293815 0.7602 0.7604 0.7607 0.7609 0.7608
4785.748160 0.7606 0.7603 0.7601 0.7600 0.7600
4790.202505 0.7600 0.7600 0.7594 0.7586 0.7579
4794.656850 0.7571 0.7568 0.7565 0.7563 0.7560
4799.111195 0.7558 0.7555 0.7553 0.7550 0.7550
4803.565540 0.7550 0.7550 0.7550 0.7550 0.7550
4808.019885 0.7550 0.7550 0.7550 0.7550 0.7550
4812.474230 0.7550 0.7550 0.7550 0.7550 0.7550
4816.928575 0.7548 0.7545 0.7543 0.7540 0.7537
4821.382920 0.7535 0.7532 0.7530 0.7530 0.7530
4825.837265 0.7530 0.7530 0.7530 0.7530 0.7530
4830.291610 0.7530 0.7530 0.7530 0.7530 0.7530
4834.745955 0.7533 0.7535 0.7538 0.7540 0.7543
4839.200300 0.7545 0.7548 0.7550 0.7550 0.7550
4843.654645 0.7550 0.7551 0.7556 0.7561 0.7566
4848.108990 0.7570 0.7570 0.7570 0.7570 0.7570
4852.563335 0.7570 0.7570 0.7570 0.7571 0.7573
4857.017680 0.7576 0.7578 0.7580 0.7580 0.7580
4861.472025 0.7580 0.7580 0.7580 0.7580 0.7580
4865.926370 0.7580 0.7580 0.7580 0.7580 0.7580
4870.380715 0.7580 0.7580 0.7580 0.7580 0.7580
4874.835060 0.7580 0.7580 0.7581 0.7584 0.7586
4879.289405 0.7589 0.7589 0.7586 0.7584 0.7581
4883.743750 0.7580 0.7580 0.7580 0.7580 0.7580
4888.198095 0.7580 0.7580 0.7580 0.7580 0.7580
4892.652440 0.7580 0.7580 0.7578 0.7576 0.7573
4897.106785 0.7571 0.7570 0.7570 0.7570 0.7570
4901.561130 0.7563 0.7553 0.7543 0.7533 0.7528
4906.015475 0.7526 0.7523 0.7521 0.7518 0.7516
4910.469820 0.7513 0.7511 0.7508 0.7506 0.7503
4914.924165 0.7501 0.7500 0.7500 0.7500 0.7500
4919.378510 0.7500 0.7500 0.7500 0.7500 0.7500
4923.832855 0.7500 0.7500 0.7500 0.7500 0.7500
4928.287200 0.7500 0.7500 0.7500 0.7500 0.7500
4932.741545 0.7500 0.7500 0.7500 0.7500 0.7500
4937.195890 0.7498 0.7495 0.7493 0.7490 0.7490
4941.650235 0.7490 0.7490 0.7490 0.7490 0.7490
4946.104580 0.7490 0.7490 0.7490 0.7490 0.7490
4950.558925 0.7490 0.7493 0.7495 0.7498 0.7500
4955.013270 0.7500 0.7500 0.7500 0.7500 0.7500
4959.467615 0.7500 0.7500 0.7500 0.7503 0.7505
4963.921960 0.7508 0.7510 0.7510 0.7510 0.7510
4968.376305 0.7509 0.7507 0.7504 0.7502 0.7500
4972.830650 0.7500 0.7500 0.7500 0.7500 0.7500
4977.284995 0.7500 0.7500
##END=
