##TITLE=2-PROPENAMIDE,2,3-DIPHENYL,N-DIMETHYLAMINOETHYL-,HYDROCHLORIDE
##JCAMP-DX=4.24
##DATA TYPE=INFRARED SPECTRUM
##CLASS=COBLENTZ III
##ORIGIN=SMITH KLINE & FRENCH LABS.
##OWNER=Copyright (C) 1987 by the Coblentz Society
Collection (C) 2018 copyright by the U.S. Secretary of Commerce
on behalf of the United States of America. All rights reserved.
##DATE=1963/01/02
##NAMES=(2E)-N-[2-(dimethylamino)ethyl]-2,3-diphenyl-2-propenamide hydrochloride
Acrylamide, N-(2-(dimethylamino)-ethyl)-2,3-diphenyl-, hydrochloride
##MOLFORM=C19 H23 Cl N2 O
##SOURCE REFERENCE=COBLENTZ NO. 9113
##$NIST ID=B6009113
##$NIST SOURCE=COBLENTZ
##$NIST IMAGE=cob9113
##SPECTROMETER/DATA SYSTEM=PERKIN-ELMER 21 (GRATING)
##INSTRUMENT PARAMETERS=NaCl PRISM
##STATE=SOLID (KBr DISC)
##SAMPLING PROCEDURE=TRANSMISSION
##RESOLUTION=2
##DATA PROCESSING=DIGITIZED BY COBLENTZ SOCIETY (BATCH II) FROM HARD COPY
##XUNITS=1/CM
##YUNITS=TRANSMITTANCE
##XFACTOR=1.0
##YFACTOR=1
##FIRSTX=670
##LASTX=4000
##FIRSTY=0.5713
##MAXX=4000
##MINX=670
##MAXY=0.8352
##MINY=0.0593
##NPOINTS=3331
##XYDATA=(X++(Y..Y))
670.000000 0.5713 0.5727 0.5698 0.5657 0.5607
675.000000 0.5497 0.5501 0.5459 0.5174 0.4826
680.000000 0.4289 0.3746 0.3306 0.2874 0.1587
685.000000 0.1372 0.1339 0.2410 0.3111 0.3810
690.000000 0.4497 0.4651 0.4719 0.4633 0.4644
695.000000 0.4776 0.4989 0.5127 0.5210 0.5257
700.000000 0.5276 0.5259 0.4957 0.4798 0.4532
705.000000 0.4051 0.3571 0.3093 0.2616 0.2294
710.000000 0.1458 0.1136 0.1057 0.1042 0.1212
715.000000 0.2105 0.2337 0.3671 0.5004 0.5791
720.000000 0.6574 0.6935 0.7236 0.7452 0.7629
725.000000 0.7731 0.7799 0.7852 0.7891 0.7934
730.000000 0.7908 0.7816 0.7792 0.7768 0.7693
735.000000 0.7460 0.7243 0.7053 0.6601 0.6261
740.000000 0.5797 0.5334 0.4872 0.4697 0.4903
745.000000 0.5745 0.6332 0.6778 0.6890 0.6925
750.000000 0.6658 0.6379 0.5855 0.5312 0.4796
755.000000 0.4768 0.5212 0.5742 0.6271 0.6516
760.000000 0.6474 0.6357 0.6152 0.5742 0.5256
765.000000 0.4300 0.3342 0.3258 0.4098 0.5057
770.000000 0.5237 0.5252 0.4769 0.3998 0.3228
775.000000 0.2482 0.2306 0.2261 0.2490 0.3594
780.000000 0.4702 0.5922 0.6737 0.7066 0.7159
785.000000 0.7154 0.7069 0.6934 0.6827 0.6804
790.000000 0.7415 0.7783 0.7893 0.7955 0.8030
795.000000 0.8061 0.8086 0.8105 0.8092 0.8179
800.000000 0.8272 0.8251 0.8208 0.8184 0.8202
805.000000 0.8240 0.8266 0.8285 0.8294 0.8302
810.000000 0.8316 0.8321 0.8344 0.8352 0.8336
815.000000 0.8321 0.8307 0.8293 0.8282 0.8276
820.000000 0.8270 0.8263 0.8250 0.8238 0.8205
825.000000 0.8163 0.8120 0.8075 0.8026 0.7972
830.000000 0.7911 0.7844 0.7774 0.7684 0.7570
835.000000 0.7449 0.7437 0.7560 0.7617 0.7713
840.000000 0.7817 0.7887 0.7932 0.7919 0.7898
845.000000 0.7875 0.7858 0.7858 0.7882 0.7906
850.000000 0.7929 0.7959 0.7973 0.7986 0.7915
855.000000 0.7901 0.7918 0.7945 0.7970 0.7957
860.000000 0.7942 0.7929 0.7923 0.7916 0.7918
865.000000 0.7922 0.7933 0.7928 0.7899 0.7863
870.000000 0.7826 0.7789 0.7762 0.7799 0.7811
875.000000 0.7798 0.7748 0.7660 0.7643 0.7645
880.000000 0.7641 0.7609 0.7519 0.7383 0.7261
885.000000 0.7198 0.7115 0.6801 0.6413 0.6225
890.000000 0.6187 0.6378 0.6813 0.7151 0.7380
895.000000 0.7468 0.7524 0.7554 0.7539 0.7513
900.000000 0.7463 0.7406 0.7289 0.7168 0.7092
905.000000 0.7017 0.6852 0.6605 0.6400 0.6319
910.000000 0.6299 0.6532 0.6837 0.7141 0.7246
915.000000 0.7272 0.7286 0.7285 0.7275 0.7252
920.000000 0.7228 0.7219 0.7214 0.7209 0.7199
925.000000 0.7185 0.7171 0.7160 0.7149 0.7142
930.000000 0.7137 0.7131 0.7125 0.7118 0.7106
935.000000 0.7080 0.7049 0.7011 0.6958 0.6893
940.000000 0.6800 0.6665 0.6487 0.6385 0.6302
945.000000 0.5979 0.5465 0.4952 0.4441 0.3962
950.000000 0.3962 0.5188 0.6054 0.6607 0.6647
955.000000 0.6728 0.6735 0.6718 0.6621 0.6492
960.000000 0.6374 0.6226 0.5971 0.5737 0.5512
965.000000 0.5309 0.5259 0.5365 0.5515 0.5585
970.000000 0.5576 0.5575 0.5367 0.5162 0.4957
975.000000 0.4752 0.4565 0.4425 0.4394 0.4556
980.000000 0.4723 0.4868 0.4843 0.4778 0.4962
985.000000 0.5539 0.5785 0.5887 0.5909 0.5862
990.000000 0.5847 0.5758 0.5649 0.5569 0.5517
995.000000 0.5314 0.4816 0.4320 0.4196 0.4221
1000.000000 0.4524 0.4696 0.4868 0.5007 0.5010
1005.000000 0.5067 0.5548 0.6015 0.6092 0.6116
1010.000000 0.6117 0.6095 0.6044 0.5983 0.5928
1015.000000 0.5846 0.5707 0.5478 0.5386 0.5352
1020.000000 0.5246 0.4991 0.4736 0.4480 0.4435
1025.000000 0.4440 0.4445 0.4597 0.4740 0.4972
1030.000000 0.4967 0.4946 0.4863 0.4512 0.4024
1035.000000 0.3537 0.3065 0.3041 0.3030 0.3620
1040.000000 0.4059 0.4559 0.5340 0.5724 0.5833
1045.000000 0.5911 0.5942 0.5899 0.5879 0.5826
1050.000000 0.5718 0.5501 0.5299 0.5168 0.5070
1055.000000 0.4971 0.4884 0.4913 0.5153 0.5351
1060.000000 0.5469 0.5454 0.5444 0.5388 0.5230
1065.000000 0.4992 0.4745 0.4302 0.4186 0.4185
1070.000000 0.4164 0.4648 0.4840 0.4977 0.5169
1075.000000 0.5428 0.5637 0.5687 0.5732 0.5644
1080.000000 0.5619 0.5578 0.5470 0.5318 0.5168
1085.000000 0.5017 0.4867 0.4743 0.4753 0.4758
1090.000000 0.4918 0.5157 0.5453 0.5719 0.5813
1095.000000 0.5816 0.5798 0.5755 0.5700 0.5634
1100.000000 0.5607 0.5622 0.5654 0.5715 0.5804
1105.000000 0.5923 0.6022 0.6068 0.6073 0.6070
1110.000000 0.6068 0.6050 0.6028 0.6003 0.5975
1115.000000 0.5947 0.5928 0.5912 0.5896 0.5880
1120.000000 0.5870 0.5863 0.5856 0.5847 0.5838
1125.000000 0.5829 0.5820 0.5807 0.5785 0.5747
1130.000000 0.5695 0.5644 0.5596 0.5562 0.5547
1135.000000 0.5530 0.5464 0.5312 0.5199 0.5102
1140.000000 0.5009 0.4922 0.4849 0.4813 0.4805
1145.000000 0.4808 0.4816 0.4830 0.4854 0.4859
1150.000000 0.4796 0.4652 0.4509 0.4376 0.4395
1155.000000 0.4519 0.4656 0.4724 0.4700 0.4673
1160.000000 0.4637 0.4597 0.4555 0.4492 0.4388
1165.000000 0.4259 0.4130 0.4002 0.3873 0.3745
1170.000000 0.3617 0.3560 0.3581 0.3582 0.3292
1175.000000 0.2955 0.2738 0.2740 0.2759 0.2742
1180.000000 0.3005 0.3149 0.3297 0.3573 0.3871
1185.000000 0.4168 0.4331 0.4328 0.4335 0.4218
1190.000000 0.4141 0.4053 0.3917 0.3702 0.3475
1195.000000 0.3249 0.3023 0.2797 0.2572 0.2347
1200.000000 0.2122 0.1916 0.1868 0.1879 0.1891
1205.000000 0.2900 0.3536 0.4172 0.4748 0.4944
1210.000000 0.4956 0.4944 0.4965 0.4917 0.4887
1215.000000 0.4823 0.4722 0.4657 0.4597 0.4497
1220.000000 0.4335 0.4217 0.4085 0.4003 0.3924
1225.000000 0.3799 0.3641 0.3483 0.3325 0.3168
1230.000000 0.3011 0.2853 0.2696 0.2554 0.2409
1235.000000 0.2265 0.2161 0.2098 0.2077 0.2101
1240.000000 0.2132 0.2173 0.2213 0.2262 0.2322
1245.000000 0.2383 0.2455 0.2625 0.2826 0.3026
1250.000000 0.3227 0.3426 0.3626 0.3845 0.3949
1255.000000 0.3981 0.3993 0.4009 0.3997 0.3957
1260.000000 0.3878 0.3806 0.3737 0.3668 0.3617
1265.000000 0.3537 0.3370 0.3190 0.3012 0.2834
1270.000000 0.2733 0.2669 0.2570 0.2394 0.2181
1275.000000 0.1985 0.1935 0.1921 0.2238 0.2536
1280.000000 0.2833 0.3130 0.3427 0.3723 0.4019
1285.000000 0.4314 0.4557 0.4623 0.4656 0.4682
1290.000000 0.4714 0.4757 0.4820 0.4916 0.5018
1295.000000 0.5065 0.5089 0.5100 0.5104 0.5092
1300.000000 0.5092 0.5082 0.5070 0.5053 0.5023
1305.000000 0.4953 0.4724 0.4561 0.4452 0.4248
1310.000000 0.4038 0.3930 0.3861 0.3819 0.3793
1315.000000 0.3715 0.3585 0.3455 0.3330 0.3285
1320.000000 0.3304 0.3697 0.3941 0.4185 0.4441
1325.000000 0.4553 0.4596 0.4626 0.4653 0.4677
1330.000000 0.4699 0.4731 0.4773 0.4795 0.4799
1335.000000 0.4797 0.4767 0.4790 0.4783 0.4767
1340.000000 0.4743 0.4716 0.4680 0.4636 0.4569
1345.000000 0.4477 0.4309 0.4095 0.4060 0.4038
1350.000000 0.4017 0.3914 0.3613 0.3290 0.2969
1355.000000 0.2653 0.2538 0.2414 0.2316 0.2323
1360.000000 0.2309 0.2479 0.2573 0.2666 0.2754
1365.000000 0.2781 0.2745 0.2664 0.2477 0.2291
1370.000000 0.2104 0.1929 0.1868 0.1895 0.2053
1375.000000 0.2185 0.3848 0.3980 0.4096 0.4165
1380.000000 0.4201 0.4227 0.4245 0.4258 0.4267
1385.000000 0.4270 0.4252 0.4262 0.4253 0.4246
1390.000000 0.4234 0.4212 0.4187 0.4159 0.4122
1395.000000 0.4080 0.4039 0.3998 0.3957 0.3904
1400.000000 0.3844 0.3794 0.3747 0.3701 0.3664
1405.000000 0.3632 0.3601 0.3579 0.3558 0.3502
1410.000000 0.3327 0.3122 0.2917 0.2713 0.2509
1415.000000 0.2305 0.2146 0.2112 0.2171 0.2136
1420.000000 0.2489 0.2649 0.2809 0.2958 0.3006
1425.000000 0.2998 0.2974 0.2966 0.2940 0.2905
1430.000000 0.2843 0.2770 0.2705 0.2619 0.2501
1435.000000 0.2379 0.2286 0.2187 0.1990 0.1768
1440.000000 0.1546 0.1326 0.1154 0.1060 0.1049
1445.000000 0.1084 0.1496 0.1752 0.2007 0.2211
1450.000000 0.2206 0.2193 0.2161 0.2072 0.1890
1455.000000 0.1765 0.1690 0.1643 0.1604 0.1565
1460.000000 0.1525 0.1484 0.1451 0.1424 0.1398
1465.000000 0.1369 0.1335 0.1301 0.1265 0.1228
1470.000000 0.1187 0.1128 0.1049 0.0974 0.0908
1475.000000 0.0856 0.0808 0.0772 0.0741 0.0713
1480.000000 0.0692 0.0674 0.0663 0.0660 0.0660
1485.000000 0.0659 0.0656 0.0652 0.0639 0.0624
1490.000000 0.0613 0.0600 0.0593 0.0593 0.0600
1495.000000 0.0595 0.0598 0.0600 0.0609 0.0699
1500.000000 0.0881 0.1062 0.1244 0.1426 0.1607
1505.000000 0.1760 0.1848 0.1919 0.1985 0.2041
1510.000000 0.2093 0.2148 0.2204 0.2260 0.2357
1515.000000 0.2482 0.2624 0.2733 0.2803 0.2874
1520.000000 0.2964 0.3066 0.3153 0.3216 0.3279
1525.000000 0.3343 0.3415 0.3491 0.3553 0.3609
1530.000000 0.4055 0.4112 0.4166 0.4232 0.4311
1535.000000 0.4384 0.4452 0.4515 0.4571 0.4619
1540.000000 0.4653 0.4680 0.4705 0.4717 0.4726
1545.000000 0.4735 0.4741 0.4741 0.4740 0.4728
1550.000000 0.4738 0.4735 0.4733 0.4730 0.4727
1555.000000 0.4724 0.4721 0.4717 0.4714 0.4711
1560.000000 0.4691 0.4623 0.4525 0.4428 0.4331
1565.000000 0.4234 0.4137 0.4065 0.4021 0.3989
1570.000000 0.3963 0.3939 0.3917 0.3895 0.3873
1575.000000 0.3851 0.3829 0.3807 0.3784 0.3761
1580.000000 0.3736 0.3695 0.3583 0.3375 0.3141
1585.000000 0.2907 0.2673 0.2439 0.2206 0.2064
1590.000000 0.2029 0.2030 0.2041 0.2014 0.2185
1595.000000 0.2287 0.2390 0.2492 0.2537 0.2529
1600.000000 0.2508 0.2346 0.2157 0.1968 0.1779
1605.000000 0.1590 0.1402 0.1219 0.1098 0.1102
1610.000000 0.1105 0.1361 0.1694 0.2027 0.2359
1615.000000 0.2691 0.3022 0.3353 0.3578 0.3730
1620.000000 0.3809 0.3858 0.3897 0.3921 0.3933
1625.000000 0.3928 0.3913 0.3845 0.3746 0.3647
1630.000000 0.3548 0.3450 0.3352 0.3254 0.3155
1635.000000 0.3057 0.2959 0.2861 0.2764 0.2666
1640.000000 0.2611 0.2567 0.2470 0.2298 0.2088
1645.000000 0.1880 0.1671 0.1462 0.1253 0.1045
1650.000000 0.0838 0.0723 0.0736 0.0743 0.0871
1655.000000 0.1113 0.1381 0.1649 0.1916 0.2184
1660.000000 0.2449 0.2716 0.2982 0.3164 0.3451
1665.000000 0.3749 0.4004 0.4258 0.4512 0.4765
1670.000000 0.5018 0.5245 0.5344 0.5420 0.5478
1675.000000 0.5527 0.5576 0.5627 0.5691 0.5789
1680.000000 0.5885 0.5972 0.6049 0.6102 0.6140
1685.000000 0.6174 0.6207 0.6238 0.6263 0.6289
1690.000000 0.6314 0.6337 0.6359 0.6376 0.6388
1695.000000 0.6394 0.6399 0.6401 0.6393 0.6382
1700.000000 0.6371 0.6358 0.6347 0.6344 0.6349
1705.000000 0.6358 0.6371 0.6385 0.6400 0.6418
1710.000000 0.6438 0.6453 0.6468 0.6471 0.6470
1715.000000 0.6469 0.6468 0.6463 0.6457 0.6452
1720.000000 0.6446 0.6441 0.6435 0.6425 0.6416
1725.000000 0.6407 0.6397 0.6386 0.6375 0.6364
1730.000000 0.6354 0.6349 0.6348 0.6349 0.6349
1735.000000 0.6349 0.6355 0.6361 0.6366 0.6372
1740.000000 0.6378 0.6384 0.6391 0.6401 0.6411
1745.000000 0.6422 0.6432 0.6442 0.6449 0.6453
1750.000000 0.6456 0.6459 0.6462 0.6465 0.6468
1755.000000 0.6471 0.6473 0.6475 0.6476 0.6478
1760.000000 0.6480 0.6481 0.6484 0.6489 0.6495
1765.000000 0.6500 0.6505 0.6511 0.6516 0.6522
1770.000000 0.6532 0.6544 0.6557 0.6569 0.6581
1775.000000 0.6593 0.6604 0.6616 0.6627 0.6629
1780.000000 0.6630 0.6629 0.6626 0.6624 0.6622
1785.000000 0.6641 0.6617 0.6614 0.6612 0.6610
1790.000000 0.6607 0.6604 0.6602 0.6599 0.6581
1795.000000 0.6551 0.6521 0.6490 0.6459 0.6428
1800.000000 0.6397 0.6367 0.6336 0.6314 0.6304
1805.000000 0.6304 0.6305 0.6307 0.6311 0.6317
1810.000000 0.6322 0.6332 0.6343 0.6354 0.6364
1815.000000 0.6374 0.6382 0.6386 0.6391 0.6393
1820.000000 0.6394 0.6396 0.6398 0.6406 0.6418
1825.000000 0.6434 0.6451 0.6468 0.6477 0.6479
1830.000000 0.6481 0.6483 0.6486 0.6487 0.6487
1835.000000 0.6486 0.6485 0.6484 0.6484 0.6482
1840.000000 0.6480 0.6477 0.6476 0.6474 0.6471
1845.000000 0.6469 0.6466 0.6463 0.6461 0.6458
1850.000000 0.6454 0.6449 0.6444 0.6439 0.6434
1855.000000 0.6428 0.6420 0.6412 0.6404 0.6396
1860.000000 0.6388 0.6380 0.6374 0.6368 0.6365
1865.000000 0.6362 0.6361 0.6358 0.6352 0.6337
1870.000000 0.6315 0.6294 0.6263 0.6213 0.6136
1875.000000 0.6071 0.6011 0.5956 0.5911 0.5883
1880.000000 0.5869 0.5866 0.5860 0.5852 0.5843
1885.000000 0.5832 0.5817 0.5802 0.5789 0.5816
1890.000000 0.5853 0.5891 0.5928 0.5966 0.6004
1895.000000 0.6041 0.6059 0.6066 0.6068 0.6071
1900.000000 0.6073 0.6076 0.6079 0.6081 0.6081
1905.000000 0.6078 0.6075 0.6072 0.6067 0.6063
1910.000000 0.6059 0.6059 0.6066 0.6076 0.6087
1915.000000 0.6098 0.6110 0.6121 0.6131 0.6138
1920.000000 0.6138 0.6131 0.6121 0.6108 0.6095
1925.000000 0.6082 0.6069 0.6063 0.6060 0.6060
1930.000000 0.6060 0.6060 0.6060 0.6060 0.6060
1935.000000 0.6058 0.6057 0.6053 0.6047 0.6041
1940.000000 0.6032 0.6020 0.5966 0.5910 0.5850
1945.000000 0.5790 0.5747 0.5722 0.5715 0.5710
1950.000000 0.5705 0.5700 0.5695 0.5691 0.5689
1955.000000 0.5687 0.5685 0.5683 0.5683 0.5683
1960.000000 0.5684 0.5686 0.5686 0.5691 0.5699
1965.000000 0.5708 0.5718 0.5730 0.5742 0.5753
1970.000000 0.5763 0.5767 0.5771 0.5774 0.5776
1975.000000 0.5777 0.5774 0.5772 0.5770 0.5765
1980.000000 0.5759 0.5750 0.5742 0.5734 0.5726
1985.000000 0.5721 0.5717 0.5713 0.5709 0.5705
1990.000000 0.5701 0.5700 0.5700 0.5703 0.5706
1995.000000 0.5709 0.5711 0.5714 0.5719 0.5723
2000.000000 0.5729 0.5733 0.5737 0.5742 0.5746
2005.000000 0.5750 0.5754 0.5755 0.5754 0.5752
2010.000000 0.5751 0.5749 0.5748 0.5746 0.5744
2015.000000 0.5742 0.5739 0.5734 0.5729 0.5724
2020.000000 0.5719 0.5715 0.5710 0.5706 0.5701
2025.000000 0.5696 0.5690 0.5684 0.5678 0.5672
2030.000000 0.5666 0.5661 0.5655 0.5649 0.5643
2035.000000 0.5637 0.5631 0.5625 0.5619 0.5613
2040.000000 0.5607 0.5602 0.5596 0.5590 0.5584
2045.000000 0.5578 0.5573 0.5567 0.5562 0.5556
2050.000000 0.5550 0.5544 0.5538 0.5533 0.5527
2055.000000 0.5521 0.5515 0.5510 0.5504 0.5498
2060.000000 0.5492 0.5487 0.5481 0.5476 0.5470
2065.000000 0.5464 0.5458 0.5452 0.5447 0.5441
2070.000000 0.5436 0.5430 0.5424 0.5418 0.5414
2075.000000 0.5409 0.5404 0.5400 0.5395 0.5391
2080.000000 0.5387 0.5380 0.5374 0.5368 0.5361
2085.000000 0.5355 0.5348 0.5341 0.5335 0.5329
2090.000000 0.5322 0.5316 0.5310 0.5304 0.5298
2095.000000 0.5293 0.5288 0.5283 0.5278 0.5274
2100.000000 0.5279 0.5286 0.5293 0.5301 0.5309
2105.000000 0.5314 0.5318 0.5312 0.5304 0.5292
2110.000000 0.5280 0.5267 0.5253 0.5238 0.5223
2115.000000 0.5208 0.5193 0.5179 0.5166 0.5153
2120.000000 0.5141 0.5128 0.5116 0.5103 0.5090
2125.000000 0.5077 0.5065 0.5053 0.5040 0.5026
2130.000000 0.5013 0.4999 0.4988 0.4977 0.4970
2135.000000 0.4964 0.4959 0.4953 0.4947 0.4941
2140.000000 0.4936 0.4931 0.4927 0.4926 0.4927
2145.000000 0.4929 0.4931 0.4932 0.4933 0.4935
2150.000000 0.4936 0.4937 0.4938 0.4940 0.4940
2155.000000 0.4939 0.4938 0.4937 0.4936 0.4935
2160.000000 0.4934 0.4933 0.4933 0.4932 0.4931
2165.000000 0.4928 0.4923 0.4917 0.4911 0.4905
2170.000000 0.4899 0.4893 0.4888 0.4881 0.4875
2175.000000 0.4866 0.4857 0.4848 0.4840 0.4831
2180.000000 0.4822 0.4813 0.4804 0.4794 0.4785
2185.000000 0.4775 0.4765 0.4756 0.4746 0.4736
2190.000000 0.4726 0.4716 0.4707 0.4697 0.4686
2195.000000 0.4674 0.4660 0.4645 0.4630 0.4615
2200.000000 0.4601 0.4586 0.4571 0.4556 0.4541
2205.000000 0.4524 0.4507 0.4489 0.4472 0.4455
2210.000000 0.4438 0.4421 0.4403 0.4386 0.4369
2215.000000 0.4351 0.4332 0.4314 0.4295 0.4276
2220.000000 0.4258 0.4239 0.4221 0.4206 0.4193
2225.000000 0.4182 0.4170 0.4159 0.4148 0.4137
2230.000000 0.4126 0.4117 0.4109 0.4094 0.4078
2235.000000 0.4051 0.4022 0.3997 0.3973 0.3951
2240.000000 0.3931 0.3910 0.3891 0.3874 0.3859
2245.000000 0.3843 0.3827 0.3812 0.3797 0.3781
2250.000000 0.3765 0.3750 0.3734 0.3717 0.3699
2255.000000 0.3678 0.3657 0.3636 0.3615 0.3594
2260.000000 0.3574 0.3553 0.3532 0.3511 0.3490
2265.000000 0.3467 0.3443 0.3419 0.3395 0.3371
2270.000000 0.3347 0.3322 0.3299 0.3276 0.3254
2275.000000 0.3233 0.3216 0.3199 0.3182 0.3166
2280.000000 0.3149 0.3132 0.3115 0.3098 0.3081
2285.000000 0.3065 0.3048 0.3030 0.3013 0.2995
2290.000000 0.2978 0.2960 0.2942 0.2925 0.2907
2295.000000 0.2890 0.2872 0.2853 0.2835 0.2816
2300.000000 0.2798 0.2779 0.2761 0.2742 0.2723
2305.000000 0.2701 0.2679 0.2656 0.2634 0.2615
2310.000000 0.2596 0.2578 0.2559 0.2541 0.2522
2315.000000 0.2504 0.2488 0.2472 0.2461 0.2450
2320.000000 0.2438 0.2427 0.2415 0.2404 0.2393
2325.000000 0.2381 0.2370 0.2359 0.2348 0.2337
2330.000000 0.2327 0.2319 0.2310 0.2302 0.2294
2335.000000 0.2285 0.2277 0.2269 0.2261 0.2252
2340.000000 0.2244 0.2236 0.2229 0.2223 0.2215
2345.000000 0.2208 0.2201 0.2194 0.2186 0.2179
2350.000000 0.2172 0.2165 0.2157 0.2149 0.2141
2355.000000 0.2133 0.2125 0.2116 0.2108 0.2099
2360.000000 0.2091 0.2083 0.2075 0.2067 0.2059
2365.000000 0.2051 0.2043 0.2035 0.2023 0.2008
2370.000000 0.1993 0.1977 0.1960 0.1943 0.1926
2375.000000 0.1908 0.1890 0.1870 0.1847 0.1824
2380.000000 0.1802 0.1779 0.1756 0.1734 0.1699
2385.000000 0.1661 0.1614 0.1558 0.1506 0.1470
2390.000000 0.1435 0.1403 0.1372 0.1347 0.1325
2395.000000 0.1304 0.1282 0.1262 0.1253 0.1245
2400.000000 0.1236 0.1228 0.1220 0.1211 0.1203
2405.000000 0.1197 0.1190 0.1183 0.1176 0.1169
2410.000000 0.1163 0.1156 0.1149 0.1142 0.1136
2415.000000 0.1129 0.1123 0.1116 0.1109 0.1103
2420.000000 0.1096 0.1090 0.1083 0.1076 0.1070
2425.000000 0.1063 0.1057 0.1050 0.1043 0.1037
2430.000000 0.1030 0.1024 0.1017 0.1011 0.1004
2435.000000 0.0997 0.0989 0.0981 0.0973 0.0965
2440.000000 0.0956 0.0948 0.0940 0.0933 0.0926
2445.000000 0.0921 0.0916 0.0912 0.0907 0.0902
2450.000000 0.0897 0.0892 0.0891 0.0890 0.0891
2455.000000 0.0893 0.0895 0.0899 0.0903 0.0903
2460.000000 0.0911 0.0916 0.0922 0.0928 0.0935
2465.000000 0.0942 0.0950 0.0959 0.0967 0.0978
2470.000000 0.0988 0.0998 0.1009 0.1020 0.1031
2475.000000 0.1042 0.1055 0.1070 0.1084 0.1097
2480.000000 0.1110 0.1116 0.1119 0.1121 0.1119
2485.000000 0.1117 0.1114 0.1112 0.1108 0.1102
2490.000000 0.1097 0.1091 0.1085 0.1079 0.1072
2495.000000 0.1066 0.1062 0.1059 0.1057 0.1055
2500.000000 0.1054 0.1056 0.1059 0.1064 0.1070
2505.000000 0.1076 0.1092 0.1108 0.1121 0.1130
2510.000000 0.1139 0.1143 0.1146 0.1146 0.1150
2515.000000 0.1152 0.1151 0.1149 0.1147 0.1144
2520.000000 0.1142 0.1139 0.1136 0.1133 0.1128
2525.000000 0.1124 0.1119 0.1114 0.1108 0.1103
2530.000000 0.1097 0.1092 0.1086 0.1080 0.1074
2535.000000 0.1068 0.1062 0.1056 0.1050 0.1044
2540.000000 0.1038 0.1033 0.1027 0.1022 0.1017
2545.000000 0.1012 0.1007 0.1003 0.0998 0.0995
2550.000000 0.0993 0.0991 0.0990 0.0989 0.0989
2555.000000 0.0989 0.0989 0.0989 0.0989 0.0989
2560.000000 0.0991 0.0993 0.0996 0.0998 0.1000
2565.000000 0.0971 0.1007 0.1011 0.1015 0.1020
2570.000000 0.1031 0.1046 0.1060 0.1092 0.1125
2575.000000 0.1157 0.1190 0.1223 0.1256 0.1288
2580.000000 0.1321 0.1354 0.1386 0.1419 0.1452
2585.000000 0.1484 0.1517 0.1549 0.1582 0.1614
2590.000000 0.1647 0.1679 0.1711 0.1744 0.1776
2595.000000 0.1808 0.1840 0.1872 0.1904 0.1936
2600.000000 0.1969 0.2001 0.2029 0.2055 0.2080
2605.000000 0.2096 0.2110 0.2124 0.2136 0.2147
2610.000000 0.2158 0.2166 0.2175 0.2182 0.2190
2615.000000 0.2197 0.2203 0.2208 0.2213 0.2217
2620.000000 0.2221 0.2224 0.2227 0.2231 0.2234
2625.000000 0.2237 0.2240 0.2243 0.2246 0.2249
2630.000000 0.2252 0.2255 0.2258 0.2261 0.2263
2635.000000 0.2266 0.2267 0.2269 0.2270 0.2272
2640.000000 0.2273 0.2273 0.2274 0.2275 0.2276
2645.000000 0.2278 0.2279 0.2280 0.2281 0.2282
2650.000000 0.2284 0.2285 0.2287 0.2290 0.2292
2655.000000 0.2296 0.2300 0.2305 0.2313 0.2321
2660.000000 0.2331 0.2344 0.2357 0.2374 0.2392
2665.000000 0.2411 0.2425 0.2438 0.2451 0.2464
2670.000000 0.2477 0.2491 0.2516 0.2541 0.2571
2675.000000 0.2621 0.2671 0.2721 0.2769 0.2816
2680.000000 0.2859 0.2895 0.2931 0.2962 0.2989
2685.000000 0.3017 0.3040 0.3061 0.3082 0.3100
2690.000000 0.3118 0.3135 0.3151 0.3167 0.3182
2695.000000 0.3197 0.3212 0.3226 0.3241 0.3255
2700.000000 0.3270 0.3284 0.3298 0.3312 0.3325
2705.000000 0.3339 0.3352 0.3366 0.3379 0.3392
2710.000000 0.3406 0.3419 0.3434 0.3450 0.3465
2715.000000 0.3482 0.3498 0.3515 0.3525 0.3531
2720.000000 0.3537 0.3543 0.3550 0.3556 0.3562
2725.000000 0.3568 0.3575 0.3577 0.3578 0.3579
2730.000000 0.3580 0.3581 0.3582 0.3599 0.3584
2735.000000 0.3584 0.3585 0.3586 0.3587 0.3586
2740.000000 0.3583 0.3581 0.3577 0.3573 0.3569
2745.000000 0.3565 0.3561 0.3558 0.3552 0.3545
2750.000000 0.3538 0.3531 0.3523 0.3516 0.3508
2755.000000 0.3500 0.3492 0.3485 0.3477 0.3469
2760.000000 0.3462 0.3454 0.3446 0.3438 0.3430
2765.000000 0.3422 0.3415 0.3407 0.3400 0.3392
2770.000000 0.3384 0.3376 0.3368 0.3360 0.3351
2775.000000 0.3343 0.3333 0.3323 0.3313 0.3302
2780.000000 0.3292 0.3281 0.3266 0.3251 0.3236
2785.000000 0.3219 0.3202 0.3186 0.3170 0.3155
2790.000000 0.3139 0.3126 0.3114 0.3101 0.3096
2795.000000 0.3093 0.3091 0.3088 0.3086 0.3084
2800.000000 0.3082 0.3080 0.3078 0.3076 0.3075
2805.000000 0.3074 0.3072 0.3071 0.3070 0.3069
2810.000000 0.3068 0.3067 0.3066 0.3064 0.3063
2815.000000 0.3062 0.3060 0.3058 0.3056 0.3050
2820.000000 0.3040 0.3030 0.3014 0.2986 0.2958
2825.000000 0.2930 0.2909 0.2888 0.2867 0.2839
2830.000000 0.2811 0.2784 0.2754 0.2723 0.2692
2835.000000 0.2681 0.2688 0.2696 0.2705 0.2718
2840.000000 0.2731 0.2742 0.2740 0.2739 0.2737
2845.000000 0.2733 0.2728 0.2724 0.2716 0.2705
2850.000000 0.2694 0.2682 0.2666 0.2650 0.2635
2855.000000 0.2619 0.2604 0.2589 0.2574 0.2559
2860.000000 0.2545 0.2529 0.2512 0.2496 0.2480
2865.000000 0.2467 0.2454 0.2441 0.2432 0.2423
2870.000000 0.2414 0.2406 0.2399 0.2392 0.2385
2875.000000 0.2379 0.2373 0.2368 0.2364 0.2360
2880.000000 0.2356 0.2353 0.2349 0.2346 0.2344
2885.000000 0.2342 0.2340 0.2338 0.2336 0.2335
2890.000000 0.2333 0.2332 0.2331 0.2330 0.2330
2895.000000 0.2330 0.2331 0.2325 0.2333 0.2333
2900.000000 0.2334 0.2335 0.2337 0.2338 0.2339
2905.000000 0.2341 0.2343 0.2346 0.2347 0.2349
2910.000000 0.2351 0.2353 0.2355 0.2357 0.2359
2915.000000 0.2361 0.2363 0.2365 0.2370 0.2375
2920.000000 0.2381 0.2388 0.2398 0.2408 0.2418
2925.000000 0.2435 0.2453 0.2470 0.2492 0.2516
2930.000000 0.2540 0.2565 0.2591 0.2617 0.2643
2935.000000 0.2668 0.2692 0.2716 0.2740 0.2762
2940.000000 0.2784 0.2806 0.2825 0.2843 0.2862
2945.000000 0.2877 0.2886 0.2895 0.2903 0.2907
2950.000000 0.2909 0.2912 0.2914 0.2917 0.2919
2955.000000 0.2921 0.2923 0.2925 0.2927 0.2928
2960.000000 0.2930 0.2931 0.2932 0.2935 0.2937
2965.000000 0.2939 0.2943 0.2949 0.2955 0.2962
2970.000000 0.2968 0.2974 0.2980 0.2988 0.2999
2975.000000 0.3010 0.3020 0.3037 0.3055 0.3073
2980.000000 0.3089 0.3097 0.3105 0.3113 0.3119
2985.000000 0.3123 0.3128 0.3132 0.3136 0.3140
2990.000000 0.3145 0.3147 0.3148 0.3149 0.3149
2995.000000 0.3150 0.3151 0.3151 0.3152 0.3152
3000.000000 0.3153 0.3153 0.3154 0.3154 0.3155
3005.000000 0.3156 0.3156 0.3156 0.3156 0.3156
3010.000000 0.3156 0.3156 0.3156 0.3156 0.3156
3015.000000 0.3156 0.3157 0.3157 0.3158 0.3158
3020.000000 0.3159 0.3159 0.3160 0.3161 0.3161
3025.000000 0.3162 0.3163 0.3165 0.3170 0.3174
3030.000000 0.3179 0.3190 0.3204 0.3219 0.3233
3035.000000 0.3247 0.3262 0.3277 0.3291 0.3304
3040.000000 0.3317 0.3330 0.3342 0.3353 0.3364
3045.000000 0.3376 0.3382 0.3387 0.3393 0.3398
3050.000000 0.3401 0.3405 0.3408 0.3411 0.3413
3055.000000 0.3416 0.3418 0.3421 0.3424 0.3427
3060.000000 0.3430 0.3437 0.3445 0.3452 0.3462
3065.000000 0.3478 0.3493 0.3509 0.3526 0.3546
3070.000000 0.3565 0.3585 0.3590 0.3591 0.3592
3075.000000 0.3592 0.3593 0.3594 0.3595 0.3579
3080.000000 0.3596 0.3596 0.3596 0.3595 0.3594
3085.000000 0.3593 0.3592 0.3591 0.3589 0.3587
3090.000000 0.3586 0.3582 0.3577 0.3572 0.3568
3095.000000 0.3563 0.3558 0.3554 0.3549 0.3544
3100.000000 0.3540 0.3535 0.3530 0.3524 0.3519
3105.000000 0.3513 0.3507 0.3501 0.3496 0.3490
3110.000000 0.3484 0.3478 0.3472 0.3466 0.3459
3115.000000 0.3452 0.3444 0.3436 0.3429 0.3422
3120.000000 0.3414 0.3407 0.3400 0.3394 0.3387
3125.000000 0.3381 0.3374 0.3367 0.3361 0.3352
3130.000000 0.3324 0.3296 0.3269 0.3243 0.3226
3135.000000 0.3210 0.3194 0.3179 0.3169 0.3159
3140.000000 0.3149 0.3139 0.3129 0.3119 0.3109
3145.000000 0.3099 0.3088 0.3077 0.3066 0.3059
3150.000000 0.3057 0.3056 0.3054 0.3053 0.3052
3155.000000 0.3050 0.3049 0.3048 0.3048 0.3047
3160.000000 0.3047 0.3046 0.3045 0.3045 0.3044
3165.000000 0.3043 0.3042 0.3042 0.3041 0.3037
3170.000000 0.3029 0.3021 0.3012 0.3002 0.2989
3175.000000 0.2975 0.2962 0.2948 0.2933 0.2919
3180.000000 0.2904 0.2890 0.2877 0.2863 0.2850
3185.000000 0.2837 0.2824 0.2811 0.2798 0.2783
3190.000000 0.2765 0.2747 0.2729 0.2711 0.2694
3195.000000 0.2678 0.2661 0.2645 0.2632 0.2620
3200.000000 0.2607 0.2595 0.2582 0.2570 0.2558
3205.000000 0.2545 0.2534 0.2523 0.2513 0.2502
3210.000000 0.2493 0.2484 0.2475 0.2466 0.2457
3215.000000 0.2447 0.2438 0.2429 0.2421 0.2415
3220.000000 0.2409 0.2403 0.2396 0.2391 0.2385
3225.000000 0.2379 0.2374 0.2370 0.2367 0.2363
3230.000000 0.2359 0.2358 0.2356 0.2354 0.2353
3235.000000 0.2351 0.2350 0.2349 0.2348 0.2347
3240.000000 0.2346 0.2344 0.2343 0.2342 0.2340
3245.000000 0.2339 0.2338 0.2335 0.2330 0.2325
3250.000000 0.2320 0.2315 0.2310 0.2305 0.2300
3255.000000 0.2296 0.2288 0.2280 0.2272 0.2264
3260.000000 0.2256 0.2248 0.2240 0.2232 0.2224
3265.000000 0.2216 0.2208 0.2200 0.2192 0.2185
3270.000000 0.2177 0.2170 0.2162 0.2155 0.2147
3275.000000 0.2139 0.2132 0.2126 0.2122 0.2119
3280.000000 0.2115 0.2112 0.2109 0.2105 0.2102
3285.000000 0.2099 0.2098 0.2097 0.2096 0.2095
3290.000000 0.2095 0.2095 0.2095 0.2095 0.2097
3295.000000 0.2105 0.2114 0.2122 0.2130 0.2140
3300.000000 0.2150 0.2160 0.2169 0.2034 0.2189
3305.000000 0.2199 0.2209 0.2219 0.2228 0.2238
3310.000000 0.2247 0.2257 0.2265 0.2273 0.2281
3315.000000 0.2289 0.2297 0.2306 0.2314 0.2322
3320.000000 0.2330 0.2337 0.2344 0.2351 0.2357
3325.000000 0.2364 0.2369 0.2375 0.2380 0.2386
3330.000000 0.2392 0.2397 0.2403 0.2409 0.2413
3335.000000 0.2417 0.2421 0.2425 0.2429 0.2433
3340.000000 0.2436 0.2439 0.2443 0.2446 0.2449
3345.000000 0.2453 0.2456 0.2459 0.2463 0.2466
3350.000000 0.2469 0.2473 0.2476 0.2479 0.2483
3355.000000 0.2486 0.2489 0.2493 0.2496 0.2499
3360.000000 0.2502 0.2512 0.2523 0.2535 0.2546
3365.000000 0.2557 0.2567 0.2577 0.2587 0.2597
3370.000000 0.2607 0.2617 0.2626 0.2636 0.2646
3375.000000 0.2654 0.2662 0.2670 0.2678 0.2685
3380.000000 0.2693 0.2701 0.2708 0.2716 0.2724
3385.000000 0.2732 0.2739 0.2747 0.2755 0.2763
3390.000000 0.2771 0.2779 0.2786 0.2794 0.2802
3395.000000 0.2810 0.2818 0.2826 0.2833 0.2841
3400.000000 0.2849 0.2857 0.2865 0.2873 0.2881
3405.000000 0.2889 0.2897 0.2904 0.2912 0.2920
3410.000000 0.2928 0.2935 0.2943 0.2951 0.2959
3415.000000 0.2967 0.2975 0.2983 0.2991 0.3000
3420.000000 0.3008 0.3016 0.3024 0.3032 0.3040
3425.000000 0.3048 0.3056 0.3064 0.3072 0.3080
3430.000000 0.3088 0.3097 0.3106 0.3114 0.3123
3435.000000 0.3132 0.3140 0.3149 0.3158 0.3166
3440.000000 0.3175 0.3184 0.3193 0.3202 0.3211
3445.000000 0.3220 0.3228 0.3237 0.3246 0.3254
3450.000000 0.3262 0.3270 0.3278 0.3286 0.3294
3455.000000 0.3301 0.3309 0.3316 0.3324 0.3332
3460.000000 0.3339 0.3347 0.3355 0.3361 0.3364
3465.000000 0.3366 0.3369 0.3372 0.3375 0.3376
3470.000000 0.3378 0.3380 0.3382 0.3384 0.3386
3475.000000 0.3388 0.3390 0.3392 0.3394 0.3397
3480.000000 0.3399 0.3401 0.3403 0.3405 0.3407
3485.000000 0.3409 0.3411 0.3413 0.3415 0.3417
3490.000000 0.3419 0.3420 0.3422 0.3424 0.3426
3495.000000 0.3428 0.3430 0.3432 0.3433 0.3434
3500.000000 0.3435 0.3436 0.3437 0.3438 0.3439
3505.000000 0.3440 0.3441 0.3442 0.3443 0.3444
3510.000000 0.3445 0.3446 0.3447 0.3448 0.3449
3515.000000 0.3450 0.3451 0.3452 0.3453 0.3454
3520.000000 0.3455 0.3456 0.3457 0.3458 0.3459
3525.000000 0.3460 0.3461 0.3462 0.3463 0.3464
3530.000000 0.3465 0.3466 0.3467 0.3468 0.3469
3535.000000 0.3470 0.3471 0.3472 0.3473 0.3474
3540.000000 0.3475 0.3476 0.3477 0.3478 0.3479
3545.000000 0.3480 0.3481 0.3483 0.3484 0.3485
3550.000000 0.3486 0.3487 0.3489 0.3490 0.3491
3555.000000 0.3492 0.3493 0.3494 0.3496 0.3497
3560.000000 0.3498 0.3499 0.3500 0.3502 0.3503
3565.000000 0.3504 0.3505 0.3506 0.3507 0.3509
3570.000000 0.3510 0.3511 0.3512 0.3513 0.3515
3575.000000 0.3516 0.3517 0.3518 0.3519 0.3520
3580.000000 0.3522 0.3523 0.3524 0.3525 0.3526
3585.000000 0.3527 0.3529 0.3530 0.3531 0.3532
3590.000000 0.3534 0.3535 0.3537 0.3539 0.3541
3595.000000 0.3544 0.3546 0.3548 0.3551 0.3553
3600.000000 0.3555 0.3557 0.3560 0.3562 0.3564
3605.000000 0.3567 0.3569 0.3571 0.3574 0.3576
3610.000000 0.3578 0.3581 0.3583 0.3585 0.3586
3615.000000 0.3588 0.3590 0.3591 0.3593 0.3594
3620.000000 0.3596 0.3597 0.3599 0.3600 0.3602
3625.000000 0.3603 0.3605 0.3606 0.3608 0.3609
3630.000000 0.3611 0.3612 0.3614 0.3615 0.3617
3635.000000 0.3617 0.3617 0.3618 0.3618 0.3618
3640.000000 0.3618 0.3617 0.3616 0.3615 0.3614
3645.000000 0.3628 0.3612 0.3611 0.3611 0.3610
3650.000000 0.3609 0.3608 0.3607 0.3606 0.3605
3655.000000 0.3604 0.3604 0.3603 0.3602 0.3601
3660.000000 0.3601 0.3599 0.3597 0.3595 0.3592
3665.000000 0.3590 0.3588 0.3585 0.3582 0.3579
3670.000000 0.3576 0.3574 0.3571 0.3568 0.3565
3675.000000 0.3563 0.3560 0.3557 0.3554 0.3551
3680.000000 0.3549 0.3546 0.3543 0.3541 0.3538
3685.000000 0.3536 0.3534 0.3531 0.3529 0.3527
3690.000000 0.3525 0.3522 0.3520 0.3518 0.3516
3695.000000 0.3514 0.3512 0.3510 0.3508 0.3506
3700.000000 0.3504 0.3502 0.3501 0.3499 0.3497
3705.000000 0.3497 0.3496 0.3495 0.3494 0.3494
3710.000000 0.3493 0.3492 0.3491 0.3491 0.3490
3715.000000 0.3489 0.3489 0.3488 0.3487 0.3486
3720.000000 0.3486 0.3486 0.3486 0.3486 0.3487
3725.000000 0.3487 0.3488 0.3488 0.3489 0.3489
3730.000000 0.3490 0.3490 0.3491 0.3491 0.3492
3735.000000 0.3492 0.3493 0.3494 0.3494 0.3494
3740.000000 0.3495 0.3495 0.3495 0.3496 0.3496
3745.000000 0.3497 0.3497 0.3498 0.3498 0.3499
3750.000000 0.3499 0.3500 0.3501 0.3501 0.3502
3755.000000 0.3502 0.3503 0.3504 0.3505 0.3505
3760.000000 0.3505 0.3505 0.3505 0.3504 0.3504
3765.000000 0.3504 0.3502 0.3500 0.3499 0.3497
3770.000000 0.3496 0.3494 0.3493 0.3491 0.3489
3775.000000 0.3488 0.3486 0.3485 0.3483 0.3481
3780.000000 0.3480 0.3478 0.3477 0.3475 0.3474
3785.000000 0.3472 0.3470 0.3469 0.3467 0.3466
3790.000000 0.3464 0.3463 0.3461 0.3459 0.3458
3795.000000 0.3456 0.3455 0.3453 0.3452 0.3450
3800.000000 0.3449 0.3447 0.3445 0.3444 0.3442
3805.000000 0.3441 0.3439 0.3437 0.3436 0.3434
3810.000000 0.3432 0.3430 0.3429 0.3427 0.3426
3815.000000 0.3424 0.3423 0.3421 0.3420 0.3418
3820.000000 0.3417 0.3415 0.3413 0.3412 0.3410
3825.000000 0.3409 0.3407 0.3406 0.3404 0.3403
3830.000000 0.3401 0.3399 0.3398 0.3396 0.3394
3835.000000 0.3393 0.3391 0.3389 0.3388 0.3386
3840.000000 0.3385 0.3383 0.3382 0.3380 0.3378
3845.000000 0.3376 0.3375 0.3373 0.3372 0.3370
3850.000000 0.3369 0.3367 0.3366 0.3364 0.3362
3855.000000 0.3361 0.3359 0.3357 0.3356 0.3354
3860.000000 0.3352 0.3351 0.3349 0.3347 0.3345
3865.000000 0.3344 0.3342 0.3341 0.3339 0.3338
3870.000000 0.3336 0.3336 0.3335 0.3334 0.3334
3875.000000 0.3333 0.3332 0.3332 0.3331 0.3331
3880.000000 0.3330 0.3330 0.3329 0.3329 0.3328
3885.000000 0.3328 0.3327 0.3326 0.3326 0.3326
3890.000000 0.3327 0.3327 0.3328 0.3329 0.3329
3895.000000 0.3332 0.3334 0.3336 0.3339 0.3341
3900.000000 0.3343 0.3346 0.3348 0.3351 0.3353
3905.000000 0.3355 0.3358 0.3360 0.3363 0.3366
3910.000000 0.3368 0.3371 0.3374 0.3376 0.3379
3915.000000 0.3382 0.3385 0.3388 0.3391 0.3394
3920.000000 0.3396 0.3398 0.3400 0.3402 0.3404
3925.000000 0.3405 0.3403 0.3402 0.3400 0.3398
3930.000000 0.3397 0.3395 0.3391 0.3388 0.3384
3935.000000 0.3381 0.3377 0.3374 0.3370 0.3366
3940.000000 0.3362 0.3359 0.3355 0.3351 0.3347
3945.000000 0.3344 0.3340 0.3336 0.3332 0.3328
3950.000000 0.3324 0.3320 0.3316 0.3312 0.3308
3955.000000 0.3303 0.3299 0.3295 0.3291 0.3287
3960.000000 0.3283 0.3279 0.3275 0.3271 0.3266
3965.000000 0.3262 0.3258 0.3253 0.3249 0.3244
3970.000000 0.3239 0.3234 0.3230 0.3225 0.3220
3975.000000 0.3215 0.3211 0.3206 0.3202 0.3197
3980.000000 0.3193 0.3188 0.3184 0.3180 0.3175
3985.000000 0.3171 0.3167 0.3163 0.3159 0.3155
3990.000000 0.3152 0.3149 0.3145 0.3142 0.3138
3995.000000 0.3135 0.3131 0.3128 0.3124 0.3121
4000.000000 0.3118
##END=
