##TITLE=LEAD SULFATE
$$ COMMERCIAL PIGMENT
##JCAMP-DX=4.24
##DATA TYPE=INFRARED SPECTRUM
##CLASS=COBLENTZ
##ORIGIN=DESOTO CHEMICAL COATINGS, INC.
##OWNER=COBLENTZ SOCIETY
Collection (C) 2018 copyright by the U.S. Secretary of Commerce
on behalf of the United States of America. All rights reserved.
##DATE=Not specified, most likely prior to 1970
##NAMES=WHITE LEAD SULFATE
##MOLFORM=2 Pb S O4  * Pb O
##SOURCE REFERENCE=COBLENTZ NO. 4646
##$NIST ID=B6004646
##$NIST SOURCE=COBLENTZ
##$NIST IMAGE=cob4646
##SPECTROMETER/DATA SYSTEM=Not specified, most likely a grating spectrometer.
##STATE=SOLID (0.5 mg / 300 mg CsI PELLET)
##SAMPLING PROCEDURE=TRANSMISSION
##RESOLUTION=4
##DATA PROCESSING=DIGITIZED BY NIST FROM HARD COPY (FROM TWO SEGMENTS)
##XUNITS=1/CM
##YUNITS=TRANSMITTANCE
##XFACTOR=1.000000
##YFACTOR=1
##DELTAX=1.329399
##FIRSTX=196.012
##LASTX=3986.13
##FIRSTY=0.8
##MAXX=3986.13
##MINX=196.012
##MAXY=0.989
##MINY=0.118
##NPOINTS=2852
##XYDATA=(X++(Y..Y))
196.012000 0.8000 0.7950 0.7910 0.8000 0.7950
202.658996 0.7910 0.7870 0.7840 0.7830 0.7830
209.305991 0.7830 0.7840 0.7860 0.7870 0.7880
215.952987 0.7880 0.7910 0.7910 0.7940 0.7940
222.599983 0.7960 0.7980 0.7980 0.7990 0.7990
229.246978 0.7990 0.7990 0.8000 0.8030 0.8060
235.893974 0.8080 0.8100 0.8100 0.8110 0.8140
242.540970 0.8150 0.8160 0.8180 0.8180 0.8190
249.187965 0.8190 0.8200 0.8220 0.8230 0.8260
255.834961 0.8270 0.8280 0.8300 0.8300 0.8300
262.481957 0.8310 0.8310 0.8320 0.8340 0.8350
269.128952 0.8350 0.8360 0.8360 0.8380 0.8390
275.775948 0.8390 0.8390 0.8390 0.8400 0.8400
282.422944 0.8400 0.8400 0.8400 0.8400 0.8390
289.069939 0.8390 0.8380 0.8380 0.8360 0.8340
295.716935 0.8340 0.8340 0.8320 0.8310 0.8300
302.363931 0.8270 0.8270 0.8260 0.8240 0.8220
309.010926 0.8200 0.8200 0.8190 0.8160 0.8140
315.657922 0.8100 0.8080 0.8070 0.8040 0.7990
322.304918 0.7940 0.7880 0.7840 0.7800 0.7780
328.951913 0.7740 0.7700 0.7640 0.7620 0.7600
335.598909 0.7590 0.7550 0.7540 0.7500 0.7470
342.245905 0.7450 0.7430 0.7410 0.7400 0.7400
348.892900 0.7390 0.7390 0.7390 0.7390 0.7390
355.539896 0.7390 0.7390 0.7400 0.7400 0.7410
362.186892 0.7410 0.7400 0.7390 0.7390 0.7390
368.833887 0.7390 0.7390 0.7390 0.7390 0.7390
375.480883 0.7390 0.7390 0.7390 0.7390 0.7400
382.127879 0.7410 0.7430 0.7430 0.7430 0.7430
388.774874 0.7430 0.7440 0.7450 0.7480 0.7500
395.421870 0.7520 0.7550 0.7580 0.7590 0.7600
402.068866 0.7630 0.7640 0.7640 0.7660 0.7660
408.715861 0.7640 0.7640 0.7640 0.7640 0.7630
415.362857 0.7630 0.7630 0.7630 0.7620 0.7620
422.009853 0.7620 0.7600 0.7600 0.7600 0.7600
428.656848 0.7600 0.7600 0.7600 0.7600 0.7620
435.303844 0.7620 0.7630 0.7660 0.7700 0.7710
441.950840 0.7800 0.7840 0.7880 0.7940 0.7980
448.597835 0.8030 0.8070 0.8120 0.8180 0.8220
455.244831 0.8220 0.8260 0.8270 0.8280 0.8300
461.891827 0.8310 0.8320 0.8320 0.8340 0.8360
468.538822 0.8390 0.8440 0.8500 0.8510 0.8520
475.185818 0.8540 0.8580 0.8600 0.8620 0.8640
481.832814 0.8670 0.8680 0.8700 0.8720 0.8740
488.479809 0.8750 0.8750 0.8770 0.8780 0.8790
495.126805 0.8790 0.8810 0.8820 0.8830 0.8850
501.773801 0.8860 0.8870 0.8890 0.8890 0.8900
508.420796 0.8910 0.8930 0.8940 0.8940 0.8970
515.067792 0.8970 0.8980 0.8990 0.9010 0.9010
521.714788 0.9020 0.9020 0.9050 0.9050 0.9050
528.361783 0.9050 0.9050 0.9060 0.9060 0.9060
535.008779 0.9060 0.9060 0.9070 0.9070 0.9070
541.655775 0.9070 0.9070 0.9070 0.9090 0.9090
548.302770 0.9090 0.9090 0.9090 0.9090 0.9100
554.949766 0.9100 0.9100 0.9100 0.9100 0.9100
561.596762 0.9100 0.9100 0.9090 0.9090 0.9090
568.243757 0.9070 0.9070 0.9060 0.9050 0.9030
574.890753 0.9020 0.9010 0.8970 0.8940 0.8860
581.537749 0.8810 0.8750 0.8710 0.8600 0.8420
588.184744 0.8081 0.7033 0.6392 0.5743 0.5133
594.831740 0.4410 0.4030 0.3640 0.3640 0.4139
601.478736 0.4579 0.4590 0.4849 0.5099 0.5558
608.125731 0.5720 0.6000 0.6240 0.6470 0.6650
614.772727 0.6840 0.6990 0.7110 0.7229 0.7329
621.419723 0.7360 0.7240 0.6950 0.6530 0.6141
628.066718 0.5801 0.5640 0.5640 0.5839 0.6039
634.713714 0.6470 0.6680 0.7230 0.7630 0.8019
641.360710 0.8639 0.8660 0.8740 0.8830 0.8989
648.007705 0.9070 0.9140 0.9230 0.9270 0.9290
654.654701 0.9290 0.9300 0.9310 0.9330 0.9340
661.301697 0.9340 0.9370 0.9380 0.9390 0.9390
667.948692 0.9390 0.9390 0.9390 0.9410 0.9420
674.595688 0.9420 0.9430 0.9430 0.9430 0.9420
681.242684 0.9380 0.9290 0.9230 0.9190 0.9180
687.889679 0.9190 0.9230 0.9270 0.9330 0.9380
694.536675 0.9390 0.9420 0.9460 0.9500 0.9570
701.183671 0.9590 0.9610 0.9610 0.9610 0.9620
707.830666 0.9620 0.9620 0.9620 0.9620 0.9620
714.477662 0.9630 0.9650 0.9660 0.9660 0.9670
721.124658 0.9690 0.9700 0.9700 0.9700 0.9700
727.771653 0.9710 0.9710 0.9730 0.9740 0.9740
734.418649 0.9750 0.9770 0.9770 0.9770 0.9770
741.065645 0.9770 0.9770 0.9770 0.9770 0.9770
747.712640 0.9770 0.9780 0.9780 0.9780 0.9780
754.359636 0.9780 0.9780 0.9780 0.9780 0.9780
761.006631 0.9780 0.9780 0.9780 0.9780 0.9780
767.653627 0.9780 0.9780 0.9780 0.9790 0.9790
774.300623 0.9790 0.9790 0.9780 0.9780 0.9780
780.947618 0.9780 0.9780 0.9780 0.9780 0.9790
787.594614 0.9790 0.9790 0.9790 0.9810 0.9810
794.241610 0.9810 0.9810 0.9810 0.9810 0.9820
800.888605 0.9830 0.9850 0.9860 0.9860 0.9860
807.535601 0.9860 0.9860 0.9860 0.9870 0.9870
814.182597 0.9870 0.9870 0.9860 0.9860 0.9870
820.829592 0.9870 0.9870 0.9870 0.9890 0.9890
827.476588 0.9890 0.9870 0.9870 0.9870 0.9860
834.123584 0.9860 0.9860 0.9850 0.9850 0.9830
840.770579 0.9790 0.9780 0.9780 0.9780 0.9790
847.417575 0.9790 0.9790 0.9790 0.9790 0.9790
854.064571 0.9790 0.9810 0.9820 0.9820 0.9830
860.711566 0.9830 0.9850 0.9850 0.9850 0.9850
867.358562 0.9850 0.9850 0.9850 0.9850 0.9830
874.005558 0.9830 0.9830 0.9830 0.9830 0.9830
880.652553 0.9830 0.9830 0.9850 0.9830 0.9830
887.299549 0.9830 0.9820 0.9820 0.9820 0.9810
893.946545 0.9810 0.9790 0.9780 0.9770 0.9770
900.593540 0.9750 0.9750 0.9750 0.9750 0.9750
907.240536 0.9740 0.9740 0.9740 0.9740 0.9710
913.887532 0.9710 0.9710 0.9710 0.9710 0.9710
920.534527 0.9700 0.9700 0.9690 0.9670 0.9660
927.181523 0.9650 0.9630 0.9630 0.9620 0.9610
933.828519 0.9590 0.9580 0.9570 0.9550 0.9540
940.475514 0.9530 0.9510 0.9510 0.9500 0.9470
947.122510 0.9460 0.9430 0.9410 0.9370 0.9330
953.769506 0.9310 0.9270 0.9230 0.9190 0.9130
960.416501 0.9030 0.8910 0.8810 0.8601 0.8272
967.063497 0.7950 0.7920 0.7590 0.7590 0.7820
973.710493 0.8179 0.8389 0.8520 0.8620 0.8660
980.357488 0.8710 0.8720 0.8720 0.8720 0.8720
987.004484 0.8710 0.8700 0.8620 0.8520 0.8391
993.651480 0.8270 0.8160 0.8070 0.8030 0.7860
1000.298475 0.7740 0.7560 0.7440 0.7211 0.7120
1006.945471 0.7030 0.6990 0.6890 0.6800 0.6650
1013.592467 0.6490 0.6430 0.6320 0.6131 0.6060
1020.239462 0.5920 0.5730 0.5530 0.5320 0.5200
1026.886458 0.5010 0.4810 0.4391 0.4151 0.4011
1033.533454 0.3820 0.3710 0.3550 0.3350 0.3160
1040.180449 0.2990 0.2830 0.2640 0.2500 0.2400
1046.827445 0.2310 0.2210 0.2080 0.1920 0.1830
1053.474441 0.1790 0.1750 0.1690 0.1680 0.1610
1060.121436 0.1590 0.1530 0.1490 0.1440 0.1410
1066.768432 0.1390 0.1330 0.1290 0.1270 0.1210
1073.415428 0.1200 0.1180 0.1180 0.1180 0.1180
1080.062423 0.1200 0.1210 0.1210 0.1220 0.1240
1086.709419 0.1280 0.1310 0.1370 0.1410 0.1430
1093.356415 0.1440 0.1480 0.1490 0.1530 0.1590
1100.003410 0.1640 0.1720 0.1790 0.1840 0.1920
1106.650406 0.1990 0.2040 0.2080 0.2200 0.2310
1113.297402 0.2390 0.2480 0.2500 0.2630 0.2700
1119.944397 0.2780 0.2980 0.3150 0.3260 0.3320
1126.591393 0.3420 0.3500 0.3670 0.3810 0.3900
1133.238389 0.4010 0.4090 0.4180 0.4220 0.4369
1139.885384 0.4490 0.4550 0.4610 0.4630 0.4660
1146.532380 0.4690 0.4710 0.4740 0.4750 0.4740
1153.179376 0.4620 0.4580 0.4500 0.4450 0.4270
1159.826371 0.4170 0.4070 0.3990 0.3890 0.3780
1166.473367 0.3750 0.3710 0.3680 0.3600 0.3590
1173.120363 0.3580 0.3590 0.3640 0.3710 0.3830
1179.767358 0.3991 0.4230 0.4490 0.4610 0.4700
1186.414354 0.4780 0.4950 0.5140 0.5329 0.5499
1193.061350 0.5690 0.5850 0.6010 0.6140 0.6240
1199.708345 0.6470 0.6710 0.6770 0.6910 0.6960
1206.355341 0.7010 0.7090 0.7150 0.7230 0.7320
1213.002337 0.7410 0.7500 0.7550 0.7620 0.7799
1219.649332 0.7870 0.8020 0.8070 0.8260 0.8320
1226.296328 0.8400 0.8460 0.8560 0.8640 0.8720
1232.943324 0.8820 0.8890 0.8900 0.8940 0.9010
1239.590319 0.9030 0.9100 0.9140 0.9190 0.9210
1246.237315 0.9210 0.9230 0.9230 0.9270 0.9300
1252.884311 0.9310 0.9330 0.9340 0.9390 0.9390
1259.531306 0.9410 0.9460 0.9490 0.9500 0.9500
1266.178302 0.9500 0.9500 0.9500 0.9500 0.9510
1272.825298 0.9530 0.9530 0.9540 0.9540 0.9540
1279.472293 0.9540 0.9550 0.9570 0.9570 0.9580
1286.119289 0.9580 0.9590 0.9590 0.9590 0.9610
1292.766285 0.9610 0.9610 0.9610 0.9610 0.9610
1299.413280 0.9610 0.9590 0.9590 0.9590 0.9580
1306.060276 0.9570 0.9570 0.9550 0.9550 0.9530
1312.707272 0.9530 0.9510 0.9510 0.9500 0.9490
1319.354267 0.9490 0.9500 0.9510 0.9510 0.9510
1326.001263 0.9500 0.9500 0.9500 0.9490 0.9490
1332.648259 0.9470 0.9460 0.9430 0.9430 0.9420
1339.295254 0.9420 0.9410 0.9390 0.9380 0.9370
1345.942250 0.9340 0.9330 0.9310 0.9310 0.9300
1352.589246 0.9270 0.9230 0.9220 0.9210 0.9210
1359.236241 0.9190 0.9140 0.9110 0.9090 0.9070
1365.883237 0.9060 0.9030 0.9020 0.8970 0.8910
1372.530233 0.8860 0.8830 0.8810 0.8790 0.8740
1379.177228 0.8710 0.8660 0.8590 0.8510 0.8460
1385.824224 0.8430 0.8400 0.8310 0.8240 0.8190
1392.471220 0.8080 0.7990 0.7950 0.7920 0.7860
1399.118215 0.7840 0.7790 0.7700 0.7630 0.7580
1405.765211 0.7550 0.7540 0.7520 0.7520 0.7520
1412.412207 0.7520 0.7540 0.7550 0.7550 0.7580
1419.059202 0.7590 0.7640 0.7670 0.7680 0.7740
1425.706198 0.7760 0.7800 0.7820 0.7830 0.7900
1432.353194 0.7940 0.7990 0.8020 0.8030 0.8040
1439.000189 0.8100 0.8120 0.8200 0.8240 0.8270
1445.647185 0.8300 0.8310 0.8340 0.8390 0.8420
1452.294181 0.8480 0.8500 0.8540 0.8560 0.8600
1458.941176 0.8630 0.8670 0.8710 0.8770 0.8810
1465.588172 0.8820 0.8850 0.8900 0.8910 0.8990
1472.235168 0.9020 0.9030 0.9060 0.9110 0.9130
1478.882163 0.9140 0.9150 0.9170 0.9190 0.9210
1485.529159 0.9220 0.9230 0.9250 0.9260 0.9300
1492.176155 0.9310 0.9330 0.9330 0.9330 0.9340
1498.823150 0.9370 0.9390 0.9420 0.9430 0.9460
1505.470146 0.9460 0.9470 0.9470 0.9490 0.9490
1512.117142 0.9500 0.9500 0.9510 0.9510 0.9510
1518.764137 0.9530 0.9530 0.9530 0.9530 0.9530
1525.411133 0.9530 0.9530 0.9530 0.9530 0.9530
1532.058129 0.9530 0.9530 0.9540 0.9540 0.9540
1538.705124 0.9540 0.9540 0.9540 0.9540 0.9540
1545.352120 0.9550 0.9550 0.9550 0.9550 0.9550
1551.999116 0.9550 0.9570 0.9570 0.9570 0.9570
1558.646111 0.9570 0.9570 0.9570 0.9570 0.9570
1565.293107 0.9570 0.9550 0.9550 0.9550 0.9550
1571.940103 0.9570 0.9570 0.9570 0.9570 0.9550
1578.587098 0.9540 0.9540 0.9530 0.9530 0.9530
1585.234094 0.9510 0.9450 0.9420 0.9420 0.9390
1591.881090 0.9310 0.9250 0.9230 0.9210 0.9190
1598.528085 0.9140 0.9100 0.9030 0.9020 0.8990
1605.175081 0.8980 0.8940 0.8930 0.8900 0.8890
1611.822077 0.8860 0.8850 0.8830 0.8830 0.8830
1618.469072 0.8850 0.8850 0.8860 0.8860 0.8870
1625.116068 0.8890 0.8910 0.8930 0.8950 0.9010
1631.763064 0.9030 0.9050 0.9090 0.9110 0.9130
1638.410059 0.9140 0.9190 0.9220 0.9260 0.9300
1645.057055 0.9310 0.9310 0.9330 0.9340 0.9350
1651.704051 0.9380 0.9390 0.9410 0.9420 0.9430
1658.351046 0.9450 0.9490 0.9500 0.9510 0.9510
1664.998042 0.9530 0.9540 0.9540 0.9570 0.9580
1671.645038 0.9590 0.9590 0.9620 0.9620 0.9620
1678.292033 0.9610 0.9610 0.9590 0.9580 0.9580
1684.939029 0.9590 0.9620 0.9650 0.9690 0.9710
1691.586025 0.9730 0.9730 0.9740 0.9750 0.9750
1698.233020 0.9740 0.9740 0.9740 0.9740 0.9730
1704.880016 0.9730 0.9740 0.9740 0.9740 0.9750
1711.527012 0.9750 0.9750 0.9750 0.9770 0.9770
1718.174007 0.9770 0.9790 0.9810 0.9820 0.9820
1724.821003 0.9810 0.9810 0.9810 0.9790 0.9780
1731.467999 0.9780 0.9780 0.9780 0.9780 0.9780
1738.114994 0.9780 0.9780 0.9780 0.9780 0.9790
1744.761990 0.9790 0.9810 0.9810 0.9810 0.9810
1751.408986 0.9810 0.9810 0.9810 0.9810 0.9810
1758.055981 0.9810 0.9810 0.9810 0.9810 0.9810
1764.702977 0.9820 0.9820 0.9830 0.9830 0.9850
1771.349973 0.9850 0.9830 0.9830 0.9830 0.9830
1777.996968 0.9830 0.9830 0.9820 0.9820 0.9820
1784.643964 0.9820 0.9820 0.9820 0.9820 0.9830
1791.290960 0.9830 0.9830 0.9830 0.9830 0.9830
1797.937955 0.9830 0.9830 0.9850 0.9860 0.9860
1804.584951 0.9860 0.9860 0.9860 0.9860 0.9860
1811.231947 0.9830 0.9830 0.9830 0.9830 0.9830
1817.878942 0.9830 0.9830 0.9860 0.9860 0.9860
1824.525938 0.9860 0.9860 0.9860 0.9860 0.9860
1831.172934 0.9860 0.9860 0.9850 0.9850 0.9850
1837.819929 0.9850 0.9850 0.9850 0.9850 0.9850
1844.466925 0.9850 0.9850 0.9850 0.9850 0.9850
1851.113921 0.9850 0.9850 0.9850 0.9850 0.9850
1857.760916 0.9850 0.9850 0.9850 0.9850 0.9850
1864.407912 0.9850 0.9830 0.9830 0.9830 0.9830
1871.054908 0.9830 0.9830 0.9830 0.9830 0.9830
1877.701903 0.9830 0.9830 0.9830 0.9830 0.9830
1884.348899 0.9830 0.9830 0.9830 0.9830 0.9830
1890.995894 0.9830 0.9830 0.9830 0.9830 0.9830
1897.642890 0.9830 0.9830 0.9830 0.9830 0.9830
1904.289886 0.9830 0.9830 0.9830 0.9830 0.9820
1910.936881 0.9820 0.9820 0.9820 0.9810 0.9810
1917.583877 0.9810 0.9810 0.9810 0.9790 0.9790
1924.230873 0.9790 0.9790 0.9790 0.9790 0.9790
1930.877868 0.9790 0.9790 0.9790 0.9790 0.9790
1937.524864 0.9790 0.9790 0.9790 0.9790 0.9790
1944.171860 0.9790 0.9790 0.9790 0.9790 0.9790
1950.818855 0.9790 0.9790 0.9790 0.9790 0.9790
1957.465851 0.9790 0.9790 0.9780 0.9780 0.9780
1964.112847 0.9780 0.9780 0.9780 0.9780 0.9770
1970.759842 0.9770 0.9770 0.9750 0.9750 0.9750
1977.406838 0.9740 0.9740 0.9740 0.9740 0.9740
1984.053834 0.9740 0.9740 0.9740 0.9740 0.9740
1990.700829 0.9740 0.9740 0.9740 0.9740 0.9740
1997.347825 0.9740 0.9740 0.9740 0.9735 0.9730
2003.994821 0.9730 0.9730 0.9730 0.9730 0.9730
2010.641816 0.9730 0.9730 0.9730 0.9730 0.9730
2017.288812 0.9730 0.9730 0.9730 0.9730 0.9730
2023.935808 0.9730 0.9730 0.9730 0.9730 0.9730
2030.582803 0.9720 0.9710 0.9710 0.9710 0.9710
2037.229799 0.9710 0.9710 0.9710 0.9710 0.9710
2043.876795 0.9710 0.9710 0.9710 0.9710 0.9710
2050.523790 0.9710 0.9710 0.9710 0.9710 0.9710
2057.170786 0.9719 0.9729 0.9730 0.9730 0.9735
2063.817782 0.9740 0.9745 0.9750 0.9750 0.9750
2070.464777 0.9750 0.9750 0.9750 0.9750 0.9750
2077.111773 0.9750 0.9750 0.9750 0.9745 0.9740
2083.758769 0.9740 0.9740 0.9740 0.9740 0.9740
2090.405764 0.9740 0.9740 0.9740 0.9740 0.9740
2097.052760 0.9740 0.9740 0.9744 0.9749 0.9759
2103.699756 0.9769 0.9770 0.9770 0.9770 0.9770
2110.346751 0.9770 0.9770 0.9761 0.9751 0.9750
2116.993747 0.9750 0.9750 0.9750 0.9750 0.9750
2123.640743 0.9750 0.9750 0.9750 0.9750 0.9750
2130.287738 0.9750 0.9750 0.9750 0.9750 0.9750
2136.934734 0.9750 0.9750 0.9746 0.9741 0.9740
2143.581730 0.9740 0.9740 0.9740 0.9744 0.9749
2150.228725 0.9750 0.9750 0.9746 0.9741 0.9740
2156.875721 0.9740 0.9740 0.9740 0.9740 0.9740
2163.522717 0.9740 0.9740 0.9740 0.9740 0.9740
2170.169712 0.9740 0.9744 0.9749 0.9758 0.9768
2176.816708 0.9770 0.9770 0.9774 0.9779 0.9784
2183.463704 0.9789 0.9790 0.9790 0.9790 0.9790
2190.110699 0.9786 0.9781 0.9780 0.9780 0.9780
2196.757695 0.9780 0.9780 0.9780 0.9780 0.9780
2203.404691 0.9784 0.9789 0.9790 0.9790 0.9790
2210.051686 0.9790 0.9790 0.9790 0.9790 0.9790
2216.698682 0.9790 0.9790 0.9790 0.9790 0.9790
2223.345678 0.9790 0.9790 0.9790 0.9790 0.9790
2229.992673 0.9790 0.9790 0.9790 0.9790 0.9790
2236.639669 0.9790 0.9790 0.9790 0.9790 0.9790
2243.286665 0.9790 0.9790 0.9790 0.9790 0.9790
2249.933660 0.9790 0.9790 0.9790 0.9790 0.9790
2256.580656 0.9790 0.9790 0.9790 0.9790 0.9790
2263.227652 0.9790 0.9790 0.9790 0.9787 0.9782
2269.874647 0.9780 0.9780 0.9780 0.9780 0.9780
2276.521643 0.9780 0.9790 0.9805 0.9810 0.9810
2283.168639 0.9804 0.9794 0.9790 0.9790 0.9787
2289.815634 0.9782 0.9780 0.9780 0.9780 0.9780
2296.462630 0.9783 0.9788 0.9796 0.9806 0.9813
2303.109626 0.9818 0.9820 0.9820 0.9820 0.9820
2309.756621 0.9817 0.9812 0.9801 0.9786 0.9780
2316.403617 0.9780 0.9777 0.9772 0.9770 0.9770
2323.050613 0.9770 0.9770 0.9770 0.9770 0.9764
2329.697608 0.9754 0.9750 0.9750 0.9747 0.9742
2336.344604 0.9737 0.9732 0.9724 0.9714 0.9710
2342.991600 0.9710 0.9710 0.9710 0.9710 0.9710
2349.638595 0.9710 0.9710 0.9710 0.9710 0.9710
2356.285591 0.9710 0.9710 0.9710 0.9710 0.9710
2362.932587 0.9715 0.9725 0.9730 0.9730 0.9733
2369.579582 0.9738 0.9740 0.9740 0.9743 0.9748
2376.226578 0.9750 0.9750 0.9755 0.9765 0.9773
2382.873574 0.9778 0.9780 0.9780 0.9783 0.9788
2389.520569 0.9790 0.9790 0.9790 0.9790 0.9790
2396.167565 0.9790 0.9790 0.9790 0.9787 0.9782
2402.814561 0.9780 0.9780 0.9777 0.9772 0.9770
2409.461556 0.9770 0.9770 0.9770 0.9770 0.9770
2416.108552 0.9770 0.9770 0.9770 0.9770 0.9772
2422.755548 0.9777 0.9780 0.9780 0.9780 0.9780
2429.402543 0.9780 0.9780 0.9780 0.9780 0.9782
2436.049539 0.9787 0.9790 0.9790 0.9790 0.9790
2442.696535 0.9790 0.9790 0.9790 0.9790 0.9790
2449.343530 0.9790 0.9790 0.9790 0.9790 0.9790
2455.990526 0.9790 0.9790 0.9790 0.9790 0.9790
2462.637522 0.9790 0.9790 0.9790 0.9790 0.9790
2469.284517 0.9790 0.9790 0.9790 0.9790 0.9790
2475.931513 0.9790 0.9790 0.9790 0.9790 0.9790
2482.578509 0.9790 0.9790 0.9790 0.9790 0.9790
2489.225504 0.9790 0.9790 0.9790 0.9790 0.9790
2495.872500 0.9790 0.9790 0.9790 0.9790 0.9790
2502.519496 0.9790 0.9790 0.9790 0.9790 0.9790
2509.166491 0.9790 0.9790 0.9790 0.9790 0.9790
2515.813487 0.9790 0.9790 0.9790 0.9790 0.9790
2522.460483 0.9790 0.9790 0.9790 0.9790 0.9790
2529.107478 0.9790 0.9790 0.9790 0.9790 0.9790
2535.754474 0.9790 0.9790 0.9790 0.9790 0.9790
2542.401470 0.9790 0.9790 0.9790 0.9790 0.9790
2549.048465 0.9790 0.9790 0.9790 0.9790 0.9790
2555.695461 0.9790 0.9790 0.9790 0.9790 0.9790
2562.342457 0.9790 0.9790 0.9790 0.9790 0.9790
2568.989452 0.9790 0.9790 0.9790 0.9790 0.9790
2575.636448 0.9790 0.9790 0.9790 0.9790 0.9790
2582.283444 0.9790 0.9790 0.9790 0.9790 0.9790
2588.930439 0.9790 0.9790 0.9790 0.9790 0.9790
2595.577435 0.9790 0.9790 0.9790 0.9790 0.9790
2602.224431 0.9790 0.9790 0.9789 0.9784 0.9780
2608.871426 0.9780 0.9780 0.9780 0.9780 0.9780
2615.518422 0.9780 0.9780 0.9780 0.9780 0.9780
2622.165418 0.9780 0.9780 0.9780 0.9780 0.9780
2628.812413 0.9779 0.9774 0.9770 0.9770 0.9768
2635.459409 0.9758 0.9750 0.9750 0.9750 0.9750
2642.106405 0.9750 0.9750 0.9750 0.9750 0.9750
2648.753400 0.9750 0.9752 0.9762 0.9770 0.9770
2655.400396 0.9770 0.9770 0.9770 0.9770 0.9770
2662.047392 0.9770 0.9770 0.9770 0.9771 0.9776
2668.694387 0.9780 0.9780 0.9780 0.9780 0.9780
2675.341383 0.9780 0.9780 0.9780 0.9780 0.9780
2681.988379 0.9780 0.9780 0.9780 0.9780 0.9780
2688.635374 0.9780 0.9780 0.9780 0.9780 0.9780
2695.282370 0.9780 0.9780 0.9780 0.9780 0.9780
2701.929366 0.9780 0.9780 0.9780 0.9780 0.9780
2708.576361 0.9780 0.9780 0.9780 0.9780 0.9779
2715.223357 0.9774 0.9770 0.9770 0.9770 0.9770
2721.870353 0.9770 0.9770 0.9770 0.9770 0.9770
2728.517348 0.9770 0.9769 0.9759 0.9750 0.9750
2735.164344 0.9750 0.9750 0.9750 0.9745 0.9740
2741.811340 0.9740 0.9740 0.9740 0.9740 0.9740
2748.458335 0.9740 0.9740 0.9740 0.9740 0.9740
2755.105331 0.9740 0.9740 0.9740 0.9740 0.9740
2761.752327 0.9740 0.9740 0.9740 0.9740 0.9740
2768.399322 0.9745 0.9750 0.9750 0.9750 0.9750
2775.046318 0.9750 0.9750 0.9750 0.9745 0.9740
2781.693314 0.9740 0.9740 0.9740 0.9740 0.9735
2788.340309 0.9730 0.9730 0.9730 0.9730 0.9730
2794.987305 0.9730 0.9730 0.9730 0.9730 0.9730
2801.634301 0.9730 0.9730 0.9730 0.9730 0.9730
2808.281296 0.9730 0.9730 0.9735 0.9740 0.9740
2814.928292 0.9740 0.9740 0.9740 0.9740 0.9740
2821.575288 0.9735 0.9730 0.9720 0.9710 0.9710
2828.222283 0.9710 0.9710 0.9710 0.9710 0.9710
2834.869279 0.9705 0.9700 0.9700 0.9700 0.9695
2841.516275 0.9690 0.9680 0.9670 0.9660 0.9650
2848.163270 0.9641 0.9631 0.9625 0.9620 0.9620
2854.810266 0.9620 0.9615 0.9610 0.9600 0.9591
2861.457262 0.9590 0.9590 0.9590 0.9590 0.9590
2868.104257 0.9590 0.9599 0.9609 0.9610 0.9610
2874.751253 0.9615 0.9620 0.9620 0.9620 0.9620
2881.398249 0.9620 0.9620 0.9620 0.9620 0.9620
2888.045244 0.9620 0.9620 0.9620 0.9620 0.9620
2894.692240 0.9620 0.9616 0.9611 0.9610 0.9610
2901.339236 0.9601 0.9591 0.9586 0.9580 0.9567
2907.986231 0.9552 0.9550 0.9550 0.9546 0.9541
2914.633227 0.9527 0.9512 0.9501 0.9491 0.9473
2921.280223 0.9453 0.9437 0.9422 0.9416 0.9411
2927.927218 0.9401 0.9392 0.9390 0.9390 0.9390
2934.574214 0.9390 0.9399 0.9409 0.9419 0.9429
2941.221210 0.9447 0.9467 0.9483 0.9498 0.9500
2947.868205 0.9500 0.9504 0.9509 0.9518 0.9528
2954.515201 0.9530 0.9530 0.9534 0.9539 0.9544
2961.162197 0.9549 0.9558 0.9568 0.9574 0.9579
2967.809192 0.9580 0.9580 0.9584 0.9589 0.9590
2974.456188 0.9590 0.9598 0.9608 0.9610 0.9610
2981.103184 0.9614 0.9619 0.9620 0.9620 0.9620
2987.750179 0.9620 0.9620 0.9620 0.9620 0.9620
2994.397175 0.9624 0.9629 0.9638 0.9648 0.9650
3001.044171 0.9650 0.9650 0.9650 0.9650 0.9650
3007.691166 0.9642 0.9632 0.9630 0.9630 0.9630
3014.338162 0.9630 0.9630 0.9630 0.9630 0.9630
3020.985157 0.9626 0.9621 0.9620 0.9620 0.9620
3027.632153 0.9620 0.9620 0.9620 0.9616 0.9611
3034.279149 0.9610 0.9610 0.9610 0.9610 0.9610
3040.926144 0.9610 0.9610 0.9610 0.9610 0.9610
3047.573140 0.9610 0.9610 0.9610 0.9610 0.9610
3054.220136 0.9610 0.9610 0.9610 0.9613 0.9618
3060.867131 0.9620 0.9620 0.9620 0.9620 0.9620
3067.514127 0.9620 0.9617 0.9612 0.9610 0.9610
3074.161123 0.9610 0.9610 0.9610 0.9610 0.9610
3080.808118 0.9610 0.9610 0.9610 0.9610 0.9610
3087.455114 0.9610 0.9610 0.9610 0.9610 0.9603
3094.102110 0.9593 0.9590 0.9590 0.9587 0.9582
3100.749105 0.9580 0.9580 0.9580 0.9580 0.9577
3107.396101 0.9572 0.9570 0.9570 0.9564 0.9554
3114.043097 0.9550 0.9550 0.9550 0.9550 0.9550
3120.690092 0.9550 0.9547 0.9542 0.9540 0.9540
3127.337088 0.9537 0.9532 0.9530 0.9530 0.9530
3133.984084 0.9530 0.9530 0.9530 0.9530 0.9530
3140.631079 0.9530 0.9530 0.9530 0.9530 0.9530
3147.278075 0.9530 0.9530 0.9530 0.9524 0.9514
3153.925071 0.9510 0.9510 0.9507 0.9502 0.9500
3160.572066 0.9500 0.9497 0.9492 0.9490 0.9490
3167.219062 0.9490 0.9490 0.9484 0.9474 0.9470
3173.866058 0.9470 0.9467 0.9462 0.9457 0.9452
3180.513053 0.9444 0.9434 0.9427 0.9422 0.9417
3187.160049 0.9412 0.9405 0.9395 0.9387 0.9382
3193.807045 0.9377 0.9372 0.9370 0.9370 0.9365
3200.454040 0.9355 0.9347 0.9342 0.9337 0.9332
3207.101036 0.9325 0.9315 0.9307 0.9302 0.9300
3213.748032 0.9300 0.9297 0.9292 0.9285 0.9275
3220.395027 0.9270 0.9270 0.9268 0.9262 0.9260
3227.042023 0.9260 0.9257 0.9253 0.9250 0.9250
3233.689019 0.9245 0.9235 0.9228 0.9223 0.9220
3240.336014 0.9220 0.9218 0.9213 0.9205 0.9195
3246.983010 0.9190 0.9190 0.9188 0.9183 0.9178
3253.630006 0.9173 0.9165 0.9155 0.9150 0.9150
3260.277001 0.9148 0.9143 0.9138 0.9133 0.9130
3266.923997 0.9130 0.9126 0.9116 0.9108 0.9103
3273.570993 0.9098 0.9093 0.9086 0.9076 0.9068
3280.217988 0.9063 0.9058 0.9053 0.9046 0.9036
3286.864984 0.9028 0.9023 0.9020 0.9020 0.9018
3293.511980 0.9013 0.9004 0.8989 0.8974 0.8959
3300.158975 0.8946 0.8936 0.8924 0.8909 0.8898
3306.805971 0.8893 0.8882 0.8862 0.8846 0.8836
3313.452967 0.8828 0.8823 0.8814 0.8799 0.8780
3320.099962 0.8756 0.8732 0.8713 0.8693 0.8673
3326.746958 0.8655 0.8640 0.8625 0.8609 0.8596
3333.393954 0.8586 0.8573 0.8553 0.8533 0.8513
3340.040949 0.8493 0.8473 0.8449 0.8419 0.8393
3346.687945 0.8373 0.8353 0.8333 0.8313 0.8293
3353.334941 0.8273 0.8253 0.8232 0.8206 0.8183
3359.981936 0.8163 0.8143 0.8123 0.8103 0.8083
3366.628932 0.8062 0.8037 0.8007 0.7967 0.7927
3373.275928 0.7887 0.7860 0.7860 0.7851 0.7821
3379.922923 0.7791 0.7761 0.7731 0.7701 0.7677
3386.569919 0.7667 0.7654 0.7634 0.7611 0.7581
3393.216915 0.7548 0.7508 0.7470 0.7435 0.7396
3399.863910 0.7346 0.7306 0.7291 0.7276 0.7261
3406.510906 0.7247 0.7237 0.7226 0.7211 0.7199
3413.157902 0.7194 0.7186 0.7171 0.7153 0.7128
3419.804897 0.7102 0.7072 0.7045 0.7025 0.7007
3426.451893 0.6997 0.6986 0.6971 0.6956 0.6941
3433.098889 0.6929 0.6924 0.6917 0.6901 0.6887
3439.745884 0.6878 0.6866 0.6851 0.6839 0.6834
3446.392880 0.6828 0.6818 0.6810 0.6810 0.6809
3453.039876 0.6804 0.6800 0.6800 0.6801 0.6806
3459.686871 0.6810 0.6810 0.6812 0.6822 0.6830
3466.333867 0.6830 0.6831 0.6836 0.6840 0.6840
3472.980863 0.6843 0.6858 0.6871 0.6876 0.6883
3479.627858 0.6898 0.6911 0.6916 0.6923 0.6938
3486.274854 0.6951 0.6956 0.6961 0.6966 0.6972
3492.921850 0.6982 0.6992 0.7002 0.7013 0.7028
3499.568845 0.7046 0.7081 0.7112 0.7122 0.7133
3506.215841 0.7153 0.7171 0.7181 0.7191 0.7196
3512.862837 0.7202 0.7217 0.7231 0.7241 0.7253
3519.509832 0.7273 0.7292 0.7307 0.7321 0.7326
3526.156828 0.7333 0.7353 0.7372 0.7387 0.7401
3532.803824 0.7406 0.7412 0.7432 0.7452 0.7467
3539.450819 0.7482 0.7497 0.7512 0.7532 0.7553
3546.097815 0.7578 0.7602 0.7617 0.7633 0.7658
3552.744811 0.7683 0.7713 0.7742 0.7767 0.7794
3559.391806 0.7834 0.7873 0.7908 0.7942 0.7972
3566.038802 0.8001 0.8011 0.8022 0.8052 0.8081
3572.685798 0.8096 0.8112 0.8137 0.8163 0.8198
3579.332793 0.8232 0.8267 0.8302 0.8327 0.8352
3585.979789 0.8387 0.8420 0.8425 0.8431 0.8451
3592.626785 0.8471 0.8506 0.8541 0.8571 0.8603
3599.273780 0.8653 0.8702 0.8742 0.8782 0.8816
3605.920776 0.8851 0.8876 0.8900 0.8915 0.8931
3612.567772 0.8950 0.8970 0.8980 0.8991 0.9025
3619.214767 0.9060 0.9080 0.9100 0.9115 0.9130
3625.861763 0.9135 0.9140 0.9145 0.9150 0.9170
3632.508759 0.9190 0.9205 0.9220 0.9255 0.9290
3639.155754 0.9300 0.9310 0.9330 0.9350 0.9370
3645.802750 0.9390 0.9400 0.9410 0.9415 0.9420
3652.449746 0.9425 0.9430 0.9440 0.9450 0.9455
3659.096741 0.9460 0.9465 0.9470 0.9480 0.9490
3665.743737 0.9495 0.9500 0.9500 0.9500 0.9505
3672.390733 0.9510 0.9519 0.9529 0.9530 0.9530
3679.037728 0.9535 0.9540 0.9540 0.9540 0.9540
3685.684724 0.9540 0.9540 0.9540 0.9540 0.9540
3692.331720 0.9540 0.9540 0.9545 0.9550 0.9550
3698.978715 0.9550 0.9550 0.9550 0.9550 0.9550
3705.625711 0.9550 0.9550 0.9550 0.9550 0.9550
3712.272707 0.9550 0.9550 0.9550 0.9550 0.9550
3718.919702 0.9550 0.9550 0.9550 0.9550 0.9550
3725.566698 0.9550 0.9550 0.9550 0.9550 0.9550
3732.213694 0.9550 0.9550 0.9550 0.9550 0.9550
3738.860689 0.9550 0.9550 0.9550 0.9550 0.9550
3745.507685 0.9550 0.9550 0.9550 0.9550 0.9550
3752.154681 0.9550 0.9550 0.9550 0.9550 0.9550
3758.801676 0.9550 0.9550 0.9546 0.9541 0.9540
3765.448672 0.9540 0.9540 0.9540 0.9540 0.9540
3772.095668 0.9540 0.9540 0.9540 0.9540 0.9540
3778.742663 0.9540 0.9540 0.9540 0.9540 0.9540
3785.389659 0.9540 0.9540 0.9540 0.9540 0.9540
3792.036655 0.9540 0.9540 0.9540 0.9540 0.9540
3798.683650 0.9540 0.9540 0.9540 0.9540 0.9540
3805.330646 0.9540 0.9540 0.9540 0.9540 0.9540
3811.977642 0.9540 0.9540 0.9540 0.9540 0.9540
3818.624637 0.9540 0.9540 0.9540 0.9540 0.9540
3825.271633 0.9540 0.9540 0.9540 0.9540 0.9544
3831.918629 0.9549 0.9550 0.9550 0.9558 0.9568
3838.565624 0.9570 0.9570 0.9570 0.9570 0.9570
3845.212620 0.9570 0.9563 0.9553 0.9546 0.9541
3851.859616 0.9540 0.9540 0.9540 0.9540 0.9540
3858.506611 0.9540 0.9540 0.9540 0.9540 0.9540
3865.153607 0.9540 0.9540 0.9540 0.9540 0.9540
3871.800603 0.9540 0.9540 0.9540 0.9540 0.9540
3878.447598 0.9540 0.9540 0.9540 0.9540 0.9540
3885.094594 0.9540 0.9540 0.9540 0.9540 0.9540
3891.741590 0.9540 0.9540 0.9540 0.9540 0.9540
3898.388585 0.9540 0.9540 0.9540 0.9540 0.9540
3905.035581 0.9543 0.9548 0.9550 0.9550 0.9557
3911.682577 0.9567 0.9570 0.9570 0.9570 0.9570
3918.329572 0.9570 0.9570 0.9570 0.9570 0.9570
3924.976568 0.9570 0.9564 0.9554 0.9550 0.9550
3931.623564 0.9550 0.9550 0.9547 0.9542 0.9540
3938.270559 0.9540 0.9540 0.9540 0.9540 0.9540
3944.917555 0.9540 0.9540 0.9540 0.9540 0.9540
3951.564551 0.9540 0.9540 0.9540 0.9540 0.9540
3958.211546 0.9540 0.9540 0.9537 0.9532 0.9530
3964.858542 0.9530 0.9530 0.9530 0.9530 0.9530
3971.505538 0.9530 0.9530 0.9530 0.9530 0.9530
3978.152533 0.9530 0.9530 0.9530 0.9530 0.9530
3984.799529 0.9530 0.9530
##END=
