##TITLE=POTASSIUM DICHLOROISOCYANURATE
$$ MONSANTO CHEM. CO.
##JCAMP-DX=4.24
##DATA TYPE=INFRARED SPECTRUM
##CLASS=COBLENTZ
##ORIGIN=WYANDOTTE CHEMICALS CORP., WYANDOTTE, MICHIGAN, USA
##OWNER=COBLENTZ SOCIETY
Collection (C) 2018 copyright by the U.S. Secretary of Commerce
on behalf of the United States of America. All rights reserved.
##DATE=Not specified, most likely prior to 1970
##MOLFORM=C3 Cl2 N3 O3 K
##MP=240-250 C DECOMPOSES
##SOURCE REFERENCE=COBLENTZ NO. 2805
##$NIST ID=B6002805
##$NIST SOURCE=COBLENTZ
##$NIST IMAGE=cob2805
##SPECTROMETER/DATA SYSTEM=Not specified, most likely a prism, grating, or hybrid spectrometer.
##STATE=SOLID (MINERAL OIL MULL)
##PATH LENGTH=
$$SPECTRAL CONTAMINATION DUE TO OIL AROUND 2900 CM^-^1
##SAMPLING PROCEDURE=TRANSMISSION
##RESOLUTION=4
##DATA PROCESSING=DIGITIZED BY NIST FROM HARD COPY
##XUNITS=MICROMETERS
##YUNITS=TRANSMITTANCE
##XFACTOR=1.000000
##YFACTOR=1
##DELTAX=000.006635
##FIRSTX=2.04
##LASTX=15.9995
##FIRSTY=0.692
##MAXX=15.9995
##MINX=2.04
##MAXY=0.973
##MINY=0.051
##NPOINTS=2105
##XYDATA=(X++(Y..Y))
2.040000 0.6920 0.6930 0.6950 0.6980 0.7020
2.073191 0.7020 0.7030 0.7030 0.7050 0.7050
2.106000 0.7070 0.7070 0.7070 0.7080 0.7100
2.139191 0.7120 0.7120 0.7130 0.7130 0.7130
2.173000 0.7130 0.7130 0.7130 0.7130 0.7130
2.206191 0.7130 0.7150 0.7180 0.7200 0.7230
2.239000 0.7230 0.7250 0.7250 0.7250 0.7280
2.272191 0.7300 0.7320 0.7330 0.7350 0.7350
2.305000 0.7370 0.7370 0.7380 0.7380 0.7400
2.338191 0.7400 0.7420 0.7430 0.7450 0.7470
2.372000 0.7470 0.7480 0.7500 0.7500 0.7520
2.405191 0.7520 0.7520 0.7520 0.7520 0.7530
2.438000 0.7550 0.7570 0.7570 0.7600 0.7600
2.471191 0.7580 0.7530 0.7530 0.7530 0.7570
2.504000 0.7600 0.7630 0.7680 0.7720 0.7730
2.537191 0.7780 0.7800 0.7830 0.7880 0.7880
2.571000 0.7770 0.7700 0.7670 0.7650 0.7650
2.604191 0.7680 0.7830 0.7870 0.7930 0.7950
2.637000 0.7930 0.7920 0.7900 0.7920 0.7920
2.670191 0.7930 0.7950 0.7950 0.7930 0.7920
2.703000 0.7900 0.7900 0.7900 0.7900 0.7900
2.736191 0.7900 0.7900 0.7900 0.7880 0.7880
2.770000 0.7870 0.7850 0.7830 0.7800 0.7720
2.803191 0.7700 0.7700 0.7700 0.7700 0.7700
2.836000 0.7700 0.7700 0.7700 0.7700 0.7680
2.869191 0.7670 0.7670 0.7650 0.7630 0.7630
2.902000 0.7630 0.7620 0.7620 0.7600 0.7600
2.935191 0.7580 0.7580 0.7580 0.7580 0.7600
2.969000 0.7600 0.7600 0.7600 0.7600 0.7600
3.002191 0.7620 0.7630 0.7650 0.7680 0.7680
3.035000 0.7680 0.7680 0.7680 0.7680 0.7700
3.068191 0.7720 0.7720 0.7750 0.7770 0.7770
3.101000 0.7770 0.7770 0.7770 0.7780 0.7780
3.134191 0.7800 0.7800 0.7800 0.7800 0.7800
3.168000 0.7820 0.7820 0.7820 0.7820 0.7830
3.201191 0.7830 0.7830 0.7830 0.7830 0.7820
3.234000 0.7800 0.7780 0.7780 0.7750 0.7730
3.267191 0.7700 0.7680 0.7620 0.7500 0.7370
3.300000 0.7230 0.7020 0.6620 0.5870 0.5390
3.333191 0.4900 0.4090 0.2990 0.2260 0.1860
3.367000 0.1730 0.1640 0.1510 0.1390 0.1380
3.400191 0.1410 0.1710 0.2110 0.2410 0.2760
3.433000 0.3020 0.3220 0.3310 0.3420 0.3420
3.466191 0.3410 0.3070 0.3060 0.3070 0.3410
3.500000 0.3890 0.4400 0.5840 0.6350 0.6900
3.533191 0.7400 0.7650 0.7780 0.7820 0.7920
3.566000 0.8010 0.8060 0.8100 0.8100 0.8110
3.599191 0.8130 0.8160 0.8200 0.8250 0.8280
3.632000 0.8280 0.8280 0.8280 0.8280 0.8280
3.665191 0.8280 0.8230 0.8180 0.8180 0.8200
3.699000 0.8210 0.8230 0.8280 0.8330 0.8380
3.732191 0.8400 0.8410 0.8430 0.8450 0.8480
3.765000 0.8500 0.8560 0.8600 0.8610 0.8610
3.798191 0.8630 0.8650 0.8680 0.8680 0.8680
3.831000 0.8700 0.8700 0.8710 0.8730 0.8750
3.864191 0.8760 0.8760 0.8760 0.8760 0.8780
3.898000 0.8780 0.8780 0.8780 0.8800 0.8800
3.931191 0.8810 0.8810 0.8810 0.8810 0.8810
3.964000 0.8800 0.8800 0.8800 0.8780 0.8780
3.997191 0.8800 0.8800 0.8800 0.8810 0.8810
4.030000 0.8810 0.8810 0.8810 0.8800 0.8780
4.063191 0.8780 0.8730 0.8710 0.8700 0.8700
4.097000 0.8710 0.8730 0.8780 0.8800 0.8810
4.130191 0.8830 0.8850 0.8880 0.8900 0.8910
4.163000 0.8910 0.8930 0.8930 0.8930 0.8930
4.196191 0.8930 0.8910 0.8900 0.8880 0.8830
4.229000 0.8810 0.8760 0.8750 0.8750 0.8750
4.262191 0.8750 0.8750 0.8760 0.8830 0.8900
4.296000 0.8910 0.8930 0.8980 0.9000 0.9010
4.329191 0.9080 0.9110 0.9150 0.9200 0.9210
4.362000 0.9230 0.9230 0.9250 0.9250 0.9250
4.395191 0.9210 0.9200 0.9180 0.9150 0.9100
4.428000 0.9030 0.8950 0.8930 0.8930 0.8950
4.461191 0.8980 0.9010 0.9080 0.9130 0.9200
4.495000 0.9250 0.9310 0.9350 0.9350 0.9330
4.528191 0.9310 0.9310 0.9310 0.9330 0.9350
4.561000 0.9330 0.9310 0.9300 0.9280 0.9260
4.594191 0.9280 0.9300 0.9360 0.9410 0.9410
4.627000 0.9410 0.9400 0.9400 0.9380 0.9380
4.660191 0.9380 0.9400 0.9400 0.9400 0.9410
4.694000 0.9410 0.9430 0.9430 0.9450 0.9450
4.727191 0.9460 0.9480 0.9480 0.9460 0.9450
4.760000 0.9410 0.9410 0.9380 0.9380 0.9360
4.793191 0.9360 0.9360 0.9380 0.9380 0.9400
4.827000 0.9430 0.9460 0.9480 0.9500 0.9500
4.860191 0.9500 0.9500 0.9500 0.9510 0.9530
4.893000 0.9550 0.9560 0.9600 0.9610 0.9630
4.926191 0.9650 0.9650 0.9650 0.9650 0.9630
4.959000 0.9630 0.9630 0.9610 0.9610 0.9600
4.992191 0.9600 0.9580 0.9550 0.9530 0.9510
5.026000 0.9510 0.9510 0.9510 0.9510 0.9510
5.059191 0.9510 0.9510 0.9510 0.9530 0.9550
5.092000 0.9580 0.9610 0.9650 0.9650 0.9660
5.125191 0.9680 0.9700 0.9700 0.9710 0.9710
5.158000 0.9730 0.9730 0.9730 0.9730 0.9730
5.191191 0.9730 0.9730 0.9730 0.9730 0.9730
5.225000 0.9730 0.9730 0.9730 0.9730 0.9710
5.258191 0.9710 0.9710 0.9710 0.9710 0.9700
5.291000 0.9680 0.9660 0.9660 0.9680 0.9680
5.324191 0.9700 0.9700 0.9680 0.9660 0.9660
5.357000 0.9650 0.9630 0.9630 0.9630 0.9630
5.390191 0.9610 0.9600 0.9560 0.9530 0.9510
5.424000 0.9500 0.9410 0.9400 0.9400 0.9460
5.457191 0.9510 0.9510 0.9510 0.9510 0.9480
5.490000 0.9480 0.9460 0.9460 0.9460 0.9450
5.523191 0.9430 0.9400 0.9380 0.9300 0.9250
5.556000 0.9150 0.9050 0.9000 0.8980 0.8980
5.589191 0.8960 0.8930 0.8880 0.8800 0.8680
5.623000 0.8560 0.8500 0.8400 0.8260 0.8160
5.656191 0.8080 0.7970 0.7850 0.7670 0.7580
5.689000 0.7480 0.7350 0.7130 0.6830 0.6400
5.722191 0.5790 0.5390 0.4990 0.3940 0.3160
5.755000 0.2270 0.2260 0.2270 0.3390 0.3610
5.788191 0.3760 0.3760 0.3790 0.3820 0.3840
5.822000 0.3840 0.3840 0.3820 0.3590 0.3290
5.855191 0.2990 0.2810 0.2560 0.2140 0.1740
5.888000 0.1280 0.0980 0.0790 0.0780 0.0780
5.921191 0.0780 0.0780 0.0780 0.0780 0.0790
5.955000 0.0810 0.0830 0.0880 0.0960 0.1090
5.988191 0.1280 0.1310 0.1310 0.1310 0.1280
6.021000 0.1280 0.1240 0.1210 0.1130 0.0890
6.054191 0.0680 0.0660 0.0660 0.0690 0.0880
6.087000 0.1010 0.1140 0.1390 0.1390 0.1330
6.120191 0.1160 0.1040 0.0960 0.0860 0.0730
6.154000 0.0580 0.0540 0.0530 0.0530 0.0560
6.187191 0.0640 0.0690 0.0730 0.1230 0.1660
6.220000 0.1890 0.2190 0.2510 0.2760 0.2940
6.253191 0.3120 0.3310 0.3470 0.3660 0.3840
6.286000 0.4040 0.4220 0.4400 0.4650 0.4840
6.319191 0.5340 0.5500 0.5650 0.5720 0.5770
6.353000 0.5800 0.5890 0.6030 0.6150 0.6320
6.386191 0.6430 0.6550 0.6680 0.6750 0.6770
6.419000 0.6770 0.6770 0.6770 0.6780 0.6820
6.452191 0.6880 0.6930 0.6980 0.7000 0.7100
6.485000 0.7130 0.7120 0.7030 0.6950 0.6870
6.518191 0.6850 0.6850 0.6870 0.6930 0.6970
6.552000 0.6930 0.6880 0.6770 0.6630 0.6480
6.585191 0.6420 0.6400 0.6420 0.6430 0.6580
6.618000 0.6650 0.6750 0.6850 0.6930 0.7080
6.651191 0.7280 0.7420 0.7470 0.7500 0.7550
6.684000 0.7600 0.7680 0.7700 0.7700 0.7630
6.717191 0.7500 0.7470 0.7420 0.7370 0.7270
6.751000 0.7220 0.7080 0.6750 0.6320 0.6000
6.784191 0.5900 0.5750 0.5590 0.5370 0.5320
6.817000 0.5300 0.5320 0.5400 0.5440 0.5490
6.850191 0.5570 0.5640 0.5700 0.5770 0.5840
6.883000 0.5900 0.5970 0.6000 0.6030 0.6030
6.916191 0.6030 0.6020 0.5700 0.5270 0.4870
6.950000 0.4450 0.3670 0.2890 0.2390 0.1940
6.983191 0.1910 0.1940 0.2090 0.2270 0.2360
7.016000 0.2390 0.2420 0.2390 0.2320 0.2010
7.049191 0.1990 0.2010 0.2490 0.2810 0.3090
7.082000 0.3310 0.3610 0.4040 0.4520 0.4850
7.115191 0.5450 0.5640 0.5750 0.5890 0.6050
7.149000 0.6330 0.6600 0.6770 0.6870 0.6920
7.182191 0.6930 0.6930 0.6920 0.6850 0.6730
7.215000 0.6600 0.6500 0.6430 0.6300 0.6270
7.248191 0.6250 0.6270 0.6470 0.6750 0.7000
7.282000 0.7200 0.7300 0.7330 0.7380 0.7380
7.315191 0.7400 0.7450 0.7620 0.7770 0.7880
7.348000 0.7920 0.7920 0.7920 0.7920 0.7900
7.381191 0.7880 0.7850 0.7830 0.7750 0.7680
7.414000 0.7600 0.7550 0.7520 0.7480 0.7470
7.447191 0.7470 0.7480 0.7530 0.7530 0.7580
7.481000 0.7580 0.7600 0.7620 0.7650 0.7650
7.514191 0.7630 0.7630 0.7620 0.7600 0.7580
7.547000 0.7530 0.7480 0.7420 0.7350 0.7320
7.580191 0.7250 0.7150 0.6900 0.6650 0.6370
7.613000 0.6100 0.5800 0.5500 0.5200 0.5050
7.646191 0.4890 0.4550 0.3840 0.3190 0.2610
7.680000 0.2120 0.1690 0.1340 0.1080 0.0860
7.713191 0.0710 0.0630 0.0590 0.0580 0.0580
7.746000 0.0560 0.0560 0.0510 0.0510 0.0510
7.779191 0.0510 0.0510 0.0510 0.0560 0.0640
7.812000 0.0710 0.0810 0.0910 0.1060 0.1240
7.845191 0.1410 0.1610 0.1810 0.1980 0.2190
7.879000 0.2410 0.2710 0.2990 0.3220 0.3660
7.912191 0.3910 0.4100 0.4390 0.4590 0.4800
7.945000 0.5270 0.5490 0.5640 0.5770 0.5850
7.978191 0.5940 0.6000 0.6100 0.6220 0.6370
8.011000 0.6420 0.6500 0.6550 0.6600 0.6680
8.044191 0.6720 0.6720 0.6680 0.6430 0.6070
8.078000 0.5790 0.5440 0.5100 0.5020 0.4920
8.111191 0.4890 0.4920 0.5900 0.6030 0.6100
8.144000 0.6150 0.6180 0.6270 0.6400 0.6550
8.177191 0.6670 0.6770 0.6850 0.6950 0.7030
8.210000 0.7080 0.7170 0.7280 0.7370 0.7400
8.243191 0.7420 0.7430 0.7470 0.7500 0.7530
8.277000 0.7550 0.7570 0.7570 0.7580 0.7580
8.310191 0.7620 0.7630 0.7650 0.7670 0.7670
8.343000 0.7680 0.7700 0.7720 0.7720 0.7720
8.376191 0.7750 0.7770 0.7780 0.7800 0.7800
8.409000 0.7830 0.7870 0.7900 0.7920 0.7950
8.442191 0.7980 0.8000 0.8010 0.8030 0.8050
8.476000 0.8050 0.8080 0.8080 0.8080 0.8080
8.509191 0.8060 0.8050 0.8030 0.8010 0.7980
8.542000 0.7900 0.7700 0.7680 0.7680 0.7780
8.575191 0.7830 0.7850 0.7880 0.7930 0.7980
8.609000 0.8000 0.8010 0.8000 0.7980 0.7980
8.642191 0.8000 0.8050 0.8110 0.8180 0.8250
8.675000 0.8300 0.8310 0.8380 0.8400 0.8400
8.708191 0.8410 0.8450 0.8480 0.8480 0.8510
8.741000 0.8530 0.8530 0.8510 0.8480 0.8460
8.774191 0.8450 0.8450 0.8450 0.8450 0.8480
8.808000 0.8510 0.8530 0.8580 0.8610 0.8660
8.841191 0.8680 0.8700 0.8700 0.8710 0.8730
8.874000 0.8730 0.8730 0.8730 0.8710 0.8700
8.907191 0.8700 0.8700 0.8700 0.8700 0.8700
8.940000 0.8680 0.8680 0.8660 0.8650 0.8630
8.973191 0.8630 0.8610 0.8610 0.8610 0.8630
9.007000 0.8650 0.8660 0.8680 0.8680 0.8680
9.040191 0.8660 0.8650 0.8630 0.8610 0.8600
9.073000 0.8580 0.8560 0.8560 0.8560 0.8560
9.106191 0.8580 0.8630 0.8630 0.8610 0.8580
9.139000 0.8560 0.8560 0.8530 0.8530 0.8530
9.172191 0.8530 0.8510 0.8510 0.8510 0.8510
9.206000 0.8510 0.8510 0.8510 0.8510 0.8510
9.239191 0.8510 0.8510 0.8510 0.8500 0.8500
9.272000 0.8500 0.8500 0.8480 0.8480 0.8480
9.305191 0.8480 0.8480 0.8480 0.8460 0.8430
9.338000 0.8400 0.8380 0.8350 0.8310 0.8300
9.371191 0.8250 0.8200 0.8150 0.8080 0.7980
9.405000 0.7880 0.7800 0.7750 0.7720 0.7650
9.438191 0.7570 0.7500 0.7450 0.7400 0.7370
9.471000 0.7300 0.7250 0.7180 0.7130 0.7080
9.504191 0.7070 0.7050 0.7070 0.7070 0.7100
9.537000 0.7130 0.7180 0.7270 0.7350 0.7450
9.570191 0.7550 0.7600 0.7680 0.7750 0.7870
9.604000 0.7980 0.8030 0.8050 0.8100 0.8150
9.637191 0.8200 0.8210 0.8230 0.8250 0.8260
9.670000 0.8280 0.8300 0.8330 0.8360 0.8380
9.703191 0.8410 0.8430 0.8450 0.8460 0.8480
9.736000 0.8480 0.8480 0.8500 0.8510 0.8510
9.769191 0.8530 0.8530 0.8530 0.8550 0.8560
9.803000 0.8560 0.8580 0.8600 0.8600 0.8610
9.836191 0.8610 0.8650 0.8660 0.8680 0.8680
9.869000 0.8680 0.8680 0.8680 0.8680 0.8660
9.902191 0.8660 0.8660 0.8660 0.8660 0.8660
9.936000 0.8660 0.8680 0.8680 0.8700 0.8700
9.969191 0.8710 0.8710 0.8710 0.8730 0.8700
10.002000 0.8700 0.8700 0.8710 0.8710 0.8700
10.035191 0.8680 0.8680 0.8680 0.8700 0.8700
10.068000 0.8710 0.8710 0.8710 0.8710 0.8700
10.101191 0.8660 0.8660 0.8650 0.8630 0.8610
10.135000 0.8610 0.8600 0.8600 0.8600 0.8600
10.168191 0.8600 0.8580 0.8580 0.8580 0.8580
10.201000 0.8580 0.8600 0.8600 0.8610 0.8610
10.234191 0.8600 0.8600 0.8600 0.8600 0.8580
10.267000 0.8580 0.8580 0.8600 0.8600 0.8600
10.300191 0.8600 0.8600 0.8600 0.8610 0.8630
10.334000 0.8630 0.8610 0.8610 0.8600 0.8600
10.367191 0.8600 0.8610 0.8630 0.8650 0.8660
10.400000 0.8660 0.8650 0.8650 0.8630 0.8630
10.433191 0.8630 0.8630 0.8650 0.8650 0.8650
10.466000 0.8650 0.8650 0.8650 0.8650 0.8630
10.499191 0.8630 0.8650 0.8650 0.8650 0.8650
10.533000 0.8650 0.8650 0.8650 0.8650 0.8650
10.566191 0.8650 0.8650 0.8650 0.8650 0.8650
10.599000 0.8660 0.8660 0.8660 0.8660 0.8660
10.632191 0.8660 0.8660 0.8660 0.8660 0.8660
10.665000 0.8650 0.8650 0.8630 0.8630 0.8610
10.698191 0.8610 0.8600 0.8600 0.8600 0.8600
10.732000 0.8600 0.8610 0.8610 0.8610 0.8610
10.765191 0.8600 0.8600 0.8580 0.8560 0.8560
10.798000 0.8550 0.8550 0.8550 0.8550 0.8560
10.831191 0.8560 0.8580 0.8580 0.8600 0.8600
10.864000 0.8600 0.8600 0.8600 0.8610 0.8610
10.897191 0.8610 0.8610 0.8630 0.8630 0.8610
10.931000 0.8600 0.8600 0.8600 0.8600 0.8600
10.964191 0.8660 0.8660 0.8660 0.8660 0.8660
10.997000 0.8650 0.8650 0.8650 0.8660 0.8680
11.030191 0.8680 0.8700 0.8700 0.8700 0.8700
11.064000 0.8700 0.8700 0.8710 0.8700 0.8700
11.097191 0.8700 0.8700 0.8700 0.8710 0.8710
11.130000 0.8730 0.8730 0.8750 0.8750 0.8750
11.163191 0.8750 0.8750 0.8750 0.8750 0.8750
11.196000 0.8750 0.8750 0.8750 0.8760 0.8760
11.229191 0.8760 0.8760 0.8750 0.8750 0.8750
11.263000 0.8760 0.8760 0.8760 0.8760 0.8760
11.296191 0.8780 0.8780 0.8780 0.8780 0.8800
11.329000 0.8800 0.8800 0.8800 0.8800 0.8800
11.362191 0.8800 0.8800 0.8800 0.8800 0.8810
11.395000 0.8810 0.8810 0.8810 0.8830 0.8830
11.428191 0.8830 0.8830 0.8830 0.8830 0.8830
11.462000 0.8830 0.8830 0.8830 0.8830 0.8830
11.495191 0.8830 0.8830 0.8830 0.8830 0.8850
11.528000 0.8850 0.8850 0.8830 0.8810 0.8810
11.561191 0.8810 0.8810 0.8810 0.8810 0.8810
11.594000 0.8810 0.8810 0.8810 0.8810 0.8810
11.627191 0.8810 0.8810 0.8810 0.8810 0.8810
11.661000 0.8830 0.8830 0.8860 0.8860 0.8860
11.694191 0.8860 0.8860 0.8860 0.8860 0.8860
11.727000 0.8850 0.8850 0.8810 0.8810 0.8810
11.760191 0.8810 0.8810 0.8810 0.8780 0.8780
11.793000 0.8780 0.8800 0.8800 0.8850 0.8860
11.826191 0.8860 0.8860 0.8810 0.8810 0.8810
11.860000 0.8810 0.8810 0.8860 0.8860 0.8860
11.893191 0.8850 0.8850 0.8830 0.8810 0.8810
11.926000 0.8810 0.8830 0.8850 0.8860 0.8860
11.959191 0.8850 0.8850 0.8850 0.8850 0.8830
11.992000 0.8830 0.8830 0.8830 0.8830 0.8830
12.025191 0.8830 0.8830 0.8830 0.8830 0.8830
12.059000 0.8830 0.8810 0.8830 0.8830 0.8830
12.092191 0.8830 0.8830 0.8810 0.8810 0.8810
12.125000 0.8800 0.8780 0.8780 0.8780 0.8780
12.158191 0.8780 0.8780 0.8800 0.8800 0.8800
12.191000 0.8800 0.8800 0.8810 0.8810 0.8810
12.224191 0.8800 0.8800 0.8780 0.8780 0.8760
12.258000 0.8760 0.8750 0.8730 0.8730 0.8730
12.291191 0.8710 0.8710 0.8710 0.8710 0.8710
12.324000 0.8710 0.8710 0.8700 0.8680 0.8680
12.357191 0.8700 0.8710 0.8760 0.8780 0.8800
12.391000 0.8810 0.8810 0.8800 0.8780 0.8760
12.424191 0.8760 0.8760 0.8760 0.8760 0.8750
12.457000 0.8750 0.8750 0.8750 0.8760 0.8760
12.490191 0.8760 0.8760 0.8760 0.8760 0.8760
12.523000 0.8760 0.8760 0.8760 0.8760 0.8760
12.556191 0.8760 0.8760 0.8760 0.8750 0.8710
12.590000 0.8700 0.8660 0.8630 0.8560 0.8560
12.623191 0.8530 0.8460 0.8350 0.8210 0.8060
12.656000 0.7870 0.7650 0.7400 0.7150 0.6930
12.689191 0.6570 0.6300 0.6080 0.5840 0.5690
12.722000 0.5600 0.5590 0.5590 0.5690 0.5970
12.755191 0.6230 0.6520 0.6770 0.7020 0.7230
12.789000 0.7430 0.7570 0.7650 0.7750 0.7800
12.822191 0.7850 0.7870 0.7880 0.7900 0.7930
12.855000 0.7950 0.7970 0.7980 0.8000 0.8010
12.888191 0.8010 0.8050 0.8080 0.8180 0.8260
12.921000 0.8310 0.8330 0.8350 0.8350 0.8360
12.954191 0.8380 0.8400 0.8410 0.8410 0.8430
12.988000 0.8430 0.8430 0.8430 0.8430 0.8410
13.021191 0.8410 0.8400 0.8380 0.8310 0.8250
13.054000 0.8130 0.7970 0.7780 0.7600 0.7430
13.087191 0.7250 0.6970 0.6950 0.6950 0.6980
13.120000 0.7130 0.7330 0.7500 0.7630 0.7800
13.153191 0.7920 0.8030 0.8100 0.8110 0.8110
13.187000 0.8110 0.8110 0.8110 0.8110 0.8100
13.220191 0.8080 0.8080 0.8080 0.8080 0.8060
13.253000 0.8060 0.8030 0.8000 0.7980 0.7930
13.286191 0.7780 0.7720 0.7670 0.7620 0.7570
13.319000 0.7480 0.7400 0.7300 0.7130 0.6950
13.352191 0.6700 0.6370 0.5950 0.5550 0.5090
13.386000 0.4920 0.4740 0.4370 0.4090 0.3890
13.419191 0.3710 0.3690 0.3710 0.4140 0.4540
13.452000 0.4950 0.5770 0.6020 0.6170 0.6180
13.485191 0.6180 0.6100 0.5850 0.5540 0.5300
13.518000 0.5090 0.4990 0.4890 0.4870 0.4890
13.551191 0.5250 0.5490 0.5790 0.6070 0.6350
13.585000 0.6620 0.6870 0.7100 0.7320 0.7530
13.618191 0.7720 0.7880 0.7900 0.7980 0.8100
13.651000 0.8160 0.8160 0.8180 0.8180 0.8200
13.684191 0.8200 0.8210 0.8210 0.8200 0.8200
13.718000 0.8200 0.8180 0.8130 0.8080 0.8030
13.751191 0.7970 0.7920 0.7800 0.7680 0.7520
13.784000 0.7230 0.6980 0.6580 0.6200 0.5820
13.817191 0.5470 0.5150 0.5000 0.4850 0.4570
13.850000 0.4340 0.4140 0.4020 0.3940 0.3840
13.883191 0.3720 0.3610 0.3520 0.3410 0.3370
13.917000 0.3360 0.3370 0.3440 0.3560 0.3720
13.950191 0.3920 0.4190 0.4490 0.4840 0.5540
13.983000 0.5890 0.6180 0.6430 0.6570 0.6680
14.016191 0.6750 0.7330 0.7420 0.7550 0.7730
14.049000 0.7800 0.7930 0.7980 0.8010 0.8080
14.082191 0.8110 0.8180 0.8210 0.8260 0.8260
14.116000 0.8310 0.8350 0.8380 0.8380 0.8400
14.149191 0.8400 0.8410 0.8410 0.8410 0.8430
14.182000 0.8430 0.8450 0.8450 0.8450 0.8450
14.215191 0.8430 0.8430 0.8410 0.8400 0.8330
14.248000 0.8300 0.8260 0.8210 0.8180 0.8130
14.281191 0.8060 0.7970 0.7880 0.7800 0.7730
14.315000 0.7670 0.7600 0.7550 0.7500 0.7450
14.348191 0.7420 0.7420 0.7420 0.7420 0.7430
14.381000 0.7470 0.7500 0.7530 0.7580 0.7730
14.414191 0.7820 0.7850 0.7900 0.7950 0.7980
14.447000 0.8060 0.8130 0.8160 0.8180 0.8210
14.480191 0.8260 0.8280 0.8300 0.8310 0.8330
14.514000 0.8350 0.8350 0.8360 0.8380 0.8380
14.547191 0.8380 0.8400 0.8430 0.8450 0.8450
14.580000 0.8450 0.8450 0.8450 0.8430 0.8410
14.613191 0.8410 0.8400 0.8400 0.8380 0.8380
14.646000 0.8380 0.8380 0.8380 0.8380 0.8380
14.679191 0.8360 0.8360 0.8360 0.8380 0.8400
14.713000 0.8410 0.8410 0.8410 0.8400 0.8400
14.746191 0.8380 0.8360 0.8350 0.8350 0.8330
14.779000 0.8330 0.8330 0.8330 0.8330 0.8330
14.812191 0.8330 0.8330 0.8300 0.8300 0.8280
14.845000 0.8280 0.8280 0.8300 0.8300 0.8300
14.878191 0.8300 0.8300 0.8280 0.8260 0.8250
14.912000 0.8230 0.8230 0.8230 0.8230 0.8250
14.945191 0.8250 0.8230 0.8230 0.8210 0.8200
14.978000 0.8180 0.8160 0.8130 0.8080 0.8010
15.011191 0.7950 0.7900 0.7830 0.7770 0.7670
15.045000 0.7600 0.7550 0.7530 0.7500 0.7480
15.078191 0.7480 0.7480 0.7500 0.7520 0.7520
15.111000 0.7550 0.7570 0.7600 0.7670 0.7750
15.144191 0.7800 0.7870 0.7920 0.7930 0.7930
15.177000 0.7950 0.7950 0.7930 0.7930 0.7920
15.210191 0.7900 0.7880 0.7880 0.7880 0.7880
15.244000 0.7870 0.7870 0.7870 0.7850 0.7850
15.277191 0.7850 0.7850 0.7830 0.7820 0.7800
15.310000 0.7780 0.7770 0.7750 0.7730 0.7720
15.343191 0.7700 0.7700 0.7680 0.7670 0.7650
15.376000 0.7650 0.7630 0.7630 0.7630 0.7620
15.409191 0.7570 0.7570 0.7550 0.7550 0.7520
15.443000 0.7520 0.7500 0.7480 0.7470 0.7450
15.476191 0.7450 0.7430 0.7420 0.7400 0.7400
15.509000 0.7380 0.7370 0.7330 0.7320 0.7320
15.542191 0.7320 0.7320 0.7300 0.7300 0.7300
15.575000 0.7280 0.7280 0.7280 0.7280 0.7280
15.608191 0.7280 0.7280 0.7280 0.7270 0.7270
15.642000 0.7250 0.7220 0.7200 0.7180 0.7150
15.675191 0.7120 0.7100 0.7080 0.7080 0.7070
15.708000 0.7050 0.7050 0.7030 0.7000 0.7000
15.741191 0.6980 0.6970 0.6950 0.6930 0.6930
15.774000 0.6930 0.6930 0.6930 0.6930 0.6930
15.807191 0.6930 0.6920 0.6920 0.6880 0.6880
15.841000 0.6880 0.6870 0.6870 0.6850 0.6800
15.874191 0.6780 0.6770 0.6730 0.6720 0.6700
15.907000 0.6700 0.6700 0.6700 0.6680 0.6680
15.940191 0.6680 0.6670 0.6670 0.6670 0.6650
15.973000 0.6650 0.6650 0.6650 0.6650 0.6650
##END=
