##TITLE=Malonic aicd,[(carboxyamino)oxy]-, triethyl ester
##JCAMP-DX=4.24
##DATA TYPE=INFRARED SPECTRUM
##CLASS=COBLENTZ III
##ORIGIN=SOUTHERN RESEARCH INSTITUTE, W.C. Coburn, Jr.
##OWNER=Copyright (C) 1987 by the Coblentz Society
Collection (C) 2018 copyright by the U.S. Secretary of Commerce
on behalf of the United States of America. All rights reserved.
##DATE=1957/03/28
##NAMES=diethyl 2-([(ethoxycarbonyl)amino]oxy)malonate
##MOLFORM=C10 H17 N O7
##SOURCE REFERENCE=COBLENTZ NO. 9217
##$NIST ID=B6009217
##$NIST SOURCE=COBLENTZ
##$NIST IMAGE=cob9217
##SPECTROMETER/DATA SYSTEM=PERKIN-ELMER 21 (GRATING)
##INSTRUMENT PARAMETERS=FILTER CHANGE AT 1075 CM^-^1
##STATE=LIQUID (NEAT)
##PATH LENGTH=CAPILLARY
##SAMPLING PROCEDURE=TRANSMISSION
##RESOLUTION=2
##DATA PROCESSING=DIGITIZED BY COBLENTZ SOCIETY (BATCH II) FROM HARD COPY (ADJUSTED \addcm-1\15-12-3\)
##XUNITS=1/CM
##YUNITS=TRANSMITTANCE
##XFACTOR=1.0
##YFACTOR=1
##DELTAX=1.002772
##FIRSTX=617.612
##LASTX=4012
##FIRSTY=0.7433
##MAXX=4012
##MINX=617.612
##MAXY=0.900835
##MINY=0.0695102
##NPOINTS=3386
##XYDATA=(X++(Y..Y))
617.612500 0.7433 0.7442 0.7454 0.7466 0.7479
622.626362 0.7493 0.7507 0.7522 0.7539 0.7555
627.640224 0.7573 0.7592 0.7611 0.7631 0.7656
632.654087 0.7682 0.7709 0.7745 0.7783 0.7816
637.667949 0.7848 0.7879 0.7908 0.7935 0.7962
642.681811 0.7988 0.8015 0.8040 0.8057 0.8073
647.695673 0.8090 0.8106 0.8122 0.8138 0.8154
652.709536 0.8171 0.8188 0.8203 0.8219 0.8234
657.723398 0.8250 0.8265 0.8278 0.8284 0.8290
662.737260 0.8295 0.8301 0.8307 0.8313 0.8318
667.751122 0.8340 0.8379 0.8419 0.8445 0.8463
672.764984 0.8480 0.8498 0.8517 0.8536 0.8561
677.778847 0.8590 0.8620 0.8658 0.8702 0.8740
682.792709 0.8770 0.8797 0.8820 0.8839 0.8857
687.806571 0.8873 0.8890 0.8911 0.8932 0.8952
692.820433 0.8966 0.8973 0.8977 0.8981 0.8985
697.834296 0.8988 0.8991 0.8994 0.8998 0.9001
702.848158 0.9001 0.9008 0.9003 0.8994 0.8986
707.862020 0.8975 0.8965 0.8958 0.8953 0.8947
712.875882 0.8941 0.8936 0.8931 0.8928 0.8927
717.889745 0.8926 0.8925 0.8923 0.8922 0.8923
722.903607 0.8925 0.8925 0.8927 0.8927 0.8929
727.917469 0.8930 0.8931 0.8932 0.8933 0.8934
732.931331 0.8935 0.8935 0.8934 0.8932 0.8930
737.945193 0.8929 0.8927 0.8925 0.8918 0.8902
742.959056 0.8884 0.8861 0.8836 0.8809 0.8777
747.972918 0.8746 0.8714 0.8681 0.8649 0.8616
752.986780 0.8583 0.8548 0.8507 0.8467 0.8427
758.000642 0.8386 0.8346 0.8305 0.8265 0.8224
763.014505 0.8183 0.8142 0.8100 0.8058 0.8016
768.028367 0.7973 0.7927 0.7881 0.7834 0.7784
773.042229 0.7724 0.7664 0.7585 0.7454 0.7309
778.056091 0.7132 0.6947 0.6816 0.6703 0.6532
783.069953 0.6461 0.6413 0.6377 0.6398 0.6419
788.083816 0.6505 0.6636 0.6767 0.6899 0.7016
793.097678 0.7069 0.7138 0.7239 0.7353 0.7461
798.111540 0.7579 0.7834 0.7959 0.8008 0.8052
803.125402 0.8092 0.8112 0.8131 0.8151 0.8170
808.139265 0.8188 0.8197 0.8206 0.8214 0.8223
813.153127 0.8230 0.8236 0.8242 0.8248 0.8254
818.166989 0.8260 0.8264 0.8268 0.8273 0.8278
823.180851 0.8299 0.8258 0.8244 0.8227 0.8210
828.194714 0.8190 0.8166 0.8143 0.8115 0.8080
833.208576 0.8045 0.8009 0.7969 0.7927 0.7886
838.222438 0.7842 0.7786 0.7730 0.7679 0.7629
843.236300 0.7577 0.7520 0.7475 0.7438 0.7400
848.250162 0.7354 0.7309 0.7294 0.7284 0.7280
853.264025 0.7253 0.7274 0.7283 0.7305 0.7347
858.277887 0.7382 0.7402 0.7408 0.7406 0.7402
863.291749 0.7398 0.7395 0.7391 0.7389 0.7388
868.305611 0.7388 0.7396 0.7432 0.7495 0.7578
873.319474 0.7679 0.7771 0.7856 0.7927 0.7996
878.333336 0.8065 0.8138 0.8197 0.8230 0.8244
883.347198 0.8250 0.8255 0.8256 0.8256 0.8256
888.361060 0.8255 0.8252 0.8249 0.8246 0.8240
893.374922 0.8234 0.8228 0.8222 0.8216 0.8210
898.388785 0.8204 0.8198 0.8192 0.8186 0.8181
903.402647 0.8175 0.8169 0.8163 0.8157 0.8151
908.416509 0.8146 0.8143 0.8140 0.8136 0.8133
913.430371 0.8130 0.8127 0.8124 0.8116 0.8101
918.444234 0.8064 0.8018 0.7982 0.7953 0.7926
923.458096 0.7904 0.7885 0.7869 0.7857 0.7845
928.471958 0.7833 0.7822 0.7810 0.7798 0.7786
933.485820 0.7774 0.7763 0.7752 0.7742 0.7732
938.499683 0.7722 0.7711 0.7701 0.7691 0.7681
943.513545 0.7669 0.7653 0.7635 0.7616 0.7581
948.527407 0.7537 0.7513 0.7501 0.7498 0.7497
953.541269 0.7495 0.7494 0.7493 0.7494 0.7496
958.555131 0.7498 0.7503 0.7516 0.7534 0.7551
963.568994 0.7566 0.7576 0.7585 0.7593 0.7597
968.582856 0.7600 0.7600 0.7595 0.7589 0.7581
973.596718 0.7571 0.7561 0.7548 0.7529 0.7504
978.610580 0.7468 0.7432 0.7398 0.7366 0.7334
983.624443 0.7304 0.7282 0.7261 0.7241 0.7226
988.638305 0.7216 0.7207 0.7198 0.7189 0.7181
993.652167 0.7174 0.7156 0.7094 0.7002 0.6911
998.666029 0.6819 0.6727 0.6636 0.6544 0.6453
1003.679891 0.6363 0.6283 0.6216 0.6138 0.6055
1008.693754 0.5966 0.5865 0.5775 0.5731 0.5687
1013.707616 0.5640 0.5593 0.5547 0.5507 0.5469
1018.721478 0.5428 0.5353 0.5197 0.5043 0.4888
1023.735340 0.4733 0.4578 0.4423 0.4269 0.4116
1028.749203 0.3998 0.3943 0.3913 0.3886 0.3885
1033.763065 0.3868 0.3893 0.3917 0.4060 0.4198
1038.776927 0.4335 0.4472 0.4610 0.4747 0.4883
1043.790789 0.5021 0.5158 0.5295 0.5433 0.5486
1048.804652 0.5525 0.5479 0.5469 0.5459 0.5446
1053.818514 0.5433 0.5391 0.5350 0.5313 0.5109
1058.832376 0.4758 0.4398 0.4039 0.3679 0.3320
1063.846238 0.2960 0.2601 0.2257 0.2159 0.2126
1068.860100 0.2134 0.2138 0.2151 0.2167 0.2186
1073.873963 0.2215 0.2246 0.2286 0.2372 0.2529
1078.887825 0.2696 0.2864 0.3032 0.3200 0.3367
1083.901687 0.3535 0.3703 0.3886 0.3965 0.3985
1088.915549 0.3984 0.3974 0.3945 0.3889 0.3827
1093.929412 0.3765 0.3703 0.3642 0.3580 0.3518
1098.943274 0.3479 0.3473 0.3546 0.3647 0.3750
1103.957136 0.3853 0.3993 0.4100 0.4172 0.4216
1108.970998 0.4249 0.4267 0.4279 0.4291 0.4304
1113.984860 0.4315 0.4327 0.4345 0.4377 0.4410
1118.998723 0.4428 0.4435 0.4437 0.4441 0.4439
1124.012585 0.4435 0.4434 0.4433 0.4426 0.4413
1129.026447 0.4398 0.4375 0.4346 0.4307 0.4262
1134.040309 0.4222 0.4187 0.4147 0.4098 0.4045
1139.054172 0.3975 0.3882 0.3803 0.3743 0.3686
1144.068034 0.3621 0.3546 0.3467 0.3339 0.3160
1149.081896 0.3010 0.2923 0.2866 0.2816 0.2779
1154.095758 0.2759 0.2738 0.2729 0.2738 0.2738
1159.109620 0.2740 0.2743 0.2747 0.2754 0.2763
1164.123483 0.2776 0.2797 0.2822 0.2856 0.2899
1169.137345 0.2950 0.3027 0.3112 0.3170 0.3200
1174.151207 0.3209 0.3222 0.3226 0.3205 0.3196
1179.165069 0.3184 0.3168 0.3139 0.3086 0.3023
1184.178932 0.2955 0.2861 0.2725 0.2597 0.2506
1189.192794 0.2424 0.2357 0.2303 0.2276 0.2259
1194.206656 0.2252 0.2254 0.2259 0.2272 0.2289
1199.220518 0.2319 0.2377 0.2491 0.2634 0.2777
1204.234381 0.2920 0.3153 0.3577 0.3742 0.3807
1209.248243 0.3868 0.3917 0.3958 0.3998 0.4042
1214.262105 0.4106 0.4188 0.4264 0.4311 0.4357
1219.275967 0.4402 0.4448 0.4487 0.4524 0.4562
1224.289829 0.4588 0.4614 0.4638 0.4653 0.4667
1229.303692 0.4674 0.4677 0.4698 0.4684 0.4684
1234.317554 0.4684 0.4683 0.4678 0.4672 0.4666
1239.331416 0.4660 0.4654 0.4648 0.4642 0.4637
1244.345278 0.4631 0.4625 0.4619 0.4611 0.4602
1249.359141 0.4591 0.4580 0.4570 0.4557 0.4540
1254.373003 0.4519 0.4492 0.4463 0.4429 0.4392
1259.386865 0.4354 0.4316 0.4279 0.4242 0.4206
1264.400727 0.4171 0.4140 0.4113 0.4087 0.4059
1269.414589 0.4030 0.4002 0.3976 0.3952 0.3929
1274.428452 0.3919 0.3923 0.3928 0.3934 0.3942
1279.442314 0.3951 0.3960 0.3963 0.3966 0.3978
1284.456176 0.3978 0.3976 0.3974 0.3972 0.3970
1289.470038 0.3965 0.3959 0.3952 0.3940 0.3926
1294.483901 0.3902 0.3867 0.3816 0.3754 0.3691
1299.497763 0.3626 0.3547 0.3456 0.3367 0.3288
1304.511625 0.3214 0.3140 0.3081 0.3021 0.2937
1309.525487 0.2847 0.2794 0.2734 0.2668 0.2591
1314.539350 0.2514 0.2413 0.2311 0.2207 0.2111
1319.553212 0.2016 0.1921 0.1822 0.1722 0.1621
1324.567074 0.1528 0.1464 0.1405 0.1347 0.1268
1329.580936 0.1197 0.1138 0.1102 0.1087 0.1078
1334.594798 0.1077 0.1078 0.1082 0.1085 0.1089
1339.608661 0.1107 0.1171 0.1245 0.1297 0.1337
1344.622523 0.1373 0.1403 0.1433 0.1475 0.1554
1349.636385 0.1838 0.2286 0.2738 0.3191 0.3644
1354.650247 0.4097 0.4576 0.4936 0.5089 0.5212
1359.664110 0.5337 0.5552 0.5814 0.5903 0.5923
1364.677972 0.5928 0.5915 0.5911 0.5901 0.5879
1369.691834 0.5785 0.5525 0.5229 0.4933 0.4637
1374.705696 0.4341 0.4044 0.3748 0.3452 0.3155
1379.719558 0.2860 0.2564 0.2255 0.1922 0.1913
1384.733421 0.1889 0.1918 0.1932 0.2055 0.2428
1389.747283 0.2803 0.3176 0.3550 0.3924 0.4297
1394.761145 0.4520 0.4580 0.4626 0.4650 0.4666
1399.775007 0.4671 0.4665 0.4655 0.4640 0.4606
1404.788870 0.4567 0.4496 0.4330 0.4144 0.3957
1409.802732 0.3771 0.3583 0.3434 0.3216 0.3111
1414.816594 0.3075 0.3066 0.3063 0.3045 0.3064
1419.830456 0.3107 0.3150 0.3225 0.3320 0.3416
1424.844319 0.3513 0.3611 0.3707 0.3804 0.3906
1429.858181 0.4035 0.4156 0.4291 0.4432 0.4542
1434.872043 0.4682 0.4842 0.4980 0.5454 0.5761
1439.885905 0.5786 0.5802 0.5789 0.5767 0.5760
1444.899767 0.5752 0.5743 0.5733 0.5711 0.5616
1449.913630 0.5472 0.5357 0.5184 0.5056 0.5047
1454.927492 0.5049 0.5063 0.5075 0.5117 0.5189
1459.941354 0.5272 0.5341 0.5359 0.5351 0.5347
1464.955216 0.5362 0.5365 0.5331 0.5326 0.5316
1469.969079 0.5240 0.5056 0.4918 0.4895 0.4896
1474.982941 0.4892 0.4945 0.5091 0.5164 0.5231
1479.996803 0.5298 0.5371 0.5460 0.5557 0.5644
1485.010665 0.5724 0.5804 0.5883 0.5963 0.6043
1490.024527 0.6123 0.6202 0.6282 0.6362 0.6441
1495.038390 0.6522 0.6630 0.6830 0.6976 0.7061
1500.052252 0.7168 0.7335 0.7464 0.7510 0.7539
1505.066114 0.7565 0.7587 0.7608 0.7629 0.7644
1510.079976 0.7658 0.7672 0.7685 0.7698 0.7711
1515.093839 0.7724 0.7737 0.7751 0.7765 0.7779
1520.107701 0.7794 0.7809 0.7824 0.7839 0.7854
1525.121563 0.7869 0.7884 0.7899 0.7913 0.7934
1530.135425 0.7954 0.7975 0.7995 0.8015 0.8023
1535.149288 0.8023 0.8024 0.8021 0.8020 0.8014
1540.163150 0.8010 0.7999 0.7986 0.7976 0.7968
1545.177012 0.7966 0.7966 0.7967 0.7967 0.7967
1550.190874 0.7967 0.7967 0.7967 0.7967 0.7967
1555.204736 0.7965 0.7946 0.7922 0.7894 0.7851
1560.218599 0.7801 0.7752 0.7719 0.7698 0.7685
1565.232461 0.7674 0.7665 0.7655 0.7647 0.7639
1570.246323 0.7604 0.7559 0.7512 0.7462 0.7419
1575.260185 0.7380 0.7341 0.7290 0.7197 0.7096
1580.274048 0.7018 0.6948 0.6881 0.6811 0.6701
1585.287910 0.6604 0.6537 0.6470 0.6391 0.6240
1590.301772 0.6105 0.6037 0.5971 0.5921 0.5886
1595.315634 0.5852 0.5811 0.5465 0.4980 0.4626
1600.329496 0.4323 0.4242 0.4186 0.4149 0.4114
1605.343359 0.4091 0.4083 0.4078 0.4078 0.4080
1610.357221 0.4093 0.4119 0.4204 0.4354 0.4459
1615.371083 0.4502 0.4534 0.4608 0.4769 0.4940
1620.384945 0.5092 0.5214 0.5318 0.5413 0.5509
1625.398808 0.5608 0.5705 0.5788 0.5864 0.5936
1630.412670 0.5999 0.6062 0.6125 0.6190 0.6256
1635.426532 0.6321 0.6386 0.6450 0.6507 0.6555
1640.440394 0.6602 0.6643 0.6671 0.6694 0.6714
1645.454256 0.6725 0.6732 0.6739 0.6743 0.6743
1650.468119 0.6742 0.6745 0.6747 0.6736 0.6732
1655.481981 0.6728 0.6725 0.6721 0.6714 0.6705
1660.495843 0.6689 0.6664 0.6629 0.6582 0.6534
1665.509705 0.6501 0.6469 0.6435 0.6398 0.6337
1670.523568 0.6234 0.6118 0.6002 0.5885 0.5769
1675.537430 0.5653 0.5537 0.5421 0.5305 0.5189
1680.551292 0.5084 0.4943 0.4756 0.4646 0.4456
1685.565154 0.4088 0.3705 0.3513 0.3262 0.3185
1690.579017 0.3103 0.3005 0.2900 0.2775 0.2604
1695.592879 0.2429 0.2286 0.2125 0.1915 0.1678
1700.606741 0.1498 0.1410 0.1333 0.1277 0.1209
1705.620603 0.1046 0.0844 0.0811 0.0793 0.0780
1710.634465 0.0766 0.0752 0.0738 0.0727 0.0721
1715.648328 0.0716 0.0711 0.0707 0.0705 0.0703
1720.662190 0.0703 0.0704 0.0706 0.0700 0.0695
1725.676052 0.0712 0.0717 0.0721 0.0726 0.0732
1730.689914 0.0740 0.0749 0.0758 0.0767 0.0776
1735.703777 0.0786 0.0798 0.0809 0.0821 0.0833
1740.717639 0.0846 0.0862 0.0879 0.0899 0.0929
1745.731501 0.0962 0.0997 0.1036 0.1076 0.1117
1750.745363 0.1160 0.1205 0.1238 0.1248 0.1258
1755.759225 0.1270 0.1284 0.1300 0.1329 0.1397
1760.773088 0.1512 0.1631 0.1711 0.1785 0.1846
1765.786950 0.1893 0.1948 0.2045 0.2235 0.2540
1770.800812 0.2843 0.3050 0.3257 0.3464 0.3671
1775.814674 0.3878 0.4085 0.4293 0.4485 0.4719
1780.828537 0.5249 0.5839 0.5994 0.6217 0.6427
1785.842399 0.6538 0.6604 0.6661 0.6717 0.6774
1790.856261 0.6835 0.6898 0.6957 0.7005 0.7044
1795.870123 0.7106 0.7199 0.7261 0.7314 0.7355
1800.883986 0.7377 0.7390 0.7401 0.7413 0.7425
1805.897848 0.7438 0.7454 0.7475 0.7495 0.7520
1810.911710 0.7553 0.7585 0.7611 0.7633 0.7651
1815.925572 0.7666 0.7681 0.7695 0.7708 0.7722
1820.939434 0.7736 0.7749 0.7763 0.7776 0.7790
1825.953297 0.7803 0.7817 0.7831 0.7844 0.7858
1830.967159 0.7871 0.7885 0.7899 0.7913 0.7928
1835.981021 0.7943 0.7958 0.7973 0.7987 0.7998
1840.994883 0.8007 0.8016 0.8025 0.8034 0.8043
1846.008746 0.8052 0.8061 0.8070 0.8079 0.8088
1851.022608 0.8097 0.8106 0.8115 0.8124 0.8133
1856.036470 0.8142 0.8151 0.8160 0.8169 0.8178
1861.050332 0.8185 0.8191 0.8197 0.8203 0.8209
1866.064194 0.8215 0.8221 0.8227 0.8231 0.8235
1871.078057 0.8239 0.8243 0.8247 0.8251 0.8255
1876.091919 0.8259 0.8263 0.8267 0.8271 0.8275
1881.105781 0.8278 0.8280 0.8281 0.8282 0.8284
1886.119643 0.8285 0.8287 0.8288 0.8290 0.8291
1891.133506 0.8293 0.8294 0.8293 0.8292 0.8292
1896.147368 0.8291 0.8290 0.8287 0.8283 0.8279
1901.161230 0.8271 0.8255 0.8238 0.8219 0.8202
1906.175092 0.8189 0.8177 0.8164 0.8154 0.8147
1911.188955 0.8143 0.8139 0.8135 0.8132 0.8131
1916.202817 0.8130 0.8130 0.8130 0.8130 0.8130
1921.216679 0.8131 0.8133 0.8135 0.8138 0.8142
1926.230541 0.8145 0.8148 0.8152 0.8157 0.8164
1931.244403 0.8171 0.8179 0.8188 0.8198 0.8209
1936.258266 0.8221 0.8234 0.8247 0.8257 0.8267
1941.272128 0.8277 0.8286 0.8291 0.8294 0.8295
1946.285990 0.8294 0.8293 0.8291 0.8290 0.8288
1951.299852 0.8287 0.8286 0.8285 0.8284 0.8283
1956.313715 0.8283 0.8282 0.8282 0.8282 0.8281
1961.327577 0.8281 0.8280 0.8280 0.8279 0.8279
1966.341439 0.8279 0.8278 0.8277 0.8274 0.8271
1971.355301 0.8268 0.8265 0.8262 0.8261 0.8261
1976.369163 0.8266 0.8273 0.8277 0.8281 0.8286
1981.383026 0.8292 0.8301 0.8309 0.8318 0.8325
1986.396888 0.8330 0.8336 0.8341 0.8347 0.8351
1991.410750 0.8353 0.8355 0.8357 0.8359 0.8361
1996.424612 0.8362 0.8361 0.8360 0.8359 0.8358
2001.438475 0.8357 0.8356 0.8356 0.8354 0.8351
2006.452337 0.8349 0.8346 0.8344 0.8341 0.8338
2011.466199 0.8336 0.8333 0.8330 0.8327 0.8325
2016.480061 0.8322 0.8319 0.8317 0.8318 0.8318
2021.493924 0.8319 0.8320 0.8320 0.8321 0.8321
2026.507786 0.8323 0.8328 0.8334 0.8340 0.8345
2031.521648 0.8351 0.8356 0.8362 0.8367 0.8372
2036.535510 0.8377 0.8383 0.8388 0.8392 0.8394
2041.549372 0.8396 0.8397 0.8399 0.8400 0.8401
2046.563235 0.8403 0.8404 0.8405 0.8406 0.8407
2051.577097 0.8409 0.8410 0.8409 0.8408 0.8407
2056.590959 0.8406 0.8405 0.8404 0.8402 0.8400
2061.604821 0.8398 0.8396 0.8393 0.8391 0.8389
2066.618684 0.8386 0.8384 0.8379 0.8373 0.8366
2071.632546 0.8360 0.8352 0.8342 0.8335 0.8340
2076.646408 0.8350 0.8360 0.8370 0.8377 0.8381
2081.660270 0.8380 0.8378 0.8376 0.8374 0.8372
2086.674132 0.8371 0.8369 0.8368 0.8367 0.8368
2091.687995 0.8369 0.8370 0.8370 0.8371 0.8372
2096.701857 0.8373 0.8373 0.8374 0.8375 0.8375
2101.715719 0.8376 0.8376 0.8377 0.8378 0.8378
2106.729581 0.8379 0.8379 0.8380 0.8380 0.8379
2111.743444 0.8378 0.8377 0.8376 0.8375 0.8374
2116.757306 0.8373 0.8372 0.8371 0.8370 0.8369
2121.771168 0.8369 0.8368 0.8368 0.8367 0.8367
2126.785030 0.8367 0.8368 0.8369 0.8370 0.8371
2131.798892 0.8373 0.8374 0.8375 0.8376 0.8378
2136.812755 0.8379 0.8380 0.8382 0.8383 0.8384
2141.826617 0.8385 0.8387 0.8389 0.8393 0.8397
2146.840479 0.8400 0.8404 0.8409 0.8415 0.8422
2151.854341 0.8428 0.8432 0.8436 0.8439 0.8443
2156.868204 0.8447 0.8450 0.8451 0.8451 0.8451
2161.882066 0.8451 0.8451 0.8450 0.8448 0.8447
2166.895928 0.8446 0.8444 0.8443 0.8442 0.8441
2171.909790 0.8440 0.8439 0.8438 0.8437 0.8436
2176.923653 0.8435 0.8434 0.8433 0.8433 0.8434
2181.937515 0.8434 0.8434 0.8434 0.8434 0.8435
2186.951377 0.8436 0.8437 0.8438 0.8440 0.8443
2191.965239 0.8445 0.8448 0.8450 0.8453 0.8456
2196.979101 0.8459 0.8463 0.8466 0.8469 0.8469
2201.992964 0.8466 0.8464 0.8462 0.8459 0.8457
2207.006826 0.8455 0.8452 0.8449 0.8446 0.8444
2212.020688 0.8441 0.8438 0.8435 0.8432 0.8429
2217.034550 0.8426 0.8423 0.8420 0.8417 0.8415
2222.048413 0.8412 0.8410 0.8408 0.8405 0.8403
2227.062275 0.8401 0.8399 0.8397 0.8394 0.8392
2232.076137 0.8389 0.8386 0.8384 0.8381 0.8379
2237.089999 0.8376 0.8374 0.8373 0.8372 0.8371
2242.103861 0.8370 0.8369 0.8368 0.8367 0.8367
2247.117724 0.8368 0.8370 0.8372 0.8373 0.8375
2252.131586 0.8377 0.8379 0.8382 0.8387 0.8391
2257.145448 0.8395 0.8400 0.8404 0.8408 0.8413
2262.159310 0.8417 0.8418 0.8419 0.8420 0.8421
2267.173173 0.8421 0.8422 0.8423 0.8424 0.8425
2272.187035 0.8426 0.8427 0.8429 0.8430 0.8431
2277.200897 0.8432 0.8433 0.8434 0.8436 0.8440
2282.214759 0.8444 0.8448 0.8453 0.8457 0.8459
2287.228622 0.8462 0.8464 0.8467 0.8470 0.8472
2292.242484 0.8475 0.8478 0.8480 0.8482 0.8484
2297.256346 0.8486 0.8487 0.8489 0.8491 0.8492
2302.270208 0.8492 0.8493 0.8493 0.8493 0.8494
2307.284070 0.8494 0.8495 0.8495 0.8496 0.8496
2312.297933 0.8494 0.8491 0.8489 0.8486 0.8483
2317.311795 0.8479 0.8476 0.8472 0.8469 0.8465
2322.325657 0.8461 0.8456 0.8452 0.8447 0.8443
2327.339519 0.8439 0.8434 0.8430 0.8425 0.8421
2332.353382 0.8417 0.8415 0.8414 0.8412 0.8411
2337.367244 0.8410 0.8409 0.8408 0.8406 0.8405
2342.381106 0.8404 0.8402 0.8399 0.8394 0.8388
2347.394968 0.8382 0.8375 0.8363 0.8349 0.8336
2352.408830 0.8323 0.8315 0.8308 0.8300 0.8294
2357.422693 0.8292 0.8292 0.8293 0.8294 0.8294
2362.436555 0.8295 0.8295 0.8296 0.8296 0.8297
2367.450417 0.8298 0.8300 0.8301 0.8302 0.8303
2372.464279 0.8304 0.8305 0.8306 0.8306 0.8307
2377.478142 0.8308 0.8309 0.8309 0.8310 0.8311
2382.492004 0.8311 0.8312 0.8313 0.8313 0.8315
2387.505866 0.8318 0.8320 0.8322 0.8326 0.8331
2392.519728 0.8335 0.8338 0.8340 0.8343 0.8345
2397.533591 0.8348 0.8350 0.8353 0.8355 0.8357
2402.547453 0.8357 0.8357 0.8356 0.8355 0.8355
2407.561315 0.8358 0.8361 0.8364 0.8366 0.8369
2412.575177 0.8372 0.8377 0.8381 0.8386 0.8390
2417.589039 0.8394 0.8399 0.8403 0.8407 0.8409
2422.602902 0.8407 0.8405 0.8403 0.8397 0.8390
2427.616764 0.8383 0.8377 0.8370 0.8364 0.8359
2432.630626 0.8353 0.8348 0.8345 0.8342 0.8339
2437.644488 0.8337 0.8334 0.8331 0.8328 0.8327
2442.658351 0.8327 0.8327 0.8327 0.8327 0.8327
2447.672213 0.8328 0.8330 0.8331 0.8332 0.8334
2452.686075 0.8335 0.8336 0.8337 0.8339 0.8340
2457.699937 0.8340 0.8341 0.8341 0.8341 0.8342
2462.713799 0.8342 0.8343 0.8343 0.8344 0.8344
2467.727662 0.8344 0.8345 0.8345 0.8346 0.8346
2472.741524 0.8346 0.8347 0.8347 0.8348 0.8348
2477.755386 0.8349 0.8349 0.8349 0.8350 0.8350
2482.769248 0.8351 0.8352 0.8352 0.8353 0.8354
2487.783111 0.8354 0.8355 0.8356 0.8356 0.8357
2492.796973 0.8357 0.8358 0.8359 0.8359 0.8360
2497.810835 0.8361 0.8361 0.8362 0.8363 0.8363
2502.824697 0.8364 0.8365 0.8365 0.8366 0.8366
2507.838560 0.8367 0.8368 0.8368 0.8369 0.8370
2512.852422 0.8370 0.8371 0.8372 0.8372 0.8373
2517.866284 0.8374 0.8375 0.8376 0.8377 0.8377
2522.880146 0.8378 0.8379 0.8380 0.8381 0.8382
2527.894008 0.8383 0.8384 0.8384 0.8385 0.8386
2532.907871 0.8387 0.8388 0.8389 0.8390 0.8390
2537.921733 0.8390 0.8390 0.8390 0.8390 0.8391
2542.935595 0.8391 0.8391 0.8391 0.8391 0.8391
2547.949457 0.8391 0.8391 0.8391 0.8391 0.8392
2552.963320 0.8392 0.8392 0.8393 0.8394 0.8394
2557.977182 0.8395 0.8396 0.8397 0.8397 0.8398
2562.991044 0.8399 0.8400 0.8401 0.8403 0.8405
2568.004906 0.8407 0.8408 0.8410 0.8412 0.8414
2573.018768 0.8419 0.8425 0.8428 0.8426 0.8424
2578.032631 0.8418 0.8411 0.8404 0.8402 0.8402
2583.046493 0.8402 0.8402 0.8402 0.8403 0.8403
2588.060355 0.8403 0.8403 0.8401 0.8400 0.8398
2593.074217 0.8396 0.8394 0.8392 0.8390 0.8389
2598.088080 0.8387 0.8384 0.8382 0.8380 0.8378
2603.101942 0.8376 0.8374 0.8371 0.8369 0.8367
2608.115804 0.8364 0.8362 0.8359 0.8357 0.8355
2613.129666 0.8352 0.8350 0.8347 0.8344 0.8341
2618.143528 0.8338 0.8335 0.8332 0.8329 0.8326
2623.157391 0.8325 0.8327 0.8328 0.8329 0.8331
2628.171253 0.8332 0.8334 0.8336 0.8338 0.8339
2633.185115 0.8341 0.8347 0.8354 0.8361 0.8368
2638.198977 0.8376 0.8383 0.8388 0.8389 0.8390
2643.212840 0.8390 0.8391 0.8392 0.8392 0.8393
2648.226702 0.8392 0.8391 0.8390 0.8388 0.8382
2653.240564 0.8376 0.8370 0.8363 0.8354 0.8344
2658.254426 0.8334 0.8325 0.8318 0.8315 0.8311
2663.268289 0.8308 0.8305 0.8303 0.8302 0.8301
2668.282151 0.8299 0.8297 0.8293 0.8290 0.8286
2673.296013 0.8283 0.8279 0.8276 0.8272 0.8269
2678.309875 0.8264 0.8260 0.8256 0.8251 0.8247
2683.323737 0.8243 0.8238 0.8234 0.8230 0.8225
2688.337600 0.8221 0.8217 0.8212 0.8208 0.8204
2693.351462 0.8199 0.8195 0.8191 0.8186 0.8182
2698.365324 0.8180 0.8180 0.8179 0.8178 0.8177
2703.379186 0.8176 0.8175 0.8174 0.8173 0.8173
2708.393049 0.8172 0.8170 0.8169 0.8167 0.8166
2713.406911 0.8164 0.8163 0.8162 0.8161 0.8160
2718.420773 0.8159 0.8158 0.8157 0.8156 0.8155
2723.434635 0.8154 0.8153 0.8153 0.8153 0.8153
2728.448497 0.8154 0.8154 0.8154 0.8155 0.8155
2733.462360 0.8156 0.8156 0.8156 0.8157 0.8157
2738.476222 0.8158 0.8158 0.8158 0.8158 0.8158
2743.490084 0.8158 0.8158 0.8158 0.8158 0.8158
2748.503946 0.8159 0.8159 0.8159 0.8159 0.8160
2753.517809 0.8161 0.8162 0.8162 0.8163 0.8164
2758.531671 0.8165 0.8166 0.8166 0.8167 0.8168
2763.545533 0.8169 0.8170 0.8171 0.8171 0.8170
2768.559395 0.8167 0.8165 0.8162 0.8159 0.8156
2773.573258 0.8152 0.8143 0.8134 0.8125 0.8116
2778.587120 0.8111 0.8107 0.8107 0.8108 0.8108
2783.600982 0.8108 0.8107 0.8106 0.8104 0.8103
2788.614844 0.8102 0.8100 0.8099 0.8098 0.8097
2793.628706 0.8095 0.8094 0.8092 0.8089 0.8086
2798.642569 0.8083 0.8080 0.8077 0.8074 0.8071
2803.656431 0.8068 0.8065 0.8062 0.8058 0.8055
2808.670293 0.8049 0.8043 0.8037 0.8031 0.8025
2813.684155 0.8019 0.8013 0.8006 0.7998 0.7991
2818.698018 0.7984 0.7976 0.7969 0.7962 0.7954
2823.711880 0.7947 0.7940 0.7932 0.7925 0.7918
2828.725742 0.7911 0.7904 0.7898 0.7891 0.7885
2833.739604 0.7879 0.7872 0.7866 0.7859 0.7854
2838.753466 0.7850 0.7845 0.7840 0.7835 0.7830
2843.767329 0.7825 0.7819 0.7813 0.7808 0.7802
2848.781191 0.7797 0.7791 0.7782 0.7773 0.7764
2853.795053 0.7755 0.7746 0.7738 0.7729 0.7720
2858.808915 0.7711 0.7702 0.7692 0.7682 0.7674
2863.822778 0.7670 0.7666 0.7662 0.7658 0.7655
2868.836640 0.7652 0.7649 0.7642 0.7619 0.7589
2873.850502 0.7560 0.7531 0.7507 0.7486 0.7465
2878.864364 0.7444 0.7423 0.7402 0.7383 0.7368
2883.878227 0.7354 0.7339 0.7324 0.7309 0.7295
2888.892089 0.7280 0.7265 0.7250 0.7236 0.7221
2893.905951 0.7206 0.7191 0.7177 0.7168 0.7164
2898.919813 0.7160 0.7157 0.7153 0.7145 0.7130
2903.933675 0.7102 0.7067 0.7026 0.6982 0.6936
2908.947538 0.6887 0.6843 0.6804 0.6766 0.6719
2913.961400 0.6661 0.6623 0.6600 0.6578 0.6559
2918.975262 0.6551 0.6544 0.6540 0.6537 0.6534
2923.989124 0.6532 0.6530 0.6528 0.6525 0.6523
2929.002987 0.6522 0.6520 0.6517 0.6514 0.6512
2934.016849 0.6509 0.6505 0.6496 0.6488 0.6476
2939.030711 0.6455 0.6427 0.6398 0.6361 0.6316
2944.044573 0.6273 0.6235 0.6197 0.6160 0.6125
2949.058435 0.6093 0.6067 0.6058 0.6057 0.6060
2954.072298 0.6065 0.6071 0.6077 0.6080 0.6081
2959.086160 0.6082 0.6082 0.6078 0.6074 0.6069
2964.100022 0.6065 0.6058 0.6034 0.5982 0.5930
2969.113884 0.5878 0.5826 0.5774 0.5722 0.5670
2974.127747 0.5618 0.5566 0.5514 0.5462 0.5409
2979.141609 0.5352 0.5299 0.5248 0.5193 0.5139
2984.155471 0.5090 0.5047 0.5005 0.4963 0.4921
2989.169333 0.4878 0.4831 0.4781 0.4730 0.4675
2994.183196 0.4609 0.4528 0.4429 0.4364 0.4320
2999.197058 0.4298 0.4281 0.4277 0.4275 0.4280
3004.210920 0.4293 0.4304 0.4324 0.4353 0.4396
3009.224782 0.4461 0.4555 0.4647 0.4739 0.4831
3014.238644 0.4923 0.5016 0.5109 0.5201 0.5294
3019.252507 0.5386 0.5479 0.5572 0.5664 0.5757
3024.266369 0.5850 0.5942 0.6022 0.6075 0.6130
3029.280231 0.6187 0.6242 0.6292 0.6341 0.6390
3034.294093 0.6444 0.6503 0.6563 0.6624 0.6685
3039.307956 0.6767 0.6864 0.6927 0.6963 0.6985
3044.321818 0.7008 0.7030 0.7060 0.7119 0.7195
3049.335680 0.7259 0.7318 0.7370 0.7410 0.7437
3054.349542 0.7463 0.7486 0.7507 0.7529 0.7551
3059.363404 0.7574 0.7597 0.7619 0.7641 0.7663
3064.377267 0.7679 0.7691 0.7702 0.7712 0.7720
3069.391129 0.7727 0.7735 0.7742 0.7749 0.7758
3074.404991 0.7767 0.7776 0.7784 0.7793 0.7801
3079.418853 0.7807 0.7810 0.7814 0.7817 0.7821
3084.432716 0.7825 0.7827 0.7827 0.7827 0.7838
3089.446578 0.7831 0.7827 0.7827 0.7826 0.7824
3094.460440 0.7822 0.7819 0.7816 0.7814 0.7811
3099.474302 0.7809 0.7806 0.7803 0.7800 0.7796
3104.488165 0.7791 0.7787 0.7783 0.7778 0.7774
3109.502027 0.7769 0.7764 0.7757 0.7751 0.7744
3114.515889 0.7738 0.7731 0.7724 0.7718 0.7711
3119.529751 0.7705 0.7699 0.7692 0.7686 0.7683
3124.543613 0.7682 0.7681 0.7681 0.7680 0.7671
3129.557476 0.7655 0.7639 0.7622 0.7605 0.7589
3134.571338 0.7574 0.7558 0.7542 0.7526 0.7510
3139.585200 0.7494 0.7478 0.7463 0.7450 0.7436
3144.599062 0.7422 0.7409 0.7395 0.7382 0.7368
3149.612925 0.7353 0.7338 0.7323 0.7308 0.7293
3154.626787 0.7278 0.7263 0.7248 0.7233 0.7215
3159.640649 0.7195 0.7176 0.7155 0.7135 0.7116
3164.654511 0.7096 0.7075 0.7052 0.7027 0.7003
3169.668373 0.6979 0.6954 0.6930 0.6906 0.6882
3174.682236 0.6860 0.6839 0.6818 0.6798 0.6778
3179.696098 0.6758 0.6739 0.6722 0.6704 0.6687
3184.709960 0.6669 0.6652 0.6635 0.6618 0.6598
3189.723822 0.6568 0.6534 0.6508 0.6481 0.6457
3194.737685 0.6438 0.6424 0.6409 0.6394 0.6379
3199.751547 0.6365 0.6350 0.6339 0.6332 0.6324
3204.765409 0.6317 0.6310 0.6302 0.6295 0.6288
3209.779271 0.6281 0.6276 0.6272 0.6268 0.6265
3214.793133 0.6261 0.6257 0.6255 0.6254 0.6253
3219.806996 0.6253 0.6252 0.6254 0.6256 0.6259
3224.820858 0.6262 0.6265 0.6267 0.6269 0.6272
3229.834720 0.6277 0.6282 0.6288 0.6324 0.6310
3234.848582 0.6301 0.6305 0.6308 0.6311 0.6314
3239.862445 0.6317 0.6320 0.6323 0.6326 0.6328
3244.876307 0.6330 0.6331 0.6330 0.6328 0.6326
3249.890169 0.6325 0.6322 0.6318 0.6314 0.6310
3254.904031 0.6306 0.6300 0.6295 0.6290 0.6285
3259.917894 0.6280 0.6272 0.6261 0.6249 0.6238
3264.931756 0.6227 0.6216 0.6206 0.6195 0.6185
3269.945618 0.6175 0.6165 0.6154 0.6143 0.6132
3274.959480 0.6121 0.6110 0.6099 0.6088 0.6076
3279.973342 0.6064 0.6052 0.6040 0.6028 0.6016
3284.987205 0.6005 0.5993 0.5978 0.5964 0.5950
3290.001067 0.5936 0.5921 0.5907 0.5893 0.5879
3295.014929 0.5864 0.5850 0.5834 0.5817 0.5799
3300.028791 0.5781 0.5764 0.5746 0.5728 0.5710
3305.042654 0.5692 0.5674 0.5657 0.5639 0.5619
3310.056516 0.5599 0.5579 0.5560 0.5540 0.5520
3315.070378 0.5501 0.5481 0.5461 0.5441 0.5422
3320.084240 0.5402 0.5383 0.5364 0.5344 0.5325
3325.098102 0.5306 0.5286 0.5264 0.5242 0.5220
3330.111965 0.5198 0.5175 0.5152 0.5130 0.5109
3335.125827 0.5088 0.5068 0.5048 0.5027 0.5007
3340.139689 0.4986 0.4965 0.4943 0.4921 0.4899
3345.153551 0.4877 0.4854 0.4831 0.4804 0.4776
3350.167414 0.4749 0.4722 0.4694 0.4666 0.4638
3355.181276 0.4610 0.4583 0.4554 0.4512 0.4473
3360.195138 0.4451 0.4432 0.4413 0.4395 0.4378
3365.209000 0.4363 0.4350 0.4341 0.4333 0.4324
3370.222863 0.4316 0.4306 0.4296 0.4285 0.4274
3375.236725 0.4263 0.4251 0.4240 0.4227 0.4213
3380.250587 0.4199 0.4186 0.4172 0.4167 0.4166
3385.264449 0.4165 0.4167 0.4170 0.4172 0.4155
3390.278311 0.4173 0.4181 0.4184 0.4187 0.4190
3395.292174 0.4193 0.4196 0.4199 0.4203 0.4206
3400.306036 0.4208 0.4211 0.4214 0.4217 0.4219
3405.319898 0.4222 0.4225 0.4228 0.4231 0.4234
3410.333760 0.4237 0.4239 0.4243 0.4249 0.4254
3415.347623 0.4259 0.4264 0.4269 0.4274 0.4279
3420.361485 0.4287 0.4296 0.4305 0.4313 0.4323
3425.375347 0.4337 0.4351 0.4394 0.4438 0.4480
3430.389209 0.4509 0.4537 0.4559 0.4572 0.4585
3435.403071 0.4593 0.4599 0.4604 0.4609 0.4614
3440.416934 0.4627 0.4650 0.4672 0.4694 0.4716
3445.430796 0.4729 0.4736 0.4736 0.4736 0.4736
3450.444658 0.4736 0.4745 0.4773 0.4734 0.4733
3455.458520 0.4732 0.4731 0.4729 0.4724 0.4718
3460.472383 0.4713 0.4706 0.4695 0.4682 0.4669
3465.486245 0.4654 0.4637 0.4620 0.4602 0.4584
3470.500107 0.4565 0.4542 0.4519 0.4497 0.4476
3475.513969 0.4457 0.4438 0.4419 0.4400 0.4382
3480.527832 0.4366 0.4351 0.4336 0.4321 0.4306
3485.541694 0.4291 0.4275 0.4260 0.4248 0.4237
3490.555556 0.4226 0.4215 0.4205 0.4197 0.4191
3495.569418 0.4185 0.4178 0.4175 0.4174 0.4173
3500.583280 0.4170 0.4171 0.4175 0.4178 0.4181
3505.597143 0.4185 0.4193 0.4203 0.4213 0.4224
3510.611005 0.4235 0.4247 0.4258 0.4270 0.4281
3515.624867 0.4295 0.4311 0.4329 0.4347 0.4369
3520.638729 0.4403 0.4437 0.4467 0.4493 0.4516
3525.652592 0.4538 0.4561 0.4584 0.4609 0.4634
3530.666454 0.4659 0.4684 0.4712 0.4754 0.4821
3535.680316 0.4879 0.4923 0.4962 0.4997 0.5030
3540.694178 0.5064 0.5097 0.5127 0.5156 0.5186
3545.708040 0.5216 0.5271 0.5330 0.5389 0.5453
3550.721903 0.5522 0.5593 0.5669 0.5746 0.5818
3555.735765 0.5888 0.5959 0.6030 0.6082 0.6128
3560.749627 0.6172 0.6217 0.6262 0.6310 0.6361
3565.763489 0.6413 0.6463 0.6510 0.6558 0.6605
3570.777352 0.6652 0.6700 0.6747 0.6792 0.6836
3575.791214 0.6882 0.6930 0.6978 0.7018 0.7050
3580.805076 0.7082 0.7115 0.7146 0.7171 0.7197
3585.818938 0.7222 0.7247 0.7272 0.7297 0.7321
3590.832801 0.7346 0.7369 0.7393 0.7416 0.7437
3595.846663 0.7456 0.7475 0.7491 0.7494 0.7497
3600.860525 0.7501 0.7506 0.7513 0.7523 0.7536
3605.874387 0.7547 0.7558 0.7569 0.7580 0.7596
3610.888249 0.7618 0.7640 0.7659 0.7673 0.7686
3615.902112 0.7699 0.7707 0.7714 0.7720 0.7724
3620.915974 0.7728 0.7731 0.7735 0.7739 0.7742
3625.929836 0.7746 0.7749 0.7752 0.7754 0.7757
3630.943698 0.7759 0.7761 0.7764 0.7766 0.7769
3635.957561 0.7771 0.7773 0.7776 0.7778 0.7780
3640.971423 0.7783 0.7785 0.7787 0.7790 0.7792
3645.985285 0.7794 0.7797 0.7799 0.7801 0.7804
3650.999147 0.7806 0.7808 0.7811 0.7813 0.7815
3656.013009 0.7818 0.7820 0.7823 0.7825 0.7827
3661.026872 0.7830 0.7832 0.7835 0.7837 0.7839
3666.040734 0.7842 0.7844 0.7847 0.7849 0.7851
3671.054596 0.7854 0.7856 0.7859 0.7862 0.7865
3676.068458 0.7869 0.7872 0.7876 0.7879 0.7883
3681.082321 0.7886 0.7890 0.7893 0.7897 0.7901
3686.096183 0.7905 0.7909 0.7913 0.7917 0.7921
3691.110045 0.7924 0.7931 0.7940 0.7949 0.7958
3696.123907 0.7972 0.7985 0.7997 0.8007 0.8017
3701.137769 0.8027 0.8036 0.8045 0.8054 0.8061
3706.151632 0.8067 0.8075 0.8082 0.8089 0.8096
3711.165494 0.8102 0.8108 0.8114 0.8120 0.8126
3716.179356 0.8132 0.8134 0.8136 0.8139 0.8141
3721.193218 0.8143 0.8146 0.8148 0.8151 0.8153
3726.207081 0.8155 0.8157 0.8159 0.8161 0.8164
3731.220943 0.8169 0.8176 0.8183 0.8190 0.8196
3736.234805 0.8199 0.8201 0.8202 0.8204 0.8205
3741.248667 0.8206 0.8208 0.8209 0.8211 0.8212
3746.262530 0.8214 0.8216 0.8219 0.8223 0.8227
3751.276392 0.8232 0.8236 0.8241 0.8249 0.8259
3756.290254 0.8268 0.8278 0.8287 0.8297 0.8306
3761.304116 0.8315 0.8323 0.8328 0.8329 0.8329
3766.317978 0.8328 0.8328 0.8327 0.8327 0.8327
3771.331841 0.8326 0.8327 0.8327 0.8327 0.8327
3776.345703 0.8327 0.8327 0.8327 0.8327 0.8326
3781.359565 0.8326 0.8325 0.8325 0.8324 0.8324
3786.373427 0.8324 0.8323 0.8323 0.8322 0.8322
3791.387290 0.8321 0.8320 0.8318 0.8317 0.8315
3796.401152 0.8314 0.8312 0.8311 0.8309 0.8308
3801.415014 0.8306 0.8305 0.8303 0.8301 0.8299
3806.428876 0.8296 0.8294 0.8291 0.8288 0.8286
3811.442738 0.8283 0.8281 0.8278 0.8275 0.8273
3816.456601 0.8270 0.8267 0.8264 0.8262 0.8260
3821.470463 0.8260 0.8259 0.8258 0.8257 0.8257
3826.484325 0.8256 0.8255 0.8255 0.8255 0.8256
3831.498187 0.8256 0.8257 0.8257 0.8258 0.8258
3836.512050 0.8259 0.8259 0.8259 0.8259 0.8260
3841.525912 0.8260 0.8260 0.8260 0.8260 0.8260
3846.539774 0.8260 0.8260 0.8260 0.8260 0.8261
3851.553636 0.8261 0.8261 0.8262 0.8262 0.8262
3856.567499 0.8263 0.8263 0.8263 0.8264 0.8264
3861.581361 0.8264 0.8265 0.8265 0.8265 0.8266
3866.595223 0.8266 0.8266 0.8267 0.8267 0.8267
3871.609085 0.8268 0.8268 0.8268 0.8269 0.8269
3876.622947 0.8269 0.8270 0.8270 0.8270 0.8271
3881.636810 0.8271 0.8271 0.8270 0.8270 0.8269
3886.650672 0.8268 0.8267 0.8266 0.8265 0.8264
3891.664534 0.8263 0.8265 0.8273 0.8260 0.8260
3896.678396 0.8259 0.8258 0.8257 0.8256 0.8255
3901.692259 0.8254 0.8254 0.8254 0.8254 0.8254
3906.706121 0.8254 0.8254 0.8254 0.8255 0.8255
3911.719983 0.8255 0.8255 0.8255 0.8255 0.8257
3916.733845 0.8260 0.8263 0.8267 0.8270 0.8273
3921.747707 0.8275 0.8273 0.8270 0.8265 0.8257
3926.761570 0.8248 0.8238 0.8233 0.8242 0.8263
3931.775432 0.8293 0.8324 0.8342 0.8352 0.8356
3936.789294 0.8358 0.8290 0.8114 0.7898 0.7683
3941.803156 0.7467 0.7252 0.7080 0.7020 0.7021
3946.817019 0.7022 0.7022 0.7021 0.7020 0.7020
3951.830881 0.7019 0.7017 0.7016 0.7015 0.7013
3956.844743 0.7012 0.7012 0.7012 0.7012 0.7012
3961.858605 0.7013 0.7014 0.7016 0.7018 0.7020
3966.872468 0.7022 0.7025 0.7027 0.7029 0.7029
3971.886330 0.7029 0.7029 0.7029 0.7029 0.7029
3976.900192 0.7029 0.7030 0.7030 0.7030 0.7031
3981.914054 0.7031 0.7032 0.7033 0.7033 0.7034
3986.927916 0.7034 0.7032 0.7030 0.7028 0.7027
3991.941779 0.7025 0.7022 0.7014 0.7005 0.6996
3996.955641 0.6987 0.6981 0.6978 0.6974 0.6970
4001.969503 0.6971 0.6972 0.6973 0.6975 0.6979
4006.983365 0.6983 0.6987 0.6991 0.6995 0.6999
4011.997228 0.7002
##END=
