##TITLE=TITANIUM OXALATE
##JCAMP-DX=4.24
##DATA TYPE=INFRARED SPECTRUM
##CLASS=COBLENTZ
##OWNER=COBLENTZ SOCIETY
Collection (C) 2018 copyright by the U.S. Secretary of Commerce
on behalf of the United States of America. All rights reserved.
##DATE=Not specified, most likely prior to 1970
##MOLFORM=Ti2 ( C2 O4)3  * 10 H2 O
##SOURCE REFERENCE=COBLENTZ NO. 85
##$NIST ID=B6000085
##$NIST SOURCE=COBLENTZ
##$NIST IMAGE=cob85
##SPECTROMETER/DATA SYSTEM=Not specified, most likely a prism, grating, or hybrid spectrometer.
##STATE=SOLID (KBr DISC)
##SAMPLING PROCEDURE=TRANSMISSION
##RESOLUTION=4
##DATA PROCESSING=DIGITIZED BY NIST FROM HARD COPY
##XUNITS=MICROMETERS
##YUNITS=TRANSMITTANCE
##XFACTOR=1.000000
##YFACTOR=1
##DELTAX=000.007601
##FIRSTX=2.024
##LASTX=15.0448
##FIRSTY=0.542
##MAXX=15.0448
##MINX=2.024
##MAXY=0.859
##MINY=0.112
##NPOINTS=1714
##XYDATA=(X++(Y..Y))
2.024000 0.5420 0.5430 0.5450 0.5450 0.5450
2.062029 0.5450 0.5450 0.5480 0.5480 0.5520
2.100000 0.5550 0.5580 0.5610 0.5650 0.5710
2.138029 0.5740 0.5770 0.5790 0.5800 0.5830
2.176000 0.5880 0.5890 0.5920 0.5950 0.5980
2.214029 0.6000 0.6020 0.6040 0.6050 0.6070
2.252000 0.6070 0.6080 0.6100 0.6110 0.6130
2.290029 0.6140 0.6160 0.6190 0.6200 0.6220
2.328000 0.6230 0.6250 0.6250 0.6260 0.6280
2.366029 0.6310 0.6320 0.6340 0.6350 0.6370
2.404000 0.6380 0.6410 0.6440 0.6450 0.6470
2.442029 0.6480 0.6500 0.6530 0.6540 0.6560
2.480000 0.6560 0.6570 0.6570 0.6590 0.6590
2.518029 0.6600 0.6600 0.6620 0.6620 0.6620
2.556000 0.6620 0.6620 0.6630 0.6630 0.6630
2.594029 0.6650 0.6690 0.6720 0.6740 0.6750
2.632000 0.6780 0.6810 0.6820 0.6820 0.6820
2.670029 0.6840 0.6850 0.6870 0.6870 0.6870
2.708000 0.6870 0.6840 0.6810 0.6720 0.6600
2.746029 0.6480 0.6190 0.5940 0.5480 0.5210
2.784000 0.4620 0.4310 0.4130 0.4010 0.3910
2.822029 0.3820 0.3730 0.3670 0.3570 0.3520
2.860000 0.3480 0.3400 0.3330 0.3280 0.3240
2.898029 0.3200 0.3110 0.3000 0.2960 0.2820
2.936000 0.2740 0.2650 0.2630 0.2620 0.2620
2.974029 0.2660 0.2770 0.2850 0.2960 0.3060
3.012000 0.3180 0.3270 0.3420 0.3490 0.3520
3.050029 0.3540 0.3570 0.3580 0.3610 0.3620
3.088000 0.3640 0.3650 0.3670 0.3680 0.3700
3.126029 0.3730 0.3740 0.3740 0.3760 0.3770
3.164000 0.3770 0.3790 0.3820 0.3830 0.3850
3.202029 0.3860 0.3920 0.4000 0.4050 0.4130
3.240000 0.4170 0.4280 0.4370 0.4440 0.4480
3.278029 0.4540 0.4590 0.4680 0.4720 0.4780
3.316000 0.4820 0.4850 0.4880 0.4940 0.5020
3.354029 0.5060 0.5090 0.5150 0.5180 0.5210
3.392000 0.5240 0.5300 0.5330 0.5370 0.5400
3.430029 0.5450 0.5480 0.5540 0.5600 0.5620
3.468000 0.5670 0.5710 0.5740 0.5800 0.5830
3.506029 0.5920 0.5950 0.6000 0.6020 0.6050
3.544000 0.6100 0.6130 0.6140 0.6170 0.6200
3.582029 0.6250 0.6320 0.6350 0.6410 0.6440
3.620000 0.6480 0.6510 0.6540 0.6590 0.6620
3.658029 0.6650 0.6720 0.6740 0.6770 0.6800
3.696000 0.6810 0.6850 0.6900 0.6930 0.6960
3.734029 0.7000 0.7050 0.7060 0.7090 0.7120
3.772000 0.7170 0.7200 0.7220 0.7240 0.7250
3.810029 0.7270 0.7280 0.7280 0.7310 0.7330
3.848000 0.7360 0.7390 0.7400 0.7420 0.7450
3.886029 0.7460 0.7480 0.7490 0.7520 0.7520
3.924000 0.7520 0.7540 0.7550 0.7550 0.7570
3.962029 0.7580 0.7610 0.7620 0.7650 0.7650
4.000000 0.7670 0.7670 0.7680 0.7700 0.7700
4.038029 0.7710 0.7710 0.7730 0.7740 0.7740
4.076000 0.7740 0.7760 0.7760 0.7770 0.7770
4.114029 0.7790 0.7790 0.7800 0.7800 0.7820
4.152000 0.7820 0.7820 0.7820 0.7820 0.7830
4.190029 0.7830 0.7830 0.7830 0.7830 0.7850
4.228000 0.7830 0.7830 0.7830 0.7830 0.7830
4.266029 0.7820 0.7820 0.7820 0.7820 0.7820
4.304000 0.7820 0.7830 0.7830 0.7850 0.7850
4.342029 0.7850 0.7860 0.7910 0.7920 0.7970
4.380000 0.8000 0.8000 0.8010 0.8010 0.8020
4.418029 0.8020 0.8040 0.8040 0.8070 0.8070
4.456000 0.8080 0.8100 0.8130 0.8140 0.8140
4.494029 0.8160 0.8160 0.8160 0.8170 0.8170
4.532000 0.8190 0.8200 0.8220 0.8230 0.8250
4.570029 0.8250 0.8260 0.8260 0.8260 0.8260
4.608000 0.8260 0.8260 0.8280 0.8280 0.8290
4.646029 0.8310 0.8310 0.8320 0.8320 0.8340
4.684000 0.8340 0.8340 0.8350 0.8350 0.8350
4.722029 0.8370 0.8370 0.8370 0.8380 0.8400
4.760000 0.8400 0.8410 0.8410 0.8420 0.8420
4.798029 0.8440 0.8440 0.8450 0.8450 0.8470
4.836000 0.8470 0.8480 0.8480 0.8500 0.8500
4.874029 0.8500 0.8510 0.8510 0.8510 0.8530
4.912000 0.8530 0.8530 0.8540 0.8540 0.8560
4.950029 0.8560 0.8560 0.8560 0.8560 0.8560
4.988000 0.8560 0.8570 0.8570 0.8570 0.8570
5.026029 0.8570 0.8570 0.8570 0.8570 0.8570
5.064000 0.8570 0.8570 0.8570 0.8570 0.8570
5.102029 0.8570 0.8570 0.8570 0.8590 0.8590
5.140000 0.8570 0.8570 0.8570 0.8570 0.8570
5.178029 0.8570 0.8570 0.8560 0.8560 0.8560
5.216000 0.8560 0.8560 0.8560 0.8560 0.8560
5.254029 0.8560 0.8560 0.8560 0.8560 0.8560
5.292000 0.8540 0.8530 0.8510 0.8510 0.8510
5.330029 0.8510 0.8510 0.8500 0.8480 0.8470
5.368000 0.8410 0.8400 0.8380 0.8370 0.8370
5.406029 0.8370 0.8370 0.8320 0.8310 0.8290
5.444000 0.8280 0.8250 0.8220 0.8190 0.8140
5.482029 0.8100 0.8070 0.8020 0.7980 0.7950
5.520000 0.7910 0.7850 0.7820 0.7800 0.7790
5.558029 0.7730 0.7700 0.7640 0.7580 0.7510
5.596000 0.7450 0.7370 0.7310 0.7240 0.7180
5.634029 0.7000 0.6870 0.6780 0.6680 0.6570
5.672000 0.6320 0.6140 0.5880 0.5640 0.5180
5.710029 0.4680 0.4340 0.3950 0.3620 0.3170
5.748000 0.2690 0.2450 0.2260 0.2080 0.2010
5.786029 0.1920 0.1850 0.1760 0.1730 0.1730
5.824000 0.1710 0.1710 0.1700 0.1670 0.1610
5.862029 0.1540 0.1460 0.1370 0.1310 0.1270
5.900000 0.1250 0.1220 0.1200 0.1180 0.1170
5.938029 0.1150 0.1150 0.1150 0.1150 0.1140
5.976000 0.1140 0.1120 0.1120 0.1120 0.1120
6.014029 0.1120 0.1140 0.1150 0.1170 0.1210
6.052000 0.1300 0.1360 0.1400 0.1460 0.1540
6.090029 0.1640 0.1730 0.1830 0.1890 0.2020
6.128000 0.2160 0.2280 0.2420 0.2560 0.2710
6.166029 0.2870 0.3030 0.3210 0.3550 0.3700
6.204000 0.3860 0.4020 0.4250 0.4380 0.4480
6.242029 0.4560 0.4660 0.4800 0.4970 0.5120
6.280000 0.5180 0.5240 0.5330 0.5420 0.5540
6.318029 0.5640 0.5680 0.5790 0.5880 0.5940
6.356000 0.5970 0.6000 0.6020 0.6040 0.6070
6.394029 0.6110 0.6220 0.6290 0.6340 0.6370
6.432000 0.6380 0.6400 0.6400 0.6400 0.6420
6.470029 0.6480 0.6510 0.6570 0.6620 0.6690
6.508000 0.6720 0.6740 0.6740 0.6750 0.6770
6.546029 0.6770 0.6850 0.6940 0.7000 0.7050
6.584000 0.7080 0.7110 0.7120 0.7140 0.7180
6.622029 0.7250 0.7270 0.7280 0.7280 0.7300
6.660000 0.7330 0.7360 0.7360 0.7360 0.7360
6.698029 0.7360 0.7340 0.7330 0.7280 0.7200
6.736000 0.7090 0.7000 0.6910 0.6810 0.6660
6.774029 0.6620 0.6570 0.6470 0.6370 0.6290
6.813000 0.6190 0.6160 0.6130 0.6110 0.6080
6.851029 0.6010 0.5950 0.5920 0.5920 0.5910
6.889000 0.5910 0.5920 0.5920 0.5940 0.5950
6.927029 0.5970 0.5970 0.5970 0.5970 0.5980
6.965000 0.5980 0.5970 0.5950 0.5940 0.5910
7.003029 0.5860 0.5830 0.5800 0.5770 0.5710
7.041000 0.5610 0.5520 0.5460 0.5400 0.5310
7.079029 0.5270 0.5250 0.5210 0.5170 0.5150
7.117000 0.5150 0.5120 0.5120 0.5120 0.5140
7.155029 0.5150 0.5170 0.5210 0.5220 0.5250
7.193000 0.5310 0.5360 0.5460 0.5490 0.5520
7.231029 0.5550 0.5580 0.5600 0.5610 0.5600
7.269000 0.5540 0.5430 0.5390 0.5340 0.5330
7.307029 0.5310 0.5340 0.5370 0.5450 0.5540
7.345000 0.5650 0.5760 0.5880 0.5980 0.6070
7.383029 0.6110 0.6200 0.6280 0.6310 0.6350
7.421000 0.6420 0.6450 0.6480 0.6500 0.6510
7.459029 0.6510 0.6510 0.6530 0.6500 0.6450
7.497000 0.6340 0.6230 0.6100 0.5940 0.5640
7.535029 0.5460 0.5250 0.5110 0.5080 0.5050
7.573000 0.5050 0.5080 0.5110 0.5240 0.5340
7.611029 0.5430 0.5490 0.5540 0.5580 0.5620
7.649000 0.5700 0.5790 0.5860 0.5890 0.5940
7.687029 0.5980 0.6020 0.6080 0.6130 0.6160
7.725000 0.6170 0.6200 0.6230 0.6280 0.6340
7.763029 0.6370 0.6400 0.6410 0.6440 0.6450
7.801000 0.6470 0.6470 0.6480 0.6480 0.6480
7.839029 0.6480 0.6480 0.6480 0.6480 0.6480
7.877000 0.6480 0.6470 0.6470 0.6470 0.6470
7.915029 0.6480 0.6480 0.6480 0.6500 0.6500
7.953000 0.6500 0.6500 0.6500 0.6500 0.6510
7.991029 0.6510 0.6510 0.6510 0.6530 0.6530
8.029000 0.6560 0.6560 0.6600 0.6620 0.6620
8.067029 0.6630 0.6660 0.6680 0.6680 0.6690
8.105000 0.6720 0.6750 0.6780 0.6820 0.6850
8.143029 0.6870 0.6900 0.6910 0.6940 0.6990
8.181000 0.7030 0.7080 0.7110 0.7140 0.7150
8.219029 0.7200 0.7210 0.7220 0.7250 0.7270
8.257000 0.7280 0.7300 0.7330 0.7340 0.7360
8.295029 0.7360 0.7370 0.7370 0.7390 0.7400
8.333000 0.7420 0.7420 0.7430 0.7450 0.7450
8.371029 0.7450 0.7460 0.7460 0.7460 0.7460
8.409000 0.7460 0.7480 0.7480 0.7510 0.7520
8.447029 0.7520 0.7540 0.7520 0.7520 0.7520
8.485000 0.7520 0.7510 0.7490 0.7490 0.7480
8.523029 0.7480 0.7460 0.7460 0.7430 0.7430
8.561000 0.7420 0.7420 0.7400 0.7370 0.7340
8.599029 0.7330 0.7310 0.7300 0.7280 0.7270
8.637000 0.7240 0.7210 0.7200 0.7180 0.7170
8.675029 0.7150 0.7140 0.7110 0.7080 0.7060
8.713000 0.7060 0.7030 0.6990 0.6960 0.6930
8.751029 0.6900 0.6840 0.6810 0.6770 0.6710
8.789000 0.6680 0.6660 0.6650 0.6630 0.6600
8.827029 0.6590 0.6560 0.6530 0.6500 0.6470
8.865000 0.6450 0.6420 0.6400 0.6380 0.6370
8.903029 0.6310 0.6260 0.6230 0.6200 0.6140
8.941000 0.6110 0.6100 0.6080 0.6070 0.6050
8.979029 0.6040 0.6020 0.5980 0.5970 0.5950
9.017000 0.5920 0.5890 0.5880 0.5860 0.5830
9.055029 0.5800 0.5790 0.5770 0.5730 0.5700
9.093000 0.5680 0.5650 0.5620 0.5580 0.5550
9.131029 0.5520 0.5490 0.5460 0.5450 0.5430
9.169000 0.5370 0.5340 0.5310 0.5310 0.5300
9.207029 0.5270 0.5240 0.5200 0.5180 0.5170
9.245000 0.5150 0.5120 0.5090 0.5080 0.5050
9.283029 0.5030 0.5020 0.4990 0.4970 0.4960
9.321000 0.4940 0.4900 0.4870 0.4820 0.4810
9.359029 0.4810 0.4800 0.4780 0.4770 0.4750
9.397000 0.4740 0.4710 0.4690 0.4690 0.4680
9.435029 0.4660 0.4650 0.4650 0.4650 0.4630
9.473000 0.4630 0.4620 0.4620 0.4600 0.4600
9.511029 0.4600 0.4590 0.4570 0.4560 0.4540
9.549000 0.4530 0.4530 0.4510 0.4510 0.4500
9.587029 0.4500 0.4480 0.4480 0.4480 0.4480
9.625000 0.4470 0.4470 0.4470 0.4470 0.4470
9.663029 0.4470 0.4470 0.4470 0.4470 0.4470
9.701000 0.4470 0.4470 0.4470 0.4470 0.4470
9.739029 0.4480 0.4480 0.4480 0.4500 0.4510
9.777000 0.4540 0.4560 0.4570 0.4590 0.4600
9.815029 0.4600 0.4620 0.4650 0.4660 0.4680
9.853000 0.4680 0.4680 0.4690 0.4710 0.4740
9.891029 0.4770 0.4780 0.4810 0.4810 0.4840
9.929000 0.4880 0.4910 0.4930 0.4970 0.5000
9.967029 0.5030 0.5050 0.5080 0.5090 0.5120
10.005000 0.5140 0.5170 0.5180 0.5210 0.5250
10.043029 0.5300 0.5310 0.5340 0.5390 0.5400
10.081000 0.5420 0.5430 0.5460 0.5480 0.5510
10.119029 0.5540 0.5570 0.5600 0.5620 0.5650
10.157000 0.5670 0.5700 0.5730 0.5760 0.5770
10.195029 0.5820 0.5830 0.5860 0.5890 0.5910
10.233000 0.5920 0.5940 0.5950 0.5980 0.6010
10.271029 0.6020 0.6040 0.6070 0.6080 0.6100
10.309000 0.6100 0.6110 0.6130 0.6140 0.6160
10.347029 0.6160 0.6170 0.6190 0.6200 0.6220
10.385000 0.6220 0.6220 0.6230 0.6230 0.6230
10.423029 0.6230 0.6230 0.6250 0.6250 0.6260
10.461000 0.6280 0.6280 0.6290 0.6290 0.6290
10.499029 0.6310 0.6310 0.6310 0.6310 0.6320
10.537000 0.6320 0.6320 0.6320 0.6320 0.6320
10.575029 0.6320 0.6320 0.6320 0.6310 0.6310
10.613000 0.6310 0.6290 0.6280 0.6260 0.6260
10.651029 0.6250 0.6230 0.6220 0.6200 0.6170
10.689000 0.6160 0.6140 0.6140 0.6130 0.6130
10.727029 0.6110 0.6110 0.6100 0.6100 0.6080
10.765000 0.6050 0.6040 0.6020 0.6020 0.6020
10.803029 0.6010 0.6010 0.6010 0.6010 0.6010
10.841000 0.6010 0.6010 0.6010 0.6000 0.6000
10.879029 0.6000 0.5980 0.5980 0.5970 0.5950
10.917000 0.5950 0.5940 0.5940 0.5920 0.5910
10.955029 0.5910 0.5880 0.5860 0.5830 0.5820
10.993000 0.5800 0.5790 0.5770 0.5760 0.5760
11.031029 0.5740 0.5740 0.5730 0.5730 0.5710
11.069000 0.5710 0.5710 0.5700 0.5700 0.5700
11.107029 0.5700 0.5700 0.5700 0.5680 0.5680
11.145000 0.5680 0.5680 0.5680 0.5680 0.5670
11.183029 0.5670 0.5670 0.5670 0.5670 0.5670
11.221000 0.5670 0.5650 0.5650 0.5650 0.5650
11.259029 0.5650 0.5640 0.5640 0.5640 0.5640
11.297000 0.5640 0.5620 0.5620 0.5610 0.5610
11.335029 0.5600 0.5580 0.5570 0.5550 0.5540
11.373000 0.5520 0.5510 0.5480 0.5460 0.5450
11.411029 0.5430 0.5420 0.5420 0.5400 0.5400
11.449000 0.5390 0.5370 0.5340 0.5330 0.5330
11.487029 0.5310 0.5300 0.5270 0.5250 0.5210
11.525000 0.5210 0.5200 0.5170 0.5150 0.5140
11.563029 0.5120 0.5090 0.5080 0.5060 0.5050
11.601000 0.5030 0.5000 0.4970 0.4940 0.4910
11.639029 0.4900 0.4880 0.4870 0.4850 0.4820
11.677000 0.4810 0.4800 0.4770 0.4740 0.4720
11.715029 0.4690 0.4690 0.4680 0.4660 0.4660
11.753000 0.4650 0.4630 0.4620 0.4620 0.4600
11.791029 0.4600 0.4600 0.4590 0.4590 0.4570
11.829000 0.4560 0.4540 0.4530 0.4510 0.4480
11.867029 0.4480 0.4470 0.4450 0.4420 0.4420
11.905000 0.4400 0.4380 0.4370 0.4350 0.4320
11.943029 0.4310 0.4290 0.4280 0.4250 0.4220
11.981000 0.4190 0.4170 0.4130 0.4100 0.4070
12.019029 0.4050 0.4020 0.4000 0.3950 0.3920
12.057000 0.3910 0.3880 0.3850 0.3830 0.3800
12.095029 0.3790 0.3790 0.3770 0.3760 0.3740
12.133000 0.3710 0.3700 0.3680 0.3670 0.3650
12.171029 0.3650 0.3640 0.3640 0.3640 0.3640
12.209000 0.3620 0.3620 0.3610 0.3610 0.3610
12.247029 0.3600 0.3600 0.3580 0.3570 0.3570
12.285000 0.3550 0.3540 0.3520 0.3510 0.3480
12.323029 0.3480 0.3460 0.3460 0.3450 0.3450
12.361000 0.3450 0.3450 0.3430 0.3430 0.3420
12.399029 0.3420 0.3420 0.3420 0.3420 0.3420
12.438000 0.3420 0.3420 0.3420 0.3420 0.3420
12.476029 0.3420 0.3430 0.3430 0.3430 0.3450
12.514000 0.3460 0.3460 0.3460 0.3480 0.3490
12.552029 0.3520 0.3540 0.3550 0.3580 0.3610
12.590000 0.3640 0.3650 0.3680 0.3730 0.3740
12.628029 0.3760 0.3770 0.3790 0.3820 0.3850
12.666000 0.3860 0.3890 0.3950 0.3970 0.3980
12.704029 0.4010 0.4020 0.4040 0.4070 0.4080
12.742000 0.4100 0.4130 0.4140 0.4160 0.4170
12.780029 0.4190 0.4200 0.4200 0.4220 0.4230
12.818000 0.4250 0.4260 0.4280 0.4280 0.4280
12.856029 0.4290 0.4290 0.4310 0.4320 0.4320
12.894000 0.4340 0.4340 0.4350 0.4370 0.4400
12.932029 0.4400 0.4410 0.4420 0.4420 0.4440
12.970000 0.4440 0.4450 0.4480 0.4480 0.4500
13.008029 0.4500 0.4510 0.4510 0.4530 0.4540
13.046000 0.4560 0.4570 0.4590 0.4590 0.4600
13.084029 0.4600 0.4620 0.4620 0.4630 0.4630
13.122000 0.4650 0.4650 0.4660 0.4680 0.4690
13.160029 0.4690 0.4690 0.4710 0.4710 0.4720
13.198000 0.4720 0.4720 0.4740 0.4750 0.4750
13.236029 0.4750 0.4750 0.4770 0.4780 0.4780
13.274000 0.4800 0.4800 0.4810 0.4810 0.4820
13.312029 0.4840 0.4840 0.4850 0.4850 0.4850
13.350000 0.4870 0.4870 0.4870 0.4880 0.4900
13.388029 0.4910 0.4910 0.4930 0.4930 0.4940
13.426000 0.4940 0.4960 0.4970 0.4990 0.5000
13.464029 0.5000 0.5020 0.5020 0.5020 0.5020
13.502000 0.5030 0.5050 0.5050 0.5050 0.5050
13.540029 0.5060 0.5060 0.5080 0.5090 0.5090
13.578000 0.5110 0.5110 0.5120 0.5120 0.5120
13.616029 0.5140 0.5140 0.5150 0.5150 0.5150
13.654000 0.5150 0.5170 0.5170 0.5180 0.5180
13.692029 0.5200 0.5200 0.5210 0.5210 0.5220
13.730000 0.5220 0.5220 0.5240 0.5240 0.5240
13.768029 0.5250 0.5250 0.5250 0.5270 0.5270
13.806000 0.5270 0.5270 0.5270 0.5280 0.5280
13.844029 0.5310 0.5330 0.5330 0.5340 0.5360
13.882000 0.5370 0.5390 0.5390 0.5390 0.5390
13.920029 0.5390 0.5390 0.5400 0.5400 0.5400
13.958000 0.5420 0.5420 0.5420 0.5420 0.5430
13.996029 0.5430 0.5430 0.5430 0.5450 0.5450
14.034000 0.5450 0.5460 0.5480 0.5490 0.5490
14.072029 0.5490 0.5490 0.5510 0.5510 0.5510
14.110000 0.5510 0.5520 0.5520 0.5520 0.5520
14.148029 0.5540 0.5550 0.5550 0.5550 0.5570
14.186000 0.5570 0.5570 0.5580 0.5580 0.5600
14.224029 0.5600 0.5600 0.5600 0.5610 0.5610
14.262000 0.5610 0.5620 0.5640 0.5640 0.5640
14.300029 0.5650 0.5650 0.5650 0.5650 0.5650
14.338000 0.5670 0.5670 0.5670 0.5670 0.5670
14.376029 0.5670 0.5680 0.5680 0.5680 0.5700
14.414000 0.5700 0.5700 0.5700 0.5700 0.5710
14.452029 0.5710 0.5710 0.5710 0.5710 0.5710
14.490000 0.5710 0.5730 0.5730 0.5740 0.5760
14.528029 0.5760 0.5760 0.5770 0.5770 0.5770
14.566000 0.5770 0.5770 0.5770 0.5790 0.5790
14.604029 0.5790 0.5770 0.5770 0.5770 0.5770
14.642000 0.5770 0.5770 0.5770 0.5770 0.5770
14.680029 0.5770 0.5770 0.5790 0.5790 0.5790
14.718000 0.5790 0.5790 0.5790 0.5790 0.5790
14.756029 0.5790 0.5790 0.5790 0.5800 0.5800
14.794000 0.5820 0.5820 0.5820 0.5820 0.5830
14.832029 0.5820 0.5820 0.5820 0.5820 0.5820
14.870000 0.5820 0.5820 0.5820 0.5820 0.5820
14.908029 0.5820 0.5820 0.5820 0.5820 0.5820
14.946000 0.5800 0.5800 0.5800 0.5800 0.5800
14.984029 0.5800 0.5800 0.5800 0.5800 0.5800
15.022000 0.5800 0.5800 0.5800 0.5800
##END=
