##TITLE=SODIUM BISULFITE
##JCAMP-DX=4.24
##DATA TYPE=INFRARED SPECTRUM
##CLASS=COBLENTZ
##OWNER=COBLENTZ SOCIETY
Collection (C) 2018 copyright by the U.S. Secretary of Commerce
on behalf of the United States of America. All rights reserved.
##DATE=Not specified, most likely prior to 1970
##MOLFORM=Na H S O3
##SOURCE REFERENCE=COBLENTZ NO. 3647
##$NIST ID=B6003647
##$NIST SOURCE=COBLENTZ
##$NIST IMAGE=cob3647
##SPECTROMETER/DATA SYSTEM=PERKIN-ELMER
##STATE=SOLID (COCONITRILE MULL)
##SAMPLING PROCEDURE=TRANSMISSION
##RESOLUTION=4
##DATA PROCESSING=DIGITIZED BY NIST FROM HARD COPY
##XUNITS=MICROMETERS
##YUNITS=TRANSMITTANCE
##XFACTOR=1.000000
##YFACTOR=1
##DELTAX=000.006112
##FIRSTX=2.018
##LASTX=15.1651
##FIRSTY=0.806
##MAXX=15.1651
##MINX=2.018
##MAXY=0.93
##MINY=0.081
##NPOINTS=2152
##XYDATA=(X++(Y..Y))
2.018000 0.8060 0.8060 0.8060 0.8040 0.8040
2.048574 0.8060 0.8060 0.8090 0.8110 0.8110
2.079000 0.8110 0.8120 0.8120 0.8120 0.8140
2.109574 0.8140 0.8120 0.8120 0.8120 0.8120
2.141000 0.8120 0.8140 0.8140 0.8140 0.8140
2.171574 0.8140 0.8140 0.8140 0.8150 0.8170
2.202000 0.8180 0.8180 0.8170 0.8180 0.8180
2.232574 0.8200 0.8210 0.8230 0.8230 0.8260
2.263000 0.8270 0.8270 0.8290 0.8290 0.8310
2.293574 0.8320 0.8320 0.8310 0.8310 0.8290
2.324000 0.8290 0.8290 0.8290 0.8290 0.8310
2.354574 0.8320 0.8340 0.8350 0.8370 0.8370
2.385000 0.8370 0.8370 0.8370 0.8380 0.8370
2.415574 0.8370 0.8380 0.8400 0.8400 0.8400
2.446000 0.8410 0.8440 0.8440 0.8430 0.8400
2.476574 0.8400 0.8400 0.8400 0.8410 0.8410
2.507000 0.8410 0.8430 0.8430 0.8430 0.8430
2.537574 0.8440 0.8440 0.8440 0.8430 0.8430
2.568000 0.8430 0.8410 0.8410 0.8410 0.8430
2.598574 0.8430 0.8440 0.8460 0.8460 0.8490
2.630000 0.8490 0.8490 0.8490 0.8490 0.8470
2.660574 0.8470 0.8470 0.8470 0.8490 0.8520
2.691000 0.8550 0.8570 0.8570 0.8570 0.8570
2.721574 0.8550 0.8520 0.8520 0.8500 0.8500
2.752000 0.8500 0.8490 0.8490 0.8490 0.8490
2.782574 0.8490 0.8470 0.8460 0.8440 0.8430
2.813000 0.8410 0.8410 0.8410 0.8430 0.8440
2.843574 0.8470 0.8490 0.8500 0.8500 0.8490
2.874000 0.8490 0.8440 0.8430 0.8410 0.8410
2.904574 0.8430 0.8430 0.8430 0.8430 0.8470
2.935000 0.8490 0.8490 0.8490 0.8490 0.8490
2.965574 0.8490 0.8490 0.8490 0.8520 0.8540
2.996000 0.8550 0.8550 0.8550 0.8550 0.8550
3.026574 0.8550 0.8570 0.8580 0.8600 0.8600
3.057000 0.8630 0.8630 0.8630 0.8640 0.8640
3.087574 0.8660 0.8660 0.8660 0.8690 0.8690
3.118000 0.8690 0.8690 0.8690 0.8690 0.8660
3.148574 0.8660 0.8670 0.8700 0.8700 0.8700
3.180000 0.8700 0.8690 0.8690 0.8690 0.8690
3.210574 0.8690 0.8690 0.8690 0.8700 0.8720
3.241000 0.8720 0.8700 0.8700 0.8700 0.8720
3.271574 0.8720 0.8720 0.8720 0.8720 0.8720
3.302000 0.8720 0.8720 0.8720 0.8720 0.8750
3.332574 0.8770 0.8770 0.8750 0.8750 0.8810
3.363000 0.8810 0.8800 0.8780 0.8740 0.8690
3.393574 0.8630 0.8380 0.7980 0.7400 0.7150
3.424000 0.6770 0.6230 0.6230 0.6430 0.6460
3.454574 0.6770 0.7280 0.7520 0.7840 0.8110
3.485000 0.8290 0.8350 0.8380 0.8380 0.8210
3.515574 0.7950 0.7950 0.8120 0.8150 0.8320
3.546000 0.8430 0.8700 0.8840 0.8980 0.9030
3.576574 0.9060 0.9090 0.9100 0.9100 0.9090
3.607000 0.9090 0.9090 0.9090 0.9100 0.9100
3.637574 0.9090 0.9070 0.9060 0.9060 0.9040
3.669000 0.9040 0.9030 0.9030 0.9030 0.9030
3.699574 0.9040 0.9040 0.9040 0.9040 0.9040
3.730000 0.9040 0.9040 0.9040 0.9030 0.9030
3.760574 0.9010 0.9010 0.9010 0.9010 0.9000
3.791000 0.8980 0.8970 0.8970 0.8970 0.8970
3.821574 0.8970 0.8970 0.8980 0.9000 0.9000
3.852000 0.9000 0.9010 0.9010 0.9010 0.9010
3.882574 0.9010 0.9010 0.9030 0.9000 0.8980
3.913000 0.8970 0.8970 0.8970 0.8970 0.8970
3.943574 0.8970 0.8980 0.9000 0.9000 0.9000
3.974000 0.9000 0.9010 0.9010 0.9030 0.9030
4.004574 0.9030 0.9010 0.9010 0.9010 0.9000
4.035000 0.9000 0.9000 0.9000 0.9000 0.8980
4.065574 0.8970 0.8980 0.9000 0.9030 0.9040
4.096000 0.9040 0.9090 0.9090 0.9070 0.9060
4.126574 0.9060 0.9040 0.9040 0.9030 0.9030
4.157000 0.9030 0.9030 0.9030 0.9030 0.9030
4.187574 0.9030 0.9030 0.9030 0.9010 0.9010
4.219000 0.9010 0.9010 0.9010 0.9010 0.9010
4.249574 0.9010 0.9010 0.9000 0.9000 0.9010
4.280000 0.9010 0.9010 0.9010 0.9010 0.9010
4.310574 0.9010 0.9010 0.9010 0.9010 0.9010
4.341000 0.9010 0.9010 0.9010 0.9010 0.9010
4.371574 0.9010 0.9010 0.9010 0.9010 0.9010
4.402000 0.9010 0.9000 0.9000 0.9000 0.9000
4.432574 0.9000 0.9010 0.9030 0.9030 0.9040
4.463000 0.9040 0.9040 0.9040 0.9030 0.9010
4.493574 0.9010 0.9010 0.9030 0.9030 0.9030
4.524000 0.9030 0.9030 0.9030 0.9030 0.9040
4.554574 0.9040 0.9070 0.9070 0.9060 0.9060
4.585000 0.9040 0.9040 0.9010 0.9000 0.8980
4.615574 0.8980 0.8980 0.8980 0.8980 0.8980
4.646000 0.8970 0.8950 0.8950 0.8940 0.8940
4.676574 0.8940 0.8970 0.8970 0.8970 0.8980
4.708000 0.9010 0.9030 0.9010 0.9010 0.9000
4.738574 0.9030 0.9040 0.9060 0.9070 0.9090
4.769000 0.9100 0.9090 0.9090 0.9090 0.9100
4.799574 0.9070 0.9040 0.9040 0.9030 0.9000
4.830000 0.8980 0.8980 0.8980 0.8980 0.8980
4.860574 0.8980 0.8980 0.8980 0.8980 0.8980
4.891000 0.8980 0.8980 0.8970 0.8970 0.8950
4.921574 0.8940 0.8920 0.8920 0.8940 0.8940
4.952000 0.8950 0.8950 0.8950 0.8980 0.9000
4.982574 0.9010 0.9030 0.9040 0.9120 0.9150
5.013000 0.9150 0.9120 0.9100 0.9100 0.9100
5.043574 0.9090 0.9090 0.9090 0.9100 0.9100
5.074000 0.9100 0.9090 0.9090 0.9090 0.9100
5.104574 0.9100 0.9090 0.9090 0.9090 0.9090
5.135000 0.9090 0.9090 0.9090 0.9090 0.9070
5.165574 0.9070 0.9070 0.9060 0.9060 0.9060
5.197000 0.9040 0.9040 0.9040 0.9040 0.9040
5.227574 0.9040 0.9060 0.9060 0.9070 0.9100
5.258000 0.9100 0.9100 0.9100 0.9100 0.9100
5.288574 0.9100 0.9100 0.9120 0.9120 0.9120
5.319000 0.9120 0.9120 0.9120 0.9130 0.9150
5.349574 0.9130 0.9130 0.9130 0.9130 0.9130
5.380000 0.9120 0.9120 0.9120 0.9120 0.9130
5.410574 0.9130 0.9130 0.9130 0.9130 0.9120
5.441000 0.9120 0.9100 0.9100 0.9100 0.9120
5.471574 0.9120 0.9120 0.9120 0.9120 0.9120
5.502000 0.9120 0.9120 0.9120 0.9120 0.9120
5.532574 0.9120 0.9120 0.9120 0.9120 0.9120
5.563000 0.9120 0.9120 0.9120 0.9120 0.9120
5.593574 0.9120 0.9120 0.9120 0.9120 0.9120
5.624000 0.9120 0.9120 0.9120 0.9120 0.9120
5.654574 0.9130 0.9130 0.9130 0.9130 0.9130
5.685000 0.9130 0.9130 0.9120 0.9100 0.9090
5.715574 0.9090 0.9090 0.9100 0.9120 0.9120
5.747000 0.9120 0.9090 0.9130 0.9120 0.9120
5.777574 0.9130 0.9130 0.9150 0.9150 0.9150
5.808000 0.9130 0.9130 0.9130 0.9130 0.9130
5.838574 0.9150 0.9200 0.9200 0.9170 0.9150
5.869000 0.9150 0.9150 0.9150 0.9150 0.9150
5.899574 0.9150 0.9150 0.9150 0.9150 0.9150
5.930000 0.9150 0.9150 0.9170 0.9170 0.9130
5.960574 0.9130 0.9130 0.9120 0.9120 0.9100
5.991000 0.9100 0.9120 0.9120 0.9100 0.9070
6.021574 0.9060 0.9060 0.9070 0.9070 0.9060
6.052000 0.9060 0.9060 0.9070 0.9070 0.9060
6.082574 0.9060 0.9060 0.9060 0.9060 0.9060
6.113000 0.9060 0.9060 0.9060 0.9060 0.9040
6.143574 0.9040 0.9040 0.9040 0.9060 0.9060
6.174000 0.9070 0.9070 0.9070 0.9070 0.9120
6.204574 0.9120 0.9120 0.9120 0.9120 0.9120
6.236000 0.9100 0.9100 0.9120 0.9120 0.9120
6.266574 0.9120 0.9120 0.9120 0.9120 0.9130
6.297000 0.9130 0.9130 0.9130 0.9130 0.9130
6.327574 0.9130 0.9130 0.9130 0.9130 0.9130
6.358000 0.9130 0.9130 0.9130 0.9150 0.9170
6.388574 0.9210 0.9230 0.9260 0.9260 0.9230
6.419000 0.9200 0.9180 0.9180 0.9170 0.9150
6.449574 0.9130 0.9180 0.9210 0.9230 0.9230
6.480000 0.9210 0.9210 0.9200 0.9200 0.9200
6.510574 0.9180 0.9170 0.9150 0.9130 0.9130
6.541000 0.9130 0.9130 0.9130 0.9130 0.9130
6.571574 0.9130 0.9130 0.9130 0.9130 0.9130
6.602000 0.9130 0.9130 0.9180 0.9200 0.9200
6.632574 0.9180 0.9180 0.9170 0.9150 0.9130
6.663000 0.9130 0.9130 0.9130 0.9130 0.9130
6.693574 0.9130 0.9130 0.9130 0.9150 0.9170
6.724000 0.9170 0.9170 0.9170 0.9180 0.9180
6.754574 0.9120 0.9170 0.9180 0.9200 0.9210
6.786000 0.9200 0.9180 0.9170 0.9150 0.9130
6.816574 0.9130 0.9130 0.9130 0.9130 0.9120
6.847000 0.9120 0.9150 0.9200 0.9200 0.9210
6.877574 0.9230 0.9230 0.9230 0.9240 0.9260
6.908000 0.9260 0.9260 0.9260 0.9260 0.9240
6.938574 0.9240 0.9240 0.9240 0.9230 0.9210
6.969000 0.9180 0.9170 0.9170 0.9170 0.9150
6.999574 0.9150 0.9150 0.9170 0.9170 0.9170
7.030000 0.9180 0.9180 0.9180 0.9180 0.9170
7.060574 0.9170 0.9170 0.9170 0.9150 0.9130
7.091000 0.9130 0.9130 0.9130 0.9130 0.9130
7.121574 0.9130 0.9130 0.9120 0.9120 0.9120
7.152000 0.9120 0.9120 0.9120 0.9130 0.9120
7.182574 0.9120 0.9120 0.9120 0.9120 0.9150
7.213000 0.9150 0.9130 0.9130 0.9130 0.9130
7.243574 0.9130 0.9130 0.9150 0.9150 0.9130
7.275000 0.9130 0.9130 0.9130 0.9130 0.9120
7.305574 0.9100 0.9100 0.9100 0.9100 0.9100
7.336000 0.9100 0.9100 0.9100 0.9100 0.9100
7.366574 0.9100 0.9090 0.9090 0.9090 0.9100
7.397000 0.9100 0.9100 0.9070 0.9060 0.9040
7.427574 0.9030 0.9030 0.9030 0.9010 0.9010
7.458000 0.9000 0.9000 0.8980 0.8980 0.8980
7.488574 0.8980 0.8980 0.8980 0.8970 0.8970
7.519000 0.8970 0.8940 0.8940 0.8940 0.8940
7.549574 0.8940 0.8940 0.8920 0.8920 0.8900
7.580000 0.8890 0.8890 0.8890 0.8900 0.8900
7.610574 0.8890 0.8860 0.8840 0.8830 0.8830
7.641000 0.8810 0.8810 0.8810 0.8810 0.8810
7.671574 0.8800 0.8800 0.8800 0.8800 0.8780
7.702000 0.8770 0.8770 0.8770 0.8750 0.8740
7.732574 0.8720 0.8720 0.8700 0.8700 0.8690
7.764000 0.8690 0.8690 0.8640 0.8610 0.8580
7.794574 0.8580 0.8550 0.8520 0.8500 0.8490
7.825000 0.8460 0.8430 0.8340 0.8320 0.8260
7.855574 0.8230 0.8120 0.8110 0.7970 0.7840
7.886000 0.7770 0.7690 0.7580 0.7550 0.7570
7.916574 0.7660 0.7680 0.7680 0.7750 0.7770
7.947000 0.7780 0.7780 0.7800 0.7800 0.7800
7.977574 0.7800 0.7800 0.7780 0.7770 0.7750
8.008000 0.7720 0.7690 0.7640 0.7600 0.7580
8.038574 0.7570 0.7540 0.7490 0.7370 0.7290
8.069000 0.7230 0.7110 0.7080 0.6950 0.6860
8.099574 0.6750 0.6690 0.6620 0.6540 0.6520
8.130000 0.6510 0.6510 0.6480 0.6460 0.6430
8.160574 0.6280 0.6150 0.6000 0.5890 0.5790
8.191000 0.5590 0.5160 0.4910 0.4620 0.4570
8.221574 0.4470 0.4170 0.3880 0.3670 0.3340
8.252000 0.3080 0.2760 0.2580 0.2390 0.2270
8.282574 0.2180 0.1960 0.1850 0.1680 0.1590
8.314000 0.1470 0.1410 0.1320 0.1290 0.1240
8.344574 0.1190 0.1090 0.1040 0.1020 0.1010
8.375000 0.1010 0.0990 0.0990 0.0980 0.0960
8.405574 0.0950 0.0950 0.0950 0.0930 0.0900
8.436000 0.0890 0.0870 0.0870 0.0870 0.0860
8.466574 0.0860 0.0840 0.0820 0.0810 0.0810
8.497000 0.0810 0.0810 0.0820 0.0820 0.0840
8.527574 0.0840 0.0860 0.0870 0.0920 0.0930
8.558000 0.1090 0.1250 0.1440 0.1580 0.1810
8.588574 0.2020 0.2180 0.2410 0.2560 0.2760
8.619000 0.2870 0.2940 0.3080 0.3250 0.3340
8.649574 0.3510 0.3620 0.3760 0.3880 0.3990
8.680000 0.4170 0.4220 0.4270 0.4360 0.4450
8.710574 0.4570 0.4660 0.4770 0.4940 0.5080
8.741000 0.5170 0.5480 0.5630 0.5940 0.6080
8.771574 0.6170 0.6200 0.6320 0.6350 0.6450
8.803000 0.6490 0.6550 0.6570 0.6600 0.6660
8.833574 0.6710 0.6780 0.6820 0.6860 0.6890
8.864000 0.6910 0.6920 0.6920 0.6920 0.6910
8.894574 0.6880 0.6850 0.6800 0.6780 0.6770
8.925000 0.6750 0.6740 0.6720 0.6740 0.6770
8.955574 0.6800 0.6830 0.6860 0.6880 0.6940
8.986000 0.6970 0.7110 0.7250 0.7310 0.7370
9.016574 0.7370 0.7400 0.7410 0.7510 0.7570
9.047000 0.7580 0.7580 0.7570 0.7540 0.7540
9.077574 0.7540 0.7540 0.7540 0.7520 0.7490
9.108000 0.7480 0.7450 0.7370 0.7260 0.7200
9.138574 0.7110 0.6750 0.6600 0.6310 0.6170
9.169000 0.5890 0.5690 0.5280 0.5080 0.4800
9.199574 0.4710 0.4570 0.4420 0.4390 0.4420
9.230000 0.4430 0.4450 0.4500 0.4540 0.4540
9.260574 0.4470 0.4400 0.4330 0.3990 0.3850
9.291000 0.3600 0.3330 0.3210 0.3110 0.3070
9.321574 0.3020 0.2880 0.2870 0.2870 0.2870
9.353000 0.2840 0.2820 0.2790 0.2780 0.2760
9.383574 0.2740 0.2710 0.2680 0.2680 0.2710
9.414000 0.2730 0.2780 0.2790 0.2870 0.2870
9.444574 0.2910 0.2940 0.3010 0.3050 0.3140
9.475000 0.3360 0.3620 0.3870 0.4160 0.4470
9.505574 0.4850 0.5260 0.5660 0.5970 0.6310
9.536000 0.6450 0.6550 0.6710 0.6820 0.6980
9.566574 0.7080 0.7150 0.7250 0.7280 0.7320
9.597000 0.7400 0.7450 0.7510 0.7520 0.7580
9.627574 0.7580 0.7610 0.7680 0.7770 0.7780
9.658000 0.7780 0.7780 0.7780 0.7800 0.7800
9.688574 0.7800 0.7800 0.7780 0.7780 0.7780
9.719000 0.7770 0.7770 0.7770 0.7770 0.7750
9.749574 0.7750 0.7750 0.7710 0.7640 0.7600
9.780000 0.7570 0.7570 0.7520 0.7480 0.7450
9.810574 0.7410 0.7290 0.7260 0.7250 0.7230
9.842000 0.7170 0.7080 0.7010 0.6910 0.6820
9.872574 0.6780 0.6770 0.6650 0.6620 0.6480
9.903000 0.6460 0.6400 0.6320 0.6220 0.6110
9.933574 0.6030 0.6030 0.6020 0.5970 0.5910
9.964000 0.5860 0.5680 0.5540 0.5490 0.5360
9.994574 0.5220 0.5080 0.4970 0.4800 0.4730
10.025000 0.4700 0.4530 0.4370 0.4330 0.4190
10.055574 0.4020 0.3800 0.3600 0.3390 0.3210
10.086000 0.3080 0.2870 0.2700 0.2560 0.2470
10.116574 0.2420 0.2310 0.2220 0.2020 0.1960
10.147000 0.1880 0.1760 0.1730 0.1620 0.1580
10.177574 0.1520 0.1500 0.1440 0.1390 0.1360
10.208000 0.1330 0.1320 0.1320 0.1320 0.1330
10.238574 0.1350 0.1360 0.1390 0.1420 0.1450
10.269000 0.1490 0.1640 0.1670 0.1790 0.1920
10.299574 0.2010 0.2080 0.2300 0.2470 0.2640
10.331000 0.2790 0.3050 0.3240 0.3360 0.3650
10.361574 0.3840 0.4050 0.4280 0.4570 0.4700
10.392000 0.4820 0.5050 0.5280 0.5390 0.5600
10.422574 0.5740 0.5830 0.5990 0.6110 0.6320
10.453000 0.6480 0.6520 0.6600 0.6650 0.6750
10.483574 0.6780 0.6880 0.6940 0.7060 0.7120
10.514000 0.7230 0.7260 0.7290 0.7410 0.7460
10.544574 0.7580 0.7610 0.7630 0.7640 0.7740
10.575000 0.7770 0.7810 0.7860 0.7880 0.7920
10.605574 0.7950 0.7970 0.7980 0.8030 0.8090
10.636000 0.8120 0.8140 0.8150 0.8180 0.8200
10.666574 0.8200 0.8210 0.8230 0.8240 0.8270
10.697000 0.8290 0.8320 0.8340 0.8350 0.8380
10.727574 0.8400 0.8440 0.8490 0.8490 0.8540
10.758000 0.8550 0.8550 0.8570 0.8570 0.8570
10.788574 0.8570 0.8580 0.8580 0.8600 0.8610
10.819000 0.8630 0.8690 0.8690 0.8690 0.8690
10.849574 0.8690 0.8700 0.8700 0.8700 0.8720
10.881000 0.8720 0.8720 0.8700 0.8700 0.8700
10.911574 0.8700 0.8700 0.8700 0.8720 0.8740
10.942000 0.8750 0.8750 0.8750 0.8750 0.8770
10.972574 0.8800 0.8800 0.8800 0.8810 0.8830
11.003000 0.8830 0.8830 0.8810 0.8810 0.8810
11.033574 0.8830 0.8840 0.8840 0.8840 0.8840
11.064000 0.8840 0.8840 0.8840 0.8840 0.8840
11.094574 0.8840 0.8890 0.8900 0.8920 0.8940
11.125000 0.8970 0.8970 0.8950 0.8950 0.8940
11.155574 0.8940 0.8920 0.8940 0.8940 0.8950
11.186000 0.8940 0.8940 0.8940 0.8950 0.8940
11.216574 0.8940 0.8920 0.8900 0.8900 0.8900
11.247000 0.8920 0.8920 0.8940 0.8940 0.8920
11.277574 0.8940 0.8940 0.8940 0.8940 0.8950
11.308000 0.8970 0.8970 0.9000 0.9000 0.8980
11.338574 0.8980 0.8970 0.8970 0.8980 0.9000
11.370000 0.9010 0.9030 0.9030 0.9040 0.9030
11.400574 0.8980 0.8980 0.8980 0.8980 0.9000
11.431000 0.9000 0.9010 0.9010 0.9010 0.9030
11.461574 0.9030 0.9060 0.9100 0.9120 0.9130
11.492000 0.9130 0.9130 0.9120 0.9120 0.9120
11.522574 0.9130 0.9130 0.9120 0.9120 0.9100
11.553000 0.9100 0.9120 0.9120 0.9120 0.9120
11.583574 0.9120 0.9130 0.9130 0.9120 0.9120
11.614000 0.9120 0.9120 0.9120 0.9120 0.9120
11.644574 0.9120 0.9120 0.9120 0.9120 0.9120
11.675000 0.9120 0.9130 0.9130 0.9130 0.9120
11.705574 0.9130 0.9130 0.9150 0.9170 0.9170
11.736000 0.9130 0.9130 0.9130 0.9130 0.9130
11.766574 0.9130 0.9130 0.9130 0.9130 0.9130
11.797000 0.9130 0.9150 0.9170 0.9170 0.9170
11.827574 0.9150 0.9150 0.9130 0.9120 0.9120
11.858000 0.9130 0.9130 0.9130 0.9130 0.9130
11.888574 0.9150 0.9180 0.9180 0.9170 0.9170
11.920000 0.9170 0.9170 0.9170 0.9170 0.9150
11.950574 0.9130 0.9130 0.9130 0.9130 0.9130
11.981000 0.9130 0.9170 0.9200 0.9210 0.9230
12.011574 0.9230 0.9240 0.9240 0.9240 0.9240
12.042000 0.9230 0.9230 0.9230 0.9210 0.9210
12.072574 0.9210 0.9210 0.9210 0.9180 0.9180
12.103000 0.9200 0.9200 0.9200 0.9200 0.9200
12.133574 0.9200 0.9200 0.9210 0.9230 0.9230
12.164000 0.9230 0.9230 0.9240 0.9240 0.9240
12.194574 0.9230 0.9230 0.9230 0.9230 0.9240
12.225000 0.9230 0.9230 0.9210 0.9210 0.9230
12.255574 0.9230 0.9230 0.9230 0.9240 0.9260
12.286000 0.9270 0.9270 0.9230 0.9210 0.9210
12.316574 0.9210 0.9210 0.9210 0.9210 0.9210
12.347000 0.9210 0.9210 0.9210 0.9260 0.9270
12.377574 0.9270 0.9260 0.9260 0.9240 0.9230
12.409000 0.9230 0.9230 0.9230 0.9230 0.9230
12.439574 0.9260 0.9260 0.9260 0.9260 0.9240
12.470000 0.9240 0.9240 0.9260 0.9260 0.9260
12.500574 0.9260 0.9260 0.9260 0.9260 0.9240
12.531000 0.9240 0.9240 0.9230 0.9210 0.9210
12.561574 0.9200 0.9210 0.9210 0.9230 0.9230
12.592000 0.9240 0.9240 0.9240 0.9240 0.9260
12.622574 0.9270 0.9270 0.9260 0.9260 0.9240
12.653000 0.9230 0.9230 0.9230 0.9230 0.9230
12.683574 0.9230 0.9230 0.9230 0.9230 0.9230
12.714000 0.9230 0.9230 0.9230 0.9230 0.9240
12.744574 0.9260 0.9260 0.9240 0.9240 0.9240
12.775000 0.9240 0.9240 0.9240 0.9260 0.9260
12.805574 0.9240 0.9240 0.9240 0.9240 0.9260
12.836000 0.9240 0.9240 0.9240 0.9260 0.9260
12.866574 0.9260 0.9260 0.9260 0.9260 0.9260
12.898000 0.9240 0.9230 0.9230 0.9210 0.9230
12.928574 0.9230 0.9230 0.9240 0.9240 0.9230
12.959000 0.9230 0.9230 0.9230 0.9230 0.9230
12.989574 0.9240 0.9240 0.9240 0.9240 0.9240
13.020000 0.9240 0.9240 0.9240 0.9230 0.9230
13.050574 0.9230 0.9230 0.9230 0.9230 0.9210
13.081000 0.9210 0.9210 0.9230 0.9240 0.9240
13.111574 0.9260 0.9260 0.9230 0.9230 0.9230
13.142000 0.9210 0.9210 0.9210 0.9210 0.9210
13.172574 0.9210 0.9210 0.9210 0.9210 0.9200
13.203000 0.9200 0.9200 0.9200 0.9200 0.9200
13.233574 0.9210 0.9210 0.9210 0.9210 0.9210
13.264000 0.9210 0.9210 0.9230 0.9230 0.9240
13.294574 0.9270 0.9300 0.9300 0.9240 0.9230
13.325000 0.9230 0.9230 0.9230 0.9230 0.9230
13.355574 0.9230 0.9230 0.9230 0.9230 0.9230
13.386000 0.9240 0.9240 0.9230 0.9230 0.9260
13.416574 0.9290 0.9290 0.9270 0.9270 0.9270
13.448000 0.9260 0.9260 0.9260 0.9260 0.9260
13.478574 0.9260 0.9260 0.9260 0.9260 0.9260
13.509000 0.9260 0.9240 0.9240 0.9240 0.9240
13.539574 0.9240 0.9260 0.9260 0.9270 0.9270
13.570000 0.9300 0.9300 0.9300 0.9290 0.9290
13.600574 0.9270 0.9260 0.9260 0.9260 0.9260
13.631000 0.9260 0.9260 0.9240 0.9270 0.9270
13.661574 0.9270 0.9270 0.9270 0.9260 0.9260
13.692000 0.9260 0.9260 0.9300 0.9300 0.9300
13.722574 0.9300 0.9300 0.9300 0.9300 0.9270
13.753000 0.9270 0.9270 0.9260 0.9260 0.9270
13.783574 0.9270 0.9270 0.9270 0.9270 0.9270
13.814000 0.9270 0.9260 0.9260 0.9260 0.9260
13.844574 0.9260 0.9240 0.9240 0.9240 0.9240
13.875000 0.9240 0.9240 0.9240 0.9260 0.9290
13.905574 0.9300 0.9300 0.9270 0.9260 0.9240
13.937000 0.9240 0.9260 0.9270 0.9270 0.9260
13.967574 0.9240 0.9240 0.9230 0.9210 0.9210
13.998000 0.9230 0.9230 0.9230 0.9240 0.9240
14.028574 0.9240 0.9240 0.9240 0.9260 0.9240
14.059000 0.9240 0.9230 0.9210 0.9210 0.9210
14.089574 0.9210 0.9200 0.9200 0.9180 0.9180
14.120000 0.9200 0.9200 0.9200 0.9200 0.9200
14.150574 0.9180 0.9180 0.9200 0.9200 0.9200
14.181000 0.9200 0.9200 0.9260 0.9260 0.9240
14.211574 0.9240 0.9230 0.9230 0.9230 0.9230
14.242000 0.9260 0.9260 0.9270 0.9270 0.9260
14.272574 0.9260 0.9240 0.9240 0.9230 0.9230
14.303000 0.9230 0.9230 0.9230 0.9230 0.9230
14.333574 0.9230 0.9230 0.9210 0.9210 0.9210
14.364000 0.9210 0.9210 0.9210 0.9210 0.9210
14.394574 0.9200 0.9200 0.9200 0.9200 0.9210
14.425000 0.9210 0.9210 0.9210 0.9210 0.9200
14.455574 0.9180 0.9180 0.9180 0.9200 0.9200
14.487000 0.9200 0.9200 0.9200 0.9200 0.9200
14.517574 0.9200 0.9200 0.9200 0.9200 0.9200
14.548000 0.9200 0.9180 0.9180 0.9180 0.9180
14.578574 0.9180 0.9180 0.9200 0.9200 0.9210
14.609000 0.9210 0.9230 0.9230 0.9210 0.9210
14.639574 0.9200 0.9200 0.9200 0.9180 0.9180
14.670000 0.9180 0.9180 0.9180 0.9180 0.9170
14.700574 0.9180 0.9170 0.9170 0.9150 0.9150
14.731000 0.9150 0.9170 0.9170 0.9150 0.9130
14.761574 0.9120 0.9120 0.9100 0.9100 0.9100
14.792000 0.9100 0.9100 0.9070 0.9060 0.9060
14.822574 0.9040 0.9040 0.9010 0.9000 0.8980
14.853000 0.8970 0.8950 0.8950 0.8940 0.8940
14.883574 0.8940 0.8920 0.8900 0.8840 0.8800
14.914000 0.8780 0.8750 0.8740 0.8740 0.8700
14.944574 0.8660 0.8600 0.8550 0.8520 0.8500
14.976000 0.8460 0.8340 0.8150 0.7950 0.7800
15.006574 0.7580 0.7520 0.7430 0.7320 0.7230
15.037000 0.7010 0.6780 0.6680 0.6550 0.6430
15.067574 0.6320 0.6280 0.6190 0.6150 0.6050
15.098000 0.6000 0.5910 0.5890 0.5800 0.5770
15.128574 0.5760 0.5740 0.5740 0.5720 0.5710
15.159000 0.5710 0.5760
##END=
