##TITLE=11Beta,17Alpha-DIHYDROXY-2Alpha,21-DIACETOXYPREGNA-4-ENE-3,20-DIONE
##JCAMP-DX=4.24
##DATA TYPE=INFRARED SPECTRUM
##CLASS=COBLENTZ III
##ORIGIN=THE WORCESTER FOUNDATION FOR EXPERIMENTAL BIOLOGY, Neal L. McNiven
##OWNER=COBLENTZ SOCIETY
Collection (C) 2018 copyright by the U.S. Secretary of Commerce
on behalf of the United States of America. All rights reserved.
##DATE=1963/07/26
##NAMES=2-(acetyloxy)-11,17-dihydroxy-3,20-dioxopregn-4-en-21-yl acetate
##MOLFORM=C25 H34 O8
##SOURCE REFERENCE=COBLENTZ NO. 5436
##$NIST ID=B6005436
##$NIST SOURCE=COBLENTZ
##$NIST IMAGE=cob5436
##SPECTROMETER/DATA SYSTEM=BECKMAN IR-7
##STATE=SOLID (KBr DISC)
##SAMPLING PROCEDURE=TRANSMISSION
##RESOLUTION=4
##DATA PROCESSING=DIGITIZED BY NIST FROM HARD COPY (FROM TWO SEGMENTS)
##XUNITS=1/CM
##YUNITS=TRANSMITTANCE
##XFACTOR=1.000000
##YFACTOR=1
##DELTAX=0.728700
##FIRSTX=600.168
##LASTX=4024.33
##FIRSTY=0.273
##MAXX=4024.33
##MINX=600.168
##MAXY=0.992
##MINY=0.018
##NPOINTS=4700
##XYDATA=(X++(Y..Y))
600.168000 0.2730 0.2770 0.2820 0.2870 0.2930
603.811498 0.3000 0.3070 0.3140 0.3220 0.3459
607.454997 0.3570 0.3670 0.3860 0.3860 0.3890
611.098495 0.3920 0.3940 0.3970 0.3990 0.4000
614.741994 0.4020 0.4030 0.4050 0.4050 0.4070
618.385492 0.4070 0.4070 0.4100 0.4120 0.4150
622.028990 0.4200 0.4230 0.4260 0.4330 0.4430
625.672489 0.4450 0.4560 0.4560 0.4560 0.4560
629.315987 0.4560 0.4560 0.4540 0.4520 0.4510
632.959485 0.4470 0.4450 0.4430 0.4420 0.4350
636.602984 0.4320 0.4270 0.4220 0.4170 0.4110
640.246482 0.4050 0.3990 0.3920 0.3850 0.3760
643.889981 0.3630 0.3540 0.3440 0.3440 0.3440
647.533479 0.3530 0.3590 0.3660 0.3730 0.3800
651.176977 0.3860 0.3930 0.3970 0.4020 0.4050
654.820476 0.4050 0.4050 0.4050 0.4050 0.4060
658.463974 0.4060 0.4060 0.4070 0.4120 0.4220
662.107473 0.4290 0.4320 0.4360 0.4400 0.4460
665.750971 0.4510 0.4520 0.4520 0.4530 0.4580
669.394469 0.4700 0.4740 0.4780 0.4820 0.4850
673.037968 0.4870 0.4890 0.4900 0.4920 0.4930
676.681466 0.4930 0.4940 0.4990 0.5040 0.5070
680.324964 0.5100 0.5140 0.5170 0.5210 0.5260
683.968463 0.5310 0.5350 0.5380 0.5410 0.5430
687.611961 0.5470 0.5480 0.5520 0.5570 0.5570
691.255460 0.5570 0.5520 0.5500 0.5460 0.5420
694.898958 0.5300 0.5170 0.5110 0.4960 0.4930
698.542456 0.4930 0.5030 0.5299 0.5400 0.5519
702.185955 0.5600 0.5730 0.5780 0.5890 0.5900
705.829453 0.5950 0.5950 0.5960 0.5950 0.5880
709.472952 0.5700 0.5650 0.5520 0.5410 0.5400
713.116450 0.5410 0.5550 0.5650 0.6048 0.6219
716.759948 0.6370 0.6520 0.6640 0.6750 0.6850
720.403447 0.6940 0.7010 0.7080 0.7140 0.7190
724.046945 0.7230 0.7260 0.7290 0.7330 0.7350
727.690443 0.7360 0.7380 0.7380 0.7390 0.7410
731.333942 0.7420 0.7440 0.7450 0.7460 0.7460
734.977440 0.7450 0.7450 0.7440 0.7430 0.7410
738.620939 0.7400 0.7370 0.7330 0.7320 0.7300
742.264437 0.7250 0.7200 0.7130 0.7060 0.6990
745.907935 0.6910 0.6820 0.6730 0.6630 0.6510
749.551434 0.6460 0.6340 0.6220 0.6101 0.6050
753.194932 0.5980 0.5990 0.6170 0.6270 0.6430
756.838431 0.6629 0.6819 0.7009 0.7129 0.7210
760.481929 0.7280 0.7350 0.7360 0.7370 0.7380
764.125427 0.7380 0.7380 0.7380 0.7360 0.7340
767.768926 0.7320 0.7270 0.7210 0.7140 0.7060
771.412424 0.6980 0.6880 0.6770 0.6651 0.6531
775.055922 0.6390 0.6240 0.6120 0.5990 0.5661
778.699421 0.5321 0.4981 0.4711 0.4610 0.4520
782.342919 0.4140 0.4130 0.4140 0.4210 0.4300
785.986418 0.4799 0.5029 0.5249 0.5459 0.5679
789.629916 0.6050 0.6230 0.6390 0.6540 0.6690
793.273414 0.6810 0.6930 0.7040 0.7120 0.7200
796.916913 0.7270 0.7360 0.7370 0.7440 0.7450
800.560411 0.7450 0.7440 0.7440 0.7400 0.7380
804.203909 0.7350 0.7310 0.7300 0.7380 0.7510
807.847408 0.7610 0.7700 0.7770 0.7840 0.7890
811.490906 0.7940 0.7970 0.8000 0.8020 0.8040
815.134405 0.8050 0.8060 0.8080 0.8080 0.8080
818.777903 0.8080 0.8080 0.8080 0.8070 0.8030
822.421401 0.8000 0.7990 0.7970 0.7970 0.7940
826.064900 0.7920 0.7860 0.7800 0.7700 0.7600
829.708398 0.7510 0.7420 0.7340 0.7300 0.7270
833.351897 0.7200 0.7140 0.7090 0.7040 0.7000
836.995395 0.6960 0.6930 0.6900 0.6830 0.6740
840.638893 0.6660 0.6530 0.6420 0.6101 0.5980
844.282392 0.5860 0.5701 0.5521 0.5361 0.5340
847.925890 0.5350 0.5460 0.5540 0.5570 0.5570
851.569388 0.5301 0.5001 0.4681 0.4531 0.4371
855.212887 0.4370 0.4740 0.4930 0.5020 0.5210
858.856385 0.5539 0.5570 0.5570 0.5550 0.5182
862.499884 0.4830 0.4690 0.4560 0.4320 0.4081
866.143382 0.3841 0.3601 0.3600 0.3939 0.4497
869.786880 0.4800 0.5170 0.5530 0.6019 0.6030
873.430379 0.6030 0.6020 0.6020 0.5940 0.5860
877.073877 0.5680 0.5310 0.4851 0.4590 0.4341
880.717376 0.3871 0.3511 0.3410 0.3310 0.3041
884.360874 0.2730 0.2720 0.2730 0.2980 0.3000
888.004372 0.3379 0.3490 0.3679 0.3909 0.4159
891.647871 0.4690 0.4970 0.5230 0.5480 0.5700
895.291369 0.6039 0.6130 0.6140 0.6140 0.6130
898.934867 0.5940 0.5740 0.5510 0.5250 0.5120
902.578366 0.4821 0.4601 0.4371 0.4071 0.4060
906.221864 0.4080 0.4190 0.4719 0.4930 0.5140
909.865363 0.5320 0.5479 0.5629 0.5779 0.6029
913.508861 0.6050 0.6050 0.6050 0.6040 0.5840
917.152359 0.5621 0.5461 0.5171 0.5041 0.4911
920.795858 0.4900 0.4910 0.5000 0.5060 0.5170
924.439356 0.5280 0.5380 0.5510 0.5649 0.6048
928.082855 0.6270 0.6480 0.6660 0.6830 0.6980
931.726353 0.7090 0.7170 0.7220 0.7280 0.7340
935.369851 0.7360 0.7350 0.7330 0.7300 0.7300
939.013350 0.7270 0.7220 0.7130 0.6961 0.6711
942.656848 0.6330 0.6210 0.6080 0.6010 0.5940
946.300346 0.5920 0.5790 0.6049 0.6259 0.6369
949.943845 0.6480 0.6580 0.6660 0.6710 0.6750
953.587343 0.6770 0.6850 0.6860 0.6870 0.6860
957.230842 0.6770 0.6680 0.6600 0.6520 0.6420
960.874340 0.6330 0.6320 0.6320 0.6370 0.6420
964.517838 0.6470 0.6500 0.6530 0.6530 0.6530
968.161337 0.6400 0.6191 0.6090 0.5980 0.5791
971.804835 0.5610 0.5450 0.5300 0.5290 0.5290
975.448334 0.5340 0.5340 0.5330 0.5300 0.5250
979.091832 0.5220 0.5190 0.5170 0.5160 0.5150
982.735330 0.5140 0.5130 0.5130 0.5060 0.4931
986.378829 0.4750 0.4650 0.4550 0.4320 0.4101
990.022327 0.3901 0.3731 0.3601 0.3520 0.3490
993.665825 0.3490 0.3500 0.3570 0.3650 0.3720
997.309324 0.3800 0.3860 0.3920 0.4030 0.4149
1000.952822 0.4240 0.4350 0.4420 0.4430 0.4430
1004.596321 0.4420 0.4261 0.4180 0.4110 0.4020
1008.239819 0.3940 0.3920 0.3930 0.3990 0.4050
1011.883317 0.4120 0.4180 0.4260 0.4320 0.4390
1015.526816 0.4460 0.4530 0.4590 0.4720 0.4710
1019.170314 0.4670 0.4630 0.4441 0.4281 0.4161
1022.813813 0.4060 0.3980 0.3900 0.3810 0.3680
1026.457311 0.3471 0.3360 0.3231 0.2961 0.2661
1030.100809 0.2380 0.2100 0.1990 0.1870 0.1680
1033.744308 0.1550 0.1381 0.1380 0.1410 0.1490
1037.387806 0.1540 0.1590 0.1600 0.1570 0.1520
1041.031304 0.1460 0.1380 0.1290 0.1180 0.1130
1044.674803 0.1120 0.1130 0.1190 0.1240 0.1300
1048.318301 0.1370 0.1380 0.1380 0.1360 0.1300
1051.961800 0.1250 0.1200 0.1160 0.1130 0.1110
1055.605298 0.1090 0.1090 0.1090 0.1120 0.1140
1059.248796 0.1230 0.1330 0.1430 0.1520 0.1610
1062.892295 0.1690 0.1740 0.1840 0.2049 0.2189
1066.535793 0.2370 0.2590 0.2979 0.3439 0.3650
1070.179292 0.3919 0.4079 0.4170 0.4240 0.4240
1073.822790 0.4210 0.4150 0.4080 0.4050 0.3841
1077.466288 0.3750 0.3650 0.3570 0.3470 0.3380
1081.109787 0.3380 0.3390 0.3530 0.3570 0.3620
1084.753285 0.3670 0.3690 0.3700 0.3730 0.3740
1088.396783 0.3760 0.3780 0.3850 0.3860 0.3860
1092.040282 0.3850 0.3730 0.3650 0.3501 0.3371
1095.683780 0.3240 0.2960 0.2860 0.2670 0.2480
1099.327279 0.2291 0.2111 0.2100 0.2110 0.2249
1102.970777 0.2340 0.2370 0.2420 0.2450 0.2450
1106.614275 0.2420 0.2350 0.2270 0.2210 0.2200
1110.257774 0.2210 0.2270 0.2340 0.2400 0.2450
1113.901272 0.2530 0.2640 0.2740 0.2850 0.2850
1117.544771 0.2850 0.2850 0.2500 0.2181 0.2080
1121.188269 0.2030 0.1970 0.1860 0.1760 0.1651
1124.831767 0.1540 0.1440 0.1420 0.1430 0.1560
1128.475266 0.1690 0.1810 0.2288 0.2569 0.2829
1132.118764 0.3070 0.3520 0.3730 0.3940 0.4159
1135.762262 0.4369 0.4769 0.4919 0.5030 0.5120
1139.405761 0.5180 0.5220 0.5260 0.5280 0.5300
1143.049259 0.5300 0.5300 0.5300 0.5300 0.5300
1146.692758 0.5300 0.5280 0.5250 0.5220 0.5210
1150.336256 0.5200 0.5180 0.5160 0.5060 0.4841
1153.979754 0.4750 0.4660 0.4500 0.4370 0.4270
1157.623253 0.4180 0.4100 0.3941 0.3930 0.4000
1161.266751 0.4000 0.4000 0.4000 0.4000 0.4000
1164.910250 0.4000 0.4000 0.4000 0.3940 0.3910
1168.553748 0.3840 0.3760 0.3680 0.3600 0.3520
1172.197246 0.3450 0.3400 0.3330 0.3250 0.3240
1175.840745 0.3340 0.3390 0.3540 0.3650 0.3740
1179.484243 0.3810 0.3880 0.3960 0.4010 0.4050
1183.127741 0.4050 0.4050 0.4050 0.4020 0.3940
1186.771240 0.3840 0.3700 0.3551 0.3391 0.3310
1190.414738 0.3220 0.3050 0.2880 0.2730 0.2580
1194.058237 0.2470 0.2380 0.2320 0.2300 0.2300
1197.701735 0.2280 0.2250 0.2200 0.2140 0.2080
1201.345233 0.2000 0.1970 0.1920 0.1840 0.1750
1204.988732 0.1650 0.1570 0.1480 0.1390 0.1310
1208.632230 0.1240 0.1091 0.0961 0.0821 0.0711
1212.275728 0.0660 0.0610 0.0510 0.0430 0.0370
1215.919227 0.0320 0.0270 0.0180 0.0180 0.0180
1219.562725 0.0210 0.0260 0.0310 0.0370 0.0440
1223.206224 0.0500 0.0560 0.0600 0.0670 0.0720
1226.849722 0.0720 0.0730 0.0740 0.0740 0.0720
1230.493220 0.0690 0.0650 0.0590 0.0550 0.0500
1234.136719 0.0480 0.0450 0.0430 0.0420 0.0410
1237.780217 0.0400 0.0400 0.0380 0.0380 0.0370
1241.423716 0.0370 0.0370 0.0350 0.0340 0.0320
1245.067214 0.0310 0.0290 0.0280 0.0260 0.0250
1248.710712 0.0240 0.0240 0.0240 0.0250 0.0260
1252.354211 0.0290 0.0340 0.0410 0.0480 0.0560
1255.997709 0.0720 0.0800 0.0900 0.0990 0.1100
1259.641207 0.1220 0.1350 0.1489 0.1520 0.1520
1263.284706 0.1500 0.1490 0.1400 0.1330 0.1240
1266.928204 0.1120 0.1100 0.1100 0.1150 0.1240
1270.571703 0.1380 0.1510 0.1630 0.1790 0.2099
1274.215201 0.2240 0.2370 0.2460 0.2530 0.2600
1277.858699 0.2610 0.2610 0.2610 0.2520 0.2520
1281.502198 0.2540 0.2660 0.2770 0.2860 0.2950
1285.145696 0.3040 0.3120 0.3190 0.3260 0.3390
1288.789195 0.3460 0.3520 0.3580 0.3650 0.3710
1292.432693 0.3780 0.3860 0.3930 0.4020 0.4100
1296.076191 0.4200 0.4290 0.4400 0.4450 0.4470
1299.719690 0.4480 0.4470 0.4460 0.4440 0.4390
1303.363188 0.4340 0.4320 0.4320 0.4330 0.4479
1307.006686 0.4800 0.4950 0.5090 0.5200 0.5270
1310.650185 0.5290 0.5300 0.5300 0.5290 0.5280
1314.293683 0.5230 0.5220 0.5140 0.4990 0.4810
1317.937182 0.4710 0.4610 0.4381 0.4161 0.3941
1321.580680 0.3770 0.3620 0.3540 0.3520 0.3410
1325.224178 0.3400 0.3410 0.3460 0.3520 0.3600
1328.867677 0.3690 0.3780 0.3830 0.3870 0.3920
1332.511175 0.3980 0.4040 0.4100 0.4170 0.4240
1336.154674 0.4300 0.4360 0.4420 0.4470 0.4500
1339.798172 0.4540 0.4560 0.4580 0.4610 0.4690
1343.441670 0.4730 0.4770 0.4800 0.4820 0.4830
1347.085169 0.4820 0.4780 0.4710 0.4660 0.4600
1350.728667 0.4470 0.4320 0.4150 0.3970 0.3790
1354.372165 0.3621 0.3461 0.3380 0.3300 0.3201
1358.015664 0.3090 0.2970 0.2860 0.2740 0.2640
1361.659162 0.2530 0.2430 0.2340 0.2240 0.2160
1365.302661 0.2090 0.2030 0.2000 0.1970 0.1950
1368.946159 0.1900 0.1830 0.1730 0.1630 0.1521
1372.589657 0.1410 0.1300 0.1200 0.1120 0.1050
1376.233156 0.1010 0.0930 0.0910 0.0920 0.0970
1379.876654 0.1110 0.1280 0.1440 0.1650 0.2099
1383.520153 0.2240 0.2340 0.2400 0.2430 0.2450
1387.163651 0.2470 0.2490 0.2520 0.2710 0.2900
1390.807149 0.3089 0.3459 0.3629 0.3789 0.3939
1394.450648 0.4080 0.4210 0.4300 0.4390 0.4400
1398.094146 0.4400 0.4360 0.4310 0.4181 0.4061
1401.737644 0.3940 0.3820 0.3700 0.3570 0.3450
1405.381143 0.3350 0.3250 0.3160 0.2971 0.2910
1409.024641 0.2780 0.2790 0.2930 0.2960 0.3040
1412.668140 0.3160 0.3439 0.3569 0.3630 0.3690
1416.311638 0.3740 0.3790 0.3840 0.3870 0.3910
1419.955136 0.3940 0.3950 0.3970 0.3990 0.3980
1423.598635 0.3970 0.3960 0.3960 0.3930 0.3860
1427.242133 0.3850 0.3740 0.3581 0.3381 0.3281
1430.885632 0.3180 0.2980 0.2810 0.2640 0.2630
1434.529130 0.2640 0.2849 0.2999 0.3348 0.3529
1438.172628 0.3720 0.3880 0.3970 0.4050 0.4050
1441.816127 0.4020 0.3970 0.3890 0.3830 0.3731
1445.459625 0.3600 0.3460 0.3340 0.3330 0.3320
1449.103123 0.3400 0.3709 0.3929 0.4059 0.4159
1452.746622 0.4260 0.4320 0.4390 0.4400 0.4410
1456.390120 0.4420 0.4460 0.4470 0.4749 0.4919
1460.033619 0.5060 0.5140 0.5210 0.5280 0.5360
1463.677117 0.5430 0.5490 0.5540 0.5590 0.5610
1467.320615 0.5660 0.5710 0.5760 0.5810 0.5840
1470.964114 0.5870 0.5890 0.6000 0.6010 0.6010
1474.607612 0.6000 0.6000 0.5970 0.5950 0.6020
1478.251111 0.6259 0.6449 0.6669 0.6849 0.6979
1481.894609 0.7080 0.7160 0.7210 0.7250 0.7290
1485.538107 0.7450 0.7540 0.7620 0.7680 0.7730
1489.181606 0.7760 0.7780 0.7800 0.7810 0.7840
1492.825104 0.7850 0.7880 0.7920 0.7970 0.8030
1496.468602 0.8070 0.8090 0.8100 0.8100 0.8080
1500.112101 0.8080 0.8060 0.8030 0.8020 0.8010
1503.755599 0.8020 0.8050 0.8080 0.8110 0.8180
1507.399098 0.8240 0.8240 0.8260 0.8270 0.8280
1511.042596 0.8290 0.8290 0.8300 0.8310 0.8320
1514.686094 0.8320 0.8330 0.8340 0.8350 0.8350
1518.329593 0.8360 0.8370 0.8370 0.8380 0.8420
1521.973091 0.8460 0.8500 0.8550 0.8580 0.8580
1525.616590 0.8580 0.8590 0.8600 0.8600 0.8600
1529.260088 0.8590 0.8590 0.8590 0.8600 0.8610
1532.903586 0.8610 0.8610 0.8610 0.8610 0.8590
1536.547085 0.8590 0.8580 0.8580 0.8580 0.8580
1540.190583 0.8580 0.8590 0.8610 0.8630 0.8660
1543.834081 0.8690 0.8700 0.8700 0.8700 0.8700
1547.477580 0.8700 0.8700 0.8690 0.8690 0.8690
1551.121078 0.8680 0.8670 0.8660 0.8660 0.8650
1554.764577 0.8650 0.8640 0.8640 0.8640 0.8640
1558.408075 0.8640 0.8640 0.8640 0.8640 0.8630
1562.051573 0.8620 0.8620 0.8610 0.8610 0.8600
1565.695072 0.8580 0.8570 0.8560 0.8540 0.8530
1569.338570 0.8500 0.8480 0.8460 0.8430 0.8400
1572.982068 0.8370 0.8320 0.8280 0.8210 0.8160
1576.625567 0.8100 0.8050 0.8000 0.7960 0.7920
1580.269065 0.7880 0.7840 0.7800 0.7770 0.7730
1583.912564 0.7700 0.7660 0.7620 0.7580 0.7540
1587.556062 0.7490 0.7450 0.7390 0.7330 0.7300
1591.199560 0.7280 0.7210 0.7130 0.7050 0.6960
1594.843059 0.6870 0.6770 0.6651 0.6531 0.6401
1598.486557 0.6260 0.6100 0.6020 0.5940 0.5760
1602.130056 0.5571 0.5381 0.5161 0.4931 0.4691
1605.773554 0.4560 0.4420 0.3971 0.3571 0.3410
1609.417052 0.3231 0.2951 0.2711 0.2511 0.2351
1613.060551 0.2220 0.2130 0.2050 0.1970 0.1890
1616.704049 0.1740 0.1670 0.1660 0.1670 0.2068
1620.347547 0.2320 0.2590 0.2880 0.3519 0.3839
1623.991046 0.4149 0.4738 0.5009 0.5249 0.5459
1627.634544 0.5620 0.5770 0.5820 0.5820 0.5830
1631.278043 0.5840 0.5840 0.5890 0.5940 0.5970
1634.921541 0.6000 0.6020 0.6040 0.6060 0.6070
1638.565039 0.6060 0.6060 0.6050 0.6040 0.6020
1642.208538 0.6000 0.6000 0.5980 0.5960 0.5930
1645.852036 0.5910 0.5880 0.5850 0.5820 0.5790
1649.495535 0.5760 0.5730 0.5700 0.5670 0.5640
1653.139033 0.5620 0.5590 0.5580 0.5580 0.5570
1656.782531 0.5570 0.5550 0.5470 0.5380 0.5310
1660.426030 0.5220 0.5140 0.5040 0.4980 0.4890
1664.069528 0.4790 0.4670 0.4610 0.4550 0.4410
1667.713026 0.4260 0.4111 0.3971 0.3811 0.3671
1671.356525 0.3530 0.3390 0.3310 0.3220 0.3060
1675.000023 0.2930 0.2800 0.2690 0.2600 0.2510
1678.643522 0.2430 0.2360 0.2290 0.2220 0.2160
1682.287020 0.2090 0.2020 0.1980 0.1940 0.1741
1685.930518 0.1560 0.1390 0.1240 0.1100 0.0980
1689.574017 0.0880 0.0790 0.0720 0.0660 0.0640
1693.217515 0.0620 0.0600 0.0580 0.0560 0.0530
1696.861014 0.0500 0.0490 0.0480 0.0470 0.0460
1700.504512 0.0470 0.0480 0.0520 0.0560 0.0600
1704.148010 0.0690 0.0700 0.0770 0.0840 0.0910
1707.791509 0.0980 0.1030 0.1060 0.1090 0.1090
1711.435007 0.1090 0.1050 0.0960 0.0900 0.0880
1715.078505 0.0860 0.0840 0.0800 0.0710 0.0670
1718.722004 0.0640 0.0580 0.0540 0.0500 0.0480
1722.365502 0.0490 0.0500 0.0530 0.0560 0.0590
1726.009001 0.0610 0.0650 0.0660 0.0650 0.0610
1729.652499 0.0550 0.0500 0.0480 0.0460 0.0450
1733.295997 0.0430 0.0420 0.0390 0.0340 0.0280
1736.939496 0.0250 0.0240 0.0230 0.0220 0.0220
1740.582994 0.0230 0.0240 0.0240 0.0250 0.0270
1744.226493 0.0290 0.0320 0.0340 0.0380 0.0430
1747.869991 0.0520 0.0570 0.0700 0.0859 0.1009
1751.513489 0.1140 0.1270 0.1380 0.1490 0.1580
1755.156988 0.1720 0.2009 0.2160 0.2319 0.2489
1758.800486 0.2650 0.2820 0.2980 0.3140 0.3460
1762.443984 0.3610 0.3750 0.3890 0.4010 0.4120
1766.087483 0.4210 0.4300 0.4370 0.4420 0.4749
1769.730981 0.4900 0.5059 0.5199 0.5339 0.5479
1773.374480 0.5600 0.5730 0.5840 0.6069 0.6170
1777.017978 0.6260 0.6360 0.6450 0.6530 0.6610
1780.661476 0.6690 0.6760 0.6830 0.6890 0.6950
1784.304975 0.6990 0.7030 0.7060 0.7100 0.7140
1787.948473 0.7170 0.7210 0.7250 0.7280 0.7340
1791.591972 0.7370 0.7400 0.7420 0.7450 0.7460
1795.235470 0.7490 0.7500 0.7510 0.7520 0.7520
1798.878968 0.7520 0.7530 0.7530 0.7540 0.7540
1802.522467 0.7540 0.7540 0.7540 0.7550 0.7550
1806.165965 0.7550 0.7560 0.7590 0.7650 0.7690
1809.809463 0.7740 0.7780 0.7840 0.7880 0.7920
1813.452962 0.7960 0.8000 0.8040 0.8080 0.8110
1817.096460 0.8140 0.8150 0.8160 0.8180 0.8210
1820.739959 0.8250 0.8290 0.8320 0.8320 0.8330
1824.383457 0.8340 0.8370 0.8400 0.8460 0.8510
1828.026955 0.8530 0.8560 0.8570 0.8580 0.8570
1831.670454 0.8580 0.8590 0.8600 0.8620 0.8640
1835.313952 0.8640 0.8650 0.8650 0.8660 0.8670
1838.957451 0.8680 0.8710 0.8720 0.8730 0.8740
1842.600949 0.8760 0.8770 0.8780 0.8800 0.8850
1846.244447 0.8880 0.8900 0.8930 0.8950 0.8960
1849.887946 0.8980 0.9000 0.9020 0.9040 0.9050
1853.531444 0.9060 0.9080 0.9090 0.9130 0.9150
1857.174942 0.9170 0.9180 0.9200 0.9210 0.9220
1860.818441 0.9220 0.9240 0.9240 0.9240 0.9250
1864.461939 0.9280 0.9320 0.9370 0.9410 0.9440
1868.105438 0.9460 0.9470 0.9490 0.9500 0.9520
1871.748936 0.9520 0.9530 0.9540 0.9540 0.9540
1875.392434 0.9540 0.9540 0.9540 0.9550 0.9550
1879.035933 0.9560 0.9560 0.9560 0.9570 0.9570
1882.679431 0.9600 0.9610 0.9620 0.9620 0.9630
1886.322930 0.9640 0.9650 0.9650 0.9650 0.9660
1889.966428 0.9670 0.9670 0.9680 0.9680 0.9700
1893.609926 0.9700 0.9700 0.9710 0.9710 0.9710
1897.253425 0.9710 0.9720 0.9720 0.9720 0.9730
1900.896923 0.9730 0.9730 0.9730 0.9730 0.9730
1904.540421 0.9730 0.9730 0.9730 0.9730 0.9730
1908.183920 0.9730 0.9730 0.9730 0.9730 0.9730
1911.827418 0.9720 0.9720 0.9720 0.9710 0.9710
1915.470917 0.9700 0.9700 0.9700 0.9700 0.9700
1919.114415 0.9700 0.9700 0.9690 0.9690 0.9690
1922.757913 0.9690 0.9680 0.9680 0.9670 0.9660
1926.401412 0.9650 0.9650 0.9650 0.9650 0.9640
1930.044910 0.9640 0.9630 0.9630 0.9620 0.9620
1933.688409 0.9610 0.9610 0.9600 0.9600 0.9590
1937.331907 0.9580 0.9570 0.9570 0.9570 0.9560
1940.975405 0.9560 0.9550 0.9550 0.9550 0.9540
1944.618904 0.9540 0.9540 0.9530 0.9530 0.9520
1948.262402 0.9520 0.9520 0.9520 0.9520 0.9520
1951.905900 0.9520 0.9530 0.9530 0.9540 0.9540
1955.549399 0.9540 0.9550 0.9570 0.9580 0.9590
1959.192897 0.9590 0.9600 0.9600 0.9610 0.9620
1962.836396 0.9630 0.9640 0.9640 0.9650 0.9650
1966.479894 0.9650 0.9660 0.9660 0.9660 0.9660
1970.123392 0.9660 0.9660 0.9660 0.9660 0.9680
1973.766891 0.9680 0.9690 0.9700 0.9720 0.9730
1977.410389 0.9730 0.9730 0.9740 0.9740 0.9750
1981.053887 0.9750 0.9760 0.9760 0.9760 0.9770
1984.697386 0.9770 0.9780 0.9780 0.9780 0.9780
1988.340884 0.9780 0.9780 0.9790 0.9790 0.9790
1991.984383 0.9800 0.9800 0.9800 0.9800 0.9800
1995.627881 0.9800 0.9800 0.9810 0.9810 0.9810
1999.271379 0.9810 0.9810 0.9810 0.9810 0.9810
2002.914878 0.9810 0.9810 0.9810 0.9810 0.9810
2006.558376 0.9810 0.9810 0.9810 0.9810 0.9810
2010.201875 0.9810 0.9810 0.9810 0.9810 0.9810
2013.845373 0.9810 0.9810 0.9810 0.9810 0.9810
2017.488871 0.9810 0.9810 0.9810 0.9810 0.9810
2021.132370 0.9810 0.9810 0.9810 0.9810 0.9810
2024.775868 0.9810 0.9810 0.9810 0.9810 0.9810
2028.419366 0.9810 0.9810 0.9810 0.9810 0.9810
2032.062865 0.9810 0.9810 0.9810 0.9810 0.9810
2035.706363 0.9810 0.9810 0.9810 0.9810 0.9810
2039.349862 0.9810 0.9810 0.9810 0.9810 0.9810
2042.993360 0.9810 0.9810 0.9807 0.9805 0.9802
2046.636858 0.9800 0.9803 0.9805 0.9808 0.9810
2050.280357 0.9810 0.9810 0.9810 0.9810 0.9810
2053.923855 0.9810 0.9810 0.9810 0.9810 0.9810
2057.567354 0.9810 0.9810 0.9810 0.9810 0.9810
2061.210852 0.9810 0.9810 0.9810 0.9810 0.9810
2064.854350 0.9810 0.9810 0.9810 0.9810 0.9810
2068.497849 0.9810 0.9810 0.9810 0.9810 0.9810
2072.141347 0.9810 0.9810 0.9810 0.9810 0.9810
2075.784845 0.9810 0.9810 0.9810 0.9810 0.9810
2079.428344 0.9810 0.9810 0.9810 0.9810 0.9810
2083.071842 0.9810 0.9810 0.9810 0.9810 0.9810
2086.715341 0.9810 0.9810 0.9810 0.9810 0.9810
2090.358839 0.9810 0.9810 0.9810 0.9810 0.9810
2094.002337 0.9810 0.9810 0.9810 0.9810 0.9810
2097.645836 0.9810 0.9810 0.9810 0.9810 0.9810
2101.289334 0.9810 0.9810 0.9810 0.9810 0.9810
2104.932833 0.9811 0.9813 0.9816 0.9818 0.9820
2108.576331 0.9820 0.9820 0.9820 0.9820 0.9820
2112.219829 0.9820 0.9820 0.9820 0.9820 0.9820
2115.863328 0.9820 0.9820 0.9820 0.9820 0.9820
2119.506826 0.9821 0.9823 0.9826 0.9828 0.9830
2123.150324 0.9830 0.9830 0.9830 0.9829 0.9827
2126.793823 0.9824 0.9822 0.9820 0.9820 0.9820
2130.437321 0.9820 0.9821 0.9823 0.9826 0.9828
2134.080820 0.9831 0.9833 0.9836 0.9838 0.9840
2137.724318 0.9840 0.9840 0.9840 0.9840 0.9840
2141.367816 0.9840 0.9840 0.9840 0.9840 0.9840
2145.011315 0.9840 0.9840 0.9840 0.9840 0.9840
2148.654813 0.9840 0.9840 0.9840 0.9840 0.9840
2152.298312 0.9840 0.9840 0.9840 0.9840 0.9840
2155.941810 0.9840 0.9840 0.9840 0.9840 0.9840
2159.585308 0.9840 0.9840 0.9840 0.9840 0.9840
2163.228807 0.9841 0.9844 0.9846 0.9849 0.9851
2166.872305 0.9854 0.9856 0.9859 0.9860 0.9860
2170.515803 0.9860 0.9860 0.9860 0.9860 0.9860
2174.159302 0.9860 0.9861 0.9864 0.9866 0.9869
2177.802800 0.9870 0.9870 0.9870 0.9870 0.9871
2181.446299 0.9874 0.9876 0.9879 0.9881 0.9884
2185.089797 0.9886 0.9889 0.9890 0.9890 0.9890
2188.733295 0.9890 0.9890 0.9890 0.9890 0.9890
2192.376794 0.9890 0.9890 0.9890 0.9890 0.9891
2196.020292 0.9894 0.9896 0.9899 0.9900 0.9900
2199.663791 0.9900 0.9900 0.9901 0.9904 0.9906
2203.307289 0.9909 0.9911 0.9914 0.9916 0.9919
2206.950787 0.9920 0.9920 0.9920 0.9920 0.9920
2210.594286 0.9920 0.9920 0.9920 0.9920 0.9920
2214.237784 0.9920 0.9920 0.9920 0.9920 0.9920
2217.881282 0.9920 0.9920 0.9920 0.9920 0.9920
2221.524781 0.9920 0.9920 0.9920 0.9920 0.9920
2225.168279 0.9920 0.9920 0.9920 0.9920 0.9920
2228.811778 0.9920 0.9920 0.9920 0.9920 0.9920
2232.455276 0.9920 0.9918 0.9916 0.9913 0.9911
2236.098774 0.9910 0.9910 0.9910 0.9910 0.9910
2239.742273 0.9910 0.9910 0.9910 0.9910 0.9910
2243.385771 0.9910 0.9910 0.9908 0.9906 0.9903
2247.029270 0.9901 0.9900 0.9900 0.9900 0.9900
2250.672768 0.9900 0.9900 0.9900 0.9900 0.9898
2254.316266 0.9896 0.9893 0.9891 0.9892 0.9894
2257.959765 0.9897 0.9899 0.9902 0.9904 0.9907
2261.603263 0.9909 0.9910 0.9910 0.9910 0.9910
2265.246761 0.9910 0.9910 0.9910 0.9910 0.9908
2268.890260 0.9906 0.9903 0.9901 0.9900 0.9900
2272.533758 0.9900 0.9900 0.9900 0.9900 0.9900
2276.177257 0.9900 0.9900 0.9900 0.9900 0.9900
2279.820755 0.9900 0.9900 0.9900 0.9900 0.9900
2283.464253 0.9900 0.9900 0.9900 0.9900 0.9900
2287.107752 0.9900 0.9900 0.9898 0.9896 0.9893
2290.751250 0.9891 0.9890 0.9890 0.9890 0.9890
2294.394749 0.9886 0.9881 0.9876 0.9871 0.9868
2298.038247 0.9866 0.9863 0.9861 0.9858 0.9856
2301.681745 0.9853 0.9851 0.9848 0.9846 0.9843
2305.325244 0.9841 0.9840 0.9840 0.9840 0.9840
2308.968742 0.9836 0.9831 0.9826 0.9821 0.9818
2312.612240 0.9815 0.9813 0.9810 0.9808 0.9805
2316.255739 0.9803 0.9800 0.9798 0.9795 0.9793
2319.899237 0.9790 0.9788 0.9785 0.9783 0.9780
2323.542736 0.9778 0.9775 0.9773 0.9770 0.9768
2327.186234 0.9765 0.9763 0.9760 0.9758 0.9755
2330.829732 0.9753 0.9750 0.9748 0.9745 0.9743
2334.473231 0.9740 0.9738 0.9735 0.9733 0.9730
2338.116729 0.9728 0.9725 0.9723 0.9720 0.9716
2341.760227 0.9711 0.9706 0.9701 0.9693 0.9686
2345.403726 0.9678 0.9671 0.9659 0.9646 0.9633
2349.047224 0.9621 0.9620 0.9620 0.9620 0.9620
2352.690723 0.9615 0.9610 0.9605 0.9600 0.9593
2356.334221 0.9585 0.9578 0.9570 0.9568 0.9565
2359.977719 0.9563 0.9560 0.9560 0.9560 0.9560
2363.621218 0.9560 0.9562 0.9565 0.9567 0.9570
2367.264716 0.9572 0.9575 0.9577 0.9580 0.9585
2370.908215 0.9590 0.9595 0.9600 0.9600 0.9600
2374.551713 0.9600 0.9600 0.9605 0.9610 0.9615
2378.195211 0.9620 0.9620 0.9620 0.9620 0.9620
2381.838710 0.9625 0.9630 0.9635 0.9640 0.9640
2385.482208 0.9640 0.9640 0.9640 0.9643 0.9645
2389.125706 0.9648 0.9650 0.9650 0.9650 0.9650
2392.769205 0.9650 0.9650 0.9650 0.9650 0.9650
2396.412703 0.9647 0.9645 0.9642 0.9640 0.9640
2400.056202 0.9640 0.9640 0.9640 0.9635 0.9630
2403.699700 0.9625 0.9620 0.9617 0.9615 0.9612
2407.343198 0.9610 0.9605 0.9600 0.9595 0.9590
2410.986697 0.9587 0.9585 0.9582 0.9580 0.9577
2414.630195 0.9575 0.9572 0.9570 0.9570 0.9570
2418.273694 0.9570 0.9570 0.9567 0.9565 0.9562
2421.917192 0.9560 0.9560 0.9560 0.9560 0.9560
2425.560690 0.9557 0.9555 0.9552 0.9550 0.9550
2429.204189 0.9550 0.9550 0.9550 0.9547 0.9545
2432.847687 0.9542 0.9540 0.9540 0.9540 0.9540
2436.491185 0.9540 0.9537 0.9535 0.9532 0.9530
2440.134684 0.9527 0.9525 0.9522 0.9520 0.9520
2443.778182 0.9520 0.9520 0.9520 0.9517 0.9515
2447.421681 0.9512 0.9510 0.9507 0.9505 0.9502
2451.065179 0.9500 0.9500 0.9500 0.9500 0.9500
2454.708677 0.9497 0.9495 0.9492 0.9490 0.9490
2458.352176 0.9490 0.9490 0.9490 0.9490 0.9490
2461.995674 0.9490 0.9490 0.9487 0.9484 0.9482
2465.639173 0.9479 0.9477 0.9474 0.9472 0.9469
2469.282671 0.9467 0.9464 0.9462 0.9460 0.9460
2472.926169 0.9460 0.9460 0.9460 0.9460 0.9460
2476.569668 0.9460 0.9460 0.9460 0.9460 0.9460
2480.213166 0.9460 0.9460 0.9460 0.9460 0.9459
2483.856664 0.9457 0.9454 0.9452 0.9450 0.9450
2487.500163 0.9450 0.9450 0.9450 0.9450 0.9450
2491.143661 0.9450 0.9450 0.9450 0.9450 0.9450
2494.787160 0.9451 0.9453 0.9456 0.9458 0.9460
2498.430658 0.9460 0.9460 0.9460 0.9460 0.9460
2502.074156 0.9460 0.9460 0.9460 0.9460 0.9460
2505.717655 0.9460 0.9460 0.9460 0.9460 0.9460
2509.361153 0.9460 0.9460 0.9460 0.9460 0.9460
2513.004652 0.9460 0.9460 0.9460 0.9460 0.9460
2516.648150 0.9460 0.9460 0.9460 0.9460 0.9460
2520.291648 0.9460 0.9460 0.9460 0.9460 0.9460
2523.935147 0.9460 0.9460 0.9460 0.9460 0.9460
2527.578645 0.9460 0.9460 0.9460 0.9458 0.9453
2531.222143 0.9448 0.9443 0.9440 0.9440 0.9440
2534.865642 0.9440 0.9438 0.9433 0.9428 0.9423
2538.509140 0.9419 0.9416 0.9414 0.9411 0.9408
2542.152639 0.9403 0.9398 0.9393 0.9389 0.9386
2545.796137 0.9384 0.9381 0.9378 0.9373 0.9368
2549.439635 0.9363 0.9358 0.9353 0.9348 0.9343
2553.083134 0.9339 0.9336 0.9334 0.9331 0.9328
2556.726632 0.9323 0.9318 0.9313 0.9309 0.9306
2560.370131 0.9304 0.9301 0.9300 0.9300 0.9300
2564.013629 0.9300 0.9299 0.9296 0.9294 0.9291
2567.657127 0.9289 0.9286 0.9284 0.9281 0.9280
2571.300626 0.9280 0.9280 0.9280 0.9280 0.9280
2574.944124 0.9280 0.9280 0.9276 0.9269 0.9261
2578.587622 0.9254 0.9246 0.9239 0.9231 0.9223
2582.231121 0.9217 0.9212 0.9207 0.9202 0.9199
2585.874619 0.9196 0.9194 0.9191 0.9187 0.9182
2589.518118 0.9177 0.9172 0.9167 0.9162 0.9157
2593.161616 0.9152 0.9149 0.9146 0.9144 0.9141
2596.805114 0.9137 0.9132 0.9127 0.9122 0.9120
2600.448613 0.9120 0.9120 0.9120 0.9117 0.9112
2604.092111 0.9107 0.9102 0.9099 0.9096 0.9094
2607.735610 0.9091 0.9087 0.9082 0.9077 0.9072
2611.379108 0.9067 0.9062 0.9057 0.9052 0.9047
2615.022606 0.9042 0.9037 0.9032 0.9027 0.9022
2618.666105 0.9017 0.9012 0.9005 0.8998 0.8990
2622.309603 0.8983 0.8975 0.8968 0.8960 0.8953
2625.953101 0.8943 0.8933 0.8923 0.8913 0.8905
2629.596600 0.8898 0.8890 0.8883 0.8870 0.8855
2633.240098 0.8840 0.8825 0.8812 0.8799 0.8787
2636.883597 0.8774 0.8762 0.8749 0.8736 0.8724
2640.527095 0.8715 0.8707 0.8700 0.8692 0.8683
2644.170593 0.8673 0.8663 0.8653 0.8635 0.8615
2647.814092 0.8595 0.8575 0.8568 0.8566 0.8563
2651.457590 0.8561 0.8560 0.8560 0.8560 0.8560
2655.101089 0.8564 0.8569 0.8574 0.8579 0.8580
2658.744587 0.8580 0.8580 0.8580 0.8582 0.8584
2662.388085 0.8587 0.8589 0.8592 0.8594 0.8597
2666.031584 0.8599 0.8604 0.8609 0.8614 0.8619
2669.675082 0.8624 0.8629 0.8634 0.8639 0.8648
2673.318580 0.8658 0.8668 0.8678 0.8682 0.8685
2676.962079 0.8687 0.8690 0.8686 0.8681 0.8676
2680.605577 0.8671 0.8670 0.8670 0.8670 0.8670
2684.249076 0.8668 0.8665 0.8663 0.8660 0.8656
2687.892574 0.8651 0.8646 0.8641 0.8634 0.8626
2691.536072 0.8619 0.8611 0.8604 0.8596 0.8589
2695.179571 0.8581 0.8568 0.8552 0.8537 0.8522
2698.823069 0.8518 0.8515 0.8513 0.8510 0.8512
2702.466568 0.8515 0.8517 0.8520 0.8524 0.8529
2706.110066 0.8534 0.8539 0.8544 0.8549 0.8554
2709.753564 0.8559 0.8562 0.8565 0.8567 0.8570
2713.397063 0.8579 0.8589 0.8599 0.8609 0.8612
2717.040561 0.8615 0.8617 0.8620 0.8624 0.8629
2720.684059 0.8634 0.8639 0.8640 0.8640 0.8640
2724.327558 0.8640 0.8642 0.8645 0.8647 0.8650
2727.971056 0.8648 0.8645 0.8643 0.8640 0.8638
2731.614555 0.8635 0.8633 0.8630 0.8623 0.8615
2735.258053 0.8608 0.8600 0.8593 0.8585 0.8578
2738.901551 0.8570 0.8568 0.8565 0.8563 0.8560
2742.545050 0.8555 0.8550 0.8545 0.8540 0.8540
2746.188548 0.8540 0.8540 0.8540 0.8542 0.8545
2749.832046 0.8547 0.8550 0.8552 0.8555 0.8557
2753.475545 0.8560 0.8572 0.8585 0.8598 0.8610
2757.119043 0.8610 0.8610 0.8610 0.8610 0.8615
2760.762542 0.8620 0.8625 0.8630 0.8633 0.8635
2764.406040 0.8638 0.8640 0.8640 0.8640 0.8640
2768.049538 0.8640 0.8637 0.8635 0.8632 0.8630
2771.693037 0.8627 0.8625 0.8622 0.8620 0.8615
2775.336535 0.8610 0.8605 0.8600 0.8595 0.8590
2778.980034 0.8585 0.8580 0.8575 0.8570 0.8565
2782.623532 0.8560 0.8552 0.8544 0.8537 0.8529
2786.267030 0.8516 0.8504 0.8491 0.8478 0.8463
2789.910529 0.8448 0.8433 0.8418 0.8398 0.8378
2793.554027 0.8358 0.8337 0.8312 0.8287 0.8262
2797.197525 0.8236 0.8206 0.8176 0.8146 0.8115
2800.841024 0.8078 0.8040 0.8003 0.7964 0.7919
2804.484522 0.7874 0.7829 0.7784 0.7734 0.7684
2808.128021 0.7633 0.7582 0.7522 0.7462 0.7402
2811.771519 0.7345 0.7310 0.7274 0.7239 0.7203
2815.415017 0.7168 0.7133 0.7098 0.7044 0.6908
2819.058516 0.6773 0.6638 0.6511 0.6416 0.6321
2822.702014 0.6226 0.6140 0.6090 0.6040 0.5990
2826.345513 0.5940 0.5893 0.5845 0.5798 0.5740
2829.989011 0.5640 0.5539 0.5439 0.5340 0.5242
2833.632509 0.5145 0.5047 0.4970 0.4970 0.4970
2837.276008 0.4970 0.4989 0.5082 0.5175 0.5267
2840.919506 0.5350 0.5398 0.5447 0.5495 0.5531
2844.563004 0.5533 0.5536 0.5538 0.5539 0.5534
2848.206503 0.5529 0.5524 0.5508 0.5463 0.5418
2851.850001 0.5372 0.5326 0.5276 0.5226 0.5176
2855.493500 0.5099 0.4954 0.4809 0.4664 0.4520
2859.136998 0.4377 0.4235 0.4092 0.3977 0.3932
2862.780496 0.3887 0.3842 0.3796 0.3749 0.3701
2866.423995 0.3654 0.3606 0.3559 0.3511 0.3464
2870.067493 0.3423 0.3397 0.3372 0.3346 0.3322
2873.710992 0.3300 0.3277 0.3255 0.3223 0.3176
2877.354490 0.3128 0.3081 0.3032 0.2982 0.2932
2880.997988 0.2882 0.2850 0.2850 0.2850 0.2850
2884.641487 0.2894 0.3017 0.3139 0.3262 0.3344
2888.284985 0.3354 0.3364 0.3374 0.3387 0.3407
2891.928483 0.3427 0.3447 0.3480 0.3535 0.3590
2895.571982 0.3645 0.3684 0.3694 0.3704 0.3714
2899.215480 0.3720 0.3720 0.3720 0.3720 0.3718
2902.858979 0.3713 0.3708 0.3703 0.3677 0.3625
2906.502477 0.3572 0.3520 0.3465 0.3408 0.3350
2910.145975 0.3293 0.3234 0.3174 0.3114 0.3054
2913.789474 0.3010 0.2988 0.2965 0.2943 0.2911
2917.432972 0.2869 0.2826 0.2784 0.2703 0.2573
2921.076471 0.2442 0.2312 0.2233 0.2218 0.2203
2924.719969 0.2188 0.2167 0.2137 0.2107 0.2077
2928.363467 0.2059 0.2056 0.2054 0.2051 0.2050
2932.006966 0.2050 0.2050 0.2050 0.2050 0.2050
2935.650464 0.2050 0.2050 0.2051 0.2054 0.2056
2939.293962 0.2059 0.2066 0.2079 0.2091 0.2104
2942.937461 0.2118 0.2133 0.2148 0.2163 0.2178
2946.580959 0.2193 0.2208 0.2223 0.2239 0.2257
2950.224458 0.2274 0.2292 0.2343 0.2426 0.2508
2953.867956 0.2591 0.2640 0.2660 0.2681 0.2701
2957.511454 0.2733 0.2776 0.2819 0.2862 0.2909
2961.154953 0.2959 0.3009 0.3059 0.3140 0.3243
2964.798451 0.3345 0.3448 0.3521 0.3573 0.3626
2968.441950 0.3679 0.3734 0.3792 0.3849 0.3907
2972.085448 0.3964 0.4022 0.4079 0.4137 0.4196
2975.728946 0.4256 0.4316 0.4376 0.4479 0.4612
2979.372445 0.4744 0.4877 0.4972 0.5042 0.5112
2983.015943 0.5182 0.5257 0.5334 0.5412 0.5489
2986.659441 0.5621 0.5789 0.5956 0.6124 0.6223
2990.302940 0.6288 0.6353 0.6418 0.6447 0.6457
2993.946438 0.6467 0.6477 0.6480 0.6480 0.6480
2997.589937 0.6480 0.6475 0.6467 0.6460 0.6452
3001.233435 0.6386 0.6291 0.6196 0.6101 0.6038
3004.876933 0.5990 0.5943 0.5895 0.5846 0.5796
3008.520432 0.5746 0.5696 0.5626 0.5546 0.5466
3012.163930 0.5386 0.5360 0.5360 0.5360 0.5360
3015.807429 0.5472 0.5637 0.5802 0.5967 0.6040
3019.450927 0.6080 0.6120 0.6160 0.6202 0.6244
3023.094425 0.6287 0.6329 0.6362 0.6392 0.6422
3026.737924 0.6452 0.6484 0.6517 0.6549 0.6582
3030.381422 0.6626 0.6673 0.6721 0.6768 0.6823
3034.024920 0.6881 0.6938 0.6996 0.7080 0.7172
3037.668419 0.7265 0.7357 0.7410 0.7450 0.7490
3041.311917 0.7530 0.7565 0.7597 0.7630 0.7662
3044.955416 0.7691 0.7719 0.7747 0.7775 0.7801
3048.598914 0.7826 0.7851 0.7876 0.7896 0.7916
3052.242412 0.7936 0.7956 0.7972 0.7987 0.8002
3055.885911 0.8017 0.8032 0.8047 0.8062 0.8077
3059.529409 0.8088 0.8098 0.8108 0.8118 0.8126
3063.172908 0.8134 0.8141 0.8149 0.8156 0.8164
3066.816406 0.8171 0.8179 0.8184 0.8189 0.8194
3070.459904 0.8199 0.8202 0.8205 0.8207 0.8210
3074.103403 0.8212 0.8215 0.8217 0.8220 0.8222
3077.746901 0.8225 0.8227 0.8230 0.8232 0.8235
3081.390399 0.8237 0.8240 0.8245 0.8250 0.8255
3085.033898 0.8260 0.8260 0.8260 0.8260 0.8260
3088.677396 0.8260 0.8260 0.8260 0.8260 0.8260
3092.320895 0.8260 0.8260 0.8260 0.8260 0.8260
3095.964393 0.8260 0.8260 0.8260 0.8260 0.8260
3099.607891 0.8260 0.8260 0.8260 0.8260 0.8260
3103.251390 0.8260 0.8260 0.8260 0.8260 0.8260
3106.894888 0.8260 0.8260 0.8260 0.8260 0.8260
3110.538386 0.8260 0.8260 0.8260 0.8260 0.8260
3114.181885 0.8260 0.8260 0.8260 0.8260 0.8260
3117.825383 0.8260 0.8260 0.8260 0.8260 0.8260
3121.468882 0.8260 0.8260 0.8260 0.8260 0.8260
3125.112380 0.8260 0.8260 0.8258 0.8255 0.8253
3128.755878 0.8250 0.8250 0.8250 0.8250 0.8250
3132.399377 0.8250 0.8250 0.8250 0.8250 0.8250
3136.042875 0.8250 0.8250 0.8250 0.8250 0.8250
3139.686374 0.8250 0.8250 0.8250 0.8250 0.8250
3143.329872 0.8250 0.8250 0.8250 0.8250 0.8250
3146.973370 0.8250 0.8250 0.8250 0.8250 0.8250
3150.616869 0.8250 0.8250 0.8250 0.8247 0.8245
3154.260367 0.8242 0.8240 0.8240 0.8240 0.8240
3157.903865 0.8240 0.8240 0.8240 0.8240 0.8240
3161.547364 0.8237 0.8235 0.8232 0.8230 0.8227
3165.190862 0.8225 0.8222 0.8220 0.8220 0.8220
3168.834361 0.8220 0.8220 0.8220 0.8220 0.8220
3172.477859 0.8220 0.8217 0.8215 0.8212 0.8210
3176.121357 0.8207 0.8205 0.8202 0.8199 0.8194
3179.764856 0.8189 0.8184 0.8179 0.8174 0.8169
3183.408354 0.8164 0.8160 0.8160 0.8160 0.8160
3187.051853 0.8159 0.8154 0.8149 0.8144 0.8140
3190.695351 0.8137 0.8135 0.8132 0.8125 0.8100
3194.338849 0.8075 0.8050 0.8029 0.8024 0.8019
3197.982348 0.8014 0.8008 0.7998 0.7988 0.7978
3201.625846 0.7968 0.7958 0.7948 0.7938 0.7929
3205.269344 0.7927 0.7924 0.7922 0.7918 0.7911
3208.912843 0.7903 0.7896 0.7889 0.7884 0.7879
3212.556341 0.7874 0.7869 0.7867 0.7864 0.7862
3216.199840 0.7860 0.7860 0.7860 0.7860 0.7860
3219.843338 0.7860 0.7860 0.7860 0.7859 0.7857
3223.486836 0.7854 0.7852 0.7850 0.7850 0.7850
3227.130335 0.7850 0.7849 0.7847 0.7844 0.7842
3230.773833 0.7840 0.7840 0.7840 0.7840 0.7840
3234.417332 0.7840 0.7840 0.7840 0.7839 0.7833
3238.060830 0.7828 0.7823 0.7819 0.7817 0.7814
3241.704328 0.7812 0.7809 0.7807 0.7804 0.7802
3245.347827 0.7798 0.7793 0.7788 0.7783 0.7778
3248.991325 0.7770 0.7762 0.7755 0.7748 0.7743
3252.634823 0.7738 0.7733 0.7727 0.7720 0.7712
3256.278322 0.7705 0.7697 0.7690 0.7682 0.7675
3259.921820 0.7667 0.7660 0.7652 0.7645 0.7637
3263.565319 0.7630 0.7622 0.7615 0.7606 0.7596
3267.208817 0.7586 0.7576 0.7567 0.7560 0.7552
3270.852315 0.7545 0.7537 0.7530 0.7522 0.7515
3274.495814 0.7506 0.7496 0.7486 0.7476 0.7467
3278.139312 0.7459 0.7452 0.7444 0.7434 0.7422
3281.782811 0.7409 0.7397 0.7386 0.7376 0.7365
3285.426309 0.7355 0.7348 0.7343 0.7338 0.7333
3289.069807 0.7327 0.7319 0.7312 0.7304 0.7294
3292.713306 0.7282 0.7269 0.7257 0.7244 0.7232
3296.356804 0.7219 0.7207 0.7193 0.7178 0.7163
3300.000302 0.7148 0.7133 0.7118 0.7103 0.7088
3303.643801 0.7072 0.7054 0.7037 0.7019 0.7003
3307.287299 0.6988 0.6972 0.6957 0.6941 0.6923
3310.930798 0.6906 0.6888 0.6869 0.6849 0.6829
3314.574296 0.6809 0.6788 0.6766 0.6743 0.6721
3318.217794 0.6707 0.6702 0.6697 0.6692 0.6685
3321.861293 0.6675 0.6665 0.6655 0.6641 0.6623
3325.504791 0.6606 0.6588 0.6567 0.6542 0.6517
3329.148290 0.6492 0.6464 0.6434 0.6404 0.6374
3332.791788 0.6341 0.6306 0.6271 0.6236 0.6198
3336.435286 0.6157 0.6117 0.6076 0.6046 0.6024
3340.078785 0.6001 0.5979 0.5956 0.5934 0.5911
3343.722283 0.5889 0.5850 0.5800 0.5750 0.5700
3347.365781 0.5650 0.5600 0.5549 0.5499 0.5445
3351.009280 0.5387 0.5330 0.5272 0.5215 0.5157
3354.652778 0.5100 0.5042 0.4983 0.4923 0.4863
3358.296277 0.4803 0.4761 0.4731 0.4701 0.4671
3361.939775 0.4640 0.4607 0.4575 0.4542 0.4491
3365.583273 0.4427 0.4364 0.4300 0.4236 0.4171
3369.226772 0.4106 0.4041 0.3977 0.3915 0.3852
3372.870270 0.3790 0.3725 0.3660 0.3595 0.3530
3376.513769 0.3488 0.3455 0.3423 0.3390 0.3358
3380.157267 0.3325 0.3293 0.3260 0.3207 0.3144
3383.800765 0.3082 0.3019 0.2957 0.2894 0.2832
3387.444264 0.2769 0.2708 0.2648 0.2588 0.2528
3391.087762 0.2470 0.2412 0.2355 0.2297 0.2239
3394.731260 0.2181 0.2122 0.2064 0.2031 0.2006
3398.374759 0.1981 0.1956 0.1929 0.1902 0.1874
3402.018257 0.1847 0.1809 0.1769 0.1729 0.1689
3405.661756 0.1649 0.1609 0.1569 0.1529 0.1516
3409.305254 0.1511 0.1506 0.1501 0.1504 0.1509
3412.948752 0.1514 0.1519 0.1534 0.1551 0.1569
3416.592251 0.1586 0.1619 0.1657 0.1694 0.1732
3420.235749 0.1763 0.1793 0.1823 0.1853 0.1901
3423.879248 0.1955 0.2008 0.2061 0.2089 0.2111
3427.522746 0.2134 0.2156 0.2181 0.2206 0.2231
3431.166244 0.2256 0.2281 0.2306 0.2331 0.2356
3434.809743 0.2385 0.2415 0.2445 0.2475 0.2508
3438.453241 0.2540 0.2573 0.2605 0.2644 0.2684
3442.096739 0.2724 0.2764 0.2787 0.2807 0.2827
3445.740238 0.2847 0.2865 0.2882 0.2900 0.2917
3449.383736 0.2922 0.2925 0.2927 0.2930 0.2930
3453.027235 0.2930 0.2930 0.2930 0.2941 0.2954
3456.670733 0.2966 0.2979 0.2985 0.2990 0.2995
3460.314231 0.3000 0.3000 0.3000 0.3000 0.3000
3463.957730 0.2998 0.2995 0.2993 0.2990 0.2988
3467.601228 0.2985 0.2983 0.2980 0.2980 0.2980
3471.244726 0.2980 0.2980 0.2975 0.2970 0.2965
3474.888225 0.2960 0.2948 0.2936 0.2923 0.2911
3478.531723 0.2903 0.2895 0.2888 0.2880 0.2861
3482.175222 0.2841 0.2820 0.2800 0.2773 0.2745
3485.818720 0.2718 0.2690 0.2660 0.2630 0.2600
3489.462218 0.2570 0.2533 0.2495 0.2457 0.2420
3493.105717 0.2382 0.2345 0.2307 0.2270 0.2230
3496.749215 0.2190 0.2150 0.2110 0.2090 0.2070
3500.392714 0.2050 0.2030 0.2007 0.1985 0.1962
3504.036212 0.1940 0.1900 0.1860 0.1820 0.1780
3507.679710 0.1739 0.1699 0.1659 0.1619 0.1581
3511.323209 0.1543 0.1505 0.1468 0.1438 0.1408
3514.966707 0.1378 0.1348 0.1320 0.1293 0.1265
3518.610205 0.1238 0.1218 0.1198 0.1178 0.1159
3522.253704 0.1147 0.1134 0.1121 0.1110 0.1107
3525.897202 0.1105 0.1102 0.1100 0.1100 0.1100
3529.540701 0.1100 0.1100 0.1103 0.1105 0.1108
3533.184199 0.1112 0.1140 0.1167 0.1195 0.1222
3536.827697 0.1245 0.1267 0.1290 0.1315 0.1371
3540.471196 0.1427 0.1483 0.1552 0.1694 0.1837
3544.114694 0.1979 0.2112 0.2187 0.2262 0.2337
3547.758193 0.2411 0.2481 0.2551 0.2621 0.2688
3551.401691 0.2738 0.2788 0.2838 0.2904 0.3057
3555.045189 0.3210 0.3362 0.3501 0.3566 0.3631
3558.688688 0.3696 0.3759 0.3817 0.3875 0.3932
3562.332186 0.3989 0.4044 0.4099 0.4154 0.4208
3565.975684 0.4258 0.4308 0.4359 0.4416 0.4507
3569.619183 0.4598 0.4690 0.4770 0.4812 0.4855
3573.262681 0.4897 0.4939 0.4979 0.5019 0.5059
3576.906180 0.5099 0.5139 0.5179 0.5219 0.5259
3580.549678 0.5299 0.5340 0.5380 0.5415 0.5435
3584.193176 0.5455 0.5475 0.5500 0.5543 0.5585
3587.836675 0.5628 0.5661 0.5666 0.5671 0.5676
3591.480173 0.5678 0.5671 0.5663 0.5656 0.5641
3595.123672 0.5603 0.5566 0.5528 0.5489 0.5443
3598.767170 0.5397 0.5352 0.5306 0.5261 0.5216
3602.410668 0.5171 0.5126 0.5081 0.5036 0.4991
3606.054167 0.4939 0.4871 0.4804 0.4736 0.4681
3609.697665 0.4651 0.4621 0.4591 0.4561 0.4530
3613.341163 0.4500 0.4470 0.4429 0.4364 0.4299
3616.984662 0.4234 0.4166 0.4091 0.4016 0.3941
3620.628160 0.3849 0.3721 0.3594 0.3466 0.3361
3624.271659 0.3300 0.3240 0.3180 0.3118 0.3052
3627.915157 0.2986 0.2920 0.2832 0.2707 0.2582
3631.558655 0.2456 0.2356 0.2293 0.2231 0.2168
3635.202154 0.2106 0.2043 0.1981 0.1918 0.1943
3638.845652 0.2103 0.2263 0.2423 0.2613 0.2848
3642.489151 0.3083 0.3318 0.3481 0.3533 0.3586
3646.132649 0.3638 0.3698 0.3768 0.3838 0.3908
3649.776147 0.4032 0.4237 0.4442 0.4648 0.4815
3653.419646 0.4928 0.5040 0.5153 0.5308 0.5527
3657.063144 0.5745 0.5963 0.6117 0.6197 0.6277
3660.706642 0.6357 0.6423 0.6473 0.6523 0.6573
3664.350141 0.6605 0.6615 0.6625 0.6635 0.6669
3667.993639 0.6732 0.6795 0.6857 0.6917 0.6975
3671.637138 0.7032 0.7090 0.7168 0.7268 0.7368
3675.280636 0.7468 0.7539 0.7579 0.7619 0.7659
3678.924134 0.7697 0.7732 0.7767 0.7802 0.7834
3682.567633 0.7864 0.7894 0.7924 0.7952 0.7978
3686.211131 0.8003 0.8028 0.8051 0.8071 0.8091
3689.854630 0.8111 0.8128 0.8143 0.8158 0.8173
3693.498128 0.8184 0.8192 0.8199 0.8207 0.8217
3697.141626 0.8229 0.8242 0.8254 0.8267 0.8279
3700.785125 0.8292 0.8304 0.8314 0.8322 0.8329
3704.428623 0.8337 0.8346 0.8356 0.8366 0.8376
3708.072121 0.8384 0.8392 0.8399 0.8407 0.8413
3711.715620 0.8418 0.8423 0.8428 0.8433 0.8438
3715.359118 0.8443 0.8448 0.8453 0.8458 0.8463
3719.002617 0.8468 0.8472 0.8474 0.8477 0.8479
3722.646115 0.8480 0.8480 0.8480 0.8480 0.8480
3726.289613 0.8480 0.8480 0.8480 0.8482 0.8484
3729.933112 0.8487 0.8489 0.8490 0.8490 0.8490
3733.576610 0.8490 0.8488 0.8486 0.8483 0.8481
3737.220109 0.8480 0.8480 0.8480 0.8480 0.8480
3740.863607 0.8480 0.8480 0.8480 0.8480 0.8480
3744.507105 0.8480 0.8480 0.8482 0.8484 0.8487
3748.150604 0.8489 0.8495 0.8503 0.8510 0.8518
3751.794102 0.8522 0.8524 0.8527 0.8529 0.8534
3755.437600 0.8539 0.8544 0.8549 0.8552 0.8554
3759.081099 0.8557 0.8559 0.8560 0.8560 0.8560
3762.724597 0.8560 0.8562 0.8564 0.8567 0.8569
3766.368096 0.8572 0.8574 0.8577 0.8579 0.8580
3770.011594 0.8580 0.8580 0.8580 0.8580 0.8580
3773.655092 0.8580 0.8580 0.8580 0.8580 0.8580
3777.298591 0.8580 0.8580 0.8580 0.8580 0.8580
3780.942089 0.8580 0.8580 0.8580 0.8580 0.8582
3784.585588 0.8584 0.8587 0.8589 0.8590 0.8590
3788.229086 0.8590 0.8590 0.8590 0.8590 0.8590
3791.872584 0.8590 0.8592 0.8594 0.8597 0.8599
3795.516083 0.8598 0.8596 0.8593 0.8591 0.8592
3799.159581 0.8594 0.8597 0.8599 0.8598 0.8595
3802.803079 0.8593 0.8590 0.8590 0.8590 0.8590
3806.446578 0.8590 0.8588 0.8585 0.8583 0.8580
3810.090076 0.8580 0.8580 0.8580 0.8580 0.8580
3813.733575 0.8580 0.8580 0.8580 0.8580 0.8580
3817.377073 0.8580 0.8580 0.8578 0.8575 0.8573
3821.020571 0.8570 0.8568 0.8565 0.8563 0.8560
3824.664070 0.8560 0.8560 0.8560 0.8560 0.8558
3828.307568 0.8555 0.8553 0.8550 0.8550 0.8550
3831.951067 0.8550 0.8550 0.8548 0.8545 0.8543
3835.594565 0.8540 0.8540 0.8540 0.8540 0.8540
3839.238063 0.8538 0.8535 0.8533 0.8530 0.8530
3842.881562 0.8530 0.8530 0.8530 0.8530 0.8530
3846.525060 0.8530 0.8530 0.8530 0.8530 0.8530
3850.168558 0.8530 0.8530 0.8530 0.8530 0.8530
3853.812057 0.8530 0.8530 0.8530 0.8530 0.8530
3857.455555 0.8530 0.8530 0.8530 0.8530 0.8530
3861.099054 0.8530 0.8530 0.8530 0.8530 0.8530
3864.742552 0.8530 0.8530 0.8530 0.8530 0.8530
3868.386050 0.8530 0.8530 0.8530 0.8530 0.8530
3872.029549 0.8530 0.8530 0.8530 0.8530 0.8530
3875.673047 0.8530 0.8530 0.8533 0.8535 0.8538
3879.316545 0.8540 0.8537 0.8535 0.8532 0.8530
3882.960044 0.8530 0.8530 0.8530 0.8530 0.8530
3886.603542 0.8530 0.8530 0.8530 0.8530 0.8530
3890.247041 0.8530 0.8530 0.8527 0.8525 0.8522
3893.890539 0.8520 0.8520 0.8520 0.8520 0.8520
3897.534037 0.8517 0.8515 0.8512 0.8510 0.8507
3901.177536 0.8505 0.8502 0.8500 0.8500 0.8500
3904.821034 0.8500 0.8500 0.8497 0.8495 0.8492
3908.464533 0.8490 0.8487 0.8485 0.8482 0.8480
3912.108031 0.8480 0.8480 0.8480 0.8480 0.8477
3915.751529 0.8475 0.8472 0.8469 0.8459 0.8449
3919.395028 0.8438 0.8429 0.8421 0.8414 0.8406
3923.038526 0.8399 0.8394 0.8389 0.8384 0.8380
3926.682024 0.8377 0.8375 0.8372 0.8370 0.8367
3930.325523 0.8365 0.8362 0.8360 0.8357 0.8355
3933.969021 0.8352 0.8350 0.8347 0.8345 0.8342
3937.612520 0.8339 0.8334 0.8329 0.8324 0.8320
3941.256018 0.8320 0.8320 0.8320 0.8320 0.8317
3944.899516 0.8315 0.8312 0.8310 0.8307 0.8304
3948.543015 0.8302 0.8299 0.8297 0.8294 0.8292
3952.186513 0.8290 0.8290 0.8290 0.8290 0.8290
3955.830012 0.8290 0.8290 0.8290 0.8289 0.8287
3959.473510 0.8284 0.8282 0.8279 0.8277 0.8274
3963.117008 0.8272 0.8269 0.8267 0.8264 0.8262
3966.760507 0.8259 0.8257 0.8254 0.8252 0.8250
3970.404005 0.8250 0.8250 0.8250 0.8249 0.8247
3974.047503 0.8244 0.8242 0.8239 0.8237 0.8234
3977.691002 0.8232 0.8228 0.8223 0.8218 0.8213
3981.334500 0.8210 0.8210 0.8210 0.8210 0.8210
3984.977999 0.8210 0.8210 0.8210 0.8210 0.8210
3988.621497 0.8210 0.8210 0.8211 0.8213 0.8216
3992.264995 0.8218 0.8220 0.8220 0.8220 0.8220
3995.908494 0.8221 0.8223 0.8226 0.8228 0.8231
3999.551992 0.8233 0.8236 0.8238 0.8240 0.8240
4003.195491 0.8240 0.8240 0.8240 0.8240 0.8240
4006.838989 0.8240 0.8240 0.8240 0.8240 0.8240
4010.482487 0.8240 0.8240 0.8240 0.8240 0.8240
4014.125986 0.8240 0.8240 0.8240 0.8240 0.8240
4017.769484 0.8240 0.8240 0.8240 0.8240 0.8240
4021.412982 0.8240 0.8240 0.8240 0.8240 0.8240
##END=
