##TITLE=5-THIA-1-AZABICYCLO[4.2.0]OCT-2-ENE-2-CARBOXYLIC ACID, 3-(HYDROXYMETHYL)-8-OXO-7-(3-PYRIDYLACETAMIDO)-, ACETATE, POTASSIUM SALT, MONOHYDRATE
##JCAMP-DX=4.24
##DATA TYPE=INFRARED SPECTRUM
##CLASS=COBLENTZ III
##ORIGIN=SMITH KLINE & FRENCH LABS.
##OWNER=COBLENTZ SOCIETY
Collection (C) 2018 copyright by the U.S. Secretary of Commerce
on behalf of the United States of America. All rights reserved.
##DATE=1964/08/13
##MOLFORM=C17 H16 N3 O6 S K  * H2 O
##SOURCE REFERENCE=COBLENTZ NO. 9144
##$NIST ID=B6009144
##$NIST SOURCE=COBLENTZ
##$NIST IMAGE=cob9144
##SPECTROMETER/DATA SYSTEM=Not specified, most likely a prism spectrometer.
##INSTRUMENT PARAMETERS=NaCl PRISM
##STATE=SOLID (OIL MULL)
$$SPECTRAL CONTAMINATION DUE TO OIL AROUND 2900, 1450 CM^-^1
##SAMPLING PROCEDURE=TRANSMISSION
##RESOLUTION=2
##DATA PROCESSING=DIGITIZED BY NIST FROM HARD COPY
##XUNITS=MICROMETERS
##YUNITS=TRANSMITTANCE
##XFACTOR=1.000000
##YFACTOR=1
##DELTAX=000.004880
##FIRSTX=2.004
##LASTX=14.878
##FIRSTY=0.748
##MAXX=14.878
##MINX=2.004
##MAXY=0.948
##MINY=0.045
##NPOINTS=2639
##XYDATA=(X++(Y..Y))
2.004000 0.7480 0.7480 0.7490 0.7490 0.7500
2.028409 0.7500 0.7520 0.7530 0.7530 0.7540
2.053000 0.7540 0.7550 0.7550 0.7580 0.7590
2.077409 0.7590 0.7600 0.7610 0.7610 0.7640
2.102000 0.7640 0.7650 0.7650 0.7660 0.7660
2.126409 0.7670 0.7670 0.7690 0.7700 0.7720
2.151000 0.7730 0.7750 0.7760 0.7760 0.7760
2.175409 0.7770 0.7770 0.7770 0.7770 0.7780
2.200000 0.7780 0.7780 0.7790 0.7790 0.7790
2.224409 0.7810 0.7810 0.7830 0.7830 0.7830
2.248000 0.7830 0.7840 0.7840 0.7840 0.7840
2.272409 0.7840 0.7850 0.7850 0.7870 0.7870
2.297000 0.7870 0.7870 0.7880 0.7880 0.7880
2.321409 0.7880 0.7880 0.7880 0.7880 0.7880
2.346000 0.7890 0.7890 0.7900 0.7900 0.7920
2.370409 0.7920 0.7920 0.7930 0.7930 0.7930
2.395000 0.7930 0.7930 0.7930 0.7930 0.7930
2.419409 0.7930 0.7930 0.7920 0.7920 0.7920
2.444000 0.7920 0.7920 0.7920 0.7920 0.7930
2.468409 0.7930 0.7930 0.7940 0.7940 0.7940
2.492000 0.7940 0.7940 0.7940 0.7940 0.7950
2.516409 0.7950 0.7980 0.7990 0.8020 0.8060
2.541000 0.8070 0.8070 0.8080 0.8080 0.8100
2.565409 0.8120 0.8120 0.8120 0.8120 0.8130
2.590000 0.8130 0.8140 0.8140 0.8160 0.8160
2.614409 0.8160 0.8160 0.8160 0.8170 0.8170
2.639000 0.8180 0.8190 0.8190 0.8210 0.8210
2.663409 0.8220 0.8220 0.8220 0.8220 0.8220
2.688000 0.8220 0.8220 0.8230 0.8230 0.8230
2.712409 0.8230 0.8220 0.8220 0.8220 0.8210
2.736000 0.8190 0.8170 0.8160 0.8140 0.8130
2.760409 0.8120 0.8110 0.8100 0.8080 0.8070
2.785000 0.8060 0.8040 0.8000 0.7960 0.7930
2.809409 0.7920 0.7900 0.7830 0.7760 0.7690
2.834000 0.7600 0.7530 0.7440 0.7370 0.7290
2.858409 0.7200 0.7120 0.7040 0.6960 0.6880
2.883000 0.6790 0.6720 0.6630 0.6550 0.6480
2.907409 0.6390 0.6310 0.6220 0.6150 0.6080
2.932000 0.6000 0.5920 0.5850 0.5760 0.5690
2.956409 0.5610 0.5530 0.5450 0.5360 0.5290
2.980000 0.5210 0.5120 0.5050 0.4880 0.4800
3.004409 0.4710 0.4640 0.4550 0.4480 0.4410
3.029000 0.4320 0.4250 0.4180 0.4110 0.4030
3.053409 0.3900 0.3770 0.3670 0.3560 0.3480
3.078000 0.3380 0.3330 0.3270 0.3260 0.3260
3.102409 0.3280 0.3340 0.3420 0.3440 0.3540
3.127000 0.3680 0.3850 0.4090 0.4150 0.4190
3.151409 0.4200 0.4300 0.4380 0.4470 0.4550
3.176000 0.4650 0.4740 0.4830 0.4920 0.4960
3.200409 0.5000 0.5100 0.5180 0.5270 0.5350
3.224000 0.5440 0.5510 0.5590 0.5670 0.5740
3.248409 0.5800 0.5870 0.5930 0.5980 0.6030
3.273000 0.6080 0.6090 0.6130 0.6130 0.6140
3.297409 0.6140 0.6150 0.6150 0.6150 0.6150
3.322000 0.6150 0.6150 0.6140 0.6110 0.6090
3.346409 0.6080 0.6030 0.5850 0.5650 0.5350
3.371000 0.5010 0.4350 0.4150 0.3790 0.3390
3.395409 0.3010 0.2690 0.2390 0.2070 0.1930
3.420000 0.1780 0.1640 0.1520 0.1430 0.1350
3.444409 0.1260 0.1180 0.1140 0.1100 0.1060
3.468000 0.1030 0.1030 0.1020 0.1010 0.1010
3.492409 0.1000 0.0990 0.0990 0.0970 0.0940
3.517000 0.0890 0.0850 0.0830 0.0850 0.1020
3.541409 0.1120 0.1220 0.1390 0.1650 0.1800
3.566000 0.1820 0.2170 0.2850 0.3380 0.3900
3.590409 0.4430 0.4960 0.5220 0.5460 0.5690
3.615000 0.5920 0.6150 0.6220 0.6370 0.6490
3.639409 0.6610 0.6720 0.6840 0.6960 0.7080
3.664000 0.7140 0.7190 0.7230 0.7250 0.7290
3.688409 0.7310 0.7350 0.7370 0.7410 0.7460
3.712000 0.7500 0.7550 0.7610 0.7690 0.7710
3.736409 0.7730 0.7780 0.7790 0.7820 0.7840
3.761000 0.7870 0.7890 0.7920 0.7950 0.7980
3.785409 0.7990 0.8010 0.8040 0.8040 0.8050
3.810000 0.8050 0.8070 0.8080 0.8100 0.8120
3.834409 0.8130 0.8140 0.8170 0.8180 0.8190
3.859000 0.8220 0.8230 0.8240 0.8270 0.8280
3.883409 0.8290 0.8310 0.8330 0.8340 0.8360
3.908000 0.8390 0.8400 0.8410 0.8420 0.8450
3.932409 0.8460 0.8470 0.8480 0.8500 0.8520
3.956000 0.8530 0.8540 0.8560 0.8570 0.8580
3.980409 0.8590 0.8590 0.8600 0.8600 0.8600
4.005000 0.8620 0.8620 0.8630 0.8630 0.8630
4.029409 0.8640 0.8640 0.8650 0.8650 0.8650
4.054000 0.8660 0.8660 0.8660 0.8680 0.8690
4.078409 0.8700 0.8700 0.8710 0.8710 0.8710
4.103000 0.8710 0.8730 0.8730 0.8740 0.8750
4.127409 0.8770 0.8790 0.8820 0.8830 0.8860
4.152000 0.8870 0.8870 0.8880 0.8890 0.8890
4.176409 0.8910 0.8920 0.8930 0.8940 0.8940
4.200000 0.8940 0.8940 0.8940 0.8940 0.8940
4.224409 0.8940 0.8940 0.8920 0.8910 0.8890
4.249000 0.8890 0.8880 0.8870 0.8870 0.8860
4.273409 0.8810 0.8790 0.8760 0.8750 0.8740
4.298000 0.8740 0.8730 0.8690 0.8660 0.8650
4.322409 0.8650 0.8650 0.8650 0.8650 0.8650
4.347000 0.8650 0.8650 0.8650 0.8650 0.8650
4.371409 0.8660 0.8680 0.8700 0.8730 0.8750
4.396000 0.8800 0.8830 0.8860 0.8880 0.8880
4.420409 0.8890 0.8890 0.8910 0.8910 0.8920
4.444000 0.8920 0.8930 0.8930 0.8930 0.8930
4.468409 0.8930 0.8930 0.8930 0.8930 0.8940
4.493000 0.8960 0.8970 0.8970 0.8980 0.8980
4.517409 0.8990 0.8990 0.9000 0.9000 0.9000
4.542000 0.9000 0.9020 0.9020 0.9020 0.9030
4.566409 0.9030 0.9030 0.9040 0.9050 0.9050
4.591000 0.9060 0.9060 0.9080 0.9080 0.9090
4.615409 0.9090 0.9100 0.9100 0.9110 0.9110
4.640000 0.9110 0.9110 0.9110 0.9110 0.9110
4.664409 0.9110 0.9110 0.9110 0.9120 0.9120
4.688000 0.9120 0.9120 0.9120 0.9120 0.9120
4.712409 0.9140 0.9140 0.9150 0.9150 0.9160
4.737000 0.9160 0.9160 0.9180 0.9180 0.9200
4.761409 0.9200 0.9210 0.9210 0.9220 0.9220
4.786000 0.9230 0.9230 0.9250 0.9250 0.9260
4.810409 0.9260 0.9270 0.9270 0.9270 0.9280
4.835000 0.9280 0.9280 0.9280 0.9290 0.9290
4.859409 0.9310 0.9310 0.9310 0.9320 0.9320
4.884000 0.9320 0.9320 0.9330 0.9330 0.9330
4.908409 0.9340 0.9340 0.9340 0.9340 0.9350
4.932000 0.9370 0.9370 0.9380 0.9380 0.9390
4.956409 0.9390 0.9400 0.9400 0.9410 0.9410
4.981000 0.9410 0.9430 0.9430 0.9440 0.9440
5.005409 0.9440 0.9440 0.9450 0.9450 0.9450
5.030000 0.9460 0.9460 0.9460 0.9480 0.9480
5.054409 0.9480 0.9480 0.9480 0.9480 0.9460
5.079000 0.9460 0.9460 0.9460 0.9460 0.9460
5.103409 0.9460 0.9450 0.9450 0.9450 0.9450
5.128000 0.9450 0.9450 0.9450 0.9440 0.9440
5.152409 0.9440 0.9440 0.9440 0.9440 0.9440
5.176000 0.9430 0.9430 0.9430 0.9430 0.9410
5.200409 0.9410 0.9410 0.9410 0.9400 0.9400
5.225000 0.9390 0.9380 0.9380 0.9370 0.9370
5.249409 0.9370 0.9370 0.9370 0.9370 0.9370
5.274000 0.9370 0.9370 0.9370 0.9370 0.9370
5.298409 0.9370 0.9370 0.9370 0.9370 0.9370
5.323000 0.9370 0.9370 0.9370 0.9370 0.9370
5.347409 0.9370 0.9370 0.9370 0.9370 0.9370
5.372000 0.9370 0.9370 0.9370 0.9370 0.9350
5.396409 0.9350 0.9350 0.9350 0.9350 0.9350
5.420000 0.9350 0.9350 0.9340 0.9330 0.9330
5.444409 0.9330 0.9330 0.9320 0.9310 0.9290
5.469000 0.9270 0.9230 0.9200 0.9160 0.9110
5.493409 0.9080 0.9030 0.9020 0.8990 0.8960
5.518000 0.8930 0.8890 0.8890 0.8830 0.8760
5.542409 0.8620 0.8510 0.8440 0.8360 0.8300
5.567000 0.8210 0.8100 0.7990 0.7870 0.7750
5.591409 0.7620 0.7500 0.7370 0.7230 0.7070
5.616000 0.6910 0.6730 0.6550 0.6340 0.6140
5.640409 0.5900 0.5650 0.5380 0.5090 0.4440
5.664000 0.4080 0.3710 0.3300 0.2860 0.2390
5.688409 0.1890 0.1660 0.1360 0.1200 0.0950
5.713000 0.0480 0.0450 0.0470 0.0610 0.0700
5.737409 0.0760 0.0790 0.0810 0.0790 0.0780
5.762000 0.0780 0.0730 0.0680 0.0700 0.0700
5.786409 0.0680 0.0670 0.0700 0.1360 0.1870
5.811000 0.2520 0.3210 0.3800 0.4120 0.4380
5.835409 0.4610 0.4840 0.4950 0.5050 0.5270
5.860000 0.5500 0.5750 0.6040 0.6370 0.6520
5.884409 0.6550 0.6560 0.6570 0.6590 0.6650
5.908000 0.6690 0.6740 0.6790 0.6850 0.6890
5.932409 0.6950 0.6950 0.6950 0.6960 0.6950
5.957000 0.6920 0.6900 0.6880 0.6850 0.6830
5.981409 0.6810 0.6750 0.6660 0.6590 0.6160
6.006000 0.6070 0.5930 0.5610 0.5280 0.4200
6.030409 0.3840 0.3470 0.3020 0.2400 0.1530
6.055000 0.1460 0.1420 0.1390 0.1360 0.1360
6.079409 0.1360 0.1390 0.1640 0.1920 0.2050
6.104000 0.2200 0.2490 0.2780 0.3080 0.3270
6.128409 0.3480 0.3660 0.3760 0.3760 0.3760
6.153000 0.3760 0.3620 0.3380 0.3150 0.2960
6.177409 0.2760 0.2590 0.2410 0.2220 0.2010
6.201000 0.1780 0.1520 0.1390 0.1360 0.1370
6.225409 0.1390 0.1410 0.1570 0.1700 0.1830
6.250000 0.1970 0.2110 0.2240 0.2390 0.2670
6.274409 0.2820 0.2970 0.3130 0.3280 0.3440
6.299000 0.4170 0.4590 0.4920 0.5040 0.5160
6.323409 0.5330 0.5450 0.5520 0.5580 0.5630
6.348000 0.5680 0.5750 0.5870 0.6030 0.6260
6.372409 0.6400 0.6560 0.6670 0.6770 0.6810
6.397000 0.6840 0.6890 0.6900 0.6890 0.6860
6.421409 0.6860 0.6840 0.6790 0.6790 0.6770
6.445000 0.6730 0.6560 0.6420 0.6270 0.6140
6.469409 0.6000 0.5870 0.5740 0.5580 0.5420
6.494000 0.5230 0.5030 0.4490 0.3940 0.3560
6.518409 0.3240 0.3140 0.3010 0.2870 0.2860
6.543000 0.2880 0.2900 0.2920 0.3090 0.3240
6.567409 0.3400 0.3620 0.3920 0.4350 0.4920
6.592000 0.5030 0.5130 0.5270 0.5350 0.5630
6.616409 0.5910 0.6270 0.6550 0.6690 0.6730
6.641000 0.6730 0.6740 0.6800 0.6970 0.7140
6.665409 0.7250 0.7350 0.7420 0.7480 0.7530
6.689000 0.7550 0.7540 0.7540 0.7540 0.7540
6.713409 0.7540 0.7540 0.7530 0.7490 0.7420
6.738000 0.7360 0.7290 0.7270 0.7140 0.7080
6.762409 0.6910 0.6630 0.6430 0.6370 0.6360
6.787000 0.6230 0.6100 0.5860 0.5730 0.5450
6.811409 0.5170 0.4610 0.4400 0.4180 0.3960
6.836000 0.3730 0.3730 0.3710 0.3700 0.3670
6.860409 0.3650 0.3630 0.3610 0.3530 0.3470
6.885000 0.3420 0.3370 0.3340 0.3360 0.3340
6.909409 0.3380 0.3420 0.3440 0.3490 0.3650
6.933000 0.3780 0.3920 0.4060 0.4190 0.4340
6.957409 0.4470 0.4610 0.4760 0.4950 0.4990
6.982000 0.5010 0.5090 0.5150 0.5130 0.5130
7.006409 0.5120 0.5040 0.4980 0.4980 0.4990
7.031000 0.5000 0.5030 0.5060 0.5090 0.5120
7.055409 0.5170 0.5170 0.5170 0.5170 0.5170
7.080000 0.5170 0.5170 0.5170 0.5170 0.5170
7.104409 0.5170 0.4780 0.4750 0.4670 0.4590
7.129000 0.4470 0.4310 0.4310 0.4280 0.4240
7.153409 0.4180 0.4120 0.4030 0.3940 0.3840
7.177000 0.3720 0.3600 0.3470 0.3330 0.3180
7.201409 0.3100 0.3020 0.3020 0.3010 0.2990
7.226000 0.2980 0.2980 0.2950 0.2920 0.2850
7.250409 0.2760 0.2720 0.2690 0.2670 0.2660
7.275000 0.2640 0.2620 0.2610 0.2560 0.2550
7.299409 0.2520 0.2550 0.2620 0.2730 0.2800
7.324000 0.2860 0.2930 0.3030 0.3030 0.3020
7.348409 0.3010 0.2990 0.2990 0.2990 0.3070
7.373000 0.3140 0.3190 0.3220 0.3250 0.3260
7.397409 0.3250 0.3140 0.2930 0.2450 0.2290
7.421000 0.2280 0.2280 0.2300 0.2640 0.2680
7.445409 0.2810 0.2930 0.3050 0.3180 0.3300
7.470000 0.3430 0.3550 0.3670 0.3800 0.4090
7.494409 0.4280 0.4440 0.4630 0.4800 0.4980
7.519000 0.5040 0.5100 0.5280 0.5390 0.5510
7.543409 0.5630 0.5750 0.5870 0.5990 0.6110
7.568000 0.6220 0.6340 0.6440 0.6540 0.6620
7.592409 0.6690 0.6750 0.6850 0.6900 0.6920
7.617000 0.6920 0.6920 0.6920 0.6920 0.6940
7.641409 0.6960 0.6970 0.7000 0.7010 0.7030
7.665000 0.7040 0.7060 0.7070 0.7080 0.7080
7.689409 0.7110 0.7130 0.7140 0.7140 0.7130
7.714000 0.7130 0.7120 0.7020 0.6960 0.6860
7.738409 0.6660 0.6500 0.6290 0.6220 0.6110
7.763000 0.6000 0.5900 0.5790 0.5680 0.5570
7.787409 0.5460 0.5450 0.5470 0.5570 0.5630
7.812000 0.5690 0.5750 0.5810 0.5860 0.5920
7.836409 0.5980 0.6050 0.6090 0.6090 0.6090
7.861000 0.6090 0.6090 0.6090 0.6090 0.6080
7.885409 0.6080 0.6000 0.5970 0.5920 0.5870
7.909000 0.5820 0.5770 0.5710 0.5710 0.5550
7.933409 0.5360 0.5220 0.5210 0.5150 0.4660
7.958000 0.4400 0.4140 0.3910 0.3710 0.3510
7.982409 0.3320 0.3130 0.2930 0.2730 0.2510
8.007000 0.2280 0.2010 0.1980 0.1870 0.1820
8.031409 0.1780 0.1770 0.1770 0.1780 0.1880
8.056000 0.1950 0.2000 0.2060 0.2110 0.2170
8.080409 0.2230 0.2270 0.2320 0.2350 0.2350
8.105000 0.2340 0.2330 0.2320 0.2240 0.2160
8.129409 0.2060 0.2000 0.1940 0.1880 0.1870
8.153000 0.1890 0.2010 0.2110 0.2170 0.2320
8.177409 0.2660 0.2800 0.2950 0.3090 0.3250
8.202000 0.3390 0.3550 0.3680 0.3680 0.3680
8.226409 0.3680 0.3680 0.3680 0.3680 0.3700
8.251000 0.3830 0.3910 0.4010 0.4130 0.4290
8.275409 0.4440 0.4630 0.4810 0.4900 0.5000
8.300000 0.5190 0.5390 0.5580 0.5750 0.5920
8.324409 0.6070 0.6130 0.6210 0.6260 0.6270
8.349000 0.6280 0.6250 0.6220 0.6160 0.6110
8.373409 0.6070 0.6000 0.5940 0.5870 0.5800
8.397000 0.5700 0.5590 0.5460 0.5320 0.5250
8.421409 0.5230 0.5240 0.5410 0.5580 0.5690
8.446000 0.5770 0.6040 0.6200 0.6550 0.6620
8.470409 0.6670 0.6720 0.6730 0.6750 0.6750
8.495000 0.6770 0.6770 0.6770 0.6720 0.6690
8.519409 0.6670 0.6650 0.6620 0.6590 0.6550
8.544000 0.6490 0.6430 0.6400 0.6380 0.6400
8.568409 0.6430 0.6510 0.6560 0.6610 0.6650
8.593000 0.6690 0.6730 0.6780 0.6810 0.6810
8.617409 0.6810 0.6810 0.6800 0.6740 0.6720
8.641000 0.6680 0.6600 0.6500 0.6380 0.6290
8.665409 0.6230 0.6170 0.6130 0.6070 0.6030
8.690000 0.6030 0.6000 0.6030 0.6040 0.6200
8.714409 0.6340 0.6480 0.6590 0.6680 0.6780
8.739000 0.6860 0.6940 0.7010 0.7080 0.7150
8.763409 0.7210 0.7270 0.7350 0.7420 0.7490
8.788000 0.7580 0.7660 0.7760 0.7780 0.7790
8.812409 0.7790 0.7790 0.7790 0.7790 0.7790
8.837000 0.7790 0.7790 0.7810 0.7810 0.7810
8.861409 0.7810 0.7810 0.7820 0.7820 0.7820
8.885000 0.7820 0.7820 0.7810 0.7780 0.7760
8.909409 0.7720 0.7700 0.7590 0.7520 0.7440
8.934000 0.7350 0.7300 0.7270 0.7260 0.7260
8.958409 0.7260 0.7290 0.7330 0.7350 0.7370
8.983000 0.7380 0.7400 0.7410 0.7430 0.7480
9.007409 0.7490 0.7500 0.7530 0.7540 0.7550
9.032000 0.7580 0.7610 0.7650 0.7670 0.7690
9.056409 0.7700 0.7720 0.7730 0.7760 0.7780
9.081000 0.7810 0.7830 0.7850 0.7890 0.7930
9.105409 0.7960 0.8000 0.8010 0.8020 0.8040
9.129000 0.8070 0.8100 0.8110 0.8130 0.8160
9.153409 0.8180 0.8190 0.8220 0.8230 0.8240
9.178000 0.8250 0.8270 0.8280 0.8280 0.8290
9.202409 0.8290 0.8290 0.8300 0.8300 0.8300
9.227000 0.8300 0.8300 0.8300 0.8300 0.8220
9.251409 0.8190 0.8170 0.8140 0.8100 0.8020
9.276000 0.7930 0.7820 0.7700 0.7580 0.7430
9.300409 0.7290 0.7140 0.7000 0.6860 0.6720
9.325000 0.6600 0.6480 0.6370 0.6280 0.6210
9.349409 0.6130 0.6110 0.6110 0.6110 0.6100
9.373000 0.6090 0.6110 0.6170 0.6250 0.6360
9.397409 0.6480 0.6630 0.6790 0.6920 0.7030
9.422000 0.7140 0.7210 0.7290 0.7350 0.7400
9.446409 0.7430 0.7470 0.7490 0.7500 0.7520
9.471000 0.7520 0.7520 0.7530 0.7530 0.7530
9.495409 0.7530 0.7530 0.7530 0.7530 0.7530
9.520000 0.7530 0.7530 0.7530 0.7530 0.7520
9.544409 0.7520 0.7500 0.7490 0.7440 0.7380
9.569000 0.7320 0.7270 0.7210 0.7170 0.7110
9.593409 0.7060 0.7010 0.6960 0.6910 0.6850
9.617000 0.6800 0.6750 0.6690 0.6630 0.6570
9.641409 0.6510 0.6450 0.6380 0.6310 0.6200
9.666000 0.6090 0.5990 0.5900 0.5810 0.5730
9.690409 0.5640 0.5550 0.5460 0.5360 0.5270
9.715000 0.5160 0.5030 0.4900 0.4880 0.4880
9.739409 0.4900 0.5010 0.5110 0.5270 0.5400
9.764000 0.5500 0.5580 0.5640 0.5700 0.5760
9.788409 0.5820 0.5900 0.5990 0.6020 0.6030
9.813000 0.6030 0.6030 0.6030 0.6030 0.6050
9.837409 0.6090 0.6140 0.6200 0.6260 0.6330
9.861000 0.6400 0.6480 0.6550 0.6630 0.6720
9.885409 0.6800 0.6890 0.6980 0.7070 0.7150
9.910000 0.7250 0.7330 0.7420 0.7500 0.7590
9.934409 0.7660 0.7750 0.7820 0.7880 0.7900
9.959000 0.7930 0.7940 0.7930 0.7900 0.7850
9.983409 0.7810 0.7750 0.7690 0.7620 0.7560
10.008000 0.7490 0.7430 0.7350 0.7270 0.7180
10.032409 0.7170 0.7170 0.7180 0.7180 0.7180
10.057000 0.7190 0.7210 0.7260 0.7320 0.7420
10.081409 0.7490 0.7550 0.7600 0.7650 0.7670
10.105000 0.7710 0.7730 0.7750 0.7770 0.7790
10.129409 0.7820 0.7850 0.7890 0.7940 0.7990
10.154000 0.8040 0.8050 0.8050 0.8050 0.8050
10.178409 0.8060 0.8060 0.8060 0.8060 0.8060
10.203000 0.8060 0.8070 0.8060 0.8060 0.8040
10.227409 0.8010 0.8000 0.7990 0.7990 0.7990
10.252000 0.7990 0.7990 0.7990 0.7990 0.7990
10.276409 0.7990 0.7990 0.7990 0.7990 0.7980
10.301000 0.7980 0.7960 0.7950 0.7930 0.7870
10.325409 0.7790 0.7720 0.7650 0.7600 0.7550
10.349000 0.7400 0.7320 0.7320 0.7330 0.7330
10.373409 0.7350 0.7360 0.7370 0.7400 0.7410
10.398000 0.7420 0.7420 0.7420 0.7430 0.7420
10.422409 0.7410 0.7380 0.7370 0.7360 0.7330
10.447000 0.7310 0.7290 0.7260 0.7230 0.7180
10.471409 0.7130 0.7070 0.7000 0.6910 0.6810
10.496000 0.6710 0.6630 0.6600 0.6570 0.6590
10.520409 0.6650 0.6710 0.6740 0.6810 0.6900
10.545000 0.7010 0.7140 0.7260 0.7400 0.7500
10.569409 0.7610 0.7710 0.7770 0.7810 0.7880
10.593000 0.7930 0.7980 0.8020 0.8050 0.8050
10.617409 0.8050 0.8050 0.8050 0.8060 0.8130
10.642000 0.8170 0.8220 0.8270 0.8310 0.8360
10.666409 0.8410 0.8460 0.8500 0.8510 0.8510
10.691000 0.8510 0.8510 0.8510 0.8510 0.8510
10.715409 0.8510 0.8510 0.8520 0.8530 0.8560
10.740000 0.8570 0.8590 0.8640 0.8660 0.8690
10.764409 0.8700 0.8730 0.8730 0.8710 0.8710
10.789000 0.8700 0.8690 0.8690 0.8690 0.8690
10.813409 0.8680 0.8680 0.8660 0.8640 0.8630
10.837000 0.8630 0.8630 0.8630 0.8630 0.8630
10.861409 0.8630 0.8630 0.8620 0.8600 0.8590
10.886000 0.8580 0.8540 0.8510 0.8420 0.8370
10.910409 0.8360 0.8350 0.8350 0.8350 0.8350
10.935000 0.8350 0.8350 0.8370 0.8420 0.8440
10.959409 0.8440 0.8440 0.8460 0.8480 0.8500
10.984000 0.8500 0.8520 0.8540 0.8620 0.8650
11.008409 0.8640 0.8680 0.8710 0.8730 0.8740
11.033000 0.8750 0.8760 0.8770 0.8770 0.8790
11.057409 0.8790 0.8810 0.8810 0.8830 0.8870
11.081000 0.8920 0.8930 0.8940 0.8960 0.8970
11.105409 0.8970 0.8970 0.8970 0.8970 0.8970
11.130000 0.8970 0.8970 0.8970 0.8960 0.8960
11.154409 0.8960 0.8960 0.8960 0.8960 0.8960
11.179000 0.8960 0.8960 0.8960 0.8960 0.8970
11.203409 0.8970 0.8970 0.8970 0.8980 0.8980
11.228000 0.8980 0.8980 0.8990 0.8990 0.8990
11.252409 0.8990 0.8990 0.9000 0.9040 0.9050
11.277000 0.9060 0.9060 0.9080 0.9080 0.9090
11.301409 0.9090 0.9100 0.9100 0.9110 0.9110
11.325000 0.9120 0.9120 0.9120 0.9120 0.9140
11.349409 0.9120 0.9150 0.9150 0.9160 0.9160
11.374000 0.9170 0.9170 0.9170 0.9170 0.9170
11.398409 0.9170 0.9160 0.9160 0.9150 0.9150
11.423000 0.9140 0.9120 0.9100 0.9100 0.9050
11.447409 0.9030 0.9000 0.9000 0.8980 0.8960
11.472000 0.8920 0.8880 0.8850 0.8810 0.8790
11.496409 0.8730 0.8700 0.8680 0.8680 0.8680
11.521000 0.8680 0.8680 0.8680 0.8660 0.8680
11.545409 0.8690 0.8710 0.8730 0.8750 0.8790
11.569000 0.8810 0.8850 0.8870 0.8890 0.8930
11.593409 0.8960 0.8980 0.8990 0.9000 0.9000
11.618000 0.9020 0.9020 0.9020 0.9020 0.9020
11.642409 0.9020 0.9020 0.9020 0.9000 0.8990
11.667000 0.8990 0.8940 0.8820 0.8750 0.8710
11.691409 0.8690 0.8650 0.8630 0.8620 0.8590
11.716000 0.8580 0.8570 0.8570 0.8560 0.8540
11.740409 0.8540 0.8540 0.8540 0.8530 0.8530
11.765000 0.8530 0.8530 0.8530 0.8530 0.8530
11.789409 0.8530 0.8520 0.8520 0.8530 0.8580
11.813000 0.8640 0.8710 0.8790 0.8810 0.8820
11.837409 0.8860 0.8890 0.8940 0.8990 0.9000
11.862000 0.9000 0.9000 0.9000 0.9000 0.9000
11.886409 0.9000 0.9000 0.9000 0.9030 0.9030
11.911000 0.9030 0.9040 0.9040 0.9040 0.9040
11.935409 0.9040 0.9040 0.9040 0.9050 0.9050
11.960000 0.9050 0.9050 0.9050 0.9050 0.9050
11.984409 0.9060 0.9060 0.9060 0.9060 0.9060
12.009000 0.9060 0.9060 0.9060 0.9060 0.9060
12.033409 0.9060 0.9060 0.9060 0.9060 0.9060
12.057000 0.9060 0.9060 0.9060 0.9060 0.9060
12.081409 0.9060 0.9060 0.9060 0.9060 0.9060
12.106000 0.9060 0.9060 0.9060 0.9060 0.9040
12.130409 0.9040 0.9020 0.8990 0.8970 0.8960
12.155000 0.8930 0.8910 0.8860 0.8820 0.8770
12.179409 0.8710 0.8660 0.8600 0.8560 0.8500
12.204000 0.8450 0.8390 0.8350 0.8300 0.8270
12.228409 0.8240 0.8210 0.8190 0.8170 0.8170
12.253000 0.8170 0.8180 0.8190 0.8180 0.8180
12.277409 0.8180 0.8180 0.8190 0.8190 0.8190
12.301000 0.8210 0.8210 0.8210 0.8210 0.8220
12.325409 0.8220 0.8220 0.8220 0.8220 0.8220
12.350000 0.8220 0.8210 0.8180 0.8170 0.8160
12.374409 0.8120 0.8080 0.8040 0.7980 0.7940
12.399000 0.7900 0.7870 0.7840 0.7820 0.7810
12.423409 0.7810 0.7810 0.7810 0.7810 0.7790
12.448000 0.7760 0.7710 0.7620 0.7560 0.7530
12.472409 0.7500 0.7490 0.7470 0.7460 0.7430
12.497000 0.7380 0.7320 0.7230 0.7180 0.7180
12.521409 0.7170 0.7110 0.7090 0.7080 0.7080
12.545000 0.7070 0.7070 0.7070 0.7070 0.7070
12.569409 0.7070 0.7070 0.7070 0.7090 0.7110
12.594000 0.7130 0.7140 0.7170 0.7190 0.7240
12.618409 0.7290 0.7330 0.7360 0.7370 0.7370
12.643000 0.7370 0.7380 0.7380 0.7410 0.7420
12.667409 0.7420 0.7430 0.7470 0.7520 0.7580
12.692000 0.7640 0.7710 0.7770 0.7830 0.7870
12.716409 0.7890 0.7920 0.7950 0.7990 0.8020
12.741000 0.8060 0.8080 0.8100 0.8100 0.8110
12.765409 0.8120 0.8140 0.8170 0.8210 0.8240
12.789000 0.8270 0.8280 0.8290 0.8300 0.8330
12.813409 0.8330 0.8340 0.8360 0.8390 0.8400
12.838000 0.8400 0.8400 0.8410 0.8410 0.8410
12.862409 0.8410 0.8420 0.8420 0.8420 0.8440
12.887000 0.8460 0.8470 0.8480 0.8480 0.8500
12.911409 0.8510 0.8520 0.8530 0.8530 0.8530
12.936000 0.8530 0.8530 0.8530 0.8530 0.8530
12.960409 0.8530 0.8530 0.8520 0.8520 0.8520
12.985000 0.8520 0.8520 0.8520 0.8520 0.8510
13.009409 0.8500 0.8480 0.8480 0.8470 0.8470
13.033000 0.8460 0.8460 0.8460 0.8450 0.8450
13.057409 0.8450 0.8460 0.8460 0.8450 0.8450
13.082000 0.8450 0.8450 0.8450 0.8450 0.8450
13.106409 0.8450 0.8450 0.8450 0.8450 0.8450
13.131000 0.8450 0.8450 0.8450 0.8440 0.8440
13.155409 0.8410 0.8390 0.8360 0.8340 0.8300
13.180000 0.8250 0.8210 0.8130 0.8060 0.7950
13.204409 0.7890 0.7850 0.7830 0.7810 0.7760
13.229000 0.7720 0.7710 0.7700 0.7700 0.7590
13.253409 0.7580 0.7590 0.7590 0.7590 0.7590
13.277000 0.7590 0.7590 0.7590 0.7590 0.7600
13.301409 0.7610 0.7610 0.7610 0.7620 0.7620
13.326000 0.7620 0.7640 0.7650 0.7670 0.7690
13.350409 0.7690 0.7690 0.7690 0.7690 0.7690
13.375000 0.7670 0.7660 0.7620 0.7600 0.7580
13.399409 0.7550 0.7540 0.7530 0.7530 0.7500
13.424000 0.7490 0.7470 0.7460 0.7430 0.7430
13.448409 0.7420 0.7420 0.7420 0.7420 0.7410
13.473000 0.7380 0.7360 0.7320 0.7310 0.7300
13.497409 0.7300 0.7290 0.7270 0.7270 0.7260
13.521000 0.7240 0.7240 0.7240 0.7230 0.7240
13.545409 0.7230 0.7210 0.7210 0.7200 0.7200
13.570000 0.7190 0.7190 0.7180 0.7180 0.7180
13.594409 0.7180 0.7180 0.7180 0.7180 0.7180
13.619000 0.7170 0.7150 0.7150 0.7150 0.7140
13.643409 0.7120 0.7110 0.7080 0.7060 0.7020
13.668000 0.7010 0.7000 0.6980 0.6980 0.6980
13.692409 0.6980 0.6980 0.7000 0.7000 0.7000
13.717000 0.7010 0.7010 0.7010 0.7010 0.7020
13.741409 0.7020 0.7020 0.7030 0.7030 0.7030
13.765000 0.7030 0.7030 0.7040 0.7040 0.7040
13.789409 0.7040 0.7040 0.7040 0.7070 0.7070
13.814000 0.7070 0.7070 0.7070 0.7080 0.7080
13.838409 0.7080 0.7080 0.7080 0.7080 0.7080
13.863000 0.7090 0.7090 0.7090 0.7090 0.7090
13.887409 0.7090 0.7090 0.7110 0.7110 0.7110
13.912000 0.7110 0.7110 0.7110 0.7110 0.7110
13.936409 0.7110 0.7110 0.7110 0.7110 0.7090
13.961000 0.7120 0.7110 0.7060 0.7040 0.7030
13.985409 0.7000 0.6960 0.6910 0.6850 0.6780
14.009000 0.6710 0.6630 0.6550 0.6460 0.6380
14.033409 0.6280 0.6200 0.6110 0.6020 0.6020
14.058000 0.5980 0.5960 0.5920 0.5910 0.5880
14.082409 0.5880 0.5870 0.5860 0.5850 0.5840
14.107000 0.5860 0.5940 0.6020 0.6090 0.6160
14.131409 0.6210 0.6290 0.6400 0.6520 0.6620
14.156000 0.6660 0.6670 0.6680 0.6730 0.6810
14.180409 0.6950 0.7020 0.7070 0.7070 0.7090
14.205000 0.7120 0.7140 0.7170 0.7180 0.7190
14.229409 0.7210 0.7260 0.7270 0.7290 0.7300
14.253000 0.7310 0.7320 0.7360 0.7380 0.7410
14.277409 0.7440 0.7460 0.7470 0.7480 0.7480
14.302000 0.7480 0.7480 0.7480 0.7480 0.7480
14.326409 0.7480 0.7490 0.7490 0.7490 0.7500
14.351000 0.7500 0.7500 0.7500 0.7500 0.7500
14.375409 0.7490 0.7490 0.7490 0.7490 0.7480
14.400000 0.7480 0.7480 0.7480 0.7480 0.7480
14.424409 0.7480 0.7480 0.7480 0.7480 0.7480
14.449000 0.7470 0.7470 0.7470 0.7470 0.7460
14.473409 0.7460 0.7460 0.7460 0.7440 0.7440
14.497000 0.7440 0.7440 0.7430 0.7430 0.7430
14.521409 0.7420 0.7420 0.7410 0.7410 0.7410
14.546000 0.7400 0.7400 0.7380 0.7380 0.7380
14.570409 0.7380 0.7370 0.7370 0.7370 0.7360
14.595000 0.7360 0.7360 0.7350 0.7350 0.7350
14.619409 0.7330 0.7330 0.7330 0.7320 0.7320
14.644000 0.7320 0.7310 0.7310 0.7310 0.7300
14.668409 0.7290 0.7270 0.7260 0.7250 0.7240
14.693000 0.7230 0.7210 0.7200 0.7200 0.7200
14.717409 0.7190 0.7180 0.7150 0.7130 0.7130
14.741000 0.7110 0.7110 0.7110 0.7110 0.7110
14.765409 0.7110 0.7110 0.7110 0.7120 0.7110
14.790000 0.7110 0.7110 0.7120 0.7110 0.7110
14.814409 0.7090 0.7080 0.7070 0.7070 0.7070
14.839000 0.7060 0.7060 0.7040 0.7040 0.7030
14.863409 0.7030 0.7020 0.7020 0.7010
##END=
