##TITLE=SODIUM TRIPOLYPHOSPHATE, FORM I
##JCAMP-DX=4.24
##DATA TYPE=INFRARED SPECTRUM
##CLASS=COBLENTZ III
##ORIGIN=PROCTER AND GAMBLE CO.
##OWNER=COBLENTZ SOCIETY
Collection (C) 2018 copyright by the U.S. Secretary of Commerce
on behalf of the United States of America. All rights reserved.
##DATE=Not specified, most likely prior to 1970
##MOLFORM=O10 P3 Na5
##SOURCE REFERENCE=COBLENTZ NO. 2081
##$NIST ID=B6002081
##$NIST SOURCE=COBLENTZ
##$NIST IMAGE=cob2081
##SPECTROMETER/DATA SYSTEM=PERKIN-ELMER 421 (GRATING)
##INSTRUMENT PARAMETERS=GRATING CHANGE AT 1999 CM^-^1
##STATE=SOLID (MULL IN COCONITRILE)
##SAMPLING PROCEDURE=TRANSMISSION
##RESOLUTION=4
##DATA PROCESSING=DIGITIZED BY NIST FROM HARD COPY (FROM TWO SEGMENTS)
##XUNITS=1/CM
##YUNITS=TRANSMITTANCE
##XFACTOR=1.000000
##YFACTOR=1
##DELTAX=1.127823
##FIRSTX=481.955
##LASTX=3994
##FIRSTY=0.596
##MAXX=3994
##MINX=481.955
##MAXY=0.897
##MINY=0.008
##NPOINTS=3115
##XYDATA=(X++(Y..Y))
481.955000 0.5960 0.5960 0.5960 0.5960 0.5960
487.594116 0.5960 0.5960 0.5960 0.5960 0.5960
493.233231 0.5960 0.5960 0.5960 0.5960 0.5960
498.872347 0.5980 0.5980 0.5980 0.5980 0.5980
504.511463 0.5980 0.5980 0.5980 0.5980 0.5980
510.150579 0.5980 0.5980 0.5980 0.5980 0.5980
515.789694 0.5980 0.5980 0.5980 0.5980 0.5980
521.428810 0.5980 0.5980 0.5980 0.5980 0.5980
527.067926 0.5980 0.5980 0.5980 0.5960 0.5940
532.707041 0.5940 0.5930 0.5910 0.5821 0.5671
538.346157 0.5500 0.5410 0.5330 0.5091 0.4851
543.985273 0.4511 0.4062 0.3881 0.3840 0.3820
549.624388 0.3790 0.3770 0.3740 0.3690 0.3570
555.263504 0.3351 0.2972 0.2920 0.2831 0.2731
560.902620 0.2640 0.2560 0.2390 0.2230 0.2200
566.541736 0.2200 0.2200 0.2200 0.2220 0.2270
572.180851 0.2390 0.2420 0.2510 0.2590 0.2680
577.819967 0.2760 0.2830 0.3039 0.3189 0.3329
583.459083 0.3480 0.3520 0.3620 0.3840 0.3960
589.098198 0.4010 0.4149 0.4269 0.4369 0.4489
594.737314 0.4540 0.4640 0.4660 0.4730 0.4730
600.376430 0.4660 0.4590 0.4510 0.4490 0.4470
606.015546 0.4490 0.4510 0.4610 0.4700 0.4710
611.654661 0.4700 0.4610 0.4510 0.4470 0.4420
617.293777 0.4300 0.4180 0.4150 0.4150 0.4170
622.932893 0.4250 0.4698 0.5068 0.5717 0.6048
628.572008 0.6200 0.6440 0.6660 0.6780 0.6880
634.211124 0.6950 0.6970 0.6990 0.7040 0.7070
639.850240 0.7090 0.7110 0.7140 0.7140 0.7160
645.489356 0.7160 0.7160 0.7160 0.7160 0.7160
651.128471 0.7160 0.7140 0.7120 0.7050 0.7000
656.767587 0.6950 0.6920 0.6880 0.6870 0.6850
662.406703 0.6780 0.6750 0.6710 0.6640 0.6590
668.045818 0.6560 0.6520 0.6490 0.6460 0.6440
673.684934 0.6420 0.6370 0.6350 0.6320 0.6300
679.324050 0.6250 0.6200 0.6130 0.6080 0.6010
684.963165 0.5960 0.5890 0.5820 0.5740 0.5620
690.602281 0.5500 0.5450 0.5380 0.5290 0.5071
696.241397 0.4940 0.4800 0.4590 0.4370 0.4131
701.880513 0.3881 0.3810 0.3651 0.3501 0.3331
707.519628 0.3170 0.2990 0.2950 0.2950 0.2950
713.158744 0.2970 0.3000 0.3040 0.3189 0.3359
718.797860 0.3530 0.3760 0.4010 0.4270 0.4509
724.436975 0.4679 0.4849 0.5019 0.5189 0.5329
730.076091 0.5380 0.5410 0.5430 0.5450 0.5450
735.715207 0.5470 0.5619 0.5720 0.5770 0.5889
741.354323 0.5910 0.5910 0.5840 0.5790 0.5670
746.993438 0.5520 0.5331 0.5121 0.4732 0.4372
752.632554 0.4000 0.3770 0.3760 0.3790 0.3940
758.271670 0.4468 0.4759 0.5546 0.5928 0.6059
763.910785 0.6270 0.6370 0.6520 0.6590 0.6660
769.549901 0.6700 0.6710 0.6760 0.6780 0.6820
775.189017 0.6850 0.6870 0.6870 0.6880 0.6880
780.828132 0.6880 0.6880 0.6880 0.6880 0.6870
786.467248 0.6870 0.6870 0.6870 0.6850 0.6830
792.106364 0.6800 0.6800 0.6780 0.6780 0.6760
797.745480 0.6760 0.6760 0.6750 0.6730 0.6710
803.384595 0.6700 0.6660 0.6630 0.6630 0.6610
809.023711 0.6540 0.6510 0.6470 0.6470 0.6460
814.662827 0.6440 0.6420 0.6390 0.6370 0.6350
820.301942 0.6340 0.6290 0.6270 0.6230 0.6230
825.941058 0.6220 0.6180 0.6150 0.6130 0.6100
831.580174 0.6080 0.6050 0.6010 0.5980 0.5960
837.219290 0.5930 0.5890 0.5880 0.5820 0.5760
842.858405 0.5740 0.5670 0.5640 0.5580 0.5570
848.497521 0.5530 0.5480 0.5400 0.5330 0.5260
854.136637 0.5210 0.5190 0.5110 0.5020 0.4970
859.775752 0.4900 0.4850 0.4750 0.4640 0.4580
865.414868 0.4470 0.4340 0.4270 0.4180 0.4100
871.053984 0.3891 0.3721 0.3650 0.3531 0.3401
876.693100 0.3240 0.3160 0.3040 0.2900 0.2581
882.332215 0.2440 0.2320 0.2151 0.2011 0.1881
887.971331 0.1760 0.1600 0.1480 0.1350 0.1260
893.610447 0.1190 0.1120 0.1040 0.0990 0.0970
899.249562 0.0940 0.0900 0.0870 0.0850 0.0830
904.888678 0.0820 0.0820 0.0800 0.0800 0.0780
910.527794 0.0780 0.0760 0.0750 0.0750 0.0750
916.166909 0.0750 0.0750 0.0750 0.0760 0.0760
921.806025 0.0780 0.0780 0.0800 0.0800 0.0800
927.445141 0.0820 0.0820 0.0870 0.0880 0.0989
933.084257 0.1000 0.1040 0.1090 0.1140 0.1190
938.723372 0.1210 0.1260 0.1399 0.1430 0.1520
944.362488 0.1580 0.1670 0.1740 0.1790 0.1910
950.001604 0.1940 0.2050 0.2150 0.2289 0.2340
955.640719 0.2390 0.2460 0.2540 0.2610 0.2660
961.279835 0.2760 0.2870 0.2920 0.2970 0.3050
966.918951 0.3140 0.3240 0.3310 0.3400 0.3480
972.558067 0.3550 0.3640 0.3690 0.3770 0.3860
978.197182 0.3930 0.3960 0.4000 0.4060 0.4110
983.836298 0.4100 0.4030 0.3880 0.3860 0.3890
989.475414 0.3980 0.4110 0.4200 0.4290 0.4410
995.114529 0.4590 0.4730 0.4830 0.4989 0.5089
1000.753645 0.5230 0.5530 0.5550 0.5580 0.5580
1006.392761 0.5570 0.5550 0.5520 0.5550 0.5600
1012.031876 0.5620 0.5650 0.5650 0.5640 0.5600
1017.670992 0.5600 0.5550 0.5430 0.5291 0.5280
1023.310108 0.5290 0.5350 0.5380 0.5380 0.5350
1028.949224 0.5230 0.5230 0.5649 0.5670 0.5690
1034.588339 0.5740 0.5740 0.5760 0.5760 0.5760
1040.227455 0.5740 0.5700 0.5690 0.5650 0.5620
1045.866571 0.5600 0.5580 0.5530 0.5520 0.5500
1051.505686 0.5480 0.5450 0.5410 0.5410 0.5380
1057.144802 0.5350 0.5260 0.5240 0.5230 0.5170
1062.783918 0.5120 0.5090 0.5050 0.5040 0.5020
1068.423034 0.4990 0.4940 0.4830 0.4780 0.4730
1074.062149 0.4660 0.4580 0.4540 0.4490 0.4410
1079.701265 0.4290 0.4170 0.4010 0.3840 0.3670
1085.340381 0.3470 0.3171 0.2751 0.2172 0.1573
1090.979496 0.1230 0.1170 0.1230 0.1380 0.1670
1096.618612 0.2009 0.2319 0.2440 0.2639 0.2660
1102.257728 0.2700 0.2660 0.2630 0.2580 0.2540
1107.896844 0.2490 0.2340 0.2181 0.2001 0.1891
1113.535959 0.1760 0.1600 0.1430 0.1260 0.1050
1119.175075 0.1000 0.0950 0.0900 0.0800 0.0710
1124.814191 0.0640 0.0580 0.0510 0.0460 0.0390
1130.453306 0.0300 0.0250 0.0250 0.0200 0.0200
1136.092422 0.0150 0.0130 0.0130 0.0110 0.0110
1141.731538 0.0100 0.0100 0.0080 0.0080 0.0080
1147.370653 0.0080 0.0080 0.0100 0.0100 0.0100
1153.009769 0.0100 0.0100 0.0110 0.0110 0.0110
1158.648885 0.0110 0.0110 0.0130 0.0130 0.0150
1164.288001 0.0170 0.0170 0.0180 0.0200 0.0220
1169.927116 0.0250 0.0270 0.0290 0.0320 0.0370
1175.566232 0.0370 0.0410 0.0460 0.0490 0.0520
1181.205348 0.0630 0.0710 0.0780 0.0830 0.0990
1186.844463 0.1070 0.1110 0.1170 0.1240 0.1290
1192.483579 0.1350 0.1430 0.1470 0.1480 0.1480
1198.122695 0.1470 0.1380 0.1260 0.1170 0.1090
1203.761811 0.1000 0.0940 0.0870 0.0760 0.0680
1209.400926 0.0580 0.0460 0.0370 0.0350 0.0350
1215.040042 0.0340 0.0340 0.0350 0.0370 0.0410
1220.679158 0.0460 0.0470 0.0510 0.0580 0.0630
1226.318273 0.0730 0.0850 0.1090 0.1210 0.1470
1231.957389 0.1580 0.1720 0.1879 0.2029 0.2179
1237.596505 0.2340 0.2490 0.2640 0.2800 0.2950
1243.235620 0.3110 0.3280 0.3469 0.3580 0.3690
1248.874736 0.3821 0.4050 0.4220 0.4390 0.4520
1254.513852 0.4640 0.4760 0.4850 0.4950 0.5040
1260.152968 0.5110 0.5280 0.5360 0.5570 0.5620
1265.792083 0.5740 0.5860 0.5940 0.6050 0.6100
1271.431199 0.6170 0.6200 0.6250 0.6300 0.6320
1277.070315 0.6410 0.6460 0.6490 0.6510 0.6580
1282.709430 0.6610 0.6660 0.6680 0.6730 0.6760
1288.348546 0.6800 0.6820 0.6850 0.6870 0.6900
1293.987662 0.6940 0.6950 0.6970 0.6990 0.7000
1299.626778 0.7020 0.7040 0.7050 0.7070 0.7090
1305.265893 0.7110 0.7120 0.7140 0.7160 0.7170
1310.905009 0.7170 0.7190 0.7190 0.7190 0.7210
1316.544125 0.7210 0.7210 0.7230 0.7230 0.7230
1322.183240 0.7240 0.7240 0.7260 0.7260 0.7260
1327.822356 0.7260 0.7280 0.7280 0.7280 0.7280
1333.461472 0.7280 0.7280 0.7280 0.7280 0.7280
1339.100588 0.7280 0.7280 0.7280 0.7280 0.7260
1344.739703 0.7260 0.7240 0.7240 0.7240 0.7230
1350.378819 0.7230 0.7230 0.7210 0.7210 0.7210
1356.017935 0.7210 0.7190 0.7170 0.7160 0.7160
1361.657050 0.7140 0.7140 0.7120 0.7120 0.7110
1367.296166 0.7110 0.7090 0.7090 0.7070 0.7070
1372.935282 0.7070 0.7070 0.7120 0.7160 0.7160
1378.574397 0.7140 0.7140 0.7090 0.7050 0.7000
1384.213513 0.6990 0.6970 0.6950 0.6950 0.6940
1389.852629 0.6900 0.6880 0.6880 0.6880 0.6870
1395.491745 0.6870 0.6850 0.6850 0.6830 0.6830
1401.130860 0.6830 0.6830 0.6830 0.6850 0.6850
1406.769976 0.6880 0.6920 0.6940 0.6940 0.6970
1412.409092 0.7000 0.7020 0.7040 0.7050 0.7070
1418.048207 0.7090 0.7140 0.7210 0.7240 0.7280
1423.687323 0.7280 0.7290 0.7330 0.7360 0.7360
1429.326439 0.7360 0.7360 0.7360 0.7350 0.7350
1434.965555 0.7350 0.7330 0.7330 0.7330 0.7330
1440.604670 0.7310 0.7310 0.7310 0.7310 0.7310
1446.243786 0.7330 0.7330 0.7350 0.7350 0.7350
1451.882902 0.7360 0.7360 0.7360 0.7380 0.7380
1457.522017 0.7380 0.7380 0.7380 0.7400 0.7400
1463.161133 0.7400 0.7400 0.7410 0.7410 0.7430
1468.800249 0.7430 0.7430 0.7430 0.7410 0.7400
1474.439364 0.7400 0.7380 0.7330 0.7330 0.7290
1480.078480 0.7290 0.7290 0.7290 0.7290 0.7290
1485.717596 0.7310 0.7310 0.7310 0.7310 0.7310
1491.356712 0.7310 0.7310 0.7310 0.7310 0.7310
1496.995827 0.7310 0.7310 0.7310 0.7310 0.7310
1502.634943 0.7310 0.7310 0.7310 0.7310 0.7310
1508.274059 0.7310 0.7310 0.7310 0.7310 0.7310
1513.913174 0.7310 0.7310 0.7310 0.7310 0.7310
1519.552290 0.7310 0.7330 0.7330 0.7330 0.7330
1525.191406 0.7330 0.7330 0.7310 0.7310 0.7310
1530.830522 0.7310 0.7310 0.7310 0.7310 0.7310
1536.469637 0.7310 0.7310 0.7290 0.7290 0.7290
1542.108753 0.7290 0.7290 0.7290 0.7290 0.7290
1547.747869 0.7290 0.7290 0.7290 0.7290 0.7290
1553.386984 0.7290 0.7290 0.7290 0.7280 0.7260
1559.026100 0.7260 0.7240 0.7230 0.7210 0.7210
1564.665216 0.7210 0.7210 0.7190 0.7190 0.7190
1570.304332 0.7190 0.7190 0.7170 0.7170 0.7170
1575.943447 0.7170 0.7170 0.7170 0.7190 0.7190
1581.582563 0.7190 0.7190 0.7190 0.7190 0.7190
1587.221679 0.7190 0.7190 0.7190 0.7190 0.7190
1592.860794 0.7190 0.7190 0.7190 0.7190 0.7190
1598.499910 0.7190 0.7190 0.7190 0.7190 0.7190
1604.139026 0.7190 0.7190 0.7190 0.7190 0.7170
1609.778141 0.7170 0.7160 0.7160 0.7160 0.7140
1615.417257 0.7140 0.7140 0.7120 0.7120 0.7120
1621.056373 0.7110 0.7110 0.7110 0.7110 0.7110
1626.695489 0.7110 0.7110 0.7110 0.7110 0.7110
1632.334604 0.7110 0.7110 0.7110 0.7110 0.7110
1637.973720 0.7110 0.7090 0.7090 0.7090 0.7090
1643.612836 0.7090 0.7090 0.7070 0.7070 0.7070
1649.251951 0.7070 0.7070 0.7070 0.7050 0.7050
1654.891067 0.7050 0.7050 0.7050 0.7050 0.7050
1660.530183 0.7050 0.7050 0.7050 0.7050 0.7050
1666.169299 0.7050 0.7050 0.7050 0.7050 0.7050
1671.808414 0.7050 0.7050 0.7050 0.7050 0.7050
1677.447530 0.7050 0.7050 0.7050 0.7050 0.7050
1683.086646 0.7050 0.7050 0.7050 0.7050 0.7050
1688.725761 0.7050 0.7050 0.7050 0.7050 0.7070
1694.364877 0.7070 0.7070 0.7070 0.7070 0.7090
1700.003993 0.7090 0.7090 0.7090 0.7110 0.7110
1705.643108 0.7110 0.7120 0.7140 0.7160 0.7160
1711.282224 0.7160 0.7170 0.7170 0.7170 0.7210
1716.921340 0.7230 0.7230 0.7240 0.7240 0.7260
1722.560456 0.7260 0.7260 0.7280 0.7280 0.7290
1728.199571 0.7290 0.7290 0.7310 0.7310 0.7330
1733.838687 0.7330 0.7330 0.7360 0.7360 0.7380
1739.477803 0.7400 0.7400 0.7400 0.7410 0.7410
1745.116918 0.7410 0.7430 0.7430 0.7430 0.7430
1750.756034 0.7430 0.7430 0.7450 0.7450 0.7450
1756.395150 0.7450 0.7450 0.7470 0.7470 0.7470
1762.034266 0.7470 0.7470 0.7470 0.7480 0.7480
1767.673381 0.7480 0.7480 0.7480 0.7500 0.7500
1773.312497 0.7500 0.7520 0.7520 0.7550 0.7550
1778.951613 0.7570 0.7580 0.7580 0.7600 0.7600
1784.590728 0.7600 0.7600 0.7620 0.7620 0.7620
1790.229844 0.7620 0.7640 0.7640 0.7650 0.7650
1795.868960 0.7650 0.7670 0.7670 0.7690 0.7690
1801.508076 0.7690 0.7690 0.7700 0.7700 0.7700
1807.147191 0.7720 0.7720 0.7720 0.7720 0.7740
1812.786307 0.7740 0.7740 0.7760 0.7760 0.7760
1818.425423 0.7760 0.7770 0.7770 0.7770 0.7770
1824.064538 0.7770 0.7790 0.7790 0.7790 0.7810
1829.703654 0.7810 0.7810 0.7820 0.7820 0.7820
1835.342770 0.7820 0.7820 0.7840 0.7840 0.7840
1840.981885 0.7840 0.7840 0.7840 0.7860 0.7860
1846.621001 0.7860 0.7860 0.7880 0.7890 0.7890
1852.260117 0.7910 0.7910 0.7930 0.7930 0.7930
1857.899233 0.7930 0.7930 0.7930 0.7930 0.7940
1863.538348 0.7940 0.7940 0.7960 0.7960 0.7960
1869.177464 0.7960 0.7960 0.7960 0.7960 0.7980
1874.816580 0.7980 0.8000 0.8000 0.8010 0.8010
1880.455695 0.8010 0.8010 0.8010 0.8030 0.8030
1886.094811 0.8030 0.8030 0.8030 0.8030 0.8030
1891.733927 0.8030 0.8030 0.8030 0.8030 0.8030
1897.373043 0.8030 0.8030 0.8030 0.8050 0.8050
1903.012158 0.8050 0.8060 0.8060 0.8060 0.8060
1908.651274 0.8080 0.8080 0.8100 0.8100 0.8100
1914.290390 0.8100 0.8100 0.8100 0.8110 0.8110
1919.929505 0.8110 0.8110 0.8110 0.8110 0.8110
1925.568621 0.8110 0.8110 0.8130 0.8130 0.8150
1931.207737 0.8170 0.8170 0.8180 0.8180 0.8180
1936.846853 0.8180 0.8180 0.8180 0.8180 0.8180
1942.485968 0.8180 0.8200 0.8200 0.8200 0.8200
1948.125084 0.8200 0.8200 0.8200 0.8200 0.8200
1953.764200 0.8220 0.8220 0.8220 0.8220 0.8220
1959.403315 0.8220 0.8220 0.8220 0.8220 0.8220
1965.042431 0.8220 0.8220 0.8220 0.8200 0.8200
1970.681547 0.8200 0.8200 0.8200 0.8200 0.8200
1976.320662 0.8200 0.8200 0.8200 0.8220 0.8220
1981.959778 0.8220 0.8220 0.8220 0.8220 0.8220
1987.598894 0.8220 0.8220 0.8200 0.8200 0.8200
1993.238010 0.8200 0.8200 0.8200 0.8200 0.8200
1998.877125 0.8180 0.8180 0.8180 0.8180 0.8180
2004.516241 0.8180 0.8180 0.8180 0.8180 0.8180
2010.155357 0.8180 0.8180 0.8180 0.8180 0.8180
2015.794472 0.8180 0.8180 0.8188 0.8196 0.8200
2021.433588 0.8200 0.8200 0.8200 0.8200 0.8200
2027.072704 0.8200 0.8200 0.8200 0.8200 0.8200
2032.711820 0.8200 0.8200 0.8200 0.8200 0.8203
2038.350935 0.8211 0.8219 0.8220 0.8220 0.8220
2043.990051 0.8220 0.8220 0.8224 0.8228 0.8230
2049.629167 0.8230 0.8230 0.8230 0.8230 0.8230
2055.268282 0.8230 0.8230 0.8230 0.8230 0.8230
2060.907398 0.8230 0.8230 0.8230 0.8230 0.8230
2066.546514 0.8230 0.8230 0.8230 0.8230 0.8230
2072.185629 0.8230 0.8230 0.8230 0.8230 0.8233
2077.824745 0.8241 0.8249 0.8250 0.8250 0.8247
2083.463861 0.8239 0.8231 0.8230 0.8230 0.8230
2089.102977 0.8230 0.8230 0.8230 0.8230 0.8230
2094.742092 0.8230 0.8230 0.8230 0.8230 0.8229
2100.381208 0.8225 0.8221 0.8220 0.8220 0.8220
2106.020324 0.8220 0.8220 0.8214 0.8206 0.8200
2111.659439 0.8200 0.8200 0.8200 0.8200 0.8200
2117.298555 0.8200 0.8200 0.8194 0.8186 0.8180
2122.937671 0.8180 0.8180 0.8180 0.8180 0.8179
2128.576787 0.8175 0.8171 0.8164 0.8156 0.8148
2134.215902 0.8140 0.8132 0.8130 0.8130 0.8130
2139.855018 0.8130 0.8130 0.8124 0.8116 0.8110
2145.494134 0.8110 0.8110 0.8110 0.8110 0.8110
2151.133249 0.8110 0.8110 0.8110 0.8110 0.8110
2156.772365 0.8110 0.8110 0.8110 0.8110 0.8110
2162.411481 0.8110 0.8110 0.8110 0.8110 0.8112
2168.050597 0.8120 0.8128 0.8130 0.8130 0.8130
2173.689712 0.8130 0.8130 0.8136 0.8144 0.8150
2179.328828 0.8150 0.8150 0.8150 0.8150 0.8150
2184.967944 0.8150 0.8150 0.8150 0.8150 0.8150
2190.607059 0.8150 0.8150 0.8150 0.8150 0.8150
2196.246175 0.8150 0.8150 0.8150 0.8150 0.8151
2201.885291 0.8159 0.8167 0.8170 0.8170 0.8170
2207.524406 0.8170 0.8170 0.8170 0.8170 0.8170
2213.163522 0.8170 0.8170 0.8170 0.8170 0.8170
2218.802638 0.8174 0.8178 0.8185 0.8193 0.8201
2224.441754 0.8209 0.8217 0.8220 0.8220 0.8220
2230.080869 0.8224 0.8228 0.8235 0.8243 0.8251
2235.719985 0.8259 0.8267 0.8270 0.8270 0.8271
2241.359101 0.8283 0.8295 0.8309 0.8325 0.8341
2246.998216 0.8361 0.8381 0.8390 0.8390 0.8388
2252.637332 0.8360 0.8332 0.8308 0.8288 0.8269
2258.276448 0.8261 0.8253 0.8245 0.8238 0.8230
2263.915564 0.8226 0.8222 0.8216 0.8208 0.8200
2269.554679 0.8192 0.8184 0.8180 0.8180 0.8180
2275.193795 0.8176 0.8172 0.8170 0.8170 0.8170
2280.832911 0.8162 0.8154 0.8150 0.8150 0.8150
2286.472026 0.8150 0.8150 0.8146 0.8138 0.8130
2292.111142 0.8130 0.8130 0.8130 0.8130 0.8130
2297.750258 0.8122 0.8114 0.8110 0.8110 0.8110
2303.389373 0.8110 0.8110 0.8108 0.8104 0.8100
2309.028489 0.8100 0.8100 0.8100 0.8100 0.8100
2314.667605 0.8100 0.8100 0.8100 0.8100 0.8100
2320.306721 0.8100 0.8100 0.8096 0.8088 0.8080
2325.945836 0.8080 0.8080 0.8080 0.8080 0.8080
2331.584952 0.8080 0.8080 0.8080 0.8080 0.8080
2337.224068 0.8087 0.8095 0.8100 0.8100 0.8100
2342.863183 0.8100 0.8100 0.8102 0.8106 0.8110
2348.502299 0.8110 0.8110 0.8110 0.8110 0.8110
2354.141415 0.8117 0.8125 0.8130 0.8130 0.8130
2359.780531 0.8137 0.8145 0.8150 0.8150 0.8150
2365.419646 0.8150 0.8150 0.8150 0.8150 0.8150
2371.058762 0.8150 0.8150 0.8150 0.8150 0.8150
2376.697878 0.8150 0.8150 0.8150 0.8150 0.8150
2382.336993 0.8150 0.8150 0.8150 0.8150 0.8150
2387.976109 0.8150 0.8150 0.8150 0.8150 0.8150
2393.615225 0.8150 0.8150 0.8150 0.8150 0.8150
2399.254341 0.8150 0.8150 0.8150 0.8150 0.8150
2404.893456 0.8157 0.8165 0.8170 0.8170 0.8170
2410.532572 0.8170 0.8170 0.8170 0.8170 0.8170
2416.171688 0.8170 0.8170 0.8170 0.8170 0.8170
2421.810803 0.8170 0.8170 0.8171 0.8175 0.8179
2427.449919 0.8180 0.8180 0.8179 0.8175 0.8171
2433.089035 0.8170 0.8170 0.8170 0.8170 0.8170
2438.728150 0.8170 0.8170 0.8170 0.8170 0.8170
2444.367266 0.8173 0.8177 0.8180 0.8180 0.8180
2450.006382 0.8180 0.8180 0.8180 0.8180 0.8180
2455.645498 0.8186 0.8194 0.8200 0.8200 0.8200
2461.284613 0.8200 0.8200 0.8200 0.8200 0.8200
2466.923729 0.8200 0.8200 0.8200 0.8200 0.8200
2472.562845 0.8200 0.8200 0.8200 0.8200 0.8200
2478.201960 0.8200 0.8200 0.8200 0.8200 0.8200
2483.841076 0.8206 0.8214 0.8220 0.8220 0.8220
2489.480192 0.8220 0.8220 0.8221 0.8225 0.8229
2495.119308 0.8235 0.8243 0.8251 0.8259 0.8267
2500.758423 0.8275 0.8283 0.8290 0.8290 0.8290
2506.397539 0.8290 0.8290 0.8291 0.8295 0.8299
2512.036655 0.8300 0.8300 0.8301 0.8309 0.8317
2517.675770 0.8320 0.8320 0.8320 0.8320 0.8320
2523.314886 0.8320 0.8320 0.8320 0.8320 0.8320
2528.954002 0.8320 0.8320 0.8320 0.8320 0.8320
2534.593117 0.8325 0.8333 0.8340 0.8340 0.8340
2540.232233 0.8340 0.8340 0.8340 0.8340 0.8340
2545.871349 0.8342 0.8346 0.8350 0.8350 0.8350
2551.510465 0.8350 0.8350 0.8350 0.8350 0.8350
2557.149580 0.8354 0.8362 0.8370 0.8370 0.8370
2562.788696 0.8370 0.8370 0.8370 0.8370 0.8370
2568.427812 0.8370 0.8370 0.8370 0.8370 0.8370
2574.066927 0.8370 0.8370 0.8370 0.8378 0.8386
2579.706043 0.8390 0.8390 0.8390 0.8398 0.8406
2585.345159 0.8410 0.8410 0.8410 0.8410 0.8410
2590.984275 0.8410 0.8410 0.8410 0.8414 0.8418
2596.623390 0.8420 0.8420 0.8420 0.8420 0.8420
2602.262506 0.8424 0.8432 0.8440 0.8440 0.8440
2607.901622 0.8440 0.8440 0.8440 0.8440 0.8440
2613.540737 0.8440 0.8440 0.8440 0.8440 0.8440
2619.179853 0.8440 0.8440 0.8440 0.8440 0.8440
2624.818969 0.8440 0.8440 0.8440 0.8440 0.8440
2630.458085 0.8440 0.8440 0.8440 0.8440 0.8440
2636.097200 0.8440 0.8440 0.8440 0.8440 0.8440
2641.736316 0.8440 0.8440 0.8440 0.8440 0.8440
2647.375432 0.8440 0.8440 0.8440 0.8440 0.8440
2653.014547 0.8440 0.8440 0.8440 0.8440 0.8440
2658.653663 0.8440 0.8440 0.8440 0.8440 0.8440
2664.292779 0.8440 0.8440 0.8440 0.8440 0.8440
2669.931894 0.8440 0.8440 0.8440 0.8440 0.8440
2675.571010 0.8440 0.8440 0.8440 0.8440 0.8440
2681.210126 0.8440 0.8440 0.8440 0.8440 0.8440
2686.849242 0.8440 0.8440 0.8440 0.8440 0.8440
2692.488357 0.8440 0.8440 0.8440 0.8440 0.8440
2698.127473 0.8440 0.8440 0.8440 0.8440 0.8440
2703.766589 0.8440 0.8440 0.8440 0.8440 0.8440
2709.405704 0.8440 0.8440 0.8440 0.8440 0.8440
2715.044820 0.8440 0.8440 0.8440 0.8446 0.8454
2720.683936 0.8458 0.8450 0.8442 0.8440 0.8440
2726.323052 0.8440 0.8440 0.8440 0.8440 0.8440
2731.962167 0.8438 0.8430 0.8422 0.8420 0.8420
2737.601283 0.8420 0.8420 0.8420 0.8420 0.8420
2743.240399 0.8420 0.8420 0.8420 0.8417 0.8413
2748.879514 0.8410 0.8410 0.8410 0.8410 0.8410
2754.518630 0.8410 0.8410 0.8410 0.8404 0.8396
2760.157746 0.8388 0.8380 0.8372 0.8370 0.8370
2765.796861 0.8370 0.8370 0.8370 0.8370 0.8370
2771.435977 0.8370 0.8370 0.8370 0.8370 0.8370
2777.075093 0.8368 0.8360 0.8353 0.8350 0.8350
2782.714209 0.8350 0.8350 0.8350 0.8350 0.8350
2788.353324 0.8349 0.8345 0.8341 0.8340 0.8340
2793.992440 0.8340 0.8340 0.8340 0.8335 0.8327
2799.631556 0.8319 0.8311 0.8303 0.8300 0.8300
2805.270671 0.8300 0.8300 0.8300 0.8300 0.8300
2810.909787 0.8299 0.8295 0.8291 0.8290 0.8290
2816.548903 0.8290 0.8290 0.8290 0.8285 0.8277
2822.188019 0.8270 0.8270 0.8270 0.8265 0.8257
2827.827134 0.8249 0.8241 0.8233 0.8228 0.8224
2833.466250 0.8219 0.8211 0.8203 0.8195 0.8187
2839.105366 0.8178 0.8158 0.8138 0.8112 0.8080
2844.744481 0.8048 0.8011 0.7975 0.7856 0.7680
2850.383597 0.7505 0.7325 0.7146 0.7063 0.7051
2856.022713 0.7040 0.7040 0.7040 0.7042 0.7046
2861.661829 0.7054 0.7130 0.7206 0.7407 0.7714
2867.300944 0.8012 0.8068 0.8124 0.8154 0.8162
2872.940060 0.8170 0.8174 0.8178 0.8180 0.8180
2878.579176 0.8180 0.8176 0.8172 0.8166 0.8158
2884.218291 0.8149 0.8121 0.8094 0.8070 0.8050
2889.857407 0.8030 0.8010 0.7990 0.7972 0.7956
2895.496523 0.7940 0.7916 0.7892 0.7872 0.7856
2901.135638 0.7840 0.7801 0.7760 0.7730 0.7710
2906.774754 0.7690 0.7627 0.7563 0.7488 0.7400
2912.413870 0.7312 0.7158 0.7003 0.6790 0.6511
2918.052986 0.6231 0.6075 0.5923 0.5774 0.5626
2923.692101 0.5479 0.5455 0.5439 0.5430 0.5430
2929.331217 0.5430 0.5557 0.5695 0.5844 0.6008
2934.970333 0.6171 0.6304 0.6436 0.6585 0.6756
2940.609448 0.6928 0.7077 0.7225 0.7339 0.7406
2946.248564 0.7474 0.7549 0.7625 0.7694 0.7754
2951.887680 0.7814 0.7834 0.7850 0.7871 0.7899
2957.526796 0.7927 0.7934 0.7938 0.7943 0.7951
2963.165911 0.7959 0.7960 0.7960 0.7960 0.7960
2968.805027 0.7960 0.7960 0.7960 0.7960 0.7960
2974.444143 0.7960 0.7960 0.7960 0.7960 0.7960
2980.083258 0.7960 0.7953 0.7945 0.7940 0.7940
2985.722374 0.7940 0.7937 0.7933 0.7930 0.7930
2991.361490 0.7930 0.7923 0.7915 0.7910 0.7910
2997.000605 0.7910 0.7903 0.7895 0.7886 0.7874
3002.639721 0.7862 0.7844 0.7824 0.7808 0.7800
3008.278837 0.7792 0.7790 0.7790 0.7788 0.7780
3013.917953 0.7772 0.7770 0.7770 0.7770 0.7770
3019.557068 0.7770 0.7770 0.7770 0.7769 0.7765
3025.196184 0.7761 0.7747 0.7731 0.7718 0.7710
3030.835300 0.7702 0.7700 0.7700 0.7699 0.7695
3036.474415 0.7691 0.7690 0.7690 0.7688 0.7680
3042.113531 0.7672 0.7664 0.7656 0.7649 0.7645
3047.752647 0.7641 0.7634 0.7626 0.7620 0.7620
3053.391763 0.7620 0.7614 0.7606 0.7595 0.7575
3059.030878 0.7555 0.7544 0.7536 0.7527 0.7515
3064.669994 0.7504 0.7494 0.7486 0.7479 0.7475
3070.309110 0.7471 0.7464 0.7456 0.7448 0.7440
3075.948225 0.7432 0.7421 0.7410 0.7398 0.7390
3081.587341 0.7382 0.7374 0.7366 0.7359 0.7355
3087.226457 0.7351 0.7345 0.7337 0.7329 0.7321
3092.865573 0.7313 0.7305 0.7297 0.7289 0.7285
3098.504688 0.7281 0.7275 0.7267 0.7259 0.7251
3104.143804 0.7243 0.7232 0.7220 0.7209 0.7201
3109.782920 0.7193 0.7185 0.7177 0.7169 0.7165
3115.422035 0.7161 0.7150 0.7134 0.7120 0.7116
3121.061151 0.7112 0.7105 0.7097 0.7089 0.7081
3126.700267 0.7073 0.7065 0.7057 0.7050 0.7050
3132.339382 0.7050 0.7048 0.7044 0.7039 0.7031
3137.978498 0.7023 0.7020 0.7020 0.7019 0.7011
3143.617614 0.7003 0.7000 0.7000 0.7000 0.7000
3149.256730 0.7000 0.7000 0.7000 0.7000 0.7000
3154.895845 0.7000 0.6998 0.6994 0.6990 0.6990
3160.534961 0.6990 0.6985 0.6977 0.6970 0.6970
3166.174077 0.6970 0.6966 0.6958 0.6950 0.6950
3171.813192 0.6950 0.6948 0.6944 0.6940 0.6940
3177.452308 0.6940 0.6940 0.6940 0.6940 0.6940
3183.091424 0.6940 0.6940 0.6940 0.6940 0.6940
3188.730540 0.6940 0.6940 0.6940 0.6940 0.6940
3194.369655 0.6940 0.6936 0.6928 0.6920 0.6920
3200.008771 0.6920 0.6920 0.6920 0.6920 0.6920
3205.647887 0.6920 0.6920 0.6920 0.6920 0.6920
3211.287002 0.6920 0.6916 0.6908 0.6900 0.6900
3216.926118 0.6900 0.6900 0.6900 0.6900 0.6892
3222.565234 0.6884 0.6880 0.6880 0.6880 0.6880
3228.204349 0.6880 0.6880 0.6880 0.6880 0.6880
3233.843465 0.6880 0.6880 0.6880 0.6880 0.6880
3239.482581 0.6880 0.6880 0.6880 0.6880 0.6880
3245.121697 0.6880 0.6880 0.6880 0.6880 0.6880
3250.760812 0.6880 0.6883 0.6891 0.6899 0.6900
3256.399928 0.6900 0.6900 0.6900 0.6900 0.6907
3262.039044 0.6915 0.6920 0.6920 0.6920 0.6927
3267.678159 0.6935 0.6940 0.6940 0.6940 0.6940
3273.317275 0.6940 0.6940 0.6940 0.6940 0.6943
3278.956391 0.6947 0.6953 0.6961 0.6969 0.6970
3284.595507 0.6970 0.6973 0.6981 0.6989 0.6993
3290.234622 0.6997 0.7000 0.7000 0.7000 0.7007
3295.873738 0.7015 0.7023 0.7031 0.7039 0.7040
3301.512854 0.7040 0.7041 0.7045 0.7049 0.7050
3307.151969 0.7050 0.7053 0.7061 0.7068 0.7076
3312.791085 0.7084 0.7092 0.7100 0.7108 0.7110
3318.430201 0.7110 0.7111 0.7115 0.7119 0.7126
3324.069317 0.7134 0.7140 0.7140 0.7140 0.7140
3329.708432 0.7140 0.7142 0.7150 0.7158 0.7160
3335.347548 0.7160 0.7161 0.7165 0.7169 0.7170
3340.986664 0.7170 0.7172 0.7180 0.7188 0.7190
3346.625779 0.7190 0.7190 0.7190 0.7190 0.7190
3352.264895 0.7190 0.7190 0.7190 0.7190 0.7196
3357.904011 0.7204 0.7212 0.7220 0.7228 0.7230
3363.543126 0.7230 0.7230 0.7230 0.7230 0.7230
3369.182242 0.7230 0.7230 0.7230 0.7230 0.7233
3374.821358 0.7237 0.7240 0.7240 0.7240 0.7240
3380.460474 0.7240 0.7241 0.7250 0.7258 0.7266
3386.099589 0.7274 0.7281 0.7285 0.7289 0.7295
3391.738705 0.7303 0.7310 0.7310 0.7310 0.7315
3397.377821 0.7323 0.7330 0.7330 0.7330 0.7335
3403.016936 0.7343 0.7352 0.7364 0.7376 0.7385
3408.656052 0.7393 0.7401 0.7405 0.7409 0.7415
3414.295168 0.7423 0.7431 0.7439 0.7447 0.7455
3419.934284 0.7463 0.7471 0.7475 0.7478 0.7480
3425.573399 0.7480 0.7481 0.7489 0.7497 0.7505
3431.212515 0.7513 0.7520 0.7524 0.7528 0.7530
3436.851631 0.7530 0.7531 0.7539 0.7547 0.7550
3442.490746 0.7550 0.7551 0.7559 0.7567 0.7572
3448.129862 0.7576 0.7581 0.7589 0.7597 0.7605
3453.768978 0.7613 0.7621 0.7629 0.7636 0.7642
3459.408093 0.7646 0.7650 0.7658 0.7666 0.7674
3465.047209 0.7682 0.7690 0.7703 0.7715 0.7724
3470.686325 0.7732 0.7740 0.7748 0.7756 0.7762
3476.325441 0.7766 0.7770 0.7778 0.7786 0.7790
3481.964556 0.7790 0.7790 0.7798 0.7806 0.7812
3487.603672 0.7816 0.7820 0.7828 0.7836 0.7844
3493.242788 0.7852 0.7860 0.7868 0.7876 0.7882
3498.881903 0.7886 0.7890 0.7898 0.7906 0.7910
3504.521019 0.7910 0.7910 0.7918 0.7926 0.7932
3510.160135 0.7936 0.7940 0.7948 0.7956 0.7960
3515.799251 0.7960 0.7960 0.7975 0.7991 0.8000
3521.438366 0.8000 0.8000 0.8004 0.8008 0.8014
3527.077482 0.8022 0.8030 0.8030 0.8030 0.8030
3532.716598 0.8030 0.8030 0.8030 0.8030 0.8033
3538.355713 0.8041 0.8049 0.8054 0.8058 0.8063
3543.994829 0.8071 0.8079 0.8087 0.8095 0.8100
3549.633945 0.8100 0.8100 0.8104 0.8108 0.8113
3555.273061 0.8121 0.8129 0.8130 0.8130 0.8133
3560.912176 0.8141 0.8149 0.8157 0.8165 0.8172
3566.551292 0.8176 0.8180 0.8180 0.8180 0.8180
3572.190408 0.8180 0.8180 0.8180 0.8180 0.8180
3577.829523 0.8180 0.8180 0.8180 0.8180 0.8180
3583.468639 0.8180 0.8180 0.8187 0.8195 0.8200
3589.107755 0.8200 0.8200 0.8207 0.8215 0.8224
3594.746870 0.8236 0.8248 0.8273 0.8301 0.8323
3600.385986 0.8331 0.8339 0.8343 0.8347 0.8352
3606.025102 0.8360 0.8368 0.8376 0.8385 0.8394
3611.664218 0.8406 0.8418 0.8427 0.8434 0.8442
3617.303333 0.8450 0.8458 0.8460 0.8460 0.8460
3622.942449 0.8460 0.8460 0.8460 0.8460 0.8460
3628.581565 0.8460 0.8460 0.8463 0.8467 0.8474
3634.220680 0.8490 0.8506 0.8513 0.8517 0.8527
3639.859796 0.8551 0.8575 0.8589 0.8601 0.8612
3645.498912 0.8620 0.8628 0.8633 0.8637 0.8642
3651.138028 0.8650 0.8658 0.8672 0.8688 0.8701
3656.777143 0.8705 0.8709 0.8710 0.8710 0.8712
3662.416259 0.8720 0.8728 0.8736 0.8744 0.8751
3668.055375 0.8755 0.8759 0.8766 0.8774 0.8780
3673.694490 0.8780 0.8780 0.8786 0.8794 0.8802
3679.333606 0.8810 0.8818 0.8823 0.8827 0.8830
3684.972722 0.8830 0.8830 0.8830 0.8830 0.8830
3690.611837 0.8830 0.8830 0.8830 0.8830 0.8830
3696.250953 0.8830 0.8830 0.8830 0.8830 0.8830
3701.890069 0.8830 0.8830 0.8830 0.8830 0.8830
3707.529185 0.8830 0.8830 0.8830 0.8830 0.8830
3713.168300 0.8830 0.8830 0.8830 0.8830 0.8830
3718.807416 0.8830 0.8830 0.8830 0.8830 0.8830
3724.446532 0.8830 0.8830 0.8830 0.8830 0.8830
3730.085647 0.8830 0.8830 0.8828 0.8824 0.8820
3735.724763 0.8820 0.8820 0.8820 0.8820 0.8820
3741.363879 0.8824 0.8828 0.8835 0.8843 0.8850
3747.002995 0.8850 0.8850 0.8855 0.8863 0.8870
3752.642110 0.8874 0.8878 0.8885 0.8893 0.8901
3758.281226 0.8909 0.8917 0.8920 0.8920 0.8920
3763.920342 0.8920 0.8920 0.8924 0.8932 0.8940
3769.559457 0.8940 0.8940 0.8942 0.8946 0.8950
3775.198573 0.8950 0.8950 0.8950 0.8950 0.8950
3780.837689 0.8950 0.8950 0.8950 0.8950 0.8950
3786.476805 0.8950 0.8950 0.8950 0.8950 0.8950
3792.115920 0.8950 0.8950 0.8950 0.8950 0.8950
3797.755036 0.8950 0.8950 0.8950 0.8950 0.8950
3803.394152 0.8950 0.8950 0.8950 0.8950 0.8950
3809.033267 0.8950 0.8950 0.8950 0.8950 0.8950
3814.672383 0.8946 0.8942 0.8940 0.8940 0.8940
3820.311499 0.8940 0.8940 0.8940 0.8940 0.8940
3825.950614 0.8940 0.8940 0.8940 0.8940 0.8940
3831.589730 0.8940 0.8940 0.8940 0.8940 0.8940
3837.228846 0.8940 0.8940 0.8940 0.8940 0.8940
3842.867962 0.8940 0.8940 0.8940 0.8940 0.8940
3848.507077 0.8940 0.8940 0.8940 0.8940 0.8940
3854.146193 0.8940 0.8940 0.8940 0.8940 0.8940
3859.785309 0.8940 0.8940 0.8940 0.8940 0.8940
3865.424424 0.8940 0.8940 0.8940 0.8940 0.8940
3871.063540 0.8940 0.8940 0.8937 0.8929 0.8921
3876.702656 0.8920 0.8920 0.8920 0.8920 0.8920
3882.341772 0.8920 0.8920 0.8920 0.8920 0.8920
3887.980887 0.8920 0.8920 0.8920 0.8920 0.8920
3893.620003 0.8920 0.8920 0.8923 0.8931 0.8939
3899.259119 0.8940 0.8940 0.8940 0.8940 0.8940
3904.898234 0.8943 0.8947 0.8950 0.8950 0.8950
3910.537350 0.8950 0.8950 0.8950 0.8950 0.8950
3916.176466 0.8956 0.8964 0.8970 0.8970 0.8970
3921.815581 0.8970 0.8970 0.8970 0.8970 0.8970
3927.454697 0.8970 0.8970 0.8970 0.8970 0.8970
3933.093813 0.8970 0.8970 0.8970 0.8970 0.8970
3938.732929 0.8970 0.8970 0.8970 0.8970 0.8970
3944.372044 0.8964 0.8956 0.8950 0.8950 0.8950
3950.011160 0.8950 0.8950 0.8950 0.8950 0.8950
3955.650276 0.8950 0.8950 0.8950 0.8950 0.8950
3961.289391 0.8950 0.8950 0.8950 0.8950 0.8950
3966.928507 0.8950 0.8950 0.8950 0.8950 0.8950
3972.567623 0.8950 0.8950 0.8950 0.8950 0.8950
3978.206739 0.8950 0.8950 0.8950 0.8950 0.8950
3983.845854 0.8950 0.8950 0.8950 0.8950 0.8950
3989.484970 0.8950 0.8950 0.8950 0.8950 0.8950
##END=
