##TITLE=TRIMETHYL AMINE PICRATE
##JCAMP-DX=4.24
##DATA TYPE=INFRARED SPECTRUM
##CLASS=COBLENTZ
##ORIGIN=CITRUS EXPERIMENT STATION, UNIVERSITY OF FLORIDA (G. EDWARDS)
##OWNER=COBLENTZ SOCIETY
Collection (C) 2018 copyright by the U.S. Secretary of Commerce
on behalf of the United States of America. All rights reserved.
##DATE=Not specified, most likely prior to 1970
##NAMES=2,4,6-trinitrophenol compound with N,N-dimethylmethanamine (1:1)
##MOLFORM=C9 H12 N4 O7
##SOURCE REFERENCE=COBLENTZ NO. 3617
##$NIST ID=B6003617
##$NIST SOURCE=COBLENTZ
##$NIST IMAGE=cob3617
##SPECTROMETER/DATA SYSTEM=Not specified, most likely a grating spectrometer.
##STATE=SOLID (KBr PELLET)
##SAMPLING PROCEDURE=TRANSMISSION
##RESOLUTION=4
##DATA PROCESSING=DIGITIZED BY NIST FROM HARD COPY
##XUNITS=MICROMETERS
##YUNITS=TRANSMITTANCE
##XFACTOR=1.000000
##YFACTOR=1
##DELTAX=000.006633
##FIRSTX=2.033
##LASTX=15.0002
##FIRSTY=0.596
##MAXX=15.0002
##MINX=2.033
##MAXY=0.83
##MINY=0.06
##NPOINTS=1956
##XYDATA=(X++(Y..Y))
2.033000 0.5960 0.5960 0.5980 0.5980 0.5980
2.066180 0.5990 0.5990 0.5990 0.6000 0.6000
2.099000 0.6030 0.6060 0.6060 0.6060 0.6060
2.132180 0.6060 0.6060 0.6060 0.6060 0.6060
2.166000 0.6070 0.6070 0.6070 0.6080 0.6100
2.199180 0.6110 0.6120 0.6160 0.6180 0.6190
2.232000 0.6190 0.6200 0.6220 0.6230 0.6230
2.265180 0.6230 0.6240 0.6240 0.6240 0.6270
2.298000 0.6280 0.6300 0.6310 0.6310 0.6320
2.331180 0.6340 0.6340 0.6350 0.6380 0.6390
2.365000 0.6400 0.6420 0.6420 0.6430 0.6440
2.398180 0.6440 0.6440 0.6460 0.6470 0.6480
2.431000 0.6480 0.6480 0.6500 0.6510 0.6520
2.464180 0.6520 0.6540 0.6550 0.6550 0.6550
2.497000 0.6590 0.6600 0.6620 0.6620 0.6620
2.530180 0.6630 0.6640 0.6660 0.6680 0.6700
2.564000 0.6710 0.6710 0.6710 0.6720 0.6740
2.597180 0.6740 0.6750 0.6750 0.6750 0.6760
2.630000 0.6760 0.6780 0.6780 0.6780 0.6780
2.663180 0.6790 0.6790 0.6780 0.6780 0.6780
2.696000 0.6780 0.6760 0.6750 0.6750 0.6750
2.729180 0.6750 0.6740 0.6720 0.6720 0.6710
2.763000 0.6710 0.6710 0.6710 0.6710 0.6710
2.796180 0.6710 0.6700 0.6700 0.6700 0.6700
2.829000 0.6700 0.6680 0.6680 0.6680 0.6680
2.862180 0.6670 0.6670 0.6680 0.6680 0.6680
2.895000 0.6700 0.6740 0.6760 0.6780 0.6790
2.928180 0.6790 0.6800 0.6800 0.6820 0.6830
2.962000 0.6880 0.6900 0.6910 0.6920 0.6950
2.995180 0.6960 0.6980 0.6990 0.6990 0.7000
3.028000 0.7000 0.7000 0.7000 0.7000 0.6990
3.061180 0.6990 0.6990 0.7000 0.7000 0.7000
3.094000 0.6990 0.6990 0.6940 0.6920 0.6880
3.127180 0.6860 0.6820 0.6790 0.6750 0.6700
3.161000 0.6630 0.6510 0.6400 0.6240 0.6120
3.194180 0.6030 0.5800 0.5550 0.5430 0.5360
3.227000 0.5300 0.5190 0.5070 0.4930 0.4710
3.260180 0.4490 0.4310 0.4150 0.4150 0.4190
3.293000 0.4210 0.4270 0.4320 0.4470 0.4600
3.326180 0.4720 0.4800 0.4850 0.4850 0.4810
3.360000 0.4730 0.4720 0.4710 0.4710 0.4690
3.393180 0.4690 0.4710 0.4720 0.4920 0.5040
3.426000 0.5070 0.5060 0.5030 0.5000 0.4970
3.459180 0.4930 0.4890 0.4840 0.4760 0.4720
3.492000 0.4670 0.4610 0.4560 0.4520 0.4450
3.525180 0.4410 0.4400 0.4320 0.4230 0.4110
3.559000 0.4000 0.3730 0.3530 0.3330 0.3280
3.592180 0.3250 0.3250 0.3400 0.3530 0.3710
3.625000 0.3890 0.4030 0.4200 0.4400 0.4510
3.658180 0.4690 0.4810 0.5140 0.5310 0.5430
3.691000 0.5510 0.5600 0.5700 0.5790 0.5880
3.724180 0.5990 0.6020 0.6110 0.6200 0.6300
3.758000 0.6320 0.6340 0.6360 0.6390 0.6400
3.791180 0.6430 0.6500 0.6520 0.6550 0.6580
3.824000 0.6590 0.6590 0.6620 0.6620 0.6630
3.857180 0.6630 0.6620 0.6620 0.6620 0.6620
3.890000 0.6620 0.6600 0.6560 0.6550 0.6550
3.923180 0.6550 0.6550 0.6560 0.6560 0.6580
3.957000 0.6600 0.6640 0.6680 0.6700 0.6700
3.990180 0.6680 0.6670 0.6660 0.6640 0.6630
4.023000 0.6630 0.6630 0.6640 0.6700 0.6740
4.056180 0.6800 0.6900 0.7000 0.7060 0.7100
4.089000 0.7140 0.7150 0.7190 0.7200 0.7220
4.122180 0.7220 0.7220 0.7240 0.7270 0.7300
4.156000 0.7340 0.7360 0.7390 0.7420 0.7480
4.189180 0.7500 0.7500 0.7530 0.7570 0.7580
4.222000 0.7590 0.7590 0.7590 0.7610 0.7610
4.255180 0.7610 0.7610 0.7610 0.7610 0.7610
4.288000 0.7610 0.7610 0.7610 0.7620 0.7620
4.321180 0.7620 0.7620 0.7620 0.7630 0.7650
4.355000 0.7650 0.7650 0.7650 0.7650 0.7650
4.388180 0.7650 0.7650 0.7660 0.7670 0.7670
4.421000 0.7670 0.7670 0.7670 0.7660 0.7660
4.454180 0.7650 0.7650 0.7650 0.7660 0.7670
4.487000 0.7700 0.7710 0.7730 0.7740 0.7740
4.520180 0.7770 0.7790 0.7810 0.7820 0.7820
4.554000 0.7820 0.7820 0.7820 0.7820 0.7830
4.587180 0.7860 0.7890 0.7900 0.7900 0.7900
4.620000 0.7910 0.7910 0.7910 0.7910 0.7910
4.653180 0.7910 0.7910 0.7930 0.7910 0.7910
4.686000 0.7910 0.7910 0.7910 0.7910 0.7910
4.719180 0.7910 0.7900 0.7900 0.7900 0.7910
4.753000 0.7910 0.7930 0.7930 0.7940 0.7940
4.786180 0.7950 0.7950 0.7940 0.7940 0.7940
4.819000 0.7940 0.7940 0.7940 0.7950 0.7950
4.852180 0.7940 0.7940 0.7940 0.7950 0.7980
4.885000 0.7990 0.7990 0.8010 0.8020 0.8020
4.918180 0.8020 0.8020 0.8020 0.8020 0.8020
4.952000 0.8020 0.8020 0.8020 0.8020 0.8020
4.985180 0.8020 0.8010 0.8010 0.8010 0.8010
5.018000 0.8010 0.7990 0.7990 0.8010 0.8020
5.051180 0.8020 0.8020 0.8030 0.8060 0.8070
5.084000 0.8090 0.8090 0.8090 0.8100 0.8100
5.117180 0.8100 0.8100 0.8110 0.8130 0.8130
5.151000 0.8130 0.8130 0.8140 0.8130 0.8130
5.184180 0.8130 0.8130 0.8130 0.8140 0.8150
5.217000 0.8150 0.8140 0.8130 0.8130 0.8110
5.250180 0.8100 0.8100 0.8090 0.8090 0.8090
5.283000 0.8070 0.8070 0.8070 0.8060 0.8060
5.316180 0.8050 0.8030 0.8020 0.8020 0.8020
5.349000 0.8010 0.7990 0.7990 0.7980 0.7950
5.382180 0.7930 0.7900 0.7900 0.7870 0.7870
5.416000 0.7890 0.7900 0.7910 0.7950 0.8010
5.449180 0.8030 0.8060 0.8060 0.8050 0.8050
5.482000 0.8030 0.8020 0.8020 0.8030 0.8060
5.515180 0.8070 0.8070 0.8070 0.8090 0.8100
5.548000 0.8110 0.8110 0.8110 0.8110 0.8110
5.581180 0.8110 0.8100 0.8090 0.8090 0.8070
5.615000 0.8050 0.8030 0.8020 0.8020 0.8010
5.648180 0.7980 0.7940 0.7910 0.7850 0.7810
5.681000 0.7770 0.7750 0.7730 0.7710 0.7710
5.714180 0.7700 0.7700 0.7710 0.7710 0.7730
5.747000 0.7730 0.7730 0.7730 0.7710 0.7690
5.780180 0.7650 0.7620 0.7530 0.7470 0.7440
5.814000 0.7430 0.7420 0.7400 0.7340 0.7260
5.847180 0.7150 0.7100 0.7030 0.7000 0.6980
5.880000 0.6960 0.6940 0.6900 0.6840 0.6740
5.913180 0.6660 0.6580 0.6510 0.6470 0.6400
5.946000 0.6270 0.6110 0.5950 0.5830 0.5720
5.979180 0.5600 0.5380 0.5150 0.5040 0.4920
6.013000 0.4520 0.4210 0.3610 0.2730 0.2320
6.046180 0.2200 0.2010 0.1800 0.1600 0.1440
6.079000 0.1250 0.1040 0.0920 0.0690 0.0610
6.112180 0.0600 0.0620 0.0690 0.0780 0.0890
6.145000 0.1010 0.1170 0.1260 0.1290 0.1300
6.178180 0.1300 0.1300 0.1320 0.1440 0.1530
6.212000 0.1900 0.2010 0.2180 0.2400 0.2600
6.245180 0.2800 0.3000 0.3210 0.3430 0.3650
6.278000 0.3920 0.4110 0.4400 0.4570 0.4690
6.311180 0.4690 0.4550 0.4270 0.4010 0.3710
6.344000 0.3360 0.3010 0.2330 0.2000 0.1970
6.377180 0.2080 0.2240 0.2550 0.3010 0.3310
6.411000 0.3440 0.3510 0.3600 0.3760 0.4010
6.444180 0.4200 0.4350 0.4530 0.4670 0.4750
6.477000 0.4750 0.4720 0.4720 0.4670 0.4610
6.510180 0.4530 0.4510 0.4470 0.4430 0.4400
6.543000 0.4400 0.4390 0.4390 0.4390 0.4390
6.576180 0.4390 0.4370 0.4350 0.4330 0.4230
6.610000 0.4130 0.4120 0.4110 0.4090 0.4030
6.643180 0.3870 0.3640 0.3310 0.3050 0.2890
6.676000 0.2720 0.2520 0.2250 0.2100 0.1900
6.709180 0.1810 0.1800 0.1810 0.1820 0.1940
6.742000 0.2120 0.2340 0.2650 0.3050 0.3320
6.775180 0.3530 0.3670 0.3770 0.3830 0.3930
6.809000 0.4170 0.4310 0.4400 0.4470 0.4530
6.842180 0.4570 0.4610 0.4630 0.4670 0.4680
6.875000 0.4690 0.4710 0.4680 0.4600 0.4450
6.908180 0.4230 0.4110 0.3810 0.3510 0.3370
6.941000 0.3370 0.3410 0.3510 0.3630 0.3800
6.974180 0.4070 0.4430 0.4720 0.5220 0.5500
7.008000 0.5750 0.5820 0.5910 0.6000 0.6040
7.041180 0.6110 0.6120 0.6120 0.6140 0.6160
7.074000 0.6200 0.6230 0.6230 0.6240 0.6280
7.107180 0.6310 0.6360 0.6420 0.6510 0.6600
7.140000 0.6710 0.6800 0.6830 0.6830 0.6830
7.173180 0.6820 0.6780 0.6760 0.6670 0.6630
7.207000 0.6600 0.6510 0.6350 0.6110 0.5840
7.240180 0.5520 0.5140 0.4880 0.4610 0.4170
7.273000 0.3720 0.3210 0.2800 0.2420 0.1970
7.306180 0.1860 0.1920 0.2020 0.2290 0.2510
7.339000 0.2730 0.3130 0.3430 0.3710 0.3770
7.372180 0.3730 0.3550 0.3310 0.3010 0.2340
7.406000 0.1800 0.1260 0.1010 0.0820 0.0700
7.439180 0.0620 0.0610 0.0610 0.0640 0.0660
7.472000 0.0720 0.0800 0.0890 0.1050 0.1160
7.505180 0.1400 0.1660 0.1780 0.1860 0.1940
7.538000 0.1940 0.1920 0.1890 0.1720 0.1560
7.571180 0.1400 0.1300 0.1130 0.1000 0.0850
7.605000 0.0760 0.0720 0.0720 0.0730 0.0780
7.638180 0.0810 0.0900 0.1010 0.1240 0.1420
7.671000 0.1530 0.1650 0.1690 0.1700 0.1700
7.704180 0.1660 0.1620 0.1610 0.1620 0.1650
7.737000 0.1700 0.1760 0.1860 0.2000 0.2090
7.770180 0.2100 0.2120 0.2100 0.2040 0.2000
7.804000 0.1800 0.1650 0.1530 0.1410 0.1300
7.837180 0.1200 0.1120 0.1090 0.1080 0.1090
7.870000 0.1120 0.1200 0.1250 0.1400 0.1500
7.903180 0.1640 0.1820 0.1900 0.2000 0.2050
7.936000 0.2090 0.2100 0.2100 0.2090 0.2010
7.969180 0.1960 0.1930 0.1820 0.1780 0.1780
8.003000 0.1800 0.1840 0.1890 0.2010 0.2090
8.036180 0.2200 0.2340 0.2510 0.2600 0.2670
8.069000 0.2800 0.2850 0.2920 0.3030 0.3130
8.102180 0.3310 0.3430 0.3630 0.3730 0.3850
8.135000 0.4010 0.4170 0.4310 0.4430 0.4550
8.168180 0.4670 0.4770 0.4910 0.5110 0.5150
8.202000 0.5230 0.5320 0.5380 0.5440 0.5510
8.235180 0.5550 0.5620 0.5640 0.5680 0.5750
8.268000 0.5820 0.5860 0.5910 0.5940 0.6000
8.301180 0.6020 0.6110 0.6110 0.6140 0.6180
8.334000 0.6220 0.6280 0.6310 0.6320 0.6380
8.367180 0.6420 0.6440 0.6510 0.6510 0.6520
8.401000 0.6540 0.6560 0.6580 0.6600 0.6630
8.434180 0.6640 0.6680 0.6710 0.6710 0.6710
8.467000 0.6710 0.6710 0.6710 0.6670 0.6660
8.500180 0.6600 0.6540 0.6510 0.6420 0.6340
8.533000 0.6220 0.6110 0.5910 0.5620 0.5310
8.566180 0.5080 0.4850 0.4510 0.4050 0.3760
8.599000 0.3480 0.3480 0.3600 0.3720 0.3920
8.632180 0.4210 0.4450 0.4710 0.4910 0.5160
8.666000 0.5200 0.5230 0.5230 0.5230 0.5240
8.699180 0.5280 0.5420 0.5540 0.5710 0.5820
8.732000 0.5940 0.6040 0.6140 0.6220 0.6270
8.765180 0.6300 0.6340 0.6420 0.6460 0.6510
8.798000 0.6540 0.6600 0.6630 0.6670 0.6710
8.831180 0.6720 0.6760 0.6800 0.6830 0.6840
8.865000 0.6870 0.6910 0.6940 0.6980 0.7020
8.898180 0.7020 0.7030 0.7040 0.7070 0.7080
8.931000 0.7110 0.7120 0.7140 0.7150 0.7190
8.964180 0.7220 0.7230 0.7230 0.7230 0.7230
8.997000 0.7260 0.7270 0.7270 0.7280 0.7300
9.030180 0.7310 0.7320 0.7360 0.7390 0.7390
9.064000 0.7400 0.7400 0.7400 0.7400 0.7400
9.097180 0.7400 0.7400 0.7400 0.7420 0.7420
9.130000 0.7430 0.7430 0.7440 0.7440 0.7440
9.163180 0.7440 0.7460 0.7460 0.7440 0.7430
9.196000 0.7400 0.7320 0.7240 0.7220 0.7160
9.229180 0.7140 0.7110 0.7020 0.6950 0.6840
9.263000 0.6750 0.6620 0.6430 0.6230 0.6020
9.296180 0.5630 0.5270 0.5060 0.4830 0.4520
9.329000 0.4210 0.4030 0.4030 0.4120 0.4210
9.362180 0.4410 0.4650 0.4910 0.5230 0.5320
9.395000 0.5420 0.5460 0.5510 0.5510 0.5550
9.428180 0.5630 0.5750 0.5870 0.6020 0.6140
9.462000 0.6310 0.6420 0.6520 0.6620 0.6670
9.495180 0.6740 0.6780 0.6820 0.6840 0.6880
9.528000 0.6910 0.6910 0.6910 0.6920 0.6940
9.561180 0.6940 0.6950 0.6980 0.6980 0.6990
9.594000 0.7020 0.7030 0.7110 0.7110 0.7140
9.627180 0.7140 0.7160 0.7180 0.7190 0.7230
9.661000 0.7260 0.7270 0.7280 0.7300 0.7310
9.694180 0.7320 0.7350 0.7380 0.7400 0.7460
9.727000 0.7480 0.7500 0.7510 0.7510 0.7510
9.760180 0.7510 0.7530 0.7530 0.7530 0.7530
9.793000 0.7540 0.7540 0.7540 0.7550 0.7550
9.826180 0.7550 0.7550 0.7580 0.7610 0.7630
9.860000 0.7630 0.7650 0.7650 0.7660 0.7660
9.893180 0.7670 0.7670 0.7710 0.7710 0.7710
9.926000 0.7710 0.7710 0.7730 0.7730 0.7740
9.959180 0.7770 0.7790 0.7790 0.7810 0.7790
9.992000 0.7780 0.7770 0.7750 0.7710 0.7630
10.025180 0.7620 0.7580 0.7540 0.7510 0.7420
10.059000 0.7350 0.7270 0.7160 0.7070 0.6910
10.092180 0.6640 0.6340 0.5820 0.5440 0.5030
10.125000 0.4770 0.4520 0.4070 0.3640 0.3510
10.158180 0.3450 0.3490 0.3510 0.3560 0.3670
10.191000 0.3810 0.3960 0.4320 0.4770 0.4930
10.224180 0.5470 0.5740 0.5940 0.6150 0.6360
10.258000 0.6520 0.6710 0.6820 0.6910 0.7020
10.291180 0.7060 0.7120 0.7230 0.7240 0.7310
10.324000 0.7340 0.7400 0.7460 0.7510 0.7530
10.357180 0.7550 0.7610 0.7620 0.7710 0.7750
10.390000 0.7780 0.7790 0.7810 0.7820 0.7830
10.423180 0.7830 0.7830 0.7830 0.7850 0.7850
10.457000 0.7850 0.7850 0.7860 0.7870 0.7890
10.490180 0.7890 0.7890 0.7900 0.7910 0.7910
10.523000 0.7900 0.7890 0.7870 0.7830 0.7810
10.556180 0.7750 0.7660 0.7570 0.7460 0.7340
10.589000 0.7200 0.6910 0.6560 0.6400 0.6220
10.622180 0.6070 0.6030 0.6110 0.6220 0.6320
10.656000 0.6440 0.6620 0.6760 0.6910 0.7020
10.689180 0.7110 0.7200 0.7270 0.7360 0.7400
10.722000 0.7430 0.7430 0.7440 0.7440 0.7440
10.755180 0.7440 0.7430 0.7400 0.7350 0.7320
10.788000 0.7310 0.7160 0.7060 0.6920 0.6780
10.821180 0.6620 0.6430 0.6230 0.6020 0.5820
10.855000 0.5680 0.5630 0.5640 0.5740 0.5910
10.888180 0.6140 0.6470 0.6710 0.6910 0.7030
10.921000 0.7140 0.7200 0.7200 0.7190 0.7160
10.954180 0.7110 0.7030 0.6860 0.6620 0.6400
10.987000 0.6000 0.5590 0.5160 0.4960 0.4760
11.020180 0.4410 0.4230 0.4130 0.4130 0.4240
11.054000 0.4410 0.4640 0.4880 0.5420 0.5660
11.087180 0.5840 0.6140 0.6310 0.6540 0.6600
11.120000 0.6710 0.6820 0.6940 0.7020 0.7070
11.153180 0.7140 0.7220 0.7240 0.7280 0.7320
11.186000 0.7400 0.7460 0.7510 0.7540 0.7550
11.219180 0.7610 0.7610 0.7630 0.7650 0.7710
11.253000 0.7710 0.7740 0.7750 0.7790 0.7810
11.286180 0.7830 0.7850 0.7870 0.7900 0.7900
11.319000 0.7900 0.7900 0.7910 0.7930 0.7940
11.352180 0.7970 0.7970 0.7980 0.7980 0.7980
11.385000 0.7980 0.7990 0.7990 0.8010 0.8010
11.418180 0.8010 0.8020 0.8020 0.8020 0.8010
11.452000 0.8010 0.8020 0.8020 0.8020 0.8030
11.485180 0.8050 0.8060 0.8070 0.8070 0.8070
11.518000 0.8070 0.8070 0.8090 0.8090 0.8090
11.551180 0.8090 0.8090 0.8090 0.8100 0.8110
11.584000 0.8130 0.8140 0.8170 0.8180 0.8210
11.617180 0.8220 0.8220 0.8220 0.8220 0.8220
11.651000 0.8220 0.8230 0.8230 0.8230 0.8230
11.684180 0.8230 0.8220 0.8220 0.8220 0.8220
11.717000 0.8220 0.8220 0.8220 0.8220 0.8220
11.750180 0.8220 0.8210 0.8180 0.8180 0.8180
11.783000 0.8180 0.8190 0.8180 0.8180 0.8190
11.816180 0.8190 0.8190 0.8190 0.8190 0.8190
11.849000 0.8210 0.8190 0.8180 0.8150 0.8140
11.882180 0.8110 0.8110 0.8110 0.8100 0.8100
11.916000 0.8100 0.8090 0.8090 0.8070 0.8060
11.949180 0.8030 0.8020 0.8030 0.8050 0.8070
11.982000 0.8110 0.8140 0.8150 0.8150 0.8170
12.015180 0.8170 0.8170 0.8170 0.8170 0.8170
12.048000 0.8170 0.8170 0.8180 0.8190 0.8190
12.081180 0.8180 0.8170 0.8150 0.8140 0.8140
12.115000 0.8130 0.8110 0.8070 0.8030 0.8020
12.148180 0.7940 0.7910 0.7830 0.7810 0.7730
12.181000 0.7660 0.7590 0.7570 0.7540 0.7530
12.214180 0.7540 0.7570 0.7610 0.7630 0.7710
12.247000 0.7750 0.7810 0.7820 0.7830 0.7870
12.280180 0.7910 0.7940 0.7950 0.7980 0.7990
12.314000 0.7990 0.8010 0.8010 0.8010 0.8020
12.347180 0.8020 0.8050 0.8070 0.8090 0.8100
12.380000 0.8100 0.8100 0.8100 0.8110 0.8110
12.413180 0.8130 0.8140 0.8170 0.8170 0.8170
12.446000 0.8180 0.8180 0.8170 0.8170 0.8170
12.479180 0.8170 0.8150 0.8140 0.8130 0.8110
12.513000 0.8110 0.8070 0.8030 0.7950 0.7930
12.546180 0.7910 0.7860 0.7820 0.7730 0.7730
12.579000 0.7730 0.7710 0.7710 0.7670 0.7650
12.612180 0.7620 0.7570 0.7470 0.7380 0.7310
12.645000 0.7120 0.6920 0.6720 0.6420 0.6120
12.678180 0.5780 0.5470 0.5190 0.4910 0.4440
12.712000 0.3920 0.3870 0.3870 0.3970 0.4150
12.745180 0.4510 0.4870 0.5720 0.6070 0.6440
12.778000 0.6710 0.6950 0.7120 0.7310 0.7480
12.811180 0.7650 0.7750 0.7820 0.7860 0.7910
12.844000 0.7950 0.7990 0.8010 0.8020 0.8030
12.877180 0.8030 0.8050 0.8090 0.8130 0.8170
12.911000 0.8210 0.8220 0.8220 0.8230 0.8230
12.944180 0.8230 0.8230 0.8230 0.8230 0.8230
12.977000 0.8250 0.8250 0.8260 0.8250 0.8260
13.010180 0.8260 0.8270 0.8270 0.8270 0.8270
13.043000 0.8290 0.8290 0.8290 0.8290 0.8290
13.076180 0.8290 0.8300 0.8300 0.8250 0.8220
13.110000 0.8210 0.8190 0.8190 0.8180 0.8180
13.143180 0.8180 0.8180 0.8190 0.8190 0.8190
13.176000 0.8180 0.8170 0.8170 0.8130 0.8110
13.209180 0.8110 0.8110 0.8090 0.8060 0.8020
13.242000 0.8020 0.7970 0.7940 0.7910 0.7910
13.275180 0.7870 0.7830 0.7810 0.7710 0.7620
13.309000 0.7570 0.7510 0.7460 0.7360 0.7240
13.342180 0.7140 0.7040 0.6910 0.6710 0.6510
13.375000 0.6270 0.6020 0.5800 0.5420 0.5180
13.408180 0.4920 0.4760 0.4520 0.4270 0.4120
13.441000 0.4090 0.4080 0.4080 0.4210 0.4410
13.474180 0.4610 0.4830 0.5340 0.5620 0.5900
13.508000 0.6160 0.6400 0.6620 0.6780 0.6920
13.541180 0.7040 0.7120 0.7230 0.7310 0.7350
13.574000 0.7420 0.7470 0.7500 0.7530 0.7540
13.607180 0.7570 0.7570 0.7580 0.7580 0.7580
13.640000 0.7580 0.7580 0.7550 0.7540 0.7540
13.673180 0.7530 0.7510 0.7510 0.7470 0.7470
13.707000 0.7460 0.7440 0.7400 0.7350 0.7310
13.740180 0.7230 0.7200 0.7140 0.7040 0.7020
13.773000 0.6910 0.6820 0.6750 0.6620 0.6510
13.806180 0.6360 0.6240 0.6110 0.6020 0.5910
13.839000 0.5790 0.5660 0.5600 0.5510 0.5440
13.872180 0.5350 0.5270 0.5230 0.5220 0.5220
13.906000 0.5220 0.5220 0.5220 0.5220 0.5220
13.939180 0.5230 0.5230 0.5230 0.5230 0.5230
13.972000 0.5220 0.5200 0.5160 0.5120 0.5070
14.005180 0.5000 0.4960 0.4910 0.4800 0.4690
14.038000 0.4530 0.4410 0.4290 0.4130 0.4010
14.071180 0.3850 0.3730 0.3670 0.3640 0.3640
14.105000 0.3670 0.3690 0.3710 0.3760 0.3850
14.138180 0.3950 0.4110 0.4210 0.4390 0.4520
14.171000 0.4650 0.4810 0.4930 0.5220 0.5310
14.204180 0.5420 0.5510 0.5600 0.5710 0.5800
14.237000 0.5860 0.5920 0.6020 0.6030 0.6110
14.270180 0.6150 0.6220 0.6260 0.6310 0.6350
14.304000 0.6400 0.6420 0.6430 0.6440 0.6470
14.337180 0.6520 0.6550 0.6580 0.6620 0.6660
14.370000 0.6670 0.6700 0.6710 0.6720 0.6720
14.403180 0.6740 0.6750 0.6760 0.6780 0.6800
14.436000 0.6800 0.6820 0.6820 0.6830 0.6830
14.469180 0.6830 0.6840 0.6840 0.6860 0.6870
14.503000 0.6870 0.6870 0.6860 0.6860 0.6860
14.536180 0.6840 0.6840 0.6830 0.6830 0.6830
14.569000 0.6820 0.6800 0.6800 0.6800 0.6800
14.602180 0.6800 0.6800 0.6800 0.6800 0.6800
14.635000 0.6800 0.6800 0.6800 0.6800 0.6820
14.668180 0.6820 0.6830 0.6900 0.6910 0.6920
14.702000 0.6980 0.7000 0.7020 0.7020 0.7020
14.735180 0.7030 0.7030 0.7040 0.7060 0.7070
14.768000 0.7100 0.7110 0.7120 0.7120 0.7140
14.801180 0.7150 0.7160 0.7160 0.7160 0.7160
14.834000 0.7160 0.7160 0.7150 0.7140 0.7140
14.867180 0.7140 0.7140 0.7140 0.7140 0.7140
14.901000 0.7140 0.7150 0.7160 0.7200 0.7240
14.934180 0.7310 0.7350 0.7460 0.7570 0.7650
14.967000 0.7740 0.7750 0.7780 0.7790 0.7810
15.000180 0.7790
##END=
