##TITLE=2,4-DINITROSO RESORCINOL MONOHYDRATE
$$ E.K. (W.L.)
##JCAMP-DX=4.24
##DATA TYPE=INFRARED SPECTRUM
##CLASS=COBLENTZ
##ORIGIN=WYANDOTTE CHEMICALS CORP., WYANDOTTE, MICHIGAN, USA
##OWNER=COBLENTZ SOCIETY
Collection (C) 2018 copyright by the U.S. Secretary of Commerce
on behalf of the United States of America. All rights reserved.
##DATE=Not specified, most likely prior to 1970
##NAMES=2,4-dinitroso-1,3-benzenediol hydrate
##MOLFORM=C6 H4 N2 O4  * H2 O
##MP=DECOMPOSES AT 160 C
##SOURCE REFERENCE=COBLENTZ NO. 1421
##$NIST ID=B6001421
##$NIST SOURCE=COBLENTZ
##$NIST IMAGE=cob1421
##SPECTROMETER/DATA SYSTEM=Not specified, most likely a prism, grating, or hybrid spectrometer.
##STATE=SOLID (MINERAL OIL MULL)
##SAMPLING PROCEDURE=TRANSMISSION
##RESOLUTION=4
##DATA PROCESSING=DIGITIZED BY NIST FROM HARD COPY
##XUNITS=MICROMETERS
##YUNITS=TRANSMITTANCE
##XFACTOR=1.000000
##YFACTOR=1
##DELTAX=000.006823
##FIRSTX=2.007
##LASTX=15.9796
##FIRSTY=0.809
##MAXX=15.9796
##MINX=2.007
##MAXY=0.977
##MINY=0.063
##NPOINTS=2049
##XYDATA=(X++(Y..Y))
2.007000 0.8090 0.8130 0.8160 0.8090 0.8130
2.041130 0.8160 0.8180 0.8200 0.8210 0.8210
2.075000 0.8230 0.8230 0.8250 0.8250 0.8250
2.109130 0.8250 0.8230 0.8210 0.8200 0.8200
2.143000 0.8180 0.8180 0.8180 0.8200 0.8230
2.177130 0.8280 0.8300 0.8300 0.8330 0.8350
2.212000 0.8390 0.8390 0.8390 0.8400 0.8400
2.246130 0.8400 0.8400 0.8440 0.8450 0.8450
2.280000 0.8470 0.8510 0.8540 0.8590 0.8660
2.314130 0.8690 0.8730 0.8780 0.8800 0.8800
2.348000 0.8830 0.8850 0.8850 0.8860 0.8860
2.382130 0.8880 0.8880 0.8900 0.8930 0.8950
2.416000 0.8950 0.8980 0.9000 0.9040 0.9040
2.450130 0.9050 0.9050 0.9070 0.9090 0.9100
2.484000 0.9160 0.9220 0.9310 0.9330 0.9330
2.518130 0.9310 0.9280 0.9260 0.9210 0.9190
2.553000 0.9220 0.9410 0.9450 0.9480 0.9520
2.587130 0.9550 0.9550 0.9550 0.9550 0.9550
2.621000 0.9550 0.9530 0.9520 0.9460 0.9400
2.655130 0.9340 0.9280 0.9220 0.9140 0.9000
2.689000 0.8850 0.8630 0.8320 0.8040 0.7750
2.723130 0.6880 0.6360 0.5660 0.5050 0.3730
2.757000 0.3660 0.3660 0.4600 0.5110 0.5630
2.791130 0.6450 0.6880 0.6980 0.6980 0.6880
2.826000 0.6600 0.6400 0.6110 0.5820 0.5440
2.860130 0.5080 0.4260 0.3920 0.3490 0.3450
2.894000 0.3470 0.3710 0.4160 0.4790 0.5050
2.928130 0.5300 0.5650 0.5900 0.6090 0.6250
2.962000 0.6330 0.6420 0.6450 0.6450 0.6330
2.996130 0.6180 0.6020 0.5920 0.5780 0.5460
3.030000 0.5130 0.4360 0.4000 0.3690 0.3390
3.064130 0.3130 0.2990 0.2840 0.2670 0.2510
3.098000 0.2320 0.2320 0.2340 0.2390 0.2480
3.132130 0.2550 0.2600 0.2800 0.3040 0.3230
3.167000 0.3390 0.3510 0.3630 0.3730 0.3800
3.201130 0.3880 0.3950 0.4020 0.4240 0.4430
3.235000 0.4570 0.4580 0.4550 0.4450 0.4360
3.269130 0.4140 0.3850 0.3390 0.2890 0.1910
3.303000 0.1470 0.1070 0.0920 0.0850 0.0780
3.337130 0.0680 0.0660 0.0630 0.0650 0.0850
3.371000 0.0950 0.1160 0.1310 0.1570 0.1600
3.405130 0.1600 0.1540 0.1280 0.1230 0.1210
3.440000 0.1250 0.1480 0.1950 0.2240 0.2510
3.474130 0.2940 0.3180 0.3330 0.3390 0.3470
3.508000 0.3540 0.3610 0.3750 0.3760 0.3730
3.542130 0.3660 0.3560 0.3540 0.3470 0.3450
3.576000 0.3450 0.3470 0.3540 0.3570 0.3610
3.610130 0.3640 0.3680 0.3750 0.3760 0.3780
3.644000 0.3750 0.3660 0.3610 0.3570 0.3560
3.678130 0.3590 0.3630 0.3730 0.3880 0.3970
3.712000 0.4040 0.4120 0.4210 0.4310 0.4430
3.746130 0.4580 0.4670 0.4770 0.4860 0.4960
3.781000 0.5010 0.5050 0.5150 0.5230 0.5290
3.815130 0.5340 0.5350 0.5370 0.5370 0.5390
3.849000 0.5420 0.5510 0.5590 0.5710 0.5820
3.883130 0.5870 0.5940 0.6010 0.6070 0.6140
3.917000 0.6210 0.6300 0.6360 0.6430 0.6500
3.951130 0.6570 0.6620 0.6690 0.6760 0.6830
3.985000 0.6900 0.6950 0.7000 0.7050 0.7120
4.019130 0.7190 0.7260 0.7320 0.7360 0.7380
4.054000 0.7390 0.7430 0.7460 0.7500 0.7510
4.088130 0.7530 0.7560 0.7580 0.7600 0.7610
4.122000 0.7610 0.7630 0.7650 0.7670 0.7680
4.156130 0.7720 0.7730 0.7770 0.7800 0.7800
4.190000 0.7790 0.7750 0.7700 0.7680 0.7680
4.224130 0.7720 0.7800 0.7850 0.7920 0.7960
4.258000 0.8010 0.8060 0.8110 0.8150 0.8210
4.292130 0.8270 0.8330 0.8450 0.8540 0.8560
4.327000 0.8590 0.8630 0.8640 0.8640 0.8660
4.361130 0.8730 0.8780 0.8780 0.8750 0.8730
4.395000 0.8690 0.8640 0.8610 0.8630 0.8680
4.429130 0.8760 0.8810 0.8830 0.8860 0.8900
4.463000 0.8920 0.8900 0.8860 0.8810 0.8800
4.497130 0.8810 0.8810 0.8830 0.8860 0.8900
4.531000 0.8970 0.9050 0.9120 0.9140 0.9190
4.565130 0.9190 0.9190 0.9210 0.9210 0.9210
4.599000 0.9210 0.9190 0.9170 0.9170 0.9170
4.633130 0.9170 0.9190 0.9190 0.9220 0.9240
4.668000 0.9240 0.9240 0.9240 0.9220 0.9210
4.702130 0.9220 0.9280 0.9340 0.9380 0.9400
4.736000 0.9430 0.9430 0.9410 0.9400 0.9400
4.770130 0.9380 0.9380 0.9380 0.9380 0.9380
4.804000 0.9380 0.9360 0.9330 0.9260 0.9220
4.838130 0.9140 0.9100 0.9090 0.9100 0.9160
4.872000 0.9240 0.9310 0.9310 0.9360 0.9400
4.906130 0.9410 0.9410 0.9430 0.9430 0.9450
4.941000 0.9460 0.9460 0.9480 0.9500 0.9530
4.975130 0.9530 0.9520 0.9480 0.9430 0.9410
5.009000 0.9400 0.9400 0.9410 0.9550 0.9600
5.043130 0.9650 0.9650 0.9670 0.9690 0.9690
5.077000 0.9700 0.9700 0.9720 0.9760 0.9770
5.111130 0.9770 0.9770 0.9770 0.9760 0.9760
5.145000 0.9760 0.9740 0.9720 0.9700 0.9650
5.179130 0.9620 0.9580 0.9570 0.9550 0.9550
5.213000 0.9530 0.9570 0.9580 0.9650 0.9690
5.247130 0.9690 0.9690 0.9690 0.9690 0.9690
5.282000 0.9690 0.9690 0.9690 0.9650 0.9620
5.316130 0.9620 0.9600 0.9580 0.9550 0.9550
5.350000 0.9530 0.9500 0.9460 0.9380 0.9330
5.384130 0.9330 0.9330 0.9400 0.9400 0.9400
5.418000 0.9360 0.9260 0.9220 0.9210 0.9210
5.452130 0.9220 0.9400 0.9400 0.9380 0.9280
5.486000 0.9260 0.9220 0.9190 0.9170 0.9140
5.520130 0.9100 0.9090 0.9070 0.9050 0.9020
5.555000 0.9020 0.8980 0.8970 0.8900 0.8880
5.589130 0.8830 0.8780 0.8780 0.8780 0.8800
5.623000 0.8850 0.8850 0.8830 0.8760 0.8760
5.657130 0.8850 0.8830 0.8750 0.8750 0.8760
5.691000 0.8760 0.8760 0.8760 0.8760 0.8810
5.725130 0.8900 0.8930 0.8930 0.8850 0.8680
5.759000 0.8560 0.8470 0.8400 0.8280 0.8080
5.793130 0.7770 0.6620 0.6210 0.5830 0.5340
5.827000 0.4090 0.3950 0.3950 0.4090 0.4770
5.861130 0.4960 0.5150 0.5470 0.5890 0.5970
5.896000 0.5970 0.5890 0.5440 0.4410 0.3760
5.930130 0.3090 0.1740 0.1360 0.1090 0.1070
5.964000 0.1090 0.1110 0.1190 0.1400 0.1760
5.998130 0.2120 0.2340 0.2560 0.3040 0.3490
6.032000 0.3710 0.4090 0.4770 0.5010 0.5250
6.066130 0.5370 0.5410 0.5490 0.5770 0.5940
6.100000 0.6020 0.6090 0.6230 0.6250 0.6250
6.134130 0.6180 0.5900 0.5660 0.5200 0.4220
6.169000 0.3680 0.3660 0.3690 0.4260 0.4770
6.203130 0.5030 0.5270 0.5700 0.6020 0.6180
6.237000 0.6300 0.6430 0.6550 0.6710 0.6840
6.271130 0.6950 0.7030 0.7140 0.7170 0.7190
6.305000 0.7260 0.7270 0.7270 0.7290 0.7320
6.339130 0.7320 0.7260 0.7020 0.6860 0.6660
6.373000 0.6520 0.6380 0.6260 0.6130 0.6010
6.407130 0.5850 0.5610 0.5540 0.5540 0.5590
6.442000 0.5990 0.6260 0.6350 0.6430 0.6540
6.476130 0.6660 0.6720 0.6810 0.6960 0.7190
6.510000 0.7380 0.7380 0.7340 0.7320 0.7260
6.544130 0.7220 0.7200 0.7190 0.7140 0.7030
6.578000 0.6830 0.6520 0.6040 0.5630 0.5320
6.612130 0.4120 0.3900 0.3690 0.3660 0.3640
6.646000 0.3660 0.3900 0.4400 0.4720 0.4910
6.680130 0.5060 0.5200 0.5300 0.5300 0.5290
6.714000 0.5110 0.4640 0.4240 0.4040 0.3950
6.748130 0.3830 0.3690 0.3680 0.3660 0.3660
6.783000 0.3730 0.4020 0.4210 0.4400 0.4520
6.817130 0.4670 0.4860 0.4940 0.5030 0.5220
6.851000 0.5370 0.5470 0.5610 0.5780 0.5900
6.885130 0.6070 0.6310 0.6540 0.6740 0.6830
6.919000 0.6910 0.7020 0.7120 0.7170 0.7200
6.953130 0.7200 0.7170 0.7020 0.6950 0.6910
6.987000 0.6830 0.6670 0.6500 0.6310 0.6090
7.021130 0.5850 0.5610 0.5340 0.5050 0.4380
7.056000 0.4100 0.3970 0.3750 0.3590 0.3510
7.090130 0.3400 0.3280 0.3080 0.2870 0.2700
7.124000 0.2530 0.2100 0.2080 0.2120 0.2320
7.158130 0.2510 0.2890 0.3110 0.3330 0.3800
7.192000 0.3880 0.3930 0.3950 0.3950 0.3970
7.226130 0.4020 0.4160 0.4400 0.4520 0.4640
7.260000 0.4790 0.4930 0.5010 0.5080 0.5250
7.294130 0.5410 0.5560 0.5700 0.5820 0.5890
7.328000 0.5940 0.5990 0.6020 0.6070 0.6160
7.362130 0.6260 0.6400 0.6480 0.6600 0.6710
7.397000 0.6810 0.6900 0.7020 0.7120 0.7240
7.431130 0.7360 0.7440 0.7480 0.7500 0.7500
7.465000 0.7500 0.7500 0.7500 0.7500 0.7500
7.499130 0.7500 0.7430 0.7360 0.7270 0.7200
7.533000 0.7000 0.6810 0.6550 0.6300 0.6190
7.567130 0.6180 0.6190 0.6470 0.6690 0.6910
7.601000 0.7050 0.7100 0.7150 0.7260 0.7320
7.635130 0.7360 0.7390 0.7390 0.7390 0.7410
7.670000 0.7410 0.7380 0.7360 0.7310 0.7290
7.704130 0.7260 0.7200 0.7080 0.7000 0.6910
7.738000 0.6840 0.6740 0.6710 0.6710 0.6720
7.772130 0.6720 0.6740 0.6810 0.6910 0.7030
7.806000 0.7100 0.7170 0.7260 0.7320 0.7380
7.840130 0.7380 0.7440 0.7460 0.7500 0.7510
7.874000 0.7600 0.7610 0.7670 0.7680 0.7700
7.908130 0.7700 0.7700 0.7720 0.7730 0.7750
7.942000 0.7770 0.7790 0.7800 0.7800 0.7800
7.976130 0.7820 0.7820 0.7840 0.7840 0.7850
8.011000 0.7870 0.7870 0.7890 0.7890 0.7890
8.045130 0.7890 0.7890 0.7890 0.7890 0.7890
8.079000 0.7870 0.7870 0.7850 0.7820 0.7800
8.113130 0.7750 0.7700 0.7650 0.7600 0.7530
8.147000 0.7310 0.7150 0.6950 0.6690 0.6350
8.181130 0.6110 0.5870 0.5710 0.5700 0.5710
8.215000 0.5970 0.6400 0.6640 0.6900 0.7100
8.249130 0.7270 0.7380 0.7460 0.7500 0.7530
8.284000 0.7600 0.7650 0.7680 0.7720 0.7750
8.318130 0.7790 0.7800 0.7840 0.7850 0.7870
8.352000 0.7910 0.7920 0.7940 0.7970 0.8010
8.386130 0.8060 0.8110 0.8160 0.8200 0.8210
8.420000 0.8210 0.8210 0.8210 0.8210 0.8210
8.454130 0.8210 0.8210 0.8210 0.8210 0.8210
8.488000 0.8210 0.8210 0.8210 0.8210 0.8210
8.522130 0.8210 0.8210 0.8230 0.8280 0.8280
8.557000 0.8270 0.8270 0.8230 0.8210 0.8200
8.591130 0.8200 0.8180 0.8160 0.8150 0.8130
8.625000 0.8090 0.8060 0.8030 0.7990 0.7940
8.659130 0.7910 0.7840 0.7770 0.7670 0.7530
8.693000 0.7190 0.6960 0.6690 0.6360 0.5950
8.727130 0.5490 0.5050 0.4190 0.3880 0.3640
8.761000 0.3440 0.3420 0.3440 0.3610 0.3860
8.795130 0.4140 0.4500 0.4840 0.5050 0.5230
8.829000 0.5590 0.5990 0.6310 0.6500 0.6640
8.863130 0.6810 0.6950 0.7030 0.7120 0.7190
8.898000 0.7260 0.7320 0.7340 0.7360 0.7360
8.932130 0.7360 0.7340 0.7340 0.7320 0.7270
8.966000 0.7240 0.7080 0.6980 0.6910 0.6830
9.000130 0.6740 0.6670 0.6640 0.6600 0.6590
9.034000 0.6600 0.6670 0.6780 0.6950 0.7100
9.068130 0.7270 0.7410 0.7480 0.7550 0.7650
9.102000 0.7720 0.7800 0.7840 0.7890 0.7910
9.136130 0.7910 0.7910 0.7940 0.8060 0.8160
9.171000 0.8200 0.8200 0.8200 0.8210 0.8210
9.205130 0.8230 0.8230 0.8250 0.8250 0.8270
9.239000 0.8270 0.8280 0.8280 0.8280 0.8300
9.273130 0.8300 0.8320 0.8330 0.8350 0.8370
9.307000 0.8370 0.8390 0.8390 0.8400 0.8420
9.341130 0.8440 0.8440 0.8470 0.8490 0.8490
9.375000 0.8510 0.8510 0.8510 0.8510 0.8470
9.409130 0.8470 0.8440 0.8420 0.8390 0.8330
9.443000 0.8280 0.8250 0.8200 0.8160 0.8110
9.477130 0.8040 0.7960 0.7820 0.7680 0.7530
9.512000 0.7150 0.6930 0.6690 0.6430 0.6140
9.546130 0.5830 0.5510 0.5150 0.4340 0.4020
9.580000 0.3680 0.3440 0.3110 0.2910 0.2870
9.614130 0.2910 0.3040 0.3160 0.3420 0.3660
9.648000 0.3920 0.4290 0.4740 0.5000 0.5250
9.682130 0.5750 0.6230 0.6620 0.6900 0.7020
9.716000 0.7200 0.7360 0.7500 0.7550 0.7600
9.750130 0.7730 0.7840 0.7910 0.7960 0.8030
9.785000 0.8090 0.8180 0.8200 0.8210 0.8230
9.819130 0.8230 0.8250 0.8270 0.8270 0.8270
9.853000 0.8270 0.8250 0.8230 0.8210 0.8210
9.887130 0.8200 0.8180 0.8180 0.8180 0.8180
9.921000 0.8200 0.8210 0.8210 0.8210 0.8230
9.955130 0.8230 0.8230 0.8230 0.8230 0.8230
9.989000 0.8210 0.8210 0.8210 0.8210 0.8200
10.023130 0.8180 0.8150 0.8090 0.8040 0.8010
10.058000 0.7960 0.7920 0.7870 0.7850 0.7820
10.092130 0.7750 0.7680 0.7630 0.7560 0.7380
10.126000 0.7270 0.7150 0.7020 0.6880 0.6740
10.160130 0.6570 0.6400 0.6230 0.6040 0.5830
10.194000 0.5630 0.5420 0.5200 0.4720 0.4480
10.228130 0.4210 0.3900 0.3660 0.3420 0.3160
10.262000 0.2890 0.2650 0.2260 0.2080 0.1910
10.296130 0.1740 0.1550 0.1310 0.1250 0.1160
10.330000 0.1090 0.1010 0.0940 0.0830 0.0750
10.364130 0.0730 0.0730 0.0730 0.0730 0.0750
10.399000 0.0770 0.0780 0.0820 0.0870 0.0900
10.433130 0.0950 0.1020 0.1090 0.1180 0.1300
10.467000 0.1420 0.1550 0.1690 0.1860 0.2050
10.501130 0.2260 0.2460 0.2580 0.2680 0.2910
10.535000 0.3110 0.3320 0.3520 0.3730 0.3900
10.569130 0.4090 0.4260 0.4410 0.4570 0.4700
10.603000 0.4840 0.4960 0.5010 0.5060 0.5170
10.637130 0.5250 0.5300 0.5390 0.5440 0.5510
10.672000 0.5560 0.5630 0.5710 0.5820 0.5830
10.706130 0.5850 0.5870 0.5890 0.5890 0.5890
10.740000 0.5890 0.5890 0.5890 0.5870 0.5870
10.774130 0.5850 0.5850 0.5830 0.5830 0.5820
10.808000 0.5800 0.5770 0.5770 0.5730 0.5700
10.842130 0.5630 0.5580 0.5510 0.5470 0.5440
10.876000 0.5410 0.5390 0.5370 0.5350 0.5340
10.910130 0.5340 0.5340 0.5340 0.5340 0.5350
10.944000 0.5370 0.5370 0.5390 0.5390 0.5440
10.978130 0.5440 0.5440 0.5440 0.5410 0.5410
11.013000 0.5390 0.5390 0.5390 0.5420 0.5420
11.047130 0.5440 0.5460 0.5460 0.5470 0.5490
11.081000 0.5490 0.5510 0.5530 0.5580 0.5650
11.115130 0.5700 0.5730 0.5750 0.5770 0.5800
11.149000 0.5830 0.5890 0.5950 0.5990 0.6010
11.183130 0.6040 0.6090 0.6130 0.6160 0.6180
11.217000 0.6210 0.6260 0.6330 0.6380 0.6430
11.251130 0.6470 0.6500 0.6540 0.6590 0.6640
11.286000 0.6710 0.6760 0.6790 0.6840 0.6880
11.320130 0.6950 0.6980 0.7030 0.7080 0.7140
11.354000 0.7190 0.7220 0.7260 0.7290 0.7320
11.388130 0.7340 0.7380 0.7410 0.7430 0.7440
11.422000 0.7480 0.7500 0.7510 0.7510 0.7550
11.456130 0.7560 0.7580 0.7600 0.7610 0.7630
11.490000 0.7650 0.7670 0.7680 0.7680 0.7700
11.524130 0.7700 0.7700 0.7720 0.7720 0.7720
11.558000 0.7720 0.7720 0.7720 0.7720 0.7700
11.592130 0.7700 0.7700 0.7680 0.7680 0.7680
11.627000 0.7670 0.7650 0.7650 0.7610 0.7610
11.661130 0.7600 0.7580 0.7550 0.7510 0.7430
11.695000 0.7360 0.7310 0.7220 0.7140 0.7030
11.729130 0.6910 0.6780 0.6620 0.6430 0.6230
11.763000 0.6010 0.5750 0.5470 0.5150 0.4670
11.797130 0.4340 0.4020 0.3980 0.3880 0.3860
11.831000 0.3880 0.4050 0.4360 0.4700 0.4880
11.865130 0.5030 0.5230 0.5420 0.5630 0.5780
11.900000 0.5900 0.6020 0.6140 0.6230 0.6280
11.934130 0.6300 0.6350 0.6400 0.6430 0.6470
11.968000 0.6480 0.6500 0.6520 0.6540 0.6550
12.002130 0.6570 0.6590 0.6590 0.6600 0.6620
12.036000 0.6640 0.6640 0.6660 0.6660 0.6670
12.070130 0.6690 0.6710 0.6720 0.6740 0.6780
12.104000 0.6810 0.6840 0.6880 0.6950 0.7020
12.138130 0.7100 0.7190 0.7270 0.7340 0.7440
12.173000 0.7500 0.7530 0.7630 0.7750 0.7850
12.207130 0.7940 0.8040 0.8130 0.8210 0.8270
12.241000 0.8300 0.8320 0.8370 0.8490 0.8510
12.275130 0.8570 0.8630 0.8630 0.8640 0.8660
12.309000 0.8660 0.8660 0.8680 0.8680 0.8690
12.343130 0.8690 0.8690 0.8690 0.8680 0.8660
12.377000 0.8630 0.8590 0.8540 0.8440 0.8250
12.411130 0.8230 0.8160 0.8090 0.7970 0.7870
12.445000 0.7730 0.7610 0.7510 0.7310 0.7150
12.479130 0.6980 0.6840 0.6690 0.6540 0.6400
12.514000 0.6250 0.6110 0.5970 0.5850 0.5730
12.548130 0.5660 0.5540 0.5440 0.5320 0.5230
12.582000 0.5130 0.5060 0.4930 0.4810 0.4790
12.616130 0.4740 0.4670 0.4620 0.4620 0.4600
12.650000 0.4580 0.4580 0.4600 0.4600 0.4620
12.684130 0.4650 0.4770 0.4890 0.5000 0.5060
12.718000 0.5110 0.5250 0.5370 0.5510 0.5630
12.752130 0.5770 0.5920 0.6060 0.6190 0.6280
12.787000 0.6350 0.6450 0.6520 0.6600 0.6670
12.821130 0.6690 0.6740 0.6840 0.6950 0.7030
12.855000 0.7030 0.7050 0.7080 0.7120 0.7170
12.889130 0.7220 0.7270 0.7290 0.7310 0.7340
12.923000 0.7380 0.7430 0.7460 0.7500 0.7510
12.957130 0.7510 0.7500 0.7530 0.7560 0.7580
12.991000 0.7600 0.7610 0.7650 0.7670 0.7680
13.025130 0.7720 0.7730 0.7750 0.7750 0.7770
13.059000 0.7770 0.7790 0.7790 0.7800 0.7800
13.093130 0.7820 0.7840 0.7870 0.7890 0.7920
13.128000 0.7920 0.7940 0.7940 0.7960 0.7970
13.162130 0.7990 0.8030 0.8040 0.8060 0.8060
13.196000 0.8060 0.8060 0.8060 0.8080 0.8060
13.230130 0.8060 0.8090 0.8090 0.8110 0.8130
13.264000 0.8130 0.8130 0.8150 0.8150 0.8150
13.298130 0.8150 0.8160 0.8160 0.8180 0.8180
13.332000 0.8200 0.8200 0.8210 0.8210 0.8230
13.366130 0.8230 0.8250 0.8250 0.8250 0.8210
13.401000 0.8210 0.8210 0.8200 0.8180 0.8180
13.435130 0.8160 0.8150 0.8130 0.8110 0.8090
13.469000 0.8080 0.8080 0.8060 0.8040 0.7990
13.503130 0.7990 0.7910 0.7870 0.7820 0.7790
13.537000 0.7750 0.7700 0.7680 0.7680 0.7680
13.571130 0.7680 0.7700 0.7700 0.7700 0.7720
13.605000 0.7770 0.7800 0.7840 0.7850 0.7870
13.639130 0.7910 0.7940 0.7990 0.8060 0.8090
13.673000 0.8090 0.8110 0.8110 0.8130 0.8130
13.707130 0.8150 0.8150 0.8150 0.8150 0.8130
13.742000 0.8130 0.8110 0.8130 0.8110 0.8110
13.776130 0.8090 0.8080 0.8080 0.8080 0.8080
13.810000 0.8080 0.8080 0.8080 0.8080 0.8060
13.844130 0.8060 0.8030 0.8010 0.8010 0.8010
13.878000 0.8010 0.8030 0.8060 0.8110 0.8130
13.912130 0.8150 0.8180 0.8210 0.8250 0.8280
13.946000 0.8320 0.8320 0.8330 0.8350 0.8390
13.980130 0.8390 0.8400 0.8400 0.8420 0.8440
14.015000 0.8450 0.8470 0.8490 0.8540 0.8590
14.049130 0.8610 0.8610 0.8610 0.8610 0.8590
14.083000 0.8570 0.8540 0.8540 0.8560 0.8570
14.117130 0.8570 0.8570 0.8570 0.8610 0.8630
14.151000 0.8660 0.8640 0.8610 0.8590 0.8570
14.185130 0.8560 0.8520 0.8520 0.8570 0.8640
14.219000 0.8680 0.8680 0.8640 0.8610 0.8560
14.253130 0.8520 0.8520 0.8520 0.8560 0.8570
14.288000 0.8610 0.8610 0.8590 0.8590 0.8570
14.322130 0.8560 0.8520 0.8540 0.8560 0.8540
14.356000 0.8540 0.8520 0.8490 0.8470 0.8450
14.390130 0.8420 0.8420 0.8440 0.8440 0.8440
14.424000 0.8440 0.8420 0.8420 0.8420 0.8370
14.458130 0.8330 0.8300 0.8300 0.8300 0.8330
14.492000 0.8350 0.8350 0.8330 0.8280 0.8250
14.526130 0.8250 0.8230 0.8210 0.8180 0.8160
14.560000 0.8110 0.8090 0.8080 0.8060 0.8060
14.594130 0.8060 0.8040 0.8040 0.8040 0.8030
14.629000 0.7990 0.7960 0.7920 0.7910 0.7890
14.663130 0.7870 0.7850 0.7840 0.7820 0.7790
14.697000 0.7770 0.7730 0.7720 0.7700 0.7670
14.731130 0.7650 0.7630 0.7600 0.7550 0.7460
14.765000 0.7410 0.7380 0.7360 0.7340 0.7320
14.799130 0.7290 0.7240 0.7200 0.7190 0.7170
14.833000 0.7140 0.7120 0.7120 0.7100 0.7080
14.867130 0.7080 0.7050 0.7030 0.7020 0.7000
14.902000 0.6960 0.6960 0.6950 0.6930 0.6910
14.936130 0.6880 0.6860 0.6830 0.6810 0.6760
14.970000 0.6710 0.6640 0.6570 0.6360 0.6310
15.004130 0.6310 0.6260 0.6160 0.6090 0.6070
15.038000 0.6020 0.5950 0.5890 0.5830 0.5750
15.072130 0.5710 0.5660 0.5590 0.5580 0.5580
15.106000 0.5580 0.5590 0.5650 0.5710 0.5710
15.140130 0.5730 0.5730 0.5730 0.5750 0.5770
15.174000 0.5800 0.5830 0.5870 0.5890 0.5900
15.208130 0.5920 0.5940 0.5940 0.5940 0.5940
15.243000 0.5940 0.5940 0.5940 0.5940 0.5940
15.277130 0.5950 0.5950 0.5950 0.5950 0.5970
15.311000 0.5970 0.5970 0.5970 0.5990 0.6010
15.345130 0.6040 0.6060 0.6060 0.6060 0.6070
15.379000 0.6070 0.6090 0.6110 0.6140 0.6180
15.413130 0.6180 0.6190 0.6190 0.6190 0.6210
15.447000 0.6210 0.6210 0.6230 0.6230 0.6230
15.481130 0.6230 0.6250 0.6260 0.6280 0.6300
15.516000 0.6310 0.6330 0.6330 0.6350 0.6350
15.550130 0.6360 0.6380 0.6420 0.6420 0.6420
15.584000 0.6430 0.6430 0.6430 0.6420 0.6360
15.618130 0.6350 0.6350 0.6350 0.6350 0.6350
15.652000 0.6350 0.6350 0.6360 0.6420 0.6420
15.686130 0.6420 0.6400 0.6400 0.6380 0.6380
15.720000 0.6380 0.6360 0.6330 0.6310 0.6310
15.754130 0.6300 0.6280 0.6280 0.6280 0.6280
15.788000 0.6280 0.6280 0.6280 0.6250 0.6210
15.822130 0.6180 0.6160 0.6140 0.6090 0.6070
15.857000 0.6060 0.6060 0.6070 0.6090 0.6110
15.891130 0.6130 0.6110 0.6090 0.6070 0.6040
15.925000 0.6040 0.6020 0.6010 0.5990 0.5970
15.959130 0.5950 0.5920 0.5900 0.5890
##END=
