##TITLE=POTASSIUM PHOSPHATE, MONOBASIC
$$ C.P.
##JCAMP-DX=4.24
##DATA TYPE=INFRARED SPECTRUM
##CLASS=COBLENTZ
##ORIGIN=MELLON INSTITUTE
##OWNER=COBLENTZ SOCIETY
Collection (C) 2018 copyright by the U.S. Secretary of Commerce
on behalf of the United States of America. All rights reserved.
##DATE=Not specified, most likely prior to 1970
##MOLFORM=K H2 P O4
##SOURCE REFERENCE=COBLENTZ NO. 585
##$NIST ID=B6000585
##$NIST SOURCE=COBLENTZ
##$NIST IMAGE=cob585
##SPECTROMETER/DATA SYSTEM=Not specified, most likely a prism, grating, or hybrid spectrometer.
##STATE=SOLID (NUJOL MULL)
##PATH LENGTH=
$$SPECTRAL CONTAMINATION DUE TO OIL AROUND 2900, 1450, 1380 CM^-^1
##SAMPLING PROCEDURE=TRANSMISSION
##RESOLUTION=4
##DATA PROCESSING=DIGITIZED BY NIST FROM HARD COPY
##XUNITS=MICROMETERS
##YUNITS=TRANSMITTANCE
##XFACTOR=1.000000
##YFACTOR=1
##DELTAX=000.006643
##FIRSTX=2.017
##LASTX=15.9859
##FIRSTY=0.934
##MAXX=15.9859
##MINX=2.017
##MAXY=0.939
##MINY=0.379
##NPOINTS=2104
##XYDATA=(X++(Y..Y))
2.017000 0.9340 0.9340 0.9360 0.9360 0.9380
2.050228 0.9390 0.9390 0.9340 0.9310 0.9290
2.083000 0.9290 0.9290 0.9290 0.9290 0.9290
2.116228 0.9310 0.9330 0.9330 0.9330 0.9310
2.150000 0.9280 0.9240 0.9240 0.9230 0.9210
2.183228 0.9190 0.9190 0.9180 0.9160 0.9180
2.216000 0.9180 0.9190 0.9190 0.9210 0.9210
2.249228 0.9210 0.9210 0.9210 0.9210 0.9190
2.283000 0.9180 0.9160 0.9140 0.9130 0.9130
2.316228 0.9110 0.9110 0.9090 0.9090 0.9060
2.349000 0.9040 0.9040 0.9040 0.9030 0.9010
2.382228 0.8990 0.8970 0.8970 0.8970 0.8940
2.415000 0.8940 0.8940 0.8940 0.8940 0.8940
2.448228 0.8940 0.8990 0.8990 0.8970 0.8970
2.482000 0.8960 0.8960 0.8960 0.8970 0.8970
2.515228 0.8990 0.8990 0.8990 0.9010 0.9010
2.548000 0.9030 0.9030 0.9030 0.9030 0.9030
2.581228 0.9030 0.9030 0.9030 0.9010 0.9030
2.615000 0.9040 0.9040 0.9040 0.9060 0.9040
2.648228 0.9040 0.9040 0.9040 0.9040 0.9040
2.681000 0.9060 0.9040 0.9040 0.9040 0.9040
2.714228 0.9030 0.9030 0.8990 0.8970 0.8960
2.748000 0.8960 0.8960 0.8960 0.8970 0.8970
2.781228 0.8970 0.8960 0.8960 0.8960 0.8960
2.814000 0.8940 0.8940 0.8940 0.8940 0.8940
2.847228 0.8920 0.8920 0.8920 0.8920 0.8910
2.880000 0.8910 0.8910 0.8910 0.8910 0.8910
2.913228 0.8910 0.8890 0.8890 0.8870 0.8860
2.947000 0.8840 0.8840 0.8820 0.8820 0.8820
2.980228 0.8820 0.8820 0.8810 0.8810 0.8810
3.013000 0.8810 0.8810 0.8810 0.8810 0.8810
3.046228 0.8810 0.8810 0.8790 0.8770 0.8770
3.080000 0.8760 0.8760 0.8760 0.8740 0.8740
3.113228 0.8740 0.8740 0.8720 0.8720 0.8710
3.146000 0.8710 0.8690 0.8670 0.8670 0.8670
3.179228 0.8660 0.8660 0.8640 0.8620 0.8620
3.213000 0.8620 0.8620 0.8620 0.8620 0.8620
3.246228 0.8610 0.8590 0.8590 0.8570 0.8560
3.279000 0.8540 0.8520 0.8490 0.8410 0.8220
3.312228 0.8120 0.7750 0.7540 0.6720 0.6100
3.345000 0.5560 0.4980 0.4780 0.4540 0.4160
3.378228 0.3860 0.3810 0.3790 0.3790 0.3820
3.412000 0.3870 0.4310 0.4530 0.4660 0.4690
3.445228 0.4690 0.4680 0.4640 0.4610 0.4580
3.478000 0.4560 0.4580 0.4790 0.5830 0.5980
3.511228 0.6530 0.6700 0.6780 0.6900 0.6980
3.545000 0.7020 0.7090 0.7100 0.7120 0.7140
3.578228 0.7150 0.7190 0.7220 0.7240 0.7250
3.611000 0.7290 0.7290 0.7300 0.7320 0.7340
3.644228 0.7340 0.7350 0.7370 0.7370 0.7390
3.678000 0.7390 0.7390 0.7390 0.7390 0.7400
3.711228 0.7400 0.7400 0.7400 0.7400 0.7400
3.744000 0.7390 0.7390 0.7390 0.7390 0.7400
3.777228 0.7490 0.7550 0.7590 0.7600 0.7620
3.810000 0.7620 0.7640 0.7650 0.7650 0.7700
3.843228 0.7720 0.7720 0.7700 0.7700 0.7690
3.877000 0.7650 0.7640 0.7620 0.7620 0.7600
3.910228 0.7590 0.7540 0.7520 0.7440 0.7400
3.943000 0.7350 0.7340 0.7340 0.7350 0.7390
3.976228 0.7390 0.7370 0.7350 0.7350 0.7340
4.010000 0.7340 0.7320 0.7320 0.7320 0.7300
4.043228 0.7290 0.7270 0.7270 0.7250 0.7250
4.076000 0.7250 0.7240 0.7220 0.7200 0.7190
4.109228 0.7150 0.7120 0.7100 0.7090 0.7040
4.143000 0.7020 0.7000 0.6980 0.6970 0.6930
4.176228 0.6920 0.6920 0.6900 0.6870 0.6850
4.209000 0.6850 0.6850 0.6870 0.6870 0.6880
4.242228 0.6880 0.6900 0.6920 0.6920 0.6900
4.275000 0.6880 0.6870 0.6850 0.6830 0.6830
4.308228 0.6830 0.6820 0.6820 0.6800 0.6800
4.342000 0.6800 0.6820 0.6850 0.6870 0.6880
4.375228 0.6880 0.6880 0.6900 0.6920 0.6980
4.408000 0.7020 0.7040 0.7040 0.7020 0.7040
4.441228 0.7090 0.7090 0.7090 0.7100 0.7100
4.475000 0.7100 0.7140 0.7170 0.7190 0.7190
4.508228 0.7190 0.7190 0.7190 0.7190 0.7190
4.541000 0.7170 0.7170 0.7150 0.7150 0.7170
4.574228 0.7190 0.7200 0.7220 0.7240 0.7290
4.607000 0.7300 0.7300 0.7300 0.7300 0.7320
4.640228 0.7320 0.7340 0.7340 0.7340 0.7340
4.674000 0.7340 0.7350 0.7390 0.7400 0.7400
4.707228 0.7420 0.7420 0.7420 0.7420 0.7420
4.740000 0.7420 0.7420 0.7400 0.7400 0.7400
4.773228 0.7400 0.7420 0.7420 0.7450 0.7470
4.807000 0.7490 0.7500 0.7520 0.7540 0.7540
4.840228 0.7540 0.7540 0.7540 0.7550 0.7550
4.873000 0.7550 0.7590 0.7590 0.7600 0.7600
4.906228 0.7620 0.7620 0.7620 0.7620 0.7620
4.940000 0.7620 0.7600 0.7590 0.7550 0.7540
4.973228 0.7540 0.7540 0.7520 0.7520 0.7520
5.006000 0.7520 0.7520 0.7520 0.7540 0.7540
5.039228 0.7550 0.7570 0.7590 0.7590 0.7590
5.072000 0.7600 0.7600 0.7600 0.7600 0.7600
5.105228 0.7600 0.7600 0.7600 0.7590 0.7590
5.139000 0.7570 0.7550 0.7540 0.7540 0.7520
5.172228 0.7500 0.7490 0.7450 0.7440 0.7440
5.205000 0.7420 0.7440 0.7440 0.7440 0.7450
5.238228 0.7450 0.7470 0.7450 0.7450 0.7420
5.272000 0.7400 0.7390 0.7350 0.7340 0.7350
5.305228 0.7350 0.7370 0.7370 0.7370 0.7370
5.338000 0.7350 0.7340 0.7320 0.7300 0.7290
5.371228 0.7290 0.7270 0.7270 0.7270 0.7250
5.405000 0.7250 0.7240 0.7240 0.7220 0.7200
5.438228 0.7170 0.7150 0.7140 0.7100 0.7090
5.471000 0.7090 0.7050 0.7040 0.7020 0.7000
5.504228 0.6980 0.6950 0.6880 0.6880 0.6870
5.537000 0.6870 0.6870 0.6830 0.6780 0.6750
5.570228 0.6750 0.6750 0.6750 0.6750 0.6730
5.604000 0.6730 0.6720 0.6720 0.6720 0.6700
5.637228 0.6680 0.6670 0.6630 0.6620 0.6600
5.670000 0.6570 0.6550 0.6530 0.6530 0.6520
5.703228 0.6500 0.6500 0.6500 0.6480 0.6470
5.737000 0.6470 0.6470 0.6450 0.6430 0.6420
5.770228 0.6400 0.6380 0.6350 0.6330 0.6280
5.803000 0.6270 0.6250 0.6230 0.6230 0.6230
5.836228 0.6230 0.6250 0.6270 0.6250 0.6250
5.870000 0.6250 0.6230 0.6220 0.6220 0.6200
5.903228 0.6180 0.6180 0.6180 0.6150 0.6150
5.936000 0.6130 0.6130 0.6120 0.6120 0.6100
5.969228 0.6100 0.6080 0.6080 0.6070 0.6070
6.002000 0.6050 0.6050 0.6050 0.6050 0.6050
6.035228 0.6050 0.6050 0.6050 0.6050 0.6050
6.069000 0.6050 0.6050 0.6030 0.6050 0.6050
6.102228 0.6050 0.6050 0.6070 0.6070 0.6070
6.135000 0.6070 0.6070 0.6070 0.6080 0.6100
6.168228 0.6100 0.6100 0.6120 0.6120 0.6130
6.202000 0.6130 0.6150 0.6170 0.6180 0.6220
6.235228 0.6230 0.6250 0.6270 0.6280 0.6320
6.268000 0.6320 0.6330 0.6330 0.6330 0.6350
6.301228 0.6350 0.6350 0.6350 0.6350 0.6350
6.335000 0.6350 0.6370 0.6370 0.6370 0.6370
6.368228 0.6370 0.6370 0.6370 0.6370 0.6370
6.401000 0.6380 0.6400 0.6450 0.6470 0.6470
6.434228 0.6470 0.6470 0.6470 0.6500 0.6530
6.467000 0.6550 0.6550 0.6530 0.6520 0.6500
6.500228 0.6480 0.6500 0.6500 0.6520 0.6530
6.534000 0.6550 0.6550 0.6550 0.6550 0.6570
6.567228 0.6580 0.6600 0.6580 0.6580 0.6570
6.600000 0.6570 0.6570 0.6570 0.6570 0.6600
6.633228 0.6620 0.6630 0.6650 0.6650 0.6650
6.667000 0.6650 0.6670 0.6670 0.6680 0.6680
6.700228 0.6680 0.6680 0.6680 0.6650 0.6630
6.733000 0.6580 0.6530 0.6530 0.6500 0.6480
6.766228 0.6430 0.6400 0.6380 0.6330 0.6270
6.800000 0.6180 0.6100 0.6080 0.6070 0.6050
6.833228 0.6050 0.6050 0.6070 0.6080 0.6080
6.866000 0.6100 0.6120 0.6150 0.6250 0.6330
6.899228 0.6420 0.6480 0.6580 0.6620 0.6670
6.932000 0.6720 0.6750 0.6820 0.6920 0.6980
6.965228 0.7040 0.7070 0.7100 0.7150 0.7190
6.999000 0.7220 0.7250 0.7320 0.7320 0.7350
7.032228 0.7370 0.7390 0.7420 0.7490 0.7520
7.065000 0.7590 0.7620 0.7670 0.7720 0.7750
7.098228 0.7770 0.7770 0.7790 0.7790 0.7790
7.132000 0.7790 0.7770 0.7770 0.7750 0.7700
7.165228 0.7650 0.7620 0.7600 0.7570 0.7540
7.198000 0.7490 0.7450 0.7420 0.7420 0.7400
7.231228 0.7400 0.7400 0.7420 0.7440 0.7450
7.264000 0.7490 0.7520 0.7540 0.7590 0.7600
7.297228 0.7620 0.7640 0.7640 0.7640 0.7640
7.331000 0.7640 0.7640 0.7620 0.7590 0.7540
7.364228 0.7490 0.7470 0.7450 0.7420 0.7340
7.397000 0.7300 0.7270 0.7200 0.7170 0.7140
7.430228 0.7100 0.7050 0.7020 0.7000 0.6930
7.464000 0.6900 0.6820 0.6720 0.6600 0.6430
7.497228 0.6370 0.6280 0.6230 0.6170 0.6070
7.530000 0.6020 0.5980 0.5880 0.5810 0.5710
7.563228 0.5680 0.5630 0.5600 0.5580 0.5530
7.597000 0.5450 0.5380 0.5330 0.5310 0.5300
7.630228 0.5280 0.5280 0.5260 0.5250 0.5250
7.663000 0.5230 0.5200 0.5180 0.5150 0.5130
7.696228 0.5110 0.5110 0.5110 0.5110 0.5110
7.729000 0.5110 0.5110 0.5110 0.5110 0.5130
7.762228 0.5150 0.5150 0.5210 0.5260 0.5300
7.796000 0.5310 0.5380 0.5400 0.5410 0.5430
7.829228 0.5460 0.5500 0.5510 0.5550 0.5580
7.862000 0.5600 0.5610 0.5650 0.5680 0.5710
7.895228 0.5750 0.5780 0.5800 0.5810 0.5850
7.929000 0.5880 0.5910 0.5950 0.5980 0.6000
7.962228 0.6020 0.6050 0.6080 0.6120 0.6130
7.995000 0.6200 0.6270 0.6330 0.6380 0.6450
8.028228 0.6480 0.6520 0.6550 0.6570 0.6620
8.062000 0.6680 0.6700 0.6730 0.6750 0.6800
8.095228 0.6830 0.6850 0.6870 0.6900 0.6920
8.128000 0.6930 0.6950 0.6970 0.7000 0.7020
8.161228 0.7020 0.7040 0.7050 0.7050 0.7070
8.194000 0.7070 0.7100 0.7100 0.7120 0.7140
8.227228 0.7170 0.7200 0.7200 0.7220 0.7220
8.261000 0.7240 0.7250 0.7290 0.7300 0.7320
8.294228 0.7340 0.7340 0.7340 0.7350 0.7350
8.327000 0.7350 0.7350 0.7350 0.7350 0.7350
8.360228 0.7350 0.7350 0.7350 0.7350 0.7350
8.394000 0.7350 0.7350 0.7350 0.7350 0.7350
8.427228 0.7350 0.7350 0.7350 0.7340 0.7340
8.460000 0.7320 0.7270 0.7250 0.7240 0.7200
8.493228 0.7170 0.7120 0.7090 0.7050 0.7040
8.527000 0.7040 0.7020 0.7000 0.6980 0.6970
8.560228 0.6950 0.6950 0.6900 0.6850 0.6820
8.593000 0.6780 0.6770 0.6730 0.6700 0.6670
8.626228 0.6630 0.6600 0.6550 0.6520 0.6480
8.659000 0.6470 0.6450 0.6430 0.6420 0.6400
8.692228 0.6370 0.6350 0.6330 0.6300 0.6280
8.726000 0.6230 0.6180 0.6150 0.6050 0.6000
8.759228 0.5980 0.5950 0.5930 0.5910 0.5900
8.792000 0.5880 0.5860 0.5810 0.5780 0.5750
8.825228 0.5710 0.5700 0.5660 0.5630 0.5610
8.859000 0.5580 0.5530 0.5500 0.5460 0.5450
8.892228 0.5410 0.5400 0.5360 0.5350 0.5330
8.925000 0.5310 0.5280 0.5280 0.5250 0.5250
8.958228 0.5230 0.5210 0.5210 0.5200 0.5200
8.992000 0.5180 0.5180 0.5160 0.5160 0.5150
9.025228 0.5150 0.5130 0.5110 0.5100 0.5100
9.058000 0.5100 0.5080 0.5080 0.5080 0.5080
9.091228 0.5080 0.5080 0.5060 0.5060 0.5060
9.124000 0.5050 0.5050 0.5050 0.5050 0.5030
9.157228 0.5030 0.5030 0.5030 0.5030 0.5010
9.191000 0.5010 0.5010 0.5010 0.5010 0.5010
9.224228 0.5030 0.5030 0.5030 0.5030 0.5050
9.257000 0.5080 0.5080 0.5100 0.5100 0.5110
9.290228 0.5130 0.5150 0.5150 0.5160 0.5180
9.324000 0.5180 0.5210 0.5210 0.5230 0.5230
9.357228 0.5250 0.5260 0.5300 0.5330 0.5330
9.390000 0.5350 0.5360 0.5360 0.5380 0.5380
9.423228 0.5410 0.5430 0.5460 0.5480 0.5480
9.457000 0.5500 0.5510 0.5510 0.5530 0.5530
9.490228 0.5550 0.5550 0.5560 0.5560 0.5580
9.523000 0.5600 0.5600 0.5600 0.5610 0.5610
9.556228 0.5610 0.5630 0.5630 0.5650 0.5650
9.589000 0.5660 0.5660 0.5680 0.5680 0.5680
9.622228 0.5680 0.5700 0.5700 0.5700 0.5700
9.656000 0.5710 0.5710 0.5710 0.5730 0.5750
9.689228 0.5750 0.5760 0.5760 0.5780 0.5780
9.722000 0.5780 0.5810 0.5830 0.5830 0.5850
9.755228 0.5860 0.5860 0.5860 0.5860 0.5880
9.789000 0.5860 0.5880 0.5880 0.5910 0.5930
9.822228 0.5930 0.5930 0.5950 0.5950 0.5950
9.855000 0.5960 0.5980 0.6000 0.6000 0.6000
9.888228 0.6020 0.6020 0.6030 0.6050 0.6050
9.921000 0.6070 0.6070 0.6070 0.6070 0.6080
9.954228 0.6080 0.6080 0.6080 0.6120 0.6120
9.988000 0.6120 0.6120 0.6120 0.6120 0.6100
10.021228 0.6100 0.6100 0.6100 0.6100 0.6100
10.054000 0.6120 0.6120 0.6120 0.6130 0.6130
10.087228 0.6130 0.6150 0.6150 0.6150 0.6150
10.121000 0.6170 0.6170 0.6170 0.6170 0.6180
10.154228 0.6180 0.6180 0.6180 0.6180 0.6180
10.187000 0.6180 0.6180 0.6180 0.6180 0.6180
10.220228 0.6180 0.6180 0.6180 0.6200 0.6200
10.254000 0.6200 0.6200 0.6200 0.6200 0.6200
10.287228 0.6200 0.6180 0.6180 0.6180 0.6180
10.320000 0.6170 0.6150 0.6130 0.6130 0.6130
10.353228 0.6120 0.6120 0.6120 0.6100 0.6100
10.386000 0.6080 0.6080 0.6070 0.6070 0.6050
10.419228 0.6050 0.6050 0.6030 0.6030 0.6030
10.453000 0.6020 0.6000 0.5980 0.5980 0.5980
10.486228 0.5980 0.5960 0.5960 0.5950 0.5950
10.519000 0.5930 0.5930 0.5910 0.5910 0.5910
10.552228 0.5910 0.5900 0.5900 0.5880 0.5860
10.586000 0.5860 0.5830 0.5830 0.5810 0.5800
10.619228 0.5800 0.5800 0.5780 0.5780 0.5760
10.652000 0.5760 0.5750 0.5750 0.5730 0.5730
10.685228 0.5730 0.5730 0.5730 0.5730 0.5730
10.719000 0.5730 0.5730 0.5710 0.5710 0.5710
10.752228 0.5700 0.5700 0.5700 0.5700 0.5700
10.785000 0.5700 0.5680 0.5680 0.5680 0.5680
10.818228 0.5680 0.5680 0.5680 0.5680 0.5660
10.851000 0.5660 0.5660 0.5650 0.5650 0.5630
10.884228 0.5630 0.5630 0.5630 0.5610 0.5610
10.918000 0.5610 0.5610 0.5600 0.5600 0.5600
10.951228 0.5600 0.5600 0.5600 0.5600 0.5580
10.984000 0.5580 0.5580 0.5580 0.5580 0.5560
11.017228 0.5560 0.5560 0.5560 0.5550 0.5550
11.051000 0.5550 0.5550 0.5530 0.5530 0.5530
11.084228 0.5530 0.5530 0.5530 0.5530 0.5530
11.117000 0.5530 0.5530 0.5550 0.5550 0.5550
11.150228 0.5550 0.5550 0.5550 0.5550 0.5550
11.184000 0.5550 0.5550 0.5550 0.5550 0.5560
11.217228 0.5560 0.5560 0.5560 0.5560 0.5560
11.250000 0.5560 0.5560 0.5560 0.5560 0.5560
11.283228 0.5580 0.5580 0.5600 0.5610 0.5610
11.316000 0.5610 0.5630 0.5630 0.5630 0.5630
11.349228 0.5630 0.5650 0.5650 0.5660 0.5660
11.383000 0.5680 0.5680 0.5680 0.5700 0.5710
11.416228 0.5710 0.5730 0.5730 0.5750 0.5750
11.449000 0.5760 0.5780 0.5800 0.5800 0.5810
11.482228 0.5810 0.5810 0.5830 0.5830 0.5850
11.516000 0.5850 0.5850 0.5860 0.5860 0.5860
11.549228 0.5880 0.5880 0.5880 0.5880 0.5910
11.582000 0.5930 0.5950 0.5950 0.5960 0.5960
11.615228 0.6000 0.6000 0.6000 0.6020 0.6030
11.649000 0.6030 0.6030 0.6030 0.6050 0.6050
11.682228 0.6050 0.6070 0.6070 0.6070 0.6080
11.715000 0.6080 0.6100 0.6100 0.6120 0.6120
11.748228 0.6120 0.6130 0.6150 0.6150 0.6150
11.781000 0.6170 0.6150 0.6170 0.6170 0.6180
11.814228 0.6180 0.6200 0.6220 0.6230 0.6230
11.848000 0.6250 0.6250 0.6270 0.6280 0.6300
11.881228 0.6320 0.6320 0.6330 0.6330 0.6350
11.914000 0.6350 0.6370 0.6380 0.6400 0.6400
11.947228 0.6420 0.6420 0.6430 0.6430 0.6430
11.981000 0.6450 0.6450 0.6480 0.6500 0.6520
12.014228 0.6520 0.6520 0.6550 0.6550 0.6580
12.047000 0.6600 0.6600 0.6620 0.6630 0.6650
12.080228 0.6650 0.6680 0.6680 0.6700 0.6720
12.114000 0.6730 0.6750 0.6780 0.6800 0.6820
12.147228 0.6830 0.6850 0.6850 0.6870 0.6880
12.180000 0.6880 0.6900 0.6900 0.6900 0.6920
12.213228 0.6920 0.6920 0.6930 0.6950 0.6950
12.246000 0.6950 0.6980 0.6980 0.6980 0.7000
12.279228 0.7000 0.7020 0.7020 0.7020 0.7020
12.313000 0.7040 0.7040 0.7040 0.7050 0.7050
12.346228 0.7090 0.7100 0.7100 0.7120 0.7140
12.379000 0.7140 0.7140 0.7150 0.7140 0.7150
12.412228 0.7150 0.7170 0.7190 0.7190 0.7190
12.446000 0.7190 0.7200 0.7200 0.7200 0.7220
12.479228 0.7220 0.7240 0.7240 0.7240 0.7240
12.512000 0.7240 0.7240 0.7250 0.7270 0.7290
12.545228 0.7290 0.7290 0.7300 0.7300 0.7320
12.579000 0.7320 0.7340 0.7340 0.7350 0.7340
12.612228 0.7350 0.7350 0.7370 0.7390 0.7390
12.645000 0.7390 0.7390 0.7400 0.7400 0.7400
12.678228 0.7420 0.7440 0.7450 0.7470 0.7490
12.711000 0.7490 0.7500 0.7500 0.7520 0.7520
12.744228 0.7540 0.7540 0.7540 0.7550 0.7550
12.778000 0.7550 0.7570 0.7550 0.7570 0.7590
12.811228 0.7600 0.7600 0.7600 0.7600 0.7620
12.844000 0.7620 0.7640 0.7640 0.7650 0.7650
12.877228 0.7650 0.7650 0.7670 0.7670 0.7670
12.911000 0.7670 0.7690 0.7690 0.7690 0.7700
12.944228 0.7700 0.7700 0.7700 0.7700 0.7720
12.977000 0.7720 0.7740 0.7740 0.7740 0.7740
13.010228 0.7750 0.7770 0.7770 0.7770 0.7790
13.043000 0.7790 0.7800 0.7800 0.7800 0.7800
13.076228 0.7800 0.7820 0.7820 0.7820 0.7820
13.110000 0.7840 0.7840 0.7840 0.7840 0.7840
13.143228 0.7850 0.7850 0.7850 0.7870 0.7870
13.176000 0.7870 0.7870 0.7890 0.7890 0.7890
13.209228 0.7890 0.7900 0.7900 0.7900 0.7900
13.243000 0.7920 0.7920 0.7920 0.7920 0.7940
13.276228 0.7940 0.7940 0.7940 0.7950 0.7950
13.309000 0.7950 0.7950 0.7950 0.7970 0.7970
13.342228 0.7970 0.7970 0.7970 0.7990 0.7990
13.376000 0.7990 0.7990 0.7990 0.7990 0.7990
13.409228 0.7990 0.7990 0.7990 0.7990 0.7990
13.442000 0.7990 0.7990 0.7990 0.7990 0.7990
13.475228 0.7990 0.7990 0.7990 0.7990 0.7990
13.508000 0.7990 0.7990 0.7990 0.7990 0.7990
13.541228 0.7990 0.7990 0.7990 0.7990 0.7990
13.575000 0.7990 0.7990 0.7990 0.7990 0.7990
13.608228 0.7990 0.7990 0.7990 0.7990 0.7990
13.641000 0.7990 0.7990 0.7990 0.7990 0.7990
13.674228 0.7990 0.7990 0.7990 0.7990 0.7990
13.708000 0.7990 0.7990 0.7990 0.7990 0.7990
13.741228 0.7990 0.7990 0.7990 0.7990 0.7990
13.774000 0.7990 0.7990 0.7990 0.7990 0.7990
13.807228 0.7990 0.7990 0.7990 0.7990 0.7990
13.841000 0.7990 0.7990 0.7990 0.7990 0.7990
13.874228 0.7990 0.7990 0.7990 0.7990 0.7990
13.907000 0.7990 0.7990 0.7990 0.7990 0.7990
13.940228 0.7990 0.7990 0.7990 0.8010 0.8010
13.973000 0.8010 0.8010 0.8010 0.7990 0.7990
14.006228 0.7990 0.8010 0.8010 0.8010 0.8010
14.040000 0.8010 0.8010 0.8010 0.8010 0.8010
14.073228 0.8010 0.8010 0.8010 0.8010 0.8010
14.106000 0.8010 0.8010 0.8010 0.8010 0.8010
14.139228 0.8010 0.8010 0.8010 0.8010 0.8010
14.173000 0.8010 0.7990 0.7990 0.7990 0.7990
14.206228 0.7990 0.7990 0.7990 0.7990 0.7990
14.239000 0.7990 0.7990 0.7990 0.7970 0.7970
14.272228 0.7970 0.7970 0.7970 0.7970 0.7970
14.306000 0.7970 0.7970 0.7970 0.7970 0.7970
14.339228 0.7970 0.7970 0.7970 0.7970 0.7970
14.372000 0.7970 0.7970 0.7970 0.7970 0.7970
14.405228 0.7970 0.7950 0.7950 0.7950 0.7950
14.438000 0.7940 0.7940 0.7940 0.7920 0.7920
14.471228 0.7900 0.7890 0.7890 0.7900 0.7900
14.505000 0.7900 0.7900 0.7900 0.7900 0.7900
14.538228 0.7900 0.7900 0.7900 0.7890 0.7890
14.571000 0.7870 0.7850 0.7850 0.7840 0.7840
14.604228 0.7840 0.7840 0.7840 0.7820 0.7820
14.638000 0.7820 0.7820 0.7800 0.7800 0.7800
14.671228 0.7800 0.7800 0.7800 0.7800 0.7800
14.704000 0.7800 0.7790 0.7790 0.7790 0.7790
14.737228 0.7790 0.7790 0.7770 0.7750 0.7750
14.771000 0.7750 0.7750 0.7750 0.7750 0.7770
14.804228 0.7770 0.7790 0.7790 0.7790 0.7790
14.837000 0.7790 0.7790 0.7790 0.7770 0.7770
14.870228 0.7750 0.7750 0.7740 0.7750 0.7740
14.903000 0.7740 0.7740 0.7720 0.7700 0.7690
14.936228 0.7690 0.7670 0.7640 0.7640 0.7640
14.970000 0.7640 0.7650 0.7670 0.7670 0.7670
15.003228 0.7690 0.7670 0.7670 0.7650 0.7650
15.036000 0.7640 0.7640 0.7620 0.7640 0.7640
15.069228 0.7640 0.7640 0.7620 0.7620 0.7620
15.103000 0.7640 0.7620 0.7620 0.7640 0.7620
15.136228 0.7600 0.7600 0.7570 0.7520 0.7520
15.169000 0.7520 0.7520 0.7540 0.7540 0.7540
15.202228 0.7540 0.7540 0.7540 0.7540 0.7520
15.236000 0.7520 0.7500 0.7500 0.7500 0.7500
15.269228 0.7500 0.7500 0.7500 0.7500 0.7520
15.302000 0.7520 0.7540 0.7540 0.7540 0.7540
15.335228 0.7540 0.7540 0.7540 0.7540 0.7540
15.368000 0.7550 0.7570 0.7590 0.7590 0.7590
15.401228 0.7590 0.7590 0.7590 0.7590 0.7590
15.435000 0.7590 0.7600 0.7600 0.7600 0.7590
15.468228 0.7590 0.7590 0.7590 0.7590 0.7590
15.501000 0.7590 0.7590 0.7590 0.7590 0.7590
15.534228 0.7590 0.7590 0.7590 0.7590 0.7590
15.568000 0.7590 0.7590 0.7590 0.7590 0.7590
15.601228 0.7590 0.7590 0.7590 0.7590 0.7600
15.634000 0.7600 0.7590 0.7590 0.7590 0.7590
15.667228 0.7590 0.7590 0.7590 0.7590 0.7590
15.700000 0.7600 0.7600 0.7600 0.7600 0.7600
15.733228 0.7600 0.7620 0.7620 0.7620 0.7620
15.767000 0.7620 0.7620 0.7640 0.7620 0.7620
15.800228 0.7620 0.7600 0.7620 0.7640 0.7640
15.833000 0.7640 0.7620 0.7620 0.7620 0.7620
15.866228 0.7620 0.7620 0.7620 0.7640 0.7640
15.900000 0.7640 0.7640 0.7650 0.7650 0.7650
15.933228 0.7650 0.7670 0.7670 0.7670 0.7670
15.966000 0.7670 0.7690 0.7690 0.7690
##END=
