##TITLE=CHROME YELLOW (MEDIUM)
##JCAMP-DX=4.24
##DATA TYPE=INFRARED SPECTRUM
##CLASS=COBLENTZ
##ORIGIN=DESOTO CHEMICAL COATINGS, INC.
##OWNER=COBLENTZ SOCIETY
Collection (C) 2018 copyright by the U.S. Secretary of Commerce
on behalf of the United States of America. All rights reserved.
##DATE=Not specified, most likely prior to 1970
##NAMES=LEAD CHROMATE
##MOLFORM=Pb Cr O4
##SOURCE REFERENCE=COBLENTZ NO. 4686
##$NIST ID=B6004686
##$NIST SOURCE=COBLENTZ
##$NIST IMAGE=cob4686
##SPECTROMETER/DATA SYSTEM=Not specified, most likely a grating spectrometer.
##STATE=SOLID (0.8 mg / 300 mg CsI PELLET)
##SAMPLING PROCEDURE=TRANSMISSION
##RESOLUTION=4
##DATA PROCESSING=DIGITIZED BY NIST FROM HARD COPY (FROM TWO SEGMENTS)
##XUNITS=1/CM
##YUNITS=TRANSMITTANCE
##XFACTOR=1.000000
##YFACTOR=1
##DELTAX=1.330381
##FIRSTX=196.009
##LASTX=3983.6
##FIRSTY=0.747
##MAXX=3983.6
##MINX=196.009
##MAXY=0.984
##MINY=0.187
##NPOINTS=2848
##XYDATA=(X++(Y..Y))
196.009000 0.7470 0.7450 0.7470 0.7450 0.7440
202.660907 0.7440 0.7430 0.7410 0.7400 0.7400
209.312814 0.7410 0.7430 0.7440 0.7470 0.7470
215.964721 0.7480 0.7480 0.7490 0.7490 0.7490
222.616628 0.7500 0.7500 0.7520 0.7520 0.7530
229.268535 0.7530 0.7530 0.7540 0.7540 0.7560
235.920441 0.7560 0.7570 0.7570 0.7580 0.7610
242.572348 0.7620 0.7620 0.7620 0.7620 0.7620
249.224255 0.7620 0.7620 0.7640 0.7650 0.7650
255.876162 0.7640 0.7640 0.7640 0.7660 0.7680
262.528069 0.7680 0.7680 0.7680 0.7690 0.7690
269.179976 0.7700 0.7700 0.7700 0.7700 0.7690
275.831883 0.7680 0.7660 0.7650 0.7650 0.7660
282.483790 0.7660 0.7660 0.7680 0.7680 0.7680
289.135697 0.7680 0.7690 0.7680 0.7680 0.7680
295.787604 0.7680 0.7680 0.7660 0.7650 0.7640
302.439510 0.7610 0.7600 0.7580 0.7580 0.7580
309.091417 0.7570 0.7570 0.7570 0.7560 0.7560
315.743324 0.7560 0.7560 0.7560 0.7540 0.7540
322.395231 0.7530 0.7530 0.7520 0.7520 0.7520
329.047138 0.7500 0.7500 0.7500 0.7500 0.7500
335.699045 0.7490 0.7480 0.7480 0.7450 0.7430
342.350952 0.7410 0.7410 0.7400 0.7390 0.7370
349.002859 0.7370 0.7360 0.7360 0.7360 0.7360
355.654766 0.7360 0.7350 0.7350 0.7350 0.7330
362.306673 0.7330 0.7320 0.7310 0.7310 0.7290
368.958580 0.7280 0.7270 0.7240 0.7210 0.7190
375.610486 0.7170 0.7120 0.7110 0.7090 0.7090
382.262393 0.7080 0.7080 0.7070 0.7050 0.7030
388.914300 0.7010 0.6990 0.6990 0.6970 0.6970
395.566207 0.6960 0.6950 0.6950 0.6950 0.6960
402.218114 0.6970 0.7000 0.7010 0.7030 0.7040
408.870021 0.7050 0.7070 0.7070 0.7080 0.7110
415.521928 0.7120 0.7130 0.7150 0.7150 0.7150
422.173835 0.7160 0.7160 0.7190 0.7210 0.7270
428.825742 0.7290 0.7370 0.7410 0.7480 0.7480
435.477649 0.7500 0.7530 0.7570 0.7610 0.7690
442.129555 0.7740 0.7770 0.7780 0.7820 0.7860
448.781462 0.7890 0.7960 0.7980 0.8000 0.8000
455.433369 0.8050 0.8090 0.8100 0.8130 0.8170
462.085276 0.8200 0.8210 0.8250 0.8300 0.8330
468.737183 0.8340 0.8370 0.8400 0.8410 0.8450
475.389090 0.8480 0.8500 0.8520 0.8530 0.8560
482.040997 0.8570 0.8570 0.8580 0.8600 0.8610
488.692904 0.8620 0.8620 0.8640 0.8650 0.8660
495.344811 0.8660 0.8660 0.8660 0.8680 0.8680
501.996718 0.8690 0.8690 0.8690 0.8690 0.8690
508.648625 0.8700 0.8720 0.8740 0.8740 0.8780
515.300531 0.8800 0.8800 0.8800 0.8800 0.8800
521.952438 0.8810 0.8800 0.8810 0.8810 0.8820
528.604345 0.8820 0.8840 0.8840 0.8840 0.8850
535.256252 0.8850 0.8850 0.8850 0.8860 0.8880
541.908159 0.8880 0.8880 0.8880 0.8890 0.8900
548.560066 0.8920 0.8920 0.8940 0.8960 0.8970
555.211973 0.8970 0.8980 0.8980 0.8970 0.8970
561.863880 0.8940 0.8970 0.8980 0.8970 0.8960
568.515787 0.8980 0.8980 0.8980 0.8980 0.8970
575.167694 0.8980 0.8980 0.9000 0.9000 0.9010
581.819600 0.9010 0.9040 0.9050 0.9050 0.9050
588.471507 0.9050 0.9050 0.9050 0.9060 0.9060
595.123414 0.9080 0.9080 0.9080 0.9090 0.9100
601.775321 0.9120 0.9120 0.9120 0.9100 0.9120
608.427228 0.9130 0.9140 0.9140 0.9140 0.9130
615.079135 0.9130 0.9130 0.9130 0.9130 0.9140
621.731042 0.9160 0.9160 0.9180 0.9200 0.9200
628.382949 0.9180 0.9180 0.9200 0.9200 0.9210
635.034856 0.9200 0.9200 0.9200 0.9200 0.9180
641.686763 0.9180 0.9200 0.9210 0.9210 0.9220
648.338670 0.9220 0.9220 0.9220 0.9220 0.9220
654.990576 0.9220 0.9220 0.9220 0.9210 0.9210
661.642483 0.9250 0.9260 0.9260 0.9260 0.9260
668.294390 0.9280 0.9290 0.9250 0.9240 0.9250
674.946297 0.9260 0.9260 0.9280 0.9290 0.9290
681.598204 0.9300 0.9320 0.9330 0.9340 0.9340
688.250111 0.9360 0.9370 0.9380 0.9400 0.9400
694.902018 0.9380 0.9370 0.9360 0.9360 0.9340
701.553925 0.9360 0.9340 0.9340 0.9330 0.9330
708.205832 0.9340 0.9340 0.9330 0.9320 0.9320
714.857739 0.9320 0.9320 0.9290 0.9250 0.9250
721.509645 0.9250 0.9240 0.9220 0.9220 0.9210
728.161552 0.9200 0.9200 0.9200 0.9200 0.9180
734.813459 0.9170 0.9120 0.9100 0.9100 0.9100
741.465366 0.9100 0.9090 0.9060 0.9040 0.9010
748.117273 0.8980 0.8960 0.8940 0.8920 0.8900
754.769180 0.8850 0.8810 0.8780 0.8780 0.8740
761.421087 0.8700 0.8620 0.8570 0.8530 0.8500
768.072994 0.8440 0.8360 0.8280 0.8180 0.8100
774.724901 0.8010 0.7960 0.7860 0.7800 0.7691
781.376808 0.7580 0.7520 0.7410 0.7370 0.7310
788.028715 0.7270 0.7230 0.7160 0.7050 0.6990
794.680621 0.6960 0.6960 0.6950 0.6920 0.6850
801.332528 0.6800 0.6760 0.6720 0.6650 0.6531
807.984435 0.6450 0.6270 0.6030 0.5720 0.5530
814.636342 0.5330 0.5031 0.4831 0.4671 0.4381
821.288249 0.4260 0.4190 0.4040 0.3910 0.3710
827.940156 0.3480 0.3310 0.3141 0.3030 0.3000
834.592063 0.3030 0.3120 0.3180 0.3190 0.3190
841.243970 0.3180 0.3150 0.3080 0.2951 0.2701
847.895877 0.2520 0.2290 0.2130 0.2010 0.1940
854.547784 0.1890 0.1870 0.1870 0.1870 0.1890
861.199690 0.1900 0.1910 0.1930 0.1950 0.1980
867.851597 0.2010 0.2050 0.2090 0.2170 0.2270
874.503504 0.2310 0.2380 0.2490 0.2540 0.2620
881.155411 0.2710 0.2780 0.2800 0.2840 0.2900
887.807318 0.2980 0.2990 0.3070 0.3140 0.3190
894.459225 0.3280 0.3360 0.3400 0.3460 0.3480
901.111132 0.3510 0.3520 0.3540 0.3550 0.3550
907.763039 0.3580 0.3590 0.3640 0.3740 0.3949
914.414946 0.4320 0.4500 0.4660 0.4960 0.5290
921.066853 0.5789 0.6079 0.6369 0.6679 0.6949
927.718760 0.7190 0.7330 0.7490 0.7610 0.7690
934.370666 0.7780 0.7880 0.7980 0.8090 0.8180
941.022573 0.8320 0.8400 0.8480 0.8540 0.8600
947.674480 0.8620 0.8690 0.8770 0.8860 0.8969
954.326387 0.9000 0.9010 0.9040 0.9090 0.9130
960.978294 0.9180 0.9250 0.9260 0.9260 0.9260
967.630201 0.9290 0.9300 0.9320 0.9330 0.9360
974.282108 0.9370 0.9400 0.9410 0.9410 0.9410
980.934015 0.9420 0.9420 0.9410 0.9420 0.9420
987.585922 0.9420 0.9420 0.9420 0.9420 0.9420
994.237829 0.9420 0.9420 0.9420 0.9420 0.9420
1000.889736 0.9440 0.9460 0.9460 0.9460 0.9460
1007.541642 0.9450 0.9440 0.9440 0.9440 0.9420
1014.193549 0.9420 0.9410 0.9420 0.9420 0.9410
1020.845456 0.9410 0.9410 0.9410 0.9400 0.9400
1027.497363 0.9380 0.9380 0.9380 0.9380 0.9360
1034.149270 0.9340 0.9330 0.9340 0.9340 0.9340
1040.801177 0.9360 0.9370 0.9370 0.9360 0.9340
1047.453084 0.9340 0.9340 0.9340 0.9340 0.9330
1054.104991 0.9320 0.9320 0.9320 0.9300 0.9300
1060.756898 0.9320 0.9330 0.9330 0.9330 0.9330
1067.408805 0.9330 0.9360 0.9360 0.9330 0.9320
1074.060711 0.9320 0.9320 0.9330 0.9320 0.9320
1080.712618 0.9320 0.9320 0.9320 0.9320 0.9320
1087.364525 0.9320 0.9320 0.9320 0.9320 0.9320
1094.016432 0.9330 0.9330 0.9340 0.9330 0.9330
1100.668339 0.9330 0.9330 0.9320 0.9320 0.9300
1107.320246 0.9300 0.9300 0.9300 0.9330 0.9330
1113.972153 0.9320 0.9320 0.9320 0.9330 0.9330
1120.624060 0.9330 0.9340 0.9340 0.9340 0.9300
1127.275967 0.9290 0.9300 0.9300 0.9330 0.9330
1133.927874 0.9320 0.9320 0.9320 0.9330 0.9340
1140.579781 0.9340 0.9370 0.9380 0.9400 0.9410
1147.231687 0.9420 0.9420 0.9410 0.9400 0.9400
1153.883594 0.9400 0.9400 0.9400 0.9400 0.9410
1160.535501 0.9420 0.9450 0.9450 0.9420 0.9410
1167.187408 0.9410 0.9440 0.9450 0.9450 0.9450
1173.839315 0.9490 0.9490 0.9480 0.9490 0.9490
1180.491222 0.9500 0.9500 0.9520 0.9520 0.9530
1187.143129 0.9540 0.9560 0.9570 0.9570 0.9560
1193.795036 0.9570 0.9570 0.9570 0.9580 0.9580
1200.446943 0.9580 0.9600 0.9600 0.9580 0.9600
1207.098850 0.9600 0.9600 0.9610 0.9610 0.9610
1213.750756 0.9620 0.9640 0.9650 0.9660 0.9660
1220.402663 0.9660 0.9680 0.9690 0.9690 0.9660
1227.054570 0.9660 0.9680 0.9680 0.9680 0.9680
1233.706477 0.9680 0.9680 0.9680 0.9690 0.9680
1240.358384 0.9660 0.9660 0.9690 0.9720 0.9720
1247.010291 0.9730 0.9740 0.9740 0.9740 0.9760
1253.662198 0.9760 0.9770 0.9770 0.9760 0.9760
1260.314105 0.9760 0.9780 0.9780 0.9770 0.9770
1266.966012 0.9770 0.9780 0.9780 0.9770 0.9760
1273.617919 0.9760 0.9760 0.9770 0.9770 0.9770
1280.269826 0.9770 0.9780 0.9780 0.9780 0.9800
1286.921732 0.9840 0.9840 0.9820 0.9820 0.9820
1293.573639 0.9810 0.9810 0.9780 0.9780 0.9770
1300.225546 0.9770 0.9800 0.9820 0.9820 0.9810
1306.877453 0.9810 0.9810 0.9810 0.9840 0.9840
1313.529360 0.9810 0.9800 0.9800 0.9800 0.9780
1320.181267 0.9800 0.9810 0.9820 0.9810 0.9810
1326.833174 0.9810 0.9810 0.9810 0.9800 0.9800
1333.485081 0.9800 0.9800 0.9800 0.9800 0.9800
1340.136988 0.9800 0.9810 0.9800 0.9800 0.9780
1346.788895 0.9780 0.9780 0.9770 0.9760 0.9760
1353.440801 0.9740 0.9740 0.9740 0.9740 0.9730
1360.092708 0.9740 0.9760 0.9770 0.9770 0.9760
1366.744615 0.9740 0.9740 0.9740 0.9740 0.9730
1373.396522 0.9720 0.9720 0.9720 0.9720 0.9700
1380.048429 0.9700 0.9720 0.9730 0.9740 0.9740
1386.700336 0.9740 0.9740 0.9760 0.9760 0.9760
1393.352243 0.9760 0.9760 0.9740 0.9740 0.9740
1400.004150 0.9740 0.9740 0.9740 0.9740 0.9740
1406.656057 0.9740 0.9740 0.9730 0.9730 0.9720
1413.307964 0.9720 0.9720 0.9720 0.9720 0.9720
1419.959871 0.9720 0.9720 0.9720 0.9730 0.9730
1426.611777 0.9760 0.9760 0.9770 0.9770 0.9780
1433.263684 0.9780 0.9780 0.9780 0.9780 0.9780
1439.915591 0.9780 0.9780 0.9780 0.9780 0.9780
1446.567498 0.9780 0.9780 0.9770 0.9770 0.9740
1453.219405 0.9740 0.9730 0.9730 0.9740 0.9740
1459.871312 0.9730 0.9720 0.9720 0.9740 0.9740
1466.523219 0.9760 0.9760 0.9760 0.9760 0.9770
1473.175126 0.9780 0.9780 0.9780 0.9780 0.9770
1479.827033 0.9730 0.9730 0.9760 0.9760 0.9770
1486.478940 0.9770 0.9770 0.9770 0.9770 0.9770
1493.130846 0.9780 0.9780 0.9770 0.9770 0.9770
1499.782753 0.9770 0.9770 0.9770 0.9780 0.9800
1506.434660 0.9800 0.9810 0.9810 0.9800 0.9780
1513.086567 0.9780 0.9780 0.9780 0.9780 0.9780
1519.738474 0.9770 0.9770 0.9770 0.9770 0.9770
1526.390381 0.9770 0.9770 0.9780 0.9800 0.9800
1533.042288 0.9770 0.9740 0.9730 0.9730 0.9720
1539.694195 0.9720 0.9720 0.9700 0.9700 0.9720
1546.346102 0.9720 0.9700 0.9700 0.9700 0.9700
1552.998009 0.9690 0.9680 0.9680 0.9660 0.9650
1559.649916 0.9640 0.9640 0.9620 0.9610 0.9610
1566.301822 0.9600 0.9600 0.9600 0.9600 0.9600
1572.953729 0.9610 0.9610 0.9610 0.9600 0.9580
1579.605636 0.9560 0.9560 0.9540 0.9520 0.9500
1586.257543 0.9500 0.9420 0.9410 0.9400 0.9380
1592.909450 0.9320 0.9300 0.9280 0.9220 0.9200
1599.561357 0.9180 0.9130 0.9040 0.9040 0.9010
1606.213264 0.8980 0.8970 0.8940 0.8930 0.8900
1612.865171 0.8880 0.8860 0.8850 0.8850 0.8850
1619.517078 0.8850 0.8860 0.8880 0.8890 0.8900
1626.168985 0.8900 0.8920 0.8940 0.8970 0.8980
1632.820891 0.9000 0.9000 0.9010 0.9040 0.9050
1639.472798 0.9080 0.9120 0.9140 0.9200 0.9210
1646.124705 0.9210 0.9220 0.9220 0.9240 0.9250
1652.776612 0.9280 0.9290 0.9320 0.9330 0.9340
1659.428519 0.9360 0.9370 0.9400 0.9410 0.9410
1666.080426 0.9410 0.9410 0.9410 0.9420 0.9440
1672.732333 0.9450 0.9450 0.9460 0.9460 0.9480
1679.384240 0.9500 0.9530 0.9560 0.9570 0.9570
1686.036147 0.9580 0.9580 0.9580 0.9580 0.9580
1692.688054 0.9580 0.9570 0.9580 0.9580 0.9580
1699.339961 0.9600 0.9600 0.9600 0.9600 0.9610
1705.991867 0.9610 0.9610 0.9610 0.9610 0.9620
1712.643774 0.9620 0.9640 0.9640 0.9640 0.9640
1719.295681 0.9640 0.9650 0.9650 0.9650 0.9650
1725.947588 0.9650 0.9640 0.9640 0.9660 0.9660
1732.599495 0.9660 0.9680 0.9680 0.9660 0.9660
1739.251402 0.9660 0.9660 0.9660 0.9680 0.9680
1745.903309 0.9680 0.9680 0.9680 0.9690 0.9700
1752.555216 0.9720 0.9720 0.9730 0.9730 0.9730
1759.207123 0.9730 0.9730 0.9730 0.9740 0.9730
1765.859030 0.9730 0.9730 0.9730 0.9740 0.9760
1772.510936 0.9760 0.9740 0.9740 0.9740 0.9760
1779.162843 0.9760 0.9740 0.9740 0.9730 0.9730
1785.814750 0.9730 0.9730 0.9730 0.9730 0.9720
1792.466657 0.9730 0.9730 0.9730 0.9730 0.9740
1799.118564 0.9740 0.9760 0.9770 0.9780 0.9800
1805.770471 0.9810 0.9810 0.9810 0.9800 0.9800
1812.422378 0.9780 0.9770 0.9770 0.9770 0.9770
1819.074285 0.9770 0.9770 0.9770 0.9760 0.9760
1825.726192 0.9760 0.9760 0.9740 0.9740 0.9760
1832.378099 0.9760 0.9760 0.9760 0.9770 0.9770
1839.030006 0.9780 0.9780 0.9770 0.9760 0.9760
1845.681912 0.9770 0.9800 0.9800 0.9800 0.9810
1852.333819 0.9800 0.9810 0.9810 0.9810 0.9810
1858.985726 0.9810 0.9810 0.9810 0.9820 0.9820
1865.637633 0.9810 0.9810 0.9800 0.9800 0.9800
1872.289540 0.9800 0.9800 0.9780 0.9800 0.9780
1878.941447 0.9770 0.9760 0.9770 0.9770 0.9770
1885.593354 0.9760 0.9760 0.9760 0.9760 0.9740
1892.245261 0.9740 0.9760 0.9760 0.9760 0.9760
1898.897168 0.9760 0.9760 0.9740 0.9730 0.9720
1905.549075 0.9720 0.9720 0.9730 0.9730 0.9740
1912.200981 0.9740 0.9730 0.9730 0.9730 0.9740
1918.852888 0.9740 0.9730 0.9730 0.9720 0.9700
1925.504795 0.9700 0.9720 0.9720 0.9730 0.9730
1932.156702 0.9720 0.9730 0.9730 0.9740 0.9760
1938.808609 0.9740 0.9740 0.9740 0.9730 0.9720
1945.460516 0.9720 0.9720 0.9720 0.9700 0.9700
1952.112423 0.9700 0.9720 0.9730 0.9730 0.9730
1958.764330 0.9730 0.9730 0.9720 0.9740 0.9730
1965.416237 0.9730 0.9730 0.9730 0.9740 0.9740
1972.068144 0.9740 0.9730 0.9730 0.9730 0.9720
1978.720051 0.9720 0.9720 0.9730 0.9730 0.9730
1985.371957 0.9730 0.9720 0.9700 0.9700 0.9720
1992.023864 0.9720 0.9720 0.9730 0.9730 0.9730
1998.675771 0.9730 0.9700 0.9680 0.9660 0.9650
2005.327678 0.9640 0.9630 0.9620 0.9610 0.9600
2011.979585 0.9600 0.9600 0.9590 0.9580 0.9580
2018.631492 0.9580 0.9580 0.9580 0.9580 0.9580
2025.283399 0.9580 0.9580 0.9575 0.9570 0.9565
2031.935306 0.9560 0.9550 0.9540 0.9540 0.9540
2038.587213 0.9540 0.9540 0.9540 0.9540 0.9540
2045.239120 0.9540 0.9535 0.9530 0.9530 0.9530
2051.891026 0.9525 0.9520 0.9520 0.9520 0.9520
2058.542933 0.9520 0.9525 0.9530 0.9535 0.9540
2065.194840 0.9540 0.9540 0.9549 0.9559 0.9560
2071.846747 0.9560 0.9560 0.9560 0.9560 0.9560
2078.498654 0.9560 0.9560 0.9560 0.9560 0.9560
2085.150561 0.9560 0.9560 0.9560 0.9560 0.9560
2091.802468 0.9560 0.9560 0.9560 0.9560 0.9560
2098.454375 0.9560 0.9565 0.9570 0.9570 0.9570
2105.106282 0.9570 0.9570 0.9570 0.9570 0.9570
2111.758189 0.9570 0.9570 0.9570 0.9565 0.9560
2118.410096 0.9560 0.9560 0.9551 0.9541 0.9535
2125.062002 0.9530 0.9530 0.9530 0.9530 0.9530
2131.713909 0.9530 0.9530 0.9530 0.9530 0.9530
2138.365816 0.9530 0.9530 0.9530 0.9530 0.9530
2145.017723 0.9534 0.9539 0.9549 0.9559 0.9564
2151.669630 0.9569 0.9570 0.9570 0.9570 0.9570
2158.321537 0.9574 0.9579 0.9580 0.9580 0.9576
2164.973444 0.9571 0.9570 0.9570 0.9570 0.9570
2171.625351 0.9570 0.9570 0.9566 0.9561 0.9560
2178.277258 0.9560 0.9560 0.9560 0.9551 0.9541
2184.929165 0.9540 0.9540 0.9540 0.9540 0.9540
2191.581071 0.9540 0.9536 0.9531 0.9530 0.9530
2198.232978 0.9534 0.9539 0.9540 0.9540 0.9540
2204.884885 0.9540 0.9540 0.9540 0.9540 0.9540
2211.536792 0.9549 0.9559 0.9560 0.9560 0.9560
2218.188699 0.9560 0.9564 0.9569 0.9570 0.9570
2224.840606 0.9566 0.9561 0.9560 0.9560 0.9552
2231.492513 0.9542 0.9536 0.9531 0.9530 0.9530
2238.144420 0.9530 0.9530 0.9530 0.9530 0.9530
2244.796327 0.9530 0.9534 0.9539 0.9540 0.9540
2251.448234 0.9548 0.9558 0.9560 0.9560 0.9560
2258.100141 0.9560 0.9560 0.9560 0.9560 0.9560
2264.752047 0.9552 0.9542 0.9540 0.9540 0.9540
2271.403954 0.9540 0.9540 0.9540 0.9536 0.9531
2278.055861 0.9530 0.9530 0.9534 0.9539 0.9540
2284.707768 0.9540 0.9540 0.9540 0.9540 0.9540
2291.359675 0.9548 0.9558 0.9560 0.9560 0.9560
2298.011582 0.9560 0.9552 0.9542 0.9540 0.9540
2304.663489 0.9536 0.9531 0.9530 0.9530 0.9526
2311.315396 0.9521 0.9520 0.9520 0.9520 0.9520
2317.967303 0.9520 0.9520 0.9520 0.9520 0.9520
2324.619210 0.9520 0.9528 0.9538 0.9540 0.9540
2331.271116 0.9536 0.9531 0.9526 0.9521 0.9520
2337.923023 0.9520 0.9512 0.9502 0.9500 0.9500
2344.574930 0.9500 0.9500 0.9496 0.9491 0.9490
2351.226837 0.9490 0.9490 0.9490 0.9490 0.9490
2357.878744 0.9494 0.9499 0.9500 0.9500 0.9500
2364.530651 0.9500 0.9500 0.9500 0.9500 0.9500
2371.182558 0.9500 0.9500 0.9500 0.9500 0.9508
2377.834465 0.9517 0.9520 0.9520 0.9520 0.9520
2384.486372 0.9524 0.9529 0.9530 0.9530 0.9541
2391.138279 0.9556 0.9564 0.9569 0.9574 0.9579
2397.790186 0.9580 0.9580 0.9580 0.9580 0.9573
2404.442092 0.9563 0.9553 0.9543 0.9540 0.9540
2411.093999 0.9540 0.9540 0.9540 0.9540 0.9540
2417.745906 0.9540 0.9540 0.9540 0.9540 0.9540
2424.397813 0.9540 0.9540 0.9536 0.9531 0.9530
2431.049720 0.9530 0.9530 0.9530 0.9526 0.9521
2437.701627 0.9520 0.9520 0.9520 0.9520 0.9520
2444.353534 0.9520 0.9523 0.9528 0.9530 0.9530
2451.005441 0.9533 0.9539 0.9540 0.9540 0.9540
2457.657348 0.9540 0.9540 0.9540 0.9540 0.9540
2464.309255 0.9537 0.9532 0.9530 0.9530 0.9527
2470.961161 0.9522 0.9520 0.9520 0.9520 0.9520
2477.613068 0.9513 0.9503 0.9500 0.9500 0.9493
2484.264975 0.9483 0.9480 0.9480 0.9480 0.9480
2490.916882 0.9483 0.9488 0.9493 0.9498 0.9500
2497.568789 0.9500 0.9507 0.9517 0.9510 0.9495
2504.220696 0.9487 0.9482 0.9480 0.9480 0.9480
2510.872603 0.9480 0.9480 0.9480 0.9483 0.9488
2517.524510 0.9500 0.9515 0.9523 0.9528 0.9527
2524.176417 0.9522 0.9520 0.9520 0.9520 0.9520
2530.828324 0.9520 0.9520 0.9520 0.9520 0.9520
2537.480231 0.9520 0.9520 0.9520 0.9520 0.9520
2544.132137 0.9514 0.9504 0.9506 0.9516 0.9514
2550.784044 0.9504 0.9500 0.9500 0.9497 0.9492
2557.435951 0.9490 0.9490 0.9487 0.9482 0.9483
2564.087858 0.9488 0.9490 0.9490 0.9490 0.9490
2570.739765 0.9490 0.9490 0.9487 0.9482 0.9480
2577.391672 0.9480 0.9486 0.9496 0.9506 0.9516
2584.043579 0.9520 0.9520 0.9514 0.9504 0.9500
2590.695486 0.9500 0.9497 0.9492 0.9490 0.9490
2597.347393 0.9493 0.9498 0.9500 0.9500 0.9506
2603.999300 0.9516 0.9523 0.9528 0.9530 0.9530
2610.651207 0.9530 0.9530 0.9521 0.9506 0.9500
2617.303113 0.9500 0.9500 0.9500 0.9497 0.9492
2623.955020 0.9487 0.9482 0.9474 0.9464 0.9460
2630.606927 0.9460 0.9466 0.9476 0.9480 0.9480
2637.258834 0.9480 0.9480 0.9483 0.9488 0.9493
2643.910741 0.9498 0.9500 0.9500 0.9500 0.9500
2650.562648 0.9500 0.9500 0.9500 0.9500 0.9500
2657.214555 0.9500 0.9500 0.9500 0.9497 0.9492
2663.866462 0.9487 0.9482 0.9480 0.9480 0.9474
2670.518369 0.9464 0.9460 0.9460 0.9460 0.9460
2677.170276 0.9460 0.9460 0.9460 0.9460 0.9460
2683.822182 0.9460 0.9460 0.9460 0.9465 0.9475
2690.474089 0.9480 0.9480 0.9483 0.9488 0.9490
2697.125996 0.9490 0.9490 0.9490 0.9487 0.9482
2703.777903 0.9480 0.9480 0.9480 0.9480 0.9483
2710.429810 0.9488 0.9490 0.9490 0.9482 0.9467
2717.081717 0.9460 0.9460 0.9457 0.9452 0.9447
2723.733624 0.9442 0.9440 0.9440 0.9435 0.9425
2730.385531 0.9425 0.9435 0.9445 0.9455 0.9460
2737.037438 0.9460 0.9455 0.9445 0.9435 0.9425
2743.689345 0.9418 0.9412 0.9410 0.9410 0.9410
2750.341252 0.9410 0.9410 0.9410 0.9410 0.9410
2756.993158 0.9410 0.9410 0.9410 0.9410 0.9417
2763.645065 0.9432 0.9442 0.9447 0.9448 0.9443
2770.296972 0.9433 0.9418 0.9403 0.9388 0.9380
2776.948879 0.9380 0.9385 0.9395 0.9402 0.9407
2783.600786 0.9410 0.9410 0.9410 0.9410 0.9412
2790.252693 0.9417 0.9420 0.9420 0.9420 0.9420
2796.904600 0.9420 0.9420 0.9425 0.9435 0.9435
2803.556507 0.9425 0.9420 0.9420 0.9420 0.9420
2810.208414 0.9420 0.9420 0.9420 0.9420 0.9418
2816.860321 0.9413 0.9410 0.9410 0.9408 0.9403
2823.512227 0.9396 0.9386 0.9378 0.9373 0.9368
2830.164134 0.9363 0.9360 0.9360 0.9360 0.9360
2836.816041 0.9360 0.9360 0.9362 0.9367 0.9370
2843.467948 0.9370 0.9364 0.9349 0.9338 0.9333
2850.119855 0.9328 0.9323 0.9316 0.9306 0.9300
2856.771762 0.9300 0.9300 0.9300 0.9304 0.9314
2863.423669 0.9320 0.9320 0.9320 0.9320 0.9320
2870.075576 0.9320 0.9320 0.9320 0.9320 0.9320
2876.727483 0.9320 0.9320 0.9320 0.9320 0.9320
2883.379390 0.9320 0.9320 0.9320 0.9320 0.9320
2890.031297 0.9320 0.9320 0.9316 0.9306 0.9300
2896.683203 0.9300 0.9300 0.9300 0.9300 0.9300
2903.335110 0.9304 0.9314 0.9316 0.9306 0.9298
2909.987017 0.9293 0.9290 0.9290 0.9290 0.9290
2916.638924 0.9290 0.9290 0.9288 0.9283 0.9276
2923.290831 0.9266 0.9258 0.9253 0.9250 0.9250
2929.942738 0.9250 0.9250 0.9250 0.9250 0.9250
2936.594645 0.9250 0.9250 0.9250 0.9250 0.9250
2943.246552 0.9250 0.9250 0.9250 0.9250 0.9250
2949.898459 0.9250 0.9250 0.9250 0.9252 0.9257
2956.550366 0.9260 0.9260 0.9260 0.9260 0.9264
2963.202272 0.9274 0.9280 0.9280 0.9280 0.9280
2969.854179 0.9280 0.9280 0.9282 0.9287 0.9290
2976.506086 0.9290 0.9290 0.9290 0.9292 0.9297
2983.157993 0.9300 0.9300 0.9300 0.9300 0.9303
2989.809900 0.9313 0.9317 0.9307 0.9300 0.9300
2996.461807 0.9300 0.9300 0.9298 0.9293 0.9290
3003.113714 0.9290 0.9290 0.9290 0.9290 0.9290
3009.765621 0.9290 0.9290 0.9290 0.9290 0.9290
3016.417528 0.9290 0.9292 0.9297 0.9303 0.9313
3023.069435 0.9317 0.9307 0.9300 0.9300 0.9300
3029.721342 0.9300 0.9300 0.9300 0.9299 0.9294
3036.373248 0.9290 0.9290 0.9290 0.9290 0.9290
3043.025155 0.9290 0.9290 0.9290 0.9289 0.9284
3049.677062 0.9277 0.9267 0.9259 0.9254 0.9250
3056.328969 0.9250 0.9250 0.9250 0.9250 0.9250
3062.980876 0.9250 0.9250 0.9251 0.9256 0.9260
3069.632783 0.9260 0.9259 0.9254 0.9250 0.9250
3076.284690 0.9249 0.9244 0.9240 0.9240 0.9240
3082.936597 0.9240 0.9240 0.9240 0.9240 0.9240
3089.588504 0.9240 0.9240 0.9240 0.9240 0.9237
3096.240411 0.9227 0.9219 0.9214 0.9210 0.9210
3102.892317 0.9209 0.9204 0.9200 0.9200 0.9200
3109.544224 0.9200 0.9200 0.9200 0.9200 0.9200
3116.196131 0.9200 0.9200 0.9200 0.9200 0.9200
3122.848038 0.9200 0.9200 0.9200 0.9198 0.9188
3129.499945 0.9180 0.9180 0.9179 0.9174 0.9170
3136.151852 0.9170 0.9170 0.9170 0.9170 0.9170
3142.803759 0.9169 0.9164 0.9160 0.9160 0.9160
3149.455666 0.9160 0.9160 0.9160 0.9158 0.9148
3156.107573 0.9139 0.9134 0.9130 0.9130 0.9129
3162.759480 0.9124 0.9118 0.9108 0.9099 0.9094
3169.411387 0.9089 0.9084 0.9078 0.9068 0.9059
3176.063293 0.9054 0.9049 0.9044 0.9040 0.9040
3182.715200 0.9040 0.9040 0.9040 0.9040 0.9040
3189.367107 0.9040 0.9040 0.9040 0.9040 0.9040
3196.019014 0.9038 0.9028 0.9019 0.9014 0.9009
3202.670921 0.9004 0.8998 0.8988 0.8980 0.8980
3209.322828 0.8980 0.8980 0.8980 0.8980 0.8979
3215.974735 0.8974 0.8970 0.8970 0.8970 0.8970
3222.626642 0.8970 0.8970 0.8969 0.8964 0.8958
3229.278549 0.8948 0.8939 0.8934 0.8929 0.8924
3235.930456 0.8920 0.8920 0.8918 0.8908 0.8899
3242.582362 0.8894 0.8889 0.8884 0.8880 0.8880
3249.234269 0.8880 0.8880 0.8878 0.8868 0.8860
3255.886176 0.8860 0.8859 0.8854 0.8850 0.8850
3262.538083 0.8849 0.8844 0.8838 0.8829 0.8820
3269.189990 0.8820 0.8819 0.8814 0.8810 0.8810
3275.841897 0.8810 0.8810 0.8809 0.8804 0.8800
3282.493804 0.8800 0.8799 0.8789 0.8779 0.8769
3289.145711 0.8759 0.8749 0.8739 0.8729 0.8719
3295.797618 0.8709 0.8699 0.8694 0.8688 0.8668
3302.449525 0.8649 0.8644 0.8639 0.8629 0.8619
3309.101432 0.8609 0.8599 0.8589 0.8580 0.8580
3315.753338 0.8579 0.8569 0.8557 0.8527 0.8499
3322.405245 0.8489 0.8477 0.8447 0.8418 0.8398
3329.057152 0.8379 0.8369 0.8359 0.8349 0.8339
3335.709059 0.8334 0.8328 0.8313 0.8297 0.8267
3342.360966 0.8238 0.8224 0.8209 0.8194 0.8177
3349.012873 0.8147 0.8118 0.8098 0.8079 0.8064
3355.664780 0.8048 0.8023 0.7999 0.7989 0.7978
3362.316687 0.7958 0.7938 0.7913 0.7889 0.7874
3368.968594 0.7858 0.7833 0.7808 0.7788 0.7768
3375.620501 0.7749 0.7729 0.7714 0.7698 0.7673
3382.272407 0.7649 0.7629 0.7608 0.7588 0.7569
3388.924314 0.7554 0.7538 0.7519 0.7499 0.7489
3395.576221 0.7479 0.7459 0.7439 0.7419 0.7399
3402.228128 0.7374 0.7349 0.7339 0.7330 0.7325
3408.880035 0.7320 0.7315 0.7309 0.7299 0.7290
3415.531942 0.7285 0.7280 0.7275 0.7268 0.7228
3422.183849 0.7188 0.7153 0.7119 0.7104 0.7090
3428.835756 0.7085 0.7080 0.7080 0.7080 0.7075
3435.487663 0.7070 0.7070 0.7070 0.7060 0.7050
3442.139570 0.7040 0.7030 0.7030 0.7030 0.7020
3448.791477 0.7010 0.7010 0.7010 0.7005 0.7000
3455.443383 0.7000 0.7000 0.7000 0.7000 0.7000
3462.095290 0.7000 0.7000 0.7000 0.7000 0.7000
3468.747197 0.7005 0.7010 0.7010 0.7010 0.7020
3475.399104 0.7030 0.7040 0.7050 0.7065 0.7080
3482.051011 0.7085 0.7090 0.7090 0.7090 0.7105
3488.702918 0.7120 0.7125 0.7130 0.7140 0.7150
3495.354825 0.7155 0.7160 0.7165 0.7170 0.7180
3502.006732 0.7190 0.7195 0.7200 0.7205 0.7210
3508.658639 0.7230 0.7250 0.7265 0.7280 0.7295
3515.310546 0.7310 0.7315 0.7320 0.7335 0.7350
3521.962452 0.7350 0.7350 0.7360 0.7370 0.7380
3528.614359 0.7390 0.7395 0.7400 0.7405 0.7410
3535.266266 0.7425 0.7439 0.7469 0.7499 0.7510
3541.918173 0.7520 0.7544 0.7569 0.7575 0.7580
3548.570080 0.7599 0.7619 0.7649 0.7679 0.7685
3555.221987 0.7690 0.7695 0.7700 0.7733 0.7768
3561.873894 0.7808 0.7848 0.7869 0.7889 0.7928
3568.525801 0.7968 0.7984 0.7999 0.8010 0.8020
3575.177708 0.8049 0.8079 0.8090 0.8099 0.8133
3581.829615 0.8168 0.8175 0.8180 0.8194 0.8209
3588.481522 0.8233 0.8258 0.8311 0.8366 0.8388
3595.133428 0.8408 0.8433 0.8459 0.8474 0.8489
3601.785335 0.8513 0.8538 0.8554 0.8569 0.8584
3608.437242 0.8599 0.8609 0.8619 0.8638 0.8658
3615.089149 0.8678 0.8698 0.8732 0.8767 0.8784
3621.741056 0.8799 0.8800 0.8800 0.8818 0.8838
3628.392963 0.8858 0.8878 0.8889 0.8899 0.8932
3635.044870 0.8967 0.8975 0.8980 0.8989 0.8999
3641.696777 0.9000 0.9000 0.9004 0.9009 0.9014
3648.348684 0.9019 0.9033 0.9049 0.9055 0.9060
3655.000591 0.9060 0.9060 0.9073 0.9088 0.9103
3661.652497 0.9118 0.9129 0.9139 0.9149 0.9159
3668.304404 0.9164 0.9169 0.9174 0.9179 0.9189
3674.956311 0.9199 0.9200 0.9200 0.9204 0.9209
3681.608218 0.9210 0.9210 0.9214 0.9219 0.9220
3688.260125 0.9220 0.9220 0.9220 0.9220 0.9220
3694.912032 0.9220 0.9220 0.9220 0.9220 0.9220
3701.563939 0.9220 0.9216 0.9211 0.9210 0.9210
3708.215846 0.9210 0.9210 0.9210 0.9210 0.9210
3714.867753 0.9210 0.9210 0.9210 0.9210 0.9210
3721.519660 0.9214 0.9219 0.9220 0.9220 0.9220
3728.171567 0.9220 0.9216 0.9211 0.9210 0.9210
3734.823473 0.9206 0.9201 0.9200 0.9200 0.9192
3741.475380 0.9182 0.9176 0.9171 0.9170 0.9170
3748.127287 0.9170 0.9170 0.9170 0.9170 0.9174
3754.779194 0.9179 0.9188 0.9198 0.9204 0.9209
3761.431101 0.9210 0.9210 0.9210 0.9210 0.9206
3768.083008 0.9201 0.9200 0.9200 0.9200 0.9200
3774.734915 0.9200 0.9200 0.9192 0.9182 0.9180
3781.386822 0.9180 0.9176 0.9171 0.9174 0.9179
3788.038729 0.9180 0.9180 0.9180 0.9180 0.9180
3794.690636 0.9180 0.9180 0.9180 0.9180 0.9180
3801.342542 0.9180 0.9180 0.9180 0.9180 0.9180
3807.994449 0.9180 0.9180 0.9180 0.9180 0.9180
3814.646356 0.9180 0.9180 0.9180 0.9180 0.9180
3821.298263 0.9180 0.9180 0.9180 0.9180 0.9180
3827.950170 0.9180 0.9180 0.9180 0.9180 0.9188
3834.602077 0.9198 0.9200 0.9200 0.9200 0.9200
3841.253984 0.9192 0.9182 0.9180 0.9180 0.9180
3847.905891 0.9180 0.9188 0.9198 0.9200 0.9200
3854.557798 0.9192 0.9182 0.9176 0.9171 0.9170
3861.209705 0.9170 0.9170 0.9170 0.9170 0.9170
3867.861612 0.9170 0.9170 0.9174 0.9179 0.9180
3874.513518 0.9180 0.9180 0.9180 0.9176 0.9171
3881.165425 0.9170 0.9170 0.9170 0.9170 0.9170
3887.817332 0.9170 0.9170 0.9170 0.9170 0.9170
3894.469239 0.9166 0.9161 0.9160 0.9160 0.9164
3901.121146 0.9169 0.9181 0.9196 0.9204 0.9209
3907.773053 0.9210 0.9210 0.9210 0.9210 0.9210
3914.424960 0.9210 0.9206 0.9201 0.9189 0.9174
3921.076867 0.9166 0.9161 0.9160 0.9160 0.9164
3927.728774 0.9169 0.9174 0.9179 0.9180 0.9180
3934.380681 0.9176 0.9172 0.9170 0.9170 0.9170
3941.032587 0.9170 0.9166 0.9161 0.9149 0.9134
3947.684494 0.9130 0.9130 0.9141 0.9156 0.9167
3954.336401 0.9177 0.9180 0.9180 0.9187 0.9197
3960.988308 0.9200 0.9200 0.9193 0.9183 0.9180
3967.640215 0.9180 0.9177 0.9172 0.9167 0.9162
3974.292122 0.9153 0.9143 0.9140 0.9140 0.9147
3980.944029 0.9157 0.9163 0.9168
##END=
