##TITLE=CD3-3-PHENANTHRENE
##JCAMP-DX=4.24
##DATA TYPE=INFRARED SPECTRUM
##CLASS=COBLENTZ
##ORIGIN=CENTRE D'ETUDES NUCLEAIRES DE GRENOBLE
##OWNER=COBLENTZ SOCIETY
Collection (C) 2018 copyright by the U.S. Secretary of Commerce
on behalf of the United States of America. All rights reserved.
##DATE=Not specified, most likely prior to 1970
##NAMES=3-methylphenanthrene
##MOLFORM=C15 H9 D3
##SOURCE REFERENCE=COBLENTZ NO. 4227
##$NIST ID=B6004227
##$NIST SOURCE=COBLENTZ
##$NIST IMAGE=cob4227
##SPECTROMETER/DATA SYSTEM=Not specified, most likely a prism, grating, or hybrid spectrometer.
##STATE=SOLID (1% IN KBr)
##PATH LENGTH=
$$PURITY 90%
##SAMPLING PROCEDURE=TRANSMISSION
##RESOLUTION=4
##DATA PROCESSING=DIGITIZED BY NIST FROM HARD COPY
##XUNITS=MICROMETERS
##YUNITS=TRANSMITTANCE
##XFACTOR=1.000000
##YFACTOR=1
##DELTAX=000.006677
##FIRSTX=1.978
##LASTX=15.9128
##FIRSTY=0.058
##MAXX=15.9128
##MINX=1.978
##MAXY=0.951
##MINY=0.04
##NPOINTS=2088
##XYDATA=(X++(Y..Y))
1.978000 0.0580 0.0580 0.0580 0.0580 0.0580
2.011401 0.0580 0.0580 0.0580 0.0580 0.0580
2.045000 0.0580 0.0600 0.0600 0.0600 0.0600
2.078401 0.0600 0.0610 0.0610 0.0610 0.0610
2.112000 0.0630 0.0630 0.0630 0.0650 0.0650
2.145401 0.0660 0.0660 0.0660 0.0680 0.0680
2.179000 0.0680 0.0700 0.0700 0.0700 0.0710
2.212401 0.0710 0.0710 0.0710 0.0730 0.0730
2.246000 0.0730 0.0750 0.0750 0.0750 0.0750
2.279401 0.0760 0.0760 0.0760 0.0760 0.0780
2.312000 0.0780 0.0780 0.0780 0.0780 0.0800
2.345401 0.0800 0.0800 0.0810 0.0810 0.0810
2.379000 0.0810 0.0830 0.0830 0.0830 0.0850
2.412401 0.0850 0.0850 0.0860 0.0860 0.0860
2.446000 0.0880 0.0880 0.0880 0.0880 0.0880
2.479401 0.0900 0.0900 0.0900 0.0900 0.0900
2.513000 0.0910 0.0930 0.0930 0.0930 0.0950
2.546401 0.0950 0.0950 0.0960 0.0960 0.0960
2.579000 0.0980 0.1000 0.1000 0.1010 0.1010
2.612401 0.1030 0.1030 0.1050 0.1050 0.1060
2.646000 0.1060 0.1080 0.1080 0.1100 0.1100
2.679401 0.1110 0.1110 0.1130 0.1130 0.1150
2.713000 0.1160 0.1160 0.1180 0.1200 0.1200
2.746401 0.1210 0.1230 0.1230 0.1250 0.1260
2.780000 0.1280 0.1300 0.1300 0.1310 0.1310
2.813401 0.1330 0.1330 0.1350 0.1350 0.1360
2.846000 0.1360 0.1380 0.1400 0.1400 0.1410
2.879401 0.1430 0.1430 0.1450 0.1460 0.1500
2.913000 0.1500 0.1510 0.1510 0.1510 0.1530
2.946401 0.1530 0.1550 0.1550 0.1560 0.1580
2.980000 0.1580 0.1600 0.1610 0.1600 0.1610
3.013401 0.1630 0.1630 0.1650 0.1660 0.1680
3.047000 0.1700 0.1710 0.1730 0.1730 0.1750
3.080401 0.1760 0.1780 0.1800 0.1810 0.1830
3.114000 0.1850 0.1860 0.1880 0.1900 0.1910
3.147401 0.1950 0.1960 0.1980 0.2000 0.2030
3.180000 0.2060 0.2100 0.2130 0.2160 0.2180
3.213401 0.2230 0.2250 0.2260 0.2280 0.2300
3.247000 0.2300 0.2280 0.2130 0.2050 0.2000
3.280401 0.1930 0.1780 0.1700 0.1580 0.1260
3.314000 0.1150 0.1150 0.1210 0.1380 0.1450
3.347401 0.1500 0.1510 0.1580 0.1710 0.1800
3.381000 0.1930 0.1960 0.2060 0.2100 0.2110
3.414401 0.2110 0.2150 0.2150 0.2160 0.2160
3.447000 0.2180 0.2200 0.2250 0.2280 0.2330
3.480401 0.2360 0.2410 0.2460 0.2500 0.2500
3.514000 0.2510 0.2530 0.2550 0.2560 0.2600
3.547401 0.2630 0.2680 0.2710 0.2750 0.2780
3.581000 0.2810 0.2850 0.2880 0.2910 0.2930
3.614401 0.2930 0.2960 0.2980 0.3000 0.3010
3.648000 0.3030 0.3050 0.3060 0.3080 0.3100
3.681401 0.3110 0.3130 0.3150 0.3180 0.3200
3.714000 0.3230 0.3260 0.3280 0.3300 0.3310
3.747401 0.3330 0.3350 0.3350 0.3360 0.3380
3.781000 0.3400 0.3400 0.3410 0.3430 0.3450
3.814401 0.3460 0.3460 0.3460 0.3480 0.3480
3.848000 0.3500 0.3510 0.3530 0.3550 0.3550
3.881401 0.3560 0.3580 0.3600 0.3610 0.3630
3.915000 0.3650 0.3650 0.3660 0.3680 0.3700
3.948401 0.3700 0.3710 0.3730 0.3750 0.3760
3.982000 0.3780 0.3800 0.3800 0.3810 0.3830
4.015401 0.3830 0.3850 0.3850 0.3860 0.3880
4.048000 0.3900 0.3910 0.3930 0.3950 0.3960
4.081401 0.3980 0.4000 0.4010 0.4050 0.4050
4.115000 0.4060 0.4060 0.4080 0.4080 0.4080
4.148401 0.4110 0.4110 0.4130 0.4130 0.4130
4.182000 0.4150 0.4160 0.4210 0.4250 0.4250
4.215401 0.4260 0.4260 0.4260 0.4250 0.4230
4.249000 0.4210 0.4200 0.4160 0.4150 0.4110
4.282401 0.4110 0.4200 0.4280 0.4310 0.4380
4.315000 0.4500 0.4510 0.4460 0.4410 0.4310
4.348401 0.4260 0.4250 0.4260 0.4310 0.4400
4.382000 0.4410 0.4430 0.4450 0.4450 0.4460
4.415401 0.4480 0.4480 0.4500 0.4500 0.4500
4.449000 0.4500 0.4500 0.4480 0.4460 0.4450
4.482401 0.4400 0.4330 0.4280 0.4230 0.4080
4.516000 0.4010 0.4010 0.4160 0.4350 0.4400
4.549401 0.4410 0.4400 0.4180 0.4110 0.4110
4.582000 0.4250 0.4410 0.4500 0.4550 0.4580
4.615401 0.4610 0.4650 0.4660 0.4700 0.4730
4.649000 0.4750 0.4780 0.4780 0.4800 0.4780
4.682401 0.4750 0.4710 0.4630 0.4530 0.4460
4.716000 0.4280 0.4260 0.4300 0.4480 0.4680
4.749401 0.4760 0.4800 0.4810 0.4830 0.4830
4.783000 0.4850 0.4860 0.4880 0.4900 0.4930
4.816401 0.4930 0.4960 0.4980 0.4980 0.4980
4.850000 0.4950 0.4910 0.4850 0.4760 0.4600
4.883401 0.4380 0.4400 0.4660 0.4760 0.4850
4.916000 0.4910 0.4980 0.5030 0.5080 0.5110
4.949401 0.5150 0.5180 0.5210 0.5230 0.5250
4.983000 0.5260 0.5280 0.5300 0.5310 0.5350
5.016401 0.5360 0.5400 0.5410 0.5430 0.5430
5.050000 0.5450 0.5450 0.5480 0.5500 0.5510
5.083401 0.5550 0.5560 0.5560 0.5580 0.5560
5.117000 0.5550 0.5510 0.5460 0.5430 0.5350
5.150401 0.5180 0.5130 0.5150 0.5260 0.5300
5.183000 0.5350 0.5380 0.5400 0.5380 0.5350
5.216401 0.5300 0.5210 0.5100 0.5050 0.5000
5.250000 0.4980 0.5000 0.5080 0.5130 0.5200
5.283401 0.5260 0.5310 0.5360 0.5410 0.5460
5.317000 0.5510 0.5550 0.5600 0.5630 0.5660
5.350401 0.5700 0.5710 0.5730 0.5750 0.5750
5.384000 0.5760 0.5800 0.5800 0.5830 0.5860
5.417401 0.5880 0.5900 0.5880 0.5860 0.5800
5.450000 0.5730 0.5680 0.5660 0.5630 0.5630
5.483401 0.5600 0.5580 0.5560 0.5560 0.5550
5.517000 0.5550 0.5550 0.5560 0.5580 0.5600
5.550401 0.5610 0.5650 0.5680 0.5710 0.5750
5.584000 0.5780 0.5800 0.5800 0.5810 0.5810
5.617401 0.5830 0.5830 0.5850 0.5860 0.5900
5.651000 0.5930 0.5900 0.5880 0.5830 0.5760
5.684401 0.5750 0.5710 0.5730 0.5760 0.5810
5.718000 0.5860 0.5960 0.6010 0.6050 0.6060
5.751401 0.6050 0.6030 0.6000 0.5960 0.5930
5.784000 0.5830 0.5780 0.5750 0.5730 0.5760
5.817401 0.5860 0.5930 0.5960 0.5980 0.5980
5.851000 0.6000 0.6010 0.6050 0.6080 0.6110
5.884401 0.6130 0.6130 0.6150 0.6130 0.6010
5.918000 0.5960 0.5950 0.5900 0.5830 0.5810
5.951401 0.5830 0.5950 0.6010 0.6050 0.6080
5.985000 0.6130 0.6160 0.6210 0.6230 0.6200
6.018401 0.6130 0.6110 0.6130 0.6150 0.6200
6.051000 0.6230 0.6250 0.6250 0.6260 0.6210
6.084401 0.6180 0.6100 0.6010 0.5980 0.5960
6.118000 0.5930 0.5910 0.5900 0.5850 0.5780
6.151401 0.5630 0.5610 0.5450 0.5250 0.5100
6.185000 0.4960 0.4830 0.4480 0.4450 0.4480
6.218401 0.4560 0.4630 0.4680 0.4760 0.4750
6.252000 0.4550 0.3930 0.3750 0.3750 0.3910
6.285401 0.4510 0.4750 0.5010 0.5300 0.5510
6.318000 0.5660 0.5680 0.5750 0.5810 0.5910
6.351401 0.5980 0.6100 0.6130 0.6130 0.6110
6.385000 0.5910 0.5930 0.5980 0.6080 0.6200
6.418401 0.6230 0.6260 0.6300 0.6330 0.6260
6.452000 0.6250 0.6260 0.6280 0.6330 0.6400
6.485401 0.6410 0.6430 0.6480 0.6500 0.6510
6.519000 0.6500 0.6460 0.6400 0.6400 0.6360
6.552401 0.6380 0.6400 0.6450 0.6530 0.6580
6.586000 0.6610 0.6610 0.6600 0.6360 0.5980
6.619401 0.5650 0.5380 0.5360 0.5330 0.5200
6.652000 0.5010 0.4980 0.4930 0.4930 0.5010
6.685401 0.5410 0.5660 0.5810 0.5910 0.6000
6.719000 0.6130 0.6310 0.6430 0.6530 0.6600
6.752401 0.6660 0.6700 0.6750 0.6780 0.6810
6.786000 0.6830 0.6850 0.6880 0.6900 0.6900
6.819401 0.6900 0.6900 0.6900 0.6880 0.6860
6.853000 0.6850 0.6810 0.6760 0.6730 0.6210
6.886401 0.5550 0.4550 0.4080 0.3150 0.3150
6.919000 0.3730 0.4200 0.4760 0.5350 0.5810
6.952401 0.5880 0.5910 0.6100 0.6150 0.6200
6.986000 0.6210 0.6230 0.6230 0.6150 0.5930
7.019401 0.5110 0.4230 0.4230 0.4380 0.4550
7.053000 0.4710 0.4880 0.5160 0.5400 0.5600
7.086401 0.5900 0.6110 0.6160 0.6350 0.6400
7.120000 0.6380 0.6310 0.6210 0.6100 0.5950
7.153401 0.5930 0.5950 0.6100 0.6210 0.6260
7.186000 0.6330 0.6380 0.6480 0.6630 0.6730
7.219401 0.6760 0.6760 0.6680 0.6630 0.6630
7.253000 0.6660 0.6700 0.6730 0.6800 0.6810
7.286401 0.6830 0.6850 0.6850 0.6850 0.6830
7.320000 0.6810 0.6800 0.6760 0.6730 0.6710
7.353401 0.6700 0.6680 0.6660 0.6650 0.6630
7.387000 0.6600 0.6550 0.6430 0.6310 0.6300
7.420401 0.6310 0.6430 0.6650 0.6760 0.6950
7.454000 0.7050 0.7080 0.7160 0.7180 0.7200
7.487401 0.7180 0.7130 0.7110 0.7110 0.7150
7.520000 0.7160 0.7200 0.7230 0.7260 0.7300
7.553401 0.7330 0.7360 0.7400 0.7430 0.7450
7.587000 0.7480 0.7510 0.7530 0.7580 0.7610
7.620401 0.7630 0.7650 0.7680 0.7700 0.7710
7.654000 0.7750 0.7760 0.7760 0.7760 0.7750
7.687401 0.7730 0.7680 0.7600 0.6730 0.6100
7.721000 0.5810 0.5710 0.5330 0.5330 0.5510
7.754401 0.5700 0.5860 0.6050 0.6180 0.6600
7.787000 0.6860 0.7050 0.7150 0.7250 0.7330
7.820401 0.7350 0.7380 0.7400 0.7400 0.7400
7.854000 0.7410 0.7450 0.7500 0.7550 0.7560
7.887401 0.7580 0.7550 0.7530 0.7450 0.7400
7.921000 0.7350 0.7330 0.7260 0.7260 0.7250
7.954401 0.7250 0.7260 0.7260 0.7250 0.7230
7.988000 0.7150 0.7030 0.6880 0.6710 0.6580
8.021401 0.6430 0.6300 0.6160 0.6010 0.5930
8.054000 0.5910 0.5930 0.6200 0.6450 0.6630
8.087401 0.6800 0.6910 0.7010 0.7100 0.7180
8.121000 0.7260 0.7350 0.7400 0.7460 0.7560
8.154401 0.7580 0.7600 0.7600 0.7580 0.7400
8.188000 0.7030 0.6780 0.6530 0.6350 0.6230
8.221401 0.6160 0.6280 0.6550 0.6680 0.6800
8.255000 0.6830 0.6800 0.6480 0.6180 0.5830
8.288401 0.5530 0.5510 0.5530 0.5710 0.5930
8.322000 0.6110 0.6300 0.6450 0.6600 0.6710
8.355401 0.6830 0.6910 0.7000 0.7050 0.7100
8.388000 0.7110 0.7200 0.7210 0.7230 0.7330
8.421401 0.7560 0.7630 0.7700 0.7780 0.7830
8.455000 0.7880 0.7900 0.7930 0.7950 0.7950
8.488401 0.7960 0.7960 0.7980 0.7980 0.8000
8.522000 0.8000 0.8010 0.8010 0.8010 0.8010
8.555401 0.8000 0.7980 0.7960 0.7830 0.7760
8.589000 0.7480 0.7060 0.6680 0.6680 0.6880
8.622401 0.7010 0.7160 0.7300 0.7430 0.7530
8.655000 0.7710 0.7760 0.7780 0.7760 0.7660
8.688401 0.7210 0.6910 0.6650 0.6350 0.5800
8.722000 0.5210 0.4830 0.4410 0.4000 0.4000
8.755401 0.4400 0.4780 0.5180 0.5530 0.5900
8.789000 0.6100 0.6450 0.6750 0.6930 0.7060
8.822401 0.7150 0.7210 0.7280 0.7330 0.7360
8.856000 0.7410 0.7450 0.7460 0.7500 0.7510
8.889401 0.7530 0.7530 0.7550 0.7560 0.7560
8.922000 0.7560 0.7560 0.7560 0.7560 0.7560
8.955401 0.7550 0.7530 0.7530 0.7510 0.7460
8.989000 0.7410 0.7400 0.7410 0.7500 0.7530
9.022401 0.7560 0.7580 0.7600 0.7600 0.7610
9.056000 0.7610 0.7610 0.7610 0.7610 0.7600
9.089401 0.7360 0.7260 0.7200 0.6980 0.6380
9.123000 0.6380 0.6560 0.6730 0.6910 0.7050
9.156401 0.7130 0.7200 0.7330 0.7410 0.7480
9.190000 0.7550 0.7580 0.7600 0.7610 0.7630
9.223401 0.7650 0.7650 0.7660 0.7700 0.7710
9.256000 0.7710 0.7730 0.7750 0.7750 0.7760
9.289401 0.7800 0.7810 0.7850 0.7880 0.7880
9.323000 0.7880 0.7880 0.7900 0.7900 0.7900
9.356401 0.7880 0.7880 0.7880 0.7880 0.7880
9.390000 0.7860 0.7860 0.7860 0.7860 0.7860
9.423401 0.7850 0.7830 0.7830 0.7800 0.7780
9.457000 0.7730 0.7630 0.7480 0.7330 0.7130
9.490401 0.6860 0.6830 0.6860 0.6910 0.6910
9.523000 0.6860 0.6810 0.6710 0.6550 0.6410
9.556401 0.6310 0.6260 0.6200 0.6130 0.6000
9.590000 0.5860 0.5780 0.5710 0.5610 0.5510
9.623401 0.5480 0.5510 0.5660 0.5780 0.5860
9.657000 0.6200 0.6550 0.6880 0.6960 0.7050
9.690401 0.7150 0.7250 0.7380 0.7500 0.7600
9.724000 0.7610 0.7630 0.7630 0.7650 0.7650
9.757401 0.7650 0.7630 0.7630 0.7530 0.7480
9.790000 0.7450 0.7310 0.7010 0.7010 0.7160
9.823401 0.7200 0.7300 0.7400 0.7410 0.7510
9.857000 0.7580 0.7630 0.7660 0.7710 0.7760
9.890401 0.7810 0.7860 0.7900 0.7910 0.7960
9.924000 0.8010 0.8050 0.8060 0.8060 0.8080
9.957401 0.8110 0.8130 0.8130 0.8150 0.8150
9.991000 0.8160 0.8180 0.8210 0.8230 0.8260
10.024401 0.8280 0.8300 0.8300 0.8310 0.8310
10.058000 0.8330 0.8330 0.8350 0.8350 0.8350
10.091401 0.8360 0.8360 0.8360 0.8380 0.8400
10.124000 0.8430 0.8450 0.8460 0.8480 0.8510
10.157401 0.8530 0.8550 0.8550 0.8530 0.8530
10.191000 0.8510 0.8510 0.8500 0.8480 0.8480
10.224401 0.8460 0.8460 0.8430 0.8400 0.8360
10.258000 0.8360 0.8380 0.8410 0.8450 0.8480
10.291401 0.8480 0.8500 0.8510 0.8510 0.8510
10.325000 0.8530 0.8530 0.8500 0.8500 0.8450
10.358401 0.8430 0.8410 0.8430 0.8460 0.8510
10.391000 0.8560 0.8630 0.8660 0.8700 0.8710
10.424401 0.8700 0.8680 0.8630 0.8560 0.8530
10.458000 0.8510 0.8500 0.8460 0.8430 0.8360
10.491401 0.8230 0.8100 0.8060 0.7730 0.7400
10.525000 0.5960 0.5300 0.5300 0.5330 0.5500
10.558401 0.5700 0.5900 0.6100 0.6300 0.6800
10.592000 0.7200 0.7510 0.7780 0.8000 0.8200
10.625401 0.8350 0.8410 0.8480 0.8560 0.8610
10.658000 0.8630 0.8650 0.8680 0.8700 0.8730
10.691401 0.8760 0.8760 0.8780 0.8780 0.8780
10.725000 0.8780 0.8760 0.8750 0.8750 0.8750
10.758401 0.8750 0.8750 0.8750 0.8750 0.8760
10.792000 0.8760 0.8780 0.8780 0.8750 0.8750
10.825401 0.8730 0.8710 0.8700 0.8680 0.8650
10.859000 0.8600 0.8550 0.8500 0.8410 0.8310
10.892401 0.8210 0.8060 0.7780 0.7280 0.6500
10.926000 0.5400 0.4780 0.3900 0.3150 0.2860
10.959401 0.2360 0.2360 0.2660 0.2960 0.3260
10.992000 0.3560 0.3830 0.4300 0.4960 0.5500
11.025401 0.5950 0.6300 0.6600 0.6860 0.7060
11.059000 0.7260 0.7460 0.7650 0.7960 0.8010
11.092401 0.8110 0.8150 0.8300 0.8400 0.8450
11.126000 0.8500 0.8550 0.8560 0.8580 0.8660
11.159401 0.8680 0.8700 0.8710 0.8750 0.8780
11.193000 0.8800 0.8810 0.8830 0.8850 0.8850
11.226401 0.8860 0.8860 0.8860 0.8880 0.8880
11.259000 0.8880 0.8880 0.8860 0.8860 0.8850
11.292401 0.8800 0.8760 0.8710 0.8680 0.8660
11.326000 0.8630 0.8610 0.8580 0.8580 0.8560
11.359401 0.8530 0.8380 0.8280 0.8110 0.7960
11.393000 0.6660 0.5810 0.5280 0.4880 0.4460
11.426401 0.3810 0.3330 0.3010 0.2780 0.2560
11.460000 0.2110 0.2100 0.2130 0.2630 0.3000
11.493401 0.3280 0.3800 0.4080 0.4610 0.4750
11.526000 0.4880 0.5000 0.5110 0.5230 0.5430
11.559401 0.5600 0.5650 0.5680 0.5650 0.5200
11.593000 0.4850 0.4330 0.3800 0.3510 0.3100
11.626401 0.2680 0.2280 0.2250 0.2280 0.2600
11.660000 0.2950 0.3460 0.3960 0.4360 0.4610
11.693401 0.4860 0.5110 0.5400 0.5660 0.5910
11.727000 0.6110 0.6310 0.6600 0.6850 0.6900
11.760401 0.6960 0.7030 0.7100 0.7180 0.7280
11.794000 0.7360 0.7450 0.7530 0.7610 0.7700
11.827401 0.7750 0.7760 0.7800 0.7810 0.7830
11.860000 0.7830 0.7830 0.7830 0.7830 0.7810
11.893401 0.7800 0.7800 0.7780 0.7730 0.7610
11.927000 0.7580 0.7550 0.7510 0.7450 0.7330
11.960401 0.7250 0.7180 0.7130 0.7080 0.7000
11.994000 0.6910 0.6780 0.6600 0.6360 0.6060
12.027401 0.5810 0.5360 0.5160 0.5050 0.4550
12.061000 0.4100 0.3930 0.3460 0.2980 0.2230
12.094401 0.1930 0.1610 0.1250 0.1010 0.0760
12.127000 0.0660 0.0550 0.0480 0.0430 0.0400
12.160401 0.0400 0.0430 0.0460 0.0510 0.0550
12.194000 0.0650 0.0660 0.0810 0.1080 0.1380
12.227401 0.1730 0.2250 0.2650 0.3030 0.3310
12.261000 0.3560 0.3850 0.4130 0.4410 0.4530
12.294401 0.4630 0.4760 0.4960 0.5260 0.5430
12.328000 0.5550 0.5630 0.5750 0.5930 0.6030
12.361401 0.6230 0.6380 0.6480 0.6560 0.6830
12.394000 0.6960 0.7000 0.7050 0.7130 0.7200
12.427401 0.7260 0.7280 0.7300 0.7350 0.7400
12.461000 0.7460 0.7500 0.7580 0.7630 0.7660
12.494401 0.7700 0.7710 0.7750 0.7780 0.7830
12.528000 0.7860 0.7900 0.7930 0.7950 0.7980
12.561401 0.7980 0.8000 0.8010 0.8030 0.8060
12.595000 0.8100 0.8130 0.8180 0.8210 0.8260
12.628401 0.8310 0.8350 0.8400 0.8410 0.8430
12.662000 0.8460 0.8460 0.8460 0.8460 0.8460
12.695401 0.8460 0.8460 0.8460 0.8460 0.8460
12.728000 0.8460 0.8460 0.8460 0.8460 0.8460
12.761401 0.8450 0.8450 0.8450 0.8450 0.8430
12.795000 0.8410 0.8410 0.8400 0.8360 0.8350
12.828401 0.8260 0.8160 0.8030 0.7950 0.7910
12.862000 0.7910 0.7900 0.7880 0.7880 0.7900
12.895401 0.8000 0.8080 0.8160 0.8200 0.8210
12.929000 0.8250 0.8280 0.8300 0.8310 0.8350
12.962401 0.8410 0.8450 0.8460 0.8480 0.8500
12.995000 0.8530 0.8580 0.8610 0.8630 0.8650
13.028401 0.8680 0.8710 0.8730 0.8750 0.8750
13.062000 0.8750 0.8750 0.8730 0.8730 0.8710
13.095401 0.8700 0.8680 0.8680 0.8660 0.8650
13.129000 0.8630 0.8610 0.8580 0.8550 0.8530
13.162401 0.8510 0.8480 0.8380 0.8180 0.8100
13.196000 0.8080 0.8060 0.8010 0.7960 0.7960
13.229401 0.7900 0.7560 0.7360 0.7000 0.6510
13.262000 0.6030 0.5600 0.5200 0.4810 0.4410
13.295401 0.3980 0.3450 0.2830 0.2080 0.1900
13.329000 0.1710 0.1400 0.1130 0.0910 0.0760
13.362401 0.0650 0.0560 0.0510 0.0500 0.0500
13.396000 0.0500 0.0510 0.0550 0.0610 0.0700
13.429401 0.0810 0.0950 0.1110 0.1300 0.1500
13.463000 0.1660 0.1810 0.1960 0.2280 0.2450
13.496401 0.2610 0.2780 0.2950 0.3130 0.3310
13.530000 0.3500 0.3680 0.3900 0.4100 0.4310
13.563401 0.4530 0.4760 0.5000 0.5250 0.5500
13.596000 0.5630 0.5800 0.6000 0.6230 0.6450
13.629401 0.6650 0.6810 0.6930 0.6960 0.7080
13.663000 0.7350 0.7500 0.7610 0.7700 0.7780
13.696401 0.7850 0.7900 0.7960 0.8000 0.8050
13.730000 0.8110 0.8150 0.8180 0.8230 0.8310
13.763401 0.8450 0.8500 0.8530 0.8550 0.8550
13.797000 0.8550 0.8550 0.8560 0.8580 0.8600
13.830401 0.8630 0.8650 0.8680 0.8730 0.8760
13.863000 0.8780 0.8780 0.8800 0.8800 0.8810
13.896401 0.8810 0.8810 0.8830 0.8830 0.8830
13.930000 0.8810 0.8780 0.8760 0.8750 0.8710
13.963401 0.8650 0.8630 0.8610 0.8560 0.8560
13.997000 0.8550 0.8550 0.8560 0.8580 0.8600
14.030401 0.8610 0.8610 0.8600 0.8580 0.8530
14.064000 0.8460 0.8430 0.8400 0.8330 0.8180
14.097401 0.7880 0.7410 0.6730 0.5750 0.5150
14.130000 0.4700 0.4210 0.3610 0.3250 0.3080
14.163401 0.2810 0.2550 0.2550 0.2810 0.3100
14.197000 0.3330 0.3860 0.4300 0.4710 0.5050
14.230401 0.5350 0.5610 0.5880 0.6150 0.6430
14.264000 0.6700 0.6960 0.7200 0.7400 0.7530
14.297401 0.7660 0.7780 0.7900 0.8000 0.8100
14.331000 0.8180 0.8260 0.8350 0.8430 0.8500
14.364401 0.8550 0.8610 0.8660 0.8700 0.8730
14.398000 0.8760 0.8780 0.8780 0.8800 0.8810
14.431401 0.8830 0.8830 0.8830 0.8850 0.8860
14.464000 0.8910 0.8950 0.8980 0.8980 0.9000
14.497401 0.9000 0.9000 0.9000 0.9010 0.9010
14.531000 0.9000 0.9000 0.9000 0.9010 0.9010
14.564401 0.9010 0.9030 0.9030 0.9030 0.9050
14.598000 0.9050 0.9060 0.9100 0.9110 0.9110
14.631401 0.9130 0.9130 0.9110 0.9110 0.9110
14.665000 0.9100 0.9100 0.9100 0.9100 0.9100
14.698401 0.9080 0.9080 0.9080 0.9080 0.9080
14.731000 0.9080 0.9080 0.9080 0.9060 0.9060
14.764401 0.9050 0.9030 0.9010 0.8960 0.8930
14.798000 0.8900 0.8850 0.8780 0.8710 0.8680
14.831401 0.8630 0.8450 0.8330 0.8150 0.7980
14.865000 0.7860 0.7850 0.7860 0.7880 0.7930
14.898401 0.7960 0.8000 0.8030 0.8060 0.8060
14.932000 0.8080 0.8110 0.8180 0.8250 0.8400
14.965401 0.8500 0.8530 0.8530 0.8510 0.8510
14.998000 0.8530 0.8550 0.8630 0.8710 0.8760
15.031401 0.8860 0.8910 0.8930 0.8960 0.9000
15.065000 0.9010 0.9050 0.9080 0.9100 0.9110
15.098401 0.9150 0.9200 0.9250 0.9280 0.9310
15.132000 0.9330 0.9350 0.9350 0.9330 0.9310
15.165401 0.9300 0.9300 0.9280 0.9280 0.9260
15.199000 0.9260 0.9250 0.9250 0.9260 0.9280
15.232401 0.9300 0.9330 0.9330 0.9360 0.9360
15.266000 0.9360 0.9360 0.9350 0.9350 0.9330
15.299401 0.9330 0.9330 0.9310 0.9310 0.9300
15.332000 0.9280 0.9280 0.9300 0.9300 0.9300
15.365401 0.9310 0.9310 0.9310 0.9330 0.9350
15.399000 0.9350 0.9350 0.9360 0.9380 0.9400
15.432401 0.9410 0.9430 0.9430 0.9450 0.9460
15.466000 0.9460 0.9450 0.9450 0.9450 0.9430
15.499401 0.9430 0.9410 0.9400 0.9400 0.9380
15.533000 0.9360 0.9350 0.9350 0.9350 0.9350
15.566401 0.9360 0.9360 0.9380 0.9400 0.9400
15.599000 0.9410 0.9410 0.9410 0.9430 0.9430
15.632401 0.9460 0.9460 0.9500 0.9500 0.9510
15.666000 0.9510 0.9510 0.9510 0.9500 0.9500
15.699401 0.9500 0.9480 0.9460 0.9460 0.9460
15.733000 0.9480 0.9480 0.9480 0.9500 0.9500
15.766401 0.9480 0.9460 0.9450 0.9450 0.9460
15.800000 0.9480 0.9480 0.9500 0.9500 0.9500
15.833401 0.9480 0.9450 0.9450 0.9460 0.9460
15.866000 0.9460 0.9450 0.9450 0.9430 0.9430
15.899401 0.9410 0.9410 0.9400
##END=
