##TITLE=2-PHENYL-2-(p-AMINOPHENYL)ETHYLAMINE SULATE MONOHYDRATE
##JCAMP-DX=4.24
##DATA TYPE=INFRARED SPECTRUM
##CLASS=COBLENTZ III
##ORIGIN=SMITH KLINE & FRENCH LABS.
##OWNER=COBLENTZ SOCIETY
Collection (C) 2018 copyright by the U.S. Secretary of Commerce
on behalf of the United States of America. All rights reserved.
##DATE=1965/07/07
##MOLFORM=C14 H18 N2 O4 S  * H2 O
##SOURCE REFERENCE=COBLENTZ NO. 7303
##$NIST ID=B6007303
##$NIST SOURCE=COBLENTZ
##$NIST IMAGE=cob7303
##SPECTROMETER/DATA SYSTEM=PERKIN-ELMER 21 (GRATING)
##INSTRUMENT PARAMETERS=NaCl PRISM
##STATE=SOLID (OIL MULL)
$$SPECTRAL CONTAMINATION DUE TO OIL AROUND 2900, 1450, 1380 CM^-^1
##SAMPLING PROCEDURE=TRANSMISSION
##RESOLUTION=2
##DATA PROCESSING=DIGITIZED BY NIST FROM HARD COPY
##XUNITS=MICROMETERS
##YUNITS=TRANSMITTANCE
##XFACTOR=1.000000
##YFACTOR=1
##DELTAX=000.004902
##FIRSTX=1.98
##LASTX=15.0298
##FIRSTY=0.833
##MAXX=15.0298
##MINX=1.98
##MAXY=0.967
##MINY=0.052
##NPOINTS=2663
##XYDATA=(X++(Y..Y))
1.980000 0.8330 0.8340 0.8340 0.8350 0.8330
2.004519 0.8340 0.8340 0.8340 0.8350 0.8360
2.029000 0.8360 0.8380 0.8390 0.8410 0.8440
2.053519 0.8450 0.8460 0.8470 0.8520 0.8560
2.078000 0.8570 0.8600 0.8600 0.8600 0.8600
2.102519 0.8610 0.8610 0.8610 0.8620 0.8620
2.127000 0.8620 0.8620 0.8630 0.8640 0.8640
2.151519 0.8660 0.8660 0.8670 0.8680 0.8690
2.176000 0.8690 0.8720 0.8750 0.8780 0.8780
2.200519 0.8810 0.8830 0.8840 0.8840 0.8850
2.225000 0.8850 0.8860 0.8860 0.8880 0.8880
2.249519 0.8880 0.8880 0.8880 0.8880 0.8880
2.275000 0.8880 0.8880 0.8880 0.8880 0.8880
2.299519 0.8860 0.8850 0.8830 0.8790 0.8780
2.324000 0.8770 0.8770 0.8740 0.8740 0.8740
2.348519 0.8740 0.8750 0.8770 0.8770 0.8780
2.373000 0.8790 0.8790 0.8800 0.8810 0.8830
2.397519 0.8840 0.8880 0.8910 0.8960 0.9000
2.422000 0.9000 0.9000 0.9000 0.9000 0.9000
2.446519 0.9000 0.9000 0.8960 0.8960 0.8960
2.471000 0.8960 0.8970 0.8970 0.9000 0.9020
2.495519 0.9030 0.9080 0.9080 0.9090 0.9090
2.520000 0.9110 0.9130 0.9180 0.9190 0.9220
2.544519 0.9220 0.9300 0.9330 0.9340 0.9340
2.569000 0.9350 0.9360 0.9360 0.9360 0.9360
2.593519 0.9360 0.9360 0.9360 0.9360 0.9360
2.618000 0.9360 0.9360 0.9360 0.9360 0.9360
2.642519 0.9360 0.9360 0.9370 0.9440 0.9460
2.667000 0.9480 0.9510 0.9520 0.9530 0.9560
2.691519 0.9570 0.9580 0.9580 0.9590 0.9620
2.716000 0.9630 0.9640 0.9640 0.9650 0.9640
2.740519 0.9640 0.9640 0.9630 0.9630 0.9620
2.765000 0.9610 0.9560 0.9510 0.9440 0.9350
2.789519 0.9240 0.9120 0.8950 0.8800 0.8660
2.814000 0.8600 0.8520 0.8460 0.8220 0.8130
2.838519 0.8040 0.8000 0.7930 0.7850 0.7760
2.863000 0.7700 0.7630 0.7600 0.7540 0.7500
2.887519 0.7500 0.7500 0.7490 0.7490 0.7460
2.912000 0.7440 0.7430 0.7400 0.7400 0.7390
2.936519 0.7380 0.7380 0.7370 0.7370 0.7380
2.961000 0.7400 0.7450 0.7500 0.7550 0.7550
2.985519 0.7560 0.7570 0.7590 0.7600 0.7610
3.010000 0.7650 0.7670 0.7680 0.7700 0.7760
3.034519 0.7780 0.7810 0.7820 0.7840 0.7880
3.059000 0.7880 0.7890 0.7890 0.7900 0.7900
3.083519 0.7900 0.7900 0.7890 0.7880 0.7880
3.108000 0.7810 0.7720 0.7650 0.7590 0.7540
3.132519 0.7510 0.7490 0.7430 0.7360 0.7310
3.157000 0.7180 0.7060 0.6890 0.6780 0.6670
3.181519 0.6350 0.6260 0.6210 0.6150 0.6090
3.206000 0.6000 0.5940 0.5850 0.5690 0.5600
3.230519 0.5550 0.5510 0.5460 0.5290 0.5230
3.255000 0.5200 0.5190 0.5150 0.5060 0.5010
3.279519 0.4900 0.4860 0.4790 0.4740 0.4730
3.304000 0.4700 0.4610 0.4560 0.4500 0.4420
3.328519 0.4330 0.4180 0.4120 0.4090 0.4050
3.353000 0.3960 0.3810 0.3660 0.3500 0.3120
3.377519 0.2900 0.2780 0.2650 0.2320 0.2040
3.402000 0.1710 0.0990 0.0760 0.0650 0.0600
3.426519 0.0590 0.0580 0.0570 0.0550 0.0540
3.451000 0.0530 0.0520 0.0520 0.0520 0.0520
3.475519 0.0520 0.0540 0.0550 0.0590 0.0620
3.500000 0.0650 0.0680 0.0700 0.0720 0.0740
3.524519 0.0740 0.0740 0.0740 0.0750 0.0750
3.549000 0.0910 0.1050 0.1330 0.1550 0.1770
3.573519 0.2060 0.2670 0.2740 0.2820 0.2960
3.598000 0.3100 0.3210 0.3260 0.3300 0.3330
3.622519 0.3340 0.3390 0.3390 0.3400 0.3430
3.647000 0.3490 0.3540 0.3600 0.3660 0.3730
3.671519 0.3780 0.3790 0.3840 0.3900 0.3950
3.696000 0.3970 0.3990 0.4000 0.4000 0.4010
3.720519 0.4030 0.4110 0.4130 0.4140 0.4140
3.745000 0.4140 0.4140 0.4130 0.4120 0.4090
3.769519 0.4060 0.4010 0.3920 0.3770 0.3720
3.794000 0.3660 0.3580 0.3540 0.3540 0.3520
3.818519 0.3500 0.3500 0.3500 0.3490 0.3490
3.843000 0.3490 0.3470 0.3490 0.3500 0.3580
3.867519 0.3660 0.3710 0.3730 0.3780 0.3800
3.892000 0.3830 0.3900 0.4050 0.4130 0.4170
3.916519 0.4190 0.4220 0.4290 0.4410 0.4520
3.941000 0.4590 0.4620 0.4690 0.4700 0.4800
3.965519 0.4910 0.5000 0.5010 0.5010 0.5080
3.990000 0.5150 0.5190 0.5240 0.5310 0.5370
4.014519 0.5470 0.5540 0.5590 0.5590 0.5660
4.039000 0.5720 0.5820 0.5900 0.5940 0.6020
4.063519 0.6070 0.6140 0.6210 0.6300 0.6370
4.088000 0.6470 0.6520 0.6540 0.6610 0.6650
4.112519 0.6690 0.6720 0.6800 0.6810 0.6830
4.137000 0.6920 0.6990 0.7010 0.7060 0.7100
4.161519 0.7120 0.7160 0.7200 0.7220 0.7270
4.186000 0.7310 0.7340 0.7390 0.7450 0.7500
4.210519 0.7540 0.7570 0.7600 0.7600 0.7610
4.235000 0.7610 0.7620 0.7620 0.7630 0.7630
4.259519 0.7630 0.7650 0.7630 0.7660 0.7670
4.284000 0.7680 0.7700 0.7680 0.7700 0.7700
4.308519 0.7710 0.7730 0.7790 0.7810 0.7830
4.333000 0.7880 0.7930 0.8000 0.8050 0.8090
4.357519 0.8090 0.8110 0.8130 0.8180 0.8190
4.382000 0.8210 0.8210 0.8220 0.8220 0.8220
4.406519 0.8260 0.8290 0.8320 0.8340 0.8350
4.431000 0.8390 0.8390 0.8400 0.8410 0.8430
4.455519 0.8440 0.8430 0.8440 0.8450 0.8490
4.480000 0.8520 0.8520 0.8540 0.8550 0.8550
4.504519 0.8560 0.8570 0.8570 0.8580 0.8580
4.529000 0.8610 0.8620 0.8630 0.8640 0.8660
4.553519 0.8660 0.8680 0.8690 0.8710 0.8710
4.578000 0.8710 0.8710 0.8710 0.8710 0.8710
4.602519 0.8710 0.8690 0.8640 0.8580 0.8560
4.627000 0.8520 0.8500 0.8490 0.8430 0.8410
4.651519 0.8400 0.8400 0.8390 0.8390 0.8390
4.676000 0.8390 0.8390 0.8390 0.8300 0.8290
4.700519 0.8290 0.8230 0.8210 0.8180 0.8170
4.725000 0.8150 0.8150 0.8150 0.8150 0.8150
4.749519 0.8150 0.8150 0.8150 0.8150 0.8150
4.775000 0.8160 0.8160 0.8180 0.8180 0.8190
4.799519 0.8190 0.8180 0.8180 0.8180 0.8180
4.824000 0.8190 0.8190 0.8190 0.8190 0.8190
4.848519 0.8190 0.8210 0.8220 0.8230 0.8240
4.873000 0.8260 0.8270 0.8290 0.8300 0.8320
4.897519 0.8330 0.8340 0.8350 0.8360 0.8380
4.922000 0.8380 0.8390 0.8430 0.8460 0.8500
4.946519 0.8510 0.8540 0.8580 0.8600 0.8600
4.971000 0.8610 0.8620 0.8630 0.8670 0.8680
4.995519 0.8710 0.8710 0.8730 0.8740 0.8750
5.020000 0.8780 0.8790 0.8790 0.8780 0.8790
5.044519 0.8790 0.8790 0.8810 0.8840 0.8860
5.069000 0.8890 0.8900 0.8960 0.8970 0.8990
5.093519 0.9000 0.9000 0.9010 0.9020 0.9020
5.118000 0.9020 0.9030 0.9030 0.9050 0.9050
5.142519 0.9060 0.9060 0.9080 0.9110 0.9120
5.167000 0.9130 0.9140 0.9170 0.9180 0.9190
5.191519 0.9200 0.9220 0.9220 0.9220 0.9200
5.216000 0.9200 0.9200 0.9200 0.9200 0.9200
5.240519 0.9200 0.9200 0.9200 0.9220 0.9230
5.265000 0.9240 0.9290 0.9290 0.9300 0.9330
5.289519 0.9330 0.9340 0.9340 0.9350 0.9350
5.314000 0.9360 0.9360 0.9390 0.9410 0.9420
5.338519 0.9420 0.9440 0.9450 0.9450 0.9450
5.363000 0.9450 0.9460 0.9460 0.9460 0.9460
5.387519 0.9470 0.9470 0.9470 0.9470 0.9470
5.412000 0.9470 0.9470 0.9470 0.9470 0.9470
5.436519 0.9480 0.9500 0.9500 0.9510 0.9510
5.461000 0.9520 0.9520 0.9530 0.9530 0.9540
5.485519 0.9540 0.9560 0.9560 0.9560 0.9560
5.510000 0.9560 0.9560 0.9560 0.9560 0.9560
5.534519 0.9560 0.9560 0.9560 0.9560 0.9560
5.559000 0.9560 0.9560 0.9540 0.9560 0.9560
5.583519 0.9560 0.9560 0.9560 0.9570 0.9570
5.608000 0.9580 0.9590 0.9590 0.9610 0.9610
5.632519 0.9630 0.9630 0.9640 0.9650 0.9670
5.657000 0.9670 0.9670 0.9670 0.9670 0.9670
5.681519 0.9670 0.9670 0.9650 0.9650 0.9650
5.706000 0.9650 0.9650 0.9650 0.9650 0.9650
5.730519 0.9650 0.9650 0.9640 0.9640 0.9630
5.755000 0.9630 0.9630 0.9630 0.9620 0.9620
5.779519 0.9620 0.9610 0.9610 0.9610 0.9610
5.804000 0.9610 0.9590 0.9590 0.9590 0.9590
5.828519 0.9590 0.9590 0.9590 0.9590 0.9570
5.853000 0.9570 0.9570 0.9540 0.9520 0.9510
5.877519 0.9500 0.9420 0.9410 0.9410 0.9420
5.902000 0.9420 0.9420 0.9420 0.9400 0.9390
5.926519 0.9360 0.9350 0.9330 0.9310 0.9280
5.951000 0.9250 0.9230 0.9190 0.9160 0.9120
5.975519 0.9010 0.9000 0.8960 0.8950 0.8920
6.000000 0.8900 0.8810 0.8780 0.8710 0.8610
6.024519 0.8510 0.8440 0.8360 0.8230 0.8180
6.049000 0.8070 0.8010 0.7960 0.7900 0.7890
6.073519 0.7830 0.7670 0.7480 0.7360 0.7290
6.098000 0.7250 0.7210 0.7120 0.7100 0.7050
6.122519 0.6900 0.6750 0.6590 0.6540 0.6520
6.147000 0.6500 0.6490 0.6490 0.6450 0.6370
6.171519 0.6270 0.6220 0.6210 0.6190 0.6160
6.196000 0.6130 0.6110 0.6100 0.6110 0.6160
6.220519 0.6180 0.6310 0.6330 0.6390 0.6450
6.245000 0.6560 0.6660 0.6710 0.6760 0.6830
6.269519 0.6900 0.6940 0.7000 0.7100 0.7120
6.294000 0.7170 0.7220 0.7230 0.7230 0.7160
6.318519 0.7110 0.7100 0.7030 0.6900 0.6890
6.343000 0.6890 0.6890 0.6880 0.6880 0.6880
6.367519 0.6880 0.6880 0.6870 0.6860 0.6840
6.392000 0.6830 0.6810 0.6800 0.6800 0.6750
6.416519 0.6730 0.6710 0.6700 0.6690 0.6500
6.441000 0.6370 0.6280 0.6160 0.6140 0.6090
6.465519 0.6070 0.6050 0.6050 0.6040 0.6030
6.490000 0.6030 0.6030 0.6030 0.6040 0.6040
6.514519 0.6040 0.6040 0.6070 0.6180 0.6270
6.539000 0.6480 0.6560 0.6640 0.6700 0.6720
6.563519 0.6730 0.6750 0.6760 0.6720 0.6360
6.588000 0.6180 0.5960 0.5740 0.5460 0.5030
6.612519 0.4760 0.4780 0.4960 0.5010 0.5040
6.637000 0.5300 0.5550 0.5820 0.6030 0.6220
6.661519 0.6470 0.6650 0.6830 0.6810 0.6810
6.686000 0.6670 0.6390 0.6370 0.6390 0.6440
6.710519 0.6610 0.6780 0.7000 0.7150 0.7230
6.735000 0.7310 0.7390 0.7390 0.7400 0.7400
6.759519 0.7320 0.7270 0.7170 0.7100 0.7040
6.784000 0.6980 0.6920 0.6350 0.6250 0.5650
6.808519 0.5450 0.5040 0.4400 0.4180 0.4020
6.833000 0.3890 0.3750 0.3610 0.3520 0.3440
6.857519 0.3340 0.3330 0.3340 0.3340 0.3340
6.882000 0.3380 0.3470 0.3720 0.3910 0.4020
6.906519 0.4130 0.4250 0.4400 0.4500 0.4780
6.931000 0.5140 0.5490 0.5870 0.6020 0.6140
6.955519 0.6270 0.6440 0.6530 0.6610 0.6700
6.980000 0.6970 0.7200 0.7420 0.7610 0.7810
7.004519 0.7960 0.8150 0.8300 0.8380 0.8440
7.029000 0.8600 0.8620 0.8630 0.8690 0.8740
7.053519 0.8770 0.8800 0.8810 0.8830 0.8830
7.078000 0.8840 0.8840 0.8890 0.8890 0.8900
7.102519 0.8920 0.8940 0.8970 0.8990 0.8990
7.127000 0.9000 0.9000 0.9000 0.9000 0.9000
7.151519 0.9000 0.9000 0.9000 0.8970 0.8940
7.176000 0.8920 0.8910 0.8710 0.8680 0.8570
7.200519 0.8450 0.8340 0.8090 0.8090 0.7950
7.225000 0.7310 0.7230 0.7060 0.6860 0.6350
7.249519 0.6200 0.5970 0.5770 0.5640 0.5460
7.275000 0.5310 0.5190 0.5180 0.5170 0.5180
7.299519 0.5190 0.5620 0.6080 0.6420 0.6630
7.324000 0.6820 0.6840 0.6890 0.6890 0.6920
7.348519 0.6990 0.7050 0.7210 0.7530 0.7730
7.373000 0.7890 0.8020 0.8050 0.8090 0.8130
7.397519 0.8180 0.8220 0.8240 0.8260 0.8260
7.422000 0.8270 0.8290 0.8290 0.8320 0.8330
7.446519 0.8340 0.8350 0.8380 0.8390 0.8390
7.471000 0.8390 0.8390 0.8380 0.8360 0.8350
7.495519 0.8340 0.8320 0.8300 0.8290 0.8270
7.520000 0.8270 0.8260 0.8240 0.8240 0.8240
7.544519 0.8240 0.8240 0.8240 0.8240 0.8260
7.569000 0.8260 0.8270 0.8320 0.8340 0.8360
7.593519 0.8410 0.8450 0.8450 0.8460 0.8450
7.618000 0.8450 0.8440 0.8410 0.8390 0.8390
7.642519 0.8380 0.8360 0.8380 0.8390 0.8390
7.667000 0.8440 0.8460 0.8500 0.8510 0.8540
7.691519 0.8560 0.8560 0.8560 0.8560 0.8570
7.716000 0.8580 0.8600 0.8620 0.8630 0.8640
7.740519 0.8660 0.8690 0.8690 0.8730 0.8750
7.765000 0.8780 0.8790 0.8800 0.8810 0.8810
7.789519 0.8810 0.8810 0.8810 0.8810 0.8810
7.814000 0.8810 0.8830 0.8830 0.8840 0.8840
7.838519 0.8850 0.8850 0.8860 0.8860 0.8880
7.863000 0.8880 0.8880 0.8880 0.8880 0.8890
7.887519 0.8880 0.8880 0.8880 0.8880 0.8860
7.912000 0.8850 0.8840 0.8840 0.8830 0.8830
7.936519 0.8810 0.8810 0.8800 0.8750 0.8720
7.961000 0.8710 0.8680 0.8680 0.8670 0.8670
7.985519 0.8680 0.8690 0.8710 0.8720 0.8740
8.010000 0.8750 0.8780 0.8810 0.8840 0.8850
8.034519 0.8860 0.8860 0.8860 0.8860 0.8860
8.059000 0.8860 0.8860 0.8860 0.8860 0.8860
8.083519 0.8860 0.8860 0.8850 0.8840 0.8830
8.108000 0.8830 0.8810 0.8750 0.8740 0.8720
8.132519 0.8710 0.8710 0.8710 0.8690 0.8690
8.157000 0.8660 0.8610 0.8550 0.8510 0.8450
8.181519 0.8400 0.8350 0.8260 0.8240 0.8240
8.206000 0.8240 0.8270 0.8300 0.8330 0.8350
8.230519 0.8360 0.8390 0.8410 0.8410 0.8380
8.255000 0.8360 0.8300 0.8290 0.8290 0.8290
8.279519 0.8290 0.8290 0.8290 0.8290 0.8260
8.304000 0.8230 0.8210 0.8180 0.8160 0.8130
8.328519 0.8120 0.8110 0.8100 0.8060 0.8020
8.353000 0.7900 0.7840 0.7700 0.7630 0.7600
8.377519 0.7590 0.7560 0.7540 0.7490 0.7430
8.402000 0.7380 0.7340 0.7310 0.7280 0.7230
8.426519 0.7220 0.7200 0.7160 0.7060 0.6990
8.451000 0.6920 0.6860 0.6750 0.6560 0.6530
8.475519 0.6470 0.6430 0.6420 0.6410 0.6390
8.500000 0.6390 0.6360 0.6310 0.6280 0.6240
8.524519 0.6210 0.6150 0.6070 0.6030 0.6020
8.549000 0.5960 0.5880 0.5850 0.5760 0.5660
8.573519 0.5570 0.5540 0.5460 0.5450 0.5370
8.598000 0.5270 0.5200 0.5120 0.5040 0.4860
8.622519 0.4760 0.4670 0.4570 0.4450 0.4350
8.647000 0.4250 0.4070 0.3850 0.3690 0.3660
8.671519 0.3640 0.3630 0.3630 0.3630 0.3620
8.696000 0.3600 0.3560 0.3540 0.3510 0.3340
8.720519 0.3160 0.3050 0.3010 0.2900 0.2890
8.745000 0.2830 0.2760 0.2660 0.2600 0.2490
8.769519 0.2400 0.2330 0.2260 0.2210 0.2170
8.794000 0.2150 0.2120 0.2110 0.2100 0.2090
8.818519 0.2080 0.2080 0.2060 0.2050 0.2050
8.843000 0.2040 0.2040 0.2040 0.2040 0.2040
8.867519 0.2040 0.2050 0.2050 0.2060 0.2060
8.892000 0.2100 0.2110 0.2120 0.2120 0.2140
8.916519 0.2150 0.2150 0.2150 0.2150 0.2150
8.941000 0.2150 0.2160 0.2160 0.2150 0.2150
8.965519 0.2150 0.2150 0.2140 0.2120 0.2120
8.990000 0.2110 0.2110 0.2100 0.2090 0.2090
9.014519 0.2080 0.2080 0.2050 0.2040 0.2010
9.039000 0.1990 0.1980 0.1950 0.1950 0.1940
9.063519 0.1930 0.1930 0.1930 0.1930 0.1940
9.088000 0.1950 0.1970 0.1970 0.1990 0.2010
9.112519 0.2040 0.2060 0.2090 0.2110 0.2140
9.137000 0.2150 0.2200 0.2200 0.2210 0.2210
9.161519 0.2220 0.2250 0.2250 0.2260 0.2270
9.186000 0.2280 0.2280 0.2290 0.2290 0.2280
9.210519 0.2270 0.2260 0.2260 0.2250 0.2230
9.235000 0.2230 0.2230 0.2250 0.2250 0.2230
9.259519 0.2230 0.2220 0.2220 0.2220 0.2220
9.284000 0.2210 0.2200 0.2200 0.2200 0.2200
9.308519 0.2210 0.2210 0.2220 0.2230 0.2230
9.333000 0.2230 0.2230 0.2230 0.2230 0.2230
9.357519 0.2220 0.2220 0.2220 0.2220 0.2220
9.382000 0.2220 0.2230 0.2230 0.2230 0.2230
9.406519 0.2260 0.2270 0.2270 0.2310 0.2330
9.431000 0.2370 0.2430 0.2440 0.2450 0.2490
9.455519 0.2500 0.2510 0.2540 0.2570 0.2660
9.480000 0.2720 0.2770 0.2810 0.2820 0.2830
9.504519 0.2820 0.2830 0.2870 0.2880 0.2960
9.529000 0.3010 0.3020 0.3050 0.3070 0.3070
9.553519 0.3090 0.3090 0.3100 0.3110 0.3120
9.578000 0.3130 0.3160 0.3170 0.3170 0.3180
9.602519 0.3180 0.3180 0.3170 0.3170 0.3170
9.627000 0.3160 0.3150 0.3120 0.3110 0.3100
9.651519 0.3090 0.3090 0.3100 0.3100 0.3100
9.676000 0.3100 0.3120 0.3130 0.3160 0.3180
9.700519 0.3190 0.3210 0.3220 0.3240 0.3270
9.725000 0.3320 0.3340 0.3360 0.3440 0.3540
9.749519 0.3640 0.3710 0.3830 0.3850 0.3900
9.775000 0.4080 0.4090 0.4110 0.4120 0.4110
9.799519 0.4110 0.4090 0.4070 0.4050 0.4030
9.824000 0.4010 0.4010 0.4010 0.4020 0.4030
9.848519 0.4760 0.4950 0.5000 0.5040 0.5140
9.873000 0.5200 0.5310 0.5460 0.5570 0.5630
9.897519 0.5650 0.5700 0.5870 0.6020 0.6070
9.922000 0.6130 0.6190 0.6250 0.6310 0.6360
9.946519 0.6390 0.6410 0.6420 0.6430 0.6440
9.971000 0.6440 0.6440 0.6440 0.6440 0.6440
9.995519 0.6440 0.6440 0.6450 0.6520 0.6540
10.020000 0.6630 0.6670 0.6710 0.6800 0.6820
10.044519 0.6840 0.6880 0.6940 0.6990 0.7000
10.069000 0.7010 0.7040 0.7060 0.7090 0.7100
10.093519 0.7110 0.7140 0.7200 0.7200 0.7210
10.118000 0.7270 0.7290 0.7320 0.7330 0.7340
10.142519 0.7370 0.7390 0.7420 0.7430 0.7430
10.167000 0.7430 0.7430 0.7430 0.7430 0.7430
10.191519 0.7430 0.7420 0.7390 0.7370 0.7330
10.216000 0.7280 0.7230 0.7180 0.7140 0.7100
10.240519 0.7060 0.7030 0.7000 0.6990 0.6940
10.265000 0.6920 0.6890 0.6870 0.6840 0.6820
10.289519 0.6810 0.6810 0.6810 0.6810 0.6810
10.314000 0.6820 0.6820 0.6830 0.6860 0.6880
10.338519 0.6900 0.6920 0.6930 0.6950 0.6950
10.363000 0.6970 0.6980 0.6980 0.6980 0.6980
10.387519 0.6980 0.6980 0.6980 0.6990 0.6990
10.412000 0.6990 0.7010 0.7150 0.7210 0.7230
10.436519 0.7230 0.7280 0.7280 0.7320 0.7360
10.461000 0.7450 0.7500 0.7500 0.7540 0.7570
10.485519 0.7610 0.7620 0.7660 0.7670 0.7700
10.510000 0.7680 0.7700 0.7700 0.7710 0.7710
10.534519 0.7720 0.7730 0.7740 0.7770 0.7790
10.559000 0.7790 0.7810 0.7810 0.7820 0.7820
10.583519 0.7820 0.7820 0.7820 0.7820 0.7830
10.608000 0.7840 0.7870 0.7880 0.7900 0.7900
10.632519 0.7910 0.7940 0.7980 0.8010 0.8020
10.657000 0.8020 0.8020 0.8020 0.8020 0.8020
10.681519 0.8010 0.8010 0.7900 0.7820 0.7790
10.706000 0.7770 0.7740 0.7740 0.7740 0.7730
10.730519 0.7730 0.7730 0.7720 0.7710 0.7710
10.755000 0.7700 0.7680 0.7680 0.7700 0.7710
10.779519 0.7730 0.7760 0.7780 0.7790 0.7790
10.804000 0.7810 0.7820 0.7840 0.7890 0.7960
10.828519 0.8020 0.8070 0.8110 0.8150 0.8190
10.853000 0.8220 0.8270 0.8300 0.8330 0.8350
10.877519 0.8380 0.8430 0.8440 0.8450 0.8450
10.902000 0.8460 0.8470 0.8470 0.8490 0.8490
10.926519 0.8490 0.8490 0.8490 0.8490 0.8500
10.951000 0.8500 0.8510 0.8510 0.8510 0.8510
10.975519 0.8510 0.8510 0.8510 0.8500 0.8410
11.000000 0.8360 0.8160 0.8070 0.8020 0.7950
11.024519 0.7900 0.7840 0.7830 0.7810 0.7790
11.049000 0.7790 0.7820 0.7880 0.7950 0.8050
11.073519 0.8120 0.8180 0.8190 0.8210 0.8220
11.098000 0.8270 0.8320 0.8350 0.8520 0.8560
11.122519 0.8600 0.8600 0.8630 0.8660 0.8670
11.147000 0.8680 0.8680 0.8690 0.8690 0.8690
11.171519 0.8710 0.8710 0.8710 0.8720 0.8720
11.196000 0.8740 0.8790 0.8800 0.8830 0.8830
11.220519 0.8840 0.8850 0.8860 0.8880 0.8890
11.245000 0.8890 0.8890 0.8900 0.8900 0.8900
11.269519 0.8900 0.8920 0.8920 0.8940 0.8950
11.294000 0.8950 0.8960 0.8970 0.8970 0.8990
11.318519 0.8990 0.8990 0.8990 0.9000 0.9000
11.343000 0.9000 0.9000 0.9010 0.9010 0.9010
11.367519 0.9020 0.9020 0.9020 0.9020 0.9030
11.392000 0.9030 0.9030 0.9050 0.9050 0.9050
11.416519 0.9050 0.9060 0.9060 0.9060 0.9060
11.441000 0.9060 0.9060 0.9060 0.9060 0.9060
11.465519 0.9050 0.9060 0.9050 0.9050 0.9050
11.490000 0.9030 0.9030 0.9010 0.9000 0.8990
11.514519 0.8970 0.8960 0.8950 0.8900 0.8860
11.539000 0.8800 0.8670 0.8600 0.8550 0.8510
11.563519 0.8410 0.8240 0.8210 0.8150 0.8060
11.588000 0.8010 0.7980 0.7940 0.7930 0.7940
11.612519 0.7950 0.8090 0.8220 0.8290 0.8360
11.637000 0.8510 0.8570 0.8620 0.8680 0.8770
11.661519 0.8800 0.8810 0.8840 0.8890 0.8910
11.686000 0.8940 0.8950 0.8970 0.8970 0.8990
11.710519 0.9000 0.9010 0.9010 0.9020 0.9020
11.735000 0.9020 0.9020 0.9020 0.9030 0.9030
11.759519 0.9030 0.9030 0.9030 0.9020 0.9020
11.784000 0.9020 0.9010 0.9010 0.9000 0.8990
11.808519 0.8970 0.8960 0.8950 0.8940 0.8920
11.833000 0.8910 0.8900 0.8890 0.8880 0.8880
11.857519 0.8860 0.8860 0.8850 0.8850 0.8840
11.882000 0.8840 0.8840 0.8840 0.8840 0.8840
11.906519 0.8850 0.8850 0.8850 0.8860 0.8880
11.931000 0.8900 0.8900 0.8920 0.8920 0.8920
11.955519 0.8920 0.8920 0.8920 0.8920 0.8920
11.980000 0.8920 0.8920 0.8900 0.8810 0.8800
12.004519 0.8770 0.8720 0.8690 0.8640 0.8620
12.029000 0.8610 0.8570 0.8470 0.8380 0.8260
12.053519 0.8170 0.8100 0.8050 0.8040 0.8020
12.078000 0.8010 0.8010 0.8000 0.8000 0.7990
12.102519 0.7990 0.7980 0.7980 0.7960 0.7960
12.127000 0.7950 0.7940 0.7930 0.7880 0.7820
12.151519 0.7790 0.7780 0.7770 0.7760 0.7760
12.176000 0.7740 0.7740 0.7720 0.7700 0.7680
12.200519 0.7670 0.7660 0.7660 0.7660 0.7670
12.225000 0.7680 0.7680 0.7720 0.7740 0.7760
12.249519 0.7760 0.7780 0.7870 0.7950 0.8010
12.275000 0.8060 0.8100 0.8150 0.8190 0.8260
12.299519 0.8280 0.8300 0.8300 0.8320 0.8330
12.324000 0.8340 0.8350 0.8400 0.8410 0.8440
12.348519 0.8460 0.8500 0.8500 0.8510 0.8520
12.373000 0.8550 0.8600 0.8630 0.8690 0.8710
12.397519 0.8740 0.8780 0.8790 0.8800 0.8830
12.422000 0.8890 0.8900 0.8910 0.8920 0.8940
12.446519 0.8950 0.8960 0.8990 0.8990 0.9000
12.471000 0.9000 0.9010 0.9020 0.9030 0.9030
12.495519 0.9030 0.9030 0.9060 0.9080 0.9080
12.520000 0.9080 0.9090 0.9090 0.9090 0.9090
12.544519 0.9090 0.9090 0.9090 0.9090 0.9090
12.569000 0.9110 0.9120 0.9120 0.9140 0.9180
12.593519 0.9200 0.9200 0.9200 0.9200 0.9220
12.618000 0.9220 0.9220 0.9220 0.9220 0.9220
12.642519 0.9220 0.9220 0.9230 0.9230 0.9250
12.667000 0.9250 0.9240 0.9240 0.9230 0.9230
12.691519 0.9220 0.9220 0.9200 0.9200 0.9220
12.716000 0.9220 0.9220 0.9220 0.9220 0.9230
12.740519 0.9230 0.9230 0.9230 0.9220 0.9220
12.765000 0.9200 0.9200 0.9190 0.9180 0.9180
12.789519 0.9170 0.9170 0.9160 0.9160 0.9160
12.814000 0.9140 0.9130 0.9110 0.9110 0.9090
12.838519 0.9090 0.9080 0.9080 0.9070 0.9060
12.863000 0.9050 0.9020 0.9010 0.9010 0.9000
12.887519 0.9000 0.8970 0.8970 0.8960 0.8940
12.912000 0.8910 0.8890 0.8850 0.8830 0.8810
12.936519 0.8780 0.8740 0.8710 0.8640 0.8620
12.961000 0.8570 0.8490 0.8430 0.8380 0.8220
12.985519 0.8120 0.8000 0.7880 0.7740 0.7600
13.010000 0.7420 0.7220 0.7000 0.6860 0.6720
13.034519 0.6500 0.6390 0.6240 0.6180 0.6110
13.059000 0.6090 0.6090 0.6080 0.6090 0.6110
13.083519 0.6190 0.6240 0.6300 0.6390 0.6490
13.108000 0.6590 0.6640 0.6690 0.6770 0.6920
13.132519 0.7010 0.7110 0.7210 0.7260 0.7330
13.157000 0.7340 0.7340 0.7360 0.7360 0.7360
13.181519 0.7360 0.7370 0.7390 0.7420 0.7480
13.206000 0.7570 0.7650 0.7680 0.7720 0.7740
13.230519 0.7770 0.7780 0.7790 0.7820 0.7890
13.255000 0.7950 0.8010 0.8040 0.8070 0.8120
13.279519 0.8120 0.8130 0.8150 0.8190 0.8240
13.304000 0.8260 0.8270 0.8300 0.8320 0.8360
13.328519 0.8400 0.8410 0.8460 0.8490 0.8500
13.353000 0.8510 0.8510 0.8520 0.8520 0.8540
13.377519 0.8540 0.8550 0.8550 0.8540 0.8540
13.402000 0.8540 0.8540 0.8520 0.8520 0.8520
13.426519 0.8520 0.8510 0.8510 0.8510 0.8500
13.451000 0.8500 0.8490 0.8490 0.8490 0.8470
13.475519 0.8470 0.8460 0.8460 0.8460 0.8450
13.500000 0.8440 0.8430 0.8410 0.8400 0.8360
13.524519 0.8340 0.8300 0.8290 0.8260 0.8130
13.549000 0.8070 0.8070 0.8090 0.8110 0.8180
13.573519 0.8190 0.8210 0.8210 0.8210 0.8210
13.598000 0.8210 0.8210 0.8190 0.8180 0.8180
13.622519 0.8180 0.8170 0.8160 0.8150 0.8130
13.647000 0.8120 0.8100 0.8090 0.8050 0.8050
13.671519 0.8040 0.8040 0.8010 0.7980 0.7950
13.696000 0.7930 0.7910 0.7890 0.7820 0.7780
13.720519 0.7730 0.7720 0.7710 0.7700 0.7610
13.745000 0.7570 0.7490 0.7420 0.7290 0.7210
13.769519 0.7140 0.7060 0.6990 0.6920 0.6840
13.794000 0.6820 0.6780 0.6720 0.6710 0.6720
13.818519 0.6750 0.6800 0.6840 0.6890 0.6890
13.843000 0.6950 0.7030 0.7090 0.7170 0.7210
13.867519 0.7250 0.7310 0.7370 0.7380 0.7390
13.892000 0.7430 0.7500 0.7600 0.7610 0.7620
13.916519 0.7650 0.7650 0.7650 0.7650 0.7660
13.941000 0.7670 0.7670 0.7700 0.7710 0.7730
13.965519 0.7730 0.7740 0.7740 0.7740 0.7740
13.990000 0.7740 0.7740 0.7740 0.7760 0.7760
14.014519 0.7760 0.7760 0.7770 0.7770 0.7770
14.039000 0.7770 0.7770 0.7760 0.7760 0.7740
14.063519 0.7740 0.7730 0.7720 0.7710 0.7650
14.088000 0.7630 0.7610 0.7570 0.7530 0.7500
14.112519 0.7440 0.7400 0.7310 0.7250 0.7210
14.137000 0.7150 0.7110 0.7060 0.6930 0.6820
14.161519 0.6710 0.6540 0.6470 0.6410 0.6320
14.186000 0.6210 0.6110 0.6020 0.5930 0.5850
14.210519 0.5760 0.5660 0.5620 0.5570 0.5550
14.235000 0.5520 0.5530 0.5590 0.5740 0.5800
14.259519 0.5880 0.5960 0.6030 0.6090 0.6160
14.284000 0.6240 0.6310 0.6360 0.6410 0.6440
14.308519 0.6470 0.6520 0.6520 0.6520 0.6520
14.333000 0.6500 0.6490 0.6480 0.6430 0.6210
14.357519 0.6100 0.5960 0.5860 0.5760 0.5630
14.382000 0.5540 0.5430 0.5340 0.5310 0.5260
14.406519 0.5250 0.5250 0.5290 0.5490 0.5600
14.431000 0.5660 0.5770 0.5920 0.6110 0.6370
14.455519 0.6530 0.6650 0.6700 0.6730 0.6820
14.480000 0.6900 0.6930 0.6980 0.7030 0.7110
14.504519 0.7160 0.7210 0.7260 0.7320 0.7340
14.529000 0.7340 0.7360 0.7360 0.7370 0.7370
14.553519 0.7380 0.7390 0.7450 0.7480 0.7490
14.578000 0.7500 0.7500 0.7500 0.7500 0.7500
14.602519 0.7510 0.7510 0.7510 0.7510 0.7510
14.627000 0.7510 0.7510 0.7510 0.7510 0.7510
14.651519 0.7510 0.7510 0.7510 0.7510 0.7500
14.676000 0.7490 0.7480 0.7460 0.7450 0.7430
14.700519 0.7430 0.7430 0.7430 0.7430 0.7430
14.725000 0.7440 0.7430 0.7430 0.7430 0.7430
14.749519 0.7430 0.7430 0.7420 0.7430 0.7420
14.775000 0.7420 0.7420 0.7400 0.7400 0.7390
14.799519 0.7380 0.7370 0.7360 0.7360 0.7310
14.824000 0.7280 0.7230 0.7220 0.7220 0.7220
14.848519 0.7220 0.7220 0.7220 0.7220 0.7220
14.873000 0.7220 0.7220 0.7220 0.7220 0.7220
14.897519 0.7220 0.7220 0.7210 0.7210 0.7200
14.922000 0.7170 0.7150 0.7140 0.7120 0.7120
14.946519 0.7140 0.7140 0.7150 0.7150 0.7150
14.971000 0.7150 0.7150 0.7150 0.7150 0.7140
14.995519 0.7120 0.7110 0.7100 0.7090 0.7060
15.020000 0.7010 0.6990 0.6950
##END=
