##TITLE=N,N,N',N'-TETRAMETHYL-P-PHENYLENEDIAMINE DIHYDROCHLORIDE
$$ E.K. (W.L.)
##JCAMP-DX=4.24
##DATA TYPE=INFRARED SPECTRUM
##CLASS=COBLENTZ
##ORIGIN=WYANDOTTE CHEMICALS CORP., WYANDOTTE, MICHIGAN, USA
##OWNER=COBLENTZ SOCIETY
Collection (C) 2018 copyright by the U.S. Secretary of Commerce
on behalf of the United States of America. All rights reserved.
##DATE=Not specified, most likely prior to 1970
##MOLFORM=C10 H18 Cl2 N2
##SOURCE REFERENCE=COBLENTZ NO. 1457
##$NIST ID=B6001457
##$NIST SOURCE=COBLENTZ
##$NIST IMAGE=cob1457
##SPECTROMETER/DATA SYSTEM=Not specified, most likely a prism, grating, or hybrid spectrometer.
##STATE=SOLID (MINERAL OIL MULL)
##SAMPLING PROCEDURE=TRANSMISSION
##RESOLUTION=4
##DATA PROCESSING=DIGITIZED BY NIST FROM HARD COPY
##XUNITS=MICROMETERS
##YUNITS=TRANSMITTANCE
##XFACTOR=1.000000
##YFACTOR=1
##DELTAX=000.006826
##FIRSTX=2.116
##LASTX=15.9867
##FIRSTY=0.421
##MAXX=15.9867
##MINX=2.116
##MAXY=0.95
##MINY=0.023
##NPOINTS=2033
##XYDATA=(X++(Y..Y))
2.116000 0.4210 0.4210 0.4210 0.4210 0.4210
2.150146 0.4210 0.4210 0.4210 0.4210 0.4210
2.184000 0.4210 0.4210 0.4210 0.4210 0.4210
2.218146 0.4210 0.4210 0.4210 0.4210 0.4230
2.253000 0.4230 0.4230 0.4230 0.4250 0.4260
2.287146 0.4310 0.4350 0.4400 0.4420 0.4430
2.321000 0.4430 0.4450 0.4500 0.4540 0.4570
2.355146 0.4600 0.4620 0.4650 0.4670 0.4690
2.389000 0.4720 0.4760 0.4790 0.4820 0.4880
2.423146 0.4910 0.4980 0.5030 0.5030 0.5100
2.457000 0.5110 0.5130 0.5170 0.5200 0.5220
2.491146 0.5220 0.5230 0.5230 0.5250 0.5250
2.526000 0.5270 0.5300 0.5340 0.5390 0.5440
2.560146 0.5470 0.5490 0.5520 0.5560 0.5620
2.594000 0.5640 0.5640 0.5640 0.5640 0.5680
2.628146 0.5710 0.5740 0.5790 0.5850 0.5860
2.662000 0.5880 0.5910 0.5910 0.5910 0.5950
2.696146 0.5960 0.5960 0.5960 0.5980 0.5980
2.730000 0.5980 0.6000 0.6000 0.6000 0.6000
2.764146 0.5980 0.5960 0.5960 0.5960 0.5950
2.799000 0.5930 0.5930 0.5910 0.5910 0.5900
2.833146 0.5880 0.5860 0.5850 0.5830 0.5810
2.867000 0.5810 0.5790 0.5790 0.5780 0.5760
2.901146 0.5740 0.5730 0.5710 0.5710 0.5690
2.935000 0.5680 0.5620 0.5560 0.5470 0.5390
2.969146 0.5300 0.5220 0.5200 0.5220 0.5230
3.003000 0.5250 0.5280 0.5320 0.5350 0.5390
3.037146 0.5400 0.5440 0.5510 0.5610 0.5730
3.072000 0.5860 0.6000 0.6020 0.6020 0.6000
3.106146 0.5930 0.5850 0.5790 0.5760 0.5730
3.140000 0.5710 0.5680 0.5640 0.5590 0.5470
3.174146 0.5250 0.5010 0.4760 0.4480 0.4470
3.208000 0.4480 0.4540 0.4590 0.4670 0.4670
3.242146 0.4540 0.4040 0.3240 0.2360 0.2000
3.276000 0.1880 0.1750 0.1510 0.1050 0.0740
3.310146 0.0640 0.0590 0.0560 0.0510 0.0450
3.345000 0.0250 0.0230 0.0230 0.0230 0.0270
3.379146 0.0270 0.0270 0.0280 0.0280 0.0320
3.413000 0.0340 0.0340 0.0320 0.0300 0.0300
3.447146 0.0300 0.0300 0.0300 0.0300 0.0300
3.481000 0.0250 0.0230 0.0230 0.0230 0.0270
3.515146 0.0390 0.0560 0.0830 0.1220 0.1780
3.549000 0.2500 0.2950 0.3290 0.3580 0.3790
3.583146 0.3960 0.4060 0.4280 0.4380 0.4500
3.618000 0.4500 0.4500 0.4300 0.4180 0.4090
3.652146 0.3960 0.3820 0.3630 0.3450 0.3290
3.686000 0.3140 0.3010 0.2890 0.2780 0.2680
3.720146 0.2580 0.2480 0.2390 0.2290 0.2190
3.754000 0.2090 0.1950 0.1900 0.1800 0.1730
3.788146 0.1660 0.1580 0.1470 0.1390 0.1320
3.823000 0.1240 0.1190 0.1130 0.1100 0.1070
3.857146 0.1030 0.1020 0.1000 0.1000 0.0980
3.891000 0.0980 0.0960 0.0960 0.0950 0.0930
3.925146 0.0910 0.0880 0.0830 0.0810 0.0780
3.959000 0.0740 0.0730 0.0690 0.0680 0.0680
3.993146 0.0680 0.0640 0.0620 0.0610 0.0570
4.027000 0.0560 0.0560 0.0570 0.0620 0.0680
4.061146 0.0710 0.0780 0.0850 0.0850 0.0730
4.096000 0.0620 0.0570 0.0520 0.0490 0.0450
4.130146 0.0440 0.0400 0.0390 0.0390 0.0370
4.164000 0.0350 0.0350 0.0350 0.0350 0.0350
4.198146 0.0350 0.0340 0.0340 0.0320 0.0300
4.232000 0.0280 0.0280 0.0280 0.0300 0.0320
4.266146 0.0340 0.0370 0.0400 0.0440 0.0470
4.300000 0.0490 0.0520 0.0570 0.0570 0.0570
4.334146 0.0570 0.0570 0.0590 0.0590 0.0570
4.369000 0.0490 0.0490 0.0450 0.0450 0.0420
4.403146 0.0400 0.0400 0.0390 0.0390 0.0390
4.437000 0.0390 0.0390 0.0390 0.0390 0.0390
4.471146 0.0390 0.0390 0.0400 0.0400 0.0420
4.505000 0.0420 0.0440 0.0450 0.0490 0.0490
4.539146 0.0510 0.0510 0.0510 0.0520 0.0560
4.573000 0.0570 0.0610 0.0660 0.0680 0.0710
4.607146 0.0710 0.0710 0.0730 0.0740 0.0740
4.642000 0.0760 0.0760 0.0790 0.0830 0.0910
4.676146 0.1000 0.1020 0.1050 0.1120 0.1190
4.710000 0.1250 0.1300 0.1340 0.1360 0.1370
4.744146 0.1370 0.1370 0.1370 0.1390 0.1470
4.778000 0.1560 0.1700 0.1800 0.1880 0.1950
4.812146 0.2020 0.2050 0.2100 0.2140 0.2170
4.846000 0.2220 0.2290 0.2380 0.2460 0.2510
4.880146 0.2560 0.2630 0.2700 0.2770 0.2800
4.915000 0.2800 0.2840 0.2870 0.2900 0.2950
4.949146 0.3010 0.3060 0.3110 0.3160 0.3230
4.983000 0.3280 0.3330 0.3360 0.3400 0.3460
5.017146 0.3550 0.3550 0.3580 0.3580 0.3620
5.051000 0.3620 0.3620 0.3630 0.3630 0.3650
5.085146 0.3670 0.3690 0.3700 0.3770 0.3840
5.119000 0.3910 0.3990 0.4040 0.4090 0.4140
5.153146 0.4180 0.4180 0.4180 0.4140 0.4030
5.188000 0.3990 0.3970 0.3940 0.3970 0.4110
5.222146 0.4260 0.4350 0.4430 0.4520 0.4590
5.256000 0.4650 0.4710 0.4760 0.4790 0.4810
5.290146 0.4820 0.4820 0.4840 0.4880 0.4940
5.324000 0.5010 0.5030 0.5050 0.5060 0.5080
5.358146 0.5050 0.5000 0.5000 0.5100 0.5100
5.392000 0.5110 0.5100 0.5060 0.4980 0.4960
5.426146 0.4940 0.4930 0.4940 0.5000 0.5010
5.461000 0.5060 0.5110 0.5100 0.5100 0.5100
5.495146 0.5110 0.5130 0.5100 0.4890 0.4860
5.529000 0.4860 0.4890 0.5050 0.5130 0.5220
5.563146 0.5270 0.5300 0.5350 0.5390 0.5440
5.597000 0.5490 0.5610 0.5640 0.5620 0.5620
5.631146 0.5590 0.5390 0.5370 0.5390 0.5540
5.666000 0.5640 0.5660 0.5640 0.5620 0.5570
5.700146 0.5510 0.5510 0.5510 0.5570 0.5690
5.734000 0.5640 0.5590 0.5640 0.5660 0.5730
5.768146 0.5760 0.5760 0.5710 0.5570 0.5570
5.802000 0.5560 0.5730 0.5710 0.5620 0.5610
5.836146 0.5540 0.5490 0.5440 0.5390 0.5340
5.870000 0.5320 0.5300 0.5270 0.5180 0.5150
5.904146 0.5110 0.5110 0.5320 0.5470 0.5540
5.939000 0.5590 0.5620 0.5710 0.5730 0.5740
5.973146 0.5780 0.5810 0.5830 0.5830 0.5660
6.007000 0.5660 0.5660 0.5710 0.5900 0.6080
6.041146 0.6150 0.6150 0.5960 0.5950 0.5960
6.075000 0.6030 0.6170 0.6190 0.6130 0.6120
6.109146 0.6100 0.6080 0.6070 0.6020 0.6020
6.143000 0.6000 0.6000 0.5980 0.5980 0.5960
6.177146 0.5930 0.5930 0.5910 0.5930 0.5930
6.212000 0.5950 0.5960 0.5980 0.6020 0.6050
6.246146 0.6050 0.6030 0.5980 0.5900 0.5880
6.280000 0.5860 0.5930 0.6030 0.6100 0.6100
6.314146 0.6100 0.6120 0.6120 0.6080 0.5910
6.348000 0.5880 0.5880 0.5900 0.6120 0.6150
6.382146 0.6170 0.6150 0.5900 0.5740 0.5520
6.416000 0.5390 0.5270 0.5100 0.5080 0.5100
6.450146 0.5200 0.5300 0.5320 0.5300 0.5130
6.485000 0.4980 0.4690 0.4210 0.3630 0.3010
6.519146 0.2360 0.1760 0.1240 0.0880 0.0690
6.553000 0.0510 0.0320 0.0300 0.0300 0.0340
6.587146 0.0390 0.0470 0.0570 0.0680 0.0780
6.621000 0.0900 0.1000 0.1200 0.1320 0.1390
6.655146 0.1410 0.1370 0.1320 0.1220 0.1000
6.689000 0.0860 0.0680 0.0560 0.0510 0.0470
6.723146 0.0450 0.0420 0.0400 0.0390 0.0390
6.758000 0.0350 0.0320 0.0300 0.0270 0.0250
6.792146 0.0250 0.0270 0.0300 0.0320 0.0320
6.826000 0.0340 0.0340 0.0340 0.0320 0.0320
6.860146 0.0350 0.0520 0.0690 0.0880 0.1100
6.894000 0.1320 0.1540 0.1780 0.2000 0.2220
6.928146 0.2530 0.2840 0.2940 0.2990 0.3040
6.962000 0.3060 0.3070 0.3060 0.2600 0.2340
6.996146 0.2170 0.1660 0.1640 0.1640 0.1850
7.031000 0.2550 0.2890 0.3090 0.3260 0.3530
7.065146 0.3550 0.3550 0.3500 0.3110 0.2890
7.099000 0.2580 0.2430 0.2310 0.2190 0.2170
7.133146 0.2190 0.2310 0.2480 0.2720 0.2750
7.167000 0.2730 0.2700 0.2600 0.2500 0.2290
7.201146 0.2040 0.1830 0.1540 0.1360 0.1190
7.235000 0.1170 0.1190 0.1410 0.1640 0.2000
7.269146 0.2260 0.2410 0.2550 0.2650 0.2770
7.304000 0.2920 0.3160 0.3480 0.3820 0.3890
7.338146 0.3910 0.3940 0.3960 0.3990 0.4010
7.372000 0.4040 0.4060 0.4060 0.4130 0.4180
7.406146 0.4210 0.4250 0.4280 0.4310 0.4350
7.440000 0.4400 0.4500 0.4590 0.4600 0.4640
7.474146 0.4670 0.4690 0.4720 0.4770 0.4810
7.509000 0.4820 0.4840 0.4840 0.4860 0.4880
7.543146 0.4890 0.4890 0.4910 0.4930 0.4940
7.577000 0.4960 0.4960 0.4980 0.4980 0.4940
7.611146 0.4890 0.4880 0.4840 0.4790 0.4740
7.645000 0.4670 0.4570 0.4550 0.4590 0.4640
7.679146 0.4740 0.4880 0.4960 0.5060 0.5150
7.713000 0.5220 0.5280 0.5350 0.5420 0.5490
7.747146 0.5560 0.5620 0.5710 0.5780 0.5850
7.782000 0.5850 0.5860 0.5900 0.5950 0.6000
7.816146 0.6030 0.6080 0.6100 0.6100 0.6120
7.850000 0.6130 0.6170 0.6200 0.6240 0.6290
7.884146 0.6320 0.6340 0.6360 0.6370 0.6370
7.918000 0.6370 0.6370 0.6370 0.6360 0.6300
7.952146 0.6250 0.6240 0.6190 0.6170 0.6190
7.986000 0.6200 0.6290 0.6410 0.6490 0.6580
8.020146 0.6630 0.6680 0.6750 0.6800 0.6850
8.055000 0.6920 0.6950 0.6970 0.7020 0.7050
8.089146 0.7100 0.7150 0.7190 0.7240 0.7270
8.123000 0.7290 0.7310 0.7320 0.7320 0.7360
8.157146 0.7360 0.7380 0.7380 0.7360 0.7360
8.191000 0.7360 0.7360 0.7360 0.7360 0.7360
8.225146 0.7380 0.7390 0.7390 0.7390 0.7380
8.259000 0.7360 0.7290 0.7260 0.7190 0.7090
8.293146 0.6930 0.6700 0.6370 0.5910 0.5320
8.328000 0.4590 0.3650 0.2530 0.1930 0.1540
8.362146 0.1470 0.1470 0.1560 0.1730 0.1870
8.396000 0.2000 0.2150 0.2390 0.2700 0.3140
8.430146 0.3700 0.4010 0.4280 0.4550 0.4790
8.464000 0.5010 0.5180 0.5340 0.5450 0.5510
8.498146 0.5590 0.5640 0.5710 0.5730 0.5740
8.532000 0.5760 0.5740 0.5620 0.5560 0.5540
8.566146 0.5420 0.5230 0.5000 0.4720 0.4400
8.601000 0.4060 0.3700 0.3350 0.3010 0.2680
8.635146 0.2410 0.2170 0.1980 0.1870 0.1830
8.669000 0.1610 0.1390 0.1120 0.0910 0.0590
8.703146 0.0540 0.0560 0.0780 0.1130 0.1490
8.737000 0.1870 0.2240 0.2600 0.2970 0.3330
8.771146 0.3670 0.3990 0.4300 0.4570 0.4810
8.805000 0.5010 0.5180 0.5300 0.5420 0.5540
8.839146 0.5730 0.5760 0.5780 0.5780 0.5690
8.874000 0.5390 0.4770 0.4040 0.3310 0.2730
8.908146 0.2410 0.2150 0.1920 0.1900 0.1930
8.942000 0.2430 0.2800 0.3210 0.3570 0.3910
8.976146 0.4230 0.4500 0.4760 0.5000 0.5200
9.010000 0.5390 0.5560 0.5690 0.5810 0.5910
9.044146 0.6000 0.6070 0.6120 0.6130 0.6170
9.078000 0.6220 0.6250 0.6290 0.6340 0.6390
9.112146 0.6420 0.6460 0.6510 0.6530 0.6560
9.147000 0.6560 0.6560 0.6580 0.6590 0.6610
9.181146 0.6630 0.6640 0.6660 0.6660 0.6660
9.215000 0.6680 0.6680 0.6680 0.6680 0.6680
9.249146 0.6700 0.6700 0.6710 0.6730 0.6730
9.283000 0.6750 0.6760 0.6760 0.6760 0.6750
9.317146 0.6700 0.6580 0.6440 0.6290 0.6170
9.352000 0.6100 0.6050 0.6020 0.6050 0.6150
9.386146 0.6360 0.6420 0.6530 0.6640 0.6780
9.420000 0.6900 0.6970 0.7000 0.7070 0.7100
9.454146 0.7150 0.7170 0.7170 0.7170 0.7150
9.488000 0.7020 0.6970 0.6970 0.6950 0.6950
9.522146 0.7000 0.7000 0.7000 0.6980 0.6950
9.556000 0.6920 0.6920 0.6900 0.6920 0.6950
9.590146 0.6980 0.7000 0.7000 0.7020 0.7040
9.625000 0.7040 0.7070 0.7070 0.7090 0.7100
9.659146 0.7100 0.7100 0.7090 0.7020 0.6970
9.693000 0.6900 0.6830 0.6730 0.6560 0.6360
9.727146 0.6070 0.5680 0.5230 0.4400 0.3920
9.761000 0.3310 0.2580 0.2480 0.2480 0.2560
9.795146 0.3120 0.3770 0.4280 0.4650 0.4940
9.829000 0.5170 0.5320 0.5440 0.5520 0.5620
9.863146 0.5740 0.5760 0.5780 0.5760 0.5640
9.898000 0.5560 0.5470 0.5340 0.5180 0.4960
9.932146 0.4670 0.4310 0.3840 0.3280 0.2560
9.966000 0.2320 0.2000 0.1630 0.1250 0.0910
10.000146 0.0660 0.0510 0.0490 0.0490 0.0510
10.034000 0.0680 0.0880 0.1130 0.1420 0.1730
10.068146 0.2070 0.2410 0.2750 0.3090 0.3430
10.102000 0.3740 0.4010 0.4250 0.4450 0.4590
10.136146 0.4790 0.4840 0.4860 0.4840 0.4690
10.171000 0.4570 0.4470 0.4370 0.4310 0.4310
10.205146 0.4400 0.4540 0.4650 0.4770 0.4890
10.239000 0.5010 0.5130 0.5230 0.5350 0.5470
10.273146 0.5570 0.5680 0.5780 0.5880 0.5980
10.307000 0.6080 0.6190 0.6290 0.6390 0.6470
10.341146 0.6580 0.6660 0.6730 0.6800 0.6850
10.375000 0.6920 0.6980 0.7050 0.7120 0.7170
10.409146 0.7240 0.7290 0.7340 0.7390 0.7430
10.444000 0.7440 0.7510 0.7580 0.7580 0.7630
10.478146 0.7630 0.7630 0.7630 0.7630 0.7630
10.512000 0.7630 0.7630 0.7610 0.7600 0.7560
10.546146 0.7550 0.7530 0.7530 0.7530 0.7550
10.580000 0.7560 0.7580 0.7610 0.7650 0.7680
10.614146 0.7720 0.7750 0.7780 0.7820 0.7870
10.648000 0.7890 0.7920 0.7940 0.7950 0.7970
10.682146 0.8010 0.8040 0.8090 0.8120 0.8160
10.717000 0.8160 0.8180 0.8180 0.8190 0.8190
10.751146 0.8210 0.8230 0.8280 0.8310 0.8350
10.785000 0.8350 0.8360 0.8360 0.8360 0.8360
10.819146 0.8380 0.8410 0.8450 0.8460 0.8460
10.853000 0.8480 0.8500 0.8500 0.8480 0.8460
10.887146 0.8460 0.8430 0.8400 0.8330 0.8290
10.922000 0.8260 0.8230 0.8140 0.8060 0.7950
10.956146 0.7870 0.7800 0.7610 0.7380 0.7090
10.990000 0.6750 0.6320 0.5810 0.5200 0.4480
11.024146 0.3630 0.2700 0.2100 0.1530 0.0930
11.058000 0.0570 0.0540 0.0560 0.0620 0.0950
11.092146 0.1290 0.1640 0.2000 0.2380 0.2730
11.126000 0.3110 0.3480 0.3840 0.4180 0.4500
11.160146 0.4790 0.5060 0.5300 0.5520 0.5680
11.195000 0.5860 0.6030 0.6190 0.6340 0.6470
11.229146 0.6630 0.6750 0.6870 0.6980 0.7090
11.263000 0.7190 0.7290 0.7380 0.7440 0.7510
11.297146 0.7580 0.7630 0.7680 0.7700 0.7720
11.331000 0.7750 0.7780 0.7840 0.7870 0.7900
11.365146 0.7920 0.7950 0.7990 0.8010 0.8020
11.399000 0.8060 0.8090 0.8120 0.8180 0.8190
11.433146 0.8190 0.8190 0.8180 0.8160 0.8120
11.468000 0.8110 0.8110 0.8090 0.8090 0.8090
11.502146 0.8090 0.8070 0.8020 0.7970 0.7890
11.536000 0.7800 0.7700 0.7610 0.7510 0.7430
11.570146 0.7310 0.7150 0.6930 0.6780 0.6560
11.604000 0.6320 0.6030 0.5730 0.5400 0.5050
11.638146 0.4650 0.4260 0.3870 0.3450 0.3020
11.672000 0.2560 0.2190 0.1850 0.1530 0.1340
11.706146 0.1190 0.1070 0.0980 0.0980 0.1070
11.741000 0.1300 0.1560 0.1850 0.2170 0.2500
11.775146 0.2850 0.3210 0.3570 0.3920 0.4280
11.809000 0.4600 0.4910 0.5200 0.5440 0.5640
11.843146 0.5830 0.6000 0.6170 0.6320 0.6490
11.877000 0.6640 0.6800 0.6930 0.7070 0.7190
11.911146 0.7310 0.7390 0.7510 0.7600 0.7670
11.945000 0.7720 0.7770 0.7800 0.7850 0.7890
11.979146 0.7940 0.8010 0.8070 0.8190 0.8240
12.014000 0.8260 0.8290 0.8310 0.8380 0.8400
12.048146 0.8430 0.8450 0.8450 0.8460 0.8480
12.082000 0.8520 0.8530 0.8570 0.8600 0.8630
12.116146 0.8670 0.8720 0.8750 0.8790 0.8820
12.150000 0.8840 0.8860 0.8890 0.8910 0.8910
12.184146 0.8910 0.8920 0.8920 0.8940 0.8940
12.218000 0.8960 0.8970 0.8990 0.9010 0.9030
12.252146 0.9030 0.9040 0.9060 0.9080 0.9090
12.287000 0.9090 0.9110 0.9090 0.9090 0.9090
12.321146 0.9090 0.9090 0.9110 0.9110 0.9140
12.355000 0.9140 0.9160 0.9160 0.9160 0.9160
12.389146 0.9140 0.9130 0.9130 0.9110 0.9130
12.423000 0.9130 0.9140 0.9160 0.9180 0.9210
12.457146 0.9230 0.9230 0.9180 0.9180 0.9200
12.491000 0.9210 0.9210 0.9230 0.9230 0.9230
12.525146 0.9230 0.9230 0.9230 0.9230 0.9250
12.560000 0.9250 0.9260 0.9260 0.9280 0.9280
12.594146 0.9260 0.9260 0.9250 0.9250 0.9230
12.628000 0.9250 0.9250 0.9230 0.9250 0.9250
12.662146 0.9250 0.9250 0.9250 0.9230 0.9230
12.696000 0.9230 0.9250 0.9250 0.9250 0.9250
12.730146 0.9230 0.9230 0.9210 0.9210 0.9200
12.765000 0.9180 0.9200 0.9200 0.9200 0.9180
12.799146 0.9160 0.9140 0.9140 0.9140 0.9130
12.833000 0.9140 0.9140 0.9140 0.9140 0.9160
12.867146 0.9140 0.9140 0.9140 0.9130 0.9110
12.901000 0.9090 0.9090 0.9090 0.9090 0.9090
12.935146 0.9110 0.9110 0.9110 0.9090 0.9090
12.969000 0.9080 0.9080 0.9060 0.9040 0.9040
13.003146 0.9060 0.9080 0.9080 0.9090 0.9110
13.038000 0.9110 0.9110 0.9090 0.9110 0.9110
13.072146 0.9130 0.9140 0.9140 0.9160 0.9160
13.106000 0.9180 0.9200 0.9200 0.9200 0.9200
13.140146 0.9180 0.9180 0.9140 0.9140 0.9140
13.174000 0.9140 0.9140 0.9180 0.9180 0.9180
13.208146 0.9180 0.9180 0.9160 0.9160 0.9160
13.242000 0.9140 0.9140 0.9140 0.9140 0.9140
13.276146 0.9130 0.9130 0.9130 0.9130 0.9130
13.311000 0.9130 0.9110 0.9110 0.9110 0.9110
13.345146 0.9110 0.9110 0.9110 0.9090 0.9090
13.379000 0.9060 0.9060 0.9040 0.9040 0.9010
13.413146 0.8990 0.8990 0.8970 0.8960 0.8940
13.447000 0.8920 0.8920 0.8840 0.8790 0.8720
13.481146 0.8700 0.8690 0.8670 0.8650 0.8630
13.515000 0.8630 0.8620 0.8600 0.8580 0.8580
13.549146 0.8580 0.8570 0.8530 0.8480 0.8460
13.584000 0.8430 0.8410 0.8410 0.8380 0.8360
13.618146 0.8360 0.8360 0.8360 0.8360 0.8350
13.652000 0.8350 0.8330 0.8330 0.8330 0.8280
13.686146 0.8240 0.8240 0.8210 0.8210 0.8190
13.720000 0.8180 0.8160 0.8140 0.8120 0.8110
13.754146 0.8070 0.8040 0.8020 0.8010 0.7990
13.788000 0.7950 0.7940 0.7920 0.7840 0.7770
13.822146 0.7730 0.7720 0.7720 0.7700 0.7680
13.857000 0.7670 0.7670 0.7670 0.7670 0.7680
13.891146 0.7720 0.7750 0.7800 0.7870 0.7940
13.925000 0.8020 0.8110 0.8190 0.8290 0.8400
13.959146 0.8520 0.8620 0.8630 0.8690 0.8740
13.993000 0.8820 0.8910 0.8990 0.9060 0.9130
14.027146 0.9160 0.9180 0.9210 0.9250 0.9250
14.061000 0.9260 0.9280 0.9300 0.9330 0.9350
14.095146 0.9380 0.9400 0.9430 0.9480 0.9500
14.130000 0.9500 0.9500 0.9500 0.9500 0.9500
14.164146 0.9500 0.9500 0.9500 0.9500 0.9500
14.198000 0.9500 0.9500 0.9450 0.9370 0.9350
14.232146 0.9370 0.9370 0.9350 0.9310 0.9280
14.266000 0.9230 0.9200 0.9180 0.9160 0.9130
14.300146 0.9090 0.9080 0.9030 0.8990 0.8940
14.334000 0.8910 0.8860 0.8840 0.8800 0.8750
14.368146 0.8690 0.8600 0.8520 0.8400 0.8290
14.403000 0.8160 0.8020 0.7870 0.7720 0.7560
14.437146 0.7410 0.7240 0.7070 0.6880 0.6630
14.471000 0.6370 0.6170 0.5980 0.5730 0.5510
14.505146 0.5370 0.5130 0.4980 0.4880 0.4740
14.539000 0.4550 0.4470 0.4450 0.4430 0.4420
14.573146 0.4420 0.4430 0.4540 0.4640 0.4790
14.608000 0.4980 0.5100 0.5170 0.5300 0.5440
14.642146 0.5570 0.5690 0.5910 0.6000 0.6080
14.676000 0.6240 0.6360 0.6360 0.6610 0.6710
14.710146 0.6810 0.6870 0.6970 0.7040 0.7100
14.744000 0.7140 0.7190 0.7220 0.7260 0.7290
14.778146 0.7340 0.7380 0.7440 0.7500 0.7500
14.812000 0.7510 0.7550 0.7550 0.7560 0.7560
14.846146 0.7560 0.7580 0.7600 0.7600 0.7600
14.881000 0.7610 0.7650 0.7650 0.7670 0.7670
14.915146 0.7670 0.7670 0.7650 0.7630 0.7610
14.949000 0.7560 0.7500 0.7430 0.7340 0.7270
14.983146 0.7170 0.7070 0.6970 0.6830 0.6680
15.017000 0.6510 0.6360 0.6080 0.5950 0.5830
15.051146 0.5730 0.5590 0.5490 0.5470 0.5470
15.085000 0.5470 0.5490 0.5560 0.5620 0.5730
15.119146 0.5830 0.5950 0.6030 0.6150 0.6240
15.154000 0.6300 0.6370 0.6460 0.6560 0.6700
15.188146 0.6800 0.6870 0.6930 0.6980 0.7020
15.222000 0.7070 0.7070 0.7070 0.7070 0.7050
15.256146 0.7050 0.7040 0.7040 0.7020 0.7000
15.290000 0.7000 0.7000 0.6980 0.6980 0.6980
15.324146 0.6980 0.6970 0.6950 0.6930 0.6920
15.358000 0.6920 0.6880 0.6870 0.6850 0.6850
15.392146 0.6810 0.6800 0.6780 0.6760 0.6730
15.427000 0.6710 0.6710 0.6700 0.6680 0.6640
15.461146 0.6590 0.6540 0.6490 0.6470 0.6460
15.495000 0.6440 0.6410 0.6390 0.6370 0.6370
15.529146 0.6360 0.6320 0.6300 0.6300 0.6290
15.563000 0.6270 0.6250 0.6250 0.6250 0.6240
15.597146 0.6240 0.6220 0.6190 0.6130 0.6080
15.631000 0.6070 0.6030 0.6000 0.5980 0.5980
15.665146 0.5950 0.5910 0.5900 0.5880 0.5860
15.700000 0.5850 0.5790 0.5710 0.5680 0.5610
15.734146 0.5590 0.5560 0.5560 0.5560 0.5560
15.768000 0.5540 0.5540 0.5520 0.5510 0.5490
15.802146 0.5470 0.5440 0.5420 0.5400 0.5390
15.836000 0.5350 0.5300 0.5250 0.5200 0.5200
15.870146 0.5200 0.5180 0.5150 0.5130 0.5100
15.904000 0.5060 0.5050 0.5010 0.4980 0.4960
15.938146 0.4960 0.4930 0.4890 0.4840 0.4820
15.973000 0.4790 0.4760 0.4720
##END=
