##TITLE=4-BENZOXAZONE, 2-(2'-DIMETHYLAMINO-1',1'-DIMETHYLETHYL)-
##JCAMP-DX=4.24
##DATA TYPE=INFRARED SPECTRUM
##CLASS=COBLENTZ
##OWNER=COBLENTZ SOCIETY
Collection (C) 2018 copyright by the U.S. Secretary of Commerce
on behalf of the United States of America. All rights reserved.
##DATE=Not specified, most likely prior to 1970
##NAMES=2-[2-(dimethylamino)-1,1-dimethylethyl]-2,3-dihydro-4H-1,3-benzoxazin-4-one
##MOLFORM=C14 H20 N2 O2
##SOURCE REFERENCE=COBLENTZ NO. 678
##$NIST ID=B6000678
##$NIST SOURCE=COBLENTZ
##$NIST IMAGE=cob678
##SPECTROMETER/DATA SYSTEM=Not specified, most likely a prism, grating, or hybrid spectrometer.
##STATE=SOLUTION (7% CHCl3)
##PATH LENGTH=0.009 CM
$$SPECTRAL CONTAMINATION DUE TO INACTIVE CHCl3 AROUND 750 CM^-^1
##SAMPLING PROCEDURE=TRANSMISSION
##RESOLUTION=4
##DATA PROCESSING=DIGITIZED BY NIST FROM HARD COPY
##XUNITS=MICROMETERS
##YUNITS=TRANSMITTANCE
##XFACTOR=1.000000
##YFACTOR=1
##DELTAX=000.006812
##FIRSTX=2.027
##LASTX=15.4957
##FIRSTY=0.981
##MAXX=15.4957
##MINX=2.027
##MAXY=0.983
##MINY=0.011
##NPOINTS=1978
##XYDATA=(X++(Y..Y))
2.027000 0.9810 0.9810 0.9810 0.9790 0.9830
2.061079 0.9830 0.9830 0.9830 0.9830 0.9780
2.095000 0.9780 0.9790 0.9790 0.9790 0.9790
2.129079 0.9790 0.9790 0.9790 0.9790 0.9780
2.163000 0.9810 0.9810 0.9790 0.9760 0.9740
2.197079 0.9730 0.9730 0.9710 0.9760 0.9760
2.232000 0.9760 0.9760 0.9760 0.9710 0.9730
2.266079 0.9730 0.9730 0.9760 0.9760 0.9730
2.300000 0.9710 0.9690 0.9690 0.9690 0.9690
2.334079 0.9690 0.9680 0.9680 0.9660 0.9640
2.368000 0.9630 0.9610 0.9590 0.9590 0.9580
2.402079 0.9590 0.9590 0.9590 0.9580 0.9590
2.436000 0.9580 0.9560 0.9580 0.9580 0.9540
2.470079 0.9510 0.9460 0.9430 0.9410 0.9430
2.504000 0.9440 0.9460 0.9480 0.9490 0.9510
2.538079 0.9510 0.9530 0.9540 0.9540 0.9560
2.572000 0.9560 0.9580 0.9580 0.9580 0.9580
2.606079 0.9580 0.9580 0.9580 0.9580 0.9580
2.640000 0.9580 0.9580 0.9580 0.9580 0.9580
2.674079 0.9580 0.9580 0.9580 0.9580 0.9580
2.708000 0.9580 0.9580 0.9580 0.9580 0.9580
2.742079 0.9580 0.9590 0.9590 0.9610 0.9590
2.777000 0.9590 0.9590 0.9580 0.9560 0.9560
2.811079 0.9560 0.9540 0.9530 0.9530 0.9540
2.845000 0.9580 0.9610 0.9660 0.9730 0.9730
2.879079 0.9660 0.9610 0.9530 0.9460 0.9390
2.913000 0.9360 0.9320 0.9310 0.9290 0.9240
2.947079 0.9220 0.9170 0.9110 0.9020 0.8960
2.981000 0.8870 0.8810 0.8720 0.8670 0.8620
3.015079 0.8600 0.8590 0.8600 0.8620 0.8640
3.049000 0.8650 0.8650 0.8600 0.8590 0.8590
3.083079 0.8570 0.8520 0.8470 0.8400 0.8370
3.117000 0.8320 0.8250 0.8170 0.8070 0.7980
3.151079 0.7870 0.7750 0.7630 0.7500 0.7330
3.185000 0.7160 0.6980 0.6750 0.6700 0.6640
3.219079 0.6630 0.6480 0.6440 0.6410 0.6360
3.253000 0.6310 0.6290 0.6290 0.6290 0.6290
3.287079 0.6310 0.6330 0.6390 0.6430 0.6440
3.322000 0.6460 0.6480 0.6490 0.6510 0.6530
3.356079 0.6540 0.6560 0.6580 0.6590 0.6630
3.390000 0.6630 0.6610 0.5740 0.4850 0.4150
3.424079 0.3880 0.3860 0.3860 0.3900 0.4100
3.458000 0.4230 0.4430 0.4600 0.4720 0.4950
3.492079 0.5270 0.5390 0.5460 0.5510 0.5560
3.526000 0.5610 0.5660 0.5690 0.5770 0.5790
3.560079 0.5790 0.5740 0.5610 0.5520 0.5470
3.594000 0.5420 0.5360 0.5240 0.5170 0.5140
3.628079 0.5140 0.5390 0.5840 0.6180 0.6310
3.662000 0.6480 0.6480 0.5990 0.5720 0.5710
3.696079 0.5740 0.6040 0.6530 0.6980 0.7210
3.730000 0.7450 0.7680 0.7920 0.8150 0.8400
3.764079 0.8440 0.8490 0.8520 0.8550 0.8600
3.798000 0.8640 0.8690 0.8720 0.8740 0.8810
3.832079 0.8860 0.8890 0.8940 0.8970 0.8990
3.867000 0.9020 0.9020 0.9020 0.9040 0.9040
3.901079 0.9060 0.9060 0.9090 0.9110 0.9140
3.935000 0.9140 0.9140 0.9140 0.9160 0.9160
3.969079 0.9160 0.9160 0.9160 0.9170 0.9170
4.003000 0.9170 0.9170 0.9170 0.9170 0.9170
4.037079 0.9170 0.9170 0.9170 0.9170 0.9170
4.071000 0.9170 0.9170 0.9170 0.9160 0.9160
4.105079 0.9140 0.9120 0.9110 0.9070 0.9060
4.139000 0.9020 0.9010 0.8990 0.8970 0.8960
4.173079 0.8960 0.8940 0.8940 0.8940 0.8940
4.207000 0.8960 0.8970 0.8990 0.9010 0.9040
4.241079 0.9070 0.9110 0.9140 0.9170 0.9210
4.275000 0.9240 0.9270 0.9270 0.9260 0.9270
4.309079 0.9310 0.9320 0.9380 0.9410 0.9430
4.343000 0.9440 0.9460 0.9460 0.9480 0.9480
4.377079 0.9480 0.9480 0.9480 0.9430 0.9410
4.412000 0.9410 0.9380 0.9340 0.9320 0.9310
4.446079 0.9310 0.9290 0.9270 0.9240 0.9220
4.480000 0.9220 0.9260 0.9260 0.9270 0.9290
4.514079 0.9320 0.9320 0.9310 0.9310 0.9310
4.548000 0.9310 0.9270 0.9270 0.9290 0.9290
4.582079 0.9310 0.9310 0.9290 0.9290 0.9290
4.616000 0.9290 0.9290 0.9260 0.9270 0.9270
4.650079 0.9270 0.9290 0.9290 0.9290 0.9290
4.684000 0.9290 0.9310 0.9290 0.9290 0.9270
4.718079 0.9290 0.9290 0.9310 0.9310 0.9290
4.752000 0.9270 0.9270 0.9270 0.9270 0.9290
4.786079 0.9290 0.9310 0.9310 0.9290 0.9290
4.820000 0.9290 0.9270 0.9260 0.9240 0.9220
4.854079 0.9220 0.9190 0.9160 0.9160 0.9160
4.888000 0.9170 0.9190 0.9210 0.9240 0.9260
4.922079 0.9270 0.9270 0.9290 0.9310 0.9310
4.957000 0.9290 0.9290 0.9290 0.9270 0.9290
4.991079 0.9290 0.9290 0.9290 0.9290 0.9290
5.025000 0.9290 0.9270 0.9270 0.9290 0.9290
5.059079 0.9270 0.9270 0.9270 0.9270 0.9270
5.093000 0.9270 0.9240 0.9240 0.9260 0.9260
5.127079 0.9270 0.9270 0.9270 0.9260 0.9260
5.161000 0.9240 0.9240 0.9220 0.9210 0.9190
5.195079 0.9160 0.9140 0.9140 0.9140 0.9160
5.229000 0.9190 0.9190 0.9140 0.9120 0.9110
5.263079 0.9090 0.9060 0.9040 0.9040 0.9060
5.297000 0.9070 0.9110 0.9120 0.9160 0.9160
5.331079 0.9170 0.9170 0.9160 0.9120 0.9140
5.365000 0.9170 0.9170 0.9190 0.9170 0.9170
5.399079 0.9160 0.9160 0.9160 0.9160 0.9140
5.433000 0.9140 0.9160 0.9190 0.9190 0.9170
5.467079 0.9140 0.9110 0.9110 0.9160 0.9160
5.502000 0.9140 0.9140 0.9140 0.9120 0.9110
5.536079 0.9110 0.9090 0.9090 0.9070 0.9070
5.570000 0.9070 0.9060 0.9060 0.9040 0.9020
5.604079 0.9020 0.9020 0.9020 0.9020 0.9040
5.638000 0.9040 0.9070 0.9090 0.9090 0.9110
5.672079 0.9110 0.9110 0.9120 0.9140 0.9120
5.706000 0.9110 0.9110 0.9090 0.9110 0.9090
5.740079 0.9090 0.9090 0.9070 0.9060 0.9040
5.774000 0.9020 0.9010 0.8990 0.8970 0.8970
5.808079 0.8970 0.8960 0.8940 0.8940 0.8910
5.842000 0.8860 0.8860 0.8840 0.8790 0.8720
5.876079 0.8640 0.8590 0.8540 0.8500 0.8470
5.910000 0.8440 0.8370 0.8340 0.8300 0.8200
5.944079 0.8070 0.7900 0.7670 0.7380 0.7030
5.978000 0.6830 0.6610 0.6090 0.5000 0.4550
6.012079 0.4100 0.3360 0.3060 0.2760 0.2290
6.047000 0.1890 0.1720 0.1550 0.1270 0.0980
6.081079 0.0700 0.0360 0.0180 0.0130 0.0110
6.115000 0.0110 0.0110 0.0130 0.0130 0.0160
6.149079 0.0230 0.0750 0.1500 0.2780 0.3290
6.183000 0.4200 0.4570 0.4890 0.5420 0.5640
6.217079 0.5810 0.5860 0.5860 0.5860 0.5790
6.251000 0.5570 0.5390 0.5190 0.4970 0.4620
6.285079 0.3980 0.3500 0.3310 0.3130 0.3110
6.319000 0.3130 0.4520 0.4900 0.5690 0.6960
6.353079 0.7300 0.7520 0.7780 0.7800 0.7820
6.387000 0.7770 0.7430 0.7300 0.7160 0.7050
6.421079 0.6980 0.6980 0.7150 0.7500 0.7720
6.455000 0.7870 0.7980 0.8070 0.8170 0.8290
6.489079 0.8440 0.8450 0.8470 0.8490 0.8490
6.523000 0.8500 0.8500 0.8540 0.8540 0.8570
6.557079 0.8590 0.8620 0.8650 0.8670 0.8670
6.592000 0.8640 0.8600 0.8600 0.8590 0.8570
6.626079 0.8570 0.8550 0.8520 0.8500 0.8490
6.660000 0.8490 0.8470 0.8450 0.8420 0.8340
6.694079 0.8300 0.8270 0.8190 0.8100 0.8050
6.728000 0.8020 0.8000 0.7870 0.7730 0.7620
6.762079 0.7500 0.7380 0.7250 0.7080 0.6880
6.796000 0.6760 0.6640 0.6340 0.5990 0.5560
6.830079 0.5040 0.4740 0.4430 0.3730 0.3310
6.864000 0.2890 0.2510 0.2170 0.1890 0.1770
6.898079 0.1650 0.1450 0.1320 0.1200 0.1000
6.932000 0.0780 0.0430 0.0410 0.0450 0.1030
6.966079 0.1300 0.1470 0.1620 0.1950 0.2260
7.000000 0.2610 0.2990 0.3800 0.4150 0.4280
7.034079 0.4280 0.4220 0.3750 0.3450 0.3400
7.068000 0.3330 0.3190 0.3130 0.3090 0.3080
7.102079 0.3090 0.3210 0.3580 0.3800 0.4020
7.137000 0.4230 0.4450 0.4690 0.4900 0.5340
7.171079 0.5540 0.5720 0.5890 0.6040 0.6110
7.205000 0.6190 0.6310 0.6430 0.6540 0.6640
7.239079 0.6750 0.6750 0.6710 0.6660 0.6360
7.273000 0.5960 0.5470 0.5140 0.4890 0.4620
7.307079 0.4600 0.4630 0.4920 0.5490 0.5820
7.341000 0.5970 0.6110 0.6240 0.6380 0.6410
7.375079 0.6410 0.6410 0.6410 0.6390 0.6380
7.409000 0.6280 0.6210 0.5710 0.5570 0.5570
7.443079 0.5790 0.6010 0.6240 0.6460 0.6640
7.477000 0.6850 0.6900 0.6910 0.6900 0.6850
7.511079 0.6700 0.6540 0.6310 0.5970 0.5540
7.545000 0.5050 0.4800 0.4530 0.4000 0.3460
7.579079 0.3240 0.3010 0.2990 0.3030 0.3160
7.613000 0.3550 0.3630 0.3680 0.3730 0.3760
7.647079 0.3760 0.3760 0.3760 0.3780 0.3910
7.682000 0.3980 0.4280 0.4770 0.5510 0.5790
7.716079 0.6030 0.6210 0.6340 0.6460 0.6540
7.750000 0.6590 0.6640 0.6730 0.6760 0.6810
7.784079 0.6900 0.6980 0.7110 0.7260 0.7470
7.818000 0.7580 0.7700 0.7780 0.7850 0.7880
7.852079 0.7920 0.7950 0.8000 0.8050 0.8050
7.886000 0.8090 0.8090 0.8100 0.8100 0.8120
7.920079 0.8140 0.8140 0.8140 0.8140 0.8140
7.954000 0.8150 0.8140 0.8090 0.8050 0.8020
7.988079 0.7950 0.7880 0.7780 0.7650 0.7500
8.022000 0.7310 0.7150 0.6910 0.6760 0.6640
8.056079 0.6510 0.6240 0.6130 0.6030 0.5940
8.090000 0.5870 0.5820 0.5790 0.5810 0.5840
8.124079 0.5910 0.6010 0.6110 0.6180 0.6210
8.158000 0.6240 0.6260 0.6240 0.6140 0.6040
8.192079 0.6040 0.5890 0.5660 0.5370 0.5090
8.227000 0.5000 0.4920 0.4870 0.4800 0.4720
8.261079 0.4690 0.4700 0.4740 0.4840 0.4900
8.295000 0.4950 0.5090 0.5140 0.5170 0.5190
8.329079 0.5220 0.5240 0.5270 0.5290 0.5320
8.363000 0.5340 0.5360 0.5370 0.5390 0.5410
8.397079 0.5420 0.5460 0.5510 0.5570 0.5670
8.431000 0.5810 0.5970 0.6190 0.6630 0.7430
8.465079 0.7670 0.7830 0.7930 0.8040 0.8150
8.499000 0.8200 0.8250 0.8270 0.8250 0.8240
8.533079 0.8190 0.8170 0.8140 0.8090 0.8070
8.567000 0.8070 0.8090 0.8150 0.8200 0.8270
8.601079 0.8300 0.8370 0.8400 0.8440 0.8470
8.635000 0.8490 0.8490 0.8490 0.8490 0.8450
8.669079 0.8440 0.8440 0.8400 0.8370 0.8340
8.703000 0.8340 0.8320 0.8290 0.8100 0.7470
8.737079 0.7450 0.7350 0.7330 0.7100 0.7080
8.772000 0.6750 0.6700 0.6630 0.6610 0.6560
8.806079 0.6540 0.6510 0.6490 0.6480 0.6440
8.840000 0.6430 0.5960 0.5940 0.5540 0.5250
8.874079 0.5000 0.4840 0.4670 0.4670 0.4850
8.908000 0.5410 0.5710 0.6030 0.6360 0.6660
8.942079 0.7250 0.7480 0.7670 0.7770 0.7850
8.976000 0.7920 0.7970 0.8020 0.8050 0.8070
9.010079 0.8090 0.8090 0.8070 0.8000 0.7920
9.044000 0.7820 0.7680 0.7500 0.7280 0.6980
9.078079 0.6800 0.6610 0.6160 0.5610 0.5250
9.112000 0.5090 0.4900 0.4580 0.4450 0.4320
9.146079 0.4200 0.4130 0.4120 0.4130 0.4430
9.180000 0.4750 0.5200 0.5390 0.5560 0.5760
9.214079 0.5960 0.6060 0.6110 0.6130 0.6130
9.248000 0.6110 0.6080 0.6060 0.6080 0.6110
9.282079 0.6280 0.6440 0.6630 0.6980 0.7160
9.317000 0.7330 0.7500 0.7650 0.7780 0.7900
9.351079 0.8000 0.8070 0.8100 0.8170 0.8200
9.385000 0.8250 0.8250 0.8270 0.8290 0.8300
9.419079 0.8400 0.8470 0.8540 0.8570 0.8600
9.453000 0.8600 0.8620 0.8640 0.8650 0.8650
9.487079 0.8670 0.8670 0.8690 0.8710 0.8710
9.521000 0.8720 0.8720 0.8720 0.8740 0.8720
9.555079 0.8710 0.8690 0.8670 0.8650 0.8620
9.589000 0.8570 0.8540 0.8470 0.8400 0.8370
9.623079 0.8320 0.8190 0.8140 0.8000 0.7870
9.657000 0.7680 0.7420 0.7110 0.6780 0.6590
9.691079 0.6390 0.5970 0.5520 0.5050 0.4940
9.725000 0.4820 0.4650 0.4450 0.4430 0.4370
9.759079 0.4300 0.4180 0.4070 0.3930 0.3760
9.793000 0.3580 0.3380 0.3350 0.3310 0.3140
9.827079 0.3130 0.3160 0.3680 0.3950 0.4180
9.862000 0.4940 0.6190 0.6510 0.7030 0.7350
9.896079 0.7400 0.7450 0.7530 0.7620 0.7670
9.930000 0.7630 0.7530 0.7470 0.7330 0.7200
9.964079 0.7050 0.6930 0.6850 0.6830 0.6710
9.998000 0.6630 0.6530 0.6290 0.6010 0.5670
10.032079 0.5320 0.5140 0.4950 0.4670 0.4630
10.066000 0.4650 0.4720 0.4970 0.5470 0.5740
10.100079 0.6010 0.6280 0.6510 0.6930 0.7130
10.134000 0.7280 0.7430 0.7530 0.7650 0.7730
10.168079 0.7800 0.7800 0.7800 0.7820 0.7820
10.202000 0.7680 0.7650 0.7630 0.7650 0.7670
10.236079 0.7700 0.7750 0.7850 0.7880 0.7950
10.270000 0.8040 0.8150 0.8250 0.8400 0.8420
10.304079 0.8440 0.8440 0.8450 0.8470 0.8490
10.338000 0.8500 0.8520 0.8540 0.8550 0.8570
10.372079 0.8590 0.8590 0.8600 0.8620 0.8620
10.407000 0.8640 0.8650 0.8650 0.8690 0.8690
10.441079 0.8710 0.8720 0.8740 0.8740 0.8740
10.475000 0.8760 0.8790 0.8770 0.8810 0.8820
10.509079 0.8840 0.8840 0.8810 0.8770 0.8740
10.543000 0.8690 0.8670 0.8640 0.8520 0.8470
10.577079 0.8440 0.8390 0.8340 0.8320 0.8290
10.611000 0.8270 0.8270 0.8290 0.8290 0.8300
10.645079 0.8320 0.8370 0.8390 0.8400 0.8440
10.679000 0.8470 0.8520 0.8550 0.8550 0.8590
10.713079 0.8640 0.8690 0.8710 0.8720 0.8740
10.747000 0.8740 0.8760 0.8770 0.8810 0.8810
10.781079 0.8810 0.8810 0.8820 0.8820 0.8820
10.815000 0.8820 0.8820 0.8810 0.8790 0.8740
10.849079 0.8720 0.8710 0.8670 0.8650 0.8620
10.883000 0.8590 0.8570 0.8550 0.8520 0.8500
10.917079 0.8500 0.8500 0.8520 0.8540 0.8540
10.951000 0.8540 0.8540 0.8550 0.8570 0.8600
10.985079 0.8640 0.8650 0.8650 0.8670 0.8690
11.020000 0.8690 0.8710 0.8720 0.8720 0.8720
11.054079 0.8720 0.8720 0.8720 0.8710 0.8710
11.088000 0.8690 0.8670 0.8640 0.8600 0.8570
11.122079 0.8520 0.8440 0.8400 0.8340 0.8300
11.156000 0.8250 0.8150 0.8070 0.7970 0.7680
11.190079 0.7520 0.7420 0.7230 0.7060 0.7050
11.224000 0.7030 0.7050 0.7200 0.7370 0.7520
11.258079 0.7670 0.7780 0.7920 0.8020 0.8120
11.292000 0.8200 0.8290 0.8420 0.8470 0.8520
11.326079 0.8540 0.8570 0.8600 0.8620 0.8640
11.360000 0.8670 0.8690 0.8690 0.8690 0.8710
11.394079 0.8710 0.8720 0.8740 0.8740 0.8740
11.428000 0.8740 0.8760 0.8770 0.8770 0.8770
11.462079 0.8770 0.8720 0.8720 0.8740 0.8740
11.496000 0.8760 0.8770 0.8810 0.8820 0.8810
11.530079 0.8810 0.8810 0.8810 0.8740 0.8690
11.565000 0.8620 0.8540 0.8440 0.8390 0.8320
11.599079 0.8170 0.7980 0.7900 0.7870 0.7800
11.633000 0.7780 0.7800 0.7870 0.7930 0.7950
11.667079 0.7980 0.8050 0.8150 0.8190 0.8190
11.701000 0.8170 0.8140 0.8120 0.8000 0.7930
11.735079 0.7820 0.7570 0.7200 0.6960 0.6780
11.769000 0.6580 0.6110 0.5810 0.5520 0.5360
11.803079 0.5320 0.5340 0.5440 0.5610 0.5720
11.837000 0.5840 0.5960 0.6080 0.6190 0.6310
11.871079 0.6380 0.6380 0.6360 0.6290 0.6180
11.905000 0.6090 0.6060 0.5970 0.5890 0.5860
11.939079 0.5860 0.5870 0.5960 0.6060 0.6160
11.973000 0.6330 0.6510 0.7050 0.7330 0.7420
12.007079 0.7450 0.7500 0.7580 0.7650 0.7720
12.041000 0.7780 0.7830 0.7900 0.7930 0.7980
12.075079 0.8040 0.8050 0.8120 0.8150 0.8190
12.110000 0.8220 0.8250 0.8270 0.8270 0.8290
12.144079 0.8300 0.8400 0.8450 0.8450 0.8470
12.178000 0.8470 0.8490 0.8500 0.8500 0.8500
12.212079 0.8500 0.8500 0.8520 0.8520 0.8550
12.246000 0.8570 0.8570 0.8570 0.8550 0.8540
12.280079 0.8520 0.8500 0.8500 0.8490 0.8500
12.314000 0.8500 0.8500 0.8490 0.8470 0.8450
12.348079 0.8440 0.8420 0.8420 0.8420 0.8400
12.382000 0.8390 0.8390 0.8370 0.8340 0.8340
12.416079 0.8320 0.8300 0.8300 0.8270 0.8240
12.450000 0.8220 0.8220 0.8220 0.8220 0.8240
12.484079 0.8220 0.8220 0.8200 0.8200 0.8190
12.518000 0.8150 0.8120 0.8090 0.8090 0.7970
12.552079 0.7950 0.7850 0.7750 0.7670 0.7580
12.586000 0.7500 0.7400 0.7280 0.7230 0.7210
12.620079 0.7200 0.7180 0.7200 0.7210 0.7260
12.655000 0.7310 0.7370 0.7430 0.7480 0.7530
12.689079 0.7580 0.7620 0.7670 0.7700 0.7730
12.723000 0.7770 0.7800 0.7830 0.7870 0.7880
12.757079 0.7920 0.7930 0.7950 0.7980 0.8000
12.791000 0.8020 0.8040 0.8050 0.8070 0.8070
12.825079 0.8090 0.8100 0.8140 0.8170 0.8220
12.859000 0.8250 0.8300 0.8390 0.8390 0.8400
12.893079 0.8400 0.8400 0.8420 0.8440 0.8470
12.927000 0.8470 0.8470 0.8470 0.8470 0.8470
12.961079 0.8470 0.8450 0.8450 0.8450 0.8470
12.995000 0.8470 0.8470 0.8490 0.8490 0.8490
13.029079 0.8500 0.8520 0.8520 0.8540 0.8550
13.063000 0.8550 0.8570 0.8570 0.8590 0.8600
13.097079 0.8620 0.8650 0.8690 0.8690 0.8710
13.131000 0.8720 0.8740 0.8760 0.8760 0.8760
13.165079 0.8760 0.8770 0.8760 0.8790 0.8790
13.200000 0.8810 0.8820 0.8820 0.8840 0.8840
13.234079 0.8860 0.8860 0.8860 0.8860 0.8860
13.268000 0.8860 0.8860 0.8860 0.8860 0.8860
13.302079 0.8840 0.8860 0.8860 0.8860 0.8890
13.336000 0.8890 0.8910 0.8920 0.8940 0.8960
13.370079 0.8970 0.8970 0.8970 0.8990 0.8990
13.404000 0.9010 0.9010 0.9020 0.9040 0.9060
13.438079 0.9070 0.9090 0.9110 0.9110 0.9120
13.472000 0.9140 0.9160 0.9170 0.9190 0.9210
13.506079 0.9220 0.9240 0.9240 0.9260 0.9260
13.540000 0.9260 0.9240 0.9210 0.9210 0.9220
13.574079 0.9240 0.9290 0.9310 0.9320 0.9340
13.608000 0.9340 0.9340 0.9360 0.9360 0.9380
13.642079 0.9390 0.9380 0.9380 0.9390 0.9390
13.676000 0.9380 0.9380 0.9390 0.9390 0.9390
13.710079 0.9390 0.9430 0.9430 0.9430 0.9430
13.745000 0.9410 0.9390 0.9390 0.9380 0.9390
13.779079 0.9390 0.9430 0.9460 0.9480 0.9480
13.813000 0.9480 0.9480 0.9480 0.9480 0.9460
13.847079 0.9430 0.9410 0.9410 0.9410 0.9410
13.881000 0.9390 0.9380 0.9380 0.9380 0.9360
13.915079 0.9340 0.9320 0.9310 0.9290 0.9270
13.949000 0.9260 0.9220 0.9210 0.9170 0.9140
13.983079 0.9120 0.9070 0.9040 0.8990 0.8940
14.017000 0.8890 0.8820 0.8760 0.8670 0.8570
14.051079 0.8550 0.8520 0.8490 0.8470 0.8440
14.085000 0.8420 0.8400 0.8350 0.8340 0.8320
14.119079 0.8300 0.8270 0.8270 0.8250 0.8250
14.153000 0.8240 0.8220 0.8220 0.8200 0.8200
14.187079 0.8200 0.8200 0.8190 0.8170 0.8150
14.221000 0.8120 0.8100 0.8070 0.8050 0.8040
14.255079 0.8000 0.7980 0.7970 0.7970 0.7950
14.290000 0.7950 0.7950 0.7970 0.7950 0.7950
14.324079 0.7950 0.7930 0.7930 0.7920 0.7920
14.358000 0.7920 0.7920 0.7900 0.7880 0.7880
14.392079 0.7870 0.7850 0.7830 0.7820 0.7800
14.426000 0.7800 0.7770 0.7720 0.7680 0.7680
14.460079 0.7670 0.7650 0.7600 0.7570 0.7530
14.494000 0.7530 0.7520 0.7450 0.7430 0.7420
14.528079 0.7370 0.7330 0.7310 0.7280 0.7250
14.562000 0.7230 0.7230 0.7250 0.7260 0.7280
14.596079 0.7300 0.7310 0.7330 0.7350 0.7380
14.630000 0.7400 0.7450 0.7480 0.7530 0.7580
14.664079 0.7600 0.7630 0.7670 0.7680 0.7730
14.698000 0.7770 0.7830 0.7920 0.8000 0.8040
14.732079 0.8070 0.8120 0.8150 0.8220 0.8270
14.766000 0.8320 0.8440 0.8500 0.8550 0.8600
14.800079 0.8640 0.8670 0.8720 0.8740 0.8760
14.835000 0.8770 0.8770 0.8810 0.8810 0.8820
14.869079 0.8840 0.8860 0.8870 0.8890 0.8890
14.903000 0.8940 0.8960 0.8960 0.8970 0.8970
14.937079 0.8990 0.8990 0.9020 0.9040 0.9060
14.971000 0.9070 0.9070 0.9070 0.9070 0.9060
15.005079 0.9060 0.9060 0.9070 0.9070 0.9070
15.039000 0.9090 0.9090 0.9070 0.9070 0.9040
15.073079 0.9020 0.8990 0.8970 0.8920 0.8870
15.107000 0.8790 0.8720 0.8640 0.8590 0.8450
15.141079 0.8390 0.8300 0.8140 0.7970 0.7830
15.175000 0.7730 0.7630 0.7520 0.7450 0.7400
15.209079 0.7300 0.7260 0.7250 0.7260 0.7400
15.243000 0.7470 0.7550 0.7620 0.7700 0.7800
15.277079 0.7880 0.7980 0.8070 0.8150 0.8240
15.311000 0.8320 0.8450 0.8520 0.8550 0.8590
15.345079 0.8600 0.8620 0.8650 0.8670 0.8710
15.380000 0.8720 0.8760 0.8770 0.8790 0.8790
15.414079 0.8820 0.8820 0.8840 0.8840 0.8840
15.448000 0.8840 0.8860 0.8860 0.8840 0.8840
15.482079 0.8840 0.8840 0.8860
##END=
