##TITLE=TRIPHOSPHORIC ACID, PENTASODIUM SALT
##JCAMP-DX=4.24
##DATA TYPE=INFRARED SPECTRUM
##CLASS=COBLENTZ III
##ORIGIN=DOW CHEMICAL COMPANY
##OWNER=COBLENTZ SOCIETY
Collection (C) 2018 copyright by the U.S. Secretary of Commerce
on behalf of the United States of America. All rights reserved.
##DATE=1958/11/12
##MOLFORM=O10 Na5 P3
##SOURCE REFERENCE=COBLENTZ NO. 4335
##$NIST ID=B6004335
##$NIST SOURCE=COBLENTZ
##$NIST IMAGE=cob4335
##SPECTROMETER/DATA SYSTEM=DOW KBr FOREPRISM-GRATING
##INSTRUMENT PARAMETERS=BLAZED AT 3.5, 12.0, 20.0 MICRON; GRATING CHANGES AT 5.0, 7.5, 14.9 MICRON
##STATE=SOLID (SPLIT MULL, FLUOROLUBE FOR 3800-1330 AND NUJOL FOR 1330-450 CM ^-^1)
##PATH LENGTH=
$$ ACETONE INSOLUBLE
##SAMPLING PROCEDURE=TRANSMISSION
##RESOLUTION=4
##DATA PROCESSING=DIGITIZED BY NIST FROM HARD COPY (FROM TWO SEGMENTS)
##XUNITS=1/CM
##YUNITS=TRANSMITTANCE
##XFACTOR=1.000000
##YFACTOR=1
##DELTAX=1.185777
##FIRSTX=447.826
##LASTX=3797.65
##FIRSTY=0.388
##MAXX=3797.65
##MINX=447.826
##MAXY=0.996
##MINY=0.011
##NPOINTS=2826
##XYDATA=(X++(Y..Y))
447.826000 0.3880 0.3840 0.3810 0.3770 0.3730
453.754885 0.3680 0.3620 0.3590 0.3550 0.3510
459.683770 0.3460 0.3400 0.3350 0.3310 0.3240
465.612655 0.3160 0.3130 0.3021 0.2921 0.2870
471.541540 0.2810 0.2740 0.2680 0.2670 0.2550
477.470425 0.2520 0.2430 0.2331 0.2320 0.2320
483.399310 0.2350 0.2370 0.2410 0.2440 0.2500
489.328195 0.2550 0.2630 0.2680 0.2700 0.2650
495.257080 0.2630 0.2570 0.2480 0.2430 0.2370
501.185965 0.2330 0.2330 0.2330 0.2330 0.2330
507.114850 0.2320 0.2280 0.2220 0.2170 0.2130
513.043735 0.2080 0.2060 0.2060 0.2090 0.2219
518.972620 0.2370 0.2500 0.2520 0.2720 0.2870
524.901505 0.3049 0.3090 0.3110 0.3110 0.3110
530.830390 0.3090 0.3050 0.3030 0.3000 0.2960
536.759275 0.2890 0.2890 0.2791 0.2740 0.2700
542.688160 0.2650 0.2610 0.2550 0.2500 0.2390
548.617045 0.2260 0.2131 0.2080 0.2020 0.2000
554.545930 0.1980 0.1970 0.1950 0.1950 0.1930
560.474815 0.1930 0.1890 0.1890 0.1870 0.1870
566.403700 0.1860 0.1860 0.1860 0.1870 0.1910
572.332585 0.2020 0.2149 0.2299 0.2499 0.2589
578.261470 0.2740 0.2900 0.3130 0.3140 0.3240
584.190355 0.3310 0.3439 0.3490 0.3550 0.3600
590.119240 0.3620 0.3640 0.3680 0.3680 0.3640
596.048125 0.3590 0.3371 0.3131 0.2981 0.2831
601.977010 0.2700 0.2550 0.2390 0.2350 0.2330
607.905895 0.2320 0.2320 0.2330 0.2390 0.2430
613.834780 0.2520 0.2680 0.2790 0.2890 0.3020
619.763665 0.3199 0.3379 0.3509 0.3550 0.3639
625.692550 0.3720 0.3810 0.3900 0.3970 0.4050
631.621435 0.4080 0.4160 0.4250 0.4320 0.4489
637.550320 0.4620 0.4640 0.4730 0.4760 0.4950
643.479205 0.4970 0.5000 0.5000 0.4970 0.4950
649.408090 0.4860 0.4760 0.4640 0.4490 0.4360
655.336975 0.4051 0.3721 0.3491 0.3490 0.3659
661.265860 0.3700 0.3700 0.3720 0.3720 0.3750
667.194745 0.3830 0.3969 0.4060 0.4179 0.4269
673.123630 0.4360 0.4470 0.4560 0.4600 0.4670
679.052515 0.4889 0.4950 0.4970 0.4990 0.5000
684.981400 0.5000 0.5000 0.5000 0.5000 0.4970
690.910285 0.4970 0.4950 0.4930 0.4910 0.4860
696.839170 0.4820 0.4780 0.4760 0.4730 0.4690
702.768055 0.4670 0.4600 0.4580 0.4580 0.4560
708.696940 0.4510 0.4450 0.4450 0.4360 0.4320
714.625825 0.4290 0.4250 0.4250 0.4230 0.4230
720.554710 0.4210 0.4210 0.4190 0.4160 0.4060
726.483595 0.3970 0.3880 0.3840 0.3830 0.3840
732.412481 0.3840 0.3880 0.3920 0.4080 0.4270
738.341366 0.4559 0.4690 0.4929 0.5149 0.5240
744.270251 0.5350 0.5410 0.5500 0.5540 0.5610
750.199136 0.5630 0.5650 0.5650 0.5670 0.5670
756.128021 0.5670 0.5670 0.5670 0.5650 0.5650
762.056906 0.5670 0.5670 0.5670 0.5700 0.5700
767.985791 0.5720 0.5740 0.5780 0.5810 0.5850
773.914676 0.5890 0.5910 0.5910 0.5960 0.5960
779.843561 0.6020 0.6050 0.6050 0.6110 0.6130
785.772446 0.6150 0.6160 0.6180 0.6180 0.6200
791.701331 0.6200 0.6220 0.6240 0.6240 0.6240
797.630216 0.6260 0.6260 0.6270 0.6270 0.6270
803.559101 0.6270 0.6290 0.6290 0.6290 0.6310
809.487986 0.6310 0.6310 0.6310 0.6310 0.6310
815.416871 0.6310 0.6310 0.6310 0.6310 0.6310
821.345756 0.6290 0.6290 0.6270 0.6270 0.6260
827.274641 0.6240 0.6220 0.6200 0.6200 0.6180
833.203526 0.6160 0.6150 0.6130 0.6110 0.6090
839.132411 0.6070 0.6040 0.6020 0.5980 0.5930
845.061296 0.5910 0.5870 0.5870 0.5810 0.5740
850.990181 0.5630 0.5610 0.5480 0.5410 0.5300
856.919066 0.5240 0.5210 0.4911 0.4781 0.4601
862.847951 0.4450 0.4250 0.4010 0.3720 0.3680
868.776836 0.3161 0.2811 0.2611 0.2331 0.2081
874.705721 0.1890 0.1650 0.1620 0.1280 0.1160
880.634606 0.0950 0.0880 0.0810 0.0770 0.0750
886.563491 0.0710 0.0680 0.0640 0.0620 0.0580
892.492376 0.0580 0.0570 0.0570 0.0570 0.0580
898.421261 0.0600 0.0620 0.0640 0.0680 0.0690
904.350146 0.0730 0.0770 0.0840 0.0900 0.0950
910.279031 0.1010 0.1060 0.1120 0.1170 0.1250
916.207916 0.1360 0.1410 0.1579 0.1670 0.1859
922.136801 0.1890 0.2020 0.2170 0.2330 0.2430
928.065686 0.2610 0.2740 0.2900 0.3069 0.3160
933.994571 0.3290 0.3460 0.3550 0.3700 0.3790
939.923456 0.4010 0.4010 0.4060 0.4080 0.4100
945.852341 0.4100 0.4100 0.4080 0.4050 0.4050
951.781226 0.3990 0.3970 0.3970 0.3950 0.3950
957.710111 0.3970 0.4010 0.4030 0.4060 0.4100
963.638996 0.4100 0.4120 0.4140 0.4140 0.4160
969.567881 0.4180 0.4180 0.4190 0.4210 0.4210
975.496766 0.4230 0.4270 0.4270 0.4270 0.4250
981.425651 0.4230 0.4210 0.4230 0.4270 0.4360
987.354536 0.4510 0.4690 0.4800 0.4999 0.5129
993.283421 0.5170 0.5230 0.5260 0.5300 0.5320
999.212306 0.5340 0.5340 0.5340 0.5300 0.5260
1005.141191 0.5190 0.5100 0.4990 0.4880 0.4640
1011.070076 0.4560 0.4560 0.4600 0.4670 0.4690
1016.998961 0.4690 0.4640 0.4580 0.4510 0.4470
1022.927846 0.4380 0.4300 0.4290 0.4290 0.4300
1028.856731 0.4380 0.4410 0.4450 0.4450 0.4380
1034.785616 0.4360 0.4290 0.4270 0.4230 0.4061
1040.714501 0.4010 0.3970 0.3920 0.3880 0.3840
1046.643386 0.3830 0.3830 0.3810 0.3730 0.3680
1052.572271 0.3660 0.3620 0.3550 0.3480 0.3400
1058.501156 0.3400 0.3180 0.3070 0.3020 0.2940
1064.430041 0.2810 0.2700 0.2630 0.2460 0.2300
1070.358926 0.2190 0.2060 0.1930 0.1820 0.1730
1076.287811 0.1650 0.1580 0.1450 0.1380 0.1300
1082.216696 0.1270 0.1190 0.1100 0.1040 0.1030
1088.145581 0.0860 0.0750 0.0640 0.0570 0.0530
1094.074466 0.0530 0.0510 0.0510 0.0510 0.0510
1100.003351 0.0530 0.0530 0.0530 0.0510 0.0490
1105.932236 0.0460 0.0440 0.0420 0.0400 0.0360
1111.861121 0.0340 0.0340 0.0330 0.0290 0.0270
1117.790006 0.0250 0.0220 0.0200 0.0180 0.0180
1123.718891 0.0160 0.0160 0.0140 0.0120 0.0120
1129.647776 0.0120 0.0120 0.0120 0.0120 0.0120
1135.576661 0.0120 0.0110 0.0110 0.0110 0.0110
1141.505546 0.0110 0.0110 0.0120 0.0120 0.0120
1147.434431 0.0120 0.0120 0.0120 0.0120 0.0120
1153.363316 0.0140 0.0140 0.0140 0.0140 0.0140
1159.292201 0.0160 0.0160 0.0160 0.0180 0.0180
1165.221086 0.0200 0.0200 0.0220 0.0220 0.0250
1171.149971 0.0270 0.0310 0.0330 0.0340 0.0380
1177.078856 0.0420 0.0440 0.0460 0.0490 0.0510
1183.007741 0.0530 0.0600 0.0640 0.0770 0.0900
1188.936626 0.1030 0.1120 0.1210 0.1230 0.1429
1194.865511 0.1510 0.1630 0.1650 0.1630 0.1560
1200.794396 0.1520 0.1430 0.1270 0.1101 0.0771
1206.723281 0.0640 0.0620 0.0620 0.0660 0.0690
1212.652166 0.0810 0.0880 0.0970 0.1010 0.1229
1218.581051 0.1380 0.1510 0.1670 0.1820 0.1910
1224.509936 0.2080 0.2220 0.2390 0.2500 0.2630
1230.438821 0.2741 0.3000 0.3090 0.3180 0.3330
1236.367706 0.3480 0.3640 0.3770 0.3969 0.4080
1242.296591 0.4360 0.4401 0.4560 0.4670 0.4800
1248.225476 0.4930 0.5040 0.5150 0.5340 0.5500
1254.154361 0.5560 0.5670 0.5810 0.5930 0.6020
1260.083246 0.6090 0.6220 0.6350 0.6350 0.6460
1266.012131 0.6480 0.6570 0.6620 0.6640 0.6680
1271.941016 0.6750 0.6770 0.6790 0.6790 0.6850
1277.869901 0.6860 0.6880 0.6880 0.6900 0.6920
1283.798786 0.6920 0.6940 0.6940 0.6960 0.6960
1289.727672 0.6960 0.6960 0.6970 0.6970 0.6970
1295.656557 0.6990 0.6990 0.6990 0.7010 0.7010
1301.585442 0.7010 0.7030 0.7030 0.7050 0.7050
1307.514327 0.7050 0.7050 0.7070 0.7070 0.7090
1313.443212 0.7090 0.7090 0.7100 0.7100 0.7100
1319.372097 0.7120 0.7120 0.7120 0.7140 0.7140
1325.300982 0.7140 0.7160 0.7160 0.7160 0.7160
1331.229867 0.7140 0.7100 0.7090 0.7010 0.6940
1337.158752 0.6900 0.6810 0.6790 0.6750 0.6660
1343.087637 0.6590 0.6550 0.6570 0.6620 0.6700
1349.016522 0.6881 0.7030 0.7180 0.7310 0.7440
1354.945407 0.7490 0.7580 0.7660 0.7690 0.7730
1360.874292 0.7750 0.7770 0.7790 0.7790 0.7840
1366.803177 0.7860 0.7860 0.7880 0.7900 0.7910
1372.732062 0.7930 0.7930 0.7970 0.7990 0.8010
1378.660947 0.8020 0.8040 0.8060 0.8120 0.8150
1384.589832 0.8150 0.8150 0.8130 0.8130 0.8120
1390.518717 0.8120 0.8100 0.8100 0.8100 0.8080
1396.447602 0.8080 0.8060 0.8060 0.8060 0.8060
1402.376487 0.8020 0.8020 0.7990 0.7970 0.7950
1408.305372 0.7950 0.7930 0.7910 0.7910 0.7900
1414.234257 0.7900 0.7880 0.7880 0.7860 0.7840
1420.163142 0.7840 0.7860 0.7840 0.7840 0.7840
1426.092027 0.7800 0.7800 0.7790 0.7770 0.7750
1432.020912 0.7730 0.7730 0.7710 0.7710 0.7690
1437.949797 0.7690 0.7670 0.7670 0.7670 0.7660
1443.878682 0.7660 0.7640 0.7640 0.7620 0.7620
1449.807567 0.7600 0.7600 0.7580 0.7580 0.7560
1455.736452 0.7560 0.7560 0.7560 0.7550 0.7550
1461.665337 0.7530 0.7530 0.7510 0.7510 0.7530
1467.594222 0.7560 0.7640 0.7710 0.7770 0.7820
1473.523107 0.7970 0.8040 0.8060 0.8080 0.8150
1479.451992 0.8190 0.8230 0.8280 0.8320 0.8340
1485.380877 0.8360 0.8370 0.8390 0.8410 0.8410
1491.309762 0.8430 0.8430 0.8470 0.8470 0.8470
1497.238647 0.8480 0.8500 0.8500 0.8520 0.8520
1503.167532 0.8540 0.8580 0.8600 0.8610 0.8650
1509.096417 0.8690 0.8720 0.8740 0.8760 0.8760
1515.025302 0.8780 0.8800 0.8820 0.8830 0.8850
1520.954187 0.8870 0.8870 0.8870 0.8870 0.8850
1526.883072 0.8850 0.8850 0.8830 0.8830 0.8830
1532.811957 0.8820 0.8820 0.8800 0.8800 0.8780
1538.740842 0.8780 0.8780 0.8780 0.8760 0.8760
1544.669727 0.8760 0.8740 0.8740 0.8740 0.8740
1550.598612 0.8720 0.8720 0.8720 0.8720 0.8720
1556.527497 0.8720 0.8720 0.8720 0.8720 0.8710
1562.456382 0.8710 0.8690 0.8650 0.8630 0.8610
1568.385267 0.8600 0.8580 0.8560 0.8540 0.8520
1574.314152 0.8500 0.8470 0.8430 0.8430 0.8390
1580.243037 0.8370 0.8320 0.8300 0.8260 0.8250
1586.171922 0.8230 0.8210 0.8190 0.8190 0.8170
1592.100807 0.8150 0.8150 0.8130 0.8120 0.8080
1598.029692 0.8060 0.8040 0.8040 0.8020 0.8020
1603.958577 0.8010 0.8010 0.7990 0.7990 0.7970
1609.887462 0.7970 0.7950 0.7930 0.7930 0.7910
1615.816347 0.7910 0.7900 0.7880 0.7860 0.7840
1621.745232 0.7820 0.7820 0.7800 0.7790 0.7790
1627.674117 0.7770 0.7770 0.7750 0.7730 0.7730
1633.603002 0.7710 0.7690 0.7690 0.7670 0.7660
1639.531887 0.7640 0.7620 0.7600 0.7600 0.7580
1645.460772 0.7560 0.7490 0.7440 0.7420 0.7420
1651.389657 0.7400 0.7400 0.7400 0.7400 0.7400
1657.318542 0.7380 0.7380 0.7360 0.7360 0.7360
1663.247427 0.7340 0.7340 0.7340 0.7320 0.7320
1669.176312 0.7320 0.7320 0.7320 0.7340 0.7340
1675.105197 0.7360 0.7380 0.7400 0.7440 0.7450
1681.034082 0.7470 0.7510 0.7530 0.7550 0.7580
1686.962967 0.7600 0.7620 0.7660 0.7690 0.7750
1692.891852 0.7790 0.7820 0.7880 0.7990 0.8060
1698.820737 0.8100 0.8120 0.8170 0.8230 0.8260
1704.749622 0.8300 0.8360 0.8390 0.8450 0.8480
1710.678507 0.8500 0.8540 0.8580 0.8600 0.8630
1716.607392 0.8630 0.8650 0.8690 0.8710 0.8740
1722.536277 0.8780 0.8820 0.8850 0.8870 0.8910
1728.465162 0.8910 0.8930 0.8930 0.8950 0.8960
1734.394047 0.9000 0.9040 0.9060 0.9060 0.9070
1740.322932 0.9090 0.9110 0.9130 0.9150 0.9150
1746.251817 0.9170 0.9170 0.9170 0.9180 0.9200
1752.180702 0.9200 0.9220 0.9240 0.9240 0.9260
1758.109587 0.9260 0.9260 0.9280 0.9280 0.9300
1764.038472 0.9300 0.9310 0.9310 0.9330 0.9330
1769.967357 0.9350 0.9350 0.9350 0.9350 0.9370
1775.896242 0.9370 0.9370 0.9370 0.9370 0.9390
1781.825127 0.9410 0.9410 0.9420 0.9420 0.9420
1787.754012 0.9420 0.9440 0.9440 0.9440 0.9440
1793.682897 0.9460 0.9460 0.9460 0.9460 0.9460
1799.611782 0.9460 0.9460 0.9480 0.9480 0.9500
1805.540667 0.9500 0.9500 0.9500 0.9500 0.9500
1811.469552 0.9500 0.9520 0.9530 0.9530 0.9530
1817.398437 0.9530 0.9530 0.9530 0.9530 0.9530
1823.327322 0.9530 0.9530 0.9530 0.9550 0.9550
1829.256207 0.9550 0.9550 0.9550 0.9550 0.9550
1835.185092 0.9570 0.9570 0.9570 0.9570 0.9570
1841.113977 0.9590 0.9590 0.9610 0.9610 0.9610
1847.042863 0.9610 0.9610 0.9610 0.9610 0.9610
1852.971748 0.9610 0.9610 0.9610 0.9610 0.9610
1858.900633 0.9610 0.9610 0.9610 0.9610 0.9630
1864.829518 0.9630 0.9630 0.9630 0.9630 0.9650
1870.758403 0.9660 0.9660 0.9660 0.9660 0.9660
1876.687288 0.9680 0.9680 0.9680 0.9680 0.9720
1882.616173 0.9720 0.9720 0.9740 0.9740 0.9740
1888.545058 0.9740 0.9760 0.9760 0.9760 0.9760
1894.473943 0.9760 0.9760 0.9770 0.9770 0.9770
1900.402828 0.9770 0.9770 0.9770 0.9770 0.9770
1906.331713 0.9770 0.9770 0.9790 0.9790 0.9790
1912.260598 0.9790 0.9790 0.9790 0.9790 0.9790
1918.189483 0.9790 0.9790 0.9790 0.9790 0.9790
1924.118368 0.9790 0.9790 0.9790 0.9790 0.9790
1930.047253 0.9790 0.9790 0.9790 0.9790 0.9790
1935.976138 0.9790 0.9790 0.9790 0.9790 0.9810
1941.905023 0.9810 0.9830 0.9830 0.9830 0.9830
1947.833908 0.9830 0.9830 0.9830 0.9830 0.9830
1953.762793 0.9830 0.9810 0.9810 0.9810 0.9810
1959.691678 0.9810 0.9810 0.9810 0.9810 0.9810
1965.620563 0.9810 0.9810 0.9810 0.9790 0.9790
1971.549448 0.9790 0.9790 0.9790 0.9790 0.9790
1977.478333 0.9790 0.9790 0.9790 0.9790 0.9790
1983.407218 0.9790 0.9790 0.9770 0.9770 0.9770
1989.336103 0.9770 0.9770 0.9770 0.9760 0.9740
1995.264988 0.9720 0.9700 0.9660 0.9660 0.9650
2001.193873 0.9640 0.9630 0.9630 0.9630 0.9620
2007.122758 0.9610 0.9610 0.9610 0.9600 0.9590
2013.051643 0.9590 0.9590 0.9590 0.9590 0.9590
2018.980528 0.9590 0.9590 0.9590 0.9590 0.9590
2024.909413 0.9590 0.9590 0.9580 0.9570 0.9570
2030.838298 0.9570 0.9570 0.9570 0.9570 0.9570
2036.767183 0.9570 0.9570 0.9570 0.9569 0.9559
2042.696068 0.9549 0.9539 0.9530 0.9530 0.9530
2048.624953 0.9525 0.9519 0.9509 0.9499 0.9489
2054.553838 0.9480 0.9480 0.9480 0.9480 0.9479
2060.482723 0.9469 0.9460 0.9460 0.9459 0.9449
2066.411608 0.9439 0.9429 0.9420 0.9420 0.9418
2072.340493 0.9403 0.9389 0.9379 0.9369 0.9359
2078.269378 0.9349 0.9339 0.9329 0.9319 0.9309
2084.198263 0.9304 0.9299 0.9289 0.9279 0.9269
2090.127148 0.9259 0.9249 0.9237 0.9217 0.9198
2096.056033 0.9188 0.9179 0.9174 0.9170 0.9170
2101.984918 0.9168 0.9158 0.9150 0.9150 0.9148
2107.913803 0.9138 0.9130 0.9130 0.9130 0.9130
2113.842688 0.9128 0.9118 0.9110 0.9110 0.9108
2119.771573 0.9098 0.9090 0.9090 0.9090 0.9090
2125.700458 0.9088 0.9078 0.9070 0.9070 0.9070
2131.629343 0.9070 0.9070 0.9070 0.9070 0.9070
2137.558228 0.9070 0.9070 0.9070 0.9070 0.9069
2143.487113 0.9064 0.9060 0.9060 0.9060 0.9060
2149.415998 0.9060 0.9060 0.9058 0.9048 0.9040
2155.344883 0.9040 0.9040 0.9040 0.9037 0.9027
2161.273768 0.9020 0.9020 0.9020 0.9020 0.9017
2167.202653 0.9007 0.9003 0.9013 0.9017 0.9007
2173.131538 0.9000 0.9000 0.9000 0.9000 0.8997
2179.060423 0.8987 0.8980 0.8980 0.8980 0.8980
2184.989308 0.8980 0.8980 0.8980 0.8980 0.8980
2190.918193 0.8980 0.8980 0.8980 0.8980 0.8980
2196.847078 0.8980 0.8980 0.8980 0.8980 0.8980
2202.775963 0.8980 0.8980 0.8980 0.8980 0.8980
2208.704848 0.8977 0.8967 0.8958 0.8953 0.8946
2214.633733 0.8936 0.8926 0.8916 0.8910 0.8910
2220.562618 0.8906 0.8896 0.8886 0.8876 0.8866
2226.491503 0.8856 0.8850 0.8850 0.8846 0.8836
2232.420388 0.8828 0.8823 0.8816 0.8806 0.8796
2238.349273 0.8786 0.8776 0.8766 0.8756 0.8746
2244.278158 0.8736 0.8726 0.8720 0.8720 0.8718
2250.207043 0.8713 0.8710 0.8710 0.8706 0.8696
2256.135928 0.8690 0.8690 0.8686 0.8676 0.8670
2262.064813 0.8670 0.8670 0.8670 0.8666 0.8656
2267.993698 0.8650 0.8650 0.8650 0.8650 0.8646
2273.922583 0.8635 0.8630 0.8630 0.8630 0.8630
2279.851468 0.8625 0.8615 0.8610 0.8610 0.8608
2285.780353 0.8603 0.8600 0.8600 0.8600 0.8600
2291.709238 0.8595 0.8585 0.8580 0.8580 0.8580
2297.638123 0.8580 0.8580 0.8580 0.8585 0.8595
2303.567008 0.8600 0.8600 0.8603 0.8608 0.8615
2309.495893 0.8625 0.8630 0.8630 0.8635 0.8645
2315.424778 0.8650 0.8650 0.8655 0.8665 0.8670
2321.353663 0.8670 0.8670 0.8670 0.8670 0.8670
2327.282548 0.8675 0.8685 0.8690 0.8690 0.8690
2333.211433 0.8690 0.8690 0.8690 0.8690 0.8690
2339.140318 0.8690 0.8690 0.8696 0.8706 0.8713
2345.069203 0.8718 0.8720 0.8720 0.8731 0.8751
2350.998088 0.8760 0.8760 0.8777 0.8808 0.8823
2356.926973 0.8828 0.8836 0.8846 0.8856 0.8866
2362.855858 0.8876 0.8886 0.8896 0.8906 0.8916
2368.784743 0.8926 0.8930 0.8930 0.8936 0.8946
2374.713628 0.8950 0.8950 0.8950 0.8950 0.8950
2380.642513 0.8950 0.8950 0.8950 0.8950 0.8950
2386.571398 0.8953 0.8958 0.8960 0.8960 0.8966
2392.500283 0.8976 0.8980 0.8980 0.8986 0.8996
2398.429168 0.9000 0.9000 0.9000 0.9000 0.9007
2404.358054 0.9017 0.9020 0.9020 0.9027 0.9037
2410.286939 0.9040 0.9040 0.9040 0.9040 0.9047
2416.215824 0.9057 0.9060 0.9060 0.9063 0.9068
2422.144709 0.9070 0.9070 0.9077 0.9087 0.9090
2428.073594 0.9090 0.9090 0.9090 0.9090 0.9090
2434.002479 0.9090 0.9090 0.9090 0.9090 0.9090
2439.931364 0.9090 0.9097 0.9107 0.9110 0.9110
2445.860249 0.9117 0.9127 0.9130 0.9130 0.9130
2451.789134 0.9130 0.9130 0.9130 0.9130 0.9130
2457.718019 0.9130 0.9130 0.9138 0.9148 0.9150
2463.646904 0.9150 0.9150 0.9150 0.9150 0.9150
2469.575789 0.9150 0.9150 0.9158 0.9168 0.9170
2475.504674 0.9170 0.9170 0.9170 0.9170 0.9170
2481.433559 0.9174 0.9179 0.9180 0.9180 0.9180
2487.362444 0.9180 0.9180 0.9180 0.9180 0.9180
2493.291329 0.9188 0.9198 0.9200 0.9200 0.9200
2499.220214 0.9200 0.9200 0.9200 0.9208 0.9218
2505.149099 0.9220 0.9220 0.9220 0.9220 0.9220
2511.077984 0.9220 0.9220 0.9220 0.9220 0.9220
2517.006869 0.9220 0.9220 0.9220 0.9220 0.9220
2522.935754 0.9220 0.9220 0.9220 0.9220 0.9220
2528.864639 0.9220 0.9220 0.9220 0.9220 0.9220
2534.793524 0.9220 0.9220 0.9220 0.9211 0.9201
2540.722409 0.9200 0.9200 0.9200 0.9200 0.9200
2546.651294 0.9200 0.9200 0.9200 0.9191 0.9181
2552.580179 0.9180 0.9180 0.9180 0.9180 0.9180
2558.509064 0.9180 0.9180 0.9180 0.9175 0.9170
2564.437949 0.9170 0.9170 0.9170 0.9170 0.9170
2570.366834 0.9170 0.9160 0.9150 0.9150 0.9150
2576.295719 0.9150 0.9150 0.9150 0.9150 0.9150
2582.224604 0.9150 0.9140 0.9130 0.9130 0.9130
2588.153489 0.9130 0.9130 0.9130 0.9130 0.9130
2594.082374 0.9130 0.9120 0.9110 0.9110 0.9110
2600.011259 0.9110 0.9110 0.9110 0.9110 0.9100
2605.940144 0.9090 0.9090 0.9090 0.9090 0.9090
2611.869029 0.9090 0.9090 0.9080 0.9070 0.9070
2617.797914 0.9070 0.9070 0.9070 0.9070 0.9070
2623.726799 0.9065 0.9060 0.9060 0.9060 0.9050
2629.655684 0.9040 0.9040 0.9040 0.9040 0.9040
2635.584569 0.9040 0.9040 0.9029 0.9020 0.9020
2641.513454 0.9019 0.9009 0.9000 0.9000 0.8999
2647.442339 0.8989 0.8980 0.8980 0.8979 0.8969
2653.371224 0.8960 0.8955 0.8950 0.8950 0.8950
2659.300109 0.8950 0.8949 0.8939 0.8930 0.8930
2665.228994 0.8929 0.8919 0.8910 0.8910 0.8909
2671.157879 0.8899 0.8890 0.8890 0.8890 0.8890
2677.086764 0.8889 0.8879 0.8871 0.8881 0.8889
2683.015649 0.8879 0.8869 0.8859 0.8850 0.8850
2688.944534 0.8850 0.8850 0.8848 0.8838 0.8829
2694.873419 0.8824 0.8820 0.8820 0.8818 0.8808
2700.802304 0.8798 0.8788 0.8780 0.8780 0.8777
2706.731189 0.8757 0.8740 0.8740 0.8738 0.8728
2712.660074 0.8720 0.8720 0.8719 0.8714 0.8710
2718.588959 0.8710 0.8708 0.8698 0.8688 0.8678
2724.517844 0.8670 0.8670 0.8668 0.8658 0.8650
2730.446729 0.8650 0.8648 0.8638 0.8628 0.8618
2736.375614 0.8609 0.8604 0.8600 0.8600 0.8598
2742.304499 0.8588 0.8580 0.8580 0.8578 0.8568
2748.233384 0.8558 0.8548 0.8540 0.8540 0.8538
2754.162269 0.8528 0.8518 0.8507 0.8497 0.8487
2760.091154 0.8479 0.8474 0.8467 0.8457 0.8447
2766.020039 0.8437 0.8427 0.8417 0.8403 0.8378
2771.948924 0.8360 0.8360 0.8357 0.8347 0.8340
2777.877809 0.8340 0.8337 0.8327 0.8317 0.8307
2783.806694 0.8300 0.8300 0.8297 0.8287 0.8277
2789.735579 0.8267 0.8255 0.8240 0.8230 0.8230
2795.664464 0.8227 0.8217 0.8207 0.8197 0.8184
2801.593349 0.8164 0.8147 0.8137 0.8125 0.8110
2807.522234 0.8100 0.8100 0.8096 0.8086 0.8073
2813.451119 0.8053 0.8036 0.8026 0.8015 0.8000
2819.380004 0.7986 0.7976 0.7966 0.7956 0.7946
2825.308889 0.7936 0.7924 0.7909 0.7892 0.7872
2831.237774 0.7852 0.7832 0.7814 0.7799 0.7790
2837.166659 0.7790 0.7782 0.7762 0.7738 0.7708
2843.095544 0.7680 0.7655 0.7636 0.7626 0.7606
2849.024429 0.7571 0.7538 0.7507 0.7479 0.7454
2854.953314 0.7436 0.7426 0.7411 0.7391 0.7367
2860.882199 0.7337 0.7318 0.7313 0.7301 0.7281
2866.811084 0.7270 0.7270 0.7266 0.7256 0.7250
2872.739969 0.7250 0.7246 0.7235 0.7225 0.7215
2878.668854 0.7208 0.7203 0.7195 0.7185 0.7175
2884.597739 0.7165 0.7155 0.7145 0.7130 0.7110
2890.526624 0.7093 0.7078 0.7065 0.7055 0.7036
2896.455509 0.7006 0.6983 0.6967 0.6950 0.6930
2902.384394 0.6920 0.6920 0.6915 0.6905 0.6887
2908.313279 0.6862 0.6835 0.6805 0.6780 0.6760
2914.242164 0.6737 0.6712 0.6679 0.6639 0.6602
2920.171049 0.6567 0.6537 0.6511 0.6495 0.6485
2926.099934 0.6480 0.6480 0.6480 0.6480 0.6480
2932.028819 0.6480 0.6480 0.6480 0.6480 0.6480
2937.957704 0.6474 0.6464 0.6454 0.6444 0.6415
2943.886589 0.6370 0.6344 0.6334 0.6309 0.6274
2949.815474 0.6230 0.6180 0.6157 0.6152 0.6144
2955.744359 0.6134 0.6136 0.6146 0.6153 0.6158
2961.673245 0.6172 0.6192 0.6212 0.6232 0.6255
2967.602130 0.6280 0.6296 0.6306 0.6323 0.6343
2973.531015 0.6356 0.6366 0.6370 0.6370 0.6370
2979.459900 0.6370 0.6364 0.6354 0.6344 0.6334
2985.388785 0.6330 0.6330 0.6324 0.6314 0.6297
2991.317670 0.6277 0.6267 0.6262 0.6253 0.6243
2997.246555 0.6220 0.6190 0.6170 0.6155 0.6137
3003.175440 0.6117 0.6103 0.6093 0.6083 0.6073
3009.104325 0.6053 0.6028 0.6013 0.6003 0.5986
3015.033210 0.5966 0.5950 0.5934 0.5916 0.5896
3020.962095 0.5851 0.5796 0.5773 0.5763 0.5753
3026.890980 0.5743 0.5722 0.5697 0.5669 0.5639
3032.819865 0.5623 0.5613 0.5603 0.5593 0.5579
3038.748750 0.5564 0.5538 0.5508 0.5493 0.5483
3044.677635 0.5469 0.5454 0.5443 0.5432 0.5422
3050.606520 0.5412 0.5395 0.5375 0.5359 0.5344
3056.535405 0.5332 0.5322 0.5297 0.5267 0.5249
3062.464290 0.5234 0.5230 0.5230 0.5222 0.5212
3068.393175 0.5194 0.5174 0.5162 0.5152 0.5142
3074.322060 0.5132 0.5118 0.5103 0.5084 0.5064
3080.250945 0.5060 0.5060 0.5052 0.5042 0.5032
3086.179830 0.5022 0.5012 0.5002 0.4996 0.4991
3092.108715 0.4982 0.4972 0.4953 0.4933 0.4913
3098.037600 0.4893 0.4886 0.4881 0.4872 0.4862
3103.966485 0.4852 0.4842 0.4832 0.4822 0.4812
3109.895370 0.4802 0.4791 0.4781 0.4771 0.4761
3115.824255 0.4756 0.4751 0.4741 0.4731 0.4721
3121.753140 0.4711 0.4701 0.4691 0.4681 0.4671
3127.682025 0.4661 0.4651 0.4637 0.4622 0.4602
3133.610910 0.4582 0.4571 0.4561 0.4546 0.4531
3139.539795 0.4521 0.4511 0.4501 0.4491 0.4481
3145.468680 0.4471 0.4461 0.4451 0.4441 0.4431
3151.397565 0.4421 0.4411 0.4396 0.4381 0.4371
3157.326450 0.4361 0.4351 0.4341 0.4331 0.4321
3163.255335 0.4311 0.4301 0.4295 0.4290 0.4281
3169.184220 0.4271 0.4260 0.4250 0.4240 0.4230
3175.113105 0.4211 0.4191 0.4185 0.4180 0.4170
3181.041990 0.4160 0.4150 0.4140 0.4130 0.4120
3186.970875 0.4100 0.4080 0.4065 0.4050 0.4030
3192.899760 0.4010 0.4000 0.3990 0.3980 0.3970
3198.828645 0.3970 0.3970 0.3960 0.3950 0.3945
3204.757530 0.3940 0.3930 0.3920 0.3910 0.3900
3210.686415 0.3890 0.3880 0.3880 0.3880 0.3870
3216.615300 0.3860 0.3850 0.3840 0.3835 0.3830
3222.544185 0.3830 0.3830 0.3820 0.3810 0.3800
3228.473070 0.3790 0.3780 0.3769 0.3759 0.3749
3234.401955 0.3739 0.3730 0.3730 0.3730 0.3725
3240.330840 0.3720 0.3720 0.3719 0.3709 0.3700
3246.259725 0.3700 0.3699 0.3689 0.3680 0.3680
3252.188610 0.3680 0.3680 0.3680 0.3680 0.3680
3258.117495 0.3680 0.3680 0.3680 0.3680 0.3680
3264.046380 0.3680 0.3680 0.3680 0.3680 0.3681
3269.975265 0.3691 0.3700 0.3700 0.3700 0.3700
3275.904150 0.3700 0.3700 0.3700 0.3700 0.3700
3281.833035 0.3700 0.3700 0.3700 0.3700 0.3700
3287.761920 0.3700 0.3700 0.3700 0.3700 0.3700
3293.690805 0.3700 0.3700 0.3700 0.3700 0.3700
3299.619690 0.3700 0.3700 0.3700 0.3700 0.3700
3305.548575 0.3700 0.3700 0.3700 0.3700 0.3700
3311.477460 0.3700 0.3700 0.3700 0.3700 0.3700
3317.406345 0.3700 0.3700 0.3700 0.3700 0.3700
3323.335230 0.3700 0.3700 0.3700 0.3700 0.3700
3329.264115 0.3700 0.3700 0.3700 0.3700 0.3700
3335.193000 0.3700 0.3700 0.3700 0.3700 0.3700
3341.121885 0.3700 0.3700 0.3700 0.3700 0.3700
3347.050770 0.3700 0.3700 0.3697 0.3687 0.3683
3352.979655 0.3693 0.3700 0.3700 0.3700 0.3700
3358.908540 0.3700 0.3700 0.3697 0.3687 0.3680
3364.837425 0.3680 0.3680 0.3680 0.3677 0.3667
3370.766310 0.3660 0.3660 0.3663 0.3673 0.3680
3376.695195 0.3680 0.3683 0.3693 0.3700 0.3700
3382.624080 0.3703 0.3713 0.3722 0.3727 0.3736
3388.552965 0.3756 0.3779 0.3809 0.3832 0.3837
3394.481850 0.3843 0.3853 0.3863 0.3873 0.3887
3400.410735 0.3907 0.3929 0.3954 0.3973 0.3983
3406.339620 0.3990 0.3990 0.3997 0.4017 0.4035
3412.268505 0.4050 0.4064 0.4074 0.4084 0.4094
3418.197390 0.4104 0.4114 0.4128 0.4148 0.4160
3424.126275 0.4160 0.4164 0.4174 0.4186 0.4201
3430.055160 0.4214 0.4224 0.4238 0.4258 0.4274
3435.984045 0.4284 0.4300 0.4325 0.4340 0.4340
3441.912930 0.4348 0.4368 0.4380 0.4380 0.4391
3447.841815 0.4416 0.4438 0.4458 0.4474 0.4484
3453.770700 0.4501 0.4526 0.4540 0.4540 0.4549
3459.699585 0.4569 0.4589 0.4609 0.4626 0.4641
3465.628470 0.4650 0.4650 0.4664 0.4694 0.4719
3471.557355 0.4739 0.4762 0.4787 0.4805 0.4815
3477.486240 0.4834 0.4864 0.4892 0.4917 0.4944
3483.415125 0.4974 0.4992 0.4997 0.5009 0.5029
3489.344010 0.5045 0.5055 0.5072 0.5098 0.5115
3495.272895 0.5125 0.5145 0.5175 0.5203 0.5228
3501.201780 0.5255 0.5285 0.5313 0.5338 0.5350
3507.130665 0.5350 0.5360 0.5380 0.5405 0.5435
3513.059550 0.5463 0.5488 0.5505 0.5515 0.5531
3518.988436 0.5551 0.5579 0.5614 0.5660 0.5715
3524.917321 0.5740 0.5740 0.5751 0.5771 0.5805
3530.846206 0.5850 0.5886 0.5916 0.5938 0.5953
3536.775091 0.5971 0.5991 0.6012 0.6032 0.6060
3542.703976 0.6095 0.6125 0.6150 0.6177 0.6207
3548.632861 0.6240 0.6275 0.6313 0.6353 0.6385
3554.561746 0.6410 0.6420 0.6420 0.6432 0.6452
3560.490631 0.6487 0.6533 0.6572 0.6607 0.6632
3566.419516 0.6652 0.6685 0.6725 0.6743 0.6748
3572.348401 0.6762 0.6782 0.6809 0.6839 0.6859
3578.277286 0.6874 0.6899 0.6929 0.6949 0.6964
3584.206171 0.6983 0.7003 0.7030 0.7060 0.7077
3590.135056 0.7087 0.7136 0.7206 0.7250 0.7280
3596.063941 0.7300 0.7315 0.7340 0.7370 0.7410
3601.992826 0.7455 0.7490 0.7520 0.7540 0.7555
3607.921711 0.7567 0.7577 0.7580 0.7580 0.7573
3613.850596 0.7563 0.7543 0.7518 0.7380 0.7195
3619.779481 0.7080 0.6995 0.6952 0.6927 0.6758
3625.708366 0.6528 0.6460 0.6460 0.6683 0.6998
3631.637251 0.7208 0.7376 0.7512 0.7637 0.7718
3637.566136 0.7783 0.7855 0.7930 0.8024 0.8124
3643.495021 0.8213 0.8298 0.8387 0.8477 0.8582
3649.423906 0.8692 0.8783 0.8868 0.8946 0.9021
3655.352791 0.9074 0.9120 0.9165 0.9210 0.9251
3661.281676 0.9291 0.9327 0.9362 0.9378 0.9388
3667.210561 0.9417 0.9452 0.9495 0.9540 0.9589
3673.139446 0.9639 0.9650 0.9650 0.9662 0.9677
3679.068331 0.9688 0.9698 0.9708 0.9718 0.9728
3684.997216 0.9738 0.9752 0.9767 0.9778 0.9788
3690.926101 0.9790 0.9790 0.9790 0.9790 0.9798
3696.854986 0.9808 0.9818 0.9828 0.9847 0.9867
3702.783871 0.9874 0.9879 0.9897 0.9917 0.9920
3708.712756 0.9920 0.9920 0.9920 0.9920 0.9920
3714.641641 0.9911 0.9901 0.9900 0.9900 0.9900
3720.570526 0.9900 0.9909 0.9919 0.9920 0.9920
3726.499411 0.9920 0.9920 0.9929 0.9939 0.9940
3732.428296 0.9940 0.9940 0.9940 0.9949 0.9959
3738.357181 0.9960 0.9960 0.9960 0.9960 0.9960
3744.286066 0.9960 0.9960 0.9960 0.9960 0.9960
3750.214951 0.9960 0.9960 0.9960 0.9960 0.9951
3756.143836 0.9941 0.9940 0.9940 0.9940 0.9940
3762.072721 0.9940 0.9940 0.9931 0.9921 0.9920
3768.001606 0.9920 0.9920 0.9920 0.9920 0.9920
3773.930491 0.9910 0.9900 0.9900 0.9900 0.9900
3779.859376 0.9900 0.9900 0.9900 0.9910 0.9920
3785.788261 0.9930 0.9940 0.9940 0.9940 0.9950
3791.717146 0.9960 0.9960 0.9960 0.9960 0.9960
3797.646031 0.9960
##END=
