##TITLE=SODIUM PHOSPHATE, MONOBASIC
$$ C.P.
##JCAMP-DX=4.24
##DATA TYPE=INFRARED SPECTRUM
##CLASS=COBLENTZ
##ORIGIN=MELLON INSTITUTE
##OWNER=COBLENTZ SOCIETY
Collection (C) 2018 copyright by the U.S. Secretary of Commerce
on behalf of the United States of America. All rights reserved.
##DATE=Not specified, most likely prior to 1970
##MOLFORM=Na H2 P O4  * H2 O
##SOURCE REFERENCE=COBLENTZ NO. 582
##$NIST ID=B6000582
##$NIST SOURCE=COBLENTZ
##$NIST IMAGE=cob582
##SPECTROMETER/DATA SYSTEM=Not specified, most likely a prism, grating, or hybrid spectrometer.
##STATE=SOLID (NUJOL AND FLUOROLUBE MULLS)
##SAMPLING PROCEDURE=TRANSMISSION
##RESOLUTION=4
##DATA PROCESSING=DIGITIZED BY NIST FROM HARD COPY
##XUNITS=MICROMETERS
##YUNITS=TRANSMITTANCE
##XFACTOR=1.000000
##YFACTOR=1
##DELTAX=000.006659
##FIRSTX=2.054
##LASTX=16.0309
##FIRSTY=0.852
##MAXX=16.0309
##MINX=2.054
##MAXY=1.001
##MINY=0.256
##NPOINTS=2100
##XYDATA=(X++(Y..Y))
2.054000 0.8520 0.8520 0.8520 0.8520 0.8520
2.087309 0.8520 0.8520 0.8520 0.8550 0.8550
2.121000 0.8570 0.8590 0.8590 0.8590 0.8590
2.154309 0.8570 0.8570 0.8590 0.8590 0.8590
2.188000 0.8590 0.8600 0.8600 0.8620 0.8620
2.221309 0.8640 0.8640 0.8650 0.8650 0.8670
2.254000 0.8690 0.8690 0.8710 0.8720 0.8740
2.287309 0.8740 0.8740 0.8760 0.8760 0.8760
2.321000 0.8770 0.8790 0.8790 0.8790 0.8810
2.354309 0.8820 0.8840 0.8860 0.8870 0.8890
2.387000 0.8890 0.8910 0.8910 0.8910 0.8920
2.420309 0.8940 0.8940 0.8940 0.8960 0.8970
2.454000 0.8990 0.8990 0.9010 0.9010 0.9020
2.487309 0.9020 0.9020 0.9020 0.9020 0.9040
2.521000 0.9040 0.9060 0.9060 0.9060 0.9060
2.554309 0.9070 0.9070 0.9090 0.9090 0.9110
2.587000 0.9110 0.9120 0.9120 0.9140 0.9140
2.620309 0.9160 0.9160 0.9160 0.9170 0.9170
2.654000 0.9190 0.9190 0.9190 0.9190 0.9190
2.687309 0.9190 0.9170 0.9170 0.9170 0.9160
2.720000 0.9160 0.9160 0.9160 0.9160 0.9160
2.753309 0.9160 0.9160 0.9140 0.9120 0.9110
2.787000 0.9090 0.9070 0.9060 0.9040 0.9020
2.820309 0.9010 0.8990 0.8970 0.8960 0.8940
2.854000 0.8920 0.8910 0.8910 0.8890 0.8890
2.887309 0.8890 0.8890 0.8870 0.8860 0.8840
2.920000 0.8820 0.8790 0.8770 0.8740 0.8720
2.953309 0.8710 0.8670 0.8650 0.8650 0.8650
2.987000 0.8640 0.8640 0.8600 0.8590 0.8570
3.020309 0.8550 0.8520 0.8490 0.8450 0.8400
3.053000 0.8350 0.8290 0.8170 0.8120 0.8040
3.086309 0.8000 0.7970 0.7920 0.7850 0.7780
3.120000 0.7700 0.7600 0.7550 0.7480 0.7350
3.153309 0.7280 0.7230 0.7100 0.7030 0.6960
3.186000 0.6810 0.6730 0.6640 0.6560 0.6490
3.219309 0.6410 0.6310 0.6280 0.6190 0.6110
3.253000 0.6030 0.5970 0.5960 0.5840 0.5790
3.286309 0.5760 0.5670 0.5620 0.5570 0.5520
3.320000 0.5470 0.5410 0.5370 0.5300 0.5240
3.353309 0.5190 0.5090 0.5040 0.5000 0.4970
3.386000 0.4920 0.4870 0.4840 0.4790 0.4740
3.419309 0.4720 0.4700 0.4670 0.4630 0.4600
3.453000 0.4580 0.4550 0.4520 0.4480 0.4450
3.486309 0.4420 0.4380 0.4330 0.4320 0.4280
3.519000 0.4250 0.4250 0.4230 0.4220 0.4200
3.552309 0.4200 0.4200 0.4200 0.4180 0.4180
3.586000 0.4200 0.4200 0.4220 0.4220 0.4230
3.619309 0.4250 0.4270 0.4280 0.4300 0.4320
3.653000 0.4370 0.4400 0.4430 0.4480 0.4520
3.686309 0.4570 0.4620 0.4670 0.4740 0.4820
3.719000 0.4890 0.4940 0.4990 0.5100 0.5170
3.752309 0.5220 0.5270 0.5300 0.5370 0.5420
3.786000 0.5460 0.5470 0.5510 0.5540 0.5560
3.819309 0.5570 0.5590 0.5620 0.5640 0.5640
3.852000 0.5660 0.5660 0.5660 0.5660 0.5660
3.885309 0.5660 0.5660 0.5660 0.5660 0.5660
3.919000 0.5640 0.5640 0.5620 0.5610 0.5590
3.952309 0.5560 0.5520 0.5470 0.5420 0.5390
3.985000 0.5360 0.5320 0.5300 0.5250 0.5200
4.018309 0.5140 0.5090 0.5040 0.4970 0.4920
4.052000 0.4870 0.4840 0.4800 0.4720 0.4700
4.085309 0.4690 0.4620 0.4570 0.4530 0.4500
4.119000 0.4480 0.4470 0.4430 0.4420 0.4380
4.152309 0.4330 0.4320 0.4280 0.4270 0.4250
4.185000 0.4250 0.4230 0.4220 0.4220 0.4200
4.218309 0.4200 0.4180 0.4180 0.4180 0.4180
4.252000 0.4170 0.4170 0.4170 0.4180 0.4180
4.285309 0.4200 0.4200 0.4200 0.4200 0.4200
4.318000 0.4200 0.4200 0.4200 0.4200 0.4200
4.351309 0.4200 0.4200 0.4200 0.4220 0.4220
4.385000 0.4220 0.4230 0.4270 0.4300 0.4330
4.418309 0.4370 0.4380 0.4400 0.4430 0.4470
4.452000 0.4500 0.4530 0.4570 0.4580 0.4620
4.485309 0.4650 0.4690 0.4720 0.4750 0.4800
4.518000 0.4850 0.4890 0.4920 0.4950 0.4970
4.551309 0.5020 0.5040 0.5070 0.5090 0.5100
4.585000 0.5100 0.5140 0.5150 0.5170 0.5190
4.618309 0.5200 0.5220 0.5240 0.5250 0.5270
4.651000 0.5290 0.5300 0.5320 0.5340 0.5390
4.684309 0.5410 0.5440 0.5460 0.5490 0.5510
4.718000 0.5520 0.5540 0.5570 0.5610 0.5620
4.751309 0.5640 0.5670 0.5690 0.5710 0.5720
4.785000 0.5740 0.5770 0.5790 0.5840 0.5860
4.818309 0.5890 0.5920 0.5970 0.5990 0.5990
4.851000 0.6010 0.6030 0.6040 0.6060 0.6110
4.884309 0.6130 0.6140 0.6180 0.6190 0.6230
4.918000 0.6240 0.6280 0.6310 0.6330 0.6340
4.951309 0.6360 0.6380 0.6390 0.6430 0.6440
4.984000 0.6440 0.6460 0.6460 0.6490 0.6490
5.017309 0.6530 0.6540 0.6580 0.6590 0.6630
5.051000 0.6640 0.6660 0.6680 0.6710 0.6730
5.084309 0.6760 0.6800 0.6830 0.6860 0.6860
5.117000 0.6900 0.6910 0.6930 0.6950 0.6960
5.150309 0.6980 0.7000 0.7010 0.7010 0.7030
5.184000 0.7050 0.7060 0.7080 0.7100 0.7130
5.217309 0.7150 0.7160 0.7160 0.7160 0.7180
5.251000 0.7180 0.7200 0.7200 0.7200 0.7210
5.284309 0.7210 0.7210 0.7230 0.7230 0.7230
5.317000 0.7230 0.7250 0.7260 0.7260 0.7260
5.350309 0.7260 0.7280 0.7280 0.7280 0.7280
5.384000 0.7280 0.7280 0.7280 0.7280 0.7280
5.417309 0.7280 0.7280 0.7280 0.7280 0.7280
5.450000 0.7280 0.7280 0.7280 0.7280 0.7280
5.483309 0.7280 0.7280 0.7260 0.7260 0.7260
5.517000 0.7260 0.7280 0.7280 0.7280 0.7280
5.550309 0.7280 0.7280 0.7280 0.7280 0.7280
5.584000 0.7280 0.7280 0.7280 0.7280 0.7280
5.617309 0.7280 0.7300 0.7300 0.7300 0.7300
5.650000 0.7300 0.7300 0.7310 0.7310 0.7310
5.683309 0.7330 0.7330 0.7350 0.7350 0.7350
5.717000 0.7350 0.7350 0.7350 0.7350 0.7330
5.750309 0.7310 0.7310 0.7300 0.7300 0.7310
5.783000 0.7310 0.7310 0.7310 0.7330 0.7330
5.816309 0.7330 0.7330 0.7330 0.7330 0.7330
5.850000 0.7310 0.7310 0.7310 0.7310 0.7310
5.883309 0.7300 0.7300 0.7300 0.7300 0.7300
5.916000 0.7300 0.7300 0.7300 0.7300 0.7300
5.949309 0.7300 0.7300 0.7280 0.7280 0.7260
5.983000 0.7250 0.7250 0.7250 0.7230 0.7230
6.016309 0.7230 0.7210 0.7210 0.7200 0.7200
6.050000 0.7180 0.7180 0.7180 0.7200 0.7200
6.083309 0.7200 0.7210 0.7200 0.7200 0.7210
6.116000 0.7230 0.7230 0.7250 0.7260 0.7300
6.149309 0.7350 0.7370 0.7420 0.7450 0.7530
6.183000 0.7550 0.7620 0.7670 0.7680 0.7770
6.216309 0.7780 0.7800 0.7820 0.7850 0.7900
6.249000 0.7980 0.7980 0.8000 0.8020 0.8040
6.282309 0.8050 0.8050 0.8070 0.8070 0.8070
6.316000 0.8090 0.8120 0.8140 0.8190 0.8250
6.349309 0.8350 0.8400 0.8490 0.8520 0.8550
6.383000 0.8570 0.8590 0.8600 0.8620 0.8670
6.416309 0.8720 0.8760 0.8810 0.8820 0.8860
6.449000 0.8920 0.8990 0.9010 0.9020 0.9040
6.482309 0.9040 0.9040 0.9040 0.9040 0.9040
6.516000 0.9040 0.9040 0.9060 0.9060 0.9070
6.549309 0.9110 0.9140 0.9170 0.9220 0.9240
6.582000 0.9260 0.9260 0.9290 0.9310 0.9320
6.615309 0.9340 0.9360 0.9390 0.9430 0.9480
6.649000 0.9510 0.9530 0.9540 0.9560 0.9580
6.682309 0.9610 0.9660 0.9680 0.9710 0.9760
6.715000 0.9780 0.9790 0.9790 0.9790 0.9790
6.748309 0.9810 0.9830 0.9860 0.9880 0.9890
6.782000 0.9890 0.9890 0.9910 0.9910 0.9910
6.815309 0.9910 0.9930 0.9930 0.9930 0.9930
6.849000 0.9930 0.9930 0.9930 0.9930 0.9930
6.882309 0.9930 0.9930 0.9940 0.9940 0.9940
6.915000 0.9940 0.9940 0.9940 0.9940 0.9940
6.948309 0.9940 0.9930 0.9910 0.9910 0.9890
6.982000 0.9860 0.9840 0.9830 0.9830 0.9790
7.015309 0.9760 0.9710 0.9690 0.9660 0.9660
7.048000 0.9640 0.9630 0.9610 0.9610 0.9560
7.081309 0.9560 0.9540 0.9540 0.9530 0.9530
7.115000 0.9490 0.9440 0.9430 0.9410 0.9390
7.148309 0.9380 0.9360 0.9340 0.9320 0.9310
7.182000 0.9290 0.9270 0.9240 0.9210 0.9170
7.215309 0.9110 0.9070 0.9060 0.9020 0.9010
7.248000 0.8920 0.8860 0.8770 0.8690 0.8650
7.281309 0.8590 0.8550 0.8450 0.8370 0.8290
7.315000 0.8270 0.8240 0.8170 0.8100 0.8020
7.348309 0.7950 0.7880 0.7800 0.7730 0.7670
7.381000 0.7580 0.7520 0.7480 0.7450 0.7420
7.414309 0.7400 0.7370 0.7250 0.7180 0.7130
7.448000 0.7100 0.7030 0.7000 0.6880 0.6850
7.481309 0.6780 0.6640 0.6460 0.6240 0.6180
7.515000 0.6040 0.5960 0.5810 0.5670 0.5540
7.548309 0.5320 0.5170 0.5070 0.5020 0.4970
7.581000 0.4870 0.4770 0.4630 0.4450 0.4280
7.614309 0.4070 0.4050 0.4000 0.3910 0.3900
7.648000 0.3860 0.3810 0.3800 0.3760 0.3710
7.681309 0.3700 0.3650 0.3610 0.3580 0.3550
7.714000 0.3500 0.3400 0.3350 0.3310 0.3240
7.747309 0.3230 0.3230 0.3230 0.3230 0.3230
7.781000 0.3230 0.3240 0.3260 0.3280 0.3310
7.814309 0.3410 0.3450 0.3510 0.3550 0.3580
7.847000 0.3650 0.3760 0.3860 0.3880 0.3980
7.880309 0.4150 0.4270 0.4320 0.4450 0.4530
7.914000 0.4600 0.4650 0.4720 0.4770 0.4820
7.947309 0.4850 0.4900 0.4950 0.5040 0.5040
7.981000 0.5070 0.5090 0.5100 0.5100 0.5100
8.014309 0.5100 0.5100 0.5100 0.5100 0.5100
8.047000 0.5120 0.5120 0.5140 0.5140 0.5150
8.080309 0.5200 0.5250 0.5340 0.5390 0.5440
8.114000 0.5490 0.5570 0.5640 0.5740 0.5820
8.147309 0.5960 0.5990 0.6040 0.6140 0.6190
8.180000 0.6230 0.6260 0.6330 0.6390 0.6430
8.213309 0.6490 0.6540 0.6580 0.6610 0.6630
8.247000 0.6660 0.6660 0.6680 0.6680 0.6680
8.280309 0.6680 0.6680 0.6660 0.6660 0.6640
8.314000 0.6640 0.6640 0.6610 0.6580 0.6560
8.347309 0.6510 0.6430 0.6410 0.6340 0.6290
8.380000 0.6280 0.6240 0.6190 0.6080 0.5990
8.413309 0.5870 0.5670 0.5560 0.5470 0.5340
8.447000 0.5200 0.5100 0.5040 0.4950 0.4720
8.480309 0.4500 0.4420 0.4280 0.4130 0.3960
8.513000 0.3810 0.3750 0.3700 0.3650 0.3630
8.546309 0.3630 0.3610 0.3610 0.3600 0.3580
8.580000 0.3580 0.3560 0.3560 0.3560 0.3560
8.613309 0.3580 0.3630 0.3650 0.3750 0.3830
8.646000 0.3880 0.3960 0.4000 0.4030 0.4080
8.679309 0.4120 0.4130 0.4150 0.4170 0.4180
8.713000 0.4180 0.4180 0.4200 0.4200 0.4200
8.746309 0.4200 0.4200 0.4200 0.4200 0.4170
8.780000 0.4130 0.4100 0.4070 0.4030 0.4000
8.813309 0.3980 0.3960 0.3880 0.3850 0.3830
8.846000 0.3810 0.3810 0.3800 0.3780 0.3780
8.879309 0.3780 0.3780 0.3780 0.3760 0.3760
8.913000 0.3780 0.3780 0.3780 0.3760 0.3750
8.946309 0.3750 0.3730 0.3730 0.3730 0.3730
8.979000 0.3730 0.3730 0.3730 0.3730 0.3730
9.012309 0.3730 0.3730 0.3730 0.3730 0.3730
9.046000 0.3750 0.3750 0.3750 0.3730 0.3730
9.079309 0.3710 0.3710 0.3700 0.3700 0.3710
9.113000 0.3700 0.3700 0.3700 0.3700 0.3680
9.146309 0.3680 0.3680 0.3680 0.3680 0.3680
9.179000 0.3680 0.3680 0.3680 0.3680 0.3680
9.212309 0.3680 0.3680 0.3660 0.3660 0.3660
9.246000 0.3650 0.3630 0.3610 0.3610 0.3560
9.279309 0.3550 0.3530 0.3530 0.3530 0.3510
9.312000 0.3500 0.3460 0.3430 0.3410 0.3380
9.345309 0.3330 0.3310 0.3280 0.3260 0.3210
9.379000 0.3190 0.3140 0.3090 0.3030 0.3010
9.412309 0.2990 0.2990 0.2940 0.2910 0.2890
9.446000 0.2880 0.2860 0.2840 0.2830 0.2830
9.479309 0.2790 0.2760 0.2710 0.2680 0.2640
9.512000 0.2620 0.2610 0.2590 0.2570 0.2560
9.545309 0.2560 0.2560 0.2560 0.2560 0.2560
9.579000 0.2560 0.2560 0.2560 0.2560 0.2560
9.612309 0.2560 0.2560 0.2570 0.2590 0.2610
9.645000 0.2620 0.2660 0.2690 0.2760 0.2790
9.678309 0.2830 0.2880 0.2960 0.3010 0.3090
9.712000 0.3180 0.3240 0.3310 0.3400 0.3550
9.745309 0.3630 0.3680 0.3760 0.3780 0.3800
9.778000 0.3810 0.3830 0.3830 0.3860 0.3910
9.811309 0.3980 0.4030 0.4070 0.4080 0.4120
9.845000 0.4120 0.4130 0.4130 0.4130 0.4150
9.878309 0.4130 0.4130 0.4130 0.4120 0.4080
9.912000 0.4050 0.4050 0.4030 0.4030 0.4000
9.945309 0.3960 0.3950 0.3910 0.3900 0.3860
9.978000 0.3830 0.3800 0.3750 0.3730 0.3730
10.011309 0.3710 0.3700 0.3660 0.3630 0.3610
10.045000 0.3560 0.3550 0.3510 0.3500 0.3480
10.078309 0.3460 0.3450 0.3430 0.3400 0.3400
10.111000 0.3380 0.3380 0.3360 0.3360 0.3350
10.144309 0.3350 0.3330 0.3330 0.3330 0.3330
10.178000 0.3330 0.3330 0.3330 0.3330 0.3330
10.211309 0.3330 0.3350 0.3350 0.3350 0.3380
10.245000 0.3400 0.3400 0.3410 0.3410 0.3410
10.278309 0.3410 0.3410 0.3450 0.3450 0.3480
10.311000 0.3500 0.3530 0.3550 0.3580 0.3610
10.344309 0.3630 0.3650 0.3700 0.3710 0.3730
10.378000 0.3760 0.3800 0.3830 0.3860 0.3960
10.411309 0.3980 0.4020 0.4020 0.4030 0.4070
10.444000 0.4100 0.4120 0.4130 0.4170 0.4200
10.477309 0.4220 0.4220 0.4230 0.4230 0.4230
10.511000 0.4230 0.4230 0.4250 0.4250 0.4250
10.544309 0.4250 0.4250 0.4250 0.4230 0.4200
10.577000 0.4150 0.4130 0.4100 0.4030 0.4020
10.610309 0.3910 0.3880 0.3730 0.3660 0.3630
10.644000 0.3560 0.3500 0.3480 0.3450 0.3400
10.677309 0.3350 0.3310 0.3280 0.3210 0.3140
10.711000 0.3110 0.3030 0.3010 0.3010 0.2940
10.744309 0.2930 0.2910 0.2880 0.2860 0.2840
10.777000 0.2840 0.2810 0.2810 0.2790 0.2790
10.810309 0.2790 0.2790 0.2790 0.2790 0.2790
10.844000 0.2810 0.2840 0.2860 0.2910 0.2930
10.877309 0.2940 0.2960 0.3010 0.3040 0.3080
10.910000 0.3140 0.3180 0.3210 0.3330 0.3460
10.943309 0.3560 0.3630 0.3650 0.3750 0.3780
10.977000 0.3810 0.3880 0.3910 0.3980 0.4020
11.010309 0.4070 0.4170 0.4250 0.4250 0.4280
11.044000 0.4330 0.4370 0.4430 0.4470 0.4480
11.077309 0.4530 0.4580 0.4620 0.4690 0.4770
11.110000 0.4840 0.4900 0.4950 0.5050 0.5120
11.143309 0.5150 0.5200 0.5250 0.5270 0.5360
11.177000 0.5410 0.5460 0.5510 0.5560 0.5590
11.210309 0.5620 0.5660 0.5690 0.5710 0.5740
11.243000 0.5770 0.5790 0.5810 0.5840 0.5860
11.276309 0.5870 0.5910 0.5940 0.5940 0.5960
11.310000 0.5960 0.5960 0.5960 0.5960 0.5960
11.343309 0.5920 0.5890 0.5840 0.5810 0.5770
11.377000 0.5740 0.5670 0.5620 0.5520 0.5360
11.410309 0.5300 0.5250 0.5200 0.5170 0.5140
11.443000 0.5140 0.5090 0.5070 0.5050 0.5040
11.476309 0.5040 0.5040 0.5040 0.5040 0.5050
11.510000 0.5050 0.5070 0.5120 0.5140 0.5170
11.543309 0.5200 0.5220 0.5250 0.5300 0.5340
11.576000 0.5360 0.5390 0.5390 0.5410 0.5410
11.609309 0.5440 0.5460 0.5490 0.5490 0.5510
11.643000 0.5520 0.5560 0.5620 0.5690 0.5710
11.676309 0.5740 0.5770 0.5820 0.5870 0.5960
11.709000 0.5990 0.6030 0.6040 0.6060 0.6090
11.742309 0.6130 0.6190 0.6230 0.6240 0.6280
11.776000 0.6330 0.6360 0.6380 0.6390 0.6410
11.809309 0.6430 0.6490 0.6510 0.6510 0.6540
11.843000 0.6560 0.6590 0.6640 0.6640 0.6680
11.876309 0.6730 0.6750 0.6780 0.6800 0.6810
11.909000 0.6850 0.6880 0.6910 0.6910 0.6930
11.942309 0.6930 0.6950 0.6950 0.6960 0.6960
11.976000 0.7000 0.6980 0.7000 0.7000 0.7000
12.009309 0.7010 0.7010 0.7030 0.7050 0.7050
12.042000 0.7050 0.7060 0.7060 0.7110 0.7110
12.075309 0.7130 0.7130 0.7150 0.7150 0.7150
12.109000 0.7150 0.7150 0.7150 0.7150 0.7150
12.142309 0.7150 0.7150 0.7160 0.7160 0.7160
12.176000 0.7160 0.7160 0.7180 0.7180 0.7180
12.209309 0.7200 0.7180 0.7180 0.7180 0.7180
12.242000 0.7180 0.7180 0.7200 0.7200 0.7230
12.275309 0.7230 0.7250 0.7280 0.7300 0.7330
12.309000 0.7350 0.7370 0.7400 0.7450 0.7520
12.342309 0.7530 0.7600 0.7620 0.7650 0.7680
12.375000 0.7720 0.7770 0.7800 0.7870 0.7930
12.408309 0.8000 0.8020 0.8100 0.8140 0.8140
12.442000 0.8150 0.8200 0.8220 0.8250 0.8290
12.475309 0.8320 0.8320 0.8340 0.8350 0.8370
12.508000 0.8370 0.8390 0.8390 0.8400 0.8440
12.541309 0.8450 0.8470 0.8500 0.8550 0.8590
12.575000 0.8620 0.8670 0.8710 0.8740 0.8810
12.608309 0.8840 0.8870 0.8910 0.8940 0.8960
12.642000 0.8960 0.8970 0.8990 0.9010 0.9010
12.675309 0.9040 0.9060 0.9060 0.9060 0.9090
12.708000 0.9120 0.9140 0.9160 0.9170 0.9190
12.741309 0.9220 0.9240 0.9260 0.9270 0.9290
12.775000 0.9310 0.9310 0.9310 0.9310 0.9310
12.808309 0.9310 0.9320 0.9340 0.9360 0.9380
12.841000 0.9390 0.9390 0.9410 0.9430 0.9440
12.874309 0.9460 0.9460 0.9480 0.9480 0.9490
12.908000 0.9490 0.9510 0.9530 0.9530 0.9540
12.941309 0.9540 0.9560 0.9560 0.9560 0.9560
12.975000 0.9580 0.9610 0.9610 0.9610 0.9630
13.008309 0.9640 0.9640 0.9660 0.9660 0.9660
13.041000 0.9660 0.9660 0.9680 0.9680 0.9690
13.074309 0.9710 0.9710 0.9730 0.9730 0.9740
13.108000 0.9740 0.9740 0.9740 0.9780 0.9780
13.141309 0.9790 0.9790 0.9790 0.9810 0.9810
13.174000 0.9830 0.9830 0.9830 0.9830 0.9830
13.207309 0.9830 0.9830 0.9840 0.9840 0.9860
13.241000 0.9860 0.9880 0.9880 0.9880 0.9890
13.274309 0.9890 0.9910 0.9910 0.9910 0.9910
13.308000 0.9910 0.9930 0.9930 0.9930 0.9930
13.341309 0.9930 0.9930 0.9940 0.9940 0.9960
13.374000 0.9980 0.9980 0.9980 1.0000 1.0000
13.407309 1.0000 1.0000 1.0010 1.0010 1.0010
13.441000 1.0010 1.0010 1.0010 1.0010 1.0010
13.474309 1.0010 1.0010 1.0010 1.0010 1.0010
13.507000 1.0010 1.0010 1.0010 1.0010 1.0010
13.540309 1.0010 1.0010 1.0000 1.0000 1.0000
13.574000 1.0000 1.0000 1.0000 0.9980 0.9980
13.607309 0.9980 0.9980 0.9980 0.9960 0.9960
13.640000 0.9940 0.9940 0.9940 0.9940 0.9940
13.673309 0.9940 0.9930 0.9930 0.9930 0.9930
13.707000 0.9930 0.9930 0.9930 0.9940 0.9930
13.740309 0.9910 0.9910 0.9910 0.9910 0.9910
13.774000 0.9890 0.9880 0.9880 0.9880 0.9880
13.807309 0.9880 0.9880 0.9860 0.9840 0.9840
13.840000 0.9840 0.9840 0.9840 0.9840 0.9830
13.873309 0.9830 0.9830 0.9830 0.9830 0.9830
13.907000 0.9830 0.9810 0.9810 0.9810 0.9810
13.940309 0.9810 0.9810 0.9810 0.9790 0.9790
13.973000 0.9790 0.9810 0.9790 0.9790 0.9790
14.006309 0.9780 0.9780 0.9760 0.9760 0.9760
14.040000 0.9740 0.9740 0.9740 0.9730 0.9730
14.073309 0.9710 0.9710 0.9690 0.9680 0.9680
14.107000 0.9680 0.9660 0.9660 0.9660 0.9640
14.140309 0.9640 0.9640 0.9640 0.9630 0.9630
14.173000 0.9630 0.9610 0.9610 0.9590 0.9580
14.206309 0.9560 0.9560 0.9540 0.9540 0.9540
14.240000 0.9530 0.9510 0.9510 0.9510 0.9490
14.273309 0.9480 0.9480 0.9460 0.9460 0.9440
14.306000 0.9440 0.9430 0.9430 0.9410 0.9390
14.339309 0.9390 0.9380 0.9360 0.9360 0.9340
14.373000 0.9340 0.9320 0.9320 0.9310 0.9290
14.406309 0.9290 0.9270 0.9270 0.9240 0.9220
14.439000 0.9220 0.9220 0.9210 0.9190 0.9170
14.472309 0.9170 0.9160 0.9140 0.9120 0.9120
14.506000 0.9110 0.9110 0.9090 0.9060 0.9060
14.539309 0.9060 0.9040 0.9040 0.9040 0.9020
14.573000 0.9020 0.9020 0.9010 0.8970 0.8970
14.606309 0.8960 0.8960 0.8960 0.8940 0.8920
14.639000 0.8910 0.8890 0.8870 0.8870 0.8860
14.672309 0.8840 0.8820 0.8810 0.8790 0.8790
14.706000 0.8770 0.8760 0.8760 0.8760 0.8740
14.739309 0.8740 0.8720 0.8720 0.8720 0.8690
14.772000 0.8690 0.8650 0.8650 0.8640 0.8600
14.805309 0.8590 0.8550 0.8540 0.8540 0.8520
14.839000 0.8500 0.8490 0.8470 0.8450 0.8420
14.872309 0.8420 0.8400 0.8400 0.8390 0.8390
14.906000 0.8370 0.8350 0.8340 0.8320 0.8300
14.939309 0.8290 0.8270 0.8250 0.8240 0.8220
14.972000 0.8220 0.8200 0.8200 0.8190 0.8170
15.005309 0.8170 0.8150 0.8150 0.8140 0.8120
15.039000 0.8100 0.8100 0.8100 0.8100 0.8090
15.072309 0.8090 0.8090 0.8070 0.8070 0.8050
15.105000 0.8070 0.8070 0.8050 0.8050 0.8040
15.138309 0.8040 0.8040 0.8020 0.8000 0.7980
15.172000 0.7970 0.7930 0.7920 0.7880 0.7870
15.205309 0.7870 0.7850 0.7830 0.7820 0.7820
15.238000 0.7820 0.7800 0.7780 0.7770 0.7750
15.271309 0.7730 0.7730 0.7730 0.7720 0.7720
15.305000 0.7700 0.7700 0.7680 0.7680 0.7680
15.338309 0.7670 0.7670 0.7650 0.7630 0.7630
15.372000 0.7630 0.7620 0.7620 0.7620 0.7630
15.405309 0.7630 0.7630 0.7620 0.7620 0.7620
15.438000 0.7600 0.7600 0.7580 0.7550 0.7550
15.471309 0.7550 0.7530 0.7530 0.7530 0.7530
15.505000 0.7520 0.7520 0.7520 0.7520 0.7520
15.538309 0.7500 0.7500 0.7500 0.7500 0.7480
15.571000 0.7470 0.7470 0.7470 0.7450 0.7450
15.604309 0.7450 0.7450 0.7470 0.7470 0.7430
15.638000 0.7430 0.7420 0.7420 0.7400 0.7400
15.671309 0.7400 0.7420 0.7400 0.7400 0.7400
15.705000 0.7400 0.7400 0.7400 0.7380 0.7370
15.738309 0.7370 0.7350 0.7350 0.7350 0.7350
15.771000 0.7350 0.7350 0.7350 0.7350 0.7330
15.804309 0.7330 0.7330 0.7350 0.7350 0.7330
15.838000 0.7330 0.7310 0.7310 0.7310 0.7310
15.871309 0.7310 0.7310 0.7310 0.7330 0.7310
15.904000 0.7310 0.7310 0.7300 0.7300 0.7300
15.937309 0.7300 0.7300 0.7300 0.7300 0.7300
15.971000 0.7280 0.7280 0.7280 0.7280 0.7280
16.004309 0.7280 0.7280 0.7280 0.7280 0.7280
##END=
