##TITLE=TANTALATE(V), METHYL
##JCAMP-DX=4.24
##DATA TYPE=INFRARED SPECTRUM
##CLASS=COBLENTZ III
##ORIGIN=DOW CHEMICAL COMPANY
##OWNER=COBLENTZ SOC.
Collection (C) 2018 copyright by the U.S. Secretary of Commerce
on behalf of the United States of America. All rights reserved.
##DATE=1966/03/09
##MOLFORM=C5 H15 O5 Ta
##SOURCE REFERENCE=COBLENTZ NO. 07053
##$NIST ID=B6007053
##$NIST SOURCE=COBLENTZ
##$NIST IMAGE=cob7053
##SPECTROMETER/DATA SYSTEM=BECKMAN IR-9 (GRATING)
##INSTRUMENT PARAMETERS=ORDER CHANGES: 670, 1200, 2000 CM^-^1
##STATE=SOLID (SPLIT MULL, DRY BOX), FLUOROLUBE FOR 3800-1330 CM^-^1, NUJOL FOR 1330-400 CM^-^1
$$ SPECTRAL FEATURE AT 1344 CM^-^1 IS AFFECTED BY A CHANGE IN SOLVENT
##SAMPLING PROCEDURE=TRANSMISSION
##RESOLUTION=2
##DATA PROCESSING=DIGITIZED BY COBLENTZ SOCIETY (BATCH I) FROM HARD COPY
##XUNITS=1/CM
##YUNITS=TRANSMITTANCE
##XLABEL=Wavenumbers (cm-1)
##YLABEL=% Transmission
##XFACTOR=1
##YFACTOR=1
##DELTAX=1
##FIRSTX=402
##LASTX=3800
##FIRSTY=0.5591
##MAXX=3800
##MINX=402
##MAXY=0.8894
##MINY=0.0244
##NPOINTS=3399
##XYDATA=(X++(Y..Y))
402.000000 0.5591 0.5592 0.5594 0.5601 0.5612
407.000000 0.5626 0.5654 0.5680 0.5705 0.5730
412.000000 0.5756 0.5798 0.5839 0.5880 0.5920
417.000000 0.5957 0.5995 0.6032 0.6069 0.6108
422.000000 0.6146 0.6184 0.6223 0.6266 0.6316
427.000000 0.6365 0.6415 0.6454 0.6491 0.6526
432.000000 0.6562 0.6587 0.6610 0.6634 0.6657
437.000000 0.6675 0.6687 0.6692 0.6692 0.6692
442.000000 0.6691 0.6718 0.6683 0.6669 0.6658
447.000000 0.6642 0.6622 0.6600 0.6576 0.6551
452.000000 0.6521 0.6491 0.6461 0.6432 0.6392
457.000000 0.6344 0.6297 0.6242 0.6181 0.6120
462.000000 0.6060 0.5999 0.5939 0.5876 0.5812
467.000000 0.5748 0.5679 0.5576 0.5473 0.5367
472.000000 0.5254 0.5131 0.5007 0.4889 0.4782
477.000000 0.4675 0.4568 0.4462 0.4356 0.4251
482.000000 0.4157 0.4078 0.4000 0.3922 0.3818
487.000000 0.3700 0.3584 0.3412 0.3295 0.3232
492.000000 0.3171 0.3108 0.2877 0.2821 0.2766
497.000000 0.2726 0.2690 0.2660 0.2643 0.2627
502.000000 0.2612 0.2597 0.2579 0.2556 0.2534
507.000000 0.2505 0.2477 0.2444 0.2411 0.2405
512.000000 0.2405 0.2404 0.2438 0.2463 0.2514
517.000000 0.2584 0.2664 0.2733 0.2805 0.2909
522.000000 0.2997 0.3051 0.3106 0.3165 0.3184
527.000000 0.3202 0.3218 0.3232 0.3245 0.3268
532.000000 0.3297 0.3603 0.3732 0.3860 0.3991
537.000000 0.4120 0.4383 0.4620 0.4810 0.5140
542.000000 0.5240 0.5375 0.5507 0.5573 0.5640
547.000000 0.5710 0.5809 0.5908 0.6083 0.6246
552.000000 0.6395 0.6492 0.6587 0.6683 0.6738
557.000000 0.6785 0.6833 0.6884 0.6942 0.6971
562.000000 0.6996 0.7021 0.7047 0.7065 0.7082
567.000000 0.7096 0.7111 0.7128 0.7168 0.7199
572.000000 0.7230 0.7258 0.7288 0.7318 0.7347
577.000000 0.7389 0.7451 0.7504 0.7555 0.7595
582.000000 0.7632 0.7668 0.7706 0.7731 0.7746
587.000000 0.7761 0.7776 0.7792 0.7806 0.7818
592.000000 0.7832 0.7843 0.7855 0.7865 0.7876
597.000000 0.7887 0.7898 0.7908 0.7912 0.7918
602.000000 0.7925 0.7925 0.7925 0.7925 0.7925
607.000000 0.7925 0.7925 0.7925 0.7925 0.7924
612.000000 0.7922 0.7918 0.7915 0.7911 0.7908
617.000000 0.7904 0.7900 0.7896 0.7896 0.7896
622.000000 0.7896 0.7896 0.7896 0.7896 0.7896
627.000000 0.7896 0.7895 0.7895 0.7895 0.7895
632.000000 0.7890 0.7886 0.7882 0.7876 0.7872
637.000000 0.7868 0.7864 0.7860 0.7856 0.7851
642.000000 0.7846 0.7839 0.7831 0.7824 0.7817
647.000000 0.7810 0.7801 0.7795 0.7788 0.7780
652.000000 0.7771 0.7765 0.7761 0.7758 0.7753
657.000000 0.7747 0.7738 0.7728 0.7718 0.7710
662.000000 0.7701 0.7692 0.7680 0.7665 0.7653
667.000000 0.7637 0.7621 0.7605 0.7599 0.7611
672.000000 0.7631 0.7650 0.7668 0.7676 0.7676
677.000000 0.7675 0.7674 0.7671 0.7668 0.7667
682.000000 0.7667 0.7665 0.7665 0.7662 0.7660
687.000000 0.7657 0.7654 0.7651 0.7645 0.7640
692.000000 0.7635 0.7628 0.7624 0.7618 0.7611
697.000000 0.7606 0.7599 0.7591 0.7578 0.7565
702.000000 0.7551 0.7539 0.7526 0.7510 0.7494
707.000000 0.7472 0.7451 0.7428 0.7406 0.7383
712.000000 0.7358 0.7334 0.7308 0.7282 0.7255
717.000000 0.7222 0.7188 0.7154 0.7119 0.7085
722.000000 0.6998 0.6851 0.6833 0.6833 0.6815
727.000000 0.6846 0.6878 0.6917 0.6951 0.6984
732.000000 0.7015 0.7048 0.7080 0.7111 0.7139
737.000000 0.7164 0.7189 0.7218 0.7248 0.7278
742.000000 0.7311 0.7343 0.7375 0.7399 0.7422
747.000000 0.7447 0.7469 0.7490 0.7510 0.7519
752.000000 0.7530 0.7541 0.7548 0.7553 0.7558
757.000000 0.7561 0.7567 0.7571 0.7575 0.7576
762.000000 0.7580 0.7582 0.7585 0.7585 0.7585
767.000000 0.7586 0.7586 0.7586 0.7585 0.7583
772.000000 0.7581 0.7578 0.7576 0.7574 0.7571
777.000000 0.7569 0.7568 0.7565 0.7564 0.7561
782.000000 0.7560 0.7558 0.7558 0.7558 0.7558
787.000000 0.7558 0.7560 0.7561 0.7561 0.7558
792.000000 0.7558 0.7556 0.7547 0.7531 0.7515
797.000000 0.7493 0.7469 0.7447 0.7424 0.7399
802.000000 0.7374 0.7350 0.7318 0.7261 0.7219
807.000000 0.7183 0.7146 0.7112 0.7078 0.7062
812.000000 0.7049 0.7026 0.7032 0.7034 0.7046
817.000000 0.7060 0.7076 0.7103 0.7135 0.7169
822.000000 0.7211 0.7255 0.7318 0.7367 0.7410
827.000000 0.7453 0.7494 0.7508 0.7521 0.7528
832.000000 0.7538 0.7549 0.7560 0.7571 0.7582
837.000000 0.7594 0.7606 0.7619 0.7633 0.7646
842.000000 0.7657 0.7668 0.7678 0.7689 0.7700
847.000000 0.7711 0.7725 0.7741 0.7756 0.7771
852.000000 0.7787 0.7800 0.7814 0.7826 0.7841
857.000000 0.7854 0.7868 0.7881 0.7895 0.7907
862.000000 0.7918 0.7930 0.7941 0.7953 0.7964
867.000000 0.7975 0.7987 0.7998 0.8008 0.8021
872.000000 0.8032 0.8043 0.8054 0.8065 0.8075
877.000000 0.8086 0.8097 0.8108 0.8118 0.8130
882.000000 0.8141 0.8151 0.8161 0.8172 0.8182
887.000000 0.8190 0.8199 0.8208 0.8217 0.8225
892.000000 0.8234 0.8243 0.8251 0.8260 0.8268
897.000000 0.8278 0.8290 0.8301 0.8312 0.8324
902.000000 0.8335 0.8347 0.8358 0.8368 0.8381
907.000000 0.8392 0.8404 0.8417 0.8430 0.8444
912.000000 0.8457 0.8470 0.8483 0.8496 0.8510
917.000000 0.8520 0.8528 0.8538 0.8548 0.8557
922.000000 0.8566 0.8575 0.8583 0.8591 0.8598
927.000000 0.8606 0.8613 0.8621 0.8628 0.8633
932.000000 0.8638 0.8643 0.8648 0.8653 0.8658
937.000000 0.8663 0.8664 0.8665 0.8667 0.8668
942.000000 0.8668 0.8671 0.8686 0.8674 0.8675
947.000000 0.8677 0.8678 0.8680 0.8680 0.8677
952.000000 0.8675 0.8671 0.8670 0.8667 0.8665
957.000000 0.8662 0.8660 0.8657 0.8651 0.8643
962.000000 0.8635 0.8628 0.8620 0.8610 0.8595
967.000000 0.8578 0.8564 0.8548 0.8533 0.8515
972.000000 0.8496 0.8477 0.8458 0.8439 0.8414
977.000000 0.8389 0.8363 0.8338 0.8311 0.8275
982.000000 0.8242 0.8206 0.8168 0.8131 0.8094
987.000000 0.8057 0.8014 0.7969 0.7925 0.7872
992.000000 0.7821 0.7768 0.7717 0.7630 0.7543
997.000000 0.7321 0.7187 0.7091 0.6996 0.6811
1002.000000 0.6704 0.6598 0.6493 0.6331 0.6219
1007.000000 0.6142 0.6066 0.5995 0.5904 0.5675
1012.000000 0.5518 0.5273 0.5045 0.4570 0.4520
1017.000000 0.4516 0.4522 0.4531 0.4579 0.4642
1022.000000 0.4775 0.4959 0.5049 0.5118 0.5196
1027.000000 0.5280 0.5410 0.5510 0.5597 0.5693
1032.000000 0.5789 0.5886 0.5980 0.6073 0.6149
1037.000000 0.6209 0.6262 0.6303 0.6332 0.6353
1042.000000 0.6366 0.6380 0.6393 0.6407 0.6421
1047.000000 0.6436 0.6447 0.6453 0.6460 0.6467
1052.000000 0.6474 0.6474 0.6474 0.6468 0.6460
1057.000000 0.6436 0.6401 0.6375 0.6338 0.6300
1062.000000 0.6260 0.6189 0.6112 0.6036 0.5896
1067.000000 0.5757 0.5628 0.5515 0.5407 0.5280
1072.000000 0.5144 0.5002 0.4827 0.4680 0.4566
1077.000000 0.4452 0.4336 0.4216 0.4095 0.3974
1082.000000 0.3734 0.3488 0.3212 0.2990 0.2855
1087.000000 0.2720 0.2580 0.2354 0.2220 0.2090
1092.000000 0.1941 0.1820 0.1733 0.1645 0.1583
1097.000000 0.1524 0.1466 0.1412 0.1364 0.1316
1102.000000 0.1268 0.1220 0.1175 0.1130 0.1085
1107.000000 0.1044 0.1006 0.0967 0.0928 0.0914
1112.000000 0.0909 0.0907 0.0907 0.0908 0.0911
1117.000000 0.0915 0.0925 0.0938 0.0951 0.0964
1122.000000 0.0983 0.1032 0.1156 0.1350 0.1480
1127.000000 0.1600 0.1687 0.1773 0.2167 0.2269
1132.000000 0.2371 0.2484 0.2602 0.2702 0.2787
1137.000000 0.2872 0.2957 0.3040 0.3123 0.3206
1142.000000 0.3306 0.3398 0.3464 0.3520 0.3568
1147.000000 0.3604 0.3624 0.3644 0.3662 0.3662
1152.000000 0.3662 0.3650 0.3634 0.3614 0.3592
1157.000000 0.3564 0.3534 0.3503 0.3468 0.3439
1162.000000 0.3414 0.3412 0.3404 0.3429 0.3458
1167.000000 0.3504 0.3557 0.3641 0.3977 0.4038
1172.000000 0.4098 0.4187 0.4270 0.4331 0.4390
1177.000000 0.4441 0.4494 0.4548 0.4605 0.4672
1182.000000 0.4732 0.5290 0.5500 0.5627 0.5743
1187.000000 0.5858 0.5973 0.6071 0.6148 0.6224
1192.000000 0.6301 0.6434 0.6593 0.6705 0.6818
1197.000000 0.6941 0.7075 0.7182 0.7275 0.7368
1202.000000 0.7484 0.7614 0.7722 0.7801 0.7865
1207.000000 0.7928 0.7972 0.8015 0.8046 0.8061
1212.000000 0.8075 0.8089 0.8108 0.8128 0.8150
1217.000000 0.8171 0.8193 0.8213 0.8233 0.8253
1222.000000 0.8273 0.8293 0.8310 0.8325 0.8348
1227.000000 0.8370 0.8384 0.8397 0.8411 0.8425
1232.000000 0.8441 0.8458 0.8475 0.8492 0.8506
1237.000000 0.8518 0.8528 0.8541 0.8551 0.8560
1242.000000 0.8570 0.8578 0.8589 0.8598 0.8607
1247.000000 0.8617 0.8628 0.8638 0.8648 0.8659
1252.000000 0.8668 0.8680 0.8690 0.8701 0.8711
1257.000000 0.8720 0.8728 0.8736 0.8744 0.8752
1262.000000 0.8760 0.8767 0.8771 0.8777 0.8782
1267.000000 0.8787 0.8792 0.8797 0.8802 0.8806
1272.000000 0.8827 0.8810 0.8813 0.8815 0.8818
1277.000000 0.8820 0.8823 0.8825 0.8827 0.8830
1282.000000 0.8832 0.8833 0.8833 0.8834 0.8834
1287.000000 0.8834 0.8834 0.8835 0.8835 0.8835
1292.000000 0.8834 0.8832 0.8830 0.8828 0.8827
1297.000000 0.8824 0.8820 0.8816 0.8813 0.8809
1302.000000 0.8805 0.8798 0.8790 0.8782 0.8774
1307.000000 0.8768 0.8768 0.8767 0.8766 0.8771
1312.000000 0.8777 0.8783 0.8788 0.8795 0.8803
1317.000000 0.8811 0.8818 0.8825 0.8832 0.8837
1322.000000 0.8843 0.8849 0.8854 0.8853 0.8852
1327.000000 0.8851 0.8845 0.8837 0.8830 0.8818
1332.000000 0.8803 0.8784 0.8594 0.8345 0.8096
1337.000000 0.7848 0.7599 0.7350 0.7101 0.6961
1342.000000 0.6922 0.6896 0.6878 0.6875 0.6883
1347.000000 0.6894 0.6951 0.7058 0.7199 0.7308
1352.000000 0.7385 0.7446 0.7501 0.7555 0.7611
1357.000000 0.7678 0.7740 0.7775 0.7811 0.7848
1362.000000 0.7872 0.7898 0.7919 0.7939 0.7957
1367.000000 0.7972 0.7989 0.8005 0.8012 0.8019
1372.000000 0.8026 0.8025 0.8025 0.8025 0.8024
1377.000000 0.8022 0.8032 0.8019 0.8015 0.8011
1382.000000 0.8007 0.8001 0.7998 0.7993 0.7988
1387.000000 0.7984 0.7976 0.7968 0.7961 0.7951
1392.000000 0.7939 0.7926 0.7915 0.7903 0.7891
1397.000000 0.7878 0.7860 0.7838 0.7815 0.7794
1402.000000 0.7775 0.7758 0.7743 0.7726 0.7710
1407.000000 0.7684 0.7658 0.7631 0.7599 0.7567
1412.000000 0.7535 0.7497 0.7441 0.7386 0.7325
1417.000000 0.7260 0.7174 0.7080 0.6935 0.6833
1422.000000 0.6758 0.6684 0.6551 0.6424 0.6332
1427.000000 0.6241 0.6125 0.5622 0.5454 0.5243
1432.000000 0.5062 0.4912 0.4785 0.4655 0.4524
1437.000000 0.4329 0.4330 0.4262 0.4341 0.4352
1442.000000 0.4399 0.4592 0.4732 0.4835 0.4888
1447.000000 0.4927 0.4944 0.5016 0.4929 0.4912
1452.000000 0.4893 0.4870 0.4825 0.4749 0.4696
1457.000000 0.4646 0.4606 0.4586 0.4581 0.4621
1462.000000 0.4650 0.4747 0.4829 0.4938 0.5228
1467.000000 0.5470 0.5930 0.6117 0.6271 0.6400
1472.000000 0.6540 0.6688 0.6797 0.6904 0.6996
1477.000000 0.7086 0.7175 0.7268 0.7408 0.7464
1482.000000 0.7517 0.7569 0.7611 0.7651 0.7691
1487.000000 0.7718 0.7740 0.7762 0.7785 0.7807
1492.000000 0.7830 0.7851 0.7874 0.7896 0.7918
1497.000000 0.7940 0.7958 0.7975 0.7992 0.8008
1502.000000 0.8024 0.8039 0.8056 0.8071 0.8089
1507.000000 0.8106 0.8122 0.8137 0.8149 0.8161
1512.000000 0.8172 0.8185 0.8197 0.8209 0.8218
1517.000000 0.8228 0.8237 0.8247 0.8256 0.8266
1522.000000 0.8274 0.8278 0.8282 0.8287 0.8291
1527.000000 0.8295 0.8300 0.8304 0.8308 0.8313
1532.000000 0.8317 0.8321 0.8325 0.8328 0.8386
1537.000000 0.8336 0.8339 0.8343 0.8343 0.8343
1542.000000 0.8343 0.8343 0.8344 0.8344 0.8344
1547.000000 0.8344 0.8345 0.8345 0.8345 0.8343
1552.000000 0.8341 0.8340 0.8338 0.8336 0.8335
1557.000000 0.8333 0.8331 0.8330 0.8328 0.8327
1562.000000 0.8325 0.8325 0.8324 0.8321 0.8321
1567.000000 0.8320 0.8318 0.8316 0.8313 0.8311
1572.000000 0.8309 0.8306 0.8304 0.8301 0.8299
1577.000000 0.8296 0.8294 0.8292 0.8289 0.8287
1582.000000 0.8286 0.8286 0.8286 0.8286 0.8286
1587.000000 0.8286 0.8286 0.8286 0.8286 0.8286
1592.000000 0.8286 0.8285 0.8285 0.8284 0.8284
1597.000000 0.8283 0.8283 0.8282 0.8281 0.8281
1602.000000 0.8278 0.8277 0.8275 0.8271 0.8270
1607.000000 0.8267 0.8262 0.8256 0.8250 0.8243
1612.000000 0.8236 0.8228 0.8220 0.8211 0.8203
1617.000000 0.8195 0.8186 0.8176 0.8168 0.8158
1622.000000 0.8150 0.8144 0.8139 0.8133 0.8128
1627.000000 0.8122 0.8117 0.8115 0.8115 0.8114
1632.000000 0.8111 0.8111 0.8106 0.8101 0.8096
1637.000000 0.8091 0.8085 0.8080 0.8075 0.8069
1642.000000 0.8068 0.8065 0.8064 0.8062 0.8061
1647.000000 0.8061 0.8061 0.8061 0.8061 0.8061
1652.000000 0.8062 0.8064 0.8068 0.8074 0.8078
1657.000000 0.8084 0.8089 0.8095 0.8105 0.8114
1662.000000 0.8122 0.8132 0.8139 0.8147 0.8155
1667.000000 0.8162 0.8171 0.8180 0.8191 0.8202
1672.000000 0.8212 0.8223 0.8233 0.8244 0.8255
1677.000000 0.8265 0.8275 0.8287 0.8297 0.8308
1682.000000 0.8318 0.8328 0.8339 0.8349 0.8359
1687.000000 0.8368 0.8378 0.8389 0.8399 0.8409
1692.000000 0.8418 0.8428 0.8440 0.8450 0.8460
1697.000000 0.8470 0.8480 0.8489 0.8499 0.8508
1702.000000 0.8518 0.8528 0.8538 0.8548 0.8558
1707.000000 0.8568 0.8578 0.8587 0.8597 0.8607
1712.000000 0.8617 0.8627 0.8637 0.8647 0.8658
1717.000000 0.8668 0.8678 0.8690 0.8701 0.8711
1722.000000 0.8718 0.8727 0.8736 0.8744 0.8752
1727.000000 0.8760 0.8768 0.8777 0.8785 0.8793
1732.000000 0.8800 0.8807 0.8814 0.8821 0.8828
1737.000000 0.8833 0.8838 0.8842 0.8847 0.8851
1742.000000 0.8855 0.8860 0.8865 0.8868 0.8874
1747.000000 0.8878 0.8883 0.8885 0.8886 0.8887
1752.000000 0.8888 0.8888 0.8889 0.8890 0.8890
1757.000000 0.8890 0.8891 0.8891 0.8891 0.8891
1762.000000 0.8892 0.8892 0.8892 0.8892 0.8893
1767.000000 0.8893 0.8893 0.8893 0.8894 0.8894
1772.000000 0.8894 0.8894 0.8893 0.8893 0.8892
1777.000000 0.8892 0.8891 0.8891 0.8890 0.8889
1782.000000 0.8889 0.8888 0.8888 0.8887 0.8887
1787.000000 0.8886 0.8885 0.8885 0.8884 0.8884
1792.000000 0.8883 0.8883 0.8882 0.8881 0.8881
1797.000000 0.8882 0.8882 0.8882 0.8882 0.8883
1802.000000 0.8883 0.8883 0.8883 0.8884 0.8884
1807.000000 0.8884 0.8884 0.8884 0.8883 0.8881
1812.000000 0.8880 0.8878 0.8878 0.8875 0.8875
1817.000000 0.8874 0.8873 0.8871 0.8870 0.8868
1822.000000 0.8866 0.8864 0.8861 0.8859 0.8857
1827.000000 0.8854 0.8852 0.8849 0.8847 0.8844
1832.000000 0.8842 0.8839 0.8837 0.8834 0.8831
1837.000000 0.8828 0.8824 0.8821 0.8818 0.8814
1842.000000 0.8811 0.8808 0.8804 0.8801 0.8798
1847.000000 0.8795 0.8792 0.8789 0.8786 0.8784
1852.000000 0.8781 0.8778 0.8775 0.8773 0.8770
1857.000000 0.8768 0.8765 0.8761 0.8756 0.8751
1862.000000 0.8746 0.8741 0.8736 0.8731 0.8725
1867.000000 0.8721 0.8716 0.8713 0.8711 0.8708
1872.000000 0.8706 0.8704 0.8702 0.8699 0.8697
1877.000000 0.8695 0.8692 0.8690 0.8688 0.8684
1882.000000 0.8681 0.8678 0.8674 0.8671 0.8667
1887.000000 0.8664 0.8661 0.8658 0.8655 0.8652
1892.000000 0.8649 0.8646 0.8643 0.8640 0.8637
1897.000000 0.8634 0.8632 0.8628 0.8625 0.8624
1902.000000 0.8621 0.8620 0.8618 0.8615 0.8613
1907.000000 0.8611 0.8609 0.8607 0.8605 0.8603
1912.000000 0.8601 0.8599 0.8597 0.8595 0.8593
1917.000000 0.8591 0.8589 0.8588 0.8587 0.8586
1922.000000 0.8584 0.8583 0.8581 0.8578 0.8578
1927.000000 0.8575 0.8575 0.8573 0.8571 0.8570
1932.000000 0.8568 0.8568 0.8567 0.8567 0.8566
1937.000000 0.8566 0.8565 0.8565 0.8564 0.8563
1942.000000 0.8563 0.8562 0.8562 0.8561 0.8561
1947.000000 0.8560 0.8560 0.8559 0.8559 0.8558
1952.000000 0.8558 0.8558 0.8559 0.8559 0.8559
1957.000000 0.8556 0.8554 0.8551 0.8548 0.8545
1962.000000 0.8542 0.8539 0.8536 0.8533 0.8530
1967.000000 0.8524 0.8517 0.8510 0.8503 0.8495
1972.000000 0.8488 0.8481 0.8474 0.8466 0.8459
1977.000000 0.8452 0.8445 0.8437 0.8432 0.8428
1982.000000 0.8424 0.8418 0.8415 0.8407 0.8399
1987.000000 0.8392 0.8385 0.8380 0.8375 0.8370
1992.000000 0.8339 0.8305 0.8245 0.8245 0.8249
1997.000000 0.8266 0.8300 0.8333 0.8350 0.8353
2002.000000 0.8353 0.8353 0.8350 0.8346 0.8343
2007.000000 0.8337 0.8331 0.8325 0.8318 0.8313
2012.000000 0.8307 0.8301 0.8295 0.8289 0.8283
2017.000000 0.8277 0.8271 0.8265 0.8259 0.8253
2022.000000 0.8248 0.8243 0.8238 0.8233 0.8228
2027.000000 0.8221 0.8216 0.8208 0.8201 0.8193
2032.000000 0.8186 0.8178 0.8171 0.8162 0.8156
2037.000000 0.8149 0.8142 0.8135 0.8128 0.8121
2042.000000 0.8115 0.8108 0.8103 0.8097 0.8092
2047.000000 0.8086 0.8080 0.8074 0.8068 0.8068
2052.000000 0.8069 0.8069 0.8071 0.8071 0.8071
2057.000000 0.8072 0.8075 0.8076 0.8080 0.8082
2062.000000 0.8084 0.8086 0.8088 0.8090 0.8092
2067.000000 0.8094 0.8096 0.8098 0.8100 0.8101
2072.000000 0.8104 0.8105 0.8107 0.8108 0.8111
2077.000000 0.8111 0.8111 0.8110 0.8108 0.8108
2082.000000 0.8107 0.8106 0.8105 0.8104 0.8103
2087.000000 0.8101 0.8100 0.8096 0.8093 0.8090
2092.000000 0.8087 0.8084 0.8081 0.8078 0.8075
2097.000000 0.8071 0.8068 0.8065 0.8062 0.8060
2102.000000 0.8057 0.8051 0.8048 0.8043 0.8039
2107.000000 0.8034 0.8030 0.8025 0.8021 0.8015
2112.000000 0.8011 0.8007 0.8003 0.7998 0.7994
2117.000000 0.7988 0.7983 0.7976 0.7971 0.7965
2122.000000 0.7958 0.7953 0.7947 0.7941 0.7935
2127.000000 0.7928 0.7924 0.7918 0.7911 0.7906
2132.000000 0.7900 0.7894 0.7888 0.7881 0.7875
2137.000000 0.7868 0.7861 0.7854 0.7848 0.7841
2142.000000 0.7834 0.7826 0.7821 0.7814 0.7807
2147.000000 0.7800 0.7794 0.7786 0.7778 0.7769
2152.000000 0.7761 0.7754 0.7746 0.7737 0.7728
2157.000000 0.7721 0.7712 0.7706 0.7699 0.7692
2162.000000 0.7686 0.7678 0.7672 0.7667 0.7661
2167.000000 0.7654 0.7648 0.7641 0.7634 0.7626
2172.000000 0.7619 0.7612 0.7606 0.7598 0.7591
2177.000000 0.7584 0.7576 0.7569 0.7564 0.7557
2182.000000 0.7550 0.7547 0.7544 0.7545 0.7546
2187.000000 0.7547 0.7549 0.7550 0.7551 0.7551
2192.000000 0.7553 0.7554 0.7555 0.7556 0.7557
2197.000000 0.7558 0.7560 0.7561 0.7561 0.7562
2202.000000 0.7565 0.7565 0.7568 0.7569 0.7572
2207.000000 0.7575 0.7578 0.7581 0.7584 0.7587
2212.000000 0.7590 0.7593 0.7597 0.7601 0.7605
2217.000000 0.7608 0.7608 0.7608 0.7607 0.7601
2222.000000 0.7596 0.7590 0.7585 0.7580 0.7575
2227.000000 0.7568 0.7564 0.7558 0.7553 0.7548
2232.000000 0.7543 0.7538 0.7533 0.7528 0.7522
2237.000000 0.7518 0.7512 0.7508 0.7504 0.7499
2242.000000 0.7494 0.7489 0.7484 0.7478 0.7474
2247.000000 0.7468 0.7464 0.7458 0.7453 0.7448
2252.000000 0.7443 0.7438 0.7433 0.7428 0.7422
2257.000000 0.7417 0.7411 0.7407 0.7401 0.7397
2262.000000 0.7392 0.7387 0.7382 0.7375 0.7371
2267.000000 0.7365 0.7361 0.7356 0.7351 0.7346
2272.000000 0.7341 0.7336 0.7331 0.7325 0.7321
2277.000000 0.7315 0.7311 0.7306 0.7301 0.7296
2282.000000 0.7291 0.7286 0.7281 0.7275 0.7271
2287.000000 0.7265 0.7261 0.7256 0.7251 0.7248
2292.000000 0.7244 0.7240 0.7236 0.7232 0.7228
2297.000000 0.7224 0.7219 0.7215 0.7211 0.7208
2302.000000 0.7204 0.7200 0.7196 0.7191 0.7186
2307.000000 0.7187 0.7188 0.7191 0.7184 0.7198
2312.000000 0.7201 0.7208 0.7215 0.7221 0.7228
2317.000000 0.7236 0.7243 0.7253 0.7264 0.7274
2322.000000 0.7285 0.7292 0.7300 0.7306 0.7312
2327.000000 0.7318 0.7325 0.7331 0.7338 0.7346
2332.000000 0.7354 0.7361 0.7369 0.7378 0.7387
2337.000000 0.7394 0.7401 0.7406 0.7411 0.7417
2342.000000 0.7421 0.7426 0.7433 0.7438 0.7444
2347.000000 0.7449 0.7455 0.7460 0.7465 0.7471
2352.000000 0.7478 0.7485 0.7491 0.7497 0.7504
2357.000000 0.7508 0.7515 0.7518 0.7524 0.7528
2362.000000 0.7532 0.7536 0.7541 0.7545 0.7550
2367.000000 0.7554 0.7558 0.7560 0.7562 0.7564
2372.000000 0.7565 0.7565 0.7564 0.7564 0.7562
2377.000000 0.7556 0.7550 0.7542 0.7535 0.7524
2382.000000 0.7512 0.7498 0.7484 0.7474 0.7464
2387.000000 0.7455 0.7446 0.7441 0.7436 0.7436
2392.000000 0.7436 0.7435 0.7434 0.7433 0.7433
2397.000000 0.7432 0.7431 0.7430 0.7428 0.7428
2402.000000 0.7428 0.7426 0.7426 0.7426 0.7428
2407.000000 0.7428 0.7428 0.7430 0.7431 0.7431
2412.000000 0.7432 0.7432 0.7433 0.7434 0.7435
2417.000000 0.7435 0.7435 0.7435 0.7435 0.7434
2422.000000 0.7434 0.7433 0.7433 0.7433 0.7433
2427.000000 0.7432 0.7432 0.7432 0.7432 0.7431
2432.000000 0.7431 0.7430 0.7430 0.7428 0.7428
2437.000000 0.7428 0.7428 0.7426 0.7426 0.7425
2442.000000 0.7425 0.7424 0.7424 0.7422 0.7422
2447.000000 0.7421 0.7421 0.7421 0.7419 0.7418
2452.000000 0.7418 0.7418 0.7418 0.7417 0.7417
2457.000000 0.7415 0.7415 0.7415 0.7414 0.7412
2462.000000 0.7412 0.7411 0.7411 0.7411 0.7411
2467.000000 0.7410 0.7410 0.7408 0.7408 0.7407
2472.000000 0.7407 0.7406 0.7406 0.7405 0.7405
2477.000000 0.7404 0.7404 0.7403 0.7401 0.7400
2482.000000 0.7399 0.7397 0.7396 0.7394 0.7393
2487.000000 0.7392 0.7391 0.7389 0.7388 0.7386
2492.000000 0.7385 0.7383 0.7382 0.7380 0.7378
2497.000000 0.7376 0.7375 0.7374 0.7372 0.7371
2502.000000 0.7369 0.7368 0.7367 0.7365 0.7364
2507.000000 0.7361 0.7361 0.7360 0.7358 0.7357
2512.000000 0.7356 0.7355 0.7354 0.7351 0.7351
2517.000000 0.7349 0.7348 0.7347 0.7346 0.7344
2522.000000 0.7343 0.7341 0.7340 0.7339 0.7338
2527.000000 0.7335 0.7332 0.7328 0.7326 0.7324
2532.000000 0.7321 0.7318 0.7315 0.7312 0.7311
2537.000000 0.7308 0.7305 0.7301 0.7300 0.7297
2542.000000 0.7294 0.7291 0.7289 0.7285 0.7282
2547.000000 0.7276 0.7271 0.7265 0.7261 0.7256
2552.000000 0.7251 0.7246 0.7241 0.7235 0.7230
2557.000000 0.7221 0.7215 0.7204 0.7194 0.7183
2562.000000 0.7171 0.7161 0.7150 0.7139 0.7128
2567.000000 0.7118 0.7107 0.7096 0.7085 0.7074
2572.000000 0.7064 0.7054 0.7045 0.7035 0.7025
2577.000000 0.7015 0.7006 0.6996 0.6986 0.6975
2582.000000 0.6967 0.6957 0.6947 0.6937 0.6926
2587.000000 0.6917 0.6908 0.6899 0.6890 0.6881
2592.000000 0.6871 0.6862 0.6855 0.6846 0.6837
2597.000000 0.6828 0.6818 0.6810 0.6801 0.6792
2602.000000 0.6783 0.6775 0.6767 0.6760 0.6753
2607.000000 0.6745 0.6738 0.6731 0.6724 0.6718
2612.000000 0.6718 0.6718 0.6718 0.6722 0.6728
2617.000000 0.6734 0.6741 0.6748 0.6755 0.6764
2622.000000 0.6772 0.6782 0.6791 0.6800 0.6808
2627.000000 0.6818 0.6830 0.6840 0.6851 0.6861
2632.000000 0.6871 0.6882 0.6893 0.6900 0.6908
2637.000000 0.6912 0.6918 0.6924 0.6928 0.6934
2642.000000 0.6940 0.6942 0.6944 0.6944 0.6944
2647.000000 0.6944 0.6944 0.6944 0.6944 0.6944
2652.000000 0.6944 0.6942 0.6941 0.6939 0.6937
2657.000000 0.6935 0.6933 0.6931 0.6928 0.6926
2662.000000 0.6925 0.6922 0.6921 0.6918 0.6917
2667.000000 0.6914 0.6911 0.6905 0.6900 0.6895
2672.000000 0.6890 0.6884 0.6878 0.6872 0.6868
2677.000000 0.6861 0.6857 0.6849 0.6842 0.6834
2682.000000 0.6825 0.6818 0.6811 0.6803 0.6796
2687.000000 0.6787 0.6778 0.6771 0.6762 0.6754
2692.000000 0.6746 0.6738 0.6730 0.6721 0.6712
2697.000000 0.6704 0.6696 0.6687 0.6678 0.6669
2702.000000 0.6661 0.6653 0.6645 0.6636 0.6628
2707.000000 0.6618 0.6611 0.6601 0.6594 0.6585
2712.000000 0.6576 0.6568 0.6558 0.6548 0.6538
2717.000000 0.6526 0.6517 0.6506 0.6496 0.6485
2722.000000 0.6475 0.6464 0.6454 0.6443 0.6433
2727.000000 0.6415 0.6400 0.6383 0.6367 0.6350
2732.000000 0.6334 0.6317 0.6300 0.6278 0.6257
2737.000000 0.6236 0.6215 0.6194 0.6173 0.6151
2742.000000 0.6130 0.6109 0.6088 0.6072 0.6056
2747.000000 0.6041 0.6027 0.6012 0.5997 0.5982
2752.000000 0.5967 0.5952 0.5938 0.5923 0.5908
2757.000000 0.5893 0.5878 0.5860 0.5844 0.5823
2762.000000 0.5802 0.5781 0.5760 0.5740 0.5720
2767.000000 0.5699 0.5679 0.5659 0.5639 0.5619
2772.000000 0.5600 0.5580 0.5560 0.5540 0.5520
2777.000000 0.5500 0.5481 0.5446 0.5410 0.5372
2782.000000 0.5333 0.5293 0.5254 0.5214 0.5175
2787.000000 0.5104 0.5034 0.4917 0.4801 0.4695
2792.000000 0.4589 0.4494 0.4399 0.4316 0.4233
2797.000000 0.4131 0.4030 0.3597 0.3164 0.3010
2802.000000 0.2857 0.2703 0.2549 0.2395 0.2242
2807.000000 0.2088 0.1934 0.1781 0.1627 0.1473
2812.000000 0.1320 0.1166 0.1013 0.0841 0.0669
2817.000000 0.0539 0.0410 0.0345 0.0281 0.0272
2822.000000 0.0264 0.0256 0.0248 0.0246 0.0244
2827.000000 0.0244 0.0244 0.0251 0.0253 0.0509
2832.000000 0.0759 0.0966 0.1174 0.1382 0.1590
2837.000000 0.1796 0.2004 0.2212 0.2420 0.2628
2842.000000 0.2835 0.3043 0.3250 0.3427 0.3604
2847.000000 0.3659 0.3716 0.3748 0.3780 0.3808
2852.000000 0.3836 0.3836 0.3836 0.3836 0.3850
2857.000000 0.3828 0.3818 0.3732 0.3645 0.3558
2862.000000 0.3472 0.3384 0.3298 0.3210 0.3124
2867.000000 0.3037 0.2951 0.2864 0.2777 0.2690
2872.000000 0.2604 0.2517 0.2430 0.2343 0.2256
2877.000000 0.2169 0.2083 0.1995 0.1909 0.1822
2882.000000 0.1734 0.1651 0.1567 0.1513 0.1460
2887.000000 0.1399 0.1338 0.1292 0.1248 0.1139
2892.000000 0.1030 0.0967 0.0904 0.0874 0.0843
2897.000000 0.0830 0.0817 0.0803 0.0790 0.0786
2902.000000 0.0783 0.0779 0.0775 0.0772 0.0770
2907.000000 0.0764 0.0758 0.0751 0.0744 0.0737
2912.000000 0.0731 0.0703 0.0675 0.0616 0.0557
2917.000000 0.0524 0.0492 0.0459 0.0427 0.0400
2922.000000 0.0374 0.0348 0.0323 0.0314 0.0305
2927.000000 0.0305 0.0306 0.0307 0.0307 0.0307
2932.000000 0.0306 0.0303 0.0294 0.0301 0.0302
2937.000000 0.0310 0.0317 0.0327 0.0337 0.0347
2942.000000 0.0357 0.0372 0.0387 0.0408 0.0429
2947.000000 0.0460 0.0491 0.0532 0.0573 0.0636
2952.000000 0.0699 0.0764 0.0829 0.0896 0.0963
2957.000000 0.1038 0.1113 0.1191 0.1269 0.1446
2962.000000 0.1624 0.1717 0.1811 0.1883 0.1956
2967.000000 0.2041 0.2127 0.2248 0.2370 0.2497
2972.000000 0.2625 0.2715 0.2806 0.2897 0.2989
2977.000000 0.3081 0.3173 0.3250 0.3329 0.3407
2982.000000 0.3484 0.3541 0.3598 0.3655 0.3712
2987.000000 0.3768 0.3826 0.3882 0.3938 0.3994
2992.000000 0.4050 0.4106 0.4162 0.4220 0.4279
2997.000000 0.4337 0.4395 0.4481 0.4568 0.4650
3002.000000 0.4733 0.4793 0.4853 0.4912 0.4973
3007.000000 0.5022 0.5071 0.5119 0.5167 0.5214
3012.000000 0.5262 0.5300 0.5339 0.5377 0.5415
3017.000000 0.5453 0.5492 0.5530 0.5569 0.5610
3022.000000 0.5652 0.5693 0.5735 0.5777 0.5819
3027.000000 0.5860 0.5902 0.5941 0.5980 0.6019
3032.000000 0.6058 0.6097 0.6136 0.6171 0.6207
3037.000000 0.6240 0.6274 0.6307 0.6340 0.6373
3042.000000 0.6406 0.6435 0.6464 0.6491 0.6518
3047.000000 0.6544 0.6571 0.6598 0.6625 0.6649
3052.000000 0.6674 0.6695 0.6717 0.6738 0.6760
3057.000000 0.6782 0.6804 0.6821 0.6840 0.6854
3062.000000 0.6868 0.6882 0.6896 0.6910 0.6924
3067.000000 0.6938 0.6951 0.6965 0.6980 0.6993
3072.000000 0.7007 0.7018 0.7030 0.7041 0.7051
3077.000000 0.7062 0.7074 0.7085 0.7096 0.7106
3082.000000 0.7115 0.7122 0.7131 0.7138 0.7145
3087.000000 0.7151 0.7160 0.7165 0.7172 0.7176
3092.000000 0.7182 0.7187 0.7192 0.7196 0.7201
3097.000000 0.7206 0.7211 0.7215 0.7219 0.7224
3102.000000 0.7228 0.7233 0.7238 0.7241 0.7245
3107.000000 0.7248 0.7251 0.7253 0.7254 0.7254
3112.000000 0.7255 0.7255 0.7256 0.7256 0.7257
3117.000000 0.7257 0.7257 0.7256 0.7256 0.7256
3122.000000 0.7256 0.7255 0.7255 0.7255 0.7254
3127.000000 0.7253 0.7251 0.7250 0.7249 0.7248
3132.000000 0.7247 0.7245 0.7244 0.7242 0.7241
3137.000000 0.7239 0.7238 0.7237 0.7236 0.7234
3142.000000 0.7232 0.7230 0.7228 0.7226 0.7225
3147.000000 0.7224 0.7221 0.7219 0.7218 0.7217
3152.000000 0.7215 0.7212 0.7211 0.7210 0.7208
3157.000000 0.7206 0.7205 0.7203 0.7201 0.7200
3162.000000 0.7198 0.7196 0.7195 0.7193 0.7192
3167.000000 0.7190 0.7189 0.7187 0.7186 0.7184
3172.000000 0.7183 0.7182 0.7181 0.7178 0.7178
3177.000000 0.7175 0.7175 0.7174 0.7172 0.7171
3182.000000 0.7169 0.7168 0.7168 0.7165 0.7165
3187.000000 0.7164 0.7162 0.7160 0.7157 0.7154
3192.000000 0.7151 0.7148 0.7146 0.7143 0.7140
3197.000000 0.7137 0.7134 0.7131 0.7128 0.7125
3202.000000 0.7122 0.7119 0.7117 0.7114 0.7111
3207.000000 0.7108 0.7106 0.7103 0.7100 0.7097
3212.000000 0.7095 0.7092 0.7089 0.7086 0.7083
3217.000000 0.7078 0.7075 0.7071 0.7068 0.7065
3222.000000 0.7061 0.7058 0.7055 0.7051 0.7047
3227.000000 0.7043 0.7040 0.7036 0.7033 0.7030
3232.000000 0.7028 0.7025 0.7022 0.7019 0.7018
3237.000000 0.7015 0.7014 0.7011 0.7008 0.7006
3242.000000 0.7004 0.7001 0.6999 0.6996 0.6994
3247.000000 0.6992 0.6990 0.6987 0.6985 0.6982
3252.000000 0.6980 0.6976 0.6975 0.6971 0.6969
3257.000000 0.6967 0.6964 0.6960 0.6957 0.6954
3262.000000 0.6951 0.6948 0.6945 0.6942 0.6939
3267.000000 0.6936 0.6933 0.6928 0.6925 0.6922
3272.000000 0.6919 0.6917 0.6914 0.6911 0.6908
3277.000000 0.6904 0.6901 0.6898 0.6895 0.6892
3282.000000 0.6889 0.6886 0.6883 0.6878 0.6875
3287.000000 0.6872 0.6871 0.6868 0.6865 0.6861
3292.000000 0.6860 0.6857 0.6854 0.6851 0.6849
3297.000000 0.6846 0.6843 0.6840 0.6838 0.6835
3302.000000 0.6832 0.6828 0.6826 0.6824 0.6821
3307.000000 0.6818 0.6815 0.6812 0.6810 0.6807
3312.000000 0.6805 0.6801 0.6800 0.6798 0.6796
3317.000000 0.6794 0.6792 0.6790 0.6788 0.6786
3322.000000 0.6784 0.6782 0.6781 0.6778 0.6776
3327.000000 0.6775 0.6772 0.6771 0.6768 0.6767
3332.000000 0.6765 0.6764 0.6761 0.6760 0.6758
3337.000000 0.6756 0.6754 0.6751 0.6750 0.6748
3342.000000 0.6747 0.6745 0.6743 0.6741 0.6740
3347.000000 0.6738 0.6737 0.6736 0.6735 0.6734
3352.000000 0.6733 0.6732 0.6731 0.6728 0.6728
3357.000000 0.6726 0.6725 0.6725 0.6724 0.6721
3362.000000 0.6721 0.6719 0.6718 0.6718 0.6717
3367.000000 0.6715 0.6715 0.6712 0.6711 0.6711
3372.000000 0.6710 0.6708 0.6708 0.6706 0.6705
3377.000000 0.6704 0.6703 0.6701 0.6701 0.6700
3382.000000 0.6699 0.6697 0.6696 0.6695 0.6694
3387.000000 0.6692 0.6691 0.6690 0.6689 0.6687
3392.000000 0.6686 0.6684 0.6683 0.6682 0.6681
3397.000000 0.6678 0.6678 0.6676 0.6675 0.6674
3402.000000 0.6672 0.6671 0.6669 0.6668 0.6668
3407.000000 0.6665 0.6665 0.6664 0.6662 0.6661
3412.000000 0.6660 0.6658 0.6658 0.6656 0.6655
3417.000000 0.6653 0.6651 0.6651 0.6650 0.6648
3422.000000 0.6647 0.6646 0.6645 0.6643 0.6642
3427.000000 0.6641 0.6640 0.6638 0.6637 0.6636
3432.000000 0.6635 0.6634 0.6634 0.6633 0.6633
3437.000000 0.6632 0.6631 0.6630 0.6630 0.6628
3442.000000 0.6628 0.6626 0.6626 0.6625 0.6625
3447.000000 0.6625 0.6624 0.6622 0.6622 0.6621
3452.000000 0.6621 0.6621 0.6619 0.6618 0.6618
3457.000000 0.6618 0.6617 0.6615 0.6615 0.6615
3462.000000 0.6615 0.6614 0.6612 0.6611 0.6611
3467.000000 0.6611 0.6611 0.6610 0.6610 0.6608
3472.000000 0.6608 0.6608 0.6608 0.6607 0.6607
3477.000000 0.6606 0.6606 0.6605 0.6604 0.6603
3482.000000 0.6603 0.6601 0.6601 0.6601 0.6601
3487.000000 0.6600 0.6600 0.6599 0.6599 0.6598
3492.000000 0.6598 0.6597 0.6597 0.6596 0.6596
3497.000000 0.6595 0.6595 0.6594 0.6594 0.6593
3502.000000 0.6593 0.6593 0.6593 0.6592 0.6592
3507.000000 0.6591 0.6591 0.6591 0.6591 0.6590
3512.000000 0.6590 0.6590 0.6590 0.6589 0.6589
3517.000000 0.6589 0.6589 0.6588 0.6588 0.6587
3522.000000 0.6587 0.6587 0.6587 0.6586 0.6586
3527.000000 0.6586 0.6586 0.6585 0.6585 0.6585
3532.000000 0.6585 0.6584 0.6584 0.6583 0.6583
3537.000000 0.6583 0.6583 0.6583 0.6583 0.6582
3542.000000 0.6582 0.6582 0.6582 0.6582 0.6582
3547.000000 0.6581 0.6581 0.6581 0.6581 0.6581
3552.000000 0.6581 0.6580 0.6580 0.6580 0.6580
3557.000000 0.6580 0.6580 0.6578 0.6578 0.6578
3562.000000 0.6578 0.6578 0.6578 0.6578 0.6578
3567.000000 0.6578 0.6578 0.6578 0.6578 0.6576
3572.000000 0.6576 0.6576 0.6576 0.6576 0.6576
3577.000000 0.6575 0.6575 0.6575 0.6575 0.6575
3582.000000 0.6575 0.6575 0.6575 0.6575 0.6575
3587.000000 0.6575 0.6575 0.6574 0.6574 0.6574
3592.000000 0.6574 0.6574 0.6574 0.6574 0.6574
3597.000000 0.6574 0.6574 0.6574 0.6574 0.6572
3602.000000 0.6572 0.6572 0.6572 0.6572 0.6572
3607.000000 0.6572 0.6572 0.6572 0.6572 0.6572
3612.000000 0.6572 0.6571 0.6571 0.6571 0.6571
3617.000000 0.6571 0.6571 0.6571 0.6571 0.6571
3622.000000 0.6571 0.6571 0.6571 0.6571 0.6571
3627.000000 0.6569 0.6569 0.6569 0.6569 0.6568
3632.000000 0.6568 0.6568 0.6568 0.6568 0.6568
3637.000000 0.6568 0.6568 0.6567 0.6567 0.6565
3642.000000 0.6565 0.6565 0.6565 0.6565 0.6565
3647.000000 0.6565 0.6565 0.6564 0.6564 0.6564
3652.000000 0.6564 0.6562 0.6562 0.6561 0.6561
3657.000000 0.6561 0.6561 0.6561 0.6561 0.6561
3662.000000 0.6561 0.6561 0.6561 0.6561 0.6562
3667.000000 0.6562 0.6562 0.6562 0.6564 0.6564
3672.000000 0.6564 0.6564 0.6565 0.6565 0.6565
3677.000000 0.6565 0.6565 0.6565 0.6567 0.6567
3682.000000 0.6568 0.6568 0.6568 0.6568 0.6568
3687.000000 0.6568 0.6569 0.6569 0.6569 0.6569
3692.000000 0.6571 0.6571 0.6571 0.6571 0.6571
3697.000000 0.6571 0.6572 0.6572 0.6572 0.6572
3702.000000 0.6572 0.6572 0.6572 0.6572 0.6574
3707.000000 0.6574 0.6574 0.6574 0.6574 0.6574
3712.000000 0.6574 0.6574 0.6575 0.6575 0.6575
3717.000000 0.6575 0.6575 0.6575 0.6575 0.6575
3722.000000 0.6575 0.6575 0.6575 0.6575 0.6575
3727.000000 0.6575 0.6575 0.6575 0.6575 0.6574
3732.000000 0.6574 0.6572 0.6572 0.6571 0.6571
3737.000000 0.6571 0.6571 0.6569 0.6569 0.6568
3742.000000 0.6568 0.6568 0.6568 0.6567 0.6567
3747.000000 0.6565 0.6565 0.6565 0.6565 0.6565
3752.000000 0.6565 0.6564 0.6562 0.6561 0.6561
3757.000000 0.6561 0.6560 0.6558 0.6558 0.6558
3762.000000 0.6557 0.6556 0.6555 0.6554 0.6554
3767.000000 0.6553 0.6551 0.6551 0.6551 0.6550
3772.000000 0.6549 0.6549 0.6549 0.6550 0.6551
3777.000000 0.6551 0.6553 0.6553 0.6554 0.6555
3782.000000 0.6556 0.6557 0.6558 0.6558 0.6558
3787.000000 0.6560 0.6561 0.6561 0.6562 0.6562
3792.000000 0.6564 0.6565 0.6565 0.6567 0.6568
3797.000000 0.6568 0.6568 0.6568 0.6569
##END=
