##TITLE=4-Aza-5Alpha-cholestane chloride, 3Beta-benzyl-4,4-dimethyl-, monohydrate
##JCAMP-DX=4.24
##DATA TYPE=INFRARED SPECTRUM
##CLASS=COBLENTZ III
##ORIGIN=SMITH KLINE & FRENCH LABS.
##OWNER=Copyright (C) 1987 by the Coblentz Society
Collection (C) 2018 copyright by the U.S. Secretary of Commerce
on behalf of the United States of America. All rights reserved.
##DATE=1965/02/08
##MOLFORM=C35 H58 Cl N  * H2 O
##SOURCE REFERENCE=COBLENTZ NO. 9107
##$NIST ID=B6009107
##$NIST SOURCE=COBLENTZ
##$NIST IMAGE=cob9107
##SPECTROMETER/DATA SYSTEM=PERKIN-ELMER 21 (GRATING)
##INSTRUMENT PARAMETERS=NaCl PRISM
##STATE=SOLID (KBr DISC)
##SAMPLING PROCEDURE=TRANSMISSION
##RESOLUTION=2
##DATA PROCESSING=DIGITIZED BY COBLENTZ SOCIETY (BATCH II) FROM HARD COPY
##XUNITS=1/CM
##YUNITS=TRANSMITTANCE
##XFACTOR=1.0
##YFACTOR=1
##FIRSTX=650
##LASTX=4000
##FIRSTY=0.8022
##MAXX=4000
##MINX=650
##MAXY=0.9515
##MINY=0.0138
##NPOINTS=3351
##XYDATA=(X++(Y..Y))
650.000000 0.8022 0.8095 0.8157 0.8137 0.8223
655.000000 0.8236 0.8249 0.8260 0.8278 0.8304
660.000000 0.8329 0.8352 0.8374 0.8252 0.7985
665.000000 0.7874 0.8008 0.8292 0.8457 0.8514
670.000000 0.8537 0.8549 0.8559 0.8563 0.8569
675.000000 0.8577 0.8582 0.8580 0.8579 0.8584
680.000000 0.8602 0.8621 0.8645 0.8636 0.8619
685.000000 0.8602 0.8612 0.8513 0.8458 0.8371
690.000000 0.8275 0.8114 0.7934 0.7737 0.7480
695.000000 0.7172 0.6624 0.6018 0.5414 0.4811
700.000000 0.4260 0.3927 0.3827 0.4292 0.5044
705.000000 0.5796 0.6544 0.7310 0.8065 0.8319
710.000000 0.8438 0.8487 0.8512 0.8514 0.8503
715.000000 0.8428 0.8311 0.8121 0.7931 0.7742
720.000000 0.7554 0.7364 0.7155 0.6940 0.6631
725.000000 0.5965 0.5300 0.4648 0.4388 0.4365
730.000000 0.4885 0.5487 0.6088 0.6676 0.6919
735.000000 0.6935 0.6945 0.6518 0.5810 0.5113
740.000000 0.4418 0.3726 0.3615 0.4268 0.5293
745.000000 0.6314 0.7162 0.7619 0.8004 0.8227
750.000000 0.8368 0.8468 0.8509 0.8517 0.8365
755.000000 0.8231 0.8039 0.7716 0.7369 0.7022
760.000000 0.6676 0.6563 0.6547 0.7176 0.7621
765.000000 0.8064 0.8507 0.8974 0.9130 0.9231
770.000000 0.9303 0.9352 0.9382 0.9405 0.9425
775.000000 0.9440 0.9457 0.9471 0.9483 0.9515
780.000000 0.9480 0.9472 0.9464 0.9467 0.9457
785.000000 0.9426 0.9396 0.9363 0.9327 0.9274
790.000000 0.9183 0.9087 0.8981 0.8852 0.8662
795.000000 0.8491 0.8464 0.8509 0.8577 0.8612
800.000000 0.8605 0.8604 0.8709 0.8840 0.8892
805.000000 0.8923 0.8845 0.8741 0.8618 0.8465
810.000000 0.8387 0.8345 0.8553 0.8737 0.8889
815.000000 0.8974 0.8995 0.8850 0.8751 0.8663
820.000000 0.8581 0.8468 0.8403 0.8420 0.8398
825.000000 0.8342 0.8339 0.8417 0.8505 0.8596
830.000000 0.8687 0.8808 0.8951 0.8969 0.8983
835.000000 0.8996 0.9006 0.9026 0.9091 0.9154
840.000000 0.9193 0.9215 0.9193 0.9170 0.9131
845.000000 0.9093 0.9035 0.8961 0.8863 0.8765
850.000000 0.8673 0.8677 0.8727 0.8863 0.8944
855.000000 0.8992 0.9037 0.9081 0.9110 0.9137
860.000000 0.9158 0.9147 0.9141 0.9035 0.8908
865.000000 0.8796 0.8706 0.8564 0.8303 0.8030
870.000000 0.7758 0.7486 0.7215 0.7005 0.6905
875.000000 0.6885 0.7016 0.7446 0.7875 0.8079
880.000000 0.8179 0.8200 0.8207 0.8210 0.8216
885.000000 0.8243 0.8320 0.8412 0.8518 0.8688
890.000000 0.8808 0.8910 0.8932 0.8940 0.8909
895.000000 0.8863 0.8791 0.8708 0.8598 0.8464
900.000000 0.8299 0.8094 0.8004 0.8035 0.8082
905.000000 0.8054 0.7844 0.7577 0.7396 0.7207
910.000000 0.6936 0.6645 0.6477 0.6243 0.6195
915.000000 0.6257 0.6482 0.6725 0.6935 0.7076
920.000000 0.7051 0.7036 0.7020 0.7004 0.6986
925.000000 0.6942 0.6819 0.6464 0.6052 0.5641
930.000000 0.5433 0.5421 0.5788 0.6099 0.6402
935.000000 0.6496 0.6530 0.6480 0.6305 0.6009
940.000000 0.5712 0.5417 0.5129 0.5211 0.5136
945.000000 0.5884 0.6221 0.6557 0.6944 0.7154
950.000000 0.7453 0.7640 0.7674 0.7678 0.7641
955.000000 0.7559 0.7375 0.7198 0.7164 0.7285
960.000000 0.7414 0.7509 0.7563 0.7626 0.7507
965.000000 0.7396 0.7263 0.7074 0.6874 0.6602
970.000000 0.6320 0.6269 0.6308 0.6607 0.6907
975.000000 0.7207 0.7505 0.7804 0.8028 0.8121
980.000000 0.8150 0.8169 0.8178 0.8160 0.8132
985.000000 0.8044 0.7933 0.7799 0.7662 0.7517
990.000000 0.7335 0.6951 0.6571 0.6197 0.5853
995.000000 0.5703 0.5692 0.5705 0.6010 0.6340
1000.000000 0.6669 0.6997 0.7325 0.7438 0.7440
1005.000000 0.7453 0.7339 0.7208 0.7069 0.6900
1010.000000 0.6720 0.6574 0.6568 0.6551 0.6692
1015.000000 0.6816 0.6893 0.6971 0.7050 0.7140
1020.000000 0.7348 0.7392 0.7414 0.7442 0.7380
1025.000000 0.7171 0.7043 0.7031 0.7055 0.7204
1030.000000 0.7336 0.7452 0.7543 0.7611 0.7698
1035.000000 0.7777 0.7849 0.7901 0.7930 0.7953
1040.000000 0.7862 0.7744 0.7609 0.7517 0.7478
1045.000000 0.7483 0.7554 0.7713 0.7873 0.8032
1050.000000 0.8078 0.8088 0.8098 0.8109 0.8119
1055.000000 0.8129 0.8138 0.8161 0.8157 0.8156
1060.000000 0.8124 0.8092 0.8062 0.8036 0.8019
1065.000000 0.8008 0.8004 0.8003 0.8001 0.7942
1070.000000 0.7808 0.7715 0.7693 0.7685 0.7828
1075.000000 0.7898 0.7891 0.7865 0.7887 0.7916
1080.000000 0.7950 0.7987 0.8022 0.8058 0.8092
1085.000000 0.8127 0.8161 0.8195 0.8231 0.8265
1090.000000 0.8280 0.8329 0.8277 0.8265 0.8245
1095.000000 0.8225 0.8200 0.8175 0.8148 0.8120
1100.000000 0.8092 0.8060 0.8027 0.7993 0.7957
1105.000000 0.7906 0.7852 0.7805 0.7766 0.7752
1110.000000 0.7753 0.7740 0.7814 0.7880 0.7931
1115.000000 0.7960 0.7964 0.7974 0.7945 0.7833
1120.000000 0.7672 0.7632 0.7610 0.7640 0.7669
1125.000000 0.7715 0.7755 0.7783 0.7823 0.7929
1130.000000 0.7988 0.8017 0.8027 0.8032 0.8037
1135.000000 0.8075 0.8036 0.8033 0.8022 0.8010
1140.000000 0.7998 0.7988 0.7977 0.7966 0.7953
1145.000000 0.7939 0.7926 0.7918 0.7910 0.7903
1150.000000 0.7896 0.7897 0.7902 0.7906 0.7911
1155.000000 0.7917 0.7923 0.7925 0.7921 0.7912
1160.000000 0.7896 0.7864 0.7797 0.7719 0.7642
1165.000000 0.7579 0.7515 0.7459 0.7413 0.7368
1170.000000 0.7320 0.7297 0.7304 0.7269 0.7345
1175.000000 0.7425 0.7543 0.7670 0.7761 0.7832
1180.000000 0.7874 0.7911 0.7931 0.7940 0.7937
1185.000000 0.7931 0.7918 0.7896 0.7845 0.7766
1190.000000 0.7677 0.7610 0.7593 0.7590 0.7591
1195.000000 0.7593 0.7596 0.7598 0.7601 0.7604
1200.000000 0.7610 0.7617 0.7629 0.7642 0.7655
1205.000000 0.7668 0.7686 0.7705 0.7715 0.7720
1210.000000 0.7725 0.7720 0.7711 0.7700 0.7680
1215.000000 0.7661 0.7643 0.7625 0.7632 0.7652
1220.000000 0.7692 0.7720 0.7745 0.7749 0.7750
1225.000000 0.7723 0.7681 0.7627 0.7568 0.7488
1230.000000 0.7387 0.7348 0.7352 0.7357 0.7378
1235.000000 0.7431 0.7440 0.7436 0.7376 0.7306
1240.000000 0.7236 0.7156 0.7063 0.6933 0.6872
1245.000000 0.6901 0.6909 0.7000 0.7096 0.7183
1250.000000 0.7264 0.7319 0.7376 0.7561 0.7679
1255.000000 0.7736 0.7738 0.7733 0.7719 0.7671
1260.000000 0.7599 0.7521 0.7470 0.7472 0.7483
1265.000000 0.7542 0.7637 0.7669 0.7680 0.7684
1270.000000 0.7682 0.7678 0.7674 0.7667 0.7661
1275.000000 0.7654 0.7650 0.7650 0.7677 0.7720
1280.000000 0.7746 0.7756 0.7764 0.7769 0.7746
1285.000000 0.7757 0.7746 0.7734 0.7716 0.7692
1290.000000 0.7657 0.7621 0.7574 0.7526 0.7472
1295.000000 0.7416 0.7350 0.7274 0.7181 0.7089
1300.000000 0.7046 0.7030 0.7027 0.7029 0.7064
1305.000000 0.7096 0.7158 0.7244 0.7309 0.7366
1310.000000 0.7408 0.7429 0.7405 0.7395 0.7382
1315.000000 0.7363 0.7333 0.7304 0.7276 0.7250
1320.000000 0.7233 0.7219 0.7204 0.7188 0.7159
1325.000000 0.7085 0.7019 0.6950 0.6825 0.6692
1330.000000 0.6578 0.6501 0.6495 0.6474 0.6506
1335.000000 0.6586 0.6691 0.6774 0.6806 0.6818
1340.000000 0.6820 0.6823 0.6826 0.6837 0.6866
1345.000000 0.6917 0.6979 0.7017 0.7044 0.7044
1350.000000 0.7067 0.6990 0.6924 0.6796 0.6578
1355.000000 0.6343 0.6108 0.5873 0.5640 0.5409
1360.000000 0.5312 0.5329 0.5402 0.5473 0.5546
1365.000000 0.5589 0.5565 0.5354 0.5120 0.4886
1370.000000 0.4651 0.4418 0.4162 0.4077 0.4049
1375.000000 0.4043 0.4061 0.4079 0.4283 0.4563
1380.000000 0.4836 0.5110 0.5383 0.5657 0.5929
1385.000000 0.6201 0.6248 0.6224 0.6147 0.6057
1390.000000 0.6006 0.6043 0.6208 0.6399 0.6635
1395.000000 0.6838 0.6953 0.7024 0.7081 0.7133
1400.000000 0.7151 0.7153 0.7157 0.7133 0.7093
1405.000000 0.7050 0.7014 0.6946 0.6748 0.6670
1410.000000 0.6646 0.6651 0.6672 0.6707 0.6737
1415.000000 0.6740 0.6736 0.6729 0.6706 0.6671
1420.000000 0.6631 0.6588 0.6539 0.6482 0.6423
1425.000000 0.6362 0.6302 0.6212 0.6099 0.5942
1430.000000 0.5554 0.4811 0.4100 0.3955 0.3894
1435.000000 0.3818 0.3740 0.3643 0.3522 0.3346
1440.000000 0.3161 0.3031 0.2864 0.2745 0.2707
1445.000000 0.2702 0.2705 0.2761 0.2832 0.2902
1450.000000 0.2928 0.2923 0.2859 0.2562 0.2313
1455.000000 0.2231 0.2232 0.2262 0.2288 0.2297
1460.000000 0.2230 0.2074 0.1943 0.1874 0.1851
1465.000000 0.1834 0.1825 0.1845 0.1935 0.2213
1470.000000 0.2490 0.2768 0.3044 0.3321 0.3596
1475.000000 0.3872 0.4147 0.4422 0.4670 0.4804
1480.000000 0.4867 0.4896 0.4920 0.4925 0.4928
1485.000000 0.4922 0.4898 0.4864 0.4831 0.4797
1490.000000 0.4770 0.4775 0.4780 0.4877 0.5098
1495.000000 0.5338 0.5577 0.5816 0.6055 0.6293
1500.000000 0.6496 0.6600 0.6697 0.6919 0.7127
1505.000000 0.7383 0.7448 0.7466 0.7479 0.7492
1510.000000 0.7503 0.7512 0.7521 0.7539 0.7564
1515.000000 0.7590 0.7625 0.7664 0.7687 0.7706
1520.000000 0.7725 0.7743 0.7758 0.7774 0.7789
1525.000000 0.7799 0.7806 0.7812 0.7818 0.7818
1530.000000 0.7816 0.7814 0.7813 0.7810 0.7804
1535.000000 0.7801 0.7807 0.7815 0.7826 0.7842
1540.000000 0.7861 0.7878 0.7891 0.7903 0.7915
1545.000000 0.7926 0.7916 0.7912 0.7899 0.7885
1550.000000 0.7870 0.7855 0.7835 0.7814 0.7799
1555.000000 0.7786 0.7774 0.7764 0.7755 0.7746
1560.000000 0.7737 0.7727 0.7720 0.7715 0.7710
1565.000000 0.7706 0.7702 0.7696 0.7686 0.7672
1570.000000 0.7654 0.7631 0.7606 0.7583 0.7563
1575.000000 0.7544 0.7525 0.7506 0.7487 0.7468
1580.000000 0.7450 0.7430 0.7409 0.7389 0.7368
1585.000000 0.7345 0.7318 0.7289 0.7260 0.7232
1590.000000 0.7175 0.7094 0.7005 0.6914 0.6823
1595.000000 0.6732 0.6641 0.6550 0.6481 0.6482
1600.000000 0.6482 0.6523 0.6615 0.6715 0.6792
1605.000000 0.6818 0.6813 0.6813 0.6799 0.6748
1610.000000 0.6668 0.6588 0.6512 0.6466 0.6468
1615.000000 0.6471 0.6554 0.6625 0.6695 0.6765
1620.000000 0.6828 0.6888 0.6932 0.6970 0.7003
1625.000000 0.7032 0.7060 0.7086 0.7112 0.7138
1630.000000 0.7163 0.7187 0.7206 0.7225 0.7244
1635.000000 0.7262 0.7280 0.7298 0.7315 0.7332
1640.000000 0.7349 0.7369 0.7393 0.7418 0.7444
1645.000000 0.7472 0.7502 0.7526 0.7535 0.7544
1650.000000 0.7552 0.7553 0.7551 0.7550 0.7548
1655.000000 0.7547 0.7545 0.7543 0.7541 0.7539
1660.000000 0.7538 0.7537 0.7537 0.7536 0.7535
1665.000000 0.7537 0.7542 0.7549 0.7559 0.7575
1670.000000 0.7602 0.7629 0.7649 0.7668 0.7686
1675.000000 0.7705 0.7726 0.7751 0.7774 0.7788
1680.000000 0.7797 0.7800 0.7798 0.7794 0.7785
1685.000000 0.7766 0.7745 0.7728 0.7716 0.7716
1690.000000 0.7719 0.7722 0.7732 0.7752 0.7774
1695.000000 0.7788 0.7801 0.7813 0.7821 0.7828
1700.000000 0.7835 0.7841 0.7846 0.7852 0.7856
1705.000000 0.7861 0.7862 0.7862 0.7861 0.7861
1710.000000 0.7861 0.7861 0.7858 0.7855 0.7852
1715.000000 0.7848 0.7845 0.7842 0.7839 0.7837
1720.000000 0.7834 0.7831 0.7828 0.7826 0.7826
1725.000000 0.7828 0.7830 0.7831 0.7832 0.7834
1730.000000 0.7837 0.7842 0.7846 0.7851 0.7854
1735.000000 0.7858 0.7862 0.7866 0.7870 0.7874
1740.000000 0.7877 0.7881 0.7882 0.7884 0.7886
1745.000000 0.7887 0.7889 0.7889 0.7891 0.7892
1750.000000 0.7893 0.7895 0.7896 0.7897 0.7893
1755.000000 0.7888 0.7881 0.7873 0.7865 0.7854
1760.000000 0.7842 0.7830 0.7820 0.7820 0.7821
1765.000000 0.7856 0.7831 0.7839 0.7843 0.7847
1770.000000 0.7851 0.7852 0.7851 0.7851 0.7851
1775.000000 0.7849 0.7848 0.7846 0.7846 0.7844
1780.000000 0.7845 0.7847 0.7850 0.7852 0.7854
1785.000000 0.7857 0.7861 0.7868 0.7876 0.7882
1790.000000 0.7886 0.7889 0.7893 0.7896 0.7899
1795.000000 0.7902 0.7904 0.7905 0.7904 0.7901
1800.000000 0.7898 0.7896 0.7894 0.7891 0.7889
1805.000000 0.7886 0.7883 0.7879 0.7873 0.7867
1810.000000 0.7861 0.7855 0.7849 0.7843 0.7836
1815.000000 0.7827 0.7818 0.7809 0.7800 0.7790
1820.000000 0.7781 0.7773 0.7769 0.7767 0.7763
1825.000000 0.7759 0.7753 0.7749 0.7744 0.7739
1830.000000 0.7732 0.7724 0.7720 0.7721 0.7728
1835.000000 0.7736 0.7745 0.7756 0.7768 0.7781
1840.000000 0.7794 0.7807 0.7824 0.7843 0.7858
1845.000000 0.7865 0.7873 0.7877 0.7878 0.7878
1850.000000 0.7879 0.7879 0.7878 0.7876 0.7873
1855.000000 0.7870 0.7868 0.7866 0.7864 0.7862
1860.000000 0.7860 0.7858 0.7856 0.7854 0.7852
1865.000000 0.7850 0.7848 0.7847 0.7842 0.7836
1870.000000 0.7827 0.7818 0.7809 0.7799 0.7786
1875.000000 0.7770 0.7754 0.7741 0.7734 0.7728
1880.000000 0.7722 0.7716 0.7710 0.7704 0.7697
1885.000000 0.7690 0.7683 0.7675 0.7668 0.7660
1890.000000 0.7654 0.7651 0.7648 0.7645 0.7642
1895.000000 0.7640 0.7637 0.7634 0.7631 0.7628
1900.000000 0.7626 0.7624 0.7621 0.7618 0.7616
1905.000000 0.7617 0.7619 0.7621 0.7623 0.7624
1910.000000 0.7626 0.7628 0.7630 0.7633 0.7637
1915.000000 0.7640 0.7643 0.7647 0.7650 0.7654
1920.000000 0.7657 0.7661 0.7665 0.7668 0.7672
1925.000000 0.7672 0.7668 0.7664 0.7659 0.7655
1930.000000 0.7651 0.7646 0.7641 0.7631 0.7621
1935.000000 0.7611 0.7601 0.7592 0.7582 0.7572
1940.000000 0.7562 0.7552 0.7537 0.7522 0.7508
1945.000000 0.7492 0.7477 0.7462 0.7447 0.7430
1950.000000 0.7410 0.7387 0.7364 0.7341 0.7327
1955.000000 0.7319 0.7319 0.7320 0.7320 0.7322
1960.000000 0.7326 0.7332 0.7337 0.7344 0.7352
1965.000000 0.7364 0.7375 0.7385 0.7393 0.7400
1970.000000 0.7407 0.7411 0.7415 0.7419 0.7419
1975.000000 0.7418 0.7416 0.7414 0.7412 0.7408
1980.000000 0.7402 0.7395 0.7388 0.7381 0.7372
1985.000000 0.7362 0.7353 0.7344 0.7334 0.7323
1990.000000 0.7309 0.7294 0.7280 0.7272 0.7267
1995.000000 0.7264 0.7267 0.7267 0.7271 0.7275
2000.000000 0.7281 0.7289 0.7297 0.7306 0.7323
2005.000000 0.7343 0.7368 0.7398 0.7430 0.7478
2010.000000 0.7520 0.7551 0.7579 0.7606 0.7618
2015.000000 0.7631 0.7643 0.7656 0.7667 0.7675
2020.000000 0.7682 0.7688 0.7696 0.7703 0.7709
2025.000000 0.7715 0.7721 0.7726 0.7732 0.7737
2030.000000 0.7743 0.7749 0.7755 0.7761 0.7767
2035.000000 0.7773 0.7779 0.7785 0.7791 0.7797
2040.000000 0.7801 0.7805 0.7809 0.7812 0.7816
2045.000000 0.7820 0.7823 0.7825 0.7826 0.7827
2050.000000 0.7828 0.7830 0.7831 0.7832 0.7833
2055.000000 0.7834 0.7836 0.7836 0.7835 0.7832
2060.000000 0.7830 0.7829 0.7827 0.7825 0.7822
2065.000000 0.7820 0.7819 0.7816 0.7814 0.7812
2070.000000 0.7809 0.7806 0.7803 0.7800 0.7798
2075.000000 0.7795 0.7792 0.7788 0.7785 0.7782
2080.000000 0.7779 0.7776 0.7775 0.7775 0.7775
2085.000000 0.7775 0.7776 0.7777 0.7777 0.7778
2090.000000 0.7778 0.7780 0.7782 0.7787 0.7791
2095.000000 0.7796 0.7800 0.7804 0.7809 0.7813
2100.000000 0.7815 0.7817 0.7819 0.7821 0.7824
2105.000000 0.7826 0.7827 0.7828 0.7827 0.7826
2110.000000 0.7825 0.7824 0.7823 0.7822 0.7820
2115.000000 0.7819 0.7817 0.7816 0.7815 0.7813
2120.000000 0.7810 0.7808 0.7806 0.7803 0.7801
2125.000000 0.7798 0.7796 0.7793 0.7832 0.7788
2130.000000 0.7785 0.7781 0.7778 0.7775 0.7772
2135.000000 0.7768 0.7765 0.7762 0.7758 0.7755
2140.000000 0.7753 0.7750 0.7747 0.7744 0.7742
2145.000000 0.7739 0.7736 0.7734 0.7731 0.7728
2150.000000 0.7726 0.7724 0.7723 0.7722 0.7721
2155.000000 0.7720 0.7719 0.7718 0.7717 0.7716
2160.000000 0.7715 0.7714 0.7713 0.7713 0.7713
2165.000000 0.7713 0.7714 0.7715 0.7716 0.7717
2170.000000 0.7718 0.7719 0.7720 0.7722 0.7724
2175.000000 0.7726 0.7729 0.7732 0.7735 0.7739
2180.000000 0.7742 0.7746 0.7749 0.7752 0.7755
2185.000000 0.7757 0.7759 0.7760 0.7762 0.7763
2190.000000 0.7765 0.7766 0.7767 0.7767 0.7767
2195.000000 0.7767 0.7767 0.7767 0.7767 0.7768
2200.000000 0.7768 0.7768 0.7768 0.7767 0.7765
2205.000000 0.7763 0.7761 0.7759 0.7756 0.7754
2210.000000 0.7752 0.7750 0.7748 0.7746 0.7744
2215.000000 0.7742 0.7740 0.7738 0.7735 0.7732
2220.000000 0.7728 0.7725 0.7721 0.7718 0.7714
2225.000000 0.7711 0.7707 0.7704 0.7700 0.7697
2230.000000 0.7693 0.7689 0.7685 0.7681 0.7678
2235.000000 0.7674 0.7670 0.7666 0.7663 0.7659
2240.000000 0.7655 0.7652 0.7648 0.7644 0.7640
2245.000000 0.7636 0.7632 0.7629 0.7626 0.7624
2250.000000 0.7622 0.7620 0.7619 0.7617 0.7615
2255.000000 0.7613 0.7612 0.7610 0.7608 0.7607
2260.000000 0.7605 0.7603 0.7601 0.7600 0.7598
2265.000000 0.7597 0.7597 0.7596 0.7595 0.7594
2270.000000 0.7593 0.7592 0.7591 0.7590 0.7589
2275.000000 0.7588 0.7588 0.7587 0.7586 0.7585
2280.000000 0.7583 0.7581 0.7578 0.7576 0.7574
2285.000000 0.7572 0.7570 0.7567 0.7565 0.7562
2290.000000 0.7560 0.7558 0.7555 0.7549 0.7541
2295.000000 0.7530 0.7519 0.7508 0.7497 0.7486
2300.000000 0.7475 0.7464 0.7453 0.7442 0.7431
2305.000000 0.7430 0.7430 0.7431 0.7433 0.7435
2310.000000 0.7437 0.7440 0.7444 0.7448 0.7453
2315.000000 0.7459 0.7464 0.7470 0.7475 0.7480
2320.000000 0.7484 0.7488 0.7493 0.7497 0.7501
2325.000000 0.7505 0.7508 0.7511 0.7513 0.7515
2330.000000 0.7518 0.7520 0.7523 0.7526 0.7528
2335.000000 0.7530 0.7532 0.7534 0.7536 0.7537
2340.000000 0.7539 0.7541 0.7542 0.7543 0.7544
2345.000000 0.7544 0.7542 0.7541 0.7539 0.7538
2350.000000 0.7536 0.7535 0.7534 0.7534 0.7534
2355.000000 0.7536 0.7538 0.7540 0.7543 0.7547
2360.000000 0.7553 0.7558 0.7563 0.7569 0.7574
2365.000000 0.7579 0.7583 0.7587 0.7591 0.7595
2370.000000 0.7598 0.7600 0.7601 0.7601 0.7601
2375.000000 0.7597 0.7592 0.7587 0.7582 0.7577
2380.000000 0.7572 0.7566 0.7560 0.7555 0.7548
2385.000000 0.7542 0.7535 0.7528 0.7520 0.7511
2390.000000 0.7501 0.7491 0.7480 0.7470 0.7460
2395.000000 0.7452 0.7448 0.7443 0.7441 0.7438
2400.000000 0.7436 0.7433 0.7432 0.7432 0.7432
2405.000000 0.7432 0.7432 0.7433 0.7433 0.7434
2410.000000 0.7435 0.7436 0.7436 0.7436 0.7437
2415.000000 0.7437 0.7438 0.7438 0.7439 0.7439
2420.000000 0.7439 0.7439 0.7439 0.7438 0.7438
2425.000000 0.7438 0.7438 0.7438 0.7437 0.7437
2430.000000 0.7437 0.7437 0.7436 0.7436 0.7436
2435.000000 0.7435 0.7435 0.7434 0.7434 0.7434
2440.000000 0.7433 0.7433 0.7432 0.7432 0.7431
2445.000000 0.7430 0.7430 0.7428 0.7427 0.7426
2450.000000 0.7425 0.7424 0.7423 0.7422 0.7421
2455.000000 0.7419 0.7418 0.7417 0.7416 0.7415
2460.000000 0.7414 0.7413 0.7412 0.7411 0.7405
2465.000000 0.7399 0.7393 0.7387 0.7381 0.7375
2470.000000 0.7369 0.7363 0.7357 0.7351 0.7346
2475.000000 0.7340 0.7334 0.7328 0.7323 0.7317
2480.000000 0.7311 0.7306 0.7300 0.7294 0.7289
2485.000000 0.7283 0.7281 0.7280 0.7279 0.7279
2490.000000 0.7279 0.7278 0.7278 0.7277 0.7276
2495.000000 0.7276 0.7275 0.7275 0.7275 0.7275
2500.000000 0.7276 0.7277 0.7278 0.7279 0.7280
2505.000000 0.7280 0.7281 0.7282 0.7283 0.7284
2510.000000 0.7284 0.7285 0.7285 0.7285 0.7283
2515.000000 0.7281 0.7279 0.7277 0.7275 0.7272
2520.000000 0.7270 0.7268 0.7266 0.7264 0.7262
2525.000000 0.7260 0.7258 0.7256 0.7254 0.7250
2530.000000 0.7247 0.7242 0.7237 0.7232 0.7227
2535.000000 0.7223 0.7218 0.7213 0.7208 0.7203
2540.000000 0.7198 0.7192 0.7184 0.7175 0.7167
2545.000000 0.7159 0.7151 0.7143 0.7134 0.7126
2550.000000 0.7118 0.7110 0.7102 0.7094 0.7087
2555.000000 0.7080 0.7072 0.7065 0.7058 0.7050
2560.000000 0.7043 0.7035 0.7028 0.7020 0.7013
2565.000000 0.7007 0.7000 0.6995 0.6992 0.6989
2570.000000 0.6985 0.6982 0.6979 0.6976 0.6973
2575.000000 0.6970 0.6969 0.6968 0.6967 0.6967
2580.000000 0.6966 0.6966 0.6965 0.6964 0.6963
2585.000000 0.6963 0.6962 0.6962 0.6961 0.6961
2590.000000 0.6960 0.6959 0.6956 0.6953 0.6951
2595.000000 0.6948 0.6946 0.6943 0.6940 0.6937
2600.000000 0.6934 0.6932 0.6929 0.6927 0.6924
2605.000000 0.6921 0.6919 0.6916 0.6914 0.6912
2610.000000 0.6909 0.6907 0.6904 0.6902 0.6900
2615.000000 0.6898 0.6896 0.6894 0.6892 0.6890
2620.000000 0.6888 0.6887 0.6885 0.6883 0.6881
2625.000000 0.6879 0.6878 0.6876 0.6874 0.6872
2630.000000 0.6870 0.6869 0.6867 0.6865 0.6863
2635.000000 0.6861 0.6859 0.6857 0.6854 0.6852
2640.000000 0.6849 0.6847 0.6844 0.6842 0.6839
2645.000000 0.6837 0.6834 0.6831 0.6828 0.6824
2650.000000 0.6819 0.6814 0.6809 0.6803 0.6798
2655.000000 0.6793 0.6788 0.6783 0.6778 0.6773
2660.000000 0.6767 0.6762 0.6758 0.6753 0.6748
2665.000000 0.6743 0.6738 0.6733 0.6729 0.6724
2670.000000 0.6719 0.6714 0.6710 0.6705 0.6701
2675.000000 0.6696 0.6691 0.6687 0.6685 0.6683
2680.000000 0.6681 0.6680 0.6679 0.6678 0.6676
2685.000000 0.6675 0.6674 0.6673 0.6672 0.6670
2690.000000 0.6669 0.6668 0.6667 0.6665 0.6665
2695.000000 0.6665 0.6665 0.6665 0.6665 0.6666
2700.000000 0.6667 0.6667 0.6668 0.6669 0.6669
2705.000000 0.6669 0.6670 0.6670 0.6671 0.6671
2710.000000 0.6670 0.6669 0.6667 0.6663 0.6659
2715.000000 0.6655 0.6651 0.6647 0.6641 0.6634
2720.000000 0.6626 0.6618 0.6611 0.6603 0.6595
2725.000000 0.6588 0.6581 0.6572 0.6562 0.6553
2730.000000 0.6544 0.6535 0.6526 0.6516 0.6507
2735.000000 0.6498 0.6488 0.6479 0.6470 0.6457
2740.000000 0.6443 0.6429 0.6413 0.6396 0.6379
2745.000000 0.6363 0.6346 0.6330 0.6312 0.6295
2750.000000 0.6277 0.6260 0.6242 0.6225 0.6207
2755.000000 0.6190 0.6172 0.6152 0.6129 0.6107
2760.000000 0.6079 0.6049 0.6018 0.5987 0.5956
2765.000000 0.5925 0.5892 0.5857 0.5823 0.5786
2770.000000 0.5749 0.5711 0.5673 0.5635 0.5598
2775.000000 0.5561 0.5526 0.5491 0.5457 0.5425
2780.000000 0.5393 0.5360 0.5328 0.5296 0.5263
2785.000000 0.5231 0.5199 0.5167 0.5136 0.5106
2790.000000 0.5076 0.5046 0.5016 0.4985 0.4936
2795.000000 0.4879 0.4822 0.4719 0.4584 0.4448
2800.000000 0.4313 0.4178 0.4044 0.3909 0.3774
2805.000000 0.3640 0.3505 0.3371 0.3236 0.3102
2810.000000 0.2968 0.2834 0.2700 0.2567 0.2433
2815.000000 0.2300 0.2166 0.2032 0.1899 0.1781
2820.000000 0.1678 0.1575 0.1498 0.1477 0.1455
2825.000000 0.1434 0.1419 0.1404 0.1389 0.1375
2830.000000 0.1360 0.1345 0.1331 0.1317 0.1302
2835.000000 0.1293 0.1287 0.1281 0.1277 0.1273
2840.000000 0.1270 0.1268 0.1270 0.1272 0.1274
2845.000000 0.1278 0.1283 0.1287 0.1291 0.1295
2850.000000 0.1300 0.1304 0.1309 0.1314 0.1319
2855.000000 0.1321 0.1322 0.1324 0.1325 0.1326
2860.000000 0.1326 0.1327 0.1327 0.1327 0.1327
2865.000000 0.1325 0.1323 0.1321 0.1318 0.1314
2870.000000 0.1310 0.1307 0.1303 0.1299 0.1294
2875.000000 0.1287 0.1280 0.1271 0.1244 0.1217
2880.000000 0.1190 0.1131 0.1066 0.1001 0.0937
2885.000000 0.0872 0.0807 0.0743 0.0679 0.0614
2890.000000 0.0550 0.0485 0.0421 0.0356 0.0296
2895.000000 0.0241 0.0186 0.0138 0.0139 0.0139
2900.000000 0.0140 0.0142 0.0143 0.0145 0.0150
2905.000000 0.0160 0.0171 0.0182 0.0223 0.0263
2910.000000 0.0304 0.0344 0.0385 0.0425 0.0465
2915.000000 0.0506 0.0546 0.0586 0.0627 0.0667
2920.000000 0.0707 0.0747 0.0787 0.0827 0.0867
2925.000000 0.0907 0.0947 0.0987 0.1024 0.1058
2930.000000 0.1092 0.1133 0.1208 0.1283 0.1358
2935.000000 0.1433 0.1507 0.1582 0.1656 0.1731
2940.000000 0.1806 0.1880 0.1955 0.2029 0.2103
2945.000000 0.2177 0.2251 0.2325 0.2399 0.2473
2950.000000 0.2547 0.2621 0.2694 0.2768 0.2842
2955.000000 0.2915 0.2989 0.3062 0.3136 0.3209
2960.000000 0.3283 0.3356 0.3429 0.3503 0.3576
2965.000000 0.3650 0.3723 0.3796 0.3869 0.3942
2970.000000 0.4014 0.4087 0.4160 0.4233 0.4305
2975.000000 0.4378 0.4451 0.4523 0.4596 0.4668
2980.000000 0.4740 0.4813 0.4885 0.4957 0.5030
2985.000000 0.5102 0.5174 0.5237 0.5241 0.5244
2990.000000 0.5248 0.5248 0.5245 0.5242 0.5240
2995.000000 0.5230 0.5221 0.5211 0.5202 0.5192
3000.000000 0.5183 0.5173 0.5164 0.5155 0.5145
3005.000000 0.5136 0.5126 0.5117 0.5107 0.5103
3010.000000 0.5101 0.5099 0.5098 0.5105 0.5112
3015.000000 0.5119 0.5133 0.5161 0.5189 0.5217
3020.000000 0.5245 0.5273 0.5301 0.5329 0.5357
3025.000000 0.5385 0.5413 0.5441 0.5468 0.5496
3030.000000 0.5524 0.5552 0.5580 0.5607 0.5635
3035.000000 0.5663 0.5690 0.5718 0.5746 0.5773
3040.000000 0.5801 0.5828 0.5856 0.5884 0.5911
3045.000000 0.5939 0.5966 0.5994 0.6021 0.6049
3050.000000 0.6078 0.6107 0.6136 0.6157 0.6170
3055.000000 0.6183 0.6195 0.6204 0.6211 0.6218
3060.000000 0.6226 0.6231 0.6236 0.6242 0.6254
3065.000000 0.6246 0.6246 0.6246 0.6247 0.6247
3070.000000 0.6247 0.6247 0.6245 0.6244 0.6242
3075.000000 0.6241 0.6239 0.6238 0.6237 0.6235
3080.000000 0.6234 0.6232 0.6230 0.6228 0.6225
3085.000000 0.6221 0.6218 0.6215 0.6212 0.6208
3090.000000 0.6205 0.6201 0.6197 0.6193 0.6189
3095.000000 0.6184 0.6179 0.6175 0.6170 0.6165
3100.000000 0.6161 0.6156 0.6151 0.6147 0.6142
3105.000000 0.6137 0.6131 0.6123 0.6115 0.6106
3110.000000 0.6098 0.6089 0.6079 0.6070 0.6060
3115.000000 0.6049 0.6037 0.6026 0.6011 0.5996
3120.000000 0.5981 0.5966 0.5951 0.5936 0.5921
3125.000000 0.5907 0.5872 0.5838 0.5804 0.5769
3130.000000 0.5732 0.5694 0.5657 0.5619 0.5582
3135.000000 0.5544 0.5507 0.5470 0.5432 0.5395
3140.000000 0.5358 0.5320 0.5283 0.5246 0.5209
3145.000000 0.5172 0.5135 0.5097 0.5060 0.5023
3150.000000 0.4986 0.4949 0.4912 0.4884 0.4867
3155.000000 0.4850 0.4833 0.4802 0.4826 0.4828
3160.000000 0.4830 0.4836 0.4850 0.4863 0.4877
3165.000000 0.4890 0.4904 0.4917 0.4931 0.4944
3170.000000 0.4958 0.4971 0.4985 0.4998 0.5011
3175.000000 0.5025 0.5038 0.5052 0.5065 0.5078
3180.000000 0.5092 0.5105 0.5118 0.5132 0.5145
3185.000000 0.5158 0.5172 0.5185 0.5198 0.5208
3190.000000 0.5208 0.5207 0.5207 0.5215 0.5204
3195.000000 0.5201 0.5199 0.5196 0.5194 0.5192
3200.000000 0.5190 0.5188 0.5180 0.5173 0.5165
3205.000000 0.5157 0.5141 0.5123 0.5105 0.5087
3210.000000 0.5055 0.5018 0.4981 0.4944 0.4905
3215.000000 0.4864 0.4824 0.4783 0.4742 0.4702
3220.000000 0.4661 0.4621 0.4580 0.4540 0.4500
3225.000000 0.4459 0.4419 0.4378 0.4338 0.4297
3230.000000 0.4256 0.4216 0.4176 0.4136 0.4096
3235.000000 0.4056 0.4015 0.3975 0.3935 0.3895
3240.000000 0.3855 0.3815 0.3775 0.3735 0.3695
3245.000000 0.3655 0.3616 0.3576 0.3536 0.3496
3250.000000 0.3456 0.3417 0.3377 0.3337 0.3297
3255.000000 0.3257 0.3217 0.3178 0.3138 0.3098
3260.000000 0.3059 0.3019 0.2980 0.2940 0.2895
3265.000000 0.2908 0.2904 0.2901 0.2898 0.2901
3270.000000 0.2904 0.2907 0.2910 0.2915 0.2922
3275.000000 0.2928 0.2935 0.2954 0.2986 0.3019
3280.000000 0.3052 0.3085 0.3117 0.3150 0.3182
3285.000000 0.3215 0.3247 0.3280 0.3312 0.3345
3290.000000 0.3378 0.3410 0.3442 0.3474 0.3507
3295.000000 0.3539 0.3572 0.3604 0.3637 0.3669
3300.000000 0.3701 0.3734 0.3766 0.3798 0.3830
3305.000000 0.3862 0.3894 0.3926 0.3959 0.3991
3310.000000 0.4023 0.4055 0.4087 0.4119 0.4151
3315.000000 0.4183 0.4215 0.4247 0.4279 0.4311
3320.000000 0.4343 0.4375 0.4406 0.4438 0.4470
3325.000000 0.4501 0.4533 0.4565 0.4597 0.4629
3330.000000 0.4657 0.4686 0.4714 0.4743 0.4766
3335.000000 0.4785 0.4805 0.4824 0.4843 0.4859
3340.000000 0.4876 0.4892 0.4908 0.4923 0.4936
3345.000000 0.4950 0.4964 0.4977 0.4991 0.5005
3350.000000 0.5018 0.5032 0.5046 0.5060 0.5074
3355.000000 0.5088 0.5103 0.5117 0.5132 0.5147
3360.000000 0.5161 0.5176 0.5191 0.5205 0.5220
3365.000000 0.5234 0.5246 0.5258 0.5271 0.5283
3370.000000 0.5293 0.5303 0.5312 0.5322 0.5331
3375.000000 0.5341 0.5351 0.5360 0.5370 0.5379
3380.000000 0.5389 0.5398 0.5408 0.5417 0.5424
3385.000000 0.5431 0.5438 0.5446 0.5453 0.5459
3390.000000 0.5466 0.5473 0.5480 0.5486 0.5493
3395.000000 0.5499 0.5506 0.5512 0.5519 0.5526
3400.000000 0.5532 0.5539 0.5545 0.5550 0.5555
3405.000000 0.5560 0.5566 0.5571 0.5576 0.5581
3410.000000 0.5586 0.5591 0.5597 0.5602 0.5608
3415.000000 0.5613 0.5618 0.5623 0.5628 0.5634
3420.000000 0.5639 0.5644 0.5649 0.5654 0.5659
3425.000000 0.5664 0.5670 0.5675 0.5680 0.5686
3430.000000 0.5691 0.5696 0.5701 0.5706 0.5711
3435.000000 0.5717 0.5723 0.5728 0.5734 0.5740
3440.000000 0.5745 0.5751 0.5757 0.5763 0.5768
3445.000000 0.5774 0.5780 0.5786 0.5792 0.5798
3450.000000 0.5803 0.5809 0.5815 0.5820 0.5826
3455.000000 0.5832 0.5838 0.5844 0.5850 0.5855
3460.000000 0.5861 0.5866 0.5872 0.5878 0.5885
3465.000000 0.5891 0.5897 0.5904 0.5910 0.5916
3470.000000 0.5923 0.5929 0.5935 0.5941 0.5948
3475.000000 0.5954 0.5960 0.5966 0.5973 0.5981
3480.000000 0.5988 0.5995 0.6002 0.6011 0.6020
3485.000000 0.6029 0.6038 0.6047 0.6056 0.6064
3490.000000 0.6073 0.6082 0.6092 0.6103 0.6115
3495.000000 0.6126 0.6138 0.6151 0.6167 0.6183
3500.000000 0.6199 0.6215 0.6227 0.6236 0.6245
3505.000000 0.6254 0.6264 0.6272 0.6279 0.6286
3510.000000 0.6293 0.6301 0.6308 0.6316 0.6323
3515.000000 0.6331 0.6338 0.6347 0.6356 0.6366
3520.000000 0.6375 0.6384 0.6393 0.6402 0.6412
3525.000000 0.6421 0.6430 0.6434 0.6437 0.6441
3530.000000 0.6445 0.6448 0.6452 0.6455 0.6459
3535.000000 0.6463 0.6466 0.6468 0.6470 0.6472
3540.000000 0.6474 0.6476 0.6478 0.6479 0.6480
3545.000000 0.6481 0.6482 0.6507 0.6484 0.6485
3550.000000 0.6486 0.6487 0.6488 0.6489 0.6490
3555.000000 0.6491 0.6492 0.6443 0.6383 0.6322
3560.000000 0.6261 0.6201 0.6140 0.6080 0.6019
3565.000000 0.5958 0.5898 0.5837 0.5777 0.5717
3570.000000 0.5657 0.5596 0.5536 0.5476 0.5415
3575.000000 0.5355 0.5295 0.5235 0.5175 0.5115
3580.000000 0.5055 0.4995 0.4935 0.4875 0.4815
3585.000000 0.4755 0.4695 0.4636 0.4576 0.4516
3590.000000 0.4457 0.4397 0.4338 0.4278 0.4219
3595.000000 0.4159 0.4099 0.4040 0.4031 0.4029
3600.000000 0.4028 0.4026 0.4024 0.4024 0.4024
3605.000000 0.4025 0.4026 0.4026 0.4051 0.4068
3610.000000 0.4096 0.4124 0.4152 0.4191 0.4261
3615.000000 0.4330 0.4399 0.4469 0.4538 0.4608
3620.000000 0.4677 0.4746 0.4815 0.4884 0.4954
3625.000000 0.5023 0.5092 0.5161 0.5230 0.5299
3630.000000 0.5367 0.5436 0.5505 0.5574 0.5643
3635.000000 0.5711 0.5780 0.5849 0.5917 0.5986
3640.000000 0.6054 0.6123 0.6192 0.6260 0.6329
3645.000000 0.6394 0.6458 0.6521 0.6585 0.6648
3650.000000 0.6695 0.6711 0.6728 0.6745 0.6761
3655.000000 0.6778 0.6789 0.6800 0.6811 0.6823
3660.000000 0.6834 0.6842 0.6848 0.6854 0.6860
3665.000000 0.6866 0.6872 0.6876 0.6880 0.6884
3670.000000 0.6888 0.6892 0.6895 0.6897 0.6899
3675.000000 0.6901 0.6903 0.6906 0.6908 0.6910
3680.000000 0.6912 0.6915 0.6917 0.6917 0.6917
3685.000000 0.6917 0.6917 0.6917 0.6916 0.6914
3690.000000 0.6913 0.6912 0.6910 0.6884 0.6908
3695.000000 0.6906 0.6905 0.6903 0.6902 0.6900
3700.000000 0.6899 0.6897 0.6895 0.6894 0.6892
3705.000000 0.6890 0.6888 0.6886 0.6884 0.6882
3710.000000 0.6880 0.6878 0.6875 0.6873 0.6871
3715.000000 0.6869 0.6867 0.6866 0.6864 0.6863
3720.000000 0.6861 0.6861 0.6862 0.6863 0.6864
3725.000000 0.6865 0.6866 0.6866 0.6867 0.6868
3730.000000 0.6869 0.6869 0.6870 0.6871 0.6871
3735.000000 0.6872 0.6873 0.6874 0.6874 0.6875
3740.000000 0.6876 0.6876 0.6877 0.6878 0.6879
3745.000000 0.6879 0.6880 0.6881 0.6881 0.6882
3750.000000 0.6883 0.6884 0.6884 0.6885 0.6886
3755.000000 0.6886 0.6887 0.6887 0.6888 0.6888
3760.000000 0.6889 0.6889 0.6890 0.6890 0.6891
3765.000000 0.6891 0.6892 0.6893 0.6893 0.6894
3770.000000 0.6894 0.6895 0.6895 0.6895 0.6896
3775.000000 0.6896 0.6896 0.6897 0.6897 0.6897
3780.000000 0.6898 0.6898 0.6898 0.6898 0.6898
3785.000000 0.6898 0.6897 0.6897 0.6896 0.6896
3790.000000 0.6896 0.6895 0.6895 0.6895 0.6894
3795.000000 0.6894 0.6894 0.6894 0.6894 0.6894
3800.000000 0.6893 0.6893 0.6893 0.6892 0.6892
3805.000000 0.6892 0.6891 0.6891 0.6891 0.6890
3810.000000 0.6890 0.6889 0.6889 0.6888 0.6888
3815.000000 0.6887 0.6887 0.6886 0.6886 0.6885
3820.000000 0.6885 0.6884 0.6884 0.6883 0.6883
3825.000000 0.6882 0.6881 0.6881 0.6880 0.6879
3830.000000 0.6879 0.6878 0.6878 0.6877 0.6877
3835.000000 0.6876 0.6875 0.6875 0.6874 0.6873
3840.000000 0.6873 0.6872 0.6872 0.6871 0.6871
3845.000000 0.6870 0.6870 0.6869 0.6868 0.6868
3850.000000 0.6867 0.6866 0.6866 0.6865 0.6864
3855.000000 0.6863 0.6862 0.6861 0.6861 0.6860
3860.000000 0.6859 0.6859 0.6858 0.6857 0.6856
3865.000000 0.6856 0.6855 0.6854 0.6854 0.6853
3870.000000 0.6852 0.6852 0.6851 0.6850 0.6849
3875.000000 0.6848 0.6847 0.6847 0.6846 0.6845
3880.000000 0.6845 0.6844 0.6843 0.6843 0.6842
3885.000000 0.6842 0.6841 0.6840 0.6840 0.6839
3890.000000 0.6838 0.6837 0.6836 0.6835 0.6835
3895.000000 0.6834 0.6833 0.6833 0.6832 0.6831
3900.000000 0.6831 0.6830 0.6829 0.6828 0.6827
3905.000000 0.6827 0.6826 0.6825 0.6823 0.6822
3910.000000 0.6821 0.6820 0.6819 0.6818 0.6817
3915.000000 0.6815 0.6814 0.6813 0.6812 0.6811
3920.000000 0.6810 0.6809 0.6808 0.6806 0.6805
3925.000000 0.6804 0.6803 0.6802 0.6801 0.6800
3930.000000 0.6798 0.6797 0.6796 0.6795 0.6794
3935.000000 0.6793 0.6792 0.6791 0.6789 0.6788
3940.000000 0.6787 0.6786 0.6785 0.6784 0.6783
3945.000000 0.6781 0.6780 0.6779 0.6778 0.6777
3950.000000 0.6776 0.6775 0.6774 0.6773 0.6771
3955.000000 0.6770 0.6769 0.6768 0.6767 0.6766
3960.000000 0.6765 0.6764 0.6762 0.6761 0.6760
3965.000000 0.6759 0.6758 0.6757 0.6756 0.6755
3970.000000 0.6753 0.6752 0.6751 0.6749 0.6748
3975.000000 0.6747 0.6746 0.6745 0.6744 0.6743
3980.000000 0.6741 0.6740 0.6739 0.6738 0.6737
3985.000000 0.6735 0.6734 0.6733 0.6732 0.6731
3990.000000 0.6729 0.6728 0.6727 0.6726 0.6725
3995.000000 0.6724 0.6723 0.6721 0.6720 0.6719
4000.000000 0.6718
##END=
