##TITLE=Pyridine, 4-( (1-pyrenylimino)-methyl)-
##JCAMP-DX=4.24
##DATA TYPE=INFRARED SPECTRUM
##CLASS=COBLENTZ III
##ORIGIN=DOW CHEMICAL COMPANY
##OWNER=Copyright (C) 1987 by the Coblentz Society
Collection (C) 2018 copyright by the U.S. Secretary of Commerce
on behalf of the United States of America. All rights reserved.
##DATE=1967/09/10
##NAMES=N-(1-pyrenyl)-N-[(E)-4-pyridinylmethylidene]amine
N-[(E)-4-pyridinylmethylidene]-1-pyrenamine
##MOLFORM=C22 H14 N2
##SOURCE REFERENCE=COBLENTZ NO. 8109
##$NIST ID=B6008109
##$NIST SOURCE=COBLENTZ
##$NIST IMAGE=cob8109
##SPECTROMETER/DATA SYSTEM=DOW KBr FOREPRISM-GRATING
##INSTRUMENT PARAMETERS=BLAZED AT 3.5, 12.0, 20.0 MICRON AND CHANGED AT 5.0, 7.5, 14.9 MICRON
##STATE=SOLID (SPLIT MULL), FLUOROLUBE FOR 3800-1330 CM^-^1, NUJOL FOR 1330-400 CM^-^1
##SAMPLING PROCEDURE=TRANSMISSION
##RESOLUTION=2
##DATA PROCESSING=DIGITIZED BY COBLENTZ SOCIETY (BATCH II) FROM HARD COPY
##XUNITS=1/CM
##YUNITS=TRANSMITTANCE
##XFACTOR=1.0
##YFACTOR=1
##FIRSTX=386
##LASTX=3802
##FIRSTY=0.7977
##MAXX=3802
##MINX=386
##MAXY=0.9037
##MINY=0.0807
##NPOINTS=3417
##XYDATA=(X++(Y..Y))
386.000000 0.7977 0.7978 0.7978 0.7978 0.7980
391.000000 0.7981 0.7982 0.7984 0.7985 0.7986
396.000000 0.7988 0.7992 0.7997 0.8001 0.8006
401.000000 0.8010 0.8015 0.8019 0.8023 0.8028
406.000000 0.8032 0.8037 0.8041 0.8044 0.8047
411.000000 0.8050 0.8054 0.8057 0.8060 0.8062
416.000000 0.8064 0.8066 0.8067 0.8071 0.8074
421.000000 0.8078 0.8088 0.8110 0.8139 0.8183
426.000000 0.8245 0.8359 0.8427 0.8466 0.8481
431.000000 0.8489 0.8495 0.8500 0.8505 0.8509
436.000000 0.8511 0.8512 0.8536 0.8515 0.8516
441.000000 0.8518 0.8518 0.8516 0.8514 0.8513
446.000000 0.8511 0.8509 0.8508 0.8506 0.8536
451.000000 0.8587 0.8634 0.8666 0.8688 0.8690
456.000000 0.8692 0.8690 0.8689 0.8682 0.8670
461.000000 0.8655 0.8622 0.8578 0.8521 0.8417
466.000000 0.8240 0.8050 0.7860 0.7749 0.7745
471.000000 0.7970 0.8230 0.8490 0.8750 0.8785
476.000000 0.8786 0.8778 0.8775 0.8751 0.8652
481.000000 0.8554 0.8455 0.8356 0.8258 0.8202
486.000000 0.8172 0.8290 0.8418 0.8547 0.8676
491.000000 0.8797 0.8867 0.8920 0.8955 0.8967
496.000000 0.8990 0.8967 0.8954 0.8936 0.8901
501.000000 0.8858 0.8721 0.8578 0.8516 0.8530
506.000000 0.8729 0.8828 0.8828 0.8817 0.8787
511.000000 0.8737 0.8670 0.8291 0.7810 0.7328
516.000000 0.6846 0.6365 0.5883 0.5682 0.6087
521.000000 0.6614 0.7141 0.7669 0.8196 0.8724
526.000000 0.8938 0.8995 0.9017 0.9021 0.9018
531.000000 0.9016 0.9037 0.8995 0.8973 0.8951
536.000000 0.8919 0.8880 0.8763 0.8520 0.8276
541.000000 0.8033 0.7790 0.7671 0.7685 0.8224
546.000000 0.8764 0.8861 0.8854 0.8827 0.8798
551.000000 0.8779 0.8784 0.8808 0.8844 0.8888
556.000000 0.8913 0.8917 0.8920 0.8919 0.8918
561.000000 0.8918 0.8914 0.8915 0.8914 0.8913
566.000000 0.8912 0.8909 0.8905 0.8902 0.8898
571.000000 0.8895 0.8891 0.8882 0.8873 0.8864
576.000000 0.8855 0.8838 0.8816 0.8795 0.8768
581.000000 0.8739 0.8711 0.8675 0.8622 0.8569
586.000000 0.8452 0.8174 0.7686 0.7197 0.6738
591.000000 0.6764 0.6964 0.7676 0.8389 0.8698
596.000000 0.8742 0.8764 0.8768 0.8771 0.8762
601.000000 0.8749 0.8738 0.8722 0.8700 0.8675
606.000000 0.8632 0.8585 0.8531 0.8467 0.8386
611.000000 0.8277 0.8138 0.7591 0.6944 0.6296
616.000000 0.5648 0.5453 0.5466 0.7036 0.8179
621.000000 0.8481 0.8520 0.8551 0.8547 0.8553
626.000000 0.8545 0.8517 0.8462 0.8272 0.8002
631.000000 0.7731 0.7461 0.7191 0.6921 0.6651
636.000000 0.6602 0.7099 0.7776 0.8453 0.8631
641.000000 0.8771 0.8845 0.8875 0.8889 0.8902
646.000000 0.8907 0.8912 0.8917 0.8921 0.8921
651.000000 0.8917 0.8915 0.8905 0.8886 0.8856
656.000000 0.8827 0.8799 0.8777 0.8755 0.8737
661.000000 0.8724 0.8723 0.8724 0.8733 0.8746
666.000000 0.8761 0.8768 0.8767 0.8766 0.8738
671.000000 0.8669 0.8449 0.8228 0.8007 0.7786
676.000000 0.7565 0.7344 0.7123 0.7095 0.7114
681.000000 0.8612 0.8679 0.8682 0.8664 0.8646
686.000000 0.8630 0.8635 0.8660 0.8687 0.8699
691.000000 0.8699 0.8699 0.8698 0.8697 0.8694
696.000000 0.8683 0.8673 0.8664 0.8655 0.8646
701.000000 0.8630 0.8607 0.8585 0.8562 0.8522
706.000000 0.8481 0.8415 0.8332 0.8224 0.8121
711.000000 0.8020 0.7913 0.7779 0.7631 0.7406
716.000000 0.7139 0.6966 0.4006 0.3485 0.3771
721.000000 0.4344 0.4917 0.5489 0.6062 0.6634
726.000000 0.7207 0.7748 0.7750 0.7748 0.7698
731.000000 0.7558 0.7417 0.7277 0.7137 0.6998
736.000000 0.7009 0.7338 0.7826 0.8106 0.8150
741.000000 0.8185 0.8209 0.8230 0.8230 0.8230
746.000000 0.8234 0.8207 0.8191 0.8175 0.8151
751.000000 0.8112 0.8068 0.8023 0.7963 0.7896
756.000000 0.7810 0.7703 0.7453 0.7203 0.6953
761.000000 0.6703 0.6452 0.6202 0.5952 0.5702
766.000000 0.5664 0.5657 0.7472 0.7571 0.7700
771.000000 0.7808 0.7894 0.7966 0.8036 0.8097
776.000000 0.8148 0.8179 0.8206 0.8227 0.8236
781.000000 0.8223 0.8226 0.8215 0.8200 0.8185
786.000000 0.8163 0.8139 0.8116 0.8094 0.8069
791.000000 0.8043 0.8017 0.7988 0.7958 0.7928
796.000000 0.7883 0.7832 0.7778 0.7706 0.7634
801.000000 0.7557 0.7473 0.7388 0.7292 0.7191
806.000000 0.7083 0.6548 0.6356 0.6099 0.5100
811.000000 0.4414 0.3727 0.3041 0.2354 0.2041
816.000000 0.2042 0.2034 0.2817 0.3656 0.4494
821.000000 0.5333 0.6172 0.7011 0.7576 0.7601
826.000000 0.7582 0.7523 0.7382 0.7242 0.7102
831.000000 0.6961 0.6924 0.6950 0.6988 0.7023
836.000000 0.7033 0.7036 0.6700 0.6272 0.5843
841.000000 0.5561 0.5393 0.4956 0.4360 0.3712
846.000000 0.3064 0.2417 0.1769 0.1121 0.0807
851.000000 0.0815 0.1047 0.2069 0.3091 0.4113
856.000000 0.5134 0.6816 0.7118 0.7202 0.7272
861.000000 0.7313 0.7343 0.7353 0.7349 0.7352
866.000000 0.7317 0.7192 0.7067 0.6942 0.6817
871.000000 0.6692 0.6572 0.6653 0.6825 0.6998
876.000000 0.7171 0.7344 0.7517 0.7690 0.7731
881.000000 0.7717 0.7715 0.7711 0.7704 0.7695
886.000000 0.7686 0.7676 0.7660 0.7645 0.7630
891.000000 0.7603 0.7570 0.7536 0.7473 0.7404
896.000000 0.7335 0.7265 0.7156 0.7149 0.7159
901.000000 0.7183 0.7323 0.7463 0.7603 0.7743
906.000000 0.7755 0.7759 0.7761 0.7762 0.7762
911.000000 0.7762 0.7762 0.7777 0.7760 0.7759
916.000000 0.7757 0.7755 0.7750 0.7744 0.7739
921.000000 0.7734 0.7729 0.7724 0.7716 0.7706
926.000000 0.7697 0.7688 0.7678 0.7669 0.7658
931.000000 0.7640 0.7623 0.7605 0.7588 0.7570
936.000000 0.7548 0.7510 0.7471 0.7432 0.7382
941.000000 0.7301 0.7219 0.7058 0.6824 0.6591
946.000000 0.6407 0.6411 0.6576 0.6762 0.6949
951.000000 0.7136 0.7293 0.7288 0.7323 0.7272
956.000000 0.7263 0.7098 0.6910 0.6721 0.6533
961.000000 0.6344 0.6156 0.5967 0.5779 0.5590
966.000000 0.5561 0.5943 0.6436 0.6444 0.6453
971.000000 0.6462 0.6475 0.6932 0.6970 0.6979
976.000000 0.6984 0.7014 0.6962 0.6946 0.6930
981.000000 0.6909 0.6887 0.6647 0.6372 0.6097
986.000000 0.5822 0.5480 0.5491 0.7478 0.7491
991.000000 0.7504 0.7512 0.7518 0.7525 0.7527
996.000000 0.7549 0.7529 0.7530 0.7531 0.7529
1001.000000 0.7528 0.7527 0.7525 0.7524 0.7522
1006.000000 0.7518 0.7511 0.7505 0.7499 0.7492
1011.000000 0.7486 0.7476 0.7464 0.7451 0.7439
1016.000000 0.7426 0.7413 0.7398 0.7383 0.7368
1021.000000 0.7353 0.7338 0.7323 0.7316 0.7310
1026.000000 0.7304 0.7297 0.7291 0.7287 0.7286
1031.000000 0.7285 0.7283 0.7274 0.7265 0.7257
1036.000000 0.7243 0.7229 0.7215 0.7201 0.7188
1041.000000 0.7173 0.7155 0.7137 0.7119 0.7101
1046.000000 0.7083 0.7049 0.7009 0.6969 0.6900
1051.000000 0.6830 0.6684 0.6420 0.6314 0.6208
1056.000000 0.6102 0.6047 0.6040 0.6856 0.7166
1061.000000 0.7186 0.7194 0.7199 0.7198 0.7199
1066.000000 0.7197 0.7194 0.7191 0.7188 0.7182
1071.000000 0.7177 0.7172 0.7166 0.7159 0.7151
1076.000000 0.7142 0.7133 0.7125 0.7117 0.7111
1081.000000 0.7105 0.7100 0.7094 0.7088 0.7082
1086.000000 0.7072 0.7059 0.7046 0.7018 0.6979
1091.000000 0.6936 0.6884 0.6825 0.6752 0.6679
1096.000000 0.6606 0.6585 0.6562 0.6820 0.7005
1101.000000 0.7019 0.7034 0.7048 0.7060 0.7068
1106.000000 0.7072 0.7075 0.7077 0.7079 0.7077
1111.000000 0.7074 0.7091 0.7067 0.7064 0.7062
1116.000000 0.7059 0.7057 0.7054 0.7052 0.7050
1121.000000 0.7048 0.7043 0.7037 0.7026 0.7015
1126.000000 0.7004 0.6992 0.6979 0.6964 0.6950
1131.000000 0.6935 0.6921 0.6906 0.6891 0.6849
1136.000000 0.6558 0.6596 0.6618 0.6607 0.6473
1141.000000 0.6410 0.6449 0.6457 0.6472 0.6489
1146.000000 0.6506 0.6529 0.6571 0.6831 0.6918
1151.000000 0.6932 0.6945 0.6946 0.6946 0.6935
1156.000000 0.6943 0.6941 0.6938 0.6931 0.6923
1161.000000 0.6900 0.6876 0.6844 0.6821 0.6798
1166.000000 0.6771 0.6743 0.6715 0.6684 0.6653
1171.000000 0.6601 0.6498 0.6281 0.6225 0.6132
1176.000000 0.6009 0.5878 0.5634 0.5379 0.5416
1181.000000 0.5518 0.5619 0.5721 0.5818 0.5866
1186.000000 0.5899 0.5931 0.6204 0.6494 0.6495
1191.000000 0.6493 0.6492 0.6492 0.6495 0.6513
1196.000000 0.6612 0.6650 0.6662 0.6662 0.6652
1201.000000 0.6608 0.6571 0.6545 0.6539 0.6554
1206.000000 0.6592 0.6639 0.6681 0.6719 0.6753
1211.000000 0.6777 0.6794 0.6812 0.6824 0.6831
1216.000000 0.6832 0.6829 0.6819 0.6809 0.6789
1221.000000 0.6749 0.6680 0.6609 0.6539 0.6460
1226.000000 0.6426 0.6396 0.6377 0.6359 0.6342
1231.000000 0.6291 0.6192 0.5952 0.5788 0.5625
1236.000000 0.5560 0.5554 0.5685 0.5811 0.5937
1241.000000 0.6062 0.6188 0.6314 0.6439 0.6568
1246.000000 0.6689 0.6732 0.6760 0.6780 0.6788
1251.000000 0.6793 0.6799 0.6798 0.6798 0.6797
1256.000000 0.6800 0.6795 0.6793 0.6791 0.6789
1261.000000 0.6787 0.6780 0.6773 0.6766 0.6759
1266.000000 0.6747 0.6735 0.6723 0.6709 0.6690
1271.000000 0.6670 0.6651 0.6631 0.6611 0.6588
1276.000000 0.6565 0.6543 0.6520 0.6488 0.6454
1281.000000 0.6420 0.6386 0.6350 0.6310 0.6271
1286.000000 0.6231 0.6192 0.6159 0.6127 0.6095
1291.000000 0.6063 0.6031 0.5990 0.5948 0.5905
1296.000000 0.5830 0.5793 0.5767 0.5743 0.5697
1301.000000 0.5666 0.5654 0.5654 0.5665 0.5816
1306.000000 0.5915 0.6013 0.6112 0.6210 0.6280
1311.000000 0.6251 0.6124 0.5997 0.5870 0.5743
1316.000000 0.5616 0.5467 0.5471 0.5761 0.6127
1321.000000 0.6346 0.6353 0.6343 0.6339 0.6335
1326.000000 0.6330 0.6325 0.6317 0.6306 0.6295
1331.000000 0.6262 0.6229 0.6190 0.6150 0.6106
1336.000000 0.6062 0.6047 0.6036 0.6025 0.6014
1341.000000 0.6033 0.6041 0.6058 0.6091 0.6135
1346.000000 0.6194 0.6259 0.6354 0.6476 0.6572
1351.000000 0.6649 0.6716 0.6782 0.6832 0.6875
1356.000000 0.6919 0.6957 0.6994 0.7011 0.7021
1361.000000 0.7021 0.7020 0.7022 0.7013 0.7006
1366.000000 0.6995 0.6975 0.6940 0.6882 0.6812
1371.000000 0.6743 0.6673 0.6603 0.6533 0.6463
1376.000000 0.6394 0.6348 0.6551 0.6699 0.6848
1381.000000 0.6969 0.6968 0.6988 0.6965 0.6964
1386.000000 0.6963 0.6958 0.6935 0.6907 0.6879
1391.000000 0.6853 0.6826 0.6797 0.6795 0.6812
1396.000000 0.6797 0.6908 0.6957 0.6955 0.6967
1401.000000 0.6933 0.6890 0.6837 0.6772 0.6657
1406.000000 0.6405 0.6111 0.5645 0.4943 0.4241
1411.000000 0.3726 0.3723 0.3723 0.4661 0.5330
1416.000000 0.5998 0.6667 0.7299 0.7299 0.7202
1421.000000 0.7105 0.7088 0.7549 0.8039 0.8088
1426.000000 0.8120 0.8104 0.8099 0.8086 0.8056
1431.000000 0.8017 0.7979 0.7869 0.7792 0.7725
1436.000000 0.7721 0.7720 0.7724 0.8261 0.8319
1441.000000 0.8304 0.8299 0.8293 0.8285 0.8276
1446.000000 0.8260 0.8242 0.8214 0.8177 0.8144
1451.000000 0.8111 0.8061 0.8008 0.7904 0.7831
1456.000000 0.7802 0.7792 0.7797 0.7788 0.8038
1461.000000 0.8110 0.8175 0.8233 0.8257 0.8282
1466.000000 0.8292 0.8299 0.8303 0.8316 0.8301
1471.000000 0.8295 0.8286 0.8276 0.8265 0.8242
1476.000000 0.8210 0.8168 0.8119 0.8033 0.7956
1481.000000 0.7975 0.8000 0.8089 0.8192 0.8249
1486.000000 0.8292 0.8316 0.8338 0.8348 0.8355
1491.000000 0.8348 0.8351 0.8349 0.8344 0.8337
1496.000000 0.8329 0.8314 0.8298 0.8281 0.8261
1501.000000 0.8241 0.8221 0.8201 0.8185 0.8170
1506.000000 0.8154 0.8139 0.8126 0.8124 0.8127
1511.000000 0.8136 0.8150 0.8166 0.8181 0.8205
1516.000000 0.8202 0.8217 0.8189 0.8162 0.8123
1521.000000 0.8095 0.8072 0.8049 0.8027 0.7994
1526.000000 0.7956 0.7920 0.7889 0.7858 0.7827
1531.000000 0.7797 0.7752 0.7699 0.7646 0.7593
1536.000000 0.7540 0.7487 0.7434 0.7387 0.7387
1541.000000 0.7481 0.7553 0.7626 0.7698 0.7722
1546.000000 0.7697 0.7642 0.7515 0.7389 0.7262
1551.000000 0.7135 0.7008 0.6888 0.6877 0.7411
1556.000000 0.7746 0.7890 0.7928 0.7885 0.7866
1561.000000 0.7836 0.7808 0.7773 0.7736 0.7701
1566.000000 0.7665 0.7624 0.7575 0.7525 0.7474
1571.000000 0.7422 0.7370 0.7293 0.7203 0.7118
1576.000000 0.7037 0.6956 0.6858 0.6741 0.6623
1581.000000 0.5422 0.4984 0.5092 0.5233 0.5374
1586.000000 0.5515 0.5656 0.5710 0.5739 0.5287
1591.000000 0.5022 0.4757 0.4493 0.4228 0.3963
1596.000000 0.3698 0.3434 0.3338 0.3371 0.4449
1601.000000 0.5149 0.5850 0.6550 0.7251 0.7951
1606.000000 0.7983 0.7922 0.7824 0.7726 0.7627
1611.000000 0.7529 0.7431 0.7394 0.7584 0.7780
1616.000000 0.7975 0.8170 0.8244 0.8247 0.8177
1621.000000 0.8122 0.8067 0.8012 0.7956 0.7970
1626.000000 0.8028 0.8105 0.8182 0.8257 0.8262
1631.000000 0.8265 0.8269 0.8274 0.8278 0.8280
1636.000000 0.8282 0.8263 0.8284 0.8285 0.8286
1641.000000 0.8285 0.8284 0.8282 0.8281 0.8280
1646.000000 0.8278 0.8277 0.8276 0.8275 0.8274
1651.000000 0.8273 0.8272 0.8268 0.8263 0.8257
1656.000000 0.8252 0.8247 0.8242 0.8237 0.8234
1661.000000 0.8231 0.8228 0.8225 0.8222 0.8217
1666.000000 0.8211 0.8205 0.8199 0.8193 0.8183
1671.000000 0.8172 0.8162 0.8151 0.8137 0.8122
1676.000000 0.8108 0.8095 0.8083 0.8070 0.8058
1681.000000 0.8049 0.8051 0.8054 0.8058 0.8062
1686.000000 0.8069 0.8081 0.8093 0.8101 0.8109
1691.000000 0.8118 0.8124 0.8128 0.8132 0.8137
1696.000000 0.8138 0.8138 0.8138 0.8139 0.8139
1701.000000 0.8138 0.8137 0.8135 0.8133 0.8131
1706.000000 0.8129 0.8127 0.8126 0.8124 0.8122
1711.000000 0.8120 0.8118 0.8116 0.8114 0.8112
1716.000000 0.8109 0.8100 0.8090 0.8081 0.8071
1721.000000 0.8061 0.8052 0.8042 0.8032 0.8023
1726.000000 0.8013 0.8003 0.7995 0.7989 0.7984
1731.000000 0.7978 0.7973 0.7967 0.7962 0.7956
1736.000000 0.7951 0.7946 0.7941 0.7937 0.7933
1741.000000 0.7929 0.7924 0.7920 0.7916 0.7912
1746.000000 0.7909 0.7907 0.7904 0.7901 0.7898
1751.000000 0.7896 0.7894 0.7892 0.7890 0.7888
1756.000000 0.7886 0.7884 0.7875 0.7866 0.7856
1761.000000 0.7847 0.7838 0.7828 0.7817 0.7804
1766.000000 0.7792 0.7779 0.7766 0.7754 0.7741
1771.000000 0.7730 0.7719 0.7708 0.7697 0.7686
1776.000000 0.7675 0.7663 0.7651 0.7639 0.7627
1781.000000 0.7614 0.7602 0.7590 0.7578 0.7566
1786.000000 0.7553 0.7537 0.7522 0.7507 0.7506
1791.000000 0.7507 0.7508 0.7528 0.7518 0.7530
1796.000000 0.7543 0.7556 0.7571 0.7588 0.7605
1801.000000 0.7616 0.7634 0.7642 0.7651 0.7660
1806.000000 0.7668 0.7670 0.7668 0.7665 0.7662
1811.000000 0.7658 0.7654 0.7651 0.7647 0.7642
1816.000000 0.7638 0.7633 0.7628 0.7623 0.7618
1821.000000 0.7613 0.7608 0.7602 0.7597 0.7591
1826.000000 0.7586 0.7580 0.7575 0.7569 0.7564
1831.000000 0.7558 0.7553 0.7547 0.7542 0.7538
1836.000000 0.7533 0.7528 0.7523 0.7518 0.7513
1841.000000 0.7508 0.7504 0.7499 0.7493 0.7487
1846.000000 0.7481 0.7474 0.7468 0.7462 0.7455
1851.000000 0.7449 0.7442 0.7436 0.7429 0.7419
1856.000000 0.7410 0.7401 0.7391 0.7382 0.7386
1861.000000 0.7363 0.7354 0.7344 0.7335 0.7325
1866.000000 0.7315 0.7304 0.7293 0.7282 0.7272
1871.000000 0.7264 0.7257 0.7251 0.7245 0.7238
1876.000000 0.7232 0.7226 0.7219 0.7213 0.7208
1881.000000 0.7205 0.7202 0.7200 0.7197 0.7194
1886.000000 0.7193 0.7196 0.7200 0.7203 0.7207
1891.000000 0.7210 0.7214 0.7217 0.7221 0.7224
1896.000000 0.7228 0.7231 0.7235 0.7238 0.7241
1901.000000 0.7244 0.7238 0.7232 0.7225 0.7217
1906.000000 0.7202 0.7186 0.7170 0.7155 0.7135
1911.000000 0.7113 0.7090 0.7067 0.7045 0.7026
1916.000000 0.7006 0.6987 0.6967 0.6946 0.6920
1921.000000 0.6894 0.6870 0.6859 0.6848 0.6837
1926.000000 0.6837 0.6837 0.6841 0.6844 0.6849
1931.000000 0.6854 0.6863 0.6872 0.6881 0.6890
1936.000000 0.6898 0.6906 0.6914 0.6918 0.6922
1941.000000 0.6925 0.6929 0.6931 0.6932 0.6933
1946.000000 0.6934 0.6934 0.6933 0.6931 0.6930
1951.000000 0.6929 0.6928 0.6926 0.6926 0.6925
1956.000000 0.6925 0.6925 0.6925 0.6925 0.6924
1961.000000 0.6924 0.6922 0.6921 0.6919 0.6918
1966.000000 0.6916 0.6914 0.6913 0.6911 0.6908
1971.000000 0.6905 0.6902 0.6899 0.6896 0.6894
1976.000000 0.6890 0.6884 0.6879 0.6874 0.6868
1981.000000 0.6863 0.6855 0.6845 0.6835 0.6825
1986.000000 0.6815 0.6806 0.6796 0.6788 0.6780
1991.000000 0.6772 0.6764 0.6755 0.6747 0.6744
1996.000000 0.6744 0.6744 0.6749 0.6753 0.6759
2001.000000 0.6765 0.6772 0.6775 0.6779 0.6781
2006.000000 0.6783 0.6783 0.6783 0.6782 0.6781
2011.000000 0.6777 0.6773 0.6769 0.6765 0.6761
2016.000000 0.6757 0.6753 0.6749 0.6744 0.6740
2021.000000 0.6735 0.6730 0.6725 0.6720 0.6715
2026.000000 0.6711 0.6706 0.6701 0.6696 0.6692
2031.000000 0.6687 0.6683 0.6678 0.6674 0.6670
2036.000000 0.6666 0.6661 0.6657 0.6652 0.6648
2041.000000 0.6643 0.6639 0.6634 0.6629 0.6623
2046.000000 0.6618 0.6612 0.6607 0.6601 0.6596
2051.000000 0.6590 0.6584 0.6578 0.6573 0.6567
2056.000000 0.6562 0.6556 0.6551 0.6545 0.6539
2061.000000 0.6533 0.6528 0.6523 0.6518 0.6513
2066.000000 0.6508 0.6503 0.6498 0.6493 0.6488
2071.000000 0.6483 0.6478 0.6473 0.6468 0.6463
2076.000000 0.6458 0.6452 0.6447 0.6441 0.6435
2081.000000 0.6429 0.6423 0.6417 0.6411 0.6404
2086.000000 0.6398 0.6392 0.6386 0.6380 0.6374
2091.000000 0.6368 0.6362 0.6356 0.6350 0.6343
2096.000000 0.6337 0.6330 0.6324 0.6317 0.6310
2101.000000 0.6302 0.6295 0.6287 0.6280 0.6273
2106.000000 0.6266 0.6258 0.6251 0.6243 0.6236
2111.000000 0.6229 0.6222 0.6215 0.6209 0.6203
2116.000000 0.6198 0.6192 0.6186 0.6180 0.6175
2121.000000 0.6169 0.6163 0.6157 0.6152 0.6146
2126.000000 0.6141 0.6135 0.6129 0.6123 0.6118
2131.000000 0.6112 0.6107 0.6101 0.6095 0.6089
2136.000000 0.6084 0.6078 0.6072 0.6066 0.6061
2141.000000 0.6055 0.6049 0.6043 0.6038 0.6032
2146.000000 0.6026 0.6020 0.6015 0.6009 0.6003
2151.000000 0.5997 0.5992 0.5986 0.5980 0.5974
2156.000000 0.5968 0.5962 0.5957 0.5951 0.5945
2161.000000 0.5939 0.5934 0.5928 0.5922 0.5917
2166.000000 0.5912 0.5907 0.5902 0.5897 0.5892
2171.000000 0.5887 0.5882 0.5877 0.5872 0.5867
2176.000000 0.5862 0.5857 0.5852 0.5847 0.5842
2181.000000 0.5837 0.5832 0.5827 0.5822 0.5817
2186.000000 0.5812 0.5807 0.5802 0.5797 0.5792
2191.000000 0.5787 0.5782 0.5777 0.5773 0.5768
2196.000000 0.5763 0.5758 0.5753 0.5748 0.5743
2201.000000 0.5738 0.5733 0.5728 0.5724 0.5719
2206.000000 0.5714 0.5709 0.5705 0.5700 0.5696
2211.000000 0.5691 0.5687 0.5683 0.5679 0.5674
2216.000000 0.5670 0.5665 0.5661 0.5656 0.5652
2221.000000 0.5648 0.5644 0.5639 0.5635 0.5630
2226.000000 0.5626 0.5621 0.5617 0.5612 0.5607
2231.000000 0.5602 0.5597 0.5592 0.5587 0.5582
2236.000000 0.5577 0.5572 0.5568 0.5563 0.5558
2241.000000 0.5553 0.5548 0.5543 0.5538 0.5533
2246.000000 0.5529 0.5524 0.5519 0.5514 0.5509
2251.000000 0.5504 0.5500 0.5495 0.5490 0.5485
2256.000000 0.5481 0.5476 0.5472 0.5467 0.5463
2261.000000 0.5458 0.5454 0.5449 0.5445 0.5440
2266.000000 0.5436 0.5433 0.5430 0.5427 0.5425
2271.000000 0.5422 0.5419 0.5416 0.5414 0.5411
2276.000000 0.5409 0.5406 0.5404 0.5401 0.5399
2281.000000 0.5399 0.5399 0.5399 0.5399 0.5399
2286.000000 0.5399 0.5399 0.5399 0.5399 0.5399
2291.000000 0.5398 0.5398 0.5398 0.5398 0.5398
2296.000000 0.5398 0.5398 0.5399 0.5399 0.5399
2301.000000 0.5399 0.5399 0.5399 0.5399 0.5399
2306.000000 0.5400 0.5400 0.5401 0.5402 0.5403
2311.000000 0.5404 0.5405 0.5405 0.5406 0.5406
2316.000000 0.5407 0.5407 0.5408 0.5408 0.5409
2321.000000 0.5409 0.5410 0.5410 0.5411 0.5411
2326.000000 0.5412 0.5412 0.5413 0.5413 0.5414
2331.000000 0.5414 0.5415 0.5417 0.5419 0.5420
2336.000000 0.5422 0.5423 0.5425 0.5427 0.5429
2341.000000 0.5430 0.5432 0.5434 0.5437 0.5439
2346.000000 0.5441 0.5443 0.5445 0.5447 0.5449
2351.000000 0.5450 0.5452 0.5453 0.5454 0.5455
2356.000000 0.5456 0.5457 0.5459 0.5460 0.5461
2361.000000 0.5462 0.5463 0.5464 0.5465 0.5465
2366.000000 0.5466 0.5467 0.5468 0.5468 0.5469
2371.000000 0.5470 0.5471 0.5472 0.5473 0.5473
2376.000000 0.5474 0.5475 0.5476 0.5477 0.5478
2381.000000 0.5479 0.5480 0.5481 0.5483 0.5484
2386.000000 0.5486 0.5487 0.5488 0.5489 0.5491
2391.000000 0.5492 0.5493 0.5494 0.5496 0.5497
2396.000000 0.5498 0.5499 0.5501 0.5502 0.5503
2401.000000 0.5504 0.5505 0.5506 0.5507 0.5507
2406.000000 0.5508 0.5509 0.5510 0.5510 0.5511
2411.000000 0.5512 0.5513 0.5513 0.5514 0.5515
2416.000000 0.5516 0.5516 0.5517 0.5518 0.5519
2421.000000 0.5519 0.5519 0.5519 0.5519 0.5519
2426.000000 0.5519 0.5519 0.5519 0.5519 0.5519
2431.000000 0.5519 0.5519 0.5518 0.5518 0.5518
2436.000000 0.5518 0.5518 0.5518 0.5518 0.5518
2441.000000 0.5517 0.5517 0.5517 0.5517 0.5517
2446.000000 0.5517 0.5516 0.5516 0.5516 0.5516
2451.000000 0.5516 0.5516 0.5515 0.5515 0.5515
2456.000000 0.5515 0.5515 0.5515 0.5514 0.5514
2461.000000 0.5514 0.5514 0.5514 0.5514 0.5513
2466.000000 0.5513 0.5513 0.5513 0.5513 0.5513
2471.000000 0.5512 0.5512 0.5512 0.5512 0.5511
2476.000000 0.5511 0.5510 0.5510 0.5509 0.5509
2481.000000 0.5509 0.5509 0.5508 0.5508 0.5507
2486.000000 0.5507 0.5506 0.5506 0.5505 0.5505
2491.000000 0.5505 0.5505 0.5503 0.5502 0.5500
2496.000000 0.5499 0.5498 0.5497 0.5495 0.5494
2501.000000 0.5492 0.5491 0.5489 0.5488 0.5486
2506.000000 0.5485 0.5483 0.5482 0.5481 0.5480
2511.000000 0.5478 0.5477 0.5475 0.5474 0.5472
2516.000000 0.5471 0.5469 0.5468 0.5467 0.5466
2521.000000 0.5464 0.5463 0.5461 0.5460 0.5458
2526.000000 0.5457 0.5455 0.5454 0.5453 0.5452
2531.000000 0.5450 0.5448 0.5446 0.5444 0.5442
2536.000000 0.5440 0.5438 0.5436 0.5434 0.5432
2541.000000 0.5430 0.5428 0.5426 0.5424 0.5422
2546.000000 0.5420 0.5418 0.5416 0.5414 0.5412
2551.000000 0.5410 0.5408 0.5406 0.5404 0.5402
2556.000000 0.5400 0.5398 0.5396 0.5394 0.5392
2561.000000 0.5390 0.5388 0.5385 0.5383 0.5380
2566.000000 0.5378 0.5375 0.5372 0.5369 0.5367
2571.000000 0.5364 0.5362 0.5359 0.5356 0.5353
2576.000000 0.5351 0.5348 0.5346 0.5343 0.5340
2581.000000 0.5337 0.5335 0.5332 0.5330 0.5327
2586.000000 0.5324 0.5321 0.5319 0.5316 0.5314
2591.000000 0.5311 0.5308 0.5305 0.5302 0.5298
2596.000000 0.5295 0.5291 0.5288 0.5284 0.5281
2601.000000 0.5277 0.5274 0.5270 0.5267 0.5264
2606.000000 0.5261 0.5257 0.5254 0.5250 0.5247
2611.000000 0.5243 0.5240 0.5236 0.5233 0.5229
2616.000000 0.5226 0.5222 0.5219 0.5215 0.5212
2621.000000 0.5208 0.5205 0.5202 0.5199 0.5195
2626.000000 0.5192 0.5187 0.5183 0.5178 0.5174
2631.000000 0.5169 0.5165 0.5160 0.5156 0.5151
2636.000000 0.5147 0.5142 0.5138 0.5133 0.5129
2641.000000 0.5124 0.5120 0.5115 0.5111 0.5106
2646.000000 0.5102 0.5097 0.5093 0.5088 0.5084
2651.000000 0.5079 0.5075 0.5070 0.5066 0.5061
2656.000000 0.5057 0.5052 0.5048 0.5043 0.5039
2661.000000 0.5034 0.5030 0.5025 0.5021 0.5016
2666.000000 0.5012 0.5006 0.5001 0.4996 0.4991
2671.000000 0.4986 0.4981 0.4975 0.4970 0.4965
2676.000000 0.4960 0.4955 0.4950 0.4944 0.4939
2681.000000 0.4934 0.4929 0.4924 0.4919 0.4913
2686.000000 0.4908 0.4903 0.4898 0.4893 0.4888
2691.000000 0.4883 0.4878 0.4872 0.4867 0.4862
2696.000000 0.4857 0.4852 0.4847 0.4841 0.4836
2701.000000 0.4831 0.4826 0.4821 0.4816 0.4810
2706.000000 0.4805 0.4800 0.4795 0.4790 0.4785
2711.000000 0.4780 0.4775 0.4769 0.4764 0.4759
2716.000000 0.4754 0.4749 0.4744 0.4738 0.4733
2721.000000 0.4727 0.4722 0.4717 0.4712 0.4706
2726.000000 0.4701 0.4696 0.4691 0.4685 0.4680
2731.000000 0.4674 0.4669 0.4664 0.4659 0.4653
2736.000000 0.4648 0.4643 0.4638 0.4632 0.4627
2741.000000 0.4621 0.4616 0.4611 0.4606 0.4600
2746.000000 0.4595 0.4590 0.4585 0.4579 0.4574
2751.000000 0.4568 0.4563 0.4558 0.4553 0.4548
2756.000000 0.4543 0.4537 0.4532 0.4527 0.4522
2761.000000 0.4517 0.4512 0.4506 0.4501 0.4496
2766.000000 0.4491 0.4486 0.4481 0.4475 0.4470
2771.000000 0.4465 0.4460 0.4455 0.4450 0.4444
2776.000000 0.4439 0.4434 0.4429 0.4424 0.4419
2781.000000 0.4413 0.4408 0.4403 0.4398 0.4393
2786.000000 0.4388 0.4382 0.4377 0.4372 0.4367
2791.000000 0.4362 0.4357 0.4351 0.4346 0.4341
2796.000000 0.4336 0.4331 0.4326 0.4320 0.4315
2801.000000 0.4308 0.4302 0.4295 0.4289 0.4282
2806.000000 0.4275 0.4268 0.4262 0.4255 0.4249
2811.000000 0.4242 0.4235 0.4228 0.4222 0.4215
2816.000000 0.4209 0.4202 0.4196 0.4189 0.4182
2821.000000 0.4175 0.4169 0.4162 0.4156 0.4149
2826.000000 0.4143 0.4136 0.4129 0.4122 0.4116
2831.000000 0.4109 0.4103 0.4094 0.4086 0.4077
2836.000000 0.4069 0.4060 0.4052 0.4043 0.4035
2841.000000 0.4026 0.4017 0.4008 0.4000 0.3991
2846.000000 0.3983 0.3974 0.3966 0.3957 0.3949
2851.000000 0.3940 0.3932 0.3927 0.3923 0.3921
2856.000000 0.3919 0.3917 0.3916 0.3914 0.3913
2861.000000 0.3912 0.3911 0.3910 0.3910 0.3910
2866.000000 0.3910 0.3910 0.3910 0.3909 0.3909
2871.000000 0.3909 0.3910 0.3910 0.3911 0.3911
2876.000000 0.3912 0.3912 0.3913 0.3913 0.3913
2881.000000 0.3912 0.3912 0.3911 0.3910 0.3908
2886.000000 0.3906 0.3904 0.3902 0.3899 0.3897
2891.000000 0.3895 0.3893 0.3890 0.3887 0.3883
2896.000000 0.3880 0.3876 0.3872 0.3868 0.3864
2901.000000 0.3860 0.3856 0.3852 0.3849 0.3845
2906.000000 0.3841 0.3837 0.3833 0.3829 0.3825
2911.000000 0.3821 0.3817 0.3811 0.3806 0.3801
2916.000000 0.3796 0.3790 0.3785 0.3780 0.3775
2921.000000 0.3769 0.3764 0.3758 0.3753 0.3748
2926.000000 0.3743 0.3737 0.3732 0.3727 0.3722
2931.000000 0.3717 0.3712 0.3707 0.3703 0.3698
2936.000000 0.3693 0.3688 0.3684 0.3679 0.3674
2941.000000 0.3669 0.3665 0.3660 0.3655 0.3650
2946.000000 0.3646 0.3641 0.3636 0.3631 0.3627
2951.000000 0.3622 0.3617 0.3612 0.3608 0.3604
2956.000000 0.3600 0.3595 0.3591 0.3586 0.3582
2961.000000 0.3577 0.3573 0.3568 0.3564 0.3559
2966.000000 0.3555 0.3551 0.3547 0.3542 0.3538
2971.000000 0.3533 0.3529 0.3524 0.3520 0.3515
2976.000000 0.3511 0.3507 0.3503 0.3498 0.3494
2981.000000 0.3488 0.3483 0.3477 0.3471 0.3465
2986.000000 0.3460 0.3454 0.3449 0.3443 0.3437
2991.000000 0.3431 0.3426 0.3420 0.3415 0.3409
2996.000000 0.3403 0.3397 0.3392 0.3385 0.3378
3001.000000 0.3368 0.3359 0.3349 0.3340 0.3331
3006.000000 0.3322 0.3312 0.3303 0.3291 0.3279
3011.000000 0.3266 0.3253 0.3248 0.3244 0.3242
3016.000000 0.3241 0.3241 0.3241 0.3241 0.3237
3021.000000 0.3242 0.3243 0.3246 0.3250 0.3253
3026.000000 0.3257 0.3260 0.3264 0.3269 0.3275
3031.000000 0.3284 0.3294 0.3303 0.3313 0.3322
3036.000000 0.3332 0.3344 0.3357 0.3369 0.3382
3041.000000 0.3394 0.3407 0.3419 0.3432 0.3441
3046.000000 0.3451 0.3461 0.3471 0.3481 0.3491
3051.000000 0.3501 0.3511 0.3518 0.3525 0.3532
3056.000000 0.3540 0.3547 0.3554 0.3561 0.3569
3061.000000 0.3575 0.3581 0.3585 0.3589 0.3593
3066.000000 0.3598 0.3602 0.3606 0.3610 0.3615
3071.000000 0.3619 0.3623 0.3627 0.3632 0.3636
3076.000000 0.3641 0.3645 0.3657 0.3651 0.3652
3081.000000 0.3653 0.3654 0.3651 0.3648 0.3645
3086.000000 0.3642 0.3639 0.3636 0.3633 0.3630
3091.000000 0.3627 0.3624 0.3621 0.3618 0.3614
3096.000000 0.3611 0.3608 0.3605 0.3602 0.3599
3101.000000 0.3596 0.3593 0.3589 0.3586 0.3582
3106.000000 0.3579 0.3576 0.3573 0.3569 0.3566
3111.000000 0.3563 0.3560 0.3556 0.3553 0.3550
3116.000000 0.3547 0.3543 0.3540 0.3536 0.3533
3121.000000 0.3529 0.3525 0.3521 0.3518 0.3514
3126.000000 0.3510 0.3506 0.3503 0.3499 0.3495
3131.000000 0.3491 0.3488 0.3484 0.3480 0.3476
3136.000000 0.3473 0.3469 0.3465 0.3461 0.3458
3141.000000 0.3454 0.3450 0.3446 0.3443 0.3439
3146.000000 0.3435 0.3430 0.3426 0.3422 0.3418
3151.000000 0.3414 0.3410 0.3406 0.3402 0.3398
3156.000000 0.3394 0.3389 0.3385 0.3381 0.3377
3161.000000 0.3373 0.3369 0.3365 0.3361 0.3356
3166.000000 0.3352 0.3348 0.3344 0.3340 0.3336
3171.000000 0.3332 0.3328 0.3324 0.3320 0.3315
3176.000000 0.3311 0.3307 0.3303 0.3299 0.3296
3181.000000 0.3292 0.3289 0.3285 0.3281 0.3277
3186.000000 0.3274 0.3270 0.3266 0.3262 0.3259
3191.000000 0.3255 0.3252 0.3248 0.3244 0.3240
3196.000000 0.3237 0.3233 0.3230 0.3226 0.3222
3201.000000 0.3218 0.3215 0.3211 0.3208 0.3204
3206.000000 0.3200 0.3196 0.3193 0.3189 0.3186
3211.000000 0.3182 0.3178 0.3174 0.3171 0.3167
3216.000000 0.3163 0.3159 0.3156 0.3152 0.3149
3221.000000 0.3145 0.3141 0.3137 0.3134 0.3130
3226.000000 0.3127 0.3123 0.3119 0.3116 0.3113
3231.000000 0.3109 0.3106 0.3103 0.3100 0.3096
3236.000000 0.3093 0.3090 0.3087 0.3083 0.3080
3241.000000 0.3077 0.3074 0.3070 0.3067 0.3063
3246.000000 0.3060 0.3057 0.3054 0.3050 0.3047
3251.000000 0.3044 0.3041 0.3037 0.3034 0.3031
3256.000000 0.3028 0.3024 0.3021 0.3018 0.3015
3261.000000 0.3011 0.3008 0.3004 0.3001 0.2998
3266.000000 0.2995 0.2991 0.2988 0.2985 0.2982
3271.000000 0.2979 0.2977 0.2974 0.2972 0.2969
3276.000000 0.2966 0.2963 0.2961 0.2958 0.2955
3281.000000 0.2952 0.2950 0.2947 0.2945 0.2942
3286.000000 0.2939 0.2936 0.2934 0.2931 0.2929
3291.000000 0.2926 0.2923 0.2920 0.2918 0.2915
3296.000000 0.2912 0.2909 0.2907 0.2904 0.2902
3301.000000 0.2899 0.2896 0.2893 0.2891 0.2888
3306.000000 0.2886 0.2883 0.2880 0.2877 0.2875
3311.000000 0.2872 0.2869 0.2866 0.2864 0.2861
3316.000000 0.2859 0.2856 0.2853 0.2850 0.2848
3321.000000 0.2845 0.2843 0.2840 0.2837 0.2834
3326.000000 0.2832 0.2829 0.2827 0.2824 0.2821
3331.000000 0.2818 0.2816 0.2813 0.2811 0.2808
3336.000000 0.2805 0.2802 0.2800 0.2797 0.2795
3341.000000 0.2792 0.2789 0.2786 0.2784 0.2781
3346.000000 0.2779 0.2776 0.2774 0.2771 0.2768
3351.000000 0.2765 0.2763 0.2760 0.2758 0.2755
3356.000000 0.2752 0.2749 0.2747 0.2744 0.2742
3361.000000 0.2739 0.2737 0.2734 0.2731 0.2728
3366.000000 0.2726 0.2723 0.2721 0.2718 0.2715
3371.000000 0.2712 0.2710 0.2707 0.2705 0.2702
3376.000000 0.2700 0.2697 0.2694 0.2691 0.2689
3381.000000 0.2686 0.2684 0.2681 0.2678 0.2675
3386.000000 0.2673 0.2670 0.2668 0.2665 0.2662
3391.000000 0.2659 0.2657 0.2654 0.2652 0.2650
3396.000000 0.2648 0.2645 0.2643 0.2641 0.2639
3401.000000 0.2636 0.2634 0.2632 0.2630 0.2627
3406.000000 0.2625 0.2622 0.2620 0.2618 0.2616
3411.000000 0.2613 0.2611 0.2609 0.2607 0.2604
3416.000000 0.2602 0.2600 0.2598 0.2595 0.2593
3421.000000 0.2591 0.2589 0.2586 0.2584 0.2582
3426.000000 0.2580 0.2577 0.2575 0.2573 0.2571
3431.000000 0.2568 0.2566 0.2564 0.2562 0.2559
3436.000000 0.2557 0.2555 0.2553 0.2550 0.2548
3441.000000 0.2545 0.2543 0.2541 0.2539 0.2536
3446.000000 0.2534 0.2532 0.2530 0.2527 0.2525
3451.000000 0.2523 0.2521 0.2518 0.2516 0.2514
3456.000000 0.2512 0.2510 0.2509 0.2507 0.2505
3461.000000 0.2503 0.2501 0.2499 0.2497 0.2495
3466.000000 0.2494 0.2492 0.2490 0.2488 0.2486
3471.000000 0.2484 0.2482 0.2480 0.2479 0.2477
3476.000000 0.2475 0.2473 0.2471 0.2469 0.2467
3481.000000 0.2465 0.2463 0.2461 0.2460 0.2458
3486.000000 0.2456 0.2454 0.2452 0.2450 0.2448
3491.000000 0.2446 0.2445 0.2443 0.2441 0.2439
3496.000000 0.2437 0.2435 0.2433 0.2431 0.2430
3501.000000 0.2428 0.2426 0.2424 0.2422 0.2420
3506.000000 0.2418 0.2416 0.2414 0.2412 0.2411
3511.000000 0.2409 0.2407 0.2405 0.2403 0.2401
3516.000000 0.2399 0.2397 0.2395 0.2393 0.2391
3521.000000 0.2389 0.2387 0.2385 0.2383 0.2380
3526.000000 0.2378 0.2376 0.2374 0.2372 0.2370
3531.000000 0.2368 0.2366 0.2364 0.2362 0.2360
3536.000000 0.2358 0.2356 0.2354 0.2352 0.2350
3541.000000 0.2348 0.2346 0.2344 0.2342 0.2340
3546.000000 0.2338 0.2336 0.2335 0.2334 0.2333
3551.000000 0.2332 0.2331 0.2330 0.2330 0.2329
3556.000000 0.2328 0.2327 0.2326 0.2325 0.2324
3561.000000 0.2323 0.2323 0.2322 0.2321 0.2320
3566.000000 0.2319 0.2318 0.2317 0.2316 0.2316
3571.000000 0.2315 0.2314 0.2313 0.2312 0.2311
3576.000000 0.2310 0.2309 0.2309 0.2308 0.2307
3581.000000 0.2306 0.2305 0.2304 0.2303 0.2302
3586.000000 0.2302 0.2301 0.2300 0.2298 0.2297
3591.000000 0.2296 0.2295 0.2294 0.2293 0.2292
3596.000000 0.2291 0.2290 0.2289 0.2288 0.2287
3601.000000 0.2286 0.2285 0.2284 0.2283 0.2281
3606.000000 0.2280 0.2279 0.2278 0.2277 0.2276
3611.000000 0.2275 0.2274 0.2273 0.2272 0.2271
3616.000000 0.2270 0.2269 0.2268 0.2267 0.2266
3621.000000 0.2263 0.2261 0.2259 0.2257 0.2254
3626.000000 0.2252 0.2250 0.2248 0.2245 0.2243
3631.000000 0.2241 0.2239 0.2236 0.2234 0.2232
3636.000000 0.2230 0.2227 0.2225 0.2223 0.2221
3641.000000 0.2218 0.2216 0.2214 0.2212 0.2209
3646.000000 0.2207 0.2205 0.2203 0.2200 0.2198
3651.000000 0.2196 0.2194 0.2191 0.2189 0.2187
3656.000000 0.2185 0.2182 0.2180 0.2177 0.2175
3661.000000 0.2173 0.2171 0.2168 0.2166 0.2163
3666.000000 0.2161 0.2159 0.2157 0.2154 0.2152
3671.000000 0.2149 0.2147 0.2144 0.2142 0.2140
3676.000000 0.2138 0.2135 0.2133 0.2130 0.2128
3681.000000 0.2126 0.2124 0.2121 0.2119 0.2117
3686.000000 0.2115 0.2113 0.2111 0.2109 0.2107
3691.000000 0.2105 0.2103 0.2101 0.2099 0.2097
3696.000000 0.2095 0.2093 0.2091 0.2089 0.2087
3701.000000 0.2085 0.2083 0.2081 0.2079 0.2077
3706.000000 0.2075 0.2073 0.2071 0.2069 0.2067
3711.000000 0.2065 0.2063 0.2061 0.2059 0.2058
3716.000000 0.2057 0.2056 0.2055 0.2053 0.2052
3721.000000 0.2051 0.2050 0.2049 0.2048 0.2046
3726.000000 0.2045 0.2044 0.2043 0.2042 0.2041
3731.000000 0.2039 0.2038 0.2037 0.2036 0.2035
3736.000000 0.2034 0.2033 0.2032 0.2030 0.2029
3741.000000 0.2028 0.2027 0.2026 0.2025 0.2023
3746.000000 0.2022 0.2021 0.2020 0.2019 0.2018
3751.000000 0.2017 0.2016 0.2015 0.2014 0.2013
3756.000000 0.2012 0.2011 0.2010 0.2009 0.2008
3761.000000 0.2007 0.2006 0.2005 0.2004 0.2003
3766.000000 0.2002 0.2001 0.2000 0.1999 0.1998
3771.000000 0.1997 0.1996 0.1995 0.1994 0.1993
3776.000000 0.1992 0.1991 0.1990 0.1989 0.1988
3781.000000 0.1987 0.1986 0.1985 0.1984 0.1983
3786.000000 0.1982 0.1981 0.1980 0.1979 0.1978
3791.000000 0.1977 0.1976 0.1975 0.1974 0.1973
3796.000000 0.1972 0.1971 0.1970 0.1969 0.1968
3801.000000 0.1967 0.1966
##END=
