##TITLE=DICYCLOHEXYLAMINE NITRITE
##JCAMP-DX=4.24
##DATA TYPE=INFRARED SPECTRUM
##CLASS=COBLENTZ
##ORIGIN=STANDARD OIL OF OHIO
##OWNER=COBLENTZ SOCIETY
Collection (C) 2018 copyright by the U.S. Secretary of Commerce
on behalf of the United States of America. All rights reserved.
##DATE=Not specified, most likely prior to 1970
##NAMES=N-cyclohexylcyclohexanamine compound with oxoazane oxide (1:1)
##MOLFORM=C12 H23 N  * H N O2
##SOURCE REFERENCE=COBLENTZ NO. 4632
##$NIST ID=B6004632
##$NIST SOURCE=COBLENTZ
##$NIST IMAGE=cob4632
##SPECTROMETER/DATA SYSTEM=Not specified, most likely a grating spectrometer.
##STATE=SOLID (SPLIT MULL: 2.5-7.5 HALOCARBON, 7.5-15.0 NUJOL), INTENSITIES MATCHED
##SAMPLING PROCEDURE=TRANSMISSION
##RESOLUTION=4
##DATA PROCESSING=DIGITIZED BY NIST FROM HARD COPY (FROM TWO SEGMENTS)
##XUNITS=1/CM
##YUNITS=TRANSMITTANCE
##XFACTOR=1.000000
##YFACTOR=1
##DELTAX=1.352669
##FIRSTX=635.169
##LASTX=3893.75
##FIRSTY=0.618
##MAXX=3893.75
##MINX=635.169
##MAXY=0.793
##MINY=0.0860081
##NPOINTS=2410
##XYDATA=(X++(Y..Y))
635.169000 0.6180 0.6180 0.6200 0.6230 0.6250
641.932345 0.6280 0.6300 0.6370 0.6400 0.6440
648.695690 0.6490 0.6520 0.6550 0.6590 0.6610
655.459035 0.6670 0.6710 0.6740 0.6770 0.6790
662.222379 0.6790 0.6810 0.6890 0.6930 0.6960
668.985724 0.7000 0.7010 0.7030 0.7050 0.7080
675.749069 0.7100 0.7130 0.7150 0.7200 0.7220
682.512414 0.7230 0.7250 0.7270 0.7270 0.7280
689.275759 0.7280 0.7280 0.7300 0.7320 0.7330
696.039104 0.7370 0.7370 0.7380 0.7380 0.7380
702.802448 0.7370 0.7350 0.7330 0.7320 0.7300
709.565793 0.7250 0.7200 0.7150 0.7051 0.7000
716.329138 0.6890 0.6790 0.6690 0.6670 0.6670
723.092483 0.6710 0.6809 0.6880 0.6940 0.6980
729.855828 0.7010 0.7010 0.7100 0.7130 0.7180
736.619173 0.7220 0.7270 0.7320 0.7370 0.7420
743.382518 0.7490 0.7500 0.7500 0.7520 0.7540
750.145862 0.7540 0.7570 0.7570 0.7590 0.7610
756.909207 0.7610 0.7610 0.7610 0.7610 0.7610
763.672552 0.7610 0.7610 0.7620 0.7620 0.7620
770.435897 0.7620 0.7620 0.7620 0.7620 0.7610
777.199242 0.7590 0.7570 0.7550 0.7540 0.7401
783.962587 0.7400 0.7450 0.7490 0.7470 0.7181
790.725932 0.7130 0.6573 0.6421 0.6400 0.6400
797.489276 0.6400 0.6400 0.6400 0.6380 0.5722
804.252621 0.4306 0.3882 0.3880 0.5797 0.5998
811.015966 0.6521 0.7230 0.7470 0.7540 0.7660
817.779311 0.7690 0.7690 0.7670 0.7640 0.7590
824.542656 0.7610 0.7710 0.7720 0.7720 0.7710
831.306001 0.7710 0.7690 0.7690 0.7670 0.7640
838.069345 0.7610 0.7540 0.7400 0.7330 0.7270
844.832690 0.7180 0.6324 0.6320 0.6707 0.7097
851.596035 0.7350 0.7520 0.7550 0.7550 0.7520
858.359380 0.7500 0.7500 0.7440 0.7400 0.7350
865.122725 0.7320 0.7320 0.7330 0.7420 0.7490
871.886070 0.7540 0.7590 0.7620 0.7640 0.7640
878.649415 0.7620 0.7590 0.7570 0.7540 0.7380
885.412759 0.7101 0.7100 0.7199 0.7200 0.7180
892.176104 0.7060 0.6880 0.6450 0.5761 0.5760
898.939449 0.5880 0.6378 0.6738 0.7147 0.7329
905.702794 0.7400 0.7420 0.7420 0.7400 0.7370
912.466139 0.7350 0.7300 0.7250 0.7012 0.6831
919.229484 0.6740 0.6660 0.6620 0.6610 0.6620
925.992828 0.6720 0.6770 0.6909 0.7129 0.7160
932.756173 0.7200 0.7220 0.7220 0.7230 0.7230
939.519518 0.7230 0.7220 0.7220 0.7200 0.7160
946.282863 0.7130 0.7060 0.7030 0.7010 0.7000
953.046208 0.6980 0.6960 0.6940 0.6910 0.6880
959.809553 0.6770 0.6720 0.6660 0.6550 0.6490
966.572898 0.6400 0.6280 0.6151 0.5941 0.5722
973.336242 0.5489 0.5150 0.5010 0.5010 0.5200
980.099587 0.5489 0.5620 0.5789 0.5959 0.6109
986.862932 0.6250 0.6370 0.6470 0.6550 0.6640
993.626277 0.6720 0.6790 0.6840 0.6890 0.6940
1000.389622 0.6980 0.6980 0.6980 0.6960 0.6960
1007.152967 0.6940 0.6910 0.6890 0.6840 0.6790
1013.916312 0.6760 0.6720 0.6690 0.6640 0.6520
1020.679656 0.6470 0.6440 0.6350 0.6231 0.6151
1027.443001 0.5960 0.5770 0.5500 0.5220 0.4980
1034.206346 0.4641 0.4640 0.4829 0.5248 0.5488
1040.969691 0.5520 0.5490 0.5400 0.5330 0.5220
1047.733036 0.5010 0.4791 0.4551 0.4381 0.4002
1054.496381 0.3982 0.4690 0.4690 0.4200 0.3621
1061.259725 0.3620 0.4098 0.4100 0.4060 0.3931
1068.023070 0.3931 0.4401 0.4860 0.4880 0.5489
1074.786415 0.5500 0.5490 0.5440 0.5380 0.5300
1081.549760 0.5059 0.4760 0.4540 0.4500 0.4440
1088.313105 0.4420 0.4380 0.4380 0.4370 0.4370
1095.076450 0.4350 0.4320 0.4220 0.4110 0.3940
1101.839795 0.3840 0.3810 0.3720 0.3611 0.3441
1108.603139 0.3229 0.3060 0.2910 0.2710 0.2500
1115.366484 0.2280 0.2101 0.1891 0.1721 0.1541
1122.129829 0.1370 0.1220 0.1110 0.1030 0.0980
1128.893174 0.0910 0.0880 0.0860 0.0880 0.0890
1135.656519 0.0930 0.1010 0.1110 0.1230 0.1280
1142.419864 0.1300 0.1300 0.1300 0.1320 0.1608
1149.183209 0.1891 0.2050 0.2270 0.2550 0.2720
1155.946553 0.2840 0.2860 0.2810 0.2541 0.2272
1162.709898 0.2100 0.2080 0.2110 0.2250 0.2490
1169.473243 0.2690 0.2909 0.3000 0.3159 0.3269
1176.236588 0.3330 0.3400 0.3490 0.3520 0.3570
1182.999933 0.3620 0.3660 0.3690 0.3710 0.3670
1189.763278 0.3640 0.3660 0.3690 0.3740 0.3790
1196.526622 0.3840 0.3880 0.3890 0.3980 0.4030
1203.289967 0.4030 0.4060 0.4150 0.4230 0.4300
1210.053312 0.4380 0.4450 0.4500 0.4540 0.4620
1216.816657 0.4670 0.4720 0.4770 0.4790 0.4840
1223.580002 0.4860 0.4880 0.4910 0.4980 0.5010
1230.343347 0.5030 0.5100 0.5160 0.5270 0.5380
1237.106692 0.5470 0.5490 0.5490 0.5500 0.5520
1243.870036 0.5620 0.5690 0.5740 0.5740 0.5720
1250.633381 0.5690 0.5520 0.5490 0.5420 0.5330
1257.396726 0.5250 0.5230 0.5230 0.5250 0.5280
1264.160071 0.5320 0.5400 0.5490 0.5490 0.5351
1270.923416 0.5250 0.5220 0.5220 0.5270 0.5380
1277.686761 0.5520 0.5660 0.5770 0.5830 0.5840
1284.450105 0.5830 0.5810 0.5770 0.5710 0.5660
1291.213450 0.5540 0.5470 0.5320 0.5180 0.5051
1297.976795 0.4940 0.4830 0.4710 0.4690 0.4720
1304.740140 0.4830 0.4890 0.4890 0.4880 0.4840
1311.503485 0.4689 0.4519 0.4279 0.3940 0.3880
1318.266830 0.3880 0.4219 0.4280 0.4688 0.4690
1325.030175 0.4450 0.4491 0.4660 0.4760 0.4770
1331.793519 0.4720 0.4660 0.4520 0.4450 0.4450
1338.556864 0.4540 0.4550 0.4550 0.4500 0.4400
1345.320209 0.4320 0.4200 0.4110 0.4030 0.3761
1352.083554 0.3590 0.3550 0.3540 0.3420 0.3300
1358.846899 0.3200 0.3000 0.2790 0.2710 0.2610
1365.610244 0.2499 0.2349 0.2180 0.2160 0.2180
1372.373589 0.2280 0.2380 0.2400 0.2440 0.2500
1379.136933 0.2551 0.2710 0.2810 0.2960 0.3030
1385.900278 0.3080 0.3100 0.3050 0.2940 0.2910
1392.663623 0.2911 0.3101 0.3401 0.3641 0.3940
1399.426968 0.4200 0.4420 0.4610 0.4720 0.4810
1406.190313 0.4830 0.4860 0.4860 0.4880 0.4880
1412.953658 0.4880 0.4880 0.4880 0.4890 0.4980
1419.717002 0.5010 0.5031 0.5180 0.5230 0.5300
1426.480347 0.5370 0.5490 0.5500 0.5500 0.5500
1433.243692 0.5490 0.5420 0.5300 0.5200 0.4980
1440.007037 0.4760 0.4490 0.4350 0.4161 0.3742
1446.770382 0.3249 0.3149 0.3007 0.2280 0.2110
1453.533727 0.2110 0.2550 0.2660 0.2740 0.2770
1460.297072 0.3272 0.3740 0.3739 0.3280 0.3281
1467.060416 0.3910 0.4010 0.4200 0.4519 0.4540
1473.823761 0.4540 0.4520 0.4450 0.4420 0.4420
1480.587106 0.4490 0.4490 0.4440 0.4440 0.4420
1487.350451 0.4370 0.4279 0.4130 0.4079 0.3830
1494.113796 0.3720 0.3690 0.3710 0.3860 0.4029
1500.877141 0.4303 0.4791 0.5031 0.5301 0.5660
1507.640485 0.5830 0.6060 0.6160 0.6330 0.6400
1514.403830 0.6591 0.6760 0.6840 0.6890 0.7060
1521.167175 0.7130 0.7150 0.7180 0.7230 0.7270
1527.930520 0.7300 0.7320 0.7320 0.7350 0.7350
1534.693865 0.7370 0.7380 0.7420 0.7420 0.7400
1541.457210 0.7400 0.7380 0.7380 0.7380 0.7380
1548.220555 0.7380 0.7380 0.7380 0.7380 0.7380
1554.983899 0.7380 0.7380 0.7380 0.7380 0.7370
1561.747244 0.7370 0.7350 0.7330 0.7330 0.7300
1568.510589 0.7300 0.7280 0.7270 0.7230 0.7180
1575.273934 0.7180 0.7160 0.7130 0.7030 0.7000
1582.037279 0.6979 0.6880 0.6810 0.6690 0.6590
1588.800624 0.6490 0.6380 0.6250 0.6150 0.6000
1595.563969 0.5879 0.5760 0.5670 0.5610 0.5500
1602.327313 0.5420 0.5300 0.5220 0.5100 0.4960
1609.090658 0.4890 0.4880 0.4910 0.4980 0.5111
1615.854003 0.5380 0.5500 0.5610 0.5810 0.6029
1622.617348 0.6181 0.6281 0.6421 0.6610 0.6740
1629.380693 0.6840 0.6930 0.7000 0.7110 0.7130
1636.144038 0.7160 0.7200 0.7220 0.7270 0.7280
1642.907382 0.7300 0.7330 0.7350 0.7370 0.7380
1649.670727 0.7400 0.7470 0.7490 0.7500 0.7520
1656.434072 0.7520 0.7540 0.7550 0.7570 0.7590
1663.197417 0.7590 0.7610 0.7610 0.7610 0.7620
1669.960762 0.7620 0.7620 0.7640 0.7640 0.7660
1676.724107 0.7670 0.7690 0.7690 0.7690 0.7710
1683.487452 0.7710 0.7720 0.7720 0.7720 0.7720
1690.250796 0.7740 0.7740 0.7760 0.7760 0.7770
1697.014141 0.7770 0.7790 0.7790 0.7760 0.7760
1703.777486 0.7760 0.7760 0.7760 0.7770 0.7770
1710.540831 0.7770 0.7790 0.7790 0.7810 0.7810
1717.304176 0.7810 0.7810 0.7810 0.7810 0.7810
1724.067521 0.7830 0.7840 0.7840 0.7860 0.7880
1730.830865 0.7880 0.7890 0.7890 0.7910 0.7910
1737.594210 0.7910 0.7910 0.7910 0.7910 0.7890
1744.357555 0.7890 0.7890 0.7890 0.7890 0.7890
1751.120900 0.7890 0.7890 0.7890 0.7890 0.7890
1757.884245 0.7890 0.7890 0.7890 0.7910 0.7910
1764.647590 0.7910 0.7910 0.7910 0.7910 0.7910
1771.410935 0.7910 0.7890 0.7890 0.7880 0.7880
1778.174279 0.7880 0.7880 0.7880 0.7880 0.7880
1784.937624 0.7880 0.7880 0.7880 0.7880 0.7890
1791.700969 0.7890 0.7890 0.7890 0.7890 0.7890
1798.464314 0.7890 0.7890 0.7910 0.7930 0.7910
1805.227659 0.7910 0.7910 0.7890 0.7890 0.7890
1811.991004 0.7890 0.7890 0.7880 0.7880 0.7880
1818.754349 0.7880 0.7880 0.7860 0.7860 0.7880
1825.517693 0.7880 0.7880 0.7880 0.7880 0.7880
1832.281038 0.7880 0.7880 0.7880 0.7880 0.7880
1839.044383 0.7880 0.7890 0.7890 0.7890 0.7890
1845.807728 0.7890 0.7910 0.7910 0.7910 0.7910
1852.571073 0.7910 0.7910 0.7910 0.7910 0.7930
1859.334418 0.7910 0.7910 0.7910 0.7910 0.7910
1866.097762 0.7910 0.7910 0.7910 0.7890 0.7910
1872.861107 0.7910 0.7910 0.7910 0.7910 0.7930
1879.624452 0.7930 0.7910 0.7910 0.7930 0.7930
1886.387797 0.7910 0.7890 0.7890 0.7890 0.7880
1893.151142 0.7860 0.7860 0.7840 0.7840 0.7840
1899.914487 0.7840 0.7830 0.7830 0.7830 0.7830
1906.677832 0.7810 0.7810 0.7810 0.7810 0.7790
1913.441176 0.7790 0.7760 0.7740 0.7720 0.7710
1920.204521 0.7710 0.7710 0.7690 0.7690 0.7690
1926.967866 0.7670 0.7670 0.7690 0.7690 0.7690
1933.731211 0.7690 0.7690 0.7690 0.7690 0.7690
1940.494556 0.7690 0.7670 0.7670 0.7670 0.7660
1947.257901 0.7620 0.7620 0.7610 0.7610 0.7610
1954.021246 0.7590 0.7590 0.7590 0.7590 0.7590
1960.784590 0.7590 0.7570 0.7570 0.7570 0.7570
1967.547935 0.7550 0.7540 0.7540 0.7520 0.7520
1974.311280 0.7520 0.7520 0.7540 0.7550 0.7550
1981.074625 0.7550 0.7570 0.7570 0.7570 0.7590
1987.837970 0.7590 0.7590 0.7610 0.7610 0.7620
1994.601315 0.7640 0.7660 0.7670 0.7670 0.7690
2001.364659 0.7690 0.7690 0.7690 0.7690 0.7690
2008.128004 0.7690 0.7690 0.7690 0.7690 0.7690
2014.891349 0.7680 0.7670 0.7665 0.7660 0.7650
2021.654694 0.7640 0.7630 0.7620 0.7605 0.7590
2028.418039 0.7590 0.7590 0.7580 0.7570 0.7570
2035.181384 0.7570 0.7570 0.7570 0.7555 0.7540
2041.944729 0.7540 0.7540 0.7530 0.7520 0.7510
2048.708073 0.7500 0.7495 0.7489 0.7454 0.7419
2055.471418 0.7399 0.7380 0.7375 0.7370 0.7360
2062.234763 0.7350 0.7350 0.7350 0.7340 0.7330
2068.998108 0.7330 0.7330 0.7325 0.7319 0.7299
2075.761453 0.7279 0.7264 0.7249 0.7234 0.7219
2082.524798 0.7199 0.7179 0.7164 0.7149 0.7129
2089.288142 0.7107 0.7057 0.7010 0.7010 0.7012
2096.051487 0.7037 0.7061 0.7081 0.7100 0.7105
2102.814832 0.7111 0.7131 0.7150 0.7150 0.7150
2109.578177 0.7155 0.7160 0.7160 0.7160 0.7160
2116.341522 0.7160 0.7160 0.7160 0.7160 0.7160
2123.104867 0.7160 0.7160 0.7160 0.7160 0.7160
2129.868212 0.7160 0.7155 0.7150 0.7150 0.7149
2136.631556 0.7139 0.7130 0.7130 0.7129 0.7119
2143.394901 0.7110 0.7110 0.7111 0.7121 0.7130
2150.158246 0.7130 0.7128 0.7113 0.7097 0.7062
2156.921591 0.7029 0.7019 0.7010 0.7010 0.7008
2163.684936 0.6993 0.6974 0.6924 0.6879 0.6869
2170.448281 0.6856 0.6821 0.6789 0.6779 0.6767
2177.211626 0.6742 0.6717 0.6692 0.6664 0.6614
2183.974970 0.6567 0.6542 0.6519 0.6509 0.6496
2190.738315 0.6471 0.6449 0.6444 0.6435 0.6400
2197.501660 0.6367 0.6347 0.6326 0.6301 0.6276
2204.265005 0.6251 0.6229 0.6224 0.6220 0.6220
2211.028350 0.6220 0.6220 0.6219 0.6208 0.6200
2217.791695 0.6200 0.6198 0.6188 0.6180 0.6180
2224.555039 0.6178 0.6168 0.6159 0.6154 0.6143
2231.318384 0.6098 0.6056 0.6031 0.6008 0.5993
2238.081729 0.5977 0.5957 0.5938 0.5922 0.5908
2244.845074 0.5898 0.5889 0.5884 0.5880 0.5880
2251.608419 0.5880 0.5880 0.5880 0.5880 0.5878
2258.371764 0.5868 0.5858 0.5848 0.5839 0.5834
2265.135109 0.5828 0.5818 0.5804 0.5768 0.5738
2271.898453 0.5728 0.5719 0.5714 0.5708 0.5698
2278.661798 0.5688 0.5678 0.5667 0.5652 0.5638
2285.425143 0.5628 0.5617 0.5602 0.5588 0.5578
2292.188488 0.5570 0.5570 0.5567 0.5552 0.5538
2298.951833 0.5528 0.5518 0.5508 0.5499 0.5494
2305.715178 0.5482 0.5447 0.5418 0.5408 0.5397
2312.478522 0.5382 0.5365 0.5340 0.5318 0.5308
2319.241867 0.5292 0.5257 0.5229 0.5224 0.5218
2326.005212 0.5208 0.5195 0.5175 0.5156 0.5141
2332.768557 0.5126 0.5111 0.5095 0.5075 0.5060
2339.531902 0.5060 0.5056 0.5041 0.5028 0.5018
2346.295247 0.5001 0.4961 0.4925 0.4905 0.4877
2353.058592 0.4827 0.4780 0.4740 0.4701 0.4666
2359.821936 0.4631 0.4596 0.4561 0.4526 0.4494
2366.585281 0.4469 0.4441 0.4406 0.4376 0.4361
2373.348626 0.4335 0.4275 0.4229 0.4224 0.4204
2380.111971 0.4150 0.4106 0.4091 0.4069 0.4029
2386.875316 0.3997 0.3987 0.3980 0.3980 0.3983
2393.638661 0.3993 0.4004 0.4019 0.4037 0.4062
2400.402006 0.4084 0.4099 0.4113 0.4123 0.4135
2407.165350 0.4149 0.4160 0.4160 0.4153 0.4128
2413.928695 0.4110 0.4110 0.4095 0.4045 0.4010
2420.692040 0.4010 0.3991 0.3926 0.3870 0.3835
2427.455385 0.3797 0.3752 0.3704 0.3648 0.3599
2434.218730 0.3564 0.3532 0.3507 0.3472 0.3417
2440.982075 0.3359 0.3294 0.3226 0.3151 0.3089
2447.745419 0.3054 0.3019 0.2984 0.2957 0.2947
2454.508764 0.2940 0.2940 0.2943 0.2953 0.2969
2461.272109 0.2993 0.3018 0.3043 0.3072 0.3107
2468.035454 0.3154 0.3224 0.3295 0.3370 0.3440
2474.798799 0.3500 0.3562 0.3627 0.3687 0.3737
2481.562144 0.3780 0.3810 0.3835 0.3850 0.3860
2488.325489 0.3860 0.3860 0.3860 0.3833 0.3758
2495.088833 0.3706 0.3696 0.3685 0.3670 0.3641
2501.852178 0.3586 0.3536 0.3496 0.3452 0.3402
2508.615523 0.3352 0.3302 0.3261 0.3236 0.3197
2515.378868 0.3137 0.3087 0.3052 0.3026 0.3016
2522.142213 0.2987 0.2927 0.2888 0.2883 0.2876
2528.905558 0.2866 0.2860 0.2860 0.2860 0.2860
2535.668902 0.2860 0.2860 0.2860 0.2860 0.2864
2542.432247 0.2874 0.2880 0.2880 0.2880 0.2880
2549.195592 0.2882 0.2887 0.2898 0.2918 0.2946
2555.958937 0.2986 0.3014 0.3024 0.3054 0.3113
2562.722282 0.3164 0.3199 0.3240 0.3290 0.3345
2569.485627 0.3405 0.3461 0.3511 0.3555 0.3590
2576.248972 0.3631 0.3681 0.3716 0.3731 0.3746
2583.012316 0.3761 0.3774 0.3784 0.3790 0.3790
2589.775661 0.3786 0.3776 0.3770 0.3770 0.3757
2596.539006 0.3727 0.3701 0.3681 0.3668 0.3663
2603.302351 0.3651 0.3631 0.3614 0.3599 0.3579
2610.065696 0.3554 0.3531 0.3511 0.3487 0.3457
2616.829041 0.3436 0.3426 0.3416 0.3406 0.3389
2623.592386 0.3364 0.3339 0.3314 0.3293 0.3278
2630.355730 0.3265 0.3255 0.3243 0.3228 0.3215
2637.119075 0.3205 0.3189 0.3164 0.3141 0.3121
2643.882420 0.3099 0.3074 0.3049 0.3023 0.2991
2650.645765 0.2951 0.2921 0.2901 0.2878 0.2853
2657.409110 0.2828 0.2803 0.2785 0.2775 0.2768
2664.172455 0.2763 0.2762 0.2767 0.2775 0.2785
2670.935799 0.2795 0.2805 0.2815 0.2825 0.2832
2677.699144 0.2837 0.2845 0.2855 0.2865 0.2875
2684.462489 0.2880 0.2880 0.2875 0.2865 0.2855
2691.225834 0.2845 0.2833 0.2818 0.2805 0.2795
2697.989179 0.2783 0.2768 0.2743 0.2707 0.2682
2704.752524 0.2667 0.2647 0.2622 0.2605 0.2595
2711.515869 0.2580 0.2560 0.2547 0.2542 0.2535
2718.279213 0.2525 0.2520 0.2520 0.2525 0.2535
2725.042558 0.2540 0.2540 0.2543 0.2548 0.2550
2731.805903 0.2550 0.2555 0.2565 0.2575 0.2585
2738.569248 0.2590 0.2590 0.2585 0.2575 0.2570
2745.332593 0.2570 0.2565 0.2555 0.2547 0.2542
2752.095938 0.2535 0.2525 0.2520 0.2520 0.2520
2758.859283 0.2520 0.2526 0.2536 0.2543 0.2548
2765.622627 0.2556 0.2566 0.2570 0.2570 0.2575
2772.385972 0.2585 0.2595 0.2605 0.2610 0.2610
2779.149317 0.2618 0.2633 0.2654 0.2679 0.2704
2785.912662 0.2729 0.2749 0.2764 0.2776 0.2786
2792.676007 0.2801 0.2821 0.2839 0.2854 0.2866
2799.439352 0.2876 0.2883 0.2888 0.2890 0.2890
2806.202696 0.2887 0.2882 0.2880 0.2880 0.2865
2812.966041 0.2840 0.2809 0.2774 0.2754 0.2744
2819.729386 0.2719 0.2684 0.2655 0.2630 0.2611
2826.492731 0.2596 0.2575 0.2550 0.2534 0.2524
2833.256076 0.2514 0.2504 0.2482 0.2452 0.2422
2840.019421 0.2392 0.2362 0.2332 0.2293 0.2248
2846.782766 0.2178 0.2093 0.2030 0.1980 0.1908
2853.546110 0.1823 0.1717 0.1597 0.1532 0.1502
2860.309455 0.1484 0.1474 0.1476 0.1486 0.1531
2867.072800 0.1596 0.1658 0.1718 0.1794 0.1879
2873.836145 0.1957 0.2032 0.2110 0.2190 0.2270
2880.599490 0.2350 0.2414 0.2469 0.2499 0.2514
2887.362835 0.2520 0.2520 0.2514 0.2504 0.2497
2894.126179 0.2492 0.2461 0.2416 0.2368 0.2318
2900.889524 0.2274 0.2234 0.2184 0.2129 0.2084
2907.652869 0.2044 0.2020 0.2005 0.1955 0.1885
2914.416214 0.1828 0.1778 0.1727 0.1677 0.1643
2921.179559 0.1618 0.1570 0.1510 0.1460 0.1415
2927.942904 0.1377 0.1342 0.1327 0.1322 0.1313
2934.706249 0.1303 0.1307 0.1317 0.1323 0.1328
2941.469593 0.1343 0.1363 0.1397 0.1437 0.1467
2948.232938 0.1492 0.1541 0.1601 0.1654 0.1704
2954.996283 0.1751 0.1796 0.1879 0.1979 0.2127
2961.759628 0.2297 0.2466 0.2636 0.2765 0.2875
2968.522973 0.2978 0.3078 0.3176 0.3272 0.3325
2975.286318 0.3360 0.3413 0.3473 0.3508 0.3533
2982.049663 0.3544 0.3549 0.3539 0.3524 0.3513
2988.813007 0.3503 0.3496 0.3491 0.3448 0.3388
2995.576352 0.3345 0.3310 0.3250 0.3179 0.3142
3002.339697 0.3117 0.3106 0.3101 0.3067 0.3022
3009.103042 0.2999 0.2984 0.2973 0.2963 0.2967
3015.866387 0.2977 0.3009 0.3049 0.3078 0.3103
3022.629732 0.3124 0.3144 0.3161 0.3176 0.3217
3029.393076 0.3267 0.3317 0.3367 0.3432 0.3502
3036.156421 0.3554 0.3599 0.3651 0.3706 0.3791
3042.919766 0.3886 0.3947 0.3997 0.4055 0.4115
3049.683111 0.4186 0.4261 0.4299 0.4324 0.4372
3056.446456 0.4427 0.4463 0.4493 0.4554 0.4624
3063.209801 0.4690 0.4755 0.4812 0.4867 0.4918
3069.973146 0.4968 0.4991 0.5006 0.5029 0.5054
3076.736490 0.5121 0.5201 0.5251 0.5291 0.5355
3083.499835 0.5425 0.5464 0.5494 0.5528 0.5563
3090.263180 0.5617 0.5677 0.5729 0.5779 0.5837
3097.026525 0.5897 0.5949 0.5999 0.6037 0.6072
3103.789870 0.6107 0.6142 0.6178 0.6213 0.6272
3110.553215 0.6337 0.6358 0.6368 0.6382 0.6397
3117.316559 0.6440 0.6490 0.6528 0.6563 0.6606
3124.079904 0.6651 0.6664 0.6669 0.6670 0.6670
3130.843249 0.6718 0.6778 0.6806 0.6826 0.6851
3137.606594 0.6876 0.6880 0.6880 0.6872 0.6862
3144.369939 0.6860 0.6860 0.6872 0.6887 0.6906
3151.133284 0.6926 0.6934 0.6939 0.6948 0.6958
3157.896629 0.6968 0.6978 0.6980 0.6980 0.6988
3164.659973 0.6998 0.7000 0.7000 0.7000 0.7000
3171.423318 0.7004 0.7009 0.7010 0.7010 0.7018
3178.186663 0.7028 0.7030 0.7030 0.7030 0.7030
3184.950008 0.7030 0.7030 0.7030 0.7030 0.7030
3191.713353 0.7030 0.7039 0.7049 0.7050 0.7050
3198.476698 0.7054 0.7059 0.7069 0.7079 0.7080
3205.240043 0.7080 0.7080 0.7080 0.7089 0.7099
3212.003387 0.7100 0.7100 0.7100 0.7100 0.7104
3218.766732 0.7109 0.7119 0.7129 0.7130 0.7130
3225.530077 0.7139 0.7149 0.7150 0.7150 0.7150
3232.293422 0.7150 0.7154 0.7159 0.7160 0.7160
3239.056767 0.7169 0.7179 0.7180 0.7180 0.7180
3245.820112 0.7180 0.7180 0.7180 0.7180 0.7180
3252.583456 0.7180 0.7180 0.7189 0.7199 0.7200
3259.346801 0.7200 0.7200 0.7200 0.7200 0.7200
3266.110146 0.7200 0.7200 0.7200 0.7200 0.7200
3272.873491 0.7200 0.7191 0.7181 0.7180 0.7180
3279.636836 0.7180 0.7180 0.7180 0.7180 0.7180
3286.400181 0.7180 0.7180 0.7180 0.7180 0.7180
3293.163526 0.7180 0.7180 0.7180 0.7180 0.7180
3299.926870 0.7180 0.7171 0.7161 0.7160 0.7160
3306.690215 0.7155 0.7150 0.7150 0.7150 0.7150
3313.453560 0.7150 0.7150 0.7150 0.7141 0.7131
3320.216905 0.7130 0.7130 0.7130 0.7130 0.7130
3326.980250 0.7130 0.7130 0.7130 0.7120 0.7110
3333.743595 0.7105 0.7100 0.7100 0.7100 0.7090
3340.506939 0.7080 0.7080 0.7080 0.7080 0.7080
3347.270284 0.7070 0.7060 0.7060 0.7060 0.7060
3354.033629 0.7060 0.7060 0.7060 0.7055 0.7050
3360.796974 0.7050 0.7050 0.7050 0.7050 0.7050
3367.560319 0.7050 0.7040 0.7030 0.7030 0.7030
3374.323664 0.7030 0.7030 0.7030 0.7030 0.7030
3381.087009 0.7030 0.7030 0.7030 0.7030 0.7030
3387.850353 0.7030 0.7030 0.7030 0.7030 0.7030
3394.613698 0.7030 0.7030 0.7030 0.7030 0.7030
3401.377043 0.7030 0.7030 0.7030 0.7030 0.7030
3408.140388 0.7030 0.7030 0.7030 0.7030 0.7030
3414.903733 0.7030 0.7030 0.7030 0.7030 0.7030
3421.667078 0.7030 0.7030 0.7030 0.7030 0.7030
3428.430423 0.7040 0.7050 0.7040 0.7030 0.7030
3435.193767 0.7030 0.7030 0.7030 0.7030 0.7030
3441.957112 0.7030 0.7030 0.7040 0.7050 0.7050
3448.720457 0.7050 0.7050 0.7050 0.7050 0.7050
3455.483802 0.7050 0.7050 0.7050 0.7050 0.7050
3462.247147 0.7050 0.7050 0.7050 0.7050 0.7050
3469.010492 0.7050 0.7050 0.7050 0.7049 0.7039
3475.773836 0.7030 0.7030 0.7029 0.7019 0.7010
3482.537181 0.7010 0.7011 0.7021 0.7031 0.7041
3489.300526 0.7050 0.7050 0.7050 0.7050 0.7050
3496.063871 0.7050 0.7050 0.7050 0.7050 0.7050
3502.827216 0.7050 0.7050 0.7050 0.7050 0.7050
3509.590561 0.7050 0.7050 0.7050 0.7050 0.7050
3516.353906 0.7050 0.7055 0.7060 0.7060 0.7060
3523.117250 0.7060 0.7060 0.7060 0.7060 0.7060
3529.880595 0.7060 0.7060 0.7060 0.7060 0.7060
3536.643940 0.7060 0.7060 0.7060 0.7060 0.7060
3543.407285 0.7060 0.7060 0.7060 0.7060 0.7060
3550.170630 0.7060 0.7060 0.7060 0.7060 0.7060
3556.933975 0.7061 0.7071 0.7080 0.7080 0.7080
3563.697319 0.7080 0.7079 0.7069 0.7060 0.7060
3570.460664 0.7060 0.7060 0.7060 0.7060 0.7060
3577.224009 0.7060 0.7060 0.7060 0.7060 0.7060
3583.987354 0.7061 0.7071 0.7080 0.7080 0.7079
3590.750699 0.7069 0.7060 0.7060 0.7060 0.7060
3597.514044 0.7059 0.7054 0.7050 0.7050 0.7052
3604.277389 0.7067 0.7080 0.7080 0.7080 0.7080
3611.040733 0.7078 0.7068 0.7060 0.7060 0.7059
3617.804078 0.7054 0.7050 0.7050 0.7050 0.7050
3624.567423 0.7050 0.7050 0.7050 0.7050 0.7048
3631.330768 0.7038 0.7030 0.7030 0.7030 0.7030
3638.094113 0.7030 0.7030 0.7030 0.7030 0.7030
3644.857458 0.7030 0.7028 0.7018 0.7009 0.7004
3651.620803 0.7000 0.7000 0.7000 0.7000 0.7000
3658.384147 0.7000 0.7001 0.7006 0.7010 0.7010
3665.147492 0.7012 0.7022 0.7030 0.7030 0.7030
3671.910837 0.7030 0.7028 0.7018 0.7010 0.7010
3678.674182 0.7010 0.7010 0.7010 0.7010 0.7009
3685.437527 0.7004 0.7000 0.7000 0.6998 0.6988
3692.200872 0.6978 0.6968 0.6960 0.6960 0.6958
3698.964216 0.6948 0.6940 0.6940 0.6940 0.6940
3705.727561 0.6940 0.6940 0.6940 0.6940 0.6940
3712.490906 0.6940 0.6939 0.6934 0.6930 0.6930
3719.254251 0.6930 0.6930 0.6930 0.6930 0.6928
3726.017596 0.6918 0.6910 0.6910 0.6913 0.6923
3732.780941 0.6931 0.6936 0.6940 0.6940 0.6940
3739.544286 0.6940 0.6940 0.6940 0.6939 0.6934
3746.307630 0.6930 0.6930 0.6928 0.6918 0.6908
3753.070975 0.6898 0.6889 0.6884 0.6880 0.6880
3759.834320 0.6880 0.6880 0.6877 0.6867 0.6857
3766.597665 0.6847 0.6840 0.6840 0.6839 0.6834
3773.361010 0.6830 0.6830 0.6830 0.6830 0.6827
3780.124355 0.6817 0.6810 0.6810 0.6810 0.6810
3786.887700 0.6813 0.6823 0.6831 0.6836 0.6840
3793.651044 0.6840 0.6840 0.6840 0.6843 0.6853
3800.414389 0.6860 0.6860 0.6856 0.6841 0.6827
3807.177734 0.6817 0.6810 0.6810 0.6810 0.6810
3813.941079 0.6813 0.6823 0.6830 0.6830 0.6827
3820.704424 0.6817 0.6807 0.6797 0.6787 0.6777
3827.467769 0.6770 0.6770 0.6773 0.6783 0.6790
3834.231113 0.6790 0.6787 0.6777 0.6770 0.6770
3840.994458 0.6770 0.6770 0.6770 0.6770 0.6773
3847.757803 0.6783 0.6787 0.6777 0.6770 0.6770
3854.521148 0.6770 0.6770 0.6770 0.6770 0.6770
3861.284493 0.6770 0.6770 0.6770 0.6770 0.6770
3868.047838 0.6770 0.6770 0.6768 0.6763 0.6760
3874.811183 0.6760 0.6760 0.6760 0.6760 0.6760
3881.574527 0.6760 0.6760 0.6760 0.6760 0.6757
3888.337872 0.6747 0.6740 0.6740 0.6740 0.6740
##END=
