##TITLE=Thiadiazole-3-carboxanilide, 1,2,5-, 4-ureido-
##JCAMP-DX=4.24
##DATA TYPE=INFRARED SPECTRUM
##CLASS=COBLENTZ III
##ORIGIN=SOUTHERN RESEARCH INSTITUTE
##OWNER=Copyright (C) 1987 by the Coblentz Society
Collection (C) 2018 copyright by the U.S. Secretary of Commerce
on behalf of the United States of America. All rights reserved.
##DATE=1962/08/21
##NAMES=4-[(aminocarbonyl)amino]-N-phenyl-1,2,5-thiadiazole-3-carboxamide
##MOLFORM=C10 H9 N5 O2 S
##SOURCE REFERENCE=COBLENTZ NO. 8670
##$NIST ID=B6008670
##$NIST SOURCE=COBLENTZ
##$NIST IMAGE=cob8670
##SPECTROMETER/DATA SYSTEM=PERKIN-ELMER 221 (GRATING)
##INSTRUMENT PARAMETERS=FILTER AT 2490, 980 CM^-^1. GRATING 4000-1428 CM^-^1, NaCl PRISM 1428-650 CM^-^1
##STATE=SOLID (1 mg / 650 mg KBr DISC)
##SAMPLING PROCEDURE=TRANSMISSION
##RESOLUTION=2
##DATA PROCESSING=DIGITIZED BY COBLENTZ SOCIETY (BATCH II) FROM HARD COPY (ADJUSTED \addcm-1\10-8-2\)
##XUNITS=1/CM
##YUNITS=TRANSMITTANCE
##XFACTOR=1.0
##YFACTOR=1
##DELTAX=1.003577
##FIRSTX=646
##LASTX=4012
##FIRSTY=0.8518
##MAXX=4012
##MINX=646
##MAXY=0.990015
##MINY=0.175825
##NPOINTS=3355
##XYDATA=(X++(Y..Y))
646.000000 0.8518 0.8449 0.8419 0.8400 0.8384
651.017884 0.8370 0.8358 0.8291 0.8339 0.8329
656.035768 0.8319 0.8316 0.8313 0.8311 0.8309
661.053651 0.8312 0.8322 0.8333 0.8345 0.8363
666.071535 0.8382 0.8412 0.8448 0.8478 0.8509
671.089419 0.8542 0.8567 0.8567 0.8568 0.8562
676.107303 0.8552 0.8543 0.8534 0.8526 0.8517
681.125186 0.8509 0.8498 0.8481 0.8439 0.8348
686.143070 0.8257 0.8191 0.8110 0.8014 0.7924
691.160954 0.7825 0.7726 0.7680 0.7649 0.7582
696.178838 0.7268 0.6722 0.6175 0.5628 0.5081
701.196721 0.4626 0.4560 0.4540 0.4531 0.4544
706.214605 0.4725 0.5524 0.6324 0.7123 0.7752
711.232489 0.7797 0.7812 0.7822 0.7825 0.7812
716.250373 0.7786 0.7805 0.7790 0.7756 0.7686
721.268256 0.7597 0.7509 0.7420 0.7331 0.7243
726.286140 0.7154 0.7066 0.6973 0.6892 0.6864
731.304024 0.6846 0.6836 0.6866 0.6921 0.7012
736.321908 0.7102 0.7193 0.7284 0.7374 0.7465
741.339791 0.7556 0.7646 0.7737 0.7819 0.7868
746.357675 0.7891 0.7903 0.7881 0.7881 0.7876
751.375559 0.7856 0.7794 0.7585 0.7207 0.6829
756.393443 0.6452 0.6075 0.5697 0.5320 0.4942
761.411326 0.4645 0.4543 0.4534 0.4950 0.5763
766.429210 0.6273 0.6784 0.7342 0.7723 0.7806
771.447094 0.7905 0.8021 0.8143 0.8259 0.8378
776.464978 0.8491 0.8574 0.8635 0.8686 0.8720
781.482861 0.8743 0.8756 0.8768 0.8784 0.8786
786.500745 0.8776 0.8773 0.8769 0.8757 0.8738
791.518629 0.8719 0.8700 0.8659 0.8583 0.8495
796.536513 0.8406 0.8317 0.8261 0.8256 0.8309
801.554396 0.8402 0.8504 0.8606 0.8707 0.8794
806.572280 0.8804 0.8773 0.8747 0.8714 0.8673
811.590164 0.8622 0.8552 0.8469 0.8353 0.8048
816.608048 0.7629 0.7210 0.6791 0.6567 0.6508
821.625931 0.6697 0.7083 0.7506 0.7930 0.8354
826.643815 0.8720 0.8842 0.8843 0.8837 0.8833
831.661699 0.8825 0.8813 0.8798 0.8780 0.8725
836.679583 0.8588 0.8422 0.8256 0.8090 0.7924
841.697466 0.7758 0.7592 0.7426 0.7259 0.7106
846.715350 0.7066 0.7203 0.7512 0.7869 0.8226
851.733234 0.8583 0.8940 0.9077 0.9093 0.9082
856.751118 0.9090 0.9094 0.9094 0.9095 0.9095
861.769001 0.9093 0.9091 0.9089 0.9086 0.9083
866.786885 0.9080 0.9077 0.9073 0.9068 0.9064
871.804769 0.9060 0.9056 0.9052 0.9048 0.9044
876.822653 0.9040 0.9036 0.9030 0.9022 0.9015
881.840537 0.9007 0.9000 0.8992 0.8985 0.8978
886.858420 0.8971 0.8964 0.8957 0.8950 0.8943
891.876304 0.8936 0.8928 0.8920 0.8911 0.8903
896.894188 0.8895 0.8887 0.8875 0.8862 0.8848
901.912072 0.8835 0.8821 0.8808 0.8734 0.8621
906.929955 0.8506 0.8390 0.8304 0.8259 0.8239
911.947839 0.8279 0.8380 0.8484 0.8589 0.8693
916.965723 0.8763 0.8762 0.8762 0.8759 0.8704
921.983607 0.8631 0.8557 0.8484 0.8409 0.8382
927.001490 0.8351 0.8379 0.8477 0.8574 0.8672
932.019374 0.8768 0.8835 0.8856 0.8875 0.8894
937.037258 0.8909 0.8923 0.8936 0.8944 0.8952
942.055142 0.8957 0.8959 0.8961 0.8960 0.8956
947.073025 0.8953 0.8949 0.8946 0.8942 0.8939
952.090909 0.8935 0.8931 0.8927 0.8921 0.8916
957.108793 0.8908 0.8899 0.8891 0.8880 0.8866
962.126677 0.8851 0.8835 0.8818 0.8801 0.8786
967.144560 0.8795 0.8810 0.8826 0.8843 0.8864
972.162444 0.8887 0.8909 0.8931 0.8955 0.8975
977.180328 0.8988 0.8999 0.9004 0.9003 0.8962
982.198212 0.8824 0.8685 0.8546 0.8420 0.8369
987.216095 0.8394 0.8388 0.8408 0.8434 0.8467
992.233979 0.8491 0.8514 0.8539 0.8568 0.8597
997.251863 0.8619 0.8637 0.8653 0.8667 0.8682
1002.269747 0.8696 0.8707 0.8716 0.8726 0.8734
1007.287630 0.8737 0.8739 0.8742 0.8742 0.8740
1012.305514 0.8738 0.8735 0.8732 0.8729 0.8723
1017.323398 0.8715 0.8704 0.8687 0.8660 0.8630
1022.341282 0.8598 0.8564 0.8538 0.8532 0.8532
1027.359165 0.8540 0.8547 0.8556 0.8570 0.8592
1032.377049 0.8625 0.8673 0.8711 0.8747 0.8771
1037.394933 0.8775 0.8775 0.8774 0.8772 0.8770
1042.412817 0.8766 0.8762 0.8758 0.8754 0.8750
1047.430700 0.8746 0.8741 0.8736 0.8729 0.8723
1052.448584 0.8717 0.8710 0.8704 0.8697 0.8691
1057.466468 0.8684 0.8677 0.8671 0.8664 0.8657
1062.484352 0.8651 0.8644 0.8635 0.8623 0.8608
1067.502235 0.8592 0.8575 0.8548 0.8515 0.8482
1072.520119 0.8447 0.8407 0.8364 0.8321 0.8278
1077.538003 0.8231 0.8168 0.8155 0.8392 0.8579
1082.555887 0.8587 0.8593 0.8599 0.8604 0.8605
1087.573770 0.8601 0.8596 0.8616 0.8589 0.8543
1092.591654 0.8515 0.8487 0.8459 0.8431 0.8403
1097.609538 0.8375 0.8347 0.8319 0.8291 0.8263
1102.627422 0.8235 0.8207 0.8179 0.8151 0.8123
1107.645306 0.8095 0.8067 0.8039 0.7971 0.7895
1112.663189 0.7808 0.7715 0.7641 0.7566 0.7481
1117.681073 0.7396 0.7314 0.7238 0.7169 0.7103
1122.698957 0.7023 0.6942 0.6868 0.6860 0.6864
1127.716841 0.6864 0.6865 0.6871 0.6889 0.6911
1132.734724 0.7014 0.7146 0.7278 0.7410 0.7543
1137.752608 0.7675 0.7800 0.7856 0.7888 0.7922
1142.770492 0.7988 0.8049 0.8092 0.8123 0.8139
1147.788376 0.8148 0.8151 0.8153 0.8153 0.8175
1152.806259 0.8221 0.8257 0.8287 0.8307 0.8321
1157.824143 0.8333 0.8334 0.8351 0.8336 0.8330
1162.842027 0.8327 0.8323 0.8319 0.8309 0.8299
1167.859911 0.8288 0.8272 0.8252 0.8227 0.8200
1172.877794 0.8170 0.8140 0.8120 0.8107 0.8098
1177.895678 0.8092 0.8086 0.8081 0.8068 0.8051
1182.913562 0.7957 0.7923 0.7904 0.7887 0.7876
1187.931446 0.7865 0.7842 0.7802 0.7749 0.7682
1192.949329 0.7634 0.7588 0.7544 0.7503 0.7461
1197.967213 0.7418 0.7345 0.7229 0.7188 0.7171
1202.985097 0.7155 0.7140 0.7131 0.7121 0.7112
1208.002981 0.7099 0.7086 0.6937 0.6791 0.6649
1213.020864 0.6507 0.6364 0.6222 0.6080 0.5937
1218.038748 0.5795 0.5652 0.5510 0.5368 0.5091
1223.056632 0.5030 0.5033 0.5029 0.5145 0.5401
1228.074516 0.5698 0.5995 0.6292 0.6589 0.6855
1233.092399 0.6953 0.6955 0.6984 0.6976 0.6952
1238.110283 0.6947 0.6940 0.6927 0.6908 0.6876
1243.128167 0.6767 0.6592 0.6416 0.6240 0.6064
1248.146051 0.5752 0.5532 0.5570 0.5522 0.5621
1253.163934 0.5842 0.6063 0.6283 0.6504 0.6724
1258.181818 0.6945 0.7165 0.7386 0.7584 0.7721
1263.199702 0.7822 0.7909 0.8076 0.8165 0.8207
1268.217586 0.8235 0.8257 0.8280 0.8290 0.8292
1273.235469 0.8294 0.8294 0.8293 0.8290 0.8281
1278.253353 0.8271 0.8261 0.8248 0.8235 0.8222
1283.271237 0.8209 0.8185 0.8155 0.8127 0.8098
1288.289121 0.8071 0.8044 0.8017 0.7990 0.7964
1293.307004 0.7937 0.7904 0.7869 0.7835 0.7801
1298.324888 0.7766 0.7726 0.7677 0.7644 0.7616
1303.342772 0.7595 0.7582 0.7574 0.7566 0.7558
1308.360656 0.7551 0.7520 0.7478 0.7422 0.7353
1313.378539 0.7283 0.7228 0.7180 0.7131 0.7087
1318.396423 0.7052 0.7020 0.6987 0.6962 0.6946
1323.414307 0.6936 0.6930 0.6926 0.6921 0.6916
1328.432191 0.6911 0.6906 0.6901 0.6897 0.6871
1333.450075 0.6819 0.6765 0.6708 0.6652 0.6599
1338.467958 0.6546 0.6489 0.6425 0.6347 0.6263
1343.485842 0.6180 0.6098 0.6015 0.5932 0.5850
1348.503726 0.5768 0.5688 0.5639 0.5652 0.5680
1353.521610 0.5734 0.5873 0.6011 0.6136 0.6197
1358.539493 0.6200 0.6196 0.6187 0.6174 0.6158
1363.557377 0.6137 0.6117 0.6098 0.6077 0.6058
1368.575261 0.6041 0.6024 0.6004 0.5984 0.5965
1373.593145 0.5948 0.5931 0.5911 0.5887 0.5863
1378.611028 0.5835 0.5798 0.5759 0.5722 0.5688
1383.628912 0.5655 0.5616 0.5557 0.5496 0.5416
1388.646796 0.5290 0.5194 0.5106 0.5025 0.4946
1393.664680 0.4853 0.4753 0.4641 0.4510 0.4385
1398.682563 0.4277 0.4177 0.4111 0.4091 0.4093
1403.700447 0.4073 0.4163 0.4434 0.4765 0.5096
1408.718331 0.5427 0.5595 0.5600 0.5486 0.6686
1413.736215 0.7520 0.7530 0.7532 0.7531 0.7513
1418.754098 0.7508 0.7512 0.7498 0.7481 0.7460
1423.771982 0.7432 0.7398 0.7360 0.7320 0.7249
1428.789866 0.7125 0.6980 0.6835 0.6690 0.6545
1433.807750 0.6347 0.6176 0.6160 0.6187 0.6372
1438.825633 0.6701 0.7029 0.7357 0.7685 0.7908
1443.843517 0.7900 0.7888 0.7865 0.7716 0.7545
1448.861401 0.7374 0.7238 0.7217 0.7234 0.7247
1453.879285 0.7259 0.7264 0.7262 0.7246 0.7276
1458.897168 0.7276 0.7273 0.7264 0.7255 0.7244
1463.915052 0.7225 0.7204 0.7171 0.7122 0.7047
1468.932936 0.6919 0.6810 0.6717 0.6601 0.6561
1473.950820 0.6520 0.6483 0.6451 0.6420 0.6376
1478.968703 0.6319 0.6115 0.5976 0.5887 0.5802
1483.986587 0.5715 0.5627 0.5297 0.4751 0.4548
1489.004471 0.4443 0.4367 0.4329 0.4316 0.4312
1494.022355 0.4315 0.4321 0.4432 0.4588 0.4693
1499.040238 0.4710 0.4703 0.4685 0.4638 0.4583
1504.058122 0.4528 0.4473 0.4419 0.4364 0.4309
1509.076006 0.4254 0.4199 0.4144 0.4089 0.4035
1514.093890 0.3951 0.3892 0.3880 0.3885 0.3898
1519.111773 0.3917 0.3943 0.3981 0.4027 0.4069
1524.129657 0.4096 0.4107 0.4113 0.4109 0.4098
1529.147541 0.4078 0.4047 0.4016 0.3987 0.3955
1534.165425 0.3919 0.3876 0.3821 0.3749 0.3657
1539.183308 0.3526 0.3360 0.3280 0.3306 0.3306
1544.201192 0.3309 0.3315 0.3324 0.3339 0.3814
1549.219076 0.4882 0.4940 0.4986 0.5029 0.5077
1554.236960 0.5137 0.5231 0.5376 0.5466 0.5494
1559.254844 0.5501 0.5493 0.5507 0.5500 0.5448
1564.272727 0.5173 0.4879 0.4585 0.4291 0.3997
1569.290611 0.3702 0.3412 0.3186 0.3150 0.3080
1574.308495 0.3039 0.3006 0.3030 0.3040 0.3056
1579.326379 0.3161 0.3414 0.3667 0.3920 0.4173
1584.344262 0.4426 0.4679 0.4932 0.5185 0.5358
1589.362146 0.5412 0.5449 0.5473 0.5488 0.5498
1594.380030 0.5504 0.5503 0.5502 0.5462 0.5486
1599.397914 0.5486 0.5475 0.5463 0.5452 0.5440
1604.415797 0.5426 0.5413 0.5400 0.5385 0.5369
1609.433681 0.5353 0.5332 0.5305 0.5277 0.5251
1614.451565 0.5225 0.5197 0.5168 0.5129 0.5080
1619.469449 0.5028 0.4978 0.4931 0.4857 0.4761
1624.487332 0.4660 0.4560 0.4464 0.4326 0.4188
1629.505216 0.4032 0.3821 0.3599 0.3378 0.3157
1634.523100 0.2935 0.2713 0.2492 0.2271 0.2049
1639.540984 0.1874 0.1799 0.1782 0.1777 0.1780
1644.558867 0.1765 0.1758 0.1801 0.1826 0.1971
1649.576751 0.2227 0.2366 0.2590 0.2850 0.3110
1654.594635 0.3370 0.3630 0.3890 0.4150 0.4410
1659.612519 0.4670 0.4930 0.5190 0.5450 0.5711
1664.630402 0.5970 0.6231 0.6490 0.6751 0.6976
1669.648286 0.7009 0.7021 0.7024 0.7020 0.6996
1674.666170 0.7006 0.6989 0.6887 0.6684 0.6481
1679.684054 0.6277 0.6074 0.5871 0.5667 0.5464
1684.701937 0.5260 0.5060 0.4988 0.4940 0.4893
1689.719821 0.4845 0.4795 0.4751 0.4673 0.4136
1694.737705 0.3503 0.2864 0.2282 0.2176 0.2156
1699.755589 0.2124 0.2144 0.2153 0.2177 0.2386
1704.773472 0.2704 0.3038 0.3372 0.3708 0.4046
1709.791356 0.4383 0.4721 0.4943 0.5007 0.5048
1714.809240 0.5163 0.5322 0.5487 0.5652 0.5817
1719.827124 0.5982 0.6147 0.6312 0.6476 0.6641
1724.845007 0.6806 0.6971 0.7136 0.7301 0.7494
1729.862891 0.7601 0.7680 0.7748 0.7812 0.7874
1734.880775 0.7932 0.7989 0.8048 0.8112 0.8177
1739.898659 0.8224 0.8268 0.8312 0.8355 0.8400
1744.916542 0.8449 0.8499 0.8550 0.8604 0.8661
1749.934426 0.8718 0.8776 0.8834 0.8893 0.8933
1754.952310 0.8968 0.9004 0.9039 0.9074 0.9108
1759.970194 0.9141 0.9174 0.9206 0.9234 0.9261
1764.988077 0.9287 0.9314 0.9341 0.9368 0.9395
1770.005961 0.9422 0.9443 0.9461 0.9479 0.9496
1775.023845 0.9513 0.9531 0.9548 0.9565 0.9579
1780.041729 0.9589 0.9599 0.9609 0.9618 0.9628
1785.059613 0.9638 0.9647 0.9654 0.9661 0.9667
1790.077496 0.9674 0.9680 0.9684 0.9687 0.9688
1795.095380 0.9689 0.9690 0.9690 0.9691 0.9691
1800.113264 0.9691 0.9692 0.9692 0.9692 0.9693
1805.131148 0.9693 0.9693 0.9694 0.9694 0.9694
1810.149031 0.9695 0.9695 0.9695 0.9696 0.9697
1815.166915 0.9698 0.9699 0.9700 0.9701 0.9705
1820.184799 0.9711 0.9718 0.9724 0.9730 0.9737
1825.202683 0.9743 0.9750 0.9757 0.9767 0.9778
1830.220566 0.9788 0.9797 0.9805 0.9813 0.9821
1835.238450 0.9829 0.9838 0.9846 0.9854 0.9863
1840.256334 0.9867 0.9868 0.9869 0.9870 0.9871
1845.274218 0.9871 0.9872 0.9873 0.9873 0.9870
1850.292101 0.9868 0.9900 0.9870 0.9860 0.9858
1855.309985 0.9855 0.9853 0.9851 0.9848 0.9846
1860.327869 0.9843 0.9840 0.9837 0.9834 0.9831
1865.345753 0.9828 0.9824 0.9821 0.9818 0.9815
1870.363636 0.9812 0.9809 0.9805 0.9801 0.9797
1875.381520 0.9793 0.9788 0.9784 0.9780 0.9776
1880.399404 0.9772 0.9768 0.9764 0.9760 0.9756
1885.417288 0.9751 0.9747 0.9743 0.9739 0.9736
1890.435171 0.9732 0.9728 0.9725 0.9721 0.9717
1895.453055 0.9714 0.9710 0.9707 0.9703 0.9699
1900.470939 0.9696 0.9692 0.9688 0.9685 0.9681
1905.488823 0.9678 0.9674 0.9670 0.9667 0.9663
1910.506706 0.9659 0.9656 0.9652 0.9649 0.9646
1915.524590 0.9643 0.9640 0.9637 0.9633 0.9630
1920.542474 0.9627 0.9624 0.9621 0.9618 0.9615
1925.560358 0.9612 0.9609 0.9605 0.9602 0.9599
1930.578241 0.9596 0.9593 0.9590 0.9587 0.9584
1935.596125 0.9581 0.9577 0.9574 0.9571 0.9568
1940.614009 0.9565 0.9562 0.9559 0.9556 0.9553
1945.631893 0.9550 0.9546 0.9543 0.9540 0.9538
1950.649776 0.9536 0.9535 0.9533 0.9532 0.9530
1955.667660 0.9529 0.9528 0.9526 0.9525 0.9523
1960.685544 0.9522 0.9520 0.9519 0.9517 0.9516
1965.703428 0.9514 0.9513 0.9511 0.9510 0.9509
1970.721311 0.9507 0.9506 0.9504 0.9503 0.9501
1975.739195 0.9500 0.9498 0.9497 0.9495 0.9494
1980.757079 0.9492 0.9491 0.9489 0.9488 0.9487
1985.774963 0.9485 0.9484 0.9483 0.9482 0.9482
1990.792846 0.9481 0.9480 0.9479 0.9478 0.9477
1995.810730 0.9476 0.9475 0.9474 0.9473 0.9472
2000.828614 0.9471 0.9470 0.9469 0.9468 0.9467
2005.846498 0.9466 0.9465 0.9464 0.9463 0.9463
2010.864382 0.9462 0.9461 0.9460 0.9459 0.9458
2015.882265 0.9457 0.9456 0.9455 0.9454 0.9453
2020.900149 0.9452 0.9451 0.9450 0.9449 0.9447
2025.918033 0.9445 0.9443 0.9441 0.9439 0.9437
2030.935917 0.9435 0.9433 0.9431 0.9429 0.9427
2035.953800 0.9425 0.9422 0.9420 0.9418 0.9416
2040.971684 0.9414 0.9412 0.9410 0.9408 0.9406
2045.989568 0.9404 0.9402 0.9400 0.9398 0.9396
2051.007452 0.9394 0.9392 0.9390 0.9388 0.9387
2056.025335 0.9385 0.9384 0.9383 0.9381 0.9380
2061.043219 0.9378 0.9377 0.9376 0.9374 0.9373
2066.061103 0.9371 0.9370 0.9369 0.9367 0.9366
2071.078987 0.9364 0.9363 0.9362 0.9360 0.9359
2076.096870 0.9357 0.9356 0.9355 0.9353 0.9352
2081.114754 0.9350 0.9349 0.9348 0.9346 0.9345
2086.132638 0.9343 0.9342 0.9341 0.9339 0.9338
2091.150522 0.9337 0.9335 0.9334 0.9332 0.9331
2096.168405 0.9330 0.9328 0.9327 0.9325 0.9324
2101.186289 0.9323 0.9321 0.9320 0.9318 0.9317
2106.204173 0.9316 0.9314 0.9313 0.9311 0.9310
2111.222057 0.9309 0.9307 0.9306 0.9305 0.9303
2116.239940 0.9301 0.9299 0.9297 0.9296 0.9294
2121.257824 0.9292 0.9290 0.9288 0.9286 0.9284
2126.275708 0.9282 0.9280 0.9278 0.9276 0.9274
2131.293592 0.9272 0.9271 0.9269 0.9267 0.9265
2136.311475 0.9263 0.9261 0.9259 0.9257 0.9255
2141.329359 0.9253 0.9251 0.9249 0.9247 0.9245
2146.347243 0.9243 0.9241 0.9239 0.9237 0.9235
2151.365127 0.9232 0.9230 0.9228 0.9226 0.9224
2156.383010 0.9222 0.9220 0.9218 0.9216 0.9215
2161.400894 0.9214 0.9212 0.9211 0.9210 0.9209
2166.418778 0.9207 0.9206 0.9205 0.9203 0.9202
2171.436662 0.9201 0.9199 0.9198 0.9197 0.9195
2176.454545 0.9194 0.9193 0.9191 0.9190 0.9189
2181.472429 0.9188 0.9186 0.9185 0.9184 0.9182
2186.490313 0.9181 0.9180 0.9178 0.9177 0.9176
2191.508197 0.9174 0.9173 0.9172 0.9170 0.9169
2196.526080 0.9168 0.9166 0.9165 0.9164 0.9163
2201.543964 0.9161 0.9160 0.9159 0.9157 0.9156
2206.561848 0.9155 0.9153 0.9152 0.9151 0.9150
2211.579732 0.9150 0.9149 0.9148 0.9147 0.9146
2216.597615 0.9145 0.9144 0.9143 0.9143 0.9142
2221.615499 0.9141 0.9140 0.9139 0.9138 0.9137
2226.633383 0.9137 0.9136 0.9135 0.9134 0.9133
2231.651267 0.9132 0.9131 0.9130 0.9130 0.9129
2236.669151 0.9128 0.9127 0.9126 0.9125 0.9124
2241.687034 0.9124 0.9123 0.9122 0.9121 0.9120
2246.704918 0.9119 0.9118 0.9117 0.9117 0.9116
2251.722802 0.9115 0.9114 0.9113 0.9112 0.9111
2256.740686 0.9110 0.9109 0.9109 0.9108 0.9107
2261.758569 0.9106 0.9105 0.9104 0.9103 0.9102
2266.776453 0.9101 0.9100 0.9099 0.9098 0.9097
2271.794337 0.9096 0.9095 0.9094 0.9093 0.9092
2276.812221 0.9091 0.9090 0.9090 0.9089 0.9088
2281.830104 0.9087 0.9086 0.9085 0.9084 0.9083
2286.847988 0.9082 0.9081 0.9080 0.9079 0.9078
2291.865872 0.9077 0.9076 0.9075 0.9074 0.9072
2296.883756 0.9070 0.9069 0.9067 0.9065 0.9064
2301.901639 0.9062 0.9061 0.9059 0.9057 0.9056
2306.919523 0.9054 0.9052 0.9051 0.9049 0.9047
2311.937407 0.9046 0.9044 0.9043 0.9041 0.9039
2316.955291 0.9038 0.9036 0.9034 0.9033 0.9031
2321.973174 0.9030 0.9028 0.9026 0.9025 0.9023
2326.991058 0.9021 0.9020 0.9018 0.9017 0.9015
2332.008942 0.9013 0.9012 0.9010 0.9008 0.9007
2337.026826 0.9005 0.9003 0.9000 0.8998 0.8995
2342.044709 0.8993 0.8990 0.8988 0.8985 0.8983
2347.062593 0.8980 0.8978 0.8976 0.8973 0.8971
2352.080477 0.8968 0.8966 0.8963 0.8961 0.8958
2357.098361 0.8956 0.8953 0.8951 0.8948 0.8946
2362.116244 0.8943 0.8941 0.8939 0.8936 0.8934
2367.134128 0.8931 0.8929 0.8926 0.8924 0.8921
2372.152012 0.8919 0.8916 0.8914 0.8911 0.8909
2377.169896 0.8906 0.8904 0.8902 0.8900 0.8898
2382.187779 0.8896 0.8894 0.8893 0.8891 0.8889
2387.205663 0.8887 0.8885 0.8884 0.8882 0.8880
2392.223547 0.8878 0.8876 0.8875 0.8873 0.8871
2397.241431 0.8869 0.8867 0.8866 0.8864 0.8862
2402.259314 0.8860 0.8858 0.8857 0.8855 0.8853
2407.277198 0.8851 0.8849 0.8847 0.8846 0.8844
2412.295082 0.8842 0.8840 0.8838 0.8837 0.8835
2417.312966 0.8833 0.8831 0.8829 0.8828 0.8826
2422.330849 0.8824 0.8822 0.8820 0.8818 0.8817
2427.348733 0.8815 0.8813 0.8811 0.8809 0.8808
2432.366617 0.8806 0.8805 0.8804 0.8802 0.8801
2437.384501 0.8800 0.8799 0.8797 0.8796 0.8795
2442.402385 0.8794 0.8792 0.8791 0.8790 0.8789
2447.420268 0.8787 0.8786 0.8785 0.8784 0.8782
2452.438152 0.8781 0.8780 0.8778 0.8777 0.8776
2457.456036 0.8775 0.8773 0.8772 0.8771 0.8770
2462.473920 0.8768 0.8767 0.8766 0.8765 0.8763
2467.491803 0.8762 0.8761 0.8760 0.8758 0.8757
2472.509687 0.8756 0.8755 0.8753 0.8752 0.8750
2477.527571 0.8749 0.8747 0.8746 0.8744 0.8742
2482.545455 0.8741 0.8739 0.8738 0.8736 0.8735
2487.563338 0.8733 0.8732 0.8730 0.8729 0.8727
2492.581222 0.8726 0.8724 0.8722 0.8721 0.8719
2497.599106 0.8718 0.8716 0.8715 0.8713 0.8712
2502.616990 0.8710 0.8709 0.8707 0.8705 0.8704
2507.634873 0.8702 0.8701 0.8699 0.8698 0.8696
2512.652757 0.8695 0.8693 0.8692 0.8690 0.8688
2517.670641 0.8687 0.8685 0.8684 0.8681 0.8678
2522.688525 0.8675 0.8672 0.8669 0.8666 0.8663
2527.706408 0.8660 0.8657 0.8654 0.8651 0.8648
2532.724292 0.8645 0.8642 0.8639 0.8636 0.8633
2537.742176 0.8630 0.8627 0.8624 0.8620 0.8617
2542.760060 0.8614 0.8611 0.8608 0.8605 0.8602
2547.777943 0.8599 0.8596 0.8593 0.8590 0.8587
2552.795827 0.8584 0.8581 0.8578 0.8575 0.8572
2557.813711 0.8569 0.8566 0.8563 0.8560 0.8557
2562.831595 0.8555 0.8551 0.8549 0.8546 0.8542
2567.849478 0.8539 0.8537 0.8534 0.8531 0.8528
2572.867362 0.8525 0.8522 0.8520 0.8517 0.8514
2577.885246 0.8511 0.8508 0.8505 0.8502 0.8500
2582.903130 0.8497 0.8494 0.8491 0.8488 0.8485
2587.921013 0.8482 0.8480 0.8477 0.8474 0.8471
2592.938897 0.8468 0.8465 0.8462 0.8460 0.8457
2597.956781 0.8454 0.8451 0.8448 0.8445 0.8443
2602.974665 0.8440 0.8438 0.8435 0.8433 0.8431
2607.992548 0.8428 0.8426 0.8423 0.8421 0.8418
2613.010432 0.8416 0.8414 0.8411 0.8409 0.8406
2618.028316 0.8404 0.8401 0.8399 0.8397 0.8394
2623.046200 0.8392 0.8389 0.8387 0.8384 0.8382
2628.064083 0.8380 0.8377 0.8375 0.8372 0.8370
2633.081967 0.8367 0.8363 0.8360 0.8357 0.8353
2638.099851 0.8350 0.8347 0.8343 0.8340 0.8336
2643.117735 0.8333 0.8330 0.8326 0.8323 0.8319
2648.135618 0.8317 0.8315 0.8313 0.8312 0.8310
2653.153502 0.8308 0.8306 0.8305 0.8303 0.8301
2658.171386 0.8299 0.8298 0.8296 0.8294 0.8292
2663.189270 0.8290 0.8289 0.8287 0.8285 0.8283
2668.207154 0.8282 0.8280 0.8278 0.8276 0.8275
2673.225037 0.8273 0.8271 0.8269 0.8268 0.8266
2678.242921 0.8264 0.8263 0.8261 0.8260 0.8258
2683.260805 0.8257 0.8255 0.8254 0.8252 0.8250
2688.278689 0.8249 0.8247 0.8246 0.8244 0.8243
2693.296572 0.8241 0.8240 0.8238 0.8237 0.8235
2698.314456 0.8234 0.8232 0.8230 0.8229 0.8227
2703.332340 0.8226 0.8224 0.8223 0.8221 0.8220
2708.350224 0.8218 0.8217 0.8215 0.8213 0.8212
2713.368107 0.8211 0.8210 0.8209 0.8208 0.8207
2718.385991 0.8206 0.8205 0.8204 0.8203 0.8202
2723.403875 0.8201 0.8200 0.8198 0.8197 0.8196
2728.421759 0.8195 0.8194 0.8193 0.8192 0.8191
2733.439642 0.8190 0.8189 0.8188 0.8187 0.8186
2738.457526 0.8185 0.8184 0.8183 0.8181 0.8180
2743.475410 0.8179 0.8179 0.8178 0.8178 0.8177
2748.493294 0.8176 0.8176 0.8175 0.8175 0.8174
2753.511177 0.8174 0.8173 0.8173 0.8172 0.8172
2758.529061 0.8171 0.8170 0.8170 0.8169 0.8169
2763.546945 0.8168 0.8168 0.8167 0.8166 0.8164
2768.564829 0.8162 0.8160 0.8158 0.8156 0.8154
2773.582712 0.8152 0.8150 0.8147 0.8145 0.8143
2778.600596 0.8141 0.8139 0.8137 0.8135 0.8133
2783.618480 0.8131 0.8128 0.8126 0.8124 0.8122
2788.636364 0.8120 0.8118 0.8116 0.8114 0.8111
2793.654247 0.8109 0.8107 0.8105 0.8103 0.8101
2798.672131 0.8099 0.8097 0.8095 0.8092 0.8089
2803.690015 0.8086 0.8083 0.8079 0.8076 0.8073
2808.707899 0.8070 0.8066 0.8063 0.8060 0.8056
2813.725782 0.8053 0.8050 0.8047 0.8043 0.8040
2818.743666 0.8037 0.8035 0.8033 0.8031 0.8029
2823.761550 0.8027 0.8025 0.8023 0.8021 0.8019
2828.779434 0.8017 0.8015 0.8013 0.8011 0.8009
2833.797317 0.8007 0.8004 0.8001 0.7997 0.7994
2838.815201 0.7991 0.7987 0.7984 0.7981 0.7973
2843.833085 0.7958 0.7943 0.7928 0.7915 0.7903
2848.850969 0.7890 0.7878 0.7866 0.7855 0.7846
2853.868852 0.7837 0.7829 0.7821 0.7814 0.7813
2858.886736 0.7812 0.7812 0.7811 0.7811 0.7811
2863.904620 0.7810 0.7810 0.7809 0.7809 0.7808
2868.922504 0.7807 0.7806 0.7805 0.7804 0.7802
2873.940387 0.7800 0.7795 0.7790 0.7785 0.7780
2878.958271 0.7775 0.7770 0.7765 0.7758 0.7751
2883.976155 0.7745 0.7738 0.7731 0.7725 0.7718
2888.994039 0.7711 0.7704 0.7696 0.7686 0.7677
2894.011923 0.7667 0.7658 0.7647 0.7634 0.7620
2899.029806 0.7605 0.7591 0.7577 0.7563 0.7548
2904.047690 0.7534 0.7519 0.7501 0.7482 0.7463
2909.065574 0.7445 0.7426 0.7407 0.7388 0.7369
2914.083458 0.7350 0.7334 0.7328 0.7323 0.7319
2919.101341 0.7315 0.7313 0.7312 0.7312 0.7311
2924.119225 0.7310 0.7310 0.7309 0.7308 0.7307
2929.137109 0.7307 0.7306 0.7304 0.7299 0.7292
2934.154993 0.7285 0.7279 0.7272 0.7265 0.7258
2939.172876 0.7251 0.7244 0.7237 0.7231 0.7225
2944.190760 0.7202 0.7180 0.7209 0.7212 0.7219
2949.208644 0.7225 0.7234 0.7248 0.7264 0.7281
2954.226528 0.7298 0.7317 0.7338 0.7363 0.7397
2959.244411 0.7445 0.7521 0.7595 0.7583 0.7592
2964.262295 0.7590 0.7588 0.7585 0.7583 0.7581
2969.280179 0.7578 0.7574 0.7571 0.7567 0.7564
2974.298063 0.7560 0.7556 0.7552 0.7545 0.7539
2979.315946 0.7532 0.7526 0.7520 0.7513 0.7507
2984.333830 0.7500 0.7494 0.7487 0.7481 0.7475
2989.351714 0.7468 0.7461 0.7455 0.7449 0.7442
2994.369598 0.7436 0.7429 0.7423 0.7416 0.7410
2999.387481 0.7403 0.7396 0.7388 0.7381 0.7374
3004.405365 0.7367 0.7360 0.7353 0.7346 0.7338
3009.423249 0.7332 0.7326 0.7320 0.7315 0.7309
3014.441133 0.7304 0.7298 0.7293 0.7287 0.7282
3019.459016 0.7276 0.7271 0.7266 0.7261 0.7258
3024.476900 0.7255 0.7253 0.7250 0.7247 0.7245
3029.494784 0.7242 0.7246 0.7261 0.7277 0.7293
3034.512668 0.7301 0.7300 0.7300 0.7299 0.7298
3039.530551 0.7297 0.7296 0.7295 0.7293 0.7292
3044.548435 0.7291 0.7290 0.7288 0.7286 0.7284
3049.566319 0.7283 0.7281 0.7279 0.7277 0.7275
3054.584203 0.7273 0.7272 0.7270 0.7268 0.7266
3059.602086 0.7265 0.7263 0.7262 0.7260 0.7259
3064.619970 0.7257 0.7256 0.7254 0.7253 0.7251
3069.637854 0.7250 0.7248 0.7247 0.7246 0.7244
3074.655738 0.7243 0.7241 0.7240 0.7238 0.7237
3079.673621 0.7236 0.7235 0.7234 0.7233 0.7233
3084.691505 0.7232 0.7231 0.7230 0.7230 0.7229
3089.709389 0.7228 0.7226 0.7223 0.7218 0.7212
3094.727273 0.7207 0.7197 0.7177 0.7153 0.7137
3099.745156 0.7125 0.7114 0.7103 0.7094 0.7087
3104.763040 0.7080 0.7073 0.7067 0.7064 0.7061
3109.780924 0.7057 0.7054 0.7052 0.7049 0.7047
3114.798808 0.7044 0.7042 0.7039 0.7037 0.7034
3119.816692 0.7032 0.7028 0.7024 0.7020 0.7016
3124.834575 0.7011 0.7007 0.7003 0.6998 0.6994
3129.852459 0.6990 0.6985 0.6981 0.6977 0.6973
3134.870343 0.6968 0.6964 0.6959 0.6950 0.6938
3139.888227 0.6927 0.6915 0.6903 0.6891 0.6879
3144.906110 0.6867 0.6856 0.6844 0.6832 0.6820
3149.923994 0.6808 0.6796 0.6785 0.6773 0.6761
3154.941878 0.6749 0.6737 0.6725 0.6714 0.6702
3159.959762 0.6690 0.6678 0.6666 0.6654 0.6643
3164.977645 0.6631 0.6619 0.6607 0.6595 0.6583
3169.995529 0.6572 0.6560 0.6548 0.6536 0.6522
3175.013413 0.6506 0.6488 0.6470 0.6451 0.6433
3180.031297 0.6415 0.6397 0.6379 0.6361 0.6343
3185.049180 0.6325 0.6306 0.6285 0.6265 0.6245
3190.067064 0.6224 0.6203 0.6183 0.6162 0.6142
3195.084948 0.6121 0.6101 0.6080 0.6059 0.6037
3200.102832 0.6016 0.5995 0.5973 0.5951 0.5930
3205.120715 0.5908 0.5887 0.5866 0.5844 0.5817
3210.138599 0.5787 0.5756 0.5726 0.5695 0.5665
3215.156483 0.5635 0.5603 0.5569 0.5535 0.5501
3220.174367 0.5467 0.5433 0.5392 0.5344 0.5297
3225.192250 0.5250 0.5201 0.5149 0.5095 0.5046
3230.210134 0.5009 0.4984 0.4959 0.4933 0.4909
3235.228018 0.4885 0.4865 0.4849 0.4834 0.4826
3240.245902 0.4820 0.4815 0.4789 0.4786 0.4810
3245.263785 0.4811 0.4816 0.4822 0.4830 0.4840
3250.281669 0.4855 0.4876 0.4900 0.4928 0.4963
3255.299553 0.5008 0.5062 0.5126 0.5184 0.5225
3260.317437 0.5271 0.5289 0.5276 0.5282 0.5284
3265.335320 0.5283 0.5282 0.5281 0.5279 0.5277
3270.353204 0.5273 0.5270 0.5266 0.5259 0.5248
3275.371088 0.5237 0.5226 0.5215 0.5197 0.5171
3280.388972 0.5146 0.5121 0.5095 0.5066 0.5034
3285.406855 0.5002 0.4969 0.4936 0.4902 0.4869
3290.424739 0.4835 0.4801 0.4768 0.4734 0.4697
3295.442623 0.4652 0.4602 0.4553 0.4504 0.4455
3300.460507 0.4405 0.4345 0.4268 0.4182 0.4095
3305.478390 0.4005 0.3918 0.3839 0.3766 0.3683
3310.496274 0.3590 0.3513 0.3453 0.3434 0.3442
3315.514158 0.3444 0.3450 0.3477 0.3561 0.3683
3320.532042 0.3810 0.3937 0.4064 0.4191 0.4318
3325.549925 0.4446 0.4573 0.4700 0.4828 0.4949
3330.567809 0.5045 0.5128 0.5208 0.5302 0.5464
3335.585693 0.5737 0.6019 0.6212 0.6331 0.6424
3340.603577 0.6513 0.6600 0.6685 0.6773 0.6861
3345.621461 0.6929 0.6972 0.7000 0.7022 0.7042
3350.639344 0.7054 0.7063 0.7071 0.7077 0.7076
3355.657228 0.7081 0.7087 0.7089 0.7091 0.7093
3360.675112 0.7094 0.7095 0.7095 0.7094 0.7093
3365.692996 0.7091 0.7090 0.7088 0.7087 0.7083
3370.710879 0.7079 0.7075 0.7071 0.7067 0.7064
3375.728763 0.7060 0.7056 0.7052 0.7048 0.7044
3380.746647 0.7039 0.7033 0.7027 0.7021 0.7015
3385.764531 0.7009 0.7004 0.6998 0.6990 0.6982
3390.782414 0.6974 0.6966 0.6959 0.6951 0.6942
3395.800298 0.6933 0.6924 0.6915 0.6905 0.6896
3400.818182 0.6887 0.6878 0.6869 0.6860 0.6850
3405.836066 0.6840 0.6831 0.6821 0.6811 0.6801
3410.853949 0.6790 0.6780 0.6770 0.6759 0.6746
3415.871833 0.6733 0.6720 0.6707 0.6695 0.6681
3420.889717 0.6668 0.6656 0.6643 0.6630 0.6617
3425.907601 0.6602 0.6586 0.6571 0.6555 0.6539
3430.925484 0.6523 0.6508 0.6492 0.6475 0.6455
3435.943368 0.6434 0.6414 0.6394 0.6373 0.6353
3440.961252 0.6327 0.6295 0.6263 0.6231 0.6198
3445.979136 0.6166 0.6134 0.6098 0.6058 0.6019
3450.997019 0.5980 0.5941 0.5902 0.5861 0.5809
3456.014903 0.5758 0.5706 0.5655 0.5606 0.5556
3461.032787 0.5506 0.5456 0.5400 0.5334 0.5265
3466.050671 0.5162 0.5012 0.4862 0.4712 0.4562
3471.068554 0.4412 0.4263 0.4133 0.4066 0.4036
3476.086438 0.4023 0.4023 0.3977 0.4052 0.4074
3481.104322 0.4124 0.4294 0.4417 0.4505 0.4554
3486.122206 0.4625 0.4853 0.5080 0.5308 0.5535
3491.140089 0.5763 0.5991 0.6218 0.6446 0.6674
3496.157973 0.6902 0.7121 0.7283 0.7371 0.7417
3501.175857 0.7461 0.7493 0.7522 0.7542 0.7560
3506.193741 0.7576 0.7587 0.7595 0.7609 0.7635
3511.211624 0.7615 0.7621 0.7627 0.7633 0.7639
3516.229508 0.7644 0.7649 0.7655 0.7660 0.7666
3521.247392 0.7670 0.7674 0.7677 0.7681 0.7684
3526.265276 0.7688 0.7692 0.7695 0.7699 0.7702
3531.283159 0.7706 0.7710 0.7713 0.7716 0.7720
3536.301043 0.7723 0.7726 0.7730 0.7733 0.7737
3541.318927 0.7740 0.7743 0.7747 0.7750 0.7754
3546.336811 0.7757 0.7760 0.7762 0.7764 0.7767
3551.354694 0.7769 0.7771 0.7773 0.7775 0.7778
3556.372578 0.7780 0.7782 0.7784 0.7786 0.7788
3561.390462 0.7791 0.7792 0.7793 0.7794 0.7795
3566.408346 0.7796 0.7797 0.7798 0.7799 0.7800
3571.426230 0.7801 0.7802 0.7803 0.7805 0.7806
3576.444113 0.7807 0.7808 0.7809 0.7809 0.7810
3581.461997 0.7811 0.7812 0.7813 0.7814 0.7815
3586.479881 0.7815 0.7816 0.7817 0.7818 0.7819
3591.497765 0.7821 0.7821 0.7822 0.7823 0.7824
3596.515648 0.7825 0.7826 0.7827 0.7827 0.7828
3601.533532 0.7828 0.7829 0.7829 0.7830 0.7830
3606.551416 0.7831 0.7832 0.7832 0.7833 0.7833
3611.569300 0.7834 0.7834 0.7835 0.7835 0.7836
3616.587183 0.7836 0.7836 0.7835 0.7835 0.7835
3621.605067 0.7834 0.7834 0.7833 0.7833 0.7833
3626.622951 0.7832 0.7832 0.7832 0.7831 0.7831
3631.640835 0.7830 0.7830 0.7830 0.7829 0.7829
3636.658718 0.7829 0.7828 0.7828 0.7827 0.7826
3641.676602 0.7825 0.7824 0.7823 0.7821 0.7820
3646.694486 0.7819 0.7818 0.7817 0.7815 0.7814
3651.712370 0.7813 0.7812 0.7811 0.7809 0.7808
3656.730253 0.7807 0.7806 0.7805 0.7803 0.7802
3661.748137 0.7801 0.7799 0.7797 0.7795 0.7794
3666.766021 0.7792 0.7791 0.7789 0.7787 0.7786
3671.783905 0.7784 0.7782 0.7781 0.7779 0.7778
3676.801788 0.7776 0.7774 0.7773 0.7771 0.7770
3681.819672 0.7768 0.7766 0.7765 0.7763 0.7761
3686.837556 0.7760 0.7758 0.7757 0.7755 0.7753
3691.855440 0.7752 0.7750 0.7749 0.7747 0.7745
3696.873323 0.7744 0.7743 0.7741 0.7740 0.7739
3701.891207 0.7738 0.7736 0.7735 0.7734 0.7733
3706.909091 0.7731 0.7730 0.7729 0.7727 0.7726
3711.926975 0.7725 0.7724 0.7722 0.7721 0.7720
3716.944858 0.7719 0.7717 0.7716 0.7715 0.7713
3721.962742 0.7712 0.7711 0.7710 0.7708 0.7707
3726.980626 0.7706 0.7705 0.7703 0.7702 0.7701
3731.998510 0.7700 0.7700 0.7700 0.7700 0.7700
3737.016393 0.7700 0.7700 0.7699 0.7699 0.7699
3742.034277 0.7699 0.7699 0.7699 0.7699 0.7698
3747.052161 0.7698 0.7698 0.7698 0.7698 0.7698
3752.070045 0.7698 0.7698 0.7697 0.7697 0.7697
3757.087928 0.7697 0.7697 0.7696 0.7694 0.7693
3762.105812 0.7692 0.7691 0.7690 0.7689 0.7688
3767.123696 0.7687 0.7685 0.7684 0.7683 0.7682
3772.141580 0.7681 0.7680 0.7679 0.7678 0.7676
3777.159463 0.7675 0.7674 0.7673 0.7672 0.7671
3782.177347 0.7670 0.7669 0.7668 0.7668 0.7667
3787.195231 0.7667 0.7666 0.7666 0.7665 0.7665
3792.213115 0.7665 0.7664 0.7664 0.7663 0.7663
3797.230999 0.7662 0.7662 0.7661 0.7661 0.7661
3802.248882 0.7660 0.7660 0.7659 0.7659 0.7658
3807.266766 0.7658 0.7657 0.7657 0.7657 0.7656
3812.284650 0.7656 0.7655 0.7655 0.7654 0.7653
3817.302534 0.7652 0.7651 0.7650 0.7649 0.7648
3822.320417 0.7648 0.7647 0.7646 0.7645 0.7644
3827.338301 0.7643 0.7642 0.7641 0.7640 0.7639
3832.356185 0.7638 0.7637 0.7636 0.7635 0.7635
3837.374069 0.7634 0.7633 0.7632 0.7631 0.7630
3842.391952 0.7629 0.7628 0.7627 0.7626 0.7625
3847.409836 0.7624 0.7624 0.7623 0.7622 0.7621
3852.427720 0.7620 0.7620 0.7619 0.7618 0.7618
3857.445604 0.7617 0.7616 0.7616 0.7615 0.7615
3862.463487 0.7614 0.7613 0.7613 0.7612 0.7611
3867.481371 0.7611 0.7610 0.7609 0.7609 0.7608
3872.499255 0.7607 0.7607 0.7605 0.7605 0.7604
3877.517139 0.7603 0.7603 0.7602 0.7601 0.7601
3882.535022 0.7600 0.7600 0.7600 0.7600 0.7600
3887.552906 0.7600 0.7600 0.7600 0.7600 0.7600
3892.570790 0.7600 0.7600 0.7600 0.7600 0.7600
3897.588674 0.7600 0.7600 0.7600 0.7600 0.7600
3902.606557 0.7600 0.7600 0.7600 0.7600 0.7600
3907.624441 0.7600 0.7600 0.7600 0.7600 0.7600
3912.642325 0.7600 0.7599 0.7599 0.7599 0.7599
3917.660209 0.7599 0.7598 0.7598 0.7598 0.7598
3922.678092 0.7598 0.7598 0.7597 0.7597 0.7597
3927.695976 0.7597 0.7597 0.7596 0.7596 0.7596
3932.713860 0.7596 0.7596 0.7597 0.7598 0.7598
3937.731744 0.7599 0.7599 0.7600 0.7600 0.7601
3942.749627 0.7601 0.7602 0.7602 0.7603 0.7603
3947.767511 0.7604 0.7604 0.7605 0.7605 0.7606
3952.785395 0.7608 0.7609 0.7610 0.7612 0.7613
3957.803279 0.7614 0.7616 0.7617 0.7618 0.7562
3962.821162 0.7608 0.7622 0.7623 0.7625 0.7626
3967.839046 0.7627 0.7629 0.7630 0.7631 0.7633
3972.856930 0.7634 0.7635 0.7637 0.7637 0.7636
3977.874814 0.7636 0.7636 0.7636 0.7636 0.7635
3982.892697 0.7635 0.7635 0.7635 0.7634 0.7634
3987.910581 0.7634 0.7634 0.7634 0.7632 0.7629
3992.928465 0.7626 0.7624 0.7621 0.7619 0.7616
3997.946349 0.7614 0.7611 0.7609 0.7606 0.7604
4002.964232 0.7601 0.7599 0.7596 0.7594 0.7591
4007.982116 0.7589 0.7586 0.7583 0.7581 0.7580
##END=
