##TITLE=Diisopropylamine hydroiodide
##JCAMP-DX=4.24
##DATA TYPE=INFRARED SPECTRUM
##CLASS=COBLENTZ III
##ORIGIN=DOW CHEMICAL COMPANY
##OWNER=COBLENTZ SOC.
Collection (C) 2018 copyright by the U.S. Secretary of Commerce
on behalf of the United States of America. All rights reserved.
##DATE=1959/07/28
##NAMES=N,N-diisopropylamine hydroiodide
##MOLFORM=C6 H16 I N
##SOURCE REFERENCE=COBLENTZ NO. 09843
##$NIST ID=B6009843
##$NIST SOURCE=COBLENTZ
##$NIST IMAGE=cob9843
##SPECTROMETER/DATA SYSTEM=DOW KBr FOREPRISM-GRATING
##INSTRUMENT PARAMETERS=BLAZED AT 3.5, 12.0, 20.0 MICRON AND CHANGED AT 5.0, 7.5, 14.9 MICRON
##STATE=SOLID (NUJOL MULL)
$$SPECTRAL CONTAMINATION DUE TO H2O AROUND 1627, 3450, OIL AROUND 1380, 1465, 2800-3100 CM^-^1
##SAMPLING PROCEDURE=TRANSMISSION
##RESOLUTION=2
##DATA PROCESSING=DIGITIZED BY COBLENTZ SOCIETY (BATCH I) FROM HARD COPY
##XUNITS=1/CM
##YUNITS=TRANSMITTANCE
##XLABEL=Wavenumbers (cm-1)
##YLABEL=% Transmission
##XFACTOR=1
##YFACTOR=1
##DELTAX=1
##FIRSTX=451
##LASTX=3798
##FIRSTY=0.6771
##MAXX=3798
##MINX=451
##MAXY=0.8389
##MINY=0.0005
##NPOINTS=3348
##XYDATA=(X++(Y..Y))
451.000000 0.6771 0.6764 0.6758 0.6751 0.6743
456.000000 0.6735 0.6725 0.6718 0.6710 0.6703
461.000000 0.6696 0.6689 0.6690 0.6693 0.6696
466.000000 0.6708 0.6728 0.6764 0.6839 0.6961
471.000000 0.7019 0.7062 0.7098 0.7108 0.7121
476.000000 0.7130 0.7124 0.7121 0.7108 0.7095
481.000000 0.7075 0.7056 0.7028 0.6989 0.6940
486.000000 0.6885 0.6822 0.6760 0.6474 0.6119
491.000000 0.5764 0.5409 0.5054 0.4700 0.4683
496.000000 0.4791 0.5302 0.5812 0.6324 0.6835
501.000000 0.7346 0.7561 0.7668 0.7768 0.7850
506.000000 0.7906 0.7926 0.7947 0.7961 0.7971
511.000000 0.7983 0.7994 0.8004 0.8011 0.8018
516.000000 0.8025 0.8033 0.8039 0.8046 0.8051
521.000000 0.8057 0.8061 0.8065 0.8069 0.8074
526.000000 0.8078 0.8082 0.8085 0.8085 0.8085
531.000000 0.8085 0.8085 0.8085 0.8085 0.8085
536.000000 0.8085 0.8086 0.8086 0.8086 0.8085
541.000000 0.8085 0.8084 0.8084 0.8083 0.8083
546.000000 0.8082 0.8082 0.8081 0.8081 0.8080
551.000000 0.8080 0.8078 0.8078 0.8078 0.8076
556.000000 0.8076 0.8075 0.8075 0.8075 0.8074
561.000000 0.8074 0.8074 0.8078 0.8081 0.8084
566.000000 0.8087 0.8090 0.8093 0.8097 0.8100
571.000000 0.8103 0.8108 0.8114 0.8119 0.8125
576.000000 0.8131 0.8137 0.8143 0.8149 0.8155
581.000000 0.8161 0.8165 0.8171 0.8180 0.8205
586.000000 0.8195 0.8202 0.8210 0.8217 0.8225
591.000000 0.8232 0.8240 0.8246 0.8251 0.8257
596.000000 0.8262 0.8268 0.8273 0.8278 0.8283
601.000000 0.8285 0.8286 0.8287 0.8288 0.8290
606.000000 0.8291 0.8292 0.8293 0.8293 0.8293
611.000000 0.8292 0.8291 0.8289 0.8287 0.8286
616.000000 0.8284 0.8283 0.8281 0.8278 0.8278
621.000000 0.8278 0.8278 0.8278 0.8278 0.8278
626.000000 0.8280 0.8280 0.8281 0.8283 0.8286
631.000000 0.8288 0.8291 0.8293 0.8296 0.8299
636.000000 0.8301 0.8303 0.8303 0.8303 0.8302
641.000000 0.8302 0.8302 0.8302 0.8301 0.8301
646.000000 0.8301 0.8300 0.8299 0.8298 0.8297
651.000000 0.8296 0.8294 0.8293 0.8291 0.8285
656.000000 0.8280 0.8274 0.8268 0.8263 0.8258
661.000000 0.8251 0.8245 0.8238 0.8231 0.8224
666.000000 0.8218 0.8215 0.8263 0.8318 0.8373
671.000000 0.8389 0.8235 0.8218 0.8205 0.8195
676.000000 0.8188 0.8178 0.8169 0.8161 0.8153
681.000000 0.8145 0.8137 0.8128 0.8121 0.8111
686.000000 0.8104 0.8095 0.8087 0.8078 0.8069
691.000000 0.8060 0.8051 0.8042 0.8033 0.8024
696.000000 0.8014 0.7998 0.7982 0.7965 0.7950
701.000000 0.7931 0.7911 0.7893 0.7874 0.7842
706.000000 0.7808 0.7772 0.7725 0.7671 0.7615
711.000000 0.7534 0.7446 0.7340 0.7204 0.7047
716.000000 0.6901 0.6878 0.6878 0.6878 0.6878
721.000000 0.6903 0.6957 0.7043 0.7105 0.7157
726.000000 0.7203 0.7234 0.7261 0.7294 0.7325
731.000000 0.7349 0.7368 0.7389 0.7405 0.7418
736.000000 0.7449 0.7512 0.7594 0.7634 0.7671
741.000000 0.7698 0.7724 0.7749 0.7767 0.7784
746.000000 0.7801 0.7812 0.7824 0.7835 0.7845
751.000000 0.7855 0.7865 0.7875 0.7887 0.7898
756.000000 0.7905 0.7905 0.7905 0.7903 0.7900
761.000000 0.7898 0.7896 0.7896 0.7897 0.7901
766.000000 0.7904 0.7908 0.7915 0.7928 0.7943
771.000000 0.7957 0.7971 0.7986 0.8001 0.8017
776.000000 0.8033 0.8048 0.8062 0.8071 0.8080
781.000000 0.8064 0.8097 0.8097 0.8095 0.8093
786.000000 0.8088 0.8076 0.8067 0.8057 0.8040
791.000000 0.8018 0.7980 0.7922 0.7792 0.7639
796.000000 0.7487 0.7335 0.7182 0.7057 0.7075
801.000000 0.8099 0.8112 0.8112 0.8112 0.8111
806.000000 0.8108 0.8105 0.8101 0.8099 0.8091
811.000000 0.8083 0.8072 0.8057 0.8041 0.8018
816.000000 0.7998 0.7975 0.7955 0.7925 0.7891
821.000000 0.7854 0.7808 0.7761 0.7704 0.7644
826.000000 0.7380 0.7115 0.6908 0.6907 0.7061
831.000000 0.7507 0.7951 0.8151 0.8181 0.8199
836.000000 0.8208 0.8215 0.8220 0.8224 0.8228
841.000000 0.8233 0.8236 0.8239 0.8242 0.8246
846.000000 0.8249 0.8250 0.8252 0.8253 0.8255
851.000000 0.8257 0.8258 0.8259 0.8260 0.8261
856.000000 0.8262 0.8263 0.8264 0.8265 0.8266
861.000000 0.8267 0.8268 0.8268 0.8268 0.8270
866.000000 0.8271 0.8271 0.8273 0.8274 0.8275
871.000000 0.8275 0.8275 0.8277 0.8278 0.8278
876.000000 0.8280 0.8281 0.8274 0.8267 0.8260
881.000000 0.8231 0.8200 0.8161 0.8117 0.8075
886.000000 0.8036 0.7997 0.7958 0.7915 0.7874
891.000000 0.7840 0.7815 0.7803 0.7784 0.7921
896.000000 0.8037 0.8150 0.8180 0.8160 0.8150
901.000000 0.8132 0.8107 0.8082 0.8051 0.8028
906.000000 0.8008 0.7996 0.7988 0.7993 0.8015
911.000000 0.8058 0.8074 0.8074 0.8074 0.8069
916.000000 0.8062 0.8051 0.8039 0.8022 0.8007
921.000000 0.7991 0.7975 0.7954 0.7930 0.7905
926.000000 0.7876 0.7842 0.7798 0.7728 0.7650
931.000000 0.7549 0.7448 0.7334 0.7196 0.7135
936.000000 0.7118 0.7108 0.7097 0.7081 0.7024
941.000000 0.6810 0.6596 0.6382 0.6168 0.5954
946.000000 0.5740 0.5575 0.5567 0.5566 0.6474
951.000000 0.7255 0.7337 0.7408 0.7475 0.7536
956.000000 0.7582 0.7624 0.7638 0.7633 0.7628
961.000000 0.7651 0.7578 0.7521 0.7462 0.7389
966.000000 0.7244 0.7078 0.6911 0.6745 0.6578
971.000000 0.6484 0.6447 0.6858 0.7204 0.7551
976.000000 0.7778 0.7839 0.7888 0.7925 0.7964
981.000000 0.8001 0.8028 0.8053 0.8069 0.8080
986.000000 0.8090 0.8068 0.8098 0.8101 0.8101
991.000000 0.8099 0.8097 0.8094 0.8092 0.8091
996.000000 0.8089 0.8087 0.8085 0.8083 0.8078
1001.000000 0.8074 0.8069 0.8065 0.8061 0.8057
1006.000000 0.8051 0.8045 0.8038 0.8031 0.8024
1011.000000 0.8017 0.8008 0.8001 0.7992 0.7983
1016.000000 0.7974 0.7965 0.7957 0.7946 0.7928
1021.000000 0.7910 0.7892 0.7874 0.7856 0.7836
1026.000000 0.7817 0.7797 0.7778 0.7758 0.7739
1031.000000 0.7718 0.7700 0.7678 0.7658 0.7637
1036.000000 0.7615 0.7595 0.7585 0.7585 0.7587
1041.000000 0.7589 0.7591 0.7594 0.7598 0.7601
1046.000000 0.7604 0.7600 0.7595 0.7591 0.7583
1051.000000 0.7568 0.7551 0.7533 0.7514 0.7496
1056.000000 0.7475 0.7450 0.7425 0.7401 0.7375
1061.000000 0.7349 0.7321 0.7296 0.7268 0.7235
1066.000000 0.7197 0.7160 0.7115 0.7069 0.7024
1071.000000 0.6976 0.6930 0.6875 0.6821 0.6767
1076.000000 0.6712 0.6645 0.6574 0.6432 0.6215
1081.000000 0.5998 0.5781 0.5564 0.5346 0.5240
1086.000000 0.5251 0.5672 0.5967 0.6262 0.6348
1091.000000 0.6364 0.6321 0.6253 0.5925 0.5579
1096.000000 0.5233 0.4887 0.4540 0.4382 0.4730
1101.000000 0.5472 0.6214 0.6956 0.7325 0.7515
1106.000000 0.7624 0.7655 0.7668 0.7674 0.7678
1111.000000 0.7687 0.7682 0.7678 0.7674 0.7668
1116.000000 0.7656 0.7643 0.7626 0.7604 0.7581
1121.000000 0.7558 0.7534 0.7506 0.7478 0.7450
1126.000000 0.7407 0.7364 0.7312 0.7261 0.7208
1131.000000 0.7138 0.7061 0.6987 0.6898 0.6795
1136.000000 0.6692 0.6528 0.6326 0.6085 0.5872
1141.000000 0.5467 0.5228 0.4988 0.4749 0.4509
1146.000000 0.4270 0.4030 0.3729 0.3741 0.3820
1151.000000 0.4162 0.4505 0.4848 0.5191 0.5390
1156.000000 0.5400 0.5383 0.5359 0.5280 0.5201
1161.000000 0.5123 0.5044 0.4965 0.4886 0.4807
1166.000000 0.4729 0.4650 0.4571 0.4510 0.4490
1171.000000 0.4516 0.4515 0.4515 0.4587 0.4659
1176.000000 0.4727 0.4724 0.4716 0.4575 0.4330
1181.000000 0.4084 0.3840 0.3649 0.3624 0.4137
1186.000000 0.4692 0.5247 0.5802 0.6357 0.6528
1191.000000 0.6548 0.6444 0.6307 0.6169 0.6031
1196.000000 0.5893 0.5756 0.5618 0.5517 0.5760
1201.000000 0.6205 0.6649 0.7094 0.7378 0.7661
1206.000000 0.7761 0.7839 0.7906 0.7939 0.7972
1211.000000 0.7997 0.8012 0.8028 0.8038 0.8042
1216.000000 0.8006 0.8047 0.8046 0.8045 0.8044
1221.000000 0.8043 0.8037 0.8031 0.8025 0.8019
1226.000000 0.8010 0.7997 0.7984 0.7971 0.7958
1231.000000 0.7943 0.7928 0.7915 0.7901 0.7887
1236.000000 0.7871 0.7857 0.7843 0.7828 0.7812
1241.000000 0.7798 0.7783 0.7768 0.7753 0.7738
1246.000000 0.7722 0.7708 0.7693 0.7676 0.7661
1251.000000 0.7645 0.7628 0.7612 0.7597 0.7580
1256.000000 0.7560 0.7540 0.7519 0.7500 0.7480
1261.000000 0.7460 0.7440 0.7418 0.7399 0.7378
1266.000000 0.7358 0.7338 0.7321 0.7310 0.7300
1271.000000 0.7289 0.7278 0.7268 0.7258 0.7248
1276.000000 0.7243 0.7238 0.7234 0.7228 0.7224
1281.000000 0.7218 0.7208 0.7198 0.7188 0.7162
1286.000000 0.7138 0.7111 0.7078 0.7043 0.7008
1291.000000 0.6964 0.6911 0.6860 0.6807 0.6703
1296.000000 0.6581 0.6458 0.6338 0.6216 0.6094
1301.000000 0.6006 0.6006 0.5991 0.6231 0.6417
1306.000000 0.6603 0.6789 0.6872 0.6872 0.6872
1311.000000 0.6871 0.6871 0.6861 0.6847 0.6824
1316.000000 0.6801 0.6776 0.6753 0.6717 0.6680
1321.000000 0.6604 0.6519 0.6437 0.6354 0.6271
1326.000000 0.6187 0.6104 0.6030 0.6035 0.6049
1331.000000 0.6384 0.6534 0.6526 0.6518 0.6501
1336.000000 0.6454 0.6400 0.6350 0.6301 0.6231
1341.000000 0.6160 0.6088 0.6034 0.5986 0.5939
1346.000000 0.5867 0.5784 0.5701 0.5622 0.5543
1351.000000 0.5464 0.5395 0.5327 0.5251 0.5054
1356.000000 0.4858 0.4677 0.4629 0.4603 0.4715
1361.000000 0.4959 0.5159 0.5127 0.4841 0.4554
1366.000000 0.4415 0.4344 0.4272 0.4203 0.4104
1371.000000 0.3903 0.3503 0.3104 0.2705 0.2305
1376.000000 0.1906 0.1507 0.1303 0.1286 0.1290
1381.000000 0.1380 0.1636 0.1894 0.2151 0.2408
1386.000000 0.2665 0.2922 0.2965 0.2971 0.2958
1391.000000 0.2925 0.2824 0.2547 0.2270 0.1993
1396.000000 0.1716 0.1439 0.1361 0.1366 0.1436
1401.000000 0.2198 0.2960 0.3722 0.4484 0.5246
1406.000000 0.5393 0.5422 0.5422 0.5421 0.5354
1411.000000 0.5278 0.5202 0.5158 0.5156 0.5160
1416.000000 0.5501 0.5956 0.6172 0.6196 0.6210
1421.000000 0.6212 0.6205 0.6185 0.6065 0.5797
1426.000000 0.5529 0.5260 0.4993 0.4724 0.4456
1431.000000 0.4188 0.4060 0.4046 0.4049 0.4060
1436.000000 0.4082 0.4109 0.4119 0.4119 0.4014
1441.000000 0.3804 0.3594 0.3384 0.3174 0.2964
1446.000000 0.2755 0.2545 0.2334 0.2133 0.2102
1451.000000 0.2017 0.1800 0.1584 0.1367 0.1151
1456.000000 0.1009 0.0901 0.0824 0.0763 0.0711
1461.000000 0.0668 0.0653 0.0638 0.0628 0.0624
1466.000000 0.0625 0.0629 0.0633 0.0651 0.0748
1471.000000 0.1124 0.1534 0.1944 0.2355 0.2765
1476.000000 0.3175 0.3584 0.3995 0.4408 0.5026
1481.000000 0.5323 0.5723 0.5948 0.6015 0.6081
1486.000000 0.6147 0.6208 0.6268 0.6328 0.6368
1491.000000 0.6408 0.6449 0.6489 0.6511 0.6533
1496.000000 0.6555 0.6576 0.6594 0.6608 0.6624
1501.000000 0.6638 0.6649 0.6651 0.6654 0.6657
1506.000000 0.6660 0.6662 0.6667 0.6674 0.6682
1511.000000 0.6689 0.6700 0.6717 0.6734 0.6750
1516.000000 0.6765 0.6778 0.6792 0.6805 0.6818
1521.000000 0.6828 0.6839 0.6849 0.6860 0.6869
1526.000000 0.6884 0.6899 0.6915 0.6931 0.6946
1531.000000 0.6953 0.6958 0.6962 0.6968 0.6972
1536.000000 0.6974 0.6975 0.6976 0.6978 0.6988
1541.000000 0.7001 0.7015 0.7026 0.7031 0.7034
1546.000000 0.7035 0.7035 0.7051 0.7028 0.7019
1551.000000 0.7008 0.6991 0.6974 0.6954 0.6926
1556.000000 0.6899 0.6871 0.6851 0.6843 0.6836
1561.000000 0.6821 0.6801 0.6750 0.6691 0.6626
1566.000000 0.6565 0.6505 0.6447 0.6390 0.5727
1571.000000 0.5014 0.4302 0.4216 0.4802 0.5491
1576.000000 0.5510 0.5129 0.4840 0.4550 0.4542
1581.000000 0.4527 0.6799 0.6968 0.7021 0.7026
1586.000000 0.7025 0.7025 0.7024 0.7014 0.7001
1591.000000 0.6974 0.6925 0.6880 0.6836 0.6794
1596.000000 0.6756 0.6718 0.6680 0.6646 0.6612
1601.000000 0.6581 0.6549 0.6514 0.6478 0.6443
1606.000000 0.6407 0.6364 0.6321 0.6278 0.6235
1611.000000 0.6194 0.6153 0.6112 0.6067 0.6018
1616.000000 0.5970 0.5930 0.5891 0.5852 0.5821
1621.000000 0.5794 0.5768 0.5741 0.5717 0.5703
1626.000000 0.5689 0.5675 0.5681 0.5691 0.5700
1631.000000 0.5710 0.5719 0.5729 0.5749 0.5774
1636.000000 0.5804 0.5839 0.5873 0.5907 0.5946
1641.000000 0.5984 0.6023 0.6062 0.6094 0.6121
1646.000000 0.6138 0.6151 0.6165 0.6178 0.6191
1651.000000 0.6204 0.6215 0.6227 0.6238 0.6260
1656.000000 0.6282 0.6303 0.6330 0.6359 0.6388
1661.000000 0.6412 0.6435 0.6457 0.6480 0.6501
1666.000000 0.6535 0.6568 0.6601 0.6634 0.6661
1671.000000 0.6687 0.6693 0.6694 0.6696 0.6697
1676.000000 0.6698 0.6707 0.6728 0.6761 0.6791
1681.000000 0.6821 0.6849 0.6869 0.6890 0.6910
1686.000000 0.6921 0.6925 0.6928 0.6933 0.6937
1691.000000 0.6941 0.6944 0.6946 0.6948 0.6949
1696.000000 0.6951 0.6953 0.6953 0.6951 0.6950
1701.000000 0.6947 0.6945 0.6942 0.6939 0.6936
1706.000000 0.6928 0.6919 0.6911 0.6901 0.6886
1711.000000 0.6871 0.6856 0.6841 0.6825 0.6812
1716.000000 0.6806 0.6799 0.6793 0.6786 0.6778
1721.000000 0.6774 0.6769 0.6765 0.6760 0.6756
1726.000000 0.6745 0.6733 0.6719 0.6707 0.6692
1731.000000 0.6678 0.6665 0.6661 0.6656 0.6656
1736.000000 0.6678 0.6698 0.6725 0.6754 0.6783
1741.000000 0.6811 0.6839 0.6868 0.6896 0.6933
1746.000000 0.6975 0.7017 0.7058 0.7092 0.7114
1751.000000 0.7136 0.7141 0.7138 0.7134 0.7133
1756.000000 0.7141 0.7150 0.7168 0.7186 0.7200
1761.000000 0.7200 0.7201 0.7206 0.7191 0.7183
1766.000000 0.7174 0.7165 0.7157 0.7147 0.7136
1771.000000 0.7125 0.7115 0.7098 0.7078 0.7060
1776.000000 0.7041 0.7021 0.7004 0.6986 0.6967
1781.000000 0.6949 0.6931 0.6912 0.6900 0.6887
1786.000000 0.6893 0.6880 0.6918 0.6949 0.7004
1791.000000 0.7043 0.7071 0.7094 0.7105 0.7115
1796.000000 0.7125 0.7132 0.7140 0.7144 0.7145
1801.000000 0.7147 0.7149 0.7151 0.7151 0.7151
1806.000000 0.7151 0.7151 0.7151 0.7151 0.7148
1811.000000 0.7145 0.7141 0.7138 0.7132 0.7125
1816.000000 0.7118 0.7111 0.7105 0.7098 0.7091
1821.000000 0.7083 0.7075 0.7067 0.7058 0.7051
1826.000000 0.7043 0.7035 0.7026 0.7018 0.7014
1831.000000 0.7008 0.7003 0.6998 0.6993 0.6987
1836.000000 0.6982 0.6976 0.6976 0.6978 0.6980
1841.000000 0.6983 0.6985 0.6987 0.6990 0.6992
1846.000000 0.6996 0.7000 0.7005 0.7008 0.7014
1851.000000 0.7018 0.7018 0.7018 0.7015 0.7007
1856.000000 0.6998 0.6989 0.6981 0.6971 0.6965
1861.000000 0.6961 0.6958 0.6954 0.6949 0.6945
1866.000000 0.6944 0.6944 0.6943 0.6942 0.6942
1871.000000 0.6941 0.6940 0.6940 0.6940 0.6940
1876.000000 0.6940 0.6940 0.6940 0.6939 0.6937
1881.000000 0.6935 0.6933 0.6931 0.6928 0.6926
1886.000000 0.6925 0.6922 0.6921 0.6918 0.6915
1891.000000 0.6911 0.6907 0.6901 0.6897 0.6892
1896.000000 0.6887 0.6882 0.6876 0.6871 0.6867
1901.000000 0.6861 0.6856 0.6850 0.6844 0.6839
1906.000000 0.6833 0.6826 0.6821 0.6815 0.6810
1911.000000 0.6804 0.6799 0.6793 0.6787 0.6780
1916.000000 0.6774 0.6767 0.6761 0.6755 0.6748
1921.000000 0.6742 0.6736 0.6724 0.6711 0.6699
1926.000000 0.6686 0.6674 0.6661 0.6647 0.6630
1931.000000 0.6611 0.6594 0.6575 0.6550 0.6518
1936.000000 0.6489 0.6451 0.6410 0.6369 0.6328
1941.000000 0.6284 0.6240 0.6195 0.6155 0.6135
1946.000000 0.6123 0.6106 0.6127 0.6133 0.6149
1951.000000 0.6176 0.6209 0.6246 0.6285 0.6329
1956.000000 0.6372 0.6436 0.6504 0.6565 0.6625
1961.000000 0.6674 0.6701 0.6711 0.6711 0.6708
1966.000000 0.6708 0.6708 0.6707 0.6705 0.6704
1971.000000 0.6703 0.6700 0.6697 0.6695 0.6692
1976.000000 0.6689 0.6686 0.6683 0.6680 0.6676
1981.000000 0.6674 0.6671 0.6668 0.6667 0.6665
1986.000000 0.6662 0.6661 0.6655 0.6649 0.6644
1991.000000 0.6638 0.6632 0.6621 0.6608 0.6596
1996.000000 0.6583 0.6569 0.6557 0.6537 0.6514
2001.000000 0.6491 0.6468 0.6457 0.6446 0.6435
2006.000000 0.6425 0.6421 0.6419 0.6418 0.6415
2011.000000 0.6412 0.6411 0.6408 0.6407 0.6398
2016.000000 0.6389 0.6378 0.6367 0.6355 0.6344
2021.000000 0.6332 0.6321 0.6309 0.6298 0.6286
2026.000000 0.6275 0.6262 0.6252 0.6240 0.6229
2031.000000 0.6220 0.6212 0.6207 0.6202 0.6197
2036.000000 0.6193 0.6188 0.6183 0.6179 0.6176
2041.000000 0.6171 0.6166 0.6145 0.6125 0.6101
2046.000000 0.6078 0.6049 0.6021 0.5992 0.5964
2051.000000 0.5933 0.5903 0.5873 0.5843 0.5812
2056.000000 0.5782 0.5734 0.5686 0.5634 0.5583
2061.000000 0.5431 0.5280 0.5026 0.4773 0.4731
2066.000000 0.4689 0.4764 0.4662 0.4997 0.5154
2071.000000 0.5310 0.5467 0.5624 0.5781 0.5937
2076.000000 0.6094 0.6150 0.6207 0.6234 0.6262
2081.000000 0.6283 0.6304 0.6317 0.6331 0.6339
2086.000000 0.6348 0.6350 0.6352 0.6353 0.6353
2091.000000 0.6353 0.6353 0.6353 0.6353 0.6352
2096.000000 0.6352 0.6349 0.6346 0.6343 0.6340
2101.000000 0.6337 0.6335 0.6332 0.6329 0.6326
2106.000000 0.6323 0.6320 0.6317 0.6312 0.6310
2111.000000 0.6306 0.6303 0.6299 0.6296 0.6291
2116.000000 0.6286 0.6280 0.6275 0.6269 0.6264
2121.000000 0.6258 0.6253 0.6247 0.6242 0.6236
2126.000000 0.6231 0.6225 0.6220 0.6214 0.6209
2131.000000 0.6203 0.6198 0.6192 0.6187 0.6181
2136.000000 0.6176 0.6171 0.6166 0.6162 0.6159
2141.000000 0.6155 0.6152 0.6149 0.6146 0.6143
2146.000000 0.6141 0.6139 0.6137 0.6134 0.6131
2151.000000 0.6122 0.6112 0.6103 0.6094 0.6081
2156.000000 0.6068 0.6055 0.6042 0.6026 0.6010
2161.000000 0.6001 0.5992 0.5984 0.5976 0.5969
2166.000000 0.5962 0.5959 0.5955 0.5951 0.5947
2171.000000 0.5943 0.5939 0.5935 0.5931 0.5928
2176.000000 0.5925 0.5924 0.5923 0.5922 0.5921
2181.000000 0.5919 0.5918 0.5917 0.5917 0.5918
2186.000000 0.5919 0.5920 0.5921 0.5922 0.5923
2191.000000 0.5924 0.5925 0.5925 0.5926 0.5926
2196.000000 0.5927 0.5927 0.5927 0.5927 0.5927
2201.000000 0.5927 0.5927 0.5926 0.5925 0.5924
2206.000000 0.5924 0.5923 0.5923 0.5920 0.5917
2211.000000 0.5912 0.5908 0.5904 0.5900 0.5896
2216.000000 0.5892 0.5888 0.5884 0.5879 0.5874
2221.000000 0.5868 0.5862 0.5857 0.5851 0.5845
2226.000000 0.5840 0.5834 0.5829 0.5823 0.5817
2231.000000 0.5810 0.5806 0.5799 0.5793 0.5786
2236.000000 0.5780 0.5773 0.5766 0.5759 0.5753
2241.000000 0.5746 0.5739 0.5732 0.5726 0.5719
2246.000000 0.5712 0.5705 0.5699 0.5694 0.5690
2251.000000 0.5685 0.5680 0.5675 0.5671 0.5666
2256.000000 0.5662 0.5657 0.5652 0.5647 0.5643
2261.000000 0.5638 0.5634 0.5629 0.5624 0.5619
2266.000000 0.5615 0.5610 0.5606 0.5601 0.5596
2271.000000 0.5591 0.5587 0.5582 0.5578 0.5573
2276.000000 0.5568 0.5560 0.5553 0.5546 0.5539
2281.000000 0.5531 0.5524 0.5517 0.5510 0.5502
2286.000000 0.5495 0.5488 0.5481 0.5474 0.5467
2291.000000 0.5459 0.5452 0.5445 0.5439 0.5432
2296.000000 0.5425 0.5418 0.5410 0.5404 0.5397
2301.000000 0.5390 0.5383 0.5376 0.5369 0.5362
2306.000000 0.5356 0.5349 0.5342 0.5335 0.5328
2311.000000 0.5319 0.5310 0.5300 0.5291 0.5281
2316.000000 0.5272 0.5262 0.5254 0.5244 0.5235
2321.000000 0.5225 0.5216 0.5206 0.5197 0.5186
2326.000000 0.5175 0.5162 0.5151 0.5139 0.5128
2331.000000 0.5116 0.5104 0.5092 0.5080 0.5068
2336.000000 0.5057 0.5045 0.5033 0.5021 0.5009
2341.000000 0.4997 0.4986 0.4974 0.4962 0.4951
2346.000000 0.4940 0.4928 0.4917 0.4905 0.4893
2351.000000 0.4881 0.4870 0.4858 0.4847 0.4835
2356.000000 0.4824 0.4812 0.4800 0.4784 0.4768
2361.000000 0.4752 0.4736 0.4719 0.4703 0.4687
2366.000000 0.4671 0.4655 0.4639 0.4620 0.4602
2371.000000 0.4575 0.4549 0.4522 0.4496 0.4469
2376.000000 0.4443 0.4412 0.4384 0.4351 0.4318
2381.000000 0.4285 0.4252 0.4208 0.4165 0.4120
2386.000000 0.4075 0.3988 0.3902 0.3807 0.3712
2391.000000 0.3616 0.3523 0.3428 0.3332 0.3238
2396.000000 0.3144 0.3099 0.3054 0.3055 0.3028
2401.000000 0.3165 0.3274 0.3446 0.3618 0.3790
2406.000000 0.3962 0.4134 0.4307 0.4479 0.4651
2411.000000 0.4668 0.4686 0.4684 0.4683 0.4675
2416.000000 0.4672 0.4659 0.4651 0.4640 0.4630
2421.000000 0.4610 0.4592 0.4560 0.4531 0.4501
2426.000000 0.4472 0.4428 0.4385 0.4351 0.4317
2431.000000 0.4282 0.4248 0.4212 0.4177 0.4130
2436.000000 0.4082 0.4021 0.3959 0.3892 0.3825
2441.000000 0.3753 0.3680 0.3596 0.3512 0.3382
2446.000000 0.3253 0.3024 0.2796 0.2526 0.2256
2451.000000 0.1985 0.1717 0.1522 0.1328 0.1401
2456.000000 0.1305 0.1875 0.2276 0.2676 0.3077
2461.000000 0.3477 0.3878 0.3957 0.4036 0.4041
2466.000000 0.4047 0.4423 0.4799 0.4845 0.4892
2471.000000 0.4918 0.4944 0.4955 0.4966 0.4968
2476.000000 0.4970 0.4971 0.4962 0.4962 0.4960
2481.000000 0.4951 0.4942 0.4917 0.4892 0.4852
2486.000000 0.4812 0.4772 0.4732 0.4692 0.4653
2491.000000 0.4612 0.4573 0.4558 0.4543 0.4540
2496.000000 0.4538 0.4535 0.4532 0.4526 0.4520
2501.000000 0.4485 0.4451 0.4370 0.4290 0.4262
2506.000000 0.4234 0.4227 0.4220 0.4212 0.4205
2511.000000 0.4207 0.4210 0.4212 0.4215 0.4218
2516.000000 0.4217 0.4228 0.4236 0.4243 0.4250
2521.000000 0.4260 0.4271 0.4282 0.4293 0.4308
2526.000000 0.4323 0.4339 0.4356 0.4373 0.4391
2531.000000 0.4410 0.4431 0.4440 0.4449 0.4450
2536.000000 0.4452 0.4452 0.4452 0.4452 0.4451
2541.000000 0.4449 0.4448 0.4446 0.4445 0.4442
2546.000000 0.4440 0.4436 0.4432 0.4428 0.4425
2551.000000 0.4421 0.4418 0.4414 0.4410 0.4407
2556.000000 0.4404 0.4400 0.4397 0.4393 0.4389
2561.000000 0.4382 0.4376 0.4369 0.4362 0.4356
2566.000000 0.4350 0.4342 0.4335 0.4327 0.4319
2571.000000 0.4310 0.4301 0.4290 0.4280 0.4269
2576.000000 0.4259 0.4243 0.4228 0.4208 0.4188
2581.000000 0.4162 0.4139 0.4109 0.4080 0.4046
2586.000000 0.4012 0.3973 0.3934 0.3902 0.3870
2591.000000 0.3862 0.3855 0.3849 0.3844 0.3840
2596.000000 0.3836 0.3832 0.3828 0.3812 0.3799
2601.000000 0.3774 0.3749 0.3725 0.3702 0.3679
2606.000000 0.3657 0.3628 0.3599 0.3574 0.3549
2611.000000 0.3528 0.3507 0.3490 0.3474 0.3464
2616.000000 0.3455 0.3445 0.3436 0.3436 0.3437
2621.000000 0.3448 0.3459 0.3480 0.3500 0.3500
2626.000000 0.3499 0.3497 0.3496 0.3490 0.3484
2631.000000 0.3462 0.3439 0.3418 0.3399 0.3372
2636.000000 0.3346 0.3318 0.3290 0.3260 0.3232
2641.000000 0.3203 0.3174 0.3149 0.3124 0.3101
2646.000000 0.3078 0.3055 0.3032 0.3008 0.2984
2651.000000 0.2954 0.2924 0.2890 0.2857 0.2824
2656.000000 0.2791 0.2759 0.2727 0.2695 0.2663
2661.000000 0.2631 0.2600 0.2567 0.2534 0.2502
2666.000000 0.2469 0.2435 0.2403 0.2370 0.2338
2671.000000 0.2293 0.2249 0.2203 0.2157 0.2106
2676.000000 0.2055 0.1998 0.1941 0.1877 0.1813
2681.000000 0.1757 0.1702 0.1663 0.1625 0.1587
2686.000000 0.1549 0.1509 0.1469 0.1429 0.1389
2691.000000 0.1341 0.1292 0.1231 0.1170 0.1108
2696.000000 0.1046 0.1007 0.0967 0.0939 0.0911
2701.000000 0.0903 0.0895 0.0887 0.0879 0.0872
2706.000000 0.0868 0.0867 0.0867 0.0867 0.0868
2711.000000 0.0871 0.0866 0.0876 0.0881 0.0907
2716.000000 0.0933 0.1056 0.1179 0.1302 0.1426
2721.000000 0.1511 0.1596 0.1610 0.1625 0.1629
2726.000000 0.1634 0.1634 0.1633 0.1633 0.1631
2731.000000 0.1627 0.1623 0.1614 0.1604 0.1585
2736.000000 0.1565 0.1542 0.1521 0.1502 0.1483
2741.000000 0.1475 0.1468 0.1462 0.1457 0.1452
2746.000000 0.1446 0.1444 0.1442 0.1441 0.1441
2751.000000 0.1440 0.1440 0.1440 0.1440 0.1441
2756.000000 0.1442 0.1442 0.1442 0.1444 0.1446
2761.000000 0.1449 0.1452 0.1484 0.1516 0.1590
2766.000000 0.1664 0.1737 0.1812 0.1877 0.1943
2771.000000 0.1942 0.1942 0.1941 0.1940 0.1935
2776.000000 0.1933 0.1909 0.1885 0.1815 0.1744
2781.000000 0.1673 0.1603 0.1532 0.1461 0.1390
2786.000000 0.1319 0.1248 0.1178 0.1107 0.1036
2791.000000 0.0971 0.0907 0.0867 0.0826 0.0792
2796.000000 0.0757 0.0721 0.0686 0.0650 0.0615
2801.000000 0.0582 0.0550 0.0542 0.0535 0.0532
2806.000000 0.0530 0.0527 0.0525 0.0522 0.0520
2811.000000 0.0519 0.0519 0.0518 0.0518 0.0506
2816.000000 0.0495 0.0479 0.0464 0.0447 0.0431
2821.000000 0.0411 0.0391 0.0363 0.0336 0.0306
2826.000000 0.0277 0.0253 0.0229 0.0209 0.0191
2831.000000 0.0174 0.0158 0.0146 0.0134 0.0123
2836.000000 0.0112 0.0100 0.0089 0.0077 0.0065
2841.000000 0.0052 0.0042 0.0030 0.0019 0.0012
2846.000000 0.0005 0.0005 0.0005 0.0005 0.0005
2851.000000 0.0005 0.0005 0.0005 0.0005 0.0005
2856.000000 0.0005 0.0005 0.0005 0.0005 0.0005
2861.000000 0.0005 0.0005 0.0005 0.0005 0.0005
2866.000000 0.0005 0.0005 0.0005 0.0005 0.0005
2871.000000 0.0005 0.0005 0.0005 0.0005 0.0005
2876.000000 0.0005 0.0005 0.0005 0.0005 0.0005
2881.000000 0.0005 0.0005 0.0005 0.0005 0.0005
2886.000000 0.0005 0.0005 0.0005 0.0005 0.0005
2891.000000 0.0005 0.0005 0.0005 0.0005 0.0005
2896.000000 0.0005 0.0005 0.0005 0.0005 0.0005
2901.000000 0.0005 0.0005 0.0005 0.0005 0.0005
2906.000000 0.0005 0.0005 0.0005 0.0005 0.0005
2911.000000 0.0005 0.0005 0.0005 0.0005 0.0005
2916.000000 0.0005 0.0005 0.0005 0.0005 0.0005
2921.000000 0.0005 0.0005 0.0005 0.0005 0.0005
2926.000000 0.0005 0.0005 0.0005 0.0005 0.0005
2931.000000 0.0005 0.0005 0.0005 0.0005 0.0005
2936.000000 0.0005 0.0005 0.0005 0.0005 0.0005
2941.000000 0.0005 0.0005 0.0005 0.0005 0.0005
2946.000000 0.0005 0.0005 0.0005 0.0005 0.0005
2951.000000 0.0005 0.0005 0.0005 0.0005 0.0005
2956.000000 0.0005 0.0005 0.0005 0.0005 0.0005
2961.000000 0.0005 0.0005 0.0006 0.0008 0.0011
2966.000000 0.0014 0.0017 0.0021 0.0024 0.0028
2971.000000 0.0031 0.0034 0.0041 0.0049 0.0055
2976.000000 0.0062 0.0071 0.0081 0.0094 0.0107
2981.000000 0.0119 0.0132 0.0148 0.0165 0.0181
2986.000000 0.0198 0.0213 0.0231 0.0249 0.0267
2991.000000 0.0286 0.0305 0.0323 0.0341 0.0359
2996.000000 0.0377 0.0398 0.0419 0.0444 0.0469
3001.000000 0.0493 0.0517 0.0548 0.0580 0.0620
3006.000000 0.0660 0.0731 0.0803 0.0876 0.0952
3011.000000 0.1013 0.1075 0.1136 0.1198 0.1259
3016.000000 0.1321 0.1382 0.1442 0.1504 0.1566
3021.000000 0.1627 0.1689 0.1750 0.1812 0.1873
3026.000000 0.1934 0.1994 0.2057 0.2118 0.2180
3031.000000 0.2241 0.2303 0.2364 0.2425 0.2485
3036.000000 0.2548 0.2609 0.2671 0.2732 0.2793
3041.000000 0.2854 0.2916 0.2977 0.3039 0.3109
3046.000000 0.3179 0.3266 0.3354 0.3425 0.3496
3051.000000 0.3562 0.3629 0.3693 0.3757 0.3806
3056.000000 0.3855 0.3895 0.3934 0.3975 0.4014
3061.000000 0.4050 0.4087 0.4120 0.4154 0.4187
3066.000000 0.4220 0.4253 0.4287 0.4319 0.4352
3071.000000 0.4385 0.4418 0.4450 0.4483 0.4519
3076.000000 0.4556 0.4595 0.4634 0.4673 0.4712
3081.000000 0.4778 0.4844 0.4932 0.5020 0.5101
3086.000000 0.5183 0.5237 0.5291 0.5324 0.5357
3091.000000 0.5372 0.5388 0.5395 0.5403 0.5410
3096.000000 0.5418 0.5420 0.5423 0.5426 0.5429
3101.000000 0.5429 0.5428 0.5428 0.5428 0.5427
3106.000000 0.5426 0.5421 0.5417 0.5412 0.5408
3111.000000 0.5400 0.5393 0.5384 0.5375 0.5365
3116.000000 0.5355 0.5341 0.5328 0.5314 0.5301
3121.000000 0.5281 0.5260 0.5234 0.5207 0.5175
3126.000000 0.5144 0.5109 0.5075 0.4989 0.4903
3131.000000 0.4815 0.4728 0.4640 0.4552 0.4464
3136.000000 0.4376 0.4288 0.4200 0.4112 0.4025
3141.000000 0.3984 0.3946 0.3947 0.3934 0.4062
3146.000000 0.4179 0.4468 0.4758 0.4866 0.4975
3151.000000 0.5004 0.5034 0.5050 0.5067 0.5077
3156.000000 0.5087 0.5092 0.5098 0.5099 0.5101
3161.000000 0.5101 0.5101 0.5099 0.5097 0.5094
3166.000000 0.5091 0.5085 0.5080 0.5075 0.5070
3171.000000 0.5065 0.5060 0.5053 0.5046 0.5037
3176.000000 0.5028 0.5019 0.5010 0.5002 0.4994
3181.000000 0.4985 0.4976 0.4967 0.4958 0.4949
3186.000000 0.4940 0.4931 0.4922 0.4912 0.4902
3191.000000 0.4890 0.4879 0.4867 0.4856 0.4845
3196.000000 0.4834 0.4822 0.4810 0.4799 0.4788
3201.000000 0.4777 0.4766 0.4754 0.4743 0.4732
3206.000000 0.4721 0.4709 0.4698 0.4686 0.4675
3211.000000 0.4664 0.4653 0.4642 0.4632 0.4621
3216.000000 0.4610 0.4601 0.4591 0.4580 0.4570
3221.000000 0.4559 0.4549 0.4538 0.4528 0.4517
3226.000000 0.4507 0.4497 0.4487 0.4479 0.4471
3231.000000 0.4462 0.4456 0.4448 0.4440 0.4432
3236.000000 0.4424 0.4416 0.4408 0.4400 0.4393
3241.000000 0.4385 0.4377 0.4369 0.4360 0.4353
3246.000000 0.4346 0.4337 0.4329 0.4320 0.4310
3251.000000 0.4302 0.4294 0.4285 0.4276 0.4267
3256.000000 0.4258 0.4249 0.4241 0.4232 0.4223
3261.000000 0.4214 0.4205 0.4196 0.4187 0.4178
3266.000000 0.4170 0.4160 0.4152 0.4142 0.4132
3271.000000 0.4122 0.4112 0.4102 0.4092 0.4082
3276.000000 0.4072 0.4062 0.4052 0.4042 0.4032
3281.000000 0.4022 0.4012 0.4002 0.3992 0.3980
3286.000000 0.3971 0.3960 0.3950 0.3940 0.3930
3291.000000 0.3920 0.3909 0.3900 0.3890 0.3879
3296.000000 0.3868 0.3858 0.3847 0.3834 0.3823
3301.000000 0.3809 0.3798 0.3786 0.3774 0.3760
3306.000000 0.3749 0.3737 0.3725 0.3712 0.3700
3311.000000 0.3688 0.3676 0.3662 0.3650 0.3638
3316.000000 0.3625 0.3610 0.3597 0.3582 0.3570
3321.000000 0.3556 0.3542 0.3528 0.3514 0.3500
3326.000000 0.3487 0.3473 0.3459 0.3446 0.3432
3331.000000 0.3418 0.3405 0.3391 0.3377 0.3360
3336.000000 0.3345 0.3329 0.3312 0.3297 0.3280
3341.000000 0.3264 0.3250 0.3234 0.3218 0.3202
3346.000000 0.3185 0.3170 0.3154 0.3138 0.3123
3351.000000 0.3107 0.3092 0.3078 0.3065 0.3051
3356.000000 0.3037 0.3023 0.3010 0.2996 0.2983
3361.000000 0.2969 0.2956 0.2942 0.2928 0.2914
3366.000000 0.2901 0.2887 0.2874 0.2861 0.2848
3371.000000 0.2837 0.2827 0.2816 0.2805 0.2794
3376.000000 0.2784 0.2773 0.2763 0.2752 0.2742
3381.000000 0.2731 0.2720 0.2709 0.2699 0.2688
3386.000000 0.2678 0.2667 0.2657 0.2646 0.2634
3391.000000 0.2624 0.2614 0.2605 0.2597 0.2588
3396.000000 0.2579 0.2570 0.2561 0.2552 0.2544
3401.000000 0.2534 0.2526 0.2517 0.2509 0.2500
3406.000000 0.2491 0.2482 0.2473 0.2465 0.2457
3411.000000 0.2450 0.2443 0.2435 0.2429 0.2422
3416.000000 0.2415 0.2408 0.2402 0.2395 0.2388
3421.000000 0.2381 0.2374 0.2367 0.2360 0.2353
3426.000000 0.2347 0.2340 0.2333 0.2327 0.2322
3431.000000 0.2319 0.2316 0.2313 0.2310 0.2307
3436.000000 0.2305 0.2302 0.2299 0.2296 0.2293
3441.000000 0.2290 0.2287 0.2284 0.2282 0.2279
3446.000000 0.2276 0.2273 0.2271 0.2269 0.2267
3451.000000 0.2264 0.2262 0.2260 0.2260 0.2260
3456.000000 0.2261 0.2262 0.2264 0.2266 0.2268
3461.000000 0.2270 0.2272 0.2273 0.2275 0.2277
3466.000000 0.2279 0.2283 0.2288 0.2292 0.2297
3471.000000 0.2302 0.2307 0.2311 0.2316 0.2320
3476.000000 0.2325 0.2329 0.2334 0.2338 0.2343
3481.000000 0.2348 0.2353 0.2357 0.2362 0.2366
3486.000000 0.2371 0.2375 0.2380 0.2384 0.2391
3491.000000 0.2397 0.2403 0.2409 0.2415 0.2421
3496.000000 0.2427 0.2432 0.2438 0.2444 0.2450
3501.000000 0.2456 0.2462 0.2468 0.2474 0.2479
3506.000000 0.2484 0.2492 0.2500 0.2508 0.2516
3511.000000 0.2523 0.2531 0.2539 0.2547 0.2555
3516.000000 0.2563 0.2570 0.2578 0.2585 0.2594
3521.000000 0.2602 0.2610 0.2617 0.2625 0.2632
3526.000000 0.2640 0.2647 0.2654 0.2661 0.2668
3531.000000 0.2675 0.2682 0.2689 0.2696 0.2703
3536.000000 0.2710 0.2717 0.2724 0.2731 0.2738
3541.000000 0.2745 0.2752 0.2759 0.2766 0.2774
3546.000000 0.2782 0.2790 0.2799 0.2807 0.2815
3551.000000 0.2823 0.2832 0.2840 0.2848 0.2856
3556.000000 0.2864 0.2872 0.2881 0.2889 0.2897
3561.000000 0.2905 0.2914 0.2923 0.2933 0.2944
3566.000000 0.2955 0.2966 0.2977 0.2988 0.2999
3571.000000 0.3010 0.3021 0.3032 0.3043 0.3054
3576.000000 0.3066 0.3077 0.3089 0.3100 0.3112
3581.000000 0.3123 0.3134 0.3146 0.3158 0.3169
3586.000000 0.3181 0.3192 0.3204 0.3214 0.3227
3591.000000 0.3238 0.3250 0.3260 0.3273 0.3284
3596.000000 0.3298 0.3310 0.3325 0.3338 0.3352
3601.000000 0.3366 0.3380 0.3393 0.3407 0.3420
3606.000000 0.3434 0.3448 0.3462 0.3475 0.3489
3611.000000 0.3505 0.3521 0.3536 0.3552 0.3568
3616.000000 0.3584 0.3600 0.3616 0.3630 0.3647
3621.000000 0.3662 0.3679 0.3695 0.3710 0.3726
3626.000000 0.3742 0.3759 0.3776 0.3793 0.3810
3631.000000 0.3828 0.3846 0.3862 0.3880 0.3897
3636.000000 0.3914 0.3932 0.3949 0.3966 0.3984
3641.000000 0.4003 0.4021 0.4039 0.4057 0.4075
3646.000000 0.4093 0.4110 0.4130 0.4148 0.4166
3651.000000 0.4183 0.4200 0.4216 0.4232 0.4248
3656.000000 0.4265 0.4281 0.4297 0.4312 0.4330
3661.000000 0.4345 0.4360 0.4369 0.4379 0.4388
3666.000000 0.4398 0.4407 0.4417 0.4427 0.4437
3671.000000 0.4446 0.4456 0.4465 0.4475 0.4478
3676.000000 0.4482 0.4485 0.4488 0.4490 0.4493
3681.000000 0.4496 0.4499 0.4500 0.4502 0.4502
3686.000000 0.4503 0.4503 0.4504 0.4504 0.4505
3691.000000 0.4505 0.4506 0.4506 0.4507 0.4507
3696.000000 0.4508 0.4508 0.4508 0.4508 0.4509
3701.000000 0.4509 0.4509 0.4509 0.4509 0.4509
3706.000000 0.4509 0.4509 0.4509 0.4509 0.4509
3711.000000 0.4509 0.4509 0.4509 0.4509 0.4509
3716.000000 0.4509 0.4509 0.4509 0.4509 0.4509
3721.000000 0.4508 0.4508 0.4507 0.4506 0.4505
3726.000000 0.4504 0.4503 0.4502 0.4501 0.4500
3731.000000 0.4499 0.4498 0.4497 0.4496 0.4495
3736.000000 0.4494 0.4493 0.4492 0.4491 0.4491
3741.000000 0.4490 0.4490 0.4489 0.4489 0.4488
3746.000000 0.4488 0.4487 0.4487 0.4486 0.4486
3751.000000 0.4485 0.4485 0.4484 0.4484 0.4483
3756.000000 0.4483 0.4482 0.4482 0.4481 0.4481
3761.000000 0.4481 0.4481 0.4481 0.4481 0.4480
3766.000000 0.4480 0.4480 0.4480 0.4480 0.4480
3771.000000 0.4480 0.4480 0.4480 0.4480 0.4479
3776.000000 0.4478 0.4477 0.4476 0.4474 0.4473
3781.000000 0.4472 0.4471 0.4469 0.4468 0.4467
3786.000000 0.4466 0.4464 0.4462 0.4462 0.4460
3791.000000 0.4459 0.4458 0.4457 0.4456 0.4454
3796.000000 0.4453 0.4452 0.4451
##END=
