##TITLE=Glyceryl tri-18-acetoxystearate
##JCAMP-DX=4.24
$$ By DXEDIT 1.05 (RS McDonald)
##DATA TYPE=INFRARED SPECTRUM
##CLASS=COBLENTZ III
##ORIGIN=DOW CHEMICAL COMPANY
##OWNER=COPYRIGHT (C) 1988 by COBLENTZ SOCIETY INC.
Collection (C) 2018 copyright by the U.S. Secretary of Commerce
on behalf of the United States of America. All rights reserved.
##DATE=1970/02/04
##NAMES=2-([18-(acetyloxy)octadecanoyl]oxy)-1-(([18-(acetyloxy)octadecanoyl]oxy)methyl)ethyl 18-(acetyloxy)octadecanoate
Paricin 8 (Baker Castor Oil Co.)
##MOLFORM=C63 H116 O12
##SOURCE REFERENCE=COBLENTZ NO. 09643
##$NIST ID=B6009643
##$NIST SOURCE=COBLENTZ
##$NIST IMAGE=cob9643
##SPECTROMETER/DATA SYSTEM=DOW KBr FOREPRISM-GRATING
##INSTRUMENT PARAMETERS=BLAZED AT 3.5, 12.0, 20.0 MICRON AND CHANGED AT 5.0, 7.5, 14.9 MICRON
##STATE=SOLUTION (10% CCl4 FOR 2.7-7.5, 10% CS2 FOR 7.5-26 MICRON) VS SOLVENT
##PATH LENGTH=0.011 CM, 0.011 CM
##SAMPLING PROCEDURE=TRANSMISSION
##RESOLUTION=2
##DATA PROCESSING=DIGITIZED BY COBLENTZ SOCIETY (BATCH I) FROM HARD COPY
##XUNITS=1/CM
##YUNITS=TRANSMITTANCE
##XFACTOR=1
##YFACTOR=1
##DELTAX=1
##FIRSTX=3794
##LASTX=391
##FIRSTY=0.8681
##MAXX=3794
##MINX=391
##MAXY=0.887
##MINY=0.0025
##NPOINTS=3404
##XYDATA=(X++(Y..Y))
3794.000000 0.8681 0.8681 0.8681 0.8680 0.8680
3789.000000 0.8680 0.8680 0.8680 0.8680 0.8680
3784.000000 0.8680 0.8678 0.8678 0.8678 0.8678
3779.000000 0.8678 0.8678 0.8678 0.8678 0.8678
3774.000000 0.8678 0.8678 0.8678 0.8678 0.8678
3769.000000 0.8678 0.8678 0.8678 0.8678 0.8677
3764.000000 0.8677 0.8677 0.8678 0.8678 0.8678
3759.000000 0.8678 0.8680 0.8680 0.8681 0.8681
3754.000000 0.8681 0.8681 0.8682 0.8682 0.8683
3749.000000 0.8683 0.8684 0.8684 0.8685 0.8685
3744.000000 0.8686 0.8686 0.8686 0.8686 0.8687
3739.000000 0.8687 0.8688 0.8688 0.8689 0.8689
3734.000000 0.8689 0.8689 0.8690 0.8690 0.8690
3729.000000 0.8690 0.8691 0.8691 0.8692 0.8692
3724.000000 0.8692 0.8692 0.8693 0.8693 0.8694
3719.000000 0.8694 0.8694 0.8694 0.8695 0.8695
3714.000000 0.8695 0.8695 0.8696 0.8696 0.8697
3709.000000 0.8697 0.8697 0.8697 0.8698 0.8698
3704.000000 0.8698 0.8697 0.8697 0.8696 0.8696
3699.000000 0.8696 0.8696 0.8695 0.8695 0.8694
3694.000000 0.8694 0.8693 0.8693 0.8693 0.8693
3689.000000 0.8692 0.8692 0.8691 0.8691 0.8690
3684.000000 0.8690 0.8690 0.8690 0.8689 0.8689
3679.000000 0.8688 0.8688 0.8687 0.8687 0.8687
3674.000000 0.8687 0.8686 0.8686 0.8685 0.8685
3669.000000 0.8684 0.8684 0.8683 0.8683 0.8683
3664.000000 0.8683 0.8682 0.8682 0.8681 0.8681
3659.000000 0.8680 0.8680 0.8680 0.8680 0.8678
3654.000000 0.8678 0.8678 0.8678 0.8677 0.8677
3649.000000 0.8677 0.8677 0.8677 0.8677 0.8677
3644.000000 0.8677 0.8675 0.8675 0.8675 0.8675
3639.000000 0.8675 0.8677 0.8677 0.8678 0.8678
3634.000000 0.8678 0.8678 0.8677 0.8675 0.8674
3629.000000 0.8671 0.8668 0.8664 0.8661 0.8658
3624.000000 0.8655 0.8651 0.8648 0.8644 0.8641
3619.000000 0.8637 0.8633 0.8628 0.8625 0.8623
3614.000000 0.8620 0.8618 0.8618 0.8617 0.8617
3609.000000 0.8616 0.8616 0.8615 0.8615 0.8615
3604.000000 0.8615 0.8615 0.8615 0.8615 0.8615
3599.000000 0.8614 0.8614 0.8614 0.8614 0.8614
3594.000000 0.8614 0.8614 0.8614 0.8614 0.8615
3589.000000 0.8615 0.8616 0.8616 0.8617 0.8618
3584.000000 0.8618 0.8618 0.8620 0.8620 0.8621
3579.000000 0.8621 0.8621 0.8625 0.8628 0.8633
3574.000000 0.8637 0.8641 0.8645 0.8649 0.8653
3569.000000 0.8658 0.8664 0.8668 0.8675 0.8680
3564.000000 0.8686 0.8691 0.8697 0.8701 0.8705
3559.000000 0.8709 0.8713 0.8716 0.8720 0.8724
3554.000000 0.8728 0.8730 0.8731 0.8731 0.8731
3549.000000 0.8730 0.8730 0.8728 0.8728 0.8728
3544.000000 0.8728 0.8727 0.8727 0.8725 0.8725
3539.000000 0.8725 0.8725 0.8725 0.8725 0.8724
3534.000000 0.8724 0.8723 0.8723 0.8723 0.8723
3529.000000 0.8721 0.8721 0.8721 0.8721 0.8721
3524.000000 0.8721 0.8721 0.8721 0.8721 0.8721
3519.000000 0.8721 0.8721 0.8721 0.8721 0.8721
3514.000000 0.8721 0.8720 0.8720 0.8720 0.8720
3509.000000 0.8720 0.8720 0.8720 0.8720 0.8718
3504.000000 0.8718 0.8718 0.8718 0.8718 0.8718
3499.000000 0.8717 0.8717 0.8716 0.8716 0.8716
3494.000000 0.8716 0.8715 0.8715 0.8714 0.8714
3489.000000 0.8714 0.8714 0.8714 0.8715 0.8715
3484.000000 0.8715 0.8715 0.8715 0.8715 0.8715
3479.000000 0.8715 0.8716 0.8716 0.8716 0.8715
3474.000000 0.8715 0.8711 0.8708 0.8704 0.8701
3469.000000 0.8697 0.8693 0.8686 0.8680 0.8674
3464.000000 0.8668 0.8661 0.8655 0.8649 0.8643
3459.000000 0.8637 0.8631 0.8625 0.8620 0.8614
3454.000000 0.8609 0.8604 0.8599 0.8596 0.8593
3449.000000 0.8590 0.8587 0.8584 0.8581 0.8580
3444.000000 0.8580 0.8578 0.8578 0.8577 0.8575
3439.000000 0.8575 0.8575 0.8574 0.8574 0.8575
3434.000000 0.8577 0.8578 0.8580 0.8582 0.8584
3429.000000 0.8585 0.8587 0.8589 0.8591 0.8592
3424.000000 0.8594 0.8597 0.8600 0.8604 0.8608
3419.000000 0.8612 0.8617 0.8623 0.8630 0.8638
3414.000000 0.8647 0.8655 0.8664 0.8671 0.8681
3409.000000 0.8689 0.8697 0.8704 0.8712 0.8718
3404.000000 0.8727 0.8734 0.8742 0.8748 0.8754
3399.000000 0.8760 0.8767 0.8773 0.8780 0.8786
3394.000000 0.8792 0.8797 0.8802 0.8804 0.8807
3389.000000 0.8809 0.8812 0.8814 0.8817 0.8818
3384.000000 0.8821 0.8823 0.8825 0.8828 0.8831
3379.000000 0.8833 0.8836 0.8838 0.8841 0.8843
3374.000000 0.8845 0.8847 0.8850 0.8851 0.8852
3369.000000 0.8852 0.8853 0.8853 0.8854 0.8854
3364.000000 0.8855 0.8855 0.8856 0.8856 0.8857
3359.000000 0.8857 0.8857 0.8857 0.8858 0.8858
3354.000000 0.8859 0.8859 0.8860 0.8860 0.8861
3349.000000 0.8861 0.8862 0.8862 0.8863 0.8863
3344.000000 0.8864 0.8864 0.8865 0.8865 0.8865
3339.000000 0.8865 0.8865 0.8865 0.8865 0.8865
3334.000000 0.8865 0.8865 0.8865 0.8865 0.8865
3329.000000 0.8865 0.8865 0.8865 0.8865 0.8865
3324.000000 0.8865 0.8865 0.8865 0.8865 0.8865
3319.000000 0.8865 0.8865 0.8865 0.8865 0.8865
3314.000000 0.8865 0.8865 0.8865 0.8865 0.8865
3309.000000 0.8864 0.8864 0.8863 0.8863 0.8862
3304.000000 0.8862 0.8861 0.8861 0.8860 0.8860
3299.000000 0.8859 0.8859 0.8858 0.8858 0.8857
3294.000000 0.8857 0.8856 0.8856 0.8855 0.8855
3289.000000 0.8854 0.8854 0.8853 0.8853 0.8853
3284.000000 0.8853 0.8852 0.8852 0.8851 0.8851
3279.000000 0.8850 0.8850 0.8850 0.8850 0.8850
3274.000000 0.8850 0.8850 0.8850 0.8849 0.8849
3269.000000 0.8849 0.8849 0.8849 0.8849 0.8849
3264.000000 0.8849 0.8848 0.8848 0.8848 0.8848
3259.000000 0.8848 0.8848 0.8848 0.8848 0.8847
3254.000000 0.8847 0.8847 0.8847 0.8847 0.8847
3249.000000 0.8847 0.8847 0.8847 0.8847 0.8847
3244.000000 0.8847 0.8847 0.8847 0.8847 0.8847
3239.000000 0.8847 0.8847 0.8847 0.8847 0.8847
3234.000000 0.8847 0.8847 0.8847 0.8847 0.8847
3229.000000 0.8847 0.8847 0.8847 0.8847 0.8847
3224.000000 0.8847 0.8846 0.8846 0.8845 0.8845
3219.000000 0.8845 0.8845 0.8844 0.8844 0.8843
3214.000000 0.8843 0.8843 0.8843 0.8842 0.8842
3209.000000 0.8842 0.8842 0.8842 0.8842 0.8842
3204.000000 0.8842 0.8842 0.8842 0.8842 0.8843
3199.000000 0.8843 0.8843 0.8843 0.8843 0.8843
3194.000000 0.8843 0.8843 0.8843 0.8842 0.8842
3189.000000 0.8841 0.8840 0.8839 0.8838 0.8837
3184.000000 0.8870 0.8835 0.8835 0.8834 0.8833
3179.000000 0.8832 0.8831 0.8831 0.8831 0.8830
3174.000000 0.8830 0.8830 0.8830 0.8830 0.8830
3169.000000 0.8830 0.8830 0.8828 0.8828 0.8828
3164.000000 0.8828 0.8828 0.8828 0.8827 0.8827
3159.000000 0.8825 0.8825 0.8825 0.8825 0.8825
3154.000000 0.8825 0.8824 0.8824 0.8823 0.8823
3149.000000 0.8823 0.8823 0.8821 0.8821 0.8821
3144.000000 0.8821 0.8820 0.8820 0.8820 0.8820
3139.000000 0.8818 0.8818 0.8816 0.8815 0.8813
3134.000000 0.8812 0.8810 0.8809 0.8807 0.8806
3129.000000 0.8804 0.8803 0.8801 0.8800 0.8798
3124.000000 0.8797 0.8795 0.8794 0.8792 0.8790
3119.000000 0.8788 0.8786 0.8784 0.8782 0.8780
3114.000000 0.8778 0.8775 0.8774 0.8771 0.8770
3109.000000 0.8768 0.8766 0.8764 0.8762 0.8760
3104.000000 0.8758 0.8756 0.8754 0.8752 0.8750
3099.000000 0.8748 0.8746 0.8743 0.8741 0.8738
3094.000000 0.8736 0.8734 0.8732 0.8728 0.8727
3089.000000 0.8723 0.8720 0.8716 0.8712 0.8707
3084.000000 0.8703 0.8698 0.8694 0.8691 0.8688
3079.000000 0.8685 0.8683 0.8680 0.8677 0.8674
3074.000000 0.8671 0.8668 0.8665 0.8657 0.8650
3069.000000 0.8640 0.8630 0.8620 0.8611 0.8601
3064.000000 0.8591 0.8584 0.8577 0.8571 0.8565
3059.000000 0.8559 0.8553 0.8547 0.8541 0.8535
3054.000000 0.8530 0.8523 0.8517 0.8508 0.8499
3049.000000 0.8488 0.8478 0.8465 0.8452 0.8439
3044.000000 0.8425 0.8413 0.8400 0.8387 0.8374
3039.000000 0.8360 0.8346 0.8332 0.8318 0.8305
3034.000000 0.8291 0.8277 0.8264 0.8248 0.8232
3029.000000 0.8213 0.8194 0.8175 0.8157 0.8138
3024.000000 0.8118 0.8100 0.8081 0.8061 0.8042
3019.000000 0.8021 0.8001 0.7982 0.7961 0.7943
3014.000000 0.7925 0.7914 0.7903 0.7891 0.7880
3009.000000 0.7868 0.7858 0.7845 0.7833 0.7815
3004.000000 0.7798 0.7780 0.7762 0.7742 0.7721
2999.000000 0.7691 0.7661 0.7628 0.7597 0.7541
2994.000000 0.7486 0.7431 0.7375 0.7300 0.7224
2989.000000 0.7130 0.7036 0.6849 0.6662 0.6558
2984.000000 0.6454 0.6016 0.5579 0.5357 0.5135
2979.000000 0.4799 0.4464 0.4336 0.4208 0.4055
2974.000000 0.3903 0.3741 0.3579 0.3395 0.3210
2969.000000 0.3058 0.2906 0.2753 0.2600 0.2447
2964.000000 0.2294 0.2141 0.1989 0.1835 0.1683
2959.000000 0.1530 0.1377 0.1232 0.1088 0.1008
2954.000000 0.0928 0.0882 0.0837 0.0801 0.0766
2949.000000 0.0732 0.0699 0.0664 0.0630 0.0590
2944.000000 0.0550 0.0502 0.0455 0.0398 0.0342
2939.000000 0.0309 0.0277 0.0246 0.0215 0.0199
2934.000000 0.0183 0.0168 0.0153 0.0142 0.0131
2929.000000 0.0124 0.0117 0.0114 0.0111 0.0107
2924.000000 0.0104 0.0103 0.0089 0.0101 0.0100
2919.000000 0.0099 0.0099 0.0103 0.0107 0.0111
2914.000000 0.0115 0.0128 0.0142 0.0163 0.0184
2909.000000 0.0223 0.0262 0.0295 0.0328 0.0360
2904.000000 0.0393 0.0427 0.0464 0.0546 0.0628
2899.000000 0.0750 0.0872 0.0995 0.1118 0.1240
2894.000000 0.1363 0.1485 0.1608 0.1729 0.1853
2889.000000 0.1975 0.2098 0.2221 0.2344 0.2466
2884.000000 0.2589 0.2711 0.2834 0.2956 0.3079
2879.000000 0.3200 0.3324 0.3426 0.3529 0.3506
2874.000000 0.3542 0.3309 0.3135 0.2962 0.2788
2869.000000 0.2613 0.2439 0.2265 0.2091 0.1916
2864.000000 0.1742 0.1568 0.1394 0.1220 0.1046
2859.000000 0.0871 0.0697 0.0548 0.0399 0.0391
2854.000000 0.0401 0.0380 0.0381 0.0381 0.0384
2849.000000 0.0389 0.0395 0.0421 0.0448 0.0516
2844.000000 0.0584 0.0700 0.0817 0.1325 0.1834
2839.000000 0.2365 0.2897 0.3428 0.3959 0.4262
2834.000000 0.4567 0.4784 0.5001 0.5089 0.5177
2829.000000 0.5325 0.5473 0.5701 0.5929 0.6112
2824.000000 0.6296 0.6396 0.6496 0.6549 0.6601
2819.000000 0.6655 0.6708 0.6757 0.6806 0.6849
2814.000000 0.6893 0.6935 0.6978 0.7012 0.7049
2809.000000 0.7084 0.7119 0.7155 0.7190 0.7225
2804.000000 0.7260 0.7294 0.7328 0.7362 0.7398
2799.000000 0.7430 0.7461 0.7489 0.7515 0.7543
2794.000000 0.7571 0.7598 0.7625 0.7651 0.7680
2789.000000 0.7707 0.7735 0.7762 0.7791 0.7818
2784.000000 0.7846 0.7871 0.7897 0.7918 0.7940
2779.000000 0.7961 0.7983 0.8004 0.8025 0.8041
2774.000000 0.8057 0.8071 0.8086 0.8100 0.8114
2769.000000 0.8128 0.8143 0.8156 0.8168 0.8178
2764.000000 0.8188 0.8197 0.8207 0.8217 0.8227
2759.000000 0.8232 0.8238 0.8243 0.8249 0.8254
2754.000000 0.8260 0.8262 0.8264 0.8266 0.8268
2749.000000 0.8268 0.8271 0.8273 0.8275 0.8275
2744.000000 0.8275 0.8274 0.8273 0.8271 0.8271
2739.000000 0.8270 0.8268 0.8268 0.8268 0.8268
2734.000000 0.8268 0.8268 0.8268 0.8268 0.8268
2729.000000 0.8268 0.8268 0.8268 0.8270 0.8270
2724.000000 0.8270 0.8270 0.8270 0.8270 0.8270
2719.000000 0.8270 0.8271 0.8274 0.8278 0.8281
2714.000000 0.8285 0.8289 0.8293 0.8298 0.8303
2709.000000 0.8308 0.8313 0.8318 0.8323 0.8328
2704.000000 0.8333 0.8338 0.8344 0.8349 0.8355
2699.000000 0.8358 0.8362 0.8362 0.8362 0.8360
2694.000000 0.8358 0.8354 0.8350 0.8346 0.8342
2689.000000 0.8338 0.8334 0.8330 0.8327 0.8323
2684.000000 0.8318 0.8316 0.8314 0.8311 0.8309
2679.000000 0.8307 0.8305 0.8303 0.8301 0.8298
2674.000000 0.8296 0.8294 0.8292 0.8290 0.8289
2669.000000 0.8292 0.8296 0.8299 0.8303 0.8306
2664.000000 0.8310 0.8313 0.8317 0.8320 0.8324
2659.000000 0.8327 0.8331 0.8334 0.8338 0.8341
2654.000000 0.8345 0.8348 0.8352 0.8356 0.8360
2649.000000 0.8364 0.8368 0.8371 0.8375 0.8378
2644.000000 0.8383 0.8387 0.8391 0.8395 0.8399
2639.000000 0.8403 0.8407 0.8410 0.8414 0.8418
2634.000000 0.8421 0.8425 0.8430 0.8434 0.8438
2629.000000 0.8441 0.8445 0.8448 0.8452 0.8455
2624.000000 0.8459 0.8462 0.8466 0.8468 0.8473
2619.000000 0.8475 0.8480 0.8483 0.8487 0.8490
2614.000000 0.8494 0.8497 0.8501 0.8504 0.8508
2609.000000 0.8511 0.8515 0.8518 0.8521 0.8525
2604.000000 0.8528 0.8532 0.8536 0.8539 0.8543
2599.000000 0.8546 0.8550 0.8553 0.8557 0.8560
2594.000000 0.8564 0.8567 0.8570 0.8573 0.8575
2589.000000 0.8578 0.8581 0.8584 0.8587 0.8590
2584.000000 0.8593 0.8595 0.8598 0.8601 0.8604
2579.000000 0.8606 0.8609 0.8612 0.8615 0.8618
2574.000000 0.8621 0.8623 0.8625 0.8628 0.8632
2569.000000 0.8635 0.8638 0.8640 0.8643 0.8646
2564.000000 0.8649 0.8651 0.8654 0.8657 0.8660
2559.000000 0.8661 0.8663 0.8664 0.8665 0.8666
2554.000000 0.8668 0.8668 0.8671 0.8671 0.8674
2549.000000 0.8675 0.8677 0.8678 0.8678 0.8680
2544.000000 0.8682 0.8683 0.8685 0.8686 0.8688
2539.000000 0.8689 0.8690 0.8691 0.8693 0.8694
2534.000000 0.8695 0.8696 0.8698 0.8699 0.8700
2529.000000 0.8701 0.8703 0.8704 0.8705 0.8705
2524.000000 0.8706 0.8706 0.8707 0.8707 0.8708
2519.000000 0.8708 0.8709 0.8709 0.8710 0.8710
2514.000000 0.8711 0.8711 0.8711 0.8711 0.8712
2509.000000 0.8712 0.8713 0.8713 0.8714 0.8714
2504.000000 0.8715 0.8715 0.8716 0.8716 0.8717
2499.000000 0.8717 0.8717 0.8717 0.8718 0.8718
2494.000000 0.8718 0.8718 0.8718 0.8718 0.8720
2489.000000 0.8720 0.8721 0.8721 0.8721 0.8721
2484.000000 0.8723 0.8724 0.8725 0.8725 0.8725
2479.000000 0.8727 0.8728 0.8728 0.8728 0.8730
2474.000000 0.8731 0.8731 0.8732 0.8733 0.8734
2469.000000 0.8735 0.8737 0.8738 0.8739 0.8740
2464.000000 0.8742 0.8743 0.8744 0.8745 0.8747
2459.000000 0.8748 0.8749 0.8750 0.8751 0.8752
2454.000000 0.8754 0.8755 0.8756 0.8757 0.8759
2449.000000 0.8760 0.8762 0.8763 0.8765 0.8766
2444.000000 0.8768 0.8768 0.8770 0.8771 0.8773
2439.000000 0.8774 0.8775 0.8777 0.8778 0.8780
2434.000000 0.8782 0.8783 0.8784 0.8785 0.8787
2429.000000 0.8788 0.8789 0.8789 0.8789 0.8789
2424.000000 0.8790 0.8790 0.8791 0.8791 0.8792
2419.000000 0.8792 0.8793 0.8793 0.8794 0.8794
2414.000000 0.8795 0.8795 0.8795 0.8795 0.8794
2409.000000 0.8794 0.8793 0.8791 0.8790 0.8788
2404.000000 0.8786 0.8784 0.8783 0.8781 0.8780
2399.000000 0.8778 0.8775 0.8774 0.8773 0.8771
2394.000000 0.8768 0.8767 0.8766 0.8764 0.8763
2389.000000 0.8762 0.8762 0.8762 0.8763 0.8763
2384.000000 0.8763 0.8763 0.8763 0.8763 0.8764
2379.000000 0.8764 0.8764 0.8765 0.8766 0.8766
2374.000000 0.8767 0.8768 0.8768 0.8770 0.8771
2369.000000 0.8771 0.8773 0.8773 0.8774 0.8775
2364.000000 0.8775 0.8777 0.8778 0.8778 0.8780
2359.000000 0.8781 0.8782 0.8782 0.8783 0.8784
2354.000000 0.8785 0.8785 0.8786 0.8786 0.8786
2349.000000 0.8786 0.8786 0.8786 0.8786 0.8786
2344.000000 0.8786 0.8786 0.8786 0.8786 0.8787
2339.000000 0.8787 0.8787 0.8787 0.8787 0.8787
2334.000000 0.8787 0.8787 0.8787 0.8786 0.8786
2329.000000 0.8786 0.8786 0.8786 0.8786 0.8783
2324.000000 0.8780 0.8775 0.8771 0.8768 0.8764
2319.000000 0.8759 0.8755 0.8750 0.8745 0.8740
2314.000000 0.8735 0.8731 0.8727 0.8721 0.8718
2309.000000 0.8714 0.8710 0.8710 0.8710 0.8710
2304.000000 0.8711 0.8711 0.8711 0.8711 0.8712
2299.000000 0.8712 0.8713 0.8713 0.8713 0.8713
2294.000000 0.8714 0.8714 0.8715 0.8715 0.8716
2289.000000 0.8716 0.8717 0.8717 0.8718 0.8718
2284.000000 0.8718 0.8720 0.8721 0.8721 0.8721
2279.000000 0.8721 0.8723 0.8723 0.8724 0.8724
2274.000000 0.8725 0.8725 0.8725 0.8727 0.8728
2269.000000 0.8730 0.8732 0.8733 0.8734 0.8735
2264.000000 0.8737 0.8738 0.8740 0.8741 0.8743
2259.000000 0.8744 0.8745 0.8746 0.8748 0.8749
2254.000000 0.8750 0.8751 0.8752 0.8753 0.8754
2249.000000 0.8755 0.8757 0.8758 0.8759 0.8760
2244.000000 0.8761 0.8762 0.8763 0.8764 0.8765
2239.000000 0.8766 0.8768 0.8768 0.8770 0.8771
2234.000000 0.8771 0.8773 0.8774 0.8775 0.8777
2229.000000 0.8778 0.8780 0.8781 0.8783 0.8784
2224.000000 0.8786 0.8787 0.8789 0.8790 0.8791
2219.000000 0.8792 0.8794 0.8795 0.8797 0.8798
2214.000000 0.8800 0.8800 0.8800 0.8800 0.8800
2209.000000 0.8800 0.8800 0.8799 0.8799 0.8799
2204.000000 0.8799 0.8798 0.8798 0.8797 0.8796
2199.000000 0.8795 0.8795 0.8795 0.8795 0.8795
2194.000000 0.8796 0.8796 0.8796 0.8796 0.8797
2189.000000 0.8797 0.8797 0.8797 0.8797 0.8800
2184.000000 0.8803 0.8807 0.8812 0.8818 0.8824
2179.000000 0.8830 0.8836 0.8840 0.8845 0.8845
2174.000000 0.8845 0.8844 0.8844 0.8840 0.8836
2169.000000 0.8827 0.8818 0.8811 0.8804 0.8802
2164.000000 0.8800 0.8799 0.8798 0.8798 0.8799
2159.000000 0.8799 0.8800 0.8801 0.8802 0.8802
2154.000000 0.8803 0.8803 0.8804 0.8804 0.8805
2149.000000 0.8805 0.8806 0.8806 0.8807 0.8808
2144.000000 0.8809 0.8809 0.8810 0.8810 0.8811
2139.000000 0.8811 0.8812 0.8812 0.8813 0.8813
2134.000000 0.8814 0.8815 0.8816 0.8816 0.8817
2129.000000 0.8817 0.8818 0.8818 0.8818 0.8818
2124.000000 0.8820 0.8820 0.8820 0.8820 0.8821
2119.000000 0.8821 0.8821 0.8821 0.8823 0.8823
2114.000000 0.8823 0.8821 0.8821 0.8820 0.8818
2109.000000 0.8818 0.8817 0.8816 0.8815 0.8814
2104.000000 0.8813 0.8812 0.8811 0.8810 0.8810
2099.000000 0.8809 0.8808 0.8807 0.8806 0.8805
2094.000000 0.8805 0.8804 0.8803 0.8802 0.8801
2089.000000 0.8800 0.8800 0.8799 0.8798 0.8797
2084.000000 0.8796 0.8795 0.8795 0.8794 0.8793
2079.000000 0.8792 0.8791 0.8790 0.8790 0.8789
2074.000000 0.8788 0.8787 0.8786 0.8785 0.8785
2069.000000 0.8784 0.8783 0.8782 0.8781 0.8780
2064.000000 0.8780 0.8778 0.8778 0.8777 0.8775
2059.000000 0.8775 0.8775 0.8774 0.8773 0.8771
2054.000000 0.8771 0.8770 0.8770 0.8768 0.8768
2049.000000 0.8767 0.8766 0.8765 0.8765 0.8764
2044.000000 0.8763 0.8762 0.8761 0.8760 0.8760
2039.000000 0.8759 0.8758 0.8757 0.8756 0.8755
2034.000000 0.8755 0.8754 0.8753 0.8752 0.8751
2029.000000 0.8750 0.8750 0.8749 0.8748 0.8747
2024.000000 0.8746 0.8745 0.8745 0.8744 0.8743
2019.000000 0.8742 0.8741 0.8740 0.8740 0.8739
2014.000000 0.8738 0.8737 0.8737 0.8737 0.8737
2009.000000 0.8737 0.8738 0.8738 0.8738 0.8738
2004.000000 0.8739 0.8739 0.8739 0.8740 0.8741
1999.000000 0.8741 0.8741 0.8741 0.8741 0.8741
1994.000000 0.8741 0.8741 0.8741 0.8741 0.8741
1989.000000 0.8741 0.8741 0.8741 0.8741 0.8741
1984.000000 0.8741 0.8741 0.8741 0.8742 0.8743
1979.000000 0.8743 0.8744 0.8745 0.8746 0.8746
1974.000000 0.8747 0.8748 0.8749 0.8749 0.8750
1969.000000 0.8751 0.8751 0.8752 0.8753 0.8754
1964.000000 0.8754 0.8755 0.8756 0.8756 0.8756
1959.000000 0.8756 0.8756 0.8756 0.8756 0.8755
1954.000000 0.8755 0.8755 0.8755 0.8754 0.8754
1949.000000 0.8754 0.8754 0.8754 0.8753 0.8753
1944.000000 0.8753 0.8753 0.8752 0.8752 0.8752
1939.000000 0.8752 0.8751 0.8751 0.8751 0.8750
1934.000000 0.8749 0.8749 0.8748 0.8748 0.8747
1929.000000 0.8747 0.8746 0.8746 0.8745 0.8744
1924.000000 0.8744 0.8743 0.8743 0.8742 0.8742
1919.000000 0.8741 0.8741 0.8740 0.8740 0.8739
1914.000000 0.8738 0.8737 0.8735 0.8734 0.8732
1909.000000 0.8730 0.8728 0.8727 0.8725 0.8723
1904.000000 0.8721 0.8720 0.8718 0.8716 0.8714
1899.000000 0.8713 0.8711 0.8709 0.8707 0.8706
1894.000000 0.8704 0.8702 0.8700 0.8697 0.8695
1889.000000 0.8692 0.8690 0.8687 0.8685 0.8683
1884.000000 0.8680 0.8678 0.8675 0.8673 0.8670
1879.000000 0.8668 0.8665 0.8663 0.8661 0.8660
1874.000000 0.8659 0.8658 0.8657 0.8656 0.8654
1869.000000 0.8653 0.8652 0.8651 0.8650 0.8649
1864.000000 0.8648 0.8646 0.8645 0.8644 0.8642
1859.000000 0.8640 0.8637 0.8635 0.8632 0.8630
1854.000000 0.8628 0.8625 0.8623 0.8621 0.8618
1849.000000 0.8616 0.8611 0.8606 0.8602 0.8597
1844.000000 0.8592 0.8588 0.8583 0.8578 0.8574
1839.000000 0.8568 0.8565 0.8560 0.8556 0.8551
1834.000000 0.8547 0.8542 0.8538 0.8533 0.8528
1829.000000 0.8523 0.8516 0.8509 0.8502 0.8496
1824.000000 0.8489 0.8482 0.8475 0.8466 0.8457
1819.000000 0.8448 0.8439 0.8430 0.8421 0.8411
1814.000000 0.8402 0.8393 0.8382 0.8370 0.8359
1809.000000 0.8347 0.8336 0.8324 0.8313 0.8301
1804.000000 0.8289 0.8268 0.8244 0.8223 0.8205
1799.000000 0.8187 0.8168 0.8151 0.8133 0.8114
1794.000000 0.8096 0.8078 0.8062 0.8047 0.8031
1789.000000 0.8015 0.7999 0.7983 0.7962 0.7941
1784.000000 0.7918 0.7896 0.7872 0.7851 0.7822
1779.000000 0.7784 0.7746 0.7708 0.7661 0.7608
1774.000000 0.7556 0.7491 0.7418 0.7344 0.7268
1769.000000 0.7192 0.7093 0.6984 0.6862 0.6701
1764.000000 0.6508 0.6286 0.5901 0.5193 0.4616
1759.000000 0.4462 0.4315 0.4142 0.3745 0.3347
1754.000000 0.2950 0.2553 0.2156 0.1758 0.1361
1749.000000 0.0964 0.0637 0.0497 0.0410 0.0336
1744.000000 0.0260 0.0207 0.0166 0.0137 0.0112
1739.000000 0.0090 0.0069 0.0058 0.0050 0.0045
1734.000000 0.0041 0.0038 0.0025 0.0032 0.0030
1729.000000 0.0029 0.0029 0.0031 0.0037 0.0045
1724.000000 0.0068 0.0146 0.0252 0.0463 0.0631
1719.000000 0.0786 0.1072 0.1525 0.1744 0.1922
1714.000000 0.2722 0.3618 0.3918 0.4074 0.4230
1709.000000 0.4386 0.4543 0.4699 0.4855 0.5010
1704.000000 0.5167 0.5323 0.5479 0.5636 0.5754
1699.000000 0.5837 0.5921 0.6023 0.6126 0.6215
1694.000000 0.6296 0.6377 0.6471 0.6581 0.6690
1689.000000 0.6788 0.6881 0.6961 0.7040 0.7117
1684.000000 0.7184 0.7249 0.7314 0.7380 0.7458
1679.000000 0.7525 0.7567 0.7607 0.7640 0.7668
1674.000000 0.7695 0.7722 0.7751 0.7778 0.7806
1669.000000 0.7834 0.7861 0.7889 0.7917 0.7943
1664.000000 0.7969 0.7992 0.8001 0.8012 0.8018
1659.000000 0.8024 0.8032 0.8041 0.8050 0.8060
1654.000000 0.8068 0.8078 0.8090 0.8101 0.8114
1649.000000 0.8125 0.8139 0.8151 0.8162 0.8176
1644.000000 0.8191 0.8205 0.8218 0.8232 0.8246
1639.000000 0.8259 0.8268 0.8278 0.8289 0.8299
1634.000000 0.8309 0.8318 0.8328 0.8339 0.8349
1629.000000 0.8358 0.8368 0.8377 0.8387 0.8396
1624.000000 0.8405 0.8415 0.8424 0.8434 0.8443
1619.000000 0.8452 0.8458 0.8465 0.8471 0.8478
1614.000000 0.8485 0.8491 0.8498 0.8505 0.8511
1609.000000 0.8517 0.8521 0.8525 0.8530 0.8534
1604.000000 0.8538 0.8543 0.8547 0.8551 0.8556
1599.000000 0.8559 0.8561 0.8563 0.8566 0.8568
1594.000000 0.8570 0.8571 0.8573 0.8575 0.8577
1589.000000 0.8578 0.8580 0.8581 0.8583 0.8585
1584.000000 0.8586 0.8586 0.8587 0.8587 0.8587
1579.000000 0.8587 0.8587 0.8587 0.8588 0.8588
1574.000000 0.8586 0.8585 0.8584 0.8583 0.8582
1569.000000 0.8581 0.8581 0.8581 0.8581 0.8584
1564.000000 0.8586 0.8589 0.8584 0.8594 0.8597
1559.000000 0.8598 0.8600 0.8601 0.8602 0.8603
1554.000000 0.8604 0.8606 0.8608 0.8609 0.8611
1549.000000 0.8612 0.8613 0.8613 0.8612 0.8612
1544.000000 0.8612 0.8611 0.8609 0.8607 0.8605
1539.000000 0.8603 0.8601 0.8596 0.8587 0.8578
1534.000000 0.8570 0.8562 0.8556 0.8549 0.8542
1529.000000 0.8536 0.8528 0.8523 0.8518 0.8514
1524.000000 0.8510 0.8506 0.8500 0.8490 0.8481
1519.000000 0.8471 0.8462 0.8452 0.8443 0.8434
1514.000000 0.8424 0.8414 0.8403 0.8392 0.8381
1509.000000 0.8370 0.8359 0.8348 0.8337 0.8320
1504.000000 0.8303 0.8286 0.8268 0.8252 0.8234
1499.000000 0.8217 0.8200 0.8183 0.8165 0.8147
1494.000000 0.8128 0.8111 0.8092 0.8072 0.8050
1489.000000 0.8028 0.8005 0.7971 0.7936 0.7900
1484.000000 0.7865 0.7828 0.7778 0.7728 0.7672
1479.000000 0.7615 0.7558 0.7471 0.7381 0.7184
1474.000000 0.7000 0.6887 0.6588 0.5059 0.3530
1469.000000 0.2794 0.2799 0.2852 0.2929 0.2996
1464.000000 0.3051 0.3081 0.3112 0.3140 0.3155
1459.000000 0.3170 0.3187 0.3205 0.3312 0.3529
1454.000000 0.3746 0.3962 0.4179 0.4395 0.4605
1449.000000 0.4637 0.4669 0.4698 0.4724 0.4748
1444.000000 0.4766 0.4783 0.4800 0.4816 0.4831
1439.000000 0.4853 0.4878 0.4918 0.4958 0.5089
1434.000000 0.5219 0.5350 0.5481 0.5612 0.5742
1429.000000 0.5819 0.5849 0.5871 0.5891 0.5908
1424.000000 0.5917 0.5915 0.5906 0.5877 0.5841
1419.000000 0.5810 0.5800 0.5801 0.5803 0.5872
1414.000000 0.6009 0.6154 0.6300 0.6445 0.6591
1409.000000 0.6736 0.6768 0.6786 0.6801 0.6812
1404.000000 0.6815 0.6818 0.6800 0.6781 0.6762
1399.000000 0.6744 0.6721 0.6696 0.6669 0.6645
1394.000000 0.6618 0.6561 0.6482 0.6382 0.6138
1389.000000 0.5873 0.5524 0.5248 0.4918 0.4588
1384.000000 0.4258 0.3928 0.3598 0.3268 0.2938
1379.000000 0.2812 0.2781 0.2752 0.2727 0.2702
1374.000000 0.2684 0.2673 0.2657 0.2664 0.2674
1369.000000 0.2726 0.2837 0.2955 0.3073 0.3192
1364.000000 0.3309 0.3428 0.3546 0.3664 0.3782
1359.000000 0.3900 0.4018 0.4138 0.4256 0.4374
1354.000000 0.4492 0.4610 0.4729 0.4847 0.4965
1349.000000 0.5084 0.5202 0.5320 0.5417 0.5490
1344.000000 0.5550 0.5596 0.5641 0.5676 0.5712
1339.000000 0.5744 0.5772 0.5799 0.5825 0.5848
1334.000000 0.5870 0.5893 0.5912 0.5932 0.5952
1329.000000 0.5972 0.5993 0.6012 0.6028 0.6032
1324.000000 0.6035 0.6048 0.6038 0.6033 0.6028
1319.000000 0.6014 0.5992 0.5971 0.5950 0.5929
1314.000000 0.5907 0.5886 0.5865 0.5845 0.5825
1309.000000 0.5806 0.5787 0.5768 0.5749 0.5730
1304.000000 0.5710 0.5691 0.5670 0.5649 0.5627
1299.000000 0.5606 0.5585 0.5564 0.5542 0.5517
1294.000000 0.5487 0.5457 0.5426 0.5396 0.5357
1289.000000 0.5315 0.5273 0.5230 0.5175 0.5120
1284.000000 0.5066 0.5002 0.4938 0.4874 0.4746
1279.000000 0.4585 0.4481 0.4379 0.4283 0.4206
1274.000000 0.4129 0.4059 0.4000 0.3940 0.3877
1269.000000 0.3807 0.3738 0.3668 0.3570 0.3466
1264.000000 0.3362 0.3257 0.3141 0.3016 0.2849
1259.000000 0.2689 0.2466 0.2294 0.2170 0.2011
1254.000000 0.1853 0.1694 0.1536 0.1377 0.1219
1249.000000 0.1060 0.0902 0.0743 0.0597 0.0506
1244.000000 0.0440 0.0383 0.0338 0.0303 0.0285
1239.000000 0.0276 0.0238 0.0266 0.0266 0.0273
1234.000000 0.0301 0.0359 0.0427 0.0512 0.0692
1229.000000 0.0872 0.1052 0.1232 0.1412 0.1592
1224.000000 0.1773 0.1949 0.2103 0.2233 0.2375
1219.000000 0.2556 0.2656 0.2747 0.2839 0.2930
1214.000000 0.3022 0.3114 0.3202 0.3290 0.3368
1209.000000 0.3437 0.3506 0.3572 0.3614 0.3656
1204.000000 0.3697 0.3736 0.3764 0.3780 0.3799
1199.000000 0.3812 0.3822 0.3850 0.3828 0.3830
1194.000000 0.3822 0.3812 0.3800 0.3787 0.3774
1189.000000 0.3754 0.3732 0.3712 0.3690 0.3652
1184.000000 0.3608 0.3562 0.3514 0.3438 0.3360
1179.000000 0.3292 0.3230 0.3168 0.3106 0.3044
1174.000000 0.2983 0.2921 0.2860 0.2801 0.2743
1169.000000 0.2684 0.2631 0.2579 0.2527 0.2470
1164.000000 0.2412 0.2361 0.2315 0.2277 0.2243
1159.000000 0.2218 0.2201 0.2191 0.2181 0.2182
1154.000000 0.2183 0.2187 0.2196 0.2205 0.2214
1149.000000 0.2223 0.2235 0.2250 0.2264 0.2288
1144.000000 0.2327 0.2369 0.2414 0.2467 0.2522
1139.000000 0.2597 0.2687 0.2822 0.2976 0.3129
1134.000000 0.3282 0.3436 0.3590 0.3743 0.3897
1129.000000 0.4050 0.4172 0.4233 0.4266 0.4288
1124.000000 0.4297 0.4315 0.4305 0.4275 0.4179
1119.000000 0.4112 0.4047 0.3980 0.3914 0.3849
1114.000000 0.3784 0.3718 0.3671 0.3654 0.3640
1109.000000 0.3630 0.3595 0.3623 0.3632 0.3653
1104.000000 0.3694 0.3745 0.3799 0.3880 0.3912
1099.000000 0.3918 0.3924 0.3925 0.3926 0.3928
1094.000000 0.3943 0.3966 0.3989 0.4018 0.4068
1089.000000 0.4109 0.4200 0.4290 0.4381 0.4472
1084.000000 0.4562 0.4653 0.4744 0.4835 0.4925
1079.000000 0.5016 0.5105 0.5125 0.5144 0.5162
1074.000000 0.5176 0.5180 0.5184 0.5185 0.5185
1069.000000 0.5181 0.5178 0.5173 0.5167 0.5162
1064.000000 0.5157 0.5155 0.5153 0.5151 0.5150
1059.000000 0.5148 0.5147 0.5151 0.5191 0.5158
1054.000000 0.5160 0.5169 0.5178 0.5187 0.5191
1049.000000 0.5194 0.5198 0.5201 0.5201 0.5201
1044.000000 0.5197 0.5185 0.5173 0.5160 0.5149
1039.000000 0.5137 0.5126 0.5112 0.5100 0.5084
1034.000000 0.5062 0.5041 0.5007 0.4922 0.4791
1029.000000 0.4653 0.4514 0.4376 0.4237 0.4099
1024.000000 0.3960 0.3822 0.3684 0.3545 0.3407
1019.000000 0.3268 0.3214 0.3185 0.3163 0.3163
1014.000000 0.3171 0.3206 0.3390 0.3639 0.3888
1009.000000 0.4137 0.4386 0.4635 0.4884 0.5067
1004.000000 0.5242 0.5418 0.5562 0.5730 0.5883
999.000000 0.6002 0.6092 0.6171 0.6232 0.6294
994.000000 0.6355 0.6412 0.6471 0.6528 0.6569
989.000000 0.6611 0.6654 0.6694 0.6733 0.6767
984.000000 0.6801 0.6828 0.6853 0.6872 0.6890
979.000000 0.6904 0.6911 0.6933 0.6921 0.6921
974.000000 0.6921 0.6915 0.6908 0.6892 0.6875
969.000000 0.6851 0.6818 0.6785 0.6741 0.6685
964.000000 0.6611 0.6497 0.6384 0.6305 0.6255
959.000000 0.6223 0.6206 0.6195 0.6186 0.6187
954.000000 0.6187 0.6197 0.6249 0.6300 0.6354
949.000000 0.6408 0.6464 0.6524 0.6584 0.6645
944.000000 0.6708 0.6771 0.6831 0.6882 0.6933
939.000000 0.6969 0.6995 0.7019 0.7043 0.7067
934.000000 0.7095 0.7125 0.7156 0.7187 0.7218
929.000000 0.7251 0.7284 0.7317 0.7348 0.7372
924.000000 0.7399 0.7425 0.7450 0.7471 0.7492
919.000000 0.7512 0.7534 0.7547 0.7551 0.7558
914.000000 0.7564 0.7569 0.7574 0.7575 0.7575
909.000000 0.7575 0.7584 0.7593 0.7601 0.7615
904.000000 0.7634 0.7653 0.7671 0.7689 0.7708
899.000000 0.7725 0.7741 0.7758 0.7775 0.7780
894.000000 0.7786 0.7791 0.7796 0.7798 0.7800
889.000000 0.7801 0.7805 0.7808 0.7811 0.7814
884.000000 0.7821 0.7826 0.7840 0.7853 0.7867
879.000000 0.7876 0.7887 0.7897 0.7904 0.7910
874.000000 0.7915 0.7921 0.7921 0.7915 0.7907
869.000000 0.7898 0.7898 0.7898 0.7898 0.7897
864.000000 0.7897 0.7900 0.7905 0.7910 0.7915
859.000000 0.7919 0.7925 0.7931 0.7936 0.7942
854.000000 0.7947 0.7951 0.7956 0.7958 0.7962
849.000000 0.7965 0.7969 0.7972 0.7976 0.7980
844.000000 0.7983 0.7987 0.7990 0.7993 0.7996
839.000000 0.7999 0.8003 0.8006 0.8011 0.8018
834.000000 0.8028 0.8045 0.8061 0.8096 0.8125
829.000000 0.8155 0.8184 0.8212 0.8240 0.8266
824.000000 0.8282 0.8298 0.8313 0.8328 0.8345
819.000000 0.8358 0.8364 0.8370 0.8375 0.8383
814.000000 0.8389 0.8395 0.8401 0.8407 0.8413
809.000000 0.8418 0.8425 0.8431 0.8437 0.8441
804.000000 0.8444 0.8446 0.8448 0.8451 0.8453
799.000000 0.8456 0.8458 0.8494 0.8461 0.8463
794.000000 0.8464 0.8465 0.8465 0.8464 0.8463
789.000000 0.8463 0.8462 0.8461 0.8461 0.8460
784.000000 0.8458 0.8456 0.8454 0.8452 0.8450
779.000000 0.8448 0.8446 0.8444 0.8443 0.8441
774.000000 0.8438 0.8435 0.8431 0.8428 0.8425
769.000000 0.8421 0.8418 0.8415 0.8411 0.8408
764.000000 0.8403 0.8397 0.8390 0.8383 0.8375
759.000000 0.8368 0.8363 0.8356 0.8349 0.8342
754.000000 0.8332 0.8321 0.8312 0.8302 0.8292
749.000000 0.8280 0.8266 0.8252 0.8237 0.8223
744.000000 0.8206 0.8189 0.8171 0.8154 0.8137
739.000000 0.8115 0.8096 0.8075 0.8051 0.8019
734.000000 0.7978 0.7938 0.7871 0.7798 0.7731
729.000000 0.7661 0.7592 0.7525 0.7383 0.7222
724.000000 0.7064 0.6905 0.6665 0.6658 0.6654
719.000000 0.6751 0.6947 0.7144 0.7341 0.7534
714.000000 0.7611 0.7662 0.7714 0.7768 0.7833
709.000000 0.7898 0.7965 0.8033 0.8101 0.8151
704.000000 0.8200 0.8247 0.8289 0.8330 0.8360
699.000000 0.8383 0.8407 0.8428 0.8444 0.8461
694.000000 0.8477 0.8489 0.8499 0.8508 0.8518
689.000000 0.8528 0.8537 0.8543 0.8548 0.8553
684.000000 0.8558 0.8562 0.8567 0.8571 0.8575
679.000000 0.8578 0.8581 0.8584 0.8586 0.8588
674.000000 0.8616 0.8585 0.8584 0.8583 0.8582
669.000000 0.8580 0.8578 0.8575 0.8573 0.8570
664.000000 0.8567 0.8564 0.8561 0.8556 0.8550
659.000000 0.8543 0.8536 0.8521 0.8502 0.8482
654.000000 0.8458 0.8431 0.8404 0.8377 0.8350
649.000000 0.8324 0.8298 0.8271 0.8246 0.8218
644.000000 0.8193 0.8169 0.8148 0.8125 0.8108
639.000000 0.8097 0.8084 0.8071 0.8058 0.8050
634.000000 0.8041 0.8032 0.8022 0.8015 0.8008
629.000000 0.8001 0.7994 0.7987 0.7978 0.7971
624.000000 0.7962 0.7955 0.7947 0.7938 0.7930
619.000000 0.7921 0.7911 0.7898 0.7886 0.7872
614.000000 0.7858 0.7834 0.7791 0.7648 0.7504
609.000000 0.7358 0.7214 0.7119 0.7103 0.7107
604.000000 0.7108 0.7124 0.7158 0.7195 0.7232
599.000000 0.7268 0.7305 0.7342 0.7378 0.7419
594.000000 0.7467 0.7510 0.7546 0.7582 0.7614
589.000000 0.7642 0.7671 0.7699 0.7725 0.7751
584.000000 0.7776 0.7803 0.7825 0.7843 0.7861
579.000000 0.7880 0.7897 0.7911 0.7925 0.7939
574.000000 0.7953 0.7967 0.7978 0.7992 0.8004
569.000000 0.8015 0.8028 0.8041 0.8054 0.8062
564.000000 0.8071 0.8078 0.8085 0.8093 0.8100
559.000000 0.8107 0.8115 0.8119 0.8125 0.8130
554.000000 0.8135 0.8140 0.8145 0.8150 0.8155
549.000000 0.8158 0.8161 0.8165 0.8169 0.8172
544.000000 0.8175 0.8175 0.8176 0.8176 0.8176
539.000000 0.8176 0.8171 0.8157 0.8138 0.8117
534.000000 0.8096 0.8078 0.8069 0.8061 0.8055
529.000000 0.8054 0.8054 0.8054 0.8054 0.8053
524.000000 0.8053 0.8055 0.8056 0.8057 0.8058
519.000000 0.8058 0.8060 0.8060 0.8061 0.8061
514.000000 0.8061 0.8061 0.8062 0.8062 0.8064
509.000000 0.8064 0.8062 0.8062 0.8062 0.8062
504.000000 0.8061 0.8061 0.8061 0.8060 0.8058
499.000000 0.8057 0.8055 0.8053 0.8051 0.8050
494.000000 0.8045 0.8040 0.8035 0.8030 0.8025
489.000000 0.8019 0.8014 0.8006 0.7999 0.7992
484.000000 0.7984 0.7976 0.7968 0.7961 0.7954
479.000000 0.7947 0.7939 0.7931 0.7922 0.7915
474.000000 0.7907 0.7899 0.7891 0.7882 0.7872
469.000000 0.7864 0.7855 0.7846 0.7837 0.7826
464.000000 0.7819 0.7812 0.7807 0.7803 0.7799
459.000000 0.7794 0.7790 0.7789 0.7788 0.7788
454.000000 0.7787 0.7786 0.7786 0.7785 0.7785
449.000000 0.7785 0.7786 0.7786 0.7787 0.7787
444.000000 0.7788 0.7789 0.7789 0.7790 0.7790
439.000000 0.7791 0.7791 0.7791 0.7791 0.7791
434.000000 0.7791 0.7791 0.7790 0.7790 0.7790
429.000000 0.7790 0.7790 0.7790 0.7790 0.7791
424.000000 0.7791 0.7792 0.7793 0.7793 0.7794
419.000000 0.7794 0.7795 0.7796 0.7796 0.7797
414.000000 0.7798 0.7799 0.7801 0.7801 0.7803
409.000000 0.7805 0.7806 0.7807 0.7808 0.7808
404.000000 0.7808 0.7808 0.7808 0.7808 0.7807
399.000000 0.7807 0.7807 0.7808 0.7810 0.7811
394.000000 0.7812 0.7814 0.7815 0.7815
##END=
