##TITLE=5Alpha-Androstan-16Beta-ylacetic acid lactone, 3Beta,17Beta-dihydroxy-
##JCAMP-DX=4.24
##DATA TYPE=INFRARED SPECTRUM
##CLASS=COBLENTZ
##ORIGIN=ABBOTT LABORATORIES
##OWNER=Copyright (C) 1987 by the Coblentz Society
Collection (C) 2018 copyright by the U.S. Secretary of Commerce
on behalf of the United States of America. All rights reserved.
##DATE=1962/09/14
##NAMES=2-hydroxy-4a,6a-dimethyloctadecahydro-8H-naphtho[2',1':4,5]indeno[1,2-b]furan-8-one
##MOLFORM=C21 H32 O3
##MP=240-242 C
$$ SPECTRAL FEATURE AT 998 CM^-^1 IS PROBABLY AN ARTIFACT CAUSED BY FILTER CHANGE
##SOURCE REFERENCE=COBLENTZ NO. 5248
##$NIST ID=B6005248
##$NIST SOURCE=COBLENTZ
##$NIST IMAGE=cob5248
##SPECTROMETER/DATA SYSTEM=PERKIN-ELMER 21 (GRATING)
$$ INACTIVE (CHCl3) AROUND 650-800 AND 1200-1250 CM^-^1
##INSTRUMENT PARAMETERS=FILTER AT ABOUT 10 MICRONS
##STATE=SOLUTION 7% (CHCl3 FOR 2.5-12.5 microns)
##PATH LENGTH=0.01 CM
##RESOLUTION=2
##XUNITS=1/CM
##YUNITS=TRANSMITTANCE
##XFACTOR=1.0
##YFACTOR=1
##FIRSTX=799
##LASTX=4000
##FIRSTY=0.9834
##MAXX=4000
##MINX=799
##MAXY=0.9189
##MINY=0.0663
##NPOINTS=3202
##XYDATA=(X++(Y..Y))
799.000000 0.9834 0.9815 0.9794 0.9769 0.9744
804.000000 0.9705 0.9661 0.9616 0.9572 0.9529
809.000000 0.9486 0.9444 0.9405 0.9365 0.9326
814.000000 0.9287 0.9248 0.9211 0.9175 0.9138
819.000000 0.9096 0.9048 0.8996 0.8946 0.8869
824.000000 0.8777 0.8665 0.8614 0.8583 0.8540
829.000000 0.8559 0.8582 0.8620 0.8647 0.8641
834.000000 0.8624 0.8616 0.8632 0.8681 0.8769
839.000000 0.8780 0.8774 0.8765 0.8750 0.8646
844.000000 0.8522 0.8379 0.8267 0.8164 0.8074
849.000000 0.7991 0.7921 0.7951 0.8000 0.8076
854.000000 0.8242 0.8430 0.8618 0.8784 0.8875
859.000000 0.8919 0.8948 0.8944 0.8957 0.8951
864.000000 0.8934 0.8917 0.8898 0.8879 0.8858
869.000000 0.8837 0.8821 0.8847 0.8893 0.8934
874.000000 0.8961 0.8986 0.9001 0.9002 0.8990
879.000000 0.8972 0.8955 0.8932 0.8894 0.8848
884.000000 0.8803 0.8739 0.8667 0.8597 0.8548
889.000000 0.8604 0.8620 0.8622 0.8645 0.8601
894.000000 0.8570 0.8492 0.8329 0.8255 0.8257
899.000000 0.8260 0.8445 0.8601 0.8715 0.8757
904.000000 0.8770 0.8784 0.8754 0.8737 0.8666
909.000000 0.8581 0.8587 0.8568 0.8630 0.8676
914.000000 0.8736 0.8813 0.8896 0.8981 0.9040
919.000000 0.9043 0.9056 0.9022 0.9004 0.8981
924.000000 0.8947 0.8914 0.8868 0.8819 0.8757
929.000000 0.8685 0.8615 0.8544 0.8488 0.8457
934.000000 0.8463 0.8490 0.8524 0.8577 0.8600
939.000000 0.8600 0.8587 0.8554 0.8510 0.8458
944.000000 0.8400 0.8347 0.8295 0.8237 0.8164
949.000000 0.8088 0.7989 0.7868 0.7855 0.7871
954.000000 0.7901 0.8042 0.8312 0.8473 0.8516
959.000000 0.8529 0.8524 0.8527 0.8523 0.8513
964.000000 0.8496 0.8465 0.8418 0.8365 0.8280
969.000000 0.8165 0.8025 0.7886 0.7709 0.7549
974.000000 0.7438 0.7389 0.7370 0.7369 0.7368
979.000000 0.7368 0.7373 0.7379 0.7377 0.7369
984.000000 0.7359 0.7344 0.7332 0.7335 0.7340
989.000000 0.7352 0.7361 0.7347 0.7302 0.7220
994.000000 0.7090 0.6938 0.6744 0.6380 0.6015
999.000000 0.5771 0.5756 0.5760 0.5786 0.5814
1004.000000 0.5837 0.5850 0.5846 0.5820 0.5733
1009.000000 0.5467 0.5189 0.4913 0.4638 0.4055
1014.000000 0.3472 0.2995 0.2963 0.2987 0.3298
1019.000000 0.3741 0.4181 0.4548 0.4561 0.4563
1024.000000 0.4488 0.4294 0.4103 0.3912 0.3721
1029.000000 0.3531 0.3357 0.3311 0.3303 0.3295
1034.000000 0.3279 0.3225 0.2910 0.2550 0.2191
1039.000000 0.1831 0.1482 0.1318 0.1290 0.1289
1044.000000 0.1335 0.1438 0.1911 0.2479 0.3046
1049.000000 0.3612 0.4176 0.4740 0.5302 0.5840
1054.000000 0.6222 0.6432 0.6616 0.6782 0.6926
1059.000000 0.7029 0.7152 0.7257 0.7355 0.7464
1064.000000 0.7584 0.7638 0.7653 0.7665 0.7683
1069.000000 0.7710 0.7738 0.7784 0.7761 0.7553
1074.000000 0.7531 0.7526 0.7558 0.7584 0.7610
1079.000000 0.7637 0.7664 0.7700 0.7739 0.7771
1084.000000 0.7800 0.7819 0.7832 0.7852 0.7815
1089.000000 0.7790 0.7747 0.7704 0.7661 0.7619
1094.000000 0.7577 0.7535 0.7493 0.7430 0.7325
1099.000000 0.7237 0.7223 0.7212 0.7203 0.7198
1104.000000 0.7192 0.7186 0.7175 0.7164 0.7142
1109.000000 0.7110 0.7056 0.6994 0.6917 0.6843
1114.000000 0.6775 0.6696 0.6615 0.6529 0.6438
1119.000000 0.6333 0.6233 0.6138 0.6031 0.5884
1124.000000 0.5773 0.5709 0.5665 0.5655 0.5650
1129.000000 0.5647 0.5647 0.5647 0.5640 0.5621
1134.000000 0.5601 0.5543 0.5438 0.5397 0.5401
1139.000000 0.5405 0.5423 0.5448 0.5506 0.5556
1144.000000 0.5591 0.5607 0.5609 0.5606 0.5600
1149.000000 0.5578 0.5529 0.5359 0.5145 0.4932
1154.000000 0.4718 0.4505 0.4292 0.4079 0.3867
1159.000000 0.3655 0.3444 0.3233 0.3022 0.2815
1164.000000 0.2648 0.2420 0.2295 0.2229 0.2189
1169.000000 0.2181 0.2150 0.2186 0.2199 0.2214
1174.000000 0.2254 0.2312 0.2536 0.2857 0.3177
1179.000000 0.3496 0.3815 0.4134 0.4452 0.4769
1184.000000 0.5086 0.5402 0.5719 0.6034 0.6348
1189.000000 0.6585 0.6623 0.6624 0.6622 0.6612
1194.000000 0.6598 0.6545 0.6470 0.6384 0.6316
1199.000000 0.6254 0.6212 0.6187 0.6161 0.6136
1204.000000 0.6111 0.6086 0.6060 0.6043 0.6034
1209.000000 0.6026 0.6017 0.6008 0.5999 0.5991
1214.000000 0.5982 0.5974 0.5969 0.5970 0.5971
1219.000000 0.5972 0.5973 0.5975 0.5976 0.5977
1224.000000 0.5978 0.5993 0.6020 0.6047 0.6073
1229.000000 0.6100 0.6126 0.6153 0.6179 0.6205
1234.000000 0.6231 0.6304 0.6456 0.6579 0.6685
1239.000000 0.6789 0.6934 0.7087 0.7200 0.7310
1244.000000 0.7414 0.7517 0.7590 0.7654 0.7714
1249.000000 0.7760 0.7791 0.7792 0.7794 0.7795
1254.000000 0.7797 0.7797 0.7798 0.7798 0.7798
1259.000000 0.7798 0.7799 0.7814 0.7830 0.7850
1264.000000 0.7874 0.7896 0.7908 0.7918 0.7909
1269.000000 0.7915 0.7910 0.7904 0.7898 0.7881
1274.000000 0.7859 0.7838 0.7817 0.7795 0.7773
1279.000000 0.7750 0.7727 0.7704 0.7674 0.7639
1284.000000 0.7605 0.7569 0.7526 0.7482 0.7437
1289.000000 0.7392 0.7347 0.7302 0.7260 0.7221
1294.000000 0.7180 0.7124 0.7031 0.6902 0.6809
1299.000000 0.6803 0.6800 0.6789 0.6861 0.7104
1304.000000 0.7361 0.7618 0.7875 0.7954 0.7966
1309.000000 0.7965 0.7980 0.7953 0.7937 0.7922
1314.000000 0.7904 0.7873 0.7835 0.7795 0.7754
1319.000000 0.7706 0.7654 0.7595 0.7516 0.7436
1324.000000 0.7368 0.7360 0.7363 0.7330 0.7439
1329.000000 0.7499 0.7542 0.7584 0.7625 0.7656
1334.000000 0.7664 0.7661 0.7654 0.7671 0.7637
1339.000000 0.7622 0.7605 0.7584 0.7558 0.7533
1344.000000 0.7505 0.7475 0.7445 0.7407 0.7359
1349.000000 0.7311 0.7232 0.7137 0.6673 0.6573
1354.000000 0.6566 0.6573 0.6558 0.6656 0.6797
1359.000000 0.6868 0.6924 0.6976 0.7019 0.7060
1364.000000 0.7100 0.7129 0.7146 0.7150 0.7141
1369.000000 0.7115 0.7066 0.7015 0.6930 0.6870
1374.000000 0.6823 0.6777 0.6730 0.6675 0.6604
1379.000000 0.6549 0.6520 0.6508 0.6504 0.6501
1384.000000 0.6493 0.6502 0.6634 0.6786 0.6938
1389.000000 0.7089 0.7241 0.7392 0.7544 0.7695
1394.000000 0.7846 0.7996 0.8129 0.8145 0.8151
1399.000000 0.8155 0.8158 0.8159 0.8160 0.8161
1404.000000 0.8157 0.8154 0.8151 0.8135 0.8118
1409.000000 0.8075 0.8023 0.7987 0.7975 0.7972
1414.000000 0.7953 0.7980 0.8005 0.8054 0.8122
1419.000000 0.8220 0.8306 0.8334 0.8345 0.8355
1424.000000 0.8329 0.8242 0.8109 0.7978 0.7845
1429.000000 0.7713 0.7582 0.7451 0.7319 0.7188
1434.000000 0.7057 0.6926 0.6796 0.6665 0.6535
1439.000000 0.6402 0.6269 0.6152 0.6068 0.6020
1444.000000 0.5989 0.5973 0.5961 0.5958 0.5925
1449.000000 0.6211 0.6482 0.6752 0.6991 0.7069
1454.000000 0.7081 0.7081 0.7079 0.7075 0.7068
1459.000000 0.7061 0.7050 0.7038 0.7033 0.7035
1464.000000 0.7053 0.7123 0.7261 0.7407 0.7552
1469.000000 0.7697 0.7842 0.7987 0.8138 0.8297
1474.000000 0.8426 0.8539 0.8639 0.8720 0.8796
1479.000000 0.8853 0.8901 0.8947 0.8976 0.9003
1484.000000 0.9031 0.9056 0.9074 0.9088 0.9102
1489.000000 0.9115 0.9124 0.9134 0.9143 0.9149
1494.000000 0.9152 0.9157 0.9160 0.9163 0.9168
1499.000000 0.9172 0.9175 0.9177 0.9179 0.9180
1504.000000 0.9181 0.9183 0.9184 0.9187 0.9188
1509.000000 0.9189 0.9188 0.9187 0.9185 0.9183
1514.000000 0.9182 0.9180 0.9179 0.9176 0.9175
1519.000000 0.9173 0.9172 0.9171 0.9169 0.9168
1524.000000 0.9167 0.9166 0.9165 0.9163 0.9162
1529.000000 0.9161 0.9159 0.9158 0.9157 0.9155
1534.000000 0.9150 0.9146 0.9141 0.9136 0.9131
1539.000000 0.9126 0.9120 0.9116 0.9111 0.9106
1544.000000 0.9101 0.9097 0.9093 0.9089 0.9085
1549.000000 0.9081 0.9077 0.9074 0.9070 0.9066
1554.000000 0.9062 0.9058 0.9054 0.9050 0.9047
1559.000000 0.9044 0.9040 0.9037 0.9034 0.9030
1564.000000 0.9027 0.9023 0.9020 0.9017 0.9013
1569.000000 0.9010 0.9007 0.9003 0.8999 0.8996
1574.000000 0.8993 0.8989 0.8986 0.8982 0.8979
1579.000000 0.8975 0.8972 0.8968 0.8965 0.8961
1584.000000 0.8958 0.8954 0.8951 0.8947 0.8944
1589.000000 0.8940 0.8938 0.8936 0.8933 0.8930
1594.000000 0.8928 0.8925 0.8922 0.8920 0.8917
1599.000000 0.8914 0.8912 0.8910 0.8907 0.8904
1604.000000 0.8902 0.8899 0.8896 0.8894 0.8892
1609.000000 0.8889 0.8887 0.8884 0.8882 0.8880
1614.000000 0.8877 0.8875 0.8874 0.8871 0.8869
1619.000000 0.8867 0.8864 0.8862 0.8860 0.8858
1624.000000 0.8855 0.8853 0.8851 0.8849 0.8846
1629.000000 0.8841 0.8836 0.8833 0.8828 0.8824
1634.000000 0.8819 0.8815 0.8811 0.8806 0.8802
1639.000000 0.8798 0.8793 0.8789 0.8785 0.8781
1644.000000 0.8776 0.8770 0.8762 0.8755 0.8747
1649.000000 0.8741 0.8734 0.8726 0.8719 0.8712
1654.000000 0.8705 0.8698 0.8691 0.8684 0.8676
1659.000000 0.8669 0.8659 0.8650 0.8641 0.8631
1664.000000 0.8622 0.8613 0.8603 0.8594 0.8585
1669.000000 0.8575 0.8566 0.8555 0.8544 0.8533
1674.000000 0.8523 0.8513 0.8502 0.8492 0.8482
1679.000000 0.8472 0.8467 0.8463 0.8457 0.8454
1684.000000 0.8451 0.8449 0.8439 0.8401 0.8308
1689.000000 0.8215 0.8122 0.8030 0.7937 0.7844
1694.000000 0.7757 0.7690 0.7657 0.7627 0.7598
1699.000000 0.7572 0.7547 0.7524 0.7503 0.7485
1704.000000 0.7478 0.7474 0.7471 0.7468 0.7465
1709.000000 0.7465 0.7465 0.7465 0.7465 0.7465
1714.000000 0.7466 0.7469 0.7472 0.7472 0.7472
1719.000000 0.7422 0.7342 0.7251 0.7160 0.7069
1724.000000 0.6978 0.6887 0.6797 0.6706 0.6615
1729.000000 0.6524 0.6434 0.6344 0.6254 0.6023
1734.000000 0.5724 0.5592 0.5381 0.5033 0.4714
1739.000000 0.4415 0.4117 0.3819 0.3521 0.3224
1744.000000 0.2927 0.2629 0.2333 0.2037 0.1742
1749.000000 0.1447 0.1168 0.0943 0.0812 0.0738
1754.000000 0.0698 0.0680 0.0672 0.0666 0.0666
1759.000000 0.0663 0.0671 0.0675 0.0693 0.0770
1764.000000 0.0908 0.1048 0.1187 0.1327 0.1467
1769.000000 0.1606 0.1715 0.1782 0.1817 0.1855
1774.000000 0.1897 0.1977 0.2196 0.2576 0.2955
1779.000000 0.3333 0.3711 0.4088 0.4466 0.4843
1784.000000 0.5219 0.5595 0.5971 0.6346 0.6670
1789.000000 0.6906 0.7083 0.7271 0.7674 0.7855
1794.000000 0.7961 0.8036 0.8112 0.8187 0.8263
1799.000000 0.8339 0.8412 0.8472 0.8524 0.8574
1804.000000 0.8619 0.8652 0.8685 0.8718 0.8747
1809.000000 0.8769 0.8788 0.8808 0.8827 0.8846
1814.000000 0.8866 0.8884 0.8901 0.8918 0.8934
1819.000000 0.8950 0.8962 0.8970 0.8978 0.8986
1824.000000 0.8993 0.8998 0.9002 0.9006 0.9010
1829.000000 0.9014 0.9018 0.9022 0.9025 0.9029
1834.000000 0.9031 0.9033 0.9036 0.9039 0.9041
1839.000000 0.9043 0.9045 0.9048 0.9051 0.9053
1844.000000 0.9055 0.9057 0.9060 0.9061 0.9063
1849.000000 0.9065 0.9067 0.9069 0.9071 0.9072
1854.000000 0.9074 0.9076 0.9079 0.9080 0.9082
1859.000000 0.9084 0.9085 0.9087 0.9089 0.9091
1864.000000 0.9092 0.9094 0.9095 0.9096 0.9099
1869.000000 0.9100 0.9102 0.9103 0.9105 0.9106
1874.000000 0.9107 0.9096 0.9110 0.9112 0.9113
1879.000000 0.9115 0.9117 0.9118 0.9119 0.9120
1884.000000 0.9122 0.9123 0.9124 0.9126 0.9127
1889.000000 0.9129 0.9130 0.9131 0.9132 0.9133
1894.000000 0.9135 0.9136 0.9137 0.9139 0.9139
1899.000000 0.9139 0.9139 0.9139 0.9139 0.9139
1904.000000 0.9139 0.9139 0.9139 0.9139 0.9139
1909.000000 0.9139 0.9139 0.9139 0.9139 0.9139
1914.000000 0.9139 0.9139 0.9139 0.9139 0.9138
1919.000000 0.9138 0.9138 0.9138 0.9138 0.9138
1924.000000 0.9138 0.9138 0.9138 0.9138 0.9138
1929.000000 0.9138 0.9138 0.9138 0.9138 0.9138
1934.000000 0.9138 0.9138 0.9138 0.9138 0.9138
1939.000000 0.9138 0.9138 0.9138 0.9138 0.9137
1944.000000 0.9137 0.9137 0.9137 0.9137 0.9137
1949.000000 0.9137 0.9137 0.9137 0.9137 0.9137
1954.000000 0.9137 0.9137 0.9137 0.9137 0.9137
1959.000000 0.9137 0.9137 0.9137 0.9137 0.9137
1964.000000 0.9137 0.9137 0.9137 0.9137 0.9137
1969.000000 0.9137 0.9137 0.9136 0.9136 0.9136
1974.000000 0.9136 0.9136 0.9136 0.9136 0.9136
1979.000000 0.9136 0.9136 0.9136 0.9136 0.9136
1984.000000 0.9136 0.9136 0.9136 0.9136 0.9136
1989.000000 0.9136 0.9136 0.9136 0.9136 0.9136
1994.000000 0.9136 0.9136 0.9136 0.9136 0.9136
1999.000000 0.9135 0.9135 0.9135 0.9135 0.9135
2004.000000 0.9135 0.9135 0.9135 0.9135 0.9135
2009.000000 0.9135 0.9135 0.9135 0.9135 0.9135
2014.000000 0.9135 0.9135 0.9135 0.9135 0.9135
2019.000000 0.9135 0.9135 0.9135 0.9135 0.9135
2024.000000 0.9135 0.9135 0.9134 0.9134 0.9134
2029.000000 0.9134 0.9134 0.9134 0.9134 0.9134
2034.000000 0.9134 0.9134 0.9134 0.9134 0.9134
2039.000000 0.9134 0.9134 0.9134 0.9134 0.9134
2044.000000 0.9134 0.9134 0.9134 0.9134 0.9134
2049.000000 0.9134 0.9134 0.9134 0.9134 0.9134
2054.000000 0.9134 0.9134 0.9133 0.9133 0.9133
2059.000000 0.9133 0.9133 0.9133 0.9133 0.9133
2064.000000 0.9133 0.9133 0.9133 0.9133 0.9133
2069.000000 0.9133 0.9133 0.9133 0.9133 0.9133
2074.000000 0.9133 0.9133 0.9133 0.9133 0.9133
2079.000000 0.9133 0.9133 0.9133 0.9133 0.9133
2084.000000 0.9133 0.9133 0.9133 0.9132 0.9132
2089.000000 0.9132 0.9132 0.9132 0.9132 0.9132
2094.000000 0.9132 0.9132 0.9132 0.9132 0.9132
2099.000000 0.9132 0.9132 0.9132 0.9132 0.9132
2104.000000 0.9132 0.9132 0.9132 0.9132 0.9132
2109.000000 0.9132 0.9132 0.9132 0.9132 0.9132
2114.000000 0.9132 0.9132 0.9132 0.9132 0.9132
2119.000000 0.9131 0.9131 0.9131 0.9131 0.9131
2124.000000 0.9131 0.9131 0.9131 0.9131 0.9131
2129.000000 0.9131 0.9131 0.9131 0.9131 0.9131
2134.000000 0.9131 0.9131 0.9131 0.9131 0.9131
2139.000000 0.9131 0.9131 0.9131 0.9131 0.9131
2144.000000 0.9131 0.9131 0.9131 0.9131 0.9131
2149.000000 0.9131 0.9130 0.9130 0.9130 0.9130
2154.000000 0.9130 0.9130 0.9130 0.9130 0.9130
2159.000000 0.9130 0.9130 0.9130 0.9130 0.9130
2164.000000 0.9130 0.9130 0.9130 0.9130 0.9130
2169.000000 0.9130 0.9130 0.9130 0.9130 0.9130
2174.000000 0.9130 0.9130 0.9130 0.9130 0.9130
2179.000000 0.9130 0.9130 0.9130 0.9130 0.9130
2184.000000 0.9129 0.9129 0.9129 0.9129 0.9129
2189.000000 0.9129 0.9129 0.9129 0.9129 0.9129
2194.000000 0.9129 0.9129 0.9129 0.9129 0.9129
2199.000000 0.9129 0.9129 0.9129 0.9129 0.9129
2204.000000 0.9129 0.9129 0.9129 0.9129 0.9129
2209.000000 0.9129 0.9129 0.9129 0.9129 0.9129
2214.000000 0.9129 0.9129 0.9129 0.9129 0.9129
2219.000000 0.9128 0.9128 0.9128 0.9128 0.9128
2224.000000 0.9128 0.9128 0.9128 0.9128 0.9128
2229.000000 0.9128 0.9128 0.9128 0.9128 0.9128
2234.000000 0.9128 0.9128 0.9128 0.9128 0.9128
2239.000000 0.9128 0.9128 0.9128 0.9128 0.9128
2244.000000 0.9128 0.9128 0.9128 0.9128 0.9128
2249.000000 0.9128 0.9128 0.9128 0.9128 0.9128
2254.000000 0.9128 0.9127 0.9127 0.9127 0.9127
2259.000000 0.9127 0.9127 0.9127 0.9127 0.9127
2264.000000 0.9127 0.9127 0.9127 0.9127 0.9127
2269.000000 0.9127 0.9127 0.9127 0.9127 0.9127
2274.000000 0.9127 0.9127 0.9127 0.9127 0.9127
2279.000000 0.9127 0.9127 0.9127 0.9127 0.9127
2284.000000 0.9127 0.9127 0.9127 0.9127 0.9127
2289.000000 0.9127 0.9126 0.9126 0.9126 0.9126
2294.000000 0.9126 0.9126 0.9126 0.9126 0.9126
2299.000000 0.9126 0.9126 0.9126 0.9126 0.9126
2304.000000 0.9126 0.9126 0.9126 0.9126 0.9126
2309.000000 0.9126 0.9126 0.9126 0.9126 0.9126
2314.000000 0.9126 0.9126 0.9126 0.9126 0.9126
2319.000000 0.9126 0.9126 0.9126 0.9126 0.9126
2324.000000 0.9126 0.9126 0.9126 0.9126 0.9125
2329.000000 0.9125 0.9125 0.9125 0.9125 0.9125
2334.000000 0.9125 0.9125 0.9125 0.9125 0.9125
2339.000000 0.9125 0.9125 0.9125 0.9125 0.9125
2344.000000 0.9125 0.9125 0.9125 0.9125 0.9125
2349.000000 0.9125 0.9125 0.9125 0.9124 0.9123
2354.000000 0.9123 0.9122 0.9122 0.9121 0.9120
2359.000000 0.9119 0.9119 0.9118 0.9117 0.9116
2364.000000 0.9116 0.9115 0.9113 0.9111 0.9109
2369.000000 0.9106 0.9102 0.9099 0.9096 0.9094
2374.000000 0.9091 0.9088 0.9085 0.9081 0.9076
2379.000000 0.9071 0.9066 0.9061 0.9055 0.9050
2384.000000 0.9044 0.9038 0.9032 0.9026 0.9019
2389.000000 0.9012 0.9005 0.8998 0.8991 0.8984
2394.000000 0.8977 0.8970 0.8964 0.8958 0.8952
2399.000000 0.8947 0.8941 0.8936 0.8930 0.8924
2404.000000 0.8918 0.8914 0.8910 0.8907 0.8905
2409.000000 0.8902 0.8900 0.8897 0.8894 0.8892
2414.000000 0.8889 0.8887 0.8884 0.8881 0.8878
2419.000000 0.8876 0.8874 0.8874 0.8874 0.8875
2424.000000 0.8875 0.8875 0.8875 0.8875 0.8876
2429.000000 0.8876 0.8877 0.8877 0.8877 0.8877
2434.000000 0.8877 0.8878 0.8878 0.8879 0.8879
2439.000000 0.8879 0.8879 0.8879 0.8880 0.8880
2444.000000 0.8881 0.8882 0.8882 0.8884 0.8885
2449.000000 0.8886 0.8887 0.8889 0.8890 0.8891
2454.000000 0.8892 0.8893 0.8894 0.8895 0.8896
2459.000000 0.8897 0.8899 0.8900 0.8901 0.8902
2464.000000 0.8903 0.8904 0.8905 0.8906 0.8908
2469.000000 0.8909 0.8910 0.8911 0.8912 0.8913
2474.000000 0.8914 0.8915 0.8916 0.8918 0.8919
2479.000000 0.8920 0.8920 0.8922 0.8923 0.8924
2484.000000 0.8925 0.8926 0.8927 0.8928 0.8929
2489.000000 0.8930 0.8931 0.8933 0.8934 0.8935
2494.000000 0.8936 0.8936 0.8937 0.8937 0.8936
2499.000000 0.8936 0.8936 0.8936 0.8936 0.8935
2504.000000 0.8935 0.8935 0.8934 0.8934 0.8933
2509.000000 0.8933 0.8933 0.8932 0.8932 0.8931
2514.000000 0.8931 0.8931 0.8930 0.8930 0.8929
2519.000000 0.8929 0.8929 0.8928 0.8928 0.8927
2524.000000 0.8927 0.8927 0.8926 0.8924 0.8923
2529.000000 0.8922 0.8920 0.8919 0.8917 0.8915
2534.000000 0.8914 0.8913 0.8912 0.8910 0.8909
2539.000000 0.8907 0.8906 0.8904 0.8902 0.8901
2544.000000 0.8899 0.8898 0.8896 0.8895 0.8893
2549.000000 0.8892 0.8891 0.8890 0.8888 0.8886
2554.000000 0.8885 0.8883 0.8882 0.8880 0.8877
2559.000000 0.8875 0.8872 0.8869 0.8866 0.8863
2564.000000 0.8860 0.8857 0.8854 0.8852 0.8849
2569.000000 0.8846 0.8843 0.8840 0.8837 0.8834
2574.000000 0.8831 0.8827 0.8824 0.8821 0.8819
2579.000000 0.8816 0.8813 0.8811 0.8809 0.8807
2584.000000 0.8804 0.8802 0.8800 0.8798 0.8795
2589.000000 0.8793 0.8791 0.8789 0.8787 0.8784
2594.000000 0.8782 0.8780 0.8778 0.8775 0.8773
2599.000000 0.8771 0.8769 0.8767 0.8764 0.8763
2604.000000 0.8761 0.8759 0.8756 0.8754 0.8752
2609.000000 0.8750 0.8748 0.8746 0.8745 0.8744
2614.000000 0.8743 0.8743 0.8742 0.8741 0.8740
2619.000000 0.8739 0.8738 0.8737 0.8736 0.8736
2624.000000 0.8735 0.8734 0.8734 0.8732 0.8731
2629.000000 0.8730 0.8730 0.8729 0.8728 0.8727
2634.000000 0.8727 0.8726 0.8725 0.8724 0.8723
2639.000000 0.8722 0.8722 0.8722 0.8722 0.8722
2644.000000 0.8722 0.8722 0.8723 0.8723 0.8723
2649.000000 0.8724 0.8724 0.8724 0.8724 0.8724
2654.000000 0.8725 0.8725 0.8725 0.8725 0.8725
2659.000000 0.8725 0.8726 0.8726 0.8726 0.8726
2664.000000 0.8726 0.8726 0.8727 0.8727 0.8727
2669.000000 0.8728 0.8728 0.8728 0.8728 0.8728
2674.000000 0.8728 0.8727 0.8726 0.8725 0.8724
2679.000000 0.8722 0.8721 0.8719 0.8718 0.8717
2684.000000 0.8715 0.8714 0.8712 0.8711 0.8709
2689.000000 0.8707 0.8706 0.8705 0.8703 0.8702
2694.000000 0.8700 0.8699 0.8698 0.8696 0.8695
2699.000000 0.8694 0.8692 0.8691 0.8689 0.8688
2704.000000 0.8686 0.8685 0.8683 0.8680 0.8678
2709.000000 0.8675 0.8671 0.8667 0.8663 0.8659
2714.000000 0.8655 0.8651 0.8648 0.8644 0.8640
2719.000000 0.8637 0.8633 0.8629 0.8625 0.8622
2724.000000 0.8618 0.8614 0.8611 0.8605 0.8600
2729.000000 0.8594 0.8589 0.8583 0.8578 0.8572
2734.000000 0.8566 0.8561 0.8555 0.8550 0.8545
2739.000000 0.8539 0.8534 0.8529 0.8523 0.8517
2744.000000 0.8512 0.8506 0.8501 0.8496 0.8487
2749.000000 0.8478 0.8468 0.8458 0.8447 0.8437
2754.000000 0.8426 0.8416 0.8406 0.8396 0.8385
2759.000000 0.8375 0.8364 0.8353 0.8342 0.8329
2764.000000 0.8315 0.8301 0.8287 0.8273 0.8259
2769.000000 0.8245 0.8231 0.8217 0.8203 0.8189
2774.000000 0.8175 0.8161 0.8147 0.8133 0.8119
2779.000000 0.8105 0.8090 0.8074 0.8046 0.8018
2784.000000 0.7990 0.7961 0.7933 0.7905 0.7872
2789.000000 0.7838 0.7805 0.7767 0.7729 0.7691
2794.000000 0.7649 0.7605 0.7562 0.7514 0.7463
2799.000000 0.7412 0.7353 0.7284 0.7215 0.7143
2804.000000 0.7064 0.6985 0.6906 0.6827 0.6747
2809.000000 0.6668 0.6588 0.6508 0.6428 0.6349
2814.000000 0.6270 0.6190 0.6111 0.6032 0.5952
2819.000000 0.5873 0.5794 0.5715 0.5636 0.5557
2824.000000 0.5478 0.5399 0.5321 0.5242 0.5164
2829.000000 0.5085 0.5007 0.4929 0.4850 0.4772
2834.000000 0.4693 0.4615 0.4537 0.4459 0.4400
2839.000000 0.4382 0.4365 0.4349 0.4349 0.4350
2844.000000 0.4350 0.4351 0.4352 0.4352 0.4359
2849.000000 0.4368 0.4378 0.4389 0.4400 0.4411
2854.000000 0.4422 0.4433 0.4444 0.4455 0.4466
2859.000000 0.4478 0.4489 0.4500 0.4511 0.4522
2864.000000 0.4530 0.4532 0.4534 0.4536 0.4536
2869.000000 0.4536 0.4536 0.4505 0.4464 0.4424
2874.000000 0.4374 0.4314 0.4253 0.4193 0.4132
2879.000000 0.4072 0.4012 0.3951 0.3891 0.3831
2884.000000 0.3771 0.3711 0.3651 0.3591 0.3531
2889.000000 0.3471 0.3411 0.3351 0.3291 0.3231
2894.000000 0.3172 0.3112 0.3052 0.2993 0.2933
2899.000000 0.2874 0.2814 0.2755 0.2696 0.2636
2904.000000 0.2595 0.2582 0.2569 0.2556 0.2554
2909.000000 0.2552 0.2550 0.2549 0.2549 0.2548
2914.000000 0.2548 0.2549 0.2550 0.2551 0.2547
2919.000000 0.2573 0.2584 0.2622 0.2693 0.2765
2924.000000 0.2836 0.2907 0.2979 0.3050 0.3121
2929.000000 0.3192 0.3263 0.3333 0.3404 0.3475
2934.000000 0.3546 0.3617 0.3688 0.3759 0.3829
2939.000000 0.3900 0.3970 0.4041 0.4111 0.4181
2944.000000 0.4252 0.4322 0.4392 0.4462 0.4533
2949.000000 0.4603 0.4673 0.4743 0.4813 0.4883
2954.000000 0.4953 0.5023 0.5092 0.5162 0.5231
2959.000000 0.5301 0.5370 0.5440 0.5510 0.5579
2964.000000 0.5648 0.5718 0.5787 0.5856 0.5925
2969.000000 0.5994 0.6063 0.6132 0.6201 0.6271
2974.000000 0.6339 0.6408 0.6477 0.6546 0.6615
2979.000000 0.6684 0.6752 0.6821 0.6889 0.6957
2984.000000 0.7026 0.7094 0.7163 0.7231 0.7300
2989.000000 0.7368 0.7436 0.7504 0.7572 0.7641
2994.000000 0.7709 0.7776 0.7844 0.7912 0.7979
2999.000000 0.8047 0.8115 0.8183 0.8236 0.8286
3004.000000 0.8335 0.8378 0.8390 0.8403 0.8415
3009.000000 0.8438 0.8468 0.8499 0.8529 0.8552
3014.000000 0.8575 0.8597 0.8619 0.8639 0.8659
3019.000000 0.8679 0.8695 0.8709 0.8723 0.8737
3024.000000 0.8751 0.8765 0.8779 0.8791 0.8801
3029.000000 0.8811 0.8821 0.8827 0.8831 0.8835
3034.000000 0.8839 0.8840 0.8842 0.8843 0.8845
3039.000000 0.8846 0.8848 0.8849 0.8850 0.8850
3044.000000 0.8850 0.8850 0.8851 0.8851 0.8851
3049.000000 0.8851 0.8851 0.8851 0.8851 0.8852
3054.000000 0.8852 0.8852 0.8852 0.8853 0.8853
3059.000000 0.8853 0.8875 0.8852 0.8852 0.8852
3064.000000 0.8852 0.8852 0.8852 0.8852 0.8852
3069.000000 0.8852 0.8852 0.8852 0.8851 0.8851
3074.000000 0.8851 0.8851 0.8851 0.8851 0.8851
3079.000000 0.8850 0.8850 0.8850 0.8850 0.8850
3084.000000 0.8850 0.8850 0.8850 0.8849 0.8849
3089.000000 0.8849 0.8849 0.8848 0.8848 0.8848
3094.000000 0.8848 0.8847 0.8847 0.8847 0.8846
3099.000000 0.8846 0.8846 0.8846 0.8846 0.8846
3104.000000 0.8846 0.8846 0.8845 0.8845 0.8845
3109.000000 0.8845 0.8844 0.8844 0.8844 0.8844
3114.000000 0.8843 0.8843 0.8843 0.8843 0.8842
3119.000000 0.8842 0.8842 0.8842 0.8841 0.8841
3124.000000 0.8840 0.8840 0.8839 0.8838 0.8837
3129.000000 0.8836 0.8836 0.8835 0.8835 0.8834
3134.000000 0.8834 0.8833 0.8832 0.8831 0.8831
3139.000000 0.8830 0.8829 0.8828 0.8828 0.8827
3144.000000 0.8827 0.8826 0.8825 0.8825 0.8824
3149.000000 0.8823 0.8823 0.8822 0.8822 0.8821
3154.000000 0.8820 0.8820 0.8819 0.8818 0.8818
3159.000000 0.8817 0.8817 0.8816 0.8816 0.8815
3164.000000 0.8815 0.8814 0.8814 0.8813 0.8813
3169.000000 0.8812 0.8811 0.8811 0.8810 0.8809
3174.000000 0.8809 0.8808 0.8808 0.8807 0.8807
3179.000000 0.8806 0.8806 0.8805 0.8805 0.8804
3184.000000 0.8804 0.8803 0.8803 0.8802 0.8802
3189.000000 0.8801 0.8801 0.8800 0.8799 0.8798
3194.000000 0.8798 0.8797 0.8797 0.8796 0.8796
3199.000000 0.8795 0.8795 0.8795 0.8793 0.8792
3204.000000 0.8790 0.8789 0.8787 0.8786 0.8785
3209.000000 0.8784 0.8783 0.8781 0.8780 0.8779
3214.000000 0.8778 0.8776 0.8775 0.8773 0.8772
3219.000000 0.8771 0.8769 0.8768 0.8767 0.8766
3224.000000 0.8765 0.8763 0.8762 0.8761 0.8759
3229.000000 0.8758 0.8756 0.8755 0.8754 0.8753
3234.000000 0.8752 0.8750 0.8749 0.8748 0.8747
3239.000000 0.8746 0.8744 0.8743 0.8741 0.8740
3244.000000 0.8737 0.8735 0.8733 0.8731 0.8729
3249.000000 0.8726 0.8724 0.8721 0.8719 0.8717
3254.000000 0.8715 0.8713 0.8711 0.8708 0.8706
3259.000000 0.8704 0.8701 0.8699 0.8697 0.8695
3264.000000 0.8693 0.8691 0.8689 0.8687 0.8684
3269.000000 0.8682 0.8679 0.8677 0.8674 0.8671
3274.000000 0.8668 0.8665 0.8662 0.8659 0.8656
3279.000000 0.8653 0.8650 0.8647 0.8644 0.8640
3284.000000 0.8637 0.8634 0.8631 0.8628 0.8625
3289.000000 0.8622 0.8619 0.8616 0.8612 0.8609
3294.000000 0.8606 0.8603 0.8600 0.8597 0.8594
3299.000000 0.8591 0.8588 0.8584 0.8581 0.8578
3304.000000 0.8575 0.8572 0.8569 0.8566 0.8563
3309.000000 0.8560 0.8557 0.8554 0.8551 0.8548
3314.000000 0.8545 0.8542 0.8538 0.8535 0.8532
3319.000000 0.8529 0.8526 0.8523 0.8520 0.8517
3324.000000 0.8514 0.8511 0.8508 0.8504 0.8501
3329.000000 0.8498 0.8495 0.8492 0.8489 0.8486
3334.000000 0.8483 0.8480 0.8477 0.8474 0.8471
3339.000000 0.8468 0.8465 0.8461 0.8458 0.8455
3344.000000 0.8452 0.8449 0.8446 0.8443 0.8440
3349.000000 0.8437 0.8434 0.8431 0.8428 0.8425
3354.000000 0.8422 0.8419 0.8416 0.8413 0.8411
3359.000000 0.8408 0.8406 0.8404 0.8401 0.8399
3364.000000 0.8396 0.8394 0.8391 0.8389 0.8386
3369.000000 0.8383 0.8381 0.8378 0.8376 0.8373
3374.000000 0.8371 0.8369 0.8366 0.8364 0.8361
3379.000000 0.8359 0.8357 0.8354 0.8352 0.8349
3384.000000 0.8347 0.8344 0.8342 0.8339 0.8336
3389.000000 0.8334 0.8332 0.8329 0.8327 0.8325
3394.000000 0.8323 0.8322 0.8320 0.8318 0.8317
3399.000000 0.8316 0.8314 0.8313 0.8312 0.8311
3404.000000 0.8310 0.8309 0.8307 0.8306 0.8305
3409.000000 0.8304 0.8303 0.8302 0.8301 0.8300
3414.000000 0.8299 0.8298 0.8297 0.8295 0.8294
3419.000000 0.8293 0.8291 0.8290 0.8289 0.8288
3424.000000 0.8287 0.8286 0.8286 0.8286 0.8285
3429.000000 0.8285 0.8285 0.8285 0.8285 0.8285
3434.000000 0.8285 0.8286 0.8286 0.8286 0.8286
3439.000000 0.8286 0.8286 0.8286 0.8286 0.8286
3444.000000 0.8286 0.8286 0.8286 0.8286 0.8286
3449.000000 0.8287 0.8287 0.8287 0.8287 0.8287
3454.000000 0.8287 0.8287 0.8287 0.8287 0.8288
3459.000000 0.8288 0.8288 0.8288 0.8288 0.8288
3464.000000 0.8288 0.8288 0.8288 0.8288 0.8306
3469.000000 0.8289 0.8289 0.8289 0.8289 0.8289
3474.000000 0.8289 0.8289 0.8289 0.8289 0.8290
3479.000000 0.8290 0.8290 0.8290 0.8291 0.8291
3484.000000 0.8291 0.8291 0.8291 0.8292 0.8292
3489.000000 0.8292 0.8292 0.8292 0.8292 0.8292
3494.000000 0.8292 0.8292 0.8292 0.8293 0.8293
3499.000000 0.8293 0.8293 0.8293 0.8294 0.8294
3504.000000 0.8294 0.8294 0.8294 0.8295 0.8295
3509.000000 0.8295 0.8295 0.8295 0.8294 0.8294
3514.000000 0.8293 0.8293 0.8293 0.8292 0.8292
3519.000000 0.8291 0.8291 0.8291 0.8290 0.8290
3524.000000 0.8289 0.8289 0.8289 0.8288 0.8287
3529.000000 0.8287 0.8286 0.8286 0.8282 0.8278
3534.000000 0.8274 0.8271 0.8267 0.8253 0.8238
3539.000000 0.8223 0.8208 0.8193 0.8178 0.8163
3544.000000 0.8148 0.8134 0.8119 0.8104 0.8090
3549.000000 0.8075 0.8060 0.8046 0.8031 0.8016
3554.000000 0.8002 0.7987 0.7972 0.7958 0.7943
3559.000000 0.7928 0.7914 0.7899 0.7890 0.7882
3564.000000 0.7875 0.7867 0.7860 0.7850 0.7856
3569.000000 0.7854 0.7853 0.7852 0.7852 0.7852
3574.000000 0.7853 0.7854 0.7854 0.7859 0.7870
3579.000000 0.7880 0.7890 0.7901 0.7916 0.7942
3584.000000 0.7968 0.7994 0.8020 0.8046 0.8071
3589.000000 0.8097 0.8123 0.8149 0.8175 0.8200
3594.000000 0.8226 0.8251 0.8277 0.8302 0.8328
3599.000000 0.8354 0.8379 0.8405 0.8431 0.8456
3604.000000 0.8482 0.8507 0.8533 0.8559 0.8584
3609.000000 0.8610 0.8635 0.8661 0.8686 0.8712
3614.000000 0.8737 0.8762 0.8787 0.8813 0.8838
3619.000000 0.8860 0.8883 0.8905 0.8928 0.8950
3624.000000 0.8962 0.8972 0.8982 0.8991 0.9001
3629.000000 0.9008 0.9012 0.9016 0.9020 0.9024
3634.000000 0.9028 0.9028 0.9029 0.9029 0.9030
3639.000000 0.9030 0.9031 0.9031 0.9032 0.9032
3644.000000 0.9032 0.9033 0.9033 0.9034 0.9034
3649.000000 0.9034 0.9035 0.9035 0.9035 0.9035
3654.000000 0.9035 0.9035 0.9035 0.9035 0.9035
3659.000000 0.9035 0.9035 0.9035 0.9035 0.9035
3664.000000 0.9035 0.9035 0.9035 0.9035 0.9035
3669.000000 0.9035 0.9035 0.9035 0.9034 0.9034
3674.000000 0.9034 0.9034 0.9034 0.9033 0.9033
3679.000000 0.9033 0.9032 0.9032 0.9031 0.9031
3684.000000 0.9031 0.9031 0.9031 0.9031 0.9030
3689.000000 0.9030 0.9030 0.9030 0.9030 0.9029
3694.000000 0.9029 0.9029 0.9029 0.9029 0.9029
3699.000000 0.9028 0.9028 0.9028 0.9028 0.9028
3704.000000 0.9027 0.9027 0.9027 0.9027 0.9027
3709.000000 0.9027 0.9026 0.9026 0.9026 0.9026
3714.000000 0.9026 0.9025 0.9025 0.9025 0.9025
3719.000000 0.9025 0.9025 0.9024 0.9024 0.9024
3724.000000 0.9023 0.9023 0.9022 0.9022 0.9022
3729.000000 0.9022 0.9022 0.9022 0.9031 0.9021
3734.000000 0.9021 0.9021 0.9021 0.9020 0.9020
3739.000000 0.9020 0.9020 0.9020 0.9020 0.9019
3744.000000 0.9019 0.9019 0.9019 0.9019 0.9019
3749.000000 0.9018 0.9018 0.9018 0.9018 0.9018
3754.000000 0.9017 0.9017 0.9017 0.9016 0.9016
3759.000000 0.9016 0.9015 0.9015 0.9015 0.9015
3764.000000 0.9015 0.9015 0.9015 0.9015 0.9015
3769.000000 0.9015 0.9015 0.9014 0.9014 0.9014
3774.000000 0.9014 0.9014 0.9014 0.9013 0.9013
3779.000000 0.9013 0.9013 0.9013 0.9013 0.9012
3784.000000 0.9012 0.9012 0.9012 0.9012 0.9011
3789.000000 0.9011 0.9011 0.9011 0.9011 0.9011
3794.000000 0.9010 0.9010 0.9010 0.9010 0.9010
3799.000000 0.9010 0.9009 0.9009 0.9009 0.9009
3804.000000 0.9009 0.9009 0.9008 0.9008 0.9008
3809.000000 0.9008 0.9008 0.9007 0.9007 0.9007
3814.000000 0.9007 0.9007 0.9007 0.9006 0.9006
3819.000000 0.9006 0.9006 0.9006 0.9006 0.9005
3824.000000 0.9005 0.9005 0.9005 0.9005 0.9005
3829.000000 0.9005 0.9005 0.9005 0.9005 0.9005
3834.000000 0.9005 0.9005 0.9005 0.9005 0.9005
3839.000000 0.9005 0.9005 0.9005 0.9005 0.9005
3844.000000 0.9005 0.9005 0.9005 0.9005 0.9005
3849.000000 0.9005 0.9005 0.9005 0.9005 0.9005
3854.000000 0.9005 0.9005 0.9005 0.9005 0.9005
3859.000000 0.9005 0.9005 0.9005 0.9005 0.9005
3864.000000 0.9005 0.9005 0.9005 0.9005 0.9005
3869.000000 0.9005 0.9005 0.9005 0.9005 0.9005
3874.000000 0.9005 0.9005 0.9005 0.9005 0.9005
3879.000000 0.9005 0.9005 0.9005 0.9005 0.9005
3884.000000 0.9005 0.9005 0.9005 0.9005 0.9005
3889.000000 0.9005 0.9005 0.9005 0.9005 0.9005
3894.000000 0.9005 0.9004 0.9004 0.9004 0.9004
3899.000000 0.9004 0.9004 0.9004 0.9004 0.9004
3904.000000 0.9004 0.9004 0.9004 0.9003 0.9003
3909.000000 0.9003 0.9003 0.9003 0.9003 0.9002
3914.000000 0.9002 0.9002 0.9002 0.9002 0.9002
3919.000000 0.9002 0.9002 0.9002 0.9002 0.9002
3924.000000 0.9002 0.9001 0.9001 0.9001 0.9001
3929.000000 0.9001 0.9001 0.9000 0.9000 0.9000
3934.000000 0.9000 0.9000 0.9000 0.9000 0.9000
3939.000000 0.9000 0.9000 0.9000 0.9000 0.9000
3944.000000 0.8999 0.8999 0.8999 0.8999 0.8999
3949.000000 0.8999 0.8998 0.8998 0.8998 0.8998
3954.000000 0.8998 0.8998 0.8998 0.8998 0.8998
3959.000000 0.8998 0.8998 0.8998 0.8997 0.8997
3964.000000 0.8997 0.8997 0.8997 0.8997 0.8997
3969.000000 0.8996 0.8996 0.8996 0.8996 0.8996
3974.000000 0.8996 0.8996 0.8996 0.8996 0.8996
3979.000000 0.8996 0.8996 0.8995 0.8995 0.8995
3984.000000 0.8995 0.8995 0.8995 0.8995 0.8995
3989.000000 0.8995 0.8995 0.8995 0.8995 0.8995
3994.000000 0.8994 0.8994 0.8994 0.8994 0.8994
3999.000000 0.8994 0.8994
##END=
