##TITLE=GUANIDINE, CHROMATE
##JCAMP-DX=4.24
##DATA TYPE=INFRARED SPECTRUM
##CLASS=COBLENTZ III
##ORIGIN=DOW CHEMICAL COMPANY
##OWNER=COBLENTZ SOC.
Collection (C) 2018 copyright by the U.S. Secretary of Commerce
on behalf of the United States of America. All rights reserved.
##DATE=1965/11/24
##MOLFORM=C2 H12 Cr N6 O4
##SOURCE REFERENCE=COBLENTZ NO. 07067
##$NIST ID=B6007067
##$NIST SOURCE=COBLENTZ
##$NIST IMAGE=cob7067
##SPECTROMETER/DATA SYSTEM=BECKMAN IR-9 (GRATING)
##INSTRUMENT PARAMETERS=ORDER CHANGES: 670, 1200, 2000 CM^-^1
##STATE=SOLID (SPLIT MULL), FLUOROLUBE FOR 3800-1330 CM^-^1, NUJOL FOR 1330-400 CM^-^1
$$ SPECTRAL FEATURE AT 1346 CM^-^1 IS AFFECTED BY A CHANGE IN SOLVENT
##SAMPLING PROCEDURE=TRANSMISSION
##RESOLUTION=2
##DATA PROCESSING=DIGITIZED BY COBLENTZ SOCIETY (BATCH I) FROM HARD COPY
##XUNITS=1/CM
##YUNITS=TRANSMITTANCE
##XLABEL=Wavenumbers (cm-1)
##YLABEL=% Transmission
##XFACTOR=1
##YFACTOR=1
##DELTAX=1
##FIRSTX=402
##LASTX=3800
##FIRSTY=0.5248
##MAXX=3800
##MINX=402
##MAXY=0.8541
##MINY=0.031
##NPOINTS=3399
##XYDATA=(X++(Y..Y))
402.000000 0.5248 0.5251 0.5254 0.5259 0.5262
407.000000 0.5267 0.5272 0.5277 0.5284 0.5292
412.000000 0.5299 0.5306 0.5314 0.5323 0.5334
417.000000 0.5345 0.5357 0.5365 0.5370 0.5376
422.000000 0.5381 0.5386 0.5391 0.5392 0.5393
427.000000 0.5394 0.5395 0.5396 0.5396 0.5394
432.000000 0.5392 0.5390 0.5389 0.5387 0.5385
437.000000 0.5389 0.5406 0.5433 0.5462 0.5491
442.000000 0.5515 0.5539 0.5562 0.5589 0.5619
447.000000 0.5649 0.5679 0.5708 0.5727 0.5744
452.000000 0.5762 0.5780 0.5794 0.5802 0.5809
457.000000 0.5817 0.5819 0.5805 0.5768 0.5773
462.000000 0.5745 0.5718 0.5692 0.5667 0.5642
467.000000 0.5615 0.5579 0.5544 0.5509 0.5475
472.000000 0.5441 0.5408 0.5374 0.5343 0.5312
477.000000 0.5282 0.5251 0.5221 0.5174 0.5121
482.000000 0.5068 0.5015 0.4962 0.4910 0.4859
487.000000 0.4807 0.4756 0.4704 0.4652 0.4600
492.000000 0.4537 0.4474 0.4410 0.4347 0.4286
497.000000 0.4227 0.4168 0.4109 0.4050 0.3980
502.000000 0.3909 0.3840 0.3771 0.3656 0.3494
507.000000 0.3332 0.3218 0.3116 0.3013 0.2915
512.000000 0.2842 0.2770 0.2650 0.2699 0.2677
517.000000 0.2674 0.2674 0.2673 0.2683 0.2692
522.000000 0.2700 0.2719 0.2685 0.2676 0.2666
527.000000 0.2640 0.2612 0.2578 0.2543 0.2509
532.000000 0.2474 0.2438 0.2403 0.2372 0.2360
537.000000 0.2347 0.2334 0.2339 0.2338 0.2342
542.000000 0.2346 0.2353 0.2361 0.2369 0.2393
547.000000 0.2431 0.2619 0.2729 0.2777 0.2816
552.000000 0.2855 0.2884 0.2914 0.2942 0.2970
557.000000 0.2997 0.3025 0.3052 0.3080 0.3111
562.000000 0.3142 0.3174 0.3205 0.3250 0.3300
567.000000 0.3352 0.3403 0.3462 0.3523 0.3579
572.000000 0.3614 0.3650 0.3686 0.3720 0.3754
577.000000 0.3788 0.3822 0.3856 0.3891 0.3925
582.000000 0.3959 0.3993 0.4027 0.4062 0.4093
587.000000 0.4125 0.4147 0.4162 0.4177 0.4192
592.000000 0.4207 0.4223 0.4238 0.4251 0.4256
597.000000 0.4260 0.4266 0.4271 0.4276 0.4281
602.000000 0.4260 0.4275 0.4271 0.4266 0.4262
607.000000 0.4252 0.4229 0.4207 0.4185 0.4162
612.000000 0.4132 0.4098 0.4064 0.4030 0.3995
617.000000 0.3959 0.3922 0.3886 0.3850 0.3810
622.000000 0.3770 0.3729 0.3688 0.3647 0.3606
627.000000 0.3564 0.3526 0.3488 0.3449 0.3410
632.000000 0.3372 0.3334 0.3295 0.3256 0.3216
637.000000 0.3179 0.3140 0.3101 0.3062 0.3020
642.000000 0.2978 0.2935 0.2894 0.2852 0.2810
647.000000 0.2771 0.2739 0.2708 0.2676 0.2645
652.000000 0.2621 0.2600 0.2578 0.2557 0.2541
657.000000 0.2534 0.2527 0.2519 0.2512 0.2507
662.000000 0.2504 0.2495 0.2499 0.2500 0.2500
667.000000 0.2500 0.2505 0.2516 0.2527 0.2538
672.000000 0.2551 0.2567 0.2583 0.2600 0.2616
677.000000 0.2646 0.2684 0.2721 0.2759 0.2796
682.000000 0.2834 0.2871 0.2909 0.2949 0.2989
687.000000 0.3029 0.3069 0.3124 0.3182 0.3239
692.000000 0.3296 0.3353 0.3409 0.3466 0.3524
697.000000 0.3582 0.3639 0.3696 0.3753 0.3809
702.000000 0.3866 0.3924 0.3982 0.4039 0.4096
707.000000 0.4153 0.4210 0.4267 0.4324 0.4382
712.000000 0.4439 0.4496 0.4553 0.4608 0.4655
717.000000 0.4702 0.4738 0.4775 0.4810 0.4845
722.000000 0.4880 0.4912 0.4944 0.4975 0.5018
727.000000 0.5069 0.5142 0.5219 0.5297 0.5370
732.000000 0.5455 0.5656 0.5738 0.5737 0.5737
737.000000 0.5767 0.5722 0.5658 0.5601 0.5546
742.000000 0.5431 0.5329 0.5253 0.5187 0.5128
747.000000 0.5085 0.5042 0.4994 0.4945 0.4919
752.000000 0.4949 0.5047 0.5106 0.5155 0.5205
757.000000 0.5254 0.5307 0.5376 0.5445 0.5520
762.000000 0.5603 0.5685 0.5771 0.5857 0.5919
767.000000 0.5966 0.6014 0.6060 0.6109 0.6154
772.000000 0.6199 0.6244 0.6289 0.6335 0.6381
777.000000 0.6426 0.6472 0.6521 0.6574 0.6626
782.000000 0.6680 0.6718 0.6757 0.6791 0.6811
787.000000 0.6830 0.6850 0.6868 0.6882 0.6896
792.000000 0.6901 0.6906 0.6911 0.6908 0.6907
797.000000 0.6918 0.6901 0.6900 0.6896 0.6889
802.000000 0.6883 0.6868 0.6850 0.6832 0.6800
807.000000 0.6758 0.6708 0.6654 0.6593 0.6532
812.000000 0.6475 0.6419 0.6348 0.6273 0.6199
817.000000 0.6134 0.6069 0.6004 0.5939 0.5847
822.000000 0.5750 0.5571 0.5367 0.5195 0.5021
827.000000 0.4844 0.4562 0.4347 0.4133 0.3821
832.000000 0.3459 0.3098 0.2737 0.2376 0.2014
837.000000 0.1653 0.1319 0.1284 0.1615 0.1941
842.000000 0.2266 0.2591 0.3070 0.3040 0.3027
847.000000 0.2741 0.2335 0.1932 0.1527 0.1132
852.000000 0.0928 0.0783 0.0675 0.0603 0.0543
857.000000 0.0498 0.0466 0.0448 0.0430 0.0401
862.000000 0.0427 0.0425 0.0430 0.0446 0.0462
867.000000 0.0494 0.0530 0.0555 0.0577 0.0622
872.000000 0.0580 0.0576 0.0538 0.0497 0.0455
877.000000 0.0414 0.0387 0.0362 0.0348 0.0340
882.000000 0.0332 0.0310 0.0336 0.0346 0.0366
887.000000 0.0391 0.0417 0.0449 0.0482 0.0516
892.000000 0.0547 0.0573 0.0598 0.0596 0.0594
897.000000 0.0592 0.0583 0.0573 0.0564 0.0564
902.000000 0.0566 0.0567 0.0568 0.0586 0.0634
907.000000 0.0712 0.0987 0.1360 0.1734 0.2107
912.000000 0.2481 0.2854 0.3228 0.3600 0.3975
917.000000 0.4348 0.5340 0.5522 0.5637 0.5752
922.000000 0.5890 0.6030 0.6093 0.6157 0.6194
927.000000 0.6231 0.6267 0.6303 0.6326 0.6349
932.000000 0.6371 0.6390 0.6398 0.6406 0.6414
937.000000 0.6474 0.6395 0.6376 0.6357 0.6323
942.000000 0.6293 0.6262 0.6235 0.6215 0.6199
947.000000 0.6199 0.6207 0.6212 0.6231 0.6260
952.000000 0.6468 0.6564 0.6618 0.6622 0.6628
957.000000 0.6633 0.6640 0.6648 0.6775 0.7122
962.000000 0.7245 0.7355 0.7457 0.7580 0.7726
967.000000 0.7871 0.7968 0.8033 0.8088 0.8142
972.000000 0.8196 0.8244 0.8289 0.8334 0.8366
977.000000 0.8387 0.8409 0.8430 0.8452 0.8467
982.000000 0.8475 0.8484 0.8493 0.8501 0.8510
987.000000 0.8518 0.8521 0.8525 0.8528 0.8532
992.000000 0.8535 0.8538 0.8541 0.8540 0.8539
997.000000 0.8538 0.8537 0.8536 0.8528 0.8518
1002.000000 0.8509 0.8499 0.8468 0.8433 0.8397
1007.000000 0.8346 0.8274 0.8174 0.8101 0.8078
1012.000000 0.8092 0.8083 0.8182 0.8228 0.8301
1017.000000 0.8338 0.8355 0.8373 0.8389 0.8402
1022.000000 0.8416 0.8421 0.8425 0.8461 0.8431
1027.000000 0.8428 0.8425 0.8417 0.8408 0.8399
1032.000000 0.8390 0.8380 0.8368 0.8357 0.8346
1037.000000 0.8334 0.8323 0.8310 0.8296 0.8283
1042.000000 0.8268 0.8255 0.8242 0.8228 0.8214
1047.000000 0.8201 0.8188 0.8174 0.8161 0.8148
1052.000000 0.8135 0.8121 0.8108 0.8095 0.8082
1057.000000 0.8065 0.8050 0.8034 0.8017 0.8001
1062.000000 0.7985 0.7968 0.7951 0.7936 0.7919
1067.000000 0.7903 0.7887 0.7871 0.7858 0.7843
1072.000000 0.7828 0.7812 0.7799 0.7784 0.7768
1077.000000 0.7754 0.7740 0.7725 0.7711 0.7700
1082.000000 0.7688 0.7675 0.7664 0.7653 0.7641
1087.000000 0.7628 0.7617 0.7606 0.7594 0.7582
1092.000000 0.7569 0.7556 0.7543 0.7528 0.7515
1097.000000 0.7501 0.7488 0.7475 0.7461 0.7448
1102.000000 0.7437 0.7425 0.7415 0.7404 0.7393
1107.000000 0.7382 0.7371 0.7360 0.7349 0.7337
1112.000000 0.7325 0.7315 0.7304 0.7292 0.7280
1117.000000 0.7268 0.7256 0.7244 0.7232 0.7218
1122.000000 0.7207 0.7195 0.7186 0.7182 0.7176
1127.000000 0.7172 0.7168 0.7164 0.7160 0.7156
1132.000000 0.7151 0.7147 0.7143 0.7132 0.7115
1137.000000 0.7099 0.7083 0.7065 0.7050 0.7028
1142.000000 0.7008 0.6988 0.6967 0.6947 0.6926
1147.000000 0.6911 0.6897 0.6882 0.6867 0.6851
1152.000000 0.6838 0.6825 0.6826 0.6828 0.6828
1157.000000 0.6844 0.6867 0.6897 0.6928 0.6958
1162.000000 0.6989 0.7018 0.7047 0.7071 0.7095
1167.000000 0.7118 0.7143 0.7167 0.7190 0.7214
1172.000000 0.7237 0.7260 0.7283 0.7305 0.7328
1177.000000 0.7351 0.7371 0.7391 0.7410 0.7430
1182.000000 0.7450 0.7468 0.7489 0.7508 0.7528
1187.000000 0.7547 0.7567 0.7590 0.7614 0.7638
1192.000000 0.7661 0.7686 0.7708 0.7733 0.7757
1197.000000 0.7780 0.7801 0.7825 0.7847 0.7869
1202.000000 0.7892 0.7908 0.7924 0.7933 0.7936
1207.000000 0.7939 0.7943 0.7946 0.7949 0.7951
1212.000000 0.7955 0.7958 0.7961 0.7965 0.7968
1217.000000 0.7971 0.7971 0.7971 0.7971 0.7969
1222.000000 0.7968 0.7967 0.7965 0.7965 0.7965
1227.000000 0.7965 0.7965 0.7965 0.7967 0.7967
1232.000000 0.7967 0.7971 0.7982 0.7994 0.8005
1237.000000 0.8017 0.8028 0.8034 0.8036 0.8039
1242.000000 0.8041 0.8044 0.8047 0.8049 0.8050
1247.000000 0.8050 0.8051 0.8051 0.8051 0.8051
1252.000000 0.8051 0.8053 0.8053 0.8054 0.8056
1257.000000 0.8057 0.8058 0.8060 0.8072 0.8062
1262.000000 0.8064 0.8065 0.8067 0.8067 0.8067
1267.000000 0.8065 0.8065 0.8065 0.8065 0.8064
1272.000000 0.8064 0.8065 0.8068 0.8071 0.8075
1277.000000 0.8078 0.8082 0.8087 0.8094 0.8101
1282.000000 0.8108 0.8115 0.8121 0.8128 0.8128
1287.000000 0.8128 0.8125 0.8124 0.8122 0.8121
1292.000000 0.8118 0.8118 0.8115 0.8111 0.8105
1297.000000 0.8100 0.8094 0.8088 0.8082 0.8076
1302.000000 0.8071 0.8065 0.8064 0.8064 0.8062
1307.000000 0.8062 0.8062 0.8062 0.8062 0.8065
1312.000000 0.8071 0.8078 0.8084 0.8090 0.8099
1317.000000 0.8110 0.8121 0.8132 0.8143 0.8154
1322.000000 0.8165 0.8175 0.8187 0.8160 0.7830
1327.000000 0.7499 0.7168 0.6837 0.6506 0.6176
1332.000000 0.5845 0.5598 0.5595 0.5592 0.5589
1337.000000 0.5584 0.5579 0.5577 0.5576 0.5566
1342.000000 0.5549 0.5532 0.5518 0.5505 0.5494
1347.000000 0.5486 0.5506 0.5533 0.5649 0.5715
1352.000000 0.5764 0.5812 0.5879 0.5951 0.5998
1357.000000 0.6046 0.6087 0.6112 0.6140 0.6166
1362.000000 0.6193 0.6226 0.6267 0.6293 0.6310
1367.000000 0.6326 0.6343 0.6360 0.6376 0.6389
1372.000000 0.6401 0.6415 0.6426 0.6440 0.6450
1377.000000 0.6457 0.6465 0.6471 0.6480 0.6487
1382.000000 0.6494 0.6501 0.6507 0.6512 0.6518
1387.000000 0.6524 0.6530 0.6535 0.6541 0.6547
1392.000000 0.6553 0.6560 0.6567 0.6574 0.6580
1397.000000 0.6587 0.6594 0.6601 0.6607 0.6614
1402.000000 0.6621 0.6624 0.6625 0.6628 0.6631
1407.000000 0.6633 0.6635 0.6638 0.6640 0.6642
1412.000000 0.6645 0.6647 0.6648 0.6649 0.6650
1417.000000 0.6650 0.6651 0.6651 0.6653 0.6653
1422.000000 0.6654 0.6656 0.6658 0.6661 0.6665
1427.000000 0.6668 0.6671 0.6675 0.6681 0.6687
1432.000000 0.6692 0.6698 0.6703 0.6708 0.6715
1437.000000 0.6719 0.6725 0.6731 0.6737 0.6741
1442.000000 0.6744 0.6747 0.6750 0.6753 0.6757
1447.000000 0.6760 0.6762 0.6765 0.6768 0.6768
1452.000000 0.6768 0.6768 0.6768 0.6768 0.6768
1457.000000 0.6768 0.6768 0.6768 0.6765 0.6762
1462.000000 0.6760 0.6758 0.6755 0.6751 0.6750
1467.000000 0.6747 0.6745 0.6742 0.6740 0.6736
1472.000000 0.6732 0.6726 0.6722 0.6718 0.6712
1477.000000 0.6708 0.6704 0.6699 0.6691 0.6682
1482.000000 0.6674 0.6665 0.6658 0.6650 0.6642
1487.000000 0.6633 0.6625 0.6614 0.6599 0.6583
1492.000000 0.6565 0.6547 0.6528 0.6508 0.6490
1497.000000 0.6471 0.6451 0.6433 0.6414 0.6395
1502.000000 0.6376 0.6357 0.6336 0.6314 0.6293
1507.000000 0.6272 0.6250 0.6229 0.6208 0.6186
1512.000000 0.6165 0.6144 0.6093 0.6042 0.5995
1517.000000 0.5950 0.5904 0.5858 0.5812 0.5767
1522.000000 0.5722 0.5677 0.5632 0.5587 0.5542
1527.000000 0.5497 0.5451 0.5406 0.5360 0.5315
1532.000000 0.5252 0.5189 0.5126 0.5064 0.5001
1537.000000 0.4938 0.4875 0.4810 0.4747 0.4683
1542.000000 0.4619 0.4549 0.4466 0.4384 0.4172
1547.000000 0.4123 0.4074 0.4023 0.3924 0.3918
1552.000000 0.3912 0.3907 0.3898 0.3878 0.3859
1557.000000 0.3840 0.3818 0.3796 0.3774 0.3752
1562.000000 0.3732 0.3718 0.3704 0.3687 0.3687
1567.000000 0.3695 0.3703 0.3712 0.3732 0.3777
1572.000000 0.3834 0.3927 0.4024 0.4101 0.4182
1577.000000 0.4286 0.4391 0.4506 0.4621 0.4731
1582.000000 0.4837 0.4929 0.4955 0.4960 0.4965
1587.000000 0.4970 0.4971 0.4970 0.4969 0.4968
1592.000000 0.4964 0.4957 0.4931 0.4899 0.4865
1597.000000 0.4801 0.4730 0.4673 0.4593 0.4510
1602.000000 0.4459 0.4406 0.4352 0.4295 0.4239
1607.000000 0.4183 0.4108 0.4026 0.3945 0.3797
1612.000000 0.3597 0.3390 0.3184 0.3008 0.2916
1617.000000 0.2823 0.2734 0.2656 0.2577 0.2498
1622.000000 0.2400 0.2267 0.2134 0.2009 0.1889
1627.000000 0.1770 0.1660 0.1561 0.1464 0.1371
1632.000000 0.1279 0.1165 0.0847 0.0717 0.0669
1637.000000 0.0630 0.0592 0.0553 0.0526 0.0503
1642.000000 0.0480 0.0457 0.0437 0.0423 0.0411
1647.000000 0.0411 0.0410 0.0404 0.0406 0.0412
1652.000000 0.0417 0.0433 0.0450 0.0467 0.0497
1657.000000 0.0531 0.0564 0.0608 0.0653 0.0698
1662.000000 0.0743 0.0787 0.0820 0.0851 0.0871
1667.000000 0.0889 0.0908 0.0926 0.0945 0.0959
1672.000000 0.0971 0.1002 0.1039 0.1075 0.1135
1677.000000 0.1198 0.1251 0.1298 0.1338 0.1388
1682.000000 0.1446 0.1503 0.1554 0.1606 0.1657
1687.000000 0.1708 0.1759 0.1792 0.1813 0.1834
1692.000000 0.1856 0.1887 0.1920 0.1952 0.2042
1697.000000 0.2184 0.2330 0.2475 0.2621 0.2766
1702.000000 0.3163 0.3416 0.3605 0.3882 0.4159
1707.000000 0.4342 0.4491 0.4794 0.5275 0.5553
1712.000000 0.5742 0.5932 0.6123 0.6422 0.6554
1717.000000 0.6664 0.6775 0.6886 0.6999 0.7110
1722.000000 0.7181 0.7253 0.7338 0.7460 0.7585
1727.000000 0.7692 0.7740 0.7789 0.7837 0.7871
1732.000000 0.7901 0.7934 0.7965 0.7988 0.8008
1737.000000 0.8028 0.8049 0.8068 0.8091 0.8112
1742.000000 0.8135 0.8158 0.8178 0.8198 0.8217
1747.000000 0.8234 0.8251 0.8267 0.8286 0.8305
1752.000000 0.8323 0.8336 0.8348 0.8360 0.8373
1757.000000 0.8385 0.8395 0.8405 0.8415 0.8425
1762.000000 0.8431 0.8436 0.8441 0.8446 0.8450
1767.000000 0.8453 0.8457 0.8460 0.8464 0.8465
1772.000000 0.8465 0.8464 0.8464 0.8464 0.8464
1777.000000 0.8467 0.8471 0.8475 0.8478 0.8482
1782.000000 0.8484 0.8487 0.8486 0.8486 0.8471
1787.000000 0.8483 0.8481 0.8480 0.8480 0.8480
1792.000000 0.8480 0.8478 0.8478 0.8478 0.8478
1797.000000 0.8478 0.8478 0.8478 0.8480 0.8480
1802.000000 0.8478 0.8478 0.8478 0.8478 0.8478
1807.000000 0.8478 0.8477 0.8477 0.8477 0.8475
1812.000000 0.8475 0.8475 0.8475 0.8475 0.8475
1817.000000 0.8477 0.8478 0.8481 0.8483 0.8485
1822.000000 0.8487 0.8489 0.8491 0.8493 0.8493
1827.000000 0.8493 0.8493 0.8493 0.8493 0.8493
1832.000000 0.8493 0.8493 0.8493 0.8493 0.8492
1837.000000 0.8491 0.8491 0.8490 0.8489 0.8489
1842.000000 0.8488 0.8487 0.8486 0.8486 0.8485
1847.000000 0.8484 0.8483 0.8483 0.8482 0.8481
1852.000000 0.8480 0.8478 0.8475 0.8474 0.8473
1857.000000 0.8471 0.8468 0.8467 0.8465 0.8463
1862.000000 0.8461 0.8459 0.8457 0.8455 0.8453
1867.000000 0.8451 0.8449 0.8448 0.8446 0.8444
1872.000000 0.8442 0.8441 0.8439 0.8437 0.8435
1877.000000 0.8434 0.8432 0.8430 0.8428 0.8425
1882.000000 0.8424 0.8421 0.8418 0.8416 0.8413
1887.000000 0.8410 0.8407 0.8405 0.8402 0.8399
1892.000000 0.8396 0.8393 0.8390 0.8388 0.8385
1897.000000 0.8382 0.8378 0.8375 0.8374 0.8370
1902.000000 0.8367 0.8364 0.8361 0.8357 0.8354
1907.000000 0.8351 0.8347 0.8344 0.8341 0.8338
1912.000000 0.8334 0.8331 0.8328 0.8324 0.8321
1917.000000 0.8318 0.8315 0.8311 0.8307 0.8303
1922.000000 0.8299 0.8295 0.8291 0.8287 0.8283
1927.000000 0.8278 0.8274 0.8270 0.8266 0.8262
1932.000000 0.8258 0.8254 0.8249 0.8245 0.8241
1937.000000 0.8237 0.8233 0.8228 0.8225 0.8220
1942.000000 0.8216 0.8212 0.8207 0.8203 0.8198
1947.000000 0.8194 0.8189 0.8184 0.8180 0.8175
1952.000000 0.8171 0.8165 0.8161 0.8157 0.8151
1957.000000 0.8148 0.8143 0.8139 0.8134 0.8128
1962.000000 0.8125 0.8119 0.8115 0.8108 0.8104
1967.000000 0.8099 0.8093 0.8088 0.8083 0.8076
1972.000000 0.8071 0.8067 0.8061 0.8056 0.8051
1977.000000 0.8045 0.8040 0.8034 0.8026 0.8019
1982.000000 0.8014 0.8007 0.8000 0.7993 0.7986
1987.000000 0.7980 0.7972 0.7965 0.7958 0.7951
1992.000000 0.7945 0.7940 0.7935 0.7930 0.7925
1997.000000 0.7921 0.7915 0.7911 0.7906 0.7901
2002.000000 0.7896 0.7894 0.7892 0.7889 0.7887
2007.000000 0.7884 0.7882 0.7878 0.7876 0.7874
2012.000000 0.7871 0.7868 0.7867 0.7864 0.7861
2017.000000 0.7858 0.7857 0.7854 0.7851 0.7849
2022.000000 0.7847 0.7844 0.7841 0.7838 0.7836
2027.000000 0.7833 0.7831 0.7828 0.7825 0.7821
2032.000000 0.7819 0.7817 0.7815 0.7811 0.7808
2037.000000 0.7806 0.7804 0.7801 0.7798 0.7795
2042.000000 0.7793 0.7790 0.7787 0.7784 0.7781
2047.000000 0.7778 0.7775 0.7771 0.7769 0.7767
2052.000000 0.7764 0.7761 0.7758 0.7754 0.7750
2057.000000 0.7745 0.7741 0.7736 0.7732 0.7728
2062.000000 0.7724 0.7718 0.7715 0.7711 0.7707
2067.000000 0.7700 0.7694 0.7687 0.7681 0.7674
2072.000000 0.7668 0.7661 0.7654 0.7647 0.7641
2077.000000 0.7634 0.7628 0.7621 0.7615 0.7608
2082.000000 0.7601 0.7594 0.7588 0.7581 0.7575
2087.000000 0.7568 0.7561 0.7555 0.7549 0.7542
2092.000000 0.7535 0.7526 0.7518 0.7510 0.7501
2097.000000 0.7492 0.7484 0.7475 0.7467 0.7458
2102.000000 0.7450 0.7441 0.7433 0.7425 0.7418
2107.000000 0.7411 0.7405 0.7399 0.7393 0.7386
2112.000000 0.7380 0.7372 0.7367 0.7361 0.7355
2117.000000 0.7348 0.7342 0.7335 0.7328 0.7322
2122.000000 0.7317 0.7310 0.7304 0.7297 0.7291
2127.000000 0.7285 0.7278 0.7271 0.7265 0.7258
2132.000000 0.7251 0.7244 0.7237 0.7228 0.7221
2137.000000 0.7215 0.7208 0.7200 0.7193 0.7184
2142.000000 0.7175 0.7167 0.7158 0.7150 0.7142
2147.000000 0.7133 0.7125 0.7115 0.7108 0.7099
2152.000000 0.7091 0.7082 0.7074 0.7065 0.7057
2157.000000 0.7048 0.7039 0.7028 0.7018 0.7008
2162.000000 0.6998 0.6987 0.6976 0.6965 0.6956
2167.000000 0.6945 0.6934 0.6922 0.6911 0.6901
2172.000000 0.6890 0.6878 0.6868 0.6856 0.6845
2177.000000 0.6832 0.6819 0.6807 0.6794 0.6781
2182.000000 0.6768 0.6758 0.6747 0.6738 0.6730
2187.000000 0.6721 0.6714 0.6706 0.6698 0.6689
2192.000000 0.6681 0.6672 0.6665 0.6656 0.6648
2197.000000 0.6640 0.6632 0.6626 0.6622 0.6622
2202.000000 0.6622 0.6622 0.6622 0.6622 0.6622
2207.000000 0.6621 0.6619 0.6618 0.6618 0.6617
2212.000000 0.6617 0.6615 0.6615 0.6615 0.6615
2217.000000 0.6614 0.6614 0.6614 0.6614 0.6612
2222.000000 0.6612 0.6612 0.6612 0.6611 0.6611
2227.000000 0.6611 0.6611 0.6611 0.6611 0.6611
2232.000000 0.6611 0.6610 0.6608 0.6605 0.6601
2237.000000 0.6597 0.6593 0.6589 0.6585 0.6581
2242.000000 0.6576 0.6571 0.6568 0.6562 0.6558
2247.000000 0.6553 0.6548 0.6543 0.6538 0.6533
2252.000000 0.6528 0.6522 0.6518 0.6512 0.6508
2257.000000 0.6501 0.6497 0.6491 0.6486 0.6480
2262.000000 0.6475 0.6469 0.6465 0.6458 0.6454
2267.000000 0.6448 0.6443 0.6438 0.6434 0.6430
2272.000000 0.6426 0.6422 0.6419 0.6415 0.6412
2277.000000 0.6408 0.6406 0.6401 0.6399 0.6395
2282.000000 0.6392 0.6388 0.6385 0.6381 0.6378
2287.000000 0.6374 0.6371 0.6367 0.6364 0.6360
2292.000000 0.6357 0.6354 0.6352 0.6349 0.6347
2297.000000 0.6344 0.6342 0.6340 0.6338 0.6335
2302.000000 0.6333 0.6330 0.6328 0.6325 0.6323
2307.000000 0.6320 0.6318 0.6316 0.6314 0.6310
2312.000000 0.6309 0.6306 0.6304 0.6301 0.6299
2317.000000 0.6297 0.6295 0.6293 0.6292 0.6292
2322.000000 0.6292 0.6291 0.6291 0.6291 0.6291
2327.000000 0.6291 0.6291 0.6291 0.6291 0.6291
2332.000000 0.6291 0.6291 0.6291 0.6290 0.6290
2337.000000 0.6290 0.6290 0.6290 0.6290 0.6290
2342.000000 0.6290 0.6290 0.6290 0.6289 0.6289
2347.000000 0.6290 0.6292 0.6293 0.6294 0.6295
2352.000000 0.6297 0.6298 0.6299 0.6300 0.6302
2357.000000 0.6303 0.6304 0.6305 0.6306 0.6307
2362.000000 0.6308 0.6308 0.6308 0.6308 0.6309
2367.000000 0.6309 0.6310 0.6310 0.6310 0.6310
2372.000000 0.6312 0.6312 0.6312 0.6306 0.6299
2377.000000 0.6285 0.6271 0.6258 0.6245 0.6232
2382.000000 0.6219 0.6208 0.6197 0.6188 0.6179
2387.000000 0.6169 0.6160 0.6151 0.6142 0.6135
2392.000000 0.6128 0.6124 0.6120 0.6115 0.6110
2397.000000 0.6107 0.6103 0.6098 0.6094 0.6090
2402.000000 0.6086 0.6082 0.6078 0.6074 0.6070
2407.000000 0.6066 0.6062 0.6058 0.6054 0.6051
2412.000000 0.6048 0.6045 0.6042 0.6039 0.6036
2417.000000 0.6033 0.6030 0.6027 0.6024 0.6021
2422.000000 0.6018 0.6015 0.6012 0.6009 0.6006
2427.000000 0.6004 0.6002 0.5999 0.5996 0.5992
2432.000000 0.5989 0.5985 0.5982 0.5978 0.5975
2437.000000 0.5971 0.5967 0.5962 0.5960 0.5956
2442.000000 0.5953 0.5949 0.5946 0.5942 0.5939
2447.000000 0.5935 0.5932 0.5928 0.5925 0.5921
2452.000000 0.5918 0.5914 0.5910 0.5905 0.5901
2457.000000 0.5896 0.5892 0.5887 0.5883 0.5878
2462.000000 0.5874 0.5869 0.5865 0.5860 0.5855
2467.000000 0.5850 0.5846 0.5841 0.5837 0.5832
2472.000000 0.5828 0.5823 0.5819 0.5814 0.5810
2477.000000 0.5805 0.5800 0.5795 0.5791 0.5786
2482.000000 0.5782 0.5777 0.5773 0.5768 0.5764
2487.000000 0.5759 0.5755 0.5750 0.5746 0.5741
2492.000000 0.5737 0.5732 0.5728 0.5723 0.5719
2497.000000 0.5714 0.5710 0.5705 0.5701 0.5696
2502.000000 0.5692 0.5688 0.5684 0.5679 0.5675
2507.000000 0.5670 0.5666 0.5660 0.5657 0.5652
2512.000000 0.5648 0.5643 0.5639 0.5634 0.5629
2517.000000 0.5624 0.5619 0.5612 0.5608 0.5602
2522.000000 0.5597 0.5591 0.5586 0.5581 0.5576
2527.000000 0.5570 0.5565 0.5559 0.5554 0.5548
2532.000000 0.5543 0.5538 0.5533 0.5527 0.5522
2537.000000 0.5516 0.5510 0.5505 0.5500 0.5495
2542.000000 0.5490 0.5484 0.5479 0.5473 0.5467
2547.000000 0.5460 0.5455 0.5449 0.5443 0.5437
2552.000000 0.5431 0.5425 0.5419 0.5412 0.5407
2557.000000 0.5401 0.5395 0.5389 0.5383 0.5376
2562.000000 0.5370 0.5364 0.5358 0.5352 0.5346
2567.000000 0.5340 0.5334 0.5327 0.5321 0.5312
2572.000000 0.5305 0.5296 0.5288 0.5280 0.5272
2577.000000 0.5264 0.5256 0.5247 0.5239 0.5231
2582.000000 0.5223 0.5215 0.5207 0.5199 0.5191
2587.000000 0.5182 0.5174 0.5166 0.5158 0.5150
2592.000000 0.5142 0.5132 0.5123 0.5112 0.5103
2597.000000 0.5092 0.5082 0.5072 0.5062 0.5051
2602.000000 0.5041 0.5031 0.5021 0.5010 0.5000
2607.000000 0.4990 0.4980 0.4969 0.4959 0.4949
2612.000000 0.4939 0.4928 0.4918 0.4908 0.4898
2617.000000 0.4888 0.4878 0.4868 0.4859 0.4849
2622.000000 0.4840 0.4831 0.4822 0.4812 0.4803
2627.000000 0.4793 0.4784 0.4774 0.4765 0.4756
2632.000000 0.4747 0.4737 0.4728 0.4718 0.4709
2637.000000 0.4699 0.4690 0.4681 0.4672 0.4662
2642.000000 0.4653 0.4643 0.4634 0.4623 0.4612
2647.000000 0.4602 0.4591 0.4580 0.4569 0.4557
2652.000000 0.4546 0.4535 0.4524 0.4512 0.4502
2657.000000 0.4491 0.4480 0.4468 0.4457 0.4446
2662.000000 0.4435 0.4424 0.4412 0.4401 0.4390
2667.000000 0.4379 0.4368 0.4357 0.4346 0.4334
2672.000000 0.4323 0.4312 0.4301 0.4289 0.4278
2677.000000 0.4266 0.4255 0.4243 0.4231 0.4219
2682.000000 0.4208 0.4196 0.4185 0.4173 0.4162
2687.000000 0.4150 0.4138 0.4126 0.4115 0.4104
2692.000000 0.4093 0.4082 0.4074 0.4064 0.4054
2697.000000 0.4044 0.4034 0.4025 0.4014 0.4005
2702.000000 0.3996 0.3986 0.3976 0.3966 0.3956
2707.000000 0.3946 0.3937 0.3929 0.3921 0.3916
2712.000000 0.3910 0.3906 0.3900 0.3896 0.3891
2717.000000 0.3886 0.3880 0.3876 0.3872 0.3866
2722.000000 0.3862 0.3857 0.3852 0.3848 0.3844
2727.000000 0.3840 0.3836 0.3832 0.3830 0.3826
2732.000000 0.3823 0.3820 0.3816 0.3812 0.3809
2737.000000 0.3807 0.3804 0.3800 0.3798 0.3795
2742.000000 0.3793 0.3790 0.3788 0.3784 0.3782
2747.000000 0.3775 0.3768 0.3762 0.3756 0.3749
2752.000000 0.3743 0.3734 0.3727 0.3718 0.3709
2757.000000 0.3699 0.3690 0.3680 0.3671 0.3660
2762.000000 0.3652 0.3642 0.3632 0.3618 0.3605
2767.000000 0.3591 0.3578 0.3564 0.3550 0.3536
2772.000000 0.3523 0.3509 0.3496 0.3482 0.3470
2777.000000 0.3459 0.3448 0.3437 0.3426 0.3414
2782.000000 0.3404 0.3393 0.3382 0.3372 0.3362
2787.000000 0.3356 0.3349 0.3342 0.3334 0.3328
2792.000000 0.3321 0.3314 0.3307 0.3300 0.3293
2797.000000 0.3286 0.3279 0.3272 0.3264 0.3258
2802.000000 0.3250 0.3246 0.3241 0.3238 0.3234
2807.000000 0.3232 0.3229 0.3226 0.3223 0.3220
2812.000000 0.3218 0.3216 0.3214 0.3214 0.3214
2817.000000 0.3212 0.3212 0.3212 0.3212 0.3210
2822.000000 0.3210 0.3209 0.3209 0.3208 0.3207
2827.000000 0.3206 0.3205 0.3204 0.3203 0.3202
2832.000000 0.3200 0.3200 0.3199 0.3197 0.3196
2837.000000 0.3195 0.3194 0.3193 0.3192 0.3191
2842.000000 0.3190 0.3189 0.3188 0.3187 0.3185
2847.000000 0.3182 0.3179 0.3174 0.3170 0.3161
2852.000000 0.3152 0.3143 0.3134 0.3125 0.3116
2857.000000 0.3107 0.3098 0.3089 0.3080 0.3070
2862.000000 0.3060 0.3050 0.3041 0.3031 0.3021
2867.000000 0.3011 0.3001 0.2991 0.2982 0.2972
2872.000000 0.2962 0.2952 0.2943 0.2933 0.2923
2877.000000 0.2913 0.2904 0.2894 0.2884 0.2876
2882.000000 0.2867 0.2858 0.2849 0.2840 0.2831
2887.000000 0.2822 0.2813 0.2804 0.2795 0.2785
2892.000000 0.2777 0.2768 0.2759 0.2750 0.2741
2897.000000 0.2732 0.2723 0.2712 0.2702 0.2689
2902.000000 0.2677 0.2665 0.2653 0.2640 0.2628
2907.000000 0.2616 0.2604 0.2591 0.2579 0.2567
2912.000000 0.2555 0.2542 0.2530 0.2517 0.2505
2917.000000 0.2493 0.2481 0.2468 0.2456 0.2444
2922.000000 0.2432 0.2420 0.2408 0.2396 0.2384
2927.000000 0.2372 0.2361 0.2349 0.2337 0.2325
2932.000000 0.2313 0.2301 0.2290 0.2278 0.2266
2937.000000 0.2254 0.2242 0.2230 0.2218 0.2206
2942.000000 0.2194 0.2180 0.2167 0.2153 0.2139
2947.000000 0.2125 0.2111 0.2097 0.2084 0.2070
2952.000000 0.2056 0.2042 0.2028 0.2014 0.2001
2957.000000 0.1986 0.1973 0.1959 0.1944 0.1929
2962.000000 0.1914 0.1899 0.1884 0.1869 0.1854
2967.000000 0.1839 0.1824 0.1808 0.1793 0.1778
2972.000000 0.1763 0.1748 0.1733 0.1718 0.1703
2977.000000 0.1686 0.1672 0.1657 0.1643 0.1629
2982.000000 0.1617 0.1604 0.1591 0.1578 0.1566
2987.000000 0.1553 0.1540 0.1527 0.1515 0.1502
2992.000000 0.1489 0.1476 0.1463 0.1450 0.1438
2997.000000 0.1425 0.1412 0.1399 0.1387 0.1374
3002.000000 0.1361 0.1348 0.1336 0.1322 0.1309
3007.000000 0.1292 0.1275 0.1258 0.1241 0.1224
3012.000000 0.1207 0.1189 0.1172 0.1155 0.1138
3017.000000 0.1121 0.1104 0.1087 0.1070 0.1052
3022.000000 0.1034 0.1015 0.0996 0.0978 0.0960
3027.000000 0.0941 0.0922 0.0907 0.0891 0.0875
3032.000000 0.0860 0.0843 0.0829 0.0813 0.0798
3037.000000 0.0782 0.0767 0.0751 0.0736 0.0722
3042.000000 0.0708 0.0697 0.0687 0.0676 0.0666
3047.000000 0.0655 0.0645 0.0634 0.0624 0.0613
3052.000000 0.0603 0.0592 0.0582 0.0571 0.0561
3057.000000 0.0552 0.0544 0.0537 0.0531 0.0524
3062.000000 0.0518 0.0511 0.0505 0.0498 0.0491
3067.000000 0.0484 0.0477 0.0471 0.0465 0.0458
3072.000000 0.0452 0.0445 0.0439 0.0432 0.0425
3077.000000 0.0417 0.0412 0.0407 0.0403 0.0399
3082.000000 0.0395 0.0390 0.0386 0.0382 0.0378
3087.000000 0.0374 0.0370 0.0366 0.0362 0.0358
3092.000000 0.0354 0.0349 0.0345 0.0342 0.0339
3097.000000 0.0338 0.0337 0.0336 0.0335 0.0334
3102.000000 0.0333 0.0332 0.0331 0.0330 0.0330
3107.000000 0.0329 0.0328 0.0327 0.0326 0.0325
3112.000000 0.0324 0.0323 0.0322 0.0321 0.0321
3117.000000 0.0322 0.0324 0.0325 0.0327 0.0328
3122.000000 0.0330 0.0331 0.0333 0.0334 0.0336
3127.000000 0.0337 0.0338 0.0339 0.0341 0.0343
3132.000000 0.0345 0.0347 0.0349 0.0351 0.0354
3137.000000 0.0356 0.0358 0.0360 0.0362 0.0364
3142.000000 0.0366 0.0367 0.0370 0.0372 0.0374
3147.000000 0.0376 0.0378 0.0380 0.0382 0.0384
3152.000000 0.0386 0.0388 0.0391 0.0394 0.0397
3157.000000 0.0400 0.0404 0.0407 0.0411 0.0414
3162.000000 0.0417 0.0421 0.0425 0.0427 0.0432
3167.000000 0.0435 0.0439 0.0442 0.0446 0.0449
3172.000000 0.0453 0.0456 0.0460 0.0463 0.0467
3177.000000 0.0471 0.0475 0.0480 0.0484 0.0488
3182.000000 0.0493 0.0497 0.0502 0.0506 0.0510
3187.000000 0.0514 0.0519 0.0523 0.0527 0.0531
3192.000000 0.0536 0.0540 0.0544 0.0548 0.0553
3197.000000 0.0557 0.0561 0.0565 0.0569 0.0572
3202.000000 0.0576 0.0580 0.0584 0.0588 0.0592
3207.000000 0.0596 0.0600 0.0604 0.0608 0.0611
3212.000000 0.0615 0.0616 0.0618 0.0619 0.0621
3217.000000 0.0622 0.0624 0.0625 0.0627 0.0628
3222.000000 0.0630 0.0631 0.0633 0.0634 0.0636
3227.000000 0.0637 0.0639 0.0640 0.0642 0.0643
3232.000000 0.0645 0.0646 0.0648 0.0649 0.0651
3237.000000 0.0651 0.0651 0.0651 0.0650 0.0649
3242.000000 0.0649 0.0648 0.0648 0.0647 0.0647
3247.000000 0.0646 0.0645 0.0644 0.0644 0.0643
3252.000000 0.0643 0.0642 0.0642 0.0641 0.0640
3257.000000 0.0639 0.0638 0.0636 0.0635 0.0634
3262.000000 0.0633 0.0632 0.0631 0.0629 0.0628
3267.000000 0.0627 0.0626 0.0624 0.0623 0.0621
3272.000000 0.0620 0.0617 0.0615 0.0613 0.0611
3277.000000 0.0608 0.0606 0.0603 0.0601 0.0598
3282.000000 0.0596 0.0594 0.0592 0.0589 0.0586
3287.000000 0.0582 0.0579 0.0575 0.0572 0.0568
3292.000000 0.0565 0.0561 0.0558 0.0554 0.0551
3297.000000 0.0547 0.0544 0.0540 0.0537 0.0533
3302.000000 0.0530 0.0525 0.0521 0.0515 0.0509
3307.000000 0.0503 0.0497 0.0491 0.0486 0.0480
3312.000000 0.0473 0.0467 0.0462 0.0456 0.0450
3317.000000 0.0444 0.0439 0.0434 0.0430 0.0425
3322.000000 0.0421 0.0417 0.0414 0.0410 0.0406
3327.000000 0.0401 0.0397 0.0393 0.0389 0.0385
3332.000000 0.0381 0.0378 0.0376 0.0374 0.0372
3337.000000 0.0368 0.0366 0.0365 0.0363 0.0361
3342.000000 0.0351 0.0365 0.0371 0.0376 0.0382
3347.000000 0.0387 0.0393 0.0400 0.0408 0.0415
3352.000000 0.0423 0.0431 0.0439 0.0448 0.0457
3357.000000 0.0467 0.0477 0.0489 0.0500 0.0514
3362.000000 0.0528 0.0542 0.0556 0.0570 0.0584
3367.000000 0.0598 0.0613 0.0641 0.0669 0.0696
3372.000000 0.0724 0.0753 0.0783 0.0820 0.0857
3377.000000 0.0899 0.0941 0.0993 0.1046 0.1101
3382.000000 0.1155 0.1222 0.1290 0.1364 0.1439
3387.000000 0.1486 0.1533 0.1565 0.1598 0.1625
3392.000000 0.1652 0.1678 0.1704 0.1732 0.1759
3397.000000 0.1785 0.1813 0.1839 0.1866 0.1893
3402.000000 0.1920 0.1946 0.1974 0.2001 0.2029
3407.000000 0.2057 0.2084 0.2113 0.2141 0.2157
3412.000000 0.2174 0.2187 0.2200 0.2212 0.2225
3417.000000 0.2237 0.2250 0.2261 0.2272 0.2281
3422.000000 0.2290 0.2299 0.2308 0.2311 0.2315
3427.000000 0.2318 0.2321 0.2324 0.2362 0.2322
3432.000000 0.2316 0.2305 0.2294 0.2279 0.2264
3437.000000 0.2238 0.2212 0.2171 0.2131 0.2083
3442.000000 0.2035 0.1984 0.1934 0.1889 0.1843
3447.000000 0.1796 0.1751 0.1694 0.1640 0.1596
3452.000000 0.1554 0.1521 0.1488 0.1455 0.1423
3457.000000 0.1401 0.1380 0.1376 0.1372 0.1374
3462.000000 0.1382 0.1446 0.1519 0.1686 0.1854
3467.000000 0.2022 0.2190 0.2358 0.2526 0.2694
3472.000000 0.2862 0.3029 0.3197 0.3364 0.3532
3477.000000 0.3700 0.3868 0.4036 0.4204 0.4315
3482.000000 0.4426 0.4544 0.4662 0.4777 0.4891
3487.000000 0.5580 0.6270 0.6390 0.6511 0.6565
3492.000000 0.6621 0.6661 0.6701 0.6741 0.6781
3497.000000 0.6822 0.6865 0.6908 0.6954 0.6998
3502.000000 0.7042 0.7086 0.7130 0.7167 0.7204
3507.000000 0.7235 0.7267 0.7298 0.7330 0.7361
3512.000000 0.7393 0.7424 0.7455 0.7482 0.7508
3517.000000 0.7536 0.7562 0.7590 0.7617 0.7637
3522.000000 0.7657 0.7674 0.7691 0.7708 0.7725
3527.000000 0.7736 0.7747 0.7756 0.7765 0.7774
3532.000000 0.7783 0.7792 0.7801 0.7808 0.7815
3537.000000 0.7818 0.7821 0.7824 0.7826 0.7828
3542.000000 0.7828 0.7828 0.7828 0.7825 0.7825
3547.000000 0.7822 0.7807 0.7819 0.7818 0.7814
3552.000000 0.7810 0.7806 0.7801 0.7797 0.7793
3557.000000 0.7789 0.7785 0.7781 0.7776 0.7771
3562.000000 0.7768 0.7761 0.7755 0.7748 0.7741
3567.000000 0.7734 0.7728 0.7718 0.7710 0.7700
3572.000000 0.7690 0.7678 0.7668 0.7658 0.7648
3577.000000 0.7638 0.7628 0.7617 0.7607 0.7597
3582.000000 0.7587 0.7576 0.7568 0.7558 0.7549
3587.000000 0.7546 0.7543 0.7541 0.7542 0.7542
3592.000000 0.7545 0.7549 0.7553 0.7557 0.7561
3597.000000 0.7561 0.7564 0.7560 0.7556 0.7551
3602.000000 0.7546 0.7541 0.7537 0.7532 0.7528
3607.000000 0.7521 0.7517 0.7508 0.7501 0.7493
3612.000000 0.7486 0.7476 0.7468 0.7458 0.7449
3617.000000 0.7438 0.7428 0.7418 0.7408 0.7397
3622.000000 0.7387 0.7376 0.7368 0.7360 0.7351
3627.000000 0.7344 0.7336 0.7328 0.7319 0.7311
3632.000000 0.7304 0.7295 0.7287 0.7278 0.7271
3637.000000 0.7262 0.7255 0.7247 0.7239 0.7231
3642.000000 0.7222 0.7215 0.7207 0.7199 0.7191
3647.000000 0.7183 0.7175 0.7165 0.7158 0.7150
3652.000000 0.7142 0.7133 0.7125 0.7115 0.7108
3657.000000 0.7100 0.7092 0.7083 0.7075 0.7067
3662.000000 0.7058 0.7050 0.7042 0.7033 0.7025
3667.000000 0.7017 0.7008 0.7000 0.6992 0.6984
3672.000000 0.6975 0.6967 0.6958 0.6950 0.6942
3677.000000 0.6934 0.6925 0.6917 0.6908 0.6900
3682.000000 0.6892 0.6885 0.6878 0.6871 0.6865
3687.000000 0.6858 0.6851 0.6844 0.6837 0.6830
3692.000000 0.6824 0.6817 0.6810 0.6803 0.6796
3697.000000 0.6789 0.6783 0.6775 0.6768 0.6761
3702.000000 0.6755 0.6748 0.6742 0.6735 0.6728
3707.000000 0.6721 0.6714 0.6707 0.6701 0.6694
3712.000000 0.6687 0.6680 0.6672 0.6665 0.6660
3717.000000 0.6653 0.6646 0.6639 0.6633 0.6625
3722.000000 0.6618 0.6611 0.6606 0.6599 0.6593
3727.000000 0.6586 0.6578 0.6571 0.6565 0.6558
3732.000000 0.6551 0.6545 0.6539 0.6532 0.6525
3737.000000 0.6518 0.6511 0.6505 0.6498 0.6491
3742.000000 0.6484 0.6475 0.6468 0.6460 0.6453
3747.000000 0.6445 0.6437 0.6428 0.6421 0.6414
3752.000000 0.6406 0.6398 0.6391 0.6383 0.6376
3757.000000 0.6368 0.6360 0.6352 0.6345 0.6337
3762.000000 0.6329 0.6321 0.6314 0.6307 0.6300
3767.000000 0.6293 0.6286 0.6279 0.6273 0.6266
3772.000000 0.6259 0.6252 0.6245 0.6238 0.6231
3777.000000 0.6224 0.6217 0.6210 0.6204 0.6197
3782.000000 0.6190 0.6183 0.6176 0.6169 0.6162
3787.000000 0.6155 0.6148 0.6141 0.6134 0.6127
3792.000000 0.6121 0.6114 0.6107 0.6100 0.6093
3797.000000 0.6086 0.6079 0.6076 0.6073
##END=
