##TITLE=Lactic acid, cyclohexyl ester
##JCAMP-DX=4.24
$$ By DXEDIT 1.05 (RS McDonald)
##DATA TYPE=INFRARED SPECTRUM
##CLASS=COBLENTZ III
##ORIGIN=DOW CHEMICAL COMPANY
##OWNER=COPYRIGHT (C) 1988 by COBLENTZ SOCIETY INC.
Collection (C) 2018 copyright by the U.S. Secretary of Commerce
on behalf of the United States of America. All rights reserved.
##DATE=1965/01/20
##NAMES=cyclohexyl 2-hydroxypropanoate
##MOLFORM=C9 H16 O3
##SOURCE REFERENCE=COBLENTZ NO. 6689
##$NIST ID=B6006689
##$NIST SOURCE=COBLENTZ
##$NIST IMAGE=cob6689
##SPECTROMETER/DATA SYSTEM=DOW KBr FOREPRISM-GRATING
##INSTRUMENT PARAMETERS=BLAZED AT 3.5, 12.0, 20.0 MICRON AND CHANGED AT 5.0, 7.5, 14.9 MICRON
##STATE=SOLUTION (10% CCl4 FOR 3800-1320, 10% CS2 FOR 1320-450 CM^-^1)
##PATH LENGTH=0.011 CM, 0.011 CM
$$SPECTRAL CONTAMINATION DUE TO CCl4 AROUND 1550 CM^-^1 HAS BEEN SUBTRACTED
$$ SPECTRAL FEATURE AT 1995 CM^-^1 IS AN ARTIFACT CAUSED BY GRATING CHANGE
##SAMPLING PROCEDURE=TRANSMISSION
##RESOLUTION=2
##DATA PROCESSING=DIGITIZED BY COBLENTZ SOCIETY (BATCH I) FROM HARD COPY
##XUNITS=1/CM
##YUNITS=TRANSMITTANCE
##XFACTOR=1
##YFACTOR=1
##DELTAX=1
##FIRSTX=3800
##LASTX=454
##FIRSTY=0.985
##MAXX=3800
##MINX=454
##MAXY=0.9913
##MINY=-0.0036
##NPOINTS=3347
##XYDATA=(X++(Y..Y))
3800.000000 0.9850 0.9850 0.9851 0.9856 0.9866
3795.000000 0.9861 0.9873 0.9875 0.9878 0.9880
3790.000000 0.9882 0.9884 0.9886 0.9888 0.9890
3785.000000 0.9891 0.9883 0.9880 0.9881 0.9892
3780.000000 0.9895 0.9887 0.9897 0.9898 0.9898
3775.000000 0.9888 0.9902 0.9903 0.9904 0.9904
3770.000000 0.9905 0.9906 0.9907 0.9908 0.9909
3765.000000 0.9909 0.9909 0.9908 0.9908 0.9907
3760.000000 0.9913 0.9912 0.9907 0.9905 0.9905
3755.000000 0.9904 0.9904 0.9904 0.9904 0.9903
3750.000000 0.9903 0.9903 0.9903 0.9902 0.9902
3745.000000 0.9901 0.9901 0.9901 0.9901 0.9900
3740.000000 0.9900 0.9902 0.9911 0.9911 0.9910
3735.000000 0.9908 0.9902 0.9895 0.9901 0.9906
3730.000000 0.9906 0.9904 0.9904 0.9904 0.9903
3725.000000 0.9901 0.9901 0.9900 0.9899 0.9898
3720.000000 0.9898 0.9884 0.9884 0.9895 0.9894
3715.000000 0.9892 0.9891 0.9890 0.9893 0.9896
3710.000000 0.9890 0.9897 0.9896 0.9895 0.9894
3705.000000 0.9892 0.9890 0.9888 0.9887 0.9885
3700.000000 0.9883 0.9877 0.9871 0.9864 0.9848
3695.000000 0.9840 0.9834 0.9827 0.9821 0.9815
3690.000000 0.9809 0.9802 0.9796 0.9782 0.9759
3685.000000 0.9742 0.9727 0.9711 0.9695 0.9678
3680.000000 0.9663 0.9645 0.9628 0.9610 0.9592
3675.000000 0.9576 0.9559 0.9545 0.9530 0.9517
3670.000000 0.9514 0.9505 0.9503 0.9507 0.9512
3665.000000 0.9519 0.9526 0.9531 0.9538 0.9542
3660.000000 0.9548 0.9550 0.9553 0.9555 0.9558
3655.000000 0.9561 0.9564 0.9566 0.9567 0.9567
3650.000000 0.9566 0.9565 0.9564 0.9563 0.9562
3645.000000 0.9560 0.9559 0.9554 0.9549 0.9543
3640.000000 0.9538 0.9531 0.9527 0.9520 0.9515
3635.000000 0.9509 0.9503 0.9497 0.9500 0.9491
3630.000000 0.9480 0.9463 0.9461 0.9453 0.9437
3625.000000 0.9420 0.9403 0.9385 0.9369 0.9351
3620.000000 0.9335 0.9317 0.9300 0.9279 0.9262
3615.000000 0.9235 0.9211 0.9185 0.9160 0.9133
3610.000000 0.9106 0.9060 0.9006 0.8964 0.8911
3605.000000 0.8844 0.8779 0.8709 0.8642 0.8553
3600.000000 0.8452 0.8262 0.8084 0.8079 0.8068
3595.000000 0.8065 0.8063 0.8070 0.8077 0.8085
3590.000000 0.8096 0.8109 0.8123 0.8134 0.8148
3585.000000 0.8158 0.8168 0.8175 0.8182 0.8186
3580.000000 0.8193 0.8195 0.8196 0.8196 0.8193
3575.000000 0.8176 0.8168 0.8144 0.8117 0.8065
3570.000000 0.8019 0.7971 0.7920 0.7849 0.7779
3565.000000 0.7623 0.7469 0.7376 0.7283 0.7180
3560.000000 0.7078 0.6962 0.6846 0.6701 0.6556
3555.000000 0.6431 0.6290 0.6171 0.6058 0.5936
3550.000000 0.5814 0.5690 0.5575 0.5455 0.5334
3545.000000 0.5210 0.5089 0.4972 0.4852 0.4730
3540.000000 0.4606 0.4474 0.4338 0.4172 0.4007
3535.000000 0.3961 0.3915 0.3887 0.3859 0.3842
3530.000000 0.3824 0.3814 0.3810 0.3809 0.3809
3525.000000 0.3808 0.3808 0.3812 0.3819 0.3834
3520.000000 0.3850 0.3874 0.3897 0.3924 0.3952
3515.000000 0.3979 0.4007 0.4035 0.4064 0.4102
3510.000000 0.4140 0.4177 0.4217 0.4255 0.4293
3505.000000 0.4335 0.4376 0.4418 0.4459 0.4497
3500.000000 0.4536 0.4566 0.4596 0.4625 0.4655
3495.000000 0.4685 0.4715 0.4742 0.4769 0.4796
3490.000000 0.4824 0.4851 0.4879 0.4906 0.4934
3485.000000 0.4959 0.4985 0.5004 0.5027 0.5049
3480.000000 0.5071 0.5091 0.5113 0.5133 0.5152
3475.000000 0.5165 0.5178 0.5191 0.5204 0.5217
3470.000000 0.5230 0.5244 0.5257 0.5269 0.5283
3465.000000 0.5295 0.5309 0.5321 0.5335 0.5347
3460.000000 0.5361 0.5373 0.5387 0.5399 0.5412
3455.000000 0.5425 0.5438 0.5451 0.5464 0.5477
3450.000000 0.5490 0.5504 0.5517 0.5530 0.5543
3445.000000 0.5556 0.5570 0.5583 0.5597 0.5609
3440.000000 0.5623 0.5636 0.5650 0.5663 0.5677
3435.000000 0.5692 0.5709 0.5725 0.5742 0.5757
3430.000000 0.5774 0.5790 0.5806 0.5822 0.5838
3425.000000 0.5847 0.5870 0.5887 0.5904 0.5921
3420.000000 0.5939 0.5957 0.5976 0.5994 0.6012
3415.000000 0.6030 0.6049 0.6066 0.6085 0.6102
3410.000000 0.6121 0.6139 0.6156 0.6181 0.6200
3405.000000 0.6217 0.6238 0.6259 0.6280 0.6300
3400.000000 0.6321 0.6342 0.6363 0.6383 0.6404
3395.000000 0.6425 0.6445 0.6464 0.6485 0.6503
3390.000000 0.6522 0.6541 0.6559 0.6577 0.6598
3385.000000 0.6615 0.6635 0.6653 0.6671 0.6691
3380.000000 0.6711 0.6729 0.6748 0.6767 0.6784
3375.000000 0.6804 0.6822 0.6842 0.6860 0.6877
3370.000000 0.6904 0.6912 0.6929 0.6946 0.6962
3365.000000 0.6978 0.6995 0.7012 0.7030 0.7046
3360.000000 0.7063 0.7078 0.7095 0.7113 0.7129
3355.000000 0.7145 0.7163 0.7180 0.7195 0.7215
3350.000000 0.7233 0.7252 0.7271 0.7289 0.7309
3345.000000 0.7336 0.7357 0.7368 0.7394 0.7404
3340.000000 0.7424 0.7443 0.7473 0.7491 0.7508
3335.000000 0.7519 0.7538 0.7557 0.7576 0.7588
3330.000000 0.7601 0.7615 0.7628 0.7642 0.7654
3325.000000 0.7669 0.7682 0.7696 0.7709 0.7722
3320.000000 0.7735 0.7748 0.7761 0.7775 0.7789
3315.000000 0.7802 0.7816 0.7827 0.7850 0.7859
3310.000000 0.7869 0.7879 0.7887 0.7889 0.7908
3305.000000 0.7917 0.7924 0.7927 0.7937 0.7946
3300.000000 0.7955 0.7965 0.7975 0.7985 0.7995
3295.000000 0.8004 0.8014 0.8023 0.8033 0.8043
3290.000000 0.8053 0.8062 0.8072 0.8083 0.8093
3285.000000 0.8103 0.8113 0.8133 0.8142 0.8143
3280.000000 0.8155 0.8174 0.8180 0.8182 0.8196
3275.000000 0.8212 0.8220 0.8227 0.8235 0.8242
3270.000000 0.8250 0.8258 0.8266 0.8273 0.8280
3265.000000 0.8287 0.8296 0.8303 0.8311 0.8319
3260.000000 0.8326 0.8333 0.8340 0.8345 0.8342
3255.000000 0.8357 0.8362 0.8367 0.8374 0.8379
3250.000000 0.8385 0.8390 0.8395 0.8400 0.8407
3245.000000 0.8406 0.8413 0.8423 0.8428 0.8434
3240.000000 0.8440 0.8445 0.8451 0.8456 0.8463
3235.000000 0.8468 0.8474 0.8479 0.8485 0.8491
3230.000000 0.8497 0.8501 0.8508 0.8512 0.8508
3225.000000 0.8516 0.8531 0.8536 0.8542 0.8548
3220.000000 0.8553 0.8558 0.8563 0.8568 0.8573
3215.000000 0.8578 0.8583 0.8587 0.8592 0.8597
3210.000000 0.8602 0.8607 0.8602 0.8604 0.8610
3205.000000 0.8615 0.8620 0.8624 0.8629 0.8633
3200.000000 0.8639 0.8653 0.8650 0.8662 0.8662
3195.000000 0.8674 0.8678 0.8682 0.8686 0.8690
3190.000000 0.8689 0.8693 0.8703 0.8707 0.8703
3185.000000 0.8704 0.8708 0.8712 0.8716 0.8720
3180.000000 0.8725 0.8729 0.8734 0.8738 0.8741
3175.000000 0.8746 0.8750 0.8754 0.8758 0.8763
3170.000000 0.8767 0.8771 0.8775 0.8779 0.8783
3165.000000 0.8787 0.8797 0.8806 0.8804 0.8809
3160.000000 0.8818 0.8821 0.8817 0.8825 0.8822
3155.000000 0.8822 0.8836 0.8841 0.8846 0.8849
3150.000000 0.8853 0.8856 0.8849 0.8853 0.8858
3145.000000 0.8861 0.8865 0.8869 0.8873 0.8881
3140.000000 0.8893 0.8896 0.8900 0.8905 0.8908
3135.000000 0.8913 0.8917 0.8920 0.8924 0.8926
3130.000000 0.8929 0.8932 0.8936 0.8938 0.8941
3125.000000 0.8944 0.8947 0.8949 0.8952 0.8955
3120.000000 0.8958 0.8959 0.8962 0.8965 0.8967
3115.000000 0.8967 0.8969 0.8970 0.8972 0.8973
3110.000000 0.8975 0.8976 0.8977 0.8985 0.8992
3105.000000 0.8993 0.8994 0.8994 0.8994 0.8994
3100.000000 0.9005 0.9007 0.9007 0.9018 0.9030
3095.000000 0.9043 0.9043 0.9043 0.9042 0.9032
3090.000000 0.9029 0.9016 0.9006 0.9008 0.9013
3085.000000 0.8999 0.8992 0.8991 0.8990 0.8988
3080.000000 0.8988 0.8987 0.8994 0.9005 0.9009
3075.000000 0.9008 0.9016 0.9017 0.9006 0.9002
3070.000000 0.9002 0.8988 0.8998 0.8986 0.8985
3065.000000 0.8983 0.8980 0.8969 0.8967 0.8965
3060.000000 0.8967 0.8970 0.8966 0.8957 0.8946
3055.000000 0.8946 0.8942 0.8932 0.8928 0.8929
3050.000000 0.8930 0.8924 0.8918 0.8911 0.8913
3045.000000 0.8908 0.8911 0.8916 0.8921 0.8926
3040.000000 0.8931 0.8922 0.8914 0.8903 0.8881
3035.000000 0.8862 0.8849 0.8828 0.8810 0.8801
3030.000000 0.8787 0.8766 0.8754 0.8730 0.8707
3025.000000 0.8689 0.8670 0.8653 0.8636 0.8612
3020.000000 0.8589 0.8566 0.8536 0.8505 0.8463
3015.000000 0.8429 0.8396 0.8363 0.8331 0.8297
3010.000000 0.8261 0.8227 0.8189 0.8139 0.8101
3005.000000 0.8058 0.8009 0.7912 0.7814 0.7664
3000.000000 0.7522 0.7226 0.6927 0.6512 0.6099
2995.000000 0.5956 0.5813 0.5672 0.5528 0.5312
2990.000000 0.5097 0.4986 0.4876 0.4783 0.4689
2985.000000 0.4616 0.4543 0.4476 0.4409 0.4299
2980.000000 0.4190 0.4085 0.3974 0.3863 0.3757
2975.000000 0.3754 0.3752 0.3801 0.3851 0.3903
2970.000000 0.3956 0.4012 0.4067 0.4088 0.4109
2965.000000 0.4107 0.4106 0.4054 0.4001 0.3800
2960.000000 0.3599 0.3404 0.3203 0.2997 0.2797
2955.000000 0.2596 0.2397 0.2197 0.1998 0.1796
2950.000000 0.1596 0.1394 0.1194 0.0992 0.0791
2945.000000 0.0589 0.0390 0.0193 -0.0004 -0.0036
2940.000000 -0.0036 -0.0036 -0.0036 -0.0036 -0.0036
2935.000000 -0.0036 -0.0036 -0.0036 -0.0036 -0.0036
2930.000000 -0.0036 -0.0036 -0.0036 -0.0036 -0.0036
2925.000000 -0.0036 -0.0036 -0.0036 -0.0036 -0.0036
2920.000000 -0.0036 0.0137 0.0326 0.0534 0.0745
2915.000000 0.0872 0.1000 0.1091 0.1182 0.1284
2910.000000 0.1388 0.1515 0.1647 0.1868 0.2086
2905.000000 0.2241 0.2396 0.2548 0.2701 0.2854
2900.000000 0.3006 0.3160 0.3315 0.3467 0.3622
2895.000000 0.3775 0.3928 0.4081 0.4235 0.4368
2890.000000 0.4501 0.4574 0.4647 0.4718 0.4792
2885.000000 0.4837 0.4882 0.4908 0.4934 0.4944
2880.000000 0.4954 0.4959 0.4997 0.4961 0.4971
2875.000000 0.4960 0.4950 0.4930 0.4910 0.4870
2870.000000 0.4829 0.4512 0.4195 0.3801 0.3407
2865.000000 0.3012 0.2618 0.2223 0.1830 0.1435
2860.000000 0.1042 0.0843 0.0644 0.0639 0.0599
2855.000000 0.0645 0.0655 0.0786 0.0917 0.1272
2850.000000 0.1627 0.1984 0.2339 0.2696 0.3056
2845.000000 0.3412 0.3767 0.4120 0.4481 0.4835
2840.000000 0.5186 0.5880 0.6580 0.6693 0.6801
2835.000000 0.6914 0.7032 0.7147 0.7261 0.7368
2830.000000 0.7475 0.7584 0.7678 0.7776 0.7871
2825.000000 0.7947 0.8033 0.8086 0.8119 0.8165
2820.000000 0.8203 0.8224 0.8237 0.8259 0.8283
2815.000000 0.8303 0.8323 0.8334 0.8345 0.8356
2810.000000 0.8366 0.8379 0.8397 0.8413 0.8424
2805.000000 0.8434 0.8444 0.8453 0.8464 0.8473
2800.000000 0.8481 0.8492 0.8502 0.8512 0.8522
2795.000000 0.8532 0.8544 0.8555 0.8565 0.8569
2790.000000 0.8588 0.8593 0.8606 0.8623 0.8642
2785.000000 0.8667 0.8695 0.8716 0.8737 0.8766
2780.000000 0.8793 0.8808 0.8823 0.8835 0.8851
2775.000000 0.8865 0.8880 0.8894 0.8909 0.8923
2770.000000 0.8938 0.8952 0.8965 0.8978 0.8991
2765.000000 0.9004 0.9016 0.9029 0.9041 0.9053
2760.000000 0.9067 0.9081 0.9095 0.9109 0.9123
2755.000000 0.9137 0.9150 0.9165 0.9179 0.9192
2750.000000 0.9205 0.9218 0.9230 0.9243 0.9254
2745.000000 0.9269 0.9282 0.9296 0.9310 0.9313
2740.000000 0.9320 0.9323 0.9326 0.9329 0.9332
2735.000000 0.9335 0.9338 0.9341 0.9345 0.9348
2730.000000 0.9355 0.9354 0.9353 0.9353 0.9354
2725.000000 0.9355 0.9355 0.9355 0.9355 0.9355
2720.000000 0.9354 0.9350 0.9347 0.9342 0.9339
2715.000000 0.9335 0.9332 0.9328 0.9324 0.9319
2710.000000 0.9316 0.9312 0.9309 0.9305 0.9302
2705.000000 0.9297 0.9294 0.9290 0.9287 0.9285
2700.000000 0.9283 0.9281 0.9279 0.9278 0.9277
2695.000000 0.9277 0.9276 0.9276 0.9276 0.9275
2690.000000 0.9275 0.9275 0.9276 0.9276 0.9277
2685.000000 0.9277 0.9277 0.9277 0.9276 0.9275
2680.000000 0.9274 0.9266 0.9258 0.9246 0.9234
2675.000000 0.9212 0.9190 0.9168 0.9146 0.9123
2670.000000 0.9101 0.9078 0.9057 0.9035 0.9014
2665.000000 0.8993 0.8973 0.8961 0.8948 0.8936
2660.000000 0.8924 0.8920 0.8903 0.8925 0.8925
2655.000000 0.8925 0.8928 0.8932 0.8937 0.8956
2650.000000 0.8971 0.8997 0.9030 0.9064 0.9092
2645.000000 0.9106 0.9125 0.9142 0.9168 0.9179
2640.000000 0.9193 0.9208 0.9224 0.9237 0.9252
2635.000000 0.9265 0.9292 0.9303 0.9312 0.9309
2630.000000 0.9321 0.9341 0.9351 0.9356 0.9362
2625.000000 0.9366 0.9372 0.9377 0.9381 0.9384
2620.000000 0.9387 0.9389 0.9392 0.9394 0.9397
2615.000000 0.9399 0.9402 0.9402 0.9402 0.9402
2610.000000 0.9402 0.9401 0.9401 0.9399 0.9398
2605.000000 0.9396 0.9395 0.9393 0.9392 0.9390
2600.000000 0.9388 0.9386 0.9384 0.9381 0.9380
2595.000000 0.9378 0.9376 0.9373 0.9373 0.9371
2590.000000 0.9369 0.9368 0.9366 0.9365 0.9365
2585.000000 0.9364 0.9364 0.9364 0.9364 0.9364
2580.000000 0.9364 0.9369 0.9375 0.9382 0.9390
2575.000000 0.9397 0.9404 0.9411 0.9420 0.9427
2570.000000 0.9435 0.9443 0.9451 0.9458 0.9467
2565.000000 0.9473 0.9479 0.9484 0.9490 0.9497
2560.000000 0.9503 0.9508 0.9514 0.9520 0.9525
2555.000000 0.9529 0.9535 0.9539 0.9543 0.9548
2550.000000 0.9552 0.9555 0.9559 0.9563 0.9567
2545.000000 0.9570 0.9574 0.9576 0.9577 0.9580
2540.000000 0.9581 0.9583 0.9584 0.9587 0.9589
2535.000000 0.9590 0.9591 0.9591 0.9591 0.9590
2530.000000 0.9590 0.9590 0.9590 0.9590 0.9590
2525.000000 0.9584 0.9581 0.9572 0.9564 0.9556
2520.000000 0.9548 0.9542 0.9537 0.9532 0.9527
2515.000000 0.9524 0.9523 0.9521 0.9519 0.9517
2510.000000 0.9516 0.9515 0.9514 0.9514 0.9514
2505.000000 0.9514 0.9515 0.9515 0.9515 0.9515
2500.000000 0.9516 0.9516 0.9517 0.9517 0.9517
2495.000000 0.9517 0.9518 0.9518 0.9518 0.9518
2490.000000 0.9519 0.9519 0.9520 0.9521 0.9521
2485.000000 0.9523 0.9524 0.9526 0.9527 0.9536
2480.000000 0.9541 0.9543 0.9544 0.9544 0.9547
2475.000000 0.9548 0.9549 0.9550 0.9551 0.9552
2470.000000 0.9553 0.9554 0.9555 0.9556 0.9558
2465.000000 0.9560 0.9562 0.9564 0.9566 0.9569
2460.000000 0.9571 0.9573 0.9569 0.9571 0.9572
2455.000000 0.9568 0.9570 0.9581 0.9587 0.9588
2450.000000 0.9581 0.9589 0.9592 0.9592 0.9595
2445.000000 0.9595 0.9598 0.9599 0.9601 0.9602
2440.000000 0.9603 0.9604 0.9605 0.9606 0.9607
2435.000000 0.9607 0.9607 0.9606 0.9606 0.9605
2430.000000 0.9604 0.9603 0.9603 0.9602 0.9602
2425.000000 0.9600 0.9600 0.9599 0.9598 0.9597
2420.000000 0.9597 0.9595 0.9595 0.9592 0.9591
2415.000000 0.9588 0.9585 0.9583 0.9580 0.9578
2410.000000 0.9576 0.9578 0.9582 0.9576 0.9585
2405.000000 0.9584 0.9584 0.9583 0.9583 0.9582
2400.000000 0.9582 0.9580 0.9580 0.9579 0.9579
2395.000000 0.9578 0.9578 0.9577 0.9577 0.9576
2390.000000 0.9575 0.9587 0.9587 0.9588 0.9589
2385.000000 0.9592 0.9604 0.9605 0.9609 0.9619
2380.000000 0.9620 0.9626 0.9635 0.9642 0.9650
2375.000000 0.9651 0.9661 0.9670 0.9673 0.9677
2370.000000 0.9681 0.9676 0.9677 0.9682 0.9686
2365.000000 0.9690 0.9694 0.9697 0.9702 0.9706
2360.000000 0.9723 0.9727 0.9742 0.9748 0.9764
2355.000000 0.9775 0.9779 0.9783 0.9786 0.9783
2350.000000 0.9778 0.9780 0.9790 0.9806 0.9813
2345.000000 0.9815 0.9807 0.9804 0.9805 0.9806
2340.000000 0.9807 0.9797 0.9808 0.9811 0.9799
2335.000000 0.9800 0.9814 0.9811 0.9809 0.9809
2330.000000 0.9818 0.9815 0.9813 0.9815 0.9822
2325.000000 0.9824 0.9830 0.9824 0.9819 0.9813
2320.000000 0.9806 0.9800 0.9795 0.9788 0.9782
2315.000000 0.9776 0.9769 0.9763 0.9756 0.9750
2310.000000 0.9744 0.9737 0.9732 0.9726 0.9719
2305.000000 0.9713 0.9707 0.9700 0.9697 0.9693
2300.000000 0.9688 0.9688 0.9693 0.9688 0.9683
2295.000000 0.9679 0.9675 0.9671 0.9666 0.9664
2290.000000 0.9664 0.9663 0.9653 0.9647 0.9647
2285.000000 0.9644 0.9644 0.9632 0.9633 0.9634
2280.000000 0.9637 0.9637 0.9629 0.9631 0.9631
2275.000000 0.9622 0.9624 0.9627 0.9628 0.9623
2270.000000 0.9628 0.9627 0.9625 0.9629 0.9632
2265.000000 0.9630 0.9630 0.9634 0.9638 0.9633
2260.000000 0.9635 0.9639 0.9633 0.9634 0.9638
2255.000000 0.9641 0.9633 0.9636 0.9640 0.9642
2250.000000 0.9634 0.9639 0.9643 0.9646 0.9650
2245.000000 0.9649 0.9645 0.9648 0.9652 0.9655
2240.000000 0.9659 0.9660 0.9663 0.9666 0.9668
2235.000000 0.9662 0.9660 0.9662 0.9664 0.9666
2230.000000 0.9668 0.9670 0.9673 0.9675 0.9678
2225.000000 0.9680 0.9682 0.9684 0.9684 0.9675
2220.000000 0.9677 0.9677 0.9678 0.9678 0.9678
2215.000000 0.9678 0.9678 0.9678 0.9679 0.9679
2210.000000 0.9679 0.9679 0.9679 0.9679 0.9679
2205.000000 0.9678 0.9678 0.9677 0.9677 0.9676
2200.000000 0.9676 0.9675 0.9675 0.9675 0.9673
2195.000000 0.9663 0.9674 0.9670 0.9660 0.9657
2190.000000 0.9655 0.9652 0.9649 0.9646 0.9643
2185.000000 0.9640 0.9645 0.9640 0.9632 0.9629
2180.000000 0.9626 0.9623 0.9631 0.9631 0.9629
2175.000000 0.9626 0.9623 0.9620 0.9618 0.9615
2170.000000 0.9613 0.9609 0.9596 0.9593 0.9591
2165.000000 0.9588 0.9586 0.9584 0.9581 0.9579
2160.000000 0.9578 0.9576 0.9576 0.9575 0.9574
2155.000000 0.9572 0.9571 0.9569 0.9569 0.9567
2150.000000 0.9566 0.9565 0.9564 0.9563 0.9561
2145.000000 0.9559 0.9558 0.9557 0.9557 0.9558
2140.000000 0.9560 0.9561 0.9562 0.9563 0.9564
2135.000000 0.9566 0.9567 0.9568 0.9569 0.9571
2130.000000 0.9572 0.9572 0.9574 0.9575 0.9576
2125.000000 0.9578 0.9579 0.9579 0.9570 0.9581
2120.000000 0.9583 0.9584 0.9586 0.9587 0.9588
2115.000000 0.9589 0.9590 0.9591 0.9592 0.9593
2110.000000 0.9594 0.9595 0.9596 0.9597 0.9600
2105.000000 0.9601 0.9602 0.9603 0.9604 0.9605
2100.000000 0.9606 0.9606 0.9596 0.9593 0.9604
2095.000000 0.9607 0.9596 0.9606 0.9607 0.9607
2090.000000 0.9607 0.9605 0.9602 0.9600 0.9599
2085.000000 0.9597 0.9595 0.9593 0.9591 0.9588
2080.000000 0.9586 0.9583 0.9580 0.9577 0.9574
2075.000000 0.9571 0.9568 0.9566 0.9564 0.9562
2070.000000 0.9560 0.9557 0.9556 0.9554 0.9553
2065.000000 0.9552 0.9551 0.9550 0.9550 0.9549
2060.000000 0.9548 0.9547 0.9547 0.9549 0.9558
2055.000000 0.9558 0.9558 0.9558 0.9553 0.9551
2050.000000 0.9557 0.9551 0.9545 0.9545 0.9545
2045.000000 0.9545 0.9545 0.9545 0.9546 0.9546
2040.000000 0.9546 0.9546 0.9547 0.9547 0.9547
2035.000000 0.9547 0.9548 0.9548 0.9549 0.9549
2030.000000 0.9550 0.9550 0.9554 0.9558 0.9550
2025.000000 0.9554 0.9561 0.9561 0.9561 0.9561
2020.000000 0.9561 0.9562 0.9563 0.9563 0.9564
2015.000000 0.9564 0.9564 0.9564 0.9564 0.9563
2010.000000 0.9563 0.9563 0.9563 0.9563 0.9563
2005.000000 0.9563 0.9563 0.9564 0.9565 0.9561
2000.000000 0.9557 0.9548 0.9476 0.9347 0.9250
1995.000000 0.9255 0.9275 0.9297 0.9326 0.9356
1990.000000 0.9383 0.9410 0.9426 0.9442 0.9444
1985.000000 0.9453 0.9457 0.9461 0.9465 0.9469
1980.000000 0.9472 0.9477 0.9474 0.9482 0.9490
1975.000000 0.9499 0.9506 0.9510 0.9513 0.9518
1970.000000 0.9518 0.9518 0.9513 0.9509 0.9513
1965.000000 0.9504 0.9491 0.9492 0.9493 0.9490
1960.000000 0.9488 0.9486 0.9484 0.9483 0.9483
1955.000000 0.9483 0.9471 0.9472 0.9472 0.9472
1950.000000 0.9469 0.9459 0.9460 0.9461 0.9463
1945.000000 0.9464 0.9466 0.9467 0.9469 0.9470
1940.000000 0.9472 0.9473 0.9475 0.9477 0.9480
1935.000000 0.9483 0.9486 0.9489 0.9492 0.9495
1930.000000 0.9498 0.9501 0.9504 0.9506 0.9507
1925.000000 0.9508 0.9509 0.9510 0.9511 0.9512
1920.000000 0.9512 0.9513 0.9513 0.9514 0.9514
1915.000000 0.9515 0.9515 0.9515 0.9515 0.9514
1910.000000 0.9512 0.9509 0.9507 0.9515 0.9516
1905.000000 0.9514 0.9512 0.9510 0.9508 0.9507
1900.000000 0.9505 0.9504 0.9502 0.9499 0.9499
1895.000000 0.9496 0.9496 0.9495 0.9495 0.9489
1890.000000 0.9479 0.9479 0.9478 0.9478 0.9476
1885.000000 0.9473 0.9477 0.9480 0.9477 0.9474
1880.000000 0.9471 0.9468 0.9465 0.9461 0.9459
1875.000000 0.9468 0.9467 0.9463 0.9461 0.9459
1870.000000 0.9456 0.9454 0.9451 0.9449 0.9446
1865.000000 0.9443 0.9436 0.9430 0.9424 0.9418
1860.000000 0.9411 0.9407 0.9402 0.9404 0.9398
1855.000000 0.9388 0.9384 0.9379 0.9375 0.9371
1850.000000 0.9365 0.9362 0.9358 0.9354 0.9351
1845.000000 0.9347 0.9342 0.9339 0.9335 0.9330
1840.000000 0.9324 0.9317 0.9311 0.9305 0.9293
1835.000000 0.9279 0.9271 0.9263 0.9253 0.9245
1830.000000 0.9235 0.9227 0.9219 0.9209 0.9201
1825.000000 0.9192 0.9183 0.9174 0.9162 0.9149
1820.000000 0.9135 0.9135 0.9118 0.9095 0.9072
1815.000000 0.9045 0.9018 0.8991 0.8965 0.8939
1810.000000 0.8914 0.8882 0.8850 0.8823 0.8800
1805.000000 0.8776 0.8746 0.8722 0.8704 0.8687
1800.000000 0.8671 0.8656 0.8639 0.8626 0.8613
1795.000000 0.8601 0.8589 0.8577 0.8565 0.8552
1790.000000 0.8540 0.8528 0.8514 0.8502 0.8489
1785.000000 0.8475 0.8460 0.8447 0.8432 0.8418
1780.000000 0.8400 0.8384 0.8367 0.8349 0.8321
1775.000000 0.8295 0.8273 0.8251 0.8217 0.8178
1770.000000 0.8131 0.8073 0.8015 0.7949 0.7876
1765.000000 0.7804 0.7728 0.7650 0.7560 0.7455
1760.000000 0.7349 0.7177 0.7005 0.6824 0.6640
1755.000000 0.6457 0.6285 0.4770 0.4373 0.3854
1750.000000 0.3505 0.3252 0.3084 0.2962 0.2837
1745.000000 0.2715 0.1986 0.1661 0.1339 0.1015
1740.000000 0.0607 0.0470 0.0362 0.0176 0.0093
1735.000000 0.0011 -0.0036 -0.0036 -0.0036 -0.0036
1730.000000 -0.0036 -0.0036 -0.0036 -0.0036 -0.0036
1725.000000 -0.0036 -0.0036 -0.0036 -0.0036 -0.0036
1720.000000 -0.0036 -0.0036 -0.0036 -0.0036 -0.0036
1715.000000 -0.0036 0.0133 0.1294 0.1483 0.1672
1710.000000 0.2048 0.2304 0.2561 0.3021 0.3215
1705.000000 0.3472 0.3842 0.4213 0.4583 0.4954
1700.000000 0.5323 0.5495 0.5607 0.5706 0.5805
1695.000000 0.5960 0.6155 0.6369 0.6564 0.6755
1690.000000 0.6953 0.6996 0.7034 0.7073 0.7103
1685.000000 0.7134 0.7165 0.7224 0.7295 0.7381
1680.000000 0.7487 0.7592 0.7685 0.7778 0.7871
1675.000000 0.7958 0.8023 0.8092 0.8163 0.8228
1670.000000 0.8294 0.8367 0.8442 0.8502 0.8554
1665.000000 0.8590 0.8619 0.8646 0.8666 0.8670
1660.000000 0.8684 0.8678 0.8681 0.8694 0.8698
1655.000000 0.8703 0.8706 0.8708 0.8703 0.8718
1650.000000 0.8724 0.8729 0.8735 0.8739 0.8746
1645.000000 0.8756 0.8758 0.8759 0.8766 0.8768
1640.000000 0.8752 0.8761 0.8765 0.8765 0.8767
1635.000000 0.8759 0.8748 0.8750 0.8742 0.8743
1630.000000 0.8734 0.8733 0.8718 0.8713 0.8698
1625.000000 0.8678 0.8680 0.8678 0.8684 0.8680
1620.000000 0.8670 0.8672 0.8675 0.8680 0.8694
1615.000000 0.8708 0.8718 0.8724 0.8735 0.8753
1610.000000 0.8751 0.8755 0.8757 0.8748 0.8763
1605.000000 0.8749 0.8780 0.8788 0.8813 0.8790
1600.000000 0.8805 0.8809 0.8824 0.8828 0.8819
1595.000000 0.8795 0.8771 0.8736 0.8714 0.8698
1590.000000 0.8636 0.8588 0.8500 0.8412 0.8379
1585.000000 0.8335 0.8292 0.8260 0.8232 0.8209
1580.000000 0.8184 0.8174 0.8154 0.8154 0.8146
1575.000000 0.8151 0.8157 0.8148 0.8139 0.8148
1570.000000 0.8122 0.8110 0.8093 0.8090 0.8085
1565.000000 0.8096 0.8100 0.8084 0.8016 0.7916
1560.000000 0.7937 0.7991 0.8033 0.8053 0.8007
1555.000000 0.7970 0.7792 0.7722 0.7687 0.7648
1550.000000 0.7605 0.7542 0.7492 0.7447 0.7408
1545.000000 0.7355 0.7297 0.7245 0.7209 0.7157
1540.000000 0.7143 0.7117 0.7120 0.7120 0.7157
1535.000000 0.7214 0.7247 0.7272 0.7302 0.7330
1530.000000 0.7395 0.7488 0.7589 0.7696 0.7788
1525.000000 0.7808 0.7840 0.7862 0.7892 0.7890
1520.000000 0.7899 0.7908 0.7909 0.7917 0.7924
1515.000000 0.7925 0.7940 0.7947 0.7960 0.7962
1510.000000 0.7962 0.7967 0.7964 0.7958 0.7956
1505.000000 0.7954 0.7957 0.7958 0.7975 0.8002
1500.000000 0.8039 0.8076 0.8095 0.8105 0.8116
1495.000000 0.8135 0.8143 0.8163 0.8181 0.8199
1490.000000 0.8217 0.8234 0.8252 0.8272 0.8295
1485.000000 0.8316 0.8325 0.8349 0.8373 0.8384
1480.000000 0.8374 0.8345 0.8310 0.8268 0.8243
1475.000000 0.8218 0.8175 0.8140 0.8097 0.8040
1470.000000 0.7956 0.7302 0.6931 0.6466 0.5587
1465.000000 0.5517 0.5665 0.5912 0.5968 0.5638
1460.000000 0.5156 0.4673 0.4188 0.3707 0.3227
1455.000000 0.2744 0.2262 0.1781 0.1300 0.1147
1450.000000 0.1124 0.1078 0.1115 0.1135 0.1180
1445.000000 0.1377 0.1643 0.2282 0.2919 0.3559
1440.000000 0.4192 0.4830 0.5467 0.6422 0.6514
1435.000000 0.6546 0.6560 0.6592 0.6660 0.6771
1430.000000 0.6879 0.6990 0.7096 0.7182 0.7272
1425.000000 0.7315 0.7347 0.7382 0.7406 0.7428
1420.000000 0.7439 0.7446 0.7454 0.7481 0.7443
1415.000000 0.7439 0.7436 0.7420 0.7399 0.7381
1410.000000 0.7361 0.7347 0.7330 0.7315 0.7298
1405.000000 0.7283 0.7269 0.7254 0.7241 0.7227
1400.000000 0.7213 0.7199 0.7186 0.7172 0.7151
1395.000000 0.7132 0.7111 0.7079 0.7047 0.7016
1390.000000 0.6986 0.6946 0.6898 0.6865 0.6834
1385.000000 0.6803 0.6753 0.6682 0.6596 0.6497
1380.000000 0.6408 0.6164 0.5972 0.5866 0.5757
1375.000000 0.5645 0.5537 0.5431 0.5324 0.5218
1370.000000 0.5111 0.5002 0.4897 0.4790 0.4749
1365.000000 0.4724 0.4767 0.4847 0.5422 0.5985
1360.000000 0.6093 0.6188 0.6266 0.6342 0.6393
1355.000000 0.6440 0.6489 0.6526 0.6560 0.6590
1350.000000 0.6612 0.6632 0.6654 0.6670 0.6679
1345.000000 0.6692 0.6718 0.6710 0.6705 0.6700
1340.000000 0.6671 0.6626 0.6529 0.6425 0.6321
1335.000000 0.6216 0.6112 0.6008 0.5904 0.5801
1330.000000 0.5700 0.5684 0.5687 0.5703 0.5714
1325.000000 0.5720 0.5722 0.5721 0.5654 0.5566
1320.000000 0.5477 0.5388 0.5300 0.5215 0.5108
1315.000000 0.4995 0.4984 0.4978 0.5004 0.5085
1310.000000 0.5232 0.5387 0.5513 0.5595 0.5659
1305.000000 0.5696 0.5725 0.5712 0.5712 0.5691
1300.000000 0.5668 0.5637 0.5589 0.5542 0.5484
1295.000000 0.5420 0.5351 0.5211 0.5071 0.4962
1290.000000 0.4852 0.4728 0.4584 0.4415 0.4125
1285.000000 0.3830 0.3559 0.3351 0.3078 0.2765
1280.000000 0.2632 0.2498 0.2361 0.2221 0.2065
1275.000000 0.1887 0.1683 0.1405 0.1243 0.1082
1270.000000 0.0919 0.0757 0.0622 0.0542 0.0475
1265.000000 0.0416 0.0357 0.0305 0.0265 0.0224
1260.000000 0.0180 0.0143 0.0118 0.0102 0.0037
1255.000000 0.0084 0.0081 0.0087 0.0130 0.0178
1250.000000 0.0225 0.0279 0.0354 0.0431 0.0508
1245.000000 0.0595 0.0686 0.0807 0.0921 0.0968
1240.000000 0.0988 0.1048 0.1011 0.1012 0.1008
1235.000000 0.0992 0.0949 0.0865 0.0778 0.0629
1230.000000 0.0456 0.0329 0.0240 0.0166 0.0108
1225.000000 0.0053 0.0005 -0.0036 -0.0036 -0.0036
1220.000000 -0.0036 -0.0036 -0.0036 -0.0036 -0.0036
1215.000000 -0.0036 -0.0036 -0.0036 -0.0024 0.0005
1210.000000 0.0035 0.0075 0.0148 0.0220 0.0293
1205.000000 0.0372 0.0474 0.0577 0.0699 0.0886
1200.000000 0.1071 0.1229 0.1356 0.1483 0.1615
1195.000000 0.1794 0.1972 0.2149 0.2334 0.2640
1190.000000 0.2824 0.3052 0.3289 0.3526 0.3764
1185.000000 0.4001 0.4238 0.4472 0.4702 0.4936
1180.000000 0.5175 0.5416 0.5616 0.5742 0.5851
1175.000000 0.5943 0.6027 0.6095 0.6146 0.6196
1170.000000 0.6244 0.6280 0.6307 0.6333 0.6382
1165.000000 0.6367 0.6374 0.6358 0.6309 0.6223
1160.000000 0.6132 0.6034 0.5937 0.5814 0.5450
1155.000000 0.4888 0.4688 0.4650 0.4631 0.4604
1150.000000 0.4496 0.4258 0.4016 0.3775 0.3536
1145.000000 0.3297 0.3058 0.2816 0.2580 0.1687
1140.000000 0.1257 0.1065 0.0887 0.0670 0.0515
1135.000000 0.0406 0.0294 0.0183 0.0050 -0.0036
1130.000000 -0.0036 -0.0036 -0.0036 -0.0036 -0.0036
1125.000000 -0.0036 -0.0036 -0.0036 -0.0036 -0.0036
1120.000000 -0.0036 -0.0036 -0.0036 -0.0036 -0.0036
1115.000000 -0.0036 0.0060 0.0230 0.0448 0.0704
1110.000000 0.1273 0.1458 0.1599 0.1756 0.1924
1105.000000 0.2084 0.2229 0.2376 0.2792 0.3067
1100.000000 0.3399 0.3750 0.4101 0.4142 0.4151
1095.000000 0.4155 0.4157 0.4121 0.4028 0.3936
1090.000000 0.3844 0.3750 0.3696 0.3689 0.3685
1085.000000 0.3686 0.3687 0.4019 0.4204 0.4306
1080.000000 0.4445 0.4588 0.4653 0.4721 0.4784
1075.000000 0.4847 0.4911 0.4978 0.5043 0.5103
1070.000000 0.5172 0.5257 0.5342 0.5470 0.5588
1065.000000 0.5674 0.5760 0.5836 0.5919 0.5995
1060.000000 0.6068 0.6138 0.6243 0.6313 0.6336
1055.000000 0.6357 0.6418 0.6373 0.6371 0.6346
1050.000000 0.6291 0.6171 0.5889 0.5409 0.4929
1045.000000 0.4448 0.3968 0.3488 0.3007 0.2528
1040.000000 0.2048 0.1826 0.1657 0.1487 0.1320
1035.000000 0.1151 0.0953 0.0994 0.1239 0.1638
1030.000000 0.2035 0.2434 0.2834 0.3233 0.3630
1025.000000 0.4026 0.4402 0.4519 0.4624 0.4678
1020.000000 0.4695 0.4759 0.4711 0.4678 0.4585
1015.000000 0.4467 0.4380 0.3654 0.2926 0.2200
1010.000000 0.1651 0.1647 0.1582 0.2155 0.2710
1005.000000 0.3266 0.3816 0.4371 0.4926 0.5481
1000.000000 0.6036 0.6591 0.7211 0.7482 0.7740
995.000000 0.7876 0.7999 0.8117 0.8238 0.8334
990.000000 0.8421 0.8485 0.8527 0.8570 0.8611
985.000000 0.8656 0.8700 0.8745 0.8786 0.8825
980.000000 0.8858 0.8882 0.8906 0.8922 0.8934
975.000000 0.8944 0.8944 0.8946 0.8917 0.8899
970.000000 0.8838 0.8766 0.8647 0.8561 0.8487
965.000000 0.8440 0.8406 0.8379 0.8349 0.8295
960.000000 0.8241 0.8171 0.8074 0.7977 0.7724
955.000000 0.7347 0.7178 0.7014 0.6044 0.5043
950.000000 0.4055 0.4071 0.4036 0.4232 0.4508
945.000000 0.4784 0.5060 0.5336 0.5612 0.5888
940.000000 0.6163 0.6440 0.6453 0.6448 0.6470
935.000000 0.6575 0.6715 0.6856 0.6996 0.7005
930.000000 0.7019 0.6991 0.6808 0.6314 0.5821
925.000000 0.5327 0.5135 0.5136 0.5137 0.5219
920.000000 0.6035 0.6128 0.6221 0.6299 0.6371
915.000000 0.6390 0.6400 0.6438 0.6163 0.5812
910.000000 0.5455 0.5382 0.5375 0.5587 0.5856
905.000000 0.6132 0.6405 0.6676 0.6953 0.7227
900.000000 0.7424 0.7452 0.7527 0.7603 0.7691
895.000000 0.7743 0.7798 0.7836 0.7879 0.7878
890.000000 0.7829 0.5915 0.6376 0.6706 0.7042
885.000000 0.7376 0.7718 0.8061 0.8343 0.8492
880.000000 0.8622 0.8741 0.8856 0.8945 0.9055
875.000000 0.9124 0.9166 0.9192 0.9227 0.9243
870.000000 0.9249 0.9230 0.9199 0.9177 0.9123
865.000000 0.9058 0.8910 0.8776 0.8632 0.8319
860.000000 0.8002 0.8050 0.8114 0.8131 0.8123
855.000000 0.8060 0.7812 0.7433 0.7207 0.7165
850.000000 0.7262 0.7531 0.7896 0.8251 0.8304
845.000000 0.8328 0.8284 0.8215 0.7713 0.6352
840.000000 0.6443 0.6301 0.6906 0.8139 0.8513
835.000000 0.8699 0.8851 0.9001 0.9083 0.9142
830.000000 0.9189 0.9162 0.9147 0.9125 0.9071
825.000000 0.8844 0.8648 0.8590 0.8658 0.8759
820.000000 0.8969 0.9187 0.9311 0.9398 0.9499
815.000000 0.9556 0.9603 0.9633 0.9665 0.9686
810.000000 0.9694 0.9707 0.9705 0.9695 0.9698
805.000000 0.9694 0.9679 0.9635 0.9571 0.9499
800.000000 0.9425 0.9349 0.9272 0.9208 0.9146
795.000000 0.9103 0.9091 0.9087 0.9080 0.9184
790.000000 0.9276 0.9323 0.9319 0.9319 0.9320
785.000000 0.9331 0.9346 0.9355 0.9369 0.9391
780.000000 0.9405 0.9426 0.9438 0.9441 0.9443
775.000000 0.9431 0.9428 0.9406 0.9386 0.9372
770.000000 0.9343 0.9304 0.9264 0.9222 0.9147
765.000000 0.9030 0.8865 0.8700 0.8524 0.8347
760.000000 0.8169 0.7992 0.7815 0.7637 0.7494
755.000000 0.7468 0.7468 0.7445 0.7545 0.7877
750.000000 0.8231 0.8338 0.8470 0.8614 0.8693
745.000000 0.8759 0.8825 0.8894 0.8966 0.9035
740.000000 0.9095 0.9164 0.9220 0.9260 0.9299
735.000000 0.9338 0.9375 0.9406 0.9433 0.9456
730.000000 0.9485 0.9501 0.9518 0.9553 0.9525
725.000000 0.9531 0.9527 0.9529 0.9530 0.9528
720.000000 0.9523 0.9509 0.9495 0.9488 0.9477
715.000000 0.9461 0.9462 0.9456 0.9448 0.9438
710.000000 0.9429 0.9420 0.9410 0.9402 0.9392
705.000000 0.9379 0.9366 0.9365 0.9353 0.9342
700.000000 0.9338 0.9327 0.9312 0.9298 0.9285
695.000000 0.9276 0.9270 0.9256 0.9238 0.9220
690.000000 0.9201 0.9184 0.9174 0.9157 0.9140
685.000000 0.9121 0.9101 0.9093 0.9076 0.9057
680.000000 0.9047 0.9022 0.9014 0.8994 0.8993
675.000000 0.8979 0.8946 0.8917 0.8882 0.8834
670.000000 0.8794 0.8818 0.8815 0.8685 0.8567
665.000000 0.8513 0.8470 0.8423 0.8375 0.8335
660.000000 0.8296 0.8285 0.8278 0.8281 0.8271
655.000000 0.8242 0.8200 0.8160 0.8068 0.8066
650.000000 0.8053 0.8042 0.8030 0.8025 0.8019
645.000000 0.8027 0.8031 0.8030 0.8040 0.8052
640.000000 0.8065 0.8082 0.8093 0.8115 0.8155
635.000000 0.8194 0.8219 0.8243 0.8267 0.8288
630.000000 0.8315 0.8333 0.8340 0.8357 0.8363
625.000000 0.8379 0.8395 0.8401 0.8416 0.8433
620.000000 0.8449 0.8466 0.8493 0.8505 0.8516
615.000000 0.8535 0.8551 0.8563 0.8580 0.8595
610.000000 0.8610 0.8624 0.8639 0.8646 0.8655
605.000000 0.8669 0.8683 0.8689 0.8691 0.8691
600.000000 0.8691 0.8689 0.8687 0.8685 0.8683
595.000000 0.8681 0.8679 0.8677 0.8675 0.8674
590.000000 0.8672 0.8670 0.8669 0.8664 0.8663
585.000000 0.8666 0.8662 0.8664 0.8668 0.8672
580.000000 0.8677 0.8681 0.8686 0.8681 0.8681
575.000000 0.8683 0.8697 0.8702 0.8754 0.8707
570.000000 0.8706 0.8703 0.8701 0.8687 0.8680
565.000000 0.8682 0.8672 0.8646 0.8629 0.8612
560.000000 0.8597 0.8584 0.8571 0.8560 0.8547
555.000000 0.8527 0.8511 0.8499 0.8485 0.8481
550.000000 0.8477 0.8469 0.8461 0.8455 0.8451
545.000000 0.8448 0.8445 0.8442 0.8438 0.8435
540.000000 0.8432 0.8430 0.8437 0.8436 0.8440
535.000000 0.8434 0.8425 0.8427 0.8421 0.8413
530.000000 0.8401 0.8389 0.8373 0.8352 0.8335
525.000000 0.8319 0.8308 0.8299 0.8288 0.8279
520.000000 0.8268 0.8258 0.8245 0.8232 0.8221
515.000000 0.8208 0.8197 0.8184 0.8171 0.8156
510.000000 0.8143 0.8128 0.8109 0.8085 0.8061
505.000000 0.8037 0.8014 0.7991 0.7967 0.7946
500.000000 0.7922 0.7900 0.7880 0.7860 0.7840
495.000000 0.7822 0.7808 0.7791 0.7776 0.7759
490.000000 0.7742 0.7727 0.7711 0.7697 0.7681
485.000000 0.7666 0.7649 0.7627 0.7601 0.7578
480.000000 0.7552 0.7527 0.7504 0.7483 0.7462
475.000000 0.7442 0.7421 0.7404 0.7392 0.7377
470.000000 0.7364 0.7348 0.7336 0.7321 0.7307
465.000000 0.7293 0.7281 0.7267 0.7252 0.7234
460.000000 0.7222 0.7214 0.7210 0.7209 0.7209
455.000000 0.7205 0.7200
##END=
