##TITLE=AMMONIUM PRASEODYMIUM OXALATE, HYDRATE
##JCAMP-DX=4.24
##DATA TYPE=INFRARED SPECTRUM
##CLASS=COBLENTZ III
##ORIGIN=DOW CHEMICAL COMPANY
##OWNER=COBLENTZ SOCIETY
Collection (C) 2018 copyright by the U.S. Secretary of Commerce
on behalf of the United States of America. All rights reserved.
##DATE=1968/10/23
##MOLFORM=C8 H8 N2 O16 Pr2  * 6-8 H2 O
##SOURCE REFERENCE=COBLENTZ NO. 9194
##$NIST ID=B6009194
##$NIST SOURCE=COBLENTZ
##$NIST IMAGE=cob9194
##SPECTROMETER/DATA SYSTEM=DOW KBr FOREPRISM-GRATING
##INSTRUMENT PARAMETERS=BLAZED AT 3.5, 12.0, 20.0 MICRON AND CHANGED AT 5.0, 7.5, 14.9 MICRON
##STATE=SOLID (SPLIT MULL), FLUOROLUBE FOR 3800-1330 CM^-^1, NUJOL FOR 1330-470 CM^-^1
##SAMPLING PROCEDURE=TRANSMISSION
##RESOLUTION=2
##DATA PROCESSING=DIGITIZED BY NIST FROM HARD COPY (FROM TWO SEGMENTS)
##XUNITS=1/CM
##YUNITS=TRANSMITTANCE
##XFACTOR=1.000000
##YFACTOR=1
##DELTAX=0.879399
##FIRSTX=461.935
##LASTX=3788.7
##FIRSTY=0.74
##MAXX=3788.7
##MINX=461.935
##MAXY=1
##MINY=0.036
##NPOINTS=3784
##XYDATA=(X++(Y..Y))
461.935000 0.7400 0.7390 0.7400 0.7390 0.7360
466.331996 0.7330 0.7310 0.7280 0.7250 0.7240
470.728991 0.7210 0.7180 0.7160 0.7130 0.7100
475.125987 0.7060 0.7030 0.7020 0.6990 0.6970
479.522983 0.6950 0.6930 0.6900 0.6880 0.6860
483.919979 0.6830 0.6820 0.6800 0.6800 0.6790
488.316974 0.6790 0.6780 0.6780 0.6780 0.6760
492.713970 0.6760 0.6780 0.6780 0.6790 0.6800
497.110966 0.6800 0.6830 0.6840 0.6880 0.6930
501.507961 0.6940 0.6950 0.6970 0.6990 0.7010
505.904957 0.7020 0.7030 0.7030 0.7030 0.7030
510.301953 0.7050 0.7050 0.7060 0.7080 0.7090
514.698949 0.7120 0.7140 0.7200 0.7270 0.7310
519.095944 0.7390 0.7460 0.7620 0.7730 0.7780
523.492940 0.7850 0.7950 0.7990 0.8070 0.8140
527.889936 0.8170 0.8180 0.8240 0.8280 0.8320
532.286931 0.8340 0.8360 0.8370 0.8390 0.8400
536.683927 0.8410 0.8410 0.8410 0.8410 0.8430
541.080923 0.8430 0.8410 0.8400 0.8400 0.8400
545.477919 0.8400 0.8400 0.8400 0.8400 0.8400
549.874914 0.8390 0.8390 0.8390 0.8390 0.8390
554.271910 0.8390 0.8390 0.8390 0.8390 0.8390
558.668906 0.8390 0.8390 0.8390 0.8390 0.8390
563.065901 0.8390 0.8390 0.8390 0.8390 0.8390
567.462897 0.8400 0.8390 0.8390 0.8390 0.8390
571.859893 0.8390 0.8400 0.8400 0.8400 0.8410
576.256889 0.8410 0.8410 0.8430 0.8430 0.8430
580.653884 0.8440 0.8440 0.8440 0.8440 0.8440
585.050880 0.8440 0.8450 0.8490 0.8520 0.8540
589.447876 0.8540 0.8550 0.8550 0.8560 0.8560
593.844871 0.8580 0.8580 0.8590 0.8590 0.8600
598.241867 0.8600 0.8600 0.8600 0.8620 0.8620
602.638863 0.8600 0.8600 0.8620 0.8620 0.8630
607.035859 0.8630 0.8640 0.8640 0.8670 0.8690
611.432854 0.8690 0.8700 0.8700 0.8710 0.8710
615.829850 0.8710 0.8710 0.8710 0.8730 0.8730
620.226846 0.8730 0.8730 0.8730 0.8730 0.8730
624.623841 0.8730 0.8730 0.8730 0.8740 0.8740
629.020837 0.8750 0.8750 0.8770 0.8770 0.8770
633.417833 0.8770 0.8770 0.8770 0.8770 0.8780
637.814829 0.8780 0.8780 0.8780 0.8780 0.8790
642.211824 0.8790 0.8790 0.8790 0.8790 0.8810
646.608820 0.8810 0.8790 0.8790 0.8790 0.8790
651.005816 0.8790 0.8780 0.8780 0.8780 0.8780
655.402811 0.8780 0.8780 0.8780 0.8780 0.8770
659.799807 0.8770 0.8770 0.8770 0.8770 0.8780
664.196803 0.8770 0.8770 0.8770 0.8770 0.8770
668.593799 0.8770 0.8770 0.8770 0.8770 0.8770
672.990794 0.8770 0.8770 0.8770 0.8770 0.8770
677.387790 0.8770 0.8770 0.8770 0.8770 0.8770
681.784786 0.8770 0.8750 0.8750 0.8750 0.8750
686.181781 0.8740 0.8740 0.8740 0.8730 0.8730
690.578777 0.8730 0.8710 0.8710 0.8710 0.8700
694.975773 0.8700 0.8700 0.8690 0.8690 0.8690
699.372769 0.8670 0.8670 0.8630 0.8600 0.8590
703.769764 0.8580 0.8560 0.8540 0.8520 0.8510
708.166760 0.8490 0.8490 0.8480 0.8410 0.8360
712.563756 0.8300 0.8260 0.8210 0.8150 0.8110
716.960751 0.7990 0.7920 0.7870 0.7830 0.7800
721.357747 0.7700 0.7690 0.7700 0.7720 0.7740
725.754743 0.7770 0.7840 0.7920 0.7980 0.8170
730.151739 0.8330 0.8440 0.8490 0.8550 0.8590
734.548734 0.8620 0.8640 0.8660 0.8660 0.8660
738.945730 0.8640 0.8640 0.8640 0.8630 0.8620
743.342726 0.8620 0.8600 0.8590 0.8580 0.8580
747.739721 0.8560 0.8540 0.8520 0.8510 0.8490
752.136717 0.8480 0.8470 0.8450 0.8410 0.8390
756.533713 0.8360 0.8330 0.8320 0.8300 0.8280
760.930709 0.8220 0.8180 0.8150 0.8140 0.8110
765.327704 0.8090 0.8040 0.8020 0.7990 0.7960
769.724700 0.7950 0.7950 0.7930 0.7890 0.7850
774.121696 0.7830 0.7780 0.7740 0.7531 0.7321
778.518691 0.7250 0.7180 0.7130 0.7060 0.6830
782.915687 0.6640 0.6381 0.5493 0.5151 0.4811
787.312683 0.4660 0.4470 0.4290 0.4100 0.3870
791.709679 0.3840 0.3830 0.3830 0.3830 0.3840
796.106674 0.3840 0.3860 0.3900 0.4070 0.4250
800.503670 0.4839 0.4960 0.5379 0.5808 0.5830
804.900666 0.6221 0.6680 0.7010 0.7390 0.7610
809.297661 0.7850 0.8100 0.8330 0.8549 0.8590
813.694657 0.8630 0.8670 0.8770 0.8810 0.8920
818.091653 0.8930 0.8940 0.8960 0.9030 0.9070
822.488649 0.9090 0.9120 0.9120 0.9140 0.9150
826.885644 0.9160 0.9180 0.9180 0.9190 0.9190
831.282640 0.9200 0.9230 0.9230 0.9230 0.9240
835.679636 0.9240 0.9260 0.9260 0.9270 0.9270
840.076631 0.9270 0.9270 0.9270 0.9270 0.9270
844.473627 0.9270 0.9290 0.9270 0.9270 0.9270
848.870623 0.9270 0.9270 0.9270 0.9270 0.9270
853.267619 0.9270 0.9270 0.9290 0.9290 0.9290
857.664614 0.9290 0.9300 0.9300 0.9310 0.9310
862.061610 0.9330 0.9330 0.9330 0.9340 0.9340
866.458606 0.9340 0.9340 0.9340 0.9350 0.9350
870.855601 0.9340 0.9330 0.9330 0.9310 0.9310
875.252597 0.9330 0.9310 0.9310 0.9300 0.9300
879.649593 0.9290 0.9290 0.9270 0.9270 0.9260
884.046589 0.9260 0.9220 0.9200 0.9190 0.9190
888.443584 0.9180 0.9180 0.9160 0.9150 0.9150
892.840580 0.9140 0.9120 0.9120 0.9110 0.9110
897.237576 0.9090 0.9090 0.9090 0.9090 0.9090
901.634571 0.9090 0.9090 0.9090 0.9110 0.9110
906.031567 0.9110 0.9120 0.9120 0.9140 0.9140
910.428563 0.9140 0.9140 0.9150 0.9150 0.9150
914.825559 0.9150 0.9150 0.9160 0.9160 0.9160
919.222554 0.9160 0.9180 0.9180 0.9180 0.9180
923.619550 0.9190 0.9190 0.9190 0.9190 0.9200
928.016546 0.9190 0.9190 0.9190 0.9190 0.9190
932.413541 0.9190 0.9190 0.9190 0.9190 0.9190
936.810537 0.9190 0.9190 0.9190 0.9190 0.9180
941.207533 0.9180 0.9180 0.9180 0.9180 0.9180
945.604529 0.9180 0.9180 0.9180 0.9180 0.9180
950.001524 0.9180 0.9160 0.9160 0.9160 0.9160
954.398520 0.9150 0.9150 0.9150 0.9140 0.9140
958.795516 0.9140 0.9140 0.9120 0.9120 0.9110
963.192511 0.9110 0.9110 0.9110 0.9110 0.9090
967.589507 0.9090 0.9090 0.9090 0.9090 0.9110
971.986503 0.9120 0.9110 0.9110 0.9110 0.9120
976.383499 0.9120 0.9140 0.9140 0.9160 0.9180
980.780494 0.9180 0.9190 0.9200 0.9200 0.9220
985.177490 0.9220 0.9220 0.9230 0.9230 0.9230
989.574486 0.9230 0.9230 0.9230 0.9240 0.9240
993.971481 0.9240 0.9240 0.9240 0.9240 0.9240
998.368477 0.9240 0.9240 0.9240 0.9240 0.9240
1002.765473 0.9240 0.9230 0.9230 0.9230 0.9230
1007.162469 0.9220 0.9220 0.9220 0.9200 0.9200
1011.559464 0.9190 0.9180 0.9160 0.9140 0.9140
1015.956460 0.9140 0.9140 0.9140 0.9140 0.9140
1020.353456 0.9140 0.9140 0.9150 0.9140 0.9140
1024.750451 0.9140 0.9140 0.9140 0.9120 0.9120
1029.147447 0.9120 0.9120 0.9120 0.9120 0.9090
1033.544443 0.9110 0.9090 0.9080 0.9080 0.9080
1037.941439 0.9080 0.9070 0.9070 0.9070 0.9050
1042.338434 0.9050 0.9050 0.9050 0.9050 0.9050
1046.735430 0.9050 0.9050 0.9050 0.9050 0.9050
1051.132426 0.9050 0.9040 0.9040 0.9030 0.9030
1055.529421 0.9010 0.9010 0.9000 0.9000 0.9000
1059.926417 0.9000 0.8990 0.8990 0.8970 0.8960
1064.323413 0.8930 0.8930 0.8930 0.8930 0.8930
1068.720409 0.8930 0.8930 0.8930 0.8930 0.8940
1073.117404 0.8940 0.8930 0.8930 0.8930 0.8920
1077.514400 0.8920 0.8920 0.8920 0.8900 0.8880
1081.911396 0.8860 0.8850 0.8850 0.8850 0.8840
1086.308391 0.8840 0.8840 0.8820 0.8820 0.8820
1090.705387 0.8820 0.8820 0.8810 0.8810 0.8810
1095.102383 0.8790 0.8790 0.8790 0.8790 0.8790
1099.499379 0.8790 0.8780 0.8780 0.8780 0.8780
1103.896374 0.8780 0.8780 0.8770 0.8770 0.8770
1108.293370 0.8750 0.8750 0.8740 0.8740 0.8730
1112.690366 0.8710 0.8700 0.8700 0.8700 0.8690
1117.087361 0.8690 0.8670 0.8660 0.8660 0.8640
1121.484357 0.8640 0.8640 0.8640 0.8640 0.8640
1125.881353 0.8640 0.8640 0.8660 0.8640 0.8640
1130.278349 0.8640 0.8640 0.8640 0.8660 0.8660
1134.675344 0.8660 0.8660 0.8660 0.8660 0.8660
1139.072340 0.8660 0.8660 0.8660 0.8640 0.8630
1143.469336 0.8620 0.8590 0.8580 0.8560 0.8550
1147.866331 0.8520 0.8520 0.8510 0.8510 0.8510
1152.263327 0.8510 0.8490 0.8490 0.8490 0.8490
1156.660323 0.8490 0.8490 0.8470 0.8450 0.8450
1161.057319 0.8450 0.8450 0.8440 0.8440 0.8430
1165.454314 0.8410 0.8410 0.8400 0.8400 0.8390
1169.851310 0.8390 0.8390 0.8390 0.8390 0.8390
1174.248306 0.8390 0.8390 0.8390 0.8400 0.8410
1178.645301 0.8410 0.8410 0.8410 0.8400 0.8360
1183.042297 0.8330 0.8320 0.8300 0.8290 0.8280
1187.439293 0.8260 0.8250 0.8240 0.8220 0.8210
1191.836289 0.8190 0.8180 0.8170 0.8150 0.8140
1196.233284 0.8140 0.8130 0.8110 0.8110 0.8110
1200.630280 0.8100 0.8110 0.8100 0.8070 0.8060
1205.027276 0.8060 0.8030 0.8020 0.8000 0.8000
1209.424271 0.7990 0.7980 0.7950 0.7980 0.7950
1213.821267 0.7930 0.7930 0.7930 0.7910 0.7870
1218.218263 0.7850 0.7850 0.7840 0.7830 0.7810
1222.615258 0.7800 0.7780 0.7770 0.7770 0.7760
1227.012254 0.7740 0.7740 0.7690 0.7660 0.7650
1231.409250 0.7630 0.7610 0.7590 0.7580 0.7570
1235.806246 0.7530 0.7500 0.7480 0.7460 0.7440
1240.203241 0.7430 0.7420 0.7390 0.7330 0.7310
1244.600237 0.7290 0.7270 0.7250 0.7240 0.7200
1248.997233 0.7170 0.7160 0.7140 0.7120 0.7080
1253.394228 0.7050 0.6990 0.6970 0.6930 0.6910
1257.791224 0.6840 0.6820 0.6780 0.6760 0.6730
1262.188220 0.6690 0.6670 0.6650 0.6630 0.6610
1266.585216 0.6600 0.6600 0.6600 0.6600 0.6600
1270.982211 0.6610 0.6630 0.6640 0.6670 0.6680
1275.379207 0.6680 0.6690 0.6710 0.6710 0.6720
1279.776203 0.6720 0.6720 0.6710 0.6690 0.6680
1284.173198 0.6650 0.6630 0.6600 0.6570 0.6520
1288.570194 0.6480 0.6430 0.6330 0.6280 0.6190
1292.967190 0.6090 0.5960 0.5890 0.5740 0.5361
1297.364186 0.5140 0.4989 0.4460 0.4310 0.4130
1301.761181 0.3950 0.3760 0.3580 0.3360 0.3260
1306.158177 0.3060 0.2980 0.2850 0.2750 0.2670
1310.555173 0.2590 0.2510 0.2480 0.2460 0.2450
1314.952168 0.2460 0.2480 0.2660 0.2820 0.3000
1319.349164 0.3130 0.3640 0.4159 0.4609 0.4929
1323.746160 0.5061 0.5360 0.5550 0.5720 0.5920
1328.143156 0.6180 0.6460 0.6640 0.6680 0.6780
1332.540151 0.6900 0.6930 0.6950 0.6970 0.6970
1336.937147 0.6970 0.6970 0.6970 0.6950 0.6940
1341.334143 0.6940 0.6950 0.6970 0.6990 0.7010
1345.731138 0.7010 0.7010 0.7010 0.7010 0.7010
1350.128134 0.6990 0.6990 0.6980 0.6980 0.6950
1354.525130 0.6940 0.6910 0.6900 0.6880 0.6860
1358.922126 0.6830 0.6830 0.6820 0.6800 0.6800
1363.319121 0.6820 0.6830 0.6830 0.6840 0.6860
1367.716117 0.6870 0.6870 0.6900 0.6930 0.6950
1372.113113 0.6980 0.7030 0.7080 0.7090 0.7130
1376.510108 0.7230 0.7250 0.7330 0.7420 0.7470
1380.907104 0.7530 0.7760 0.7950 0.8020 0.8060
1385.304100 0.8090 0.8090 0.8060 0.8040 0.8030
1389.701096 0.8000 0.7990 0.7960 0.7930 0.7890
1394.098091 0.7870 0.7780 0.7740 0.7730 0.7650
1398.495087 0.7610 0.7570 0.7540 0.7460 0.7400
1402.892083 0.7320 0.7240 0.7180 0.7080 0.7060
1407.289078 0.6990 0.6930 0.6830 0.6750 0.6720
1411.686074 0.6640 0.6600 0.6520 0.6480 0.6430
1416.083070 0.6410 0.6340 0.6270 0.6240 0.6220
1420.480066 0.6180 0.6150 0.6110 0.6070 0.6050
1424.877061 0.6050 0.6070 0.6130 0.6190 0.6220
1429.274057 0.6240 0.6340 0.6370 0.6390 0.6490
1433.671053 0.6500 0.6630 0.6650 0.6690 0.6720
1438.068048 0.6730 0.6800 0.6820 0.6830 0.6840
1442.465044 0.6840 0.6830 0.6830 0.6830 0.6830
1446.862040 0.6820 0.6800 0.6790 0.6760 0.6750
1451.259036 0.6710 0.6670 0.6630 0.6580 0.6490
1455.656031 0.6460 0.6450 0.6380 0.6280 0.6260
1460.053027 0.6240 0.6230 0.6220 0.6220 0.6220
1464.450023 0.6220 0.6230 0.6230 0.6260 0.6330
1468.847018 0.6350 0.6380 0.6410 0.6450 0.6500
1473.244014 0.6560 0.6630 0.6750 0.6800 0.6900
1477.641010 0.6930 0.7050 0.7090 0.7200 0.7250
1482.038006 0.7330 0.7420 0.7500 0.7570 0.7580
1486.435001 0.7620 0.7650 0.7700 0.7720 0.7730
1490.831997 0.7740 0.7770 0.7770 0.7780 0.7780
1495.228993 0.7780 0.7780 0.7780 0.7780 0.7780
1499.625988 0.7780 0.7780 0.7770 0.7770 0.7760
1504.022984 0.7740 0.7740 0.7740 0.7720 0.7700
1508.419980 0.7680 0.7660 0.7630 0.7620 0.7610
1512.816976 0.7580 0.7580 0.7550 0.7540 0.7510
1517.213971 0.7480 0.7470 0.7440 0.7420 0.7390
1521.610967 0.7360 0.7330 0.7280 0.7250 0.7240
1526.007963 0.7230 0.7170 0.7140 0.7120 0.7080
1530.404958 0.7060 0.7050 0.7010 0.6970 0.6940
1534.801954 0.6910 0.6900 0.6900 0.6830 0.6790
1539.198950 0.6750 0.6750 0.6720 0.6680 0.6630
1543.595946 0.6580 0.6540 0.6480 0.6460 0.6450
1547.992941 0.6430 0.6370 0.6310 0.6310 0.6280
1552.389937 0.6240 0.6200 0.6160 0.6130 0.6080
1556.786933 0.6030 0.6000 0.5890 0.5870 0.5780
1561.183928 0.5750 0.5660 0.5490 0.5400 0.5370
1565.580924 0.5330 0.5250 0.5180 0.5030 0.4990
1569.977920 0.4880 0.4800 0.4720 0.4570 0.4440
1574.374916 0.4430 0.4350 0.4270 0.4220 0.4140
1578.771911 0.4050 0.3990 0.3900 0.3790 0.3650
1583.168907 0.3530 0.3410 0.3280 0.3170 0.3060
1587.565903 0.2970 0.2870 0.2760 0.2660 0.2550
1591.962898 0.2420 0.2270 0.2110 0.2040 0.1990
1596.359894 0.1950 0.1900 0.1880 0.1860 0.1810
1600.756890 0.1740 0.1620 0.1510 0.1410 0.1350
1605.153886 0.1280 0.1240 0.1180 0.1140 0.1070
1609.550881 0.1050 0.0960 0.0880 0.0840 0.0810
1613.947877 0.0810 0.0790 0.0760 0.0700 0.0650
1618.344873 0.0640 0.0610 0.0580 0.0550 0.0510
1622.741868 0.0490 0.0460 0.0430 0.0420 0.0400
1627.138864 0.0390 0.0390 0.0380 0.0360 0.0360
1631.535860 0.0360 0.0360 0.0360 0.0360 0.0380
1635.932856 0.0380 0.0380 0.0390 0.0390 0.0400
1640.329851 0.0400 0.0420 0.0420 0.0430 0.0450
1644.726847 0.0450 0.0470 0.0490 0.0500 0.0510
1649.123843 0.0530 0.0540 0.0570 0.0600 0.0620
1653.520838 0.0640 0.0650 0.0680 0.0730 0.0750
1657.917834 0.0760 0.0800 0.0810 0.0910 0.0990
1662.314830 0.1020 0.1050 0.1100 0.1140 0.1180
1666.711826 0.1240 0.1280 0.1320 0.1370 0.1390
1671.108821 0.1470 0.1590 0.1710 0.1810 0.1810
1675.505817 0.1840 0.1880 0.1950 0.2000 0.2060
1679.902813 0.2070 0.2180 0.2270 0.2330 0.2380
1684.299808 0.2410 0.2440 0.2460 0.2490 0.2520
1688.696804 0.2550 0.2560 0.2570 0.2640 0.2760
1693.093800 0.2850 0.2870 0.2910 0.2940 0.2980
1697.490796 0.3020 0.3060 0.3120 0.3210 0.3310
1701.887791 0.3410 0.3490 0.3540 0.3560 0.3600
1706.284787 0.3610 0.3660 0.3690 0.3720 0.3760
1710.681783 0.3800 0.3860 0.3920 0.4010 0.4070
1715.078778 0.4160 0.4250 0.4330 0.4420 0.4500
1719.475774 0.4630 0.4700 0.4820 0.4960 0.5060
1723.872770 0.5150 0.5250 0.5360 0.5480 0.5530
1728.269766 0.5570 0.5620 0.5740 0.5860 0.5870
1732.666761 0.5980 0.6080 0.6160 0.6270 0.6300
1737.063757 0.6370 0.6450 0.6490 0.6540 0.6650
1741.460753 0.6730 0.6780 0.6840 0.6900 0.6910
1745.857748 0.6950 0.6980 0.7010 0.7080 0.7100
1750.254744 0.7170 0.7210 0.7250 0.7280 0.7320
1754.651740 0.7360 0.7400 0.7420 0.7440 0.7480
1759.048736 0.7510 0.7570 0.7570 0.7590 0.7630
1763.445731 0.7650 0.7700 0.7740 0.7760 0.7780
1767.842727 0.7800 0.7830 0.7850 0.7920 0.7930
1772.239723 0.7930 0.7960 0.7990 0.8000 0.8020
1776.636718 0.8030 0.8060 0.8070 0.8110 0.8130
1781.033714 0.8140 0.8150 0.8180 0.8190 0.8210
1785.430710 0.8220 0.8240 0.8250 0.8300 0.8300
1789.827706 0.8320 0.8330 0.8340 0.8370 0.8390
1794.224701 0.8410 0.8440 0.8440 0.8480 0.8490
1798.621697 0.8490 0.8510 0.8520 0.8540 0.8550
1803.018693 0.8560 0.8580 0.8590 0.8600 0.8600
1807.415688 0.8620 0.8630 0.8640 0.8660 0.8690
1811.812684 0.8670 0.8690 0.8700 0.8710 0.8710
1816.209680 0.8730 0.8740 0.8750 0.8770 0.8780
1820.606676 0.8790 0.8810 0.8820 0.8820 0.8840
1825.003671 0.8850 0.8850 0.8860 0.8880 0.8880
1829.400667 0.8890 0.8900 0.8900 0.8920 0.8920
1833.797663 0.8920 0.8930 0.8930 0.8930 0.8940
1838.194658 0.8940 0.8940 0.8940 0.8960 0.8960
1842.591654 0.8970 0.8990 0.9000 0.9000 0.9000
1846.988650 0.9010 0.9010 0.9030 0.9040 0.9050
1851.385646 0.9050 0.9050 0.9070 0.9080 0.9080
1855.782641 0.9090 0.9090 0.9090 0.9090 0.9090
1860.179637 0.9090 0.9090 0.9110 0.9110 0.9110
1864.576633 0.9120 0.9120 0.9120 0.9120 0.9120
1868.973628 0.9120 0.9120 0.9120 0.9120 0.9120
1873.370624 0.9140 0.9140 0.9120 0.9120 0.9120
1877.767620 0.9120 0.9120 0.9120 0.9120 0.9120
1882.164616 0.9120 0.9120 0.9110 0.9110 0.9110
1886.561611 0.9110 0.9110 0.9110 0.9110 0.9110
1890.958607 0.9110 0.9110 0.9110 0.9110 0.9110
1895.355603 0.9110 0.9120 0.9120 0.9120 0.9120
1899.752598 0.9120 0.9120 0.9140 0.9140 0.9150
1904.149594 0.9150 0.9160 0.9150 0.9180 0.9180
1908.546590 0.9190 0.9190 0.9190 0.9190 0.9200
1912.943586 0.9200 0.9220 0.9230 0.9230 0.9240
1917.340581 0.9260 0.9240 0.9260 0.9290 0.9290
1921.737577 0.9290 0.9300 0.9300 0.9310 0.9310
1926.134573 0.9330 0.9330 0.9340 0.9340 0.9340
1930.531568 0.9350 0.9370 0.9370 0.9380 0.9380
1934.928564 0.9380 0.9380 0.9380 0.9380 0.9390
1939.325560 0.9390 0.9390 0.9390 0.9410 0.9410
1943.722556 0.9410 0.9420 0.9420 0.9420 0.9420
1948.119551 0.9440 0.9440 0.9450 0.9450 0.9460
1952.516547 0.9460 0.9460 0.9460 0.9460 0.9460
1956.913543 0.9460 0.9460 0.9480 0.9490 0.9530
1961.310538 0.9560 0.9600 0.9600 0.9570 0.9520
1965.707534 0.9500 0.9450 0.9450 0.9440 0.9420
1970.104530 0.9410 0.9410 0.9410 0.9410 0.9410
1974.501526 0.9420 0.9440 0.9440 0.9450 0.9460
1978.898521 0.9490 0.9530 0.9530 0.9530 0.9530
1983.295517 0.9540 0.9540 0.9530 0.9530 0.9530
1987.692513 0.9530 0.9530 0.9530 0.9530 0.9530
1992.089508 0.9530 0.9530 0.9530 0.9530 0.9530
1996.486504 0.9530 0.9530 0.9530 0.9530 0.9530
2000.883500 0.9525 0.9520 0.9525 0.9530 0.9530
2005.280496 0.9530 0.9535 0.9540 0.9540 0.9540
2009.677491 0.9540 0.9540 0.9540 0.9540 0.9534
2014.074487 0.9530 0.9530 0.9531 0.9536 0.9540
2018.471483 0.9540 0.9540 0.9540 0.9540 0.9540
2022.868478 0.9540 0.9540 0.9540 0.9540 0.9540
2027.265474 0.9540 0.9540 0.9540 0.9540 0.9540
2031.662470 0.9540 0.9540 0.9543 0.9553 0.9562
2036.059466 0.9567 0.9573 0.9583 0.9590 0.9590
2040.456461 0.9590 0.9590 0.9590 0.9590 0.9590
2044.853457 0.9590 0.9586 0.9576 0.9570 0.9570
2049.250453 0.9570 0.9570 0.9570 0.9570 0.9568
2053.647448 0.9563 0.9562 0.9567 0.9568 0.9563
2058.044444 0.9560 0.9560 0.9560 0.9560 0.9555
2062.441440 0.9545 0.9540 0.9540 0.9540 0.9540
2066.838436 0.9540 0.9540 0.9546 0.9556 0.9560
2071.235431 0.9560 0.9560 0.9560 0.9554 0.9544
2075.632427 0.9540 0.9540 0.9540 0.9540 0.9540
2080.029423 0.9540 0.9540 0.9540 0.9540 0.9540
2084.426418 0.9540 0.9540 0.9540 0.9540 0.9540
2088.823414 0.9540 0.9540 0.9540 0.9540 0.9540
2093.220410 0.9540 0.9540 0.9540 0.9540 0.9540
2097.617406 0.9540 0.9540 0.9540 0.9540 0.9540
2102.014401 0.9540 0.9540 0.9549 0.9559 0.9560
2106.411397 0.9560 0.9551 0.9541 0.9540 0.9540
2110.808393 0.9540 0.9540 0.9540 0.9540 0.9540
2115.205388 0.9540 0.9540 0.9540 0.9540 0.9540
2119.602384 0.9540 0.9540 0.9540 0.9540 0.9535
2123.999380 0.9530 0.9530 0.9530 0.9530 0.9530
2128.396376 0.9530 0.9530 0.9530 0.9530 0.9530
2132.793371 0.9530 0.9530 0.9529 0.9524 0.9520
2137.190367 0.9520 0.9520 0.9520 0.9520 0.9520
2141.587363 0.9520 0.9520 0.9520 0.9520 0.9520
2145.984358 0.9520 0.9520 0.9520 0.9520 0.9520
2150.381354 0.9520 0.9520 0.9520 0.9520 0.9520
2154.778350 0.9520 0.9517 0.9507 0.9500 0.9500
2159.175346 0.9500 0.9500 0.9500 0.9500 0.9500
2163.572341 0.9500 0.9500 0.9500 0.9498 0.9493
2167.969337 0.9490 0.9490 0.9490 0.9490 0.9490
2172.366333 0.9490 0.9490 0.9490 0.9490 0.9490
2176.763328 0.9487 0.9482 0.9480 0.9480 0.9480
2181.160324 0.9480 0.9480 0.9480 0.9474 0.9464
2185.557320 0.9460 0.9460 0.9460 0.9460 0.9460
2189.954316 0.9460 0.9457 0.9452 0.9450 0.9450
2194.351311 0.9450 0.9450 0.9447 0.9442 0.9440
2198.748307 0.9440 0.9440 0.9440 0.9440 0.9440
2203.145303 0.9433 0.9423 0.9420 0.9420 0.9420
2207.542298 0.9420 0.9416 0.9411 0.9410 0.9410
2211.939294 0.9402 0.9392 0.9390 0.9390 0.9390
2216.336290 0.9390 0.9390 0.9390 0.9390 0.9390
2220.733286 0.9386 0.9381 0.9380 0.9380 0.9375
2225.130281 0.9370 0.9370 0.9370 0.9360 0.9350
2229.527277 0.9350 0.9350 0.9345 0.9340 0.9340
2233.924273 0.9340 0.9335 0.9330 0.9330 0.9330
2238.321268 0.9320 0.9310 0.9310 0.9310 0.9305
2242.718264 0.9300 0.9300 0.9298 0.9283 0.9270
2247.115260 0.9270 0.9269 0.9264 0.9260 0.9260
2251.512256 0.9258 0.9248 0.9240 0.9240 0.9239
2255.909251 0.9234 0.9230 0.9230 0.9229 0.9224
2260.306247 0.9220 0.9220 0.9217 0.9207 0.9200
2264.703243 0.9200 0.9199 0.9194 0.9189 0.9184
2269.100238 0.9180 0.9180 0.9180 0.9180 0.9180
2273.497234 0.9180 0.9180 0.9180 0.9180 0.9180
2277.894230 0.9180 0.9180 0.9176 0.9166 0.9160
2282.291226 0.9160 0.9160 0.9160 0.9160 0.9160
2286.688221 0.9160 0.9160 0.9158 0.9153 0.9150
2291.085217 0.9150 0.9150 0.9150 0.9150 0.9150
2295.482213 0.9150 0.9150 0.9150 0.9150 0.9150
2299.879208 0.9150 0.9150 0.9150 0.9150 0.9150
2304.276204 0.9150 0.9150 0.9150 0.9150 0.9150
2308.673200 0.9150 0.9150 0.9150 0.9150 0.9150
2313.070196 0.9150 0.9150 0.9150 0.9150 0.9150
2317.467191 0.9150 0.9150 0.9150 0.9150 0.9150
2321.864187 0.9150 0.9150 0.9150 0.9150 0.9150
2326.261183 0.9150 0.9150 0.9150 0.9150 0.9150
2330.658178 0.9150 0.9150 0.9150 0.9150 0.9150
2335.055174 0.9150 0.9150 0.9150 0.9150 0.9150
2339.452170 0.9155 0.9160 0.9160 0.9160 0.9160
2343.849166 0.9160 0.9160 0.9160 0.9160 0.9160
2348.246161 0.9160 0.9160 0.9170 0.9180 0.9185
2352.643157 0.9190 0.9195 0.9200 0.9210 0.9220
2357.040153 0.9225 0.9230 0.9230 0.9230 0.9235
2361.437148 0.9241 0.9251 0.9260 0.9260 0.9260
2365.834144 0.9260 0.9260 0.9260 0.9260 0.9260
2370.231140 0.9260 0.9260 0.9260 0.9260 0.9260
2374.628136 0.9260 0.9260 0.9260 0.9260 0.9260
2379.025131 0.9260 0.9260 0.9260 0.9260 0.9260
2383.422127 0.9260 0.9260 0.9260 0.9260 0.9260
2387.819123 0.9260 0.9260 0.9260 0.9260 0.9262
2392.216118 0.9267 0.9274 0.9284 0.9292 0.9297
2396.613114 0.9302 0.9307 0.9310 0.9310 0.9310
2401.010110 0.9310 0.9310 0.9310 0.9310 0.9310
2405.407106 0.9310 0.9310 0.9310 0.9310 0.9310
2409.804101 0.9310 0.9310 0.9310 0.9310 0.9310
2414.201097 0.9310 0.9310 0.9310 0.9310 0.9310
2418.598093 0.9310 0.9310 0.9310 0.9310 0.9310
2422.995088 0.9310 0.9310 0.9310 0.9310 0.9310
2427.392084 0.9310 0.9310 0.9310 0.9310 0.9310
2431.789080 0.9310 0.9310 0.9310 0.9310 0.9310
2436.186076 0.9310 0.9310 0.9310 0.9310 0.9310
2440.583071 0.9310 0.9310 0.9306 0.9301 0.9300
2444.980067 0.9300 0.9300 0.9300 0.9300 0.9300
2449.377063 0.9300 0.9300 0.9300 0.9300 0.9300
2453.774058 0.9300 0.9300 0.9300 0.9300 0.9300
2458.171054 0.9300 0.9300 0.9295 0.9290 0.9290
2462.568050 0.9290 0.9290 0.9290 0.9290 0.9290
2466.965046 0.9290 0.9290 0.9290 0.9290 0.9280
2471.362041 0.9270 0.9270 0.9270 0.9270 0.9270
2475.759037 0.9270 0.9270 0.9270 0.9270 0.9270
2480.156033 0.9269 0.9264 0.9260 0.9260 0.9259
2484.553028 0.9249 0.9240 0.9240 0.9240 0.9240
2488.950024 0.9240 0.9240 0.9240 0.9240 0.9240
2493.347020 0.9240 0.9240 0.9240 0.9242 0.9253
2497.744016 0.9260 0.9260 0.9260 0.9260 0.9260
2502.141011 0.9260 0.9260 0.9260 0.9260 0.9260
2506.538007 0.9260 0.9260 0.9260 0.9260 0.9260
2510.935003 0.9260 0.9256 0.9246 0.9240 0.9240
2515.331998 0.9240 0.9240 0.9240 0.9240 0.9240
2519.728994 0.9240 0.9240 0.9240 0.9240 0.9240
2524.125990 0.9240 0.9240 0.9237 0.9232 0.9230
2528.522986 0.9230 0.9230 0.9230 0.9230 0.9230
2532.919981 0.9227 0.9222 0.9220 0.9220 0.9220
2537.316977 0.9220 0.9220 0.9220 0.9220 0.9220
2541.713973 0.9223 0.9228 0.9230 0.9230 0.9227
2546.110968 0.9222 0.9220 0.9220 0.9220 0.9220
2550.507964 0.9220 0.9220 0.9220 0.9220 0.9220
2554.904960 0.9220 0.9220 0.9220 0.9220 0.9220
2559.301956 0.9220 0.9220 0.9220 0.9220 0.9212
2563.698951 0.9202 0.9200 0.9200 0.9200 0.9200
2568.095947 0.9200 0.9200 0.9200 0.9200 0.9209
2572.492943 0.9219 0.9211 0.9201 0.9200 0.9200
2576.889938 0.9200 0.9200 0.9200 0.9200 0.9200
2581.286934 0.9200 0.9200 0.9200 0.9195 0.9190
2585.683930 0.9190 0.9190 0.9190 0.9190 0.9190
2590.080926 0.9190 0.9185 0.9180 0.9180 0.9179
2594.477921 0.9169 0.9159 0.9154 0.9150 0.9150
2598.874917 0.9150 0.9150 0.9149 0.9144 0.9140
2603.271913 0.9140 0.9138 0.9128 0.9120 0.9120
2607.668908 0.9120 0.9120 0.9120 0.9120 0.9120
2612.065904 0.9120 0.9120 0.9120 0.9120 0.9120
2616.462900 0.9120 0.9120 0.9120 0.9120 0.9118
2620.859896 0.9113 0.9110 0.9110 0.9110 0.9110
2625.256891 0.9110 0.9110 0.9110 0.9110 0.9110
2629.653887 0.9110 0.9110 0.9110 0.9106 0.9096
2634.050883 0.9090 0.9090 0.9090 0.9090 0.9090
2638.447878 0.9090 0.9088 0.9083 0.9080 0.9080
2642.844874 0.9080 0.9080 0.9077 0.9072 0.9070
2647.241870 0.9070 0.9064 0.9054 0.9050 0.9050
2651.638866 0.9050 0.9050 0.9047 0.9042 0.9040
2656.035861 0.9040 0.9037 0.9032 0.9030 0.9030
2660.432857 0.9023 0.9013 0.9010 0.9010 0.9010
2664.829853 0.9010 0.9006 0.9001 0.9000 0.9000
2669.226848 0.8996 0.8991 0.8983 0.8972 0.8970
2673.623844 0.8970 0.8970 0.8970 0.8966 0.8961
2678.020840 0.8960 0.8960 0.8960 0.8960 0.8952
2682.417836 0.8941 0.8940 0.8940 0.8936 0.8931
2686.814831 0.8930 0.8930 0.8930 0.8930 0.8925
2691.211827 0.8920 0.8911 0.8901 0.8900 0.8900
2695.608823 0.8900 0.8900 0.8895 0.8890 0.8890
2700.005818 0.8890 0.8890 0.8890 0.8885 0.8880
2704.402814 0.8880 0.8880 0.8880 0.8879 0.8869
2708.799810 0.8860 0.8860 0.8860 0.8860 0.8860
2713.196805 0.8854 0.8849 0.8844 0.8840 0.8840
2717.593801 0.8838 0.8828 0.8820 0.8820 0.8819
2721.990797 0.8814 0.8810 0.8810 0.8808 0.8798
2726.387793 0.8790 0.8790 0.8789 0.8784 0.8780
2730.784788 0.8780 0.8779 0.8774 0.8770 0.8770
2735.181784 0.8767 0.8757 0.8750 0.8750 0.8748
2739.578780 0.8743 0.8740 0.8740 0.8738 0.8733
2743.975775 0.8730 0.8730 0.8726 0.8716 0.8708
2748.372771 0.8703 0.8700 0.8700 0.8698 0.8693
2752.769767 0.8690 0.8690 0.8683 0.8668 0.8655
2757.166763 0.8645 0.8638 0.8632 0.8627 0.8622
2761.563758 0.8615 0.8605 0.8597 0.8592 0.8587
2765.960754 0.8582 0.8574 0.8564 0.8554 0.8544
2770.357750 0.8531 0.8516 0.8510 0.8510 0.8504
2774.754745 0.8494 0.8490 0.8490 0.8487 0.8482
2779.151741 0.8480 0.8480 0.8477 0.8472 0.8463
2783.548737 0.8453 0.8446 0.8441 0.8436 0.8431
2787.945733 0.8422 0.8412 0.8406 0.8401 0.8396
2792.342728 0.8391 0.8382 0.8372 0.8366 0.8361
2796.739724 0.8348 0.8333 0.8330 0.8330 0.8326
2801.136720 0.8321 0.8311 0.8301 0.8296 0.8290
2805.533715 0.8290 0.8290 0.8285 0.8280 0.8266
2809.930711 0.8251 0.8250 0.8250 0.8245 0.8240
2814.327707 0.8230 0.8220 0.8215 0.8210 0.8210
2818.724703 0.8210 0.8200 0.8190 0.8185 0.8180
2823.121698 0.8175 0.8169 0.8159 0.8150 0.8150
2827.518694 0.8150 0.8145 0.8139 0.8134 0.8128
2831.915690 0.8113 0.8100 0.8100 0.8100 0.8100
2836.312685 0.8100 0.8100 0.8099 0.8094 0.8088
2840.709681 0.8078 0.8067 0.8052 0.8040 0.8040
2845.106677 0.8039 0.8034 0.8026 0.8011 0.7999
2849.503673 0.7994 0.7986 0.7971 0.7956 0.7940
2853.900668 0.7924 0.7903 0.7888 0.7883 0.7880
2858.297664 0.7880 0.7875 0.7859 0.7848 0.7843
2862.694660 0.7838 0.7833 0.7830 0.7830 0.7830
2867.091655 0.7830 0.7832 0.7837 0.7842 0.7847
2871.488651 0.7855 0.7865 0.7872 0.7877 0.7888
2875.885647 0.7903 0.7913 0.7918 0.7923 0.7928
2880.282643 0.7930 0.7930 0.7930 0.7930 0.7930
2884.679638 0.7930 0.7930 0.7930 0.7927 0.7922
2889.076634 0.7917 0.7912 0.7904 0.7894 0.7887
2893.473630 0.7882 0.7877 0.7872 0.7870 0.7870
2897.870625 0.7863 0.7853 0.7843 0.7833 0.7819
2902.267621 0.7804 0.7789 0.7774 0.7759 0.7744
2906.664617 0.7740 0.7740 0.7736 0.7731 0.7718
2911.061613 0.7703 0.7692 0.7682 0.7672 0.7662
2915.458608 0.7656 0.7651 0.7641 0.7631 0.7613
2919.855604 0.7592 0.7586 0.7581 0.7567 0.7551
2924.252600 0.7532 0.7511 0.7505 0.7500 0.7490
2928.649595 0.7480 0.7475 0.7470 0.7465 0.7460
2933.046591 0.7460 0.7460 0.7450 0.7440 0.7440
2937.443587 0.7440 0.7435 0.7430 0.7430 0.7430
2941.840583 0.7425 0.7420 0.7420 0.7419 0.7409
2946.237578 0.7400 0.7400 0.7399 0.7394 0.7389
2950.634574 0.7384 0.7378 0.7368 0.7359 0.7354
2955.031570 0.7348 0.7338 0.7328 0.7318 0.7306
2959.428565 0.7286 0.7266 0.7251 0.7236 0.7221
2963.825561 0.7210 0.7210 0.7209 0.7204 0.7197
2968.222557 0.7187 0.7178 0.7173 0.7165 0.7150
2972.619553 0.7138 0.7133 0.7128 0.7123 0.7115
2977.016548 0.7099 0.7084 0.7069 0.7060 0.7060
2981.413544 0.7058 0.7053 0.7050 0.7050 0.7050
2985.810540 0.7050 0.7045 0.7035 0.7028 0.7023
2990.207535 0.7013 0.6998 0.6988 0.6983 0.6977
2994.604531 0.6972 0.6965 0.6955 0.6947 0.6942
2999.001527 0.6940 0.6940 0.6937 0.6932 0.6924
3003.398523 0.6914 0.6901 0.6886 0.6877 0.6872
3007.795518 0.6867 0.6862 0.6860 0.6860 0.6853
3012.192514 0.6843 0.6837 0.6832 0.6826 0.6821
3016.589510 0.6813 0.6803 0.6796 0.6791 0.6786
3020.986505 0.6781 0.6769 0.6754 0.6750 0.6750
3025.383501 0.6750 0.6750 0.6742 0.6732 0.6730
3029.780497 0.6730 0.6730 0.6730 0.6726 0.6721
3034.177493 0.6720 0.6720 0.6720 0.6720 0.6720
3038.574488 0.6720 0.6715 0.6710 0.6710 0.6710
3042.971484 0.6710 0.6710 0.6701 0.6690 0.6690
3047.368480 0.6690 0.6685 0.6680 0.6675 0.6670
3051.765475 0.6670 0.6670 0.6660 0.6650 0.6650
3056.162471 0.6650 0.6650 0.6650 0.6650 0.6650
3060.559467 0.6650 0.6651 0.6661 0.6670 0.6670
3064.956463 0.6670 0.6670 0.6671 0.6676 0.6681
3069.353458 0.6686 0.6692 0.6702 0.6711 0.6716
3073.750454 0.6720 0.6720 0.6721 0.6726 0.6730
3078.147450 0.6730 0.6732 0.6742 0.6750 0.6750
3082.544445 0.6750 0.6750 0.6750 0.6750 0.6750
3086.941441 0.6750 0.6750 0.6750 0.6750 0.6750
3091.338437 0.6750 0.6750 0.6750 0.6750 0.6750
3095.735433 0.6750 0.6750 0.6750 0.6750 0.6750
3100.132428 0.6746 0.6736 0.6730 0.6730 0.6730
3104.529424 0.6730 0.6728 0.6723 0.6720 0.6720
3108.926420 0.6720 0.6720 0.6720 0.6720 0.6712
3113.323415 0.6697 0.6690 0.6690 0.6687 0.6682
3117.720411 0.6680 0.6680 0.6677 0.6672 0.6664
3122.117407 0.6654 0.6647 0.6642 0.6637 0.6632
3126.514403 0.6623 0.6613 0.6610 0.6610 0.6607
3130.911398 0.6602 0.6600 0.6600 0.6600 0.6600
3135.308394 0.6600 0.6600 0.6600 0.6600 0.6600
3139.705390 0.6600 0.6592 0.6582 0.6580 0.6580
3144.102385 0.6576 0.6571 0.6570 0.6570 0.6570
3148.499381 0.6570 0.6570 0.6570 0.6570 0.6570
3152.896377 0.6566 0.6561 0.6551 0.6541 0.6531
3157.293373 0.6521 0.6511 0.6501 0.6495 0.6490
3161.690368 0.6485 0.6480 0.6465 0.6450 0.6440
3166.087364 0.6430 0.6420 0.6410 0.6395 0.6380
3170.484360 0.6380 0.6380 0.6375 0.6369 0.6359
3174.881355 0.6350 0.6350 0.6350 0.6345 0.6340
3179.278351 0.6334 0.6330 0.6330 0.6330 0.6330
3183.675347 0.6329 0.6319 0.6310 0.6310 0.6309
3188.072343 0.6304 0.6298 0.6288 0.6280 0.6280
3192.469338 0.6279 0.6274 0.6269 0.6264 0.6260
3196.866334 0.6260 0.6260 0.6260 0.6261 0.6266
3201.263330 0.6270 0.6270 0.6275 0.6290 0.6302
3205.660325 0.6307 0.6313 0.6324 0.6334 0.6344
3210.057321 0.6354 0.6364 0.6374 0.6384 0.6396
3214.454317 0.6411 0.6422 0.6427 0.6436 0.6451
3218.851313 0.6467 0.6482 0.6499 0.6519 0.6537
3223.248308 0.6552 0.6562 0.6568 0.6578 0.6593
3227.645304 0.6608 0.6623 0.6635 0.6645 0.6658
3232.042300 0.6673 0.6680 0.6680 0.6689 0.6704
3236.439295 0.6716 0.6726 0.6736 0.6746 0.6760
3240.836291 0.6775 0.6780 0.6780 0.6783 0.6788
3245.233287 0.6793 0.6798 0.6810 0.6825 0.6841
3249.630283 0.6856 0.6867 0.6877 0.6880 0.6880
3254.027278 0.6887 0.6897 0.6904 0.6909 0.6918
3258.424274 0.6928 0.6934 0.6939 0.6944 0.6949
3262.821270 0.6958 0.6968 0.6974 0.6979 0.6984
3267.218265 0.6989 0.6999 0.7009 0.7014 0.7019
3271.615261 0.7024 0.7029 0.7039 0.7049 0.7055
3276.012257 0.7060 0.7070 0.7080 0.7080 0.7080
3280.409253 0.7085 0.7090 0.7090 0.7090 0.7095
3284.806248 0.7100 0.7100 0.7100 0.7095 0.7090
3289.203244 0.7090 0.7090 0.7085 0.7079 0.7069
3293.600240 0.7060 0.7055 0.7049 0.7039 0.7029
3297.997235 0.7019 0.7009 0.6999 0.6989 0.6978
3302.394231 0.6968 0.6958 0.6948 0.6938 0.6928
3306.791227 0.6918 0.6906 0.6886 0.6865 0.6845
3311.188223 0.6824 0.6799 0.6774 0.6748 0.6725
3315.585218 0.6704 0.6683 0.6658 0.6640 0.6640
3319.982214 0.6638 0.6633 0.6630 0.6630 0.6630
3324.379210 0.6630 0.6632 0.6637 0.6640 0.6640
3328.776205 0.6646 0.6661 0.6674 0.6684 0.6694
3333.173201 0.6704 0.6714 0.6724 0.6737 0.6752
3337.570197 0.6765 0.6775 0.6792 0.6817 0.6842
3341.967193 0.6867 0.6888 0.6903 0.6915 0.6925
3346.364188 0.6941 0.6961 0.6981 0.7001 0.7016
3350.761184 0.7026 0.7039 0.7054 0.7069 0.7084
3355.158180 0.7093 0.7098 0.7109 0.7124 0.7140
3359.555175 0.7155 0.7167 0.7177 0.7190 0.7205
3363.952171 0.7217 0.7227 0.7237 0.7247 0.7250
3368.349167 0.7250 0.7257 0.7267 0.7274 0.7279
3372.746163 0.7280 0.7280 0.7284 0.7289 0.7298
3377.143158 0.7308 0.7314 0.7319 0.7324 0.7329
3381.540154 0.7338 0.7349 0.7354 0.7359 0.7369
3385.937150 0.7379 0.7384 0.7389 0.7395 0.7400
3390.334145 0.7400 0.7400 0.7409 0.7419 0.7420
3394.731141 0.7420 0.7425 0.7430 0.7430 0.7430
3399.128137 0.7435 0.7440 0.7440 0.7440 0.7440
3403.525133 0.7440 0.7440 0.7440 0.7450 0.7460
3407.922128 0.7460 0.7460 0.7465 0.7470 0.7470
3412.319124 0.7470 0.7476 0.7480 0.7480 0.7481
3416.716120 0.7491 0.7500 0.7500 0.7501 0.7506
3421.113115 0.7510 0.7510 0.7512 0.7522 0.7530
3425.510111 0.7530 0.7530 0.7530 0.7531 0.7536
3429.907107 0.7540 0.7540 0.7541 0.7546 0.7553
3434.304103 0.7563 0.7570 0.7570 0.7572 0.7577
3438.701098 0.7582 0.7587 0.7593 0.7604 0.7612
3443.098094 0.7617 0.7622 0.7627 0.7630 0.7630
3447.495090 0.7634 0.7644 0.7652 0.7657 0.7664
3451.892085 0.7675 0.7680 0.7680 0.7682 0.7687
3456.289081 0.7692 0.7697 0.7705 0.7715 0.7720
3460.686077 0.7720 0.7723 0.7728 0.7738 0.7753
3465.083073 0.7763 0.7768 0.7779 0.7794 0.7803
3469.480068 0.7808 0.7810 0.7810 0.7819 0.7834
3473.877064 0.7850 0.7865 0.7883 0.7903 0.7913
3478.274060 0.7918 0.7930 0.7945 0.7960 0.7975
3482.671055 0.7987 0.7997 0.8011 0.8026 0.8041
3487.068051 0.8056 0.8071 0.8086 0.8105 0.8126
3491.465047 0.8134 0.8139 0.8152 0.8167 0.8178
3495.862043 0.8188 0.8202 0.8217 0.8237 0.8257
3500.259038 0.8273 0.8288 0.8303 0.8318 0.8324
3504.656034 0.8330 0.8348 0.8368 0.8379 0.8389
3509.053030 0.8409 0.8429 0.8454 0.8479 0.8485
3513.450025 0.8490 0.8500 0.8510 0.8525 0.8540
3517.847021 0.8550 0.8560 0.8575 0.8590 0.8595
3522.244017 0.8601 0.8616 0.8632 0.8662 0.8690
3526.641013 0.8695 0.8700 0.8705 0.8711 0.8721
3531.038008 0.8733 0.8758 0.8783 0.8803 0.8823
3535.435004 0.8843 0.8862 0.8872 0.8882 0.8892
3539.832000 0.8902 0.8912 0.8921 0.8926 0.8935
3544.228995 0.8955 0.8977 0.9007 0.9035 0.9055
3548.625991 0.9075 0.9095 0.9114 0.9129 0.9140
3553.022987 0.9140 0.9147 0.9167 0.9183 0.9193
3557.419983 0.9204 0.9214 0.9222 0.9227 0.9232
3561.816978 0.9237 0.9244 0.9254 0.9262 0.9267
3566.213974 0.9274 0.9284 0.9294 0.9304 0.9324
3570.610970 0.9354 0.9375 0.9385 0.9397 0.9412
3575.007965 0.9428 0.9443 0.9463 0.9488 0.9508
3579.404961 0.9523 0.9533 0.9538 0.9548 0.9563
3583.801957 0.9579 0.9594 0.9609 0.9624 0.9636
3588.198953 0.9646 0.9656 0.9666 0.9673 0.9678
3592.595948 0.9690 0.9705 0.9713 0.9718 0.9727
3596.992944 0.9737 0.9743 0.9748 0.9754 0.9759
3601.389940 0.9767 0.9777 0.9780 0.9780 0.9784
3605.786935 0.9789 0.9790 0.9790 0.9790 0.9790
3610.183931 0.9790 0.9790 0.9794 0.9799 0.9808
3614.580927 0.9818 0.9824 0.9829 0.9834 0.9839
3618.977923 0.9849 0.9859 0.9860 0.9860 0.9865
3623.374918 0.9870 0.9870 0.9870 0.9879 0.9890
3627.771914 0.9895 0.9900 0.9900 0.9900 0.9915
3632.168910 0.9930 0.9935 0.9940 0.9955 0.9970
3636.565905 0.9970 0.9970 0.9970 0.9970 0.9975
3640.962901 0.9980 0.9980 0.9980 0.9980 0.9980
3645.359897 0.9980 0.9980 0.9980 0.9981 0.9991
3649.756893 1.0000 1.0000 1.0000 1.0000 1.0000
3654.153888 1.0000 1.0000 1.0000 1.0000 1.0000
3658.550884 1.0000 1.0000 1.0000 1.0000 1.0000
3662.947880 1.0000 1.0000 1.0000 1.0000 1.0000
3667.344875 1.0000 1.0000 1.0000 1.0000 1.0000
3671.741871 1.0000 1.0000 1.0000 1.0000 1.0000
3676.138867 1.0000 1.0000 1.0000 1.0000 1.0000
3680.535863 1.0000 1.0000 1.0000 1.0000 1.0000
3684.932858 1.0000 1.0000 1.0000 1.0000 1.0000
3689.329854 1.0000 1.0000 1.0000 1.0000 1.0000
3693.726850 1.0000 1.0000 1.0000 1.0000 1.0000
3698.123845 1.0000 1.0000 1.0000 1.0000 1.0000
3702.520841 1.0000 1.0000 1.0000 1.0000 1.0000
3706.917837 1.0000 1.0000 1.0000 1.0000 1.0000
3711.314833 1.0000 1.0000 1.0000 1.0000 1.0000
3715.711828 1.0000 1.0000 1.0000 1.0000 1.0000
3720.108824 1.0000 1.0000 1.0000 1.0000 1.0000
3724.505820 1.0000 1.0000 1.0000 1.0000 1.0000
3728.902815 1.0000 1.0000 1.0000 1.0000 1.0000
3733.299811 1.0000 1.0000 1.0000 0.9991 0.9981
3737.696807 0.9980 0.9980 0.9980 0.9980 0.9980
3742.093803 0.9980 0.9980 0.9980 0.9975 0.9970
3746.490798 0.9970 0.9970 0.9970 0.9970 0.9970
3750.887794 0.9970 0.9970 0.9970 0.9970 0.9970
3755.284790 0.9960 0.9950 0.9950 0.9950 0.9950
3759.681785 0.9950 0.9950 0.9950 0.9950 0.9949
3764.078781 0.9944 0.9940 0.9940 0.9940 0.9940
3768.475777 0.9940 0.9940 0.9940 0.9940 0.9940
3772.872773 0.9940 0.9939 0.9934 0.9930 0.9930
3777.269768 0.9930 0.9930 0.9930 0.9930 0.9930
3781.666764 0.9930 0.9927 0.9917 0.9910 0.9910
3786.063760 0.9910 0.9910 0.9910 0.9910
##END=
