##TITLE=ADENINE, 3-BENZYL-2-METHYL-, HYDROBROMIDE
##JCAMP-DX=4.24
##DATA TYPE=INFRARED SPECTRUM
##CLASS=COBLENTZ III
##ORIGIN=SOUTHERN RESEARCH INST.
##OWNER=COBLENTZ SOCIETY
Collection (C) 2018 copyright by the U.S. Secretary of Commerce
on behalf of the United States of America. All rights reserved.
##DATE=1964/04/21
##NAMES=3-benzyl-2-methyl-3H-purin-6-amine hydrobromide
##MOLFORM=C13 H14 Br N5
##SOURCE REFERENCE=COBLENTZ NO. 9926
##$NIST ID=B6009926
##$NIST SOURCE=COBLENTZ
##$NIST IMAGE=cob9926
##SPECTROMETER/DATA SYSTEM=PERKIN-ELMER 221 (GRATING)
##INSTRUMENT PARAMETERS=FILTER CHANGES AT 2490, 980 CM^-^1, GRATING FOR 4000-1428 CM^-^1, NaCl PRISM FOR 1428-650 CM^-^1
##STATE=SOLID (1 mg / 650 mg KBr DISC)
##PATH LENGTH=
$$ PURITY - ANALYTICAL
##SAMPLING PROCEDURE=TRANSMISSION
##RESOLUTION=4
##DATA PROCESSING=DIGITIZED BY NIST FROM HARD COPY
##XUNITS=1/CM
##YUNITS=TRANSMITTANCE
##XFACTOR=1.000000
##YFACTOR=1
##DELTAX=001.609442
##FIRSTX=596.781
##LASTX=4003.97
##FIRSTY=0.727
##MAXX=4003.97
##MINX=596.781
##MAXY=0.921
##MINY=0.075
##NPOINTS=2118
##XYDATA=(X++(Y..Y))
596.781000 0.7270 0.7260 0.7240 0.7240 0.7210
604.832013 0.7270 0.7260 0.7240 0.7240 0.7210
612.876000 0.7200 0.7190 0.7170 0.7160 0.7160
620.927013 0.7160 0.7150 0.7140 0.7130 0.7130
628.970000 0.7130 0.7140 0.7150 0.7150 0.7160
637.021013 0.7350 0.7510 0.7640 0.7750 0.7850
645.064000 0.7930 0.7990 0.8040 0.8070 0.8090
653.115013 0.8110 0.8110 0.8120 0.8120 0.8130
661.159000 0.8130 0.8130 0.8120 0.8120 0.8030
669.210013 0.7970 0.7920 0.7880 0.7850 0.7810
677.253000 0.7770 0.7770 0.7770 0.7950 0.8110
685.304013 0.8110 0.7800 0.7770 0.7760 0.7750
693.348000 0.7750 0.6950 0.6190 0.4800 0.4790
701.399013 0.4800 0.5240 0.5550 0.5860 0.6480
709.442000 0.6970 0.7160 0.7350 0.7470 0.7650
717.493013 0.7860 0.8080 0.8300 0.8480 0.8540
725.536000 0.8610 0.8650 0.8710 0.8730 0.8740
733.587013 0.8750 0.8790 0.8790 0.8790 0.8780
741.631000 0.8770 0.8750 0.8730 0.8720 0.8700
749.682013 0.8690 0.8620 0.8170 0.7740 0.7530
757.725000 0.7520 0.7530 0.7660 0.7810 0.8110
765.776013 0.8070 0.7770 0.7470 0.6880 0.6580
773.820000 0.6580 0.6750 0.6970 0.7170 0.7450
781.871013 0.7700 0.7920 0.8120 0.8290 0.8440
789.914000 0.8510 0.8580 0.8690 0.8780 0.8870
797.965013 0.8930 0.8990 0.9040 0.9070 0.9100
806.009000 0.9110 0.9130 0.9140 0.9150 0.9150
814.060013 0.9160 0.9170 0.9180 0.9190 0.9190
822.103000 0.9190 0.9200 0.9210 0.9210 0.9210
830.154013 0.9200 0.9200 0.9200 0.9190 0.9190
838.197000 0.9190 0.9190 0.9180 0.9180 0.9180
846.248013 0.9180 0.9170 0.9170 0.9170 0.9160
854.292000 0.9160 0.9150 0.9130 0.9110 0.9080
862.343013 0.9060 0.9000 0.8910 0.8810 0.8730
870.386000 0.8650 0.8650 0.8650 0.8650 0.8660
878.437013 0.8760 0.8820 0.8980 0.9070 0.9140
886.481000 0.9150 0.9150 0.9150 0.9150 0.9150
894.532013 0.9150 0.9140 0.9130 0.9120 0.9080
902.575000 0.9030 0.8990 0.8950 0.8910 0.8880
910.626013 0.8850 0.8890 0.8920 0.8960 0.9000
918.670000 0.9030 0.9050 0.9050 0.9040 0.9030
926.721013 0.9030 0.9020 0.9010 0.8970 0.8940
934.764000 0.8910 0.8880 0.8690 0.8570 0.8570
942.815013 0.8590 0.8670 0.8770 0.8800 0.8820
950.858000 0.8850 0.8870 0.8870 0.8840 0.8800
958.909013 0.8750 0.8700 0.8660 0.8620 0.8550
966.953000 0.8470 0.8440 0.8400 0.8370 0.8330
975.004013 0.8310 0.8290 0.8270 0.8250 0.8230
983.047000 0.8210 0.8170 0.8130 0.8090 0.8060
991.098013 0.8020 0.7980 0.7840 0.7770 0.7710
999.142000 0.7700 0.7710 0.8000 0.8180 0.8280
1007.193013 0.8420 0.8490 0.8550 0.8530 0.8460
1015.236000 0.8430 0.8390 0.8340 0.8270 0.8220
1023.287013 0.8170 0.8070 0.7960 0.7950 0.7960
1031.330000 0.8030 0.8110 0.8160 0.8230 0.8310
1039.381013 0.8340 0.8350 0.8330 0.8270 0.8160
1047.425000 0.8050 0.7980 0.7810 0.7620 0.7500
1055.476013 0.7490 0.7500 0.7620 0.7840 0.8060
1063.519000 0.8160 0.8270 0.8340 0.8400 0.8390
1071.570013 0.8330 0.8240 0.8120 0.8010 0.8000
1079.614000 0.8020 0.8360 0.8430 0.8530 0.8620
1087.665013 0.8620 0.8620 0.8590 0.8490 0.8410
1095.708000 0.8400 0.8400 0.8400 0.8400 0.8400
1103.759013 0.8400 0.8390 0.8390 0.8390 0.8390
1111.803000 0.8390 0.8390 0.8390 0.8380 0.8380
1119.854013 0.8380 0.8380 0.8380 0.8370 0.8370
1127.897000 0.8370 0.8370 0.8370 0.8380 0.8390
1135.948013 0.8420 0.8460 0.8490 0.8510 0.8530
1143.991000 0.8550 0.8540 0.8460 0.8440 0.8420
1152.042013 0.8390 0.8380 0.8370 0.8360 0.8350
1160.086000 0.8340 0.8330 0.8310 0.8300 0.8260
1168.137013 0.8230 0.8160 0.8100 0.8040 0.8000
1176.180000 0.7960 0.7940 0.7930 0.7910 0.7890
1184.231013 0.7890 0.7870 0.7850 0.7820 0.7790
1192.275000 0.7780 0.7780 0.7770 0.7750 0.7630
1200.326013 0.7450 0.6970 0.6920 0.6860 0.6780
1208.369000 0.6740 0.6700 0.6670 0.6630 0.6600
1216.420013 0.6320 0.6050 0.5800 0.5550 0.5300
1224.464000 0.5300 0.5450 0.5590 0.6420 0.6590
1232.515013 0.6760 0.6890 0.7010 0.7080 0.7080
1240.558000 0.7110 0.7410 0.7730 0.7750 0.7890
1248.609013 0.8020 0.8170 0.8170 0.8170 0.8160
1256.652000 0.8160 0.8160 0.8160 0.8160 0.8150
1264.703013 0.8140 0.8130 0.8120 0.8120 0.8110
1272.747000 0.8100 0.8090 0.8080 0.8060 0.8040
1280.798013 0.8030 0.8010 0.8000 0.7990 0.7980
1288.841000 0.7960 0.7950 0.7930 0.7920 0.7890
1296.892013 0.7860 0.7820 0.7780 0.7730 0.7670
1304.936000 0.7610 0.7530 0.7430 0.7330 0.7240
1312.987013 0.7220 0.7180 0.7180 0.7190 0.7230
1321.030000 0.7340 0.7370 0.7350 0.7190 0.7110
1329.081013 0.6970 0.6650 0.6380 0.6130 0.5860
1337.125000 0.5860 0.6300 0.6730 0.6940 0.7160
1345.176013 0.7480 0.7790 0.7900 0.7990 0.8060
1353.219000 0.8080 0.8070 0.8000 0.7900 0.7790
1361.270013 0.7680 0.7570 0.7470 0.7360 0.7270
1369.313000 0.7160 0.6990 0.6910 0.6840 0.6770
1377.364013 0.6720 0.6700 0.6700 0.6670 0.6660
1385.408000 0.6630 0.6550 0.6510 0.6380 0.6230
1393.459013 0.5990 0.5770 0.5750 0.5760 0.5880
1401.502000 0.6260 0.6470 0.6480 0.6370 0.5970
1409.553013 0.5870 0.5820 0.5780 0.5740 0.5700
1417.597000 0.5630 0.5340 0.5090 0.4750 0.4480
1425.648013 0.4170 0.3820 0.3600 0.3400 0.3180
1433.691000 0.2970 0.2970 0.3110 0.3730 0.4350
1441.742013 0.5320 0.5670 0.6020 0.6010 0.5350
1449.785000 0.5100 0.5070 0.4850 0.4850 0.5330
1457.836013 0.5460 0.5580 0.5740 0.5860 0.5970
1465.880000 0.6040 0.6090 0.6130 0.6160 0.6160
1473.931013 0.6170 0.6180 0.6430 0.6850 0.7270
1481.974000 0.7440 0.7620 0.7730 0.7870 0.7850
1490.025013 0.7730 0.7670 0.7570 0.7550 0.7560
1498.069000 0.7820 0.8290 0.8290 0.8280 0.8280
1506.120013 0.8210 0.6970 0.6460 0.5080 0.4980
1514.163000 0.4980 0.5100 0.5370 0.5630 0.6480
1522.214013 0.6970 0.7120 0.7270 0.7520 0.7890
1530.258000 0.8190 0.8500 0.8620 0.8620 0.8620
1538.309013 0.8610 0.8600 0.8580 0.8570 0.8540
1546.352000 0.8520 0.8470 0.8460 0.8430 0.8410
1554.403013 0.8380 0.8350 0.8330 0.8300 0.8270
1562.446000 0.8230 0.8200 0.8170 0.8130 0.8080
1570.497013 0.8010 0.7920 0.7850 0.7790 0.7730
1578.541000 0.7370 0.7250 0.4780 0.4550 0.4550
1586.592013 0.4780 0.4980 0.5380 0.5770 0.6140
1594.635000 0.6340 0.6550 0.6800 0.7050 0.7150
1602.686013 0.6610 0.5470 0.5280 0.5010 0.4740
1610.730000 0.4470 0.4200 0.4190 0.4210 0.4360
1618.781013 0.4530 0.4670 0.5360 0.5780 0.6180
1626.824000 0.6680 0.6860 0.7040 0.7120 0.7120
1634.875013 0.7120 0.7120 0.7120 0.7110 0.6910
1642.918000 0.6830 0.6720 0.6680 0.6320 0.6040
1650.969013 0.5290 0.4840 0.3850 0.3330 0.2260
1659.013000 0.1750 0.0760 0.0750 0.0760 0.0870
1667.064013 0.0990 0.1280 0.1570 0.2370 0.2730
1675.107000 0.3100 0.3750 0.4060 0.4350 0.4890
1683.158013 0.5360 0.5580 0.5790 0.6170 0.6510
1691.202000 0.6800 0.6930 0.7050 0.7270 0.7470
1699.253013 0.7630 0.7770 0.7900 0.8000 0.8110
1707.296000 0.8190 0.8280 0.8360 0.8450 0.8500
1715.347013 0.8540 0.8620 0.8650 0.8650 0.8650
1723.391000 0.8650 0.8650 0.8650 0.8700 0.8740
1731.442013 0.8790 0.8830 0.8880 0.8930 0.8940
1739.485000 0.8950 0.8950 0.8950 0.8950 0.8950
1747.536013 0.8950 0.8950 0.8960 0.8960 0.8960
1755.579000 0.8980 0.9000 0.9040 0.9070 0.9090
1763.630013 0.9100 0.9110 0.9110 0.9110 0.9110
1771.674000 0.9100 0.9090 0.9090 0.9080 0.9080
1779.725013 0.9080 0.9080 0.9080 0.9070 0.9070
1787.768000 0.9070 0.9070 0.9070 0.9070 0.9070
1795.819013 0.9070 0.9060 0.9050 0.9040 0.9030
1803.863000 0.9010 0.9000 0.9000 0.8970 0.8940
1811.914013 0.8920 0.8900 0.8890 0.8890 0.8880
1819.957000 0.8880 0.8890 0.8890 0.8910 0.8920
1828.008013 0.8960 0.9000 0.9040 0.9070 0.9080
1836.052000 0.9110 0.9140 0.9150 0.9160 0.9160
1844.103013 0.9160 0.9170 0.9170 0.9180 0.9190
1852.146000 0.9190 0.9190 0.9180 0.9190 0.9190
1860.197013 0.9190 0.9190 0.9190 0.9190 0.9190
1868.240000 0.9190 0.9190 0.9190 0.9190 0.9190
1876.291013 0.9190 0.9190 0.9190 0.9180 0.9180
1884.335000 0.9180 0.9180 0.9180 0.9180 0.9180
1892.386013 0.9170 0.9170 0.9170 0.9170 0.9160
1900.429000 0.9160 0.9160 0.9160 0.9160 0.9160
1908.480013 0.9160 0.9150 0.9150 0.9150 0.9150
1916.524000 0.9150 0.9140 0.9130 0.9120 0.9120
1924.575013 0.9110 0.9110 0.9100 0.9090 0.9080
1932.618000 0.9080 0.9070 0.9060 0.9040 0.9040
1940.669013 0.9040 0.9040 0.9030 0.9030 0.9020
1948.713000 0.9010 0.9000 0.9000 0.9000 0.9000
1956.764013 0.8990 0.8990 0.8990 0.8990 0.8990
1964.807000 0.8980 0.8980 0.8980 0.8970 0.8970
1972.858013 0.8970 0.8970 0.8960 0.8960 0.8960
1980.901000 0.8960 0.8960 0.8960 0.8960 0.8960
1988.952013 0.8950 0.8950 0.8950 0.8950 0.8950
1996.996000 0.8950 0.8950 0.8960 0.8960 0.8960
2005.047013 0.8970 0.8970 0.8980 0.8980 0.8980
2013.090000 0.8980 0.8980 0.8980 0.8980 0.8970
2021.141013 0.8970 0.8960 0.8960 0.8960 0.8960
2029.185000 0.8960 0.8960 0.8960 0.8950 0.8950
2037.236013 0.8940 0.8940 0.8930 0.8930 0.8930
2045.279000 0.8930 0.8930 0.8930 0.8930 0.8930
2053.330013 0.8930 0.8930 0.8930 0.8930 0.8930
2061.374000 0.8930 0.8930 0.8930 0.8930 0.8930
2069.425013 0.8930 0.8930 0.8930 0.8930 0.8930
2077.468000 0.8930 0.8930 0.8930 0.8930 0.8930
2085.519013 0.8930 0.8930 0.8930 0.8930 0.8930
2093.562000 0.8930 0.8930 0.8930 0.8930 0.8930
2101.613013 0.8930 0.8930 0.8930 0.8930 0.8930
2109.657000 0.8930 0.8930 0.8930 0.8930 0.8930
2117.708013 0.8930 0.8930 0.8930 0.8930 0.8930
2125.751000 0.8930 0.8930 0.8930 0.8930 0.8930
2133.802013 0.8930 0.8930 0.8930 0.8930 0.8930
2141.845000 0.8930 0.8930 0.8930 0.8930 0.8930
2149.896013 0.8930 0.8930 0.8930 0.8930 0.8930
2157.940000 0.8930 0.8930 0.8930 0.8930 0.8930
2165.991013 0.8930 0.8930 0.8930 0.8930 0.8930
2174.034000 0.8930 0.8930 0.8930 0.8930 0.8930
2182.085013 0.8930 0.8930 0.8930 0.8930 0.8920
2190.129000 0.8920 0.8920 0.8920 0.8920 0.8920
2198.180013 0.8920 0.8920 0.8920 0.8920 0.8920
2206.223000 0.8920 0.8920 0.8920 0.8920 0.8920
2214.274013 0.8920 0.8920 0.8920 0.8920 0.8920
2222.318000 0.8920 0.8920 0.8920 0.8920 0.8920
2230.369013 0.8910 0.8910 0.8910 0.8910 0.8910
2238.412000 0.8910 0.8910 0.8910 0.8910 0.8900
2246.463013 0.8900 0.8900 0.8900 0.8890 0.8890
2254.507000 0.8890 0.8880 0.8880 0.8880 0.8880
2262.558013 0.8880 0.8880 0.8880 0.8880 0.8880
2270.601000 0.8880 0.8880 0.8880 0.8870 0.8870
2278.652013 0.8870 0.8860 0.8860 0.8860 0.8860
2286.695000 0.8850 0.8850 0.8850 0.8840 0.8840
2294.746013 0.8830 0.8830 0.8830 0.8840 0.8840
2302.790000 0.8840 0.8840 0.8850 0.8850 0.8850
2310.841013 0.8850 0.8850 0.8850 0.8850 0.8840
2318.884000 0.8840 0.8830 0.8830 0.8820 0.8820
2326.935013 0.8810 0.8810 0.8810 0.8810 0.8810
2334.979000 0.8800 0.8800 0.8790 0.8790 0.8780
2343.030013 0.8780 0.8780 0.8780 0.8780 0.8770
2351.073000 0.8770 0.8770 0.8770 0.8770 0.8770
2359.124013 0.8770 0.8770 0.8770 0.8770 0.8770
2367.167000 0.8770 0.8770 0.8770 0.8770 0.8770
2375.218013 0.8770 0.8770 0.8770 0.8780 0.8780
2383.262000 0.8780 0.8780 0.8780 0.8780 0.8780
2391.313013 0.8770 0.8770 0.8770 0.8760 0.8760
2399.356000 0.8750 0.8730 0.8730 0.8730 0.8720
2407.407013 0.8720 0.8720 0.8700 0.8700 0.8700
2415.451000 0.8690 0.8690 0.8690 0.8690 0.8690
2423.502013 0.8680 0.8680 0.8670 0.8670 0.8660
2431.545000 0.8660 0.8660 0.8650 0.8650 0.8650
2439.596013 0.8650 0.8640 0.8640 0.8640 0.8640
2447.640000 0.8640 0.8630 0.8630 0.8630 0.8630
2455.691013 0.8630 0.8640 0.8640 0.8640 0.8640
2463.734000 0.8650 0.8650 0.8650 0.8650 0.8650
2471.785013 0.8650 0.8660 0.8660 0.8660 0.8660
2479.828000 0.8660 0.8650 0.8650 0.8640 0.8630
2487.879013 0.8620 0.8620 0.8610 0.8600 0.8590
2495.923000 0.8580 0.8570 0.8550 0.8540 0.8520
2503.974013 0.8490 0.8470 0.8460 0.8460 0.8460
2512.017000 0.8430 0.8410 0.8390 0.8380 0.8370
2520.068013 0.8360 0.8350 0.8350 0.8340 0.8330
2528.112000 0.8320 0.8320 0.8310 0.8310 0.8290
2536.163013 0.8280 0.8270 0.8260 0.8260 0.8250
2544.206000 0.8240 0.8230 0.8220 0.8190 0.8170
2552.257013 0.8130 0.8120 0.8080 0.8080 0.8080
2560.301000 0.8090 0.8100 0.8110 0.8120 0.8140
2568.352013 0.8160 0.8180 0.8190 0.8220 0.8240
2576.395000 0.8260 0.8270 0.8270 0.8280 0.8280
2584.446013 0.8280 0.8280 0.8280 0.8280 0.8270
2592.489000 0.8270 0.8270 0.8270 0.8260 0.8260
2600.540013 0.8260 0.8260 0.8250 0.8240 0.8220
2608.584000 0.8190 0.8180 0.8160 0.8150 0.8130
2616.635013 0.8120 0.8120 0.8110 0.8090 0.8080
2624.678000 0.8080 0.8060 0.8050 0.8040 0.8010
2632.729013 0.8000 0.7960 0.7940 0.7900 0.7860
2640.773000 0.7810 0.7810 0.7800 0.7800 0.7800
2648.824013 0.7800 0.7790 0.7790 0.7790 0.7790
2656.867000 0.7780 0.7780 0.7780 0.7770 0.7770
2664.918013 0.7770 0.7770 0.7770 0.7760 0.7760
2672.961000 0.7760 0.7760 0.7760 0.7760 0.7760
2681.012013 0.7760 0.7760 0.7760 0.7750 0.7750
2689.056000 0.7750 0.7750 0.7750 0.7740 0.7740
2697.107013 0.7730 0.7730 0.7710 0.7690 0.7660
2705.150000 0.7630 0.7590 0.7560 0.7530 0.7500
2713.201013 0.7490 0.7480 0.7470 0.7470 0.7450
2721.245000 0.7440 0.7430 0.7430 0.7400 0.7390
2729.296013 0.7360 0.7350 0.7330 0.7310 0.7310
2737.339000 0.7290 0.7280 0.7270 0.7260 0.7240
2745.390013 0.7240 0.7220 0.7200 0.7190 0.7170
2753.434000 0.7150 0.7120 0.7080 0.7060 0.7040
2761.485013 0.7030 0.7010 0.7010 0.6990 0.6970
2769.528000 0.6970 0.6940 0.6900 0.6860 0.6810
2777.579013 0.6770 0.6730 0.6690 0.6650 0.6620
2785.622000 0.6620 0.6610 0.6590 0.6570 0.6550
2793.673013 0.6510 0.6480 0.6450 0.6410 0.6370
2801.717000 0.6330 0.6290 0.6250 0.6210 0.6160
2809.768013 0.6130 0.6090 0.6050 0.6010 0.5970
2817.811000 0.5940 0.5910 0.5880 0.5860 0.5860
2825.862013 0.5870 0.5870 0.5880 0.5890 0.5890
2833.906000 0.5880 0.5880 0.5880 0.5870 0.5870
2841.957013 0.5860 0.5850 0.5840 0.5830 0.5830
2850.000000 0.5830 0.5840 0.6020 0.6140 0.6230
2858.051013 0.6300 0.6360 0.6420 0.6500 0.6550
2866.094000 0.6590 0.6600 0.6610 0.6620 0.6620
2874.145013 0.6610 0.6600 0.6580 0.6560 0.6530
2882.189000 0.6510 0.6470 0.6440 0.6400 0.6320
2890.240013 0.6220 0.6190 0.6160 0.6140 0.6120
2898.283000 0.6090 0.6070 0.6050 0.6050 0.6040
2906.334013 0.6030 0.6000 0.5940 0.5900 0.5860
2914.378000 0.5840 0.5820 0.5790 0.5780 0.5740
2922.429013 0.5710 0.5710 0.5700 0.5700 0.5690
2930.472000 0.5680 0.5670 0.5670 0.5660 0.5650
2938.523013 0.5640 0.5640 0.5630 0.5630 0.5630
2946.567000 0.5630 0.5610 0.5610 0.5600 0.5590
2954.618013 0.5580 0.5570 0.5550 0.5540 0.5470
2962.661000 0.5470 0.5460 0.5450 0.5440 0.5400
2970.712013 0.5330 0.5280 0.5240 0.5210 0.5170
2978.755000 0.5110 0.5060 0.5010 0.4980 0.4940
2986.806013 0.4900 0.4890 0.4880 0.4880 0.4870
2994.850000 0.4870 0.4860 0.4860 0.4860 0.4860
3002.901013 0.4860 0.4860 0.4860 0.4860 0.4860
3010.944000 0.4860 0.4860 0.4870 0.4870 0.4870
3018.995013 0.4870 0.4870 0.4880 0.4880 0.4880
3027.039000 0.4880 0.4890 0.4890 0.4890 0.4890
3035.090013 0.4890 0.4890 0.4890 0.4890 0.4880
3043.133000 0.4880 0.4870 0.4860 0.4860 0.4850
3051.184013 0.4820 0.4710 0.4630 0.4560 0.4490
3059.228000 0.4420 0.4320 0.4210 0.3990 0.3880
3067.279013 0.3780 0.3680 0.3680 0.3760 0.3970
3075.322000 0.4170 0.4420 0.4550 0.4610 0.4640
3083.373013 0.4690 0.4780 0.4850 0.4860 0.4830
3091.417000 0.4790 0.4740 0.4670 0.4600 0.4520
3099.468013 0.4440 0.4360 0.4280 0.4230 0.4150
3107.511000 0.3960 0.3870 0.3790 0.3740 0.3630
3115.562013 0.3500 0.3440 0.3420 0.3370 0.3330
3123.605000 0.3260 0.3240 0.3220 0.3200 0.3190
3131.656013 0.3160 0.3130 0.3080 0.3070 0.3040
3139.700000 0.3020 0.3000 0.2990 0.3000 0.3020
3147.751013 0.3060 0.3110 0.3190 0.3300 0.3430
3155.794000 0.3570 0.3720 0.3860 0.3990 0.4050
3163.845013 0.4100 0.4180 0.4210 0.4370 0.4520
3171.888000 0.4640 0.4750 0.4840 0.4930 0.5000
3179.939013 0.5060 0.5110 0.5160 0.5200 0.5230
3187.983000 0.5260 0.5290 0.5320 0.5350 0.5380
3196.034013 0.5410 0.5450 0.5470 0.5500 0.5550
3204.077000 0.5600 0.5650 0.5670 0.5670 0.5670
3212.128013 0.5670 0.5670 0.5670 0.5650 0.5630
3220.172000 0.5610 0.5590 0.5590 0.5580 0.5560
3228.223013 0.5550 0.5550 0.5550 0.5560 0.5570
3236.266000 0.5590 0.5600 0.5620 0.5630 0.5630
3244.317013 0.5640 0.5650 0.5670 0.5680 0.5690
3252.361000 0.5700 0.5700 0.5680 0.5670 0.5660
3260.412013 0.5640 0.5630 0.5600 0.5590 0.5450
3268.455000 0.5360 0.5260 0.5150 0.5050 0.4960
3276.506013 0.4890 0.4840 0.4820 0.4810 0.4810
3284.550000 0.4820 0.4820 0.4840 0.4860 0.4870
3292.601013 0.4870 0.4900 0.4920 0.4930 0.4950
3300.644000 0.4980 0.5000 0.5010 0.5050 0.5060
3308.695013 0.5070 0.5080 0.5090 0.5100 0.5120
3316.738000 0.5140 0.5170 0.5190 0.5210 0.5240
3324.789013 0.5270 0.5300 0.5340 0.5370 0.5420
3332.833000 0.5460 0.5490 0.5510 0.5560 0.5620
3340.884013 0.5680 0.5740 0.5820 0.5900 0.5970
3348.927000 0.6030 0.6090 0.6160 0.6210 0.6260
3356.978013 0.6320 0.6360 0.6400 0.6440 0.6480
3365.021000 0.6510 0.6550 0.6580 0.6610 0.6630
3373.072013 0.6660 0.6670 0.6700 0.6710 0.6720
3381.116000 0.6740 0.6740 0.6750 0.6760 0.6770
3389.167013 0.6770 0.6780 0.6780 0.6780 0.6790
3397.210000 0.6800 0.6800 0.6810 0.6810 0.6810
3405.261013 0.6820 0.6830 0.6840 0.6850 0.6850
3413.305000 0.6860 0.6860 0.6880 0.6890 0.6900
3421.356013 0.6910 0.6930 0.6930 0.6940 0.6960
3429.399000 0.6970 0.6970 0.6980 0.6980 0.6980
3437.450013 0.6990 0.7000 0.7010 0.7020 0.7060
3445.494000 0.7070 0.7080 0.7080 0.7090 0.7100
3453.545013 0.7120 0.7130 0.7140 0.7160 0.7190
3461.588000 0.7200 0.7220 0.7240 0.7270 0.7290
3469.639013 0.7310 0.7310 0.7310 0.7320 0.7330
3477.683000 0.7340 0.7340 0.7350 0.7350 0.7350
3485.734013 0.7350 0.7350 0.7350 0.7360 0.7360
3493.777000 0.7380 0.7380 0.7390 0.7400 0.7420
3501.828013 0.7430 0.7460 0.7470 0.7470 0.7470
3509.871000 0.7470 0.7480 0.7490 0.7500 0.7500
3517.922013 0.7500 0.7530 0.7550 0.7580 0.7590
3525.966000 0.7620 0.7630 0.7650 0.7660 0.7670
3534.017013 0.7670 0.7710 0.7730 0.7770 0.7780
3542.060000 0.7810 0.7820 0.7850 0.7870 0.7890
3550.111013 0.7900 0.7900 0.7900 0.7900 0.7910
3558.155000 0.7910 0.7910 0.7920 0.7920 0.7920
3566.206013 0.7920 0.7920 0.7930 0.7950 0.7980
3574.249000 0.8000 0.8030 0.8040 0.8070 0.8080
3582.300013 0.8100 0.8110 0.8120 0.8120 0.8130
3590.344000 0.8130 0.8140 0.8140 0.8150 0.8180
3598.395013 0.8210 0.8240 0.8270 0.8310 0.8340
3606.438000 0.8370 0.8380 0.8400 0.8420 0.8420
3614.489013 0.8420 0.8430 0.8440 0.8460 0.8470
3622.532000 0.8490 0.8500 0.8500 0.8510 0.8530
3630.583013 0.8540 0.8550 0.8570 0.8580 0.8590
3638.627000 0.8590 0.8600 0.8600 0.8610 0.8610
3646.678013 0.8620 0.8620 0.8620 0.8630 0.8630
3654.721000 0.8640 0.8650 0.8650 0.8650 0.8650
3662.772013 0.8650 0.8650 0.8660 0.8660 0.8670
3670.816000 0.8670 0.8670 0.8680 0.8680 0.8680
3678.867013 0.8680 0.8680 0.8680 0.8680 0.8680
3686.910000 0.8680 0.8680 0.8680 0.8680 0.8670
3694.961013 0.8670 0.8670 0.8670 0.8670 0.8670
3703.004000 0.8670 0.8660 0.8660 0.8660 0.8650
3711.055013 0.8650 0.8650 0.8650 0.8650 0.8640
3719.099000 0.8630 0.8620 0.8620 0.8600 0.8600
3727.150013 0.8590 0.8580 0.8580 0.8580 0.8570
3735.193000 0.8560 0.8560 0.8560 0.8560 0.8560
3743.244013 0.8570 0.8570 0.8580 0.8580 0.8580
3751.288000 0.8580 0.8590 0.8600 0.8620 0.8630
3759.339013 0.8640 0.8650 0.8670 0.8680 0.8690
3767.382000 0.8700 0.8700 0.8700 0.8710 0.8710
3775.433013 0.8710 0.8710 0.8700 0.8700 0.8690
3783.477000 0.8690 0.8690 0.8690 0.8690 0.8690
3791.528013 0.8690 0.8690 0.8690 0.8690 0.8680
3799.571000 0.8670 0.8670 0.8660 0.8650 0.8650
3807.622013 0.8650 0.8650 0.8650 0.8640 0.8640
3815.665000 0.8640 0.8630 0.8630 0.8630 0.8620
3823.716013 0.8620 0.8620 0.8620 0.8620 0.8620
3831.760000 0.8620 0.8620 0.8620 0.8620 0.8620
3839.811013 0.8620 0.8610 0.8610 0.8610 0.8610
3847.854000 0.8610 0.8610 0.8610 0.8610 0.8600
3855.905013 0.8600 0.8600 0.8600 0.8600 0.8600
3863.949000 0.8600 0.8600 0.8590 0.8590 0.8590
3872.000013 0.8590 0.8590 0.8590 0.8590 0.8590
3880.043000 0.8590 0.8590 0.8590 0.8590 0.8590
3888.094013 0.8590 0.8590 0.8590 0.8590 0.8590
3896.137000 0.8590 0.8600 0.8600 0.8600 0.8600
3904.188013 0.8600 0.8600 0.8600 0.8610 0.8610
3912.232000 0.8610 0.8610 0.8610 0.8610 0.8610
3920.283013 0.8620 0.8620 0.8620 0.8620 0.8620
3928.326000 0.8620 0.8620 0.8620 0.8620 0.8620
3936.377013 0.8620 0.8620 0.8620 0.8620 0.8620
3944.421000 0.8620 0.8620 0.8620 0.8620 0.8620
3952.472013 0.8620 0.8620 0.8620 0.8620 0.8620
3960.515000 0.8620 0.8620 0.8610 0.8610 0.8610
3968.566013 0.8610 0.8610 0.8610 0.8610 0.8610
3976.610000 0.8610 0.8610 0.8610 0.8610 0.8610
3984.661013 0.8610 0.8610 0.8610 0.8610 0.8610
3992.704000 0.8610 0.8610 0.8610 0.8610 0.8620
4000.755013 0.8620 0.8620 0.8620
##END=
