##TITLE=DIPHENYL-(3-HYDROXY-2-TROPANYL)-CARBINOL
##JCAMP-DX=4.24
##DATA TYPE=INFRARED SPECTRUM
##CLASS=COBLENTZ
##OWNER=COBLENTZ SOCIETY
Collection (C) 2018 copyright by the U.S. Secretary of Commerce
on behalf of the United States of America. All rights reserved.
##DATE=1960
##MOLFORM=C21 H25 O2
##SOURCE REFERENCE=COBLENTZ NO. 882
##$NIST ID=B6000882
##$NIST SOURCE=COBLENTZ
##$NIST IMAGE=cob882
##SPECTROMETER/DATA SYSTEM=Not specified, most likely a prism, grating, or hybrid spectrometer.
##STATE=SOLUTION (1% CHCl3)
##PATH LENGTH=0.010 CM CELL
$$SPECTRAL CONTAMINATION DUE TO INACTIVE CHCl3 AROUND 730-800 CM^-^1
##SAMPLING PROCEDURE=TRANSMISSION
##RESOLUTION=4
##DATA PROCESSING=DIGITIZED BY NIST FROM HARD COPY
##XUNITS=MICROMETERS
##YUNITS=TRANSMITTANCE
##XFACTOR=1.000000
##YFACTOR=1
##DELTAX=000.007013
##FIRSTX=2.025
##LASTX=15.4821
##FIRSTY=0.974
##MAXX=15.4821
##MINX=2.025
##MAXY=0.974
##MINY=0.256
##NPOINTS=1920
##XYDATA=(X++(Y..Y))
2.025000 0.9740 0.9720 0.9740 0.9740 0.9740
2.060081 0.9720 0.9720 0.9720 0.9720 0.9720
2.095000 0.9700 0.9700 0.9700 0.9690 0.9690
2.130081 0.9690 0.9670 0.9670 0.9670 0.9670
2.165000 0.9670 0.9670 0.9670 0.9670 0.9650
2.200081 0.9650 0.9650 0.9630 0.9620 0.9600
2.236000 0.9580 0.9580 0.9600 0.9580 0.9580
2.271081 0.9600 0.9580 0.9580 0.9600 0.9580
2.306000 0.9580 0.9580 0.9580 0.9580 0.9580
2.341081 0.9580 0.9580 0.9580 0.9580 0.9560
2.376000 0.9560 0.9560 0.9550 0.9550 0.9550
2.411081 0.9530 0.9510 0.9510 0.9510 0.9500
2.446000 0.9500 0.9480 0.9480 0.9460 0.9460
2.481081 0.9430 0.9430 0.9430 0.9430 0.9410
2.516000 0.9410 0.9410 0.9410 0.9390 0.9390
2.551081 0.9390 0.9390 0.9390 0.9390 0.9390
2.586000 0.9380 0.9380 0.9360 0.9360 0.9360
2.621081 0.9360 0.9360 0.9360 0.9360 0.9360
2.656000 0.9380 0.9360 0.9360 0.9340 0.9340
2.691081 0.9340 0.9340 0.9340 0.9360 0.9360
2.727000 0.9360 0.9360 0.9360 0.9340 0.9320
2.762081 0.9290 0.9170 0.9080 0.8840 0.8530
2.797000 0.8200 0.7640 0.7530 0.7520 0.7480
2.832081 0.7460 0.7450 0.7460 0.7480 0.8020
2.867000 0.8190 0.8390 0.8530 0.8620 0.8690
2.902081 0.8700 0.8740 0.8700 0.8670 0.8650
2.937000 0.8620 0.8580 0.8550 0.8500 0.8460
2.972081 0.8450 0.8460 0.8450 0.8430 0.8430
3.007000 0.8450 0.8450 0.8450 0.8450 0.8450
3.042081 0.8430 0.8430 0.8430 0.8430 0.8410
3.077000 0.8390 0.8380 0.8340 0.8330 0.8270
3.112081 0.8240 0.8200 0.8150 0.8120 0.8080
3.147000 0.8050 0.8030 0.8030 0.8020 0.8000
3.182081 0.7980 0.7960 0.7960 0.7900 0.7880
3.217000 0.7860 0.7810 0.7770 0.7720 0.7670
3.252081 0.7640 0.7480 0.7310 0.7210 0.6970
3.288000 0.6790 0.6720 0.6660 0.6640 0.6600
3.323081 0.6590 0.6550 0.6540 0.6470 0.6110
3.358000 0.5490 0.5470 0.5430 0.5260 0.5020
3.393081 0.4900 0.4760 0.4380 0.4180 0.4090
3.428000 0.4040 0.4070 0.4140 0.4330 0.4730
3.463081 0.4920 0.5210 0.5400 0.5540 0.5670
3.498000 0.5740 0.5780 0.5800 0.5810 0.5830
3.533081 0.5860 0.5970 0.6120 0.6310 0.6450
3.568000 0.6600 0.6710 0.6830 0.6930 0.6950
3.603081 0.6970 0.6970 0.6970 0.6980 0.7020
3.638000 0.7030 0.7100 0.7160 0.7220 0.7240
3.673081 0.7310 0.7400 0.7460 0.7550 0.7600
3.708000 0.7650 0.7740 0.7810 0.7880 0.7950
3.743081 0.7980 0.7980 0.8000 0.8000 0.8020
3.778000 0.8030 0.8030 0.8050 0.8070 0.8070
3.813081 0.8080 0.8100 0.8100 0.8120 0.8150
3.849000 0.8170 0.8190 0.8200 0.8220 0.8260
3.884081 0.8270 0.8290 0.8310 0.8340 0.8380
3.919000 0.8390 0.8410 0.8430 0.8480 0.8500
3.954081 0.8510 0.8550 0.8550 0.8570 0.8580
3.989000 0.8580 0.8600 0.8620 0.8620 0.8620
4.024081 0.8620 0.8620 0.8620 0.8620 0.8640
4.059000 0.8650 0.8670 0.8670 0.8690 0.8690
4.094081 0.8700 0.8700 0.8700 0.8720 0.8740
4.129000 0.8740 0.8760 0.8760 0.8770 0.8790
4.164081 0.8820 0.8840 0.8840 0.8860 0.8880
4.199000 0.8890 0.8910 0.8930 0.8950 0.8950
4.234081 0.8960 0.8960 0.8960 0.8960 0.8980
4.269000 0.9000 0.9010 0.9010 0.9010 0.9010
4.304081 0.9030 0.9050 0.9050 0.9030 0.9030
4.339000 0.9030 0.9030 0.9010 0.9010 0.9010
4.374081 0.9010 0.9010 0.9010 0.9000 0.9000
4.410000 0.8980 0.8980 0.9000 0.9000 0.9000
4.445081 0.9000 0.9000 0.9000 0.9000 0.9010
4.480000 0.9030 0.9050 0.9070 0.9070 0.9070
4.515081 0.9070 0.9070 0.9070 0.9070 0.9070
4.550000 0.9070 0.9080 0.9080 0.9080 0.9100
4.585081 0.9100 0.9100 0.9100 0.9120 0.9120
4.620000 0.9120 0.9120 0.9120 0.9120 0.9120
4.655081 0.9120 0.9100 0.9100 0.9100 0.9100
4.690000 0.9100 0.9100 0.9100 0.9080 0.9080
4.725081 0.9070 0.9070 0.9070 0.9080 0.9080
4.760000 0.9080 0.9080 0.9080 0.9100 0.9100
4.795081 0.9100 0.9100 0.9120 0.9100 0.9120
4.830000 0.9120 0.9120 0.9120 0.9130 0.9130
4.865081 0.9130 0.9130 0.9130 0.9150 0.9130
4.900000 0.9130 0.9130 0.9130 0.9120 0.9120
4.935081 0.9100 0.9100 0.9120 0.9120 0.9120
4.971000 0.9130 0.9130 0.9150 0.9150 0.9150
5.006081 0.9150 0.9130 0.9130 0.9150 0.9150
5.041000 0.9150 0.9150 0.9150 0.9150 0.9150
5.076081 0.9130 0.9130 0.9130 0.9120 0.9100
5.111000 0.9080 0.9070 0.9010 0.9000 0.8980
5.146081 0.8960 0.8950 0.8950 0.8950 0.8950
5.181000 0.8960 0.8960 0.8960 0.8980 0.9000
5.216081 0.9010 0.9030 0.9030 0.9030 0.9030
5.251000 0.9050 0.9070 0.9070 0.9070 0.9070
5.286081 0.9070 0.9070 0.9070 0.9070 0.9070
5.321000 0.9070 0.9050 0.9010 0.9000 0.8980
5.356081 0.8980 0.8980 0.8980 0.8980 0.8980
5.391000 0.8980 0.8980 0.8980 0.8980 0.8980
5.426081 0.9000 0.9000 0.9010 0.9030 0.9030
5.461000 0.9050 0.9050 0.9080 0.9080 0.9080
5.496081 0.9080 0.9080 0.9080 0.9080 0.9080
5.532000 0.9070 0.9050 0.9030 0.9010 0.9010
5.567081 0.9000 0.8980 0.8980 0.8960 0.8960
5.602000 0.8950 0.8960 0.9000 0.9030 0.9050
5.637081 0.9050 0.9070 0.9070 0.9070 0.9050
5.672000 0.9050 0.9030 0.9010 0.8980 0.8980
5.707081 0.8980 0.8960 0.8960 0.8950 0.8950
5.742000 0.8930 0.8930 0.8910 0.8910 0.8890
5.777081 0.8890 0.8860 0.8860 0.8840 0.8860
5.812000 0.8860 0.8860 0.8860 0.8860 0.8840
5.847081 0.8820 0.8820 0.8790 0.8790 0.8770
5.882000 0.8740 0.8720 0.8760 0.8760 0.8790
5.917081 0.8820 0.8840 0.8860 0.8860 0.8860
5.952000 0.8860 0.8880 0.8890 0.8910 0.8910
5.987081 0.8910 0.8910 0.8910 0.8890 0.8890
6.022000 0.8890 0.8890 0.8890 0.8890 0.8890
6.057081 0.8930 0.8930 0.8930 0.8950 0.8950
6.093000 0.8950 0.8950 0.8930 0.8930 0.8930
6.128081 0.8910 0.8930 0.8910 0.8910 0.8910
6.163000 0.8910 0.8890 0.8890 0.8890 0.8880
6.198081 0.8880 0.8860 0.8860 0.8840 0.8820
6.233000 0.8790 0.8690 0.8430 0.8200 0.8000
6.268081 0.7910 0.7880 0.7860 0.7840 0.7880
6.303000 0.7910 0.7910 0.7960 0.8020 0.8120
6.338081 0.8190 0.8290 0.8340 0.8410 0.8460
6.373000 0.8510 0.8580 0.8640 0.8670 0.8700
6.408081 0.8740 0.8760 0.8790 0.8820 0.8840
6.443000 0.8840 0.8860 0.8860 0.8880 0.8860
6.478081 0.8860 0.8860 0.8860 0.8860 0.8840
6.513000 0.8840 0.8840 0.8820 0.8810 0.8810
6.548081 0.8790 0.8790 0.8770 0.8770 0.8760
6.583000 0.8760 0.8760 0.8740 0.8720 0.8700
6.618081 0.8690 0.8640 0.8620 0.8580 0.8550
6.654000 0.8500 0.8450 0.8360 0.8290 0.8260
6.689081 0.8140 0.8030 0.7950 0.7860 0.7600
6.724000 0.7520 0.7430 0.7280 0.7170 0.6740
6.759081 0.6290 0.6020 0.5730 0.5430 0.5400
6.794000 0.5370 0.5370 0.5350 0.5330 0.5310
6.829081 0.5300 0.5280 0.5310 0.5430 0.5470
6.864000 0.5670 0.5850 0.5980 0.6210 0.6210
6.899081 0.6170 0.6160 0.5900 0.5760 0.5350
6.934000 0.4990 0.4610 0.4320 0.4160 0.4090
6.969081 0.4160 0.4780 0.5760 0.6120 0.6290
7.004000 0.6360 0.6540 0.6620 0.6660 0.6690
7.039081 0.6760 0.6790 0.6850 0.6880 0.6900
7.074000 0.6900 0.6900 0.6850 0.6710 0.6620
7.109081 0.6470 0.6310 0.6170 0.6090 0.5950
7.144000 0.5710 0.5660 0.5590 0.5620 0.5670
7.179081 0.5760 0.5950 0.6110 0.6210 0.6380
7.215000 0.6740 0.6910 0.7100 0.7170 0.7310
7.250081 0.7380 0.7430 0.7460 0.7570 0.7620
7.285000 0.7690 0.7740 0.7790 0.7840 0.7910
7.320081 0.7960 0.7980 0.8020 0.8020 0.8030
7.355000 0.8020 0.8020 0.8020 0.7980 0.7950
7.390081 0.7910 0.7840 0.7770 0.7690 0.7650
7.425000 0.7620 0.7570 0.7550 0.7570 0.7650
7.460081 0.7770 0.7950 0.8030 0.8100 0.8100
7.495000 0.8140 0.8190 0.8190 0.8200 0.8200
7.530081 0.8150 0.8140 0.8080 0.8050 0.7980
7.565000 0.7930 0.7900 0.7880 0.7860 0.7860
7.600081 0.7840 0.7830 0.7830 0.7830 0.7810
7.635000 0.7790 0.7740 0.7690 0.7650 0.7570
7.670081 0.7530 0.7500 0.7450 0.7380 0.7290
7.705000 0.7210 0.7100 0.7070 0.7030 0.7020
7.740081 0.7030 0.7210 0.7280 0.7400 0.7530
7.776000 0.7590 0.7550 0.7530 0.7500 0.7460
7.811081 0.7380 0.7290 0.7280 0.7280 0.7260
7.846000 0.7240 0.7220 0.7210 0.7220 0.7260
7.881081 0.7280 0.7290 0.7290 0.7240 0.7220
7.916000 0.7190 0.7100 0.7030 0.6950 0.6900
7.951081 0.6900 0.6860 0.6850 0.6860 0.6880
7.986000 0.6930 0.7000 0.7070 0.7140 0.7190
8.021081 0.7260 0.7330 0.7340 0.7360 0.7380
8.056000 0.7380 0.7380 0.7380 0.7360 0.7360
8.091081 0.7340 0.7310 0.7240 0.7190 0.7090
8.126000 0.6930 0.6850 0.6760 0.6720 0.6660
8.161081 0.6570 0.6500 0.6400 0.6380 0.6330
8.196000 0.6330 0.6310 0.6290 0.6290 0.6290
8.231081 0.6290 0.6290 0.6290 0.6290 0.6310
8.266000 0.6310 0.6330 0.6350 0.6360 0.6380
8.301081 0.6400 0.6400 0.6410 0.6410 0.6410
8.337000 0.6470 0.6480 0.6500 0.6570 0.6640
8.372081 0.6670 0.6690 0.6710 0.6760 0.6790
8.407000 0.6900 0.6930 0.7000 0.7100 0.7190
8.442081 0.7280 0.7290 0.7330 0.7360 0.7400
8.477000 0.7340 0.7310 0.7220 0.7210 0.7160
8.512081 0.7090 0.6980 0.6900 0.6850 0.6830
8.547000 0.6790 0.6740 0.6720 0.6740 0.6780
8.582081 0.6790 0.6850 0.6930 0.7000 0.7050
8.617000 0.7140 0.7170 0.7220 0.7240 0.7260
8.652081 0.7310 0.7340 0.7360 0.7380 0.7380
8.687000 0.7460 0.7550 0.7570 0.7600 0.7620
8.722081 0.7640 0.7670 0.7690 0.7710 0.7760
8.757000 0.7810 0.7900 0.7910 0.7960 0.7980
8.792081 0.7980 0.8000 0.7980 0.7980 0.7960
8.827000 0.7960 0.7860 0.7830 0.7810 0.7770
8.862081 0.7770 0.7790 0.7830 0.7860 0.7860
8.898000 0.7900 0.7910 0.7900 0.7860 0.7810
8.933081 0.7710 0.7640 0.7570 0.7500 0.7460
8.968000 0.7430 0.7380 0.7330 0.7220 0.7190
9.003081 0.7170 0.7160 0.7170 0.7190 0.7220
9.038000 0.7240 0.7260 0.7260 0.7280 0.7280
9.073081 0.7280 0.7280 0.7290 0.7330 0.7340
9.108000 0.7380 0.7450 0.7590 0.7620 0.7670
9.143081 0.7690 0.7720 0.7770 0.7810 0.7830
9.178000 0.7840 0.7880 0.7880 0.7880 0.7880
9.213081 0.7880 0.7860 0.7840 0.7860 0.7650
9.248000 0.7550 0.7450 0.7330 0.7070 0.6950
9.283081 0.6720 0.6120 0.5540 0.5180 0.4810
9.318000 0.4090 0.3700 0.3420 0.3130 0.2940
9.353081 0.2710 0.2590 0.2580 0.2560 0.2580
9.388000 0.2590 0.2610 0.2710 0.2780 0.2900
9.423081 0.2920 0.2940 0.2960 0.2960 0.2970
9.459000 0.2990 0.3110 0.3660 0.3760 0.3920
9.494081 0.3990 0.3990 0.3760 0.3710 0.3660
9.529000 0.3610 0.3590 0.3610 0.3640 0.3880
9.564081 0.3990 0.4180 0.4920 0.5330 0.5570
9.599000 0.5880 0.6540 0.6720 0.6790 0.7020
9.634081 0.7100 0.7240 0.7360 0.7640 0.7650
9.669000 0.7720 0.7720 0.7650 0.7550 0.7450
9.704081 0.7330 0.7070 0.6690 0.6660 0.6640
9.739000 0.6620 0.6640 0.6670 0.6740 0.6860
9.774081 0.6930 0.7070 0.7120 0.7160 0.7210
9.809000 0.7260 0.7260 0.7280 0.7260 0.7020
9.844081 0.6790 0.6470 0.6360 0.6280 0.6240
9.879000 0.6240 0.6260 0.6280 0.6290 0.6310
9.914081 0.6430 0.6470 0.6620 0.6740 0.6830
9.950000 0.6880 0.7030 0.7160 0.7280 0.7360
9.985081 0.7410 0.7550 0.7570 0.7550 0.7500
10.020000 0.7450 0.7400 0.7290 0.7280 0.7240
10.055081 0.7210 0.7220 0.7240 0.7290 0.7360
10.090000 0.7460 0.7670 0.7760 0.7840 0.7910
10.125081 0.8030 0.8100 0.8140 0.8190 0.8220
10.160000 0.8270 0.8290 0.8310 0.8330 0.8340
10.195081 0.8360 0.8380 0.8380 0.8360 0.8360
10.230000 0.8340 0.8340 0.8310 0.8270 0.8260
10.265081 0.8220 0.8150 0.8080 0.7950 0.7880
10.300000 0.7790 0.7720 0.7650 0.7590 0.7520
10.335081 0.7500 0.7460 0.7430 0.7430 0.7400
10.370000 0.7380 0.7400 0.7410 0.7450 0.7620
10.405081 0.7690 0.7740 0.7860 0.7900 0.8020
10.440000 0.8030 0.8050 0.8120 0.8200 0.8240
10.475081 0.8290 0.8310 0.8340 0.8380 0.8390
10.511000 0.8410 0.8450 0.8480 0.8500 0.8530
10.546081 0.8530 0.8550 0.8580 0.8600 0.8620
10.581000 0.8640 0.8670 0.8690 0.8700 0.8700
10.616081 0.8720 0.8720 0.8720 0.8720 0.8740
10.651000 0.8740 0.8740 0.8740 0.8740 0.8720
10.686081 0.8720 0.8720 0.8720 0.8700 0.8700
10.721000 0.8670 0.8670 0.8640 0.8620 0.8550
10.756081 0.8530 0.8450 0.8340 0.8290 0.8200
10.791000 0.8140 0.8120 0.8100 0.8100 0.8100
10.826081 0.8080 0.8080 0.8080 0.8080 0.8100
10.861000 0.8100 0.8140 0.8150 0.8170 0.8170
10.896081 0.8190 0.8190 0.8200 0.8220 0.8240
10.931000 0.8240 0.8240 0.8240 0.8220 0.8220
10.966081 0.8200 0.8200 0.8190 0.8170 0.8150
11.001000 0.8150 0.8140 0.8120 0.8100 0.8100
11.036081 0.8080 0.8070 0.8070 0.8050 0.8050
11.072000 0.8070 0.8070 0.8070 0.8080 0.8080
11.107081 0.8100 0.8100 0.8120 0.8120 0.8100
11.142000 0.8070 0.8020 0.7910 0.7860 0.7620
11.177081 0.7550 0.7480 0.7330 0.7210 0.7120
11.212000 0.7090 0.7070 0.7030 0.7030 0.7050
11.247081 0.7070 0.7120 0.7170 0.7240 0.7340
11.282000 0.7380 0.7460 0.7670 0.7860 0.7930
11.317081 0.7980 0.8020 0.8050 0.8070 0.8120
11.352000 0.8140 0.8150 0.8170 0.8170 0.8170
11.387081 0.8190 0.8170 0.8170 0.8170 0.8170
11.422000 0.8170 0.8170 0.8170 0.8170 0.8170
11.457081 0.8170 0.8150 0.8150 0.8150 0.8140
11.492000 0.8120 0.8100 0.8080 0.8030 0.8000
11.527081 0.7960 0.7900 0.7830 0.7770 0.7740
11.562000 0.7690 0.7640 0.7640 0.7620 0.7600
11.597081 0.7590 0.7600 0.7600 0.7620 0.7620
11.633000 0.7650 0.7670 0.7690 0.7720 0.7740
11.668081 0.7760 0.7790 0.7810 0.7830 0.7830
11.703000 0.7840 0.7840 0.7860 0.7860 0.7860
11.738081 0.7860 0.7860 0.7860 0.7860 0.7860
11.773000 0.7880 0.7860 0.7860 0.7860 0.7860
11.808081 0.7860 0.7860 0.7860 0.7880 0.7860
11.843000 0.7860 0.7880 0.7880 0.7880 0.7880
11.878081 0.7880 0.7880 0.7900 0.7900 0.7910
11.913000 0.7910 0.7910 0.7930 0.7950 0.7960
11.948081 0.7980 0.7980 0.7980 0.7980 0.7980
11.983000 0.7960 0.7950 0.7930 0.7910 0.7900
12.018081 0.7860 0.7830 0.7810 0.7810 0.7790
12.053000 0.7790 0.7790 0.7790 0.7790 0.7790
12.088081 0.7790 0.7790 0.7790 0.7790 0.7790
12.123000 0.7790 0.7790 0.7810 0.7810 0.7810
12.158081 0.7810 0.7810 0.7810 0.7810 0.7810
12.194000 0.7810 0.7810 0.7810 0.7810 0.7810
12.229081 0.7790 0.7790 0.7790 0.7770 0.7770
12.264000 0.7720 0.7710 0.7710 0.7710 0.7710
12.299081 0.7710 0.7690 0.7690 0.7690 0.7690
12.334000 0.7690 0.7710 0.7710 0.7710 0.7710
12.369081 0.7710 0.7720 0.7720 0.7760 0.7770
12.404000 0.7790 0.7790 0.7810 0.7830 0.7860
12.439081 0.7860 0.7880 0.7900 0.7900 0.7910
12.474000 0.7910 0.7950 0.7950 0.7960 0.8000
12.509081 0.8020 0.8030 0.8050 0.8070 0.8080
12.544000 0.8100 0.8100 0.8100 0.8120 0.8120
12.579081 0.8120 0.8140 0.8140 0.8150 0.8150
12.614000 0.8150 0.8150 0.8170 0.8170 0.8170
12.649081 0.8170 0.8170 0.8170 0.8190 0.8190
12.684000 0.8190 0.8200 0.8200 0.8200 0.8200
12.719081 0.8220 0.8220 0.8220 0.8220 0.8240
12.755000 0.8240 0.8260 0.8260 0.8270 0.8270
12.790081 0.8270 0.8290 0.8290 0.8290 0.8290
12.825000 0.8290 0.8310 0.8310 0.8310 0.8330
12.860081 0.8340 0.8340 0.8340 0.8360 0.8380
12.895000 0.8390 0.8410 0.8410 0.8410 0.8410
12.930081 0.8430 0.8430 0.8450 0.8450 0.8450
12.965000 0.8450 0.8450 0.8460 0.8460 0.8480
13.000081 0.8460 0.8460 0.8480 0.8500 0.8500
13.035000 0.8500 0.8510 0.8510 0.8510 0.8510
13.070081 0.8510 0.8510 0.8510 0.8510 0.8510
13.105000 0.8530 0.8550 0.8570 0.8570 0.8580
13.140081 0.8600 0.8600 0.8640 0.8670 0.8690
13.175000 0.8700 0.8720 0.8740 0.8760 0.8770
13.210081 0.8790 0.8810 0.8810 0.8820 0.8840
13.245000 0.8840 0.8860 0.8860 0.8860 0.8860
13.280081 0.8860 0.8880 0.8880 0.8880 0.8890
13.316000 0.8890 0.8880 0.8880 0.8890 0.8890
13.351081 0.8910 0.8910 0.8910 0.8950 0.8960
13.386000 0.8980 0.8980 0.9000 0.9010 0.9010
13.421081 0.9010 0.9010 0.9010 0.9010 0.9010
13.456000 0.9010 0.9010 0.9010 0.9010 0.9030
13.491081 0.9070 0.9070 0.9070 0.9080 0.9080
13.526000 0.9100 0.9120 0.9130 0.9130 0.9130
13.561081 0.9150 0.9150 0.9150 0.9170 0.9190
13.596000 0.9190 0.9190 0.9200 0.9200 0.9220
13.631081 0.9220 0.9220 0.9220 0.9220 0.9220
13.666000 0.9220 0.9220 0.9220 0.9240 0.9240
13.701081 0.9240 0.9240 0.9250 0.9250 0.9270
13.736000 0.9270 0.9270 0.9290 0.9290 0.9290
13.771081 0.9290 0.9290 0.9290 0.9270 0.9270
13.806000 0.9270 0.9270 0.9270 0.9270 0.9250
13.841081 0.9250 0.9250 0.9250 0.9250 0.9240
13.877000 0.9240 0.9240 0.9240 0.9240 0.9250
13.912081 0.9250 0.9250 0.9270 0.9250 0.9250
13.947000 0.9240 0.9220 0.9190 0.9170 0.9150
13.982081 0.9130 0.9120 0.9100 0.9070 0.9030
14.017000 0.9000 0.8960 0.8880 0.8790 0.8720
14.052081 0.8700 0.8460 0.8260 0.7720 0.7550
14.087000 0.7380 0.7030 0.6780 0.6500 0.6230
14.122081 0.5920 0.5450 0.5210 0.5110 0.4990
14.157000 0.4850 0.4660 0.4440 0.4210 0.3990
14.192081 0.3800 0.3710 0.3560 0.3450 0.3440
14.227000 0.3450 0.3470 0.3510 0.3520 0.3560
14.262081 0.3590 0.3660 0.3710 0.3760 0.3830
14.297000 0.3880 0.3940 0.3950 0.4070 0.4110
14.332081 0.4140 0.4210 0.4280 0.4300 0.4320
14.367000 0.4320 0.4300 0.4300 0.4300 0.4280
14.402081 0.4280 0.4280 0.4280 0.4280 0.4320
14.438000 0.4420 0.4560 0.4620 0.4760 0.4950
14.473081 0.5370 0.5500 0.5620 0.5760 0.5880
14.508000 0.6000 0.6120 0.6240 0.6360 0.6470
14.543081 0.6590 0.6690 0.6790 0.6900 0.6980
14.578000 0.7090 0.7170 0.7260 0.7330 0.7400
14.613081 0.7460 0.7590 0.7620 0.7690 0.7740
14.648000 0.7790 0.7840 0.7840 0.7880 0.7910
14.683081 0.7930 0.7960 0.7960 0.7980 0.8000
14.718000 0.8030 0.8030 0.8050 0.8070 0.8080
14.753081 0.8100 0.8120 0.8150 0.8170 0.8190
14.788000 0.8220 0.8240 0.8260 0.8290 0.8310
14.823081 0.8340 0.8360 0.8380 0.8410 0.8430
14.858000 0.8430 0.8450 0.8450 0.8460 0.8460
14.893081 0.8480 0.8480 0.8500 0.8500 0.8500
14.928000 0.8500 0.8500 0.8500 0.8500 0.8500
14.963081 0.8500 0.8500 0.8500 0.8500 0.8500
14.999000 0.8480 0.8500 0.8480 0.8480 0.8480
15.034081 0.8460 0.8460 0.8450 0.8430 0.8430
15.069000 0.8390 0.8380 0.8290 0.8270 0.8240
15.104081 0.8190 0.8170 0.8150 0.8150 0.8150
15.139000 0.8140 0.8140 0.8140 0.8140 0.8140
15.174081 0.8140 0.8150 0.8150 0.8170 0.8170
15.209000 0.8190 0.8200 0.8260 0.8290 0.8340
15.244081 0.8360 0.8390 0.8410 0.8430 0.8450
15.279000 0.8450 0.8460 0.8480 0.8500 0.8510
15.314081 0.8530 0.8530 0.8550 0.8570 0.8570
15.349000 0.8570 0.8570 0.8570 0.8570 0.8550
15.384081 0.8550 0.8530 0.8510 0.8480 0.8390
15.419000 0.8310 0.8120 0.8030 0.7960 0.7950
15.454081 0.7740 0.7500 0.8120 0.7950 0.7740
##END=
