##TITLE=2,4-DIHYDROXYBENZOYL FERROCENE
##JCAMP-DX=4.24
##DATA TYPE=INFRARED SPECTRUM
##CLASS=COBLENTZ
##ORIGIN=WYANDOTTE CHEMICALS CORP., WYANDOTTE, MICHIGAN, USA
##OWNER=COBLENTZ SOCIETY
Collection (C) 2018 copyright by the U.S. Secretary of Commerce
on behalf of the United States of America. All rights reserved.
##DATE=Not specified, most likely prior to 1970
##MOLFORM=C17 H14 O3 Fe
##MP=172-174 C
##SOURCE REFERENCE=COBLENTZ NO. 3005
##$NIST ID=B6003005
##$NIST SOURCE=COBLENTZ
##$NIST IMAGE=cob3005
##SPECTROMETER/DATA SYSTEM=Not specified, most likely a prism, grating, or hybrid spectrometer.
##STATE=SOLID (MINERAL OIL MULL)
##PATH LENGTH=
$$SPECTRAL CONTAMINATION DUE TO OIL AROUND 2900 CM^-^1
##SAMPLING PROCEDURE=TRANSMISSION
##RESOLUTION=4
##DATA PROCESSING=DIGITIZED BY NIST FROM HARD COPY
##XUNITS=MICROMETERS
##YUNITS=TRANSMITTANCE
##XFACTOR=1.000000
##YFACTOR=1
##DELTAX=000.006806
##FIRSTX=2
##LASTX=15.9792
##FIRSTY=0.449
##MAXX=15.9792
##MINX=2
##MAXY=0.976
##MINY=0.027
##NPOINTS=2055
##XYDATA=(X++(Y..Y))
2.000000 0.4490 0.4510 0.4520 0.4560 0.4580
2.034047 0.4580 0.4580 0.4590 0.4590 0.4590
2.068000 0.4610 0.4630 0.4630 0.4680 0.4710
2.102047 0.4750 0.4760 0.4760 0.4780 0.4780
2.136000 0.4820 0.4820 0.4850 0.4850 0.4850
2.170047 0.4850 0.4850 0.4830 0.4820 0.4800
2.204000 0.4780 0.4780 0.4780 0.4800 0.4820
2.238047 0.4870 0.4950 0.4990 0.5020 0.5070
2.272000 0.5090 0.5110 0.5110 0.5140 0.5160
2.306047 0.5160 0.5190 0.5210 0.5230 0.5240
2.340000 0.5240 0.5260 0.5280 0.5290 0.5350
2.374047 0.5400 0.5430 0.5520 0.5530 0.5500
2.408000 0.5500 0.5500 0.5500 0.5500 0.5500
2.442047 0.5500 0.5520 0.5520 0.5520 0.5520
2.476000 0.5530 0.5550 0.5550 0.5600 0.5640
2.510047 0.5690 0.5740 0.5810 0.5890 0.5910
2.544000 0.5890 0.5890 0.5890 0.5890 0.5880
2.578047 0.5880 0.5940 0.6010 0.6030 0.6100
2.613000 0.6110 0.6080 0.6080 0.6080 0.6080
2.647047 0.6100 0.6110 0.6110 0.6110 0.6110
2.681000 0.6100 0.6100 0.6100 0.6100 0.6100
2.715047 0.6100 0.6080 0.6060 0.6050 0.6010
2.749000 0.6010 0.6010 0.6010 0.6010 0.6010
2.783047 0.6000 0.6000 0.6010 0.6010 0.6010
2.817000 0.6010 0.6030 0.6030 0.6050 0.6050
2.851047 0.6050 0.6050 0.6050 0.6030 0.6000
2.885000 0.5980 0.5980 0.6010 0.6010 0.6010
2.919047 0.6000 0.5960 0.5890 0.5890 0.5890
2.953000 0.5880 0.5820 0.5740 0.5640 0.5570
2.987047 0.5470 0.5350 0.5210 0.5050 0.4900
3.021000 0.4730 0.4540 0.4350 0.4150 0.3960
3.055047 0.3760 0.3570 0.3380 0.3170 0.2940
3.089000 0.2750 0.2640 0.2560 0.2470 0.2350
3.123047 0.2200 0.2060 0.2030 0.1980 0.1910
3.157000 0.1860 0.1820 0.1790 0.1740 0.1700
3.191047 0.1700 0.1740 0.1810 0.1840 0.1960
3.225000 0.2010 0.2100 0.2150 0.2200 0.2220
3.259047 0.2230 0.2230 0.2180 0.2060 0.1910
3.293000 0.1650 0.1310 0.0990 0.0610 0.0460
3.327047 0.0320 0.0300 0.0290 0.0290 0.0290
3.361000 0.0290 0.0270 0.0270 0.0290 0.0290
3.395047 0.0300 0.0340 0.0350 0.0350 0.0350
3.429000 0.0350 0.0350 0.0350 0.0350 0.0370
3.463047 0.0420 0.0510 0.0700 0.0950 0.1330
3.497000 0.1820 0.2250 0.2750 0.3330 0.3860
3.531047 0.4110 0.4370 0.4560 0.4660 0.4750
3.565000 0.4800 0.4850 0.4920 0.5050 0.5120
3.599047 0.5190 0.5240 0.5240 0.5260 0.5260
3.633000 0.5240 0.5210 0.5190 0.5170 0.5160
3.667047 0.5160 0.5190 0.5230 0.5260 0.5310
3.702000 0.5380 0.5410 0.5480 0.5520 0.5570
3.736047 0.5600 0.5690 0.5790 0.5860 0.5960
3.770000 0.6000 0.6010 0.6050 0.6080 0.6080
3.804047 0.6060 0.6030 0.6010 0.5980 0.5940
3.838000 0.5910 0.5890 0.5910 0.6010 0.6050
3.872047 0.6130 0.6220 0.6320 0.6410 0.6490
3.906000 0.6560 0.6630 0.6660 0.6680 0.6700
3.940047 0.6730 0.6760 0.6820 0.6870 0.6940
3.974000 0.7000 0.7040 0.7090 0.7140 0.7170
4.008047 0.7230 0.7240 0.7240 0.7230 0.7210
4.042000 0.7210 0.7210 0.7230 0.7230 0.7240
4.076047 0.7260 0.7310 0.7330 0.7350 0.7350
4.110000 0.7330 0.7290 0.7310 0.7350 0.7400
4.144047 0.7410 0.7450 0.7520 0.7550 0.7570
4.178000 0.7570 0.7550 0.7530 0.7530 0.7530
4.212047 0.7500 0.7470 0.7360 0.7330 0.7330
4.246000 0.7380 0.7450 0.7500 0.7530 0.7550
4.280047 0.7530 0.7570 0.7600 0.7670 0.7760
4.314000 0.7880 0.7980 0.8050 0.8130 0.8200
4.348047 0.8250 0.8320 0.8370 0.8390 0.8370
4.382000 0.8340 0.8300 0.8250 0.8220 0.8220
4.416047 0.8220 0.8230 0.8250 0.8270 0.8270
4.450000 0.8290 0.8300 0.8300 0.8300 0.8300
4.484047 0.8340 0.8370 0.8410 0.8460 0.8510
4.518000 0.8470 0.8490 0.8510 0.8490 0.8510
4.552047 0.8520 0.8540 0.8540 0.8560 0.8560
4.586000 0.8580 0.8590 0.8610 0.8610 0.8610
4.620047 0.8610 0.8610 0.8610 0.8610 0.8610
4.654000 0.8630 0.8630 0.8630 0.8640 0.8660
4.688047 0.8700 0.8710 0.8760 0.8820 0.8830
4.722000 0.8850 0.8880 0.8880 0.8830 0.8830
4.756047 0.8850 0.8880 0.8880 0.8850 0.8850
4.790000 0.8900 0.8940 0.8970 0.9000 0.9020
4.824047 0.9040 0.9050 0.9070 0.9090 0.9020
4.859000 0.9040 0.9040 0.9040 0.9090 0.9110
4.893047 0.9120 0.9120 0.9160 0.9170 0.9160
4.927000 0.9140 0.9120 0.9120 0.9120 0.9120
4.961047 0.9120 0.9120 0.9120 0.9120 0.9140
4.995000 0.9160 0.9210 0.9230 0.9230 0.9230
5.029047 0.9230 0.9210 0.9230 0.9230 0.9230
5.063000 0.9240 0.9260 0.9290 0.9310 0.9310
5.097047 0.9310 0.9310 0.9310 0.9330 0.9310
5.131000 0.9310 0.9290 0.9290 0.9310 0.9330
5.165047 0.9360 0.9360 0.9380 0.9360 0.9350
5.199000 0.9330 0.9290 0.9240 0.9230 0.9240
5.233047 0.9310 0.9330 0.9410 0.9430 0.9430
5.267000 0.9410 0.9350 0.9350 0.9400 0.9450
5.301047 0.9520 0.9520 0.9520 0.9520 0.9520
5.335000 0.9520 0.9530 0.9530 0.9550 0.9550
5.369047 0.9580 0.9600 0.9620 0.9620 0.9600
5.403000 0.9600 0.9600 0.9580 0.9580 0.9600
5.437047 0.9620 0.9640 0.9650 0.9650 0.9640
5.471000 0.9650 0.9670 0.9740 0.9760 0.9740
5.505047 0.9700 0.9650 0.9600 0.9570 0.9550
5.539000 0.9520 0.9530 0.9530 0.9530 0.9520
5.573047 0.9500 0.9520 0.9470 0.9410 0.9360
5.607000 0.9330 0.9350 0.9360 0.9410 0.9450
5.641047 0.9500 0.9500 0.9500 0.9500 0.9450
5.675000 0.9360 0.9290 0.9260 0.9260 0.9260
5.709047 0.9260 0.9310 0.9310 0.9240 0.9210
5.743000 0.9190 0.9170 0.9120 0.9050 0.9020
5.777047 0.8990 0.8970 0.8950 0.8950 0.8950
5.811000 0.8940 0.8940 0.8940 0.8920 0.8920
5.845047 0.8940 0.8970 0.9020 0.9020 0.9000
5.879000 0.8870 0.8780 0.8730 0.8750 0.8760
5.913047 0.8750 0.8730 0.8590 0.8460 0.8370
5.947000 0.8320 0.8230 0.8130 0.7930 0.7740
5.981047 0.7480 0.7230 0.6940 0.6660 0.6410
6.016000 0.6200 0.5940 0.5600 0.5050 0.4520
6.050047 0.4050 0.3580 0.2800 0.1940 0.1480
6.084000 0.1240 0.1110 0.1020 0.0990 0.1020
6.118047 0.1210 0.1470 0.1760 0.2100 0.2410
6.152000 0.2580 0.2750 0.2880 0.2940 0.2940
6.186047 0.2920 0.2370 0.1700 0.1690 0.1700
6.220000 0.1770 0.2010 0.2220 0.2520 0.2900
6.254047 0.3230 0.3520 0.3740 0.3940 0.4110
6.288000 0.4420 0.4490 0.4490 0.4340 0.3960
6.322047 0.3670 0.3410 0.3000 0.2520 0.2150
6.356000 0.1860 0.1580 0.1550 0.1550 0.1690
6.390047 0.1790 0.1960 0.2100 0.2220 0.2410
6.424000 0.2680 0.2970 0.3290 0.3570 0.3760
6.458047 0.3770 0.3760 0.3720 0.3700 0.3650
6.492000 0.3500 0.3360 0.3230 0.3050 0.2830
6.526047 0.2820 0.2830 0.2900 0.3050 0.3190
6.560000 0.3310 0.3400 0.3500 0.3500 0.3410
6.594047 0.3120 0.2630 0.2250 0.2080 0.1720
6.628000 0.1670 0.1670 0.1810 0.2060 0.2290
6.662047 0.2520 0.2820 0.3090 0.3280 0.3400
6.696000 0.3410 0.3400 0.3330 0.3230 0.3020
6.730047 0.2680 0.2220 0.1880 0.1530 0.1260
6.764000 0.1050 0.0970 0.0870 0.0850 0.0780
6.798047 0.0700 0.0640 0.0610 0.0590 0.0520
6.832000 0.0470 0.0420 0.0390 0.0350 0.0350
6.866047 0.0410 0.0470 0.0520 0.0560 0.0630
6.900000 0.0730 0.0880 0.1000 0.1160 0.1280
6.934047 0.1380 0.1450 0.1520 0.1640 0.1790
6.968000 0.2000 0.2230 0.2520 0.2850 0.3120
7.002047 0.3400 0.3600 0.3820 0.3910 0.3930
7.036000 0.3910 0.3910 0.3860 0.3890 0.4080
7.070047 0.4250 0.4300 0.4300 0.4220 0.4010
7.105000 0.3810 0.3740 0.3740 0.3740 0.3740
7.139047 0.3890 0.3890 0.3700 0.3170 0.2510
7.173000 0.1980 0.1650 0.1410 0.1160 0.0970
7.207047 0.0830 0.0820 0.0820 0.0850 0.0920
7.241000 0.1160 0.1430 0.1650 0.1860 0.2060
7.275047 0.2290 0.2510 0.2730 0.2970 0.3210
7.309000 0.3430 0.3650 0.3720 0.3760 0.3740
7.343047 0.3430 0.3360 0.3380 0.3620 0.3960
7.377000 0.4320 0.4800 0.4830 0.4850 0.4820
7.411047 0.4320 0.4010 0.3480 0.2760 0.2050
7.445000 0.1690 0.1400 0.1330 0.1350 0.1640
7.479047 0.1820 0.1980 0.2050 0.2080 0.2080
7.513000 0.2060 0.2030 0.2010 0.2030 0.2170
7.547047 0.2200 0.2220 0.2230 0.2230 0.2220
7.581000 0.2230 0.2410 0.2510 0.2760 0.3000
7.615047 0.3240 0.3450 0.3650 0.3840 0.3980
7.649000 0.4050 0.4060 0.4080 0.4080 0.4060
7.683047 0.3940 0.3690 0.3310 0.2900 0.2460
7.717000 0.2050 0.1690 0.1450 0.1350 0.1190
7.751047 0.1070 0.0990 0.0880 0.0780 0.0710
7.785000 0.0680 0.0610 0.0590 0.0610 0.1110
7.819047 0.1310 0.1520 0.1740 0.2000 0.2250
7.853000 0.2510 0.2800 0.3110 0.3430 0.3600
7.887047 0.3740 0.3820 0.3890 0.3940 0.4010
7.921000 0.4010 0.4030 0.4050 0.4060 0.4050
7.955047 0.3880 0.3570 0.3050 0.2470 0.2220
7.989000 0.1960 0.1670 0.1240 0.0900 0.0730
8.023047 0.0580 0.0580 0.0630 0.0850 0.1120
8.057000 0.1280 0.1410 0.1530 0.1720 0.1980
8.091047 0.2290 0.2540 0.2760 0.2970 0.3140
8.125000 0.3290 0.3410 0.3520 0.3600 0.3770
8.159047 0.3960 0.4170 0.4510 0.4710 0.4830
8.193000 0.5110 0.5360 0.5470 0.5500 0.5470
8.227047 0.5360 0.5160 0.4920 0.4520 0.4050
8.262000 0.3580 0.2920 0.2780 0.2780 0.2830
8.296047 0.3040 0.3280 0.3700 0.4080 0.4270
8.330000 0.4350 0.4370 0.4350 0.4100 0.4030
8.364047 0.4030 0.4110 0.4470 0.4710 0.4970
8.398000 0.5190 0.5350 0.5520 0.5530 0.5530
8.432047 0.5500 0.5330 0.5120 0.4920 0.4610
8.466000 0.4250 0.3880 0.3580 0.3500 0.3470
8.500047 0.3450 0.3400 0.3280 0.3120 0.2940
8.534000 0.2750 0.2730 0.2750 0.2940 0.3120
8.568047 0.3400 0.3740 0.4130 0.4540 0.4970
8.602000 0.5380 0.5760 0.6060 0.6290 0.6460
8.636047 0.6630 0.6780 0.6940 0.7050 0.7170
8.670000 0.7280 0.7360 0.7410 0.7480 0.7520
8.704047 0.7570 0.7620 0.7690 0.7810 0.7820
8.738000 0.7820 0.7810 0.7670 0.7520 0.7330
8.772047 0.7090 0.6830 0.6560 0.6200 0.5790
8.806000 0.5290 0.4750 0.4580 0.4440 0.4410
8.840047 0.4390 0.4340 0.4220 0.3980 0.3520
8.874000 0.2760 0.2050 0.1690 0.1650 0.1740
8.908047 0.2130 0.2710 0.3480 0.4270 0.5020
8.942000 0.5570 0.5960 0.6200 0.6220 0.6170
8.976047 0.5620 0.5140 0.5140 0.5190 0.5640
9.010000 0.6100 0.6540 0.6900 0.7190 0.7330
9.044047 0.7410 0.7470 0.7530 0.7640 0.7740
9.078000 0.7810 0.7820 0.7820 0.7840 0.7880
9.112047 0.7910 0.7980 0.8010 0.8030 0.8030
9.146000 0.8010 0.7980 0.7960 0.8010 0.8010
9.180047 0.8010 0.8000 0.7980 0.7980 0.7960
9.214000 0.7940 0.7910 0.7890 0.7840 0.7770
9.248047 0.7650 0.7520 0.7350 0.7160 0.6950
9.282000 0.6580 0.6270 0.6200 0.6050 0.6030
9.316047 0.6060 0.6130 0.6270 0.6370 0.6470
9.351000 0.6580 0.6730 0.6900 0.7110 0.7310
9.385047 0.7400 0.7400 0.7350 0.7240 0.7120
9.419000 0.6990 0.6850 0.6660 0.6590 0.6560
9.453047 0.6590 0.6560 0.6420 0.6110 0.5860
9.487000 0.5520 0.5090 0.5020 0.5020 0.5210
9.521047 0.5770 0.6110 0.6370 0.6660 0.6900
9.555000 0.7070 0.7240 0.7350 0.7400 0.7410
9.589047 0.7350 0.7140 0.6950 0.6850 0.6850
9.623000 0.7000 0.7310 0.7520 0.7650 0.7740
9.657047 0.7810 0.7840 0.7820 0.7820 0.7880
9.691000 0.7940 0.8010 0.8030 0.8050 0.8060
9.725047 0.8100 0.8130 0.8180 0.8220 0.8220
9.759000 0.8230 0.8250 0.8290 0.8300 0.8300
9.793047 0.8320 0.8300 0.8300 0.8270 0.8290
9.827000 0.8320 0.8340 0.8340 0.8320 0.8300
9.861047 0.8250 0.8220 0.8150 0.8010 0.7840
9.895000 0.7620 0.7380 0.7120 0.6850 0.6580
9.929047 0.6320 0.6110 0.5930 0.5910 0.5910
9.963000 0.5980 0.6220 0.6520 0.6730 0.7110
9.997047 0.7410 0.7670 0.7810 0.7960 0.7980
10.031000 0.8000 0.8030 0.8100 0.8100 0.8110
10.065047 0.8100 0.8050 0.7960 0.7810 0.7570
10.099000 0.7280 0.7000 0.6750 0.6510 0.6460
10.133047 0.6460 0.6520 0.6750 0.6850 0.6900
10.167000 0.6900 0.6850 0.6370 0.6110 0.5790
10.201047 0.5620 0.5430 0.5350 0.5520 0.5700
10.235000 0.6270 0.6750 0.7070 0.7280 0.7430
10.269047 0.7520 0.7600 0.7700 0.7760 0.7810
10.303000 0.7810 0.7820 0.7840 0.7840 0.7890
10.337047 0.7930 0.7940 0.7960 0.7960 0.7980
10.371000 0.7980 0.8000 0.8010 0.8030 0.8050
10.405047 0.8150 0.8200 0.8230 0.8250 0.8230
10.439000 0.8200 0.8200 0.8220 0.8220 0.8200
10.473047 0.8200 0.8200 0.8200 0.8200 0.8200
10.508000 0.8170 0.8080 0.7980 0.7880 0.7790
10.542047 0.7740 0.7670 0.7620 0.7520 0.7470
10.576000 0.7380 0.7310 0.7260 0.7230 0.7210
10.610047 0.7230 0.7240 0.7260 0.7330 0.7430
10.644000 0.7550 0.7690 0.7820 0.7980 0.8060
10.678047 0.8180 0.8270 0.8320 0.8350 0.8390
10.712000 0.8420 0.8470 0.8520 0.8540 0.8590
10.746047 0.8610 0.8610 0.8630 0.8630 0.8630
10.780000 0.8640 0.8680 0.8750 0.8820 0.8830
10.814047 0.8830 0.8830 0.8830 0.8830 0.8830
10.848000 0.8830 0.8820 0.8730 0.8730 0.8730
10.882047 0.8730 0.8730 0.8730 0.8750 0.8800
10.916000 0.8800 0.8800 0.8800 0.8760 0.8710
10.950047 0.8710 0.8700 0.8700 0.8700 0.8660
10.984000 0.8610 0.8580 0.8470 0.8370 0.8290
11.018047 0.8180 0.8150 0.8130 0.8110 0.8130
11.052000 0.8150 0.8170 0.8200 0.8220 0.8230
11.086047 0.8250 0.8300 0.8300 0.8300 0.8300
11.120000 0.8320 0.8350 0.8410 0.8470 0.8520
11.154047 0.8540 0.8610 0.8640 0.8700 0.8700
11.188000 0.8700 0.8630 0.8630 0.8640 0.8640
11.222047 0.8680 0.8710 0.8710 0.8710 0.8730
11.256000 0.8730 0.8730 0.8710 0.8680 0.8630
11.290047 0.8590 0.8540 0.8520 0.8510 0.8470
11.324000 0.8390 0.8300 0.8180 0.8080 0.8000
11.358047 0.7820 0.7640 0.7470 0.7310 0.7190
11.392000 0.7090 0.6950 0.6940 0.6950 0.7070
11.426047 0.7210 0.7360 0.7480 0.7600 0.7700
11.460000 0.7810 0.7880 0.7980 0.8030 0.8050
11.494047 0.8030 0.7980 0.7930 0.7810 0.7640
11.528000 0.7430 0.7160 0.6830 0.6520 0.6230
11.562047 0.6050 0.5960 0.5820 0.5690 0.5620
11.596000 0.5520 0.5380 0.5240 0.5110 0.5020
11.630047 0.4990 0.4920 0.4900 0.4870 0.4850
11.665000 0.4830 0.4800 0.4750 0.4710 0.4640
11.699047 0.4560 0.4420 0.4230 0.3980 0.3670
11.733000 0.3380 0.3020 0.2760 0.2640 0.2610
11.767047 0.2640 0.2830 0.3000 0.3170 0.3400
11.801000 0.3650 0.4000 0.4410 0.4780 0.4880
11.835047 0.5050 0.5170 0.5280 0.5400 0.5480
11.869000 0.5580 0.5670 0.5720 0.5740 0.5760
11.903047 0.5770 0.5790 0.5770 0.5550 0.5280
11.937000 0.5040 0.4680 0.4390 0.4100 0.3890
11.971047 0.3690 0.3580 0.3530 0.3530 0.3640
12.005000 0.3700 0.3760 0.3810 0.3840 0.3840
12.039047 0.3810 0.3530 0.3330 0.3090 0.2970
12.073000 0.2820 0.2800 0.2830 0.2920 0.3050
12.107047 0.3170 0.3310 0.3430 0.3530 0.3580
12.141000 0.3790 0.3960 0.4150 0.4300 0.4470
12.175047 0.4630 0.4800 0.4990 0.5160 0.5430
12.209000 0.5620 0.5770 0.5890 0.6010 0.6100
12.243047 0.6230 0.6340 0.6460 0.6580 0.6710
12.277000 0.6850 0.6920 0.6990 0.7070 0.7120
12.311047 0.7160 0.7170 0.7170 0.7160 0.7120
12.345000 0.7050 0.6950 0.6800 0.6680 0.6580
12.379047 0.6510 0.6460 0.6410 0.6340 0.6320
12.413000 0.6320 0.6340 0.6340 0.6340 0.6370
12.447047 0.6370 0.6320 0.6250 0.6180 0.6080
12.481000 0.6050 0.6030 0.6010 0.5930 0.5880
12.515047 0.5810 0.5740 0.5570 0.5500 0.5430
12.549000 0.5380 0.5330 0.5240 0.5160 0.5050
12.583047 0.4990 0.4970 0.4920 0.4850 0.4800
12.617000 0.4760 0.4710 0.4710 0.4680 0.4630
12.651047 0.4610 0.4610 0.4590 0.4610 0.4630
12.685000 0.4640 0.4680 0.4640 0.4590 0.4560
12.719047 0.4540 0.4520 0.4510 0.4440 0.4370
12.754000 0.4270 0.4200 0.4110 0.4060 0.3980
12.788047 0.3910 0.3820 0.3700 0.3570 0.3520
12.822000 0.3430 0.3430 0.3410 0.3410 0.3430
12.856047 0.3570 0.3700 0.3860 0.4030 0.4220
12.890000 0.4410 0.4610 0.4820 0.5020 0.5230
12.924047 0.5430 0.5640 0.5810 0.5980 0.6130
12.958000 0.6270 0.6390 0.6470 0.6590 0.6700
12.992047 0.6820 0.6900 0.6970 0.6990 0.7020
13.026000 0.7020 0.7050 0.7090 0.7110 0.7190
13.060047 0.7190 0.7140 0.7110 0.7110 0.7090
13.094000 0.7090 0.7070 0.7070 0.7070 0.7050
13.128047 0.7050 0.7050 0.7070 0.7070 0.7070
13.162000 0.7070 0.7090 0.7090 0.7110 0.7110
13.196047 0.7120 0.7140 0.7140 0.7160 0.7160
13.230000 0.7190 0.7230 0.7280 0.7290 0.7310
13.264047 0.7330 0.7430 0.7500 0.7500 0.7520
13.298000 0.7530 0.7530 0.7530 0.7530 0.7500
13.332047 0.7470 0.7410 0.7360 0.7280 0.7210
13.366000 0.7110 0.6950 0.6800 0.6640 0.6510
13.400047 0.6390 0.6300 0.6290 0.6320 0.6390
13.434000 0.6470 0.6540 0.6590 0.6630 0.6640
13.468047 0.6640 0.6660 0.6660 0.6680 0.6680
13.502000 0.6700 0.6700 0.6700 0.6640 0.6610
13.536047 0.6610 0.6590 0.6540 0.6510 0.6490
13.570000 0.6490 0.6490 0.6490 0.6490 0.6470
13.604047 0.6470 0.6470 0.6470 0.6470 0.6470
13.638000 0.6470 0.6470 0.6490 0.6490 0.6490
13.672047 0.6510 0.6510 0.6510 0.6520 0.6540
13.706000 0.6540 0.6520 0.6520 0.6510 0.6490
13.740047 0.6470 0.6490 0.6510 0.6520 0.6540
13.774000 0.6540 0.6560 0.6560 0.6560 0.6580
13.808047 0.6590 0.6590 0.6590 0.6590 0.6590
13.842000 0.6610 0.6610 0.6610 0.6610 0.6630
13.876047 0.6630 0.6630 0.6630 0.6660 0.6700
13.911000 0.6750 0.6820 0.6880 0.6900 0.6940
13.945047 0.6990 0.7040 0.7090 0.7110 0.7120
13.979000 0.7170 0.7190 0.7210 0.7230 0.7230
14.013047 0.7210 0.7210 0.7210 0.7170 0.7090
14.047000 0.7020 0.6950 0.6850 0.6680 0.6560
14.081047 0.6460 0.6350 0.6270 0.6150 0.6130
14.115000 0.6130 0.6130 0.6130 0.6130 0.6150
14.149047 0.6180 0.6230 0.6350 0.6410 0.6410
14.183000 0.6520 0.6580 0.6700 0.6800 0.6880
14.217047 0.6950 0.7020 0.7090 0.7160 0.7240
14.251000 0.7330 0.7430 0.7530 0.7600 0.7620
14.285047 0.7640 0.7690 0.7770 0.7810 0.7840
14.319000 0.7890 0.7960 0.8010 0.8050 0.8060
14.353047 0.8110 0.8130 0.8130 0.8130 0.8150
14.387000 0.8170 0.8180 0.8180 0.8180 0.8200
14.421047 0.8220 0.8250 0.8300 0.8320 0.8320
14.455000 0.8300 0.8300 0.8300 0.8300 0.8320
14.489047 0.8340 0.8340 0.8320 0.8340 0.8340
14.523000 0.8340 0.8340 0.8340 0.8350 0.8370
14.557047 0.8390 0.8410 0.8410 0.8410 0.8410
14.591000 0.8410 0.8410 0.8410 0.8420 0.8440
14.625047 0.8440 0.8460 0.8470 0.8470 0.8470
14.659000 0.8460 0.8460 0.8440 0.8440 0.8420
14.693047 0.8420 0.8410 0.8410 0.8410 0.8390
14.727000 0.8370 0.8370 0.8370 0.8390 0.8410
14.761047 0.8410 0.8410 0.8410 0.8420 0.8420
14.795000 0.8420 0.8410 0.8370 0.8350 0.8340
14.829047 0.8340 0.8320 0.8320 0.8340 0.8350
14.863000 0.8340 0.8340 0.8320 0.8300 0.8300
14.897047 0.8300 0.8300 0.8290 0.8270 0.8270
14.931000 0.8250 0.8250 0.8230 0.8220 0.8200
14.965047 0.8150 0.8080 0.8060 0.7980 0.7910
15.000000 0.7810 0.7670 0.7570 0.7470 0.7410
15.034047 0.7360 0.7280 0.7210 0.7120 0.7070
15.068000 0.7020 0.7020 0.7000 0.6970 0.6950
15.102047 0.6940 0.6940 0.6920 0.6920 0.6920
15.136000 0.6920 0.6920 0.6900 0.6900 0.6900
15.170047 0.6900 0.6900 0.6900 0.6920 0.6940
15.204000 0.6940 0.6940 0.6940 0.6950 0.6970
15.238047 0.7000 0.7020 0.7070 0.7190 0.7210
15.272000 0.7210 0.7210 0.7140 0.7070 0.7020
15.306047 0.6970 0.6920 0.6880 0.6830 0.6760
15.340000 0.6700 0.6580 0.6420 0.6320 0.6230
15.374047 0.6170 0.6080 0.6030 0.5890 0.5770
15.408000 0.5650 0.5580 0.5480 0.5450 0.5410
15.442047 0.5410 0.5400 0.5400 0.5400 0.5410
15.476000 0.5410 0.5450 0.5520 0.5550 0.5620
15.510047 0.5690 0.5760 0.5820 0.5880 0.5980
15.544000 0.6030 0.6050 0.6080 0.6100 0.6100
15.578047 0.6110 0.6110 0.6100 0.6060 0.6010
15.612000 0.5980 0.5980 0.5930 0.5890 0.5820
15.646047 0.5770 0.5670 0.5600 0.5550 0.5550
15.680000 0.5530 0.5480 0.5450 0.5380 0.5350
15.714047 0.5330 0.5330 0.5330 0.5350 0.5410
15.748000 0.5480 0.5570 0.5640 0.5720 0.5760
15.782047 0.5770 0.5840 0.5910 0.5960 0.6000
15.816000 0.6030 0.6050 0.6050 0.6110 0.6130
15.850047 0.6170 0.6200 0.6200 0.6200 0.6180
15.884000 0.6170 0.6170 0.6150 0.6150 0.6200
15.918047 0.6200 0.6200 0.6200 0.6180 0.6150
15.952000 0.6150 0.6150 0.6130 0.6130 0.6080
##END=
