##TITLE=3-ETHOXYCARBONYL-17-OXAESTRA-1,3,5(10)-TRIEN-16-ONE
##JCAMP-DX=4.24
##DATA TYPE=INFRARED SPECTRUM
##CLASS=COBLENTZ III
##ORIGIN=THE WORCESTER FOUNDATION FOR EXPERIMENTAL BIOLOGY, Neal L. McNiven
##OWNER=COBLENTZ SOCIETY
Collection (C) 2018 copyright by the U.S. Secretary of Commerce
on behalf of the United States of America. All rights reserved.
##DATE=1964/07/13
##NAMES=ethyl 11a-methyl-2-oxo-2,3,3a,3b,4,5,9b,10,11,11a-decahydrophenanthro[2,1-b]furan-7-carboxylate
##MOLFORM=C20 H24 O4
##SOURCE REFERENCE=COBLENTZ NO. 5486
##$NIST ID=B6005486
##$NIST SOURCE=COBLENTZ
##$NIST IMAGE=cob5486
##SPECTROMETER/DATA SYSTEM=BECKMAN IR-7
##STATE=SOLID (KBr DISC)
##SAMPLING PROCEDURE=TRANSMISSION
##RESOLUTION=4
##DATA PROCESSING=DIGITIZED BY NIST FROM HARD COPY (FROM TWO SEGMENTS)
##XUNITS=1/CM
##YUNITS=TRANSMITTANCE
##XFACTOR=1.000000
##YFACTOR=1
##DELTAX=0.728029
##FIRSTX=601.456
##LASTX=3996.98
##FIRSTY=0.647
##MAXX=3996.98
##MINX=601.456
##MAXY=0.744
##MINY=0.01
##NPOINTS=4665
##XYDATA=(X++(Y..Y))
601.456000 0.6470 0.6460 0.6440 0.6420 0.6410
605.096147 0.6390 0.6380 0.6330 0.6260 0.6210
608.736294 0.6160 0.6120 0.6070 0.6050 0.6010
612.376440 0.6000 0.6000 0.5990 0.5980 0.5970
616.016587 0.5970 0.5950 0.5920 0.5900 0.5900
619.656734 0.5900 0.5870 0.5870 0.5860 0.5800
623.296881 0.5780 0.5740 0.5740 0.5730 0.5730
626.937028 0.5730 0.5720 0.5720 0.5710 0.5710
630.577175 0.5710 0.5710 0.5710 0.5720 0.5730
634.217321 0.5750 0.5770 0.5790 0.5820 0.5840
637.857468 0.5900 0.5920 0.5940 0.6000 0.6000
641.497615 0.6020 0.6020 0.6030 0.6030 0.6040
645.137762 0.6040 0.6050 0.6050 0.6060 0.6080
648.777909 0.6090 0.6100 0.6110 0.6130 0.6230
652.418055 0.6270 0.6290 0.6290 0.6290 0.6310
656.058202 0.6310 0.6310 0.6310 0.6320 0.6320
659.698349 0.6310 0.6300 0.6290 0.6290 0.6280
663.338496 0.6290 0.6290 0.6300 0.6310 0.6310
666.978643 0.6320 0.6320 0.6320 0.6320 0.6320
670.618790 0.6330 0.6330 0.6320 0.6280 0.6260
674.258936 0.6230 0.6220 0.6210 0.6200 0.6160
677.899083 0.6150 0.6140 0.6130 0.6130 0.6130
681.539230 0.6110 0.6100 0.6050 0.6000 0.5960
685.179377 0.5900 0.5880 0.5870 0.5830 0.5810
688.819524 0.5770 0.5730 0.5640 0.5520 0.5271
692.459671 0.5111 0.5040 0.4970 0.4701 0.4501
696.099817 0.4410 0.4230 0.4020 0.4010 0.4020
699.739964 0.4160 0.4250 0.4619 0.5088 0.5239
703.380111 0.5370 0.5590 0.5610 0.5660 0.5710
707.020258 0.5750 0.5770 0.5770 0.5770 0.5750
710.660405 0.5730 0.5610 0.5610 0.5690 0.5760
714.300551 0.5800 0.5890 0.5920 0.6010 0.6050
717.940698 0.6090 0.6100 0.6110 0.6130 0.6130
721.580845 0.6110 0.6090 0.6070 0.6050 0.6030
725.220992 0.6010 0.6000 0.5920 0.5910 0.5910
728.861139 0.5900 0.5850 0.5770 0.5730 0.5621
732.501286 0.5470 0.5430 0.5350 0.5270 0.5200
736.141432 0.5080 0.5030 0.4970 0.4850 0.4800
739.781579 0.4640 0.4490 0.4360 0.4360 0.4350
743.421726 0.4360 0.4360 0.4380 0.4440 0.4500
747.061873 0.4560 0.4630 0.4750 0.4840 0.5119
750.702020 0.5300 0.5430 0.5550 0.5600 0.5600
754.342166 0.5600 0.5610 0.5610 0.5610 0.5610
757.982313 0.5610 0.5630 0.5660 0.5690 0.5700
761.622460 0.5760 0.5810 0.5900 0.5910 0.5920
765.262607 0.5950 0.6000 0.6000 0.6020 0.6030
768.902754 0.6030 0.6030 0.6010 0.6000 0.5950
772.542901 0.5900 0.5890 0.5860 0.5810 0.5720
776.183047 0.5620 0.5560 0.5500 0.5420 0.5220
779.823194 0.5001 0.4850 0.4711 0.4551 0.4500
783.463341 0.4490 0.4490 0.4500 0.4510 0.4530
787.103488 0.4550 0.4570 0.4600 0.4620 0.4650
790.743635 0.4690 0.4700 0.4780 0.4860 0.4890
794.383781 0.4910 0.4950 0.4970 0.4990 0.4990
798.023928 0.4980 0.4980 0.4950 0.4910 0.4850
801.664075 0.4720 0.4670 0.4590 0.4550 0.4520
805.304222 0.4470 0.4440 0.4430 0.4430 0.4430
808.944369 0.4430 0.4420 0.4410 0.4410 0.4390
812.584516 0.4370 0.4330 0.4300 0.4200 0.4150
816.224662 0.4050 0.4000 0.3910 0.3810 0.3581
819.864809 0.3390 0.3200 0.3100 0.2980 0.2910
823.504956 0.2830 0.2651 0.2630 0.2630 0.2640
827.145103 0.2680 0.2740 0.2790 0.2840 0.2920
830.785250 0.2980 0.3080 0.3190 0.3250 0.3389
834.425396 0.3390 0.3500 0.3600 0.3710 0.3810
838.065543 0.3910 0.3970 0.3990 0.4000 0.4000
841.705690 0.3990 0.3990 0.3980 0.3960 0.3960
845.345837 0.3960 0.3960 0.3940 0.3910 0.3860
848.985984 0.3830 0.3740 0.3640 0.3540 0.3470
852.626131 0.3400 0.3231 0.3220 0.3220 0.3230
856.266277 0.3250 0.3290 0.3340 0.3470 0.3580
859.906424 0.3700 0.3800 0.3900 0.4069 0.4150
863.546571 0.4200 0.4220 0.4280 0.4300 0.4330
867.186718 0.4380 0.4410 0.4430 0.4460 0.4490
870.826865 0.4510 0.4530 0.4520 0.4510 0.4510
874.467012 0.4470 0.4410 0.4340 0.4310 0.4220
878.107158 0.4150 0.4100 0.4010 0.3830 0.3720
881.747305 0.3441 0.3290 0.3210 0.3090 0.3000
885.387452 0.2920 0.2790 0.2600 0.2430 0.2330
889.027599 0.2240 0.2100 0.1960 0.1830 0.1820
892.667746 0.1830 0.1870 0.1930 0.1980 0.2030
896.307892 0.2060 0.2130 0.2170 0.2270 0.2409
899.948039 0.2540 0.2610 0.2640 0.2650 0.2640
903.588186 0.2630 0.2580 0.2500 0.2470 0.2400
907.228333 0.2400 0.2400 0.2450 0.2540 0.2600
910.868480 0.2710 0.2740 0.2760 0.2760 0.2760
914.508627 0.2760 0.2720 0.2640 0.2510 0.2370
918.148773 0.2230 0.2210 0.2210 0.2210 0.2260
921.788920 0.2340 0.2450 0.2550 0.2580 0.2690
925.429067 0.2820 0.2999 0.3159 0.3190 0.3210
929.069214 0.3210 0.3200 0.3190 0.3140 0.3100
932.709361 0.3060 0.3020 0.3000 0.3000 0.3000
936.349507 0.3000 0.2990 0.2920 0.2850 0.2760
939.989654 0.2680 0.2660 0.2560 0.2460 0.2360
943.629801 0.2350 0.2350 0.2360 0.2400 0.2450
947.269948 0.2470 0.2530 0.2600 0.2680 0.2700
950.910095 0.2710 0.2700 0.2680 0.2640 0.2500
954.550242 0.2410 0.2310 0.2200 0.2090 0.1871
958.190388 0.1670 0.1220 0.1080 0.0990 0.0880
961.830535 0.0780 0.0780 0.0780 0.0780 0.0780
965.470682 0.0820 0.0880 0.0950 0.1040 0.1120
969.110829 0.1200 0.1290 0.1300 0.1250 0.1200
972.750976 0.1140 0.1060 0.0910 0.0820 0.0730
976.391122 0.0670 0.0650 0.0640 0.0640 0.0650
980.031269 0.0670 0.0700 0.0750 0.0790 0.0830
983.671416 0.0870 0.0910 0.0990 0.1010 0.1010
987.311563 0.1010 0.1040 0.1050 0.1070 0.1140
990.951710 0.1270 0.1340 0.1400 0.1539 0.1639
994.591857 0.1780 0.1900 0.2010 0.2140 0.2220
998.232003 0.2310 0.2390 0.2430 0.2500 0.2510
1001.872150 0.2530 0.2530 0.2500 0.2450 0.2420
1005.512297 0.2400 0.2340 0.2290 0.2260 0.2240
1009.152444 0.2210 0.2190 0.2130 0.1950 0.1880
1012.792591 0.1800 0.1660 0.1481 0.1350 0.1141
1016.432737 0.1060 0.0980 0.0890 0.0810 0.0680
1020.072884 0.0670 0.0670 0.0670 0.0700 0.0760
1023.713031 0.1000 0.1140 0.1290 0.1440 0.1580
1027.353178 0.1690 0.1790 0.1870 0.1980 0.2060
1030.993325 0.2200 0.2270 0.2300 0.2400 0.2460
1034.633472 0.2520 0.2580 0.2630 0.2640 0.2650
1038.273618 0.2660 0.2650 0.2550 0.2510 0.2450
1041.913765 0.2370 0.2330 0.2270 0.2190 0.2110
1045.553912 0.1990 0.1900 0.1790 0.1680 0.1560
1049.194059 0.1371 0.1270 0.1190 0.1120 0.1090
1052.834206 0.1080 0.1070 0.1080 0.1090 0.1140
1056.474353 0.1180 0.1220 0.1250 0.1250 0.1240
1060.114499 0.1220 0.1190 0.1180 0.1190 0.1200
1063.754646 0.1200 0.1230 0.1260 0.1280 0.1310
1067.394793 0.1380 0.1460 0.1510 0.1560 0.1580
1071.034940 0.1590 0.1590 0.1610 0.1610 0.1620
1074.675087 0.1620 0.1620 0.1610 0.1610 0.1600
1078.315233 0.1580 0.1560 0.1540 0.1520 0.1510
1081.955380 0.1500 0.1490 0.1440 0.1430 0.1420
1085.595527 0.1390 0.1360 0.1300 0.1280 0.1141
1089.235674 0.1040 0.0970 0.0830 0.0780 0.0730
1092.875821 0.0630 0.0600 0.0530 0.0480 0.0440
1096.515968 0.0400 0.0380 0.0390 0.0460 0.0480
1100.156114 0.0510 0.0560 0.0610 0.0660 0.0710
1103.796261 0.0780 0.0880 0.0990 0.1070 0.1090
1107.436408 0.1220 0.1270 0.1320 0.1340 0.1390
1111.076555 0.1390 0.1400 0.1400 0.1400 0.1390
1114.716702 0.1370 0.1280 0.1200 0.1090 0.1060
1118.356848 0.0980 0.0940 0.0940 0.0960 0.0990
1121.996995 0.0990 0.1010 0.1020 0.1020 0.1030
1125.637142 0.1020 0.0990 0.0960 0.0930 0.0890
1129.277289 0.0880 0.0880 0.0870 0.0870 0.0860
1132.917436 0.0860 0.0850 0.0850 0.0840 0.0830
1136.557583 0.0820 0.0800 0.0770 0.0700 0.0680
1140.197729 0.0660 0.0610 0.0590 0.0570 0.0520
1143.837876 0.0490 0.0460 0.0440 0.0440 0.0430
1147.478023 0.0430 0.0440 0.0460 0.0470 0.0490
1151.118170 0.0500 0.0500 0.0510 0.0510 0.0510
1154.758317 0.0520 0.0520 0.0540 0.0540 0.0550
1158.398463 0.0570 0.0580 0.0610 0.0640 0.0660
1162.038610 0.0670 0.0670 0.0670 0.0670 0.0660
1165.678757 0.0660 0.0650 0.0630 0.0610 0.0600
1169.318904 0.0550 0.0540 0.0530 0.0520 0.0530
1172.959051 0.0570 0.0600 0.0670 0.0700 0.0740
1176.599198 0.0780 0.0780 0.0800 0.0790 0.0790
1180.239344 0.0780 0.0730 0.0700 0.0670 0.0620
1183.879491 0.0600 0.0580 0.0540 0.0530 0.0500
1187.519638 0.0490 0.0480 0.0480 0.0460 0.0460
1191.159785 0.0440 0.0420 0.0400 0.0390 0.0380
1194.799932 0.0360 0.0350 0.0330 0.0310 0.0310
1198.440079 0.0300 0.0290 0.0290 0.0300 0.0310
1202.080225 0.0310 0.0350 0.0360 0.0390 0.0410
1205.720372 0.0440 0.0460 0.0480 0.0490 0.0510
1209.360519 0.0520 0.0520 0.0520 0.0510 0.0510
1213.000666 0.0500 0.0490 0.0490 0.0480 0.0480
1216.640813 0.0470 0.0460 0.0460 0.0450 0.0450
1220.280959 0.0470 0.0490 0.0520 0.0580 0.0600
1223.921106 0.0610 0.0670 0.0710 0.0750 0.0780
1227.561253 0.0790 0.0800 0.0800 0.0820 0.0830
1231.201400 0.0830 0.0830 0.0830 0.0830 0.0830
1234.841547 0.0840 0.0830 0.0830 0.0830 0.0830
1238.481694 0.0830 0.0830 0.0840 0.0880 0.0910
1242.121840 0.1040 0.1140 0.1180 0.1240 0.1300
1245.761987 0.1410 0.1510 0.1590 0.1670 0.1740
1249.402134 0.1820 0.1930 0.2010 0.2080 0.2110
1253.042281 0.2140 0.2160 0.2180 0.2180 0.2190
1256.682428 0.2190 0.2190 0.2180 0.2160 0.2110
1260.322574 0.2010 0.1920 0.1820 0.1700 0.1600
1263.962721 0.1490 0.1420 0.1370 0.1270 0.1210
1267.602868 0.1170 0.1170 0.1150 0.1140 0.1110
1271.243015 0.1090 0.1090 0.1090 0.1080 0.1080
1274.883162 0.1090 0.1110 0.1120 0.1150 0.1170
1278.523309 0.1220 0.1290 0.1360 0.1430 0.1520
1282.163455 0.1600 0.1610 0.1610 0.1610 0.1590
1285.803602 0.1520 0.1430 0.1350 0.1210 0.1080
1289.443749 0.0920 0.0790 0.0780 0.0780 0.0780
1293.083896 0.0780 0.0790 0.0840 0.0870 0.0980
1296.724043 0.1080 0.1160 0.1210 0.1240 0.1379
1300.364189 0.1490 0.1580 0.1640 0.1690 0.1730
1304.004336 0.1770 0.1810 0.1870 0.1980 0.1990
1307.644483 0.2010 0.2060 0.2110 0.2240 0.2290
1311.284630 0.2390 0.2560 0.2680 0.2800 0.2850
1314.924777 0.2930 0.3000 0.3010 0.3020 0.3020
1318.564924 0.3010 0.2950 0.2890 0.2721 0.2491
1322.205070 0.2060 0.1890 0.1820 0.1700 0.1560
1325.845217 0.1390 0.1350 0.1300 0.1300 0.1479
1329.485364 0.1580 0.1640 0.1770 0.1860 0.1970
1333.125511 0.2030 0.2180 0.2220 0.2280 0.2380
1336.765658 0.2420 0.2460 0.2470 0.2480 0.2470
1340.405804 0.2470 0.2450 0.2430 0.2420 0.2380
1344.045951 0.2340 0.2290 0.2240 0.2220 0.2210
1347.686098 0.2190 0.2190 0.2190 0.2220 0.2250
1351.326245 0.2320 0.2380 0.2450 0.2530 0.2610
1354.966392 0.2680 0.2780 0.2880 0.2920 0.3000
1358.606539 0.3020 0.3020 0.3020 0.3010 0.2970
1362.246685 0.2930 0.2920 0.2741 0.2531 0.2440
1365.886832 0.2370 0.2270 0.2160 0.2140 0.2150
1369.526979 0.2210 0.2320 0.2430 0.2510 0.2610
1373.167126 0.2790 0.2820 0.2860 0.2880 0.2890
1376.807273 0.2880 0.2830 0.2790 0.2730 0.2690
1380.447420 0.2590 0.2500 0.2410 0.2330 0.2260
1384.087566 0.2200 0.2150 0.2140 0.2090 0.2090
1387.727713 0.2160 0.2290 0.2370 0.2480 0.2680
1391.367860 0.2840 0.3019 0.3179 0.3280 0.3360
1395.008007 0.3510 0.3580 0.3640 0.3680 0.3750
1398.648154 0.3830 0.3920 0.3990 0.4030 0.4050
1402.288300 0.4060 0.4070 0.4070 0.4070 0.4070
1405.928447 0.4060 0.4040 0.4000 0.3890 0.3830
1409.568594 0.3680 0.3510 0.3320 0.3180 0.3120
1413.208741 0.3070 0.3000 0.2980 0.2890 0.2810
1416.848888 0.2780 0.2740 0.2730 0.2730 0.2740
1420.489035 0.2760 0.2850 0.2930 0.3079 0.3160
1424.129181 0.3230 0.3330 0.3340 0.3360 0.3390
1427.769328 0.3420 0.3430 0.3440 0.3430 0.3360
1431.409475 0.3310 0.3240 0.3150 0.3130 0.3100
1435.049622 0.3050 0.2980 0.2890 0.2890 0.2940
1438.689769 0.2950 0.3070 0.3130 0.3190 0.3230
1442.329915 0.3230 0.3240 0.3250 0.3240 0.3190
1445.970062 0.3140 0.2880 0.2680 0.2460 0.2290
1449.610209 0.2160 0.2040 0.1950 0.1811 0.1780
1453.250356 0.1740 0.1700 0.1680 0.1670 0.1610
1456.890503 0.1550 0.1490 0.1490 0.1610 0.1680
1460.530650 0.1800 0.1910 0.2030 0.2190 0.2290
1464.170796 0.2370 0.2400 0.2420 0.2480 0.2500
1467.810943 0.2530 0.2550 0.2610 0.2670 0.2760
1471.451090 0.2810 0.2850 0.2880 0.2890 0.2900
1475.091237 0.2920 0.2930 0.2930 0.2930 0.2920
1478.731384 0.2900 0.2790 0.2461 0.2271 0.2101
1482.371530 0.2080 0.1990 0.1870 0.1770 0.1740
1486.011677 0.1730 0.1690 0.1441 0.1221 0.1011
1489.651824 0.0800 0.0790 0.0800 0.0930 0.1070
1493.291971 0.1210 0.1340 0.1479 0.1530 0.1590
1496.932118 0.1770 0.1980 0.2290 0.2560 0.2889
1500.572265 0.3169 0.3300 0.3390 0.3460 0.3490
1504.212411 0.3540 0.3570 0.3600 0.3650 0.3830
1507.852558 0.3960 0.4229 0.4409 0.4579 0.4779
1511.492705 0.5090 0.5190 0.5250 0.5320 0.5390
1515.132852 0.5450 0.5610 0.5660 0.5670 0.5690
1518.772999 0.5740 0.5780 0.5820 0.5930 0.6000
1522.413145 0.6070 0.6120 0.6170 0.6210 0.6240
1526.053292 0.6270 0.6340 0.6370 0.6380 0.6450
1529.693439 0.6490 0.6500 0.6550 0.6570 0.6600
1533.333586 0.6600 0.6600 0.6600 0.6610 0.6620
1536.973733 0.6630 0.6630 0.6640 0.6650 0.6650
1540.613880 0.6660 0.6660 0.6660 0.6660 0.6650
1544.254026 0.6650 0.6650 0.6640 0.6630 0.6620
1547.894173 0.6600 0.6600 0.6590 0.6590 0.6580
1551.534320 0.6570 0.6570 0.6580 0.6580 0.6580
1555.174467 0.6570 0.6570 0.6570 0.6570 0.6560
1558.814614 0.6550 0.6520 0.6440 0.6350 0.6260
1562.454761 0.6160 0.6160 0.6100 0.6020 0.5980
1566.094907 0.5900 0.5890 0.5820 0.5730 0.5640
1569.735054 0.5510 0.5430 0.5370 0.5330 0.5320
1573.375201 0.5320 0.5300 0.5151 0.5050 0.4941
1577.015348 0.4750 0.4540 0.4300 0.4090 0.3970
1580.655495 0.3960 0.3960 0.3960 0.4050 0.4130
1584.295641 0.4260 0.4450 0.4570 0.4710 0.4800
1587.935788 0.4880 0.4910 0.4930 0.4940 0.4930
1591.575935 0.4910 0.4850 0.4700 0.4610 0.4490
1595.216082 0.4340 0.4220 0.4100 0.3981 0.3721
1598.856229 0.3430 0.3110 0.2950 0.2890 0.2870
1602.496376 0.2870 0.2870 0.2880 0.2970 0.3070
1606.136522 0.3160 0.3210 0.3230 0.3420 0.3630
1609.776669 0.3820 0.4000 0.4249 0.4330 0.4360
1613.416816 0.4440 0.4500 0.4630 0.4770 0.4820
1617.056963 0.4920 0.4960 0.4980 0.5010 0.5050
1620.697110 0.5060 0.5090 0.5090 0.5090 0.5080
1624.337256 0.5080 0.5060 0.5020 0.5000 0.5000
1627.977403 0.4990 0.4940 0.4900 0.4870 0.4850
1631.617550 0.4830 0.4830 0.4820 0.4810 0.4790
1635.257697 0.4770 0.4750 0.4720 0.4700 0.4670
1638.897844 0.4640 0.4610 0.4580 0.4560 0.4560
1642.537991 0.4560 0.4560 0.4560 0.4540 0.4540
1646.178137 0.4470 0.4430 0.4400 0.4380 0.4360
1649.818284 0.4350 0.4330 0.4300 0.4250 0.4190
1653.458431 0.4080 0.4010 0.3990 0.3910 0.3890
1657.098578 0.3880 0.3850 0.3850 0.3820 0.3810
1660.738725 0.3700 0.3481 0.3440 0.3390 0.3340
1664.378871 0.3310 0.3310 0.3300 0.3280 0.3220
1668.019018 0.3210 0.3150 0.2971 0.2880 0.2870
1671.659165 0.2860 0.2840 0.2770 0.2610 0.2490
1675.299312 0.2420 0.2410 0.2400 0.2370 0.2350
1678.939459 0.2350 0.2340 0.2330 0.2310 0.2260
1682.579606 0.2190 0.2070 0.2010 0.2000 0.1990
1686.219752 0.1900 0.1820 0.1720 0.1660 0.1640
1689.859899 0.1640 0.1640 0.1630 0.1620 0.1610
1693.500046 0.1610 0.1600 0.1580 0.1560 0.1510
1697.140193 0.1440 0.1350 0.1260 0.1140 0.1040
1700.780340 0.0960 0.0890 0.0830 0.0700 0.0670
1704.420487 0.0600 0.0540 0.0510 0.0490 0.0470
1708.060633 0.0440 0.0390 0.0350 0.0350 0.0420
1711.700780 0.0430 0.0430 0.0410 0.0390 0.0330
1715.340927 0.0290 0.0250 0.0200 0.0130 0.0100
1718.981074 0.0100 0.0100 0.0120 0.0130 0.0170
1722.621221 0.0200 0.0240 0.0260 0.0270 0.0280
1726.261367 0.0290 0.0330 0.0390 0.0480 0.0530
1729.901514 0.0570 0.0590 0.0600 0.0610 0.0620
1733.541661 0.0650 0.0670 0.0690 0.0700 0.0710
1737.181808 0.0720 0.0730 0.0750 0.0760 0.0770
1740.821955 0.0770 0.0770 0.0770 0.0750 0.0750
1744.462102 0.0750 0.0740 0.0700 0.0600 0.0520
1748.102248 0.0390 0.0280 0.0280 0.0270 0.0270
1751.742395 0.0270 0.0280 0.0280 0.0300 0.0320
1755.382542 0.0350 0.0390 0.0440 0.0480 0.0530
1759.022689 0.0570 0.0600 0.0650 0.0690 0.0750
1762.662836 0.0780 0.0790 0.0840 0.0900 0.0970
1766.302982 0.1070 0.1140 0.1220 0.1340 0.1480
1769.943129 0.1669 0.1889 0.1980 0.2080 0.2130
1773.583276 0.2240 0.2310 0.2370 0.2420 0.2470
1777.223423 0.2520 0.2590 0.2680 0.2800 0.2949
1780.863570 0.3050 0.3140 0.3210 0.3270 0.3340
1784.503717 0.3400 0.3490 0.3530 0.3570 0.3600
1788.143863 0.3610 0.3710 0.3810 0.3920 0.4020
1791.784010 0.4120 0.4130 0.4170 0.4200 0.4220
1795.424157 0.4250 0.4280 0.4310 0.4360 0.4400
1799.064304 0.4460 0.4530 0.4610 0.4700 0.4740
1802.704451 0.4760 0.4770 0.4780 0.4790 0.4810
1806.344597 0.4860 0.4900 0.5000 0.5070 0.5160
1809.984744 0.5290 0.5340 0.5350 0.5390 0.5420
1813.624891 0.5480 0.5500 0.5570 0.5610 0.5630
1817.265038 0.5670 0.5710 0.5750 0.5790 0.5840
1820.905185 0.5900 0.5950 0.5980 0.6000 0.6010
1824.545332 0.6010 0.6020 0.6030 0.6050 0.6090
1828.185478 0.6130 0.6170 0.6200 0.6230 0.6240
1831.825625 0.6270 0.6290 0.6300 0.6340 0.6390
1835.465772 0.6420 0.6420 0.6440 0.6450 0.6470
1839.105919 0.6480 0.6500 0.6520 0.6550 0.6590
1842.746066 0.6650 0.6680 0.6710 0.6780 0.6800
1846.386212 0.6810 0.6840 0.6870 0.6890 0.6920
1850.026359 0.6940 0.6960 0.6970 0.6990 0.6990
1853.666506 0.7010 0.7020 0.7030 0.7040 0.7040
1857.306653 0.7050 0.7070 0.7070 0.7090 0.7100
1860.946800 0.7100 0.7100 0.7100 0.7100 0.7100
1864.586947 0.7110 0.7110 0.7110 0.7110 0.7100
1868.227093 0.7080 0.7050 0.7030 0.6990 0.6960
1871.867240 0.6930 0.6910 0.6910 0.6900 0.6900
1875.507387 0.6900 0.6900 0.6910 0.6910 0.6910
1879.147534 0.6910 0.6910 0.6910 0.6910 0.6910
1882.787681 0.6920 0.6920 0.6930 0.6930 0.6940
1886.427828 0.6950 0.6970 0.6970 0.6990 0.6990
1890.067974 0.6990 0.7010 0.7020 0.7040 0.7050
1893.708121 0.7070 0.7070 0.7090 0.7100 0.7120
1897.348268 0.7140 0.7160 0.7180 0.7200 0.7220
1900.988415 0.7240 0.7250 0.7270 0.7280 0.7300
1904.628562 0.7310 0.7310 0.7320 0.7320 0.7330
1908.268708 0.7330 0.7350 0.7360 0.7360 0.7360
1911.908855 0.7370 0.7380 0.7380 0.7380 0.7380
1915.549002 0.7390 0.7380 0.7390 0.7400 0.7400
1919.189149 0.7410 0.7410 0.7410 0.7420 0.7430
1922.829296 0.7430 0.7440 0.7440 0.7440 0.7440
1926.469443 0.7440 0.7440 0.7440 0.7430 0.7420
1930.109589 0.7420 0.7410 0.7410 0.7410 0.7420
1933.749736 0.7420 0.7410 0.7410 0.7410 0.7410
1937.389883 0.7410 0.7410 0.7410 0.7410 0.7410
1941.030030 0.7400 0.7400 0.7390 0.7390 0.7380
1944.670177 0.7380 0.7370 0.7360 0.7360 0.7350
1948.310323 0.7330 0.7320 0.7290 0.7280 0.7260
1951.950470 0.7250 0.7230 0.7210 0.7200 0.7190
1955.590617 0.7190 0.7190 0.7200 0.7200 0.7230
1959.230764 0.7240 0.7250 0.7270 0.7280 0.7300
1962.870911 0.7310 0.7310 0.7310 0.7320 0.7320
1966.511058 0.7320 0.7320 0.7320 0.7310 0.7310
1970.151204 0.7310 0.7310 0.7310 0.7310 0.7310
1973.791351 0.7320 0.7320 0.7320 0.7320 0.7320
1977.431498 0.7310 0.7320 0.7320 0.7320 0.7320
1981.071645 0.7320 0.7320 0.7320 0.7320 0.7320
1984.711792 0.7320 0.7320 0.7320 0.7320 0.7320
1988.351938 0.7320 0.7320 0.7320 0.7320 0.7320
1991.992085 0.7320 0.7310 0.7310 0.7310 0.7310
1995.632232 0.7310 0.7310 0.7310 0.7310 0.7310
1999.272379 0.7310 0.7300 0.7297 0.7295 0.7292
2002.912526 0.7290 0.7290 0.7290 0.7290 0.7290
2006.552673 0.7287 0.7285 0.7282 0.7280 0.7280
2010.192819 0.7280 0.7280 0.7280 0.7280 0.7280
2013.832966 0.7280 0.7280 0.7280 0.7280 0.7280
2017.473113 0.7279 0.7277 0.7274 0.7272 0.7270
2021.113260 0.7270 0.7270 0.7270 0.7269 0.7267
2024.753407 0.7264 0.7262 0.7259 0.7256 0.7254
2028.393554 0.7251 0.7248 0.7243 0.7238 0.7232
2032.033700 0.7230 0.7230 0.7230 0.7230 0.7229
2035.673847 0.7226 0.7224 0.7221 0.7220 0.7220
2039.313994 0.7220 0.7220 0.7218 0.7216 0.7213
2042.954141 0.7211 0.7208 0.7206 0.7203 0.7201
2046.594288 0.7200 0.7200 0.7200 0.7200 0.7198
2050.234434 0.7196 0.7193 0.7190 0.7190 0.7190
2053.874581 0.7190 0.7190 0.7188 0.7185 0.7183
2057.514728 0.7180 0.7180 0.7180 0.7180 0.7180
2061.154875 0.7180 0.7180 0.7180 0.7180 0.7180
2064.795022 0.7180 0.7180 0.7180 0.7177 0.7175
2068.435169 0.7172 0.7170 0.7170 0.7170 0.7170
2072.075315 0.7170 0.7167 0.7165 0.7162 0.7160
2075.715462 0.7157 0.7154 0.7152 0.7149 0.7147
2079.355609 0.7144 0.7142 0.7139 0.7137 0.7134
2082.995756 0.7132 0.7129 0.7127 0.7124 0.7121
2086.635903 0.7120 0.7120 0.7120 0.7120 0.7119
2090.276049 0.7116 0.7114 0.7111 0.7109 0.7106
2093.916196 0.7104 0.7101 0.7099 0.7096 0.7094
2097.556343 0.7091 0.7090 0.7090 0.7090 0.7090
2101.196490 0.7088 0.7086 0.7083 0.7081 0.7078
2104.836637 0.7076 0.7073 0.7071 0.7068 0.7066
2108.476784 0.7063 0.7061 0.7056 0.7051 0.7046
2112.116930 0.7041 0.7038 0.7035 0.7033 0.7030
2115.757077 0.7028 0.7025 0.7023 0.7020 0.7020
2119.397224 0.7020 0.7020 0.7020 0.7018 0.7015
2123.037371 0.7012 0.7010 0.7010 0.7010 0.7010
2126.677518 0.7010 0.7007 0.7005 0.7002 0.7000
2130.317664 0.7000 0.7000 0.7000 0.7000 0.6997
2133.957811 0.6995 0.6992 0.6990 0.6990 0.6990
2137.597958 0.6990 0.6990 0.6990 0.6990 0.6990
2141.238105 0.6990 0.6990 0.6990 0.6990 0.6990
2144.878252 0.6990 0.6990 0.6990 0.6990 0.6990
2148.518399 0.6990 0.6990 0.6991 0.6994 0.6996
2152.158545 0.6999 0.7004 0.7011 0.7019 0.7026
2155.798692 0.7031 0.7034 0.7036 0.7039 0.7041
2159.438839 0.7044 0.7047 0.7049 0.7053 0.7058
2163.078986 0.7063 0.7068 0.7070 0.7070 0.7070
2166.719133 0.7070 0.7070 0.7070 0.7070 0.7070
2170.359279 0.7070 0.7070 0.7070 0.7070 0.7070
2173.999426 0.7070 0.7070 0.7070 0.7070 0.7070
2177.639573 0.7070 0.7070 0.7070 0.7070 0.7070
2181.279720 0.7070 0.7070 0.7070 0.7070 0.7070
2184.919867 0.7065 0.7060 0.7055 0.7050 0.7047
2188.560014 0.7045 0.7042 0.7040 0.7035 0.7029
2192.200160 0.7024 0.7020 0.7017 0.7015 0.7012
2195.840307 0.7009 0.7004 0.6999 0.6994 0.6989
2199.480454 0.6987 0.6984 0.6982 0.6979 0.6977
2203.120601 0.6974 0.6972 0.6968 0.6963 0.6958
2206.760748 0.6953 0.6949 0.6946 0.6944 0.6941
2210.400895 0.6938 0.6933 0.6928 0.6923 0.6919
2214.041041 0.6916 0.6914 0.6911 0.6910 0.6910
2217.681188 0.6910 0.6910 0.6909 0.6906 0.6904
2221.321335 0.6901 0.6898 0.6896 0.6893 0.6891
2224.961482 0.6890 0.6890 0.6890 0.6890 0.6890
2228.601629 0.6890 0.6890 0.6890 0.6890 0.6890
2232.241775 0.6890 0.6890 0.6890 0.6890 0.6890
2235.881922 0.6890 0.6886 0.6881 0.6876 0.6870
2239.522069 0.6868 0.6865 0.6863 0.6860 0.6855
2243.162216 0.6850 0.6845 0.6840 0.6835 0.6830
2246.802363 0.6825 0.6820 0.6815 0.6810 0.6805
2250.442510 0.6800 0.6795 0.6790 0.6784 0.6780
2254.082656 0.6780 0.6780 0.6780 0.6780 0.6777
2257.722803 0.6774 0.6772 0.6769 0.6767 0.6764
2261.362950 0.6762 0.6759 0.6757 0.6754 0.6752
2265.003097 0.6748 0.6743 0.6738 0.6733 0.6728
2268.643244 0.6723 0.6718 0.6713 0.6710 0.6710
2272.283390 0.6710 0.6710 0.6710 0.6710 0.6710
2275.923537 0.6710 0.6710 0.6710 0.6710 0.6710
2279.563684 0.6707 0.6702 0.6697 0.6692 0.6689
2283.203831 0.6686 0.6683 0.6681 0.6675 0.6667
2286.843978 0.6660 0.6652 0.6648 0.6646 0.6643
2290.484125 0.6641 0.6636 0.6631 0.6626 0.6621
2294.124271 0.6616 0.6611 0.6606 0.6601 0.6600
2297.764418 0.6600 0.6600 0.6600 0.6598 0.6595
2301.404565 0.6593 0.6590 0.6590 0.6590 0.6590
2305.044712 0.6590 0.6590 0.6590 0.6590 0.6590
2308.684859 0.6593 0.6595 0.6598 0.6600 0.6600
2312.325005 0.6600 0.6600 0.6600 0.6600 0.6600
2315.965152 0.6600 0.6599 0.6597 0.6594 0.6592
2319.605299 0.6590 0.6590 0.6590 0.6590 0.6590
2323.245446 0.6590 0.6590 0.6590 0.6590 0.6590
2326.885593 0.6590 0.6590 0.6589 0.6587 0.6584
2330.525740 0.6581 0.6580 0.6580 0.6580 0.6580
2334.165886 0.6580 0.6580 0.6580 0.6580 0.6580
2337.806033 0.6580 0.6580 0.6580 0.6580 0.6580
2341.446180 0.6580 0.6580 0.6580 0.6580 0.6580
2345.086327 0.6580 0.6578 0.6576 0.6573 0.6571
2348.726474 0.6570 0.6570 0.6570 0.6570 0.6570
2352.366620 0.6570 0.6570 0.6570 0.6570 0.6570
2356.006767 0.6570 0.6570 0.6570 0.6570 0.6570
2359.646914 0.6570 0.6570 0.6570 0.6570 0.6570
2363.287061 0.6570 0.6570 0.6570 0.6570 0.6570
2366.927208 0.6570 0.6570 0.6570 0.6565 0.6560
2370.567355 0.6555 0.6550 0.6550 0.6550 0.6550
2374.207501 0.6550 0.6550 0.6550 0.6550 0.6549
2377.847648 0.6541 0.6533 0.6526 0.6520 0.6520
2381.487795 0.6520 0.6520 0.6518 0.6510 0.6503
2385.127942 0.6495 0.6490 0.6490 0.6490 0.6490
2388.768089 0.6486 0.6476 0.6466 0.6456 0.6449
2392.408236 0.6446 0.6444 0.6441 0.6438 0.6433
2396.048382 0.6428 0.6423 0.6416 0.6409 0.6401
2399.688529 0.6394 0.6383 0.6371 0.6358 0.6345
2403.328676 0.6335 0.6328 0.6320 0.6313 0.6303
2406.968823 0.6293 0.6283 0.6273 0.6266 0.6261
2410.608970 0.6256 0.6251 0.6248 0.6246 0.6243
2414.249116 0.6241 0.6234 0.6226 0.6219 0.6211
2417.889263 0.6208 0.6205 0.6203 0.6200 0.6198
2421.529410 0.6195 0.6193 0.6190 0.6188 0.6185
2425.169557 0.6183 0.6180 0.6180 0.6180 0.6180
2428.809704 0.6180 0.6180 0.6180 0.6180 0.6180
2432.449851 0.6180 0.6180 0.6180 0.6180 0.6180
2436.089997 0.6180 0.6180 0.6180 0.6180 0.6180
2439.730144 0.6180 0.6180 0.6180 0.6180 0.6180
2443.370291 0.6180 0.6180 0.6180 0.6180 0.6180
2447.010438 0.6180 0.6180 0.6180 0.6181 0.6183
2450.650585 0.6186 0.6188 0.6190 0.6190 0.6190
2454.290731 0.6190 0.6192 0.6197 0.6202 0.6207
2457.930878 0.6210 0.6210 0.6210 0.6210 0.6210
2461.571025 0.6210 0.6210 0.6210 0.6210 0.6210
2465.211172 0.6210 0.6210 0.6212 0.6214 0.6217
2468.851319 0.6219 0.6222 0.6224 0.6227 0.6229
2472.491466 0.6230 0.6230 0.6230 0.6230 0.6232
2476.131612 0.6234 0.6237 0.6240 0.6240 0.6240
2479.771759 0.6240 0.6240 0.6240 0.6240 0.6240
2483.411906 0.6240 0.6240 0.6240 0.6240 0.6240
2487.052053 0.6240 0.6240 0.6240 0.6240 0.6240
2490.692200 0.6240 0.6240 0.6240 0.6240 0.6240
2494.332346 0.6240 0.6240 0.6237 0.6235 0.6232
2497.972493 0.6230 0.6227 0.6225 0.6222 0.6219
2501.612640 0.6217 0.6214 0.6212 0.6208 0.6201
2505.252787 0.6193 0.6185 0.6177 0.6167 0.6157
2508.892934 0.6147 0.6139 0.6137 0.6134 0.6132
2512.533081 0.6130 0.6130 0.6130 0.6130 0.6130
2516.173227 0.6130 0.6130 0.6130 0.6129 0.6126
2519.813374 0.6124 0.6121 0.6120 0.6120 0.6120
2523.453521 0.6120 0.6119 0.6116 0.6113 0.6111
2527.093668 0.6108 0.6106 0.6103 0.6101 0.6100
2530.733815 0.6100 0.6100 0.6100 0.6100 0.6100
2534.373962 0.6100 0.6100 0.6100 0.6100 0.6100
2538.014108 0.6100 0.6100 0.6100 0.6100 0.6100
2541.654255 0.6100 0.6100 0.6100 0.6100 0.6102
2545.294402 0.6105 0.6107 0.6110 0.6110 0.6110
2548.934549 0.6110 0.6110 0.6110 0.6110 0.6110
2552.574696 0.6110 0.6110 0.6110 0.6110 0.6110
2556.214842 0.6110 0.6110 0.6110 0.6110 0.6110
2559.854989 0.6110 0.6110 0.6110 0.6107 0.6104
2563.495136 0.6102 0.6100 0.6100 0.6100 0.6100
2567.135283 0.6100 0.6100 0.6100 0.6100 0.6100
2570.775430 0.6100 0.6100 0.6100 0.6100 0.6100
2574.415577 0.6100 0.6100 0.6100 0.6100 0.6100
2578.055723 0.6100 0.6100 0.6100 0.6100 0.6100
2581.695870 0.6100 0.6100 0.6100 0.6100 0.6100
2585.336017 0.6100 0.6100 0.6100 0.6098 0.6096
2588.976164 0.6093 0.6091 0.6090 0.6090 0.6090
2592.616311 0.6090 0.6088 0.6086 0.6083 0.6081
2596.256457 0.6080 0.6080 0.6080 0.6080 0.6072
2599.896604 0.6062 0.6052 0.6042 0.6034 0.6026
2603.536751 0.6018 0.6011 0.6005 0.6000 0.5995
2607.176898 0.5990 0.5985 0.5980 0.5975 0.5970
2610.817045 0.5970 0.5970 0.5970 0.5970 0.5962
2614.457192 0.5954 0.5947 0.5940 0.5940 0.5940
2618.097338 0.5940 0.5940 0.5937 0.5935 0.5932
2621.737485 0.5930 0.5927 0.5925 0.5922 0.5920
2625.377632 0.5920 0.5920 0.5920 0.5920 0.5920
2629.017779 0.5920 0.5920 0.5920 0.5920 0.5920
2632.657926 0.5920 0.5920 0.5920 0.5920 0.5920
2636.298072 0.5920 0.5920 0.5920 0.5920 0.5920
2639.938219 0.5920 0.5920 0.5920 0.5920 0.5920
2643.578366 0.5920 0.5920 0.5919 0.5916 0.5914
2647.218513 0.5911 0.5910 0.5910 0.5910 0.5910
2650.858660 0.5908 0.5906 0.5903 0.5901 0.5898
2654.498807 0.5896 0.5893 0.5891 0.5888 0.5886
2658.138953 0.5883 0.5881 0.5878 0.5875 0.5873
2661.779100 0.5870 0.5870 0.5870 0.5870 0.5870
2665.419247 0.5868 0.5865 0.5863 0.5860 0.5860
2669.059394 0.5860 0.5860 0.5860 0.5860 0.5860
2672.699541 0.5860 0.5860 0.5855 0.5850 0.5845
2676.339687 0.5840 0.5840 0.5840 0.5840 0.5840
2679.979834 0.5837 0.5835 0.5832 0.5829 0.5821
2683.619981 0.5814 0.5806 0.5800 0.5800 0.5800
2687.260128 0.5800 0.5799 0.5797 0.5794 0.5792
2690.900275 0.5790 0.5790 0.5790 0.5790 0.5790
2694.540422 0.5790 0.5790 0.5790 0.5790 0.5790
2698.180568 0.5790 0.5790 0.5789 0.5786 0.5784
2701.820715 0.5781 0.5780 0.5780 0.5780 0.5780
2705.460862 0.5779 0.5776 0.5774 0.5771 0.5770
2709.101009 0.5770 0.5770 0.5770 0.5770 0.5770
2712.741156 0.5770 0.5770 0.5770 0.5770 0.5770
2716.381303 0.5770 0.5766 0.5761 0.5756 0.5751
2720.021449 0.5748 0.5745 0.5743 0.5740 0.5740
2723.661596 0.5740 0.5740 0.5740 0.5740 0.5740
2727.301743 0.5740 0.5740 0.5738 0.5735 0.5733
2730.941890 0.5730 0.5725 0.5720 0.5715 0.5710
2734.582037 0.5707 0.5705 0.5702 0.5699 0.5692
2738.222183 0.5684 0.5677 0.5669 0.5662 0.5654
2741.862330 0.5646 0.5638 0.5628 0.5618 0.5608
2745.502477 0.5599 0.5591 0.5583 0.5575 0.5568
2749.142624 0.5560 0.5553 0.5545 0.5540 0.5540
2752.782771 0.5540 0.5540 0.5538 0.5533 0.5528
2756.422918 0.5523 0.5519 0.5516 0.5514 0.5511
2760.063064 0.5510 0.5510 0.5510 0.5510 0.5510
2763.703211 0.5510 0.5510 0.5510 0.5510 0.5510
2767.343358 0.5510 0.5510 0.5509 0.5506 0.5503
2770.983505 0.5501 0.5498 0.5496 0.5493 0.5491
2774.623652 0.5488 0.5486 0.5483 0.5481 0.5470
2778.263798 0.5458 0.5445 0.5432 0.5422 0.5412
2781.903945 0.5402 0.5392 0.5386 0.5381 0.5376
2785.544092 0.5371 0.5366 0.5360 0.5355 0.5350
2789.184239 0.5331 0.5311 0.5291 0.5271 0.5245
2792.824386 0.5220 0.5195 0.5170 0.5137 0.5104
2796.464533 0.5071 0.5039 0.5024 0.5009 0.4994
2800.104679 0.4978 0.4958 0.4938 0.4917 0.4896
2803.744826 0.4865 0.4834 0.4803 0.4775 0.4752
2807.384973 0.4729 0.4706 0.4683 0.4658 0.4632
2811.025120 0.4607 0.4582 0.4557 0.4531 0.4506
2814.665267 0.4479 0.4449 0.4418 0.4388 0.4352
2818.305413 0.4306 0.4261 0.4215 0.4178 0.4150
2821.945560 0.4122 0.4094 0.4063 0.4027 0.3992
2825.585707 0.3957 0.3927 0.3901 0.3876 0.3851
2829.225854 0.3804 0.3741 0.3678 0.3614 0.3551
2832.866001 0.3487 0.3423 0.3358 0.3279 0.3193
2836.506148 0.3107 0.3021 0.2951 0.2885 0.2819
2840.146294 0.2753 0.2706 0.2663 0.2620 0.2577
2843.786441 0.2551 0.2528 0.2506 0.2483 0.2460
2847.426588 0.2437 0.2415 0.2392 0.2364 0.2337
2851.066735 0.2309 0.2281 0.2234 0.2186 0.2138
2854.706882 0.2090 0.2039 0.1989 0.1938 0.1888
2858.347028 0.1850 0.1813 0.1775 0.1737 0.1698
2861.987175 0.1660 0.1621 0.1588 0.1575 0.1562
2865.627322 0.1550 0.1534 0.1509 0.1484 0.1459
2869.267469 0.1439 0.1437 0.1434 0.1432 0.1431
2872.907616 0.1433 0.1436 0.1438 0.1442 0.1447
2876.547763 0.1452 0.1457 0.1465 0.1478 0.1490
2880.187909 0.1503 0.1513 0.1521 0.1528 0.1536
2883.828056 0.1548 0.1566 0.1584 0.1601 0.1614
2887.468203 0.1622 0.1629 0.1637 0.1644 0.1652
2891.108350 0.1660 0.1667 0.1678 0.1691 0.1704
2894.748497 0.1716 0.1724 0.1729 0.1734 0.1739
2898.388644 0.1738 0.1736 0.1733 0.1731 0.1726
2902.028790 0.1721 0.1716 0.1711 0.1695 0.1678
2905.668937 0.1660 0.1642 0.1623 0.1602 0.1582
2909.309084 0.1562 0.1537 0.1512 0.1487 0.1461
2912.949231 0.1436 0.1411 0.1386 0.1360 0.1330
2916.589378 0.1300 0.1269 0.1239 0.1211 0.1183
2920.229524 0.1155 0.1126 0.1099 0.1071 0.1043
2923.869671 0.1017 0.0999 0.0982 0.0964 0.0944
2927.509818 0.0913 0.0883 0.0853 0.0829 0.0824
2931.149965 0.0819 0.0814 0.0810 0.0810 0.0810
2934.790112 0.0810 0.0811 0.0813 0.0816 0.0818
2938.430259 0.0821 0.0823 0.0826 0.0829 0.0832
2942.070405 0.0837 0.0842 0.0847 0.0852 0.0857
2945.710552 0.0862 0.0867 0.0873 0.0878 0.0883
2949.350699 0.0888 0.0893 0.0898 0.0903 0.0908
2952.990846 0.0918 0.0931 0.0943 0.0956 0.0965
2956.630993 0.0973 0.0980 0.0988 0.1007 0.1029
2960.271139 0.1052 0.1075 0.1092 0.1107 0.1122
2963.911286 0.1137 0.1144 0.1149 0.1154 0.1159
2967.551433 0.1177 0.1197 0.1218 0.1238 0.1256
2971.191580 0.1273 0.1291 0.1309 0.1350 0.1393
2974.831727 0.1436 0.1479 0.1518 0.1556 0.1594
2978.471874 0.1635 0.1698 0.1761 0.1824 0.1885
2982.112020 0.1931 0.1976 0.2022 0.2064 0.2092
2985.752167 0.2120 0.2148 0.2179 0.2225 0.2270
2989.392314 0.2316 0.2365 0.2425 0.2486 0.2547
2993.032461 0.2608 0.2671 0.2734 0.2797 0.2860
2996.672608 0.2920 0.2981 0.3042 0.3099 0.3149
3000.312754 0.3200 0.3250 0.3291 0.3319 0.3347
3003.952901 0.3375 0.3392 0.3397 0.3403 0.3408
3007.593048 0.3425 0.3453 0.3481 0.3509 0.3527
3011.233195 0.3540 0.3553 0.3565 0.3583 0.3603
3014.873342 0.3623 0.3643 0.3662 0.3680 0.3697
3018.513489 0.3715 0.3731 0.3746 0.3761 0.3776
3022.153635 0.3786 0.3793 0.3801 0.3808 0.3814
3025.793782 0.3819 0.3824 0.3829 0.3836 0.3844
3029.433929 0.3852 0.3859 0.3860 0.3860 0.3860
3033.074076 0.3860 0.3860 0.3860 0.3860 0.3860
3036.714223 0.3865 0.3870 0.3875 0.3880 0.3883
3040.354370 0.3885 0.3888 0.3891 0.3904 0.3917
3043.994516 0.3929 0.3943 0.3963 0.3983 0.4004
3047.634663 0.4023 0.4038 0.4053 0.4068 0.4082
3051.274810 0.4092 0.4103 0.4113 0.4120 0.4120
3054.914957 0.4120 0.4120 0.4120 0.4120 0.4120
3058.555104 0.4120 0.4109 0.4079 0.4049 0.4018
3062.195250 0.4000 0.4000 0.4000 0.4000 0.4020
3065.835397 0.4060 0.4101 0.4141 0.4164 0.4172
3069.475544 0.4179 0.4187 0.4193 0.4198 0.4203
3073.115691 0.4208 0.4219 0.4235 0.4250 0.4265
3076.755838 0.4280 0.4295 0.4310 0.4325 0.4341
3080.395985 0.4356 0.4371 0.4386 0.4405 0.4425
3084.036131 0.4445 0.4466 0.4492 0.4520 0.4547
3087.676278 0.4575 0.4601 0.4626 0.4651 0.4677
3091.316425 0.4691 0.4704 0.4717 0.4730 0.4742
3094.956572 0.4755 0.4767 0.4780 0.4798 0.4816
3098.596719 0.4833 0.4850 0.4853 0.4855 0.4858
3102.236865 0.4860 0.4863 0.4865 0.4868 0.4870
3105.877012 0.4870 0.4870 0.4870 0.4870 0.4870
3109.517159 0.4870 0.4870 0.4871 0.4873 0.4876
3113.157306 0.4878 0.4881 0.4886 0.4891 0.4896
3116.797453 0.4900 0.4900 0.4900 0.4900 0.4903
3120.437600 0.4910 0.4918 0.4926 0.4938 0.4955
3124.077746 0.4973 0.4991 0.5001 0.5004 0.5006
3127.717893 0.5009 0.5017 0.5029 0.5042 0.5054
3131.358040 0.5066 0.5076 0.5086 0.5096 0.5102
3134.998187 0.5104 0.5107 0.5109 0.5110 0.5110
3138.638334 0.5110 0.5110 0.5113 0.5119 0.5124
3142.278480 0.5129 0.5130 0.5130 0.5130 0.5130
3145.918627 0.5130 0.5130 0.5130 0.5130 0.5130
3149.558774 0.5130 0.5130 0.5130 0.5130 0.5130
3153.198921 0.5130 0.5130 0.5130 0.5130 0.5130
3156.839068 0.5130 0.5130 0.5130 0.5130 0.5130
3160.479215 0.5130 0.5130 0.5130 0.5130 0.5130
3164.119361 0.5130 0.5130 0.5130 0.5127 0.5125
3167.759508 0.5122 0.5120 0.5117 0.5115 0.5112
3171.399655 0.5110 0.5110 0.5110 0.5110 0.5110
3175.039802 0.5110 0.5110 0.5110 0.5110 0.5110
3178.679949 0.5110 0.5110 0.5110 0.5110 0.5110
3182.320095 0.5110 0.5110 0.5110 0.5110 0.5110
3185.960242 0.5110 0.5110 0.5110 0.5110 0.5110
3189.600389 0.5110 0.5110 0.5110 0.5110 0.5110
3193.240536 0.5110 0.5110 0.5110 0.5110 0.5110
3196.880683 0.5110 0.5110 0.5110 0.5110 0.5110
3200.520830 0.5110 0.5110 0.5110 0.5110 0.5110
3204.160976 0.5110 0.5110 0.5110 0.5110 0.5110
3207.801123 0.5110 0.5110 0.5112 0.5115 0.5117
3211.441270 0.5120 0.5120 0.5120 0.5120 0.5120
3215.081417 0.5122 0.5125 0.5127 0.5130 0.5130
3218.721564 0.5130 0.5130 0.5130 0.5130 0.5130
3222.361711 0.5130 0.5130 0.5133 0.5135 0.5138
3226.001857 0.5140 0.5140 0.5140 0.5140 0.5140
3229.642004 0.5143 0.5145 0.5148 0.5151 0.5156
3233.282151 0.5161 0.5166 0.5171 0.5173 0.5176
3236.922298 0.5178 0.5180 0.5180 0.5180 0.5180
3240.562445 0.5180 0.5180 0.5180 0.5180 0.5180
3244.202591 0.5180 0.5180 0.5180 0.5179 0.5176
3247.842738 0.5174 0.5171 0.5170 0.5170 0.5170
3251.482885 0.5170 0.5170 0.5170 0.5170 0.5170
3255.123032 0.5169 0.5166 0.5163 0.5161 0.5160
3258.763179 0.5160 0.5160 0.5160 0.5157 0.5152
3262.403326 0.5147 0.5141 0.5140 0.5140 0.5140
3266.043472 0.5140 0.5138 0.5135 0.5133 0.5130
3269.683619 0.5128 0.5125 0.5123 0.5120 0.5120
3273.323766 0.5120 0.5120 0.5120 0.5118 0.5115
3276.963913 0.5113 0.5110 0.5110 0.5110 0.5110
3280.604060 0.5110 0.5105 0.5100 0.5095 0.5090
3284.244206 0.5085 0.5080 0.5075 0.5070 0.5070
3287.884353 0.5070 0.5070 0.5070 0.5067 0.5065
3291.524500 0.5062 0.5060 0.5060 0.5060 0.5060
3295.164647 0.5060 0.5060 0.5060 0.5060 0.5060
3298.804794 0.5060 0.5060 0.5060 0.5063 0.5070
3302.444941 0.5078 0.5085 0.5090 0.5090 0.5090
3306.085087 0.5090 0.5090 0.5090 0.5090 0.5090
3309.725234 0.5090 0.5090 0.5090 0.5090 0.5090
3313.365381 0.5090 0.5090 0.5090 0.5089 0.5086
3317.005528 0.5084 0.5081 0.5078 0.5076 0.5073
3320.645675 0.5071 0.5068 0.5066 0.5063 0.5061
3324.285821 0.5054 0.5047 0.5039 0.5032 0.5026
3327.925968 0.5021 0.5016 0.5011 0.5008 0.5005
3331.566115 0.5003 0.5000 0.4998 0.4995 0.4993
3335.206262 0.4990 0.4988 0.4985 0.4983 0.4980
3338.846409 0.4980 0.4980 0.4980 0.4980 0.4980
3342.486556 0.4980 0.4980 0.4980 0.4972 0.4965
3346.126702 0.4957 0.4950 0.4950 0.4950 0.4950
3349.766849 0.4950 0.4950 0.4950 0.4950 0.4949
3353.406996 0.4947 0.4944 0.4942 0.4940 0.4940
3357.047143 0.4940 0.4940 0.4939 0.4937 0.4934
3360.687290 0.4932 0.4928 0.4923 0.4918 0.4913
3364.327436 0.4908 0.4903 0.4898 0.4893 0.4886
3367.967583 0.4876 0.4865 0.4855 0.4850 0.4850
3371.607730 0.4850 0.4850 0.4849 0.4846 0.4844
3375.247877 0.4841 0.4837 0.4832 0.4827 0.4822
3378.888024 0.4817 0.4812 0.4807 0.4802 0.4796
3382.528171 0.4791 0.4786 0.4781 0.4780 0.4780
3386.168317 0.4780 0.4780 0.4774 0.4767 0.4759
3389.808464 0.4751 0.4748 0.4745 0.4743 0.4740
3393.448611 0.4736 0.4731 0.4726 0.4721 0.4715
3397.088758 0.4710 0.4705 0.4700 0.4686 0.4671
3400.728905 0.4655 0.4640 0.4608 0.4575 0.4542
3404.369052 0.4510 0.4497 0.4484 0.4472 0.4459
3408.009198 0.4438 0.4418 0.4397 0.4377 0.4359
3411.649345 0.4342 0.4324 0.4306 0.4286 0.4265
3415.289492 0.4245 0.4228 0.4221 0.4213 0.4205
3418.929639 0.4199 0.4193 0.4188 0.4183 0.4180
3422.569786 0.4180 0.4180 0.4180 0.4181 0.4183
3426.209932 0.4186 0.4189 0.4192 0.4197 0.4202
3429.850079 0.4207 0.4211 0.4214 0.4216 0.4219
3433.490226 0.4225 0.4235 0.4245 0.4255 0.4267
3437.130373 0.4280 0.4293 0.4305 0.4321 0.4339
3440.770520 0.4357 0.4374 0.4389 0.4401 0.4414
3444.410667 0.4426 0.4441 0.4456 0.4471 0.4486
3448.050813 0.4500 0.4512 0.4525 0.4538 0.4540
3451.690960 0.4540 0.4540 0.4540 0.4549 0.4559
3455.331107 0.4569 0.4579 0.4582 0.4585 0.4587
3458.971254 0.4590 0.4595 0.4600 0.4605 0.4610
3462.611401 0.4612 0.4615 0.4618 0.4620 0.4620
3466.251547 0.4620 0.4620 0.4620 0.4620 0.4620
3469.891694 0.4620 0.4620 0.4620 0.4620 0.4620
3473.531841 0.4620 0.4617 0.4614 0.4612 0.4609
3477.171988 0.4604 0.4599 0.4594 0.4589 0.4584
3480.812135 0.4578 0.4573 0.4570 0.4570 0.4570
3484.452282 0.4570 0.4568 0.4563 0.4558 0.4553
3488.092428 0.4549 0.4546 0.4544 0.4541 0.4541
3491.732575 0.4544 0.4546 0.4549 0.4552 0.4558
3495.372722 0.4563 0.4568 0.4573 0.4578 0.4583
3499.012869 0.4588 0.4598 0.4611 0.4623 0.4636
3502.653016 0.4645 0.4653 0.4660 0.4668 0.4677
3506.293162 0.4687 0.4697 0.4707 0.4712 0.4714
3509.933309 0.4717 0.4719 0.4726 0.4734 0.4741
3513.573456 0.4749 0.4754 0.4759 0.4764 0.4769
3517.213603 0.4777 0.4784 0.4792 0.4799 0.4819
3520.853750 0.4839 0.4859 0.4879 0.4887 0.4895
3524.493897 0.4903 0.4911 0.4921 0.4931 0.4941
3528.134043 0.4951 0.4958 0.4966 0.4973 0.4981
3531.774190 0.4986 0.4991 0.4996 0.5001 0.5006
3535.414337 0.5011 0.5016 0.5022 0.5029 0.5037
3539.054484 0.5044 0.5052 0.5060 0.5067 0.5075
3542.694631 0.5081 0.5083 0.5086 0.5088 0.5090
3546.334778 0.5090 0.5090 0.5090 0.5090 0.5090
3549.974924 0.5090 0.5090 0.5090 0.5090 0.5090
3553.615071 0.5090 0.5091 0.5094 0.5096 0.5099
3557.255218 0.5101 0.5104 0.5106 0.5109 0.5115
3560.895365 0.5122 0.5130 0.5137 0.5142 0.5144
3564.535512 0.5147 0.5149 0.5157 0.5167 0.5177
3568.175658 0.5187 0.5192 0.5194 0.5197 0.5199
3571.815805 0.5200 0.5200 0.5200 0.5200 0.5200
3575.455952 0.5200 0.5200 0.5200 0.5202 0.5205
3579.096099 0.5207 0.5210 0.5210 0.5210 0.5210
3582.736246 0.5210 0.5210 0.5210 0.5210 0.5210
3586.376393 0.5213 0.5215 0.5218 0.5220 0.5220
3590.016539 0.5220 0.5220 0.5220 0.5223 0.5225
3593.656686 0.5228 0.5230 0.5233 0.5235 0.5238
3597.296833 0.5242 0.5249 0.5257 0.5264 0.5272
3600.936980 0.5279 0.5287 0.5295 0.5301 0.5303
3604.577127 0.5306 0.5308 0.5311 0.5313 0.5316
3608.217273 0.5318 0.5320 0.5320 0.5320 0.5320
3611.857420 0.5321 0.5324 0.5326 0.5329 0.5330
3615.497567 0.5330 0.5330 0.5330 0.5330 0.5330
3619.137714 0.5330 0.5330 0.5332 0.5334 0.5337
3622.777861 0.5339 0.5338 0.5336 0.5333 0.5331
3626.418008 0.5332 0.5334 0.5337 0.5339 0.5342
3630.058154 0.5344 0.5347 0.5349 0.5350 0.5350
3633.698301 0.5350 0.5350 0.5350 0.5350 0.5350
3637.338448 0.5350 0.5350 0.5350 0.5350 0.5350
3640.978595 0.5350 0.5350 0.5350 0.5350 0.5350
3644.618742 0.5350 0.5350 0.5350 0.5350 0.5350
3648.258888 0.5350 0.5350 0.5350 0.5350 0.5350
3651.899035 0.5350 0.5350 0.5350 0.5350 0.5350
3655.539182 0.5350 0.5350 0.5350 0.5350 0.5350
3659.179329 0.5350 0.5350 0.5349 0.5347 0.5344
3662.819476 0.5342 0.5340 0.5340 0.5340 0.5340
3666.459623 0.5340 0.5340 0.5340 0.5340 0.5340
3670.099769 0.5340 0.5340 0.5340 0.5339 0.5336
3673.739916 0.5334 0.5331 0.5329 0.5326 0.5324
3677.380063 0.5321 0.5317 0.5312 0.5307 0.5302
3681.020210 0.5296 0.5288 0.5280 0.5273 0.5265
3684.660357 0.5258 0.5250 0.5242 0.5238 0.5236
3688.300503 0.5233 0.5231 0.5228 0.5226 0.5223
3691.940650 0.5221 0.5220 0.5220 0.5220 0.5220
3695.580797 0.5218 0.5215 0.5213 0.5210 0.5210
3699.220944 0.5210 0.5210 0.5210 0.5210 0.5210
3702.861091 0.5210 0.5210 0.5212 0.5215 0.5218
3706.501238 0.5220 0.5223 0.5225 0.5228 0.5230
3710.141384 0.5233 0.5235 0.5238 0.5240 0.5243
3713.781531 0.5245 0.5248 0.5251 0.5256 0.5261
3717.421678 0.5266 0.5271 0.5276 0.5281 0.5286
3721.061825 0.5291 0.5293 0.5296 0.5298 0.5301
3724.701972 0.5303 0.5306 0.5308 0.5311 0.5313
3728.342119 0.5316 0.5319 0.5322 0.5327 0.5332
3731.982265 0.5337 0.5341 0.5344 0.5346 0.5349
3735.622412 0.5351 0.5354 0.5356 0.5359 0.5360
3739.262559 0.5360 0.5360 0.5360 0.5361 0.5364
3742.902706 0.5366 0.5369 0.5370 0.5370 0.5370
3746.542853 0.5370 0.5365 0.5357 0.5350 0.5342
3750.182999 0.5336 0.5331 0.5326 0.5321 0.5320
3753.823146 0.5320 0.5320 0.5320 0.5316 0.5311
3757.463293 0.5306 0.5301 0.5298 0.5295 0.5293
3761.103440 0.5290 0.5288 0.5285 0.5283 0.5280
3764.743587 0.5278 0.5275 0.5273 0.5270 0.5262
3768.383734 0.5255 0.5247 0.5240 0.5237 0.5235
3772.023880 0.5232 0.5230 0.5227 0.5225 0.5222
3775.664027 0.5220 0.5220 0.5220 0.5220 0.5220
3779.304174 0.5217 0.5215 0.5212 0.5210 0.5210
3782.944321 0.5210 0.5210 0.5210 0.5210 0.5210
3786.584468 0.5210 0.5211 0.5213 0.5216 0.5218
3790.224614 0.5220 0.5220 0.5220 0.5220 0.5220
3793.864761 0.5220 0.5220 0.5220 0.5220 0.5220
3797.504908 0.5220 0.5220 0.5219 0.5216 0.5214
3801.145055 0.5211 0.5210 0.5210 0.5210 0.5210
3804.785202 0.5208 0.5206 0.5203 0.5201 0.5200
3808.425349 0.5200 0.5200 0.5200 0.5198 0.5196
3812.065495 0.5193 0.5191 0.5188 0.5185 0.5183
3815.705642 0.5180 0.5180 0.5180 0.5180 0.5180
3819.345789 0.5180 0.5180 0.5180 0.5180 0.5178
3822.985936 0.5175 0.5173 0.5170 0.5170 0.5170
3826.626083 0.5170 0.5170 0.5170 0.5170 0.5170
3830.266229 0.5170 0.5167 0.5165 0.5162 0.5160
3833.906376 0.5160 0.5160 0.5160 0.5160 0.5160
3837.546523 0.5160 0.5160 0.5160 0.5160 0.5160
3841.186670 0.5160 0.5160 0.5160 0.5160 0.5160
3844.826817 0.5160 0.5160 0.5160 0.5160 0.5160
3848.466964 0.5160 0.5160 0.5160 0.5160 0.5160
3852.107110 0.5160 0.5160 0.5160 0.5160 0.5160
3855.747257 0.5160 0.5160 0.5160 0.5160 0.5160
3859.387404 0.5160 0.5160 0.5160 0.5160 0.5159
3863.027551 0.5156 0.5154 0.5151 0.5149 0.5146
3866.667698 0.5143 0.5141 0.5138 0.5136 0.5133
3870.307845 0.5131 0.5123 0.5113 0.5102 0.5092
3873.947991 0.5088 0.5086 0.5083 0.5080 0.5078
3877.588138 0.5075 0.5073 0.5070 0.5068 0.5065
3881.228285 0.5063 0.5060 0.5058 0.5055 0.5053
3884.868432 0.5050 0.5050 0.5050 0.5050 0.5050
3888.508579 0.5048 0.5045 0.5042 0.5040 0.5040
3892.148725 0.5040 0.5040 0.5040 0.5037 0.5035
3895.788872 0.5032 0.5030 0.5030 0.5030 0.5030
3899.429019 0.5030 0.5030 0.5030 0.5030 0.5029
3903.069166 0.5027 0.5024 0.5022 0.5019 0.5017
3906.709313 0.5014 0.5012 0.5010 0.5010 0.5010
3910.349460 0.5010 0.5010 0.5010 0.5010 0.5010
3913.989606 0.5010 0.5010 0.5010 0.5010 0.5009
3917.629753 0.5006 0.5004 0.5001 0.5000 0.5000
3921.269900 0.5000 0.5000 0.4999 0.4996 0.4994
3924.910047 0.4991 0.4990 0.4990 0.4990 0.4990
3928.550194 0.4988 0.4986 0.4983 0.4981 0.4980
3932.190340 0.4980 0.4980 0.4980 0.4974 0.4967
3935.830487 0.4959 0.4952 0.4946 0.4941 0.4936
3939.470634 0.4931 0.4930 0.4930 0.4930 0.4930
3943.110781 0.4926 0.4920 0.4915 0.4910 0.4908
3946.750928 0.4905 0.4903 0.4900 0.4898 0.4895
3950.391075 0.4893 0.4890 0.4887 0.4885 0.4882
3954.031221 0.4880 0.4872 0.4864 0.4857 0.4850
3957.671368 0.4847 0.4845 0.4842 0.4839 0.4834
3961.311515 0.4829 0.4824 0.4819 0.4817 0.4814
3964.951662 0.4812 0.4809 0.4807 0.4804 0.4802
3968.591809 0.4799 0.4797 0.4794 0.4792 0.4791
3972.231955 0.4793 0.4796 0.4798 0.4799 0.4796
3975.872102 0.4794 0.4791 0.4791 0.4794 0.4796
3979.512249 0.4799 0.4799 0.4796 0.4794 0.4791
3983.152396 0.4790 0.4790 0.4790 0.4790 0.4788
3986.792543 0.4786 0.4783 0.4781 0.4780 0.4780
3990.432690 0.4780 0.4780 0.4778 0.4776 0.4773
3994.072836 0.4771 0.4768 0.4766 0.4763 0.4761
##END=
