##TITLE=BARIUM SULFITE
$$ C.P.
##JCAMP-DX=4.24
##DATA TYPE=INFRARED SPECTRUM
##CLASS=COBLENTZ
##ORIGIN=MELLON INSTITUTE
##OWNER=COBLENTZ SOCIETY
Collection (C) 2018 copyright by the U.S. Secretary of Commerce
on behalf of the United States of America. All rights reserved.
##DATE=Not specified, most likely prior to 1970
##MOLFORM=Ba S O3
##SOURCE REFERENCE=COBLENTZ NO. 563
##$NIST ID=B6000563
##$NIST SOURCE=COBLENTZ
##$NIST IMAGE=cob563
##SPECTROMETER/DATA SYSTEM=Not specified, most likely a prism, grating, or hybrid spectrometer.
##STATE=SOLID (NUJOL MULL)
##PATH LENGTH=
$$SPECTRAL CONTAMINATION DUE TO OIL AROUND 2900, 1450, 1380 CM^-^1
##SAMPLING PROCEDURE=TRANSMISSION
##RESOLUTION=4
##DATA PROCESSING=DIGITIZED BY NIST FROM HARD COPY
##XUNITS=MICROMETERS
##YUNITS=TRANSMITTANCE
##XFACTOR=1.000000
##YFACTOR=1
##DELTAX=000.006655
##FIRSTX=2.048
##LASTX=16.0159
##FIRSTY=0.996
##MAXX=16.0159
##MINX=2.048
##MAXY=0.996
##MINY=0.162
##NPOINTS=2100
##XYDATA=(X++(Y..Y))
2.048000 0.9960 0.9960 0.9960 0.9960 0.9960
2.081289 0.9960 0.9960 0.9960 0.9960 0.9960
2.115000 0.9960 0.9960 0.9940 0.9940 0.9940
2.148289 0.9940 0.9960 0.9940 0.9940 0.9940
2.181000 0.9930 0.9930 0.9930 0.9930 0.9930
2.214289 0.9930 0.9910 0.9910 0.9910 0.9910
2.248000 0.9890 0.9890 0.9880 0.9860 0.9860
2.281289 0.9840 0.9830 0.9830 0.9830 0.9810
2.315000 0.9810 0.9790 0.9790 0.9790 0.9790
2.348289 0.9790 0.9790 0.9790 0.9790 0.9810
2.381000 0.9790 0.9790 0.9780 0.9780 0.9760
2.414289 0.9760 0.9780 0.9790 0.9790 0.9790
2.448000 0.9780 0.9780 0.9780 0.9780 0.9780
2.481289 0.9780 0.9780 0.9780 0.9780 0.9790
2.514000 0.9790 0.9790 0.9790 0.9790 0.9780
2.547289 0.9760 0.9740 0.9740 0.9760 0.9760
2.581000 0.9740 0.9740 0.9730 0.9730 0.9710
2.614289 0.9730 0.9730 0.9740 0.9740 0.9780
2.647000 0.9780 0.9760 0.9740 0.9730 0.9680
2.680289 0.9680 0.9680 0.9680 0.9680 0.9680
2.714000 0.9680 0.9660 0.9660 0.9640 0.9640
2.747289 0.9610 0.9610 0.9580 0.9560 0.9540
2.780000 0.9530 0.9510 0.9490 0.9460 0.9440
2.813289 0.9430 0.9430 0.9410 0.9390 0.9380
2.847000 0.9360 0.9340 0.9310 0.9290 0.9270
2.880289 0.9270 0.9260 0.9240 0.9220 0.9210
2.913000 0.9210 0.9190 0.9160 0.9140 0.9140
2.946289 0.9140 0.9120 0.9120 0.9120 0.9110
2.980000 0.9120 0.9120 0.9120 0.9110 0.9110
3.013289 0.9110 0.9090 0.9110 0.9090 0.9090
3.047000 0.9090 0.9070 0.9060 0.9060 0.9060
3.080289 0.9060 0.9060 0.9060 0.9060 0.9060
3.113000 0.9060 0.9060 0.9060 0.9070 0.9090
3.146289 0.9110 0.9110 0.9110 0.9110 0.9110
3.180000 0.9120 0.9120 0.9120 0.9120 0.9120
3.213289 0.9120 0.9120 0.9120 0.9120 0.9110
3.246000 0.9110 0.9110 0.9040 0.9020 0.9010
3.279289 0.8990 0.8910 0.8840 0.8670 0.8420
3.313000 0.8150 0.7650 0.7150 0.5420 0.4900
3.346289 0.4370 0.4080 0.3600 0.3360 0.2940
3.379000 0.2890 0.2930 0.2980 0.3460 0.3860
3.412289 0.4300 0.4840 0.4950 0.5390 0.5420
3.446000 0.5370 0.5070 0.5020 0.5020 0.5120
3.479289 0.5410 0.5810 0.6210 0.7000 0.7400
3.512000 0.8150 0.8300 0.8500 0.8650 0.8790
3.545289 0.8890 0.8990 0.9060 0.9110 0.9120
3.579000 0.9160 0.9160 0.9170 0.9190 0.9190
3.612289 0.9210 0.9210 0.9210 0.9210 0.9210
3.645000 0.9210 0.9210 0.9210 0.9210 0.9210
3.678289 0.9210 0.9210 0.9220 0.9220 0.9220
3.712000 0.9220 0.9220 0.9220 0.9220 0.9220
3.745289 0.9220 0.9220 0.9220 0.9220 0.9240
3.779000 0.9240 0.9240 0.9240 0.9260 0.9260
3.812289 0.9260 0.9240 0.9240 0.9240 0.9220
3.845000 0.9220 0.9220 0.9240 0.9240 0.9240
3.878289 0.9240 0.9240 0.9260 0.9260 0.9270
3.912000 0.9270 0.9270 0.9260 0.9260 0.9260
3.945289 0.9260 0.9260 0.9260 0.9260 0.9260
3.978000 0.9260 0.9260 0.9260 0.9260 0.9260
4.011289 0.9260 0.9260 0.9260 0.9260 0.9260
4.045000 0.9260 0.9260 0.9260 0.9260 0.9260
4.078289 0.9260 0.9260 0.9270 0.9270 0.9270
4.111000 0.9260 0.9260 0.9260 0.9260 0.9260
4.144289 0.9260 0.9260 0.9260 0.9260 0.9260
4.178000 0.9260 0.9260 0.9260 0.9260 0.9240
4.211289 0.9240 0.9220 0.9210 0.9210 0.9190
4.244000 0.9170 0.9160 0.9160 0.9160 0.9160
4.277289 0.9140 0.9140 0.9140 0.9140 0.9140
4.311000 0.9120 0.9110 0.9090 0.9070 0.9070
4.344289 0.9060 0.9070 0.9070 0.9090 0.9090
4.377000 0.9110 0.9110 0.9120 0.9140 0.9140
4.410289 0.9140 0.9140 0.9160 0.9160 0.9160
4.444000 0.9160 0.9160 0.9170 0.9170 0.9170
4.477289 0.9170 0.9160 0.9160 0.9160 0.9160
4.511000 0.9160 0.9160 0.9160 0.9160 0.9160
4.544289 0.9140 0.9140 0.9140 0.9140 0.9140
4.577000 0.9140 0.9140 0.9140 0.9160 0.9160
4.610289 0.9160 0.9160 0.9160 0.9160 0.9160
4.644000 0.9160 0.9160 0.9140 0.9140 0.9120
4.677289 0.9120 0.9120 0.9120 0.9120 0.9120
4.710000 0.9120 0.9120 0.9120 0.9120 0.9140
4.743289 0.9140 0.9140 0.9140 0.9140 0.9160
4.777000 0.9140 0.9160 0.9160 0.9160 0.9140
4.810289 0.9160 0.9140 0.9140 0.9140 0.9140
4.843000 0.9140 0.9140 0.9140 0.9120 0.9120
4.876289 0.9120 0.9120 0.9140 0.9140 0.9140
4.910000 0.9140 0.9140 0.9140 0.9140 0.9140
4.943289 0.9140 0.9140 0.9160 0.9160 0.9160
4.976000 0.9160 0.9160 0.9140 0.9140 0.9140
5.009289 0.9140 0.9140 0.9140 0.9140 0.9140
5.043000 0.9160 0.9160 0.9160 0.9160 0.9160
5.076289 0.9160 0.9160 0.9160 0.9160 0.9160
5.109000 0.9160 0.9160 0.9160 0.9170 0.9170
5.142289 0.9160 0.9160 0.9160 0.9160 0.9160
5.176000 0.9160 0.9160 0.9160 0.9140 0.9140
5.209289 0.9140 0.9140 0.9140 0.9140 0.9140
5.243000 0.9140 0.9140 0.9140 0.9140 0.9140
5.276289 0.9140 0.9120 0.9120 0.9120 0.9120
5.309000 0.9110 0.9110 0.9110 0.9110 0.9110
5.342289 0.9110 0.9110 0.9110 0.9110 0.9090
5.376000 0.9070 0.9060 0.9060 0.9040 0.9040
5.409289 0.9040 0.9040 0.9040 0.9040 0.9020
5.442000 0.9020 0.9020 0.9020 0.9020 0.9020
5.475289 0.9040 0.9040 0.9040 0.9040 0.9040
5.509000 0.9040 0.9040 0.9040 0.9060 0.9070
5.542289 0.9090 0.9110 0.9120 0.9170 0.9210
5.575000 0.9210 0.9220 0.9220 0.9220 0.9220
5.608289 0.9240 0.9220 0.9220 0.9220 0.9220
5.642000 0.9240 0.9240 0.9240 0.9240 0.9240
5.675289 0.9240 0.9240 0.9240 0.9240 0.9260
5.708000 0.9270 0.9270 0.9270 0.9310 0.9320
5.741289 0.9320 0.9340 0.9340 0.9340 0.9320
5.775000 0.9320 0.9320 0.9320 0.9320 0.9320
5.808289 0.9340 0.9340 0.9340 0.9340 0.9360
5.842000 0.9360 0.9360 0.9360 0.9380 0.9380
5.875289 0.9390 0.9390 0.9390 0.9390 0.9390
5.908000 0.9390 0.9390 0.9390 0.9390 0.9410
5.941289 0.9410 0.9410 0.9410 0.9410 0.9410
5.975000 0.9410 0.9410 0.9430 0.9430 0.9430
6.008289 0.9430 0.9430 0.9440 0.9440 0.9440
6.041000 0.9440 0.9440 0.9430 0.9410 0.9380
6.074289 0.9380 0.9390 0.9390 0.9390 0.9390
6.108000 0.9390 0.9390 0.9410 0.9410 0.9410
6.141289 0.9410 0.9410 0.9410 0.9410 0.9430
6.174000 0.9430 0.9440 0.9440 0.9440 0.9440
6.207289 0.9480 0.9490 0.9490 0.9510 0.9510
6.241000 0.9510 0.9510 0.9530 0.9530 0.9530
6.274289 0.9540 0.9540 0.9540 0.9540 0.9540
6.307000 0.9540 0.9540 0.9540 0.9530 0.9510
6.340289 0.9510 0.9490 0.9480 0.9460 0.9440
6.374000 0.9440 0.9440 0.9440 0.9460 0.9460
6.407289 0.9460 0.9480 0.9480 0.9490 0.9490
6.440000 0.9490 0.9490 0.9490 0.9510 0.9510
6.473289 0.9510 0.9510 0.9530 0.9540 0.9540
6.507000 0.9540 0.9530 0.9530 0.9530 0.9510
6.540289 0.9510 0.9510 0.9510 0.9510 0.9510
6.574000 0.9510 0.9510 0.9510 0.9510 0.9490
6.607289 0.9490 0.9510 0.9510 0.9510 0.9510
6.640000 0.9510 0.9530 0.9530 0.9530 0.9530
6.673289 0.9530 0.9530 0.9530 0.9510 0.9510
6.707000 0.9510 0.9510 0.9490 0.9480 0.9440
6.740289 0.9430 0.9390 0.9340 0.9270 0.9240
6.773000 0.9110 0.9020 0.8890 0.8740 0.8470
6.806289 0.8220 0.8050 0.8000 0.7920 0.7850
6.840000 0.7800 0.7780 0.7770 0.7750 0.7750
6.873289 0.7770 0.7780 0.7780 0.7820 0.7870
6.906000 0.7880 0.7980 0.8050 0.8200 0.8270
6.939289 0.8300 0.8350 0.8400 0.8450 0.8490
6.973000 0.8520 0.8550 0.8600 0.8640 0.8670
7.006289 0.8710 0.8740 0.8760 0.8760 0.8760
7.039000 0.8760 0.8760 0.8740 0.8740 0.8740
7.072289 0.8720 0.8720 0.8710 0.8710 0.8720
7.106000 0.8740 0.8740 0.8760 0.8790 0.8810
7.139289 0.8840 0.8860 0.8890 0.8920 0.8960
7.172000 0.8960 0.8970 0.8970 0.8960 0.8960
7.205289 0.8910 0.8860 0.8820 0.8760 0.8690
7.239000 0.8670 0.8620 0.8600 0.8600 0.8620
7.272289 0.8640 0.8650 0.8720 0.8790 0.8840
7.306000 0.8860 0.8890 0.8920 0.8970 0.9010
7.339289 0.9040 0.9060 0.9090 0.9120 0.9140
7.372000 0.9190 0.9240 0.9260 0.9260 0.9270
7.405289 0.9290 0.9310 0.9310 0.9310 0.9310
7.439000 0.9320 0.9320 0.9340 0.9340 0.9340
7.472289 0.9360 0.9360 0.9390 0.9390 0.9410
7.505000 0.9430 0.9430 0.9440 0.9460 0.9460
7.538289 0.9480 0.9490 0.9490 0.9510 0.9510
7.572000 0.9510 0.9530 0.9530 0.9530 0.9530
7.605289 0.9510 0.9530 0.9530 0.9530 0.9530
7.638000 0.9530 0.9530 0.9530 0.9530 0.9540
7.671289 0.9560 0.9540 0.9540 0.9540 0.9540
7.705000 0.9540 0.9540 0.9540 0.9540 0.9540
7.738289 0.9540 0.9540 0.9540 0.9540 0.9540
7.771000 0.9540 0.9540 0.9540 0.9540 0.9540
7.804289 0.9540 0.9560 0.9560 0.9540 0.9540
7.838000 0.9540 0.9540 0.9540 0.9560 0.9560
7.871289 0.9560 0.9560 0.9560 0.9560 0.9580
7.904000 0.9580 0.9580 0.9580 0.9580 0.9580
7.937289 0.9580 0.9590 0.9590 0.9590 0.9590
7.971000 0.9610 0.9610 0.9610 0.9630 0.9610
8.004289 0.9610 0.9610 0.9610 0.9590 0.9590
8.038000 0.9580 0.9540 0.9530 0.9510 0.9490
8.071289 0.9490 0.9480 0.9480 0.9460 0.9460
8.104000 0.9460 0.9460 0.9440 0.9440 0.9440
8.137289 0.9430 0.9430 0.9390 0.9360 0.9340
8.171000 0.9320 0.9290 0.9290 0.9270 0.9260
8.204289 0.9240 0.9210 0.9170 0.9170 0.9140
8.237000 0.9120 0.9040 0.9020 0.9010 0.8990
8.270289 0.8990 0.8940 0.8920 0.8920 0.8920
8.304000 0.8910 0.8910 0.8890 0.8890 0.8890
8.337289 0.8890 0.8890 0.8890 0.8890 0.8910
8.370000 0.8910 0.8910 0.8910 0.8920 0.8920
8.403289 0.8920 0.8940 0.8960 0.8970 0.8970
8.437000 0.8990 0.8990 0.8990 0.8990 0.9010
8.470289 0.9010 0.9040 0.9060 0.9060 0.9070
8.503000 0.9090 0.9090 0.9110 0.9110 0.9110
8.536289 0.9120 0.9120 0.9120 0.9120 0.9120
8.570000 0.9120 0.9120 0.9120 0.9120 0.9140
8.603289 0.9140 0.9140 0.9160 0.9160 0.9160
8.636000 0.9160 0.9170 0.9170 0.9170 0.9170
8.669289 0.9160 0.9140 0.9110 0.9110 0.9070
8.703000 0.9060 0.9060 0.9040 0.9040 0.9040
8.736289 0.9040 0.9040 0.9020 0.9020 0.9010
8.770000 0.9010 0.8990 0.8970 0.8960 0.8940
8.803289 0.8920 0.8910 0.8890 0.8890 0.8860
8.836000 0.8860 0.8840 0.8840 0.8820 0.8810
8.869289 0.8770 0.8760 0.8740 0.8710 0.8670
8.903000 0.8620 0.8600 0.8590 0.8540 0.8520
8.936289 0.8500 0.8490 0.8470 0.8450 0.8440
8.969000 0.8440 0.8440 0.8420 0.8420 0.8400
9.002289 0.8370 0.8370 0.8350 0.8350 0.8340
9.036000 0.8320 0.8320 0.8300 0.8290 0.8290
9.069289 0.8290 0.8270 0.8270 0.8270 0.8250
9.102000 0.8250 0.8250 0.8240 0.8240 0.8240
9.135289 0.8240 0.8220 0.8220 0.8220 0.8220
9.169000 0.8220 0.8220 0.8220 0.8200 0.8200
9.202289 0.8190 0.8190 0.8170 0.8170 0.8170
9.235000 0.8150 0.8150 0.8140 0.8140 0.8140
9.268289 0.8140 0.8120 0.8100 0.8090 0.8090
9.302000 0.8090 0.8070 0.8070 0.8070 0.8050
9.335289 0.8050 0.8050 0.8050 0.8050 0.8050
9.368000 0.8050 0.8070 0.8070 0.8070 0.8090
9.401289 0.8100 0.8120 0.8140 0.8200 0.8290
9.435000 0.8340 0.8350 0.8370 0.8390 0.8420
9.468289 0.8440 0.8450 0.8470 0.8490 0.8500
9.502000 0.8500 0.8520 0.8540 0.8550 0.8590
9.535289 0.8600 0.8600 0.8620 0.8640 0.8640
9.568000 0.8650 0.8690 0.8710 0.8720 0.8740
9.601289 0.8740 0.8770 0.8790 0.8810 0.8820
9.635000 0.8840 0.8840 0.8860 0.8870 0.8890
9.668289 0.8890 0.8890 0.8910 0.8910 0.8910
9.701000 0.8910 0.8910 0.8920 0.8920 0.8920
9.734289 0.8920 0.8920 0.8920 0.8910 0.8910
9.768000 0.8890 0.8890 0.8870 0.8860 0.8820
9.801289 0.8790 0.8760 0.8720 0.8690 0.8640
9.834000 0.8590 0.8540 0.8500 0.8450 0.8400
9.867289 0.8340 0.8290 0.8200 0.8150 0.8070
9.901000 0.8000 0.7920 0.7830 0.7770 0.7620
9.934289 0.7550 0.7470 0.7380 0.7210 0.7100
9.967000 0.6960 0.6540 0.6390 0.5920 0.5910
10.000289 0.5790 0.5760 0.5570 0.5390 0.5220
10.034000 0.5120 0.5000 0.4970 0.4920 0.4800
10.067289 0.4770 0.4750 0.4740 0.4740 0.4720
10.100000 0.4720 0.4720 0.4720 0.4740 0.4750
10.133289 0.4770 0.4770 0.4770 0.4770 0.4770
10.167000 0.4770 0.4750 0.4740 0.4720 0.4670
10.200289 0.4630 0.4600 0.4550 0.4520 0.4470
10.234000 0.4380 0.4320 0.4220 0.4130 0.4000
10.267289 0.3960 0.3780 0.3680 0.3560 0.3510
10.300000 0.3430 0.3360 0.3310 0.3240 0.3210
10.333289 0.3180 0.3140 0.3130 0.3080 0.3030
10.367000 0.3010 0.2960 0.2930 0.2890 0.2860
10.400289 0.2840 0.2830 0.2810 0.2810 0.2790
10.433000 0.2760 0.2740 0.2730 0.2710 0.2660
10.466289 0.2620 0.2610 0.2570 0.2540 0.2510
10.500000 0.2490 0.2470 0.2440 0.2420 0.2370
10.533289 0.2340 0.2320 0.2310 0.2260 0.2220
10.566000 0.2190 0.2170 0.2140 0.2120 0.2110
10.599289 0.2060 0.2040 0.2010 0.2010 0.1990
10.633000 0.1970 0.1940 0.1900 0.1890 0.1890
10.666289 0.1870 0.1850 0.1850 0.1840 0.1820
10.699000 0.1790 0.1770 0.1770 0.1750 0.1750
10.732289 0.1740 0.1740 0.1740 0.1740 0.1720
10.766000 0.1720 0.1700 0.1690 0.1690 0.1670
10.799289 0.1670 0.1650 0.1650 0.1650 0.1650
10.832000 0.1640 0.1640 0.1640 0.1640 0.1620
10.865289 0.1620 0.1620 0.1620 0.1620 0.1620
10.899000 0.1620 0.1620 0.1620 0.1620 0.1620
10.932289 0.1620 0.1620 0.1620 0.1620 0.1640
10.966000 0.1640 0.1670 0.1740 0.1890 0.2040
10.999289 0.2160 0.2270 0.2410 0.2760 0.2930
11.032000 0.3140 0.3280 0.3510 0.3650 0.3850
11.065289 0.3980 0.4200 0.4350 0.4500 0.4650
11.099000 0.4790 0.4940 0.5220 0.5410 0.5490
11.132289 0.5570 0.5620 0.5720 0.5840 0.5940
11.165000 0.5990 0.6140 0.6260 0.6340 0.6460
11.198289 0.6540 0.6660 0.6710 0.6810 0.6850
11.232000 0.6910 0.7000 0.7030 0.7100 0.7150
11.265289 0.7230 0.7280 0.7310 0.7370 0.7420
11.298000 0.7470 0.7580 0.7630 0.7670 0.7700
11.331289 0.7730 0.7780 0.7800 0.7830 0.7870
11.365000 0.7900 0.7920 0.7930 0.7950 0.7970
11.398289 0.7980 0.7980 0.8020 0.8040 0.8050
11.431000 0.8070 0.8090 0.8100 0.8140 0.8150
11.464289 0.8170 0.8190 0.8200 0.8220 0.8220
11.498000 0.8240 0.8250 0.8250 0.8270 0.8270
11.531289 0.8290 0.8290 0.8300 0.8320 0.8320
11.564000 0.8340 0.8340 0.8350 0.8370 0.8370
11.597289 0.8370 0.8400 0.8420 0.8440 0.8440
11.631000 0.8450 0.8470 0.8470 0.8470 0.8490
11.664289 0.8490 0.8490 0.8490 0.8490 0.8490
11.698000 0.8500 0.8520 0.8540 0.8540 0.8540
11.731289 0.8540 0.8540 0.8550 0.8550 0.8570
11.764000 0.8590 0.8590 0.8600 0.8600 0.8600
11.797289 0.8600 0.8600 0.8620 0.8640 0.8640
11.831000 0.8640 0.8650 0.8650 0.8670 0.8690
11.864289 0.8710 0.8710 0.8710 0.8720 0.8720
11.897000 0.8720 0.8720 0.8720 0.8720 0.8740
11.930289 0.8740 0.8740 0.8720 0.8720 0.8740
11.964000 0.8740 0.8740 0.8740 0.8740 0.8760
11.997289 0.8760 0.8760 0.8770 0.8770 0.8790
12.030000 0.8790 0.8810 0.8810 0.8810 0.8820
12.063289 0.8820 0.8840 0.8840 0.8840 0.8860
12.097000 0.8860 0.8860 0.8870 0.8870 0.8890
12.130289 0.8890 0.8910 0.8910 0.8910 0.8920
12.163000 0.8920 0.8920 0.8910 0.8920 0.8920
12.196289 0.8920 0.8910 0.8920 0.8920 0.8940
12.230000 0.8940 0.8940 0.8940 0.8940 0.8940
12.263289 0.8940 0.8940 0.8960 0.8970 0.8960
12.296000 0.8970 0.8970 0.8970 0.8970 0.8970
12.329289 0.8990 0.8990 0.8990 0.8990 0.9010
12.363000 0.9010 0.9010 0.9010 0.9010 0.9020
12.396289 0.9040 0.9020 0.9020 0.9040 0.9020
12.430000 0.9020 0.9020 0.9020 0.9020 0.9020
12.463289 0.9020 0.9020 0.9020 0.9020 0.9020
12.496000 0.9020 0.9040 0.9060 0.9060 0.9060
12.529289 0.9040 0.9060 0.9060 0.9070 0.9070
12.563000 0.9090 0.9090 0.9090 0.9090 0.9110
12.596289 0.9120 0.9120 0.9120 0.9140 0.9140
12.629000 0.9140 0.9140 0.9140 0.9160 0.9160
12.662289 0.9160 0.9170 0.9170 0.9170 0.9170
12.696000 0.9160 0.9160 0.9160 0.9160 0.9160
12.729289 0.9160 0.9170 0.9170 0.9170 0.9170
12.762000 0.9170 0.9170 0.9170 0.9170 0.9170
12.795289 0.9170 0.9170 0.9190 0.9190 0.9170
12.829000 0.9170 0.9170 0.9170 0.9170 0.9170
12.862289 0.9170 0.9170 0.9170 0.9160 0.9160
12.895000 0.9160 0.9140 0.9140 0.9140 0.9140
12.928289 0.9140 0.9140 0.9140 0.9120 0.9120
12.962000 0.9140 0.9140 0.9140 0.9140 0.9140
12.995289 0.9140 0.9140 0.9140 0.9120 0.9140
13.028000 0.9140 0.9160 0.9160 0.9140 0.9140
13.061289 0.9140 0.9140 0.9140 0.9140 0.9140
13.095000 0.9140 0.9140 0.9120 0.9120 0.9120
13.128289 0.9120 0.9120 0.9120 0.9120 0.9140
13.162000 0.9140 0.9140 0.9140 0.9140 0.9140
13.195289 0.9140 0.9140 0.9140 0.9140 0.9120
13.228000 0.9140 0.9140 0.9140 0.9140 0.9160
13.261289 0.9160 0.9160 0.9170 0.9170 0.9170
13.295000 0.9160 0.9160 0.9140 0.9140 0.9120
13.328289 0.9120 0.9110 0.9110 0.9110 0.9110
13.361000 0.9090 0.9110 0.9110 0.9110 0.9110
13.394289 0.9110 0.9110 0.9110 0.9110 0.9110
13.428000 0.9110 0.9090 0.9090 0.9070 0.9090
13.461289 0.9090 0.9090 0.9070 0.9090 0.9090
13.494000 0.9090 0.9090 0.9090 0.9110 0.9110
13.527289 0.9090 0.9090 0.9070 0.9070 0.9070
13.561000 0.9070 0.9070 0.9060 0.9060 0.9060
13.594289 0.9060 0.9060 0.9060 0.9040 0.9040
13.627000 0.9040 0.9020 0.9020 0.9020 0.9020
13.660289 0.9020 0.9010 0.9010 0.9010 0.9010
13.694000 0.8990 0.8990 0.9010 0.9010 0.9010
13.727289 0.9010 0.9010 0.9010 0.9010 0.8990
13.760000 0.8990 0.9010 0.9010 0.9010 0.9010
13.793289 0.9010 0.8990 0.8990 0.9010 0.8990
13.827000 0.8990 0.8970 0.8960 0.8940 0.8920
13.860289 0.8920 0.8920 0.8910 0.8910 0.8910
13.894000 0.8910 0.8890 0.8890 0.8910 0.8910
13.927289 0.8910 0.8910 0.8910 0.8910 0.8910
13.960000 0.8910 0.8910 0.8910 0.8920 0.8920
13.993289 0.8940 0.8960 0.8940 0.8940 0.8940
14.027000 0.8940 0.8940 0.8940 0.8940 0.8960
14.060289 0.8940 0.8920 0.8920 0.8920 0.8920
14.093000 0.8920 0.8920 0.8920 0.8920 0.8910
14.126289 0.8910 0.8910 0.8890 0.8890 0.8890
14.160000 0.8890 0.8890 0.8890 0.8870 0.8870
14.193289 0.8890 0.8890 0.8870 0.8870 0.8860
14.226000 0.8860 0.8860 0.8860 0.8860 0.8840
14.259289 0.8840 0.8840 0.8840 0.8840 0.8820
14.293000 0.8820 0.8820 0.8810 0.8810 0.8810
14.326289 0.8790 0.8790 0.8770 0.8760 0.8760
14.359000 0.8740 0.8740 0.8740 0.8720 0.8710
14.392289 0.8690 0.8690 0.8670 0.8650 0.8650
14.426000 0.8640 0.8620 0.8620 0.8620 0.8620
14.459289 0.8620 0.8620 0.8620 0.8600 0.8600
14.492000 0.8590 0.8590 0.8590 0.8590 0.8570
14.525289 0.8550 0.8540 0.8520 0.8520 0.8520
14.559000 0.8500 0.8500 0.8490 0.8500 0.8500
14.592289 0.8500 0.8500 0.8490 0.8470 0.8470
14.626000 0.8440 0.8420 0.8400 0.8400 0.8400
14.659289 0.8390 0.8390 0.8390 0.8390 0.8390
14.692000 0.8370 0.8370 0.8370 0.8370 0.8350
14.725289 0.8370 0.8370 0.8370 0.8370 0.8350
14.759000 0.8350 0.8350 0.8350 0.8350 0.8350
14.792289 0.8350 0.8350 0.8340 0.8320 0.8320
14.825000 0.8320 0.8320 0.8320 0.8320 0.8320
14.858289 0.8320 0.8320 0.8300 0.8290 0.8250
14.892000 0.8240 0.8240 0.8220 0.8220 0.8200
14.925289 0.8190 0.8190 0.8190 0.8170 0.8170
14.958000 0.8170 0.8150 0.8150 0.8150 0.8140
14.991289 0.8140 0.8120 0.8120 0.8120 0.8120
15.025000 0.8120 0.8100 0.8100 0.8100 0.8100
15.058289 0.8090 0.8090 0.8090 0.8090 0.8070
15.091000 0.8070 0.8090 0.8070 0.8070 0.8070
15.124289 0.8050 0.8050 0.8040 0.8040 0.8040
15.158000 0.8020 0.8000 0.8000 0.8000 0.7980
15.191289 0.7980 0.7980 0.7980 0.7970 0.7970
15.224000 0.7970 0.7920 0.7920 0.7900 0.7900
15.257289 0.7880 0.7880 0.7880 0.7870 0.7870
15.291000 0.7850 0.7830 0.7830 0.7820 0.7820
15.324289 0.7800 0.7780 0.7770 0.7750 0.7750
15.358000 0.7730 0.7700 0.7680 0.7670 0.7630
15.391289 0.7620 0.7600 0.7570 0.7530 0.7520
15.424000 0.7500 0.7480 0.7470 0.7430 0.7420
15.457289 0.7400 0.7380 0.7370 0.7350 0.7330
15.491000 0.7310 0.7300 0.7280 0.7280 0.7260
15.524289 0.7230 0.7180 0.7150 0.7130 0.7100
15.557000 0.7060 0.7050 0.7010 0.7000 0.6960
15.590289 0.6960 0.6950 0.6910 0.6910 0.6900
15.624000 0.6880 0.6860 0.6860 0.6860 0.6850
15.657289 0.6850 0.6830 0.6830 0.6830 0.6830
15.690000 0.6830 0.6830 0.6850 0.6850 0.6850
15.723289 0.6850 0.6850 0.6860 0.6880 0.6880
15.757000 0.6880 0.6900 0.6900 0.6910 0.6910
15.790289 0.6930 0.6930 0.6950 0.6960 0.6960
15.823000 0.6980 0.6980 0.7000 0.7000 0.7010
15.856289 0.7010 0.7030 0.7030 0.7050 0.7050
15.890000 0.7060 0.7080 0.7080 0.7080 0.7100
15.923289 0.7100 0.7110 0.7110 0.7130 0.7160
15.956000 0.7180 0.7180 0.7200 0.7210 0.7210
15.989289 0.7210 0.7210 0.7230 0.7210 0.7210
##END=
