##TITLE=1,2-PROPANEDIOL, 1-NITRATE-
##JCAMP-DX=4.24
$$ By DXEDIT 1.05 (RS McDonald)
##DATA TYPE=INFRARED SPECTRUM
##CLASS=COBLENTZ III
##ORIGIN=WYANDOTTE CHEMICALS CORP.
##OWNER=COBLENTZ SOC.
Collection (C) 2018 copyright by the U.S. Secretary of Commerce
on behalf of the United States of America. All rights reserved.
##DATE=1958/11/21
##MOLFORM=C3 H5 N O4
##SOURCE REFERENCE=COBLENTZ NO. 05879
##$NIST ID=B6005879
##$NIST SOURCE=COBLENTZ
##$NIST IMAGE=cob5879
##SPECTROMETER/DATA SYSTEM=BAIRD (GRATING)
##INSTRUMENT PARAMETERS=NaCl PRISM
##STATE=LIQUID (NEAT)
##PATH LENGTH=CAPILLARY
##SAMPLING PROCEDURE=TRANSMISSION
##RESOLUTION=2
##DATA PROCESSING=DIGITIZED BY COBLENTZ SOCIETY (BATCH I) FROM HARD COPY
##XUNITS=1/CM
##YUNITS=TRANSMITTANCE
##XLABEL=Wavenumbers (cm-1)
##YLABEL=Transmittance
##XFACTOR=1
##YFACTOR=1
##DELTAX=1
##FIRSTX=4000
##LASTX=626
##FIRSTY=0.9627
##MAXX=4000
##MINX=626
##MAXY=0.9897
##MINY=0.0447
##NPOINTS=3375
##XYDATA=(X++(Y..Y))
4000.000000 0.9627 0.9627 0.9627 0.9628 0.9628
3995.000000 0.9628 0.9628 0.9630 0.9630 0.9631
3990.000000 0.9631 0.9632 0.9632 0.9633 0.9633
3985.000000 0.9633 0.9634 0.9634 0.9634 0.9634
3980.000000 0.9635 0.9635 0.9636 0.9636 0.9637
3975.000000 0.9637 0.9638 0.9638 0.9639 0.9639
3970.000000 0.9640 0.9640 0.9641 0.9641 0.9642
3965.000000 0.9642 0.9643 0.9643 0.9643 0.9644
3960.000000 0.9644 0.9644 0.9644 0.9644 0.9644
3955.000000 0.9644 0.9643 0.9642 0.9641 0.9640
3950.000000 0.9639 0.9637 0.9635 0.9632 0.9628
3945.000000 0.9625 0.9624 0.9621 0.9618 0.9615
3940.000000 0.9613 0.9610 0.9607 0.9604 0.9603
3935.000000 0.9602 0.9600 0.9599 0.9597 0.9596
3930.000000 0.9594 0.9593 0.9591 0.9589 0.9588
3925.000000 0.9586 0.9585 0.9583 0.9582 0.9581
3920.000000 0.9578 0.9578 0.9577 0.9577 0.9575
3915.000000 0.9575 0.9575 0.9575 0.9574 0.9574
3910.000000 0.9573 0.9573 0.9571 0.9571 0.9571
3905.000000 0.9571 0.9571 0.9571 0.9571 0.9571
3900.000000 0.9571 0.9571 0.9571 0.9571 0.9571
3895.000000 0.9571 0.9573 0.9573 0.9573 0.9574
3890.000000 0.9574 0.9574 0.9575 0.9575 0.9575
3885.000000 0.9575 0.9575 0.9575 0.9575 0.9577
3880.000000 0.9577 0.9577 0.9577 0.9577 0.9577
3875.000000 0.9578 0.9578 0.9578 0.9578 0.9578
3870.000000 0.9578 0.9580 0.9580 0.9580 0.9581
3865.000000 0.9581 0.9581 0.9581 0.9581 0.9580
3860.000000 0.9580 0.9580 0.9578 0.9578 0.9577
3855.000000 0.9575 0.9575 0.9574 0.9571 0.9571
3850.000000 0.9570 0.9568 0.9568 0.9566 0.9565
3845.000000 0.9564 0.9563 0.9561 0.9560 0.9559
3840.000000 0.9557 0.9554 0.9551 0.9548 0.9545
3835.000000 0.9541 0.9538 0.9534 0.9531 0.9527
3830.000000 0.9523 0.9518 0.9516 0.9512 0.9508
3825.000000 0.9504 0.9501 0.9497 0.9492 0.9487
3820.000000 0.9481 0.9475 0.9470 0.9465 0.9459
3815.000000 0.9453 0.9448 0.9442 0.9436 0.9431
3810.000000 0.9425 0.9418 0.9413 0.9407 0.9401
3805.000000 0.9395 0.9388 0.9380 0.9373 0.9365
3800.000000 0.9358 0.9351 0.9343 0.9335 0.9328
3795.000000 0.9320 0.9312 0.9305 0.9297 0.9289
3790.000000 0.9282 0.9274 0.9266 0.9259 0.9252
3785.000000 0.9244 0.9237 0.9230 0.9221 0.9216
3780.000000 0.9209 0.9202 0.9195 0.9188 0.9181
3775.000000 0.9174 0.9167 0.9160 0.9153 0.9146
3770.000000 0.9139 0.9133 0.9125 0.9118 0.9112
3765.000000 0.9105 0.9095 0.9085 0.9075 0.9066
3760.000000 0.9056 0.9046 0.9036 0.9025 0.9016
3755.000000 0.9006 0.8996 0.8986 0.8975 0.8966
3750.000000 0.8955 0.8945 0.8935 0.8925 0.8914
3745.000000 0.8904 0.8893 0.8883 0.8871 0.8857
3740.000000 0.8844 0.8831 0.8818 0.8805 0.8791
3735.000000 0.8778 0.8765 0.8751 0.8738 0.8725
3730.000000 0.8710 0.8696 0.8681 0.8667 0.8653
3725.000000 0.8633 0.8611 0.8590 0.8568 0.8547
3720.000000 0.8525 0.8505 0.8485 0.8464 0.8444
3715.000000 0.8423 0.8404 0.8384 0.8364 0.8345
3710.000000 0.8325 0.8307 0.8293 0.8280 0.8266
3705.000000 0.8253 0.8239 0.8227 0.8216 0.8204
3700.000000 0.8192 0.8181 0.8168 0.8157 0.8145
3695.000000 0.8133 0.8121 0.8108 0.8092 0.8074
3690.000000 0.8055 0.8036 0.8017 0.7998 0.7975
3685.000000 0.7954 0.7932 0.7910 0.7888 0.7867
3680.000000 0.7845 0.7824 0.7803 0.7782 0.7758
3675.000000 0.7735 0.7711 0.7687 0.7662 0.7639
3670.000000 0.7617 0.7596 0.7574 0.7553 0.7531
3665.000000 0.7514 0.7500 0.7485 0.7471 0.7456
3660.000000 0.7442 0.7428 0.7414 0.7399 0.7385
3655.000000 0.7371 0.7361 0.7353 0.7344 0.7336
3650.000000 0.7326 0.7319 0.7315 0.7308 0.7304
3645.000000 0.7298 0.7294 0.7291 0.7289 0.7286
3640.000000 0.7284 0.7281 0.7278 0.7275 0.7274
3635.000000 0.7271 0.7268 0.7265 0.7264 0.7261
3630.000000 0.7260 0.7258 0.7257 0.7256 0.7254
3625.000000 0.7253 0.7251 0.7250 0.7249 0.7247
3620.000000 0.7246 0.7244 0.7243 0.7241 0.7240
3615.000000 0.7239 0.7237 0.7236 0.7234 0.7232
3610.000000 0.7230 0.7228 0.7225 0.7222 0.7218
3605.000000 0.7212 0.7208 0.7203 0.7197 0.7190
3600.000000 0.7182 0.7175 0.7167 0.7158 0.7150
3595.000000 0.7140 0.7130 0.7121 0.7111 0.7096
3590.000000 0.7080 0.7065 0.7049 0.7034 0.7021
3585.000000 0.7008 0.6998 0.6986 0.6974 0.6962
3580.000000 0.6951 0.6941 0.6930 0.6919 0.6906
3575.000000 0.6890 0.6872 0.6857 0.6841 0.6822
3570.000000 0.6804 0.6784 0.6765 0.6745 0.6725
3565.000000 0.6707 0.6687 0.6668 0.6648 0.6628
3560.000000 0.6608 0.6589 0.6568 0.6550 0.6530
3555.000000 0.6510 0.6491 0.6471 0.6451 0.6432
3550.000000 0.6411 0.6393 0.6373 0.6353 0.6334
3545.000000 0.6314 0.6294 0.6274 0.6255 0.6235
3540.000000 0.6215 0.6195 0.6176 0.6156 0.6136
3535.000000 0.6116 0.6097 0.6077 0.6057 0.6037
3530.000000 0.6017 0.5997 0.5977 0.5957 0.5937
3525.000000 0.5917 0.5897 0.5877 0.5857 0.5835
3520.000000 0.5798 0.5760 0.5723 0.5686 0.5653
3515.000000 0.5637 0.5621 0.5605 0.5589 0.5574
3510.000000 0.5560 0.5548 0.5536 0.5523 0.5510
3505.000000 0.5501 0.5491 0.5481 0.5471 0.5460
3500.000000 0.5450 0.5440 0.5430 0.5420 0.5409
3495.000000 0.5397 0.5385 0.5373 0.5360 0.5349
3490.000000 0.5337 0.5325 0.5312 0.5301 0.5289
3485.000000 0.5277 0.5264 0.5251 0.5239 0.5224
3480.000000 0.5209 0.5193 0.5178 0.5162 0.5148
3475.000000 0.5134 0.5119 0.5105 0.5091 0.5078
3470.000000 0.5065 0.5053 0.5040 0.5027 0.5015
3465.000000 0.5002 0.4989 0.4977 0.4960 0.4942
3460.000000 0.4924 0.4906 0.4888 0.4869 0.4850
3455.000000 0.4831 0.4812 0.4794 0.4776 0.4759
3450.000000 0.4742 0.4724 0.4708 0.4696 0.4684
3445.000000 0.4672 0.4660 0.4650 0.4641 0.4632
3440.000000 0.4622 0.4612 0.4604 0.4595 0.4586
3435.000000 0.4577 0.4568 0.4559 0.4550 0.4541
3430.000000 0.4531 0.4522 0.4512 0.4503 0.4493
3425.000000 0.4484 0.4473 0.4462 0.4450 0.4439
3420.000000 0.4428 0.4418 0.4408 0.4398 0.4388
3415.000000 0.4379 0.4372 0.4365 0.4358 0.4351
3410.000000 0.4344 0.4337 0.4330 0.4323 0.4316
3405.000000 0.4308 0.4301 0.4294 0.4287 0.4280
3400.000000 0.4273 0.4267 0.4260 0.4253 0.4247
3395.000000 0.4241 0.4235 0.4229 0.4223 0.4219
3390.000000 0.4215 0.4210 0.4206 0.4202 0.4198
3385.000000 0.4194 0.4190 0.4186 0.4183 0.4180
3380.000000 0.4176 0.4173 0.4170 0.4167 0.4164
3375.000000 0.4160 0.4158 0.4155 0.4151 0.4148
3370.000000 0.4144 0.4141 0.4137 0.4133 0.4130
3365.000000 0.4126 0.4124 0.4121 0.4119 0.4116
3360.000000 0.4114 0.4112 0.4110 0.4107 0.4105
3355.000000 0.4104 0.4104 0.4103 0.4103 0.4103
3350.000000 0.4103 0.4103 0.4103 0.4103 0.4104
3345.000000 0.4106 0.4107 0.4109 0.4110 0.4114
3340.000000 0.4117 0.4120 0.4123 0.4130 0.4138
3335.000000 0.4146 0.4154 0.4167 0.4190 0.4212
3330.000000 0.4236 0.4259 0.4282 0.4305 0.4328
3325.000000 0.4351 0.4374 0.4397 0.4421 0.4444
3320.000000 0.4467 0.4490 0.4512 0.4536 0.4559
3315.000000 0.4583 0.4606 0.4629 0.4652 0.4676
3310.000000 0.4699 0.4722 0.4745 0.4769 0.4792
3305.000000 0.4815 0.4839 0.4862 0.4885 0.4909
3300.000000 0.4932 0.4956 0.4979 0.5003 0.5026
3295.000000 0.5050 0.5073 0.5097 0.5120 0.5144
3290.000000 0.5167 0.5191 0.5214 0.5238 0.5260
3285.000000 0.5285 0.5309 0.5332 0.5356 0.5380
3280.000000 0.5403 0.5427 0.5451 0.5475 0.5498
3275.000000 0.5522 0.5546 0.5571 0.5594 0.5618
3270.000000 0.5642 0.5666 0.5690 0.5714 0.5738
3265.000000 0.5762 0.5786 0.5809 0.5833 0.5857
3260.000000 0.5881 0.5905 0.5929 0.5953 0.5977
3255.000000 0.6002 0.6026 0.6050 0.6074 0.6098
3250.000000 0.6122 0.6146 0.6170 0.6195 0.6212
3245.000000 0.6230 0.6248 0.6265 0.6281 0.6297
3240.000000 0.6312 0.6329 0.6346 0.6364 0.6382
3235.000000 0.6400 0.6418 0.6440 0.6461 0.6483
3230.000000 0.6505 0.6549 0.6593 0.6637 0.6681
3225.000000 0.6722 0.6765 0.6806 0.6848 0.6885
3220.000000 0.6921 0.6956 0.6991 0.7021 0.7047
3215.000000 0.7072 0.7099 0.7125 0.7151 0.7176
3210.000000 0.7203 0.7228 0.7250 0.7272 0.7295
3205.000000 0.7317 0.7339 0.7361 0.7383 0.7405
3200.000000 0.7426 0.7449 0.7471 0.7493 0.7511
3195.000000 0.7528 0.7547 0.7565 0.7582 0.7600
3190.000000 0.7618 0.7636 0.7653 0.7671 0.7689
3185.000000 0.7707 0.7725 0.7742 0.7758 0.7776
3180.000000 0.7793 0.7810 0.7826 0.7843 0.7860
3175.000000 0.7875 0.7893 0.7910 0.7925 0.7943
3170.000000 0.7960 0.7975 0.7993 0.8010 0.8025
3165.000000 0.8043 0.8060 0.8076 0.8093 0.8110
3160.000000 0.8126 0.8143 0.8160 0.8175 0.8192
3155.000000 0.8207 0.8223 0.8238 0.8253 0.8268
3150.000000 0.8284 0.8300 0.8314 0.8328 0.8342
3145.000000 0.8356 0.8367 0.8378 0.8388 0.8398
3140.000000 0.8409 0.8420 0.8430 0.8441 0.8452
3135.000000 0.8464 0.8475 0.8487 0.8497 0.8508
3130.000000 0.8518 0.8528 0.8535 0.8541 0.8547
3125.000000 0.8554 0.8559 0.8565 0.8571 0.8577
3120.000000 0.8582 0.8587 0.8592 0.8598 0.8603
3115.000000 0.8608 0.8613 0.8618 0.8623 0.8628
3110.000000 0.8633 0.8638 0.8643 0.8648 0.8653
3105.000000 0.8658 0.8663 0.8667 0.8671 0.8674
3100.000000 0.8675 0.8678 0.8680 0.8682 0.8683
3095.000000 0.8684 0.8686 0.8686 0.8687 0.8687
3090.000000 0.8688 0.8688 0.8689 0.8689 0.8688
3085.000000 0.8686 0.8683 0.8681 0.8675 0.8668
3080.000000 0.8662 0.8656 0.8648 0.8641 0.8634
3075.000000 0.8625 0.8598 0.8571 0.8543 0.8507
3070.000000 0.8443 0.8380 0.8317 0.8254 0.8191
3065.000000 0.8126 0.8064 0.8000 0.7937 0.7874
3060.000000 0.7810 0.7746 0.7683 0.7618 0.7555
3055.000000 0.7491 0.7426 0.7362 0.7299 0.7235
3050.000000 0.7171 0.7108 0.7043 0.6978 0.6915
3045.000000 0.6853 0.6819 0.6786 0.6753 0.6732
3040.000000 0.6732 0.6732 0.6732 0.6732 0.6732
3035.000000 0.6732 0.6732 0.6745 0.6758 0.6760
3030.000000 0.6787 0.6801 0.6815 0.6831 0.6846
3025.000000 0.6860 0.6875 0.6889 0.6904 0.6918
3020.000000 0.6933 0.6948 0.6962 0.6976 0.6992
3015.000000 0.6997 0.6997 0.6997 0.6997 0.6994
3010.000000 0.6991 0.6987 0.6983 0.6976 0.6971
3005.000000 0.6965 0.6958 0.6951 0.6946 0.6939
3000.000000 0.6933 0.6926 0.6921 0.6917 0.6915
2995.000000 0.6914 0.6912 0.6912 0.6912 0.6912
2990.000000 0.6915 0.6924 0.6932 0.6939 0.6951
2985.000000 0.6964 0.6976 0.6989 0.7001 0.7014
2980.000000 0.7025 0.7039 0.7051 0.7064 0.7076
2975.000000 0.7089 0.7101 0.7114 0.7126 0.7140
2970.000000 0.7151 0.7165 0.7178 0.7190 0.7201
2965.000000 0.7208 0.7208 0.7210 0.7211 0.7211
2960.000000 0.7211 0.7211 0.7208 0.7203 0.7198
2955.000000 0.7193 0.7188 0.7183 0.7178 0.7174
2950.000000 0.7168 0.7164 0.7158 0.7154 0.7149
2945.000000 0.7143 0.7138 0.7133 0.7128 0.7124
2940.000000 0.7118 0.7114 0.7108 0.7107 0.7107
2935.000000 0.7107 0.7108 0.7111 0.7115 0.7118
2930.000000 0.7130 0.7144 0.7157 0.7171 0.7191
2925.000000 0.7210 0.7228 0.7260 0.7292 0.7324
2920.000000 0.7356 0.7389 0.7421 0.7454 0.7487
2915.000000 0.7518 0.7551 0.7584 0.7615 0.7649
2910.000000 0.7681 0.7714 0.7747 0.7780 0.7811
2905.000000 0.7845 0.7876 0.7910 0.7943 0.7975
2900.000000 0.8008 0.8041 0.8074 0.8106 0.8137
2895.000000 0.8168 0.8199 0.8227 0.8253 0.8280
2890.000000 0.8305 0.8324 0.8343 0.8362 0.8381
2885.000000 0.8399 0.8417 0.8436 0.8454 0.8473
2880.000000 0.8490 0.8505 0.8518 0.8534 0.8548
2875.000000 0.8562 0.8575 0.8590 0.8604 0.8618
2870.000000 0.8632 0.8645 0.8659 0.8671 0.8683
2865.000000 0.8693 0.8703 0.8714 0.8724 0.8734
2860.000000 0.8745 0.8755 0.8766 0.8775 0.8786
2855.000000 0.8797 0.8807 0.8818 0.8828 0.8839
2850.000000 0.8849 0.8860 0.8871 0.8882 0.8892
2845.000000 0.8903 0.8914 0.8923 0.8932 0.8941
2840.000000 0.8949 0.8956 0.8964 0.8971 0.8980
2835.000000 0.8987 0.8994 0.8999 0.9005 0.9009
2830.000000 0.9012 0.9014 0.9017 0.9018 0.9021
2825.000000 0.9024 0.9027 0.9028 0.9032 0.9034
2820.000000 0.9037 0.9039 0.9042 0.9045 0.9048
2815.000000 0.9050 0.9053 0.9056 0.9059 0.9062
2810.000000 0.9065 0.9068 0.9071 0.9075 0.9078
2805.000000 0.9081 0.9084 0.9088 0.9091 0.9094
2800.000000 0.9097 0.9100 0.9103 0.9107 0.9110
2795.000000 0.9113 0.9115 0.9118 0.9121 0.9125
2790.000000 0.9128 0.9131 0.9135 0.9138 0.9141
2785.000000 0.9144 0.9147 0.9150 0.9153 0.9156
2780.000000 0.9159 0.9163 0.9166 0.9168 0.9171
2775.000000 0.9175 0.9178 0.9181 0.9184 0.9187
2770.000000 0.9190 0.9193 0.9196 0.9200 0.9203
2765.000000 0.9206 0.9209 0.9212 0.9215 0.9218
2760.000000 0.9221 0.9225 0.9228 0.9231 0.9234
2755.000000 0.9237 0.9240 0.9243 0.9246 0.9249
2750.000000 0.9252 0.9256 0.9259 0.9262 0.9265
2745.000000 0.9268 0.9271 0.9275 0.9278 0.9281
2740.000000 0.9284 0.9287 0.9290 0.9294 0.9297
2735.000000 0.9300 0.9302 0.9304 0.9306 0.9307
2730.000000 0.9309 0.9310 0.9312 0.9313 0.9315
2725.000000 0.9316 0.9318 0.9318 0.9320 0.9321
2720.000000 0.9323 0.9325 0.9325 0.9328 0.9328
2715.000000 0.9331 0.9332 0.9334 0.9336 0.9337
2710.000000 0.9339 0.9340 0.9341 0.9343 0.9344
2705.000000 0.9346 0.9347 0.9349 0.9350 0.9352
2700.000000 0.9353 0.9355 0.9357 0.9358 0.9360
2695.000000 0.9361 0.9362 0.9364 0.9366 0.9368
2690.000000 0.9368 0.9370 0.9371 0.9373 0.9375
2685.000000 0.9375 0.9377 0.9378 0.9380 0.9381
2680.000000 0.9383 0.9384 0.9386 0.9387 0.9388
2675.000000 0.9390 0.9391 0.9393 0.9395 0.9396
2670.000000 0.9398 0.9399 0.9401 0.9402 0.9403
2665.000000 0.9405 0.9406 0.9408 0.9409 0.9410
2660.000000 0.9412 0.9413 0.9415 0.9416 0.9418
2655.000000 0.9418 0.9420 0.9421 0.9423 0.9425
2650.000000 0.9425 0.9428 0.9428 0.9430 0.9432
2645.000000 0.9433 0.9434 0.9435 0.9437 0.9438
2640.000000 0.9439 0.9441 0.9442 0.9444 0.9445
2635.000000 0.9447 0.9448 0.9449 0.9451 0.9452
2630.000000 0.9453 0.9454 0.9456 0.9457 0.9459
2625.000000 0.9460 0.9461 0.9463 0.9464 0.9466
2620.000000 0.9467 0.9468 0.9468 0.9470 0.9471
2615.000000 0.9471 0.9471 0.9473 0.9474 0.9474
2610.000000 0.9475 0.9475 0.9477 0.9477 0.9478
2605.000000 0.9478 0.9480 0.9480 0.9481 0.9482
2600.000000 0.9483 0.9483 0.9484 0.9485 0.9486
2595.000000 0.9486 0.9487 0.9488 0.9489 0.9489
2590.000000 0.9490 0.9491 0.9491 0.9492 0.9493
2585.000000 0.9494 0.9494 0.9495 0.9496 0.9497
2580.000000 0.9498 0.9499 0.9500 0.9501 0.9501
2575.000000 0.9501 0.9502 0.9502 0.9503 0.9503
2570.000000 0.9504 0.9505 0.9505 0.9505 0.9506
2565.000000 0.9507 0.9508 0.9508 0.9508 0.9509
2560.000000 0.9509 0.9509 0.9510 0.9511 0.9512
2555.000000 0.9512 0.9512 0.9513 0.9514 0.9515
2550.000000 0.9515 0.9515 0.9516 0.9516 0.9516
2545.000000 0.9517 0.9518 0.9518 0.9518 0.9518
2540.000000 0.9520 0.9521 0.9521 0.9521 0.9521
2535.000000 0.9521 0.9521 0.9521 0.9521 0.9521
2530.000000 0.9521 0.9521 0.9521 0.9521 0.9521
2525.000000 0.9521 0.9521 0.9521 0.9520 0.9520
2520.000000 0.9518 0.9518 0.9518 0.9518 0.9518
2515.000000 0.9518 0.9518 0.9518 0.9517 0.9517
2510.000000 0.9516 0.9516 0.9516 0.9515 0.9515
2505.000000 0.9515 0.9515 0.9515 0.9515 0.9515
2500.000000 0.9516 0.9516 0.9516 0.9517 0.9517
2495.000000 0.9517 0.9517 0.9517 0.9518 0.9518
2490.000000 0.9518 0.9518 0.9518 0.9518 0.9518
2485.000000 0.9520 0.9520 0.9520 0.9521 0.9521
2480.000000 0.9523 0.9524 0.9525 0.9525 0.9527
2475.000000 0.9528 0.9528 0.9528 0.9530 0.9532
2470.000000 0.9533 0.9534 0.9534 0.9536 0.9537
2465.000000 0.9538 0.9539 0.9540 0.9540 0.9541
2460.000000 0.9543 0.9544 0.9546 0.9548 0.9549
2455.000000 0.9551 0.9552 0.9554 0.9555 0.9556
2450.000000 0.9558 0.9560 0.9561 0.9563 0.9565
2445.000000 0.9566 0.9568 0.9568 0.9571 0.9571
2440.000000 0.9573 0.9575 0.9575 0.9575 0.9577
2435.000000 0.9578 0.9578 0.9580 0.9580 0.9581
2430.000000 0.9582 0.9583 0.9584 0.9585 0.9585
2425.000000 0.9585 0.9586 0.9586 0.9585 0.9585
2420.000000 0.9585 0.9585 0.9585 0.9585 0.9585
2415.000000 0.9585 0.9585 0.9584 0.9584 0.9584
2410.000000 0.9583 0.9582 0.9581 0.9581 0.9580
2405.000000 0.9578 0.9578 0.9577 0.9575 0.9571
2400.000000 0.9568 0.9566 0.9561 0.9556 0.9551
2395.000000 0.9545 0.9538 0.9528 0.9520 0.9512
2390.000000 0.9503 0.9496 0.9488 0.9482 0.9477
2385.000000 0.9471 0.9468 0.9464 0.9461 0.9459
2380.000000 0.9457 0.9456 0.9456 0.9456 0.9465
2375.000000 0.9484 0.9503 0.9518 0.9533 0.9548
2370.000000 0.9563 0.9578 0.9594 0.9609 0.9623
2365.000000 0.9638 0.9652 0.9666 0.9678 0.9692
2360.000000 0.9705 0.9718 0.9728 0.9736 0.9744
2355.000000 0.9751 0.9759 0.9767 0.9775 0.9783
2350.000000 0.9791 0.9797 0.9803 0.9809 0.9815
2345.000000 0.9821 0.9825 0.9832 0.9837 0.9843
2340.000000 0.9847 0.9852 0.9857 0.9862 0.9867
2335.000000 0.9871 0.9875 0.9878 0.9881 0.9883
2330.000000 0.9884 0.9886 0.9888 0.9890 0.9892
2325.000000 0.9893 0.9894 0.9895 0.9896 0.9897
2320.000000 0.9897 0.9897 0.9894 0.9892 0.9889
2315.000000 0.9887 0.9881 0.9874 0.9866 0.9859
2310.000000 0.9852 0.9845 0.9839 0.9834 0.9828
2305.000000 0.9825 0.9820 0.9815 0.9810 0.9806
2300.000000 0.9801 0.9796 0.9791 0.9787 0.9783
2295.000000 0.9778 0.9775 0.9773 0.9768 0.9766
2290.000000 0.9763 0.9759 0.9756 0.9753 0.9749
2285.000000 0.9746 0.9743 0.9740 0.9737 0.9733
2280.000000 0.9730 0.9727 0.9725 0.9724 0.9721
2275.000000 0.9721 0.9718 0.9718 0.9716 0.9715
2270.000000 0.9714 0.9713 0.9712 0.9710 0.9709
2265.000000 0.9707 0.9706 0.9706 0.9705 0.9705
2260.000000 0.9704 0.9704 0.9703 0.9703 0.9702
2255.000000 0.9701 0.9700 0.9700 0.9699 0.9699
2250.000000 0.9698 0.9698 0.9698 0.9698 0.9697
2245.000000 0.9697 0.9697 0.9697 0.9697 0.9697
2240.000000 0.9697 0.9697 0.9696 0.9696 0.9696
2235.000000 0.9696 0.9696 0.9696 0.9697 0.9697
2230.000000 0.9698 0.9698 0.9699 0.9699 0.9700
2225.000000 0.9700 0.9701 0.9701 0.9702 0.9702
2220.000000 0.9703 0.9703 0.9704 0.9704 0.9705
2215.000000 0.9706 0.9707 0.9707 0.9708 0.9709
2210.000000 0.9710 0.9710 0.9711 0.9712 0.9713
2205.000000 0.9713 0.9714 0.9714 0.9715 0.9716
2200.000000 0.9717 0.9717 0.9718 0.9718 0.9718
2195.000000 0.9718 0.9720 0.9721 0.9721 0.9721
2190.000000 0.9721 0.9718 0.9717 0.9715 0.9714
2185.000000 0.9712 0.9710 0.9709 0.9707 0.9706
2180.000000 0.9705 0.9704 0.9702 0.9701 0.9700
2175.000000 0.9698 0.9697 0.9695 0.9693 0.9692
2170.000000 0.9691 0.9690 0.9688 0.9687 0.9686
2165.000000 0.9686 0.9685 0.9685 0.9685 0.9685
2160.000000 0.9684 0.9684 0.9683 0.9683 0.9683
2155.000000 0.9682 0.9682 0.9681 0.9681 0.9681
2150.000000 0.9681 0.9681 0.9681 0.9682 0.9682
2145.000000 0.9683 0.9684 0.9684 0.9685 0.9685
2140.000000 0.9686 0.9686 0.9687 0.9687 0.9688
2135.000000 0.9688 0.9689 0.9690 0.9691 0.9692
2130.000000 0.9692 0.9693 0.9693 0.9694 0.9695
2125.000000 0.9696 0.9697 0.9698 0.9699 0.9699
2120.000000 0.9700 0.9701 0.9702 0.9703 0.9704
2115.000000 0.9705 0.9706 0.9707 0.9707 0.9708
2110.000000 0.9709 0.9710 0.9710 0.9712 0.9713
2105.000000 0.9713 0.9714 0.9714 0.9715 0.9715
2100.000000 0.9716 0.9717 0.9717 0.9717 0.9717
2095.000000 0.9718 0.9718 0.9718 0.9720 0.9720
2090.000000 0.9721 0.9721 0.9721 0.9721 0.9721
2085.000000 0.9723 0.9723 0.9724 0.9724 0.9725
2080.000000 0.9725 0.9725 0.9725 0.9725 0.9725
2075.000000 0.9725 0.9725 0.9725 0.9727 0.9727
2070.000000 0.9727 0.9727 0.9727 0.9728 0.9728
2065.000000 0.9728 0.9728 0.9728 0.9728 0.9728
2060.000000 0.9728 0.9728 0.9728 0.9728 0.9728
2055.000000 0.9728 0.9728 0.9728 0.9727 0.9727
2050.000000 0.9727 0.9727 0.9727 0.9727 0.9727
2045.000000 0.9725 0.9724 0.9723 0.9721 0.9720
2040.000000 0.9718 0.9717 0.9716 0.9715 0.9713
2035.000000 0.9711 0.9710 0.9708 0.9707 0.9706
2030.000000 0.9704 0.9702 0.9700 0.9698 0.9697
2025.000000 0.9694 0.9692 0.9689 0.9686 0.9682
2020.000000 0.9680 0.9677 0.9674 0.9671 0.9668
2015.000000 0.9666 0.9663 0.9660 0.9658 0.9656
2010.000000 0.9653 0.9651 0.9649 0.9647 0.9645
2005.000000 0.9643 0.9640 0.9638 0.9637 0.9637
2000.000000 0.9638 0.9638 0.9639 0.9639 0.9641
1995.000000 0.9642 0.9642 0.9644 0.9646 0.9647
1990.000000 0.9649 0.9650 0.9652 0.9654 0.9655
1985.000000 0.9657 0.9659 0.9660 0.9662 0.9663
1980.000000 0.9665 0.9667 0.9668 0.9668 0.9670
1975.000000 0.9670 0.9671 0.9673 0.9673 0.9674
1970.000000 0.9675 0.9675 0.9675 0.9675 0.9675
1965.000000 0.9675 0.9675 0.9675 0.9675 0.9675
1960.000000 0.9674 0.9673 0.9673 0.9673 0.9671
1955.000000 0.9671 0.9671 0.9668 0.9666 0.9663
1950.000000 0.9659 0.9656 0.9653 0.9649 0.9646
1945.000000 0.9642 0.9637 0.9633 0.9628 0.9624
1940.000000 0.9620 0.9615 0.9611 0.9606 0.9601
1935.000000 0.9597 0.9594 0.9591 0.9589 0.9586
1930.000000 0.9583 0.9580 0.9578 0.9575 0.9571
1925.000000 0.9568 0.9566 0.9563 0.9561 0.9560
1920.000000 0.9559 0.9559 0.9558 0.9557 0.9557
1915.000000 0.9556 0.9555 0.9555 0.9555 0.9554
1910.000000 0.9554 0.9553 0.9552 0.9552 0.9552
1905.000000 0.9552 0.9553 0.9553 0.9554 0.9556
1900.000000 0.9556 0.9557 0.9559 0.9560 0.9561
1895.000000 0.9562 0.9563 0.9564 0.9565 0.9567
1890.000000 0.9567 0.9567 0.9567 0.9567 0.9568
1885.000000 0.9568 0.9568 0.9568 0.9568 0.9568
1880.000000 0.9568 0.9568 0.9568 0.9568 0.9570
1875.000000 0.9570 0.9570 0.9570 0.9568 0.9568
1870.000000 0.9568 0.9567 0.9566 0.9565 0.9565
1865.000000 0.9564 0.9563 0.9563 0.9562 0.9561
1860.000000 0.9560 0.9558 0.9556 0.9554 0.9552
1855.000000 0.9550 0.9548 0.9546 0.9544 0.9542
1850.000000 0.9540 0.9538 0.9535 0.9533 0.9530
1845.000000 0.9527 0.9525 0.9521 0.9518 0.9517
1840.000000 0.9514 0.9510 0.9506 0.9501 0.9496
1835.000000 0.9490 0.9485 0.9478 0.9474 0.9468
1830.000000 0.9464 0.9458 0.9454 0.9449 0.9444
1825.000000 0.9438 0.9433 0.9428 0.9423 0.9417
1820.000000 0.9412 0.9407 0.9402 0.9396 0.9392
1815.000000 0.9387 0.9381 0.9375 0.9371 0.9366
1810.000000 0.9357 0.9348 0.9339 0.9331 0.9321
1805.000000 0.9314 0.9306 0.9298 0.9290 0.9281
1800.000000 0.9274 0.9265 0.9260 0.9258 0.9258
1795.000000 0.9257 0.9256 0.9255 0.9254 0.9254
1790.000000 0.9254 0.9254 0.9254 0.9254 0.9253
1785.000000 0.9252 0.9251 0.9250 0.9250 0.9249
1780.000000 0.9247 0.9241 0.9232 0.9223 0.9214
1775.000000 0.9203 0.9191 0.9178 0.9163 0.9150
1770.000000 0.9136 0.9121 0.9108 0.9093 0.9078
1765.000000 0.9062 0.9047 0.9032 0.9016 0.9001
1760.000000 0.8985 0.8968 0.8951 0.8933 0.8915
1755.000000 0.8896 0.8877 0.8859 0.8843 0.8827
1750.000000 0.8812 0.8796 0.8781 0.8765 0.8756
1745.000000 0.8749 0.8741 0.8734 0.8725 0.8718
1740.000000 0.8712 0.8705 0.8698 0.8690 0.8680
1735.000000 0.8668 0.8657 0.8645 0.8633 0.8621
1730.000000 0.8608 0.8596 0.8583 0.8571 0.8558
1725.000000 0.8544 0.8532 0.8518 0.8506 0.8493
1720.000000 0.8480 0.8466 0.8451 0.8432 0.8413
1715.000000 0.8395 0.8375 0.8357 0.8338 0.8317
1710.000000 0.8294 0.8271 0.8249 0.8227 0.8205
1705.000000 0.8182 0.8158 0.8130 0.8093 0.8056
1700.000000 0.8018 0.7982 0.7928 0.7842 0.7742
1695.000000 0.7676 0.7612 0.7493 0.7328 0.7161
1690.000000 0.7015 0.6878 0.6749 0.6622 0.6500
1685.000000 0.6285 0.5962 0.5725 0.5614 0.5424
1680.000000 0.5035 0.4743 0.4450 0.4157 0.3862
1675.000000 0.3568 0.3274 0.2979 0.2684 0.2389
1670.000000 0.2093 0.1796 0.1500 0.1224 0.1087
1665.000000 0.1022 0.0961 0.0880 0.0772 0.0663
1660.000000 0.0587 0.0572 0.0556 0.0541 0.0530
1655.000000 0.0519 0.0508 0.0497 0.0488 0.0459
1650.000000 0.0475 0.0469 0.0465 0.0467 0.0477
1645.000000 0.0490 0.0515 0.0560 0.0628 0.0711
1640.000000 0.0812 0.0981 0.1245 0.1487 0.1716
1635.000000 0.1875 0.2009 0.2238 0.2622 0.3020
1630.000000 0.3418 0.3816 0.4216 0.4616 0.5017
1625.000000 0.5417 0.5776 0.6144 0.6507 0.6636
1620.000000 0.6781 0.6924 0.7025 0.7115 0.7208
1615.000000 0.7272 0.7334 0.7396 0.7457 0.7512
1610.000000 0.7568 0.7622 0.7667 0.7708 0.7748
1605.000000 0.7788 0.7828 0.7865 0.7900 0.7932
1600.000000 0.7965 0.7996 0.8021 0.8041 0.8061
1595.000000 0.8081 0.8101 0.8121 0.8141 0.8157
1590.000000 0.8171 0.8185 0.8199 0.8213 0.8225
1585.000000 0.8238 0.8248 0.8257 0.8267 0.8275
1580.000000 0.8282 0.8289 0.8297 0.8305 0.8312
1575.000000 0.8318 0.8327 0.8337 0.8350 0.8363
1570.000000 0.8375 0.8388 0.8401 0.8414 0.8427
1565.000000 0.8440 0.8452 0.8464 0.8477 0.8488
1560.000000 0.8497 0.8505 0.8513 0.8518 0.8518
1555.000000 0.8518 0.8518 0.8518 0.8518 0.8518
1550.000000 0.8518 0.8518 0.8518 0.8515 0.8513
1545.000000 0.8511 0.8509 0.8504 0.8499 0.8495
1540.000000 0.8490 0.8485 0.8480 0.8474 0.8466
1535.000000 0.8457 0.8448 0.8440 0.8433 0.8425
1530.000000 0.8423 0.8421 0.8432 0.8444 0.8456
1525.000000 0.8462 0.8463 0.8465 0.8468 0.8468
1520.000000 0.8471 0.8471 0.8467 0.8462 0.8456
1515.000000 0.8451 0.8444 0.8434 0.8411 0.8380
1510.000000 0.8341 0.8297 0.8254 0.8209 0.8165
1505.000000 0.8121 0.8072 0.8025 0.7976 0.7928
1500.000000 0.7881 0.7828 0.7769 0.7711 0.7651
1495.000000 0.7588 0.7515 0.7425 0.7301 0.7200
1490.000000 0.7105 0.6987 0.6868 0.6751 0.6632
1485.000000 0.6512 0.6394 0.6274 0.6155 0.6035
1480.000000 0.5920 0.5835 0.5779 0.5743 0.5743
1475.000000 0.5750 0.5765 0.5801 0.5841 0.5888
1470.000000 0.5938 0.5985 0.6029 0.6073 0.6117
1465.000000 0.6170 0.6256 0.6344 0.6408 0.6467
1460.000000 0.6525 0.6575 0.6604 0.6621 0.6639
1455.000000 0.6654 0.6665 0.6675 0.6683 0.6686
1450.000000 0.6687 0.6688 0.6680 0.6669 0.6660
1445.000000 0.6651 0.6647 0.6647 0.6660 0.6681
1440.000000 0.6701 0.6725 0.6761 0.6793 0.6814
1435.000000 0.6832 0.6851 0.6869 0.6889 0.6906
1430.000000 0.6914 0.6875 0.6915 0.6915 0.6911
1425.000000 0.6908 0.6900 0.6889 0.6883 0.6876
1420.000000 0.6871 0.6864 0.6853 0.6842 0.6828
1415.000000 0.6806 0.6782 0.6757 0.6725 0.6686
1410.000000 0.6633 0.6528 0.6386 0.6280 0.6174
1405.000000 0.6068 0.5962 0.5856 0.5749 0.5644
1400.000000 0.5581 0.5552 0.5555 0.5554 0.5565
1395.000000 0.5644 0.5774 0.5904 0.6034 0.6165
1390.000000 0.6295 0.6418 0.6495 0.6557 0.6605
1385.000000 0.6654 0.6694 0.6728 0.6761 0.6789
1380.000000 0.6814 0.6825 0.6834 0.6842 0.6840
1375.000000 0.6839 0.6830 0.6807 0.6774 0.6730
1370.000000 0.6687 0.6638 0.6587 0.6536 0.6486
1365.000000 0.6444 0.6407 0.6370 0.6333 0.6298
1360.000000 0.6270 0.6242 0.6217 0.6195 0.6176
1355.000000 0.6160 0.6169 0.6177 0.6186 0.6209
1350.000000 0.6231 0.6243 0.6253 0.6262 0.6273
1345.000000 0.6281 0.6286 0.6290 0.6294 0.6298
1340.000000 0.6301 0.6303 0.6305 0.6306 0.6309
1335.000000 0.6308 0.6301 0.6306 0.6305 0.6301
1330.000000 0.6296 0.6290 0.6285 0.6276 0.6254
1325.000000 0.6231 0.6173 0.6103 0.6033 0.5960
1320.000000 0.5890 0.5812 0.5734 0.5646 0.5554
1315.000000 0.5459 0.5356 0.5260 0.5150 0.4929
1310.000000 0.4673 0.4416 0.4159 0.3900 0.3643
1305.000000 0.3384 0.3126 0.2867 0.2607 0.2347
1300.000000 0.2087 0.1826 0.1564 0.1303 0.1042
1295.000000 0.0865 0.0701 0.0617 0.0541 0.0469
1290.000000 0.0448 0.0447 0.0455 0.0473 0.0513
1285.000000 0.0572 0.0655 0.0768 0.0916 0.1285
1280.000000 0.1729 0.2173 0.2617 0.3063 0.3509
1275.000000 0.3957 0.4455 0.4586 0.4838 0.5100
1270.000000 0.5327 0.5564 0.5687 0.5809 0.5909
1265.000000 0.5983 0.6058 0.6133 0.6201 0.6260
1260.000000 0.6321 0.6381 0.6433 0.6483 0.6533
1255.000000 0.6584 0.6637 0.6698 0.6760 0.6821
1250.000000 0.6884 0.6940 0.6994 0.7050 0.7105
1245.000000 0.7161 0.7212 0.7264 0.7315 0.7365
1240.000000 0.7417 0.7468 0.7521 0.7575 0.7628
1235.000000 0.7682 0.7736 0.7788 0.7834 0.7878
1230.000000 0.7925 0.7969 0.8015 0.8061 0.8105
1225.000000 0.8146 0.8187 0.8228 0.8268 0.8306
1220.000000 0.8338 0.8370 0.8402 0.8430 0.8452
1215.000000 0.8475 0.8499 0.8521 0.8540 0.8557
1210.000000 0.8575 0.8592 0.8610 0.8624 0.8636
1205.000000 0.8648 0.8659 0.8671 0.8684 0.8696
1200.000000 0.8708 0.8720 0.8730 0.8738 0.8745
1195.000000 0.8749 0.8752 0.8756 0.8756 0.8750
1190.000000 0.8786 0.8741 0.8735 0.8728 0.8724
1185.000000 0.8716 0.8705 0.8693 0.8681 0.8666
1180.000000 0.8646 0.8627 0.8605 0.8571 0.8537
1175.000000 0.8503 0.8459 0.8398 0.8336 0.8248
1170.000000 0.8137 0.7869 0.7544 0.7371 0.7261
1165.000000 0.7168 0.7088 0.7012 0.6918 0.6819
1160.000000 0.6737 0.6660 0.6582 0.6504 0.6444
1155.000000 0.6395 0.6358 0.6326 0.6296 0.6272
1150.000000 0.6250 0.6233 0.6217 0.6217 0.6216
1145.000000 0.6252 0.6312 0.6383 0.6478 0.6578
1140.000000 0.6655 0.6721 0.6780 0.6818 0.6855
1135.000000 0.6883 0.6907 0.6924 0.6941 0.6956
1130.000000 0.6956 0.6940 0.6884 0.6838 0.6801
1125.000000 0.6781 0.6768 0.6764 0.6767 0.6776
1120.000000 0.6787 0.6810 0.6836 0.6864 0.6898
1115.000000 0.6933 0.6967 0.6998 0.7025 0.7043
1110.000000 0.7061 0.7072 0.7112 0.7082 0.7075
1105.000000 0.7065 0.7053 0.7031 0.7006 0.6956
1100.000000 0.6901 0.6833 0.6761 0.6681 0.6596
1095.000000 0.6482 0.6368 0.6253 0.6100 0.5937
1090.000000 0.5767 0.5623 0.5462 0.5292 0.5218
1085.000000 0.5134 0.5022 0.4912 0.4829 0.4755
1080.000000 0.4698 0.4655 0.4627 0.4605 0.4587
1075.000000 0.4580 0.4572 0.4565 0.4559 0.4553
1070.000000 0.4545 0.4531 0.4500 0.4388 0.4274
1065.000000 0.4168 0.4077 0.3992 0.3916 0.3845
1060.000000 0.3768 0.3697 0.3634 0.3553 0.3449
1055.000000 0.3466 0.3455 0.3477 0.3552 0.3637
1050.000000 0.3730 0.3844 0.3989 0.4318 0.4684
1045.000000 0.5049 0.5415 0.5783 0.6141 0.6342
1040.000000 0.6645 0.6896 0.7061 0.7192 0.7324
1035.000000 0.7446 0.7555 0.7647 0.7714 0.7771
1030.000000 0.7795 0.7814 0.7849 0.7828 0.7830
1025.000000 0.7821 0.7808 0.7786 0.7760 0.7718
1020.000000 0.7651 0.7568 0.7437 0.7125 0.6910
1015.000000 0.6717 0.6524 0.6331 0.6137 0.5944
1010.000000 0.5749 0.5554 0.5359 0.5162 0.4967
1005.000000 0.4771 0.4574 0.4377 0.4180 0.4097
1000.000000 0.4097 0.4132 0.4249 0.4386 0.4527
995.000000 0.4703 0.4933 0.5156 0.5380 0.5603
990.000000 0.5828 0.6052 0.6278 0.6503 0.6726
985.000000 0.6853 0.6955 0.7041 0.7091 0.7111
980.000000 0.7114 0.7114 0.7087 0.7038 0.6986
975.000000 0.6967 0.6976 0.7011 0.7069 0.7130
970.000000 0.7206 0.7284 0.7365 0.7447 0.7511
965.000000 0.7550 0.7588 0.7619 0.7621 0.7621
960.000000 0.7565 0.7486 0.7435 0.7390 0.7378
955.000000 0.7369 0.7364 0.7358 0.7351 0.7346
950.000000 0.7342 0.7338 0.7324 0.7301 0.7221
945.000000 0.7153 0.7085 0.7018 0.6950 0.6884
940.000000 0.6817 0.6750 0.6682 0.6607 0.6531
935.000000 0.6451 0.6357 0.6257 0.6147 0.6044
930.000000 0.5959 0.5876 0.5821 0.5777 0.5758
925.000000 0.5726 0.5678 0.5598 0.5501 0.5394
920.000000 0.5269 0.5104 0.4867 0.4631 0.4395
915.000000 0.4159 0.3921 0.3684 0.3449 0.3314
910.000000 0.3210 0.3119 0.3072 0.3037 0.3027
905.000000 0.3033 0.3040 0.3041 0.3042 0.3030
900.000000 0.3006 0.2969 0.2904 0.2832 0.2734
895.000000 0.2622 0.2483 0.2285 0.2132 0.1994
890.000000 0.1868 0.1774 0.1694 0.1635 0.1596
885.000000 0.1595 0.1550 0.1548 0.1577 0.1607
880.000000 0.1648 0.1692 0.1741 0.1796 0.1852
875.000000 0.1909 0.1964 0.2021 0.2070 0.2119
870.000000 0.2160 0.2191 0.2220 0.2298 0.2214
865.000000 0.2188 0.2164 0.2143 0.2124 0.2105
860.000000 0.2085 0.2070 0.2084 0.2067 0.2099
855.000000 0.2155 0.2275 0.2416 0.2542 0.2667
850.000000 0.2793 0.2938 0.3113 0.3290 0.3496
845.000000 0.3720 0.4050 0.4389 0.4662 0.4878
840.000000 0.5051 0.5212 0.5368 0.5524 0.5685
835.000000 0.5885 0.6092 0.6301 0.6508 0.6718
830.000000 0.6928 0.7144 0.7271 0.7394 0.7496
825.000000 0.7592 0.7658 0.7724 0.7790 0.7844
820.000000 0.7884 0.7925 0.7965 0.8006 0.8039
815.000000 0.8069 0.8101 0.8133 0.8161 0.8184
810.000000 0.8205 0.8227 0.8248 0.8270 0.8289
805.000000 0.8307 0.8327 0.8345 0.8361 0.8375
800.000000 0.8391 0.8402 0.8408 0.8413 0.8414
795.000000 0.8415 0.8410 0.8405 0.8400 0.8395
790.000000 0.8390 0.8383 0.8375 0.8368 0.8360
785.000000 0.8352 0.8336 0.8321 0.8307 0.8288
780.000000 0.8262 0.8234 0.8207 0.8171 0.8133
775.000000 0.8092 0.8053 0.8012 0.7968 0.7912
770.000000 0.7824 0.7681 0.7471 0.7234 0.6990
765.000000 0.6744 0.6498 0.6251 0.6004 0.5655
760.000000 0.5676 0.5722 0.5906 0.6128 0.6328
755.000000 0.6492 0.6658 0.6826 0.6993 0.7138
750.000000 0.7278 0.7381 0.7478 0.7551 0.7622
745.000000 0.7669 0.7699 0.7735 0.7731 0.7730
740.000000 0.7715 0.7680 0.7643 0.7586 0.7524
735.000000 0.7457 0.7390 0.7341 0.7292 0.7261
730.000000 0.7243 0.7271 0.7230 0.7245 0.7268
725.000000 0.7296 0.7318 0.7339 0.7424 0.7353
720.000000 0.7315 0.7269 0.7214 0.7126 0.7024
715.000000 0.6914 0.6836 0.6768 0.6700 0.6611
710.000000 0.6489 0.6352 0.6207 0.6127 0.6053
705.000000 0.5901 0.5943 0.5939 0.5971 0.6015
700.000000 0.6074 0.6157 0.6240 0.6339 0.6455
695.000000 0.6561 0.6635 0.6708 0.6781 0.6854
690.000000 0.6922 0.6965 0.7008 0.7051 0.7088
685.000000 0.7121 0.7150 0.7176 0.7203 0.7222
680.000000 0.7242 0.7248 0.7251 0.7253 0.7254
675.000000 0.7253 0.7249 0.7246 0.7243 0.7250
670.000000 0.7238 0.7222 0.7178 0.7149 0.7139
665.000000 0.7140 0.7174 0.7211 0.7246 0.7265
660.000000 0.7278 0.7291 0.7303 0.7300 0.7294
655.000000 0.7287 0.7278 0.7265 0.7251 0.7236
650.000000 0.7234 0.7233 0.7233 0.7232 0.7228
645.000000 0.7222 0.7219 0.7221 0.7221 0.7238
640.000000 0.7255 0.7265 0.7278 0.7290 0.7301
635.000000 0.7312 0.7307 0.7297 0.7282 0.7265
630.000000 0.7244 0.7237 0.7240 0.7239 0.7228
##END=
