##TITLE=CIS-3-CHLOROCROTONIC ACID
##JCAMP-DX=4.24
##DATA TYPE=INFRARED SPECTRUM
##CLASS=COBLENTZ
##ORIGIN=DOW CHEMICAL COMPANY
##OWNER=COBLENTZ SOCIETY
Collection (C) 2018 copyright by the U.S. Secretary of Commerce
on behalf of the United States of America. All rights reserved.
##DATE=Not specified, most likely prior to 1970
##NAMES=3-chloro-3-butenoic acid
##MOLFORM=C4 H5 Cl O2
##SOURCE REFERENCE=COBLENTZ NO. 274
##$NIST ID=B6000274
##$NIST SOURCE=COBLENTZ
##$NIST IMAGE=cob274
##SPECTROMETER/DATA SYSTEM=Not specified, most likely a prism, grating, or hybrid spectrometer.
##STATE=SOLUTION (10% CCl4 FOR 2.5-7.5, 10% CS2 FOR 7.5-15 MICRON)
##PATH LENGTH=0.01 CM, 0.01 CM
##SAMPLING PROCEDURE=TRANSMISSION
##RESOLUTION=4
##DATA PROCESSING=DIGITIZED BY NIST FROM HARD COPY
##XUNITS=MICROMETERS
##YUNITS=TRANSMITTANCE
##XFACTOR=1.000000
##YFACTOR=1
##DELTAX=000.006701
##FIRSTX=2.042
##LASTX=15.9207
##FIRSTY=0.9
##MAXX=15.9207
##MINX=2.042
##MAXY=0.9
##MINY=0.001
##NPOINTS=2072
##XYDATA=(X++(Y..Y))
2.042000 0.9000 0.9000 0.9000 0.9000 0.9000
2.075523 0.9000 0.8980 0.9000 0.8980 0.8980
2.109000 0.8980 0.8970 0.8950 0.8920 0.8900
2.142523 0.8880 0.8880 0.8870 0.8850 0.8850
2.176000 0.8830 0.8830 0.8830 0.8820 0.8780
2.209523 0.8770 0.8770 0.8770 0.8770 0.8770
2.243000 0.8770 0.8770 0.8770 0.8770 0.8770
2.276523 0.8780 0.8800 0.8820 0.8820 0.8800
2.310000 0.8800 0.8800 0.8800 0.8800 0.8800
2.343523 0.8800 0.8800 0.8800 0.8800 0.8800
2.377000 0.8800 0.8800 0.8800 0.8800 0.8800
2.410523 0.8800 0.8800 0.8800 0.8820 0.8800
2.444000 0.8800 0.8800 0.8800 0.8800 0.8800
2.477523 0.8800 0.8800 0.8800 0.8800 0.8800
2.511000 0.8820 0.8820 0.8820 0.8820 0.8820
2.544523 0.8820 0.8820 0.8820 0.8800 0.8800
2.578000 0.8800 0.8800 0.8820 0.8830 0.8830
2.611523 0.8830 0.8830 0.8830 0.8820 0.8820
2.645000 0.8800 0.8800 0.8800 0.8800 0.8800
2.678523 0.8780 0.8780 0.8780 0.8780 0.8780
2.712000 0.8780 0.8770 0.8770 0.8770 0.8730
2.745523 0.8720 0.8650 0.8620 0.8550 0.8490
2.779000 0.8400 0.8320 0.8250 0.8170 0.8100
2.812523 0.8050 0.8000 0.8000 0.8000 0.7990
2.846000 0.7990 0.7940 0.7910 0.7840 0.7790
2.879523 0.7720 0.7640 0.7570 0.7470 0.7290
2.913000 0.7180 0.7080 0.6980 0.6860 0.6690
2.946523 0.6450 0.6280 0.6110 0.6030 0.5930
2.980000 0.5770 0.5600 0.5420 0.5250 0.5070
3.013523 0.4890 0.4690 0.4510 0.4320 0.4120
3.047000 0.4020 0.3930 0.3740 0.3540 0.3330
3.080523 0.3130 0.2910 0.2710 0.2480 0.2330
3.114000 0.2220 0.2120 0.2030 0.2000 0.1970
3.147523 0.1890 0.1770 0.1650 0.1490 0.1440
3.181000 0.1270 0.1210 0.1170 0.1090 0.0990
3.214523 0.0910 0.0860 0.0840 0.0840 0.0820
3.248000 0.0810 0.0810 0.0790 0.0760 0.0740
3.281523 0.0720 0.0720 0.0710 0.0710 0.0710
3.315000 0.0710 0.0710 0.0710 0.0720 0.0740
3.348523 0.0760 0.0760 0.0790 0.0810 0.0810
3.382000 0.0790 0.0790 0.0790 0.0790 0.0810
3.415523 0.0840 0.0860 0.0870 0.0910 0.0940
3.449000 0.0960 0.0990 0.1020 0.1040 0.1060
3.482523 0.1070 0.1110 0.1160 0.1190 0.1240
3.516000 0.1310 0.1370 0.1470 0.1570 0.1690
3.549523 0.1790 0.1900 0.2130 0.2230 0.2280
3.583000 0.2370 0.2470 0.2480 0.2450 0.2450
3.616523 0.2420 0.2370 0.2350 0.2300 0.2180
3.650000 0.2150 0.2150 0.2170 0.2200 0.2250
3.683523 0.2330 0.2450 0.2580 0.2700 0.2710
3.717000 0.2710 0.2710 0.2710 0.2630 0.2530
3.750523 0.2450 0.2330 0.2220 0.2130 0.2100
3.784000 0.2080 0.2070 0.2070 0.2120 0.2250
3.817523 0.2420 0.2580 0.2710 0.2930 0.3060
3.851000 0.3130 0.3160 0.3180 0.3160 0.3080
3.884523 0.3000 0.2860 0.2630 0.2520 0.2450
3.918000 0.2430 0.2470 0.2650 0.2810 0.3030
3.951523 0.3210 0.3610 0.3880 0.4270 0.4440
3.985000 0.4590 0.4740 0.4840 0.4950 0.5040
4.018523 0.5070 0.5090 0.5100 0.5100 0.5140
4.052000 0.5190 0.5270 0.5380 0.5500 0.5630
4.085523 0.5770 0.5850 0.5870 0.5920 0.5970
4.119000 0.6110 0.6200 0.6260 0.6310 0.6350
4.152523 0.6360 0.6380 0.6400 0.6400 0.6400
4.186000 0.6410 0.6410 0.6410 0.6410 0.6410
4.219523 0.6410 0.6410 0.6430 0.6430 0.6450
4.253000 0.6460 0.6500 0.6550 0.6610 0.6680
4.286523 0.6740 0.6810 0.6880 0.6930 0.6980
4.320000 0.7030 0.7040 0.7060 0.7090 0.7160
4.353523 0.7210 0.7230 0.7240 0.7260 0.7260
4.387000 0.7280 0.7290 0.7290 0.7290 0.7290
4.420523 0.7290 0.7290 0.7310 0.7360 0.7390
4.454000 0.7410 0.7440 0.7470 0.7510 0.7540
4.487523 0.7570 0.7620 0.7670 0.7710 0.7720
4.521000 0.7740 0.7760 0.7760 0.7760 0.7760
4.554523 0.7760 0.7760 0.7760 0.7760 0.7720
4.588000 0.7720 0.7710 0.7690 0.7670 0.7660
4.621523 0.7640 0.7640 0.7590 0.7540 0.7520
4.655000 0.7510 0.7490 0.7470 0.7440 0.7440
4.688523 0.7440 0.7440 0.7440 0.7420 0.7420
4.722000 0.7420 0.7420 0.7420 0.7420 0.7460
4.755523 0.7460 0.7470 0.7470 0.7490 0.7590
4.789000 0.7670 0.7740 0.7760 0.7820 0.7890
4.822523 0.7890 0.7890 0.7890 0.7890 0.7890
4.856000 0.7890 0.7890 0.7890 0.7890 0.7890
4.889523 0.7890 0.7840 0.7820 0.7810 0.7810
4.923000 0.7790 0.7790 0.7770 0.7740 0.7710
4.956523 0.7710 0.7710 0.7710 0.7710 0.7710
4.990000 0.7710 0.7710 0.7710 0.7710 0.7710
5.023523 0.7710 0.7710 0.7740 0.7740 0.7740
5.057000 0.7740 0.7740 0.7740 0.7740 0.7720
5.090523 0.7720 0.7690 0.7660 0.7620 0.7610
5.124000 0.7590 0.7560 0.7520 0.7490 0.7490
5.157523 0.7470 0.7460 0.7420 0.7390 0.7340
5.191000 0.7290 0.7210 0.7190 0.7160 0.7160
5.224523 0.7130 0.7110 0.7040 0.7010 0.6990
5.258000 0.6980 0.6960 0.6960 0.6980 0.6980
5.291523 0.7010 0.7030 0.7060 0.7090 0.7110
5.325000 0.7130 0.7130 0.7140 0.7160 0.7180
5.358523 0.7190 0.7210 0.7210 0.7210 0.7210
5.392000 0.7210 0.7190 0.7180 0.7160 0.7130
5.425523 0.7110 0.7090 0.7060 0.7030 0.7010
5.459000 0.6980 0.6980 0.6940 0.6930 0.6910
5.492523 0.6890 0.6880 0.6810 0.6790 0.6790
5.526000 0.6780 0.6780 0.6760 0.6760 0.6740
5.559523 0.6740 0.6730 0.6730 0.6710 0.6690
5.593000 0.6660 0.6610 0.6530 0.6480 0.6450
5.626523 0.6400 0.6360 0.6310 0.6260 0.6210
5.660000 0.6150 0.6080 0.6030 0.5980 0.5880
5.693523 0.5730 0.5580 0.5400 0.5190 0.4940
5.727000 0.4660 0.4320 0.4120 0.4040 0.3960
5.760523 0.3830 0.3680 0.3510 0.3300 0.3050
5.794000 0.2730 0.2300 0.2130 0.1970 0.1820
5.827523 0.1270 0.0910 0.0540 0.0410 0.0290
5.862000 0.0210 0.0140 0.0130 0.0130 0.0140
5.895523 0.0140 0.0140 0.0180 0.0210 0.0240
5.929000 0.0330 0.0410 0.0530 0.0670 0.0860
5.962523 0.1070 0.1370 0.1570 0.1900 0.2420
5.996000 0.2730 0.2760 0.2780 0.2810 0.2830
6.029523 0.2810 0.2630 0.2350 0.2170 0.1990
6.063000 0.1620 0.1270 0.0890 0.0540 0.0360
6.096523 0.0240 0.0090 0.0080 0.0060 0.0080
6.130000 0.0110 0.0160 0.0280 0.0430 0.0580
6.163523 0.0820 0.0970 0.1090 0.1400 0.1820
6.197000 0.2430 0.2650 0.2850 0.3000 0.3130
6.230523 0.3230 0.3340 0.3440 0.3560 0.3690
6.264000 0.3780 0.3830 0.3860 0.3910 0.3940
6.297523 0.3980 0.3990 0.4060 0.4110 0.4110
6.331000 0.4120 0.4120 0.4120 0.4120 0.4110
6.364523 0.4110 0.4060 0.4010 0.3990 0.3980
6.398000 0.3880 0.3780 0.3690 0.3630 0.3610
6.431523 0.3610 0.3610 0.3610 0.3630 0.3740
6.465000 0.3780 0.3860 0.4120 0.4240 0.4360
6.498523 0.4470 0.4610 0.4770 0.4840 0.4900
6.532000 0.4970 0.5040 0.5100 0.5170 0.5240
6.565523 0.5320 0.5380 0.5470 0.5530 0.5620
6.599000 0.5700 0.5750 0.5800 0.5870 0.5920
6.632523 0.5980 0.6110 0.6160 0.6180 0.6180
6.666000 0.6200 0.6200 0.6200 0.6200 0.6200
6.699523 0.6180 0.6160 0.6150 0.6100 0.6060
6.733000 0.6000 0.5970 0.5930 0.5870 0.5770
6.766523 0.5670 0.5550 0.5500 0.5430 0.5350
6.800000 0.5270 0.5150 0.5050 0.4920 0.4770
6.833523 0.4610 0.4420 0.4210 0.4090 0.3960
6.867000 0.3710 0.3410 0.3080 0.2700 0.2370
6.900523 0.2100 0.1970 0.1840 0.1600 0.1370
6.934000 0.1040 0.0760 0.0590 0.0430 0.0310
6.967523 0.0240 0.0230 0.0230 0.0240 0.0260
7.001000 0.0280 0.0330 0.0360 0.0380 0.0410
7.034523 0.0460 0.0510 0.0590 0.0690 0.0790
7.068000 0.0960 0.1110 0.1290 0.1470 0.1690
7.101523 0.1940 0.2570 0.2960 0.3160 0.3430
7.135000 0.3640 0.3860 0.4260 0.4440 0.4540
7.168523 0.4560 0.4310 0.4040 0.3930 0.3790
7.202000 0.3490 0.3210 0.2910 0.2470 0.2130
7.235523 0.2130 0.2130 0.2200 0.2430 0.2710
7.269000 0.3060 0.3440 0.3860 0.4720 0.4950
7.302523 0.5100 0.5250 0.5270 0.5370 0.5430
7.336000 0.5480 0.5480 0.5450 0.5420 0.5400
7.369523 0.5350 0.5300 0.5240 0.5140 0.5020
7.403000 0.4870 0.4720 0.4540 0.4340 0.4110
7.436523 0.3990 0.3880 0.3630 0.3340 0.3050
7.470000 0.2730 0.2400 0.2030 0.1970 0.1900
7.503523 0.1600 0.1400 0.1170 0.0970 0.0770
7.537000 0.0710 0.0640 0.0630 0.0630 0.0640
7.570523 0.0740 0.0790 0.0910 0.1010 0.1210
7.604000 0.1440 0.1600 0.1750 0.2420 0.2650
7.637523 0.2880 0.3010 0.3080 0.3100 0.3080
7.671000 0.2910 0.2680 0.2370 0.2070 0.1940
7.704523 0.1790 0.1450 0.1290 0.1160 0.0990
7.738000 0.0920 0.0910 0.0920 0.1010 0.1070
7.771523 0.1260 0.1390 0.1640 0.1920 0.2500
7.805000 0.2830 0.3060 0.3180 0.3390 0.3630
7.838523 0.3810 0.3990 0.4240 0.4370 0.4460
7.872000 0.4510 0.4520 0.4540 0.4520 0.4470
7.905523 0.4410 0.4260 0.4040 0.3930 0.3810
7.939000 0.3580 0.3340 0.3100 0.2810 0.2530
7.972523 0.2220 0.2030 0.1850 0.1490 0.1320
8.006000 0.0810 0.0510 0.0310 0.0190 0.0030
8.039523 0.0010 0.0010 0.0010 0.0010 0.0030
8.073000 0.0030 0.0040 0.0080 0.0130 0.0140
8.106523 0.0210 0.0260 0.0330 0.0360 0.0530
8.140000 0.0690 0.0860 0.1060 0.1240 0.1450
8.173523 0.1650 0.1890 0.2330 0.2530 0.2960
8.207000 0.3200 0.3340 0.3440 0.3610 0.3860
8.240523 0.3990 0.4290 0.4440 0.4590 0.4740
8.274000 0.4890 0.5020 0.5170 0.5290 0.5400
8.307523 0.5500 0.5580 0.5680 0.5750 0.5820
8.341000 0.5870 0.5980 0.6110 0.6180 0.6250
8.374523 0.6350 0.6460 0.6550 0.6610 0.6660
8.408000 0.6710 0.6760 0.6780 0.6810 0.6830
8.441523 0.6830 0.6840 0.6840 0.6860 0.6880
8.475000 0.6890 0.6910 0.6930 0.6960 0.6960
8.508523 0.6980 0.6980 0.6980 0.6980 0.6980
8.542000 0.6980 0.6990 0.7010 0.7030 0.7030
8.575523 0.7040 0.7080 0.7110 0.7110 0.7110
8.609000 0.7110 0.7110 0.7110 0.7110 0.7110
8.642523 0.7090 0.7080 0.7040 0.6990 0.6940
8.676000 0.6880 0.6790 0.6680 0.6650 0.6550
8.709523 0.6530 0.6480 0.6410 0.6410 0.6410
8.743000 0.6410 0.6410 0.6410 0.6410 0.6460
8.776523 0.6460 0.6530 0.6600 0.6610 0.6630
8.810000 0.6610 0.6630 0.6650 0.6660 0.6660
8.843523 0.6660 0.6660 0.6650 0.6630 0.6610
8.877000 0.6600 0.6580 0.6500 0.6460 0.6400
8.910523 0.6350 0.6280 0.6250 0.6160 0.6060
8.944000 0.6010 0.5970 0.5870 0.5780 0.5700
8.977523 0.5580 0.5450 0.5290 0.5120 0.4940
9.011000 0.4740 0.4510 0.4270 0.4020 0.3890
9.044523 0.3740 0.3440 0.3050 0.2630 0.2230
9.078000 0.2050 0.1850 0.1490 0.1190 0.0920
9.111523 0.0710 0.0560 0.0460 0.0360 0.0290
9.145000 0.0230 0.0230 0.0240 0.0240 0.0340
9.178523 0.0430 0.0640 0.0890 0.0990 0.1090
9.212000 0.1140 0.1800 0.1920 0.2350 0.2580
9.245523 0.2780 0.3000 0.3200 0.3360 0.3560
9.279000 0.3780 0.4270 0.4520 0.4770 0.4990
9.312523 0.5200 0.5370 0.5480 0.5550 0.5680
9.346000 0.5800 0.5900 0.6100 0.6200 0.6280
9.379523 0.6360 0.6430 0.6500 0.6530 0.6610
9.413000 0.6680 0.6710 0.6740 0.6780 0.6810
9.446523 0.6840 0.6880 0.6880 0.6890 0.6910
9.480000 0.6930 0.6940 0.6940 0.6960 0.6980
9.513523 0.6980 0.6980 0.6980 0.6980 0.6980
9.547000 0.6980 0.6980 0.6980 0.6980 0.6980
9.580523 0.6980 0.6980 0.6960 0.6980 0.6980
9.614000 0.6980 0.6980 0.6980 0.6980 0.6980
9.647523 0.6990 0.6980 0.6990 0.7010 0.7010
9.681000 0.7010 0.7030 0.7030 0.7030 0.7040
9.714523 0.7040 0.7040 0.7040 0.7030 0.7030
9.748000 0.7040 0.7030 0.7040 0.7040 0.7030
9.781523 0.7010 0.7010 0.6990 0.6960 0.6940
9.815000 0.6940 0.6890 0.6860 0.6810 0.6760
9.848523 0.6710 0.6660 0.6630 0.6580 0.6550
9.882000 0.6500 0.6480 0.6460 0.6460 0.6480
9.915523 0.6500 0.6510 0.6600 0.6630 0.6680
9.949000 0.6690 0.6730 0.6780 0.6780 0.6790
9.982523 0.6790 0.6810 0.6810 0.6830 0.6830
10.016000 0.6830 0.6830 0.6860 0.6860 0.6890
10.049523 0.6930 0.6960 0.6980 0.6980 0.6980
10.083000 0.6980 0.6990 0.6990 0.6990 0.6990
10.116523 0.6980 0.6980 0.6960 0.6960 0.6960
10.150000 0.6960 0.6930 0.6910 0.6910 0.6910
10.183523 0.6890 0.6880 0.6860 0.6810 0.6780
10.217000 0.6780 0.6740 0.6710 0.6680 0.6660
10.250523 0.6610 0.6600 0.6560 0.6510 0.6480
10.284000 0.6450 0.6430 0.6400 0.6360 0.6310
10.317523 0.6280 0.6230 0.6180 0.6100 0.6030
10.351000 0.6000 0.6000 0.5980 0.5920 0.5880
10.384523 0.5780 0.5750 0.5680 0.5630 0.5570
10.418000 0.5500 0.5430 0.5370 0.5300 0.5240
10.451523 0.5170 0.5100 0.5040 0.4990 0.4890
10.485000 0.4800 0.4690 0.4610 0.4520 0.4470
10.518523 0.4410 0.4320 0.4240 0.4160 0.4070
10.552000 0.4020 0.3980 0.3880 0.3780 0.3680
10.585523 0.3580 0.3480 0.3360 0.3260 0.3160
10.620000 0.3060 0.2960 0.2860 0.2760 0.2650
10.653523 0.2570 0.2500 0.2420 0.2370 0.2280
10.687000 0.2220 0.2150 0.2070 0.2020 0.2000
10.720523 0.1990 0.1970 0.1890 0.1840 0.1800
10.754000 0.1750 0.1720 0.1690 0.1640 0.1600
10.787523 0.1590 0.1550 0.1520 0.1470 0.1440
10.821000 0.1400 0.1390 0.1340 0.1320 0.1310
10.854523 0.1290 0.1270 0.1260 0.1240 0.1220
10.888000 0.1210 0.1190 0.1170 0.1160 0.1160
10.921523 0.1140 0.1120 0.1120 0.1140 0.1140
10.955000 0.1140 0.1160 0.1190 0.1240 0.1270
10.988523 0.1320 0.1370 0.1440 0.1490 0.1550
11.022000 0.1620 0.1670 0.1720 0.1770 0.1820
11.055523 0.1850 0.1900 0.1950 0.1990 0.2030
11.089000 0.2100 0.2120 0.2170 0.2200 0.2230
11.122523 0.2270 0.2320 0.2370 0.2430 0.2500
11.156000 0.2570 0.2620 0.2680 0.2710 0.2750
11.189523 0.2760 0.2800 0.2830 0.2860 0.2900
11.223000 0.2910 0.2960 0.2980 0.2980 0.3000
11.256523 0.3010 0.3030 0.3030 0.3050 0.3050
11.290000 0.3050 0.3060 0.3060 0.3050 0.3010
11.323523 0.3010 0.3000 0.2980 0.2950 0.2860
11.357000 0.2810 0.2710 0.2650 0.2620 0.2580
11.390523 0.2520 0.2400 0.2200 0.2130 0.2030
11.424000 0.1990 0.1940 0.1820 0.1700 0.1570
11.457523 0.1490 0.1350 0.1210 0.1060 0.0920
11.491000 0.0760 0.0660 0.0560 0.0480 0.0390
11.524523 0.0330 0.0280 0.0240 0.0230 0.0260
11.558000 0.0280 0.0330 0.0430 0.0510 0.0660
11.591523 0.0820 0.1010 0.1170 0.1370 0.1550
11.625000 0.1750 0.1970 0.2400 0.2530 0.2660
11.658523 0.2800 0.2950 0.3110 0.3260 0.3410
11.692000 0.3540 0.3680 0.3790 0.3890 0.3960
11.725523 0.4160 0.4260 0.4370 0.4470 0.4560
11.759000 0.4660 0.4720 0.4770 0.4790 0.4800
11.792523 0.4840 0.4900 0.4990 0.5120 0.5250
11.826000 0.5320 0.5400 0.5470 0.5500 0.5570
11.859523 0.5620 0.5650 0.5670 0.5700 0.5750
11.893000 0.5820 0.5870 0.5920 0.5970 0.6010
11.926523 0.6080 0.6110 0.6150 0.6160 0.6200
11.960000 0.6210 0.6230 0.6260 0.6280 0.6300
11.993523 0.6310 0.6330 0.6350 0.6380 0.6380
12.027000 0.6400 0.6400 0.6410 0.6430 0.6450
12.060523 0.6480 0.6500 0.6510 0.6530 0.6550
12.094000 0.6550 0.6560 0.6560 0.6580 0.6580
12.127523 0.6600 0.6600 0.6610 0.6610 0.6630
12.161000 0.6630 0.6650 0.6660 0.6660 0.6660
12.194523 0.6680 0.6680 0.6690 0.6690 0.6690
12.228000 0.6690 0.6690 0.6690 0.6690 0.6690
12.261523 0.6710 0.6710 0.6710 0.6710 0.6710
12.295000 0.6730 0.6710 0.6740 0.6730 0.6740
12.328523 0.6740 0.6760 0.6760 0.6760 0.6760
12.362000 0.6780 0.6780 0.6780 0.6780 0.6780
12.395523 0.6780 0.6780 0.6810 0.6810 0.6810
12.429000 0.6810 0.6830 0.6840 0.6840 0.6840
12.462523 0.6860 0.6860 0.6880 0.6860 0.6890
12.496000 0.6890 0.6890 0.6890 0.6910 0.6910
12.529523 0.6910 0.6910 0.6930 0.6930 0.6930
12.563000 0.6930 0.6940 0.6940 0.6940 0.6940
12.596523 0.6940 0.6940 0.6940 0.6940 0.6940
12.630000 0.6980 0.6980 0.6980 0.6980 0.6980
12.663523 0.6980 0.6980 0.6980 0.6980 0.6980
12.697000 0.6980 0.6980 0.6980 0.6980 0.6980
12.730523 0.6960 0.6960 0.6960 0.6940 0.6940
12.764000 0.6940 0.6940 0.6930 0.6930 0.6930
12.797523 0.6930 0.6930 0.6910 0.6890 0.6880
12.831000 0.6880 0.6860 0.6840 0.6810 0.6790
12.864523 0.6780 0.6760 0.6740 0.6740 0.6730
12.898000 0.6710 0.6690 0.6680 0.6660 0.6630
12.931523 0.6610 0.6610 0.6600 0.6580 0.6580
12.965000 0.6560 0.6550 0.6550 0.6550 0.6550
12.998523 0.6550 0.6550 0.6550 0.6550 0.6550
13.032000 0.6550 0.6550 0.6560 0.6560 0.6560
13.065523 0.6580 0.6580 0.6580 0.6600 0.6610
13.099000 0.6610 0.6630 0.6650 0.6680 0.6690
13.132523 0.6710 0.6730 0.6780 0.6780 0.6830
13.166000 0.6840 0.6840 0.6860 0.6860 0.6880
13.199523 0.6880 0.6890 0.6890 0.6930 0.6940
13.233000 0.6960 0.6980 0.6990 0.6990 0.7010
13.266523 0.7030 0.7040 0.7060 0.7080 0.7080
13.300000 0.7090 0.7090 0.7110 0.7130 0.7140
13.333523 0.7140 0.7160 0.7160 0.7160 0.7180
13.367000 0.7180 0.7180 0.7180 0.7190 0.7190
13.400523 0.7190 0.7190 0.7190 0.7210 0.7180
13.434000 0.7180 0.7190 0.7190 0.7190 0.7180
13.467523 0.7180 0.7180 0.7190 0.7190 0.7190
13.501000 0.7190 0.7190 0.7190 0.7180 0.7160
13.534523 0.7180 0.7180 0.7160 0.7140 0.7140
13.568000 0.7130 0.7110 0.7110 0.7090 0.7090
13.601523 0.7080 0.7040 0.7040 0.7030 0.7030
13.635000 0.7030 0.7010 0.7010 0.6990 0.7010
13.668523 0.6990 0.6990 0.6980 0.6960 0.6940
13.702000 0.6940 0.6910 0.6910 0.6890 0.6890
13.735523 0.6860 0.6880 0.6840 0.6830 0.6830
13.769000 0.6790 0.6780 0.6740 0.6730 0.6730
13.802523 0.6730 0.6730 0.6710 0.6710 0.6710
13.836000 0.6690 0.6690 0.6690 0.6690 0.6690
13.869523 0.6680 0.6680 0.6660 0.6650 0.6630
13.903000 0.6630 0.6630 0.6630 0.6630 0.6630
13.936523 0.6630 0.6630 0.6630 0.6630 0.6610
13.970000 0.6610 0.6600 0.6600 0.6560 0.6560
14.003523 0.6550 0.6550 0.6530 0.6530 0.6550
14.037000 0.6550 0.6550 0.6550 0.6550 0.6550
14.070523 0.6550 0.6530 0.6510 0.6500 0.6480
14.104000 0.6480 0.6460 0.6460 0.6460 0.6450
14.137523 0.6450 0.6430 0.6410 0.6410 0.6410
14.171000 0.6400 0.6380 0.6360 0.6350 0.6350
14.204523 0.6350 0.6330 0.6310 0.6310 0.6300
14.238000 0.6300 0.6300 0.6280 0.6280 0.6260
14.271523 0.6260 0.6260 0.6230 0.6230 0.6230
14.305000 0.6210 0.6200 0.6180 0.6160 0.6130
14.338523 0.6130 0.6110 0.6100 0.6100 0.6100
14.372000 0.6080 0.6060 0.6030 0.6000 0.6000
14.405523 0.5980 0.5950 0.5950 0.5930 0.5900
14.439000 0.5880 0.5830 0.5800 0.5780 0.5770
14.472523 0.5750 0.5720 0.5680 0.5650 0.5620
14.506000 0.5580 0.5550 0.5520 0.5480 0.5450
14.539523 0.5420 0.5380 0.5350 0.5300 0.5250
14.573000 0.5150 0.5100 0.5040 0.4990 0.4920
14.606523 0.4850 0.4800 0.4740 0.4660 0.4590
14.640000 0.4510 0.4420 0.4340 0.4240 0.4140
14.673523 0.4020 0.3960 0.3890 0.3780 0.3630
14.707000 0.3480 0.3310 0.3130 0.2950 0.2750
14.740523 0.2520 0.2380 0.2230 0.2070 0.2000
14.774000 0.1920 0.1770 0.1600 0.1450 0.1310
14.807523 0.1160 0.1020 0.0910 0.0810 0.0710
14.841000 0.0630 0.0560 0.0510 0.0440 0.0380
14.874523 0.0310 0.0260 0.0230 0.0190 0.0130
14.908000 0.0130 0.0130 0.0130 0.0130 0.0140
14.941523 0.0160 0.0180 0.0210 0.0240 0.0280
14.975000 0.0330 0.0390 0.0440 0.0510 0.0580
15.008523 0.0630 0.0670 0.0720 0.0760 0.0790
15.042000 0.0820 0.0860 0.0910 0.0940 0.1010
15.075523 0.1060 0.1140 0.1220 0.1310 0.1350
15.109000 0.1400 0.1470 0.1540 0.1600 0.1670
15.142523 0.1750 0.1840 0.1900 0.1990 0.2130
15.176000 0.2200 0.2280 0.2330 0.2400 0.2450
15.209523 0.2520 0.2570 0.2630 0.2680 0.2750
15.243000 0.2810 0.2880 0.2930 0.2960 0.3000
15.276523 0.3030 0.3060 0.3100 0.3150 0.3180
15.310000 0.3230 0.3260 0.3300 0.3330 0.3360
15.343523 0.3360 0.3390 0.3410 0.3440 0.3460
15.378000 0.3480 0.3510 0.3530 0.3540 0.3580
15.411523 0.3610 0.3630 0.3640 0.3660 0.3660
15.445000 0.3690 0.3710 0.3730 0.3740 0.3760
15.478523 0.3780 0.3790 0.3810 0.3810 0.3810
15.512000 0.3830 0.3840 0.3840 0.3840 0.3840
15.545523 0.3840 0.3840 0.3840 0.3840 0.3860
15.579000 0.3880 0.3910 0.3910 0.3930 0.3930
15.612523 0.3940 0.3960 0.3980 0.3980 0.3980
15.646000 0.3990 0.3990 0.4010 0.4020 0.4020
15.679523 0.4040 0.4040 0.4060 0.4060 0.4060
15.713000 0.4070 0.4070 0.4090 0.4070 0.4090
15.746523 0.4090 0.4090 0.4090 0.4110 0.4110
15.780000 0.4110 0.4110 0.4110 0.4110 0.4110
15.813523 0.4110 0.4110 0.4110 0.4110 0.4110
15.847000 0.4110 0.4120 0.4120 0.4120 0.4120
15.880523 0.4120 0.4120 0.4120 0.4120 0.4120
15.914000 0.4120 0.4120
##END=
