##TITLE=3-Chloroisatoic anhydride
##JCAMP-DX=4.24
$$ By DXEDIT 1.05 (RS McDonald)
##DATA TYPE=INFRARED SPECTRUM
##CLASS=COBLENTZ III
##ORIGIN=DOW CHEMICAL COMPANY
##OWNER=COPYRIGHT (C) 1988 by COBLENTZ SOCIETY INC.
Collection (C) 2018 copyright by the U.S. Secretary of Commerce
on behalf of the United States of America. All rights reserved.
##DATE=1965/12/30
##MOLFORM=C8 H4 C I N O3
##SOURCE REFERENCE=COBLENTZ NO. 08888
##$NIST ID=B6008888
##$NIST SOURCE=COBLENTZ
##$NIST IMAGE=cob8888
##SPECTROMETER/DATA SYSTEM=DOW KBr FOREPRISM-GRATING
##INSTRUMENT PARAMETERS=BLAZED AT 3.5, 12.0, 20.0 MICRON AND CHANGED AT 5.0, 7.5, 14.9 MICRON
##STATE=SOLID (SPLIT MULL), FLUOROLUBE FOR 3800-1330 CM^-^1, NUJOL FOR 1330-450 CM^-^1
$$ STRUCTURE NOT VERIFIED, CLASS II TECHNICAL QUALITY
##SAMPLING PROCEDURE=TRANSMISSION
##RESOLUTION=2
##DATA PROCESSING=DIGITIZED BY COBLENTZ SOCIETY (BATCH I) FROM HARD COPY
##XUNITS=1/CM
##YUNITS=TRANSMITTANCE
##XFACTOR=1
##YFACTOR=1
##DELTAX=1
##FIRSTX=3808
##LASTX=455
##FIRSTY=0.6009
##MAXX=3808
##MINX=455
##MAXY=0.8841
##MINY=0.0293
##NPOINTS=3354
##XYDATA=(X++(Y..Y))
3808.000000 0.6009 0.6010 0.6010 0.6012 0.6015
3803.000000 0.6017 0.6019 0.6021 0.6023 0.6025
3798.000000 0.6027 0.6029 0.6031 0.6033 0.6035
3793.000000 0.6037 0.6039 0.6042 0.6045 0.6048
3788.000000 0.6051 0.6054 0.6057 0.6060 0.6062
3783.000000 0.6065 0.6068 0.6071 0.6074 0.6077
3778.000000 0.6080 0.6083 0.6086 0.6088 0.6091
3773.000000 0.6093 0.6095 0.6097 0.6100 0.6102
3768.000000 0.6104 0.6106 0.6108 0.6110 0.6112
3763.000000 0.6115 0.6117 0.6119 0.6121 0.6123
3758.000000 0.6126 0.6128 0.6130 0.6132 0.6134
3753.000000 0.6136 0.6138 0.6139 0.6140 0.6141
3748.000000 0.6142 0.6143 0.6144 0.6144 0.6145
3743.000000 0.6146 0.6147 0.6148 0.6149 0.6150
3738.000000 0.6151 0.6152 0.6153 0.6154 0.6155
3733.000000 0.6156 0.6157 0.6157 0.6158 0.6159
3728.000000 0.6160 0.6160 0.6162 0.6162 0.6164
3723.000000 0.6165 0.6166 0.6166 0.6167 0.6168
3718.000000 0.6169 0.6169 0.6170 0.6171 0.6172
3713.000000 0.6173 0.6174 0.6174 0.6175 0.6176
3708.000000 0.6177 0.6178 0.6179 0.6179 0.6180
3703.000000 0.6181 0.6182 0.6183 0.6184 0.6186
3698.000000 0.6188 0.6190 0.6192 0.6194 0.6196
3693.000000 0.6198 0.6191 0.6202 0.6204 0.6206
3688.000000 0.6208 0.6210 0.6212 0.6214 0.6216
3683.000000 0.6218 0.6220 0.6222 0.6224 0.6226
3678.000000 0.6228 0.6230 0.6233 0.6235 0.6237
3673.000000 0.6238 0.6240 0.6241 0.6242 0.6243
3668.000000 0.6245 0.6246 0.6248 0.6249 0.6250
3663.000000 0.6251 0.6253 0.6254 0.6256 0.6257
3658.000000 0.6258 0.6259 0.6260 0.6262 0.6262
3653.000000 0.6264 0.6266 0.6267 0.6269 0.6270
3648.000000 0.6271 0.6272 0.6274 0.6275 0.6276
3643.000000 0.6277 0.6279 0.6280 0.6282 0.6283
3638.000000 0.6284 0.6285 0.6286 0.6287 0.6288
3633.000000 0.6289 0.6290 0.6291 0.6292 0.6293
3628.000000 0.6294 0.6294 0.6295 0.6296 0.6297
3623.000000 0.6298 0.6299 0.6300 0.6301 0.6301
3618.000000 0.6302 0.6303 0.6304 0.6305 0.6306
3613.000000 0.6307 0.6308 0.6309 0.6310 0.6310
3608.000000 0.6312 0.6312 0.6314 0.6315 0.6316
3603.000000 0.6317 0.6318 0.6319 0.6320 0.6321
3598.000000 0.6323 0.6324 0.6325 0.6326 0.6327
3593.000000 0.6327 0.6327 0.6325 0.6323 0.6321
3588.000000 0.6319 0.6317 0.6315 0.6312 0.6309
3583.000000 0.6304 0.6300 0.6296 0.6292 0.6287
3578.000000 0.6283 0.6279 0.6275 0.6272 0.6272
3573.000000 0.6272 0.6276 0.6279 0.6282 0.6285
3568.000000 0.6289 0.6292 0.6295 0.6298 0.6301
3563.000000 0.6302 0.6304 0.6305 0.6306 0.6307
3558.000000 0.6308 0.6309 0.6310 0.6312 0.6312
3553.000000 0.6314 0.6316 0.6317 0.6318 0.6319
3548.000000 0.6321 0.6322 0.6323 0.6324 0.6325
3543.000000 0.6326 0.6327 0.6327 0.6328 0.6328
3538.000000 0.6329 0.6329 0.6330 0.6330 0.6331
3533.000000 0.6331 0.6332 0.6332 0.6332 0.6332
3528.000000 0.6331 0.6329 0.6327 0.6324 0.6322
3523.000000 0.6320 0.6318 0.6315 0.6312 0.6310
3518.000000 0.6309 0.6304 0.6299 0.6291 0.6284
3513.000000 0.6276 0.6269 0.6260 0.6254 0.6247
3508.000000 0.6240 0.6233 0.6227 0.6220 0.6214
3503.000000 0.6207 0.6200 0.6193 0.6187 0.6181
3498.000000 0.6175 0.6169 0.6164 0.6158 0.6153
3493.000000 0.6147 0.6142 0.6136 0.6131 0.6125
3488.000000 0.6120 0.6114 0.6109 0.6104 0.6100
3483.000000 0.6095 0.6091 0.6086 0.6082 0.6084
3478.000000 0.6037 0.6095 0.6104 0.6112 0.6121
3473.000000 0.6128 0.6135 0.6142 0.6150 0.6157
3468.000000 0.6165 0.6172 0.6180 0.6187 0.6195
3463.000000 0.6202 0.6209 0.6212 0.6217 0.6221
3458.000000 0.6225 0.6229 0.6233 0.6237 0.6241
3453.000000 0.6245 0.6249 0.6253 0.6257 0.6260
3448.000000 0.6265 0.6269 0.6274 0.6278 0.6282
3443.000000 0.6286 0.6290 0.6293 0.6296 0.6299
3438.000000 0.6302 0.6304 0.6307 0.6310 0.6312
3433.000000 0.6316 0.6319 0.6321 0.6324 0.6327
3428.000000 0.6330 0.6332 0.6335 0.6338 0.6341
3423.000000 0.6342 0.6343 0.6343 0.6343 0.6342
3418.000000 0.6342 0.6342 0.6342 0.6341 0.6341
3413.000000 0.6341 0.6341 0.6340 0.6340 0.6340
3408.000000 0.6340 0.6339 0.6339 0.6337 0.6335
3403.000000 0.6333 0.6331 0.6328 0.6326 0.6324
3398.000000 0.6322 0.6320 0.6318 0.6315 0.6312
3393.000000 0.6305 0.6297 0.6288 0.6279 0.6269
3388.000000 0.6260 0.6250 0.6241 0.6232 0.6224
3383.000000 0.6216 0.6208 0.6199 0.6191 0.6183
3378.000000 0.6175 0.6167 0.6159 0.6153 0.6147
3373.000000 0.6140 0.6134 0.6128 0.6122 0.6116
3368.000000 0.6110 0.6105 0.6104 0.6103 0.6106
3363.000000 0.6118 0.6131 0.6143 0.6156 0.6164
3358.000000 0.6173 0.6177 0.6181 0.6185 0.6189
3353.000000 0.6193 0.6198 0.6202 0.6206 0.6210
3348.000000 0.6214 0.6216 0.6219 0.6221 0.6223
3343.000000 0.6224 0.6226 0.6228 0.6230 0.6231
3338.000000 0.6251 0.6234 0.6234 0.6233 0.6232
3333.000000 0.6230 0.6229 0.6227 0.6225 0.6223
3328.000000 0.6222 0.6220 0.6219 0.6217 0.6216
3323.000000 0.6214 0.6212 0.6210 0.6209 0.6207
3318.000000 0.6206 0.6202 0.6198 0.6193 0.6188
3313.000000 0.6183 0.6179 0.6174 0.6169 0.6162
3308.000000 0.6157 0.6150 0.6143 0.6136 0.6130
3303.000000 0.6123 0.6116 0.6109 0.6103 0.6096
3298.000000 0.6089 0.6082 0.6076 0.6065 0.6054
3293.000000 0.6043 0.6032 0.6020 0.6009 0.5994
3288.000000 0.5980 0.5960 0.5943 0.5925 0.5907
3283.000000 0.5888 0.5870 0.5850 0.5831 0.5810
3278.000000 0.5790 0.5769 0.5749 0.5728 0.5708
3273.000000 0.5687 0.5667 0.5646 0.5625 0.5605
3268.000000 0.5586 0.5566 0.5547 0.5527 0.5508
3263.000000 0.5486 0.5464 0.5440 0.5416 0.5391
3258.000000 0.5367 0.5343 0.5319 0.5295 0.5272
3253.000000 0.5248 0.5225 0.5202 0.5179 0.5159
3248.000000 0.5140 0.5123 0.5106 0.5097 0.5069
3243.000000 0.5083 0.5077 0.5072 0.5072 0.5071
3238.000000 0.5076 0.5080 0.5085 0.5095 0.5106
3233.000000 0.5118 0.5130 0.5142 0.5155 0.5162
3228.000000 0.5188 0.5175 0.5182 0.5185 0.5188
3223.000000 0.5188 0.5188 0.5176 0.5165 0.5153
3218.000000 0.5142 0.5130 0.5118 0.5097 0.5076
3213.000000 0.5054 0.5033 0.5017 0.5001 0.4985
3208.000000 0.4970 0.4956 0.4943 0.4930 0.4918
3203.000000 0.4912 0.4906 0.4902 0.4866 0.4895
3198.000000 0.4892 0.4888 0.4889 0.4890 0.4896
3193.000000 0.4910 0.4926 0.4947 0.4969 0.4995
3188.000000 0.5022 0.5050 0.5078 0.5106 0.5134
3183.000000 0.5158 0.5183 0.5203 0.5223 0.5242
3178.000000 0.5262 0.5281 0.5301 0.5320 0.5340
3173.000000 0.5359 0.5379 0.5399 0.5420 0.5441
3168.000000 0.5462 0.5485 0.5507 0.5520 0.5533
3163.000000 0.5542 0.5552 0.5560 0.5571 0.5580
3158.000000 0.5589 0.5596 0.5603 0.5609 0.5615
3153.000000 0.5621 0.5628 0.5630 0.5632 0.5632
3148.000000 0.5636 0.5629 0.5626 0.5612 0.5601
3143.000000 0.5588 0.5575 0.5560 0.5545 0.5529
3138.000000 0.5514 0.5499 0.5485 0.5473 0.5460
3133.000000 0.5450 0.5440 0.5433 0.5427 0.5421
3128.000000 0.5404 0.5403 0.5403 0.5401 0.5400
3123.000000 0.5456 0.5512 0.5532 0.5552 0.5562
3118.000000 0.5573 0.5583 0.5594 0.5601 0.5609
3113.000000 0.5615 0.5621 0.5627 0.5634 0.5640
3108.000000 0.5646 0.5651 0.5657 0.5662 0.5667
3103.000000 0.5671 0.5676 0.5680 0.5685 0.5689
3098.000000 0.5693 0.5695 0.5712 0.5699 0.5701
3093.000000 0.5703 0.5703 0.5703 0.5701 0.5691
3088.000000 0.5681 0.5667 0.5653 0.5639 0.5625
3083.000000 0.5612 0.5569 0.5587 0.5575 0.5575
3078.000000 0.5576 0.5589 0.5603 0.5616 0.5629
3073.000000 0.5641 0.5654 0.5667 0.5680 0.5692
3068.000000 0.5705 0.5718 0.5731 0.5743 0.5756
3063.000000 0.5769 0.5782 0.5795 0.5808 0.5821
3058.000000 0.5834 0.5847 0.5860 0.5873 0.5886
3053.000000 0.5899 0.5912 0.5924 0.5937 0.5948
3048.000000 0.5960 0.5970 0.5981 0.5991 0.6001
3043.000000 0.6010 0.6022 0.6032 0.6043 0.6051
3038.000000 0.6059 0.6066 0.6074 0.6081 0.6089
3033.000000 0.6093 0.6097 0.6097 0.6097 0.6097
3028.000000 0.6097 0.6097 0.6098 0.6098 0.6098
3023.000000 0.6098 0.6098 0.6098 0.6099 0.6099
3018.000000 0.6099 0.6099 0.6099 0.6100 0.6102
3013.000000 0.6105 0.6109 0.6112 0.6116 0.6119
3008.000000 0.6122 0.6125 0.6129 0.6132 0.6136
3003.000000 0.6139 0.6143 0.6146 0.6150 0.6153
2998.000000 0.6157 0.6160 0.6164 0.6167 0.6170
2993.000000 0.6172 0.6175 0.6178 0.6181 0.6184
2988.000000 0.6187 0.6189 0.6192 0.6195 0.6198
2983.000000 0.6201 0.6204 0.6206 0.6209 0.6212
2978.000000 0.6215 0.6218 0.6221 0.6223 0.6226
2973.000000 0.6228 0.6231 0.6234 0.6237 0.6239
2968.000000 0.6242 0.6244 0.6247 0.6249 0.6252
2963.000000 0.6254 0.6257 0.6258 0.6259 0.6260
2958.000000 0.6260 0.6260 0.6262 0.6262 0.6264
2953.000000 0.6264 0.6264 0.6262 0.6262 0.6260
2948.000000 0.6260 0.6259 0.6258 0.6256 0.6255
2943.000000 0.6254 0.6253 0.6251 0.6250 0.6248
2938.000000 0.6247 0.6245 0.6244 0.6242 0.6241
2933.000000 0.6239 0.6238 0.6236 0.6235 0.6235
2928.000000 0.6235 0.6237 0.6239 0.6241 0.6243
2923.000000 0.6245 0.6247 0.6248 0.6250 0.6252
2918.000000 0.6254 0.6256 0.6262 0.6262 0.6268
2913.000000 0.6274 0.6281 0.6287 0.6293 0.6300
2908.000000 0.6308 0.6318 0.6329 0.6339 0.6350
2903.000000 0.6360 0.6370 0.6380 0.6391 0.6401
2898.000000 0.6411 0.6422 0.6434 0.6444 0.6455
2893.000000 0.6465 0.6475 0.6481 0.6488 0.6494
2888.000000 0.6500 0.6506 0.6511 0.6518 0.6524
2883.000000 0.6528 0.6535 0.6537 0.6540 0.6543
2878.000000 0.6546 0.6548 0.6551 0.6553 0.6554
2873.000000 0.6555 0.6555 0.6555 0.6555 0.6555
2868.000000 0.6555 0.6555 0.6555 0.6555 0.6556
2863.000000 0.6556 0.6557 0.6557 0.6557 0.6557
2858.000000 0.6558 0.6558 0.6558 0.6561 0.6562
2853.000000 0.6565 0.6567 0.6571 0.6575 0.6584
2848.000000 0.6593 0.6601 0.6610 0.6618 0.6626
2843.000000 0.6641 0.6655 0.6668 0.6684 0.6695
2838.000000 0.6707 0.6715 0.6725 0.6728 0.6734
2833.000000 0.6738 0.6743 0.6747 0.6751 0.6754
2828.000000 0.6756 0.6758 0.6760 0.6761 0.6764
2823.000000 0.6765 0.6768 0.6769 0.6771 0.6774
2818.000000 0.6776 0.6780 0.6783 0.6786 0.6789
2813.000000 0.6792 0.6795 0.6798 0.6801 0.6805
2808.000000 0.6808 0.6811 0.6814 0.6817 0.6821
2803.000000 0.6824 0.6828 0.6831 0.6835 0.6838
2798.000000 0.6841 0.6844 0.6848 0.6851 0.6855
2793.000000 0.6858 0.6861 0.6865 0.6868 0.6871
2788.000000 0.6875 0.6878 0.6883 0.6886 0.6890
2783.000000 0.6893 0.6897 0.6900 0.6904 0.6907
2778.000000 0.6911 0.6914 0.6918 0.6921 0.6925
2773.000000 0.6928 0.6932 0.6935 0.6939 0.6942
2768.000000 0.6945 0.6948 0.6951 0.6955 0.6958
2763.000000 0.6961 0.6965 0.6968 0.6972 0.6975
2758.000000 0.6978 0.6982 0.6986 0.6989 0.6992
2753.000000 0.6995 0.6999 0.7001 0.7006 0.7008
2748.000000 0.7011 0.7015 0.7018 0.7021 0.7025
2743.000000 0.7028 0.7032 0.7035 0.7038 0.7041
2738.000000 0.7045 0.7048 0.7051 0.7055 0.7058
2733.000000 0.7061 0.7065 0.7068 0.7071 0.7074
2728.000000 0.7078 0.7081 0.7084 0.7087 0.7091
2723.000000 0.7094 0.7098 0.7101 0.7104 0.7107
2718.000000 0.7111 0.7114 0.7118 0.7121 0.7125
2713.000000 0.7128 0.7132 0.7135 0.7138 0.7141
2708.000000 0.7144 0.7147 0.7151 0.7154 0.7157
2703.000000 0.7160 0.7162 0.7165 0.7169 0.7172
2698.000000 0.7175 0.7178 0.7183 0.7186 0.7189
2693.000000 0.7192 0.7195 0.7198 0.7201 0.7204
2688.000000 0.7207 0.7208 0.7211 0.7214 0.7217
2683.000000 0.7218 0.7221 0.7224 0.7225 0.7228
2678.000000 0.7231 0.7233 0.7236 0.7238 0.7241
2673.000000 0.7243 0.7246 0.7248 0.7251 0.7253
2668.000000 0.7256 0.7258 0.7261 0.7262 0.7265
2663.000000 0.7268 0.7269 0.7271 0.7275 0.7276
2658.000000 0.7280 0.7282 0.7285 0.7287 0.7290
2653.000000 0.7292 0.7295 0.7297 0.7300 0.7301
2648.000000 0.7305 0.7307 0.7308 0.7311 0.7315
2643.000000 0.7318 0.7321 0.7324 0.7326 0.7330
2638.000000 0.7333 0.7336 0.7339 0.7341 0.7344
2633.000000 0.7347 0.7350 0.7353 0.7356 0.7358
2628.000000 0.7361 0.7365 0.7368 0.7371 0.7374
2623.000000 0.7375 0.7378 0.7382 0.7385 0.7388
2618.000000 0.7391 0.7394 0.7397 0.7400 0.7403
2613.000000 0.7405 0.7408 0.7411 0.7414 0.7417
2608.000000 0.7419 0.7422 0.7426 0.7430 0.7433
2603.000000 0.7436 0.7439 0.7442 0.7445 0.7448
2598.000000 0.7451 0.7454 0.7457 0.7460 0.7462
2593.000000 0.7465 0.7468 0.7471 0.7474 0.7475
2588.000000 0.7478 0.7481 0.7484 0.7487 0.7488
2583.000000 0.7489 0.7489 0.7488 0.7488 0.7488
2578.000000 0.7488 0.7487 0.7487 0.7486 0.7486
2573.000000 0.7485 0.7484 0.7483 0.7482 0.7480
2568.000000 0.7478 0.7476 0.7475 0.7475 0.7474
2563.000000 0.7471 0.7471 0.7471 0.7474 0.7475
2558.000000 0.7478 0.7481 0.7483 0.7485 0.7488
2553.000000 0.7490 0.7493 0.7495 0.7497 0.7499
2548.000000 0.7501 0.7504 0.7507 0.7508 0.7511
2543.000000 0.7512 0.7515 0.7517 0.7518 0.7521
2538.000000 0.7522 0.7525 0.7526 0.7528 0.7531
2533.000000 0.7532 0.7534 0.7536 0.7538 0.7540
2528.000000 0.7542 0.7544 0.7546 0.7547 0.7549
2523.000000 0.7551 0.7553 0.7555 0.7557 0.7558
2518.000000 0.7561 0.7561 0.7564 0.7565 0.7568
2513.000000 0.7569 0.7571 0.7574 0.7575 0.7576
2508.000000 0.7578 0.7581 0.7583 0.7585 0.7587
2503.000000 0.7589 0.7591 0.7592 0.7594 0.7596
2498.000000 0.7598 0.7600 0.7601 0.7603 0.7605
2493.000000 0.7607 0.7608 0.7611 0.7612 0.7615
2488.000000 0.7617 0.7618 0.7619 0.7621 0.7624
2483.000000 0.7625 0.7628 0.7628 0.7631 0.7633
2478.000000 0.7635 0.7637 0.7639 0.7640 0.7642
2473.000000 0.7644 0.7646 0.7648 0.7650 0.7651
2468.000000 0.7654 0.7655 0.7657 0.7658 0.7661
2463.000000 0.7662 0.7665 0.7665 0.7668 0.7669
2458.000000 0.7671 0.7674 0.7675 0.7678 0.7680
2453.000000 0.7681 0.7683 0.7685 0.7687 0.7689
2448.000000 0.7691 0.7692 0.7694 0.7696 0.7698
2443.000000 0.7700 0.7701 0.7704 0.7706 0.7708
2438.000000 0.7710 0.7711 0.7714 0.7715 0.7718
2433.000000 0.7719 0.7721 0.7724 0.7725 0.7728
2428.000000 0.7730 0.7732 0.7734 0.7736 0.7738
2423.000000 0.7740 0.7742 0.7744 0.7747 0.7749
2418.000000 0.7751 0.7753 0.7755 0.7757 0.7758
2413.000000 0.7761 0.7762 0.7765 0.7767 0.7768
2408.000000 0.7771 0.7772 0.7775 0.7776 0.7780
2403.000000 0.7782 0.7784 0.7786 0.7788 0.7790
2398.000000 0.7792 0.7793 0.7795 0.7797 0.7799
2393.000000 0.7800 0.7801 0.7803 0.7805 0.7807
2388.000000 0.7808 0.7810 0.7811 0.7812 0.7815
2383.000000 0.7817 0.7818 0.7819 0.7821 0.7822
2378.000000 0.7824 0.7824 0.7824 0.7824 0.7824
2373.000000 0.7824 0.7824 0.7824 0.7824 0.7824
2368.000000 0.7824 0.7822 0.7822 0.7822 0.7824
2363.000000 0.7824 0.7825 0.7825 0.7826 0.7826
2358.000000 0.7828 0.7828 0.7830 0.7830 0.7831
2353.000000 0.7832 0.7833 0.7833 0.7834 0.7835
2348.000000 0.7836 0.7837 0.7838 0.7838 0.7839
2343.000000 0.7840 0.7841 0.7841 0.7842 0.7843
2338.000000 0.7844 0.7845 0.7846 0.7846 0.7847
2333.000000 0.7848 0.7850 0.7851 0.7855 0.7857
2328.000000 0.7858 0.7861 0.7864 0.7865 0.7868
2323.000000 0.7871 0.7872 0.7875 0.7878 0.7880
2318.000000 0.7882 0.7884 0.7887 0.7889 0.7892
2313.000000 0.7894 0.7896 0.7898 0.7901 0.7903
2308.000000 0.7906 0.7908 0.7910 0.7911 0.7915
2303.000000 0.7918 0.7921 0.7925 0.7928 0.7931
2298.000000 0.7935 0.7938 0.7941 0.7944 0.7948
2293.000000 0.7951 0.7954 0.7957 0.7961 0.7964
2288.000000 0.7967 0.7969 0.7974 0.7976 0.7981
2283.000000 0.7984 0.7987 0.7990 0.7994 0.7997
2278.000000 0.8000 0.8003 0.8007 0.8010 0.8012
2273.000000 0.8015 0.8019 0.8022 0.8025 0.8028
2268.000000 0.8033 0.8036 0.8040 0.8043 0.8046
2263.000000 0.8049 0.8053 0.8056 0.8060 0.8062
2258.000000 0.8067 0.8069 0.8074 0.8076 0.8081
2253.000000 0.8084 0.8088 0.8091 0.8094 0.8097
2248.000000 0.8101 0.8104 0.8108 0.8111 0.8115
2243.000000 0.8118 0.8121 0.8125 0.8128 0.8132
2238.000000 0.8136 0.8139 0.8143 0.8147 0.8151
2233.000000 0.8154 0.8158 0.8161 0.8165 0.8168
2228.000000 0.8172 0.8175 0.8180 0.8184 0.8188
2223.000000 0.8191 0.8195 0.8199 0.8203 0.8206
2218.000000 0.8210 0.8214 0.8218 0.8221 0.8225
2213.000000 0.8228 0.8233 0.8236 0.8240 0.8243
2208.000000 0.8247 0.8251 0.8255 0.8259 0.8263
2203.000000 0.8267 0.8271 0.8275 0.8278 0.8283
2198.000000 0.8287 0.8290 0.8294 0.8298 0.8302
2193.000000 0.8306 0.8310 0.8314 0.8318 0.8321
2188.000000 0.8325 0.8330 0.8334 0.8338 0.8342
2183.000000 0.8345 0.8349 0.8352 0.8356 0.8359
2178.000000 0.8363 0.8366 0.8368 0.8371 0.8375
2173.000000 0.8378 0.8382 0.8385 0.8389 0.8392
2168.000000 0.8396 0.8399 0.8402 0.8405 0.8409
2163.000000 0.8412 0.8415 0.8418 0.8421 0.8425
2158.000000 0.8428 0.8432 0.8435 0.8438 0.8442
2153.000000 0.8445 0.8448 0.8451 0.8454 0.8456
2148.000000 0.8459 0.8461 0.8464 0.8466 0.8468
2143.000000 0.8470 0.8473 0.8475 0.8478 0.8480
2138.000000 0.8483 0.8485 0.8487 0.8489 0.8492
2133.000000 0.8494 0.8497 0.8499 0.8502 0.8504
2128.000000 0.8506 0.8508 0.8511 0.8513 0.8516
2123.000000 0.8518 0.8521 0.8523 0.8525 0.8528
2118.000000 0.8531 0.8533 0.8536 0.8539 0.8542
2113.000000 0.8544 0.8547 0.8549 0.8552 0.8554
2108.000000 0.8557 0.8559 0.8562 0.8564 0.8567
2103.000000 0.8568 0.8571 0.8574 0.8575 0.8578
2098.000000 0.8581 0.8583 0.8585 0.8587 0.8590
2093.000000 0.8592 0.8594 0.8596 0.8599 0.8601
2088.000000 0.8603 0.8605 0.8608 0.8610 0.8612
2083.000000 0.8614 0.8616 0.8618 0.8620 0.8621
2078.000000 0.8623 0.8625 0.8627 0.8628 0.8631
2073.000000 0.8632 0.8634 0.8636 0.8638 0.8639
2068.000000 0.8641 0.8642 0.8644 0.8645 0.8646
2063.000000 0.8647 0.8648 0.8649 0.8650 0.8651
2058.000000 0.8652 0.8653 0.8654 0.8655 0.8656
2053.000000 0.8657 0.8659 0.8660 0.8661 0.8662
2048.000000 0.8663 0.8664 0.8665 0.8666 0.8667
2043.000000 0.8668 0.8668 0.8670 0.8671 0.8671
2038.000000 0.8673 0.8673 0.8674 0.8675 0.8675
2033.000000 0.8677 0.8678 0.8678 0.8678 0.8680
2028.000000 0.8681 0.8682 0.8684 0.8685 0.8687
2023.000000 0.8689 0.8691 0.8691 0.8692 0.8692
2018.000000 0.8692 0.8691 0.8691 0.8689 0.8688
2013.000000 0.8686 0.8685 0.8682 0.8721 0.8675
2008.000000 0.8671 0.8670 0.8668 0.8665 0.8663
2003.000000 0.8659 0.8655 0.8604 0.8553 0.8500
1998.000000 0.8447 0.8394 0.8340 0.8312 0.8332
1993.000000 0.8349 0.8357 0.8365 0.8365 0.8366
1988.000000 0.8366 0.8366 0.8363 0.8359 0.8355
1983.000000 0.8349 0.8343 0.8336 0.8331 0.8330
1978.000000 0.8328 0.8327 0.8325 0.8324 0.8327
1973.000000 0.8328 0.8332 0.8335 0.8342 0.8350
1968.000000 0.8356 0.8363 0.8368 0.8375 0.8382
1963.000000 0.8389 0.8397 0.8485 0.8594 0.8671
1958.000000 0.8658 0.8506 0.8447 0.8446 0.8445
1953.000000 0.8448 0.8451 0.8454 0.8457 0.8459
1948.000000 0.8459 0.8459 0.8458 0.8458 0.8457
1943.000000 0.8457 0.8456 0.8456 0.8455 0.8455
1938.000000 0.8455 0.8455 0.8455 0.8455 0.8455
1933.000000 0.8452 0.8447 0.8442 0.8434 0.8421
1928.000000 0.8408 0.8408 0.8408 0.8411 0.8415
1923.000000 0.8418 0.8423 0.8427 0.8431 0.8434
1918.000000 0.8438 0.8443 0.8447 0.8451 0.8455
1913.000000 0.8459 0.8463 0.8468 0.8471 0.8475
1908.000000 0.8480 0.8484 0.8489 0.8493 0.8496
1903.000000 0.8500 0.8504 0.8508 0.8512 0.8516
1898.000000 0.8520 0.8524 0.8528 0.8531 0.8533
1893.000000 0.8536 0.8538 0.8540 0.8543 0.8545
1888.000000 0.8548 0.8550 0.8552 0.8554 0.8557
1883.000000 0.8559 0.8561 0.8563 0.8563 0.8563
1878.000000 0.8561 0.8558 0.8556 0.8552 0.8545
1873.000000 0.8539 0.8542 0.8545 0.8548 0.8552
1868.000000 0.8560 0.8568 0.8575 0.8580 0.8584
1863.000000 0.8584 0.8577 0.8567 0.8553 0.8535
1858.000000 0.8516 0.8502 0.8490 0.8477 0.8463
1853.000000 0.8454 0.8445 0.8433 0.8421 0.8408
1848.000000 0.8394 0.8381 0.8368 0.8354 0.8337
1843.000000 0.8313 0.8289 0.8233 0.8167 0.8101
1838.000000 0.8034 0.7968 0.7901 0.7824 0.7745
1833.000000 0.7667 0.7593 0.7519 0.7446 0.7372
1828.000000 0.7315 0.7257 0.7199 0.7141 0.7092
1823.000000 0.7042 0.6992 0.6942 0.6889 0.6835
1818.000000 0.6782 0.6721 0.6653 0.6555 0.6414
1813.000000 0.6297 0.6119 0.5879 0.5677 0.5223
1808.000000 0.4871 0.4519 0.4167 0.3814 0.3462
1803.000000 0.3111 0.2760 0.2408 0.2056 0.1704
1798.000000 0.1542 0.1544 0.1540 0.1679 0.1913
1793.000000 0.2146 0.2380 0.2613 0.2846 0.3079
1788.000000 0.3312 0.3546 0.3779 0.4012 0.4245
1783.000000 0.4479 0.4712 0.4945 0.5178 0.5410
1778.000000 0.5645 0.5790 0.5812 0.5833 0.5852
1773.000000 0.5869 0.5886 0.5903 0.5916 0.5928
1768.000000 0.5941 0.5957 0.5974 0.5992 0.6002
1763.000000 0.6010 0.6014 0.6018 0.6022 0.6010
1758.000000 0.6007 0.5916 0.5751 0.5549 0.5347
1753.000000 0.5145 0.4942 0.4740 0.4538 0.4351
1748.000000 0.4330 0.4323 0.4316 0.4310 0.4299
1743.000000 0.4269 0.4143 0.3847 0.3558 0.3268
1738.000000 0.2978 0.2689 0.2399 0.2110 0.1820
1733.000000 0.1531 0.1241 0.0952 0.0662 0.0479
1728.000000 0.0409 0.0361 0.0328 0.0312 0.0297
1723.000000 0.0296 0.0293 0.0371 0.0471 0.0573
1718.000000 0.0702 0.0871 0.1032 0.1083 0.1103
1713.000000 0.1113 0.1122 0.1239 0.1549 0.1859
1708.000000 0.2169 0.2480 0.2790 0.3100 0.3380
1703.000000 0.3526 0.3630 0.3704 0.3784 0.3964
1698.000000 0.3897 0.3908 0.3903 0.3844 0.3712
1693.000000 0.3612 0.3529 0.3397 0.3439 0.3438
1688.000000 0.3506 0.3780 0.3975 0.4103 0.4241
1683.000000 0.4387 0.4522 0.4622 0.4724 0.4828
1678.000000 0.4933 0.5051 0.5168 0.5286 0.5360
1673.000000 0.5434 0.5502 0.5548 0.5594 0.5641
1668.000000 0.5687 0.5733 0.5786 0.5840 0.5895
1663.000000 0.5950 0.6005 0.6058 0.6109 0.6160
1658.000000 0.6212 0.6264 0.6316 0.6368 0.6421
1653.000000 0.6472 0.6521 0.6562 0.6606 0.6648
1648.000000 0.6687 0.6718 0.6748 0.6776 0.6805
1643.000000 0.6833 0.6861 0.6888 0.6915 0.6937
1638.000000 0.6950 0.6962 0.6975 0.6980 0.6983
1633.000000 0.6987 0.6990 0.6999 0.6997 0.6997
1628.000000 0.6991 0.6986 0.6981 0.6968 0.6951
1623.000000 0.6934 0.6915 0.6897 0.6878 0.6834
1618.000000 0.6786 0.6634 0.6462 0.6270 0.6106
1613.000000 0.5800 0.4435 0.3096 0.2199 0.2191
1608.000000 0.2201 0.2625 0.3268 0.3912 0.4556
1603.000000 0.5200 0.5442 0.5592 0.5742 0.5892
1598.000000 0.6043 0.6193 0.6343 0.6471 0.6512
1593.000000 0.6530 0.6521 0.6537 0.6531 0.6507
1588.000000 0.6458 0.6377 0.6325 0.6324 0.6323
1583.000000 0.6323 0.6351 0.6384 0.6417 0.6458
1578.000000 0.6499 0.6540 0.6581 0.6621 0.6669
1573.000000 0.6724 0.6776 0.6833 0.6894 0.6956
1568.000000 0.7045 0.7134 0.7208 0.7271 0.7322
1563.000000 0.7375 0.7419 0.7465 0.7492 0.7503
1558.000000 0.7511 0.7551 0.7524 0.7528 0.7503
1553.000000 0.7471 0.7440 0.7404 0.7364 0.7325
1548.000000 0.7286 0.7238 0.7158 0.7193 0.7193
1543.000000 0.7253 0.7294 0.7337 0.7385 0.7417
1538.000000 0.7445 0.7457 0.7457 0.7457 0.7472
1533.000000 0.7464 0.7436 0.7408 0.7390 0.7369
1528.000000 0.7361 0.7351 0.7336 0.7315 0.7296
1523.000000 0.7271 0.7239 0.7207 0.7175 0.7141
1518.000000 0.7093 0.7045 0.6994 0.6934 0.6872
1513.000000 0.6733 0.6601 0.6486 0.6331 0.6152
1508.000000 0.6020 0.5897 0.5805 0.5712 0.5630
1503.000000 0.5536 0.5384 0.5027 0.4618 0.4210
1498.000000 0.3802 0.3393 0.3191 0.3305 0.3530
1493.000000 0.3755 0.3980 0.4205 0.4430 0.4655
1488.000000 0.4880 0.5105 0.5297 0.5374 0.5449
1483.000000 0.5520 0.5603 0.5699 0.5795 0.5891
1478.000000 0.5987 0.6084 0.6180 0.6276 0.6304
1473.000000 0.6314 0.6341 0.6325 0.6319 0.6028
1468.000000 0.5722 0.5446 0.5447 0.5448 0.5473
1463.000000 0.5580 0.5690 0.5800 0.5909 0.6019
1458.000000 0.6129 0.6228 0.6246 0.6258 0.6268
1453.000000 0.6277 0.6286 0.6295 0.6312 0.6340
1448.000000 0.6383 0.6431 0.6476 0.6535 0.6598
1443.000000 0.6661 0.6725 0.6788 0.6851 0.6915
1438.000000 0.6978 0.7041 0.7101 0.7131 0.7161
1433.000000 0.7190 0.7211 0.7232 0.7253 0.7269
1428.000000 0.7286 0.7298 0.7307 0.7317 0.7325
1423.000000 0.7325 0.7326 0.7319 0.7305 0.7289
1418.000000 0.7271 0.7250 0.7228 0.7211 0.7201
1413.000000 0.7190 0.7182 0.7185 0.7187 0.7191
1408.000000 0.7201 0.7210 0.7218 0.7228 0.7237
1403.000000 0.7244 0.7251 0.7260 0.7265 0.7268
1398.000000 0.7271 0.7274 0.7278 0.7287 0.7295
1393.000000 0.7304 0.7311 0.7321 0.7330 0.7339
1388.000000 0.7349 0.7358 0.7403 0.7381 0.7393
1383.000000 0.7403 0.7410 0.7418 0.7415 0.7412
1378.000000 0.7410 0.7407 0.7404 0.7401 0.7398
1373.000000 0.7396 0.7393 0.7388 0.7382 0.7351
1368.000000 0.7319 0.7249 0.7151 0.7008 0.6828
1363.000000 0.6672 0.6510 0.5890 0.5270 0.4650
1358.000000 0.4029 0.3690 0.3670 0.3673 0.3707
1353.000000 0.3844 0.3875 0.3889 0.3903 0.3928
1348.000000 0.3971 0.4028 0.4108 0.4218 0.4357
1343.000000 0.4495 0.4633 0.4771 0.4909 0.5023
1338.000000 0.5102 0.5182 0.5266 0.5397 0.5530
1333.000000 0.5723 0.5924 0.6028 0.6132 0.6236
1328.000000 0.6339 0.6443 0.6518 0.6541 0.6556
1323.000000 0.6565 0.6578 0.6572 0.6571 0.6568
1318.000000 0.6393 0.5922 0.5452 0.4982 0.4510
1313.000000 0.4041 0.3571 0.3209 0.3216 0.3497
1308.000000 0.4282 0.5068 0.5418 0.5545 0.5679
1303.000000 0.5819 0.5968 0.6117 0.6229 0.6334
1298.000000 0.6432 0.6514 0.6596 0.6658 0.6718
1293.000000 0.6776 0.6833 0.6889 0.6945 0.7018
1288.000000 0.7071 0.7117 0.7161 0.7207 0.7257
1283.000000 0.7282 0.7303 0.7311 0.7319 0.7324
1278.000000 0.7330 0.7333 0.7321 0.7306 0.7289
1273.000000 0.7258 0.7232 0.7224 0.7215 0.7206
1268.000000 0.7187 0.7168 0.7140 0.7104 0.7035
1263.000000 0.6936 0.6833 0.6730 0.6634 0.6540
1258.000000 0.6299 0.5423 0.4866 0.4550 0.4541
1253.000000 0.4560 0.4948 0.5172 0.5397 0.5621
1248.000000 0.5846 0.6010 0.6038 0.6051 0.6058
1243.000000 0.6065 0.6062 0.6059 0.6051 0.6039
1238.000000 0.6025 0.6019 0.6017 0.6029 0.6060
1233.000000 0.6127 0.6200 0.6256 0.6298 0.6337
1228.000000 0.6379 0.6422 0.6465 0.6501 0.6518
1223.000000 0.6535 0.6553 0.6558 0.6558 0.6565
1218.000000 0.6562 0.5395 0.4468 0.4472 0.4778
1213.000000 0.5024 0.5271 0.5518 0.5764 0.6010
1208.000000 0.6258 0.6465 0.6483 0.6478 0.6478
1203.000000 0.6187 0.5759 0.5331 0.4903 0.4475
1198.000000 0.4500 0.5158 0.6012 0.6408 0.6540
1193.000000 0.7008 0.7142 0.7239 0.7319 0.7361
1188.000000 0.7404 0.7435 0.7451 0.7468 0.7485
1183.000000 0.7501 0.7515 0.7528 0.7541 0.7555
1178.000000 0.7568 0.7595 0.7661 0.7710 0.7741
1173.000000 0.7771 0.7799 0.7825 0.7851 0.7869
1168.000000 0.7889 0.7908 0.7926 0.7946 0.7964
1163.000000 0.7978 0.7992 0.7995 0.7995 0.7995
1158.000000 0.7972 0.7935 0.7855 0.7781 0.7764
1153.000000 0.7746 0.7726 0.7707 0.7146 0.6281
1148.000000 0.5416 0.5271 0.5505 0.5758 0.6010
1143.000000 0.6265 0.6518 0.6771 0.7025 0.7278
1138.000000 0.7507 0.7675 0.7757 0.7838 0.7912
1133.000000 0.7949 0.7985 0.8021 0.8057 0.8093
1128.000000 0.8128 0.8157 0.8187 0.8216 0.8245
1123.000000 0.8274 0.8298 0.8314 0.8330 0.8346
1118.000000 0.8362 0.8378 0.8394 0.8408 0.8423
1113.000000 0.8437 0.8451 0.8465 0.8480 0.8491
1108.000000 0.8501 0.8511 0.8514 0.8516 0.8518
1103.000000 0.8520 0.8520 0.8520 0.8518 0.8518
1098.000000 0.8505 0.8491 0.8477 0.8465 0.8453
1093.000000 0.8442 0.8431 0.8415 0.8398 0.8380
1088.000000 0.8362 0.8344 0.8321 0.8300 0.8278
1083.000000 0.8255 0.8220 0.8186 0.8143 0.8060
1078.000000 0.7965 0.7755 0.7640 0.7622 0.7608
1073.000000 0.7639 0.7668 0.7754 0.7841 0.7904
1068.000000 0.7967 0.8018 0.8069 0.8111 0.8151
1063.000000 0.8182 0.8212 0.8227 0.8233 0.8232
1058.000000 0.8232 0.8225 0.8221 0.8205 0.8176
1053.000000 0.8148 0.8097 0.8026 0.7935 0.7765
1048.000000 0.7601 0.7437 0.7318 0.7201 0.7087
1043.000000 0.6986 0.6884 0.6783 0.6661 0.6524
1038.000000 0.6386 0.6243 0.6095 0.5947 0.5797
1033.000000 0.5645 0.5443 0.5141 0.5001 0.4860
1028.000000 0.4697 0.4248 0.3816 0.3558 0.3300
1023.000000 0.3042 0.2783 0.2525 0.2267 0.2009
1018.000000 0.1750 0.1492 0.1234 0.0976 0.0949
1013.000000 0.0949 0.0949 0.1066 0.1509 0.1951
1008.000000 0.2394 0.3069 0.3071 0.2925 0.2413
1003.000000 0.2497 0.2391 0.2573 0.2935 0.3298
998.000000 0.3660 0.3958 0.4160 0.4286 0.4412
993.000000 0.4537 0.4677 0.4817 0.4927 0.5025
988.000000 0.5162 0.5398 0.5634 0.5870 0.6106
983.000000 0.6342 0.6578 0.6875 0.7100 0.7194
978.000000 0.7256 0.7317 0.7367 0.7412 0.7458
973.000000 0.7503 0.7542 0.7580 0.7618 0.7657
968.000000 0.7696 0.7734 0.7772 0.7811 0.7849
963.000000 0.7888 0.7925 0.7962 0.7997 0.8030
958.000000 0.8062 0.8096 0.8128 0.8158 0.8187
953.000000 0.8216 0.8245 0.8271 0.8298 0.8325
948.000000 0.8348 0.8368 0.8388 0.8401 0.8413
943.000000 0.8421 0.8430 0.8438 0.8444 0.8397
938.000000 0.8223 0.8142 0.8149 0.8174 0.8232
933.000000 0.8280 0.8323 0.8357 0.8386 0.8414
928.000000 0.8438 0.8449 0.8460 0.8471 0.8480
923.000000 0.8485 0.8489 0.8494 0.8498 0.8504
918.000000 0.8510 0.8517 0.8524 0.8531 0.8538
913.000000 0.8545 0.8551 0.8557 0.8564 0.8571
908.000000 0.8571 0.8560 0.8527 0.8465 0.8184
903.000000 0.7895 0.7606 0.7317 0.7244 0.7237
898.000000 0.7486 0.7734 0.7983 0.8083 0.8138
893.000000 0.8193 0.8248 0.8291 0.8328 0.8365
888.000000 0.8400 0.8428 0.8456 0.8484 0.8513
883.000000 0.8541 0.8563 0.8583 0.8603 0.8623
878.000000 0.8643 0.8663 0.8680 0.8695 0.8711
873.000000 0.8725 0.8742 0.8757 0.8770 0.8781
868.000000 0.8792 0.8802 0.8813 0.8820 0.8825
863.000000 0.8831 0.8836 0.8841 0.8841 0.8840
858.000000 0.8838 0.8825 0.8809 0.8786 0.8757
853.000000 0.8741 0.8724 0.8708 0.8698 0.8689
848.000000 0.8680 0.8675 0.8703 0.8668 0.8668
843.000000 0.8674 0.8680 0.8693 0.8718 0.8738
838.000000 0.8752 0.8766 0.8767 0.8767 0.8767
833.000000 0.8766 0.8763 0.8759 0.8755 0.8746
828.000000 0.8736 0.8725 0.8702 0.8675 0.8621
823.000000 0.8178 0.7928 0.5464 0.5460 0.5520
818.000000 0.6018 0.6484 0.6533 0.6615 0.6921
813.000000 0.6987 0.6958 0.6668 0.6090 0.5850
808.000000 0.5839 0.6108 0.6488 0.6868 0.7248
803.000000 0.7628 0.7987 0.8221 0.8391 0.8478
798.000000 0.8536 0.8583 0.8625 0.8648 0.8671
793.000000 0.8693 0.8714 0.8731 0.8748 0.8766
788.000000 0.8781 0.8781 0.8780 0.8781 0.8773
783.000000 0.8757 0.8741 0.8725 0.8702 0.8668
778.000000 0.8637 0.8605 0.8571 0.8540 0.8509
773.000000 0.8477 0.8446 0.8415 0.8386 0.8357
768.000000 0.8328 0.8297 0.8265 0.8225 0.8169
763.000000 0.8011 0.7791 0.7586 0.7390 0.7131
758.000000 0.6575 0.6221 0.4544 0.4008 0.3472
753.000000 0.2935 0.2400 0.1864 0.1327 0.1244
748.000000 0.1281 0.1262 0.1542 0.1961 0.2379
743.000000 0.3503 0.3693 0.3808 0.3916 0.4018
738.000000 0.4120 0.4242 0.4367 0.4486 0.4595
733.000000 0.4705 0.4823 0.4946 0.5064 0.5171
728.000000 0.5278 0.5383 0.5484 0.5551 0.5601
723.000000 0.5651 0.5701 0.5762 0.5918 0.6074
718.000000 0.6230 0.6386 0.6521 0.6600 0.6694
713.000000 0.6799 0.6919 0.7032 0.7133 0.7255
708.000000 0.7375 0.7462 0.7541 0.7619 0.7687
703.000000 0.7738 0.7761 0.7749 0.7541 0.7198
698.000000 0.6854 0.6754 0.6888 0.7150 0.7411
693.000000 0.7674 0.7736 0.7794 0.7851 0.7910
688.000000 0.7965 0.8018 0.8068 0.8108 0.8148
683.000000 0.8187 0.8223 0.8254 0.8282 0.8307
678.000000 0.8328 0.8344 0.8358 0.8371 0.8386
673.000000 0.8361 0.8265 0.8169 0.8074 0.8058
668.000000 0.8124 0.8174 0.8214 0.8249 0.8278
663.000000 0.8309 0.8335 0.8359 0.8382 0.8403
658.000000 0.8421 0.8441 0.8445 0.8449 0.8451
653.000000 0.8451 0.8446 0.8436 0.6761 0.6761
648.000000 0.6780 0.7062 0.7345 0.7626 0.7908
643.000000 0.8192 0.8409 0.8446 0.8483 0.8514
638.000000 0.8528 0.8542 0.8556 0.8567 0.8574
633.000000 0.8582 0.8589 0.8597 0.8605 0.8612
628.000000 0.8620 0.8628 0.8635 0.8641 0.8647
623.000000 0.8653 0.8659 0.8665 0.8671 0.8677
618.000000 0.8681 0.8685 0.8685 0.8685 0.8674
613.000000 0.8654 0.8634 0.8610 0.8585 0.8571
608.000000 0.8568 0.8566 0.8563 0.8562 0.8562
603.000000 0.8565 0.8567 0.8570 0.8571 0.8574
598.000000 0.8577 0.8580 0.8583 0.8587 0.8590
593.000000 0.8594 0.8597 0.8601 0.8641 0.8607
588.000000 0.8610 0.8613 0.8613 0.8613 0.8612
583.000000 0.8611 0.8593 0.8566 0.8539 0.8507
578.000000 0.8470 0.8432 0.8409 0.8396 0.8383
573.000000 0.8373 0.8365 0.8363 0.8374 0.8385
568.000000 0.8396 0.8407 0.8418 0.8428 0.8440
563.000000 0.8451 0.8458 0.8464 0.8471 0.8477
558.000000 0.8483 0.8490 0.8496 0.8501 0.8502
553.000000 0.8503 0.8504 0.8496 0.8487 0.8478
548.000000 0.8468 0.8459 0.8450 0.8441 0.8435
543.000000 0.8431 0.8431 0.8436 0.8442 0.8447
538.000000 0.8457 0.8467 0.8475 0.8484 0.8486
533.000000 0.8487 0.8489 0.8490 0.8492 0.8494
528.000000 0.8495 0.8496 0.8496 0.8497 0.8498
523.000000 0.8499 0.8500 0.8501 0.8501 0.8501
518.000000 0.8501 0.8501 0.8501 0.8501 0.8495
513.000000 0.8487 0.8478 0.8467 0.8443 0.8418
508.000000 0.8393 0.8368 0.8325 0.8278 0.8232
503.000000 0.8148 0.7821 0.6392 0.5254 0.5239
498.000000 0.5529 0.6027 0.6525 0.7021 0.7519
493.000000 0.8017 0.8260 0.8357 0.8414 0.8440
488.000000 0.8440 0.8439 0.8460 0.8449 0.8431
483.000000 0.8247 0.7175 0.5896 0.5368 0.5344
478.000000 0.5583 0.5926 0.6270 0.6614 0.6932
473.000000 0.6987 0.6997 0.7001 0.6986 0.6910
468.000000 0.6840 0.6835 0.6835 0.6865 0.6908
463.000000 0.6949 0.6989 0.7030 0.7069 0.7111
458.000000 0.7151 0.7190 0.7224 0.7258
##END=
