##TITLE=Ethoduomeen T/13 hydrochloride
##JCAMP-DX=4.24
##DATA TYPE=INFRARED SPECTRUM
##CLASS=COBLENTZ III
##ORIGIN=BRITISH PETROLEUM CO. LTD., ENGLAND
##OWNER=Copyright (C) 1987 by the Coblentz Society
Collection (C) 2018 copyright by the U.S. Secretary of Commerce
on behalf of the United States of America. All rights reserved.
##DATE=1972/05/25
##MOLFORM=C23-27 H52-60 Cl2 N2 O3
##SOURCE REFERENCE=COBLENTZ NO. 9065
##$NIST ID=B6009065
##$NIST SOURCE=COBLENTZ
##$NIST IMAGE=cob9065
##SPECTROMETER/DATA SYSTEM=PERKIN-ELMER 157
##STATE=SEMI-SOLID (NEAT)
$$ R - DERIVED FROM TALLOW FATTY ACID SOURCE
$$ REF. Can. J. Spec., 18,4,101, '73 C. S. DOUSE and P. B. TOOKE
##SAMPLING PROCEDURE=TRANSMISSION
##RESOLUTION=2
##DATA PROCESSING=DIGITIZED BY COBLENTZ SOCIETY (BATCH II) FROM HARD COPY
##XUNITS=1/CM
##YUNITS=TRANSMITTANCE
##XFACTOR=1.0
##YFACTOR=1
##FIRSTX=668
##LASTX=4000
##FIRSTY=0.4656
##MAXX=4000
##MINX=668
##MAXY=0.8075
##MINY=0.0537
##NPOINTS=3333
##XYDATA=(X++(Y..Y))
668.000000 0.4656 0.4673 0.4700 0.4727 0.4752
673.000000 0.4777 0.4797 0.4809 0.4821 0.4829
678.000000 0.4836 0.4844 0.4851 0.4857 0.4864
683.000000 0.4875 0.4888 0.4897 0.4903 0.4908
688.000000 0.4916 0.4918 0.4922 0.4927 0.4931
693.000000 0.4936 0.4940 0.4940 0.4941 0.4939
698.000000 0.4938 0.4936 0.4929 0.4923 0.4916
703.000000 0.4904 0.4891 0.4874 0.4856 0.4830
708.000000 0.4800 0.4768 0.4708 0.4648 0.4574
713.000000 0.4512 0.4461 0.4403 0.4318 0.4198
718.000000 0.4096 0.4047 0.4037 0.4023 0.4106
723.000000 0.4185 0.4261 0.4339 0.4417 0.4484
728.000000 0.4533 0.4580 0.4632 0.4668 0.4693
733.000000 0.4742 0.4801 0.4813 0.4817 0.4826
738.000000 0.4836 0.4886 0.4910 0.4915 0.4919
743.000000 0.4923 0.4926 0.4928 0.4929 0.4930
748.000000 0.4934 0.4941 0.4954 0.4972 0.5003
753.000000 0.5021 0.5038 0.5046 0.5055 0.5059
758.000000 0.5075 0.5160 0.5201 0.5238 0.5274
763.000000 0.5308 0.5342 0.5375 0.5407 0.5439
768.000000 0.5473 0.5506 0.5539 0.5570 0.5598
773.000000 0.5622 0.5643 0.5662 0.5680 0.5703
778.000000 0.5729 0.5743 0.5755 0.5762 0.5770
783.000000 0.5775 0.5778 0.5780 0.5782 0.5784
788.000000 0.5787 0.5790 0.5793 0.5796 0.5799
793.000000 0.5802 0.5805 0.5808 0.5809 0.5807
798.000000 0.5805 0.5803 0.5802 0.5800 0.5798
803.000000 0.5796 0.5794 0.5792 0.5790 0.5788
808.000000 0.5787 0.5785 0.5783 0.5781 0.5779
813.000000 0.5778 0.5776 0.5774 0.5772 0.5774
818.000000 0.5776 0.5780 0.5781 0.5781 0.5782
823.000000 0.5784 0.5786 0.5789 0.5801 0.5814
828.000000 0.5837 0.5851 0.5864 0.5872 0.5879
833.000000 0.5885 0.5886 0.5887 0.5887 0.5885
838.000000 0.5884 0.5880 0.5876 0.5871 0.5864
843.000000 0.5852 0.5841 0.5829 0.5817 0.5804
848.000000 0.5791 0.5778 0.5763 0.5745 0.5726
853.000000 0.5706 0.5686 0.5665 0.5644 0.5616
858.000000 0.5580 0.5544 0.5508 0.5469 0.5398
863.000000 0.5334 0.5275 0.5217 0.5165 0.5114
868.000000 0.5063 0.5012 0.4962 0.4915 0.4861
873.000000 0.4816 0.4785 0.4746 0.4705 0.4665
878.000000 0.4608 0.4548 0.4492 0.4429 0.4368
883.000000 0.4309 0.4270 0.4238 0.4209 0.4187
888.000000 0.4174 0.4167 0.4168 0.4149 0.4195
893.000000 0.4209 0.4231 0.4282 0.4359 0.4374
898.000000 0.4380 0.4411 0.4464 0.4518 0.4535
903.000000 0.4539 0.4542 0.4542 0.4543 0.4564
908.000000 0.4545 0.4546 0.4547 0.4548 0.4548
913.000000 0.4547 0.4544 0.4538 0.4531 0.4519
918.000000 0.4482 0.4455 0.4443 0.4433 0.4426
923.000000 0.4420 0.4415 0.4409 0.4404 0.4398
928.000000 0.4394 0.4390 0.4385 0.4380 0.4375
933.000000 0.4371 0.4370 0.4368 0.4367 0.4366
938.000000 0.4365 0.4365 0.4364 0.4364 0.4364
943.000000 0.4363 0.4363 0.4360 0.4358 0.4344
948.000000 0.4322 0.4308 0.4296 0.4286 0.4276
953.000000 0.4263 0.4248 0.4235 0.4218 0.4200
958.000000 0.4182 0.4162 0.4140 0.4118 0.4096
963.000000 0.4077 0.4059 0.4042 0.4035 0.4032
968.000000 0.4036 0.4052 0.4070 0.4097 0.4125
973.000000 0.4140 0.4146 0.4145 0.4137 0.4121
978.000000 0.4105 0.4092 0.4079 0.4067 0.4057
983.000000 0.4047 0.4038 0.4032 0.4025 0.4019
988.000000 0.4009 0.3987 0.3952 0.3904 0.3845
993.000000 0.3824 0.3807 0.3799 0.3790 0.3781
998.000000 0.3775 0.3770 0.3747 0.3654 0.3610
1003.000000 0.3581 0.3556 0.3538 0.3522 0.3499
1008.000000 0.3464 0.3423 0.3383 0.3347 0.3312
1013.000000 0.3276 0.3238 0.3200 0.3162 0.3123
1018.000000 0.3079 0.3035 0.2991 0.2948 0.2903
1023.000000 0.2858 0.2813 0.2773 0.2733 0.2695
1028.000000 0.2656 0.2618 0.2581 0.2545 0.2509
1033.000000 0.2468 0.2417 0.2370 0.2339 0.2309
1038.000000 0.2282 0.2258 0.2235 0.2210 0.2184
1043.000000 0.2143 0.2097 0.2021 0.1952 0.1889
1048.000000 0.1827 0.1765 0.1703 0.1655 0.1612
1053.000000 0.1570 0.1529 0.1490 0.1450 0.1411
1058.000000 0.1377 0.1343 0.1314 0.1288 0.1279
1063.000000 0.1265 0.1208 0.1187 0.1177 0.1170
1068.000000 0.1164 0.1159 0.1155 0.1156 0.1159
1073.000000 0.1148 0.1177 0.1191 0.1218 0.1248
1078.000000 0.1285 0.1323 0.1371 0.1421 0.1471
1083.000000 0.1517 0.1563 0.1604 0.1641 0.1678
1088.000000 0.1716 0.1769 0.1830 0.1899 0.1945
1093.000000 0.1974 0.1997 0.2027 0.2053 0.2072
1098.000000 0.2077 0.2083 0.2085 0.2085 0.2084
1103.000000 0.2089 0.2079 0.2071 0.2054 0.2035
1108.000000 0.2014 0.1993 0.1970 0.1949 0.1921
1113.000000 0.1891 0.1828 0.1753 0.1710 0.1696
1118.000000 0.1685 0.1676 0.1666 0.1659 0.1652
1123.000000 0.1644 0.1639 0.1633 0.1632 0.1654
1128.000000 0.1676 0.1702 0.1724 0.1744 0.1769
1133.000000 0.1797 0.1834 0.1879 0.1929 0.1974
1138.000000 0.2023 0.2073 0.2121 0.2178 0.2246
1143.000000 0.2339 0.2488 0.2622 0.2756 0.2890
1148.000000 0.3023 0.3157 0.3263 0.3338 0.3451
1153.000000 0.3727 0.3814 0.3889 0.4001 0.4123
1158.000000 0.4195 0.4266 0.4339 0.4413 0.4483
1163.000000 0.4539 0.4595 0.4647 0.4698 0.4741
1168.000000 0.4775 0.4808 0.4833 0.4848 0.4859
1173.000000 0.4862 0.4864 0.4866 0.4867 0.4868
1178.000000 0.4882 0.4870 0.4868 0.4865 0.4864
1183.000000 0.4862 0.4858 0.4854 0.4848 0.4840
1188.000000 0.4829 0.4808 0.4781 0.4751 0.4729
1193.000000 0.4709 0.4688 0.4667 0.4639 0.4617
1198.000000 0.4597 0.4585 0.4492 0.4464 0.4448
1203.000000 0.4432 0.4414 0.4396 0.4377 0.4342
1208.000000 0.4305 0.4266 0.4227 0.4205 0.4183
1213.000000 0.4162 0.4123 0.4070 0.4031 0.4009
1218.000000 0.3987 0.3959 0.3917 0.3889 0.3862
1223.000000 0.3837 0.3829 0.3821 0.3819 0.3815
1228.000000 0.3813 0.3810 0.3807 0.3804 0.3802
1233.000000 0.3800 0.3798 0.3796 0.3794 0.3793
1238.000000 0.3791 0.3782 0.3790 0.3790 0.3789
1243.000000 0.3789 0.3788 0.3788 0.3787 0.3786
1248.000000 0.3786 0.3787 0.3788 0.3788 0.3789
1253.000000 0.3790 0.3791 0.3791 0.3792 0.3793
1258.000000 0.3793 0.3794 0.3795 0.3796 0.3797
1263.000000 0.3797 0.3796 0.3795 0.3794 0.3793
1268.000000 0.3792 0.3791 0.3790 0.3787 0.3784
1273.000000 0.3782 0.3779 0.3775 0.3766 0.3756
1278.000000 0.3746 0.3735 0.3724 0.3711 0.3694
1283.000000 0.3678 0.3668 0.3662 0.3650 0.3636
1288.000000 0.3620 0.3606 0.3591 0.3578 0.3572
1293.000000 0.3568 0.3565 0.3564 0.3562 0.3560
1298.000000 0.3558 0.3556 0.3555 0.3554 0.3553
1303.000000 0.3553 0.3552 0.3552 0.3551 0.3549
1308.000000 0.3549 0.3548 0.3547 0.3546 0.3546
1313.000000 0.3545 0.3544 0.3543 0.3542 0.3541
1318.000000 0.3540 0.3539 0.3538 0.3537 0.3536
1323.000000 0.3535 0.3534 0.3533 0.3532 0.3531
1328.000000 0.3530 0.3530 0.3528 0.3524 0.3520
1333.000000 0.3514 0.3499 0.3479 0.3450 0.3422
1338.000000 0.3394 0.3365 0.3328 0.3291 0.3256
1343.000000 0.3227 0.3196 0.3167 0.3140 0.3114
1348.000000 0.3087 0.3061 0.3034 0.3005 0.2976
1353.000000 0.2947 0.2919 0.2892 0.2864 0.2839
1358.000000 0.2818 0.2797 0.2776 0.2764 0.2753
1363.000000 0.2742 0.2737 0.2733 0.2729 0.2725
1368.000000 0.2720 0.2716 0.2708 0.2700 0.2692
1373.000000 0.2674 0.2649 0.2631 0.2631 0.2634
1378.000000 0.2646 0.2661 0.2675 0.2689 0.2700
1383.000000 0.2708 0.2713 0.2712 0.2705 0.2697
1388.000000 0.2689 0.2680 0.2671 0.2661 0.2651
1393.000000 0.2640 0.2628 0.2614 0.2601 0.2586
1398.000000 0.2571 0.2555 0.2540 0.2526 0.2515
1403.000000 0.2505 0.2495 0.2485 0.2475 0.2466
1408.000000 0.2462 0.2458 0.2456 0.2452 0.2449
1413.000000 0.2445 0.2442 0.2437 0.2423 0.2408
1418.000000 0.2393 0.2380 0.2367 0.2354 0.2341
1423.000000 0.2330 0.2319 0.2309 0.2299 0.2288
1428.000000 0.2272 0.2240 0.2212 0.2186 0.2158
1433.000000 0.2119 0.2077 0.2036 0.1985 0.1931
1438.000000 0.1877 0.1821 0.1769 0.1732 0.1695
1443.000000 0.1661 0.1636 0.1614 0.1593 0.1572
1448.000000 0.1550 0.1528 0.1504 0.1482 0.1459
1453.000000 0.1431 0.1394 0.1356 0.1321 0.1294
1458.000000 0.1289 0.1285 0.1280 0.1280 0.1281
1463.000000 0.1282 0.1298 0.1321 0.1352 0.1389
1468.000000 0.1430 0.1508 0.1606 0.1704 0.1802
1473.000000 0.1900 0.1998 0.2096 0.2193 0.2287
1478.000000 0.2354 0.2397 0.2437 0.2475 0.2729
1483.000000 0.2874 0.3019 0.3164 0.3308 0.3453
1488.000000 0.3597 0.3741 0.3885 0.4028 0.4172
1493.000000 0.4316 0.4459 0.4602 0.4745 0.4887
1498.000000 0.5029 0.5172 0.5313 0.5455 0.5597
1503.000000 0.5738 0.5880 0.6007 0.6037 0.6054
1508.000000 0.6063 0.6069 0.6076 0.6082 0.6089
1513.000000 0.6095 0.6102 0.6109 0.6116 0.6125
1518.000000 0.6151 0.6211 0.6400 0.6447 0.6457
1523.000000 0.6468 0.6474 0.6476 0.6478 0.6479
1528.000000 0.6480 0.6480 0.6482 0.6483 0.6484
1533.000000 0.6485 0.6485 0.6486 0.6487 0.6487
1538.000000 0.6488 0.6488 0.6488 0.6488 0.6487
1543.000000 0.6487 0.6487 0.6486 0.6486 0.6501
1548.000000 0.6484 0.6483 0.6481 0.6479 0.6477
1553.000000 0.6475 0.6473 0.6471 0.6469 0.6466
1558.000000 0.6461 0.6455 0.6449 0.6443 0.6438
1563.000000 0.6431 0.6425 0.6417 0.6409 0.6402
1568.000000 0.6394 0.6386 0.6377 0.6369 0.6360
1573.000000 0.6352 0.6343 0.6335 0.6325 0.6315
1578.000000 0.6305 0.6294 0.6284 0.6273 0.6263
1583.000000 0.6252 0.6236 0.6220 0.6204 0.6188
1588.000000 0.6171 0.6155 0.6137 0.6118 0.6097
1593.000000 0.6076 0.6055 0.6031 0.6007 0.5984
1598.000000 0.5960 0.5936 0.5911 0.5885 0.5859
1603.000000 0.5833 0.5807 0.5782 0.5758 0.5734
1608.000000 0.5709 0.5685 0.5661 0.5637 0.5614
1613.000000 0.5590 0.5567 0.5544 0.5521 0.5461
1618.000000 0.5392 0.5334 0.5288 0.5244 0.5199
1623.000000 0.5163 0.5130 0.5104 0.5089 0.5083
1628.000000 0.5081 0.5079 0.5076 0.5074 0.5072
1633.000000 0.5069 0.5066 0.5064 0.5061 0.5059
1638.000000 0.5056 0.5053 0.5051 0.5049 0.5035
1643.000000 0.5060 0.5090 0.5131 0.5164 0.5198
1648.000000 0.5232 0.5260 0.5280 0.5299 0.5318
1653.000000 0.5332 0.5343 0.5352 0.5361 0.5369
1658.000000 0.5378 0.5386 0.5394 0.5403 0.5412
1663.000000 0.5463 0.5523 0.5577 0.5625 0.5668
1668.000000 0.5710 0.5752 0.5785 0.5818 0.5849
1673.000000 0.5894 0.5944 0.5982 0.6008 0.6025
1678.000000 0.6033 0.6040 0.6047 0.6054 0.6058
1683.000000 0.6059 0.6060 0.6066 0.6061 0.6061
1688.000000 0.6061 0.6061 0.6059 0.6058 0.6056
1693.000000 0.6051 0.6044 0.6038 0.6031 0.6024
1698.000000 0.6003 0.5979 0.5955 0.5929 0.5904
1703.000000 0.5877 0.5846 0.5832 0.5826 0.5822
1708.000000 0.5819 0.5816 0.5812 0.5811 0.5810
1713.000000 0.5810 0.5811 0.5813 0.5809 0.5816
1718.000000 0.5818 0.5820 0.5823 0.5826 0.5829
1723.000000 0.5836 0.5850 0.5884 0.5922 0.5961
1728.000000 0.5998 0.6036 0.6074 0.6112 0.6150
1733.000000 0.6187 0.6225 0.6262 0.6300 0.6338
1738.000000 0.6375 0.6412 0.6450 0.6487 0.6525
1743.000000 0.6562 0.6599 0.6636 0.6674 0.6710
1748.000000 0.6747 0.6784 0.6816 0.6839 0.6856
1753.000000 0.6879 0.6902 0.6926 0.6951 0.6975
1758.000000 0.7000 0.7045 0.7094 0.7137 0.7170
1763.000000 0.7202 0.7235 0.7271 0.7310 0.7349
1768.000000 0.7381 0.7408 0.7434 0.7460 0.7482
1773.000000 0.7502 0.7520 0.7539 0.7554 0.7565
1778.000000 0.7574 0.7582 0.7591 0.7599 0.7607
1783.000000 0.7614 0.7619 0.7624 0.7628 0.7633
1788.000000 0.7636 0.7641 0.7645 0.7649 0.7654
1793.000000 0.7657 0.7659 0.7661 0.7665 0.7667
1798.000000 0.7669 0.7672 0.7674 0.7677 0.7679
1803.000000 0.7680 0.7681 0.7682 0.7684 0.7685
1808.000000 0.7686 0.7688 0.7688 0.7690 0.7691
1813.000000 0.7691 0.7691 0.7690 0.7690 0.7689
1818.000000 0.7689 0.7689 0.7689 0.7688 0.7688
1823.000000 0.7688 0.7690 0.7687 0.7687 0.7685
1828.000000 0.7684 0.7683 0.7683 0.7682 0.7681
1833.000000 0.7679 0.7679 0.7678 0.7677 0.7676
1838.000000 0.7675 0.7674 0.7673 0.7670 0.7668
1843.000000 0.7666 0.7665 0.7663 0.7660 0.7659
1848.000000 0.7657 0.7655 0.7653 0.7650 0.7647
1853.000000 0.7645 0.7643 0.7640 0.7637 0.7635
1858.000000 0.7633 0.7631 0.7628 0.7626 0.7623
1863.000000 0.7621 0.7618 0.7616 0.7614 0.7611
1868.000000 0.7609 0.7608 0.7606 0.7604 0.7602
1873.000000 0.7601 0.7599 0.7597 0.7595 0.7593
1878.000000 0.7592 0.7590 0.7589 0.7587 0.7585
1883.000000 0.7584 0.7582 0.7581 0.7580 0.7578
1888.000000 0.7577 0.7575 0.7574 0.7574 0.7572
1893.000000 0.7571 0.7569 0.7564 0.7556 0.7547
1898.000000 0.7538 0.7528 0.7517 0.7503 0.7492
1903.000000 0.7484 0.7482 0.7479 0.7476 0.7474
1908.000000 0.7472 0.7469 0.7466 0.7464 0.7462
1913.000000 0.7460 0.7458 0.7456 0.7453 0.7447
1918.000000 0.7441 0.7435 0.7429 0.7423 0.7416
1923.000000 0.7409 0.7402 0.7396 0.7389 0.7383
1928.000000 0.7377 0.7372 0.7366 0.7360 0.7354
1933.000000 0.7350 0.7346 0.7343 0.7340 0.7337
1938.000000 0.7334 0.7332 0.7329 0.7326 0.7324
1943.000000 0.7322 0.7320 0.7317 0.7314 0.7312
1948.000000 0.7309 0.7306 0.7304 0.7302 0.7302
1953.000000 0.7302 0.7303 0.7304 0.7304 0.7305
1958.000000 0.7306 0.7306 0.7307 0.7308 0.7308
1963.000000 0.7309 0.7310 0.7310 0.7310 0.7310
1968.000000 0.7310 0.7311 0.7311 0.7311 0.7312
1973.000000 0.7312 0.7312 0.7311 0.7311 0.7310
1978.000000 0.7308 0.7307 0.7306 0.7304 0.7303
1983.000000 0.7301 0.7299 0.7295 0.7290 0.7287
1988.000000 0.7283 0.7279 0.7274 0.7270 0.7265
1993.000000 0.7260 0.7256 0.7251 0.7247 0.7242
1998.000000 0.7238 0.7234 0.7231 0.7227 0.7223
2003.000000 0.7220 0.7217 0.7213 0.7210 0.7207
2008.000000 0.7205 0.7202 0.7198 0.7195 0.7192
2013.000000 0.7189 0.7186 0.7183 0.7180 0.7176
2018.000000 0.7173 0.7169 0.7165 0.7162 0.7158
2023.000000 0.7154 0.7151 0.7147 0.7143 0.7138
2028.000000 0.7133 0.7129 0.7124 0.7119 0.7114
2033.000000 0.7109 0.7104 0.7100 0.7094 0.7088
2038.000000 0.7083 0.7077 0.7071 0.7065 0.7059
2043.000000 0.7054 0.7048 0.7042 0.7036 0.7030
2048.000000 0.7025 0.7019 0.7013 0.7008 0.7002
2053.000000 0.6996 0.6991 0.6985 0.6979 0.6973
2058.000000 0.6967 0.6962 0.6956 0.6951 0.6945
2063.000000 0.6940 0.6935 0.6929 0.6924 0.6919
2068.000000 0.6915 0.6910 0.6905 0.6901 0.6898
2073.000000 0.6895 0.6894 0.6892 0.6890 0.6888
2078.000000 0.6887 0.6885 0.6883 0.6882 0.6880
2083.000000 0.6877 0.6875 0.6873 0.6870 0.6868
2088.000000 0.6866 0.6864 0.6862 0.6860 0.6858
2093.000000 0.6854 0.6851 0.6847 0.6844 0.6840
2098.000000 0.6836 0.6833 0.6829 0.6825 0.6822
2103.000000 0.6818 0.6814 0.6810 0.6806 0.6802
2108.000000 0.6798 0.6793 0.6788 0.6783 0.6778
2113.000000 0.6773 0.6768 0.6763 0.6758 0.6753
2118.000000 0.6748 0.6743 0.6738 0.6734 0.6729
2123.000000 0.6724 0.6720 0.6715 0.6711 0.6706
2128.000000 0.6702 0.6698 0.6693 0.6689 0.6684
2133.000000 0.6680 0.6675 0.6670 0.6666 0.6661
2138.000000 0.6657 0.6653 0.6649 0.6645 0.6641
2143.000000 0.6638 0.6634 0.6630 0.6626 0.6622
2148.000000 0.6618 0.6614 0.6610 0.6606 0.6602
2153.000000 0.6599 0.6595 0.6591 0.6587 0.6584
2158.000000 0.6580 0.6576 0.6572 0.6568 0.6564
2163.000000 0.6560 0.6556 0.6553 0.6549 0.6545
2168.000000 0.6541 0.6537 0.6533 0.6529 0.6525
2173.000000 0.6520 0.6516 0.6512 0.6508 0.6503
2178.000000 0.6498 0.6494 0.6490 0.6486 0.6481
2183.000000 0.6477 0.6473 0.6468 0.6464 0.6459
2188.000000 0.6455 0.6451 0.6447 0.6443 0.6439
2193.000000 0.6434 0.6429 0.6424 0.6419 0.6415
2198.000000 0.6409 0.6404 0.6400 0.6395 0.6390
2203.000000 0.6385 0.6380 0.6375 0.6370 0.6365
2208.000000 0.6361 0.6356 0.6351 0.6346 0.6341
2213.000000 0.6336 0.6331 0.6327 0.6322 0.6317
2218.000000 0.6312 0.6307 0.6303 0.6298 0.6294
2223.000000 0.6289 0.6284 0.6279 0.6274 0.6269
2228.000000 0.6264 0.6260 0.6255 0.6250 0.6245
2233.000000 0.6241 0.6236 0.6231 0.6225 0.6219
2238.000000 0.6212 0.6205 0.6199 0.6192 0.6185
2243.000000 0.6179 0.6173 0.6166 0.6160 0.6153
2248.000000 0.6147 0.6140 0.6134 0.6127 0.6120
2253.000000 0.6114 0.6108 0.6102 0.6096 0.6090
2258.000000 0.6085 0.6079 0.6073 0.6067 0.6061
2263.000000 0.6055 0.6049 0.6044 0.6038 0.6029
2268.000000 0.6017 0.6005 0.5993 0.5981 0.5969
2273.000000 0.5957 0.5943 0.5929 0.5914 0.5900
2278.000000 0.5885 0.5871 0.5856 0.5842 0.5827
2283.000000 0.5812 0.5798 0.5783 0.5760 0.5735
2288.000000 0.5709 0.5682 0.5657 0.5633 0.5612
2293.000000 0.5593 0.5575 0.5556 0.5538 0.5519
2298.000000 0.5501 0.5481 0.5462 0.5442 0.5422
2303.000000 0.5400 0.5378 0.5350 0.5322 0.5294
2308.000000 0.5267 0.5236 0.5202 0.5168 0.5132
2313.000000 0.5097 0.5061 0.5026 0.4991 0.4956
2318.000000 0.4930 0.4903 0.4881 0.4860 0.4838
2323.000000 0.4817 0.4795 0.4772 0.4750 0.4728
2328.000000 0.4706 0.4684 0.4662 0.4639 0.4616
2333.000000 0.4593 0.4570 0.4539 0.4506 0.4474
2338.000000 0.4444 0.4416 0.4389 0.4363 0.4346
2343.000000 0.4328 0.4310 0.4291 0.4274 0.4258
2348.000000 0.4245 0.4235 0.4225 0.4215 0.4205
2353.000000 0.4195 0.4185 0.4175 0.4164 0.4156
2358.000000 0.4147 0.4141 0.4135 0.4129 0.4123
2363.000000 0.4117 0.4111 0.4106 0.4102 0.4098
2368.000000 0.4095 0.4093 0.4091 0.4088 0.4085
2373.000000 0.4083 0.4081 0.4079 0.4076 0.4075
2378.000000 0.4073 0.4072 0.4071 0.4069 0.4068
2383.000000 0.4067 0.4065 0.4064 0.4062 0.4058
2388.000000 0.4054 0.4049 0.4045 0.4037 0.4029
2393.000000 0.4020 0.4011 0.4000 0.3986 0.3972
2398.000000 0.3953 0.3933 0.3914 0.3894 0.3874
2403.000000 0.3855 0.3836 0.3817 0.3798 0.3778
2408.000000 0.3759 0.3739 0.3720 0.3701 0.3681
2413.000000 0.3662 0.3643 0.3623 0.3604 0.3585
2418.000000 0.3566 0.3546 0.3527 0.3508 0.3490
2423.000000 0.3471 0.3451 0.3432 0.3413 0.3394
2428.000000 0.3375 0.3356 0.3337 0.3318 0.3299
2433.000000 0.3280 0.3261 0.3242 0.3223 0.3205
2438.000000 0.3186 0.3167 0.3148 0.3129 0.3110
2443.000000 0.3091 0.3073 0.3054 0.3035 0.3016
2448.000000 0.2997 0.2979 0.2960 0.2941 0.2923
2453.000000 0.2905 0.2886 0.2867 0.2849 0.2830
2458.000000 0.2811 0.2788 0.2763 0.2738 0.2712
2463.000000 0.2686 0.2671 0.2657 0.2643 0.2629
2468.000000 0.2614 0.2600 0.2586 0.2573 0.2560
2473.000000 0.2547 0.2534 0.2522 0.2510 0.2498
2478.000000 0.2486 0.2476 0.2466 0.2456 0.2446
2483.000000 0.2436 0.2428 0.2420 0.2414 0.2407
2488.000000 0.2402 0.2398 0.2395 0.2392 0.2390
2493.000000 0.2387 0.2384 0.2382 0.2380 0.2378
2498.000000 0.2376 0.2374 0.2373 0.2371 0.2369
2503.000000 0.2367 0.2365 0.2363 0.2361 0.2359
2508.000000 0.2357 0.2355 0.2353 0.2351 0.2349
2513.000000 0.2346 0.2344 0.2342 0.2339 0.2335
2518.000000 0.2332 0.2330 0.2327 0.2324 0.2321
2523.000000 0.2317 0.2314 0.2310 0.2306 0.2302
2528.000000 0.2298 0.2293 0.2289 0.2284 0.2279
2533.000000 0.2274 0.2268 0.2262 0.2257 0.2251
2538.000000 0.2245 0.2239 0.2233 0.2227 0.2220
2543.000000 0.2212 0.2205 0.2198 0.2190 0.2183
2548.000000 0.2176 0.2168 0.2161 0.2154 0.2145
2553.000000 0.2137 0.2128 0.2118 0.2108 0.2098
2558.000000 0.2089 0.2079 0.2070 0.2060 0.2051
2563.000000 0.2042 0.2032 0.2023 0.2014 0.2005
2568.000000 0.1996 0.1986 0.1977 0.1968 0.1959
2573.000000 0.1950 0.1942 0.1934 0.1925 0.1917
2578.000000 0.1909 0.1901 0.1892 0.1888 0.1883
2583.000000 0.1879 0.1876 0.1873 0.1869 0.1865
2588.000000 0.1861 0.1858 0.1855 0.1852 0.1849
2593.000000 0.1846 0.1844 0.1843 0.1842 0.1840
2598.000000 0.1839 0.1837 0.1836 0.1834 0.1833
2603.000000 0.1833 0.1833 0.1832 0.1832 0.1832
2608.000000 0.1832 0.1832 0.1832 0.1832 0.1832
2613.000000 0.1832 0.1832 0.1832 0.1831 0.1831
2618.000000 0.1829 0.1831 0.1831 0.1832 0.1833
2623.000000 0.1833 0.1834 0.1835 0.1835 0.1839
2628.000000 0.1843 0.1846 0.1850 0.1854 0.1859
2633.000000 0.1866 0.1873 0.1883 0.1894 0.1906
2638.000000 0.1916 0.1925 0.1934 0.1939 0.1945
2643.000000 0.1950 0.1954 0.1958 0.1962 0.1966
2648.000000 0.1969 0.1973 0.1977 0.1980 0.1984
2653.000000 0.1987 0.1991 0.1994 0.1997 0.2000
2658.000000 0.2003 0.2006 0.2009 0.2011 0.2013
2663.000000 0.2016 0.2018 0.2021 0.2024 0.2026
2668.000000 0.2029 0.2032 0.2034 0.2037 0.2038
2673.000000 0.2039 0.2040 0.2041 0.2042 0.2043
2678.000000 0.2044 0.2045 0.2046 0.2047 0.2048
2683.000000 0.2049 0.2051 0.2052 0.2053 0.2054
2688.000000 0.2055 0.2056 0.2057 0.2058 0.2059
2693.000000 0.2061 0.2062 0.2063 0.2064 0.2066
2698.000000 0.2067 0.2068 0.2069 0.2070 0.2072
2703.000000 0.2073 0.2076 0.2080 0.2084 0.2089
2708.000000 0.2095 0.2101 0.2106 0.2112 0.2117
2713.000000 0.2123 0.2128 0.2133 0.2137 0.2142
2718.000000 0.2145 0.2147 0.2150 0.2152 0.2154
2723.000000 0.2157 0.2159 0.2161 0.2163 0.2165
2728.000000 0.2168 0.2170 0.2172 0.2175 0.2177
2733.000000 0.2179 0.2180 0.2182 0.2184 0.2185
2738.000000 0.2186 0.2188 0.2189 0.2190 0.2192
2743.000000 0.2193 0.2194 0.2196 0.2197 0.2199
2748.000000 0.2200 0.2201 0.2202 0.2203 0.2203
2753.000000 0.2203 0.2203 0.2203 0.2203 0.2203
2758.000000 0.2203 0.2203 0.2201 0.2200 0.2198
2763.000000 0.2197 0.2195 0.2193 0.2206 0.2189
2768.000000 0.2187 0.2184 0.2181 0.2178 0.2175
2773.000000 0.2172 0.2168 0.2164 0.2157 0.2151
2778.000000 0.2145 0.2138 0.2131 0.2125 0.2117
2783.000000 0.2110 0.2102 0.2091 0.2080 0.2069
2788.000000 0.2060 0.2050 0.2040 0.2031 0.2021
2793.000000 0.2011 0.2001 0.1991 0.1981 0.1970
2798.000000 0.1960 0.1949 0.1939 0.1928 0.1918
2803.000000 0.1907 0.1896 0.1885 0.1873 0.1858
2808.000000 0.1843 0.1828 0.1791 0.1755 0.1718
2813.000000 0.1682 0.1645 0.1609 0.1572 0.1536
2818.000000 0.1499 0.1463 0.1426 0.1390 0.1354
2823.000000 0.1318 0.1281 0.1245 0.1209 0.1173
2828.000000 0.1136 0.1101 0.1065 0.1029 0.0993
2833.000000 0.0957 0.0920 0.0884 0.0848 0.0812
2838.000000 0.0777 0.0743 0.0710 0.0679 0.0673
2843.000000 0.0667 0.0661 0.0659 0.0658 0.0656
2848.000000 0.0656 0.0656 0.0656 0.0657 0.0657
2853.000000 0.0657 0.0658 0.0658 0.0658 0.0658
2858.000000 0.0658 0.0658 0.0658 0.0659 0.0659
2863.000000 0.0659 0.0659 0.0659 0.0659 0.0659
2868.000000 0.0659 0.0659 0.0659 0.0656 0.0653
2873.000000 0.0650 0.0647 0.0644 0.0640 0.0637
2878.000000 0.0632 0.0627 0.0622 0.0616 0.0608
2883.000000 0.0601 0.0594 0.0587 0.0580 0.0574
2888.000000 0.0569 0.0564 0.0559 0.0555 0.0550
2893.000000 0.0546 0.0543 0.0541 0.0540 0.0538
2898.000000 0.0538 0.0537 0.0537 0.0537 0.0537
2903.000000 0.0537 0.0538 0.0538 0.0539 0.0548
2908.000000 0.0540 0.0541 0.0541 0.0543 0.0545
2913.000000 0.0548 0.0550 0.0554 0.0557 0.0560
2918.000000 0.0565 0.0570 0.0575 0.0581 0.0591
2923.000000 0.0600 0.0609 0.0619 0.0630 0.0640
2928.000000 0.0652 0.0664 0.0676 0.0688 0.0703
2933.000000 0.0719 0.0734 0.0751 0.0768 0.0784
2938.000000 0.0799 0.0809 0.0819 0.0829 0.0840
2943.000000 0.0852 0.0864 0.0881 0.0906 0.0931
2948.000000 0.0956 0.0984 0.1013 0.1041 0.1070
2953.000000 0.1099 0.1127 0.1156 0.1185 0.1214
2958.000000 0.1243 0.1271 0.1300 0.1329 0.1357
2963.000000 0.1386 0.1414 0.1442 0.1471 0.1499
2968.000000 0.1528 0.1556 0.1584 0.1613 0.1641
2973.000000 0.1669 0.1698 0.1726 0.1754 0.1782
2978.000000 0.1811 0.1839 0.1867 0.1895 0.1923
2983.000000 0.1951 0.1979 0.2007 0.2035 0.2064
2988.000000 0.2092 0.2120 0.2148 0.2176 0.2204
2993.000000 0.2232 0.2260 0.2288 0.2316 0.2344
2998.000000 0.2372 0.2399 0.2427 0.2455 0.2490
3003.000000 0.2527 0.2564 0.2597 0.2614 0.2630
3008.000000 0.2647 0.2663 0.2678 0.2693 0.2708
3013.000000 0.2718 0.2729 0.2739 0.2748 0.2751
3018.000000 0.2755 0.2758 0.2761 0.2764 0.2766
3023.000000 0.2769 0.2769 0.2770 0.2770 0.2771
3028.000000 0.2772 0.2772 0.2773 0.2774 0.2774
3033.000000 0.2774 0.2774 0.2774 0.2773 0.2773
3038.000000 0.2772 0.2772 0.2771 0.2771 0.2773
3043.000000 0.2769 0.2768 0.2767 0.2764 0.2762
3048.000000 0.2759 0.2757 0.2755 0.2752 0.2750
3053.000000 0.2747 0.2744 0.2740 0.2737 0.2734
3058.000000 0.2731 0.2728 0.2724 0.2721 0.2717
3063.000000 0.2714 0.2711 0.2708 0.2705 0.2703
3068.000000 0.2700 0.2697 0.2695 0.2692 0.2690
3073.000000 0.2688 0.2686 0.2685 0.2682 0.2680
3078.000000 0.2677 0.2674 0.2663 0.2653 0.2643
3083.000000 0.2631 0.2618 0.2605 0.2591 0.2578
3088.000000 0.2564 0.2551 0.2538 0.2524 0.2511
3093.000000 0.2498 0.2484 0.2471 0.2458 0.2445
3098.000000 0.2432 0.2419 0.2406 0.2392 0.2379
3103.000000 0.2366 0.2353 0.2339 0.2326 0.2313
3108.000000 0.2300 0.2287 0.2274 0.2261 0.2248
3113.000000 0.2235 0.2222 0.2208 0.2195 0.2182
3118.000000 0.2169 0.2156 0.2144 0.2131 0.2118
3123.000000 0.2105 0.2092 0.2079 0.2065 0.2052
3128.000000 0.2039 0.2026 0.2014 0.2001 0.1988
3133.000000 0.1975 0.1962 0.1949 0.1936 0.1923
3138.000000 0.1910 0.1898 0.1885 0.1872 0.1859
3143.000000 0.1846 0.1834 0.1819 0.1802 0.1785
3148.000000 0.1767 0.1753 0.1742 0.1732 0.1722
3153.000000 0.1712 0.1703 0.1694 0.1685 0.1677
3158.000000 0.1668 0.1659 0.1650 0.1641 0.1632
3163.000000 0.1623 0.1614 0.1606 0.1597 0.1588
3168.000000 0.1579 0.1571 0.1562 0.1554 0.1545
3173.000000 0.1537 0.1528 0.1518 0.1509 0.1499
3178.000000 0.1486 0.1473 0.1461 0.1448 0.1436
3183.000000 0.1424 0.1411 0.1399 0.1388 0.1377
3188.000000 0.1366 0.1355 0.1344 0.1333 0.1323
3193.000000 0.1312 0.1301 0.1290 0.1280 0.1269
3198.000000 0.1258 0.1247 0.1236 0.1225 0.1214
3203.000000 0.1203 0.1192 0.1181 0.1171 0.1162
3208.000000 0.1152 0.1143 0.1135 0.1128 0.1120
3213.000000 0.1113 0.1106 0.1099 0.1092 0.1085
3218.000000 0.1079 0.1074 0.1069 0.1064 0.1059
3223.000000 0.1055 0.1051 0.1048 0.1044 0.1040
3228.000000 0.1037 0.1033 0.1029 0.1026 0.1022
3233.000000 0.1019 0.1015 0.1011 0.1008 0.1004
3238.000000 0.1001 0.0997 0.0994 0.0991 0.0987
3243.000000 0.0984 0.0982 0.0979 0.0976 0.0974
3248.000000 0.0972 0.0969 0.0967 0.0964 0.0962
3253.000000 0.0960 0.0957 0.0955 0.0953 0.0950
3258.000000 0.0948 0.0946 0.0943 0.0941 0.0939
3263.000000 0.0936 0.0934 0.0932 0.0930 0.0928
3268.000000 0.0926 0.0925 0.0923 0.0922 0.0920
3273.000000 0.0918 0.0916 0.0914 0.0913 0.0911
3278.000000 0.0909 0.0908 0.0907 0.0905 0.0905
3283.000000 0.0904 0.0903 0.0903 0.0902 0.0901
3288.000000 0.0900 0.0899 0.0898 0.0898 0.0898
3293.000000 0.0898 0.0898 0.0898 0.0898 0.0898
3298.000000 0.0898 0.0899 0.0899 0.0900 0.0900
3303.000000 0.0895 0.0901 0.0902 0.0902 0.0903
3308.000000 0.0903 0.0904 0.0905 0.0905 0.0906
3313.000000 0.0907 0.0907 0.0908 0.0909 0.0909
3318.000000 0.0910 0.0911 0.0911 0.0912 0.0913
3323.000000 0.0914 0.0915 0.0916 0.0917 0.0918
3328.000000 0.0919 0.0920 0.0920 0.0921 0.0922
3333.000000 0.0923 0.0924 0.0926 0.0927 0.0928
3338.000000 0.0930 0.0932 0.0933 0.0935 0.0937
3343.000000 0.0939 0.0940 0.0942 0.0943 0.0945
3348.000000 0.0947 0.0949 0.0950 0.0952 0.0954
3353.000000 0.0956 0.0958 0.0960 0.0962 0.0965
3358.000000 0.0968 0.0971 0.0974 0.0977 0.0980
3363.000000 0.0983 0.0985 0.0988 0.0992 0.0995
3368.000000 0.0999 0.1003 0.1006 0.1010 0.1014
3373.000000 0.1017 0.1021 0.1025 0.1029 0.1032
3378.000000 0.1036 0.1041 0.1046 0.1051 0.1056
3383.000000 0.1061 0.1066 0.1071 0.1076 0.1082
3388.000000 0.1087 0.1092 0.1097 0.1102 0.1107
3393.000000 0.1112 0.1116 0.1121 0.1126 0.1131
3398.000000 0.1136 0.1140 0.1145 0.1150 0.1155
3403.000000 0.1160 0.1165 0.1170 0.1175 0.1180
3408.000000 0.1185 0.1191 0.1196 0.1201 0.1207
3413.000000 0.1212 0.1218 0.1223 0.1230 0.1237
3418.000000 0.1244 0.1251 0.1259 0.1266 0.1274
3423.000000 0.1282 0.1289 0.1297 0.1303 0.1310
3428.000000 0.1317 0.1323 0.1329 0.1336 0.1342
3433.000000 0.1348 0.1354 0.1360 0.1366 0.1373
3438.000000 0.1379 0.1385 0.1390 0.1395 0.1400
3443.000000 0.1406 0.1411 0.1416 0.1420 0.1425
3448.000000 0.1430 0.1438 0.1446 0.1455 0.1464
3453.000000 0.1472 0.1481 0.1489 0.1498 0.1507
3458.000000 0.1515 0.1524 0.1533 0.1542 0.1551
3463.000000 0.1560 0.1569 0.1578 0.1587 0.1596
3468.000000 0.1607 0.1621 0.1634 0.1647 0.1661
3473.000000 0.1680 0.1701 0.1722 0.1743 0.1764
3478.000000 0.1783 0.1801 0.1820 0.1838 0.1857
3483.000000 0.1878 0.1898 0.1919 0.1940 0.1961
3488.000000 0.1984 0.2007 0.2030 0.2052 0.2073
3493.000000 0.2092 0.2110 0.2128 0.2146 0.2165
3498.000000 0.2184 0.2203 0.2223 0.2242 0.2263
3503.000000 0.2286 0.2308 0.2331 0.2353 0.2414
3508.000000 0.2491 0.2569 0.2646 0.2723 0.2756
3513.000000 0.2776 0.2795 0.2815 0.2834 0.2850
3518.000000 0.2864 0.2879 0.2894 0.2909 0.2922
3523.000000 0.2936 0.2950 0.2964 0.2977 0.2992
3528.000000 0.3007 0.3022 0.3037 0.3051 0.3067
3533.000000 0.3083 0.3099 0.3115 0.3130 0.3152
3538.000000 0.3173 0.3195 0.3216 0.3238 0.3265
3543.000000 0.3292 0.3319 0.3347 0.3374 0.3403
3548.000000 0.3433 0.3463 0.3493 0.3522 0.3540
3553.000000 0.3556 0.3571 0.3587 0.3603 0.3661
3558.000000 0.3729 0.3798 0.3866 0.3934 0.3978
3563.000000 0.4014 0.4049 0.4085 0.4121 0.4159
3568.000000 0.4198 0.4238 0.4277 0.4317 0.4356
3573.000000 0.4396 0.4435 0.4475 0.4514 0.4554
3578.000000 0.4593 0.4633 0.4672 0.4711 0.4751
3583.000000 0.4790 0.4829 0.4868 0.4907 0.4946
3588.000000 0.4986 0.5025 0.5064 0.5103 0.5142
3593.000000 0.5181 0.5220 0.5260 0.5299 0.5338
3598.000000 0.5377 0.5415 0.5454 0.5493 0.5532
3603.000000 0.5570 0.5609 0.5648 0.5687 0.5726
3608.000000 0.5765 0.5803 0.5842 0.5880 0.5919
3613.000000 0.5957 0.5996 0.6035 0.6073 0.6112
3618.000000 0.6151 0.6189 0.6228 0.6266 0.6305
3623.000000 0.6343 0.6382 0.6420 0.6458 0.6496
3628.000000 0.6534 0.6573 0.6611 0.6649 0.6688
3633.000000 0.6726 0.6764 0.6802 0.6841 0.6879
3638.000000 0.6917 0.6955 0.6993 0.7031 0.7069
3643.000000 0.7107 0.7145 0.7183 0.7220 0.7258
3648.000000 0.7296 0.7334 0.7388 0.7469 0.7549
3653.000000 0.7630 0.7710 0.7789 0.7809 0.7828
3658.000000 0.7848 0.7868 0.7887 0.7900 0.7909
3663.000000 0.7919 0.7928 0.7938 0.7947 0.7955
3668.000000 0.7963 0.7972 0.7980 0.7988 0.7992
3673.000000 0.7995 0.7999 0.8002 0.8006 0.8009
3678.000000 0.8013 0.8016 0.8020 0.8023 0.8027
3683.000000 0.8029 0.8030 0.8032 0.8034 0.8036
3688.000000 0.8038 0.8039 0.8040 0.8042 0.8043
3693.000000 0.8045 0.8046 0.8048 0.8049 0.8051
3698.000000 0.8052 0.8053 0.8054 0.8055 0.8055
3703.000000 0.8056 0.8057 0.8057 0.8057 0.8058
3708.000000 0.8058 0.8058 0.8059 0.8059 0.8060
3713.000000 0.8061 0.8061 0.8062 0.8062 0.8062
3718.000000 0.8063 0.8063 0.8063 0.8064 0.8064
3723.000000 0.8065 0.8066 0.8066 0.8067 0.8067
3728.000000 0.8067 0.8067 0.8067 0.8067 0.8067
3733.000000 0.8067 0.8067 0.8067 0.8067 0.8068
3738.000000 0.8068 0.8068 0.8068 0.8068 0.8068
3743.000000 0.8069 0.8069 0.8069 0.8069 0.8069
3748.000000 0.8069 0.8069 0.8069 0.8069 0.8069
3753.000000 0.8069 0.8069 0.8069 0.8069 0.8069
3758.000000 0.8069 0.8069 0.8068 0.8068 0.8068
3763.000000 0.8068 0.8068 0.8068 0.8075 0.8067
3768.000000 0.8067 0.8067 0.8067 0.8066 0.8066
3773.000000 0.8066 0.8066 0.8066 0.8066 0.8065
3778.000000 0.8065 0.8065 0.8065 0.8065 0.8065
3783.000000 0.8064 0.8064 0.8064 0.8064 0.8064
3788.000000 0.8064 0.8064 0.8064 0.8064 0.8064
3793.000000 0.8064 0.8063 0.8063 0.8062 0.8062
3798.000000 0.8061 0.8061 0.8060 0.8060 0.8059
3803.000000 0.8059 0.8058 0.8058 0.8057 0.8056
3808.000000 0.8056 0.8055 0.8054 0.8053 0.8052
3813.000000 0.8051 0.8050 0.8049 0.8048 0.8047
3818.000000 0.8044 0.8040 0.8037 0.8034 0.8031
3823.000000 0.8027 0.8022 0.8018 0.8014 0.8009
3828.000000 0.8005 0.7998 0.7990 0.7982 0.7974
3833.000000 0.7966 0.7958 0.7954 0.7951 0.7948
3838.000000 0.7945 0.7942 0.7939 0.7936 0.7933
3843.000000 0.7931 0.7928 0.7925 0.7922 0.7920
3848.000000 0.7918 0.7917 0.7915 0.7913 0.7912
3853.000000 0.7911 0.7910 0.7909 0.7908 0.7907
3858.000000 0.7906 0.7905 0.7904 0.7903 0.7901
3863.000000 0.7900 0.7899 0.7898 0.7897 0.7896
3868.000000 0.7895 0.7894 0.7893 0.7892 0.7891
3873.000000 0.7890 0.7889 0.7888 0.7887 0.7887
3878.000000 0.7886 0.7885 0.7884 0.7883 0.7882
3883.000000 0.7882 0.7882 0.7882 0.7881 0.7881
3888.000000 0.7881 0.7880 0.7880 0.7879 0.7879
3893.000000 0.7878 0.7878 0.7877 0.7877 0.7876
3898.000000 0.7876 0.7875 0.7875 0.7874 0.7874
3903.000000 0.7874 0.7873 0.7873 0.7873 0.7872
3908.000000 0.7872 0.7871 0.7871 0.7870 0.7870
3913.000000 0.7869 0.7869 0.7868 0.7868 0.7867
3918.000000 0.7867 0.7866 0.7866 0.7866 0.7865
3923.000000 0.7865 0.7865 0.7864 0.7864 0.7864
3928.000000 0.7864 0.7864 0.7864 0.7863 0.7863
3933.000000 0.7863 0.7863 0.7863 0.7863 0.7863
3938.000000 0.7862 0.7862 0.7862 0.7862 0.7862
3943.000000 0.7862 0.7861 0.7861 0.7861 0.7860
3948.000000 0.7860 0.7860 0.7859 0.7859 0.7859
3953.000000 0.7859 0.7859 0.7859 0.7858 0.7858
3958.000000 0.7858 0.7858 0.7858 0.7858 0.7857
3963.000000 0.7857 0.7857 0.7857 0.7857 0.7857
3968.000000 0.7857 0.7856 0.7856 0.7856 0.7856
3973.000000 0.7856 0.7856 0.7855 0.7855 0.7855
3978.000000 0.7854 0.7854 0.7854 0.7853 0.7853
3983.000000 0.7853 0.7853 0.7853 0.7853 0.7853
3988.000000 0.7852 0.7852 0.7852 0.7852 0.7852
3993.000000 0.7852 0.7851 0.7851 0.7851 0.7851
3998.000000 0.7851 0.7851 0.7851
##END=
