##TITLE=Piperazine, 1,4-diallyl-2-methyl-,
##JCAMP-DX=4.24
##DATA TYPE=INFRARED SPECTRUM
##CLASS=COBLENTZ III
##ORIGIN=WYANDOTTE CHEMICALS CORP.
##OWNER=Copyright (C) 1987 by the Coblentz Society
Collection (C) 2018 copyright by the U.S. Secretary of Commerce
on behalf of the United States of America. All rights reserved.
##DATE=1960/05/03
##NAMES=1,4-diallyl-2-methylpiperazine
##MOLFORM=C11 H20 N2
##BP=107-108 C
##SOURCE REFERENCE=COBLENTZ NO. 5967
##$NIST ID=B6005967
##$NIST SOURCE=COBLENTZ
##$NIST IMAGE=cob5967
##SPECTROMETER/DATA SYSTEM=BAIRD (GRATING)
##INSTRUMENT PARAMETERS=NaCl PRISM
##STATE=LIQUID (NEAT)
##PATH LENGTH=0.003 CM
##RESOLUTION=2
##XUNITS=1/CM
##YUNITS=TRANSMITTANCE
##XFACTOR=1.0
##YFACTOR=1
##FIRSTX=626
##LASTX=4000
##FIRSTY=0.7407
##MAXX=4000
##MINX=626
##MAXY=0.9693
##MINY=0.0245
##NPOINTS=3375
##XYDATA=(X++(Y..Y))
626.000000 0.7407 0.7413 0.7414 0.7410 0.7407
631.000000 0.7411 0.7430 0.7478 0.7496 0.7473
636.000000 0.7448 0.7424 0.7408 0.7420 0.7446
641.000000 0.7470 0.7496 0.7507 0.7520 0.7517
646.000000 0.7513 0.7498 0.7461 0.7435 0.7398
651.000000 0.7358 0.7314 0.7271 0.7211 0.7131
656.000000 0.7017 0.6882 0.6653 0.6419 0.6195
661.000000 0.5990 0.5864 0.6001 0.6420 0.6691
666.000000 0.7041 0.7316 0.7440 0.7499 0.7548
671.000000 0.7599 0.7652 0.7706 0.7769 0.7836
676.000000 0.7892 0.7950 0.8008 0.8057 0.8081
681.000000 0.8065 0.8060 0.8033 0.7992 0.7952
686.000000 0.7910 0.7870 0.7830 0.7791 0.7758
691.000000 0.7733 0.7732 0.7706 0.7750 0.7768
696.000000 0.7793 0.7819 0.7845 0.7871 0.7903
701.000000 0.7941 0.7978 0.8015 0.8054 0.8097
706.000000 0.8139 0.8180 0.8221 0.8261 0.8301
711.000000 0.8350 0.8409 0.8467 0.8509 0.8540
716.000000 0.8565 0.8586 0.8606 0.8627 0.8650
721.000000 0.8673 0.8696 0.8720 0.8736 0.8749
726.000000 0.8760 0.8768 0.8767 0.8766 0.8765
731.000000 0.8760 0.8767 0.8770 0.8772 0.8772
736.000000 0.8765 0.8759 0.8752 0.8733 0.8711
741.000000 0.8690 0.8661 0.8632 0.8603 0.8574
746.000000 0.8540 0.8505 0.8470 0.8412 0.8352
751.000000 0.8271 0.8191 0.8139 0.8123 0.8108
756.000000 0.8080 0.8153 0.8191 0.8254 0.8322
761.000000 0.8378 0.8413 0.8427 0.8437 0.8468
766.000000 0.8404 0.8413 0.8440 0.8419 0.8376
771.000000 0.8327 0.8278 0.8228 0.8174 0.8116
776.000000 0.8049 0.7976 0.7885 0.7777 0.7652
781.000000 0.7526 0.7381 0.7317 0.7259 0.7332
786.000000 0.7407 0.7552 0.7758 0.7955 0.8117
791.000000 0.8243 0.8319 0.8363 0.8390 0.8411
796.000000 0.8422 0.8434 0.8445 0.8454 0.8461
801.000000 0.8466 0.8485 0.8452 0.8426 0.8395
806.000000 0.8353 0.8294 0.8226 0.8158 0.8069
811.000000 0.7979 0.7890 0.7791 0.7693 0.7585
816.000000 0.7461 0.7338 0.7208 0.7045 0.6881
821.000000 0.6680 0.6468 0.6302 0.6122 0.5863
826.000000 0.5605 0.5348 0.5091 0.4835 0.4580
831.000000 0.4325 0.4071 0.3817 0.3564 0.3343
836.000000 0.3214 0.3168 0.3135 0.3225 0.3310
841.000000 0.3424 0.3760 0.4063 0.4320 0.4576
846.000000 0.4832 0.5087 0.5342 0.5596 0.5850
851.000000 0.6100 0.6312 0.6520 0.6717 0.6902
856.000000 0.7091 0.7291 0.7421 0.7497 0.7544
861.000000 0.7584 0.7569 0.7567 0.7539 0.7483
866.000000 0.7411 0.7316 0.7185 0.7076 0.6970
871.000000 0.6862 0.6772 0.6730 0.6703 0.6680
876.000000 0.6654 0.6620 0.6575 0.6506 0.6419
881.000000 0.6253 0.5973 0.5694 0.5564 0.5557
886.000000 0.5774 0.6027 0.6280 0.6533 0.6726
891.000000 0.6765 0.6747 0.6743 0.6669 0.6328
896.000000 0.5964 0.5602 0.5241 0.4881 0.4521
901.000000 0.4162 0.3804 0.3447 0.3090 0.2734
906.000000 0.2381 0.1947 0.1670 0.1332 0.1020
911.000000 0.0743 0.0582 0.0455 0.0366 0.0312
916.000000 0.0276 0.0254 0.0246 0.0245 0.0257
921.000000 0.0269 0.0289 0.0331 0.0384 0.0497
926.000000 0.0786 0.1103 0.1418 0.1733 0.2047
931.000000 0.2361 0.2674 0.2986 0.3298 0.3609
936.000000 0.3919 0.4229 0.4515 0.4639 0.4704
941.000000 0.4729 0.4754 0.4779 0.4808 0.4840
946.000000 0.4920 0.5016 0.5155 0.5339 0.5548
951.000000 0.5743 0.5867 0.5933 0.5958 0.5943
956.000000 0.5879 0.5764 0.5650 0.5535 0.5420
961.000000 0.5310 0.5287 0.5296 0.5424 0.5562
966.000000 0.5701 0.5839 0.5977 0.6115 0.6235
971.000000 0.6311 0.6346 0.6367 0.6397 0.6354
976.000000 0.6307 0.6245 0.6180 0.6112 0.6043
981.000000 0.5981 0.5919 0.5858 0.5785 0.5712
986.000000 0.5615 0.5160 0.4748 0.4337 0.3927
991.000000 0.3518 0.3109 0.2702 0.2295 0.1889
996.000000 0.1483 0.1079 0.0830 0.0741 0.0788
1001.000000 0.0856 0.1139 0.1464 0.1788 0.2112
1006.000000 0.2436 0.2758 0.3080 0.3401 0.3722
1011.000000 0.4001 0.4178 0.4327 0.4466 0.4578
1016.000000 0.4688 0.4787 0.4862 0.4937 0.5011
1021.000000 0.5112 0.5217 0.5374 0.5581 0.5871
1026.000000 0.5984 0.6067 0.6101 0.6074 0.6085
1031.000000 0.6029 0.5895 0.5658 0.5422 0.5187
1036.000000 0.4951 0.4717 0.4483 0.4249 0.4016
1041.000000 0.3783 0.3551 0.3319 0.3087 0.2936
1046.000000 0.2939 0.3032 0.3154 0.3222 0.3174
1051.000000 0.2888 0.2601 0.2315 0.2029 0.1744
1056.000000 0.1459 0.1176 0.1057 0.1110 0.1479
1061.000000 0.1859 0.2237 0.2615 0.2992 0.3368
1066.000000 0.3745 0.4119 0.4494 0.4704 0.4705
1071.000000 0.4705 0.4663 0.4628 0.4535 0.4430
1076.000000 0.4289 0.3994 0.3790 0.3642 0.3477
1081.000000 0.3483 0.3490 0.3516 0.3555 0.3597
1086.000000 0.3638 0.3701 0.3769 0.3837 0.3910
1091.000000 0.3982 0.4054 0.4147 0.4263 0.4579
1096.000000 0.4873 0.5060 0.5249 0.5443 0.5690
1101.000000 0.5923 0.6051 0.6095 0.6089 0.6087
1106.000000 0.6033 0.5964 0.5893 0.5814 0.5729
1111.000000 0.5628 0.5557 0.5524 0.5531 0.5561
1116.000000 0.5612 0.5617 0.5607 0.5558 0.5463
1121.000000 0.5338 0.5237 0.5101 0.4831 0.4554
1126.000000 0.4276 0.3999 0.3723 0.3448 0.3172
1131.000000 0.2898 0.2624 0.2361 0.2185 0.2078
1136.000000 0.1958 0.1833 0.1719 0.1604 0.1457
1141.000000 0.1324 0.1197 0.1070 0.0957 0.0897
1146.000000 0.0850 0.0831 0.0815 0.0799 0.0776
1151.000000 0.0751 0.0713 0.0667 0.0600 0.0522
1156.000000 0.0444 0.0386 0.0368 0.0350 0.0335
1161.000000 0.0332 0.0329 0.0327 0.0365 0.0332
1166.000000 0.0336 0.0344 0.0355 0.0366 0.0380
1171.000000 0.0420 0.0480 0.0648 0.0971 0.1295
1176.000000 0.1619 0.1943 0.2266 0.2589 0.2910
1181.000000 0.3227 0.3442 0.3561 0.3673 0.3795
1186.000000 0.3867 0.3923 0.3992 0.4085 0.4254
1191.000000 0.4412 0.4576 0.4801 0.5197 0.5499
1196.000000 0.5731 0.6032 0.6264 0.6448 0.6597
1201.000000 0.6732 0.6859 0.7024 0.7198 0.7357
1206.000000 0.7465 0.7542 0.7579 0.7608 0.7620
1211.000000 0.7617 0.7626 0.7588 0.7560 0.7510
1216.000000 0.7455 0.7399 0.7310 0.7075 0.6813
1221.000000 0.6553 0.6293 0.6033 0.5773 0.5671
1226.000000 0.5691 0.5694 0.5836 0.6005 0.6173
1231.000000 0.6342 0.6510 0.6678 0.6845 0.6980
1236.000000 0.7050 0.7095 0.7130 0.7156 0.7176
1241.000000 0.7200 0.7233 0.7230 0.7222 0.7176
1246.000000 0.7119 0.7056 0.6942 0.6758 0.6539
1251.000000 0.6314 0.6181 0.6077 0.5929 0.5578
1256.000000 0.5188 0.4800 0.4411 0.4024 0.3637
1261.000000 0.3254 0.3006 0.2967 0.2965 0.2987
1266.000000 0.3014 0.3176 0.3386 0.3595 0.3723
1271.000000 0.3739 0.3711 0.3681 0.3644 0.3617
1276.000000 0.3617 0.3717 0.3843 0.3888 0.3879
1281.000000 0.3851 0.3801 0.3716 0.3599 0.3384
1286.000000 0.3019 0.2631 0.2296 0.2306 0.2335
1291.000000 0.2461 0.2589 0.2715 0.2841 0.2968
1296.000000 0.3093 0.3220 0.3345 0.3471 0.3591
1301.000000 0.3646 0.3692 0.3709 0.3690 0.3706
1306.000000 0.3440 0.3280 0.3123 0.2964 0.2806
1311.000000 0.2648 0.2491 0.2334 0.2177 0.2021
1316.000000 0.1937 0.1961 0.1979 0.2019 0.2064
1321.000000 0.2141 0.2271 0.2542 0.2859 0.3176
1326.000000 0.3355 0.3357 0.3357 0.3372 0.3243
1331.000000 0.2933 0.2624 0.2315 0.2006 0.1698
1336.000000 0.1391 0.1099 0.0997 0.0994 0.1000
1341.000000 0.1130 0.1244 0.1385 0.1451 0.1493
1346.000000 0.1512 0.1530 0.1574 0.1645 0.1779
1351.000000 0.1917 0.2054 0.2191 0.2327 0.2464
1356.000000 0.2600 0.2736 0.2871 0.3006 0.3141
1361.000000 0.3276 0.3411 0.3546 0.3680 0.3779
1366.000000 0.3796 0.3793 0.3780 0.3778 0.3763
1371.000000 0.3742 0.3703 0.3660 0.3611 0.3560
1376.000000 0.3490 0.3366 0.3155 0.2945 0.2735
1381.000000 0.2525 0.2318 0.2256 0.2268 0.2267
1386.000000 0.2733 0.2997 0.3262 0.3527 0.3791
1391.000000 0.4054 0.4317 0.4580 0.4843 0.5104
1396.000000 0.5366 0.5627 0.5889 0.6149 0.6360
1401.000000 0.6402 0.6385 0.6382 0.6381 0.6381
1406.000000 0.6382 0.6393 0.6405 0.6417 0.6430
1411.000000 0.6447 0.6465 0.6475 0.6478 0.6473
1416.000000 0.6487 0.6449 0.6429 0.6371 0.6077
1421.000000 0.5711 0.5345 0.4980 0.4615 0.4251
1426.000000 0.3888 0.3525 0.3162 0.2800 0.2475
1431.000000 0.2413 0.2445 0.2505 0.2865 0.3323
1436.000000 0.3779 0.4235 0.4660 0.4823 0.4818
1441.000000 0.4774 0.4673 0.4532 0.4391 0.4251
1446.000000 0.4110 0.3970 0.3830 0.3690 0.3550
1451.000000 0.3411 0.3271 0.3132 0.2993 0.2854
1456.000000 0.2715 0.2577 0.2439 0.2301 0.2163
1461.000000 0.2039 0.2035 0.2033 0.2090 0.2147
1466.000000 0.2203 0.2260 0.2278 0.2278 0.2230
1471.000000 0.2145 0.2060 0.1976 0.1958 0.1969
1476.000000 0.2075 0.2444 0.2813 0.3181 0.3549
1481.000000 0.3916 0.4283 0.4649 0.5015 0.5380
1486.000000 0.5745 0.6109 0.6473 0.6836 0.7132
1491.000000 0.7278 0.7495 0.7604 0.7693 0.7773
1496.000000 0.7822 0.7864 0.7906 0.7958 0.8019
1501.000000 0.8086 0.8166 0.8239 0.8300 0.8360
1506.000000 0.8403 0.8423 0.8443 0.8461 0.8472
1511.000000 0.8482 0.8491 0.8500 0.8509 0.8519
1516.000000 0.8529 0.8540 0.8552 0.8591 0.8630
1521.000000 0.8659 0.8682 0.8706 0.8726 0.8735
1526.000000 0.8740 0.8745 0.8749 0.8753 0.8754
1531.000000 0.8754 0.8754 0.8754 0.8754 0.8754
1536.000000 0.8754 0.8755 0.8755 0.8755 0.8755
1541.000000 0.8755 0.8755 0.8755 0.8756 0.8756
1546.000000 0.8756 0.8756 0.8760 0.8762 0.8764
1551.000000 0.8766 0.8773 0.8781 0.8791 0.8800
1556.000000 0.8808 0.8818 0.8827 0.8835 0.8844
1561.000000 0.8853 0.8861 0.8869 0.8888 0.8881
1566.000000 0.8887 0.8893 0.8899 0.8905 0.8911
1571.000000 0.8915 0.8919 0.8922 0.8926 0.8930
1576.000000 0.8933 0.8937 0.8940 0.8944 0.8947
1581.000000 0.8950 0.8953 0.8957 0.8960 0.8963
1586.000000 0.8966 0.8969 0.8972 0.8975 0.8979
1591.000000 0.8981 0.8985 0.8988 0.8991 0.8995
1596.000000 0.8998 0.9000 0.8998 0.8995 0.8993
1601.000000 0.8991 0.8988 0.8986 0.8983 0.8980
1606.000000 0.8977 0.8973 0.8966 0.8959 0.8951
1611.000000 0.8944 0.8936 0.8929 0.8922 0.8914
1616.000000 0.8906 0.8896 0.8888 0.8878 0.8869
1621.000000 0.8859 0.8849 0.8835 0.8820 0.8804
1626.000000 0.8789 0.8774 0.8757 0.8738 0.8716
1631.000000 0.8694 0.8672 0.8650 0.8628 0.8607
1636.000000 0.8575 0.8538 0.8500 0.8462 0.8422
1641.000000 0.8378 0.8333 0.8287 0.8239 0.8188
1646.000000 0.8136 0.8045 0.7579 0.6994 0.6410
1651.000000 0.5826 0.5243 0.4661 0.4081 0.3773
1656.000000 0.3774 0.3788 0.4171 0.4540 0.4908
1661.000000 0.5275 0.5643 0.6009 0.6375 0.6741
1666.000000 0.7106 0.7471 0.7824 0.8110 0.8174
1671.000000 0.8240 0.8308 0.8376 0.8432 0.8482
1676.000000 0.8533 0.8578 0.8608 0.8638 0.8668
1681.000000 0.8698 0.8728 0.8758 0.8785 0.8810
1686.000000 0.8833 0.8857 0.8879 0.8891 0.8902
1691.000000 0.8913 0.8923 0.8933 0.8944 0.8954
1696.000000 0.8965 0.8976 0.8987 0.8999 0.9009
1701.000000 0.9020 0.9033 0.9054 0.9083 0.9111
1706.000000 0.9140 0.9169 0.9196 0.9224 0.9246
1711.000000 0.9254 0.9263 0.9272 0.9281 0.9289
1716.000000 0.9297 0.9300 0.9300 0.9300 0.9299
1721.000000 0.9298 0.9297 0.9296 0.9296 0.9296
1726.000000 0.9296 0.9296 0.9296 0.9297 0.9297
1731.000000 0.9298 0.9298 0.9299 0.9299 0.9300
1736.000000 0.9303 0.9312 0.9321 0.9330 0.9339
1741.000000 0.9348 0.9358 0.9368 0.9378 0.9389
1746.000000 0.9398 0.9408 0.9418 0.9424 0.9429
1751.000000 0.9433 0.9438 0.9442 0.9447 0.9451
1756.000000 0.9456 0.9440 0.9464 0.9464 0.9464
1761.000000 0.9463 0.9463 0.9463 0.9462 0.9462
1766.000000 0.9461 0.9460 0.9460 0.9460 0.9459
1771.000000 0.9456 0.9452 0.9447 0.9442 0.9437
1776.000000 0.9431 0.9427 0.9422 0.9417 0.9412
1781.000000 0.9408 0.9403 0.9397 0.9393 0.9388
1786.000000 0.9383 0.9376 0.9369 0.9362 0.9356
1791.000000 0.9349 0.9342 0.9336 0.9329 0.9323
1796.000000 0.9316 0.9309 0.9302 0.9296 0.9290
1801.000000 0.9283 0.9276 0.9270 0.9263 0.9257
1806.000000 0.9246 0.9232 0.9218 0.9204 0.9190
1811.000000 0.9177 0.9163 0.9149 0.9130 0.9105
1816.000000 0.9078 0.9042 0.8976 0.8908 0.8841
1821.000000 0.8774 0.8707 0.8641 0.8574 0.8507
1826.000000 0.8441 0.8374 0.8308 0.8242 0.8175
1831.000000 0.8109 0.8060 0.8031 0.8005 0.7982
1836.000000 0.7966 0.7959 0.7959 0.7919 0.7963
1841.000000 0.7967 0.7971 0.8001 0.8045 0.8092
1846.000000 0.8138 0.8185 0.8231 0.8278 0.8325
1851.000000 0.8372 0.8418 0.8464 0.8511 0.8557
1856.000000 0.8604 0.8650 0.8696 0.8743 0.8788
1861.000000 0.8834 0.8880 0.8927 0.8975 0.9013
1866.000000 0.9044 0.9068 0.9092 0.9113 0.9130
1871.000000 0.9142 0.9155 0.9167 0.9180 0.9191
1876.000000 0.9201 0.9211 0.9220 0.9229 0.9238
1881.000000 0.9247 0.9256 0.9264 0.9273 0.9281
1886.000000 0.9290 0.9298 0.9307 0.9309 0.9309
1891.000000 0.9307 0.9304 0.9297 0.9287 0.9275
1896.000000 0.9267 0.9263 0.9259 0.9254 0.9250
1901.000000 0.9246 0.9248 0.9251 0.9254 0.9258
1906.000000 0.9261 0.9265 0.9268 0.9272 0.9275
1911.000000 0.9278 0.9281 0.9284 0.9288 0.9291
1916.000000 0.9294 0.9298 0.9301 0.9305 0.9308
1921.000000 0.9311 0.9315 0.9319 0.9323 0.9326
1926.000000 0.9330 0.9334 0.9338 0.9341 0.9345
1931.000000 0.9350 0.9354 0.9358 0.9362 0.9368
1936.000000 0.9372 0.9377 0.9383 0.9387 0.9392
1941.000000 0.9395 0.9389 0.9384 0.9380 0.9375
1946.000000 0.9370 0.9365 0.9360 0.9355 0.9350
1951.000000 0.9345 0.9340 0.9335 0.9330 0.9326
1956.000000 0.9320 0.9314 0.9308 0.9301 0.9294
1961.000000 0.9287 0.9280 0.9273 0.9267 0.9259
1966.000000 0.9253 0.9246 0.9239 0.9233 0.9227
1971.000000 0.9222 0.9217 0.9212 0.9208 0.9203
1976.000000 0.9200 0.9200 0.9202 0.9204 0.9207
1981.000000 0.9210 0.9212 0.9215 0.9217 0.9222
1986.000000 0.9230 0.9242 0.9255 0.9267 0.9277
1991.000000 0.9286 0.9294 0.9302 0.9310 0.9318
1996.000000 0.9326 0.9334 0.9342 0.9350 0.9359
2001.000000 0.9367 0.9374 0.9382 0.9390 0.9398
2006.000000 0.9406 0.9414 0.9421 0.9429 0.9437
2011.000000 0.9444 0.9450 0.9455 0.9461 0.9466
2016.000000 0.9472 0.9477 0.9482 0.9486 0.9488
2021.000000 0.9489 0.9491 0.9492 0.9493 0.9494
2026.000000 0.9496 0.9497 0.9498 0.9499 0.9500
2031.000000 0.9502 0.9503 0.9504 0.9505 0.9507
2036.000000 0.9509 0.9511 0.9512 0.9513 0.9515
2041.000000 0.9517 0.9519 0.9520 0.9522 0.9526
2046.000000 0.9529 0.9533 0.9536 0.9540 0.9543
2051.000000 0.9547 0.9551 0.9554 0.9558 0.9561
2056.000000 0.9565 0.9565 0.9565 0.9565 0.9564
2061.000000 0.9564 0.9562 0.9560 0.9554 0.9548
2066.000000 0.9542 0.9537 0.9532 0.9528 0.9525
2071.000000 0.9523 0.9521 0.9519 0.9517 0.9515
2076.000000 0.9514 0.9514 0.9514 0.9515 0.9516
2081.000000 0.9517 0.9518 0.9518 0.9519 0.9520
2086.000000 0.9521 0.9522 0.9522 0.9522 0.9522
2091.000000 0.9522 0.9522 0.9522 0.9522 0.9522
2096.000000 0.9522 0.9522 0.9522 0.9522 0.9523
2101.000000 0.9523 0.9523 0.9523 0.9523 0.9522
2106.000000 0.9522 0.9521 0.9520 0.9519 0.9518
2111.000000 0.9518 0.9517 0.9516 0.9515 0.9515
2116.000000 0.9513 0.9512 0.9512 0.9511 0.9510
2121.000000 0.9510 0.9510 0.9511 0.9512 0.9514
2126.000000 0.9515 0.9515 0.9516 0.9517 0.9518
2131.000000 0.9519 0.9520 0.9521 0.9526 0.9531
2136.000000 0.9536 0.9541 0.9546 0.9552 0.9559
2141.000000 0.9566 0.9573 0.9572 0.9570 0.9567
2146.000000 0.9551 0.9562 0.9559 0.9557 0.9555
2151.000000 0.9553 0.9550 0.9548 0.9546 0.9544
2156.000000 0.9542 0.9540 0.9538 0.9537 0.9536
2161.000000 0.9534 0.9533 0.9531 0.9529 0.9528
2166.000000 0.9526 0.9525 0.9523 0.9521 0.9520
2171.000000 0.9518 0.9517 0.9514 0.9512 0.9510
2176.000000 0.9508 0.9506 0.9504 0.9502 0.9500
2181.000000 0.9498 0.9495 0.9493 0.9492 0.9490
2186.000000 0.9488 0.9486 0.9484 0.9482 0.9480
2191.000000 0.9478 0.9477 0.9475 0.9474 0.9473
2196.000000 0.9472 0.9471 0.9470 0.9469 0.9468
2201.000000 0.9467 0.9466 0.9465 0.9464 0.9463
2206.000000 0.9462 0.9461 0.9460 0.9459 0.9459
2211.000000 0.9458 0.9458 0.9458 0.9458 0.9458
2216.000000 0.9458 0.9458 0.9458 0.9458 0.9458
2221.000000 0.9458 0.9458 0.9457 0.9457 0.9457
2226.000000 0.9457 0.9457 0.9457 0.9457 0.9457
2231.000000 0.9457 0.9457 0.9457 0.9457 0.9457
2236.000000 0.9457 0.9458 0.9458 0.9459 0.9459
2241.000000 0.9460 0.9460 0.9461 0.9461 0.9462
2246.000000 0.9462 0.9463 0.9463 0.9464 0.9464
2251.000000 0.9465 0.9465 0.9465 0.9465 0.9464
2256.000000 0.9464 0.9464 0.9464 0.9464 0.9464
2261.000000 0.9463 0.9463 0.9463 0.9463 0.9463
2266.000000 0.9463 0.9462 0.9462 0.9462 0.9462
2271.000000 0.9461 0.9461 0.9461 0.9461 0.9461
2276.000000 0.9461 0.9460 0.9460 0.9460 0.9460
2281.000000 0.9460 0.9458 0.9457 0.9455 0.9454
2286.000000 0.9452 0.9450 0.9448 0.9447 0.9446
2291.000000 0.9444 0.9443 0.9441 0.9440 0.9438
2296.000000 0.9437 0.9435 0.9433 0.9432 0.9430
2301.000000 0.9428 0.9427 0.9424 0.9421 0.9418
2306.000000 0.9415 0.9412 0.9410 0.9407 0.9404
2311.000000 0.9401 0.9398 0.9396 0.9393 0.9390
2316.000000 0.9389 0.9388 0.9389 0.9390 0.9392
2321.000000 0.9393 0.9395 0.9396 0.9398 0.9402
2326.000000 0.9405 0.9409 0.9413 0.9417 0.9421
2331.000000 0.9424 0.9428 0.9432 0.9436 0.9438
2336.000000 0.9440 0.9442 0.9442 0.9442 0.9442
2341.000000 0.9442 0.9442 0.9442 0.9442 0.9442
2346.000000 0.9440 0.9437 0.9435 0.9432 0.9430
2351.000000 0.9427 0.9425 0.9422 0.9420 0.9417
2356.000000 0.9415 0.9410 0.9404 0.9398 0.9392
2361.000000 0.9386 0.9380 0.9374 0.9368 0.9362
2366.000000 0.9355 0.9349 0.9343 0.9337 0.9332
2371.000000 0.9330 0.9327 0.9327 0.9326 0.9325
2376.000000 0.9325 0.9324 0.9324 0.9323 0.9322
2381.000000 0.9322 0.9323 0.9325 0.9327 0.9329
2386.000000 0.9330 0.9332 0.9334 0.9336 0.9337
2391.000000 0.9339 0.9340 0.9342 0.9343 0.9345
2396.000000 0.9347 0.9349 0.9350 0.9352 0.9353
2401.000000 0.9355 0.9356 0.9358 0.9360 0.9361
2406.000000 0.9363 0.9365 0.9366 0.9367 0.9369
2411.000000 0.9371 0.9373 0.9374 0.9375 0.9376
2416.000000 0.9377 0.9378 0.9379 0.9380 0.9380
2421.000000 0.9381 0.9382 0.9383 0.9384 0.9385
2426.000000 0.9385 0.9386 0.9387 0.9388 0.9389
2431.000000 0.9390 0.9391 0.9391 0.9392 0.9393
2436.000000 0.9393 0.9392 0.9392 0.9392 0.9391
2441.000000 0.9390 0.9389 0.9388 0.9387 0.9386
2446.000000 0.9386 0.9385 0.9385 0.9384 0.9383
2451.000000 0.9382 0.9382 0.9381 0.9380 0.9379
2456.000000 0.9378 0.9378 0.9378 0.9375 0.9372
2461.000000 0.9369 0.9367 0.9364 0.9361 0.9358
2466.000000 0.9355 0.9352 0.9349 0.9346 0.9344
2471.000000 0.9341 0.9338 0.9335 0.9332 0.9328
2476.000000 0.9324 0.9319 0.9314 0.9309 0.9304
2481.000000 0.9299 0.9295 0.9289 0.9281 0.9274
2486.000000 0.9267 0.9260 0.9252 0.9244 0.9237
2491.000000 0.9229 0.9221 0.9213 0.9204 0.9195
2496.000000 0.9185 0.9175 0.9166 0.9157 0.9148
2501.000000 0.9138 0.9129 0.9120 0.9111 0.9103
2506.000000 0.9094 0.9085 0.9076 0.9067 0.9058
2511.000000 0.9049 0.9040 0.9032 0.9022 0.9013
2516.000000 0.9005 0.8996 0.8987 0.8976 0.8966
2521.000000 0.8956 0.8945 0.8934 0.8924 0.8913
2526.000000 0.8903 0.8892 0.8881 0.8871 0.8860
2531.000000 0.8850 0.8839 0.8829 0.8819 0.8809
2536.000000 0.8800 0.8792 0.8783 0.8775 0.8766
2541.000000 0.8758 0.8749 0.8740 0.8732 0.8724
2546.000000 0.8715 0.8707 0.8698 0.8690 0.8681
2551.000000 0.8673 0.8664 0.8656 0.8647 0.8638
2556.000000 0.8630 0.8621 0.8613 0.8604 0.8595
2561.000000 0.8586 0.8577 0.8568 0.8559 0.8551
2566.000000 0.8542 0.8533 0.8524 0.8515 0.8506
2571.000000 0.8498 0.8490 0.8482 0.8474 0.8466
2576.000000 0.8458 0.8451 0.8443 0.8436 0.8428
2581.000000 0.8420 0.8413 0.8405 0.8397 0.8390
2586.000000 0.8382 0.8375 0.8367 0.8360 0.8353
2591.000000 0.8346 0.8340 0.8334 0.8327 0.8321
2596.000000 0.8315 0.8299 0.8283 0.8254 0.8185
2601.000000 0.8117 0.8056 0.8001 0.7947 0.7892
2606.000000 0.7838 0.7787 0.7761 0.7734 0.7707
2611.000000 0.7681 0.7654 0.7629 0.7605 0.7581
2616.000000 0.7559 0.7537 0.7515 0.7493 0.7471
2621.000000 0.7449 0.7429 0.7409 0.7391 0.7373
2626.000000 0.7354 0.7337 0.7319 0.7301 0.7283
2631.000000 0.7265 0.7249 0.7236 0.7223 0.7210
2636.000000 0.7197 0.7184 0.7174 0.7164 0.7154
2641.000000 0.7146 0.7137 0.7129 0.7120 0.7112
2646.000000 0.7103 0.7094 0.7085 0.7076 0.7066
2651.000000 0.7057 0.7047 0.7037 0.7027 0.7017
2656.000000 0.7007 0.6995 0.6978 0.6961 0.6937
2661.000000 0.6904 0.6870 0.6826 0.6776 0.6725
2666.000000 0.6674 0.6623 0.6572 0.6522 0.6471
2671.000000 0.6420 0.6370 0.6320 0.6269 0.6219
2676.000000 0.6168 0.6117 0.6067 0.6017 0.5967
2681.000000 0.5916 0.5866 0.5816 0.5766 0.5716
2686.000000 0.5666 0.5616 0.5566 0.5516 0.5466
2691.000000 0.5416 0.5366 0.5316 0.5267 0.5217
2696.000000 0.5168 0.5118 0.5068 0.5019 0.4969
2701.000000 0.4920 0.4870 0.4821 0.4771 0.4722
2706.000000 0.4672 0.4623 0.4574 0.4516 0.4448
2711.000000 0.4380 0.4299 0.4205 0.4110 0.4024
2716.000000 0.3944 0.3865 0.3785 0.3706 0.3627
2721.000000 0.3548 0.3469 0.3390 0.3311 0.3232
2726.000000 0.3153 0.3074 0.2995 0.2917 0.2838
2731.000000 0.2760 0.2681 0.2603 0.2525 0.2446
2736.000000 0.2368 0.2290 0.2211 0.2133 0.2055
2741.000000 0.1977 0.1899 0.1822 0.1744 0.1666
2746.000000 0.1589 0.1511 0.1438 0.1365 0.1293
2751.000000 0.1200 0.1100 0.0999 0.0935 0.0887
2756.000000 0.0840 0.0797 0.0757 0.0718 0.0689
2761.000000 0.0667 0.0646 0.0624 0.0603 0.0582
2766.000000 0.0562 0.0545 0.0527 0.0512 0.0500
2771.000000 0.0489 0.0477 0.0465 0.0454 0.0442
2776.000000 0.0431 0.0419 0.0408 0.0396 0.0385
2781.000000 0.0374 0.0366 0.0359 0.0351 0.0344
2786.000000 0.0338 0.0331 0.0324 0.0317 0.0310
2791.000000 0.0303 0.0297 0.0291 0.0288 0.0287
2796.000000 0.0285 0.0284 0.0282 0.0281 0.0280
2801.000000 0.0279 0.0278 0.0255 0.0281 0.0283
2806.000000 0.0286 0.0288 0.0291 0.0294 0.0299
2811.000000 0.0304 0.0309 0.0317 0.0326 0.0336
2816.000000 0.0357 0.0385 0.0412 0.0466 0.0544
2821.000000 0.0623 0.0701 0.0780 0.0858 0.0937
2826.000000 0.1015 0.1094 0.1172 0.1250 0.1328
2831.000000 0.1406 0.1485 0.1563 0.1641 0.1719
2836.000000 0.1797 0.1874 0.1952 0.2030 0.2108
2841.000000 0.2186 0.2263 0.2340 0.2418 0.2495
2846.000000 0.2573 0.2650 0.2727 0.2804 0.2881
2851.000000 0.2935 0.2948 0.2962 0.2960 0.2974
2856.000000 0.2974 0.2974 0.2943 0.2908 0.2873
2861.000000 0.2827 0.2774 0.2720 0.2667 0.2614
2866.000000 0.2560 0.2507 0.2454 0.2401 0.2348
2871.000000 0.2295 0.2242 0.2189 0.2137 0.2084
2876.000000 0.2031 0.1979 0.1933 0.1887 0.1841
2881.000000 0.1814 0.1792 0.1770 0.1748 0.1726
2886.000000 0.1705 0.1683 0.1662 0.1640 0.1619
2891.000000 0.1600 0.1581 0.1562 0.1545 0.1530
2896.000000 0.1515 0.1501 0.1486 0.1471 0.1456
2901.000000 0.1441 0.1427 0.1412 0.1400 0.1390
2906.000000 0.1381 0.1371 0.1362 0.1353 0.1344
2911.000000 0.1335 0.1326 0.1317 0.1307 0.1294
2916.000000 0.1280 0.1267 0.1250 0.1233 0.1215
2921.000000 0.1198 0.1180 0.1163 0.1145 0.1128
2926.000000 0.1110 0.1093 0.1075 0.1058 0.1041
2931.000000 0.1024 0.1006 0.0989 0.0971 0.0954
2936.000000 0.0936 0.0919 0.0902 0.0885 0.0868
2941.000000 0.0851 0.0837 0.0824 0.0811 0.0803
2946.000000 0.0804 0.0805 0.0805 0.0806 0.0807
2951.000000 0.0808 0.0824 0.0812 0.0814 0.0816
2956.000000 0.0822 0.0828 0.0834 0.0841 0.0851
2961.000000 0.0860 0.0870 0.0881 0.0893 0.0905
2966.000000 0.0915 0.0924 0.0933 0.0941 0.0948
2971.000000 0.0954 0.0960 0.0967 0.0973 0.0978
2976.000000 0.0984 0.1018 0.1058 0.1099 0.1153
2981.000000 0.1245 0.1337 0.1429 0.1522 0.1614
2986.000000 0.1706 0.1799 0.1891 0.1983 0.2075
2991.000000 0.2167 0.2259 0.2351 0.2442 0.2534
2996.000000 0.2626 0.2717 0.2809 0.2900 0.2992
3001.000000 0.3083 0.3174 0.3266 0.3357 0.3448
3006.000000 0.3539 0.3630 0.3721 0.3812 0.3903
3011.000000 0.3993 0.4084 0.4174 0.4265 0.4355
3016.000000 0.4445 0.4536 0.4626 0.4716 0.4806
3021.000000 0.4897 0.4987 0.5077 0.5167 0.5257
3026.000000 0.5346 0.5436 0.5526 0.5616 0.5705
3031.000000 0.5795 0.5884 0.5974 0.6063 0.6152
3036.000000 0.6242 0.6331 0.6420 0.6509 0.6598
3041.000000 0.6687 0.6776 0.6865 0.6954 0.7043
3046.000000 0.7131 0.7219 0.7308 0.7384 0.7420
3051.000000 0.7455 0.7491 0.7507 0.7510 0.7511
3056.000000 0.7511 0.7481 0.7441 0.7401 0.7360
3061.000000 0.7267 0.7174 0.7081 0.6988 0.6896
3066.000000 0.6803 0.6710 0.6618 0.6525 0.6433
3071.000000 0.6340 0.6248 0.6156 0.6063 0.5971
3076.000000 0.5879 0.5787 0.5695 0.5603 0.5511
3081.000000 0.5419 0.5328 0.5236 0.5144 0.5053
3086.000000 0.4961 0.4871 0.4781 0.4692 0.4602
3091.000000 0.4583 0.4586 0.4588 0.4590 0.4593
3096.000000 0.4648 0.4677 0.4716 0.4835 0.4954
3101.000000 0.5073 0.5192 0.5311 0.5430 0.5548
3106.000000 0.5667 0.5785 0.5904 0.6022 0.6140
3111.000000 0.6259 0.6377 0.6495 0.6613 0.6731
3116.000000 0.6848 0.6966 0.7084 0.7201 0.7319
3121.000000 0.7436 0.7553 0.7671 0.7788 0.7906
3126.000000 0.8022 0.8139 0.8256 0.8368 0.8425
3131.000000 0.8482 0.8539 0.8589 0.8604 0.8620
3136.000000 0.8635 0.8650 0.8665 0.8679 0.8694
3141.000000 0.8708 0.8721 0.8734 0.8746 0.8758
3146.000000 0.8766 0.8775 0.8784 0.8793 0.8801
3151.000000 0.8810 0.8818 0.8827 0.8836 0.8845
3156.000000 0.8854 0.8862 0.8871 0.8879 0.8888
3161.000000 0.8896 0.8904 0.8911 0.8919 0.8925
3166.000000 0.8929 0.8933 0.8936 0.8940 0.8944
3171.000000 0.8948 0.8951 0.8955 0.8959 0.8962
3176.000000 0.8966 0.8970 0.8974 0.8978 0.8982
3181.000000 0.8986 0.8989 0.8993 0.8997 0.9000
3186.000000 0.9003 0.9006 0.9008 0.9011 0.9014
3191.000000 0.9016 0.9018 0.9021 0.9023 0.9026
3196.000000 0.9028 0.9031 0.9034 0.9037 0.9039
3201.000000 0.9042 0.9046 0.9050 0.9053 0.9057
3206.000000 0.9061 0.9065 0.9069 0.9073 0.9076
3211.000000 0.9080 0.9084 0.9087 0.9091 0.9096
3216.000000 0.9100 0.9104 0.9115 0.9131 0.9147
3221.000000 0.9163 0.9175 0.9178 0.9182 0.9186
3226.000000 0.9189 0.9191 0.9192 0.9194 0.9196
3231.000000 0.9196 0.9197 0.9198 0.9198 0.9199
3236.000000 0.9200 0.9201 0.9201 0.9202 0.9202
3241.000000 0.9202 0.9202 0.9201 0.9201 0.9201
3246.000000 0.9201 0.9200 0.9200 0.9200 0.9200
3251.000000 0.9199 0.9199 0.9199 0.9199 0.9199
3256.000000 0.9198 0.9196 0.9195 0.9194 0.9193
3261.000000 0.9191 0.9190 0.9188 0.9187 0.9185
3266.000000 0.9184 0.9182 0.9180 0.9179 0.9178
3271.000000 0.9176 0.9175 0.9173 0.9172 0.9171
3276.000000 0.9169 0.9168 0.9167 0.9167 0.9166
3281.000000 0.9165 0.9164 0.9163 0.9163 0.9162
3286.000000 0.9161 0.9160 0.9160 0.9159 0.9159
3291.000000 0.9160 0.9161 0.9162 0.9163 0.9167
3296.000000 0.9171 0.9174 0.9178 0.9181 0.9185
3301.000000 0.9188 0.9192 0.9195 0.9199 0.9203
3306.000000 0.9206 0.9210 0.9214 0.9218 0.9222
3311.000000 0.9226 0.9231 0.9235 0.9239 0.9244
3316.000000 0.9248 0.9252 0.9257 0.9261 0.9265
3321.000000 0.9270 0.9274 0.9278 0.9282 0.9287
3326.000000 0.9292 0.9297 0.9301 0.9306 0.9310
3331.000000 0.9315 0.9319 0.9324 0.9329 0.9333
3336.000000 0.9338 0.9343 0.9348 0.9352 0.9357
3341.000000 0.9362 0.9366 0.9371 0.9375 0.9380
3346.000000 0.9384 0.9389 0.9393 0.9398 0.9402
3351.000000 0.9407 0.9409 0.9411 0.9414 0.9416
3356.000000 0.9418 0.9420 0.9423 0.9425 0.9427
3361.000000 0.9429 0.9431 0.9433 0.9435 0.9437
3366.000000 0.9439 0.9441 0.9444 0.9446 0.9448
3371.000000 0.9450 0.9452 0.9454 0.9456 0.9457
3376.000000 0.9457 0.9458 0.9459 0.9460 0.9460
3381.000000 0.9461 0.9461 0.9462 0.9462 0.9462
3386.000000 0.9462 0.9462 0.9463 0.9463 0.9464
3391.000000 0.9464 0.9464 0.9465 0.9465 0.9465
3396.000000 0.9465 0.9466 0.9466 0.9466 0.9466
3401.000000 0.9466 0.9467 0.9467 0.9467 0.9467
3406.000000 0.9467 0.9467 0.9467 0.9467 0.9467
3411.000000 0.9467 0.9467 0.9467 0.9467 0.9467
3416.000000 0.9467 0.9467 0.9467 0.9467 0.9468
3421.000000 0.9468 0.9468 0.9468 0.9468 0.9468
3426.000000 0.9468 0.9468 0.9468 0.9468 0.9468
3431.000000 0.9468 0.9468 0.9468 0.9468 0.9469
3436.000000 0.9469 0.9469 0.9469 0.9470 0.9470
3441.000000 0.9470 0.9470 0.9470 0.9471 0.9471
3446.000000 0.9472 0.9472 0.9472 0.9473 0.9473
3451.000000 0.9473 0.9473 0.9473 0.9474 0.9474
3456.000000 0.9475 0.9475 0.9476 0.9476 0.9476
3461.000000 0.9476 0.9476 0.9477 0.9477 0.9477
3466.000000 0.9477 0.9477 0.9478 0.9478 0.9479
3471.000000 0.9479 0.9479 0.9480 0.9482 0.9483
3476.000000 0.9484 0.9485 0.9487 0.9488 0.9490
3481.000000 0.9491 0.9493 0.9494 0.9496 0.9498
3486.000000 0.9499 0.9501 0.9502 0.9504 0.9505
3491.000000 0.9507 0.9508 0.9511 0.9513 0.9516
3496.000000 0.9518 0.9521 0.9523 0.9526 0.9528
3501.000000 0.9531 0.9533 0.9535 0.9538 0.9540
3506.000000 0.9543 0.9545 0.9548 0.9550 0.9552
3511.000000 0.9555 0.9556 0.9557 0.9557 0.9558
3516.000000 0.9558 0.9558 0.9557 0.9556 0.9555
3521.000000 0.9555 0.9554 0.9553 0.9552 0.9551
3526.000000 0.9551 0.9549 0.9548 0.9547 0.9546
3531.000000 0.9545 0.9543 0.9542 0.9541 0.9540
3536.000000 0.9539 0.9538 0.9537 0.9536 0.9535
3541.000000 0.9534 0.9532 0.9531 0.9530 0.9529
3546.000000 0.9528 0.9526 0.9525 0.9524 0.9523
3551.000000 0.9522 0.9520 0.9519 0.9518 0.9517
3556.000000 0.9516 0.9515 0.9513 0.9512 0.9511
3561.000000 0.9510 0.9508 0.9507 0.9506 0.9504
3566.000000 0.9503 0.9501 0.9500 0.9498 0.9497
3571.000000 0.9495 0.9494 0.9492 0.9490 0.9489
3576.000000 0.9487 0.9486 0.9485 0.9483 0.9482
3581.000000 0.9480 0.9479 0.9478 0.9476 0.9475
3586.000000 0.9474 0.9473 0.9475 0.9478 0.9480
3591.000000 0.9482 0.9485 0.9487 0.9489 0.9492
3596.000000 0.9494 0.9496 0.9499 0.9501 0.9503
3601.000000 0.9505 0.9508 0.9510 0.9512 0.9515
3606.000000 0.9517 0.9519 0.9522 0.9524 0.9527
3611.000000 0.9529 0.9532 0.9534 0.9537 0.9540
3616.000000 0.9543 0.9546 0.9549 0.9553 0.9557
3621.000000 0.9561 0.9565 0.9569 0.9573 0.9576
3626.000000 0.9580 0.9584 0.9588 0.9592 0.9596
3631.000000 0.9600 0.9604 0.9608 0.9612 0.9616
3636.000000 0.9620 0.9624 0.9627 0.9631 0.9635
3641.000000 0.9638 0.9641 0.9644 0.9647 0.9650
3646.000000 0.9653 0.9655 0.9658 0.9660 0.9662
3651.000000 0.9665 0.9667 0.9670 0.9672 0.9675
3656.000000 0.9677 0.9679 0.9682 0.9684 0.9687
3661.000000 0.9688 0.9689 0.9690 0.9692 0.9693
3666.000000 0.9693 0.9693 0.9693 0.9693 0.9693
3671.000000 0.9693 0.9692 0.9692 0.9691 0.9691
3676.000000 0.9691 0.9690 0.9690 0.9690 0.9690
3681.000000 0.9690 0.9689 0.9689 0.9689 0.9689
3686.000000 0.9689 0.9689 0.9688 0.9688 0.9688
3691.000000 0.9688 0.9688 0.9687 0.9687 0.9687
3696.000000 0.9686 0.9686 0.9686 0.9685 0.9685
3701.000000 0.9685 0.9685 0.9685 0.9684 0.9684
3706.000000 0.9684 0.9684 0.9684 0.9684 0.9678
3711.000000 0.9683 0.9682 0.9682 0.9682 0.9681
3716.000000 0.9681 0.9681 0.9681 0.9681 0.9681
3721.000000 0.9680 0.9680 0.9680 0.9680 0.9680
3726.000000 0.9679 0.9679 0.9679 0.9678 0.9678
3731.000000 0.9678 0.9677 0.9677 0.9677 0.9677
3736.000000 0.9677 0.9676 0.9676 0.9676 0.9675
3741.000000 0.9675 0.9675 0.9674 0.9674 0.9674
3746.000000 0.9674 0.9674 0.9674 0.9673 0.9673
3751.000000 0.9673 0.9673 0.9673 0.9672 0.9672
3756.000000 0.9672 0.9671 0.9671 0.9671 0.9670
3761.000000 0.9670 0.9670 0.9670 0.9670 0.9670
3766.000000 0.9669 0.9669 0.9668 0.9668 0.9668
3771.000000 0.9668 0.9668 0.9668 0.9668 0.9668
3776.000000 0.9668 0.9668 0.9668 0.9668 0.9668
3781.000000 0.9668 0.9668 0.9669 0.9669 0.9669
3786.000000 0.9669 0.9669 0.9669 0.9669 0.9669
3791.000000 0.9669 0.9669 0.9669 0.9669 0.9669
3796.000000 0.9669 0.9669 0.9669 0.9669 0.9669
3801.000000 0.9669 0.9669 0.9669 0.9669 0.9669
3806.000000 0.9669 0.9669 0.9669 0.9669 0.9669
3811.000000 0.9669 0.9669 0.9669 0.9669 0.9669
3816.000000 0.9669 0.9669 0.9669 0.9669 0.9669
3821.000000 0.9669 0.9669 0.9669 0.9668 0.9667
3826.000000 0.9667 0.9666 0.9665 0.9664 0.9662
3831.000000 0.9661 0.9660 0.9658 0.9657 0.9656
3836.000000 0.9654 0.9653 0.9652 0.9650 0.9649
3841.000000 0.9647 0.9646 0.9645 0.9643 0.9642
3846.000000 0.9641 0.9639 0.9638 0.9637 0.9635
3851.000000 0.9634 0.9633 0.9631 0.9630 0.9629
3856.000000 0.9627 0.9626 0.9625 0.9621 0.9618
3861.000000 0.9615 0.9612 0.9609 0.9605 0.9602
3866.000000 0.9598 0.9594 0.9590 0.9586 0.9582
3871.000000 0.9579 0.9575 0.9571 0.9567 0.9563
3876.000000 0.9559 0.9555 0.9551 0.9547 0.9543
3881.000000 0.9539 0.9535 0.9532 0.9528 0.9524
3886.000000 0.9520 0.9516 0.9513 0.9509 0.9505
3891.000000 0.9501 0.9497 0.9493 0.9489 0.9485
3896.000000 0.9481 0.9477 0.9473 0.9469 0.9465
3901.000000 0.9461 0.9458 0.9454 0.9450 0.9446
3906.000000 0.9442 0.9439 0.9435 0.9431 0.9427
3911.000000 0.9423 0.9419 0.9416 0.9413 0.9410
3916.000000 0.9407 0.9405 0.9402 0.9400 0.9398
3921.000000 0.9397 0.9395 0.9394 0.9392 0.9391
3926.000000 0.9390 0.9388 0.9387 0.9385 0.9384
3931.000000 0.9382 0.9381 0.9379 0.9378 0.9376
3936.000000 0.9375 0.9374 0.9372 0.9370 0.9369
3941.000000 0.9367 0.9365 0.9364 0.9362 0.9361
3946.000000 0.9359 0.9358 0.9357 0.9355 0.9354
3951.000000 0.9352 0.9351 0.9349 0.9348 0.9347
3956.000000 0.9345 0.9344 0.9342 0.9341 0.9339
3961.000000 0.9338 0.9336 0.9335 0.9334 0.9332
3966.000000 0.9331 0.9329 0.9328 0.9326 0.9325
3971.000000 0.9324 0.9322 0.9321 0.9319 0.9318
3976.000000 0.9316 0.9315 0.9314 0.9312 0.9311
3981.000000 0.9309 0.9308 0.9307 0.9305 0.9304
3986.000000 0.9302 0.9301 0.9300 0.9300 0.9300
3991.000000 0.9300 0.9300 0.9300 0.9299 0.9299
3996.000000 0.9299 0.9298 0.9298 0.9298 0.9298
##END=
