##TITLE=BUTYLAMINE HYDROFLUORIDE
##JCAMP-DX=4.24
$$ By DXEDIT 1.05 (RS McDonald)
##DATA TYPE=INFRARED SPECTRUM
##CLASS=COBLENTZ III
##ORIGIN=WYANDOTTE CHEMICALS CORP.
##OWNER=COBLENTZ SOC.
Collection (C) 2018 copyright by the U.S. Secretary of Commerce
on behalf of the United States of America. All rights reserved.
##DATE=1960/10/25
##MOLFORM=C4 H12 F N
##SOURCE REFERENCE=COBLENTZ NO. 05884
##$NIST ID=B6005884
##$NIST SOURCE=COBLENTZ
##$NIST IMAGE=cob5884
##SPECTROMETER/DATA SYSTEM=BAIRD (GRATING)
##INSTRUMENT PARAMETERS=NaCl PRISM
##STATE=SOLID (OIL MULL)
##PATH LENGTH=
$$SPECTRAL CONTAMINATION DUE TO OIL AROUND 2900 CM^-^1
$$ SPECTRAL CONTAMINATION DUE TO AN UNKNOWN AROUND 664 CM^-^1
##SAMPLING PROCEDURE=TRANSMISSION
##RESOLUTION=2
##DATA PROCESSING=DIGITIZED BY COBLENTZ SOCIETY (BATCH I) FROM HARD COPY (ADJUSTED \addmicron\0.02um\)
##XUNITS=1/CM
##YUNITS=TRANSMITTANCE
##XLABEL=Wavenumbers (cm-1)
##YLABEL=Transmittance
##XFACTOR=1
##YFACTOR=1
##DELTAX=0.990233
##FIRSTX=3968.25
##LASTX=627.207
##FIRSTY=0.928
##MAXX=3968.25
##MINX=627.207
##MAXY=0.9453
##MINY=0.0299
##NPOINTS=3375
##XYDATA=(X++(Y..Y))
3968.253968 0.9280 0.9280 0.9281 0.9281 0.9282
3963.302803 0.9283 0.9283 0.9284 0.9284 0.9285
3958.351637 0.9285 0.9286 0.9286 0.9287 0.9287
3953.400472 0.9288 0.9288 0.9289 0.9289 0.9289
3948.449306 0.9290 0.9290 0.9290 0.9290 0.9290
3943.498141 0.9290 0.9290 0.9290 0.9290 0.9290
3938.546975 0.9290 0.9290 0.9291 0.9291 0.9291
3933.595809 0.9291 0.9291 0.9291 0.9291 0.9292
3928.644644 0.9292 0.9292 0.9292 0.9292 0.9292
3923.693478 0.9293 0.9293 0.9293 0.9293 0.9293
3918.742313 0.9293 0.9293 0.9293 0.9293 0.9293
3913.791147 0.9293 0.9293 0.9294 0.9294 0.9294
3908.839982 0.9294 0.9294 0.9294 0.9294 0.9294
3903.888816 0.9294 0.9294 0.9293 0.9293 0.9293
3898.937651 0.9292 0.9291 0.9291 0.9290 0.9289
3893.986485 0.9289 0.9288 0.9288 0.9287 0.9287
3889.035320 0.9286 0.9286 0.9285 0.9285 0.9284
3884.084154 0.9283 0.9282 0.9281 0.9281 0.9280
3879.132989 0.9280 0.9279 0.9278 0.9278 0.9278
3874.181823 0.9277 0.9277 0.9276 0.9275 0.9275
3869.230657 0.9275 0.9275 0.9274 0.9274 0.9274
3864.279492 0.9273 0.9273 0.9273 0.9273 0.9273
3859.328326 0.9273 0.9272 0.9271 0.9271 0.9271
3854.377161 0.9271 0.9271 0.9271 0.9270 0.9270
3849.425995 0.9270 0.9270 0.9270 0.9270 0.9269
3844.474830 0.9268 0.9268 0.9268 0.9268 0.9268
3839.523664 0.9267 0.9267 0.9267 0.9267 0.9267
3834.572499 0.9267 0.9267 0.9268 0.9270 0.9271
3829.621333 0.9271 0.9273 0.9274 0.9275 0.9277
3824.670168 0.9278 0.9278 0.9281 0.9282 0.9283
3819.719002 0.9285 0.9286 0.9287 0.9289 0.9290
3814.767836 0.9291 0.9293 0.9294 0.9295 0.9297
3809.816671 0.9299 0.9301 0.9304 0.9306 0.9308
3804.865505 0.9311 0.9314 0.9318 0.9321 0.9324
3799.914340 0.9328 0.9331 0.9335 0.9338 0.9341
3794.963174 0.9345 0.9348 0.9352 0.9355 0.9359
3790.012009 0.9362 0.9365 0.9368 0.9371 0.9375
3785.060843 0.9378 0.9383 0.9386 0.9389 0.9393
3780.109678 0.9396 0.9400 0.9403 0.9407 0.9410
3775.158512 0.9412 0.9414 0.9416 0.9418 0.9420
3770.207347 0.9421 0.9424 0.9425 0.9428 0.9431
3765.256181 0.9433 0.9435 0.9437 0.9440 0.9442
3760.305016 0.9444 0.9446 0.9448 0.9449 0.9450
3755.353850 0.9451 0.9452 0.9453 0.9453 0.9453
3750.402684 0.9452 0.9452 0.9452 0.9451 0.9451
3745.451519 0.9451 0.9450 0.9450 0.9450 0.9449
3740.500353 0.9449 0.9449 0.9449 0.9448 0.9448
3735.549188 0.9448 0.9448 0.9447 0.9447 0.9446
3730.598022 0.9444 0.9440 0.9436 0.9431 0.9427
3725.646857 0.9423 0.9418 0.9412 0.9406 0.9400
3720.695691 0.9395 0.9390 0.9387 0.9384 0.9380
3715.744526 0.9377 0.9375 0.9373 0.9371 0.9370
3710.793360 0.9368 0.9368 0.9366 0.9365 0.9363
3705.842195 0.9362 0.9360 0.9358 0.9357 0.9356
3700.891029 0.9354 0.9353 0.9351 0.9350 0.9348
3695.939863 0.9347 0.9345 0.9343 0.9342 0.9341
3690.988698 0.9340 0.9339 0.9338 0.9338 0.9337
3686.037532 0.9337 0.9336 0.9335 0.9335 0.9334
3681.086367 0.9334 0.9333 0.9333 0.9332 0.9332
3676.135201 0.9331 0.9331 0.9330 0.9329 0.9328
3671.184036 0.9328 0.9328 0.9327 0.9326 0.9325
3666.232870 0.9325 0.9324 0.9324 0.9323 0.9322
3661.281705 0.9321 0.9321 0.9321 0.9320 0.9320
3656.330539 0.9319 0.9318 0.9318 0.9317 0.9317
3651.379374 0.9316 0.9316 0.9315 0.9315 0.9314
3646.428208 0.9314 0.9313 0.9312 0.9312 0.9311
3641.477043 0.9310 0.9309 0.9308 0.9307 0.9306
3636.525877 0.9304 0.9303 0.9302 0.9301 0.9300
3631.574711 0.9299 0.9298 0.9297 0.9296 0.9294
3626.623546 0.9293 0.9292 0.9291 0.9290 0.9289
3621.672380 0.9288 0.9287 0.9285 0.9284 0.9283
3616.721215 0.9282 0.9281 0.9280 0.9278 0.9277
3611.770049 0.9275 0.9275 0.9274 0.9273 0.9271
3606.818884 0.9271 0.9270 0.9268 0.9267 0.9266
3601.867718 0.9265 0.9264 0.9263 0.9262 0.9260
3596.916553 0.9259 0.9257 0.9254 0.9252 0.9249
3591.965387 0.9247 0.9244 0.9241 0.9239 0.9236
3587.014222 0.9233 0.9231 0.9228 0.9225 0.9223
3582.063056 0.9220 0.9217 0.9213 0.9210 0.9206
3577.111891 0.9203 0.9199 0.9196 0.9193 0.9189
3572.160725 0.9186 0.9183 0.9180 0.9176 0.9173
3567.209559 0.9170 0.9166 0.9163 0.9159 0.9156
3562.258394 0.9152 0.9149 0.9146 0.9143 0.9139
3557.307228 0.9136 0.9133 0.9129 0.9126 0.9123
3552.356063 0.9119 0.9116 0.9114 0.9111 0.9108
3547.404897 0.9106 0.9103 0.9100 0.9098 0.9096
3542.453732 0.9093 0.9091 0.9089 0.9086 0.9084
3537.502566 0.9082 0.9079 0.9077 0.9074 0.9072
3532.551401 0.9070 0.9067 0.9065 0.9063 0.9060
3527.600235 0.9058 0.9056 0.9053 0.9051 0.9048
3522.649070 0.9046 0.9044 0.9041 0.9039 0.9036
3517.697904 0.9034 0.9032 0.9029 0.9027 0.9025
3512.746738 0.9023 0.9020 0.9018 0.9016 0.9014
3507.795573 0.9012 0.9010 0.9008 0.9006 0.9004
3502.844407 0.9002 0.9000 0.8998 0.8996 0.8994
3497.893242 0.8992 0.8990 0.8988 0.8986 0.8984
3492.942076 0.8982 0.8980 0.8978 0.8976 0.8974
3487.990911 0.8972 0.8969 0.8967 0.8966 0.8964
3483.039745 0.8962 0.8960 0.8958 0.8956 0.8954
3478.088580 0.8952 0.8950 0.8948 0.8946 0.8944
3473.137414 0.8942 0.8939 0.8937 0.8935 0.8933
3468.186249 0.8931 0.8929 0.8926 0.8924 0.8922
3463.235083 0.8920 0.8919 0.8917 0.8915 0.8913
3458.283918 0.8911 0.8909 0.8907 0.8905 0.8902
3453.332752 0.8900 0.8898 0.8896 0.8894 0.8891
3448.381586 0.8889 0.8887 0.8885 0.8883 0.8881
3443.430421 0.8879 0.8876 0.8874 0.8872 0.8869
3438.479255 0.8867 0.8866 0.8864 0.8862 0.8860
3433.528090 0.8858 0.8856 0.8854 0.8852 0.8849
3428.576924 0.8847 0.8844 0.8842 0.8839 0.8837
3423.625759 0.8835 0.8833 0.8831 0.8829 0.8826
3418.674593 0.8824 0.8822 0.8819 0.8816 0.8814
3413.723428 0.8812 0.8809 0.8807 0.8805 0.8802
3408.772262 0.8800 0.8797 0.8794 0.8792 0.8789
3403.821097 0.8786 0.8783 0.8780 0.8777 0.8774
3398.869931 0.8771 0.8768 0.8765 0.8761 0.8758
3393.918765 0.8754 0.8751 0.8747 0.8744 0.8740
3388.967600 0.8736 0.8733 0.8728 0.8725 0.8721
3384.016434 0.8718 0.8715 0.8711 0.8707 0.8703
3379.065269 0.8699 0.8695 0.8691 0.8688 0.8684
3374.114103 0.8680 0.8677 0.8673 0.8668 0.8665
3369.162938 0.8661 0.8655 0.8650 0.8644 0.8639
3364.211772 0.8633 0.8625 0.8618 0.8610 0.8603
3359.260607 0.8595 0.8588 0.8581 0.8573 0.8566
3354.309441 0.8558 0.8550 0.8542 0.8534 0.8525
3349.358276 0.8517 0.8508 0.8499 0.8490 0.8482
3344.407110 0.8473 0.8465 0.8457 0.8448 0.8438
3339.455945 0.8429 0.8420 0.8410 0.8399 0.8387
3334.504779 0.8376 0.8365 0.8354 0.8343 0.8331
3329.553613 0.8320 0.8309 0.8297 0.8285 0.8274
3324.602448 0.8263 0.8251 0.8240 0.8228 0.8216
3319.651282 0.8205 0.8190 0.8175 0.8160 0.8146
3314.700117 0.8130 0.8114 0.8098 0.8082 0.8065
3309.748951 0.8050 0.8035 0.8018 0.8003 0.7987
3304.797786 0.7971 0.7955 0.7939 0.7922 0.7906
3299.846620 0.7890 0.7872 0.7857 0.7840 0.7822
3294.895455 0.7806 0.7788 0.7771 0.7754 0.7738
3289.944289 0.7721 0.7704 0.7687 0.7670 0.7654
3284.993124 0.7638 0.7624 0.7611 0.7597 0.7584
3280.041958 0.7571 0.7557 0.7544 0.7531 0.7517
3275.090793 0.7504 0.7491 0.7477 0.7464 0.7450
3270.139627 0.7437 0.7424 0.7410 0.7397 0.7383
3265.188461 0.7369 0.7356 0.7342 0.7329 0.7316
3260.237296 0.7302 0.7288 0.7272 0.7255 0.7240
3255.286130 0.7223 0.7206 0.7189 0.7171 0.7155
3250.334965 0.7138 0.7121 0.7105 0.7088 0.7071
3245.383799 0.7054 0.7037 0.7019 0.7002 0.6982
3240.432634 0.6962 0.6942 0.6922 0.6900 0.6878
3235.481468 0.6855 0.6833 0.6811 0.6788 0.6765
3230.530303 0.6742 0.6720 0.6697 0.6674 0.6652
3225.579137 0.6630 0.6608 0.6586 0.6564 0.6543
3220.627972 0.6521 0.6500 0.6479 0.6457 0.6435
3215.676806 0.6413 0.6392 0.6369 0.6341 0.6308
3210.725640 0.6275 0.6243 0.6210 0.6176 0.6142
3205.774475 0.6109 0.6079 0.6054 0.6031 0.6007
3200.823309 0.5984 0.5960 0.5937 0.5912 0.5888
3195.872144 0.5865 0.5841 0.5817 0.5791 0.5763
3190.920978 0.5732 0.5701 0.5670 0.5632 0.5592
3185.969813 0.5552 0.5509 0.5441 0.5358 0.5275
3181.018647 0.5193 0.5145 0.5118 0.5091 0.5063
3176.067482 0.5039 0.5016 0.4993 0.4970 0.4948
3171.116316 0.4926 0.4903 0.4881 0.4858 0.4836
3166.165151 0.4813 0.4790 0.4768 0.4745 0.4723
3161.213985 0.4701 0.4679 0.4656 0.4634 0.4611
3156.262820 0.4589 0.4567 0.4545 0.4523 0.4503
3151.311654 0.4484 0.4465 0.4446 0.4428 0.4408
3146.360488 0.4389 0.4371 0.4352 0.4333 0.4315
3141.409323 0.4296 0.4277 0.4258 0.4239 0.4221
3136.458157 0.4194 0.4159 0.4123 0.4087 0.4045
3131.506992 0.3999 0.3952 0.3905 0.3856 0.3804
3126.555826 0.3752 0.3700 0.3649 0.3600 0.3551
3121.604661 0.3502 0.3459 0.3420 0.3382 0.3344
3116.653495 0.3306 0.3268 0.3230 0.3192 0.3161
3111.702330 0.3131 0.3103 0.3074 0.3047 0.3020
3106.751164 0.2993 0.2967 0.2944 0.2923 0.2901
3101.799999 0.2880 0.2863 0.2846 0.2829 0.2811
3096.848833 0.2788 0.2767 0.2744 0.2720 0.2689
3091.897667 0.2660 0.2629 0.2599 0.2568 0.2538
3086.946502 0.2507 0.2476 0.2446 0.2415 0.2384
3081.995336 0.2353 0.2322 0.2291 0.2261 0.2230
3077.044171 0.2199 0.2168 0.2137 0.2107 0.2076
3072.093005 0.2045 0.2014 0.1982 0.1951 0.1920
3067.141840 0.1888 0.1858 0.1827 0.1796 0.1764
3062.190674 0.1733 0.1702 0.1671 0.1634 0.1594
3057.239509 0.1556 0.1518 0.1484 0.1452 0.1420
3052.288343 0.1392 0.1372 0.1352 0.1333 0.1314
3047.337178 0.1298 0.1282 0.1266 0.1250 0.1234
3042.386012 0.1218 0.1202 0.1188 0.1174 0.1159
3037.434847 0.1146 0.1138 0.1129 0.1121 0.1112
3032.483681 0.1103 0.1094 0.1085 0.1077 0.1068
3027.532515 0.1060 0.1051 0.1042 0.1033 0.1024
3022.581350 0.1015 0.1006 0.0996 0.0988 0.0978
3017.630184 0.0967 0.0956 0.0945 0.0935 0.0925
3012.679019 0.0915 0.0904 0.0894 0.0884 0.0874
3007.727853 0.0864 0.0854 0.0842 0.0833 0.0821
3002.776688 0.0812 0.0802 0.0791 0.0781 0.0770
2997.825522 0.0760 0.0748 0.0737 0.0725 0.0713
2992.874357 0.0701 0.0689 0.0677 0.0665 0.0654
2987.923191 0.0642 0.0629 0.0617 0.0604 0.0592
2982.972026 0.0579 0.0566 0.0553 0.0540 0.0528
2978.020860 0.0517 0.0505 0.0494 0.0484 0.0474
2973.069694 0.0465 0.0455 0.0445 0.0435 0.0425
2968.118529 0.0416 0.0406 0.0397 0.0388 0.0380
2963.167363 0.0372 0.0365 0.0359 0.0353 0.0348
2958.216198 0.0343 0.0338 0.0333 0.0328 0.0324
2953.265032 0.0321 0.0318 0.0315 0.0312 0.0308
2948.313867 0.0305 0.0303 0.0301 0.0299 0.0299
2943.362701 0.0299 0.0301 0.0303 0.0304 0.0306
2938.411536 0.0308 0.0310 0.0311 0.0312 0.0314
2933.460370 0.0315 0.0316 0.0318 0.0320 0.0321
2928.509205 0.0323 0.0324 0.0325 0.0326 0.0328
2923.558039 0.0329 0.0330 0.0332 0.0334 0.0335
2918.606874 0.0336 0.0338 0.0339 0.0340 0.0341
2913.655708 0.0343 0.0344 0.0346 0.0347 0.0349
2908.704542 0.0350 0.0351 0.0353 0.0354 0.0355
2903.753377 0.0356 0.0358 0.0359 0.0361 0.0362
2898.802211 0.0363 0.0364 0.0365 0.0366 0.0367
2893.851046 0.0369 0.0370 0.0371 0.0372 0.0372
2888.899880 0.0373 0.0374 0.0375 0.0376 0.0378
2883.948715 0.0379 0.0380 0.0381 0.0381 0.0383
2878.997549 0.0384 0.0385 0.0386 0.0387 0.0389
2874.046384 0.0390 0.0392 0.0393 0.0395 0.0397
2869.095218 0.0399 0.0401 0.0403 0.0405 0.0407
2864.144053 0.0409 0.0411 0.0414 0.0417 0.0420
2859.192887 0.0422 0.0426 0.0428 0.0431 0.0435
2854.241722 0.0438 0.0443 0.0448 0.0453 0.0457
2849.290556 0.0462 0.0467 0.0472 0.0481 0.0492
2844.339390 0.0502 0.0512 0.0522 0.0533 0.0543
2839.388225 0.0554 0.0564 0.0575 0.0586 0.0596
2834.437059 0.0608 0.0620 0.0633 0.0647 0.0660
2829.485894 0.0673 0.0686 0.0700 0.0713 0.0726
2824.534728 0.0740 0.0755 0.0770 0.0786 0.0804
2819.583563 0.0822 0.0840 0.0857 0.0874 0.0890
2814.632397 0.0902 0.0911 0.0920 0.0929 0.0938
2809.681232 0.0946 0.0955 0.0964 0.0972 0.0979
2804.730066 0.0983 0.0987 0.0990 0.0994 0.0997
2799.778901 0.1001 0.1004 0.1008 0.1011 0.1014
2794.827735 0.1018 0.1021 0.1024 0.1027 0.1030
2789.876569 0.1033 0.1035 0.1038 0.1040 0.1041
2784.925404 0.1044 0.1047 0.1049 0.1051 0.1053
2779.974238 0.1055 0.1058 0.1060 0.1062 0.1065
2775.023073 0.1067 0.1070 0.1072 0.1074 0.1077
2770.071907 0.1079 0.1081 0.1083 0.1085 0.1087
2765.120742 0.1089 0.1091 0.1093 0.1095 0.1097
2760.169576 0.1099 0.1101 0.1103 0.1105 0.1107
2755.218411 0.1109 0.1110 0.1112 0.1114 0.1116
2750.267245 0.1117 0.1119 0.1121 0.1123 0.1125
2745.316080 0.1127 0.1129 0.1131 0.1133 0.1135
2740.364914 0.1137 0.1139 0.1140 0.1142 0.1142
2735.413749 0.1143 0.1145 0.1146 0.1146 0.1147
2730.462583 0.1149 0.1150 0.1151 0.1152 0.1153
2725.511417 0.1155 0.1156 0.1157 0.1158 0.1159
2720.560252 0.1160 0.1160 0.1160 0.1161 0.1161
2715.609086 0.1161 0.1162 0.1162 0.1162 0.1163
2710.657921 0.1163 0.1164 0.1165 0.1165 0.1165
2705.706755 0.1166 0.1166 0.1166 0.1167 0.1167
2700.755590 0.1167 0.1167 0.1167 0.1167 0.1166
2695.804424 0.1162 0.1158 0.1153 0.1146 0.1140
2690.853259 0.1134 0.1128 0.1121 0.1115 0.1108
2685.902093 0.1101 0.1093 0.1085 0.1076 0.1068
2680.950928 0.1059 0.1050 0.1044 0.1039 0.1034
2675.999762 0.1031 0.1029 0.1028 0.1029 0.1030
2671.048596 0.1031 0.1034 0.1037 0.1040 0.1042
2666.097431 0.1044 0.1048 0.1050 0.1053 0.1057
2661.146265 0.1064 0.1071 0.1079 0.1088 0.1097
2656.195100 0.1104 0.1111 0.1118 0.1124 0.1129
2651.243934 0.1134 0.1139 0.1143 0.1148 0.1153
2646.292769 0.1157 0.1162 0.1167 0.1172 0.1177
2641.341603 0.1181 0.1184 0.1187 0.1190 0.1193
2636.390438 0.1195 0.1198 0.1200 0.1203 0.1206
2631.439272 0.1209 0.1211 0.1214 0.1215 0.1214
2626.488107 0.1213 0.1210 0.1205 0.1200 0.1194
2621.536941 0.1189 0.1184 0.1178 0.1173 0.1167
2616.585776 0.1160 0.1153 0.1146 0.1139 0.1132
2611.634610 0.1125 0.1118 0.1111 0.1105 0.1098
2606.683444 0.1091 0.1084 0.1076 0.1069 0.1062
2601.732279 0.1055 0.1048 0.1041 0.1035 0.1030
2596.781113 0.1026 0.1022 0.1018 0.1015 0.1011
2591.829948 0.1008 0.1004 0.1001 0.0997 0.0993
2586.878782 0.0990 0.0987 0.0984 0.0981 0.0977
2581.927617 0.0973 0.0969 0.0965 0.0961 0.0958
2576.976451 0.0954 0.0950 0.0947 0.0943 0.0938
2572.025286 0.0934 0.0931 0.0927 0.0923 0.0921
2567.074120 0.0918 0.0915 0.0912 0.0908 0.0905
2562.122955 0.0902 0.0898 0.0894 0.0892 0.0889
2557.171789 0.0886 0.0884 0.0882 0.0880 0.0877
2552.220624 0.0875 0.0873 0.0871 0.0869 0.0867
2547.269458 0.0866 0.0864 0.0862 0.0860 0.0859
2542.318292 0.0859 0.0859 0.0859 0.0859 0.0860
2537.367127 0.0860 0.0860 0.0861 0.0861 0.0861
2532.415961 0.0862 0.0862 0.0863 0.0863 0.0863
2527.464796 0.0864 0.0865 0.0866 0.0869 0.0871
2522.513630 0.0875 0.0879 0.0882 0.0886 0.0888
2517.562465 0.0892 0.0895 0.0899 0.0903 0.0906
2512.611299 0.0909 0.0913 0.0916 0.0920 0.0924
2507.660134 0.0927 0.0930 0.0933 0.0937 0.0940
2502.708968 0.0944 0.0946 0.0948 0.0950 0.0952
2497.757803 0.0954 0.0956 0.0958 0.0960 0.0962
2492.806637 0.0964 0.0966 0.0968 0.0970 0.0972
2487.855471 0.0974 0.0976 0.0978 0.0980 0.0983
2482.904306 0.0986 0.0988 0.0991 0.0994 0.0996
2477.953140 0.1001 0.1003 0.1006 0.1009 0.1012
2473.001975 0.1015 0.1018 0.1020 0.1024 0.1027
2468.050809 0.1030 0.1033 0.1037 0.1040 0.1044
2463.099644 0.1048 0.1052 0.1056 0.1059 0.1063
2458.148478 0.1068 0.1073 0.1080 0.1090 0.1103
2453.197313 0.1116 0.1128 0.1141 0.1154 0.1167
2448.246147 0.1180 0.1192 0.1206 0.1220 0.1233
2443.294982 0.1242 0.1249 0.1255 0.1260 0.1264
2438.343816 0.1269 0.1274 0.1278 0.1283 0.1287
2433.392651 0.1292 0.1298 0.1305 0.1313 0.1321
2428.441485 0.1329 0.1337 0.1344 0.1352 0.1361
2423.490319 0.1369 0.1377 0.1385 0.1393 0.1400
2418.539154 0.1408 0.1416 0.1424 0.1432 0.1440
2413.587988 0.1448 0.1456 0.1464 0.1472 0.1480
2408.636823 0.1488 0.1497 0.1505 0.1513 0.1520
2403.685657 0.1528 0.1536 0.1544 0.1556 0.1568
2398.734492 0.1582 0.1595 0.1609 0.1623 0.1637
2393.783326 0.1653 0.1669 0.1686 0.1703 0.1720
2388.832161 0.1737 0.1753 0.1770 0.1787 0.1804
2383.880995 0.1820 0.1836 0.1852 0.1868 0.1882
2378.929830 0.1897 0.1912 0.1927 0.1942 0.1957
2373.978664 0.1972 0.1987 0.2002 0.2017 0.2032
2369.027498 0.2047 0.2062 0.2077 0.2092 0.2107
2364.076333 0.2125 0.2144 0.2162 0.2181 0.2200
2359.125167 0.2218 0.2237 0.2256 0.2275 0.2294
2354.174002 0.2313 0.2332 0.2351 0.2370 0.2389
2349.222836 0.2407 0.2425 0.2443 0.2461 0.2479
2344.271671 0.2498 0.2516 0.2534 0.2553 0.2571
2339.320505 0.2589 0.2607 0.2625 0.2643 0.2663
2334.369340 0.2683 0.2706 0.2731 0.2756 0.2781
2329.418174 0.2806 0.2831 0.2862 0.2899 0.2944
2324.467009 0.3001 0.3058 0.3102 0.3140 0.3173
2319.515843 0.3203 0.3233 0.3264 0.3291 0.3316
2314.564678 0.3339 0.3362 0.3385 0.3407 0.3429
2309.613512 0.3452 0.3473 0.3491 0.3507 0.3522
2304.662346 0.3537 0.3552 0.3567 0.3583 0.3598
2299.711181 0.3610 0.3621 0.3631 0.3641 0.3651
2294.760015 0.3661 0.3671 0.3679 0.3689 0.3697
2289.808850 0.3706 0.3715 0.3725 0.3732 0.3737
2284.857684 0.3741 0.3744 0.3747 0.3751 0.3754
2279.906519 0.3757 0.3759 0.3761 0.3762 0.3762
2274.955353 0.3762 0.3762 0.3761 0.3748 0.3743
2270.004188 0.3744 0.3734 0.3710 0.3683 0.3656
2265.053022 0.3628 0.3602 0.3576 0.3549 0.3522
2260.101857 0.3496 0.3470 0.3440 0.3407 0.3370
2255.150691 0.3329 0.3288 0.3247 0.3209 0.3175
2250.199526 0.3143 0.3110 0.3078 0.3046 0.3013
2245.248360 0.2979 0.2941 0.2894 0.2844 0.2793
2240.297194 0.2742 0.2696 0.2651 0.2610 0.2570
2235.346029 0.2530 0.2488 0.2432 0.2368 0.2291
2230.394863 0.2210 0.2148 0.2099 0.2055 0.2013
2225.443698 0.1964 0.1911 0.1866 0.1825 0.1793
2220.492532 0.1767 0.1750 0.1739 0.1731 0.1727
2215.541367 0.1702 0.1708 0.1721 0.1720 0.1720
2210.590201 0.1720 0.1722 0.1727 0.1737 0.1749
2205.639036 0.1761 0.1774 0.1791 0.1813 0.1837
2200.687870 0.1863 0.1889 0.1914 0.1940 0.1965
2195.736705 0.1991 0.2017 0.2042 0.2071 0.2104
2190.785539 0.2137 0.2172 0.2208 0.2244 0.2281
2185.834373 0.2318 0.2360 0.2407 0.2453 0.2499
2180.883208 0.2545 0.2589 0.2623 0.2652 0.2681
2175.932042 0.2710 0.2739 0.2767 0.2796 0.2825
2170.980877 0.2854 0.2883 0.2912 0.2942 0.2973
2166.029711 0.3003 0.3034 0.3065 0.3095 0.3126
2161.078546 0.3157 0.3188 0.3218 0.3249 0.3281
2156.127380 0.3312 0.3343 0.3374 0.3405 0.3437
2151.176215 0.3468 0.3499 0.3532 0.3566 0.3600
2146.225049 0.3634 0.3669 0.3704 0.3739 0.3774
2141.273884 0.3809 0.3846 0.3887 0.3934 0.3985
2136.322718 0.4038 0.4091 0.4140 0.4185 0.4227
2131.371553 0.4268 0.4315 0.4369 0.4430 0.4487
2126.420387 0.4535 0.4565 0.4577 0.4583 0.4583
2121.469221 0.4583 0.4583 0.4584 0.4584 0.4584
2116.518056 0.4584 0.4584 0.4585 0.4587 0.4591
2111.566890 0.4598 0.4609 0.4624 0.4642 0.4662
2106.615725 0.4681 0.4700 0.4720 0.4741 0.4763
2101.664559 0.4784 0.4805 0.4826 0.4847 0.4868
2096.713394 0.4890 0.4911 0.4932 0.4951 0.4966
2091.762228 0.4980 0.4994 0.5008 0.5021 0.5035
2086.811063 0.5048 0.5063 0.5077 0.5089 0.5099
2081.859897 0.5106 0.5113 0.5122 0.5134 0.5148
2076.908732 0.5162 0.5176 0.5190 0.5204 0.5218
2071.957566 0.5232 0.5246 0.5260 0.5274 0.5289
2067.006400 0.5305 0.5320 0.5335 0.5350 0.5365
2062.055235 0.5380 0.5395 0.5411 0.5426 0.5441
2057.104069 0.5456 0.5471 0.5485 0.5498 0.5512
2052.152904 0.5523 0.5531 0.5539 0.5547 0.5555
2047.201738 0.5563 0.5571 0.5579 0.5587 0.5594
2042.250573 0.5600 0.5601 0.5602 0.5604 0.5606
2037.299407 0.5608 0.5609 0.5611 0.5613 0.5615
2032.348242 0.5617 0.5620 0.5624 0.5629 0.5634
2027.397076 0.5639 0.5643 0.5648 0.5653 0.5657
2022.445911 0.5662 0.5668 0.5673 0.5680 0.5690
2017.494745 0.5701 0.5712 0.5723 0.5734 0.5745
2012.543580 0.5761 0.5784 0.5808 0.5831 0.5854
2007.592414 0.5876 0.5896 0.5917 0.5940 0.5961
2002.641248 0.5982 0.6004 0.6029 0.6054 0.6079
1997.690083 0.6102 0.6120 0.6130 0.6138 0.6146
1992.738917 0.6153 0.6159 0.6161 0.6162 0.6163
1987.787752 0.6163 0.6158 0.6151 0.6142 0.6132
1982.836586 0.6117 0.6097 0.6076 0.6063 0.6052
1977.885421 0.6045 0.6047 0.6055 0.6072 0.6090
1972.934255 0.6108 0.6128 0.6163 0.6210 0.6253
1967.983090 0.6292 0.6326 0.6356 0.6385 0.6415
1963.031924 0.6445 0.6473 0.6499 0.6523 0.6546
1958.080759 0.6571 0.6597 0.6625 0.6658 0.6689
1953.129593 0.6709 0.6724 0.6739 0.6752 0.6765
1948.178427 0.6779 0.6794 0.6808 0.6820 0.6832
1943.227262 0.6844 0.6855 0.6867 0.6880 0.6892
1938.276096 0.6903 0.6914 0.6927 0.6938 0.6949
1933.324931 0.6960 0.6971 0.6981 0.6989 0.6997
1928.373765 0.7001 0.7003 0.7003 0.7001 0.7001
1923.422600 0.6999 0.6995 0.6986 0.6974 0.6964
1918.471434 0.6957 0.6953 0.6948 0.6944 0.6944
1913.520269 0.6945 0.6948 0.6952 0.6955 0.6959
1908.569103 0.6967 0.6983 0.7001 0.7019 0.7036
1903.617938 0.7053 0.7071 0.7090 0.7109 0.7127
1898.666772 0.7145 0.7163 0.7182 0.7201 0.7218
1893.715607 0.7235 0.7249 0.7259 0.7270 0.7283
1888.764441 0.7295 0.7307 0.7319 0.7329 0.7336
1883.813275 0.7342 0.7348 0.7353 0.7358 0.7364
1878.862110 0.7369 0.7375 0.7381 0.7386 0.7390
1873.910944 0.7392 0.7393 0.7395 0.7397 0.7398
1868.959779 0.7400 0.7403 0.7405 0.7406 0.7408
1864.008613 0.7410 0.7410 0.7410 0.7408 0.7406
1859.057448 0.7405 0.7404 0.7401 0.7400 0.7398
1854.106282 0.7397 0.7394 0.7384 0.7372 0.7361
1849.155117 0.7351 0.7341 0.7330 0.7319 0.7311
1844.203951 0.7301 0.7291 0.7281 0.7271 0.7262
1839.252786 0.7254 0.7245 0.7237 0.7228 0.7219
1834.301620 0.7211 0.7191 0.7190 0.7189 0.7189
1829.350455 0.7189 0.7193 0.7200 0.7207 0.7216
1824.399289 0.7224 0.7235 0.7256 0.7279 0.7295
1819.448123 0.7300 0.7301 0.7301 0.7301 0.7301
1814.496958 0.7303 0.7305 0.7307 0.7308 0.7310
1809.545792 0.7311 0.7316 0.7323 0.7333 0.7343
1804.594627 0.7353 0.7363 0.7373 0.7383 0.7394
1799.643461 0.7404 0.7414 0.7428 0.7448 0.7470
1794.692296 0.7492 0.7508 0.7523 0.7540 0.7555
1789.741130 0.7565 0.7574 0.7583 0.7588 0.7591
1784.789965 0.7592 0.7593 0.7594 0.7596 0.7597
1779.838799 0.7598 0.7599 0.7599 0.7599 0.7599
1774.887634 0.7597 0.7596 0.7594 0.7593 0.7588
1769.936468 0.7580 0.7573 0.7564 0.7556 0.7548
1764.985302 0.7540 0.7526 0.7508 0.7490 0.7470
1760.034137 0.7450 0.7430 0.7410 0.7390 0.7370
1755.082971 0.7349 0.7328 0.7307 0.7287 0.7268
1750.131806 0.7250 0.7234 0.7222 0.7213 0.7207
1745.180640 0.7205 0.7205 0.7205 0.7204 0.7204
1740.229475 0.7204 0.7203 0.7202 0.7201 0.7200
1735.278309 0.7199 0.7190 0.7174 0.7156 0.7133
1730.327144 0.7105 0.7077 0.7051 0.7026 0.7005
1725.375978 0.6990 0.6987 0.6990 0.6991 0.6991
1720.424813 0.6988 0.6983 0.6978 0.6964 0.6945
1715.473647 0.6927 0.6912 0.6900 0.6894 0.6892
1710.522482 0.6892 0.6894 0.6896 0.6898 0.6899
1705.571316 0.6898 0.6898 0.6895 0.6884 0.6868
1700.620150 0.6849 0.6828 0.6805 0.6778 0.6749
1695.668985 0.6721 0.6691 0.6659 0.6620 0.6577
1690.717819 0.6532 0.6486 0.6433 0.6372 0.6311
1685.766654 0.6250 0.6188 0.6126 0.6063 0.5995
1680.815488 0.5919 0.5841 0.5765 0.5692 0.5597
1675.864323 0.5442 0.5249 0.5056 0.4863 0.4669
1670.913157 0.4476 0.4282 0.4088 0.3894 0.3699
1665.961992 0.3505 0.3309 0.3115 0.2920 0.2724
1661.010826 0.2528 0.2337 0.2192 0.2140 0.2142
1656.059661 0.2141 0.2145 0.2238 0.2437 0.2639
1651.108495 0.2840 0.3031 0.3182 0.3286 0.3362
1646.157329 0.3425 0.3481 0.3537 0.3593 0.3642
1641.206164 0.3680 0.3716 0.3751 0.3786 0.3821
1636.254998 0.3854 0.3887 0.3919 0.3952 0.3983
1631.303833 0.4007 0.4029 0.4050 0.4070 0.4091
1626.352667 0.4113 0.4136 0.4159 0.4183 0.4206
1621.401502 0.4229 0.4251 0.4272 0.4292 0.4312
1616.450336 0.4332 0.4349 0.4367 0.4385 0.4403
1611.499171 0.4422 0.4442 0.4462 0.4480 0.4493
1606.548005 0.4504 0.4516 0.4526 0.4526 0.4535
1601.596840 0.4529 0.4516 0.4491 0.4452 0.4408
1596.645674 0.4344 0.4269 0.4187 0.4089 0.3963
1591.694509 0.3764 0.3525 0.3369 0.3301 0.3263
1586.743343 0.3214 0.3240 0.3250 0.3270 0.3306
1581.792177 0.3355 0.3411 0.3470 0.3533 0.3598
1576.841012 0.3672 0.3768 0.3880 0.4006 0.4149
1571.889846 0.4274 0.4383 0.4498 0.4592 0.4661
1566.938681 0.4704 0.4714 0.4714 0.4712 0.4710
1561.987515 0.4710 0.4710 0.4710 0.4710 0.4712
1557.036350 0.4715 0.4717 0.4718 0.4720 0.4722
1552.085184 0.4724 0.4724 0.4700 0.4668 0.4643
1547.134019 0.4624 0.4608 0.4598 0.4593 0.4596
1542.182853 0.4626 0.4664 0.4705 0.4767 0.4834
1537.231688 0.4898 0.4953 0.5007 0.5061 0.5117
1532.280522 0.5162 0.5203 0.5233 0.5255 0.5267
1527.329357 0.5275 0.5288 0.5300 0.5312 0.5328
1522.378191 0.5344 0.5361 0.5386 0.5411 0.5440
1517.427025 0.5465 0.5476 0.5489 0.5486 0.5396
1512.475860 0.5256 0.5111 0.4966 0.4820 0.4674
1507.524694 0.4529 0.4382 0.4187 0.4155 0.4148
1502.573529 0.4147 0.4238 0.4415 0.4601 0.4787
1497.622363 0.4973 0.5141 0.5217 0.5224 0.5223
1492.671198 0.5220 0.5210 0.5197 0.5178 0.5145
1487.720032 0.5036 0.4835 0.4608 0.4379 0.4148
1482.768867 0.3918 0.3688 0.3457 0.3226 0.3093
1477.817701 0.3054 0.3052 0.3085 0.3290 0.3576
1472.866536 0.3808 0.3907 0.3944 0.3972 0.4002
1467.915370 0.4039 0.4079 0.4119 0.4161 0.4218
1462.964204 0.4282 0.4371 0.4544 0.4757 0.4957
1458.013039 0.5147 0.5333 0.5509 0.5643 0.5737
1453.061873 0.5821 0.5908 0.6002 0.6150 0.6349
1448.110708 0.6481 0.6575 0.6660 0.6739 0.6817
1443.159542 0.6887 0.6939 0.6973 0.7001 0.7023
1438.208377 0.7041 0.7058 0.7075 0.7090 0.7103
1433.257211 0.7110 0.7114 0.7119 0.7121 0.7121
1428.306046 0.7121 0.7113 0.7092 0.7058 0.6971
1423.354880 0.6817 0.6640 0.6463 0.6287 0.6109
1418.403715 0.5931 0.5752 0.5574 0.5396 0.5243
1413.452549 0.5189 0.5194 0.5209 0.5271 0.5366
1408.501384 0.5455 0.5542 0.5645 0.5758 0.5864
1403.550218 0.5960 0.6056 0.6217 0.6400 0.6487
1398.599052 0.6510 0.6529 0.6535 0.6526 0.6496
1393.647887 0.6438 0.6372 0.6274 0.6167 0.6085
1388.696721 0.6025 0.5985 0.5953 0.5910 0.5889
1383.745556 0.5925 0.5991 0.6108 0.6236 0.6418
1378.794390 0.6696 0.6906 0.6962 0.7005 0.7043
1373.843225 0.7078 0.7113 0.7150 0.7190 0.7222
1368.892059 0.7245 0.7266 0.7288 0.7305 0.7293
1363.940894 0.7278 0.7229 0.7163 0.7095 0.7015
1358.989728 0.6918 0.6861 0.6870 0.6948 0.7176
1354.038563 0.7305 0.7317 0.7328 0.7339 0.7349
1349.087397 0.7359 0.7370 0.7381 0.7390 0.7399
1344.136231 0.7407 0.7414 0.7423 0.7433 0.7441
1339.185066 0.7449 0.7454 0.7458 0.7462 0.7466
1334.233900 0.7469 0.7472 0.7476 0.7485 0.7477
1329.282735 0.7474 0.7470 0.7466 0.7459 0.7447
1324.331569 0.7419 0.7372 0.7320 0.7261 0.7203
1319.380404 0.7147 0.7097 0.7063 0.7032 0.6997
1314.429238 0.6964 0.6951 0.6956 0.6967 0.6999
1309.478073 0.7042 0.7121 0.7201 0.7280 0.7343
1304.526907 0.7349 0.7349 0.7347 0.7327 0.7305
1299.575742 0.7285 0.7274 0.7262 0.7253 0.7251
1294.624576 0.7251 0.7251 0.7251 0.7249 0.7247
1289.673411 0.7239 0.7219 0.7198 0.7176 0.7147
1284.722245 0.7115 0.7101 0.7097 0.7079 0.7113
1279.771079 0.7135 0.7155 0.7174 0.7194 0.7213
1274.819914 0.7232 0.7249 0.7267 0.7286 0.7304
1269.868748 0.7323 0.7341 0.7360 0.7378 0.7393
1264.917583 0.7409 0.7424 0.7442 0.7454 0.7460
1259.966417 0.7461 0.7461 0.7521 0.7458 0.7437
1255.015252 0.7428 0.7419 0.7407 0.7395 0.7383
1250.064086 0.7371 0.7358 0.7346 0.7334 0.7321
1245.112921 0.7313 0.7305 0.7298 0.7290 0.7283
1240.161755 0.7276 0.7267 0.7260 0.7252 0.7244
1235.210590 0.7236 0.7227 0.7219 0.7208 0.7193
1230.259424 0.7176 0.7158 0.7138 0.7112 0.7071
1225.308259 0.7026 0.6976 0.6903 0.6812 0.6722
1220.357093 0.6657 0.6607 0.6560 0.6514 0.6474
1215.405927 0.6438 0.6401 0.6368 0.6340 0.6319
1210.454762 0.6305 0.6297 0.6291 0.6284 0.6296
1205.503596 0.6286 0.6272 0.6270 0.6272 0.6284
1200.552431 0.6302 0.6325 0.6359 0.6399 0.6441
1195.601265 0.6493 0.6543 0.6577 0.6604 0.6625
1190.650100 0.6636 0.6641 0.6650 0.6667 0.6685
1185.698934 0.6704 0.6723 0.6741 0.6763 0.6792
1180.747769 0.6825 0.6857 0.6890 0.6923 0.6958
1175.796603 0.6994 0.7031 0.7069 0.7105 0.7146
1170.845438 0.7195 0.7245 0.7295 0.7344 0.7387
1165.894272 0.7428 0.7470 0.7512 0.7553 0.7595
1160.943106 0.7633 0.7667 0.7699 0.7731 0.7764
1155.991941 0.7796 0.7828 0.7860 0.7891 0.7921
1151.040775 0.7951 0.7978 0.7999 0.8021 0.8042
1146.089610 0.8062 0.8082 0.8103 0.8123 0.8142
1141.138444 0.8159 0.8176 0.8190 0.8199 0.8212
1136.187279 0.8228 0.8185 0.8176 0.8169 0.8161
1131.236113 0.8153 0.8145 0.8137 0.8128 0.8120
1126.284948 0.8112 0.8104 0.8096 0.8088 0.8079
1121.333782 0.8070 0.8063 0.8054 0.8045 0.8037
1116.382617 0.8027 0.8020 0.8010 0.8002 0.7993
1111.431451 0.7984 0.7971 0.7956 0.7944 0.7932
1106.480286 0.7910 0.7869 0.7767 0.7671 0.7617
1101.529120 0.7563 0.7520 0.7477 0.7436 0.7384
1096.577954 0.7325 0.7268 0.7208 0.7151 0.7099
1091.626789 0.7049 0.6998 0.6946 0.6898 0.6850
1086.675623 0.6802 0.6755 0.6709 0.6657 0.6597
1081.724458 0.6537 0.6476 0.6410 0.6345 0.6284
1076.773292 0.6194 0.6200 0.6227 0.6278 0.6367
1071.822127 0.6501 0.6645 0.6759 0.6857 0.6936
1066.870961 0.7010 0.7081 0.7146 0.7203 0.7252
1061.919796 0.7242 0.7228 0.7217 0.7217 0.7219
1056.968630 0.7201 0.7168 0.7135 0.7099 0.7060
1052.017465 0.7023 0.6984 0.6941 0.6886 0.6827
1047.066299 0.6782 0.6746 0.6711 0.6675 0.6639
1042.115133 0.6600 0.6562 0.6522 0.6482 0.6432
1037.163968 0.6429 0.6429 0.6447 0.6508 0.6575
1032.212802 0.6634 0.6686 0.6730 0.6771 0.6808
1027.261637 0.6835 0.6852 0.6860 0.6865 0.6869
1022.310471 0.6873 0.6878 0.6884 0.6904 0.6938
1017.359306 0.6977 0.7023 0.7073 0.7123 0.7174
1012.408140 0.7232 0.7295 0.7359 0.7414 0.7458
1007.456975 0.7498 0.7539 0.7580 0.7622 0.7664
1002.505809 0.7702 0.7739 0.7776 0.7814 0.7853
997.554644 0.7893 0.7927 0.7955 0.7981 0.7998
992.603478 0.8010 0.8021 0.8029 0.8036 0.8042
987.652313 0.8048 0.8053 0.8056 0.8060 0.8074
982.701147 0.8086 0.8070 0.8068 0.8067 0.8065
977.749981 0.8063 0.8060 0.8056 0.8047 0.8028
972.798816 0.8007 0.7982 0.7954 0.7928 0.7905
967.847650 0.7892 0.7891 0.7913 0.7932 0.7949
962.896485 0.7962 0.7968 0.7973 0.7979 0.7985
957.945319 0.7990 0.7990 0.7988 0.7976 0.7964
952.994154 0.7947 0.7929 0.7911 0.7893 0.7875
948.042988 0.7859 0.7846 0.7833 0.7819 0.7805
943.091823 0.7791 0.7776 0.7759 0.7740 0.7702
938.140657 0.7650 0.7584 0.7515 0.7442 0.7364
933.189492 0.7210 0.7038 0.6861 0.6683 0.6508
928.238326 0.6346 0.6154 0.6083 0.6101 0.6153
923.287160 0.6345 0.6564 0.6787 0.6904 0.6908
918.335995 0.6915 0.6933 0.6950 0.6983 0.7036
913.384829 0.7097 0.7169 0.7240 0.7320 0.7404
908.433664 0.7485 0.7562 0.7631 0.7690 0.7754
903.482498 0.7809 0.7856 0.7824 0.7774 0.7722
898.531333 0.7669 0.7631 0.7614 0.7630 0.7703
893.580167 0.7784 0.7856 0.7927 0.7988 0.8045
888.629002 0.8099 0.8153 0.8205 0.8242 0.8271
883.677836 0.8284 0.8291 0.8298 0.8299 0.8295
878.726671 0.8291 0.8286 0.8282 0.8282 0.8296
873.775505 0.8313 0.8332 0.8351 0.8369 0.8388
868.824340 0.8407 0.8425 0.8444 0.8463 0.8481
863.873174 0.8497 0.8512 0.8528 0.8544 0.8560
858.922008 0.8574 0.8589 0.8604 0.8618 0.8630
853.970843 0.8634 0.8630 0.8626 0.8623 0.8618
849.019677 0.8610 0.8601 0.8592 0.8582 0.8576
844.068512 0.8575 0.8575 0.8575 0.8577 0.8582
839.117346 0.8608 0.8617 0.8603 0.8614 0.8625
834.166181 0.8635 0.8643 0.8648 0.8649 0.8650
829.215015 0.8651 0.8651 0.8648 0.8640 0.8630
824.263850 0.8621 0.8611 0.8601 0.8590 0.8578
819.312684 0.8566 0.8554 0.8541 0.8527 0.8511
814.361519 0.8496 0.8481 0.8464 0.8446 0.8419
809.410353 0.8389 0.8353 0.8312 0.8253 0.8162
804.459188 0.8052 0.7918 0.7754 0.7603 0.7603
799.508022 0.7650 0.7723 0.7762 0.7789 0.7812
794.556856 0.7830 0.7841 0.7849 0.7841 0.7818
789.605691 0.7773 0.7739 0.7722 0.7734 0.7766
784.654525 0.7811 0.7855 0.7893 0.7918 0.7906
779.703360 0.7883 0.7868 0.7876 0.7905 0.7943
774.752194 0.7964 0.7944 0.7920 0.7892 0.7864
769.801029 0.7838 0.7815 0.7794 0.7771 0.7723
764.849863 0.7665 0.7571 0.7465 0.7362 0.7275
759.898698 0.7199 0.7123 0.7058 0.6994 0.6930
754.947532 0.6873 0.6814 0.6746 0.6657 0.6567
749.996367 0.6485 0.6362 0.6108 0.5673 0.5348
745.045201 0.5058 0.4732 0.4516 0.4443 0.4419
740.094035 0.4504 0.4708 0.4983 0.5282 0.5548
735.142870 0.5757 0.5960 0.6177 0.6366 0.6543
730.191704 0.6711 0.6850 0.6968 0.7064 0.7150
725.240539 0.7216 0.7274 0.7321 0.7346 0.7356
720.289373 0.7358 0.7367 0.7397 0.7437 0.7479
715.338208 0.7521 0.7558 0.7593 0.7625 0.7653
710.387042 0.7681 0.7707 0.7729 0.7744 0.7760
705.435877 0.7777 0.7794 0.7812 0.7835 0.7859
700.484711 0.7882 0.7902 0.7920 0.7938 0.7953
695.533546 0.7964 0.7977 0.7988 0.8000 0.8010
690.582380 0.8019 0.8029 0.8034 0.8035 0.8035
685.631215 0.8035 0.8035 0.8035 0.8028 0.8008
680.680049 0.7974 0.7928 0.7877 0.7832 0.7797
675.728883 0.7778 0.7772 0.7772 0.7775 0.7783
670.777718 0.7791 0.7796 0.7789 0.7732 0.7559
665.826552 0.7317 0.7068 0.6892 0.6929 0.7030
660.875387 0.7205 0.7352 0.7446 0.7482 0.7494
655.924221 0.7481 0.7456 0.7394 0.7341 0.7318
650.973056 0.7291 0.7221 0.7146 0.7093 0.7040
646.021890 0.6997 0.6952 0.6912 0.6870 0.6824
641.070725 0.6776 0.6725 0.6670 0.6613 0.6558
636.119559 0.6504 0.6452 0.6403 0.6356 0.6304
631.168394 0.6250 0.6202 0.6159 0.6131 0.6108
##END=
