##TITLE=Tetradecane-1-sulfonic acid, sodium salt
##JCAMP-DX=4.24
##DATA TYPE=INFRARED SPECTRUM
##CLASS=COBLENTZ
##ORIGIN=COLGATE-PALMOLIVE COMPANY (KELLENBACH)
##OWNER=Copyright (C) 1987 by the Coblentz Society
Collection (C) 2018 copyright by the U.S. Secretary of Commerce
on behalf of the United States of America. All rights reserved.
##DATE=1974/04/03
##MOLFORM=C14 H29 O3 S Na
##SOURCE REFERENCE=COBLENTZ NO. 9746
##$NIST ID=B6009746
##$NIST SOURCE=COBLENTZ
##$NIST IMAGE=cob9746
##SPECTROMETER/DATA SYSTEM=BECKMAN IR-12 (GRATING)
##INSTRUMENT PARAMETERS=GRATING
##STATE=SOLID (1 mg / 100 mg KBr DISC)
$$SPECTRAL CONTAMINATION DUE TO H2O AROUND 3450, 1650 (H2O VAPOR), AND UNKNOWNS AROUND 2360, 200 CM^-^1
##SAMPLING PROCEDURE=TRANSMISSION
##RESOLUTION=2
##DATA PROCESSING=DIGITIZED BY COBLENTZ SOCIETY (BATCH II) FROM HARD COPY
##XUNITS=1/CM
##YUNITS=TRANSMITTANCE
##XFACTOR=1.0
##YFACTOR=1
##FIRSTX=203
##LASTX=4000
##FIRSTY=0.0814
##MAXX=4000
##MINX=203
##MAXY=0.9514
##MINY=0.0554
##NPOINTS=3798
##XYDATA=(X++(Y..Y))
203.000000 0.0814 0.0804 0.0795 0.0785 0.0772
208.000000 0.0754 0.0735 0.0723 0.0720 0.0718
213.000000 0.0723 0.0738 0.0763 0.0794 0.0880
218.000000 0.0985 0.1097 0.1198 0.1299 0.1383
223.000000 0.1446 0.1508 0.1571 0.1644 0.1718
228.000000 0.1870 0.2039 0.2209 0.2378 0.2548
233.000000 0.2717 0.2886 0.3056 0.3225 0.3395
238.000000 0.3557 0.3692 0.3739 0.3786 0.3834
243.000000 0.3881 0.3928 0.3989 0.4056 0.4123
248.000000 0.4190 0.4265 0.4347 0.4429 0.4557
253.000000 0.4692 0.4817 0.4942 0.5068 0.5193
258.000000 0.5319 0.5445 0.5570 0.5696 0.5822
263.000000 0.5947 0.6073 0.6199 0.6324 0.6450
268.000000 0.6576 0.6701 0.6827 0.6877 0.6917
273.000000 0.6948 0.6952 0.6956 0.6959 0.6961
278.000000 0.6976 0.7031 0.7086 0.7141 0.7197
283.000000 0.7252 0.7307 0.7363 0.7418 0.7473
288.000000 0.7528 0.7584 0.7639 0.7694 0.7750
293.000000 0.7805 0.7854 0.7901 0.7924 0.7940
298.000000 0.7942 0.7943 0.7945 0.7946 0.7948
303.000000 0.7950 0.7952 0.7954 0.7963 0.7987
308.000000 0.8011 0.8067 0.8124 0.8180 0.8232
313.000000 0.8285 0.8337 0.8390 0.8443 0.8496
318.000000 0.8550 0.8605 0.8660 0.8707 0.8745
323.000000 0.8784 0.8809 0.8819 0.8828 0.8825
328.000000 0.8823 0.8820 0.8826 0.8834 0.8857
333.000000 0.8883 0.8909 0.8935 0.8961 0.8982
338.000000 0.9000 0.9000 0.9001 0.8995 0.8989
343.000000 0.8983 0.8977 0.8971 0.8965 0.8956
348.000000 0.8946 0.8936 0.8926 0.8916 0.8907
353.000000 0.8898 0.8889 0.8882 0.8879 0.8877
358.000000 0.8874 0.8872 0.8869 0.8867 0.8869
363.000000 0.8873 0.8877 0.8881 0.8884 0.8888
368.000000 0.8892 0.8896 0.8904 0.8912 0.8921
373.000000 0.8929 0.8938 0.8952 0.8967 0.8982
378.000000 0.8998 0.9013 0.9028 0.9043 0.9059
383.000000 0.9078 0.9102 0.9125 0.9149 0.9172
388.000000 0.9196 0.9219 0.9242 0.9260 0.9277
393.000000 0.9294 0.9311 0.9329 0.9346 0.9363
398.000000 0.9381 0.9396 0.9401 0.9406 0.9411
403.000000 0.9416 0.9421 0.9426 0.9431 0.9436
408.000000 0.9441 0.9446 0.9451 0.9454 0.9457
413.000000 0.9460 0.9463 0.9466 0.9469 0.9472
418.000000 0.9475 0.9477 0.9465 0.9479 0.9480
423.000000 0.9481 0.9481 0.9482 0.9483 0.9484
428.000000 0.9482 0.9480 0.9477 0.9475 0.9472
433.000000 0.9470 0.9467 0.9465 0.9462 0.9457
438.000000 0.9452 0.9448 0.9443 0.9437 0.9429
443.000000 0.9420 0.9411 0.9403 0.9394 0.9386
448.000000 0.9377 0.9365 0.9349 0.9333 0.9317
453.000000 0.9301 0.9292 0.9288 0.9283 0.9279
458.000000 0.9281 0.9286 0.9291 0.9295 0.9300
463.000000 0.9305 0.9312 0.9319 0.9327 0.9334
468.000000 0.9341 0.9349 0.9356 0.9364 0.9371
473.000000 0.9379 0.9386 0.9394 0.9401 0.9409
478.000000 0.9419 0.9430 0.9440 0.9450 0.9463
483.000000 0.9482 0.9502 0.9514 0.9512 0.9502
488.000000 0.9491 0.9481 0.9468 0.9446 0.9425
493.000000 0.9403 0.9381 0.9361 0.9341 0.9321
498.000000 0.9302 0.9284 0.9265 0.9247 0.9226
503.000000 0.9205 0.9184 0.9163 0.9145 0.9129
508.000000 0.9113 0.9096 0.9083 0.9070 0.9057
513.000000 0.9045 0.9039 0.9032 0.9026 0.9020
518.000000 0.9013 0.9012 0.8952 0.8846 0.8741
523.000000 0.8635 0.8530 0.8425 0.8319 0.8214
528.000000 0.8108 0.8003 0.7898 0.7792 0.7687
533.000000 0.7582 0.7495 0.7455 0.7421 0.7391
538.000000 0.7385 0.7380 0.7395 0.7377 0.7386
543.000000 0.7400 0.7413 0.7427 0.7443 0.7460
548.000000 0.7481 0.7503 0.7526 0.7548 0.7566
553.000000 0.7583 0.7601 0.7620 0.7645 0.7670
558.000000 0.7704 0.7757 0.7811 0.7882 0.7951
563.000000 0.8015 0.8080 0.8144 0.8209 0.8273
568.000000 0.8324 0.8374 0.8413 0.8453 0.8492
573.000000 0.8531 0.8568 0.8602 0.8635 0.8667
578.000000 0.8693 0.8720 0.8746 0.8768 0.8786
583.000000 0.8803 0.8825 0.8852 0.8878 0.8921
588.000000 0.8949 0.8971 0.8926 0.8974 0.8951
593.000000 0.8914 0.8875 0.8841 0.8823 0.8807
598.000000 0.8803 0.8802 0.8789 0.8759 0.8725
603.000000 0.8687 0.8638 0.8591 0.8545 0.8499
608.000000 0.8430 0.8356 0.8253 0.8042 0.7797
613.000000 0.7553 0.7308 0.7063 0.6819 0.6574
618.000000 0.6329 0.6085 0.5840 0.5595 0.5351
623.000000 0.5106 0.5096 0.5114 0.5109 0.5269
628.000000 0.5600 0.5930 0.6261 0.6591 0.6921
633.000000 0.7252 0.7582 0.7848 0.7913 0.7960
638.000000 0.7996 0.8019 0.8033 0.8045 0.8065
643.000000 0.8096 0.8134 0.8172 0.8237 0.8328
648.000000 0.8416 0.8490 0.8561 0.8599 0.8637
653.000000 0.8675 0.8704 0.8722 0.8739 0.8757
658.000000 0.8775 0.8791 0.8806 0.8821 0.8836
663.000000 0.8851 0.8861 0.8867 0.8874 0.8881
668.000000 0.8888 0.8894 0.8899 0.8903 0.8908
673.000000 0.8913 0.8918 0.8922 0.8924 0.8926
678.000000 0.8928 0.8930 0.8931 0.8935 0.8939
683.000000 0.8944 0.8948 0.8953 0.8957 0.8960
688.000000 0.8960 0.8961 0.8962 0.8978 0.8963
693.000000 0.8963 0.8961 0.8959 0.8958 0.8956
698.000000 0.8954 0.8952 0.8951 0.8943 0.8930
703.000000 0.8918 0.8905 0.8892 0.8876 0.8860
708.000000 0.8844 0.8828 0.8798 0.8765 0.8734
713.000000 0.8706 0.8677 0.8648 0.8560 0.8339
718.000000 0.8117 0.7896 0.7675 0.7453 0.7232
723.000000 0.7084 0.7092 0.7093 0.7173 0.7285
728.000000 0.7397 0.7509 0.7621 0.7733 0.7845
733.000000 0.7957 0.8068 0.8180 0.8292 0.8404
738.000000 0.8516 0.8628 0.8676 0.8680 0.8679
743.000000 0.8679 0.8674 0.8661 0.8649 0.8636
748.000000 0.8630 0.8627 0.8640 0.8663 0.8688
753.000000 0.8737 0.8785 0.8817 0.8837 0.8856
758.000000 0.8864 0.8873 0.8881 0.8889 0.8897
763.000000 0.8904 0.8909 0.8914 0.8919 0.8924
768.000000 0.8929 0.8935 0.8941 0.8926 0.8955
773.000000 0.8962 0.8969 0.8978 0.8989 0.8987
778.000000 0.8911 0.8836 0.8761 0.8685 0.8610
783.000000 0.8534 0.8459 0.8384 0.8308 0.8233
788.000000 0.8157 0.8082 0.8007 0.7931 0.7856
793.000000 0.7780 0.7705 0.7630 0.7554 0.7484
798.000000 0.7452 0.7421 0.7396 0.7383 0.7387
803.000000 0.7383 0.7415 0.7528 0.7641 0.7754
808.000000 0.7867 0.7979 0.8092 0.8205 0.8318
813.000000 0.8431 0.8543 0.8656 0.8769 0.8827
818.000000 0.8838 0.8848 0.8859 0.8872 0.8886
823.000000 0.8899 0.8912 0.8925 0.8938 0.8951
828.000000 0.8963 0.8976 0.8987 0.8996 0.9005
833.000000 0.9014 0.9023 0.9031 0.9037 0.9043
838.000000 0.9049 0.9055 0.9061 0.9067 0.9072
843.000000 0.9077 0.9083 0.9088 0.9092 0.9095
848.000000 0.9098 0.9101 0.9104 0.9107 0.9110
853.000000 0.9113 0.9116 0.9120 0.9123 0.9127
858.000000 0.9131 0.9134 0.9138 0.9141 0.9145
863.000000 0.9148 0.9150 0.9153 0.9156 0.9159
868.000000 0.9162 0.9164 0.9171 0.9169 0.9170
873.000000 0.9171 0.9172 0.9173 0.9174 0.9174
878.000000 0.9174 0.9173 0.9172 0.9172 0.9171
883.000000 0.9170 0.9168 0.9165 0.9163 0.9161
888.000000 0.9158 0.9156 0.9154 0.9148 0.9142
893.000000 0.9135 0.9129 0.9123 0.9117 0.9111
898.000000 0.9104 0.9097 0.9091 0.9084 0.9077
903.000000 0.9071 0.9064 0.9058 0.9054 0.9050
908.000000 0.9046 0.9042 0.9039 0.9038 0.9037
913.000000 0.9036 0.9035 0.9034 0.9033 0.9032
918.000000 0.9034 0.9037 0.9039 0.9042 0.9044
923.000000 0.9047 0.9050 0.9052 0.9057 0.9062
928.000000 0.9067 0.9072 0.9077 0.9082 0.9088
933.000000 0.9093 0.9098 0.9103 0.9108 0.9112
938.000000 0.9116 0.9120 0.9124 0.9128 0.9132
943.000000 0.9136 0.9140 0.9144 0.9148 0.9148
948.000000 0.9148 0.9148 0.9148 0.9147 0.9147
953.000000 0.9147 0.9147 0.9147 0.9147 0.9147
958.000000 0.9145 0.9140 0.9136 0.9132 0.9127
963.000000 0.9123 0.9119 0.9114 0.9110 0.9105
968.000000 0.9101 0.9093 0.9086 0.9078 0.9070
973.000000 0.9063 0.9055 0.9048 0.9040 0.9032
978.000000 0.9025 0.9013 0.9002 0.8990 0.8979
983.000000 0.8967 0.8956 0.8944 0.8933 0.8921
988.000000 0.8910 0.8899 0.8888 0.8878 0.8868
993.000000 0.8858 0.8848 0.8848 0.8848 0.8848
998.000000 0.8848 0.8848 0.8848 0.8849 0.8849
1003.000000 0.8851 0.8853 0.8855 0.8857 0.8859
1008.000000 0.8862 0.8864 0.8866 0.8868 0.8870
1013.000000 0.8871 0.8872 0.8873 0.8874 0.8875
1018.000000 0.8876 0.8877 0.8878 0.8879 0.8880
1023.000000 0.8881 0.8882 0.8878 0.8873 0.8869
1028.000000 0.8864 0.8853 0.8811 0.8674 0.8537
1033.000000 0.8400 0.8263 0.8126 0.7989 0.7853
1038.000000 0.7716 0.7579 0.7442 0.7305 0.7168
1043.000000 0.7031 0.6894 0.6757 0.6620 0.6483
1048.000000 0.6336 0.6201 0.6036 0.5861 0.5737
1053.000000 0.5633 0.5529 0.5415 0.5299 0.5031
1058.000000 0.4786 0.4720 0.4583 0.4314 0.4046
1063.000000 0.3778 0.3509 0.3241 0.2973 0.2705
1068.000000 0.2436 0.2421 0.2377 0.2378 0.2533
1073.000000 0.2997 0.3461 0.3925 0.4389 0.4853
1078.000000 0.5317 0.5781 0.6245 0.6488 0.6593
1083.000000 0.6974 0.7106 0.7207 0.7284 0.7329
1088.000000 0.7373 0.7417 0.7461 0.7506 0.7552
1093.000000 0.7597 0.7633 0.7657 0.7682 0.7706
1098.000000 0.7728 0.7745 0.7756 0.7759 0.7758
1103.000000 0.7748 0.7743 0.7742 0.7744 0.7784
1108.000000 0.7828 0.7871 0.7924 0.7901 0.7865
1113.000000 0.7824 0.7783 0.7741 0.7722 0.7732
1118.000000 0.7748 0.7793 0.7838 0.7862 0.7870
1123.000000 0.7847 0.7835 0.7821 0.7801 0.7776
1128.000000 0.7750 0.7722 0.7685 0.7662 0.7640
1133.000000 0.7618 0.7603 0.7590 0.7576 0.7546
1138.000000 0.7510 0.7468 0.7426 0.7357 0.7288
1143.000000 0.7217 0.7146 0.7085 0.7030 0.6976
1148.000000 0.6918 0.6838 0.6758 0.6678 0.6301
1153.000000 0.6169 0.5936 0.5792 0.5584 0.5370
1158.000000 0.5157 0.4944 0.4730 0.4517 0.4304
1163.000000 0.4090 0.3877 0.3664 0.3450 0.3237
1168.000000 0.3024 0.2810 0.2597 0.2383 0.2170
1173.000000 0.1957 0.1743 0.1680 0.1637 0.1594
1178.000000 0.1551 0.1512 0.1475 0.1441 0.1416
1183.000000 0.1407 0.1412 0.1412 0.1422 0.1445
1188.000000 0.1463 0.1481 0.1504 0.1519 0.1533
1193.000000 0.1548 0.1562 0.1576 0.1588 0.1597
1198.000000 0.1607 0.1616 0.1628 0.1640 0.1652
1203.000000 0.1663 0.1672 0.1682 0.1691 0.1701
1208.000000 0.1708 0.1715 0.1727 0.1745 0.1795
1213.000000 0.1868 0.1989 0.2105 0.2193 0.2293
1218.000000 0.2343 0.2393 0.2430 0.2466 0.2503
1223.000000 0.2552 0.2625 0.2775 0.2917 0.3087
1228.000000 0.3258 0.3428 0.3598 0.3768 0.3939
1233.000000 0.4109 0.4279 0.4430 0.4511 0.4563
1238.000000 0.4616 0.4665 0.4714 0.4752 0.4782
1243.000000 0.4814 0.4874 0.4948 0.5037 0.5127
1248.000000 0.5242 0.5357 0.5471 0.5586 0.5700
1253.000000 0.5815 0.5930 0.6044 0.6159 0.6273
1258.000000 0.6388 0.6503 0.6617 0.6622 0.6588
1263.000000 0.6555 0.6522 0.6488 0.6476 0.6476
1268.000000 0.6531 0.6630 0.6729 0.6828 0.6927
1273.000000 0.7026 0.7125 0.7224 0.7323 0.7419
1278.000000 0.7490 0.7546 0.7556 0.7539 0.7519
1283.000000 0.7499 0.7481 0.7466 0.7451 0.7442
1288.000000 0.7468 0.7520 0.7609 0.7672 0.7700
1293.000000 0.7673 0.7655 0.7640 0.7624 0.7609
1298.000000 0.7594 0.7585 0.7626 0.7670 0.7743
1303.000000 0.7776 0.7793 0.7809 0.7799 0.7784
1308.000000 0.7770 0.7756 0.7743 0.7750 0.7765
1313.000000 0.7796 0.7828 0.7860 0.7895 0.7930
1318.000000 0.7965 0.8000 0.8028 0.8054 0.8079
1323.000000 0.8106 0.8133 0.8160 0.8188 0.8205
1328.000000 0.8222 0.8226 0.8219 0.8213 0.8207
1333.000000 0.8206 0.8214 0.8221 0.8228 0.8232
1338.000000 0.8228 0.8223 0.8219 0.8206 0.8193
1343.000000 0.8179 0.8179 0.8184 0.8189 0.8193
1348.000000 0.8224 0.8256 0.8275 0.8277 0.8251
1353.000000 0.8232 0.8217 0.8202 0.8211 0.8221
1358.000000 0.8237 0.8256 0.8288 0.8341 0.8339
1363.000000 0.8313 0.8284 0.8249 0.8231 0.8225
1368.000000 0.8226 0.8232 0.8240 0.8240 0.8222
1373.000000 0.8182 0.8133 0.8091 0.8057 0.8023
1378.000000 0.7995 0.7972 0.7979 0.8032 0.8088
1383.000000 0.8144 0.8200 0.8246 0.8237 0.8229
1388.000000 0.8214 0.8212 0.8271 0.8215 0.8225
1393.000000 0.8232 0.8236 0.8235 0.8232 0.8229
1398.000000 0.8222 0.8212 0.8202 0.8193 0.8181
1403.000000 0.8168 0.8156 0.8140 0.8123 0.8106
1408.000000 0.8088 0.8059 0.8018 0.7968 0.7928
1413.000000 0.7897 0.7898 0.7899 0.7902 0.7906
1418.000000 0.7934 0.7953 0.7972 0.7990 0.8009
1423.000000 0.8027 0.8044 0.8062 0.8067 0.8071
1428.000000 0.8076 0.8080 0.8078 0.8074 0.8070
1433.000000 0.8099 0.8044 0.8027 0.8013 0.7999
1438.000000 0.7985 0.7972 0.7979 0.7987 0.7993
1443.000000 0.7997 0.7987 0.7978 0.7968 0.7947
1448.000000 0.7917 0.7874 0.7808 0.7757 0.7708
1453.000000 0.7659 0.7582 0.7478 0.7393 0.7308
1458.000000 0.7222 0.7119 0.7006 0.6844 0.6764
1463.000000 0.6692 0.6405 0.6112 0.5820 0.5527
1468.000000 0.5234 0.4941 0.4869 0.4895 0.5036
1473.000000 0.5289 0.5541 0.5794 0.6046 0.6298
1478.000000 0.6551 0.6803 0.7056 0.7308 0.7560
1483.000000 0.7813 0.8040 0.8072 0.8101 0.8124
1488.000000 0.8130 0.8136 0.8138 0.8139 0.8140
1493.000000 0.8145 0.8155 0.8265 0.8213 0.8243
1498.000000 0.8275 0.8288 0.8295 0.8303 0.8310
1503.000000 0.8317 0.8316 0.8313 0.8310 0.8307
1508.000000 0.8304 0.8301 0.8298 0.8295 0.8292
1513.000000 0.8289 0.8286 0.8283 0.8276 0.8269
1518.000000 0.8261 0.8254 0.8247 0.8242 0.8237
1523.000000 0.8233 0.8228 0.8223 0.8219 0.8214
1528.000000 0.8210 0.8206 0.8202 0.8198 0.8194
1533.000000 0.8190 0.8186 0.8182 0.8178 0.8174
1538.000000 0.8171 0.8168 0.8164 0.8161 0.8158
1543.000000 0.8155 0.8151 0.8148 0.8145 0.8143
1548.000000 0.8141 0.8139 0.8137 0.8135 0.8134
1553.000000 0.8132 0.8130 0.8128 0.8126 0.8124
1558.000000 0.8122 0.8120 0.8119 0.8116 0.8112
1563.000000 0.8107 0.8103 0.8098 0.8094 0.8090
1568.000000 0.8087 0.8084 0.8082 0.8080 0.8078
1573.000000 0.8076 0.8075 0.8076 0.8076 0.8077
1578.000000 0.8078 0.8078 0.8080 0.8086 0.8092
1583.000000 0.8098 0.8103 0.8108 0.8113 0.8119
1588.000000 0.8124 0.8129 0.8134 0.8139 0.8143
1593.000000 0.8147 0.8151 0.8154 0.8151 0.8148
1598.000000 0.8145 0.8143 0.8140 0.8137 0.8134
1603.000000 0.8131 0.8128 0.8125 0.8123 0.8120
1608.000000 0.8117 0.8114 0.8111 0.8108 0.8105
1613.000000 0.8100 0.8092 0.8085 0.8077 0.8070
1618.000000 0.8063 0.8055 0.8048 0.8040 0.8033
1623.000000 0.8026 0.8018 0.8005 0.7992 0.7979
1628.000000 0.7966 0.7953 0.7940 0.7927 0.7914
1633.000000 0.7902 0.7891 0.7880 0.7868 0.7857
1638.000000 0.7846 0.7835 0.7824 0.7812 0.7805
1643.000000 0.7802 0.7798 0.7795 0.7792 0.7788
1648.000000 0.7785 0.7782 0.7780 0.7784 0.7788
1653.000000 0.7791 0.7795 0.7799 0.7803 0.7807
1658.000000 0.7811 0.7815 0.7819 0.7823 0.7828
1663.000000 0.7836 0.7843 0.7850 0.7858 0.7865
1668.000000 0.7873 0.7882 0.7890 0.7899 0.7907
1673.000000 0.7916 0.7925 0.7933 0.7944 0.7954
1678.000000 0.7965 0.7976 0.7987 0.7998 0.8009
1683.000000 0.8020 0.8031 0.8041 0.8046 0.8052
1688.000000 0.8058 0.8064 0.8070 0.8075 0.8081
1693.000000 0.8080 0.8077 0.8075 0.8072 0.8069
1698.000000 0.8067 0.8064 0.8062 0.8059 0.8056
1703.000000 0.8053 0.8050 0.8048 0.8045 0.8042
1708.000000 0.8039 0.8036 0.8033 0.8030 0.8027
1713.000000 0.8024 0.8021 0.8018 0.8017 0.8015
1718.000000 0.8013 0.8012 0.8010 0.8008 0.8006
1723.000000 0.8005 0.8003 0.8001 0.8000 0.8002
1728.000000 0.8005 0.8008 0.8011 0.8014 0.8017
1733.000000 0.8019 0.8022 0.8024 0.8027 0.8029
1738.000000 0.8031 0.8034 0.8036 0.8038 0.8041
1743.000000 0.8043 0.8045 0.8048 0.8050 0.8052
1748.000000 0.8058 0.8065 0.8072 0.8079 0.8085
1753.000000 0.8092 0.8099 0.8106 0.8112 0.8119
1758.000000 0.8128 0.8139 0.8150 0.8161 0.8171
1763.000000 0.8182 0.8183 0.8184 0.8186 0.8187
1768.000000 0.8188 0.8190 0.8191 0.8192 0.8193
1773.000000 0.8195 0.8196 0.8197 0.8198 0.8198
1778.000000 0.8198 0.8198 0.8197 0.8197 0.8197
1783.000000 0.8197 0.8197 0.8197 0.8197 0.8197
1788.000000 0.8197 0.8195 0.8192 0.8190 0.8188
1793.000000 0.8187 0.8184 0.8181 0.8178 0.8175
1798.000000 0.8170 0.8166 0.8161 0.8157 0.8152
1803.000000 0.8148 0.8144 0.8139 0.8135 0.8130
1808.000000 0.8125 0.8120 0.8115 0.8109 0.8098
1813.000000 0.8088 0.8078 0.8068 0.8058 0.8049
1818.000000 0.8043 0.8039 0.8034 0.8030 0.8027
1823.000000 0.8027 0.8027 0.8027 0.8027 0.8027
1828.000000 0.8028 0.8028 0.8028 0.8028 0.8031
1833.000000 0.8035 0.8040 0.8044 0.8049 0.8056
1838.000000 0.8063 0.8071 0.8079 0.8086 0.8093
1843.000000 0.8098 0.8103 0.8109 0.8114 0.8119
1848.000000 0.8120 0.8121 0.8122 0.8123 0.8124
1853.000000 0.8125 0.8126 0.8125 0.8124 0.8123
1858.000000 0.8122 0.8121 0.8120 0.8119 0.8118
1863.000000 0.8115 0.8112 0.8110 0.8107 0.8105
1868.000000 0.8096 0.8086 0.8076 0.8067 0.8057
1873.000000 0.8052 0.8050 0.8049 0.8047 0.8045
1878.000000 0.8045 0.8046 0.8046 0.8047 0.8048
1883.000000 0.8047 0.8045 0.8044 0.8043 0.8043
1888.000000 0.8042 0.8042 0.8042 0.8041 0.8041
1893.000000 0.8041 0.8041 0.8041 0.8041 0.8042
1898.000000 0.8042 0.8042 0.8042 0.8042 0.8042
1903.000000 0.8038 0.8033 0.8028 0.8022 0.8017
1908.000000 0.8012 0.8007 0.8002 0.7997 0.7992
1913.000000 0.7987 0.7981 0.7976 0.7971 0.7966
1918.000000 0.7961 0.7956 0.7951 0.7946 0.7940
1923.000000 0.7937 0.7938 0.7938 0.7939 0.7939
1928.000000 0.7940 0.7940 0.7941 0.7942 0.7943
1933.000000 0.7945 0.7947 0.7948 0.7950 0.7951
1938.000000 0.7953 0.7954 0.7955 0.7955 0.7955
1943.000000 0.7955 0.7955 0.7954 0.7952 0.7950
1948.000000 0.7949 0.7947 0.7946 0.7944 0.7943
1953.000000 0.7942 0.7941 0.7940 0.7938 0.7937
1958.000000 0.7935 0.7933 0.7931 0.7928 0.7926
1963.000000 0.7924 0.7922 0.7919 0.7917 0.7915
1968.000000 0.7913 0.7909 0.7906 0.7903 0.7899
1973.000000 0.7896 0.7892 0.7889 0.7885 0.7882
1978.000000 0.7879 0.7875 0.7872 0.7868 0.7865
1983.000000 0.7862 0.7859 0.7856 0.7853 0.7849
1988.000000 0.7846 0.7843 0.7839 0.7836 0.7832
1993.000000 0.7828 0.7825 0.7821 0.7818 0.7814
1998.000000 0.7810 0.7808 0.7808 0.7808 0.7808
2003.000000 0.7808 0.7808 0.7807 0.7807 0.7807
2008.000000 0.7807 0.7807 0.7807 0.7809 0.7811
2013.000000 0.7813 0.7815 0.7817 0.7820 0.7822
2018.000000 0.7824 0.7826 0.7829 0.7829 0.7829
2023.000000 0.7827 0.7825 0.7823 0.7822 0.7820
2028.000000 0.7818 0.7816 0.7814 0.7812 0.7810
2033.000000 0.7808 0.7806 0.7804 0.7803 0.7801
2038.000000 0.7799 0.7797 0.7795 0.7793 0.7791
2043.000000 0.7789 0.7787 0.7785 0.7783 0.7780
2048.000000 0.7777 0.7774 0.7771 0.7768 0.7766
2053.000000 0.7763 0.7760 0.7757 0.7754 0.7751
2058.000000 0.7748 0.7745 0.7743 0.7741 0.7739
2063.000000 0.7737 0.7736 0.7734 0.7732 0.7730
2068.000000 0.7729 0.7727 0.7725 0.7723 0.7722
2073.000000 0.7720 0.7718 0.7716 0.7715 0.7713
2078.000000 0.7711 0.7709 0.7708 0.7706 0.7704
2083.000000 0.7702 0.7701 0.7699 0.7698 0.7696
2088.000000 0.7695 0.7693 0.7692 0.7690 0.7689
2093.000000 0.7687 0.7686 0.7684 0.7683 0.7681
2098.000000 0.7680 0.7678 0.7677 0.7675 0.7674
2103.000000 0.7672 0.7671 0.7669 0.7668 0.7666
2108.000000 0.7665 0.7663 0.7662 0.7661 0.7660
2113.000000 0.7659 0.7658 0.7656 0.7655 0.7654
2118.000000 0.7653 0.7652 0.7651 0.7649 0.7648
2123.000000 0.7647 0.7646 0.7645 0.7644 0.7642
2128.000000 0.7641 0.7640 0.7639 0.7637 0.7636
2133.000000 0.7635 0.7634 0.7633 0.7632 0.7630
2138.000000 0.7629 0.7628 0.7627 0.7626 0.7625
2143.000000 0.7623 0.7621 0.7619 0.7618 0.7616
2148.000000 0.7614 0.7612 0.7610 0.7608 0.7606
2153.000000 0.7604 0.7602 0.7600 0.7598 0.7596
2158.000000 0.7595 0.7593 0.7591 0.7589 0.7587
2163.000000 0.7585 0.7583 0.7583 0.7583 0.7583
2168.000000 0.7584 0.7585 0.7586 0.7587 0.7588
2173.000000 0.7588 0.7589 0.7590 0.7591 0.7597
2178.000000 0.7604 0.7610 0.7617 0.7619 0.7621
2183.000000 0.7621 0.7621 0.7621 0.7621 0.7621
2188.000000 0.7622 0.7620 0.7619 0.7617 0.7615
2193.000000 0.7613 0.7611 0.7604 0.7597 0.7589
2198.000000 0.7582 0.7574 0.7567 0.7559 0.7552
2203.000000 0.7545 0.7539 0.7532 0.7526 0.7519
2208.000000 0.7513 0.7510 0.7508 0.7506 0.7504
2213.000000 0.7503 0.7503 0.7503 0.7503 0.7503
2218.000000 0.7504 0.7502 0.7501 0.7499 0.7498
2223.000000 0.7496 0.7495 0.7493 0.7492 0.7490
2228.000000 0.7488 0.7486 0.7484 0.7481 0.7478
2233.000000 0.7474 0.7471 0.7468 0.7465 0.7462
2238.000000 0.7460 0.7457 0.7454 0.7451 0.7449
2243.000000 0.7446 0.7443 0.7440 0.7438 0.7436
2248.000000 0.7434 0.7432 0.7430 0.7428 0.7427
2253.000000 0.7425 0.7424 0.7422 0.7420 0.7418
2258.000000 0.7417 0.7416 0.7416 0.7416 0.7417
2263.000000 0.7417 0.7418 0.7418 0.7419 0.7419
2268.000000 0.7419 0.7419 0.7419 0.7418 0.7418
2273.000000 0.7417 0.7417 0.7416 0.7415 0.7414
2278.000000 0.7413 0.7411 0.7410 0.7408 0.7407
2283.000000 0.7405 0.7404 0.7402 0.7400 0.7397
2288.000000 0.7394 0.7391 0.7388 0.7384 0.7381
2293.000000 0.7377 0.7373 0.7367 0.7362 0.7356
2298.000000 0.7351 0.7345 0.7339 0.7333 0.7327
2303.000000 0.7319 0.7312 0.7305 0.7298 0.7289
2308.000000 0.7280 0.7269 0.7259 0.7248 0.7237
2313.000000 0.7226 0.7216 0.7205 0.7194 0.7183
2318.000000 0.7172 0.7160 0.7148 0.7136 0.7124
2323.000000 0.7112 0.7101 0.7090 0.7079 0.7068
2328.000000 0.7057 0.7046 0.7035 0.7024 0.7013
2333.000000 0.7002 0.6991 0.6980 0.6969 0.6966
2338.000000 0.6963 0.6962 0.6962 0.6967 0.6972
2343.000000 0.6975 0.6979 0.6980 0.6982 0.6981
2348.000000 0.6980 0.6979 0.6979 0.6976 0.6974
2353.000000 0.6959 0.6944 0.6922 0.6901 0.6888
2358.000000 0.6875 0.6872 0.6870 0.6867 0.6864
2363.000000 0.6864 0.6864 0.6879 0.6895 0.6916
2368.000000 0.6938 0.6959 0.6981 0.7002 0.7024
2373.000000 0.7045 0.7067 0.7088 0.7110 0.7131
2378.000000 0.7153 0.7174 0.7196 0.7217 0.7239
2383.000000 0.7260 0.7282 0.7288 0.7294 0.7295
2388.000000 0.7297 0.7296 0.7296 0.7295 0.7295
2393.000000 0.7293 0.7291 0.7289 0.7288 0.7285
2398.000000 0.7282 0.7277 0.7273 0.7263 0.7254
2403.000000 0.7247 0.7240 0.7235 0.7231 0.7226
2408.000000 0.7221 0.7218 0.7215 0.7213 0.7212
2413.000000 0.7210 0.7209 0.7207 0.7206 0.7206
2418.000000 0.7206 0.7206 0.7206 0.7206 0.7206
2423.000000 0.7206 0.7206 0.7206 0.7207 0.7207
2428.000000 0.7208 0.7208 0.7209 0.7209 0.7209
2433.000000 0.7209 0.7209 0.7208 0.7208 0.7207
2438.000000 0.7207 0.7206 0.7206 0.7206 0.7206
2443.000000 0.7205 0.7205 0.7204 0.7203 0.7202
2448.000000 0.7201 0.7199 0.7198 0.7197 0.7196
2453.000000 0.7194 0.7193 0.7189 0.7186 0.7182
2458.000000 0.7178 0.7174 0.7170 0.7167 0.7165
2463.000000 0.7164 0.7164 0.7163 0.7163 0.7163
2468.000000 0.7163 0.7163 0.7163 0.7163 0.7164
2473.000000 0.7164 0.7164 0.7164 0.7165 0.7165
2478.000000 0.7165 0.7165 0.7166 0.7166 0.7167
2483.000000 0.7167 0.7167 0.7166 0.7166 0.7166
2488.000000 0.7166 0.7165 0.7165 0.7164 0.7164
2493.000000 0.7162 0.7160 0.7158 0.7156 0.7153
2498.000000 0.7151 0.7148 0.7146 0.7142 0.7139
2503.000000 0.7135 0.7132 0.7128 0.7125 0.7121
2508.000000 0.7118 0.7115 0.7112 0.7108 0.7105
2513.000000 0.7101 0.7098 0.7095 0.7092 0.7088
2518.000000 0.7085 0.7082 0.7080 0.7077 0.7075
2523.000000 0.7072 0.7070 0.7067 0.7064 0.7063
2528.000000 0.7062 0.7062 0.7062 0.7062 0.7062
2533.000000 0.7062 0.7062 0.7062 0.7063 0.7063
2538.000000 0.7063 0.7063 0.7063 0.7063 0.7063
2543.000000 0.7063 0.7063 0.7062 0.7062 0.7060
2548.000000 0.7059 0.7057 0.7056 0.7055 0.7054
2553.000000 0.7052 0.7051 0.7049 0.7048 0.7046
2558.000000 0.7045 0.7043 0.7042 0.7040 0.7039
2563.000000 0.7037 0.7036 0.7035 0.7034 0.7033
2568.000000 0.7033 0.7032 0.7031 0.7030 0.7029
2573.000000 0.7028 0.7028 0.7024 0.7021 0.7016
2578.000000 0.7012 0.7007 0.7003 0.6999 0.6995
2583.000000 0.6990 0.6986 0.6981 0.6977 0.6973
2588.000000 0.6969 0.6964 0.6960 0.6955 0.6951
2593.000000 0.6947 0.6943 0.6939 0.6936 0.6932
2598.000000 0.6928 0.6924 0.6921 0.6917 0.6913
2603.000000 0.6910 0.6907 0.6907 0.6908 0.6908
2608.000000 0.6909 0.6908 0.6908 0.6905 0.6903
2613.000000 0.6900 0.6898 0.6893 0.6888 0.6883
2618.000000 0.6879 0.6874 0.6869 0.6864 0.6860
2623.000000 0.6856 0.6853 0.6850 0.6848 0.6845
2628.000000 0.6842 0.6839 0.6836 0.6833 0.6831
2633.000000 0.6829 0.6827 0.6825 0.6824 0.6822
2638.000000 0.6820 0.6818 0.6817 0.6815 0.6814
2643.000000 0.6812 0.6811 0.6809 0.6807 0.6806
2648.000000 0.6805 0.6804 0.6804 0.6803 0.6802
2653.000000 0.6801 0.6800 0.6799 0.6798 0.6797
2658.000000 0.6796 0.6795 0.6794 0.6792 0.6791
2663.000000 0.6789 0.6788 0.6786 0.6785 0.6783
2668.000000 0.6782 0.6781 0.6780 0.6779 0.6779
2673.000000 0.6778 0.6777 0.6776 0.6776 0.6775
2678.000000 0.6775 0.6775 0.6775 0.6775 0.6775
2683.000000 0.6775 0.6775 0.6775 0.6775 0.6774
2688.000000 0.6774 0.6772 0.6770 0.6768 0.6766
2693.000000 0.6764 0.6763 0.6761 0.6759 0.6756
2698.000000 0.6754 0.6751 0.6748 0.6745 0.6742
2703.000000 0.6739 0.6736 0.6733 0.6730 0.6726
2708.000000 0.6722 0.6717 0.6713 0.6709 0.6705
2713.000000 0.6700 0.6696 0.6692 0.6688 0.6683
2718.000000 0.6678 0.6672 0.6667 0.6662 0.6657
2723.000000 0.6652 0.6647 0.6642 0.6637 0.6633
2728.000000 0.6629 0.6626 0.6624 0.6625 0.6626
2733.000000 0.6627 0.6628 0.6629 0.6631 0.6632
2738.000000 0.6634 0.6635 0.6637 0.6638 0.6640
2743.000000 0.6641 0.6642 0.6641 0.6641 0.6640
2748.000000 0.6640 0.6640 0.6640 0.6639 0.6638
2753.000000 0.6636 0.6635 0.6633 0.6632 0.6630
2758.000000 0.6629 0.6627 0.6626 0.6624 0.6622
2763.000000 0.6620 0.6619 0.6617 0.6616 0.6613
2768.000000 0.6611 0.6608 0.6606 0.6603 0.6601
2773.000000 0.6598 0.6595 0.6592 0.6590 0.6587
2778.000000 0.6585 0.6581 0.6577 0.6572 0.6568
2783.000000 0.6563 0.6559 0.6554 0.6550 0.6543
2788.000000 0.6537 0.6529 0.6522 0.6511 0.6500
2793.000000 0.6487 0.6475 0.6462 0.6449 0.6433
2798.000000 0.6418 0.6401 0.6385 0.6367 0.6349
2803.000000 0.6328 0.6307 0.6286 0.6266 0.6245
2808.000000 0.6224 0.6202 0.6181 0.6158 0.6136
2813.000000 0.6113 0.6091 0.6067 0.6044 0.6012
2818.000000 0.5981 0.5949 0.5918 0.5887 0.5857
2823.000000 0.5828 0.5800 0.5771 0.5743 0.5706
2828.000000 0.5669 0.5624 0.5579 0.5522 0.5465
2833.000000 0.5405 0.5345 0.5284 0.5224 0.5053
2838.000000 0.4883 0.4608 0.4333 0.4081 0.3829
2843.000000 0.3576 0.3324 0.3071 0.2819 0.2566
2848.000000 0.2314 0.2062 0.1810 0.1568 0.1326
2853.000000 0.1303 0.1280 0.1279 0.1292 0.1450
2858.000000 0.1621 0.1887 0.2153 0.2419 0.2685
2863.000000 0.2951 0.3217 0.3399 0.3582 0.3590
2868.000000 0.3599 0.3604 0.3609 0.3614 0.3620
2873.000000 0.3626 0.3632 0.3671 0.3710 0.3782
2878.000000 0.3854 0.3905 0.3956 0.3955 0.3950
2883.000000 0.3940 0.3926 0.3900 0.3874 0.3847
2888.000000 0.3821 0.3795 0.3769 0.3743 0.3717
2893.000000 0.3691 0.3665 0.3582 0.3499 0.3392
2898.000000 0.3286 0.3179 0.3073 0.2966 0.2860
2903.000000 0.2753 0.2647 0.2540 0.2434 0.2327
2908.000000 0.2221 0.2114 0.2008 0.1901 0.1795
2913.000000 0.1688 0.1582 0.1475 0.1369 0.1262
2918.000000 0.1155 0.1048 0.0942 0.0835 0.0729
2923.000000 0.0646 0.0563 0.0559 0.0555 0.0554
2928.000000 0.0561 0.0554 0.0555 0.0676 0.0798
2933.000000 0.0926 0.1055 0.1183 0.1312 0.1440
2938.000000 0.1569 0.1697 0.1825 0.1953 0.2082
2943.000000 0.2210 0.2339 0.2467 0.2596 0.2724
2948.000000 0.2852 0.2980 0.3140 0.3117 0.3125
2953.000000 0.3119 0.3114 0.3071 0.3028 0.2984
2958.000000 0.2941 0.2897 0.2854 0.2845 0.2841
2963.000000 0.2908 0.2981 0.3106 0.3231 0.3356
2968.000000 0.3481 0.3606 0.3731 0.3856 0.3981
2973.000000 0.4106 0.4232 0.4357 0.4482 0.4607
2978.000000 0.4732 0.4857 0.4982 0.5083 0.5184
2983.000000 0.5220 0.5257 0.5281 0.5305 0.5326
2988.000000 0.5348 0.5365 0.5382 0.5398 0.5415
2993.000000 0.5429 0.5444 0.5456 0.5469 0.5481
2998.000000 0.5494 0.5506 0.5519 0.5531 0.5543
3003.000000 0.5555 0.5567 0.5578 0.5590 0.5602
3008.000000 0.5614 0.5625 0.5636 0.5647 0.5659
3013.000000 0.5670 0.5681 0.5689 0.5698 0.5706
3018.000000 0.5714 0.5721 0.5729 0.5736 0.5744
3023.000000 0.5751 0.5758 0.5765 0.5772 0.5779
3028.000000 0.5786 0.5793 0.5800 0.5805 0.5811
3033.000000 0.5815 0.5819 0.5822 0.5826 0.5830
3038.000000 0.5834 0.5837 0.5841 0.5845 0.5849
3043.000000 0.5851 0.5854 0.5856 0.5858 0.5860
3048.000000 0.5862 0.5864 0.5866 0.5868 0.5871
3053.000000 0.5873 0.5875 0.5876 0.5878 0.5879
3058.000000 0.5880 0.5881 0.5882 0.5882 0.5883
3063.000000 0.5884 0.5885 0.5886 0.5887 0.5887
3068.000000 0.5888 0.5889 0.5890 0.5890 0.5891
3073.000000 0.5891 0.5892 0.5892 0.5929 0.5893
3078.000000 0.5894 0.5894 0.5895 0.5895 0.5896
3083.000000 0.5896 0.5897 0.5897 0.5897 0.5898
3088.000000 0.5899 0.5900 0.5901 0.5901 0.5902
3093.000000 0.5903 0.5904 0.5905 0.5906 0.5906
3098.000000 0.5907 0.5908 0.5909 0.5910 0.5911
3103.000000 0.5911 0.5912 0.5913 0.5914 0.5915
3108.000000 0.5916 0.5916 0.5917 0.5916 0.5915
3113.000000 0.5914 0.5914 0.5913 0.5913 0.5912
3118.000000 0.5911 0.5910 0.5910 0.5909 0.5909
3123.000000 0.5908 0.5907 0.5906 0.5906 0.5905
3128.000000 0.5905 0.5904 0.5904 0.5903 0.5902
3133.000000 0.5901 0.5900 0.5899 0.5898 0.5896
3138.000000 0.5895 0.5894 0.5893 0.5891 0.5890
3143.000000 0.5889 0.5888 0.5886 0.5885 0.5884
3148.000000 0.5883 0.5882 0.5881 0.5879 0.5878
3153.000000 0.5877 0.5876 0.5874 0.5873 0.5872
3158.000000 0.5871 0.5869 0.5868 0.5865 0.5862
3163.000000 0.5859 0.5857 0.5854 0.5852 0.5849
3168.000000 0.5846 0.5843 0.5841 0.5838 0.5835
3173.000000 0.5832 0.5830 0.5827 0.5824 0.5821
3178.000000 0.5819 0.5816 0.5814 0.5811 0.5808
3183.000000 0.5805 0.5803 0.5800 0.5797 0.5794
3188.000000 0.5792 0.5789 0.5786 0.5783 0.5781
3193.000000 0.5778 0.5776 0.5773 0.5771 0.5768
3198.000000 0.5766 0.5763 0.5761 0.5758 0.5755
3203.000000 0.5752 0.5750 0.5747 0.5745 0.5742
3208.000000 0.5740 0.5737 0.5735 0.5732 0.5730
3213.000000 0.5727 0.5725 0.5722 0.5719 0.5716
3218.000000 0.5714 0.5711 0.5709 0.5706 0.5704
3223.000000 0.5701 0.5699 0.5696 0.5694 0.5691
3228.000000 0.5688 0.5685 0.5682 0.5679 0.5676
3233.000000 0.5673 0.5670 0.5666 0.5663 0.5660
3238.000000 0.5657 0.5654 0.5651 0.5648 0.5645
3243.000000 0.5641 0.5638 0.5635 0.5632 0.5629
3248.000000 0.5626 0.5623 0.5620 0.5616 0.5613
3253.000000 0.5610 0.5607 0.5604 0.5601 0.5598
3258.000000 0.5595 0.5591 0.5588 0.5585 0.5582
3263.000000 0.5579 0.5576 0.5573 0.5570 0.5566
3268.000000 0.5563 0.5559 0.5556 0.5552 0.5549
3273.000000 0.5545 0.5541 0.5537 0.5534 0.5530
3278.000000 0.5527 0.5523 0.5519 0.5515 0.5512
3283.000000 0.5508 0.5504 0.5500 0.5497 0.5493
3288.000000 0.5489 0.5485 0.5482 0.5478 0.5474
3293.000000 0.5470 0.5467 0.5463 0.5459 0.5455
3298.000000 0.5452 0.5448 0.5444 0.5440 0.5437
3303.000000 0.5433 0.5429 0.5425 0.5422 0.5418
3308.000000 0.5414 0.5410 0.5407 0.5402 0.5398
3313.000000 0.5394 0.5390 0.5385 0.5381 0.5377
3318.000000 0.5373 0.5368 0.5364 0.5360 0.5356
3323.000000 0.5352 0.5348 0.5343 0.5339 0.5335
3328.000000 0.5331 0.5326 0.5322 0.5318 0.5314
3333.000000 0.5310 0.5306 0.5301 0.5297 0.5293
3338.000000 0.5289 0.5284 0.5280 0.5276 0.5272
3343.000000 0.5267 0.5263 0.5259 0.5255 0.5251
3348.000000 0.5247 0.5242 0.5237 0.5232 0.5227
3353.000000 0.5222 0.5218 0.5213 0.5208 0.5203
3358.000000 0.5198 0.5193 0.5188 0.5183 0.5179
3363.000000 0.5174 0.5169 0.5164 0.5159 0.5154
3368.000000 0.5149 0.5144 0.5139 0.5134 0.5130
3373.000000 0.5125 0.5120 0.5115 0.5110 0.5105
3378.000000 0.5100 0.5095 0.5090 0.5085 0.5080
3383.000000 0.5073 0.5066 0.5059 0.5052 0.5045
3388.000000 0.5038 0.5031 0.5024 0.5017 0.5011
3393.000000 0.5004 0.4997 0.4990 0.4983 0.4976
3398.000000 0.4969 0.4962 0.4955 0.4948 0.4941
3403.000000 0.4934 0.4927 0.4920 0.4913 0.4906
3408.000000 0.4899 0.4892 0.4885 0.4878 0.4872
3413.000000 0.4866 0.4861 0.4855 0.4850 0.4844
3418.000000 0.4839 0.4833 0.4828 0.4822 0.4817
3423.000000 0.4811 0.4805 0.4799 0.4794 0.4788
3428.000000 0.4783 0.4777 0.4772 0.4766 0.4761
3433.000000 0.4756 0.4751 0.4750 0.4749 0.4748
3438.000000 0.4747 0.4746 0.4745 0.4743 0.4742
3443.000000 0.4741 0.4740 0.4739 0.4738 0.4737
3448.000000 0.4736 0.4734 0.4733 0.4734 0.4735
3453.000000 0.4737 0.4740 0.4742 0.4744 0.4746
3458.000000 0.4749 0.4751 0.4753 0.4755 0.4758
3463.000000 0.4760 0.4763 0.4764 0.4766 0.4765
3468.000000 0.4764 0.4763 0.4762 0.4761 0.4760
3473.000000 0.4759 0.4759 0.4758 0.4758 0.4758
3478.000000 0.4759 0.4759 0.4760 0.4760 0.4761
3483.000000 0.4761 0.4762 0.4762 0.4763 0.4763
3488.000000 0.4763 0.4763 0.4764 0.4764 0.4765
3493.000000 0.4767 0.4769 0.4771 0.4773 0.4775
3498.000000 0.4777 0.4778 0.4780 0.4782 0.4784
3503.000000 0.4786 0.4788 0.4790 0.4792 0.4794
3508.000000 0.4796 0.4799 0.4802 0.4805 0.4808
3513.000000 0.4811 0.4814 0.4817 0.4820 0.4823
3518.000000 0.4826 0.4829 0.4832 0.4835 0.4838
3523.000000 0.4841 0.4844 0.4847 0.4850 0.4853
3528.000000 0.4857 0.4860 0.4864 0.4868 0.4872
3533.000000 0.4875 0.4879 0.4882 0.4886 0.4890
3538.000000 0.4894 0.4897 0.4901 0.4904 0.4908
3543.000000 0.4912 0.4916 0.4919 0.4923 0.4926
3548.000000 0.4930 0.4934 0.4938 0.4941 0.4945
3553.000000 0.4948 0.4952 0.4956 0.4960 0.4963
3558.000000 0.4967 0.4970 0.4974 0.4978 0.4982
3563.000000 0.4985 0.4989 0.4992 0.4996 0.5000
3568.000000 0.5004 0.5007 0.5011 0.5014 0.5018
3573.000000 0.5021 0.5025 0.5029 0.5033 0.5036
3578.000000 0.5040 0.5043 0.5047 0.5050 0.5053
3583.000000 0.5055 0.5058 0.5060 0.5063 0.5065
3588.000000 0.5068 0.5070 0.5072 0.5074 0.5077
3593.000000 0.5079 0.5082 0.5084 0.5086 0.5088
3598.000000 0.5091 0.5093 0.5096 0.5097 0.5099
3603.000000 0.5100 0.5101 0.5102 0.5103 0.5104
3608.000000 0.5105 0.5106 0.5108 0.5109 0.5110
3613.000000 0.5111 0.5112 0.5113 0.5114 0.5115
3618.000000 0.5117 0.5118 0.5119 0.5121 0.5124
3623.000000 0.5127 0.5130 0.5132 0.5135 0.5138
3628.000000 0.5142 0.5146 0.5150 0.5154 0.5159
3633.000000 0.5163 0.5167 0.5171 0.5176 0.5180
3638.000000 0.5184 0.5188 0.5192 0.5196 0.5200
3643.000000 0.5204 0.5208 0.5212 0.5216 0.5220
3648.000000 0.5224 0.5226 0.5229 0.5231 0.5233
3653.000000 0.5235 0.5238 0.5240 0.5242 0.5244
3658.000000 0.5247 0.5249 0.5251 0.5253 0.5255
3663.000000 0.5256 0.5257 0.5258 0.5259 0.5260
3668.000000 0.5261 0.5262 0.5264 0.5265 0.5266
3673.000000 0.5267 0.5268 0.5269 0.5270 0.5271
3678.000000 0.5272 0.5272 0.5273 0.5272 0.5271
3683.000000 0.5270 0.5270 0.5269 0.5268 0.5267
3688.000000 0.5267 0.5266 0.5266 0.5265 0.5264
3693.000000 0.5263 0.5263 0.5261 0.5260 0.5259
3698.000000 0.5258 0.5256 0.5255 0.5253 0.5252
3703.000000 0.5250 0.5249 0.5247 0.5246 0.5244
3708.000000 0.5243 0.5242 0.5241 0.5239 0.5238
3713.000000 0.5236 0.5235 0.5232 0.5229 0.5225
3718.000000 0.5222 0.5219 0.5216 0.5213 0.5210
3723.000000 0.5207 0.5204 0.5200 0.5197 0.5194
3728.000000 0.5191 0.5188 0.5185 0.5181 0.5178
3733.000000 0.5174 0.5170 0.5166 0.5162 0.5158
3738.000000 0.5154 0.5150 0.5146 0.5142 0.5139
3743.000000 0.5135 0.5131 0.5129 0.5127 0.5125
3748.000000 0.5124 0.5123 0.5122 0.5120 0.5119
3753.000000 0.5119 0.5119 0.5122 0.5125 0.5128
3758.000000 0.5131 0.5133 0.5136 0.5142 0.5149
3763.000000 0.5159 0.5170 0.5182 0.5194 0.5206
3768.000000 0.5219 0.5224 0.5229 0.5227 0.5226
3773.000000 0.5224 0.5223 0.5221 0.5220 0.5218
3778.000000 0.5217 0.5216 0.5215 0.5213 0.5212
3783.000000 0.5210 0.5209 0.5207 0.5206 0.5204
3788.000000 0.5203 0.5201 0.5200 0.5198 0.5197
3793.000000 0.5195 0.5193 0.5191 0.5189 0.5187
3798.000000 0.5185 0.5183 0.5181 0.5179 0.5177
3803.000000 0.5175 0.5173 0.5171 0.5169 0.5167
3808.000000 0.5165 0.5163 0.5161 0.5158 0.5156
3813.000000 0.5154 0.5152 0.5150 0.5148 0.5145
3818.000000 0.5143 0.5140 0.5138 0.5135 0.5133
3823.000000 0.5131 0.5129 0.5126 0.5124 0.5121
3828.000000 0.5119 0.5116 0.5114 0.5111 0.5109
3833.000000 0.5107 0.5105 0.5102 0.5100 0.5098
3838.000000 0.5096 0.5094 0.5092 0.5090 0.5088
3843.000000 0.5086 0.5085 0.5083 0.5081 0.5079
3848.000000 0.5077 0.5075 0.5073 0.5071 0.5070
3853.000000 0.5068 0.5066 0.5064 0.5062 0.5060
3858.000000 0.5058 0.5056 0.5055 0.5053 0.5052
3863.000000 0.5050 0.5049 0.5048 0.5047 0.5045
3868.000000 0.5044 0.5042 0.5041 0.5039 0.5038
3873.000000 0.5036 0.5035 0.5034 0.5033 0.5032
3878.000000 0.5031 0.5031 0.5031 0.5031 0.5031
3883.000000 0.5031 0.5031 0.5031 0.5032 0.5032
3888.000000 0.5032 0.5032 0.5032 0.5032 0.5032
3893.000000 0.5032 0.5032 0.5031 0.5031 0.5030
3898.000000 0.5030 0.5029 0.5029 0.5028 0.5028
3903.000000 0.5027 0.5027 0.5026 0.5026 0.5025
3908.000000 0.5025 0.5024 0.5024 0.5023 0.5022
3913.000000 0.5021 0.5020 0.5018 0.5017 0.5016
3918.000000 0.5015 0.5014 0.5013 0.5011 0.5010
3923.000000 0.5009 0.5008 0.5007 0.5006 0.5005
3928.000000 0.5004 0.5002 0.5001 0.5000 0.5000
3933.000000 0.5000 0.5000 0.5000 0.5000 0.5000
3938.000000 0.5001 0.5001 0.5001 0.5001 0.5001
3943.000000 0.5001 0.5001 0.5001 0.5001 0.5001
3948.000000 0.5002 0.5002 0.5003 0.5003 0.5003
3953.000000 0.5003 0.5004 0.5004 0.5004 0.5004
3958.000000 0.5005 0.5005 0.5005 0.5004 0.5003
3963.000000 0.5002 0.5002 0.5001 0.5001 0.5000
3968.000000 0.5000 0.4998 0.4998 0.4996 0.4995
3973.000000 0.4993 0.4991 0.4989 0.4988 0.4986
3978.000000 0.4984 0.4982 0.4981 0.4980 0.4980
3983.000000 0.4979 0.4979 0.4979 0.4979 0.4978
3988.000000 0.4978 0.4978 0.4978 0.4978 0.4978
3993.000000 0.4978 0.4979 0.4979 0.4979 0.4979
3998.000000 0.4979 0.4979 0.4979
##END=
