##TITLE=PIPERIDINIUM N,N-PENTAMETHYLENE-PHTHALAMATE
##JCAMP-DX=4.24
##DATA TYPE=INFRARED SPECTRUM
##CLASS=COBLENTZ
##ORIGIN=ABBOTT LABORATORIES - WASHBURN
##OWNER=COBLENTZ SOCIETY
Collection (C) 2018 copyright by the U.S. Secretary of Commerce
on behalf of the United States of America. All rights reserved.
##DATE=Not specified, most likely prior to 1970
##MOLFORM=C18 H26 N2 O3
##SOURCE REFERENCE=COBLENTZ NO. 3351
##$NIST ID=B6003351
##$NIST SOURCE=COBLENTZ
##$NIST IMAGE=cob3351
##SPECTROMETER/DATA SYSTEM=PERKIN-ELMER
##STATE=SOLID (NUJOL MULL)
##PATH LENGTH=
$$SPECTRAL CONTAMINATION DUE TO OIL AROUND 2900 CM^-^1
##SAMPLING PROCEDURE=TRANSMISSION
##RESOLUTION=4
##DATA PROCESSING=DIGITIZED BY NIST FROM HARD COPY (FROM TWO SEGMENTS)
##XUNITS=MICROMETERS
##YUNITS=TRANSMITTANCE
##XFACTOR=1.000000
##YFACTOR=1
##DELTAX=0.006614
##FIRSTX=2.507
##LASTX=14.9612
##FIRSTY=0.67
##MAXX=14.9612
##MINX=2.507
##MAXY=0.815
##MINY=0.036
##NPOINTS=1884
##XYDATA=(X++(Y..Y))
2.507000 0.6700 0.6700 0.6700 0.6720 0.6720
2.540070 0.6730 0.6730 0.6750 0.6750 0.6770
2.573140 0.6770 0.6770 0.6780 0.6800 0.6820
2.606210 0.6830 0.6850 0.6870 0.6870 0.6880
2.639280 0.6900 0.6900 0.6901 0.6920 0.6930
2.672350 0.6931 0.6950 0.6950 0.6970 0.6970
2.705420 0.6981 0.7000 0.7000 0.7000 0.7000
2.738490 0.7000 0.7000 0.7001 0.7020 0.7021
2.771560 0.7052 0.7071 0.7080 0.7080 0.7081
2.804630 0.7100 0.7100 0.7100 0.7100 0.7100
2.837700 0.7100 0.7102 0.7120 0.7120 0.7120
2.870770 0.7120 0.7120 0.7120 0.7120 0.7118
2.903840 0.7100 0.7098 0.7080 0.7080 0.7080
2.936910 0.7082 0.7100 0.7098 0.7080 0.7080
2.969980 0.7080 0.7070 0.7070 0.7070 0.7070
3.003050 0.7080 0.7080 0.7100 0.7129 0.7149
3.036120 0.7170 0.7170 0.7180 0.7180 0.7170
3.069190 0.7170 0.7170 0.7150 0.7130 0.7120
3.102260 0.7098 0.7050 0.7049 0.7029 0.6999
3.135330 0.6969 0.6950 0.6949 0.6920 0.6920
3.168400 0.6899 0.6878 0.6847 0.6798 0.6768
3.201470 0.6717 0.6648 0.6597 0.6528 0.6467
3.234540 0.6394 0.6322 0.6216 0.6039 0.5893
3.267610 0.5796 0.5734 0.5645 0.5564 0.5461
3.300680 0.5296 0.5058 0.4736 0.4325 0.3369
3.333750 0.2824 0.2317 0.1825 0.1411 0.1058
3.366820 0.0700 0.0618 0.0522 0.0454 0.0408
3.399890 0.0387 0.0360 0.0360 0.0363 0.0390
3.432960 0.0390 0.0430 0.0460 0.0509 0.0540
3.466030 0.0560 0.0560 0.0560 0.0579 0.0638
3.499100 0.0841 0.0934 0.1233 0.1516 0.2313
3.532170 0.2921 0.3320 0.3689 0.3919 0.4049
3.565240 0.4180 0.4444 0.4574 0.4703 0.4790
3.598310 0.4800 0.4800 0.4799 0.4769 0.4720
3.631380 0.4689 0.4668 0.4637 0.4586 0.4497
3.664450 0.4439 0.4420 0.4421 0.4442 0.4503
3.697520 0.4594 0.4642 0.4671 0.4694 0.4742
3.730590 0.4770 0.4768 0.4740 0.4739 0.4719
3.763660 0.4699 0.4688 0.4668 0.4649 0.4636
3.796730 0.4587 0.4550 0.4548 0.4520 0.4522
3.829800 0.4541 0.4555 0.4596 0.4643 0.4673
3.862870 0.4710 0.4791 0.4800 0.4799 0.4786
3.895940 0.4750 0.4701 0.4641 0.4571 0.4501
3.929010 0.4422 0.4352 0.4301 0.4251 0.4221
3.962080 0.4190 0.4150 0.4120 0.4100 0.4090
3.995150 0.4090 0.4070 0.4050 0.4050 0.4070
4.028220 0.4102 0.4152 0.4222 0.4292 0.4370
4.061290 0.4390 0.4389 0.4349 0.4300 0.4270
4.094360 0.4248 0.4218 0.4188 0.4148 0.4100
4.127430 0.4089 0.4069 0.4050 0.4040 0.4040
4.160500 0.4040 0.4042 0.4070 0.4071 0.4091
4.193570 0.4101 0.4120 0.4120 0.4121 0.4141
4.226640 0.4150 0.4150 0.4150 0.4149 0.4143
4.259710 0.4170 0.4172 0.4190 0.4190 0.4190
4.292780 0.4191 0.4202 0.4223 0.4258 0.4325
4.325850 0.4373 0.4412 0.4527 0.4595 0.4645
4.358920 0.4704 0.4797 0.4847 0.4891 0.4903
4.391990 0.4924 0.4955 0.4997 0.5061 0.5143
4.425060 0.5170 0.5190 0.5200 0.5240 0.5270
4.458130 0.5300 0.5370 0.5439 0.5489 0.5500
4.491200 0.5521 0.5552 0.5641 0.5691 0.5751
4.524270 0.5790 0.5790 0.5790 0.5770 0.5740
4.557340 0.5719 0.5700 0.5689 0.5670 0.5671
4.590410 0.5701 0.5723 0.5802 0.5872 0.5921
4.623480 0.5954 0.6002 0.6033 0.6072 0.6104
4.656550 0.6173 0.6222 0.6252 0.6282 0.6322
4.689620 0.6355 0.6405 0.6456 0.6523 0.6554
4.722690 0.6602 0.6630 0.6634 0.6684 0.6731
4.755760 0.6753 0.6782 0.6803 0.6832 0.6852
4.788830 0.6871 0.6882 0.6900 0.6902 0.6921
4.821900 0.6933 0.6953 0.6971 0.6983 0.7003
4.854970 0.7021 0.7035 0.7070 0.7070 0.7068
4.888040 0.7050 0.7030 0.7020 0.7000 0.6980
4.921110 0.7000 0.7000 0.7049 0.7099 0.7129
4.954180 0.7181 0.7221 0.7250 0.7250 0.7270
4.987250 0.7280 0.7300 0.7331 0.7351 0.7370
5.020320 0.7380 0.7400 0.7419 0.7448 0.7468
5.053390 0.7479 0.7497 0.7500 0.7523 0.7530
5.086460 0.7508 0.7479 0.7456 0.7463 0.7502
5.119530 0.7539 0.7562 0.7570 0.7538 0.7520
5.152600 0.7526 0.7542 0.7561 0.7575 0.7580
5.185670 0.7590 0.7591 0.7589 0.7607 0.7624
5.218740 0.7637 0.7656 0.7673 0.7693 0.7735
5.251810 0.7750 0.7754 0.7772 0.7780 0.7784
5.284880 0.7800 0.7804 0.7822 0.7830 0.7830
5.317950 0.7830 0.7830 0.7831 0.7849 0.7850
5.351020 0.7869 0.7870 0.7870 0.7879 0.7880
5.384090 0.7913 0.7928 0.7961 0.7970 0.7978
5.417160 0.8004 0.8010 0.8025 0.8030 0.8030
5.450230 0.8030 0.8030 0.8030 0.8030 0.8030
5.483300 0.8030 0.8030 0.8030 0.8021 0.8010
5.516370 0.8010 0.8010 0.8010 0.8010 0.8010
5.549440 0.8015 0.8030 0.8030 0.8030 0.8030
5.582510 0.8033 0.8050 0.8050 0.8050 0.8050
5.615580 0.8050 0.8050 0.8050 0.8050 0.8050
5.648650 0.8050 0.8050 0.8050 0.8031 0.8013
5.681720 0.8010 0.7985 0.7972 0.7954 0.7935
5.714790 0.7923 0.7920 0.7920 0.7893 0.7859
5.747860 0.7836 0.7823 0.7806 0.7780 0.7745
5.780930 0.7712 0.7700 0.7683 0.7659 0.7640
5.814000 0.7617 0.7587 0.7570 0.7562 0.7550
5.847070 0.7540 0.7520 0.7514 0.7500 0.7495
5.880140 0.7477 0.7455 0.7409 0.7367 0.7328
5.913210 0.7310 0.7266 0.7245 0.7214 0.7173
5.946280 0.7118 0.7080 0.7070 0.7070 0.6936
5.979350 0.6902 0.6882 0.6791 0.6693 0.6595
6.012420 0.6541 0.6418 0.6322 0.6209 0.6021
6.045490 0.5779 0.5531 0.5354 0.5182 0.4969
6.078560 0.4707 0.4501 0.4321 0.3609 0.2903
6.111630 0.2593 0.2373 0.2143 0.1969 0.1857
6.144700 0.1718 0.1569 0.1432 0.1241 0.1055
6.177770 0.0982 0.0967 0.0994 0.1090 0.1490
6.210840 0.1841 0.2209 0.2680 0.3183 0.3412
6.243910 0.3540 0.3533 0.3448 0.3199 0.3035
6.276980 0.2908 0.2825 0.2792 0.2790 0.2895
6.310050 0.3166 0.3343 0.3524 0.3686 0.3735
6.343120 0.3718 0.3599 0.3451 0.3297 0.3155
6.376190 0.3062 0.3019 0.2976 0.2914 0.2826
6.409260 0.2716 0.2664 0.2660 0.2690 0.2744
6.442330 0.2847 0.3034 0.3184 0.3259 0.3364
6.475400 0.3508 0.3728 0.3921 0.3996 0.4102
6.508470 0.4259 0.4385 0.4504 0.4553 0.4602
6.541540 0.4664 0.4768 0.4858 0.4927 0.5003
6.574610 0.5044 0.5121 0.5150 0.5219 0.5249
6.607680 0.5269 0.5270 0.5253 0.5209 0.5200
6.640750 0.5177 0.5147 0.5067 0.5026 0.4938
6.673820 0.4794 0.4599 0.4472 0.4271 0.3789
6.706890 0.3461 0.3402 0.3458 0.3560 0.3666
6.739960 0.3742 0.3796 0.3815 0.3769 0.3635
6.773030 0.3372 0.2998 0.2636 0.2247 0.1925
6.806100 0.1734 0.1648 0.1610 0.1610 0.1597
6.839170 0.1553 0.1521 0.1484 0.1455 0.1427
6.872240 0.1410 0.1413 0.1440 0.1440 0.1460
6.905310 0.1460 0.1441 0.1459 0.1577 0.1722
6.938380 0.1826 0.2008 0.2244 0.2570 0.2739
6.971450 0.3054 0.3561 0.3828 0.4025 0.4387
7.004520 0.4710 0.4904 0.5033 0.5165 0.5249
7.037590 0.5281 0.5317 0.5345 0.5370 0.5404
7.070660 0.5429 0.5440 0.5440 0.5414 0.5345
7.103730 0.5261 0.5166 0.5075 0.4977 0.4873
7.136800 0.4757 0.4650 0.4339 0.3911 0.3077
7.169870 0.2640 0.2459 0.2251 0.2098 0.1970
7.202940 0.1710 0.1357 0.1258 0.1112 0.1018
7.236010 0.0832 0.0741 0.0671 0.0660 0.0676
7.269080 0.0719 0.0829 0.0985 0.1137 0.1485
7.302150 0.1869 0.2152 0.2292 0.2508 0.2725
7.335220 0.2868 0.3068 0.3270 0.3457 0.3620
7.368290 0.3724 0.3806 0.3864 0.3912 0.3978
7.401360 0.4001 0.4031 0.4067 0.4112 0.4166
7.434430 0.4256 0.4361 0.4472 0.4602 0.4788
7.467500 0.4930 0.5096 0.5269 0.5379 0.5573
7.500570 0.5703 0.5743 0.5791 0.5820 0.5820
7.533640 0.5820 0.5839 0.5840 0.5867 0.5897
7.566710 0.5957 0.6033 0.6088 0.6115 0.6142
7.599780 0.6164 0.6143 0.6091 0.5975 0.5810
7.632850 0.5577 0.5345 0.5225 0.5200 0.5230
7.665920 0.5330 0.5423 0.5476 0.5500 0.5461
7.698990 0.5345 0.5188 0.5021 0.4804 0.4582
7.732060 0.4497 0.4490 0.4510 0.4635 0.4865
7.765130 0.4947 0.5076 0.5155 0.5166 0.5063
7.798200 0.4580 0.3857 0.2992 0.2635 0.2419
7.831270 0.2415 0.2489 0.3019 0.3434 0.3717
7.864340 0.3901 0.4069 0.4371 0.4561 0.4881
7.897410 0.5107 0.5251 0.5337 0.5366 0.5370
7.930480 0.5370 0.5370 0.5334 0.5306 0.5314
7.963550 0.5340 0.5380 0.5439 0.5551 0.5682
7.996620 0.5770 0.5819 0.5831 0.5820 0.5808
8.029690 0.5771 0.5689 0.5579 0.5555 0.5577
8.062760 0.5633 0.5764 0.5829 0.5882 0.5960
8.095830 0.6043 0.6163 0.6288 0.6339 0.6408
8.128900 0.6471 0.6485 0.6553 0.6621 0.6670
8.161970 0.6699 0.6767 0.6779 0.6823 0.6847
8.195040 0.6866 0.6878 0.6880 0.6895 0.6900
8.228110 0.6914 0.6927 0.6945 0.6965 0.6970
8.261180 0.6977 0.6993 0.7000 0.7012 0.7026
8.294250 0.7053 0.7070 0.7075 0.7080 0.7080
8.327320 0.7080 0.7088 0.7100 0.7107 0.7120
8.360390 0.7123 0.7130 0.7141 0.7173 0.7186
8.393460 0.7209 0.7235 0.7250 0.7250 0.7250
8.426530 0.7250 0.7250 0.7250 0.7249 0.7230
8.459600 0.7230 0.7220 0.7220 0.7220 0.7220
8.492670 0.7202 0.7200 0.7174 0.7115 0.7062
8.525740 0.6917 0.6806 0.6759 0.6750 0.6769
8.558810 0.6793 0.6812 0.6838 0.6862 0.6857
8.591880 0.6838 0.6801 0.6752 0.6730 0.6730
8.624950 0.6740 0.6760 0.6797 0.6838 0.6861
8.658020 0.6903 0.6950 0.6915 0.6790 0.6665
8.691090 0.6615 0.6604 0.6638 0.6731 0.6814
8.724160 0.6944 0.7009 0.7055 0.7086 0.7121
8.757230 0.7137 0.7202 0.7219 0.7200 0.7200
8.790300 0.7181 0.7125 0.7084 0.7011 0.6831
8.823370 0.6784 0.6780 0.6780 0.6780 0.6837
8.856440 0.6906 0.6943 0.6973 0.7017 0.7059
8.889510 0.7077 0.7093 0.7087 0.7061 0.7021
8.922580 0.6831 0.6599 0.6476 0.6379 0.6320
8.955650 0.6362 0.6492 0.6619 0.6696 0.6831
8.988720 0.6940 0.6981 0.7047 0.7164 0.7243
9.021790 0.7288 0.7335 0.7357 0.7385 0.7404
9.054860 0.7421 0.7432 0.7452 0.7471 0.7480
9.087930 0.7480 0.7480 0.7499 0.7500 0.7519
9.121000 0.7520 0.7503 0.7500 0.7500 0.7485
9.154070 0.7473 0.7456 0.7415 0.7366 0.7284
9.187140 0.7145 0.7044 0.6482 0.5960 0.5769
9.220210 0.5715 0.5700 0.5797 0.5958 0.6130
9.253280 0.6268 0.6354 0.6461 0.6577 0.6678
9.286350 0.6804 0.6876 0.6936 0.6950 0.6942
9.319420 0.6907 0.6858 0.6813 0.6747 0.6656
9.352490 0.6580 0.6584 0.6603 0.6624 0.6656
9.385560 0.6705 0.6754 0.6900 0.6969 0.7018
9.418630 0.7067 0.7097 0.7172 0.7259 0.7296
9.451700 0.7341 0.7421 0.7491 0.7500 0.7517
9.484770 0.7528 0.7530 0.7530 0.7530 0.7530
9.517840 0.7530 0.7530 0.7530 0.7530 0.7530
9.550910 0.7530 0.7525 0.7495 0.7446 0.7389
9.583980 0.7329 0.7269 0.7057 0.6622 0.6335
9.617050 0.6165 0.6150 0.6157 0.6190 0.6246
9.650120 0.6322 0.6340 0.6414 0.6493 0.6600
9.683190 0.6591 0.6504 0.6280 0.6067 0.5884
9.716260 0.5770 0.5750 0.5769 0.5878 0.6031
9.749330 0.6325 0.6579 0.6767 0.6895 0.6966
9.782400 0.7033 0.7072 0.7111 0.7198 0.7243
9.815470 0.7309 0.7344 0.7350 0.7363 0.7370
9.848540 0.7370 0.7370 0.7359 0.7340 0.7325
9.881610 0.7311 0.7287 0.7270 0.7254 0.7212
9.914680 0.7145 0.7028 0.6880 0.6725 0.6547
9.947750 0.6374 0.6143 0.5884 0.5599 0.5364
9.980820 0.5243 0.5204 0.5145 0.5185 0.5333
10.013890 0.5497 0.5626 0.5791 0.5869 0.6044
10.046960 0.6211 0.6359 0.6604 0.6705 0.6808
10.080030 0.6900 0.6965 0.7031 0.7064 0.7160
10.113100 0.7247 0.7289 0.7331 0.7383 0.7434
10.146170 0.7450 0.7463 0.7476 0.7492 0.7511
10.179240 0.7520 0.7525 0.7530 0.7530 0.7530
10.212310 0.7530 0.7530 0.7530 0.7527 0.7520
10.245380 0.7515 0.7488 0.7443 0.7404 0.7323
10.278450 0.7213 0.7054 0.6848 0.6617 0.6447
10.311520 0.6312 0.6194 0.6150 0.6149 0.6130
10.344590 0.6130 0.6244 0.6455 0.6588 0.6751
10.377660 0.6909 0.6964 0.7019 0.7086 0.7160
10.410730 0.7221 0.7271 0.7272 0.7254 0.7212
10.443800 0.7141 0.7084 0.6973 0.6943 0.6968
10.476870 0.6991 0.7011 0.7046 0.6994 0.6896
10.509940 0.6861 0.6859 0.6891 0.6940 0.6981
10.543010 0.7036 0.7183 0.7375 0.7469 0.7538
10.576080 0.7572 0.7583 0.7603 0.7624 0.7653
10.609150 0.7687 0.7721 0.7733 0.7750 0.7752
10.642220 0.7771 0.7781 0.7800 0.7800 0.7819
10.675290 0.7829 0.7847 0.7850 0.7850 0.7866
10.708360 0.7870 0.7878 0.7895 0.7914 0.7920
10.741430 0.7905 0.7915 0.7920 0.7920 0.7920
10.774500 0.7920 0.7920 0.7920 0.7920 0.7926
10.807570 0.7925 0.7920 0.7920 0.7920 0.7920
10.840640 0.7920 0.7920 0.7920 0.7914 0.7900
10.873710 0.7894 0.7877 0.7870 0.7870 0.7873
10.906780 0.7880 0.7889 0.7922 0.7934 0.7953
10.939850 0.7971 0.7980 0.7981 0.8000 0.8010
10.972920 0.8010 0.8029 0.8049 0.8050 0.8059
11.005990 0.8060 0.8076 0.8080 0.8080 0.8095
11.039060 0.8100 0.8107 0.8137 0.8150 0.8138
11.072130 0.8130 0.8130 0.8130 0.8118 0.8092
11.105200 0.8063 0.8011 0.7964 0.7940 0.7930
11.138270 0.7930 0.7930 0.7930 0.7937 0.7950
11.171340 0.7950 0.7956 0.7970 0.7970 0.7972
11.204410 0.7980 0.7974 0.7945 0.7895 0.7746
11.237480 0.7623 0.7488 0.7415 0.7380 0.7384
11.270550 0.7423 0.7474 0.7567 0.7617 0.7648
11.303620 0.7740 0.7820 0.7907 0.7945 0.7966
11.336690 0.7970 0.7978 0.7980 0.8005 0.8042
11.369760 0.8058 0.8060 0.8075 0.8080 0.8080
11.402830 0.8093 0.8087 0.8068 0.8044 0.8030
11.435900 0.8020 0.8005 0.7991 0.7980 0.7980
11.468970 0.7988 0.8000 0.8000 0.7992 0.7976
11.502040 0.7970 0.7963 0.7950 0.7950 0.7950
11.535110 0.7950 0.7955 0.7970 0.7970 0.7968
11.568180 0.7947 0.7920 0.7915 0.7817 0.7729
11.601250 0.7651 0.7331 0.7037 0.6854 0.6779
11.634320 0.6754 0.6766 0.6933 0.7033 0.7101
11.667390 0.7248 0.7335 0.7430 0.7541 0.7591
11.700460 0.7669 0.7747 0.7822 0.7894 0.7926
11.733530 0.7942 0.7961 0.7986 0.8000 0.8000
11.766600 0.8004 0.8018 0.8038 0.8050 0.8050
11.799670 0.8053 0.8066 0.8080 0.8080 0.8080
11.832740 0.8074 0.8057 0.8040 0.7996 0.7944
11.865810 0.7916 0.7887 0.7807 0.7721 0.7649
11.898880 0.7618 0.7481 0.7383 0.7275 0.7205
11.931950 0.7127 0.7085 0.7080 0.7080 0.7161
11.965020 0.7259 0.7313 0.7430 0.7549 0.7594
11.998090 0.7663 0.7680 0.7643 0.7551 0.7474
12.031160 0.7370 0.7231 0.7119 0.6805 0.6443
12.064230 0.6234 0.6024 0.5779 0.5637 0.5600
12.097300 0.5560 0.5565 0.5656 0.5795 0.5963
12.130370 0.6081 0.6267 0.6353 0.6475 0.6608
12.163440 0.6650 0.6656 0.6688 0.6733 0.6771
12.196510 0.6930 0.7027 0.7113 0.7322 0.7381
12.229580 0.7465 0.7543 0.7613 0.7664 0.7721
12.262650 0.7805 0.7885 0.7916 0.7928 0.7945
12.295720 0.7966 0.8002 0.8025 0.8030 0.8030
12.328790 0.8016 0.8010 0.8010 0.8004 0.7988
12.361860 0.7963 0.7940 0.7925 0.7901 0.7876
12.394930 0.7861 0.7850 0.7858 0.7874 0.7887
12.428000 0.7907 0.7924 0.7937 0.7950 0.7956
12.461070 0.7973 0.7980 0.7985 0.8000 0.8000
12.494140 0.8000 0.8001 0.8014 0.8052 0.8080
12.527210 0.8080 0.8080 0.8100 0.8100 0.8109
12.560280 0.8110 0.8110 0.8110 0.8110 0.8110
12.593350 0.8125 0.8130 0.8144 0.8150 0.8137
12.626420 0.8117 0.8110 0.8103 0.8100 0.8087
12.659490 0.8049 0.8018 0.7993 0.7963 0.7934
12.692560 0.7899 0.7820 0.7696 0.7561 0.7396
12.725630 0.7204 0.6924 0.6463 0.6071 0.5836
12.758700 0.5719 0.5631 0.5507 0.5308 0.5120
12.791770 0.4849 0.4492 0.3768 0.3760 0.3777
12.824840 0.3898 0.3963 0.4004 0.4435 0.4759
12.857910 0.5025 0.5326 0.5819 0.6134 0.6307
12.890980 0.6455 0.6602 0.6778 0.6929 0.6975
12.924050 0.7021 0.7062 0.7078 0.7185 0.7242
12.957120 0.7300 0.7409 0.7481 0.7529 0.7561
12.990190 0.7575 0.7590 0.7635 0.7694 0.7725
13.023260 0.7739 0.7758 0.7770 0.7773 0.7786
13.056330 0.7805 0.7822 0.7834 0.7854 0.7870
13.089400 0.7870 0.7871 0.7883 0.7900 0.7897
13.122470 0.7880 0.7882 0.7900 0.7900 0.7900
13.155540 0.7900 0.7900 0.7900 0.7900 0.7900
13.188610 0.7900 0.7900 0.7884 0.7880 0.7857
13.221680 0.7835 0.7808 0.7779 0.7755 0.7750
13.254750 0.7698 0.7644 0.7595 0.7546 0.7497
13.287820 0.7461 0.7438 0.7371 0.7271 0.7113
13.320890 0.6870 0.6592 0.6304 0.5955 0.5581
13.353960 0.5301 0.4964 0.4554 0.4254 0.3981
13.387030 0.3776 0.3668 0.3620 0.3620 0.3625
13.420100 0.3658 0.3751 0.3901 0.4063 0.4211
13.453170 0.4465 0.4699 0.4925 0.5219 0.5317
13.486240 0.5529 0.5828 0.5986 0.6133 0.6248
13.519310 0.6278 0.6318 0.6382 0.6422 0.6458
13.552380 0.6477 0.6506 0.6507 0.6488 0.6461
13.585450 0.6430 0.6375 0.6215 0.5934 0.5709
13.618520 0.5563 0.5468 0.5394 0.5335 0.5320
13.651590 0.5320 0.5327 0.5357 0.5422 0.5534
13.684660 0.5670 0.5785 0.5922 0.6076 0.6260
13.717730 0.6313 0.6369 0.6438 0.6491 0.6583
13.750800 0.6604 0.6643 0.6732 0.6757 0.6831
13.783870 0.6850 0.6869 0.6870 0.6897 0.6900
13.816940 0.6926 0.6930 0.6930 0.6930 0.6946
13.850010 0.6950 0.6967 0.6978 0.6996 0.7000
13.883080 0.7022 0.7044 0.7064 0.7077 0.7093
13.916150 0.7148 0.7180 0.7191 0.7215 0.7240
13.949220 0.7259 0.7274 0.7301 0.7350 0.7388
13.982290 0.7408 0.7424 0.7446 0.7482 0.7511
14.015360 0.7537 0.7556 0.7573 0.7586 0.7605
14.048430 0.7620 0.7622 0.7635 0.7670 0.7671
14.081500 0.7680 0.7681 0.7700 0.7700 0.7700
14.114570 0.7719 0.7720 0.7720 0.7720 0.7720
14.147640 0.7720 0.7720 0.7720 0.7720 0.7720
14.180710 0.7706 0.7678 0.7655 0.7650 0.7602
14.213780 0.7540 0.7456 0.7395 0.7272 0.7131
14.246850 0.7052 0.6904 0.6757 0.6726 0.6720
14.279920 0.6712 0.6707 0.6755 0.6839 0.6910
14.312990 0.7005 0.7073 0.7096 0.7161 0.7256
14.346060 0.7336 0.7402 0.7477 0.7514 0.7572
14.379130 0.7586 0.7621 0.7632 0.7671 0.7700
14.412200 0.7720 0.7730 0.7730 0.7730 0.7748
14.445270 0.7768 0.7770 0.7779 0.7780 0.7780
14.478340 0.7771 0.7770 0.7778 0.7780 0.7795
14.511410 0.7815 0.7820 0.7820 0.7826 0.7830
14.544480 0.7830 0.7830 0.7830 0.7830 0.7825
14.577550 0.7820 0.7811 0.7800 0.7800 0.7793
14.610620 0.7777 0.7770 0.7770 0.7770 0.7770
14.643690 0.7770 0.7772 0.7780 0.7780 0.7780
14.676760 0.7780 0.7780 0.7780 0.7776 0.7750
14.709830 0.7749 0.7730 0.7730 0.7730 0.7730
14.742900 0.7730 0.7730 0.7721 0.7720 0.7720
14.775970 0.7704 0.7700 0.7700 0.7684 0.7680
14.809040 0.7672 0.7655 0.7635 0.7609 0.7586
14.842110 0.7573 0.7570 0.7557 0.7550 0.7534
14.875180 0.7500 0.7480 0.7475 0.7452 0.7417
14.908250 0.7392 0.7376 0.7363 0.7343 0.7318
14.941320 0.7292 0.7276 0.7257 0.7214
##END=
