##TITLE=FUCHSIN REN BASIC
##JCAMP-DX=4.24
##DATA TYPE=INFRARED SPECTRUM
##CLASS=COBLENTZ
##ORIGIN=WYANDOTTE CHEMICALS CORP., WYANDOTTE, MICHIGAN, USA
##OWNER=COBLENTZ SOCIETY
Collection (C) 2018 copyright by the U.S. Secretary of Commerce
on behalf of the United States of America. All rights reserved.
##DATE=Not specified, most likely prior to 1970
##NAMES=4-[(4-amino-3-methylphenyl)(4-imino-2,5-cyclohexadien-1-ylidene)methyl]phenylamine hydrochloride
##MOLFORM=C20 H20 Cl N3
##SOURCE REFERENCE=COBLENTZ NO. 3770
##$NIST ID=B6003770
##$NIST SOURCE=COBLENTZ
##$NIST IMAGE=cob3770
##SPECTROMETER/DATA SYSTEM=Not specified, most likely a prism, grating, or hybrid spectrometer.
##STATE=SOLID (MINERAL OIL MULL)
##PATH LENGTH=
$$SPECTRAL CONTAMINATION DUE TO OIL AROUND 2900 CM^-^1
##SAMPLING PROCEDURE=TRANSMISSION
##RESOLUTION=4
##DATA PROCESSING=DIGITIZED BY NIST FROM HARD COPY
##XUNITS=MICROMETERS
##YUNITS=TRANSMITTANCE
##XFACTOR=1.000000
##YFACTOR=1
##DELTAX=000.006197
##FIRSTX=2.012
##LASTX=15.988
##FIRSTY=0.246
##MAXX=15.988
##MINX=2.012
##MAXY=0.928
##MINY=0.021
##NPOINTS=2256
##XYDATA=(X++(Y..Y))
2.012000 0.2460 0.2480 0.2460 0.2460 0.2460
2.043001 0.2440 0.2440 0.2440 0.2460 0.2460
2.074000 0.2480 0.2480 0.2480 0.2490 0.2510
2.105001 0.2520 0.2540 0.2540 0.2480 0.2440
2.136000 0.2430 0.2430 0.2460 0.2480 0.2490
2.167001 0.2520 0.2550 0.2570 0.2570 0.2580
2.198000 0.2580 0.2580 0.2570 0.2570 0.2570
2.229001 0.2540 0.2510 0.2490 0.2480 0.2410
2.260000 0.2410 0.2460 0.2510 0.2510 0.2490
2.291001 0.2480 0.2460 0.2430 0.2430 0.2410
2.322000 0.2430 0.2440 0.2440 0.2440 0.2430
2.353001 0.2440 0.2460 0.2480 0.2490 0.2490
2.384000 0.2490 0.2490 0.2480 0.2490 0.2510
2.415001 0.2510 0.2490 0.2490 0.2490 0.2570
2.446000 0.2620 0.2680 0.2680 0.2690 0.2710
2.477001 0.2710 0.2710 0.2710 0.2710 0.2690
2.508000 0.2690 0.2680 0.2660 0.2660 0.2660
2.539001 0.2660 0.2680 0.2690 0.2690 0.2690
2.570000 0.2710 0.2710 0.2710 0.2720 0.2740
2.601001 0.2770 0.2770 0.2790 0.2790 0.2790
2.632000 0.2790 0.2800 0.2830 0.2860 0.2930
2.663001 0.2970 0.2990 0.3000 0.3030 0.3030
2.694000 0.3000 0.3000 0.2990 0.2960 0.2970
2.725001 0.2990 0.2960 0.2880 0.2850 0.2830
2.756000 0.2830 0.2850 0.2860 0.2890 0.2910
2.787001 0.2910 0.2890 0.2850 0.2880 0.2860
2.818000 0.2850 0.2860 0.2860 0.2830 0.2800
2.849001 0.2790 0.2790 0.2820 0.2820 0.2800
2.880000 0.2790 0.2770 0.2710 0.2620 0.2580
2.911001 0.2540 0.2480 0.2480 0.2440 0.2410
2.942000 0.2400 0.2370 0.2340 0.2310 0.2310
2.973001 0.2290 0.2290 0.2270 0.2240 0.2200
3.004000 0.2130 0.2060 0.2000 0.1960 0.1890
3.035001 0.1820 0.1790 0.1760 0.1750 0.1730
3.066000 0.1750 0.1760 0.1810 0.1870 0.1890
3.097001 0.1900 0.1900 0.1920 0.1900 0.1870
3.128000 0.1820 0.1820 0.1790 0.1700 0.1650
3.159001 0.1590 0.1560 0.1530 0.1510 0.1500
3.190000 0.1480 0.1450 0.1450 0.1440 0.1420
3.221001 0.1410 0.1390 0.1390 0.1370 0.1370
3.252000 0.1390 0.1390 0.1390 0.1410 0.1410
3.283001 0.1390 0.1370 0.1310 0.1270 0.1220
3.314000 0.1190 0.1170 0.1100 0.0990 0.0860
3.345001 0.0740 0.0630 0.0550 0.0460 0.0370
3.376000 0.0290 0.0260 0.0230 0.0230 0.0230
3.407001 0.0230 0.0210 0.0210 0.0210 0.0210
3.438000 0.0210 0.0210 0.0210 0.0210 0.0210
3.469001 0.0230 0.0230 0.0230 0.0240 0.0260
3.500000 0.0270 0.0240 0.0210 0.0210 0.0260
3.531001 0.0270 0.0350 0.0540 0.0720 0.0970
3.562000 0.1160 0.1360 0.1510 0.1610 0.1670
3.593001 0.1790 0.1980 0.2040 0.2130 0.2150
3.624000 0.2200 0.2210 0.2230 0.2290 0.2380
3.655001 0.2380 0.2370 0.2370 0.2320 0.2310
3.686000 0.2270 0.2240 0.2230 0.2210 0.2230
3.717001 0.2260 0.2310 0.2370 0.2380 0.2380
3.748000 0.2400 0.2410 0.2460 0.2510 0.2570
3.779001 0.2620 0.2620 0.2600 0.2600 0.2580
3.810000 0.2580 0.2600 0.2630 0.2660 0.2690
3.841001 0.2690 0.2690 0.2710 0.2720 0.2720
3.872000 0.2720 0.2720 0.2740 0.2770 0.2790
3.903001 0.2820 0.2860 0.2880 0.2890 0.2910
3.934000 0.2930 0.2970 0.3000 0.3000 0.3020
3.965001 0.3020 0.3050 0.3060 0.3100 0.3100
3.996000 0.3110 0.3110 0.3110 0.3130 0.3130
4.027001 0.3130 0.3140 0.3160 0.3190 0.3200
4.058000 0.3240 0.3270 0.3270 0.3280 0.3280
4.089001 0.3310 0.3310 0.3330 0.3340 0.3360
4.120000 0.3360 0.3370 0.3370 0.3370 0.3410
4.151001 0.3410 0.3420 0.3420 0.3420 0.3440
4.181000 0.3440 0.3450 0.3480 0.3500 0.3500
4.212001 0.3480 0.3480 0.3500 0.3510 0.3560
4.243000 0.3560 0.3530 0.3510 0.3500 0.3470
4.274001 0.3470 0.3450 0.3420 0.3420 0.3450
4.305000 0.3470 0.3470 0.3480 0.3500 0.3530
4.336001 0.3580 0.3590 0.3620 0.3670 0.3680
4.367000 0.3720 0.3780 0.3810 0.3860 0.3950
4.398001 0.4000 0.4030 0.4030 0.4000 0.4000
4.429000 0.4000 0.4000 0.4000 0.4000 0.4000
4.460001 0.4010 0.4010 0.4010 0.4030 0.4030
4.491000 0.4030 0.4060 0.4070 0.4130 0.4180
4.522001 0.4200 0.4200 0.4180 0.4180 0.4170
4.553000 0.4150 0.4150 0.4150 0.4150 0.4150
4.584001 0.4150 0.4150 0.4170 0.4200 0.4230
4.615000 0.4240 0.4270 0.4270 0.4290 0.4310
4.646001 0.4320 0.4340 0.4380 0.4400 0.4400
4.677000 0.4410 0.4410 0.4400 0.4400 0.4380
4.708001 0.4400 0.4400 0.4410 0.4440 0.4490
4.739000 0.4510 0.4520 0.4580 0.4580 0.4600
4.770001 0.4630 0.4630 0.4650 0.4660 0.4750
4.801000 0.4790 0.4820 0.4830 0.4850 0.4860
4.832001 0.4890 0.4970 0.4970 0.4910 0.4880
4.863000 0.4830 0.4830 0.4880 0.4940 0.4960
4.894001 0.4970 0.4970 0.4990 0.5020 0.5060
4.925000 0.5080 0.5100 0.5110 0.5110 0.5160
4.956001 0.5170 0.5200 0.5250 0.5270 0.5280
4.987000 0.5300 0.5300 0.5310 0.5310 0.5310
5.018001 0.5330 0.5330 0.5330 0.5330 0.5310
5.049000 0.5280 0.5220 0.5220 0.5240 0.5270
5.080001 0.5300 0.5340 0.5360 0.5370 0.5390
5.111000 0.5440 0.5470 0.5500 0.5590 0.5670
5.142001 0.5700 0.5720 0.5760 0.5780 0.5780
5.173000 0.5790 0.5790 0.5810 0.5820 0.5860
5.204001 0.5890 0.5920 0.5930 0.5950 0.5950
5.235000 0.5960 0.5980 0.5980 0.6000 0.6060
5.266001 0.6090 0.6120 0.6180 0.6270 0.6310
5.297000 0.6340 0.6370 0.6370 0.6380 0.6480
5.328001 0.6490 0.6580 0.6600 0.6620 0.6660
5.359000 0.6710 0.6710 0.6690 0.6600 0.6600
5.390001 0.6710 0.6800 0.6850 0.6880 0.6890
5.421000 0.6910 0.6940 0.6990 0.7000 0.7020
5.452001 0.7080 0.7130 0.7170 0.7220 0.7270
5.483000 0.7330 0.7300 0.7300 0.7300 0.7300
5.514001 0.7360 0.7470 0.7500 0.7510 0.7510
5.545000 0.7530 0.7580 0.7670 0.7680 0.7700
5.576001 0.7720 0.7780 0.7790 0.7840 0.8040
5.607000 0.8200 0.8210 0.8230 0.8230 0.8240
5.638001 0.8260 0.8240 0.8260 0.8270 0.8350
5.669000 0.8440 0.8600 0.8680 0.8680 0.8770
5.700001 0.8800 0.8800 0.8750 0.8770 0.8830
5.731000 0.8940 0.8990 0.9000 0.9020 0.9000
5.762001 0.9050 0.9190 0.9270 0.9280 0.9220
5.793000 0.9130 0.9020 0.8910 0.8910 0.8970
5.824001 0.9080 0.9060 0.8890 0.8740 0.8580
5.855000 0.8440 0.8240 0.8100 0.8000 0.7820
5.886001 0.7670 0.7340 0.7030 0.6790 0.6540
5.917000 0.6320 0.6210 0.6090 0.5890 0.5700
5.948001 0.5500 0.5300 0.5140 0.4990 0.4890
5.979000 0.4830 0.4800 0.4720 0.4520 0.4310
6.010001 0.4130 0.3950 0.3900 0.3790 0.3590
6.041000 0.3470 0.3280 0.3110 0.2970 0.2860
6.072001 0.2820 0.2850 0.2880 0.2910 0.2970
6.103000 0.2970 0.2990 0.3100 0.3280 0.3330
6.134001 0.3410 0.3440 0.3440 0.3440 0.3440
6.165000 0.3360 0.3330 0.3190 0.2940 0.2690
6.196001 0.2310 0.1870 0.1590 0.1340 0.1280
6.227000 0.1240 0.1200 0.1060 0.0970 0.0940
6.258001 0.0930 0.0940 0.0940 0.0960 0.0960
6.289000 0.0970 0.0990 0.1000 0.1110 0.1170
6.320001 0.1200 0.1250 0.1280 0.1300 0.1300
6.351000 0.1310 0.1360 0.1390 0.1450 0.1500
6.382001 0.1510 0.1530 0.1510 0.1480 0.1470
6.413000 0.1450 0.1450 0.1420 0.1410 0.1390
6.444001 0.1390 0.1370 0.1370 0.1370 0.1370
6.475000 0.1370 0.1390 0.1420 0.1470 0.1500
6.506001 0.1530 0.1550 0.1580 0.1590 0.1620
6.537000 0.1640 0.1670 0.1680 0.1700 0.1750
6.568001 0.1810 0.1870 0.1900 0.1930 0.1960
6.598000 0.2060 0.2130 0.2230 0.2310 0.2370
6.629001 0.2430 0.2460 0.2480 0.2490 0.2520
6.660000 0.2620 0.2660 0.2680 0.2680 0.2680
6.691001 0.2690 0.2680 0.2580 0.2520 0.2480
6.722000 0.2400 0.2310 0.2180 0.2090 0.1950
6.753001 0.1760 0.1550 0.1280 0.0990 0.0790
6.784000 0.0620 0.0600 0.0580 0.0520 0.0460
6.815001 0.0410 0.0460 0.0490 0.0520 0.0600
6.846000 0.0630 0.0680 0.0680 0.0690 0.0750
6.877001 0.0830 0.0910 0.1100 0.1220 0.1480
6.908000 0.1620 0.1790 0.1950 0.2120 0.2400
6.939001 0.2790 0.3000 0.3280 0.3480 0.3590
6.970000 0.3790 0.3950 0.4010 0.4090 0.4090
7.001001 0.4060 0.4030 0.4010 0.4000 0.3980
7.032000 0.3980 0.3930 0.3780 0.3610 0.3480
7.063001 0.3310 0.3240 0.3100 0.2970 0.2800
7.094000 0.2690 0.2630 0.2570 0.2480 0.2410
7.125001 0.2370 0.2310 0.2290 0.2270 0.2270
7.156000 0.2240 0.2200 0.2100 0.2000 0.1840
7.187001 0.1730 0.1640 0.1300 0.1110 0.0910
7.218000 0.0820 0.0750 0.0600 0.0520 0.0490
7.249001 0.0430 0.0410 0.0410 0.0480 0.0510
7.280000 0.0570 0.0580 0.0580 0.0580 0.0600
7.311001 0.0650 0.0680 0.0690 0.0790 0.0850
7.342000 0.0960 0.1060 0.1080 0.1050 0.1030
7.373001 0.0990 0.1000 0.1050 0.1080 0.1080
7.404000 0.1020 0.1000 0.1000 0.0970 0.0960
7.435001 0.0960 0.0930 0.0930 0.0960 0.0960
7.466000 0.0960 0.0960 0.0960 0.0930 0.0930
7.497001 0.0940 0.0960 0.0960 0.0960 0.0960
7.528000 0.0970 0.0990 0.1000 0.1020 0.1020
7.559001 0.0990 0.1000 0.1050 0.1110 0.1170
7.590000 0.1200 0.1220 0.1270 0.1310 0.1360
7.621001 0.1390 0.1410 0.1480 0.1550 0.1560
7.652000 0.1590 0.1650 0.1680 0.1760 0.1760
7.683001 0.1720 0.1670 0.1590 0.1510 0.1450
7.714000 0.1390 0.1330 0.1270 0.1220 0.1200
7.745001 0.1250 0.1250 0.1250 0.1220 0.1200
7.776000 0.1190 0.1200 0.1240 0.1300 0.1360
7.807001 0.1410 0.1440 0.1450 0.1470 0.1500
7.838000 0.1560 0.1610 0.1610 0.1620 0.1640
7.869001 0.1680 0.1760 0.1790 0.1870 0.1930
7.900000 0.1980 0.1980 0.2000 0.2010 0.2030
7.931001 0.2070 0.2070 0.2070 0.2070 0.2090
7.962000 0.2100 0.2150 0.2200 0.2260 0.2290
7.993001 0.2370 0.2400 0.2410 0.2410 0.2440
8.024000 0.2440 0.2460 0.2490 0.2550 0.2580
8.055001 0.2600 0.2660 0.2690 0.2720 0.2750
8.086000 0.2790 0.2860 0.2890 0.2960 0.2990
8.117001 0.3060 0.3080 0.3100 0.3160 0.3160
8.148000 0.3170 0.3220 0.3270 0.3330 0.3390
8.179001 0.3470 0.3500 0.3530 0.3550 0.3700
8.210000 0.3840 0.3870 0.3900 0.3960 0.4010
8.241001 0.4120 0.4130 0.4180 0.4210 0.4290
8.272000 0.4370 0.4400 0.4490 0.4630 0.4770
8.303001 0.4910 0.5050 0.5200 0.5420 0.5590
8.334000 0.5680 0.5870 0.5960 0.6090 0.6180
8.365001 0.6200 0.6180 0.6170 0.6150 0.6120
8.396000 0.5920 0.5680 0.5360 0.5000 0.4680
8.427001 0.3890 0.3640 0.3280 0.2690 0.2310
8.458000 0.2090 0.1810 0.1680 0.1480 0.1310
8.489001 0.1270 0.1170 0.1080 0.1030 0.1000
8.520000 0.0990 0.0970 0.0960 0.0960 0.0970
8.551001 0.0970 0.0970 0.0970 0.0990 0.0990
8.582000 0.1000 0.1020 0.1030 0.1050 0.1080
8.613001 0.1110 0.1170 0.1200 0.1240 0.1270
8.644000 0.1300 0.1330 0.1330 0.1360 0.1410
8.675001 0.1480 0.1530 0.1550 0.1530 0.1510
8.706000 0.1510 0.1500 0.1510 0.1550 0.1560
8.737001 0.1590 0.1610 0.1620 0.1670 0.1670
8.768000 0.1700 0.1720 0.1760 0.1780 0.1860
8.799001 0.1890 0.1920 0.1980 0.1980 0.1960
8.830000 0.1960 0.1960 0.1960 0.2000 0.2030
8.861001 0.2030 0.2040 0.2070 0.2070 0.2090
8.892000 0.2120 0.2170 0.2180 0.2200 0.2180
8.923001 0.2200 0.2210 0.2230 0.2270 0.2320
8.954000 0.2320 0.2270 0.2240 0.2210 0.2210
8.985001 0.2210 0.2240 0.2290 0.2320 0.2340
9.015000 0.2370 0.2380 0.2400 0.2400 0.2370
9.046001 0.2310 0.2340 0.2370 0.2380 0.2400
9.077000 0.2410 0.2410 0.2410 0.2410 0.2410
9.108001 0.2400 0.2380 0.2380 0.2400 0.2400
9.139000 0.2400 0.2410 0.2430 0.2430 0.2430
9.170001 0.2430 0.2410 0.2410 0.2400 0.2400
9.201000 0.2410 0.2440 0.2440 0.2440 0.2440
9.232001 0.2440 0.2440 0.2430 0.2430 0.2430
9.263000 0.2430 0.2480 0.2510 0.2540 0.2550
9.294001 0.2570 0.2550 0.2570 0.2600 0.2630
9.325000 0.2660 0.2660 0.2600 0.2600 0.2620
9.356001 0.2650 0.2680 0.2680 0.2690 0.2710
9.387000 0.2740 0.2790 0.2850 0.2860 0.2880
9.418001 0.2860 0.2880 0.2930 0.2970 0.2970
9.449000 0.2970 0.2930 0.2910 0.2910 0.2910
9.480001 0.2940 0.2960 0.2960 0.2960 0.2990
9.511000 0.2970 0.2960 0.2930 0.2930 0.2910
9.542001 0.2910 0.2910 0.2930 0.2970 0.2940
9.573000 0.2970 0.2970 0.2990 0.3020 0.3060
9.604001 0.3100 0.3130 0.3110 0.3080 0.3100
9.635000 0.3100 0.3110 0.3110 0.3110 0.3130
9.666001 0.3130 0.3140 0.3160 0.3160 0.3170
9.697000 0.3170 0.3190 0.3200 0.3240 0.3270
9.728001 0.3270 0.3240 0.3240 0.3240 0.3220
9.759000 0.3220 0.3220 0.3200 0.3220 0.3200
9.790001 0.3190 0.3130 0.3200 0.3200 0.3200
9.821000 0.3200 0.3170 0.3130 0.3110 0.3110
9.852001 0.3130 0.3170 0.3200 0.3240 0.3250
9.883000 0.3250 0.3270 0.3280 0.3300 0.3310
9.914001 0.3310 0.3330 0.3390 0.3480 0.3510
9.945000 0.3580 0.3610 0.3610 0.3620 0.3620
9.976001 0.3620 0.3650 0.3680 0.3750 0.3790
10.007000 0.3840 0.3820 0.3810 0.3810 0.3790
10.038001 0.3790 0.3810 0.3810 0.3810 0.3810
10.069000 0.3810 0.3820 0.3820 0.3860 0.3860
10.100001 0.3870 0.3870 0.3870 0.3890 0.3900
10.131000 0.3960 0.4000 0.4000 0.4000 0.4000
10.162001 0.4010 0.4030 0.4060 0.4070 0.4070
10.193000 0.4070 0.4090 0.4100 0.4100 0.4100
10.224001 0.4100 0.4100 0.4100 0.4090 0.4070
10.255000 0.4030 0.4030 0.4000 0.3980 0.3980
10.286001 0.4000 0.4030 0.4060 0.4070 0.4090
10.317000 0.4090 0.4070 0.4010 0.4010 0.4010
10.348001 0.4030 0.4060 0.4060 0.4060 0.4070
10.379000 0.4070 0.4040 0.4000 0.4000 0.3920
10.410001 0.3840 0.3840 0.3860 0.3860 0.3870
10.441000 0.3890 0.3950 0.4000 0.4070 0.4120
10.472001 0.4170 0.4260 0.4260 0.4290 0.4370
10.503000 0.4400 0.4410 0.4430 0.4460 0.4480
10.534001 0.4490 0.4540 0.4570 0.4570 0.4570
10.565000 0.4580 0.4600 0.4620 0.4630 0.4650
10.596001 0.4680 0.4690 0.4710 0.4740 0.4740
10.627000 0.4750 0.4800 0.4820 0.4830 0.4830
10.658001 0.4850 0.4850 0.4860 0.4860 0.4860
10.689000 0.4860 0.4880 0.4930 0.4970 0.5000
10.720001 0.4990 0.5000 0.5030 0.5060 0.5080
10.751000 0.5160 0.5160 0.5140 0.5160 0.5160
10.782001 0.5160 0.5170 0.5220 0.5270 0.5280
10.813000 0.5270 0.5280 0.5300 0.5300 0.5310
10.844001 0.5310 0.5340 0.5340 0.5300 0.5250
10.875000 0.5170 0.5060 0.5030 0.5000 0.4970
10.906001 0.4910 0.4880 0.4790 0.4600 0.4570
10.937000 0.4510 0.4340 0.4270 0.4180 0.4130
10.968001 0.4030 0.3890 0.3780 0.3720 0.3480
10.999000 0.3270 0.3130 0.2990 0.2890 0.2880
11.030001 0.2890 0.2960 0.2970 0.2970 0.3030
11.061000 0.3190 0.3280 0.3370 0.3470 0.3500
11.092001 0.3580 0.3680 0.3720 0.3810 0.3900
11.123000 0.4000 0.4070 0.4150 0.4230 0.4320
11.154001 0.4350 0.4380 0.4410 0.4410 0.4430
11.185000 0.4460 0.4480 0.4480 0.4490 0.4580
11.216001 0.4600 0.4620 0.4680 0.4690 0.4710
11.247000 0.4750 0.4770 0.4800 0.4830 0.4880
11.278001 0.4970 0.5000 0.5000 0.5000 0.4960
11.309000 0.4990 0.5030 0.5050 0.5060 0.5050
11.340001 0.5060 0.5080 0.5100 0.5130 0.5140
11.371000 0.5170 0.5240 0.5310 0.5310 0.5300
11.402001 0.5250 0.5240 0.5220 0.5250 0.5280
11.432000 0.5310 0.5310 0.5300 0.5310 0.5310
11.463001 0.5330 0.5370 0.5390 0.5390 0.5410
11.494000 0.5410 0.5410 0.5420 0.5420 0.5420
11.525001 0.5420 0.5440 0.5450 0.5470 0.5470
11.556000 0.5450 0.5480 0.5500 0.5510 0.5510
11.587001 0.5510 0.5500 0.5500 0.5470 0.5410
11.618000 0.5390 0.5360 0.5310 0.5280 0.5170
11.649001 0.5110 0.5080 0.5000 0.4970 0.4890
11.680000 0.4850 0.4790 0.4720 0.4630 0.4570
11.711001 0.4490 0.4410 0.4320 0.4180 0.4070
11.742000 0.3980 0.3790 0.3670 0.3580 0.3510
11.773001 0.3470 0.3370 0.3280 0.3250 0.3110
11.804000 0.3020 0.2850 0.2790 0.2740 0.2660
11.835001 0.2580 0.2510 0.2430 0.2370 0.2320
11.866000 0.2270 0.2260 0.2240 0.2230 0.2240
11.897001 0.2270 0.2290 0.2310 0.2370 0.2410
11.928000 0.2490 0.2550 0.2580 0.2680 0.2740
11.959001 0.2790 0.2860 0.2880 0.2930 0.2970
11.990000 0.3060 0.3160 0.3250 0.3310 0.3360
12.021001 0.3370 0.3370 0.3410 0.3470 0.3480
12.052000 0.3500 0.3500 0.3510 0.3510 0.3500
12.083001 0.3480 0.3470 0.3420 0.3390 0.3370
12.114000 0.3370 0.3360 0.3330 0.3330 0.3410
12.145001 0.3410 0.3370 0.3360 0.3280 0.3280
12.176000 0.3270 0.3200 0.3200 0.3200 0.3200
12.207001 0.3200 0.3220 0.3280 0.3310 0.3330
12.238000 0.3360 0.3390 0.3420 0.3440 0.3450
12.269001 0.3470 0.3480 0.3500 0.3550 0.3580
12.300000 0.3590 0.3670 0.3680 0.3700 0.3760
12.331001 0.3780 0.3810 0.3870 0.3870 0.3900
12.362000 0.3920 0.3960 0.3980 0.4000 0.4010
12.393001 0.4060 0.4100 0.4130 0.4150 0.4150
12.424000 0.4170 0.4180 0.4200 0.4210 0.4270
12.455001 0.4320 0.4370 0.4370 0.4380 0.4380
12.486000 0.4400 0.4400 0.4430 0.4480 0.4480
12.517001 0.4480 0.4430 0.4410 0.4410 0.4410
12.548000 0.4430 0.4460 0.4480 0.4480 0.4490
12.579001 0.4490 0.4490 0.4510 0.4540 0.4550
12.610000 0.4550 0.4540 0.4510 0.4480 0.4480
12.641001 0.4460 0.4480 0.4480 0.4480 0.4480
12.672000 0.4480 0.4480 0.4490 0.4490 0.4490
12.703001 0.4510 0.4510 0.4510 0.4510 0.4490
12.734000 0.4490 0.4480 0.4480 0.4480 0.4480
12.765001 0.4480 0.4490 0.4490 0.4490 0.4510
12.796000 0.4490 0.4490 0.4460 0.4440 0.4410
12.827001 0.4400 0.4380 0.4380 0.4380 0.4400
12.858000 0.4400 0.4400 0.4400 0.4400 0.4380
12.889001 0.4370 0.4340 0.4320 0.4310 0.4290
12.920000 0.4270 0.4260 0.4260 0.4260 0.4240
12.951001 0.4240 0.4240 0.4240 0.4240 0.4240
12.982000 0.4270 0.4270 0.4270 0.4240 0.4230
13.013001 0.4210 0.4210 0.4230 0.4230 0.4210
13.044000 0.4210 0.4200 0.4180 0.4180 0.4150
13.075001 0.4130 0.4100 0.4010 0.3840 0.3720
13.106000 0.3620 0.3580 0.3550 0.3530 0.3510
13.137001 0.3510 0.3500 0.3480 0.3480 0.3500
13.168000 0.3560 0.3580 0.3580 0.3610 0.3640
13.199001 0.3670 0.3670 0.3700 0.3700 0.3680
13.230000 0.3700 0.3700 0.3700 0.3760 0.3780
13.261001 0.3810 0.3860 0.3860 0.3760 0.3720
13.292000 0.3700 0.3680 0.3700 0.3720 0.3730
13.323001 0.3730 0.3750 0.3730 0.3700 0.3670
13.354000 0.3640 0.3640 0.3670 0.3720 0.3720
13.385001 0.3700 0.3680 0.3670 0.3650 0.3650
13.416000 0.3640 0.3620 0.3610 0.3610 0.3610
13.447001 0.3590 0.3590 0.3590 0.3590 0.3590
13.478000 0.3590 0.3610 0.3610 0.3590 0.3580
13.509001 0.3580 0.3560 0.3560 0.3550 0.3550
13.540000 0.3550 0.3510 0.3500 0.3480 0.3470
13.571001 0.3420 0.3370 0.3360 0.3330 0.3240
13.602000 0.3160 0.3130 0.3100 0.3100 0.3080
13.633001 0.3060 0.3030 0.3030 0.3020 0.3000
13.664000 0.2990 0.2990 0.3000 0.3000 0.3000
13.695001 0.3020 0.3030 0.3030 0.3060 0.3100
13.726000 0.3130 0.3160 0.3160 0.3160 0.3140
13.757001 0.3140 0.3170 0.3190 0.3220 0.3220
13.788000 0.3240 0.3250 0.3270 0.3280 0.3300
13.819001 0.3280 0.3280 0.3270 0.3270 0.3280
13.849000 0.3280 0.3300 0.3300 0.3300 0.3300
13.880001 0.3300 0.3300 0.3300 0.3310 0.3300
13.911000 0.3310 0.3310 0.3330 0.3340 0.3370
13.942001 0.3370 0.3370 0.3390 0.3410 0.3470
13.973000 0.3480 0.3500 0.3510 0.3530 0.3550
14.004001 0.3590 0.3610 0.3610 0.3610 0.3610
14.035000 0.3590 0.3610 0.3610 0.3610 0.3610
14.066001 0.3610 0.3610 0.3610 0.3610 0.3620
14.097000 0.3620 0.3640 0.3650 0.3670 0.3680
14.128001 0.3680 0.3680 0.3680 0.3680 0.3700
14.159000 0.3720 0.3730 0.3730 0.3720 0.3720
14.190001 0.3700 0.3700 0.3700 0.3720 0.3730
14.221000 0.3730 0.3750 0.3750 0.3750 0.3760
14.252001 0.3760 0.3760 0.3750 0.3760 0.3760
14.283000 0.3760 0.3760 0.3760 0.3760 0.3760
14.314001 0.3780 0.3780 0.3780 0.3780 0.3780
14.345000 0.3780 0.3780 0.3780 0.3780 0.3780
14.376001 0.3790 0.3790 0.3790 0.3790 0.3760
14.407000 0.3750 0.3760 0.3750 0.3730 0.3750
14.438001 0.3750 0.3750 0.3750 0.3760 0.3760
14.469000 0.3760 0.3760 0.3760 0.3760 0.3760
14.500001 0.3780 0.3780 0.3780 0.3780 0.3760
14.531000 0.3760 0.3760 0.3750 0.3760 0.3760
14.562001 0.3760 0.3760 0.3760 0.3760 0.3760
14.593000 0.3760 0.3760 0.3760 0.3760 0.3750
14.624001 0.3730 0.3730 0.3730 0.3730 0.3730
14.655000 0.3730 0.3730 0.3720 0.3700 0.3680
14.686001 0.3680 0.3680 0.3680 0.3680 0.3670
14.717000 0.3670 0.3670 0.3650 0.3640 0.3640
14.748001 0.3620 0.3610 0.3610 0.3620 0.3620
14.779000 0.3610 0.3610 0.3610 0.3640 0.3640
14.810001 0.3620 0.3610 0.3590 0.3590 0.3580
14.841000 0.3580 0.3580 0.3580 0.3580 0.3560
14.872001 0.3560 0.3560 0.3560 0.3560 0.3560
14.903000 0.3560 0.3560 0.3560 0.3560 0.3560
14.934001 0.3560 0.3560 0.3560 0.3560 0.3560
14.965000 0.3550 0.3510 0.3500 0.3510 0.3510
14.996001 0.3510 0.3500 0.3480 0.3470 0.3470
15.027000 0.3440 0.3370 0.3300 0.3200 0.3100
15.058001 0.3080 0.3020 0.3000 0.2960 0.2890
15.089000 0.2880 0.2860 0.2850 0.2850 0.2830
15.120001 0.2830 0.2830 0.2850 0.2850 0.2880
15.151000 0.2880 0.2890 0.2930 0.2940 0.2960
15.182001 0.2990 0.3000 0.3000 0.3000 0.3020
15.213000 0.3050 0.3110 0.3160 0.3190 0.3190
15.244001 0.3190 0.3190 0.3190 0.3190 0.3190
15.275000 0.3190 0.3200 0.3200 0.3200 0.3220
15.306001 0.3220 0.3220 0.3200 0.3190 0.3140
15.337000 0.3100 0.3080 0.3080 0.3080 0.3100
15.368001 0.3100 0.3110 0.3100 0.3100 0.3100
15.399000 0.3100 0.3100 0.3080 0.3080 0.3080
15.430001 0.3080 0.3060 0.3060 0.3060 0.3050
15.461000 0.3060 0.3050 0.3050 0.3020 0.3030
15.492001 0.3030 0.3030 0.3030 0.3020 0.3020
15.523000 0.3020 0.3020 0.3000 0.3000 0.3000
15.554001 0.3000 0.3000 0.3000 0.3000 0.2990
15.585000 0.2990 0.2990 0.2960 0.2960 0.2970
15.616001 0.2970 0.2970 0.2970 0.2970 0.2970
15.647000 0.2970 0.2970 0.2970 0.2990 0.2990
15.678001 0.2970 0.2970 0.2970 0.2990 0.2960
15.709000 0.2960 0.3020 0.3020 0.2990 0.2910
15.740001 0.2910 0.2890 0.2910 0.2930 0.2970
15.771000 0.2970 0.2970 0.2970 0.2970 0.2990
15.802001 0.2990 0.2990 0.2990 0.2940 0.2940
15.833000 0.2930 0.2910 0.2910 0.2890 0.2890
15.864001 0.2890 0.2910 0.2910 0.2910 0.2910
15.895000 0.2910 0.2910 0.2910 0.2910 0.2910
15.926001 0.2890 0.2880 0.2880 0.2880 0.2880
15.957000 0.2880 0.2880 0.2880 0.2860 0.2880
15.988001 0.2880
##END=
