##TITLE=1,2-Decanediamine, dihydrochloride
##JCAMP-DX=4.24
##DATA TYPE=INFRARED SPECTRUM
##CLASS=COBLENTZ III
##ORIGIN=BRITISH PETROLEUM CO. LTD., ENGLAND
##OWNER=Copyright (C) 1987 by the Coblentz Society
Collection (C) 2018 copyright by the U.S. Secretary of Commerce
on behalf of the United States of America. All rights reserved.
##DATE=1972/07/28
##MOLFORM=C10 H26 Cl2 N2
##SOURCE REFERENCE=COBLENTZ NO. 9354
##$NIST ID=B6009354
##$NIST SOURCE=COBLENTZ
##$NIST IMAGE=cob9354
##SPECTROMETER/DATA SYSTEM=PERKIN-ELMER 157
##STATE=SOLID (KBr DISC, 0.8% WT.)
$$ HCl RUN IN KBr MAY CONTAIN SOME HBr
$$ REF. Can. J. Spec., 18,4,101, '73 C. S. DOUSE and P. B. TOOKE
##SAMPLING PROCEDURE=TRANSMISSION
##RESOLUTION=2
##DATA PROCESSING=DIGITIZED BY COBLENTZ SOCIETY (BATCH II) FROM HARD COPY
##XUNITS=1/CM
##YUNITS=TRANSMITTANCE
##XFACTOR=1.0
##YFACTOR=1
##FIRSTX=667
##LASTX=4000
##FIRSTY=0.8851
##MAXX=4000
##MINX=667
##MAXY=0.8855
##MINY=0.0143
##NPOINTS=3334
##XYDATA=(X++(Y..Y))
667.000000 0.8851 0.8852 0.8855 0.8855 0.8855
672.000000 0.8848 0.8849 0.8846 0.8839 0.8833
677.000000 0.8825 0.8807 0.8747 0.8716 0.8695
682.000000 0.8676 0.8662 0.8650 0.8638 0.8624
687.000000 0.8611 0.8593 0.8575 0.8548 0.8520
692.000000 0.8491 0.8463 0.8432 0.8402 0.8372
697.000000 0.8338 0.8303 0.8266 0.8221 0.8177
702.000000 0.8133 0.8083 0.8034 0.7978 0.7914
707.000000 0.7851 0.7827 0.7815 0.7731 0.7584
712.000000 0.7427 0.7256 0.7054 0.6765 0.6518
717.000000 0.6307 0.6013 0.5736 0.4228 0.3692
722.000000 0.3343 0.3072 0.3040 0.3092 0.3602
727.000000 0.4124 0.4645 0.5165 0.5503 0.5929
732.000000 0.6415 0.6560 0.6591 0.6578 0.6481
737.000000 0.6294 0.6148 0.6005 0.5850 0.5682
742.000000 0.5368 0.5239 0.5221 0.5276 0.5530
747.000000 0.5913 0.6295 0.6676 0.7106 0.7230
752.000000 0.7259 0.7264 0.7183 0.7107 0.6900
757.000000 0.6650 0.6359 0.6173 0.6171 0.6309
762.000000 0.6578 0.6847 0.7118 0.7308 0.7347
767.000000 0.7344 0.7304 0.7256 0.7205 0.7144
772.000000 0.7056 0.6972 0.6881 0.6785 0.6677
777.000000 0.6547 0.6321 0.5797 0.5222 0.4716
782.000000 0.4481 0.4492 0.4698 0.4876 0.4952
787.000000 0.4952 0.4974 0.4849 0.4644 0.4473
792.000000 0.4396 0.4372 0.4385 0.4795 0.5318
797.000000 0.5689 0.6067 0.7128 0.7340 0.7451
802.000000 0.7522 0.7583 0.7634 0.7668 0.7695
807.000000 0.7713 0.7719 0.7721 0.7723 0.7725
812.000000 0.7742 0.7724 0.7723 0.7725 0.7726
817.000000 0.7726 0.7724 0.7717 0.7686 0.7657
822.000000 0.7652 0.7651 0.7650 0.7649 0.7649
827.000000 0.7646 0.7639 0.7620 0.7579 0.7535
832.000000 0.7496 0.7487 0.7486 0.7486 0.7486
837.000000 0.7486 0.7486 0.7486 0.7486 0.7487
842.000000 0.7487 0.7484 0.7482 0.7478 0.7463
847.000000 0.7440 0.7421 0.7409 0.7402 0.7396
852.000000 0.7390 0.7383 0.7375 0.7352 0.7309
857.000000 0.7250 0.7190 0.7164 0.7137 0.7097
862.000000 0.7045 0.7007 0.6972 0.6937 0.6914
867.000000 0.6869 0.6810 0.6744 0.6639 0.6493
872.000000 0.6348 0.6213 0.6056 0.5874 0.5667
877.000000 0.5438 0.5122 0.4926 0.4738 0.4497
882.000000 0.3735 0.3286 0.2840 0.2394 0.2007
887.000000 0.1915 0.1916 0.1951 0.2545 0.3156
892.000000 0.3766 0.4374 0.4785 0.4796 0.4789
897.000000 0.4586 0.4291 0.3997 0.3756 0.3746
902.000000 0.3837 0.4355 0.4878 0.5374 0.5549
907.000000 0.5785 0.5919 0.5941 0.5943 0.5946
912.000000 0.5875 0.5789 0.5672 0.5510 0.5266
917.000000 0.4625 0.3950 0.3543 0.3245 0.3055
922.000000 0.2888 0.2651 0.2542 0.2485 0.2504
927.000000 0.2530 0.2627 0.2740 0.2974 0.3367
932.000000 0.3761 0.4134 0.4483 0.4802 0.5373
937.000000 0.6083 0.6216 0.6299 0.6368 0.6430
942.000000 0.6497 0.6567 0.6599 0.6622 0.6636
947.000000 0.6641 0.6641 0.6635 0.6629 0.6618
952.000000 0.6600 0.6577 0.6539 0.6497 0.6485
957.000000 0.6482 0.6479 0.6467 0.6446 0.6412
962.000000 0.6347 0.6246 0.6163 0.6061 0.5951
967.000000 0.5844 0.5705 0.5481 0.5308 0.5145
972.000000 0.4904 0.4542 0.4267 0.3981 0.3770
977.000000 0.3105 0.2719 0.2335 0.1951 0.1568
982.000000 0.1186 0.0814 0.0744 0.0746 0.0758
987.000000 0.0931 0.1253 0.1423 0.1626 0.2085
992.000000 0.2550 0.2911 0.3033 0.3101 0.3114
997.000000 0.3111 0.2911 0.2678 0.2445 0.2211
1002.000000 0.1978 0.1815 0.2008 0.2355 0.2702
1007.000000 0.3047 0.3392 0.3687 0.3932 0.4234
1012.000000 0.4536 0.4837 0.5138 0.5438 0.5722
1017.000000 0.5806 0.5924 0.5961 0.5970 0.5969
1022.000000 0.5982 0.5945 0.5920 0.5876 0.5835
1027.000000 0.5800 0.5767 0.5734 0.5706 0.5680
1032.000000 0.5662 0.5642 0.5611 0.5530 0.5368
1037.000000 0.5241 0.4879 0.4491 0.4105 0.3718
1042.000000 0.3392 0.3345 0.3357 0.3482 0.3585
1047.000000 0.3680 0.3687 0.3701 0.3470 0.3441
1052.000000 0.3432 0.3426 0.3916 0.4253 0.4589
1057.000000 0.4925 0.5221 0.5281 0.5306 0.5290
1062.000000 0.5247 0.5191 0.5127 0.5025 0.5003
1067.000000 0.5009 0.5240 0.5496 0.5719 0.5768
1072.000000 0.5779 0.5780 0.5765 0.5697 0.5596
1077.000000 0.5496 0.5396 0.5327 0.5448 0.5805
1082.000000 0.6165 0.6333 0.6377 0.6406 0.6427
1087.000000 0.6440 0.6443 0.6446 0.6446 0.6446
1092.000000 0.6433 0.6442 0.6437 0.6429 0.6419
1097.000000 0.6406 0.6392 0.6369 0.6336 0.6278
1102.000000 0.6216 0.6143 0.6067 0.5990 0.5910
1107.000000 0.5827 0.5739 0.5603 0.5283 0.5177
1112.000000 0.5060 0.4775 0.4545 0.4363 0.4147
1117.000000 0.4012 0.3858 0.3271 0.2876 0.2481
1122.000000 0.2087 0.1729 0.1589 0.1500 0.1426
1127.000000 0.1350 0.1256 0.1168 0.1087 0.0898
1132.000000 0.0880 0.0871 0.0896 0.0932 0.0978
1137.000000 0.1154 0.1442 0.1729 0.2016 0.2303
1142.000000 0.2588 0.2949 0.3221 0.3453 0.3613
1147.000000 0.3712 0.3825 0.4019 0.4201 0.4591
1152.000000 0.4726 0.4863 0.5074 0.5285 0.5536
1157.000000 0.5760 0.5831 0.5890 0.5944 0.5992
1162.000000 0.6032 0.6073 0.6114 0.6153 0.6193
1167.000000 0.6229 0.6254 0.6276 0.6284 0.6288
1172.000000 0.6291 0.6292 0.6291 0.6291 0.6289
1177.000000 0.6287 0.6294 0.6280 0.6274 0.6265
1182.000000 0.6247 0.6214 0.6165 0.6110 0.6051
1187.000000 0.5996 0.5948 0.5846 0.5655 0.5465
1192.000000 0.5295 0.5259 0.5263 0.5295 0.5328
1197.000000 0.5353 0.5361 0.5353 0.5312 0.5195
1202.000000 0.5056 0.4917 0.4777 0.4638 0.4500
1207.000000 0.4361 0.4226 0.4037 0.3626 0.3147
1212.000000 0.2668 0.2366 0.2363 0.2360 0.2704
1217.000000 0.3245 0.3786 0.4324 0.4648 0.4715
1222.000000 0.4824 0.4905 0.5102 0.5382 0.5717
1227.000000 0.5902 0.6060 0.6139 0.6212 0.6252
1232.000000 0.6275 0.6286 0.6295 0.6300 0.6303
1237.000000 0.6306 0.6310 0.6313 0.6314 0.6315
1242.000000 0.6317 0.6318 0.6323 0.6317 0.6316
1247.000000 0.6314 0.6312 0.6309 0.6306 0.6295
1252.000000 0.6285 0.6271 0.6248 0.6222 0.6183
1257.000000 0.6136 0.6084 0.6028 0.5970 0.5888
1262.000000 0.5776 0.5637 0.5485 0.5241 0.5076
1267.000000 0.4678 0.4242 0.3834 0.3816 0.3860
1272.000000 0.4056 0.4251 0.4359 0.4352 0.4355
1277.000000 0.4142 0.3994 0.3846 0.3698 0.3649
1282.000000 0.3654 0.4134 0.4639 0.5009 0.5051
1287.000000 0.5072 0.5084 0.5090 0.5093 0.5092
1292.000000 0.5087 0.5089 0.5086 0.5084 0.5074
1297.000000 0.5039 0.4966 0.4708 0.4403 0.4098
1302.000000 0.3794 0.3640 0.3629 0.3793 0.3982
1307.000000 0.4171 0.4359 0.4547 0.4735 0.4922
1312.000000 0.5110 0.5296 0.5412 0.5453 0.5460
1317.000000 0.5464 0.5465 0.5463 0.5447 0.5424
1322.000000 0.5396 0.5370 0.5345 0.5320 0.5302
1327.000000 0.5289 0.5289 0.5289 0.5291 0.5291
1332.000000 0.5290 0.5207 0.5032 0.4882 0.4765
1337.000000 0.4662 0.4637 0.4626 0.4619 0.4614
1342.000000 0.4611 0.4613 0.4749 0.4607 0.5169
1347.000000 0.5333 0.5414 0.5496 0.5608 0.5739
1352.000000 0.5782 0.5805 0.5817 0.5819 0.5817
1357.000000 0.5821 0.5805 0.5791 0.5768 0.5731
1362.000000 0.5687 0.5638 0.5582 0.5535 0.5489
1367.000000 0.5438 0.5371 0.5332 0.5319 0.5311
1372.000000 0.5309 0.5306 0.5304 0.5302 0.5300
1377.000000 0.5299 0.5243 0.5105 0.4957 0.4810
1382.000000 0.4663 0.4517 0.4371 0.4225 0.4013
1387.000000 0.3629 0.3442 0.3377 0.3355 0.3347
1392.000000 0.3367 0.3355 0.3395 0.3467 0.3633
1397.000000 0.3728 0.3778 0.3864 0.4042 0.4271
1402.000000 0.4500 0.4728 0.4966 0.5168 0.5233
1407.000000 0.5264 0.5284 0.5296 0.5302 0.5308
1412.000000 0.5312 0.5315 0.5317 0.5320 0.5321
1417.000000 0.5325 0.5317 0.5299 0.5280 0.5257
1422.000000 0.5234 0.5213 0.5194 0.5167 0.5112
1427.000000 0.5028 0.4942 0.4868 0.4798 0.4730
1432.000000 0.4659 0.4558 0.4464 0.4390 0.4316
1437.000000 0.4226 0.4134 0.4048 0.3953 0.3858
1442.000000 0.3802 0.3746 0.3690 0.3633 0.3495
1447.000000 0.3311 0.3127 0.2943 0.2760 0.2576
1452.000000 0.2349 0.1961 0.1700 0.1583 0.1486
1457.000000 0.1350 0.1253 0.1184 0.1134 0.1083
1462.000000 0.1008 0.0891 0.0782 0.0704 0.0547
1467.000000 0.0430 0.0356 0.0344 0.0341 0.0347
1472.000000 0.0353 0.0373 0.0405 0.0439 0.0471
1477.000000 0.0492 0.0514 0.0544 0.0588 0.0645
1482.000000 0.0695 0.0747 0.0805 0.0859 0.0890
1487.000000 0.0906 0.0915 0.0919 0.0918 0.0894
1492.000000 0.0925 0.0797 0.0749 0.0701 0.0653
1497.000000 0.0605 0.0557 0.0509 0.0461 0.0414
1502.000000 0.0376 0.0350 0.0334 0.0324 0.0321
1507.000000 0.0320 0.0320 0.0320 0.0318 0.0330
1512.000000 0.0335 0.0340 0.0346 0.0354 0.0375
1517.000000 0.0398 0.0441 0.0498 0.0546 0.0614
1522.000000 0.0747 0.0879 0.1012 0.1144 0.1276
1527.000000 0.1408 0.1539 0.1671 0.1802 0.1933
1532.000000 0.2065 0.2195 0.2326 0.2457 0.2586
1537.000000 0.2689 0.2755 0.2810 0.2843 0.2867
1542.000000 0.2882 0.2891 0.2899 0.2904 0.2908
1547.000000 0.2903 0.2910 0.2908 0.2906 0.2897
1552.000000 0.2867 0.2764 0.2650 0.2537 0.2424
1557.000000 0.2311 0.2198 0.2085 0.1973 0.1860
1562.000000 0.1748 0.1636 0.1524 0.1411 0.1276
1567.000000 0.1163 0.1085 0.1013 0.0953 0.0905
1572.000000 0.0861 0.0806 0.0742 0.0692 0.0667
1577.000000 0.0653 0.0647 0.0643 0.0640 0.0637
1582.000000 0.0634 0.0632 0.0630 0.0629 0.0627
1587.000000 0.0627 0.0626 0.0637 0.0626 0.0633
1592.000000 0.0644 0.0654 0.0664 0.0674 0.0683
1597.000000 0.0696 0.0711 0.0726 0.0743 0.0762
1602.000000 0.0816 0.0917 0.1133 0.1392 0.1459
1607.000000 0.1503 0.1561 0.1672 0.1784 0.1897
1612.000000 0.2010 0.2122 0.2235 0.2347 0.2459
1617.000000 0.2572 0.2669 0.2728 0.2776 0.2897
1622.000000 0.3225 0.3435 0.3526 0.3592 0.3641
1627.000000 0.3680 0.3719 0.3757 0.3801 0.3858
1632.000000 0.3917 0.3973 0.4023 0.4073 0.4123
1637.000000 0.4185 0.4248 0.4294 0.4332 0.4369
1642.000000 0.4402 0.4432 0.4463 0.4500 0.4558
1647.000000 0.4633 0.4709 0.5028 0.5090 0.5130
1652.000000 0.5170 0.5207 0.5244 0.5276 0.5300
1657.000000 0.5321 0.5342 0.5371 0.5400 0.5453
1662.000000 0.5502 0.5545 0.5587 0.5628 0.5670
1667.000000 0.5710 0.5749 0.5787 0.5824 0.5857
1672.000000 0.5891 0.5915 0.5936 0.5956 0.5977
1677.000000 0.5996 0.6014 0.6033 0.6051 0.6068
1682.000000 0.6087 0.6105 0.6124 0.6142 0.6157
1687.000000 0.6172 0.6188 0.6203 0.6218 0.6235
1692.000000 0.6251 0.6268 0.6284 0.6300 0.6313
1697.000000 0.6320 0.6327 0.6334 0.6339 0.6341
1702.000000 0.6343 0.6346 0.6348 0.6350 0.6351
1707.000000 0.6352 0.6354 0.6355 0.6356 0.6357
1712.000000 0.6358 0.6358 0.6359 0.6359 0.6360
1717.000000 0.6360 0.6361 0.6362 0.6362 0.6363
1722.000000 0.6364 0.6372 0.6389 0.6409 0.6435
1727.000000 0.6463 0.6487 0.6503 0.6517 0.6529
1732.000000 0.6540 0.6551 0.6563 0.6581 0.6610
1737.000000 0.6651 0.6676 0.6692 0.6707 0.6718
1742.000000 0.6727 0.6735 0.6741 0.6746 0.6750
1747.000000 0.6753 0.6757 0.6759 0.6762 0.6764
1752.000000 0.6765 0.6765 0.6766 0.6767 0.6768
1757.000000 0.6769 0.6769 0.6769 0.6770 0.6771
1762.000000 0.6772 0.6772 0.6773 0.6773 0.6774
1767.000000 0.6775 0.6774 0.6775 0.6775 0.6776
1772.000000 0.6776 0.6776 0.6776 0.6776 0.6776
1777.000000 0.6775 0.6775 0.6769 0.6764 0.6758
1782.000000 0.6753 0.6747 0.6741 0.6733 0.6726
1787.000000 0.6719 0.6714 0.6709 0.6703 0.6698
1792.000000 0.6692 0.6687 0.6680 0.6673 0.6666
1797.000000 0.6659 0.6652 0.6645 0.6639 0.6632
1802.000000 0.6626 0.6618 0.6610 0.6602 0.6594
1807.000000 0.6586 0.6578 0.6569 0.6561 0.6552
1812.000000 0.6544 0.6536 0.6528 0.6520 0.6512
1817.000000 0.6503 0.6494 0.6486 0.6477 0.6468
1822.000000 0.6460 0.6452 0.6443 0.6434 0.6426
1827.000000 0.6417 0.6406 0.6394 0.6382 0.6371
1832.000000 0.6362 0.6355 0.6355 0.6354 0.6353
1837.000000 0.6352 0.6348 0.6341 0.6332 0.6321
1842.000000 0.6308 0.6293 0.6275 0.6253 0.6236
1847.000000 0.6223 0.6213 0.6203 0.6192 0.6181
1852.000000 0.6169 0.6156 0.6144 0.6132 0.6119
1857.000000 0.6107 0.6094 0.6081 0.6068 0.6062
1862.000000 0.6060 0.6059 0.6059 0.6059 0.6058
1867.000000 0.6055 0.6052 0.6048 0.6042 0.6030
1872.000000 0.6013 0.5994 0.5975 0.5956 0.5939
1877.000000 0.5923 0.5909 0.5896 0.5883 0.5870
1882.000000 0.5852 0.5834 0.5815 0.5799 0.5784
1887.000000 0.5769 0.5754 0.5739 0.5724 0.5709
1892.000000 0.5694 0.5679 0.5665 0.5651 0.5636
1897.000000 0.5622 0.5607 0.5592 0.5579 0.5570
1902.000000 0.5567 0.5566 0.5564 0.5565 0.5562
1907.000000 0.5570 0.5572 0.5574 0.5577 0.5584
1912.000000 0.5591 0.5597 0.5601 0.5604 0.5608
1917.000000 0.5612 0.5615 0.5619 0.5622 0.5625
1922.000000 0.5629 0.5632 0.5636 0.5640 0.5643
1927.000000 0.5647 0.5653 0.5661 0.5669 0.5677
1932.000000 0.5685 0.5694 0.5706 0.5722 0.5738
1937.000000 0.5754 0.5770 0.5786 0.5803 0.5820
1942.000000 0.5836 0.5851 0.5865 0.5880 0.5894
1947.000000 0.5908 0.5923 0.5938 0.5954 0.5970
1952.000000 0.5986 0.6002 0.6017 0.6033 0.6047
1957.000000 0.6062 0.6077 0.6092 0.6108 0.6125
1962.000000 0.6144 0.6162 0.6180 0.6189 0.6198
1967.000000 0.6207 0.6215 0.6222 0.6228 0.6230
1972.000000 0.6231 0.6232 0.6233 0.6234 0.6234
1977.000000 0.6234 0.6234 0.6234 0.6234 0.6233
1982.000000 0.6232 0.6231 0.6229 0.6227 0.6225
1987.000000 0.6221 0.6215 0.6207 0.6196 0.6186
1992.000000 0.6175 0.6156 0.6137 0.6118 0.6097
1997.000000 0.6074 0.6052 0.6031 0.6012 0.5993
2002.000000 0.5974 0.5954 0.5933 0.5912 0.5891
2007.000000 0.5874 0.5858 0.5844 0.5830 0.5816
2012.000000 0.5802 0.5789 0.5773 0.5757 0.5739
2017.000000 0.5720 0.5702 0.5684 0.5664 0.5643
2022.000000 0.5623 0.5605 0.5591 0.5584 0.5581
2027.000000 0.5581 0.5572 0.5582 0.5584 0.5586
2032.000000 0.5591 0.5596 0.5602 0.5611 0.5622
2037.000000 0.5642 0.5663 0.5682 0.5701 0.5719
2042.000000 0.5735 0.5755 0.5776 0.5798 0.5820
2047.000000 0.5840 0.5856 0.5867 0.5877 0.5887
2052.000000 0.5897 0.5907 0.5918 0.5928 0.5937
2057.000000 0.5945 0.5953 0.5961 0.5969 0.5977
2062.000000 0.5986 0.5995 0.6003 0.6011 0.6020
2067.000000 0.6028 0.6038 0.6050 0.6062 0.6074
2072.000000 0.6090 0.6108 0.6141 0.6185 0.6251
2077.000000 0.6299 0.6335 0.6365 0.6397 0.6439
2082.000000 0.6489 0.6553 0.6606 0.6653 0.6692
2087.000000 0.6730 0.6766 0.6801 0.6833 0.6864
2092.000000 0.6896 0.6912 0.6926 0.6939 0.6953
2097.000000 0.6966 0.6979 0.6993 0.7006 0.7020
2102.000000 0.7034 0.7049 0.7067 0.7084 0.7101
2107.000000 0.7118 0.7136 0.7153 0.7169 0.7186
2112.000000 0.7202 0.7218 0.7234 0.7250 0.7268
2117.000000 0.7286 0.7305 0.7324 0.7343 0.7361
2122.000000 0.7379 0.7396 0.7413 0.7430 0.7447
2127.000000 0.7466 0.7485 0.7504 0.7518 0.7529
2132.000000 0.7540 0.7550 0.7558 0.7565 0.7570
2137.000000 0.7574 0.7577 0.7580 0.7582 0.7585
2142.000000 0.7588 0.7589 0.7590 0.7591 0.7592
2147.000000 0.7593 0.7594 0.7594 0.7595 0.7595
2152.000000 0.7596 0.7596 0.7596 0.7596 0.7597
2157.000000 0.7597 0.7604 0.7611 0.7625 0.7639
2162.000000 0.7650 0.7660 0.7668 0.7674 0.7679
2167.000000 0.7682 0.7686 0.7688 0.7691 0.7693
2172.000000 0.7694 0.7696 0.7698 0.7699 0.7701
2177.000000 0.7702 0.7703 0.7703 0.7704 0.7704
2182.000000 0.7695 0.7705 0.7705 0.7705 0.7703
2187.000000 0.7702 0.7700 0.7698 0.7695 0.7692
2192.000000 0.7687 0.7682 0.7677 0.7672 0.7666
2197.000000 0.7659 0.7653 0.7647 0.7641 0.7634
2202.000000 0.7626 0.7619 0.7612 0.7604 0.7597
2207.000000 0.7589 0.7581 0.7574 0.7566 0.7558
2212.000000 0.7550 0.7538 0.7525 0.7514 0.7504
2217.000000 0.7495 0.7488 0.7480 0.7472 0.7464
2222.000000 0.7456 0.7449 0.7441 0.7434 0.7427
2227.000000 0.7420 0.7413 0.7406 0.7399 0.7395
2232.000000 0.7390 0.7392 0.7394 0.7400 0.7406
2237.000000 0.7413 0.7421 0.7424 0.7426 0.7427
2242.000000 0.7427 0.7425 0.7424 0.7422 0.7421
2247.000000 0.7419 0.7418 0.7415 0.7411 0.7408
2252.000000 0.7405 0.7402 0.7399 0.7397 0.7394
2257.000000 0.7391 0.7388 0.7385 0.7382 0.7378
2262.000000 0.7375 0.7372 0.7368 0.7364 0.7360
2267.000000 0.7355 0.7350 0.7344 0.7338 0.7333
2272.000000 0.7327 0.7322 0.7317 0.7312 0.7308
2277.000000 0.7305 0.7302 0.7298 0.7296 0.7295
2282.000000 0.7294 0.7293 0.7292 0.7291 0.7290
2287.000000 0.7289 0.7287 0.7286 0.7284 0.7282
2292.000000 0.7281 0.7279 0.7276 0.7272 0.7267
2297.000000 0.7261 0.7253 0.7241 0.7229 0.7212
2302.000000 0.7196 0.7180 0.7164 0.7149 0.7134
2307.000000 0.7117 0.7099 0.7078 0.7056 0.7034
2312.000000 0.7012 0.6990 0.6969 0.6947 0.6926
2317.000000 0.6904 0.6882 0.6860 0.6838 0.6817
2322.000000 0.6795 0.6774 0.6752 0.6730 0.6709
2327.000000 0.6687 0.6666 0.6644 0.6623 0.6601
2332.000000 0.6579 0.6558 0.6537 0.6516 0.6494
2337.000000 0.6473 0.6451 0.6430 0.6409 0.6388
2342.000000 0.6366 0.6345 0.6323 0.6302 0.6281
2347.000000 0.6260 0.6239 0.6218 0.6198 0.6181
2352.000000 0.6165 0.6149 0.6133 0.6120 0.6107
2357.000000 0.6094 0.6080 0.6067 0.6054 0.6041
2362.000000 0.6027 0.6014 0.6000 0.5987 0.5973
2367.000000 0.5959 0.5948 0.5937 0.5928 0.5919
2372.000000 0.5910 0.5907 0.5903 0.5901 0.5899
2377.000000 0.5897 0.5895 0.5893 0.5891 0.5888
2382.000000 0.5886 0.5884 0.5881 0.5879 0.5875
2387.000000 0.5871 0.5865 0.5853 0.5841 0.5822
2392.000000 0.5802 0.5776 0.5746 0.5716 0.5686
2397.000000 0.5656 0.5627 0.5597 0.5568 0.5538
2402.000000 0.5509 0.5479 0.5449 0.5420 0.5390
2407.000000 0.5361 0.5332 0.5302 0.5273 0.5244
2412.000000 0.5214 0.5185 0.5156 0.5126 0.5097
2417.000000 0.5068 0.5039 0.5009 0.4980 0.4951
2422.000000 0.4922 0.4893 0.4864 0.4833 0.4798
2427.000000 0.4762 0.4748 0.4738 0.4732 0.4730
2432.000000 0.4728 0.4726 0.4724 0.4722 0.4721
2437.000000 0.4719 0.4717 0.4715 0.4713 0.4712
2442.000000 0.4711 0.4709 0.4707 0.4705 0.4704
2447.000000 0.4702 0.4700 0.4699 0.4697 0.4695
2452.000000 0.4694 0.4693 0.4691 0.4690 0.4685
2457.000000 0.4670 0.4654 0.4611 0.4562 0.4512
2462.000000 0.4463 0.4413 0.4364 0.4314 0.4265
2467.000000 0.4216 0.4167 0.4118 0.4069 0.4020
2472.000000 0.3971 0.3924 0.3889 0.3853 0.3829
2477.000000 0.3808 0.3788 0.3768 0.3749 0.3729
2482.000000 0.3710 0.3692 0.3674 0.3656 0.3642
2487.000000 0.3627 0.3615 0.3603 0.3592 0.3583
2492.000000 0.3575 0.3568 0.3562 0.3556 0.3550
2497.000000 0.3544 0.3539 0.3533 0.3527 0.3524
2502.000000 0.3521 0.3518 0.3516 0.3514 0.3511
2507.000000 0.3509 0.3508 0.3508 0.3508 0.3508
2512.000000 0.3508 0.3509 0.3511 0.3512 0.3515
2517.000000 0.3517 0.3519 0.3521 0.3523 0.3526
2522.000000 0.3529 0.3533 0.3536 0.3540 0.3543
2527.000000 0.3547 0.3551 0.3556 0.3562 0.3567
2532.000000 0.3572 0.3578 0.3589 0.3600 0.3608
2537.000000 0.3613 0.3617 0.3621 0.3625 0.3629
2542.000000 0.3632 0.3635 0.3637 0.3640 0.3642
2547.000000 0.3642 0.3643 0.3643 0.3642 0.3642
2552.000000 0.3639 0.3637 0.3634 0.3629 0.3624
2557.000000 0.3607 0.3587 0.3566 0.3544 0.3522
2562.000000 0.3500 0.3477 0.3455 0.3433 0.3411
2567.000000 0.3389 0.3366 0.3344 0.3322 0.3300
2572.000000 0.3278 0.3256 0.3233 0.3211 0.3189
2577.000000 0.3167 0.3145 0.3123 0.3101 0.3079
2582.000000 0.3058 0.3031 0.2994 0.2958 0.2929
2587.000000 0.2904 0.2878 0.2841 0.2804 0.2766
2592.000000 0.2729 0.2692 0.2668 0.2651 0.2634
2597.000000 0.2617 0.2600 0.2584 0.2568 0.2553
2602.000000 0.2538 0.2524 0.2510 0.2496 0.2483
2607.000000 0.2469 0.2458 0.2447 0.2437 0.2427
2612.000000 0.2418 0.2409 0.2400 0.2391 0.2386
2617.000000 0.2382 0.2378 0.2374 0.2370 0.2366
2622.000000 0.2363 0.2359 0.2357 0.2355 0.2354
2627.000000 0.2352 0.2350 0.2348 0.2346 0.2345
2632.000000 0.2343 0.2341 0.2339 0.2338 0.2336
2637.000000 0.2335 0.2333 0.2331 0.2329 0.2328
2642.000000 0.2327 0.2325 0.2323 0.2321 0.2319
2647.000000 0.2317 0.2314 0.2312 0.2309 0.2307
2652.000000 0.2305 0.2302 0.2300 0.2297 0.2293
2657.000000 0.2288 0.2277 0.2267 0.2254 0.2239
2662.000000 0.2225 0.2195 0.2156 0.2117 0.2073
2667.000000 0.2028 0.1983 0.1954 0.1927 0.1901
2672.000000 0.1884 0.1868 0.1852 0.1837 0.1821
2677.000000 0.1805 0.1790 0.1775 0.1761 0.1748
2682.000000 0.1736 0.1723 0.1710 0.1697 0.1685
2687.000000 0.1672 0.1660 0.1647 0.1634 0.1621
2692.000000 0.1608 0.1595 0.1582 0.1569 0.1555
2697.000000 0.1542 0.1528 0.1515 0.1502 0.1489
2702.000000 0.1476 0.1462 0.1447 0.1431 0.1415
2707.000000 0.1399 0.1383 0.1366 0.1349 0.1333
2712.000000 0.1317 0.1302 0.1286 0.1271 0.1257
2717.000000 0.1242 0.1227 0.1213 0.1198 0.1183
2722.000000 0.1169 0.1154 0.1139 0.1123 0.1107
2727.000000 0.1089 0.1070 0.1050 0.1032 0.1013
2732.000000 0.0994 0.0975 0.0957 0.0938 0.0921
2737.000000 0.0905 0.0889 0.0873 0.0858 0.0842
2742.000000 0.0826 0.0810 0.0793 0.0777 0.0760
2747.000000 0.0744 0.0727 0.0710 0.0693 0.0681
2752.000000 0.0670 0.0659 0.0648 0.0638 0.0628
2757.000000 0.0618 0.0608 0.0597 0.0587 0.0577
2762.000000 0.0567 0.0556 0.0546 0.0535 0.0524
2767.000000 0.0513 0.0502 0.0492 0.0481 0.0470
2772.000000 0.0459 0.0448 0.0437 0.0426 0.0415
2777.000000 0.0404 0.0393 0.0382 0.0372 0.0361
2782.000000 0.0350 0.0339 0.0328 0.0317 0.0307
2787.000000 0.0296 0.0286 0.0275 0.0264 0.0254
2792.000000 0.0244 0.0234 0.0226 0.0217 0.0209
2797.000000 0.0201 0.0192 0.0184 0.0178 0.0173
2802.000000 0.0169 0.0165 0.0164 0.0163 0.0162
2807.000000 0.0161 0.0160 0.0159 0.0159 0.0158
2812.000000 0.0158 0.0157 0.0156 0.0156 0.0155
2817.000000 0.0155 0.0155 0.0154 0.0154 0.0154
2822.000000 0.0153 0.0153 0.0153 0.0152 0.0152
2827.000000 0.0152 0.0152 0.0151 0.0151 0.0151
2832.000000 0.0151 0.0151 0.0151 0.0150 0.0150
2837.000000 0.0150 0.0149 0.0149 0.0149 0.0149
2842.000000 0.0149 0.0149 0.0149 0.0148 0.0148
2847.000000 0.0148 0.0148 0.0148 0.0148 0.0148
2852.000000 0.0148 0.0148 0.0147 0.0147 0.0147
2857.000000 0.0147 0.0147 0.0147 0.0147 0.0147
2862.000000 0.0147 0.0147 0.0147 0.0147 0.0147
2867.000000 0.0146 0.0146 0.0146 0.0146 0.0146
2872.000000 0.0146 0.0146 0.0146 0.0146 0.0146
2877.000000 0.0145 0.0145 0.0145 0.0145 0.0145
2882.000000 0.0145 0.0145 0.0144 0.0144 0.0144
2887.000000 0.0144 0.0144 0.0144 0.0144 0.0143
2892.000000 0.0143 0.0143 0.0143 0.0143 0.0143
2897.000000 0.0143 0.0143 0.0143 0.0143 0.0143
2902.000000 0.0143 0.0143 0.0143 0.0143 0.0143
2907.000000 0.0143 0.0143 0.0143 0.0143 0.0143
2912.000000 0.0143 0.0143 0.0143 0.0143 0.0143
2917.000000 0.0143 0.0143 0.0143 0.0143 0.0143
2922.000000 0.0143 0.0143 0.0143 0.0143 0.0143
2927.000000 0.0143 0.0143 0.0143 0.0143 0.0143
2932.000000 0.0143 0.0143 0.0143 0.0143 0.0143
2937.000000 0.0143 0.0143 0.0143 0.0143 0.0143
2942.000000 0.0143 0.0143 0.0143 0.0144 0.0144
2947.000000 0.0144 0.0144 0.0144 0.0144 0.0144
2952.000000 0.0144 0.0144 0.0144 0.0144 0.0145
2957.000000 0.0145 0.0145 0.0145 0.0145 0.0145
2962.000000 0.0145 0.0145 0.0145 0.0145 0.0146
2967.000000 0.0146 0.0146 0.0146 0.0146 0.0146
2972.000000 0.0146 0.0146 0.0146 0.0146 0.0146
2977.000000 0.0147 0.0147 0.0147 0.0147 0.0147
2982.000000 0.0147 0.0147 0.0147 0.0147 0.0147
2987.000000 0.0148 0.0148 0.0148 0.0148 0.0148
2992.000000 0.0148 0.0148 0.0148 0.0148 0.0148
2997.000000 0.0148 0.0149 0.0149 0.0149 0.0149
3002.000000 0.0149 0.0149 0.0149 0.0149 0.0149
3007.000000 0.0149 0.0149 0.0150 0.0150 0.0150
3012.000000 0.0150 0.0150 0.0150 0.0150 0.0150
3017.000000 0.0150 0.0150 0.0150 0.0151 0.0151
3022.000000 0.0151 0.0151 0.0151 0.0151 0.0151
3027.000000 0.0151 0.0151 0.0151 0.0151 0.0152
3032.000000 0.0152 0.0152 0.0152 0.0152 0.0152
3037.000000 0.0152 0.0152 0.0152 0.0152 0.0152
3042.000000 0.0153 0.0153 0.0153 0.0153 0.0153
3047.000000 0.0153 0.0153 0.0154 0.0154 0.0154
3052.000000 0.0154 0.0154 0.0154 0.0154 0.0154
3057.000000 0.0154 0.0154 0.0154 0.0155 0.0155
3062.000000 0.0155 0.0155 0.0155 0.0155 0.0155
3067.000000 0.0155 0.0155 0.0155 0.0155 0.0155
3072.000000 0.0156 0.0156 0.0156 0.0156 0.0157
3077.000000 0.0158 0.0158 0.0159 0.0159 0.0159
3082.000000 0.0159 0.0160 0.0160 0.0160 0.0160
3087.000000 0.0161 0.0161 0.0162 0.0162 0.0163
3092.000000 0.0163 0.0163 0.0163 0.0164 0.0164
3097.000000 0.0164 0.0165 0.0165 0.0165 0.0165
3102.000000 0.0166 0.0166 0.0167 0.0167 0.0168
3107.000000 0.0168 0.0169 0.0169 0.0170 0.0170
3112.000000 0.0171 0.0171 0.0172 0.0173 0.0174
3117.000000 0.0174 0.0175 0.0176 0.0177 0.0177
3122.000000 0.0178 0.0179 0.0180 0.0181 0.0181
3127.000000 0.0182 0.0182 0.0183 0.0184 0.0185
3132.000000 0.0186 0.0187 0.0190 0.0193 0.0195
3137.000000 0.0198 0.0201 0.0204 0.0207 0.0209
3142.000000 0.0211 0.0213 0.0215 0.0217 0.0219
3147.000000 0.0220 0.0222 0.0223 0.0224 0.0225
3152.000000 0.0226 0.0227 0.0227 0.0227 0.0227
3157.000000 0.0228 0.0228 0.0228 0.0228 0.0229
3162.000000 0.0229 0.0229 0.0229 0.0229 0.0229
3167.000000 0.0229 0.0229 0.0230 0.0230 0.0230
3172.000000 0.0230 0.0229 0.0229 0.0229 0.0229
3177.000000 0.0229 0.0229 0.0229 0.0229 0.0229
3182.000000 0.0229 0.0229 0.0229 0.0229 0.0230
3187.000000 0.0231 0.0232 0.0233 0.0234 0.0235
3192.000000 0.0236 0.0237 0.0239 0.0241 0.0243
3197.000000 0.0245 0.0248 0.0252 0.0256 0.0259
3202.000000 0.0265 0.0271 0.0277 0.0283 0.0291
3207.000000 0.0299 0.0307 0.0315 0.0334 0.0357
3212.000000 0.0379 0.0401 0.0424 0.0447 0.0470
3217.000000 0.0493 0.0516 0.0538 0.0561 0.0584
3222.000000 0.0607 0.0629 0.0652 0.0675 0.0698
3227.000000 0.0721 0.0744 0.0766 0.0789 0.0812
3232.000000 0.0835 0.0857 0.0880 0.0903 0.0925
3237.000000 0.0948 0.0971 0.0993 0.1016 0.1038
3242.000000 0.1060 0.1083 0.1105 0.1128 0.1151
3247.000000 0.1173 0.1196 0.1218 0.1241 0.1263
3252.000000 0.1286 0.1308 0.1330 0.1353 0.1375
3257.000000 0.1398 0.1420 0.1442 0.1462 0.1480
3262.000000 0.1497 0.1515 0.1536 0.1564 0.1593
3267.000000 0.1622 0.1650 0.1681 0.1711 0.1741
3272.000000 0.1772 0.1794 0.1814 0.1834 0.1854
3277.000000 0.1873 0.1892 0.1911 0.1930 0.1949
3282.000000 0.1970 0.1992 0.2013 0.2034 0.2045
3287.000000 0.2054 0.2063 0.2072 0.2081 0.2090
3292.000000 0.2099 0.2107 0.2116 0.2125 0.2134
3297.000000 0.2142 0.2151 0.2158 0.2165 0.2171
3302.000000 0.2178 0.2185 0.2192 0.2199 0.2205
3307.000000 0.2212 0.2219 0.2225 0.2231 0.2238
3312.000000 0.2243 0.2249 0.2254 0.2259 0.2264
3317.000000 0.2269 0.2274 0.2279 0.2284 0.2287
3322.000000 0.2289 0.2291 0.2293 0.2295 0.2297
3327.000000 0.2299 0.2300 0.2302 0.2303 0.2305
3332.000000 0.2306 0.2308 0.2309 0.2309 0.2310
3337.000000 0.2310 0.2311 0.2311 0.2311 0.2312
3342.000000 0.2312 0.2313 0.2314 0.2314 0.2315
3347.000000 0.2316 0.2316 0.2317 0.2317 0.2317
3352.000000 0.2318 0.2318 0.2318 0.2318 0.2319
3357.000000 0.2319 0.2319 0.2319 0.2319 0.2320
3362.000000 0.2320 0.2320 0.2320 0.2321 0.2321
3367.000000 0.2321 0.2321 0.2321 0.2322 0.2322
3372.000000 0.2322 0.2322 0.2323 0.2323 0.2323
3377.000000 0.2323 0.2323 0.2323 0.2323 0.2322
3382.000000 0.2322 0.2321 0.2321 0.2321 0.2320
3387.000000 0.2320 0.2319 0.2319 0.2318 0.2317
3392.000000 0.2317 0.2317 0.2317 0.2318 0.2318
3397.000000 0.2319 0.2320 0.2322 0.2323 0.2325
3402.000000 0.2327 0.2329 0.2332 0.2334 0.2337
3407.000000 0.2341 0.2345 0.2349 0.2354 0.2358
3412.000000 0.2363 0.2368 0.2372 0.2377 0.2382
3417.000000 0.2387 0.2392 0.2397 0.2402 0.2407
3422.000000 0.2411 0.2416 0.2421 0.2426 0.2431
3427.000000 0.2436 0.2442 0.2447 0.2452 0.2457
3432.000000 0.2462 0.2467 0.2472 0.2478 0.2484
3437.000000 0.2490 0.2496 0.2508 0.2541 0.2575
3442.000000 0.2609 0.2643 0.2669 0.2686 0.2704
3447.000000 0.2721 0.2739 0.2754 0.2767 0.2781
3452.000000 0.2795 0.2809 0.2822 0.2834 0.2847
3457.000000 0.2859 0.2872 0.2883 0.2895 0.2907
3462.000000 0.2918 0.2930 0.2942 0.2953 0.2965
3467.000000 0.2977 0.2989 0.3000 0.3012 0.3024
3472.000000 0.3036 0.3048 0.3060 0.3072 0.3084
3477.000000 0.3096 0.3108 0.3120 0.3132 0.3144
3482.000000 0.3156 0.3174 0.3191 0.3208 0.3226
3487.000000 0.3244 0.3268 0.3292 0.3315 0.3339
3492.000000 0.3363 0.3386 0.3410 0.3434 0.3458
3497.000000 0.3481 0.3505 0.3528 0.3552 0.3575
3502.000000 0.3599 0.3622 0.3645 0.3669 0.3692
3507.000000 0.3716 0.3739 0.3762 0.3786 0.3809
3512.000000 0.3832 0.3856 0.3879 0.3903 0.3926
3517.000000 0.3950 0.3973 0.3996 0.4019 0.4043
3522.000000 0.4066 0.4089 0.4112 0.4135 0.4158
3527.000000 0.4181 0.4205 0.4228 0.4251 0.4274
3532.000000 0.4297 0.4320 0.4343 0.4367 0.4390
3537.000000 0.4413 0.4436 0.4459 0.4482 0.4505
3542.000000 0.4528 0.4551 0.4573 0.4596 0.4619
3547.000000 0.4642 0.4665 0.4688 0.4711 0.4733
3552.000000 0.4752 0.4769 0.4786 0.4804 0.4821
3557.000000 0.4838 0.4855 0.4872 0.4888 0.4905
3562.000000 0.4920 0.4934 0.4947 0.4961 0.4975
3567.000000 0.4987 0.4999 0.5011 0.5023 0.5034
3572.000000 0.5046 0.5058 0.5070 0.5081 0.5093
3577.000000 0.5105 0.5117 0.5129 0.5141 0.5153
3582.000000 0.5165 0.5177 0.5189 0.5201 0.5213
3587.000000 0.5225 0.5237 0.5249 0.5262 0.5274
3592.000000 0.5286 0.5298 0.5311 0.5323 0.5336
3597.000000 0.5348 0.5362 0.5375 0.5389 0.5403
3602.000000 0.5416 0.5430 0.5443 0.5457 0.5470
3607.000000 0.5484 0.5497 0.5510 0.5524 0.5537
3612.000000 0.5550 0.5563 0.5575 0.5587 0.5600
3617.000000 0.5612 0.5624 0.5636 0.5649 0.5661
3622.000000 0.5673 0.5685 0.5708 0.5733 0.5758
3627.000000 0.5782 0.5807 0.5827 0.5842 0.5857
3632.000000 0.5872 0.5888 0.5901 0.5911 0.5920
3637.000000 0.5930 0.5940 0.5949 0.5956 0.5963
3642.000000 0.5970 0.5977 0.5983 0.5990 0.5997
3647.000000 0.6003 0.6010 0.6016 0.6023 0.6029
3652.000000 0.6036 0.6042 0.6048 0.6055 0.6060
3657.000000 0.6066 0.6072 0.6078 0.6084 0.6090
3662.000000 0.6096 0.6101 0.6107 0.6113 0.6120
3667.000000 0.6128 0.6136 0.6145 0.6153 0.6161
3672.000000 0.6182 0.6205 0.6228 0.6250 0.6273
3677.000000 0.6288 0.6295 0.6303 0.6311 0.6319
3682.000000 0.6326 0.6331 0.6335 0.6340 0.6344
3687.000000 0.6349 0.6352 0.6354 0.6356 0.6359
3692.000000 0.6361 0.6363 0.6363 0.6364 0.6364
3697.000000 0.6365 0.6365 0.6366 0.6366 0.6367
3702.000000 0.6367 0.6367 0.6368 0.6368 0.6368
3707.000000 0.6369 0.6369 0.6369 0.6371 0.6372
3712.000000 0.6373 0.6374 0.6376 0.6377 0.6378
3717.000000 0.6380 0.6381 0.6383 0.6384 0.6389
3722.000000 0.6396 0.6402 0.6408 0.6415 0.6420
3727.000000 0.6423 0.6427 0.6430 0.6433 0.6436
3732.000000 0.6439 0.6440 0.6442 0.6444 0.6446
3737.000000 0.6448 0.6448 0.6449 0.6450 0.6450
3742.000000 0.6451 0.6452 0.6452 0.6453 0.6453
3747.000000 0.6454 0.6454 0.6455 0.6455 0.6455
3752.000000 0.6455 0.6455 0.6456 0.6456 0.6456
3757.000000 0.6456 0.6456 0.6456 0.6457 0.6457
3762.000000 0.6457 0.6458 0.6458 0.6458 0.6459
3767.000000 0.6459 0.6459 0.6459 0.6459 0.6460
3772.000000 0.6460 0.6460 0.6460 0.6460 0.6460
3777.000000 0.6461 0.6461 0.6461 0.6461 0.6461
3782.000000 0.6461 0.6462 0.6462 0.6462 0.6462
3787.000000 0.6462 0.6463 0.6463 0.6463 0.6463
3792.000000 0.6463 0.6463 0.6463 0.6463 0.6463
3797.000000 0.6463 0.6463 0.6463 0.6464 0.6464
3802.000000 0.6464 0.6464 0.6464 0.6464 0.6465
3807.000000 0.6465 0.6465 0.6465 0.6465 0.6466
3812.000000 0.6466 0.6466 0.6466 0.6466 0.6466
3817.000000 0.6467 0.6467 0.6467 0.6467 0.6467
3822.000000 0.6467 0.6468 0.6468 0.6468 0.6468
3827.000000 0.6468 0.6468 0.6469 0.6469 0.6469
3832.000000 0.6469 0.6469 0.6469 0.6470 0.6470
3837.000000 0.6470 0.6470 0.6470 0.6470 0.6471
3842.000000 0.6471 0.6471 0.6472 0.6472 0.6472
3847.000000 0.6473 0.6473 0.6473 0.6473 0.6473
3852.000000 0.6473 0.6474 0.6474 0.6474 0.6474
3857.000000 0.6474 0.6474 0.6475 0.6475 0.6475
3862.000000 0.6475 0.6475 0.6476 0.6476 0.6476
3867.000000 0.6476 0.6476 0.6476 0.6476 0.6476
3872.000000 0.6476 0.6476 0.6476 0.6476 0.6470
3877.000000 0.6476 0.6476 0.6476 0.6476 0.6476
3882.000000 0.6475 0.6475 0.6475 0.6475 0.6475
3887.000000 0.6475 0.6475 0.6475 0.6475 0.6475
3892.000000 0.6475 0.6475 0.6475 0.6475 0.6475
3897.000000 0.6475 0.6475 0.6475 0.6475 0.6475
3902.000000 0.6475 0.6475 0.6475 0.6475 0.6475
3907.000000 0.6474 0.6474 0.6474 0.6474 0.6474
3912.000000 0.6474 0.6474 0.6474 0.6474 0.6474
3917.000000 0.6474 0.6474 0.6474 0.6474 0.6474
3922.000000 0.6474 0.6474 0.6474 0.6474 0.6474
3927.000000 0.6474 0.6474 0.6474 0.6474 0.6473
3932.000000 0.6473 0.6473 0.6473 0.6473 0.6473
3937.000000 0.6473 0.6473 0.6473 0.6473 0.6473
3942.000000 0.6473 0.6473 0.6473 0.6473 0.6473
3947.000000 0.6473 0.6473 0.6473 0.6473 0.6473
3952.000000 0.6473 0.6473 0.6473 0.6473 0.6472
3957.000000 0.6472 0.6472 0.6472 0.6472 0.6472
3962.000000 0.6472 0.6472 0.6472 0.6472 0.6472
3967.000000 0.6472 0.6472 0.6472 0.6472 0.6472
3972.000000 0.6472 0.6472 0.6472 0.6471 0.6471
3977.000000 0.6471 0.6471 0.6471 0.6471 0.6471
3982.000000 0.6471 0.6471 0.6471 0.6471 0.6471
3987.000000 0.6471 0.6471 0.6471 0.6471 0.6471
3992.000000 0.6471 0.6471 0.6471 0.6471 0.6471
3997.000000 0.6471 0.6471 0.6471 0.6471
##END=
