##TITLE=Carbanilic acid, N-tert-butyl-, Beta-chloroethyl ester
##JCAMP-DX=4.24
##DATA TYPE=INFRARED SPECTRUM
##CLASS=COBLENTZ III
##ORIGIN=MONSANTO (J. FREEMAN)
##OWNER=Copyright (C) 1987 by the Coblentz Society
Collection (C) 2018 copyright by the U.S. Secretary of Commerce
on behalf of the United States of America. All rights reserved.
##DATE=1959/03/31
##NAMES=2-chloroethyl tert-butyl(phenyl)carbamate
##MOLFORM=C13 H18 Cl N O2
##MP=37 C
##SOURCE REFERENCE=COBLENTZ NO. 9304
##$NIST ID=B6009304
##$NIST SOURCE=COBLENTZ
##$NIST IMAGE=cob9304
##SPECTROMETER/DATA SYSTEM=BECKMAN IR-4 (HYBRID PRISM-GRATING)
##INSTRUMENT PARAMETERS=NaCl PRISM
##STATE=SOLID (NEAT, MELT)
##SAMPLING PROCEDURE=TRANSMISSION
##RESOLUTION=2
##DATA PROCESSING=DIGITIZED BY COBLENTZ SOCIETY (BATCH II) FROM HARD COPY (ADJUSTED \minus0.04-minus0.02-minus0.02)
##XUNITS=1/CM
##YUNITS=TRANSMITTANCE
##XFACTOR=1.0
##YFACTOR=1
##DELTAX=1.022962
##FIRSTX=625.782
##LASTX=4078.28
##FIRSTY=0.86
##MAXX=4078.28
##MINX=625.782
##MAXY=0.978413
##MINY=0.0194048
##NPOINTS=3376
##XYDATA=(X++(Y..Y))
625.782228 0.8600 0.8666 0.8731 0.8798 0.8863
630.897040 0.8903 0.8913 0.8910 0.8919 0.8953
636.011852 0.8993 0.9037 0.9083 0.9116 0.9132
641.126664 0.9137 0.9138 0.9141 0.9170 0.9200
646.241477 0.9191 0.9187 0.9174 0.9158 0.9133
651.356289 0.9099 0.9054 0.8996 0.8917 0.8821
656.471101 0.8700 0.8568 0.8430 0.8275 0.8112
661.585913 0.7950 0.7808 0.7697 0.7632 0.7579
666.700725 0.7496 0.7361 0.7136 0.6892 0.6657
671.815538 0.6556 0.6531 0.6862 0.7175 0.7485
676.930350 0.7795 0.8128 0.8364 0.8595 0.8809
682.045162 0.8941 0.8982 0.8997 0.9000 0.8951
687.159974 0.8891 0.8779 0.8539 0.8210 0.7861
692.274786 0.7356 0.6576 0.5821 0.5068 0.4318
697.389599 0.3573 0.3016 0.2772 0.2722 0.3148
702.504411 0.4007 0.4920 0.5831 0.6739 0.7584
707.619223 0.8219 0.8600 0.8825 0.8990 0.9110
712.734035 0.9194 0.9253 0.9300 0.9337 0.9361
717.848847 0.9373 0.9386 0.9367 0.9345 0.9307
722.963660 0.9264 0.9222 0.9163 0.9089 0.9006
728.078472 0.8911 0.8785 0.8653 0.8426 0.8174
733.193284 0.7924 0.7673 0.7423 0.7171 0.6917
738.308096 0.6716 0.6585 0.6535 0.6570 0.6761
743.422908 0.6999 0.7209 0.7423 0.7669 0.7929
748.537721 0.8136 0.8277 0.8364 0.8418 0.8453
753.652533 0.8469 0.8479 0.8445 0.8382 0.8314
758.767345 0.8215 0.8067 0.7895 0.7677 0.7399
763.882157 0.6965 0.6472 0.5907 0.5397 0.5105
768.996969 0.4902 0.4851 0.5017 0.5496 0.6021
774.111782 0.6726 0.7154 0.7392 0.7633 0.7864
779.226594 0.7987 0.8063 0.8105 0.8111 0.8047
784.341406 0.7933 0.7745 0.7612 0.7486 0.7373
789.456218 0.7358 0.7409 0.7582 0.7792 0.8002
794.571030 0.8211 0.8428 0.8630 0.8772 0.8881
799.685843 0.8942 0.8971 0.8988 0.8999 0.9006
804.800655 0.9012 0.9016 0.9020 0.9030 0.9049
809.915467 0.9079 0.9118 0.9160 0.9197 0.9225
815.030279 0.9247 0.9270 0.9293 0.9317 0.9335
820.145091 0.9345 0.9354 0.9360 0.9359 0.9358
825.259904 0.9337 0.9353 0.9353 0.9351 0.9346
830.374716 0.9335 0.9324 0.9312 0.9299 0.9286
835.489528 0.9273 0.9259 0.9244 0.9228 0.9203
840.604340 0.9171 0.9137 0.9096 0.9050 0.9003
845.719152 0.8981 0.8989 0.9012 0.9057 0.9115
850.833965 0.9181 0.9260 0.9364 0.9475 0.9549
855.948777 0.9597 0.9630 0.9647 0.9658 0.9669
861.063589 0.9680 0.9690 0.9697 0.9703 0.9708
866.178401 0.9712 0.9718 0.9722 0.9726 0.9730
871.293213 0.9734 0.9737 0.9741 0.9744 0.9745
876.408026 0.9747 0.9756 0.9752 0.9754 0.9758
881.522838 0.9762 0.9765 0.9768 0.9770 0.9772
886.637650 0.9775 0.9777 0.9780 0.9782 0.9784
891.752462 0.9778 0.9773 0.9768 0.9761 0.9753
896.867274 0.9745 0.9737 0.9726 0.9714 0.9700
901.982087 0.9682 0.9663 0.9643 0.9621 0.9597
907.096899 0.9573 0.9547 0.9519 0.9494 0.9478
912.211711 0.9476 0.9481 0.9488 0.9492 0.9489
917.326523 0.9477 0.9445 0.9400 0.9350 0.9301
922.441335 0.9246 0.9198 0.9161 0.9129 0.9127
927.556148 0.9110 0.9121 0.9153 0.9187 0.9228
932.670960 0.9246 0.9253 0.9231 0.9184 0.9118
937.785772 0.9056 0.9007 0.8973 0.8938 0.8907
942.900584 0.8875 0.8844 0.8814 0.8785 0.8755
948.015396 0.8726 0.8695 0.8663 0.8632 0.8601
953.130209 0.8569 0.8539 0.8508 0.8477 0.8446
958.245021 0.8414 0.8382 0.8350 0.8316 0.8275
963.359833 0.8230 0.8182 0.8120 0.8032 0.7921
968.474645 0.7800 0.7672 0.7530 0.7401 0.7347
973.589457 0.7460 0.7642 0.7813 0.8001 0.8250
978.704270 0.8410 0.8502 0.8576 0.8642 0.8703
983.819082 0.8764 0.8824 0.8867 0.8904 0.8925
988.933894 0.8945 0.8947 0.8964 0.8948 0.8937
994.048706 0.8923 0.8908 0.8904 0.8922 0.8939
999.163518 0.8927 0.8862 0.8738 0.8578 0.8358
1004.278331 0.8066 0.7776 0.7528 0.7443 0.7744
1009.393143 0.8501 0.8955 0.9020 0.9042 0.9051
1014.507955 0.9047 0.9023 0.8991 0.8947 0.8893
1019.622767 0.8829 0.8733 0.8597 0.8446 0.8295
1024.737579 0.8144 0.7992 0.7866 0.7809 0.7811
1029.852392 0.7937 0.8149 0.8377 0.8513 0.8569
1034.967204 0.8593 0.8600 0.8597 0.8564 0.8482
1040.082016 0.8362 0.8239 0.8116 0.7993 0.7871
1045.196828 0.7748 0.7628 0.7543 0.7478 0.7386
1050.311640 0.7283 0.7166 0.7029 0.6839 0.6579
1055.426453 0.6323 0.6069 0.5816 0.5597 0.5514
1060.541265 0.5519 0.5666 0.6075 0.6360 0.6644
1065.656077 0.6882 0.6996 0.6956 0.6753 0.6483
1070.770889 0.6214 0.5945 0.5676 0.5486 0.5395
1075.885701 0.5391 0.5457 0.5479 0.5330 0.5087
1081.000514 0.4837 0.4588 0.4339 0.4090 0.3831
1086.115326 0.3456 0.3165 0.2989 0.2862 0.2755
1091.230138 0.2639 0.2509 0.2393 0.2286 0.2181
1096.344950 0.2073 0.1977 0.1888 0.1806 0.1736
1101.459762 0.1668 0.1604 0.1547 0.1510 0.1497
1106.574575 0.1494 0.1504 0.1543 0.1617 0.1796
1111.689387 0.2138 0.2495 0.2851 0.3206 0.3560
1116.804199 0.3914 0.4268 0.4620 0.4973 0.5319
1121.919011 0.5586 0.5989 0.6476 0.6719 0.7071
1127.033823 0.7392 0.7593 0.7743 0.7878 0.8000
1132.148636 0.8100 0.8186 0.8251 0.8303 0.8352
1137.263448 0.8397 0.8437 0.8476 0.8515 0.8550
1142.378260 0.8581 0.8612 0.8642 0.8670 0.8694
1147.493072 0.8714 0.8726 0.8736 0.8763 0.8749
1152.607884 0.8741 0.8727 0.8712 0.8691 0.8669
1157.722697 0.8658 0.8672 0.8678 0.8697 0.8718
1162.837509 0.8739 0.8752 0.8757 0.8716 0.8666
1167.952321 0.8614 0.8558 0.8499 0.8444 0.8393
1173.067133 0.8346 0.8304 0.8270 0.8236 0.8200
1178.181945 0.8152 0.8083 0.8006 0.7933 0.7859
1183.296758 0.7781 0.7693 0.7557 0.7372 0.7161
1188.411570 0.6955 0.6787 0.6615 0.6317 0.5937
1193.526382 0.5548 0.5159 0.4772 0.4385 0.3996
1198.641194 0.3708 0.3577 0.3523 0.3508 0.3510
1203.756006 0.3522 0.3550 0.3728 0.3966 0.4207
1208.870819 0.4449 0.4691 0.4932 0.5172 0.5412
1213.985631 0.5651 0.5865 0.5945 0.5969 0.5979
1219.100443 0.5978 0.5954 0.5684 0.5542 0.5399
1224.215255 0.5258 0.5116 0.4981 0.4884 0.4890
1229.330067 0.5043 0.5261 0.5481 0.5700 0.5919
1234.444880 0.6138 0.6306 0.6360 0.6342 0.6323
1239.559692 0.6264 0.6133 0.5996 0.5898 0.5849
1244.674504 0.5810 0.5778 0.5752 0.5732 0.5713
1249.789316 0.5654 0.5500 0.5309 0.5120 0.4930
1254.904128 0.4740 0.4551 0.4359 0.4177 0.4054
1260.018941 0.3978 0.3918 0.3871 0.3841 0.3819
1265.133753 0.3788 0.3562 0.3324 0.3085 0.2848
1270.248565 0.2611 0.2375 0.2139 0.1904 0.1668
1275.363377 0.1430 0.1171 0.0915 0.0851 0.0824
1280.478189 0.0807 0.0811 0.0825 0.0816 0.0844
1285.593002 0.0927 0.1194 0.1664 0.2160 0.2656
1290.707814 0.3151 0.3645 0.4137 0.4610 0.4961
1295.822626 0.5116 0.5167 0.5193 0.5184 0.5181
1300.937438 0.5170 0.5114 0.4986 0.4855 0.4763
1306.052250 0.4699 0.4646 0.4603 0.4579 0.4562
1311.167063 0.4547 0.4524 0.4494 0.4455 0.4398
1316.281875 0.4316 0.4213 0.4089 0.3856 0.3411
1321.396687 0.2914 0.2415 0.1917 0.1523 0.1291
1326.511499 0.1113 0.0993 0.0912 0.0837 0.0776
1331.626311 0.0738 0.0722 0.0718 0.0716 0.0719
1336.741124 0.0721 0.0751 0.0775 0.0802 0.0836
1341.855936 0.0883 0.0942 0.1011 0.1086 0.1174
1346.970748 0.1286 0.1454 0.1763 0.2181 0.2597
1352.085560 0.3014 0.3430 0.3845 0.4260 0.4674
1357.200373 0.5087 0.5499 0.5907 0.6187 0.6266
1362.315185 0.6260 0.6136 0.5852 0.5517 0.5183
1367.429997 0.4849 0.4516 0.4183 0.3850 0.3518
1372.544809 0.3260 0.3202 0.3309 0.3685 0.4142
1377.659621 0.4603 0.5064 0.5514 0.5761 0.5757
1382.774434 0.5743 0.5485 0.5087 0.4687 0.4287
1387.889246 0.3888 0.3491 0.3096 0.2758 0.2590
1393.004058 0.2461 0.2254 0.2037 0.1969 0.1933
1398.118870 0.1925 0.1932 0.1995 0.2233 0.2650
1403.233682 0.3085 0.3518 0.3952 0.4385 0.4817
1408.348495 0.5249 0.5679 0.6109 0.6502 0.6769
1413.463307 0.7158 0.7527 0.7604 0.7657 0.7698
1418.578119 0.7720 0.7732 0.7742 0.7747 0.7749
1423.692931 0.7764 0.7750 0.7730 0.7697 0.7622
1428.807743 0.7426 0.7146 0.6852 0.6558 0.6264
1433.922556 0.5970 0.5799 0.5731 0.5676 0.5624
1439.037368 0.5577 0.5543 0.5518 0.5501 0.5496
1444.152180 0.5499 0.5563 0.5632 0.5698 0.5722
1449.266992 0.5717 0.5684 0.5517 0.5333 0.5157
1454.381804 0.5061 0.5005 0.4945 0.4899 0.4875
1459.496617 0.4866 0.4862 0.4867 0.4898 0.4958
1464.611429 0.5034 0.5108 0.5175 0.5239 0.5309
1469.726241 0.5423 0.5588 0.5767 0.5947 0.6126
1474.841053 0.6298 0.6432 0.6511 0.6550 0.6569
1479.955865 0.6576 0.6574 0.6571 0.6551 0.6476
1485.070678 0.6332 0.6189 0.6054 0.5896 0.5746
1490.185490 0.5639 0.5428 0.5082 0.4696 0.4310
1495.300302 0.3923 0.3537 0.3220 0.3088 0.3062
1500.415114 0.3057 0.3060 0.3721 0.4313 0.4899
1505.529926 0.5485 0.6066 0.6500 0.6661 0.6759
1510.644739 0.6975 0.7317 0.7669 0.8291 0.8358
1515.759551 0.8437 0.8516 0.8563 0.8594 0.8625
1520.874363 0.8648 0.8660 0.8670 0.8680 0.8691
1525.989175 0.8701 0.8709 0.8716 0.8723 0.8727
1531.103987 0.8726 0.8724 0.8722 0.8719 0.8714
1536.218800 0.8707 0.8700 0.8692 0.8683 0.8677
1541.333612 0.8675 0.8676 0.8679 0.8687 0.8699
1546.448424 0.8713 0.8733 0.8756 0.8787 0.8828
1551.563236 0.8872 0.8901 0.8924 0.8947 0.8968
1556.678048 0.8985 0.8997 0.9009 0.9021 0.9028
1561.792861 0.9033 0.9037 0.9041 0.9039 0.9038
1566.907673 0.9024 0.9015 0.9007 0.8996 0.8983
1572.022485 0.8970 0.8953 0.8928 0.8898 0.8865
1577.137297 0.8831 0.8789 0.8715 0.8626 0.8525
1582.252109 0.8377 0.8192 0.8043 0.7901 0.7727
1587.366922 0.7499 0.7252 0.7005 0.6757 0.6510
1592.481734 0.6263 0.6016 0.5770 0.5524 0.5279
1597.596546 0.5054 0.4917 0.4882 0.4883 0.4886
1602.711358 0.5041 0.5463 0.6029 0.6616 0.7183
1607.826170 0.7707 0.8115 0.8324 0.8433 0.8517
1612.940983 0.8589 0.8649 0.8701 0.8728 0.8748
1618.055795 0.8769 0.8789 0.8800 0.8806 0.8812
1623.170607 0.8819 0.8826 0.8832 0.8836 0.8839
1628.285419 0.8841 0.8843 0.8844 0.8845 0.8845
1633.400231 0.8845 0.8843 0.8838 0.8841 0.8837
1638.515044 0.8832 0.8827 0.8822 0.8816 0.8811
1643.629856 0.8805 0.8796 0.8786 0.8774 0.8758
1648.744668 0.8739 0.8712 0.8665 0.8604 0.8547
1653.859480 0.8501 0.8461 0.8420 0.8371 0.8314
1658.974292 0.8254 0.8194 0.8135 0.8075 0.8014
1664.089105 0.7944 0.7868 0.7790 0.7710 0.7626
1669.203917 0.7545 0.7470 0.7400 0.7334 0.7267
1674.318729 0.7198 0.7127 0.7054 0.6983 0.6687
1679.433541 0.6410 0.6278 0.6198 0.6124 0.6050
1684.548353 0.5971 0.5888 0.5805 0.5607 0.5310
1689.663166 0.4975 0.4635 0.4296 0.3957 0.3618
1694.777978 0.3281 0.3019 0.2845 0.2705 0.2538
1699.892790 0.2328 0.2108 0.1888 0.1667 0.1447
1705.007602 0.1227 0.1008 0.0807 0.0630 0.0375
1710.122414 0.0327 0.0284 0.0254 0.0233 0.0216
1715.237227 0.0204 0.0199 0.0195 0.0194 0.0196
1720.352039 0.0207 0.0206 0.0223 0.0300 0.0605
1725.466851 0.0917 0.1229 0.1541 0.1853 0.2163
1730.581663 0.2474 0.2784 0.3094 0.3404 0.3713
1735.696475 0.4022 0.4324 0.4569 0.4682 0.4775
1740.811288 0.4879 0.4954 0.5193 0.5900 0.6176
1745.926100 0.6250 0.6326 0.6477 0.6784 0.6974
1751.040912 0.7095 0.7186 0.7258 0.7304 0.7349
1756.155724 0.7396 0.7446 0.7500 0.7556 0.7612
1761.270536 0.7671 0.7738 0.7821 0.7910 0.7985
1766.385349 0.8065 0.8174 0.8279 0.8361 0.8419
1771.500161 0.8461 0.8501 0.8541 0.8578 0.8611
1776.614973 0.8640 0.8669 0.8698 0.8727 0.8756
1781.729785 0.8783 0.8804 0.8822 0.8838 0.8854
1786.844597 0.8868 0.8876 0.8882 0.8887 0.8892
1791.959410 0.8897 0.8902 0.8907 0.8912 0.8916
1797.074222 0.8920 0.8924 0.8927 0.8931 0.8935
1802.189034 0.8939 0.8942 0.8946 0.8950 0.8954
1807.303846 0.8959 0.8965 0.8971 0.8976 0.8982
1812.418658 0.8987 0.8993 0.8999 0.9005 0.9013
1817.533471 0.9022 0.9032 0.9043 0.9053 0.9063
1822.648283 0.9073 0.9083 0.9092 0.9101 0.9110
1827.763095 0.9117 0.9121 0.9124 0.9126 0.9128
1832.877907 0.9131 0.9134 0.9136 0.9139 0.9142
1837.992719 0.9144 0.9146 0.9147 0.9148 0.9148
1843.107532 0.9149 0.9150 0.9151 0.9151 0.9152
1848.222344 0.9153 0.9153 0.9153 0.9154 0.9155
1853.337156 0.9155 0.9155 0.9155 0.9154 0.9154
1858.451968 0.9154 0.9153 0.9153 0.9153 0.9152
1863.566780 0.9151 0.9150 0.9150 0.9148 0.9146
1868.681593 0.9145 0.9143 0.9140 0.9138 0.9137
1873.796405 0.9135 0.9133 0.9132 0.9130 0.9129
1878.911217 0.9128 0.9128 0.9126 0.9125 0.9125
1884.026029 0.9124 0.9124 0.9124 0.9126 0.9129
1889.140841 0.9131 0.9133 0.9136 0.9139 0.9142
1894.255654 0.9144 0.9146 0.9149 0.9152 0.9155
1899.370466 0.9157 0.9160 0.9162 0.9165 0.9169
1904.485278 0.9172 0.9175 0.9178 0.9181 0.9184
1909.600090 0.9187 0.9190 0.9193 0.9196 0.9200
1914.714902 0.9206 0.9211 0.9217 0.9222 0.9227
1919.829715 0.9232 0.9236 0.9239 0.9240 0.9242
1924.944527 0.9244 0.9246 0.9252 0.9260 0.9249
1930.059339 0.9249 0.9250 0.9251 0.9251 0.9250
1935.174151 0.9248 0.9246 0.9243 0.9240 0.9238
1940.288963 0.9235 0.9232 0.9229 0.9227 0.9222
1945.403776 0.9217 0.9211 0.9205 0.9199 0.9192
1950.518588 0.9186 0.9179 0.9170 0.9158 0.9146
1955.633400 0.9135 0.9131 0.9129 0.9128 0.9127
1960.748212 0.9127 0.9129 0.9132 0.9135 0.9139
1965.863024 0.9143 0.9147 0.9151 0.9155 0.9159
1970.977837 0.9163 0.9167 0.9172 0.9177 0.9181
1976.092649 0.9186 0.9191 0.9196 0.9201 0.9205
1981.207461 0.9210 0.9215 0.9221 0.9226 0.9231
1986.322273 0.9236 0.9239 0.9238 0.9237 0.9236
1991.437085 0.9235 0.9235 0.9234 0.9234 0.9234
1996.551898 0.9233 0.9233 0.9233 0.9232 0.9232
2001.666710 0.9232 0.9232 0.9232 0.9231 0.9231
2006.781522 0.9231 0.9230 0.9230 0.9230 0.9230
2011.896334 0.9229 0.9229 0.9229 0.9228 0.9227
2017.011146 0.9227 0.9227 0.9227 0.9226 0.9225
2022.125959 0.9225 0.9225 0.9224 0.9224 0.9223
2027.240771 0.9223 0.9223 0.9222 0.9222 0.9222
2032.355583 0.9222 0.9223 0.9223 0.9223 0.9223
2037.470395 0.9223 0.9223 0.9224 0.9224 0.9224
2042.585207 0.9224 0.9224 0.9225 0.9225 0.9225
2047.700020 0.9225 0.9225 0.9225 0.9226 0.9227
2052.814832 0.9228 0.9229 0.9230 0.9231 0.9232
2057.929644 0.9233 0.9234 0.9235 0.9235 0.9236
2063.044456 0.9238 0.9239 0.9240 0.9240 0.9241
2068.159268 0.9243 0.9244 0.9245 0.9245 0.9246
2073.274081 0.9247 0.9249 0.9250 0.9250 0.9251
2078.388893 0.9252 0.9254 0.9255 0.9256 0.9257
2083.503705 0.9259 0.9260 0.9262 0.9263 0.9265
2088.618517 0.9266 0.9268 0.9269 0.9271 0.9273
2093.733329 0.9274 0.9275 0.9277 0.9278 0.9279
2098.848142 0.9281 0.9283 0.9285 0.9286 0.9287
2103.962954 0.9289 0.9290 0.9292 0.9294 0.9295
2109.077766 0.9296 0.9298 0.9299 0.9300 0.9302
2114.192578 0.9303 0.9304 0.9306 0.9307 0.9308
2119.307390 0.9309 0.9310 0.9312 0.9313 0.9314
2124.422203 0.9315 0.9316 0.9318 0.9319 0.9320
2129.537015 0.9322 0.9323 0.9323 0.9324 0.9324
2134.651827 0.9325 0.9325 0.9326 0.9326 0.9326
2139.766639 0.9327 0.9327 0.9328 0.9328 0.9329
2144.881451 0.9329 0.9330 0.9330 0.9331 0.9332
2149.996264 0.9332 0.9332 0.9332 0.9332 0.9332
2155.111076 0.9332 0.9332 0.9331 0.9331 0.9331
2160.225888 0.9330 0.9330 0.9330 0.9330 0.9330
2165.340700 0.9330 0.9329 0.9329 0.9329 0.9329
2170.455512 0.9328 0.9328 0.9328 0.9328 0.9328
2175.570325 0.9327 0.9327 0.9327 0.9327 0.9326
2180.685137 0.9326 0.9325 0.9325 0.9324 0.9324
2185.799949 0.9323 0.9322 0.9321 0.9320 0.9320
2190.914761 0.9319 0.9318 0.9317 0.9317 0.9316
2196.029573 0.9316 0.9315 0.9315 0.9314 0.9313
2201.144386 0.9312 0.9312 0.9311 0.9311 0.9310
2206.259198 0.9309 0.9308 0.9307 0.9307 0.9306
2211.374010 0.9305 0.9304 0.9304 0.9303 0.9303
2216.488822 0.9302 0.9300 0.9299 0.9298 0.9297
2221.603634 0.9295 0.9294 0.9293 0.9292 0.9290
2226.718447 0.9289 0.9288 0.9287 0.9286 0.9285
2231.833259 0.9283 0.9282 0.9281 0.9279 0.9278
2236.948071 0.9277 0.9276 0.9274 0.9273 0.9272
2242.062883 0.9271 0.9269 0.9268 0.9267 0.9266
2247.177695 0.9264 0.9263 0.9262 0.9262 0.9261
2252.292508 0.9260 0.9259 0.9258 0.9257 0.9257
2257.407320 0.9256 0.9255 0.9254 0.9253 0.9252
2262.522132 0.9252 0.9251 0.9250 0.9249 0.9248
2267.636944 0.9247 0.9246 0.9245 0.9245 0.9245
2272.751756 0.9245 0.9245 0.9245 0.9245 0.9245
2277.866569 0.9245 0.9245 0.9244 0.9244 0.9244
2282.981381 0.9244 0.9243 0.9243 0.9242 0.9240
2288.096193 0.9239 0.9238 0.9237 0.9236 0.9234
2293.211005 0.9233 0.9231 0.9230 0.9229 0.9228
2298.325817 0.9227 0.9227 0.9227 0.9226 0.9226
2303.440630 0.9225 0.9225 0.9224 0.9224 0.9223
2308.555442 0.9223 0.9222 0.9222 0.9221 0.9221
2313.670254 0.9220 0.9220 0.9220 0.9220 0.9220
2318.785066 0.9221 0.9222 0.9224 0.9225 0.9227
2323.899878 0.9228 0.9230 0.9231 0.9232 0.9234
2329.014691 0.9235 0.9237 0.9238 0.9239 0.9241
2334.129503 0.9242 0.9244 0.9245 0.9246 0.9247
2339.244315 0.9248 0.9250 0.9252 0.9254 0.9256
2344.359127 0.9258 0.9261 0.9263 0.9265 0.9267
2349.473939 0.9269 0.9271 0.9273 0.9275 0.9277
2354.588752 0.9279 0.9282 0.9284 0.9286 0.9288
2359.703564 0.9290 0.9292 0.9294 0.9297 0.9299
2364.818376 0.9299 0.9299 0.9298 0.9298 0.9298
2369.933188 0.9298 0.9297 0.9297 0.9297 0.9296
2375.048000 0.9296 0.9296 0.9296 0.9295 0.9295
2380.162813 0.9294 0.9293 0.9292 0.9290 0.9288
2385.277625 0.9286 0.9283 0.9281 0.9279 0.9277
2390.392437 0.9274 0.9271 0.9269 0.9267 0.9265
2395.507249 0.9262 0.9260 0.9258 0.9256 0.9254
2400.622061 0.9252 0.9251 0.9249 0.9247 0.9245
2405.736874 0.9243 0.9241 0.9239 0.9237 0.9235
2410.851686 0.9233 0.9231 0.9231 0.9231 0.9231
2415.966498 0.9231 0.9230 0.9230 0.9230 0.9230
2421.081310 0.9230 0.9230 0.9230 0.9230 0.9230
2426.196122 0.9230 0.9230 0.9230 0.9230 0.9230
2431.310935 0.9230 0.9230 0.9230 0.9230 0.9230
2436.425747 0.9230 0.9230 0.9230 0.9230 0.9230
2441.540559 0.9231 0.9232 0.9233 0.9234 0.9235
2446.655371 0.9235 0.9236 0.9237 0.9237 0.9238
2451.770183 0.9239 0.9240 0.9240 0.9241 0.9242
2456.884996 0.9243 0.9244 0.9244 0.9244 0.9245
2461.999808 0.9246 0.9247 0.9248 0.9249 0.9250
2467.114620 0.9250 0.9251 0.9251 0.9251 0.9251
2472.229432 0.9250 0.9250 0.9250 0.9250 0.9250
2477.344244 0.9250 0.9250 0.9250 0.9250 0.9250
2482.459057 0.9250 0.9250 0.9250 0.9250 0.9250
2487.573869 0.9250 0.9250 0.9249 0.9248 0.9246
2492.688681 0.9245 0.9244 0.9242 0.9241 0.9240
2497.803493 0.9238 0.9236 0.9235 0.9233 0.9232
2502.918305 0.9231 0.9229 0.9228 0.9226 0.9225
2508.033118 0.9224 0.9222 0.9220 0.9219 0.9219
2513.147930 0.9219 0.9219 0.9218 0.9218 0.9218
2518.262742 0.9217 0.9217 0.9216 0.9216 0.9216
2523.377554 0.9216 0.9216 0.9215 0.9215 0.9215
2528.492366 0.9214 0.9214 0.9213 0.9213 0.9213
2533.607179 0.9213 0.9213 0.9212 0.9212 0.9212
2538.721991 0.9211 0.9211 0.9210 0.9210 0.9210
2543.836803 0.9209 0.9209 0.9208 0.9208 0.9208
2548.951615 0.9208 0.9208 0.9207 0.9207 0.9207
2554.066427 0.9206 0.9206 0.9205 0.9205 0.9205
2559.181240 0.9204 0.9204 0.9204 0.9204 0.9204
2564.296052 0.9203 0.9203 0.9203 0.9203 0.9202
2569.410864 0.9202 0.9201 0.9201 0.9201 0.9199
2574.525676 0.9198 0.9196 0.9194 0.9193 0.9192
2579.640488 0.9191 0.9189 0.9188 0.9186 0.9185
2584.755301 0.9184 0.9183 0.9181 0.9180 0.9178
2589.870113 0.9177 0.9175 0.9174 0.9173 0.9172
2594.984925 0.9170 0.9169 0.9167 0.9166 0.9164
2600.099737 0.9163 0.9162 0.9161 0.9160 0.9160
2605.214550 0.9159 0.9159 0.9159 0.9158 0.9158
2610.329362 0.9158 0.9157 0.9157 0.9156 0.9156
2615.444174 0.9156 0.9156 0.9156 0.9156 0.9156
2620.558986 0.9156 0.9156 0.9156 0.9156 0.9156
2625.673798 0.9156 0.9156 0.9157 0.9157 0.9157
2630.788611 0.9157 0.9157 0.9157 0.9157 0.9157
2635.903423 0.9158 0.9158 0.9158 0.9158 0.9158
2641.018235 0.9158 0.9158 0.9158 0.9158 0.9158
2646.133047 0.9158 0.9159 0.9159 0.9159 0.9159
2651.247859 0.9159 0.9159 0.9159 0.9159 0.9159
2656.362672 0.9159 0.9159 0.9160 0.9160 0.9160
2661.477484 0.9160 0.9160 0.9160 0.9160 0.9160
2666.592296 0.9160 0.9160 0.9160 0.9161 0.9161
2671.707108 0.9161 0.9160 0.9159 0.9159 0.9158
2676.821920 0.9158 0.9158 0.9157 0.9157 0.9156
2681.936733 0.9156 0.9156 0.9155 0.9155 0.9155
2687.051545 0.9154 0.9154 0.9154 0.9153 0.9153
2692.166357 0.9153 0.9152 0.9152 0.9152 0.9151
2697.281169 0.9150 0.9149 0.9149 0.9149 0.9148
2702.395981 0.9148 0.9148 0.9147 0.9147 0.9147
2707.510794 0.9146 0.9146 0.9146 0.9145 0.9145
2712.625606 0.9145 0.9144 0.9144 0.9144 0.9143
2717.740418 0.9143 0.9143 0.9142 0.9142 0.9142
2722.855230 0.9142 0.9142 0.9141 0.9141 0.9141
2727.970042 0.9141 0.9141 0.9141 0.9140 0.9140
2733.084855 0.9140 0.9140 0.9140 0.9140 0.9139
2738.199667 0.9139 0.9139 0.9139 0.9139 0.9139
2743.314479 0.9138 0.9138 0.9138 0.9138 0.9138
2748.429291 0.9138 0.9137 0.9137 0.9137 0.9136
2753.544103 0.9136 0.9136 0.9136 0.9136 0.9136
2758.658916 0.9135 0.9135 0.9135 0.9134 0.9134
2763.773728 0.9134 0.9134 0.9134 0.9134 0.9134
2768.888540 0.9133 0.9133 0.9133 0.9132 0.9132
2774.003352 0.9132 0.9131 0.9131 0.9131 0.9131
2779.118164 0.9131 0.9131 0.9130 0.9130 0.9130
2784.232977 0.9129 0.9129 0.9129 0.9129 0.9129
2789.347789 0.9129 0.9128 0.9128 0.9128 0.9127
2794.462601 0.9127 0.9127 0.9126 0.9126 0.9126
2799.577413 0.9125 0.9125 0.9125 0.9124 0.9123
2804.692225 0.9121 0.9120 0.9119 0.9118 0.9116
2809.807038 0.9115 0.9114 0.9112 0.9111 0.9110
2814.921850 0.9108 0.9107 0.9107 0.9106 0.9104
2820.036662 0.9103 0.9102 0.9100 0.9099 0.9098
2825.151474 0.9095 0.9091 0.9087 0.9082 0.9075
2830.266286 0.9069 0.9061 0.9051 0.9041 0.9030
2835.381099 0.9017 0.9004 0.8990 0.8973 0.8956
2840.495911 0.8940 0.8925 0.8910 0.8895 0.8880
2845.610723 0.8866 0.8852 0.8838 0.8823 0.8809
2850.725535 0.8795 0.8782 0.8768 0.8754 0.8740
2855.840347 0.8726 0.8712 0.8698 0.8684 0.8671
2860.955160 0.8657 0.8642 0.8627 0.8613 0.8598
2866.069972 0.8583 0.8569 0.8555 0.8540 0.8526
2871.184784 0.8511 0.8497 0.8482 0.8468 0.8454
2876.299596 0.8439 0.8423 0.8405 0.8387 0.8368
2881.414408 0.8349 0.8329 0.8308 0.8288 0.8268
2886.529221 0.8247 0.8227 0.8207 0.8187 0.8165
2891.644033 0.8142 0.8119 0.8089 0.8052 0.8011
2896.758845 0.7970 0.7928 0.7887 0.7845 0.7793
2901.873657 0.7730 0.7667 0.7620 0.7597 0.7579
2906.988469 0.7561 0.7545 0.7527 0.7510 0.7493
2912.103282 0.7476 0.7458 0.7441 0.7424 0.7407
2917.218094 0.7390 0.7371 0.7353 0.7334 0.7315
2922.332906 0.7297 0.7278 0.7260 0.7241 0.7223
2927.447718 0.7204 0.7184 0.7164 0.7143 0.7120
2932.562530 0.7094 0.7068 0.7043 0.7017 0.6991
2937.677343 0.6965 0.6939 0.6914 0.6888 0.6859
2942.792155 0.6816 0.6772 0.6728 0.6680 0.6629
2947.906967 0.6579 0.6534 0.6504 0.6472 0.6441
2953.021779 0.6410 0.6380 0.6349 0.6318 0.6289
2958.136591 0.6259 0.6229 0.6200 0.6171 0.6142
2963.251404 0.6114 0.6086 0.6060 0.6033 0.6013
2968.366216 0.5996 0.5977 0.5958 0.5938 0.5919
2973.481028 0.5901 0.5881 0.5860 0.5840 0.5801
2978.595840 0.5755 0.5707 0.5668 0.5646 0.5627
2983.710652 0.5608 0.5590 0.5571 0.5552 0.5521
2988.825465 0.5469 0.5412 0.5353 0.5294 0.5232
2993.940277 0.5171 0.5110 0.5049 0.4988 0.4927
2999.055089 0.4867 0.4806 0.4745 0.4684 0.4624
3004.169901 0.4563 0.4502 0.4456 0.4422 0.4389
3009.284713 0.4364 0.4354 0.4353 0.4353 0.4353
3014.399526 0.4353 0.4353 0.4356 0.4373 0.4402
3019.514338 0.4431 0.4477 0.4556 0.4645 0.4734
3024.629150 0.4823 0.4913 0.5002 0.5090 0.5179
3029.743962 0.5268 0.5356 0.5444 0.5533 0.5621
3034.858774 0.5710 0.5798 0.5886 0.5975 0.6064
3039.973587 0.6152 0.6240 0.6328 0.6414 0.6498
3045.088399 0.6582 0.6669 0.6770 0.6882 0.6994
3050.203211 0.7094 0.7124 0.7151 0.7178 0.7204
3055.318023 0.7229 0.7255 0.7279 0.7302 0.7323
3060.432835 0.7345 0.7365 0.7386 0.7407 0.7427
3065.547648 0.7448 0.7470 0.7493 0.7516 0.7536
3070.662460 0.7555 0.7575 0.7595 0.7611 0.7626
3075.777272 0.7642 0.7658 0.7673 0.7688 0.7704
3080.892084 0.7718 0.7730 0.7742 0.7755 0.7767
3086.006896 0.7779 0.7791 0.7803 0.7815 0.7827
3091.121709 0.7838 0.7853 0.7871 0.7890 0.7909
3096.236521 0.7931 0.7957 0.7983 0.8009 0.8034
3101.351333 0.8057 0.8079 0.8103 0.8126 0.8149
3106.466145 0.8171 0.8195 0.8222 0.8251 0.8279
3111.580957 0.8308 0.8336 0.8364 0.8392 0.8413
3116.695770 0.8427 0.8442 0.8456 0.8470 0.8483
3121.810582 0.8497 0.8511 0.8525 0.8539 0.8553
3126.925394 0.8567 0.8579 0.8592 0.8603 0.8615
3132.040206 0.8626 0.8637 0.8648 0.8658 0.8669
3137.155018 0.8680 0.8691 0.8701 0.8711 0.8719
3142.269831 0.8728 0.8737 0.8746 0.8755 0.8764
3147.384643 0.8773 0.8782 0.8791 0.8799 0.8808
3152.499455 0.8816 0.8824 0.8832 0.8837 0.8841
3157.614267 0.8845 0.8849 0.8853 0.8856 0.8860
3162.729079 0.8864 0.8868 0.8872 0.8875 0.8879
3167.843892 0.8883 0.8886 0.8888 0.8892 0.8894
3172.958704 0.8896 0.8898 0.8900 0.8902 0.8903
3178.073516 0.8904 0.8906 0.8908 0.8910 0.8912
3183.188328 0.8914 0.8915 0.8916 0.8917 0.8918
3188.303140 0.8919 0.8920 0.8921 0.8922 0.8923
3193.417953 0.8923 0.8924 0.8925 0.8926 0.8926
3198.532765 0.8926 0.8927 0.8928 0.8929 0.8929
3203.647577 0.8930 0.8931 0.8932 0.8932 0.8933
3208.762389 0.8934 0.8935 0.8936 0.8937 0.8938
3213.877201 0.8939 0.8939 0.8940 0.8941 0.8942
3218.992014 0.8942 0.8943 0.8944 0.8945 0.8945
3224.106826 0.8946 0.8947 0.8947 0.8948 0.8948
3229.221638 0.8949 0.8949 0.8950 0.8951 0.8952
3234.336450 0.8952 0.8953 0.8953 0.8954 0.8954
3239.451262 0.8955 0.8956 0.8957 0.8957 0.8958
3244.566075 0.8958 0.8958 0.8959 0.8960 0.8961
3249.680887 0.8961 0.8962 0.8962 0.8963 0.8963
3254.795699 0.8964 0.8964 0.8965 0.8965 0.8966
3259.910511 0.8967 0.8967 0.8968 0.8977 0.8973
3265.025323 0.8970 0.8970 0.8971 0.8971 0.8971
3270.140136 0.8971 0.8972 0.8972 0.8972 0.8972
3275.254948 0.8973 0.8973 0.8973 0.8973 0.8973
3280.369760 0.8973 0.8974 0.8974 0.8974 0.8974
3285.484572 0.8975 0.8975 0.8975 0.8975 0.8975
3290.599384 0.8975 0.8975 0.8975 0.8976 0.8976
3295.714197 0.8976 0.8976 0.8977 0.8977 0.8977
3300.829009 0.8977 0.8977 0.8978 0.8978 0.8978
3305.943821 0.8978 0.8979 0.8979 0.8979 0.8979
3311.058633 0.8980 0.8980 0.8980 0.8980 0.8980
3316.173445 0.8980 0.8980 0.8980 0.8980 0.8979
3321.288258 0.8979 0.8978 0.8978 0.8977 0.8977
3326.403070 0.8977 0.8977 0.8976 0.8976 0.8976
3331.517882 0.8976 0.8976 0.8975 0.8975 0.8975
3336.632694 0.8975 0.8974 0.8974 0.8974 0.8974
3341.747506 0.8973 0.8973 0.8972 0.8972 0.8972
3346.862319 0.8971 0.8970 0.8970 0.8969 0.8968
3351.977131 0.8968 0.8967 0.8966 0.8965 0.8964
3357.091943 0.8963 0.8963 0.8962 0.8961 0.8960
3362.206755 0.8959 0.8958 0.8957 0.8956 0.8956
3367.321567 0.8955 0.8954 0.8954 0.8953 0.8952
3372.436380 0.8951 0.8950 0.8949 0.8947 0.8946
3377.551192 0.8945 0.8943 0.8942 0.8941 0.8939
3382.666004 0.8938 0.8937 0.8936 0.8935 0.8933
3387.780816 0.8932 0.8931 0.8930 0.8928 0.8927
3392.895628 0.8925 0.8924 0.8923 0.8921 0.8920
3398.010441 0.8919 0.8917 0.8916 0.8915 0.8913
3403.125253 0.8912 0.8911 0.8910 0.8908 0.8907
3408.240065 0.8906 0.8904 0.8903 0.8902 0.8900
3413.354877 0.8899 0.8897 0.8896 0.8894 0.8893
3418.469689 0.8891 0.8889 0.8888 0.8887 0.8885
3423.584502 0.8884 0.8882 0.8881 0.8880 0.8879
3428.699314 0.8878 0.8877 0.8876 0.8875 0.8875
3433.814126 0.8874 0.8873 0.8873 0.8873 0.8872
3438.928938 0.8872 0.8871 0.8871 0.8870 0.8870
3444.043750 0.8870 0.8869 0.8869 0.8868 0.8868
3449.158563 0.8868 0.8868 0.8868 0.8869 0.8869
3454.273375 0.8870 0.8871 0.8871 0.8872 0.8873
3459.388187 0.8873 0.8873 0.8874 0.8874 0.8875
3464.502999 0.8876 0.8877 0.8878 0.8879 0.8880
3469.617811 0.8881 0.8882 0.8883 0.8884 0.8886
3474.732624 0.8887 0.8888 0.8889 0.8890 0.8891
3479.847436 0.8892 0.8893 0.8894 0.8895 0.8896
3484.962248 0.8897 0.8898 0.8898 0.8899 0.8901
3490.077060 0.8902 0.8903 0.8904 0.8905 0.8906
3495.191872 0.8906 0.8907 0.8908 0.8909 0.8910
3500.306685 0.8911 0.8912 0.8913 0.8914 0.8915
3505.421497 0.8916 0.8917 0.8918 0.8919 0.8920
3510.536309 0.8921 0.8922 0.8923 0.8923 0.8923
3515.651121 0.8924 0.8924 0.8925 0.8925 0.8925
3520.765933 0.8925 0.8925 0.8925 0.8925 0.8925
3525.880746 0.8925 0.8925 0.8925 0.8925 0.8925
3530.995558 0.8925 0.8925 0.8925 0.8925 0.8925
3536.110370 0.8925 0.8925 0.8925 0.8925 0.8925
3541.225182 0.8925 0.8925 0.8925 0.8925 0.8925
3546.339994 0.8925 0.8924 0.8924 0.8924 0.8924
3551.454807 0.8924 0.8924 0.8924 0.8924 0.8924
3556.569619 0.8924 0.8924 0.8924 0.8924 0.8924
3561.684431 0.8924 0.8924 0.8923 0.8923 0.8923
3566.799243 0.8923 0.8923 0.8923 0.8923 0.8923
3571.914055 0.8923 0.8923 0.8922 0.8922 0.8922
3577.028868 0.8922 0.8922 0.8922 0.8922 0.8922
3582.143680 0.8922 0.8922 0.8922 0.8922 0.8922
3587.258492 0.8922 0.8922 0.8921 0.8921 0.8921
3592.373304 0.8921 0.8921 0.8921 0.8921 0.8921
3597.488116 0.8921 0.8921 0.8920 0.8920 0.8920
3602.602929 0.8920 0.8920 0.8920 0.8920 0.8920
3607.717741 0.8920 0.8920 0.8920 0.8919 0.8919
3612.832553 0.8919 0.8919 0.8919 0.8919 0.8919
3617.947365 0.8919 0.8919 0.8919 0.8919 0.8919
3623.062177 0.8919 0.8919 0.8919 0.8918 0.8918
3628.176990 0.8918 0.8918 0.8918 0.8918 0.8918
3633.291802 0.8918 0.8918 0.8918 0.8917 0.8917
3638.406614 0.8917 0.8917 0.8917 0.8917 0.8917
3643.521426 0.8917 0.8917 0.8917 0.8916 0.8916
3648.636238 0.8916 0.8916 0.8916 0.8916 0.8916
3653.751051 0.8916 0.8916 0.8916 0.8916 0.8916
3658.865863 0.8916 0.8916 0.8916 0.8916 0.8915
3663.980675 0.8915 0.8915 0.8915 0.8915 0.8915
3669.095487 0.8915 0.8915 0.8915 0.8915 0.8915
3674.210299 0.8914 0.8914 0.8914 0.8914 0.8914
3679.325112 0.8914 0.8914 0.8914 0.8914 0.8914
3684.439924 0.8914 0.8914 0.8914 0.8914 0.8914
3689.554736 0.8914 0.8914 0.8914 0.8914 0.8914
3694.669548 0.8914 0.8914 0.8914 0.8914 0.8914
3699.784360 0.8914 0.8914 0.8913 0.8913 0.8913
3704.899173 0.8913 0.8913 0.8913 0.8913 0.8913
3710.013985 0.8913 0.8913 0.8913 0.8913 0.8913
3715.128797 0.8913 0.8913 0.8913 0.8913 0.8913
3720.243609 0.8913 0.8913 0.8913 0.8913 0.8912
3725.358421 0.8912 0.8912 0.8912 0.8912 0.8912
3730.473234 0.8912 0.8912 0.8912 0.8912 0.8912
3735.588046 0.8912 0.8912 0.8912 0.8912 0.8912
3740.702858 0.8912 0.8912 0.8912 0.8912 0.8912
3745.817670 0.8912 0.8912 0.8912 0.8912 0.8912
3750.932482 0.8912 0.8911 0.8911 0.8911 0.8911
3756.047295 0.8911 0.8911 0.8911 0.8911 0.8911
3761.162107 0.8911 0.8911 0.8911 0.8911 0.8911
3766.276919 0.8911 0.8911 0.8911 0.8911 0.8911
3771.391731 0.8911 0.8911 0.8911 0.8911 0.8911
3776.506543 0.8911 0.8911 0.8911 0.8911 0.8910
3781.621356 0.8910 0.8910 0.8910 0.8910 0.8910
3786.736168 0.8910 0.8910 0.8910 0.8910 0.8910
3791.850980 0.8910 0.8910 0.8910 0.8910 0.8910
3796.965792 0.8910 0.8910 0.8910 0.8910 0.8910
3802.080604 0.8910 0.8910 0.8910 0.8910 0.8910
3807.195417 0.8910 0.8910 0.8910 0.8910 0.8910
3812.310229 0.8910 0.8910 0.8910 0.8910 0.8910
3817.425041 0.8910 0.8910 0.8910 0.8910 0.8910
3822.539853 0.8910 0.8910 0.8910 0.8910 0.8910
3827.654665 0.8910 0.8910 0.8910 0.8910 0.8910
3832.769478 0.8910 0.8910 0.8910 0.8910 0.8910
3837.884290 0.8910 0.8910 0.8910 0.8910 0.8910
3842.999102 0.8910 0.8910 0.8910 0.8910 0.8910
3848.113914 0.8910 0.8910 0.8910 0.8910 0.8910
3853.228726 0.8910 0.8910 0.8910 0.8910 0.8910
3858.343539 0.8910 0.8910 0.8910 0.8910 0.8909
3863.458351 0.8909 0.8909 0.8909 0.8909 0.8909
3868.573163 0.8908 0.8908 0.8908 0.8908 0.8908
3873.687975 0.8908 0.8908 0.8907 0.8907 0.8907
3878.802788 0.8907 0.8907 0.8906 0.8906 0.8906
3883.917600 0.8905 0.8905 0.8905 0.8904 0.8904
3889.032412 0.8904 0.8903 0.8903 0.8903 0.8902
3894.147224 0.8902 0.8902 0.8902 0.8902 0.8902
3899.262036 0.8901 0.8901 0.8901 0.8900 0.8900
3904.376849 0.8900 0.8899 0.8899 0.8899 0.8898
3909.491661 0.8898 0.8898 0.8897 0.8897 0.8897
3914.606473 0.8897 0.8897 0.8897 0.8896 0.8896
3919.721285 0.8896 0.8896 0.8895 0.8895 0.8895
3924.836097 0.8894 0.8894 0.8894 0.8894 0.8894
3929.950910 0.8894 0.8893 0.8893 0.8893 0.8892
3935.065722 0.8892 0.8891 0.8891 0.8891 0.8890
3940.180534 0.8890 0.8890 0.8889 0.8889 0.8889
3945.295346 0.8889 0.8889 0.8889 0.8888 0.8888
3950.410158 0.8888 0.8887 0.8887 0.8887 0.8886
3955.524971 0.8886 0.8885 0.8885 0.8885 0.8884
3960.639783 0.8884 0.8883 0.8883 0.8882 0.8882
3965.754595 0.8881 0.8881 0.8881 0.8880 0.8880
3970.869407 0.8879 0.8879 0.8878 0.8878 0.8877
3975.984219 0.8877 0.8877 0.8876 0.8876 0.8876
3981.099032 0.8875 0.8875 0.8874 0.8874 0.8873
3986.213844 0.8873 0.8872 0.8872 0.8871 0.8871
3991.328656 0.8870 0.8870 0.8869 0.8869 0.8869
3996.443468 0.8868 0.8868 0.8868 0.8867 0.8867
4001.558280 0.8866 0.8866 0.8865 0.8865 0.8864
4006.673093 0.8864 0.8863 0.8863 0.8862 0.8862
4011.787905 0.8862 0.8862 0.8861 0.8860 0.8859
4016.902717 0.8858 0.8857 0.8857 0.8856 0.8855
4022.017529 0.8855 0.8854 0.8853 0.8853 0.8852
4027.132341 0.8851 0.8850 0.8850 0.8849 0.8848
4032.247154 0.8847 0.8846 0.8846 0.8845 0.8844
4037.361966 0.8843 0.8842 0.8842 0.8841 0.8840
4042.476778 0.8839 0.8838 0.8838 0.8837 0.8836
4047.591590 0.8836 0.8835 0.8834 0.8834 0.8833
4052.706402 0.8832 0.8832 0.8831 0.8831 0.8830
4057.821215 0.8829 0.8828 0.8828 0.8827 0.8826
4062.936027 0.8825 0.8824 0.8824 0.8823 0.8822
4068.050839 0.8821 0.8821 0.8820 0.8819 0.8818
4073.165651 0.8817 0.8817 0.8816 0.8815 0.8814
4078.280463 0.8814
##END=
