##TITLE=1,1'-BIS (Alpha-HYDROXYETHYL) FERROCENE
##JCAMP-DX=4.24
##DATA TYPE=INFRARED SPECTRUM
##CLASS=COBLENTZ
##ORIGIN=WYANDOTTE CHEMICALS CORP., WYANDOTTE, MICHIGAN, USA
##OWNER=COBLENTZ SOCIETY
Collection (C) 2018 copyright by the U.S. Secretary of Commerce
on behalf of the United States of America. All rights reserved.
##DATE=Not specified, most likely prior to 1970
##MOLFORM=C14 H18 Fe O2
##MP=69-71 C
##SOURCE REFERENCE=COBLENTZ NO. 3021
##$NIST ID=B6003021
##$NIST SOURCE=COBLENTZ
##$NIST IMAGE=cob3021
##SPECTROMETER/DATA SYSTEM=Not specified, most likely a prism, grating, or hybrid spectrometer.
##STATE=SOLID (MINERAL OIL MULL)
##PATH LENGTH=
$$SPECTRAL CONTAMINATION DUE TO OIL AROUND 2900 CM^-^1
##SAMPLING PROCEDURE=TRANSMISSION
##RESOLUTION=4
##DATA PROCESSING=DIGITIZED BY NIST FROM HARD COPY
##XUNITS=MICROMETERS
##YUNITS=TRANSMITTANCE
##XFACTOR=1.000000
##YFACTOR=1
##DELTAX=000.006819
##FIRSTX=2.034
##LASTX=15.9928
##FIRSTY=0.486
##MAXX=15.9928
##MINX=2.034
##MAXY=0.94
##MINY=0.052
##NPOINTS=2048
##XYDATA=(X++(Y..Y))
2.034000 0.4860 0.4860 0.4860 0.4860 0.4860
2.068113 0.4880 0.4880 0.4890 0.4890 0.4890
2.102000 0.4890 0.4910 0.4910 0.4930 0.4930
2.136113 0.4930 0.4930 0.4940 0.4940 0.4940
2.170000 0.4940 0.4940 0.4940 0.4960 0.4960
2.204113 0.4960 0.4980 0.4980 0.4980 0.5000
2.239000 0.5010 0.5030 0.5050 0.5060 0.5100
2.273113 0.5130 0.5150 0.5200 0.5230 0.5270
2.307000 0.5280 0.5340 0.5370 0.5390 0.5400
2.341113 0.5400 0.5400 0.5390 0.5390 0.5390
2.375000 0.5400 0.5400 0.5400 0.5400 0.5420
2.409113 0.5470 0.5490 0.5490 0.5520 0.5560
2.443000 0.5570 0.5570 0.5570 0.5560 0.5540
2.477113 0.5520 0.5520 0.5510 0.5520 0.5560
2.511000 0.5610 0.5680 0.5740 0.5830 0.5880
2.545113 0.5980 0.6000 0.6020 0.6070 0.6080
2.580000 0.6080 0.6100 0.6100 0.6100 0.6120
2.614113 0.6130 0.6130 0.6150 0.6170 0.6220
2.648000 0.6270 0.6320 0.6370 0.6390 0.6410
2.682113 0.6410 0.6420 0.6420 0.6420 0.6470
2.716000 0.6470 0.6490 0.6510 0.6530 0.6530
2.750113 0.6510 0.6530 0.6540 0.6560 0.6580
2.784000 0.6580 0.6580 0.6580 0.6580 0.6540
2.818113 0.6510 0.6410 0.6370 0.6290 0.6220
2.852000 0.6130 0.5950 0.5810 0.5620 0.5420
2.886113 0.5200 0.4980 0.4740 0.4480 0.4200
2.921000 0.3960 0.3700 0.3500 0.3330 0.3190
2.955113 0.3010 0.2820 0.2610 0.2390 0.2190
2.989000 0.1900 0.1590 0.1340 0.1020 0.0830
3.023113 0.0730 0.0620 0.0520 0.0520 0.0570
3.057000 0.0590 0.0620 0.0690 0.0690 0.0710
3.091113 0.0740 0.0830 0.0980 0.1100 0.1200
3.125000 0.1360 0.1470 0.1560 0.1660 0.1810
3.159113 0.1900 0.2020 0.2140 0.2290 0.2380
3.193000 0.2530 0.2700 0.2780 0.2780 0.2700
3.227113 0.2580 0.2510 0.2510 0.2610 0.2900
3.262000 0.3210 0.3460 0.3550 0.3580 0.3580
3.296113 0.3580 0.3520 0.3350 0.3010 0.2550
3.330000 0.2100 0.1540 0.1050 0.0590 0.0570
3.364113 0.0570 0.0570 0.0590 0.0590 0.0590
3.398000 0.0610 0.0620 0.0620 0.0610 0.0610
3.432113 0.0610 0.0610 0.0610 0.0620 0.0690
3.466000 0.0690 0.0710 0.0690 0.0680 0.0680
3.500113 0.0710 0.0790 0.0960 0.1250 0.1760
3.534000 0.2360 0.2970 0.3500 0.3960 0.4400
3.568113 0.4710 0.4980 0.5180 0.5300 0.5470
3.603000 0.5620 0.5710 0.5740 0.5780 0.5880
3.637113 0.5950 0.6000 0.6030 0.6080 0.6080
3.671000 0.6080 0.6080 0.6080 0.6080 0.6080
3.705113 0.6080 0.6100 0.6100 0.6100 0.6100
3.739000 0.6100 0.6120 0.6150 0.6190 0.6240
3.773113 0.6240 0.6240 0.6240 0.6240 0.6240
3.807000 0.6300 0.6390 0.6440 0.6540 0.6580
3.841113 0.6610 0.6630 0.6700 0.6760 0.6800
3.875000 0.6810 0.6870 0.6900 0.6980 0.7000
3.909113 0.7070 0.7070 0.7100 0.7170 0.7190
3.943000 0.7190 0.7170 0.7170 0.7170 0.7190
3.977113 0.7220 0.7270 0.7310 0.7320 0.7340
4.012000 0.7360 0.7360 0.7380 0.7380 0.7380
4.046113 0.7390 0.7480 0.7480 0.7480 0.7500
4.080000 0.7500 0.7480 0.7440 0.7440 0.7500
4.114113 0.7530 0.7560 0.7560 0.7560 0.7550
4.148000 0.7550 0.7550 0.7550 0.7550 0.7550
4.182113 0.7560 0.7580 0.7610 0.7730 0.7770
4.216000 0.7780 0.7780 0.7820 0.7820 0.7820
4.250113 0.7780 0.7750 0.7750 0.7730 0.7750
4.284000 0.7750 0.7770 0.7780 0.7800 0.7850
4.318113 0.7870 0.7940 0.7970 0.7970 0.7990
4.353000 0.8010 0.8070 0.8160 0.8260 0.8290
4.387113 0.8380 0.8400 0.8410 0.8430 0.8410
4.421000 0.8380 0.8330 0.8310 0.8290 0.8280
4.455113 0.8260 0.8260 0.8240 0.8260 0.8280
4.489000 0.8310 0.8330 0.8360 0.8360 0.8330
4.523113 0.8310 0.8310 0.8290 0.8280 0.8290
4.557000 0.8310 0.8330 0.8380 0.8380 0.8460
4.591113 0.8460 0.8480 0.8520 0.8580 0.8600
4.625000 0.8600 0.8600 0.8620 0.8620 0.8620
4.659113 0.8620 0.8620 0.8630 0.8630 0.8630
4.694000 0.8670 0.8690 0.8700 0.8720 0.8720
4.728113 0.8740 0.8740 0.8770 0.8770 0.8770
4.762000 0.8750 0.8750 0.8750 0.8750 0.8770
4.796113 0.8770 0.8790 0.8800 0.8820 0.8820
4.830000 0.8800 0.8800 0.8800 0.8800 0.8800
4.864113 0.8820 0.8800 0.8790 0.8790 0.8790
4.898000 0.8800 0.8800 0.8800 0.8820 0.8840
4.932113 0.8860 0.8870 0.8890 0.8970 0.9010
4.966000 0.9030 0.9030 0.9030 0.9040 0.9040
5.000113 0.9060 0.9060 0.9060 0.9040 0.9040
5.035000 0.9030 0.9010 0.9010 0.8990 0.8970
5.069113 0.8990 0.9010 0.9040 0.9060 0.9080
5.103000 0.9090 0.9080 0.9060 0.9060 0.9060
5.137113 0.9060 0.9080 0.9080 0.9090 0.9090
5.171000 0.9090 0.9130 0.9130 0.9130 0.9160
5.205113 0.9200 0.9200 0.9180 0.9130 0.9110
5.239000 0.9110 0.9080 0.9090 0.9160 0.9180
5.273113 0.9180 0.9180 0.9180 0.9180 0.9180
5.307000 0.9180 0.9180 0.9180 0.9180 0.9180
5.341113 0.9180 0.9180 0.9180 0.9180 0.9160
5.376000 0.9180 0.9230 0.9260 0.9280 0.9300
5.410113 0.9350 0.9350 0.9310 0.9280 0.9250
5.444000 0.9210 0.9230 0.9280 0.9300 0.9370
5.478113 0.9400 0.9400 0.9370 0.9350 0.9330
5.512000 0.9370 0.9370 0.9370 0.9370 0.9330
5.546113 0.9280 0.9260 0.9210 0.9110 0.8990
5.580000 0.8960 0.8910 0.8840 0.8790 0.8740
5.614113 0.8720 0.8740 0.8750 0.8770 0.8740
5.648000 0.8670 0.8600 0.8580 0.8570 0.8520
5.682113 0.8480 0.8450 0.8450 0.8500 0.8500
5.717000 0.8480 0.8480 0.8460 0.8380 0.8310
5.751113 0.8240 0.8140 0.8140 0.8210 0.8330
5.785000 0.8330 0.8280 0.8210 0.8180 0.8110
5.819113 0.8070 0.8040 0.7990 0.7900 0.7870
5.853000 0.7870 0.7840 0.7800 0.7800 0.7800
5.887113 0.7870 0.7900 0.7970 0.7970 0.7890
5.921000 0.7800 0.7820 0.7820 0.7820 0.7780
5.955113 0.7770 0.7770 0.7700 0.7680 0.7670
5.989000 0.7610 0.7550 0.7500 0.7440 0.7340
6.023113 0.7310 0.7270 0.7270 0.7310 0.7480
6.057000 0.7600 0.7730 0.7800 0.7800 0.7820
6.091113 0.7900 0.7990 0.8040 0.8040 0.7990
6.126000 0.7950 0.7950 0.7970 0.8090 0.8190
6.160113 0.8280 0.8280 0.8280 0.8280 0.8260
6.194000 0.8260 0.8410 0.8550 0.8650 0.8750
6.228113 0.8770 0.8800 0.8870 0.8910 0.8990
6.262000 0.9060 0.9080 0.9080 0.9010 0.8990
6.296113 0.8960 0.8960 0.8990 0.9060 0.9080
6.330000 0.9110 0.9110 0.9110 0.9080 0.8970
6.364113 0.8890 0.8790 0.8770 0.8800 0.8890
6.398000 0.8910 0.8920 0.8910 0.8840 0.8740
6.432113 0.8650 0.8580 0.8570 0.8550 0.8500
6.467000 0.8550 0.8580 0.8600 0.8580 0.8580
6.501113 0.8530 0.8480 0.8480 0.8410 0.8380
6.535000 0.8360 0.8350 0.8360 0.8380 0.8400
6.569113 0.8410 0.8410 0.8400 0.8350 0.8240
6.603000 0.8190 0.8140 0.7900 0.7630 0.7580
6.637113 0.7500 0.7380 0.7270 0.7170 0.7120
6.671000 0.7120 0.7100 0.7100 0.7090 0.7070
6.705113 0.6950 0.6750 0.6510 0.6290 0.6030
6.739000 0.5810 0.5640 0.5300 0.4600 0.3920
6.773113 0.3260 0.2870 0.2700 0.2610 0.2530
6.808000 0.2390 0.2320 0.2260 0.2210 0.2100
6.842113 0.2020 0.1930 0.1920 0.1900 0.1900
6.876000 0.1850 0.1800 0.1780 0.1710 0.1710
6.910113 0.1810 0.2100 0.2460 0.2870 0.3240
6.944000 0.3650 0.3970 0.4200 0.4350 0.4480
6.978113 0.4620 0.4690 0.4710 0.4710 0.4550
7.012000 0.4450 0.4350 0.4200 0.3890 0.3310
7.046113 0.3010 0.2840 0.2800 0.2780 0.2780
7.080000 0.2800 0.2950 0.3110 0.3120 0.3140
7.114113 0.3120 0.2970 0.2770 0.2560 0.2100
7.149000 0.1920 0.1920 0.1980 0.2170 0.2360
7.183113 0.2600 0.2700 0.2780 0.2700 0.2510
7.217000 0.2290 0.2190 0.2140 0.2120 0.2100
7.251113 0.2050 0.1870 0.1710 0.1530 0.1420
7.285000 0.1300 0.1240 0.1100 0.1020 0.1080
7.319113 0.1420 0.1760 0.2210 0.2550 0.2800
7.353000 0.3060 0.3410 0.3750 0.4140 0.4540
7.387113 0.4840 0.5110 0.5390 0.5610 0.5810
7.421000 0.5960 0.6150 0.6190 0.6220 0.6270
7.455113 0.6290 0.6300 0.6300 0.6290 0.6220
7.490000 0.6020 0.5850 0.5710 0.5510 0.5300
7.524113 0.5060 0.4810 0.3910 0.3020 0.2530
7.558000 0.2310 0.2210 0.2190 0.2190 0.2170
7.592113 0.2170 0.2430 0.2650 0.2950 0.3330
7.626000 0.3600 0.3770 0.4040 0.4210 0.4350
7.660113 0.4380 0.4380 0.4310 0.4040 0.3960
7.694000 0.3620 0.3180 0.2950 0.2650 0.2430
7.728113 0.2270 0.2150 0.2050 0.1830 0.1730
7.762000 0.1630 0.1610 0.1680 0.1710 0.1750
7.796113 0.1800 0.1830 0.2000 0.2150 0.2410
7.830000 0.2610 0.2820 0.3040 0.3260 0.3520
7.864113 0.3750 0.4010 0.4420 0.4760 0.5030
7.899000 0.5230 0.5350 0.5490 0.5590 0.5710
7.933113 0.5950 0.6150 0.6300 0.6410 0.6510
7.967000 0.6580 0.6630 0.6680 0.6700 0.6780
8.001113 0.6780 0.6700 0.6610 0.6540 0.6470
8.035000 0.6300 0.5980 0.5400 0.5000 0.4520
8.069113 0.4250 0.3990 0.3820 0.3520 0.3160
8.103000 0.2820 0.2600 0.2530 0.2580 0.2750
8.137113 0.3040 0.3430 0.3940 0.4520 0.5110
8.171000 0.5590 0.5960 0.6150 0.6360 0.6510
8.205113 0.6680 0.6950 0.7100 0.7210 0.7290
8.240000 0.7380 0.7390 0.7500 0.7550 0.7600
8.274113 0.7630 0.7670 0.7630 0.7510 0.7480
8.308000 0.7360 0.7240 0.6970 0.6760 0.6680
8.342113 0.6610 0.6610 0.6800 0.7050 0.7320
8.376000 0.7500 0.7650 0.7720 0.7800 0.7840
8.410113 0.7990 0.8060 0.8060 0.8020 0.8010
8.444000 0.7970 0.7970 0.7990 0.8070 0.8110
8.478113 0.8240 0.8310 0.8330 0.8380 0.8380
8.512000 0.8380 0.8400 0.8410 0.8460 0.8460
8.546113 0.8410 0.8380 0.8380 0.8380 0.8380
8.581000 0.8410 0.8480 0.8480 0.8500 0.8520
8.615113 0.8570 0.8580 0.8570 0.8550 0.8550
8.649000 0.8550 0.8530 0.8550 0.8570 0.8620
8.683113 0.8670 0.8670 0.8650 0.8670 0.8670
8.717000 0.8690 0.8720 0.8720 0.8740 0.8750
8.751113 0.8800 0.8840 0.8870 0.8870 0.8870
8.785000 0.8820 0.8790 0.8770 0.8770 0.8750
8.819113 0.8750 0.8720 0.8690 0.8630 0.8580
8.853000 0.8570 0.8570 0.8480 0.8410 0.8330
8.887113 0.8260 0.8180 0.8090 0.7990 0.7900
8.922000 0.7840 0.7720 0.7550 0.7430 0.7240
8.956113 0.6970 0.6710 0.6410 0.6050 0.5610
8.990000 0.5080 0.4400 0.3480 0.2550 0.1810
9.024113 0.1200 0.0730 0.0710 0.0710 0.0730
9.058000 0.0860 0.0900 0.0900 0.0900 0.0960
9.092113 0.1070 0.1120 0.1220 0.1370 0.1540
9.126000 0.1750 0.1980 0.2240 0.2530 0.2840
9.160113 0.3140 0.3450 0.3740 0.3890 0.3910
9.194000 0.3920 0.3690 0.3600 0.3120 0.2560
9.228113 0.2170 0.1760 0.1370 0.1070 0.0810
9.263000 0.0710 0.0620 0.0610 0.0610 0.0620
9.297113 0.0690 0.0730 0.0790 0.0960 0.1190
9.331000 0.1440 0.1730 0.2050 0.2410 0.2750
9.365113 0.3090 0.3400 0.3690 0.3940 0.4130
9.399000 0.4250 0.4350 0.4420 0.4480 0.4550
9.433113 0.4650 0.4760 0.5050 0.5340 0.5560
9.467000 0.5760 0.5950 0.6020 0.6030 0.6000
9.501113 0.6000 0.6000 0.5980 0.5980 0.5950
9.535000 0.5900 0.5790 0.5510 0.5150 0.4650
9.569113 0.3940 0.3060 0.2410 0.1780 0.1510
9.604000 0.1540 0.1580 0.2140 0.2510 0.2920
9.638113 0.3450 0.3960 0.4380 0.4790 0.5300
9.672000 0.5640 0.5790 0.5810 0.5790 0.5640
9.706113 0.5350 0.5100 0.4910 0.4890 0.4880
9.740000 0.4820 0.4740 0.4550 0.4210 0.3820
9.774113 0.3400 0.2990 0.2890 0.2890 0.2900
9.808000 0.3410 0.3800 0.4330 0.4840 0.5080
9.842113 0.5350 0.5590 0.5640 0.5680 0.5610
9.876000 0.5300 0.4910 0.4310 0.3650 0.2770
9.910113 0.2020 0.1530 0.1150 0.0960 0.0780
9.944000 0.0660 0.0640 0.0680 0.0850 0.1070
9.978113 0.1370 0.1760 0.2170 0.2770 0.3210
10.013000 0.3630 0.4060 0.4500 0.4910 0.5270
10.047113 0.5610 0.5930 0.6220 0.6460 0.6680
10.081000 0.6870 0.6980 0.7090 0.7190 0.7290
10.115113 0.7410 0.7510 0.7610 0.7700 0.7770
10.149000 0.7800 0.7870 0.7950 0.7970 0.8010
10.183113 0.8060 0.8090 0.8120 0.8140 0.8160
10.217000 0.8160 0.8180 0.8190 0.8190 0.8210
10.251113 0.8210 0.8210 0.8210 0.8230 0.8280
10.285000 0.8260 0.8290 0.8310 0.8380 0.8360
10.319113 0.8380 0.8380 0.8400 0.8410 0.8430
10.354000 0.8410 0.8430 0.8460 0.8480 0.8480
10.388113 0.8480 0.8480 0.8500 0.8520 0.8530
10.422000 0.8570 0.8630 0.8670 0.8670 0.8670
10.456113 0.8670 0.8620 0.8600 0.8600 0.8600
10.490000 0.8600 0.8600 0.8600 0.8600 0.8600
10.524113 0.8600 0.8600 0.8670 0.8670 0.8620
10.558000 0.8600 0.8580 0.8580 0.8580 0.8580
10.592113 0.8580 0.8580 0.8620 0.8600 0.8580
10.626000 0.8550 0.8530 0.8520 0.8480 0.8450
10.660113 0.8350 0.8290 0.8280 0.8210 0.8110
10.695000 0.8040 0.7950 0.7840 0.7650 0.7460
10.729113 0.7260 0.7020 0.6730 0.6390 0.6020
10.763000 0.5560 0.5030 0.4400 0.3670 0.2840
10.797113 0.2680 0.2430 0.2190 0.2190 0.2430
10.831000 0.2670 0.2900 0.3140 0.3350 0.4200
10.865113 0.4710 0.5200 0.5660 0.6070 0.6440
10.899000 0.6760 0.7020 0.7220 0.7340 0.7440
10.933113 0.7550 0.7750 0.7870 0.7950 0.8010
10.967000 0.8090 0.8180 0.8280 0.8290 0.8310
11.001113 0.8310 0.8350 0.8360 0.8360 0.8360
11.036000 0.8380 0.8380 0.8380 0.8380 0.8310
11.070113 0.8260 0.8180 0.8070 0.7940 0.7770
11.104000 0.7550 0.7390 0.7150 0.6880 0.6510
11.138113 0.6190 0.6000 0.6000 0.6070 0.6170
11.172000 0.6270 0.6440 0.6540 0.6640 0.6810
11.206113 0.6920 0.6920 0.6760 0.6880 0.6870
11.240000 0.6800 0.6710 0.6510 0.6410 0.6250
11.274113 0.6130 0.6000 0.5900 0.5640 0.5390
11.308000 0.4980 0.4350 0.3620 0.2920 0.2410
11.342113 0.2150 0.1970 0.1900 0.1880 0.1880
11.377000 0.1920 0.2020 0.2170 0.2320 0.2720
11.411113 0.3060 0.3260 0.3670 0.4010 0.4330
11.445000 0.4590 0.4930 0.5200 0.5440 0.5660
11.479113 0.5900 0.6150 0.6340 0.6410 0.6490
11.513000 0.6580 0.6590 0.6610 0.6580 0.6460
11.547113 0.6340 0.6100 0.6000 0.6000 0.6000
11.581000 0.6080 0.6250 0.6420 0.6590 0.6680
11.615113 0.6710 0.6710 0.6610 0.6360 0.6130
11.649000 0.5640 0.5030 0.4400 0.3940 0.3580
11.683113 0.3520 0.3520 0.3700 0.4110 0.4500
11.717000 0.4940 0.5450 0.5900 0.6080 0.6300
11.751113 0.6460 0.6580 0.6590 0.6610 0.6610
11.786000 0.6610 0.6590 0.6540 0.6560 0.6470
11.820113 0.6340 0.6170 0.5950 0.5710 0.5440
11.854000 0.5180 0.4930 0.4710 0.4550 0.4500
11.888113 0.4500 0.4600 0.4940 0.5200 0.5570
11.922000 0.5950 0.6270 0.6580 0.6830 0.7050
11.956113 0.7260 0.7440 0.7600 0.7730 0.7780
11.990000 0.7870 0.7870 0.7870 0.7750 0.7600
12.024113 0.7510 0.7390 0.7360 0.7270 0.7270
12.058000 0.7290 0.7530 0.7630 0.7700 0.7750
12.092113 0.7780 0.7840 0.7870 0.7890 0.7920
12.127000 0.7920 0.7920 0.7870 0.7840 0.7770
12.161113 0.7650 0.7550 0.7430 0.7270 0.7120
12.195000 0.6930 0.6780 0.6640 0.6410 0.6200
12.229113 0.6070 0.6000 0.5950 0.5850 0.5660
12.263000 0.5490 0.5340 0.5150 0.5000 0.4810
12.297113 0.4690 0.4600 0.4520 0.4480 0.4450
12.331000 0.4420 0.4400 0.4420 0.4500 0.4650
12.365113 0.4760 0.4940 0.5050 0.5230 0.5390
12.399000 0.5470 0.5490 0.5490 0.5280 0.4820
12.433113 0.4370 0.3820 0.3090 0.2460 0.1900
12.468000 0.1300 0.1220 0.1220 0.1320 0.1760
12.502113 0.2100 0.2560 0.3010 0.3500 0.4010
12.536000 0.4500 0.4930 0.5370 0.5760 0.6080
12.570113 0.6340 0.6580 0.6760 0.6920 0.7040
12.604000 0.7150 0.7240 0.7310 0.7380 0.7460
12.638113 0.7550 0.7600 0.7650 0.7680 0.7730
12.672000 0.7770 0.7770 0.7770 0.7780 0.7800
12.706113 0.7820 0.7820 0.7820 0.7800 0.7780
12.740000 0.7800 0.7800 0.7800 0.7800 0.7780
12.774113 0.7770 0.7730 0.7720 0.7700 0.7700
12.809000 0.7700 0.7700 0.7680 0.7650 0.7580
12.843113 0.7560 0.7560 0.7550 0.7560 0.7560
12.877000 0.7510 0.7500 0.7480 0.7410 0.7390
12.911113 0.7390 0.7380 0.7380 0.7360 0.7360
12.945000 0.7310 0.7290 0.7270 0.7270 0.7270
12.979113 0.7220 0.7210 0.7190 0.7150 0.7150
13.013000 0.7140 0.7140 0.7100 0.7100 0.7090
13.047113 0.7070 0.7070 0.7050 0.7040 0.7040
13.081000 0.7000 0.6980 0.6980 0.6970 0.6930
13.115113 0.6930 0.6920 0.6920 0.6920 0.6920
13.150000 0.6920 0.6920 0.6900 0.6870 0.6810
13.184113 0.6810 0.6800 0.6780 0.6780 0.6760
13.218000 0.6760 0.6760 0.6750 0.6730 0.6710
13.252113 0.6700 0.6680 0.6660 0.6660 0.6660
13.286000 0.6660 0.6640 0.6630 0.6610 0.6580
13.320113 0.6580 0.6560 0.6580 0.6590 0.6610
13.354000 0.6610 0.6610 0.6610 0.6590 0.6580
13.388113 0.6560 0.6540 0.6530 0.6530 0.6530
13.422000 0.6510 0.6510 0.6490 0.6490 0.6470
13.456113 0.6470 0.6460 0.6470 0.6470 0.6440
13.491000 0.6410 0.6410 0.6390 0.6390 0.6390
13.525113 0.6390 0.6390 0.6410 0.6410 0.6410
13.559000 0.6390 0.6360 0.6360 0.6410 0.6410
13.593113 0.6390 0.6370 0.6360 0.6360 0.6320
13.627000 0.6320 0.6300 0.6290 0.6270 0.6270
13.661113 0.6300 0.6300 0.6300 0.6290 0.6270
13.695000 0.6270 0.6220 0.6200 0.6190 0.6170
13.729113 0.6150 0.6150 0.6170 0.6170 0.6170
13.763000 0.6170 0.6130 0.6120 0.6100 0.6100
13.797113 0.6100 0.6100 0.6080 0.6070 0.6050
13.831000 0.6050 0.6020 0.6020 0.6000 0.6000
13.865113 0.6000 0.6000 0.6000 0.5980 0.5980
13.900000 0.5980 0.5960 0.5950 0.5930 0.5910
13.934113 0.5880 0.5850 0.5850 0.5830 0.5830
13.968000 0.5830 0.5830 0.5810 0.5810 0.5810
14.002113 0.5810 0.5810 0.5790 0.5790 0.5780
14.036000 0.5760 0.5740 0.5710 0.5690 0.5690
14.070113 0.5690 0.5690 0.5680 0.5640 0.5610
14.104000 0.5590 0.5570 0.5540 0.5510 0.5490
14.138113 0.5490 0.5470 0.5470 0.5440 0.5420
14.172000 0.5400 0.5370 0.5370 0.5370 0.5320
14.206113 0.5300 0.5300 0.5300 0.5280 0.5250
14.241000 0.5230 0.5200 0.5180 0.5180 0.5180
14.275113 0.5170 0.5150 0.5110 0.5100 0.5080
14.309000 0.5080 0.5060 0.5030 0.5010 0.5010
14.343113 0.5000 0.4980 0.4960 0.4940 0.4910
14.377000 0.4890 0.4880 0.4860 0.4860 0.4880
14.411113 0.4880 0.4880 0.4860 0.4860 0.4840
14.445000 0.4840 0.4840 0.4820 0.4820 0.4810
14.479113 0.4810 0.4810 0.4810 0.4810 0.4810
14.513000 0.4810 0.4810 0.4810 0.4810 0.4810
14.547113 0.4820 0.4820 0.4860 0.4860 0.4880
14.582000 0.4880 0.4820 0.4810 0.4790 0.4790
14.616113 0.4770 0.4740 0.4670 0.4650 0.4620
14.650000 0.4590 0.4550 0.4480 0.4450 0.4420
14.684113 0.4400 0.4380 0.4310 0.4250 0.4200
14.718000 0.4140 0.4110 0.4060 0.4040 0.4010
14.752113 0.3990 0.3990 0.3990 0.3990 0.4010
14.786000 0.4030 0.4040 0.4060 0.4080 0.4110
14.820113 0.4140 0.4210 0.4250 0.4300 0.4370
14.854000 0.4420 0.4470 0.4500 0.4520 0.4570
14.888113 0.4570 0.4590 0.4600 0.4670 0.4710
14.923000 0.4760 0.4770 0.4840 0.4880 0.4890
14.957113 0.4910 0.4930 0.4940 0.4940 0.4960
14.991000 0.4980 0.4980 0.5000 0.5000 0.5000
15.025113 0.4980 0.4960 0.4940 0.4940 0.4930
15.059000 0.4910 0.4880 0.4860 0.4790 0.4770
15.093113 0.4760 0.4720 0.4720 0.4710 0.4710
15.127000 0.4710 0.4720 0.4720 0.4720 0.4740
15.161113 0.4740 0.4760 0.4760 0.4760 0.4760
15.195000 0.4770 0.4770 0.4770 0.4790 0.4790
15.229113 0.4810 0.4810 0.4820 0.4820 0.4840
15.264000 0.4840 0.4860 0.4880 0.4880 0.4890
15.298113 0.4890 0.4910 0.4910 0.4910 0.4930
15.332000 0.4930 0.4940 0.4940 0.4930 0.4910
15.366113 0.4910 0.4910 0.4890 0.4890 0.4890
15.400000 0.4910 0.4930 0.4940 0.4980 0.5010
15.434113 0.5010 0.5030 0.5050 0.5050 0.5060
15.468000 0.5080 0.5080 0.5080 0.5080 0.5080
15.502113 0.5060 0.5060 0.5080 0.5080 0.5110
15.536000 0.5170 0.5180 0.5200 0.5220 0.5230
15.570113 0.5250 0.5270 0.5270 0.5270 0.5280
15.604000 0.5300 0.5300 0.5320 0.5340 0.5340
15.638113 0.5350 0.5350 0.5350 0.5370 0.5370
15.673000 0.5390 0.5390 0.5390 0.5400 0.5440
15.707113 0.5470 0.5470 0.5490 0.5510 0.5520
15.741000 0.5520 0.5510 0.5490 0.5490 0.5490
15.775113 0.5490 0.5490 0.5490 0.5510 0.5520
15.809000 0.5520 0.5540 0.5540 0.5560 0.5560
15.843113 0.5560 0.5570 0.5570 0.5570 0.5560
15.877000 0.5540 0.5490 0.5490 0.5510 0.5510
15.911113 0.5540 0.5560 0.5570 0.5560 0.5570
15.945000 0.5570 0.5570 0.5570 0.5590 0.5590
15.979113 0.5590 0.5590 0.5590
##END=
