##TITLE=Piperazine, N,N'-dimethyl-, dihydrochloride, trans-
##JCAMP-DX=4.24
##DATA TYPE=INFRARED SPECTRUM
##CLASS=COBLENTZ III
##ORIGIN=BRITISH PETROLEUM CO. LTD., ENGLAND
##OWNER=Copyright (C) 1987 by the Coblentz Society
Collection (C) 2018 copyright by the U.S. Secretary of Commerce
on behalf of the United States of America. All rights reserved.
##DATE=1972/06/12
##NAMES=Piperazine, 1,4-dimethyl-, dihydrochloride, trans-
##MOLFORM=C6 H16 Cl2 N2
##SOURCE REFERENCE=COBLENTZ NO. 9364
##$NIST ID=B6009364
##$NIST SOURCE=COBLENTZ
##$NIST IMAGE=cob9364
##SPECTROMETER/DATA SYSTEM=PERKIN-ELMER 157
##STATE=SOLID (KBr DISC, 0.9% WT.)
$$ HCl RUN IN KBr MAY CONTAIN SOME HBr
$$ REF. Can. J. Spec., 18,4,101, '73 C. S. DOUSE and P. B. TOOKE
##SAMPLING PROCEDURE=TRANSMISSION
##RESOLUTION=2
##DATA PROCESSING=DIGITIZED BY COBLENTZ SOCIETY (BATCH II) FROM HARD COPY
##XUNITS=1/CM
##YUNITS=TRANSMITTANCE
##XFACTOR=1.0
##YFACTOR=1
##FIRSTX=668
##LASTX=4000
##FIRSTY=0.9509
##MAXX=4000
##MINX=668
##MAXY=0.9472
##MINY=0.0072
##NPOINTS=3333
##XYDATA=(X++(Y..Y))
668.000000 0.9509 0.9506 0.9500 0.9492 0.9478
673.000000 0.9460 0.9472 0.9410 0.9382 0.9354
678.000000 0.9325 0.9309 0.9301 0.9296 0.9293
683.000000 0.9287 0.9270 0.9248 0.9226 0.9207
688.000000 0.9189 0.9171 0.9154 0.9137 0.9126
693.000000 0.9118 0.9108 0.9101 0.9092 0.9078
698.000000 0.9060 0.9042 0.9028 0.9017 0.9006
703.000000 0.8995 0.8983 0.8966 0.8948 0.8930
708.000000 0.8912 0.8896 0.8881 0.8851 0.8795
713.000000 0.8780 0.8766 0.8760 0.8752 0.8742
718.000000 0.8717 0.8692 0.8669 0.8650 0.8640
723.000000 0.8630 0.8620 0.8610 0.8600 0.8589
728.000000 0.8577 0.8564 0.8551 0.8538 0.8526
733.000000 0.8513 0.8501 0.8490 0.8478 0.8466
738.000000 0.8455 0.8445 0.8436 0.8427 0.8419
743.000000 0.8416 0.8406 0.8377 0.8344 0.8337
748.000000 0.8330 0.8323 0.8315 0.8308 0.8300
753.000000 0.8294 0.8287 0.8281 0.8274 0.8268
758.000000 0.8264 0.8259 0.8255 0.8253 0.8249
763.000000 0.8247 0.8242 0.8236 0.8231 0.8215
768.000000 0.8189 0.8168 0.8155 0.8146 0.8140
773.000000 0.8139 0.8137 0.8136 0.8134 0.8133
778.000000 0.8133 0.8132 0.8131 0.8130 0.8128
783.000000 0.8121 0.8112 0.8103 0.8095 0.8086
788.000000 0.8077 0.8069 0.8061 0.8053 0.8042
793.000000 0.8024 0.8007 0.7991 0.7978 0.7964
798.000000 0.7950 0.7941 0.7936 0.7931 0.7926
803.000000 0.7921 0.7915 0.7912 0.7909 0.7905
808.000000 0.7903 0.7900 0.7896 0.7888 0.7879
813.000000 0.7869 0.7851 0.7833 0.7806 0.7776
818.000000 0.7746 0.7715 0.7667 0.7620 0.7570
823.000000 0.7493 0.7384 0.6816 0.6480 0.6002
828.000000 0.5794 0.5800 0.5916 0.6142 0.6367
833.000000 0.6592 0.6793 0.6981 0.7126 0.7270
838.000000 0.7489 0.7688 0.7725 0.7741 0.7751
843.000000 0.7755 0.7754 0.7754 0.7760 0.7772
848.000000 0.7780 0.7768 0.7755 0.7742 0.7729
853.000000 0.7716 0.7703 0.7689 0.7675 0.7661
858.000000 0.7645 0.7619 0.7594 0.7573 0.7558
863.000000 0.7545 0.7534 0.7502 0.7462 0.7434
868.000000 0.7417 0.7409 0.7382 0.7363 0.7345
873.000000 0.7316 0.7268 0.7215 0.7158 0.7101
878.000000 0.7023 0.6942 0.6771 0.6526 0.6366
883.000000 0.5806 0.5105 0.4386 0.3979 0.3967
888.000000 0.3967 0.4104 0.4146 0.4189 0.4577
893.000000 0.5174 0.5768 0.6361 0.6936 0.7050
898.000000 0.7070 0.7078 0.7076 0.7079 0.7072
903.000000 0.7062 0.7048 0.7029 0.6998 0.6958
908.000000 0.6934 0.6911 0.6890 0.6876 0.6860
913.000000 0.6814 0.6762 0.6706 0.6652 0.6600
918.000000 0.6548 0.6500 0.6454 0.6407 0.6359
923.000000 0.6308 0.6256 0.6203 0.6133 0.6056
928.000000 0.5831 0.5627 0.5466 0.5336 0.5183
933.000000 0.4974 0.4572 0.4038 0.3523 0.3027
938.000000 0.2641 0.2401 0.2026 0.1633 0.1294
943.000000 0.1071 0.0930 0.0907 0.0899 0.1078
948.000000 0.1368 0.1677 0.2022 0.2884 0.3450
953.000000 0.4014 0.4392 0.4391 0.4388 0.4089
958.000000 0.3659 0.3230 0.2802 0.2374 0.1947
963.000000 0.1522 0.1196 0.1210 0.1558 0.2165
968.000000 0.2771 0.3376 0.3979 0.4582 0.5142
973.000000 0.5331 0.5569 0.5747 0.5867 0.5919
978.000000 0.5945 0.5942 0.5940 0.5891 0.5826
983.000000 0.5762 0.5677 0.5562 0.5373 0.5072
988.000000 0.4484 0.3768 0.3053 0.2535 0.2363
993.000000 0.2310 0.2309 0.2297 0.2427 0.2740
998.000000 0.3066 0.3374 0.3488 0.3650 0.3797
1003.000000 0.3810 0.3830 0.3889 0.4239 0.4652
1008.000000 0.5065 0.5308 0.5433 0.5539 0.5765
1013.000000 0.5838 0.5869 0.5878 0.5879 0.5872
1018.000000 0.5849 0.5788 0.5650 0.5537 0.5425
1023.000000 0.5292 0.5042 0.4694 0.4338 0.3982
1028.000000 0.3588 0.3286 0.2692 0.1904 0.1102
1033.000000 0.0495 0.0404 0.0388 0.0388 0.0389
1038.000000 0.0667 0.1403 0.2112 0.2819 0.3073
1043.000000 0.3087 0.2919 0.2521 0.2124 0.1728
1048.000000 0.1333 0.0938 0.0551 0.0525 0.0571
1053.000000 0.0816 0.1375 0.1933 0.2184 0.2194
1058.000000 0.2040 0.1823 0.1636 0.1617 0.1644
1063.000000 0.1721 0.1915 0.2618 0.3347 0.4076
1068.000000 0.4785 0.5135 0.5842 0.5969 0.6055
1073.000000 0.6101 0.6134 0.6166 0.6179 0.6189
1078.000000 0.6199 0.6201 0.6203 0.6205 0.6207
1083.000000 0.6208 0.6204 0.6207 0.6204 0.6193
1088.000000 0.6184 0.6171 0.6132 0.6084 0.6041
1093.000000 0.5997 0.5932 0.5870 0.5811 0.5746
1098.000000 0.5557 0.5214 0.4900 0.4616 0.4190
1103.000000 0.3819 0.3449 0.3080 0.2712 0.2345
1108.000000 0.1978 0.1611 0.1245 0.0880 0.0798
1113.000000 0.0805 0.0807 0.0894 0.0937 0.0963
1118.000000 0.0972 0.0980 0.1211 0.1502 0.1794
1123.000000 0.2086 0.2376 0.2667 0.2851 0.2844
1128.000000 0.2624 0.2446 0.2268 0.2090 0.1913
1133.000000 0.1736 0.1560 0.1401 0.1402 0.1895
1138.000000 0.2570 0.3244 0.3916 0.4587 0.5257
1143.000000 0.5630 0.6023 0.6480 0.6557 0.6598
1148.000000 0.6631 0.6661 0.6678 0.6695 0.6711
1153.000000 0.6727 0.6734 0.6741 0.6748 0.6753
1158.000000 0.6759 0.6764 0.6769 0.6780 0.6793
1163.000000 0.6806 0.6819 0.6834 0.6850 0.6856
1168.000000 0.6858 0.6860 0.6862 0.6864 0.6864
1173.000000 0.6866 0.6867 0.6868 0.6869 0.6870
1178.000000 0.6871 0.6870 0.6869 0.6868 0.6867
1183.000000 0.6877 0.6860 0.6855 0.6849 0.6843
1188.000000 0.6832 0.6821 0.6810 0.6799 0.6789
1193.000000 0.6779 0.6770 0.6760 0.6734 0.6710
1198.000000 0.6695 0.6683 0.6672 0.6664 0.6657
1203.000000 0.6649 0.6644 0.6640 0.6634 0.6626
1208.000000 0.6615 0.6603 0.6589 0.6569 0.6549
1213.000000 0.6529 0.6510 0.6496 0.6483 0.6469
1218.000000 0.6452 0.6436 0.6423 0.6416 0.6409
1223.000000 0.6401 0.6396 0.6391 0.6386 0.6381
1228.000000 0.6377 0.6376 0.6374 0.6372 0.6371
1233.000000 0.6369 0.6367 0.6365 0.6359 0.6353
1238.000000 0.6338 0.6321 0.6305 0.6285 0.6264
1243.000000 0.6244 0.6223 0.6203 0.6185 0.6166
1248.000000 0.6147 0.6128 0.6107 0.6086 0.6065
1253.000000 0.6043 0.6021 0.5993 0.5965 0.5936
1258.000000 0.5908 0.5879 0.5848 0.5818 0.5787
1263.000000 0.5752 0.5717 0.5682 0.5644 0.5594
1268.000000 0.5542 0.5489 0.5392 0.5283 0.5181
1273.000000 0.5084 0.4979 0.4839 0.4686 0.4519
1278.000000 0.4382 0.4265 0.4160 0.4056 0.3847
1283.000000 0.3573 0.3301 0.3028 0.2785 0.2781
1288.000000 0.2865 0.3014 0.3163 0.3312 0.3460
1293.000000 0.3608 0.3756 0.3887 0.3877 0.3701
1298.000000 0.3488 0.3275 0.3063 0.2851 0.2639
1303.000000 0.2466 0.2426 0.2748 0.3218 0.3687
1308.000000 0.4156 0.4617 0.4865 0.4876 0.4867
1313.000000 0.4875 0.4838 0.4815 0.4776 0.4732
1318.000000 0.4668 0.4592 0.4518 0.4466 0.4414
1323.000000 0.4337 0.4238 0.4163 0.4096 0.4030
1328.000000 0.3972 0.3919 0.3828 0.3407 0.2573
1333.000000 0.2172 0.1771 0.1372 0.0973 0.0797
1338.000000 0.0877 0.0792 0.1630 0.2038 0.2446
1343.000000 0.2854 0.3196 0.3222 0.3230 0.3215
1348.000000 0.2989 0.2757 0.2527 0.2296 0.2065
1353.000000 0.1836 0.1658 0.1626 0.1635 0.1736
1358.000000 0.1851 0.1964 0.2011 0.1987 0.1927
1363.000000 0.1894 0.1924 0.2062 0.2200 0.2337
1368.000000 0.2433 0.2445 0.2438 0.2435 0.2417
1373.000000 0.2349 0.2138 0.1917 0.1695 0.1474
1378.000000 0.1254 0.1088 0.1082 0.1251 0.1663
1383.000000 0.2104 0.2543 0.2982 0.3421 0.3779
1388.000000 0.3862 0.3858 0.3871 0.3849 0.3829
1393.000000 0.3788 0.3697 0.3598 0.3499 0.3401
1398.000000 0.3302 0.3204 0.3105 0.3008 0.2910
1403.000000 0.2812 0.2715 0.2591 0.2491 0.2333
1408.000000 0.2159 0.1987 0.1813 0.1641 0.1468
1413.000000 0.1296 0.1156 0.1083 0.0974 0.0900
1418.000000 0.0883 0.0879 0.0882 0.0892 0.0915
1423.000000 0.0941 0.0967 0.0981 0.0985 0.0926
1428.000000 0.0812 0.0697 0.0602 0.0543 0.0517
1433.000000 0.0502 0.0492 0.0488 0.0490 0.0492
1438.000000 0.0498 0.0506 0.0522 0.0560 0.0644
1443.000000 0.0728 0.0812 0.0896 0.1072 0.1100
1448.000000 0.1123 0.1138 0.1136 0.1100 0.1059
1453.000000 0.1019 0.0987 0.0986 0.1041 0.1124
1458.000000 0.1204 0.1262 0.1304 0.1355 0.1418
1463.000000 0.1457 0.1483 0.1490 0.1489 0.1483
1468.000000 0.1487 0.1445 0.1390 0.1321 0.1252
1473.000000 0.1182 0.1113 0.1048 0.1056 0.1024
1478.000000 0.1605 0.1948 0.2292 0.2634 0.2976
1483.000000 0.3317 0.3659 0.3999 0.4339 0.4524
1488.000000 0.4584 0.4624 0.4635 0.4645 0.4653
1493.000000 0.4654 0.4660 0.4652 0.4646 0.4637
1498.000000 0.4618 0.4597 0.4567 0.4508 0.4432
1503.000000 0.4357 0.4281 0.4205 0.4129 0.4053
1508.000000 0.3979 0.3924 0.3916 0.3909 0.3901
1513.000000 0.3848 0.3737 0.3611 0.3485 0.3360
1518.000000 0.3235 0.3110 0.2993 0.2922 0.2892
1523.000000 0.2873 0.2864 0.2858 0.2856 0.2856
1528.000000 0.2845 0.2876 0.2929 0.2985 0.3041
1533.000000 0.3096 0.3152 0.3201 0.3196 0.3182
1538.000000 0.3116 0.3011 0.2906 0.2801 0.2696
1543.000000 0.2593 0.2544 0.2516 0.2493 0.2482
1548.000000 0.2472 0.2468 0.2471 0.2476 0.2532
1553.000000 0.2663 0.2795 0.2925 0.3042 0.3107
1558.000000 0.3136 0.3161 0.3177 0.3189 0.3198
1563.000000 0.3203 0.3204 0.3205 0.3206 0.3204
1568.000000 0.3217 0.3180 0.3133 0.3084 0.3040
1573.000000 0.3006 0.2983 0.2976 0.2974 0.2976
1578.000000 0.2981 0.2991 0.3015 0.2970 0.3119
1583.000000 0.3274 0.3458 0.3643 0.3827 0.4011
1588.000000 0.4195 0.4378 0.4561 0.4685 0.4734
1593.000000 0.4755 0.4766 0.4773 0.4779 0.4781
1598.000000 0.4781 0.4780 0.4794 0.4772 0.4763
1603.000000 0.4751 0.4738 0.4723 0.4705 0.4688
1608.000000 0.4671 0.4652 0.4632 0.4612 0.4592
1613.000000 0.4572 0.4549 0.4526 0.4503 0.4482
1618.000000 0.4462 0.4448 0.4441 0.4435 0.4429
1623.000000 0.4428 0.4430 0.4432 0.4434 0.4443
1628.000000 0.4449 0.4461 0.4477 0.4498 0.4535
1633.000000 0.4570 0.4604 0.4637 0.4668 0.4697
1638.000000 0.4726 0.4750 0.4770 0.4788 0.4807
1643.000000 0.4827 0.4852 0.4884 0.4929 0.5034
1648.000000 0.5068 0.5081 0.5095 0.5105 0.5113
1653.000000 0.5121 0.5128 0.5134 0.5141 0.5147
1658.000000 0.5154 0.5160 0.5165 0.5171 0.5175
1663.000000 0.5180 0.5184 0.5189 0.5194 0.5199
1668.000000 0.5203 0.5208 0.5212 0.5216 0.5220
1673.000000 0.5224 0.5228 0.5231 0.5235 0.5239
1678.000000 0.5243 0.5247 0.5250 0.5251 0.5253
1683.000000 0.5255 0.5256 0.5258 0.5259 0.5261
1688.000000 0.5262 0.5262 0.5260 0.5258 0.5257
1693.000000 0.5255 0.5253 0.5250 0.5249 0.5248
1698.000000 0.5247 0.5246 0.5246 0.5245 0.5247
1703.000000 0.5244 0.5244 0.5244 0.5245 0.5246
1708.000000 0.5248 0.5249 0.5250 0.5251 0.5252
1713.000000 0.5253 0.5254 0.5256 0.5257 0.5259
1718.000000 0.5262 0.5264 0.5267 0.5270 0.5272
1723.000000 0.5275 0.5277 0.5278 0.5279 0.5279
1728.000000 0.5279 0.5280 0.5280 0.5279 0.5277
1733.000000 0.5275 0.5273 0.5269 0.5260 0.5250
1738.000000 0.5241 0.5232 0.5223 0.5214 0.5207
1743.000000 0.5200 0.5193 0.5187 0.5180 0.5174
1748.000000 0.5171 0.5170 0.5170 0.5169 0.5168
1753.000000 0.5168 0.5168 0.5169 0.5170 0.5171
1758.000000 0.5171 0.5172 0.5173 0.5172 0.5171
1763.000000 0.5171 0.5170 0.5170 0.5169 0.5168
1768.000000 0.5168 0.5165 0.5163 0.5160 0.5158
1773.000000 0.5156 0.5153 0.5151 0.5147 0.5142
1778.000000 0.5135 0.5129 0.5122 0.5115 0.5108
1783.000000 0.5101 0.5094 0.5087 0.5080 0.5073
1788.000000 0.5062 0.5049 0.5033 0.5018 0.5003
1793.000000 0.4988 0.4970 0.4951 0.4929 0.4907
1798.000000 0.4885 0.4863 0.4843 0.4822 0.4801
1803.000000 0.4785 0.4775 0.4770 0.4764 0.4758
1808.000000 0.4753 0.4747 0.4742 0.4739 0.4737
1813.000000 0.4736 0.4736 0.4735 0.4735 0.4736
1818.000000 0.4736 0.4735 0.4735 0.4734 0.4734
1823.000000 0.4721 0.4705 0.4687 0.4669 0.4651
1828.000000 0.4633 0.4614 0.4595 0.4575 0.4555
1833.000000 0.4534 0.4513 0.4491 0.4463 0.4427
1838.000000 0.4390 0.4353 0.4316 0.4279 0.4243
1843.000000 0.4207 0.4170 0.4134 0.4097 0.4061
1848.000000 0.4024 0.3985 0.3944 0.3918 0.3906
1853.000000 0.3894 0.3877 0.3853 0.3822 0.3819
1858.000000 0.3815 0.3813 0.3813 0.3814 0.3817
1863.000000 0.3819 0.3820 0.3823 0.3826 0.3834
1868.000000 0.3842 0.3850 0.3858 0.3865 0.3875
1873.000000 0.3886 0.3899 0.3940 0.4011 0.4103
1878.000000 0.4180 0.4224 0.4252 0.4272 0.4287
1883.000000 0.4298 0.4307 0.4310 0.4314 0.4317
1888.000000 0.4320 0.4323 0.4327 0.4330 0.4332
1893.000000 0.4333 0.4332 0.4332 0.4331 0.4330
1898.000000 0.4330 0.4330 0.4329 0.4329 0.4327
1903.000000 0.4326 0.4325 0.4323 0.4322 0.4320
1908.000000 0.4319 0.4318 0.4317 0.4316 0.4322
1913.000000 0.4332 0.4343 0.4354 0.4365 0.4376
1918.000000 0.4385 0.4394 0.4402 0.4407 0.4411
1923.000000 0.4414 0.4416 0.4427 0.4419 0.4421
1928.000000 0.4422 0.4422 0.4419 0.4414 0.4410
1933.000000 0.4405 0.4398 0.4389 0.4380 0.4370
1938.000000 0.4358 0.4332 0.4306 0.4280 0.4256
1943.000000 0.4232 0.4208 0.4186 0.4166 0.4148
1948.000000 0.4130 0.4116 0.4105 0.4098 0.4091
1953.000000 0.4083 0.4077 0.4072 0.4068 0.4065
1958.000000 0.4061 0.4057 0.4054 0.4050 0.4046
1963.000000 0.4041 0.4036 0.4025 0.4014 0.4004
1968.000000 0.3994 0.3986 0.3978 0.3970 0.3962
1973.000000 0.3955 0.3947 0.3939 0.3932 0.3924
1978.000000 0.3917 0.3910 0.3901 0.3891 0.3882
1983.000000 0.3873 0.3864 0.3855 0.3846 0.3837
1988.000000 0.3828 0.3818 0.3809 0.3800 0.3791
1993.000000 0.3781 0.3772 0.3762 0.3752 0.3742
1998.000000 0.3732 0.3722 0.3712 0.3700 0.3688
2003.000000 0.3677 0.3665 0.3653 0.3641 0.3627
2008.000000 0.3610 0.3591 0.3572 0.3553 0.3528
2013.000000 0.3499 0.3457 0.3412 0.3366 0.3316
2018.000000 0.3264 0.3208 0.3149 0.3088 0.3047
2023.000000 0.3008 0.2970 0.2897 0.2814 0.2788
2028.000000 0.2773 0.2772 0.2761 0.2773 0.2789
2033.000000 0.2817 0.2857 0.2898 0.2939 0.2980
2038.000000 0.3020 0.3061 0.3103 0.3141 0.3163
2043.000000 0.3179 0.3190 0.3201 0.3211 0.3217
2048.000000 0.3221 0.3225 0.3229 0.3233 0.3234
2053.000000 0.3234 0.3233 0.3231 0.3229 0.3226
2058.000000 0.3220 0.3212 0.3201 0.3190 0.3166
2063.000000 0.3140 0.3108 0.3091 0.3086 0.3082
2068.000000 0.3079 0.3079 0.3084 0.3096 0.3114
2073.000000 0.3134 0.3154 0.3175 0.3194 0.3214
2078.000000 0.3234 0.3253 0.3273 0.3293 0.3309
2083.000000 0.3321 0.3332 0.3342 0.3354 0.3366
2088.000000 0.3377 0.3386 0.3393 0.3399 0.3405
2093.000000 0.3408 0.3410 0.3410 0.3411 0.3411
2098.000000 0.3416 0.3409 0.3406 0.3403 0.3401
2103.000000 0.3398 0.3395 0.3391 0.3386 0.3379
2108.000000 0.3372 0.3365 0.3357 0.3348 0.3338
2113.000000 0.3327 0.3315 0.3304 0.3291 0.3277
2118.000000 0.3264 0.3251 0.3237 0.3225 0.3213
2123.000000 0.3201 0.3189 0.3177 0.3166 0.3153
2128.000000 0.3139 0.3125 0.3109 0.3094 0.3077
2133.000000 0.3060 0.3044 0.3025 0.2973 0.2931
2138.000000 0.2922 0.2916 0.2913 0.2911 0.2909
2143.000000 0.2906 0.2904 0.2901 0.2898 0.2896
2148.000000 0.2893 0.2889 0.2886 0.2884 0.2880
2153.000000 0.2874 0.2868 0.2862 0.2855 0.2849
2158.000000 0.2842 0.2834 0.2816 0.2797 0.2773
2163.000000 0.2736 0.2674 0.2622 0.2580 0.2539
2168.000000 0.2500 0.2462 0.2423 0.2384 0.2345
2173.000000 0.2307 0.2268 0.2230 0.2191 0.2152
2178.000000 0.2125 0.2121 0.2120 0.2120 0.2121
2183.000000 0.2121 0.2131 0.2148 0.2114 0.2204
2188.000000 0.2234 0.2263 0.2293 0.2323 0.2331
2193.000000 0.2339 0.2345 0.2352 0.2357 0.2361
2198.000000 0.2366 0.2370 0.2371 0.2372 0.2373
2203.000000 0.2374 0.2375 0.2376 0.2377 0.2378
2208.000000 0.2379 0.2379 0.2379 0.2378 0.2377
2213.000000 0.2364 0.2376 0.2375 0.2374 0.2373
2218.000000 0.2373 0.2372 0.2371 0.2369 0.2368
2223.000000 0.2366 0.2364 0.2360 0.2356 0.2351
2228.000000 0.2345 0.2340 0.2335 0.2330 0.2325
2233.000000 0.2314 0.2302 0.2286 0.2270 0.2246
2238.000000 0.2222 0.2191 0.2160 0.2132 0.2106
2243.000000 0.2084 0.2063 0.2051 0.2041 0.2031
2248.000000 0.2021 0.2011 0.2001 0.1991 0.1981
2253.000000 0.1971 0.1961 0.1951 0.1941 0.1931
2258.000000 0.1921 0.1911 0.1901 0.1891 0.1881
2263.000000 0.1871 0.1861 0.1850 0.1840 0.1830
2268.000000 0.1820 0.1810 0.1800 0.1790 0.1781
2273.000000 0.1771 0.1761 0.1751 0.1741 0.1731
2278.000000 0.1719 0.1708 0.1696 0.1684 0.1672
2283.000000 0.1661 0.1649 0.1638 0.1626 0.1615
2288.000000 0.1603 0.1591 0.1580 0.1569 0.1560
2293.000000 0.1550 0.1540 0.1530 0.1520 0.1510
2298.000000 0.1501 0.1491 0.1482 0.1472 0.1462
2303.000000 0.1451 0.1440 0.1426 0.1411 0.1396
2308.000000 0.1381 0.1350 0.1307 0.1266 0.1229
2313.000000 0.1193 0.1159 0.1125 0.1093 0.1062
2318.000000 0.1033 0.1003 0.0976 0.0949 0.0927
2323.000000 0.0906 0.0885 0.0865 0.0844 0.0823
2328.000000 0.0803 0.0786 0.0768 0.0754 0.0739
2333.000000 0.0724 0.0709 0.0693 0.0678 0.0663
2338.000000 0.0649 0.0634 0.0620 0.0606 0.0599
2343.000000 0.0593 0.0586 0.0579 0.0572 0.0565
2348.000000 0.0559 0.0552 0.0545 0.0538 0.0531
2353.000000 0.0525 0.0519 0.0512 0.0506 0.0500
2358.000000 0.0494 0.0488 0.0482 0.0476 0.0469
2363.000000 0.0463 0.0458 0.0452 0.0447 0.0443
2368.000000 0.0438 0.0433 0.0428 0.0423 0.0418
2373.000000 0.0413 0.0407 0.0402 0.0398 0.0393
2378.000000 0.0388 0.0383 0.0377 0.0371 0.0366
2383.000000 0.0361 0.0355 0.0350 0.0345 0.0339
2388.000000 0.0333 0.0328 0.0323 0.0318 0.0312
2393.000000 0.0307 0.0302 0.0297 0.0292 0.0287
2398.000000 0.0282 0.0277 0.0272 0.0267 0.0263
2403.000000 0.0259 0.0256 0.0256 0.0255 0.0253
2408.000000 0.0252 0.0251 0.0250 0.0257 0.0251
2413.000000 0.0251 0.0252 0.0253 0.0254 0.0256
2418.000000 0.0258 0.0261 0.0264 0.0267 0.0269
2423.000000 0.0272 0.0276 0.0280 0.0284 0.0289
2428.000000 0.0293 0.0298 0.0303 0.0310 0.0316
2433.000000 0.0325 0.0333 0.0342 0.0351 0.0360
2438.000000 0.0369 0.0378 0.0381 0.0383 0.0384
2443.000000 0.0384 0.0412 0.0383 0.0383 0.0380
2448.000000 0.0378 0.0359 0.0317 0.0276 0.0258
2453.000000 0.0240 0.0222 0.0204 0.0186 0.0172
2458.000000 0.0157 0.0148 0.0142 0.0135 0.0128
2463.000000 0.0122 0.0119 0.0117 0.0115 0.0113
2468.000000 0.0111 0.0110 0.0109 0.0108 0.0106
2473.000000 0.0105 0.0104 0.0102 0.0101 0.0099
2478.000000 0.0099 0.0099 0.0099 0.0098 0.0098
2483.000000 0.0098 0.0098 0.0098 0.0098 0.0098
2488.000000 0.0098 0.0098 0.0098 0.0097 0.0097
2493.000000 0.0097 0.0097 0.0097 0.0097 0.0097
2498.000000 0.0096 0.0096 0.0096 0.0096 0.0096
2503.000000 0.0096 0.0096 0.0096 0.0095 0.0095
2508.000000 0.0095 0.0095 0.0095 0.0095 0.0095
2513.000000 0.0094 0.0094 0.0094 0.0094 0.0094
2518.000000 0.0094 0.0094 0.0094 0.0093 0.0093
2523.000000 0.0093 0.0093 0.0093 0.0093 0.0093
2528.000000 0.0092 0.0092 0.0092 0.0092 0.0092
2533.000000 0.0092 0.0092 0.0092 0.0091 0.0091
2538.000000 0.0091 0.0091 0.0091 0.0091 0.0091
2543.000000 0.0091 0.0090 0.0090 0.0090 0.0090
2548.000000 0.0090 0.0090 0.0090 0.0090 0.0089
2553.000000 0.0089 0.0089 0.0089 0.0089 0.0089
2558.000000 0.0089 0.0088 0.0088 0.0088 0.0088
2563.000000 0.0088 0.0088 0.0087 0.0087 0.0087
2568.000000 0.0087 0.0087 0.0086 0.0086 0.0086
2573.000000 0.0086 0.0086 0.0085 0.0085 0.0085
2578.000000 0.0085 0.0085 0.0084 0.0084 0.0084
2583.000000 0.0084 0.0084 0.0084 0.0083 0.0083
2588.000000 0.0083 0.0083 0.0083 0.0082 0.0082
2593.000000 0.0082 0.0082 0.0082 0.0082 0.0081
2598.000000 0.0081 0.0081 0.0081 0.0081 0.0080
2603.000000 0.0080 0.0080 0.0080 0.0080 0.0079
2608.000000 0.0079 0.0079 0.0079 0.0079 0.0079
2613.000000 0.0079 0.0079 0.0079 0.0078 0.0078
2618.000000 0.0078 0.0078 0.0078 0.0078 0.0078
2623.000000 0.0078 0.0077 0.0077 0.0077 0.0077
2628.000000 0.0077 0.0077 0.0077 0.0077 0.0076
2633.000000 0.0076 0.0076 0.0076 0.0076 0.0076
2638.000000 0.0076 0.0076 0.0075 0.0075 0.0075
2643.000000 0.0075 0.0075 0.0075 0.0075 0.0075
2648.000000 0.0075 0.0074 0.0074 0.0074 0.0074
2653.000000 0.0074 0.0074 0.0074 0.0074 0.0073
2658.000000 0.0073 0.0073 0.0073 0.0073 0.0073
2663.000000 0.0073 0.0073 0.0073 0.0073 0.0073
2668.000000 0.0073 0.0073 0.0073 0.0073 0.0073
2673.000000 0.0073 0.0073 0.0073 0.0073 0.0083
2678.000000 0.0073 0.0073 0.0073 0.0073 0.0073
2683.000000 0.0073 0.0073 0.0073 0.0073 0.0073
2688.000000 0.0073 0.0073 0.0073 0.0073 0.0073
2693.000000 0.0073 0.0073 0.0073 0.0073 0.0073
2698.000000 0.0073 0.0073 0.0073 0.0073 0.0073
2703.000000 0.0073 0.0073 0.0073 0.0073 0.0073
2708.000000 0.0073 0.0073 0.0073 0.0073 0.0072
2713.000000 0.0072 0.0072 0.0072 0.0072 0.0072
2718.000000 0.0072 0.0072 0.0072 0.0072 0.0072
2723.000000 0.0072 0.0072 0.0072 0.0072 0.0072
2728.000000 0.0072 0.0072 0.0072 0.0072 0.0072
2733.000000 0.0072 0.0072 0.0072 0.0072 0.0072
2738.000000 0.0072 0.0072 0.0072 0.0072 0.0072
2743.000000 0.0072 0.0072 0.0072 0.0072 0.0072
2748.000000 0.0072 0.0072 0.0072 0.0072 0.0072
2753.000000 0.0072 0.0072 0.0072 0.0072 0.0072
2758.000000 0.0072 0.0072 0.0072 0.0072 0.0072
2763.000000 0.0072 0.0072 0.0072 0.0072 0.0072
2768.000000 0.0072 0.0072 0.0072 0.0072 0.0072
2773.000000 0.0072 0.0072 0.0072 0.0072 0.0072
2778.000000 0.0072 0.0072 0.0072 0.0073 0.0073
2783.000000 0.0073 0.0073 0.0073 0.0073 0.0073
2788.000000 0.0073 0.0073 0.0073 0.0073 0.0073
2793.000000 0.0073 0.0074 0.0074 0.0074 0.0074
2798.000000 0.0074 0.0074 0.0075 0.0075 0.0075
2803.000000 0.0075 0.0075 0.0075 0.0076 0.0076
2808.000000 0.0076 0.0077 0.0077 0.0077 0.0077
2813.000000 0.0077 0.0077 0.0077 0.0078 0.0078
2818.000000 0.0078 0.0078 0.0078 0.0078 0.0079
2823.000000 0.0079 0.0079 0.0080 0.0080 0.0080
2828.000000 0.0080 0.0080 0.0080 0.0080 0.0081
2833.000000 0.0081 0.0081 0.0082 0.0082 0.0082
2838.000000 0.0082 0.0082 0.0082 0.0083 0.0083
2843.000000 0.0083 0.0083 0.0083 0.0083 0.0083
2848.000000 0.0084 0.0084 0.0084 0.0085 0.0085
2853.000000 0.0085 0.0085 0.0085 0.0085 0.0085
2858.000000 0.0086 0.0086 0.0086 0.0087 0.0087
2863.000000 0.0087 0.0088 0.0088 0.0088 0.0089
2868.000000 0.0089 0.0089 0.0089 0.0090 0.0090
2873.000000 0.0090 0.0091 0.0091 0.0092 0.0093
2878.000000 0.0093 0.0093 0.0093 0.0094 0.0094
2883.000000 0.0094 0.0095 0.0095 0.0095 0.0096
2888.000000 0.0096 0.0096 0.0096 0.0097 0.0098
2893.000000 0.0098 0.0099 0.0099 0.0099 0.0100
2898.000000 0.0100 0.0100 0.0100 0.0101 0.0101
2903.000000 0.0101 0.0102 0.0102 0.0102 0.0103
2908.000000 0.0103 0.0104 0.0104 0.0105 0.0106
2913.000000 0.0107 0.0108 0.0110 0.0113 0.0115
2918.000000 0.0118 0.0120 0.0123 0.0127 0.0134
2923.000000 0.0141 0.0148 0.0155 0.0163 0.0170
2928.000000 0.0177 0.0183 0.0189 0.0195 0.0198
2933.000000 0.0201 0.0205 0.0208 0.0212 0.0215
2938.000000 0.0218 0.0220 0.0221 0.0223 0.0224
2943.000000 0.0225 0.0226 0.0227 0.0227 0.0228
2948.000000 0.0228 0.0229 0.0230 0.0230 0.0231
2953.000000 0.0232 0.0233 0.0233 0.0234 0.0234
2958.000000 0.0234 0.0235 0.0235 0.0236 0.0236
2963.000000 0.0237 0.0238 0.0238 0.0239 0.0239
2968.000000 0.0240 0.0240 0.0241 0.0241 0.0241
2973.000000 0.0242 0.0242 0.0243 0.0243 0.0244
2978.000000 0.0245 0.0245 0.0246 0.0246 0.0247
2983.000000 0.0247 0.0248 0.0248 0.0248 0.0249
2988.000000 0.0249 0.0250 0.0250 0.0251 0.0251
2993.000000 0.0251 0.0251 0.0252 0.0253 0.0253
2998.000000 0.0254 0.0254 0.0254 0.0254 0.0255
3003.000000 0.0255 0.0256 0.0257 0.0257 0.0257
3008.000000 0.0257 0.0258 0.0258 0.0258 0.0258
3013.000000 0.0259 0.0260 0.0260 0.0261 0.0261
3018.000000 0.0261 0.0261 0.0262 0.0262 0.0263
3023.000000 0.0264 0.0264 0.0264 0.0264 0.0265
3028.000000 0.0265 0.0266 0.0266 0.0267 0.0267
3033.000000 0.0267 0.0268 0.0269 0.0270 0.0272
3038.000000 0.0273 0.0276 0.0279 0.0282 0.0285
3043.000000 0.0288 0.0291 0.0294 0.0299 0.0303
3048.000000 0.0308 0.0313 0.0319 0.0326 0.0332
3053.000000 0.0339 0.0345 0.0351 0.0357 0.0363
3058.000000 0.0369 0.0376 0.0382 0.0388 0.0394
3063.000000 0.0400 0.0407 0.0418 0.0428 0.0438
3068.000000 0.0449 0.0460 0.0471 0.0482 0.0493
3073.000000 0.0504 0.0515 0.0526 0.0537 0.0548
3078.000000 0.0559 0.0570 0.0581 0.0592 0.0603
3083.000000 0.0614 0.0625 0.0636 0.0647 0.0658
3088.000000 0.0669 0.0680 0.0691 0.0702 0.0713
3093.000000 0.0724 0.0735 0.0746 0.0757 0.0768
3098.000000 0.0779 0.0788 0.0798 0.0807 0.0817
3103.000000 0.0827 0.0837 0.0847 0.0856 0.0866
3108.000000 0.0876 0.0885 0.0894 0.0903 0.0913
3113.000000 0.0922 0.0930 0.0938 0.0947 0.0955
3118.000000 0.0963 0.0971 0.0979 0.0987 0.0995
3123.000000 0.1003 0.1011 0.1020 0.1027 0.1035
3128.000000 0.1043 0.1051 0.1060 0.1069 0.1077
3133.000000 0.1086 0.1095 0.1104 0.1114 0.1123
3138.000000 0.1132 0.1141 0.1150 0.1159 0.1168
3143.000000 0.1177 0.1187 0.1196 0.1206 0.1217
3148.000000 0.1227 0.1241 0.1260 0.1280 0.1299
3153.000000 0.1316 0.1331 0.1345 0.1359 0.1371
3158.000000 0.1380 0.1389 0.1398 0.1408 0.1417
3163.000000 0.1426 0.1435 0.1444 0.1453 0.1462
3168.000000 0.1471 0.1480 0.1490 0.1499 0.1508
3173.000000 0.1520 0.1536 0.1551 0.1567 0.1583
3178.000000 0.1601 0.1618 0.1636 0.1651 0.1660
3183.000000 0.1669 0.1679 0.1688 0.1696 0.1704
3188.000000 0.1711 0.1723 0.1748 0.1774 0.1799
3193.000000 0.1822 0.1833 0.1843 0.1854 0.1864
3198.000000 0.1873 0.1882 0.1890 0.1899 0.1900
3203.000000 0.1901 0.1902 0.1902 0.1903 0.1904
3208.000000 0.1905 0.1906 0.1907 0.1908 0.1909
3213.000000 0.1910 0.1911 0.1912 0.1913 0.1914
3218.000000 0.1915 0.1916 0.1916 0.1917 0.1918
3223.000000 0.1918 0.1919 0.1920 0.1921 0.1921
3228.000000 0.1921 0.1921 0.1922 0.1922 0.1922
3233.000000 0.1922 0.1922 0.1923 0.1923 0.1923
3238.000000 0.1923 0.1923 0.1924 0.1924 0.1924
3243.000000 0.1924 0.1924 0.1924 0.1924 0.1925
3248.000000 0.1925 0.1925 0.1925 0.1926 0.1926
3253.000000 0.1926 0.1926 0.1926 0.1925 0.1925
3258.000000 0.1925 0.1925 0.1925 0.1925 0.1925
3263.000000 0.1925 0.1924 0.1924 0.1924 0.1924
3268.000000 0.1923 0.1923 0.1923 0.1923 0.1923
3273.000000 0.1923 0.1923 0.1923 0.1923 0.1922
3278.000000 0.1922 0.1922 0.1922 0.1922 0.1922
3283.000000 0.1922 0.1922 0.1922 0.1921 0.1921
3288.000000 0.1921 0.1921 0.1920 0.1920 0.1920
3293.000000 0.1920 0.1920 0.1920 0.1920 0.1920
3298.000000 0.1920 0.1919 0.1919 0.1919 0.1919
3303.000000 0.1918 0.1918 0.1918 0.1918 0.1917
3308.000000 0.1917 0.1917 0.1917 0.1917 0.1916
3313.000000 0.1916 0.1916 0.1916 0.1915 0.1915
3318.000000 0.1914 0.1914 0.1914 0.1913 0.1913
3323.000000 0.1913 0.1913 0.1912 0.1912 0.1912
3328.000000 0.1912 0.1911 0.1911 0.1911 0.1911
3333.000000 0.1911 0.1910 0.1910 0.1910 0.1910
3338.000000 0.1909 0.1909 0.1909 0.1909 0.1909
3343.000000 0.1908 0.1908 0.1908 0.1908 0.1907
3348.000000 0.1907 0.1907 0.1907 0.1907 0.1906
3353.000000 0.1906 0.1906 0.1906 0.1905 0.1905
3358.000000 0.1904 0.1904 0.1904 0.1903 0.1903
3363.000000 0.1902 0.1902 0.1901 0.1901 0.1901
3368.000000 0.1900 0.1900 0.1899 0.1899 0.1898
3373.000000 0.1898 0.1897 0.1897 0.1897 0.1896
3378.000000 0.1896 0.1895 0.1895 0.1894 0.1894
3383.000000 0.1893 0.1893 0.1893 0.1892 0.1892
3388.000000 0.1891 0.1891 0.1890 0.1890 0.1890
3393.000000 0.1889 0.1889 0.1888 0.1888 0.1887
3398.000000 0.1887 0.1887 0.1886 0.1886 0.1885
3403.000000 0.1885 0.1885 0.1885 0.1884 0.1884
3408.000000 0.1884 0.1884 0.1884 0.1883 0.1883
3413.000000 0.1883 0.1883 0.1883 0.1882 0.1882
3418.000000 0.1882 0.1882 0.1881 0.1881 0.1881
3423.000000 0.1881 0.1881 0.1880 0.1880 0.1880
3428.000000 0.1880 0.1880 0.1879 0.1879 0.1879
3433.000000 0.1879 0.1879 0.1878 0.1878 0.1878
3438.000000 0.1878 0.1877 0.1877 0.1877 0.1877
3443.000000 0.1877 0.1876 0.1876 0.1876 0.1876
3448.000000 0.1876 0.1875 0.1875 0.1875 0.1875
3453.000000 0.1875 0.1875 0.1875 0.1875 0.1875
3458.000000 0.1875 0.1875 0.1875 0.1875 0.1875
3463.000000 0.1875 0.1875 0.1875 0.1875 0.1875
3468.000000 0.1876 0.1876 0.1876 0.1876 0.1876
3473.000000 0.1877 0.1877 0.1877 0.1877 0.1877
3478.000000 0.1877 0.1877 0.1877 0.1877 0.1878
3483.000000 0.1878 0.1878 0.1878 0.1878 0.1878
3488.000000 0.1878 0.1878 0.1878 0.1878 0.1879
3493.000000 0.1879 0.1879 0.1879 0.1879 0.1879
3498.000000 0.1879 0.1879 0.1879 0.1879 0.1880
3503.000000 0.1880 0.1880 0.1880 0.1880 0.1881
3508.000000 0.1881 0.1881 0.1881 0.1881 0.1881
3513.000000 0.1881 0.1881 0.1881 0.1881 0.1882
3518.000000 0.1882 0.1882 0.1882 0.1882 0.1882
3523.000000 0.1882 0.1882 0.1882 0.1882 0.1883
3528.000000 0.1883 0.1883 0.1883 0.1883 0.1884
3533.000000 0.1884 0.1884 0.1884 0.1884 0.1884
3538.000000 0.1884 0.1884 0.1884 0.1884 0.1885
3543.000000 0.1885 0.1885 0.1885 0.1885 0.1885
3548.000000 0.1885 0.1886 0.1886 0.1886 0.1887
3553.000000 0.1887 0.1888 0.1888 0.1888 0.1889
3558.000000 0.1889 0.1889 0.1889 0.1889 0.1890
3563.000000 0.1890 0.1891 0.1891 0.1891 0.1892
3568.000000 0.1892 0.1893 0.1893 0.1893 0.1894
3573.000000 0.1894 0.1894 0.1894 0.1894 0.1895
3578.000000 0.1895 0.1895 0.1896 0.1896 0.1897
3583.000000 0.1897 0.1897 0.1898 0.1898 0.1899
3588.000000 0.1899 0.1899 0.1899 0.1899 0.1900
3593.000000 0.1900 0.1900 0.1901 0.1901 0.1901
3598.000000 0.1902 0.1902 0.1903 0.1903 0.1903
3603.000000 0.1904 0.1904 0.1904 0.1904 0.1904
3608.000000 0.1905 0.1905 0.1905 0.1906 0.1906
3613.000000 0.1907 0.1907 0.1907 0.1908 0.1908
3618.000000 0.1909 0.1909 0.1909 0.1909 0.1909
3623.000000 0.1909 0.1910 0.1910 0.1911 0.1911
3628.000000 0.1911 0.1912 0.1912 0.1912 0.1913
3633.000000 0.1913 0.1914 0.1914 0.1914 0.1914
3638.000000 0.1914 0.1914 0.1923 0.1915 0.1916
3643.000000 0.1916 0.1916 0.1917 0.1917 0.1918
3648.000000 0.1918 0.1918 0.1918 0.1918 0.1918
3653.000000 0.1917 0.1917 0.1916 0.1916 0.1915
3658.000000 0.1915 0.1914 0.1914 0.1913 0.1913
3663.000000 0.1912 0.1911 0.1911 0.1910 0.1910
3668.000000 0.1909 0.1909 0.1908 0.1908 0.1906
3673.000000 0.1905 0.1904 0.1902 0.1901 0.1900
3678.000000 0.1898 0.1897 0.1895 0.1894 0.1892
3683.000000 0.1891 0.1890 0.1888 0.1887 0.1886
3688.000000 0.1884 0.1883 0.1882 0.1880 0.1879
3693.000000 0.1877 0.1876 0.1875 0.1873 0.1872
3698.000000 0.1871 0.1869 0.1868 0.1866 0.1865
3703.000000 0.1864 0.1862 0.1860 0.1859 0.1857
3708.000000 0.1855 0.1854 0.1852 0.1851 0.1849
3713.000000 0.1848 0.1847 0.1845 0.1843 0.1842
3718.000000 0.1840 0.1839 0.1837 0.1835 0.1834
3723.000000 0.1832 0.1830 0.1829 0.1827 0.1825
3728.000000 0.1824 0.1822 0.1820 0.1818 0.1816
3733.000000 0.1814 0.1812 0.1810 0.1808 0.1806
3738.000000 0.1805 0.1803 0.1801 0.1799 0.1797
3743.000000 0.1796 0.1794 0.1792 0.1790 0.1788
3748.000000 0.1786 0.1784 0.1782 0.1780 0.1779
3753.000000 0.1777 0.1775 0.1773 0.1771 0.1769
3758.000000 0.1767 0.1765 0.1763 0.1762 0.1760
3763.000000 0.1758 0.1756 0.1755 0.1753 0.1751
3768.000000 0.1749 0.1747 0.1745 0.1743 0.1741
3773.000000 0.1739 0.1737 0.1735 0.1733 0.1731
3778.000000 0.1729 0.1728 0.1726 0.1724 0.1722
3783.000000 0.1720 0.1718 0.1716 0.1714 0.1712
3788.000000 0.1710 0.1709 0.1707 0.1705 0.1703
3793.000000 0.1702 0.1700 0.1698 0.1696 0.1694
3798.000000 0.1692 0.1690 0.1688 0.1686 0.1685
3803.000000 0.1683 0.1681 0.1679 0.1677 0.1675
3808.000000 0.1673 0.1671 0.1669 0.1667 0.1666
3813.000000 0.1664 0.1662 0.1661 0.1659 0.1657
3818.000000 0.1656 0.1654 0.1653 0.1651 0.1649
3823.000000 0.1648 0.1646 0.1644 0.1643 0.1641
3828.000000 0.1639 0.1638 0.1636 0.1635 0.1633
3833.000000 0.1632 0.1630 0.1628 0.1627 0.1625
3838.000000 0.1623 0.1622 0.1620 0.1618 0.1617
3843.000000 0.1615 0.1614 0.1612 0.1611 0.1609
3848.000000 0.1607 0.1606 0.1604 0.1602 0.1601
3853.000000 0.1599 0.1598 0.1596 0.1595 0.1593
3858.000000 0.1592 0.1590 0.1588 0.1587 0.1585
3863.000000 0.1583 0.1581 0.1581 0.1580 0.1579
3868.000000 0.1578 0.1577 0.1576 0.1576 0.1575
3873.000000 0.1574 0.1574 0.1573 0.1572 0.1572
3878.000000 0.1571 0.1570 0.1570 0.1569 0.1568
3883.000000 0.1568 0.1567 0.1567 0.1566 0.1565
3888.000000 0.1565 0.1564 0.1563 0.1563 0.1562
3893.000000 0.1561 0.1561 0.1560 0.1559 0.1559
3898.000000 0.1558 0.1557 0.1557 0.1556 0.1555
3903.000000 0.1555 0.1554 0.1553 0.1553 0.1552
3908.000000 0.1552 0.1551 0.1551 0.1550 0.1550
3913.000000 0.1549 0.1549 0.1549 0.1548 0.1548
3918.000000 0.1548 0.1548 0.1548 0.1548 0.1548
3923.000000 0.1548 0.1548 0.1548 0.1548 0.1548
3928.000000 0.1548 0.1548 0.1548 0.1549 0.1549
3933.000000 0.1549 0.1549 0.1549 0.1549 0.1549
3938.000000 0.1548 0.1547 0.1546 0.1544 0.1543
3943.000000 0.1542 0.1540 0.1537 0.1535 0.1533
3948.000000 0.1531 0.1529 0.1526 0.1523 0.1520
3953.000000 0.1517 0.1514 0.1511 0.1508 0.1506
3958.000000 0.1504 0.1502 0.1500 0.1498 0.1495
3963.000000 0.1494 0.1492 0.1491 0.1489 0.1487
3968.000000 0.1486 0.1484 0.1482 0.1481 0.1479
3973.000000 0.1477 0.1475 0.1474 0.1472 0.1471
3978.000000 0.1469 0.1467 0.1466 0.1464 0.1463
3983.000000 0.1461 0.1459 0.1457 0.1456 0.1454
3988.000000 0.1452 0.1451 0.1449 0.1448 0.1446
3993.000000 0.1444 0.1443 0.1443 0.1442 0.1442
3998.000000 0.1441 0.1441 0.1441
##END=
