##TITLE=MORPHOLINE, 3,4-DIMETHYL-2-PHENYL-, d-, BITARTRATE
##JCAMP-DX=4.24
$$ By DXEDIT 1.05 (RS McDonald)
##DATA TYPE=INFRARED SPECTRUM
##CLASS=COBLENTZ III
##OWNER=COBLENTZ SOC.
Collection (C) 2018 copyright by the U.S. Secretary of Commerce
on behalf of the United States of America. All rights reserved.
##DATE=1962/12/19
##NAMES=PHENDIMETRAZINE BITARTRATE
##MOLFORM=C16 H23 N O7
##SOURCE REFERENCE=COBLENTZ NO. 05210
##$NIST ID=B6005210
##$NIST SOURCE=COBLENTZ
##$NIST IMAGE=cob5210
##SPECTROMETER/DATA SYSTEM=PERKIN-ELMER 21 (GRATING)
##INSTRUMENT PARAMETERS=FILTER AT ABOUT 10 MICRONS
##STATE=SOLID (KBr DISC) VS KBr
##SAMPLING PROCEDURE=TRANSMISSION
##RESOLUTION=2
##DATA PROCESSING=DIGITIZED BY COBLENTZ SOCIETY (BATCH I) FROM HARD COPY
##XUNITS=1/CM
##YUNITS=TRANSMITTANCE
##XLABEL=Wavenumbers (cm-1)
##YLABEL=Transmittance
##XFACTOR=1
##YFACTOR=1
##DELTAX=1
##FIRSTX=4000
##LASTX=672
##FIRSTY=0.8092
##MAXX=4000
##MINX=672
##MAXY=0.8128
##MINY=0.2169
##NPOINTS=3329
##XYDATA=(X++(Y..Y))
4000.000000 0.8092 0.8091 0.8091 0.8091 0.8090
3995.000000 0.8090 0.8090 0.8089 0.8089 0.8089
3990.000000 0.8089 0.8089 0.8089 0.8088 0.8088
3985.000000 0.8088 0.8088 0.8088 0.8088 0.8088
3980.000000 0.8087 0.8087 0.8087 0.8087 0.8087
3975.000000 0.8087 0.8086 0.8086 0.8086 0.8086
3970.000000 0.8086 0.8086 0.8085 0.8085 0.8085
3965.000000 0.8084 0.8084 0.8084 0.8084 0.8083
3960.000000 0.8083 0.8083 0.8083 0.8083 0.8083
3955.000000 0.8082 0.8082 0.8082 0.8082 0.8082
3950.000000 0.8082 0.8081 0.8081 0.8081 0.8081
3945.000000 0.8081 0.8081 0.8080 0.8080 0.8080
3940.000000 0.8080 0.8080 0.8080 0.8078 0.8078
3935.000000 0.8078 0.8078 0.8078 0.8078 0.8078
3930.000000 0.8076 0.8076 0.8076 0.8076 0.8076
3925.000000 0.8076 0.8075 0.8075 0.8075 0.8075
3920.000000 0.8075 0.8075 0.8075 0.8075 0.8075
3915.000000 0.8075 0.8075 0.8075 0.8074 0.8074
3910.000000 0.8074 0.8074 0.8074 0.8074 0.8074
3905.000000 0.8074 0.8074 0.8074 0.8074 0.8074
3900.000000 0.8074 0.8074 0.8074 0.8074 0.8074
3895.000000 0.8074 0.8074 0.8074 0.8074 0.8074
3890.000000 0.8074 0.8074 0.8072 0.8072 0.8072
3885.000000 0.8072 0.8072 0.8072 0.8072 0.8072
3880.000000 0.8072 0.8072 0.8072 0.8072 0.8072
3875.000000 0.8072 0.8072 0.8072 0.8072 0.8072
3870.000000 0.8072 0.8072 0.8072 0.8072 0.8072
3865.000000 0.8072 0.8072 0.8071 0.8071 0.8071
3860.000000 0.8071 0.8071 0.8071 0.8071 0.8071
3855.000000 0.8071 0.8071 0.8071 0.8071 0.8071
3850.000000 0.8071 0.8071 0.8071 0.8071 0.8071
3845.000000 0.8071 0.8071 0.8071 0.8071 0.8071
3840.000000 0.8071 0.8071 0.8071 0.8071 0.8071
3835.000000 0.8071 0.8071 0.8071 0.8071 0.8071
3830.000000 0.8071 0.8071 0.8071 0.8071 0.8071
3825.000000 0.8071 0.8071 0.8071 0.8071 0.8071
3820.000000 0.8071 0.8071 0.8071 0.8071 0.8071
3815.000000 0.8071 0.8071 0.8071 0.8072 0.8072
3810.000000 0.8074 0.8075 0.8075 0.8075 0.8075
3805.000000 0.8076 0.8076 0.8078 0.8078 0.8078
3800.000000 0.8078 0.8080 0.8080 0.8081 0.8082
3795.000000 0.8083 0.8083 0.8084 0.8084 0.8085
3790.000000 0.8085 0.8086 0.8086 0.8087 0.8087
3785.000000 0.8088 0.8089 0.8089 0.8090 0.8090
3780.000000 0.8091 0.8092 0.8092 0.8093 0.8094
3775.000000 0.8094 0.8095 0.8095 0.8096 0.8096
3770.000000 0.8097 0.8097 0.8098 0.8098 0.8099
3765.000000 0.8100 0.8100 0.8101 0.8101 0.8101
3760.000000 0.8103 0.8104 0.8104 0.8105 0.8105
3755.000000 0.8106 0.8106 0.8107 0.8107 0.8108
3750.000000 0.8108 0.8108 0.8110 0.8110 0.8111
3745.000000 0.8111 0.8111 0.8111 0.8112 0.8112
3740.000000 0.8112 0.8114 0.8114 0.8114 0.8115
3735.000000 0.8115 0.8115 0.8115 0.8115 0.8115
3730.000000 0.8115 0.8115 0.8115 0.8115 0.8115
3725.000000 0.8117 0.8117 0.8118 0.8118 0.8118
3720.000000 0.8118 0.8118 0.8118 0.8118 0.8118
3715.000000 0.8118 0.8119 0.8119 0.8119 0.8119
3710.000000 0.8119 0.8121 0.8121 0.8121 0.8121
3705.000000 0.8121 0.8121 0.8122 0.8122 0.8122
3700.000000 0.8122 0.8122 0.8124 0.8124 0.8124
3695.000000 0.8125 0.8125 0.8125 0.8125 0.8125
3690.000000 0.8125 0.8125 0.8125 0.8126 0.8126
3685.000000 0.8126 0.8126 0.8126 0.8126 0.8128
3680.000000 0.8128 0.8128 0.8128 0.8128 0.8128
3675.000000 0.8128 0.8128 0.8128 0.8128 0.8128
3670.000000 0.8126 0.8125 0.8125 0.8124 0.8122
3665.000000 0.8121 0.8121 0.8119 0.8118 0.8118
3660.000000 0.8117 0.8115 0.8115 0.8114 0.8112
3655.000000 0.8111 0.8111 0.8110 0.8108 0.8108
3650.000000 0.8107 0.8106 0.8105 0.8104 0.8101
3645.000000 0.8101 0.8100 0.8099 0.8098 0.8097
3640.000000 0.8096 0.8094 0.8094 0.8093 0.8092
3635.000000 0.8091 0.8090 0.8089 0.8088 0.8086
3630.000000 0.8085 0.8084 0.8083 0.8082 0.8081
3625.000000 0.8080 0.8078 0.8076 0.8075 0.8075
3620.000000 0.8074 0.8074 0.8072 0.8069 0.8068
3615.000000 0.8065 0.8062 0.8061 0.8058 0.8056
3610.000000 0.8053 0.8050 0.8047 0.8044 0.8041
3605.000000 0.8038 0.8035 0.8033 0.8030 0.8025
3600.000000 0.8022 0.8019 0.8017 0.8014 0.8011
3595.000000 0.8008 0.8005 0.8003 0.8000 0.7997
3590.000000 0.7994 0.7991 0.7988 0.7985 0.7982
3585.000000 0.7978 0.7975 0.7972 0.7969 0.7967
3580.000000 0.7964 0.7961 0.7958 0.7955 0.7951
3575.000000 0.7949 0.7946 0.7943 0.7940 0.7937
3570.000000 0.7933 0.7928 0.7924 0.7919 0.7915
3565.000000 0.7908 0.7903 0.7897 0.7891 0.7885
3560.000000 0.7878 0.7872 0.7867 0.7860 0.7854
3555.000000 0.7848 0.7842 0.7836 0.7830 0.7824
3550.000000 0.7817 0.7811 0.7805 0.7798 0.7792
3545.000000 0.7786 0.7780 0.7772 0.7767 0.7761
3540.000000 0.7755 0.7749 0.7742 0.7736 0.7730
3535.000000 0.7724 0.7718 0.7711 0.7705 0.7699
3530.000000 0.7693 0.7686 0.7680 0.7672 0.7665
3525.000000 0.7655 0.7643 0.7631 0.7618 0.7606
3520.000000 0.7586 0.7567 0.7547 0.7528 0.7508
3515.000000 0.7488 0.7468 0.7449 0.7428 0.7406
3510.000000 0.7374 0.7342 0.7310 0.7278 0.7242
3505.000000 0.7196 0.7149 0.7103 0.7056 0.6998
3500.000000 0.6921 0.6845 0.6768 0.6692 0.6637
3495.000000 0.6605 0.6571 0.6539 0.6507 0.6474
3490.000000 0.6442 0.6408 0.6376 0.6344 0.6310
3485.000000 0.6278 0.6245 0.6212 0.6180 0.6147
3480.000000 0.6114 0.6081 0.6049 0.6016 0.5983
3475.000000 0.5950 0.5917 0.5884 0.5851 0.5818
3470.000000 0.5785 0.5752 0.5719 0.5686 0.5653
3465.000000 0.5620 0.5587 0.5554 0.5521 0.5488
3460.000000 0.5455 0.5422 0.5389 0.5355 0.5322
3455.000000 0.5289 0.5256 0.5222 0.5189 0.5155
3450.000000 0.5122 0.4912 0.5056 0.5024 0.4992
3445.000000 0.4960 0.4928 0.4912 0.4912 0.4912
3440.000000 0.4912 0.4912 0.4912 0.4912 0.4912
3435.000000 0.4912 0.4912 0.4927 0.4940 0.4954
3430.000000 0.4967 0.4981 0.4996 0.5010 0.5026
3425.000000 0.5041 0.5056 0.5071 0.5086 0.5101
3420.000000 0.5116 0.5131 0.5146 0.5162 0.5177
3415.000000 0.5192 0.5207 0.5223 0.5238 0.5253
3410.000000 0.5268 0.5284 0.5299 0.5314 0.5329
3405.000000 0.5345 0.5360 0.5375 0.5391 0.5406
3400.000000 0.5421 0.5437 0.5452 0.5467 0.5483
3395.000000 0.5498 0.5514 0.5529 0.5544 0.5553
3390.000000 0.5562 0.5572 0.5581 0.5587 0.5591
3385.000000 0.5594 0.5598 0.5601 0.5605 0.5608
3380.000000 0.5612 0.5615 0.5618 0.5621 0.5623
3375.000000 0.5626 0.5628 0.5630 0.5631 0.5633
3370.000000 0.5634 0.5636 0.5638 0.5640 0.5641
3365.000000 0.5643 0.5644 0.5645 0.5646 0.5647
3360.000000 0.5647 0.5647 0.5647 0.5647 0.5647
3355.000000 0.5646 0.5646 0.5646 0.5646 0.5645
3350.000000 0.5645 0.5645 0.5645 0.5645 0.5643
3345.000000 0.5641 0.5638 0.5636 0.5634 0.5629
3340.000000 0.5625 0.5621 0.5617 0.5612 0.5609
3335.000000 0.5605 0.5600 0.5591 0.5570 0.5549
3330.000000 0.5528 0.5508 0.5465 0.5421 0.5376
3325.000000 0.5331 0.5287 0.5242 0.5197 0.5153
3320.000000 0.5108 0.5062 0.5018 0.4973 0.4928
3315.000000 0.4883 0.4838 0.4794 0.4749 0.4704
3310.000000 0.4659 0.4612 0.4568 0.4523 0.4478
3305.000000 0.4433 0.4388 0.4208 0.4306 0.4278
3300.000000 0.4250 0.4222 0.4199 0.4202 0.4204
3295.000000 0.4207 0.4210 0.4212 0.4216 0.4219
3290.000000 0.4222 0.4225 0.4229 0.4233 0.4237
3285.000000 0.4241 0.4247 0.4252 0.4258 0.4264
3280.000000 0.4269 0.4275 0.4280 0.4286 0.4293
3275.000000 0.4301 0.4309 0.4317 0.4326 0.4335
3270.000000 0.4345 0.4355 0.4364 0.4374 0.4383
3265.000000 0.4393 0.4403 0.4412 0.4422 0.4432
3260.000000 0.4442 0.4458 0.4480 0.4502 0.4524
3255.000000 0.4547 0.4575 0.4603 0.4630 0.4658
3250.000000 0.4704 0.4750 0.4797 0.4843 0.4885
3245.000000 0.4926 0.4967 0.5008 0.5043 0.5072
3240.000000 0.5102 0.5131 0.5160 0.5190 0.5220
3235.000000 0.5249 0.5279 0.5308 0.5337 0.5366
3230.000000 0.5395 0.5423 0.5451 0.5480 0.5508
3225.000000 0.5536 0.5565 0.5593 0.5622 0.5643
3220.000000 0.5660 0.5678 0.5695 0.5712 0.5729
3215.000000 0.5746 0.5762 0.5780 0.5797 0.5814
3210.000000 0.5831 0.5848 0.5865 0.5882 0.5899
3205.000000 0.5915 0.5925 0.5935 0.5946 0.5956
3200.000000 0.5966 0.5976 0.5987 0.5997 0.6007
3195.000000 0.6017 0.6028 0.6038 0.6048 0.6059
3190.000000 0.6069 0.6079 0.6088 0.6097 0.6106
3185.000000 0.6115 0.6123 0.6132 0.6140 0.6149
3180.000000 0.6157 0.6165 0.6173 0.6181 0.6188
3175.000000 0.6193 0.6197 0.6202 0.6207 0.6210
3170.000000 0.6215 0.6220 0.6224 0.6228 0.6232
3165.000000 0.6236 0.6240 0.6244 0.6248 0.6253
3160.000000 0.6256 0.6258 0.6260 0.6262 0.6265
3155.000000 0.6266 0.6268 0.6269 0.6270 0.6271
3150.000000 0.6272 0.6273 0.6274 0.6276 0.6277
3145.000000 0.6278 0.6279 0.6279 0.6279 0.6279
3140.000000 0.6278 0.6277 0.6276 0.6275 0.6274
3135.000000 0.6273 0.6272 0.6272 0.6271 0.6270
3130.000000 0.6269 0.6269 0.6268 0.6267 0.6266
3125.000000 0.6265 0.6262 0.6262 0.6260 0.6259
3120.000000 0.6256 0.6254 0.6251 0.6248 0.6245
3115.000000 0.6242 0.6239 0.6237 0.6234 0.6231
3110.000000 0.6228 0.6225 0.6222 0.6220 0.6217
3105.000000 0.6214 0.6210 0.6208 0.6205 0.6202
3100.000000 0.6200 0.6197 0.6194 0.6190 0.6185
3095.000000 0.6181 0.6176 0.6170 0.6164 0.6158
3090.000000 0.6152 0.6146 0.6139 0.6133 0.6127
3085.000000 0.6121 0.6115 0.6109 0.6103 0.6096
3080.000000 0.6090 0.6084 0.6078 0.6071 0.6065
3075.000000 0.6059 0.6053 0.6047 0.6040 0.6033
3070.000000 0.6026 0.6018 0.6010 0.6000 0.5989
3065.000000 0.5977 0.5966 0.5954 0.5943 0.5931
3060.000000 0.5920 0.5908 0.5897 0.5885 0.5874
3055.000000 0.5862 0.5850 0.5838 0.5827 0.5816
3050.000000 0.5804 0.5793 0.5782 0.5770 0.5759
3045.000000 0.5748 0.5736 0.5725 0.5714 0.5702
3040.000000 0.5691 0.5680 0.5668 0.5654 0.5637
3035.000000 0.5621 0.5605 0.5588 0.5571 0.5554
3030.000000 0.5541 0.5536 0.5531 0.5526 0.5522
3025.000000 0.5517 0.5512 0.5508 0.5503 0.5498
3020.000000 0.5493 0.5489 0.5488 0.5486 0.5485
3015.000000 0.5484 0.5483 0.5482 0.5481 0.5481
3010.000000 0.5480 0.5479 0.5478 0.5477 0.5476
3005.000000 0.5476 0.5475 0.5474 0.5473 0.5472
3000.000000 0.5472 0.5472 0.5472 0.5471 0.5471
2995.000000 0.5471 0.5470 0.5470 0.5470 0.5470
2990.000000 0.5469 0.5469 0.5469 0.5469 0.5467
2985.000000 0.5464 0.5462 0.5460 0.5458 0.5455
2980.000000 0.5453 0.5448 0.5442 0.5436 0.5430
2975.000000 0.5419 0.5409 0.5399 0.5393 0.5389
2970.000000 0.5385 0.5381 0.5380 0.5379 0.5378
2965.000000 0.5377 0.5376 0.5375 0.5374 0.5373
2960.000000 0.5372 0.5371 0.5370 0.5369 0.5368
2955.000000 0.5366 0.5365 0.5364 0.5362 0.5360
2950.000000 0.5360 0.5359 0.5357 0.5353 0.5349
2945.000000 0.5345 0.5339 0.5333 0.5327 0.5320
2940.000000 0.5314 0.5308 0.5301 0.5295 0.5289
2935.000000 0.5282 0.5275 0.5265 0.5256 0.5246
2930.000000 0.5236 0.5227 0.5217 0.5208 0.5198
2925.000000 0.5188 0.5179 0.5170 0.5162 0.5153
2920.000000 0.5145 0.5138 0.5130 0.5122 0.5115
2915.000000 0.5108 0.5100 0.5093 0.5086 0.5078
2910.000000 0.5071 0.5062 0.5056 0.5049 0.5041
2905.000000 0.5034 0.5026 0.5021 0.5017 0.5012
2900.000000 0.5009 0.5005 0.5002 0.4999 0.4996
2895.000000 0.4993 0.4990 0.4987 0.4984 0.4980
2890.000000 0.4977 0.4974 0.4970 0.4967 0.4964
2885.000000 0.4960 0.4958 0.4956 0.4956 0.4955
2880.000000 0.4954 0.4953 0.4953 0.4952 0.4951
2875.000000 0.4950 0.4950 0.4949 0.4949 0.4948
2870.000000 0.4947 0.4946 0.4945 0.4945 0.4944
2865.000000 0.4943 0.4943 0.4942 0.4941 0.4941
2860.000000 0.4940 0.4939 0.4938 0.4937 0.4937
2855.000000 0.4936 0.4936 0.4936 0.4937 0.4938
2850.000000 0.4939 0.4941 0.4942 0.4943 0.4945
2845.000000 0.4946 0.4948 0.4949 0.4950 0.4951
2840.000000 0.4953 0.4954 0.4955 0.4957 0.4958
2835.000000 0.4960 0.4960 0.4962 0.4964 0.4965
2830.000000 0.4966 0.4967 0.4969 0.4970 0.4972
2825.000000 0.4973 0.4974 0.4975 0.4976 0.4977
2820.000000 0.4978 0.4979 0.4980 0.4981 0.4982
2815.000000 0.4983 0.4984 0.4985 0.4986 0.4987
2810.000000 0.4988 0.4988 0.4989 0.4990 0.4991
2805.000000 0.4992 0.4993 0.4994 0.4995 0.4996
2800.000000 0.4997 0.4998 0.4998 0.4999 0.5000
2795.000000 0.5000 0.5001 0.5002 0.5002 0.5002
2790.000000 0.5003 0.5003 0.5003 0.5004 0.5004
2785.000000 0.5005 0.5005 0.5006 0.5006 0.5006
2780.000000 0.5007 0.5008 0.5008 0.5009 0.5009
2775.000000 0.5009 0.5009 0.5008 0.5008 0.5007
2770.000000 0.5006 0.5006 0.5005 0.5004 0.5004
2765.000000 0.5003 0.5003 0.5002 0.5001 0.5001
2760.000000 0.5001 0.5000 0.5000 0.4999 0.4998
2755.000000 0.4998 0.4997 0.4996 0.4996 0.4995
2750.000000 0.4994 0.4994 0.4994 0.4993 0.4992
2745.000000 0.4991 0.4989 0.4985 0.4981 0.4977
2740.000000 0.4973 0.4969 0.4965 0.4960 0.4956
2735.000000 0.4952 0.4948 0.4944 0.4939 0.4931
2730.000000 0.4924 0.4916 0.4908 0.4900 0.4892
2725.000000 0.4885 0.4877 0.4869 0.4860 0.4853
2720.000000 0.4845 0.4837 0.4829 0.4819 0.4807
2715.000000 0.4794 0.4782 0.4773 0.4762 0.4754
2710.000000 0.4746 0.4737 0.4728 0.4719 0.4710
2705.000000 0.4700 0.4691 0.4681 0.4672 0.4662
2700.000000 0.4653 0.4643 0.4634 0.4625 0.4616
2695.000000 0.4607 0.4598 0.4589 0.4580 0.4571
2690.000000 0.4566 0.4560 0.4556 0.4553 0.4550
2685.000000 0.4548 0.4545 0.4542 0.4540 0.4537
2680.000000 0.4535 0.4532 0.4530 0.4528 0.4526
2675.000000 0.4524 0.4522 0.4520 0.4518 0.4517
2670.000000 0.4515 0.4512 0.4510 0.4508 0.4506
2665.000000 0.4504 0.4502 0.4500 0.4498 0.4496
2660.000000 0.4493 0.4491 0.4488 0.4485 0.4482
2655.000000 0.4478 0.4475 0.4472 0.4468 0.4465
2650.000000 0.4462 0.4458 0.4455 0.4451 0.4448
2645.000000 0.4445 0.4441 0.4438 0.4434 0.4431
2640.000000 0.4428 0.4424 0.4421 0.4416 0.4406
2635.000000 0.4396 0.4385 0.4372 0.4360 0.4347
2630.000000 0.4334 0.4321 0.4302 0.4282 0.4262
2625.000000 0.4236 0.4210 0.4185 0.4165 0.4144
2620.000000 0.4127 0.4114 0.4101 0.4088 0.4075
2615.000000 0.4062 0.4050 0.4037 0.4024 0.4009
2610.000000 0.3995 0.3980 0.3964 0.3950 0.3934
2605.000000 0.3920 0.3905 0.3892 0.3879 0.3868
2600.000000 0.3860 0.3853 0.3846 0.3838 0.3830
2595.000000 0.3823 0.3814 0.3808 0.3800 0.3792
2590.000000 0.3784 0.3777 0.3770 0.3762 0.3755
2585.000000 0.3747 0.3741 0.3734 0.3728 0.3722
2580.000000 0.3716 0.3709 0.3703 0.3697 0.3693
2575.000000 0.3688 0.3684 0.3680 0.3676 0.3673
2570.000000 0.3668 0.3664 0.3660 0.3629 0.3654
2565.000000 0.3650 0.3649 0.3648 0.3650 0.3650
2560.000000 0.3652 0.3653 0.3654 0.3656 0.3657
2555.000000 0.3658 0.3659 0.3662 0.3666 0.3671
2550.000000 0.3676 0.3680 0.3686 0.3691 0.3696
2545.000000 0.3700 0.3706 0.3710 0.3714 0.3720
2540.000000 0.3725 0.3730 0.3734 0.3739 0.3744
2535.000000 0.3749 0.3753 0.3757 0.3762 0.3766
2530.000000 0.3771 0.3775 0.3780 0.3784 0.3788
2525.000000 0.3793 0.3797 0.3800 0.3806 0.3810
2520.000000 0.3814 0.3820 0.3824 0.3828 0.3832
2515.000000 0.3836 0.3840 0.3844 0.3848 0.3852
2510.000000 0.3856 0.3859 0.3864 0.3868 0.3872
2505.000000 0.3876 0.3880 0.3884 0.3888 0.3892
2500.000000 0.3896 0.3897 0.3899 0.3900 0.3903
2495.000000 0.3905 0.3907 0.3909 0.3909 0.3912
2490.000000 0.3914 0.3916 0.3918 0.3918 0.3918
2485.000000 0.3920 0.3920 0.3920 0.3918 0.3959
2480.000000 0.3912 0.3907 0.3902 0.3897 0.3891
2475.000000 0.3886 0.3880 0.3876 0.3871 0.3866
2470.000000 0.3862 0.3859 0.3855 0.3850 0.3847
2465.000000 0.3843 0.3838 0.3834 0.3830 0.3828
2460.000000 0.3826 0.3826 0.3825 0.3824 0.3824
2455.000000 0.3823 0.3823 0.3822 0.3821 0.3821
2450.000000 0.3823 0.3825 0.3829 0.3832 0.3836
2445.000000 0.3840 0.3844 0.3848 0.3854 0.3862
2440.000000 0.3877 0.3892 0.3912 0.3934 0.3964
2435.000000 0.3998 0.4029 0.4050 0.4073 0.4094
2430.000000 0.4114 0.4135 0.4155 0.4175 0.4196
2425.000000 0.4217 0.4237 0.4258 0.4278 0.4299
2420.000000 0.4319 0.4339 0.4358 0.4378 0.4397
2415.000000 0.4416 0.4436 0.4455 0.4474 0.4494
2410.000000 0.4512 0.4532 0.4552 0.4571 0.4590
2405.000000 0.4609 0.4629 0.4648 0.4667 0.4690
2400.000000 0.4715 0.4739 0.4765 0.4790 0.4815
2395.000000 0.4841 0.4867 0.4892 0.4917 0.4943
2390.000000 0.4968 0.4992 0.5016 0.5041 0.5065
2385.000000 0.5089 0.5114 0.5138 0.5162 0.5186
2380.000000 0.5209 0.5231 0.5253 0.5275 0.5297
2375.000000 0.5318 0.5339 0.5356 0.5372 0.5386
2370.000000 0.5399 0.5410 0.5419 0.5426 0.5431
2365.000000 0.5435 0.5440 0.5444 0.5448 0.5452
2360.000000 0.5457 0.5460 0.5466 0.5470 0.5475
2355.000000 0.5480 0.5486 0.5492 0.5498 0.5503
2350.000000 0.5509 0.5515 0.5521 0.5527 0.5533
2345.000000 0.5539 0.5545 0.5551 0.5557 0.5562
2340.000000 0.5570 0.5578 0.5588 0.5598 0.5608
2335.000000 0.5619 0.5629 0.5639 0.5649 0.5660
2330.000000 0.5670 0.5680 0.5690 0.5700 0.5710
2325.000000 0.5721 0.5731 0.5744 0.5759 0.5774
2320.000000 0.5789 0.5804 0.5819 0.5834 0.5849
2315.000000 0.5864 0.5879 0.5894 0.5909 0.5924
2310.000000 0.5939 0.5954 0.5969 0.5984 0.6000
2305.000000 0.6016 0.6033 0.6049 0.6065 0.6081
2300.000000 0.6098 0.6114 0.6130 0.6147 0.6162
2295.000000 0.6180 0.6196 0.6212 0.6229 0.6245
2290.000000 0.6262 0.6278 0.6292 0.6305 0.6318
2285.000000 0.6331 0.6343 0.6356 0.6369 0.6382
2280.000000 0.6394 0.6407 0.6418 0.6432 0.6445
2275.000000 0.6458 0.6469 0.6483 0.6496 0.6508
2270.000000 0.6521 0.6534 0.6547 0.6560 0.6571
2265.000000 0.6581 0.6591 0.6600 0.6608 0.6618
2260.000000 0.6626 0.6637 0.6646 0.6655 0.6664
2255.000000 0.6672 0.6682 0.6692 0.6701 0.6710
2250.000000 0.6719 0.6728 0.6737 0.6747 0.6756
2245.000000 0.6765 0.6775 0.6784 0.6794 0.6803
2240.000000 0.6811 0.6818 0.6825 0.6832 0.6839
2235.000000 0.6846 0.6853 0.6860 0.6867 0.6874
2230.000000 0.6881 0.6888 0.6895 0.6901 0.6908
2225.000000 0.6915 0.6921 0.6928 0.6935 0.6942
2220.000000 0.6949 0.6956 0.6962 0.6969 0.6976
2215.000000 0.6984 0.6991 0.6997 0.7003 0.7010
2210.000000 0.7015 0.7022 0.7030 0.7036 0.7043
2205.000000 0.7050 0.7056 0.7062 0.7068 0.7075
2200.000000 0.7082 0.7089 0.7094 0.7098 0.7101
2195.000000 0.7106 0.7110 0.7112 0.7117 0.7121
2190.000000 0.7125 0.7128 0.7133 0.7136 0.7141
2185.000000 0.7145 0.7148 0.7151 0.7156 0.7158
2180.000000 0.7162 0.7165 0.7168 0.7169 0.7171
2175.000000 0.7172 0.7175 0.7176 0.7180 0.7181
2170.000000 0.7183 0.7185 0.7187 0.7189 0.7191
2165.000000 0.7193 0.7195 0.7197 0.7199 0.7201
2160.000000 0.7203 0.7205 0.7206 0.7207 0.7207
2155.000000 0.7208 0.7208 0.7208 0.7208 0.7210
2150.000000 0.7211 0.7211 0.7211 0.7212 0.7214
2145.000000 0.7214 0.7215 0.7215 0.7215 0.7215
2140.000000 0.7215 0.7215 0.7215 0.7212 0.7211
2135.000000 0.7211 0.7208 0.7207 0.7206 0.7204
2130.000000 0.7203 0.7201 0.7200 0.7198 0.7197
2125.000000 0.7196 0.7194 0.7192 0.7190 0.7187
2120.000000 0.7184 0.7181 0.7176 0.7174 0.7171
2115.000000 0.7167 0.7164 0.7161 0.7157 0.7154
2110.000000 0.7150 0.7148 0.7145 0.7141 0.7138
2105.000000 0.7135 0.7131 0.7125 0.7121 0.7115
2100.000000 0.7111 0.7106 0.7101 0.7096 0.7092
2095.000000 0.7087 0.7082 0.7075 0.7071 0.7065
2090.000000 0.7061 0.7057 0.7051 0.7046 0.7041
2085.000000 0.7036 0.7031 0.7025 0.7021 0.7015
2080.000000 0.7011 0.7005 0.7000 0.6993 0.6985
2075.000000 0.6978 0.6971 0.6964 0.6956 0.6949
2070.000000 0.6942 0.6934 0.6926 0.6919 0.6912
2065.000000 0.6905 0.6897 0.6890 0.6883 0.6875
2060.000000 0.6868 0.6860 0.6853 0.6846 0.6838
2055.000000 0.6831 0.6824 0.6815 0.6808 0.6801
2050.000000 0.6793 0.6785 0.6776 0.6768 0.6760
2045.000000 0.6751 0.6742 0.6734 0.6725 0.6717
2040.000000 0.6708 0.6700 0.6691 0.6682 0.6674
2035.000000 0.6665 0.6657 0.6648 0.6639 0.6631
2030.000000 0.6621 0.6612 0.6604 0.6596 0.6587
2025.000000 0.6578 0.6569 0.6561 0.6551 0.6543
2020.000000 0.6535 0.6525 0.6518 0.6511 0.6504
2015.000000 0.6497 0.6490 0.6483 0.6475 0.6468
2010.000000 0.6461 0.6455 0.6447 0.6440 0.6433
2005.000000 0.6425 0.6418 0.6411 0.6404 0.6397
2000.000000 0.6391 0.6383 0.6376 0.6369 0.6360
1995.000000 0.6354 0.6347 0.6340 0.6332 0.6325
1990.000000 0.6317 0.6309 0.6300 0.6292 0.6284
1985.000000 0.6276 0.6267 0.6259 0.6251 0.6243
1980.000000 0.6234 0.6226 0.6218 0.6209 0.6201
1975.000000 0.6193 0.6184 0.6176 0.6168 0.6159
1970.000000 0.6151 0.6143 0.6136 0.6130 0.6123
1965.000000 0.6116 0.6109 0.6103 0.6096 0.6089
1960.000000 0.6082 0.6076 0.6069 0.6062 0.6056
1955.000000 0.6052 0.6048 0.6044 0.6040 0.6037
1950.000000 0.6033 0.6032 0.6032 0.6032 0.6032
1945.000000 0.6032 0.6032 0.6032 0.6032 0.6032
1940.000000 0.6031 0.6029 0.6027 0.6025 0.6022
1935.000000 0.6020 0.6017 0.6014 0.6012 0.6007
1930.000000 0.6002 0.5998 0.5994 0.5988 0.5981
1925.000000 0.5975 0.5969 0.5962 0.5956 0.5950
1920.000000 0.5944 0.5937 0.5930 0.5922 0.5910
1915.000000 0.5900 0.5889 0.5878 0.5867 0.5856
1910.000000 0.5845 0.5835 0.5827 0.5820 0.5814
1905.000000 0.5807 0.5800 0.5794 0.5787 0.5781
1900.000000 0.5774 0.5767 0.5760 0.5754 0.5747
1895.000000 0.5740 0.5732 0.5722 0.5712 0.5704
1890.000000 0.5695 0.5687 0.5679 0.5675 0.5670
1885.000000 0.5666 0.5660 0.5656 0.5653 0.5650
1880.000000 0.5650 0.5649 0.5648 0.5648 0.5648
1875.000000 0.5647 0.5646 0.5645 0.5645 0.5645
1870.000000 0.5645 0.5644 0.5644 0.5644 0.5644
1865.000000 0.5645 0.5646 0.5646 0.5646 0.5647
1860.000000 0.5648 0.5648 0.5649 0.5650 0.5650
1855.000000 0.5651 0.5652 0.5653 0.5653 0.5655
1850.000000 0.5658 0.5662 0.5666 0.5670 0.5674
1845.000000 0.5678 0.5681 0.5685 0.5689 0.5693
1840.000000 0.5697 0.5701 0.5704 0.5708 0.5712
1835.000000 0.5716 0.5719 0.5720 0.5721 0.5722
1830.000000 0.5724 0.5725 0.5727 0.5728 0.5730
1825.000000 0.5731 0.5733 0.5734 0.5736 0.5737
1820.000000 0.5739 0.5740 0.5742 0.5743 0.5745
1815.000000 0.5745 0.5744 0.5744 0.5743 0.5742
1810.000000 0.5741 0.5741 0.5739 0.5738 0.5737
1805.000000 0.5736 0.5736 0.5735 0.5734 0.5733
1800.000000 0.5733 0.5731 0.5730 0.5729 0.5729
1795.000000 0.5728 0.5724 0.5718 0.5712 0.5708
1790.000000 0.5703 0.5698 0.5693 0.5688 0.5683
1785.000000 0.5678 0.5672 0.5667 0.5662 0.5657
1780.000000 0.5650 0.5641 0.5631 0.5620 0.5610
1775.000000 0.5600 0.5589 0.5579 0.5569 0.5558
1770.000000 0.5547 0.5534 0.5516 0.5497 0.5480
1765.000000 0.5462 0.5443 0.5425 0.5406 0.5388
1760.000000 0.5366 0.5340 0.5312 0.5284 0.5256
1755.000000 0.5228 0.5200 0.5171 0.5142 0.5112
1750.000000 0.5083 0.5055 0.5025 0.4996 0.4966
1745.000000 0.4937 0.4908 0.4880 0.4852 0.4824
1740.000000 0.4796 0.4768 0.4741 0.4712 0.4684
1735.000000 0.4656 0.4621 0.4583 0.4544 0.4505
1730.000000 0.4465 0.4425 0.4384 0.4342 0.4300
1725.000000 0.4258 0.4216 0.4174 0.4135 0.4099
1720.000000 0.4062 0.4025 0.3989 0.3952 0.3914
1715.000000 0.3866 0.3814 0.3764 0.3716 0.3671
1710.000000 0.3629 0.3586 0.3552 0.3530 0.3514
1705.000000 0.3498 0.3486 0.3482 0.3477 0.3474
1700.000000 0.3474 0.3473 0.3473 0.3473 0.3484
1695.000000 0.3502 0.3540 0.3580 0.3620 0.3659
1690.000000 0.3702 0.3752 0.3805 0.3858 0.3910
1685.000000 0.3973 0.4053 0.4143 0.4220 0.4274
1680.000000 0.4320 0.4367 0.4412 0.4460 0.4506
1675.000000 0.4554 0.4604 0.4653 0.4702 0.4750
1670.000000 0.4788 0.4820 0.4852 0.4885 0.4917
1665.000000 0.4945 0.4968 0.4989 0.5009 0.5027
1660.000000 0.5034 0.5041 0.5048 0.5055 0.5060
1655.000000 0.5065 0.5068 0.5071 0.5075 0.5078
1650.000000 0.5081 0.5085 0.5087 0.5089 0.5092
1645.000000 0.5122 0.5096 0.5098 0.5101 0.5102
1640.000000 0.5104 0.5104 0.5104 0.5104 0.5104
1635.000000 0.5103 0.5096 0.5078 0.5060 0.5042
1630.000000 0.5025 0.5008 0.4985 0.4959 0.4932
1625.000000 0.4904 0.4877 0.4850 0.4823 0.4795
1620.000000 0.4767 0.4741 0.4721 0.4702 0.4683
1615.000000 0.4664 0.4645 0.4625 0.4606 0.4587
1610.000000 0.4568 0.4548 0.4529 0.4510 0.4490
1605.000000 0.4468 0.4444 0.4421 0.4397 0.4373
1600.000000 0.4350 0.4326 0.4302 0.4278 0.4254
1595.000000 0.4230 0.4207 0.4187 0.4168 0.4149
1590.000000 0.4129 0.4110 0.4094 0.4082 0.4074
1585.000000 0.4066 0.4058 0.4050 0.4042 0.4034
1580.000000 0.4026 0.4018 0.4009 0.4004 0.4002
1575.000000 0.4000 0.3999 0.3997 0.3997 0.3997
1570.000000 0.3993 0.3991 0.3991 0.3991 0.3991
1565.000000 0.3991 0.3992 0.3992 0.3992 0.3993
1560.000000 0.3993 0.3993 0.3998 0.4005 0.4012
1555.000000 0.4020 0.4030 0.4040 0.4050 0.4059
1550.000000 0.4071 0.4080 0.4094 0.4117 0.4140
1545.000000 0.4162 0.4186 0.4208 0.4225 0.4243
1540.000000 0.4260 0.4276 0.4293 0.4305 0.4312
1535.000000 0.4322 0.4331 0.4340 0.4349 0.4356
1530.000000 0.4357 0.4360 0.4360 0.4362 0.4364
1525.000000 0.4366 0.4368 0.4369 0.4372 0.4374
1520.000000 0.4377 0.4379 0.4382 0.4384 0.4389
1515.000000 0.4392 0.4396 0.4400 0.4404 0.4407
1510.000000 0.4410 0.4415 0.4419 0.4424 0.4430
1505.000000 0.4436 0.4442 0.4452 0.4464 0.4477
1500.000000 0.4489 0.4501 0.4512 0.4531 0.4549
1495.000000 0.4568 0.4586 0.4605 0.4627 0.4657
1490.000000 0.4689 0.4722 0.4752 0.4783 0.4814
1485.000000 0.4845 0.4873 0.4900 0.4927 0.4944
1480.000000 0.4954 0.4964 0.4971 0.4971 0.4972
1475.000000 0.4971 0.4969 0.4967 0.4957 0.4928
1470.000000 0.4899 0.4866 0.4820 0.4772 0.4721
1465.000000 0.4660 0.4593 0.4545 0.4503 0.4462
1460.000000 0.4414 0.4357 0.4300 0.4243 0.4160
1455.000000 0.4074 0.4014 0.3962 0.3909 0.3866
1450.000000 0.3828 0.3793 0.3775 0.3771 0.3766
1445.000000 0.3762 0.3759 0.3758 0.3757 0.3756
1440.000000 0.3754 0.3753 0.3752 0.3750 0.3748
1435.000000 0.3742 0.3736 0.3730 0.3723 0.3716
1430.000000 0.3709 0.3700 0.3682 0.3659 0.3637
1425.000000 0.3612 0.3587 0.3550 0.3509 0.3468
1420.000000 0.3428 0.3387 0.3334 0.3249 0.3164
1415.000000 0.3101 0.3051 0.3001 0.2946 0.2882
1410.000000 0.2819 0.2781 0.2755 0.2729 0.2704
1405.000000 0.2693 0.2689 0.2684 0.2680 0.2676
1400.000000 0.2726 0.2667 0.2668 0.2676 0.2683
1395.000000 0.2691 0.2706 0.2737 0.2769 0.2802
1390.000000 0.2855 0.2919 0.2985 0.3063 0.3148
1385.000000 0.3234 0.3310 0.3368 0.3427 0.3486
1380.000000 0.3544 0.3602 0.3660 0.3712 0.3759
1375.000000 0.3808 0.3856 0.3903 0.3950 0.3995
1370.000000 0.4040 0.4084 0.4123 0.4147 0.4171
1365.000000 0.4195 0.4218 0.4242 0.4265 0.4289
1360.000000 0.4312 0.4339 0.4372 0.4406 0.4439
1355.000000 0.4473 0.4501 0.4529 0.4557 0.4572
1350.000000 0.4576 0.4580 0.4583 0.4587 0.4591
1345.000000 0.4591 0.4591 0.4591 0.4584 0.4573
1340.000000 0.4560 0.4552 0.4548 0.4541 0.4534
1335.000000 0.4527 0.4520 0.4512 0.4505 0.4496
1330.000000 0.4487 0.4480 0.4471 0.4456 0.4410
1325.000000 0.4358 0.4273 0.4178 0.4068 0.3999
1320.000000 0.3972 0.3945 0.3918 0.3892 0.3836
1315.000000 0.3740 0.3610 0.3504 0.3408 0.3312
1310.000000 0.3198 0.3083 0.2887 0.2632 0.2488
1305.000000 0.2398 0.2350 0.2329 0.2329 0.2321
1300.000000 0.2319 0.2330 0.2374 0.2427 0.2490
1295.000000 0.2583 0.2677 0.2772 0.2868 0.2966
1290.000000 0.3057 0.3139 0.3224 0.3322 0.3396
1285.000000 0.3434 0.3473 0.3482 0.3492 0.3512
1280.000000 0.3498 0.3494 0.3490 0.3476 0.3398
1275.000000 0.3280 0.3148 0.3035 0.2934 0.2842
1270.000000 0.2761 0.2680 0.2601 0.2529 0.2456
1265.000000 0.2387 0.2334 0.2284 0.2244 0.2223
1260.000000 0.2214 0.2208 0.2182 0.2214 0.2243
1255.000000 0.2294 0.2357 0.2423 0.2510 0.2597
1250.000000 0.2682 0.2763 0.2835 0.2887 0.2918
1245.000000 0.2943 0.2967 0.2994 0.3044 0.3098
1240.000000 0.3158 0.3218 0.3280 0.3348 0.3424
1235.000000 0.3504 0.3627 0.3742 0.3810 0.3858
1230.000000 0.3886 0.3897 0.3905 0.3907 0.3920
1225.000000 0.3909 0.3912 0.3914 0.3914 0.3828
1220.000000 0.3712 0.3622 0.3520 0.3388 0.3266
1215.000000 0.3184 0.3104 0.3034 0.2978 0.2933
1210.000000 0.2894 0.2834 0.2878 0.2905 0.2934
1205.000000 0.2965 0.3021 0.3125 0.3286 0.3404
1200.000000 0.3482 0.3562 0.3650 0.3746 0.3810
1195.000000 0.3862 0.3912 0.3962 0.4012 0.4060
1190.000000 0.4110 0.4158 0.4210 0.4266 0.4322
1185.000000 0.4378 0.4434 0.4482 0.4528 0.4573
1180.000000 0.4617 0.4653 0.4689 0.4724 0.4760
1175.000000 0.4798 0.4835 0.4871 0.4905 0.4929
1170.000000 0.4950 0.4944 0.4941 0.4934 0.4925
1165.000000 0.4918 0.4919 0.4896 0.4923 0.4926
1160.000000 0.4928 0.4937 0.4943 0.4946 0.4949
1155.000000 0.4978 0.4931 0.4912 0.4888 0.4860
1150.000000 0.4826 0.4771 0.4702 0.4585 0.4407
1145.000000 0.4215 0.4023 0.3830 0.3636 0.3442
1140.000000 0.3249 0.3055 0.2860 0.2665 0.2470
1135.000000 0.2285 0.2169 0.2203 0.2204 0.2251
1130.000000 0.2349 0.2521 0.2694 0.2866 0.3038
1125.000000 0.3210 0.3384 0.3558 0.3732 0.3906
1120.000000 0.4073 0.4123 0.4125 0.4126 0.4109
1115.000000 0.4030 0.3842 0.3652 0.3462 0.3273
1110.000000 0.3083 0.2982 0.2939 0.2957 0.2957
1105.000000 0.3010 0.3121 0.3272 0.3414 0.3543
1100.000000 0.3632 0.3706 0.3732 0.3680 0.3409
1095.000000 0.3177 0.3073 0.2996 0.2939 0.2940
1090.000000 0.2950 0.3003 0.3102 0.3276 0.3460
1085.000000 0.3645 0.3830 0.4016 0.4202 0.4303
1080.000000 0.4328 0.4323 0.4298 0.4077 0.3816
1075.000000 0.3557 0.3296 0.3101 0.3056 0.3013
1070.000000 0.2976 0.2940 0.2905 0.2874 0.2845
1065.000000 0.2826 0.2799 0.2813 0.2848 0.2934
1060.000000 0.3050 0.3230 0.3454 0.3664 0.3856
1055.000000 0.4006 0.4142 0.4310 0.4454 0.4623
1050.000000 0.4584 0.4588 0.4567 0.4483 0.4372
1045.000000 0.4332 0.4312 0.4306 0.4309 0.4364
1040.000000 0.4448 0.4542 0.4638 0.4737 0.4823
1035.000000 0.4881 0.4938 0.4978 0.5014 0.5035
1030.000000 0.5051 0.5048 0.5044 0.5040 0.5041
1025.000000 0.5051 0.5060 0.5095 0.5139 0.5184
1020.000000 0.5254 0.5328 0.5406 0.5487 0.5568
1015.000000 0.5648 0.5731 0.5812 0.5896 0.5979
1010.000000 0.6060 0.6144 0.6226 0.6307 0.6368
1005.000000 0.6424 0.6475 0.6508 0.6510 0.6511
1000.000000 0.6508 0.6504 0.6568 0.6654 0.6625
995.000000 0.6437 0.6323 0.6232 0.6191 0.6101
990.000000 0.5899 0.5776 0.5687 0.5633 0.5618
985.000000 0.5623 0.5647 0.5687 0.5688 0.5576
980.000000 0.5417 0.5322 0.5252 0.5210 0.5276
975.000000 0.5431 0.5550 0.5674 0.5821 0.5988
970.000000 0.6182 0.6330 0.6411 0.6494 0.6561
965.000000 0.6621 0.6678 0.6739 0.6797 0.6845
960.000000 0.6892 0.6940 0.6988 0.7036 0.7082
955.000000 0.7122 0.7162 0.7201 0.7233 0.7262
950.000000 0.7294 0.7318 0.7334 0.7350 0.7365
945.000000 0.7380 0.7390 0.7399 0.7406 0.7455
940.000000 0.7408 0.7380 0.7321 0.7222 0.7114
935.000000 0.6975 0.6708 0.6745 0.6741 0.6778
930.000000 0.6835 0.6900 0.6957 0.6987 0.7015
925.000000 0.7047 0.7075 0.7104 0.7131 0.7158
920.000000 0.7185 0.7212 0.7240 0.7267 0.7295
915.000000 0.7322 0.7355 0.7388 0.7421 0.7454
910.000000 0.7497 0.7484 0.7471 0.7433 0.7312
905.000000 0.7062 0.6714 0.6301 0.6235 0.6178
900.000000 0.6143 0.6139 0.6162 0.6171 0.6205
895.000000 0.6254 0.6303 0.6353 0.6406 0.6464
890.000000 0.6522 0.6611 0.6728 0.6841 0.6951
885.000000 0.7061 0.7141 0.7208 0.7253 0.7274
880.000000 0.7296 0.7315 0.7338 0.7361 0.7385
875.000000 0.7407 0.7430 0.7446 0.7455 0.7419
870.000000 0.7374 0.7318 0.7301 0.7301 0.7301
865.000000 0.7328 0.7368 0.7412 0.7458 0.7524
860.000000 0.7590 0.7642 0.7690 0.7789 0.7749
855.000000 0.7708 0.7611 0.7534 0.7478 0.7440
850.000000 0.7419 0.7414 0.7412 0.7401 0.7368
845.000000 0.7322 0.7268 0.7207 0.7106 0.7125
840.000000 0.7203 0.7261 0.7315 0.7361 0.7382
835.000000 0.7374 0.7338 0.7283 0.7244 0.7208
830.000000 0.7145 0.7146 0.7146 0.7128 0.7176
825.000000 0.7251 0.7300 0.7334 0.7365 0.7376
820.000000 0.7389 0.7380 0.7362 0.7348 0.7338
815.000000 0.7328 0.7319 0.7306 0.7287 0.7272
810.000000 0.7267 0.7261 0.7260 0.7267 0.7275
805.000000 0.7282 0.7293 0.7304 0.7317 0.7328
800.000000 0.7340 0.7349 0.7355 0.7358 0.7357
795.000000 0.7345 0.7265 0.7057 0.6876 0.6722
790.000000 0.6604 0.6541 0.6474 0.6514 0.6876
785.000000 0.7096 0.7264 0.7401 0.7515 0.7618
780.000000 0.7705 0.7768 0.7811 0.7838 0.7861
775.000000 0.7895 0.7890 0.7875 0.7815 0.7694
770.000000 0.7519 0.7295 0.7049 0.6960 0.6958
765.000000 0.6991 0.7007 0.6967 0.6835 0.6390
760.000000 0.5935 0.5479 0.5021 0.4566 0.4471
755.000000 0.4468 0.4669 0.5106 0.5500 0.5842
750.000000 0.6269 0.6615 0.6804 0.6987 0.7147
745.000000 0.7292 0.7401 0.7505 0.7583 0.7660
740.000000 0.7719 0.7780 0.7826 0.7868 0.7908
735.000000 0.7948 0.7972 0.7999 0.8025 0.8038
730.000000 0.8048 0.8058 0.8062 0.8065 0.8069
725.000000 0.8068 0.8068 0.8064 0.8058 0.8046
720.000000 0.8034 0.8015 0.7989 0.7961 0.7936
715.000000 0.7911 0.7876 0.7822 0.7768 0.7668
710.000000 0.7560 0.7405 0.7208 0.6926 0.6553
705.000000 0.6173 0.5889 0.5632 0.5282 0.4791
700.000000 0.4299 0.3806 0.3400 0.3432 0.3912
695.000000 0.4408 0.4906 0.5371 0.5583 0.5699
690.000000 0.5732 0.5720 0.5666 0.5592 0.5457
685.000000 0.5322 0.5190 0.5058 0.4916 0.4773
680.000000 0.4622 0.4473 0.4333 0.4210 0.4128
675.000000 0.4066 0.4096 0.4190 0.4287
##END=
