##TITLE=CHROMIUM POTASSIUM SULFATE
##JCAMP-DX=4.24
##DATA TYPE=INFRARED SPECTRUM
##CLASS=COBLENTZ
##ORIGIN=MELLON INSTITUTE
##OWNER=COBLENTZ SOCIETY
Collection (C) 2018 copyright by the U.S. Secretary of Commerce
on behalf of the United States of America. All rights reserved.
##DATE=Not specified, most likely prior to 1970
##MOLFORM=Cr2 ( S O4 )3  * K2 S O4  * 24 H2 O
##SOURCE REFERENCE=COBLENTZ NO. 549
##$NIST ID=B6000549
##$NIST SOURCE=COBLENTZ
##$NIST IMAGE=cob549
##SPECTROMETER/DATA SYSTEM=Not specified, most likely a prism, grating, or hybrid spectrometer.
##STATE=SOLID (NUJOL MULL)
$$PURITY UNKNOWN
##PATH LENGTH=
$$SPECTRAL CONTAMINATION DUE TO OIL AROUND 2900, 1450, 1380 CM^-^1
##SAMPLING PROCEDURE=TRANSMISSION
##RESOLUTION=4
##DATA PROCESSING=DIGITIZED BY NIST FROM HARD COPY
##XUNITS=MICROMETERS
##YUNITS=TRANSMITTANCE
##XFACTOR=1.000000
##YFACTOR=1
##DELTAX=000.006647
##FIRSTX=2.023
##LASTX=16.0142
##FIRSTY=0.864
##MAXX=16.0142
##MINX=2.023
##MAXY=0.954
##MINY=0.182
##NPOINTS=2106
##XYDATA=(X++(Y..Y))
2.023000 0.8640 0.8640 0.8640 0.8640 0.8640
2.056248 0.8660 0.8640 0.8640 0.8620 0.8620
2.089000 0.8620 0.8610 0.8590 0.8570 0.8560
2.122248 0.8540 0.8520 0.8520 0.8540 0.8540
2.156000 0.8520 0.8520 0.8520 0.8510 0.8510
2.189248 0.8470 0.8460 0.8440 0.8460 0.8440
2.222000 0.8440 0.8440 0.8440 0.8440 0.8420
2.255248 0.8410 0.8410 0.8410 0.8410 0.8410
2.289000 0.8390 0.8390 0.8390 0.8390 0.8390
2.322248 0.8390 0.8370 0.8360 0.8360 0.8360
2.355000 0.8360 0.8340 0.8320 0.8320 0.8310
2.388248 0.8310 0.8310 0.8290 0.8290 0.8290
2.422000 0.8270 0.8270 0.8270 0.8270 0.8270
2.455248 0.8270 0.8270 0.8270 0.8270 0.8270
2.488000 0.8270 0.8270 0.8270 0.8260 0.8260
2.521248 0.8240 0.8210 0.8190 0.8190 0.8190
2.555000 0.8170 0.8190 0.8190 0.8190 0.8190
2.588248 0.8190 0.8190 0.8190 0.8190 0.8160
2.621000 0.8160 0.8140 0.8140 0.8140 0.8140
2.654248 0.8140 0.8160 0.8160 0.8140 0.8120
2.688000 0.8110 0.8110 0.8090 0.8020 0.8020
2.721248 0.8010 0.8010 0.7970 0.7970 0.7900
2.754000 0.7870 0.7790 0.7750 0.7670 0.7600
2.787248 0.7500 0.7440 0.7290 0.7190 0.7040
2.821000 0.6920 0.6780 0.6620 0.6500 0.6430
2.854248 0.6300 0.6180 0.6100 0.5980 0.5960
2.887000 0.5830 0.5760 0.5680 0.5580 0.5510
2.920248 0.5360 0.5330 0.5300 0.5250 0.5230
2.953000 0.5210 0.5200 0.5180 0.5160 0.5160
2.986248 0.5150 0.5160 0.5160 0.5180 0.5200
3.020000 0.5200 0.5210 0.5230 0.5250 0.5280
3.053248 0.5300 0.5310 0.5350 0.5350 0.5380
3.086000 0.5380 0.5400 0.5410 0.5430 0.5430
3.119248 0.5430 0.5430 0.5430 0.5430 0.5410
3.153000 0.5400 0.5400 0.5380 0.5360 0.5330
3.186248 0.5330 0.5300 0.5260 0.5230 0.5200
3.219000 0.5160 0.5150 0.5110 0.5080 0.5030
3.252248 0.5030 0.5010 0.5000 0.5000 0.4910
3.286000 0.4840 0.4810 0.4730 0.4510 0.4030
3.319248 0.3910 0.3570 0.3010 0.2870 0.2690
3.352000 0.2250 0.2040 0.1930 0.1870 0.1830
3.385248 0.1820 0.1850 0.1880 0.2020 0.2120
3.419000 0.2220 0.2250 0.2250 0.2250 0.2250
3.452248 0.2270 0.2420 0.2540 0.2650 0.3060
3.485000 0.3370 0.3620 0.3910 0.4030 0.4190
3.518248 0.4260 0.4410 0.4490 0.4510 0.4580
3.552000 0.4640 0.4690 0.4740 0.4810 0.4880
3.585248 0.4930 0.5000 0.5110 0.5160 0.5230
3.618000 0.5280 0.5330 0.5360 0.5410 0.5430
3.651248 0.5480 0.5510 0.5580 0.5600 0.5610
3.685000 0.5630 0.5700 0.5730 0.5750 0.5780
3.718248 0.5800 0.5850 0.5900 0.5930 0.5930
3.751000 0.5950 0.5960 0.6020 0.6030 0.6070
3.784248 0.6120 0.6130 0.6150 0.6180 0.6220
3.818000 0.6250 0.6300 0.6330 0.6380 0.6400
3.851248 0.6420 0.6430 0.6430 0.6450 0.6450
3.884000 0.6450 0.6450 0.6470 0.6470 0.6480
3.917248 0.6480 0.6500 0.6500 0.6520 0.6520
3.950000 0.6530 0.6530 0.6530 0.6530 0.6530
3.983248 0.6530 0.6520 0.6520 0.6520 0.6520
4.017000 0.6530 0.6530 0.6530 0.6530 0.6550
4.050248 0.6550 0.6570 0.6570 0.6570 0.6570
4.083000 0.6570 0.6570 0.6570 0.6550 0.6550
4.116248 0.6570 0.6600 0.6620 0.6630 0.6630
4.150000 0.6630 0.6630 0.6620 0.6620 0.6600
4.183248 0.6600 0.6580 0.6580 0.6580 0.6570
4.216000 0.6570 0.6570 0.6570 0.6550 0.6550
4.249248 0.6550 0.6550 0.6550 0.6550 0.6550
4.283000 0.6550 0.6550 0.6550 0.6550 0.6550
4.316248 0.6570 0.6620 0.6670 0.6720 0.6730
4.349000 0.6800 0.6830 0.6900 0.6970 0.7000
4.382248 0.7000 0.7020 0.7070 0.7100 0.7140
4.416000 0.7150 0.7190 0.7220 0.7250 0.7270
4.449248 0.7300 0.7320 0.7350 0.7390 0.7400
4.482000 0.7420 0.7440 0.7440 0.7490 0.7500
4.515248 0.7500 0.7520 0.7540 0.7540 0.7550
4.549000 0.7550 0.7590 0.7590 0.7600 0.7620
4.582248 0.7640 0.7640 0.7640 0.7640 0.7650
4.615000 0.7650 0.7670 0.7670 0.7670 0.7670
4.648248 0.7690 0.7720 0.7720 0.7740 0.7750
4.682000 0.7750 0.7770 0.7790 0.7800 0.7800
4.715248 0.7820 0.7820 0.7840 0.7850 0.7870
4.748000 0.7890 0.7900 0.7900 0.7900 0.7920
4.781248 0.7920 0.7920 0.7920 0.7920 0.7940
4.815000 0.7940 0.7940 0.7940 0.7940 0.7940
4.848248 0.7940 0.7940 0.7940 0.7940 0.7940
4.881000 0.7950 0.7950 0.7970 0.7970 0.7970
4.914248 0.8010 0.8020 0.8020 0.8040 0.8060
4.947000 0.8070 0.8070 0.8090 0.8110 0.8120
4.980248 0.8120 0.8140 0.8140 0.8160 0.8160
5.014000 0.8190 0.8220 0.8240 0.8240 0.8260
5.047248 0.8270 0.8270 0.8290 0.8310 0.8310
5.080000 0.8320 0.8320 0.8340 0.8340 0.8340
5.113248 0.8360 0.8370 0.8370 0.8370 0.8390
5.147000 0.8410 0.8410 0.8410 0.8420 0.8420
5.180248 0.8440 0.8440 0.8440 0.8440 0.8460
5.213000 0.8460 0.8470 0.8490 0.8490 0.8510
5.246248 0.8510 0.8510 0.8510 0.8520 0.8520
5.280000 0.8540 0.8540 0.8540 0.8540 0.8540
5.313248 0.8540 0.8540 0.8560 0.8560 0.8560
5.346000 0.8570 0.8570 0.8560 0.8570 0.8570
5.379248 0.8590 0.8570 0.8570 0.8570 0.8570
5.413000 0.8570 0.8570 0.8570 0.8590 0.8590
5.446248 0.8610 0.8610 0.8610 0.8620 0.8620
5.479000 0.8620 0.8620 0.8620 0.8640 0.8640
5.512248 0.8640 0.8640 0.8640 0.8660 0.8660
5.546000 0.8660 0.8660 0.8660 0.8660 0.8660
5.579248 0.8660 0.8660 0.8660 0.8670 0.8670
5.612000 0.8670 0.8690 0.8690 0.8690 0.8710
5.645248 0.8710 0.8720 0.8740 0.8740 0.8760
5.679000 0.8760 0.8770 0.8790 0.8790 0.8810
5.712248 0.8810 0.8810 0.8810 0.8810 0.8810
5.745000 0.8810 0.8820 0.8820 0.8840 0.8840
5.778248 0.8860 0.8860 0.8860 0.8860 0.8840
5.811000 0.8820 0.8810 0.8790 0.8790 0.8790
5.844248 0.8770 0.8760 0.8760 0.8740 0.8740
5.878000 0.8740 0.8720 0.8720 0.8710 0.8690
5.911248 0.8670 0.8660 0.8660 0.8640 0.8620
5.944000 0.8620 0.8610 0.8590 0.8560 0.8540
5.977248 0.8520 0.8520 0.8510 0.8470 0.8460
6.011000 0.8440 0.8420 0.8390 0.8370 0.8370
6.044248 0.8370 0.8370 0.8360 0.8340 0.8320
6.077000 0.8320 0.8320 0.8320 0.8320 0.8340
6.110248 0.8340 0.8340 0.8340 0.8340 0.8360
6.144000 0.8360 0.8370 0.8370 0.8390 0.8410
6.177248 0.8410 0.8420 0.8420 0.8420 0.8440
6.210000 0.8460 0.8470 0.8490 0.8490 0.8490
6.243248 0.8510 0.8520 0.8520 0.8540 0.8540
6.277000 0.8540 0.8540 0.8540 0.8540 0.8560
6.310248 0.8560 0.8560 0.8560 0.8560 0.8570
6.343000 0.8590 0.8590 0.8610 0.8610 0.8620
6.376248 0.8620 0.8620 0.8620 0.8640 0.8660
6.410000 0.8670 0.8690 0.8710 0.8720 0.8740
6.443248 0.8760 0.8760 0.8770 0.8770 0.8770
6.476000 0.8770 0.8760 0.8760 0.8740 0.8760
6.509248 0.8760 0.8770 0.8790 0.8810 0.8810
6.543000 0.8840 0.8840 0.8860 0.8860 0.8860
6.576248 0.8860 0.8870 0.8870 0.8890 0.8910
6.609000 0.8910 0.8920 0.8920 0.8920 0.8920
6.642248 0.8920 0.8920 0.8920 0.8920 0.8910
6.676000 0.8920 0.8910 0.8910 0.8890 0.8890
6.709248 0.8870 0.8860 0.8840 0.8820 0.8770
6.742000 0.8740 0.8590 0.8520 0.8340 0.8220
6.775248 0.8020 0.7940 0.7840 0.7650 0.7520
6.808000 0.7450 0.7420 0.7400 0.7400 0.7440
6.841248 0.7470 0.7490 0.7540 0.7600 0.7670
6.875000 0.7770 0.7840 0.7900 0.8010 0.8040
6.908248 0.8090 0.8160 0.8210 0.8260 0.8360
6.941000 0.8440 0.8520 0.8640 0.8670 0.8740
6.974248 0.8760 0.8770 0.8790 0.8790 0.8810
7.008000 0.8820 0.8860 0.8860 0.8890 0.8920
7.041248 0.8940 0.8960 0.8970 0.8990 0.8990
7.074000 0.9010 0.9010 0.9010 0.9010 0.9030
7.107248 0.9030 0.9030 0.9030 0.9030 0.9030
7.141000 0.9030 0.9010 0.8990 0.8970 0.8920
7.174248 0.8890 0.8790 0.8660 0.8570 0.8490
7.207000 0.8420 0.8410 0.8420 0.8440 0.8470
7.240248 0.8520 0.8560 0.8610 0.8640 0.8670
7.274000 0.8710 0.8740 0.8820 0.8890 0.8920
7.307248 0.8990 0.8990 0.9030 0.9030 0.9040
7.340000 0.9040 0.9060 0.9060 0.9080 0.9110
7.373248 0.9130 0.9130 0.9140 0.9160 0.9160
7.407000 0.9160 0.9180 0.9180 0.9190 0.9190
7.440248 0.9210 0.9240 0.9260 0.9260 0.9280
7.473000 0.9280 0.9280 0.9290 0.9290 0.9310
7.506248 0.9310 0.9330 0.9330 0.9340 0.9340
7.540000 0.9340 0.9360 0.9360 0.9360 0.9380
7.573248 0.9380 0.9380 0.9380 0.9380 0.9380
7.606000 0.9380 0.9380 0.9380 0.9380 0.9380
7.639248 0.9380 0.9390 0.9390 0.9410 0.9410
7.673000 0.9410 0.9410 0.9390 0.9410 0.9410
7.706248 0.9430 0.9430 0.9440 0.9440 0.9440
7.739000 0.9440 0.9440 0.9440 0.9440 0.9440
7.772248 0.9440 0.9440 0.9460 0.9460 0.9480
7.805000 0.9480 0.9480 0.9480 0.9490 0.9490
7.838248 0.9510 0.9510 0.9510 0.9510 0.9530
7.872000 0.9530 0.9530 0.9530 0.9530 0.9530
7.905248 0.9530 0.9530 0.9530 0.9530 0.9540
7.938000 0.9540 0.9540 0.9540 0.9540 0.9540
7.971248 0.9530 0.9530 0.9530 0.9530 0.9530
8.005000 0.9530 0.9530 0.9530 0.9530 0.9530
8.038248 0.9530 0.9530 0.9530 0.9530 0.9530
8.071000 0.9510 0.9510 0.9530 0.9530 0.9540
8.104248 0.9540 0.9530 0.9510 0.9490 0.9490
8.138000 0.9490 0.9490 0.9490 0.9480 0.9480
8.171248 0.9480 0.9460 0.9440 0.9440 0.9440
8.204000 0.9440 0.9440 0.9440 0.9440 0.9430
8.237248 0.9410 0.9380 0.9340 0.9330 0.9310
8.271000 0.9290 0.9280 0.9260 0.9240 0.9240
8.304248 0.9240 0.9230 0.9210 0.9190 0.9160
8.337000 0.9140 0.9140 0.9130 0.9090 0.9040
8.370248 0.9040 0.9040 0.9030 0.9010 0.9010
8.404000 0.8970 0.8960 0.8920 0.8920 0.8910
8.437248 0.8910 0.8890 0.8890 0.8870 0.8870
8.470000 0.8870 0.8870 0.8860 0.8870 0.8870
8.503248 0.8870 0.8860 0.8860 0.8840 0.8820
8.537000 0.8790 0.8760 0.8720 0.8690 0.8660
8.570248 0.8640 0.8610 0.8590 0.8570 0.8560
8.603000 0.8520 0.8470 0.8420 0.8390 0.8360
8.636248 0.8320 0.8290 0.8220 0.8190 0.8140
8.669000 0.8110 0.8060 0.8020 0.8010 0.7900
8.702248 0.7820 0.7750 0.7700 0.7640 0.7590
8.736000 0.7540 0.7500 0.7420 0.7350 0.7250
8.769248 0.7190 0.7120 0.7040 0.6950 0.6850
8.802000 0.6720 0.6670 0.6470 0.6420 0.6350
8.835248 0.6250 0.6180 0.6050 0.6020 0.5900
8.869000 0.5800 0.5730 0.5650 0.5560 0.5430
8.902248 0.5310 0.5210 0.5160 0.5100 0.5050
8.935000 0.5030 0.5000 0.4940 0.4910 0.4860
8.968248 0.4810 0.4730 0.4660 0.4560 0.4510
9.002000 0.4460 0.4340 0.4280 0.4110 0.4040
9.035248 0.4030 0.3990 0.3990 0.3910 0.3860
9.068000 0.3790 0.3760 0.3690 0.3620 0.3540
9.101248 0.3510 0.3490 0.3460 0.3440 0.3420
9.135000 0.3410 0.3390 0.3370 0.3340 0.3340
9.168248 0.3320 0.3320 0.3320 0.3310 0.3310
9.201000 0.3310 0.3310 0.3320 0.3340 0.3340
9.234248 0.3360 0.3390 0.3410 0.3440 0.3490
9.268000 0.3540 0.3610 0.3640 0.3740 0.3760
9.301248 0.3860 0.3890 0.3970 0.4040 0.4140
9.334000 0.4190 0.4240 0.4310 0.4380 0.4410
9.367248 0.4440 0.4490 0.4530 0.4560 0.4640
9.401000 0.4690 0.4760 0.4860 0.4910 0.4960
9.434248 0.5050 0.5130 0.5180 0.5210 0.5280
9.467000 0.5350 0.5410 0.5500 0.5550 0.5580
9.500248 0.5650 0.5700 0.5810 0.6020 0.6120
9.534000 0.6220 0.6280 0.6350 0.6420 0.6480
9.567248 0.6530 0.6620 0.6700 0.6750 0.6820
9.600000 0.6920 0.7000 0.7040 0.7100 0.7170
9.633248 0.7240 0.7290 0.7320 0.7390 0.7420
9.666000 0.7500 0.7540 0.7600 0.7650 0.7740
9.699248 0.7750 0.7790 0.7840 0.7900 0.7920
9.733000 0.7950 0.7990 0.8010 0.8010 0.8010
9.766248 0.8020 0.8020 0.8040 0.8060 0.8090
9.799000 0.8140 0.8170 0.8210 0.8240 0.8260
9.832248 0.8270 0.8310 0.8340 0.8360 0.8360
9.866000 0.8390 0.8420 0.8440 0.8470 0.8510
9.899248 0.8520 0.8540 0.8560 0.8590 0.8610
9.932000 0.8610 0.8620 0.8640 0.8640 0.8660
9.965248 0.8670 0.8670 0.8670 0.8670 0.8690
9.999000 0.8710 0.8720 0.8720 0.8720 0.8720
10.032248 0.8740 0.8740 0.8740 0.8760 0.8760
10.065000 0.8760 0.8760 0.8760 0.8760 0.8760
10.098248 0.8760 0.8760 0.8760 0.8760 0.8760
10.132000 0.8760 0.8770 0.8790 0.8810 0.8810
10.165248 0.8810 0.8810 0.8820 0.8820 0.8820
10.198000 0.8820 0.8810 0.8810 0.8810 0.8820
10.231248 0.8820 0.8820 0.8820 0.8820 0.8820
10.265000 0.8820 0.8820 0.8820 0.8820 0.8820
10.298248 0.8840 0.8840 0.8840 0.8840 0.8840
10.331000 0.8860 0.8860 0.8870 0.8890 0.8910
10.364248 0.8910 0.8910 0.8920 0.8920 0.8920
10.398000 0.8920 0.8920 0.8920 0.8920 0.8920
10.431248 0.8920 0.8920 0.8920 0.8940 0.8940
10.464000 0.8940 0.8940 0.8940 0.8940 0.8940
10.497248 0.8920 0.8920 0.8920 0.8920 0.8920
10.531000 0.8920 0.8920 0.8920 0.8920 0.8920
10.564248 0.8920 0.8920 0.8920 0.8910 0.8910
10.597000 0.8890 0.8870 0.8870 0.8860 0.8860
10.630248 0.8860 0.8860 0.8860 0.8860 0.8860
10.663000 0.8860 0.8870 0.8870 0.8870 0.8870
10.696248 0.8870 0.8870 0.8870 0.8860 0.8860
10.730000 0.8860 0.8860 0.8860 0.8860 0.8860
10.763248 0.8860 0.8860 0.8860 0.8860 0.8860
10.796000 0.8860 0.8860 0.8870 0.8870 0.8860
10.829248 0.8870 0.8870 0.8890 0.8890 0.8890
10.863000 0.8890 0.8870 0.8870 0.8860 0.8860
10.896248 0.8840 0.8840 0.8840 0.8840 0.8840
10.929000 0.8840 0.8840 0.8820 0.8820 0.8820
10.962248 0.8840 0.8840 0.8860 0.8860 0.8860
10.996000 0.8860 0.8840 0.8840 0.8860 0.8860
11.029248 0.8860 0.8860 0.8860 0.8860 0.8860
11.062000 0.8860 0.8870 0.8870 0.8870 0.8890
11.095248 0.8890 0.8910 0.8910 0.8910 0.8910
11.129000 0.8890 0.8890 0.8890 0.8890 0.8910
11.162248 0.8910 0.8920 0.8920 0.8920 0.8920
11.195000 0.8940 0.8960 0.8960 0.8960 0.8960
11.228248 0.8960 0.8960 0.8960 0.8970 0.8970
11.262000 0.8970 0.8990 0.8990 0.8990 0.9010
11.295248 0.9010 0.9010 0.9010 0.9010 0.9010
11.328000 0.9010 0.9010 0.9010 0.9010 0.9010
11.361248 0.9010 0.8990 0.8990 0.8990 0.9010
11.395000 0.9010 0.9010 0.9030 0.9030 0.9030
11.428248 0.9030 0.9030 0.9030 0.9040 0.9040
11.461000 0.9040 0.9040 0.9040 0.9060 0.9060
11.494248 0.9060 0.9080 0.9060 0.9040 0.9040
11.527000 0.9040 0.9040 0.9040 0.9040 0.9040
11.560248 0.9040 0.9040 0.9060 0.9080 0.9080
11.594000 0.9080 0.9080 0.9090 0.9090 0.9090
11.627248 0.9090 0.9090 0.9090 0.9090 0.9110
11.660000 0.9110 0.9110 0.9130 0.9130 0.9140
11.693248 0.9140 0.9160 0.9160 0.9160 0.9160
11.727000 0.9160 0.9180 0.9190 0.9190 0.9210
11.760248 0.9210 0.9210 0.9210 0.9210 0.9210
11.793000 0.9210 0.9210 0.9230 0.9230 0.9230
11.826248 0.9240 0.9240 0.9240 0.9260 0.9260
11.860000 0.9260 0.9260 0.9280 0.9280 0.9280
11.893248 0.9280 0.9280 0.9280 0.9280 0.9280
11.926000 0.9280 0.9280 0.9290 0.9290 0.9310
11.959248 0.9330 0.9330 0.9340 0.9340 0.9360
11.993000 0.9360 0.9360 0.9360 0.9380 0.9390
12.026248 0.9390 0.9390 0.9410 0.9410 0.9410
12.059000 0.9410 0.9390 0.9380 0.9380 0.9380
12.092248 0.9380 0.9380 0.9380 0.9380 0.9380
12.126000 0.9380 0.9390 0.9390 0.9390 0.9410
12.159248 0.9410 0.9410 0.9410 0.9410 0.9410
12.192000 0.9410 0.9410 0.9410 0.9410 0.9410
12.225248 0.9410 0.9410 0.9410 0.9410 0.9410
12.259000 0.9410 0.9410 0.9410 0.9410 0.9410
12.292248 0.9410 0.9410 0.9410 0.9410 0.9410
12.325000 0.9390 0.9390 0.9410 0.9410 0.9410
12.358248 0.9410 0.9410 0.9410 0.9410 0.9430
12.392000 0.9410 0.9410 0.9410 0.9410 0.9430
12.425248 0.9410 0.9410 0.9410 0.9410 0.9410
12.458000 0.9410 0.9410 0.9410 0.9410 0.9410
12.491248 0.9410 0.9410 0.9390 0.9390 0.9380
12.524000 0.9360 0.9360 0.9360 0.9380 0.9380
12.557248 0.9380 0.9380 0.9380 0.9380 0.9380
12.591000 0.9380 0.9380 0.9380 0.9360 0.9340
12.624248 0.9330 0.9330 0.9310 0.9310 0.9310
12.657000 0.9290 0.9290 0.9290 0.9280 0.9280
12.690248 0.9280 0.9260 0.9260 0.9260 0.9260
12.724000 0.9260 0.9260 0.9260 0.9260 0.9240
12.757248 0.9240 0.9260 0.9260 0.9240 0.9230
12.790000 0.9210 0.9160 0.9140 0.9140 0.9140
12.823248 0.9140 0.9140 0.9140 0.9140 0.9140
12.857000 0.9140 0.9130 0.9130 0.9130 0.9130
12.890248 0.9130 0.9110 0.9080 0.9060 0.9040
12.923000 0.9040 0.9040 0.9040 0.9040 0.9040
12.956248 0.9040 0.9040 0.9030 0.9030 0.9010
12.990000 0.9010 0.9010 0.9010 0.9010 0.9010
13.023248 0.9010 0.9010 0.8990 0.8990 0.8990
13.056000 0.8990 0.8990 0.8990 0.8970 0.8970
13.089248 0.8990 0.8990 0.8990 0.8990 0.8960
13.123000 0.8960 0.8940 0.8940 0.8920 0.8920
13.156248 0.8910 0.8910 0.8910 0.8890 0.8890
13.189000 0.8870 0.8870 0.8860 0.8860 0.8860
13.222248 0.8860 0.8840 0.8840 0.8840 0.8840
13.256000 0.8840 0.8840 0.8840 0.8840 0.8840
13.289248 0.8820 0.8810 0.8810 0.8790 0.8790
13.322000 0.8770 0.8770 0.8760 0.8760 0.8740
13.355248 0.8740 0.8740 0.8740 0.8720 0.8720
13.389000 0.8720 0.8710 0.8690 0.8670 0.8640
13.422248 0.8640 0.8620 0.8620 0.8610 0.8610
13.455000 0.8590 0.8570 0.8560 0.8540 0.8540
13.488248 0.8520 0.8510 0.8490 0.8470 0.8460
13.521000 0.8460 0.8440 0.8420 0.8420 0.8390
13.554248 0.8370 0.8360 0.8340 0.8340 0.8320
13.588000 0.8310 0.8310 0.8290 0.8260 0.8210
13.621248 0.8210 0.8190 0.8160 0.8140 0.8120
13.654000 0.8110 0.8060 0.8040 0.8040 0.8020
13.687248 0.8010 0.8010 0.8010 0.8010 0.7990
13.721000 0.7990 0.7990 0.7970 0.7940 0.7920
13.754248 0.7900 0.7900 0.7850 0.7840 0.7840
13.787000 0.7820 0.7800 0.7800 0.7790 0.7790
13.820248 0.7790 0.7790 0.7770 0.7770 0.7770
13.854000 0.7750 0.7750 0.7750 0.7750 0.7750
13.887248 0.7740 0.7720 0.7720 0.7700 0.7700
13.920000 0.7700 0.7700 0.7690 0.7690 0.7670
13.953248 0.7650 0.7640 0.7640 0.7640 0.7620
13.987000 0.7640 0.7640 0.7620 0.7620 0.7600
14.020248 0.7570 0.7570 0.7550 0.7550 0.7550
14.053000 0.7540 0.7500 0.7500 0.7470 0.7450
14.086248 0.7450 0.7450 0.7470 0.7470 0.7470
14.120000 0.7450 0.7450 0.7450 0.7450 0.7470
14.153248 0.7470 0.7450 0.7450 0.7440 0.7400
14.186000 0.7370 0.7350 0.7350 0.7350 0.7340
14.219248 0.7340 0.7320 0.7320 0.7300 0.7290
14.253000 0.7250 0.7250 0.7240 0.7240 0.7220
14.286248 0.7200 0.7190 0.7190 0.7170 0.7170
14.319000 0.7150 0.7150 0.7140 0.7120 0.7120
14.352248 0.7070 0.7050 0.7050 0.7050 0.7040
14.385000 0.7040 0.7040 0.7040 0.7040 0.7050
14.418248 0.7050 0.7040 0.7040 0.7020 0.7020
14.452000 0.7020 0.7020 0.7000 0.7000 0.7000
14.485248 0.7000 0.7000 0.7000 0.7000 0.7000
14.518000 0.7000 0.7000 0.6980 0.6970 0.6970
14.551248 0.6980 0.6980 0.6980 0.6980 0.6980
14.585000 0.6980 0.6970 0.6970 0.6970 0.6950
14.618248 0.6950 0.6950 0.6950 0.6950 0.6930
14.651000 0.6900 0.6880 0.6880 0.6880 0.6880
14.684248 0.6870 0.6850 0.6850 0.6850 0.6850
14.718000 0.6830 0.6830 0.6830 0.6820 0.6820
14.751248 0.6800 0.6800 0.6770 0.6770 0.6750
14.784000 0.6730 0.6730 0.6720 0.6720 0.6730
14.817248 0.6730 0.6730 0.6750 0.6770 0.6770
14.851000 0.6780 0.6780 0.6800 0.6800 0.6800
14.884248 0.6800 0.6770 0.6750 0.6730 0.6730
14.917000 0.6720 0.6700 0.6700 0.6680 0.6680
14.950248 0.6680 0.6670 0.6670 0.6670 0.6670
14.984000 0.6670 0.6670 0.6670 0.6680 0.6670
15.017248 0.6680 0.6670 0.6670 0.6670 0.6670
15.050000 0.6650 0.6650 0.6650 0.6650 0.6650
15.083248 0.6650 0.6650 0.6630 0.6620 0.6620
15.117000 0.6600 0.6600 0.6600 0.6600 0.6600
15.150248 0.6600 0.6580 0.6580 0.6550 0.6550
15.183000 0.6550 0.6550 0.6550 0.6550 0.6550
15.216248 0.6570 0.6600 0.6620 0.6620 0.6630
15.250000 0.6630 0.6630 0.6620 0.6600 0.6580
15.283248 0.6580 0.6580 0.6570 0.6570 0.6550
15.316000 0.6550 0.6550 0.6550 0.6570 0.6580
15.349248 0.6580 0.6600 0.6600 0.6620 0.6620
15.382000 0.6620 0.6620 0.6620 0.6620 0.6620
15.415248 0.6600 0.6620 0.6600 0.6600 0.6600
15.449000 0.6600 0.6600 0.6600 0.6600 0.6570
15.482248 0.6570 0.6570 0.6550 0.6550 0.6570
15.515000 0.6570 0.6570 0.6570 0.6570 0.6570
15.548248 0.6570 0.6570 0.6550 0.6550 0.6570
15.582000 0.6570 0.6570 0.6570 0.6570 0.6570
15.615248 0.6570 0.6570 0.6580 0.6580 0.6580
15.648000 0.6580 0.6580 0.6580 0.6570 0.6570
15.681248 0.6570 0.6570 0.6550 0.6550 0.6550
15.715000 0.6550 0.6570 0.6570 0.6570 0.6570
15.748248 0.6570 0.6570 0.6570 0.6570 0.6570
15.781000 0.6570 0.6570 0.6570 0.6570 0.6580
15.814248 0.6600 0.6620 0.6620 0.6620 0.6620
15.848000 0.6620 0.6620 0.6620 0.6620 0.6620
15.881248 0.6630 0.6630 0.6630 0.6630 0.6630
15.914000 0.6630 0.6620 0.6620 0.6630 0.6630
15.947248 0.6630 0.6650 0.6670 0.6680 0.6680
15.981000 0.6680 0.6680 0.6680 0.6720 0.6700
16.014248 0.6720
##END=
