##TITLE=SODIUM TRIPOLYPHOSPHATE, FORM II
##JCAMP-DX=4.24
##DATA TYPE=INFRARED SPECTRUM
##CLASS=COBLENTZ
##ORIGIN=PROCTER AND GAMBLE CO.
##OWNER=COBLENTZ SOCIETY
Collection (C) 2018 copyright by the U.S. Secretary of Commerce
on behalf of the United States of America. All rights reserved.
##DATE=Not specified, most likely prior to 1970
##MOLFORM=O10 P3 Na5
##SOURCE REFERENCE=COBLENTZ NO. 2083
##$NIST ID=B6002083
##$NIST SOURCE=COBLENTZ
##$NIST IMAGE=cob2083
##SPECTROMETER/DATA SYSTEM=PERKIN-ELMER 421 (GRATING)
##INSTRUMENT PARAMETERS=GRATING CHANGE AT 1999 CM^-^1
##STATE=SOLID (1.2 mg / 400 mg KBr PELLET)
##SAMPLING PROCEDURE=TRANSMISSION
##RESOLUTION=4
##DATA PROCESSING=DIGITIZED BY NIST FROM HARD COPY (FROM TWO SEGMENTS)
##XUNITS=1/CM
##YUNITS=TRANSMITTANCE
##XFACTOR=1.000000
##YFACTOR=1
##DELTAX=1.128670
##FIRSTX=506.772
##LASTX=3994.36
##FIRSTY=0.709
##MAXX=3994.36
##MINX=506.772
##MAXY=0.904
##MINY=0.0250088
##NPOINTS=3091
##XYDATA=(X++(Y..Y))
506.772000 0.7090 0.7090 0.7090 0.7090 0.7090
512.415351 0.7090 0.7090 0.7090 0.7090 0.7090
518.058701 0.7090 0.7070 0.7070 0.7050 0.7050
523.702052 0.7040 0.7040 0.7020 0.7000 0.7000
529.345402 0.6990 0.6970 0.6970 0.6950 0.6900
534.988753 0.6870 0.6760 0.6660 0.6471 0.6301
540.632104 0.6180 0.6080 0.6030 0.6000 0.5960
546.275454 0.5960 0.5940 0.5940 0.6079 0.6150
551.918805 0.6200 0.6410 0.6410 0.6410 0.6350
557.562155 0.6320 0.6201 0.6081 0.5861 0.5602
563.205506 0.5400 0.5330 0.5190 0.4761 0.4181
568.848856 0.3771 0.3531 0.3291 0.3280 0.3290
574.492207 0.3310 0.3500 0.3700 0.3930 0.4149
580.135558 0.4409 0.4659 0.4919 0.5159 0.5379
585.778908 0.5580 0.5740 0.5790 0.5860 0.5890
591.422259 0.5890 0.5860 0.5840 0.5820 0.5790
597.065609 0.5690 0.5400 0.5040 0.4511 0.4081
602.708960 0.3651 0.3281 0.2832 0.2641 0.2630
608.352311 0.2630 0.2750 0.2950 0.3190 0.3479
613.995661 0.3669 0.3939 0.4268 0.4538 0.4848
619.639012 0.5090 0.5360 0.5670 0.5999 0.6319
625.282362 0.6629 0.6939 0.7189 0.7379 0.7618
630.925713 0.7810 0.7960 0.8100 0.8200 0.8270
636.569064 0.8340 0.8390 0.8420 0.8420 0.8440
642.212414 0.8440 0.8420 0.8410 0.8370 0.8350
647.855765 0.8290 0.8180 0.8100 0.7762 0.7412
653.499115 0.7380 0.7280 0.6681 0.5982 0.5053
659.142466 0.4343 0.3822 0.2835 0.2820 0.2820
664.785816 0.2850 0.2880 0.3020 0.3170 0.3359
670.429167 0.3569 0.3839 0.4298 0.4459 0.4639
676.072518 0.4920 0.5110 0.5330 0.5520 0.5700
681.715868 0.5879 0.6129 0.6349 0.6539 0.6709
687.359219 0.6880 0.7050 0.7210 0.7350 0.7480
693.002569 0.7620 0.7739 0.7839 0.7890 0.7940
698.645920 0.8000 0.8030 0.8080 0.8130 0.8180
704.289271 0.8220 0.8230 0.8250 0.8250 0.8270
709.932621 0.8270 0.8270 0.8270 0.8250 0.8250
715.575972 0.8230 0.8230 0.8220 0.8180 0.8170
721.219322 0.8150 0.8110 0.8080 0.8000 0.7940
726.862673 0.7810 0.7700 0.7471 0.7192 0.6832
732.506024 0.6420 0.5721 0.4941 0.4920 0.4940
738.149374 0.5109 0.5498 0.5788 0.5959 0.6467
743.792725 0.6800 0.7120 0.7450 0.7690 0.7880
749.436075 0.8049 0.8180 0.8319 0.8439 0.8520
755.079426 0.8630 0.8700 0.8750 0.8760 0.8780
760.722776 0.8830 0.8900 0.8920 0.8940 0.8950
766.366127 0.8970 0.8990 0.9000 0.9000 0.9020
772.009478 0.9040 0.9040 0.9040 0.9040 0.9020
777.652828 0.9020 0.9020 0.9020 0.9040 0.9040
783.296179 0.9020 0.9000 0.9000 0.9000 0.9000
788.939529 0.9020 0.9020 0.9020 0.9000 0.8990
794.582880 0.8970 0.8970 0.8970 0.8970 0.8970
800.226231 0.8990 0.8990 0.8990 0.9000 0.9000
805.869581 0.9000 0.9000 0.9000 0.9000 0.9000
811.512932 0.8990 0.8970 0.8970 0.8950 0.8940
817.156282 0.8940 0.8920 0.8900 0.8900 0.8880
822.799633 0.8870 0.8830 0.8820 0.8820 0.8820
828.442984 0.8800 0.8800 0.8800 0.8780 0.8750
834.086334 0.8730 0.8730 0.8700 0.8680 0.8660
839.729685 0.8630 0.8610 0.8580 0.8560 0.8540
845.373035 0.8490 0.8440 0.8410 0.8410 0.8370
851.016386 0.8320 0.8270 0.8230 0.8150 0.8080
856.659737 0.7980 0.7910 0.7810 0.7740 0.7640
862.303087 0.7530 0.7410 0.7291 0.7141 0.7051
867.946438 0.6940 0.6820 0.6580 0.6350 0.6151
873.589788 0.5941 0.5741 0.5471 0.5231 0.4972
879.233139 0.4700 0.4350 0.3960 0.3451 0.3310
884.876489 0.3001 0.2751 0.2521 0.2202 0.1942
890.519840 0.1670 0.1430 0.1260 0.1110 0.1000
896.163191 0.0970 0.0940 0.0900 0.0880 0.0880
901.806541 0.0880 0.0880 0.0900 0.0990 0.1020
907.449892 0.1160 0.1260 0.1330 0.1529 0.1600
913.093242 0.1840 0.2030 0.2170 0.2300 0.2440
918.736593 0.2580 0.2729 0.2919 0.3139 0.3259
924.379944 0.3360 0.3500 0.3620 0.3770 0.3910
930.023294 0.4030 0.4130 0.4230 0.4389 0.4470
935.666645 0.4590 0.4710 0.4800 0.4880 0.5000
941.309995 0.5040 0.5090 0.5110 0.5110 0.5070
946.953346 0.5070 0.5040 0.5040 0.5040 0.5070
952.596697 0.5229 0.5349 0.5430 0.5569 0.5699
958.240047 0.5890 0.6080 0.6320 0.6540 0.6710
963.883398 0.6870 0.6990 0.7090 0.7170 0.7279
969.526748 0.7360 0.7450 0.7500 0.7550 0.7580
975.170099 0.7650 0.7690 0.7700 0.7740 0.7760
980.813449 0.7770 0.7770 0.7790 0.7790 0.7810
986.456800 0.7810 0.7840 0.7880 0.7890 0.7890
992.100151 0.7910 0.7930 0.7940 0.8000 0.8010
997.743501 0.8060 0.8100 0.8100 0.8100 0.8100
1003.386852 0.8100 0.8060 0.8030 0.8000 0.7980
1009.030202 0.7940 0.7741 0.7113 0.5707 0.5690
1014.673553 0.5700 0.6540 0.7000 0.7379 0.7639
1020.316904 0.7819 0.7930 0.7960 0.8000 0.8000
1025.960254 0.8000 0.8000 0.8000 0.8010 0.8030
1031.603605 0.8030 0.8030 0.8050 0.8050 0.8050
1037.246955 0.8050 0.8050 0.8050 0.8050 0.8050
1042.890306 0.8030 0.7960 0.7910 0.7880 0.7860
1048.533657 0.7820 0.7810 0.7790 0.7760 0.7690
1054.177007 0.7670 0.7650 0.7640 0.7600 0.7580
1059.820358 0.7570 0.7530 0.7480 0.7430 0.7380
1065.463708 0.7290 0.7260 0.7210 0.7120 0.7070
1071.107059 0.7000 0.6920 0.6760 0.6750 0.6630
1076.750409 0.6460 0.6271 0.6111 0.6030 0.5891
1082.393760 0.5650 0.5310 0.4940 0.4471 0.3742
1088.037111 0.3291 0.2662 0.2103 0.1792 0.1671
1093.680461 0.1650 0.1650 0.2100 0.2639 0.3019
1099.323812 0.3479 0.3958 0.4388 0.4818 0.5208
1104.967162 0.5310 0.5360 0.5430 0.5430 0.5430
1110.610513 0.5410 0.5350 0.5141 0.5001 0.4821
1116.253864 0.4700 0.4540 0.4410 0.4130 0.3980
1121.897214 0.3791 0.3571 0.3311 0.3071 0.2831
1127.540565 0.2630 0.2440 0.2300 0.1931 0.1571
1133.183915 0.1281 0.1021 0.0920 0.0821 0.0641
1138.827266 0.0490 0.0410 0.0370 0.0390 0.0440
1144.470617 0.0470 0.0580 0.0709 0.0849 0.0850
1150.113967 0.0820 0.0730 0.0640 0.0520 0.0440
1155.757318 0.0350 0.0270 0.0250 0.0270 0.0270
1161.400668 0.0270 0.0290 0.0290 0.0290 0.0290
1167.044019 0.0300 0.0340 0.0340 0.0350 0.0410
1172.687369 0.0490 0.0540 0.0700 0.0800 0.0820
1178.330720 0.0800 0.0700 0.0660 0.0680 0.0988
1183.974071 0.1280 0.1530 0.1840 0.2150 0.2439
1189.617421 0.2659 0.2949 0.3169 0.3379 0.3569
1195.260772 0.3740 0.3810 0.3810 0.3690 0.3570
1200.904122 0.3111 0.2562 0.2013 0.1523 0.1162
1206.547473 0.1070 0.0970 0.0870 0.0850 0.0990
1212.190824 0.1120 0.1309 0.1519 0.1699 0.1909
1217.834174 0.2150 0.2350 0.2610 0.2850 0.3050
1223.477525 0.3239 0.3399 0.3549 0.3699 0.3879
1229.120875 0.4050 0.4220 0.4370 0.4560 0.4660
1234.764226 0.4780 0.4919 0.5049 0.5209 0.5329
1240.407577 0.5410 0.5530 0.5650 0.5700 0.5790
1246.050927 0.5860 0.5980 0.6060 0.6169 0.6200
1251.694278 0.6290 0.6340 0.6370 0.6440 0.6470
1257.337628 0.6540 0.6630 0.6640 0.6680 0.6730
1262.980979 0.6780 0.6830 0.6850 0.6880 0.6920
1268.624329 0.6950 0.6970 0.6990 0.7020 0.7050
1274.267680 0.7070 0.7070 0.7110 0.7120 0.7160
1279.911031 0.7240 0.7260 0.7280 0.7290 0.7290
1285.554381 0.7290 0.7290 0.7350 0.7380 0.7400
1291.197732 0.7410 0.7450 0.7470 0.7470 0.7480
1296.841082 0.7500 0.7520 0.7530 0.7530 0.7550
1302.484433 0.7550 0.7570 0.7570 0.7580 0.7600
1308.127784 0.7600 0.7600 0.7620 0.7620 0.7620
1313.771134 0.7640 0.7640 0.7650 0.7700 0.7700
1319.414485 0.7720 0.7720 0.7740 0.7770 0.7790
1325.057835 0.7810 0.7810 0.7810 0.7810 0.7810
1330.701186 0.7820 0.7820 0.7820 0.7840 0.7840
1336.344537 0.7840 0.7840 0.7840 0.7860 0.7880
1341.987887 0.7880 0.7880 0.7880 0.7890 0.7890
1347.631238 0.7890 0.7890 0.7890 0.7890 0.7910
1353.274588 0.7940 0.7940 0.7960 0.7960 0.7960
1358.917939 0.7980 0.8000 0.8000 0.8010 0.8050
1364.561290 0.8050 0.8050 0.8050 0.8050 0.8050
1370.204640 0.8050 0.8050 0.8050 0.8050 0.8050
1375.847991 0.8050 0.8060 0.8060 0.8080 0.8080
1381.491341 0.8080 0.8080 0.8080 0.8080 0.8100
1387.134692 0.8100 0.8100 0.8100 0.8080 0.8080
1392.778042 0.8080 0.8080 0.8080 0.8080 0.8100
1398.421393 0.8100 0.8110 0.8110 0.8110 0.8130
1404.064744 0.8130 0.8130 0.8130 0.8130 0.8130
1409.708094 0.8130 0.8130 0.8150 0.8170 0.8170
1415.351445 0.8170 0.8170 0.8170 0.8180 0.8200
1420.994795 0.8200 0.8200 0.8220 0.8220 0.8220
1426.638146 0.8220 0.8220 0.8220 0.8220 0.8220
1432.281497 0.8220 0.8220 0.8220 0.8220 0.8220
1437.924847 0.8220 0.8220 0.8220 0.8220 0.8200
1443.568198 0.8200 0.8200 0.8180 0.8180 0.8170
1449.211548 0.8170 0.8170 0.8170 0.8170 0.8170
1454.854899 0.8170 0.8170 0.8170 0.8170 0.8180
1460.498250 0.8180 0.8180 0.8180 0.8180 0.8200
1466.141600 0.8200 0.8200 0.8220 0.8220 0.8220
1471.784951 0.8220 0.8230 0.8230 0.8230 0.8250
1477.428301 0.8270 0.8270 0.8290 0.8290 0.8290
1483.071652 0.8290 0.8290 0.8290 0.8300 0.8300
1488.715002 0.8300 0.8320 0.8320 0.8320 0.8320
1494.358353 0.8320 0.8320 0.8320 0.8320 0.8320
1500.001704 0.8320 0.8320 0.8320 0.8320 0.8320
1505.645054 0.8320 0.8340 0.8350 0.8350 0.8350
1511.288405 0.8350 0.8350 0.8350 0.8340 0.8350
1516.931755 0.8350 0.8350 0.8350 0.8350 0.8350
1522.575106 0.8370 0.8370 0.8370 0.8370 0.8370
1528.218457 0.8370 0.8370 0.8370 0.8370 0.8370
1533.861807 0.8390 0.8390 0.8370 0.8370 0.8370
1539.505158 0.8370 0.8370 0.8370 0.8390 0.8390
1545.148508 0.8390 0.8390 0.8390 0.8390 0.8390
1550.791859 0.8370 0.8370 0.8350 0.8350 0.8340
1556.435210 0.8340 0.8300 0.8290 0.8270 0.8250
1562.078560 0.8250 0.8230 0.8230 0.8230 0.8230
1567.721911 0.8230 0.8230 0.8230 0.8230 0.8230
1573.365261 0.8230 0.8230 0.8230 0.8230 0.8230
1579.008612 0.8230 0.8220 0.8200 0.8200 0.8180
1584.651962 0.8180 0.8180 0.8180 0.8180 0.8180
1590.295313 0.8180 0.8180 0.8180 0.8170 0.8170
1595.938664 0.8170 0.8170 0.8170 0.8170 0.8150
1601.582014 0.8150 0.8130 0.8130 0.8130 0.8130
1607.225365 0.8110 0.8100 0.8080 0.8060 0.8060
1612.868715 0.8030 0.8010 0.8010 0.7980 0.7980
1618.512066 0.7980 0.7960 0.7940 0.7940 0.7940
1624.155417 0.7940 0.7930 0.7930 0.7930 0.7930
1629.798767 0.7940 0.7940 0.7960 0.7960 0.7960
1635.442118 0.7960 0.7980 0.8000 0.8000 0.8010
1641.085468 0.8010 0.8030 0.8060 0.8080 0.8080
1646.728819 0.8080 0.8100 0.8100 0.8100 0.8130
1652.372170 0.8130 0.8130 0.8130 0.8130 0.8130
1658.015520 0.8130 0.8130 0.8130 0.8130 0.8150
1663.658871 0.8170 0.8170 0.8180 0.8180 0.8200
1669.302221 0.8200 0.8200 0.8220 0.8230 0.8230
1674.945572 0.8230 0.8250 0.8250 0.8270 0.8290
1680.588922 0.8290 0.8300 0.8300 0.8320 0.8320
1686.232273 0.8340 0.8350 0.8350 0.8350 0.8350
1691.875624 0.8350 0.8350 0.8350 0.8350 0.8350
1697.518974 0.8350 0.8350 0.8350 0.8350 0.8370
1703.162325 0.8410 0.8410 0.8410 0.8420 0.8420
1708.805675 0.8420 0.8420 0.8420 0.8410 0.8410
1714.449026 0.8410 0.8410 0.8410 0.8420 0.8420
1720.092377 0.8440 0.8440 0.8440 0.8440 0.8420
1725.735727 0.8420 0.8420 0.8420 0.8420 0.8420
1731.379078 0.8420 0.8420 0.8420 0.8420 0.8420
1737.022428 0.8420 0.8420 0.8440 0.8440 0.8440
1742.665779 0.8460 0.8460 0.8460 0.8470 0.8470
1748.309130 0.8470 0.8490 0.8490 0.8510 0.8510
1753.952480 0.8510 0.8510 0.8510 0.8520 0.8520
1759.595831 0.8520 0.8520 0.8520 0.8520 0.8520
1765.239181 0.8540 0.8540 0.8520 0.8520 0.8520
1770.882532 0.8520 0.8520 0.8540 0.8540 0.8540
1776.525882 0.8540 0.8540 0.8540 0.8540 0.8540
1782.169233 0.8540 0.8540 0.8560 0.8560 0.8580
1787.812584 0.8580 0.8580 0.8580 0.8580 0.8580
1793.455934 0.8580 0.8580 0.8560 0.8560 0.8560
1799.099285 0.8560 0.8560 0.8540 0.8540 0.8540
1804.742635 0.8540 0.8540 0.8540 0.8540 0.8540
1810.385986 0.8540 0.8540 0.8540 0.8540 0.8580
1816.029337 0.8580 0.8580 0.8580 0.8580 0.8580
1821.672687 0.8580 0.8580 0.8580 0.8590 0.8590
1827.316038 0.8590 0.8590 0.8590 0.8590 0.8590
1832.959388 0.8590 0.8590 0.8590 0.8590 0.8590
1838.602739 0.8590 0.8590 0.8610 0.8610 0.8610
1844.246090 0.8610 0.8610 0.8610 0.8610 0.8610
1849.889440 0.8610 0.8630 0.8630 0.8630 0.8630
1855.532791 0.8630 0.8630 0.8630 0.8630 0.8640
1861.176141 0.8660 0.8680 0.8660 0.8640 0.8640
1866.819492 0.8640 0.8640 0.8640 0.8640 0.8640
1872.462842 0.8640 0.8640 0.8640 0.8640 0.8660
1878.106193 0.8660 0.8660 0.8660 0.8660 0.8660
1883.749544 0.8660 0.8660 0.8640 0.8630 0.8630
1889.392894 0.8630 0.8630 0.8630 0.8660 0.8660
1895.036245 0.8640 0.8640 0.8640 0.8640 0.8640
1900.679595 0.8640 0.8660 0.8660 0.8660 0.8660
1906.322946 0.8660 0.8660 0.8640 0.8640 0.8660
1911.966297 0.8660 0.8660 0.8660 0.8660 0.8660
1917.609647 0.8660 0.8660 0.8660 0.8660 0.8660
1923.252998 0.8660 0.8660 0.8660 0.8660 0.8660
1928.896348 0.8660 0.8660 0.8660 0.8660 0.8660
1934.539699 0.8660 0.8660 0.8660 0.8660 0.8640
1940.183050 0.8640 0.8640 0.8640 0.8640 0.8700
1945.826400 0.8700 0.8680 0.8660 0.8640 0.8640
1951.469751 0.8640 0.8640 0.8640 0.8640 0.8640
1957.113101 0.8640 0.8640 0.8640 0.8640 0.8640
1962.756452 0.8640 0.8640 0.8640 0.8640 0.8640
1968.399803 0.8660 0.8660 0.8660 0.8660 0.8660
1974.043153 0.8640 0.8640 0.8660 0.8660 0.8660
1979.686504 0.8680 0.8680 0.8680 0.8700 0.8700
1985.329854 0.8700 0.8680 0.8680 0.8660 0.8660
1990.973205 0.8660 0.8660 0.8660 0.8630 0.8630
1996.616555 0.8540 0.8410 0.8100 0.8100 0.8148
2002.259906 0.8196 0.8288 0.8424 0.8560 0.8588
2007.903257 0.8616 0.8630 0.8630 0.8630 0.8634
2013.546607 0.8638 0.8640 0.8640 0.8640 0.8640
2019.189958 0.8640 0.8644 0.8652 0.8660 0.8660
2024.833308 0.8660 0.8656 0.8648 0.8640 0.8640
2030.476659 0.8640 0.8638 0.8634 0.8630 0.8630
2036.120010 0.8630 0.8630 0.8630 0.8630 0.8630
2041.763360 0.8630 0.8630 0.8630 0.8630 0.8630
2047.406711 0.8630 0.8630 0.8630 0.8630 0.8630
2053.050061 0.8630 0.8630 0.8630 0.8630 0.8622
2058.693412 0.8614 0.8610 0.8610 0.8610 0.8610
2064.336763 0.8610 0.8610 0.8610 0.8610 0.8610
2069.980113 0.8610 0.8610 0.8610 0.8610 0.8610
2075.623464 0.8610 0.8610 0.8610 0.8610 0.8610
2081.266814 0.8610 0.8610 0.8610 0.8610 0.8610
2086.910165 0.8610 0.8610 0.8610 0.8610 0.8610
2092.553515 0.8610 0.8610 0.8610 0.8610 0.8610
2098.196866 0.8610 0.8614 0.8622 0.8630 0.8630
2103.840217 0.8630 0.8626 0.8618 0.8610 0.8610
2109.483567 0.8610 0.8606 0.8598 0.8590 0.8590
2115.126918 0.8590 0.8590 0.8590 0.8590 0.8590
2120.770268 0.8590 0.8588 0.8584 0.8580 0.8580
2126.413619 0.8580 0.8580 0.8580 0.8580 0.8580
2132.056970 0.8580 0.8580 0.8580 0.8580 0.8580
2137.700320 0.8580 0.8576 0.8568 0.8560 0.8560
2143.343671 0.8560 0.8560 0.8560 0.8560 0.8560
2148.987021 0.8560 0.8560 0.8560 0.8560 0.8560
2154.630372 0.8560 0.8556 0.8548 0.8540 0.8540
2160.273723 0.8540 0.8540 0.8540 0.8540 0.8540
2165.917073 0.8540 0.8540 0.8540 0.8540 0.8540
2171.560424 0.8540 0.8540 0.8540 0.8540 0.8540
2177.203774 0.8540 0.8540 0.8540 0.8540 0.8540
2182.847125 0.8540 0.8540 0.8540 0.8540 0.8540
2188.490475 0.8540 0.8540 0.8540 0.8540 0.8540
2194.133826 0.8540 0.8544 0.8552 0.8560 0.8560
2199.777177 0.8560 0.8564 0.8572 0.8580 0.8580
2205.420527 0.8580 0.8580 0.8580 0.8580 0.8580
2211.063878 0.8580 0.8580 0.8580 0.8580 0.8580
2216.707228 0.8580 0.8580 0.8580 0.8580 0.8580
2222.350579 0.8580 0.8580 0.8580 0.8580 0.8580
2227.993930 0.8580 0.8580 0.8580 0.8580 0.8580
2233.637280 0.8580 0.8580 0.8580 0.8580 0.8580
2239.280631 0.8580 0.8580 0.8580 0.8580 0.8580
2244.923981 0.8580 0.8580 0.8580 0.8580 0.8580
2250.567332 0.8580 0.8576 0.8568 0.8560 0.8560
2256.210683 0.8560 0.8560 0.8560 0.8560 0.8560
2261.854033 0.8560 0.8560 0.8560 0.8560 0.8560
2267.497384 0.8560 0.8560 0.8560 0.8560 0.8560
2273.140734 0.8560 0.8556 0.8548 0.8540 0.8532
2278.784085 0.8524 0.8520 0.8520 0.8520 0.8516
2284.427435 0.8512 0.8505 0.8497 0.8490 0.8490
2290.070786 0.8490 0.8485 0.8477 0.8470 0.8466
2295.714137 0.8462 0.8460 0.8460 0.8460 0.8460
2301.357487 0.8460 0.8460 0.8460 0.8460 0.8460
2307.000838 0.8460 0.8460 0.8460 0.8460 0.8460
2312.644188 0.8460 0.8460 0.8460 0.8460 0.8460
2318.287539 0.8460 0.8460 0.8460 0.8460 0.8460
2323.930890 0.8460 0.8460 0.8460 0.8460 0.8460
2329.574240 0.8460 0.8460 0.8460 0.8460 0.8460
2335.217591 0.8460 0.8460 0.8460 0.8460 0.8460
2340.860941 0.8460 0.8462 0.8466 0.8470 0.8466
2346.504292 0.8462 0.8462 0.8466 0.8470 0.8466
2352.147643 0.8462 0.8455 0.8447 0.8441 0.8449
2357.790993 0.8457 0.8460 0.8460 0.8460 0.8460
2363.434344 0.8460 0.8460 0.8460 0.8460 0.8460
2369.077694 0.8460 0.8460 0.8460 0.8460 0.8460
2374.721045 0.8460 0.8460 0.8460 0.8460 0.8460
2380.364395 0.8460 0.8460 0.8460 0.8460 0.8464
2386.007746 0.8468 0.8475 0.8483 0.8491 0.8499
2391.651097 0.8507 0.8510 0.8510 0.8510 0.8510
2397.294447 0.8510 0.8510 0.8510 0.8508 0.8492
2402.937798 0.8477 0.8468 0.8464 0.8460 0.8460
2408.581148 0.8460 0.8455 0.8447 0.8440 0.8440
2414.224499 0.8440 0.8440 0.8440 0.8440 0.8440
2419.867850 0.8440 0.8440 0.8440 0.8439 0.8431
2425.511200 0.8423 0.8420 0.8420 0.8421 0.8429
2431.154551 0.8437 0.8440 0.8440 0.8440 0.8440
2436.797901 0.8440 0.8440 0.8440 0.8440 0.8440
2442.441252 0.8440 0.8440 0.8440 0.8440 0.8440
2448.084603 0.8440 0.8435 0.8427 0.8420 0.8420
2453.727953 0.8420 0.8420 0.8420 0.8420 0.8420
2459.371304 0.8420 0.8418 0.8414 0.8410 0.8410
2465.014654 0.8410 0.8410 0.8410 0.8410 0.8410
2470.658005 0.8410 0.8412 0.8416 0.8420 0.8420
2476.301355 0.8420 0.8420 0.8420 0.8420 0.8420
2481.944706 0.8420 0.8420 0.8420 0.8420 0.8420
2487.588057 0.8420 0.8420 0.8420 0.8420 0.8420
2493.231407 0.8420 0.8418 0.8414 0.8410 0.8410
2498.874758 0.8410 0.8410 0.8410 0.8410 0.8410
2504.518108 0.8410 0.8410 0.8410 0.8410 0.8410
2510.161459 0.8410 0.8413 0.8417 0.8420 0.8420
2515.804810 0.8420 0.8418 0.8414 0.8410 0.8410
2521.448160 0.8410 0.8412 0.8416 0.8420 0.8420
2527.091511 0.8420 0.8420 0.8420 0.8420 0.8416
2532.734861 0.8412 0.8410 0.8410 0.8410 0.8410
2538.378212 0.8410 0.8410 0.8410 0.8412 0.8424
2544.021563 0.8436 0.8440 0.8440 0.8438 0.8427
2549.664913 0.8415 0.8405 0.8397 0.8390 0.8390
2555.308264 0.8390 0.8390 0.8390 0.8390 0.8390
2560.951614 0.8390 0.8390 0.8390 0.8391 0.8399
2566.594965 0.8407 0.8410 0.8410 0.8411 0.8415
2572.238316 0.8419 0.8420 0.8420 0.8421 0.8429
2577.881666 0.8437 0.8440 0.8440 0.8439 0.8431
2583.525017 0.8423 0.8420 0.8420 0.8420 0.8420
2589.168367 0.8420 0.8420 0.8420 0.8420 0.8420
2594.811718 0.8420 0.8420 0.8420 0.8420 0.8420
2600.455068 0.8420 0.8417 0.8413 0.8410 0.8410
2606.098419 0.8410 0.8405 0.8397 0.8390 0.8390
2611.741770 0.8390 0.8390 0.8390 0.8391 0.8399
2617.385120 0.8407 0.8413 0.8417 0.8420 0.8420
2623.028471 0.8420 0.8417 0.8413 0.8410 0.8410
2628.671821 0.8410 0.8410 0.8410 0.8411 0.8415
2634.315172 0.8419 0.8420 0.8420 0.8420 0.8420
2639.958523 0.8420 0.8420 0.8420 0.8420 0.8420
2645.601873 0.8420 0.8420 0.8420 0.8419 0.8415
2651.245224 0.8411 0.8410 0.8410 0.8411 0.8415
2656.888574 0.8419 0.8420 0.8420 0.8420 0.8420
2662.531925 0.8420 0.8417 0.8413 0.8410 0.8410
2668.175276 0.8410 0.8410 0.8410 0.8410 0.8410
2673.818626 0.8410 0.8405 0.8397 0.8390 0.8390
2679.461977 0.8390 0.8390 0.8390 0.8389 0.8381
2685.105327 0.8373 0.8370 0.8370 0.8370 0.8370
2690.748678 0.8370 0.8365 0.8357 0.8350 0.8350
2696.392028 0.8350 0.8350 0.8350 0.8350 0.8350
2702.035379 0.8350 0.8350 0.8350 0.8350 0.8350
2707.678730 0.8350 0.8350 0.8350 0.8350 0.8350
2713.322080 0.8350 0.8350 0.8350 0.8349 0.8345
2718.965431 0.8341 0.8340 0.8340 0.8341 0.8345
2724.608781 0.8349 0.8350 0.8350 0.8350 0.8350
2730.252132 0.8350 0.8347 0.8343 0.8340 0.8340
2735.895483 0.8340 0.8335 0.8327 0.8320 0.8320
2741.538833 0.8320 0.8320 0.8320 0.8320 0.8320
2747.182184 0.8320 0.8320 0.8320 0.8320 0.8320
2752.825534 0.8320 0.8315 0.8307 0.8300 0.8300
2758.468885 0.8300 0.8300 0.8300 0.8299 0.8295
2764.112236 0.8291 0.8290 0.8290 0.8292 0.8304
2769.755586 0.8316 0.8320 0.8320 0.8320 0.8320
2775.398937 0.8320 0.8320 0.8320 0.8320 0.8320
2781.042287 0.8320 0.8315 0.8307 0.8298 0.8286
2786.685638 0.8274 0.8270 0.8270 0.8270 0.8270
2792.328988 0.8270 0.8270 0.8270 0.8270 0.8270
2797.972339 0.8270 0.8270 0.8270 0.8270 0.8270
2803.615690 0.8270 0.8265 0.8257 0.8250 0.8250
2809.259040 0.8250 0.8250 0.8250 0.8250 0.8250
2814.902391 0.8250 0.8245 0.8236 0.8229 0.8225
2820.545741 0.8221 0.8214 0.8206 0.8198 0.8186
2826.189092 0.8174 0.8164 0.8156 0.8148 0.8140
2831.832443 0.8132 0.8124 0.8116 0.8109 0.8105
2837.475793 0.8101 0.8095 0.8087 0.8080 0.8080
2843.119144 0.8080 0.8041 0.7985 0.7936 0.7916
2848.762494 0.7896 0.7890 0.7890 0.7890 0.7890
2854.405845 0.7890 0.7896 0.7904 0.7916 0.7944
2860.049196 0.7972 0.7986 0.7994 0.8001 0.8005
2865.692546 0.8009 0.8010 0.8010 0.8010 0.8010
2871.335897 0.8010 0.8010 0.8010 0.8010 0.8010
2876.979247 0.8010 0.8010 0.8010 0.8010 0.8010
2882.622598 0.8010 0.8007 0.8003 0.7998 0.7990
2888.265948 0.7982 0.7980 0.7980 0.7977 0.7961
2893.909299 0.7945 0.7937 0.7933 0.7930 0.7930
2899.552650 0.7930 0.7924 0.7916 0.7905 0.7885
2905.196000 0.7865 0.7854 0.7846 0.7833 0.7801
2910.839351 0.7769 0.7728 0.7684 0.7641 0.7601
2916.482701 0.7561 0.7536 0.7516 0.7498 0.7490
2922.126052 0.7482 0.7486 0.7494 0.7506 0.7534
2927.769403 0.7562 0.7590 0.7618 0.7648 0.7680
2933.412753 0.7711 0.7735 0.7755 0.7774 0.7790
2939.056104 0.7806 0.7810 0.7810 0.7813 0.7825
2944.699454 0.7837 0.7840 0.7840 0.7840 0.7840
2950.342805 0.7840 0.7840 0.7840 0.7840 0.7840
2955.986156 0.7840 0.7840 0.7840 0.7844 0.7860
2961.629506 0.7876 0.7883 0.7887 0.7892 0.7900
2967.272857 0.7908 0.7916 0.7924 0.7931 0.7935
2972.916207 0.7939 0.7940 0.7940 0.7942 0.7950
2978.559558 0.7958 0.7960 0.7960 0.7960 0.7960
2984.202908 0.7960 0.7960 0.7960 0.7960 0.7960
2989.846259 0.7960 0.7960 0.7960 0.7960 0.7960
2995.489610 0.7960 0.7960 0.7960 0.7960 0.7960
3001.132960 0.7960 0.7960 0.7960 0.7960 0.7960
3006.776311 0.7960 0.7960 0.7960 0.7960 0.7960
3012.419661 0.7960 0.7960 0.7960 0.7960 0.7960
3018.063012 0.7960 0.7960 0.7960 0.7960 0.7960
3023.706363 0.7960 0.7960 0.7960 0.7958 0.7950
3029.349713 0.7942 0.7940 0.7940 0.7939 0.7935
3034.993064 0.7931 0.7930 0.7930 0.7928 0.7920
3040.636414 0.7912 0.7910 0.7910 0.7910 0.7910
3046.279765 0.7910 0.7904 0.7896 0.7887 0.7875
3051.923116 0.7863 0.7860 0.7860 0.7860 0.7860
3057.566466 0.7860 0.7860 0.7860 0.7860 0.7860
3063.209817 0.7860 0.7848 0.7832 0.7820 0.7820
3068.853167 0.7820 0.7820 0.7820 0.7820 0.7820
3074.496518 0.7820 0.7817 0.7813 0.7810 0.7810
3080.139869 0.7810 0.7810 0.7810 0.7808 0.7800
3085.783219 0.7792 0.7790 0.7790 0.7788 0.7780
3091.426570 0.7772 0.7770 0.7770 0.7770 0.7770
3097.069920 0.7770 0.7770 0.7770 0.7770 0.7770
3102.713271 0.7770 0.7770 0.7770 0.7770 0.7770
3108.356621 0.7770 0.7767 0.7763 0.7760 0.7760
3113.999972 0.7760 0.7754 0.7746 0.7740 0.7740
3119.643323 0.7740 0.7740 0.7740 0.7740 0.7740
3125.286673 0.7740 0.7740 0.7740 0.7735 0.7719
3130.930024 0.7703 0.7700 0.7700 0.7700 0.7700
3136.573374 0.7700 0.7700 0.7700 0.7699 0.7695
3142.216725 0.7691 0.7684 0.7676 0.7668 0.7660
3147.860076 0.7652 0.7650 0.7650 0.7649 0.7645
3153.503426 0.7641 0.7640 0.7640 0.7638 0.7630
3159.146777 0.7622 0.7620 0.7620 0.7618 0.7610
3164.790127 0.7602 0.7600 0.7600 0.7600 0.7600
3170.433478 0.7600 0.7600 0.7600 0.7600 0.7600
3176.076829 0.7600 0.7606 0.7614 0.7618 0.7610
3181.720179 0.7602 0.7600 0.7600 0.7598 0.7590
3187.363530 0.7582 0.7570 0.7558 0.7550 0.7550
3193.006880 0.7550 0.7550 0.7550 0.7550 0.7550
3198.650231 0.7550 0.7544 0.7536 0.7527 0.7515
3204.293581 0.7503 0.7494 0.7486 0.7480 0.7480
3209.936932 0.7480 0.7477 0.7473 0.7468 0.7460
3215.580283 0.7452 0.7444 0.7436 0.7430 0.7430
3221.223633 0.7430 0.7424 0.7416 0.7410 0.7410
3226.866984 0.7410 0.7407 0.7403 0.7400 0.7400
3232.510334 0.7400 0.7400 0.7400 0.7400 0.7400
3238.153685 0.7400 0.7394 0.7386 0.7377 0.7370
3243.797036 0.7362 0.7360 0.7360 0.7360 0.7360
3249.440386 0.7360 0.7357 0.7353 0.7348 0.7340
3255.083737 0.7332 0.7330 0.7330 0.7330 0.7330
3260.727087 0.7330 0.7330 0.7330 0.7328 0.7320
3266.370438 0.7312 0.7310 0.7310 0.7310 0.7310
3272.013789 0.7310 0.7310 0.7310 0.7307 0.7299
3277.657139 0.7291 0.7290 0.7290 0.7289 0.7285
3283.300490 0.7281 0.7274 0.7266 0.7258 0.7250
3288.943840 0.7242 0.7240 0.7240 0.7240 0.7240
3294.587191 0.7240 0.7240 0.7240 0.7240 0.7240
3300.230541 0.7240 0.7240 0.7240 0.7239 0.7235
3305.873892 0.7231 0.7230 0.7230 0.7225 0.7209
3311.517243 0.7193 0.7183 0.7176 0.7169 0.7165
3317.160593 0.7161 0.7147 0.7131 0.7119 0.7115
3322.803944 0.7111 0.7103 0.7095 0.7087 0.7079
3328.447294 0.7071 0.7063 0.7055 0.7050 0.7050
3334.090645 0.7050 0.7047 0.7043 0.7040 0.7040
3339.733996 0.7040 0.7027 0.7011 0.6999 0.6995
3345.377346 0.6991 0.6983 0.6975 0.6967 0.6960
3351.020697 0.6952 0.6947 0.6943 0.6937 0.6929
3356.664047 0.6921 0.6913 0.6905 0.6900 0.6900
3362.307398 0.6900 0.6893 0.6885 0.6876 0.6864
3367.950749 0.6852 0.6840 0.6828 0.6815 0.6799
3373.594099 0.6783 0.6773 0.6765 0.6759 0.6755
3379.237450 0.6751 0.6750 0.6750 0.6744 0.6728
3384.880800 0.6712 0.6700 0.6688 0.6680 0.6680
3390.524151 0.6680 0.6673 0.6665 0.6660 0.6660
3396.167501 0.6660 0.6653 0.6645 0.6636 0.6624
3401.810852 0.6612 0.6610 0.6610 0.6607 0.6599
3407.454203 0.6591 0.6590 0.6590 0.6590 0.6590
3413.097553 0.6590 0.6590 0.6590 0.6589 0.6585
3418.740904 0.6581 0.6580 0.6580 0.6580 0.6580
3424.384254 0.6580 0.6580 0.6580 0.6580 0.6580
3430.027605 0.6580 0.6580 0.6580 0.6581 0.6585
3435.670956 0.6589 0.6590 0.6590 0.6590 0.6590
3441.314306 0.6590 0.6597 0.6605 0.6610 0.6610
3446.957657 0.6610 0.6610 0.6610 0.6613 0.6621
3452.601007 0.6629 0.6633 0.6637 0.6640 0.6640
3458.244358 0.6640 0.6647 0.6655 0.6660 0.6660
3463.887709 0.6660 0.6667 0.6675 0.6680 0.6680
3469.531059 0.6680 0.6687 0.6695 0.6700 0.6700
3475.174410 0.6700 0.6703 0.6707 0.6713 0.6721
3480.817760 0.6729 0.6730 0.6730 0.6733 0.6741
3486.461111 0.6749 0.6753 0.6757 0.6760 0.6760
3492.104461 0.6760 0.6767 0.6775 0.6786 0.6802
3497.747812 0.6818 0.6824 0.6827 0.6833 0.6841
3503.391163 0.6849 0.6857 0.6865 0.6871 0.6875
3509.034513 0.6879 0.6880 0.6880 0.6883 0.6891
3514.677864 0.6899 0.6907 0.6915 0.6920 0.6920
3520.321214 0.6920 0.6927 0.6935 0.6942 0.6946
3525.964565 0.6950 0.6950 0.6950 0.6953 0.6961
3531.607916 0.6969 0.6981 0.6993 0.7006 0.7022
3537.251266 0.7038 0.7050 0.7062 0.7076 0.7092
3542.894617 0.7108 0.7113 0.7117 0.7120 0.7120
3548.537967 0.7120 0.7120 0.7120 0.7123 0.7131
3554.181318 0.7139 0.7140 0.7140 0.7145 0.7157
3559.824669 0.7169 0.7170 0.7170 0.7176 0.7192
3565.468019 0.7208 0.7217 0.7225 0.7235 0.7246
3571.111370 0.7258 0.7260 0.7260 0.7263 0.7271
3576.754720 0.7279 0.7284 0.7288 0.7293 0.7301
3582.398071 0.7309 0.7324 0.7340 0.7358 0.7378
3588.041421 0.7398 0.7411 0.7423 0.7436 0.7452
3593.684772 0.7468 0.7474 0.7478 0.7483 0.7491
3599.328123 0.7499 0.7507 0.7515 0.7520 0.7520
3604.971473 0.7520 0.7524 0.7528 0.7530 0.7530
3610.614824 0.7530 0.7530 0.7530 0.7530 0.7530
3616.258174 0.7530 0.7537 0.7545 0.7550 0.7550
3621.901525 0.7550 0.7550 0.7550 0.7550 0.7550
3627.544876 0.7550 0.7561 0.7573 0.7583 0.7591
3633.188226 0.7599 0.7600 0.7600 0.7600 0.7600
3638.831577 0.7600 0.7600 0.7600 0.7600 0.7600
3644.474927 0.7600 0.7607 0.7615 0.7623 0.7631
3650.118278 0.7639 0.7644 0.7648 0.7650 0.7650
3655.761629 0.7650 0.7657 0.7665 0.7673 0.7681
3661.404979 0.7689 0.7690 0.7690 0.7690 0.7690
3667.048330 0.7690 0.7690 0.7690 0.7690 0.7690
3672.691680 0.7690 0.7694 0.7698 0.7703 0.7711
3678.335031 0.7719 0.7720 0.7720 0.7720 0.7720
3683.978382 0.7720 0.7720 0.7720 0.7720 0.7720
3689.621732 0.7720 0.7720 0.7720 0.7720 0.7720
3695.265083 0.7720 0.7720 0.7720 0.7720 0.7720
3700.908433 0.7720 0.7720 0.7720 0.7720 0.7720
3706.551784 0.7720 0.7720 0.7720 0.7720 0.7720
3712.195134 0.7720 0.7713 0.7705 0.7698 0.7694
3717.838485 0.7690 0.7683 0.7675 0.7670 0.7670
3723.481836 0.7670 0.7663 0.7655 0.7650 0.7650
3729.125186 0.7650 0.7650 0.7650 0.7650 0.7650
3734.768537 0.7650 0.7657 0.7665 0.7670 0.7670
3740.411887 0.7670 0.7670 0.7670 0.7670 0.7670
3746.055238 0.7670 0.7670 0.7670 0.7670 0.7670
3751.698589 0.7670 0.7678 0.7685 0.7690 0.7690
3757.341939 0.7690 0.7694 0.7698 0.7703 0.7711
3762.985290 0.7719 0.7720 0.7720 0.7720 0.7720
3768.628640 0.7720 0.7720 0.7720 0.7720 0.7720
3774.271991 0.7720 0.7720 0.7720 0.7720 0.7720
3779.915342 0.7720 0.7720 0.7720 0.7716 0.7708
3785.558692 0.7700 0.7700 0.7700 0.7698 0.7694
3791.202043 0.7690 0.7690 0.7690 0.7690 0.7690
3796.845393 0.7690 0.7690 0.7690 0.7687 0.7679
3802.488744 0.7671 0.7663 0.7654 0.7648 0.7644
3808.132094 0.7640 0.7640 0.7640 0.7636 0.7628
3813.775445 0.7620 0.7620 0.7620 0.7620 0.7620
3819.418796 0.7620 0.7620 0.7620 0.7620 0.7620
3825.062146 0.7620 0.7613 0.7605 0.7600 0.7600
3830.705497 0.7600 0.7600 0.7600 0.7600 0.7600
3836.348847 0.7600 0.7600 0.7600 0.7600 0.7600
3841.992198 0.7600 0.7600 0.7600 0.7600 0.7600
3847.635549 0.7600 0.7608 0.7616 0.7620 0.7620
3853.278899 0.7620 0.7620 0.7620 0.7620 0.7620
3858.922250 0.7620 0.7620 0.7620 0.7620 0.7620
3864.565600 0.7620 0.7620 0.7620 0.7620 0.7620
3870.208951 0.7620 0.7620 0.7620 0.7620 0.7620
3875.852302 0.7620 0.7620 0.7620 0.7620 0.7620
3881.495652 0.7620 0.7620 0.7620 0.7620 0.7620
3887.139003 0.7620 0.7620 0.7620 0.7620 0.7620
3892.782353 0.7620 0.7620 0.7620 0.7620 0.7620
3898.425704 0.7620 0.7620 0.7620 0.7620 0.7620
3904.069054 0.7620 0.7620 0.7620 0.7620 0.7620
3909.712405 0.7620 0.7620 0.7620 0.7620 0.7620
3915.355756 0.7620 0.7620 0.7620 0.7616 0.7608
3920.999106 0.7600 0.7600 0.7600 0.7600 0.7600
3926.642457 0.7600 0.7592 0.7584 0.7584 0.7592
3932.285807 0.7600 0.7600 0.7600 0.7600 0.7600
3937.929158 0.7600 0.7600 0.7600 0.7600 0.7600
3943.572509 0.7600 0.7600 0.7600 0.7600 0.7600
3949.215859 0.7600 0.7600 0.7600 0.7600 0.7600
3954.859210 0.7600 0.7600 0.7600 0.7600 0.7600
3960.502560 0.7600 0.7600 0.7600 0.7600 0.7600
3966.145911 0.7600 0.7600 0.7600 0.7600 0.7600
3971.789262 0.7600 0.7600 0.7600 0.7600 0.7600
3977.432612 0.7600 0.7592 0.7584 0.7580 0.7580
3983.075963 0.7580 0.7580 0.7580 0.7580 0.7580
3988.719313 0.7580 0.7576 0.7572 0.7570 0.7570
3994.362664 0.7570
##END=
