##TITLE=m-DIETHYLAMINO PHENOL OXALATE
$$ E.K. (W.L.)
##JCAMP-DX=4.24
##DATA TYPE=INFRARED SPECTRUM
##CLASS=COBLENTZ
##ORIGIN=WYANDOTTE CHEMICALS CORP., WYANDOTTE, MICHIGAN, USA
##OWNER=COBLENTZ SOCIETY
Collection (C) 2018 copyright by the U.S. Secretary of Commerce
on behalf of the United States of America. All rights reserved.
##DATE=Not specified, most likely prior to 1970
##MOLFORM=C22 H32 N2 O6
##MP=155-156 C
##SOURCE REFERENCE=COBLENTZ NO. 1625
##$NIST ID=B6001625
##$NIST SOURCE=COBLENTZ
##$NIST IMAGE=cob1625
##SPECTROMETER/DATA SYSTEM=Not specified, most likely a prism, grating, or hybrid spectrometer.
##STATE=SOLID (MINERAL OIL MULL)
##PATH LENGTH=
$$SPECTRAL CONTAMINATION DUE TO OIL AROUND 2900 CM^-^1
##SAMPLING PROCEDURE=TRANSMISSION
##RESOLUTION=4
##DATA PROCESSING=DIGITIZED BY NIST FROM HARD COPY
##XUNITS=MICROMETERS
##YUNITS=TRANSMITTANCE
##XFACTOR=1.000000
##YFACTOR=1
##DELTAX=000.006809
##FIRSTX=1.993
##LASTX=15.9724
##FIRSTY=0.869
##MAXX=15.9724
##MINX=1.993
##MAXY=0.982
##MINY=0.03
##NPOINTS=2054
##XYDATA=(X++(Y..Y))
1.993000 0.8690 0.8700 0.8720 0.8690 0.8700
2.027063 0.8720 0.8720 0.8720 0.8720 0.8740
2.061000 0.8750 0.8770 0.8790 0.8820 0.8860
2.095063 0.8890 0.8920 0.8940 0.8940 0.8940
2.129000 0.8940 0.8920 0.8920 0.8910 0.8870
2.163063 0.8820 0.8790 0.8740 0.8700 0.8650
2.197000 0.8600 0.8580 0.8580 0.8600 0.8630
2.231063 0.8670 0.8700 0.8740 0.8770 0.8790
2.266000 0.8800 0.8840 0.8860 0.8860 0.8890
2.300063 0.8890 0.8910 0.8910 0.8940 0.8970
2.334000 0.8990 0.9030 0.9040 0.9080 0.9080
2.368063 0.9090 0.9130 0.9180 0.9200 0.9210
2.402000 0.9210 0.9180 0.9180 0.9200 0.9210
2.436063 0.9250 0.9260 0.9300 0.9350 0.9370
2.470000 0.9330 0.9310 0.9300 0.9310 0.9330
2.504063 0.9370 0.9400 0.9420 0.9470 0.9480
2.538000 0.9520 0.9590 0.9650 0.9690 0.9690
2.572063 0.9640 0.9550 0.9430 0.9430 0.9470
2.606000 0.9500 0.9620 0.9670 0.9720 0.9740
2.640063 0.9760 0.9770 0.9810 0.9820 0.9820
2.674000 0.9770 0.9740 0.9720 0.9720 0.9690
2.708063 0.9690 0.9690 0.9670 0.9620 0.9570
2.742000 0.9520 0.9480 0.9450 0.9430 0.9400
2.776063 0.9350 0.9350 0.9330 0.9330 0.9330
2.810000 0.9330 0.9330 0.9310 0.9300 0.9280
2.844063 0.9230 0.9200 0.9130 0.9080 0.9060
2.878000 0.9040 0.9040 0.8990 0.8970 0.8920
2.912063 0.8920 0.8910 0.8860 0.8820 0.8790
2.946000 0.8770 0.8750 0.8750 0.8750 0.8740
2.980063 0.8700 0.8700 0.8650 0.8580 0.8530
3.015000 0.8450 0.8410 0.8360 0.8350 0.8190
3.049063 0.8140 0.8060 0.7940 0.7820 0.7680
3.083000 0.7530 0.7310 0.7220 0.7090 0.6980
3.117063 0.6850 0.6700 0.6510 0.6360 0.6220
3.151000 0.6080 0.5950 0.5850 0.5740 0.5640
3.185063 0.5520 0.5420 0.5300 0.5230 0.5180
3.219000 0.5150 0.5100 0.4760 0.4550 0.4420
3.253063 0.4380 0.4330 0.4250 0.4160 0.4040
3.287000 0.4030 0.3910 0.3740 0.3450 0.3070
3.321063 0.2580 0.1750 0.1510 0.1240 0.0880
3.355000 0.0690 0.0520 0.0340 0.0300 0.0300
3.389063 0.0300 0.0320 0.0340 0.0350 0.0370
3.423000 0.0440 0.0490 0.0560 0.0610 0.0730
3.457063 0.0780 0.0780 0.0780 0.0780 0.0730
3.491000 0.0690 0.0680 0.0710 0.1410 0.2050
3.525063 0.2410 0.2750 0.3450 0.4010 0.4250
3.559000 0.4400 0.4540 0.4640 0.4770 0.4940
3.593063 0.5000 0.5030 0.5100 0.5150 0.5130
3.627000 0.5100 0.5080 0.5030 0.4890 0.4790
3.661063 0.4670 0.4520 0.4370 0.4350 0.4350
3.696000 0.4350 0.4350 0.4370 0.4400 0.4450
3.730063 0.4500 0.4550 0.4590 0.4620 0.4640
3.764000 0.4650 0.4650 0.4650 0.4670 0.4690
3.798063 0.4710 0.4720 0.4740 0.4770 0.4790
3.832000 0.4810 0.4820 0.4860 0.4930 0.4980
3.866063 0.5000 0.5010 0.5050 0.5080 0.5150
3.900000 0.5230 0.5320 0.5400 0.5510 0.5590
3.934063 0.5640 0.5690 0.5710 0.5760 0.5790
3.968000 0.5810 0.5830 0.5880 0.5910 0.5910
4.002063 0.5930 0.5930 0.5930 0.5950 0.5950
4.036000 0.5960 0.5980 0.5980 0.5980 0.6000
4.070063 0.6000 0.6000 0.6020 0.6020 0.6020
4.104000 0.6020 0.6020 0.6020 0.6020 0.6020
4.138063 0.6020 0.6020 0.6030 0.6030 0.6050
4.172000 0.6050 0.6070 0.6070 0.6070 0.6100
4.206063 0.6100 0.6080 0.6050 0.6030 0.6000
4.240000 0.5950 0.5950 0.5950 0.5930 0.5930
4.274063 0.5930 0.5950 0.5950 0.5950 0.5960
4.308000 0.5960 0.5960 0.5960 0.5980 0.6000
4.342063 0.6020 0.6020 0.6030 0.6070 0.6080
4.376000 0.6080 0.6100 0.6100 0.6100 0.6100
4.410063 0.6100 0.6100 0.6100 0.6120 0.6120
4.445000 0.6120 0.6130 0.6130 0.6150 0.6150
4.479063 0.6150 0.6150 0.6170 0.6190 0.6200
4.513000 0.6200 0.6220 0.6220 0.6240 0.6270
4.547063 0.6270 0.6290 0.6300 0.6320 0.6340
4.581000 0.6360 0.6370 0.6410 0.6410 0.6420
4.615063 0.6440 0.6460 0.6490 0.6540 0.6560
4.649000 0.6560 0.6580 0.6590 0.6590 0.6610
4.683063 0.6630 0.6660 0.6700 0.6750 0.6780
4.717000 0.6800 0.6810 0.6850 0.6850 0.6870
4.751063 0.6880 0.6880 0.6900 0.6900 0.6920
4.785000 0.6930 0.6970 0.7000 0.7050 0.7070
4.819063 0.7070 0.7090 0.7100 0.7120 0.7140
4.853000 0.7170 0.7220 0.7260 0.7270 0.7310
4.887063 0.7320 0.7320 0.7320 0.7320 0.7340
4.921000 0.7340 0.7340 0.7340 0.7340 0.7340
4.955063 0.7360 0.7360 0.7390 0.7390 0.7410
4.989000 0.7410 0.7440 0.7460 0.7480 0.7480
5.023063 0.7480 0.7480 0.7480 0.7440 0.7340
5.057000 0.7320 0.7340 0.7430 0.7440 0.7480
5.091063 0.7430 0.7430 0.7340 0.7320 0.7320
5.125000 0.7360 0.7480 0.7480 0.7480 0.7480
5.159063 0.7410 0.7410 0.7430 0.7430 0.7430
5.194000 0.7500 0.7480 0.7390 0.7380 0.7380
5.228063 0.7390 0.7500 0.7510 0.7530 0.7560
5.262000 0.7610 0.7610 0.7610 0.7610 0.7610
5.296063 0.7600 0.7600 0.7600 0.7560 0.7550
5.330000 0.7550 0.7510 0.7410 0.7310 0.7310
5.364063 0.7340 0.7410 0.7460 0.7510 0.7550
5.398000 0.7560 0.7630 0.7670 0.7650 0.7580
5.432063 0.7560 0.7580 0.7650 0.7700 0.7720
5.466000 0.7720 0.7700 0.7650 0.7650 0.7670
5.500063 0.7670 0.7720 0.7700 0.7680 0.7700
5.534000 0.7730 0.7770 0.7770 0.7750 0.7730
5.568063 0.7730 0.7700 0.7700 0.7700 0.7750
5.602000 0.7730 0.7670 0.7600 0.7560 0.7550
5.636063 0.7510 0.7530 0.7600 0.7630 0.7630
5.670000 0.7600 0.7580 0.7580 0.7560 0.7580
5.704063 0.7560 0.7560 0.7550 0.7530 0.7530
5.738000 0.7530 0.7510 0.7480 0.7460 0.7410
5.772063 0.7270 0.7170 0.7170 0.7150 0.7120
5.806000 0.7070 0.7000 0.6930 0.6830 0.6750
5.840063 0.6700 0.6630 0.6590 0.6540 0.6470
5.875000 0.6370 0.6250 0.6070 0.6000 0.5930
5.909063 0.5880 0.5780 0.5640 0.5390 0.5300
5.943000 0.5200 0.5060 0.4740 0.4640 0.4470
5.977063 0.4200 0.3940 0.3750 0.3630 0.3580
6.011000 0.3550 0.3480 0.3260 0.3180 0.3010
6.045063 0.2870 0.2730 0.2680 0.2630 0.2650
6.079000 0.2680 0.2750 0.2750 0.2770 0.2800
6.113063 0.2820 0.2820 0.2780 0.2750 0.2720
6.147000 0.2700 0.2680 0.2650 0.2630 0.2600
6.181063 0.2580 0.2530 0.2390 0.2320 0.2310
6.215000 0.2260 0.2240 0.2260 0.2270 0.2310
6.249063 0.2310 0.2290 0.2240 0.2220 0.2210
6.283000 0.2220 0.2240 0.2260 0.2270 0.2270
6.317063 0.2290 0.2290 0.2310 0.2320 0.2340
6.351000 0.2390 0.2430 0.2500 0.2530 0.2560
6.385063 0.2670 0.2770 0.2890 0.2990 0.3040
6.419000 0.3110 0.3160 0.3230 0.3330 0.3460
6.453063 0.3550 0.3620 0.3690 0.3750 0.3800
6.487000 0.3820 0.3820 0.3820 0.3790 0.3750
6.521063 0.3750 0.3740 0.3720 0.3670 0.3600
6.555000 0.3500 0.3260 0.3190 0.3090 0.3010
6.589063 0.2890 0.2680 0.2340 0.2320 0.2320
6.624000 0.2320 0.2310 0.2290 0.2240 0.2090
6.658063 0.1970 0.1870 0.1700 0.1510 0.1240
6.692000 0.1220 0.1220 0.1240 0.1250 0.1320
6.726063 0.1370 0.1420 0.1440 0.1440 0.1420
6.760000 0.1290 0.1240 0.1200 0.1200 0.1220
6.794063 0.1240 0.1270 0.1300 0.1370 0.1440
6.828000 0.1530 0.1590 0.1610 0.1630 0.1640
6.862063 0.1700 0.1810 0.2020 0.2320 0.2480
6.896000 0.2550 0.2610 0.2730 0.2800 0.2920
6.930063 0.3190 0.3450 0.3620 0.3870 0.4130
6.964000 0.4300 0.4420 0.4500 0.4570 0.4620
6.998063 0.4690 0.4760 0.4840 0.4980 0.5060
7.032000 0.5130 0.5170 0.5200 0.5230 0.5250
7.066063 0.5250 0.5250 0.5250 0.5250 0.5250
7.100000 0.5250 0.5250 0.5250 0.5250 0.5230
7.134063 0.5150 0.5050 0.4480 0.4380 0.4080
7.168000 0.3820 0.3480 0.3280 0.3140 0.2170
7.202063 0.2090 0.2000 0.1830 0.1640 0.1590
7.236000 0.1540 0.1560 0.2050 0.2310 0.2560
7.270063 0.3010 0.3230 0.3260 0.3260 0.3230
7.304000 0.3190 0.3180 0.3160 0.3120 0.3110
7.338063 0.3090 0.3070 0.3040 0.3020 0.2970
7.373000 0.2890 0.2890 0.2870 0.2850 0.2840
7.407063 0.2820 0.2800 0.2780 0.2750 0.2730
7.441000 0.2720 0.2700 0.2680 0.2600 0.2560
7.475063 0.2430 0.2360 0.2310 0.2270 0.2240
7.509000 0.2170 0.2100 0.2070 0.2050 0.1980
7.543063 0.1980 0.2000 0.2070 0.2410 0.2580
7.577000 0.2730 0.2940 0.3090 0.3210 0.3410
7.611063 0.3480 0.3480 0.3400 0.3280 0.3140
7.645000 0.3010 0.2900 0.2680 0.2410 0.2120
7.679063 0.1980 0.1800 0.1490 0.1410 0.1300
7.713000 0.1290 0.1300 0.1370 0.1420 0.1580
7.747063 0.1710 0.1830 0.1880 0.1920 0.1930
7.781000 0.1970 0.1980 0.2000 0.2000 0.2000
7.815063 0.1980 0.1970 0.1970 0.1950 0.1950
7.849000 0.1950 0.1950 0.1950 0.1930 0.1930
7.883063 0.1920 0.1920 0.1920 0.1920 0.1930
7.917000 0.1930 0.1930 0.1930 0.1920 0.1880
7.951063 0.1870 0.1850 0.1850 0.1850 0.1870
7.985000 0.1950 0.2000 0.2070 0.2150 0.2270
8.019063 0.2440 0.2560 0.2670 0.2750 0.2850
8.054000 0.2940 0.3040 0.3140 0.3230 0.3290
8.088063 0.3330 0.3400 0.3460 0.3500 0.3550
8.122000 0.3600 0.3650 0.3700 0.3770 0.3860
8.156063 0.3890 0.3940 0.3970 0.4010 0.4060
8.190000 0.4090 0.4140 0.4180 0.4210 0.4260
8.224063 0.4280 0.4370 0.4420 0.4470 0.4500
8.258000 0.4540 0.4570 0.4600 0.4640 0.4690
8.292063 0.4760 0.4820 0.4910 0.4980 0.5010
8.326000 0.5050 0.5110 0.5180 0.5270 0.5350
8.360063 0.5450 0.5540 0.5640 0.5730 0.5830
8.394000 0.5910 0.6000 0.6080 0.6200 0.6250
8.428063 0.6390 0.6470 0.6470 0.6470 0.6420
8.462000 0.6290 0.6270 0.6290 0.6390 0.6470
8.496063 0.6590 0.6630 0.6630 0.6610 0.6470
8.530000 0.6420 0.6320 0.6290 0.6290 0.6270
8.564063 0.6290 0.6370 0.6370 0.6370 0.6190
8.598000 0.5980 0.5740 0.5510 0.5300 0.4690
8.632063 0.4380 0.4210 0.3870 0.3670 0.3480
8.666000 0.3460 0.3460 0.3530 0.3740 0.3910
8.700063 0.4060 0.4200 0.4350 0.4480 0.4600
8.734000 0.4740 0.4840 0.4940 0.4960 0.5010
8.768063 0.5060 0.5100 0.5110 0.5170 0.5180
8.803000 0.5200 0.5230 0.5420 0.5590 0.5660
8.837063 0.5780 0.5850 0.5860 0.5860 0.5860
8.871000 0.5860 0.5860 0.5860 0.5830 0.5520
8.905063 0.5230 0.4620 0.4280 0.3920 0.3650
8.939000 0.3360 0.3330 0.3360 0.3570 0.3800
8.973063 0.3890 0.3990 0.4280 0.4430 0.4500
9.007000 0.4620 0.4740 0.4860 0.4930 0.5000
9.041063 0.5010 0.5030 0.5080 0.5150 0.5220
9.075000 0.5280 0.5370 0.5370 0.5370 0.5340
9.109063 0.5320 0.5250 0.5130 0.5110 0.5110
9.143000 0.5110 0.5130 0.5250 0.5300 0.5340
9.177063 0.5350 0.5390 0.5440 0.5510 0.5590
9.211000 0.5620 0.5660 0.5680 0.5680 0.5680
9.245063 0.5690 0.5730 0.5780 0.5780 0.5780
9.279000 0.5780 0.5780 0.5740 0.5710 0.5660
9.313063 0.5610 0.5570 0.5520 0.5510 0.5450
9.347000 0.5440 0.5470 0.5620 0.5780 0.5860
9.381063 0.5930 0.5960 0.6000 0.6070 0.6170
9.415000 0.6190 0.6200 0.6200 0.6220 0.6240
9.449063 0.6270 0.6290 0.6300 0.6300 0.6320
9.483000 0.6300 0.6250 0.6190 0.6130 0.6080
9.517063 0.6030 0.5960 0.5900 0.5900 0.5880
9.552000 0.5860 0.5830 0.5830 0.5810 0.5810
9.586063 0.5810 0.5810 0.5810 0.5780 0.5760
9.620000 0.5730 0.5680 0.5610 0.5540 0.5420
9.654063 0.5280 0.5110 0.4640 0.4400 0.4180
9.688000 0.3990 0.3860 0.3630 0.3600 0.3630
9.722063 0.3790 0.4030 0.4370 0.4670 0.4910
9.756000 0.5030 0.5130 0.5300 0.5470 0.5610
9.790063 0.5730 0.5850 0.5950 0.6070 0.6190
9.824000 0.6300 0.6370 0.6460 0.6560 0.6660
9.858063 0.6760 0.6870 0.6980 0.7070 0.7150
9.892000 0.7220 0.7270 0.7380 0.7480 0.7480
9.926063 0.7480 0.7480 0.7430 0.7090 0.6780
9.960000 0.6290 0.5620 0.5050 0.3920 0.3910
9.994063 0.3910 0.3940 0.4820 0.5060 0.5280
10.028000 0.5730 0.6200 0.6750 0.6870 0.6930
10.062063 0.7040 0.7120 0.7170 0.7170 0.7190
10.096000 0.7220 0.7240 0.7260 0.7270 0.7310
10.130063 0.7340 0.7360 0.7380 0.7390 0.7410
10.164000 0.7440 0.7500 0.7530 0.7550 0.7560
10.198063 0.7580 0.7600 0.7600 0.7600 0.7600
10.232000 0.7600 0.7610 0.7630 0.7670 0.7670
10.266063 0.7680 0.7700 0.7720 0.7730 0.7750
10.301000 0.7770 0.7780 0.7780 0.7800 0.7800
10.335063 0.7820 0.7840 0.7840 0.7850 0.7850
10.369000 0.7850 0.7850 0.7850 0.7850 0.7850
10.403063 0.7850 0.7840 0.7780 0.7730 0.7720
10.437000 0.7650 0.7630 0.7550 0.7380 0.7320
10.471063 0.7190 0.7000 0.6760 0.6530 0.6290
10.505000 0.6070 0.5880 0.5830 0.5830 0.5880
10.539063 0.6100 0.6300 0.6470 0.6630 0.6780
10.573000 0.6900 0.7020 0.7120 0.7210 0.7270
10.607063 0.7340 0.7410 0.7440 0.7500 0.7510
10.641000 0.7530 0.7560 0.7580 0.7600 0.7610
10.675063 0.7610 0.7630 0.7630 0.7650 0.7680
10.709000 0.7700 0.7700 0.7720 0.7720 0.7730
10.743063 0.7730 0.7730 0.7720 0.7700 0.7670
10.777000 0.7650 0.7610 0.7580 0.7480 0.7480
10.811063 0.7480 0.7500 0.7510 0.7530 0.7580
10.845000 0.7650 0.7700 0.7750 0.7800 0.7840
10.879063 0.7900 0.7940 0.7990 0.7990 0.8010
10.913000 0.8010 0.8040 0.8070 0.8160 0.8210
10.947063 0.8240 0.8240 0.8210 0.8210 0.8210
10.982000 0.8190 0.8190 0.8190 0.8190 0.8230
11.016063 0.8260 0.8260 0.8260 0.8260 0.8280
11.050000 0.8280 0.8280 0.8280 0.8290 0.8290
11.084063 0.8260 0.8240 0.8230 0.8210 0.8210
11.118000 0.8210 0.8190 0.8180 0.8160 0.8160
11.152063 0.8140 0.8140 0.8140 0.8140 0.8140
11.186000 0.8090 0.8070 0.8020 0.7920 0.7800
11.220063 0.7680 0.7600 0.7550 0.7380 0.7340
11.254000 0.7340 0.7380 0.7410 0.7460 0.7510
11.288063 0.7560 0.7670 0.7770 0.7820 0.7920
11.322000 0.7970 0.8020 0.8060 0.8120 0.8190
11.356063 0.8210 0.8230 0.8230 0.8240 0.8240
11.390000 0.8230 0.8230 0.8230 0.8230 0.8210
11.424063 0.8210 0.8190 0.8190 0.8160 0.8120
11.458000 0.8070 0.8020 0.7950 0.7870 0.7780
11.492063 0.7680 0.7580 0.7340 0.7210 0.7070
11.526000 0.6920 0.6760 0.6590 0.6410 0.6240
11.560063 0.6030 0.5850 0.5640 0.5420 0.5220
11.594000 0.5200 0.4910 0.4910 0.4930 0.4960
11.628063 0.5000 0.5050 0.5100 0.5280 0.5420
11.662000 0.5570 0.5740 0.5900 0.6050 0.6190
11.696063 0.6300 0.6410 0.6440 0.6470 0.6530
11.731000 0.6580 0.6630 0.6640 0.6660 0.6660
11.765063 0.6680 0.6680 0.6700 0.6710 0.6750
11.799000 0.6760 0.6760 0.6830 0.6830 0.6850
11.833063 0.6870 0.6880 0.6900 0.6920 0.6920
11.867000 0.6920 0.6900 0.6900 0.6870 0.6830
11.901063 0.6800 0.6780 0.6730 0.6700 0.6680
11.935000 0.6640 0.6590 0.6510 0.6420 0.6300
11.969063 0.6170 0.6030 0.5880 0.5730 0.5560
12.003000 0.5390 0.5200 0.5030 0.4690 0.4520
12.037063 0.4350 0.4200 0.4080 0.3960 0.3920
12.071000 0.3860 0.3790 0.3770 0.3770 0.3770
12.105063 0.3790 0.3870 0.3940 0.4010 0.4060
12.139000 0.4110 0.4160 0.4180 0.4210 0.4230
12.173063 0.4280 0.4300 0.4330 0.4350 0.4370
12.207000 0.4370 0.4370 0.4370 0.4370 0.4370
12.241063 0.4370 0.4370 0.4350 0.4330 0.4300
12.275000 0.4210 0.4200 0.4200 0.4200 0.4260
12.309063 0.4260 0.4210 0.4180 0.4160 0.4140
12.343000 0.4130 0.4090 0.4030 0.4010 0.3990
12.377063 0.3990 0.3990 0.3970 0.3960 0.3920
12.411000 0.3840 0.3770 0.3740 0.3690 0.3620
12.445063 0.3570 0.3520 0.3450 0.3410 0.3380
12.480000 0.3350 0.3330 0.3310 0.3290 0.3290
12.514063 0.3310 0.3360 0.3430 0.3520 0.3550
12.548000 0.3600 0.3630 0.3670 0.3670 0.3620
12.582063 0.3600 0.3580 0.3620 0.3630 0.3720
12.616000 0.3790 0.3790 0.3770 0.3740 0.3720
12.650063 0.3700 0.3670 0.3600 0.3580 0.3600
12.684000 0.3670 0.3740 0.3820 0.3960 0.4130
12.718063 0.4300 0.4470 0.4620 0.4740 0.4790
12.752000 0.4810 0.4820 0.4820 0.4790 0.4710
12.786063 0.4690 0.4650 0.4620 0.4570 0.4550
12.820000 0.4500 0.4500 0.4480 0.4470 0.4470
12.854063 0.4470 0.4450 0.4450 0.4420 0.4380
12.888000 0.4370 0.4370 0.4330 0.4330 0.4310
12.922063 0.4310 0.4310 0.4310 0.4310 0.4300
12.956000 0.4280 0.4260 0.4250 0.4250 0.4230
12.990063 0.4230 0.4210 0.4180 0.4160 0.4140
13.024000 0.4140 0.4140 0.4130 0.4130 0.4110
13.058063 0.4110 0.4110 0.4090 0.4080 0.4080
13.092000 0.4080 0.4090 0.4110 0.4110 0.4130
13.126063 0.4180 0.4230 0.4250 0.4260 0.4300
13.161000 0.4330 0.4400 0.4470 0.4550 0.4620
13.195063 0.4690 0.4760 0.4820 0.4910 0.5000
13.229000 0.5050 0.5100 0.5200 0.5300 0.5420
13.263063 0.5520 0.5640 0.5760 0.5860 0.5960
13.297000 0.6050 0.6130 0.6240 0.6320 0.6440
13.331063 0.6530 0.6610 0.6660 0.6730 0.6800
13.365000 0.6900 0.6950 0.6980 0.7090 0.7150
13.399063 0.7220 0.7260 0.7290 0.7310 0.7320
13.433000 0.7340 0.7380 0.7430 0.7500 0.7510
13.467063 0.7510 0.7530 0.7550 0.7550 0.7550
13.501000 0.7560 0.7560 0.7580 0.7600 0.7630
13.535063 0.7650 0.7650 0.7650 0.7650 0.7650
13.569000 0.7670 0.7670 0.7670 0.7670 0.7680
13.603063 0.7680 0.7700 0.7700 0.7720 0.7720
13.637000 0.7720 0.7720 0.7720 0.7720 0.7720
13.671063 0.7730 0.7730 0.7750 0.7770 0.7770
13.705000 0.7770 0.7770 0.7750 0.7670 0.7600
13.739063 0.7560 0.7560 0.7680 0.7680 0.7610
13.773000 0.7580 0.7550 0.7510 0.7500 0.7480
13.807063 0.7480 0.7440 0.7410 0.7410 0.7380
13.841000 0.7380 0.7360 0.7360 0.7340 0.7320
13.875063 0.7310 0.7310 0.7310 0.7320 0.7340
13.910000 0.7380 0.7410 0.7410 0.7430 0.7430
13.944063 0.7430 0.7440 0.7440 0.7440 0.7430
13.978000 0.7430 0.7390 0.7360 0.7240 0.7100
14.012063 0.7000 0.6920 0.6830 0.6710 0.6540
14.046000 0.6290 0.6050 0.5900 0.5740 0.5620
14.080063 0.5560 0.5420 0.5390 0.5390 0.5450
14.114000 0.5590 0.5760 0.5930 0.6130 0.6250
14.148063 0.6390 0.6510 0.6660 0.6780 0.6870
14.182000 0.6880 0.6920 0.6950 0.6970 0.6950
14.216063 0.6930 0.6880 0.6810 0.6700 0.6560
14.250000 0.6370 0.6190 0.5980 0.5760 0.5540
14.284063 0.5320 0.5100 0.4740 0.4600 0.4420
14.318000 0.4210 0.4040 0.3910 0.3860 0.3800
14.352063 0.3790 0.3790 0.3790 0.3860 0.3960
14.386000 0.4030 0.4060 0.4130 0.4230 0.4380
14.420063 0.4600 0.4790 0.4960 0.5050 0.5130
14.454000 0.5320 0.5520 0.5730 0.5930 0.6150
14.488063 0.6390 0.6560 0.6780 0.6920 0.7000
14.522000 0.7100 0.7210 0.7320 0.7440 0.7460
14.556063 0.7500 0.7530 0.7560 0.7610 0.7650
14.590000 0.7700 0.7730 0.7770 0.7800 0.7850
14.624063 0.7890 0.7900 0.7920 0.7940 0.7940
14.659000 0.7940 0.7940 0.7940 0.7970 0.8010
14.693063 0.8040 0.8040 0.8070 0.8070 0.8040
14.727000 0.8040 0.7950 0.7950 0.8060 0.8060
14.761063 0.8040 0.7900 0.7900 0.7950 0.8020
14.795000 0.8020 0.8010 0.7920 0.7920 0.7900
14.829063 0.7900 0.7890 0.7890 0.7920 0.7920
14.863000 0.7940 0.7940 0.7950 0.7950 0.7950
14.897063 0.7950 0.7950 0.7940 0.7940 0.7920
14.931000 0.7920 0.7900 0.7890 0.7870 0.7850
14.965063 0.7820 0.7770 0.7700 0.7580 0.7560
14.999000 0.7510 0.7320 0.7260 0.7150 0.7040
15.033063 0.6930 0.6850 0.6730 0.6630 0.6560
15.067000 0.6470 0.6460 0.6460 0.6460 0.6470
15.101063 0.6510 0.6530 0.6560 0.6590 0.6640
15.135000 0.6700 0.6750 0.6800 0.6870 0.6930
15.169063 0.6980 0.7050 0.7100 0.7140 0.7210
15.203000 0.7260 0.7290 0.7320 0.7340 0.7340
15.237063 0.7360 0.7380 0.7390 0.7390 0.7390
15.271000 0.7390 0.7390 0.7390 0.7390 0.7380
15.305063 0.7380 0.7380 0.7360 0.7340 0.7340
15.339000 0.7380 0.7380 0.7390 0.7390 0.7390
15.373063 0.7390 0.7390 0.7390 0.7390 0.7380
15.408000 0.7360 0.7340 0.7320 0.7270 0.7260
15.442063 0.7240 0.7240 0.7260 0.7310 0.7310
15.476000 0.7290 0.7270 0.7270 0.7260 0.7220
15.510063 0.7220 0.7190 0.7170 0.7150 0.7140
15.544000 0.7140 0.7120 0.7120 0.7120 0.7120
15.578063 0.7120 0.7120 0.7120 0.7120 0.7100
15.612000 0.7090 0.7090 0.7050 0.7040 0.6980
15.646063 0.6970 0.6950 0.6920 0.6900 0.6870
15.680000 0.6850 0.6810 0.6780 0.6730 0.6680
15.714063 0.6660 0.6630 0.6630 0.6610 0.6540
15.748000 0.6530 0.6490 0.6490 0.6490 0.6460
15.782063 0.6420 0.6390 0.6360 0.6320 0.6300
15.816000 0.6290 0.6270 0.6270 0.6270 0.6270
15.850063 0.6270 0.6270 0.6270 0.6270 0.6270
15.884000 0.6270 0.6270 0.6250 0.6250 0.6240
15.918063 0.6220 0.6220 0.6220 0.6220 0.6220
15.952000 0.6220 0.6220 0.6220 0.6220
##END=
