##TITLE=2-Indanamine, hydrochloride
##JCAMP-DX=4.24
##DATA TYPE=INFRARED SPECTRUM
##CLASS=COBLENTZ III
##ORIGIN=DOW CHEMICAL COMPANY
##OWNER=COBLENTZ SOC.
Collection (C) 2018 copyright by the U.S. Secretary of Commerce
on behalf of the United States of America. All rights reserved.
##DATE=1965/03/09
##NAMES=2,3-dihydro-1H-inden-2-ylamine hydrochloride
##MOLFORM=C9 H12 Cl N
##SOURCE REFERENCE=COBLENTZ NO. 07144
##$NIST ID=B6007144
##$NIST SOURCE=COBLENTZ
##$NIST IMAGE=cob7144
##SPECTROMETER/DATA SYSTEM=DOW KBr FOREPRISM-GRATING
##INSTRUMENT PARAMETERS=BLAZED AT 3.5, 12.0, 20.0 MICRON AND CHANGED AT 5.0, 7.5, 14.9 MICRON
##STATE=SOLID (SPLIT MULL), FLUOROLUBE FOR 3800-1330 CM^-^1, NUJOL FOR 1330-450 CM^-^1
##SAMPLING PROCEDURE=TRANSMISSION
##RESOLUTION=2
##DATA PROCESSING=DIGITIZED BY COBLENTZ SOCIETY (BATCH I) FROM HARD COPY
##XUNITS=1/CM
##YUNITS=TRANSMITTANCE
##XLABEL=Wavenumbers (cm-1)
##YLABEL=% Transmission
##XFACTOR=1
##YFACTOR=1
##DELTAX=1
##FIRSTX=457
##LASTX=3800
##FIRSTY=0.7096
##MAXX=3800
##MINX=457
##MAXY=0.8827
##MINY=0.0516
##NPOINTS=3344
##XYDATA=(X++(Y..Y))
457.000000 0.7096 0.7097 0.7111 0.7101 0.7101
462.000000 0.7104 0.7106 0.7108 0.7108 0.7111
467.000000 0.7111 0.7111 0.7111 0.7111 0.7111
472.000000 0.7110 0.7110 0.7107 0.7103 0.7100
477.000000 0.7096 0.7093 0.7089 0.7074 0.7058
482.000000 0.7042 0.7026 0.7011 0.6989 0.6965
487.000000 0.6961 0.6962 0.6964 0.6971 0.6948
492.000000 0.7028 0.7074 0.7124 0.7184 0.7237
497.000000 0.7284 0.7289 0.7295 0.7297 0.7300
502.000000 0.7301 0.7304 0.7304 0.7304 0.7307
507.000000 0.7311 0.7315 0.7321 0.7325 0.7339
512.000000 0.7368 0.7401 0.7411 0.7412 0.7415
517.000000 0.7418 0.7421 0.7424 0.7426 0.7430
522.000000 0.7432 0.7435 0.7438 0.7442 0.7445
527.000000 0.7449 0.7453 0.7458 0.7464 0.7469
532.000000 0.7475 0.7481 0.7487 0.7493 0.7499
537.000000 0.7506 0.7512 0.7517 0.7515 0.7514
542.000000 0.7511 0.7511 0.7508 0.7507 0.7505
547.000000 0.7503 0.7500 0.7498 0.7501 0.7538
552.000000 0.7549 0.7562 0.7572 0.7584 0.7594
557.000000 0.7603 0.7606 0.7610 0.7614 0.7617
562.000000 0.7621 0.7628 0.7635 0.7642 0.7649
567.000000 0.7656 0.7662 0.7669 0.7676 0.7685
572.000000 0.7693 0.7701 0.7705 0.7688 0.7665
577.000000 0.7643 0.7619 0.7582 0.7541 0.7498
582.000000 0.7438 0.7378 0.7338 0.7348 0.7417
587.000000 0.7314 0.7621 0.7665 0.7701 0.7725
592.000000 0.7732 0.7740 0.7746 0.7750 0.7753
597.000000 0.7756 0.7758 0.7761 0.7764 0.7767
602.000000 0.7768 0.7768 0.7768 0.7768 0.7768
607.000000 0.7768 0.7768 0.7767 0.7756 0.7744
612.000000 0.7732 0.7721 0.7696 0.7649 0.7595
617.000000 0.7535 0.7474 0.7406 0.7387 0.7387
622.000000 0.7412 0.7488 0.7576 0.7625 0.7671
627.000000 0.7717 0.7758 0.7764 0.7769 0.7775
632.000000 0.7780 0.7784 0.7788 0.7789 0.7789
637.000000 0.7768 0.7787 0.7787 0.7786 0.7786
642.000000 0.7785 0.7784 0.7783 0.7781 0.7780
647.000000 0.7778 0.7776 0.7775 0.7771 0.7768
652.000000 0.7765 0.7762 0.7761 0.7758 0.7757
657.000000 0.7755 0.7753 0.7751 0.7749 0.7748
662.000000 0.7746 0.7501 0.7101 0.6701 0.6303
667.000000 0.5903 0.5695 0.5695 0.5699 0.6937
672.000000 0.7589 0.7915 0.7918 0.7925 0.7928
677.000000 0.7932 0.7925 0.7924 0.7921 0.7918
682.000000 0.7915 0.7907 0.7898 0.7890 0.7880
687.000000 0.7868 0.7856 0.7844 0.7831 0.7814
692.000000 0.7798 0.7781 0.7765 0.7749 0.7733
697.000000 0.7717 0.7701 0.7683 0.7656 0.7628
702.000000 0.7601 0.7575 0.7550 0.7525 0.7501
707.000000 0.7478 0.7448 0.7415 0.7384 0.7351
712.000000 0.7314 0.7274 0.7233 0.7193 0.7153
717.000000 0.7101 0.7031 0.6961 0.6882 0.6855
722.000000 0.6846 0.6868 0.6900 0.6933 0.6965
727.000000 0.6997 0.7028 0.7051 0.7080 0.7085
732.000000 0.7078 0.7061 0.7044 0.7025 0.6995
737.000000 0.6965 0.6934 0.6905 0.6875 0.6839
742.000000 0.6789 0.6740 0.6661 0.6576 0.6439
747.000000 0.6212 0.5673 0.1784 0.1772 0.2139
752.000000 0.2433 0.2728 0.2883 0.2131 0.1211
757.000000 0.0562 0.0568 0.0516 0.2126 0.3409
762.000000 0.4694 0.5394 0.5758 0.6062 0.6474
767.000000 0.6810 0.7021 0.7107 0.7158 0.7124
772.000000 0.7115 0.7089 0.7008 0.6936 0.6864
777.000000 0.6660 0.6200 0.5739 0.5279 0.5260
782.000000 0.7175 0.7304 0.7397 0.7437 0.7472
787.000000 0.7496 0.7517 0.7538 0.7560 0.7583
792.000000 0.7603 0.7618 0.7632 0.7646 0.7658
797.000000 0.7669 0.7681 0.7693 0.7704 0.7715
802.000000 0.7725 0.7733 0.7742 0.7745 0.7748
807.000000 0.7751 0.7754 0.7755 0.7756 0.7757
812.000000 0.7757 0.7758 0.7758 0.7756 0.7754
817.000000 0.7751 0.7750 0.7748 0.7746 0.7741
822.000000 0.7734 0.7726 0.7721 0.7714 0.7707
827.000000 0.7700 0.7693 0.7686 0.7676 0.7668
832.000000 0.7658 0.7650 0.7640 0.7631 0.7621
837.000000 0.7612 0.7601 0.7591 0.7578 0.7567
842.000000 0.7550 0.7530 0.7508 0.7488 0.7468
847.000000 0.7445 0.7421 0.7398 0.7361 0.7278
852.000000 0.7126 0.7058 0.6992 0.7048 0.7072
857.000000 0.7125 0.7196 0.7271 0.7390 0.7501
862.000000 0.7542 0.7567 0.7575 0.7582 0.7590
867.000000 0.7598 0.7601 0.7604 0.7603 0.7601
872.000000 0.7612 0.7612 0.7611 0.7611 0.7605
877.000000 0.7592 0.7578 0.7549 0.7518 0.7489
882.000000 0.7387 0.7388 0.7393 0.7399 0.7405
887.000000 0.7411 0.7421 0.7433 0.7444 0.7455
892.000000 0.7465 0.7476 0.7489 0.7500 0.7507
897.000000 0.7512 0.7519 0.7593 0.7530 0.7514
902.000000 0.7498 0.7481 0.7464 0.7446 0.7425
907.000000 0.7397 0.7368 0.7340 0.7287 0.7215
912.000000 0.7078 0.6839 0.6836 0.6810 0.6951
917.000000 0.7082 0.7238 0.7335 0.7421 0.7454
922.000000 0.7455 0.7455 0.7439 0.7421 0.7392
927.000000 0.7355 0.7294 0.7221 0.7112 0.6982
932.000000 0.7021 0.7041 0.7128 0.7244 0.7338
937.000000 0.7381 0.7407 0.7433 0.7462 0.7467
942.000000 0.7471 0.7492 0.7469 0.7468 0.7465
947.000000 0.7458 0.7453 0.7445 0.7434 0.7422
952.000000 0.7411 0.7401 0.7391 0.7378 0.7365
957.000000 0.7353 0.7339 0.7324 0.7308 0.7293
962.000000 0.7275 0.7257 0.7240 0.7221 0.7204
967.000000 0.7148 0.7076 0.6622 0.6490 0.6512
972.000000 0.6818 0.7128 0.7208 0.7282 0.7308
977.000000 0.7308 0.7334 0.7311 0.7311 0.7297
982.000000 0.7255 0.7182 0.7107 0.7036 0.6964
987.000000 0.6946 0.6931 0.6883 0.6731 0.6551
992.000000 0.6525 0.6618 0.6756 0.6880 0.6968
997.000000 0.7058 0.7182 0.7315 0.7384 0.7418
1002.000000 0.7446 0.7465 0.7460 0.7451 0.7442
1007.000000 0.7461 0.7421 0.7410 0.7395 0.7376
1012.000000 0.7358 0.7340 0.7318 0.7282 0.7246
1017.000000 0.7206 0.7133 0.7061 0.6961 0.6836
1022.000000 0.6541 0.5960 0.5819 0.5958 0.5767
1027.000000 0.6320 0.6388 0.6455 0.6262 0.6037
1032.000000 0.5692 0.5286 0.5199 0.5178 0.5144
1037.000000 0.5469 0.5633 0.5744 0.5855 0.5958
1042.000000 0.6060 0.6168 0.6279 0.6395 0.6518
1047.000000 0.6772 0.6956 0.7085 0.7184 0.7230
1052.000000 0.7268 0.7304 0.7325 0.7347 0.7347
1057.000000 0.7347 0.7401 0.7339 0.7335 0.7328
1062.000000 0.7321 0.7314 0.7290 0.7267 0.7243
1067.000000 0.7206 0.7165 0.7115 0.7047 0.6976
1072.000000 0.6907 0.6838 0.6721 0.6591 0.6471
1077.000000 0.6356 0.6186 0.5829 0.5360 0.5310
1082.000000 0.5320 0.5360 0.5309 0.5973 0.6329
1087.000000 0.6561 0.6800 0.7124 0.7242 0.7292
1092.000000 0.7332 0.7351 0.7368 0.7376 0.7386
1097.000000 0.7394 0.7401 0.7410 0.7412 0.7415
1102.000000 0.7418 0.7421 0.7422 0.7424 0.7425
1107.000000 0.7426 0.7426 0.7412 0.7399 0.7383
1112.000000 0.7367 0.7351 0.7326 0.7301 0.7276
1117.000000 0.7248 0.7205 0.7161 0.7117 0.7051
1122.000000 0.6968 0.6904 0.6905 0.6905 0.6924
1127.000000 0.6958 0.7045 0.7133 0.7206 0.7243
1132.000000 0.7245 0.7246 0.7246 0.7246 0.7246
1137.000000 0.7242 0.7239 0.7240 0.7240 0.7228
1142.000000 0.7224 0.7218 0.7212 0.7208 0.7203
1147.000000 0.7197 0.7191 0.7183 0.7175 0.7168
1152.000000 0.7160 0.7135 0.7106 0.7075 0.7041
1157.000000 0.7008 0.6985 0.6968 0.6954 0.6938
1162.000000 0.6865 0.6692 0.6597 0.6418 0.6281
1167.000000 0.6147 0.6123 0.6114 0.6092 0.5686
1172.000000 0.5274 0.4862 0.4451 0.4040 0.3628
1177.000000 0.3538 0.3538 0.5265 0.6274 0.6688
1182.000000 0.6814 0.6983 0.7149 0.7219 0.7247
1187.000000 0.7260 0.7272 0.7280 0.7282 0.7282
1192.000000 0.7281 0.7278 0.7276 0.7276 0.7271
1197.000000 0.7271 0.7268 0.7267 0.7265 0.7264
1202.000000 0.7264 0.7264 0.7264 0.7264 0.7265
1207.000000 0.7212 0.7118 0.7034 0.6944 0.6744
1212.000000 0.6815 0.6911 0.7001 0.7100 0.7201
1217.000000 0.7276 0.7287 0.7293 0.7292 0.7291
1222.000000 0.7290 0.7287 0.7284 0.7308 0.7275
1227.000000 0.7271 0.7267 0.7262 0.7251 0.7241
1232.000000 0.7228 0.7212 0.7162 0.7099 0.7031
1237.000000 0.6954 0.6858 0.6760 0.6571 0.6024
1242.000000 0.5967 0.5971 0.6242 0.6391 0.6539
1247.000000 0.6687 0.6836 0.6980 0.6976 0.6995
1252.000000 0.6961 0.6951 0.6942 0.6928 0.6911
1257.000000 0.6886 0.6856 0.6790 0.6708 0.6478
1262.000000 0.6290 0.6158 0.6060 0.5921 0.5932
1267.000000 0.5949 0.6004 0.6120 0.6064 0.6054
1272.000000 0.5991 0.5857 0.5701 0.5548 0.5395
1277.000000 0.5242 0.5103 0.5108 0.5996 0.6541
1282.000000 0.6651 0.6734 0.6769 0.6807 0.6825
1287.000000 0.6845 0.6864 0.6874 0.6883 0.6878
1292.000000 0.6881 0.6868 0.6853 0.6839 0.6828
1297.000000 0.6817 0.6807 0.6796 0.6785 0.6774
1302.000000 0.6765 0.6755 0.6675 0.6601 0.6526
1307.000000 0.6491 0.6485 0.6518 0.6462 0.6686
1312.000000 0.6765 0.6807 0.6810 0.6811 0.6828
1317.000000 0.6801 0.6797 0.6786 0.6771 0.6754
1322.000000 0.6736 0.6718 0.6676 0.6637 0.6593
1327.000000 0.6536 0.6515 0.6512 0.6511 0.6501
1332.000000 0.6593 0.6614 0.6621 0.6622 0.6608
1337.000000 0.6590 0.6568 0.6538 0.6511 0.6493
1342.000000 0.6481 0.6481 0.6482 0.6500 0.6504
1347.000000 0.6526 0.6561 0.6618 0.6712 0.6949
1352.000000 0.7021 0.7076 0.7118 0.7161 0.7206
1357.000000 0.7245 0.7265 0.7284 0.7304 0.7314
1362.000000 0.7318 0.7318 0.7324 0.7315 0.7308
1367.000000 0.7301 0.7280 0.7242 0.7165 0.7098
1372.000000 0.7024 0.6942 0.6843 0.6740 0.6624
1377.000000 0.6399 0.6153 0.5869 0.5586 0.5303
1382.000000 0.5188 0.5293 0.5849 0.6405 0.6961
1387.000000 0.7378 0.7476 0.7633 0.7751 0.7838
1392.000000 0.7886 0.7903 0.7919 0.7931 0.7935
1397.000000 0.7938 0.7942 0.7942 0.7942 0.7940
1402.000000 0.7937 0.7931 0.7925 0.7919 0.7915
1407.000000 0.7908 0.7904 0.7898 0.7889 0.7880
1412.000000 0.7871 0.7862 0.7858 0.7855 0.7851
1417.000000 0.7847 0.7844 0.7840 0.7836 0.7833
1422.000000 0.7828 0.7825 0.7822 0.7819 0.7805
1427.000000 0.7772 0.7721 0.7651 0.7560 0.7468
1432.000000 0.7374 0.7268 0.7156 0.7018 0.6858
1437.000000 0.6682 0.6501 0.6601 0.7206 0.7561
1442.000000 0.7778 0.7836 0.7844 0.7851 0.7856
1447.000000 0.7861 0.7871 0.7856 0.7843 0.7817
1452.000000 0.7782 0.7744 0.7700 0.7580 0.7489
1457.000000 0.7400 0.7296 0.7189 0.7069 0.6985
1462.000000 0.6944 0.6921 0.6900 0.6889 0.6890
1467.000000 0.6857 0.6948 0.7004 0.7030 0.7030
1472.000000 0.7028 0.7019 0.7018 0.7007 0.6844
1477.000000 0.6582 0.6321 0.6183 0.6576 0.6825
1482.000000 0.6918 0.6917 0.6937 0.6901 0.6851
1487.000000 0.6730 0.6651 0.6575 0.6495 0.6383
1492.000000 0.6096 0.5918 0.5744 0.5395 0.5110
1497.000000 0.4819 0.4527 0.4235 0.3944 0.3652
1502.000000 0.2990 0.2834 0.2774 0.2755 0.2767
1507.000000 0.2779 0.2820 0.3726 0.4631 0.5537
1512.000000 0.7381 0.7588 0.7915 0.8028 0.8200
1517.000000 0.8302 0.8352 0.8383 0.8406 0.8410
1522.000000 0.8411 0.8411 0.8408 0.8406 0.8399
1527.000000 0.8392 0.8385 0.8378 0.8371 0.8366
1532.000000 0.8361 0.8359 0.8358 0.8357 0.8357
1537.000000 0.8358 0.8378 0.8366 0.8371 0.8378
1542.000000 0.8392 0.8404 0.8417 0.8427 0.8435
1547.000000 0.8443 0.8451 0.8451 0.8451 0.8449
1552.000000 0.8445 0.8441 0.8415 0.8388 0.8361
1557.000000 0.8336 0.8312 0.8287 0.8262 0.8237
1562.000000 0.8184 0.8125 0.8065 0.8005 0.7935
1567.000000 0.7865 0.7796 0.7701 0.7606 0.7469
1572.000000 0.7328 0.7148 0.6740 0.6571 0.6517
1577.000000 0.6461 0.6421 0.6384 0.6266 0.6128
1582.000000 0.6029 0.6014 0.6700 0.6858 0.6938
1587.000000 0.7012 0.7042 0.7208 0.7661 0.7693
1592.000000 0.7725 0.7682 0.7619 0.7541 0.7474
1597.000000 0.7407 0.7325 0.7245 0.7125 0.6769
1602.000000 0.6597 0.6528 0.6575 0.6643 0.6754
1607.000000 0.6847 0.7118 0.7293 0.7375 0.7361
1612.000000 0.7356 0.7296 0.7232 0.7192 0.7153
1617.000000 0.7119 0.7088 0.7056 0.6926 0.6778
1622.000000 0.6632 0.6622 0.6607 0.7007 0.7236
1627.000000 0.7465 0.7693 0.7921 0.8151 0.8380
1632.000000 0.8641 0.8689 0.8731 0.8756 0.8771
1637.000000 0.8787 0.8803 0.8812 0.8823 0.8823
1642.000000 0.8825 0.8825 0.8827 0.8821 0.8816
1647.000000 0.8811 0.8805 0.8800 0.8794 0.8788
1652.000000 0.8780 0.8767 0.8755 0.8743 0.8734
1657.000000 0.8724 0.8715 0.8705 0.8696 0.8688
1662.000000 0.8680 0.8673 0.8665 0.8658 0.8650
1667.000000 0.8642 0.8633 0.8630 0.8628 0.8628
1672.000000 0.8628 0.8628 0.8628 0.8628 0.8615
1677.000000 0.8602 0.8590 0.8577 0.8571 0.8566
1682.000000 0.8560 0.8554 0.8551 0.8548 0.8546
1687.000000 0.8543 0.8541 0.8542 0.8542 0.8544
1692.000000 0.8546 0.8548 0.8551 0.8554 0.8556
1697.000000 0.8559 0.8561 0.8562 0.8563 0.8565
1702.000000 0.8566 0.8568 0.8568 0.8571 0.8571
1707.000000 0.8573 0.8575 0.8575 0.8577 0.8577
1712.000000 0.8577 0.8577 0.8575 0.8575 0.8575
1717.000000 0.8575 0.8575 0.8575 0.8575 0.8575
1722.000000 0.8571 0.8568 0.8566 0.8563 0.8560
1727.000000 0.8557 0.8553 0.8550 0.8547 0.8544
1732.000000 0.8541 0.8538 0.8535 0.8531 0.8528
1737.000000 0.8525 0.8521 0.8518 0.8515 0.8512
1742.000000 0.8508 0.8505 0.8502 0.8499 0.8495
1747.000000 0.8491 0.8487 0.8483 0.8478 0.8475
1752.000000 0.8471 0.8467 0.8463 0.8459 0.8455
1757.000000 0.8451 0.8447 0.8443 0.8438 0.8434
1762.000000 0.8430 0.8425 0.8421 0.8417 0.8412
1767.000000 0.8408 0.8404 0.8399 0.8395 0.8391
1772.000000 0.8386 0.8380 0.8373 0.8367 0.8361
1777.000000 0.8355 0.8348 0.8342 0.8336 0.8330
1782.000000 0.8323 0.8317 0.8312 0.8310 0.8307
1787.000000 0.8305 0.8303 0.8300 0.8298 0.8295
1792.000000 0.8293 0.8290 0.8288 0.8286 0.8283
1797.000000 0.8281 0.8278 0.8275 0.8275 0.8274
1802.000000 0.8273 0.8271 0.8270 0.8268 0.8268
1807.000000 0.8267 0.8266 0.8265 0.8264 0.8263
1812.000000 0.8262 0.8261 0.8258 0.8254 0.8250
1817.000000 0.8247 0.8243 0.8239 0.8236 0.8232
1822.000000 0.8225 0.8212 0.8199 0.8185 0.8174
1827.000000 0.8164 0.8153 0.8143 0.8133 0.8125
1832.000000 0.8118 0.8111 0.8103 0.8095 0.8088
1837.000000 0.8083 0.8076 0.8071 0.8067 0.8061
1842.000000 0.8056 0.8054 0.8058 0.8058 0.8060
1847.000000 0.8061 0.8062 0.8065 0.8068 0.8069
1852.000000 0.8071 0.8071 0.8064 0.8057 0.8050
1857.000000 0.8044 0.8038 0.8036 0.8034 0.8032
1862.000000 0.8030 0.8028 0.8025 0.8024 0.8021
1867.000000 0.8021 0.8021 0.8019 0.8018 0.8018
1872.000000 0.8015 0.8011 0.8008 0.8005 0.8001
1877.000000 0.7999 0.7995 0.7991 0.7987 0.7983
1882.000000 0.7978 0.7975 0.7971 0.7968 0.7964
1887.000000 0.7961 0.7961 0.7958 0.7958 0.7953
1892.000000 0.7943 0.7933 0.7922 0.7912 0.7903
1897.000000 0.7893 0.7882 0.7864 0.7846 0.7828
1902.000000 0.7810 0.7793 0.7776 0.7761 0.7747
1907.000000 0.7731 0.7715 0.7700 0.7685 0.7669
1912.000000 0.7657 0.7643 0.7630 0.7615 0.7605
1917.000000 0.7600 0.7595 0.7590 0.7585 0.7581
1922.000000 0.7578 0.7578 0.7578 0.7578 0.7578
1927.000000 0.7578 0.7578 0.7578 0.7574 0.7562
1932.000000 0.7553 0.7544 0.7536 0.7528 0.7519
1937.000000 0.7511 0.7503 0.7495 0.7487 0.7478
1942.000000 0.7471 0.7461 0.7454 0.7445 0.7437
1947.000000 0.7428 0.7419 0.7411 0.7404 0.7389
1952.000000 0.7375 0.7360 0.7346 0.7326 0.7308
1957.000000 0.7290 0.7271 0.7258 0.7247 0.7235
1962.000000 0.7222 0.7225 0.7228 0.7232 0.7234
1967.000000 0.7234 0.7234 0.7234 0.7234 0.7232
1972.000000 0.7208 0.7226 0.7225 0.7221 0.7217
1977.000000 0.7211 0.7208 0.7204 0.7199 0.7195
1982.000000 0.7188 0.7178 0.7168 0.7171 0.7189
1987.000000 0.7201 0.7214 0.7225 0.7239 0.7249
1992.000000 0.7258 0.7268 0.7281 0.7296 0.7310
1997.000000 0.7324 0.7361 0.7428 0.7471 0.7504
2002.000000 0.7538 0.7553 0.7568 0.7584 0.7600
2007.000000 0.7615 0.7631 0.7644 0.7658 0.7671
2012.000000 0.7686 0.7693 0.7700 0.7705 0.7710
2017.000000 0.7715 0.7721 0.7728 0.7735 0.7742
2022.000000 0.7750 0.7758 0.7765 0.7774 0.7782
2027.000000 0.7798 0.7814 0.7818 0.7821 0.7821
2032.000000 0.7821 0.7821 0.7819 0.7818 0.7817
2037.000000 0.7812 0.7808 0.7804 0.7799 0.7793
2042.000000 0.7788 0.7782 0.7776 0.7771 0.7765
2047.000000 0.7758 0.7754 0.7746 0.7739 0.7731
2052.000000 0.7722 0.7715 0.7707 0.7708 0.7711
2057.000000 0.7711 0.7714 0.7715 0.7718 0.7719
2062.000000 0.7722 0.7726 0.7731 0.7735 0.7740
2067.000000 0.7743 0.7746 0.7747 0.7749 0.7750
2072.000000 0.7751 0.7753 0.7755 0.7755 0.7755
2077.000000 0.7755 0.7754 0.7753 0.7751 0.7751
2082.000000 0.7750 0.7749 0.7748 0.7746 0.7745
2087.000000 0.7742 0.7740 0.7737 0.7735 0.7733
2092.000000 0.7731 0.7728 0.7725 0.7724 0.7721
2097.000000 0.7718 0.7717 0.7715 0.7712 0.7710
2102.000000 0.7708 0.7705 0.7703 0.7701 0.7699
2107.000000 0.7696 0.7694 0.7691 0.7689 0.7686
2112.000000 0.7684 0.7681 0.7678 0.7675 0.7674
2117.000000 0.7671 0.7668 0.7665 0.7662 0.7660
2122.000000 0.7658 0.7655 0.7651 0.7649 0.7646
2127.000000 0.7643 0.7641 0.7638 0.7635 0.7632
2132.000000 0.7630 0.7626 0.7624 0.7621 0.7618
2137.000000 0.7615 0.7612 0.7610 0.7607 0.7604
2142.000000 0.7601 0.7598 0.7595 0.7592 0.7589
2147.000000 0.7585 0.7582 0.7578 0.7574 0.7558
2152.000000 0.7543 0.7526 0.7511 0.7496 0.7481
2157.000000 0.7465 0.7449 0.7443 0.7437 0.7431
2162.000000 0.7425 0.7425 0.7425 0.7426 0.7428
2167.000000 0.7431 0.7434 0.7437 0.7441 0.7445
2172.000000 0.7449 0.7454 0.7458 0.7464 0.7468
2177.000000 0.7467 0.7465 0.7461 0.7460 0.7458
2182.000000 0.7456 0.7451 0.7448 0.7443 0.7439
2187.000000 0.7434 0.7430 0.7425 0.7421 0.7415
2192.000000 0.7410 0.7404 0.7399 0.7393 0.7388
2197.000000 0.7382 0.7376 0.7371 0.7365 0.7360
2202.000000 0.7355 0.7349 0.7344 0.7339 0.7334
2207.000000 0.7328 0.7321 0.7315 0.7310 0.7304
2212.000000 0.7298 0.7292 0.7286 0.7280 0.7274
2217.000000 0.7265 0.7258 0.7248 0.7239 0.7228
2222.000000 0.7219 0.7211 0.7201 0.7192 0.7183
2227.000000 0.7172 0.7164 0.7154 0.7145 0.7136
2232.000000 0.7126 0.7118 0.7108 0.7100 0.7091
2237.000000 0.7082 0.7072 0.7064 0.7055 0.7046
2242.000000 0.7037 0.7028 0.7018 0.7010 0.7001
2247.000000 0.6993 0.6986 0.6980 0.6975 0.6968
2252.000000 0.6962 0.6957 0.6951 0.6945 0.6939
2257.000000 0.6933 0.6928 0.6921 0.6917 0.6911
2262.000000 0.6908 0.6903 0.6899 0.6894 0.6890
2267.000000 0.6886 0.6882 0.6876 0.6872 0.6868
2272.000000 0.6864 0.6858 0.6855 0.6850 0.6846
2277.000000 0.6842 0.6838 0.6833 0.6828 0.6824
2282.000000 0.6819 0.6815 0.6811 0.6806 0.6801
2287.000000 0.6796 0.6790 0.6781 0.6772 0.6765
2292.000000 0.6757 0.6749 0.6741 0.6733 0.6725
2297.000000 0.6718 0.6712 0.6706 0.6699 0.6692
2302.000000 0.6685 0.6676 0.6668 0.6661 0.6653
2307.000000 0.6644 0.6636 0.6628 0.6619 0.6612
2312.000000 0.6606 0.6598 0.6591 0.6584 0.6578
2317.000000 0.6574 0.6571 0.6568 0.6565 0.6561
2322.000000 0.6561 0.6561 0.6562 0.6565 0.6568
2327.000000 0.6569 0.6571 0.6574 0.6575 0.6581
2332.000000 0.6586 0.6592 0.6599 0.6605 0.6611
2337.000000 0.6615 0.6621 0.6625 0.6632 0.6637
2342.000000 0.6642 0.6645 0.6649 0.6649 0.6649
2347.000000 0.6649 0.6649 0.6648 0.6647 0.6644
2352.000000 0.6642 0.6639 0.6637 0.6634 0.6631
2357.000000 0.6628 0.6625 0.6621 0.6617 0.6612
2362.000000 0.6608 0.6605 0.6601 0.6597 0.6593
2367.000000 0.6589 0.6585 0.6580 0.6575 0.6569
2372.000000 0.6565 0.6560 0.6556 0.6551 0.6546
2377.000000 0.6541 0.6536 0.6531 0.6526 0.6521
2382.000000 0.6515 0.6508 0.6501 0.6496 0.6490
2387.000000 0.6484 0.6478 0.6471 0.6465 0.6458
2392.000000 0.6453 0.6446 0.6440 0.6433 0.6426
2397.000000 0.6419 0.6412 0.6406 0.6400 0.6393
2402.000000 0.6386 0.6379 0.6372 0.6365 0.6359
2407.000000 0.6352 0.6345 0.6338 0.6332 0.6323
2412.000000 0.6314 0.6305 0.6296 0.6287 0.6278
2417.000000 0.6269 0.6260 0.6252 0.6243 0.6236
2422.000000 0.6229 0.6222 0.6216 0.6209 0.6202
2427.000000 0.6195 0.6189 0.6182 0.6175 0.6168
2432.000000 0.6160 0.6154 0.6148 0.6146 0.6145
2437.000000 0.6144 0.6143 0.6142 0.6141 0.6139
2442.000000 0.6138 0.6138 0.6139 0.6140 0.6141
2447.000000 0.6137 0.6133 0.6121 0.6109 0.6097
2452.000000 0.6085 0.6052 0.6019 0.6003 0.5987
2457.000000 0.5971 0.5955 0.5939 0.5923 0.5905
2462.000000 0.5888 0.5869 0.5850 0.5823 0.5797
2467.000000 0.5765 0.5734 0.5678 0.5623 0.5551
2472.000000 0.5479 0.5444 0.5409 0.5397 0.5385
2477.000000 0.5374 0.5364 0.5356 0.5348 0.5341
2482.000000 0.5335 0.5328 0.5321 0.5316 0.5312
2487.000000 0.5309 0.5307 0.5305 0.5304 0.5303
2492.000000 0.5302 0.5322 0.5342 0.5496 0.5650
2497.000000 0.5704 0.5759 0.5800 0.5842 0.5864
2502.000000 0.5886 0.5897 0.5934 0.5909 0.5909
2507.000000 0.5905 0.5902 0.5896 0.5891 0.5884
2512.000000 0.5878 0.5869 0.5860 0.5850 0.5840
2517.000000 0.5832 0.5824 0.5816 0.5808 0.5800
2522.000000 0.5792 0.5783 0.5775 0.5766 0.5757
2527.000000 0.5748 0.5740 0.5729 0.5718 0.5702
2532.000000 0.5687 0.5667 0.5648 0.5622 0.5597
2537.000000 0.5571 0.5546 0.5482 0.5419 0.5375
2542.000000 0.5331 0.5297 0.5262 0.5233 0.5203
2547.000000 0.5185 0.5167 0.5151 0.5135 0.5126
2552.000000 0.5118 0.5110 0.5102 0.5093 0.5084
2557.000000 0.5075 0.5066 0.5057 0.5048 0.5035
2562.000000 0.5022 0.5002 0.4983 0.4960 0.4937
2567.000000 0.4906 0.4875 0.4836 0.4798 0.4751
2572.000000 0.4704 0.4570 0.4437 0.4428 0.4419
2577.000000 0.4414 0.4395 0.4426 0.4443 0.4497
2582.000000 0.4551 0.4597 0.4644 0.4690 0.4736
2587.000000 0.5001 0.5267 0.5306 0.5345 0.5370
2592.000000 0.5395 0.5415 0.5436 0.5447 0.5458
2597.000000 0.5462 0.5468 0.5466 0.5448 0.5460
2602.000000 0.5458 0.5453 0.5449 0.5442 0.5436
2607.000000 0.5427 0.5419 0.5410 0.5403 0.5394
2612.000000 0.5386 0.5376 0.5367 0.5357 0.5348
2617.000000 0.5338 0.5329 0.5319 0.5310 0.5296
2622.000000 0.5282 0.5268 0.5254 0.5237 0.5221
2627.000000 0.5200 0.5180 0.5159 0.5139 0.5114
2632.000000 0.5089 0.5062 0.5036 0.5008 0.4981
2637.000000 0.4951 0.4921 0.4890 0.4859 0.4810
2642.000000 0.4762 0.4715 0.4667 0.4607 0.4547
2647.000000 0.4493 0.4440 0.4395 0.4351 0.4342
2652.000000 0.4333 0.4323 0.4314 0.4304 0.4295
2657.000000 0.4281 0.4268 0.4248 0.4229 0.4194
2662.000000 0.4160 0.4148 0.4136 0.4131 0.4126
2667.000000 0.4124 0.4125 0.4126 0.4129 0.4136
2672.000000 0.4118 0.4152 0.4160 0.4184 0.4209
2677.000000 0.4252 0.4296 0.4340 0.4384 0.4437
2682.000000 0.4490 0.4520 0.4549 0.4552 0.4555
2687.000000 0.4555 0.4555 0.4554 0.4553 0.4552
2692.000000 0.4551 0.4549 0.4548 0.4546 0.4545
2697.000000 0.4544 0.4543 0.4541 0.4540 0.4536
2702.000000 0.4532 0.4528 0.4524 0.4514 0.4505
2707.000000 0.4493 0.4482 0.4470 0.4459 0.4445
2712.000000 0.4432 0.4412 0.4394 0.4375 0.4356
2717.000000 0.4336 0.4317 0.4298 0.4279 0.4259
2722.000000 0.4239 0.4193 0.4148 0.4119 0.4091
2727.000000 0.4066 0.4041 0.3994 0.3948 0.3852
2732.000000 0.3756 0.3694 0.3632 0.3573 0.3512
2737.000000 0.3458 0.3404 0.3388 0.3372 0.3357
2742.000000 0.3306 0.3340 0.3338 0.3334 0.3332
2747.000000 0.3442 0.3550 0.3658 0.3766 0.3766
2752.000000 0.3766 0.3766 0.3766 0.3752 0.3759
2757.000000 0.3714 0.3690 0.3650 0.3612 0.3582
2762.000000 0.3550 0.3532 0.3514 0.3495 0.3477
2767.000000 0.3459 0.3441 0.3428 0.3414 0.3402
2772.000000 0.3389 0.3377 0.3366 0.3358 0.3350
2777.000000 0.3341 0.3332 0.3326 0.3320 0.3314
2782.000000 0.3308 0.3300 0.3295 0.3288 0.3282
2787.000000 0.3275 0.3268 0.3259 0.3252 0.3243
2792.000000 0.3234 0.3218 0.3203 0.3176 0.3149
2797.000000 0.3121 0.3093 0.3063 0.3034 0.2999
2802.000000 0.2965 0.2928 0.2892 0.2855 0.2819
2807.000000 0.2782 0.2746 0.2702 0.2658 0.2610
2812.000000 0.2563 0.2532 0.2501 0.2478 0.2456
2817.000000 0.2433 0.2411 0.2387 0.2363 0.2337
2822.000000 0.2311 0.2291 0.2271 0.2261 0.2251
2827.000000 0.2241 0.2232 0.2222 0.2212 0.2201
2832.000000 0.2191 0.2161 0.2131 0.2101 0.2071
2837.000000 0.2050 0.2029 0.2010 0.1992 0.1973
2842.000000 0.1954 0.1937 0.1921 0.1906 0.1892
2847.000000 0.1878 0.1864 0.1856 0.1848 0.1844
2852.000000 0.1842 0.1839 0.1836 0.1834 0.1832
2857.000000 0.1824 0.1816 0.1808 0.1800 0.1790
2862.000000 0.1781 0.1761 0.1741 0.1721 0.1702
2867.000000 0.1689 0.1677 0.1665 0.1653 0.1641
2872.000000 0.1629 0.1618 0.1606 0.1594 0.1583
2877.000000 0.1572 0.1562 0.1551 0.1541 0.1530
2882.000000 0.1520 0.1513 0.1506 0.1499 0.1492
2887.000000 0.1487 0.1481 0.1475 0.1469 0.1462
2892.000000 0.1456 0.1450 0.1444 0.1442 0.1442
2897.000000 0.1442 0.1421 0.1446 0.1449 0.1452
2902.000000 0.1456 0.1461 0.1466 0.1485 0.1504
2907.000000 0.1581 0.1659 0.1693 0.1728 0.1758
2912.000000 0.1787 0.1801 0.1815 0.1829 0.1843
2917.000000 0.1849 0.1856 0.1860 0.1864 0.1868
2922.000000 0.1876 0.1876 0.1877 0.1876 0.1876
2927.000000 0.1873 0.1871 0.1866 0.1862 0.1857
2932.000000 0.1852 0.1846 0.1843 0.1836 0.1831
2937.000000 0.1825 0.1819 0.1813 0.1807 0.1800
2942.000000 0.1794 0.1787 0.1782 0.1776 0.1770
2947.000000 0.1763 0.1756 0.1748 0.1741 0.1734
2952.000000 0.1727 0.1719 0.1712 0.1704 0.1699
2957.000000 0.1692 0.1684 0.1686 0.1689 0.1701
2962.000000 0.1682 0.1729 0.1744 0.1761 0.1778
2967.000000 0.1790 0.1803 0.1815 0.1828 0.1836
2972.000000 0.1846 0.1856 0.1866 0.1887 0.1910
2977.000000 0.2004 0.2101 0.2153 0.2206 0.2233
2982.000000 0.2260 0.2272 0.2284 0.2287 0.2324
2987.000000 0.2289 0.2288 0.2284 0.2280 0.2273
2992.000000 0.2266 0.2250 0.2234 0.2212 0.2190
2997.000000 0.2170 0.2151 0.2134 0.2118 0.2101
3002.000000 0.2084 0.2073 0.2062 0.2062 0.2063
3007.000000 0.2063 0.2062 0.2066 0.2068 0.2072
3012.000000 0.2077 0.2098 0.2120 0.2152 0.2184
3017.000000 0.2216 0.2248 0.2277 0.2306 0.2328
3022.000000 0.2350 0.2371 0.2392 0.2409 0.2427
3027.000000 0.2443 0.2459 0.2470 0.2481 0.2506
3032.000000 0.2532 0.2575 0.2618 0.2662 0.2706
3037.000000 0.2770 0.2834 0.2907 0.2980 0.3023
3042.000000 0.3066 0.3093 0.3121 0.3144 0.3167
3047.000000 0.3184 0.3203 0.3221 0.3239 0.3250
3052.000000 0.3262 0.3271 0.3280 0.3286 0.3293
3057.000000 0.3297 0.3302 0.3306 0.3309 0.3314
3062.000000 0.3318 0.3318 0.3321 0.3323 0.3325
3067.000000 0.3326 0.3328 0.3332 0.3336 0.3340
3072.000000 0.3344 0.3348 0.3352 0.3356 0.3359
3077.000000 0.3370 0.3380 0.3403 0.3425 0.3459
3082.000000 0.3494 0.3532 0.3570 0.3612 0.3656
3087.000000 0.3695 0.3734 0.3770 0.3805 0.3842
3092.000000 0.3879 0.3923 0.3966 0.3999 0.4032
3097.000000 0.4055 0.4079 0.4103 0.4127 0.4150
3102.000000 0.4173 0.4193 0.4214 0.4235 0.4256
3107.000000 0.4277 0.4298 0.4322 0.4347 0.4371
3112.000000 0.4396 0.4420 0.4444 0.4475 0.4506
3117.000000 0.4539 0.4572 0.4610 0.4650 0.4700
3122.000000 0.4751 0.4789 0.4828 0.4860 0.4892
3127.000000 0.4924 0.4956 0.4987 0.5019 0.5049
3132.000000 0.5079 0.5109 0.5139 0.5169 0.5199
3137.000000 0.5226 0.5253 0.5272 0.5291 0.5310
3142.000000 0.5329 0.5348 0.5367 0.5385 0.5404
3147.000000 0.5423 0.5442 0.5462 0.5483 0.5504
3152.000000 0.5525 0.5541 0.5558 0.5574 0.5590
3157.000000 0.5606 0.5623 0.5639 0.5655 0.5671
3162.000000 0.5687 0.5703 0.5719 0.5735 0.5751
3167.000000 0.5767 0.5783 0.5798 0.5814 0.5830
3172.000000 0.5846 0.5856 0.5866 0.5876 0.5887
3177.000000 0.5897 0.5907 0.5917 0.5927 0.5937
3182.000000 0.5947 0.5958 0.5970 0.5981 0.5993
3187.000000 0.6004 0.6016 0.6027 0.6039 0.6050
3192.000000 0.6062 0.6073 0.6085 0.6096 0.6108
3197.000000 0.6119 0.6131 0.6142 0.6154 0.6165
3202.000000 0.6177 0.6188 0.6200 0.6210 0.6223
3207.000000 0.6235 0.6247 0.6260 0.6273 0.6286
3212.000000 0.6299 0.6310 0.6324 0.6337 0.6350
3217.000000 0.6362 0.6375 0.6387 0.6400 0.6411
3222.000000 0.6425 0.6437 0.6450 0.6461 0.6475
3227.000000 0.6487 0.6500 0.6511 0.6524 0.6538
3232.000000 0.6551 0.6565 0.6581 0.6595 0.6610
3237.000000 0.6624 0.6639 0.6651 0.6665 0.6674
3242.000000 0.6683 0.6692 0.6701 0.6708 0.6715
3247.000000 0.6718 0.6724 0.6728 0.6733 0.6737
3252.000000 0.6742 0.6743 0.6744 0.6745 0.6746
3257.000000 0.6747 0.6749 0.6749 0.6749 0.6748
3262.000000 0.6748 0.6747 0.6747 0.6747 0.6747
3267.000000 0.6744 0.6742 0.6739 0.6737 0.6734
3272.000000 0.6731 0.6728 0.6725 0.6722 0.6719
3277.000000 0.6717 0.6715 0.6711 0.6708 0.6706
3282.000000 0.6704 0.6700 0.6697 0.6693 0.6689
3287.000000 0.6685 0.6681 0.6676 0.6674 0.6669
3292.000000 0.6665 0.6661 0.6658 0.6653 0.6649
3297.000000 0.6644 0.6640 0.6635 0.6631 0.6625
3302.000000 0.6621 0.6617 0.6612 0.6608 0.6604
3307.000000 0.6600 0.6596 0.6591 0.6587 0.6582
3312.000000 0.6578 0.6571 0.6567 0.6561 0.6557
3317.000000 0.6551 0.6546 0.6541 0.6536 0.6531
3322.000000 0.6525 0.6519 0.6515 0.6510 0.6505
3327.000000 0.6499 0.6494 0.6489 0.6484 0.6478
3332.000000 0.6472 0.6468 0.6462 0.6458 0.6453
3337.000000 0.6449 0.6445 0.6441 0.6437 0.6432
3342.000000 0.6428 0.6424 0.6419 0.6415 0.6411
3347.000000 0.6407 0.6403 0.6399 0.6395 0.6391
3352.000000 0.6387 0.6382 0.6378 0.6374 0.6370
3357.000000 0.6366 0.6362 0.6357 0.6353 0.6349
3362.000000 0.6345 0.6341 0.6337 0.6333 0.6330
3367.000000 0.6327 0.6324 0.6320 0.6317 0.6314
3372.000000 0.6310 0.6308 0.6305 0.6302 0.6299
3377.000000 0.6296 0.6293 0.6289 0.6286 0.6283
3382.000000 0.6280 0.6277 0.6274 0.6271 0.6268
3387.000000 0.6265 0.6262 0.6258 0.6255 0.6252
3392.000000 0.6249 0.6246 0.6243 0.6240 0.6237
3397.000000 0.6234 0.6231 0.6228 0.6225 0.6222
3402.000000 0.6219 0.6216 0.6212 0.6210 0.6207
3407.000000 0.6204 0.6201 0.6198 0.6196 0.6193
3412.000000 0.6190 0.6187 0.6184 0.6181 0.6178
3417.000000 0.6175 0.6172 0.6169 0.6167 0.6164
3422.000000 0.6160 0.6158 0.6155 0.6152 0.6149
3427.000000 0.6146 0.6144 0.6141 0.6138 0.6135
3432.000000 0.6132 0.6129 0.6126 0.6123 0.6120
3437.000000 0.6117 0.6114 0.6110 0.6107 0.6103
3442.000000 0.6100 0.6096 0.6093 0.6090 0.6087
3447.000000 0.6083 0.6080 0.6076 0.6073 0.6070
3452.000000 0.6067 0.6062 0.6060 0.6056 0.6053
3457.000000 0.6049 0.6046 0.6043 0.6040 0.6036
3462.000000 0.6033 0.6029 0.6026 0.6023 0.6020
3467.000000 0.6016 0.6012 0.6009 0.6006 0.6002
3472.000000 0.5999 0.5996 0.5993 0.5989 0.5986
3477.000000 0.5982 0.5979 0.5976 0.5973 0.5970
3482.000000 0.5968 0.5965 0.5962 0.5959 0.5956
3487.000000 0.5953 0.5950 0.5947 0.5944 0.5941
3492.000000 0.5939 0.5936 0.5933 0.5930 0.5927
3497.000000 0.5924 0.5921 0.5918 0.5916 0.5912
3502.000000 0.5910 0.5907 0.5904 0.5901 0.5898
3507.000000 0.5895 0.5892 0.5889 0.5887 0.5884
3512.000000 0.5881 0.5878 0.5875 0.5872 0.5869
3517.000000 0.5866 0.5862 0.5860 0.5858 0.5855
3522.000000 0.5852 0.5849 0.5846 0.5843 0.5841
3527.000000 0.5838 0.5836 0.5833 0.5831 0.5828
3532.000000 0.5826 0.5823 0.5820 0.5817 0.5815
3537.000000 0.5812 0.5810 0.5807 0.5805 0.5802
3542.000000 0.5800 0.5797 0.5794 0.5791 0.5789
3547.000000 0.5786 0.5784 0.5781 0.5779 0.5776
3552.000000 0.5773 0.5770 0.5768 0.5765 0.5762
3557.000000 0.5760 0.5758 0.5755 0.5753 0.5750
3562.000000 0.5747 0.5744 0.5741 0.5738 0.5736
3567.000000 0.5733 0.5730 0.5727 0.5724 0.5721
3572.000000 0.5719 0.5716 0.5712 0.5710 0.5707
3577.000000 0.5704 0.5701 0.5698 0.5696 0.5693
3582.000000 0.5690 0.5687 0.5684 0.5681 0.5679
3587.000000 0.5676 0.5673 0.5670 0.5667 0.5664
3592.000000 0.5660 0.5658 0.5656 0.5653 0.5650
3597.000000 0.5647 0.5645 0.5642 0.5639 0.5636
3602.000000 0.5634 0.5631 0.5629 0.5626 0.5623
3607.000000 0.5620 0.5618 0.5615 0.5612 0.5610
3612.000000 0.5607 0.5604 0.5602 0.5599 0.5597
3617.000000 0.5594 0.5591 0.5588 0.5586 0.5583
3622.000000 0.5581 0.5578 0.5575 0.5572 0.5570
3627.000000 0.5567 0.5565 0.5562 0.5559 0.5556
3632.000000 0.5554 0.5551 0.5549 0.5546 0.5543
3637.000000 0.5540 0.5537 0.5533 0.5530 0.5527
3642.000000 0.5524 0.5521 0.5518 0.5515 0.5512
3647.000000 0.5509 0.5506 0.5503 0.5500 0.5496
3652.000000 0.5493 0.5490 0.5487 0.5484 0.5481
3657.000000 0.5478 0.5475 0.5472 0.5469 0.5465
3662.000000 0.5462 0.5459 0.5456 0.5453 0.5450
3667.000000 0.5447 0.5444 0.5441 0.5438 0.5435
3672.000000 0.5432 0.5429 0.5427 0.5424 0.5421
3677.000000 0.5418 0.5416 0.5412 0.5410 0.5408
3682.000000 0.5405 0.5402 0.5400 0.5397 0.5395
3687.000000 0.5392 0.5389 0.5388 0.5387 0.5386
3692.000000 0.5386 0.5386 0.5386 0.5385 0.5385
3697.000000 0.5385 0.5385 0.5384 0.5384 0.5384
3702.000000 0.5384 0.5383 0.5383 0.5383 0.5383
3707.000000 0.5382 0.5382 0.5382 0.5382 0.5380
3712.000000 0.5379 0.5376 0.5374 0.5371 0.5369
3717.000000 0.5367 0.5365 0.5362 0.5360 0.5357
3722.000000 0.5355 0.5353 0.5351 0.5348 0.5346
3727.000000 0.5343 0.5341 0.5339 0.5337 0.5334
3732.000000 0.5332 0.5329 0.5327 0.5324 0.5322
3737.000000 0.5319 0.5317 0.5314 0.5310 0.5308
3742.000000 0.5306 0.5303 0.5301 0.5298 0.5296
3747.000000 0.5293 0.5291 0.5288 0.5285 0.5281
3752.000000 0.5278 0.5275 0.5272 0.5268 0.5265
3757.000000 0.5262 0.5259 0.5256 0.5253 0.5249
3762.000000 0.5246 0.5243 0.5240 0.5237 0.5234
3767.000000 0.5230 0.5227 0.5224 0.5221 0.5217
3772.000000 0.5212 0.5209 0.5205 0.5200 0.5196
3777.000000 0.5192 0.5188 0.5184 0.5180 0.5176
3782.000000 0.5172 0.5167 0.5162 0.5159 0.5155
3787.000000 0.5151 0.5147 0.5142 0.5138 0.5134
3792.000000 0.5130 0.5126 0.5122 0.5117 0.5112
3797.000000 0.5109 0.5105 0.5104 0.5104
##END=
