##TITLE=SODIUM CHROMATE
##JCAMP-DX=4.24
##DATA TYPE=INFRARED SPECTRUM
##CLASS=COBLENTZ
##ORIGIN=MELLON INSTITUTE
##OWNER=COBLENTZ SOCIETY
Collection (C) 2018 copyright by the U.S. Secretary of Commerce
on behalf of the United States of America. All rights reserved.
##DATE=Not specified, most likely prior to 1970
##MOLFORM=Na2 Cr O4
##SOURCE REFERENCE=COBLENTZ NO. 458
##$NIST ID=B6000458
##$NIST SOURCE=COBLENTZ
##$NIST IMAGE=cob458
##SPECTROMETER/DATA SYSTEM=Not specified, most likely a prism, grating, or hybrid spectrometer.
##STATE=SOLID (NUJOL MULL)
$$PURITY UNKNOWN
##PATH LENGTH=
$$SPECTRAL CONTAMINATION DUE TO OIL AROUND 2900, 1450, 1380 CM^-^1
##SAMPLING PROCEDURE=TRANSMISSION
##RESOLUTION=4
##DATA PROCESSING=DIGITIZED BY NIST FROM HARD COPY
##XUNITS=MICROMETERS
##YUNITS=TRANSMITTANCE
##XFACTOR=1.000000
##YFACTOR=1
##DELTAX=000.006651
##FIRSTX=2.022
##LASTX=15.989
##FIRSTY=0.753
##MAXX=15.989
##MINX=2.022
##MAXY=0.959
##MINY=0.08
##NPOINTS=2101
##XYDATA=(X++(Y..Y))
2.022000 0.7530 0.7530 0.7550 0.7550 0.7580
2.055269 0.7580 0.7600 0.7620 0.7630 0.7650
2.089000 0.7670 0.7680 0.7730 0.7750 0.7780
2.122269 0.7800 0.7820 0.7820 0.7830 0.7830
2.155000 0.7850 0.7870 0.7880 0.7880 0.7900
2.188269 0.7920 0.7930 0.7930 0.7950 0.7950
2.222000 0.7970 0.7980 0.7980 0.8000 0.8000
2.255269 0.8020 0.8020 0.8040 0.8040 0.8050
2.288000 0.8050 0.8070 0.8090 0.8120 0.8140
2.321269 0.8140 0.8150 0.8170 0.8190 0.8220
2.355000 0.8220 0.8240 0.8240 0.8270 0.8290
2.388269 0.8300 0.8300 0.8320 0.8340 0.8370
2.421000 0.8400 0.8420 0.8440 0.8470 0.8500
2.454269 0.8520 0.8540 0.8590 0.8620 0.8640
2.488000 0.8690 0.8710 0.8740 0.8770 0.8810
2.521269 0.8840 0.8870 0.8890 0.8890 0.8920
2.554000 0.8940 0.8960 0.8960 0.8990 0.8990
2.587269 0.9010 0.9010 0.9010 0.9020 0.9020
2.621000 0.9040 0.9060 0.9060 0.9070 0.9070
2.654269 0.9070 0.9060 0.9060 0.9060 0.9060
2.687000 0.9040 0.9040 0.9020 0.8990 0.8940
2.720269 0.8910 0.8810 0.8690 0.8590 0.8440
2.754000 0.8300 0.8120 0.8000 0.7670 0.7520
2.787269 0.7060 0.6950 0.6660 0.6190 0.5520
2.820000 0.5040 0.4900 0.4570 0.4400 0.4200
2.853269 0.4080 0.3900 0.3750 0.3560 0.3480
2.887000 0.3330 0.3190 0.3060 0.2980 0.2710
2.920269 0.2590 0.2490 0.2440 0.2390 0.2360
2.953000 0.2310 0.2240 0.2190 0.2120 0.2110
2.986269 0.2060 0.2040 0.1970 0.1950 0.1890
3.020000 0.1870 0.1850 0.1840 0.1820 0.1800
3.053269 0.1790 0.1770 0.1750 0.1740 0.1720
3.086000 0.1700 0.1690 0.1670 0.1650 0.1650
3.119269 0.1640 0.1640 0.1620 0.1620 0.1620
3.153000 0.1620 0.1620 0.1620 0.1640 0.1640
3.186269 0.1650 0.1650 0.1670 0.1670 0.1690
3.219000 0.1700 0.1720 0.1740 0.1790 0.1800
3.252269 0.1840 0.1850 0.1870 0.1890 0.1900
3.286000 0.1900 0.1900 0.1890 0.1820 0.1750
3.319269 0.1620 0.1450 0.1280 0.1220 0.1120
3.352000 0.1020 0.0980 0.0900 0.0880 0.0850
3.385269 0.0830 0.0820 0.0830 0.0920 0.0950
3.419000 0.0980 0.1000 0.1050 0.1070 0.1070
3.452269 0.1070 0.1070 0.1080 0.1170 0.1370
3.485000 0.1570 0.1770 0.1990 0.3750 0.5050
3.518269 0.5410 0.5770 0.6130 0.6330 0.6800
3.552000 0.6850 0.7000 0.7080 0.7160 0.7200
3.585269 0.7230 0.7260 0.7350 0.7380 0.7430
3.619000 0.7480 0.7520 0.7530 0.7550 0.7580
3.652269 0.7600 0.7620 0.7650 0.7670 0.7680
3.685000 0.7720 0.7720 0.7730 0.7750 0.7770
3.718269 0.7800 0.7820 0.7830 0.7850 0.7870
3.752000 0.7870 0.7920 0.7930 0.7980 0.7980
3.785269 0.7980 0.8000 0.8020 0.8040 0.8090
3.818000 0.8120 0.8140 0.8150 0.8190 0.8200
3.851269 0.8240 0.8250 0.8250 0.8270 0.8300
3.885000 0.8320 0.8350 0.8400 0.8450 0.8520
3.918269 0.8540 0.8590 0.8620 0.8640 0.8650
3.951000 0.8690 0.8710 0.8720 0.8740 0.8760
3.984269 0.8760 0.8790 0.8790 0.8810 0.8810
4.018000 0.8820 0.8820 0.8820 0.8820 0.8820
4.051269 0.8820 0.8820 0.8820 0.8820 0.8820
4.084000 0.8820 0.8820 0.8820 0.8840 0.8840
4.117269 0.8860 0.8860 0.8860 0.8860 0.8860
4.151000 0.8840 0.8820 0.8820 0.8810 0.8760
4.184269 0.8720 0.8710 0.8690 0.8690 0.8690
4.217000 0.8690 0.8690 0.8690 0.8670 0.8670
4.250269 0.8650 0.8640 0.8640 0.8640 0.8620
4.284000 0.8620 0.8600 0.8600 0.8600 0.8590
4.317269 0.8590 0.8570 0.8550 0.8550 0.8550
4.350000 0.8540 0.8540 0.8540 0.8540 0.8540
4.383269 0.8540 0.8540 0.8520 0.8500 0.8490
4.417000 0.8450 0.8440 0.8440 0.8400 0.8390
4.450269 0.8350 0.8300 0.8250 0.8220 0.8190
4.483000 0.8150 0.8140 0.8100 0.8050 0.8040
4.516269 0.8020 0.8000 0.7980 0.7980 0.7880
4.550000 0.7820 0.7800 0.7770 0.7730 0.7680
4.583269 0.7650 0.7620 0.7580 0.7550 0.7520
4.616000 0.7500 0.7480 0.7450 0.7430 0.7420
4.649269 0.7400 0.7380 0.7370 0.7370 0.7350
4.683000 0.7350 0.7350 0.7350 0.7330 0.7330
4.716269 0.7330 0.7350 0.7350 0.7350 0.7350
4.749000 0.7350 0.7370 0.7370 0.7400 0.7400
4.782269 0.7420 0.7430 0.7480 0.7520 0.7550
4.816000 0.7580 0.7620 0.7630 0.7670 0.7680
4.849269 0.7700 0.7720 0.7730 0.7770 0.7780
4.882000 0.7820 0.7830 0.7850 0.7880 0.7950
4.915269 0.7970 0.7980 0.8000 0.8000 0.8020
4.949000 0.8040 0.8070 0.8090 0.8100 0.8100
4.982269 0.8120 0.8140 0.8150 0.8170 0.8200
5.015000 0.8240 0.8270 0.8320 0.8340 0.8370
5.048269 0.8400 0.8440 0.8470 0.8490 0.8520
5.082000 0.8540 0.8590 0.8620 0.8640 0.8650
5.115269 0.8690 0.8710 0.8720 0.8740 0.8740
5.148000 0.8760 0.8760 0.8770 0.8790 0.8820
5.181269 0.8840 0.8860 0.8910 0.8920 0.8940
5.215000 0.8940 0.8940 0.8940 0.8940 0.8940
5.248269 0.8940 0.8940 0.8940 0.8920 0.8920
5.281000 0.8940 0.8960 0.8970 0.8970 0.8990
5.314269 0.9010 0.9010 0.9020 0.9020 0.9040
5.348000 0.9060 0.9060 0.9060 0.9070 0.9070
5.381269 0.9070 0.9070 0.9070 0.9070 0.9070
5.414000 0.9070 0.9070 0.9070 0.9090 0.9090
5.447269 0.9090 0.9090 0.9110 0.9110 0.9110
5.481000 0.9120 0.9120 0.9140 0.9140 0.9160
5.514269 0.9160 0.9160 0.9170 0.9170 0.9170
5.547000 0.9170 0.9190 0.9190 0.9210 0.9210
5.580269 0.9210 0.9220 0.9220 0.9240 0.9260
5.614000 0.9270 0.9290 0.9310 0.9310 0.9310
5.647269 0.9310 0.9320 0.9320 0.9320 0.9320
5.680000 0.9340 0.9360 0.9360 0.9380 0.9390
5.713269 0.9410 0.9430 0.9440 0.9440 0.9460
5.747000 0.9480 0.9490 0.9510 0.9530 0.9540
5.780269 0.9540 0.9540 0.9540 0.9560 0.9540
5.813000 0.9530 0.9510 0.9510 0.9460 0.9430
5.846269 0.9380 0.9340 0.9290 0.9220 0.9090
5.880000 0.8990 0.8910 0.8690 0.8300 0.7980
5.913269 0.7700 0.7580 0.7400 0.7060 0.6760
5.946000 0.6160 0.5620 0.5520 0.5440 0.5410
5.979269 0.5390 0.5360 0.5320 0.5320 0.5340
6.013000 0.5390 0.5460 0.5490 0.5670 0.5810
6.046269 0.5970 0.6190 0.6380 0.6580 0.6810
6.079000 0.7100 0.7300 0.7480 0.7700 0.7800
6.112269 0.8040 0.8170 0.8350 0.8550 0.8650
6.146000 0.8770 0.8870 0.8970 0.9070 0.9120
6.179269 0.9160 0.9190 0.9210 0.9240 0.9270
6.212000 0.9270 0.9290 0.9310 0.9310 0.9320
6.245269 0.9340 0.9360 0.9380 0.9380 0.9390
6.279000 0.9410 0.9410 0.9430 0.9430 0.9410
6.312269 0.9410 0.9410 0.9410 0.9410 0.9430
6.345000 0.9440 0.9440 0.9440 0.9430 0.9410
6.378269 0.9410 0.9390 0.9390 0.9390 0.9390
6.412000 0.9440 0.9460 0.9490 0.9510 0.9530
6.445269 0.9540 0.9540 0.9560 0.9590 0.9590
6.478000 0.9590 0.9590 0.9590 0.9560 0.9560
6.511269 0.9560 0.9580 0.9580 0.9580 0.9580
6.545000 0.9580 0.9580 0.9560 0.9540 0.9530
6.578269 0.9530 0.9530 0.9530 0.9530 0.9530
6.611000 0.9540 0.9540 0.9540 0.9540 0.9540
6.644269 0.9530 0.9490 0.9440 0.9410 0.9360
6.678000 0.9290 0.9260 0.9190 0.9110 0.8990
6.711269 0.8770 0.8670 0.8570 0.8440 0.8320
6.744000 0.7980 0.7420 0.7200 0.7060 0.6660
6.777269 0.6040 0.5690 0.5340 0.5050 0.4920
6.811000 0.4890 0.4890 0.4870 0.4840 0.4840
6.844269 0.4890 0.4940 0.4990 0.5200 0.5540
6.877000 0.5760 0.5960 0.6010 0.6230 0.6440
6.910269 0.6560 0.6700 0.7100 0.7230 0.7430
6.944000 0.7570 0.7780 0.7880 0.7980 0.8090
6.977269 0.8170 0.8190 0.8220 0.8290 0.8300
7.010000 0.8400 0.8540 0.8640 0.8650 0.8720
7.043269 0.8760 0.8810 0.8820 0.8840 0.8840
7.077000 0.8840 0.8840 0.8840 0.8840 0.8820
7.110269 0.8810 0.8760 0.8710 0.8670 0.8570
7.143000 0.8450 0.8290 0.8190 0.8000 0.7550
7.176269 0.7180 0.6850 0.6530 0.6340 0.6280
7.210000 0.6240 0.6240 0.6280 0.6360 0.6510
7.243269 0.6660 0.6730 0.6800 0.6850 0.6930
7.276000 0.6980 0.7030 0.7250 0.7450 0.7580
7.309269 0.7680 0.7730 0.7820 0.7900 0.7980
7.343000 0.7980 0.7980 0.7980 0.7980 0.8000
7.376269 0.8000 0.8000 0.8000 0.8020 0.8020
7.409000 0.8040 0.8050 0.8090 0.8120 0.8150
7.442269 0.8170 0.8200 0.8220 0.8250 0.8290
7.476000 0.8320 0.8340 0.8370 0.8420 0.8440
7.509269 0.8440 0.8450 0.8490 0.8490 0.8470
7.542000 0.8470 0.8470 0.8470 0.8470 0.8450
7.575269 0.8450 0.8450 0.8450 0.8440 0.8420
7.609000 0.8400 0.8390 0.8390 0.8370 0.8370
7.642269 0.8350 0.8350 0.8350 0.8350 0.8350
7.675000 0.8350 0.8370 0.8390 0.8390 0.8400
7.708269 0.8400 0.8420 0.8420 0.8440 0.8440
7.742000 0.8440 0.8450 0.8450 0.8450 0.8450
7.775269 0.8450 0.8450 0.8450 0.8440 0.8450
7.808000 0.8450 0.8440 0.8440 0.8440 0.8440
7.841269 0.8440 0.8420 0.8420 0.8420 0.8440
7.875000 0.8440 0.8440 0.8440 0.8440 0.8440
7.908269 0.8420 0.8420 0.8420 0.8420 0.8420
7.941000 0.8420 0.8440 0.8440 0.8440 0.8440
7.974269 0.8450 0.8440 0.8450 0.8470 0.8470
8.008000 0.8470 0.8470 0.8470 0.8470 0.8490
8.041269 0.8490 0.8490 0.8490 0.8490 0.8490
8.074000 0.8490 0.8500 0.8500 0.8490 0.8490
8.107269 0.8490 0.8490 0.8500 0.8490 0.8490
8.141000 0.8490 0.8470 0.8470 0.8470 0.8450
8.174269 0.8450 0.8450 0.8450 0.8450 0.8450
8.207000 0.8450 0.8470 0.8470 0.8490 0.8490
8.240269 0.8490 0.8490 0.8490 0.8490 0.8470
8.274000 0.8470 0.8470 0.8450 0.8450 0.8450
8.307269 0.8450 0.8450 0.8440 0.8450 0.8450
8.340000 0.8450 0.8450 0.8470 0.8470 0.8470
8.373269 0.8490 0.8490 0.8500 0.8500 0.8520
8.407000 0.8520 0.8520 0.8520 0.8520 0.8500
8.440269 0.8500 0.8500 0.8500 0.8500 0.8500
8.473000 0.8500 0.8500 0.8490 0.8470 0.8470
8.506269 0.8440 0.8420 0.8420 0.8420 0.8400
8.540000 0.8400 0.8400 0.8400 0.8390 0.8390
8.573269 0.8390 0.8370 0.8350 0.8340 0.8320
8.606000 0.8320 0.8320 0.8320 0.8320 0.8320
8.639269 0.8320 0.8320 0.8320 0.8320 0.8320
8.673000 0.8320 0.8320 0.8320 0.8320 0.8320
8.706269 0.8320 0.8300 0.8300 0.8320 0.8320
8.739000 0.8320 0.8320 0.8300 0.8300 0.8300
8.772269 0.8300 0.8290 0.8290 0.8290 0.8300
8.806000 0.8290 0.8290 0.8290 0.8290 0.8290
8.839269 0.8270 0.8270 0.8270 0.8270 0.8270
8.872000 0.8250 0.8250 0.8250 0.8250 0.8250
8.905269 0.8250 0.8250 0.8250 0.8250 0.8240
8.939000 0.8240 0.8240 0.8240 0.8240 0.8240
8.972269 0.8240 0.8240 0.8240 0.8240 0.8240
9.005000 0.8250 0.8250 0.8250 0.8250 0.8240
9.038269 0.8240 0.8250 0.8250 0.8250 0.8250
9.072000 0.8250 0.8250 0.8240 0.8240 0.8220
9.105269 0.8220 0.8200 0.8200 0.8200 0.8200
9.138000 0.8200 0.8200 0.8200 0.8200 0.8200
9.171269 0.8200 0.8200 0.8190 0.8190 0.8170
9.205000 0.8170 0.8170 0.8170 0.8170 0.8170
9.238269 0.8150 0.8170 0.8150 0.8140 0.8150
9.271000 0.8150 0.8150 0.8140 0.8140 0.8140
9.304269 0.8140 0.8120 0.8120 0.8100 0.8100
9.338000 0.8090 0.8070 0.8070 0.8040 0.8050
9.371269 0.8050 0.8040 0.8040 0.8050 0.8040
9.404000 0.8050 0.8040 0.8040 0.8040 0.8020
9.437269 0.8020 0.8020 0.8000 0.8000 0.7980
9.471000 0.7980 0.7980 0.7980 0.7950 0.7950
9.504269 0.7920 0.7920 0.7900 0.7880 0.7870
9.537000 0.7870 0.7870 0.7850 0.7850 0.7830
9.570269 0.7820 0.7800 0.7780 0.7780 0.7750
9.604000 0.7750 0.7720 0.7720 0.7720 0.7700
9.637269 0.7670 0.7670 0.7650 0.7630 0.7630
9.670000 0.7630 0.7620 0.7620 0.7600 0.7580
9.703269 0.7580 0.7550 0.7550 0.7550 0.7520
9.737000 0.7500 0.7500 0.7480 0.7450 0.7430
9.770269 0.7430 0.7400 0.7400 0.7400 0.7370
9.804000 0.7330 0.7330 0.7330 0.7330 0.7330
9.837269 0.7310 0.7300 0.7280 0.7260 0.7250
9.870000 0.7230 0.7200 0.7160 0.7150 0.7110
9.903269 0.7050 0.7050 0.7030 0.7010 0.7010
9.937000 0.7010 0.7000 0.6960 0.6960 0.6950
9.970269 0.6930 0.6910 0.6910 0.6910 0.6880
10.003000 0.6860 0.6860 0.6850 0.6830 0.6830
10.036269 0.6810 0.6810 0.6800 0.6760 0.6750
10.070000 0.6680 0.6640 0.6610 0.6560 0.6540
10.103269 0.6530 0.6490 0.6460 0.6410 0.6390
10.136000 0.6360 0.6340 0.6330 0.6310 0.6280
10.169269 0.6260 0.6240 0.6180 0.6160 0.6140
10.203000 0.6090 0.6040 0.6040 0.6010 0.6010
10.236269 0.5990 0.5920 0.5870 0.5840 0.5760
10.269000 0.5720 0.5690 0.5640 0.5610 0.5560
10.302269 0.5540 0.5510 0.5460 0.5420 0.5360
10.336000 0.5290 0.5240 0.5220 0.5200 0.5190
10.369269 0.5150 0.5140 0.5100 0.5090 0.5020
10.402000 0.5020 0.4970 0.4900 0.4840 0.4800
10.435269 0.4740 0.4690 0.4630 0.4600 0.4550
10.469000 0.4520 0.4480 0.4430 0.4400 0.4330
10.502269 0.4280 0.4250 0.4170 0.4120 0.4070
10.535000 0.4000 0.3980 0.3900 0.3850 0.3800
10.568269 0.3660 0.3630 0.3600 0.3550 0.3510
10.602000 0.3450 0.3380 0.3290 0.3180 0.3130
10.635269 0.3080 0.3010 0.2980 0.2880 0.2810
10.668000 0.2730 0.2640 0.2540 0.2510 0.2440
10.701269 0.2410 0.2320 0.2270 0.2240 0.2220
10.735000 0.2160 0.2090 0.2020 0.1990 0.1970
10.768269 0.1850 0.1790 0.1740 0.1700 0.1670
10.801000 0.1640 0.1600 0.1570 0.1550 0.1540
10.834269 0.1520 0.1450 0.1420 0.1400 0.1400
10.868000 0.1370 0.1350 0.1340 0.1340 0.1340
10.901269 0.1320 0.1320 0.1300 0.1280 0.1270
10.934000 0.1250 0.1220 0.1220 0.1200 0.1200
10.967269 0.1180 0.1180 0.1180 0.1180 0.1180
11.001000 0.1180 0.1170 0.1170 0.1150 0.1150
11.034269 0.1130 0.1120 0.1100 0.1100 0.1080
11.067000 0.1050 0.1030 0.1020 0.1000 0.0970
11.100269 0.0950 0.0920 0.0900 0.0900 0.0850
11.134000 0.0830 0.0830 0.0830 0.0820 0.0820
11.167269 0.0800 0.0800 0.0800 0.0800 0.0800
11.200000 0.0800 0.0800 0.0820 0.0820 0.0820
11.233269 0.0820 0.0820 0.0830 0.0830 0.0830
11.267000 0.0850 0.0850 0.0870 0.0880 0.0900
11.300269 0.0900 0.0920 0.0930 0.0930 0.0950
11.333000 0.0950 0.0950 0.0970 0.1000 0.1020
11.366269 0.1020 0.1030 0.1050 0.1050 0.1070
11.400000 0.1070 0.1080 0.1080 0.1080 0.1080
11.433269 0.1080 0.1080 0.1080 0.1080 0.1070
11.466000 0.1050 0.1030 0.1030 0.1000 0.0980
11.499269 0.0980 0.0950 0.0930 0.0930 0.0930
11.533000 0.0920 0.0920 0.0920 0.0920 0.0900
11.566269 0.0900 0.0880 0.0870 0.0870 0.0870
11.599000 0.0850 0.0850 0.0870 0.0870 0.0870
11.632269 0.0870 0.0850 0.0870 0.0870 0.0850
11.666000 0.0850 0.0830 0.0830 0.0830 0.0830
11.699269 0.0830 0.0830 0.0850 0.0850 0.0870
11.732000 0.0900 0.0920 0.0930 0.0930 0.0950
11.765269 0.0970 0.1000 0.1020 0.1030 0.1030
11.799000 0.1050 0.1080 0.1130 0.1150 0.1150
11.832269 0.1170 0.1170 0.1170 0.1180 0.1200
11.865000 0.1200 0.1200 0.1200 0.1200 0.1200
11.898269 0.1200 0.1200 0.1180 0.1180 0.1150
11.932000 0.1130 0.1120 0.1100 0.1100 0.1050
11.965269 0.1030 0.1030 0.1030 0.1030 0.1030
11.998000 0.1030 0.1030 0.1030 0.1030 0.1030
12.031269 0.1020 0.1020 0.1020 0.1020 0.1020
12.065000 0.1020 0.1020 0.1020 0.1020 0.1020
12.098269 0.1020 0.1020 0.1000 0.1000 0.1000
12.131000 0.1000 0.1000 0.1000 0.1000 0.1000
12.164269 0.0980 0.0950 0.0950 0.0970 0.0970
12.198000 0.0970 0.0970 0.0980 0.0980 0.1000
12.231269 0.1000 0.1020 0.1020 0.1020 0.1020
12.264000 0.1030 0.1080 0.1100 0.1120 0.1130
12.297269 0.1150 0.1200 0.1200 0.1200 0.1220
12.331000 0.1230 0.1230 0.1230 0.1250 0.1270
12.364269 0.1300 0.1340 0.1350 0.1390 0.1450
12.397000 0.1500 0.1520 0.1590 0.1640 0.1700
12.430269 0.1750 0.1790 0.1840 0.1890 0.1990
12.464000 0.2010 0.2010 0.2040 0.2140 0.2170
12.497269 0.2210 0.2270 0.2340 0.2410 0.2470
12.530000 0.2520 0.2590 0.2620 0.2640 0.2680
12.563269 0.2690 0.2730 0.2760 0.2790 0.2830
12.597000 0.2840 0.2890 0.2980 0.3010 0.3060
12.630269 0.3090 0.3130 0.3160 0.3190 0.3230
12.663000 0.3260 0.3290 0.3360 0.3430 0.3500
12.696269 0.3510 0.3530 0.3560 0.3610 0.3650
12.730000 0.3680 0.3730 0.3760 0.3780 0.3830
12.763269 0.3850 0.3900 0.3980 0.3980 0.4000
12.796000 0.4020 0.4030 0.4070 0.4100 0.4150
12.829269 0.4150 0.4150 0.4180 0.4200 0.4220
12.863000 0.4230 0.4230 0.4230 0.4270 0.4280
12.896269 0.4300 0.4300 0.4320 0.4320 0.4320
12.929000 0.4320 0.4330 0.4330 0.4330 0.4350
12.962269 0.4350 0.4350 0.4350 0.4370 0.4370
12.996000 0.4370 0.4380 0.4400 0.4400 0.4400
13.029269 0.4400 0.4400 0.4400 0.4400 0.4420
13.062000 0.4420 0.4420 0.4420 0.4420 0.4420
13.095269 0.4430 0.4450 0.4450 0.4470 0.4470
13.129000 0.4470 0.4470 0.4470 0.4470 0.4470
13.162269 0.4470 0.4470 0.4480 0.4500 0.4500
13.195000 0.4500 0.4520 0.4520 0.4500 0.4500
13.228269 0.4520 0.4520 0.4520 0.4520 0.4520
13.262000 0.4520 0.4500 0.4500 0.4500 0.4500
13.295269 0.4480 0.4480 0.4480 0.4470 0.4470
13.328000 0.4480 0.4480 0.4500 0.4530 0.4520
13.361269 0.4520 0.4520 0.4520 0.4520 0.4520
13.395000 0.4520 0.4520 0.4520 0.4520 0.4520
13.428269 0.4520 0.4500 0.4500 0.4500 0.4500
13.461000 0.4500 0.4500 0.4480 0.4470 0.4470
13.494269 0.4450 0.4450 0.4450 0.4430 0.4430
13.528000 0.4430 0.4430 0.4430 0.4430 0.4430
13.561269 0.4430 0.4420 0.4420 0.4420 0.4420
13.594000 0.4420 0.4420 0.4420 0.4420 0.4420
13.627269 0.4420 0.4420 0.4400 0.4400 0.4380
13.661000 0.4370 0.4350 0.4350 0.4330 0.4330
13.694269 0.4320 0.4300 0.4300 0.4280 0.4270
13.727000 0.4270 0.4270 0.4270 0.4270 0.4270
13.760269 0.4250 0.4250 0.4250 0.4250 0.4250
13.794000 0.4250 0.4250 0.4230 0.4220 0.4200
13.827269 0.4200 0.4200 0.4200 0.4200 0.4200
13.860000 0.4200 0.4180 0.4180 0.4180 0.4180
13.893269 0.4180 0.4180 0.4180 0.4180 0.4200
13.927000 0.4180 0.4180 0.4180 0.4180 0.4180
13.960269 0.4200 0.4200 0.4200 0.4200 0.4200
13.993000 0.4180 0.4170 0.4150 0.4150 0.4150
14.026269 0.4130 0.4130 0.4120 0.4120 0.4080
14.060000 0.4050 0.4050 0.4030 0.4030 0.4030
14.093269 0.4030 0.4020 0.4020 0.4020 0.4020
14.126000 0.4000 0.4000 0.3980 0.3980 0.3960
14.159269 0.3960 0.3930 0.3910 0.3910 0.3900
14.193000 0.3900 0.3850 0.3830 0.3810 0.3780
14.226269 0.3780 0.3760 0.3750 0.3730 0.3730
14.259000 0.3710 0.3680 0.3680 0.3650 0.3630
14.292269 0.3610 0.3610 0.3610 0.3600 0.3600
14.326000 0.3580 0.3600 0.3600 0.3600 0.3580
14.359269 0.3580 0.3550 0.3550 0.3550 0.3530
14.392000 0.3510 0.3510 0.3500 0.3500 0.3500
14.425269 0.3480 0.3500 0.3500 0.3480 0.3480
14.459000 0.3480 0.3460 0.3450 0.3450 0.3450
14.492269 0.3430 0.3410 0.3410 0.3410 0.3410
14.525000 0.3410 0.3400 0.3400 0.3400 0.3380
14.558269 0.3360 0.3360 0.3350 0.3350 0.3350
14.592000 0.3330 0.3330 0.3330 0.3330 0.3330
14.625269 0.3330 0.3330 0.3350 0.3330 0.3330
14.658000 0.3330 0.3330 0.3310 0.3310 0.3310
14.691269 0.3310 0.3310 0.3310 0.3310 0.3310
14.725000 0.3330 0.3330 0.3350 0.3360 0.3380
14.758269 0.3380 0.3400 0.3410 0.3430 0.3450
14.791000 0.3480 0.3480 0.3500 0.3500 0.3500
14.824269 0.3510 0.3510 0.3510 0.3530 0.3550
14.858000 0.3560 0.3560 0.3560 0.3560 0.3560
14.891269 0.3560 0.3560 0.3550 0.3550 0.3550
14.924000 0.3550 0.3550 0.3550 0.3550 0.3550
14.957269 0.3560 0.3560 0.3580 0.3580 0.3600
14.991000 0.3600 0.3600 0.3600 0.3600 0.3600
15.024269 0.3580 0.3600 0.3610 0.3610 0.3630
15.057000 0.3650 0.3660 0.3700 0.3710 0.3730
15.090269 0.3750 0.3750 0.3750 0.3750 0.3750
15.124000 0.3760 0.3780 0.3780 0.3800 0.3800
15.157269 0.3800 0.3800 0.3810 0.3850 0.3880
15.190000 0.3900 0.3910 0.3910 0.3930 0.3930
15.223269 0.3950 0.3950 0.3960 0.3980 0.3980
15.257000 0.3980 0.4020 0.4030 0.4030 0.4050
15.290269 0.4050 0.4050 0.4070 0.4070 0.4100
15.323000 0.4120 0.4130 0.4130 0.4150 0.4150
15.356269 0.4170 0.4180 0.4200 0.4200 0.4200
15.390000 0.4200 0.4200 0.4220 0.4200 0.4200
15.423269 0.4220 0.4220 0.4230 0.4250 0.4250
15.456000 0.4270 0.4300 0.4300 0.4320 0.4330
15.489269 0.4350 0.4380 0.4400 0.4400 0.4400
15.523000 0.4420 0.4430 0.4430 0.4430 0.4430
15.556269 0.4430 0.4430 0.4430 0.4450 0.4450
15.589000 0.4480 0.4480 0.4480 0.4480 0.4480
15.622269 0.4500 0.4500 0.4520 0.4530 0.4550
15.656000 0.4550 0.4550 0.4550 0.4570 0.4600
15.689269 0.4600 0.4600 0.4620 0.4620 0.4620
15.722000 0.4620 0.4630 0.4650 0.4690 0.4700
15.755269 0.4700 0.4720 0.4720 0.4740 0.4750
15.789000 0.4770 0.4770 0.4790 0.4790 0.4840
15.822269 0.4870 0.4890 0.4870 0.4890 0.4900
15.856000 0.4920 0.4940 0.4950 0.4970 0.4990
15.889269 0.4990 0.5000 0.5000 0.5020 0.5020
15.922000 0.5040 0.5040 0.5040 0.5050 0.5090
15.955269 0.5100 0.5100 0.5100 0.5120 0.5140
15.989000 0.5150
##END=
