##TITLE=Alpha-Hydroxy-3-pyridinemethanesulfonic acid
##JCAMP-DX=4.24
##DATA TYPE=INFRARED SPECTRUM
##CLASS=COBLENTZ III
##ORIGIN=DOW CHEMICAL COMPANY
##OWNER=COBLENTZ SOC.
Collection (C) 2018 copyright by the U.S. Secretary of Commerce
on behalf of the United States of America. All rights reserved.
##DATE=1954/03/08
##NAMES=hydroxy(3-pyridinyl)methanesulfonic acid
##MOLFORM=C6 H7 N O4 S
##SOURCE REFERENCE=COBLENTZ NO. 08571
##$NIST ID=B6008571
##$NIST SOURCE=COBLENTZ
##$NIST IMAGE=cob8571
##SPECTROMETER/DATA SYSTEM=BAIRD (PRISM)
##INSTRUMENT PARAMETERS=NaCl PRISM
##STATE=SOLID (NUJOL MULL)
$$SPECTRAL CONTAMINATION DUE TO OIL AROUND 3000, 1470, 1380, 720 CM^-^1
##SAMPLING PROCEDURE=TRANSMISSION
##RESOLUTION=2
##DATA PROCESSING=DIGITIZED BY COBLENTZ SOCIETY (BATCH I) FROM HARD COPY
##XUNITS=1/CM
##YUNITS=TRANSMITTANCE
##XLABEL=Wavenumbers (cm-1)
##YLABEL=% Transmission
##XFACTOR=1
##YFACTOR=1
##DELTAX=1
##FIRSTX=630
##LASTX=4000
##FIRSTY=0.4575
##MAXX=4000
##MINX=630
##MAXY=0.926
##MINY=0.0458
##NPOINTS=3371
##XYDATA=(X++(Y..Y))
630.000000 0.4575 0.4584 0.4600 0.4627 0.4662
635.000000 0.4687 0.4733 0.4765 0.4798 0.4828
640.000000 0.4852 0.4866 0.4865 0.4854 0.4840
645.000000 0.4821 0.4802 0.4791 0.4782 0.4745
650.000000 0.4788 0.4814 0.4845 0.4881 0.4916
655.000000 0.4943 0.4906 0.4869 0.4825 0.4778
660.000000 0.4726 0.4687 0.4666 0.4676 0.4721
665.000000 0.4852 0.4980 0.5112 0.5268 0.5376
670.000000 0.5458 0.5515 0.5569 0.5599 0.5597
675.000000 0.5578 0.5544 0.5456 0.5308 0.5092
680.000000 0.4824 0.4505 0.4171 0.3934 0.3628
685.000000 0.3473 0.3464 0.3459 0.3527 0.3743
690.000000 0.3991 0.4250 0.4508 0.4765 0.5100
695.000000 0.5505 0.5730 0.5958 0.6152 0.6356
700.000000 0.6495 0.6564 0.6625 0.6682 0.6733
705.000000 0.6781 0.6818 0.6853 0.6887 0.6906
710.000000 0.6922 0.6924 0.6924 0.6908 0.6887
715.000000 0.6864 0.6835 0.6801 0.6765 0.6755
720.000000 0.6750 0.6761 0.6797 0.6846 0.6904
725.000000 0.6965 0.7034 0.7095 0.7155 0.7217
730.000000 0.7287 0.7335 0.7378 0.7421 0.7465
735.000000 0.7501 0.7533 0.7568 0.7605 0.7642
740.000000 0.7672 0.7701 0.7730 0.7755 0.7775
745.000000 0.7798 0.7818 0.7841 0.7861 0.7883
750.000000 0.7880 0.7871 0.7849 0.7822 0.7782
755.000000 0.7739 0.7681 0.7622 0.7562 0.7497
760.000000 0.7398 0.7315 0.7265 0.7249 0.7298
765.000000 0.7342 0.7401 0.7458 0.7518 0.7575
770.000000 0.7633 0.7697 0.7771 0.7844 0.7918
775.000000 0.7990 0.8049 0.8101 0.8149 0.8187
780.000000 0.8225 0.8242 0.8259 0.8268 0.8273
785.000000 0.8278 0.8281 0.8284 0.8286 0.8285
790.000000 0.8285 0.8282 0.8278 0.8275 0.8274
795.000000 0.8325 0.8271 0.8270 0.8266 0.8261
800.000000 0.8258 0.8253 0.8248 0.8241 0.8232
805.000000 0.8224 0.8215 0.8206 0.8199 0.8192
810.000000 0.8184 0.8175 0.8155 0.8133 0.8111
815.000000 0.8088 0.8044 0.7986 0.7908 0.7775
820.000000 0.7619 0.7446 0.7040 0.6774 0.6500
825.000000 0.6220 0.6141 0.6141 0.6124 0.6146
830.000000 0.6239 0.6392 0.6630 0.6872 0.7172
835.000000 0.7391 0.7594 0.7728 0.7795 0.7824
840.000000 0.7837 0.7846 0.7848 0.7882 0.7996
845.000000 0.8141 0.8244 0.8308 0.8371 0.8424
850.000000 0.8477 0.8531 0.8575 0.8591 0.8605
855.000000 0.8615 0.8625 0.8633 0.8642 0.8657
860.000000 0.8653 0.8652 0.8651 0.8646 0.8642
865.000000 0.8637 0.8631 0.8627 0.8618 0.8611
870.000000 0.8603 0.8594 0.8584 0.8574 0.8564
875.000000 0.8552 0.8540 0.8528 0.8516 0.8501
880.000000 0.8486 0.8471 0.8464 0.8460 0.8456
885.000000 0.8450 0.8447 0.8443 0.8440 0.8436
890.000000 0.8431 0.8424 0.8416 0.8408 0.8399
895.000000 0.8391 0.8382 0.8371 0.8361 0.8351
900.000000 0.8341 0.8328 0.8316 0.8304 0.8284
905.000000 0.8258 0.8224 0.8181 0.8139 0.8096
910.000000 0.8055 0.8011 0.7965 0.7939 0.7936
915.000000 0.7932 0.7906 0.7948 0.7961 0.7972
920.000000 0.7986 0.7997 0.8008 0.8018 0.8031
925.000000 0.8042 0.8061 0.8090 0.8128 0.8169
930.000000 0.8216 0.8267 0.8317 0.8363 0.8411
935.000000 0.8473 0.8535 0.8595 0.8624 0.8643
940.000000 0.8646 0.8649 0.8652 0.8654 0.8658
945.000000 0.8664 0.8671 0.8678 0.8684 0.8691
950.000000 0.8698 0.8704 0.8710 0.8717 0.8721
955.000000 0.8727 0.8730 0.8734 0.8738 0.8739
960.000000 0.8735 0.8730 0.8725 0.8721 0.8715
965.000000 0.8725 0.8685 0.8670 0.8663 0.8660
970.000000 0.8661 0.8661 0.8667 0.8674 0.8680
975.000000 0.8683 0.8686 0.8689 0.8691 0.8687
980.000000 0.8683 0.8678 0.8670 0.8638 0.8606
985.000000 0.8570 0.8528 0.8489 0.8450 0.8418
990.000000 0.8401 0.8397 0.8397 0.8398 0.8404
995.000000 0.8410 0.8410 0.8410 0.8409 0.8389
1000.000000 0.8367 0.8333 0.8299 0.8220 0.8142
1005.000000 0.8043 0.7944 0.7806 0.7661 0.7532
1010.000000 0.7408 0.7301 0.7225 0.7162 0.7089
1015.000000 0.6844 0.6581 0.6321 0.6031 0.5444
1020.000000 0.4769 0.4097 0.3632 0.3302 0.3071
1025.000000 0.2930 0.2877 0.2865 0.2863 0.2971
1030.000000 0.3192 0.3409 0.3627 0.3843 0.4059
1035.000000 0.4275 0.4491 0.4705 0.4920 0.5167
1040.000000 0.5410 0.5710 0.5998 0.6154 0.6288
1045.000000 0.6411 0.6536 0.6668 0.6799 0.6955
1050.000000 0.7183 0.7328 0.7617 0.7768 0.7892
1055.000000 0.7972 0.8021 0.8067 0.8108 0.8128
1060.000000 0.8144 0.8161 0.8176 0.8197 0.8223
1065.000000 0.8245 0.8293 0.8316 0.8320 0.8318
1070.000000 0.8316 0.8304 0.8287 0.8270 0.8247
1075.000000 0.8205 0.8148 0.8068 0.7997 0.7925
1080.000000 0.7833 0.7718 0.7572 0.7428 0.7280
1085.000000 0.7078 0.6965 0.6908 0.6886 0.6892
1090.000000 0.6905 0.6919 0.6934 0.6941 0.6943
1095.000000 0.6932 0.6917 0.6869 0.6826 0.6772
1100.000000 0.6615 0.6471 0.6343 0.6183 0.5995
1105.000000 0.5779 0.5744 0.5734 0.5804 0.5956
1110.000000 0.6116 0.6275 0.6434 0.6591 0.6750
1115.000000 0.6822 0.6818 0.6828 0.6815 0.6792
1120.000000 0.6744 0.6662 0.6595 0.6535 0.6456
1125.000000 0.6421 0.6425 0.6449 0.6519 0.6601
1130.000000 0.6683 0.6765 0.6825 0.6871 0.6889
1135.000000 0.6884 0.6876 0.6842 0.6768 0.6681
1140.000000 0.6589 0.6496 0.6385 0.6268 0.6138
1145.000000 0.5948 0.5710 0.5472 0.5235 0.5042
1150.000000 0.4835 0.4489 0.4223 0.3957 0.3694
1155.000000 0.3482 0.3289 0.3105 0.2928 0.2798
1160.000000 0.2691 0.2579 0.2443 0.2310 0.2214
1165.000000 0.2148 0.2132 0.2119 0.2151 0.2151
1170.000000 0.2151 0.2177 0.2210 0.2274 0.2349
1175.000000 0.2465 0.2631 0.2733 0.2832 0.2930
1180.000000 0.3092 0.3509 0.3690 0.3860 0.4032
1185.000000 0.4204 0.4375 0.4545 0.4716 0.4887
1190.000000 0.5097 0.5343 0.5485 0.5532 0.5565
1195.000000 0.5567 0.5557 0.5583 0.5483 0.5308
1200.000000 0.5123 0.4938 0.4754 0.4570 0.4386
1205.000000 0.4202 0.4020 0.3837 0.3654 0.3477
1210.000000 0.3371 0.3341 0.3355 0.3330 0.3507
1215.000000 0.3568 0.3634 0.3693 0.3743 0.3771
1220.000000 0.3789 0.3804 0.3818 0.3822 0.3830
1225.000000 0.3859 0.3918 0.3991 0.4060 0.4131
1230.000000 0.4205 0.4280 0.4390 0.4470 0.4490
1235.000000 0.4473 0.4462 0.4432 0.4360 0.4262
1240.000000 0.4130 0.4000 0.3884 0.3800 0.3728
1245.000000 0.3675 0.3621 0.3568 0.3522 0.3479
1250.000000 0.3437 0.3393 0.3353 0.3353 0.3352
1255.000000 0.3408 0.3579 0.3758 0.3938 0.4137
1260.000000 0.4307 0.4410 0.4555 0.4890 0.5224
1265.000000 0.5670 0.5914 0.6048 0.6167 0.6239
1270.000000 0.6307 0.6356 0.6394 0.6433 0.6472
1275.000000 0.6514 0.6550 0.6578 0.6600 0.6611
1280.000000 0.6615 0.6619 0.6634 0.6688 0.6881
1285.000000 0.7194 0.7342 0.7415 0.7484 0.7549
1290.000000 0.7600 0.7646 0.7693 0.7741 0.7788
1295.000000 0.7835 0.7883 0.7928 0.7971 0.8015
1300.000000 0.8048 0.8078 0.8107 0.8136 0.8162
1305.000000 0.8178 0.8192 0.8206 0.8212 0.8215
1310.000000 0.8218 0.8221 0.8225 0.8225 0.8225
1315.000000 0.8223 0.8220 0.8213 0.8204 0.8196
1320.000000 0.8186 0.8178 0.8168 0.8160 0.8153
1325.000000 0.8151 0.8149 0.8147 0.8156 0.8165
1330.000000 0.8175 0.8186 0.8209 0.8234 0.8262
1335.000000 0.8296 0.8323 0.8325 0.8320 0.8315
1340.000000 0.8309 0.8304 0.8292 0.8278 0.8259
1345.000000 0.8224 0.8186 0.8145 0.8101 0.8055
1350.000000 0.8005 0.7955 0.7903 0.7849 0.7795
1355.000000 0.7741 0.7662 0.7567 0.7440 0.7380
1360.000000 0.7333 0.7287 0.7292 0.7296 0.7300
1365.000000 0.7301 0.7301 0.7298 0.7292 0.7282
1370.000000 0.7269 0.7251 0.7225 0.7194 0.7143
1375.000000 0.7088 0.7025 0.6949 0.6849 0.6718
1380.000000 0.6575 0.6210 0.5912 0.5880 0.5867
1385.000000 0.5871 0.5932 0.6074 0.6239 0.6404
1390.000000 0.6568 0.6733 0.6898 0.7061 0.7225
1395.000000 0.7390 0.7553 0.7717 0.7878 0.8074
1400.000000 0.8171 0.8244 0.8288 0.8331 0.8359
1405.000000 0.8377 0.8382 0.8380 0.8375 0.8371
1410.000000 0.8365 0.8358 0.8352 0.8341 0.8328
1415.000000 0.8317 0.8305 0.8290 0.8275 0.8255
1420.000000 0.8225 0.8189 0.8149 0.8110 0.8065
1425.000000 0.8010 0.7955 0.7911 0.7871 0.7831
1430.000000 0.7792 0.7772 0.7760 0.7749 0.7741
1435.000000 0.7734 0.7726 0.7719 0.7711 0.7704
1440.000000 0.7696 0.7684 0.7594 0.7435 0.7278
1445.000000 0.7096 0.6908 0.6722 0.6536 0.6350
1450.000000 0.6164 0.5979 0.5794 0.5609 0.5467
1455.000000 0.5362 0.5244 0.5091 0.4833 0.4634
1460.000000 0.4502 0.4366 0.4217 0.4068 0.3943
1465.000000 0.3844 0.3780 0.3721 0.3688 0.3668
1470.000000 0.3659 0.3660 0.3668 0.3684 0.3718
1475.000000 0.3782 0.3946 0.4192 0.4438 0.4685
1480.000000 0.4931 0.5176 0.5421 0.5667 0.5910
1485.000000 0.6155 0.6396 0.6580 0.6710 0.6819
1490.000000 0.6934 0.7076 0.7205 0.7310 0.7446
1495.000000 0.7765 0.7928 0.8025 0.8082 0.8122
1500.000000 0.8164 0.8197 0.8218 0.8234 0.8239
1505.000000 0.8240 0.8241 0.8243 0.8244 0.8252
1510.000000 0.8271 0.8302 0.8325 0.8345 0.8362
1515.000000 0.8366 0.8367 0.8368 0.8377 0.8359
1520.000000 0.8350 0.8340 0.8325 0.8306 0.8286
1525.000000 0.8261 0.8234 0.8206 0.8178 0.8151
1530.000000 0.8125 0.8094 0.8062 0.8032 0.8001
1535.000000 0.7968 0.7934 0.7895 0.7841 0.7775
1540.000000 0.7685 0.7561 0.7398 0.7208 0.6850
1545.000000 0.6582 0.6407 0.6296 0.6212 0.6142
1550.000000 0.6094 0.6072 0.6087 0.6085 0.6105
1555.000000 0.6148 0.6238 0.6340 0.6418 0.6515
1560.000000 0.6648 0.6797 0.6951 0.7104 0.7257
1565.000000 0.7407 0.7517 0.7728 0.7942 0.8057
1570.000000 0.8153 0.8264 0.8365 0.8449 0.8527
1575.000000 0.8591 0.8640 0.8684 0.8728 0.8766
1580.000000 0.8794 0.8818 0.8843 0.8868 0.8892
1585.000000 0.8916 0.8935 0.8951 0.8968 0.8984
1590.000000 0.9001 0.9006 0.9005 0.9004 0.9007
1595.000000 0.8999 0.8991 0.8975 0.8956 0.8937
1600.000000 0.8921 0.8906 0.8897 0.8892 0.8888
1605.000000 0.8884 0.8880 0.8870 0.8837 0.8765
1610.000000 0.8615 0.8468 0.8325 0.8181 0.8036
1615.000000 0.7893 0.7748 0.7604 0.7461 0.7414
1620.000000 0.7407 0.7451 0.7389 0.7618 0.7707
1625.000000 0.7794 0.7881 0.7968 0.8055 0.8133
1630.000000 0.8176 0.8174 0.8193 0.8092 0.8028
1635.000000 0.7965 0.7901 0.7838 0.7775 0.7711
1640.000000 0.7649 0.7586 0.7536 0.7515 0.7515
1645.000000 0.7517 0.7615 0.7700 0.7784 0.7868
1650.000000 0.7953 0.8037 0.8121 0.8206 0.8291
1655.000000 0.8367 0.8433 0.8495 0.8564 0.8673
1660.000000 0.8725 0.8764 0.8802 0.8835 0.8863
1665.000000 0.8887 0.8911 0.8936 0.8961 0.8983
1670.000000 0.8999 0.9016 0.9032 0.9049 0.9064
1675.000000 0.9075 0.9084 0.9092 0.9099 0.9104
1680.000000 0.9104 0.9104 0.9104 0.9104 0.9104
1685.000000 0.9104 0.9106 0.9110 0.9114 0.9118
1690.000000 0.9121 0.9127 0.9135 0.9144 0.9153
1695.000000 0.9162 0.9171 0.9178 0.9185 0.9189
1700.000000 0.9194 0.9199 0.9204 0.9209 0.9210
1705.000000 0.9211 0.9213 0.9214 0.9215 0.9216
1710.000000 0.9217 0.9217 0.9218 0.9220 0.9221
1715.000000 0.9221 0.9221 0.9221 0.9223 0.9223
1720.000000 0.9224 0.9224 0.9224 0.9225 0.9225
1725.000000 0.9225 0.9225 0.9225 0.9225 0.9227
1730.000000 0.9227 0.9227 0.9228 0.9228 0.9228
1735.000000 0.9228 0.9228 0.9228 0.9228 0.9230
1740.000000 0.9230 0.9230 0.9230 0.9231 0.9231
1745.000000 0.9231 0.9231 0.9231 0.9232 0.9232
1750.000000 0.9232 0.9232 0.9232 0.9232 0.9232
1755.000000 0.9232 0.9232 0.9232 0.9232 0.9232
1760.000000 0.9232 0.9233 0.9235 0.9237 0.9239
1765.000000 0.9240 0.9241 0.9243 0.9244 0.9245
1770.000000 0.9247 0.9248 0.9249 0.9250 0.9252
1775.000000 0.9253 0.9254 0.9255 0.9255 0.9255
1780.000000 0.9254 0.9254 0.9254 0.9254 0.9253
1785.000000 0.9253 0.9253 0.9253 0.9253 0.9252
1790.000000 0.9251 0.9249 0.9249 0.9247 0.9246
1795.000000 0.9245 0.9243 0.9243 0.9241 0.9240
1800.000000 0.9239 0.9238 0.9237 0.9236 0.9236
1805.000000 0.9236 0.9236 0.9236 0.9236 0.9236
1810.000000 0.9236 0.9236 0.9236 0.9236 0.9238
1815.000000 0.9241 0.9245 0.9248 0.9251 0.9254
1820.000000 0.9257 0.9260 0.9260 0.9260 0.9259
1825.000000 0.9257 0.9257 0.9256 0.9255 0.9253
1830.000000 0.9253 0.9252 0.9251 0.9249 0.9249
1835.000000 0.9247 0.9245 0.9243 0.9241 0.9239
1840.000000 0.9238 0.9235 0.9233 0.9231 0.9228
1845.000000 0.9228 0.9225 0.9223 0.9221 0.9218
1850.000000 0.9217 0.9216 0.9214 0.9212 0.9210
1855.000000 0.9209 0.9207 0.9206 0.9205 0.9203
1860.000000 0.9202 0.9200 0.9199 0.9197 0.9196
1865.000000 0.9195 0.9194 0.9194 0.9193 0.9192
1870.000000 0.9190 0.9190 0.9189 0.9188 0.9188
1875.000000 0.9186 0.9185 0.9184 0.9184 0.9183
1880.000000 0.9183 0.9183 0.9183 0.9184 0.9184
1885.000000 0.9184 0.9184 0.9185 0.9185 0.9185
1890.000000 0.9185 0.9185 0.9186 0.9186 0.9186
1895.000000 0.9186 0.9187 0.9187 0.9187 0.9187
1900.000000 0.9188 0.9188 0.9190 0.9191 0.9192
1905.000000 0.9194 0.9195 0.9197 0.9198 0.9198
1910.000000 0.9196 0.9196 0.9195 0.9193 0.9192
1915.000000 0.9188 0.9184 0.9178 0.9175 0.9171
1920.000000 0.9166 0.9161 0.9157 0.9153 0.9149
1925.000000 0.9146 0.9142 0.9138 0.9134 0.9130
1930.000000 0.9125 0.9121 0.9117 0.9115 0.9112
1935.000000 0.9109 0.9107 0.9104 0.9100 0.9098
1940.000000 0.9095 0.9092 0.9090 0.9087 0.9085
1945.000000 0.9083 0.9082 0.9081 0.9078 0.9078
1950.000000 0.9075 0.9074 0.9073 0.9071 0.9071
1955.000000 0.9071 0.9071 0.9071 0.9071 0.9068
1960.000000 0.9065 0.9061 0.9058 0.9054 0.9050
1965.000000 0.9046 0.9043 0.9039 0.9035 0.9032
1970.000000 0.9030 0.9028 0.9027 0.9025 0.9024
1975.000000 0.9023 0.9021 0.9021 0.9018 0.9018
1980.000000 0.9017 0.9016 0.9016 0.9017 0.9018
1985.000000 0.9018 0.9020 0.9020 0.9021 0.9021
1990.000000 0.9021 0.9023 0.9024 0.9025 0.9025
1995.000000 0.9025 0.9028 0.9032 0.9037 0.9041
2000.000000 0.9046 0.9050 0.9054 0.9059 0.9061
2005.000000 0.9060 0.9060 0.9057 0.9056 0.9054
2010.000000 0.9052 0.9050 0.9048 0.9046 0.9044
2015.000000 0.9042 0.9041 0.9039 0.9037 0.9036
2020.000000 0.9034 0.9033 0.9031 0.9028 0.9028
2025.000000 0.9025 0.9024 0.9023 0.9021 0.9020
2030.000000 0.9018 0.9017 0.9015 0.9014 0.9013
2035.000000 0.9012 0.9010 0.9009 0.9008 0.9007
2040.000000 0.9005 0.9004 0.9002 0.9001 0.9000
2045.000000 0.8998 0.8997 0.8994 0.8991 0.8988
2050.000000 0.8986 0.8983 0.8980 0.8977 0.8974
2055.000000 0.8971 0.8968 0.8966 0.8964 0.8961
2060.000000 0.8958 0.8955 0.8951 0.8947 0.8944
2065.000000 0.8940 0.8937 0.8933 0.8930 0.8925
2070.000000 0.8923 0.8918 0.8916 0.8912 0.8909
2075.000000 0.8906 0.8903 0.8901 0.8901 0.8900
2080.000000 0.8900 0.8900 0.8899 0.8899 0.8898
2085.000000 0.8898 0.8897 0.8896 0.8896 0.8896
2090.000000 0.8898 0.8900 0.8901 0.8903 0.8905
2095.000000 0.8907 0.8909 0.8911 0.8913 0.8914
2100.000000 0.8916 0.8918 0.8918 0.8921 0.8923
2105.000000 0.8925 0.8925 0.8928 0.8931 0.8932
2110.000000 0.8934 0.8936 0.8937 0.8939 0.8940
2115.000000 0.8941 0.8943 0.8944 0.8944 0.8945
2120.000000 0.8946 0.8947 0.8948 0.8949 0.8949
2125.000000 0.8951 0.8952 0.8953 0.8954 0.8954
2130.000000 0.8955 0.8955 0.8954 0.8954 0.8953
2135.000000 0.8952 0.8952 0.8951 0.8951 0.8950
2140.000000 0.8950 0.8949 0.8949 0.8948 0.8948
2145.000000 0.8948 0.8947 0.8947 0.8946 0.8946
2150.000000 0.8945 0.8945 0.8944 0.8944 0.8943
2155.000000 0.8943 0.8942 0.8942 0.8940 0.8939
2160.000000 0.8938 0.8937 0.8937 0.8936 0.8935
2165.000000 0.8934 0.8933 0.8932 0.8932 0.8931
2170.000000 0.8930 0.8928 0.8928 0.8925 0.8925
2175.000000 0.8925 0.8924 0.8923 0.8921 0.8921
2180.000000 0.8920 0.8920 0.8918 0.8918 0.8917
2185.000000 0.8916 0.8915 0.8914 0.8913 0.8912
2190.000000 0.8910 0.8909 0.8908 0.8906 0.8905
2195.000000 0.8904 0.8903 0.8902 0.8901 0.8899
2200.000000 0.8898 0.8897 0.8896 0.8895 0.8893
2205.000000 0.8892 0.8891 0.8890 0.8889 0.8888
2210.000000 0.8886 0.8885 0.8884 0.8884 0.8884
2215.000000 0.8885 0.8885 0.8886 0.8887 0.8888
2220.000000 0.8888 0.8889 0.8889 0.8890 0.8891
2225.000000 0.8892 0.8892 0.8893 0.8893 0.8894
2230.000000 0.8894 0.8895 0.8896 0.8897 0.8897
2235.000000 0.8898 0.8898 0.8900 0.8901 0.8903
2240.000000 0.8904 0.8906 0.8907 0.8909 0.8910
2245.000000 0.8912 0.8913 0.8915 0.8914 0.8913
2250.000000 0.8909 0.8905 0.8901 0.8896 0.8891
2255.000000 0.8886 0.8881 0.8875 0.8871 0.8867
2260.000000 0.8864 0.8861 0.8859 0.8857 0.8855
2265.000000 0.8854 0.8852 0.8851 0.8849 0.8847
2270.000000 0.8845 0.8843 0.8841 0.8840 0.8840
2275.000000 0.8841 0.8841 0.8842 0.8842 0.8843
2280.000000 0.8843 0.8843 0.8844 0.8844 0.8845
2285.000000 0.8845 0.8846 0.8846 0.8846 0.8846
2290.000000 0.8845 0.8845 0.8844 0.8844 0.8843
2295.000000 0.8843 0.8842 0.8841 0.8840 0.8840
2300.000000 0.8839 0.8839 0.8839 0.8838 0.8838
2305.000000 0.8837 0.8836 0.8835 0.8835 0.8834
2310.000000 0.8834 0.8833 0.8832 0.8831 0.8830
2315.000000 0.8828 0.8828 0.8827 0.8827 0.8825
2320.000000 0.8825 0.8824 0.8823 0.8821 0.8821
2325.000000 0.8820 0.8818 0.8818 0.8817 0.8816
2330.000000 0.8815 0.8815 0.8814 0.8813 0.8812
2335.000000 0.8811 0.8810 0.8809 0.8809 0.8808
2340.000000 0.8807 0.8806 0.8806 0.8806 0.8805
2345.000000 0.8805 0.8804 0.8803 0.8802 0.8802
2350.000000 0.8801 0.8801 0.8800 0.8799 0.8799
2355.000000 0.8796 0.8793 0.8791 0.8789 0.8786
2360.000000 0.8783 0.8781 0.8778 0.8775 0.8773
2365.000000 0.8771 0.8768 0.8766 0.8763 0.8760
2370.000000 0.8758 0.8756 0.8753 0.8751 0.8748
2375.000000 0.8746 0.8743 0.8741 0.8738 0.8736
2380.000000 0.8735 0.8733 0.8733 0.8732 0.8731
2385.000000 0.8730 0.8728 0.8728 0.8725 0.8725
2390.000000 0.8725 0.8724 0.8723 0.8721 0.8721
2395.000000 0.8720 0.8718 0.8718 0.8717 0.8716
2400.000000 0.8715 0.8714 0.8713 0.8712 0.8712
2405.000000 0.8712 0.8712 0.8713 0.8714 0.8715
2410.000000 0.8716 0.8717 0.8717 0.8717 0.8718
2415.000000 0.8718 0.8720 0.8720 0.8721 0.8721
2420.000000 0.8721 0.8723 0.8724 0.8725 0.8725
2425.000000 0.8725 0.8725 0.8727 0.8728 0.8728
2430.000000 0.8728 0.8730 0.8730 0.8730 0.8728
2435.000000 0.8728 0.8727 0.8725 0.8725 0.8725
2440.000000 0.8725 0.8724 0.8723 0.8721 0.8721
2445.000000 0.8720 0.8720 0.8718 0.8718 0.8717
2450.000000 0.8717 0.8716 0.8716 0.8715 0.8714
2455.000000 0.8713 0.8712 0.8712 0.8711 0.8710
2460.000000 0.8708 0.8707 0.8705 0.8704 0.8702
2465.000000 0.8699 0.8697 0.8695 0.8693 0.8691
2470.000000 0.8689 0.8687 0.8686 0.8684 0.8682
2475.000000 0.8680 0.8678 0.8675 0.8674 0.8671
2480.000000 0.8670 0.8668 0.8667 0.8665 0.8663
2485.000000 0.8661 0.8659 0.8657 0.8655 0.8653
2490.000000 0.8651 0.8649 0.8647 0.8646 0.8644
2495.000000 0.8642 0.8639 0.8637 0.8634 0.8632
2500.000000 0.8630 0.8627 0.8624 0.8621 0.8618
2505.000000 0.8617 0.8614 0.8611 0.8608 0.8606
2510.000000 0.8604 0.8601 0.8598 0.8595 0.8593
2515.000000 0.8591 0.8588 0.8585 0.8583 0.8580
2520.000000 0.8578 0.8575 0.8571 0.8568 0.8566
2525.000000 0.8562 0.8558 0.8553 0.8549 0.8544
2530.000000 0.8540 0.8536 0.8531 0.8525 0.8521
2535.000000 0.8518 0.8513 0.8509 0.8505 0.8500
2540.000000 0.8496 0.8491 0.8487 0.8483 0.8478
2545.000000 0.8475 0.8471 0.8467 0.8462 0.8458
2550.000000 0.8454 0.8450 0.8445 0.8441 0.8437
2555.000000 0.8433 0.8428 0.8425 0.8420 0.8415
2560.000000 0.8409 0.8402 0.8397 0.8391 0.8385
2565.000000 0.8378 0.8373 0.8367 0.8361 0.8356
2570.000000 0.8350 0.8344 0.8339 0.8333 0.8327
2575.000000 0.8321 0.8315 0.8309 0.8303 0.8297
2580.000000 0.8291 0.8286 0.8280 0.8274 0.8268
2585.000000 0.8262 0.8257 0.8251 0.8245 0.8239
2590.000000 0.8234 0.8228 0.8221 0.8217 0.8211
2595.000000 0.8205 0.8199 0.8193 0.8188 0.8182
2600.000000 0.8175 0.8169 0.8164 0.8158 0.8153
2605.000000 0.8148 0.8142 0.8137 0.8131 0.8125
2610.000000 0.8118 0.8114 0.8108 0.8103 0.8097
2615.000000 0.8091 0.8085 0.8080 0.8074 0.8068
2620.000000 0.8062 0.8057 0.8051 0.8046 0.8040
2625.000000 0.8035 0.8028 0.8022 0.8018 0.8011
2630.000000 0.8007 0.8001 0.7994 0.7987 0.7980
2635.000000 0.7972 0.7965 0.7958 0.7951 0.7944
2640.000000 0.7937 0.7932 0.7925 0.7921 0.7915
2645.000000 0.7911 0.7906 0.7900 0.7895 0.7890
2650.000000 0.7884 0.7878 0.7874 0.7868 0.7862
2655.000000 0.7858 0.7851 0.7847 0.7841 0.7836
2660.000000 0.7830 0.7825 0.7819 0.7814 0.7808
2665.000000 0.7803 0.7798 0.7792 0.7787 0.7782
2670.000000 0.7775 0.7771 0.7765 0.7760 0.7755
2675.000000 0.7751 0.7748 0.7745 0.7742 0.7739
2680.000000 0.7736 0.7733 0.7731 0.7728 0.7725
2685.000000 0.7721 0.7719 0.7717 0.7714 0.7711
2690.000000 0.7708 0.7706 0.7703 0.7699 0.7696
2695.000000 0.7694 0.7691 0.7688 0.7685 0.7683
2700.000000 0.7680 0.7680 0.7678 0.7678 0.7678
2705.000000 0.7676 0.7675 0.7675 0.7675 0.7674
2710.000000 0.7674 0.7672 0.7671 0.7671 0.7671
2715.000000 0.7669 0.7668 0.7668 0.7668 0.7667
2720.000000 0.7667 0.7665 0.7665 0.7664 0.7662
2725.000000 0.7661 0.7661 0.7661 0.7660 0.7660
2730.000000 0.7658 0.7658 0.7658 0.7655 0.7653
2735.000000 0.7650 0.7645 0.7639 0.7633 0.7626
2740.000000 0.7621 0.7615 0.7608 0.7603 0.7597
2745.000000 0.7591 0.7585 0.7578 0.7575 0.7571
2750.000000 0.7568 0.7568 0.7565 0.7565 0.7564
2755.000000 0.7561 0.7561 0.7560 0.7558 0.7557
2760.000000 0.7557 0.7557 0.7557 0.7557 0.7557
2765.000000 0.7557 0.7557 0.7557 0.7557 0.7557
2770.000000 0.7557 0.7557 0.7558 0.7558 0.7558
2775.000000 0.7560 0.7560 0.7560 0.7558 0.7558
2780.000000 0.7557 0.7556 0.7555 0.7554 0.7551
2785.000000 0.7551 0.7550 0.7549 0.7543 0.7537
2790.000000 0.7532 0.7522 0.7514 0.7504 0.7493
2795.000000 0.7482 0.7469 0.7460 0.7449 0.7439
2800.000000 0.7428 0.7417 0.7406 0.7392 0.7371
2805.000000 0.7351 0.7333 0.7317 0.7301 0.7286
2810.000000 0.7271 0.7257 0.7242 0.7226 0.7211
2815.000000 0.7196 0.7175 0.7151 0.7125 0.7101
2820.000000 0.7076 0.7051 0.7025 0.6999 0.6972
2825.000000 0.6946 0.6914 0.6881 0.6849 0.6817
2830.000000 0.6784 0.6751 0.6719 0.6688 0.6655
2835.000000 0.6603 0.6533 0.6462 0.6403 0.6364
2840.000000 0.6324 0.6285 0.6246 0.6207 0.6168
2845.000000 0.6117 0.6062 0.6010 0.5831 0.5574
2850.000000 0.5317 0.5100 0.4948 0.4797 0.4651
2855.000000 0.4543 0.4435 0.4327 0.4219 0.4112
2860.000000 0.4004 0.3896 0.3789 0.3682 0.3575
2865.000000 0.3468 0.3360 0.3254 0.3147 0.3040
2870.000000 0.2933 0.2826 0.2719 0.2613 0.2506
2875.000000 0.2400 0.2294 0.2188 0.2087 0.1984
2880.000000 0.1883 0.1786 0.1692 0.1596 0.1528
2885.000000 0.1485 0.1442 0.1404 0.1385 0.1367
2890.000000 0.1349 0.1325 0.1301 0.1277 0.1258
2895.000000 0.1244 0.1230 0.1214 0.1185 0.1155
2900.000000 0.1126 0.1090 0.1051 0.1013 0.0981
2905.000000 0.0961 0.0939 0.0920 0.0899 0.0879
2910.000000 0.0858 0.0837 0.0817 0.0796 0.0775
2915.000000 0.0753 0.0731 0.0709 0.0687 0.0665
2920.000000 0.0643 0.0621 0.0600 0.0579 0.0558
2925.000000 0.0546 0.0533 0.0521 0.0509 0.0499
2930.000000 0.0489 0.0480 0.0477 0.0475 0.0473
2935.000000 0.0471 0.0467 0.0466 0.0464 0.0462
2940.000000 0.0460 0.0458 0.0458 0.0459 0.0459
2945.000000 0.0460 0.0463 0.0465 0.0467 0.0469
2950.000000 0.0473 0.0477 0.0480 0.0484 0.0487
2955.000000 0.0491 0.0497 0.0502 0.0508 0.0516
2960.000000 0.0528 0.0540 0.0552 0.0569 0.0587
2965.000000 0.0606 0.0648 0.0725 0.0803 0.0880
2970.000000 0.0964 0.1050 0.1135 0.1220 0.1305
2975.000000 0.1390 0.1475 0.1560 0.1644 0.1729
2980.000000 0.1815 0.1899 0.1984 0.2069 0.2153
2985.000000 0.2238 0.2322 0.2406 0.2491 0.2575
2990.000000 0.2659 0.2743 0.2827 0.2911 0.2995
2995.000000 0.3079 0.3163 0.3247 0.3330 0.3414
3000.000000 0.3498 0.3582 0.3664 0.3749 0.3832
3005.000000 0.3916 0.3999 0.4082 0.4165 0.4273
3010.000000 0.4399 0.4525 0.4650 0.4699 0.4745
3015.000000 0.4790 0.4830 0.4859 0.4889 0.4918
3020.000000 0.4935 0.4947 0.4958 0.4970 0.4980
3025.000000 0.4991 0.5001 0.5010 0.5022 0.5032
3030.000000 0.5042 0.5048 0.5051 0.5055 0.5059
3035.000000 0.5060 0.5060 0.5062 0.5064 0.5065
3040.000000 0.5067 0.5068 0.5067 0.5066 0.5065
3045.000000 0.5064 0.5062 0.5060 0.5060 0.5057
3050.000000 0.5049 0.5041 0.5033 0.5019 0.4998
3055.000000 0.4977 0.4955 0.4935 0.4914 0.4893
3060.000000 0.4872 0.4851 0.4830 0.4809 0.4788
3065.000000 0.4767 0.4746 0.4725 0.4704 0.4683
3070.000000 0.4662 0.4642 0.4621 0.4600 0.4579
3075.000000 0.4558 0.4538 0.4517 0.4496 0.4476
3080.000000 0.4455 0.4434 0.4412 0.4392 0.4372
3085.000000 0.4351 0.4330 0.4310 0.4289 0.4269
3090.000000 0.4248 0.4228 0.4207 0.4187 0.4167
3095.000000 0.4151 0.4136 0.4120 0.4105 0.4092
3100.000000 0.4079 0.4064 0.4054 0.4046 0.4039
3105.000000 0.4032 0.4028 0.4028 0.4028 0.4028
3110.000000 0.4030 0.4034 0.4038 0.4042 0.4041
3115.000000 0.4055 0.4060 0.4068 0.4077 0.4086
3120.000000 0.4095 0.4105 0.4114 0.4124 0.4134
3125.000000 0.4144 0.4153 0.4162 0.4173 0.4183
3130.000000 0.4194 0.4205 0.4217 0.4229 0.4241
3135.000000 0.4253 0.4265 0.4277 0.4290 0.4302
3140.000000 0.4314 0.4326 0.4337 0.4348 0.4359
3145.000000 0.4370 0.4381 0.4392 0.4403 0.4412
3150.000000 0.4422 0.4431 0.4440 0.4448 0.4455
3155.000000 0.4462 0.4469 0.4475 0.4480 0.4485
3160.000000 0.4490 0.4493 0.4493 0.4493 0.4493
3165.000000 0.4494 0.4494 0.4494 0.4494 0.4493
3170.000000 0.4493 0.4493 0.4492 0.4491 0.4488
3175.000000 0.4486 0.4484 0.4482 0.4479 0.4477
3180.000000 0.4474 0.4471 0.4467 0.4462 0.4458
3185.000000 0.4454 0.4450 0.4445 0.4441 0.4436
3190.000000 0.4432 0.4427 0.4422 0.4418 0.4412
3195.000000 0.4407 0.4402 0.4397 0.4392 0.4387
3200.000000 0.4382 0.4377 0.4372 0.4367 0.4362
3205.000000 0.4358 0.4353 0.4348 0.4344 0.4339
3210.000000 0.4334 0.4329 0.4325 0.4320 0.4315
3215.000000 0.4310 0.4304 0.4299 0.4294 0.4289
3220.000000 0.4283 0.4278 0.4273 0.4267 0.4262
3225.000000 0.4257 0.4251 0.4246 0.4240 0.4235
3230.000000 0.4229 0.4224 0.4218 0.4212 0.4207
3235.000000 0.4202 0.4196 0.4190 0.4184 0.4179
3240.000000 0.4175 0.4170 0.4165 0.4160 0.4157
3245.000000 0.4153 0.4149 0.4146 0.4145 0.4144
3250.000000 0.4143 0.4143 0.4143 0.4143 0.4143
3255.000000 0.4143 0.4145 0.4148 0.4150 0.4152
3260.000000 0.4156 0.4160 0.4166 0.4171 0.4177
3265.000000 0.4184 0.4191 0.4198 0.4206 0.4223
3270.000000 0.4239 0.4256 0.4272 0.4289 0.4306
3275.000000 0.4323 0.4339 0.4356 0.4373 0.4390
3280.000000 0.4407 0.4424 0.4441 0.4458 0.4474
3285.000000 0.4491 0.4508 0.4525 0.4542 0.4559
3290.000000 0.4575 0.4592 0.4608 0.4625 0.4642
3295.000000 0.4659 0.4675 0.4692 0.4709 0.4726
3300.000000 0.4742 0.4759 0.4775 0.4792 0.4808
3305.000000 0.4825 0.4842 0.4859 0.4875 0.4891
3310.000000 0.4908 0.4924 0.4941 0.4957 0.4974
3315.000000 0.4991 0.5007 0.5024 0.5040 0.5056
3320.000000 0.5073 0.5090 0.5107 0.5124 0.5141
3325.000000 0.5164 0.5195 0.5225 0.5255 0.5284
3330.000000 0.5312 0.5340 0.5368 0.5396 0.5418
3335.000000 0.5436 0.5454 0.5472 0.5490 0.5505
3340.000000 0.5520 0.5535 0.5550 0.5565 0.5581
3345.000000 0.5596 0.5610 0.5631 0.5662 0.5693
3350.000000 0.5724 0.5755 0.5782 0.5807 0.5832
3355.000000 0.5858 0.5881 0.5898 0.5915 0.5932
3360.000000 0.5950 0.5967 0.5984 0.6001 0.6018
3365.000000 0.6034 0.6049 0.6062 0.6078 0.6093
3370.000000 0.6107 0.6122 0.6137 0.6151 0.6165
3375.000000 0.6173 0.6181 0.6189 0.6197 0.6206
3380.000000 0.6214 0.6222 0.6230 0.6238 0.6243
3385.000000 0.6248 0.6253 0.6258 0.6262 0.6264
3390.000000 0.6267 0.6270 0.6272 0.6272 0.6271
3395.000000 0.6270 0.6269 0.6268 0.6265 0.6262
3400.000000 0.6260 0.6258 0.6255 0.6252 0.6249
3405.000000 0.6246 0.6242 0.6239 0.6236 0.6233
3410.000000 0.6230 0.6227 0.6224 0.6221 0.6218
3415.000000 0.6215 0.6212 0.6209 0.6206 0.6203
3420.000000 0.6200 0.6197 0.6194 0.6191 0.6188
3425.000000 0.6186 0.6183 0.6180 0.6177 0.6174
3430.000000 0.6172 0.6169 0.6167 0.6164 0.6162
3435.000000 0.6159 0.6157 0.6154 0.6152 0.6149
3440.000000 0.6147 0.6145 0.6143 0.6141 0.6140
3445.000000 0.6140 0.6140 0.6140 0.6140 0.6140
3450.000000 0.6140 0.6140 0.6140 0.6140 0.6142
3455.000000 0.6144 0.6146 0.6148 0.6150 0.6153
3460.000000 0.6155 0.6158 0.6160 0.6165 0.6172
3465.000000 0.6179 0.6186 0.6193 0.6201 0.6209
3470.000000 0.6218 0.6226 0.6235 0.6245 0.6256
3475.000000 0.6267 0.6278 0.6289 0.6301 0.6312
3480.000000 0.6325 0.6338 0.6350 0.6362 0.6376
3485.000000 0.6389 0.6401 0.6415 0.6430 0.6444
3490.000000 0.6458 0.6472 0.6489 0.6505 0.6521
3495.000000 0.6536 0.6551 0.6568 0.6584 0.6600
3500.000000 0.6615 0.6631 0.6646 0.6660 0.6674
3505.000000 0.6688 0.6701 0.6715 0.6730 0.6744
3510.000000 0.6758 0.6771 0.6786 0.6799 0.6811
3515.000000 0.6825 0.6838 0.6848 0.6857 0.6867
3520.000000 0.6875 0.6885 0.6895 0.6904 0.6912
3525.000000 0.6921 0.6932 0.6941 0.6950 0.6958
3530.000000 0.6968 0.6978 0.6987 0.6996 0.7005
3535.000000 0.7015 0.7024 0.7033 0.7042 0.7051
3540.000000 0.7061 0.7069 0.7078 0.7089 0.7098
3545.000000 0.7107 0.7117 0.7125 0.7136 0.7145
3550.000000 0.7155 0.7164 0.7174 0.7184 0.7193
3555.000000 0.7203 0.7212 0.7221 0.7232 0.7241
3560.000000 0.7251 0.7260 0.7269 0.7278 0.7288
3565.000000 0.7298 0.7307 0.7317 0.7325 0.7335
3570.000000 0.7344 0.7354 0.7361 0.7368 0.7376
3575.000000 0.7385 0.7392 0.7400 0.7408 0.7415
3580.000000 0.7422 0.7430 0.7438 0.7446 0.7453
3585.000000 0.7461 0.7468 0.7475 0.7484 0.7491
3590.000000 0.7499 0.7506 0.7514 0.7521 0.7528
3595.000000 0.7536 0.7544 0.7551 0.7558 0.7567
3600.000000 0.7574 0.7582 0.7589 0.7597 0.7605
3605.000000 0.7612 0.7621 0.7628 0.7638 0.7646
3610.000000 0.7654 0.7661 0.7669 0.7678 0.7686
3615.000000 0.7694 0.7703 0.7711 0.7718 0.7726
3620.000000 0.7735 0.7743 0.7751 0.7758 0.7767
3625.000000 0.7775 0.7783 0.7792 0.7800 0.7808
3630.000000 0.7815 0.7824 0.7832 0.7840 0.7848
3635.000000 0.7855 0.7861 0.7869 0.7876 0.7884
3640.000000 0.7891 0.7898 0.7904 0.7911 0.7917
3645.000000 0.7924 0.7930 0.7937 0.7943 0.7949
3650.000000 0.7956 0.7961 0.7968 0.7975 0.7982
3655.000000 0.7989 0.7995 0.8001 0.8008 0.8015
3660.000000 0.8021 0.8028 0.8034 0.8040 0.8047
3665.000000 0.8053 0.8060 0.8068 0.8075 0.8084
3670.000000 0.8092 0.8100 0.8108 0.8115 0.8124
3675.000000 0.8132 0.8140 0.8148 0.8156 0.8164
3680.000000 0.8171 0.8178 0.8187 0.8195 0.8203
3685.000000 0.8211 0.8218 0.8227 0.8235 0.8242
3690.000000 0.8249 0.8257 0.8264 0.8271 0.8278
3695.000000 0.8285 0.8293 0.8300 0.8307 0.8312
3700.000000 0.8317 0.8321 0.8325 0.8330 0.8334
3705.000000 0.8336 0.8337 0.8339 0.8341 0.8342
3710.000000 0.8343 0.8344 0.8346 0.8347 0.8348
3715.000000 0.8349 0.8350 0.8351 0.8353 0.8354
3720.000000 0.8355 0.8356 0.8356 0.8356 0.8356
3725.000000 0.8356 0.8357 0.8357 0.8357 0.8358
3730.000000 0.8358 0.8358 0.8359 0.8359 0.8359
3735.000000 0.8360 0.8360 0.8361 0.8361 0.8361
3740.000000 0.8362 0.8362 0.8362 0.8362 0.8362
3745.000000 0.8362 0.8362 0.8362 0.8362 0.8361
3750.000000 0.8361 0.8360 0.8360 0.8360 0.8359
3755.000000 0.8359 0.8358 0.8358 0.8357 0.8357
3760.000000 0.8356 0.8356 0.8356 0.8355 0.8355
3765.000000 0.8355 0.8354 0.8354 0.8353 0.8353
3770.000000 0.8353 0.8352 0.8352 0.8352 0.8351
3775.000000 0.8351 0.8351 0.8350 0.8349 0.8349
3780.000000 0.8348 0.8347 0.8347 0.8346 0.8345
3785.000000 0.8345 0.8344 0.8343 0.8342 0.8342
3790.000000 0.8341 0.8340 0.8339 0.8338 0.8337
3795.000000 0.8337 0.8336 0.8335 0.8334 0.8334
3800.000000 0.8333 0.8332 0.8331 0.8330 0.8330
3805.000000 0.8328 0.8328 0.8327 0.8327 0.8325
3810.000000 0.8325 0.8324 0.8323 0.8321 0.8321
3815.000000 0.8320 0.8318 0.8317 0.8316 0.8315
3820.000000 0.8314 0.8313 0.8312 0.8311 0.8310
3825.000000 0.8309 0.8308 0.8307 0.8306 0.8305
3830.000000 0.8304 0.8303 0.8302 0.8301 0.8300
3835.000000 0.8299 0.8298 0.8296 0.8295 0.8294
3840.000000 0.8293 0.8292 0.8290 0.8289 0.8288
3845.000000 0.8287 0.8286 0.8285 0.8283 0.8282
3850.000000 0.8281 0.8280 0.8278 0.8277 0.8275
3855.000000 0.8275 0.8273 0.8271 0.8271 0.8268
3860.000000 0.8268 0.8267 0.8266 0.8265 0.8263
3865.000000 0.8262 0.8261 0.8260 0.8259 0.8258
3870.000000 0.8256 0.8255 0.8254 0.8252 0.8251
3875.000000 0.8250 0.8248 0.8247 0.8246 0.8245
3880.000000 0.8244 0.8243 0.8241 0.8240 0.8239
3885.000000 0.8238 0.8237 0.8236 0.8235 0.8233
3890.000000 0.8232 0.8231 0.8228 0.8228 0.8227
3895.000000 0.8225 0.8224 0.8223 0.8221 0.8220
3900.000000 0.8218 0.8217 0.8216 0.8214 0.8213
3905.000000 0.8211 0.8210 0.8209 0.8207 0.8206
3910.000000 0.8205 0.8203 0.8202 0.8201 0.8199
3915.000000 0.8198 0.8196 0.8195 0.8193 0.8192
3920.000000 0.8190 0.8189 0.8187 0.8186 0.8184
3925.000000 0.8183 0.8182 0.8180 0.8178 0.8178
3930.000000 0.8176 0.8175 0.8174 0.8171 0.8171
3935.000000 0.8168 0.8168 0.8167 0.8165 0.8164
3940.000000 0.8162 0.8161 0.8160 0.8158 0.8157
3945.000000 0.8156 0.8154 0.8153 0.8151 0.8150
3950.000000 0.8149 0.8147 0.8146 0.8144 0.8143
3955.000000 0.8142 0.8140 0.8138 0.8137 0.8135
3960.000000 0.8134 0.8132 0.8130 0.8128 0.8128
3965.000000 0.8125 0.8125 0.8122 0.8121 0.8119
3970.000000 0.8118 0.8117 0.8115 0.8114 0.8111
3975.000000 0.8111 0.8108 0.8108 0.8107 0.8105
3980.000000 0.8104 0.8101 0.8101 0.8100 0.8098
3985.000000 0.8097 0.8095 0.8094 0.8092 0.8091
3990.000000 0.8089 0.8088 0.8086 0.8084 0.8083
3995.000000 0.8082 0.8080 0.8078 0.8076 0.8075
4000.000000 0.8075
##END=
