##TITLE=PROCHLORPERAZINE DIMALEATE
##JCAMP-DX=4.24
##DATA TYPE=INFRARED SPECTRUM
##CLASS=COBLENTZ III
##OWNER=COBLENTZ SOCIETY
Collection (C) 2018 copyright by the U.S. Secretary of Commerce
on behalf of the United States of America. All rights reserved.
##DATE=1962/04/27
##NAMES=3-CHLORO-10[3-(4-METHYL-1-PIPERAZINYL)PROPYL]PHENOTHIAZINE DIMALEATE
##MOLFORM=C28 H32 Cl N3 O8 S
##SOURCE REFERENCE=COBLENTZ NO. 9689
##$NIST ID=B6009689
##$NIST SOURCE=COBLENTZ
##$NIST IMAGE=cob9689
##SPECTROMETER/DATA SYSTEM=PERKIN-ELMER 21 (GRATING)
##INSTRUMENT PARAMETERS=NaCl PRISM
##STATE=SOLID (0.99 mg / 200 mg KBr DISC)
##SAMPLING PROCEDURE=TRANSMISSION
##RESOLUTION=2
##DATA PROCESSING=DIGITIZED BY NIST FROM HARD COPY
##XUNITS=MICROMETERS
##YUNITS=TRANSMITTANCE
##XFACTOR=1.000000
##YFACTOR=1
##DELTAX=000.005634
##FIRSTX=2.008
##LASTX=15.3434
##FIRSTY=0.812
##MAXX=15.3434
##MINX=2.008
##MAXY=0.93
##MINY=0.053
##NPOINTS=2368
##XYDATA=(X++(Y..Y))
2.008000 0.8120 0.8120 0.8130 0.8130 0.8150
2.036181 0.8150 0.8160 0.8160 0.8180 0.8190
2.065000 0.8190 0.8200 0.8200 0.8220 0.8220
2.093181 0.8250 0.8260 0.8270 0.8290 0.8300
2.121000 0.8320 0.8320 0.8330 0.8340 0.8340
2.149181 0.8360 0.8360 0.8360 0.8370 0.8370
2.177000 0.8390 0.8390 0.8390 0.8400 0.8400
2.205181 0.8400 0.8420 0.8430 0.8430 0.8430
2.234000 0.8430 0.8430 0.8430 0.8430 0.8420
2.262181 0.8400 0.8400 0.8400 0.8390 0.8400
2.290000 0.8400 0.8420 0.8430 0.8440 0.8440
2.318181 0.8460 0.8470 0.8470 0.8490 0.8500
2.346000 0.8500 0.8510 0.8510 0.8530 0.8540
2.374181 0.8540 0.8560 0.8560 0.8570 0.8570
2.403000 0.8580 0.8580 0.8600 0.8600 0.8600
2.431181 0.8630 0.8630 0.8640 0.8660 0.8660
2.459000 0.8670 0.8670 0.8680 0.8700 0.8700
2.487181 0.8710 0.8730 0.8730 0.8740 0.8740
2.515000 0.8770 0.8770 0.8780 0.8780 0.8800
2.543181 0.8800 0.8810 0.8810 0.8800 0.8800
2.572000 0.8810 0.8810 0.8820 0.8820 0.8820
2.600181 0.8820 0.8820 0.8820 0.8820 0.8820
2.628000 0.8820 0.8840 0.8850 0.8880 0.8910
2.656181 0.8910 0.8920 0.8920 0.8920 0.8920
2.685000 0.8940 0.8940 0.8940 0.8940 0.8940
2.713181 0.8950 0.8970 0.8970 0.8970 0.8980
2.741000 0.8980 0.8980 0.8980 0.8990 0.9010
2.769181 0.9010 0.9020 0.9020 0.9050 0.9080
2.797000 0.9090 0.9120 0.9150 0.9160 0.9180
2.825181 0.9190 0.9220 0.9230 0.9230 0.9250
2.854000 0.9260 0.9260 0.9280 0.9280 0.9290
2.882181 0.9300 0.9300 0.9300 0.9300 0.9300
2.910000 0.9300 0.9290 0.9260 0.9250 0.9220
2.938181 0.9210 0.9180 0.9160 0.9160 0.9150
2.966000 0.9130 0.9120 0.9090 0.9050 0.9040
2.994181 0.9010 0.8990 0.8980 0.8950 0.8950
3.023000 0.8940 0.8920 0.8890 0.8880 0.8880
3.051181 0.8880 0.8880 0.8880 0.8880 0.8880
3.079000 0.8880 0.8880 0.8880 0.8870 0.8820
3.107181 0.8810 0.8800 0.8800 0.8770 0.8730
3.135000 0.8700 0.8680 0.8670 0.8610 0.8560
3.163181 0.8500 0.8460 0.8430 0.8420 0.8360
3.192000 0.8300 0.8220 0.8160 0.8120 0.8090
3.220181 0.7990 0.7940 0.7840 0.7680 0.7580
3.248000 0.7550 0.7540 0.7530 0.7510 0.7500
3.276181 0.7430 0.7330 0.7230 0.7200 0.7230
3.304000 0.7360 0.7440 0.7550 0.7550 0.7480
3.332181 0.7430 0.7370 0.7360 0.7340 0.7360
3.361000 0.7440 0.7580 0.7650 0.7680 0.7710
3.389181 0.7720 0.7780 0.7870 0.7910 0.7940
3.417000 0.7980 0.7980 0.7980 0.7940 0.7910
3.445181 0.7880 0.7850 0.7820 0.7790 0.7790
3.473000 0.7790 0.7810 0.7850 0.7890 0.7920
3.501181 0.7960 0.7980 0.7980 0.7990 0.7990
3.530000 0.7990 0.7990 0.7990 0.7990 0.7980
3.558181 0.7960 0.7920 0.7880 0.7850 0.7850
3.586000 0.7840 0.7820 0.7780 0.7740 0.7700
3.614181 0.7650 0.7610 0.7570 0.7540 0.7500
3.642000 0.7470 0.7410 0.7400 0.7390 0.7370
3.670181 0.7360 0.7340 0.7340 0.7340 0.7330
3.699000 0.7330 0.7320 0.7300 0.7290 0.7270
3.727181 0.7240 0.7220 0.7170 0.7130 0.7100
3.755000 0.7080 0.7030 0.7000 0.6980 0.6950
3.783181 0.6890 0.6850 0.6810 0.6780 0.6740
3.811000 0.6710 0.6690 0.6680 0.6640 0.6600
3.839181 0.6570 0.6550 0.6540 0.6530 0.6530
3.868000 0.6530 0.6530 0.6530 0.6510 0.6510
3.896181 0.6500 0.6500 0.6480 0.6470 0.6450
3.924000 0.6440 0.6430 0.6410 0.6400 0.6380
3.952181 0.6370 0.6330 0.6290 0.6240 0.6200
3.980000 0.6190 0.6170 0.6140 0.6090 0.6030
4.008181 0.6020 0.5990 0.5980 0.5960 0.5930
4.037000 0.5900 0.5860 0.5830 0.5810 0.5780
4.065181 0.5780 0.5760 0.5750 0.5740 0.5720
4.093000 0.5710 0.5690 0.5680 0.5660 0.5660
4.121181 0.5650 0.5640 0.5620 0.5620 0.5610
4.149000 0.5590 0.5580 0.5580 0.5550 0.5580
4.177181 0.5610 0.5620 0.5650 0.5690 0.5710
4.206000 0.5710 0.5720 0.5720 0.5720 0.5720
4.234181 0.5720 0.5720 0.5720 0.5710 0.5690
4.262000 0.5660 0.5650 0.5650 0.5620 0.5610
4.290181 0.5590 0.5580 0.5570 0.5550 0.5540
4.318000 0.5520 0.5520 0.5510 0.5500 0.5480
4.346181 0.5470 0.5470 0.5450 0.5450 0.5450
4.375000 0.5470 0.5470 0.5480 0.5500 0.5510
4.403181 0.5510 0.5520 0.5550 0.5570 0.5580
4.431000 0.5590 0.5620 0.5640 0.5640 0.5650
4.459181 0.5660 0.5680 0.5680 0.5710 0.5720
4.487000 0.5740 0.5750 0.5760 0.5760 0.5760
4.515181 0.5750 0.5750 0.5720 0.5720 0.5710
4.544000 0.5690 0.5680 0.5680 0.5680 0.5710
4.572181 0.5750 0.5780 0.5790 0.5820 0.5850
4.600000 0.5860 0.5860 0.5880 0.5920 0.5930
4.628181 0.5930 0.5960 0.5980 0.5980 0.6000
4.656000 0.6030 0.6060 0.6090 0.6100 0.6120
4.684181 0.6140 0.6160 0.6160 0.6170 0.6190
4.713000 0.6190 0.6220 0.6240 0.6270 0.6290
4.741181 0.6310 0.6340 0.6370 0.6380 0.6400
4.769000 0.6410 0.6430 0.6430 0.6450 0.6480
4.797181 0.6500 0.6510 0.6510 0.6530 0.6530
4.825000 0.6540 0.6540 0.6540 0.6540 0.6540
4.853181 0.6540 0.6540 0.6540 0.6540 0.6530
4.882000 0.6530 0.6530 0.6530 0.6530 0.6510
4.910181 0.6510 0.6510 0.6510 0.6500 0.6500
4.938000 0.6500 0.6480 0.6480 0.6470 0.6470
4.966181 0.6450 0.6450 0.6450 0.6450 0.6470
4.994000 0.6470 0.6480 0.6500 0.6540 0.6600
5.022181 0.6620 0.6650 0.6650 0.6680 0.6690
5.051000 0.6690 0.6710 0.6710 0.6720 0.6740
5.079181 0.6740 0.6740 0.6740 0.6740 0.6740
5.107000 0.6740 0.6740 0.6740 0.6750 0.6750
5.135181 0.6750 0.6750 0.6770 0.6770 0.6770
5.163000 0.6770 0.6780 0.6780 0.6780 0.6780
5.191181 0.6780 0.6780 0.6770 0.6770 0.6780
5.220000 0.6790 0.6790 0.6810 0.6820 0.6840
5.248181 0.6850 0.6860 0.6890 0.6920 0.6980
5.276000 0.7030 0.7100 0.7130 0.7150 0.7170
5.304181 0.7200 0.7220 0.7230 0.7240 0.7240
5.332000 0.7260 0.7260 0.7290 0.7360 0.7440
5.360181 0.7500 0.7530 0.7540 0.7550 0.7550
5.389000 0.7570 0.7570 0.7580 0.7610 0.7630
5.417181 0.7640 0.7670 0.7680 0.7680 0.7680
5.445000 0.7670 0.7670 0.7650 0.7650 0.7650
5.473181 0.7680 0.7710 0.7720 0.7750 0.7770
5.501000 0.7780 0.7790 0.7810 0.7820 0.7820
5.529181 0.7850 0.7850 0.7870 0.7870 0.7870
5.558000 0.7870 0.7870 0.7870 0.7880 0.7910
5.586181 0.7920 0.7950 0.7960 0.7980 0.7990
5.614000 0.8010 0.8010 0.8020 0.8030 0.8050
5.642181 0.8080 0.8110 0.8150 0.8160 0.8160
5.670000 0.8160 0.8160 0.8160 0.8160 0.8160
5.698181 0.8150 0.8130 0.8110 0.8090 0.8080
5.727000 0.7910 0.7710 0.7510 0.7340 0.7090
5.755181 0.7000 0.6860 0.6710 0.6550 0.6400
5.783000 0.6100 0.5780 0.5450 0.5230 0.5160
5.811181 0.5020 0.4760 0.4680 0.4610 0.4490
5.839000 0.4370 0.4250 0.4070 0.4060 0.4070
5.867181 0.4070 0.4100 0.4240 0.4470 0.4710
5.896000 0.4950 0.5060 0.5170 0.5400 0.5610
5.924181 0.5790 0.5960 0.6090 0.6270 0.6430
5.952000 0.6530 0.6580 0.6670 0.6670 0.6670
5.980181 0.6690 0.6770 0.6840 0.6820 0.6820
6.008000 0.6790 0.6780 0.6740 0.6690 0.6620
6.036181 0.6550 0.6440 0.6370 0.6300 0.6230
6.065000 0.6090 0.5900 0.5660 0.5340 0.4470
6.093181 0.4100 0.3890 0.3550 0.2760 0.2600
6.121000 0.2420 0.2410 0.2440 0.2510 0.2690
6.149181 0.2890 0.3080 0.3280 0.3480 0.3690
6.177000 0.4130 0.4340 0.4380 0.4380 0.4370
6.205181 0.4170 0.4160 0.4130 0.4010 0.3760
6.234000 0.3510 0.3340 0.3320 0.3300 0.3280
6.262181 0.3270 0.3200 0.3010 0.2890 0.2800
6.290000 0.2700 0.2530 0.2360 0.2180 0.2050
6.318181 0.2000 0.1910 0.1840 0.1790 0.1770
6.346000 0.1770 0.1770 0.1770 0.1800 0.1870
6.374181 0.1940 0.1980 0.2040 0.2080 0.2110
6.403000 0.2110 0.2120 0.2120 0.2120 0.2120
6.431181 0.2120 0.2110 0.2100 0.2070 0.2040
6.459000 0.1980 0.1960 0.1940 0.1940 0.1940
6.487181 0.1940 0.1970 0.2000 0.2010 0.2030
6.515000 0.2040 0.2070 0.2100 0.2110 0.2110
6.543181 0.2110 0.2110 0.2100 0.2070 0.2040
6.572000 0.2030 0.2010 0.1970 0.1900 0.1830
6.600181 0.1770 0.1700 0.1650 0.1590 0.1560
6.628000 0.1520 0.1480 0.1390 0.1260 0.1170
6.656181 0.1100 0.1070 0.1050 0.1040 0.1040
6.685000 0.1020 0.0980 0.0950 0.0940 0.0880
6.713181 0.0860 0.0830 0.0810 0.0730 0.0700
6.741000 0.0690 0.0710 0.0900 0.0900 0.0900
6.769181 0.0880 0.0870 0.0810 0.0760 0.0740
6.797000 0.0730 0.0710 0.0660 0.0620 0.0550
6.825181 0.0530 0.0550 0.0560 0.0620 0.0730
6.854000 0.0860 0.0910 0.1040 0.1100 0.1110
6.882181 0.1120 0.1140 0.1150 0.1150 0.1180
6.910000 0.1220 0.1260 0.1420 0.1620 0.1840
6.938181 0.2050 0.2240 0.2350 0.2420 0.2460
6.966000 0.2490 0.2550 0.2600 0.2720 0.2860
6.994181 0.3060 0.3210 0.3240 0.3320 0.3380
7.023000 0.3390 0.3370 0.3320 0.3280 0.3240
7.051181 0.3200 0.3180 0.3180 0.3270 0.3380
7.079000 0.3420 0.3440 0.3480 0.3450 0.3450
7.107181 0.3390 0.3310 0.3220 0.3180 0.3170
7.135000 0.3180 0.3210 0.3300 0.3440 0.3560
7.163181 0.3690 0.3770 0.3920 0.4090 0.4180
7.192000 0.4230 0.4280 0.4170 0.4040 0.3960
7.220181 0.3920 0.3790 0.3650 0.3550 0.3510
7.248000 0.3490 0.3490 0.3480 0.3480 0.3460
7.276181 0.3450 0.3340 0.3220 0.3080 0.2890
7.304000 0.2600 0.2220 0.1690 0.1320 0.1100
7.332181 0.0950 0.0840 0.0840 0.0840 0.0830
7.361000 0.1110 0.1240 0.1310 0.1480 0.1740
7.389181 0.2080 0.2460 0.2840 0.3240 0.3580
7.417000 0.3860 0.4000 0.4100 0.4180 0.4250
7.445181 0.4350 0.4470 0.4710 0.4830 0.4930
7.473000 0.5030 0.5040 0.5040 0.4800 0.4690
7.501181 0.4620 0.4560 0.4540 0.4520 0.4490
7.530000 0.4450 0.4400 0.4300 0.4110 0.3990
7.558181 0.3650 0.3460 0.3450 0.3480 0.3960
7.586000 0.4100 0.4310 0.4490 0.4540 0.4540
7.614181 0.4540 0.4540 0.4520 0.4440 0.4350
7.642000 0.4330 0.4280 0.4280 0.4280 0.4270
7.670181 0.4230 0.4140 0.4040 0.3960 0.3830
7.699000 0.3760 0.3690 0.3680 0.3680 0.3690
7.727181 0.3830 0.3850 0.3870 0.3870 0.3830
7.755000 0.3690 0.3660 0.3630 0.3610 0.3510
7.783181 0.3410 0.3380 0.3410 0.3550 0.3630
7.811000 0.3720 0.3820 0.3940 0.4060 0.4170
7.839181 0.4250 0.4340 0.4440 0.4520 0.4520
7.868000 0.4520 0.4510 0.4450 0.4420 0.4380
7.896181 0.4370 0.4340 0.4270 0.4200 0.4110
7.924000 0.4040 0.3970 0.3870 0.3770 0.3660
7.952181 0.3510 0.3440 0.3350 0.3280 0.3250
7.980000 0.3200 0.3180 0.3170 0.3150 0.3150
8.008181 0.3150 0.3180 0.3200 0.3210 0.3210
8.037000 0.3240 0.3250 0.3270 0.3280 0.3280
8.065181 0.3300 0.3310 0.3310 0.3320 0.3320
8.093000 0.3320 0.3320 0.3320 0.3320 0.3310
8.121181 0.3240 0.3150 0.3070 0.3010 0.2940
8.149000 0.2890 0.2830 0.2790 0.2730 0.2670
8.177181 0.2670 0.2650 0.2630 0.2650 0.2670
8.206000 0.2770 0.2870 0.3000 0.3110 0.3240
8.234181 0.3350 0.3480 0.3580 0.3660 0.3690
8.262000 0.3720 0.3760 0.3790 0.3830 0.3870
8.290181 0.3900 0.3920 0.3930 0.3930 0.3960
8.318000 0.3970 0.3990 0.4010 0.4030 0.4040
8.346181 0.4060 0.4070 0.4070 0.4090 0.4090
8.375000 0.4100 0.4110 0.4110 0.4110 0.4110
8.403181 0.4100 0.4100 0.4090 0.4070 0.4070
8.431000 0.4040 0.4040 0.4030 0.4000 0.3990
8.459181 0.3990 0.4000 0.4030 0.4060 0.4070
8.487000 0.4090 0.4130 0.4180 0.4240 0.4240
8.515181 0.4300 0.4330 0.4340 0.4340 0.4350
8.544000 0.4350 0.4350 0.4380 0.4400 0.4400
8.572181 0.4410 0.4420 0.4420 0.4440 0.4450
8.600000 0.4450 0.4480 0.4490 0.4510 0.4520
8.628181 0.4520 0.4550 0.4580 0.4590 0.4610
8.656000 0.4620 0.4620 0.4620 0.4640 0.4640
8.684181 0.4640 0.4610 0.4590 0.4590 0.4560
8.713000 0.4550 0.4540 0.4470 0.4380 0.4280
8.741181 0.4200 0.4140 0.4060 0.4040 0.4030
8.769000 0.4030 0.4010 0.4010 0.3930 0.3850
8.797181 0.3760 0.3680 0.3590 0.3510 0.3480
8.825000 0.3420 0.3370 0.3370 0.3410 0.3440
8.853181 0.3510 0.3540 0.3550 0.3580 0.3590
8.882000 0.3620 0.4000 0.4060 0.4060 0.4040
8.910181 0.4040 0.4010 0.3970 0.3960 0.3890
8.938000 0.3790 0.3770 0.3730 0.3700 0.3690
8.966181 0.3660 0.3650 0.3620 0.3610 0.3610
8.994000 0.3590 0.3590 0.3590 0.3590 0.3610
9.022181 0.3620 0.3650 0.3660 0.3660 0.3660
9.051000 0.3660 0.3660 0.3660 0.3650 0.3630
9.079181 0.3620 0.3590 0.3580 0.3550 0.3550
9.107000 0.3540 0.3520 0.3490 0.3480 0.3460
9.135181 0.3440 0.3440 0.3420 0.3410 0.3390
9.163000 0.3380 0.3380 0.3380 0.3390 0.3410
9.191181 0.3440 0.3450 0.3460 0.3480 0.3490
9.220000 0.3520 0.3550 0.3580 0.3590 0.3620
9.248181 0.3630 0.3650 0.3650 0.3630 0.3620
9.276000 0.3610 0.3590 0.3580 0.3560 0.3550
9.304181 0.3540 0.3520 0.3510 0.3490 0.3460
9.332000 0.3450 0.3450 0.3480 0.3510 0.3560
9.360181 0.3650 0.3720 0.3790 0.3800 0.3850
9.389000 0.3860 0.3930 0.3990 0.4030 0.4090
9.417181 0.4110 0.4140 0.4170 0.4210 0.4240
9.445000 0.4300 0.4340 0.4400 0.4440 0.4490
9.473181 0.4540 0.4580 0.4620 0.4650 0.4710
9.501000 0.4750 0.4790 0.4830 0.4860 0.4890
9.529181 0.4930 0.4960 0.4990 0.5020 0.5030
9.558000 0.5070 0.5110 0.5160 0.5170 0.5190
9.586181 0.5170 0.5170 0.5140 0.5110 0.5040
9.614000 0.4960 0.4970 0.4990 0.5000 0.5030
9.642181 0.5090 0.5160 0.5230 0.5300 0.5380
9.670000 0.5470 0.5550 0.5620 0.5660 0.5690
9.698181 0.5720 0.5750 0.5750 0.5760 0.5760
9.727000 0.5760 0.5760 0.5760 0.5680 0.5540
9.755181 0.5500 0.5430 0.5410 0.5430 0.5500
9.783000 0.5580 0.5710 0.5820 0.5900 0.5980
9.811181 0.6050 0.6100 0.6140 0.6190 0.6230
9.839000 0.6270 0.6310 0.6340 0.6360 0.6370
9.867181 0.6400 0.6440 0.6480 0.6510 0.6530
9.896000 0.6530 0.6540 0.6540 0.6550 0.6550
9.924181 0.6550 0.6580 0.6580 0.6610 0.6640
9.952000 0.6670 0.6680 0.6680 0.6680 0.6690
9.980181 0.6690 0.6710 0.6740 0.6770 0.6790
10.008000 0.6810 0.6840 0.6860 0.6880 0.6890
10.036181 0.6920 0.6920 0.6950 0.6950 0.6950
10.065000 0.6950 0.6950 0.6950 0.6950 0.6950
10.093181 0.6930 0.6930 0.6920 0.6910 0.6890
10.121000 0.6880 0.6850 0.6820 0.6770 0.6710
10.149181 0.6640 0.6540 0.6410 0.6340 0.6290
10.177000 0.6220 0.6190 0.6170 0.6140 0.6130
10.205181 0.6130 0.6130 0.6140 0.6190 0.6240
10.234000 0.6300 0.6340 0.6400 0.6400 0.6340
10.262181 0.6300 0.6240 0.6190 0.6140 0.6090
10.290000 0.6050 0.5990 0.5930 0.5920 0.5920
10.318181 0.5930 0.5950 0.5980 0.6000 0.6120
10.346000 0.6220 0.6290 0.6360 0.6430 0.6480
10.374181 0.6530 0.6570 0.6610 0.6650 0.6690
10.403000 0.6720 0.6720 0.6740 0.6740 0.6740
10.431181 0.6740 0.6740 0.6720 0.6710 0.6680
10.459000 0.6640 0.6640 0.6580 0.6550 0.6530
10.487181 0.6500 0.6470 0.6440 0.6430 0.6340
10.515000 0.6270 0.6200 0.6120 0.6050 0.5950
10.543181 0.5850 0.5710 0.5540 0.5310 0.5210
10.572000 0.5140 0.5090 0.5040 0.4950 0.4890
10.600181 0.4860 0.4850 0.4880 0.4970 0.5070
10.628000 0.5260 0.5450 0.5620 0.5780 0.5930
10.656181 0.6050 0.6160 0.6270 0.6360 0.6430
10.685000 0.6470 0.6510 0.6550 0.6580 0.6620
10.713181 0.6650 0.6680 0.6710 0.6720 0.6720
10.741000 0.6740 0.6740 0.6740 0.6740 0.6740
10.769181 0.6740 0.6740 0.6720 0.6710 0.6690
10.797000 0.6690 0.6690 0.6680 0.6670 0.6640
10.825181 0.6580 0.6430 0.6400 0.6360 0.6330
10.854000 0.6330 0.6370 0.6400 0.6430 0.6450
10.882181 0.6480 0.6470 0.6440 0.6430 0.6430
10.910000 0.6430 0.6430 0.6450 0.6480 0.6510
10.938181 0.6530 0.6530 0.6620 0.6710 0.6770
10.966000 0.6840 0.6910 0.6950 0.6960 0.6980
10.994181 0.7000 0.7030 0.7060 0.7120 0.7160
11.023000 0.7200 0.7220 0.7230 0.7240 0.7240
11.051181 0.7260 0.7240 0.7230 0.7220 0.7200
11.079000 0.7200 0.7220 0.7260 0.7320 0.7340
11.107181 0.7370 0.7400 0.7440 0.7470 0.7510
11.135000 0.7550 0.7610 0.7650 0.7700 0.7740
11.163181 0.7750 0.7770 0.7780 0.7790 0.7790
11.192000 0.7790 0.7790 0.7780 0.7770 0.7750
11.220181 0.7740 0.7720 0.7700 0.7700 0.7670
11.248000 0.7640 0.7580 0.7510 0.7460 0.7430
11.276181 0.7360 0.7260 0.7160 0.7050 0.6920
11.304000 0.6790 0.6680 0.6540 0.6410 0.6290
11.332181 0.6160 0.6020 0.5890 0.5760 0.5640
11.361000 0.5510 0.5330 0.5100 0.5030 0.4920
11.389181 0.4860 0.4820 0.4780 0.4760 0.4760
11.417000 0.4760 0.4760 0.4790 0.4920 0.4990
11.445181 0.5030 0.5060 0.5090 0.5070 0.5020
11.473000 0.4830 0.4690 0.4510 0.4270 0.3990
11.501181 0.3680 0.3340 0.2970 0.2590 0.2180
11.530000 0.1940 0.1900 0.1940 0.2250 0.2520
11.558181 0.2660 0.2910 0.3240 0.3630 0.4040
11.586000 0.4440 0.4780 0.4900 0.5030 0.5160
11.614181 0.5300 0.5450 0.5470 0.5450 0.5440
11.642000 0.5400 0.5370 0.5350 0.5340 0.5340
11.670181 0.5370 0.5440 0.5470 0.5510 0.5550
11.699000 0.5820 0.5960 0.6100 0.6240 0.6360
11.727181 0.6410 0.6480 0.6540 0.6610 0.6780
11.755000 0.6860 0.6960 0.7050 0.7100 0.7200
11.783181 0.7290 0.7340 0.7400 0.7430 0.7460
11.811000 0.7470 0.7500 0.7530 0.7540 0.7550
11.839181 0.7570 0.7570 0.7600 0.7600 0.7600
11.868000 0.7600 0.7580 0.7580 0.7550 0.7510
11.896181 0.7440 0.7360 0.7260 0.7130 0.6980
11.924000 0.6790 0.6600 0.6360 0.6290 0.6230
11.952181 0.6190 0.6140 0.6130 0.6160 0.6360
11.980000 0.6580 0.6640 0.6710 0.6840 0.6960
12.008181 0.7090 0.7220 0.7340 0.7470 0.7570
12.037000 0.7850 0.7870 0.7920 0.7940 0.7950
12.065181 0.7950 0.7960 0.7960 0.7920 0.7870
12.093000 0.7850 0.7870 0.7920 0.7950 0.7980
12.121181 0.8020 0.8050 0.8090 0.8110 0.8120
12.149000 0.8130 0.8130 0.8150 0.8150 0.8180
12.177181 0.8190 0.8230 0.8260 0.8270 0.8270
12.206000 0.8290 0.8290 0.8290 0.8290 0.8290
12.234181 0.8290 0.8290 0.8290 0.8270 0.8270
12.262000 0.8260 0.8260 0.8250 0.8230 0.8200
12.290181 0.8180 0.8120 0.8060 0.7990 0.7890
12.318000 0.7870 0.7850 0.7820 0.7810 0.7810
12.346181 0.7790 0.7790 0.7780 0.7780 0.7770
12.375000 0.7740 0.7710 0.7700 0.7700 0.7680
12.403181 0.7670 0.7650 0.7640 0.7600 0.7550
12.431000 0.7500 0.7430 0.7330 0.7220 0.7080
12.459181 0.6890 0.6680 0.6570 0.6360 0.6290
12.487000 0.6170 0.6090 0.6060 0.6090 0.6170
12.515181 0.6270 0.6380 0.6530 0.6640 0.6740
12.544000 0.6770 0.6770 0.6790 0.6840 0.6910
12.572181 0.7000 0.7130 0.7290 0.7480 0.7580
12.600000 0.7700 0.7820 0.7940 0.7940 0.7940
12.628181 0.7940 0.7940 0.7940 0.7920 0.7920
12.656000 0.7910 0.7910 0.7840 0.7780 0.7650
12.684181 0.7440 0.7300 0.7220 0.7060 0.6980
12.713000 0.6950 0.6910 0.6880 0.6860 0.6860
12.741181 0.6850 0.6840 0.6820 0.6820 0.6820
12.769000 0.6820 0.6810 0.6750 0.6680 0.6620
12.797181 0.6550 0.6500 0.6450 0.6400 0.6340
12.825000 0.6290 0.6260 0.6230 0.6230 0.6230
12.853181 0.6220 0.6220 0.6230 0.6230 0.6230
12.882000 0.6260 0.6270 0.6290 0.6300 0.6400
12.910181 0.6550 0.6620 0.6680 0.6750 0.6810
12.938000 0.6860 0.6920 0.6980 0.7030 0.7060
12.966181 0.7080 0.7100 0.7130 0.7190 0.7240
12.994000 0.7290 0.7340 0.7370 0.7370 0.7390
13.022181 0.7400 0.7400 0.7410 0.7410 0.7410
13.051000 0.7410 0.7410 0.7400 0.7390 0.7370
13.079181 0.7370 0.7370 0.7370 0.7370 0.7360
13.107000 0.7340 0.7330 0.7290 0.7240 0.7190
13.135181 0.7100 0.7000 0.6890 0.6750 0.6640
13.163000 0.6510 0.6370 0.6240 0.6100 0.5960
13.191181 0.5830 0.5690 0.5550 0.5510 0.5500
13.220000 0.5480 0.5480 0.5480 0.5500 0.5500
13.248181 0.5550 0.5650 0.5780 0.5900 0.6050
13.276000 0.6160 0.6240 0.6310 0.6370 0.6380
13.304181 0.6400 0.6410 0.6410 0.6410 0.6410
13.332000 0.6410 0.6410 0.6410 0.6410 0.6340
13.360181 0.6120 0.5900 0.5760 0.5620 0.5550
13.389000 0.5480 0.5450 0.5440 0.5430 0.5440
13.417181 0.5540 0.5640 0.5830 0.6020 0.6190
13.445000 0.6340 0.6480 0.6620 0.6750 0.6880
13.473181 0.6990 0.7100 0.7200 0.7300 0.7400
13.501000 0.7480 0.7570 0.7650 0.7680 0.7710
13.529181 0.7720 0.7740 0.7750 0.7770 0.7780
13.558000 0.7780 0.7780 0.7780 0.7780 0.7770
13.586181 0.7750 0.7720 0.7710 0.7630 0.7570
13.614000 0.7530 0.7510 0.7500 0.7500 0.7480
13.642181 0.7470 0.7470 0.7430 0.7410 0.7410
13.670000 0.7430 0.7440 0.7440 0.7470 0.7510
13.698181 0.7540 0.7670 0.7750 0.7850 0.7890
13.727000 0.7890 0.7950 0.8060 0.8130 0.8150
13.755181 0.8150 0.8150 0.8160 0.8160 0.8160
13.783000 0.8160 0.8150 0.8150 0.8150 0.8150
13.811181 0.8160 0.8200 0.8230 0.8290 0.8340
13.839000 0.8400 0.8440 0.8470 0.8490 0.8490
13.867181 0.8490 0.8490 0.8490 0.8490 0.8490
13.896000 0.8490 0.8500 0.8510 0.8510 0.8530
13.924181 0.8530 0.8540 0.8560 0.8560 0.8560
13.952000 0.8560 0.8560 0.8560 0.8570 0.8580
13.980181 0.8580 0.8580 0.8580 0.8580 0.8580
14.008000 0.8580 0.8600 0.8600 0.8610 0.8630
14.036181 0.8640 0.8660 0.8660 0.8660 0.8670
14.065000 0.8670 0.8660 0.8660 0.8660 0.8660
14.093181 0.8670 0.8670 0.8680 0.8680 0.8680
14.121000 0.8710 0.8730 0.8740 0.8750 0.8750
14.149181 0.8770 0.8780 0.8800 0.8800 0.8800
14.177000 0.8800 0.8800 0.8800 0.8800 0.8800
14.205181 0.8800 0.8800 0.8800 0.8780 0.8780
14.234000 0.8770 0.8770 0.8770 0.8750 0.8750
14.262181 0.8740 0.8740 0.8730 0.8730 0.8730
14.290000 0.8730 0.8730 0.8710 0.8710 0.8710
14.318181 0.8710 0.8710 0.8700 0.8710 0.8710
14.346000 0.8710 0.8710 0.8710 0.8700 0.8700
14.374181 0.8700 0.8700 0.8680 0.8680 0.8680
14.403000 0.8680 0.8680 0.8700 0.8710 0.8710
14.431181 0.8710 0.8710 0.8710 0.8710 0.8710
14.459000 0.8710 0.8710 0.8710 0.8700 0.8700
14.487181 0.8670 0.8660 0.8640 0.8610 0.8610
14.515000 0.8600 0.8600 0.8600 0.8600 0.8600
14.543181 0.8600 0.8580 0.8570 0.8540 0.8530
14.572000 0.8500 0.8500 0.8490 0.8460 0.8440
14.600181 0.8430 0.8400 0.8390 0.8370 0.8340
14.628000 0.8330 0.8300 0.8300 0.8290 0.8260
14.656181 0.8220 0.8180 0.8150 0.8130 0.8110
14.685000 0.8080 0.8050 0.8030 0.8020 0.7980
14.713181 0.7910 0.7840 0.7770 0.7720 0.7700
14.741000 0.7670 0.7630 0.7600 0.7600 0.7570
14.769181 0.7550 0.7550 0.7540 0.7530 0.7510
14.797000 0.7480 0.7480 0.7460 0.7440 0.7430
14.825181 0.7370 0.7320 0.7270 0.7240 0.7220
14.854000 0.7190 0.7150 0.7150 0.7120 0.7090
14.882181 0.7060 0.7050 0.7030 0.7020 0.6990
14.910000 0.6960 0.6930 0.6920 0.6890 0.6880
14.938181 0.6860 0.6850 0.6840 0.6820 0.6810
14.966000 0.6790 0.6790 0.6770 0.6720 0.6650
14.994181 0.6570 0.6480 0.6380 0.6290 0.6200
15.023000 0.6130 0.6090 0.6070 0.6060 0.6060
15.051181 0.6050 0.5990 0.5930 0.5880 0.5830
15.079000 0.5810 0.5790 0.5760 0.5740 0.5710
15.107181 0.5680 0.5640 0.5640 0.5620 0.5610
15.135000 0.5580 0.5570 0.5540 0.5510 0.5480
15.163181 0.5450 0.5430 0.5410 0.5400 0.5370
15.192000 0.5340 0.5300 0.5280 0.5260 0.5240
15.220181 0.5240 0.5230 0.5230 0.5230 0.5230
15.248000 0.5230 0.5230 0.5230 0.5230 0.5230
15.276181 0.5240 0.5260 0.5270 0.5270 0.5280
15.304000 0.5300 0.5310 0.5310 0.5330 0.5330
15.332181 0.5330 0.5340 0.5340
##END=
