##TITLE=DIETHYL 1,1'-FERROCENE DICARBAMATE
##JCAMP-DX=4.24
##DATA TYPE=INFRARED SPECTRUM
##CLASS=COBLENTZ
##ORIGIN=WYANDOTTE CHEMICALS CORP., WYANDOTTE, MICHIGAN, USA
##OWNER=COBLENTZ SOCIETY
Collection (C) 2018 copyright by the U.S. Secretary of Commerce
on behalf of the United States of America. All rights reserved.
##DATE=Not specified, most likely prior to 1970
##MOLFORM=C16 H20 Fe N2 O4
##MP=119.5-120 C
##SOURCE REFERENCE=COBLENTZ NO. 3016
##$NIST ID=B6003016
##$NIST SOURCE=COBLENTZ
##$NIST IMAGE=cob3016
##SPECTROMETER/DATA SYSTEM=Not specified, most likely a prism, grating, or hybrid spectrometer.
##STATE=SOLID (MINERAL OIL MULL)
##PATH LENGTH=
$$SPECTRAL CONTAMINATION DUE TO OIL AROUND 2900 CM^-^1
##SAMPLING PROCEDURE=TRANSMISSION
##RESOLUTION=4
##DATA PROCESSING=DIGITIZED BY NIST FROM HARD COPY
##XUNITS=MICROMETERS
##YUNITS=TRANSMITTANCE
##XFACTOR=1.000000
##YFACTOR=1
##DELTAX=000.006813
##FIRSTX=2.007
##LASTX=15.9866
##FIRSTY=0.805
##MAXX=15.9866
##MINX=2.007
##MAXY=0.9
##MINY=0.034
##NPOINTS=2053
##XYDATA=(X++(Y..Y))
2.007000 0.8050 0.8050 0.8050 0.8060 0.8060
2.041080 0.8060 0.8060 0.8080 0.8100 0.8110
2.075000 0.8130 0.8150 0.8180 0.8180 0.8170
2.109080 0.8150 0.8150 0.8150 0.8150 0.8150
2.143000 0.8150 0.8130 0.8110 0.8100 0.8030
2.177080 0.8000 0.7980 0.7890 0.7860 0.7840
2.211000 0.7820 0.7820 0.7890 0.7960 0.8000
2.245080 0.8030 0.8050 0.8060 0.8100 0.8100
2.279000 0.8100 0.8110 0.8110 0.8100 0.8060
2.313080 0.8050 0.8010 0.8000 0.8010 0.8030
2.347000 0.8060 0.8100 0.8130 0.8150 0.8150
2.381080 0.8170 0.8200 0.8230 0.8230 0.8230
2.416000 0.8220 0.8220 0.8220 0.8220 0.8220
2.450080 0.8220 0.8220 0.8180 0.8130 0.8110
2.484000 0.8130 0.8180 0.8220 0.8250 0.8300
2.518080 0.8370 0.8390 0.8410 0.8410 0.8410
2.552000 0.8410 0.8420 0.8440 0.8410 0.8290
2.586080 0.8290 0.8320 0.8420 0.8470 0.8490
2.620000 0.8510 0.8520 0.8540 0.8540 0.8540
2.654080 0.8540 0.8520 0.8520 0.8540 0.8540
2.688000 0.8560 0.8560 0.8560 0.8560 0.8560
2.722080 0.8580 0.8580 0.8590 0.8610 0.8590
2.756000 0.8590 0.8580 0.8560 0.8560 0.8560
2.790080 0.8560 0.8540 0.8520 0.8540 0.8540
2.824000 0.8520 0.8470 0.8420 0.8320 0.8300
2.858080 0.8250 0.8150 0.8010 0.7910 0.7810
2.892000 0.7670 0.7430 0.6970 0.6540 0.5940
2.926080 0.5840 0.5840 0.6170 0.6710 0.7240
2.961000 0.7500 0.7500 0.7120 0.6990 0.6950
2.995080 0.6110 0.5550 0.5090 0.3960 0.3170
3.029000 0.2000 0.1770 0.1930 0.3450 0.4460
3.063080 0.5430 0.5980 0.6320 0.6410 0.6540
3.097000 0.6820 0.7120 0.7230 0.7240 0.7260
3.131080 0.7290 0.7360 0.7530 0.7690 0.7580
3.165000 0.7260 0.7230 0.7210 0.7190 0.7040
3.199080 0.6820 0.6680 0.6490 0.6320 0.6300
3.233000 0.6350 0.6610 0.7120 0.7280 0.7280
3.267080 0.7230 0.7050 0.6950 0.6800 0.6580
3.301000 0.6220 0.5700 0.4950 0.4150 0.3410
3.335080 0.2630 0.2030 0.1690 0.1380 0.0990
3.369000 0.0750 0.0610 0.0540 0.0510 0.0490
3.403080 0.0490 0.0510 0.0590 0.0700 0.0880
3.437000 0.1110 0.1290 0.1480 0.1600 0.1700
3.471080 0.1740 0.1720 0.1580 0.1580 0.1650
3.506000 0.2030 0.2490 0.3070 0.4560 0.5550
3.540080 0.6410 0.6850 0.7000 0.7050 0.7190
3.574000 0.7410 0.7550 0.7650 0.7700 0.7740
3.608080 0.7760 0.7760 0.7760 0.7770 0.7790
3.642000 0.7790 0.7810 0.7810 0.7790 0.7770
3.676080 0.7790 0.7840 0.7960 0.8010 0.8100
3.710000 0.8110 0.8110 0.8130 0.8150 0.8180
3.744080 0.8200 0.8200 0.8180 0.8180 0.8170
3.778000 0.8170 0.8170 0.8170 0.8200 0.8230
3.812080 0.8230 0.8250 0.8290 0.8300 0.8320
3.846000 0.8300 0.8320 0.8340 0.8370 0.8340
3.880080 0.8350 0.8370 0.8370 0.8390 0.8420
3.914000 0.8420 0.8470 0.8510 0.8520 0.8580
3.948080 0.8590 0.8610 0.8630 0.8630 0.8640
3.982000 0.8660 0.8680 0.8660 0.8630 0.8630
4.016080 0.8610 0.8610 0.8610 0.8630 0.8640
4.051000 0.8640 0.8630 0.8630 0.8630 0.8640
4.085080 0.8660 0.8660 0.8630 0.8630 0.8630
4.119000 0.8630 0.8660 0.8660 0.8660 0.8640
4.153080 0.8640 0.8680 0.8660 0.8660 0.8630
4.187000 0.8610 0.8640 0.8700 0.8660 0.8640
4.221080 0.8630 0.8640 0.8640 0.8630 0.8590
4.255000 0.8560 0.8560 0.8560 0.8560 0.8560
4.289080 0.8580 0.8630 0.8660 0.8660 0.8680
4.323000 0.8680 0.8700 0.8700 0.8710 0.8750
4.357080 0.8800 0.8830 0.8830 0.8820 0.8820
4.391000 0.8800 0.8750 0.8710 0.8680 0.8660
4.425080 0.8660 0.8660 0.8660 0.8680 0.8680
4.459000 0.8680 0.8680 0.8660 0.8660 0.8710
4.493080 0.8730 0.8730 0.8730 0.8730 0.8730
4.527000 0.8730 0.8730 0.8730 0.8730 0.8730
4.561080 0.8730 0.8730 0.8730 0.8750 0.8750
4.596000 0.8750 0.8730 0.8730 0.8730 0.8730
4.630080 0.8730 0.8760 0.8780 0.8800 0.8820
4.664000 0.8820 0.8830 0.8830 0.8830 0.8870
4.698080 0.8880 0.8880 0.8880 0.8900 0.8920
4.732000 0.8920 0.8920 0.8940 0.8940 0.8950
4.766080 0.8940 0.8950 0.8950 0.8950 0.8950
4.800000 0.8970 0.8970 0.8950 0.8950 0.8950
4.834080 0.8950 0.8950 0.8950 0.8970 0.8970
4.868000 0.8970 0.8970 0.9000 0.8970 0.8970
4.902080 0.8970 0.8990 0.8990 0.8990 0.8970
4.936000 0.8970 0.9000 0.9000 0.9000 0.9000
4.970080 0.9000 0.9000 0.9000 0.8990 0.8990
5.004000 0.8990 0.8990 0.8990 0.8990 0.8970
5.038080 0.8950 0.8940 0.8940 0.8900 0.8870
5.073000 0.8880 0.8900 0.8940 0.8950 0.8940
5.107080 0.8940 0.8920 0.8880 0.8880 0.8880
5.141000 0.8870 0.8870 0.8880 0.8880 0.8920
5.175080 0.8940 0.8940 0.8950 0.8950 0.8970
5.209000 0.8970 0.8990 0.8990 0.8990 0.8990
5.243080 0.8990 0.8990 0.8990 0.8990 0.8970
5.277000 0.8970 0.8950 0.8940 0.8920 0.8900
5.311080 0.8900 0.8880 0.8870 0.8850 0.8830
5.345000 0.8800 0.8780 0.8750 0.8730 0.8730
5.379080 0.8730 0.8730 0.8750 0.8750 0.8750
5.413000 0.8730 0.8710 0.8730 0.8730 0.8710
5.447080 0.8700 0.8680 0.8660 0.8660 0.8660
5.481000 0.8660 0.8660 0.8680 0.8680 0.8700
5.515080 0.8700 0.8680 0.8660 0.8680 0.8680
5.549000 0.8640 0.8580 0.8580 0.8560 0.8540
5.583080 0.8510 0.8420 0.8340 0.8290 0.8250
5.618000 0.8230 0.8180 0.8130 0.8060 0.8010
5.652080 0.7980 0.7890 0.7820 0.7700 0.7620
5.686000 0.7480 0.7290 0.7070 0.6830 0.6490
5.720080 0.6050 0.5430 0.4660 0.4050 0.3290
5.754000 0.2390 0.1230 0.0920 0.0920 0.1230
5.788080 0.2390 0.2990 0.4030 0.4370 0.4630
5.822000 0.4940 0.5000 0.5000 0.4940 0.4700
5.856080 0.4440 0.4110 0.3930 0.3620 0.3330
5.890000 0.2780 0.2250 0.1620 0.1230 0.0820
5.924080 0.0660 0.0660 0.0730 0.1210 0.1690
5.958000 0.2220 0.2830 0.3470 0.4170 0.4880
5.992080 0.5430 0.5860 0.5980 0.6050 0.6100
6.026000 0.6010 0.6100 0.6130 0.6230 0.6340
6.060080 0.6440 0.6540 0.6640 0.6710 0.6780
6.094000 0.6820 0.6830 0.6850 0.6850 0.6850
6.128080 0.6870 0.6880 0.6920 0.6920 0.6940
6.163000 0.6940 0.6920 0.6880 0.6820 0.6750
6.197080 0.6640 0.6490 0.6320 0.6110 0.5880
6.231000 0.5640 0.5360 0.5070 0.4760 0.4410
6.265080 0.4050 0.3720 0.3470 0.3240 0.3070
6.299000 0.2920 0.2760 0.2560 0.2320 0.2000
6.333080 0.1760 0.1500 0.1230 0.1020 0.0850
6.367000 0.0750 0.0700 0.0680 0.0660 0.0640
6.401080 0.0630 0.0560 0.0490 0.0440 0.0420
6.435000 0.0410 0.0410 0.0410 0.0440 0.0580
6.469080 0.0760 0.0990 0.1240 0.1530 0.1820
6.503000 0.2100 0.2390 0.2640 0.2870 0.3210
6.537080 0.3640 0.4010 0.4420 0.4820 0.5170
6.571000 0.5360 0.5550 0.5700 0.5910 0.6030
6.605080 0.6180 0.6340 0.6490 0.6580 0.6590
6.639000 0.6590 0.6540 0.6420 0.6250 0.6050
6.673080 0.5740 0.5430 0.5020 0.4490 0.3790
6.708000 0.3620 0.3620 0.3700 0.3980 0.4100
6.742080 0.4110 0.4100 0.4060 0.3960 0.3810
6.776000 0.3580 0.3410 0.3290 0.3160 0.3020
6.810080 0.2970 0.2920 0.2900 0.2920 0.2920
6.844000 0.3000 0.3040 0.3120 0.3210 0.3290
6.878080 0.3310 0.3360 0.3450 0.3580 0.3760
6.912000 0.3980 0.4230 0.4510 0.4780 0.5090
6.946080 0.5400 0.5720 0.6010 0.6200 0.6370
6.980000 0.6490 0.6590 0.6680 0.6750 0.6760
7.014080 0.6780 0.6800 0.6830 0.6870 0.6880
7.048000 0.6880 0.6880 0.6880 0.6870 0.6820
7.082080 0.6680 0.6560 0.6490 0.6300 0.6080
7.116000 0.5910 0.5770 0.5600 0.5360 0.5110
7.150080 0.4800 0.4470 0.4100 0.3690 0.3240
7.184000 0.2950 0.2680 0.2300 0.2050 0.1860
7.218080 0.1770 0.1600 0.1500 0.1480 0.1520
7.253000 0.1820 0.2200 0.2630 0.2940 0.3170
7.287080 0.3310 0.3400 0.3430 0.3520 0.3700
7.321000 0.3940 0.4350 0.4610 0.4920 0.4990
7.355080 0.4990 0.4830 0.4290 0.3820 0.3310
7.389000 0.2870 0.2410 0.1960 0.1760 0.1690
7.423080 0.1720 0.2320 0.3050 0.3640 0.4110
7.457000 0.4490 0.4800 0.5070 0.5310 0.5570
7.491080 0.5840 0.5930 0.5980 0.6000 0.6010
7.525000 0.6010 0.6030 0.6030 0.6060 0.6220
7.559080 0.6290 0.6180 0.5880 0.5790 0.5880
7.593000 0.5810 0.5740 0.5690 0.5670 0.5640
7.627080 0.5580 0.5520 0.5410 0.5230 0.5050
7.661000 0.4990 0.4880 0.4820 0.4780 0.4780
7.695080 0.4760 0.4780 0.4800 0.4820 0.4820
7.729000 0.4820 0.4820 0.4800 0.4800 0.4800
7.763080 0.4780 0.4730 0.4680 0.4590 0.4490
7.798000 0.4350 0.4150 0.3890 0.3720 0.3450
7.832080 0.3280 0.3070 0.2850 0.2610 0.2470
7.866000 0.2220 0.1960 0.1720 0.1520 0.1310
7.900080 0.1110 0.0920 0.0730 0.0540 0.0440
7.934000 0.0370 0.0340 0.0390 0.0420 0.0460
7.968080 0.0510 0.0630 0.0730 0.0870 0.0940
8.002000 0.0920 0.0900 0.0870 0.0870 0.0880
8.036080 0.0970 0.1050 0.1120 0.1210 0.1310
8.070000 0.1310 0.1280 0.1190 0.1090 0.1090
8.104080 0.1140 0.1470 0.1770 0.2170 0.2610
8.138000 0.3070 0.3640 0.4130 0.4580 0.4920
8.172080 0.5110 0.5290 0.5450 0.5760 0.5790
8.206000 0.5790 0.5760 0.5550 0.5310 0.5040
8.240080 0.4760 0.4440 0.4100 0.3740 0.3350
8.274000 0.2920 0.2560 0.2250 0.1980 0.1770
8.308080 0.1600 0.1310 0.1070 0.0950 0.0920
8.343000 0.0920 0.0950 0.1090 0.1350 0.1790
8.377080 0.2460 0.3090 0.3600 0.4030 0.4390
8.411000 0.4680 0.4920 0.5140 0.5330 0.5520
8.445080 0.5650 0.5810 0.5890 0.5980 0.6000
8.479000 0.6010 0.6030 0.6030 0.6030 0.6030
8.513080 0.6030 0.6010 0.5980 0.5940 0.5940
8.547000 0.5940 0.5960 0.5980 0.6030 0.6100
8.581080 0.6180 0.6320 0.6460 0.6590 0.6630
8.615000 0.6660 0.6710 0.6750 0.6800 0.6830
8.649080 0.6900 0.6970 0.7020 0.7090 0.7110
8.683000 0.7120 0.7160 0.7190 0.7230 0.7260
8.717080 0.7290 0.7350 0.7430 0.7500 0.7530
8.751000 0.7570 0.7580 0.7600 0.7580 0.7580
8.785080 0.7580 0.7580 0.7600 0.7640 0.7620
8.819000 0.7620 0.7620 0.7620 0.7600 0.7580
8.853080 0.7550 0.7530 0.7520 0.7470 0.7360
8.888000 0.7260 0.7190 0.7070 0.7000 0.6950
8.922080 0.6850 0.6700 0.6520 0.6370 0.6290
8.956000 0.6200 0.6180 0.6220 0.6270 0.6340
8.990080 0.6370 0.6460 0.6510 0.6510 0.6490
9.024000 0.6460 0.6350 0.6220 0.6030 0.5820
9.058080 0.5620 0.5400 0.5210 0.5020 0.4680
9.092000 0.4410 0.4200 0.4060 0.4000 0.4000
9.126080 0.3980 0.3930 0.3910 0.3840 0.3740
9.160000 0.3530 0.3330 0.3110 0.2970 0.2870
9.194080 0.2660 0.2410 0.2100 0.1810 0.1530
9.228000 0.1290 0.1120 0.1040 0.0990 0.0940
9.262080 0.0920 0.0920 0.0940 0.1000 0.1120
9.296000 0.1280 0.1470 0.1700 0.1960 0.2250
9.330080 0.2610 0.2970 0.3400 0.3700 0.3930
9.364000 0.4150 0.4270 0.4350 0.4390 0.4410
9.398080 0.4390 0.4350 0.4350 0.4370 0.4410
9.433000 0.4460 0.4490 0.4490 0.4340 0.3960
9.467080 0.3650 0.3410 0.3170 0.3140 0.3140
9.501000 0.3410 0.3960 0.4300 0.4470 0.4510
9.535080 0.4510 0.4520 0.4540 0.4610 0.4800
9.569000 0.5050 0.5310 0.5530 0.5760 0.5810
9.603080 0.5810 0.5760 0.5640 0.5410 0.5160
9.637000 0.4950 0.4730 0.4520 0.4320 0.4110
9.671080 0.3980 0.3810 0.3790 0.3810 0.3840
9.705000 0.3980 0.4110 0.4270 0.4340 0.4350
9.739080 0.4370 0.4390 0.4390 0.4350 0.4180
9.773000 0.3960 0.3690 0.3500 0.3350 0.3000
9.807080 0.2990 0.3000 0.3290 0.3600 0.4000
9.841000 0.4440 0.4850 0.5140 0.5430 0.5670
9.875080 0.5880 0.6060 0.6220 0.6350 0.6470
9.909000 0.6590 0.6700 0.6780 0.6870 0.6950
9.943080 0.6990 0.7020 0.7110 0.7160 0.7170
9.978000 0.7160 0.7170 0.7210 0.7280 0.7310
10.012080 0.7350 0.7380 0.7400 0.7400 0.7410
10.046000 0.7430 0.7430 0.7450 0.7470 0.7470
10.080080 0.7480 0.7480 0.7480 0.7480 0.7480
10.114000 0.7500 0.7500 0.7500 0.7520 0.7570
10.148080 0.7570 0.7520 0.7480 0.7470 0.7470
10.182000 0.7480 0.7480 0.7500 0.7500 0.7500
10.216080 0.7520 0.7530 0.7520 0.7550 0.7550
10.250000 0.7570 0.7580 0.7580 0.7580 0.7580
10.284080 0.7570 0.7570 0.7580 0.7580 0.7580
10.318000 0.7600 0.7600 0.7600 0.7600 0.7600
10.352080 0.7600 0.7620 0.7620 0.7620 0.7620
10.386000 0.7620 0.7620 0.7620 0.7620 0.7620
10.420080 0.7620 0.7600 0.7600 0.7600 0.7600
10.455000 0.7600 0.7600 0.7600 0.7600 0.7580
10.489080 0.7570 0.7520 0.7530 0.7530 0.7520
10.523000 0.7500 0.7480 0.7470 0.7410 0.7380
10.557080 0.7360 0.7330 0.7280 0.7230 0.7140
10.591000 0.7020 0.6870 0.6710 0.6520 0.6300
10.625080 0.6080 0.5820 0.5550 0.5280 0.4880
10.659000 0.4520 0.4170 0.3910 0.3600 0.3500
10.693080 0.3430 0.3350 0.3310 0.3330 0.3520
10.727000 0.3690 0.3840 0.4030 0.4230 0.4460
10.761080 0.4710 0.4970 0.5230 0.5500 0.5760
10.795000 0.6010 0.6230 0.6460 0.6640 0.6800
10.829080 0.6900 0.7000 0.7050 0.7110 0.7140
10.863000 0.7160 0.7170 0.7190 0.7230 0.7240
10.897080 0.7280 0.7330 0.7380 0.7410 0.7450
10.931000 0.7480 0.7500 0.7500 0.7520 0.7520
10.965080 0.7530 0.7530 0.7530 0.7550 0.7550
11.000000 0.7570 0.7570 0.7580 0.7580 0.7580
11.034080 0.7580 0.7580 0.7580 0.7600 0.7620
11.068000 0.7600 0.7600 0.7600 0.7580 0.7580
11.102080 0.7580 0.7570 0.7520 0.7500 0.7470
11.136000 0.7430 0.7400 0.7330 0.7210 0.7090
11.170080 0.7000 0.6900 0.6800 0.6700 0.6560
11.204000 0.6420 0.6230 0.6130 0.6010 0.5960
11.238080 0.5910 0.5820 0.5760 0.5700 0.5690
11.272000 0.5670 0.5690 0.5700 0.5720 0.5790
11.306080 0.5930 0.6030 0.6130 0.6230 0.6300
11.340000 0.6370 0.6460 0.6540 0.6630 0.6750
11.374080 0.6850 0.6990 0.7050 0.7170 0.7290
11.408000 0.7310 0.7330 0.7350 0.7380 0.7400
11.442080 0.7430 0.7470 0.7470 0.7500 0.7550
11.476000 0.7570 0.7580 0.7580 0.7580 0.7600
11.510080 0.7600 0.7620 0.7620 0.7620 0.7620
11.545000 0.7600 0.7570 0.7520 0.7500 0.7480
11.579080 0.7480 0.7480 0.7470 0.7430 0.7400
11.613000 0.7410 0.7410 0.7400 0.7360 0.7360
11.647080 0.7360 0.7290 0.7240 0.7170 0.7120
11.681000 0.7070 0.7000 0.6900 0.6800 0.6640
11.715080 0.6520 0.6440 0.6320 0.6180 0.6050
11.749000 0.5890 0.5740 0.5690 0.5650 0.5640
11.783080 0.5650 0.5720 0.5810 0.6080 0.6220
11.817000 0.6320 0.6460 0.6630 0.6760 0.6880
11.851080 0.6990 0.7090 0.7170 0.7210 0.7280
11.885000 0.7330 0.7360 0.7410 0.7470 0.7520
11.919080 0.7530 0.7500 0.7450 0.7380 0.7360
11.953000 0.7290 0.7240 0.7170 0.7120 0.7070
11.987080 0.7000 0.6990 0.7040 0.7160 0.7210
12.021000 0.7240 0.7570 0.7650 0.7410 0.7410
12.055080 0.7450 0.7470 0.7520 0.7520 0.7530
12.090000 0.7530 0.7500 0.7500 0.7500 0.7500
12.124080 0.7500 0.7500 0.7500 0.7500 0.7520
12.158000 0.7570 0.7580 0.7600 0.7600 0.7600
12.192080 0.7600 0.7600 0.7620 0.7620 0.7620
12.226000 0.7600 0.7600 0.7570 0.7520 0.7480
12.260080 0.7470 0.7410 0.7400 0.7380 0.7330
12.294000 0.7280 0.7190 0.7050 0.6990 0.6900
12.328080 0.6800 0.6610 0.6420 0.6200 0.6000
12.362000 0.5700 0.5400 0.5090 0.4730 0.4460
12.396080 0.4180 0.3890 0.3690 0.3580 0.3550
12.430000 0.3550 0.3700 0.4080 0.4340 0.4590
12.464080 0.4920 0.4990 0.4990 0.4990 0.4870
12.498000 0.4680 0.4510 0.4320 0.4170 0.4000
12.532080 0.3980 0.4000 0.4180 0.4470 0.4710
12.566000 0.4990 0.5240 0.5530 0.5790 0.6050
12.600080 0.6250 0.6420 0.6540 0.6660 0.6850
12.635000 0.6990 0.7090 0.7140 0.7170 0.7230
12.669080 0.7310 0.7400 0.7430 0.7470 0.7520
12.703000 0.7570 0.7580 0.7580 0.7580 0.7580
12.737080 0.7570 0.7550 0.7530 0.7530 0.7520
12.771000 0.7550 0.7530 0.7500 0.7470 0.7400
12.805080 0.7360 0.7310 0.7240 0.7170 0.7070
12.839000 0.6970 0.6870 0.6750 0.6610 0.6460
12.873080 0.6300 0.6170 0.6050 0.6000 0.5910
12.907000 0.5820 0.5770 0.5740 0.5700 0.5700
12.941080 0.5740 0.5790 0.5860 0.5940 0.5980
12.975000 0.5980 0.6000 0.6030 0.6030 0.6010
13.009080 0.5960 0.5910 0.5840 0.5760 0.5690
13.043000 0.5600 0.5500 0.5360 0.5160 0.4970
13.077080 0.4820 0.4680 0.4630 0.4580 0.4520
13.111000 0.4470 0.4420 0.4440 0.4490 0.4590
13.145080 0.4730 0.4940 0.5140 0.5290 0.5430
13.180000 0.5580 0.5860 0.6000 0.6200 0.6340
13.214080 0.6370 0.6420 0.6520 0.6630 0.6700
13.248000 0.6800 0.6870 0.6970 0.6990 0.7000
13.282080 0.7020 0.7070 0.7140 0.7160 0.7190
13.316000 0.7230 0.7260 0.7280 0.7290 0.7330
13.350080 0.7360 0.7360 0.7360 0.7360 0.7360
13.384000 0.7350 0.7350 0.7380 0.7410 0.7430
13.418080 0.7410 0.7410 0.7410 0.7410 0.7410
13.452000 0.7410 0.7410 0.7410 0.7410 0.7400
13.486080 0.7400 0.7400 0.7380 0.7380 0.7380
13.520000 0.7380 0.7400 0.7400 0.7410 0.7410
13.554080 0.7430 0.7450 0.7470 0.7470 0.7470
13.588000 0.7480 0.7480 0.7500 0.7520 0.7520
13.622080 0.7500 0.7520 0.7530 0.7550 0.7550
13.656000 0.7550 0.7550 0.7570 0.7580 0.7620
13.690080 0.7640 0.7640 0.7640 0.7640 0.7650
13.725000 0.7650 0.7670 0.7670 0.7670 0.7670
13.759080 0.7670 0.7670 0.7650 0.7670 0.7690
13.793000 0.7700 0.7700 0.7670 0.7670 0.7670
13.827080 0.7650 0.7650 0.7650 0.7640 0.7640
13.861000 0.7670 0.7690 0.7700 0.7700 0.7700
13.895080 0.7700 0.7690 0.7690 0.7670 0.7670
13.929000 0.7670 0.7670 0.7670 0.7670 0.7670
13.963080 0.7670 0.7690 0.7690 0.7690 0.7690
13.997000 0.7700 0.7700 0.7700 0.7690 0.7690
14.031080 0.7670 0.7650 0.7600 0.7570 0.7520
14.065000 0.7480 0.7410 0.7380 0.7360 0.7330
14.099080 0.7310 0.7310 0.7280 0.7260 0.7240
14.133000 0.7260 0.7260 0.7280 0.7280 0.7280
14.167080 0.7280 0.7280 0.7260 0.7260 0.7260
14.201000 0.7260 0.7280 0.7280 0.7290 0.7290
14.235080 0.7290 0.7290 0.7290 0.7290 0.7290
14.270000 0.7310 0.7350 0.7380 0.7410 0.7470
14.304080 0.7480 0.7500 0.7520 0.7520 0.7530
14.338000 0.7570 0.7580 0.7620 0.7670 0.7690
14.372080 0.7700 0.7700 0.7700 0.7690 0.7690
14.406000 0.7700 0.7700 0.7720 0.7720 0.7720
14.440080 0.7700 0.7690 0.7690 0.7690 0.7690
14.474000 0.7690 0.7690 0.7690 0.7700 0.7700
14.508080 0.7700 0.7700 0.7700 0.7690 0.7670
14.542000 0.7650 0.7670 0.7670 0.7670 0.7670
14.576080 0.7650 0.7650 0.7650 0.7640 0.7600
14.610000 0.7570 0.7550 0.7570 0.7570 0.7580
14.644080 0.7580 0.7580 0.7600 0.7580 0.7580
14.678000 0.7570 0.7550 0.7550 0.7530 0.7520
14.712080 0.7500 0.7450 0.7410 0.7400 0.7410
14.746000 0.7410 0.7410 0.7410 0.7400 0.7350
14.780080 0.7310 0.7310 0.7310 0.7280 0.7240
14.815000 0.7210 0.7190 0.7140 0.7140 0.7140
14.849080 0.7140 0.7140 0.7140 0.7140 0.7120
14.883000 0.7110 0.7070 0.7050 0.7040 0.7000
14.917080 0.6990 0.6970 0.6950 0.6920 0.6870
14.951000 0.6820 0.6800 0.6800 0.6780 0.6780
14.985080 0.6760 0.6750 0.6710 0.6660 0.6590
15.019000 0.6520 0.6470 0.6390 0.6350 0.6320
15.053080 0.6300 0.6290 0.6270 0.6220 0.6200
15.087000 0.6170 0.6110 0.6080 0.6060 0.6010
15.121080 0.6000 0.5980 0.5960 0.5960 0.5960
15.155000 0.5960 0.5960 0.5940 0.5940 0.5940
15.189080 0.5980 0.6010 0.6060 0.6080 0.6080
15.223000 0.6100 0.6100 0.6110 0.6110 0.6110
15.257080 0.6110 0.6110 0.6130 0.6150 0.6170
15.291000 0.6150 0.6170 0.6170 0.6180 0.6180
15.325080 0.6180 0.6200 0.6200 0.6200 0.6200
15.360000 0.6200 0.6200 0.6220 0.6230 0.6250
15.394080 0.6270 0.6270 0.6270 0.6270 0.6270
15.428000 0.6300 0.6300 0.6290 0.6290 0.6290
15.462080 0.6290 0.6290 0.6290 0.6290 0.6290
15.496000 0.6300 0.6300 0.6300 0.6300 0.6320
15.530080 0.6350 0.6390 0.6410 0.6420 0.6440
15.564000 0.6440 0.6440 0.6440 0.6460 0.6460
15.598080 0.6460 0.6470 0.6470 0.6470 0.6470
15.632000 0.6470 0.6470 0.6490 0.6490 0.6490
15.666080 0.6510 0.6520 0.6520 0.6520 0.6520
15.700000 0.6520 0.6520 0.6520 0.6520 0.6520
15.734080 0.6520 0.6540 0.6540 0.6540 0.6560
15.768000 0.6580 0.6580 0.6590 0.6610 0.6610
15.802080 0.6610 0.6610 0.6610 0.6610 0.6610
15.836000 0.6610 0.6610 0.6590 0.6560 0.6540
15.870080 0.6540 0.6540 0.6520 0.6520 0.6510
15.905000 0.6470 0.6470 0.6470 0.6470 0.6470
15.939080 0.6420 0.6410 0.6410 0.6410 0.6410
15.973000 0.6410 0.6410 0.6410
##END=
