##TITLE=5-HYDROXY-[2,2'-AZO-1,3,4-THIADIAZOLE]-5'-SULFONIC ACID, DIPOTASSIUM SALT
##JCAMP-DX=4.24
##DATA TYPE=INFRARED SPECTRUM
##CLASS=COBLENTZ
##ORIGIN=NORBERT PETRI
##OWNER=COBLENTZ SOCIETY
Collection (C) 2018 copyright by the U.S. Secretary of Commerce
on behalf of the United States of America. All rights reserved.
##DATE=Not specified, most likely prior to 1970
##MOLFORM=C4 N6 O4 S3 K2
##SOURCE REFERENCE=COBLENTZ NO. 3635
##$NIST ID=B6003635
##$NIST SOURCE=COBLENTZ
##$NIST IMAGE=cob3635
##SPECTROMETER/DATA SYSTEM=Not specified, most likely a prism, grating, or hybrid spectrometer.
##STATE=SOLID (KBr PELLET)
##SAMPLING PROCEDURE=TRANSMISSION
##RESOLUTION=4
##DATA PROCESSING=DIGITIZED BY NIST FROM HARD COPY
##XUNITS=MICROMETERS
##YUNITS=TRANSMITTANCE
##XFACTOR=1.000000
##YFACTOR=1
##DELTAX=000.006013
##FIRSTX=2.012
##LASTX=15.4091
##FIRSTY=0.196
##MAXX=15.4091
##MINX=2.012
##MAXY=0.831
##MINY=0.104
##NPOINTS=2229
##XYDATA=(X++(Y..Y))
2.012000 0.1960 0.1950 0.1950 0.1930 0.1910
2.042078 0.1910 0.1940 0.1950 0.1960 0.1960
2.072000 0.1990 0.2000 0.2010 0.2070 0.2100
2.102078 0.2110 0.2110 0.2110 0.2110 0.2110
2.132000 0.2110 0.2170 0.2230 0.2230 0.2240
2.162078 0.2240 0.2240 0.2280 0.2300 0.2320
2.192000 0.2330 0.2330 0.2350 0.2350 0.2360
2.222078 0.2390 0.2430 0.2450 0.2460 0.2490
2.253000 0.2500 0.2510 0.2520 0.2530 0.2550
2.283078 0.2550 0.2560 0.2570 0.2570 0.2600
2.313000 0.2610 0.2610 0.2620 0.2640 0.2680
2.343078 0.2680 0.2690 0.2700 0.2700 0.2700
2.373000 0.2700 0.2720 0.2720 0.2770 0.2770
2.403078 0.2780 0.2800 0.2800 0.2800 0.2810
2.433000 0.2810 0.2830 0.2840 0.2920 0.2950
2.463078 0.2950 0.2960 0.2960 0.2960 0.2970
2.493000 0.2980 0.3000 0.3000 0.3010 0.3020
2.523078 0.3020 0.3020 0.3030 0.3040 0.3070
2.553000 0.3070 0.3130 0.3150 0.3170 0.3190
2.583078 0.3200 0.3200 0.3200 0.3200 0.3200
2.613000 0.3200 0.3210 0.3210 0.3210 0.3210
2.643078 0.3210 0.3230 0.3230 0.3230 0.3230
2.673000 0.3230 0.3200 0.3180 0.3150 0.3140
2.703078 0.3110 0.3040 0.3010 0.3010 0.2920
2.734000 0.2910 0.2860 0.2800 0.2740 0.2700
2.764078 0.2700 0.2670 0.2610 0.2570 0.2560
2.794000 0.2560 0.2550 0.2520 0.2510 0.2510
2.824078 0.2510 0.2510 0.2520 0.2530 0.2530
2.854000 0.2530 0.2550 0.2560 0.2560 0.2580
2.884078 0.2610 0.2630 0.2630 0.2660 0.2730
2.914000 0.2770 0.2840 0.2860 0.2940 0.2970
2.944078 0.3010 0.3060 0.3170 0.3200 0.3200
2.974000 0.3190 0.3190 0.3200 0.3210 0.3210
3.004078 0.3240 0.3250 0.3260 0.3280 0.3290
3.034000 0.3290 0.3300 0.3310 0.3400 0.3410
3.064078 0.3430 0.3540 0.3570 0.3600 0.3630
3.094000 0.3650 0.3680 0.3710 0.3740 0.3750
3.124078 0.3760 0.3770 0.3770 0.3820 0.3830
3.154000 0.3850 0.3870 0.3880 0.3880 0.3880
3.184078 0.3900 0.3900 0.3920 0.3970 0.4000
3.215000 0.4020 0.4080 0.4090 0.4110 0.4130
3.245078 0.4160 0.4170 0.4190 0.4190 0.4190
3.275000 0.4190 0.4190 0.4200 0.4200 0.4210
3.305078 0.4210 0.4210 0.4220 0.4240 0.4250
3.335000 0.4250 0.4250 0.4250 0.4250 0.4260
3.365078 0.4270 0.4300 0.4310 0.4310 0.4310
3.395000 0.4320 0.4410 0.4410 0.4410 0.4420
3.425078 0.4440 0.4450 0.4480 0.4480 0.4490
3.455000 0.4490 0.4520 0.4550 0.4610 0.4620
3.485078 0.4660 0.4700 0.4720 0.4720 0.4710
3.515000 0.4690 0.4690 0.4690 0.4690 0.4700
3.545078 0.4710 0.4720 0.4730 0.4730 0.4730
3.575000 0.4730 0.4770 0.4780 0.4790 0.4810
3.605078 0.4810 0.4820 0.4820 0.4840 0.4860
3.636000 0.4870 0.4880 0.4890 0.4900 0.4890
3.666078 0.4890 0.4880 0.4880 0.4890 0.4920
3.696000 0.4930 0.4940 0.4950 0.4980 0.4980
3.726078 0.4990 0.5010 0.5010 0.5010 0.5030
3.756000 0.5030 0.5030 0.5030 0.5030 0.5030
3.786078 0.5040 0.5040 0.5040 0.5040 0.5040
3.816000 0.5060 0.5060 0.5090 0.5110 0.5110
3.846078 0.5120 0.5120 0.5130 0.5130 0.5150
3.876000 0.5160 0.5200 0.5200 0.5200 0.5200
3.906078 0.5210 0.5210 0.5210 0.5220 0.5230
3.936000 0.5260 0.5280 0.5280 0.5280 0.5280
3.966078 0.5270 0.5260 0.5260 0.5280 0.5290
3.996000 0.5300 0.5320 0.5340 0.5350 0.5370
4.026078 0.5370 0.5370 0.5370 0.5380 0.5390
4.056000 0.5400 0.5400 0.5400 0.5400 0.5400
4.086078 0.5400 0.5410 0.5430 0.5430 0.5430
4.117000 0.5440 0.5450 0.5470 0.5500 0.5510
4.147078 0.5510 0.5510 0.5500 0.5500 0.5500
4.177000 0.5490 0.5490 0.5490 0.5510 0.5520
4.207078 0.5560 0.5560 0.5510 0.5520 0.5570
4.237000 0.5580 0.5620 0.5620 0.5630 0.5650
4.267078 0.5650 0.5660 0.5670 0.5670 0.5670
4.297000 0.5690 0.5690 0.5690 0.5690 0.5690
4.327078 0.5710 0.5720 0.5730 0.5750 0.5780
4.357000 0.5780 0.5780 0.5780 0.5780 0.5790
4.387078 0.5800 0.5800 0.5800 0.5800 0.5800
4.417000 0.5800 0.5800 0.5800 0.5820 0.5840
4.447078 0.5840 0.5850 0.5860 0.5880 0.5860
4.477000 0.5850 0.5850 0.5850 0.5850 0.5860
4.507078 0.5890 0.5900 0.5910 0.5910 0.5920
4.537000 0.5940 0.5940 0.5950 0.5950 0.5950
4.567078 0.5960 0.5970 0.5990 0.6000 0.6010
4.598000 0.6010 0.6000 0.6010 0.6020 0.6050
4.628078 0.6060 0.6070 0.6080 0.6090 0.6130
4.658000 0.6140 0.6140 0.6130 0.6130 0.6140
4.688078 0.6140 0.6180 0.6190 0.6200 0.6180
4.718000 0.6180 0.6200 0.6220 0.6240 0.6250
4.748078 0.6260 0.6250 0.6250 0.6250 0.6250
4.778000 0.6260 0.6260 0.6260 0.6260 0.6260
4.808078 0.6280 0.6290 0.6290 0.6300 0.6300
4.838000 0.6300 0.6310 0.6310 0.6360 0.6360
4.868078 0.6370 0.6370 0.6370 0.6390 0.6390
4.898000 0.6390 0.6410 0.6410 0.6420 0.6410
4.928078 0.6400 0.6390 0.6360 0.6360 0.6360
4.958000 0.6350 0.6340 0.6330 0.6330 0.6340
4.988078 0.6350 0.6360 0.6400 0.6450 0.6470
5.019000 0.6500 0.6500 0.6510 0.6520 0.6530
5.049078 0.6530 0.6560 0.6560 0.6570 0.6590
5.079000 0.6600 0.6600 0.6630 0.6640 0.6650
5.109078 0.6670 0.6680 0.6690 0.6700 0.6710
5.139000 0.6730 0.6740 0.6750 0.6760 0.6790
5.169078 0.6800 0.6800 0.6800 0.6800 0.6810
5.199000 0.6810 0.6810 0.6810 0.6810 0.6810
5.229078 0.6810 0.6810 0.6820 0.6840 0.6850
5.259000 0.6860 0.6900 0.6900 0.6900 0.6900
5.289078 0.6910 0.6910 0.6930 0.6960 0.6960
5.319000 0.6950 0.6930 0.6930 0.6930 0.6930
5.349078 0.6930 0.6950 0.6970 0.6990 0.6990
5.379000 0.6990 0.6980 0.6980 0.6990 0.7010
5.409078 0.7010 0.7020 0.7040 0.7080 0.7090
5.439000 0.7090 0.7100 0.7120 0.7120 0.7120
5.469078 0.7100 0.7090 0.7090 0.7090 0.7100
5.500000 0.7100 0.7120 0.7120 0.7160 0.7190
5.530078 0.7190 0.7190 0.7190 0.7200 0.7240
5.560000 0.7290 0.7290 0.7300 0.7300 0.7320
5.590078 0.7350 0.7350 0.7360 0.7370 0.7370
5.620000 0.7380 0.7390 0.7390 0.7390 0.7390
5.650078 0.7380 0.7380 0.7380 0.7380 0.7370
5.680000 0.7320 0.7310 0.7310 0.7320 0.7320
5.710078 0.7290 0.7290 0.7270 0.7270 0.7290
5.740000 0.7290 0.7300 0.7330 0.7380 0.7390
5.770078 0.7430 0.7460 0.7460 0.7480 0.7490
5.800000 0.7490 0.7500 0.7500 0.7500 0.7490
5.830078 0.7490 0.7490 0.7480 0.7460 0.7420
5.860000 0.7360 0.7300 0.7260 0.7250 0.7180
5.890078 0.7100 0.7030 0.6880 0.6780 0.6700
5.920000 0.6600 0.6510 0.6430 0.6260 0.6120
5.950078 0.6000 0.5690 0.5500 0.5400 0.5260
5.981000 0.5160 0.5100 0.5000 0.4860 0.4600
6.011078 0.4200 0.4070 0.3740 0.3650 0.3620
6.041000 0.3570 0.3490 0.3390 0.3260 0.3120
6.071078 0.3090 0.3060 0.3010 0.3000 0.2960
6.101000 0.2940 0.2940 0.2870 0.2730 0.2580
6.131078 0.2440 0.2390 0.2390 0.2510 0.2870
6.161000 0.3240 0.3650 0.3850 0.4110 0.4220
6.191078 0.4360 0.4440 0.4660 0.4720 0.4810
6.221000 0.4900 0.5000 0.5110 0.5170 0.5230
6.251078 0.5270 0.5320 0.5350 0.5350 0.5370
6.281000 0.5430 0.5600 0.5670 0.5730 0.5750
6.311078 0.5790 0.5820 0.5920 0.5960 0.5960
6.341000 0.5940 0.5960 0.6000 0.6020 0.6090
6.371078 0.6190 0.6250 0.6260 0.6250 0.6260
6.401000 0.6290 0.6290 0.6260 0.6260 0.6260
6.431078 0.6290 0.6390 0.6430 0.6470 0.6510
6.462000 0.6530 0.6570 0.6580 0.6600 0.6620
6.492078 0.6620 0.6630 0.6630 0.6630 0.6630
6.522000 0.6630 0.6640 0.6710 0.6760 0.6800
6.552078 0.6800 0.6780 0.6780 0.6790 0.6820
6.582000 0.6900 0.6910 0.6910 0.6910 0.6910
6.612078 0.6910 0.6920 0.6930 0.6950 0.6950
6.642000 0.6950 0.6960 0.6980 0.6990 0.6990
6.672078 0.7010 0.7020 0.7020 0.7020 0.7030
6.702000 0.7030 0.7050 0.7050 0.7080 0.7080
6.732078 0.7080 0.7070 0.7070 0.7070 0.7070
6.762000 0.7070 0.7080 0.7080 0.7080 0.7080
6.792078 0.7080 0.7090 0.7090 0.7100 0.7130
6.822000 0.7190 0.7190 0.7200 0.7200 0.7200
6.852078 0.7210 0.7220 0.7250 0.7260 0.7250
6.883000 0.7250 0.7240 0.7240 0.7210 0.7210
6.913078 0.7200 0.7190 0.7120 0.7100 0.7090
6.943000 0.7100 0.7140 0.7190 0.7210 0.7220
6.973078 0.7260 0.7290 0.7270 0.7270 0.7250
7.003000 0.7220 0.7210 0.7210 0.7160 0.7010
7.033078 0.6990 0.6960 0.6950 0.6930 0.6930
7.063000 0.6950 0.6990 0.7030 0.7090 0.7090
7.093078 0.7100 0.7120 0.7150 0.7190 0.7190
7.123000 0.7200 0.7210 0.7260 0.7260 0.7250
7.153078 0.7220 0.7210 0.7200 0.7200 0.7200
7.183000 0.7220 0.7250 0.7260 0.7290 0.7320
7.213078 0.7350 0.7360 0.7330 0.7330 0.7360
7.243000 0.7380 0.7380 0.7360 0.7330 0.7300
7.273078 0.7260 0.7240 0.7210 0.7190 0.7140
7.303000 0.7050 0.6980 0.6850 0.6790 0.6740
7.333078 0.6710 0.6700 0.6670 0.6620 0.6480
7.364000 0.6290 0.6050 0.5710 0.5430 0.5100
7.394078 0.4860 0.4760 0.4760 0.4820 0.4990
7.424000 0.5160 0.5460 0.5820 0.6050 0.6220
7.454078 0.6410 0.6590 0.6820 0.6910 0.7040
7.484000 0.7090 0.7180 0.7210 0.7300 0.7310
7.514078 0.7310 0.7310 0.7300 0.7290 0.7270
7.544000 0.7210 0.7160 0.7100 0.7050 0.7030
7.574078 0.6910 0.6800 0.6710 0.6630 0.6520
7.604000 0.6460 0.6080 0.5960 0.5710 0.5450
7.634078 0.5170 0.4890 0.4520 0.4270 0.3990
7.664000 0.3880 0.3740 0.3690 0.3580 0.3580
7.694078 0.3620 0.3860 0.4100 0.4310 0.4530
7.724000 0.4650 0.4780 0.4870 0.4880 0.4960
7.754078 0.4990 0.4990 0.4960 0.4900 0.4710
7.784000 0.4490 0.4260 0.4100 0.3930 0.3850
7.814078 0.3770 0.3760 0.3770 0.3850 0.3920
7.845000 0.4030 0.4070 0.4070 0.3940 0.3630
7.875078 0.3510 0.3280 0.3030 0.2900 0.2810
7.905000 0.2630 0.2460 0.2100 0.1910 0.1840
7.935078 0.1700 0.1610 0.1600 0.1570 0.1600
7.965000 0.1640 0.1700 0.1760 0.1780 0.1760
7.995078 0.1760 0.1710 0.1660 0.1640 0.1560
8.025000 0.1480 0.1480 0.1400 0.1340 0.1320
8.055078 0.1250 0.1220 0.1190 0.1140 0.1090
8.085000 0.1060 0.1040 0.1040 0.1050 0.1100
8.115078 0.1200 0.1260 0.1320 0.1400 0.1490
8.145000 0.1560 0.1700 0.1780 0.1990 0.2240
8.175078 0.2360 0.2500 0.2600 0.2680 0.2720
8.205000 0.2830 0.2920 0.2940 0.2920 0.2900
8.235078 0.2830 0.2770 0.2740 0.2730 0.2740
8.265000 0.2870 0.3030 0.3170 0.3300 0.3530
8.295078 0.3650 0.3710 0.3800 0.3920 0.3990
8.326000 0.4070 0.4170 0.4220 0.4280 0.4330
8.356078 0.4470 0.4520 0.4550 0.4610 0.4670
8.386000 0.4700 0.4710 0.4780 0.4840 0.4900
8.416078 0.4930 0.4990 0.5010 0.5030 0.5050
8.446000 0.5120 0.5150 0.5200 0.5270 0.5280
8.476078 0.5300 0.5320 0.5340 0.5370 0.5390
8.506000 0.5440 0.5470 0.5500 0.5510 0.5520
8.536078 0.5540 0.5550 0.5560 0.5580 0.5620
8.566000 0.5630 0.5710 0.5740 0.5770 0.5790
8.596078 0.5840 0.5880 0.5900 0.5910 0.5920
8.626000 0.5940 0.5950 0.5950 0.6020 0.6060
8.656078 0.6090 0.6120 0.6170 0.6180 0.6180
8.686000 0.6180 0.6190 0.6230 0.6250 0.6260
8.716078 0.6260 0.6290 0.6300 0.6310 0.6310
8.747000 0.6330 0.6360 0.6400 0.6410 0.6420
8.777078 0.6420 0.6430 0.6460 0.6470 0.6500
8.807000 0.6500 0.6560 0.6570 0.6570 0.6570
8.837078 0.6590 0.6640 0.6710 0.6750 0.6800
8.867000 0.6810 0.6850 0.6860 0.6870 0.6900
8.897078 0.6900 0.6880 0.6880 0.6870 0.6800
8.927000 0.6700 0.6630 0.6560 0.6390 0.6020
8.957078 0.5740 0.5370 0.4950 0.4530 0.4200
8.987000 0.4000 0.3850 0.3690 0.3650 0.3650
9.017078 0.3850 0.4030 0.4330 0.4500 0.4790
9.047000 0.4920 0.5170 0.5350 0.5430 0.5570
9.077078 0.5670 0.5710 0.5740 0.5780 0.5800
9.107000 0.5840 0.5880 0.5910 0.5940 0.5970
9.137078 0.6010 0.6050 0.6070 0.6110 0.6140
9.167000 0.6160 0.6180 0.6220 0.6250 0.6290
9.197078 0.6410 0.6540 0.6560 0.6600 0.6640
9.228000 0.6710 0.6760 0.6800 0.6840 0.6850
9.258078 0.6870 0.6880 0.6880 0.6870 0.6840
9.288000 0.6800 0.6780 0.6750 0.6730 0.6710
9.318078 0.6700 0.6690 0.6690 0.6670 0.6670
9.348000 0.6670 0.6650 0.6630 0.6590 0.6570
9.378078 0.6530 0.6510 0.6500 0.6480 0.6460
9.408000 0.6430 0.6420 0.6430 0.6470 0.6500
9.438078 0.6530 0.6570 0.6590 0.6600 0.6650
9.468000 0.6730 0.6780 0.6800 0.6850 0.6860
9.498078 0.6860 0.6850 0.6730 0.6710 0.6690
9.528000 0.6670 0.6670 0.6650 0.6590 0.6430
9.558078 0.6290 0.6190 0.6170 0.5970 0.5830
9.588000 0.5670 0.5540 0.5330 0.4920 0.4690
9.618078 0.4390 0.4090 0.3800 0.3530 0.3410
9.648000 0.3310 0.3200 0.2960 0.2790 0.2510
9.678078 0.2230 0.2050 0.2000 0.1850 0.1720
9.709000 0.1700 0.1670 0.1660 0.1660 0.1700
9.739078 0.1790 0.2000 0.2060 0.2340 0.2610
9.769000 0.2700 0.2840 0.3020 0.3090 0.3170
9.799078 0.3490 0.3620 0.3700 0.3750 0.3860
9.829000 0.3930 0.4000 0.4100 0.4150 0.4210
9.859078 0.4360 0.4370 0.4390 0.4410 0.4420
9.889000 0.4470 0.4500 0.4540 0.4610 0.4620
9.919078 0.4640 0.4670 0.4690 0.4700 0.4710
9.949000 0.4760 0.4810 0.4830 0.4840 0.4880
9.979078 0.4930 0.5000 0.5030 0.5040 0.5060
10.009000 0.5120 0.5220 0.5260 0.5320 0.5350
10.039078 0.5410 0.5460 0.5470 0.5490 0.5510
10.069000 0.5550 0.5560 0.5600 0.5650 0.5660
10.099078 0.5680 0.5720 0.5750 0.5790 0.5790
10.130000 0.5800 0.5800 0.5820 0.5910 0.5950
10.160078 0.5970 0.6000 0.6000 0.6000 0.6020
10.190000 0.6050 0.6060 0.6070 0.6090 0.6090
10.220078 0.6080 0.6080 0.6140 0.6170 0.6220
10.250000 0.6240 0.6250 0.6250 0.6250 0.6260
10.280078 0.6260 0.6260 0.6260 0.6250 0.6250
10.310000 0.6290 0.6330 0.6340 0.6350 0.6350
10.340078 0.6350 0.6400 0.6400 0.6410 0.6450
10.370000 0.6460 0.6500 0.6510 0.6520 0.6520
10.400078 0.6520 0.6520 0.6520 0.6520 0.6520
10.430000 0.6520 0.6540 0.6540 0.6540 0.6560
10.460078 0.6570 0.6580 0.6600 0.6630 0.6650
10.490000 0.6700 0.6710 0.6710 0.6730 0.6730
10.520078 0.6730 0.6730 0.6730 0.6730 0.6730
10.550000 0.6730 0.6740 0.6740 0.6750 0.6750
10.580078 0.6760 0.6780 0.6780 0.6790 0.6800
10.611000 0.6810 0.6810 0.6820 0.6820 0.6840
10.641078 0.6840 0.6900 0.6900 0.6860 0.6860
10.671000 0.6860 0.6860 0.6860 0.6870 0.6870
10.701078 0.6880 0.6860 0.6860 0.6870 0.6900
10.731000 0.6900 0.6910 0.6910 0.6900 0.6870
10.761078 0.6870 0.6900 0.6910 0.6930 0.6930
10.791000 0.6930 0.6950 0.6920 0.6920 0.6920
10.821078 0.6950 0.6980 0.6990 0.6990 0.7010
10.851000 0.7020 0.7010 0.7020 0.7030 0.7030
10.881078 0.7030 0.7030 0.7030 0.7010 0.7010
10.911000 0.7010 0.7010 0.7010 0.7020 0.7050
10.941078 0.7070 0.7070 0.7040 0.7040 0.7040
10.971000 0.7050 0.7050 0.7070 0.7070 0.7070
11.001078 0.7080 0.7080 0.7080 0.7080 0.7080
11.031000 0.7080 0.7080 0.7080 0.7090 0.7090
11.061078 0.7090 0.7100 0.7120 0.7130 0.7140
11.092000 0.7150 0.7150 0.7160 0.7160 0.7160
11.122078 0.7180 0.7190 0.7190 0.7190 0.7190
11.152000 0.7190 0.7190 0.7190 0.7190 0.7160
11.182078 0.7160 0.7160 0.7160 0.7180 0.7180
11.212000 0.7180 0.7180 0.7180 0.7180 0.7190
11.242078 0.7190 0.7190 0.7200 0.7210 0.7210
11.272000 0.7210 0.7210 0.7220 0.7220 0.7270
11.302078 0.7300 0.7310 0.7310 0.7310 0.7320
11.332000 0.7320 0.7350 0.7350 0.7350 0.7350
11.362078 0.7350 0.7360 0.7360 0.7370 0.7370
11.392000 0.7370 0.7370 0.7390 0.7420 0.7440
11.422078 0.7460 0.7460 0.7460 0.7470 0.7500
11.452000 0.7500 0.7490 0.7490 0.7490 0.7490
11.482078 0.7490 0.7490 0.7490 0.7490 0.7490
11.512000 0.7480 0.7490 0.7500 0.7490 0.7490
11.542078 0.7500 0.7480 0.7440 0.7390 0.7360
11.573000 0.7310 0.7290 0.7260 0.7260 0.7250
11.603078 0.7240 0.7210 0.7200 0.7210 0.7210
11.633000 0.7210 0.7190 0.7190 0.7200 0.7220
11.663078 0.7240 0.7240 0.7220 0.7200 0.7200
11.693000 0.7200 0.7180 0.7160 0.7160 0.7160
11.723078 0.7180 0.7190 0.7200 0.7200 0.7220
11.753000 0.7240 0.7240 0.7240 0.7270 0.7300
11.783078 0.7300 0.7300 0.7360 0.7390 0.7420
11.813000 0.7430 0.7440 0.7440 0.7440 0.7440
11.843078 0.7470 0.7480 0.7480 0.7480 0.7480
11.873000 0.7480 0.7490 0.7490 0.7500 0.7520
11.903078 0.7520 0.7500 0.7500 0.7520 0.7520
11.933000 0.7530 0.7550 0.7550 0.7560 0.7580
11.963078 0.7590 0.7590 0.7600 0.7600 0.7600
11.994000 0.7600 0.7590 0.7600 0.7610 0.7630
12.024078 0.7630 0.7640 0.7640 0.7640 0.7640
12.054000 0.7650 0.7640 0.7650 0.7650 0.7650
12.084078 0.7660 0.7660 0.7640 0.7640 0.7630
12.114000 0.7630 0.7630 0.7640 0.7640 0.7650
12.144078 0.7650 0.7660 0.7660 0.7660 0.7660
12.174000 0.7660 0.7660 0.7660 0.7660 0.7660
12.204078 0.7650 0.7650 0.7650 0.7660 0.7690
12.234000 0.7690 0.7690 0.7650 0.7650 0.7660
12.264078 0.7660 0.7660 0.7660 0.7660 0.7650
12.294000 0.7650 0.7640 0.7610 0.7610 0.7640
12.324078 0.7640 0.7640 0.7640 0.7640 0.7640
12.354000 0.7640 0.7640 0.7640 0.7610 0.7640
12.384078 0.7650 0.7650 0.7650 0.7640 0.7640
12.414000 0.7640 0.7640 0.7630 0.7610 0.7610
12.444078 0.7660 0.7660 0.7660 0.7650 0.7630
12.475000 0.7610 0.7580 0.7550 0.7520 0.7490
12.505078 0.7460 0.7440 0.7420 0.7420 0.7410
12.535000 0.7390 0.7410 0.7430 0.7520 0.7540
12.565078 0.7560 0.7590 0.7590 0.7590 0.7600
12.595000 0.7600 0.7610 0.7610 0.7610 0.7650
12.625078 0.7650 0.7660 0.7660 0.7670 0.7690
12.655000 0.7700 0.7700 0.7700 0.7700 0.7700
12.685078 0.7690 0.7690 0.7690 0.7690 0.7670
12.715000 0.7670 0.7670 0.7670 0.7690 0.7690
12.745078 0.7700 0.7710 0.7720 0.7730 0.7730
12.775000 0.7730 0.7730 0.7730 0.7720 0.7720
12.805078 0.7750 0.7750 0.7750 0.7750 0.7720
12.835000 0.7720 0.7720 0.7730 0.7760 0.7760
12.865078 0.7760 0.7760 0.7760 0.7750 0.7760
12.895000 0.7760 0.7760 0.7760 0.7760 0.7760
12.925078 0.7760 0.7760 0.7770 0.7760 0.7760
12.956000 0.7760 0.7760 0.7760 0.7760 0.7760
12.986078 0.7760 0.7770 0.7770 0.7800 0.7800
13.016000 0.7780 0.7780 0.7780 0.7780 0.7780
13.046078 0.7800 0.7780 0.7780 0.7800 0.7800
13.076000 0.7800 0.7800 0.7800 0.7800 0.7800
13.106078 0.7800 0.7800 0.7800 0.7800 0.7800
13.136000 0.7780 0.7770 0.7760 0.7760 0.7770
13.166078 0.7770 0.7780 0.7800 0.7800 0.7800
13.196000 0.7820 0.7820 0.7810 0.7780 0.7770
13.226078 0.7770 0.7770 0.7780 0.7780 0.7800
13.256000 0.7800 0.7800 0.7780 0.7780 0.7810
13.286078 0.7810 0.7810 0.7820 0.7820 0.7820
13.316000 0.7800 0.7760 0.7760 0.7780 0.7810
13.346078 0.7810 0.7810 0.7810 0.7810 0.7800
13.377000 0.7800 0.7780 0.7770 0.7780 0.7800
13.407078 0.7820 0.7820 0.7840 0.7840 0.7830
13.437000 0.7830 0.7830 0.7840 0.7870 0.7880
13.467078 0.7880 0.7880 0.7890 0.7890 0.7890
13.497000 0.7890 0.7890 0.7890 0.7890 0.7890
13.527078 0.7890 0.7880 0.7870 0.7860 0.7860
13.557000 0.7840 0.7840 0.7840 0.7860 0.7880
13.587078 0.7910 0.7920 0.7930 0.7930 0.7920
13.617000 0.7910 0.7910 0.7890 0.7890 0.7910
13.647078 0.7920 0.7920 0.7920 0.7920 0.7910
13.677000 0.7910 0.7910 0.7910 0.7910 0.7890
13.707078 0.7880 0.7880 0.7880 0.7890 0.7910
13.737000 0.7920 0.7930 0.7930 0.7940 0.7940
13.767078 0.7940 0.7940 0.7950 0.7950 0.7940
13.797000 0.7940 0.7950 0.7980 0.7980 0.7980
13.827078 0.7990 0.7990 0.7990 0.7980 0.7980
13.858000 0.7980 0.7980 0.7990 0.8000 0.8010
13.888078 0.8040 0.8050 0.8060 0.8060 0.8060
13.918000 0.8060 0.8060 0.8080 0.8080 0.8080
13.948078 0.8090 0.8090 0.8090 0.8090 0.8100
13.978000 0.8100 0.8110 0.8110 0.8120 0.8140
14.008078 0.8150 0.8150 0.8170 0.8170 0.8180
14.038000 0.8200 0.8210 0.8210 0.8200 0.8200
14.068078 0.8200 0.8200 0.8200 0.8210 0.8210
14.098000 0.8210 0.8200 0.8200 0.8180 0.8200
14.128078 0.8200 0.8160 0.8150 0.8150 0.8160
14.158000 0.8170 0.8170 0.8170 0.8180 0.8200
14.188078 0.8220 0.8220 0.8220 0.8230 0.8220
14.218000 0.8220 0.8220 0.8210 0.8210 0.8250
14.248078 0.8250 0.8230 0.8230 0.8230 0.8230
14.278000 0.8230 0.8230 0.8230 0.8220 0.8220
14.308078 0.8230 0.8230 0.8230 0.8220 0.8220
14.339000 0.8220 0.8230 0.8260 0.8280 0.8280
14.369078 0.8290 0.8310 0.8310 0.8280 0.8260
14.399000 0.8230 0.8230 0.8220 0.8220 0.8220
14.429078 0.8220 0.8220 0.8210 0.8200 0.8200
14.459000 0.8200 0.8200 0.8200 0.8210 0.8210
14.489078 0.8210 0.8200 0.8180 0.8160 0.8110
14.519000 0.8090 0.8090 0.8090 0.8090 0.8090
14.549078 0.8080 0.8080 0.8080 0.8050 0.8000
14.579000 0.7930 0.7910 0.7870 0.7820 0.7770
14.609078 0.7710 0.7650 0.7610 0.7560 0.7500
14.639000 0.7430 0.7350 0.7240 0.7080 0.6850
14.669078 0.6760 0.6700 0.6630 0.6450 0.6400
14.699000 0.6190 0.6030 0.6010 0.5950 0.5940
14.729078 0.5950 0.5990 0.6000 0.6050 0.6080
14.759000 0.6090 0.6090 0.6110 0.6110 0.6110
14.789078 0.6090 0.6020 0.5950 0.5840 0.5680
14.820000 0.5560 0.5400 0.5290 0.5200 0.5030
14.850078 0.4830 0.4660 0.4540 0.4380 0.4220
14.880000 0.4050 0.3940 0.3880 0.3810 0.3710
14.910078 0.3680 0.3630 0.3600 0.3590 0.3600
14.940000 0.3650 0.3700 0.3790 0.3930 0.3990
14.970078 0.4030 0.4140 0.4250 0.4300 0.4370
15.000000 0.4450 0.4540 0.4620 0.4710 0.4810
15.030078 0.4920 0.5010 0.5120 0.5230 0.5400
15.060000 0.5490 0.5560 0.5680 0.5820 0.5890
15.090078 0.5920 0.5960 0.6010 0.6070 0.6130
15.120000 0.6220 0.6290 0.6310 0.6390 0.6500
15.150078 0.6580 0.6630 0.6680 0.6780 0.6850
15.180000 0.6900 0.6950 0.6990 0.7020 0.7050
15.210078 0.7080 0.7100 0.7140 0.7190 0.7200
15.241000 0.7220 0.7260 0.7320 0.7370 0.7390
15.271078 0.7420 0.7490 0.7540 0.7560 0.7590
15.301000 0.7600 0.7600 0.7630 0.7660 0.7710
15.331078 0.7720 0.7730 0.7760 0.7770 0.7770
15.361000 0.7780 0.7780 0.7800 0.7800 0.7800
15.391078 0.7800 0.7810 0.7800 0.7800
##END=
