##TITLE=VITON A
$$ DUPONT CHEM. CO. (COMM.)
##JCAMP-DX=4.24
##DATA TYPE=INFRARED SPECTRUM
##CLASS=COBLENTZ
##ORIGIN=WYANDOTTE CHEMICALS CORP., WYANDOTTE, MICHIGAN, USA
##OWNER=COBLENTZ SOCIETY
Collection (C) 2018 copyright by the U.S. Secretary of Commerce
on behalf of the United States of America. All rights reserved.
##DATE=Not specified, most likely prior to 1970
##MOLFORM=C5 H2 F9 X
##SOURCE REFERENCE=COBLENTZ NO. 438
##$NIST ID=B6000438
##$NIST SOURCE=COBLENTZ
##$NIST IMAGE=cob438
##SPECTROMETER/DATA SYSTEM=Not specified, most likely a prism, grating, or hybrid spectrometer.
##STATE=SOLID
##PATH LENGTH=FILM DEPOSITED FROM ACETONE
##SAMPLING PROCEDURE=TRANSMISSION
##RESOLUTION=4
##DATA PROCESSING=DIGITIZED BY NIST FROM HARD COPY
##XUNITS=MICROMETERS
##YUNITS=TRANSMITTANCE
##XFACTOR=1.000000
##YFACTOR=1
##DELTAX=000.006636
##FIRSTX=2.031
##LASTX=15.9925
##FIRSTY=0.98
##MAXX=15.9925
##MINX=2.031
##MAXY=0.988
##MINY=0.098
##NPOINTS=2105
##XYDATA=(X++(Y..Y))
2.031000 0.9800 0.9800 0.9780 0.9780 0.9760
2.064194 0.9760 0.9760 0.9760 0.9760 0.9760
2.098000 0.9760 0.9760 0.9780 0.9800 0.9800
2.131194 0.9800 0.9800 0.9780 0.9780 0.9750
2.164000 0.9750 0.9750 0.9750 0.9750 0.9750
2.197194 0.9750 0.9750 0.9750 0.9750 0.9750
2.230000 0.9760 0.9760 0.9760 0.9760 0.9760
2.263194 0.9760 0.9760 0.9750 0.9750 0.9750
2.297000 0.9750 0.9750 0.9750 0.9750 0.9750
2.330194 0.9750 0.9750 0.9760 0.9760 0.9760
2.363000 0.9760 0.9760 0.9760 0.9750 0.9750
2.396194 0.9750 0.9750 0.9760 0.9760 0.9760
2.429000 0.9760 0.9750 0.9750 0.9750 0.9750
2.462194 0.9750 0.9750 0.9750 0.9730 0.9730
2.496000 0.9730 0.9710 0.9710 0.9710 0.9710
2.529194 0.9710 0.9710 0.9710 0.9710 0.9730
2.562000 0.9780 0.9780 0.9750 0.9730 0.9710
2.595194 0.9710 0.9730 0.9750 0.9760 0.9760
2.628000 0.9800 0.9810 0.9810 0.9800 0.9780
2.661194 0.9760 0.9760 0.9750 0.9750 0.9750
2.695000 0.9750 0.9750 0.9760 0.9760 0.9750
2.728194 0.9750 0.9750 0.9750 0.9750 0.9750
2.761000 0.9750 0.9750 0.9730 0.9710 0.9700
2.794194 0.9700 0.9700 0.9680 0.9650 0.9650
2.827000 0.9650 0.9630 0.9630 0.9610 0.9600
2.860194 0.9600 0.9580 0.9580 0.9560 0.9560
2.894000 0.9560 0.9560 0.9550 0.9550 0.9550
2.927194 0.9510 0.9510 0.9510 0.9510 0.9510
2.960000 0.9510 0.9510 0.9510 0.9530 0.9550
2.993194 0.9560 0.9550 0.9550 0.9560 0.9560
3.027000 0.9560 0.9560 0.9560 0.9560 0.9560
3.060194 0.9560 0.9560 0.9550 0.9550 0.9550
3.093000 0.9530 0.9510 0.9510 0.9510 0.9510
3.126194 0.9510 0.9510 0.9510 0.9530 0.9550
3.159000 0.9560 0.9560 0.9560 0.9580 0.9580
3.192194 0.9580 0.9580 0.9580 0.9560 0.9550
3.226000 0.9550 0.9530 0.9530 0.9500 0.9480
3.259194 0.9460 0.9400 0.9260 0.9110 0.9010
3.292000 0.9010 0.9010 0.9030 0.9110 0.9150
3.325194 0.9180 0.9200 0.9200 0.9230 0.9300
3.358000 0.9350 0.9410 0.9500 0.9530 0.9560
3.391194 0.9600 0.9650 0.9680 0.9700 0.9700
3.425000 0.9700 0.9700 0.9700 0.9700 0.9700
3.458194 0.9680 0.9680 0.9680 0.9700 0.9700
3.491000 0.9700 0.9710 0.9730 0.9730 0.9710
3.524194 0.9710 0.9710 0.9710 0.9710 0.9710
3.557000 0.9730 0.9750 0.9750 0.9760 0.9760
3.590194 0.9760 0.9760 0.9750 0.9750 0.9730
3.624000 0.9730 0.9750 0.9750 0.9750 0.9760
3.657194 0.9750 0.9750 0.9750 0.9760 0.9760
3.690000 0.9760 0.9760 0.9760 0.9760 0.9760
3.723194 0.9760 0.9760 0.9760 0.9760 0.9760
3.756000 0.9760 0.9760 0.9780 0.9760 0.9760
3.789194 0.9760 0.9760 0.9760 0.9760 0.9760
3.823000 0.9780 0.9760 0.9760 0.9780 0.9780
3.856194 0.9780 0.9780 0.9780 0.9760 0.9760
3.889000 0.9760 0.9760 0.9760 0.9760 0.9760
3.922194 0.9760 0.9760 0.9750 0.9750 0.9760
3.956000 0.9780 0.9780 0.9760 0.9750 0.9730
3.989194 0.9750 0.9750 0.9760 0.9760 0.9760
4.022000 0.9750 0.9730 0.9710 0.9730 0.9730
4.055194 0.9730 0.9730 0.9710 0.9710 0.9710
4.088000 0.9700 0.9710 0.9700 0.9700 0.9680
4.121194 0.9680 0.9660 0.9660 0.9680 0.9700
4.155000 0.9700 0.9700 0.9700 0.9700 0.9700
4.188194 0.9700 0.9700 0.9700 0.9680 0.9660
4.221000 0.9660 0.9650 0.9650 0.9630 0.9600
4.254194 0.9580 0.9550 0.9510 0.9530 0.9560
4.287000 0.9600 0.9680 0.9700 0.9710 0.9710
4.320194 0.9730 0.9760 0.9780 0.9810 0.9830
4.354000 0.9860 0.9880 0.9880 0.9880 0.9860
4.387194 0.9810 0.9800 0.9760 0.9730 0.9730
4.420000 0.9710 0.9700 0.9680 0.9680 0.9680
4.453194 0.9700 0.9710 0.9710 0.9730 0.9730
4.486000 0.9750 0.9750 0.9750 0.9730 0.9730
4.519194 0.9730 0.9730 0.9730 0.9730 0.9750
4.553000 0.9750 0.9750 0.9730 0.9730 0.9730
4.586194 0.9730 0.9730 0.9730 0.9730 0.9730
4.619000 0.9730 0.9730 0.9730 0.9730 0.9730
4.652194 0.9730 0.9730 0.9730 0.9730 0.9730
4.685000 0.9750 0.9750 0.9750 0.9760 0.9760
4.718194 0.9760 0.9750 0.9730 0.9730 0.9750
4.752000 0.9760 0.9760 0.9760 0.9760 0.9760
4.785194 0.9750 0.9750 0.9710 0.9710 0.9710
4.818000 0.9710 0.9710 0.9710 0.9710 0.9710
4.851194 0.9710 0.9710 0.9730 0.9750 0.9750
4.885000 0.9730 0.9730 0.9710 0.9700 0.9700
4.918194 0.9700 0.9700 0.9710 0.9710 0.9710
4.951000 0.9700 0.9710 0.9710 0.9710 0.9730
4.984194 0.9750 0.9750 0.9760 0.9760 0.9750
5.017000 0.9750 0.9750 0.9750 0.9730 0.9730
5.050194 0.9730 0.9710 0.9710 0.9710 0.9700
5.084000 0.9680 0.9680 0.9680 0.9700 0.9730
5.117194 0.9750 0.9760 0.9760 0.9750 0.9750
5.150000 0.9730 0.9730 0.9730 0.9730 0.9750
5.183194 0.9750 0.9750 0.9730 0.9730 0.9730
5.216000 0.9730 0.9730 0.9730 0.9730 0.9730
5.249194 0.9730 0.9730 0.9750 0.9750 0.9750
5.283000 0.9750 0.9750 0.9710 0.9710 0.9710
5.316194 0.9730 0.9730 0.9730 0.9730 0.9750
5.349000 0.9760 0.9750 0.9750 0.9750 0.9750
5.382194 0.9750 0.9750 0.9750 0.9750 0.9750
5.415000 0.9730 0.9710 0.9710 0.9700 0.9700
5.448194 0.9700 0.9710 0.9710 0.9750 0.9730
5.482000 0.9750 0.9780 0.9760 0.9760 0.9760
5.515194 0.9760 0.9760 0.9760 0.9760 0.9750
5.548000 0.9750 0.9730 0.9730 0.9710 0.9700
5.581194 0.9700 0.9700 0.9710 0.9760 0.9760
5.614000 0.9750 0.9730 0.9710 0.9700 0.9680
5.647194 0.9660 0.9650 0.9660 0.9680 0.9700
5.681000 0.9700 0.9710 0.9710 0.9700 0.9660
5.714194 0.9630 0.9660 0.9630 0.9650 0.9650
5.747000 0.9630 0.9630 0.9610 0.9610 0.9610
5.780194 0.9600 0.9560 0.9510 0.9480 0.9480
5.814000 0.9510 0.9560 0.9560 0.9560 0.9560
5.847194 0.9510 0.9510 0.9530 0.9530 0.9580
5.880000 0.9580 0.9600 0.9600 0.9580 0.9530
5.913194 0.9510 0.9510 0.9510 0.9510 0.9530
5.946000 0.9530 0.9560 0.9550 0.9510 0.9510
5.979194 0.9510 0.9510 0.9530 0.9530 0.9530
6.013000 0.9500 0.9450 0.9410 0.9410 0.9430
6.046194 0.9430 0.9500 0.9500 0.9450 0.9450
6.079000 0.9460 0.9480 0.9500 0.9530 0.9550
6.112194 0.9530 0.9530 0.9530 0.9530 0.9500
6.145000 0.9500 0.9500 0.9510 0.9550 0.9560
6.178194 0.9560 0.9560 0.9560 0.9550 0.9500
6.212000 0.9510 0.9510 0.9550 0.9580 0.9600
6.245194 0.9600 0.9600 0.9600 0.9600 0.9600
6.278000 0.9600 0.9600 0.9600 0.9580 0.9580
6.311194 0.9580 0.9560 0.9510 0.9510 0.9510
6.344000 0.9510 0.9510 0.9510 0.9510 0.9550
6.377194 0.9550 0.9560 0.9580 0.9580 0.9580
6.411000 0.9580 0.9580 0.9550 0.9530 0.9510
6.444194 0.9500 0.9500 0.9500 0.9510 0.9560
6.477000 0.9560 0.9560 0.9510 0.9510 0.9510
6.510194 0.9510 0.9510 0.9510 0.9510 0.9510
6.543000 0.9510 0.9510 0.9550 0.9550 0.9550
6.576194 0.9550 0.9530 0.9530 0.9530 0.9530
6.610000 0.9530 0.9530 0.9530 0.9530 0.9530
6.643194 0.9530 0.9530 0.9530 0.9530 0.9530
6.676000 0.9530 0.9530 0.9510 0.9510 0.9510
6.709194 0.9500 0.9500 0.9460 0.9400 0.9380
6.743000 0.9360 0.9330 0.9300 0.9280 0.9260
6.776194 0.9250 0.9180 0.9150 0.9100 0.9010
6.809000 0.8920 0.8780 0.8620 0.8430 0.8320
6.842194 0.8080 0.8080 0.8070 0.8050 0.8070
6.875000 0.8070 0.8070 0.8070 0.8030 0.7900
6.908194 0.7740 0.7550 0.7370 0.7170 0.6970
6.942000 0.6760 0.6560 0.6360 0.6270 0.6220
6.975194 0.6220 0.6220 0.6240 0.6270 0.6290
7.008000 0.6310 0.6340 0.6340 0.6290 0.5980
7.041194 0.5660 0.5160 0.4980 0.4800 0.4260
7.074000 0.4030 0.3630 0.3480 0.3270 0.2940
7.107194 0.2870 0.2770 0.2690 0.2670 0.2670
7.141000 0.2700 0.2790 0.2870 0.2970 0.3050
7.174194 0.3150 0.3270 0.3380 0.3500 0.3650
7.207000 0.3800 0.3950 0.4110 0.4310 0.4500
7.240194 0.4610 0.4780 0.4960 0.5410 0.5630
7.273000 0.5810 0.5980 0.6070 0.6190 0.6270
7.306194 0.6370 0.6410 0.6410 0.6390 0.6260
7.340000 0.6190 0.6070 0.5960 0.5930 0.5840
7.373194 0.5790 0.5780 0.5780 0.5780 0.5830
7.406000 0.5930 0.6020 0.6110 0.6210 0.6320
7.439194 0.6460 0.6620 0.6690 0.6760 0.6810
7.472000 0.6870 0.6940 0.6970 0.6990 0.6990
7.505194 0.6970 0.6890 0.6820 0.6810 0.6760
7.539000 0.6710 0.6620 0.6540 0.6460 0.6360
7.572194 0.6270 0.6170 0.6070 0.5980 0.5860
7.605000 0.5760 0.5680 0.5590 0.5530 0.5460
7.638194 0.5390 0.5330 0.5260 0.5190 0.5090
7.672000 0.5040 0.5000 0.4950 0.4880 0.4850
7.705194 0.4780 0.4730 0.4650 0.4580 0.4500
7.738000 0.4450 0.4430 0.4380 0.4330 0.4280
7.771194 0.4250 0.4200 0.4160 0.4110 0.4060
7.804000 0.4010 0.3980 0.3980 0.3970 0.3970
7.837194 0.3950 0.3950 0.3950 0.3930 0.3900
7.871000 0.3870 0.3770 0.3670 0.3570 0.3480
7.904194 0.3380 0.3300 0.3200 0.3100 0.2990
7.937000 0.2870 0.2750 0.2650 0.2540 0.2440
7.970194 0.2340 0.2270 0.2190 0.2140 0.2100
8.003000 0.2040 0.1970 0.1920 0.1860 0.1810
8.036194 0.1740 0.1690 0.1660 0.1610 0.1560
8.070000 0.1520 0.1470 0.1440 0.1410 0.1370
8.103194 0.1340 0.1310 0.1270 0.1240 0.1220
8.136000 0.1190 0.1170 0.1170 0.1120 0.1090
8.169194 0.1090 0.1070 0.1060 0.1020 0.1010
8.202000 0.1010 0.1010 0.0990 0.0990 0.0990
8.235194 0.0980 0.0990 0.0990 0.0990 0.0990
8.269000 0.0990 0.0990 0.1010 0.1010 0.1010
8.302194 0.1020 0.1020 0.1020 0.1040 0.1040
8.335000 0.1040 0.1040 0.1040 0.1060 0.1060
8.368194 0.1070 0.1070 0.1070 0.1090 0.1090
8.401000 0.1110 0.1110 0.1120 0.1140 0.1170
8.434194 0.1190 0.1210 0.1220 0.1260 0.1310
8.468000 0.1340 0.1370 0.1390 0.1390 0.1420
8.501194 0.1470 0.1470 0.1490 0.1510 0.1520
8.534000 0.1540 0.1570 0.1610 0.1610 0.1620
8.567194 0.1640 0.1670 0.1710 0.1740 0.1770
8.601000 0.1810 0.1820 0.1840 0.1840 0.1870
8.634194 0.1890 0.1890 0.1910 0.1920 0.1940
8.667000 0.1940 0.1970 0.1970 0.1990 0.1990
8.700194 0.2000 0.2000 0.2020 0.2040 0.2040
8.733000 0.2040 0.2050 0.2050 0.2050 0.2090
8.766194 0.2100 0.2120 0.2140 0.2150 0.2150
8.800000 0.2170 0.2200 0.2240 0.2290 0.2340
8.833194 0.2400 0.2450 0.2490 0.2540 0.2590
8.866000 0.2640 0.2700 0.2750 0.2820 0.2890
8.899194 0.2950 0.3020 0.3100 0.3170 0.3250
8.932000 0.3320 0.3380 0.3470 0.3530 0.3600
8.965194 0.3670 0.3730 0.3780 0.3870 0.3930
8.999000 0.3980 0.4050 0.4050 0.4060 0.4100
9.032194 0.4150 0.4200 0.4250 0.4310 0.4360
9.065000 0.4430 0.4500 0.4550 0.4600 0.4630
9.098194 0.4660 0.4700 0.4730 0.4760 0.4800
9.131000 0.4830 0.4860 0.4900 0.4910 0.4950
9.164194 0.4980 0.5030 0.5060 0.5090 0.5110
9.198000 0.5130 0.5160 0.5160 0.5180 0.5180
9.231194 0.5210 0.5280 0.5310 0.5310 0.5330
9.264000 0.5340 0.5340 0.5360 0.5380 0.5380
9.297194 0.5390 0.5390 0.5390 0.5390 0.5390
9.330000 0.5390 0.5380 0.5390 0.5390 0.5390
9.363194 0.5390 0.5380 0.5360 0.5330 0.5310
9.397000 0.5310 0.5310 0.5330 0.5340 0.5380
9.430194 0.5390 0.5410 0.5440 0.5480 0.5480
9.463000 0.5530 0.5560 0.5580 0.5590 0.5590
9.496194 0.5610 0.5610 0.5630 0.5640 0.5680
9.530000 0.5710 0.5710 0.5740 0.5760 0.5760
9.563194 0.5780 0.5790 0.5790 0.5790 0.5810
9.596000 0.5860 0.5890 0.5940 0.5980 0.6010
9.629194 0.6010 0.6020 0.6040 0.6090 0.6120
9.662000 0.6160 0.6190 0.6210 0.6220 0.6240
9.695194 0.6270 0.6290 0.6310 0.6310 0.6320
9.729000 0.6320 0.6340 0.6340 0.6370 0.6370
9.762194 0.6390 0.6390 0.6410 0.6420 0.6440
9.795000 0.6460 0.6470 0.6490 0.6490 0.6510
9.828194 0.6520 0.6560 0.6590 0.6610 0.6610
9.861000 0.6620 0.6620 0.6640 0.6640 0.6660
9.894194 0.6670 0.6690 0.6710 0.6740 0.6760
9.928000 0.6770 0.6760 0.6790 0.6810 0.6820
9.961194 0.6840 0.6860 0.6870 0.6870 0.6890
9.994000 0.6910 0.6920 0.6940 0.6960 0.6970
10.027194 0.6990 0.7000 0.7000 0.7020 0.7020
10.060000 0.7040 0.7050 0.7070 0.7090 0.7120
10.093194 0.7150 0.7170 0.7200 0.7220 0.7240
10.127000 0.7250 0.7290 0.7320 0.7320 0.7350
10.160194 0.7370 0.7400 0.7440 0.7470 0.7520
10.193000 0.7570 0.7600 0.7670 0.7720 0.7770
10.226194 0.7850 0.7920 0.7970 0.8000 0.8030
10.259000 0.8070 0.8100 0.8130 0.8170 0.8220
10.292194 0.8270 0.8330 0.8370 0.8380 0.8380
10.326000 0.8400 0.8400 0.8400 0.8420 0.8420
10.359194 0.8420 0.8430 0.8430 0.8430 0.8430
10.392000 0.8420 0.8400 0.8380 0.8370 0.8350
10.425194 0.8330 0.8320 0.8300 0.8280 0.8280
10.459000 0.8270 0.8250 0.8230 0.8220 0.8220
10.492194 0.8220 0.8180 0.8170 0.8170 0.8130
10.525000 0.8130 0.8120 0.8100 0.8080 0.8050
10.558194 0.8020 0.8000 0.7990 0.7970 0.7950
10.591000 0.7950 0.7940 0.7920 0.7920 0.7920
10.624194 0.7920 0.7900 0.7900 0.7900 0.7900
10.658000 0.7900 0.7920 0.7940 0.7950 0.7970
10.691194 0.7990 0.8000 0.8000 0.8000 0.8000
10.724000 0.8000 0.7970 0.7950 0.7940 0.7920
10.757194 0.7890 0.7890 0.7870 0.7850 0.7850
10.790000 0.7820 0.7800 0.7790 0.7770 0.7740
10.823194 0.7700 0.7650 0.7600 0.7540 0.7490
10.857000 0.7470 0.7450 0.7440 0.7400 0.7350
10.890194 0.7300 0.7250 0.7190 0.7120 0.7050
10.923000 0.7000 0.6940 0.6890 0.6840 0.6770
10.956194 0.6720 0.6670 0.6620 0.6570 0.6520
10.989000 0.6490 0.6440 0.6390 0.6340 0.6270
11.022194 0.6220 0.6190 0.6120 0.6070 0.6070
11.056000 0.6060 0.6040 0.6040 0.6020 0.6010
11.089194 0.6010 0.5990 0.5980 0.5960 0.5940
11.122000 0.5930 0.5910 0.5860 0.5860 0.5830
11.155194 0.5760 0.5730 0.5640 0.5580 0.5510
11.188000 0.5440 0.5360 0.5280 0.5210 0.5130
11.221194 0.5040 0.5010 0.4960 0.4880 0.4810
11.255000 0.4730 0.4660 0.4600 0.4530 0.4460
11.288194 0.4410 0.4350 0.4310 0.4260 0.4230
11.321000 0.4210 0.4180 0.4180 0.4160 0.4160
11.354194 0.4180 0.4200 0.4230 0.4280 0.4330
11.388000 0.4400 0.4460 0.4550 0.4630 0.4710
11.421194 0.4810 0.4910 0.5110 0.5210 0.5330
11.454000 0.5430 0.5530 0.5630 0.5730 0.5830
11.487194 0.5930 0.6010 0.6070 0.6190 0.6290
11.520000 0.6390 0.6490 0.6590 0.6670 0.6770
11.553194 0.6860 0.6940 0.7020 0.7090 0.7150
11.587000 0.7220 0.7290 0.7320 0.7370 0.7400
11.620194 0.7420 0.7440 0.7450 0.7490 0.7490
11.653000 0.7490 0.7500 0.7500 0.7500 0.7500
11.686194 0.7500 0.7490 0.7470 0.7470 0.7450
11.719000 0.7440 0.7420 0.7420 0.7400 0.7390
11.752194 0.7350 0.7320 0.7300 0.7290 0.7270
11.786000 0.7270 0.7250 0.7240 0.7220 0.7190
11.819194 0.7150 0.7120 0.7090 0.7050 0.7020
11.852000 0.7000 0.6990 0.6960 0.6960 0.6910
11.885194 0.6860 0.6810 0.6790 0.6760 0.6740
11.918000 0.6710 0.6670 0.6640 0.6620 0.6610
11.951194 0.6610 0.6590 0.6590 0.6570 0.6570
11.985000 0.6570 0.6570 0.6560 0.6560 0.6560
12.018194 0.6560 0.6560 0.6560 0.6560 0.6570
12.051000 0.6570 0.6590 0.6590 0.6620 0.6620
12.084194 0.6640 0.6640 0.6640 0.6660 0.6710
12.117000 0.6740 0.6770 0.6810 0.6840 0.6870
12.150194 0.6910 0.6960 0.6970 0.7020 0.7040
12.184000 0.7040 0.7090 0.7090 0.7090 0.7120
12.217194 0.7170 0.7220 0.7270 0.7270 0.7290
12.250000 0.7290 0.7290 0.7270 0.7270 0.7270
12.283194 0.7270 0.7290 0.7290 0.7300 0.7320
12.317000 0.7320 0.7320 0.7320 0.7300 0.7300
12.350194 0.7290 0.7270 0.7270 0.7270 0.7270
12.383000 0.7290 0.7300 0.7320 0.7340 0.7370
12.416194 0.7390 0.7400 0.7400 0.7420 0.7440
12.449000 0.7440 0.7450 0.7450 0.7470 0.7490
12.482194 0.7500 0.7500 0.7520 0.7540 0.7570
12.516000 0.7570 0.7590 0.7600 0.7620 0.7640
12.549194 0.7640 0.7650 0.7650 0.7670 0.7690
12.582000 0.7690 0.7720 0.7720 0.7720 0.7740
12.615194 0.7740 0.7750 0.7750 0.7750 0.7750
12.648000 0.7740 0.7740 0.7720 0.7700 0.7690
12.681194 0.7690 0.7690 0.7690 0.7690 0.7720
12.715000 0.7720 0.7720 0.7700 0.7700 0.7700
12.748194 0.7670 0.7670 0.7650 0.7640 0.7640
12.781000 0.7620 0.7620 0.7620 0.7620 0.7640
12.814194 0.7670 0.7740 0.7750 0.7770 0.7770
12.847000 0.7790 0.7800 0.7820 0.7840 0.7870
12.880194 0.7890 0.7900 0.7900 0.7920 0.7920
12.914000 0.7940 0.7950 0.7990 0.7990 0.8020
12.947194 0.8020 0.8020 0.8030 0.8030 0.8030
12.980000 0.8030 0.8050 0.8050 0.8030 0.8030
13.013194 0.8020 0.8020 0.8000 0.7990 0.7990
13.046000 0.7970 0.7900 0.7870 0.7870 0.7850
13.079194 0.7850 0.7820 0.7820 0.7820 0.7820
13.113000 0.7820 0.7820 0.7800 0.7800 0.7790
13.146194 0.7790 0.7770 0.7750 0.7740 0.7740
13.179000 0.7740 0.7740 0.7740 0.7740 0.7720
13.212194 0.7720 0.7720 0.7720 0.7720 0.7740
13.246000 0.7740 0.7740 0.7740 0.7740 0.7740
13.279194 0.7740 0.7740 0.7740 0.7740 0.7740
13.312000 0.7740 0.7740 0.7740 0.7720 0.7720
13.345194 0.7700 0.7700 0.7690 0.7690 0.7690
13.378000 0.7690 0.7690 0.7690 0.7690 0.7690
13.411194 0.7690 0.7690 0.7690 0.7690 0.7690
13.445000 0.7690 0.7690 0.7690 0.7670 0.7670
13.478194 0.7670 0.7650 0.7650 0.7640 0.7620
13.511000 0.7600 0.7570 0.7550 0.7520 0.7520
13.544194 0.7500 0.7490 0.7490 0.7470 0.7450
13.577000 0.7450 0.7440 0.7440 0.7440 0.7440
13.610194 0.7440 0.7420 0.7420 0.7420 0.7420
13.644000 0.7420 0.7420 0.7440 0.7440 0.7440
13.677194 0.7440 0.7440 0.7440 0.7440 0.7420
13.710000 0.7420 0.7400 0.7400 0.7390 0.7390
13.743194 0.7370 0.7370 0.7350 0.7340 0.7320
13.776000 0.7320 0.7290 0.7290 0.7270 0.7250
13.809194 0.7240 0.7240 0.7220 0.7220 0.7200
13.843000 0.7200 0.7200 0.7200 0.7200 0.7200
13.876194 0.7220 0.7220 0.7220 0.7220 0.7220
13.909000 0.7240 0.7240 0.7240 0.7250 0.7250
13.942194 0.7270 0.7290 0.7290 0.7300 0.7300
13.975000 0.7320 0.7320 0.7340 0.7350 0.7350
14.008194 0.7350 0.7370 0.7370 0.7390 0.7400
14.042000 0.7400 0.7420 0.7420 0.7420 0.7420
14.075194 0.7420 0.7440 0.7440 0.7440 0.7440
14.108000 0.7440 0.7440 0.7440 0.7440 0.7450
14.141194 0.7450 0.7450 0.7450 0.7470 0.7470
14.175000 0.7490 0.7490 0.7490 0.7490 0.7500
14.208194 0.7500 0.7500 0.7500 0.7500 0.7500
14.241000 0.7500 0.7500 0.7500 0.7490 0.7490
14.274194 0.7500 0.7500 0.7500 0.7500 0.7470
14.307000 0.7470 0.7470 0.7450 0.7470 0.7470
14.340194 0.7470 0.7470 0.7470 0.7470 0.7470
14.374000 0.7470 0.7470 0.7470 0.7490 0.7500
14.407194 0.7500 0.7500 0.7500 0.7500 0.7520
14.440000 0.7520 0.7520 0.7500 0.7500 0.7500
14.473194 0.7500 0.7500 0.7500 0.7500 0.7500
14.506000 0.7490 0.7490 0.7490 0.7470 0.7470
14.539194 0.7470 0.7450 0.7450 0.7450 0.7450
14.573000 0.7450 0.7450 0.7440 0.7440 0.7420
14.606194 0.7420 0.7400 0.7400 0.7400 0.7390
14.639000 0.7370 0.7370 0.7350 0.7340 0.7320
14.672194 0.7320 0.7300 0.7300 0.7290 0.7290
14.705000 0.7290 0.7270 0.7270 0.7270 0.7270
14.738194 0.7290 0.7290 0.7290 0.7300 0.7300
14.772000 0.7320 0.7320 0.7340 0.7340 0.7350
14.805194 0.7350 0.7350 0.7370 0.7390 0.7390
14.838000 0.7420 0.7420 0.7440 0.7440 0.7440
14.871194 0.7450 0.7450 0.7450 0.7450 0.7470
14.904000 0.7470 0.7470 0.7490 0.7490 0.7500
14.937194 0.7500 0.7520 0.7520 0.7520 0.7520
14.971000 0.7520 0.7520 0.7500 0.7500 0.7490
15.004194 0.7470 0.7440 0.7400 0.7370 0.7320
15.037000 0.7290 0.7240 0.7200 0.7150 0.7120
15.070194 0.7090 0.7070 0.7070 0.7070 0.7090
15.104000 0.7100 0.7140 0.7170 0.7220 0.7250
15.137194 0.7300 0.7350 0.7390 0.7420 0.7450
15.170000 0.7490 0.7490 0.7520 0.7540 0.7540
15.203194 0.7550 0.7550 0.7550 0.7550 0.7540
15.236000 0.7520 0.7500 0.7500 0.7490 0.7490
15.269194 0.7470 0.7450 0.7440 0.7440 0.7420
15.303000 0.7420 0.7400 0.7400 0.7400 0.7390
15.336194 0.7390 0.7390 0.7370 0.7370 0.7350
15.369000 0.7350 0.7340 0.7320 0.7320 0.7300
15.402194 0.7300 0.7290 0.7290 0.7270 0.7270
15.435000 0.7270 0.7250 0.7250 0.7240 0.7240
15.468194 0.7240 0.7240 0.7240 0.7250 0.7250
15.502000 0.7240 0.7240 0.7220 0.7220 0.7200
15.535194 0.7200 0.7200 0.7200 0.7200 0.7200
15.568000 0.7190 0.7190 0.7190 0.7190 0.7170
15.601194 0.7170 0.7170 0.7170 0.7170 0.7170
15.634000 0.7170 0.7170 0.7170 0.7170 0.7150
15.667194 0.7150 0.7150 0.7140 0.7140 0.7140
15.701000 0.7120 0.7120 0.7120 0.7120 0.7120
15.734194 0.7120 0.7120 0.7120 0.7120 0.7100
15.767000 0.7090 0.7090 0.7070 0.7070 0.7070
15.800194 0.7050 0.7050 0.7050 0.7040 0.7040
15.833000 0.7040 0.7020 0.7020 0.7000 0.7000
15.866194 0.7000 0.7000 0.6990 0.6990 0.6990
15.900000 0.6970 0.6970 0.6970 0.6960 0.6970
15.933194 0.6970 0.6970 0.6970 0.6960 0.6960
15.966000 0.6960 0.6970 0.6970 0.6970 0.6970
##END=
