##TITLE=PYRIMIDINE, 2,4,5,6-TETRAAMINO-, SULFATE
##JCAMP-DX=4.24
##DATA TYPE=INFRARED SPECTRUM
##CLASS=COBLENTZ III
##ORIGIN=SOUTHERN RESEARCH INSTITUTE
##OWNER=COBLENTZ SOCIETY
Collection (C) 2018 copyright by the U.S. Secretary of Commerce
on behalf of the United States of America. All rights reserved.
##DATE=1961/06/07
##NAMES=sulfuric acid compound with 2,4,5,6-pyrimidinetetramine (1:1)
##MOLFORM=C4 H10 N6 O4 S
##SOURCE REFERENCE=COBLENTZ NO. 8429
##$NIST ID=B6008429
##$NIST SOURCE=COBLENTZ
##$NIST IMAGE=cob8429
##SPECTROMETER/DATA SYSTEM=PERKIN-ELMER 221 (GRATING)
##INSTRUMENT PARAMETERS=FILTER CHANGE AT 2490, 980 CM^-^1, GRATING FOR 4000-1428 CM^-^1, NaCl PRISM FOR 1428-650 CM^-^1
##STATE=SOLID (1 mg / 650 mg KBr DISC)
##SAMPLING PROCEDURE=TRANSMISSION
##RESOLUTION=4
##DATA PROCESSING=DIGITIZED BY NIST FROM HARD COPY
##XUNITS=1/CM
##YUNITS=TRANSMITTANCE
##XFACTOR=1.000000
##YFACTOR=1
##DELTAX=001.804813
##FIRSTX=624.198
##LASTX=4008.23
##FIRSTY=0.539
##MAXX=4008.23
##MINX=624.198
##MAXY=0.899
##MINY=0.117
##NPOINTS=1876
##XYDATA=(X++(Y..Y))
624.198000 0.5390 0.5450 0.5470 0.5470 0.5480
633.226880 0.5550 0.5560 0.5580 0.5610 0.5650
642.246000 0.5690 0.5730 0.5760 0.5790 0.5800
651.274880 0.5910 0.5920 0.5930 0.5960 0.6010
660.294000 0.6040 0.6060 0.6060 0.6080 0.6090
669.322880 0.6090 0.6110 0.6150 0.6210 0.6250
678.342000 0.6280 0.6300 0.6330 0.6350 0.6360
687.370880 0.6380 0.6390 0.6400 0.6430 0.6430
696.390000 0.6430 0.6440 0.6440 0.6440 0.6450
705.418880 0.6450 0.6460 0.6460 0.6460 0.6460
714.438000 0.6450 0.6450 0.6450 0.6440 0.6440
723.466880 0.6440 0.6430 0.6430 0.6430 0.6420
732.487000 0.6420 0.6410 0.6400 0.6400 0.6390
741.515880 0.6380 0.6370 0.6340 0.6290 0.6240
750.535000 0.6230 0.6210 0.6190 0.6000 0.5900
759.563880 0.5810 0.5800 0.5820 0.5860 0.5990
768.583000 0.6270 0.6530 0.6740 0.6860 0.6870
777.611880 0.6890 0.6910 0.6920 0.7070 0.7110
786.631000 0.7140 0.7150 0.7200 0.7210 0.7240
795.659880 0.7280 0.7290 0.7290 0.7300 0.7310
804.679000 0.7310 0.7310 0.7300 0.7300 0.7280
813.707880 0.7280 0.7270 0.7260 0.7240 0.7210
822.727000 0.7190 0.7170 0.7140 0.7130 0.7110
831.755880 0.7100 0.7080 0.7070 0.7040 0.7020
840.775000 0.7010 0.6990 0.6980 0.6970 0.6950
849.803880 0.6950 0.6930 0.6910 0.6890 0.6870
858.824000 0.6860 0.6830 0.6820 0.6820 0.6830
867.852880 0.6850 0.6850 0.6860 0.6860 0.6860
876.872000 0.6870 0.6870 0.6870 0.6870 0.6870
885.900880 0.6870 0.6860 0.6860 0.6850 0.6830
894.920000 0.6810 0.6790 0.6790 0.6780 0.6780
903.948880 0.6780 0.6780 0.6770 0.6760 0.6760
912.968000 0.6750 0.6750 0.6730 0.6710 0.6690
921.996880 0.6630 0.6610 0.6600 0.6560 0.6520
931.016000 0.6510 0.6490 0.6480 0.6470 0.6440
940.044880 0.6320 0.6290 0.6290 0.6230 0.6210
949.064000 0.6170 0.6080 0.5950 0.5860 0.5840
958.092880 0.5720 0.5650 0.5580 0.5500 0.5450
967.112000 0.5440 0.5430 0.5430 0.5430 0.5430
976.140880 0.5430 0.5410 0.5390 0.5370 0.5330
985.160000 0.5290 0.5230 0.5190 0.5120 0.5050
994.188880 0.5010 0.4970 0.4950 0.4940 0.4930
1003.209000 0.4920 0.4900 0.4890 0.4880 0.4880
1012.237880 0.4860 0.4830 0.4790 0.4690 0.4560
1021.257000 0.4430 0.4330 0.4260 0.4170 0.4000
1030.285880 0.3910 0.3820 0.3620 0.3580 0.3430
1039.305000 0.3270 0.3150 0.2970 0.2950 0.2950
1048.333880 0.2940 0.2950 0.2950 0.3030 0.3090
1057.353000 0.3200 0.3310 0.3310 0.3300 0.3240
1066.381880 0.3220 0.3210 0.3210 0.3210 0.3200
1075.401000 0.3190 0.3180 0.3180 0.3170 0.3170
1084.429880 0.3180 0.3180 0.3190 0.3220 0.3250
1093.449000 0.3280 0.3290 0.3300 0.3350 0.3410
1102.477880 0.3470 0.3500 0.3540 0.3560 0.3570
1111.497000 0.3580 0.3620 0.3670 0.3710 0.3750
1120.525880 0.3820 0.3900 0.4030 0.4120 0.4150
1129.545000 0.4180 0.4190 0.4240 0.4260 0.4400
1138.573880 0.4450 0.4490 0.4540 0.4580 0.4590
1147.594000 0.4600 0.4610 0.4630 0.4630 0.4610
1156.622880 0.4610 0.4600 0.4590 0.4570 0.4510
1165.642000 0.4430 0.4410 0.4390 0.4380 0.4380
1174.670880 0.4380 0.4380 0.4380 0.4390 0.4400
1183.690000 0.4420 0.4420 0.4430 0.4460 0.4490
1192.718880 0.4520 0.4540 0.4600 0.4640 0.4680
1201.738000 0.4730 0.4820 0.4900 0.4950 0.5040
1210.766880 0.5140 0.5250 0.5380 0.5500 0.5620
1219.786000 0.5730 0.5830 0.5910 0.5950 0.6000
1228.814880 0.6080 0.6170 0.6190 0.6200 0.6240
1237.834000 0.6290 0.6380 0.6410 0.6430 0.6500
1246.862880 0.6530 0.6620 0.6690 0.6780 0.6840
1255.882000 0.6860 0.6880 0.6930 0.7020 0.7070
1264.910880 0.7130 0.7190 0.7240 0.7290 0.7420
1273.930000 0.7470 0.7520 0.7570 0.7590 0.7610
1282.958880 0.7620 0.7610 0.7600 0.7590 0.7560
1291.979000 0.7550 0.7530 0.7500 0.7480 0.7470
1301.007880 0.7450 0.7440 0.7430 0.7420 0.7410
1310.027000 0.7400 0.7380 0.7370 0.7350 0.7310
1319.055880 0.7270 0.7250 0.7210 0.7150 0.7130
1328.075000 0.7070 0.7030 0.6980 0.6940 0.6860
1337.103880 0.6770 0.6660 0.6550 0.6460 0.6380
1346.123000 0.6340 0.6330 0.6330 0.6320 0.6320
1355.151880 0.6320 0.6320 0.6310 0.6300 0.6280
1364.171000 0.6260 0.6240 0.6210 0.6190 0.6170
1373.199880 0.6160 0.6100 0.6070 0.5990 0.5960
1382.219000 0.5950 0.5940 0.5940 0.5940 0.5940
1391.247880 0.5940 0.5950 0.5990 0.6020 0.6110
1400.267000 0.6190 0.6200 0.6210 0.6260 0.6340
1409.295880 0.6400 0.6440 0.6460 0.6470 0.6480
1418.315000 0.6480 0.6500 0.6500 0.6510 0.6500
1427.343880 0.6480 0.6480 0.6470 0.6430 0.6410
1436.364000 0.6300 0.6190 0.6090 0.6010 0.5910
1445.392880 0.5700 0.5600 0.5370 0.5210 0.5130
1454.412000 0.4980 0.4870 0.4770 0.4750 0.4740
1463.440880 0.4740 0.4770 0.4850 0.4960 0.5150
1472.460000 0.5340 0.5510 0.5730 0.5950 0.6170
1481.488880 0.6410 0.6420 0.6420 0.6420 0.6420
1490.508000 0.6410 0.6400 0.6390 0.6360 0.6270
1499.536880 0.6180 0.6080 0.5980 0.5840 0.5810
1508.556000 0.5730 0.5730 0.5730 0.5730 0.5760
1517.584880 0.5770 0.5780 0.5790 0.5800 0.5800
1526.604000 0.5790 0.5790 0.5760 0.5690 0.5560
1535.632880 0.5390 0.5090 0.4840 0.4490 0.4300
1544.652000 0.4160 0.4070 0.4000 0.3940 0.3920
1553.680880 0.3930 0.4050 0.4080 0.4160 0.4170
1562.701000 0.4270 0.4380 0.4490 0.4580 0.4650
1571.729880 0.4700 0.4790 0.4880 0.4950 0.4960
1580.749000 0.4980 0.4990 0.4950 0.4940 0.4910
1589.777880 0.4890 0.4860 0.4820 0.4770 0.4570
1598.797000 0.4370 0.4180 0.4000 0.3910 0.3820
1607.825880 0.3650 0.3510 0.3390 0.3280 0.3210
1616.845000 0.3200 0.3090 0.2950 0.2770 0.2570
1625.873880 0.2480 0.2400 0.2300 0.2190 0.2050
1634.893000 0.1820 0.1630 0.1580 0.1570 0.1480
1643.921880 0.1400 0.1310 0.1270 0.1210 0.1180
1652.941000 0.1170 0.1170 0.1190 0.1210 0.1280
1661.969880 0.1290 0.1460 0.1560 0.1610 0.1630
1670.989000 0.1650 0.1690 0.1770 0.1850 0.1960
1680.017880 0.2020 0.2140 0.2300 0.2480 0.2690
1689.037000 0.2770 0.2860 0.2960 0.3070 0.3210
1698.065880 0.3360 0.3540 0.3740 0.4150 0.4260
1707.086000 0.4380 0.4430 0.4520 0.4650 0.4780
1716.114880 0.4940 0.5080 0.5220 0.5350 0.5450
1725.134000 0.5580 0.5760 0.5890 0.5980 0.6080
1734.162880 0.6160 0.6220 0.6300 0.6410 0.6520
1743.182000 0.6630 0.6750 0.6850 0.6940 0.7050
1752.210880 0.7090 0.7120 0.7210 0.7260 0.7410
1761.230000 0.7450 0.7500 0.7620 0.7660 0.7700
1770.258880 0.7700 0.7720 0.7730 0.7770 0.7900
1779.278000 0.7970 0.8010 0.8080 0.8170 0.8230
1788.306880 0.8270 0.8280 0.8290 0.8290 0.8300
1797.326000 0.8360 0.8390 0.8410 0.8430 0.8460
1806.354880 0.8500 0.8540 0.8580 0.8600 0.8630
1815.374000 0.8660 0.8670 0.8680 0.8690 0.8690
1824.402880 0.8720 0.8760 0.8810 0.8820 0.8820
1833.422000 0.8840 0.8860 0.8880 0.8880 0.8890
1842.450880 0.8910 0.8920 0.8920 0.8930 0.8940
1851.471000 0.8950 0.8950 0.8950 0.8960 0.8960
1860.499880 0.8970 0.8970 0.8980 0.8980 0.8990
1869.519000 0.8990 0.8990 0.8990 0.8990 0.8980
1878.547880 0.8980 0.8980 0.8970 0.8970 0.8970
1887.567000 0.8960 0.8950 0.8950 0.8950 0.8950
1896.595880 0.8950 0.8950 0.8950 0.8940 0.8940
1905.615000 0.8940 0.8920 0.8900 0.8900 0.8900
1914.643880 0.8890 0.8890 0.8880 0.8880 0.8870
1923.663000 0.8870 0.8860 0.8860 0.8860 0.8860
1932.691880 0.8850 0.8850 0.8830 0.8810 0.8790
1941.711000 0.8780 0.8780 0.8780 0.8780 0.8780
1950.739880 0.8770 0.8770 0.8770 0.8760 0.8760
1959.759000 0.8750 0.8750 0.8740 0.8730 0.8720
1968.787880 0.8710 0.8700 0.8690 0.8680 0.8660
1977.807000 0.8640 0.8620 0.8610 0.8580 0.8540
1986.835880 0.8520 0.8510 0.8500 0.8500 0.8470
1995.856000 0.8470 0.8450 0.8440 0.8430 0.8410
2004.884880 0.8380 0.8370 0.8360 0.8350 0.8340
2013.904000 0.8340 0.8330 0.8320 0.8310 0.8310
2022.932880 0.8300 0.8290 0.8280 0.8280 0.8270
2031.952000 0.8260 0.8260 0.8260 0.8240 0.8230
2040.980880 0.8220 0.8220 0.8220 0.8210 0.8210
2050.000000 0.8200 0.8190 0.8190 0.8180 0.8180
2059.028880 0.8180 0.8180 0.8170 0.8170 0.8170
2068.048000 0.8170 0.8170 0.8170 0.8160 0.8160
2077.076880 0.8160 0.8150 0.8150 0.8140 0.8140
2086.096000 0.8130 0.8130 0.8130 0.8120 0.8120
2095.124880 0.8100 0.8100 0.8090 0.8090 0.8080
2104.144000 0.8080 0.8080 0.8080 0.8070 0.8070
2113.172880 0.8060 0.8050 0.8050 0.8040 0.8040
2122.192000 0.8030 0.8030 0.8020 0.8020 0.8010
2131.220880 0.8010 0.8000 0.8000 0.8000 0.8000
2140.241000 0.8000 0.8000 0.7990 0.7990 0.7980
2149.269880 0.7980 0.7970 0.7970 0.7960 0.7960
2158.289000 0.7950 0.7950 0.7940 0.7930 0.7920
2167.317880 0.7910 0.7910 0.7900 0.7890 0.7880
2176.337000 0.7870 0.7860 0.7850 0.7850 0.7840
2185.365880 0.7840 0.7830 0.7830 0.7830 0.7820
2194.385000 0.7820 0.7820 0.7820 0.7800 0.7780
2203.413880 0.7760 0.7750 0.7730 0.7730 0.7730
2212.433000 0.7720 0.7710 0.7700 0.7690 0.7680
2221.461880 0.7670 0.7660 0.7650 0.7650 0.7640
2230.481000 0.7630 0.7620 0.7610 0.7600 0.7600
2239.509880 0.7580 0.7570 0.7540 0.7530 0.7510
2248.529000 0.7490 0.7490 0.7480 0.7480 0.7470
2257.557880 0.7460 0.7450 0.7440 0.7430 0.7420
2266.577000 0.7400 0.7390 0.7380 0.7380 0.7370
2275.605880 0.7360 0.7360 0.7350 0.7340 0.7330
2284.626000 0.7320 0.7310 0.7300 0.7300 0.7290
2293.654880 0.7290 0.7290 0.7280 0.7280 0.7270
2302.674000 0.7260 0.7250 0.7250 0.7240 0.7230
2311.702880 0.7230 0.7180 0.7130 0.7100 0.7070
2320.722000 0.7060 0.7030 0.7020 0.7010 0.7010
2329.750880 0.7000 0.7000 0.6990 0.6990 0.6990
2338.770000 0.6970 0.6960 0.6950 0.6940 0.6930
2347.798880 0.6920 0.6910 0.6900 0.6880 0.6860
2356.818000 0.6820 0.6810 0.6800 0.6790 0.6790
2365.846880 0.6790 0.6800 0.6810 0.6810 0.6820
2374.866000 0.6820 0.6820 0.6820 0.6830 0.6830
2383.894880 0.6830 0.6820 0.6820 0.6810 0.6810
2392.914000 0.6800 0.6800 0.6790 0.6780 0.6770
2401.942880 0.6760 0.6740 0.6740 0.6740 0.6730
2410.962000 0.6720 0.6700 0.6690 0.6690 0.6680
2419.990880 0.6660 0.6630 0.6610 0.6600 0.6600
2429.011000 0.6590 0.6590 0.6590 0.6580 0.6580
2438.039880 0.6570 0.6560 0.6540 0.6520 0.6500
2447.059000 0.6490 0.6490 0.6480 0.6470 0.6470
2456.087880 0.6460 0.6450 0.6450 0.6450 0.6450
2465.107000 0.6450 0.6450 0.6450 0.6450 0.6450
2474.135880 0.6450 0.6450 0.6450 0.6450 0.6440
2483.155000 0.6440 0.6430 0.6420 0.6380 0.6340
2492.183880 0.6320 0.6310 0.6290 0.6270 0.6260
2501.203000 0.6250 0.6240 0.6220 0.6210 0.6180
2510.231880 0.6180 0.6170 0.6170 0.6170 0.6160
2519.251000 0.6150 0.6150 0.6140 0.6130 0.6120
2528.279880 0.6120 0.6110 0.6100 0.6100 0.6090
2537.299000 0.6080 0.6050 0.6040 0.6030 0.6010
2546.327880 0.6000 0.5980 0.5960 0.5940 0.5920
2555.348000 0.5900 0.5900 0.5890 0.5880 0.5880
2564.376880 0.5870 0.5870 0.5860 0.5860 0.5840
2573.396000 0.5830 0.5820 0.5820 0.5810 0.5800
2582.424880 0.5790 0.5780 0.5770 0.5760 0.5760
2591.444000 0.5750 0.5740 0.5730 0.5730 0.5730
2600.472880 0.5730 0.5730 0.5730 0.5720 0.5720
2609.492000 0.5720 0.5720 0.5720 0.5720 0.5720
2618.520880 0.5720 0.5720 0.5720 0.5710 0.5710
2627.540000 0.5710 0.5710 0.5710 0.5710 0.5700
2636.568880 0.5700 0.5690 0.5690 0.5680 0.5680
2645.588000 0.5680 0.5680 0.5680 0.5680 0.5680
2654.616880 0.5680 0.5680 0.5690 0.5690 0.5690
2663.636000 0.5700 0.5700 0.5700 0.5700 0.5710
2672.664880 0.5710 0.5720 0.5720 0.5720 0.5720
2681.684000 0.5730 0.5730 0.5730 0.5730 0.5730
2690.712880 0.5730 0.5730 0.5720 0.5720 0.5700
2699.733000 0.5700 0.5690 0.5690 0.5680 0.5680
2708.761880 0.5680 0.5680 0.5670 0.5670 0.5670
2717.781000 0.5670 0.5660 0.5660 0.5660 0.5660
2726.809880 0.5650 0.5650 0.5650 0.5650 0.5650
2735.829000 0.5650 0.5650 0.5650 0.5650 0.5640
2744.857880 0.5640 0.5640 0.5640 0.5640 0.5640
2753.877000 0.5630 0.5630 0.5620 0.5610 0.5610
2762.905880 0.5600 0.5600 0.5590 0.5580 0.5570
2771.925000 0.5560 0.5560 0.5560 0.5550 0.5540
2780.953880 0.5530 0.5520 0.5510 0.5510 0.5490
2789.973000 0.5480 0.5470 0.5470 0.5440 0.5430
2799.001880 0.5410 0.5400 0.5390 0.5380 0.5370
2808.021000 0.5360 0.5350 0.5330 0.5310 0.5290
2817.049880 0.5280 0.5250 0.5250 0.5240 0.5230
2826.070000 0.5230 0.5230 0.5220 0.5210 0.5210
2835.098880 0.5210 0.5210 0.5210 0.5210 0.5210
2844.118000 0.5210 0.5210 0.5210 0.5210 0.5200
2853.146880 0.5200 0.5200 0.5200 0.5190 0.5190
2862.166000 0.5190 0.5190 0.5180 0.5170 0.5160
2871.194880 0.5150 0.5130 0.5130 0.5120 0.5110
2880.214000 0.5100 0.5090 0.5040 0.5020 0.5010
2889.242880 0.5000 0.4970 0.4970 0.4960 0.4960
2898.262000 0.4950 0.4950 0.4940 0.4930 0.4930
2907.290880 0.4920 0.4910 0.4900 0.4900 0.4890
2916.310000 0.4890 0.4880 0.4880 0.4870 0.4870
2925.338880 0.4870 0.4870 0.4870 0.4870 0.4870
2934.358000 0.4870 0.4870 0.4870 0.4870 0.4870
2943.386880 0.4870 0.4870 0.4860 0.4860 0.4860
2952.406000 0.4860 0.4860 0.4860 0.4860 0.4860
2961.434880 0.4860 0.4860 0.4860 0.4860 0.4860
2970.455000 0.4850 0.4850 0.4840 0.4840 0.4840
2979.483880 0.4830 0.4830 0.4830 0.4820 0.4820
2988.503000 0.4810 0.4810 0.4810 0.4800 0.4800
2997.531880 0.4790 0.4780 0.4780 0.4770 0.4760
3006.551000 0.4760 0.4750 0.4720 0.4700 0.4690
3015.579880 0.4680 0.4670 0.4660 0.4630 0.4600
3024.599000 0.4570 0.4560 0.4530 0.4530 0.4520
3033.627880 0.4500 0.4470 0.4450 0.4430 0.4420
3042.647000 0.4400 0.4400 0.4380 0.4360 0.4350
3051.675880 0.4310 0.4260 0.4230 0.4210 0.4190
3060.695000 0.4170 0.4150 0.4140 0.4120 0.4110
3069.723880 0.4100 0.4040 0.4000 0.4000 0.3990
3078.743000 0.3980 0.3980 0.3950 0.3910 0.3870
3087.771880 0.3860 0.3850 0.3840 0.3830 0.3810
3096.792000 0.3790 0.3740 0.3650 0.3590 0.3520
3105.820880 0.3500 0.3470 0.3460 0.3440 0.3420
3114.840000 0.3390 0.3380 0.3360 0.3340 0.3310
3123.868880 0.3290 0.3260 0.3220 0.3210 0.3190
3132.888000 0.3170 0.3160 0.3150 0.3130 0.3120
3141.916880 0.3100 0.3080 0.3060 0.3050 0.3040
3150.936000 0.3040 0.3040 0.3040 0.3040 0.3040
3159.964880 0.3030 0.3030 0.3030 0.3030 0.3030
3168.984000 0.3030 0.3030 0.3030 0.3030 0.3030
3178.012880 0.3030 0.3040 0.3040 0.3040 0.3040
3187.032000 0.3060 0.3080 0.3100 0.3120 0.3130
3196.060880 0.3130 0.3160 0.3170 0.3180 0.3200
3205.080000 0.3220 0.3240 0.3270 0.3300 0.3310
3214.108880 0.3320 0.3360 0.3360 0.3370 0.3380
3223.128000 0.3390 0.3400 0.3420 0.3470 0.3530
3232.156880 0.3530 0.3550 0.3560 0.3570 0.3570
3241.177000 0.3580 0.3590 0.3610 0.3640 0.3660
3250.205880 0.3690 0.3690 0.3700 0.3730 0.3730
3259.225000 0.3730 0.3740 0.3740 0.3730 0.3720
3268.253880 0.3710 0.3680 0.3660 0.3640 0.3620
3277.273000 0.3590 0.3570 0.3570 0.3560 0.3530
3286.301880 0.3520 0.3500 0.3440 0.3400 0.3390
3295.321000 0.3380 0.3340 0.3320 0.3310 0.3290
3304.349880 0.3270 0.3240 0.3210 0.3180 0.3140
3313.369000 0.3130 0.3070 0.3050 0.3040 0.3030
3322.397880 0.3020 0.2960 0.2930 0.2860 0.2850
3331.417000 0.2810 0.2810 0.2790 0.2780 0.2780
3340.445880 0.2780 0.2780 0.2780 0.2780 0.2770
3349.465000 0.2770 0.2770 0.2770 0.2770 0.2780
3358.493880 0.2780 0.2780 0.2780 0.2780 0.2780
3367.513000 0.2800 0.2800 0.2810 0.2810 0.2830
3376.541880 0.2860 0.2910 0.2920 0.2930 0.2930
3385.562000 0.2940 0.2940 0.2950 0.2950 0.2950
3394.590880 0.2950 0.2950 0.2950 0.2950 0.2950
3403.610000 0.2950 0.2950 0.2950 0.2950 0.2950
3412.638880 0.2950 0.2950 0.2960 0.2960 0.2970
3421.658000 0.2980 0.3000 0.3010 0.3010 0.3010
3430.686880 0.3010 0.3010 0.3010 0.3010 0.3010
3439.706000 0.3020 0.3030 0.3040 0.3040 0.3050
3448.734880 0.3060 0.3130 0.3150 0.3240 0.3260
3457.754000 0.3300 0.3340 0.3380 0.3430 0.3490
3466.782880 0.3530 0.3570 0.3630 0.3730 0.3790
3475.802000 0.3840 0.4010 0.4140 0.4280 0.4430
3484.830880 0.4580 0.4720 0.4840 0.4930 0.4990
3493.850000 0.5030 0.5090 0.5110 0.5160 0.5220
3502.878880 0.5280 0.5340 0.5400 0.5480 0.5540
3511.898000 0.5590 0.5680 0.5760 0.5800 0.5850
3520.926880 0.5870 0.5880 0.5910 0.5910 0.5950
3529.947000 0.5980 0.6020 0.6070 0.6100 0.6150
3538.975880 0.6180 0.6220 0.6260 0.6310 0.6350
3547.995000 0.6400 0.6450 0.6500 0.6560 0.6610
3557.023880 0.6630 0.6640 0.6680 0.6710 0.6760
3566.043000 0.6780 0.6830 0.6890 0.6900 0.6950
3575.071880 0.7000 0.7020 0.7040 0.7060 0.7110
3584.091000 0.7210 0.7280 0.7340 0.7390 0.7430
3593.119880 0.7460 0.7480 0.7500 0.7540 0.7550
3602.139000 0.7560 0.7580 0.7620 0.7690 0.7730
3611.167880 0.7760 0.7770 0.7780 0.7810 0.7860
3620.187000 0.7910 0.7960 0.8000 0.8100 0.8160
3629.215880 0.8190 0.8240 0.8260 0.8300 0.8310
3638.235000 0.8320 0.8330 0.8340 0.8340 0.8350
3647.263880 0.8350 0.8360 0.8380 0.8400 0.8440
3656.283000 0.8480 0.8520 0.8550 0.8560 0.8580
3665.311880 0.8580 0.8600 0.8600 0.8600 0.8600
3674.332000 0.8600 0.8600 0.8600 0.8600 0.8600
3683.360880 0.8620 0.8620 0.8620 0.8630 0.8640
3692.380000 0.8650 0.8650 0.8660 0.8660 0.8660
3701.408880 0.8660 0.8650 0.8650 0.8640 0.8640
3710.428000 0.8630 0.8630 0.8620 0.8620 0.8620
3719.456880 0.8610 0.8610 0.8610 0.8600 0.8600
3728.476000 0.8580 0.8570 0.8560 0.8560 0.8560
3737.504880 0.8560 0.8560 0.8570 0.8570 0.8570
3746.524000 0.8570 0.8570 0.8570 0.8580 0.8580
3755.552880 0.8590 0.8600 0.8600 0.8600 0.8600
3764.572000 0.8600 0.8600 0.8600 0.8600 0.8600
3773.600880 0.8600 0.8600 0.8600 0.8600 0.8600
3782.620000 0.8600 0.8600 0.8600 0.8600 0.8600
3791.648880 0.8600 0.8600 0.8600 0.8600 0.8590
3800.668000 0.8580 0.8540 0.8520 0.8500 0.8500
3809.696880 0.8490 0.8490 0.8480 0.8480 0.8480
3818.717000 0.8460 0.8440 0.8440 0.8430 0.8430
3827.745880 0.8420 0.8420 0.8410 0.8410 0.8410
3836.765000 0.8400 0.8400 0.8400 0.8390 0.8390
3845.793880 0.8390 0.8390 0.8390 0.8390 0.8390
3854.813000 0.8390 0.8390 0.8390 0.8380 0.8380
3863.841880 0.8380 0.8380 0.8380 0.8380 0.8380
3872.861000 0.8370 0.8370 0.8370 0.8370 0.8370
3881.889880 0.8370 0.8370 0.8370 0.8370 0.8370
3890.909000 0.8370 0.8370 0.8370 0.8370 0.8370
3899.937880 0.8370 0.8370 0.8370 0.8370 0.8370
3908.957000 0.8370 0.8370 0.8370 0.8370 0.8370
3917.985880 0.8370 0.8370 0.8370 0.8370 0.8370
3927.005000 0.8370 0.8370 0.8370 0.8370 0.8360
3936.033880 0.8360 0.8360 0.8360 0.8360 0.8360
3945.053000 0.8360 0.8360 0.8360 0.8360 0.8360
3954.081880 0.8370 0.8370 0.8370 0.8370 0.8370
3963.102000 0.8380 0.8380 0.8380 0.8380 0.8380
3972.130880 0.8380 0.8380 0.8380 0.8380 0.8380
3981.150000 0.8380 0.8380 0.8380 0.8380 0.8380
3990.178880 0.8380 0.8380 0.8380 0.8380 0.8380
3999.198000 0.8380 0.8380 0.8380 0.8380 0.8380
4008.226880 0.8380
##END=
