##TITLE=N^6-Carboxy-L-lysine, N-benzyl methyl ester, hydrochloride
##JCAMP-DX=4.24
$$ By DXEDIT 1.05 (RS McDonald)
##DATA TYPE=INFRARED SPECTRUM
##CLASS=COBLENTZ III
##ORIGIN=DOW CHEMICAL COMPANY
##OWNER=COPYRIGHT (C) 1988 by COBLENTZ SOCIETY INC.
Collection (C) 2018 copyright by the U.S. Secretary of Commerce
on behalf of the United States of America. All rights reserved.
##DATE=1963/10/14
##NAMES=methyl 2-amino-6-([(benzyloxy)carbonyl]amino)hexanoate hydrochloride
##MOLFORM=C15 H23 Cl N2 O4
##SOURCE REFERENCE=COBLENTZ NO. 06548
##$NIST ID=B6006548
##$NIST SOURCE=COBLENTZ
##$NIST IMAGE=cob6548
##SPECTROMETER/DATA SYSTEM=DOW KBr FOREPRISM-GRATING
##INSTRUMENT PARAMETERS=BLAZED AT 3.5, 12.0, 20.0 MICRON AND CHANGED AT 5.0, 7.5, 14.9 MICRON
##STATE=SOLID (SPLIT MULL)
##SAMPLING PROCEDURE=TRANSMISSION
##RESOLUTION=2
##DATA PROCESSING=DIGITIZED BY COBLENTZ SOCIETY (BATCH I) FROM HARD COPY
##XUNITS=1/CM
##YUNITS=TRANSMITTANCE
##XFACTOR=1
##YFACTOR=1
##DELTAX=1
##FIRSTX=3800
##LASTX=382
##FIRSTY=0.6468
##MAXX=3800
##MINX=382
##MAXY=0.9444
##MINY=0.0652
##NPOINTS=3419
##XYDATA=(X++(Y..Y))
3800.000000 0.6468 0.6468 0.6468 0.6469 0.6471
3795.000000 0.6471 0.6474 0.6475 0.6475 0.6476
3790.000000 0.6478 0.6478 0.6480 0.6481 0.6482
3785.000000 0.6483 0.6484 0.6485 0.6486 0.6487
3780.000000 0.6489 0.6490 0.6491 0.6492 0.6493
3775.000000 0.6494 0.6495 0.6496 0.6497 0.6498
3770.000000 0.6499 0.6500 0.6501 0.6503 0.6504
3765.000000 0.6505 0.6506 0.6507 0.6508 0.6508
3760.000000 0.6511 0.6511 0.6512 0.6514 0.6515
3755.000000 0.6515 0.6517 0.6518 0.6518 0.6519
3750.000000 0.6521 0.6522 0.6524 0.6525 0.6525
3745.000000 0.6526 0.6528 0.6528 0.6531 0.6532
3740.000000 0.6533 0.6534 0.6535 0.6536 0.6538
3735.000000 0.6540 0.6542 0.6543 0.6545 0.6547
3730.000000 0.6549 0.6550 0.6551 0.6554 0.6556
3725.000000 0.6557 0.6558 0.6561 0.6562 0.6564
3720.000000 0.6565 0.6568 0.6569 0.6571 0.6572
3715.000000 0.6574 0.6575 0.6578 0.6580 0.6581
3710.000000 0.6583 0.6585 0.6587 0.6588 0.6590
3705.000000 0.6592 0.6594 0.6595 0.6597 0.6599
3700.000000 0.6601 0.6601 0.6604 0.6606 0.6608
3695.000000 0.6608 0.6611 0.6612 0.6615 0.6615
3690.000000 0.6618 0.6618 0.6621 0.6622 0.6625
3685.000000 0.6625 0.6628 0.6630 0.6632 0.6633
3680.000000 0.6635 0.6637 0.6639 0.6640 0.6642
3675.000000 0.6644 0.6646 0.6647 0.6649 0.6650
3670.000000 0.6651 0.6654 0.6656 0.6657 0.6658
3665.000000 0.6661 0.6662 0.6664 0.6665 0.6667
3660.000000 0.6668 0.6671 0.6672 0.6674 0.6675
3655.000000 0.6678 0.6680 0.6681 0.6683 0.6684
3650.000000 0.6686 0.6688 0.6690 0.6691 0.6693
3645.000000 0.6694 0.6696 0.6698 0.6700 0.6701
3640.000000 0.6703 0.6705 0.6707 0.6708 0.6710
3635.000000 0.6711 0.6712 0.6715 0.6717 0.6718
3630.000000 0.6719 0.6721 0.6722 0.6725 0.6726
3625.000000 0.6728 0.6730 0.6732 0.6734 0.6735
3620.000000 0.6737 0.6738 0.6740 0.6742 0.6744
3615.000000 0.6746 0.6749 0.6751 0.6753 0.6755
3610.000000 0.6757 0.6758 0.6761 0.6762 0.6765
3605.000000 0.6767 0.6768 0.6771 0.6772 0.6775
3600.000000 0.6776 0.6778 0.6781 0.6783 0.6785
3595.000000 0.6787 0.6789 0.6791 0.6793 0.6795
3590.000000 0.6798 0.6800 0.6801 0.6804 0.6806
3585.000000 0.6808 0.6810 0.6811 0.6814 0.6815
3580.000000 0.6818 0.6819 0.6821 0.6824 0.6825
3575.000000 0.6826 0.6828 0.6830 0.6832 0.6833
3570.000000 0.6835 0.6836 0.6838 0.6839 0.6841
3565.000000 0.6842 0.6844 0.6846 0.6848 0.6849
3560.000000 0.6851 0.6851 0.6854 0.6855 0.6857
3555.000000 0.6858 0.6860 0.6861 0.6862 0.6864
3550.000000 0.6865 0.6867 0.6868 0.6869 0.6871
3545.000000 0.6874 0.6875 0.6876 0.6878 0.6880
3540.000000 0.6882 0.6883 0.6885 0.6886 0.6888
3535.000000 0.6889 0.6891 0.6892 0.6894 0.6895
3530.000000 0.6897 0.6898 0.6900 0.6901 0.6903
3525.000000 0.6904 0.6906 0.6907 0.6908 0.6910
3520.000000 0.6911 0.6912 0.6914 0.6915 0.6917
3515.000000 0.6918 0.6919 0.6921 0.6922 0.6924
3510.000000 0.6925 0.6926 0.6928 0.6930 0.6932
3505.000000 0.6933 0.6935 0.6936 0.6938 0.6940
3500.000000 0.6942 0.6944 0.6946 0.6947 0.6949
3495.000000 0.6951 0.6953 0.6955 0.6957 0.6958
3490.000000 0.6961 0.6962 0.6965 0.6967 0.6968
3485.000000 0.6971 0.6972 0.6975 0.6976 0.6976
3480.000000 0.6978 0.6978 0.6980 0.6980 0.6981
3475.000000 0.6981 0.6982 0.6982 0.6983 0.6983
3470.000000 0.6984 0.6986 0.6989 0.6991 0.6994
3465.000000 0.6996 0.6999 0.7001 0.7005 0.7007
3460.000000 0.7010 0.7014 0.7018 0.7022 0.7028
3455.000000 0.7033 0.7038 0.7043 0.7048 0.7053
3450.000000 0.7058 0.7061 0.7067 0.7071 0.7076
3445.000000 0.7082 0.7087 0.7092 0.7097 0.7101
3440.000000 0.7106 0.7111 0.7115 0.7121 0.7125
3435.000000 0.7130 0.7135 0.7139 0.7144 0.7147
3430.000000 0.7150 0.7151 0.7155 0.7158 0.7161
3425.000000 0.7162 0.7165 0.7167 0.7168 0.7169
3420.000000 0.7171 0.7171 0.7174 0.7175 0.7175
3415.000000 0.7176 0.7176 0.7176 0.7175 0.7175
3410.000000 0.7175 0.7175 0.7174 0.7172 0.7172
3405.000000 0.7171 0.7171 0.7167 0.7162 0.7158
3400.000000 0.7153 0.7148 0.7143 0.7135 0.7126
3395.000000 0.7111 0.7097 0.7082 0.7068 0.7045
3390.000000 0.7021 0.6998 0.6975 0.6951 0.6926
3385.000000 0.6903 0.6880 0.6837 0.6795 0.6751
3380.000000 0.6710 0.6643 0.6575 0.6462 0.6350
3375.000000 0.6279 0.6209 0.6137 0.6065 0.6028
3370.000000 0.5991 0.5803 0.5615 0.5427 0.5239
3365.000000 0.5051 0.4862 0.4675 0.4487 0.4299
3360.000000 0.4110 0.3923 0.3736 0.3548 0.3359
3355.000000 0.3172 0.2984 0.2846 0.2709 0.2705
3350.000000 0.2701 0.2702 0.2703 0.2710 0.2718
3345.000000 0.2784 0.2851 0.2928 0.3005 0.3082
3340.000000 0.3159 0.3236 0.3312 0.3389 0.3466
3335.000000 0.3543 0.3620 0.3697 0.3774 0.3850
3330.000000 0.3928 0.4005 0.4082 0.4158 0.4235
3325.000000 0.4312 0.4389 0.4466 0.4543 0.4620
3320.000000 0.4697 0.4774 0.4851 0.4917 0.4984
3315.000000 0.5039 0.5094 0.5147 0.5200 0.5241
3310.000000 0.5283 0.5324 0.5366 0.5407 0.5449
3305.000000 0.5491 0.5533 0.5574 0.5616 0.5656
3300.000000 0.5697 0.5733 0.5770 0.5807 0.5844
3295.000000 0.5880 0.5917 0.5953 0.5990 0.6027
3290.000000 0.6064 0.6093 0.6122 0.6150 0.6178
3285.000000 0.6206 0.6234 0.6262 0.6290 0.6318
3280.000000 0.6346 0.6374 0.6401 0.6421 0.6441
3275.000000 0.6458 0.6478 0.6496 0.6515 0.6533
3270.000000 0.6551 0.6568 0.6588 0.6606 0.6625
3265.000000 0.6643 0.6661 0.6678 0.6695 0.6705
3260.000000 0.6715 0.6725 0.6735 0.6745 0.6756
3255.000000 0.6765 0.6775 0.6786 0.6796 0.6806
3250.000000 0.6815 0.6825 0.6834 0.6841 0.6848
3245.000000 0.6855 0.6862 0.6869 0.6876 0.6884
3240.000000 0.6892 0.6899 0.6906 0.6912 0.6921
3235.000000 0.6928 0.6935 0.6942 0.6950 0.6951
3230.000000 0.6951 0.6953 0.6955 0.6956 0.6957
3225.000000 0.6958 0.6960 0.6961 0.6961 0.6962
3220.000000 0.6964 0.6965 0.6965 0.6965 0.6965
3215.000000 0.6964 0.6961 0.6960 0.6958 0.6956
3210.000000 0.6954 0.6951 0.6948 0.6939 0.6931
3205.000000 0.6921 0.6914 0.6910 0.6907 0.6903
3200.000000 0.6900 0.6896 0.6893 0.6891 0.6890
3195.000000 0.6893 0.6896 0.6899 0.6903 0.6911
3190.000000 0.6919 0.6933 0.6946 0.6953 0.6961
3185.000000 0.6967 0.6974 0.6981 0.6988 0.6995
3180.000000 0.7001 0.7007 0.7011 0.7015 0.7018
3175.000000 0.7021 0.7025 0.7028 0.7031 0.7034
3170.000000 0.7038 0.7041 0.7044 0.7047 0.7051
3165.000000 0.7053 0.7055 0.7055 0.7055 0.7054
3160.000000 0.7054 0.7054 0.7054 0.7053 0.7049
3155.000000 0.7049 0.7045 0.7040 0.7035 0.7030
3150.000000 0.7025 0.7019 0.7015 0.7008 0.7004
3145.000000 0.6999 0.6994 0.6989 0.6984 0.6971
3140.000000 0.6961 0.6949 0.6937 0.6925 0.6912
3135.000000 0.6900 0.6888 0.6875 0.6864 0.6851
3130.000000 0.6840 0.6828 0.6815 0.6800 0.6785
3125.000000 0.6768 0.6751 0.6736 0.6719 0.6703
3120.000000 0.6687 0.6669 0.6654 0.6638 0.6621
3115.000000 0.6605 0.6589 0.6568 0.6550 0.6524
3110.000000 0.6498 0.6471 0.6446 0.6418 0.6393
3105.000000 0.6367 0.6341 0.6315 0.6289 0.6253
3100.000000 0.6217 0.6179 0.6141 0.6101 0.6062
3095.000000 0.6019 0.5976 0.5932 0.5889 0.5824
3090.000000 0.5759 0.5746 0.5734 0.5734 0.5734
3085.000000 0.5734 0.5734 0.5734 0.5735 0.5716
3080.000000 0.5698 0.5638 0.5579 0.5519 0.5459
3075.000000 0.5404 0.5349 0.5294 0.5240 0.5191
3070.000000 0.5142 0.5093 0.5045 0.5007 0.4970
3065.000000 0.4933 0.4896 0.4859 0.4822 0.4782
3060.000000 0.4742 0.4699 0.4656 0.4612 0.4569
3055.000000 0.4532 0.4495 0.4459 0.4424 0.4389
3050.000000 0.4354 0.4319 0.4284 0.4246 0.4208
3045.000000 0.4159 0.4110 0.4062 0.4012 0.3964
3040.000000 0.3916 0.3866 0.3816 0.3749 0.3682
3035.000000 0.3641 0.3600 0.3582 0.3566 0.3564
3030.000000 0.3564 0.3562 0.3560 0.3559 0.3559
3025.000000 0.3557 0.3556 0.3554 0.3552 0.3549
3020.000000 0.3547 0.3544 0.3541 0.3539 0.3537
3015.000000 0.3527 0.3518 0.3494 0.3470 0.3445
3010.000000 0.3421 0.3398 0.3376 0.3356 0.3336
3005.000000 0.3316 0.3297 0.3277 0.3257 0.3242
3000.000000 0.3228 0.3218 0.3208 0.3197 0.3187
2995.000000 0.3177 0.3167 0.3163 0.3159 0.3154
2990.000000 0.3150 0.3146 0.3143 0.3140 0.3137
2985.000000 0.3134 0.3131 0.3128 0.3125 0.3122
2980.000000 0.3119 0.3116 0.3113 0.3110 0.3107
2975.000000 0.3098 0.3090 0.3082 0.3074 0.3051
2970.000000 0.3028 0.2967 0.2907 0.2837 0.2768
2965.000000 0.2712 0.2656 0.2603 0.2550 0.2508
2960.000000 0.2467 0.2438 0.2410 0.2410 0.2411
2955.000000 0.2412 0.2414 0.2415 0.2417 0.2418
2950.000000 0.2418 0.2419 0.2419 0.2418 0.2418
2945.000000 0.2417 0.2417 0.2416 0.2416 0.2415
2940.000000 0.2415 0.2414 0.2414 0.2413 0.2413
2935.000000 0.2418 0.2424 0.2430 0.2435 0.2442
2930.000000 0.2448 0.2458 0.2468 0.2480 0.2492
2925.000000 0.2503 0.2515 0.2527 0.2539 0.2550
2920.000000 0.2561 0.2565 0.2570 0.2575 0.2580
2915.000000 0.2584 0.2589 0.2589 0.2589 0.2589
2910.000000 0.2589 0.2585 0.2584 0.2580 0.2610
2905.000000 0.2573 0.2569 0.2565 0.2561 0.2546
2900.000000 0.2531 0.2515 0.2500 0.2484 0.2469
2895.000000 0.2447 0.2426 0.2399 0.2373 0.2347
2890.000000 0.2321 0.2292 0.2264 0.2231 0.2198
2885.000000 0.2166 0.2134 0.2107 0.2080 0.2053
2880.000000 0.2027 0.2004 0.1981 0.1963 0.1945
2875.000000 0.1933 0.1921 0.1912 0.1904 0.1899
2870.000000 0.1894 0.1890 0.1884 0.1879 0.1875
2865.000000 0.1872 0.1869 0.1866 0.1877 0.1860
2860.000000 0.1857 0.1854 0.1854 0.1854 0.1858
2855.000000 0.1862 0.1867 0.1872 0.1877 0.1889
2850.000000 0.1901 0.1913 0.1925 0.1939 0.1953
2845.000000 0.1970 0.1987 0.2004 0.2023 0.2040
2840.000000 0.2058 0.2076 0.2094 0.2112 0.2131
2835.000000 0.2149 0.2168 0.2185 0.2204 0.2222
2830.000000 0.2241 0.2259 0.2278 0.2306 0.2334
2825.000000 0.2363 0.2393 0.2422 0.2452 0.2481
2820.000000 0.2511 0.2539 0.2568 0.2596 0.2625
2815.000000 0.2653 0.2682 0.2710 0.2739 0.2767
2810.000000 0.2796 0.2829 0.2862 0.2895 0.2928
2805.000000 0.2961 0.2994 0.3027 0.3061 0.3094
2800.000000 0.3127 0.3150 0.3174 0.3194 0.3214
2795.000000 0.3234 0.3256 0.3276 0.3297 0.3318
2790.000000 0.3339 0.3359 0.3380 0.3400 0.3421
2785.000000 0.3441 0.3460 0.3479 0.3497 0.3514
2780.000000 0.3532 0.3550 0.3570 0.3588 0.3606
2775.000000 0.3624 0.3642 0.3659 0.3679 0.3698
2770.000000 0.3716 0.3739 0.3762 0.3784 0.3807
2765.000000 0.3829 0.3852 0.3872 0.3892 0.3906
2760.000000 0.3920 0.3934 0.3948 0.3959 0.3970
2755.000000 0.3979 0.3988 0.3997 0.4007 0.4016
2750.000000 0.4026 0.4034 0.4042 0.4049 0.4057
2745.000000 0.4064 0.4071 0.4078 0.4086 0.4094
2740.000000 0.4103 0.4121 0.4140 0.4158 0.4176
2735.000000 0.4194 0.4212 0.4230 0.4248 0.4266
2730.000000 0.4284 0.4303 0.4322 0.4343 0.4364
2725.000000 0.4385 0.4407 0.4428 0.4449 0.4470
2720.000000 0.4491 0.4512 0.4534 0.4555 0.4576
2715.000000 0.4593 0.4610 0.4626 0.4641 0.4656
2710.000000 0.4672 0.4687 0.4703 0.4718 0.4734
2705.000000 0.4749 0.4764 0.4778 0.4793 0.4808
2700.000000 0.4823 0.4837 0.4852 0.4867 0.4882
2695.000000 0.4894 0.4907 0.4919 0.4931 0.4943
2690.000000 0.4955 0.4966 0.4977 0.4988 0.4999
2685.000000 0.5009 0.5020 0.5031 0.5042 0.5053
2680.000000 0.5064 0.5072 0.5080 0.5087 0.5095
2675.000000 0.5100 0.5100 0.5100 0.5096 0.5092
2670.000000 0.5089 0.5085 0.5084 0.5083 0.5084
2665.000000 0.5086 0.5088 0.5089 0.5090 0.5090
2660.000000 0.5091 0.5091 0.5092 0.5092 0.5092
2655.000000 0.5083 0.5112 0.5056 0.5038 0.5014
2650.000000 0.4991 0.4966 0.4941 0.4916 0.4891
2645.000000 0.4870 0.4849 0.4827 0.4806 0.4780
2640.000000 0.4755 0.4735 0.4716 0.4701 0.4687
2635.000000 0.4678 0.4669 0.4660 0.4651 0.4643
2630.000000 0.4636 0.4636 0.4636 0.4636 0.4636
2625.000000 0.4640 0.4645 0.4660 0.4676 0.4692
2620.000000 0.4708 0.4724 0.4741 0.4760 0.4782
2615.000000 0.4807 0.4833 0.4859 0.4885 0.4910
2610.000000 0.4936 0.4960 0.4984 0.5005 0.5026
2605.000000 0.5047 0.5069 0.5090 0.5110 0.5132
2600.000000 0.5153 0.5174 0.5196 0.5216 0.5237
2595.000000 0.5257 0.5278 0.5297 0.5317 0.5328
2590.000000 0.5340 0.5347 0.5354 0.5358 0.5362
2585.000000 0.5366 0.5371 0.5375 0.5379 0.5383
2580.000000 0.5388 0.5396 0.5405 0.5414 0.5424
2575.000000 0.5434 0.5444 0.5454 0.5464 0.5473
2570.000000 0.5483 0.5495 0.5507 0.5522 0.5537
2565.000000 0.5551 0.5566 0.5581 0.5596 0.5610
2560.000000 0.5625 0.5640 0.5655 0.5669 0.5684
2555.000000 0.5699 0.5715 0.5730 0.5746 0.5762
2550.000000 0.5778 0.5794 0.5810 0.5826 0.5842
2545.000000 0.5858 0.5874 0.5891 0.5909 0.5926
2540.000000 0.5943 0.5960 0.5978 0.5995 0.6012
2535.000000 0.6030 0.6048 0.6062 0.6077 0.6091
2530.000000 0.6105 0.6118 0.6132 0.6146 0.6160
2525.000000 0.6173 0.6187 0.6195 0.6203 0.6210
2520.000000 0.6218 0.6225 0.6233 0.6240 0.6248
2515.000000 0.6255 0.6262 0.6270 0.6278 0.6285
2510.000000 0.6292 0.6295 0.6299 0.6302 0.6306
2505.000000 0.6309 0.6312 0.6315 0.6318 0.6320
2500.000000 0.6323 0.6325 0.6328 0.6330 0.6333
2495.000000 0.6337 0.6341 0.6346 0.6351 0.6355
2490.000000 0.6360 0.6365 0.6370 0.6375 0.6380
2485.000000 0.6385 0.6390 0.6396 0.6401 0.6408
2480.000000 0.6415 0.6421 0.6428 0.6435 0.6442
2475.000000 0.6449 0.6456 0.6461 0.6468 0.6475
2470.000000 0.6482 0.6488 0.6495 0.6500 0.6506
2465.000000 0.6511 0.6515 0.6521 0.6525 0.6531
2460.000000 0.6536 0.6541 0.6547 0.6551 0.6557
2455.000000 0.6561 0.6567 0.6571 0.6576 0.6582
2450.000000 0.6587 0.6592 0.6597 0.6601 0.6607
2445.000000 0.6611 0.6617 0.6621 0.6626 0.6631
2440.000000 0.6636 0.6641 0.6646 0.6650 0.6655
2435.000000 0.6660 0.6665 0.6668 0.6674 0.6678
2430.000000 0.6684 0.6688 0.6693 0.6698 0.6703
2425.000000 0.6706 0.6710 0.6712 0.6715 0.6718
2420.000000 0.6721 0.6724 0.6726 0.6730 0.6733
2415.000000 0.6736 0.6739 0.6742 0.6745 0.6748
2410.000000 0.6751 0.6754 0.6757 0.6760 0.6762
2405.000000 0.6765 0.6767 0.6768 0.6771 0.6772
2400.000000 0.6775 0.6778 0.6781 0.6783 0.6786
2395.000000 0.6789 0.6792 0.6795 0.6798 0.6801
2390.000000 0.6804 0.6806 0.6808 0.6811 0.6815
2385.000000 0.6817 0.6818 0.6819 0.6825 0.6821
2380.000000 0.6822 0.6822 0.6822 0.6821 0.6821
2375.000000 0.6819 0.6818 0.6815 0.6812 0.6808
2370.000000 0.6803 0.6798 0.6794 0.6790 0.6787
2365.000000 0.6785 0.6784 0.6783 0.6782 0.6780
2360.000000 0.6778 0.6776 0.6775 0.6775 0.6774
2355.000000 0.6771 0.6771 0.6769 0.6768 0.6767
2350.000000 0.6765 0.6765 0.6764 0.6764 0.6764
2345.000000 0.6764 0.6764 0.6764 0.6765 0.6765
2340.000000 0.6765 0.6765 0.6765 0.6765 0.6765
2335.000000 0.6765 0.6765 0.6765 0.6765 0.6771
2330.000000 0.6775 0.6782 0.6765 0.6795 0.6801
2325.000000 0.6808 0.6815 0.6822 0.6831 0.6838
2320.000000 0.6846 0.6853 0.6860 0.6865 0.6871
2315.000000 0.6875 0.6882 0.6887 0.6892 0.6897
2310.000000 0.6903 0.6908 0.6914 0.6918 0.6924
2305.000000 0.6928 0.6935 0.6940 0.6945 0.6950
2300.000000 0.6956 0.6961 0.6965 0.6971 0.6975
2295.000000 0.6981 0.6987 0.6992 0.6997 0.7001
2290.000000 0.7007 0.7011 0.7018 0.7022 0.7028
2285.000000 0.7033 0.7039 0.7044 0.7049 0.7054
2280.000000 0.7058 0.7064 0.7069 0.7075 0.7080
2275.000000 0.7085 0.7090 0.7095 0.7101 0.7107
2270.000000 0.7114 0.7121 0.7131 0.7139 0.7147
2265.000000 0.7155 0.7162 0.7171 0.7178 0.7187
2260.000000 0.7196 0.7204 0.7211 0.7219 0.7228
2255.000000 0.7236 0.7244 0.7251 0.7260 0.7267
2250.000000 0.7275 0.7282 0.7290 0.7297 0.7305
2245.000000 0.7311 0.7319 0.7326 0.7335 0.7342
2240.000000 0.7350 0.7357 0.7365 0.7371 0.7380
2235.000000 0.7387 0.7395 0.7401 0.7408 0.7415
2230.000000 0.7424 0.7431 0.7439 0.7443 0.7447
2225.000000 0.7451 0.7455 0.7458 0.7462 0.7467
2220.000000 0.7471 0.7475 0.7478 0.7483 0.7487
2215.000000 0.7491 0.7495 0.7499 0.7503 0.7507
2210.000000 0.7511 0.7515 0.7518 0.7522 0.7526
2205.000000 0.7531 0.7535 0.7539 0.7543 0.7547
2200.000000 0.7551 0.7555 0.7558 0.7562 0.7567
2195.000000 0.7571 0.7575 0.7578 0.7583 0.7587
2190.000000 0.7592 0.7596 0.7601 0.7605 0.7610
2185.000000 0.7614 0.7618 0.7621 0.7626 0.7631
2180.000000 0.7636 0.7640 0.7645 0.7649 0.7654
2175.000000 0.7658 0.7662 0.7667 0.7671 0.7675
2170.000000 0.7681 0.7685 0.7690 0.7694 0.7699
2165.000000 0.7703 0.7708 0.7711 0.7717 0.7721
2160.000000 0.7725 0.7730 0.7735 0.7739 0.7744
2155.000000 0.7748 0.7753 0.7757 0.7761 0.7765
2150.000000 0.7771 0.7774 0.7778 0.7780 0.7783
2145.000000 0.7785 0.7787 0.7789 0.7792 0.7794
2140.000000 0.7797 0.7799 0.7801 0.7804 0.7806
2135.000000 0.7808 0.7811 0.7812 0.7815 0.7818
2130.000000 0.7821 0.7822 0.7825 0.7828 0.7830
2125.000000 0.7832 0.7835 0.7837 0.7839 0.7841
2120.000000 0.7843 0.7844 0.7846 0.7847 0.7849
2115.000000 0.7850 0.7851 0.7853 0.7855 0.7857
2110.000000 0.7858 0.7860 0.7861 0.7862 0.7865
2105.000000 0.7865 0.7868 0.7868 0.7871 0.7872
2100.000000 0.7875 0.7875 0.7878 0.7878 0.7881
2095.000000 0.7883 0.7885 0.7887 0.7889 0.7890
2090.000000 0.7892 0.7894 0.7896 0.7897 0.7899
2085.000000 0.7901 0.7903 0.7905 0.7907 0.7908
2080.000000 0.7911 0.7914 0.7915 0.7918 0.7919
2075.000000 0.7921 0.7924 0.7925 0.7928 0.7928
2070.000000 0.7931 0.7931 0.7931 0.7930 0.7928
2065.000000 0.7928 0.7926 0.7925 0.7924 0.7918
2060.000000 0.7915 0.7910 0.7906 0.7901 0.7897
2055.000000 0.7892 0.7888 0.7883 0.7878 0.7874
2050.000000 0.7869 0.7865 0.7861 0.7855 0.7850
2045.000000 0.7843 0.7837 0.7830 0.7824 0.7818
2040.000000 0.7811 0.7805 0.7799 0.7792 0.7786
2035.000000 0.7778 0.7771 0.7764 0.7756 0.7748
2030.000000 0.7740 0.7731 0.7722 0.7718 0.7712
2025.000000 0.7708 0.7705 0.7701 0.7697 0.7693
2020.000000 0.7689 0.7683 0.7678 0.7671 0.7667
2015.000000 0.7661 0.7655 0.7649 0.7637 0.7637
2010.000000 0.7638 0.7638 0.7639 0.7639 0.7640
2005.000000 0.7646 0.7651 0.7658 0.7665 0.7700
2000.000000 0.7736 0.7780 0.7791 0.7800 0.7804
1995.000000 0.7808 0.7814 0.7818 0.7822 0.7828
1990.000000 0.7834 0.7841 0.7848 0.7855 0.7861
1985.000000 0.7868 0.7876 0.7884 0.7892 0.7899
1980.000000 0.7906 0.7912 0.7919 0.7926 0.7933
1975.000000 0.7940 0.7947 0.7957 0.7968 0.7982
1970.000000 0.7995 0.8010 0.8025 0.8041 0.8057
1965.000000 0.8071 0.8097 0.8135 0.8183 0.8213
1960.000000 0.8238 0.8239 0.8234 0.8224 0.8214
1955.000000 0.8214 0.8217 0.8221 0.8225 0.8236
1950.000000 0.8246 0.8254 0.8262 0.8268 0.8277
1945.000000 0.8284 0.8292 0.8299 0.8307 0.8314
1940.000000 0.8321 0.8328 0.8337 0.8342 0.8347
1935.000000 0.8352 0.8357 0.8362 0.8368 0.8373
1930.000000 0.8378 0.8383 0.8388 0.8393 0.8398
1925.000000 0.8402 0.8407 0.8412 0.8417 0.8421
1920.000000 0.8425 0.8431 0.8436 0.8441 0.8445
1915.000000 0.8450 0.8455 0.8459 0.8463 0.8467
1910.000000 0.8471 0.8475 0.8478 0.8483 0.8487
1905.000000 0.8490 0.8494 0.8498 0.8502 0.8505
1900.000000 0.8508 0.8510 0.8513 0.8516 0.8518
1895.000000 0.8521 0.8523 0.8525 0.8525 0.8527
1890.000000 0.8528 0.8531 0.8538 0.8545 0.8552
1885.000000 0.8560 0.8562 0.8564 0.8566 0.8567
1880.000000 0.8571 0.8578 0.8584 0.8589 0.8590
1875.000000 0.8590 0.8590 0.8583 0.8575 0.8560
1870.000000 0.8555 0.8550 0.8543 0.8534 0.8525
1865.000000 0.8521 0.8521 0.8528 0.8536 0.8542
1860.000000 0.8549 0.8555 0.8562 0.8570 0.8583
1855.000000 0.8596 0.8609 0.8621 0.8634 0.8638
1850.000000 0.8642 0.8647 0.8651 0.8655 0.8659
1845.000000 0.8664 0.8668 0.8671 0.8675 0.8680
1840.000000 0.8684 0.8687 0.8691 0.8695 0.8699
1835.000000 0.8703 0.8706 0.8710 0.8712 0.8714
1830.000000 0.8716 0.8718 0.8720 0.8721 0.8724
1825.000000 0.8725 0.8728 0.8728 0.8728 0.8728
1820.000000 0.8727 0.8725 0.8725 0.8724 0.8723
1815.000000 0.8721 0.8717 0.8712 0.8708 0.8703
1810.000000 0.8699 0.8694 0.8690 0.8687 0.8685
1805.000000 0.8683 0.8681 0.8681 0.8680 0.8682
1800.000000 0.8683 0.8685 0.8687 0.8689 0.8690
1795.000000 0.8692 0.8696 0.8701 0.8705 0.8710
1790.000000 0.8714 0.8718 0.8723 0.8728 0.8732
1785.000000 0.8737 0.8742 0.8747 0.8752 0.8758
1780.000000 0.8763 0.8768 0.8773 0.8777 0.8781
1775.000000 0.8786 0.8790 0.8795 0.8798 0.8802
1770.000000 0.8806 0.8810 0.8811 0.8811 0.8811
1765.000000 0.8811 0.8811 0.8828 0.8804 0.8793
1760.000000 0.8783 0.8763 0.8733 0.8691 0.8627
1755.000000 0.8563 0.8452 0.8323 0.8148 0.7893
1750.000000 0.6924 0.6608 0.6059 0.5907 0.5334
1745.000000 0.4738 0.4142 0.3546 0.2950 0.2354
1740.000000 0.2048 0.1972 0.1927 0.1723 0.1491
1735.000000 0.1258 0.1220 0.1217 0.1216 0.1216
1730.000000 0.2421 0.2857 0.3294 0.3730 0.4167
1725.000000 0.4604 0.5040 0.5477 0.5912 0.6350
1720.000000 0.6628 0.6715 0.6746 0.6762 0.6769
1715.000000 0.6771 0.6771 0.6756 0.6704 0.6544
1710.000000 0.6461 0.6382 0.6304 0.5605 0.4822
1705.000000 0.4038 0.3255 0.2471 0.1687 0.1062
1700.000000 0.0963 0.0920 0.0876 0.0836 0.0777
1695.000000 0.0778 0.0779 0.0776 0.0799 0.0846
1690.000000 0.0912 0.1015 0.1202 0.1346 0.1491
1685.000000 0.1984 0.2163 0.2397 0.2769 0.3142
1680.000000 0.3514 0.3887 0.4259 0.4620 0.4943
1675.000000 0.5127 0.5310 0.5452 0.5588 0.5715
1670.000000 0.5812 0.5910 0.6007 0.6078 0.6147
1665.000000 0.6216 0.6242 0.6266 0.6291 0.6310
1660.000000 0.6330 0.6350 0.6369 0.6389 0.6408
1655.000000 0.6436 0.6475 0.6517 0.6751 0.6874
1650.000000 0.6926 0.6971 0.7017 0.7061 0.7105
1645.000000 0.7147 0.7188 0.7230 0.7271 0.7310
1640.000000 0.7346 0.7381 0.7417 0.7445 0.7474
1635.000000 0.7503 0.7525 0.7549 0.7571 0.7595
1630.000000 0.7615 0.7633 0.7649 0.7665 0.7678
1625.000000 0.7685 0.7692 0.7699 0.7707 0.7714
1620.000000 0.7725 0.7737 0.7750 0.7761 0.7774
1615.000000 0.7865 0.7811 0.7837 0.7847 0.7857
1610.000000 0.7867 0.7848 0.7811 0.7788 0.7778
1605.000000 0.7768 0.7758 0.7748 0.7736 0.7722
1600.000000 0.7681 0.7622 0.7498 0.7372 0.7245
1595.000000 0.7115 0.6801 0.6706 0.6601 0.6475
1590.000000 0.6176 0.5768 0.5786 0.5765 0.5754
1585.000000 0.5794 0.5847 0.5900 0.5953 0.6048
1580.000000 0.6158 0.6371 0.6468 0.6565 0.6669
1575.000000 0.6783 0.6883 0.6940 0.6960 0.6968
1570.000000 0.6974 0.6978 0.6983 0.6983 0.6982
1565.000000 0.6951 0.6905 0.6824 0.6742 0.6582
1560.000000 0.6383 0.6158 0.5557 0.5382 0.5058
1555.000000 0.4706 0.4354 0.4002 0.3649 0.3297
1550.000000 0.2945 0.2593 0.2241 0.1889 0.1769
1545.000000 0.1731 0.1711 0.1706 0.1678 0.1735
1540.000000 0.1794 0.1862 0.1944 0.2026 0.2113
1535.000000 0.2211 0.2310 0.2411 0.2520 0.2648
1530.000000 0.2726 0.2776 0.2826 0.2896 0.2973
1525.000000 0.3068 0.3196 0.3339 0.3475 0.3579
1520.000000 0.3702 0.3762 0.3716 0.3720 0.3677
1515.000000 0.3604 0.3446 0.3119 0.3087 0.3087
1510.000000 0.3088 0.3088 0.3075 0.3054 0.2995
1505.000000 0.2994 0.2994 0.3011 0.3090 0.3255
1500.000000 0.3412 0.3559 0.3820 0.4080 0.4340
1495.000000 0.4600 0.4700 0.4872 0.5062 0.5254
1490.000000 0.5445 0.5624 0.5655 0.5646 0.5650
1485.000000 0.5548 0.5426 0.5186 0.5186 0.5178
1480.000000 0.5179 0.5259 0.5395 0.5532 0.5669
1475.000000 0.5805 0.5942 0.6079 0.6215 0.6321
1470.000000 0.6331 0.6327 0.6324 0.6319 0.5607
1465.000000 0.5210 0.4815 0.4734 0.4739 0.4730
1460.000000 0.4587 0.4444 0.4301 0.4158 0.4014
1455.000000 0.3939 0.3988 0.4012 0.4224 0.4687
1450.000000 0.5087 0.5210 0.5334 0.5457 0.5580
1445.000000 0.5703 0.5827 0.5889 0.5937 0.5907
1440.000000 0.5752 0.5573 0.5394 0.5215 0.5036
1435.000000 0.5035 0.5034 0.5069 0.5295 0.5862
1430.000000 0.6107 0.6242 0.6295 0.6349 0.6401
1425.000000 0.6451 0.6495 0.6539 0.6582 0.6621
1420.000000 0.6653 0.6686 0.6718 0.6750 0.6780
1415.000000 0.6798 0.6815 0.6833 0.6845 0.6855
1410.000000 0.6862 0.6868 0.6903 0.6858 0.6786
1405.000000 0.6656 0.6535 0.6425 0.6301 0.6241
1400.000000 0.6289 0.6288 0.6300 0.6370 0.6432
1395.000000 0.6485 0.6539 0.6592 0.6640 0.6686
1390.000000 0.6732 0.6765 0.6799 0.6832 0.6857
1385.000000 0.6882 0.6895 0.6898 0.6901 0.6901
1380.000000 0.6904 0.6900 0.6895 0.6891 0.6861
1375.000000 0.6800 0.6735 0.6671 0.6619 0.6596
1370.000000 0.6590 0.6561 0.6600 0.6607 0.6614
1365.000000 0.6621 0.6628 0.6634 0.6641 0.6642
1360.000000 0.6643 0.6643 0.6564 0.6428 0.6314
1355.000000 0.6143 0.5910 0.5678 0.5445 0.5254
1350.000000 0.5236 0.5232 0.5231 0.5215 0.5271
1345.000000 0.5304 0.5336 0.5367 0.5396 0.5424
1340.000000 0.5459 0.5515 0.5516 0.5517 0.5517
1335.000000 0.5517 0.5538 0.5485 0.5422 0.5250
1330.000000 0.4860 0.4469 0.4168 0.4167 0.4141
1325.000000 0.4499 0.4717 0.4934 0.5152 0.5370
1320.000000 0.5587 0.5753 0.5766 0.5774 0.5789
1315.000000 0.5676 0.5462 0.5298 0.5140 0.5128
1310.000000 0.5133 0.5140 0.5140 0.5141 0.5107
1305.000000 0.4925 0.4784 0.4643 0.4502 0.4360
1300.000000 0.4339 0.4329 0.4350 0.4484 0.4618
1295.000000 0.4751 0.4852 0.4857 0.4859 0.4870
1290.000000 0.4472 0.4110 0.3750 0.3390 0.3029
1285.000000 0.2668 0.2308 0.1946 0.1586 0.1430
1280.000000 0.1385 0.1427 0.1681 0.1935 0.2191
1275.000000 0.2446 0.2700 0.2955 0.3209 0.3464
1270.000000 0.3527 0.3528 0.3542 0.3391 0.3101
1265.000000 0.2811 0.2521 0.2231 0.1941 0.1651
1260.000000 0.1360 0.1314 0.1210 0.1106 0.1003
1255.000000 0.0899 0.0796 0.0688 0.0652 0.0659
1250.000000 0.0685 0.0779 0.0869 0.0965 0.1072
1245.000000 0.1179 0.1277 0.1374 0.1469 0.1558
1240.000000 0.1714 0.1924 0.2134 0.2344 0.2554
1235.000000 0.2764 0.2974 0.3184 0.3395 0.3605
1230.000000 0.3814 0.4025 0.4235 0.4445 0.4655
1225.000000 0.4865 0.5060 0.5223 0.5489 0.5615
1220.000000 0.5701 0.5755 0.5798 0.5828 0.5837
1215.000000 0.5843 0.5848 0.5847 0.5858 0.5855
1210.000000 0.5849 0.5834 0.5612 0.5289 0.4964
1205.000000 0.4640 0.4508 0.4502 0.4506 0.4609
1200.000000 0.4787 0.4964 0.5142 0.5319 0.5497
1195.000000 0.5674 0.5852 0.5997 0.6069 0.6122
1190.000000 0.6146 0.6162 0.6164 0.6176 0.6187
1185.000000 0.6224 0.6280 0.6333 0.6383 0.6438
1180.000000 0.6496 0.6551 0.6578 0.6596 0.6614
1175.000000 0.6625 0.6644 0.6622 0.6484 0.6148
1170.000000 0.6045 0.5989 0.5973 0.5972 0.5972
1165.000000 0.5976 0.6042 0.6104 0.6124 0.6129
1160.000000 0.6133 0.6132 0.6120 0.5974 0.5826
1155.000000 0.5679 0.5531 0.5383 0.5235 0.5186
1150.000000 0.5209 0.5178 0.5227 0.5328 0.5442
1145.000000 0.5554 0.5648 0.5742 0.5828 0.5910
1140.000000 0.5945 0.5952 0.5976 0.6014 0.6060
1135.000000 0.6143 0.6294 0.6445 0.6596 0.6747
1130.000000 0.6898 0.7018 0.7110 0.7046 0.7055
1125.000000 0.7057 0.7051 0.7005 0.6796 0.6565
1120.000000 0.6498 0.6450 0.6443 0.6443 0.6442
1115.000000 0.6458 0.6493 0.6547 0.6575 0.6683
1110.000000 0.6858 0.6985 0.7064 0.7143 0.7234
1105.000000 0.7351 0.7435 0.7507 0.7550 0.7593
1100.000000 0.7635 0.7665 0.7692 0.7718 0.7741
1095.000000 0.7757 0.7771 0.7775 0.7791 0.7778
1090.000000 0.7772 0.7765 0.7748 0.7715 0.7674
1085.000000 0.7575 0.7490 0.7405 0.7318 0.7234
1080.000000 0.7149 0.7078 0.7067 0.7118 0.7225
1075.000000 0.7331 0.7437 0.7542 0.7592 0.7635
1070.000000 0.7656 0.7668 0.7671 0.7665 0.7644
1065.000000 0.7571 0.7401 0.7282 0.7151 0.7061
1060.000000 0.7017 0.7012 0.7028 0.7044 0.7065
1055.000000 0.7075 0.7078 0.7055 0.6315 0.5666
1050.000000 0.5632 0.5641 0.5660 0.5746 0.5939
1045.000000 0.6131 0.6323 0.6515 0.6708 0.6900
1040.000000 0.7092 0.7207 0.7260 0.7308 0.7349
1035.000000 0.7384 0.7393 0.7401 0.7422 0.7408
1030.000000 0.7308 0.6934 0.6545 0.6156 0.5767
1025.000000 0.5378 0.4989 0.4718 0.4695 0.4716
1020.000000 0.4949 0.5188 0.5428 0.5667 0.5906
1015.000000 0.6145 0.6385 0.6449 0.6425 0.6139
1010.000000 0.5539 0.5212 0.5189 0.5197 0.5224
1005.000000 0.5308 0.5456 0.5671 0.6000 0.6365
1000.000000 0.6731 0.7087 0.7160 0.7232 0.7293
995.000000 0.7354 0.7412 0.7472 0.7522 0.7569
990.000000 0.7621 0.7671 0.7699 0.7706 0.7719
985.000000 0.7718 0.7701 0.7683 0.7647 0.7615
980.000000 0.7601 0.7608 0.7622 0.7639 0.7654
975.000000 0.7668 0.7682 0.7693 0.7685 0.7611
970.000000 0.7458 0.7357 0.7361 0.7372 0.7386
965.000000 0.7454 0.7548 0.7645 0.7738 0.7808
960.000000 0.7878 0.7943 0.8001 0.8036 0.8057
955.000000 0.8078 0.8087 0.8088 0.8089 0.8105
950.000000 0.8119 0.8138 0.8160 0.8183 0.8205
945.000000 0.8215 0.8225 0.8227 0.8231 0.8215
940.000000 0.8051 0.7822 0.7593 0.7364 0.7135
935.000000 0.6938 0.6926 0.6926 0.6928 0.7332
930.000000 0.7501 0.7668 0.7801 0.7887 0.7974
925.000000 0.8040 0.8086 0.8133 0.8175 0.8211
920.000000 0.8248 0.8275 0.8293 0.8307 0.8311
915.000000 0.8315 0.8328 0.8321 0.8324 0.8327
910.000000 0.8299 0.8232 0.8157 0.8019 0.7878
905.000000 0.7776 0.7717 0.7661 0.7614 0.7586
900.000000 0.7585 0.7584 0.7587 0.7638 0.7761
895.000000 0.7865 0.7964 0.8024 0.8084 0.8143
890.000000 0.8203 0.8261 0.8317 0.8374 0.8421
885.000000 0.8459 0.8494 0.8513 0.8531 0.8549
880.000000 0.8565 0.8571 0.8580 0.8587 0.8594
875.000000 0.8602 0.8609 0.8615 0.8617 0.8618
870.000000 0.8620 0.8621 0.8623 0.8623 0.8621
865.000000 0.8617 0.8613 0.8608 0.8600 0.8578
860.000000 0.8555 0.8533 0.8495 0.8457 0.8333
855.000000 0.8147 0.7948 0.7749 0.7550 0.7351
850.000000 0.7235 0.7226 0.7261 0.7368 0.7475
845.000000 0.7582 0.7688 0.7795 0.7901 0.8008
840.000000 0.8097 0.8145 0.8194 0.8242 0.8287
835.000000 0.8325 0.8362 0.8400 0.8434 0.8454
830.000000 0.8474 0.8495 0.8515 0.8531 0.8543
825.000000 0.8555 0.8593 0.8565 0.8568 0.8570
820.000000 0.8573 0.8571 0.8571 0.8565 0.8559
815.000000 0.8531 0.8503 0.8421 0.8141 0.8012
810.000000 0.7945 0.7938 0.7936 0.7958 0.8026
805.000000 0.8115 0.8207 0.8297 0.8366 0.8411
800.000000 0.8456 0.8499 0.8528 0.8553 0.8571
795.000000 0.8578 0.8588 0.8596 0.8597 0.8597
790.000000 0.8563 0.8487 0.8243 0.7954 0.7665
785.000000 0.7378 0.7089 0.6801 0.6512 0.6229
780.000000 0.6228 0.6243 0.6607 0.7034 0.7211
775.000000 0.7255 0.7292 0.7328 0.7368 0.7489
770.000000 0.7830 0.8095 0.8148 0.8201 0.8237
765.000000 0.8267 0.8281 0.8275 0.8306 0.8282
760.000000 0.8162 0.7901 0.7857 0.7811 0.7765
755.000000 0.7719 0.7678 0.7640 0.7601 0.7562
750.000000 0.7524 0.6914 0.6231 0.5548 0.4865
745.000000 0.4217 0.4260 0.4210 0.4218 0.4286
740.000000 0.4357 0.4407 0.4456 0.4630 0.5197
735.000000 0.5308 0.5407 0.5512 0.5648 0.5784
730.000000 0.5936 0.6088 0.6257 0.6433 0.6601
725.000000 0.6737 0.6826 0.6912 0.6991 0.7108
720.000000 0.7319 0.7476 0.7632 0.7784 0.7895
715.000000 0.8003 0.8065 0.8126 0.8181 0.8224
710.000000 0.8250 0.8262 0.8274 0.8273 0.8267
705.000000 0.8256 0.7750 0.6896 0.6042 0.4798
700.000000 0.4780 0.4781 0.4782 0.5498 0.6310
695.000000 0.7124 0.7898 0.8115 0.8478 0.8564
690.000000 0.8649 0.8707 0.8750 0.8794 0.8837
685.000000 0.8862 0.8878 0.8896 0.8908 0.8913
680.000000 0.8918 0.8921 0.8921 0.8932 0.8934
675.000000 0.8928 0.8921 0.8915 0.8909 0.8903
670.000000 0.8897 0.8890 0.8881 0.8868 0.8856
665.000000 0.8844 0.8831 0.8818 0.8799 0.8778
660.000000 0.8758 0.8737 0.8704 0.8665 0.8625
655.000000 0.8577 0.8528 0.8493 0.8460 0.8431
650.000000 0.8431 0.8430 0.8435 0.8440 0.8446
645.000000 0.8451 0.8457 0.8462 0.8468 0.8473
640.000000 0.8475 0.8475 0.8477 0.8478 0.8478
635.000000 0.8467 0.8455 0.8443 0.8431 0.8418
630.000000 0.8406 0.8394 0.8378 0.8357 0.8335
625.000000 0.8314 0.8292 0.8271 0.8249 0.8228
620.000000 0.8206 0.8185 0.8161 0.8138 0.8114
615.000000 0.8091 0.8067 0.8044 0.8019 0.7997
610.000000 0.7971 0.7947 0.7921 0.7897 0.7871
605.000000 0.7847 0.7821 0.7797 0.7771 0.7750
600.000000 0.7726 0.7705 0.7683 0.7660 0.7638
595.000000 0.7617 0.7597 0.7576 0.7557 0.7537
590.000000 0.7511 0.7484 0.7457 0.7421 0.7387
585.000000 0.7351 0.7311 0.7255 0.7215 0.7204
580.000000 0.7195 0.7168 0.7186 0.7426 0.7535
575.000000 0.7622 0.7725 0.7788 0.7822 0.7831
570.000000 0.7830 0.7826 0.7795 0.7765 0.7765
565.000000 0.7765 0.7804 0.7843 0.7882 0.7922
560.000000 0.7962 0.8004 0.8040 0.8072 0.8106
555.000000 0.8137 0.8160 0.8174 0.8175 0.8169
550.000000 0.8131 0.8081 0.8026 0.7968 0.7900
545.000000 0.7848 0.7834 0.7819 0.7801 0.7884
540.000000 0.7935 0.7987 0.8076 0.8167 0.8251
535.000000 0.8313 0.8375 0.8437 0.8488 0.8535
530.000000 0.8581 0.8612 0.8634 0.8656 0.8678
525.000000 0.8700 0.8721 0.8744 0.8768 0.8792
520.000000 0.8815 0.8839 0.8863 0.8885 0.8899
515.000000 0.8913 0.8927 0.8941 0.8955 0.8968
510.000000 0.8983 0.8997 0.9007 0.9015 0.9023
505.000000 0.9031 0.9039 0.9047 0.9055 0.9063
500.000000 0.9071 0.9078 0.9087 0.9095 0.9103
495.000000 0.9111 0.9116 0.9121 0.9127 0.9132
490.000000 0.9138 0.9143 0.9148 0.9153 0.9245
485.000000 0.9162 0.9167 0.9171 0.9175 0.9175
480.000000 0.9171 0.9167 0.9158 0.9127 0.9095
475.000000 0.9060 0.9014 0.8968 0.8909 0.8837
470.000000 0.8768 0.8711 0.8716 0.8724 0.8732
465.000000 0.8741 0.8752 0.8757 0.8744 0.8628
460.000000 0.8494 0.8375 0.8325 0.8340 0.8342
455.000000 0.8375 0.8462 0.8538 0.8613 0.8700
450.000000 0.8821 0.8911 0.8978 0.9046 0.9097
445.000000 0.9140 0.9183 0.9220 0.9246 0.9273
440.000000 0.9294 0.9298 0.9302 0.9305 0.9309
435.000000 0.9310 0.9311 0.9312 0.9313 0.9313
430.000000 0.9314 0.9315 0.9316 0.9317 0.9318
425.000000 0.9318 0.9318 0.9318 0.9320 0.9321
420.000000 0.9321 0.9321 0.9321 0.9323 0.9323
415.000000 0.9325 0.9328 0.9333 0.9336 0.9340
410.000000 0.9343 0.9347 0.9350 0.9354 0.9357
405.000000 0.9361 0.9364 0.9368 0.9371 0.9374
400.000000 0.9378 0.9381 0.9384 0.9387 0.9391
395.000000 0.9395 0.9400 0.9405 0.9411 0.9416
390.000000 0.9421 0.9427 0.9432 0.9437 0.9440
385.000000 0.9441 0.9443 0.9444 0.9444
##END=
