##TITLE=RED LEAD
##JCAMP-DX=4.24
##DATA TYPE=INFRARED SPECTRUM
##CLASS=COBLENTZ
##ORIGIN=DESOTO CHEMICAL COATINGS, INC.
##OWNER=COBLENTZ SOCIETY
Collection (C) 2018 copyright by the U.S. Secretary of Commerce
on behalf of the United States of America. All rights reserved.
##DATE=Not specified, most likely prior to 1970
##MOLFORM=Pb3 O4
$$ Pb3O4 97%, PbO 3%
##SOURCE REFERENCE=COBLENTZ NO. 4711
##$NIST ID=B6004711
##$NIST SOURCE=COBLENTZ
##$NIST IMAGE=cob4711
##SPECTROMETER/DATA SYSTEM=Not specified, most likely a grating spectrometer.
##STATE=SOLID (1.2 mg / 300 mg CsI DISC)
##SAMPLING PROCEDURE=TRANSMISSION
##RESOLUTION=4
##DATA PROCESSING=DIGITIZED BY NIST FROM HARD COPY (FROM TWO SEGMENTS)
##XUNITS=1/CM
##YUNITS=TRANSMITTANCE
##XFACTOR=1.000000
##YFACTOR=1
##DELTAX=1.330379
##FIRSTX=200
##LASTX=3988.92
##FIRSTY=0.768
##MAXX=3988.92
##MINX=200
##MAXY=0.978
##MINY=0.194005
##NPOINTS=2849
##XYDATA=(X++(Y..Y))
200.000000 0.7680 0.7670 0.7670 0.7680 0.7670
206.651896 0.7670 0.7650 0.7650 0.7640 0.7640
213.303792 0.7650 0.7670 0.7680 0.7690 0.7710
219.955688 0.7720 0.7720 0.7720 0.7730 0.7730
226.607584 0.7730 0.7730 0.7730 0.7730 0.7750
233.259480 0.7750 0.7730 0.7730 0.7730 0.7730
239.911377 0.7720 0.7720 0.7720 0.7730 0.7730
246.563273 0.7730 0.7720 0.7720 0.7720 0.7720
253.215169 0.7720 0.7720 0.7710 0.7710 0.7710
259.867065 0.7710 0.7710 0.7690 0.7670 0.7650
266.518961 0.7640 0.7610 0.7600 0.7570 0.7570
273.170857 0.7530 0.7490 0.7450 0.7420 0.7400
279.822753 0.7370 0.7320 0.7290 0.7160 0.7050
286.474649 0.7010 0.6920 0.6840 0.6770 0.6740
293.126545 0.6700 0.6660 0.6660 0.6660 0.6680
299.778441 0.6680 0.6700 0.6700 0.6720 0.6720
306.430337 0.6720 0.6720 0.6720 0.6700 0.6650
313.082234 0.6610 0.6570 0.6510 0.6450 0.6351
319.734130 0.6230 0.6060 0.5820 0.5501 0.5161
326.386026 0.4921 0.4761 0.4601 0.4451 0.4311
333.037922 0.4290 0.4290 0.4320 0.4360 0.4390
339.689818 0.4430 0.4520 0.4600 0.4799 0.5028
346.341714 0.5200 0.5320 0.5430 0.5520 0.5590
352.993610 0.5620 0.5630 0.5640 0.5660 0.5630
359.645506 0.5590 0.5480 0.5360 0.5160 0.4931
366.297402 0.4711 0.4172 0.3861 0.3562 0.3222
372.949298 0.2860 0.2700 0.2550 0.2420 0.2280
379.601195 0.2150 0.1951 0.1940 0.1950 0.1980
386.253091 0.1990 0.2000 0.2070 0.2120 0.2299
392.904987 0.2499 0.2649 0.2779 0.2929 0.3139
399.556883 0.3420 0.3690 0.3960 0.4160 0.4310
406.208779 0.4360 0.4410 0.4599 0.4729 0.4849
412.860675 0.4930 0.5000 0.5030 0.5070 0.5100
419.512571 0.5110 0.5080 0.5020 0.4881 0.4671
426.164467 0.4130 0.3940 0.3730 0.3520 0.3271
432.816363 0.3061 0.2861 0.2751 0.2611 0.2540
439.468259 0.2440 0.2320 0.2300 0.2240 0.2230
446.120155 0.2190 0.2150 0.2120 0.2110 0.2100
452.772052 0.2100 0.2080 0.2080 0.2080 0.2080
459.423948 0.2100 0.2110 0.2140 0.2190 0.2220
466.075844 0.2310 0.2400 0.2510 0.2610 0.2770
472.727740 0.2910 0.2950 0.3020 0.3169 0.3269
479.379636 0.3400 0.3530 0.3770 0.4040 0.4200
486.031532 0.4320 0.4440 0.4589 0.4670 0.4789
492.683428 0.5030 0.5240 0.5320 0.5400 0.5440
499.335324 0.5480 0.5510 0.5540 0.5560 0.5580
505.987220 0.5560 0.5520 0.5500 0.5460 0.5430
512.639116 0.5350 0.5310 0.5280 0.5260 0.5260
519.291012 0.5270 0.5300 0.5310 0.5310 0.5260
525.942909 0.5150 0.4961 0.4811 0.4711 0.4630
532.594805 0.4610 0.4630 0.4670 0.4710 0.4810
539.246701 0.5059 0.5219 0.5588 0.5928 0.6208
545.898597 0.6370 0.6620 0.6740 0.6850 0.6970
552.550493 0.7219 0.7419 0.7549 0.7679 0.7730
559.202389 0.7810 0.7890 0.7990 0.8030 0.8110
565.854285 0.8170 0.8200 0.8230 0.8310 0.8320
572.506181 0.8380 0.8420 0.8470 0.8510 0.8540
579.158077 0.8600 0.8620 0.8640 0.8660 0.8749
585.809973 0.8800 0.8820 0.8860 0.8870 0.8900
592.461870 0.8910 0.8920 0.8980 0.9000 0.9020
599.113766 0.9030 0.9060 0.9070 0.9070 0.9100
605.765662 0.9120 0.9140 0.9150 0.9170 0.9180
612.417558 0.9180 0.9190 0.9190 0.9210 0.9220
619.069454 0.9230 0.9250 0.9260 0.9260 0.9260
625.721350 0.9270 0.9290 0.9290 0.9300 0.9300
632.373246 0.9300 0.9310 0.9310 0.9330 0.9330
639.025142 0.9330 0.9330 0.9340 0.9350 0.9370
645.677038 0.9380 0.9380 0.9390 0.9390 0.9410
652.328934 0.9410 0.9420 0.9420 0.9390 0.9370
658.980830 0.9370 0.9350 0.9340 0.9340 0.9330
665.632727 0.9330 0.9330 0.9330 0.9330 0.9340
672.284623 0.9340 0.9350 0.9370 0.9370 0.9370
678.936519 0.9380 0.9390 0.9390 0.9390 0.9410
685.588415 0.9410 0.9410 0.9420 0.9420 0.9420
692.240311 0.9430 0.9450 0.9450 0.9460 0.9470
698.892207 0.9470 0.9510 0.9530 0.9540 0.9550
705.544103 0.9550 0.9550 0.9550 0.9550 0.9550
712.195999 0.9570 0.9570 0.9570 0.9570 0.9570
718.847895 0.9580 0.9580 0.9590 0.9590 0.9590
725.499791 0.9590 0.9610 0.9610 0.9610 0.9610
732.151687 0.9610 0.9620 0.9630 0.9630 0.9630
738.803584 0.9630 0.9650 0.9650 0.9650 0.9660
745.455480 0.9660 0.9670 0.9670 0.9670 0.9670
752.107376 0.9690 0.9700 0.9700 0.9700 0.9690
758.759272 0.9690 0.9690 0.9690 0.9690 0.9690
765.411168 0.9690 0.9690 0.9700 0.9700 0.9700
772.063064 0.9700 0.9710 0.9710 0.9710 0.9710
778.714960 0.9710 0.9700 0.9690 0.9670 0.9690
785.366856 0.9690 0.9700 0.9700 0.9700 0.9700
792.018752 0.9710 0.9710 0.9710 0.9700 0.9700
798.670648 0.9700 0.9700 0.9700 0.9700 0.9710
805.322544 0.9710 0.9710 0.9710 0.9710 0.9710
811.974441 0.9710 0.9710 0.9710 0.9730 0.9730
818.626337 0.9730 0.9730 0.9730 0.9740 0.9740
825.278233 0.9740 0.9740 0.9740 0.9740 0.9740
831.930129 0.9740 0.9730 0.9710 0.9710 0.9710
838.582025 0.9710 0.9730 0.9740 0.9740 0.9740
845.233921 0.9730 0.9730 0.9730 0.9730 0.9730
851.885817 0.9730 0.9730 0.9730 0.9730 0.9730
858.537713 0.9730 0.9730 0.9730 0.9730 0.9730
865.189609 0.9730 0.9730 0.9730 0.9740 0.9740
871.841505 0.9750 0.9750 0.9750 0.9750 0.9750
878.493402 0.9750 0.9740 0.9730 0.9730 0.9730
885.145298 0.9740 0.9750 0.9750 0.9750 0.9770
891.797194 0.9770 0.9770 0.9770 0.9770 0.9750
898.449090 0.9750 0.9770 0.9770 0.9770 0.9780
905.100986 0.9780 0.9770 0.9770 0.9770 0.9770
911.752882 0.9770 0.9750 0.9750 0.9740 0.9740
918.404778 0.9740 0.9740 0.9740 0.9740 0.9740
925.056674 0.9750 0.9750 0.9750 0.9770 0.9770
931.708570 0.9770 0.9770 0.9770 0.9770 0.9750
938.360466 0.9750 0.9750 0.9770 0.9780 0.9780
945.012362 0.9770 0.9770 0.9750 0.9750 0.9740
951.664259 0.9740 0.9740 0.9740 0.9740 0.9740
958.316155 0.9740 0.9740 0.9740 0.9740 0.9740
964.968051 0.9740 0.9740 0.9740 0.9740 0.9740
971.619947 0.9740 0.9740 0.9740 0.9740 0.9740
978.271843 0.9740 0.9740 0.9740 0.9740 0.9740
984.923739 0.9740 0.9740 0.9740 0.9740 0.9740
991.575635 0.9740 0.9740 0.9730 0.9730 0.9710
998.227531 0.9710 0.9710 0.9710 0.9710 0.9730
1004.879427 0.9730 0.9730 0.9730 0.9730 0.9710
1011.531323 0.9710 0.9710 0.9710 0.9700 0.9700
1018.183219 0.9690 0.9670 0.9660 0.9660 0.9630
1024.835116 0.9620 0.9620 0.9620 0.9620 0.9620
1031.487012 0.9620 0.9620 0.9620 0.9630 0.9630
1038.138908 0.9620 0.9620 0.9620 0.9610 0.9610
1044.790804 0.9610 0.9610 0.9610 0.9610 0.9610
1051.442700 0.9610 0.9610 0.9610 0.9610 0.9610
1058.094596 0.9610 0.9610 0.9620 0.9620 0.9620
1064.746492 0.9620 0.9620 0.9620 0.9610 0.9590
1071.398388 0.9590 0.9590 0.9580 0.9610 0.9610
1078.050284 0.9610 0.9610 0.9610 0.9590 0.9590
1084.702180 0.9610 0.9610 0.9610 0.9610 0.9590
1091.354076 0.9590 0.9590 0.9590 0.9580 0.9580
1098.005973 0.9580 0.9580 0.9590 0.9590 0.9590
1104.657869 0.9610 0.9610 0.9590 0.9590 0.9590
1111.309765 0.9590 0.9610 0.9610 0.9620 0.9610
1117.961661 0.9610 0.9610 0.9620 0.9620 0.9620
1124.613557 0.9620 0.9620 0.9620 0.9620 0.9610
1131.265453 0.9610 0.9610 0.9610 0.9620 0.9620
1137.917349 0.9620 0.9630 0.9630 0.9630 0.9630
1144.569245 0.9620 0.9620 0.9630 0.9630 0.9650
1151.221141 0.9650 0.9660 0.9660 0.9660 0.9660
1157.873037 0.9660 0.9660 0.9660 0.9660 0.9660
1164.524934 0.9670 0.9690 0.9670 0.9670 0.9660
1171.176830 0.9660 0.9660 0.9660 0.9650 0.9650
1177.828726 0.9650 0.9660 0.9660 0.9660 0.9670
1184.480622 0.9670 0.9670 0.9670 0.9670 0.9690
1191.132518 0.9690 0.9700 0.9700 0.9700 0.9690
1197.784414 0.9670 0.9670 0.9670 0.9670 0.9690
1204.436310 0.9690 0.9700 0.9700 0.9700 0.9700
1211.088206 0.9700 0.9700 0.9700 0.9690 0.9670
1217.740102 0.9670 0.9670 0.9690 0.9690 0.9690
1224.391998 0.9700 0.9700 0.9710 0.9710 0.9710
1231.043894 0.9700 0.9700 0.9700 0.9690 0.9670
1237.695791 0.9670 0.9670 0.9660 0.9660 0.9660
1244.347687 0.9660 0.9650 0.9650 0.9650 0.9660
1250.999583 0.9660 0.9660 0.9670 0.9670 0.9660
1257.651479 0.9670 0.9670 0.9670 0.9670 0.9690
1264.303375 0.9690 0.9670 0.9660 0.9660 0.9650
1270.955271 0.9620 0.9620 0.9620 0.9620 0.9620
1277.607167 0.9620 0.9620 0.9620 0.9620 0.9620
1284.259063 0.9620 0.9620 0.9610 0.9610 0.9610
1290.910959 0.9610 0.9610 0.9610 0.9590 0.9590
1297.562855 0.9580 0.9580 0.9580 0.9580 0.9580
1304.214751 0.9610 0.9590 0.9590 0.9580 0.9580
1310.866648 0.9580 0.9580 0.9570 0.9540 0.9530
1317.518544 0.9530 0.9530 0.9530 0.9530 0.9530
1324.170440 0.9510 0.9530 0.9530 0.9530 0.9530
1330.822336 0.9540 0.9540 0.9550 0.9550 0.9540
1337.474232 0.9540 0.9540 0.9540 0.9540 0.9540
1344.126128 0.9540 0.9530 0.9530 0.9530 0.9510
1350.778024 0.9510 0.9510 0.9510 0.9510 0.9510
1357.429920 0.9530 0.9530 0.9530 0.9530 0.9530
1364.081816 0.9510 0.9510 0.9530 0.9530 0.9530
1370.733712 0.9530 0.9510 0.9510 0.9510 0.9500
1377.385609 0.9500 0.9490 0.9490 0.9490 0.9490
1384.037505 0.9490 0.9490 0.9470 0.9470 0.9460
1390.689401 0.9450 0.9450 0.9430 0.9420 0.9420
1397.341297 0.9420 0.9410 0.9410 0.9410 0.9390
1403.993193 0.9370 0.9340 0.9340 0.9310 0.9300
1410.645089 0.9290 0.9290 0.9290 0.9290 0.9290
1417.296985 0.9270 0.9270 0.9270 0.9270 0.9270
1423.948881 0.9270 0.9270 0.9270 0.9270 0.9270
1430.600777 0.9270 0.9290 0.9290 0.9300 0.9300
1437.252673 0.9300 0.9300 0.9300 0.9270 0.9270
1443.904569 0.9260 0.9260 0.9260 0.9260 0.9260
1450.556466 0.9260 0.9260 0.9260 0.9260 0.9260
1457.208362 0.9260 0.9260 0.9260 0.9270 0.9270
1463.860258 0.9270 0.9290 0.9290 0.9300 0.9300
1470.512154 0.9310 0.9310 0.9330 0.9330 0.9310
1477.164050 0.9310 0.9330 0.9330 0.9340 0.9340
1483.815946 0.9350 0.9380 0.9380 0.9390 0.9390
1490.467842 0.9390 0.9410 0.9410 0.9410 0.9410
1497.119738 0.9390 0.9390 0.9390 0.9380 0.9380
1503.771634 0.9380 0.9380 0.9380 0.9380 0.9380
1510.423530 0.9380 0.9380 0.9390 0.9390 0.9390
1517.075426 0.9390 0.9390 0.9390 0.9390 0.9390
1523.727323 0.9380 0.9370 0.9350 0.9350 0.9350
1530.379219 0.9350 0.9370 0.9380 0.9380 0.9380
1537.031115 0.9370 0.9370 0.9370 0.9350 0.9330
1543.683011 0.9330 0.9310 0.9300 0.9300 0.9310
1550.334907 0.9310 0.9310 0.9310 0.9310 0.9310
1556.986803 0.9310 0.9300 0.9300 0.9310 0.9310
1563.638699 0.9310 0.9300 0.9300 0.9300 0.9300
1570.290595 0.9300 0.9300 0.9300 0.9300 0.9310
1576.942491 0.9310 0.9310 0.9300 0.9300 0.9310
1583.594387 0.9310 0.9300 0.9290 0.9290 0.9290
1590.246283 0.9290 0.9270 0.9250 0.9230 0.9210
1596.898180 0.9190 0.9170 0.9150 0.9140 0.9120
1603.550076 0.9110 0.9100 0.9080 0.9070 0.9070
1610.201972 0.9060 0.9060 0.9040 0.9030 0.9020
1616.853868 0.9020 0.9000 0.8990 0.8990 0.8990
1623.505764 0.8990 0.8990 0.8990 0.9000 0.9000
1630.157660 0.9000 0.9020 0.9020 0.9030 0.9030
1636.809556 0.9060 0.9070 0.9080 0.9100 0.9110
1643.461452 0.9120 0.9150 0.9190 0.9210 0.9210
1650.113348 0.9220 0.9230 0.9230 0.9250 0.9260
1656.765244 0.9270 0.9270 0.9290 0.9290 0.9290
1663.417141 0.9290 0.9300 0.9310 0.9310 0.9310
1670.069037 0.9330 0.9330 0.9330 0.9330 0.9330
1676.720933 0.9330 0.9330 0.9330 0.9330 0.9330
1683.372829 0.9330 0.9330 0.9310 0.9310 0.9310
1690.024725 0.9310 0.9310 0.9330 0.9330 0.9330
1696.676621 0.9340 0.9340 0.9340 0.9350 0.9350
1703.328517 0.9370 0.9380 0.9390 0.9390 0.9410
1709.980413 0.9410 0.9420 0.9420 0.9430 0.9430
1716.632309 0.9430 0.9450 0.9450 0.9450 0.9450
1723.284205 0.9450 0.9460 0.9460 0.9460 0.9460
1729.936101 0.9460 0.9450 0.9450 0.9450 0.9460
1736.587998 0.9460 0.9460 0.9460 0.9470 0.9470
1743.239894 0.9460 0.9460 0.9460 0.9460 0.9450
1749.891790 0.9430 0.9430 0.9430 0.9430 0.9430
1756.543686 0.9430 0.9430 0.9430 0.9430 0.9430
1763.195582 0.9430 0.9430 0.9430 0.9430 0.9430
1769.847478 0.9450 0.9450 0.9460 0.9460 0.9460
1776.499374 0.9460 0.9450 0.9450 0.9450 0.9460
1783.151270 0.9460 0.9460 0.9460 0.9460 0.9460
1789.803166 0.9460 0.9460 0.9470 0.9470 0.9450
1796.455062 0.9430 0.9430 0.9430 0.9430 0.9430
1803.106958 0.9420 0.9430 0.9420 0.9420 0.9420
1809.758855 0.9420 0.9420 0.9420 0.9420 0.9420
1816.410751 0.9420 0.9420 0.9420 0.9420 0.9410
1823.062647 0.9410 0.9410 0.9410 0.9410 0.9410
1829.714543 0.9410 0.9390 0.9390 0.9410 0.9410
1836.366439 0.9410 0.9420 0.9420 0.9410 0.9410
1843.018335 0.9410 0.9410 0.9390 0.9390 0.9390
1849.670231 0.9390 0.9390 0.9390 0.9390 0.9390
1856.322127 0.9380 0.9380 0.9380 0.9370 0.9350
1862.974023 0.9350 0.9350 0.9340 0.9340 0.9340
1869.625919 0.9350 0.9350 0.9350 0.9350 0.9340
1876.277816 0.9330 0.9330 0.9330 0.9330 0.9330
1882.929712 0.9310 0.9330 0.9330 0.9300 0.9300
1889.581608 0.9290 0.9290 0.9290 0.9300 0.9300
1896.233504 0.9310 0.9310 0.9330 0.9330 0.9300
1902.885400 0.9310 0.9310 0.9310 0.9300 0.9300
1909.537296 0.9300 0.9290 0.9290 0.9300 0.9300
1916.189192 0.9300 0.9300 0.9300 0.9310 0.9310
1922.841088 0.9300 0.9300 0.9300 0.9290 0.9290
1929.492984 0.9290 0.9290 0.9270 0.9270 0.9270
1936.144880 0.9270 0.9270 0.9270 0.9270 0.9270
1942.796776 0.9270 0.9290 0.9290 0.9270 0.9270
1949.448673 0.9270 0.9270 0.9270 0.9260 0.9250
1956.100569 0.9250 0.9250 0.9250 0.9250 0.9250
1962.752465 0.9250 0.9250 0.9260 0.9260 0.9260
1969.404361 0.9260 0.9260 0.9260 0.9260 0.9250
1976.056257 0.9250 0.9230 0.9230 0.9220 0.9220
1982.708153 0.9220 0.9230 0.9230 0.9220 0.9220
1989.360049 0.9220 0.9220 0.9220 0.9220 0.9210
1996.011945 0.9220 0.9220 0.9210 0.9210 0.9210
2002.663841 0.9210 0.9210 0.9210 0.9210 0.9210
2009.315737 0.9210 0.9210 0.9210 0.9210 0.9210
2015.967633 0.9210 0.9200 0.9190 0.9185 0.9180
2022.619530 0.9180 0.9180 0.9175 0.9170 0.9170
2029.271426 0.9169 0.9159 0.9150 0.9150 0.9150
2035.923322 0.9150 0.9150 0.9145 0.9140 0.9140
2042.575218 0.9140 0.9140 0.9140 0.9140 0.9140
2049.227114 0.9140 0.9140 0.9140 0.9140 0.9140
2055.879010 0.9140 0.9140 0.9140 0.9140 0.9139
2062.530906 0.9129 0.9120 0.9120 0.9120 0.9120
2069.182802 0.9119 0.9114 0.9110 0.9110 0.9110
2075.834698 0.9110 0.9110 0.9110 0.9110 0.9110
2082.486594 0.9110 0.9110 0.9110 0.9110 0.9109
2089.138490 0.9104 0.9100 0.9100 0.9100 0.9100
2095.790387 0.9100 0.9100 0.9100 0.9100 0.9101
2102.442283 0.9106 0.9110 0.9110 0.9110 0.9110
2109.094179 0.9110 0.9110 0.9110 0.9110 0.9109
2115.746075 0.9104 0.9100 0.9100 0.9100 0.9100
2122.397971 0.9100 0.9100 0.9100 0.9100 0.9097
2129.049867 0.9087 0.9080 0.9080 0.9080 0.9080
2135.701763 0.9080 0.9080 0.9078 0.9073 0.9070
2142.353659 0.9070 0.9070 0.9070 0.9070 0.9070
2149.005555 0.9070 0.9070 0.9070 0.9070 0.9070
2155.657451 0.9070 0.9070 0.9070 0.9070 0.9070
2162.309348 0.9070 0.9070 0.9070 0.9070 0.9070
2168.961244 0.9070 0.9070 0.9070 0.9070 0.9070
2175.613140 0.9070 0.9070 0.9070 0.9070 0.9070
2182.265036 0.9070 0.9070 0.9070 0.9070 0.9070
2188.916932 0.9068 0.9063 0.9060 0.9060 0.9060
2195.568828 0.9060 0.9055 0.9045 0.9040 0.9040
2202.220724 0.9040 0.9040 0.9040 0.9040 0.9040
2208.872620 0.9040 0.9040 0.9040 0.9040 0.9040
2215.524516 0.9040 0.9040 0.9040 0.9040 0.9037
2222.176412 0.9032 0.9030 0.9030 0.9030 0.9030
2228.828308 0.9030 0.9030 0.9030 0.9030 0.9027
2235.480205 0.9022 0.9020 0.9020 0.9020 0.9020
2242.132101 0.9014 0.9004 0.9000 0.9000 0.8997
2248.783997 0.8992 0.8990 0.8990 0.8990 0.8990
2255.435893 0.8990 0.8990 0.8990 0.8990 0.8990
2262.087789 0.8990 0.8990 0.8990 0.8990 0.8990
2268.739685 0.8990 0.8990 0.8990 0.8990 0.8990
2275.391581 0.8990 0.8990 0.8990 0.8990 0.8990
2282.043477 0.8987 0.8982 0.8980 0.8980 0.8973
2288.695373 0.8963 0.8960 0.8960 0.8960 0.8960
2295.347269 0.8957 0.8952 0.8950 0.8950 0.8950
2301.999165 0.8950 0.8946 0.8942 0.8940 0.8940
2308.651062 0.8940 0.8940 0.8933 0.8923 0.8920
2315.302958 0.8920 0.8920 0.8920 0.8916 0.8911
2321.954854 0.8910 0.8910 0.8910 0.8910 0.8910
2328.606750 0.8910 0.8910 0.8910 0.8910 0.8910
2335.258646 0.8910 0.8910 0.8906 0.8901 0.8900
2341.910542 0.8900 0.8900 0.8900 0.8900 0.8900
2348.562438 0.8900 0.8900 0.8900 0.8900 0.8892
2355.214334 0.8882 0.8880 0.8880 0.8880 0.8880
2361.866230 0.8880 0.8880 0.8880 0.8880 0.8880
2368.518126 0.8880 0.8880 0.8880 0.8880 0.8880
2375.170023 0.8880 0.8880 0.8876 0.8871 0.8870
2381.821919 0.8870 0.8866 0.8861 0.8860 0.8860
2388.473815 0.8860 0.8860 0.8860 0.8860 0.8851
2395.125711 0.8841 0.8840 0.8840 0.8840 0.8840
2401.777607 0.8840 0.8840 0.8840 0.8840 0.8835
2408.429503 0.8830 0.8830 0.8830 0.8830 0.8830
2415.081399 0.8830 0.8830 0.8830 0.8830 0.8830
2421.733295 0.8830 0.8830 0.8830 0.8830 0.8830
2428.385191 0.8825 0.8820 0.8820 0.8820 0.8820
2435.037087 0.8820 0.8820 0.8820 0.8820 0.8820
2441.688983 0.8820 0.8820 0.8810 0.8800 0.8800
2448.340880 0.8800 0.8800 0.8800 0.8800 0.8800
2454.992776 0.8800 0.8800 0.8795 0.8790 0.8790
2461.644672 0.8790 0.8790 0.8790 0.8790 0.8790
2468.296568 0.8790 0.8790 0.8790 0.8790 0.8790
2474.948464 0.8790 0.8784 0.8780 0.8780 0.8780
2481.600360 0.8780 0.8780 0.8780 0.8780 0.8780
2488.252256 0.8780 0.8780 0.8780 0.8780 0.8780
2494.904152 0.8780 0.8780 0.8780 0.8780 0.8780
2501.556048 0.8780 0.8780 0.8780 0.8780 0.8780
2508.207944 0.8780 0.8780 0.8780 0.8780 0.8780
2514.859840 0.8778 0.8768 0.8759 0.8754 0.8750
2521.511737 0.8750 0.8750 0.8750 0.8750 0.8750
2528.163633 0.8749 0.8744 0.8740 0.8740 0.8740
2534.815529 0.8740 0.8738 0.8728 0.8720 0.8720
2541.467425 0.8720 0.8720 0.8720 0.8720 0.8719
2548.119321 0.8714 0.8709 0.8704 0.8697 0.8687
2554.771217 0.8677 0.8667 0.8660 0.8660 0.8660
2561.423113 0.8660 0.8660 0.8660 0.8660 0.8660
2568.075009 0.8660 0.8660 0.8662 0.8667 0.8670
2574.726905 0.8670 0.8670 0.8670 0.8668 0.8663
2581.378801 0.8660 0.8660 0.8660 0.8660 0.8660
2588.030697 0.8660 0.8656 0.8646 0.8640 0.8640
2594.682594 0.8638 0.8633 0.8630 0.8630 0.8630
2601.334490 0.8630 0.8630 0.8630 0.8630 0.8630
2607.986386 0.8630 0.8630 0.8630 0.8630 0.8628
2614.638282 0.8623 0.8620 0.8620 0.8620 0.8620
2621.290178 0.8620 0.8620 0.8616 0.8606 0.8598
2627.942074 0.8593 0.8590 0.8590 0.8590 0.8590
2634.593970 0.8590 0.8590 0.8590 0.8590 0.8590
2641.245866 0.8590 0.8590 0.8590 0.8590 0.8590
2647.897762 0.8587 0.8582 0.8575 0.8565 0.8560
2654.549658 0.8560 0.8560 0.8560 0.8560 0.8560
2661.201555 0.8560 0.8560 0.8557 0.8552 0.8550
2667.853451 0.8550 0.8550 0.8550 0.8550 0.8550
2674.505347 0.8547 0.8542 0.8540 0.8540 0.8540
2681.157243 0.8540 0.8540 0.8540 0.8534 0.8524
2687.809139 0.8520 0.8520 0.8517 0.8512 0.8510
2694.461035 0.8510 0.8510 0.8510 0.8510 0.8510
2701.112931 0.8507 0.8502 0.8500 0.8500 0.8500
2707.764827 0.8500 0.8494 0.8484 0.8480 0.8480
2714.416723 0.8480 0.8480 0.8473 0.8463 0.8460
2721.068619 0.8460 0.8460 0.8460 0.8460 0.8460
2727.720515 0.8453 0.8443 0.8440 0.8440 0.8437
2734.372412 0.8432 0.8430 0.8430 0.8426 0.8421
2741.024308 0.8420 0.8420 0.8420 0.8420 0.8420
2747.676204 0.8420 0.8413 0.8403 0.8400 0.8400
2754.328100 0.8400 0.8400 0.8396 0.8391 0.8390
2760.979996 0.8390 0.8390 0.8390 0.8390 0.8390
2767.631892 0.8390 0.8390 0.8386 0.8381 0.8380
2774.283788 0.8380 0.8380 0.8380 0.8380 0.8380
2780.935684 0.8380 0.8380 0.8380 0.8380 0.8372
2787.587580 0.8362 0.8360 0.8360 0.8356 0.8351
2794.239476 0.8350 0.8350 0.8350 0.8350 0.8350
2800.891372 0.8350 0.8350 0.8350 0.8350 0.8350
2807.543269 0.8350 0.8350 0.8350 0.8350 0.8350
2814.195165 0.8350 0.8346 0.8341 0.8340 0.8340
2820.847061 0.8340 0.8340 0.8331 0.8321 0.8315
2827.498957 0.8310 0.8310 0.8310 0.8301 0.8291
2834.150853 0.8285 0.8280 0.8266 0.8251 0.8245
2840.802749 0.8240 0.8240 0.8240 0.8235 0.8230
2847.454645 0.8230 0.8230 0.8220 0.8210 0.8205
2854.106541 0.8200 0.8200 0.8200 0.8200 0.8200
2860.758437 0.8200 0.8200 0.8200 0.8200 0.8200
2867.410333 0.8200 0.8195 0.8190 0.8190 0.8190
2874.062229 0.8190 0.8190 0.8190 0.8190 0.8190
2880.714126 0.8190 0.8190 0.8190 0.8190 0.8190
2887.366022 0.8190 0.8190 0.8190 0.8189 0.8179
2894.017918 0.8170 0.8170 0.8170 0.8170 0.8170
2900.669814 0.8170 0.8170 0.8170 0.8169 0.8159
2907.321710 0.8149 0.8139 0.8130 0.8130 0.8129
2913.973606 0.8124 0.8119 0.8114 0.8110 0.8110
2920.625502 0.8107 0.8087 0.8068 0.8053 0.8038
2927.277398 0.8023 0.8009 0.8004 0.7999 0.7994
2933.929294 0.7990 0.7990 0.7990 0.7990 0.7991
2940.581190 0.7996 0.8000 0.8000 0.8000 0.8000
2947.233087 0.8000 0.8000 0.8000 0.8000 0.8001
2953.884983 0.8006 0.8010 0.8010 0.8010 0.8010
2960.536879 0.8010 0.8010 0.8010 0.8010 0.8012
2967.188775 0.8022 0.8030 0.8030 0.8030 0.8030
2973.840671 0.8030 0.8030 0.8030 0.8030 0.8030
2980.492567 0.8030 0.8030 0.8030 0.8030 0.8030
2987.144463 0.8030 0.8030 0.8030 0.8030 0.8030
2993.796359 0.8030 0.8030 0.8030 0.8030 0.8030
3000.448255 0.8030 0.8030 0.8030 0.8030 0.8030
3007.100151 0.8030 0.8026 0.8016 0.8010 0.8010
3013.752047 0.8010 0.8010 0.8010 0.8010 0.8010
3020.403944 0.8010 0.8010 0.8010 0.8008 0.8003
3027.055840 0.8000 0.8000 0.8000 0.8000 0.8000
3033.707736 0.8000 0.8000 0.8000 0.7998 0.7993
3040.359632 0.7990 0.7990 0.7990 0.7990 0.7990
3047.011528 0.7990 0.7986 0.7976 0.7970 0.7970
3053.663424 0.7968 0.7963 0.7960 0.7960 0.7958
3060.315320 0.7953 0.7950 0.7950 0.7945 0.7935
3066.967216 0.7930 0.7930 0.7928 0.7923 0.7920
3073.619112 0.7920 0.7918 0.7913 0.7910 0.7910
3080.271008 0.7910 0.7910 0.7910 0.7910 0.7910
3086.922904 0.7910 0.7910 0.7910 0.7905 0.7895
3093.574801 0.7890 0.7890 0.7890 0.7890 0.7887
3100.226697 0.7882 0.7880 0.7880 0.7880 0.7880
3106.878593 0.7877 0.7872 0.7864 0.7854 0.7850
3113.530489 0.7850 0.7847 0.7842 0.7840 0.7840
3120.182385 0.7837 0.7832 0.7824 0.7814 0.7807
3126.834281 0.7802 0.7800 0.7800 0.7800 0.7800
3133.486177 0.7800 0.7800 0.7800 0.7800 0.7797
3140.138073 0.7792 0.7790 0.7790 0.7790 0.7790
3146.789969 0.7790 0.7790 0.7790 0.7790 0.7790
3153.441865 0.7790 0.7783 0.7773 0.7770 0.7770
3160.093762 0.7770 0.7770 0.7767 0.7762 0.7756
3166.745658 0.7751 0.7750 0.7750 0.7750 0.7750
3173.397554 0.7750 0.7750 0.7743 0.7733 0.7730
3180.049450 0.7730 0.7726 0.7721 0.7716 0.7711
3186.701346 0.7702 0.7692 0.7690 0.7690 0.7690
3193.353242 0.7690 0.7690 0.7690 0.7690 0.7690
3200.005138 0.7686 0.7681 0.7676 0.7671 0.7658
3206.657034 0.7643 0.7636 0.7631 0.7630 0.7630
3213.308930 0.7630 0.7630 0.7630 0.7630 0.7618
3219.960826 0.7602 0.7600 0.7600 0.7596 0.7591
3226.612722 0.7590 0.7590 0.7590 0.7590 0.7590
3233.264619 0.7590 0.7581 0.7571 0.7566 0.7561
3239.916515 0.7547 0.7532 0.7526 0.7521 0.7520
3246.568411 0.7520 0.7515 0.7510 0.7510 0.7510
3253.220307 0.7510 0.7510 0.7501 0.7491 0.7490
3259.872203 0.7490 0.7490 0.7490 0.7485 0.7480
3266.524099 0.7480 0.7480 0.7480 0.7480 0.7470
3273.175995 0.7460 0.7460 0.7460 0.7455 0.7450
3279.827891 0.7450 0.7450 0.7445 0.7440 0.7425
3286.479787 0.7410 0.7410 0.7410 0.7410 0.7410
3293.131683 0.7405 0.7400 0.7400 0.7400 0.7390
3299.783579 0.7380 0.7375 0.7370 0.7365 0.7360
3306.435476 0.7350 0.7340 0.7335 0.7330 0.7330
3313.087372 0.7330 0.7325 0.7320 0.7320 0.7319
3319.739268 0.7309 0.7300 0.7295 0.7289 0.7274
3326.391164 0.7260 0.7255 0.7249 0.7244 0.7238
3333.043060 0.7223 0.7209 0.7204 0.7200 0.7200
3339.694956 0.7197 0.7166 0.7139 0.7129 0.7119
3346.346852 0.7109 0.7099 0.7094 0.7087 0.7067
3352.998748 0.7049 0.7044 0.7038 0.7023 0.7009
3359.650644 0.7004 0.6998 0.6988 0.6976 0.6956
3366.302540 0.6938 0.6928 0.6917 0.6902 0.6889
3372.954436 0.6884 0.6878 0.6868 0.6859 0.6854
3379.606333 0.6846 0.6825 0.6807 0.6792 0.6774
3386.258229 0.6749 0.6726 0.6711 0.6699 0.6694
3392.910125 0.6686 0.6671 0.6656 0.6641 0.6625
3399.562021 0.6605 0.6587 0.6577 0.6566 0.6551
3406.213917 0.6536 0.6521 0.6509 0.6504 0.6499
3412.865813 0.6494 0.6487 0.6477 0.6467 0.6457
3419.517709 0.6439 0.6404 0.6378 0.6373 0.6365
3426.169605 0.6350 0.6338 0.6333 0.6327 0.6317
3432.821501 0.6308 0.6303 0.6300 0.6300 0.6298
3439.473397 0.6293 0.6290 0.6290 0.6290 0.6290
3446.125294 0.6286 0.6276 0.6270 0.6270 0.6268
3452.777190 0.6263 0.6260 0.6260 0.6260 0.6260
3459.429086 0.6258 0.6253 0.6250 0.6250 0.6246
3466.080982 0.6236 0.6230 0.6230 0.6230 0.6230
3472.732878 0.6234 0.6244 0.6250 0.6250 0.6250
3479.384774 0.6250 0.6250 0.6250 0.6252 0.6257
3486.036670 0.6260 0.6260 0.6260 0.6260 0.6260
3492.688566 0.6260 0.6260 0.6260 0.6262 0.6267
3499.340462 0.6275 0.6285 0.6290 0.6290 0.6290
3505.992358 0.6290 0.6292 0.6298 0.6300 0.6300
3512.644254 0.6300 0.6300 0.6303 0.6308 0.6315
3519.296151 0.6325 0.6333 0.6338 0.6340 0.6340
3525.948047 0.6343 0.6348 0.6356 0.6366 0.6373
3532.599943 0.6378 0.6380 0.6380 0.6383 0.6388
3539.251839 0.6399 0.6414 0.6423 0.6428 0.6439
3545.903735 0.6454 0.6463 0.6468 0.6476 0.6486
3552.555631 0.6490 0.6490 0.6496 0.6506 0.6516
3559.207527 0.6526 0.6536 0.6546 0.6556 0.6566
3565.859423 0.6583 0.6603 0.6623 0.6643 0.6653
3572.511319 0.6658 0.6667 0.6677 0.6683 0.6688
3579.163215 0.6693 0.6698 0.6710 0.6725 0.6733
3585.815111 0.6738 0.6740 0.6740 0.6747 0.6757
3592.467008 0.6767 0.6777 0.6787 0.6797 0.6800
3599.118904 0.6800 0.6815 0.6835 0.6844 0.6849
3605.770800 0.6854 0.6859 0.6871 0.6886 0.6890
3612.422696 0.6890 0.6905 0.6925 0.6934 0.6939
3619.074592 0.6948 0.6958 0.6964 0.6969 0.6974
3625.726488 0.6979 0.6980 0.6980 0.6980 0.6980
3632.378384 0.6988 0.6998 0.7000 0.7000 0.7004
3639.030280 0.7009 0.7010 0.7010 0.7010 0.7010
3645.682176 0.7014 0.7019 0.7020 0.7020 0.7029
3652.334072 0.7039 0.7040 0.7040 0.7044 0.7049
3658.985969 0.7050 0.7050 0.7050 0.7050 0.7050
3665.637865 0.7050 0.7050 0.7050 0.7050 0.7050
3672.289761 0.7050 0.7050 0.7050 0.7050 0.7050
3678.941657 0.7050 0.7045 0.7040 0.7040 0.7040
3685.593553 0.7040 0.7040 0.7040 0.7040 0.7031
3692.245449 0.7021 0.7020 0.7020 0.7020 0.7020
3698.897345 0.7015 0.7010 0.7010 0.7010 0.7010
3705.549241 0.7010 0.7010 0.7010 0.7005 0.7000
3712.201137 0.7000 0.7000 0.7005 0.7010 0.7010
3718.853033 0.7010 0.7010 0.7010 0.7010 0.7010
3725.504929 0.7010 0.7010 0.7010 0.7010 0.7005
3732.156826 0.7000 0.7000 0.7000 0.7000 0.7000
3738.808722 0.6990 0.6980 0.6980 0.6980 0.6980
3745.460618 0.6980 0.6975 0.6970 0.6970 0.6970
3752.112514 0.6970 0.6970 0.6965 0.6960 0.6960
3758.764410 0.6960 0.6960 0.6959 0.6949 0.6940
3765.416306 0.6940 0.6939 0.6934 0.6930 0.6930
3772.068202 0.6929 0.6924 0.6920 0.6920 0.6920
3778.720098 0.6920 0.6918 0.6908 0.6900 0.6900
3785.371994 0.6900 0.6900 0.6899 0.6894 0.6890
3792.023890 0.6890 0.6890 0.6890 0.6889 0.6884
3798.675786 0.6880 0.6880 0.6880 0.6880 0.6880
3805.327683 0.6880 0.6878 0.6868 0.6860 0.6860
3811.979579 0.6860 0.6860 0.6860 0.6860 0.6860
3818.631475 0.6860 0.6860 0.6860 0.6860 0.6860
3825.283371 0.6859 0.6854 0.6850 0.6850 0.6850
3831.935267 0.6850 0.6850 0.6850 0.6850 0.6850
3838.587163 0.6849 0.6844 0.6840 0.6840 0.6840
3845.239059 0.6840 0.6837 0.6827 0.6820 0.6820
3851.890955 0.6820 0.6820 0.6820 0.6820 0.6818
3858.542851 0.6813 0.6810 0.6810 0.6810 0.6810
3865.194747 0.6810 0.6810 0.6810 0.6810 0.6808
3871.846643 0.6803 0.6796 0.6786 0.6780 0.6780
3878.498540 0.6776 0.6766 0.6756 0.6746 0.6738
3885.150436 0.6733 0.6732 0.6737 0.6744 0.6754
3891.802332 0.6760 0.6760 0.6756 0.6746 0.6740
3898.454228 0.6740 0.6738 0.6733 0.6730 0.6730
3905.106124 0.6732 0.6737 0.6740 0.6740 0.6745
3911.758020 0.6755 0.6762 0.6767 0.6770 0.6770
3918.409916 0.6768 0.6763 0.6755 0.6745 0.6738
3925.061812 0.6733 0.6730 0.6730 0.6728 0.6723
3931.713708 0.6715 0.6705 0.6700 0.6700 0.6700
3938.365604 0.6700 0.6697 0.6692 0.6690 0.6690
3945.017501 0.6690 0.6690 0.6690 0.6690 0.6690
3951.669397 0.6690 0.6690 0.6690 0.6690 0.6690
3958.321293 0.6687 0.6682 0.6680 0.6680 0.6680
3964.973189 0.6680 0.6674 0.6664 0.6660 0.6660
3971.625085 0.6660 0.6660 0.6660 0.6660 0.6660
3978.276981 0.6660 0.6660 0.6660 0.6660 0.6660
3984.928877 0.6666 0.6676 0.6680 0.6680
##END=
