##TITLE=NICKELOUS PHOSPHATE, TRIBASIC
$$ C.P.
##JCAMP-DX=4.24
##DATA TYPE=INFRARED SPECTRUM
##CLASS=COBLENTZ
##ORIGIN=MELLON INSTITUTE
##OWNER=COBLENTZ SOCIETY
Collection (C) 2018 copyright by the U.S. Secretary of Commerce
on behalf of the United States of America. All rights reserved.
##DATE=Not specified, most likely prior to 1970
##MOLFORM=Ni3 ( P O4)2  * 7 H2 O
##SOURCE REFERENCE=COBLENTZ NO. 570
##$NIST ID=B6000570
##$NIST SOURCE=COBLENTZ
##$NIST IMAGE=cob570
##SPECTROMETER/DATA SYSTEM=Not specified, most likely a prism, grating, or hybrid spectrometer.
##STATE=SOLID (NUJOL MULL)
##PATH LENGTH=
$$SPECTRAL CONTAMINATION DUE TO OIL AROUND 2900, 1450, 1380 CM^-^1
##SAMPLING PROCEDURE=TRANSMISSION
##RESOLUTION=4
##DATA PROCESSING=DIGITIZED BY NIST FROM HARD COPY
##XUNITS=MICROMETERS
##YUNITS=TRANSMITTANCE
##XFACTOR=1.000000
##YFACTOR=1
##DELTAX=000.006647
##FIRSTX=2.036
##LASTX=16.0139
##FIRSTY=0.984
##MAXX=16.0139
##MINX=2.036
##MAXY=0.986
##MINY=0.095
##NPOINTS=2104
##XYDATA=(X++(Y..Y))
2.036000 0.9840 0.9840 0.9840 0.9840 0.9860
2.069248 0.9860 0.9860 0.9860 0.9840 0.9830
2.103000 0.9830 0.9830 0.9860 0.9860 0.9830
2.136248 0.9810 0.9790 0.9790 0.9790 0.9790
2.169000 0.9830 0.9830 0.9790 0.9790 0.9790
2.202248 0.9790 0.9810 0.9810 0.9830 0.9860
2.236000 0.9860 0.9830 0.9830 0.9830 0.9830
2.269248 0.9810 0.9810 0.9790 0.9760 0.9730
2.302000 0.9730 0.9730 0.9680 0.9680 0.9730
2.335248 0.9730 0.9730 0.9710 0.9690 0.9690
2.369000 0.9690 0.9690 0.9690 0.9690 0.9690
2.402248 0.9690 0.9690 0.9690 0.9690 0.9690
2.435000 0.9690 0.9680 0.9680 0.9690 0.9690
2.468248 0.9680 0.9680 0.9690 0.9690 0.9690
2.502000 0.9730 0.9730 0.9710 0.9710 0.9680
2.535248 0.9660 0.9660 0.9660 0.9640 0.9630
2.568000 0.9610 0.9610 0.9610 0.9610 0.9610
2.601248 0.9610 0.9610 0.9640 0.9680 0.9680
2.634000 0.9680 0.9640 0.9640 0.9580 0.9490
2.667248 0.9480 0.9480 0.9490 0.9540 0.9580
2.701000 0.9580 0.9540 0.9510 0.9460 0.9430
2.734248 0.9390 0.9310 0.9240 0.9180 0.9030
2.767000 0.8940 0.8870 0.8790 0.8620 0.8440
2.800248 0.8370 0.8190 0.8140 0.7990 0.7770
2.834000 0.7700 0.7490 0.7290 0.7120 0.6830
2.867248 0.6500 0.6200 0.5900 0.5380 0.5080
2.900000 0.4830 0.4580 0.4530 0.4510 0.4540
2.933248 0.4660 0.4760 0.4840 0.4890 0.4930
2.967000 0.4930 0.4930 0.4890 0.4860 0.4830
3.000248 0.4710 0.4640 0.4530 0.4390 0.4280
3.033000 0.4130 0.3990 0.3840 0.3740 0.3590
3.066248 0.3420 0.3310 0.3260 0.3210 0.3160
3.100000 0.3020 0.3010 0.2970 0.2890 0.2850
3.133248 0.2820 0.2770 0.2740 0.2720 0.2700
3.166000 0.2670 0.2650 0.2620 0.2600 0.2590
3.199248 0.2570 0.2540 0.2540 0.2520 0.2500
3.233000 0.2490 0.2470 0.2450 0.2440 0.2420
3.266248 0.2390 0.2350 0.2350 0.2350 0.2350
3.299000 0.2370 0.2370 0.2370 0.2350 0.2220
3.332248 0.2000 0.1780 0.1530 0.1400 0.1300
3.366000 0.1220 0.1120 0.1000 0.0960 0.0950
3.399248 0.0980 0.1220 0.1350 0.1580 0.1830
3.432000 0.2020 0.2050 0.2040 0.1950 0.1920
3.465248 0.1930 0.1980 0.2140 0.2400 0.2600
3.498000 0.2990 0.3220 0.3570 0.3840 0.4090
3.531248 0.4180 0.4240 0.4340 0.4430 0.4490
3.565000 0.4590 0.4610 0.4760 0.4830 0.4880
3.598248 0.4930 0.4980 0.5030 0.5110 0.5130
3.631000 0.5230 0.5300 0.5310 0.5360 0.5430
3.664248 0.5460 0.5530 0.5600 0.5660 0.5730
3.698000 0.5760 0.5800 0.5830 0.5900 0.5930
3.731248 0.5960 0.6020 0.6080 0.6130 0.6170
3.764000 0.6200 0.6230 0.6270 0.6300 0.6330
3.797248 0.6350 0.6380 0.6430 0.6470 0.6520
3.831000 0.6570 0.6600 0.6630 0.6650 0.6680
3.864248 0.6720 0.6750 0.6780 0.6800 0.6830
3.897000 0.6850 0.6870 0.6880 0.6900 0.6920
3.930248 0.6930 0.6970 0.6980 0.7000 0.7020
3.964000 0.7040 0.7050 0.7050 0.7090 0.7100
3.997248 0.7100 0.7120 0.7140 0.7150 0.7150
4.030000 0.7170 0.7170 0.7190 0.7190 0.7190
4.063248 0.7200 0.7200 0.7200 0.7220 0.7220
4.097000 0.7200 0.7190 0.7190 0.7190 0.7200
4.130248 0.7220 0.7220 0.7220 0.7220 0.7220
4.163000 0.7220 0.7220 0.7200 0.7190 0.7190
4.196248 0.7150 0.7120 0.7070 0.6980 0.6880
4.230000 0.6870 0.6870 0.6850 0.6830 0.6830
4.263248 0.6850 0.6850 0.6880 0.6880 0.6880
4.296000 0.6870 0.6850 0.6850 0.6850 0.6870
4.329248 0.6880 0.6930 0.6980 0.7020 0.7120
4.363000 0.7220 0.7320 0.7390 0.7420 0.7470
4.396248 0.7520 0.7600 0.7670 0.7720 0.7740
4.429000 0.7770 0.7790 0.7800 0.7820 0.7840
4.462248 0.7870 0.7890 0.7940 0.7950 0.7970
4.495000 0.7990 0.8010 0.8010 0.8020 0.8040
4.528248 0.8060 0.8070 0.8070 0.8110 0.8110
4.562000 0.8120 0.8140 0.8140 0.8160 0.8170
4.595248 0.8170 0.8190 0.8210 0.8210 0.8220
4.628000 0.8220 0.8240 0.8260 0.8270 0.8270
4.661248 0.8290 0.8310 0.8310 0.8320 0.8340
4.695000 0.8340 0.8360 0.8370 0.8370 0.8390
4.728248 0.8390 0.8410 0.8410 0.8420 0.8420
4.761000 0.8440 0.8440 0.8460 0.8470 0.8470
4.794248 0.8470 0.8490 0.8490 0.8490 0.8510
4.828000 0.8510 0.8510 0.8520 0.8520 0.8520
4.861248 0.8520 0.8520 0.8520 0.8540 0.8540
4.894000 0.8540 0.8540 0.8540 0.8540 0.8540
4.927248 0.8540 0.8520 0.8520 0.8520 0.8540
4.961000 0.8540 0.8540 0.8540 0.8540 0.8560
4.994248 0.8570 0.8570 0.8590 0.8590 0.8590
5.027000 0.8590 0.8590 0.8590 0.8610 0.8610
5.060248 0.8610 0.8620 0.8640 0.8640 0.8620
5.094000 0.8620 0.8620 0.8640 0.8640 0.8620
5.127248 0.8620 0.8620 0.8620 0.8640 0.8640
5.160000 0.8660 0.8660 0.8660 0.8660 0.8640
5.193248 0.8640 0.8640 0.8640 0.8640 0.8640
5.227000 0.8640 0.8640 0.8640 0.8620 0.8620
5.260248 0.8620 0.8610 0.8610 0.8610 0.8610
5.293000 0.8620 0.8610 0.8620 0.8620 0.8640
5.326248 0.8640 0.8640 0.8620 0.8610 0.8590
5.360000 0.8590 0.8590 0.8610 0.8610 0.8610
5.393248 0.8610 0.8620 0.8620 0.8620 0.8620
5.426000 0.8610 0.8610 0.8620 0.8620 0.8610
5.459248 0.8610 0.8590 0.8570 0.8560 0.8540
5.492000 0.8540 0.8540 0.8540 0.8540 0.8540
5.525248 0.8540 0.8540 0.8560 0.8570 0.8590
5.559000 0.8610 0.8610 0.8610 0.8610 0.8610
5.592248 0.8610 0.8620 0.8640 0.8640 0.8640
5.625000 0.8640 0.8640 0.8640 0.8640 0.8640
5.658248 0.8640 0.8660 0.8660 0.8640 0.8640
5.692000 0.8640 0.8620 0.8610 0.8610 0.8610
5.725248 0.8620 0.8640 0.8640 0.8640 0.8620
5.758000 0.8620 0.8610 0.8590 0.8590 0.8590
5.791248 0.8590 0.8570 0.8560 0.8520 0.8520
5.825000 0.8520 0.8540 0.8560 0.8560 0.8510
5.858248 0.8420 0.8390 0.8340 0.8340 0.8370
5.891000 0.8390 0.8410 0.8320 0.8290 0.8270
5.924248 0.8240 0.8220 0.8220 0.8220 0.8220
5.958000 0.8220 0.8190 0.8120 0.8110 0.8110
5.991248 0.8110 0.8090 0.8090 0.8070 0.8060
6.024000 0.8040 0.8020 0.8020 0.8060 0.8060
6.057248 0.8010 0.7970 0.7940 0.7920 0.7920
6.091000 0.7920 0.7940 0.7920 0.7920 0.7900
6.124248 0.7890 0.7890 0.7890 0.7870 0.7820
6.157000 0.7790 0.7750 0.7720 0.7700 0.7670
6.190248 0.7670 0.7640 0.7620 0.7570 0.7550
6.224000 0.7500 0.7490 0.7470 0.7450 0.7440
6.257248 0.7440 0.7420 0.7420 0.7420 0.7440
6.290000 0.7440 0.7440 0.7450 0.7490 0.7500
6.323248 0.7550 0.7570 0.7590 0.7620 0.7640
6.356000 0.7650 0.7650 0.7670 0.7690 0.7770
6.389248 0.7820 0.7870 0.7900 0.7900 0.7940
6.423000 0.7950 0.7950 0.7950 0.7990 0.7990
6.456248 0.8010 0.8020 0.8090 0.8090 0.8140
6.489000 0.8190 0.8220 0.8290 0.8310 0.8290
6.522248 0.8270 0.8270 0.8270 0.8270 0.8270
6.556000 0.8270 0.8270 0.8270 0.8290 0.8310
6.589248 0.8320 0.8360 0.8370 0.8390 0.8410
6.622000 0.8410 0.8390 0.8390 0.8410 0.8410
6.655248 0.8420 0.8460 0.8490 0.8510 0.8510
6.689000 0.8510 0.8520 0.8520 0.8510 0.8460
6.722248 0.8360 0.8340 0.8340 0.8310 0.8270
6.755000 0.8190 0.8120 0.8040 0.8010 0.7770
6.788248 0.7670 0.7500 0.7220 0.6920 0.6630
6.822000 0.6400 0.6280 0.6170 0.6030 0.6000
6.855248 0.5930 0.5900 0.5880 0.5880 0.5900
6.888000 0.5910 0.5960 0.5980 0.5980 0.6000
6.921248 0.6000 0.6020 0.6020 0.6070 0.6080
6.955000 0.6100 0.6120 0.6130 0.6220 0.6330
6.988248 0.6500 0.6670 0.6750 0.7040 0.7200
7.021000 0.7400 0.7440 0.7570 0.7600 0.7670
7.054248 0.7720 0.7750 0.7950 0.8020 0.8260
7.088000 0.8310 0.8440 0.8540 0.8560 0.8610
7.121248 0.8620 0.8690 0.8720 0.8740 0.8760
7.154000 0.8760 0.8770 0.8810 0.8840 0.8860
7.187248 0.8860 0.8870 0.8860 0.8760 0.8670
7.221000 0.8590 0.8520 0.8410 0.8290 0.8170
7.254248 0.8090 0.8010 0.7950 0.7950 0.8010
7.287000 0.8020 0.8190 0.8240 0.8290 0.8340
7.320248 0.8420 0.8460 0.8510 0.8540 0.8640
7.353000 0.8740 0.8820 0.8860 0.8910 0.8940
7.386248 0.8970 0.8990 0.9010 0.9030 0.9040
7.420000 0.9040 0.9090 0.9130 0.9130 0.9110
7.453248 0.9110 0.9110 0.9110 0.9130 0.9140
7.486000 0.9180 0.9190 0.9210 0.9230 0.9240
7.519248 0.9260 0.9290 0.9290 0.9310 0.9310
7.553000 0.9310 0.9330 0.9330 0.9340 0.9340
7.586248 0.9340 0.9340 0.9360 0.9380 0.9380
7.619000 0.9360 0.9360 0.9360 0.9360 0.9360
7.652248 0.9380 0.9380 0.9380 0.9380 0.9360
7.686000 0.9340 0.9340 0.9360 0.9360 0.9360
7.719248 0.9360 0.9380 0.9390 0.9390 0.9390
7.752000 0.9380 0.9380 0.9380 0.9380 0.9380
7.785248 0.9390 0.9410 0.9430 0.9430 0.9430
7.819000 0.9430 0.9430 0.9440 0.9440 0.9440
7.852248 0.9460 0.9460 0.9440 0.9440 0.9440
7.885000 0.9440 0.9440 0.9460 0.9460 0.9480
7.918248 0.9480 0.9480 0.9480 0.9460 0.9460
7.952000 0.9440 0.9440 0.9440 0.9440 0.9440
7.985248 0.9440 0.9440 0.9460 0.9480 0.9480
8.018000 0.9490 0.9490 0.9490 0.9490 0.9510
8.051248 0.9490 0.9490 0.9490 0.9490 0.9510
8.085000 0.9530 0.9530 0.9530 0.9530 0.9530
8.118248 0.9510 0.9510 0.9510 0.9510 0.9510
8.151000 0.9510 0.9510 0.9490 0.9490 0.9510
8.184248 0.9510 0.9510 0.9510 0.9510 0.9510
8.218000 0.9510 0.9510 0.9510 0.9510 0.9530
8.251248 0.9510 0.9510 0.9510 0.9530 0.9530
8.284000 0.9530 0.9530 0.9530 0.9530 0.9530
8.317248 0.9510 0.9510 0.9530 0.9530 0.9530
8.350000 0.9510 0.9510 0.9510 0.9510 0.9530
8.383248 0.9530 0.9530 0.9530 0.9510 0.9510
8.417000 0.9510 0.9510 0.9510 0.9490 0.9490
8.450248 0.9490 0.9480 0.9480 0.9480 0.9480
8.483000 0.9480 0.9460 0.9430 0.9430 0.9410
8.516248 0.9390 0.9390 0.9380 0.9380 0.9380
8.550000 0.9380 0.9380 0.9380 0.9380 0.9360
8.583248 0.9330 0.9310 0.9310 0.9310 0.9290
8.616000 0.9280 0.9240 0.9240 0.9240 0.9240
8.649248 0.9240 0.9240 0.9240 0.9240 0.9240
8.683000 0.9230 0.9210 0.9180 0.9180 0.9160
8.716248 0.9160 0.9140 0.9140 0.9140 0.9140
8.749000 0.9130 0.9110 0.9110 0.9110 0.9110
8.782248 0.9090 0.9060 0.9040 0.9030 0.9030
8.816000 0.9010 0.8990 0.8970 0.8960 0.8940
8.849248 0.8920 0.8910 0.8890 0.8870 0.8860
8.882000 0.8840 0.8820 0.8810 0.8810 0.8790
8.915248 0.8770 0.8760 0.8740 0.8740 0.8710
8.949000 0.8690 0.8660 0.8620 0.8610 0.8540
8.982248 0.8540 0.8510 0.8460 0.8410 0.8360
9.015000 0.8320 0.8310 0.8270 0.8240 0.8220
9.048248 0.8190 0.8170 0.8160 0.8120 0.8060
9.082000 0.8020 0.8020 0.8010 0.7990 0.7950
9.115248 0.7940 0.7900 0.7840 0.7800 0.7740
9.148000 0.7670 0.7640 0.7640 0.7620 0.7540
9.181248 0.7520 0.7500 0.7470 0.7400 0.7240
9.215000 0.7190 0.7070 0.7000 0.6920 0.6820
9.248248 0.6730 0.6580 0.6530 0.6380 0.6270
9.281000 0.6200 0.6120 0.5910 0.5800 0.5700
9.314248 0.5550 0.5380 0.5300 0.5130 0.4980
9.347000 0.4880 0.4840 0.4810 0.4710 0.4630
9.380248 0.4540 0.4510 0.4480 0.4380 0.4340
9.414000 0.4290 0.4280 0.4240 0.4240 0.4210
9.447248 0.4180 0.4130 0.4090 0.4090 0.4080
9.480000 0.4040 0.4040 0.4030 0.4030 0.4010
9.513248 0.3990 0.3970 0.3960 0.3940 0.3920
9.547000 0.3910 0.3860 0.3810 0.3770 0.3720
9.580248 0.3710 0.3620 0.3590 0.3540 0.3470
9.613000 0.3420 0.3370 0.3320 0.3290 0.3220
9.646248 0.3140 0.3020 0.3010 0.2920 0.2840
9.680000 0.2800 0.2720 0.2690 0.2640 0.2590
9.713248 0.2540 0.2500 0.2450 0.2400 0.2320
9.746000 0.2240 0.2220 0.2140 0.2070 0.2040
9.779248 0.2000 0.1950 0.1930 0.1920 0.1900
9.813000 0.1900 0.1900 0.1900 0.1880 0.1880
9.846248 0.1870 0.1850 0.1830 0.1820 0.1820
9.879000 0.1820 0.1820 0.1820 0.1820 0.1820
9.912248 0.1800 0.1800 0.1800 0.1800 0.1780
9.946000 0.1780 0.1780 0.1780 0.1780 0.1780
9.979248 0.1780 0.1780 0.1780 0.1780 0.1780
10.012000 0.1780 0.1780 0.1780 0.1800 0.1800
10.045248 0.1800 0.1820 0.1820 0.1830 0.1830
10.079000 0.1830 0.1870 0.1880 0.1900 0.1930
10.112248 0.2000 0.2020 0.2020 0.2040 0.2040
10.145000 0.2070 0.2070 0.2120 0.2150 0.2190
10.178248 0.2220 0.2300 0.2300 0.2350 0.2420
10.211000 0.2470 0.2500 0.2520 0.2540 0.2590
10.244248 0.2620 0.2690 0.2700 0.2790 0.2820
10.278000 0.2850 0.2900 0.2950 0.2990 0.3010
10.311248 0.3020 0.3090 0.3120 0.3160 0.3190
10.344000 0.3210 0.3260 0.3270 0.3290 0.3310
10.377248 0.3320 0.3370 0.3390 0.3420 0.3420
10.411000 0.3460 0.3470 0.3490 0.3510 0.3520
10.444248 0.3540 0.3540 0.3570 0.3590 0.3590
10.477000 0.3660 0.3670 0.3690 0.3710 0.3710
10.510248 0.3720 0.3740 0.3770 0.3790 0.3790
10.544000 0.3790 0.3790 0.3790 0.3790 0.3810
10.577248 0.3810 0.3810 0.3810 0.3820 0.3820
10.610000 0.3820 0.3820 0.3840 0.3840 0.3840
10.643248 0.3840 0.3840 0.3890 0.3910 0.3970
10.677000 0.3990 0.4010 0.4080 0.4160 0.4190
10.710248 0.4230 0.4310 0.4340 0.4440 0.4480
10.743000 0.4530 0.4590 0.4710 0.4730 0.4810
10.776248 0.4860 0.4930 0.4980 0.5000 0.5080
10.810000 0.5160 0.5200 0.5280 0.5330 0.5380
10.843248 0.5380 0.5410 0.5450 0.5500 0.5510
10.876000 0.5530 0.5550 0.5550 0.5600 0.5650
10.909248 0.5660 0.5680 0.5710 0.5750 0.5760
10.943000 0.5780 0.5800 0.5800 0.5830 0.5850
10.976248 0.5850 0.5850 0.5860 0.5850 0.5850
11.009000 0.5850 0.5830 0.5830 0.5830 0.5830
11.042248 0.5810 0.5800 0.5780 0.5760 0.5750
11.076000 0.5750 0.5730 0.5730 0.5730 0.5710
11.109248 0.5700 0.5650 0.5630 0.5600 0.5580
11.142000 0.5550 0.5530 0.5510 0.5510 0.5500
11.175248 0.5480 0.5450 0.5410 0.5410 0.5400
11.208000 0.5380 0.5360 0.5350 0.5330 0.5310
11.241248 0.5300 0.5300 0.5280 0.5280 0.5260
11.275000 0.5250 0.5250 0.5230 0.5200 0.5180
11.308248 0.5180 0.5150 0.5150 0.5150 0.5150
11.341000 0.5130 0.5130 0.5110 0.5110 0.5110
11.374248 0.5110 0.5110 0.5100 0.5100 0.5100
11.408000 0.5110 0.5110 0.5130 0.5150 0.5160
11.441248 0.5180 0.5200 0.5210 0.5230 0.5250
11.474000 0.5250 0.5260 0.5300 0.5300 0.5310
11.507248 0.5350 0.5380 0.5410 0.5430 0.5480
11.541000 0.5510 0.5530 0.5550 0.5550 0.5610
11.574248 0.5650 0.5680 0.5710 0.5730 0.5760
11.607000 0.5780 0.5830 0.5900 0.5930 0.5950
11.640248 0.6000 0.6020 0.6020 0.6030 0.6050
11.674000 0.6120 0.6150 0.6180 0.6230 0.6250
11.707248 0.6330 0.6370 0.6380 0.6400 0.6430
11.740000 0.6450 0.6500 0.6530 0.6550 0.6620
11.773248 0.6650 0.6670 0.6700 0.6730 0.6750
11.807000 0.6780 0.6830 0.6850 0.6870 0.6920
11.840248 0.6930 0.6970 0.6980 0.7000 0.7020
11.873000 0.7040 0.7040 0.7090 0.7120 0.7140
11.906248 0.7150 0.7150 0.7150 0.7170 0.7190
11.940000 0.7220 0.7240 0.7250 0.7270 0.7270
11.973248 0.7290 0.7300 0.7320 0.7320 0.7350
12.006000 0.7370 0.7390 0.7400 0.7400 0.7420
12.039248 0.7420 0.7420 0.7440 0.7440 0.7450
12.073000 0.7450 0.7450 0.7450 0.7470 0.7490
12.106248 0.7490 0.7500 0.7500 0.7500 0.7500
12.139000 0.7500 0.7500 0.7520 0.7520 0.7540
12.172248 0.7540 0.7540 0.7540 0.7540 0.7550
12.205000 0.7550 0.7570 0.7570 0.7590 0.7590
12.238248 0.7590 0.7590 0.7590 0.7590 0.7590
12.272000 0.7590 0.7590 0.7590 0.7590 0.7600
12.305248 0.7600 0.7600 0.7620 0.7620 0.7600
12.338000 0.7590 0.7590 0.7590 0.7600 0.7600
12.371248 0.7600 0.7620 0.7620 0.7620 0.7640
12.405000 0.7640 0.7640 0.7670 0.7670 0.7670
12.438248 0.7650 0.7650 0.7670 0.7670 0.7670
12.471000 0.7670 0.7670 0.7690 0.7690 0.7690
12.504248 0.7690 0.7690 0.7690 0.7700 0.7700
12.538000 0.7700 0.7690 0.7690 0.7690 0.7690
12.571248 0.7690 0.7690 0.7690 0.7690 0.7690
12.604000 0.7690 0.7700 0.7700 0.7690 0.7690
12.637248 0.7670 0.7620 0.7600 0.7600 0.7600
12.671000 0.7600 0.7590 0.7590 0.7590 0.7590
12.704248 0.7590 0.7590 0.7590 0.7590 0.7590
12.737000 0.7590 0.7590 0.7590 0.7590 0.7570
12.770248 0.7570 0.7540 0.7540 0.7540 0.7540
12.804000 0.7540 0.7550 0.7550 0.7540 0.7540
12.837248 0.7540 0.7520 0.7500 0.7490 0.7450
12.870000 0.7440 0.7440 0.7440 0.7420 0.7420
12.903248 0.7400 0.7390 0.7370 0.7370 0.7350
12.937000 0.7320 0.7300 0.7300 0.7300 0.7300
12.970248 0.7290 0.7290 0.7300 0.7300 0.7290
13.003000 0.7290 0.7290 0.7290 0.7270 0.7270
13.036248 0.7250 0.7250 0.7240 0.7240 0.7220
13.069000 0.7220 0.7200 0.7200 0.7170 0.7150
13.102248 0.7150 0.7140 0.7120 0.7100 0.7090
13.136000 0.7090 0.7090 0.7050 0.7050 0.7050
13.169248 0.7040 0.7040 0.7020 0.7020 0.7000
13.202000 0.7000 0.6980 0.6950 0.6950 0.6950
13.235248 0.6920 0.6920 0.6920 0.6920 0.6900
13.269000 0.6900 0.6900 0.6900 0.6900 0.6900
13.302248 0.6880 0.6880 0.6880 0.6870 0.6870
13.335000 0.6870 0.6850 0.6850 0.6830 0.6820
13.368248 0.6820 0.6820 0.6820 0.6800 0.6800
13.402000 0.6800 0.6820 0.6820 0.6800 0.6800
13.435248 0.6800 0.6800 0.6800 0.6820 0.6820
13.468000 0.6800 0.6780 0.6780 0.6780 0.6780
13.501248 0.6780 0.6780 0.6780 0.6780 0.6780
13.535000 0.6780 0.6780 0.6780 0.6780 0.6780
13.568248 0.6800 0.6780 0.6780 0.6780 0.6780
13.601000 0.6780 0.6780 0.6780 0.6780 0.6780
13.634248 0.6780 0.6780 0.6780 0.6780 0.6780
13.668000 0.6780 0.6780 0.6780 0.6780 0.6780
13.701248 0.6780 0.6780 0.6780 0.6780 0.6780
13.734000 0.6780 0.6780 0.6780 0.6780 0.6780
13.767248 0.6780 0.6800 0.6800 0.6820 0.6820
13.801000 0.6820 0.6800 0.6820 0.6820 0.6830
13.834248 0.6830 0.6850 0.6850 0.6850 0.6850
13.867000 0.6850 0.6830 0.6830 0.6830 0.6830
13.900248 0.6830 0.6830 0.6830 0.6830 0.6820
13.934000 0.6830 0.6830 0.6850 0.6870 0.6870
13.967248 0.6880 0.6900 0.6920 0.6920 0.6920
14.000000 0.6930 0.6970 0.6970 0.6980 0.6980
14.033248 0.6980 0.6980 0.6980 0.7000 0.7000
14.066000 0.7000 0.7020 0.7020 0.7020 0.7020
14.099248 0.7020 0.7040 0.7040 0.7040 0.7050
14.133000 0.7050 0.7050 0.7050 0.7050 0.7050
14.166248 0.7050 0.7070 0.7070 0.7090 0.7120
14.199000 0.7120 0.7120 0.7140 0.7140 0.7150
14.232248 0.7150 0.7150 0.7150 0.7150 0.7150
14.266000 0.7150 0.7150 0.7150 0.7170 0.7170
14.299248 0.7170 0.7190 0.7190 0.7190 0.7190
14.332000 0.7170 0.7170 0.7170 0.7170 0.7170
14.365248 0.7170 0.7170 0.7190 0.7190 0.7190
14.399000 0.7190 0.7190 0.7190 0.7190 0.7190
14.432248 0.7190 0.7190 0.7190 0.7190 0.7190
14.465000 0.7190 0.7190 0.7190 0.7170 0.7170
14.498248 0.7150 0.7150 0.7140 0.7140 0.7120
14.532000 0.7120 0.7100 0.7100 0.7100 0.7090
14.565248 0.7090 0.7070 0.7050 0.7050 0.7050
14.598000 0.7040 0.7040 0.7040 0.7040 0.7040
14.631248 0.7040 0.7040 0.7040 0.7040 0.7020
14.665000 0.7020 0.7000 0.7000 0.6980 0.6980
14.698248 0.6980 0.6970 0.6970 0.6970 0.6970
14.731000 0.6970 0.6950 0.6950 0.6950 0.6950
14.764248 0.6950 0.6930 0.6920 0.6920 0.6900
14.798000 0.6900 0.6880 0.6880 0.6870 0.6870
14.831248 0.6850 0.6850 0.6850 0.6830 0.6820
14.864000 0.6800 0.6800 0.6800 0.6800 0.6800
14.897248 0.6780 0.6780 0.6780 0.6770 0.6750
14.931000 0.6750 0.6750 0.6750 0.6730 0.6730
14.964248 0.6730 0.6730 0.6730 0.6730 0.6730
14.997000 0.6730 0.6730 0.6720 0.6700 0.6680
15.030248 0.6670 0.6670 0.6670 0.6650 0.6650
15.063000 0.6670 0.6650 0.6650 0.6650 0.6630
15.096248 0.6620 0.6620 0.6600 0.6580 0.6580
15.130000 0.6570 0.6570 0.6530 0.6530 0.6530
15.163248 0.6530 0.6530 0.6530 0.6530 0.6520
15.196000 0.6520 0.6500 0.6500 0.6480 0.6480
15.229248 0.6470 0.6450 0.6450 0.6450 0.6450
15.263000 0.6450 0.6450 0.6430 0.6430 0.6430
15.296248 0.6420 0.6420 0.6400 0.6400 0.6400
15.329000 0.6400 0.6400 0.6400 0.6400 0.6380
15.362248 0.6380 0.6380 0.6380 0.6370 0.6350
15.396000 0.6350 0.6330 0.6330 0.6320 0.6320
15.429248 0.6300 0.6300 0.6300 0.6300 0.6280
15.462000 0.6280 0.6270 0.6270 0.6250 0.6250
15.495248 0.6250 0.6250 0.6230 0.6230 0.6220
15.529000 0.6220 0.6200 0.6200 0.6180 0.6180
15.562248 0.6170 0.6170 0.6170 0.6170 0.6170
15.595000 0.6170 0.6170 0.6170 0.6150 0.6120
15.628248 0.6120 0.6100 0.6100 0.6100 0.6080
15.662000 0.6080 0.6080 0.6070 0.6070 0.6070
15.695248 0.6050 0.6050 0.6050 0.6050 0.6050
15.728000 0.6050 0.6030 0.6030 0.6030 0.6030
15.761248 0.6030 0.6030 0.6020 0.6030 0.6030
15.795000 0.6030 0.6020 0.6020 0.6020 0.6020
15.828248 0.6020 0.6020 0.6000 0.6000 0.6000
15.861000 0.5980 0.5960 0.5950 0.5930 0.5930
15.894248 0.5930 0.5930 0.5930 0.5930 0.5930
15.927000 0.5930 0.5930 0.5910 0.5910 0.5910
15.960248 0.5910 0.5910 0.5910 0.5910 0.5910
15.994000 0.5910 0.5910 0.5910 0.5910
##END=
