##TITLE=PYRIDOXINE HYDROCHLORIDE
##JCAMP-DX=4.24
$$ By DXEDIT 1.05 (RS McDonald)
##DATA TYPE=INFRARED SPECTRUM
##CLASS=COBLENTZ III
##OWNER=COBLENTZ SOC.
Collection (C) 2018 copyright by the U.S. Secretary of Commerce
on behalf of the United States of America. All rights reserved.
##DATE=1961/08/22
##NAMES=4,5-bis(hydroxymethyl)-2-methyl-3-pyridinol hydrochloride
5-HYDROXY-6-METHYL-3,4-PYRIDINEDIMETHANOL HYDROCHLORIDE
##MOLFORM=C8 H12 Cl N O3
##MP=205-212 C DECOMP.
##SOURCE REFERENCE=COBLENTZ NO. 05183
##$NIST ID=B6005183
##$NIST SOURCE=COBLENTZ
##$NIST IMAGE=cob5183
##SPECTROMETER/DATA SYSTEM=PERKIN-ELMER 21 (GRATING)
##INSTRUMENT PARAMETERS=FILTER AT ABOUT 10 MICRONS
##STATE=SOLID (1 mg / 200 mg KCl DISC) VS KCl
##PATH LENGTH=0.055 CM (THICKNESS)
##SAMPLING PROCEDURE=TRANSMISSION
##RESOLUTION=2
##DATA PROCESSING=DIGITIZED BY COBLENTZ SOCIETY (BATCH I) FROM HARD COPY
##XUNITS=1/CM
##YUNITS=TRANSMITTANCE
##XLABEL=Wavenumbers (cm-1)
##YLABEL=Transmittance
##XFACTOR=1
##YFACTOR=1
##DELTAX=1
##FIRSTX=4000
##LASTX=668
##FIRSTY=0.6968
##MAXX=4000
##MINX=668
##MAXY=0.8639
##MINY=0.0501
##NPOINTS=3333
##XYDATA=(X++(Y..Y))
4000.000000 0.6968 0.6971 0.6972 0.6975 0.6976
3995.000000 0.6978 0.6981 0.6983 0.6985 0.6987
3990.000000 0.6989 0.6992 0.6994 0.6996 0.6998
3985.000000 0.7000 0.7001 0.7004 0.7006 0.7008
3980.000000 0.7010 0.7012 0.7015 0.7017 0.7018
3975.000000 0.7021 0.7024 0.7025 0.7028 0.7030
3970.000000 0.7032 0.7034 0.7036 0.7038 0.7040
3965.000000 0.7042 0.7044 0.7046 0.7048 0.7051
3960.000000 0.7053 0.7055 0.7057 0.7060 0.7061
3955.000000 0.7064 0.7065 0.7068 0.7069 0.7071
3950.000000 0.7072 0.7075 0.7078 0.7080 0.7082
3945.000000 0.7084 0.7086 0.7088 0.7090 0.7092
3940.000000 0.7094 0.7096 0.7098 0.7100 0.7101
3935.000000 0.7103 0.7105 0.7107 0.7108 0.7111
3930.000000 0.7112 0.7115 0.7117 0.7118 0.7121
3925.000000 0.7122 0.7125 0.7126 0.7128 0.7131
3920.000000 0.7133 0.7135 0.7137 0.7139 0.7141
3915.000000 0.7143 0.7145 0.7147 0.7149 0.7151
3910.000000 0.7153 0.7155 0.7157 0.7158 0.7161
3905.000000 0.7162 0.7165 0.7167 0.7169 0.7171
3900.000000 0.7174 0.7175 0.7178 0.7180 0.7182
3895.000000 0.7184 0.7186 0.7188 0.7190 0.7192
3890.000000 0.7194 0.7196 0.7198 0.7200 0.7201
3885.000000 0.7204 0.7205 0.7207 0.7208 0.7211
3880.000000 0.7214 0.7215 0.7218 0.7219 0.7221
3875.000000 0.7224 0.7225 0.7228 0.7230 0.7232
3870.000000 0.7233 0.7235 0.7237 0.7239 0.7241
3865.000000 0.7243 0.7244 0.7246 0.7248 0.7251
3860.000000 0.7253 0.7255 0.7257 0.7258 0.7260
3855.000000 0.7261 0.7264 0.7265 0.7268 0.7269
3850.000000 0.7271 0.7272 0.7275 0.7276 0.7278
3845.000000 0.7281 0.7283 0.7285 0.7287 0.7289
3840.000000 0.7291 0.7293 0.7295 0.7297 0.7298
3835.000000 0.7300 0.7301 0.7304 0.7306 0.7308
3830.000000 0.7310 0.7311 0.7312 0.7315 0.7318
3825.000000 0.7319 0.7321 0.7324 0.7325 0.7326
3820.000000 0.7328 0.7331 0.7332 0.7334 0.7336
3815.000000 0.7338 0.7340 0.7342 0.7344 0.7345
3810.000000 0.7347 0.7349 0.7351 0.7351 0.7354
3805.000000 0.7356 0.7358 0.7358 0.7361 0.7362
3800.000000 0.7364 0.7365 0.7368 0.7369 0.7371
3795.000000 0.7374 0.7375 0.7378 0.7378 0.7381
3790.000000 0.7383 0.7385 0.7386 0.7388 0.7390
3785.000000 0.7392 0.7393 0.7395 0.7397 0.7400
3780.000000 0.7403 0.7406 0.7410 0.7412 0.7415
3775.000000 0.7418 0.7421 0.7425 0.7428 0.7432
3770.000000 0.7435 0.7438 0.7441 0.7444 0.7447
3765.000000 0.7450 0.7453 0.7456 0.7460 0.7462
3760.000000 0.7465 0.7471 0.7482 0.7492 0.7501
3755.000000 0.7511 0.7521 0.7528 0.7533 0.7538
3750.000000 0.7543 0.7547 0.7551 0.7556 0.7560
3745.000000 0.7564 0.7568 0.7572 0.7575 0.7576
3740.000000 0.7578 0.7580 0.7582 0.7583 0.7584
3735.000000 0.7585 0.7586 0.7587 0.7588 0.7589
3730.000000 0.7589 0.7590 0.7591 0.7592 0.7592
3725.000000 0.7593 0.7594 0.7595 0.7595 0.7596
3720.000000 0.7597 0.7597 0.7598 0.7599 0.7600
3715.000000 0.7600 0.7601 0.7605 0.7607 0.7608
3710.000000 0.7611 0.7614 0.7617 0.7619 0.7622
3705.000000 0.7625 0.7630 0.7633 0.7636 0.7639
3700.000000 0.7643 0.7646 0.7650 0.7654 0.7658
3695.000000 0.7664 0.7668 0.7672 0.7678 0.7683
3690.000000 0.7688 0.7692 0.7697 0.7701 0.7707
3685.000000 0.7711 0.7715 0.7721 0.7725 0.7731
3680.000000 0.7736 0.7740 0.7745 0.7750 0.7755
3675.000000 0.7760 0.7764 0.7768 0.7774 0.7778
3670.000000 0.7783 0.7788 0.7792 0.7797 0.7801
3665.000000 0.7805 0.7808 0.7811 0.7814 0.7817
3660.000000 0.7821 0.7824 0.7826 0.7830 0.7833
3655.000000 0.7836 0.7840 0.7843 0.7846 0.7849
3650.000000 0.7851 0.7856 0.7858 0.7861 0.7865
3645.000000 0.7868 0.7872 0.7875 0.7878 0.7882
3640.000000 0.7885 0.7889 0.7892 0.7895 0.7898
3635.000000 0.7901 0.7905 0.7908 0.7911 0.7914
3630.000000 0.7917 0.7921 0.7924 0.7925 0.7928
3625.000000 0.7932 0.7934 0.7937 0.7939 0.7942
3620.000000 0.7944 0.7946 0.7948 0.7950 0.7953
3615.000000 0.7955 0.7957 0.7958 0.7961 0.7961
3610.000000 0.7964 0.7965 0.7967 0.7968 0.7968
3605.000000 0.7968 0.7969 0.7971 0.7971 0.7971
3600.000000 0.7972 0.7972 0.7974 0.7975 0.7975
3595.000000 0.7975 0.7976 0.7978 0.7978 0.7978
3590.000000 0.7980 0.7980 0.7981 0.7981 0.7981
3585.000000 0.7981 0.7981 0.7981 0.7981 0.7980
3580.000000 0.7978 0.7976 0.7975 0.7974 0.7972
3575.000000 0.7971 0.7969 0.7968 0.7967 0.7965
3570.000000 0.7965 0.7962 0.7961 0.7960 0.7958
3565.000000 0.7958 0.7956 0.7955 0.7954 0.7951
3560.000000 0.7950 0.7947 0.7945 0.7942 0.7940
3555.000000 0.7937 0.7934 0.7932 0.7928 0.7925
3550.000000 0.7924 0.7921 0.7918 0.7915 0.7912
3545.000000 0.7910 0.7908 0.7905 0.7901 0.7899
3540.000000 0.7897 0.7894 0.7892 0.7889 0.7886
3535.000000 0.7880 0.7874 0.7868 0.7861 0.7856
3530.000000 0.7847 0.7838 0.7828 0.7821 0.7811
3525.000000 0.7803 0.7794 0.7785 0.7775 0.7767
3520.000000 0.7758 0.7748 0.7739 0.7728 0.7719
3515.000000 0.7710 0.7699 0.7689 0.7678 0.7668
3510.000000 0.7658 0.7648 0.7638 0.7628 0.7617
3505.000000 0.7607 0.7596 0.7586 0.7575 0.7564
3500.000000 0.7551 0.7537 0.7524 0.7510 0.7497
3495.000000 0.7483 0.7469 0.7457 0.7444 0.7430
3490.000000 0.7417 0.7403 0.7389 0.7375 0.7361
3485.000000 0.7347 0.7332 0.7318 0.7303 0.7286
3480.000000 0.7268 0.7251 0.7234 0.7217 0.7199
3475.000000 0.7181 0.7164 0.7146 0.7128 0.7111
3470.000000 0.7094 0.7075 0.7058 0.7041 0.7024
3465.000000 0.7006 0.6989 0.6971 0.6953 0.6934
3460.000000 0.6914 0.6895 0.6875 0.6857 0.6838
3455.000000 0.6818 0.6799 0.6780 0.6760 0.6741
3450.000000 0.6721 0.6701 0.6683 0.6664 0.6644
3445.000000 0.6624 0.6605 0.6572 0.6531 0.6489
3440.000000 0.6447 0.6404 0.6352 0.6297 0.6242
3435.000000 0.6187 0.6134 0.6116 0.6098 0.6080
3430.000000 0.6060 0.6043 0.6025 0.6006 0.5988
3425.000000 0.5970 0.5951 0.5933 0.5915 0.5896
3420.000000 0.5878 0.5860 0.5841 0.5823 0.5804
3415.000000 0.5780 0.5741 0.5703 0.5664 0.5625
3410.000000 0.5567 0.5499 0.5430 0.5362 0.5293
3405.000000 0.5250 0.5207 0.5165 0.5122 0.5079
3400.000000 0.5037 0.4995 0.4953 0.4910 0.4881
3395.000000 0.4854 0.4827 0.4801 0.4774 0.4751
3390.000000 0.4728 0.4705 0.4682 0.4659 0.4636
3385.000000 0.4612 0.4590 0.4567 0.4500 0.4431
3380.000000 0.4362 0.4293 0.4210 0.4103 0.3996
3375.000000 0.3890 0.3782 0.3690 0.3599 0.3509
3370.000000 0.3418 0.3329 0.3238 0.3148 0.3057
3365.000000 0.2966 0.2875 0.2784 0.2694 0.2603
3360.000000 0.2512 0.2421 0.2330 0.2239 0.2148
3355.000000 0.2057 0.1966 0.1874 0.1783 0.1692
3350.000000 0.1600 0.1508 0.1417 0.1325 0.1233
3345.000000 0.1142 0.1050 0.0958 0.0879 0.0839
3340.000000 0.0800 0.0760 0.0721 0.0712 0.0712
3335.000000 0.0712 0.0712 0.0712 0.0712 0.0712
3330.000000 0.0712 0.0712 0.0714 0.0716 0.0719
3325.000000 0.0755 0.0726 0.0733 0.0740 0.0747
3320.000000 0.0754 0.0761 0.0767 0.0774 0.0781
3315.000000 0.0790 0.0799 0.0809 0.0818 0.0828
3310.000000 0.0838 0.0847 0.0858 0.0868 0.0876
3305.000000 0.0886 0.0895 0.0904 0.0913 0.0922
3300.000000 0.0931 0.0939 0.0949 0.0958 0.0966
3295.000000 0.0975 0.0984 0.0992 0.1000 0.1008
3290.000000 0.1015 0.1022 0.1029 0.1036 0.1042
3285.000000 0.1049 0.1054 0.1059 0.1064 0.1069
3280.000000 0.1071 0.1072 0.1074 0.1102 0.1077
3275.000000 0.1078 0.1079 0.1081 0.1082 0.1082
3270.000000 0.1083 0.1083 0.1083 0.1075 0.1066
3265.000000 0.1058 0.1049 0.1034 0.1017 0.0999
3260.000000 0.0982 0.0965 0.0946 0.0930 0.0912
3255.000000 0.0895 0.0878 0.0860 0.0842 0.0826
3250.000000 0.0808 0.0791 0.0773 0.0756 0.0743
3245.000000 0.0731 0.0719 0.0707 0.0699 0.0695
3240.000000 0.0691 0.0686 0.0683 0.0680 0.0677
3235.000000 0.0689 0.0672 0.0672 0.0673 0.0674
3230.000000 0.0674 0.0675 0.0676 0.0677 0.0677
3225.000000 0.0681 0.0684 0.0688 0.0692 0.0702
3220.000000 0.0716 0.0730 0.0744 0.0764 0.0790
3215.000000 0.0817 0.0843 0.0870 0.0896 0.0924
3210.000000 0.0950 0.0976 0.1004 0.1030 0.1057
3205.000000 0.1084 0.1111 0.1138 0.1164 0.1191
3200.000000 0.1218 0.1245 0.1272 0.1299 0.1326
3195.000000 0.1353 0.1379 0.1406 0.1433 0.1460
3190.000000 0.1487 0.1514 0.1541 0.1569 0.1596
3185.000000 0.1623 0.1650 0.1677 0.1703 0.1729
3180.000000 0.1758 0.1784 0.1812 0.1839 0.1866
3175.000000 0.1894 0.1921 0.1948 0.1976 0.2003
3170.000000 0.2029 0.2058 0.2076 0.2087 0.2098
3165.000000 0.2109 0.2119 0.2128 0.2137 0.2146
3160.000000 0.2153 0.2160 0.2167 0.2174 0.2181
3155.000000 0.2189 0.2196 0.2203 0.2209 0.2215
3150.000000 0.2220 0.2226 0.2231 0.2234 0.2237
3145.000000 0.2240 0.2242 0.2244 0.2245 0.2246
3140.000000 0.2247 0.2249 0.2250 0.2251 0.2252
3135.000000 0.2252 0.2253 0.2253 0.2253 0.2253
3130.000000 0.2253 0.2253 0.2250 0.2248 0.2246
3125.000000 0.2244 0.2241 0.2239 0.2237 0.2234
3120.000000 0.2224 0.2215 0.2206 0.2197 0.2187
3115.000000 0.2178 0.2169 0.2159 0.2147 0.2135
3110.000000 0.2125 0.2113 0.2100 0.2087 0.2074
3105.000000 0.2061 0.2048 0.2035 0.2023 0.2010
3100.000000 0.1996 0.1984 0.1972 0.1962 0.1953
3095.000000 0.1943 0.1934 0.1929 0.1924 0.1919
3090.000000 0.1914 0.1912 0.1909 0.1907 0.1904
3085.000000 0.1904 0.1903 0.1902 0.1901 0.1900
3080.000000 0.1899 0.1898 0.1896 0.1895 0.1894
3075.000000 0.1893 0.1893 0.1892 0.1891 0.1891
3070.000000 0.1892 0.1893 0.1894 0.1894 0.1895
3065.000000 0.1896 0.1898 0.1899 0.1901 0.1902
3060.000000 0.1903 0.1908 0.1913 0.1918 0.1923
3055.000000 0.1929 0.1934 0.1941 0.1950 0.1962
3050.000000 0.1975 0.1987 0.1999 0.2010 0.2021
3045.000000 0.2032 0.2043 0.2054 0.2065 0.2075
3040.000000 0.2084 0.2094 0.2103 0.2112 0.2121
3035.000000 0.2130 0.2138 0.2147 0.2156 0.2164
3030.000000 0.2173 0.2182 0.2191 0.2200 0.2209
3025.000000 0.2218 0.2227 0.2235 0.2245 0.2254
3020.000000 0.2263 0.2273 0.2282 0.2291 0.2301
3015.000000 0.2309 0.2318 0.2326 0.2334 0.2344
3010.000000 0.2353 0.2361 0.2370 0.2379 0.2387
3005.000000 0.2396 0.2405 0.2414 0.2422 0.2431
3000.000000 0.2440 0.2448 0.2456 0.2464 0.2472
2995.000000 0.2481 0.2489 0.2496 0.2504 0.2511
2990.000000 0.2518 0.2522 0.2527 0.2532 0.2537
2985.000000 0.2541 0.2546 0.2551 0.2555 0.2560
2980.000000 0.2564 0.2568 0.2570 0.2573 0.2576
2975.000000 0.2577 0.2577 0.2578 0.2579 0.2580
2970.000000 0.2581 0.2582 0.2582 0.2583 0.2584
2965.000000 0.2584 0.2584 0.2584 0.2585 0.2585
2960.000000 0.2585 0.2585 0.2587 0.2587 0.2587
2955.000000 0.2587 0.2585 0.2584 0.2583 0.2582
2950.000000 0.2580 0.2579 0.2577 0.2574 0.2570
2945.000000 0.2567 0.2559 0.2550 0.2540 0.2531
2940.000000 0.2521 0.2512 0.2502 0.2493 0.2483
2935.000000 0.2473 0.2463 0.2452 0.2441 0.2430
2930.000000 0.2419 0.2408 0.2397 0.2385 0.2375
2925.000000 0.2365 0.2354 0.2343 0.2332 0.2320
2920.000000 0.2309 0.2299 0.2288 0.2277 0.2266
2915.000000 0.2255 0.2244 0.2233 0.2222 0.2211
2910.000000 0.2201 0.2190 0.2179 0.2169 0.2156
2905.000000 0.2143 0.2130 0.2116 0.2103 0.2089
2900.000000 0.2075 0.2062 0.2048 0.2034 0.2021
2895.000000 0.2007 0.1993 0.1979 0.1965 0.1951
2890.000000 0.1936 0.1922 0.1907 0.1892 0.1877
2885.000000 0.1862 0.1846 0.1832 0.1816 0.1801
2880.000000 0.1785 0.1771 0.1756 0.1740 0.1709
2875.000000 0.1676 0.1642 0.1608 0.1572 0.1537
2870.000000 0.1504 0.1477 0.1451 0.1424 0.1400
2865.000000 0.1375 0.1350 0.1327 0.1304 0.1282
2860.000000 0.1259 0.1236 0.1213 0.1191 0.1171
2855.000000 0.1151 0.1132 0.1116 0.1100 0.1084
2850.000000 0.1069 0.1053 0.1037 0.1022 0.1006
2845.000000 0.0989 0.0974 0.0958 0.0942 0.0926
2840.000000 0.0917 0.0907 0.0897 0.0888 0.0879
2835.000000 0.0869 0.0860 0.0850 0.0841 0.0831
2830.000000 0.0822 0.0814 0.0805 0.0800 0.0795
2825.000000 0.0789 0.0784 0.0779 0.0774 0.0769
2820.000000 0.0765 0.0760 0.0755 0.0751 0.0747
2815.000000 0.0743 0.0740 0.0737 0.0734 0.0733
2810.000000 0.0732 0.0731 0.0731 0.0730 0.0730
2805.000000 0.0730 0.0730 0.0730 0.0730 0.0730
2800.000000 0.0730 0.0730 0.0730 0.0730 0.0729
2795.000000 0.0729 0.0728 0.0728 0.0728 0.0728
2790.000000 0.0729 0.0735 0.0742 0.0749 0.0756
2785.000000 0.0762 0.0769 0.0782 0.0795 0.0808
2780.000000 0.0821 0.0834 0.0847 0.0860 0.0872
2775.000000 0.0885 0.0895 0.0906 0.0916 0.0931
2770.000000 0.0949 0.0966 0.0985 0.1004 0.1024
2765.000000 0.1042 0.1062 0.1081 0.1100 0.1119
2760.000000 0.1138 0.1157 0.1176 0.1196 0.1215
2755.000000 0.1234 0.1253 0.1272 0.1291 0.1311
2750.000000 0.1330 0.1349 0.1369 0.1388 0.1408
2745.000000 0.1427 0.1446 0.1465 0.1485 0.1504
2740.000000 0.1524 0.1542 0.1563 0.1582 0.1602
2735.000000 0.1621 0.1641 0.1661 0.1679 0.1700
2730.000000 0.1719 0.1739 0.1758 0.1777 0.1796
2725.000000 0.1817 0.1836 0.1857 0.1876 0.1895
2720.000000 0.1915 0.1934 0.1954 0.1974 0.1994
2715.000000 0.2014 0.2034 0.2054 0.2074 0.2093
2710.000000 0.2113 0.2133 0.2153 0.2173 0.2193
2705.000000 0.2213 0.2233 0.2253 0.2272 0.2292
2700.000000 0.2312 0.2332 0.2353 0.2373 0.2393
2695.000000 0.2413 0.2433 0.2453 0.2473 0.2494
2690.000000 0.2514 0.2534 0.2554 0.2574 0.2594
2685.000000 0.2614 0.2634 0.2655 0.2676 0.2696
2680.000000 0.2716 0.2735 0.2756 0.2777 0.2797
2675.000000 0.2818 0.2838 0.2859 0.2879 0.2899
2670.000000 0.2920 0.2940 0.2960 0.2981 0.3001
2665.000000 0.3022 0.3042 0.3062 0.3083 0.3103
2660.000000 0.3123 0.3143 0.3164 0.3184 0.3205
2655.000000 0.3225 0.3245 0.3264 0.3284 0.3304
2650.000000 0.3322 0.3341 0.3359 0.3378 0.3397
2645.000000 0.3416 0.3434 0.3453 0.3472 0.3490
2640.000000 0.3509 0.3529 0.3549 0.3570 0.3593
2635.000000 0.3616 0.3640 0.3664 0.3687 0.3710
2630.000000 0.3734 0.3758 0.3782 0.3806 0.3830
2625.000000 0.3853 0.3877 0.3900 0.3920 0.3940
2620.000000 0.3959 0.3978 0.3997 0.4014 0.4032
2615.000000 0.4052 0.4070 0.4089 0.4108 0.4126
2610.000000 0.4144 0.4162 0.4182 0.4200 0.4219
2605.000000 0.4237 0.4255 0.4272 0.4289 0.4306
2600.000000 0.4323 0.4339 0.4356 0.4373 0.4389
2595.000000 0.4406 0.4423 0.4440 0.4457 0.4474
2590.000000 0.4491 0.4508 0.4524 0.4541 0.4558
2585.000000 0.4575 0.4592 0.4609 0.4625 0.4641
2580.000000 0.4657 0.4673 0.4689 0.4706 0.4722
2575.000000 0.4739 0.4755 0.4772 0.4788 0.4804
2570.000000 0.4820 0.4837 0.4853 0.4869 0.4886
2565.000000 0.4903 0.4919 0.4936 0.4953 0.4971
2560.000000 0.4991 0.5010 0.5030 0.5050 0.5070
2555.000000 0.5090 0.5110 0.5130 0.5151 0.5171
2550.000000 0.5191 0.5210 0.5231 0.5251 0.5271
2545.000000 0.5287 0.5303 0.5318 0.5332 0.5346
2540.000000 0.5360 0.5375 0.5389 0.5403 0.5417
2535.000000 0.5431 0.5445 0.5459 0.5474 0.5488
2530.000000 0.5502 0.5516 0.5531 0.5545 0.5559
2525.000000 0.5573 0.5587 0.5601 0.5615 0.5629
2520.000000 0.5642 0.5654 0.5666 0.5678 0.5690
2515.000000 0.5702 0.5714 0.5726 0.5738 0.5750
2510.000000 0.5762 0.5774 0.5786 0.5798 0.5810
2505.000000 0.5822 0.5833 0.5844 0.5854 0.5864
2500.000000 0.5874 0.5883 0.5893 0.5902 0.5910
2495.000000 0.5921 0.5930 0.5940 0.5950 0.5959
2490.000000 0.5969 0.5978 0.5987 0.5997 0.6007
2485.000000 0.6016 0.6026 0.6036 0.6046 0.6056
2480.000000 0.6067 0.6080 0.6093 0.6107 0.6120
2475.000000 0.6133 0.6146 0.6160 0.6173 0.6186
2470.000000 0.6199 0.6212 0.6226 0.6240 0.6253
2465.000000 0.6266 0.6280 0.6293 0.6306 0.6319
2460.000000 0.6329 0.6337 0.6345 0.6354 0.6362
2455.000000 0.6370 0.6378 0.6387 0.6395 0.6403
2450.000000 0.6411 0.6418 0.6426 0.6436 0.6444
2445.000000 0.6451 0.6461 0.6468 0.6478 0.6486
2440.000000 0.6494 0.6503 0.6511 0.6519 0.6526
2435.000000 0.6533 0.6539 0.6546 0.6551 0.6558
2430.000000 0.6565 0.6571 0.6576 0.6584 0.6591
2425.000000 0.6597 0.6604 0.6610 0.6617 0.6622
2420.000000 0.6628 0.6636 0.6642 0.6649 0.6655
2415.000000 0.6661 0.6668 0.6674 0.6680 0.6686
2410.000000 0.6693 0.6699 0.6706 0.6711 0.6718
2405.000000 0.6725 0.6731 0.6738 0.6745 0.6753
2400.000000 0.6761 0.6769 0.6778 0.6787 0.6796
2395.000000 0.6804 0.6812 0.6821 0.6830 0.6839
2390.000000 0.6848 0.6858 0.6868 0.6878 0.6888
2385.000000 0.6898 0.6908 0.6918 0.6926 0.6937
2380.000000 0.6942 0.6947 0.6950 0.6953 0.6955
2375.000000 0.6955 0.6956 0.6956 0.6956 0.6955
2370.000000 0.6955 0.6955 0.6955 0.6955 0.6955
2365.000000 0.6955 0.6956 0.6956 0.6957 0.6958
2360.000000 0.6958 0.6960 0.6961 0.6961 0.6962
2355.000000 0.6964 0.6965 0.6965 0.6967 0.6968
2350.000000 0.6971 0.6972 0.6975 0.6978 0.6980
2345.000000 0.6983 0.6985 0.6988 0.6990 0.6993
2340.000000 0.6995 0.6998 0.7000 0.7003 0.7006
2335.000000 0.7008 0.7011 0.7015 0.7021 0.7028
2330.000000 0.7034 0.7040 0.7045 0.7051 0.7057
2325.000000 0.7062 0.7068 0.7075 0.7083 0.7091
2320.000000 0.7100 0.7108 0.7118 0.7126 0.7136
2315.000000 0.7146 0.7155 0.7164 0.7174 0.7183
2310.000000 0.7193 0.7201 0.7211 0.7221 0.7230
2305.000000 0.7239 0.7249 0.7258 0.7268 0.7276
2300.000000 0.7287 0.7296 0.7306 0.7315 0.7325
2295.000000 0.7335 0.7344 0.7354 0.7364 0.7372
2290.000000 0.7383 0.7393 0.7403 0.7411 0.7421
2285.000000 0.7431 0.7437 0.7444 0.7451 0.7458
2280.000000 0.7465 0.7472 0.7480 0.7488 0.7494
2275.000000 0.7501 0.7508 0.7515 0.7522 0.7530
2270.000000 0.7536 0.7541 0.7545 0.7550 0.7555
2265.000000 0.7560 0.7565 0.7569 0.7574 0.7578
2260.000000 0.7583 0.7588 0.7593 0.7598 0.7603
2255.000000 0.7608 0.7612 0.7618 0.7622 0.7626
2250.000000 0.7632 0.7637 0.7641 0.7645 0.7649
2245.000000 0.7653 0.7657 0.7661 0.7665 0.7669
2240.000000 0.7674 0.7678 0.7682 0.7686 0.7690
2235.000000 0.7694 0.7698 0.7703 0.7707 0.7711
2230.000000 0.7715 0.7718 0.7722 0.7726 0.7731
2225.000000 0.7735 0.7739 0.7744 0.7748 0.7751
2220.000000 0.7757 0.7761 0.7765 0.7768 0.7772
2215.000000 0.7776 0.7781 0.7785 0.7789 0.7794
2210.000000 0.7798 0.7801 0.7806 0.7811 0.7815
2205.000000 0.7818 0.7822 0.7828 0.7832 0.7836
2200.000000 0.7841 0.7845 0.7850 0.7854 0.7858
2195.000000 0.7862 0.7868 0.7871 0.7874 0.7875
2190.000000 0.7876 0.7878 0.7880 0.7882 0.7884
2185.000000 0.7886 0.7888 0.7889 0.7891 0.7892
2180.000000 0.7894 0.7896 0.7898 0.7900 0.7901
2175.000000 0.7903 0.7905 0.7907 0.7910 0.7911
2170.000000 0.7915 0.7917 0.7918 0.7921 0.7924
2165.000000 0.7925 0.7928 0.7932 0.7934 0.7936
2160.000000 0.7939 0.7941 0.7943 0.7946 0.7948
2155.000000 0.7951 0.7954 0.7956 0.7958 0.7961
2150.000000 0.7962 0.7965 0.7968 0.7971 0.7974
2145.000000 0.7976 0.7978 0.7981 0.7984 0.7987
2140.000000 0.7990 0.7992 0.7995 0.7997 0.8000
2135.000000 0.8001 0.8005 0.8008 0.8011 0.8012
2130.000000 0.8015 0.8018 0.8021 0.8025 0.8028
2125.000000 0.8031 0.8035 0.8038 0.8041 0.8044
2120.000000 0.8046 0.8049 0.8049 0.8048 0.8047
2115.000000 0.8045 0.8044 0.8043 0.8042 0.8041
2110.000000 0.8040 0.8039 0.8038 0.8036 0.8035
2105.000000 0.8035 0.8034 0.8033 0.8032 0.8031
2100.000000 0.8030 0.8030 0.8030 0.8033 0.8036
2095.000000 0.8039 0.8043 0.8046 0.8050 0.8054
2090.000000 0.8057 0.8058 0.8061 0.8062 0.8065
2085.000000 0.8067 0.8068 0.8068 0.8068 0.8065
2080.000000 0.8065 0.8062 0.8061 0.8060 0.8058
2075.000000 0.8057 0.8055 0.8054 0.8051 0.8050
2070.000000 0.8048 0.8045 0.8043 0.8041 0.8039
2065.000000 0.8037 0.8035 0.8033 0.8032 0.8030
2060.000000 0.8028 0.8028 0.8028 0.8028 0.8033
2055.000000 0.8038 0.8044 0.8050 0.8057 0.8064
2050.000000 0.8071 0.8078 0.8082 0.8085 0.8088
2045.000000 0.8091 0.8094 0.8095 0.8095 0.8093
2040.000000 0.8078 0.8089 0.8088 0.8087 0.8085
2035.000000 0.8081 0.8076 0.8069 0.8061 0.8055
2030.000000 0.8047 0.8038 0.8025 0.8015 0.8001
2025.000000 0.7991 0.7978 0.7967 0.7954 0.7941
2020.000000 0.7928 0.7915 0.7903 0.7890 0.7876
2015.000000 0.7861 0.7844 0.7824 0.7805 0.7786
2010.000000 0.7768 0.7749 0.7731 0.7718 0.7708
2005.000000 0.7697 0.7692 0.7690 0.7690 0.7690
2000.000000 0.7665 0.7695 0.7700 0.7705 0.7711
1995.000000 0.7717 0.7721 0.7728 0.7737 0.7754
1990.000000 0.7771 0.7788 0.7806 0.7822 0.7837
1985.000000 0.7849 0.7861 0.7868 0.7875 0.7880
1980.000000 0.7886 0.7889 0.7890 0.7881 0.7893
1975.000000 0.7893 0.7893 0.7891 0.7889 0.7885
1970.000000 0.7878 0.7865 0.7855 0.7843 0.7830
1965.000000 0.7814 0.7795 0.7775 0.7757 0.7735
1960.000000 0.7705 0.7671 0.7638 0.7593 0.7543
1955.000000 0.7494 0.7444 0.7394 0.7344 0.7295
1950.000000 0.7245 0.7195 0.7145 0.7094 0.7044
1945.000000 0.6994 0.6944 0.6894 0.6843 0.6792
1940.000000 0.6743 0.6712 0.6701 0.6693 0.6686
1935.000000 0.6681 0.6678 0.6678 0.6660 0.6675
1930.000000 0.6681 0.6694 0.6717 0.6740 0.6767
1925.000000 0.6847 0.6924 0.6998 0.7072 0.7147
1920.000000 0.7221 0.7296 0.7371 0.7444 0.7505
1915.000000 0.7547 0.7581 0.7615 0.7640 0.7661
1910.000000 0.7681 0.7700 0.7717 0.7733 0.7746
1905.000000 0.7761 0.7775 0.7789 0.7803 0.7815
1900.000000 0.7830 0.7843 0.7857 0.7869 0.7884
1895.000000 0.7897 0.7911 0.7925 0.7939 0.7955
1890.000000 0.7971 0.7989 0.8006 0.8022 0.8040
1885.000000 0.8057 0.8075 0.8093 0.8111 0.8131
1880.000000 0.8150 0.8168 0.8188 0.8206 0.8225
1875.000000 0.8244 0.8260 0.8275 0.8290 0.8303
1870.000000 0.8310 0.8316 0.8321 0.8328 0.8335
1865.000000 0.8358 0.8341 0.8341 0.8342 0.8343
1860.000000 0.8343 0.8343 0.8342 0.8341 0.8341
1855.000000 0.8340 0.8336 0.8330 0.8318 0.8301
1850.000000 0.8274 0.8239 0.8204 0.8156 0.8097
1845.000000 0.8031 0.7964 0.7896 0.7840 0.7807
1840.000000 0.7780 0.7760 0.7746 0.7737 0.7732
1835.000000 0.7726 0.7722 0.7699 0.7717 0.7715
1830.000000 0.7715 0.7715 0.7718 0.7738 0.7778
1825.000000 0.7818 0.7862 0.7907 0.7951 0.7998
1820.000000 0.8048 0.8096 0.8139 0.8168 0.8200
1815.000000 0.8231 0.8259 0.8278 0.8297 0.8315
1810.000000 0.8334 0.8352 0.8370 0.8387 0.8402
1805.000000 0.8416 0.8430 0.8444 0.8458 0.8471
1800.000000 0.8486 0.8499 0.8511 0.8520 0.8528
1795.000000 0.8539 0.8546 0.8553 0.8559 0.8565
1790.000000 0.8571 0.8577 0.8583 0.8589 0.8596
1785.000000 0.8601 0.8605 0.8609 0.8614 0.8618
1780.000000 0.8621 0.8627 0.8631 0.8631 0.8632
1775.000000 0.8633 0.8634 0.8635 0.8637 0.8637
1770.000000 0.8637 0.8638 0.8638 0.8638 0.8639
1765.000000 0.8639 0.8639 0.8638 0.8635 0.8632
1760.000000 0.8628 0.8625 0.8621 0.8618 0.8614
1755.000000 0.8609 0.8602 0.8589 0.8570 0.8551
1750.000000 0.8532 0.8499 0.8452 0.8408 0.8333
1745.000000 0.8251 0.8168 0.8085 0.8001 0.7918
1740.000000 0.7836 0.7637 0.7681 0.7641 0.7643
1735.000000 0.7654 0.7719 0.7791 0.7861 0.7933
1730.000000 0.8004 0.8075 0.8139 0.8192 0.8239
1725.000000 0.8281 0.8314 0.8346 0.8378 0.8406
1720.000000 0.8428 0.8450 0.8470 0.8490 0.8507
1715.000000 0.8520 0.8534 0.8547 0.8559 0.8570
1710.000000 0.8575 0.8582 0.8587 0.8592 0.8597
1705.000000 0.8602 0.8607 0.8612 0.8615 0.8616
1700.000000 0.8618 0.8618 0.8620 0.8621 0.8623
1695.000000 0.8624 0.8625 0.8627 0.8628 0.8628
1690.000000 0.8631 0.8632 0.8632 0.8632 0.8632
1685.000000 0.8632 0.8632 0.8632 0.8631 0.8631
1680.000000 0.8631 0.8631 0.8630 0.8628 0.8625
1675.000000 0.8624 0.8623 0.8621 0.8620 0.8616
1670.000000 0.8612 0.8610 0.8606 0.8603 0.8599
1665.000000 0.8596 0.8591 0.8583 0.8575 0.8568
1660.000000 0.8560 0.8537 0.8511 0.8484 0.8437
1655.000000 0.8378 0.8328 0.8283 0.8225 0.8168
1650.000000 0.8141 0.8121 0.8110 0.8110 0.8108
1645.000000 0.8118 0.8142 0.8158 0.8168 0.8171
1640.000000 0.8172 0.8111 0.7922 0.7704 0.7484
1635.000000 0.7262 0.7043 0.6821 0.6601 0.6536
1630.000000 0.6510 0.6508 0.6531 0.6618 0.6740
1625.000000 0.6861 0.6984 0.7107 0.7228 0.7351
1620.000000 0.7475 0.7599 0.7721 0.7845 0.7968
1615.000000 0.8092 0.8212 0.8286 0.8339 0.8380
1610.000000 0.8408 0.8430 0.8451 0.8471 0.8492
1605.000000 0.8505 0.8515 0.8524 0.8524 0.8523
1600.000000 0.8535 0.8535 0.8535 0.8534 0.8530
1595.000000 0.8524 0.8517 0.8511 0.8504 0.8497
1590.000000 0.8491 0.8483 0.8471 0.8457 0.8442
1585.000000 0.8427 0.8412 0.8396 0.8374 0.8352
1580.000000 0.8328 0.8307 0.8278 0.8230 0.8178
1575.000000 0.8121 0.8054 0.7987 0.7918 0.7842
1570.000000 0.7767 0.7658 0.7500 0.7368 0.7264
1565.000000 0.7157 0.7049 0.6937 0.6765 0.6192
1560.000000 0.5579 0.5194 0.4809 0.4423 0.4037
1555.000000 0.3650 0.3262 0.2874 0.2485 0.2197
1550.000000 0.2146 0.2131 0.2118 0.2126 0.2125
1545.000000 0.2134 0.2165 0.2249 0.2368 0.2487
1540.000000 0.2606 0.2725 0.2845 0.2964 0.3084
1535.000000 0.3204 0.3325 0.3445 0.3564 0.3684
1530.000000 0.3806 0.3927 0.4048 0.4169 0.4290
1525.000000 0.4410 0.4533 0.4655 0.4777 0.4899
1520.000000 0.5021 0.5144 0.5267 0.5358 0.5375
1515.000000 0.5388 0.5395 0.5403 0.5408 0.5390
1510.000000 0.5412 0.5410 0.5402 0.5393 0.5378
1505.000000 0.5354 0.5328 0.5291 0.5208 0.5081
1500.000000 0.4947 0.4821 0.4700 0.4562 0.4325
1495.000000 0.4088 0.3850 0.3612 0.3374 0.3134
1490.000000 0.2895 0.2740 0.2740 0.2741 0.2789
1485.000000 0.2974 0.3173 0.3373 0.3572 0.3771
1480.000000 0.3972 0.4171 0.4372 0.4573 0.4774
1475.000000 0.4975 0.5177 0.5378 0.5581 0.5696
1470.000000 0.5699 0.5649 0.5560 0.5471 0.5381
1465.000000 0.5291 0.5210 0.5142 0.5114 0.5092
1460.000000 0.5070 0.5051 0.5043 0.5033 0.5034
1455.000000 0.5041 0.5055 0.5114 0.5230 0.5359
1450.000000 0.5490 0.5620 0.5750 0.5880 0.6010
1445.000000 0.6068 0.6086 0.6091 0.6099 0.6103
1440.000000 0.6058 0.5904 0.5749 0.5594 0.5438
1435.000000 0.5283 0.5127 0.4971 0.4815 0.4658
1430.000000 0.4490 0.4338 0.4291 0.4248 0.4175
1425.000000 0.4029 0.3894 0.3758 0.3622 0.3486
1420.000000 0.3379 0.3334 0.3345 0.3400 0.3512
1415.000000 0.3624 0.3737 0.3848 0.3960 0.4049
1410.000000 0.4109 0.4160 0.4196 0.4224 0.4247
1405.000000 0.4264 0.4277 0.4276 0.4275 0.4292
1400.000000 0.4290 0.4279 0.4264 0.4249 0.4235
1395.000000 0.4224 0.4216 0.4212 0.4210 0.4210
1390.000000 0.4249 0.4319 0.4423 0.4509 0.4619
1385.000000 0.4767 0.4917 0.5068 0.5218 0.5370
1380.000000 0.5521 0.5673 0.5824 0.5976 0.6128
1375.000000 0.6273 0.6367 0.6461 0.6540 0.6588
1370.000000 0.6618 0.6649 0.6668 0.6686 0.6704
1365.000000 0.6715 0.6737 0.6725 0.6725 0.6726
1360.000000 0.6726 0.6718 0.6699 0.6567 0.6497
1355.000000 0.6428 0.6394 0.6359 0.6325 0.6290
1350.000000 0.6256 0.6222 0.6188 0.6153 0.6118
1345.000000 0.6082 0.6045 0.6007 0.5969 0.5923
1340.000000 0.5868 0.5812 0.5716 0.5426 0.5156
1335.000000 0.4880 0.4844 0.4830 0.4815 0.4815
1330.000000 0.4816 0.4825 0.4888 0.5007 0.5115
1325.000000 0.5220 0.5310 0.5392 0.5472 0.5540
1320.000000 0.5590 0.5624 0.5639 0.5655 0.5650
1315.000000 0.5648 0.5640 0.5628 0.5583 0.5510
1310.000000 0.5319 0.5069 0.4910 0.4743 0.4592
1305.000000 0.4460 0.4378 0.4325 0.4272 0.4209
1300.000000 0.4123 0.4047 0.3990 0.3934 0.3859
1295.000000 0.3774 0.3650 0.3468 0.3066 0.2690
1290.000000 0.2314 0.1937 0.1561 0.1184 0.0946
1285.000000 0.0789 0.0672 0.0587 0.0524 0.0501
1280.000000 0.0520 0.0525 0.0540 0.0586 0.0682
1275.000000 0.0774 0.0886 0.1146 0.1448 0.1751
1270.000000 0.2053 0.2355 0.2658 0.2909 0.3074
1265.000000 0.3500 0.3703 0.3864 0.4012 0.4165
1260.000000 0.4316 0.4443 0.4547 0.4652 0.4759
1255.000000 0.4867 0.4975 0.5082 0.5167 0.5247
1250.000000 0.5327 0.5407 0.5492 0.5577 0.5654
1245.000000 0.5716 0.5778 0.5866 0.5943 0.5996
1240.000000 0.6042 0.6068 0.6089 0.6104 0.6114
1235.000000 0.6115 0.6117 0.6103 0.6077 0.6049
1230.000000 0.6005 0.5955 0.5877 0.5765 0.5596
1225.000000 0.5409 0.4938 0.4354 0.3768 0.3183
1220.000000 0.2596 0.2008 0.1420 0.0929 0.0930
1215.000000 0.0938 0.1242 0.1629 0.2016 0.2403
1210.000000 0.2829 0.3446 0.3650 0.3803 0.3946
1205.000000 0.4105 0.4270 0.4434 0.4565 0.4695
1200.000000 0.4848 0.5033 0.5176 0.5292 0.5409
1195.000000 0.5521 0.5618 0.5712 0.5810 0.5895
1190.000000 0.5962 0.6030 0.6097 0.6162 0.6222
1185.000000 0.6281 0.6342 0.6401 0.6454 0.6499
1180.000000 0.6544 0.6589 0.6632 0.6668 0.6705
1175.000000 0.6741 0.6775 0.6805 0.6833 0.6861
1170.000000 0.6889 0.6917 0.6943 0.6961 0.6978
1165.000000 0.6995 0.7011 0.7028 0.7043 0.7053
1160.000000 0.7062 0.7071 0.7075 0.7081 0.7085
1155.000000 0.7091 0.7096 0.7101 0.7110 0.7121
1150.000000 0.7131 0.7142 0.7155 0.7172 0.7192
1145.000000 0.7211 0.7230 0.7249 0.7268 0.7289
1140.000000 0.7308 0.7330 0.7351 0.7371 0.7393
1135.000000 0.7412 0.7432 0.7451 0.7467 0.7478
1130.000000 0.7478 0.7478 0.7476 0.7485 0.7494
1125.000000 0.7517 0.7546 0.7574 0.7601 0.7630
1120.000000 0.7657 0.7684 0.7710 0.7736 0.7751
1115.000000 0.7765 0.7774 0.7781 0.7789 0.7796
1110.000000 0.7805 0.7812 0.7819 0.7821 0.7845
1105.000000 0.7815 0.7808 0.7782 0.7731 0.7642
1100.000000 0.7506 0.7408 0.6936 0.6360 0.5781
1095.000000 0.5203 0.4623 0.4043 0.3460 0.2942
1090.000000 0.2858 0.3014 0.3532 0.4057 0.4583
1085.000000 0.5109 0.5635 0.5900 0.6035 0.6359
1080.000000 0.6688 0.6871 0.7012 0.7134 0.7224
1075.000000 0.7312 0.7392 0.7469 0.7532 0.7582
1070.000000 0.7633 0.7687 0.7730 0.7760 0.7781
1065.000000 0.7797 0.7801 0.7803 0.7792 0.7751
1060.000000 0.7674 0.7550 0.7368 0.7255 0.7181
1055.000000 0.7146 0.7142 0.7149 0.7185 0.7222
1050.000000 0.7245 0.7251 0.7254 0.7236 0.7201
1045.000000 0.7121 0.7032 0.6934 0.6819 0.6671
1040.000000 0.6521 0.6358 0.6193 0.5995 0.5752
1035.000000 0.5431 0.5258 0.5112 0.4934 0.4690
1030.000000 0.3723 0.3518 0.3212 0.2903 0.2593
1025.000000 0.2283 0.1972 0.1661 0.1489 0.1387
1020.000000 0.1419 0.1434 0.1550 0.1690 0.1898
1015.000000 0.2132 0.2355 0.2579 0.2802 0.3027
1010.000000 0.3250 0.3477 0.3702 0.3929 0.4155
1005.000000 0.4382 0.4609 0.4838 0.5065 0.5207
1000.000000 0.5269 0.5291 0.5293 0.5282 0.5110
995.000000 0.4702 0.4294 0.3884 0.3736 0.3730
990.000000 0.3832 0.4188 0.4549 0.4910 0.5274
985.000000 0.5637 0.6001 0.6276 0.6372 0.6401
980.000000 0.6401 0.6401 0.6328 0.6115 0.5891
975.000000 0.5666 0.5537 0.5537 0.5536 0.5634
970.000000 0.5719 0.5758 0.5759 0.5679 0.5407
965.000000 0.5135 0.4870 0.4807 0.4796 0.4893
960.000000 0.5243 0.5691 0.6140 0.6590 0.6901
955.000000 0.7121 0.7268 0.7401 0.7475 0.7548
950.000000 0.7618 0.7678 0.7736 0.7793 0.7839
945.000000 0.7885 0.7928 0.7972 0.8015 0.8042
940.000000 0.8068 0.8112 0.8111 0.8111 0.8117
935.000000 0.8108 0.8101 0.8076 0.8036 0.7957
930.000000 0.7807 0.7275 0.6908 0.6817 0.6790
925.000000 0.6874 0.7087 0.7278 0.7521 0.7721
920.000000 0.7878 0.7958 0.8039 0.8096 0.8130
915.000000 0.8164 0.8190 0.8210 0.8228 0.8249
910.000000 0.8259 0.8267 0.8275 0.8284 0.8290
905.000000 0.8296 0.8302 0.8308 0.8312 0.8316
900.000000 0.8318 0.8321 0.8327 0.8325 0.8323
895.000000 0.8314 0.8304 0.8295 0.8285 0.8265
890.000000 0.8241 0.8216 0.8190 0.8131 0.8065
885.000000 0.8000 0.7901 0.7765 0.7575 0.7392
880.000000 0.6908 0.6081 0.5826 0.4918 0.3995
875.000000 0.3069 0.2152 0.1902 0.1924 0.2022
870.000000 0.2324 0.3137 0.4412 0.5529 0.6001
865.000000 0.6349 0.6649 0.6862 0.7044 0.7196
860.000000 0.7335 0.7451 0.7539 0.7619 0.7685
855.000000 0.7750 0.7794 0.7828 0.7848 0.7867
850.000000 0.7882 0.7914 0.7896 0.7893 0.7883
845.000000 0.7871 0.7858 0.7846 0.7815 0.7785
840.000000 0.7754 0.7718 0.7675 0.7633 0.7590
835.000000 0.7537 0.7476 0.7417 0.7350 0.7271
830.000000 0.7195 0.7108 0.7008 0.6907 0.6799
825.000000 0.6671 0.6544 0.6424 0.6303 0.6172
820.000000 0.6039 0.5894 0.5731 0.5570 0.5416
815.000000 0.5260 0.5102 0.4941 0.4778 0.4612
810.000000 0.4432 0.4249 0.4026 0.3904 0.3804
805.000000 0.3727 0.3679 0.3639 0.3602 0.3534
800.000000 0.3552 0.3580 0.3630 0.3704 0.3798
795.000000 0.3908 0.4145 0.4334 0.4512 0.4665
790.000000 0.4807 0.4948 0.5077 0.5204 0.5333
785.000000 0.5460 0.5589 0.5717 0.5845 0.5974
780.000000 0.6105 0.6239 0.6373 0.6472 0.6568
775.000000 0.6660 0.6735 0.6808 0.6884 0.6958
770.000000 0.7025 0.7080 0.7134 0.7191 0.7249
765.000000 0.7290 0.7315 0.7362 0.7336 0.7331
760.000000 0.7306 0.7218 0.7008 0.6707 0.6272
755.000000 0.5765 0.4949 0.4132 0.3312 0.3018
750.000000 0.3051 0.3330 0.3900 0.4475 0.5050
745.000000 0.5706 0.6115 0.6412 0.6641 0.6849
740.000000 0.7005 0.7158 0.7282 0.7374 0.7467
735.000000 0.7544 0.7606 0.7668 0.7722 0.7764
730.000000 0.7805 0.7845 0.7883 0.7919 0.7958
725.000000 0.7985 0.8011 0.8037 0.8058 0.8081
720.000000 0.8101 0.8117 0.8130 0.8144 0.8160
715.000000 0.8175 0.8192 0.8209 0.8225 0.8240
710.000000 0.8249 0.8253 0.8203 0.8062 0.8111
705.000000 0.8214 0.8221 0.8230 0.8237 0.8243
700.000000 0.8249 0.8249 0.8250 0.8240 0.8217
695.000000 0.8174 0.8111 0.8011 0.7900 0.7703
690.000000 0.7428 0.7128 0.6653 0.6140 0.5754
685.000000 0.5640 0.5745 0.6090 0.6558 0.6875
680.000000 0.7115 0.7286 0.7415 0.7515 0.7618
675.000000 0.7725 0.7781 0.7801 0.7828 0.7865
670.000000 0.7911 0.7901 0.7905
##END=
