##TITLE=GADOLINIUM OXALATE
##JCAMP-DX=4.24
##DATA TYPE=INFRARED SPECTRUM
##CLASS=COBLENTZ
##OWNER=COBLENTZ SOCIETY
Collection (C) 2018 copyright by the U.S. Secretary of Commerce
on behalf of the United States of America. All rights reserved.
##DATE=Not specified, most likely prior to 1970
##MOLFORM=Gd2 ( C2 O4)3  * 10 H2 O
##SOURCE REFERENCE=COBLENTZ NO. 79
##$NIST ID=B6000079
##$NIST SOURCE=COBLENTZ
##$NIST IMAGE=cob79
##SPECTROMETER/DATA SYSTEM=Not specified, most likely a prism, grating, or hybrid spectrometer.
##STATE=SOLID (KBr DISC)
##SAMPLING PROCEDURE=TRANSMISSION
##RESOLUTION=4
##DATA PROCESSING=DIGITIZED BY NIST FROM HARD COPY
##XUNITS=MICROMETERS
##YUNITS=TRANSMITTANCE
##XFACTOR=1.000000
##YFACTOR=1
##DELTAX=000.007601
##FIRSTX=2.039
##LASTX=15.113
##FIRSTY=0.905
##MAXX=15.113
##MINX=2.039
##MAXY=0.977
##MINY=0.117
##NPOINTS=1721
##XYDATA=(X++(Y..Y))
2.039000 0.9050 0.9050 0.9050 0.9070 0.9070
2.077029 0.9070 0.9080 0.9080 0.9100 0.9100
2.115000 0.9110 0.9110 0.9130 0.9130 0.9130
2.153029 0.9130 0.9140 0.9160 0.9160 0.9170
2.191000 0.9170 0.9190 0.9190 0.9190 0.9200
2.229029 0.9200 0.9220 0.9220 0.9250 0.9250
2.267000 0.9260 0.9260 0.9270 0.9270 0.9270
2.305029 0.9290 0.9290 0.9290 0.9290 0.9290
2.343000 0.9300 0.9300 0.9320 0.9320 0.9320
2.381029 0.9330 0.9330 0.9330 0.9350 0.9350
2.419000 0.9360 0.9360 0.9360 0.9360 0.9390
2.457029 0.9390 0.9390 0.9390 0.9410 0.9410
2.495000 0.9410 0.9410 0.9410 0.9410 0.9410
2.533029 0.9410 0.9410 0.9420 0.9420 0.9420
2.571000 0.9410 0.9420 0.9420 0.9420 0.9410
2.609029 0.9410 0.9420 0.9440 0.9440 0.9450
2.647000 0.9470 0.9480 0.9480 0.9480 0.9480
2.685029 0.9500 0.9500 0.9500 0.9500 0.9500
2.723000 0.9480 0.9480 0.9470 0.9440 0.9390
2.761029 0.9220 0.9010 0.8730 0.8540 0.8350
2.799000 0.8100 0.7760 0.7290 0.7080 0.6880
2.837029 0.6610 0.6410 0.6110 0.6010 0.5880
2.875000 0.5770 0.5670 0.5500 0.5330 0.5190
2.913029 0.5040 0.4940 0.4820 0.4660 0.4570
2.951000 0.4540 0.4480 0.4450 0.4410 0.4390
2.989029 0.4380 0.4380 0.4360 0.4360 0.4380
3.027000 0.4440 0.4470 0.4600 0.4690 0.4770
3.065029 0.4850 0.4920 0.4970 0.5020 0.5070
3.103000 0.5130 0.5190 0.5260 0.5320 0.5360
3.141029 0.5470 0.5550 0.5640 0.5700 0.5920
3.179000 0.6000 0.6080 0.6140 0.6250 0.6410
3.217029 0.6480 0.6570 0.6660 0.6750 0.6850
3.255000 0.6910 0.7000 0.7050 0.7130 0.7320
3.293029 0.7420 0.7520 0.7630 0.7720 0.7760
3.331000 0.7830 0.7860 0.7980 0.8020 0.8100
3.369029 0.8110 0.8170 0.8200 0.8250 0.8270
3.407000 0.8290 0.8330 0.8350 0.8390 0.8420
3.445029 0.8480 0.8520 0.8550 0.8630 0.8660
3.483000 0.8720 0.8750 0.8770 0.8820 0.8850
3.521029 0.8880 0.8920 0.8940 0.8970 0.8980
3.559000 0.9010 0.9020 0.9050 0.9070 0.9080
3.597029 0.9100 0.9110 0.9130 0.9140 0.9160
3.635000 0.9170 0.9170 0.9190 0.9200 0.9220
3.673029 0.9230 0.9250 0.9270 0.9290 0.9300
3.711000 0.9300 0.9320 0.9350 0.9360 0.9360
3.749029 0.9380 0.9390 0.9410 0.9410 0.9420
3.787000 0.9440 0.9440 0.9450 0.9470 0.9470
3.825029 0.9480 0.9480 0.9480 0.9480 0.9500
3.863000 0.9500 0.9510 0.9520 0.9520 0.9540
3.901029 0.9540 0.9540 0.9540 0.9540 0.9540
3.939000 0.9550 0.9550 0.9570 0.9570 0.9580
3.977029 0.9600 0.9600 0.9600 0.9600 0.9600
4.015000 0.9600 0.9610 0.9610 0.9630 0.9630
4.053029 0.9640 0.9640 0.9640 0.9640 0.9660
4.091000 0.9660 0.9660 0.9660 0.9660 0.9660
4.129029 0.9660 0.9670 0.9670 0.9670 0.9670
4.167000 0.9670 0.9670 0.9670 0.9670 0.9670
4.205029 0.9690 0.9690 0.9690 0.9690 0.9690
4.243000 0.9690 0.9700 0.9700 0.9700 0.9700
4.281029 0.9700 0.9720 0.9700 0.9700 0.9700
4.319000 0.9700 0.9700 0.9700 0.9700 0.9700
4.357029 0.9700 0.9700 0.9700 0.9700 0.9700
4.395000 0.9700 0.9700 0.9700 0.9700 0.9700
4.433029 0.9700 0.9700 0.9700 0.9700 0.9700
4.471000 0.9700 0.9700 0.9700 0.9700 0.9700
4.509029 0.9700 0.9700 0.9700 0.9700 0.9700
4.547000 0.9700 0.9700 0.9700 0.9700 0.9700
4.585029 0.9700 0.9700 0.9700 0.9700 0.9700
4.623000 0.9700 0.9700 0.9700 0.9700 0.9720
4.661029 0.9720 0.9720 0.9700 0.9700 0.9700
4.699000 0.9720 0.9720 0.9720 0.9720 0.9720
4.737029 0.9720 0.9720 0.9720 0.9720 0.9720
4.775000 0.9720 0.9720 0.9720 0.9720 0.9720
4.813029 0.9720 0.9720 0.9720 0.9730 0.9730
4.851000 0.9730 0.9730 0.9730 0.9750 0.9750
4.889029 0.9750 0.9750 0.9750 0.9750 0.9750
4.927000 0.9750 0.9750 0.9750 0.9760 0.9760
4.965029 0.9760 0.9760 0.9760 0.9760 0.9760
5.003000 0.9760 0.9770 0.9770 0.9770 0.9770
5.041029 0.9770 0.9770 0.9770 0.9760 0.9760
5.079000 0.9760 0.9760 0.9760 0.9760 0.9760
5.117029 0.9760 0.9760 0.9760 0.9760 0.9750
5.155000 0.9750 0.9750 0.9750 0.9750 0.9730
5.193029 0.9720 0.9720 0.9700 0.9690 0.9690
5.231000 0.9670 0.9670 0.9670 0.9670 0.9670
5.269029 0.9660 0.9660 0.9660 0.9660 0.9640
5.307000 0.9640 0.9640 0.9640 0.9640 0.9640
5.345029 0.9640 0.9640 0.9640 0.9640 0.9640
5.383000 0.9640 0.9640 0.9630 0.9600 0.9580
5.421029 0.9580 0.9570 0.9570 0.9550 0.9550
5.459000 0.9540 0.9540 0.9540 0.9520 0.9520
5.497029 0.9500 0.9470 0.9450 0.9440 0.9420
5.535000 0.9390 0.9360 0.9350 0.9330 0.9330
5.573029 0.9320 0.9320 0.9270 0.9260 0.9230
5.611000 0.9160 0.9140 0.9130 0.9100 0.9080
5.649029 0.9050 0.9020 0.8980 0.8940 0.8860
5.688000 0.8850 0.8820 0.8720 0.8670 0.8640
5.726029 0.8570 0.8500 0.8410 0.8260 0.8160
5.764000 0.7980 0.7790 0.7410 0.7170 0.6940
5.802029 0.6670 0.6420 0.6070 0.5970 0.5640
5.840000 0.5320 0.4860 0.4640 0.4450 0.4360
5.878029 0.4320 0.4260 0.4140 0.4020 0.4010
5.916000 0.3950 0.3910 0.3860 0.3850 0.3720
5.954029 0.3450 0.3170 0.2980 0.2860 0.2700
5.992000 0.2540 0.2410 0.2110 0.1950 0.1820
6.030029 0.1750 0.1720 0.1690 0.1640 0.1570
6.068000 0.1500 0.1410 0.1320 0.1250 0.1190
6.106029 0.1190 0.1190 0.1170 0.1170 0.1170
6.144000 0.1170 0.1170 0.1170 0.1170 0.1220
6.182029 0.1250 0.1320 0.1380 0.1420 0.1600
6.220000 0.1750 0.1820 0.1940 0.2100 0.2160
6.258029 0.2320 0.2550 0.2720 0.3140 0.3330
6.296000 0.3520 0.3690 0.3860 0.4080 0.4140
6.334029 0.4420 0.4660 0.4860 0.4980 0.5220
6.372000 0.5290 0.5440 0.5570 0.5660 0.5700
6.410029 0.5850 0.5890 0.6130 0.6260 0.6360
6.448000 0.6420 0.6520 0.6610 0.6630 0.6660
6.486029 0.6690 0.6730 0.6850 0.6950 0.7080
6.524000 0.7250 0.7300 0.7360 0.7390 0.7420
6.562029 0.7450 0.7480 0.7500 0.7540 0.7610
6.600000 0.7660 0.7720 0.7750 0.7770 0.7800
6.638029 0.7820 0.7830 0.7940 0.7970 0.8010
6.676000 0.8010 0.8020 0.8050 0.8070 0.8080
6.714029 0.8080 0.8100 0.8100 0.8110 0.8110
6.752000 0.8110 0.8110 0.8100 0.8080 0.8080
6.790029 0.8080 0.8080 0.8080 0.8100 0.8100
6.828000 0.8100 0.8100 0.8100 0.8110 0.8110
6.866029 0.8130 0.8190 0.8260 0.8300 0.8360
6.904000 0.8390 0.8410 0.8420 0.8480 0.8500
6.942029 0.8520 0.8540 0.8550 0.8600 0.8610
6.980000 0.8640 0.8660 0.8690 0.8730 0.8730
7.018029 0.8730 0.8750 0.8760 0.8770 0.8790
7.056000 0.8790 0.8800 0.8850 0.8860 0.8880
7.094029 0.8890 0.8890 0.8910 0.8920 0.8920
7.132000 0.8940 0.8940 0.8950 0.8940 0.8940
7.170029 0.8940 0.8940 0.8940 0.8940 0.8920
7.208000 0.8910 0.8860 0.8830 0.8770 0.8700
7.246029 0.8600 0.8570 0.8520 0.8470 0.8350
7.284000 0.8290 0.8140 0.7950 0.7880 0.7730
7.322029 0.7690 0.7570 0.7540 0.7510 0.7500
7.360000 0.7470 0.7440 0.7410 0.7390 0.7360
7.398029 0.7350 0.7330 0.7300 0.7260 0.7200
7.436000 0.7140 0.7100 0.7050 0.6940 0.6890
7.474029 0.6760 0.6600 0.6540 0.6290 0.6140
7.512000 0.6000 0.5920 0.5800 0.5730 0.5640
7.550029 0.5510 0.5320 0.5270 0.5170 0.5070
7.588000 0.5000 0.4920 0.4850 0.4850 0.4880
7.626029 0.4920 0.4950 0.4980 0.5270 0.5480
7.664000 0.5660 0.6020 0.6160 0.6320 0.6450
7.702029 0.6550 0.6670 0.6790 0.6890 0.6980
7.740000 0.7130 0.7350 0.7450 0.7540 0.7660
7.778029 0.7760 0.7890 0.7950 0.8070 0.8140
7.816000 0.8190 0.8250 0.8290 0.8410 0.8450
7.854029 0.8500 0.8520 0.8600 0.8630 0.8660
7.892000 0.8690 0.8720 0.8730 0.8760 0.8770
7.930029 0.8790 0.8820 0.8830 0.8860 0.8880
7.968000 0.8890 0.8910 0.8940 0.8950 0.8970
8.006029 0.8970 0.8980 0.9000 0.9000 0.9020
8.044000 0.9020 0.9020 0.9040 0.9050 0.9050
8.082029 0.9050 0.9080 0.9100 0.9100 0.9110
8.120000 0.9110 0.9110 0.9130 0.9130 0.9140
8.158029 0.9140 0.9140 0.9140 0.9140 0.9160
8.196000 0.9160 0.9160 0.9160 0.9170 0.9170
8.234029 0.9160 0.9160 0.9160 0.9160 0.9160
8.272000 0.9160 0.9170 0.9170 0.9170 0.9170
8.310029 0.9170 0.9170 0.9170 0.9170 0.9170
8.348000 0.9170 0.9190 0.9200 0.9200 0.9220
8.386029 0.9220 0.9230 0.9230 0.9230 0.9230
8.424000 0.9230 0.9230 0.9250 0.9250 0.9260
8.462029 0.9270 0.9270 0.9270 0.9270 0.9270
8.500000 0.9270 0.9270 0.9270 0.9270 0.9270
8.538029 0.9290 0.9290 0.9290 0.9290 0.9290
8.576000 0.9290 0.9290 0.9290 0.9290 0.9290
8.614029 0.9290 0.9290 0.9290 0.9270 0.9270
8.652000 0.9290 0.9290 0.9290 0.9290 0.9290
8.690029 0.9290 0.9290 0.9290 0.9290 0.9290
8.728000 0.9290 0.9290 0.9290 0.9290 0.9300
8.766029 0.9300 0.9300 0.9300 0.9320 0.9320
8.804000 0.9320 0.9320 0.9320 0.9320 0.9320
8.842029 0.9320 0.9320 0.9320 0.9320 0.9320
8.880000 0.9320 0.9320 0.9320 0.9330 0.9330
8.918029 0.9330 0.9330 0.9350 0.9350 0.9350
8.956000 0.9360 0.9360 0.9360 0.9360 0.9380
8.994029 0.9380 0.9380 0.9380 0.9380 0.9380
9.032000 0.9380 0.9380 0.9380 0.9380 0.9380
9.070029 0.9380 0.9380 0.9380 0.9380 0.9380
9.108000 0.9380 0.9380 0.9380 0.9380 0.9380
9.146029 0.9380 0.9380 0.9380 0.9390 0.9380
9.184000 0.9380 0.9380 0.9390 0.9410 0.9410
9.222029 0.9410 0.9410 0.9410 0.9410 0.9410
9.260000 0.9410 0.9410 0.9410 0.9410 0.9410
9.298029 0.9410 0.9410 0.9410 0.9410 0.9410
9.336000 0.9410 0.9410 0.9410 0.9410 0.9420
9.374029 0.9420 0.9420 0.9420 0.9420 0.9420
9.412000 0.9420 0.9420 0.9420 0.9420 0.9420
9.450029 0.9420 0.9420 0.9420 0.9420 0.9420
9.488000 0.9420 0.9420 0.9420 0.9420 0.9420
9.526029 0.9420 0.9420 0.9420 0.9420 0.9420
9.564000 0.9420 0.9420 0.9420 0.9420 0.9440
9.602029 0.9440 0.9440 0.9420 0.9420 0.9420
9.640000 0.9440 0.9440 0.9440 0.9440 0.9440
9.678029 0.9440 0.9440 0.9440 0.9440 0.9440
9.716000 0.9440 0.9440 0.9450 0.9450 0.9450
9.754029 0.9440 0.9450 0.9450 0.9450 0.9450
9.792000 0.9450 0.9450 0.9450 0.9440 0.9450
9.830029 0.9450 0.9450 0.9450 0.9450 0.9450
9.868000 0.9450 0.9450 0.9450 0.9450 0.9450
9.906029 0.9450 0.9450 0.9450 0.9450 0.9450
9.944000 0.9450 0.9470 0.9470 0.9470 0.9470
9.982029 0.9470 0.9470 0.9470 0.9470 0.9470
10.020000 0.9470 0.9470 0.9470 0.9470 0.9470
10.058029 0.9470 0.9470 0.9470 0.9470 0.9470
10.096000 0.9470 0.9480 0.9480 0.9480 0.9470
10.134029 0.9470 0.9480 0.9480 0.9480 0.9480
10.172000 0.9470 0.9480 0.9480 0.9480 0.9480
10.210029 0.9480 0.9480 0.9480 0.9480 0.9480
10.248000 0.9480 0.9500 0.9500 0.9500 0.9500
10.286029 0.9500 0.9500 0.9500 0.9500 0.9500
10.324000 0.9500 0.9500 0.9500 0.9500 0.9500
10.362029 0.9500 0.9500 0.9500 0.9500 0.9500
10.400000 0.9500 0.9500 0.9500 0.9500 0.9500
10.438029 0.9510 0.9500 0.9500 0.9510 0.9510
10.476000 0.9510 0.9510 0.9510 0.9510 0.9510
10.514029 0.9510 0.9500 0.9500 0.9510 0.9510
10.552000 0.9510 0.9510 0.9510 0.9510 0.9510
10.590029 0.9510 0.9510 0.9510 0.9510 0.9510
10.628000 0.9510 0.9510 0.9510 0.9510 0.9510
10.666029 0.9510 0.9510 0.9510 0.9510 0.9510
10.704000 0.9520 0.9520 0.9520 0.9520 0.9510
10.742029 0.9520 0.9520 0.9520 0.9520 0.9510
10.780000 0.9510 0.9510 0.9510 0.9510 0.9510
10.818029 0.9510 0.9510 0.9510 0.9510 0.9510
10.856000 0.9500 0.9500 0.9500 0.9500 0.9480
10.894029 0.9480 0.9470 0.9470 0.9450 0.9450
10.932000 0.9450 0.9450 0.9450 0.9450 0.9450
10.970029 0.9450 0.9450 0.9450 0.9450 0.9450
11.008000 0.9440 0.9440 0.9440 0.9450 0.9450
11.046029 0.9440 0.9440 0.9440 0.9440 0.9440
11.084000 0.9440 0.9440 0.9440 0.9440 0.9440
11.122029 0.9450 0.9450 0.9450 0.9450 0.9450
11.160000 0.9440 0.9440 0.9450 0.9450 0.9440
11.198029 0.9440 0.9440 0.9440 0.9450 0.9440
11.236000 0.9440 0.9440 0.9440 0.9440 0.9440
11.274029 0.9440 0.9450 0.9450 0.9440 0.9440
11.313000 0.9440 0.9440 0.9450 0.9450 0.9440
11.351029 0.9440 0.9440 0.9440 0.9440 0.9440
11.389000 0.9440 0.9440 0.9440 0.9440 0.9440
11.427029 0.9440 0.9440 0.9440 0.9450 0.9450
11.465000 0.9440 0.9440 0.9440 0.9440 0.9440
11.503029 0.9420 0.9420 0.9420 0.9420 0.9410
11.541000 0.9410 0.9410 0.9410 0.9390 0.9390
11.579029 0.9390 0.9380 0.9380 0.9380 0.9380
11.617000 0.9380 0.9380 0.9360 0.9360 0.9360
11.655029 0.9360 0.9360 0.9360 0.9360 0.9360
11.693000 0.9350 0.9350 0.9350 0.9350 0.9350
11.731029 0.9330 0.9330 0.9320 0.9320 0.9300
11.769000 0.9300 0.9300 0.9300 0.9290 0.9290
11.807029 0.9300 0.9300 0.9300 0.9300 0.9290
11.845000 0.9290 0.9270 0.9270 0.9270 0.9270
11.883029 0.9260 0.9260 0.9250 0.9230 0.9220
11.921000 0.9200 0.9200 0.9200 0.9200 0.9200
11.959029 0.9200 0.9200 0.9190 0.9170 0.9160
11.997000 0.9160 0.9140 0.9130 0.9110 0.9100
12.035029 0.9080 0.9070 0.9050 0.9020 0.9010
12.073000 0.8980 0.8970 0.8940 0.8910 0.8890
12.111029 0.8880 0.8830 0.8800 0.8770 0.8720
12.149000 0.8660 0.8630 0.8600 0.8570 0.8520
12.187029 0.8470 0.8420 0.8350 0.8320 0.8260
12.225000 0.8200 0.8130 0.8070 0.7920 0.7860
12.263029 0.7750 0.7670 0.7570 0.7450 0.7320
12.301000 0.7220 0.7170 0.7130 0.6970 0.6920
12.339029 0.6830 0.6760 0.6670 0.6600 0.6510
12.377000 0.6500 0.6480 0.6450 0.6390 0.6330
12.415029 0.6300 0.6260 0.6220 0.6170 0.6160
12.453000 0.6130 0.6080 0.6040 0.6020 0.6000
12.491029 0.5980 0.5980 0.5980 0.5980 0.5980
12.529000 0.5980 0.6010 0.6040 0.6070 0.6110
12.567029 0.6140 0.6200 0.6250 0.6290 0.6360
12.605000 0.6440 0.6550 0.6610 0.6670 0.6750
12.643029 0.6800 0.6880 0.6950 0.7010 0.7080
12.681000 0.7220 0.7290 0.7350 0.7420 0.7450
12.719029 0.7470 0.7510 0.7520 0.7550 0.7600
12.757000 0.7640 0.7670 0.7730 0.7760 0.7790
12.795029 0.7800 0.7830 0.7860 0.7890 0.7920
12.833000 0.7970 0.8010 0.8020 0.8040 0.8050
12.871029 0.8080 0.8110 0.8130 0.8140 0.8170
12.909000 0.8190 0.8200 0.8220 0.8220 0.8230
12.947029 0.8250 0.8260 0.8290 0.8300 0.8300
12.985000 0.8320 0.8320 0.8330 0.8350 0.8350
13.023029 0.8360 0.8360 0.8360 0.8360 0.8360
13.061000 0.8380 0.8380 0.8390 0.8410 0.8420
13.099029 0.8440 0.8440 0.8440 0.8450 0.8450
13.137000 0.8450 0.8450 0.8450 0.8450 0.8450
13.175029 0.8450 0.8450 0.8450 0.8450 0.8450
13.213000 0.8450 0.8450 0.8450 0.8470 0.8470
13.251029 0.8470 0.8470 0.8450 0.8450 0.8440
13.289000 0.8440 0.8440 0.8440 0.8450 0.8440
13.327029 0.8440 0.8450 0.8440 0.8440 0.8450
13.365000 0.8440 0.8440 0.8440 0.8440 0.8440
13.403029 0.8440 0.8440 0.8440 0.8450 0.8440
13.441000 0.8440 0.8440 0.8440 0.8440 0.8440
13.479029 0.8440 0.8440 0.8440 0.8440 0.8440
13.517000 0.8440 0.8440 0.8440 0.8440 0.8440
13.555029 0.8440 0.8440 0.8440 0.8440 0.8440
13.593000 0.8440 0.8440 0.8440 0.8440 0.8440
13.631029 0.8440 0.8440 0.8440 0.8440 0.8440
13.669000 0.8440 0.8440 0.8440 0.8440 0.8440
13.707029 0.8450 0.8450 0.8450 0.8450 0.8450
13.745000 0.8450 0.8450 0.8470 0.8450 0.8450
13.783029 0.8450 0.8450 0.8450 0.8450 0.8450
13.821000 0.8450 0.8450 0.8450 0.8450 0.8450
13.859029 0.8450 0.8450 0.8450 0.8450 0.8440
13.897000 0.8440 0.8440 0.8450 0.8450 0.8450
13.935029 0.8440 0.8440 0.8450 0.8440 0.8440
13.973000 0.8440 0.8450 0.8450 0.8440 0.8440
14.011029 0.8440 0.8440 0.8440 0.8440 0.8440
14.049000 0.8440 0.8420 0.8420 0.8420 0.8420
14.087029 0.8420 0.8420 0.8420 0.8420 0.8410
14.125000 0.8420 0.8420 0.8410 0.8410 0.8410
14.163029 0.8410 0.8410 0.8390 0.8390 0.8390
14.201000 0.8390 0.8390 0.8380 0.8380 0.8380
14.239029 0.8380 0.8360 0.8350 0.8350 0.8330
14.277000 0.8330 0.8330 0.8330 0.8330 0.8330
14.315029 0.8330 0.8320 0.8320 0.8320 0.8320
14.353000 0.8320 0.8320 0.8300 0.8300 0.8300
14.391029 0.8300 0.8300 0.8300 0.8300 0.8300
14.429000 0.8290 0.8290 0.8290 0.8290 0.8300
14.467029 0.8300 0.8300 0.8290 0.8290 0.8290
14.505000 0.8290 0.8290 0.8290 0.8290 0.8270
14.543029 0.8270 0.8270 0.8270 0.8270 0.8260
14.581000 0.8260 0.8260 0.8260 0.8260 0.8260
14.619029 0.8260 0.8260 0.8260 0.8260 0.8260
14.657000 0.8260 0.8260 0.8250 0.8230 0.8230
14.695029 0.8230 0.8230 0.8230 0.8230 0.8230
14.733000 0.8220 0.8220 0.8220 0.8220 0.8220
14.771029 0.8220 0.8220 0.8220 0.8220 0.8200
14.809000 0.8200 0.8200 0.8200 0.8200 0.8200
14.847029 0.8200 0.8200 0.8200 0.8200 0.8200
14.885000 0.8200 0.8200 0.8200 0.8200 0.8190
14.923029 0.8190 0.8190 0.8190 0.8190 0.8170
14.961000 0.8170 0.8170 0.8170 0.8170 0.8170
14.999029 0.8170 0.8170 0.8170 0.8170 0.8170
15.037000 0.8190 0.8190 0.8190 0.8190 0.8190
15.075029 0.8190 0.8190 0.8190 0.8190 0.8190
15.113000 0.8190
##END=
