##TITLE=YELLOW IRON OXIDE
##JCAMP-DX=4.24
##DATA TYPE=INFRARED SPECTRUM
##CLASS=COBLENTZ III
##ORIGIN=DESOTO CHEMICAL COATINGS, INC.
##OWNER=COBLENTZ SOCIETY
Collection (C) 2018 copyright by the U.S. Secretary of Commerce
on behalf of the United States of America. All rights reserved.
##DATE=Not specified, most likely prior to 1970
##NAMES=FERRIC OXIDE MONOHYDRATE
##MOLFORM=O3 Fe2  * H2 O
$$ Fe2O3.H2O 98-99%
##SOURCE REFERENCE=COBLENTZ NO. 4677
##$NIST ID=B6004677
##$NIST SOURCE=COBLENTZ
##$NIST IMAGE=cob4677
##SPECTROMETER/DATA SYSTEM=BECKMAN IR-12 (GRATING)
##STATE=SOLID (0.8 mg / 300 mg CsI DISC)
##SAMPLING PROCEDURE=TRANSMISSION
##RESOLUTION=4
##DATA PROCESSING=DIGITIZED BY NIST FROM HARD COPY (FROM TWO SEGMENTS)
##XUNITS=1/CM
##YUNITS=TRANSMITTANCE
##XFACTOR=1.000000
##YFACTOR=1
##DELTAX=1.329397
##FIRSTX=200
##LASTX=3983.46
##FIRSTY=0.676
##MAXX=3983.46
##MINX=200
##MAXY=0.983
##MINY=0.061
##NPOINTS=2847
##XYDATA=(X++(Y..Y))
200.000000 0.6760 0.6760 0.6760 0.6760 0.6760
206.646985 0.6760 0.6760 0.6760 0.6760 0.6760
213.293970 0.6770 0.6770 0.6780 0.6780 0.6810
219.940955 0.6840 0.6850 0.6860 0.6880 0.6890
226.587940 0.6900 0.6920 0.6920 0.6930 0.6930
233.234924 0.6940 0.6940 0.6960 0.6960 0.6960
239.881909 0.6960 0.6960 0.6960 0.6960 0.6940
246.528894 0.6920 0.6890 0.6890 0.6850 0.6810
253.175879 0.6780 0.6740 0.6700 0.6690 0.6660
259.822864 0.6650 0.6610 0.6511 0.6421 0.6331
266.469849 0.6220 0.5850 0.5540 0.4732 0.3863
273.116834 0.3681 0.3361 0.3101 0.2941 0.2861
279.763819 0.2780 0.2710 0.2700 0.2700 0.2710
286.410804 0.2790 0.2870 0.2950 0.2990 0.3149
293.057788 0.3300 0.3500 0.3680 0.3850 0.3880
299.704773 0.3920 0.3970 0.4060 0.4060 0.4090
306.351758 0.4100 0.4190 0.4250 0.4350 0.4480
312.998743 0.4550 0.4640 0.4769 0.4889 0.4989
319.645728 0.5100 0.5300 0.5400 0.5500 0.5590
326.292713 0.5670 0.5680 0.5750 0.5820 0.5870
332.939698 0.5980 0.6010 0.6020 0.6050 0.6070
339.586683 0.6100 0.6110 0.6130 0.6130 0.6130
346.233668 0.6130 0.6110 0.6110 0.6100 0.6090
352.880652 0.6090 0.6070 0.6050 0.5990 0.5940
359.527637 0.5890 0.5790 0.5700 0.5600 0.5500
366.174622 0.5281 0.5111 0.4971 0.4721 0.4521
372.821607 0.4360 0.4230 0.4060 0.3930 0.3840
379.468592 0.3700 0.3501 0.3361 0.3290 0.3260
386.115577 0.3230 0.3230 0.3220 0.3180 0.2981
392.762562 0.2671 0.2311 0.2001 0.1881 0.1641
399.409547 0.1350 0.1090 0.0890 0.0850 0.0770
406.056532 0.0690 0.0640 0.0620 0.0610 0.0610
412.703516 0.0610 0.0620 0.0640 0.0660 0.0680
419.350501 0.0700 0.0730 0.0760 0.0840 0.0910
425.997486 0.0950 0.0970 0.1030 0.1120 0.1270
432.644471 0.1290 0.1390 0.1440 0.1520 0.1609
439.291456 0.1790 0.1910 0.2060 0.2140 0.2240
445.938441 0.2320 0.2459 0.2480 0.2550 0.2570
452.585426 0.2580 0.2580 0.2580 0.2580 0.2580
459.232411 0.2590 0.2590 0.2610 0.2620 0.2650
465.879396 0.2690 0.2730 0.2770 0.2820 0.2870
472.526380 0.2950 0.3020 0.3129 0.3259 0.3379
479.173365 0.3480 0.3580 0.3730 0.3770 0.3820
485.820350 0.3880 0.3890 0.3940 0.4000 0.4040
492.467335 0.4090 0.4100 0.4160 0.4230 0.4310
499.114320 0.4440 0.4629 0.4948 0.5238 0.5399
505.761305 0.5600 0.5720 0.5890 0.5970 0.6030
512.408290 0.6189 0.6300 0.6370 0.6430 0.6509
519.055275 0.6590 0.6620 0.6700 0.6800 0.6810
525.702260 0.6840 0.6880 0.6900 0.6940 0.7010
532.349244 0.7050 0.7060 0.7090 0.7100 0.7120
538.996229 0.7130 0.7160 0.7170 0.7180 0.7180
545.643214 0.7200 0.7200 0.7210 0.7210 0.7200
552.290199 0.7200 0.7180 0.7170 0.7160 0.7120
558.937184 0.7090 0.7050 0.7020 0.6980 0.6940
565.584169 0.6900 0.6860 0.6840 0.6820 0.6721
572.231154 0.6690 0.6630 0.6540 0.6500 0.6390
578.878139 0.6300 0.6210 0.5871 0.5741 0.5601
585.525124 0.5510 0.5390 0.5300 0.5140 0.5020
592.172108 0.4920 0.4840 0.4750 0.4670 0.4561
598.819093 0.4480 0.4450 0.4410 0.4400 0.4390
605.466078 0.4370 0.4370 0.4360 0.4360 0.4360
612.113063 0.4370 0.4390 0.4410 0.4440 0.4470
618.760048 0.4520 0.4560 0.4630 0.4720 0.4800
625.407033 0.4890 0.5000 0.5070 0.5120 0.5240
632.054018 0.5360 0.5480 0.5550 0.5659 0.5749
638.701003 0.5820 0.5930 0.6010 0.6070 0.6190
645.347988 0.6270 0.6350 0.6420 0.6510 0.6550
651.994972 0.6580 0.6610 0.6630 0.6650 0.6650
658.641957 0.6660 0.6660 0.6680 0.6680 0.6680
665.288942 0.6660 0.6650 0.6630 0.6630 0.6620
671.935927 0.6580 0.6580 0.6590 0.6610 0.6630
678.582912 0.6730 0.6770 0.6860 0.6960 0.7050
685.229897 0.7120 0.7210 0.7260 0.7340 0.7449
691.876882 0.7530 0.7570 0.7610 0.7670 0.7710
698.523867 0.7750 0.7830 0.7850 0.7910 0.7970
705.170852 0.8000 0.8030 0.8030 0.8070 0.8090
711.817836 0.8130 0.8150 0.8170 0.8190 0.8230
718.464821 0.8250 0.8270 0.8280 0.8310 0.8320
725.111806 0.8350 0.8390 0.8400 0.8420 0.8430
731.758791 0.8430 0.8440 0.8440 0.8440 0.8440
738.405776 0.8440 0.8440 0.8440 0.8430 0.8430
745.052761 0.8420 0.8400 0.8390 0.8380 0.8350
751.699746 0.8320 0.8280 0.8240 0.8200 0.8170
758.346731 0.8130 0.8090 0.8030 0.7990 0.7920
764.993716 0.7870 0.7810 0.7720 0.7670 0.7521
771.640700 0.7420 0.7280 0.7170 0.7020 0.6880
778.287685 0.6740 0.6630 0.6311 0.5852 0.5661
784.934670 0.5440 0.5270 0.5070 0.4591 0.4480
791.581655 0.4390 0.4280 0.4190 0.4081 0.3981
798.228640 0.3890 0.3890 0.3940 0.4160 0.4440
804.875625 0.4470 0.4809 0.5218 0.5389 0.5698
811.522610 0.5860 0.6020 0.6190 0.6410 0.6590
818.169595 0.6770 0.6920 0.7099 0.7249 0.7359
824.816580 0.7490 0.7550 0.7610 0.7680 0.7750
831.463564 0.7830 0.7910 0.7920 0.7970 0.8010
838.110549 0.8050 0.8050 0.8080 0.8090 0.8110
844.757534 0.8130 0.8150 0.8160 0.8160 0.8160
851.404519 0.8160 0.8150 0.8120 0.8110 0.8070
858.051504 0.8040 0.8000 0.7960 0.7930 0.7850
864.698489 0.7810 0.7750 0.7650 0.7600 0.7490
871.345474 0.7320 0.7200 0.7041 0.6901 0.6721
877.992459 0.6590 0.6420 0.5940 0.5720 0.5520
884.639443 0.5311 0.5101 0.4831 0.4681 0.4411
891.286428 0.4210 0.3960 0.3890 0.3800 0.3700
897.933413 0.3610 0.3560 0.3530 0.3530 0.3530
904.580398 0.3650 0.3780 0.3900 0.3960 0.4529
911.227383 0.5019 0.5299 0.5629 0.5849 0.6019
917.874368 0.6190 0.6450 0.6760 0.7020 0.7240
924.521353 0.7400 0.7589 0.7710 0.7829 0.7949
931.168338 0.8030 0.8130 0.8200 0.8290 0.8360
937.815323 0.8420 0.8500 0.8540 0.8620 0.8640
944.462307 0.8670 0.8710 0.8750 0.8780 0.8800
951.109292 0.8840 0.8860 0.8870 0.8880 0.8900
957.756277 0.8910 0.8910 0.8910 0.8910 0.8910
964.403262 0.8910 0.8920 0.8920 0.8920 0.8920
971.050247 0.8940 0.8940 0.8940 0.8950 0.8950
977.697232 0.8950 0.8950 0.8950 0.8990 0.9000
984.344217 0.9000 0.9000 0.9000 0.9000 0.9000
990.991202 0.9000 0.9000 0.9020 0.9020 0.9030
997.638187 0.9040 0.9060 0.9070 0.9080 0.9080
1004.285171 0.9100 0.9100 0.9100 0.9100 0.9100
1010.932156 0.9100 0.9100 0.9100 0.9100 0.9100
1017.579141 0.9110 0.9110 0.9120 0.9120 0.9120
1024.226126 0.9120 0.9120 0.9120 0.9120 0.9110
1030.873111 0.9110 0.9100 0.9080 0.9080 0.9080
1037.520096 0.9070 0.9070 0.9060 0.9060 0.9040
1044.167081 0.9040 0.9040 0.9040 0.9030 0.9030
1050.814066 0.9030 0.9030 0.9030 0.9020 0.9020
1057.461051 0.9020 0.9020 0.9030 0.9030 0.9030
1064.108035 0.9030 0.9040 0.9060 0.9060 0.9070
1070.755020 0.9080 0.9080 0.9100 0.9100 0.9100
1077.402005 0.9100 0.9110 0.9110 0.9110 0.9100
1084.048990 0.9100 0.9110 0.9110 0.9120 0.9120
1090.695975 0.9120 0.9120 0.9120 0.9120 0.9110
1097.342960 0.9110 0.9110 0.9110 0.9110 0.9100
1103.989945 0.9100 0.9080 0.9060 0.9060 0.9030
1110.636930 0.9030 0.9020 0.9000 0.8980 0.8960
1117.283915 0.8950 0.8940 0.8920 0.8910 0.8900
1123.930899 0.8880 0.8870 0.8860 0.8840 0.8830
1130.577884 0.8820 0.8820 0.8820 0.8820 0.8820
1137.224869 0.8820 0.8830 0.8830 0.8840 0.8840
1143.871854 0.8860 0.8860 0.8870 0.8900 0.8900
1150.518839 0.8940 0.8980 0.8990 0.9000 0.9020
1157.165824 0.9020 0.9030 0.9040 0.9070 0.9080
1163.812809 0.9100 0.9110 0.9120 0.9120 0.9120
1170.459794 0.9120 0.9120 0.9140 0.9140 0.9150
1177.106779 0.9170 0.9170 0.9170 0.9150 0.9150
1183.753763 0.9170 0.9180 0.9190 0.9190 0.9190
1190.400748 0.9190 0.9210 0.9220 0.9220 0.9230
1197.047733 0.9250 0.9250 0.9260 0.9260 0.9260
1203.694718 0.9250 0.9250 0.9260 0.9270 0.9270
1210.341703 0.9270 0.9270 0.9290 0.9300 0.9300
1216.988688 0.9310 0.9330 0.9340 0.9350 0.9350
1223.635673 0.9370 0.9370 0.9380 0.9390 0.9410
1230.282658 0.9410 0.9410 0.9420 0.9430 0.9450
1236.929643 0.9460 0.9460 0.9470 0.9500 0.9510
1243.576627 0.9510 0.9530 0.9530 0.9530 0.9530
1250.223612 0.9540 0.9550 0.9580 0.9590 0.9610
1256.870597 0.9620 0.9620 0.9630 0.9660 0.9670
1263.517582 0.9690 0.9690 0.9690 0.9690 0.9700
1270.164567 0.9700 0.9700 0.9710 0.9710 0.9730
1276.811552 0.9730 0.9730 0.9730 0.9730 0.9730
1283.458537 0.9730 0.9730 0.9730 0.9740 0.9740
1290.105522 0.9740 0.9730 0.9730 0.9740 0.9740
1296.752507 0.9740 0.9740 0.9740 0.9740 0.9750
1303.399491 0.9750 0.9750 0.9750 0.9750 0.9770
1310.046476 0.9770 0.9770 0.9770 0.9780 0.9780
1316.693461 0.9780 0.9790 0.9810 0.9820 0.9820
1323.340446 0.9830 0.9830 0.9830 0.9830 0.9820
1329.987431 0.9820 0.9810 0.9810 0.9790 0.9790
1336.634416 0.9780 0.9780 0.9780 0.9780 0.9780
1343.281401 0.9780 0.9780 0.9770 0.9770 0.9770
1349.928386 0.9770 0.9770 0.9770 0.9770 0.9770
1356.575371 0.9770 0.9770 0.9770 0.9770 0.9770
1363.222355 0.9770 0.9770 0.9770 0.9750 0.9750
1369.869340 0.9750 0.9750 0.9770 0.9770 0.9770
1376.516325 0.9770 0.9770 0.9750 0.9750 0.9750
1383.163310 0.9750 0.9750 0.9750 0.9770 0.9770
1389.810295 0.9770 0.9750 0.9750 0.9740 0.9730
1396.457280 0.9730 0.9730 0.9730 0.9730 0.9730
1403.104265 0.9710 0.9710 0.9710 0.9710 0.9710
1409.751250 0.9710 0.9710 0.9700 0.9690 0.9670
1416.398235 0.9660 0.9660 0.9660 0.9650 0.9650
1423.045219 0.9650 0.9650 0.9630 0.9630 0.9630
1429.692204 0.9620 0.9620 0.9620 0.9620 0.9620
1436.339189 0.9620 0.9620 0.9620 0.9630 0.9630
1442.986174 0.9620 0.9620 0.9620 0.9610 0.9610
1449.633159 0.9590 0.9590 0.9590 0.9590 0.9590
1456.280144 0.9590 0.9610 0.9610 0.9630 0.9630
1462.927129 0.9650 0.9660 0.9660 0.9670 0.9670
1469.574114 0.9670 0.9670 0.9670 0.9700 0.9700
1476.221099 0.9700 0.9700 0.9710 0.9710 0.9730
1482.868083 0.9730 0.9730 0.9730 0.9730 0.9740
1489.515068 0.9740 0.9740 0.9740 0.9740 0.9740
1496.162053 0.9740 0.9740 0.9750 0.9750 0.9770
1502.809038 0.9770 0.9750 0.9750 0.9740 0.9740
1509.456023 0.9740 0.9730 0.9740 0.9740 0.9750
1516.103008 0.9750 0.9750 0.9750 0.9750 0.9750
1522.749993 0.9750 0.9750 0.9750 0.9750 0.9750
1529.396978 0.9750 0.9740 0.9730 0.9730 0.9700
1536.043963 0.9690 0.9690 0.9690 0.9670 0.9660
1542.690947 0.9660 0.9660 0.9670 0.9670 0.9670
1549.337932 0.9670 0.9670 0.9690 0.9670 0.9660
1555.984917 0.9660 0.9630 0.9630 0.9620 0.9620
1562.631902 0.9620 0.9620 0.9620 0.9630 0.9620
1569.278887 0.9620 0.9610 0.9590 0.9580 0.9580
1575.925872 0.9590 0.9590 0.9610 0.9610 0.9570
1582.572857 0.9540 0.9530 0.9460 0.9430 0.9430
1589.219842 0.9430 0.9430 0.9420 0.9410 0.9390
1595.866827 0.9340 0.9300 0.9300 0.9260 0.9230
1602.513811 0.9220 0.9210 0.9150 0.9120 0.9110
1609.160796 0.9100 0.9060 0.9040 0.9000 0.8980
1615.807781 0.8980 0.8960 0.8960 0.8980 0.8980
1622.454766 0.8990 0.8990 0.9000 0.9020 0.9020
1629.101751 0.9020 0.9020 0.9030 0.9030 0.9040
1635.748736 0.9060 0.9070 0.9070 0.9080 0.9080
1642.395721 0.9080 0.9100 0.9100 0.9100 0.9080
1649.042706 0.9080 0.9070 0.9060 0.9060 0.9060
1655.689691 0.9060 0.9040 0.9040 0.9040 0.9040
1662.336675 0.9060 0.9060 0.9070 0.9070 0.9080
1668.983660 0.9100 0.9120 0.9150 0.9150 0.9190
1675.630645 0.9210 0.9220 0.9230 0.9250 0.9270
1682.277630 0.9290 0.9300 0.9300 0.9310 0.9310
1688.924615 0.9340 0.9370 0.9380 0.9410 0.9450
1695.571600 0.9450 0.9460 0.9470 0.9490 0.9490
1702.218585 0.9500 0.9510 0.9510 0.9530 0.9540
1708.865570 0.9540 0.9540 0.9550 0.9550 0.9550
1715.512555 0.9550 0.9570 0.9570 0.9570 0.9570
1722.159539 0.9570 0.9550 0.9550 0.9550 0.9550
1728.806524 0.9540 0.9540 0.9540 0.9540 0.9540
1735.453509 0.9540 0.9540 0.9530 0.9530 0.9510
1742.100494 0.9510 0.9500 0.9500 0.9510 0.9510
1748.747479 0.9510 0.9500 0.9490 0.9490 0.9500
1755.394464 0.9500 0.9510 0.9510 0.9500 0.9500
1762.041449 0.9500 0.9470 0.9460 0.9450 0.9450
1768.688434 0.9450 0.9430 0.9430 0.9420 0.9420
1775.335419 0.9420 0.9410 0.9410 0.9390 0.9390
1781.982403 0.9380 0.9380 0.9380 0.9380 0.9370
1788.629388 0.9370 0.9370 0.9370 0.9370 0.9370
1795.276373 0.9370 0.9370 0.9370 0.9370 0.9370
1801.923358 0.9380 0.9380 0.9380 0.9380 0.9390
1808.570343 0.9390 0.9390 0.9410 0.9420 0.9420
1815.217328 0.9430 0.9430 0.9450 0.9450 0.9460
1821.864313 0.9490 0.9500 0.9500 0.9510 0.9540
1828.511298 0.9550 0.9570 0.9570 0.9580 0.9590
1835.158283 0.9590 0.9590 0.9610 0.9610 0.9620
1841.805267 0.9630 0.9620 0.9620 0.9620 0.9620
1848.452252 0.9620 0.9630 0.9630 0.9630 0.9650
1855.099237 0.9660 0.9660 0.9670 0.9700 0.9700
1861.746222 0.9700 0.9700 0.9700 0.9700 0.9670
1868.393207 0.9670 0.9670 0.9670 0.9670 0.9670
1875.040192 0.9670 0.9670 0.9670 0.9660 0.9660
1881.687177 0.9660 0.9670 0.9670 0.9670 0.9670
1888.334162 0.9670 0.9690 0.9690 0.9690 0.9690
1894.981147 0.9670 0.9670 0.9670 0.9660 0.9660
1901.628131 0.9660 0.9650 0.9650 0.9650 0.9650
1908.275116 0.9650 0.9650 0.9650 0.9650 0.9650
1914.922101 0.9650 0.9650 0.9650 0.9650 0.9650
1921.569086 0.9650 0.9650 0.9650 0.9650 0.9650
1928.216071 0.9650 0.9660 0.9660 0.9670 0.9670
1934.863056 0.9670 0.9670 0.9670 0.9670 0.9670
1941.510041 0.9670 0.9670 0.9670 0.9670 0.9670
1948.157026 0.9670 0.9670 0.9660 0.9660 0.9660
1954.804011 0.9660 0.9660 0.9660 0.9660 0.9660
1961.450995 0.9660 0.9660 0.9670 0.9660 0.9660
1968.097980 0.9660 0.9660 0.9660 0.9660 0.9650
1974.744965 0.9650 0.9650 0.9660 0.9660 0.9650
1981.391950 0.9650 0.9650 0.9650 0.9650 0.9660
1988.038935 0.9660 0.9660 0.9660 0.9660 0.9660
1994.685920 0.9670 0.9670 0.9670 0.9670 0.9660
2001.332905 0.9655 0.9650 0.9640 0.9630 0.9630
2007.979890 0.9630 0.9630 0.9630 0.9630 0.9630
2014.626875 0.9630 0.9630 0.9625 0.9620 0.9634
2021.273859 0.9649 0.9650 0.9650 0.9640 0.9630
2027.920844 0.9630 0.9630 0.9630 0.9630 0.9625
2034.567829 0.9620 0.9620 0.9620 0.9620 0.9620
2041.214814 0.9615 0.9610 0.9610 0.9610 0.9610
2047.861799 0.9610 0.9610 0.9610 0.9610 0.9610
2054.508784 0.9615 0.9620 0.9620 0.9620 0.9620
2061.155769 0.9620 0.9620 0.9620 0.9615 0.9610
2067.802754 0.9610 0.9610 0.9610 0.9610 0.9614
2074.449739 0.9619 0.9620 0.9620 0.9620 0.9620
2081.096723 0.9620 0.9620 0.9620 0.9620 0.9620
2087.743708 0.9620 0.9620 0.9620 0.9620 0.9620
2094.390693 0.9624 0.9629 0.9630 0.9630 0.9626
2101.037678 0.9621 0.9624 0.9629 0.9630 0.9630
2107.684663 0.9630 0.9630 0.9630 0.9630 0.9639
2114.331648 0.9649 0.9650 0.9650 0.9654 0.9659
2120.978633 0.9656 0.9651 0.9650 0.9650 0.9650
2127.625618 0.9650 0.9650 0.9650 0.9654 0.9659
2134.272603 0.9660 0.9660 0.9664 0.9669 0.9670
2140.919587 0.9670 0.9666 0.9661 0.9660 0.9660
2147.566572 0.9664 0.9669 0.9670 0.9670 0.9670
2154.213557 0.9670 0.9670 0.9670 0.9670 0.9670
2160.860542 0.9670 0.9670 0.9670 0.9670 0.9670
2167.507527 0.9670 0.9670 0.9670 0.9670 0.9670
2174.154512 0.9670 0.9670 0.9666 0.9661 0.9660
2180.801497 0.9660 0.9656 0.9651 0.9650 0.9650
2187.448482 0.9654 0.9659 0.9660 0.9660 0.9660
2194.095466 0.9660 0.9660 0.9660 0.9664 0.9669
2200.742451 0.9670 0.9670 0.9670 0.9670 0.9670
2207.389436 0.9670 0.9670 0.9670 0.9670 0.9670
2214.036421 0.9670 0.9670 0.9670 0.9670 0.9670
2220.683406 0.9670 0.9666 0.9661 0.9660 0.9660
2227.330391 0.9656 0.9651 0.9650 0.9650 0.9654
2233.977376 0.9658 0.9660 0.9660 0.9660 0.9660
2240.624361 0.9664 0.9669 0.9670 0.9670 0.9670
2247.271346 0.9670 0.9670 0.9670 0.9670 0.9670
2253.918330 0.9667 0.9662 0.9660 0.9660 0.9660
2260.565315 0.9660 0.9660 0.9660 0.9663 0.9668
2267.212300 0.9667 0.9662 0.9660 0.9660 0.9660
2273.859285 0.9660 0.9660 0.9660 0.9660 0.9660
2280.506270 0.9660 0.9660 0.9660 0.9660 0.9657
2287.153255 0.9652 0.9650 0.9650 0.9644 0.9634
2293.800240 0.9630 0.9630 0.9630 0.9630 0.9630
2300.447225 0.9630 0.9627 0.9622 0.9620 0.9620
2307.094210 0.9617 0.9612 0.9610 0.9610 0.9610
2313.741194 0.9610 0.9610 0.9610 0.9610 0.9610
2320.388179 0.9610 0.9610 0.9610 0.9610 0.9610
2327.035164 0.9610 0.9610 0.9610 0.9610 0.9610
2333.682149 0.9610 0.9610 0.9604 0.9594 0.9587
2340.329134 0.9582 0.9580 0.9580 0.9580 0.9580
2346.976119 0.9577 0.9572 0.9570 0.9570 0.9570
2353.623104 0.9570 0.9564 0.9554 0.9550 0.9550
2360.270089 0.9550 0.9550 0.9550 0.9550 0.9550
2366.917074 0.9550 0.9555 0.9565 0.9570 0.9570
2373.564058 0.9573 0.9578 0.9580 0.9580 0.9580
2380.211043 0.9580 0.9583 0.9588 0.9595 0.9605
2386.858028 0.9610 0.9610 0.9610 0.9610 0.9610
2393.505013 0.9610 0.9610 0.9610 0.9610 0.9610
2400.151998 0.9610 0.9610 0.9610 0.9610 0.9610
2406.798983 0.9610 0.9610 0.9610 0.9610 0.9610
2413.445968 0.9610 0.9610 0.9610 0.9610 0.9610
2420.092953 0.9610 0.9610 0.9610 0.9610 0.9610
2426.739938 0.9605 0.9595 0.9590 0.9590 0.9590
2433.386922 0.9590 0.9588 0.9583 0.9580 0.9580
2440.033907 0.9578 0.9573 0.9570 0.9570 0.9570
2446.680892 0.9570 0.9566 0.9556 0.9550 0.9550
2453.327877 0.9548 0.9543 0.9540 0.9540 0.9540
2459.974862 0.9540 0.9540 0.9540 0.9540 0.9540
2466.621847 0.9538 0.9533 0.9532 0.9537 0.9542
2473.268832 0.9547 0.9550 0.9550 0.9550 0.9550
2479.915817 0.9546 0.9536 0.9530 0.9530 0.9530
2486.562802 0.9530 0.9530 0.9530 0.9530 0.9530
2493.209786 0.9530 0.9530 0.9530 0.9530 0.9530
2499.856771 0.9530 0.9530 0.9530 0.9530 0.9530
2506.503756 0.9530 0.9530 0.9530 0.9530 0.9530
2513.150741 0.9530 0.9530 0.9530 0.9530 0.9530
2519.797726 0.9532 0.9537 0.9540 0.9540 0.9540
2526.444711 0.9540 0.9538 0.9533 0.9530 0.9530
2533.091696 0.9530 0.9530 0.9530 0.9530 0.9530
2539.738681 0.9530 0.9527 0.9517 0.9510 0.9510
2546.385666 0.9510 0.9510 0.9510 0.9510 0.9510
2553.032650 0.9510 0.9508 0.9503 0.9498 0.9493
2559.679635 0.9490 0.9490 0.9487 0.9477 0.9468
2566.326620 0.9463 0.9460 0.9460 0.9459 0.9454
2572.973605 0.9447 0.9437 0.9430 0.9430 0.9429
2579.620590 0.9424 0.9419 0.9414 0.9410 0.9410
2586.267575 0.9410 0.9410 0.9410 0.9410 0.9410
2592.914560 0.9410 0.9410 0.9410 0.9411 0.9416
2599.561545 0.9419 0.9414 0.9410 0.9410 0.9410
2606.208530 0.9410 0.9406 0.9391 0.9380 0.9380
2612.855514 0.9379 0.9374 0.9370 0.9370 0.9368
2619.502499 0.9358 0.9349 0.9344 0.9340 0.9340
2626.149484 0.9339 0.9334 0.9330 0.9330 0.9328
2632.796469 0.9318 0.9310 0.9310 0.9310 0.9310
2639.443454 0.9309 0.9304 0.9300 0.9300 0.9301
2646.090439 0.9306 0.9310 0.9310 0.9310 0.9310
2652.737424 0.9310 0.9310 0.9310 0.9310 0.9310
2659.384409 0.9310 0.9309 0.9304 0.9300 0.9300
2666.031394 0.9300 0.9300 0.9297 0.9282 0.9270
2672.678378 0.9270 0.9272 0.9282 0.9288 0.9278
2679.325363 0.9270 0.9270 0.9269 0.9264 0.9258
2685.972348 0.9243 0.9229 0.9224 0.9219 0.9214
2692.619333 0.9210 0.9210 0.9210 0.9210 0.9210
2699.266318 0.9210 0.9209 0.9199 0.9190 0.9190
2705.913303 0.9190 0.9190 0.9189 0.9184 0.9179
2712.560288 0.9174 0.9169 0.9159 0.9149 0.9144
2719.207273 0.9139 0.9129 0.9120 0.9120 0.9120
2725.854258 0.9120 0.9119 0.9114 0.9110 0.9110
2732.501242 0.9110 0.9105 0.9100 0.9100 0.9100
2739.148227 0.9100 0.9100 0.9100 0.9100 0.9100
2745.795212 0.9099 0.9084 0.9070 0.9065 0.9059
2752.442197 0.9049 0.9040 0.9040 0.9039 0.9019
2759.089182 0.9000 0.9000 0.9000 0.8995 0.8990
2765.736167 0.8990 0.8990 0.8985 0.8980 0.8970
2772.383152 0.8960 0.8955 0.8950 0.8945 0.8940
2779.030137 0.8930 0.8920 0.8920 0.8920 0.8920
2785.677122 0.8920 0.8920 0.8920 0.8920 0.8920
2792.324106 0.8920 0.8920 0.8915 0.8910 0.8910
2798.971091 0.8910 0.8910 0.8910 0.8905 0.8900
2805.618076 0.8900 0.8900 0.8890 0.8880 0.8880
2812.265061 0.8880 0.8880 0.8880 0.8875 0.8870
2818.912046 0.8865 0.8860 0.8860 0.8860 0.8860
2825.559031 0.8860 0.8850 0.8840 0.8835 0.8830
2832.206016 0.8815 0.8800 0.8790 0.8780 0.8765
2838.853001 0.8751 0.8745 0.8740 0.8730 0.8720
2845.499986 0.8715 0.8710 0.8705 0.8700 0.8700
2852.146970 0.8700 0.8700 0.8700 0.8700 0.8700
2858.793955 0.8700 0.8700 0.8691 0.8681 0.8675
2865.440940 0.8670 0.8665 0.8660 0.8660 0.8660
2872.087925 0.8660 0.8660 0.8660 0.8660 0.8646
2878.734910 0.8631 0.8625 0.8620 0.8620 0.8620
2885.381895 0.8611 0.8601 0.8595 0.8590 0.8590
2892.028880 0.8590 0.8577 0.8562 0.8556 0.8551
2898.675865 0.8546 0.8541 0.8531 0.8521 0.8516
2905.322850 0.8511 0.8497 0.8482 0.8471 0.8461
2911.969834 0.8447 0.8432 0.8426 0.8421 0.8411
2918.616819 0.8401 0.8383 0.8363 0.8360 0.8360
2925.263804 0.8356 0.8351 0.8350 0.8350 0.8350
2931.910789 0.8350 0.8350 0.8350 0.8346 0.8341
2938.557774 0.8331 0.8322 0.8320 0.8320 0.8320
2945.204759 0.8320 0.8316 0.8311 0.8302 0.8292
2951.851744 0.8290 0.8290 0.8282 0.8272 0.8258
2958.498729 0.8243 0.8228 0.8213 0.8206 0.8201
2965.145714 0.8188 0.8173 0.8166 0.8161 0.8156
2971.792698 0.8151 0.8142 0.8132 0.8126 0.8121
2978.439683 0.8108 0.8093 0.8074 0.8054 0.8034
2985.086668 0.8014 0.8006 0.8001 0.7996 0.7991
2991.733653 0.7990 0.7990 0.7974 0.7954 0.7935
2998.380638 0.7915 0.7887 0.7857 0.7842 0.7832
3005.027623 0.7819 0.7804 0.7796 0.7791 0.7764
3011.674608 0.7728 0.7716 0.7711 0.7687 0.7657
3018.321593 0.7631 0.7606 0.7585 0.7565 0.7541
3024.968578 0.7517 0.7492 0.7467 0.7442 0.7417
3031.615562 0.7377 0.7333 0.7313 0.7303 0.7286
3038.262547 0.7265 0.7238 0.7208 0.7175 0.7140
3044.909532 0.7087 0.7027 0.6981 0.6942 0.6912
3051.556517 0.6887 0.6852 0.6812 0.6776 0.6741
3058.203502 0.6695 0.6646 0.6596 0.6546 0.6496
3064.850487 0.6445 0.6395 0.6345 0.6288 0.6229
3071.497472 0.6172 0.6117 0.6032 0.5932 0.5866
3078.144457 0.5816 0.5760 0.5700 0.5633 0.5564
3084.791442 0.5527 0.5507 0.5467 0.5418 0.5374
3091.438426 0.5333 0.5300 0.5270 0.5227 0.5177
3098.085411 0.5121 0.5061 0.5024 0.4999 0.4964
3104.732396 0.4924 0.4888 0.4853 0.4827 0.4807
3111.379381 0.4784 0.4759 0.4741 0.4726 0.4711
3118.026366 0.4696 0.4671 0.4641 0.4621 0.4606
3124.673351 0.4597 0.4592 0.4581 0.4566 0.4557
3131.320336 0.4552 0.4544 0.4534 0.4530 0.4530
3137.967321 0.4530 0.4530 0.4530 0.4530 0.4530
3144.614306 0.4530 0.4530 0.4530 0.4536 0.4546
3151.261290 0.4553 0.4558 0.4563 0.4568 0.4576
3157.908275 0.4586 0.4596 0.4606 0.4621 0.4641
3164.555260 0.4658 0.4673 0.4683 0.4688 0.4701
3171.202245 0.4721 0.4741 0.4761 0.4776 0.4786
3177.849230 0.4796 0.4806 0.4818 0.4833 0.4848
3184.496215 0.4863 0.4873 0.4878 0.4888 0.4903
3191.143200 0.4923 0.4948 0.4976 0.5006 0.5025
3197.790185 0.5035 0.5051 0.5071 0.5088 0.5103
3204.437170 0.5118 0.5133 0.5143 0.5148 0.5163
3211.084154 0.5188 0.5210 0.5230 0.5258 0.5292
3217.731139 0.5320 0.5340 0.5362 0.5387 0.5415
3224.378124 0.5445 0.5470 0.5490 0.5505 0.5515
3231.025109 0.5525 0.5535 0.5552 0.5577 0.5597
3237.672094 0.5612 0.5630 0.5649 0.5669 0.5689
3244.319079 0.5702 0.5707 0.5712 0.5717 0.5738
3250.966064 0.5779 0.5805 0.5815 0.5822 0.5827
3257.613049 0.5846 0.5881 0.5909 0.5929 0.5942
3264.260034 0.5947 0.5959 0.5979 0.5997 0.6012
3270.907018 0.6037 0.6077 0.6102 0.6107 0.6114
3277.554003 0.6124 0.6134 0.6144 0.6157 0.6171
3284.200988 0.6186 0.6201 0.6218 0.6238 0.6258
3290.847973 0.6278 0.6292 0.6297 0.6302 0.6307
3297.494958 0.6316 0.6331 0.6342 0.6347 0.6356
3304.141943 0.6371 0.6386 0.6401 0.6412 0.6417
3310.788928 0.6422 0.6427 0.6430 0.6430 0.6434
3317.435913 0.6444 0.6452 0.6457 0.6466 0.6481
3324.082898 0.6492 0.6497 0.6505 0.6520 0.6534
3330.729882 0.6544 0.6554 0.6564 0.6572 0.6577
3337.376867 0.6582 0.6587 0.6590 0.6590 0.6595
3344.023852 0.6610 0.6620 0.6620 0.6622 0.6627
3350.670837 0.6633 0.6643 0.6650 0.6650 0.6650
3357.317822 0.6650 0.6652 0.6657 0.6660 0.6660
3363.964807 0.6660 0.6660 0.6660 0.6660 0.6660
3370.611792 0.6660 0.6660 0.6660 0.6660 0.6660
3377.258777 0.6660 0.6660 0.6663 0.6673 0.6680
3383.905762 0.6680 0.6680 0.6680 0.6680 0.6680
3390.552746 0.6680 0.6680 0.6680 0.6680 0.6680
3397.199731 0.6680 0.6681 0.6686 0.6690 0.6690
3403.846716 0.6691 0.6696 0.6700 0.6700 0.6700
3410.493701 0.6700 0.6703 0.6713 0.6720 0.6720
3417.140686 0.6721 0.6726 0.6730 0.6730 0.6730
3423.787671 0.6730 0.6731 0.6736 0.6740 0.6740
3430.434656 0.6742 0.6752 0.6760 0.6760 0.6761
3437.081641 0.6766 0.6771 0.6776 0.6782 0.6792
3443.728626 0.6801 0.6806 0.6811 0.6816 0.6820
3450.375610 0.6820 0.6822 0.6832 0.6842 0.6852
3457.022595 0.6863 0.6878 0.6891 0.6896 0.6903
3463.669580 0.6918 0.6931 0.6936 0.6946 0.6976
3470.316565 0.7001 0.7006 0.7010 0.7010 0.7013
3476.963550 0.7028 0.7042 0.7052 0.7063 0.7078
3483.610535 0.7093 0.7108 0.7123 0.7143 0.7163
3490.257520 0.7183 0.7202 0.7212 0.7220 0.7220
3496.904505 0.7227 0.7267 0.7303 0.7323 0.7342
3503.551490 0.7357 0.7372 0.7387 0.7401 0.7411
3510.198474 0.7422 0.7437 0.7453 0.7473 0.7491
3516.845459 0.7501 0.7511 0.7521 0.7533 0.7553
3523.492444 0.7572 0.7587 0.7603 0.7623 0.7643
3530.139429 0.7668 0.7692 0.7707 0.7724 0.7759
3536.786414 0.7791 0.7801 0.7813 0.7843 0.7872
3543.433399 0.7892 0.7911 0.7921 0.7934 0.7969
3550.080384 0.8002 0.8017 0.8032 0.8057 0.8081
3556.727369 0.8096 0.8112 0.8137 0.8162 0.8187
3563.374353 0.8211 0.8221 0.8233 0.8273 0.8311
3570.021338 0.8326 0.8342 0.8367 0.8392 0.8412
3576.668323 0.8431 0.8451 0.8471 0.8491 0.8511
3583.315308 0.8531 0.8551 0.8576 0.8600 0.8610
3589.962293 0.8621 0.8641 0.8661 0.8691 0.8721
3596.609278 0.8756 0.8791 0.8816 0.8841 0.8871
3603.256263 0.8900 0.8910 0.8921 0.8941 0.8961
3609.903248 0.8981 0.9000 0.9010 0.9020 0.9020
3616.550233 0.9020 0.9045 0.9070 0.9085 0.9100
3623.197217 0.9120 0.9140 0.9145 0.9150 0.9170
3629.844202 0.9190 0.9200 0.9210 0.9215 0.9220
3636.491187 0.9235 0.9250 0.9255 0.9260 0.9260
3643.138172 0.9260 0.9260 0.9260 0.9265 0.9270
3649.785157 0.9270 0.9270 0.9285 0.9300 0.9305
3656.432142 0.9310 0.9310 0.9310 0.9320 0.9330
3663.079127 0.9330 0.9330 0.9330 0.9330 0.9330
3669.726112 0.9330 0.9335 0.9340 0.9335 0.9330
3676.373097 0.9335 0.9340 0.9354 0.9369 0.9375
3683.020081 0.9380 0.9380 0.9380 0.9380 0.9380
3689.667066 0.9380 0.9380 0.9380 0.9380 0.9385
3696.314051 0.9390 0.9390 0.9390 0.9399 0.9409
3702.961036 0.9410 0.9410 0.9410 0.9410 0.9410
3709.608021 0.9410 0.9415 0.9420 0.9415 0.9411
3716.255006 0.9410 0.9410 0.9414 0.9419 0.9420
3722.901991 0.9420 0.9420 0.9420 0.9420 0.9420
3729.548976 0.9416 0.9411 0.9410 0.9410 0.9401
3736.195961 0.9391 0.9381 0.9371 0.9370 0.9370
3742.842945 0.9379 0.9389 0.9390 0.9390 0.9390
3749.489930 0.9390 0.9390 0.9390 0.9390 0.9390
3756.136915 0.9390 0.9390 0.9390 0.9390 0.9390
3762.783900 0.9390 0.9390 0.9390 0.9398 0.9408
3769.430885 0.9410 0.9410 0.9410 0.9410 0.9410
3776.077870 0.9410 0.9410 0.9410 0.9414 0.9419
3782.724855 0.9424 0.9429 0.9430 0.9430 0.9430
3789.371840 0.9430 0.9430 0.9430 0.9430 0.9430
3796.018825 0.9426 0.9421 0.9420 0.9420 0.9420
3802.665809 0.9420 0.9416 0.9411 0.9410 0.9410
3809.312794 0.9410 0.9410 0.9402 0.9392 0.9390
3815.959779 0.9390 0.9386 0.9381 0.9380 0.9380
3822.606764 0.9384 0.9389 0.9390 0.9390 0.9390
3829.253749 0.9390 0.9386 0.9381 0.9380 0.9380
3835.900734 0.9380 0.9380 0.9391 0.9406 0.9410
3842.547719 0.9410 0.9410 0.9410 0.9410 0.9410
3849.194704 0.9410 0.9410 0.9410 0.9410 0.9410
3855.841689 0.9410 0.9410 0.9410 0.9410 0.9410
3862.488673 0.9410 0.9410 0.9410 0.9410 0.9410
3869.135658 0.9410 0.9410 0.9410 0.9410 0.9410
3875.782643 0.9410 0.9410 0.9410 0.9410 0.9410
3882.429628 0.9410 0.9410 0.9410 0.9410 0.9410
3889.076613 0.9410 0.9410 0.9410 0.9410 0.9410
3895.723598 0.9410 0.9400 0.9385 0.9380 0.9380
3902.370583 0.9380 0.9380 0.9380 0.9380 0.9380
3909.017568 0.9380 0.9380 0.9380 0.9380 0.9380
3915.664553 0.9380 0.9380 0.9380 0.9380 0.9390
3922.311537 0.9405 0.9410 0.9410 0.9410 0.9410
3928.958522 0.9410 0.9410 0.9404 0.9394 0.9390
3935.605507 0.9390 0.9396 0.9406 0.9410 0.9410
3942.252492 0.9404 0.9394 0.9390 0.9390 0.9396
3948.899477 0.9406 0.9410 0.9410 0.9410 0.9410
3955.546462 0.9410 0.9410 0.9410 0.9410 0.9401
3962.193447 0.9386 0.9380 0.9380 0.9380 0.9380
3968.840432 0.9380 0.9380 0.9380 0.9380 0.9380
3975.487417 0.9380 0.9380 0.9380 0.9380 0.9380
3982.134401 0.9377 0.9372
##END=
