##TITLE=BARIUM TRIDECANOATE
##JCAMP-DX=4.24
##DATA TYPE=INFRARED SPECTRUM
##CLASS=COBLENTZ
##OWNER=COBLENTZ SOCIETY
Collection (C) 2018 copyright by the U.S. Secretary of Commerce
on behalf of the United States of America. All rights reserved.
##DATE=Not specified, most likely prior to 1970
##MOLFORM=C26 H50 O4 Ba
##SOURCE REFERENCE=COBLENTZ NO. 2201
##$NIST ID=B6002201
##$NIST SOURCE=COBLENTZ
##$NIST IMAGE=cob2201
##SPECTROMETER/DATA SYSTEM=Not specified, most likely a prism, grating, or hybrid spectrometer.
##STATE=SOLID (KBr PELLET)
##SAMPLING PROCEDURE=TRANSMISSION
##RESOLUTION=4
##DATA PROCESSING=DIGITIZED BY NIST FROM HARD COPY
##XUNITS=MICROMETERS
##YUNITS=TRANSMITTANCE
##XFACTOR=1.000000
##YFACTOR=1
##DELTAX=000.006645
##FIRSTX=2.02
##LASTX=16.0062
##FIRSTY=0.302
##MAXX=16.0062
##MINX=2.02
##MAXY=1
##MINY=0.026
##NPOINTS=2106
##XYDATA=(X++(Y..Y))
2.020000 0.3020 0.3030 0.3030 0.3030 0.3030
2.053238 0.3030 0.3030 0.3030 0.3030 0.3030
2.086000 0.3020 0.3020 0.3020 0.3020 0.3030
2.119238 0.3050 0.3100 0.3120 0.3130 0.3130
2.153000 0.3150 0.3170 0.3180 0.3220 0.3230
2.186238 0.3250 0.3270 0.3280 0.3300 0.3300
2.219000 0.3320 0.3320 0.3320 0.3330 0.3330
2.252238 0.3370 0.3380 0.3420 0.3430 0.3450
2.286000 0.3470 0.3480 0.3500 0.3520 0.3530
2.319238 0.3550 0.3570 0.3580 0.3600 0.3620
2.352000 0.3630 0.3670 0.3720 0.3720 0.3730
2.385238 0.3730 0.3770 0.3780 0.3820 0.3830
2.419000 0.3850 0.3920 0.3930 0.3950 0.3970
2.452238 0.4000 0.4020 0.4050 0.4070 0.4120
2.485000 0.4140 0.4140 0.4150 0.4150 0.4170
2.518238 0.4190 0.4200 0.4240 0.4250 0.4270
2.551000 0.4290 0.4300 0.4320 0.4340 0.4350
2.584238 0.4390 0.4420 0.4450 0.4470 0.4490
2.618000 0.4490 0.4500 0.4540 0.4550 0.4600
2.651238 0.4600 0.4650 0.4700 0.4720 0.4720
2.684000 0.4740 0.4740 0.4750 0.4750 0.4750
2.717238 0.4750 0.4750 0.4750 0.4750 0.4750
2.751000 0.4740 0.4720 0.4700 0.4670 0.4650
2.784238 0.4640 0.4620 0.4600 0.4590 0.4520
2.817000 0.4500 0.4490 0.4450 0.4440 0.4440
2.850238 0.4420 0.4420 0.4420 0.4420 0.4420
2.884000 0.4420 0.4420 0.4420 0.4420 0.4420
2.917238 0.4440 0.4450 0.4500 0.4500 0.4520
2.950000 0.4540 0.4600 0.4650 0.4700 0.4720
2.983238 0.4750 0.4820 0.4850 0.4900 0.4950
3.017000 0.4990 0.4990 0.5000 0.5040 0.5050
3.050238 0.5090 0.5100 0.5150 0.5200 0.5200
3.083000 0.5220 0.5220 0.5220 0.5220 0.5240
3.116238 0.5290 0.5300 0.5320 0.5320 0.5340
3.150000 0.5340 0.5350 0.5350 0.5370 0.5400
3.183238 0.5440 0.5450 0.5470 0.5470 0.5490
3.216000 0.5490 0.5490 0.5490 0.5490 0.5470
3.249238 0.5470 0.5450 0.5440 0.5420 0.5400
3.282000 0.5340 0.5290 0.5240 0.5200 0.5170
3.315238 0.5070 0.4990 0.4850 0.4720 0.4520
3.349000 0.4370 0.3420 0.3050 0.2670 0.2280
3.382238 0.1910 0.1530 0.1150 0.0830 0.0700
3.415000 0.0560 0.0430 0.0410 0.0410 0.0430
3.448238 0.0610 0.0800 0.0850 0.0930 0.1280
3.482000 0.1280 0.1280 0.1160 0.1100 0.1010
3.515238 0.1000 0.1010 0.1510 0.2220 0.2980
3.548000 0.3600 0.4120 0.4540 0.4890 0.5150
3.581238 0.5350 0.5520 0.5670 0.5790 0.5920
3.615000 0.6040 0.6120 0.6210 0.6260 0.6320
3.648238 0.6360 0.6370 0.6390 0.6420 0.6470
3.681000 0.6510 0.6520 0.6560 0.6590 0.6620
3.714238 0.6660 0.6690 0.6710 0.6710 0.6720
3.748000 0.6720 0.6760 0.6770 0.6770 0.6770
3.781238 0.6790 0.6790 0.6790 0.6810 0.6820
3.814000 0.6840 0.6860 0.6870 0.6890 0.6910
3.847238 0.6920 0.6960 0.7020 0.7040 0.7060
3.880000 0.7110 0.7120 0.7140 0.7140 0.7160
3.913238 0.7170 0.7210 0.7220 0.7260 0.7310
3.947000 0.7320 0.7340 0.7360 0.7390 0.7410
3.980238 0.7420 0.7420 0.7440 0.7440 0.7440
4.013000 0.7460 0.7460 0.7460 0.7460 0.7470
4.046238 0.7490 0.7520 0.7540 0.7540 0.7540
4.080000 0.7540 0.7540 0.7570 0.7590 0.7610
4.113238 0.7640 0.7670 0.7690 0.7710 0.7710
4.146000 0.7740 0.7790 0.7790 0.7810 0.7810
4.179238 0.7810 0.7810 0.7820 0.7820 0.7820
4.213000 0.7820 0.7810 0.7810 0.7810 0.7810
4.246238 0.7810 0.7820 0.7870 0.7890 0.7890
4.279000 0.7890 0.7890 0.7910 0.7910 0.8010
4.312238 0.8030 0.8040 0.8080 0.8090 0.8110
4.346000 0.8110 0.8130 0.8140 0.8160 0.8180
4.379238 0.8190 0.8190 0.8180 0.8180 0.8180
4.412000 0.8180 0.8180 0.8190 0.8190 0.8190
4.445238 0.8210 0.8210 0.8230 0.8230 0.8240
4.478000 0.8280 0.8310 0.8360 0.8380 0.8390
4.511238 0.8410 0.8430 0.8430 0.8440 0.8440
4.545000 0.8440 0.8460 0.8460 0.8480 0.8480
4.578238 0.8480 0.8480 0.8480 0.8480 0.8490
4.611000 0.8490 0.8490 0.8490 0.8510 0.8530
4.644238 0.8530 0.8540 0.8590 0.8590 0.8590
4.678000 0.8610 0.8610 0.8610 0.8630 0.8640
4.711238 0.8660 0.8660 0.8680 0.8690 0.8690
4.744000 0.8690 0.8690 0.8690 0.8710 0.8710
4.777238 0.8730 0.8730 0.8730 0.8740 0.8760
4.811000 0.8780 0.8790 0.8790 0.8810 0.8810
4.844238 0.8810 0.8810 0.8830 0.8830 0.8830
4.877000 0.8830 0.8830 0.8830 0.8830 0.8830
4.910238 0.8830 0.8840 0.8840 0.8840 0.8860
4.944000 0.8860 0.8860 0.8880 0.8880 0.8890
4.977238 0.8890 0.8890 0.8910 0.8930 0.8930
5.010000 0.8930 0.8930 0.8930 0.8940 0.8940
5.043238 0.8990 0.9010 0.9010 0.9030 0.9040
5.076000 0.9090 0.9110 0.9110 0.9110 0.9110
5.109238 0.9110 0.9110 0.9110 0.9110 0.9110
5.143000 0.9130 0.9160 0.9190 0.9190 0.9210
5.176238 0.9230 0.9230 0.9230 0.9210 0.9210
5.209000 0.9210 0.9210 0.9230 0.9230 0.9230
5.242238 0.9240 0.9240 0.9290 0.9290 0.9260
5.276000 0.9240 0.9210 0.9210 0.9210 0.9230
5.309238 0.9310 0.9310 0.9340 0.9340 0.9340
5.342000 0.9310 0.9290 0.9280 0.9280 0.9290
5.375238 0.9390 0.9430 0.9430 0.9440 0.9440
5.409000 0.9430 0.9430 0.9410 0.9390 0.9390
5.442238 0.9410 0.9490 0.9530 0.9530 0.9530
5.475000 0.9510 0.9510 0.9510 0.9540 0.9560
5.508238 0.9580 0.9590 0.9590 0.9590 0.9560
5.542000 0.9540 0.9530 0.9490 0.9480 0.9460
5.575238 0.9440 0.9440 0.9460 0.9480 0.9480
5.608000 0.9440 0.9430 0.9390 0.9340 0.9340
5.641238 0.9330 0.9330 0.9330 0.9330 0.9330
5.674000 0.9330 0.9310 0.9290 0.9280 0.9230
5.707238 0.9190 0.9140 0.9110 0.9090 0.9090
5.741000 0.9090 0.9090 0.9090 0.9040 0.8990
5.774238 0.8930 0.8890 0.8890 0.8930 0.9030
5.807000 0.9030 0.9030 0.8990 0.8930 0.8890
5.840238 0.8830 0.8810 0.8830 0.8910 0.9010
5.874000 0.9090 0.9090 0.9040 0.9040 0.9040
5.907238 0.8990 0.8990 0.9010 0.9210 0.9240
5.940000 0.9230 0.9080 0.9030 0.9010 0.9010
5.973238 0.9190 0.9190 0.9140 0.9090 0.9030
6.007000 0.9030 0.9030 0.9030 0.9030 0.9010
6.040238 0.8960 0.8880 0.8760 0.8590 0.8560
6.073000 0.8580 0.8610 0.8660 0.8690 0.8690
6.106238 0.8660 0.8440 0.8380 0.8330 0.8310
6.140000 0.8290 0.8280 0.8230 0.8230 0.8190
6.173238 0.8190 0.8190 0.8190 0.8210 0.8230
6.206000 0.8240 0.8260 0.8260 0.8240 0.8190
6.239238 0.8140 0.8090 0.8040 0.8030 0.7990
6.272000 0.7920 0.7910 0.7860 0.7760 0.7670
6.305238 0.7620 0.7560 0.7490 0.7360 0.7270
6.339000 0.7240 0.7120 0.7010 0.6820 0.6670
6.372238 0.6510 0.6310 0.6110 0.5920 0.5750
6.405000 0.5620 0.5500 0.5390 0.5170 0.4920
6.438238 0.4620 0.4350 0.4100 0.3870 0.3700
6.472000 0.3500 0.3370 0.3120 0.2800 0.2450
6.505238 0.2080 0.1710 0.1400 0.1110 0.0910
6.538000 0.0760 0.0660 0.0560 0.0530 0.0480
6.571238 0.0430 0.0410 0.0380 0.0360 0.0350
6.605000 0.0310 0.0280 0.0280 0.0260 0.0260
6.638238 0.0260 0.0260 0.0260 0.0260 0.0260
6.671000 0.0280 0.0360 0.0460 0.0610 0.0780
6.704238 0.1000 0.1260 0.1550 0.1900 0.2270
6.738000 0.2580 0.2820 0.3000 0.3130 0.3150
6.771238 0.3130 0.2950 0.2600 0.2180 0.1760
6.804000 0.1380 0.0930 0.0910 0.0930 0.1150
6.837238 0.1330 0.1380 0.1480 0.1480 0.1450
6.870000 0.1330 0.1180 0.1050 0.0960 0.0860
6.903238 0.0760 0.0660 0.0560 0.0460 0.0410
6.937000 0.0400 0.0400 0.0400 0.0400 0.0410
6.970238 0.0500 0.0610 0.0760 0.1000 0.1300
7.003000 0.1730 0.2270 0.2420 0.2700 0.2730
7.036238 0.2730 0.2650 0.2320 0.1930 0.1650
7.070000 0.1300 0.0960 0.0760 0.0610 0.0600
7.103238 0.0600 0.0610 0.0730 0.0950 0.1250
7.136000 0.1630 0.2070 0.2530 0.3030 0.3550
7.169238 0.4070 0.4570 0.5040 0.5450 0.5820
7.203000 0.6120 0.6320 0.6460 0.6610 0.6740
7.236238 0.6860 0.6920 0.6990 0.7020 0.7040
7.269000 0.7040 0.7040 0.7040 0.7070 0.7110
7.302238 0.7190 0.7220 0.7270 0.7360 0.7390
7.336000 0.7410 0.7420 0.7440 0.7470 0.7510
7.369238 0.7540 0.7560 0.7610 0.7640 0.7640
7.402000 0.7640 0.7640 0.7310 0.7240 0.7210
7.435238 0.6970 0.6960 0.6970 0.7110 0.7370
7.468000 0.7570 0.7860 0.8040 0.8090 0.8090
7.501238 0.8090 0.8030 0.7710 0.7390 0.6820
7.535000 0.6720 0.6720 0.6720 0.6910 0.7340
7.568238 0.7560 0.7740 0.7920 0.8090 0.8230
7.601000 0.8340 0.8440 0.8490 0.8490 0.8490
7.634238 0.8490 0.8310 0.8010 0.7760 0.7510
7.668000 0.7210 0.6870 0.6590 0.6570 0.6570
7.701238 0.6590 0.6840 0.6970 0.7070 0.7170
7.734000 0.7220 0.7260 0.7340 0.7490 0.7620
7.767238 0.7770 0.7920 0.7990 0.7990 0.7870
7.801000 0.7740 0.7640 0.7470 0.7460 0.7460
7.834238 0.7470 0.7490 0.7510 0.7520 0.7560
7.867000 0.7670 0.7810 0.7970 0.8180 0.8360
7.900238 0.8510 0.8560 0.8590 0.8640 0.8660
7.934000 0.8640 0.8590 0.8530 0.8360 0.8330
7.967238 0.8330 0.8330 0.8360 0.8360 0.8360
8.000000 0.8330 0.8060 0.7890 0.7720 0.7610
8.033238 0.7560 0.7570 0.7790 0.8080 0.8260
8.066000 0.8410 0.8560 0.8660 0.8740 0.8790
8.099238 0.8810 0.8830 0.8840 0.8840 0.8810
8.133000 0.8660 0.8590 0.8560 0.8560 0.8560
8.166238 0.8630 0.8630 0.8630 0.8630 0.8490
8.199000 0.8380 0.8310 0.8260 0.8280 0.8310
8.232238 0.8410 0.8480 0.8580 0.8710 0.8840
8.266000 0.8960 0.9010 0.9030 0.9080 0.9110
8.299238 0.9130 0.9130 0.9130 0.9130 0.9090
8.332000 0.9080 0.9060 0.9040 0.9010 0.8960
8.365238 0.8860 0.8760 0.8640 0.8560 0.8490
8.399000 0.8410 0.8390 0.8390 0.8430 0.8560
8.432238 0.8690 0.8790 0.8890 0.8960 0.9040
8.465000 0.9110 0.9140 0.9180 0.9180 0.9190
8.498238 0.9210 0.9210 0.9230 0.9240 0.9240
8.532000 0.9240 0.9260 0.9260 0.9280 0.9280
8.565238 0.9280 0.9280 0.9280 0.9280 0.9290
8.598000 0.9290 0.9330 0.9360 0.9380 0.9410
8.631238 0.9410 0.9410 0.9410 0.9410 0.9410
8.664000 0.9410 0.9410 0.9410 0.9410 0.9410
8.697238 0.9410 0.9410 0.9410 0.9430 0.9480
8.731000 0.9490 0.9490 0.9490 0.9490 0.9490
8.764238 0.9480 0.9480 0.9480 0.9480 0.9460
8.797000 0.9460 0.9440 0.9430 0.9390 0.9330
8.830238 0.9290 0.9280 0.9140 0.9090 0.9060
8.864000 0.9060 0.9040 0.9040 0.9030 0.9030
8.897238 0.9030 0.9030 0.9010 0.8960 0.8860
8.930000 0.8710 0.8560 0.8340 0.8110 0.7810
8.963238 0.7540 0.7360 0.7320 0.7320 0.7340
8.997000 0.7570 0.7740 0.7860 0.7920 0.7990
9.030238 0.8060 0.8160 0.8290 0.8460 0.8560
9.063000 0.8630 0.8690 0.8760 0.8810 0.8840
9.096238 0.8880 0.8910 0.8910 0.8910 0.8930
9.130000 0.8930 0.8930 0.8930 0.8840 0.8680
9.163238 0.8610 0.8480 0.8330 0.8310 0.8290
9.196000 0.8290 0.8290 0.8330 0.8460 0.8530
9.229238 0.8590 0.8640 0.8690 0.8740 0.8780
9.262000 0.8830 0.8860 0.8890 0.8930 0.8960
9.295238 0.8990 0.9030 0.9060 0.9090 0.9130
9.329000 0.9140 0.9190 0.9210 0.9230 0.9230
9.362238 0.9240 0.9260 0.9260 0.9260 0.9260
9.395000 0.9260 0.9260 0.9260 0.9260 0.9230
9.428238 0.9210 0.9160 0.9110 0.9090 0.9060
9.462000 0.9030 0.9010 0.9010 0.9010 0.9010
9.495238 0.9010 0.9010 0.9010 0.9030 0.9040
9.528000 0.9060 0.9080 0.9080 0.9090 0.9090
9.561238 0.9110 0.9110 0.9110 0.9130 0.9130
9.595000 0.9130 0.9110 0.9060 0.9030 0.9010
9.628238 0.8990 0.8980 0.8960 0.8960 0.8940
9.661000 0.8930 0.8910 0.8890 0.8860 0.8830
9.694238 0.8790 0.8790 0.8780 0.8760 0.8760
9.728000 0.8760 0.8780 0.8790 0.8810 0.8840
9.761238 0.8890 0.8930 0.8930 0.8940 0.8960
9.794000 0.8990 0.9010 0.9030 0.9040 0.9060
9.827238 0.9080 0.9080 0.9090 0.9090 0.9090
9.860000 0.9090 0.9090 0.9110 0.9110 0.9110
9.893238 0.9110 0.9130 0.9140 0.9160 0.9190
9.927000 0.9190 0.9210 0.9240 0.9260 0.9280
9.960238 0.9290 0.9330 0.9340 0.9380 0.9390
9.993000 0.9430 0.9460 0.9510 0.9530 0.9540
10.026238 0.9560 0.9580 0.9590 0.9590 0.9610
10.060000 0.9610 0.9610 0.9610 0.9610 0.9540
10.093238 0.9510 0.9480 0.9440 0.9430 0.9390
10.126000 0.9380 0.9380 0.9360 0.9340 0.9340
10.159238 0.9340 0.9360 0.9360 0.9360 0.9360
10.193000 0.9360 0.9360 0.9340 0.9330 0.9330
10.226238 0.9340 0.9340 0.9380 0.9430 0.9440
10.259000 0.9490 0.9530 0.9540 0.9560 0.9610
10.292238 0.9680 0.9710 0.9730 0.9740 0.9760
10.326000 0.9760 0.9760 0.9760 0.9760 0.9760
10.359238 0.9760 0.9760 0.9760 0.9760 0.9740
10.392000 0.9730 0.9710 0.9690 0.9690 0.9690
10.425238 0.9690 0.9710 0.9710 0.9710 0.9730
10.458000 0.9730 0.9730 0.9740 0.9740 0.9760
10.491238 0.9760 0.9760 0.9760 0.9760 0.9780
10.525000 0.9780 0.9780 0.9780 0.9780 0.9780
10.558238 0.9790 0.9790 0.9790 0.9790 0.9790
10.591000 0.9780 0.9740 0.9710 0.9640 0.9590
10.624238 0.9540 0.9530 0.9490 0.9460 0.9360
10.658000 0.9230 0.9110 0.8990 0.8880 0.8780
10.691238 0.8690 0.8610 0.8540 0.8490 0.8460
10.724000 0.8340 0.8210 0.8010 0.7770 0.7520
10.757238 0.7310 0.7110 0.6920 0.6890 0.6890
10.791000 0.6910 0.7090 0.7320 0.7520 0.7720
10.824238 0.7890 0.8040 0.8190 0.8330 0.8460
10.857000 0.8580 0.8680 0.8790 0.8890 0.8980
10.890238 0.9080 0.9160 0.9210 0.9260 0.9310
10.924000 0.9340 0.9410 0.9430 0.9510 0.9530
10.957238 0.9540 0.9560 0.9580 0.9590 0.9610
10.990000 0.9630 0.9640 0.9660 0.9680 0.9690
11.023238 0.9710 0.9710 0.9730 0.9730 0.9740
11.056000 0.9740 0.9740 0.9740 0.9740 0.9760
11.089238 0.9760 0.9760 0.9760 0.9760 0.9760
11.123000 0.9760 0.9760 0.9760 0.9760 0.9760
11.156238 0.9760 0.9760 0.9740 0.9740 0.9730
11.189000 0.9730 0.9710 0.9690 0.9640 0.9610
11.222238 0.9560 0.9540 0.9510 0.9440 0.9410
11.256000 0.9380 0.9340 0.9330 0.9330 0.9330
11.289238 0.9380 0.9480 0.9560 0.9610 0.9630
11.322000 0.9640 0.9730 0.9760 0.9780 0.9780
11.355238 0.9780 0.9780 0.9790 0.9790 0.9810
11.389000 0.9810 0.9830 0.9830 0.9840 0.9840
11.422238 0.9860 0.9880 0.9880 0.9880 0.9880
11.455000 0.9890 0.9890 0.9890 0.9910 0.9910
11.488238 0.9910 0.9910 0.9930 0.9930 0.9930
11.522000 0.9980 1.0000 1.0000 1.0000 0.9980
11.555238 0.9940 0.9910 0.9890 0.9890 0.9890
11.588000 0.9890 0.9880 0.9860 0.9810 0.9810
11.621238 0.9780 0.9780 0.9780 0.9780 0.9760
11.654000 0.9760 0.9690 0.9690 0.9660 0.9640
11.687238 0.9610 0.9590 0.9590 0.9590 0.9590
11.721000 0.9610 0.9610 0.9630 0.9630 0.9640
11.754238 0.9640 0.9640 0.9660 0.9660 0.9690
11.787000 0.9710 0.9710 0.9730 0.9740 0.9740
11.820238 0.9740 0.9730 0.9710 0.9690 0.9680
11.854000 0.9680 0.9680 0.9660 0.9640 0.9630
11.887238 0.9610 0.9590 0.9510 0.9390 0.9260
11.920000 0.9160 0.9110 0.9040 0.8990 0.8990
11.953238 0.8980 0.8980 0.8990 0.9010 0.9060
11.987000 0.9130 0.9160 0.9280 0.9330 0.9380
12.020238 0.9430 0.9490 0.9540 0.9590 0.9640
12.053000 0.9690 0.9710 0.9730 0.9740 0.9760
12.086238 0.9790 0.9790 0.9760 0.9710 0.9690
12.120000 0.9690 0.9710 0.9740 0.9790 0.9790
12.153238 0.9790 0.9790 0.9790 0.9790 0.9790
12.186000 0.9760 0.9740 0.9730 0.9710 0.9690
12.219238 0.9680 0.9660 0.9660 0.9660 0.9680
12.252000 0.9680 0.9680 0.9690 0.9690 0.9690
12.285238 0.9690 0.9690 0.9710 0.9710 0.9740
12.319000 0.9740 0.9740 0.9710 0.9690 0.9680
12.352238 0.9660 0.9640 0.9640 0.9640 0.9630
12.385000 0.9610 0.9590 0.9590 0.9590 0.9590
12.418238 0.9590 0.9590 0.9590 0.9590 0.9590
12.452000 0.9590 0.9590 0.9590 0.9590 0.9590
12.485238 0.9590 0.9580 0.9580 0.9580 0.9560
12.518000 0.9560 0.9560 0.9540 0.9530 0.9480
12.551238 0.9440 0.9430 0.9430 0.9410 0.9390
12.585000 0.9390 0.9380 0.9360 0.9360 0.9360
12.618238 0.9360 0.9360 0.9360 0.9360 0.9360
12.651000 0.9360 0.9380 0.9380 0.9390 0.9390
12.684238 0.9390 0.9390 0.9430 0.9460 0.9490
12.718000 0.9490 0.9490 0.9510 0.9510 0.9510
12.751238 0.9510 0.9530 0.9530 0.9540 0.9560
12.784000 0.9560 0.9580 0.9580 0.9580 0.9590
12.817238 0.9590 0.9590 0.9610 0.9610 0.9610
12.850000 0.9610 0.9610 0.9590 0.9590 0.9590
12.883238 0.9590 0.9590 0.9590 0.9590 0.9590
12.917000 0.9590 0.9590 0.9560 0.9540 0.9530
12.950238 0.9510 0.9510 0.9490 0.9490 0.9460
12.983000 0.9440 0.9390 0.9380 0.9340 0.9330
13.016238 0.9310 0.9290 0.9240 0.9210 0.9190
13.050000 0.9160 0.9110 0.9060 0.8980 0.8880
13.083238 0.8760 0.8610 0.8430 0.8240 0.8030
13.116000 0.7820 0.7810 0.7810 0.7840 0.7920
13.149238 0.7990 0.8090 0.8160 0.8260 0.8340
13.183000 0.8410 0.8480 0.8540 0.8610 0.8660
13.216238 0.8710 0.8760 0.8810 0.8840 0.8880
13.249000 0.8910 0.8940 0.8980 0.8990 0.9010
13.282238 0.9010 0.9010 0.9010 0.9030 0.9030
13.316000 0.9030 0.9030 0.9030 0.9030 0.9030
13.349238 0.9030 0.9030 0.9030 0.9030 0.9040
13.382000 0.9040 0.9040 0.9030 0.9030 0.9030
13.415238 0.9010 0.9010 0.8990 0.8990 0.8980
13.449000 0.8940 0.8940 0.8930 0.8910 0.8890
13.482238 0.8890 0.8880 0.8880 0.8840 0.8810
13.515000 0.8780 0.8740 0.8680 0.8640 0.8630
13.548238 0.8630 0.8630 0.8610 0.8590 0.8590
13.581000 0.8560 0.8540 0.8530 0.8510 0.8460
13.614238 0.8440 0.8410 0.8380 0.8360 0.8310
13.648000 0.8260 0.8190 0.8130 0.8060 0.8010
13.681238 0.7920 0.7840 0.7760 0.7620 0.7470
13.714000 0.7360 0.7240 0.7120 0.7020 0.6920
13.747238 0.6820 0.6740 0.6640 0.6520 0.6420
13.781000 0.6290 0.6160 0.6020 0.5850 0.5670
13.814238 0.5470 0.5240 0.4990 0.4850 0.4650
13.847000 0.4440 0.4190 0.3950 0.3730 0.3530
13.880238 0.3400 0.3330 0.3280 0.3250 0.3230
13.914000 0.3230 0.3300 0.3380 0.3450 0.3520
13.947238 0.3570 0.3650 0.3750 0.3880 0.4050
13.980000 0.4200 0.4300 0.4350 0.4470 0.4620
14.013238 0.4700 0.4790 0.4890 0.4970 0.5020
14.047000 0.5050 0.5120 0.5200 0.5270 0.5300
14.080238 0.5320 0.5340 0.5350 0.5390 0.5400
14.113000 0.5470 0.5540 0.5570 0.5590 0.5600
14.146238 0.5620 0.5640 0.5700 0.5750 0.5820
14.179000 0.5850 0.5900 0.5950 0.5950 0.5990
14.212238 0.6020 0.6040 0.6090 0.6110 0.6140
14.246000 0.6160 0.6170 0.6190 0.6210 0.6240
14.279238 0.6260 0.6270 0.6290 0.6290 0.6310
14.312000 0.6320 0.6340 0.6360 0.6370 0.6410
14.345238 0.6440 0.6460 0.6490 0.6520 0.6540
14.379000 0.6560 0.6570 0.6610 0.6620 0.6640
14.412238 0.6660 0.6690 0.6720 0.6760 0.6790
14.445000 0.6810 0.6820 0.6860 0.6910 0.6920
14.478238 0.6970 0.7020 0.7090 0.7160 0.7240
14.512000 0.7360 0.7390 0.7410 0.7440 0.7490
14.545238 0.7510 0.7510 0.7520 0.7520 0.7540
14.578000 0.7540 0.7560 0.7560 0.7560 0.7570
14.611238 0.7570 0.7590 0.7610 0.7610 0.7610
14.645000 0.7610 0.7620 0.7620 0.7640 0.7640
14.678238 0.7660 0.7660 0.7670 0.7690 0.7690
14.711000 0.7690 0.7690 0.7690 0.7690 0.7710
14.744238 0.7710 0.7710 0.7710 0.7710 0.7710
14.777000 0.7710 0.7710 0.7710 0.7710 0.7710
14.810238 0.7710 0.7710 0.7710 0.7710 0.7710
14.844000 0.7710 0.7710 0.7690 0.7690 0.7670
14.877238 0.7620 0.7610 0.7610 0.7610 0.7610
14.910000 0.7620 0.7670 0.7690 0.7710 0.7720
14.943238 0.7720 0.7720 0.7710 0.7710 0.7710
14.977000 0.7710 0.7710 0.7710 0.7690 0.7670
15.010238 0.7660 0.7640 0.7610 0.7570 0.7520
15.043000 0.7490 0.7460 0.7460 0.7440 0.7420
15.076238 0.7420 0.7420 0.7410 0.7410 0.7410
15.110000 0.7410 0.7410 0.7410 0.7410 0.7410
15.143238 0.7410 0.7410 0.7390 0.7390 0.7390
15.176000 0.7390 0.7390 0.7370 0.7370 0.7370
15.209238 0.7370 0.7370 0.7370 0.7360 0.7360
15.243000 0.7360 0.7320 0.7310 0.7290 0.7290
15.276238 0.7270 0.7270 0.7270 0.7270 0.7270
15.309000 0.7270 0.7260 0.7240 0.7240 0.7220
15.342238 0.7210 0.7190 0.7190 0.7170 0.7170
15.375000 0.7160 0.7160 0.7160 0.7140 0.7140
15.408238 0.7140 0.7140 0.7140 0.7120 0.7120
15.442000 0.7120 0.7110 0.7110 0.7110 0.7090
15.475238 0.7090 0.7070 0.7070 0.7070 0.7070
15.508000 0.7070 0.7070 0.7070 0.7060 0.7060
15.541238 0.7060 0.7040 0.7020 0.7020 0.7010
15.575000 0.7010 0.7010 0.7020 0.7020 0.7020
15.608238 0.7020 0.7010 0.6970 0.6970 0.6960
15.641000 0.6960 0.6940 0.6940 0.6940 0.6920
15.674238 0.6910 0.6890 0.6860 0.6840 0.6820
15.708000 0.6810 0.6810 0.6790 0.6790 0.6790
15.741238 0.6790 0.6770 0.6760 0.6740 0.6720
15.774000 0.6710 0.6690 0.6670 0.6660 0.6640
15.807238 0.6620 0.6610 0.6610 0.6590 0.6590
15.841000 0.6570 0.6560 0.6560 0.6560 0.6540
15.874238 0.6540 0.6520 0.6520 0.6510 0.6510
15.907000 0.6490 0.6490 0.6490 0.6490 0.6490
15.940238 0.6490 0.6490 0.6490 0.6490 0.6490
15.973000 0.6490 0.6490 0.6490 0.6490 0.6490
16.006238 0.6510
##END=
