##TITLE=CADMIUM LITHOPONE
##JCAMP-DX=4.24
##DATA TYPE=INFRARED SPECTRUM
##CLASS=COBLENTZ
##ORIGIN=DESOTO CHEMICAL COATINGS, INC.
##OWNER=COBLENTZ SOCIETY
Collection (C) 2018 copyright by the U.S. Secretary of Commerce
on behalf of the United States of America. All rights reserved.
##DATE=Not specified, most likely prior to 1970
##NAMES=PRIMROSE GOLDEN
##MOLFORM=Cd S
$$ CdS 31%, BaSO4 62%, ZnS 5%
##SOURCE REFERENCE=COBLENTZ NO. 4690
##$NIST ID=B6004690
##$NIST SOURCE=COBLENTZ
##$NIST IMAGE=cob4690
##SPECTROMETER/DATA SYSTEM=Not specified, most likely a grating spectrometer.
##STATE=SOLID (0.6 mg / 300 mg CsI DISC)
##SAMPLING PROCEDURE=TRANSMISSION
##RESOLUTION=4
##DATA PROCESSING=DIGITIZED BY NIST FROM HARD COPY (FROM TWO SEGMENTS)
##XUNITS=1/CM
##YUNITS=TRANSMITTANCE
##XFACTOR=1.000000
##YFACTOR=1
##DELTAX=1.331362
##FIRSTX=200
##LASTX=3989.06
##FIRSTY=0.678
##MAXX=3989.06
##MINX=200
##MAXY=0.956
##MINY=0.144
##NPOINTS=2847
##XYDATA=(X++(Y..Y))
200.000000 0.6780 0.6780 0.6780 0.6780 0.6780
206.656811 0.6780 0.6790 0.6790 0.6790 0.6790
213.313622 0.6820 0.6860 0.6870 0.6910 0.6980
219.970433 0.7030 0.7080 0.7150 0.7200 0.7220
226.627244 0.7300 0.7380 0.7390 0.7460 0.7510
233.284055 0.7550 0.7570 0.7610 0.7680 0.7710
239.940866 0.7750 0.7790 0.7800 0.7840 0.7850
246.597677 0.7870 0.7870 0.7870 0.7840 0.7790
253.254488 0.7710 0.7630 0.7510 0.7360 0.7161
259.911299 0.7060 0.6761 0.6392 0.6211 0.6101
266.568110 0.5980 0.5890 0.5850 0.5790 0.5780
273.224921 0.5780 0.5780 0.5790 0.5790 0.5810
279.881732 0.5820 0.5850 0.5900 0.5950 0.5980
286.538543 0.6010 0.6030 0.6110 0.6219 0.6508
293.195354 0.6840 0.6950 0.7110 0.7280 0.7340
299.852165 0.7430 0.7500 0.7530 0.7560 0.7570
306.508976 0.7570 0.7590 0.7600 0.7600 0.7610
313.165787 0.7630 0.7650 0.7680 0.7720 0.7760
319.822598 0.7770 0.7830 0.7890 0.7910 0.7920
326.479409 0.7990 0.8000 0.8040 0.8040 0.8070
333.136220 0.8080 0.8090 0.8120 0.8150 0.8170
339.793031 0.8190 0.8190 0.8210 0.8240 0.8270
346.449842 0.8280 0.8290 0.8290 0.8290 0.8310
353.106653 0.8320 0.8330 0.8330 0.8290 0.8290
359.763464 0.8290 0.8290 0.8290 0.8310 0.8310
366.420275 0.8310 0.8320 0.8330 0.8330 0.8330
373.077086 0.8330 0.8330 0.8330 0.8350 0.8360
379.733897 0.8370 0.8390 0.8390 0.8390 0.8370
386.390708 0.8370 0.8370 0.8390 0.8390 0.8400
393.047519 0.8400 0.8410 0.8410 0.8410 0.8410
399.704330 0.8410 0.8430 0.8430 0.8440 0.8440
406.361141 0.8450 0.8450 0.8470 0.8470 0.8480
413.017952 0.8480 0.8480 0.8490 0.8490 0.8490
419.674763 0.8520 0.8570 0.8600 0.8600 0.8610
426.331574 0.8640 0.8640 0.8680 0.8720 0.8730
432.988385 0.8760 0.8770 0.8770 0.8770 0.8780
439.645196 0.8780 0.8800 0.8810 0.8820 0.8820
446.302007 0.8880 0.8890 0.8890 0.8890 0.8900
452.958818 0.8900 0.8900 0.8900 0.8930 0.8930
459.615629 0.8960 0.8970 0.8980 0.9000 0.9000
466.272440 0.9000 0.9010 0.9010 0.9010 0.9020
472.929251 0.9020 0.9020 0.9040 0.9040 0.9050
479.586062 0.9060 0.9080 0.9090 0.9100 0.9120
486.242873 0.9120 0.9130 0.9140 0.9160 0.9170
492.899684 0.9170 0.9170 0.9170 0.9170 0.9170
499.556495 0.9200 0.9200 0.9200 0.9210 0.9210
506.213306 0.9210 0.9220 0.9220 0.9220 0.9220
512.870117 0.9240 0.9240 0.9240 0.9240 0.9240
519.526928 0.9240 0.9240 0.9250 0.9260 0.9260
526.183739 0.9260 0.9280 0.9280 0.9280 0.9280
532.840550 0.9260 0.9280 0.9280 0.9280 0.9280
539.497361 0.9280 0.9280 0.9290 0.9290 0.9280
546.154172 0.9280 0.9280 0.9280 0.9280 0.9280
552.810983 0.9290 0.9280 0.9280 0.9280 0.9280
559.467794 0.9280 0.9280 0.9290 0.9290 0.9280
566.124605 0.9280 0.9280 0.9280 0.9260 0.9260
572.781416 0.9260 0.9250 0.9250 0.9260 0.9260
579.438227 0.9260 0.9260 0.9280 0.9290 0.9290
586.095038 0.9290 0.9300 0.9300 0.9300 0.9290
592.751849 0.9290 0.9250 0.9220 0.9210 0.9180
599.408660 0.9160 0.9090 0.8710 0.8231 0.7801
606.065471 0.7421 0.6872 0.5656 0.5620 0.5193
612.722282 0.4980 0.5000 0.5350 0.5689 0.6009
619.379093 0.6319 0.7027 0.7528 0.7888 0.7969
626.035904 0.8110 0.8190 0.8290 0.8310 0.8290
632.692715 0.8200 0.8031 0.7732 0.7432 0.7192
639.349526 0.6980 0.6860 0.6860 0.6990 0.7100
646.006337 0.7180 0.7459 0.7759 0.8029 0.8278
652.663148 0.8470 0.8630 0.8640 0.8770 0.8840
659.319959 0.8890 0.8940 0.9000 0.9089 0.9160
665.976770 0.9170 0.9180 0.9180 0.9200 0.9210
672.633581 0.9240 0.9260 0.9290 0.9300 0.9320
679.290392 0.9330 0.9340 0.9380 0.9400 0.9400
685.947203 0.9410 0.9410 0.9410 0.9410 0.9410
692.604014 0.9410 0.9410 0.9410 0.9410 0.9420
699.260825 0.9440 0.9440 0.9450 0.9460 0.9450
705.917636 0.9450 0.9450 0.9450 0.9450 0.9450
712.574447 0.9460 0.9480 0.9500 0.9520 0.9500
719.231258 0.9500 0.9500 0.9500 0.9500 0.9490
725.888069 0.9490 0.9490 0.9530 0.9530 0.9520
732.544880 0.9520 0.9520 0.9520 0.9500 0.9500
739.201691 0.9500 0.9500 0.9520 0.9520 0.9520
745.858502 0.9520 0.9520 0.9520 0.9520 0.9520
752.515313 0.9500 0.9500 0.9540 0.9560 0.9560
759.172124 0.9540 0.9540 0.9530 0.9530 0.9540
765.828935 0.9560 0.9560 0.9560 0.9560 0.9560
772.485745 0.9560 0.9560 0.9540 0.9540 0.9540
779.142556 0.9530 0.9530 0.9530 0.9520 0.9520
785.799367 0.9520 0.9520 0.9520 0.9520 0.9520
792.456178 0.9520 0.9520 0.9520 0.9540 0.9540
799.112989 0.9520 0.9520 0.9500 0.9500 0.9530
805.769800 0.9530 0.9530 0.9530 0.9530 0.9540
812.426611 0.9540 0.9560 0.9560 0.9560 0.9560
819.083422 0.9560 0.9560 0.9560 0.9540 0.9540
825.740233 0.9540 0.9530 0.9530 0.9530 0.9530
832.397044 0.9530 0.9530 0.9530 0.9530 0.9530
839.053855 0.9530 0.9540 0.9540 0.9540 0.9560
845.710666 0.9560 0.9560 0.9540 0.9540 0.9540
852.367477 0.9560 0.9560 0.9560 0.9560 0.9540
859.024288 0.9540 0.9540 0.9540 0.9520 0.9540
865.681099 0.9540 0.9560 0.9560 0.9560 0.9560
872.337910 0.9540 0.9520 0.9520 0.9530 0.9540
878.994721 0.9560 0.9560 0.9560 0.9540 0.9530
885.651532 0.9530 0.9530 0.9530 0.9530 0.9530
892.308343 0.9530 0.9540 0.9540 0.9540 0.9540
898.965154 0.9540 0.9540 0.9540 0.9540 0.9540
905.621965 0.9530 0.9530 0.9530 0.9520 0.9530
912.278776 0.9530 0.9530 0.9520 0.9520 0.9500
918.935587 0.9500 0.9500 0.9500 0.9500 0.9500
925.592398 0.9500 0.9490 0.9490 0.9490 0.9490
932.249209 0.9480 0.9480 0.9480 0.9490 0.9490
938.906020 0.9490 0.9490 0.9480 0.9460 0.9460
945.562831 0.9460 0.9460 0.9460 0.9460 0.9460
952.219642 0.9460 0.9450 0.9420 0.9420 0.9440
958.876453 0.9450 0.9450 0.9460 0.9460 0.9450
965.533264 0.9440 0.9420 0.9410 0.9400 0.9400
972.190075 0.9400 0.9400 0.9370 0.9370 0.9360
978.846886 0.9360 0.9330 0.9320 0.9290 0.9171
985.503697 0.8360 0.8110 0.8110 0.8649 0.8959
992.160508 0.9040 0.9120 0.9160 0.9200 0.9210
998.817319 0.9210 0.9210 0.9210 0.9210 0.9220
1005.474130 0.9220 0.9220 0.9210 0.9210 0.9200
1012.130941 0.9200 0.9180 0.9180 0.9170 0.9140
1018.787752 0.9130 0.9120 0.9120 0.9100 0.9080
1025.444563 0.9040 0.9020 0.9010 0.9000 0.8970
1032.101374 0.8940 0.8920 0.8900 0.8890 0.8840
1038.758185 0.8810 0.8780 0.8750 0.8720 0.8720
1045.414996 0.8690 0.8630 0.8511 0.8490 0.8430
1052.071807 0.8390 0.8270 0.8150 0.8070 0.7870
1058.728618 0.7611 0.7391 0.7121 0.6792 0.5955
1065.385429 0.5700 0.5140 0.4621 0.4241 0.3841
1072.042240 0.2355 0.2041 0.1791 0.1601 0.1511
1078.699051 0.1460 0.1440 0.1470 0.1560 0.1700
1085.355862 0.1909 0.2149 0.2498 0.2987 0.3268
1092.012673 0.3530 0.3900 0.4250 0.4490 0.4729
1098.669484 0.4889 0.4980 0.4980 0.4930 0.4850
1105.326295 0.4660 0.4450 0.4240 0.3970 0.3800
1111.983106 0.2932 0.2761 0.2571 0.2351 0.2221
1118.639917 0.2150 0.2110 0.2100 0.2110 0.2260
1125.296728 0.2529 0.2769 0.3009 0.3348 0.3877
1131.953539 0.4360 0.4780 0.5180 0.5410 0.5609
1138.610350 0.5929 0.6010 0.6090 0.6279 0.6419
1145.267161 0.6540 0.6670 0.6780 0.6830 0.6900
1151.923972 0.6950 0.7020 0.7070 0.7110 0.7120
1158.580783 0.7150 0.7180 0.7180 0.7140 0.7080
1165.237594 0.6980 0.6870 0.6601 0.6481 0.6341
1171.894405 0.5860 0.5390 0.5270 0.5150 0.4900
1178.551216 0.4691 0.4541 0.4321 0.4041 0.3821
1185.208027 0.3690 0.3600 0.3570 0.3520 0.3470
1191.864838 0.3410 0.3400 0.3410 0.3529 0.3590
1198.521649 0.3780 0.4050 0.4320 0.4639 0.4959
1205.178460 0.5289 0.5499 0.5729 0.5949 0.6099
1211.835271 0.6250 0.6500 0.6760 0.7000 0.7190
1218.492082 0.7320 0.7479 0.7530 0.7679 0.7809
1225.148893 0.7870 0.7910 0.7990 0.8110 0.8210
1231.805704 0.8310 0.8410 0.8549 0.8600 0.8689
1238.462515 0.8780 0.8780 0.8820 0.8890 0.8930
1245.119326 0.8980 0.9000 0.9000 0.9000 0.9000
1251.776137 0.9010 0.9050 0.9090 0.9100 0.9100
1258.432948 0.9120 0.9120 0.9120 0.9130 0.9140
1265.089759 0.9160 0.9180 0.9200 0.9210 0.9210
1271.746570 0.9220 0.9220 0.9220 0.9220 0.9240
1278.403381 0.9240 0.9240 0.9240 0.9240 0.9260
1285.060192 0.9260 0.9290 0.9290 0.9290 0.9300
1291.717003 0.9320 0.9320 0.9330 0.9340 0.9360
1298.373814 0.9360 0.9360 0.9340 0.9340 0.9320
1305.030625 0.9320 0.9320 0.9320 0.9330 0.9340
1311.687436 0.9360 0.9360 0.9360 0.9360 0.9360
1318.344247 0.9360 0.9360 0.9340 0.9340 0.9340
1325.001058 0.9340 0.9360 0.9360 0.9370 0.9380
1331.657869 0.9380 0.9380 0.9380 0.9380 0.9380
1338.314680 0.9370 0.9370 0.9370 0.9370 0.9370
1344.971491 0.9360 0.9360 0.9370 0.9370 0.9370
1351.628302 0.9360 0.9360 0.9360 0.9360 0.9360
1358.285113 0.9360 0.9360 0.9370 0.9370 0.9380
1364.941924 0.9380 0.9380 0.9380 0.9380 0.9380
1371.598735 0.9380 0.9380 0.9380 0.9370 0.9360
1378.255546 0.9340 0.9340 0.9340 0.9360 0.9380
1384.912357 0.9380 0.9360 0.9360 0.9360 0.9360
1391.569168 0.9360 0.9360 0.9360 0.9360 0.9360
1398.225979 0.9360 0.9360 0.9340 0.9340 0.9320
1404.882790 0.9320 0.9320 0.9330 0.9330 0.9330
1411.539601 0.9330 0.9330 0.9330 0.9330 0.9330
1418.196412 0.9330 0.9330 0.9330 0.9330 0.9330
1424.853223 0.9330 0.9340 0.9340 0.9340 0.9340
1431.510034 0.9340 0.9340 0.9360 0.9360 0.9340
1438.166845 0.9340 0.9340 0.9340 0.9330 0.9330
1444.823656 0.9330 0.9330 0.9330 0.9330 0.9330
1451.480467 0.9330 0.9330 0.9330 0.9340 0.9340
1458.137278 0.9340 0.9330 0.9320 0.9320 0.9300
1464.794089 0.9300 0.9300 0.9300 0.9320 0.9320
1471.450900 0.9320 0.9320 0.9330 0.9360 0.9370
1478.107711 0.9380 0.9380 0.9380 0.9380 0.9380
1484.764522 0.9400 0.9380 0.9380 0.9380 0.9400
1491.421333 0.9400 0.9400 0.9380 0.9380 0.9380
1498.078144 0.9380 0.9400 0.9400 0.9400 0.9380
1504.734955 0.9380 0.9380 0.9380 0.9380 0.9380
1511.391766 0.9380 0.9380 0.9380 0.9380 0.9380
1518.048577 0.9380 0.9380 0.9400 0.9380 0.9380
1524.705388 0.9380 0.9380 0.9380 0.9380 0.9380
1531.362199 0.9380 0.9400 0.9400 0.9380 0.9380
1538.019010 0.9360 0.9340 0.9340 0.9340 0.9330
1544.675821 0.9320 0.9320 0.9320 0.9320 0.9320
1551.332632 0.9300 0.9300 0.9290 0.9290 0.9290
1557.989443 0.9290 0.9290 0.9280 0.9260 0.9250
1564.646254 0.9240 0.9240 0.9240 0.9240 0.9240
1571.303065 0.9220 0.9220 0.9220 0.9210 0.9210
1577.959876 0.9210 0.9210 0.9200 0.9180 0.9170
1584.616687 0.9140 0.9140 0.9130 0.9120 0.9120
1591.273498 0.9100 0.9100 0.9100 0.9090 0.9090
1597.930309 0.9080 0.9060 0.9060 0.9050 0.9040
1604.587120 0.9020 0.9000 0.8960 0.8940 0.8930
1611.243931 0.8920 0.8900 0.8900 0.8900 0.8900
1617.900742 0.8900 0.8890 0.8890 0.8890 0.8890
1624.557553 0.8900 0.8900 0.8920 0.8930 0.8940
1631.214364 0.8970 0.8980 0.9000 0.9000 0.9010
1637.871175 0.9020 0.9040 0.9040 0.9050 0.9050
1644.527986 0.9060 0.9080 0.9090 0.9100 0.9100
1651.184797 0.9100 0.9120 0.9120 0.9120 0.9130
1657.841608 0.9130 0.9130 0.9130 0.9130 0.9140
1664.498419 0.9160 0.9180 0.9200 0.9200 0.9200
1671.155230 0.9210 0.9220 0.9220 0.9210 0.9210
1677.812041 0.9220 0.9220 0.9220 0.9240 0.9250
1684.468852 0.9260 0.9260 0.9260 0.9260 0.9250
1691.125663 0.9250 0.9260 0.9260 0.9300 0.9300
1697.782474 0.9300 0.9300 0.9300 0.9300 0.9320
1704.439285 0.9320 0.9330 0.9330 0.9330 0.9340
1711.096096 0.9370 0.9380 0.9380 0.9380 0.9370
1717.752907 0.9370 0.9370 0.9360 0.9360 0.9360
1724.409718 0.9360 0.9370 0.9370 0.9370 0.9370
1731.066529 0.9380 0.9380 0.9380 0.9380 0.9380
1737.723340 0.9400 0.9400 0.9400 0.9400 0.9400
1744.380151 0.9410 0.9410 0.9410 0.9410 0.9410
1751.036962 0.9380 0.9380 0.9400 0.9400 0.9400
1757.693773 0.9400 0.9400 0.9380 0.9400 0.9400
1764.350584 0.9400 0.9400 0.9410 0.9410 0.9410
1771.007395 0.9410 0.9410 0.9410 0.9410 0.9410
1777.664206 0.9410 0.9400 0.9400 0.9400 0.9400
1784.321017 0.9400 0.9400 0.9400 0.9400 0.9410
1790.977828 0.9410 0.9410 0.9410 0.9400 0.9400
1797.634639 0.9410 0.9410 0.9410 0.9410 0.9410
1804.291450 0.9410 0.9400 0.9400 0.9400 0.9400
1810.948261 0.9400 0.9400 0.9400 0.9400 0.9400
1817.605072 0.9400 0.9410 0.9400 0.9400 0.9400
1824.261883 0.9410 0.9410 0.9410 0.9410 0.9410
1830.918694 0.9410 0.9410 0.9410 0.9400 0.9400
1837.575505 0.9410 0.9410 0.9410 0.9410 0.9410
1844.232316 0.9410 0.9410 0.9410 0.9410 0.9410
1850.889127 0.9410 0.9410 0.9410 0.9410 0.9410
1857.545938 0.9410 0.9410 0.9420 0.9410 0.9410
1864.202749 0.9410 0.9400 0.9400 0.9400 0.9400
1870.859560 0.9400 0.9380 0.9380 0.9380 0.9380
1877.516371 0.9380 0.9380 0.9400 0.9400 0.9400
1884.173182 0.9400 0.9400 0.9370 0.9370 0.9370
1890.829993 0.9370 0.9380 0.9380 0.9380 0.9380
1897.486804 0.9380 0.9380 0.9380 0.9370 0.9400
1904.143615 0.9400 0.9370 0.9360 0.9360 0.9360
1910.800425 0.9370 0.9380 0.9380 0.9380 0.9370
1917.457236 0.9370 0.9370 0.9370 0.9370 0.9370
1924.114047 0.9370 0.9370 0.9370 0.9370 0.9370
1930.770858 0.9370 0.9370 0.9370 0.9370 0.9370
1937.427669 0.9370 0.9370 0.9370 0.9370 0.9370
1944.084480 0.9370 0.9370 0.9370 0.9370 0.9360
1950.741291 0.9360 0.9360 0.9360 0.9340 0.9340
1957.398102 0.9360 0.9360 0.9360 0.9360 0.9360
1964.054913 0.9360 0.9360 0.9360 0.9360 0.9340
1970.711724 0.9340 0.9330 0.9330 0.9320 0.9300
1977.368535 0.9300 0.9320 0.9320 0.9330 0.9340
1984.025346 0.9340 0.9340 0.9330 0.9330 0.9330
1990.682157 0.9320 0.9330 0.9330 0.9320 0.9320
1997.338968 0.9320 0.9320 0.9320 0.9320 0.9320
2003.995779 0.9320 0.9320 0.9320 0.9320 0.9320
2010.652590 0.9320 0.9310 0.9300 0.9300 0.9300
2017.309401 0.9300 0.9300 0.9300 0.9300 0.9300
2023.966212 0.9300 0.9300 0.9300 0.9300 0.9300
2030.623023 0.9295 0.9290 0.9290 0.9290 0.9290
2037.279834 0.9290 0.9290 0.9290 0.9290 0.9290
2043.936645 0.9290 0.9290 0.9285 0.9279 0.9264
2050.593456 0.9250 0.9250 0.9249 0.9244 0.9239
2057.250267 0.9229 0.9220 0.9220 0.9220 0.9220
2063.907078 0.9219 0.9214 0.9210 0.9210 0.9209
2070.563889 0.9204 0.9200 0.9200 0.9200 0.9200
2077.220700 0.9199 0.9189 0.9180 0.9180 0.9180
2083.877511 0.9180 0.9180 0.9180 0.9180 0.9180
2090.534322 0.9182 0.9192 0.9200 0.9200 0.9200
2097.191133 0.9200 0.9200 0.9200 0.9200 0.9200
2103.847944 0.9201 0.9206 0.9210 0.9210 0.9210
2110.504755 0.9210 0.9210 0.9210 0.9210 0.9210
2117.161566 0.9210 0.9210 0.9211 0.9216 0.9222
2123.818377 0.9232 0.9240 0.9240 0.9238 0.9228
2130.475188 0.9220 0.9220 0.9220 0.9220 0.9219
2137.131999 0.9214 0.9210 0.9210 0.9210 0.9210
2143.788810 0.9210 0.9210 0.9211 0.9216 0.9220
2150.445621 0.9220 0.9220 0.9220 0.9223 0.9233
2157.102432 0.9240 0.9240 0.9237 0.9227 0.9220
2163.759243 0.9220 0.9220 0.9220 0.9220 0.9220
2170.416054 0.9220 0.9220 0.9220 0.9220 0.9223
2177.072865 0.9233 0.9242 0.9247 0.9250 0.9250
2183.729676 0.9248 0.9243 0.9240 0.9240 0.9236
2190.386487 0.9226 0.9220 0.9220 0.9220 0.9220
2197.043298 0.9220 0.9220 0.9220 0.9220 0.9218
2203.700109 0.9213 0.9210 0.9210 0.9210 0.9210
2210.356920 0.9212 0.9217 0.9220 0.9220 0.9220
2217.013731 0.9220 0.9220 0.9220 0.9220 0.9220
2223.670542 0.9220 0.9220 0.9218 0.9213 0.9216
2230.327353 0.9231 0.9240 0.9240 0.9236 0.9226
2236.984164 0.9220 0.9220 0.9220 0.9220 0.9220
2243.640975 0.9220 0.9225 0.9235 0.9240 0.9240
2250.297786 0.9235 0.9225 0.9220 0.9220 0.9220
2256.954597 0.9220 0.9220 0.9220 0.9220 0.9220
2263.611408 0.9220 0.9220 0.9220 0.9220 0.9225
2270.268219 0.9235 0.9240 0.9240 0.9243 0.9248
2276.925030 0.9250 0.9250 0.9250 0.9250 0.9250
2283.581841 0.9250 0.9250 0.9250 0.9250 0.9250
2290.238652 0.9250 0.9250 0.9242 0.9227 0.9220
2296.895463 0.9220 0.9217 0.9212 0.9210 0.9210
2303.552274 0.9207 0.9202 0.9200 0.9200 0.9200
2310.209085 0.9200 0.9200 0.9200 0.9203 0.9208
2316.865896 0.9210 0.9210 0.9210 0.9210 0.9210
2323.522707 0.9210 0.9210 0.9210 0.9210 0.9210
2330.179518 0.9210 0.9210 0.9210 0.9210 0.9210
2336.836329 0.9210 0.9210 0.9210 0.9210 0.9210
2343.493140 0.9210 0.9210 0.9210 0.9210 0.9210
2350.149951 0.9210 0.9210 0.9210 0.9210 0.9210
2356.806762 0.9210 0.9210 0.9210 0.9210 0.9213
2363.463573 0.9218 0.9227 0.9237 0.9233 0.9223
2370.120384 0.9217 0.9212 0.9206 0.9201 0.9200
2376.777195 0.9200 0.9193 0.9183 0.9187 0.9197
2383.434006 0.9204 0.9209 0.9210 0.9210 0.9214
2390.090817 0.9219 0.9220 0.9220 0.9220 0.9220
2396.747628 0.9216 0.9211 0.9210 0.9210 0.9210
2403.404439 0.9210 0.9210 0.9210 0.9210 0.9210
2410.061250 0.9210 0.9210 0.9206 0.9201 0.9200
2416.718061 0.9200 0.9208 0.9218 0.9228 0.9238
2423.374872 0.9232 0.9222 0.9216 0.9211 0.9210
2430.031683 0.9210 0.9210 0.9210 0.9210 0.9210
2436.688494 0.9210 0.9210 0.9214 0.9219 0.9220
2443.345305 0.9220 0.9220 0.9220 0.9216 0.9211
2450.002116 0.9210 0.9210 0.9210 0.9210 0.9210
2456.658927 0.9210 0.9210 0.9210 0.9210 0.9210
2463.315738 0.9214 0.9219 0.9220 0.9220 0.9216
2469.972549 0.9211 0.9210 0.9210 0.9210 0.9210
2476.629360 0.9210 0.9210 0.9215 0.9220 0.9220
2483.286171 0.9220 0.9220 0.9220 0.9215 0.9210
2489.942982 0.9210 0.9210 0.9210 0.9210 0.9210
2496.599793 0.9210 0.9210 0.9210 0.9210 0.9210
2503.256604 0.9210 0.9210 0.9205 0.9200 0.9200
2509.913415 0.9200 0.9200 0.9200 0.9200 0.9200
2516.570226 0.9200 0.9200 0.9200 0.9200 0.9200
2523.227037 0.9200 0.9205 0.9210 0.9210 0.9210
2529.883848 0.9210 0.9210 0.9205 0.9200 0.9200
2536.540659 0.9200 0.9200 0.9200 0.9200 0.9200
2543.197470 0.9205 0.9210 0.9205 0.9200 0.9200
2549.854281 0.9200 0.9200 0.9200 0.9190 0.9180
2556.511092 0.9180 0.9180 0.9180 0.9180 0.9180
2563.167903 0.9180 0.9180 0.9180 0.9180 0.9180
2569.824714 0.9175 0.9170 0.9170 0.9170 0.9170
2576.481525 0.9170 0.9175 0.9180 0.9180 0.9180
2583.138336 0.9180 0.9180 0.9180 0.9180 0.9180
2589.795147 0.9180 0.9180 0.9180 0.9180 0.9180
2596.451958 0.9180 0.9180 0.9180 0.9180 0.9180
2603.108769 0.9180 0.9180 0.9180 0.9180 0.9180
2609.765580 0.9180 0.9179 0.9174 0.9170 0.9170
2616.422391 0.9171 0.9176 0.9180 0.9180 0.9180
2623.079202 0.9180 0.9180 0.9180 0.9179 0.9174
2629.736013 0.9170 0.9170 0.9170 0.9170 0.9169
2636.392824 0.9164 0.9158 0.9148 0.9140 0.9140
2643.049635 0.9140 0.9140 0.9140 0.9140 0.9140
2649.706446 0.9140 0.9140 0.9140 0.9142 0.9152
2656.363257 0.9158 0.9148 0.9140 0.9140 0.9140
2663.020068 0.9140 0.9140 0.9140 0.9140 0.9140
2669.676879 0.9140 0.9140 0.9140 0.9140 0.9140
2676.333690 0.9140 0.9143 0.9153 0.9160 0.9160
2682.990501 0.9160 0.9160 0.9157 0.9147 0.9140
2689.647312 0.9140 0.9140 0.9140 0.9140 0.9140
2696.304123 0.9140 0.9140 0.9140 0.9140 0.9140
2702.960934 0.9140 0.9138 0.9133 0.9130 0.9130
2709.617745 0.9130 0.9130 0.9128 0.9123 0.9120
2716.274556 0.9120 0.9120 0.9120 0.9120 0.9120
2722.931367 0.9120 0.9120 0.9116 0.9106 0.9104
2729.588178 0.9114 0.9120 0.9120 0.9120 0.9120
2736.244989 0.9120 0.9120 0.9120 0.9120 0.9120
2742.901800 0.9120 0.9116 0.9106 0.9100 0.9100
2749.558611 0.9100 0.9100 0.9098 0.9093 0.9090
2756.215422 0.9090 0.9092 0.9097 0.9100 0.9100
2762.872233 0.9100 0.9100 0.9098 0.9093 0.9090
2769.529044 0.9090 0.9088 0.9083 0.9080 0.9080
2776.185855 0.9082 0.9087 0.9090 0.9090 0.9092
2782.842666 0.9097 0.9100 0.9100 0.9098 0.9093
2789.499477 0.9090 0.9090 0.9090 0.9090 0.9090
2796.156288 0.9090 0.9090 0.9090 0.9090 0.9090
2802.813099 0.9090 0.9090 0.9093 0.9098 0.9097
2809.469910 0.9092 0.9090 0.9090 0.9090 0.9090
2816.126721 0.9090 0.9090 0.9090 0.9090 0.9090
2822.783532 0.9090 0.9090 0.9090 0.9090 0.9090
2829.440343 0.9090 0.9090 0.9090 0.9090 0.9087
2836.097154 0.9082 0.9080 0.9080 0.9074 0.9064
2842.753965 0.9054 0.9044 0.9040 0.9040 0.9031
2849.410776 0.9016 0.9010 0.9010 0.9010 0.9010
2856.067587 0.9007 0.9002 0.8994 0.8984 0.8980
2862.724398 0.8980 0.8980 0.8980 0.8980 0.8980
2869.381209 0.8980 0.8980 0.8980 0.8980 0.8986
2876.038020 0.8997 0.9000 0.9000 0.9000 0.9000
2882.694831 0.9003 0.9008 0.9010 0.9010 0.9010
2889.351642 0.9010 0.9010 0.9010 0.9010 0.9010
2896.008453 0.9007 0.9002 0.9000 0.9000 0.9000
2902.665264 0.9000 0.9000 0.9000 0.8993 0.8983
2909.322075 0.8980 0.8980 0.8966 0.8946 0.8936
2915.978886 0.8931 0.8926 0.8921 0.8913 0.8903
2922.635697 0.8885 0.8865 0.8856 0.8851 0.8846
2929.292508 0.8841 0.8840 0.8840 0.8840 0.8840
2935.949319 0.8844 0.8849 0.8854 0.8859 0.8868
2942.606130 0.8878 0.8884 0.8889 0.8894 0.8899
2949.262941 0.8900 0.8900 0.8908 0.8918 0.8924
2955.919752 0.8929 0.8934 0.8939 0.8940 0.8940
2962.576563 0.8940 0.8940 0.8940 0.8940 0.8940
2969.233374 0.8940 0.8940 0.8940 0.8948 0.8958
2975.890185 0.8964 0.8969 0.8970 0.8970 0.8974
2982.546996 0.8979 0.8980 0.8980 0.8980 0.8980
2989.203807 0.8980 0.8980 0.8980 0.8980 0.8989
2995.860618 0.8999 0.9000 0.9000 0.9004 0.9009
3002.517429 0.9010 0.9010 0.9006 0.9001 0.9000
3009.174240 0.9000 0.9000 0.9000 0.9000 0.9000
3015.831051 0.9000 0.9000 0.9000 0.9000 0.9000
3022.487862 0.9000 0.9000 0.9000 0.9000 0.9000
3029.144673 0.8991 0.8981 0.8980 0.8980 0.8980
3035.801484 0.8980 0.8980 0.8980 0.8980 0.8980
3042.458295 0.8980 0.8980 0.8980 0.8980 0.8980
3049.115105 0.8980 0.8980 0.8980 0.8980 0.8980
3055.771916 0.8980 0.8980 0.8980 0.8980 0.8980
3062.428727 0.8980 0.8980 0.8980 0.8980 0.8980
3069.085538 0.8980 0.8980 0.8980 0.8980 0.8975
3075.742349 0.8970 0.8970 0.8970 0.8970 0.8970
3082.399160 0.8970 0.8970 0.8970 0.8970 0.8970
3089.055971 0.8970 0.8970 0.8970 0.8970 0.8970
3095.712782 0.8970 0.8970 0.8970 0.8970 0.8970
3102.369593 0.8970 0.8965 0.8960 0.8960 0.8960
3109.026404 0.8960 0.8960 0.8960 0.8960 0.8960
3115.683215 0.8960 0.8960 0.8960 0.8960 0.8960
3122.340026 0.8960 0.8960 0.8960 0.8960 0.8960
3128.996837 0.8960 0.8960 0.8959 0.8949 0.8939
3135.653648 0.8934 0.8930 0.8930 0.8930 0.8930
3142.310459 0.8929 0.8924 0.8918 0.8908 0.8900
3148.967270 0.8900 0.8900 0.8900 0.8902 0.8912
3155.624081 0.8920 0.8920 0.8918 0.8908 0.8900
3162.280892 0.8900 0.8900 0.8900 0.8900 0.8900
3168.937703 0.8899 0.8894 0.8890 0.8890 0.8890
3175.594514 0.8890 0.8890 0.8890 0.8890 0.8890
3182.251325 0.8890 0.8890 0.8890 0.8890 0.8890
3188.908136 0.8890 0.8890 0.8890 0.8889 0.8884
3195.564947 0.8880 0.8880 0.8880 0.8880 0.8877
3202.221758 0.8867 0.8860 0.8860 0.8859 0.8854
3208.878569 0.8850 0.8850 0.8850 0.8850 0.8849
3215.535380 0.8844 0.8840 0.8840 0.8840 0.8840
3222.192191 0.8840 0.8840 0.8837 0.8827 0.8817
3228.849002 0.8807 0.8800 0.8800 0.8800 0.8800
3235.505813 0.8797 0.8787 0.8780 0.8780 0.8778
3242.162624 0.8773 0.8770 0.8770 0.8770 0.8770
3248.819435 0.8770 0.8770 0.8770 0.8770 0.8770
3255.476246 0.8770 0.8770 0.8770 0.8772 0.8777
3262.133057 0.8780 0.8780 0.8778 0.8773 0.8770
3268.789868 0.8770 0.8770 0.8770 0.8768 0.8763
3275.446679 0.8760 0.8760 0.8758 0.8753 0.8750
3282.103490 0.8750 0.8746 0.8736 0.8730 0.8730
3288.760301 0.8728 0.8723 0.8714 0.8699 0.8688
3295.417112 0.8683 0.8678 0.8673 0.8666 0.8655
3302.073923 0.8648 0.8643 0.8638 0.8633 0.8625
3308.730734 0.8615 0.8608 0.8603 0.8598 0.8593
3315.387545 0.8590 0.8590 0.8585 0.8575 0.8568
3322.044356 0.8563 0.8558 0.8553 0.8543 0.8527
3328.701167 0.8517 0.8512 0.8505 0.8495 0.8487
3335.357978 0.8482 0.8480 0.8480 0.8480 0.8480
3342.014789 0.8477 0.8472 0.8462 0.8447 0.8432
3348.671600 0.8417 0.8407 0.8402 0.8397 0.8392
3355.328411 0.8384 0.8374 0.8364 0.8354 0.8339
3361.985222 0.8319 0.8301 0.8286 0.8277 0.8272
3368.642033 0.8261 0.8246 0.8237 0.8232 0.8221
3375.298844 0.8206 0.8200 0.8200 0.8197 0.8192
3381.955655 0.8184 0.8174 0.8164 0.8154 0.8138
3388.612466 0.8118 0.8101 0.8086 0.8068 0.8048
3395.269277 0.8037 0.8032 0.8021 0.8006 0.7997
3401.926088 0.7992 0.7984 0.7974 0.7964 0.7953
3408.582899 0.7940 0.7925 0.7920 0.7920 0.7910
3415.239710 0.7895 0.7890 0.7890 0.7883 0.7873
3421.896521 0.7863 0.7853 0.7847 0.7842 0.7837
3428.553332 0.7832 0.7823 0.7813 0.7810 0.7810
3435.210143 0.7810 0.7810 0.7810 0.7810 0.7806
3441.866954 0.7801 0.7800 0.7800 0.7800 0.7800
3448.523765 0.7796 0.7791 0.7783 0.7773 0.7770
3455.180576 0.7770 0.7770 0.7770 0.7766 0.7761
3461.837387 0.7760 0.7760 0.7760 0.7760 0.7760
3468.494198 0.7760 0.7764 0.7769 0.7770 0.7770
3475.151009 0.7770 0.7770 0.7778 0.7788 0.7790
3481.807820 0.7790 0.7790 0.7790 0.7790 0.7790
3488.464631 0.7790 0.7790 0.7790 0.7790 0.7794
3495.121442 0.7799 0.7800 0.7800 0.7804 0.7809
3501.778253 0.7818 0.7828 0.7834 0.7839 0.7844
3508.435064 0.7849 0.7858 0.7868 0.7870 0.7870
3515.091875 0.7874 0.7879 0.7884 0.7889 0.7890
3521.748686 0.7890 0.7899 0.7909 0.7914 0.7919
3528.405497 0.7920 0.7920 0.7933 0.7948 0.7954
3535.062308 0.7959 0.7973 0.7988 0.7990 0.7990
3541.719119 0.8013 0.8038 0.8045 0.8050 0.8059
3548.375930 0.8069 0.8075 0.8080 0.8085 0.8090
3555.032741 0.8099 0.8109 0.8119 0.8129 0.8149
3561.689552 0.8169 0.8179 0.8189 0.8190 0.8190
3568.346363 0.8195 0.8200 0.8239 0.8279 0.8280
3575.003174 0.8280 0.8295 0.8310 0.8315 0.8320
3581.659985 0.8325 0.8330 0.8330 0.8330 0.8340
3588.316796 0.8350 0.8350 0.8350 0.8360 0.8370
3594.973607 0.8380 0.8390 0.8395 0.8401 0.8436
3601.630418 0.8470 0.8480 0.8490 0.8500 0.8510
3608.287229 0.8520 0.8531 0.8551 0.8570 0.8580
3614.944040 0.8590 0.8600 0.8610 0.8620 0.8630
3621.600851 0.8630 0.8630 0.8630 0.8630 0.8630
3628.257662 0.8630 0.8635 0.8640 0.8640 0.8641
3634.914473 0.8662 0.8681 0.8696 0.8711 0.8721
3641.571284 0.8731 0.8741 0.8750 0.8750 0.8750
3648.228095 0.8750 0.8750 0.8750 0.8750 0.8750
3654.884906 0.8750 0.8750 0.8750 0.8750 0.8750
3661.541717 0.8750 0.8750 0.8750 0.8751 0.8756
3668.198528 0.8761 0.8766 0.8770 0.8770 0.8770
3674.855339 0.8770 0.8770 0.8770 0.8769 0.8764
3681.512150 0.8760 0.8760 0.8760 0.8760 0.8760
3688.168961 0.8760 0.8760 0.8760 0.8760 0.8760
3694.825772 0.8760 0.8760 0.8760 0.8760 0.8760
3701.482583 0.8760 0.8760 0.8760 0.8761 0.8766
3708.139394 0.8770 0.8770 0.8770 0.8770 0.8770
3714.796205 0.8770 0.8770 0.8770 0.8770 0.8770
3721.453016 0.8771 0.8776 0.8780 0.8780 0.8783
3728.109827 0.8793 0.8797 0.8787 0.8780 0.8780
3734.766638 0.8780 0.8780 0.8780 0.8780 0.8780
3741.423449 0.8780 0.8779 0.8774 0.8770 0.8770
3748.080260 0.8770 0.8770 0.8770 0.8770 0.8770
3754.737071 0.8770 0.8770 0.8770 0.8770 0.8770
3761.393882 0.8770 0.8770 0.8770 0.8770 0.8770
3768.050693 0.8770 0.8770 0.8770 0.8770 0.8770
3774.707504 0.8768 0.8763 0.8760 0.8760 0.8760
3781.364315 0.8760 0.8760 0.8760 0.8760 0.8760
3788.021126 0.8758 0.8753 0.8750 0.8750 0.8750
3794.677937 0.8750 0.8750 0.8750 0.8750 0.8750
3801.334748 0.8752 0.8757 0.8760 0.8760 0.8760
3807.991559 0.8760 0.8760 0.8760 0.8760 0.8760
3814.648370 0.8762 0.8767 0.8770 0.8770 0.8770
3821.305181 0.8770 0.8770 0.8770 0.8770 0.8770
3827.961992 0.8770 0.8770 0.8770 0.8770 0.8770
3834.618803 0.8770 0.8768 0.8763 0.8760 0.8760
3841.275614 0.8760 0.8760 0.8758 0.8753 0.8750
3847.932425 0.8750 0.8745 0.8735 0.8730 0.8730
3854.589236 0.8730 0.8730 0.8730 0.8730 0.8730
3861.246047 0.8730 0.8730 0.8730 0.8727 0.8722
3867.902858 0.8720 0.8720 0.8723 0.8728 0.8730
3874.559669 0.8730 0.8730 0.8730 0.8730 0.8730
3881.216480 0.8730 0.8730 0.8730 0.8730 0.8730
3887.873291 0.8730 0.8730 0.8730 0.8730 0.8730
3894.530102 0.8730 0.8730 0.8730 0.8730 0.8730
3901.186913 0.8730 0.8727 0.8722 0.8720 0.8720
3907.843724 0.8720 0.8720 0.8720 0.8720 0.8717
3914.500535 0.8712 0.8710 0.8710 0.8704 0.8694
3921.157346 0.8690 0.8690 0.8690 0.8690 0.8690
3927.814157 0.8690 0.8696 0.8706 0.8710 0.8710
3934.470968 0.8713 0.8718 0.8720 0.8720 0.8710
3941.127779 0.8695 0.8690 0.8690 0.8690 0.8690
3947.784590 0.8690 0.8690 0.8697 0.8707 0.8710
3954.441401 0.8710 0.8710 0.8710 0.8713 0.8718
3961.098212 0.8710 0.8695 0.8690 0.8690 0.8690
3967.755023 0.8690 0.8690 0.8690 0.8690 0.8690
3974.411834 0.8690 0.8690 0.8697 0.8707 0.8703
3981.068645 0.8693 0.8690 0.8690 0.8690 0.8690
3987.725456 0.8690 0.8690
##END=
