##TITLE=1,3-CYCLOHEXANEDIONE, 5,5-DIMETHYL-2-(4'-CARBOMETHOXYBUTYRO)-
##JCAMP-DX=4.24
##DATA TYPE=INFRARED SPECTRUM
##CLASS=COBLENTZ III
##ORIGIN=SOUTHERN RESEARCH INSTITUTE
##OWNER=Copyright (C) 1987 by the Coblentz Society
Collection (C) 2018 copyright by the U.S. Secretary of Commerce
on behalf of the United States of America. All rights reserved.
##DATE=1956/12/27
##NAMES=methyl 5-(4,4-dimethyl-2,6-dioxocyclohexyl)-5-oxopentanoate
DIMEDONE, 2-(4'-CARBOMETHOXYBUTYRO)-
##MOLFORM=C14 H20 O5
##SOURCE REFERENCE=COBLENTZ NO. 8224
##$NIST ID=B6008224
##$NIST SOURCE=COBLENTZ
##$NIST IMAGE=cob8224
##SPECTROMETER/DATA SYSTEM=PERKIN-ELMER 21 (GRATING)
##INSTRUMENT PARAMETERS=FILTER CHANGE ABOUT 1075 CM^-^1
##STATE=LIQUID (NEAT)
##PATH LENGTH=CAPILLARY
##SAMPLING PROCEDURE=TRANSMISSION
##RESOLUTION=2
##DATA PROCESSING=DIGITIZED BY COBLENTZ SOCIETY (BATCH II) FROM HARD COPY (ADJUSTED \addcm-1\8-5-0\)
##XUNITS=1/CM
##YUNITS=TRANSMITTANCE
##XFACTOR=1.0
##YFACTOR=1
##DELTAX=1.003872
##FIRSTX=616.714
##LASTX=4060
##FIRSTY=0.8029
##MAXX=4060
##MINX=616.714
##MAXY=0.869997
##MINY=0.141494
##NPOINTS=3431
##XYDATA=(X++(Y..Y))
616.714286 0.8029 0.8044 0.8058 0.8073 0.8086
621.733647 0.8099 0.8112 0.8125 0.8138 0.8150
626.753008 0.8162 0.8175 0.8187 0.8198 0.8210
631.772370 0.8223 0.8236 0.8249 0.8262 0.8275
636.791731 0.8288 0.8301 0.8313 0.8323 0.8334
641.811092 0.8344 0.8354 0.8365 0.8375 0.8386
646.830453 0.8396 0.8407 0.8417 0.8427 0.8438
651.849815 0.8450 0.8464 0.8478 0.8492 0.8505
656.869176 0.8519 0.8533 0.8547 0.8559 0.8569
661.888537 0.8579 0.8589 0.8597 0.8603 0.8608
666.907899 0.8614 0.8619 0.8622 0.8624 0.8627
671.927260 0.8628 0.8630 0.8634 0.8635 0.8628
676.946621 0.8626 0.8623 0.8621 0.8618 0.8615
681.965982 0.8611 0.8608 0.8604 0.8600 0.8596
686.985344 0.8591 0.8587 0.8582 0.8578 0.8572
692.004705 0.8565 0.8558 0.8552 0.8546 0.8539
697.024066 0.8532 0.8526 0.8519 0.8513 0.8506
702.043428 0.8500 0.8494 0.8488 0.8481 0.8475
707.062789 0.8470 0.8464 0.8458 0.8452 0.8446
712.082150 0.8439 0.8432 0.8425 0.8418 0.8411
717.101511 0.8404 0.8397 0.8390 0.8380 0.8365
722.120873 0.8350 0.8335 0.8320 0.8306 0.8291
727.140234 0.8272 0.8252 0.8233 0.8213 0.8193
732.159595 0.8174 0.8154 0.8134 0.8112 0.8088
737.178957 0.8063 0.8037 0.8018 0.8001 0.7985
742.198318 0.7968 0.7952 0.7940 0.7932 0.7923
747.217679 0.7915 0.7906 0.7897 0.7889 0.7880
752.237040 0.7872 0.7864 0.7855 0.7847 0.7838
757.256402 0.7830 0.7821 0.7813 0.7804 0.7795
762.275763 0.7787 0.7778 0.7770 0.7762 0.7754
767.295124 0.7747 0.7740 0.7733 0.7726 0.7719
772.314486 0.7712 0.7705 0.7698 0.7690 0.7683
777.333847 0.7676 0.7667 0.7659 0.7650 0.7641
782.353208 0.7633 0.7624 0.7615 0.7603 0.7587
787.372569 0.7570 0.7554 0.7538 0.7522 0.7508
792.391931 0.7499 0.7491 0.7484 0.7475 0.7467
797.411292 0.7459 0.7451 0.7443 0.7435 0.7427
802.430653 0.7419 0.7411 0.7403 0.7395 0.7388
807.450015 0.7380 0.7372 0.7366 0.7362 0.7358
812.469376 0.7354 0.7350 0.7345 0.7341 0.7337
817.488737 0.7333 0.7330 0.7327 0.7325 0.7323
822.508098 0.7321 0.7318 0.7316 0.7314 0.7311
827.527460 0.7309 0.7307 0.7305 0.7303 0.7302
832.546821 0.7300 0.7299 0.7297 0.7296 0.7295
837.566182 0.7293 0.7292 0.7290 0.7289 0.7289
842.585544 0.7291 0.7293 0.7295 0.7293 0.7280
847.604905 0.7264 0.7246 0.7219 0.7187 0.7154
852.624266 0.7122 0.7091 0.7058 0.7026 0.6994
857.643627 0.6961 0.6929 0.6900 0.6877 0.6857
862.662989 0.6836 0.6815 0.6796 0.6789 0.6790
867.682350 0.6787 0.6787 0.6796 0.6798 0.6800
872.701711 0.6802 0.6804 0.6806 0.6812 0.6823
877.721073 0.6835 0.6846 0.6862 0.6885 0.6908
882.740434 0.6930 0.6957 0.6996 0.7044 0.7098
887.759795 0.7157 0.7241 0.7329 0.7369 0.7384
892.779156 0.7384 0.7383 0.7385 0.7378 0.7376
897.798518 0.7374 0.7371 0.7369 0.7365 0.7359
902.817879 0.7347 0.7320 0.7294 0.7266 0.7234
907.837240 0.7202 0.7172 0.7141 0.7111 0.7082
912.856602 0.7052 0.7022 0.6992 0.6959 0.6915
917.875963 0.6881 0.6855 0.6832 0.6824 0.6817
922.895324 0.6824 0.6846 0.6869 0.6894 0.6905
927.914685 0.6914 0.6917 0.6919 0.6915 0.6910
932.934047 0.6899 0.6884 0.6869 0.6853 0.6837
937.953408 0.6806 0.6757 0.6670 0.6572 0.6511
942.972769 0.6495 0.6496 0.6493 0.6495 0.6498
947.992131 0.6507 0.6535 0.6586 0.6650 0.6709
953.011492 0.6769 0.6856 0.6943 0.6993 0.7019
958.030853 0.7037 0.7031 0.7015 0.7006 0.6994
963.050214 0.6976 0.6955 0.6930 0.6903 0.6875
968.069576 0.6847 0.6818 0.6788 0.6759 0.6729
973.088937 0.6703 0.6681 0.6660 0.6639 0.6616
978.108298 0.6593 0.6566 0.6524 0.6462 0.6390
983.127660 0.6313 0.6225 0.6142 0.6070 0.6017
988.147021 0.5983 0.5951 0.5918 0.5889 0.5865
993.166382 0.5852 0.5847 0.5843 0.5837 0.5830
998.185743 0.5822 0.5805 0.5776 0.5734 0.5691
1003.205105 0.5647 0.5603 0.5560 0.5520 0.5487
1008.224466 0.5453 0.5419 0.5387 0.5364 0.5345
1013.243827 0.5326 0.5307 0.5298 0.5292 0.5286
1018.263189 0.5281 0.5276 0.5272 0.5268 0.5265
1023.282550 0.5261 0.5258 0.5254 0.5246 0.5234
1028.301911 0.5199 0.5074 0.4978 0.4919 0.4880
1033.321272 0.4847 0.4837 0.4827 0.4830 0.4835
1038.340634 0.4841 0.4848 0.4858 0.4868 0.4878
1043.359995 0.4889 0.4901 0.4912 0.4924 0.4935
1048.379356 0.4947 0.4958 0.4969 0.4978 0.4987
1053.398718 0.4997 0.5005 0.5013 0.5021 0.5031
1058.418079 0.5043 0.5056 0.5072 0.5093 0.5118
1063.437440 0.5171 0.5281 0.5428 0.5575 0.5696
1068.456801 0.5748 0.5700 0.5531 0.5315 0.5203
1073.476163 0.5410 0.5817 0.5874 0.5925 0.5977
1078.495524 0.6026 0.6073 0.6116 0.6158 0.6196
1083.514885 0.6232 0.6269 0.6306 0.6340 0.6364
1088.534247 0.6386 0.6408 0.6429 0.6444 0.6453
1093.553608 0.6461 0.6463 0.6462 0.6460 0.6459
1098.572969 0.6458 0.6457 0.6454 0.6454 0.6451
1103.592330 0.6447 0.6444 0.6440 0.6436 0.6429
1108.611692 0.6419 0.6409 0.6400 0.6335 0.6247
1113.631053 0.6182 0.6126 0.6073 0.6028 0.5984
1118.650414 0.5941 0.5884 0.5817 0.5748 0.5676
1123.669776 0.5610 0.5551 0.5493 0.5427 0.5328
1128.689137 0.5272 0.5163 0.5000 0.4827 0.4653
1133.708498 0.4481 0.4308 0.4135 0.3962 0.3788
1138.727859 0.3607 0.3492 0.3440 0.3420 0.3409
1143.747221 0.3406 0.3404 0.3408 0.3417 0.3433
1148.766582 0.3468 0.3513 0.3555 0.3605 0.3658
1153.785943 0.3703 0.3735 0.3756 0.3768 0.3774
1158.805305 0.3775 0.3768 0.3754 0.3740 0.3728
1163.824666 0.3718 0.3705 0.3692 0.3692 0.3695
1168.844027 0.3700 0.3706 0.3714 0.3726 0.3744
1173.863388 0.3769 0.3797 0.3827 0.3858 0.3889
1178.882750 0.3918 0.3939 0.3954 0.3959 0.3966
1183.902111 0.3954 0.3946 0.3926 0.3895 0.3858
1188.921472 0.3824 0.3788 0.3750 0.3706 0.3660
1193.940834 0.3606 0.3548 0.3512 0.3497 0.3496
1198.960195 0.3481 0.3512 0.3522 0.3533 0.3546
1203.979556 0.3559 0.3573 0.3595 0.3617 0.3639
1208.998917 0.3662 0.3685 0.3707 0.3730 0.3752
1214.018279 0.3775 0.3802 0.3829 0.3856 0.3883
1219.037640 0.3917 0.3952 0.3983 0.4008 0.4028
1224.057001 0.4038 0.4043 0.4047 0.4050 0.4051
1229.076363 0.4053 0.4054 0.4056 0.4080 0.4065
1234.095724 0.4062 0.4062 0.4060 0.4059 0.4054
1239.115085 0.4045 0.4031 0.4015 0.3999 0.3980
1244.134446 0.3960 0.3940 0.3922 0.3903 0.3885
1249.153808 0.3867 0.3847 0.3823 0.3809 0.3804
1254.173169 0.3798 0.3804 0.3813 0.3822 0.3836
1259.192530 0.3851 0.3872 0.3897 0.3923 0.3947
1264.211892 0.3972 0.4008 0.4053 0.4104 0.4145
1269.231253 0.4171 0.4192 0.4209 0.4221 0.4227
1274.250614 0.4230 0.4232 0.4233 0.4235 0.4236
1279.269975 0.4236 0.4236 0.4237 0.4238 0.4243
1284.289337 0.4249 0.4257 0.4274 0.4302 0.4340
1289.308698 0.4376 0.4395 0.4403 0.4406 0.4399
1294.328059 0.4385 0.4370 0.4356 0.4340 0.4297
1299.347421 0.4214 0.4129 0.4043 0.3957 0.3863
1304.366782 0.3770 0.3711 0.3676 0.3657 0.3640
1309.386143 0.3634 0.3645 0.3651 0.3664 0.3684
1314.405504 0.3719 0.3765 0.3817 0.3869 0.3921
1319.424866 0.3973 0.4025 0.4078 0.4129 0.4181
1324.444227 0.4234 0.4286 0.4338 0.4390 0.4442
1329.463588 0.4494 0.4546 0.4607 0.4690 0.4743
1334.482950 0.4799 0.4863 0.4919 0.4958 0.4964
1339.502311 0.4969 0.4973 0.4998 0.4957 0.4946
1344.521672 0.4927 0.4905 0.4883 0.4859 0.4828
1349.541033 0.4798 0.4767 0.4735 0.4703 0.4669
1354.560395 0.4633 0.4596 0.4546 0.4489 0.4411
1359.579756 0.4312 0.4213 0.4113 0.4014 0.3915
1364.599117 0.3815 0.3715 0.3615 0.3539 0.3515
1369.618479 0.3504 0.3507 0.3575 0.3650 0.3724
1374.637840 0.3799 0.3874 0.3900 0.3915 0.3920
1379.657201 0.3920 0.3879 0.3809 0.3738 0.3666
1384.676562 0.3584 0.3555 0.3549 0.3548 0.3550
1389.695924 0.3559 0.3589 0.3632 0.3645 0.3650
1394.715285 0.3654 0.3654 0.3652 0.3626 0.3527
1399.734646 0.3411 0.3297 0.3183 0.3068 0.2953
1404.754008 0.2869 0.2795 0.2756 0.2735 0.2724
1409.773369 0.2715 0.2707 0.2699 0.2688 0.2676
1414.792730 0.2664 0.2645 0.2586 0.2500 0.2441
1419.812091 0.2398 0.2352 0.2306 0.2271 0.2242
1424.831453 0.2211 0.2174 0.2135 0.2095 0.2054
1429.850814 0.2010 0.1971 0.1937 0.1921 0.1918
1434.870175 0.1919 0.1912 0.1922 0.1947 0.1967
1439.889537 0.1989 0.2014 0.2040 0.2065 0.2092
1444.908898 0.2119 0.2147 0.2178 0.2215 0.2260
1449.928259 0.2315 0.2379 0.2469 0.2576 0.2650
1454.947620 0.2711 0.2762 0.2807 0.2842 0.2874
1459.966982 0.2902 0.2926 0.2948 0.2971 0.2989
1464.986343 0.3003 0.3016 0.3029 0.3048 0.3222
1470.005704 0.3660 0.3755 0.3802 0.3841 0.3878
1475.025066 0.3906 0.3934 0.3959 0.3966 0.3972
1480.044427 0.3972 0.3971 0.3968 0.3957 0.3959
1485.063788 0.3951 0.3943 0.3935 0.3922 0.3901
1490.083149 0.3880 0.3851 0.3816 0.3780 0.3741
1495.102511 0.3702 0.3663 0.3623 0.3581 0.3538
1500.121872 0.3496 0.3454 0.3419 0.3384 0.3350
1505.141233 0.3316 0.3282 0.3247 0.3214 0.3177
1510.160595 0.3138 0.3098 0.3057 0.3017 0.2978
1515.179956 0.2937 0.2897 0.2848 0.2798 0.2749
1520.199317 0.2699 0.2650 0.2602 0.2557 0.2512
1525.218678 0.2467 0.2423 0.2368 0.2308 0.2246
1530.238040 0.2191 0.2138 0.2086 0.2036 0.1990
1535.257401 0.1948 0.1913 0.1881 0.1849 0.1820
1540.276762 0.1793 0.1776 0.1764 0.1753 0.1741
1545.296124 0.1731 0.1723 0.1714 0.1707 0.1703
1550.315485 0.1702 0.1700 0.1698 0.1697 0.1695
1555.334846 0.1696 0.1680 0.1686 0.1702 0.1705
1560.354207 0.1708 0.1713 0.1721 0.1729 0.1740
1565.373569 0.1753 0.1768 0.1782 0.1798 0.1815
1570.392930 0.1834 0.1853 0.1872 0.1894 0.1919
1575.412291 0.1943 0.1968 0.1992 0.2016 0.2041
1580.431653 0.2065 0.2089 0.2114 0.2137 0.2162
1585.451014 0.2186 0.2211 0.2240 0.2268 0.2296
1590.470375 0.2325 0.2353 0.2381 0.2408 0.2435
1595.489736 0.2463 0.2491 0.2518 0.2550 0.2586
1600.509098 0.2624 0.2661 0.2698 0.2736 0.2774
1605.528459 0.2813 0.2852 0.2894 0.2936 0.2978
1610.547820 0.3021 0.3066 0.3111 0.3157 0.3203
1615.567182 0.3247 0.3279 0.3310 0.3341 0.3371
1620.586543 0.3395 0.3413 0.3431 0.3447 0.3456
1625.605904 0.3462 0.3462 0.3463 0.3460 0.3458
1630.625265 0.3454 0.3450 0.3442 0.3432 0.3421
1635.644627 0.3399 0.3373 0.3325 0.3266 0.3191
1640.663988 0.3116 0.3051 0.2988 0.2910 0.2773
1645.683349 0.2623 0.2472 0.2320 0.2169 0.2017
1650.702711 0.1866 0.1620 0.1498 0.1455 0.1439
1655.722072 0.1432 0.1415 0.1425 0.1435 0.1442
1660.741433 0.1451 0.1468 0.1489 0.1514 0.1560
1665.760794 0.1621 0.1695 0.1809 0.1990 0.2211
1670.780156 0.2456 0.2706 0.2956 0.3205 0.3455
1675.799517 0.3705 0.3954 0.4204 0.4395 0.4588
1680.818878 0.4717 0.4778 0.4813 0.4836 0.4858
1685.838240 0.4873 0.4883 0.4878 0.4874 0.4871
1690.857601 0.4866 0.4858 0.4849 0.4840 0.4829
1695.876962 0.4817 0.4805 0.4785 0.4751 0.4717
1700.896323 0.4682 0.4647 0.4613 0.4549 0.4483
1705.915685 0.4379 0.4252 0.4088 0.3940 0.3825
1710.935046 0.3726 0.3663 0.3601 0.3514 0.3313
1715.954407 0.3106 0.2900 0.2693 0.2486 0.2279
1720.973769 0.2072 0.1865 0.1747 0.1687 0.1665
1725.993130 0.1661 0.1661 0.1663 0.1625 0.1674
1731.012491 0.1688 0.1727 0.1801 0.1894 0.1965
1736.031852 0.2001 0.2042 0.2200 0.2402 0.2604
1741.051214 0.2805 0.3007 0.3209 0.3412 0.3613
1746.070575 0.3815 0.4033 0.4426 0.4595 0.4971
1751.089936 0.5100 0.5182 0.5255 0.5329 0.5404
1756.109298 0.5492 0.5577 0.5647 0.5701 0.5755
1761.128659 0.5808 0.5860 0.5908 0.5951 0.5993
1766.148020 0.6036 0.6078 0.6117 0.6153 0.6189
1771.167381 0.6225 0.6257 0.6279 0.6302 0.6324
1776.186743 0.6346 0.6369 0.6391 0.6413 0.6433
1781.206104 0.6454 0.6474 0.6495 0.6515 0.6531
1786.225465 0.6544 0.6556 0.6569 0.6582 0.6594
1791.244827 0.6607 0.6620 0.6633 0.6643 0.6653
1796.264188 0.6663 0.6672 0.6682 0.6692 0.6702
1801.283549 0.6712 0.6722 0.6731 0.6741 0.6751
1806.302910 0.6760 0.6770 0.6780 0.6789 0.6798
1811.322272 0.6806 0.6814 0.6822 0.6830 0.6838
1816.341633 0.6846 0.6854 0.6862 0.6870 0.6878
1821.360994 0.6885 0.6890 0.6895 0.6901 0.6906
1826.380356 0.6912 0.6917 0.6922 0.6928 0.6933
1831.399717 0.6939 0.6944 0.6949 0.6955 0.6960
1836.419078 0.6964 0.6968 0.6971 0.6975 0.6979
1841.438439 0.6982 0.6986 0.6990 0.6993 0.6997
1846.457801 0.7001 0.7004 0.7008 0.7011 0.7014
1851.477162 0.7017 0.7019 0.7022 0.7025 0.7028
1856.496523 0.7031 0.7034 0.7036 0.7038 0.7040
1861.515885 0.7041 0.7043 0.7045 0.7047 0.7048
1866.535246 0.7050 0.7052 0.7054 0.7055 0.7057
1871.554607 0.7059 0.7061 0.7062 0.7064 0.7066
1876.573968 0.7068 0.7069 0.7071 0.7073 0.7075
1881.593330 0.7076 0.7078 0.7080 0.7081 0.7083
1886.612691 0.7085 0.7086 0.7088 0.7089 0.7090
1891.632052 0.7092 0.7093 0.7094 0.7096 0.7097
1896.651414 0.7098 0.7100 0.7101 0.7102 0.7104
1901.670775 0.7105 0.7106 0.7108 0.7109 0.7110
1906.690136 0.7112 0.7113 0.7114 0.7116 0.7117
1911.709497 0.7118 0.7120 0.7122 0.7126 0.7130
1916.728859 0.7134 0.7138 0.7142 0.7146 0.7151
1921.748220 0.7155 0.7159 0.7163 0.7167 0.7171
1926.767581 0.7175 0.7179 0.7184 0.7189 0.7194
1931.786943 0.7199 0.7204 0.7209 0.7214 0.7219
1936.806304 0.7221 0.7222 0.7223 0.7224 0.7225
1941.825665 0.7227 0.7228 0.7229 0.7230 0.7231
1946.845026 0.7233 0.7234 0.7234 0.7234 0.7235
1951.864388 0.7235 0.7236 0.7236 0.7236 0.7237
1956.883749 0.7237 0.7237 0.7238 0.7238 0.7239
1961.903110 0.7239 0.7239 0.7240 0.7240 0.7240
1966.922472 0.7241 0.7241 0.7242 0.7242 0.7242
1971.941833 0.7243 0.7243 0.7243 0.7244 0.7244
1976.961194 0.7245 0.7245 0.7245 0.7246 0.7246
1981.980555 0.7246 0.7247 0.7247 0.7248 0.7248
1986.999917 0.7248 0.7249 0.7249 0.7249 0.7250
1992.019278 0.7250 0.7250 0.7251 0.7251 0.7252
1997.038639 0.7252 0.7252 0.7252 0.7252 0.7252
2002.058001 0.7251 0.7251 0.7251 0.7251 0.7251
2007.077362 0.7251 0.7251 0.7251 0.7251 0.7251
2012.096723 0.7251 0.7252 0.7261 0.7269 0.7278
2017.116084 0.7287 0.7296 0.7307 0.7319 0.7330
2022.135446 0.7338 0.7341 0.7344 0.7344 0.7344
2027.154807 0.7344 0.7340 0.7325 0.7344 0.7344
2032.174168 0.7344 0.7344 0.7343 0.7343 0.7343
2037.193530 0.7343 0.7342 0.7341 0.7340 0.7338
2042.212891 0.7337 0.7336 0.7335 0.7334 0.7333
2047.232252 0.7334 0.7335 0.7337 0.7338 0.7340
2052.251613 0.7341 0.7343 0.7345 0.7346 0.7348
2057.270975 0.7349 0.7351 0.7352 0.7354 0.7355
2062.290336 0.7357 0.7358 0.7360 0.7361 0.7363
2067.309697 0.7364 0.7365 0.7365 0.7366 0.7366
2072.329059 0.7367 0.7367 0.7368 0.7368 0.7368
2077.348420 0.7369 0.7369 0.7370 0.7370 0.7371
2082.367781 0.7372 0.7374 0.7376 0.7378 0.7380
2087.387142 0.7382 0.7384 0.7386 0.7388 0.7391
2092.406504 0.7394 0.7398 0.7403 0.7407 0.7411
2097.425865 0.7415 0.7420 0.7424 0.7428 0.7432
2102.445226 0.7437 0.7441 0.7446 0.7451 0.7455
2107.464588 0.7460 0.7465 0.7470 0.7475 0.7480
2112.483949 0.7484 0.7485 0.7486 0.7488 0.7490
2117.503310 0.7490 0.7492 0.7494 0.7495 0.7496
2122.522671 0.7498 0.7498 0.7499 0.7499 0.7500
2127.542033 0.7500 0.7500 0.7501 0.7501 0.7502
2132.561394 0.7502 0.7503 0.7503 0.7504 0.7504
2137.580755 0.7505 0.7505 0.7506 0.7506 0.7507
2142.600117 0.7507 0.7508 0.7508 0.7509 0.7509
2147.619478 0.7510 0.7510 0.7511 0.7511 0.7512
2152.638839 0.7512 0.7513 0.7513 0.7514 0.7514
2157.658200 0.7515 0.7515 0.7516 0.7516 0.7517
2162.677562 0.7517 0.7518 0.7518 0.7517 0.7517
2167.696923 0.7516 0.7516 0.7515 0.7515 0.7515
2172.716284 0.7514 0.7514 0.7513 0.7513 0.7513
2177.735646 0.7512 0.7512 0.7511 0.7511 0.7511
2182.755007 0.7510 0.7510 0.7509 0.7509 0.7509
2187.774368 0.7508 0.7508 0.7509 0.7510 0.7512
2192.793729 0.7514 0.7516 0.7518 0.7520 0.7522
2197.813091 0.7523 0.7525 0.7527 0.7529 0.7531
2202.832452 0.7533 0.7535 0.7536 0.7538 0.7540
2207.851813 0.7542 0.7544 0.7546 0.7548 0.7549
2212.871175 0.7550 0.7551 0.7553 0.7554 0.7555
2217.890536 0.7557 0.7558 0.7559 0.7561 0.7561
2222.909897 0.7560 0.7559 0.7558 0.7556 0.7555
2227.929258 0.7554 0.7553 0.7552 0.7551 0.7550
2232.948620 0.7549 0.7548 0.7547 0.7546 0.7545
2237.967981 0.7544 0.7543 0.7542 0.7541 0.7540
2242.987342 0.7539 0.7537 0.7536 0.7535 0.7534
2248.006704 0.7533 0.7532 0.7532 0.7532 0.7532
2253.026065 0.7532 0.7532 0.7531 0.7531 0.7531
2258.045426 0.7531 0.7531 0.7531 0.7531 0.7531
2263.064787 0.7531 0.7530 0.7530 0.7529 0.7529
2268.084149 0.7528 0.7528 0.7527 0.7527 0.7526
2273.103510 0.7526 0.7527 0.7533 0.7539 0.7545
2278.122871 0.7553 0.7563 0.7572 0.7581 0.7591
2283.142233 0.7600 0.7610 0.7618 0.7626 0.7635
2288.161594 0.7643 0.7651 0.7659 0.7667 0.7675
2293.180955 0.7684 0.7694 0.7704 0.7714 0.7724
2298.200316 0.7734 0.7744 0.7754 0.7764 0.7774
2303.219678 0.7784 0.7794 0.7803 0.7813 0.7822
2308.239039 0.7827 0.7829 0.7830 0.7833 0.7835
2313.258400 0.7837 0.7838 0.7838 0.7836 0.7834
2318.277762 0.7832 0.7830 0.7828 0.7824 0.7820
2323.297123 0.7816 0.7812 0.7808 0.7804 0.7800
2328.316484 0.7796 0.7792 0.7787 0.7782 0.7776
2333.335845 0.7770 0.7764 0.7758 0.7752 0.7746
2338.355207 0.7740 0.7734 0.7728 0.7722 0.7716
2343.374568 0.7709 0.7703 0.7696 0.7690 0.7683
2348.393929 0.7677 0.7670 0.7664 0.7657 0.7651
2353.413291 0.7644 0.7638 0.7631 0.7624 0.7618
2358.432652 0.7611 0.7605 0.7598 0.7592 0.7585
2363.452013 0.7579 0.7572 0.7566 0.7560 0.7553
2368.471374 0.7547 0.7540 0.7534 0.7528 0.7521
2373.490736 0.7516 0.7512 0.7509 0.7505 0.7502
2378.510097 0.7499 0.7497 0.7496 0.7496 0.7496
2383.529458 0.7495 0.7495 0.7495 0.7494 0.7494
2388.548820 0.7494 0.7493 0.7493 0.7493 0.7493
2393.568181 0.7492 0.7492 0.7491 0.7491 0.7490
2398.587542 0.7490 0.7489 0.7489 0.7488 0.7487
2403.606903 0.7487 0.7486 0.7486 0.7485 0.7485
2408.626265 0.7484 0.7484 0.7483 0.7483 0.7482
2413.645626 0.7481 0.7481 0.7481 0.7482 0.7482
2418.664987 0.7483 0.7484 0.7484 0.7485 0.7486
2423.684349 0.7486 0.7487 0.7487 0.7488 0.7489
2428.703710 0.7489 0.7490 0.7490 0.7491 0.7492
2433.723071 0.7492 0.7492 0.7492 0.7492 0.7491
2438.742432 0.7491 0.7491 0.7490 0.7490 0.7489
2443.761794 0.7489 0.7489 0.7488 0.7488 0.7488
2448.781155 0.7487 0.7487 0.7487 0.7486 0.7486
2453.800516 0.7485 0.7485 0.7485 0.7485 0.7485
2458.819878 0.7485 0.7484 0.7484 0.7484 0.7484
2463.839239 0.7484 0.7484 0.7484 0.7483 0.7483
2468.858600 0.7483 0.7483 0.7483 0.7483 0.7483
2473.877961 0.7482 0.7482 0.7482 0.7482 0.7482
2478.897323 0.7482 0.7482 0.7481 0.7481 0.7481
2483.916684 0.7481 0.7481 0.7481 0.7481 0.7480
2488.936045 0.7481 0.7481 0.7481 0.7481 0.7481
2493.955407 0.7482 0.7482 0.7482 0.7482 0.7483
2498.974768 0.7483 0.7483 0.7483 0.7483 0.7484
2503.994129 0.7484 0.7484 0.7484 0.7484 0.7485
2509.013490 0.7485 0.7485 0.7485 0.7485 0.7486
2514.032852 0.7485 0.7483 0.7482 0.7480 0.7479
2519.052213 0.7477 0.7476 0.7475 0.7473 0.7472
2524.071574 0.7470 0.7469 0.7466 0.7463 0.7460
2529.090936 0.7456 0.7453 0.7450 0.7447 0.7444
2534.110297 0.7441 0.7438 0.7435 0.7434 0.7432
2539.129658 0.7430 0.7429 0.7428 0.7426 0.7425
2544.149019 0.7424 0.7423 0.7421 0.7420 0.7419
2549.168381 0.7418 0.7417 0.7415 0.7415 0.7415
2554.187742 0.7415 0.7415 0.7415 0.7414 0.7414
2559.207103 0.7414 0.7414 0.7414 0.7414 0.7413
2564.226465 0.7413 0.7413 0.7413 0.7413 0.7413
2569.245826 0.7412 0.7412 0.7412 0.7412 0.7412
2574.265187 0.7412 0.7411 0.7411 0.7411 0.7411
2579.284548 0.7411 0.7411 0.7410 0.7410 0.7410
2584.303910 0.7410 0.7410 0.7410 0.7409 0.7409
2589.323271 0.7409 0.7409 0.7409 0.7409 0.7409
2594.342632 0.7409 0.7409 0.7409 0.7409 0.7409
2599.361994 0.7409 0.7409 0.7409 0.7409 0.7409
2604.381355 0.7409 0.7409 0.7409 0.7409 0.7409
2609.400716 0.7409 0.7409 0.7409 0.7409 0.7409
2614.420077 0.7409 0.7409 0.7409 0.7409 0.7409
2619.439439 0.7409 0.7409 0.7409 0.7409 0.7409
2624.458800 0.7409 0.7409 0.7409 0.7409 0.7409
2629.478161 0.7409 0.7409 0.7409 0.7409 0.7409
2634.497523 0.7408 0.7408 0.7408 0.7407 0.7407
2639.516884 0.7407 0.7406 0.7406 0.7406 0.7405
2644.536245 0.7405 0.7405 0.7405 0.7404 0.7404
2649.555606 0.7404 0.7403 0.7403 0.7403 0.7402
2654.574968 0.7402 0.7402 0.7402 0.7401 0.7401
2659.594329 0.7401 0.7400 0.7400 0.7399 0.7398
2664.613690 0.7397 0.7396 0.7395 0.7393 0.7392
2669.633052 0.7391 0.7390 0.7389 0.7387 0.7386
2674.652413 0.7385 0.7384 0.7382 0.7381 0.7380
2679.671774 0.7379 0.7377 0.7376 0.7375 0.7374
2684.691135 0.7372 0.7371 0.7370 0.7369 0.7367
2689.710497 0.7366 0.7365 0.7364 0.7364 0.7363
2694.729858 0.7362 0.7361 0.7360 0.7359 0.7358
2699.749219 0.7358 0.7357 0.7356 0.7355 0.7354
2704.768581 0.7353 0.7352 0.7352 0.7351 0.7350
2709.787942 0.7349 0.7348 0.7347 0.7346 0.7346
2714.807303 0.7345 0.7344 0.7343 0.7342 0.7341
2719.826664 0.7340 0.7339 0.7338 0.7337 0.7336
2724.846026 0.7335 0.7333 0.7332 0.7331 0.7330
2729.865387 0.7329 0.7328 0.7327 0.7326 0.7325
2734.884748 0.7324 0.7322 0.7321 0.7320 0.7319
2739.904110 0.7318 0.7315 0.7313 0.7310 0.7308
2744.923471 0.7305 0.7303 0.7300 0.7298 0.7295
2749.942832 0.7293 0.7290 0.7288 0.7286 0.7283
2754.962193 0.7278 0.7273 0.7267 0.7261 0.7255
2759.981555 0.7249 0.7244 0.7238 0.7232 0.7226
2765.000916 0.7221 0.7215 0.7209 0.7202 0.7194
2770.020277 0.7186 0.7179 0.7171 0.7163 0.7155
2775.039639 0.7147 0.7140 0.7132 0.7124 0.7116
2780.059000 0.7108 0.7100 0.7092 0.7084 0.7076
2785.078361 0.7068 0.7059 0.7051 0.7043 0.7035
2790.097722 0.7027 0.7019 0.7011 0.7003 0.6994
2795.117084 0.6986 0.6974 0.6961 0.6948 0.6935
2800.136445 0.6922 0.6909 0.6896 0.6872 0.6841
2805.155806 0.6811 0.6783 0.6758 0.6733 0.6708
2810.175168 0.6683 0.6663 0.6644 0.6624 0.6605
2815.194529 0.6585 0.6559 0.6531 0.6503 0.6476
2820.213890 0.6447 0.6415 0.6378 0.6342 0.6305
2825.233251 0.6267 0.6222 0.6176 0.6129 0.6079
2830.252613 0.6015 0.5939 0.5868 0.5816 0.5773
2835.271974 0.5730 0.5688 0.5649 0.5619 0.5605
2840.291335 0.5596 0.5588 0.5583 0.5580 0.5577
2845.310697 0.5573 0.5570 0.5567 0.5564 0.5564
2850.330058 0.5564 0.5564 0.5565 0.5565 0.5565
2855.349419 0.5565 0.5565 0.5564 0.5563 0.5562
2860.368780 0.5562 0.5561 0.5560 0.5558 0.5558
2865.388142 0.5557 0.5551 0.5549 0.5547 0.5545
2870.407503 0.5542 0.5539 0.5534 0.5530 0.5525
2875.426864 0.5521 0.5517 0.5511 0.5506 0.5500
2880.446226 0.5494 0.5489 0.5483 0.5477 0.5470
2885.465587 0.5463 0.5456 0.5449 0.5441 0.5434
2890.484948 0.5422 0.5403 0.5383 0.5362 0.5341
2895.504309 0.5312 0.5274 0.5232 0.5180 0.5120
2900.523671 0.5030 0.4909 0.4815 0.4748 0.4681
2905.543032 0.4602 0.4510 0.4416 0.4325 0.4235
2910.562393 0.4165 0.4113 0.4062 0.4024 0.3997
2915.581755 0.3971 0.3947 0.3931 0.3921 0.3912
2920.601116 0.3902 0.3897 0.3895 0.3894 0.3893
2925.620477 0.3894 0.3896 0.3875 0.3889 0.3909
2930.639838 0.3917 0.3925 0.3932 0.3940 0.3952
2935.659200 0.3967 0.3983 0.4000 0.4023 0.4048
2940.678561 0.4074 0.4101 0.4150 0.4229 0.4383
2945.697922 0.4645 0.4921 0.5097 0.5199 0.5285
2950.717284 0.5387 0.5501 0.5595 0.5678 0.5756
2955.736645 0.5819 0.5876 0.5935 0.6008 0.6087
2960.756006 0.6146 0.6199 0.6251 0.6301 0.6346
2965.775367 0.6391 0.6435 0.6464 0.6488 0.6512
2970.794729 0.6535 0.6559 0.6582 0.6604 0.6623
2975.814090 0.6641 0.6661 0.6679 0.6698 0.6715
2980.833451 0.6730 0.6743 0.6756 0.6770 0.6783
2985.852813 0.6797 0.6810 0.6823 0.6837 0.6849
2990.872174 0.6861 0.6873 0.6884 0.6895 0.6907
2995.891535 0.6918 0.6930 0.6940 0.6950 0.6959
3000.910896 0.6968 0.6978 0.6987 0.6996 0.7006
3005.930258 0.7014 0.7022 0.7031 0.7040 0.7048
3010.949619 0.7057 0.7066 0.7075 0.7084 0.7093
3015.968980 0.7102 0.7111 0.7120 0.7128 0.7136
3020.988342 0.7144 0.7152 0.7160 0.7168 0.7175
3026.007703 0.7183 0.7191 0.7199 0.7207 0.7215
3031.027064 0.7223 0.7228 0.7233 0.7238 0.7243
3036.046425 0.7248 0.7253 0.7258 0.7261 0.7262
3041.065787 0.7264 0.7266 0.7267 0.7269 0.7271
3046.085148 0.7272 0.7274 0.7276 0.7277 0.7277
3051.104509 0.7277 0.7277 0.7277 0.7277 0.7276
3056.123871 0.7276 0.7276 0.7276 0.7275 0.7275
3061.143232 0.7275 0.7275 0.7275 0.7274 0.7274
3066.162593 0.7274 0.7274 0.7274 0.7274 0.7274
3071.181954 0.7274 0.7275 0.7275 0.7275 0.7275
3076.201316 0.7275 0.7276 0.7276 0.7276 0.7276
3081.220677 0.7277 0.7277 0.7277 0.7277 0.7277
3086.240038 0.7278 0.7278 0.7278 0.7278 0.7277
3091.259400 0.7277 0.7276 0.7276 0.7275 0.7274
3096.278761 0.7274 0.7273 0.7273 0.7272 0.7272
3101.298122 0.7271 0.7270 0.7270 0.7268 0.7266
3106.317483 0.7264 0.7262 0.7260 0.7259 0.7257
3111.336845 0.7255 0.7253 0.7251 0.7249 0.7248
3116.356206 0.7247 0.7246 0.7245 0.7244 0.7243
3121.375567 0.7242 0.7241 0.7240 0.7239 0.7238
3126.394929 0.7237 0.7236 0.7235 0.7234 0.7233
3131.414290 0.7232 0.7232 0.7232 0.7232 0.7232
3136.433651 0.7232 0.7232 0.7232 0.7232 0.7232
3141.453012 0.7232 0.7232 0.7233 0.7233 0.7233
3146.472374 0.7233 0.7233 0.7233 0.7233 0.7233
3151.491735 0.7233 0.7235 0.7239 0.7243 0.7247
3156.511096 0.7250 0.7254 0.7257 0.7261 0.7264
3161.530458 0.7268 0.7272 0.7275 0.7279 0.7284
3166.549819 0.7288 0.7293 0.7295 0.7295 0.7295
3171.569180 0.7294 0.7291 0.7288 0.7286 0.7283
3176.588541 0.7280 0.7277 0.7274 0.7271 0.7268
3181.607903 0.7265 0.7261 0.7258 0.7254 0.7250
3186.627264 0.7246 0.7243 0.7239 0.7235 0.7232
3191.646625 0.7228 0.7224 0.7220 0.7216 0.7212
3196.665987 0.7208 0.7204 0.7200 0.7197 0.7193
3201.685348 0.7189 0.7187 0.7185 0.7183 0.7181
3206.704709 0.7179 0.7177 0.7175 0.7177 0.7180
3211.724070 0.7184 0.7187 0.7191 0.7202 0.7215
3216.743432 0.7228 0.7236 0.7243 0.7250 0.7255
3221.762793 0.7257 0.7258 0.7259 0.7260 0.7261
3226.782154 0.7262 0.7264 0.7264 0.7260 0.7255
3231.801516 0.7250 0.7245 0.7240 0.7235 0.7231
3236.820877 0.7226 0.7222 0.7217 0.7213 0.7209
3241.840238 0.7211 0.7213 0.7214 0.7216 0.7219
3246.859599 0.7222 0.7225 0.7228 0.7231 0.7234
3251.878961 0.7237 0.7237 0.7234 0.7231 0.7228
3256.898322 0.7225 0.7222 0.7219 0.7216 0.7212
3261.917683 0.7207 0.7203 0.7199 0.7194 0.7190
3266.937045 0.7186 0.7182 0.7178 0.7175 0.7172
3271.956406 0.7169 0.7166 0.7163 0.7160 0.7157
3276.975767 0.7159 0.7162 0.7164 0.7167 0.7169
3281.995128 0.7172 0.7174 0.7179 0.7184 0.7190
3287.014490 0.7195 0.7200 0.7205 0.7210 0.7215
3292.033851 0.7220 0.7225 0.7229 0.7232 0.7235
3297.053212 0.7239 0.7242 0.7245 0.7248 0.7252
3302.072574 0.7255 0.7258 0.7261 0.7264 0.7268
3307.091935 0.7270 0.7274 0.7277 0.7280 0.7282
3312.111296 0.7285 0.7288 0.7291 0.7294 0.7298
3317.130657 0.7302 0.7307 0.7311 0.7315 0.7319
3322.150019 0.7324 0.7328 0.7332 0.7336 0.7341
3327.169380 0.7345 0.7349 0.7353 0.7357 0.7359
3332.188741 0.7361 0.7364 0.7366 0.7368 0.7370
3337.208103 0.7373 0.7375 0.7377 0.7380 0.7382
3342.227464 0.7384 0.7386 0.7387 0.7387 0.7388
3347.246825 0.7388 0.7389 0.7389 0.7389 0.7390
3352.266186 0.7390 0.7391 0.7391 0.7391 0.7392
3357.285548 0.7392 0.7393 0.7393 0.7393 0.7394
3362.304909 0.7394 0.7395 0.7395 0.7396 0.7396
3367.324270 0.7397 0.7397 0.7397 0.7398 0.7398
3372.343632 0.7399 0.7399 0.7400 0.7400 0.7401
3377.362993 0.7401 0.7401 0.7401 0.7399 0.7397
3382.382354 0.7395 0.7392 0.7390 0.7388 0.7386
3387.401715 0.7384 0.7381 0.7380 0.7380 0.7380
3392.421077 0.7379 0.7379 0.7378 0.7378 0.7377
3397.440438 0.7377 0.7377 0.7376 0.7376 0.7375
3402.459799 0.7375 0.7374 0.7374 0.7373 0.7373
3407.479161 0.7373 0.7372 0.7372 0.7371 0.7371
3412.498522 0.7370 0.7370 0.7372 0.7373 0.7374
3417.517883 0.7375 0.7376 0.7377 0.7378 0.7379
3422.537244 0.7381 0.7382 0.7383 0.7384 0.7385
3427.556606 0.7386 0.7387 0.7388 0.7389 0.7390
3432.575967 0.7391 0.7392 0.7393 0.7394 0.7396
3437.595328 0.7397 0.7398 0.7399 0.7400 0.7401
3442.614690 0.7402 0.7403 0.7404 0.7405 0.7406
3447.634051 0.7407 0.7408 0.7410 0.7413 0.7417
3452.653412 0.7420 0.7423 0.7426 0.7430 0.7433
3457.672773 0.7436 0.7439 0.7443 0.7446 0.7449
3462.692135 0.7453 0.7456 0.7459 0.7462 0.7466
3467.711496 0.7469 0.7472 0.7476 0.7479 0.7481
3472.730857 0.7482 0.7483 0.7483 0.7484 0.7485
3477.750219 0.7486 0.7487 0.7488 0.7489 0.7490
3482.769580 0.7490 0.7489 0.7488 0.7487 0.7486
3487.788941 0.7485 0.7484 0.7483 0.7482 0.7482
3492.808302 0.7481 0.7480 0.7479 0.7478 0.7477
3497.827664 0.7476 0.7475 0.7474 0.7474 0.7473
3502.847025 0.7472 0.7472 0.7471 0.7471 0.7470
3507.866386 0.7470 0.7469 0.7469 0.7468 0.7468
3512.885748 0.7467 0.7466 0.7466 0.7468 0.7470
3517.905109 0.7473 0.7476 0.7478 0.7481 0.7484
3522.924470 0.7486 0.7489 0.7492 0.7494 0.7497
3527.943831 0.7500 0.7507 0.7515 0.7522 0.7530
3532.963193 0.7538 0.7546 0.7556 0.7565 0.7575
3537.982554 0.7585 0.7594 0.7596 0.7597 0.7597
3543.001915 0.7597 0.7597 0.7597 0.7598 0.7598
3548.021277 0.7598 0.7598 0.7598 0.7599 0.7599
3553.040638 0.7599 0.7599 0.7600 0.7600 0.7600
3558.059999 0.7600 0.7600 0.7601 0.7601 0.7601
3563.079360 0.7601 0.7601 0.7602 0.7602 0.7602
3568.098722 0.7602 0.7602 0.7603 0.7603 0.7604
3573.118083 0.7605 0.7605 0.7606 0.7606 0.7607
3578.137444 0.7608 0.7608 0.7609 0.7610 0.7610
3583.156806 0.7611 0.7611 0.7612 0.7613 0.7613
3588.176167 0.7614 0.7614 0.7614 0.7614 0.7614
3593.195528 0.7614 0.7614 0.7614 0.7614 0.7614
3598.214889 0.7614 0.7614 0.7614 0.7614 0.7614
3603.234251 0.7614 0.7614 0.7614 0.7615 0.7618
3608.253612 0.7621 0.7625 0.7628 0.7632 0.7635
3613.272973 0.7639 0.7643 0.7646 0.7650 0.7653
3618.292335 0.7658 0.7664 0.7671 0.7677 0.7681
3623.311696 0.7683 0.7685 0.7687 0.7689 0.7691
3628.331057 0.7693 0.7695 0.7697 0.7699 0.7702
3633.350418 0.7705 0.7707 0.7710 0.7712 0.7715
3638.369780 0.7718 0.7720 0.7723 0.7726 0.7728
3643.389141 0.7731 0.7733 0.7735 0.7738 0.7740
3648.408502 0.7742 0.7745 0.7747 0.7749 0.7752
3653.427864 0.7754 0.7756 0.7758 0.7759 0.7759
3658.447225 0.7760 0.7761 0.7762 0.7763 0.7764
3663.466586 0.7765 0.7766 0.7767 0.7768 0.7769
3668.485947 0.7769 0.7770 0.7771 0.7773 0.7773
3673.505309 0.7774 0.7775 0.7775 0.7776 0.7776
3678.524670 0.7777 0.7777 0.7778 0.7778 0.7779
3683.544031 0.7779 0.7780 0.7781 0.7783 0.7785
3688.563393 0.7786 0.7788 0.7789 0.7791 0.7793
3693.582754 0.7794 0.7796 0.7798 0.7799 0.7801
3698.602115 0.7802 0.7803 0.7804 0.7804 0.7805
3703.621476 0.7806 0.7806 0.7807 0.7807 0.7807
3708.640838 0.7806 0.7805 0.7805 0.7804 0.7803
3713.660199 0.7803 0.7802 0.7801 0.7801 0.7800
3718.679560 0.7799 0.7799 0.7798 0.7797 0.7797
3723.698922 0.7796 0.7795 0.7795 0.7794 0.7793
3728.718283 0.7793 0.7792 0.7790 0.7788 0.7786
3733.737644 0.7784 0.7782 0.7780 0.7778 0.7775
3738.757005 0.7773 0.7772 0.7770 0.7768 0.7766
3743.776367 0.7764 0.7762 0.7760 0.7758 0.7756
3748.795728 0.7754 0.7752 0.7751 0.7749 0.7747
3753.815089 0.7748 0.7749 0.7750 0.7750 0.7751
3758.834451 0.7752 0.7753 0.7754 0.7755 0.7756
3763.853812 0.7756 0.7757 0.7758 0.7759 0.7760
3768.873173 0.7761 0.7762 0.7763 0.7767 0.7772
3773.892534 0.7777 0.7782 0.7786 0.7792 0.7797
3778.911896 0.7802 0.7806 0.7811 0.7816 0.7821
3783.931257 0.7824 0.7825 0.7826 0.7826 0.7827
3788.950618 0.7828 0.7828 0.7829 0.7830 0.7831
3793.969980 0.7831 0.7832 0.7833 0.7834 0.7834
3798.989341 0.7834 0.7833 0.7832 0.7831 0.7830
3804.008702 0.7829 0.7828 0.7827 0.7826 0.7825
3809.028063 0.7824 0.7823 0.7822 0.7821 0.7820
3814.047425 0.7819 0.7818 0.7817 0.7815 0.7813
3819.066786 0.7811 0.7809 0.7808 0.7806 0.7804
3824.086147 0.7802 0.7801 0.7799 0.7797 0.7795
3829.105509 0.7793 0.7792 0.7790 0.7788 0.7786
3834.124870 0.7784 0.7783 0.7781 0.7779 0.7777
3839.144231 0.7775 0.7774 0.7772 0.7770 0.7768
3844.163592 0.7766 0.7764 0.7763 0.7761 0.7759
3849.182954 0.7757 0.7755 0.7754 0.7752 0.7750
3854.202315 0.7748 0.7746 0.7744 0.7743 0.7740
3859.221676 0.7738 0.7735 0.7733 0.7731 0.7728
3864.241038 0.7726 0.7723 0.7721 0.7718 0.7716
3869.260399 0.7713 0.7711 0.7708 0.7706 0.7704
3874.279760 0.7701 0.7699 0.7696 0.7694 0.7692
3879.299121 0.7689 0.7687 0.7685 0.7682 0.7680
3884.318483 0.7678 0.7675 0.7673 0.7671 0.7668
3889.337844 0.7666 0.7664 0.7662 0.7661 0.7660
3894.357205 0.7660 0.7659 0.7658 0.7657 0.7656
3899.376567 0.7655 0.7654 0.7653 0.7652 0.7651
3904.395928 0.7650 0.7649 0.7649 0.7649 0.7648
3909.415289 0.7648 0.7648 0.7647 0.7647 0.7647
3914.434650 0.7646 0.7646 0.7646 0.7645 0.7645
3919.454012 0.7645 0.7644 0.7644 0.7644 0.7643
3924.473373 0.7643 0.7643 0.7642 0.7642 0.7642
3929.492734 0.7641 0.7641 0.7641 0.7640 0.7640
3934.512096 0.7639 0.7639 0.7639 0.7639 0.7638
3939.531457 0.7638 0.7638 0.7637 0.7637 0.7637
3944.550818 0.7636 0.7636 0.7636 0.7635 0.7635
3949.570179 0.7635 0.7634 0.7634 0.7633 0.7633
3954.589541 0.7644 0.7640 0.7632 0.7631 0.7631
3959.608902 0.7631 0.7630 0.7630 0.7629 0.7629
3964.628263 0.7628 0.7628 0.7628 0.7628 0.7628
3969.647625 0.7628 0.7628 0.7629 0.7629 0.7629
3974.666986 0.7629 0.7629 0.7630 0.7630 0.7630
3979.686347 0.7630 0.7630 0.7631 0.7632 0.7633
3984.705708 0.7635 0.7636 0.7637 0.7638 0.7640
3989.725070 0.7641 0.7642 0.7643 0.7645 0.7646
3994.744431 0.7647 0.7649 0.7650 0.7651 0.7652
3999.763792 0.7654 0.7656 0.7658 0.7661 0.7665
4004.783154 0.7668 0.7671 0.7674 0.7677 0.7681
4009.802515 0.7684 0.7687 0.7690 0.7693 0.7696
4014.821876 0.7700 0.7703 0.7706 0.7710 0.7713
4019.841237 0.7716 0.7721 0.7726 0.7731 0.7736
4024.860599 0.7742 0.7747 0.7752 0.7757 0.7763
4029.879960 0.7768 0.7773 0.7779 0.7784 0.7789
4034.899321 0.7801 0.7813 0.7825 0.7837 0.7849
4039.918683 0.7861 0.7873 0.7892 0.7913 0.7934
4044.938044 0.7955 0.7981 0.8012 0.8043 0.8084
4049.957405 0.8131 0.8179 0.8244 0.8311 0.8374
4054.976766 0.8439 0.8502 0.8565 0.8629 0.8693
4059.996128 0.8700
##END=
