##TITLE=Glycine, magnesuim salt
##JCAMP-DX=4.24
$$ By DXEDIT 1.05 (RS McDonald)
##DATA TYPE=INFRARED SPECTRUM
##CLASS=COBLENTZ III
##ORIGIN=DOW CHEMICAL COMPANY
##OWNER=COPYRIGHT (C) 1988 by COBLENTZ SOCIETY INC.
Collection (C) 2018 copyright by the U.S. Secretary of Commerce
on behalf of the United States of America. All rights reserved.
##DATE=1965/10/19
##MOLFORM=C4 H8 Mg N2 O4
##SOURCE REFERENCE=COBLENTZ NO. 07151
##$NIST ID=B6007151
##$NIST SOURCE=COBLENTZ
##$NIST IMAGE=cob7151
##SPECTROMETER/DATA SYSTEM=DOW KBr FOREPRISM-GRATING
##INSTRUMENT PARAMETERS=BLAZED AT 3.5, 12.0, 20.0 MICRON AND CHANGED AT 5.0, 7.5, 14.9 MICRON
##STATE=SOLID (SPLIT MULL), FLUOROLUBE FOR 3800-1330 CM^-^1, NUJOL FOR 1330-450 CM^-^1
$$ SPECTRAL FEATURE AT 1988 CM^-^1 IS AN ARTIFACT CAUSED BY GRATING CHANGE
##SAMPLING PROCEDURE=TRANSMISSION
##RESOLUTION=2
##DATA PROCESSING=DIGITIZED BY COBLENTZ SOCIETY (BATCH I) FROM HARD COPY
##XUNITS=1/CM
##YUNITS=TRANSMITTANCE
##XFACTOR=1
##YFACTOR=1
##DELTAX=1
##FIRSTX=3798
##LASTX=454
##FIRSTY=0.8545
##MAXX=3798
##MINX=454
##MAXY=0.9004
##MINY=0.0618
##NPOINTS=3345
##XYDATA=(X++(Y..Y))
3798.000000 0.8545 0.8545 0.8546 0.8546 0.8547
3793.000000 0.8548 0.8549 0.8549 0.8550 0.8550
3788.000000 0.8551 0.8552 0.8553 0.8553 0.8554
3783.000000 0.8554 0.8555 0.8556 0.8557 0.8557
3778.000000 0.8558 0.8558 0.8559 0.8560 0.8561
3773.000000 0.8562 0.8564 0.8565 0.8567 0.8568
3768.000000 0.8570 0.8571 0.8573 0.8574 0.8575
3763.000000 0.8577 0.8578 0.8580 0.8582 0.8583
3758.000000 0.8585 0.8586 0.8588 0.8589 0.8591
3753.000000 0.8592 0.8594 0.8596 0.8598 0.8600
3748.000000 0.8602 0.8604 0.8606 0.8608 0.8610
3743.000000 0.8612 0.8614 0.8616 0.8618 0.8620
3738.000000 0.8621 0.8624 0.8625 0.8628 0.8630
3733.000000 0.8632 0.8634 0.8636 0.8638 0.8640
3728.000000 0.8643 0.8645 0.8647 0.8649 0.8652
3723.000000 0.8654 0.8657 0.8659 0.8662 0.8664
3718.000000 0.8667 0.8668 0.8671 0.8674 0.8677
3713.000000 0.8678 0.8682 0.8684 0.8687 0.8688
3708.000000 0.8690 0.8692 0.8694 0.8696 0.8698
3703.000000 0.8699 0.8701 0.8703 0.8704 0.8704
3698.000000 0.8704 0.8703 0.8703 0.8702 0.8701
3693.000000 0.8696 0.8691 0.8685 0.8680 0.8674
3688.000000 0.8668 0.8667 0.8665 0.8665 0.8665
3683.000000 0.8668 0.8674 0.8678 0.8682 0.8686
3678.000000 0.8691 0.8695 0.8699 0.8703 0.8708
3673.000000 0.8709 0.8711 0.8712 0.8714 0.8715
3668.000000 0.8717 0.8718 0.8720 0.8721 0.8723
3663.000000 0.8724 0.8725 0.8725 0.8725 0.8725
3658.000000 0.8725 0.8727 0.8728 0.8728 0.8728
3653.000000 0.8728 0.8730 0.8730 0.8731 0.8731
3648.000000 0.8732 0.8732 0.8733 0.8733 0.8733
3643.000000 0.8732 0.8732 0.8731 0.8731 0.8731
3638.000000 0.8731 0.8730 0.8730 0.8728 0.8728
3633.000000 0.8728 0.8728 0.8727 0.8727 0.8725
3628.000000 0.8725 0.8723 0.8721 0.8718 0.8718
3623.000000 0.8716 0.8714 0.8712 0.8711 0.8708
3618.000000 0.8705 0.8702 0.8700 0.8697 0.8694
3613.000000 0.8691 0.8689 0.8686 0.8683 0.8678
3608.000000 0.8673 0.8668 0.8663 0.8658 0.8654
3603.000000 0.8633 0.8612 0.8600 0.8588 0.8591
3598.000000 0.8595 0.8598 0.8601 0.8604 0.8607
3593.000000 0.8610 0.8614 0.8617 0.8620 0.8620
3588.000000 0.8620 0.8620 0.8618 0.8618 0.8617
3583.000000 0.8613 0.8609 0.8603 0.8598 0.8580
3578.000000 0.8563 0.8525 0.8490 0.8413 0.8337
3573.000000 0.8341 0.8346 0.8364 0.8383 0.8408
3568.000000 0.8434 0.8452 0.8470 0.8468 0.8467
3563.000000 0.8462 0.8458 0.8451 0.8445 0.8437
3558.000000 0.8428 0.8421 0.8414 0.8406 0.8399
3553.000000 0.8391 0.8383 0.8374 0.8366 0.8357
3548.000000 0.8348 0.8339 0.8331 0.8321 0.8313
3543.000000 0.8304 0.8295 0.8284 0.8274 0.8263
3538.000000 0.8253 0.8242 0.8231 0.8220 0.8210
3533.000000 0.8199 0.8189 0.8178 0.8167 0.8156
3528.000000 0.8146 0.8135 0.8125 0.8111 0.8100
3523.000000 0.8086 0.8072 0.8060 0.8047 0.8033
3518.000000 0.8019 0.8006 0.7993 0.7978 0.7965
3513.000000 0.7951 0.7939 0.7922 0.7908 0.7891
3508.000000 0.7875 0.7858 0.7841 0.7824 0.7808
3503.000000 0.7791 0.7774 0.7756 0.7739 0.7719
3498.000000 0.7701 0.7684 0.7665 0.7648 0.7630
3493.000000 0.7611 0.7594 0.7572 0.7551 0.7528
3488.000000 0.7505 0.7482 0.7458 0.7436 0.7412
3483.000000 0.7390 0.7367 0.7344 0.7321 0.7299
3478.000000 0.7275 0.7253 0.7231 0.7208 0.7185
3473.000000 0.7156 0.7126 0.7098 0.7069 0.7041
3468.000000 0.7011 0.6983 0.6954 0.6925 0.6899
3463.000000 0.6871 0.6843 0.6815 0.6788 0.6760
3458.000000 0.6733 0.6705 0.6676 0.6649 0.6621
3453.000000 0.6595 0.6568 0.6543 0.6518 0.6492
3448.000000 0.6465 0.6440 0.6415 0.6389 0.6364
3443.000000 0.6335 0.6306 0.6275 0.6244 0.6212
3438.000000 0.6182 0.6151 0.6120 0.6089 0.6058
3433.000000 0.6026 0.5995 0.5962 0.5931 0.5899
3428.000000 0.5868 0.5836 0.5804 0.5771 0.5738
3423.000000 0.5688 0.5639 0.5589 0.5540 0.5493
3418.000000 0.5446 0.5415 0.5385 0.5354 0.5323
3413.000000 0.5292 0.5260 0.5239 0.5217 0.5198
3408.000000 0.5179 0.5159 0.5140 0.5115 0.5090
3403.000000 0.5041 0.4993 0.4973 0.4953 0.4928
3398.000000 0.4903 0.4871 0.4840 0.4795 0.4751
3393.000000 0.4710 0.4672 0.4637 0.4603 0.4569
3388.000000 0.4535 0.4500 0.4466 0.4434 0.4403
3383.000000 0.4371 0.4340 0.4308 0.4277 0.4246
3378.000000 0.4215 0.4160 0.4107 0.4018 0.3929
3373.000000 0.3843 0.3758 0.3670 0.3582 0.3487
3368.000000 0.3393 0.3084 0.2776 0.2696 0.2617
3363.000000 0.2525 0.2433 0.2276 0.2119 0.2103
3358.000000 0.2087 0.2080 0.2073 0.2068 0.2063
3353.000000 0.2057 0.2051 0.2044 0.2036 0.2031
3348.000000 0.2026 0.1958 0.1891 0.1778 0.1666
3343.000000 0.1554 0.1442 0.1427 0.1412 0.1415
3338.000000 0.1419 0.1495 0.1401 0.1646 0.1723
3333.000000 0.1799 0.1875 0.1950 0.2026 0.2102
3328.000000 0.2178 0.2254 0.2330 0.2406 0.2482
3323.000000 0.2557 0.2633 0.2709 0.2784 0.2820
3318.000000 0.2913 0.2843 0.2832 0.2817 0.2802
3313.000000 0.2760 0.2718 0.2655 0.2592 0.2526
3308.000000 0.2461 0.2426 0.2392 0.2374 0.2357
3303.000000 0.2339 0.2322 0.2303 0.2284 0.2266
3298.000000 0.2247 0.2228 0.2210 0.2184 0.2161
3293.000000 0.2135 0.2112 0.2087 0.2062 0.2035
3288.000000 0.2011 0.1993 0.1976 0.1964 0.1952
3283.000000 0.1941 0.1929 0.1921 0.1913 0.1915
3278.000000 0.1917 0.1919 0.1922 0.1922 0.1923
3273.000000 0.1923 0.1923 0.1922 0.1922 0.1922
3268.000000 0.1922 0.1922 0.1922 0.1921 0.1921
3263.000000 0.1919 0.1917 0.1914 0.1912 0.1910
3258.000000 0.1908 0.1906 0.1904 0.1902 0.1900
3253.000000 0.1894 0.1891 0.1882 0.1874 0.1860
3248.000000 0.1845 0.1829 0.1813 0.1804 0.1795
3243.000000 0.1786 0.1779 0.1770 0.1762 0.1753
3238.000000 0.1744 0.1735 0.1727 0.1718 0.1710
3233.000000 0.1701 0.1693 0.1685 0.1679 0.1671
3228.000000 0.1664 0.1657 0.1650 0.1642 0.1634
3223.000000 0.1627 0.1620 0.1613 0.1606 0.1592
3218.000000 0.1578 0.1566 0.1555 0.1545 0.1536
3213.000000 0.1526 0.1517 0.1510 0.1503 0.1495
3208.000000 0.1487 0.1479 0.1471 0.1464 0.1464
3203.000000 0.1464 0.1470 0.1475 0.1481 0.1491
3198.000000 0.1502 0.1512 0.1522 0.1532 0.1542
3193.000000 0.1553 0.1563 0.1573 0.1584 0.1598
3188.000000 0.1612 0.1626 0.1640 0.1653 0.1667
3183.000000 0.1681 0.1694 0.1709 0.1723 0.1739
3178.000000 0.1754 0.1772 0.1789 0.1806 0.1823
3173.000000 0.1829 0.1837 0.1844 0.1853 0.1861
3168.000000 0.1869 0.1876 0.1884 0.1891 0.1899
3163.000000 0.1907 0.1915 0.1922 0.1929 0.1936
3158.000000 0.1944 0.1953 0.1962 0.1971 0.1979
3153.000000 0.1989 0.1998 0.2007 0.2017 0.2026
3148.000000 0.2034 0.2044 0.2053 0.2062 0.2071
3143.000000 0.2080 0.2089 0.2098 0.2107 0.2116
3138.000000 0.2126 0.2134 0.2144 0.2153 0.2162
3133.000000 0.2172 0.2182 0.2192 0.2203 0.2213
3128.000000 0.2224 0.2234 0.2245 0.2255 0.2266
3123.000000 0.2276 0.2287 0.2297 0.2308 0.2318
3118.000000 0.2329 0.2339 0.2349 0.2359 0.2370
3113.000000 0.2381 0.2393 0.2406 0.2420 0.2433
3108.000000 0.2447 0.2460 0.2474 0.2488 0.2502
3103.000000 0.2515 0.2529 0.2542 0.2556 0.2569
3098.000000 0.2583 0.2596 0.2610 0.2623 0.2637
3093.000000 0.2650 0.2664 0.2677 0.2691 0.2704
3088.000000 0.2718 0.2731 0.2745 0.2759 0.2774
3083.000000 0.2788 0.2802 0.2816 0.2831 0.2845
3078.000000 0.2859 0.2873 0.2888 0.2902 0.2916
3073.000000 0.2930 0.2945 0.2959 0.2974 0.2988
3068.000000 0.3002 0.3016 0.3031 0.3045 0.3059
3063.000000 0.3075 0.3091 0.3106 0.3122 0.3138
3058.000000 0.3154 0.3169 0.3184 0.3200 0.3216
3053.000000 0.3232 0.3248 0.3264 0.3280 0.3296
3048.000000 0.3312 0.3327 0.3343 0.3359 0.3375
3043.000000 0.3391 0.3408 0.3424 0.3441 0.3458
3038.000000 0.3475 0.3491 0.3508 0.3525 0.3542
3033.000000 0.3558 0.3575 0.3591 0.3608 0.3625
3028.000000 0.3642 0.3658 0.3675 0.3691 0.3708
3023.000000 0.3724 0.3741 0.3756 0.3772 0.3787
3018.000000 0.3803 0.3818 0.3834 0.3849 0.3864
3013.000000 0.3880 0.3895 0.3909 0.3926 0.3941
3008.000000 0.3957 0.3972 0.3988 0.4003 0.4018
3003.000000 0.4037 0.4056 0.4075 0.4095 0.4115
2998.000000 0.4135 0.4155 0.4175 0.4195 0.4215
2993.000000 0.4235 0.4256 0.4282 0.4308 0.4334
2988.000000 0.4360 0.4387 0.4414 0.4441 0.4468
2983.000000 0.4495 0.4522 0.4547 0.4573 0.4592
2978.000000 0.4612 0.4631 0.4650 0.4662 0.4677
2973.000000 0.4689 0.4702 0.4712 0.4724 0.4733
2968.000000 0.4743 0.4751 0.4759 0.4760 0.4762
2963.000000 0.4762 0.4762 0.4762 0.4762 0.4758
2958.000000 0.4755 0.4734 0.4712 0.4690 0.4533
2953.000000 0.4616 0.4565 0.4557 0.4550 0.4548
2948.000000 0.4547 0.4560 0.4576 0.4598 0.4670
2943.000000 0.4630 0.4640 0.4640 0.4641 0.4621
2938.000000 0.4601 0.4547 0.4493 0.4460 0.4429
2933.000000 0.4401 0.4375 0.4371 0.4370 0.4370
2928.000000 0.4372 0.4377 0.4382 0.4402 0.4422
2923.000000 0.4450 0.4478 0.4514 0.4550 0.4588
2918.000000 0.4626 0.4679 0.4732 0.4774 0.4817
2913.000000 0.4857 0.4897 0.4943 0.4990 0.5036
2908.000000 0.5082 0.5120 0.5159 0.5198 0.5237
2903.000000 0.5280 0.5324 0.5367 0.5410 0.5435
2898.000000 0.5459 0.5480 0.5501 0.5522 0.5543
2893.000000 0.5564 0.5585 0.5606 0.5627 0.5648
2888.000000 0.5670 0.5691 0.5712 0.5734 0.5755
2883.000000 0.5776 0.5798 0.5819 0.5841 0.5857
2878.000000 0.5874 0.5888 0.5903 0.5917 0.5931
2873.000000 0.5943 0.5956 0.5967 0.5979 0.5990
2868.000000 0.6001 0.6012 0.6023 0.6033 0.6044
2863.000000 0.6054 0.6065 0.6075 0.6086 0.6086
2858.000000 0.6085 0.6085 0.6083 0.6081 0.6079
2853.000000 0.6075 0.6072 0.6068 0.6064 0.6062
2848.000000 0.6062 0.6074 0.6085 0.6106 0.6127
2843.000000 0.6148 0.6170 0.6191 0.6212 0.6232
2838.000000 0.6252 0.6267 0.6282 0.6297 0.6312
2833.000000 0.6327 0.6342 0.6356 0.6371 0.6386
2828.000000 0.6401 0.6415 0.6431 0.6444 0.6457
2823.000000 0.6469 0.6484 0.6497 0.6511 0.6524
2818.000000 0.6537 0.6550 0.6564 0.6576 0.6590
2813.000000 0.6603 0.6617 0.6630 0.6644 0.6657
2808.000000 0.6669 0.6681 0.6692 0.6703 0.6714
2803.000000 0.6725 0.6736 0.6747 0.6758 0.6768
2798.000000 0.6780 0.6791 0.6801 0.6811 0.6822
2793.000000 0.6834 0.6845 0.6856 0.6867 0.6878
2788.000000 0.6890 0.6901 0.6914 0.6925 0.6938
2783.000000 0.6949 0.6961 0.6972 0.6985 0.6997
2778.000000 0.7008 0.7018 0.7030 0.7040 0.7050
2773.000000 0.7060 0.7071 0.7081 0.7092 0.7101
2768.000000 0.7111 0.7121 0.7133 0.7143 0.7154
2763.000000 0.7164 0.7175 0.7184 0.7194 0.7203
2758.000000 0.7212 0.7221 0.7231 0.7240 0.7250
2753.000000 0.7258 0.7268 0.7278 0.7288 0.7297
2748.000000 0.7307 0.7315 0.7325 0.7334 0.7344
2743.000000 0.7353 0.7361 0.7371 0.7380 0.7389
2738.000000 0.7398 0.7405 0.7411 0.7418 0.7425
2733.000000 0.7431 0.7437 0.7443 0.7449 0.7455
2728.000000 0.7461 0.7467 0.7472 0.7478 0.7485
2723.000000 0.7491 0.7497 0.7503 0.7508 0.7515
2718.000000 0.7521 0.7525 0.7531 0.7536 0.7542
2713.000000 0.7547 0.7553 0.7558 0.7562 0.7568
2708.000000 0.7574 0.7578 0.7585 0.7590 0.7595
2703.000000 0.7600 0.7606 0.7611 0.7615 0.7621
2698.000000 0.7626 0.7632 0.7638 0.7643 0.7648
2693.000000 0.7653 0.7658 0.7664 0.7669 0.7675
2688.000000 0.7681 0.7686 0.7691 0.7696 0.7701
2683.000000 0.7707 0.7712 0.7718 0.7724 0.7728
2678.000000 0.7734 0.7739 0.7745 0.7750 0.7756
2673.000000 0.7761 0.7765 0.7771 0.7776 0.7781
2668.000000 0.7786 0.7790 0.7795 0.7799 0.7804
2663.000000 0.7808 0.7811 0.7815 0.7821 0.7825
2658.000000 0.7830 0.7834 0.7838 0.7842 0.7847
2653.000000 0.7851 0.7856 0.7860 0.7864 0.7868
2648.000000 0.7871 0.7875 0.7880 0.7884 0.7888
2643.000000 0.7892 0.7896 0.7900 0.7904 0.7908
2638.000000 0.7911 0.7915 0.7919 0.7918 0.7918
2633.000000 0.7918 0.7918 0.7917 0.7917 0.7915
2628.000000 0.7915 0.7917 0.7918 0.7919 0.7921
2623.000000 0.7922 0.7925 0.7925 0.7928 0.7930
2618.000000 0.7933 0.7936 0.7939 0.7941 0.7944
2613.000000 0.7947 0.7950 0.7953 0.7956 0.7958
2608.000000 0.7961 0.7964 0.7967 0.7968 0.7971
2603.000000 0.7975 0.8003 0.7980 0.7983 0.7985
2598.000000 0.7987 0.7988 0.7990 0.7992 0.7994
2593.000000 0.7996 0.7998 0.8000 0.8001 0.8004
2588.000000 0.8006 0.8008 0.8010 0.8011 0.8014
2583.000000 0.8015 0.8018 0.8018 0.8018 0.8018
2578.000000 0.8018 0.8015 0.8014 0.8011 0.8011
2573.000000 0.8008 0.8008 0.8006 0.8005 0.8003
2568.000000 0.8001 0.8000 0.7998 0.7996 0.7995
2563.000000 0.7993 0.7991 0.7987 0.7984 0.7980
2558.000000 0.7976 0.7972 0.7969 0.7965 0.7962
2553.000000 0.7958 0.7956 0.7953 0.7950 0.7946
2548.000000 0.7943 0.7939 0.7936 0.7932 0.7928
2543.000000 0.7925 0.7921 0.7918 0.7915 0.7911
2538.000000 0.7908 0.7905 0.7901 0.7899 0.7896
2533.000000 0.7893 0.7890 0.7887 0.7884 0.7881
2528.000000 0.7878 0.7875 0.7871 0.7868 0.7865
2523.000000 0.7862 0.7860 0.7858 0.7858 0.7858
2518.000000 0.7858 0.7858 0.7858 0.7858 0.7860
2513.000000 0.7860 0.7860 0.7860 0.7861 0.7861
2508.000000 0.7861 0.7861 0.7861 0.7861 0.7861
2503.000000 0.7861 0.7862 0.7862 0.7864 0.7864
2498.000000 0.7865 0.7865 0.7865 0.7865 0.7867
2493.000000 0.7867 0.7868 0.7868 0.7868 0.7868
2488.000000 0.7868 0.7868 0.7868 0.7867 0.7865
2483.000000 0.7864 0.7862 0.7861 0.7860 0.7858
2478.000000 0.7858 0.7856 0.7855 0.7853 0.7851
2473.000000 0.7850 0.7849 0.7848 0.7847 0.7845
2468.000000 0.7844 0.7842 0.7841 0.7840 0.7839
2463.000000 0.7837 0.7835 0.7832 0.7830 0.7826
2458.000000 0.7824 0.7821 0.7818 0.7815 0.7814
2453.000000 0.7811 0.7808 0.7806 0.7804 0.7801
2448.000000 0.7799 0.7796 0.7794 0.7791 0.7789
2443.000000 0.7786 0.7783 0.7781 0.7778 0.7776
2438.000000 0.7775 0.7772 0.7771 0.7768 0.7767
2433.000000 0.7765 0.7762 0.7761 0.7758 0.7758
2428.000000 0.7757 0.7756 0.7756 0.7755 0.7755
2423.000000 0.7754 0.7753 0.7751 0.7751 0.7751
2418.000000 0.7751 0.7750 0.7749 0.7748 0.7748
2413.000000 0.7747 0.7746 0.7745 0.7745 0.7744
2408.000000 0.7744 0.7743 0.7742 0.7741 0.7741
2403.000000 0.7740 0.7740 0.7740 0.7741 0.7741
2398.000000 0.7742 0.7743 0.7744 0.7745 0.7746
2393.000000 0.7747 0.7748 0.7748 0.7749 0.7750
2388.000000 0.7751 0.7751 0.7753 0.7753 0.7754
2383.000000 0.7755 0.7756 0.7757 0.7758 0.7758
2378.000000 0.7760 0.7761 0.7761 0.7762 0.7764
2373.000000 0.7765 0.7765 0.7767 0.7768 0.7768
2368.000000 0.7769 0.7771 0.7772 0.7774 0.7775
2363.000000 0.7775 0.7776 0.7778 0.7778 0.7780
2358.000000 0.7781 0.7782 0.7783 0.7784 0.7786
2353.000000 0.7787 0.7788 0.7789 0.7790 0.7791
2348.000000 0.7792 0.7793 0.7794 0.7795 0.7797
2343.000000 0.7798 0.7799 0.7800 0.7795 0.7801
2338.000000 0.7804 0.7805 0.7806 0.7807 0.7808
2333.000000 0.7808 0.7811 0.7811 0.7812 0.7814
2328.000000 0.7815 0.7817 0.7818 0.7818 0.7821
2323.000000 0.7821 0.7822 0.7824 0.7825 0.7828
2318.000000 0.7830 0.7832 0.7835 0.7837 0.7839
2313.000000 0.7841 0.7844 0.7846 0.7848 0.7850
2308.000000 0.7851 0.7854 0.7857 0.7860 0.7864
2303.000000 0.7868 0.7874 0.7878 0.7883 0.7888
2298.000000 0.7893 0.7898 0.7904 0.7911 0.7918
2293.000000 0.7924 0.7931 0.7937 0.7944 0.7951
2288.000000 0.7958 0.7964 0.7971 0.7976 0.7984
2283.000000 0.7990 0.7997 0.8004 0.8011 0.8017
2278.000000 0.8022 0.8028 0.8034 0.8039 0.8045
2273.000000 0.8050 0.8055 0.8060 0.8065 0.8071
2268.000000 0.8076 0.8082 0.8087 0.8092 0.8098
2263.000000 0.8103 0.8108 0.8111 0.8115 0.8118
2258.000000 0.8121 0.8125 0.8128 0.8131 0.8135
2253.000000 0.8138 0.8141 0.8144 0.8147 0.8150
2248.000000 0.8154 0.8157 0.8160 0.8162 0.8167
2243.000000 0.8169 0.8172 0.8175 0.8180 0.8183
2238.000000 0.8186 0.8189 0.8193 0.8196 0.8199
2233.000000 0.8203 0.8207 0.8211 0.8216 0.8220
2228.000000 0.8224 0.8228 0.8233 0.8237 0.8241
2223.000000 0.8245 0.8250 0.8254 0.8258 0.8262
2218.000000 0.8267 0.8271 0.8275 0.8278 0.8283
2213.000000 0.8287 0.8292 0.8296 0.8300 0.8304
2208.000000 0.8308 0.8312 0.8317 0.8321 0.8325
2203.000000 0.8328 0.8333 0.8337 0.8342 0.8346
2198.000000 0.8350 0.8354 0.8358 0.8362 0.8366
2193.000000 0.8370 0.8375 0.8378 0.8383 0.8387
2188.000000 0.8391 0.8395 0.8400 0.8404 0.8408
2183.000000 0.8412 0.8417 0.8421 0.8425 0.8428
2178.000000 0.8434 0.8438 0.8442 0.8446 0.8451
2173.000000 0.8455 0.8459 0.8463 0.8468 0.8471
2168.000000 0.8477 0.8481 0.8485 0.8489 0.8494
2163.000000 0.8498 0.8502 0.8506 0.8511 0.8515
2158.000000 0.8518 0.8523 0.8527 0.8530 0.8534
2153.000000 0.8537 0.8541 0.8544 0.8548 0.8551
2148.000000 0.8555 0.8558 0.8562 0.8565 0.8568
2143.000000 0.8571 0.8575 0.8578 0.8583 0.8586
2138.000000 0.8590 0.8593 0.8596 0.8599 0.8603
2133.000000 0.8606 0.8610 0.8613 0.8617 0.8620
2128.000000 0.8624 0.8627 0.8631 0.8635 0.8639
2123.000000 0.8643 0.8647 0.8651 0.8655 0.8659
2118.000000 0.8663 0.8667 0.8671 0.8675 0.8678
2113.000000 0.8683 0.8687 0.8691 0.8695 0.8699
2108.000000 0.8703 0.8707 0.8711 0.8714 0.8718
2103.000000 0.8721 0.8725 0.8728 0.8733 0.8736
2098.000000 0.8740 0.8744 0.8748 0.8751 0.8755
2093.000000 0.8758 0.8762 0.8766 0.8770 0.8773
2088.000000 0.8777 0.8781 0.8785 0.8788 0.8792
2083.000000 0.8795 0.8798 0.8801 0.8804 0.8807
2078.000000 0.8810 0.8812 0.8815 0.8818 0.8821
2073.000000 0.8824 0.8827 0.8828 0.8832 0.8835
2068.000000 0.8838 0.8841 0.8844 0.8846 0.8799
2063.000000 0.8852 0.8855 0.8857 0.8860 0.8863
2058.000000 0.8866 0.8868 0.8871 0.8874 0.8877
2053.000000 0.8880 0.8883 0.8885 0.8888 0.8891
2048.000000 0.8894 0.8897 0.8900 0.8902 0.8905
2043.000000 0.8908 0.8911 0.8913 0.8915 0.8917
2038.000000 0.8918 0.8921 0.8923 0.8924 0.8925
2033.000000 0.8928 0.8930 0.8932 0.8934 0.8936
2028.000000 0.8938 0.8940 0.8942 0.8944 0.8946
2023.000000 0.8948 0.8951 0.8953 0.8955 0.8957
2018.000000 0.8960 0.8962 0.8964 0.8966 0.8968
2013.000000 0.8970 0.8971 0.8973 0.8975 0.8977
2008.000000 0.8978 0.8980 0.8982 0.8985 0.8989
2003.000000 0.8993 0.8997 0.9000 0.9003 0.9003
1998.000000 0.9004 0.9004 0.8991 0.8975 0.8953
1993.000000 0.8930 0.8908 0.8886 0.8870 0.8854
1988.000000 0.8839 0.8837 0.8836 0.8834 0.8833
1983.000000 0.8832 0.8833 0.8834 0.8836 0.8838
1978.000000 0.8839 0.8843 0.8846 0.8850 0.8854
1973.000000 0.8858 0.8862 0.8865 0.8868 0.8873
1968.000000 0.8877 0.8881 0.8884 0.8888 0.8892
1963.000000 0.8897 0.8900 0.8904 0.8907 0.8911
1958.000000 0.8914 0.8918 0.8931 0.8943 0.8940
1953.000000 0.8931 0.8921 0.8912 0.8901 0.8897
1948.000000 0.8898 0.8899 0.8900 0.8901 0.8902
1943.000000 0.8903 0.8904 0.8904 0.8904 0.8903
1938.000000 0.8902 0.8902 0.8901 0.8900 0.8899
1933.000000 0.8899 0.8898 0.8897 0.8896 0.8896
1928.000000 0.8895 0.8894 0.8893 0.8893 0.8892
1923.000000 0.8892 0.8893 0.8893 0.8894 0.8894
1918.000000 0.8895 0.8895 0.8896 0.8897 0.8897
1913.000000 0.8898 0.8898 0.8899 0.8899 0.8900
1908.000000 0.8900 0.8901 0.8901 0.8902 0.8903
1903.000000 0.8903 0.8903 0.8903 0.8902 0.8902
1898.000000 0.8902 0.8901 0.8901 0.8900 0.8898
1893.000000 0.8896 0.8895 0.8893 0.8891 0.8889
1888.000000 0.8887 0.8885 0.8883 0.8880 0.8878
1883.000000 0.8875 0.8873 0.8870 0.8868 0.8865
1878.000000 0.8863 0.8860 0.8858 0.8857 0.8855
1873.000000 0.8854 0.8853 0.8852 0.8851 0.8850
1868.000000 0.8848 0.8846 0.8843 0.8840 0.8838
1863.000000 0.8835 0.8832 0.8830 0.8827 0.8825
1858.000000 0.8825 0.8823 0.8823 0.8823 0.8823
1853.000000 0.8824 0.8825 0.8825 0.8825 0.8827
1848.000000 0.8827 0.8828 0.8828 0.8828 0.8830
1843.000000 0.8830 0.8831 0.8832 0.8832 0.8833
1838.000000 0.8834 0.8834 0.8833 0.8832 0.8832
1833.000000 0.8831 0.8830 0.8828 0.8828 0.8827
1828.000000 0.8825 0.8825 0.8824 0.8823 0.8821
1823.000000 0.8818 0.8815 0.8812 0.8810 0.8807
1818.000000 0.8804 0.8801 0.8799 0.8796 0.8793
1813.000000 0.8790 0.8785 0.8780 0.8774 0.8768
1808.000000 0.8763 0.8757 0.8752 0.8746 0.8740
1803.000000 0.8735 0.8728 0.8724 0.8717 0.8709
1798.000000 0.8700 0.8692 0.8683 0.8675 0.8666
1793.000000 0.8656 0.8645 0.8633 0.8621 0.8609
1788.000000 0.8598 0.8586 0.8574 0.8560 0.8546
1783.000000 0.8531 0.8517 0.8502 0.8488 0.8473
1778.000000 0.8457 0.8441 0.8425 0.8410 0.8394
1773.000000 0.8378 0.8348 0.8312 0.8275 0.8241
1768.000000 0.8199 0.8150 0.8101 0.8053 0.8011
1763.000000 0.7969 0.7928 0.7888 0.7850 0.7817
1758.000000 0.7784 0.7751 0.7718 0.7685 0.7651
1753.000000 0.7618 0.7584 0.7550 0.7515 0.7482
1748.000000 0.7448 0.7414 0.7380 0.7354 0.7328
1743.000000 0.7303 0.7278 0.7254 0.7239 0.7225
1738.000000 0.7210 0.7197 0.7190 0.7182 0.7174
1733.000000 0.7165 0.7160 0.7157 0.7153 0.7150
1728.000000 0.7147 0.7118 0.7140 0.7137 0.7132
1723.000000 0.7125 0.7121 0.7115 0.7110 0.7105
1718.000000 0.7100 0.7095 0.7089 0.7080 0.7071
1713.000000 0.7061 0.7054 0.7045 0.7036 0.7025
1708.000000 0.7012 0.7000 0.6988 0.6975 0.6960
1703.000000 0.6940 0.6919 0.6900 0.6883 0.6865
1698.000000 0.6850 0.6833 0.6815 0.6800 0.6783
1693.000000 0.6767 0.6750 0.6733 0.6717 0.6701
1688.000000 0.6685 0.6664 0.6644 0.6624 0.6603
1683.000000 0.6583 0.6557 0.6525 0.6496 0.6467
1678.000000 0.6439 0.6411 0.6385 0.6358 0.6329
1673.000000 0.6298 0.6267 0.6236 0.6199 0.6159
1668.000000 0.6118 0.6078 0.6037 0.5976 0.5914
1663.000000 0.5853 0.5791 0.5729 0.5655 0.5550
1658.000000 0.5445 0.5342 0.5238 0.5134 0.4935
1653.000000 0.4759 0.4628 0.4502 0.4385 0.4268
1648.000000 0.3930 0.3534 0.3339 0.3166 0.2979
1643.000000 0.2816 0.2667 0.2525 0.2435 0.2373
1638.000000 0.2310 0.2248 0.2131 0.1828 0.1789
1633.000000 0.1751 0.1713 0.1644 0.1539 0.1526
1628.000000 0.1512 0.1502 0.1491 0.1481 0.1469
1623.000000 0.1292 0.1175 0.1090 0.1002 0.0906
1618.000000 0.0813 0.0793 0.0778 0.0765 0.0717
1613.000000 0.0758 0.0774 0.1056 0.1226 0.1431
1608.000000 0.1568 0.1654 0.1728 0.1793 0.1870
1603.000000 0.1885 0.1893 0.1895 0.1984 0.1863
1598.000000 0.1766 0.1657 0.1535 0.1412 0.1329
1593.000000 0.1246 0.1160 0.1072 0.0991 0.0938
1588.000000 0.0886 0.0836 0.0789 0.0746 0.0714
1583.000000 0.0691 0.0668 0.0644 0.0640 0.0618
1578.000000 0.0636 0.0636 0.0654 0.0697 0.0742
1573.000000 0.0793 0.0843 0.0895 0.0947 0.1001
1568.000000 0.1054 0.1123 0.1267 0.1345 0.1404
1563.000000 0.1463 0.1522 0.1581 0.1640 0.1702
1558.000000 0.1763 0.1824 0.1884 0.1979 0.2081
1553.000000 0.2183 0.2275 0.2367 0.2459 0.2550
1548.000000 0.2622 0.2691 0.2761 0.2830 0.2900
1543.000000 0.2969 0.3038 0.3108 0.3177 0.3247
1538.000000 0.3316 0.3386 0.3459 0.3539 0.3618
1533.000000 0.3698 0.3778 0.3852 0.3922 0.3991
1528.000000 0.4060 0.4131 0.4185 0.4234 0.4284
1523.000000 0.4333 0.4383 0.4433 0.4482 0.4534
1518.000000 0.4586 0.4639 0.4691 0.4743 0.4796
1513.000000 0.4845 0.4892 0.4939 0.4986 0.5034
1508.000000 0.5081 0.5117 0.5152 0.5186 0.5220
1503.000000 0.5254 0.5289 0.5324 0.5365 0.5406
1498.000000 0.5448 0.5485 0.5518 0.5551 0.5584
1493.000000 0.5618 0.5651 0.5685 0.5710 0.5736
1488.000000 0.5760 0.5782 0.5795 0.5809 0.5822
1483.000000 0.5836 0.5853 0.5879 0.5890 0.5899
1478.000000 0.5909 0.5917 0.5925 0.5930 0.5981
1473.000000 0.5926 0.5915 0.5892 0.5868 0.5837
1468.000000 0.5805 0.5774 0.5742 0.5697 0.5651
1463.000000 0.5605 0.5562 0.5528 0.5495 0.5460
1458.000000 0.5428 0.5394 0.5360 0.5326 0.5292
1453.000000 0.5251 0.5210 0.5170 0.5129 0.5088
1448.000000 0.5032 0.4974 0.4918 0.4862 0.4807
1443.000000 0.4742 0.4717 0.4698 0.4702 0.4899
1438.000000 0.5182 0.5505 0.5612 0.5712 0.5846
1433.000000 0.5917 0.5930 0.5931 0.5932 0.5933
1428.000000 0.5948 0.5926 0.5906 0.5871 0.5704
1423.000000 0.5495 0.5268 0.4684 0.4382 0.4064
1418.000000 0.3745 0.3426 0.3108 0.2789 0.2470
1413.000000 0.2151 0.1833 0.1514 0.1195 0.0936
1408.000000 0.0946 0.1029 0.1295 0.1561 0.1827
1403.000000 0.2092 0.2358 0.2624 0.3732 0.3839
1398.000000 0.3945 0.4052 0.4159 0.4262 0.4366
1393.000000 0.4469 0.4568 0.4660 0.4753 0.4839
1388.000000 0.4906 0.4973 0.5040 0.5107 0.5173
1383.000000 0.5239 0.5304 0.5370 0.5433 0.5472
1378.000000 0.5510 0.5549 0.5588 0.5626 0.5657
1373.000000 0.5689 0.5720 0.5748 0.5772 0.5796
1368.000000 0.5819 0.5849 0.5891 0.5916 0.5941
1363.000000 0.5962 0.5981 0.5981 0.5980 0.5974
1358.000000 0.5967 0.5960 0.5950 0.5937 0.5923
1353.000000 0.5894 0.5845 0.5698 0.5519 0.5300
1348.000000 0.5143 0.5034 0.4865 0.4778 0.4725
1343.000000 0.4687 0.4683 0.4684 0.4685 0.4735
1338.000000 0.4873 0.4976 0.5062 0.5137 0.5191
1333.000000 0.5242 0.5214 0.5209 0.5077 0.4891
1328.000000 0.4624 0.4259 0.3895 0.3530 0.3165
1323.000000 0.2801 0.2435 0.2071 0.1978 0.2012
1318.000000 0.2095 0.2301 0.2508 0.2714 0.2921
1313.000000 0.3112 0.3230 0.3349 0.3462 0.3570
1308.000000 0.3680 0.3794 0.3908 0.4016 0.4112
1303.000000 0.4207 0.4303 0.4373 0.4426 0.4480
1298.000000 0.4533 0.4586 0.4640 0.4693 0.4747
1293.000000 0.4802 0.4856 0.4910 0.4964 0.5018
1288.000000 0.5073 0.5117 0.5158 0.5199 0.5239
1283.000000 0.5280 0.5321 0.5360 0.5405 0.5448
1278.000000 0.5492 0.5535 0.5579 0.5622 0.5660
1273.000000 0.5689 0.5719 0.5748 0.5777 0.5807
1268.000000 0.5836 0.5865 0.5893 0.5922 0.5950
1263.000000 0.5978 0.6007 0.6035 0.6064 0.6093
1258.000000 0.6126 0.6159 0.6192 0.6225 0.6258
1253.000000 0.6291 0.6324 0.6350 0.6375 0.6400
1248.000000 0.6425 0.6451 0.6475 0.6501 0.6525
1243.000000 0.6551 0.6572 0.6594 0.6615 0.6636
1238.000000 0.6657 0.6678 0.6699 0.6719 0.6741
1233.000000 0.6760 0.6778 0.6796 0.6814 0.6832
1228.000000 0.6851 0.6867 0.6883 0.6898 0.6914
1223.000000 0.6928 0.6939 0.6946 0.6953 0.6961
1218.000000 0.6968 0.6971 0.6975 0.6980 0.6984
1213.000000 0.6988 0.6992 0.6995 0.6999 0.7003
1208.000000 0.7007 0.7008 0.7011 0.7014 0.7017
1203.000000 0.7018 0.7021 0.7021 0.7021 0.7019
1198.000000 0.7018 0.7011 0.7001 0.6994 0.6978
1193.000000 0.6965 0.6928 0.6884 0.6828 0.6761
1188.000000 0.6695 0.6639 0.6584 0.6528 0.6471
1183.000000 0.6415 0.6384 0.6385 0.6385 0.6389
1178.000000 0.6393 0.6508 0.6639 0.6708 0.6742
1173.000000 0.6772 0.6776 0.6780 0.6786 0.6793
1168.000000 0.6801 0.6814 0.6828 0.6841 0.6853
1163.000000 0.6862 0.6871 0.6901 0.6860 0.6847
1158.000000 0.6825 0.6803 0.6781 0.6767 0.6751
1153.000000 0.6738 0.6722 0.6708 0.6694 0.6681
1148.000000 0.6675 0.6671 0.6665 0.6658 0.6653
1143.000000 0.6630 0.6601 0.6575 0.6551 0.6534
1138.000000 0.6535 0.6536 0.6556 0.6572 0.6572
1133.000000 0.6562 0.6554 0.6542 0.6528 0.6489
1128.000000 0.6419 0.6370 0.6321 0.6254 0.6157
1123.000000 0.6048 0.5827 0.5719 0.5618 0.5517
1118.000000 0.5360 0.5189 0.4979 0.4657 0.4000
1113.000000 0.3830 0.3649 0.3476 0.3366 0.3356
1108.000000 0.3332 0.3340 0.3342 0.3526 0.3702
1103.000000 0.3891 0.4043 0.4934 0.5099 0.5236
1098.000000 0.5369 0.5490 0.5610 0.5730 0.5849
1093.000000 0.5967 0.6078 0.6184 0.6287 0.6384
1088.000000 0.6472 0.6534 0.6593 0.6640 0.6688
1083.000000 0.6731 0.6769 0.6808 0.6846 0.6883
1078.000000 0.6921 0.6934 0.6946 0.6956 0.6958
1073.000000 0.6971 0.7033 0.7068 0.7104 0.7121
1068.000000 0.7133 0.7143 0.7157 0.7148 0.7143
1063.000000 0.7128 0.7114 0.7099 0.7057 0.6994
1058.000000 0.6925 0.6853 0.6780 0.6706 0.6612
1053.000000 0.6515 0.6419 0.6175 0.5344 0.4650
1048.000000 0.3955 0.3260 0.3124 0.3097 0.3082
1043.000000 0.3082 0.3082 0.3085 0.3032 0.2955
1038.000000 0.2866 0.2702 0.2659 0.2691 0.2895
1033.000000 0.3072 0.3232 0.3386 0.3510 0.3614
1028.000000 0.3718 0.3855 0.4041 0.4256 0.4481
1023.000000 0.4591 0.4701 0.4810 0.4929 0.5048
1018.000000 0.5168 0.5242 0.5315 0.5388 0.5460
1013.000000 0.5533 0.5616 0.5723 0.5830 0.5939
1008.000000 0.6078 0.6216 0.6308 0.6373 0.6439
1003.000000 0.6504 0.6561 0.6608 0.6657 0.6705
998.000000 0.6747 0.6784 0.6819 0.6857 0.6885
993.000000 0.6911 0.6938 0.6964 0.6982 0.7000
988.000000 0.7017 0.7035 0.7051 0.7062 0.7074
983.000000 0.7085 0.7125 0.7108 0.7110 0.7112
978.000000 0.7108 0.7098 0.7088 0.7078 0.7061
973.000000 0.7040 0.7024 0.7021 0.7018 0.7017
968.000000 0.7015 0.7012 0.7011 0.7011 0.7010
963.000000 0.7010 0.7008 0.7006 0.7003 0.6999
958.000000 0.6996 0.6993 0.6990 0.6987 0.6967
953.000000 0.6937 0.6904 0.6871 0.6839 0.6806
948.000000 0.6774 0.6742 0.6710 0.6678 0.6576
943.000000 0.6488 0.6408 0.6333 0.6282 0.6243
938.000000 0.6217 0.6188 0.6207 0.6271 0.6428
933.000000 0.6521 0.6536 0.6550 0.6555 0.6588
928.000000 0.6551 0.6494 0.6304 0.5904 0.5607
923.000000 0.5427 0.5348 0.5305 0.5302 0.5280
918.000000 0.6109 0.6408 0.6487 0.6565 0.6640
913.000000 0.6712 0.6785 0.6856 0.6919 0.6984
908.000000 0.7051 0.7121 0.7165 0.7211 0.7238
903.000000 0.7260 0.7287 0.7268 0.7269 0.7265
898.000000 0.7250 0.7234 0.7218 0.7201 0.7186
893.000000 0.7169 0.7154 0.7138 0.7124 0.7111
888.000000 0.7097 0.7083 0.7082 0.7082 0.7086
883.000000 0.7089 0.7093 0.7092 0.7090 0.7081
878.000000 0.7061 0.7043 0.7024 0.7005 0.6986
873.000000 0.6967 0.6948 0.6928 0.6897 0.6865
868.000000 0.6833 0.6801 0.6768 0.6737 0.6705
863.000000 0.6665 0.6607 0.6548 0.6489 0.6430
858.000000 0.6373 0.6315 0.6257 0.6200 0.6144
853.000000 0.6088 0.6032 0.5976 0.5920 0.5843
848.000000 0.5762 0.5682 0.5603 0.5542 0.5482
843.000000 0.5421 0.5360 0.5300 0.5240 0.5187
838.000000 0.5136 0.5084 0.5033 0.4985 0.4947
833.000000 0.4909 0.4871 0.4833 0.4797 0.4766
828.000000 0.4735 0.4708 0.4683 0.4658 0.4647
823.000000 0.4636 0.4628 0.4623 0.4621 0.4630
818.000000 0.4646 0.4662 0.4679 0.4695 0.4719
813.000000 0.4748 0.4776 0.4805 0.4833 0.4860
808.000000 0.4890 0.4918 0.4946 0.4975 0.5006
803.000000 0.5041 0.5076 0.5110 0.5146 0.5181
798.000000 0.5215 0.5248 0.5282 0.5315 0.5348
793.000000 0.5382 0.5418 0.5453 0.5488 0.5517
788.000000 0.5536 0.5554 0.5573 0.5592 0.5610
783.000000 0.5627 0.5641 0.5655 0.5669 0.5683
778.000000 0.5694 0.5704 0.5712 0.5717 0.5750
773.000000 0.5727 0.5729 0.5722 0.5715 0.5707
768.000000 0.5700 0.5698 0.5695 0.5693 0.5687
763.000000 0.5676 0.5664 0.5652 0.5635 0.5603
758.000000 0.5572 0.5541 0.5468 0.5402 0.5349
753.000000 0.5297 0.5238 0.5177 0.5117 0.5057
748.000000 0.4996 0.4926 0.4850 0.4774 0.4698
743.000000 0.4623 0.4547 0.4464 0.4376 0.4287
738.000000 0.4199 0.4110 0.4023 0.3946 0.3877
733.000000 0.3807 0.3738 0.3668 0.3599 0.3530
728.000000 0.3462 0.3416 0.3372 0.3326 0.3280
723.000000 0.3234 0.3177 0.3110 0.3081 0.3069
718.000000 0.3069 0.3110 0.3208 0.3262 0.3318
713.000000 0.3373 0.3428 0.3482 0.3572 0.3664
708.000000 0.3762 0.3868 0.3968 0.4048 0.4127
703.000000 0.4206 0.4272 0.4335 0.4399 0.4462
698.000000 0.4521 0.4572 0.4624 0.4675 0.4727
693.000000 0.4778 0.4835 0.4895 0.4955 0.5010
688.000000 0.5041 0.5072 0.5102 0.5133 0.5162
683.000000 0.5190 0.5216 0.5242 0.5267 0.5292
678.000000 0.5335 0.5387 0.5440 0.5491 0.5534
673.000000 0.5578 0.5621 0.5664 0.5701 0.5733
668.000000 0.5766 0.5799 0.5832 0.5862 0.5885
663.000000 0.5909 0.5933 0.5956 0.5980 0.6003
658.000000 0.6027 0.6051 0.6074 0.6087 0.6100
653.000000 0.6112 0.6125 0.6138 0.6151 0.6162
648.000000 0.6176 0.6189 0.6202 0.6214 0.6227
643.000000 0.6240 0.6249 0.6258 0.6267 0.6277
638.000000 0.6286 0.6295 0.6304 0.6312 0.6321
633.000000 0.6329 0.6338 0.6346 0.6355 0.6362
628.000000 0.6368 0.6372 0.6376 0.6379 0.6383
623.000000 0.6386 0.6390 0.6393 0.6397 0.6400
618.000000 0.6404 0.6407 0.6411 0.6412 0.6412
613.000000 0.6411 0.6411 0.6411 0.6411 0.6411
608.000000 0.6411 0.6410 0.6410 0.6393 0.6374
603.000000 0.6356 0.6337 0.6318 0.6299 0.6268
598.000000 0.6227 0.6186 0.6141 0.6073 0.6005
593.000000 0.5937 0.5868 0.5799 0.5731 0.5658
588.000000 0.5586 0.5512 0.5438 0.5355 0.5272
583.000000 0.5189 0.5105 0.5018 0.4931 0.4865
578.000000 0.4818 0.4770 0.4723 0.4673 0.4627
573.000000 0.4619 0.4602 0.4615 0.4644 0.4723
568.000000 0.4787 0.4852 0.4895 0.4938 0.4981
563.000000 0.5024 0.5067 0.5110 0.5152 0.5194
558.000000 0.5236 0.5279 0.5324 0.5382 0.5438
553.000000 0.5475 0.5510 0.5545 0.5576 0.5600
548.000000 0.5612 0.5623 0.5633 0.5639 0.5682
543.000000 0.5650 0.5644 0.5604 0.5520 0.5384
538.000000 0.5246 0.5103 0.4970 0.4910 0.4850
533.000000 0.4771 0.4705 0.4695 0.4658 0.4680
528.000000 0.4680 0.4860 0.5014 0.5209 0.5415
523.000000 0.5631 0.5762 0.5846 0.5928 0.6010
518.000000 0.6076 0.6131 0.6187 0.6240 0.6276
513.000000 0.6312 0.6348 0.6382 0.6410 0.6438
508.000000 0.6465 0.6493 0.6518 0.6540 0.6561
503.000000 0.6568 0.6576 0.6582 0.6582 0.6583
498.000000 0.6583 0.6584 0.6571 0.6560 0.6547
493.000000 0.6522 0.6499 0.6475 0.6450 0.6425
488.000000 0.6400 0.6375 0.6349 0.6323 0.6298
483.000000 0.6278 0.6258 0.6238 0.6219 0.6199
478.000000 0.6185 0.6172 0.6160 0.6147 0.6139
473.000000 0.6133 0.6127 0.6121 0.6116 0.6112
468.000000 0.6110 0.6110 0.6110 0.6112 0.6116
463.000000 0.6119 0.6123 0.6128 0.6133 0.6137
458.000000 0.6140 0.6143 0.6146 0.6150 0.6155
##END=
