##TITLE=2-Benzothiazolinone, 3-methyl-,
##JCAMP-DX=4.24
##DATA TYPE=INFRARED SPECTRUM
##CLASS=COBLENTZ III
##ORIGIN=ABBOTT LABORATORIES
##OWNER=Copyright (C) 1987 by the Coblentz Society
Collection (C) 2018 copyright by the U.S. Secretary of Commerce
on behalf of the United States of America. All rights reserved.
##DATE=1961/01/13
##MOLFORM=C8 H13 N O S
##SOURCE REFERENCE=COBLENTZ NO. 5289
##$NIST ID=B6005289
##$NIST SOURCE=COBLENTZ
##$NIST IMAGE=cob5289
##SPECTROMETER/DATA SYSTEM=PERKIN-ELMER 21 (GRATING)
##INSTRUMENT PARAMETERS=FILTER AT ABOUT 10 MICRONS
##STATE=SOLUTION 7% (CS2 FOR 7.5-15 microns, AND CCl4 FOR 2.5-7.5 microns)
##PATH LENGTH=0.01 CM
##RESOLUTION=2
##XUNITS=1/CM
##YUNITS=TRANSMITTANCE
##XFACTOR=1.0
##YFACTOR=1
##FIRSTX=665
##LASTX=4000
##FIRSTY=0.908
##MAXX=4000
##MINX=665
##MAXY=0.9423
##MINY=0.0116
##NPOINTS=3336
##XYDATA=(X++(Y..Y))
665.000000 0.9080 0.9118 0.9152 0.9139 0.9127
670.000000 0.9110 0.9080 0.9048 0.9005 0.8962
675.000000 0.8907 0.8849 0.8791 0.8733 0.8672
680.000000 0.8588 0.8312 0.8002 0.7292 0.6472
685.000000 0.5987 0.5974 0.6663 0.7608 0.8493
690.000000 0.8743 0.8879 0.8974 0.9014 0.9039
695.000000 0.9051 0.9054 0.9037 0.9008 0.8950
700.000000 0.8888 0.8824 0.8776 0.8728 0.8676
705.000000 0.8619 0.8562 0.8484 0.8388 0.8185
710.000000 0.7915 0.7588 0.6951 0.6053 0.5157
715.000000 0.4728 0.4733 0.5518 0.6046 0.6574
720.000000 0.7099 0.7587 0.7881 0.8055 0.8103
725.000000 0.8063 0.7995 0.7884 0.7727 0.7581
730.000000 0.7337 0.7048 0.6686 0.5992 0.5255
735.000000 0.4282 0.3226 0.2173 0.1124 0.0322
740.000000 0.0175 0.0158 0.0205 0.0471 0.0897
745.000000 0.2014 0.3110 0.4203 0.5293 0.5858
750.000000 0.6140 0.6746 0.7230 0.7489 0.7749
755.000000 0.8045 0.8263 0.8423 0.8548 0.8628
760.000000 0.8691 0.8726 0.8763 0.8794 0.8824
765.000000 0.8855 0.8871 0.8878 0.8885 0.8892
770.000000 0.8901 0.8912 0.8954 0.9003 0.9017
775.000000 0.9029 0.9042 0.9042 0.9042 0.9042
780.000000 0.9041 0.9038 0.9033 0.9030 0.9026
785.000000 0.9022 0.9019 0.9010 0.8995 0.8979
790.000000 0.8964 0.8954 0.8947 0.8939 0.8932
795.000000 0.8916 0.8929 0.8928 0.8927 0.8927
800.000000 0.8934 0.8940 0.8948 0.8956 0.8964
805.000000 0.8977 0.8989 0.8999 0.9009 0.9013
810.000000 0.9015 0.9018 0.9020 0.9021 0.9018
815.000000 0.9007 0.8996 0.8984 0.8973 0.8962
820.000000 0.8953 0.8948 0.8941 0.8935 0.8928
825.000000 0.8917 0.8901 0.8884 0.8859 0.8832
830.000000 0.8805 0.8765 0.8716 0.8668 0.8619
835.000000 0.8574 0.8532 0.8497 0.8473 0.8481
840.000000 0.8501 0.8532 0.8565 0.8601 0.8623
845.000000 0.8636 0.8648 0.8643 0.8638 0.8632
850.000000 0.8626 0.8618 0.8609 0.8600 0.8591
855.000000 0.8557 0.8513 0.8446 0.8352 0.8234
860.000000 0.8038 0.7838 0.7621 0.7343 0.6748
865.000000 0.6207 0.5691 0.5177 0.4663 0.4361
870.000000 0.4372 0.4907 0.5491 0.6074 0.6655
875.000000 0.7235 0.7729 0.7884 0.7962 0.8030
880.000000 0.8094 0.8156 0.8253 0.8450 0.8625
885.000000 0.8720 0.8792 0.8804 0.8816 0.8828
890.000000 0.8844 0.8879 0.8931 0.8939 0.8945
895.000000 0.8948 0.8952 0.8955 0.8952 0.8950
900.000000 0.8948 0.8943 0.8936 0.8930 0.8914
905.000000 0.8890 0.8866 0.8832 0.8791 0.8747
910.000000 0.8686 0.8623 0.8518 0.8391 0.8237
915.000000 0.7842 0.7638 0.7572 0.7599 0.7737
920.000000 0.8093 0.8450 0.8590 0.8672 0.8725
925.000000 0.8775 0.8824 0.8860 0.8893 0.8907
930.000000 0.8912 0.8916 0.8921 0.8922 0.8922
935.000000 0.8922 0.8922 0.8927 0.8951 0.8955
940.000000 0.8963 0.8957 0.8934 0.8915 0.8907
945.000000 0.8902 0.8899 0.8896 0.8894 0.8890
950.000000 0.8887 0.8881 0.8877 0.8871 0.8867
955.000000 0.8861 0.8857 0.8851 0.8843 0.8831
960.000000 0.8819 0.8807 0.8795 0.8784 0.8772
965.000000 0.8760 0.8748 0.8737 0.8724 0.8704
970.000000 0.8685 0.8665 0.8646 0.8626 0.8607
975.000000 0.8588 0.8571 0.8557 0.8543 0.8529
980.000000 0.8515 0.8501 0.8487 0.8473 0.8446
985.000000 0.8392 0.8315 0.8237 0.8126 0.8013
990.000000 0.7863 0.7701 0.7555 0.7425 0.7188
995.000000 0.6797 0.6406 0.6015 0.5626 0.5443
1000.000000 0.5375 0.5371 0.5371 0.5743 0.6042
1005.000000 0.6340 0.6638 0.6934 0.7230 0.7522
1010.000000 0.7623 0.7620 0.7614 0.7598 0.7495
1015.000000 0.7326 0.7151 0.6759 0.6269 0.5780
1020.000000 0.5290 0.4803 0.4317 0.4027 0.4016
1025.000000 0.4880 0.5364 0.5847 0.6329 0.6810
1030.000000 0.6986 0.7025 0.7051 0.7053 0.7060
1035.000000 0.7020 0.6990 0.6945 0.6888 0.6825
1040.000000 0.6761 0.6697 0.6633 0.6568 0.6485
1045.000000 0.6401 0.6317 0.6193 0.6060 0.5928
1050.000000 0.5816 0.5822 0.5835 0.6152 0.6336
1055.000000 0.6522 0.6706 0.6889 0.7073 0.7256
1060.000000 0.7395 0.7497 0.7570 0.7625 0.7665
1065.000000 0.7706 0.7746 0.7771 0.7788 0.7804
1070.000000 0.7821 0.7832 0.7838 0.7845 0.7851
1075.000000 0.7858 0.7866 0.7876 0.7886 0.7896
1080.000000 0.7905 0.7915 0.7939 0.7973 0.8037
1085.000000 0.8108 0.8143 0.8177 0.8206 0.8228
1090.000000 0.8249 0.8264 0.8275 0.8269 0.8272
1095.000000 0.8245 0.8199 0.8147 0.8092 0.8020
1100.000000 0.7949 0.7881 0.7774 0.7632 0.7493
1105.000000 0.7366 0.7240 0.7089 0.6869 0.6606
1110.000000 0.6357 0.5949 0.5500 0.4923 0.4359
1115.000000 0.3796 0.3235 0.2673 0.2114 0.1626
1120.000000 0.1596 0.1739 0.2214 0.2701 0.3188
1125.000000 0.3672 0.4079 0.4272 0.4743 0.5150
1130.000000 0.5430 0.5707 0.6554 0.6905 0.7087
1135.000000 0.7227 0.7358 0.7487 0.7590 0.7649
1140.000000 0.7709 0.7769 0.7810 0.7827 0.7853
1145.000000 0.7817 0.7783 0.7688 0.7403 0.7111
1150.000000 0.6819 0.6527 0.6481 0.6481 0.6674
1155.000000 0.7011 0.7249 0.7380 0.7489 0.7591
1160.000000 0.7675 0.7749 0.7823 0.7900 0.7977
1165.000000 0.8062 0.8176 0.8276 0.8339 0.8399
1170.000000 0.8449 0.8472 0.8496 0.8519 0.8539
1175.000000 0.8549 0.8557 0.8566 0.8574 0.8581
1180.000000 0.8587 0.8593 0.8599 0.8605 0.8607
1185.000000 0.8606 0.8629 0.8605 0.8604 0.8600
1190.000000 0.8593 0.8587 0.8580 0.8573 0.8566
1195.000000 0.8557 0.8548 0.8539 0.8530 0.8517
1200.000000 0.8501 0.8487 0.8471 0.8457 0.8441
1205.000000 0.8426 0.8404 0.8383 0.8360 0.8339
1210.000000 0.8308 0.8268 0.8228 0.8188 0.8135
1215.000000 0.8067 0.8000 0.7933 0.7812 0.7680
1220.000000 0.7515 0.7342 0.7159 0.6974 0.6792
1225.000000 0.6613 0.6335 0.5968 0.5506 0.4824
1230.000000 0.4143 0.3464 0.2785 0.2108 0.1643
1235.000000 0.1526 0.1498 0.1519 0.1664 0.2190
1240.000000 0.2751 0.3310 0.3870 0.4428 0.4985
1245.000000 0.5541 0.6097 0.6652 0.7083 0.7253
1250.000000 0.7338 0.7369 0.7390 0.7423 0.7595
1255.000000 0.7868 0.8032 0.8103 0.8129 0.8155
1260.000000 0.8181 0.8198 0.8215 0.8232 0.8243
1265.000000 0.8252 0.8263 0.8265 0.8267 0.8261
1270.000000 0.8250 0.8219 0.8160 0.8068 0.7952
1275.000000 0.7819 0.7713 0.7618 0.7522 0.7426
1280.000000 0.7330 0.7234 0.7137 0.7033 0.6927
1285.000000 0.6728 0.6494 0.6223 0.5856 0.5498
1290.000000 0.5142 0.4785 0.4429 0.4074 0.3719
1295.000000 0.3412 0.3344 0.3384 0.4213 0.4792
1300.000000 0.5369 0.5946 0.6285 0.6301 0.6263
1305.000000 0.6181 0.5709 0.5238 0.4768 0.4299
1310.000000 0.3830 0.3362 0.2895 0.2427 0.2002
1315.000000 0.1804 0.1756 0.1735 0.1765 0.1883
1320.000000 0.2359 0.2888 0.3417 0.3945 0.4472
1325.000000 0.4998 0.5500 0.5703 0.5767 0.5812
1330.000000 0.5821 0.5826 0.5831 0.5808 0.5817
1335.000000 0.5763 0.5705 0.5654 0.5625 0.5597
1340.000000 0.5571 0.5544 0.5514 0.5484 0.5398
1345.000000 0.5272 0.5146 0.5030 0.4994 0.4986
1350.000000 0.5023 0.5031 0.5490 0.6131 0.6771
1355.000000 0.7411 0.8040 0.8133 0.8189 0.8227
1360.000000 0.8262 0.8283 0.8303 0.8321 0.8333
1365.000000 0.8343 0.8353 0.8360 0.8359 0.8347
1370.000000 0.8357 0.8356 0.8355 0.8352 0.8348
1375.000000 0.8343 0.8345 0.8346 0.8348 0.8350
1380.000000 0.8349 0.8349 0.8347 0.8347 0.8339
1385.000000 0.8324 0.8309 0.8293 0.8277 0.8255
1390.000000 0.8225 0.8194 0.8164 0.8129 0.8076
1395.000000 0.8018 0.7957 0.7875 0.7774 0.7674
1400.000000 0.7599 0.7523 0.7448 0.7223 0.6790
1405.000000 0.6357 0.6113 0.6103 0.6097 0.6437
1410.000000 0.6734 0.7030 0.7325 0.7621 0.7916
1415.000000 0.8064 0.8133 0.8162 0.8173 0.8178
1420.000000 0.8170 0.8162 0.8135 0.8064 0.7969
1425.000000 0.7877 0.7821 0.7775 0.7748 0.7728
1430.000000 0.7706 0.7673 0.7634 0.7556 0.7444
1435.000000 0.7344 0.7251 0.7066 0.6878 0.6690
1440.000000 0.6503 0.6316 0.6128 0.5942 0.5755
1445.000000 0.5607 0.5584 0.5578 0.5570 0.5561
1450.000000 0.5552 0.5541 0.5529 0.5493 0.5351
1455.000000 0.5136 0.4921 0.4706 0.4492 0.4277
1460.000000 0.4063 0.3850 0.3679 0.3559 0.3277
1465.000000 0.2752 0.2186 0.1619 0.1055 0.0570
1470.000000 0.0572 0.0598 0.0586 0.0872 0.1444
1475.000000 0.2050 0.2656 0.3261 0.3865 0.4469
1480.000000 0.5071 0.5673 0.6273 0.6874 0.7473
1485.000000 0.7932 0.8110 0.8203 0.8257 0.8277
1490.000000 0.8293 0.8305 0.8309 0.8314 0.8318
1495.000000 0.8323 0.8328 0.8335 0.8342 0.8350
1500.000000 0.8358 0.8368 0.8387 0.8410 0.8434
1505.000000 0.8473 0.8510 0.8524 0.8528 0.8532
1510.000000 0.8526 0.8520 0.8513 0.8507 0.8503
1515.000000 0.8497 0.8493 0.8488 0.8484 0.8479
1520.000000 0.8475 0.8476 0.8479 0.8482 0.8486
1525.000000 0.8460 0.8501 0.8510 0.8518 0.8535
1530.000000 0.8551 0.8545 0.8539 0.8532 0.8525
1535.000000 0.8527 0.8500 0.8479 0.8457 0.8434
1540.000000 0.8408 0.8379 0.8348 0.8318 0.8286
1545.000000 0.8251 0.8214 0.8178 0.8142 0.8106
1550.000000 0.8080 0.8056 0.8032 0.8010 0.7996
1555.000000 0.7983 0.7967 0.7940 0.7904 0.7868
1560.000000 0.7829 0.7785 0.7737 0.7686 0.7634
1565.000000 0.7580 0.7524 0.7443 0.7262 0.7025
1570.000000 0.6789 0.6552 0.6316 0.6080 0.5845
1575.000000 0.5610 0.5375 0.5141 0.4907 0.4673
1580.000000 0.4439 0.4205 0.4024 0.3756 0.3560
1585.000000 0.3407 0.3255 0.3103 0.2952 0.2800
1590.000000 0.2649 0.2557 0.2545 0.2559 0.2930
1595.000000 0.3503 0.4075 0.4646 0.5216 0.5786
1600.000000 0.6356 0.6924 0.7491 0.7881 0.7999
1605.000000 0.8044 0.8075 0.8106 0.8131 0.8146
1610.000000 0.8161 0.8172 0.8174 0.8176 0.8172
1615.000000 0.8176 0.8170 0.8163 0.8151 0.8136
1620.000000 0.8118 0.8086 0.8033 0.7949 0.7852
1625.000000 0.7756 0.7661 0.7565 0.7469 0.7374
1630.000000 0.7278 0.7182 0.7088 0.6993 0.6897
1635.000000 0.6803 0.6708 0.6613 0.6519 0.6425
1640.000000 0.6331 0.6237 0.6142 0.6049 0.5955
1645.000000 0.5861 0.5768 0.5675 0.5597 0.5537
1650.000000 0.5476 0.5416 0.5225 0.5071 0.4962
1655.000000 0.4869 0.4794 0.4598 0.4080 0.3564
1660.000000 0.3048 0.2533 0.2019 0.1558 0.1302
1665.000000 0.1139 0.0983 0.0800 0.0574 0.0484
1670.000000 0.0392 0.0306 0.0242 0.0215 0.0198
1675.000000 0.0181 0.0167 0.0156 0.0145 0.0135
1680.000000 0.0131 0.0126 0.0121 0.0124 0.0131
1685.000000 0.0116 0.0167 0.0212 0.0272 0.0333
1690.000000 0.0406 0.0484 0.0562 0.0637 0.0706
1695.000000 0.0760 0.0813 0.0873 0.0944 0.1049
1700.000000 0.1248 0.1545 0.1870 0.2195 0.2520
1705.000000 0.2845 0.3169 0.3492 0.3814 0.4100
1710.000000 0.4214 0.4244 0.4259 0.4271 0.4282
1715.000000 0.4295 0.4307 0.4318 0.4329 0.4340
1720.000000 0.4440 0.4682 0.5039 0.5395 0.5751
1725.000000 0.6106 0.6271 0.6318 0.6337 0.6352
1730.000000 0.6362 0.6372 0.6382 0.6394 0.6410
1735.000000 0.6441 0.6560 0.6680 0.6799 0.6918
1740.000000 0.7037 0.7156 0.7275 0.7394 0.7512
1745.000000 0.7631 0.7749 0.7867 0.7985 0.8103
1750.000000 0.8194 0.8245 0.8258 0.8274 0.8290
1755.000000 0.8306 0.8321 0.8334 0.8347 0.8425
1760.000000 0.8527 0.8621 0.8689 0.8755 0.8814
1765.000000 0.8866 0.8910 0.8944 0.8959 0.8965
1770.000000 0.8970 0.8975 0.8981 0.8986 0.8983
1775.000000 0.8980 0.8977 0.8975 0.8972 0.8967
1780.000000 0.8960 0.8953 0.8945 0.8937 0.8929
1785.000000 0.8921 0.8912 0.8901 0.8891 0.8881
1790.000000 0.8871 0.8860 0.8850 0.8839 0.8828
1795.000000 0.8818 0.8812 0.8812 0.8814 0.8815
1800.000000 0.8816 0.8816 0.8817 0.8820 0.8826
1805.000000 0.8831 0.8837 0.8843 0.8848 0.8854
1810.000000 0.8859 0.8864 0.8869 0.8874 0.8879
1815.000000 0.8884 0.8889 0.8894 0.8899 0.8903
1820.000000 0.8905 0.8907 0.8908 0.8909 0.8910
1825.000000 0.8912 0.8913 0.8915 0.8916 0.8917
1830.000000 0.8917 0.8916 0.8915 0.8913 0.8913
1835.000000 0.8972 0.8916 0.8920 0.8925 0.8930
1840.000000 0.8934 0.8939 0.8941 0.8939 0.8935
1845.000000 0.8933 0.8929 0.8926 0.8921 0.8909
1850.000000 0.8893 0.8877 0.8859 0.8837 0.8806
1855.000000 0.8772 0.8739 0.8698 0.8635 0.8564
1860.000000 0.8499 0.8448 0.8417 0.8406 0.8403
1865.000000 0.8399 0.8395 0.8392 0.8377 0.8418
1870.000000 0.8440 0.8470 0.8518 0.8583 0.8670
1875.000000 0.8742 0.8801 0.8848 0.8895 0.8942
1880.000000 0.8990 0.9037 0.9079 0.9108 0.9123
1885.000000 0.9131 0.9138 0.9145 0.9153 0.9160
1890.000000 0.9166 0.9169 0.9172 0.9174 0.9174
1895.000000 0.9174 0.9197 0.9171 0.9171 0.9169
1900.000000 0.9166 0.9158 0.9148 0.9138 0.9128
1905.000000 0.9105 0.9077 0.9044 0.9014 0.8985
1910.000000 0.8960 0.8955 0.8954 0.8954 0.8954
1915.000000 0.8939 0.8963 0.8968 0.8974 0.8981
1920.000000 0.8989 0.9008 0.9034 0.9066 0.9096
1925.000000 0.9124 0.9149 0.9168 0.9185 0.9201
1930.000000 0.9218 0.9228 0.9232 0.9234 0.9251
1935.000000 0.9238 0.9239 0.9240 0.9241 0.9241
1940.000000 0.9242 0.9243 0.9243 0.9242 0.9241
1945.000000 0.9238 0.9235 0.9233 0.9230 0.9227
1950.000000 0.9225 0.9221 0.9218 0.9216 0.9213
1955.000000 0.9211 0.9208 0.9204 0.9200 0.9196
1960.000000 0.9192 0.9188 0.9184 0.9179 0.9175
1965.000000 0.9171 0.9167 0.9163 0.9159 0.9155
1970.000000 0.9151 0.9142 0.9133 0.9123 0.9114
1975.000000 0.9105 0.9095 0.9087 0.9079 0.9074
1980.000000 0.9070 0.9064 0.9059 0.9056 0.9055
1985.000000 0.9054 0.9053 0.9052 0.9051 0.9050
1990.000000 0.9051 0.9057 0.9066 0.9050 0.9095
1995.000000 0.9111 0.9126 0.9142 0.9157 0.9172
2000.000000 0.9188 0.9202 0.9217 0.9232 0.9241
2005.000000 0.9249 0.9254 0.9260 0.9265 0.9270
2010.000000 0.9275 0.9281 0.9284 0.9287 0.9288
2015.000000 0.9289 0.9290 0.9292 0.9293 0.9294
2020.000000 0.9295 0.9295 0.9297 0.9298 0.9299
2025.000000 0.9300 0.9302 0.9303 0.9304 0.9305
2030.000000 0.9306 0.9308 0.9308 0.9309 0.9310
2035.000000 0.9311 0.9313 0.9314 0.9315 0.9315
2040.000000 0.9315 0.9315 0.9315 0.9316 0.9316
2045.000000 0.9316 0.9316 0.9316 0.9317 0.9317
2050.000000 0.9317 0.9317 0.9317 0.9318 0.9318
2055.000000 0.9317 0.9317 0.9317 0.9316 0.9316
2060.000000 0.9315 0.9315 0.9315 0.9314 0.9314
2065.000000 0.9313 0.9313 0.9312 0.9312 0.9312
2070.000000 0.9311 0.9311 0.9310 0.9310 0.9310
2075.000000 0.9309 0.9309 0.9308 0.9308 0.9307
2080.000000 0.9306 0.9305 0.9303 0.9301 0.9299
2085.000000 0.9297 0.9294 0.9292 0.9290 0.9288
2090.000000 0.9286 0.9284 0.9282 0.9280 0.9278
2095.000000 0.9276 0.9273 0.9271 0.9269 0.9268
2100.000000 0.9265 0.9263 0.9261 0.9259 0.9257
2105.000000 0.9268 0.9257 0.9257 0.9257 0.9257
2110.000000 0.9257 0.9257 0.9257 0.9257 0.9257
2115.000000 0.9257 0.9257 0.9257 0.9257 0.9257
2120.000000 0.9257 0.9257 0.9257 0.9258 0.9258
2125.000000 0.9258 0.9259 0.9259 0.9260 0.9260
2130.000000 0.9260 0.9260 0.9261 0.9261 0.9262
2135.000000 0.9263 0.9263 0.9263 0.9263 0.9264
2140.000000 0.9264 0.9265 0.9266 0.9267 0.9267
2145.000000 0.9268 0.9269 0.9270 0.9271 0.9271
2150.000000 0.9272 0.9272 0.9273 0.9274 0.9275
2155.000000 0.9275 0.9276 0.9277 0.9279 0.9280
2160.000000 0.9282 0.9284 0.9286 0.9288 0.9290
2165.000000 0.9292 0.9294 0.9296 0.9298 0.9300
2170.000000 0.9301 0.9303 0.9305 0.9308 0.9309
2175.000000 0.9308 0.9307 0.9306 0.9305 0.9303
2180.000000 0.9302 0.9301 0.9300 0.9298 0.9297
2185.000000 0.9296 0.9294 0.9293 0.9290 0.9288
2190.000000 0.9284 0.9281 0.9277 0.9273 0.9270
2195.000000 0.9267 0.9264 0.9260 0.9257 0.9254
2200.000000 0.9250 0.9247 0.9243 0.9241 0.9241
2205.000000 0.9241 0.9241 0.9240 0.9240 0.9239
2210.000000 0.9239 0.9239 0.9239 0.9238 0.9238
2215.000000 0.9237 0.9237 0.9237 0.9237 0.9236
2220.000000 0.9236 0.9235 0.9235 0.9235 0.9235
2225.000000 0.9237 0.9239 0.9242 0.9245 0.9248
2230.000000 0.9250 0.9253 0.9256 0.9259 0.9262
2235.000000 0.9265 0.9267 0.9270 0.9273 0.9276
2240.000000 0.9278 0.9280 0.9282 0.9285 0.9287
2245.000000 0.9289 0.9291 0.9293 0.9295 0.9297
2250.000000 0.9298 0.9298 0.9297 0.9296 0.9296
2255.000000 0.9295 0.9295 0.9294 0.9293 0.9292
2260.000000 0.9292 0.9289 0.9286 0.9283 0.9279
2265.000000 0.9276 0.9272 0.9269 0.9265 0.9261
2270.000000 0.9258 0.9255 0.9253 0.9251 0.9251
2275.000000 0.9250 0.9249 0.9248 0.9248 0.9247
2280.000000 0.9247 0.9247 0.9246 0.9246 0.9246
2285.000000 0.9247 0.9249 0.9250 0.9252 0.9253
2290.000000 0.9254 0.9256 0.9257 0.9259 0.9261
2295.000000 0.9263 0.9264 0.9265 0.9267 0.9269
2300.000000 0.9271 0.9272 0.9273 0.9277 0.9280
2305.000000 0.9283 0.9287 0.9290 0.9293 0.9296
2310.000000 0.9299 0.9302 0.9305 0.9309 0.9312
2315.000000 0.9315 0.9318 0.9322 0.9325 0.9328
2320.000000 0.9331 0.9335 0.9338 0.9341 0.9344
2325.000000 0.9347 0.9348 0.9347 0.9346 0.9346
2330.000000 0.9345 0.9345 0.9344 0.9343 0.9343
2335.000000 0.9342 0.9342 0.9341 0.9340 0.9339
2340.000000 0.9339 0.9338 0.9338 0.9338 0.9337
2345.000000 0.9336 0.9335 0.9335 0.9334 0.9334
2350.000000 0.9333 0.9332 0.9331 0.9331 0.9331
2355.000000 0.9330 0.9329 0.9328 0.9326 0.9325
2360.000000 0.9323 0.9322 0.9321 0.9320 0.9319
2365.000000 0.9318 0.9317 0.9316 0.9315 0.9313
2370.000000 0.9312 0.9311 0.9310 0.9309 0.9308
2375.000000 0.9306 0.9305 0.9304 0.9303 0.9302
2380.000000 0.9300 0.9297 0.9295 0.9293 0.9291
2385.000000 0.9289 0.9286 0.9284 0.9282 0.9280
2390.000000 0.9278 0.9275 0.9272 0.9270 0.9268
2395.000000 0.9266 0.9264 0.9261 0.9260 0.9258
2400.000000 0.9257 0.9256 0.9255 0.9254 0.9253
2405.000000 0.9253 0.9253 0.9252 0.9251 0.9250
2410.000000 0.9249 0.9248 0.9247 0.9247 0.9246
2415.000000 0.9245 0.9244 0.9243 0.9242 0.9241
2420.000000 0.9241 0.9240 0.9239 0.9238 0.9238
2425.000000 0.9238 0.9238 0.9239 0.9241 0.9242
2430.000000 0.9243 0.9244 0.9246 0.9247 0.9248
2435.000000 0.9249 0.9251 0.9252 0.9253 0.9254
2440.000000 0.9256 0.9257 0.9258 0.9260 0.9261
2445.000000 0.9262 0.9263 0.9265 0.9266 0.9267
2450.000000 0.9268 0.9270 0.9272 0.9275 0.9277
2455.000000 0.9280 0.9282 0.9285 0.9288 0.9290
2460.000000 0.9293 0.9296 0.9298 0.9301 0.9302
2465.000000 0.9303 0.9304 0.9305 0.9306 0.9306
2470.000000 0.9307 0.9308 0.9309 0.9310 0.9311
2475.000000 0.9312 0.9313 0.9314 0.9314 0.9314
2480.000000 0.9314 0.9313 0.9312 0.9311 0.9310
2485.000000 0.9309 0.9307 0.9306 0.9305 0.9304
2490.000000 0.9303 0.9301 0.9299 0.9298 0.9296
2495.000000 0.9295 0.9293 0.9291 0.9289 0.9287
2500.000000 0.9285 0.9283 0.9281 0.9280 0.9278
2505.000000 0.9276 0.9274 0.9272 0.9271 0.9270
2510.000000 0.9269 0.9267 0.9266 0.9265 0.9264
2515.000000 0.9264 0.9262 0.9261 0.9260 0.9259
2520.000000 0.9258 0.9257 0.9255 0.9254 0.9253
2525.000000 0.9253 0.9252 0.9250 0.9249 0.9248
2530.000000 0.9247 0.9246 0.9245 0.9243 0.9243
2535.000000 0.9243 0.9242 0.9241 0.9241 0.9240
2540.000000 0.9239 0.9238 0.9237 0.9237 0.9236
2545.000000 0.9236 0.9235 0.9235 0.9234 0.9233
2550.000000 0.9232 0.9232 0.9231 0.9231 0.9230
2555.000000 0.9229 0.9229 0.9228 0.9227 0.9226
2560.000000 0.9226 0.9225 0.9224 0.9223 0.9222
2565.000000 0.9220 0.9219 0.9218 0.9217 0.9216
2570.000000 0.9215 0.9214 0.9213 0.9211 0.9210
2575.000000 0.9209 0.9208 0.9207 0.9206 0.9205
2580.000000 0.9203 0.9202 0.9201 0.9200 0.9199
2585.000000 0.9198 0.9197 0.9196 0.9195 0.9194
2590.000000 0.9193 0.9192 0.9191 0.9190 0.9189
2595.000000 0.9188 0.9187 0.9185 0.9184 0.9183
2600.000000 0.9182 0.9181 0.9180 0.9179 0.9178
2605.000000 0.9177 0.9175 0.9174 0.9173 0.9172
2610.000000 0.9171 0.9170 0.9170 0.9169 0.9169
2615.000000 0.9169 0.9168 0.9167 0.9166 0.9166
2620.000000 0.9166 0.9165 0.9164 0.9164 0.9163
2625.000000 0.9162 0.9162 0.9161 0.9161 0.9160
2630.000000 0.9160 0.9159 0.9158 0.9158 0.9158
2635.000000 0.9157 0.9156 0.9156 0.9155 0.9154
2640.000000 0.9153 0.9153 0.9153 0.9152 0.9152
2645.000000 0.9151 0.9150 0.9150 0.9150 0.9149
2650.000000 0.9148 0.9148 0.9147 0.9146 0.9145
2655.000000 0.9145 0.9145 0.9144 0.9144 0.9143
2660.000000 0.9142 0.9142 0.9142 0.9141 0.9140
2665.000000 0.9140 0.9140 0.9140 0.9140 0.9140
2670.000000 0.9140 0.9140 0.9140 0.9140 0.9140
2675.000000 0.9140 0.9140 0.9141 0.9141 0.9141
2680.000000 0.9141 0.9141 0.9141 0.9141 0.9141
2685.000000 0.9141 0.9141 0.9141 0.9141 0.9142
2690.000000 0.9142 0.9142 0.9142 0.9142 0.9142
2695.000000 0.9142 0.9142 0.9142 0.9142 0.9142
2700.000000 0.9143 0.9143 0.9143 0.9142 0.9142
2705.000000 0.9142 0.9141 0.9141 0.9141 0.9140
2710.000000 0.9140 0.9140 0.9139 0.9139 0.9139
2715.000000 0.9138 0.9137 0.9137 0.9136 0.9136
2720.000000 0.9136 0.9135 0.9135 0.9135 0.9134
2725.000000 0.9134 0.9134 0.9133 0.9133 0.9133
2730.000000 0.9131 0.9129 0.9127 0.9123 0.9119
2735.000000 0.9115 0.9112 0.9108 0.9104 0.9100
2740.000000 0.9096 0.9092 0.9088 0.9084 0.9080
2745.000000 0.9077 0.9073 0.9069 0.9066 0.9062
2750.000000 0.9058 0.9054 0.9050 0.9046 0.9042
2755.000000 0.9038 0.9034 0.9029 0.9024 0.9019
2760.000000 0.9013 0.9008 0.9003 0.8998 0.8992
2765.000000 0.8987 0.8982 0.8977 0.8971 0.8966
2770.000000 0.8961 0.8957 0.8952 0.8946 0.8941
2775.000000 0.8936 0.8931 0.8926 0.8920 0.8915
2780.000000 0.8910 0.8905 0.8900 0.8894 0.8889
2785.000000 0.8883 0.8878 0.8872 0.8865 0.8858
2790.000000 0.8852 0.8845 0.8838 0.8831 0.8825
2795.000000 0.8818 0.8811 0.8805 0.8798 0.8791
2800.000000 0.8785 0.8778 0.8772 0.8765 0.8759
2805.000000 0.8752 0.8745 0.8737 0.8729 0.8721
2810.000000 0.8710 0.8699 0.8688 0.8677 0.8665
2815.000000 0.8654 0.8643 0.8631 0.8620 0.8609
2820.000000 0.8598 0.8587 0.8576 0.8564 0.8553
2825.000000 0.8542 0.8531 0.8519 0.8508 0.8497
2830.000000 0.8486 0.8475 0.8464 0.8453 0.8442
2835.000000 0.8431 0.8420 0.8409 0.8398 0.8387
2840.000000 0.8376 0.8364 0.8352 0.8340 0.8327
2845.000000 0.8313 0.8299 0.8284 0.8270 0.8256
2850.000000 0.8241 0.8229 0.8219 0.8210 0.8201
2855.000000 0.8194 0.8188 0.8181 0.8175 0.8169
2860.000000 0.8162 0.8156 0.8151 0.8146 0.8141
2865.000000 0.8138 0.8135 0.8131 0.8128 0.8125
2870.000000 0.8121 0.8118 0.8115 0.8111 0.8104
2875.000000 0.8093 0.8081 0.8070 0.8055 0.8041
2880.000000 0.8026 0.8009 0.7992 0.7974 0.7957
2885.000000 0.7939 0.7921 0.7904 0.7886 0.7868
2890.000000 0.7851 0.7832 0.7814 0.7795 0.7779
2895.000000 0.7766 0.7753 0.7742 0.7742 0.7742
2900.000000 0.7742 0.7742 0.7742 0.7742 0.7743
2905.000000 0.7743 0.7744 0.7724 0.7745 0.7746
2910.000000 0.7746 0.7747 0.7747 0.7747 0.7749
2915.000000 0.7755 0.7761 0.7767 0.7776 0.7786
2920.000000 0.7797 0.7808 0.7821 0.7835 0.7848
2925.000000 0.7862 0.7876 0.7890 0.7904 0.7918
2930.000000 0.7932 0.7949 0.7979 0.8010 0.8040
2935.000000 0.8071 0.8102 0.8132 0.8161 0.8185
2940.000000 0.8209 0.8233 0.8257 0.8281 0.8304
2945.000000 0.8330 0.8357 0.8385 0.8413 0.8442
2950.000000 0.8471 0.8499 0.8523 0.8537 0.8552
2955.000000 0.8567 0.8582 0.8596 0.8610 0.8624
2960.000000 0.8638 0.8652 0.8665 0.8671 0.8676
2965.000000 0.8681 0.8741 0.8689 0.8692 0.8695
2970.000000 0.8694 0.8692 0.8691 0.8689 0.8687
2975.000000 0.8685 0.8683 0.8681 0.8679 0.8677
2980.000000 0.8674 0.8670 0.8665 0.8661 0.8656
2985.000000 0.8652 0.8647 0.8643 0.8638 0.8633
2990.000000 0.8628 0.8621 0.8614 0.8607 0.8600
2995.000000 0.8592 0.8585 0.8577 0.8570 0.8562
3000.000000 0.8555 0.8548 0.8541 0.8534 0.8526
3005.000000 0.8519 0.8513 0.8506 0.8499 0.8495
3010.000000 0.8493 0.8491 0.8489 0.8486 0.8484
3015.000000 0.8482 0.8480 0.8478 0.8475 0.8473
3020.000000 0.8471 0.8469 0.8467 0.8464 0.8463
3025.000000 0.8461 0.8459 0.8458 0.8459 0.8459
3030.000000 0.8460 0.8461 0.8462 0.8463 0.8419
3035.000000 0.8464 0.8465 0.8466 0.8467 0.8468
3040.000000 0.8468 0.8469 0.8471 0.8474 0.8477
3045.000000 0.8479 0.8485 0.8490 0.8496 0.8502
3050.000000 0.8507 0.8513 0.8519 0.8525 0.8532
3055.000000 0.8539 0.8546 0.8561 0.8580 0.8598
3060.000000 0.8616 0.8634 0.8652 0.8670 0.8692
3065.000000 0.8724 0.8756 0.8788 0.8831 0.8885
3070.000000 0.8938 0.8992 0.9040 0.9086 0.9132
3075.000000 0.9178 0.9181 0.9183 0.9185 0.9187
3080.000000 0.9189 0.9191 0.9192 0.9194 0.9196
3085.000000 0.9199 0.9201 0.9202 0.9204 0.9205
3090.000000 0.9206 0.9207 0.9207 0.9207 0.9207
3095.000000 0.9208 0.9208 0.9208 0.9213 0.9209
3100.000000 0.9210 0.9210 0.9211 0.9211 0.9211
3105.000000 0.9211 0.9212 0.9212 0.9212 0.9212
3110.000000 0.9213 0.9213 0.9213 0.9213 0.9214
3115.000000 0.9214 0.9214 0.9214 0.9215 0.9215
3120.000000 0.9216 0.9216 0.9216 0.9216 0.9216
3125.000000 0.9216 0.9215 0.9215 0.9215 0.9214
3130.000000 0.9214 0.9214 0.9214 0.9213 0.9213
3135.000000 0.9213 0.9213 0.9212 0.9212 0.9212
3140.000000 0.9212 0.9211 0.9211 0.9210 0.9210
3145.000000 0.9209 0.9209 0.9209 0.9209 0.9208
3150.000000 0.9208 0.9208 0.9208 0.9207 0.9207
3155.000000 0.9207 0.9207 0.9206 0.9205 0.9205
3160.000000 0.9204 0.9203 0.9201 0.9199 0.9197
3165.000000 0.9196 0.9194 0.9192 0.9190 0.9189
3170.000000 0.9187 0.9185 0.9184 0.9182 0.9180
3175.000000 0.9178 0.9176 0.9174 0.9172 0.9170
3180.000000 0.9169 0.9167 0.9165 0.9163 0.9162
3185.000000 0.9160 0.9158 0.9157 0.9155 0.9153
3190.000000 0.9151 0.9150 0.9148 0.9146 0.9145
3195.000000 0.9143 0.9141 0.9139 0.9138 0.9136
3200.000000 0.9134 0.9133 0.9131 0.9129 0.9127
3205.000000 0.9126 0.9124 0.9122 0.9121 0.9119
3210.000000 0.9117 0.9114 0.9112 0.9109 0.9107
3215.000000 0.9105 0.9102 0.9100 0.9097 0.9095
3220.000000 0.9092 0.9090 0.9088 0.9085 0.9083
3225.000000 0.9080 0.9078 0.9076 0.9073 0.9071
3230.000000 0.9068 0.9066 0.9064 0.9061 0.9059
3235.000000 0.9056 0.9054 0.9052 0.9049 0.9047
3240.000000 0.9045 0.9042 0.9040 0.9037 0.9035
3245.000000 0.9033 0.9030 0.9028 0.9026 0.9023
3250.000000 0.9021 0.9018 0.9016 0.9014 0.9012
3255.000000 0.9010 0.9007 0.9005 0.9002 0.9000
3260.000000 0.8997 0.8993 0.8990 0.8986 0.8983
3265.000000 0.8979 0.8976 0.8973 0.8969 0.8966
3270.000000 0.8962 0.8959 0.8955 0.8952 0.8949
3275.000000 0.8946 0.8942 0.8939 0.8935 0.8932
3280.000000 0.8928 0.8925 0.8922 0.8918 0.8915
3285.000000 0.8912 0.8909 0.8905 0.8902 0.8898
3290.000000 0.8895 0.8892 0.8889 0.8886 0.8883
3295.000000 0.8881 0.8878 0.8876 0.8874 0.8872
3300.000000 0.8869 0.8867 0.8865 0.8862 0.8860
3305.000000 0.8858 0.8856 0.8855 0.8855 0.8856
3310.000000 0.8857 0.8857 0.8858 0.8859 0.8859
3315.000000 0.8860 0.8855 0.8865 0.8869 0.8873
3320.000000 0.8876 0.8883 0.8889 0.8895 0.8902
3325.000000 0.8909 0.8918 0.8927 0.8936 0.8946
3330.000000 0.8959 0.8973 0.8986 0.9000 0.9011
3335.000000 0.9020 0.9029 0.9038 0.9047 0.9056
3340.000000 0.9065 0.9074 0.9083 0.9092 0.9102
3345.000000 0.9111 0.9120 0.9128 0.9134 0.9139
3350.000000 0.9145 0.9150 0.9156 0.9161 0.9167
3355.000000 0.9173 0.9178 0.9183 0.9189 0.9194
3360.000000 0.9199 0.9205 0.9210 0.9216 0.9221
3365.000000 0.9227 0.9232 0.9238 0.9243 0.9249
3370.000000 0.9254 0.9259 0.9264 0.9269 0.9273
3375.000000 0.9276 0.9279 0.9282 0.9284 0.9287
3380.000000 0.9290 0.9294 0.9297 0.9300 0.9302
3385.000000 0.9305 0.9308 0.9311 0.9314 0.9317
3390.000000 0.9320 0.9323 0.9326 0.9329 0.9332
3395.000000 0.9335 0.9337 0.9340 0.9343 0.9346
3400.000000 0.9349 0.9351 0.9354 0.9357 0.9360
3405.000000 0.9363 0.9367 0.9367 0.9367 0.9368
3410.000000 0.9368 0.9369 0.9369 0.9370 0.9371
3415.000000 0.9371 0.9372 0.9373 0.9373 0.9374
3420.000000 0.9375 0.9375 0.9376 0.9376 0.9377
3425.000000 0.9378 0.9378 0.9379 0.9380 0.9380
3430.000000 0.9381 0.9381 0.9381 0.9381 0.9381
3435.000000 0.9381 0.9381 0.9381 0.9381 0.9382
3440.000000 0.9382 0.9382 0.9382 0.9382 0.9382
3445.000000 0.9382 0.9382 0.9382 0.9382 0.9382
3450.000000 0.9382 0.9382 0.9382 0.9382 0.9383
3455.000000 0.9383 0.9383 0.9383 0.9383 0.9383
3460.000000 0.9383 0.9383 0.9383 0.9384 0.9384
3465.000000 0.9384 0.9384 0.9384 0.9384 0.9384
3470.000000 0.9384 0.9384 0.9384 0.9384 0.9384
3475.000000 0.9384 0.9384 0.9384 0.9383 0.9383
3480.000000 0.9383 0.9383 0.9382 0.9382 0.9382
3485.000000 0.9382 0.9382 0.9381 0.9381 0.9381
3490.000000 0.9380 0.9380 0.9379 0.9379 0.9379
3495.000000 0.9379 0.9379 0.9378 0.9378 0.9378
3500.000000 0.9378 0.9378 0.9377 0.9377 0.9377
3505.000000 0.9377 0.9377 0.9376 0.9376 0.9376
3510.000000 0.9376 0.9376 0.9375 0.9375 0.9375
3515.000000 0.9375 0.9375 0.9374 0.9374 0.9374
3520.000000 0.9374 0.9374 0.9373 0.9373 0.9373
3525.000000 0.9373 0.9373 0.9372 0.9372 0.9372
3530.000000 0.9372 0.9372 0.9371 0.9371 0.9371
3535.000000 0.9371 0.9371 0.9370 0.9370 0.9370
3540.000000 0.9370 0.9370 0.9369 0.9369 0.9369
3545.000000 0.9369 0.9369 0.9368 0.9368 0.9368
3550.000000 0.9368 0.9368 0.9367 0.9367 0.9367
3555.000000 0.9367 0.9367 0.9366 0.9366 0.9366
3560.000000 0.9366 0.9366 0.9365 0.9365 0.9365
3565.000000 0.9365 0.9365 0.9364 0.9364 0.9364
3570.000000 0.9364 0.9364 0.9363 0.9363 0.9363
3575.000000 0.9363 0.9363 0.9363 0.9363 0.9363
3580.000000 0.9363 0.9363 0.9362 0.9362 0.9362
3585.000000 0.9362 0.9362 0.9362 0.9362 0.9362
3590.000000 0.9362 0.9362 0.9362 0.9362 0.9362
3595.000000 0.9362 0.9362 0.9362 0.9361 0.9361
3600.000000 0.9361 0.9361 0.9361 0.9361 0.9361
3605.000000 0.9361 0.9361 0.9361 0.9361 0.9361
3610.000000 0.9361 0.9361 0.9361 0.9361 0.9361
3615.000000 0.9361 0.9361 0.9361 0.9360 0.9360
3620.000000 0.9360 0.9360 0.9360 0.9360 0.9360
3625.000000 0.9360 0.9360 0.9360 0.9360 0.9360
3630.000000 0.9360 0.9360 0.9360 0.9360 0.9359
3635.000000 0.9359 0.9359 0.9359 0.9359 0.9359
3640.000000 0.9359 0.9359 0.9359 0.9359 0.9359
3645.000000 0.9358 0.9358 0.9358 0.9358 0.9358
3650.000000 0.9358 0.9358 0.9358 0.9358 0.9358
3655.000000 0.9357 0.9357 0.9357 0.9357 0.9357
3660.000000 0.9357 0.9356 0.9356 0.9356 0.9356
3665.000000 0.9356 0.9355 0.9355 0.9355 0.9355
3670.000000 0.9355 0.9355 0.9355 0.9355 0.9355
3675.000000 0.9355 0.9355 0.9354 0.9354 0.9354
3680.000000 0.9354 0.9354 0.9353 0.9353 0.9353
3685.000000 0.9353 0.9353 0.9353 0.9352 0.9352
3690.000000 0.9352 0.9352 0.9352 0.9352 0.9352
3695.000000 0.9352 0.9352 0.9352 0.9352 0.9351
3700.000000 0.9351 0.9351 0.9351 0.9351 0.9350
3705.000000 0.9350 0.9350 0.9350 0.9350 0.9350
3710.000000 0.9349 0.9349 0.9349 0.9349 0.9349
3715.000000 0.9348 0.9348 0.9348 0.9348 0.9348
3720.000000 0.9348 0.9348 0.9348 0.9348 0.9348
3725.000000 0.9348 0.9349 0.9349 0.9349 0.9349
3730.000000 0.9349 0.9349 0.9350 0.9350 0.9350
3735.000000 0.9351 0.9351 0.9352 0.9352 0.9352
3740.000000 0.9352 0.9352 0.9352 0.9353 0.9353
3745.000000 0.9353 0.9353 0.9353 0.9353 0.9354
3750.000000 0.9354 0.9355 0.9355 0.9355 0.9356
3755.000000 0.9356 0.9356 0.9356 0.9356 0.9356
3760.000000 0.9357 0.9357 0.9357 0.9357 0.9357
3765.000000 0.9357 0.9358 0.9358 0.9359 0.9359
3770.000000 0.9359 0.9360 0.9360 0.9360 0.9360
3775.000000 0.9360 0.9360 0.9361 0.9361 0.9361
3780.000000 0.9362 0.9362 0.9362 0.9363 0.9363
3785.000000 0.9363 0.9363 0.9363 0.9364 0.9364
3790.000000 0.9364 0.9364 0.9364 0.9364 0.9365
3795.000000 0.9365 0.9365 0.9366 0.9366 0.9366
3800.000000 0.9367 0.9367 0.9368 0.9368 0.9369
3805.000000 0.9369 0.9370 0.9370 0.9371 0.9371
3810.000000 0.9372 0.9373 0.9373 0.9373 0.9374
3815.000000 0.9374 0.9374 0.9375 0.9375 0.9376
3820.000000 0.9376 0.9377 0.9377 0.9378 0.9378
3825.000000 0.9378 0.9379 0.9379 0.9379 0.9380
3830.000000 0.9380 0.9381 0.9381 0.9382 0.9382
3835.000000 0.9383 0.9383 0.9383 0.9384 0.9384
3840.000000 0.9384 0.9385 0.9385 0.9386 0.9386
3845.000000 0.9387 0.9387 0.9388 0.9388 0.9388
3850.000000 0.9389 0.9389 0.9389 0.9390 0.9390
3855.000000 0.9391 0.9391 0.9392 0.9392 0.9393
3860.000000 0.9393 0.9393 0.9394 0.9394 0.9395
3865.000000 0.9395 0.9396 0.9396 0.9397 0.9397
3870.000000 0.9398 0.9398 0.9398 0.9399 0.9399
3875.000000 0.9399 0.9400 0.9400 0.9400 0.9401
3880.000000 0.9401 0.9401 0.9402 0.9402 0.9403
3885.000000 0.9403 0.9403 0.9404 0.9404 0.9405
3890.000000 0.9405 0.9405 0.9406 0.9406 0.9406
3895.000000 0.9407 0.9407 0.9407 0.9408 0.9408
3900.000000 0.9408 0.9409 0.9409 0.9409 0.9409
3905.000000 0.9409 0.9409 0.9410 0.9410 0.9410
3910.000000 0.9410 0.9410 0.9410 0.9411 0.9411
3915.000000 0.9411 0.9411 0.9411 0.9411 0.9412
3920.000000 0.9412 0.9412 0.9412 0.9412 0.9412
3925.000000 0.9413 0.9413 0.9413 0.9413 0.9413
3930.000000 0.9413 0.9413 0.9413 0.9413 0.9413
3935.000000 0.9413 0.9413 0.9413 0.9414 0.9414
3940.000000 0.9414 0.9414 0.9414 0.9414 0.9415
3945.000000 0.9415 0.9415 0.9415 0.9415 0.9415
3950.000000 0.9416 0.9416 0.9416 0.9416 0.9416
3955.000000 0.9416 0.9417 0.9417 0.9417 0.9417
3960.000000 0.9417 0.9417 0.9418 0.9418 0.9418
3965.000000 0.9418 0.9418 0.9418 0.9418 0.9419
3970.000000 0.9419 0.9419 0.9419 0.9419 0.9419
3975.000000 0.9420 0.9420 0.9420 0.9420 0.9420
3980.000000 0.9420 0.9421 0.9421 0.9421 0.9421
3985.000000 0.9421 0.9421 0.9421 0.9421 0.9421
3990.000000 0.9421 0.9421 0.9421 0.9421 0.9422
3995.000000 0.9422 0.9422 0.9422 0.9422 0.9422
4000.000000 0.9423
##END=
