##TITLE=Penicillin G Procaine
##JCAMP-DX=4.24
##DATA TYPE=INFRARED SPECTRUM
##CLASS=COBLENTZ III
##ORIGIN=THE SQUIBB INSTITUTE FOR MEDICAL RESEARCH
##OWNER=Copyright (C) 1987 by the Coblentz Society
Collection (C) 2018 copyright by the U.S. Secretary of Commerce
on behalf of the United States of America. All rights reserved.
##DATE=1955/04/14
##NAMES=BENZYLPENICILLIN PROCAINE
##MOLFORM=C29 H38 N4 O6 S
##SOURCE REFERENCE=COBLENTZ NO. 5400
##$NIST ID=B6005400
##$NIST SOURCE=COBLENTZ
##$NIST IMAGE=cob5400
##SPECTROMETER/DATA SYSTEM=PERKIN-ELMER 21 (GRATING)
##STATE=SOLID (1.2 mg / 400 mg KBr DISC)
##RESOLUTION=2
##XUNITS=1/CM
##YUNITS=TRANSMITTANCE
##XFACTOR=1.0
##YFACTOR=1
##FIRSTX=663
##LASTX=4000
##FIRSTY=0.657
##MAXX=4000
##MINX=663
##MAXY=1.0323
##MINY=0.0554
##NPOINTS=3338
##XYDATA=(X++(Y..Y))
663.000000 0.6570 0.6709 0.6852 0.7164 0.7378
668.000000 0.7463 0.7525 0.7576 0.7620 0.7661
673.000000 0.7696 0.7719 0.7736 0.7746 0.7740
678.000000 0.7749 0.7738 0.7716 0.7693 0.7668
683.000000 0.7628 0.7566 0.7478 0.7389 0.7291
688.000000 0.7149 0.6922 0.6597 0.6228 0.5953
693.000000 0.5645 0.5515 0.5500 0.5623 0.5639
698.000000 0.5443 0.5276 0.5154 0.5161 0.5348
703.000000 0.5745 0.6141 0.6534 0.6728 0.6859
708.000000 0.6954 0.7020 0.7047 0.7053 0.7077
713.000000 0.7037 0.7019 0.6994 0.6961 0.6893
718.000000 0.6775 0.6643 0.6522 0.6400 0.6224
723.000000 0.6003 0.5781 0.5561 0.5341 0.5122
728.000000 0.4920 0.4785 0.4767 0.4811 0.4917
733.000000 0.5124 0.5429 0.5732 0.6178 0.6461
738.000000 0.6900 0.7134 0.7228 0.7322 0.7478
743.000000 0.7499 0.7594 0.7676 0.7720 0.7748
748.000000 0.7766 0.7775 0.7770 0.7763 0.7748
753.000000 0.7723 0.7694 0.7655 0.7605 0.7549
758.000000 0.7497 0.7456 0.7429 0.7420 0.7420
763.000000 0.7420 0.7406 0.7328 0.7185 0.6947
768.000000 0.6529 0.6111 0.5693 0.5278 0.4679
773.000000 0.3928 0.3462 0.3440 0.4093 0.4932
778.000000 0.5049 0.5101 0.5191 0.5369 0.5657
783.000000 0.6513 0.6763 0.7006 0.7332 0.7512
788.000000 0.7578 0.7621 0.7581 0.7545 0.7510
793.000000 0.7490 0.7477 0.7465 0.7555 0.7659
798.000000 0.7821 0.7983 0.8120 0.8215 0.8289
803.000000 0.8309 0.8321 0.8335 0.8355 0.8400
808.000000 0.8439 0.8433 0.8427 0.8412 0.8393
813.000000 0.8377 0.8370 0.8368 0.8373 0.8383
818.000000 0.8407 0.8459 0.8541 0.8627 0.8716
823.000000 0.8784 0.8825 0.8841 0.8853 0.8852
828.000000 0.8850 0.8818 0.8839 0.8831 0.8817
833.000000 0.8791 0.8747 0.8680 0.8581 0.8460
838.000000 0.8319 0.8118 0.7868 0.7485 0.6915
843.000000 0.6629 0.6032 0.5423 0.5404 0.5411
848.000000 0.5999 0.6485 0.6970 0.7454 0.7767
853.000000 0.7935 0.8003 0.8044 0.8228 0.8316
858.000000 0.8335 0.8391 0.8580 0.8626 0.8613
863.000000 0.8611 0.8572 0.8519 0.8468 0.8401
868.000000 0.8286 0.8147 0.7986 0.7726 0.7630
873.000000 0.7625 0.7684 0.7860 0.8036 0.8211
878.000000 0.8385 0.8560 0.8731 0.8817 0.8876
883.000000 0.8912 0.8935 0.8937 0.8938 0.8938
888.000000 0.8938 0.8938 0.8937 0.8939 0.8944
893.000000 0.9008 0.9034 0.9027 0.9024 0.9017
898.000000 0.9009 0.9005 0.9052 0.8997 0.8992
903.000000 0.8988 0.8984 0.8982 0.8979 0.8977
908.000000 0.8975 0.8964 0.8924 0.8876 0.8825
913.000000 0.8774 0.8718 0.8658 0.8571 0.8487
918.000000 0.8432 0.8407 0.8359 0.8426 0.8460
923.000000 0.8494 0.8586 0.8709 0.8764 0.8777
928.000000 0.8787 0.8780 0.8780 0.8779 0.8779
933.000000 0.8778 0.8778 0.8775 0.8771 0.8769
938.000000 0.8765 0.8758 0.8752 0.8745 0.8740
943.000000 0.8739 0.8742 0.8761 0.8791 0.8810
948.000000 0.8824 0.8827 0.8822 0.8810 0.8787
953.000000 0.8764 0.8741 0.8719 0.8703 0.8705
958.000000 0.8712 0.8727 0.8741 0.8753 0.8756
963.000000 0.8744 0.8697 0.8629 0.8539 0.8469
968.000000 0.8467 0.8471 0.8442 0.8505 0.8558
973.000000 0.8630 0.8688 0.8690 0.8648 0.8657
978.000000 0.8629 0.8598 0.8546 0.8478 0.8388
983.000000 0.8295 0.8204 0.8114 0.8018 0.7920
988.000000 0.7815 0.7688 0.7602 0.7513 0.7475
993.000000 0.7470 0.7556 0.7638 0.7716 0.7728
998.000000 0.7742 0.7693 0.7638 0.7529 0.7337
1003.000000 0.7242 0.7170 0.7153 0.7149 0.7192
1008.000000 0.7250 0.7299 0.7312 0.7288 0.7271
1013.000000 0.7205 0.7132 0.7050 0.6959 0.6863
1018.000000 0.6740 0.6619 0.6498 0.6377 0.6270
1023.000000 0.6157 0.6008 0.5861 0.5695 0.5520
1028.000000 0.5487 0.5667 0.6034 0.6401 0.6767
1033.000000 0.7131 0.7486 0.7633 0.7678 0.7707
1038.000000 0.7728 0.7732 0.7729 0.7694 0.7657
1043.000000 0.7610 0.7535 0.7446 0.7359 0.7246
1048.000000 0.7148 0.7063 0.6971 0.6871 0.6816
1053.000000 0.6822 0.6854 0.6883 0.6876 0.6843
1058.000000 0.6792 0.6710 0.6632 0.6555 0.6477
1063.000000 0.6400 0.6323 0.6246 0.6170 0.6093
1068.000000 0.6016 0.5941 0.5861 0.5809 0.5772
1073.000000 0.5761 0.5748 0.5781 0.5825 0.5886
1078.000000 0.5953 0.6025 0.6097 0.6149 0.6189
1083.000000 0.6222 0.6228 0.6186 0.6188 0.6155
1088.000000 0.6110 0.6061 0.6008 0.5950 0.5875
1093.000000 0.5797 0.5712 0.5636 0.5561 0.5485
1098.000000 0.5401 0.5313 0.5223 0.5121 0.5018
1103.000000 0.4923 0.4837 0.4751 0.4651 0.4535
1108.000000 0.4400 0.4246 0.3978 0.3723 0.3514
1113.000000 0.3305 0.3096 0.2888 0.2680 0.2468
1118.000000 0.2331 0.2280 0.2262 0.2254 0.2682
1123.000000 0.3107 0.3532 0.3956 0.4379 0.4802
1128.000000 0.5223 0.5644 0.6064 0.6270 0.6329
1133.000000 0.6355 0.6363 0.6327 0.6352 0.6341
1138.000000 0.6329 0.6310 0.6283 0.6251 0.6207
1143.000000 0.6162 0.6105 0.6045 0.5982 0.5917
1148.000000 0.5858 0.5808 0.5759 0.5710 0.5652
1153.000000 0.5592 0.5527 0.5439 0.5345 0.5230
1158.000000 0.5104 0.4978 0.4823 0.4650 0.4429
1163.000000 0.4188 0.3941 0.3692 0.3454 0.3256
1168.000000 0.3018 0.2677 0.2457 0.2334 0.2212
1173.000000 0.2084 0.1992 0.1958 0.1947 0.1942
1178.000000 0.2153 0.2780 0.3430 0.4080 0.4728
1183.000000 0.5375 0.6021 0.6657 0.7042 0.7142
1188.000000 0.7193 0.7240 0.7294 0.7363 0.7430
1193.000000 0.7489 0.7538 0.7570 0.7569 0.7579
1198.000000 0.7562 0.7549 0.7520 0.7464 0.7402
1203.000000 0.7339 0.7260 0.7124 0.6977 0.6829
1208.000000 0.6682 0.6535 0.6388 0.6242 0.6096
1213.000000 0.5950 0.5804 0.5721 0.5702 0.5671
1218.000000 0.5795 0.5935 0.6081 0.6226 0.6372
1223.000000 0.6516 0.6532 0.6527 0.6524 0.6508
1228.000000 0.6463 0.6379 0.6299 0.6223 0.6140
1233.000000 0.6040 0.5946 0.5824 0.5613 0.5395
1238.000000 0.5177 0.4959 0.4742 0.4598 0.4550
1243.000000 0.4530 0.4519 0.4513 0.4501 0.4491
1248.000000 0.4476 0.4457 0.4431 0.4393 0.4234
1253.000000 0.3934 0.3635 0.3336 0.3038 0.2757
1258.000000 0.2669 0.2504 0.2325 0.2146 0.1967
1263.000000 0.1789 0.1611 0.1434 0.1257 0.1080
1268.000000 0.0894 0.0728 0.0621 0.0646 0.0640
1273.000000 0.0691 0.0804 0.1015 0.1252 0.1489
1278.000000 0.1725 0.1961 0.2197 0.2390 0.2560
1283.000000 0.2767 0.2974 0.3180 0.3387 0.3593
1288.000000 0.3798 0.3998 0.4164 0.4237 0.4274
1293.000000 0.4292 0.4301 0.4306 0.4301 0.4293
1298.000000 0.4281 0.4263 0.4210 0.4036 0.3855
1303.000000 0.3676 0.3497 0.3318 0.3125 0.3038
1308.000000 0.3011 0.2988 0.3045 0.3080 0.3115
1313.000000 0.3149 0.3137 0.3162 0.3099 0.3018
1318.000000 0.2936 0.2854 0.2768 0.2766 0.2822
1323.000000 0.3003 0.3189 0.3375 0.3561 0.3746
1328.000000 0.3932 0.4117 0.4301 0.4485 0.4670
1333.000000 0.4853 0.5036 0.5220 0.5403 0.5585
1338.000000 0.5768 0.5864 0.5884 0.5871 0.5863
1343.000000 0.5855 0.5842 0.5816 0.5793 0.5721
1348.000000 0.5609 0.5497 0.5384 0.5273 0.5162
1353.000000 0.5050 0.4939 0.4828 0.4717 0.4644
1358.000000 0.4642 0.4648 0.4658 0.4673 0.4687
1363.000000 0.4737 0.4811 0.4883 0.4957 0.5029
1368.000000 0.5102 0.5174 0.5246 0.5278 0.5275
1373.000000 0.5232 0.5111 0.4991 0.4872 0.4752
1378.000000 0.4632 0.4512 0.4395 0.4308 0.4247
1383.000000 0.4191 0.4137 0.4084 0.4023 0.3960
1388.000000 0.3895 0.3828 0.3759 0.3690 0.3619
1393.000000 0.3549 0.3476 0.3404 0.3328 0.3241
1398.000000 0.3194 0.3167 0.3160 0.3138 0.3169
1403.000000 0.3305 0.3545 0.3785 0.4023 0.4262
1408.000000 0.4500 0.4738 0.4976 0.5213 0.5450
1413.000000 0.5687 0.5923 0.6150 0.6296 0.6522
1418.000000 0.6694 0.6769 0.6823 0.6870 0.6904
1423.000000 0.6919 0.6924 0.6956 0.6924 0.6918
1428.000000 0.6886 0.6767 0.6633 0.6500 0.6367
1433.000000 0.6234 0.6100 0.5968 0.5836 0.5703
1438.000000 0.5571 0.5439 0.5308 0.5175 0.5058
1443.000000 0.4984 0.4933 0.4913 0.4901 0.4901
1448.000000 0.4902 0.4904 0.4907 0.4908 0.4835
1453.000000 0.4752 0.4669 0.4586 0.4534 0.4530
1458.000000 0.4532 0.4543 0.4562 0.4594 0.4634
1463.000000 0.4666 0.4728 0.4835 0.4944 0.4994
1468.000000 0.5008 0.4968 0.4913 0.4858 0.4816
1473.000000 0.4808 0.5278 0.6095 0.6624 0.6722
1478.000000 0.6765 0.6787 0.6801 0.6812 0.6818
1483.000000 0.6818 0.6811 0.6832 0.6566 0.6392
1488.000000 0.6217 0.6043 0.5870 0.5696 0.5523
1493.000000 0.5350 0.5177 0.5019 0.4967 0.4896
1498.000000 0.4972 0.5247 0.5542 0.5836 0.5995
1503.000000 0.6004 0.6016 0.5997 0.5899 0.5556
1508.000000 0.5472 0.5409 0.5348 0.5277 0.5165
1513.000000 0.5039 0.4913 0.4787 0.4660 0.4535
1518.000000 0.4409 0.4276 0.4267 0.4282 0.4376
1523.000000 0.4557 0.4738 0.4850 0.4872 0.4873
1528.000000 0.4875 0.4904 0.4872 0.4851 0.4806
1533.000000 0.4744 0.4669 0.4596 0.4544 0.4487
1538.000000 0.4379 0.4207 0.4020 0.3834 0.3647
1543.000000 0.3497 0.3413 0.3352 0.3312 0.3289
1548.000000 0.3270 0.3252 0.3249 0.3228 0.3245
1553.000000 0.3254 0.3271 0.3296 0.3325 0.3358
1558.000000 0.3401 0.3488 0.3639 0.3793 0.3917
1563.000000 0.4008 0.4081 0.4144 0.4207 0.4272
1568.000000 0.4332 0.4379 0.4418 0.4447 0.4464
1573.000000 0.4478 0.4487 0.4491 0.4496 0.4495
1578.000000 0.4489 0.4476 0.4459 0.4438 0.4401
1583.000000 0.4242 0.4033 0.3824 0.3614 0.3405
1588.000000 0.3195 0.2986 0.2777 0.2570 0.2362
1593.000000 0.2154 0.1946 0.1739 0.1532 0.1326
1598.000000 0.1128 0.0937 0.0787 0.0693 0.0638
1603.000000 0.0607 0.0585 0.0575 0.0554 0.0577
1608.000000 0.0591 0.0609 0.0631 0.0660 0.0693
1613.000000 0.0740 0.0771 0.0800 0.1005 0.1253
1618.000000 0.1502 0.1751 0.2000 0.2247 0.2420
1623.000000 0.2484 0.2509 0.2534 0.2559 0.2590
1628.000000 0.2648 0.2923 0.3411 0.3451 0.3475
1633.000000 0.3487 0.3491 0.3460 0.3400 0.3339
1638.000000 0.3277 0.3216 0.3154 0.3092 0.3031
1643.000000 0.2970 0.2908 0.2847 0.2787 0.2726
1648.000000 0.2665 0.2604 0.2561 0.2525 0.2498
1653.000000 0.2476 0.2456 0.2435 0.2418 0.2406
1658.000000 0.2399 0.2396 0.2400 0.2403 0.2441
1663.000000 0.2469 0.2499 0.2599 0.2802 0.3065
1668.000000 0.3329 0.3592 0.3855 0.4117 0.4361
1673.000000 0.4422 0.4425 0.4427 0.4429 0.4428
1678.000000 0.4425 0.4450 0.4264 0.4078 0.3888
1683.000000 0.3699 0.3509 0.3320 0.3130 0.2941
1688.000000 0.2753 0.2565 0.2377 0.2189 0.2001
1693.000000 0.1813 0.1626 0.1439 0.1257 0.1243
1698.000000 0.1233 0.1292 0.1496 0.1833 0.2170
1703.000000 0.2507 0.2843 0.3179 0.3514 0.3849
1708.000000 0.4183 0.4517 0.4851 0.5150 0.5246
1713.000000 0.5292 0.5332 0.5376 0.5466 0.5789
1718.000000 0.6253 0.6720 0.7078 0.7267 0.7320
1723.000000 0.7370 0.7389 0.7402 0.7408 0.7412
1728.000000 0.7414 0.7411 0.7409 0.7406 0.7384
1733.000000 0.7396 0.7385 0.7374 0.7361 0.7344
1738.000000 0.7324 0.7304 0.7282 0.7259 0.7232
1743.000000 0.7203 0.7171 0.7137 0.7103 0.7068
1748.000000 0.7033 0.6993 0.6947 0.6898 0.6846
1753.000000 0.6792 0.6743 0.6695 0.6642 0.6580
1758.000000 0.6516 0.6440 0.6345 0.6247 0.6155
1763.000000 0.6057 0.5824 0.5497 0.5134 0.4771
1768.000000 0.4409 0.4048 0.3687 0.3326 0.2965
1773.000000 0.2605 0.2245 0.1887 0.1640 0.1548
1778.000000 0.1499 0.1452 0.1412 0.1378 0.1346
1783.000000 0.1325 0.1306 0.1295 0.1291 0.1290
1788.000000 0.1398 0.1256 0.1978 0.2295 0.2612
1793.000000 0.2929 0.3246 0.3562 0.3878 0.4193
1798.000000 0.4508 0.4822 0.5137 0.5451 0.5765
1803.000000 0.6078 0.6391 0.6704 0.7003 0.7187
1808.000000 0.7291 0.7365 0.7435 0.7515 0.7579
1813.000000 0.7613 0.7643 0.7673 0.7704 0.7735
1818.000000 0.7768 0.7802 0.7835 0.7870 0.7910
1823.000000 0.7949 0.7988 0.8038 0.8139 0.8235
1828.000000 0.8323 0.8402 0.8464 0.8529 0.8601
1833.000000 0.8683 0.8781 0.8868 0.8944 0.9009
1838.000000 0.9074 0.9136 0.9193 0.9242 0.9293
1843.000000 0.9337 0.9376 0.9411 0.9446 0.9474
1848.000000 0.9497 0.9515 0.9532 0.9547 0.9559
1853.000000 0.9571 0.9583 0.9594 0.9602 0.9610
1858.000000 0.9617 0.9624 0.9629 0.9635 0.9640
1863.000000 0.9645 0.9651 0.9656 0.9661 0.9667
1868.000000 0.9671 0.9675 0.9679 0.9683 0.9687
1873.000000 0.9691 0.9694 0.9698 0.9702 0.9706
1878.000000 0.9709 0.9713 0.9717 0.9720 0.9724
1883.000000 0.9727 0.9731 0.9734 0.9736 0.9737
1888.000000 0.9737 0.9738 0.9738 0.9738 0.9713
1893.000000 0.9738 0.9738 0.9738 0.9739 0.9739
1898.000000 0.9739 0.9739 0.9739 0.9739 0.9739
1903.000000 0.9738 0.9738 0.9738 0.9738 0.9737
1908.000000 0.9737 0.9734 0.9731 0.9727 0.9723
1913.000000 0.9719 0.9714 0.9711 0.9707 0.9702
1918.000000 0.9698 0.9694 0.9689 0.9685 0.9681
1923.000000 0.9676 0.9672 0.9668 0.9664 0.9660
1928.000000 0.9655 0.9650 0.9648 0.9650 0.9654
1933.000000 0.9658 0.9661 0.9665 0.9669 0.9672
1938.000000 0.9676 0.9679 0.9682 0.9686 0.9689
1943.000000 0.9692 0.9694 0.9698 0.9701 0.9703
1948.000000 0.9706 0.9709 0.9711 0.9714 0.9717
1953.000000 0.9720 0.9722 0.9724 0.9724 0.9726
1958.000000 0.9727 0.9728 0.9729 0.9731 0.9731
1963.000000 0.9732 0.9734 0.9734 0.9735 0.9735
1968.000000 0.9735 0.9735 0.9735 0.9736 0.9736
1973.000000 0.9736 0.9736 0.9736 0.9736 0.9735
1978.000000 0.9735 0.9735 0.9734 0.9733 0.9733
1983.000000 0.9731 0.9729 0.9726 0.9723 0.9720
1988.000000 0.9718 0.9715 0.9713 0.9710 0.9707
1993.000000 0.9704 0.9701 0.9698 0.9695 0.9691
1998.000000 0.9687 0.9683 0.9680 0.9676 0.9672
2003.000000 0.9668 0.9665 0.9661 0.9657 0.9653
2008.000000 0.9649 0.9646 0.9642 0.9638 0.9635
2013.000000 0.9631 0.9627 0.9624 0.9620 0.9616
2018.000000 0.9613 0.9610 0.9606 0.9603 0.9599
2023.000000 0.9595 0.9592 0.9590 0.9587 0.9585
2028.000000 0.9582 0.9580 0.9578 0.9575 0.9573
2033.000000 0.9571 0.9569 0.9567 0.9564 0.9562
2038.000000 0.9559 0.9557 0.9555 0.9553 0.9551
2043.000000 0.9550 0.9548 0.9545 0.9543 0.9541
2048.000000 0.9540 0.9538 0.9536 0.9534 0.9532
2053.000000 0.9530 0.9528 0.9526 0.9524 0.9522
2058.000000 0.9520 0.9517 0.9515 0.9514 0.9511
2063.000000 0.9509 0.9506 0.9504 0.9503 0.9500
2068.000000 0.9498 0.9496 0.9493 0.9491 0.9489
2073.000000 0.9487 0.9483 0.9478 0.9473 0.9469
2078.000000 0.9465 0.9461 0.9456 0.9451 0.9447
2083.000000 0.9442 0.9438 0.9434 0.9429 0.9425
2088.000000 0.9420 0.9415 0.9411 0.9406 0.9402
2093.000000 0.9398 0.9393 0.9388 0.9383 0.9378
2098.000000 0.9373 0.9368 0.9363 0.9358 0.9353
2103.000000 0.9348 0.9342 0.9337 0.9332 0.9327
2108.000000 0.9322 0.9317 0.9312 0.9307 0.9302
2113.000000 0.9297 0.9293 0.9289 0.9285 0.9282
2118.000000 0.9278 0.9274 0.9271 0.9268 0.9264
2123.000000 0.9261 0.9257 0.9253 0.9250 0.9247
2128.000000 0.9243 0.9239 0.9236 0.9233 0.9231
2133.000000 0.9228 0.9225 0.9222 0.9220 0.9217
2138.000000 0.9213 0.9210 0.9208 0.9206 0.9206
2143.000000 0.9206 0.9206 0.9206 0.9206 0.9206
2148.000000 0.9207 0.9207 0.9206 0.9206 0.9205
2153.000000 0.9204 0.9203 0.9203 0.9202 0.9201
2158.000000 0.9197 0.9194 0.9189 0.9184 0.9179
2163.000000 0.9174 0.9169 0.9164 0.9159 0.9154
2168.000000 0.9149 0.9144 0.9139 0.9134 0.9129
2173.000000 0.9124 0.9119 0.9114 0.9109 0.9104
2178.000000 0.9099 0.9094 0.9089 0.9084 0.9079
2183.000000 0.9074 0.9070 0.9065 0.9060 0.9055
2188.000000 0.9050 0.9045 0.9040 0.9035 0.9030
2193.000000 0.9025 0.9021 0.9016 0.9011 0.9006
2198.000000 0.9001 0.8996 0.8991 0.8986 0.8981
2203.000000 0.8977 0.8972 0.8967 0.8962 0.8957
2208.000000 0.8953 0.8948 0.8943 0.8938 0.8933
2213.000000 0.8929 0.8924 0.8919 0.8914 0.8909
2218.000000 0.8905 0.8900 0.8895 0.8890 0.8886
2223.000000 0.8881 0.8876 0.8871 0.8866 0.8862
2228.000000 0.8857 0.8853 0.8848 0.8843 0.8838
2233.000000 0.8834 0.8829 0.8824 0.8819 0.8815
2238.000000 0.8810 0.8806 0.8801 0.8796 0.8791
2243.000000 0.8787 0.8782 0.8777 0.8772 0.8768
2248.000000 0.8763 0.8759 0.8755 0.8750 0.8745
2253.000000 0.8740 0.8736 0.8731 0.8726 0.8720
2258.000000 0.8715 0.8708 0.8702 0.8696 0.8690
2263.000000 0.8684 0.8678 0.8672 0.8666 0.8662
2268.000000 0.8657 0.8653 0.8648 0.8644 0.8640
2273.000000 0.8635 0.8630 0.8626 0.8621 0.8617
2278.000000 0.8613 0.8608 0.8604 0.8600 0.8595
2283.000000 0.8591 0.8587 0.8582 0.8578 0.8575
2288.000000 0.8571 0.8567 0.8563 0.8559 0.8556
2293.000000 0.8552 0.8548 0.8545 0.8541 0.8538
2298.000000 0.8534 0.8532 0.8530 0.8528 0.8527
2303.000000 0.8525 0.8523 0.8521 0.8520 0.8519
2308.000000 0.8518 0.8517 0.8515 0.8514 0.8513
2313.000000 0.8512 0.8511 0.8510 0.8509 0.8508
2318.000000 0.8508 0.8508 0.8507 0.8507 0.8507
2323.000000 0.8507 0.8506 0.8506 0.8506 0.8506
2328.000000 0.8506 0.8506 0.8505 0.8505 0.8505
2333.000000 0.8505 0.8505 0.8505 0.8505 0.8504
2338.000000 0.8504 0.8504 0.8504 0.8504 0.8504
2343.000000 0.8504 0.8503 0.8503 0.8503 0.8503
2348.000000 0.8503 0.8503 0.8502 0.8502 0.8502
2353.000000 0.8502 0.8502 0.8502 0.8502 0.8503
2358.000000 0.8503 0.8503 0.8503 0.8503 0.8503
2363.000000 0.8503 0.8503 0.8503 0.8503 0.8503
2368.000000 0.8504 0.8506 0.8507 0.8508 0.8509
2373.000000 0.8509 0.8510 0.8511 0.8512 0.8513
2378.000000 0.8513 0.8510 0.8503 0.8496 0.8488
2383.000000 0.8479 0.8471 0.8463 0.8452 0.8438
2388.000000 0.8424 0.8410 0.8396 0.8382 0.8367
2393.000000 0.8352 0.8336 0.8324 0.8317 0.8310
2398.000000 0.8309 0.8307 0.8305 0.8303 0.8302
2403.000000 0.8301 0.8300 0.8300 0.8300 0.8299
2408.000000 0.8299 0.8298 0.8297 0.8296 0.8295
2413.000000 0.8295 0.8294 0.8293 0.8292 0.8292
2418.000000 0.8291 0.8290 0.8290 0.8289 0.8288
2423.000000 0.8287 0.8286 0.8285 0.8284 0.8283
2428.000000 0.8281 0.8280 0.8279 0.8278 0.8276
2433.000000 0.8275 0.8274 0.8273 0.8271 0.8270
2438.000000 0.8268 0.8267 0.8263 0.8259 0.8255
2443.000000 0.8251 0.8248 0.8244 0.8241 0.8238
2448.000000 0.8234 0.8232 0.8228 0.8225 0.8224
2453.000000 0.8222 0.8222 0.8222 0.8223 0.8223
2458.000000 0.8223 0.8224 0.8224 0.8225 0.8225
2463.000000 0.8225 0.8225 0.8225 0.8226 0.8227
2468.000000 0.8229 0.8229 0.8230 0.8231 0.8233
2473.000000 0.8234 0.8235 0.8236 0.8237 0.8238
2478.000000 0.8239 0.8240 0.8241 0.8243 0.8244
2483.000000 0.8245 0.8247 0.8248 0.8250 0.8251
2488.000000 0.8252 0.8253 0.8254 0.8256 0.8258
2493.000000 0.8259 0.8260 0.8261 0.8263 0.8264
2498.000000 0.8265 0.8266 0.8268 0.8269 0.8270
2503.000000 0.8271 0.8272 0.8273 0.8275 0.8276
2508.000000 0.8277 0.8278 0.8279 0.8281 0.8283
2513.000000 0.8285 0.8287 0.8289 0.8291 0.8293
2518.000000 0.8295 0.8297 0.8299 0.8301 0.8303
2523.000000 0.8305 0.8307 0.8309 0.8311 0.8312
2528.000000 0.8314 0.8315 0.8317 0.8318 0.8319
2533.000000 0.8321 0.8322 0.8323 0.8324 0.8326
2538.000000 0.8327 0.8329 0.8330 0.8331 0.8333
2543.000000 0.8334 0.8335 0.8337 0.8338 0.8338
2548.000000 0.8338 0.8338 0.8338 0.8338 0.8339
2553.000000 0.8339 0.8342 0.8339 0.8339 0.8339
2558.000000 0.8339 0.8338 0.8334 0.8330 0.8327
2563.000000 0.8323 0.8320 0.8316 0.8312 0.8307
2568.000000 0.8299 0.8292 0.8285 0.8277 0.8270
2573.000000 0.8262 0.8255 0.8247 0.8236 0.8226
2578.000000 0.8215 0.8205 0.8194 0.8183 0.8171
2583.000000 0.8159 0.8147 0.8135 0.8125 0.8116
2588.000000 0.8106 0.8098 0.8090 0.8084 0.8081
2593.000000 0.8078 0.8075 0.8073 0.8071 0.8068
2598.000000 0.8065 0.8063 0.8062 0.8060 0.8060
2603.000000 0.8060 0.8060 0.8060 0.8060 0.8060
2608.000000 0.8060 0.8060 0.8060 0.8060 0.8060
2613.000000 0.8071 0.8064 0.8065 0.8067 0.8068
2618.000000 0.8070 0.8071 0.8073 0.8074 0.8076
2623.000000 0.8078 0.8080 0.8081 0.8082 0.8084
2628.000000 0.8086 0.8088 0.8089 0.8091 0.8092
2633.000000 0.8094 0.8096 0.8098 0.8099 0.8101
2638.000000 0.8103 0.8105 0.8107 0.8108 0.8110
2643.000000 0.8112 0.8114 0.8116 0.8119 0.8122
2648.000000 0.8125 0.8127 0.8130 0.8133 0.8136
2653.000000 0.8139 0.8142 0.8145 0.8147 0.8150
2658.000000 0.8153 0.8155 0.8158 0.8163 0.8168
2663.000000 0.8172 0.8177 0.8182 0.8187 0.8192
2668.000000 0.8197 0.8202 0.8207 0.8212 0.8216
2673.000000 0.8221 0.8225 0.8230 0.8235 0.8240
2678.000000 0.8245 0.8249 0.8254 0.8259 0.8264
2683.000000 0.8268 0.8273 0.8277 0.8281 0.8285
2688.000000 0.8289 0.8293 0.8297 0.8301 0.8305
2693.000000 0.8309 0.8313 0.8316 0.8320 0.8324
2698.000000 0.8326 0.8328 0.8330 0.8332 0.8333
2703.000000 0.8335 0.8337 0.8339 0.8341 0.8343
2708.000000 0.8345 0.8346 0.8348 0.8350 0.8351
2713.000000 0.8353 0.8354 0.8354 0.8353 0.8353
2718.000000 0.8352 0.8352 0.8352 0.8351 0.8351
2723.000000 0.8351 0.8350 0.8349 0.8349 0.8348
2728.000000 0.8347 0.8347 0.8346 0.8345 0.8345
2733.000000 0.8344 0.8343 0.8343 0.8363 0.8341
2738.000000 0.8341 0.8340 0.8339 0.8339 0.8337
2743.000000 0.8336 0.8335 0.8332 0.8329 0.8326
2748.000000 0.8323 0.8320 0.8316 0.8313 0.8310
2753.000000 0.8307 0.8304 0.8301 0.8298 0.8294
2758.000000 0.8290 0.8286 0.8282 0.8278 0.8274
2763.000000 0.8270 0.8266 0.8262 0.8258 0.8254
2768.000000 0.8250 0.8246 0.8241 0.8237 0.8233
2773.000000 0.8227 0.8222 0.8217 0.8211 0.8206
2778.000000 0.8200 0.8195 0.8189 0.8184 0.8177
2783.000000 0.8171 0.8164 0.8157 0.8151 0.8144
2788.000000 0.8137 0.8130 0.8123 0.8116 0.8109
2793.000000 0.8102 0.8096 0.8089 0.8082 0.8075
2798.000000 0.8068 0.8061 0.8054 0.8047 0.8040
2803.000000 0.8033 0.8026 0.8019 0.8012 0.8005
2808.000000 0.7998 0.7991 0.7984 0.7977 0.7971
2813.000000 0.7964 0.7957 0.7950 0.7943 0.7936
2818.000000 0.7929 0.7922 0.7916 0.7909 0.7902
2823.000000 0.7895 0.7888 0.7882 0.7875 0.7868
2828.000000 0.7861 0.7854 0.7847 0.7840 0.7834
2833.000000 0.7827 0.7821 0.7814 0.7807 0.7800
2838.000000 0.7793 0.7787 0.7780 0.7773 0.7766
2843.000000 0.7759 0.7752 0.7746 0.7739 0.7732
2848.000000 0.7725 0.7719 0.7712 0.7705 0.7698
2853.000000 0.7691 0.7685 0.7678 0.7671 0.7664
2858.000000 0.7658 0.7651 0.7644 0.7638 0.7631
2863.000000 0.7624 0.7617 0.7611 0.7604 0.7597
2868.000000 0.7591 0.7584 0.7577 0.7570 0.7563
2873.000000 0.7556 0.7548 0.7540 0.7532 0.7523
2878.000000 0.7515 0.7507 0.7499 0.7491 0.7483
2883.000000 0.7475 0.7466 0.7458 0.7450 0.7442
2888.000000 0.7434 0.7426 0.7418 0.7410 0.7402
2893.000000 0.7394 0.7385 0.7377 0.7369 0.7360
2898.000000 0.7352 0.7344 0.7335 0.7327 0.7319
2903.000000 0.7310 0.7302 0.7293 0.7285 0.7276
2908.000000 0.7268 0.7260 0.7251 0.7243 0.7234
2913.000000 0.7225 0.7215 0.7201 0.7187 0.7174
2918.000000 0.7160 0.7145 0.7131 0.7117 0.7104
2923.000000 0.7090 0.7076 0.7055 0.7035 0.7014
2928.000000 0.6988 0.6958 0.6928 0.6898 0.6863
2933.000000 0.6828 0.6793 0.6770 0.6750 0.6731
2938.000000 0.6711 0.6689 0.6667 0.6644 0.6622
2943.000000 0.6599 0.6576 0.6554 0.6535 0.6515
2948.000000 0.6496 0.6476 0.6457 0.6437 0.6417
2953.000000 0.6397 0.6377 0.6356 0.6329 0.6301
2958.000000 0.6274 0.6241 0.6201 0.6161 0.6121
2963.000000 0.6106 0.6093 0.6080 0.6071 0.6068
2968.000000 0.6065 0.6062 0.6059 0.6058 0.6057
2973.000000 0.6056 0.6057 0.6057 0.6058 0.6060
2978.000000 0.6062 0.6064 0.6067 0.6071 0.6075
2983.000000 0.6079 0.6086 0.6094 0.6103 0.6111
2988.000000 0.6120 0.6129 0.6138 0.6146 0.6154
2993.000000 0.6162 0.6169 0.6179 0.6189 0.6199
2998.000000 0.6209 0.6217 0.6225 0.6234 0.6235
3003.000000 0.6234 0.6233 0.6232 0.6231 0.6229
3008.000000 0.6227 0.6226 0.6224 0.6223 0.6222
3013.000000 0.6220 0.6219 0.6218 0.6217 0.6217
3018.000000 0.6216 0.6216 0.6216 0.6216 0.6216
3023.000000 0.6217 0.6218 0.6219 0.6220 0.6221
3028.000000 0.6223 0.6225 0.6227 0.6256 0.6296
3033.000000 0.6337 0.6378 0.6437 0.6496 0.6556
3038.000000 0.6615 0.6675 0.6734 0.6794 0.6853
3043.000000 0.6912 0.6971 0.7031 0.7090 0.7149
3048.000000 0.7207 0.7266 0.7321 0.7376 0.7432
3053.000000 0.7474 0.7503 0.7532 0.7562 0.7590
3058.000000 0.7619 0.7648 0.7676 0.7697 0.7718
3063.000000 0.7739 0.7758 0.7771 0.7784 0.7796
3068.000000 0.7807 0.7815 0.7824 0.7832 0.7836
3073.000000 0.7839 0.7841 0.7843 0.7845 0.7846
3078.000000 0.7847 0.7848 0.7848 0.7849 0.7850
3083.000000 0.7849 0.7847 0.7844 0.7842 0.7839
3088.000000 0.7836 0.7834 0.7831 0.7828 0.7824
3093.000000 0.7820 0.7817 0.7845 0.7809 0.7805
3098.000000 0.7801 0.7796 0.7791 0.7786 0.7780
3103.000000 0.7773 0.7765 0.7757 0.7750 0.7744
3108.000000 0.7738 0.7731 0.7726 0.7723 0.7719
3113.000000 0.7715 0.7701 0.7682 0.7663 0.7644
3118.000000 0.7619 0.7593 0.7566 0.7539 0.7512
3123.000000 0.7486 0.7459 0.7433 0.7406 0.7379
3128.000000 0.7353 0.7326 0.7299 0.7273 0.7246
3133.000000 0.7219 0.7193 0.7166 0.7140 0.7113
3138.000000 0.7087 0.7060 0.7034 0.7008 0.6981
3143.000000 0.6955 0.6929 0.6902 0.6876 0.6850
3148.000000 0.6824 0.6797 0.6771 0.6745 0.6719
3153.000000 0.6693 0.6667 0.6640 0.6614 0.6588
3158.000000 0.6562 0.6536 0.6510 0.6484 0.6458
3163.000000 0.6431 0.6405 0.6379 0.6353 0.6327
3168.000000 0.6301 0.6275 0.6249 0.6224 0.6198
3173.000000 0.6172 0.6146 0.6120 0.6094 0.6069
3178.000000 0.6043 0.6017 0.5992 0.5966 0.5940
3183.000000 0.5914 0.5889 0.5863 0.5838 0.5812
3188.000000 0.5786 0.5760 0.5731 0.5702 0.5673
3193.000000 0.5645 0.5625 0.5604 0.5583 0.5562
3198.000000 0.5544 0.5526 0.5507 0.5489 0.5475
3203.000000 0.5461 0.5447 0.5433 0.5423 0.5413
3208.000000 0.5403 0.5393 0.5385 0.5378 0.5371
3213.000000 0.5364 0.5359 0.5355 0.5351 0.5347
3218.000000 0.5343 0.5340 0.5337 0.5334 0.5337
3223.000000 0.5336 0.5339 0.5341 0.5351 0.5389
3228.000000 0.5427 0.5465 0.5504 0.5542 0.5581
3233.000000 0.5620 0.5659 0.5697 0.5736 0.5774
3238.000000 0.5812 0.5851 0.5889 0.5927 0.5966
3243.000000 0.6004 0.6043 0.6081 0.6120 0.6150
3248.000000 0.6158 0.6165 0.6172 0.6180 0.6180
3253.000000 0.6180 0.6180 0.6180 0.6179 0.6179
3258.000000 0.6178 0.6178 0.6177 0.6177 0.6176
3263.000000 0.6176 0.6181 0.6175 0.6174 0.6173
3268.000000 0.6172 0.6171 0.6170 0.6169 0.6168
3273.000000 0.6166 0.6163 0.6160 0.6158 0.6150
3278.000000 0.6135 0.6121 0.6107 0.6092 0.6078
3283.000000 0.6063 0.6049 0.6035 0.6020 0.6006
3288.000000 0.5992 0.5977 0.5963 0.5949 0.5934
3293.000000 0.5920 0.5906 0.5891 0.5877 0.5863
3298.000000 0.5849 0.5834 0.5820 0.5806 0.5792
3303.000000 0.5778 0.5763 0.5749 0.5735 0.5721
3308.000000 0.5707 0.5692 0.5678 0.5664 0.5655
3313.000000 0.5647 0.5640 0.5632 0.5628 0.5628
3318.000000 0.5628 0.5628 0.5628 0.5628 0.5629
3323.000000 0.5630 0.5631 0.5632 0.5633 0.5634
3328.000000 0.5635 0.5636 0.5637 0.5638 0.5639
3333.000000 0.5640 0.5642 0.5645 0.5648 0.5651
3338.000000 0.5622 0.5677 0.5696 0.5715 0.5734
3343.000000 0.5777 0.5828 0.5879 0.5930 0.5981
3348.000000 0.6032 0.6083 0.6134 0.6185 0.6236
3353.000000 0.6287 0.6338 0.6389 0.6439 0.6490
3358.000000 0.6541 0.6591 0.6642 0.6688 0.6734
3363.000000 0.6779 0.6825 0.6863 0.6882 0.6900
3368.000000 0.6918 0.6937 0.6948 0.6957 0.6967
3373.000000 0.6976 0.6985 0.6993 0.7002 0.7010
3378.000000 0.7018 0.7026 0.7033 0.7040 0.7047
3383.000000 0.7054 0.7060 0.7066 0.7071 0.7077
3388.000000 0.7083 0.7088 0.7092 0.7097 0.7102
3393.000000 0.7107 0.7112 0.7117 0.7122 0.7127
3398.000000 0.7131 0.7135 0.7139 0.7143 0.7147
3403.000000 0.7150 0.7153 0.7156 0.7160 0.7163
3408.000000 0.7166 0.7169 0.7172 0.7175 0.7178
3413.000000 0.7181 0.7183 0.7186 0.7188 0.7189
3418.000000 0.7191 0.7193 0.7195 0.7196 0.7198
3423.000000 0.7200 0.7201 0.7203 0.7204 0.7205
3428.000000 0.7207 0.7208 0.7209 0.7209 0.7209
3433.000000 0.7209 0.7209 0.7227 0.7209 0.7209
3438.000000 0.7209 0.7208 0.7204 0.7199 0.7194
3443.000000 0.7189 0.7182 0.7172 0.7163 0.7153
3448.000000 0.7143 0.7133 0.7123 0.7114 0.7104
3453.000000 0.7094 0.7084 0.7075 0.7065 0.7055
3458.000000 0.7046 0.7036 0.7026 0.7016 0.7006
3463.000000 0.6997 0.6987 0.6978 0.6968 0.6958
3468.000000 0.6949 0.6939 0.6930 0.6920 0.6911
3473.000000 0.6901 0.6891 0.6881 0.6872 0.6862
3478.000000 0.6852 0.6843 0.6833 0.6824 0.6815
3483.000000 0.6810 0.6805 0.6800 0.6794 0.6779
3488.000000 0.6790 0.6790 0.6789 0.6789 0.6789
3493.000000 0.6791 0.6792 0.6794 0.6796 0.6818
3498.000000 0.6863 0.6907 0.6951 0.6995 0.7049
3503.000000 0.7111 0.7173 0.7235 0.7296 0.7358
3508.000000 0.7419 0.7480 0.7542 0.7603 0.7664
3513.000000 0.7725 0.7787 0.7848 0.7909 0.7970
3518.000000 0.8031 0.8092 0.8153 0.8214 0.8275
3523.000000 0.8335 0.8396 0.8457 0.8518 0.8579
3528.000000 0.8640 0.8700 0.8761 0.8822 0.8883
3533.000000 0.8943 0.9003 0.9064 0.9124 0.9225
3538.000000 0.9329 0.9434 0.9538 0.9642 0.9673
3543.000000 0.9699 0.9725 0.9751 0.9777 0.9791
3548.000000 0.9805 0.9818 0.9831 0.9845 0.9858
3553.000000 0.9871 0.9884 0.9897 0.9910 0.9922
3558.000000 0.9934 0.9945 0.9957 0.9969 0.9978
3563.000000 0.9988 0.9997 1.0006 1.0015 1.0025
3568.000000 1.0034 1.0043 1.0052 1.0062 1.0071
3573.000000 1.0080 1.0089 1.0098 1.0107 1.0115
3578.000000 1.0123 1.0130 1.0138 1.0145 1.0153
3583.000000 1.0159 1.0165 1.0171 1.0178 1.0184
3588.000000 1.0190 1.0197 1.0203 1.0209 1.0216
3593.000000 1.0222 1.0228 1.0234 1.0241 1.0247
3598.000000 1.0252 1.0258 1.0263 1.0268 1.0274
3603.000000 1.0278 1.0281 1.0285 1.0288 1.0292
3608.000000 1.0295 1.0298 1.0302 1.0305 1.0308
3613.000000 1.0311 1.0311 1.0312 1.0313 1.0314
3618.000000 1.0315 1.0315 1.0316 1.0316 1.0317
3623.000000 1.0317 1.0318 1.0319 1.0319 1.0320
3628.000000 1.0320 1.0321 1.0321 1.0322 1.0323
3633.000000 1.0323 1.0323 1.0323 1.0323 1.0322
3638.000000 1.0322 1.0322 1.0310 1.0320 1.0320
3643.000000 1.0319 1.0319 1.0318 1.0318 1.0317
3648.000000 1.0316 1.0316 1.0315 1.0314 1.0312
3653.000000 1.0311 1.0310 1.0308 1.0307 1.0306
3658.000000 1.0305 1.0303 1.0302 1.0301 1.0300
3663.000000 1.0300 1.0299 1.0298 1.0297 1.0297
3668.000000 1.0296 1.0296 1.0295 1.0295 1.0294
3673.000000 1.0293 1.0293 1.0292 1.0292 1.0291
3678.000000 1.0291 1.0291 1.0290 1.0290 1.0289
3683.000000 1.0289 1.0289 1.0288 1.0288 1.0288
3688.000000 1.0287 1.0287 1.0287 1.0286 1.0286
3693.000000 1.0285 1.0285 1.0285 1.0285 1.0285
3698.000000 1.0285 1.0285 1.0285 1.0285 1.0285
3703.000000 1.0285 1.0286 1.0286 1.0286 1.0287
3708.000000 1.0287 1.0287 1.0288 1.0288 1.0288
3713.000000 1.0288 1.0288 1.0289 1.0289 1.0289
3718.000000 1.0290 1.0290 1.0290 1.0291 1.0291
3723.000000 1.0291 1.0291 1.0291 1.0292 1.0292
3728.000000 1.0292 1.0293 1.0293 1.0293 1.0294
3733.000000 1.0294 1.0294 1.0295 1.0295 1.0296
3738.000000 1.0296 1.0296 1.0296 1.0296 1.0296
3743.000000 1.0297 1.0297 1.0297 1.0297 1.0297
3748.000000 1.0297 1.0297 1.0297 1.0297 1.0297
3753.000000 1.0297 1.0297 1.0297 1.0297 1.0297
3758.000000 1.0297 1.0297 1.0296 1.0296 1.0295
3763.000000 1.0295 1.0294 1.0294 1.0293 1.0292
3768.000000 1.0291 1.0291 1.0290 1.0289 1.0289
3773.000000 1.0288 1.0288 1.0287 1.0287 1.0286
3778.000000 1.0286 1.0285 1.0285 1.0284 1.0284
3783.000000 1.0283 1.0282 1.0282 1.0281 1.0280
3788.000000 1.0279 1.0279 1.0278 1.0277 1.0277
3793.000000 1.0276 1.0275 1.0275 1.0274 1.0273
3798.000000 1.0272 1.0272 1.0271 1.0270 1.0270
3803.000000 1.0269 1.0268 1.0268 1.0267 1.0266
3808.000000 1.0266 1.0265 1.0264 1.0263 1.0263
3813.000000 1.0262 1.0261 1.0261 1.0260 1.0259
3818.000000 1.0259 1.0259 1.0258 1.0258 1.0258
3823.000000 1.0257 1.0257 1.0256 1.0256 1.0255
3828.000000 1.0255 1.0254 1.0254 1.0254 1.0253
3833.000000 1.0253 1.0253 1.0252 1.0252 1.0251
3838.000000 1.0251 1.0250 1.0250 1.0249 1.0249
3843.000000 1.0248 1.0248 1.0247 1.0247 1.0246
3848.000000 1.0246 1.0245 1.0245 1.0244 1.0244
3853.000000 1.0243 1.0243 1.0242 1.0242 1.0241
3858.000000 1.0241 1.0240 1.0239 1.0239 1.0238
3863.000000 1.0237 1.0236 1.0236 1.0235 1.0235
3868.000000 1.0234 1.0234 1.0233 1.0233 1.0232
3873.000000 1.0232 1.0231 1.0231 1.0230 1.0230
3878.000000 1.0229 1.0228 1.0228 1.0227 1.0226
3883.000000 1.0226 1.0225 1.0225 1.0224 1.0223
3888.000000 1.0223 1.0222 1.0221 1.0221 1.0220
3893.000000 1.0219 1.0219 1.0218 1.0217 1.0217
3898.000000 1.0216 1.0215 1.0215 1.0214 1.0213
3903.000000 1.0212 1.0211 1.0211 1.0210 1.0209
3908.000000 1.0208 1.0208 1.0207 1.0206 1.0206
3913.000000 1.0205 1.0204 1.0204 1.0203 1.0202
3918.000000 1.0202 1.0201 1.0200 1.0199 1.0199
3923.000000 1.0198 1.0197 1.0196 1.0195 1.0193
3928.000000 1.0192 1.0191 1.0190 1.0188 1.0187
3933.000000 1.0186 1.0185 1.0184 1.0183 1.0182
3938.000000 1.0180 1.0179 1.0178 1.0176 1.0175
3943.000000 1.0174 1.0173 1.0171 1.0170 1.0169
3948.000000 1.0168 1.0167 1.0166 1.0165 1.0163
3953.000000 1.0162 1.0161 1.0159 1.0158 1.0156
3958.000000 1.0155 1.0153 1.0152 1.0150 1.0148
3963.000000 1.0147 1.0146 1.0144 1.0143 1.0141
3968.000000 1.0140 1.0138 1.0137 1.0135 1.0134
3973.000000 1.0132 1.0130 1.0129 1.0127 1.0126
3978.000000 1.0125 1.0123 1.0122 1.0120 1.0119
3983.000000 1.0118 1.0117 1.0116 1.0115 1.0114
3988.000000 1.0113 1.0112 1.0111 1.0110 1.0109
3993.000000 1.0108 1.0107 1.0106 1.0105 1.0104
3998.000000 1.0103 1.0102 1.0102
##END=
