##TITLE=HYDRAZINE SULFATE
$$ E.K. (W.L.)
##JCAMP-DX=4.24
##DATA TYPE=INFRARED SPECTRUM
##CLASS=COBLENTZ
##ORIGIN=WYANDOTTE CHEMICALS CORP., WYANDOTTE, MICHIGAN, USA
##OWNER=COBLENTZ SOCIETY
Collection (C) 2018 copyright by the U.S. Secretary of Commerce
on behalf of the United States of America. All rights reserved.
##DATE=Not specified, most likely prior to 1970
##NAMES=sulfuric acid compound with hydrazine (1:1)
##MOLFORM=H6 N2 O4 S
##SOURCE REFERENCE=COBLENTZ NO. 606
##$NIST ID=B6000606
##$NIST SOURCE=COBLENTZ
##$NIST IMAGE=cob606
##SPECTROMETER/DATA SYSTEM=Not specified, most likely a prism, grating, or hybrid spectrometer.
##STATE=SOLID (MINERAL OIL MULL)
##SAMPLING PROCEDURE=TRANSMISSION
##RESOLUTION=4
##DATA PROCESSING=DIGITIZED BY NIST FROM HARD COPY
##XUNITS=MICROMETERS
##YUNITS=TRANSMITTANCE
##XFACTOR=1.000000
##YFACTOR=1
##DELTAX=000.006647
##FIRSTX=2.043
##LASTX=16.0143
##FIRSTY=0.9
##MAXX=16.0143
##MINX=2.043
##MAXY=1.003
##MINY=0.024
##NPOINTS=2103
##XYDATA=(X++(Y..Y))
2.043000 0.9000 0.9000 0.9000 0.9000 0.9000
2.076248 0.9000 0.9010 0.9000 0.9000 0.9000
2.109000 0.9000 0.9000 0.9000 0.9000 0.9000
2.142248 0.9000 0.9010 0.9010 0.9010 0.9030
2.176000 0.9030 0.9030 0.9030 0.9030 0.9030
2.209248 0.9030 0.9050 0.9050 0.9050 0.9050
2.242000 0.9050 0.9050 0.9050 0.9060 0.9060
2.275248 0.9060 0.9060 0.9060 0.9060 0.9080
2.309000 0.9100 0.9100 0.9100 0.9110 0.9110
2.342248 0.9130 0.9130 0.9150 0.9160 0.9180
2.375000 0.9200 0.9230 0.9230 0.9250 0.9260
2.408248 0.9280 0.9300 0.9300 0.9310 0.9330
2.442000 0.9380 0.9410 0.9430 0.9450 0.9460
2.475248 0.9500 0.9510 0.9530 0.9580 0.9600
2.508000 0.9630 0.9660 0.9680 0.9710 0.9730
2.541248 0.9750 0.9780 0.9800 0.9810 0.9830
2.575000 0.9880 0.9900 0.9930 0.9950 0.9950
2.608248 0.9950 0.9950 0.9950 0.9950 0.9950
2.641000 0.9950 0.9950 0.9950 0.9960 0.9960
2.674248 0.9960 0.9980 0.9980 1.0000 1.0010
2.708000 1.0030 1.0030 1.0030 1.0030 1.0010
2.741248 1.0010 1.0010 1.0010 1.0010 1.0010
2.774000 1.0010 1.0000 0.9980 0.9960 0.9950
2.807248 0.9950 0.9930 0.9930 0.9910 0.9910
2.840000 0.9900 0.9860 0.9810 0.9800 0.9760
2.873248 0.9750 0.9730 0.9710 0.9660 0.9630
2.907000 0.9610 0.9550 0.9480 0.9460 0.9450
2.940248 0.9400 0.9330 0.9280 0.9230 0.9200
2.973000 0.9150 0.9060 0.9030 0.9010 0.8950
3.006248 0.8630 0.8330 0.8160 0.8030 0.7880
3.040000 0.7620 0.7430 0.7130 0.6930 0.6700
3.073248 0.6480 0.6200 0.5990 0.5640 0.5300
3.106000 0.5150 0.5070 0.4990 0.4800 0.4540
3.139248 0.4290 0.3990 0.3790 0.3590 0.3510
3.173000 0.3410 0.3340 0.3210 0.3140 0.3040
3.206248 0.2960 0.2860 0.2820 0.2790 0.2770
3.239000 0.2710 0.2620 0.2610 0.2590 0.2570
3.272248 0.2540 0.2510 0.2460 0.2410 0.2310
3.306000 0.2240 0.2210 0.2170 0.2020 0.1840
3.339248 0.1690 0.1310 0.1010 0.0730 0.0440
3.372000 0.0340 0.0310 0.0290 0.0260 0.0260
3.405248 0.0240 0.0240 0.0240 0.0240 0.0240
3.439000 0.0240 0.0260 0.0260 0.0290 0.0290
3.472248 0.0310 0.0310 0.0310 0.0310 0.0310
3.505000 0.0310 0.0310 0.0310 0.0330 0.0380
3.538248 0.0640 0.0830 0.1230 0.1440 0.1590
3.572000 0.1740 0.1910 0.2010 0.2090 0.2140
3.605248 0.2210 0.2240 0.2270 0.2310 0.2320
3.638000 0.2360 0.2390 0.2410 0.2420 0.2440
3.671248 0.2440 0.2460 0.2460 0.2460 0.2460
3.705000 0.2440 0.2410 0.2410 0.2410 0.2410
3.738248 0.2420 0.2410 0.2410 0.2410 0.2410
3.771000 0.2410 0.2410 0.2390 0.2370 0.2360
3.804248 0.2340 0.2340 0.2340 0.2340 0.2320
3.837000 0.2340 0.2320 0.2320 0.2320 0.2320
3.870248 0.2340 0.2340 0.2340 0.2360 0.2370
3.904000 0.2390 0.2390 0.2390 0.2370 0.2360
3.937248 0.2320 0.2320 0.2320 0.2320 0.2360
3.970000 0.2390 0.2410 0.2410 0.2440 0.2470
4.003248 0.2490 0.2510 0.2510 0.2520 0.2520
4.037000 0.2540 0.2560 0.2560 0.2610 0.2620
4.070248 0.2640 0.2670 0.2710 0.2720 0.2760
4.103000 0.2790 0.2810 0.2810 0.2820 0.2840
4.136248 0.2870 0.2890 0.2920 0.2920 0.2940
4.170000 0.2940 0.2970 0.3010 0.3020 0.3040
4.203248 0.3070 0.3140 0.3190 0.3210 0.3220
4.236000 0.3240 0.3270 0.3320 0.3360 0.3390
4.269248 0.3390 0.3420 0.3420 0.3440 0.3440
4.303000 0.3440 0.3440 0.3470 0.3490 0.3510
4.336248 0.3520 0.3540 0.3620 0.3670 0.3710
4.369000 0.3740 0.3770 0.3840 0.3910 0.3970
4.402248 0.3990 0.4090 0.4140 0.4200 0.4240
4.436000 0.4270 0.4350 0.4400 0.4420 0.4450
4.469248 0.4490 0.4520 0.4520 0.4570 0.4590
4.502000 0.4590 0.4600 0.4620 0.4640 0.4650
4.535248 0.4690 0.4720 0.4740 0.4770 0.4840
4.569000 0.4900 0.4970 0.4990 0.5020 0.5020
4.602248 0.5050 0.5070 0.5140 0.5150 0.5170
4.635000 0.5220 0.5270 0.5290 0.5300 0.5320
4.668248 0.5320 0.5350 0.5390 0.5390 0.5390
4.702000 0.5390 0.5390 0.5390 0.5390 0.5390
4.735248 0.5390 0.5390 0.5390 0.5370 0.5370
4.768000 0.5350 0.5340 0.5340 0.5320 0.5320
4.801248 0.5320 0.5320 0.5320 0.5300 0.5300
4.834000 0.5300 0.5300 0.5320 0.5320 0.5350
4.867248 0.5370 0.5370 0.5370 0.5370 0.5370
4.901000 0.5370 0.5370 0.5390 0.5400 0.5440
4.934248 0.5470 0.5490 0.5520 0.5520 0.5590
4.967000 0.5640 0.5650 0.5690 0.5720 0.5770
5.000248 0.5820 0.5920 0.5970 0.6000 0.6020
5.034000 0.6070 0.6080 0.6120 0.6130 0.6150
5.067248 0.6180 0.6220 0.6250 0.6270 0.6270
5.100000 0.6300 0.6320 0.6320 0.6330 0.6400
5.133248 0.6480 0.6500 0.6530 0.6550 0.6620
5.167000 0.6680 0.6720 0.6750 0.6770 0.6820
5.200248 0.6850 0.6880 0.6900 0.6920 0.6930
5.233000 0.6930 0.6980 0.7020 0.7080 0.7180
5.266248 0.7200 0.7220 0.7220 0.7220 0.7250
5.300000 0.7270 0.7280 0.7300 0.7320 0.7320
5.333248 0.7320 0.7320 0.7300 0.7300 0.7280
5.366000 0.7270 0.7250 0.7250 0.7250 0.7250
5.399248 0.7230 0.7250 0.7250 0.7250 0.7250
5.433000 0.7250 0.7230 0.7230 0.7250 0.7270
5.466248 0.7270 0.7280 0.7320 0.7370 0.7400
5.499000 0.7430 0.7430 0.7450 0.7480 0.7530
5.532248 0.7530 0.7570 0.7600 0.7620 0.7620
5.566000 0.7620 0.7620 0.7630 0.7630 0.7630
5.599248 0.7650 0.7700 0.7730 0.7770 0.7780
5.632000 0.7780 0.7780 0.7780 0.7770 0.7770
5.665248 0.7780 0.7820 0.7830 0.7870 0.7880
5.698000 0.7880 0.7880 0.7880 0.7880 0.7880
5.731248 0.7880 0.7880 0.7870 0.7870 0.7880
5.765000 0.7920 0.7930 0.7930 0.7920 0.7920
5.798248 0.7900 0.7870 0.7850 0.7850 0.7850
5.831000 0.7850 0.7830 0.7820 0.7820 0.7820
5.864248 0.7820 0.7820 0.7820 0.7800 0.7780
5.898000 0.7770 0.7730 0.7730 0.7730 0.7730
5.931248 0.7730 0.7720 0.7720 0.7720 0.7720
5.964000 0.7720 0.7680 0.7630 0.7600 0.7570
5.997248 0.7480 0.7450 0.7420 0.7380 0.7370
6.031000 0.7330 0.7280 0.7200 0.7030 0.6900
6.064248 0.6820 0.6700 0.6580 0.6500 0.6350
6.097000 0.6220 0.6170 0.6050 0.5990 0.5940
6.130248 0.5920 0.5870 0.5800 0.5750 0.5690
6.164000 0.5670 0.5640 0.5600 0.5590 0.5520
6.197248 0.5520 0.5520 0.5520 0.5520 0.5490
6.230000 0.5450 0.5390 0.5290 0.5220 0.5190
6.263248 0.5140 0.5100 0.5000 0.4950 0.4900
6.297000 0.4790 0.4700 0.4590 0.4520 0.4490
6.330248 0.4400 0.4320 0.4290 0.4270 0.4240
6.363000 0.4240 0.4240 0.4220 0.4150 0.4100
6.396248 0.4020 0.3970 0.3960 0.3840 0.3810
6.430000 0.3790 0.3810 0.3820 0.3820 0.3820
6.463248 0.3790 0.3740 0.3670 0.3570 0.3490
6.496000 0.3470 0.3440 0.3410 0.3340 0.3310
6.529248 0.3270 0.3260 0.3240 0.3240 0.3220
6.563000 0.3210 0.3190 0.3190 0.3170 0.3170
6.596248 0.3190 0.3220 0.3220 0.3240 0.3260
6.629000 0.3310 0.3320 0.3390 0.3470 0.3570
6.662248 0.3660 0.3740 0.3810 0.3820 0.3870
6.695000 0.3970 0.4000 0.4120 0.4120 0.4040
6.728248 0.4000 0.3990 0.3910 0.3790 0.3540
6.762000 0.3070 0.2570 0.2220 0.2090 0.2010
6.795248 0.2010 0.1990 0.1980 0.1980 0.1990
6.828000 0.2110 0.2240 0.2410 0.2520 0.2590
6.861248 0.2660 0.2820 0.3010 0.3390 0.3610
6.895000 0.3860 0.3990 0.4220 0.4470 0.4720
6.928248 0.4920 0.5400 0.5870 0.6070 0.6370
6.961000 0.6580 0.6750 0.6920 0.6970 0.7070
6.994248 0.7170 0.7270 0.7320 0.7400 0.7500
7.028000 0.7530 0.7600 0.7650 0.7720 0.7770
7.061248 0.7780 0.7780 0.7800 0.7820 0.7830
7.094000 0.7830 0.7830 0.7850 0.7850 0.7850
7.127248 0.7850 0.7850 0.7800 0.7730 0.7650
7.161000 0.7520 0.7420 0.7150 0.6970 0.6520
7.194248 0.5890 0.5320 0.5150 0.4970 0.4800
7.227000 0.4600 0.4370 0.4240 0.4200 0.4220
7.260248 0.4300 0.4620 0.5420 0.5640 0.5700
7.294000 0.5800 0.5870 0.5900 0.5990 0.6100
7.327248 0.6580 0.6880 0.7000 0.7020 0.7100
7.360000 0.7130 0.7180 0.7200 0.7200 0.7200
7.393248 0.7220 0.7230 0.7270 0.7270 0.7270
7.427000 0.7270 0.7270 0.7250 0.7230 0.7230
7.460248 0.7270 0.7320 0.7330 0.7350 0.7370
7.493000 0.7400 0.7420 0.7430 0.7450 0.7470
7.526248 0.7480 0.7480 0.7480 0.7480 0.7480
7.560000 0.7480 0.7470 0.7450 0.7420 0.7420
7.593248 0.7400 0.7380 0.7320 0.7320 0.7320
7.626000 0.7300 0.7280 0.7230 0.7220 0.7220
7.659248 0.7220 0.7220 0.7220 0.7220 0.7220
7.692000 0.7220 0.7200 0.7200 0.7200 0.7180
7.725248 0.7180 0.7150 0.7150 0.7150 0.7150
7.759000 0.7120 0.7100 0.7080 0.7030 0.7000
7.792248 0.6970 0.6920 0.6900 0.6880 0.6880
7.825000 0.6850 0.6830 0.6800 0.6750 0.6730
7.858248 0.6700 0.6680 0.6670 0.6630 0.6570
7.892000 0.6530 0.6530 0.6520 0.6470 0.6400
7.925248 0.6350 0.6330 0.6330 0.6320 0.6300
7.958000 0.6270 0.6230 0.6200 0.6170 0.6100
7.991248 0.6030 0.5990 0.5970 0.5940 0.5900
8.025000 0.5850 0.5820 0.5790 0.5750 0.5740
8.058248 0.5720 0.5690 0.5670 0.5640 0.5590
8.091000 0.5500 0.5440 0.5400 0.5370 0.5320
8.124248 0.5270 0.5220 0.5220 0.5190 0.5090
8.158000 0.5020 0.5000 0.4970 0.4900 0.4870
8.191248 0.4820 0.4790 0.4690 0.4640 0.4590
8.224000 0.4520 0.4470 0.4370 0.4300 0.4270
8.257248 0.4240 0.4190 0.4120 0.3990 0.3870
8.291000 0.3810 0.3760 0.3710 0.3640 0.3590
8.324248 0.3520 0.3470 0.3370 0.3270 0.3170
8.357000 0.3140 0.3040 0.2970 0.2870 0.2820
8.390248 0.2820 0.2710 0.2640 0.2560 0.2510
8.424000 0.2470 0.2390 0.2310 0.2260 0.2210
8.457248 0.2160 0.2120 0.2060 0.2020 0.1990
8.490000 0.1990 0.1990 0.1940 0.1890 0.1840
8.523248 0.1780 0.1760 0.1760 0.1740 0.1730
8.556000 0.1730 0.1690 0.1660 0.1640 0.1640
8.589248 0.1630 0.1590 0.1580 0.1560 0.1530
8.623000 0.1510 0.1490 0.1480 0.1430 0.1430
8.656248 0.1430 0.1430 0.1430 0.1430 0.1430
8.689000 0.1430 0.1430 0.1430 0.1430 0.1430
8.722248 0.1430 0.1430 0.1430 0.1430 0.1440
8.756000 0.1440 0.1480 0.1480 0.1490 0.1490
8.789248 0.1530 0.1530 0.1530 0.1540 0.1580
8.822000 0.1590 0.1590 0.1590 0.1610 0.1630
8.855248 0.1630 0.1630 0.1630 0.1660 0.1660
8.889000 0.1660 0.1680 0.1680 0.1680 0.1680
8.922248 0.1680 0.1680 0.1690 0.1690 0.1690
8.955000 0.1690 0.1710 0.1710 0.1690 0.1690
8.988248 0.1640 0.1630 0.1590 0.1590 0.1580
9.022000 0.1580 0.1580 0.1540 0.1530 0.1510
9.055248 0.1490 0.1480 0.1480 0.1480 0.1480
9.088000 0.1480 0.1480 0.1480 0.1440 0.1430
9.121248 0.1410 0.1390 0.1380 0.1340 0.1330
9.155000 0.1330 0.1310 0.1280 0.1260 0.1240
9.188248 0.1240 0.1230 0.1230 0.1210 0.1210
9.221000 0.1210 0.1210 0.1190 0.1160 0.1140
9.254248 0.1130 0.1110 0.1110 0.1090 0.1090
9.288000 0.1090 0.1040 0.1030 0.1030 0.1030
9.321248 0.1030 0.1030 0.1030 0.1030 0.1030
9.354000 0.1010 0.0990 0.0980 0.0940 0.0930
9.387248 0.0910 0.0910 0.0910 0.0890 0.0880
9.421000 0.0880 0.0880 0.0880 0.0880 0.0880
9.454248 0.0880 0.0880 0.0880 0.0880 0.0880
9.487000 0.0880 0.0880 0.0880 0.0890 0.0910
9.520248 0.0910 0.0910 0.0910 0.0910 0.0910
9.553000 0.0910 0.0890 0.0890 0.0840 0.0830
9.586248 0.0830 0.0830 0.0840 0.0840 0.0830
9.620000 0.0830 0.0830 0.0830 0.0830 0.0830
9.653248 0.0830 0.0830 0.0810 0.0790 0.0780
9.686000 0.0760 0.0760 0.0780 0.0780 0.0780
9.719248 0.0790 0.0780 0.0780 0.0780 0.0780
9.753000 0.0780 0.0780 0.0760 0.0740 0.0740
9.786248 0.0740 0.0760 0.0780 0.0760 0.0760
9.819000 0.0760 0.0740 0.0740 0.0740 0.0730
9.852248 0.0730 0.0730 0.0740 0.0740 0.0760
9.886000 0.0760 0.0760 0.0740 0.0760 0.0780
9.919248 0.0780 0.0810 0.0830 0.0860 0.0860
9.952000 0.0860 0.0860 0.0840 0.0840 0.0840
9.985248 0.0860 0.0910 0.0940 0.0960 0.0980
10.019000 0.1010 0.1010 0.1010 0.1030 0.1030
10.052248 0.1090 0.1110 0.1130 0.1160 0.1180
10.085000 0.1190 0.1210 0.1240 0.1310 0.1340
10.118248 0.1380 0.1390 0.1410 0.1410 0.1430
10.152000 0.1480 0.1510 0.1530 0.1590 0.1640
10.185248 0.1680 0.1730 0.1740 0.1760 0.1810
10.218000 0.1830 0.1860 0.1890 0.1980 0.2010
10.251248 0.2020 0.2020 0.2020 0.2020 0.2010
10.285000 0.1980 0.1890 0.1790 0.1690 0.1660
10.318248 0.1540 0.1530 0.1490 0.1440 0.1410
10.351000 0.1390 0.1390 0.1390 0.1410 0.1440
10.384248 0.1440 0.1480 0.1490 0.1510 0.1530
10.418000 0.1540 0.1560 0.1590 0.1630 0.1680
10.451248 0.1760 0.1810 0.1810 0.1810 0.1830
10.484000 0.1840 0.1890 0.1910 0.1930 0.1980
10.517248 0.2010 0.2040 0.2110 0.2120 0.2140
10.550000 0.2190 0.2220 0.2240 0.2240 0.2290
10.583248 0.2340 0.2390 0.2410 0.2420 0.2420
10.617000 0.2420 0.2440 0.2470 0.2520 0.2540
10.650248 0.2570 0.2590 0.2610 0.2660 0.2660
10.683000 0.2660 0.2660 0.2690 0.2720 0.2790
10.716248 0.2810 0.2860 0.2910 0.2940 0.2970
10.750000 0.2990 0.3010 0.3020 0.3040 0.3070
10.783248 0.3090 0.3120 0.3160 0.3190 0.3220
10.816000 0.3270 0.3320 0.3340 0.3340 0.3360
10.849248 0.3390 0.3410 0.3440 0.3440 0.3470
10.883000 0.3490 0.3490 0.3520 0.3520 0.3540
10.916248 0.3610 0.3690 0.3760 0.3810 0.3820
10.949000 0.3840 0.3870 0.3890 0.3890 0.3910
10.982248 0.3920 0.3940 0.3960 0.4000 0.4020
11.016000 0.4090 0.4100 0.4100 0.4120 0.4140
11.049248 0.4140 0.4170 0.4190 0.4220 0.4220
11.082000 0.4240 0.4300 0.4350 0.4400 0.4450
11.115248 0.4470 0.4490 0.4500 0.4520 0.4540
11.149000 0.4540 0.4540 0.4540 0.4590 0.4640
11.182248 0.4650 0.4670 0.4690 0.4690 0.4720
11.215000 0.4740 0.4800 0.4850 0.4850 0.4870
11.248248 0.4870 0.4870 0.4890 0.4900 0.4920
11.282000 0.4970 0.4990 0.4990 0.5100 0.5100
11.315248 0.5120 0.5120 0.5120 0.5140 0.5150
11.348000 0.5170 0.5190 0.5190 0.5200 0.5220
11.381248 0.5240 0.5250 0.5300 0.5320 0.5370
11.415000 0.5390 0.5420 0.5440 0.5440 0.5440
11.448248 0.5450 0.5450 0.5490 0.5520 0.5540
11.481000 0.5540 0.5550 0.5590 0.5590 0.5600
11.514248 0.5600 0.5620 0.5640 0.5640 0.5670
11.547000 0.5690 0.5700 0.5700 0.5720 0.5750
11.580248 0.5770 0.5770 0.5800 0.5840 0.5870
11.614000 0.5870 0.5890 0.5900 0.5900 0.5900
11.647248 0.5920 0.5920 0.5940 0.5950 0.5970
11.680000 0.5990 0.5990 0.6000 0.6000 0.6000
11.713248 0.6020 0.6020 0.6030 0.6030 0.6030
11.747000 0.6120 0.6120 0.6130 0.6130 0.6130
11.780248 0.6130 0.6130 0.6180 0.6220 0.6230
11.813000 0.6230 0.6230 0.6230 0.6280 0.6300
11.846248 0.6300 0.6300 0.6300 0.6320 0.6330
11.880000 0.6350 0.6370 0.6370 0.6370 0.6380
11.913248 0.6400 0.6420 0.6420 0.6430 0.6430
11.946000 0.6450 0.6500 0.6530 0.6530 0.6580
11.979248 0.6600 0.6600 0.6620 0.6630 0.6630
12.013000 0.6680 0.6700 0.6700 0.6720 0.6720
12.046248 0.6720 0.6730 0.6730 0.6770 0.6780
12.079000 0.6780 0.6800 0.6820 0.6820 0.6820
12.112248 0.6820 0.6820 0.6830 0.6850 0.6880
12.146000 0.6880 0.6900 0.6900 0.6900 0.6920
12.179248 0.6950 0.6970 0.6970 0.6970 0.6970
12.212000 0.6980 0.7020 0.7030 0.7080 0.7120
12.245248 0.7130 0.7130 0.7130 0.7130 0.7130
12.279000 0.7130 0.7130 0.7170 0.7180 0.7180
12.312248 0.7180 0.7180 0.7200 0.7220 0.7220
12.345000 0.7230 0.7230 0.7250 0.7280 0.7320
12.378248 0.7350 0.7350 0.7350 0.7330 0.7320
12.411000 0.7350 0.7370 0.7370 0.7380 0.7380
12.444248 0.7400 0.7420 0.7430 0.7450 0.7450
12.478000 0.7450 0.7480 0.7480 0.7480 0.7480
12.511248 0.7480 0.7480 0.7480 0.7470 0.7480
12.544000 0.7480 0.7500 0.7500 0.7500 0.7520
12.577248 0.7530 0.7530 0.7530 0.7570 0.7580
12.611000 0.7600 0.7620 0.7630 0.7630 0.7630
12.644248 0.7630 0.7630 0.7630 0.7630 0.7670
12.677000 0.7680 0.7680 0.7700 0.7720 0.7720
12.710248 0.7720 0.7730 0.7730 0.7750 0.7770
12.744000 0.7770 0.7770 0.7780 0.7780 0.7780
12.777248 0.7800 0.7800 0.7800 0.7820 0.7820
12.810000 0.7800 0.7820 0.7820 0.7830 0.7850
12.843248 0.7850 0.7830 0.7830 0.7850 0.7850
12.877000 0.7850 0.7850 0.7850 0.7850 0.7850
12.910248 0.7850 0.7850 0.7870 0.7880 0.7900
12.943000 0.7900 0.7920 0.7920 0.7930 0.7930
12.976248 0.7930 0.7930 0.7950 0.7950 0.7970
13.010000 0.7980 0.7980 0.8000 0.8010 0.8010
13.043248 0.8010 0.8010 0.8010 0.8010 0.8030
13.076000 0.8010 0.8030 0.8030 0.8080 0.8110
13.109248 0.8130 0.8150 0.8130 0.8110 0.8110
13.143000 0.8110 0.8130 0.8130 0.8150 0.8150
13.176248 0.8150 0.8160 0.8160 0.8160 0.8160
13.209000 0.8150 0.8150 0.8130 0.8150 0.8160
13.242248 0.8180 0.8180 0.8180 0.8160 0.8160
13.276000 0.8180 0.8180 0.8180 0.8150 0.8130
13.309248 0.8150 0.8160 0.8200 0.8210 0.8230
13.342000 0.8230 0.8230 0.8230 0.8250 0.8250
13.375248 0.8250 0.8230 0.8200 0.8200 0.8200
13.408000 0.8200 0.8200 0.8180 0.8160 0.8150
13.441248 0.8130 0.8130 0.8130 0.8110 0.8130
13.475000 0.8150 0.8160 0.8180 0.8180 0.8180
13.508248 0.8180 0.8180 0.8180 0.8180 0.8150
13.541000 0.8130 0.8110 0.8100 0.8100 0.8100
13.574248 0.8100 0.8110 0.8130 0.8150 0.8150
13.608000 0.8160 0.8150 0.8150 0.8150 0.8150
13.641248 0.8130 0.8130 0.8130 0.8130 0.8130
13.674000 0.8130 0.8150 0.8150 0.8150 0.8150
13.707248 0.8150 0.8130 0.8150 0.8180 0.8200
13.741000 0.8200 0.8200 0.8200 0.8200 0.8200
13.774248 0.8200 0.8200 0.8200 0.8200 0.8180
13.807000 0.8160 0.8160 0.8150 0.8160 0.8160
13.840248 0.8180 0.8180 0.8210 0.8210 0.8210
13.874000 0.8200 0.8160 0.8130 0.8130 0.8180
13.907248 0.8180 0.8210 0.8250 0.8300 0.8350
13.940000 0.8360 0.8380 0.8380 0.8380 0.8400
13.973248 0.8430 0.8450 0.8510 0.8510 0.8530
14.007000 0.8530 0.8580 0.8600 0.8600 0.8600
14.040248 0.8630 0.8650 0.8650 0.8660 0.8660
14.073000 0.8700 0.8710 0.8730 0.8750 0.8760
14.106248 0.8780 0.8800 0.8830 0.8830 0.8830
14.140000 0.8830 0.8850 0.8850 0.8850 0.8850
14.173248 0.8850 0.8900 0.8900 0.8900 0.8930
14.206000 0.8930 0.8930 0.8930 0.8930 0.8930
14.239248 0.8910 0.8910 0.8910 0.8930 0.8950
14.273000 0.8950 0.8980 0.9000 0.9000 0.9000
14.306248 0.9000 0.9000 0.9000 0.8980 0.9000
14.339000 0.9000 0.9000 0.9010 0.9010 0.9030
14.372248 0.9030 0.9010 0.9010 0.9010 0.9030
14.405000 0.9030 0.9010 0.9000 0.9000 0.9000
14.438248 0.8980 0.9000 0.9010 0.9010 0.9010
14.472000 0.9010 0.9000 0.9000 0.9000 0.9000
14.505248 0.9000 0.9000 0.8980 0.9000 0.9000
14.538000 0.9000 0.8980 0.8950 0.8950 0.8930
14.571248 0.8930 0.8910 0.8910 0.8910 0.8930
14.605000 0.8950 0.8980 0.8980 0.8980 0.9000
14.638248 0.9000 0.8930 0.8900 0.8900 0.8900
14.671000 0.8900 0.8880 0.8860 0.8880 0.8880
14.704248 0.8880 0.8880 0.8900 0.8900 0.8900
14.738000 0.8880 0.8850 0.8810 0.8810 0.8810
14.771248 0.8810 0.8800 0.8780 0.8760 0.8750
14.804000 0.8750 0.8730 0.8710 0.8680 0.8660
14.837248 0.8650 0.8650 0.8650 0.8630 0.8630
14.871000 0.8630 0.8630 0.8610 0.8600 0.8560
14.904248 0.8550 0.8530 0.8510 0.8510 0.8510
14.937000 0.8500 0.8500 0.8480 0.8460 0.8430
14.970248 0.8350 0.8330 0.8300 0.8210 0.8160
15.004000 0.8030 0.7920 0.7800 0.7730 0.7700
15.037248 0.7620 0.7530 0.7500 0.7480 0.7470
15.070000 0.7430 0.7420 0.7400 0.7400 0.7400
15.103248 0.7400 0.7420 0.7430 0.7450 0.7470
15.137000 0.7500 0.7500 0.7520 0.7530 0.7580
15.170248 0.7600 0.7620 0.7630 0.7620 0.7620
15.203000 0.7600 0.7600 0.7580 0.7580 0.7580
15.236248 0.7580 0.7550 0.7530 0.7520 0.7480
15.269000 0.7450 0.7430 0.7430 0.7420 0.7400
15.302248 0.7350 0.7330 0.7280 0.7200 0.7150
15.336000 0.7130 0.7120 0.7030 0.7020 0.6930
15.369248 0.6900 0.6830 0.6820 0.6770 0.6730
15.402000 0.6720 0.6650 0.6630 0.6520 0.6420
15.435248 0.6350 0.6300 0.6250 0.6180 0.6070
15.469000 0.6000 0.5920 0.5870 0.5820 0.5740
15.502248 0.5700 0.5690 0.5640 0.5540 0.5520
15.535000 0.5440 0.5390 0.5320 0.5240 0.5220
15.568248 0.5220 0.5150 0.5100 0.5050 0.5040
15.602000 0.5020 0.5000 0.4970 0.4940 0.4900
15.635248 0.4890 0.4850 0.4840 0.4800 0.4750
15.668000 0.4740 0.4740 0.4740 0.4720 0.4700
15.701248 0.4700 0.4700 0.4700 0.4720 0.4720
15.735000 0.4720 0.4700 0.4700 0.4690 0.4690
15.768248 0.4670 0.4670 0.4670 0.4670 0.4670
15.801000 0.4670 0.4670 0.4670 0.4690 0.4690
15.834248 0.4690 0.4690 0.4700 0.4720 0.4740
15.868000 0.4750 0.4820 0.4850 0.4870 0.4870
15.901248 0.4870 0.4870 0.4870 0.4850 0.4820
15.934000 0.4800 0.4790 0.4790 0.4820 0.4840
15.967248 0.4840 0.4850 0.4850 0.4850 0.4850
16.001000 0.4850 0.4850 0.4850
##END=
