##TITLE=BARIUM THIOSULFATE
$$ C.P.
##JCAMP-DX=4.24
##DATA TYPE=INFRARED SPECTRUM
##CLASS=COBLENTZ
##ORIGIN=MELLON INSTITUTE
##OWNER=COBLENTZ SOCIETY
Collection (C) 2018 copyright by the U.S. Secretary of Commerce
on behalf of the United States of America. All rights reserved.
##DATE=Not specified, most likely prior to 1970
##MOLFORM=Ba S2 O3  * H2 O
##SOURCE REFERENCE=COBLENTZ NO. 556
##$NIST ID=B6000556
##$NIST SOURCE=COBLENTZ
##$NIST IMAGE=cob556
##SPECTROMETER/DATA SYSTEM=Not specified, most likely a prism, grating, or hybrid spectrometer.
##STATE=SOLID (NUJOL MULL)
##PATH LENGTH=
$$SPECTRAL CONTAMINATION DUE TO OIL AROUND 2900, 1450, 1380 CM^-^1
##SAMPLING PROCEDURE=TRANSMISSION
##RESOLUTION=4
##DATA PROCESSING=DIGITIZED BY NIST FROM HARD COPY
##XUNITS=MICROMETERS
##YUNITS=TRANSMITTANCE
##XFACTOR=1.000000
##YFACTOR=1
##DELTAX=000.006651
##FIRSTX=2.029
##LASTX=15.9889
##FIRSTY=0.748
##MAXX=15.9889
##MINX=2.029
##MAXY=0.963
##MINY=0.081
##NPOINTS=2100
##XYDATA=(X++(Y..Y))
2.029000 0.7480 0.7500 0.7500 0.7510 0.7550
2.062269 0.7560 0.7580 0.7580 0.7610 0.7610
2.096000 0.7630 0.7650 0.7700 0.7710 0.7730
2.129269 0.7730 0.7750 0.7760 0.7760 0.7780
2.162000 0.7780 0.7800 0.7810 0.7810 0.7810
2.195269 0.7830 0.7850 0.7860 0.7880 0.7900
2.229000 0.7900 0.7900 0.7910 0.7900 0.7900
2.262269 0.7900 0.7900 0.7900 0.7900 0.7900
2.295000 0.7900 0.7910 0.7930 0.7930 0.7960
2.328269 0.7980 0.8000 0.8000 0.8000 0.8000
2.362000 0.8010 0.8010 0.8010 0.8030 0.8050
2.395269 0.8080 0.8100 0.8130 0.8150 0.8150
2.428000 0.8160 0.8160 0.8180 0.8180 0.8200
2.461269 0.8210 0.8230 0.8250 0.8260 0.8260
2.495000 0.8260 0.8260 0.8260 0.8280 0.8300
2.528269 0.8300 0.8310 0.8330 0.8330 0.8330
2.561000 0.8330 0.8350 0.8350 0.8350 0.8350
2.594269 0.8360 0.8400 0.8410 0.8450 0.8480
2.628000 0.8500 0.8500 0.8500 0.8500 0.8500
2.661269 0.8480 0.8500 0.8500 0.8500 0.8480
2.694000 0.8480 0.8480 0.8450 0.8430 0.8400
2.727269 0.8400 0.8380 0.8350 0.8350 0.8350
2.761000 0.8310 0.8300 0.8260 0.8200 0.8130
2.794269 0.8050 0.8000 0.7900 0.7810 0.7700
2.827000 0.7510 0.7310 0.7180 0.7000 0.6700
2.860269 0.6530 0.6360 0.6000 0.5350 0.5010
2.894000 0.4300 0.3730 0.3400 0.3130 0.2860
2.927269 0.2830 0.2850 0.2930 0.3200 0.3610
2.960000 0.3730 0.3810 0.3830 0.3850 0.3830
2.993269 0.3830 0.3830 0.3830 0.3830 0.3830
3.027000 0.3830 0.3830 0.3860 0.3880 0.3900
3.060269 0.3930 0.3980 0.4060 0.4110 0.4210
3.093000 0.4260 0.4350 0.4410 0.4500 0.4660
3.126269 0.4730 0.4850 0.5050 0.5210 0.5310
3.160000 0.5510 0.5650 0.5800 0.5980 0.5980
3.193269 0.6110 0.6230 0.6330 0.6430 0.6550
3.226000 0.6630 0.6800 0.6850 0.6910 0.6930
3.259269 0.6960 0.6960 0.6900 0.6810 0.6700
3.293000 0.6610 0.6510 0.5980 0.5380 0.4180
3.326269 0.3600 0.3000 0.2410 0.2000 0.1800
3.359000 0.1580 0.1510 0.1580 0.1900 0.2030
3.392269 0.2500 0.2960 0.3330 0.3830 0.3830
3.426000 0.3730 0.3550 0.3500 0.3450 0.3460
3.459269 0.3880 0.4310 0.5250 0.5780 0.6480
3.492000 0.7510 0.8000 0.8160 0.8300 0.8410
3.525269 0.8480 0.8600 0.8630 0.8730 0.8800
3.559000 0.8900 0.8960 0.9000 0.9000 0.9000
3.592269 0.9010 0.9010 0.9010 0.9010 0.9030
3.625000 0.9030 0.9030 0.9030 0.9030 0.9030
3.658269 0.9030 0.9030 0.9030 0.9030 0.9030
3.692000 0.9030 0.9030 0.9050 0.9050 0.9080
3.725269 0.9080 0.9100 0.9110 0.9110 0.9110
3.758000 0.9110 0.9110 0.9130 0.9130 0.9130
3.791269 0.9150 0.9160 0.9180 0.9180 0.9200
3.825000 0.9200 0.9210 0.9210 0.9210 0.9230
3.858269 0.9250 0.9260 0.9280 0.9300 0.9300
3.891000 0.9300 0.9300 0.9300 0.9310 0.9310
3.924269 0.9310 0.9310 0.9310 0.9310 0.9330
3.958000 0.9330 0.9330 0.9350 0.9350 0.9360
3.991269 0.9360 0.9360 0.9360 0.9360 0.9360
4.024000 0.9360 0.9380 0.9380 0.9380 0.9380
4.057269 0.9380 0.9380 0.9380 0.9380 0.9380
4.091000 0.9380 0.9380 0.9380 0.9400 0.9400
4.124269 0.9400 0.9410 0.9400 0.9400 0.9400
4.157000 0.9410 0.9410 0.9410 0.9400 0.9400
4.190269 0.9400 0.9360 0.9350 0.9310 0.9280
4.224000 0.9260 0.9250 0.9250 0.9230 0.9230
4.257269 0.9230 0.9210 0.9200 0.9200 0.9180
4.290000 0.9150 0.9150 0.9130 0.9130 0.9110
4.323269 0.9110 0.9110 0.9110 0.9130 0.9150
4.357000 0.9180 0.9210 0.9230 0.9250 0.9260
4.390269 0.9260 0.9260 0.9280 0.9300 0.9300
4.423000 0.9300 0.9300 0.9300 0.9300 0.9280
4.456269 0.9280 0.9260 0.9260 0.9260 0.9260
4.490000 0.9260 0.9260 0.9260 0.9250 0.9230
4.523269 0.9230 0.9230 0.9230 0.9230 0.9230
4.556000 0.9210 0.9210 0.9210 0.9210 0.9210
4.589269 0.9210 0.9210 0.9200 0.9180 0.9180
4.623000 0.9180 0.9160 0.9150 0.9130 0.9130
4.656269 0.9130 0.9130 0.9130 0.9110 0.9110
4.689000 0.9110 0.9110 0.9110 0.9100 0.9100
4.722269 0.9080 0.9080 0.9050 0.9030 0.9010
4.756000 0.9010 0.9010 0.9010 0.9010 0.9010
4.789269 0.9010 0.9010 0.9010 0.9010 0.9010
4.822000 0.9010 0.9010 0.9010 0.9010 0.9010
4.855269 0.9010 0.9030 0.9030 0.9100 0.9110
4.889000 0.9110 0.9130 0.9200 0.9200 0.9230
4.922269 0.9230 0.9230 0.9230 0.9250 0.9260
4.955000 0.9260 0.9260 0.9280 0.9280 0.9300
4.988269 0.9300 0.9310 0.9310 0.9330 0.9330
5.022000 0.9350 0.9350 0.9350 0.9360 0.9380
5.055269 0.9380 0.9380 0.9400 0.9400 0.9400
5.088000 0.9400 0.9410 0.9410 0.9410 0.9410
5.121269 0.9430 0.9450 0.9450 0.9450 0.9450
5.155000 0.9460 0.9460 0.9480 0.9480 0.9480
5.188269 0.9500 0.9500 0.9500 0.9510 0.9510
5.221000 0.9530 0.9510 0.9510 0.9510 0.9530
5.254269 0.9530 0.9530 0.9530 0.9530 0.9530
5.288000 0.9530 0.9530 0.9530 0.9530 0.9530
5.321269 0.9530 0.9530 0.9530 0.9530 0.9530
5.354000 0.9530 0.9530 0.9530 0.9530 0.9550
5.387269 0.9550 0.9550 0.9550 0.9550 0.9550
5.421000 0.9550 0.9530 0.9530 0.9550 0.9550
5.454269 0.9530 0.9530 0.9530 0.9530 0.9530
5.487000 0.9530 0.9530 0.9550 0.9530 0.9530
5.520269 0.9530 0.9530 0.9550 0.9550 0.9560
5.554000 0.9560 0.9580 0.9580 0.9580 0.9580
5.587269 0.9600 0.9600 0.9600 0.9600 0.9610
5.620000 0.9610 0.9610 0.9610 0.9610 0.9630
5.653269 0.9630 0.9610 0.9600 0.9580 0.9580
5.687000 0.9600 0.9610 0.9610 0.9610 0.9610
5.720269 0.9610 0.9630 0.9610 0.9610 0.9610
5.753000 0.9600 0.9600 0.9600 0.9600 0.9580
5.786269 0.9580 0.9560 0.9560 0.9580 0.9600
5.820000 0.9600 0.9600 0.9550 0.9530 0.9500
5.853269 0.9500 0.9480 0.9480 0.9450 0.9410
5.886000 0.9350 0.9310 0.9260 0.9210 0.9180
5.919269 0.9110 0.9050 0.8980 0.8880 0.8780
5.953000 0.8660 0.8530 0.8510 0.8400 0.8330
5.986269 0.8250 0.8130 0.8080 0.8000 0.7960
6.019000 0.7960 0.7950 0.7950 0.7950 0.7950
6.052269 0.7960 0.8000 0.8000 0.8050 0.8150
6.086000 0.8180 0.8200 0.8230 0.8310 0.8400
6.119269 0.8450 0.8480 0.8500 0.8530 0.8610
6.152000 0.8660 0.8710 0.8810 0.8930 0.8980
6.185269 0.8980 0.9010 0.9080 0.9150 0.9200
6.219000 0.9230 0.9260 0.9260 0.9300 0.9300
6.252269 0.9300 0.9310 0.9310 0.9330 0.9330
6.285000 0.9350 0.9350 0.9350 0.9360 0.9360
6.318269 0.9360 0.9350 0.9350 0.9350 0.9350
6.352000 0.9360 0.9380 0.9400 0.9400 0.9400
6.385269 0.9400 0.9380 0.9380 0.9380 0.9380
6.418000 0.9380 0.9380 0.9410 0.9410 0.9430
6.451269 0.9430 0.9430 0.9430 0.9430 0.9450
6.485000 0.9410 0.9400 0.9400 0.9380 0.9360
6.518269 0.9360 0.9350 0.9350 0.9350 0.9360
6.551000 0.9380 0.9380 0.9400 0.9410 0.9410
6.584269 0.9460 0.9460 0.9400 0.9330 0.9330
6.618000 0.9360 0.9360 0.9380 0.9400 0.9400
6.651269 0.9400 0.9380 0.9380 0.9380 0.9380
6.684000 0.9350 0.9280 0.9230 0.9210 0.9200
6.717269 0.9160 0.9110 0.9080 0.9000 0.8930
6.751000 0.8860 0.8780 0.8480 0.8330 0.7900
6.784269 0.7400 0.7150 0.6930 0.6830 0.6700
6.817000 0.6660 0.6630 0.6600 0.6580 0.6530
6.850269 0.6510 0.6550 0.6600 0.6660 0.6880
6.884000 0.7010 0.7100 0.7260 0.7410 0.7560
6.917269 0.7610 0.7750 0.7830 0.8000 0.8080
6.950000 0.8200 0.8310 0.8410 0.8510 0.8580
6.983269 0.8660 0.8760 0.8830 0.8850 0.8850
7.017000 0.8850 0.8860 0.8900 0.8910 0.8950
7.050269 0.8980 0.9010 0.9030 0.9030 0.9080
7.083000 0.9100 0.9100 0.9110 0.9110 0.9110
7.116269 0.9110 0.9100 0.9050 0.9030 0.9030
7.150000 0.9030 0.9000 0.8980 0.8960 0.8800
7.183269 0.8600 0.8410 0.8280 0.8200 0.8050
7.216000 0.7860 0.7800 0.7800 0.7800 0.7830
7.249269 0.7850 0.7960 0.8010 0.8130 0.8210
7.283000 0.8230 0.8280 0.8330 0.8410 0.8500
7.316269 0.8550 0.8610 0.8730 0.8760 0.8810
7.349000 0.8850 0.8910 0.8930 0.8950 0.8980
7.382269 0.9000 0.9000 0.9010 0.9050 0.9100
7.416000 0.9100 0.9100 0.9100 0.9110 0.9110
7.449269 0.9130 0.9150 0.9210 0.9230 0.9250
7.482000 0.9250 0.9250 0.9280 0.9280 0.9310
7.515269 0.9330 0.9350 0.9360 0.9360 0.9380
7.549000 0.9380 0.9380 0.9380 0.9380 0.9380
7.582269 0.9400 0.9400 0.9400 0.9400 0.9400
7.615000 0.9400 0.9400 0.9400 0.9380 0.9380
7.648269 0.9400 0.9400 0.9400 0.9400 0.9400
7.682000 0.9400 0.9410 0.9410 0.9410 0.9430
7.715269 0.9430 0.9450 0.9450 0.9430 0.9450
7.748000 0.9430 0.9430 0.9430 0.9430 0.9430
7.781269 0.9450 0.9460 0.9460 0.9460 0.9480
7.815000 0.9480 0.9480 0.9480 0.9480 0.9480
7.848269 0.9480 0.9480 0.9480 0.9460 0.9460
7.881000 0.9460 0.9450 0.9450 0.9430 0.9430
7.914269 0.9430 0.9410 0.9410 0.9410 0.9410
7.948000 0.9410 0.9410 0.9410 0.9410 0.9410
7.981269 0.9410 0.9410 0.9410 0.9410 0.9400
8.015000 0.9380 0.9350 0.9350 0.9350 0.9350
8.048269 0.9350 0.9350 0.9330 0.9310 0.9310
8.081000 0.9310 0.9280 0.9280 0.9260 0.9260
8.114269 0.9260 0.9260 0.9280 0.9280 0.9300
8.148000 0.9280 0.9280 0.9260 0.9260 0.9250
8.181269 0.9250 0.9230 0.9230 0.9250 0.9230
8.214000 0.9230 0.9230 0.9230 0.9210 0.9210
8.247269 0.9210 0.9200 0.9200 0.9180 0.9180
8.281000 0.9180 0.9160 0.9150 0.9150 0.9130
8.314269 0.9110 0.9110 0.9100 0.9100 0.9080
8.347000 0.9080 0.9060 0.9060 0.9050 0.9030
8.380269 0.9030 0.9010 0.9010 0.9000 0.9000
8.414000 0.9000 0.8980 0.8960 0.8950 0.8930
8.447269 0.8910 0.8900 0.8850 0.8830 0.8800
8.480000 0.8760 0.8750 0.8750 0.8700 0.8660
8.513269 0.8610 0.8560 0.8510 0.8480 0.8460
8.547000 0.8400 0.8330 0.8280 0.8260 0.8230
8.580269 0.8200 0.8150 0.8100 0.8060 0.8030
8.613000 0.7980 0.7980 0.7850 0.7780 0.7700
8.646269 0.7660 0.7600 0.7510 0.7460 0.7360
8.680000 0.7250 0.7160 0.7060 0.6960 0.6780
8.713269 0.6730 0.6660 0.6560 0.6200 0.5980
8.746000 0.5630 0.5350 0.4900 0.4600 0.4400
8.779269 0.3880 0.3580 0.3260 0.2810 0.2660
8.813000 0.2380 0.2230 0.2050 0.1980 0.1780
8.846269 0.1610 0.1560 0.1380 0.1250 0.1130
8.879000 0.1030 0.1000 0.0910 0.0880 0.0850
8.912269 0.0810 0.0810 0.0810 0.0810 0.0850
8.946000 0.0880 0.0900 0.0930 0.0960 0.0980
8.979269 0.0980 0.0980 0.0960 0.0950 0.0930
9.012000 0.0910 0.0900 0.0880 0.0880 0.0880
9.045269 0.0900 0.0900 0.0930 0.0960 0.1000
9.079000 0.1010 0.1030 0.1060 0.1100 0.1110
9.112269 0.1150 0.1160 0.1180 0.1210 0.1230
9.145000 0.1250 0.1250 0.1250 0.1250 0.1250
9.178269 0.1250 0.1230 0.1230 0.1210 0.1180
9.212000 0.1160 0.1130 0.1110 0.1080 0.1010
9.245269 0.0980 0.0930 0.0930 0.0900 0.0880
9.278000 0.0880 0.0880 0.0880 0.0880 0.0900
9.311269 0.0910 0.1000 0.1010 0.1130 0.1250
9.345000 0.1410 0.1510 0.1780 0.1980 0.2030
9.378269 0.2260 0.2500 0.2680 0.2980 0.3130
9.411000 0.3530 0.3730 0.3980 0.4080 0.4200
9.444269 0.4350 0.4460 0.4560 0.4710 0.4850
9.478000 0.5010 0.5080 0.5180 0.5230 0.5330
9.511269 0.5480 0.5550 0.5610 0.5730 0.5810
9.544000 0.5850 0.5900 0.5980 0.6010 0.6110
9.577269 0.6160 0.6230 0.6300 0.6360 0.6410
9.611000 0.6430 0.6450 0.6460 0.6480 0.6500
9.644269 0.6510 0.6530 0.6550 0.6560 0.6580
9.677000 0.6580 0.6600 0.6610 0.6630 0.6630
9.710269 0.6630 0.6660 0.6710 0.6730 0.6750
9.744000 0.6750 0.6760 0.6750 0.6750 0.6710
9.777269 0.6700 0.6660 0.6630 0.6480 0.6350
9.810000 0.6010 0.5880 0.5400 0.5130 0.4600
9.843269 0.4350 0.3900 0.3530 0.3430 0.3330
9.877000 0.3250 0.3150 0.3060 0.3010 0.3000
9.910269 0.2950 0.2880 0.2780 0.2700 0.2610
9.943000 0.2500 0.2360 0.2310 0.2230 0.2180
9.976269 0.2060 0.1960 0.1810 0.1800 0.1760
10.010000 0.1750 0.1680 0.1630 0.1560 0.1530
10.043269 0.1510 0.1480 0.1450 0.1430 0.1410
10.076000 0.1410 0.1410 0.1410 0.1450 0.1510
10.109269 0.1680 0.1810 0.2000 0.2230 0.2500
10.143000 0.2700 0.3060 0.3250 0.3930 0.4180
10.176269 0.4480 0.4660 0.5000 0.5160 0.5460
10.209000 0.5580 0.5680 0.5880 0.6000 0.6160
10.242269 0.6310 0.6410 0.6530 0.6660 0.6900
10.276000 0.6960 0.7030 0.7150 0.7210 0.7260
10.309269 0.7330 0.7410 0.7480 0.7510 0.7550
10.342000 0.7610 0.7660 0.7730 0.7800 0.7850
10.375269 0.7900 0.7960 0.7980 0.8000 0.8030
10.409000 0.8050 0.8080 0.8130 0.8180 0.8180
10.442269 0.8200 0.8210 0.8230 0.8260 0.8300
10.475000 0.8330 0.8330 0.8380 0.8400 0.8400
10.508269 0.8410 0.8430 0.8430 0.8460 0.8480
10.542000 0.8500 0.8510 0.8530 0.8530 0.8530
10.575269 0.8560 0.8560 0.8600 0.8610 0.8630
10.608000 0.8630 0.8630 0.8630 0.8650 0.8660
10.641269 0.8660 0.8680 0.8680 0.8700 0.8700
10.675000 0.8710 0.8710 0.8710 0.8730 0.8730
10.708269 0.8730 0.8750 0.8760 0.8780 0.8780
10.741000 0.8800 0.8800 0.8810 0.8810 0.8830
10.774269 0.8830 0.8830 0.8850 0.8850 0.8860
10.808000 0.8860 0.8860 0.8880 0.8880 0.8900
10.841269 0.8900 0.8900 0.8910 0.8910 0.8910
10.874000 0.8930 0.8950 0.8950 0.8960 0.8960
10.907269 0.8960 0.8980 0.8980 0.8980 0.8980
10.941000 0.9000 0.9000 0.9000 0.9000 0.9000
10.974269 0.9010 0.9010 0.9010 0.9010 0.9030
11.007000 0.9050 0.9030 0.9030 0.9030 0.9030
11.040269 0.9030 0.9030 0.9030 0.9030 0.9030
11.074000 0.9030 0.9030 0.9030 0.9030 0.9030
11.107269 0.9030 0.9030 0.9030 0.9030 0.9030
11.140000 0.9030 0.9030 0.9030 0.9010 0.9010
11.173269 0.9010 0.9010 0.9010 0.9010 0.9010
11.207000 0.9010 0.9010 0.9010 0.9000 0.9000
11.240269 0.9000 0.9000 0.9000 0.9000 0.9000
11.273000 0.9000 0.8980 0.8980 0.8980 0.8980
11.306269 0.9000 0.8980 0.8980 0.8980 0.8960
11.340000 0.8960 0.8950 0.8950 0.8930 0.8930
11.373269 0.8910 0.8910 0.8900 0.8900 0.8880
11.406000 0.8860 0.8850 0.8850 0.8830 0.8810
11.439269 0.8800 0.8800 0.8780 0.8760 0.8750
11.473000 0.8730 0.8710 0.8700 0.8680 0.8660
11.506269 0.8650 0.8630 0.8610 0.8610 0.8600
11.539000 0.8580 0.8560 0.8550 0.8530 0.8510
11.572269 0.8500 0.8480 0.8460 0.8450 0.8430
11.606000 0.8410 0.8400 0.8380 0.8360 0.8360
11.639269 0.8350 0.8330 0.8310 0.8310 0.8300
11.672000 0.8280 0.8260 0.8260 0.8250 0.8230
11.705269 0.8210 0.8210 0.8200 0.8180 0.8160
11.739000 0.8160 0.8150 0.8130 0.8110 0.8100
11.772269 0.8100 0.8100 0.8080 0.8080 0.8060
11.805000 0.8060 0.8050 0.8050 0.8050 0.8030
11.838269 0.8030 0.8010 0.8010 0.8000 0.8000
11.872000 0.8000 0.8000 0.8000 0.8000 0.8000
11.905269 0.7980 0.7980 0.7980 0.7980 0.7980
11.938000 0.7980 0.7960 0.7980 0.7980 0.7980
11.971269 0.7980 0.8000 0.8000 0.8000 0.8000
12.005000 0.8010 0.8010 0.8010 0.8010 0.8010
12.038269 0.8010 0.8010 0.8030 0.8050 0.8060
12.071000 0.8080 0.8080 0.8100 0.8110 0.8130
12.104269 0.8130 0.8130 0.8160 0.8160 0.8180
12.138000 0.8180 0.8180 0.8180 0.8180 0.8180
12.171269 0.8180 0.8180 0.8180 0.8180 0.8200
12.204000 0.8200 0.8200 0.8200 0.8200 0.8200
12.237269 0.8210 0.8230 0.8230 0.8250 0.8260
12.271000 0.8280 0.8280 0.8300 0.8300 0.8300
12.304269 0.8310 0.8310 0.8330 0.8360 0.8380
12.337000 0.8380 0.8400 0.8410 0.8410 0.8410
12.370269 0.8410 0.8430 0.8430 0.8450 0.8450
12.404000 0.8450 0.8450 0.8460 0.8460 0.8460
12.437269 0.8480 0.8480 0.8460 0.8450 0.8460
12.470000 0.8460 0.8460 0.8460 0.8460 0.8480
12.503269 0.8480 0.8480 0.8480 0.8500 0.8500
12.537000 0.8500 0.8500 0.8500 0.8500 0.8500
12.570269 0.8510 0.8510 0.8510 0.8510 0.8510
12.603000 0.8530 0.8530 0.8530 0.8530 0.8530
12.636269 0.8550 0.8550 0.8550 0.8550 0.8550
12.670000 0.8550 0.8560 0.8560 0.8560 0.8560
12.703269 0.8560 0.8560 0.8580 0.8580 0.8580
12.736000 0.8580 0.8580 0.8600 0.8610 0.8610
12.769269 0.8630 0.8630 0.8630 0.8630 0.8630
12.803000 0.8630 0.8630 0.8630 0.8630 0.8630
12.836269 0.8650 0.8650 0.8650 0.8660 0.8650
12.869000 0.8650 0.8660 0.8660 0.8660 0.8680
12.902269 0.8680 0.8680 0.8680 0.8700 0.8700
12.936000 0.8700 0.8710 0.8710 0.8710 0.8730
12.969269 0.8730 0.8730 0.8730 0.8750 0.8760
13.002000 0.8760 0.8760 0.8760 0.8750 0.8750
13.035269 0.8750 0.8750 0.8750 0.8750 0.8750
13.069000 0.8750 0.8750 0.8760 0.8760 0.8760
13.102269 0.8750 0.8750 0.8750 0.8760 0.8760
13.135000 0.8760 0.8760 0.8750 0.8750 0.8730
13.168269 0.8730 0.8730 0.8730 0.8730 0.8750
13.202000 0.8750 0.8760 0.8750 0.8750 0.8760
13.235269 0.8750 0.8750 0.8750 0.8750 0.8750
13.268000 0.8750 0.8750 0.8750 0.8750 0.8750
13.301269 0.8750 0.8750 0.8750 0.8750 0.8750
13.335000 0.8750 0.8750 0.8730 0.8730 0.8730
13.368269 0.8730 0.8730 0.8730 0.8730 0.8710
13.401000 0.8700 0.8710 0.8700 0.8700 0.8680
13.434269 0.8680 0.8660 0.8650 0.8630 0.8610
13.468000 0.8610 0.8610 0.8610 0.8610 0.8610
13.501269 0.8610 0.8610 0.8610 0.8600 0.8600
13.534000 0.8600 0.8600 0.8600 0.8600 0.8600
13.567269 0.8580 0.8580 0.8580 0.8580 0.8600
13.601000 0.8580 0.8580 0.8580 0.8560 0.8560
13.634269 0.8560 0.8550 0.8550 0.8530 0.8510
13.667000 0.8500 0.8500 0.8500 0.8500 0.8480
13.700269 0.8480 0.8460 0.8460 0.8450 0.8450
13.734000 0.8430 0.8410 0.8400 0.8380 0.8360
13.767269 0.8350 0.8330 0.8310 0.8300 0.8300
13.800000 0.8280 0.8280 0.8280 0.8260 0.8260
13.833269 0.8250 0.8250 0.8230 0.8230 0.8210
13.867000 0.8210 0.8210 0.8210 0.8210 0.8210
13.900269 0.8200 0.8200 0.8200 0.8200 0.8200
13.933000 0.8180 0.8180 0.8150 0.8130 0.8110
13.966269 0.8100 0.8080 0.8050 0.8010 0.8010
14.000000 0.7980 0.7960 0.7910 0.7900 0.7860
14.033269 0.7810 0.7800 0.7760 0.7750 0.7700
14.067000 0.7680 0.7650 0.7580 0.7530 0.7480
14.100269 0.7410 0.7400 0.7360 0.7310 0.7280
14.133000 0.7200 0.7160 0.7100 0.7000 0.6900
14.166269 0.6830 0.6760 0.6680 0.6630 0.6560
14.200000 0.6460 0.6350 0.6160 0.6010 0.5900
14.233269 0.5730 0.5650 0.5510 0.5300 0.5150
14.266000 0.4960 0.4850 0.4580 0.4330 0.4200
14.299269 0.4050 0.3960 0.3760 0.3600 0.3550
14.333000 0.3410 0.3360 0.3310 0.3260 0.3200
14.366269 0.3110 0.3030 0.2980 0.2960 0.2910
14.399000 0.2880 0.2850 0.2800 0.2750 0.2730
14.432269 0.2700 0.2680 0.2680 0.2660 0.2650
14.466000 0.2650 0.2630 0.2610 0.2610 0.2610
14.499269 0.2610 0.2610 0.2610 0.2610 0.2630
14.532000 0.2630 0.2650 0.2650 0.2650 0.2650
14.565269 0.2650 0.2660 0.2660 0.2680 0.2680
14.599000 0.2700 0.2700 0.2710 0.2710 0.2730
14.632269 0.2730 0.2730 0.2730 0.2730 0.2730
14.665000 0.2730 0.2730 0.2730 0.2730 0.2730
14.698269 0.2730 0.2730 0.2730 0.2730 0.2730
14.732000 0.2730 0.2750 0.2760 0.2780 0.2810
14.765269 0.2850 0.2880 0.2910 0.2930 0.2980
14.798000 0.3030 0.3100 0.3180 0.3210 0.3300
14.831269 0.3460 0.3600 0.3630 0.3700 0.3810
14.865000 0.3850 0.3960 0.3980 0.4060 0.4150
14.898269 0.4230 0.4300 0.4380 0.4450 0.4500
14.931000 0.4530 0.4560 0.4600 0.4680 0.4800
14.964269 0.4860 0.4950 0.5000 0.5000 0.5100
14.998000 0.5150 0.5200 0.5230 0.5280 0.5330
15.031269 0.5360 0.5450 0.5460 0.5510 0.5580
15.064000 0.5610 0.5660 0.5700 0.5730 0.5750
15.097269 0.5780 0.5810 0.5830 0.5860 0.5900
15.131000 0.5930 0.5960 0.5960 0.5980 0.5980
15.164269 0.5980 0.6000 0.6000 0.6010 0.6010
15.197000 0.6050 0.6060 0.6080 0.6080 0.6100
15.230269 0.6100 0.6110 0.6110 0.6110 0.6110
15.264000 0.6110 0.6110 0.6130 0.6130 0.6130
15.297269 0.6150 0.6150 0.6150 0.6160 0.6160
15.330000 0.6160 0.6180 0.6160 0.6160 0.6180
15.363269 0.6180 0.6180 0.6180 0.6180 0.6200
15.397000 0.6200 0.6210 0.6210 0.6210 0.6210
15.430269 0.6210 0.6210 0.6210 0.6210 0.6230
15.463000 0.6230 0.6230 0.6250 0.6250 0.6250
15.496269 0.6250 0.6250 0.6250 0.6250 0.6250
15.530000 0.6250 0.6250 0.6250 0.6250 0.6250
15.563269 0.6260 0.6250 0.6250 0.6250 0.6250
15.596000 0.6250 0.6250 0.6260 0.6250 0.6250
15.629269 0.6250 0.6230 0.6230 0.6230 0.6230
15.663000 0.6230 0.6230 0.6250 0.6250 0.6250
15.696269 0.6260 0.6260 0.6260 0.6260 0.6260
15.729000 0.6260 0.6260 0.6260 0.6260 0.6260
15.762269 0.6260 0.6260 0.6250 0.6250 0.6250
15.796000 0.6250 0.6250 0.6230 0.6230 0.6230
15.829269 0.6230 0.6230 0.6210 0.6210 0.6210
15.862000 0.6210 0.6210 0.6230 0.6230 0.6250
15.895269 0.6260 0.6260 0.6260 0.6260 0.6260
15.929000 0.6260 0.6260 0.6260 0.6260 0.6260
15.962269 0.6260 0.6260 0.6260 0.6260 0.6260
##END=
