##TITLE=Calcium pyrophosphate, tetrabasic (Form II)
##JCAMP-DX=4.24
##DATA TYPE=INFRARED SPECTRUM
##CLASS=COBLENTZ III
##ORIGIN=COLGATE-PALMOLIVE COMPANY (KELLENBACH)
##OWNER=Copyright (C) 1987 by the Coblentz Society
Collection (C) 2018 copyright by the U.S. Secretary of Commerce
on behalf of the United States of America. All rights reserved.
##DATE=1974/02/20
##MOLFORM=O7 P2 Ca2
##SOURCE REFERENCE=COBLENTZ NO. 9795
##$NIST ID=B6009795
##$NIST SOURCE=COBLENTZ
##$NIST IMAGE=cob9795
##SPECTROMETER/DATA SYSTEM=BECKMAN IR-12 (GRATING)
##INSTRUMENT PARAMETERS=GRATING
##STATE=SOLID (1 mg / 100 mg, KBr DISC)
$$ SOURCE - MONSANTO CHEMICAL CO.
##SAMPLING PROCEDURE=TRANSMISSION
##RESOLUTION=2
##DATA PROCESSING=DIGITIZED BY COBLENTZ SOCIETY (BATCH II) FROM HARD COPY
##XUNITS=1/CM
##YUNITS=TRANSMITTANCE
##XFACTOR=1.0
##YFACTOR=1
##FIRSTX=204
##LASTX=3998
##FIRSTY=0.0655
##MAXX=3998
##MINX=204
##MAXY=0.9299
##MINY=0.0554
##NPOINTS=3795
##XYDATA=(X++(Y..Y))
204.000000 0.0655 0.0645 0.0634 0.0624 0.0613
209.000000 0.0601 0.0590 0.0579 0.0570 0.0561
214.000000 0.0554 0.0556 0.0557 0.0563 0.0571
219.000000 0.0580 0.0599 0.0622 0.0675 0.0765
224.000000 0.0804 0.0839 0.0860 0.0878 0.0888
229.000000 0.0930 0.1015 0.1094 0.1163 0.1269
234.000000 0.1349 0.1399 0.1448 0.1485 0.1517
239.000000 0.1541 0.1552 0.1562 0.1573 0.1582
244.000000 0.1588 0.1595 0.1601 0.1608 0.1613
249.000000 0.1616 0.1619 0.1622 0.1625 0.1629
254.000000 0.1635 0.1641 0.1652 0.1667 0.1682
259.000000 0.1697 0.1713 0.1739 0.1765 0.1793
264.000000 0.1836 0.1878 0.1912 0.1946 0.2237
269.000000 0.2263 0.2290 0.2326 0.2357 0.2377
274.000000 0.2391 0.2405 0.2418 0.2428 0.2434
279.000000 0.2423 0.2404 0.2376 0.2340 0.2325
284.000000 0.2323 0.2320 0.2318 0.2318 0.2323
289.000000 0.2320 0.2334 0.2370 0.2423 0.2480
294.000000 0.2564 0.2643 0.2688 0.2727 0.2746
299.000000 0.2750 0.2754 0.2759 0.2763 0.2768
304.000000 0.2773 0.2789 0.2813 0.2856 0.2902
309.000000 0.2942 0.2982 0.3025 0.3068 0.3113
314.000000 0.3167 0.3221 0.3287 0.3365 0.3461
319.000000 0.3634 0.3832 0.3944 0.4031 0.4133
324.000000 0.4316 0.4425 0.4511 0.4629 0.4757
329.000000 0.4886 0.5014 0.5142 0.5271 0.5399
334.000000 0.5528 0.5656 0.5784 0.5913 0.6041
339.000000 0.6169 0.6298 0.6426 0.6554 0.6683
344.000000 0.6811 0.6920 0.6941 0.6949 0.6932
349.000000 0.6858 0.6758 0.6657 0.6557 0.6436
354.000000 0.6350 0.6283 0.6239 0.6205 0.6172
359.000000 0.6149 0.6134 0.6126 0.6121 0.6115
364.000000 0.6120 0.6087 0.6137 0.6183 0.6313
369.000000 0.6444 0.6574 0.6704 0.6834 0.6964
374.000000 0.7094 0.7224 0.7355 0.7485 0.7615
379.000000 0.7749 0.7815 0.7857 0.7864 0.7869
384.000000 0.7873 0.7870 0.7858 0.7846 0.7834
389.000000 0.7821 0.7810 0.7812 0.7817 0.7848
394.000000 0.7908 0.7977 0.8048 0.8163 0.8280
399.000000 0.8396 0.8513 0.8629 0.8746 0.8860
404.000000 0.8937 0.8997 0.9050 0.9103 0.9143
409.000000 0.9170 0.9197 0.9223 0.9250 0.9263
414.000000 0.9274 0.9286 0.9295 0.9295 0.9299
419.000000 0.9285 0.9274 0.9264 0.9254 0.9247
424.000000 0.9248 0.9250 0.9254 0.9256 0.9256
429.000000 0.9235 0.9201 0.9159 0.9102 0.9035
434.000000 0.8982 0.8931 0.8874 0.8800 0.8725
439.000000 0.8641 0.8401 0.8134 0.7866 0.7599
444.000000 0.7331 0.7063 0.6796 0.6528 0.6261
449.000000 0.5993 0.5857 0.5852 0.6054 0.6220
454.000000 0.6385 0.6551 0.6716 0.6882 0.7047
459.000000 0.7213 0.7378 0.7544 0.7709 0.7875
464.000000 0.8040 0.8205 0.8380 0.8401 0.8422
469.000000 0.8454 0.8424 0.8420 0.8414 0.8394
474.000000 0.8363 0.8324 0.8285 0.8241 0.8190
479.000000 0.8074 0.8016 0.7795 0.7536 0.7277
484.000000 0.7017 0.6758 0.6499 0.6239 0.5980
489.000000 0.5721 0.5461 0.5202 0.4943 0.4707
494.000000 0.4642 0.4588 0.4545 0.4517 0.4510
499.000000 0.4501 0.4627 0.4827 0.5026 0.5226
504.000000 0.5425 0.5625 0.5824 0.6024 0.6223
509.000000 0.6422 0.6589 0.6588 0.6607 0.6499
514.000000 0.6331 0.6162 0.5994 0.5826 0.5657
519.000000 0.5489 0.5321 0.5152 0.4984 0.4816
524.000000 0.4647 0.4479 0.4311 0.4142 0.3974
529.000000 0.3806 0.3637 0.3469 0.3301 0.3152
534.000000 0.3155 0.3164 0.3253 0.3361 0.3469
539.000000 0.3577 0.3685 0.3793 0.3901 0.3947
544.000000 0.3950 0.3816 0.3635 0.3454 0.3272
549.000000 0.3091 0.2910 0.2729 0.2547 0.2375
554.000000 0.2244 0.2131 0.2005 0.1890 0.1820
559.000000 0.1751 0.1693 0.1656 0.1620 0.1586
564.000000 0.1562 0.1537 0.1530 0.1524 0.1535
569.000000 0.1524 0.1527 0.1549 0.1589 0.1695
574.000000 0.1820 0.1944 0.2069 0.2193 0.2318
579.000000 0.2442 0.2567 0.2692 0.2816 0.2941
584.000000 0.3065 0.3190 0.3314 0.3439 0.3563
589.000000 0.3688 0.3813 0.3937 0.4062 0.4186
594.000000 0.4311 0.4435 0.4560 0.4684 0.4809
599.000000 0.4934 0.5058 0.5183 0.5307 0.5432
604.000000 0.5508 0.5530 0.5547 0.5552 0.5547
609.000000 0.5520 0.5492 0.5464 0.5446 0.5450
614.000000 0.5467 0.5786 0.6016 0.6145 0.6258
619.000000 0.6394 0.6555 0.6773 0.6939 0.7250
624.000000 0.7347 0.7433 0.7497 0.7562 0.7627
629.000000 0.7691 0.7742 0.7791 0.7839 0.7887
634.000000 0.7935 0.7980 0.8024 0.8069 0.8113
639.000000 0.8157 0.8201 0.8246 0.8293 0.8341
644.000000 0.8389 0.8437 0.8486 0.8534 0.8582
649.000000 0.8620 0.8658 0.8696 0.8734 0.8772
654.000000 0.8810 0.8847 0.8873 0.8899 0.8925
659.000000 0.8951 0.8977 0.9001 0.9021 0.9042
664.000000 0.9062 0.9083 0.9093 0.9100 0.9107
669.000000 0.9114 0.9120 0.9126 0.9132 0.9137
674.000000 0.9140 0.9147 0.9157 0.9149 0.9147
679.000000 0.9144 0.9140 0.9134 0.9129 0.9120
684.000000 0.9109 0.9098 0.9088 0.9066 0.9044
689.000000 0.9019 0.8990 0.8961 0.8932 0.8903
694.000000 0.8874 0.8838 0.8787 0.8717 0.8627
699.000000 0.8499 0.8358 0.8253 0.8122 0.7865
704.000000 0.7607 0.7349 0.7091 0.6834 0.6576
709.000000 0.6318 0.6061 0.5803 0.5545 0.5287
714.000000 0.5030 0.4772 0.4514 0.4256 0.3999
719.000000 0.3750 0.3746 0.3760 0.3783 0.4004
724.000000 0.4224 0.4444 0.4664 0.4884 0.5104
729.000000 0.5325 0.5545 0.5765 0.5985 0.6205
734.000000 0.6425 0.6646 0.6866 0.7086 0.7306
739.000000 0.7526 0.7747 0.7961 0.8082 0.8206
744.000000 0.8268 0.8327 0.8372 0.8417 0.8467
749.000000 0.8520 0.8592 0.8722 0.8784 0.8801
754.000000 0.8808 0.8816 0.8823 0.8831 0.8840
759.000000 0.8864 0.8893 0.8925 0.8951 0.8965
764.000000 0.8970 0.8971 0.8972 0.8975 0.8978
769.000000 0.8981 0.8984 0.8994 0.8996 0.9002
774.000000 0.9003 0.9002 0.8994 0.8972 0.8954
779.000000 0.8938 0.8935 0.8932 0.8930 0.8927
784.000000 0.8926 0.8924 0.8922 0.8921 0.8908
789.000000 0.8877 0.8842 0.8807 0.8791 0.8783
794.000000 0.8779 0.8774 0.8770 0.8765 0.8758
799.000000 0.8749 0.8723 0.8689 0.8647 0.8634
804.000000 0.8621 0.8611 0.8604 0.8597 0.8589
809.000000 0.8581 0.8556 0.8518 0.8442 0.8390
814.000000 0.8369 0.8363 0.8356 0.8351 0.8340
819.000000 0.8310 0.8264 0.8224 0.8187 0.8154
824.000000 0.8120 0.8086 0.8052 0.8018 0.7984
829.000000 0.7950 0.7916 0.7882 0.7846 0.7809
834.000000 0.7772 0.7736 0.7699 0.7662 0.7630
839.000000 0.7597 0.7565 0.7533 0.7501 0.7468
844.000000 0.7433 0.7397 0.7361 0.7325 0.7289
849.000000 0.7253 0.7216 0.7176 0.7137 0.7098
854.000000 0.7058 0.7019 0.6980 0.6937 0.6893
859.000000 0.6848 0.6803 0.6758 0.6714 0.6668
864.000000 0.6611 0.6555 0.6498 0.6442 0.6383
869.000000 0.6325 0.6266 0.6207 0.6132 0.6047
874.000000 0.5971 0.5910 0.5850 0.5774 0.5691
879.000000 0.5608 0.5525 0.5441 0.5358 0.5275
884.000000 0.5191 0.5096 0.5033 0.4988 0.4942
889.000000 0.4896 0.4850 0.4790 0.4722 0.4652
894.000000 0.4574 0.4495 0.4413 0.4313 0.4214
899.000000 0.4113 0.4009 0.3904 0.3793 0.3661
904.000000 0.3547 0.3464 0.3381 0.3298 0.3221
909.000000 0.3146 0.3046 0.2899 0.2719 0.2612
914.000000 0.2523 0.2438 0.2357 0.2296 0.2236
919.000000 0.2175 0.2117 0.2060 0.2003 0.1946
924.000000 0.1889 0.1809 0.1717 0.1653 0.1595
929.000000 0.1537 0.1484 0.1433 0.1383 0.1343
934.000000 0.1318 0.1293 0.1267 0.1247 0.1232
939.000000 0.1217 0.1210 0.1223 0.1207 0.1208
944.000000 0.1210 0.1213 0.1223 0.1237 0.1267
949.000000 0.1317 0.1396 0.1476 0.1555 0.1635
954.000000 0.1714 0.1794 0.1874 0.1953 0.2033
959.000000 0.2112 0.2192 0.2272 0.2351 0.2431
964.000000 0.2510 0.2590 0.2670 0.2749 0.2829
969.000000 0.2909 0.2988 0.3068 0.3147 0.3231
974.000000 0.3309 0.3388 0.3466 0.3544 0.3621
979.000000 0.3704 0.3793 0.3883 0.3975 0.4089
984.000000 0.4202 0.4313 0.4421 0.4514 0.4596
989.000000 0.4627 0.4653 0.4658 0.4664 0.4683
994.000000 0.4657 0.4614 0.4515 0.4416 0.4317
999.000000 0.4217 0.4069 0.4067 0.4076 0.4250
1004.000000 0.4425 0.4599 0.4774 0.4949 0.5093
1009.000000 0.5134 0.5173 0.5180 0.5185 0.5212
1014.000000 0.5162 0.5122 0.5060 0.4998 0.4937
1019.000000 0.4883 0.4832 0.4694 0.4484 0.4274
1024.000000 0.4064 0.3854 0.3644 0.3434 0.3224
1029.000000 0.3014 0.2804 0.2594 0.2384 0.2174
1034.000000 0.1921 0.1924 0.1938 0.2099 0.2405
1039.000000 0.2710 0.3016 0.3321 0.3627 0.3932
1044.000000 0.4238 0.4453 0.4458 0.4459 0.4448
1049.000000 0.4437 0.4371 0.4248 0.4126 0.4004
1054.000000 0.3881 0.3759 0.3637 0.3514 0.3392
1059.000000 0.3270 0.3148 0.3025 0.2903 0.2781
1064.000000 0.2658 0.2536 0.2414 0.2291 0.2169
1069.000000 0.2047 0.1924 0.1802 0.1680 0.1557
1074.000000 0.1435 0.1313 0.1239 0.1198 0.1158
1079.000000 0.1121 0.1084 0.1047 0.1009 0.0979
1084.000000 0.0953 0.0935 0.0934 0.0933 0.0939
1089.000000 0.0945 0.0961 0.1089 0.1179 0.1261
1094.000000 0.1335 0.1470 0.1609 0.1748 0.1887
1099.000000 0.2025 0.2164 0.2303 0.2442 0.2581
1104.000000 0.2719 0.2858 0.2997 0.3136 0.3274
1109.000000 0.3413 0.3552 0.3691 0.3830 0.3948
1114.000000 0.3954 0.3955 0.3961 0.3903 0.3751
1119.000000 0.3599 0.3448 0.3296 0.3144 0.2992
1124.000000 0.2841 0.2689 0.2537 0.2386 0.2234
1129.000000 0.2082 0.1931 0.1779 0.1627 0.1476
1134.000000 0.1324 0.1117 0.1004 0.0928 0.0868
1139.000000 0.0806 0.0724 0.0657 0.0615 0.0589
1144.000000 0.0592 0.0604 0.0612 0.0625 0.0640
1149.000000 0.0657 0.0675 0.0697 0.0719 0.0742
1154.000000 0.0764 0.0761 0.0758 0.0791 0.0733
1159.000000 0.0720 0.0708 0.0696 0.0684 0.0677
1164.000000 0.0670 0.0664 0.0660 0.0661 0.0666
1169.000000 0.0676 0.0694 0.0720 0.0753 0.0784
1174.000000 0.0816 0.0849 0.0886 0.0925 0.0967
1179.000000 0.0998 0.1017 0.1036 0.1055 0.1066
1184.000000 0.1076 0.1086 0.1093 0.1098 0.1104
1189.000000 0.1109 0.1115 0.1120 0.1126 0.1132
1194.000000 0.1137 0.1143 0.1149 0.1159 0.1178
1199.000000 0.1206 0.1249 0.1301 0.1338 0.1382
1204.000000 0.1436 0.1490 0.1544 0.1613 0.1683
1209.000000 0.1752 0.1840 0.1930 0.2027 0.2131
1214.000000 0.2228 0.2303 0.2378 0.2454 0.2505
1219.000000 0.2550 0.2595 0.2640 0.2684 0.2729
1224.000000 0.2788 0.2852 0.2916 0.2980 0.3042
1229.000000 0.3100 0.3158 0.3216 0.3275 0.3338
1234.000000 0.3402 0.3466 0.3528 0.3570 0.3613
1239.000000 0.3656 0.3698 0.3741 0.3781 0.3817
1244.000000 0.3854 0.3890 0.3927 0.3963 0.3998
1249.000000 0.4032 0.4065 0.4099 0.4133 0.4166
1254.000000 0.4197 0.4225 0.4253 0.4281 0.4309
1259.000000 0.4337 0.4360 0.4380 0.4400 0.4420
1264.000000 0.4440 0.4460 0.4480 0.4500 0.4520
1269.000000 0.4540 0.4555 0.4569 0.4584 0.4599
1274.000000 0.4614 0.4629 0.4644 0.4659 0.4674
1279.000000 0.4689 0.4702 0.4715 0.4729 0.4742
1284.000000 0.4755 0.4768 0.4781 0.4794 0.4809
1289.000000 0.4825 0.4841 0.4857 0.4872 0.4888
1294.000000 0.4904 0.4920 0.4935 0.4951 0.4966
1299.000000 0.4981 0.4996 0.5011 0.5027 0.5042
1304.000000 0.5057 0.5072 0.5087 0.5102 0.5117
1309.000000 0.5132 0.5144 0.5156 0.5168 0.5180
1314.000000 0.5192 0.5204 0.5216 0.5228 0.5240
1319.000000 0.5252 0.5264 0.5276 0.5288 0.5300
1324.000000 0.5312 0.5324 0.5336 0.5347 0.5358
1329.000000 0.5368 0.5378 0.5389 0.5399 0.5410
1334.000000 0.5420 0.5431 0.5441 0.5452 0.5461
1339.000000 0.5471 0.5481 0.5491 0.5501 0.5511
1344.000000 0.5520 0.5530 0.5540 0.5550 0.5559
1349.000000 0.5569 0.5578 0.5587 0.5597 0.5606
1354.000000 0.5615 0.5625 0.5634 0.5644 0.5653
1359.000000 0.5662 0.5672 0.5681 0.5690 0.5700
1364.000000 0.5709 0.5718 0.5727 0.5735 0.5744
1369.000000 0.5752 0.5761 0.5770 0.5778 0.5787
1374.000000 0.5796 0.5804 0.5813 0.5822 0.5830
1379.000000 0.5839 0.5847 0.5856 0.5865 0.5873
1384.000000 0.5882 0.5890 0.5897 0.5903 0.5910
1389.000000 0.5916 0.5923 0.5929 0.5936 0.5942
1394.000000 0.5949 0.5955 0.5962 0.5969 0.5977
1399.000000 0.5984 0.5992 0.6000 0.6007 0.6015
1404.000000 0.6021 0.6028 0.6035 0.6042 0.6049
1409.000000 0.6053 0.6057 0.6062 0.6066 0.6071
1414.000000 0.6075 0.6080 0.6084 0.6087 0.6091
1419.000000 0.6095 0.6099 0.6103 0.6107 0.6112
1424.000000 0.6116 0.6120 0.6125 0.6128 0.6131
1429.000000 0.6134 0.6137 0.6140 0.6143 0.6146
1434.000000 0.6153 0.6160 0.6166 0.6171 0.6176
1439.000000 0.6182 0.6190 0.6198 0.6206 0.6214
1444.000000 0.6222 0.6230 0.6239 0.6247 0.6255
1449.000000 0.6256 0.6256 0.6256 0.6257 0.6257
1454.000000 0.6247 0.6236 0.6225 0.6213 0.6199
1459.000000 0.6213 0.6240 0.6260 0.6278 0.6296
1464.000000 0.6309 0.6315 0.6322 0.6328 0.6335
1469.000000 0.6341 0.6341 0.6339 0.6336 0.6333
1474.000000 0.6336 0.6346 0.6357 0.6367 0.6378
1479.000000 0.6389 0.6400 0.6413 0.6427 0.6441
1484.000000 0.6444 0.6445 0.6446 0.6447 0.6448
1489.000000 0.6449 0.6450 0.6451 0.6453 0.6457
1494.000000 0.6460 0.6464 0.6467 0.6470 0.6473
1499.000000 0.6476 0.6480 0.6480 0.6471 0.6461
1504.000000 0.6451 0.6441 0.6430 0.6413 0.6397
1509.000000 0.6380 0.6374 0.6388 0.6416 0.6445
1514.000000 0.6473 0.6498 0.6514 0.6529 0.6516
1519.000000 0.6503 0.6489 0.6476 0.6463 0.6449
1524.000000 0.6436 0.6435 0.6445 0.6455 0.6465
1529.000000 0.6473 0.6481 0.6490 0.6498 0.6506
1534.000000 0.6506 0.6505 0.6505 0.6465 0.6412
1539.000000 0.6383 0.6354 0.6347 0.6346 0.6345
1544.000000 0.6362 0.6383 0.6416 0.6456 0.6490
1549.000000 0.6518 0.6546 0.6574 0.6584 0.6591
1554.000000 0.6589 0.6579 0.6568 0.6550 0.6532
1559.000000 0.6487 0.6470 0.6474 0.6478 0.6512
1564.000000 0.6557 0.6570 0.6582 0.6595 0.6607
1569.000000 0.6618 0.6630 0.6641 0.6648 0.6653
1574.000000 0.6659 0.6665 0.6670 0.6677 0.6684
1579.000000 0.6691 0.6698 0.6707 0.6721 0.6736
1584.000000 0.6750 0.6754 0.6757 0.6760 0.6763
1589.000000 0.6766 0.6769 0.6772 0.6775 0.6778
1594.000000 0.6780 0.6783 0.6786 0.6788 0.6787
1599.000000 0.6786 0.6785 0.6785 0.6783 0.6779
1604.000000 0.6775 0.6771 0.6767 0.6763 0.6759
1609.000000 0.6755 0.6751 0.6747 0.6735 0.6724
1614.000000 0.6712 0.6700 0.6688 0.6678 0.6672
1619.000000 0.6665 0.6658 0.6651 0.6645 0.6637
1624.000000 0.6629 0.6621 0.6616 0.6615 0.6614
1629.000000 0.6613 0.6612 0.6611 0.6610 0.6607
1634.000000 0.6605 0.6602 0.6599 0.6596 0.6593
1639.000000 0.6590 0.6587 0.6584 0.6581 0.6577
1644.000000 0.6561 0.6546 0.6531 0.6511 0.6492
1649.000000 0.6475 0.6469 0.6464 0.6458 0.6456
1654.000000 0.6468 0.6459 0.6466 0.6480 0.6494
1659.000000 0.6516 0.6552 0.6593 0.6630 0.6656
1664.000000 0.6679 0.6682 0.6685 0.6688 0.6691
1669.000000 0.6695 0.6698 0.6705 0.6713 0.6722
1674.000000 0.6731 0.6739 0.6748 0.6757 0.6763
1679.000000 0.6760 0.6757 0.6754 0.6751 0.6748
1684.000000 0.6734 0.6727 0.6745 0.6763 0.6780
1689.000000 0.6797 0.6813 0.6830 0.6832 0.6824
1694.000000 0.6816 0.6809 0.6801 0.6793 0.6786
1699.000000 0.6778 0.6770 0.6762 0.6769 0.6780
1704.000000 0.6793 0.6811 0.6830 0.6849 0.6867
1709.000000 0.6877 0.6879 0.6881 0.6884 0.6886
1714.000000 0.6888 0.6889 0.6878 0.6867 0.6855
1719.000000 0.6844 0.6832 0.6851 0.6862 0.6873
1724.000000 0.6883 0.6889 0.6890 0.6891 0.6892
1729.000000 0.6891 0.6889 0.6887 0.6885 0.6883
1734.000000 0.6881 0.6874 0.6866 0.6859 0.6851
1739.000000 0.6855 0.6862 0.6869 0.6876 0.6883
1744.000000 0.6890 0.6897 0.6903 0.6908 0.6913
1749.000000 0.6918 0.6922 0.6927 0.6932 0.6937
1754.000000 0.6943 0.6948 0.6954 0.6959 0.6964
1759.000000 0.6970 0.6975 0.6981 0.6986 0.6992
1764.000000 0.6996 0.7000 0.7003 0.7007 0.7011
1769.000000 0.7014 0.7014 0.7014 0.7014 0.7014
1774.000000 0.7014 0.7014 0.7015 0.7018 0.7022
1779.000000 0.7025 0.7029 0.7032 0.7036 0.7041
1784.000000 0.7045 0.7049 0.7052 0.7055 0.7057
1789.000000 0.7060 0.7063 0.7064 0.7065 0.7066
1794.000000 0.7067 0.7067 0.7068 0.7069 0.7069
1799.000000 0.7070 0.7071 0.7071 0.7072 0.7072
1804.000000 0.7072 0.7073 0.7073 0.7073 0.7074
1809.000000 0.7074 0.7075 0.7075 0.7075 0.7075
1814.000000 0.7074 0.7074 0.7073 0.7073 0.7073
1819.000000 0.7072 0.7072 0.7071 0.7071 0.7070
1824.000000 0.7070 0.7070 0.7069 0.7068 0.7067
1829.000000 0.7066 0.7065 0.7064 0.7063 0.7062
1834.000000 0.7061 0.7060 0.7059 0.7060 0.7063
1839.000000 0.7065 0.7068 0.7070 0.7073 0.7075
1844.000000 0.7078 0.7080 0.7082 0.7084 0.7085
1849.000000 0.7087 0.7089 0.7090 0.7091 0.7092
1854.000000 0.7093 0.7094 0.7095 0.7095 0.7096
1859.000000 0.7101 0.7105 0.7110 0.7114 0.7119
1864.000000 0.7124 0.7128 0.7133 0.7137 0.7142
1869.000000 0.7147 0.7151 0.7156 0.7159 0.7162
1874.000000 0.7165 0.7168 0.7171 0.7174 0.7176
1879.000000 0.7178 0.7178 0.7178 0.7178 0.7178
1884.000000 0.7178 0.7179 0.7179 0.7179 0.7179
1889.000000 0.7179 0.7178 0.7162 0.7178 0.7178
1894.000000 0.7178 0.7179 0.7180 0.7180 0.7181
1899.000000 0.7182 0.7182 0.7183 0.7184 0.7185
1904.000000 0.7185 0.7185 0.7186 0.7186 0.7187
1909.000000 0.7187 0.7187 0.7188 0.7188 0.7189
1914.000000 0.7189 0.7190 0.7191 0.7191 0.7192
1919.000000 0.7193 0.7193 0.7194 0.7195 0.7195
1924.000000 0.7196 0.7197 0.7198 0.7198 0.7199
1929.000000 0.7200 0.7200 0.7201 0.7202 0.7202
1934.000000 0.7202 0.7202 0.7202 0.7202 0.7201
1939.000000 0.7201 0.7201 0.7201 0.7201 0.7201
1944.000000 0.7201 0.7201 0.7201 0.7201 0.7201
1949.000000 0.7201 0.7201 0.7201 0.7201 0.7201
1954.000000 0.7201 0.7201 0.7201 0.7201 0.7201
1959.000000 0.7201 0.7201 0.7201 0.7201 0.7201
1964.000000 0.7201 0.7201 0.7201 0.7201 0.7201
1969.000000 0.7202 0.7202 0.7203 0.7203 0.7204
1974.000000 0.7204 0.7205 0.7205 0.7206 0.7206
1979.000000 0.7207 0.7207 0.7208 0.7208 0.7209
1984.000000 0.7209 0.7210 0.7211 0.7211 0.7212
1989.000000 0.7212 0.7211 0.7210 0.7208 0.7207
1994.000000 0.7205 0.7203 0.7202 0.7200 0.7199
1999.000000 0.7197 0.7196 0.7197 0.7198 0.7198
2004.000000 0.7199 0.7199 0.7200 0.7202 0.7205
2009.000000 0.7207 0.7210 0.7210 0.7210 0.7210
2014.000000 0.7211 0.7210 0.7209 0.7207 0.7205
2019.000000 0.7202 0.7200 0.7197 0.7195 0.7192
2024.000000 0.7190 0.7187 0.7184 0.7181 0.7178
2029.000000 0.7175 0.7172 0.7169 0.7166 0.7163
2034.000000 0.7160 0.7157 0.7155 0.7154 0.7154
2039.000000 0.7154 0.7154 0.7154 0.7154 0.7154
2044.000000 0.7155 0.7156 0.7158 0.7160 0.7162
2049.000000 0.7164 0.7166 0.7167 0.7169 0.7171
2054.000000 0.7173 0.7173 0.7173 0.7172 0.7171
2059.000000 0.7169 0.7168 0.7164 0.7161 0.7157
2064.000000 0.7154 0.7150 0.7147 0.7144 0.7142
2069.000000 0.7140 0.7138 0.7136 0.7135 0.7133
2074.000000 0.7131 0.7129 0.7127 0.7125 0.7123
2079.000000 0.7121 0.7120 0.7118 0.7116 0.7116
2084.000000 0.7116 0.7117 0.7118 0.7119 0.7120
2089.000000 0.7121 0.7122 0.7124 0.7127 0.7130
2094.000000 0.7133 0.7135 0.7138 0.7141 0.7144
2099.000000 0.7146 0.7148 0.7148 0.7148 0.7147
2104.000000 0.7147 0.7146 0.7145 0.7143 0.7142
2109.000000 0.7141 0.7140 0.7138 0.7137 0.7135
2114.000000 0.7134 0.7134 0.7135 0.7136 0.7138
2119.000000 0.7139 0.7140 0.7141 0.7143 0.7144
2124.000000 0.7146 0.7146 0.7146 0.7145 0.7145
2129.000000 0.7144 0.7144 0.7143 0.7142 0.7136
2134.000000 0.7130 0.7125 0.7120 0.7116 0.7113
2139.000000 0.7109 0.7106 0.7102 0.7099 0.7095
2144.000000 0.7092 0.7088 0.7085 0.7082 0.7080
2149.000000 0.7077 0.7075 0.7072 0.7070 0.7068
2154.000000 0.7067 0.7068 0.7070 0.7071 0.7073
2159.000000 0.7075 0.7077 0.7079 0.7081 0.7083
2164.000000 0.7086 0.7088 0.7091 0.7093 0.7096
2169.000000 0.7098 0.7101 0.7103 0.7106 0.7107
2174.000000 0.7109 0.7109 0.7110 0.7110 0.7111
2179.000000 0.7111 0.7112 0.7112 0.7113 0.7113
2184.000000 0.7114 0.7114 0.7114 0.7114 0.7114
2189.000000 0.7113 0.7113 0.7112 0.7111 0.7110
2194.000000 0.7110 0.7109 0.7109 0.7108 0.7108
2199.000000 0.7107 0.7107 0.7106 0.7106 0.7105
2204.000000 0.7105 0.7105 0.7105 0.7105 0.7105
2209.000000 0.7104 0.7104 0.7104 0.7104 0.7104
2214.000000 0.7104 0.7103 0.7103 0.7103 0.7103
2219.000000 0.7103 0.7103 0.7102 0.7102 0.7102
2224.000000 0.7102 0.7102 0.7102 0.7101 0.7101
2229.000000 0.7101 0.7101 0.7101 0.7101 0.7100
2234.000000 0.7100 0.7100 0.7100 0.7100 0.7100
2239.000000 0.7099 0.7099 0.7099 0.7099 0.7098
2244.000000 0.7098 0.7097 0.7097 0.7097 0.7097
2249.000000 0.7096 0.7096 0.7095 0.7095 0.7094
2254.000000 0.7094 0.7094 0.7094 0.7093 0.7093
2259.000000 0.7092 0.7092 0.7091 0.7091 0.7090
2264.000000 0.7090 0.7090 0.7090 0.7089 0.7089
2269.000000 0.7088 0.7088 0.7087 0.7087 0.7086
2274.000000 0.7086 0.7086 0.7086 0.7085 0.7084
2279.000000 0.7082 0.7081 0.7080 0.7079 0.7077
2284.000000 0.7076 0.7074 0.7073 0.7071 0.7070
2289.000000 0.7068 0.7067 0.7065 0.7064 0.7062
2294.000000 0.7061 0.7059 0.7057 0.7053 0.7049
2299.000000 0.7044 0.7040 0.7036 0.7032 0.7028
2304.000000 0.7024 0.7020 0.7016 0.7012 0.7008
2309.000000 0.7004 0.7000 0.6996 0.6992 0.6988
2314.000000 0.6984 0.6980 0.6976 0.6971 0.6966
2319.000000 0.6960 0.6955 0.6949 0.6944 0.6938
2324.000000 0.6933 0.6927 0.6922 0.6916 0.6911
2329.000000 0.6905 0.6900 0.6894 0.6889 0.6885
2334.000000 0.6882 0.6878 0.6875 0.6872 0.6869
2339.000000 0.6866 0.6864 0.6865 0.6866 0.6866
2344.000000 0.6867 0.6868 0.6869 0.6869 0.6870
2349.000000 0.6871 0.6872 0.6870 0.6869 0.6866
2354.000000 0.6863 0.6860 0.6857 0.6854 0.6851
2359.000000 0.6848 0.6845 0.6842 0.6839 0.6838
2364.000000 0.6828 0.6846 0.6855 0.6864 0.6873
2369.000000 0.6882 0.6891 0.6904 0.6918 0.6931
2374.000000 0.6944 0.6961 0.6979 0.6997 0.7015
2379.000000 0.7028 0.7041 0.7051 0.7062 0.7072
2384.000000 0.7083 0.7088 0.7094 0.7096 0.7098
2389.000000 0.7100 0.7102 0.7103 0.7105 0.7107
2394.000000 0.7109 0.7111 0.7113 0.7114 0.7116
2399.000000 0.7116 0.7117 0.7118 0.7119 0.7120
2404.000000 0.7121 0.7122 0.7123 0.7124 0.7125
2409.000000 0.7126 0.7127 0.7128 0.7129 0.7129
2414.000000 0.7130 0.7131 0.7132 0.7132 0.7133
2419.000000 0.7134 0.7135 0.7135 0.7136 0.7137
2424.000000 0.7138 0.7138 0.7139 0.7140 0.7141
2429.000000 0.7142 0.7143 0.7143 0.7144 0.7145
2434.000000 0.7146 0.7146 0.7147 0.7148 0.7149
2439.000000 0.7149 0.7149 0.7149 0.7149 0.7148
2444.000000 0.7148 0.7148 0.7148 0.7148 0.7148
2449.000000 0.7148 0.7148 0.7148 0.7148 0.7148
2454.000000 0.7148 0.7147 0.7147 0.7147 0.7147
2459.000000 0.7147 0.7147 0.7147 0.7147 0.7147
2464.000000 0.7147 0.7147 0.7147 0.7146 0.7146
2469.000000 0.7146 0.7146 0.7146 0.7146 0.7145
2474.000000 0.7145 0.7145 0.7145 0.7145 0.7145
2479.000000 0.7144 0.7144 0.7144 0.7144 0.7144
2484.000000 0.7144 0.7143 0.7143 0.7143 0.7143
2489.000000 0.7143 0.7143 0.7142 0.7142 0.7142
2494.000000 0.7142 0.7142 0.7142 0.7141 0.7141
2499.000000 0.7141 0.7141 0.7141 0.7141 0.7140
2504.000000 0.7140 0.7140 0.7140 0.7139 0.7139
2509.000000 0.7139 0.7139 0.7139 0.7139 0.7138
2514.000000 0.7138 0.7138 0.7138 0.7138 0.7138
2519.000000 0.7137 0.7137 0.7137 0.7137 0.7137
2524.000000 0.7137 0.7136 0.7136 0.7136 0.7136
2529.000000 0.7136 0.7136 0.7135 0.7135 0.7135
2534.000000 0.7135 0.7134 0.7134 0.7133 0.7133
2539.000000 0.7132 0.7132 0.7131 0.7131 0.7131
2544.000000 0.7131 0.7130 0.7130 0.7129 0.7129
2549.000000 0.7128 0.7128 0.7127 0.7127 0.7127
2554.000000 0.7127 0.7126 0.7126 0.7125 0.7125
2559.000000 0.7124 0.7124 0.7123 0.7123 0.7122
2564.000000 0.7122 0.7122 0.7122 0.7121 0.7121
2569.000000 0.7120 0.7120 0.7119 0.7119 0.7118
2574.000000 0.7118 0.7118 0.7118 0.7117 0.7117
2579.000000 0.7116 0.7116 0.7115 0.7115 0.7114
2584.000000 0.7114 0.7113 0.7113 0.7113 0.7113
2589.000000 0.7112 0.7112 0.7111 0.7111 0.7110
2594.000000 0.7110 0.7109 0.7109 0.7109 0.7109
2599.000000 0.7108 0.7108 0.7107 0.7107 0.7106
2604.000000 0.7106 0.7105 0.7105 0.7104 0.7104
2609.000000 0.7104 0.7104 0.7103 0.7103 0.7102
2614.000000 0.7102 0.7101 0.7101 0.7100 0.7099
2619.000000 0.7098 0.7098 0.7097 0.7097 0.7096
2624.000000 0.7096 0.7095 0.7095 0.7094 0.7094
2629.000000 0.7093 0.7093 0.7092 0.7092 0.7091
2634.000000 0.7091 0.7090 0.7090 0.7089 0.7089
2639.000000 0.7088 0.7087 0.7086 0.7086 0.7085
2644.000000 0.7085 0.7084 0.7084 0.7083 0.7083
2649.000000 0.7082 0.7082 0.7081 0.7081 0.7080
2654.000000 0.7080 0.7079 0.7079 0.7078 0.7078
2659.000000 0.7077 0.7077 0.7076 0.7076 0.7075
2664.000000 0.7074 0.7073 0.7073 0.7072 0.7072
2669.000000 0.7071 0.7071 0.7070 0.7070 0.7069
2674.000000 0.7069 0.7068 0.7068 0.7067 0.7067
2679.000000 0.7066 0.7066 0.7065 0.7064 0.7063
2684.000000 0.7062 0.7061 0.7061 0.7060 0.7059
2689.000000 0.7058 0.7057 0.7056 0.7056 0.7055
2694.000000 0.7054 0.7053 0.7052 0.7051 0.7051
2699.000000 0.7050 0.7049 0.7048 0.7047 0.7046
2704.000000 0.7046 0.7045 0.7044 0.7043 0.7042
2709.000000 0.7041 0.7041 0.7040 0.7039 0.7038
2714.000000 0.7037 0.7036 0.7036 0.7035 0.7034
2719.000000 0.7033 0.7032 0.7031 0.7031 0.7030
2724.000000 0.7029 0.7028 0.7028 0.7027 0.7026
2729.000000 0.7025 0.7024 0.7023 0.7023 0.7022
2734.000000 0.7021 0.7020 0.7019 0.7018 0.7018
2739.000000 0.7017 0.7016 0.7015 0.7014 0.7013
2744.000000 0.7013 0.7012 0.7011 0.7010 0.7009
2749.000000 0.7008 0.7008 0.7007 0.7006 0.7005
2754.000000 0.7004 0.7003 0.7003 0.7002 0.7001
2759.000000 0.7000 0.7000 0.6999 0.6998 0.6997
2764.000000 0.6996 0.6995 0.6995 0.6994 0.6993
2769.000000 0.6992 0.6991 0.6990 0.6990 0.6989
2774.000000 0.6988 0.6987 0.6986 0.6985 0.6985
2779.000000 0.6984 0.6983 0.6982 0.6982 0.6981
2784.000000 0.6980 0.6979 0.6978 0.6977 0.6977
2789.000000 0.6976 0.6975 0.6974 0.6973 0.6972
2794.000000 0.6972 0.6971 0.6970 0.6969 0.6969
2799.000000 0.6968 0.6967 0.6966 0.6965 0.6964
2804.000000 0.6964 0.6963 0.6962 0.6961 0.6960
2809.000000 0.6959 0.6959 0.6958 0.6957 0.6956
2814.000000 0.6956 0.6955 0.6954 0.6953 0.6952
2819.000000 0.6951 0.6951 0.6950 0.6949 0.6948
2824.000000 0.6947 0.6946 0.6946 0.6945 0.6945
2829.000000 0.6944 0.6943 0.6942 0.6942 0.6941
2834.000000 0.6941 0.6940 0.6939 0.6938 0.6938
2839.000000 0.6937 0.6937 0.6936 0.6935 0.6934
2844.000000 0.6934 0.6933 0.6933 0.6932 0.6931
2849.000000 0.6930 0.6930 0.6929 0.6929 0.6928
2854.000000 0.6927 0.6926 0.6926 0.6925 0.6925
2859.000000 0.6924 0.6923 0.6922 0.6922 0.6921
2864.000000 0.6921 0.6920 0.6919 0.6918 0.6918
2869.000000 0.6917 0.6917 0.6916 0.6915 0.6914
2874.000000 0.6914 0.6913 0.6913 0.6912 0.6911
2879.000000 0.6910 0.6910 0.6909 0.6909 0.6908
2884.000000 0.6907 0.6906 0.6906 0.6905 0.6905
2889.000000 0.6904 0.6904 0.6903 0.6902 0.6901
2894.000000 0.6901 0.6900 0.6900 0.6899 0.6898
2899.000000 0.6897 0.6897 0.6896 0.6896 0.6895
2904.000000 0.6894 0.6893 0.6893 0.6892 0.6892
2909.000000 0.6891 0.6890 0.6889 0.6889 0.6888
2914.000000 0.6888 0.6887 0.6887 0.6886 0.6886
2919.000000 0.6885 0.6885 0.6884 0.6884 0.6883
2924.000000 0.6882 0.6881 0.6881 0.6880 0.6880
2929.000000 0.6879 0.6879 0.6878 0.6878 0.6877
2934.000000 0.6877 0.6876 0.6876 0.6875 0.6875
2939.000000 0.6874 0.6874 0.6873 0.6872 0.6871
2944.000000 0.6871 0.6870 0.6870 0.6869 0.6869
2949.000000 0.6868 0.6868 0.6867 0.6867 0.6866
2954.000000 0.6866 0.6865 0.6865 0.6864 0.6864
2959.000000 0.6863 0.6862 0.6861 0.6861 0.6860
2964.000000 0.6860 0.6859 0.6859 0.6858 0.6858
2969.000000 0.6857 0.6857 0.6856 0.6856 0.6855
2974.000000 0.6855 0.6854 0.6854 0.6853 0.6853
2979.000000 0.6852 0.6851 0.6850 0.6850 0.6849
2984.000000 0.6849 0.6848 0.6848 0.6847 0.6847
2989.000000 0.6846 0.6846 0.6845 0.6845 0.6844
2994.000000 0.6843 0.6842 0.6842 0.6841 0.6841
2999.000000 0.6840 0.6840 0.6839 0.6838 0.6837
3004.000000 0.6837 0.6836 0.6836 0.6835 0.6835
3009.000000 0.6834 0.6834 0.6833 0.6832 0.6831
3014.000000 0.6831 0.6830 0.6830 0.6829 0.6829
3019.000000 0.6828 0.6827 0.6826 0.6826 0.6825
3024.000000 0.6825 0.6824 0.6824 0.6823 0.6822
3029.000000 0.6821 0.6821 0.6820 0.6820 0.6819
3034.000000 0.6819 0.6818 0.6818 0.6817 0.6816
3039.000000 0.6815 0.6815 0.6814 0.6814 0.6813
3044.000000 0.6813 0.6812 0.6811 0.6810 0.6810
3049.000000 0.6809 0.6809 0.6808 0.6808 0.6807
3054.000000 0.6806 0.6805 0.6805 0.6804 0.6804
3059.000000 0.6803 0.6803 0.6802 0.6801 0.6800
3064.000000 0.6800 0.6799 0.6799 0.6798 0.6797
3069.000000 0.6796 0.6796 0.6795 0.6795 0.6794
3074.000000 0.6794 0.6793 0.6792 0.6791 0.6791
3079.000000 0.6790 0.6790 0.6789 0.6788 0.6787
3084.000000 0.6787 0.6786 0.6786 0.6785 0.6785
3089.000000 0.6784 0.6783 0.6782 0.6782 0.6781
3094.000000 0.6781 0.6780 0.6779 0.6778 0.6778
3099.000000 0.6777 0.6777 0.6776 0.6776 0.6775
3104.000000 0.6774 0.6773 0.6773 0.6772 0.6772
3109.000000 0.6771 0.6770 0.6769 0.6769 0.6768
3114.000000 0.6768 0.6767 0.6767 0.6766 0.6765
3119.000000 0.6764 0.6764 0.6763 0.6762 0.6761
3124.000000 0.6760 0.6758 0.6757 0.6755 0.6754
3129.000000 0.6752 0.6751 0.6750 0.6749 0.6747
3134.000000 0.6746 0.6744 0.6743 0.6741 0.6740
3139.000000 0.6739 0.6738 0.6736 0.6735 0.6733
3144.000000 0.6732 0.6731 0.6730 0.6728 0.6727
3149.000000 0.6725 0.6724 0.6722 0.6721 0.6720
3154.000000 0.6719 0.6717 0.6716 0.6714 0.6713
3159.000000 0.6711 0.6710 0.6709 0.6708 0.6706
3164.000000 0.6705 0.6703 0.6702 0.6701 0.6700
3169.000000 0.6698 0.6697 0.6695 0.6694 0.6692
3174.000000 0.6691 0.6690 0.6689 0.6687 0.6686
3179.000000 0.6684 0.6683 0.6681 0.6680 0.6679
3184.000000 0.6678 0.6676 0.6675 0.6674 0.6673
3189.000000 0.6672 0.6671 0.6669 0.6668 0.6667
3194.000000 0.6666 0.6664 0.6663 0.6662 0.6661
3199.000000 0.6660 0.6659 0.6657 0.6656 0.6655
3204.000000 0.6654 0.6652 0.6651 0.6650 0.6649
3209.000000 0.6648 0.6647 0.6645 0.6644 0.6643
3214.000000 0.6642 0.6640 0.6639 0.6638 0.6637
3219.000000 0.6636 0.6635 0.6633 0.6632 0.6631
3224.000000 0.6630 0.6629 0.6628 0.6626 0.6625
3229.000000 0.6624 0.6623 0.6621 0.6620 0.6619
3234.000000 0.6618 0.6617 0.6616 0.6614 0.6613
3239.000000 0.6611 0.6610 0.6609 0.6608 0.6606
3244.000000 0.6605 0.6603 0.6602 0.6600 0.6599
3249.000000 0.6597 0.6596 0.6594 0.6593 0.6592
3254.000000 0.6591 0.6589 0.6588 0.6586 0.6585
3259.000000 0.6583 0.6582 0.6580 0.6579 0.6578
3264.000000 0.6577 0.6575 0.6574 0.6572 0.6571
3269.000000 0.6569 0.6568 0.6566 0.6565 0.6563
3274.000000 0.6562 0.6561 0.6560 0.6558 0.6557
3279.000000 0.6555 0.6554 0.6552 0.6551 0.6549
3284.000000 0.6548 0.6546 0.6545 0.6544 0.6543
3289.000000 0.6541 0.6540 0.6538 0.6537 0.6535
3294.000000 0.6534 0.6532 0.6531 0.6529 0.6528
3299.000000 0.6527 0.6526 0.6524 0.6523 0.6521
3304.000000 0.6520 0.6518 0.6517 0.6515 0.6514
3309.000000 0.6512 0.6511 0.6510 0.6509 0.6507
3314.000000 0.6506 0.6504 0.6503 0.6500 0.6498
3319.000000 0.6496 0.6494 0.6492 0.6490 0.6488
3324.000000 0.6486 0.6483 0.6481 0.6479 0.6477
3329.000000 0.6475 0.6473 0.6470 0.6468 0.6466
3334.000000 0.6464 0.6462 0.6460 0.6457 0.6455
3339.000000 0.6453 0.6451 0.6449 0.6447 0.6444
3344.000000 0.6442 0.6440 0.6438 0.6436 0.6434
3349.000000 0.6431 0.6429 0.6427 0.6425 0.6423
3354.000000 0.6421 0.6418 0.6416 0.6414 0.6412
3359.000000 0.6410 0.6408 0.6405 0.6403 0.6401
3364.000000 0.6399 0.6397 0.6395 0.6392 0.6390
3369.000000 0.6388 0.6386 0.6384 0.6382 0.6379
3374.000000 0.6377 0.6375 0.6373 0.6371 0.6369
3379.000000 0.6367 0.6365 0.6362 0.6360 0.6358
3384.000000 0.6356 0.6353 0.6351 0.6348 0.6346
3389.000000 0.6343 0.6341 0.6338 0.6336 0.6333
3394.000000 0.6331 0.6328 0.6326 0.6323 0.6321
3399.000000 0.6318 0.6316 0.6313 0.6311 0.6308
3404.000000 0.6306 0.6303 0.6301 0.6298 0.6296
3409.000000 0.6293 0.6291 0.6288 0.6286 0.6284
3414.000000 0.6283 0.6282 0.6281 0.6279 0.6278
3419.000000 0.6276 0.6275 0.6274 0.6273 0.6271
3424.000000 0.6270 0.6269 0.6268 0.6266 0.6265
3429.000000 0.6264 0.6263 0.6261 0.6260 0.6259
3434.000000 0.6258 0.6256 0.6255 0.6253 0.6252
3439.000000 0.6251 0.6250 0.6248 0.6247 0.6246
3444.000000 0.6245 0.6243 0.6242 0.6241 0.6240
3449.000000 0.6240 0.6240 0.6240 0.6241 0.6241
3454.000000 0.6242 0.6242 0.6243 0.6243 0.6244
3459.000000 0.6244 0.6245 0.6245 0.6245 0.6245
3464.000000 0.6246 0.6246 0.6247 0.6247 0.6248
3469.000000 0.6248 0.6249 0.6249 0.6250 0.6250
3474.000000 0.6250 0.6250 0.6251 0.6251 0.6252
3479.000000 0.6252 0.6253 0.6253 0.6254 0.6254
3484.000000 0.6255 0.6255 0.6255 0.6255 0.6256
3489.000000 0.6257 0.6259 0.6260 0.6262 0.6263
3494.000000 0.6265 0.6267 0.6269 0.6270 0.6272
3499.000000 0.6273 0.6275 0.6276 0.6278 0.6280
3504.000000 0.6282 0.6283 0.6285 0.6286 0.6288
3509.000000 0.6290 0.6292 0.6293 0.6295 0.6296
3514.000000 0.6298 0.6300 0.6302 0.6303 0.6305
3519.000000 0.6306 0.6308 0.6310 0.6312 0.6313
3524.000000 0.6315 0.6316 0.6318 0.6320 0.6322
3529.000000 0.6323 0.6325 0.6326 0.6328 0.6330
3534.000000 0.6332 0.6333 0.6335 0.6336 0.6338
3539.000000 0.6339 0.6341 0.6342 0.6344 0.6345
3544.000000 0.6347 0.6348 0.6350 0.6352 0.6354
3549.000000 0.6355 0.6357 0.6358 0.6360 0.6361
3554.000000 0.6363 0.6364 0.6366 0.6367 0.6369
3559.000000 0.6370 0.6372 0.6374 0.6376 0.6377
3564.000000 0.6379 0.6380 0.6382 0.6383 0.6385
3569.000000 0.6386 0.6387 0.6388 0.6389 0.6390
3574.000000 0.6391 0.6392 0.6394 0.6395 0.6396
3579.000000 0.6397 0.6398 0.6399 0.6401 0.6402
3584.000000 0.6403 0.6404 0.6405 0.6406 0.6407
3589.000000 0.6408 0.6410 0.6411 0.6412 0.6413
3594.000000 0.6414 0.6415 0.6417 0.6418 0.6419
3599.000000 0.6421 0.6423 0.6425 0.6427 0.6429
3604.000000 0.6432 0.6434 0.6436 0.6438 0.6441
3609.000000 0.6443 0.6445 0.6447 0.6449 0.6451
3614.000000 0.6454 0.6456 0.6458 0.6460 0.6463
3619.000000 0.6465 0.6467 0.6469 0.6472 0.6475
3624.000000 0.6479 0.6482 0.6486 0.6490 0.6494
3629.000000 0.6497 0.6501 0.6504 0.6508 0.6511
3634.000000 0.6515 0.6518 0.6522 0.6525 0.6528
3639.000000 0.6528 0.6529 0.6529 0.6530 0.6530
3644.000000 0.6531 0.6528 0.6526 0.6522 0.6519
3649.000000 0.6515 0.6512 0.6508 0.6505 0.6503
3654.000000 0.6501 0.6501 0.6501 0.6502 0.6504
3659.000000 0.6515 0.6527 0.6540 0.6553 0.6566
3664.000000 0.6580 0.6591 0.6602 0.6608 0.6614
3669.000000 0.6616 0.6618 0.6612 0.6606 0.6600
3674.000000 0.6595 0.6589 0.6583 0.6577 0.6571
3679.000000 0.6565 0.6560 0.6557 0.6554 0.6555
3684.000000 0.6556 0.6557 0.6558 0.6559 0.6560
3689.000000 0.6561 0.6563 0.6564 0.6566 0.6568
3694.000000 0.6570 0.6571 0.6573 0.6575 0.6577
3699.000000 0.6578 0.6580 0.6580 0.6581 0.6581
3704.000000 0.6582 0.6582 0.6582 0.6582 0.6582
3709.000000 0.6582 0.6583 0.6583 0.6583 0.6581
3714.000000 0.6580 0.6578 0.6577 0.6575 0.6573
3719.000000 0.6571 0.6570 0.6568 0.6566 0.6564
3724.000000 0.6563 0.6561 0.6559 0.6557 0.6556
3729.000000 0.6554 0.6552 0.6550 0.6549 0.6547
3734.000000 0.6545 0.6543 0.6541 0.6538 0.6536
3739.000000 0.6534 0.6532 0.6530 0.6528 0.6526
3744.000000 0.6524 0.6521 0.6519 0.6517 0.6515
3749.000000 0.6513 0.6511 0.6509 0.6507 0.6505
3754.000000 0.6503 0.6504 0.6506 0.6507 0.6509
3759.000000 0.6510 0.6512 0.6513 0.6515 0.6516
3764.000000 0.6518 0.6520 0.6522 0.6523 0.6525
3769.000000 0.6527 0.6530 0.6534 0.6539 0.6543
3774.000000 0.6548 0.6552 0.6556 0.6560 0.6565
3779.000000 0.6569 0.6574 0.6578 0.6583 0.6587
3784.000000 0.6591 0.6595 0.6600 0.6603 0.6607
3789.000000 0.6608 0.6610 0.6611 0.6612 0.6613
3794.000000 0.6614 0.6615 0.6616 0.6617 0.6618
3799.000000 0.6619 0.6621 0.6622 0.6623 0.6623
3804.000000 0.6623 0.6620 0.6618 0.6615 0.6613
3809.000000 0.6610 0.6608 0.6605 0.6602 0.6599
3814.000000 0.6597 0.6594 0.6592 0.6589 0.6587
3819.000000 0.6584 0.6582 0.6580 0.6578 0.6575
3824.000000 0.6573 0.6570 0.6568 0.6566 0.6564
3829.000000 0.6561 0.6559 0.6556 0.6554 0.6551
3834.000000 0.6549 0.6547 0.6545 0.6542 0.6540
3839.000000 0.6537 0.6535 0.6534 0.6533 0.6532
3844.000000 0.6531 0.6530 0.6529 0.6528 0.6528
3849.000000 0.6527 0.6526 0.6525 0.6524 0.6523
3854.000000 0.6523 0.6522 0.6521 0.6520 0.6519
3859.000000 0.6518 0.6517 0.6516 0.6516 0.6515
3864.000000 0.6514 0.6513 0.6513 0.6513 0.6513
3869.000000 0.6513 0.6513 0.6513 0.6513 0.6513
3874.000000 0.6513 0.6513 0.6513 0.6513 0.6513
3879.000000 0.6513 0.6513 0.6513 0.6513 0.6513
3884.000000 0.6513 0.6513 0.6513 0.6513 0.6513
3889.000000 0.6513 0.6513 0.6513 0.6513 0.6513
3894.000000 0.6513 0.6513 0.6513 0.6513 0.6514
3899.000000 0.6514 0.6514 0.6514 0.6514 0.6514
3904.000000 0.6515 0.6515 0.6516 0.6516 0.6517
3909.000000 0.6517 0.6518 0.6518 0.6518 0.6518
3914.000000 0.6519 0.6519 0.6520 0.6520 0.6521
3919.000000 0.6521 0.6521 0.6521 0.6522 0.6522
3924.000000 0.6523 0.6523 0.6524 0.6524 0.6525
3929.000000 0.6525 0.6525 0.6525 0.6525 0.6524
3934.000000 0.6524 0.6524 0.6524 0.6523 0.6523
3939.000000 0.6522 0.6522 0.6522 0.6522 0.6521
3944.000000 0.6521 0.6521 0.6521 0.6520 0.6520
3949.000000 0.6520 0.6520 0.6519 0.6519 0.6518
3954.000000 0.6518 0.6518 0.6518 0.6517 0.6517
3959.000000 0.6516 0.6516 0.6516 0.6516 0.6515
3964.000000 0.6517 0.6515 0.6515 0.6514 0.6514
3969.000000 0.6513 0.6513 0.6513 0.6513 0.6512
3974.000000 0.6512 0.6512 0.6512 0.6512 0.6512
3979.000000 0.6512 0.6512 0.6511 0.6511 0.6511
3984.000000 0.6511 0.6511 0.6511 0.6510 0.6510
3989.000000 0.6510 0.6510 0.6510 0.6510 0.6509
3994.000000 0.6509 0.6509 0.6509 0.6509 0.6509
##END=
