##TITLE=3-CHLOROQUINUCLIDINE, HYDROCHLORIDE, HYDRATE
##JCAMP-DX=4.24
##DATA TYPE=INFRARED SPECTRUM
##CLASS=COBLENTZ III
##ORIGIN=DOW CHEMICAL COMPANY
##OWNER=COBLENTZ SOCIETY
Collection (C) 2018 copyright by the U.S. Secretary of Commerce
on behalf of the United States of America. All rights reserved.
##DATE=1968/09/20
##MOLFORM=C7 H13 Cl2 N  * H2 O
##SOURCE REFERENCE=COBLENTZ NO. 7477
##$NIST ID=B6007477
##$NIST SOURCE=COBLENTZ
##$NIST IMAGE=cob7477
##SPECTROMETER/DATA SYSTEM=DOW KBr FOREPRISM-GRATING
##INSTRUMENT PARAMETERS=BLAZED AT 3.5, 12.0, 20.0 MICRON AND CHANGED AT 5.0, 7.5, 14.9 MICRON
##STATE=SOLID (SPLIT MULL), FLUOROLUBE FOR 3800-1330 CM^-^1, NUJOL FOR 1330-400 CM^-^1
##PATH LENGTH=REFERENCE BEAM ATTENUATED; SLITS WIDER THAN NORMAL 3800-1330
$$SPECTRAL CONTAMINATION DUE TO H2O AROUND 3400, 1630 CM^-^1
##SAMPLING PROCEDURE=TRANSMISSION
##RESOLUTION=2
##DATA PROCESSING=DIGITIZED BY NIST FROM HARD COPY (FROM TWO SEGMENTS)
##XUNITS=1/CM
##YUNITS=TRANSMITTANCE
##XFACTOR=1.000000
##YFACTOR=1
##DELTAX=0.888891
##FIRSTX=384.889
##LASTX=3798.23
##FIRSTY=0.694
##MAXX=3798.23
##MINX=384.889
##MAXY=0.934
##MINY=0.041
##NPOINTS=3841
##XYDATA=(X++(Y..Y))
384.889000 0.6940 0.6940 0.6940 0.6940 0.6940
389.333454 0.6940 0.6940 0.6940 0.6940 0.6940
393.777908 0.6960 0.6960 0.6960 0.6960 0.6960
398.222363 0.6960 0.6960 0.6960 0.6960 0.6960
402.666817 0.6960 0.6960 0.6970 0.6970 0.6970
407.111271 0.6970 0.6970 0.6970 0.6970 0.6970
411.555725 0.7000 0.7010 0.7030 0.7040 0.7050
416.000179 0.7050 0.7080 0.7100 0.7110 0.7120
420.444633 0.7140 0.7150 0.7150 0.7190 0.7220
424.889088 0.7260 0.7290 0.7330 0.7370 0.7390
429.333542 0.7400 0.7430 0.7440 0.7500 0.7510
433.777996 0.7530 0.7530 0.7540 0.7550 0.7550
438.222450 0.7570 0.7570 0.7580 0.7600 0.7610
442.666904 0.7620 0.7640 0.7650 0.7660 0.7680
447.111359 0.7690 0.7710 0.7720 0.7730 0.7750
451.555813 0.7760 0.7760 0.7780 0.7790 0.7790
456.000267 0.7800 0.7820 0.7820 0.7830 0.7860
460.444721 0.7860 0.7870 0.7890 0.7900 0.7910
464.889175 0.7930 0.7940 0.7960 0.7970 0.7980
469.333629 0.8000 0.8000 0.8010 0.8030 0.8030
473.778084 0.8040 0.8040 0.8050 0.8050 0.8070
478.222538 0.8070 0.8070 0.8080 0.8090 0.8110
482.666992 0.8120 0.8120 0.8140 0.8140 0.8140
487.111446 0.8150 0.8150 0.8150 0.8150 0.8150
491.555900 0.8160 0.8160 0.8160 0.8160 0.8160
496.000354 0.8160 0.8160 0.8160 0.8160 0.8160
500.444809 0.8160 0.8160 0.8180 0.8180 0.8180
504.889263 0.8180 0.8180 0.8180 0.8180 0.8180
509.333717 0.8180 0.8180 0.8180 0.8180 0.8180
513.778171 0.8180 0.8180 0.8190 0.8190 0.8190
518.222625 0.8190 0.8190 0.8190 0.8190 0.8190
522.667080 0.8190 0.8190 0.8190 0.8190 0.8190
527.111534 0.8190 0.8190 0.8190 0.8190 0.8190
531.555988 0.8190 0.8190 0.8190 0.8190 0.8190
536.000442 0.8180 0.8180 0.8180 0.8180 0.8160
540.444896 0.8160 0.8150 0.8150 0.8150 0.8150
544.889350 0.8140 0.8140 0.8120 0.8120 0.8110
549.333805 0.8110 0.8080 0.8070 0.8050 0.8030
553.778259 0.7980 0.7940 0.7930 0.7930 0.7930
558.222713 0.7940 0.8010 0.8040 0.8080 0.8110
562.667167 0.8120 0.8140 0.8140 0.8140 0.8140
567.111621 0.8140 0.8120 0.8120 0.8120 0.8120
571.556076 0.8110 0.8110 0.8110 0.8090 0.8090
576.000530 0.8090 0.8080 0.8080 0.8080 0.8070
580.444984 0.8070 0.8070 0.8050 0.8030 0.8000
584.889438 0.8000 0.8000 0.8000 0.8000 0.8000
589.333892 0.8000 0.8000 0.8000 0.7980 0.7980
593.778346 0.7980 0.7980 0.7980 0.7970 0.7970
598.222801 0.7960 0.7960 0.7940 0.7940 0.7910
602.667255 0.7910 0.7900 0.7890 0.7870 0.7790
607.111709 0.7690 0.7620 0.7530 0.7430 0.7300
611.556163 0.7120 0.6940 0.6711 0.6511 0.6261
616.000617 0.5860 0.5200 0.4170 0.3710 0.3251
620.445071 0.2871 0.2850 0.2870 0.5939 0.6219
624.889526 0.7230 0.7420 0.7610 0.7960 0.7970
629.333980 0.7970 0.7970 0.7970 0.7970 0.7970
633.778434 0.7980 0.7980 0.7980 0.7980 0.7980
638.222888 0.7980 0.7980 0.7980 0.7980 0.7980
642.667342 0.7980 0.7980 0.7980 0.7980 0.7980
647.111797 0.7970 0.7970 0.7970 0.7970 0.7970
651.556251 0.7970 0.7970 0.7960 0.7960 0.7960
656.000705 0.7960 0.7960 0.7960 0.7960 0.7960
660.445159 0.7960 0.7960 0.7940 0.7930 0.7910
664.889613 0.7900 0.7870 0.7860 0.7850 0.7830
669.334067 0.7820 0.7800 0.7780 0.7760 0.7750
673.778522 0.7730 0.7710 0.7680 0.7660 0.7640
678.222976 0.7620 0.7600 0.7580 0.7570 0.7500
682.667430 0.7420 0.7360 0.7350 0.7260 0.7180
687.111884 0.7040 0.6990 0.6930 0.6850 0.6780
691.556338 0.6710 0.6620 0.6540 0.6420 0.6251
696.000793 0.6040 0.5760 0.5420 0.4990 0.4451
700.445247 0.3841 0.3231 0.2343 0.2171 0.1901
704.889701 0.1670 0.1620 0.1690 0.2080 0.2519
709.334155 0.3099 0.4536 0.5288 0.5958 0.6528
713.778609 0.7050 0.7180 0.7300 0.7330 0.7350
718.223063 0.7360 0.7320 0.7260 0.7210 0.7150
722.667518 0.7110 0.7050 0.7010 0.6990 0.6940
727.111972 0.6850 0.6830 0.6850 0.7029 0.7070
731.556426 0.7140 0.7230 0.7280 0.7290 0.7350
736.000880 0.7400 0.7430 0.7440 0.7460 0.7470
740.445334 0.7500 0.7550 0.7580 0.7600 0.7600
744.889788 0.7610 0.7620 0.7650 0.7660 0.7710
749.334243 0.7750 0.7800 0.7860 0.7900 0.7900
753.778697 0.7930 0.7930 0.7930 0.7930 0.7930
758.223151 0.7940 0.7940 0.7940 0.7940 0.7940
762.667605 0.7960 0.7960 0.7960 0.7960 0.7960
767.112059 0.7960 0.7960 0.7960 0.7960 0.7960
771.556514 0.7960 0.7960 0.7960 0.7960 0.7960
776.000968 0.7970 0.7970 0.7970 0.7970 0.7970
780.445422 0.7970 0.7970 0.7970 0.7970 0.7970
784.889876 0.7970 0.7970 0.7970 0.7960 0.7960
789.334330 0.7960 0.7940 0.7940 0.7940 0.7900
793.778784 0.7890 0.7860 0.7800 0.7760 0.7730
798.223239 0.7690 0.7580 0.7371 0.7230 0.7011
802.667693 0.6790 0.6760 0.6780 0.6850 0.6870
807.112147 0.6890 0.6900 0.6900 0.6900 0.6870
811.556601 0.6870 0.6830 0.6800 0.6760 0.6640
816.001055 0.6580 0.6580 0.6600 0.6859 0.6999
820.445510 0.7030 0.7010 0.7000 0.6990 0.6940
824.889964 0.6710 0.6560 0.6311 0.6150 0.6040
829.334418 0.5950 0.5920 0.5930 0.6150 0.6360
833.778872 0.6560 0.6720 0.6790 0.6790 0.6780
838.223326 0.6540 0.6470 0.6290 0.5790 0.5071
842.667780 0.4271 0.3881 0.3491 0.2842 0.2421
847.112235 0.2369 0.1910 0.1420 0.1370 0.1420
851.556689 0.1949 0.3048 0.4786 0.5468 0.6028
856.001143 0.6471 0.7080 0.7260 0.7370 0.7480
860.445597 0.7550 0.7640 0.7680 0.7690 0.7690
864.890051 0.7710 0.7750 0.7780 0.7790 0.7830
869.334505 0.7900 0.7910 0.7960 0.8000 0.8040
873.778960 0.8050 0.8050 0.8050 0.8050 0.8050
878.223414 0.8050 0.8050 0.8040 0.8030 0.7970
882.667868 0.7970 0.7930 0.7890 0.7820 0.7780
887.112322 0.7730 0.7620 0.7530 0.7470 0.7400
891.556776 0.7350 0.7260 0.7180 0.7110 0.7050
896.001231 0.7000 0.6940 0.6780 0.6501 0.6102
900.445685 0.5529 0.4740 0.4520 0.4310 0.4090
904.890139 0.3860 0.3491 0.3460 0.4418 0.4889
909.334593 0.5401 0.5810 0.6211 0.7320 0.7860
913.779047 0.7890 0.7900 0.7960 0.7960 0.7960
918.223501 0.7940 0.7890 0.7850 0.7830 0.7820
922.667956 0.7820 0.7820 0.7820 0.7820 0.7820
927.112410 0.7820 0.7820 0.7820 0.7820 0.7780
931.556864 0.7760 0.7750 0.7730 0.7680 0.7620
936.001318 0.7580 0.7540 0.7500 0.7460 0.7420
940.445772 0.7370 0.7300 0.7230 0.7140 0.7030
944.890227 0.6960 0.6870 0.6720 0.6510 0.6290
949.334681 0.6030 0.5711 0.5311 0.4034 0.3063
953.779135 0.2090 0.2090 0.2120 0.2190 0.2350
958.223589 0.2949 0.4407 0.5148 0.5828 0.6378
962.668043 0.6760 0.6930 0.6930 0.6930 0.6890
967.112497 0.6800 0.6690 0.6560 0.6331 0.5971
971.556952 0.5750 0.5520 0.5390 0.5390 0.5380
976.001406 0.5350 0.5330 0.5330 0.5759 0.6029
980.445860 0.6080 0.6240 0.6400 0.6620 0.7030
984.890314 0.7030 0.7030 0.7010 0.6990 0.6860
989.334768 0.6850 0.6710 0.6560 0.6430 0.6320
993.779222 0.6290 0.6310 0.6540 0.6710 0.7149
998.223677 0.7320 0.7430 0.7510 0.7550 0.7600
1002.668131 0.7600 0.7600 0.7600 0.7600 0.7600
1007.112585 0.7610 0.7610 0.7610 0.7620 0.7620
1011.557039 0.7640 0.7640 0.7640 0.7640 0.7640
1016.001493 0.7620 0.7620 0.7610 0.7600 0.7570
1020.445948 0.7540 0.7510 0.7480 0.7460 0.7430
1024.890402 0.7400 0.7370 0.7350 0.7300 0.7250
1029.334856 0.7190 0.7140 0.7070 0.7030 0.6970
1033.779310 0.6870 0.6760 0.6640 0.6490 0.6000
1038.223764 0.5860 0.5860 0.5890 0.5960 0.6070
1042.668218 0.6130 0.6150 0.6170 0.6180 0.6280
1047.112673 0.6360 0.6540 0.6720 0.7039 0.7170
1051.557127 0.7300 0.7440 0.7600 0.7710 0.7720
1056.001581 0.7730 0.7730 0.7720 0.7710 0.7680
1060.446035 0.7640 0.7610 0.7580 0.7570 0.7570
1064.890489 0.7550 0.7550 0.7550 0.7550 0.7550
1069.334944 0.7550 0.7550 0.7550 0.7530 0.7510
1073.779398 0.7480 0.7480 0.7480 0.7480 0.7480
1078.223852 0.7480 0.7480 0.7470 0.7470 0.7460
1082.668306 0.7440 0.7430 0.7400 0.7370 0.7320
1087.112760 0.7290 0.7220 0.7190 0.7180 0.7190
1091.557214 0.7280 0.7330 0.7390 0.7420 0.7430
1096.001669 0.7440 0.7460 0.7470 0.7470 0.7480
1100.446123 0.7480 0.7460 0.7430 0.7430 0.7420
1104.890577 0.7420 0.7420 0.7430 0.7430 0.7430
1109.335031 0.7420 0.7420 0.7420 0.7420 0.7420
1113.779485 0.7420 0.7420 0.7420 0.7420 0.7420
1118.223939 0.7420 0.7420 0.7420 0.7420 0.7400
1122.668394 0.7390 0.7390 0.7390 0.7370 0.7360
1127.112848 0.7330 0.7330 0.7300 0.7290 0.7280
1131.557302 0.7250 0.7220 0.7190 0.7170 0.7120
1136.001756 0.7100 0.7050 0.7010 0.7000 0.6970
1140.446210 0.6920 0.6890 0.6890 0.6900 0.7030
1144.890665 0.7110 0.7170 0.7180 0.7190 0.7210
1149.335119 0.7220 0.7230 0.7230 0.7230 0.7230
1153.779573 0.7230 0.7230 0.7230 0.7230 0.7230
1158.224027 0.7230 0.7230 0.7230 0.7220 0.7220
1162.668481 0.7210 0.7190 0.7180 0.7170 0.7150
1167.112935 0.7120 0.7110 0.7100 0.7080 0.7070
1171.557390 0.7040 0.7030 0.7000 0.7000 0.6990
1176.001844 0.6930 0.6890 0.6820 0.6780 0.6740
1180.446298 0.6690 0.6620 0.6610 0.6620 0.6640
1184.890752 0.6680 0.6690 0.6690 0.6670 0.6540
1189.335206 0.6530 0.6490 0.6320 0.6310 0.6310
1193.779661 0.6320 0.6400 0.6460 0.6500 0.6580
1198.224115 0.6670 0.6750 0.6760 0.6830 0.6870
1202.668569 0.6890 0.6890 0.6890 0.6890 0.6890
1207.113023 0.6870 0.6870 0.6860 0.6850 0.6850
1211.557477 0.6830 0.6820 0.6800 0.6790 0.6780
1216.001931 0.6760 0.6760 0.6740 0.6690 0.6640
1220.446386 0.6580 0.6510 0.6380 0.6240 0.6150
1224.890840 0.6150 0.6180 0.6260 0.6390 0.6430
1229.335294 0.6470 0.6540 0.6610 0.6620 0.6620
1233.779748 0.6610 0.6560 0.6530 0.6490 0.6460
1238.224202 0.6430 0.6350 0.6280 0.6180 0.6100
1242.668657 0.6030 0.6010 0.6030 0.6100 0.6150
1247.113111 0.6210 0.6310 0.6320 0.6330 0.6350
1251.557565 0.6350 0.6350 0.6350 0.6330 0.6320
1256.002019 0.6320 0.6290 0.6280 0.6240 0.6220
1260.446473 0.6150 0.6070 0.6000 0.5950 0.5860
1264.890927 0.5780 0.5710 0.5630 0.5560 0.5490
1269.335382 0.5420 0.5330 0.5250 0.5150 0.5040
1273.779836 0.4920 0.4790 0.4780 0.4780 0.4790
1278.224290 0.5020 0.5200 0.5430 0.5649 0.5750
1282.668744 0.5900 0.6040 0.6170 0.6180 0.6180
1287.113198 0.6180 0.6180 0.6170 0.6140 0.6110
1291.557652 0.6060 0.6010 0.5950 0.5880 0.5780
1296.002107 0.5650 0.5500 0.5350 0.5170 0.4991
1300.446561 0.4789 0.4600 0.4390 0.4180 0.4070
1304.891015 0.3960 0.3730 0.3730 0.3710 0.3700
1309.335469 0.3670 0.3670 0.3570 0.3480 0.3410
1313.779923 0.3390 0.3380 0.3390 0.3480 0.3640
1318.224378 0.4101 0.4340 0.4540 0.4560 0.4290
1322.668832 0.4140 0.4040 0.3930 0.3920 0.4060
1327.113286 0.4491 0.4841 0.5150 0.5170 0.5180
1331.557740 0.5210 0.5240 0.5270 0.5320 0.5380
1336.002194 0.5430 0.5450 0.5450 0.5430 0.5390
1340.446648 0.5070 0.4890 0.4750 0.4720 0.4710
1344.891103 0.4720 0.4890 0.5040 0.5150 0.5270
1349.335557 0.5360 0.5360 0.5360 0.5330 0.5270
1353.780011 0.5250 0.5270 0.5350 0.5390 0.5460
1358.224465 0.5530 0.5570 0.5570 0.5600 0.5610
1362.668919 0.5630 0.5630 0.5610 0.5610 0.5610
1367.113374 0.5610 0.5600 0.5570 0.5570 0.5560
1371.557828 0.5540 0.5530 0.5520 0.5500 0.5470
1376.002282 0.5450 0.5400 0.5360 0.5270 0.5110
1380.446736 0.4959 0.4780 0.4770 0.4770 0.4780
1384.891190 0.4880 0.5070 0.5200 0.5250 0.5310
1389.335644 0.5330 0.5400 0.5490 0.5560 0.5580
1393.780099 0.5600 0.5600 0.5610 0.5610 0.5610
1398.224553 0.5610 0.5610 0.5600 0.5580 0.5570
1402.669007 0.5570 0.5540 0.5530 0.5520 0.5490
1407.113461 0.5470 0.5430 0.5400 0.5350 0.5290
1411.557915 0.5240 0.5170 0.5070 0.5000 0.4930
1416.002369 0.4860 0.4750 0.4610 0.4410 0.4110
1420.446824 0.3920 0.3730 0.3211 0.2851 0.2421
1424.891278 0.2390 0.2411 0.2710 0.2950 0.3280
1429.335732 0.3700 0.4240 0.4210 0.4160 0.4030
1433.780186 0.3920 0.3809 0.3530 0.3270 0.3240
1438.224640 0.3300 0.3530 0.4529 0.5378 0.5460
1442.669095 0.5430 0.5390 0.5290 0.5140 0.5020
1447.113549 0.4850 0.4211 0.3841 0.3451 0.2981
1451.558003 0.2509 0.2020 0.1990 0.2010 0.2530
1456.002457 0.3200 0.3380 0.3380 0.2701 0.1942
1460.446911 0.1910 0.1900 0.2031 0.2481 0.3091
1464.891365 0.4280 0.4600 0.5390 0.7098 0.7569
1469.335820 0.7780 0.7800 0.7800 0.7800 0.7790
1473.780274 0.7730 0.7620 0.7530 0.7420 0.7300
1478.224728 0.7150 0.7050 0.6940 0.6690 0.6360
1482.669182 0.5950 0.5560 0.5270 0.5270 0.5270
1487.113636 0.5741 0.6192 0.7100 0.7371 0.7901
1491.558091 0.8720 0.8940 0.8970 0.8980 0.9040
1496.002545 0.9080 0.9120 0.9140 0.9140 0.9150
1500.446999 0.9160 0.9160 0.9160 0.9160 0.9160
1504.891453 0.9160 0.9160 0.9160 0.9160 0.9160
1509.335907 0.9150 0.9150 0.9150 0.9180 0.9180
1513.780361 0.9180 0.9190 0.9190 0.9190 0.9200
1518.224816 0.9200 0.9220 0.9220 0.9230 0.9230
1522.669270 0.9250 0.9260 0.9260 0.9270 0.9290
1527.113724 0.9290 0.9300 0.9300 0.9320 0.9320
1531.558178 0.9320 0.9320 0.9330 0.9330 0.9330
1536.002632 0.9330 0.9330 0.9340 0.9340 0.9330
1540.447086 0.9330 0.9330 0.9320 0.9320 0.9300
1544.891541 0.9270 0.9270 0.9270 0.9270 0.9270
1549.335995 0.9260 0.9260 0.9260 0.9250 0.9250
1553.780449 0.9250 0.9250 0.9250 0.9250 0.9250
1558.224903 0.9250 0.9250 0.9230 0.9230 0.9220
1562.669357 0.9220 0.9200 0.9190 0.9190 0.9190
1567.113812 0.9180 0.9180 0.9160 0.9150 0.9150
1571.558266 0.9140 0.9120 0.9110 0.9110 0.9090
1576.002720 0.9080 0.9070 0.9040 0.9010 0.9000
1580.447174 0.8980 0.8970 0.8940 0.8930 0.8910
1584.891628 0.8900 0.8870 0.8860 0.8840 0.8820
1589.336082 0.8800 0.8790 0.8760 0.8720 0.8690
1593.780537 0.8690 0.8650 0.8620 0.8610 0.8590
1598.224991 0.8570 0.8570 0.8550 0.8540 0.8540
1602.669445 0.8500 0.8470 0.8430 0.8400 0.8370
1607.113899 0.8360 0.8330 0.8300 0.8290 0.8260
1611.558353 0.8210 0.8150 0.8140 0.8120 0.8090
1616.002808 0.8080 0.8070 0.8040 0.8030 0.8010
1620.447262 0.8000 0.7980 0.7960 0.7960 0.7940
1624.891716 0.7930 0.7930 0.7930 0.7930 0.7910
1629.336170 0.7910 0.7910 0.7910 0.7910 0.7910
1633.780624 0.7910 0.7910 0.7910 0.7910 0.7930
1638.225078 0.7930 0.7940 0.7960 0.7960 0.7960
1642.669533 0.7970 0.7980 0.7980 0.8000 0.8010
1647.113987 0.8030 0.8030 0.8040 0.8050 0.8050
1651.558441 0.8070 0.8080 0.8080 0.8090 0.8110
1656.002895 0.8110 0.8110 0.8120 0.8120 0.8140
1660.447349 0.8140 0.8140 0.8150 0.8150 0.8160
1664.891803 0.8160 0.8160 0.8160 0.8160 0.8160
1669.336258 0.8180 0.8190 0.8210 0.8210 0.8220
1673.780712 0.8230 0.8250 0.8250 0.8260 0.8280
1678.225166 0.8290 0.8290 0.8300 0.8320 0.8330
1682.669620 0.8330 0.8340 0.8360 0.8360 0.8370
1687.114074 0.8390 0.8390 0.8400 0.8410 0.8410
1691.558529 0.8430 0.8440 0.8440 0.8460 0.8470
1696.002983 0.8470 0.8480 0.8500 0.8500 0.8510
1700.447437 0.8510 0.8520 0.8520 0.8520 0.8540
1704.891891 0.8540 0.8540 0.8540 0.8540 0.8540
1709.336345 0.8540 0.8540 0.8540 0.8540 0.8520
1713.780799 0.8520 0.8520 0.8510 0.8510 0.8500
1718.225254 0.8500 0.8480 0.8470 0.8470 0.8460
1722.669708 0.8440 0.8440 0.8430 0.8410 0.8410
1727.114162 0.8400 0.8370 0.8370 0.8360 0.8340
1731.558616 0.8330 0.8330 0.8320 0.8300 0.8290
1736.003070 0.8280 0.8260 0.8250 0.8230 0.8220
1740.447525 0.8210 0.8190 0.8190 0.8190 0.8180
1744.891979 0.8160 0.8160 0.8160 0.8160 0.8160
1749.336433 0.8150 0.8150 0.8150 0.8150 0.8150
1753.780887 0.8140 0.8140 0.8140 0.8140 0.8140
1758.225341 0.8140 0.8140 0.8120 0.8120 0.8120
1762.669795 0.8120 0.8110 0.8110 0.8090 0.8090
1767.114250 0.8080 0.8080 0.8070 0.8040 0.8010
1771.558704 0.7980 0.7980 0.7970 0.7970 0.7960
1776.003158 0.7960 0.7940 0.7930 0.7930 0.7910
1780.447612 0.7900 0.7890 0.7870 0.7860 0.7850
1784.892066 0.7830 0.7820 0.7790 0.7790 0.7790
1789.336520 0.7790 0.7780 0.7780 0.7780 0.7760
1793.780975 0.7760 0.7760 0.7760 0.7750 0.7750
1798.225429 0.7730 0.7730 0.7730 0.7730 0.7720
1802.669883 0.7720 0.7720 0.7710 0.7710 0.7690
1807.114337 0.7690 0.7680 0.7660 0.7650 0.7640
1811.558791 0.7620 0.7620 0.7610 0.7600 0.7580
1816.003246 0.7570 0.7540 0.7510 0.7510 0.7510
1820.447700 0.7510 0.7500 0.7500 0.7500 0.7480
1824.892154 0.7480 0.7470 0.7470 0.7470 0.7460
1829.336608 0.7440 0.7440 0.7440 0.7430 0.7430
1833.781062 0.7430 0.7420 0.7420 0.7400 0.7400
1838.225516 0.7400 0.7390 0.7370 0.7350 0.7320
1842.669971 0.7300 0.7280 0.7260 0.7250 0.7230
1847.114425 0.7230 0.7220 0.7220 0.7210 0.7210
1851.558879 0.7190 0.7190 0.7180 0.7180 0.7170
1856.003333 0.7150 0.7150 0.7140 0.7140 0.7120
1860.447787 0.7120 0.7110 0.7110 0.7100 0.7100
1864.892242 0.7080 0.7070 0.7050 0.7040 0.7040
1869.336696 0.7030 0.7010 0.7010 0.7000 0.7000
1873.781150 0.6990 0.6990 0.6970 0.6960 0.6940
1878.225604 0.6940 0.6930 0.6930 0.6920 0.6900
1882.670058 0.6900 0.6890 0.6890 0.6870 0.6870
1887.114512 0.6860 0.6850 0.6830 0.6830 0.6820
1891.558967 0.6800 0.6800 0.6790 0.6790 0.6780
1896.003421 0.6760 0.6760 0.6750 0.6740 0.6720
1900.447875 0.6710 0.6680 0.6680 0.6670 0.6670
1904.892329 0.6650 0.6650 0.6620 0.6620 0.6620
1909.336783 0.6620 0.6620 0.6620 0.6620 0.6610
1913.781238 0.6610 0.6600 0.6580 0.6580 0.6560
1918.225692 0.6530 0.6530 0.6500 0.6490 0.6490
1922.670146 0.6470 0.6460 0.6430 0.6400 0.6390
1927.114600 0.6380 0.6360 0.6360 0.6350 0.6350
1931.559054 0.6330 0.6320 0.6310 0.6310 0.6290
1936.003508 0.6280 0.6260 0.6260 0.6250 0.6220
1940.447963 0.6220 0.6220 0.6220 0.6210 0.6210
1944.892417 0.6210 0.6190 0.6180 0.6180 0.6180
1949.336871 0.6170 0.6170 0.6150 0.6150 0.6140
1953.781325 0.6140 0.6130 0.6130 0.6110 0.6080
1958.225779 0.6080 0.6070 0.6070 0.6060 0.6060
1962.670233 0.6040 0.6030 0.6040 0.6030 0.6030
1967.114688 0.6010 0.6000 0.5990 0.5970 0.5960
1971.559142 0.5950 0.5930 0.5920 0.5880 0.5850
1976.003596 0.5830 0.5810 0.5790 0.5780 0.5780
1980.448050 0.5760 0.5760 0.5750 0.5750 0.5750
1984.892504 0.5740 0.5720 0.5720 0.5710 0.5700
1989.336959 0.5680 0.5670 0.5670 0.5650 0.5650
1993.781413 0.5650 0.5650 0.5640 0.5640 0.5640
1998.225867 0.5640 0.5630 0.5630 0.5620 0.5610
2002.670321 0.5610 0.5610 0.5605 0.5600 0.5600
2007.114775 0.5600 0.5590 0.5580 0.5570 0.5560
2011.559229 0.5560 0.5560 0.5550 0.5540 0.5540
2016.003684 0.5540 0.5535 0.5530 0.5525 0.5520
2020.448138 0.5520 0.5520 0.5510 0.5501 0.5495
2024.892592 0.5490 0.5481 0.5471 0.5465 0.5460
2029.337046 0.5455 0.5450 0.5436 0.5421 0.5411
2033.781500 0.5401 0.5395 0.5390 0.5385 0.5380
2038.225955 0.5371 0.5361 0.5355 0.5350 0.5336
2042.670409 0.5321 0.5306 0.5292 0.5286 0.5281
2047.114863 0.5276 0.5271 0.5261 0.5251 0.5246
2051.559317 0.5241 0.5231 0.5221 0.5211 0.5201
2056.003771 0.5191 0.5181 0.5176 0.5171 0.5161
2060.448225 0.5151 0.5146 0.5141 0.5136 0.5131
2064.892680 0.5117 0.5102 0.5096 0.5091 0.5082
2069.337134 0.5072 0.5066 0.5061 0.5047 0.5032
2073.781588 0.5017 0.5002 0.4996 0.4991 0.4982
2078.226042 0.4972 0.4966 0.4961 0.4956 0.4951
2082.670496 0.4942 0.4932 0.4926 0.4921 0.4912
2087.114950 0.4902 0.4896 0.4891 0.4886 0.4881
2091.559405 0.4872 0.4862 0.4852 0.4842 0.4828
2096.003859 0.4813 0.4802 0.4792 0.4786 0.4781
2100.448313 0.4776 0.4771 0.4762 0.4752 0.4746
2104.892767 0.4741 0.4732 0.4722 0.4716 0.4711
2109.337221 0.4706 0.4701 0.4692 0.4682 0.4676
2113.781676 0.4671 0.4659 0.4644 0.4636 0.4631
2118.226130 0.4623 0.4613 0.4606 0.4601 0.4596
2122.670584 0.4591 0.4583 0.4573 0.4566 0.4561
2127.115038 0.4545 0.4525 0.4513 0.4503 0.4496
2131.559492 0.4491 0.4476 0.4456 0.4443 0.4433
2136.003946 0.4416 0.4396 0.4376 0.4356 0.4350
2140.448401 0.4350 0.4340 0.4325 0.4317 0.4312
2144.892855 0.4300 0.4285 0.4270 0.4255 0.4247
2149.337309 0.4242 0.4230 0.4215 0.4207 0.4202
2153.781763 0.4190 0.4175 0.4160 0.4145 0.4137
2158.226217 0.4132 0.4117 0.4097 0.4080 0.4065
2162.670672 0.4060 0.4060 0.4054 0.4044 0.4037
2167.115126 0.4032 0.4027 0.4022 0.4014 0.4004
2171.559580 0.4000 0.4000 0.3997 0.3992 0.3987
2176.004034 0.3982 0.3974 0.3964 0.3957 0.3952
2180.448488 0.3944 0.3934 0.3927 0.3922 0.3917
2184.892942 0.3912 0.3904 0.3894 0.3887 0.3882
2189.337397 0.3871 0.3856 0.3847 0.3842 0.3834
2193.781851 0.3824 0.3814 0.3804 0.3794 0.3784
2198.226305 0.3777 0.3772 0.3764 0.3754 0.3744
2202.670759 0.3734 0.3724 0.3714 0.3702 0.3687
2207.115213 0.3677 0.3672 0.3662 0.3647 0.3637
2211.559667 0.3632 0.3622 0.3607 0.3592 0.3577
2216.004122 0.3565 0.3555 0.3542 0.3527 0.3509
2220.448576 0.3489 0.3480 0.3480 0.3472 0.3457
2224.893030 0.3445 0.3435 0.3425 0.3415 0.3405
2229.337484 0.3395 0.3385 0.3375 0.3365 0.3355
2233.781938 0.3342 0.3328 0.3318 0.3313 0.3303
2238.226393 0.3288 0.3280 0.3280 0.3278 0.3273
2242.670847 0.3263 0.3248 0.3233 0.3218 0.3208
2247.115301 0.3203 0.3193 0.3178 0.3163 0.3148
2251.559755 0.3131 0.3111 0.3093 0.3078 0.3061
2256.004209 0.3041 0.3023 0.3008 0.2996 0.2986
2260.448663 0.2973 0.2959 0.2948 0.2943 0.2934
2264.893118 0.2919 0.2906 0.2896 0.2886 0.2876
2269.337572 0.2866 0.2856 0.2844 0.2829 0.2818
2273.782026 0.2813 0.2802 0.2782 0.2758 0.2728
2278.226480 0.2706 0.2696 0.2690 0.2690 0.2684
2282.670934 0.2669 0.2654 0.2639 0.2624 0.2609
2287.115389 0.2594 0.2579 0.2568 0.2563 0.2554
2291.559843 0.2539 0.2526 0.2516 0.2505 0.2490
2296.004297 0.2475 0.2460 0.2448 0.2443 0.2435
2300.448751 0.2420 0.2403 0.2383 0.2358 0.2323
2304.893205 0.2297 0.2287 0.2277 0.2267 0.2248
2309.337659 0.2213 0.2182 0.2157 0.2138 0.2133
2313.782114 0.2122 0.2097 0.2064 0.2014 0.1965
2318.226568 0.1915 0.1872 0.1847 0.1827 0.1817
2322.671022 0.1810 0.1810 0.1808 0.1803 0.1797
2327.115476 0.1787 0.1779 0.1774 0.1769 0.1764
2331.559930 0.1760 0.1760 0.1757 0.1747 0.1739
2336.004384 0.1734 0.1727 0.1717 0.1709 0.1704
2340.448839 0.1700 0.1700 0.1699 0.1694 0.1687
2344.893293 0.1677 0.1669 0.1664 0.1656 0.1641
2349.337747 0.1630 0.1630 0.1629 0.1624 0.1620
2353.782201 0.1620 0.1618 0.1608 0.1599 0.1594
2358.226655 0.1590 0.1590 0.1589 0.1584 0.1580
2362.671110 0.1580 0.1578 0.1568 0.1559 0.1554
2367.115564 0.1550 0.1550 0.1548 0.1538 0.1529
2371.560018 0.1524 0.1519 0.1514 0.1510 0.1510
2376.004472 0.1508 0.1498 0.1489 0.1484 0.1480
2380.448926 0.1480 0.1481 0.1486 0.1490 0.1490
2384.893380 0.1492 0.1502 0.1510 0.1510 0.1511
2389.337835 0.1516 0.1520 0.1520 0.1521 0.1526
2393.782289 0.1532 0.1542 0.1548 0.1533 0.1519
2398.226743 0.1514 0.1509 0.1499 0.1489 0.1484
2402.671197 0.1478 0.1463 0.1449 0.1444 0.1439
2407.115651 0.1429 0.1419 0.1414 0.1409 0.1404
2411.560106 0.1398 0.1383 0.1369 0.1359 0.1349
2416.004560 0.1344 0.1339 0.1334 0.1329 0.1319
2420.449014 0.1310 0.1305 0.1299 0.1284 0.1270
2424.893468 0.1265 0.1259 0.1249 0.1240 0.1235
2429.337922 0.1229 0.1214 0.1199 0.1184 0.1169
2433.782376 0.1159 0.1149 0.1139 0.1129 0.1114
2438.226831 0.1100 0.1095 0.1089 0.1074 0.1060
2442.671285 0.1050 0.1040 0.1030 0.1020 0.1015
2447.115739 0.1010 0.1000 0.0990 0.0985 0.0980
2451.560193 0.0975 0.0970 0.0955 0.0940 0.0925
2456.004647 0.0910 0.0895 0.0880 0.0875 0.0870
2460.449101 0.0860 0.0850 0.0840 0.0830 0.0815
2464.893556 0.0800 0.0785 0.0770 0.0765 0.0760
2469.338010 0.0750 0.0740 0.0735 0.0730 0.0730
2473.782464 0.0730 0.0730 0.0730 0.0730 0.0730
2478.226918 0.0735 0.0740 0.0755 0.0770 0.0799
2482.671372 0.0829 0.0840 0.0850 0.0850 0.0850
2487.115827 0.0850 0.0850 0.0850 0.0850 0.0850
2491.560281 0.0850 0.0850 0.0850 0.0845 0.0840
2496.004735 0.0835 0.0830 0.0821 0.0811 0.0805
2500.449189 0.0800 0.0795 0.0790 0.0776 0.0761
2504.893643 0.0760 0.0760 0.0751 0.0741 0.0740
2509.338097 0.0740 0.0736 0.0731 0.0730 0.0730
2513.782552 0.0726 0.0721 0.0707 0.0692 0.0681
2518.227006 0.0671 0.0670 0.0670 0.0666 0.0661
2522.671460 0.0660 0.0660 0.0656 0.0651 0.0641
2527.115914 0.0631 0.0630 0.0630 0.0621 0.0611
2531.560368 0.0610 0.0610 0.0601 0.0591 0.0590
2536.004823 0.0590 0.0586 0.0581 0.0572 0.0562
2540.449277 0.0560 0.0560 0.0552 0.0542 0.0540
2544.893731 0.0540 0.0532 0.0522 0.0520 0.0520
2549.338185 0.0516 0.0511 0.0510 0.0510 0.0502
2553.782639 0.0492 0.0486 0.0481 0.0480 0.0480
2558.227093 0.0476 0.0471 0.0462 0.0452 0.0438
2562.671548 0.0423 0.0420 0.0420 0.0416 0.0411
2567.116002 0.0410 0.0410 0.0410 0.0410 0.0410
2571.560456 0.0410 0.0410 0.0410 0.0410 0.0410
2576.004910 0.0410 0.0410 0.0421 0.0436 0.0444
2580.449364 0.0449 0.0450 0.0450 0.0450 0.0450
2584.893818 0.0457 0.0467 0.0470 0.0470 0.0470
2589.338273 0.0470 0.0474 0.0479 0.0484 0.0489
2593.782727 0.0497 0.0507 0.0510 0.0510 0.0514
2598.227181 0.0519 0.0527 0.0537 0.0544 0.0549
2602.671635 0.0560 0.0575 0.0604 0.0640 0.0689
2607.116089 0.0744 0.0774 0.0794 0.0824 0.0859
2611.560544 0.0880 0.0895 0.0917 0.0942 0.0950
2616.004998 0.0950 0.0957 0.0967 0.0977 0.0987
2620.449452 0.0990 0.0990 0.0990 0.0990 0.0987
2624.893906 0.0982 0.0980 0.0980 0.0970 0.0955
2629.338360 0.0937 0.0917 0.0900 0.0885 0.0877
2633.782814 0.0872 0.0864 0.0854 0.0816 0.0761
2638.227269 0.0737 0.0732 0.0730 0.0730 0.0733
2642.671723 0.0738 0.0756 0.0781 0.0796 0.0806
2647.116177 0.0816 0.0826 0.0836 0.0846 0.0865
2651.560631 0.0890 0.0912 0.0932 0.0961 0.0996
2656.005085 0.1013 0.1018 0.1020 0.1020 0.1020
2660.449540 0.1020 0.1020 0.1020 0.1011 0.0996
2664.893994 0.0984 0.0974 0.0976 0.0986 0.1004
2669.338448 0.1029 0.1057 0.1087 0.1125 0.1170
2673.782902 0.1212 0.1252 0.1297 0.1348 0.1398
2678.227356 0.1448 0.1495 0.1540 0.1579 0.1614
2682.671810 0.1716 0.1875 0.2000 0.2095 0.2166
2687.116265 0.2216 0.2245 0.2255 0.2273 0.2298
2691.560719 0.2320 0.2340 0.2355 0.2365 0.2362
2696.005173 0.2347 0.2330 0.2310 0.2290 0.2270
2700.449627 0.2253 0.2238 0.2215 0.2185 0.2143
2704.894081 0.2088 0.2034 0.1979 0.1926 0.1876
2709.338536 0.1838 0.1813 0.1779 0.1734 0.1684
2713.782990 0.1629 0.1583 0.1549 0.1516 0.1486
2718.227444 0.1458 0.1434 0.1415 0.1405 0.1400
2722.671898 0.1400 0.1400 0.1400 0.1400 0.1400
2727.116352 0.1402 0.1407 0.1416 0.1432 0.1447
2731.560806 0.1462 0.1479 0.1499 0.1514 0.1524
2736.005261 0.1530 0.1530 0.1530 0.1530 0.1520
2740.449715 0.1495 0.1468 0.1438 0.1420 0.1420
2744.894169 0.1420 0.1420 0.1420 0.1420 0.1424
2749.338623 0.1434 0.1450 0.1475 0.1498 0.1518
2753.783077 0.1530 0.1530 0.1534 0.1544 0.1544
2758.227531 0.1529 0.1511 0.1486 0.1465 0.1450
2762.671986 0.1435 0.1420 0.1410 0.1410 0.1410
2767.116440 0.1410 0.1415 0.1430 0.1445 0.1460
2771.560894 0.1484 0.1524 0.1562 0.1597 0.1625
2776.005348 0.1640 0.1652 0.1657 0.1662 0.1667
2780.449802 0.1668 0.1663 0.1655 0.1640 0.1619
2784.894257 0.1584 0.1552 0.1527 0.1504 0.1484
2789.338711 0.1461 0.1431 0.1399 0.1365 0.1324
2793.783165 0.1269 0.1229 0.1224 0.1220 0.1220
2798.227619 0.1223 0.1233 0.1250 0.1285 0.1324
2802.672073 0.1374 0.1418 0.1448 0.1473 0.1483
2807.116527 0.1505 0.1560 0.1615 0.1669 0.1736
2811.560982 0.1836 0.1933 0.2022 0.2105 0.2165
2816.005436 0.2221 0.2266 0.2306 0.2331 0.2359
2820.449890 0.2394 0.2446 0.2550 0.2661 0.2791
2824.894344 0.2906 0.2976 0.3040 0.3085 0.3130
2829.338798 0.3175 0.3228 0.3313 0.3380 0.3380
2833.783253 0.3380 0.3380 0.3379 0.3374 0.3357
2838.227707 0.3297 0.3238 0.3178 0.3112 0.3022
2842.672161 0.2929 0.2819 0.2709 0.2600 0.2491
2847.116615 0.2386 0.2285 0.2200 0.2121 0.2066
2851.561069 0.2017 0.1997 0.1957 0.1816 0.1699
2856.005523 0.1694 0.1688 0.1678 0.1672 0.1682
2860.449978 0.1695 0.1730 0.1765 0.1800 0.1835
2864.894432 0.1870 0.1901 0.1911 0.1915 0.1875
2869.338886 0.1837 0.1818 0.1791 0.1721 0.1648
2873.783340 0.1564 0.1483 0.1428 0.1377 0.1352
2878.227794 0.1326 0.1291 0.1256 0.1221 0.1184
2882.672248 0.1129 0.1079 0.1069 0.1060 0.1060
2887.116703 0.1060 0.1055 0.1050 0.1045 0.1039
2891.561157 0.1029 0.1020 0.1015 0.1009 0.0999
2896.005611 0.0990 0.0990 0.0990 0.0990 0.0990
2900.450065 0.0985 0.0979 0.0959 0.0939 0.0919
2904.894519 0.0899 0.0874 0.0849 0.0829 0.0810
2909.338974 0.0805 0.0800 0.0805 0.0810 0.0820
2913.783428 0.0830 0.0840 0.0851 0.0876 0.0901
2918.227882 0.0946 0.0992 0.1077 0.1161 0.1236
2922.672336 0.1311 0.1381 0.1450 0.1465 0.1480
2927.116790 0.1495 0.1510 0.1515 0.1520 0.1555
2931.561244 0.1590 0.1620 0.1650 0.1675 0.1700
2936.005699 0.1700 0.1700 0.1700 0.1700 0.1700
2940.450153 0.1700 0.1773 0.1848 0.1918 0.1989
2944.894607 0.2054 0.2119 0.2120 0.2120 0.2110
2949.339061 0.2100 0.2095 0.2090 0.2085 0.2080
2953.783515 0.2090 0.2099 0.2119 0.2139 0.2140
2958.227970 0.2140 0.2084 0.2024 0.1964 0.1903
2962.672424 0.1876 0.1852 0.1841 0.1831 0.1830
2967.116878 0.1830 0.1839 0.1849 0.1878 0.1908
2971.561332 0.1974 0.2044 0.2100 0.2155 0.2165
2976.005786 0.2170 0.2215 0.2265 0.2297 0.2327
2980.450240 0.2479 0.2644 0.2745 0.2840 0.2899
2984.894695 0.2954 0.2987 0.3017 0.3042 0.3067
2989.339149 0.3109 0.3154 0.3221 0.3291 0.3330
2993.783603 0.3365 0.3370 0.3370 0.3314 0.3249
2998.228057 0.3166 0.3082 0.3066 0.3061 0.3077
3002.672511 0.3097 0.3219 0.3358 0.3456 0.3546
3007.116965 0.3631 0.3716 0.3763 0.3803 0.3839
3011.561420 0.3874 0.3880 0.3880 0.3868 0.3853
3016.005874 0.3846 0.3841 0.3832 0.3822 0.3816
3020.450328 0.3811 0.3798 0.3783 0.3768 0.3753
3024.894782 0.3746 0.3741 0.3736 0.3731 0.3730
3029.339236 0.3730 0.3730 0.3730 0.3730 0.3730
3033.783691 0.3730 0.3730 0.3730 0.3730 0.3734
3038.228145 0.3739 0.3752 0.3767 0.3782 0.3796
3042.672599 0.3804 0.3809 0.3814 0.3819 0.3828
3047.117053 0.3837 0.3844 0.3849 0.3854 0.3859
3051.561507 0.3860 0.3860 0.3867 0.3877 0.3880
3056.005961 0.3880 0.3884 0.3889 0.3890 0.3890
3060.450416 0.3890 0.3890 0.3890 0.3890 0.3890
3064.894870 0.3890 0.3897 0.3907 0.3910 0.3910
3069.339324 0.3910 0.3910 0.3910 0.3910 0.3910
3073.783778 0.3910 0.3910 0.3910 0.3903 0.3893
3078.228232 0.3890 0.3890 0.3890 0.3890 0.3887
3082.672687 0.3882 0.3873 0.3863 0.3860 0.3860
3087.117141 0.3857 0.3852 0.3850 0.3850 0.3847
3091.561595 0.3842 0.3840 0.3840 0.3833 0.3823
3096.006049 0.3820 0.3820 0.3814 0.3804 0.3800
3100.450503 0.3800 0.3794 0.3784 0.3777 0.3772
3104.894957 0.3770 0.3770 0.3764 0.3754 0.3747
3109.339412 0.3742 0.3740 0.3740 0.3737 0.3732
3113.783866 0.3724 0.3714 0.3710 0.3710 0.3707
3118.228320 0.3702 0.3691 0.3676 0.3670 0.3670
3122.672774 0.3667 0.3662 0.3654 0.3644 0.3637
3127.117228 0.3632 0.3624 0.3614 0.3607 0.3602
3131.561682 0.3600 0.3600 0.3597 0.3592 0.3584
3136.006137 0.3574 0.3567 0.3562 0.3552 0.3537
3140.450591 0.3527 0.3522 0.3514 0.3504 0.3497
3144.895045 0.3492 0.3487 0.3482 0.3475 0.3465
3149.339499 0.3457 0.3452 0.3445 0.3435 0.3427
3153.783953 0.3422 0.3417 0.3412 0.3405 0.3395
3158.228408 0.3387 0.3382 0.3377 0.3372 0.3365
3162.672862 0.3355 0.3347 0.3342 0.3335 0.3325
3167.117316 0.3318 0.3313 0.3308 0.3303 0.3295
3171.561770 0.3285 0.3278 0.3273 0.3265 0.3255
3176.006224 0.3245 0.3235 0.3230 0.3230 0.3225
3180.450678 0.3215 0.3208 0.3203 0.3198 0.3193
3184.895133 0.3185 0.3175 0.3168 0.3163 0.3156
3189.339587 0.3146 0.3138 0.3133 0.3128 0.3123
3193.784041 0.3116 0.3106 0.3098 0.3093 0.3086
3198.228495 0.3076 0.3061 0.3041 0.3028 0.3023
3202.672949 0.3016 0.3006 0.2996 0.2986 0.2972
3207.117404 0.2952 0.2934 0.2919 0.2906 0.2896
3211.561858 0.2888 0.2883 0.2874 0.2859 0.2848
3216.006312 0.2843 0.2836 0.2826 0.2816 0.2806
3220.450766 0.2794 0.2779 0.2770 0.2770 0.2768
3224.895220 0.2763 0.2756 0.2746 0.2738 0.2733
3229.339674 0.2726 0.2716 0.2708 0.2703 0.2698
3233.784129 0.2693 0.2686 0.2676 0.2668 0.2663
3238.228583 0.2657 0.2647 0.2637 0.2627 0.2620
3242.673037 0.2620 0.2617 0.2607 0.2598 0.2593
3247.117491 0.2587 0.2577 0.2568 0.2563 0.2558
3251.561945 0.2553 0.2547 0.2537 0.2528 0.2523
3256.006399 0.2520 0.2520 0.2519 0.2514 0.2507
3260.450854 0.2497 0.2489 0.2484 0.2477 0.2467
3264.895308 0.2459 0.2454 0.2449 0.2444 0.2437
3269.339762 0.2427 0.2416 0.2401 0.2390 0.2390
3273.784216 0.2389 0.2384 0.2379 0.2374 0.2367
3278.228670 0.2357 0.2349 0.2344 0.2339 0.2334
3282.673125 0.2330 0.2330 0.2327 0.2318 0.2309
3287.117579 0.2304 0.2298 0.2288 0.2279 0.2274
3291.562033 0.2269 0.2264 0.2257 0.2242 0.2230
3296.006487 0.2230 0.2228 0.2218 0.2209 0.2204
3300.450941 0.2199 0.2194 0.2188 0.2178 0.2169
3304.895395 0.2164 0.2158 0.2148 0.2140 0.2140
3309.339850 0.2139 0.2134 0.2129 0.2124 0.2118
3313.784304 0.2108 0.2099 0.2094 0.2089 0.2084
3318.228758 0.2078 0.2068 0.2060 0.2060 0.2059
3322.673212 0.2054 0.2048 0.2038 0.2029 0.2024
3327.117666 0.2019 0.2014 0.2009 0.1999 0.1988
3331.562121 0.1973 0.1960 0.1960 0.1959 0.1954
3336.006575 0.1949 0.1944 0.1939 0.1929 0.1920
3340.451029 0.1920 0.1919 0.1914 0.1909 0.1904
3344.895483 0.1899 0.1889 0.1879 0.1874 0.1870
3349.339937 0.1870 0.1869 0.1859 0.1850 0.1845
3353.784391 0.1839 0.1834 0.1827 0.1803 0.1780
3358.228846 0.1780 0.1780 0.1775 0.1770 0.1770
3362.673300 0.1770 0.1765 0.1760 0.1760 0.1759
3367.117754 0.1749 0.1740 0.1740 0.1740 0.1735
3371.562208 0.1730 0.1730 0.1729 0.1719 0.1710
3376.006662 0.1710 0.1710 0.1710 0.1710 0.1705
3380.451117 0.1700 0.1700 0.1700 0.1700 0.1700
3384.895571 0.1695 0.1690 0.1690 0.1690 0.1690
3389.340025 0.1690 0.1680 0.1670 0.1670 0.1670
3393.784479 0.1670 0.1670 0.1670 0.1670 0.1670
3398.228933 0.1670 0.1665 0.1660 0.1660 0.1660
3402.673387 0.1660 0.1660 0.1660 0.1660 0.1655
3407.117842 0.1650 0.1650 0.1650 0.1650 0.1650
3411.562296 0.1650 0.1650 0.1650 0.1650 0.1650
3416.006750 0.1650 0.1650 0.1650 0.1650 0.1650
3420.451204 0.1650 0.1650 0.1650 0.1650 0.1650
3424.895658 0.1650 0.1650 0.1650 0.1650 0.1650
3429.340112 0.1655 0.1660 0.1660 0.1660 0.1660
3433.784567 0.1660 0.1660 0.1660 0.1660 0.1660
3438.229021 0.1665 0.1670 0.1670 0.1670 0.1670
3442.673475 0.1670 0.1670 0.1670 0.1670 0.1670
3447.117929 0.1670 0.1670 0.1670 0.1670 0.1670
3451.562383 0.1670 0.1670 0.1670 0.1670 0.1670
3456.006838 0.1679 0.1689 0.1690 0.1690 0.1694
3460.451292 0.1699 0.1700 0.1700 0.1704 0.1709
3464.895746 0.1710 0.1710 0.1710 0.1710 0.1719
3469.340200 0.1728 0.1730 0.1730 0.1730 0.1730
3473.784654 0.1734 0.1739 0.1740 0.1740 0.1740
3478.229108 0.1740 0.1748 0.1758 0.1764 0.1769
3482.673563 0.1770 0.1770 0.1774 0.1779 0.1788
3487.118017 0.1798 0.1800 0.1800 0.1804 0.1809
3491.562471 0.1818 0.1828 0.1830 0.1830 0.1834
3496.006925 0.1839 0.1840 0.1840 0.1844 0.1849
3500.451379 0.1850 0.1850 0.1858 0.1868 0.1870
3504.895834 0.1870 0.1874 0.1879 0.1880 0.1880
3509.340288 0.1880 0.1880 0.1888 0.1898 0.1904
3513.784742 0.1909 0.1914 0.1919 0.1928 0.1938
3518.229196 0.1944 0.1949 0.1950 0.1950 0.1954
3522.673650 0.1959 0.1967 0.1977 0.1984 0.1989
3527.118104 0.1997 0.2007 0.2014 0.2019 0.2020
3531.562559 0.2020 0.2024 0.2029 0.2037 0.2047
3536.007013 0.2050 0.2050 0.2054 0.2059 0.2067
3540.451467 0.2077 0.2080 0.2080 0.2083 0.2088
3544.895921 0.2093 0.2098 0.2100 0.2100 0.2107
3549.340375 0.2117 0.2123 0.2128 0.2130 0.2130
3553.784829 0.2133 0.2138 0.2147 0.2157 0.2160
3558.229284 0.2160 0.2163 0.2168 0.2170 0.2170
3562.673738 0.2176 0.2186 0.2190 0.2190 0.2193
3567.118192 0.2198 0.2200 0.2200 0.2203 0.2208
3571.562646 0.2210 0.2210 0.2216 0.2226 0.2230
3576.007100 0.2230 0.2233 0.2238 0.2240 0.2240
3580.451555 0.2246 0.2256 0.2260 0.2260 0.2263
3584.896009 0.2268 0.2270 0.2270 0.2273 0.2278
3589.340463 0.2280 0.2280 0.2286 0.2296 0.2300
3593.784917 0.2300 0.2303 0.2308 0.2310 0.2310
3598.229371 0.2316 0.2326 0.2330 0.2330 0.2333
3602.673825 0.2338 0.2340 0.2340 0.2343 0.2348
3607.118280 0.2350 0.2350 0.2356 0.2366 0.2370
3611.562734 0.2370 0.2370 0.2370 0.2370 0.2370
3616.007188 0.2373 0.2378 0.2380 0.2380 0.2380
3620.451642 0.2380 0.2380 0.2380 0.2380 0.2380
3624.896096 0.2383 0.2388 0.2390 0.2390 0.2390
3629.340551 0.2390 0.2390 0.2390 0.2390 0.2390
3633.785005 0.2395 0.2405 0.2410 0.2410 0.2410
3638.229459 0.2410 0.2410 0.2410 0.2412 0.2417
3642.673913 0.2420 0.2420 0.2420 0.2420 0.2420
3647.118367 0.2420 0.2420 0.2420 0.2420 0.2420
3651.562821 0.2420 0.2420 0.2420 0.2420 0.2420
3656.007276 0.2420 0.2420 0.2420 0.2420 0.2420
3660.451730 0.2420 0.2420 0.2424 0.2434 0.2440
3664.896184 0.2440 0.2440 0.2440 0.2440 0.2440
3669.340638 0.2440 0.2440 0.2440 0.2440 0.2440
3673.785092 0.2440 0.2440 0.2440 0.2440 0.2440
3678.229546 0.2440 0.2440 0.2440 0.2440 0.2436
3682.674001 0.2426 0.2420 0.2420 0.2420 0.2420
3687.118455 0.2420 0.2420 0.2418 0.2413 0.2410
3691.562909 0.2410 0.2410 0.2410 0.2410 0.2410
3696.007363 0.2406 0.2396 0.2390 0.2390 0.2390
3700.451817 0.2390 0.2388 0.2383 0.2380 0.2380
3704.896272 0.2380 0.2380 0.2378 0.2373 0.2370
3709.340726 0.2370 0.2370 0.2370 0.2367 0.2357
3713.785180 0.2350 0.2350 0.2348 0.2343 0.2340
3718.229634 0.2340 0.2340 0.2340 0.2340 0.2340
3722.674088 0.2338 0.2334 0.2330 0.2330 0.2330
3727.118542 0.2330 0.2327 0.2317 0.2310 0.2310
3731.562997 0.2309 0.2304 0.2300 0.2300 0.2300
3736.007451 0.2300 0.2297 0.2287 0.2280 0.2280
3740.451905 0.2280 0.2280 0.2279 0.2274 0.2269
3744.896359 0.2264 0.2260 0.2260 0.2260 0.2260
3749.340813 0.2260 0.2260 0.2258 0.2248 0.2240
3753.785268 0.2240 0.2239 0.2234 0.2230 0.2230
3758.229722 0.2230 0.2230 0.2228 0.2218 0.2210
3762.674176 0.2210 0.2209 0.2204 0.2200 0.2200
3767.118630 0.2199 0.2194 0.2188 0.2178 0.2170
3771.563084 0.2170 0.2170 0.2170 0.2170 0.2170
3776.007538 0.2170 0.2170 0.2170 0.2170 0.2169
3780.451993 0.2164 0.2160 0.2160 0.2160 0.2160
3784.896447 0.2158 0.2148 0.2140 0.2140 0.2140
3789.340901 0.2140 0.2140 0.2140 0.2140 0.2140
3793.785355 0.2139 0.2134 0.2130 0.2130 0.2130
3798.229809 0.2130
##END=
