##TITLE=BARIUM CAPRYLATE
##JCAMP-DX=4.24
##DATA TYPE=INFRARED SPECTRUM
##CLASS=COBLENTZ
##OWNER=COBLENTZ SOCIETY
Collection (C) 2018 copyright by the U.S. Secretary of Commerce
on behalf of the United States of America. All rights reserved.
##DATE=Not specified, most likely prior to 1970
##MOLFORM=C16 H30 O4 Ba
##SOURCE REFERENCE=COBLENTZ NO. 1067
##$NIST ID=B6001067
##$NIST SOURCE=COBLENTZ
##$NIST IMAGE=cob1067
##SPECTROMETER/DATA SYSTEM=Not specified, most likely a prism, grating, or hybrid spectrometer.
##STATE=SOLID (KBr DISC)
##SAMPLING PROCEDURE=TRANSMISSION
##RESOLUTION=4
##DATA PROCESSING=DIGITIZED BY NIST FROM HARD COPY
##XUNITS=MICROMETERS
##YUNITS=TRANSMITTANCE
##XFACTOR=1.000000
##YFACTOR=1
##DELTAX=000.006674
##FIRSTX=2.02
##LASTX=16.0014
##FIRSTY=0.3
##MAXX=16.0014
##MINX=2.02
##MAXY=0.959
##MINY=0.011
##NPOINTS=2096
##XYDATA=(X++(Y..Y))
2.020000 0.3000 0.3020 0.3000 0.2980 0.2980
2.053383 0.3000 0.3000 0.3020 0.3050 0.3050
2.087000 0.3070 0.3070 0.3070 0.3070 0.3080
2.120383 0.3100 0.3130 0.3150 0.3180 0.3220
2.153000 0.3230 0.3250 0.3270 0.3280 0.3300
2.186383 0.3300 0.3320 0.3370 0.3380 0.3400
2.220000 0.3420 0.3430 0.3470 0.3500 0.3530
2.253383 0.3570 0.3600 0.3620 0.3630 0.3650
2.287000 0.3670 0.3680 0.3700 0.3700 0.3730
2.320383 0.3730 0.3750 0.3780 0.3800 0.3820
2.354000 0.3830 0.3850 0.3900 0.3930 0.3980
2.387383 0.3980 0.4000 0.4020 0.4040 0.4090
2.420000 0.4100 0.4140 0.4150 0.4170 0.4170
2.453383 0.4200 0.4220 0.4220 0.4220 0.4250
2.487000 0.4270 0.4300 0.4320 0.4340 0.4370
2.520383 0.4420 0.4490 0.4500 0.4540 0.4570
2.554000 0.4620 0.4650 0.4670 0.4670 0.4690
2.587383 0.4690 0.4700 0.4740 0.4790 0.4790
2.621000 0.4800 0.4800 0.4820 0.4820 0.4840
2.654383 0.4840 0.4840 0.4840 0.4840 0.4840
2.687000 0.4840 0.4820 0.4750 0.4720 0.4670
2.720383 0.4640 0.4600 0.4550 0.4520 0.4470
2.754000 0.4400 0.4350 0.4320 0.4290 0.4270
2.787383 0.4240 0.4190 0.4120 0.4090 0.4070
2.821000 0.4040 0.4020 0.4020 0.4020 0.4020
2.854383 0.4020 0.4040 0.4050 0.4050 0.4090
2.888000 0.4120 0.4140 0.4170 0.4220 0.4270
2.921383 0.4320 0.4370 0.4420 0.4470 0.4500
2.954000 0.4540 0.4620 0.4690 0.4720 0.4750
2.987383 0.4790 0.4820 0.4850 0.4870 0.4900
3.021000 0.4940 0.4970 0.4990 0.5050 0.5090
3.054383 0.5120 0.5150 0.5190 0.5220 0.5240
3.088000 0.5250 0.5270 0.5290 0.5320 0.5390
3.121383 0.5400 0.5440 0.5470 0.5490 0.5500
3.155000 0.5520 0.5540 0.5550 0.5570 0.5570
3.188383 0.5590 0.5590 0.5590 0.5590 0.5590
3.221000 0.5590 0.5590 0.5590 0.5570 0.5500
3.254383 0.5490 0.5400 0.5350 0.5270 0.5120
3.288000 0.5000 0.4870 0.4390 0.3730 0.3030
3.321383 0.2680 0.2330 0.1760 0.1380 0.1150
3.355000 0.0910 0.0710 0.0660 0.0600 0.0580
3.388383 0.0610 0.0930 0.1260 0.1560 0.1960
3.421000 0.2220 0.2620 0.2620 0.2500 0.2330
3.454383 0.2170 0.1950 0.1930 0.1960 0.2450
3.488000 0.3530 0.4150 0.4650 0.5390 0.5650
3.521383 0.5840 0.6010 0.6120 0.6210 0.6290
3.555000 0.6340 0.6420 0.6460 0.6510 0.6570
3.588383 0.6590 0.6620 0.6670 0.6710 0.6710
3.622000 0.6710 0.6720 0.6720 0.6740 0.6790
3.655383 0.6820 0.6860 0.6890 0.6920 0.6920
3.688000 0.6940 0.6990 0.6990 0.6990 0.6990
3.721383 0.6990 0.7010 0.7020 0.7040 0.7060
3.755000 0.7090 0.7090 0.7110 0.7140 0.7170
3.788383 0.7190 0.7220 0.7260 0.7270 0.7290
3.822000 0.7290 0.7310 0.7320 0.7340 0.7360
3.855383 0.7360 0.7390 0.7390 0.7410 0.7440
3.889000 0.7460 0.7490 0.7490 0.7520 0.7540
3.922383 0.7560 0.7570 0.7570 0.7590 0.7590
3.955000 0.7590 0.7590 0.7590 0.7590 0.7620
3.988383 0.7620 0.7640 0.7640 0.7660 0.7660
4.022000 0.7660 0.7660 0.7660 0.7660 0.7670
4.055383 0.7670 0.7690 0.7710 0.7740 0.7790
4.089000 0.7790 0.7810 0.7820 0.7820 0.7820
4.122383 0.7840 0.7840 0.7860 0.7870 0.7910
4.156000 0.7920 0.7920 0.7940 0.7940 0.7960
4.189383 0.7990 0.8010 0.8010 0.8010 0.8010
4.222000 0.8030 0.8030 0.8040 0.8060 0.8080
4.255383 0.8090 0.8110 0.8110 0.8110 0.8130
4.289000 0.8140 0.8160 0.8160 0.8180 0.8190
4.322383 0.8190 0.8210 0.8210 0.8240 0.8240
4.356000 0.8260 0.8290 0.8330 0.8330 0.8330
4.389383 0.8340 0.8340 0.8360 0.8380 0.8390
4.422000 0.8390 0.8410 0.8430 0.8440 0.8490
4.455383 0.8480 0.8490 0.8490 0.8490 0.8510
4.489000 0.8530 0.8530 0.8530 0.8530 0.8530
4.522383 0.8540 0.8530 0.8590 0.8610 0.8610
4.556000 0.8630 0.8630 0.8640 0.8660 0.8660
4.589383 0.8680 0.8710 0.8710 0.8690 0.8690
4.623000 0.8690 0.8690 0.8710 0.8730 0.8760
4.656383 0.8760 0.8760 0.8790 0.8790 0.8790
4.689000 0.8790 0.8790 0.8810 0.8830 0.8840
4.722383 0.8840 0.8860 0.8860 0.8860 0.8860
4.756000 0.8860 0.8860 0.8860 0.8880 0.8880
4.789383 0.8880 0.8890 0.8880 0.8890 0.8890
4.823000 0.8890 0.8910 0.8910 0.8930 0.8930
4.856383 0.8930 0.8930 0.8940 0.8940 0.8960
4.890000 0.8960 0.8960 0.8960 0.8990 0.8990
4.923383 0.8990 0.9010 0.9030 0.9040 0.9040
4.956000 0.9040 0.9030 0.9040 0.9040 0.9080
4.989383 0.9110 0.9130 0.9140 0.9160 0.9160
5.023000 0.9160 0.9160 0.9160 0.9160 0.9160
5.056383 0.9160 0.9160 0.9160 0.9160 0.9160
5.090000 0.9180 0.9180 0.9180 0.9190 0.9190
5.123383 0.9210 0.9230 0.9240 0.9240 0.9260
5.157000 0.9260 0.9260 0.9260 0.9280 0.9280
5.190383 0.9280 0.9290 0.9310 0.9310 0.9310
5.223000 0.9310 0.9310 0.9310 0.9330 0.9340
5.256383 0.9360 0.9360 0.9360 0.9390 0.9390
5.290000 0.9390 0.9390 0.9390 0.9380 0.9340
5.323383 0.9340 0.9360 0.9360 0.9390 0.9410
5.357000 0.9430 0.9440 0.9440 0.9440 0.9430
5.390383 0.9430 0.9430 0.9430 0.9430 0.9480
5.424000 0.9510 0.9510 0.9530 0.9530 0.9510
5.457383 0.9510 0.9510 0.9530 0.9560 0.9590
5.490000 0.9590 0.9580 0.9540 0.9510 0.9460
5.523383 0.9460 0.9460 0.9460 0.9460 0.9460
5.557000 0.9460 0.9460 0.9480 0.9510 0.9490
5.590383 0.9460 0.9410 0.9340 0.9330 0.9340
5.624000 0.9340 0.9360 0.9360 0.9340 0.9290
5.657383 0.9230 0.9180 0.9130 0.9060 0.9030
5.690000 0.9030 0.8960 0.8960 0.8930 0.8880
5.723383 0.8810 0.8740 0.8660 0.8610 0.8540
5.757000 0.8530 0.8530 0.8540 0.8590 0.8610
5.790383 0.8580 0.8560 0.8540 0.8530 0.8540
5.824000 0.8590 0.8740 0.8860 0.8890 0.8890
5.857383 0.8880 0.8790 0.8740 0.8740 0.8810
5.891000 0.8890 0.8930 0.8960 0.8960 0.8930
5.924383 0.8790 0.8790 0.8810 0.8830 0.8840
5.957000 0.8860 0.8840 0.8810 0.8790 0.8790
5.990383 0.8760 0.8710 0.8640 0.8580 0.8480
6.024000 0.8360 0.8310 0.8240 0.8240 0.8240
6.057383 0.8240 0.8230 0.8210 0.8130 0.8030
6.091000 0.7940 0.7910 0.7890 0.7890 0.7870
6.124383 0.7840 0.7810 0.7810 0.7790 0.7790
6.158000 0.7790 0.7790 0.7790 0.7810 0.7770
6.191383 0.7740 0.7690 0.7620 0.7590 0.7540
6.224000 0.7520 0.7490 0.7420 0.7390 0.7320
6.257383 0.7240 0.7160 0.7020 0.6890 0.6710
6.291000 0.6570 0.6470 0.6260 0.6070 0.5850
6.324383 0.5620 0.5300 0.5200 0.5100 0.4990
6.358000 0.4820 0.4650 0.4420 0.4290 0.3970
6.391383 0.3670 0.3420 0.3100 0.2920 0.2720
6.425000 0.2500 0.2380 0.2270 0.2050 0.1810
6.458383 0.1580 0.1350 0.1110 0.0850 0.0680
6.491000 0.0550 0.0400 0.0330 0.0300 0.0230
6.524383 0.0210 0.0200 0.0200 0.0160 0.0160
6.558000 0.0150 0.0130 0.0130 0.0130 0.0110
6.591383 0.0110 0.0130 0.0130 0.0150 0.0180
6.625000 0.0250 0.0310 0.0450 0.0560 0.0760
6.658383 0.1030 0.1260 0.1600 0.1880 0.2320
6.691000 0.2900 0.3300 0.3550 0.3730 0.3920
6.724383 0.4020 0.4020 0.4020 0.3820 0.3530
6.758000 0.3020 0.2750 0.2470 0.1880 0.1560
6.791383 0.1530 0.1510 0.1510 0.1550 0.1610
6.825000 0.1610 0.1610 0.1510 0.1310 0.1100
6.858383 0.0930 0.0760 0.0610 0.0510 0.0430
6.892000 0.0400 0.0350 0.0310 0.0300 0.0280
6.925383 0.0300 0.0310 0.0380 0.0460 0.0610
6.958000 0.0810 0.0980 0.1110 0.1230 0.1310
6.991383 0.1560 0.1700 0.1750 0.1750 0.1460
7.025000 0.1360 0.1160 0.0960 0.0780 0.0650
7.058383 0.0650 0.0650 0.0810 0.1260 0.1550
7.092000 0.1960 0.2280 0.3030 0.3330 0.3600
7.125383 0.3880 0.4100 0.4300 0.4450 0.4500
7.159000 0.4520 0.4520 0.4340 0.4000 0.3680
7.192383 0.3200 0.3050 0.3020 0.3030 0.3200
7.225000 0.3380 0.3570 0.3720 0.3930 0.4070
7.258383 0.4190 0.4320 0.4390 0.4440 0.4450
7.292000 0.4450 0.4450 0.4440 0.4450 0.4490
7.325383 0.4600 0.4850 0.5290 0.5570 0.5800
7.359000 0.6020 0.6260 0.6420 0.6470 0.6570
7.392383 0.6760 0.6770 0.6760 0.6740 0.6510
7.426000 0.6390 0.6310 0.6290 0.6310 0.6420
7.459383 0.6660 0.6740 0.6940 0.7070 0.7270
7.492000 0.7340 0.7440 0.7570 0.7660 0.7740
7.525383 0.7770 0.7860 0.7910 0.7910 0.7910
7.559000 0.7910 0.7910 0.7910 0.7740 0.7510
7.592383 0.7390 0.7270 0.6990 0.6720 0.6420
7.626000 0.6110 0.5940 0.5940 0.5940 0.6010
7.659383 0.6220 0.6420 0.6620 0.6770 0.6920
7.693000 0.7020 0.7070 0.7140 0.7210 0.7320
7.726383 0.7420 0.7610 0.7670 0.7710 0.7710
7.759000 0.7710 0.7670 0.7570 0.7520 0.7460
7.792383 0.7360 0.7270 0.7210 0.7210 0.7240
7.826000 0.7320 0.7440 0.7670 0.7860 0.7960
7.859383 0.8030 0.8110 0.8160 0.8210 0.8240
7.893000 0.8240 0.8230 0.8130 0.7990 0.7860
7.926383 0.7690 0.7540 0.7510 0.7510 0.7540
7.959000 0.7670 0.7820 0.7960 0.8110 0.8230
7.992383 0.8330 0.8410 0.8460 0.8460 0.8460
8.026000 0.8460 0.8440 0.8390 0.8290 0.8230
8.059383 0.8140 0.8040 0.8030 0.8030 0.8040
8.093000 0.8060 0.8130 0.8190 0.8240 0.8310
8.126383 0.8380 0.8440 0.8490 0.8560 0.8590
8.160000 0.8640 0.8660 0.8690 0.8730 0.8730
8.193383 0.8710 0.8660 0.8560 0.8440 0.8260
8.226000 0.8040 0.7760 0.7510 0.7470 0.7440
8.259383 0.7440 0.7460 0.7640 0.7790 0.7890
8.293000 0.7990 0.8090 0.8180 0.8240 0.8310
8.326383 0.8380 0.8440 0.8510 0.8560 0.8590
8.360000 0.8640 0.8660 0.8680 0.8680 0.8680
8.393383 0.8680 0.8660 0.8590 0.8590 0.8560
8.427000 0.8540 0.8530 0.8530 0.8530 0.8530
8.460383 0.8530 0.8540 0.8610 0.8660 0.8690
8.493000 0.8730 0.8740 0.8780 0.8810 0.8830
8.526383 0.8840 0.8840 0.8840 0.8860 0.8880
8.560000 0.8880 0.8880 0.8880 0.8910 0.8910
8.593383 0.8890 0.8910 0.8910 0.8910 0.8930
8.627000 0.8910 0.8910 0.8910 0.8910 0.8910
8.660383 0.8910 0.8890 0.8890 0.8890 0.8910
8.694000 0.8910 0.8910 0.8890 0.8890 0.8910
8.727383 0.8910 0.8910 0.8910 0.8910 0.8930
8.760000 0.8930 0.8940 0.8940 0.8940 0.8940
8.793383 0.8940 0.8940 0.8940 0.8940 0.8930
8.827000 0.8930 0.8880 0.8860 0.8830 0.8780
8.860383 0.8710 0.8680 0.8580 0.8530 0.8480
8.894000 0.8380 0.8280 0.8130 0.8030 0.7770
8.927383 0.7540 0.7420 0.7310 0.7060 0.6890
8.960000 0.6810 0.6790 0.6810 0.6990 0.7160
8.993383 0.7290 0.7420 0.7740 0.7870 0.7970
9.027000 0.8080 0.8180 0.8240 0.8290 0.8340
9.060383 0.8360 0.8430 0.8440 0.8490 0.8530
9.094000 0.8560 0.8590 0.8630 0.8630 0.8640
9.127383 0.8640 0.8660 0.8660 0.8680 0.8680
9.161000 0.8690 0.8690 0.8710 0.8710 0.8730
9.194383 0.8730 0.8730 0.8730 0.8730 0.8730
9.227000 0.8690 0.8680 0.8660 0.8630 0.8590
9.260383 0.8560 0.8540 0.8530 0.8510 0.8480
9.294000 0.8440 0.8410 0.8360 0.8340 0.8330
9.327383 0.8260 0.8190 0.8140 0.8060 0.8010
9.361000 0.7960 0.7920 0.7920 0.7920 0.7940
9.394383 0.7990 0.8030 0.8040 0.8090 0.8160
9.428000 0.8210 0.8260 0.8310 0.8360 0.8390
9.461383 0.8410 0.8430 0.8430 0.8430 0.8430
9.494000 0.8430 0.8430 0.8430 0.8430 0.8430
9.527383 0.8380 0.8260 0.8210 0.8160 0.8130
9.561000 0.8130 0.8130 0.8130 0.8160 0.8180
9.594383 0.8230 0.8290 0.8330 0.8330 0.8330
9.628000 0.8330 0.8330 0.8330 0.8330 0.8330
9.661383 0.8330 0.8240 0.8210 0.8160 0.8140
9.695000 0.8110 0.8090 0.8080 0.8080 0.8060
9.728383 0.8060 0.8090 0.8090 0.8110 0.8140
9.761000 0.8190 0.8240 0.8280 0.8330 0.8340
9.794383 0.8390 0.8410 0.8430 0.8430 0.8460
9.828000 0.8490 0.8530 0.8540 0.8580 0.8610
9.861383 0.8630 0.8630 0.8660 0.8690 0.8730
9.895000 0.8730 0.8740 0.8740 0.8740 0.8760
9.928383 0.8760 0.8760 0.8760 0.8740 0.8760
9.961000 0.8760 0.8760 0.8760 0.8780 0.8780
9.994383 0.8780 0.8780 0.8780 0.8790 0.8810
10.028000 0.8830 0.8840 0.8860 0.8880 0.8890
10.061383 0.8910 0.8940 0.8940 0.8960 0.8960
10.095000 0.8980 0.8980 0.8990 0.9010 0.9010
10.128383 0.9030 0.9030 0.9040 0.9040 0.9060
10.162000 0.9060 0.9060 0.9080 0.9080 0.9090
10.195383 0.9110 0.9110 0.9090 0.9110 0.9110
10.228000 0.9110 0.9130 0.9130 0.9160 0.9160
10.261383 0.9160 0.9180 0.9180 0.9180 0.9180
10.295000 0.9180 0.9180 0.9180 0.9180 0.9180
10.328383 0.9180 0.9160 0.9160 0.9160 0.9160
10.362000 0.9160 0.9140 0.9140 0.9140 0.9130
10.395383 0.9130 0.9130 0.9130 0.9130 0.9130
10.429000 0.9130 0.9130 0.9130 0.9130 0.9130
10.462383 0.9130 0.9130 0.9130 0.9130 0.9130
10.495000 0.9130 0.9130 0.9130 0.9130 0.9130
10.528383 0.9140 0.9140 0.9140 0.9140 0.9140
10.562000 0.9160 0.9160 0.9160 0.9160 0.9140
10.595383 0.9130 0.9080 0.9040 0.9030 0.9010
10.629000 0.8940 0.8890 0.8810 0.8740 0.8680
10.662383 0.8540 0.8360 0.8190 0.8030 0.7740
10.696000 0.7520 0.7420 0.7310 0.7090 0.6960
10.729383 0.6810 0.6770 0.6770 0.6790 0.6940
10.762000 0.7070 0.7320 0.7470 0.7670 0.7970
10.795383 0.8090 0.8210 0.8290 0.8380 0.8460
10.829000 0.8530 0.8590 0.8640 0.8710 0.8740
10.862383 0.8790 0.8830 0.8840 0.8840 0.8840
10.896000 0.8860 0.8860 0.8860 0.8840 0.8840
10.929383 0.8790 0.8760 0.8740 0.8740 0.8740
10.963000 0.8740 0.8760 0.8880 0.8890 0.8960
10.996383 0.8990 0.9010 0.9090 0.9090 0.9110
11.029000 0.9110 0.9110 0.9130 0.9130 0.9130
11.062383 0.9130 0.9130 0.9130 0.9130 0.9130
11.096000 0.9130 0.9130 0.9130 0.9140 0.9140
11.129383 0.9140 0.9140 0.9140 0.9140 0.9140
11.163000 0.9140 0.9130 0.9110 0.9080 0.9080
11.196383 0.9060 0.9040 0.9010 0.8980 0.8980
11.229000 0.8960 0.8960 0.8960 0.8960 0.8960
11.262383 0.8990 0.9010 0.9030 0.9040 0.9040
11.296000 0.9060 0.9080 0.9110 0.9130 0.9140
11.329383 0.9160 0.9180 0.9190 0.9210 0.9210
11.363000 0.9230 0.9210 0.9230 0.9240 0.9240
11.396383 0.9240 0.9240 0.9240 0.9260 0.9260
11.430000 0.9280 0.9280 0.9280 0.9280 0.9280
11.463383 0.9280 0.9280 0.9280 0.9280 0.9280
11.496000 0.9280 0.9280 0.9280 0.9280 0.9280
11.529383 0.9280 0.9280 0.9260 0.9260 0.9260
11.563000 0.9260 0.9260 0.9260 0.9240 0.9230
11.596383 0.9230 0.9180 0.9140 0.9130 0.9090
11.630000 0.9060 0.8990 0.8980 0.8860 0.8840
11.663383 0.8840 0.8840 0.8840 0.8840 0.8840
11.697000 0.8840 0.8860 0.8890 0.8940 0.8980
11.730383 0.9030 0.9040 0.9040 0.9040 0.9060
11.763000 0.9080 0.9080 0.9080 0.9090 0.9090
11.796383 0.9110 0.9110 0.9110 0.9110 0.9110
11.830000 0.9110 0.9110 0.9110 0.9110 0.9090
11.863383 0.9090 0.9080 0.9040 0.9040 0.9030
11.897000 0.9010 0.8990 0.8980 0.8960 0.8960
11.930383 0.8960 0.8960 0.8940 0.8940 0.8940
11.964000 0.8940 0.8940 0.8940 0.8930 0.8930
11.997383 0.8910 0.8910 0.8910 0.8910 0.8890
12.030000 0.8880 0.8880 0.8890 0.8880 0.8880
12.063383 0.8880 0.8880 0.8880 0.8880 0.8880
12.097000 0.8880 0.8880 0.8880 0.8880 0.8860
12.130383 0.8860 0.8860 0.8860 0.8860 0.8840
12.164000 0.8840 0.8840 0.8840 0.8840 0.8840
12.197383 0.8840 0.8840 0.8840 0.8840 0.8840
12.230000 0.8840 0.8840 0.8840 0.8840 0.8840
12.263383 0.8840 0.8840 0.8840 0.8840 0.8880
12.297000 0.8890 0.8930 0.8930 0.8930 0.8930
12.330383 0.8930 0.8930 0.8930 0.8930 0.8930
12.364000 0.8930 0.8930 0.8930 0.8930 0.8930
12.397383 0.8930 0.8910 0.8910 0.8910 0.8910
12.431000 0.8910 0.8910 0.8910 0.8910 0.8910
12.464383 0.8910 0.8910 0.8880 0.8880 0.8880
12.497000 0.8880 0.8880 0.8890 0.8880 0.8880
12.530383 0.8880 0.8880 0.8860 0.8880 0.8860
12.564000 0.8860 0.8860 0.8860 0.8860 0.8840
12.597383 0.8880 0.8860 0.8880 0.8880 0.8860
12.631000 0.8860 0.8860 0.8860 0.8860 0.8840
12.664383 0.8840 0.8840 0.8840 0.8840 0.8830
12.698000 0.8830 0.8830 0.8830 0.8810 0.8780
12.731383 0.8760 0.8760 0.8740 0.8740 0.8730
12.764000 0.8730 0.8710 0.8690 0.8680 0.8660
12.797383 0.8630 0.8590 0.8540 0.8540 0.8510
12.831000 0.8490 0.8460 0.8430 0.8390 0.8360
12.864383 0.8290 0.8240 0.8180 0.8090 0.8080
12.898000 0.7970 0.7860 0.7710 0.7590 0.7510
12.931383 0.7470 0.7440 0.7410 0.7360 0.7340
12.965000 0.7340 0.7340 0.7340 0.7420 0.7460
12.998383 0.7640 0.7740 0.7860 0.7940 0.8010
13.031000 0.8030 0.8060 0.8110 0.8130 0.8130
13.064383 0.8140 0.8160 0.8160 0.8180 0.8180
13.098000 0.8180 0.8190 0.8190 0.8190 0.8210
13.131383 0.8210 0.8190 0.8190 0.8180 0.8180
13.165000 0.8160 0.8160 0.8110 0.8090 0.8080
13.198383 0.8060 0.8040 0.8040 0.8040 0.8040
13.232000 0.8040 0.8040 0.8060 0.8040 0.8040
13.265383 0.8030 0.8030 0.8030 0.8060 0.8060
13.298000 0.8040 0.8040 0.8040 0.8040 0.8040
13.331383 0.8040 0.8040 0.8040 0.8030 0.8030
13.365000 0.8030 0.8030 0.8030 0.7990 0.7990
13.398383 0.7970 0.7990 0.7990 0.7970 0.7970
13.432000 0.7960 0.7960 0.7920 0.7920 0.7920
13.465383 0.7920 0.7910 0.7910 0.7910 0.7890
13.498000 0.7890 0.7910 0.7910 0.7890 0.7890
13.531383 0.7870 0.7860 0.7840 0.7820 0.7790
13.565000 0.7760 0.7720 0.7690 0.7660 0.7620
13.598383 0.7570 0.7520 0.7510 0.7490 0.7460
13.632000 0.7410 0.7370 0.7320 0.7270 0.7220
13.665383 0.7170 0.7140 0.7120 0.7090 0.7060
13.699000 0.6990 0.6940 0.6860 0.6770 0.6690
13.732383 0.6660 0.6570 0.6470 0.6340 0.6190
13.765000 0.6020 0.5870 0.5720 0.5590 0.5420
13.798383 0.5290 0.5150 0.5000 0.4950 0.4890
13.832000 0.4800 0.4720 0.4650 0.4650 0.4650
13.865383 0.4650 0.4650 0.4690 0.4770 0.4850
13.899000 0.4950 0.5140 0.5200 0.5290 0.5390
13.932383 0.5490 0.5500 0.5540 0.5620 0.5650
13.966000 0.5700 0.5720 0.5750 0.5770 0.5790
13.999383 0.5800 0.5820 0.5820 0.5820 0.5840
14.032000 0.5850 0.5850 0.5870 0.5850 0.5890
14.065383 0.5900 0.5890 0.5900 0.5900 0.5920
14.099000 0.5920 0.5940 0.5940 0.5940 0.5940
14.132383 0.5950 0.5950 0.5950 0.5970 0.5970
14.166000 0.5970 0.5990 0.5990 0.5990 0.5990
14.199383 0.6010 0.6010 0.6010 0.6010 0.5990
14.233000 0.5990 0.5990 0.5990 0.5990 0.5990
14.266383 0.5990 0.5990 0.5990 0.5990 0.5990
14.299000 0.5990 0.5970 0.5940 0.5940 0.5940
14.332383 0.5940 0.5940 0.5940 0.5940 0.5940
14.366000 0.5940 0.5990 0.5990 0.6020 0.6040
14.399383 0.6110 0.6160 0.6190 0.6240 0.6270
14.433000 0.6320 0.6370 0.6420 0.6490 0.6560
14.466383 0.6620 0.6690 0.6720 0.6790 0.6820
14.499000 0.6860 0.6910 0.6940 0.6990 0.7020
14.532383 0.7040 0.7060 0.7110 0.7140 0.7160
14.566000 0.7160 0.7190 0.7210 0.7210 0.7220
14.599383 0.7240 0.7260 0.7270 0.7290 0.7310
14.633000 0.7310 0.7310 0.7310 0.7320 0.7320
14.666383 0.7320 0.7340 0.7340 0.7360 0.7360
14.700000 0.7360 0.7340 0.7360 0.7360 0.7370
14.733383 0.7370 0.7390 0.7410 0.7410 0.7390
14.766000 0.7410 0.7410 0.7410 0.7410 0.7420
14.799383 0.7420 0.7420 0.7420 0.7420 0.7420
14.833000 0.7420 0.7420 0.7420 0.7420 0.7420
14.866383 0.7420 0.7420 0.7420 0.7420 0.7420
14.900000 0.7420 0.7420 0.7420 0.7420 0.7420
14.933383 0.7420 0.7420 0.7420 0.7420 0.7420
14.967000 0.7420 0.7420 0.7440 0.7440 0.7440
15.000383 0.7440 0.7420 0.7390 0.7360 0.7340
15.033000 0.7320 0.7310 0.7310 0.7270 0.7270
15.066383 0.7270 0.7270 0.7260 0.7260 0.7240
15.100000 0.7240 0.7240 0.7240 0.7240 0.7240
15.133383 0.7240 0.7240 0.7240 0.7220 0.7220
15.167000 0.7220 0.7220 0.7220 0.7210 0.7210
15.200383 0.7210 0.7210 0.7210 0.7190 0.7190
15.234000 0.7170 0.7160 0.7170 0.7160 0.7160
15.267383 0.7140 0.7140 0.7120 0.7120 0.7120
15.300000 0.7110 0.7110 0.7090 0.7090 0.7070
15.333383 0.7040 0.7040 0.7020 0.7020 0.7020
15.367000 0.7020 0.7020 0.7020 0.7020 0.7020
15.400383 0.7010 0.7010 0.7010 0.6990 0.6990
15.434000 0.6990 0.6990 0.6990 0.6990 0.6990
15.467383 0.6990 0.6990 0.6990 0.6990 0.6990
15.501000 0.6970 0.6960 0.6940 0.6920 0.6920
15.534383 0.6920 0.6920 0.6920 0.6920 0.6920
15.567000 0.6920 0.6920 0.6920 0.6920 0.6940
15.600383 0.6920 0.6920 0.6920 0.6920 0.6920
15.634000 0.6920 0.6920 0.6920 0.6910 0.6910
15.667383 0.6910 0.6910 0.6890 0.6910 0.6890
15.701000 0.6890 0.6890 0.6890 0.6870 0.6870
15.734383 0.6860 0.6840 0.6860 0.6860 0.6840
15.767000 0.6840 0.6820 0.6820 0.6820 0.6820
15.800383 0.6820 0.6810 0.6790 0.6770 0.6760
15.834000 0.6760 0.6760 0.6760 0.6740 0.6740
15.867383 0.6740 0.6740 0.6720 0.6740 0.6740
15.901000 0.6740 0.6740 0.6740 0.6740 0.6740
15.934383 0.6720 0.6720 0.6720 0.6710 0.6710
15.968000 0.6720 0.6720 0.6720 0.6720 0.6720
16.001383 0.6720
##END=
