##TITLE=PROLIXIN
##JCAMP-DX=4.24
##DATA TYPE=INFRARED SPECTRUM
##CLASS=COBLENTZ III
##ORIGIN=THE SQUIBB INSTITUTE FOR MEDICAL RESEARCH
##OWNER=Copyright (C) 1987 by the Coblentz Society
Collection (C) 2018 copyright by the U.S. Secretary of Commerce
on behalf of the United States of America. All rights reserved.
##DATE=1962/02/01
##NAMES=1-Piperazineethanol, 4-{3-[2-(trifluoromethyl)-10- phenothiazinyl]-propyl}-, dihydrochloride
##MOLFORM=C22 H28 Cl2 F3 N3 O S
##SOURCE REFERENCE=COBLENTZ NO. 5414
##$NIST ID=B6005414
##$NIST SOURCE=COBLENTZ
##$NIST IMAGE=cob5414
##SPECTROMETER/DATA SYSTEM=PERKIN-ELMER 21 (GRATING)
$$SPECTRAL CONTAMINATION DUE TO OIL AROUND 2900 CM^-^1
##STATE=SOLID (NUJOL MULL)
##RESOLUTION=2
##XUNITS=1/CM
##YUNITS=TRANSMITTANCE
##XFACTOR=1.0
##YFACTOR=1
##FIRSTX=657
##LASTX=4000
##FIRSTY=0.8421
##MAXX=4000
##MINX=657
##MAXY=0.9973
##MINY=0.1241
##NPOINTS=3344
##XYDATA=(X++(Y..Y))
657.000000 0.8421 0.8536 0.8687 0.8927 0.9096
662.000000 0.9151 0.9173 0.9231 0.9205 0.9222
667.000000 0.9242 0.9267 0.9297 0.9255 0.9198
672.000000 0.9134 0.9074 0.9032 0.9022 0.9048
677.000000 0.9171 0.9260 0.9336 0.9376 0.9387
682.000000 0.9396 0.9451 0.9406 0.9418 0.9431
687.000000 0.9437 0.9443 0.9448 0.9442 0.9428
692.000000 0.9419 0.9411 0.9403 0.9407 0.9397
697.000000 0.9365 0.9278 0.9125 0.8858 0.8824
702.000000 0.8920 0.9149 0.9298 0.9451 0.9507
707.000000 0.9525 0.9523 0.9515 0.9505 0.9499
712.000000 0.9485 0.9470 0.9447 0.9424 0.9395
717.000000 0.9362 0.9309 0.9181 0.8976 0.8640
722.000000 0.8303 0.8039 0.8030 0.8750 0.9035
727.000000 0.9028 0.8896 0.8831 0.8915 0.9202
732.000000 0.9360 0.9429 0.9449 0.9449 0.9450
737.000000 0.9448 0.9432 0.9442 0.9440 0.9438
742.000000 0.9432 0.9425 0.9419 0.9410 0.9401
747.000000 0.9393 0.9383 0.9372 0.9360 0.9348
752.000000 0.9331 0.9311 0.9283 0.9232 0.9147
757.000000 0.9022 0.8870 0.8662 0.8313 0.7587
762.000000 0.6036 0.4363 0.3125 0.3018 0.3008
767.000000 0.4285 0.5611 0.6933 0.7806 0.8200
772.000000 0.8731 0.9084 0.9235 0.9322 0.9398
777.000000 0.9443 0.9462 0.9508 0.9459 0.9440
782.000000 0.9417 0.9383 0.9335 0.9264 0.9156
787.000000 0.9024 0.8907 0.8890 0.8995 0.9360
792.000000 0.9614 0.9648 0.9667 0.9684 0.9697
797.000000 0.9707 0.9714 0.9722 0.9723 0.9723
802.000000 0.9723 0.9716 0.9709 0.9702 0.9694
807.000000 0.9685 0.9677 0.9666 0.9646 0.9625
812.000000 0.9604 0.9579 0.9546 0.9512 0.9469
817.000000 0.9396 0.9317 0.9193 0.8986 0.8525
822.000000 0.8246 0.7597 0.6542 0.5476 0.4797
827.000000 0.4792 0.7027 0.8351 0.8387 0.8328
832.000000 0.8192 0.8106 0.8122 0.8562 0.8940
837.000000 0.9128 0.9332 0.9452 0.9511 0.9545
842.000000 0.9563 0.9576 0.9587 0.9592 0.9654
847.000000 0.9593 0.9593 0.9592 0.9591 0.9587
852.000000 0.9583 0.9578 0.9565 0.9546 0.9512
857.000000 0.9466 0.9388 0.9279 0.9126 0.8946
862.000000 0.8594 0.7933 0.7273 0.6614 0.6044
867.000000 0.6018 0.6015 0.7330 0.8225 0.8749
872.000000 0.9009 0.9199 0.9310 0.9399 0.9461
877.000000 0.9490 0.9503 0.9521 0.9498 0.9479
882.000000 0.9439 0.9375 0.9308 0.9228 0.9216
887.000000 0.9225 0.9251 0.9286 0.9307 0.9302
892.000000 0.9274 0.9240 0.9201 0.9110 0.8953
897.000000 0.8670 0.8253 0.7837 0.7421 0.7007
902.000000 0.6717 0.6606 0.6617 0.7111 0.8137
907.000000 0.8555 0.8898 0.9136 0.9245 0.9297
912.000000 0.9340 0.9364 0.9387 0.9401 0.9412
917.000000 0.9422 0.9424 0.9437 0.9426 0.9422
922.000000 0.9418 0.9403 0.9381 0.9353 0.9309
927.000000 0.9262 0.9184 0.9093 0.8979 0.8766
932.000000 0.8538 0.8315 0.7983 0.7660 0.7555
937.000000 0.7563 0.7533 0.7821 0.8029 0.8236
942.000000 0.8443 0.8604 0.8618 0.8551 0.8395
947.000000 0.8193 0.7923 0.7654 0.7420 0.7397
952.000000 0.7628 0.8080 0.8527 0.8677 0.8689
957.000000 0.8690 0.8585 0.8436 0.8241 0.8007
962.000000 0.7772 0.7538 0.7355 0.7304 0.7350
967.000000 0.7725 0.8170 0.8611 0.8626 0.8629
972.000000 0.8585 0.8500 0.8390 0.8208 0.8007
977.000000 0.7830 0.7807 0.7971 0.8238 0.8505
982.000000 0.8772 0.9073 0.9264 0.9350 0.9403
987.000000 0.9432 0.9441 0.9448 0.9414 0.9446
992.000000 0.9445 0.9437 0.9427 0.9415 0.9399
997.000000 0.9381 0.9364 0.9342 0.9320 0.9297
1002.000000 0.9275 0.9224 0.9169 0.9109 0.9043
1007.000000 0.8975 0.8898 0.8779 0.8674 0.8548
1012.000000 0.8366 0.8118 0.7847 0.7748 0.7716
1017.000000 0.7694 0.7662 0.7621 0.7474 0.6875
1022.000000 0.6849 0.6834 0.6904 0.7196 0.7716
1027.000000 0.8235 0.8690 0.8727 0.8723 0.8708
1032.000000 0.8676 0.8576 0.8448 0.8340 0.8237
1037.000000 0.8146 0.8220 0.8408 0.8595 0.8782
1042.000000 0.8885 0.8910 0.8866 0.8832 0.8762
1047.000000 0.8671 0.8592 0.8552 0.8517 0.8495
1052.000000 0.8483 0.8414 0.8271 0.8124 0.7977
1057.000000 0.7835 0.7733 0.7693 0.7692 0.7704
1062.000000 0.7714 0.7706 0.7418 0.7101 0.6784
1067.000000 0.6468 0.6152 0.5887 0.5892 0.6057
1072.000000 0.6229 0.6277 0.6281 0.6023 0.5736
1077.000000 0.5450 0.5164 0.4882 0.4812 0.4971
1082.000000 0.5482 0.5878 0.5960 0.6064 0.6229
1087.000000 0.6512 0.6669 0.6755 0.6790 0.6793
1092.000000 0.6810 0.6752 0.6703 0.6625 0.6556
1097.000000 0.6461 0.6327 0.6198 0.6079 0.5937
1102.000000 0.5770 0.5502 0.5180 0.4265 0.3575
1107.000000 0.2885 0.2198 0.1511 0.1260 0.1241
1112.000000 0.1266 0.1345 0.1474 0.1740 0.2262
1117.000000 0.2791 0.3319 0.3846 0.4373 0.4898
1122.000000 0.5423 0.5878 0.5994 0.6014 0.6012
1127.000000 0.6020 0.6001 0.5988 0.5883 0.5697
1132.000000 0.5506 0.5430 0.5360 0.5205 0.4896
1137.000000 0.4582 0.4268 0.4048 0.4045 0.4565
1142.000000 0.5109 0.5651 0.6194 0.6734 0.7200
1147.000000 0.7286 0.7267 0.7095 0.6782 0.6468
1152.000000 0.6156 0.5843 0.5531 0.5220 0.4909
1157.000000 0.4599 0.4304 0.4285 0.4271 0.4714
1162.000000 0.5579 0.6442 0.7325 0.7901 0.8118
1167.000000 0.8262 0.8439 0.8615 0.8682 0.8719
1172.000000 0.8743 0.8761 0.8775 0.8782 0.8789
1177.000000 0.8795 0.8802 0.8807 0.8816 0.8837
1182.000000 0.8870 0.8953 0.9002 0.9022 0.9032
1187.000000 0.9028 0.9027 0.9017 0.9010 0.9002
1192.000000 0.8989 0.8976 0.8957 0.8936 0.8914
1197.000000 0.8881 0.8834 0.8788 0.8730 0.8651
1202.000000 0.8519 0.8363 0.8206 0.8043 0.7920
1207.000000 0.7831 0.7779 0.7764 0.7736 0.7840
1212.000000 0.8047 0.8255 0.8425 0.8472 0.8490
1217.000000 0.8486 0.8488 0.8474 0.8450 0.8422
1222.000000 0.8386 0.8348 0.8296 0.8234 0.8160
1227.000000 0.7952 0.7635 0.7319 0.7003 0.6689
1232.000000 0.6374 0.6060 0.5746 0.5457 0.5254
1237.000000 0.4956 0.4623 0.4290 0.3958 0.3626
1242.000000 0.3294 0.2964 0.2849 0.2848 0.2827
1247.000000 0.2935 0.3340 0.4058 0.4776 0.5397
1252.000000 0.5472 0.5396 0.5319 0.5243 0.5202
1257.000000 0.5226 0.5578 0.6010 0.6442 0.6733
1262.000000 0.6722 0.6717 0.6717 0.6720 0.6737
1267.000000 0.6777 0.6827 0.6950 0.7225 0.7408
1272.000000 0.7500 0.7548 0.7553 0.7567 0.7564
1277.000000 0.7560 0.7551 0.7540 0.7529 0.7517
1282.000000 0.7504 0.7490 0.7476 0.7461 0.7445
1287.000000 0.7408 0.7305 0.7189 0.7073 0.6957
1292.000000 0.6842 0.6817 0.6805 0.6862 0.7009
1297.000000 0.7168 0.7326 0.7485 0.7616 0.7618
1302.000000 0.7604 0.7423 0.7263 0.7103 0.6942
1307.000000 0.6782 0.6623 0.6464 0.6304 0.6145
1312.000000 0.5987 0.5852 0.5833 0.5829 0.5836
1317.000000 0.5847 0.5861 0.5875 0.5874 0.5867
1322.000000 0.5858 0.5839 0.5816 0.5632 0.5348
1327.000000 0.5174 0.5058 0.4956 0.4870 0.4677
1332.000000 0.4206 0.3692 0.3177 0.2665 0.2365
1337.000000 0.2305 0.2271 0.2254 0.2268 0.2563
1342.000000 0.2209 0.3488 0.3950 0.4410 0.4870
1347.000000 0.5329 0.5789 0.6247 0.6704 0.7160
1352.000000 0.7617 0.7936 0.7939 0.7941 0.7965
1357.000000 0.7928 0.7908 0.7856 0.7757 0.7647
1362.000000 0.7556 0.7486 0.7414 0.7339 0.7280
1367.000000 0.7239 0.7213 0.7178 0.7125 0.7065
1372.000000 0.7007 0.6962 0.6922 0.6890 0.6864
1377.000000 0.6852 0.6840 0.6846 0.6881 0.6915
1382.000000 0.6950 0.6984 0.7019 0.7053 0.7087
1387.000000 0.7122 0.7134 0.7131 0.7123 0.7107
1392.000000 0.7059 0.6984 0.6909 0.6834 0.6760
1397.000000 0.6685 0.6610 0.6584 0.6589 0.6629
1402.000000 0.6689 0.6748 0.6765 0.6762 0.6755
1407.000000 0.6745 0.6721 0.6661 0.6511 0.6145
1412.000000 0.5993 0.5833 0.5663 0.5504 0.5286
1417.000000 0.4941 0.4597 0.4253 0.3911 0.3567
1422.000000 0.3226 0.3022 0.3038 0.3103 0.3295
1427.000000 0.3518 0.3740 0.3962 0.4184 0.4405
1432.000000 0.4626 0.4847 0.5031 0.5077 0.5071
1437.000000 0.5088 0.4857 0.4722 0.4586 0.4451
1442.000000 0.4316 0.4181 0.4083 0.4035 0.4012
1447.000000 0.4046 0.4087 0.4129 0.4159 0.4152
1452.000000 0.4135 0.4118 0.4095 0.4048 0.3971
1457.000000 0.3884 0.3807 0.3736 0.3657 0.3576
1462.000000 0.3492 0.3437 0.3388 0.3351 0.3324
1467.000000 0.3302 0.3291 0.3333 0.3693 0.3269
1472.000000 0.4597 0.5048 0.5498 0.5948 0.6395
1477.000000 0.6689 0.6675 0.6656 0.6633 0.6612
1482.000000 0.6599 0.6589 0.6626 0.6773 0.6960
1487.000000 0.7146 0.7334 0.7518 0.7580 0.7603
1492.000000 0.7622 0.7645 0.7731 0.7856 0.7981
1497.000000 0.8106 0.8231 0.8355 0.8480 0.8611
1502.000000 0.8822 0.8999 0.9081 0.9150 0.9196
1507.000000 0.9223 0.9249 0.9273 0.9293 0.9310
1512.000000 0.9327 0.9339 0.9348 0.9356 0.9364
1517.000000 0.9387 0.9366 0.9366 0.9365 0.9362
1522.000000 0.9356 0.9351 0.9346 0.9340 0.9334
1527.000000 0.9328 0.9320 0.9315 0.9311 0.9308
1532.000000 0.9305 0.9302 0.9299 0.9299 0.9299
1537.000000 0.9298 0.9298 0.9298 0.9298 0.9297
1542.000000 0.9297 0.9295 0.9293 0.9291 0.9289
1547.000000 0.9287 0.9284 0.9280 0.9265 0.9249
1552.000000 0.9229 0.9199 0.9169 0.9136 0.9102
1557.000000 0.9069 0.9038 0.9011 0.8985 0.8958
1562.000000 0.8932 0.8905 0.8877 0.8849 0.8827
1567.000000 0.8807 0.8787 0.8721 0.8755 0.8758
1572.000000 0.8776 0.8799 0.8833 0.8875 0.8920
1577.000000 0.8963 0.8994 0.9000 0.8999 0.8996
1582.000000 0.8994 0.9028 0.8938 0.8844 0.8725
1587.000000 0.8630 0.8567 0.8528 0.8499 0.8472
1592.000000 0.8448 0.8376 0.8271 0.8163 0.8056
1597.000000 0.7948 0.7841 0.7734 0.7655 0.7627
1602.000000 0.7648 0.7631 0.7871 0.8008 0.8144
1607.000000 0.8280 0.8416 0.8552 0.8688 0.8823
1612.000000 0.8959 0.9094 0.9229 0.9363 0.9478
1617.000000 0.9488 0.9498 0.9510 0.9519 0.9526
1622.000000 0.9533 0.9541 0.9547 0.9552 0.9557
1627.000000 0.9563 0.9568 0.9573 0.9579 0.9586
1632.000000 0.9592 0.9599 0.9606 0.9613 0.9622
1637.000000 0.9631 0.9639 0.9648 0.9658 0.9667
1642.000000 0.9676 0.9685 0.9695 0.9705 0.9714
1647.000000 0.9722 0.9732 0.9740 0.9749 0.9757
1652.000000 0.9766 0.9773 0.9781 0.9788 0.9796
1657.000000 0.9803 0.9809 0.9815 0.9819 0.9825
1662.000000 0.9838 0.9834 0.9839 0.9842 0.9842
1667.000000 0.9842 0.9842 0.9842 0.9842 0.9837
1672.000000 0.9833 0.9829 0.9825 0.9820 0.9815
1677.000000 0.9810 0.9805 0.9800 0.9795 0.9791
1682.000000 0.9785 0.9781 0.9776 0.9771 0.9765
1687.000000 0.9761 0.9756 0.9751 0.9746 0.9742
1692.000000 0.9739 0.9738 0.9737 0.9735 0.9735
1697.000000 0.9734 0.9733 0.9732 0.9731 0.9730
1702.000000 0.9729 0.9728 0.9728 0.9727 0.9726
1707.000000 0.9725 0.9724 0.9722 0.9721 0.9721
1712.000000 0.9720 0.9719 0.9718 0.9717 0.9717
1717.000000 0.9717 0.9721 0.9723 0.9726 0.9729
1722.000000 0.9731 0.9735 0.9737 0.9740 0.9743
1727.000000 0.9747 0.9751 0.9758 0.9765 0.9772
1732.000000 0.9779 0.9786 0.9792 0.9799 0.9806
1737.000000 0.9813 0.9820 0.9829 0.9841 0.9852
1742.000000 0.9864 0.9875 0.9886 0.9897 0.9907
1747.000000 0.9908 0.9910 0.9912 0.9913 0.9915
1752.000000 0.9917 0.9918 0.9920 0.9921 0.9922
1757.000000 0.9922 0.9922 0.9922 0.9922 0.9922
1762.000000 0.9922 0.9922 0.9922 0.9922 0.9922
1767.000000 0.9923 0.9923 0.9923 0.9923 0.9923
1772.000000 0.9923 0.9923 0.9923 0.9923 0.9923
1777.000000 0.9923 0.9923 0.9924 0.9924 0.9925
1782.000000 0.9925 0.9925 0.9926 0.9926 0.9927
1787.000000 0.9928 0.9928 0.9929 0.9930 0.9931
1792.000000 0.9932 0.9933 0.9934 0.9936 0.9937
1797.000000 0.9937 0.9939 0.9940 0.9941 0.9942
1802.000000 0.9943 0.9944 0.9946 0.9946 0.9948
1807.000000 0.9950 0.9952 0.9954 0.9956 0.9958
1812.000000 0.9959 0.9962 0.9963 0.9965 0.9966
1817.000000 0.9968 0.9968 0.9970 0.9971 0.9972
1822.000000 0.9973 0.9972 0.9971 0.9970 0.9969
1827.000000 0.9967 0.9966 0.9964 0.9964 0.9962
1832.000000 0.9961 0.9959 0.9959 0.9957 0.9956
1837.000000 0.9954 0.9952 0.9950 0.9949 0.9947
1842.000000 0.9946 0.9944 0.9943 0.9942 0.9939
1847.000000 0.9938 0.9936 0.9935 0.9933 0.9932
1852.000000 0.9930 0.9929 0.9927 0.9925 0.9923
1857.000000 0.9922 0.9921 0.9919 0.9917 0.9914
1862.000000 0.9911 0.9909 0.9906 0.9904 0.9902
1867.000000 0.9899 0.9896 0.9894 0.9892 0.9889
1872.000000 0.9886 0.9882 0.9879 0.9875 0.9870
1877.000000 0.9866 0.9863 0.9858 0.9854 0.9851
1882.000000 0.9851 0.9851 0.9854 0.9856 0.9858
1887.000000 0.9860 0.9861 0.9863 0.9865 0.9867
1892.000000 0.9869 0.9872 0.9874 0.9877 0.9881
1897.000000 0.9885 0.9889 0.9894 0.9898 0.9901
1902.000000 0.9903 0.9904 0.9906 0.9908 0.9910
1907.000000 0.9912 0.9914 0.9915 0.9917 0.9919
1912.000000 0.9920 0.9922 0.9923 0.9924 0.9925
1917.000000 0.9926 0.9927 0.9928 0.9929 0.9930
1922.000000 0.9931 0.9932 0.9933 0.9934 0.9934
1927.000000 0.9934 0.9933 0.9933 0.9932 0.9931
1932.000000 0.9930 0.9930 0.9929 0.9928 0.9928
1937.000000 0.9926 0.9923 0.9919 0.9916 0.9912
1942.000000 0.9908 0.9905 0.9901 0.9897 0.9894
1947.000000 0.9890 0.9886 0.9881 0.9876 0.9870
1952.000000 0.9867 0.9867 0.9870 0.9874 0.9880
1957.000000 0.9885 0.9894 0.9911 0.9918 0.9922
1962.000000 0.9926 0.9930 0.9934 0.9939 0.9944
1967.000000 0.9949 0.9953 0.9956 0.9960 0.9964
1972.000000 0.9967 0.9968 0.9970 0.9972 0.9973
1977.000000 0.9973 0.9971 0.9970 0.9969 0.9967
1982.000000 0.9966 0.9965 0.9964 0.9962 0.9960
1987.000000 0.9959 0.9958 0.9956 0.9955 0.9954
1992.000000 0.9953 0.9951 0.9950 0.9950 0.9949
1997.000000 0.9947 0.9945 0.9944 0.9943 0.9941
2002.000000 0.9940 0.9938 0.9937 0.9935 0.9933
2007.000000 0.9932 0.9931 0.9929 0.9927 0.9926
2012.000000 0.9924 0.9922 0.9920 0.9917 0.9913
2017.000000 0.9910 0.9907 0.9903 0.9900 0.9897
2022.000000 0.9893 0.9889 0.9886 0.9883 0.9880
2027.000000 0.9877 0.9873 0.9870 0.9868 0.9865
2032.000000 0.9863 0.9861 0.9859 0.9857 0.9854
2037.000000 0.9852 0.9850 0.9848 0.9845 0.9843
2042.000000 0.9841 0.9839 0.9837 0.9835 0.9833
2047.000000 0.9831 0.9829 0.9827 0.9825 0.9823
2052.000000 0.9821 0.9820 0.9818 0.9816 0.9814
2057.000000 0.9813 0.9811 0.9809 0.9807 0.9806
2062.000000 0.9804 0.9802 0.9800 0.9798 0.9797
2067.000000 0.9795 0.9793 0.9791 0.9789 0.9787
2072.000000 0.9785 0.9783 0.9782 0.9780 0.9777
2077.000000 0.9775 0.9774 0.9772 0.9770 0.9769
2082.000000 0.9767 0.9764 0.9762 0.9761 0.9759
2087.000000 0.9757 0.9755 0.9753 0.9751 0.9749
2092.000000 0.9748 0.9746 0.9744 0.9740 0.9735
2097.000000 0.9731 0.9727 0.9723 0.9718 0.9714
2102.000000 0.9710 0.9706 0.9702 0.9698 0.9693
2107.000000 0.9689 0.9685 0.9681 0.9676 0.9672
2112.000000 0.9668 0.9664 0.9660 0.9656 0.9651
2117.000000 0.9647 0.9642 0.9638 0.9633 0.9629
2122.000000 0.9624 0.9619 0.9615 0.9610 0.9606
2127.000000 0.9601 0.9597 0.9593 0.9588 0.9583
2132.000000 0.9578 0.9574 0.9570 0.9565 0.9561
2137.000000 0.9556 0.9552 0.9547 0.9543 0.9537
2142.000000 0.9532 0.9526 0.9520 0.9514 0.9508
2147.000000 0.9502 0.9496 0.9490 0.9484 0.9478
2152.000000 0.9472 0.9466 0.9460 0.9455 0.9449
2157.000000 0.9443 0.9438 0.9433 0.9428 0.9422
2162.000000 0.9418 0.9413 0.9408 0.9403 0.9398
2167.000000 0.9393 0.9388 0.9383 0.9377 0.9372
2172.000000 0.9368 0.9363 0.9358 0.9352 0.9345
2177.000000 0.9338 0.9331 0.9324 0.9317 0.9309
2182.000000 0.9302 0.9294 0.9287 0.9280 0.9272
2187.000000 0.9265 0.9258 0.9251 0.9243 0.9236
2192.000000 0.9229 0.9222 0.9215 0.9207 0.9197
2197.000000 0.9188 0.9179 0.9170 0.9161 0.9152
2202.000000 0.9143 0.9134 0.9125 0.9116 0.9106
2207.000000 0.9097 0.9089 0.9080 0.9070 0.9061
2212.000000 0.9052 0.9043 0.9034 0.9024 0.9013
2217.000000 0.9002 0.8991 0.8981 0.8970 0.8960
2222.000000 0.8949 0.8938 0.8928 0.8917 0.8907
2227.000000 0.8897 0.8886 0.8876 0.8865 0.8855
2232.000000 0.8844 0.8833 0.8823 0.8812 0.8802
2237.000000 0.8792 0.8782 0.8771 0.8761 0.8751
2242.000000 0.8740 0.8730 0.8720 0.8710 0.8699
2247.000000 0.8689 0.8679 0.8666 0.8653 0.8638
2252.000000 0.8622 0.8607 0.8592 0.8576 0.8560
2257.000000 0.8545 0.8529 0.8511 0.8490 0.8470
2262.000000 0.8450 0.8430 0.8410 0.8390 0.8370
2267.000000 0.8350 0.8331 0.8305 0.8270 0.8234
2272.000000 0.8194 0.8155 0.8115 0.8077 0.8045
2277.000000 0.8012 0.7980 0.7948 0.7916 0.7884
2282.000000 0.7852 0.7820 0.7787 0.7754 0.7720
2287.000000 0.7686 0.7652 0.7618 0.7584 0.7551
2292.000000 0.7499 0.7432 0.7360 0.7283 0.7221
2297.000000 0.7191 0.7160 0.7131 0.7101 0.7070
2302.000000 0.7040 0.7008 0.6976 0.6937 0.6897
2307.000000 0.6857 0.6817 0.6777 0.6737 0.6691
2312.000000 0.6639 0.6586 0.6534 0.6486 0.6456
2317.000000 0.6425 0.6397 0.6369 0.6340 0.6312
2322.000000 0.6292 0.6274 0.6257 0.6241 0.6225
2327.000000 0.6209 0.6193 0.6177 0.6161 0.6146
2332.000000 0.6130 0.6114 0.6098 0.6082 0.6066
2337.000000 0.6047 0.6027 0.6007 0.5985 0.5964
2342.000000 0.5942 0.5921 0.5899 0.5877 0.5855
2347.000000 0.5833 0.5808 0.5783 0.5757 0.5732
2352.000000 0.5708 0.5690 0.5672 0.5665 0.5657
2357.000000 0.5650 0.5642 0.5635 0.5628 0.5621
2362.000000 0.5616 0.5610 0.5605 0.5600 0.5595
2367.000000 0.5591 0.5581 0.5567 0.5554 0.5539
2372.000000 0.5524 0.5500 0.5477 0.5452 0.5426
2377.000000 0.5397 0.5366 0.5328 0.5273 0.5217
2382.000000 0.5138 0.5060 0.4984 0.4908 0.4835
2387.000000 0.4765 0.4698 0.4644 0.4591 0.4537
2392.000000 0.4483 0.4399 0.4300 0.4220 0.4175
2397.000000 0.4131 0.4090 0.4050 0.4011 0.3972
2402.000000 0.3938 0.3908 0.3878 0.3848 0.3818
2407.000000 0.3792 0.3766 0.3742 0.3720 0.3698
2412.000000 0.3677 0.3655 0.3633 0.3611 0.3594
2417.000000 0.3581 0.3569 0.3562 0.3554 0.3553
2422.000000 0.3553 0.3552 0.3552 0.3551 0.3551
2427.000000 0.3551 0.3569 0.3554 0.3556 0.3558
2432.000000 0.3561 0.3564 0.3567 0.3571 0.3576
2437.000000 0.3583 0.3593 0.3603 0.3619 0.3636
2442.000000 0.3653 0.3670 0.3695 0.3753 0.3811
2447.000000 0.3833 0.3848 0.3863 0.3878 0.3894
2452.000000 0.3917 0.3941 0.3965 0.3990 0.4016
2457.000000 0.4040 0.4065 0.4090 0.4116 0.4144
2462.000000 0.4178 0.4213 0.4251 0.4290 0.4355
2467.000000 0.4446 0.4530 0.4540 0.4550 0.4557
2472.000000 0.4563 0.4568 0.4571 0.4575 0.4577
2477.000000 0.4580 0.4582 0.4585 0.4587 0.4589
2482.000000 0.4591 0.4593 0.4595 0.4596 0.4598
2487.000000 0.4600 0.4601 0.4603 0.4605 0.4608
2492.000000 0.4610 0.4613 0.4616 0.4618 0.4621
2497.000000 0.4624 0.4627 0.4629 0.4632 0.4634
2502.000000 0.4637 0.4640 0.4642 0.4644 0.4647
2507.000000 0.4650 0.4653 0.4657 0.4660 0.4664
2512.000000 0.4668 0.4672 0.4676 0.4679 0.4683
2517.000000 0.4687 0.4691 0.4697 0.4702 0.4706
2522.000000 0.4711 0.4716 0.4721 0.4726 0.4731
2527.000000 0.4736 0.4742 0.4749 0.4757 0.4764
2532.000000 0.4772 0.4779 0.4787 0.4795 0.4802
2537.000000 0.4810 0.4817 0.4825 0.4834 0.4843
2542.000000 0.4853 0.4863 0.4873 0.4884 0.4894
2547.000000 0.4905 0.4916 0.4929 0.4943 0.4957
2552.000000 0.4971 0.4986 0.5000 0.5013 0.5027
2557.000000 0.5042 0.5056 0.5071 0.5085 0.5099
2562.000000 0.5113 0.5127 0.5141 0.5155 0.5170
2567.000000 0.5186 0.5209 0.5231 0.5255 0.5279
2572.000000 0.5303 0.5337 0.5372 0.5425 0.5515
2577.000000 0.5605 0.5668 0.5718 0.5768 0.5817
2582.000000 0.5867 0.5914 0.5955 0.5996 0.6036
2587.000000 0.6077 0.6118 0.6154 0.6191 0.6227
2592.000000 0.6262 0.6298 0.6326 0.6349 0.6373
2597.000000 0.6377 0.6379 0.6381 0.6383 0.6385
2602.000000 0.6388 0.6390 0.6392 0.6394 0.6397
2607.000000 0.6399 0.6401 0.6403 0.6405 0.6408
2612.000000 0.6410 0.6412 0.6414 0.6415 0.6418
2617.000000 0.6420 0.6422 0.6424 0.6426 0.6427
2622.000000 0.6430 0.6432 0.6434 0.6435 0.6436
2627.000000 0.6438 0.6439 0.6441 0.6442 0.6444
2632.000000 0.6445 0.6446 0.6447 0.6449 0.6452
2637.000000 0.6454 0.6457 0.6461 0.6464 0.6467
2642.000000 0.6470 0.6473 0.6477 0.6480 0.6486
2647.000000 0.6496 0.6506 0.6522 0.6539 0.6557
2652.000000 0.6598 0.6642 0.6685 0.6723 0.6761
2657.000000 0.6800 0.6843 0.6886 0.6928 0.6970
2662.000000 0.7012 0.7054 0.7095 0.7135 0.7162
2667.000000 0.7185 0.7207 0.7230 0.7252 0.7274
2672.000000 0.7298 0.7323 0.7348 0.7374 0.7400
2677.000000 0.7424 0.7443 0.7462 0.7481 0.7500
2682.000000 0.7518 0.7534 0.7549 0.7564 0.7577
2687.000000 0.7590 0.7602 0.7615 0.7627 0.7640
2692.000000 0.7652 0.7664 0.7676 0.7688 0.7701
2697.000000 0.7713 0.7729 0.7744 0.7759 0.7773
2702.000000 0.7788 0.7803 0.7818 0.7833 0.7848
2707.000000 0.7863 0.7878 0.7892 0.7904 0.7916
2712.000000 0.7927 0.7939 0.7950 0.7962 0.7973
2717.000000 0.7984 0.7996 0.8007 0.8018 0.8030
2722.000000 0.8041 0.8053 0.8061 0.8067 0.8074
2727.000000 0.8080 0.8086 0.8093 0.8099 0.8106
2732.000000 0.8112 0.8118 0.8125 0.8131 0.8136
2737.000000 0.8141 0.8146 0.8149 0.8152 0.8154
2742.000000 0.8157 0.8159 0.8162 0.8191 0.8165
2747.000000 0.8166 0.8167 0.8167 0.8167 0.8168
2752.000000 0.8168 0.8168 0.8169 0.8169 0.8169
2757.000000 0.8167 0.8163 0.8159 0.8155 0.8150
2762.000000 0.8145 0.8141 0.8135 0.8130 0.8124
2767.000000 0.8118 0.8111 0.8102 0.8090 0.8078
2772.000000 0.8064 0.8047 0.8030 0.8014 0.8000
2777.000000 0.7986 0.7972 0.7958 0.7944 0.7929
2782.000000 0.7914 0.7898 0.7883 0.7867 0.7851
2787.000000 0.7835 0.7817 0.7799 0.7782 0.7762
2792.000000 0.7742 0.7722 0.7704 0.7685 0.7667
2797.000000 0.7650 0.7633 0.7616 0.7591 0.7558
2802.000000 0.7524 0.7470 0.7371 0.7273 0.7174
2807.000000 0.7076 0.6978 0.6879 0.6782 0.6684
2812.000000 0.6586 0.6488 0.6390 0.6292 0.6195
2817.000000 0.6097 0.6000 0.5903 0.5805 0.5708
2822.000000 0.5610 0.5513 0.5416 0.5319 0.5222
2827.000000 0.5125 0.5029 0.4932 0.4835 0.4738
2832.000000 0.4642 0.4545 0.4449 0.4368 0.4302
2837.000000 0.4237 0.4186 0.4170 0.4154 0.4138
2842.000000 0.4122 0.4106 0.4090 0.4072 0.4054
2847.000000 0.4035 0.4021 0.4010 0.3998 0.3988
2852.000000 0.3981 0.3974 0.3967 0.3960 0.3953
2857.000000 0.3946 0.3940 0.3934 0.3929 0.3924
2862.000000 0.3919 0.3914 0.3909 0.3905 0.3900
2867.000000 0.3895 0.3894 0.3892 0.3890 0.3889
2872.000000 0.3888 0.3888 0.3887 0.3886 0.3885
2877.000000 0.3884 0.3884 0.3884 0.3884 0.3884
2882.000000 0.3884 0.3884 0.3884 0.3884 0.3884
2887.000000 0.3885 0.3885 0.3885 0.3885 0.3886
2892.000000 0.3887 0.3888 0.3889 0.3890 0.3891
2897.000000 0.3894 0.3902 0.3910 0.3919 0.3927
2902.000000 0.3935 0.3943 0.3952 0.3962 0.3973
2907.000000 0.3984 0.3995 0.4006 0.4017 0.4028
2912.000000 0.4040 0.4052 0.4065 0.4083 0.4101
2917.000000 0.4119 0.4137 0.4155 0.4173 0.4193
2922.000000 0.4216 0.4238 0.4260 0.4282 0.4304
2927.000000 0.4327 0.4352 0.4379 0.4406 0.4433
2932.000000 0.4462 0.4490 0.4519 0.4544 0.4569
2937.000000 0.4594 0.4617 0.4638 0.4659 0.4680
2942.000000 0.4701 0.4721 0.4742 0.4764 0.4786
2947.000000 0.4809 0.4832 0.4855 0.4878 0.4901
2952.000000 0.4925 0.4949 0.4974 0.4998 0.5031
2957.000000 0.5065 0.5099 0.5133 0.5168 0.5203
2962.000000 0.5239 0.5278 0.5317 0.5357 0.5409
2967.000000 0.5480 0.5551 0.5622 0.5661 0.5696
2972.000000 0.5732 0.5874 0.6217 0.6559 0.6902
2977.000000 0.7008 0.7059 0.7109 0.7157 0.7198
2982.000000 0.7238 0.7279 0.7309 0.7336 0.7362
2987.000000 0.7388 0.7415 0.7441 0.7467 0.7493
2992.000000 0.7519 0.7545 0.7571 0.7605 0.7640
2997.000000 0.7674 0.7709 0.7745 0.7782 0.7818
3002.000000 0.7854 0.7890 0.7926 0.7961 0.7995
3007.000000 0.8030 0.8064 0.8096 0.8127 0.8157
3012.000000 0.8188 0.8217 0.8246 0.8275 0.8298
3017.000000 0.8311 0.8323 0.8336 0.8344 0.8351
3022.000000 0.8357 0.8364 0.8370 0.8376 0.8383
3027.000000 0.8388 0.8393 0.8398 0.8403 0.8407
3032.000000 0.8410 0.8413 0.8417 0.8420 0.8423
3037.000000 0.8426 0.8430 0.8433 0.8436 0.8439
3042.000000 0.8442 0.8444 0.8446 0.8448 0.8450
3047.000000 0.8452 0.8454 0.8456 0.8457 0.8459
3052.000000 0.8461 0.8462 0.8464 0.8466 0.8467
3057.000000 0.8469 0.8470 0.8472 0.8474 0.8474
3062.000000 0.8475 0.8475 0.8476 0.8476 0.8476
3067.000000 0.8476 0.8478 0.8477 0.8477 0.8477
3072.000000 0.8477 0.8476 0.8475 0.8475 0.8473
3077.000000 0.8471 0.8470 0.8468 0.8467 0.8466
3082.000000 0.8464 0.8463 0.8460 0.8458 0.8455
3087.000000 0.8453 0.8449 0.8446 0.8442 0.8439
3092.000000 0.8435 0.8431 0.8428 0.8423 0.8418
3097.000000 0.8413 0.8408 0.8403 0.8399 0.8394
3102.000000 0.8389 0.8385 0.8380 0.8375 0.8370
3107.000000 0.8363 0.8356 0.8350 0.8343 0.8336
3112.000000 0.8329 0.8322 0.8315 0.8308 0.8301
3117.000000 0.8294 0.8287 0.8280 0.8272 0.8265
3122.000000 0.8257 0.8249 0.8241 0.8233 0.8225
3127.000000 0.8217 0.8209 0.8201 0.8192 0.8183
3132.000000 0.8174 0.8164 0.8153 0.8141 0.8129
3137.000000 0.8117 0.8105 0.8093 0.8081 0.8069
3142.000000 0.8057 0.8045 0.8033 0.8021 0.8009
3147.000000 0.7997 0.7985 0.7973 0.7961 0.7949
3152.000000 0.7937 0.7925 0.7910 0.7896 0.7882
3157.000000 0.7867 0.7853 0.7839 0.7824 0.7808
3162.000000 0.7787 0.7767 0.7747 0.7725 0.7701
3167.000000 0.7678 0.7654 0.7632 0.7611 0.7590
3172.000000 0.7570 0.7550 0.7531 0.7511 0.7492
3177.000000 0.7470 0.7443 0.7415 0.7388 0.7352
3182.000000 0.7299 0.7246 0.7193 0.7140 0.7088
3187.000000 0.7036 0.6983 0.6931 0.6878 0.6826
3192.000000 0.6773 0.6721 0.6668 0.6616 0.6563
3197.000000 0.6511 0.6459 0.6407 0.6355 0.6303
3202.000000 0.6251 0.6198 0.6146 0.6094 0.6042
3207.000000 0.5990 0.5938 0.5886 0.5834 0.5783
3212.000000 0.5731 0.5679 0.5628 0.5576 0.5524
3217.000000 0.5473 0.5421 0.5370 0.5318 0.5267
3222.000000 0.5215 0.5164 0.5112 0.5061 0.5014
3227.000000 0.4985 0.4957 0.4928 0.4900 0.4888
3232.000000 0.4875 0.4863 0.4850 0.4841 0.4832
3237.000000 0.4823 0.4814 0.4805 0.4796 0.4788
3242.000000 0.4779 0.4772 0.4767 0.4761 0.4756
3247.000000 0.4750 0.4746 0.4741 0.4737 0.4732
3252.000000 0.4731 0.4729 0.4727 0.4726 0.4726
3257.000000 0.4726 0.4726 0.4726 0.4740 0.4771
3262.000000 0.4800 0.4829 0.4869 0.4935 0.5001
3267.000000 0.5066 0.5132 0.5198 0.5264 0.5330
3272.000000 0.5396 0.5462 0.5527 0.5593 0.5658
3277.000000 0.5712 0.5752 0.5792 0.5832 0.5867
3282.000000 0.5875 0.5883 0.5890 0.5898 0.5906
3287.000000 0.5914 0.5922 0.5930 0.5938 0.5945
3292.000000 0.5953 0.5961 0.5969 0.5979 0.5989
3297.000000 0.5998 0.6008 0.6018 0.6028 0.6038
3302.000000 0.6047 0.6057 0.6068 0.6078 0.6088
3307.000000 0.6099 0.6115 0.6131 0.6148 0.6164
3312.000000 0.6194 0.6228 0.6262 0.6296 0.6341
3317.000000 0.6407 0.6473 0.6538 0.6604 0.6641
3322.000000 0.6677 0.6712 0.6748 0.6860 0.7038
3327.000000 0.7217 0.7396 0.7559 0.7594 0.7628
3332.000000 0.7663 0.7697 0.7720 0.7737 0.7754
3337.000000 0.7771 0.7787 0.7798 0.7809 0.7820
3342.000000 0.7831 0.7842 0.7853 0.7864 0.7875
3347.000000 0.7886 0.7893 0.7901 0.7909 0.7917
3352.000000 0.7925 0.7932 0.7940 0.7948 0.7956
3357.000000 0.7964 0.7971 0.7979 0.7987 0.7996
3362.000000 0.8005 0.8015 0.8024 0.8037 0.8056
3367.000000 0.8076 0.8096 0.8115 0.8157 0.8208
3372.000000 0.8259 0.8310 0.8356 0.8379 0.8403
3377.000000 0.8426 0.8450 0.8471 0.8492 0.8513
3382.000000 0.8534 0.8554 0.8574 0.8594 0.8613
3387.000000 0.8633 0.8651 0.8667 0.8684 0.8700
3392.000000 0.8716 0.8732 0.8746 0.8761 0.8776
3397.000000 0.8791 0.8802 0.8814 0.8826 0.8837
3402.000000 0.8845 0.8851 0.8857 0.8863 0.8869
3407.000000 0.8874 0.8880 0.8886 0.8892 0.8898
3412.000000 0.8904 0.8910 0.8916 0.8922 0.8928
3417.000000 0.8933 0.8939 0.8945 0.8951 0.8957
3422.000000 0.8963 0.8970 0.8976 0.8983 0.8989
3427.000000 0.8995 0.9002 0.9008 0.9014 0.9020
3432.000000 0.9026 0.9031 0.9037 0.9042 0.9046
3437.000000 0.9051 0.9055 0.9059 0.9064 0.9069
3442.000000 0.9073 0.9078 0.9083 0.9087 0.9091
3447.000000 0.9096 0.9100 0.9104 0.9107 0.9110
3452.000000 0.9113 0.9116 0.9118 0.9119 0.9120
3457.000000 0.9121 0.9123 0.9124 0.9125 0.9126
3462.000000 0.9128 0.9129 0.9130 0.9131 0.9133
3467.000000 0.9134 0.9135 0.9137 0.9138 0.9140
3472.000000 0.9141 0.9142 0.9142 0.9142 0.9142
3477.000000 0.9142 0.9142 0.9142 0.9142 0.9142
3482.000000 0.9141 0.9141 0.9141 0.9141 0.9141
3487.000000 0.9140 0.9140 0.9140 0.9140 0.9140
3492.000000 0.9139 0.9139 0.9139 0.9139 0.9139
3497.000000 0.9143 0.9139 0.9139 0.9139 0.9139
3502.000000 0.9138 0.9138 0.9138 0.9138 0.9138
3507.000000 0.9138 0.9138 0.9138 0.9138 0.9138
3512.000000 0.9137 0.9137 0.9137 0.9137 0.9137
3517.000000 0.9136 0.9136 0.9136 0.9136 0.9136
3522.000000 0.9135 0.9135 0.9135 0.9135 0.9135
3527.000000 0.9134 0.9134 0.9134 0.9134 0.9134
3532.000000 0.9133 0.9133 0.9133 0.9133 0.9133
3537.000000 0.9132 0.9132 0.9132 0.9132 0.9132
3542.000000 0.9131 0.9131 0.9130 0.9130 0.9130
3547.000000 0.9129 0.9129 0.9129 0.9129 0.9129
3552.000000 0.9128 0.9128 0.9128 0.9128 0.9128
3557.000000 0.9127 0.9127 0.9127 0.9127 0.9127
3562.000000 0.9126 0.9126 0.9125 0.9125 0.9125
3567.000000 0.9124 0.9124 0.9123 0.9123 0.9123
3572.000000 0.9122 0.9122 0.9121 0.9121 0.9121
3577.000000 0.9120 0.9120 0.9119 0.9118 0.9118
3582.000000 0.9117 0.9117 0.9117 0.9116 0.9116
3587.000000 0.9115 0.9115 0.9115 0.9114 0.9114
3592.000000 0.9113 0.9113 0.9113 0.9113 0.9113
3597.000000 0.9113 0.9113 0.9113 0.9113 0.9113
3602.000000 0.9113 0.9113 0.9113 0.9113 0.9113
3607.000000 0.9113 0.9113 0.9113 0.9113 0.9113
3612.000000 0.9113 0.9113 0.9113 0.9113 0.9113
3617.000000 0.9113 0.9113 0.9113 0.9113 0.9113
3622.000000 0.9113 0.9113 0.9114 0.9114 0.9114
3627.000000 0.9114 0.9114 0.9114 0.9114 0.9114
3632.000000 0.9114 0.9114 0.9114 0.9114 0.9114
3637.000000 0.9114 0.9114 0.9114 0.9114 0.9114
3642.000000 0.9114 0.9114 0.9114 0.9114 0.9114
3647.000000 0.9114 0.9114 0.9114 0.9114 0.9114
3652.000000 0.9114 0.9114 0.9114 0.9114 0.9114
3657.000000 0.9114 0.9114 0.9114 0.9114 0.9114
3662.000000 0.9114 0.9114 0.9114 0.9114 0.9114
3667.000000 0.9114 0.9114 0.9114 0.9114 0.9114
3672.000000 0.9115 0.9115 0.9115 0.9115 0.9115
3677.000000 0.9115 0.9115 0.9115 0.9115 0.9115
3682.000000 0.9115 0.9115 0.9115 0.9115 0.9115
3687.000000 0.9115 0.9114 0.9114 0.9114 0.9114
3692.000000 0.9114 0.9113 0.9113 0.9113 0.9113
3697.000000 0.9113 0.9113 0.9112 0.9112 0.9111
3702.000000 0.9111 0.9111 0.9110 0.9110 0.9110
3707.000000 0.9109 0.9109 0.9109 0.9108 0.9108
3712.000000 0.9108 0.9108 0.9108 0.9107 0.9107
3717.000000 0.9107 0.9106 0.9106 0.9106 0.9105
3722.000000 0.9105 0.9105 0.9105 0.9105 0.9104
3727.000000 0.9104 0.9104 0.9103 0.9103 0.9103
3732.000000 0.9102 0.9102 0.9102 0.9102 0.9102
3737.000000 0.9101 0.9101 0.9101 0.9100 0.9100
3742.000000 0.9100 0.9099 0.9099 0.9099 0.9099
3747.000000 0.9099 0.9099 0.9098 0.9097 0.9096
3752.000000 0.9096 0.9095 0.9094 0.9094 0.9093
3757.000000 0.9092 0.9091 0.9091 0.9090 0.9089
3762.000000 0.9089 0.9088 0.9087 0.9087 0.9086
3767.000000 0.9085 0.9084 0.9084 0.9083 0.9082
3772.000000 0.9082 0.9081 0.9080 0.9080 0.9079
3777.000000 0.9078 0.9077 0.9077 0.9076 0.9075
3782.000000 0.9075 0.9074 0.9073 0.9073 0.9072
3787.000000 0.9071 0.9070 0.9070 0.9069 0.9068
3792.000000 0.9068 0.9067 0.9066 0.9066 0.9065
3797.000000 0.9064 0.9063 0.9063 0.9062 0.9061
3802.000000 0.9059 0.9058 0.9057 0.9056 0.9054
3807.000000 0.9053 0.9052 0.9050 0.9049 0.9047
3812.000000 0.9046 0.9045 0.9044 0.9043 0.9041
3817.000000 0.9040 0.9039 0.9037 0.9036 0.9035
3822.000000 0.9033 0.9032 0.9031 0.9030 0.9028
3827.000000 0.9027 0.9026 0.9025 0.9023 0.9022
3832.000000 0.9021 0.9019 0.9018 0.9017 0.9016
3837.000000 0.9014 0.9013 0.9012 0.9011 0.9009
3842.000000 0.9008 0.9007 0.9005 0.9004 0.9003
3847.000000 0.9002 0.9000 0.8999 0.8998 0.8997
3852.000000 0.8996 0.8994 0.8993 0.8992 0.8990
3857.000000 0.8989 0.8988 0.8986 0.8985 0.8984
3862.000000 0.8982 0.8981 0.8979 0.8978 0.8977
3867.000000 0.8976 0.8975 0.8974 0.8972 0.8971
3872.000000 0.8970 0.8968 0.8967 0.8966 0.8964
3877.000000 0.8963 0.8962 0.8960 0.8959 0.8958
3882.000000 0.8956 0.8955 0.8954 0.8953 0.8951
3887.000000 0.8950 0.8949 0.8947 0.8946 0.8945
3892.000000 0.8943 0.8942 0.8941 0.8939 0.8938
3897.000000 0.8937 0.8936 0.8935 0.8934 0.8932
3902.000000 0.8931 0.8930 0.8928 0.8927 0.8926
3907.000000 0.8925 0.8923 0.8922 0.8921 0.8919
3912.000000 0.8918 0.8917 0.8915 0.8914 0.8913
3917.000000 0.8911 0.8910 0.8909 0.8908 0.8906
3922.000000 0.8905 0.8904 0.8902 0.8901 0.8900
3927.000000 0.8899 0.8898 0.8897 0.8895 0.8894
3932.000000 0.8893 0.8892 0.8891 0.8890 0.8889
3937.000000 0.8888 0.8886 0.8885 0.8884 0.8883
3942.000000 0.8882 0.8881 0.8880 0.8879 0.8878
3947.000000 0.8877 0.8876 0.8875 0.8874 0.8873
3952.000000 0.8872 0.8871 0.8869 0.8868 0.8867
3957.000000 0.8866 0.8865 0.8864 0.8863 0.8862
3962.000000 0.8861 0.8860 0.8859 0.8858 0.8857
3967.000000 0.8856 0.8855 0.8854 0.8853 0.8852
3972.000000 0.8851 0.8850 0.8849 0.8848 0.8847
3977.000000 0.8846 0.8845 0.8844 0.8842 0.8841
3982.000000 0.8840 0.8840 0.8839 0.8838 0.8837
3987.000000 0.8836 0.8835 0.8834 0.8832 0.8831
3992.000000 0.8830 0.8829 0.8828 0.8827 0.8826
3997.000000 0.8825 0.8824 0.8823 0.8823
##END=
