##TITLE=Ergotamine, dihydro, methanesulfonate (salt)
##JCAMP-DX=4.24
##DATA TYPE=INFRARED SPECTRUM
##CLASS=COBLENTZ
##ORIGIN=SMITH KLINE & FRENCH LABS.
##OWNER=Copyright (C) 1987 by the Coblentz Society
Collection (C) 2018 copyright by the U.S. Secretary of Commerce
on behalf of the United States of America. All rights reserved.
##DATE=1965/11/15
##NAMES=5'-benzyl-12'-hydroxy-2'-methyl-3',6',18-trioxo-9,10-dihydroergotaman methanesulfonate
##MOLFORM=C34 H41 N5 O8 S
##SOURCE REFERENCE=COBLENTZ NO. 9109
##$NIST ID=B6009109
##$NIST SOURCE=COBLENTZ
##$NIST IMAGE=cob9109
##SPECTROMETER/DATA SYSTEM=PERKIN-ELMER 21 (GRATING)
##INSTRUMENT PARAMETERS=NaCl PRISM
##STATE=SOLID (OIL MULL)
$$SPECTRAL CONTAMINATION DUE TO OIL AROUND 2900, 1450, 1380 CM^-^1
##SAMPLING PROCEDURE=TRANSMISSION
##RESOLUTION=2
##DATA PROCESSING=DIGITIZED BY COBLENTZ SOCIETY (BATCH II) FROM HARD COPY
##XUNITS=1/CM
##YUNITS=TRANSMITTANCE
##XFACTOR=1.0
##YFACTOR=1
##FIRSTX=644
##LASTX=4000
##FIRSTY=0.4337
##MAXX=4000
##MINX=644
##MAXY=0.8602
##MINY=0.0463
##NPOINTS=3357
##XYDATA=(X++(Y..Y))
644.000000 0.4337 0.4368 0.4374 0.4362 0.4357
649.000000 0.4362 0.4383 0.4407 0.4425 0.4421
654.000000 0.4407 0.4385 0.4380 0.4378 0.4369
659.000000 0.4359 0.4359 0.4382 0.4399 0.4395
664.000000 0.4438 0.4561 0.4600 0.4564 0.4512
669.000000 0.4483 0.4482 0.4489 0.4534 0.4570
674.000000 0.4523 0.4531 0.4545 0.4566 0.4588
679.000000 0.4601 0.4613 0.4618 0.4624 0.4628
684.000000 0.4631 0.4631 0.4630 0.4622 0.4608
689.000000 0.4585 0.4562 0.4519 0.4471 0.4419
694.000000 0.4368 0.4296 0.4215 0.4143 0.4083
699.000000 0.4043 0.4072 0.4095 0.4168 0.4270
704.000000 0.4368 0.4492 0.4625 0.4757 0.4852
709.000000 0.4932 0.5000 0.5041 0.5062 0.5095
714.000000 0.5127 0.5150 0.5153 0.5157 0.5160
719.000000 0.5163 0.5167 0.5170 0.5177 0.5187
724.000000 0.5196 0.5197 0.5213 0.5173 0.5154
729.000000 0.5132 0.5084 0.5014 0.4945 0.4850
734.000000 0.4743 0.4646 0.4579 0.4550 0.4535
739.000000 0.4545 0.4584 0.4609 0.4615 0.4605
744.000000 0.4588 0.4567 0.4530 0.4447 0.4429
749.000000 0.4402 0.4282 0.4196 0.4195 0.4201
754.000000 0.4208 0.4211 0.4208 0.4206 0.4149
759.000000 0.4095 0.4078 0.4092 0.4327 0.4663
764.000000 0.4922 0.5028 0.5095 0.5139 0.5148
769.000000 0.5175 0.5123 0.5088 0.5042 0.4989
774.000000 0.4935 0.4879 0.4836 0.4800 0.4776
779.000000 0.4740 0.4788 0.4824 0.4877 0.4946
784.000000 0.5029 0.5118 0.5229 0.5350 0.5493
789.000000 0.5692 0.5956 0.6303 0.6458 0.6560
794.000000 0.6634 0.6704 0.6763 0.6779 0.6814
799.000000 0.6780 0.6768 0.6738 0.6706 0.6655
804.000000 0.6602 0.6551 0.6508 0.6469 0.6446
809.000000 0.6433 0.6415 0.6476 0.6505 0.6546
814.000000 0.6589 0.6652 0.6722 0.6810 0.6876
819.000000 0.6909 0.6939 0.6969 0.7015 0.7045
824.000000 0.7064 0.7063 0.7059 0.7110 0.7049
829.000000 0.7043 0.7035 0.7021 0.6995 0.6970
834.000000 0.6931 0.6887 0.6838 0.6786 0.6753
839.000000 0.6756 0.6799 0.6856 0.6914 0.6968
844.000000 0.7008 0.7048 0.7074 0.7099 0.7124
849.000000 0.7142 0.7161 0.7179 0.7199 0.7221
854.000000 0.7243 0.7265 0.7281 0.7296 0.7311
859.000000 0.7324 0.7336 0.7347 0.7359 0.7371
864.000000 0.7383 0.7396 0.7452 0.7406 0.7407
869.000000 0.7401 0.7393 0.7385 0.7376 0.7364
874.000000 0.7351 0.7337 0.7324 0.7310 0.7294
879.000000 0.7277 0.7261 0.7245 0.7234 0.7228
884.000000 0.7212 0.7129 0.7073 0.7069 0.7069
889.000000 0.7071 0.7081 0.7090 0.7077 0.7114
894.000000 0.7126 0.7129 0.7140 0.7159 0.7178
899.000000 0.7197 0.7222 0.7251 0.7271 0.7268
904.000000 0.7291 0.7215 0.7173 0.7128 0.7079
909.000000 0.7024 0.6968 0.6893 0.6813 0.6719
914.000000 0.6620 0.6503 0.6373 0.6267 0.6163
919.000000 0.6049 0.5963 0.5910 0.5910 0.5930
924.000000 0.5952 0.5979 0.6005 0.6028 0.6035
929.000000 0.6061 0.6022 0.6004 0.5978 0.5952
934.000000 0.5926 0.5907 0.5904 0.5918 0.5942
939.000000 0.5966 0.5993 0.6021 0.6063 0.6106
944.000000 0.6161 0.6221 0.6286 0.6358 0.6423
949.000000 0.6476 0.6530 0.6565 0.6587 0.6608
954.000000 0.6618 0.6595 0.6613 0.6592 0.6571
959.000000 0.6546 0.6521 0.6505 0.6491 0.6483
964.000000 0.6487 0.6492 0.6485 0.6476 0.6454
969.000000 0.6419 0.6388 0.6375 0.6366 0.6367
974.000000 0.6347 0.6404 0.6462 0.6522 0.6554
979.000000 0.6557 0.6559 0.6564 0.6578 0.6600
984.000000 0.6637 0.6673 0.6706 0.6733 0.6760
989.000000 0.6787 0.6807 0.6824 0.6838 0.6847
994.000000 0.6788 0.6748 0.6709 0.6670 0.6632
999.000000 0.6600 0.6576 0.6561 0.6543 0.6514
1004.000000 0.6485 0.6451 0.6417 0.6383 0.6349
1009.000000 0.6307 0.6265 0.6222 0.6193 0.6175
1014.000000 0.6168 0.6169 0.6165 0.6157 0.6120
1019.000000 0.6055 0.5989 0.5921 0.5836 0.5749
1024.000000 0.5661 0.5572 0.5476 0.5324 0.5172
1029.000000 0.5019 0.4866 0.4715 0.4563 0.4411
1034.000000 0.4260 0.4110 0.3959 0.3809 0.3659
1039.000000 0.3510 0.3360 0.3211 0.3062 0.2972
1044.000000 0.2958 0.2972 0.2997 0.3029 0.3101
1049.000000 0.3436 0.3914 0.4390 0.4866 0.5341
1054.000000 0.5768 0.5903 0.5944 0.5972 0.6003
1059.000000 0.6048 0.6083 0.6090 0.6097 0.6067
1064.000000 0.6049 0.6027 0.6004 0.5987 0.5970
1069.000000 0.5954 0.5940 0.5927 0.5913 0.5899
1074.000000 0.5887 0.5875 0.5863 0.5844 0.5803
1079.000000 0.5782 0.5777 0.5772 0.5814 0.5864
1084.000000 0.5923 0.6006 0.6110 0.6201 0.6275
1089.000000 0.6334 0.6375 0.6406 0.6422 0.6428
1094.000000 0.6444 0.6427 0.6419 0.6409 0.6403
1099.000000 0.6399 0.6394 0.6388 0.6381 0.6375
1104.000000 0.6368 0.6358 0.6343 0.6329 0.6312
1109.000000 0.6284 0.6256 0.6225 0.6181 0.6135
1114.000000 0.6089 0.6042 0.5992 0.5943 0.5893
1119.000000 0.5840 0.5777 0.5714 0.5652 0.5584
1124.000000 0.5509 0.5433 0.5350 0.5252 0.5155
1129.000000 0.5042 0.4876 0.4713 0.4544 0.4318
1134.000000 0.4084 0.3850 0.3694 0.3602 0.3551
1139.000000 0.3560 0.3581 0.3589 0.3591 0.3589
1144.000000 0.3579 0.3567 0.3552 0.3534 0.3506
1149.000000 0.3463 0.3402 0.3314 0.3207 0.3108
1154.000000 0.3011 0.2918 0.2834 0.2770 0.2727
1159.000000 0.2696 0.2666 0.2637 0.2608 0.2581
1164.000000 0.2554 0.2527 0.2502 0.2475 0.2449
1169.000000 0.2423 0.2398 0.2374 0.2349 0.2324
1174.000000 0.2302 0.2289 0.2295 0.2310 0.2334
1179.000000 0.2349 0.2358 0.2366 0.2370 0.2375
1184.000000 0.2379 0.2383 0.2385 0.2386 0.2388
1189.000000 0.2390 0.2390 0.2385 0.2379 0.2365
1194.000000 0.2343 0.2314 0.2264 0.2218 0.2182
1199.000000 0.2158 0.2151 0.2150 0.2156 0.2169
1204.000000 0.2189 0.2210 0.2235 0.2261 0.2289
1209.000000 0.2329 0.2370 0.2422 0.2476 0.2529
1214.000000 0.2586 0.2644 0.2702 0.2754 0.2805
1219.000000 0.2882 0.3041 0.3249 0.3403 0.3547
1224.000000 0.3684 0.3804 0.3910 0.3997 0.4078
1229.000000 0.4148 0.4215 0.4281 0.4354 0.4430
1234.000000 0.4501 0.4551 0.4602 0.4648 0.4678
1239.000000 0.4708 0.4737 0.4776 0.4827 0.4881
1244.000000 0.4961 0.5023 0.5074 0.5119 0.5164
1249.000000 0.5209 0.5256 0.5302 0.5349 0.5406
1254.000000 0.5458 0.5490 0.5506 0.5503 0.5548
1259.000000 0.5454 0.5386 0.5304 0.5220 0.5132
1264.000000 0.5047 0.4969 0.4929 0.4936 0.4870
1269.000000 0.4969 0.4991 0.5030 0.5111 0.5287
1274.000000 0.5379 0.5455 0.5530 0.5614 0.5693
1279.000000 0.5759 0.5812 0.5854 0.5867 0.5864
1284.000000 0.5890 0.5851 0.5831 0.5793 0.5758
1289.000000 0.5724 0.5690 0.5657 0.5625 0.5592
1294.000000 0.5563 0.5548 0.5532 0.5516 0.5509
1299.000000 0.5509 0.5513 0.5484 0.5557 0.5603
1304.000000 0.5663 0.5722 0.5778 0.5802 0.5802
1309.000000 0.5796 0.5776 0.5760 0.5720 0.5684
1314.000000 0.5652 0.5628 0.5609 0.5604 0.5602
1319.000000 0.5596 0.5574 0.5524 0.5445 0.5357
1324.000000 0.5310 0.5276 0.5262 0.5253 0.5245
1329.000000 0.5234 0.5219 0.5205 0.5182 0.5149
1334.000000 0.5116 0.5077 0.5015 0.4961 0.4914
1339.000000 0.4867 0.4826 0.4784 0.4743 0.4706
1344.000000 0.4675 0.4656 0.4656 0.4654 0.4654
1349.000000 0.4658 0.4663 0.4669 0.4674 0.4679
1354.000000 0.4684 0.4689 0.4695 0.4700 0.4706
1359.000000 0.4708 0.4706 0.4680 0.4624 0.4562
1364.000000 0.4507 0.4482 0.4469 0.4466 0.4462
1369.000000 0.4446 0.4335 0.4107 0.3868 0.3698
1374.000000 0.3584 0.3491 0.3437 0.3418 0.3416
1379.000000 0.3431 0.3603 0.3768 0.3932 0.4096
1384.000000 0.4260 0.4431 0.4683 0.4940 0.5195
1389.000000 0.5389 0.5427 0.5438 0.5440 0.5438
1394.000000 0.5430 0.5403 0.5365 0.5307 0.5267
1399.000000 0.5227 0.5177 0.5137 0.5115 0.5109
1404.000000 0.5107 0.5107 0.5045 0.4944 0.4842
1409.000000 0.4739 0.4638 0.4536 0.4434 0.4333
1414.000000 0.4231 0.4130 0.4029 0.3927 0.3826
1419.000000 0.3726 0.3625 0.3525 0.3425 0.3331
1424.000000 0.3236 0.3144 0.3068 0.2997 0.2927
1429.000000 0.2857 0.2787 0.2717 0.2649 0.2581
1434.000000 0.2513 0.2444 0.2376 0.2310 0.2257
1439.000000 0.2206 0.2154 0.2093 0.2031 0.1975
1444.000000 0.1919 0.1870 0.1830 0.1792 0.1756
1449.000000 0.1725 0.1702 0.1680 0.1673 0.1668
1454.000000 0.1668 0.1671 0.1676 0.1684 0.1692
1459.000000 0.1701 0.1714 0.1726 0.1738 0.1752
1464.000000 0.1771 0.1790 0.1808 0.1835 0.1867
1469.000000 0.1905 0.1994 0.2131 0.2301 0.2450
1474.000000 0.2597 0.2744 0.2892 0.3040 0.3187
1479.000000 0.3334 0.3480 0.3626 0.3773 0.3919
1484.000000 0.4065 0.4211 0.4356 0.4502 0.4647
1489.000000 0.4791 0.4936 0.5065 0.5135 0.5181
1494.000000 0.5219 0.5251 0.5277 0.5300 0.5359
1499.000000 0.5472 0.5585 0.5698 0.5810 0.5923
1504.000000 0.6035 0.6147 0.6259 0.6371 0.6481
1509.000000 0.6568 0.6606 0.6622 0.6633 0.6641
1514.000000 0.6649 0.6653 0.6656 0.6661 0.6664
1519.000000 0.6664 0.6663 0.6663 0.6680 0.6657
1524.000000 0.6650 0.6634 0.6611 0.6585 0.6553
1529.000000 0.6519 0.6485 0.6409 0.6333 0.6258
1534.000000 0.6182 0.6107 0.6031 0.5956 0.5881
1539.000000 0.5806 0.5730 0.5655 0.5581 0.5506
1544.000000 0.5432 0.5357 0.5283 0.5209 0.5135
1549.000000 0.5060 0.4986 0.4912 0.4842 0.4792
1554.000000 0.4750 0.4721 0.4720 0.4719 0.4753
1559.000000 0.4824 0.4895 0.4965 0.5035 0.5106
1564.000000 0.5176 0.5246 0.5316 0.5386 0.5456
1569.000000 0.5526 0.5595 0.5665 0.5735 0.5804
1574.000000 0.5873 0.5943 0.6011 0.6081 0.6150
1579.000000 0.6218 0.6289 0.6354 0.6402 0.6440
1584.000000 0.6463 0.6481 0.6498 0.6516 0.6528
1589.000000 0.6537 0.6544 0.6548 0.6548 0.6545
1594.000000 0.6558 0.6538 0.6531 0.6521 0.6506
1599.000000 0.6485 0.6458 0.6394 0.6289 0.6181
1604.000000 0.6072 0.5965 0.5857 0.5749 0.5641
1609.000000 0.5534 0.5427 0.5319 0.5212 0.5105
1614.000000 0.4999 0.4891 0.4785 0.4679 0.4572
1619.000000 0.4466 0.4368 0.4286 0.4215 0.4146
1624.000000 0.4064 0.3972 0.3893 0.3829 0.3765
1629.000000 0.3702 0.3635 0.3561 0.3486 0.3410
1634.000000 0.3333 0.3232 0.3132 0.3033 0.2970
1639.000000 0.2916 0.2862 0.2808 0.2764 0.2731
1644.000000 0.2704 0.2688 0.2685 0.2687 0.2691
1649.000000 0.2699 0.2706 0.2725 0.2743 0.2757
1654.000000 0.2763 0.2762 0.2758 0.2753 0.2735
1659.000000 0.2678 0.2594 0.2575 0.2574 0.2577
1664.000000 0.2549 0.2592 0.2605 0.2624 0.2677
1669.000000 0.2803 0.2933 0.3062 0.3191 0.3320
1674.000000 0.3449 0.3578 0.3707 0.3834 0.3953
1679.000000 0.4041 0.4121 0.4222 0.4335 0.4455
1684.000000 0.4577 0.4770 0.5051 0.5241 0.5541
1689.000000 0.5644 0.5716 0.5781 0.5836 0.5878
1694.000000 0.5903 0.5911 0.5915 0.5930 0.5899
1699.000000 0.5877 0.5847 0.5812 0.5774 0.5735
1704.000000 0.5691 0.5613 0.5473 0.5307 0.5142
1709.000000 0.4976 0.4810 0.4645 0.4481 0.4316
1714.000000 0.4152 0.3988 0.3824 0.3660 0.3496
1719.000000 0.3332 0.3169 0.3055 0.3020 0.3022
1724.000000 0.3025 0.3024 0.3143 0.3277 0.3412
1729.000000 0.3546 0.3681 0.3814 0.3948 0.4082
1734.000000 0.4215 0.4349 0.4482 0.4615 0.4748
1739.000000 0.4881 0.5012 0.5135 0.5203 0.5277
1744.000000 0.5362 0.5495 0.5780 0.6456 0.6762
1749.000000 0.6946 0.7088 0.7218 0.7333 0.7434
1754.000000 0.7517 0.7594 0.7668 0.7738 0.7799
1759.000000 0.7860 0.7911 0.7957 0.8004 0.8056
1764.000000 0.8127 0.8187 0.8232 0.8265 0.8294
1769.000000 0.8313 0.8332 0.8346 0.8355 0.8362
1774.000000 0.8369 0.8375 0.8381 0.8387 0.8392
1779.000000 0.8396 0.8401 0.8405 0.8410 0.8414
1784.000000 0.8417 0.8420 0.8423 0.8427 0.8431
1789.000000 0.8437 0.8443 0.8450 0.8456 0.8463
1794.000000 0.8471 0.8479 0.8487 0.8491 0.8493
1799.000000 0.8494 0.8496 0.8497 0.8498 0.8499
1804.000000 0.8499 0.8499 0.8498 0.8498 0.8498
1809.000000 0.8498 0.8498 0.8497 0.8497 0.8497
1814.000000 0.8497 0.8496 0.8496 0.8496 0.8496
1819.000000 0.8499 0.8504 0.8511 0.8517 0.8529
1824.000000 0.8541 0.8554 0.8565 0.8574 0.8582
1829.000000 0.8589 0.8590 0.8592 0.8595 0.8597
1834.000000 0.8598 0.8599 0.8600 0.8600 0.8600
1839.000000 0.8601 0.8601 0.8602 0.8602 0.8585
1844.000000 0.8602 0.8602 0.8602 0.8601 0.8601
1849.000000 0.8601 0.8601 0.8600 0.8600 0.8600
1854.000000 0.8599 0.8598 0.8597 0.8597 0.8597
1859.000000 0.8596 0.8596 0.8595 0.8594 0.8593
1864.000000 0.8593 0.8593 0.8592 0.8590 0.8588
1869.000000 0.8586 0.8584 0.8582 0.8580 0.8579
1874.000000 0.8577 0.8575 0.8573 0.8571 0.8569
1879.000000 0.8567 0.8565 0.8563 0.8561 0.8560
1884.000000 0.8557 0.8555 0.8553 0.8551 0.8550
1889.000000 0.8548 0.8546 0.8544 0.8542 0.8539
1894.000000 0.8538 0.8538 0.8538 0.8538 0.8538
1899.000000 0.8538 0.8538 0.8538 0.8538 0.8538
1904.000000 0.8538 0.8538 0.8538 0.8538 0.8543
1909.000000 0.8547 0.8551 0.8556 0.8560 0.8565
1914.000000 0.8572 0.8579 0.8585 0.8591 0.8593
1919.000000 0.8592 0.8592 0.8591 0.8590 0.8590
1924.000000 0.8589 0.8588 0.8587 0.8585 0.8584
1929.000000 0.8583 0.8581 0.8580 0.8578 0.8577
1934.000000 0.8575 0.8573 0.8571 0.8568 0.8564
1939.000000 0.8561 0.8558 0.8555 0.8552 0.8549
1944.000000 0.8546 0.8542 0.8537 0.8533 0.8528
1949.000000 0.8523 0.8519 0.8514 0.8510 0.8506
1954.000000 0.8505 0.8504 0.8503 0.8501 0.8500
1959.000000 0.8500 0.8499 0.8497 0.8497 0.8496
1964.000000 0.8494 0.8494 0.8493 0.8492 0.8492
1969.000000 0.8491 0.8491 0.8490 0.8489 0.8489
1974.000000 0.8488 0.8487 0.8487 0.8486 0.8485
1979.000000 0.8485 0.8484 0.8483 0.8483 0.8482
1984.000000 0.8482 0.8481 0.8480 0.8480 0.8479
1989.000000 0.8478 0.8477 0.8476 0.8476 0.8474
1994.000000 0.8473 0.8472 0.8471 0.8470 0.8469
1999.000000 0.8468 0.8468 0.8466 0.8465 0.8464
2004.000000 0.8463 0.8462 0.8461 0.8460 0.8459
2009.000000 0.8458 0.8457 0.8456 0.8454 0.8452
2014.000000 0.8450 0.8449 0.8448 0.8446 0.8444
2019.000000 0.8442 0.8440 0.8439 0.8437 0.8435
2024.000000 0.8433 0.8431 0.8429 0.8428 0.8426
2029.000000 0.8426 0.8425 0.8423 0.8423 0.8422
2034.000000 0.8422 0.8421 0.8419 0.8419 0.8418
2039.000000 0.8418 0.8416 0.8416 0.8416 0.8417
2044.000000 0.8417 0.8418 0.8419 0.8420 0.8421
2049.000000 0.8421 0.8422 0.8423 0.8423 0.8422
2054.000000 0.8419 0.8416 0.8412 0.8409 0.8406
2059.000000 0.8403 0.8400 0.8396 0.8392 0.8388
2064.000000 0.8385 0.8381 0.8378 0.8376 0.8374
2069.000000 0.8373 0.8372 0.8371 0.8370 0.8368
2074.000000 0.8367 0.8366 0.8366 0.8366 0.8366
2079.000000 0.8367 0.8367 0.8367 0.8368 0.8368
2084.000000 0.8368 0.8368 0.8369 0.8370 0.8370
2089.000000 0.8370 0.8370 0.8371 0.8371 0.8372
2094.000000 0.8372 0.8372 0.8373 0.8373 0.8373
2099.000000 0.8373 0.8374 0.8374 0.8374 0.8374
2104.000000 0.8374 0.8374 0.8374 0.8375 0.8375
2109.000000 0.8375 0.8375 0.8375 0.8376 0.8376
2114.000000 0.8376 0.8376 0.8376 0.8376 0.8376
2119.000000 0.8377 0.8377 0.8377 0.8377 0.8377
2124.000000 0.8377 0.8377 0.8376 0.8375 0.8374
2129.000000 0.8374 0.8373 0.8373 0.8372 0.8372
2134.000000 0.8371 0.8370 0.8369 0.8368 0.8368
2139.000000 0.8367 0.8367 0.8366 0.8366 0.8365
2144.000000 0.8364 0.8363 0.8362 0.8362 0.8361
2149.000000 0.8361 0.8360 0.8360 0.8358 0.8356
2154.000000 0.8354 0.8353 0.8351 0.8350 0.8348
2159.000000 0.8346 0.8345 0.8343 0.8341 0.8339
2164.000000 0.8337 0.8336 0.8334 0.8333 0.8331
2169.000000 0.8329 0.8328 0.8326 0.8325 0.8322
2174.000000 0.8320 0.8318 0.8315 0.8313 0.8311
2179.000000 0.8308 0.8306 0.8304 0.8301 0.8299
2184.000000 0.8296 0.8294 0.8292 0.8289 0.8287
2189.000000 0.8285 0.8282 0.8280 0.8278 0.8275
2194.000000 0.8273 0.8270 0.8268 0.8266 0.8264
2199.000000 0.8262 0.8261 0.8259 0.8257 0.8255
2204.000000 0.8253 0.8251 0.8249 0.8248 0.8245
2209.000000 0.8243 0.8241 0.8240 0.8238 0.8236
2214.000000 0.8234 0.8232 0.8230 0.8228 0.8227
2219.000000 0.8225 0.8223 0.8221 0.8219 0.8217
2224.000000 0.8216 0.8214 0.8212 0.8210 0.8208
2229.000000 0.8206 0.8204 0.8202 0.8200 0.8197
2234.000000 0.8195 0.8193 0.8191 0.8189 0.8187
2239.000000 0.8185 0.8183 0.8181 0.8179 0.8177
2244.000000 0.8175 0.8173 0.8171 0.8168 0.8166
2249.000000 0.8164 0.8162 0.8160 0.8158 0.8156
2254.000000 0.8154 0.8151 0.8148 0.8145 0.8142
2259.000000 0.8138 0.8134 0.8130 0.8127 0.8124
2264.000000 0.8120 0.8117 0.8113 0.8110 0.8106
2269.000000 0.8102 0.8099 0.8095 0.8092 0.8089
2274.000000 0.8085 0.8081 0.8076 0.8071 0.8066
2279.000000 0.8061 0.8056 0.8051 0.8046 0.8041
2284.000000 0.8036 0.8031 0.8026 0.8021 0.8016
2289.000000 0.8011 0.8007 0.8002 0.7998 0.7994
2294.000000 0.7990 0.7987 0.7983 0.7980 0.7977
2299.000000 0.7974 0.7970 0.7967 0.7964 0.7960
2304.000000 0.7956 0.7953 0.7951 0.7949 0.7948
2309.000000 0.7947 0.7945 0.7944 0.7942 0.7941
2314.000000 0.7940 0.7939 0.7938 0.7936 0.7935
2319.000000 0.7934 0.7932 0.7931 0.7929 0.7928
2324.000000 0.7927 0.7926 0.7925 0.7924 0.7922
2329.000000 0.7921 0.7919 0.7918 0.7917 0.7915
2334.000000 0.7913 0.7910 0.7908 0.7905 0.7903
2339.000000 0.7900 0.7898 0.7895 0.7892 0.7890
2344.000000 0.7886 0.7882 0.7876 0.7869 0.7861
2349.000000 0.7854 0.7847 0.7840 0.7833 0.7826
2354.000000 0.7819 0.7812 0.7804 0.7797 0.7790
2359.000000 0.7783 0.7776 0.7768 0.7761 0.7754
2364.000000 0.7747 0.7740 0.7733 0.7726 0.7718
2369.000000 0.7711 0.7704 0.7697 0.7690 0.7683
2374.000000 0.7676 0.7668 0.7661 0.7653 0.7646
2379.000000 0.7639 0.7632 0.7625 0.7618 0.7610
2384.000000 0.7603 0.7596 0.7589 0.7582 0.7575
2389.000000 0.7567 0.7560 0.7554 0.7548 0.7544
2394.000000 0.7539 0.7535 0.7530 0.7525 0.7521
2399.000000 0.7517 0.7512 0.7508 0.7503 0.7499
2404.000000 0.7494 0.7490 0.7485 0.7481 0.7477
2409.000000 0.7473 0.7469 0.7466 0.7463 0.7461
2414.000000 0.7458 0.7455 0.7452 0.7450 0.7447
2419.000000 0.7444 0.7441 0.7438 0.7436 0.7433
2424.000000 0.7430 0.7427 0.7425 0.7422 0.7419
2429.000000 0.7417 0.7414 0.7412 0.7409 0.7408
2434.000000 0.7407 0.7405 0.7404 0.7402 0.7401
2439.000000 0.7400 0.7398 0.7397 0.7396 0.7394
2444.000000 0.7392 0.7391 0.7390 0.7388 0.7387
2449.000000 0.7386 0.7385 0.7383 0.7382 0.7380
2454.000000 0.7378 0.7376 0.7374 0.7370 0.7366
2459.000000 0.7363 0.7359 0.7355 0.7351 0.7347
2464.000000 0.7343 0.7339 0.7336 0.7332 0.7328
2469.000000 0.7324 0.7320 0.7315 0.7310 0.7304
2474.000000 0.7298 0.7291 0.7285 0.7278 0.7272
2479.000000 0.7265 0.7259 0.7252 0.7246 0.7240
2484.000000 0.7235 0.7230 0.7225 0.7221 0.7217
2489.000000 0.7212 0.7208 0.7203 0.7199 0.7195
2494.000000 0.7191 0.7188 0.7184 0.7180 0.7177
2499.000000 0.7173 0.7170 0.7166 0.7162 0.7159
2504.000000 0.7155 0.7151 0.7143 0.7136 0.7129
2509.000000 0.7122 0.7115 0.7107 0.7100 0.7092
2514.000000 0.7085 0.7078 0.7071 0.7063 0.7056
2519.000000 0.7049 0.7043 0.7036 0.7030 0.7024
2524.000000 0.7017 0.7010 0.7004 0.6998 0.6991
2529.000000 0.6985 0.6979 0.6973 0.6966 0.6960
2534.000000 0.6954 0.6948 0.6942 0.6938 0.6934
2539.000000 0.6932 0.6931 0.6929 0.6927 0.6926
2544.000000 0.6924 0.6923 0.6921 0.6920 0.6918
2549.000000 0.6917 0.6915 0.6914 0.6911 0.6908
2554.000000 0.6905 0.6903 0.6900 0.6897 0.6895
2559.000000 0.6892 0.6890 0.6888 0.6885 0.6882
2564.000000 0.6880 0.6877 0.6874 0.6872 0.6869
2569.000000 0.6866 0.6863 0.6860 0.6857 0.6852
2574.000000 0.6848 0.6844 0.6840 0.6836 0.6832
2579.000000 0.6828 0.6823 0.6819 0.6815 0.6811
2584.000000 0.6807 0.6803 0.6799 0.6795 0.6791
2589.000000 0.6787 0.6783 0.6780 0.6777 0.6774
2594.000000 0.6771 0.6769 0.6767 0.6764 0.6761
2599.000000 0.6759 0.6757 0.6755 0.6752 0.6750
2604.000000 0.6747 0.6745 0.6742 0.6740 0.6738
2609.000000 0.6735 0.6733 0.6730 0.6728 0.6726
2614.000000 0.6723 0.6721 0.6718 0.6716 0.6714
2619.000000 0.6712 0.6710 0.6708 0.6706 0.6705
2624.000000 0.6704 0.6703 0.6702 0.6700 0.6699
2629.000000 0.6697 0.6696 0.6695 0.6694 0.6692
2634.000000 0.6691 0.6690 0.6689 0.6688 0.6686
2639.000000 0.6685 0.6683 0.6682 0.6681 0.6680
2644.000000 0.6679 0.6677 0.6676 0.6675 0.6674
2649.000000 0.6673 0.6671 0.6670 0.6669 0.6667
2654.000000 0.6666 0.6666 0.6665 0.6664 0.6664
2659.000000 0.6664 0.6663 0.6662 0.6662 0.6661
2664.000000 0.6661 0.6661 0.6660 0.6660 0.6660
2669.000000 0.6659 0.6659 0.6658 0.6658 0.6658
2674.000000 0.6657 0.6657 0.6657 0.6656 0.6656
2679.000000 0.6656 0.6655 0.6655 0.6655 0.6654
2684.000000 0.6653 0.6653 0.6652 0.6652 0.6652
2689.000000 0.6651 0.6651 0.6651 0.6651 0.6652
2694.000000 0.6653 0.6653 0.6654 0.6655 0.6655
2699.000000 0.6656 0.6657 0.6657 0.6658 0.6659
2704.000000 0.6659 0.6660 0.6661 0.6661 0.6662
2709.000000 0.6663 0.6663 0.6664 0.6665 0.6666
2714.000000 0.6666 0.6667 0.6668 0.6668 0.6669
2719.000000 0.6669 0.6669 0.6669 0.6669 0.6669
2724.000000 0.6669 0.6669 0.6669 0.6668 0.6668
2729.000000 0.6668 0.6668 0.6668 0.6668 0.6668
2734.000000 0.6668 0.6668 0.6668 0.6668 0.6668
2739.000000 0.6667 0.6667 0.6667 0.6667 0.6667
2744.000000 0.6667 0.6667 0.6667 0.6667 0.6665
2749.000000 0.6664 0.6662 0.6660 0.6658 0.6655
2754.000000 0.6653 0.6650 0.6647 0.6643 0.6638
2759.000000 0.6633 0.6627 0.6620 0.6613 0.6607
2764.000000 0.6600 0.6593 0.6586 0.6579 0.6572
2769.000000 0.6565 0.6556 0.6547 0.6537 0.6526
2774.000000 0.6515 0.6504 0.6494 0.6483 0.6471
2779.000000 0.6455 0.6439 0.6422 0.6401 0.6381
2784.000000 0.6361 0.6342 0.6324 0.6306 0.6288
2789.000000 0.6270 0.6253 0.6235 0.6217 0.6200
2794.000000 0.6176 0.6150 0.6124 0.6095 0.6066
2799.000000 0.6036 0.5943 0.5771 0.5599 0.5437
2804.000000 0.5295 0.5153 0.5011 0.4870 0.4728
2809.000000 0.4587 0.4446 0.4305 0.4163 0.4022
2814.000000 0.3881 0.3740 0.3599 0.3459 0.3318
2819.000000 0.3178 0.3038 0.2897 0.2757 0.2617
2824.000000 0.2477 0.2337 0.2197 0.2058 0.1918
2829.000000 0.1779 0.1640 0.1500 0.1418 0.1354
2834.000000 0.1291 0.1248 0.1222 0.1196 0.1174
2839.000000 0.1158 0.1143 0.1128 0.1117 0.1107
2844.000000 0.1097 0.1087 0.1077 0.1066 0.1058
2849.000000 0.1051 0.1043 0.1038 0.1038 0.1038
2854.000000 0.1037 0.1037 0.1036 0.1036 0.1035
2859.000000 0.1035 0.1035 0.1034 0.1034 0.1033
2864.000000 0.1032 0.1030 0.1028 0.1025 0.1023
2869.000000 0.1021 0.1019 0.1017 0.1014 0.1012
2874.000000 0.1008 0.1002 0.0996 0.0990 0.0983
2879.000000 0.0977 0.0971 0.0953 0.0933 0.0913
2884.000000 0.0890 0.0864 0.0839 0.0813 0.0788
2889.000000 0.0762 0.0737 0.0714 0.0692 0.0669
2894.000000 0.0650 0.0635 0.0620 0.0606 0.0590
2899.000000 0.0575 0.0560 0.0548 0.0538 0.0527
2904.000000 0.0517 0.0508 0.0500 0.0491 0.0483
2909.000000 0.0475 0.0467 0.0464 0.0464 0.0463
2914.000000 0.0463 0.0463 0.0463 0.0463 0.0464
2919.000000 0.0465 0.0467 0.0468 0.0470 0.0472
2924.000000 0.0474 0.0476 0.0479 0.0481 0.0484
2929.000000 0.0487 0.0490 0.0493 0.0496 0.0499
2934.000000 0.0502 0.0535 0.0580 0.0625 0.0674
2939.000000 0.0732 0.0789 0.0847 0.0905 0.0963
2944.000000 0.1021 0.1079 0.1137 0.1195 0.1253
2949.000000 0.1311 0.1368 0.1426 0.1484 0.1542
2954.000000 0.1599 0.1657 0.1714 0.1771 0.1828
2959.000000 0.1886 0.1943 0.2000 0.2058 0.2115
2964.000000 0.2172 0.2229 0.2286 0.2343 0.2401
2969.000000 0.2458 0.2515 0.2571 0.2628 0.2685
2974.000000 0.2742 0.2798 0.2855 0.2911 0.2968
2979.000000 0.3025 0.3081 0.3138 0.3194 0.3251
2984.000000 0.3307 0.3364 0.3420 0.3477 0.3533
2989.000000 0.3589 0.3645 0.3701 0.3757 0.3813
2994.000000 0.3869 0.3922 0.3975 0.4028 0.4069
2999.000000 0.4090 0.4111 0.4132 0.4147 0.4160
3004.000000 0.4173 0.4185 0.4195 0.4204 0.4214
3009.000000 0.4223 0.4233 0.4242 0.4252 0.4261
3014.000000 0.4271 0.4280 0.4290 0.4301 0.4311
3019.000000 0.4322 0.4333 0.4343 0.4353 0.4364
3024.000000 0.4374 0.4385 0.4395 0.4405 0.4416
3029.000000 0.4427 0.4437 0.4449 0.4461 0.4474
3034.000000 0.4486 0.4498 0.4510 0.4522 0.4535
3039.000000 0.4547 0.4559 0.4571 0.4583 0.4596
3044.000000 0.4608 0.4621 0.4637 0.4653 0.4670
3049.000000 0.4686 0.4702 0.4719 0.4735 0.4752
3054.000000 0.4770 0.4788 0.4806 0.4831 0.4858
3059.000000 0.4885 0.4912 0.4936 0.4960 0.4983
3064.000000 0.5006 0.5024 0.5042 0.5061 0.5075
3069.000000 0.5086 0.5096 0.5107 0.5113 0.5118
3074.000000 0.5123 0.5127 0.5129 0.5131 0.5133
3079.000000 0.5135 0.5135 0.5136 0.5136 0.5136
3084.000000 0.5135 0.5134 0.5133 0.5132 0.5130
3089.000000 0.5129 0.5128 0.5141 0.5119 0.5114
3094.000000 0.5110 0.5104 0.5097 0.5091 0.5084
3099.000000 0.5066 0.5049 0.5031 0.5013 0.4994
3104.000000 0.4974 0.4954 0.4934 0.4915 0.4895
3109.000000 0.4875 0.4856 0.4837 0.4817 0.4798
3114.000000 0.4778 0.4759 0.4739 0.4720 0.4700
3119.000000 0.4680 0.4661 0.4641 0.4622 0.4602
3124.000000 0.4583 0.4564 0.4544 0.4525 0.4505
3129.000000 0.4486 0.4467 0.4448 0.4428 0.4409
3134.000000 0.4390 0.4371 0.4351 0.4332 0.4313
3139.000000 0.4293 0.4274 0.4255 0.4236 0.4216
3144.000000 0.4197 0.4178 0.4159 0.4140 0.4121
3149.000000 0.4102 0.4083 0.4064 0.4045 0.4026
3154.000000 0.4006 0.3987 0.3968 0.3949 0.3930
3159.000000 0.3911 0.3892 0.3873 0.3854 0.3835
3164.000000 0.3816 0.3797 0.3779 0.3760 0.3741
3169.000000 0.3722 0.3703 0.3685 0.3666 0.3647
3174.000000 0.3628 0.3609 0.3590 0.3571 0.3553
3179.000000 0.3534 0.3515 0.3496 0.3478 0.3459
3184.000000 0.3441 0.3422 0.3403 0.3385 0.3366
3189.000000 0.3347 0.3329 0.3310 0.3291 0.3273
3194.000000 0.3254 0.3235 0.3217 0.3199 0.3186
3199.000000 0.3174 0.3162 0.3150 0.3143 0.3136
3204.000000 0.3128 0.3121 0.3115 0.3109 0.3103
3209.000000 0.3097 0.3091 0.3085 0.3079 0.3073
3214.000000 0.3068 0.3063 0.3059 0.3055 0.3051
3219.000000 0.3049 0.3046 0.3043 0.3040 0.3035
3224.000000 0.3030 0.3025 0.3020 0.3011 0.3003
3229.000000 0.2994 0.2985 0.2975 0.2966 0.2956
3234.000000 0.2946 0.2936 0.2926 0.2917 0.2907
3239.000000 0.2902 0.2900 0.2898 0.2897 0.2895
3244.000000 0.2893 0.2892 0.2891 0.2889 0.2887
3249.000000 0.2886 0.2884 0.2882 0.2881 0.2880
3254.000000 0.2878 0.2877 0.2876 0.2876 0.2876
3259.000000 0.2876 0.2875 0.2875 0.2875 0.2875
3264.000000 0.2874 0.2874 0.2874 0.2874 0.2873
3269.000000 0.2873 0.2873 0.2873 0.2873 0.2872
3274.000000 0.2872 0.2872 0.2872 0.2871 0.2871
3279.000000 0.2871 0.2871 0.2870 0.2870 0.2870
3284.000000 0.2870 0.2870 0.2869 0.2869 0.2868
3289.000000 0.2868 0.2867 0.2867 0.2866 0.2866
3294.000000 0.2865 0.2865 0.2865 0.2865 0.2865
3299.000000 0.2864 0.2864 0.2863 0.2863 0.2862
3304.000000 0.2862 0.2861 0.2861 0.2860 0.2860
3309.000000 0.2860 0.2859 0.2859 0.2858 0.2858
3314.000000 0.2857 0.2857 0.2856 0.2856 0.2855
3319.000000 0.2855 0.2855 0.2854 0.2853 0.2852
3324.000000 0.2852 0.2851 0.2850 0.2850 0.2849
3329.000000 0.2848 0.2848 0.2847 0.2846 0.2845
3334.000000 0.2844 0.2843 0.2843 0.2842 0.2822
3339.000000 0.2840 0.2840 0.2839 0.2838 0.2837
3344.000000 0.2836 0.2836 0.2835 0.2834 0.2834
3349.000000 0.2834 0.2834 0.2834 0.2834 0.2834
3354.000000 0.2835 0.2835 0.2836 0.2836 0.2837
3359.000000 0.2837 0.2837 0.2838 0.2838 0.2839
3364.000000 0.2839 0.2840 0.2843 0.2845 0.2848
3369.000000 0.2851 0.2854 0.2856 0.2859 0.2862
3374.000000 0.2865 0.2868 0.2870 0.2873 0.2876
3379.000000 0.2878 0.2881 0.2884 0.2887 0.2890
3384.000000 0.2894 0.2898 0.2901 0.2905 0.2909
3389.000000 0.2913 0.2917 0.2921 0.2925 0.2929
3394.000000 0.2933 0.2937 0.2941 0.2945 0.2948
3399.000000 0.2952 0.2956 0.2960 0.2966 0.2972
3404.000000 0.2979 0.2985 0.2992 0.2998 0.3005
3409.000000 0.3012 0.3018 0.3025 0.3032 0.3038
3414.000000 0.3045 0.3052 0.3062 0.3074 0.3086
3419.000000 0.3098 0.3110 0.3126 0.3143 0.3159
3424.000000 0.3176 0.3193 0.3213 0.3232 0.3252
3429.000000 0.3272 0.3294 0.3318 0.3342 0.3366
3434.000000 0.3390 0.3408 0.3425 0.3443 0.3461
3439.000000 0.3477 0.3491 0.3504 0.3518 0.3531
3444.000000 0.3545 0.3559 0.3572 0.3586 0.3600
3449.000000 0.3613 0.3627 0.3640 0.3654 0.3667
3454.000000 0.3680 0.3694 0.3707 0.3721 0.3734
3459.000000 0.3747 0.3760 0.3773 0.3786 0.3799
3464.000000 0.3812 0.3825 0.3838 0.3851 0.3864
3469.000000 0.3877 0.3890 0.3903 0.3916 0.3929
3474.000000 0.3942 0.3955 0.3968 0.3981 0.3994
3479.000000 0.4007 0.4020 0.4033 0.4046 0.4059
3484.000000 0.4072 0.4085 0.4099 0.4112 0.4125
3489.000000 0.4138 0.4151 0.4164 0.4177 0.4191
3494.000000 0.4204 0.4217 0.4230 0.4243 0.4257
3499.000000 0.4270 0.4284 0.4297 0.4312 0.4327
3504.000000 0.4342 0.4357 0.4372 0.4387 0.4402
3509.000000 0.4417 0.4432 0.4447 0.4462 0.4477
3514.000000 0.4492 0.4507 0.4522 0.4537 0.4552
3519.000000 0.4567 0.4582 0.4597 0.4612 0.4628
3524.000000 0.4644 0.4659 0.4675 0.4691 0.4707
3529.000000 0.4723 0.4738 0.4754 0.4770 0.4786
3534.000000 0.4801 0.4817 0.4832 0.4849 0.4866
3539.000000 0.4883 0.4900 0.4917 0.4936 0.4955
3544.000000 0.4974 0.4993 0.5012 0.5030 0.5049
3549.000000 0.5068 0.5087 0.5106 0.5125 0.5144
3554.000000 0.5162 0.5181 0.5200 0.5219 0.5237
3559.000000 0.5256 0.5274 0.5293 0.5311 0.5330
3564.000000 0.5348 0.5367 0.5385 0.5404 0.5423
3569.000000 0.5441 0.5460 0.5479 0.5501 0.5527
3574.000000 0.5553 0.5579 0.5605 0.5631 0.5657
3579.000000 0.5683 0.5710 0.5736 0.5762 0.5789
3584.000000 0.5815 0.5842 0.5868 0.5895 0.5921
3589.000000 0.5947 0.5973 0.6000 0.6026 0.6052
3594.000000 0.6078 0.6104 0.6130 0.6156 0.6182
3599.000000 0.6208 0.6234 0.6261 0.6287 0.6313
3604.000000 0.6339 0.6364 0.6390 0.6416 0.6442
3609.000000 0.6468 0.6494 0.6520 0.6546 0.6572
3614.000000 0.6598 0.6623 0.6649 0.6675 0.6701
3619.000000 0.6727 0.6752 0.6778 0.6804 0.6830
3624.000000 0.6855 0.6881 0.6907 0.6932 0.6958
3629.000000 0.6984 0.7010 0.7035 0.7061 0.7087
3634.000000 0.7113 0.7138 0.7164 0.7189 0.7215
3639.000000 0.7240 0.7266 0.7291 0.7317 0.7342
3644.000000 0.7367 0.7396 0.7426 0.7457 0.7487
3649.000000 0.7517 0.7543 0.7562 0.7580 0.7598
3654.000000 0.7617 0.7635 0.7653 0.7670 0.7688
3659.000000 0.7705 0.7723 0.7739 0.7755 0.7771
3664.000000 0.7787 0.7803 0.7819 0.7835 0.7851
3669.000000 0.7867 0.7883 0.7899 0.7916 0.7932
3674.000000 0.7949 0.7965 0.7982 0.7998 0.8014
3679.000000 0.8030 0.8046 0.8062 0.8077 0.8085
3684.000000 0.8092 0.8099 0.8107 0.8114 0.8122
3689.000000 0.8129 0.8136 0.8144 0.8151 0.8158
3694.000000 0.8163 0.8168 0.8173 0.8178 0.8183
3699.000000 0.8187 0.8190 0.8193 0.8196 0.8199
3704.000000 0.8202 0.8205 0.8207 0.8210 0.8212
3709.000000 0.8215 0.8216 0.8217 0.8219 0.8220
3714.000000 0.8221 0.8222 0.8223 0.8224 0.8225
3719.000000 0.8226 0.8227 0.8232 0.8227 0.8227
3724.000000 0.8226 0.8226 0.8225 0.8225 0.8225
3729.000000 0.8224 0.8224 0.8224 0.8223 0.8223
3734.000000 0.8223 0.8222 0.8222 0.8221 0.8221
3739.000000 0.8220 0.8220 0.8219 0.8219 0.8218
3744.000000 0.8218 0.8217 0.8217 0.8216 0.8216
3749.000000 0.8215 0.8214 0.8213 0.8213 0.8212
3754.000000 0.8211 0.8209 0.8208 0.8206 0.8204
3759.000000 0.8202 0.8200 0.8197 0.8195 0.8192
3764.000000 0.8189 0.8187 0.8184 0.8181 0.8178
3769.000000 0.8175 0.8173 0.8169 0.8165 0.8161
3774.000000 0.8157 0.8153 0.8148 0.8144 0.8139
3779.000000 0.8135 0.8130 0.8126 0.8121 0.8116
3784.000000 0.8111 0.8106 0.8101 0.8096 0.8091
3789.000000 0.8084 0.8077 0.8070 0.8064 0.8057
3794.000000 0.8050 0.8043 0.8036 0.8029 0.8022
3799.000000 0.8015 0.8010 0.8006 0.8002 0.7998
3804.000000 0.7993 0.7989 0.7987 0.7984 0.7982
3809.000000 0.7979 0.7977 0.7974 0.7974 0.7973
3814.000000 0.7973 0.7972 0.7972 0.7971 0.7971
3819.000000 0.7971 0.7970 0.7970 0.7970 0.7969
3824.000000 0.7969 0.7968 0.7968 0.7967 0.7967
3829.000000 0.7966 0.7966 0.7965 0.7965 0.7964
3834.000000 0.7964 0.7963 0.7963 0.7962 0.7962
3839.000000 0.7961 0.7961 0.7960 0.7960 0.7960
3844.000000 0.7959 0.7959 0.7959 0.7958 0.7958
3849.000000 0.7957 0.7957 0.7956 0.7956 0.7955
3854.000000 0.7955 0.7955 0.7954 0.7954 0.7954
3859.000000 0.7953 0.7953 0.7952 0.7951 0.7951
3864.000000 0.7950 0.7950 0.7950 0.7949 0.7949
3869.000000 0.7949 0.7948 0.7948 0.7947 0.7947
3874.000000 0.7946 0.7946 0.7945 0.7945 0.7945
3879.000000 0.7944 0.7944 0.7944 0.7943 0.7942
3884.000000 0.7940 0.7939 0.7938 0.7936 0.7935
3889.000000 0.7933 0.7931 0.7930 0.7928 0.7926
3894.000000 0.7925 0.7923 0.7921 0.7919 0.7917
3899.000000 0.7916 0.7914 0.7912 0.7910 0.7908
3904.000000 0.7907 0.7905 0.7903 0.7901 0.7898
3909.000000 0.7895 0.7893 0.7890 0.7887 0.7883
3914.000000 0.7878 0.7872 0.7867 0.7862 0.7856
3919.000000 0.7851 0.7846 0.7840 0.7835 0.7830
3924.000000 0.7825 0.7820 0.7814 0.7809 0.7804
3929.000000 0.7798 0.7793 0.7788 0.7782 0.7777
3934.000000 0.7772 0.7767 0.7762 0.7757 0.7751
3939.000000 0.7746 0.7741 0.7736 0.7731 0.7726
3944.000000 0.7722 0.7718 0.7715 0.7711 0.7708
3949.000000 0.7704 0.7700 0.7697 0.7693 0.7689
3954.000000 0.7686 0.7682 0.7678 0.7675 0.7671
3959.000000 0.7667 0.7664 0.7660 0.7656 0.7653
3964.000000 0.7649 0.7646 0.7642 0.7639 0.7635
3969.000000 0.7632 0.7628 0.7624 0.7621 0.7617
3974.000000 0.7614 0.7611 0.7609 0.7607 0.7605
3979.000000 0.7603 0.7601 0.7599 0.7598 0.7596
3984.000000 0.7595 0.7593 0.7591 0.7590 0.7588
3989.000000 0.7586 0.7585 0.7583 0.7581 0.7580
3994.000000 0.7578 0.7576 0.7575 0.7573 0.7572
3999.000000 0.7570 0.7569
##END=
