##TITLE=PURIN-8(9H)-ONE, 6-AMINO-7-(2-HYDROXYETHYL)-
##JCAMP-DX=4.24
##DATA TYPE=INFRARED SPECTRUM
##CLASS=COBLENTZ III
##ORIGIN=SOUTHERN RESEARCH INST.
##OWNER=COBLENTZ SOCIETY
Collection (C) 2018 copyright by the U.S. Secretary of Commerce
on behalf of the United States of America. All rights reserved.
##DATE=1965/08/20
##NAMES=6-amino-7-(2-hydroxyethyl)-7,9-dihydro-8H-purin-8-one
##MOLFORM=C7 H9 N5 O2
##SOURCE REFERENCE=COBLENTZ NO. 9821
##$NIST ID=B6009821
##$NIST SOURCE=COBLENTZ
##$NIST IMAGE=cob9821
##SPECTROMETER/DATA SYSTEM=PERKIN-ELMER 521 (GRATING)
##INSTRUMENT PARAMETERS=FILTERS AT 3130, 2475, 2000, 1150, 700, 410 CM ^-^1, GRATING CHANGES AT 2000, 620 CM^-^1
##STATE=SOLID (1 mg / 650 mg KBr DISC)
##SAMPLING PROCEDURE=TRANSMISSION
##RESOLUTION=4
##DATA PROCESSING=DIGITIZED BY NIST FROM HARD COPY
##XUNITS=1/CM
##YUNITS=TRANSMITTANCE
##XFACTOR=1.000000
##YFACTOR=1
##DELTAX=001.603774
##FIRSTX=246.509
##LASTX=3803.68
##FIRSTY=0.258
##MAXX=3803.68
##MINX=246.509
##MAXY=0.912
##MINY=0.181
##NPOINTS=2219
##XYDATA=(X++(Y..Y))
246.509000 0.2580 0.2580 0.2750 0.2860 0.2940
254.531485 0.2990 0.3020 0.3050 0.3080 0.3120
262.547000 0.3190 0.3300 0.3410 0.3500 0.3600
270.569485 0.3690 0.3780 0.3870 0.3960 0.4040
278.585000 0.4120 0.4200 0.4280 0.4360 0.4430
286.607485 0.4500 0.4560 0.4630 0.4700 0.4750
294.623000 0.4810 0.4870 0.4920 0.4970 0.5020
302.645485 0.5070 0.5110 0.5150 0.5190 0.5230
310.660000 0.5260 0.5290 0.5320 0.5330 0.5360
318.682485 0.5370 0.5370 0.5370 0.5360 0.5350
326.698000 0.5340 0.5330 0.5330 0.5330 0.5340
334.720485 0.5440 0.5550 0.5640 0.5810 0.5960
342.736000 0.6100 0.6210 0.6320 0.6400 0.6470
350.758485 0.6540 0.6600 0.6650 0.6690 0.6720
358.774000 0.6760 0.6800 0.6830 0.6860 0.6880
366.796485 0.6890 0.6890 0.6890 0.6890 0.6900
374.811000 0.6900 0.6900 0.6900 0.6910 0.6960
382.833485 0.7060 0.7160 0.7240 0.7310 0.7380
390.849000 0.7430 0.7470 0.7500 0.7530 0.7530
398.871485 0.7530 0.7550 0.7550 0.7560 0.7560
406.887000 0.7560 0.7570 0.7570 0.7570 0.7590
414.909485 0.7600 0.7610 0.7610 0.7610 0.7610
422.925000 0.7610 0.7610 0.7620 0.7620 0.7630
430.947485 0.7630 0.7630 0.7630 0.7630 0.7620
438.962000 0.7620 0.7610 0.7570 0.7520 0.7470
446.984485 0.7430 0.7380 0.7340 0.7320 0.7350
455.000000 0.7380 0.7430 0.7480 0.7580 0.7660
463.022485 0.7720 0.7760 0.7800 0.7830 0.7840
471.038000 0.7860 0.7870 0.7880 0.7890 0.7890
479.060485 0.7890 0.7880 0.7860 0.7830 0.7810
487.075000 0.7800 0.7790 0.7800 0.7820 0.7880
495.097485 0.7910 0.7940 0.7950 0.7970 0.7980
503.113000 0.8010 0.8000 0.7980 0.7970 0.7950
511.135485 0.7900 0.7850 0.7790 0.7780 0.7790
519.151000 0.7830 0.7880 0.7900 0.7930 0.7960
527.173485 0.7990 0.7990 0.7980 0.7970 0.7970
535.189000 0.7970 0.7960 0.7950 0.7940 0.7940
543.211485 0.7900 0.7870 0.7860 0.7840 0.7830
551.226000 0.7820 0.7800 0.7780 0.7750 0.7690
559.248485 0.7630 0.7530 0.7420 0.7150 0.7090
567.264000 0.7090 0.7100 0.7240 0.7280 0.7360
575.286485 0.7360 0.7300 0.7240 0.7200 0.7130
583.302000 0.7060 0.7050 0.7060 0.7370 0.7500
591.324485 0.7570 0.7620 0.7720 0.7700 0.7690
599.340000 0.7650 0.7610 0.7570 0.7540 0.7510
607.362485 0.7490 0.7460 0.7430 0.7410 0.7380
615.377000 0.7330 0.7310 0.7270 0.7270 0.7270
623.399485 0.7270 0.7280 0.7300 0.7310 0.7310
631.415000 0.7320 0.7320 0.7320 0.7310 0.7310
639.437485 0.7260 0.7210 0.7020 0.6840 0.6470
647.453000 0.6340 0.6320 0.6340 0.6460 0.6580
655.475485 0.6640 0.6700 0.6700 0.6640 0.6580
663.491000 0.6500 0.5770 0.5770 0.6630 0.6740
671.513485 0.6860 0.6970 0.7090 0.7200 0.7300
679.528000 0.7310 0.7310 0.7310 0.7300 0.7290
687.550485 0.7260 0.7240 0.7200 0.7150 0.7090
695.566000 0.7010 0.6910 0.6780 0.6620 0.6430
703.588485 0.6210 0.5950 0.5210 0.5210 0.5360
711.604000 0.5510 0.6230 0.6380 0.6530 0.6670
719.626485 0.6820 0.6990 0.7150 0.7160 0.7160
727.642000 0.7160 0.7160 0.7150 0.7150 0.7140
735.664485 0.7130 0.7130 0.7130 0.7120 0.7110
743.679000 0.7090 0.7070 0.7030 0.6980 0.6910
751.701485 0.6650 0.6580 0.6630 0.6790 0.6910
759.717000 0.7050 0.7160 0.7180 0.7160 0.7020
767.739485 0.6960 0.6630 0.6510 0.6440 0.6410
775.755000 0.6400 0.6410 0.6500 0.6610 0.6710
783.777485 0.6960 0.7200 0.7430 0.7630 0.7790
791.792000 0.7900 0.7950 0.7960 0.7960 0.7960
799.814485 0.7960 0.7950 0.7940 0.7930 0.7940
807.830000 0.7970 0.8000 0.8020 0.8050 0.8070
815.852485 0.8090 0.8120 0.8150 0.8170 0.8200
823.868000 0.8230 0.8280 0.8310 0.8340 0.8350
831.890485 0.8370 0.8400 0.8410 0.8410 0.8420
839.906000 0.8430 0.8440 0.8440 0.8450 0.8450
847.928485 0.8440 0.8450 0.8450 0.8450 0.8450
855.943000 0.8440 0.8440 0.8430 0.8420 0.8410
863.965485 0.8410 0.8370 0.8300 0.8230 0.8130
871.981000 0.8120 0.8120 0.8200 0.8270 0.8240
880.003485 0.8120 0.7980 0.7470 0.7200 0.7200
888.019000 0.7360 0.7900 0.8080 0.8330 0.8510
896.041485 0.8660 0.8730 0.8760 0.8780 0.8800
904.057000 0.8820 0.8840 0.8850 0.8840 0.8830
912.079485 0.8820 0.8800 0.8790 0.8780 0.8750
920.094000 0.8720 0.8670 0.8560 0.8440 0.8320
928.116485 0.8190 0.8070 0.8050 0.8070 0.8190
936.132000 0.8360 0.8490 0.8640 0.8720 0.8730
944.154485 0.8730 0.8730 0.8720 0.8680 0.8660
952.170000 0.8630 0.8590 0.8520 0.8450 0.8340
960.192485 0.8320 0.8330 0.8380 0.8410 0.8520
968.208000 0.8610 0.8630 0.8670 0.8670 0.8640
976.230485 0.8630 0.8620 0.8590 0.8560 0.8530
984.245000 0.8510 0.8450 0.8320 0.8210 0.8190
992.267485 0.8200 0.8320 0.8390 0.8440 0.8470
1000.283000 0.8490 0.8550 0.8550 0.8550 0.8530
1008.305485 0.8520 0.8520 0.8510 0.8490 0.8490
1016.321000 0.8450 0.8410 0.8390 0.8370 0.8340
1024.343485 0.8320 0.8300 0.8260 0.8200 0.8140
1032.359000 0.8060 0.7960 0.7830 0.7680 0.7490
1040.381485 0.7270 0.6800 0.6560 0.6250 0.5950
1048.396000 0.5640 0.5640 0.5750 0.6650 0.7050
1056.418485 0.7310 0.7490 0.7660 0.7650 0.7520
1064.434000 0.7240 0.6940 0.6580 0.6580 0.6580
1072.456485 0.6800 0.7000 0.7200 0.7390 0.7600
1080.472000 0.7970 0.8230 0.8440 0.8560 0.8640
1088.494485 0.8670 0.8720 0.8750 0.8750 0.8760
1096.509000 0.8760 0.8750 0.8750 0.8750 0.8750
1104.531485 0.8740 0.8740 0.8720 0.8710 0.8710
1112.547000 0.8680 0.8650 0.8630 0.8570 0.8520
1120.569485 0.8490 0.8450 0.8440 0.8430 0.8440
1128.585000 0.8460 0.8490 0.8500 0.8520 0.8550
1136.607485 0.8550 0.8540 0.8540 0.8530 0.8500
1144.623000 0.8480 0.8460 0.8450 0.8410 0.8380
1152.645485 0.8360 0.8340 0.8300 0.8280 0.8240
1160.660000 0.8190 0.8120 0.8050 0.7940 0.7790
1168.682485 0.7620 0.7490 0.7480 0.7490 0.7570
1176.698000 0.7660 0.7730 0.7910 0.8300 0.8440
1184.720485 0.8480 0.8600 0.8600 0.8600 0.8600
1192.736000 0.8580 0.8570 0.8560 0.8540 0.8540
1200.758485 0.8520 0.8470 0.8450 0.8440 0.8430
1208.774000 0.8420 0.8410 0.8410 0.8400 0.8380
1216.796485 0.8360 0.8340 0.8320 0.8300 0.8290
1224.811000 0.8270 0.8240 0.8210 0.8160 0.8120
1232.833485 0.8050 0.8050 0.8050 0.8090 0.8130
1240.849000 0.8170 0.8200 0.8230 0.8300 0.8300
1248.871485 0.8300 0.8290 0.8260 0.8230 0.8190
1256.887000 0.8160 0.8120 0.8060 0.8010 0.7940
1264.909485 0.7840 0.7560 0.7290 0.6960 0.6640
1272.925000 0.6540 0.6290 0.6290 0.6800 0.7050
1280.947485 0.7170 0.7420 0.7650 0.7830 0.7960
1288.962000 0.8070 0.8290 0.8320 0.8340 0.8330
1296.984485 0.8330 0.8320 0.8300 0.8270 0.8230
1305.000000 0.8190 0.8160 0.8120 0.8080 0.8060
1313.022485 0.8040 0.8030 0.8030 0.8010 0.7970
1321.038000 0.7950 0.7920 0.7890 0.7860 0.7830
1329.060485 0.7790 0.7750 0.7720 0.7680 0.7650
1337.075000 0.7610 0.7570 0.7540 0.7500 0.7380
1345.097485 0.7270 0.7140 0.7030 0.6920 0.6820
1353.113000 0.6730 0.6660 0.6600 0.6600 0.6580
1361.135485 0.6550 0.6540 0.6520 0.6420 0.6230
1369.151000 0.6080 0.5970 0.5870 0.5790 0.5690
1377.173485 0.5650 0.5620 0.5620 0.5630 0.5700
1385.189000 0.5870 0.5990 0.6100 0.6150 0.6190
1393.211485 0.6170 0.5430 0.5160 0.4890 0.4890
1401.226000 0.5080 0.5180 0.5430 0.5670 0.6040
1409.248485 0.6320 0.6540 0.6690 0.6800 0.6900
1417.264000 0.6980 0.7160 0.7170 0.7170 0.7170
1425.286485 0.7160 0.7050 0.7080 0.6980 0.6850
1433.302000 0.6740 0.6720 0.6440 0.6280 0.5950
1441.324485 0.5710 0.5690 0.5700 0.5780 0.5840
1449.340000 0.6080 0.6460 0.6620 0.6620 0.6610
1457.362485 0.6610 0.6410 0.6390 0.6060 0.5870
1465.377000 0.5690 0.4920 0.4900 0.4920 0.5000
1473.399485 0.5250 0.5460 0.5620 0.5770 0.6140
1481.415000 0.6490 0.6760 0.6870 0.7060 0.7320
1489.437485 0.7470 0.7450 0.7400 0.7310 0.7220
1497.453000 0.7140 0.7080 0.7060 0.7070 0.7100
1505.475485 0.7210 0.7480 0.7630 0.7640 0.7870
1513.491000 0.7960 0.8040 0.8050 0.8050 0.8050
1521.513485 0.8050 0.8050 0.8040 0.8010 0.8000
1529.528000 0.7990 0.7970 0.7960 0.7940 0.7930
1537.550485 0.7910 0.7880 0.7860 0.7820 0.7780
1545.566000 0.7740 0.7690 0.7650 0.7610 0.7560
1553.588485 0.7510 0.7460 0.7410 0.7350 0.7310
1561.604000 0.7250 0.7200 0.7140 0.7090 0.7030
1569.626485 0.6980 0.6920 0.6870 0.6810 0.6760
1577.641000 0.6690 0.6630 0.6540 0.6440 0.6320
1585.663485 0.6190 0.6050 0.5890 0.5730 0.5400
1593.679000 0.5220 0.5040 0.4860 0.4690 0.4520
1601.701485 0.4350 0.4190 0.4040 0.3900 0.3780
1609.717000 0.3660 0.3560 0.3340 0.2790 0.2780
1617.739485 0.2790 0.2970 0.3160 0.3350 0.3470
1625.755000 0.3880 0.4110 0.4330 0.4650 0.5010
1633.777485 0.5220 0.5330 0.5440 0.5500 0.5550
1641.792000 0.5560 0.5570 0.5580 0.5440 0.5330
1649.814485 0.5210 0.5100 0.4970 0.4850 0.4710
1657.830000 0.4550 0.4380 0.4190 0.3970 0.3720
1665.852485 0.3450 0.3120 0.2800 0.2790 0.2790
1673.868000 0.3000 0.3150 0.3270 0.3410 0.3600
1681.890485 0.3860 0.4220 0.4450 0.4590 0.4630
1689.906000 0.4640 0.4640 0.4550 0.4430 0.4250
1697.928485 0.3870 0.3390 0.2900 0.2480 0.2220
1705.943000 0.1820 0.1810 0.1820 0.1980 0.2140
1713.965485 0.2310 0.2420 0.2890 0.3300 0.3670
1721.981000 0.3940 0.4130 0.4200 0.4580 0.4920
1730.003485 0.5250 0.5400 0.5540 0.5800 0.6050
1738.019000 0.6280 0.6480 0.6660 0.6830 0.6980
1746.041485 0.7110 0.7240 0.7350 0.7440 0.7530
1754.057000 0.7610 0.7680 0.7750 0.7810 0.7860
1762.079485 0.7920 0.7980 0.8040 0.8100 0.8160
1770.094000 0.8230 0.8300 0.8380 0.8450 0.8490
1778.116485 0.8540 0.8590 0.8630 0.8660 0.8690
1786.132000 0.8710 0.8750 0.8760 0.8780 0.8800
1794.154485 0.8820 0.8830 0.8850 0.8860 0.8870
1802.170000 0.8890 0.8900 0.8910 0.8930 0.8940
1810.192485 0.8970 0.8980 0.8990 0.8990 0.9000
1818.208000 0.9000 0.9000 0.9000 0.9010 0.9010
1826.230485 0.9020 0.9030 0.9040 0.9040 0.9040
1834.245000 0.9040 0.9040 0.9050 0.9060 0.9070
1842.267485 0.9080 0.9080 0.9090 0.9090 0.9100
1850.283000 0.9110 0.9110 0.9110 0.9110 0.9120
1858.305485 0.9120 0.9120 0.9120 0.9120 0.9120
1866.321000 0.9120 0.9120 0.9120 0.9120 0.9120
1874.343485 0.9120 0.9120 0.9110 0.9110 0.9110
1882.359000 0.9110 0.9110 0.9110 0.9110 0.9110
1890.381485 0.9110 0.9110 0.9100 0.9100 0.9100
1898.396000 0.9090 0.9090 0.9090 0.9090 0.9100
1906.418485 0.9090 0.9090 0.9090 0.9090 0.9090
1914.434000 0.9090 0.9090 0.9090 0.9090 0.9100
1922.456485 0.9100 0.9100 0.9100 0.9100 0.9100
1930.472000 0.9100 0.9100 0.9090 0.9090 0.9080
1938.494485 0.9080 0.9080 0.9080 0.9080 0.9080
1946.509000 0.9080 0.9080 0.9080 0.9080 0.9080
1954.531485 0.9080 0.9070 0.9070 0.9070 0.9070
1962.547000 0.9070 0.9060 0.9060 0.9060 0.9060
1970.569485 0.9060 0.9060 0.9060 0.9050 0.9050
1978.585000 0.9050 0.9040 0.9040 0.9040 0.9040
1986.607485 0.9040 0.9040 0.9030 0.9020 0.9010
1994.623000 0.9000 0.9000 0.9000 0.8990 0.8990
2002.645485 0.8990 0.8990 0.8990 0.8990 0.8980
2010.660000 0.8980 0.8980 0.8980 0.8970 0.8970
2018.682485 0.8970 0.8970 0.8970 0.8970 0.8970
2026.698000 0.8970 0.8960 0.8960 0.8960 0.8960
2034.720485 0.8960 0.8960 0.8960 0.8960 0.8960
2042.736000 0.8950 0.8950 0.8950 0.8950 0.8950
2050.758485 0.8950 0.8950 0.8950 0.8940 0.8940
2058.774000 0.8940 0.8940 0.8940 0.8940 0.8940
2066.796485 0.8940 0.8940 0.8940 0.8940 0.8940
2074.811000 0.8940 0.8940 0.8940 0.8940 0.8940
2082.833485 0.8940 0.8940 0.8940 0.8940 0.8940
2090.849000 0.8940 0.8940 0.8940 0.8940 0.8940
2098.871485 0.8940 0.8940 0.8940 0.8940 0.8940
2106.887000 0.8940 0.8930 0.8930 0.8930 0.8930
2114.909485 0.8930 0.8930 0.8930 0.8930 0.8930
2122.925000 0.8930 0.8930 0.8930 0.8930 0.8930
2130.947485 0.8930 0.8930 0.8930 0.8930 0.8930
2138.962000 0.8930 0.8930 0.8930 0.8930 0.8930
2146.984485 0.8930 0.8930 0.8920 0.8910 0.8900
2155.000000 0.8890 0.8890 0.8890 0.8890 0.8890
2163.022485 0.8890 0.8890 0.8890 0.8890 0.8890
2171.038000 0.8890 0.8890 0.8880 0.8880 0.8880
2179.060485 0.8870 0.8870 0.8870 0.8870 0.8860
2187.075000 0.8860 0.8860 0.8860 0.8860 0.8850
2195.097485 0.8850 0.8850 0.8840 0.8840 0.8830
2203.113000 0.8830 0.8820 0.8820 0.8820 0.8820
2211.135485 0.8820 0.8820 0.8820 0.8820 0.8820
2219.151000 0.8810 0.8810 0.8810 0.8800 0.8800
2227.173485 0.8800 0.8790 0.8790 0.8790 0.8790
2235.189000 0.8780 0.8780 0.8780 0.8780 0.8780
2243.211485 0.8780 0.8780 0.8780 0.8780 0.8780
2251.226000 0.8780 0.8780 0.8780 0.8780 0.8780
2259.248485 0.8770 0.8760 0.8760 0.8750 0.8750
2267.264000 0.8750 0.8750 0.8750 0.8740 0.8740
2275.286485 0.8740 0.8730 0.8730 0.8730 0.8720
2283.302000 0.8720 0.8710 0.8710 0.8710 0.8710
2291.324485 0.8710 0.8700 0.8700 0.8690 0.8690
2299.340000 0.8680 0.8680 0.8680 0.8670 0.8670
2307.362485 0.8670 0.8670 0.8670 0.8670 0.8670
2315.377000 0.8670 0.8670 0.8670 0.8660 0.8660
2323.399485 0.8650 0.8650 0.8640 0.8640 0.8640
2331.415000 0.8640 0.8640 0.8640 0.8640 0.8640
2339.437485 0.8630 0.8630 0.8630 0.8630 0.8630
2347.453000 0.8630 0.8630 0.8630 0.8630 0.8630
2355.475485 0.8630 0.8630 0.8630 0.8630 0.8630
2363.490000 0.8630 0.8630 0.8630 0.8630 0.8620
2371.512485 0.8620 0.8620 0.8620 0.8620 0.8620
2379.528000 0.8620 0.8620 0.8620 0.8620 0.8620
2387.550485 0.8610 0.8610 0.8610 0.8610 0.8610
2395.566000 0.8610 0.8610 0.8610 0.8610 0.8610
2403.588485 0.8610 0.8610 0.8600 0.8600 0.8600
2411.604000 0.8600 0.8590 0.8580 0.8580 0.8570
2419.626485 0.8570 0.8570 0.8560 0.8560 0.8560
2427.642000 0.8560 0.8560 0.8560 0.8550 0.8550
2435.664485 0.8550 0.8540 0.8540 0.8540 0.8540
2443.679000 0.8530 0.8530 0.8530 0.8530 0.8520
2451.701485 0.8520 0.8520 0.8520 0.8510 0.8510
2459.717000 0.8500 0.8490 0.8490 0.8490 0.8480
2467.739485 0.8480 0.8470 0.8470 0.8460 0.8450
2475.755000 0.8450 0.8450 0.8450 0.8440 0.8440
2483.777485 0.8430 0.8420 0.8410 0.8410 0.8400
2491.792000 0.8390 0.8390 0.8380 0.8380 0.8380
2499.814485 0.8370 0.8360 0.8360 0.8360 0.8350
2507.830000 0.8350 0.8350 0.8350 0.8340 0.8340
2515.852485 0.8340 0.8340 0.8340 0.8330 0.8330
2523.868000 0.8330 0.8320 0.8320 0.8320 0.8310
2531.890485 0.8310 0.8300 0.8300 0.8300 0.8280
2539.906000 0.8260 0.8250 0.8240 0.8230 0.8230
2547.928485 0.8230 0.8230 0.8220 0.8220 0.8200
2555.943000 0.8190 0.8170 0.8160 0.8150 0.8140
2563.965485 0.8130 0.8120 0.8120 0.8120 0.8120
2571.981000 0.8110 0.8110 0.8110 0.8100 0.8100
2580.003485 0.8100 0.8090 0.8090 0.8080 0.8080
2588.019000 0.8080 0.8080 0.8060 0.8050 0.8040
2596.041485 0.8030 0.8010 0.8010 0.8000 0.7980
2604.057000 0.7970 0.7960 0.7950 0.7950 0.7940
2612.079485 0.7940 0.7930 0.7920 0.7910 0.7900
2620.094000 0.7900 0.7890 0.7880 0.7870 0.7860
2628.116485 0.7860 0.7850 0.7840 0.7830 0.7800
2636.132000 0.7800 0.7790 0.7780 0.7760 0.7750
2644.154485 0.7720 0.7700 0.7680 0.7640 0.7620
2652.170000 0.7610 0.7580 0.7570 0.7560 0.7540
2660.192485 0.7530 0.7520 0.7500 0.7500 0.7490
2668.208000 0.7490 0.7480 0.7470 0.7460 0.7450
2676.230485 0.7440 0.7430 0.7420 0.7410 0.7400
2684.245000 0.7380 0.7380 0.7380 0.7360 0.7350
2692.267485 0.7340 0.7320 0.7300 0.7280 0.7270
2700.283000 0.7270 0.7270 0.7270 0.7260 0.7260
2708.305485 0.7250 0.7250 0.7240 0.7240 0.7240
2716.321000 0.7240 0.7240 0.7240 0.7240 0.7240
2724.343485 0.7240 0.7240 0.7240 0.7240 0.7240
2732.358000 0.7240 0.7240 0.7230 0.7230 0.7230
2740.380485 0.7230 0.7230 0.7230 0.7230 0.7230
2748.396000 0.7230 0.7220 0.7220 0.7210 0.7200
2756.418485 0.7180 0.7160 0.7140 0.7120 0.7090
2764.434000 0.7060 0.7050 0.7020 0.7010 0.6980
2772.456485 0.6970 0.6940 0.6910 0.6890 0.6870
2780.472000 0.6850 0.6830 0.6810 0.6800 0.6780
2788.494485 0.6770 0.6760 0.6760 0.6760 0.6760
2796.510000 0.6760 0.6760 0.6760 0.6760 0.6750
2804.532485 0.6750 0.6750 0.6750 0.6750 0.6750
2812.547000 0.6750 0.6750 0.6750 0.6750 0.6740
2820.569485 0.6730 0.6720 0.6710 0.6690 0.6650
2828.585000 0.6600 0.6570 0.6550 0.6540 0.6520
2836.607485 0.6500 0.6470 0.6430 0.6370 0.6340
2844.623000 0.6330 0.6310 0.6290 0.6280 0.6270
2852.645485 0.6250 0.6250 0.6250 0.6240 0.6230
2860.660000 0.6230 0.6220 0.6210 0.6210 0.6200
2868.682485 0.6200 0.6190 0.6190 0.6190 0.6180
2876.698000 0.6180 0.6180 0.6170 0.6170 0.6170
2884.720485 0.6170 0.6170 0.6150 0.6140 0.6130
2892.736000 0.6120 0.6100 0.6090 0.6070 0.6060
2900.758485 0.6060 0.6050 0.6020 0.6020 0.6010
2908.774000 0.5990 0.5940 0.5890 0.5840 0.5800
2916.796485 0.5750 0.5720 0.5700 0.5690 0.5670
2924.811000 0.5660 0.5650 0.5640 0.5640 0.5640
2932.833485 0.5640 0.5650 0.5690 0.5770 0.5840
2940.849000 0.5880 0.5890 0.5880 0.5890 0.5890
2948.871485 0.5890 0.5880 0.5880 0.5880 0.5860
2956.887000 0.5840 0.5830 0.5820 0.5800 0.5800
2964.909485 0.5780 0.5770 0.5740 0.5740 0.5730
2972.925000 0.5730 0.5730 0.5740 0.5750 0.5750
2980.947485 0.5760 0.5770 0.5770 0.5770 0.5780
2988.962000 0.5780 0.5780 0.5780 0.5780 0.5770
2996.984485 0.5770 0.5770 0.5770 0.5750 0.5740
3005.000000 0.5730 0.5730 0.5710 0.5690 0.5680
3013.022485 0.5670 0.5660 0.5630 0.5620 0.5600
3021.038000 0.5580 0.5560 0.5550 0.5530 0.5480
3029.060485 0.5470 0.5440 0.5430 0.5400 0.5380
3037.075000 0.5360 0.5340 0.5320 0.5320 0.5310
3045.097485 0.5290 0.5280 0.5260 0.5240 0.5220
3053.113000 0.5210 0.5200 0.5190 0.5180 0.5180
3061.135485 0.5180 0.5170 0.5160 0.5160 0.5150
3069.151000 0.5140 0.5140 0.5130 0.5120 0.5110
3077.173485 0.5080 0.5060 0.5030 0.5000 0.4980
3085.189000 0.4950 0.4920 0.4880 0.4840 0.4790
3093.211485 0.4740 0.4690 0.4630 0.4570 0.4500
3101.226000 0.4430 0.4350 0.4260 0.4150 0.4100
3109.248485 0.4080 0.4070 0.4060 0.4060 0.4070
3117.264000 0.4080 0.4080 0.4080 0.4100 0.4110
3125.286485 0.4120 0.4130 0.4130 0.4140 0.4160
3133.302000 0.4190 0.4220 0.4260 0.4300 0.4370
3141.324485 0.4410 0.4470 0.4520 0.4560 0.4600
3149.340000 0.4650 0.4690 0.4730 0.4760 0.4800
3157.362485 0.4830 0.4860 0.4880 0.4920 0.4940
3165.377000 0.4960 0.4990 0.5000 0.5020 0.5040
3173.399485 0.5050 0.5060 0.5070 0.5070 0.5080
3181.415000 0.5090 0.5100 0.5110 0.5110 0.5120
3189.437485 0.5130 0.5140 0.5140 0.5150 0.5160
3197.453000 0.5170 0.5170 0.5180 0.5180 0.5190
3205.475485 0.5190 0.5200 0.5200 0.5210 0.5220
3213.490000 0.5250 0.5260 0.5280 0.5290 0.5300
3221.512485 0.5320 0.5320 0.5330 0.5330 0.5340
3229.528000 0.5350 0.5360 0.5360 0.5360 0.5370
3237.550485 0.5370 0.5380 0.5390 0.5390 0.5390
3245.566000 0.5390 0.5380 0.5380 0.5380 0.5380
3253.588485 0.5370 0.5360 0.5360 0.5360 0.5350
3261.604000 0.5350 0.5340 0.5340 0.5340 0.5330
3269.626485 0.5330 0.5330 0.5320 0.5290 0.5270
3277.642000 0.5220 0.5190 0.5160 0.5120 0.5100
3285.664485 0.5070 0.5020 0.5000 0.4990 0.4970
3293.679000 0.4960 0.4930 0.4920 0.4920 0.4920
3301.701485 0.4940 0.4970 0.5000 0.5020 0.5040
3309.717000 0.5050 0.5110 0.5160 0.5220 0.5270
3317.739485 0.5330 0.5390 0.5440 0.5490 0.5520
3325.755000 0.5550 0.5600 0.5650 0.5690 0.5730
3333.777485 0.5770 0.5800 0.5840 0.5860 0.5880
3341.792000 0.5880 0.5890 0.5910 0.5940 0.5960
3349.814485 0.5980 0.6000 0.6020 0.6040 0.6060
3357.830000 0.6070 0.6100 0.6100 0.6120 0.6130
3365.852485 0.6150 0.6160 0.6170 0.6190 0.6200
3373.868000 0.6210 0.6220 0.6230 0.6250 0.6250
3381.890485 0.6270 0.6280 0.6280 0.6300 0.6310
3389.906000 0.6320 0.6330 0.6340 0.6360 0.6380
3397.928485 0.6390 0.6390 0.6400 0.6410 0.6420
3405.943000 0.6430 0.6430 0.6440 0.6450 0.6460
3413.965485 0.6470 0.6470 0.6480 0.6490 0.6500
3421.981000 0.6500 0.6500 0.6510 0.6530 0.6540
3430.003485 0.6540 0.6550 0.6560 0.6570 0.6580
3438.019000 0.6590 0.6600 0.6610 0.6620 0.6630
3446.041485 0.6650 0.6650 0.6670 0.6680 0.6690
3454.057000 0.6710 0.6720 0.6730 0.6750 0.6770
3462.079485 0.6790 0.6800 0.6820 0.6840 0.6860
3470.094000 0.6880 0.6910 0.6920 0.6930 0.6940
3478.116485 0.6950 0.6960 0.6980 0.6980 0.7000
3486.132000 0.7010 0.7020 0.7030 0.7050 0.7050
3494.154485 0.7070 0.7070 0.7090 0.7130 0.7150
3502.170000 0.7170 0.7200 0.7210 0.7230 0.7240
3510.192485 0.7240 0.7250 0.7270 0.7270 0.7290
3518.208000 0.7310 0.7340 0.7350 0.7370 0.7380
3526.230485 0.7410 0.7420 0.7440 0.7460 0.7470
3534.245000 0.7490 0.7500 0.7510 0.7530 0.7540
3542.267485 0.7550 0.7560 0.7570 0.7580 0.7610
3550.283000 0.7630 0.7640 0.7660 0.7680 0.7690
3558.305485 0.7710 0.7720 0.7730 0.7750 0.7750
3566.321000 0.7770 0.7790 0.7790 0.7810 0.7830
3574.343485 0.7840 0.7860 0.7870 0.7890 0.7910
3582.358000 0.7940 0.7950 0.7970 0.7980 0.8000
3590.380485 0.8010 0.8020 0.8040 0.8050 0.8070
3598.396000 0.8080 0.8100 0.8120 0.8130 0.8160
3606.418485 0.8170 0.8170 0.8190 0.8200 0.8210
3614.434000 0.8240 0.8270 0.8280 0.8280 0.8300
3622.456485 0.8300 0.8310 0.8330 0.8340 0.8340
3630.472000 0.8350 0.8370 0.8380 0.8380 0.8380
3638.494485 0.8410 0.8440 0.8460 0.8470 0.8460
3646.510000 0.8450 0.8450 0.8440 0.8430 0.8420
3654.532485 0.8420 0.8420 0.8430 0.8450 0.8490
3662.547000 0.8500 0.8500 0.8490 0.8470 0.8450
3670.569485 0.8440 0.8420 0.8410 0.8400 0.8400
3678.585000 0.8410 0.8410 0.8410 0.8420 0.8450
3686.607485 0.8460 0.8480 0.8490 0.8510 0.8520
3694.623000 0.8530 0.8540 0.8550 0.8550 0.8560
3702.645485 0.8560 0.8560 0.8560 0.8560 0.8560
3710.660000 0.8560 0.8560 0.8560 0.8560 0.8560
3718.682485 0.8560 0.8560 0.8560 0.8560 0.8560
3726.698000 0.8550 0.8540 0.8530 0.8520 0.8520
3734.720485 0.8520 0.8510 0.8490 0.8490 0.8470
3742.736000 0.8460 0.8450 0.8440 0.8430 0.8420
3750.758485 0.8430 0.8430 0.8430 0.8450 0.8470
3758.774000 0.8500 0.8520 0.8520 0.8520 0.8530
3766.796485 0.8530 0.8540 0.8550 0.8550 0.8550
3774.811000 0.8550 0.8560 0.8560 0.8560 0.8560
3782.833485 0.8560 0.8560 0.8560 0.8560 0.8560
3790.849000 0.8560 0.8550 0.8540 0.8540 0.8530
3798.871485 0.8520 0.8520 0.8520 0.8510
##END=
