##TITLE=DI-ISOTRIDECYLAZELATE
##JCAMP-DX=4.24
##DATA TYPE=INFRARED SPECTRUM
##CLASS=COBLENTZ
##ORIGIN=WYANDOTTE CHEMICALS CORP., WYANDOTTE, MICHIGAN, USA
##OWNER=COBLENTZ SOCIETY
Collection (C) 2018 copyright by the U.S. Secretary of Commerce
on behalf of the United States of America. All rights reserved.
##DATE=Not specified, most likely prior to 1970
##NAMES=bis(11-methyldodecyl) azelaate
##MOLFORM=C35 H68 O4
##SOURCE REFERENCE=COBLENTZ NO. 3874
##$NIST ID=B6003874
##$NIST SOURCE=COBLENTZ
##$NIST IMAGE=cob3874
##SPECTROMETER/DATA SYSTEM=Not specified, most likely a prism, grating, or hybrid spectrometer.
##STATE=LIQUID
##PATH LENGTH=0.003 CM
##SAMPLING PROCEDURE=TRANSMISSION
##RESOLUTION=4
##DATA PROCESSING=DIGITIZED BY NIST FROM HARD COPY
##XUNITS=MICROMETERS
##YUNITS=TRANSMITTANCE
##XFACTOR=1.000000
##YFACTOR=1
##DELTAX=000.006181
##FIRSTX=2.019
##LASTX=16.0004
##FIRSTY=0.953
##MAXX=16.0004
##MINX=2.019
##MAXY=0.965
##MINY=0.023
##NPOINTS=2263
##XYDATA=(X++(Y..Y))
2.019000 0.9530 0.9540 0.9560 0.9560 0.9580
2.049919 0.9580 0.9580 0.9580 0.9590 0.9590
2.080000 0.9590 0.9610 0.9610 0.9620 0.9620
2.110919 0.9650 0.9650 0.9650 0.9620 0.9620
2.142000 0.9610 0.9610 0.9580 0.9560 0.9480
2.172919 0.9400 0.9370 0.9330 0.9270 0.9200
2.204000 0.9170 0.9080 0.9060 0.9050 0.9030
2.234919 0.8990 0.8970 0.8920 0.8910 0.8920
2.266000 0.8920 0.8950 0.8970 0.9000 0.9000
2.296919 0.9020 0.9020 0.9020 0.9060 0.9080
2.328000 0.9080 0.9110 0.9130 0.9130 0.9140
2.358919 0.9140 0.9140 0.9140 0.9160 0.9160
2.389000 0.9160 0.9170 0.9170 0.9200 0.9220
2.419919 0.9230 0.9270 0.9280 0.9280 0.9300
2.451000 0.9300 0.9310 0.9310 0.9310 0.9330
2.481919 0.9360 0.9370 0.9400 0.9400 0.9420
2.513000 0.9440 0.9440 0.9440 0.9450 0.9470
2.543919 0.9470 0.9470 0.9470 0.9470 0.9470
2.575000 0.9470 0.9470 0.9480 0.9480 0.9500
2.605919 0.9510 0.9530 0.9530 0.9540 0.9540
2.637000 0.9560 0.9560 0.9560 0.9560 0.9560
2.667919 0.9560 0.9560 0.9560 0.9560 0.9560
2.698000 0.9590 0.9610 0.9610 0.9610 0.9610
2.728919 0.9610 0.9610 0.9610 0.9610 0.9610
2.760000 0.9590 0.9560 0.9540 0.9530 0.9510
2.790919 0.9480 0.9450 0.9400 0.9370 0.9370
2.822000 0.9390 0.9390 0.9400 0.9370 0.9370
2.852919 0.9310 0.9280 0.9270 0.9220 0.9190
2.884000 0.9170 0.9080 0.9020 0.9000 0.8950
2.914919 0.9000 0.9020 0.9080 0.9130 0.9130
2.946000 0.9170 0.9170 0.9190 0.9200 0.9200
2.976919 0.9230 0.9250 0.9270 0.9270 0.9250
3.008000 0.9250 0.9230 0.9230 0.9230 0.9220
3.038919 0.9220 0.9220 0.9220 0.9220 0.9220
3.069000 0.9220 0.9200 0.9160 0.9090 0.9060
3.099919 0.9050 0.9020 0.8990 0.8890 0.8810
3.131000 0.8740 0.8660 0.8630 0.8600 0.8580
3.161919 0.8570 0.8570 0.8540 0.8500 0.8500
3.193000 0.8470 0.8430 0.8400 0.8360 0.8290
3.223919 0.8210 0.8180 0.8120 0.8090 0.8010
3.255000 0.7980 0.7980 0.7850 0.7700 0.7600
3.285919 0.7370 0.7010 0.6800 0.6210 0.5690
3.317000 0.5070 0.4080 0.3190 0.2370 0.1390
3.347919 0.0860 0.0380 0.0270 0.0230 0.0230
3.378000 0.0230 0.0260 0.0260 0.0270 0.0290
3.408919 0.0310 0.0320 0.0340 0.0340 0.0350
3.440000 0.0370 0.0380 0.0430 0.0430 0.0450
3.470919 0.0480 0.0480 0.0480 0.0490 0.0520
3.502000 0.0690 0.0880 0.1210 0.1780 0.2400
3.532919 0.3270 0.4090 0.4680 0.5510 0.5900
3.564000 0.6380 0.6610 0.6800 0.7000 0.7170
3.594919 0.7290 0.7420 0.7540 0.7670 0.7770
3.626000 0.7790 0.7820 0.7820 0.7850 0.7850
3.656919 0.7810 0.7770 0.7700 0.7700 0.7770
3.687000 0.7770 0.7820 0.7900 0.7980 0.8010
3.717919 0.8070 0.8120 0.8130 0.8180 0.8190
3.749000 0.8210 0.8220 0.8260 0.8300 0.8320
3.779919 0.8320 0.8330 0.8360 0.8400 0.8410
3.811000 0.8410 0.8410 0.8430 0.8430 0.8470
3.841919 0.8500 0.8520 0.8520 0.8540 0.8540
3.873000 0.8570 0.8580 0.8610 0.8630 0.8690
3.903919 0.8720 0.8720 0.8780 0.8810 0.8860
3.935000 0.8910 0.8920 0.8990 0.9020 0.9030
3.965919 0.9090 0.9140 0.9160 0.9170 0.9170
3.996000 0.9170 0.9110 0.9130 0.9130 0.9160
4.026919 0.9160 0.9110 0.9110 0.9130 0.9130
4.058000 0.9160 0.9160 0.9130 0.9130 0.9110
4.088919 0.9110 0.9130 0.9130 0.9130 0.9130
4.120000 0.9130 0.9130 0.9130 0.9130 0.9110
4.150919 0.9110 0.9110 0.9110 0.9130 0.9130
4.182000 0.9130 0.9130 0.9090 0.9090 0.9110
4.212919 0.9110 0.9110 0.9110 0.9110 0.9090
4.244000 0.9090 0.9130 0.9140 0.9170 0.9220
4.274919 0.9230 0.9300 0.9330 0.9360 0.9360
4.306000 0.9340 0.9330 0.9330 0.9330 0.9330
4.336919 0.9310 0.9300 0.9280 0.9280 0.9280
4.367000 0.9280 0.9280 0.9300 0.9300 0.9300
4.397919 0.9300 0.9280 0.9280 0.9280 0.9280
4.429000 0.9280 0.9280 0.9280 0.9280 0.9300
4.459919 0.9300 0.9300 0.9310 0.9310 0.9310
4.491000 0.9310 0.9310 0.9330 0.9330 0.9310
4.521919 0.9330 0.9340 0.9340 0.9360 0.9330
4.553000 0.9330 0.9310 0.9300 0.9300 0.9280
4.583919 0.9280 0.9280 0.9310 0.9370 0.9330
4.615000 0.9330 0.9310 0.9300 0.9300 0.9310
4.645919 0.9330 0.9330 0.9360 0.9370 0.9370
4.676000 0.9370 0.9370 0.9370 0.9370 0.9360
4.706919 0.9340 0.9360 0.9370 0.9390 0.9390
4.738000 0.9390 0.9400 0.9400 0.9400 0.9400
4.768919 0.9390 0.9280 0.9280 0.9360 0.9340
4.800000 0.9310 0.9330 0.9340 0.9340 0.9360
4.830919 0.9370 0.9400 0.9370 0.9370 0.9360
4.862000 0.9330 0.9300 0.9280 0.9280 0.9300
4.892919 0.9300 0.9300 0.9310 0.9310 0.9300
4.924000 0.9280 0.9270 0.9270 0.9300 0.9330
4.954919 0.9330 0.9300 0.9300 0.9230 0.9230
4.985000 0.9270 0.9280 0.9300 0.9330 0.9340
5.015919 0.9370 0.9330 0.9310 0.9300 0.9300
5.047000 0.9280 0.9270 0.9250 0.9270 0.9280
5.077919 0.9300 0.9330 0.9340 0.9330 0.9330
5.109000 0.9330 0.9310 0.9310 0.9310 0.9310
5.139919 0.9310 0.9310 0.9310 0.9300 0.9300
5.171000 0.9300 0.9300 0.9310 0.9330 0.9330
5.201919 0.9330 0.9330 0.9330 0.9330 0.9310
5.233000 0.9310 0.9310 0.9310 0.9310 0.9310
5.263919 0.9300 0.9300 0.9280 0.9280 0.9280
5.294000 0.9280 0.9300 0.9310 0.9310 0.9330
5.324919 0.9330 0.9330 0.9310 0.9280 0.9280
5.356000 0.9270 0.9270 0.9270 0.9280 0.9280
5.386919 0.9280 0.9280 0.9280 0.9280 0.9270
5.418000 0.9270 0.9230 0.9220 0.9190 0.9170
5.448919 0.9140 0.9140 0.9140 0.9130 0.9110
5.480000 0.9090 0.9030 0.9000 0.8990 0.8990
5.510919 0.8950 0.8950 0.8920 0.8880 0.8780
5.542000 0.8690 0.8630 0.8600 0.8570 0.8490
5.572919 0.8410 0.8380 0.8290 0.8180 0.8090
5.604000 0.7990 0.7840 0.7740 0.7590 0.7430
5.634919 0.7340 0.7220 0.7080 0.7000 0.6590
5.665000 0.6280 0.5900 0.5510 0.5120 0.4590
5.695919 0.3910 0.3130 0.2340 0.1410 0.0880
5.727000 0.0380 0.0240 0.0240 0.0320 0.0320
5.757919 0.0370 0.0400 0.0590 0.0820 0.1210
5.789000 0.1580 0.2110 0.2990 0.3890 0.4270
5.819919 0.5210 0.5480 0.5690 0.5790 0.5900
5.851000 0.6020 0.6110 0.6210 0.6280 0.6380
5.881919 0.6500 0.6640 0.6780 0.6870 0.6980
5.913000 0.7090 0.7290 0.7500 0.7600 0.7730
5.943919 0.7810 0.7820 0.7900 0.7990 0.8040
5.974000 0.8130 0.8130 0.8160 0.8210 0.8220
6.004919 0.8260 0.8270 0.8270 0.8270 0.8270
6.036000 0.8220 0.8220 0.8270 0.8330 0.8380
6.066919 0.8410 0.8430 0.8430 0.8440 0.8460
6.098000 0.8460 0.8490 0.8500 0.8520 0.8520
6.128919 0.8520 0.8540 0.8540 0.8540 0.8540
6.160000 0.8540 0.8550 0.8600 0.8630 0.8630
6.190919 0.8630 0.8640 0.8640 0.8660 0.8680
6.222000 0.8680 0.8680 0.8680 0.8680 0.8660
6.252919 0.8680 0.8680 0.8680 0.8680 0.8690
6.283000 0.8690 0.8690 0.8710 0.8710 0.8710
6.313919 0.8710 0.8690 0.8690 0.8680 0.8680
6.345000 0.8660 0.8660 0.8640 0.8640 0.8640
6.375919 0.8640 0.8640 0.8640 0.8640 0.8640
6.407000 0.8640 0.8630 0.8630 0.8600 0.8540
6.437919 0.8520 0.8490 0.8440 0.8410 0.8380
6.469000 0.8360 0.8360 0.8360 0.8360 0.8330
6.499919 0.8330 0.8330 0.8330 0.8330 0.8330
6.531000 0.8320 0.8300 0.8290 0.8240 0.8210
6.561919 0.8180 0.8160 0.8130 0.8100 0.8070
6.592000 0.8040 0.8020 0.7990 0.7900 0.7840
6.622919 0.7820 0.7770 0.7680 0.7570 0.7480
6.654000 0.7390 0.7290 0.7140 0.6980 0.6730
6.684919 0.6440 0.6240 0.5910 0.5600 0.5200
6.716000 0.4780 0.4300 0.3890 0.3490 0.3210
6.746919 0.2700 0.2140 0.1700 0.1220 0.0990
6.778000 0.0910 0.0880 0.0820 0.0790 0.0820
6.808919 0.0830 0.0940 0.1000 0.1110 0.1270
6.840000 0.1420 0.1580 0.1730 0.2010 0.2280
6.870919 0.2430 0.2730 0.2900 0.3150 0.3330
6.902000 0.3490 0.3630 0.3780 0.3830 0.4000
6.932919 0.4190 0.4300 0.4420 0.4580 0.4640
6.963000 0.4730 0.4780 0.4820 0.4870 0.4900
6.993919 0.4790 0.4780 0.4720 0.4670 0.4730
7.025000 0.4780 0.4840 0.5010 0.5290 0.5630
7.055919 0.5880 0.6040 0.6140 0.6140 0.6190
7.087000 0.6220 0.6220 0.5990 0.5790 0.5620
7.117919 0.5430 0.5290 0.5000 0.4700 0.4310
7.149000 0.3890 0.3610 0.3330 0.3220 0.2990
7.179919 0.2880 0.2680 0.2430 0.2200 0.2040
7.211000 0.1890 0.1770 0.1730 0.1660 0.1660
7.241919 0.1770 0.1800 0.2000 0.2180 0.2320
7.272000 0.2480 0.2530 0.2590 0.2500 0.2500
7.302919 0.2340 0.2340 0.2480 0.2500 0.2600
7.334000 0.2790 0.2930 0.2990 0.3020 0.3100
7.364919 0.3120 0.3150 0.3190 0.3240 0.3320
7.396000 0.3380 0.3500 0.3540 0.3550 0.3580
7.426919 0.3640 0.3780 0.3910 0.4000 0.4030
7.458000 0.4080 0.4110 0.4140 0.4230 0.4250
7.488919 0.4270 0.4270 0.4250 0.4200 0.4130
7.520000 0.4090 0.4020 0.3940 0.3920 0.3910
7.550919 0.3880 0.3830 0.3800 0.3740 0.3710
7.581000 0.3680 0.3680 0.3660 0.3640 0.3610
7.611919 0.3600 0.3580 0.3570 0.3570 0.3550
7.643000 0.3540 0.3520 0.3500 0.3470 0.3430
7.673919 0.3380 0.3430 0.3430 0.3440 0.3440
7.705000 0.3470 0.3470 0.3470 0.3470 0.3470
7.735919 0.3470 0.3440 0.3380 0.3290 0.3210
7.767000 0.3180 0.3130 0.3100 0.3040 0.3010
7.797919 0.2950 0.2910 0.2880 0.2840 0.2820
7.829000 0.2790 0.2740 0.2710 0.2630 0.2590
7.859919 0.2530 0.2480 0.2430 0.2340 0.2310
7.891000 0.2230 0.2120 0.2090 0.2030 0.1970
7.921919 0.1920 0.1800 0.1700 0.1670 0.1590
7.952000 0.1490 0.1440 0.1410 0.1380 0.1310
7.982919 0.1300 0.1270 0.1250 0.1250 0.1250
8.014000 0.1270 0.1280 0.1280 0.1280 0.1280
8.044919 0.1300 0.1300 0.1310 0.1330 0.1350
8.076000 0.1390 0.1420 0.1500 0.1520 0.1520
8.106919 0.1520 0.1530 0.1580 0.1640 0.1640
8.138000 0.1670 0.1670 0.1670 0.1690 0.1690
8.168919 0.1700 0.1700 0.1730 0.1730 0.1720
8.200000 0.1700 0.1700 0.1700 0.1700 0.1690
8.230919 0.1690 0.1670 0.1640 0.1630 0.1580
8.261000 0.1530 0.1500 0.1490 0.1450 0.1440
8.291919 0.1420 0.1390 0.1330 0.1280 0.1220
8.323000 0.1210 0.1190 0.1140 0.1110 0.1020
8.353919 0.0990 0.0970 0.0940 0.0940 0.0930
8.385000 0.0900 0.0820 0.0740 0.0720 0.0680
8.415919 0.0630 0.0630 0.0590 0.0590 0.0550
8.447000 0.0540 0.0540 0.0520 0.0480 0.0480
8.477919 0.0450 0.0450 0.0450 0.0450 0.0430
8.509000 0.0430 0.0430 0.0450 0.0450 0.0480
8.539919 0.0480 0.0490 0.0490 0.0510 0.0540
8.570000 0.0630 0.0650 0.0680 0.0680 0.0710
8.600919 0.0740 0.0820 0.0880 0.0990 0.1020
8.632000 0.1100 0.1110 0.1180 0.1240 0.1280
8.662919 0.1390 0.1490 0.1530 0.1670 0.1720
8.694000 0.1730 0.1840 0.2000 0.2040 0.2200
8.724919 0.2280 0.2340 0.2400 0.2430 0.2500
8.756000 0.2530 0.2540 0.2560 0.2570 0.2570
8.786919 0.2570 0.2570 0.2590 0.2590 0.2620
8.818000 0.2620 0.2630 0.2650 0.2700 0.2710
8.848919 0.2740 0.2820 0.2880 0.2950 0.3120
8.879000 0.3220 0.3430 0.3540 0.3630 0.3780
8.909919 0.4000 0.4140 0.4310 0.4400 0.4500
8.941000 0.4640 0.4720 0.4790 0.4840 0.4890
8.971919 0.4920 0.4890 0.4790 0.4730 0.4640
9.003000 0.4420 0.4280 0.4110 0.4000 0.3990
9.033919 0.3800 0.3710 0.3610 0.3430 0.3330
9.065000 0.3290 0.3220 0.3190 0.3130 0.3090
9.095919 0.3050 0.3020 0.3020 0.3010 0.3010
9.127000 0.3010 0.3020 0.3040 0.3070 0.3070
9.157919 0.3100 0.3120 0.3130 0.3190 0.3270
9.189000 0.3300 0.3350 0.3380 0.3400 0.3430
9.219919 0.3490 0.3520 0.3580 0.3610 0.3680
9.250000 0.3740 0.3810 0.3880 0.3910 0.3990
9.280919 0.4020 0.4020 0.4090 0.4130 0.4140
9.312000 0.4190 0.4270 0.4300 0.4330 0.4340
9.342919 0.4370 0.4390 0.4390 0.4420 0.4420
9.374000 0.4440 0.4440 0.4450 0.4470 0.4480
9.404919 0.4500 0.4530 0.4530 0.4530 0.4590
9.436000 0.4590 0.4610 0.4620 0.4670 0.4720
9.466919 0.4730 0.4780 0.4810 0.4820 0.4840
9.498000 0.4840 0.4860 0.4870 0.4890 0.4890
9.528919 0.4900 0.4930 0.4930 0.4930 0.4960
9.559000 0.5000 0.5010 0.5030 0.5030 0.5030
9.589919 0.5030 0.5030 0.5060 0.5060 0.5030
9.621000 0.5030 0.5040 0.5070 0.5090 0.5100
9.651919 0.5100 0.5120 0.5120 0.5100 0.5090
9.683000 0.5030 0.5090 0.5100 0.5100 0.5120
9.713919 0.5130 0.5170 0.5130 0.5100 0.5090
9.745000 0.5030 0.5030 0.5090 0.5090 0.5090
9.775919 0.5070 0.5030 0.5010 0.5000 0.4980
9.807000 0.4980 0.4960 0.4930 0.4920 0.4900
9.837919 0.4870 0.4870 0.4860 0.4860 0.4840
9.868000 0.4840 0.4820 0.4790 0.4780 0.4760
9.898919 0.4750 0.4750 0.4760 0.4760 0.4760
9.930000 0.4760 0.4760 0.4750 0.4750 0.4750
9.960919 0.4730 0.4730 0.4720 0.4700 0.4700
9.992000 0.4720 0.4730 0.4750 0.4780 0.4780
10.022919 0.4760 0.4760 0.4760 0.4750 0.4730
10.054000 0.4730 0.4730 0.4750 0.4760 0.4780
10.084919 0.4810 0.4820 0.4820 0.4860 0.4860
10.116000 0.4870 0.4900 0.4930 0.4980 0.5000
10.146919 0.5000 0.5000 0.5010 0.5030 0.5030
10.177000 0.5090 0.5090 0.5090 0.5120 0.5130
10.207919 0.5170 0.5200 0.5230 0.5230 0.5310
10.239000 0.5320 0.5340 0.5340 0.5370 0.5380
10.269919 0.5410 0.5450 0.5480 0.5490 0.5510
10.301000 0.5590 0.5630 0.5650 0.5680 0.5710
10.331919 0.5720 0.5740 0.5790 0.5820 0.5830
10.363000 0.5860 0.5910 0.5940 0.5990 0.6020
10.393919 0.6050 0.6070 0.6110 0.6130 0.6130
10.425000 0.6130 0.6140 0.6190 0.6210 0.6240
10.455919 0.6300 0.6360 0.6380 0.6380 0.6410
10.487000 0.6440 0.6500 0.6520 0.6530 0.6530
10.517919 0.6550 0.6580 0.6590 0.6610 0.6640
10.548000 0.6690 0.6720 0.6780 0.6800 0.6810
10.578919 0.6810 0.6810 0.6810 0.6830 0.6840
10.610000 0.6870 0.6900 0.6920 0.6940 0.6940
10.640919 0.6970 0.7000 0.7010 0.7030 0.7080
10.672000 0.7080 0.7090 0.7090 0.7090 0.7110
10.702919 0.7110 0.7120 0.7140 0.7180 0.7220
10.734000 0.7220 0.7220 0.7220 0.7200 0.7180
10.764919 0.7180 0.7220 0.7230 0.7230 0.7230
10.796000 0.7220 0.7220 0.7200 0.7180 0.7180
10.826919 0.7170 0.7170 0.7170 0.7180 0.7180
10.857000 0.7200 0.7200 0.7200 0.7200 0.7180
10.887919 0.7170 0.7150 0.7140 0.7110 0.7110
10.919000 0.7140 0.7140 0.7180 0.7230 0.7260
10.949919 0.7260 0.7260 0.7280 0.7290 0.7310
10.981000 0.7320 0.7320 0.7340 0.7340 0.7340
11.011919 0.7340 0.7360 0.7360 0.7370 0.7370
11.043000 0.7390 0.7400 0.7420 0.7430 0.7450
11.073919 0.7480 0.7500 0.7510 0.7510 0.7530
11.105000 0.7530 0.7530 0.7540 0.7540 0.7560
11.135919 0.7560 0.7540 0.7530 0.7530 0.7500
11.166000 0.7500 0.7530 0.7540 0.7540 0.7560
11.196919 0.7570 0.7590 0.7540 0.7540 0.7540
11.228000 0.7540 0.7540 0.7540 0.7560 0.7570
11.258919 0.7570 0.7570 0.7570 0.7590 0.7590
11.290000 0.7590 0.7600 0.7600 0.7600 0.7600
11.320919 0.7600 0.7620 0.7620 0.7630 0.7630
11.352000 0.7630 0.7630 0.7630 0.7630 0.7630
11.382919 0.7630 0.7630 0.7620 0.7620 0.7600
11.414000 0.7590 0.7600 0.7600 0.7600 0.7620
11.444919 0.7650 0.7670 0.7670 0.7670 0.7670
11.475000 0.7680 0.7680 0.7700 0.7700 0.7700
11.505919 0.7700 0.7680 0.7680 0.7630 0.7630
11.537000 0.7670 0.7670 0.7670 0.7670 0.7670
11.567919 0.7680 0.7680 0.7680 0.7700 0.7700
11.599000 0.7730 0.7740 0.7770 0.7790 0.7810
11.629919 0.7810 0.7810 0.7810 0.7810 0.7810
11.661000 0.7820 0.7820 0.7820 0.7840 0.7840
11.691919 0.7850 0.7870 0.7870 0.7870 0.7880
11.723000 0.7880 0.7880 0.7880 0.7880 0.7880
11.753919 0.7870 0.7870 0.7880 0.7880 0.7900
11.785000 0.7900 0.7900 0.7900 0.7910 0.7910
11.815919 0.7910 0.7910 0.7910 0.7910 0.7910
11.846000 0.7930 0.7930 0.7930 0.7930 0.7930
11.876919 0.7930 0.7930 0.7930 0.7930 0.7930
11.908000 0.7930 0.7930 0.7910 0.7910 0.7910
11.938919 0.7910 0.7910 0.7910 0.7910 0.7910
11.970000 0.7930 0.7930 0.7950 0.7950 0.7950
12.000919 0.7960 0.7980 0.7980 0.7980 0.7980
12.032000 0.7980 0.7980 0.7980 0.7980 0.7960
12.062919 0.7960 0.7960 0.7950 0.7910 0.7900
12.094000 0.7880 0.7870 0.7850 0.7840 0.7850
12.124919 0.7870 0.7910 0.7950 0.7960 0.7980
12.155000 0.7980 0.7980 0.7980 0.7980 0.7980
12.185919 0.7990 0.7990 0.7990 0.7990 0.7990
12.217000 0.7990 0.7980 0.7980 0.7990 0.7990
12.247919 0.7990 0.7990 0.7990 0.7990 0.7990
12.279000 0.7990 0.7990 0.7990 0.7990 0.7990
12.309919 0.8010 0.8010 0.8010 0.8010 0.8010
12.341000 0.8010 0.8010 0.8010 0.8010 0.8020
12.371919 0.8020 0.8020 0.8040 0.8040 0.8020
12.403000 0.8010 0.8010 0.8020 0.8020 0.8020
12.433919 0.8020 0.8020 0.8020 0.8020 0.8020
12.464000 0.8020 0.8020 0.8020 0.8050 0.8040
12.494919 0.8040 0.8040 0.8040 0.8040 0.8040
12.526000 0.8040 0.8040 0.8040 0.8020 0.8020
12.556919 0.8020 0.8020 0.8020 0.8010 0.8010
12.588000 0.8010 0.8010 0.7990 0.7980 0.7980
12.618919 0.7960 0.7960 0.7950 0.7950 0.7930
12.650000 0.7930 0.7930 0.7930 0.7910 0.7880
12.680919 0.7870 0.7850 0.7840 0.7820 0.7790
12.712000 0.7770 0.7740 0.7730 0.7710 0.7700
12.742919 0.7680 0.7680 0.7670 0.7650 0.7630
12.774000 0.7620 0.7600 0.7600 0.7600 0.7600
12.804919 0.7600 0.7600 0.7590 0.7590 0.7590
12.835000 0.7590 0.7540 0.7510 0.7480 0.7460
12.865919 0.7430 0.7420 0.7430 0.7460 0.7480
12.897000 0.7480 0.7480 0.7480 0.7460 0.7430
12.927919 0.7430 0.7420 0.7420 0.7420 0.7420
12.959000 0.7430 0.7430 0.7450 0.7430 0.7450
12.989919 0.7450 0.7450 0.7460 0.7480 0.7480
13.021000 0.7500 0.7510 0.7510 0.7510 0.7500
13.051919 0.7500 0.7510 0.7530 0.7540 0.7540
13.083000 0.7560 0.7560 0.7570 0.7570 0.7570
13.113919 0.7590 0.7600 0.7600 0.7620 0.7620
13.144000 0.7620 0.7630 0.7630 0.7630 0.7630
13.174919 0.7630 0.7630 0.7650 0.7650 0.7650
13.206000 0.7630 0.7630 0.7630 0.7630 0.7630
13.236919 0.7620 0.7620 0.7600 0.7600 0.7600
13.268000 0.7600 0.7600 0.7600 0.7600 0.7620
13.298919 0.7620 0.7620 0.7620 0.7600 0.7590
13.330000 0.7590 0.7600 0.7600 0.7620 0.7620
13.360919 0.7600 0.7590 0.7540 0.7540 0.7540
13.392000 0.7540 0.7540 0.7540 0.7530 0.7530
13.422919 0.7530 0.7530 0.7530 0.7530 0.7500
13.453000 0.7480 0.7460 0.7450 0.7420 0.7400
13.483919 0.7400 0.7400 0.7390 0.7390 0.7390
13.515000 0.7370 0.7370 0.7340 0.7340 0.7320
13.545919 0.7310 0.7310 0.7290 0.7290 0.7290
13.577000 0.7290 0.7290 0.7280 0.7250 0.7230
13.607919 0.7220 0.7200 0.7180 0.7170 0.7150
13.639000 0.7140 0.7140 0.7140 0.7140 0.7110
13.669919 0.7090 0.7090 0.7090 0.7110 0.7110
13.701000 0.7090 0.7080 0.7040 0.7030 0.7030
13.731919 0.7030 0.7010 0.7000 0.6980 0.6980
13.762000 0.6980 0.6980 0.6980 0.6980 0.7000
13.792919 0.7000 0.7000 0.7010 0.7110 0.7120
13.824000 0.7170 0.7170 0.7180 0.7200 0.7220
13.854919 0.7250 0.7280 0.7310 0.7370 0.7420
13.886000 0.7450 0.7450 0.7480 0.7510 0.7530
13.916919 0.7540 0.7630 0.7680 0.7730 0.7790
13.948000 0.7840 0.7870 0.7880 0.7900 0.7910
13.978919 0.7930 0.7960 0.7990 0.7990 0.8010
14.010000 0.8020 0.8020 0.8020 0.8020 0.8020
14.040919 0.8020 0.8040 0.8100 0.8120 0.8120
14.072000 0.8120 0.8120 0.8120 0.8120 0.8130
14.102919 0.8130 0.8150 0.8150 0.8150 0.8150
14.133000 0.8150 0.8150 0.8150 0.8160 0.8160
14.163919 0.8160 0.8180 0.8210 0.8220 0.8220
14.195000 0.8240 0.8240 0.8240 0.8260 0.8260
14.225919 0.8240 0.8240 0.8240 0.8240 0.8240
14.257000 0.8260 0.8260 0.8260 0.8270 0.8270
14.287919 0.8270 0.8300 0.8300 0.8300 0.8300
14.319000 0.8300 0.8300 0.8300 0.8320 0.8330
14.349919 0.8330 0.8330 0.8320 0.8320 0.8290
14.381000 0.8290 0.8320 0.8330 0.8360 0.8380
14.411919 0.8380 0.8300 0.8300 0.8400 0.8400
14.442000 0.8350 0.8350 0.8360 0.8360 0.8380
14.472919 0.8380 0.8380 0.8380 0.8360 0.8360
14.504000 0.8360 0.8360 0.8350 0.8350 0.8350
14.534919 0.8360 0.8360 0.8380 0.8380 0.8380
14.566000 0.8360 0.8360 0.8360 0.8360 0.8360
14.596919 0.8360 0.8360 0.8380 0.8380 0.8380
14.628000 0.8380 0.8380 0.8380 0.8380 0.8380
14.658919 0.8360 0.8360 0.8380 0.8380 0.8380
14.690000 0.8380 0.8380 0.8380 0.8360 0.8360
14.720919 0.8360 0.8360 0.8350 0.8350 0.8350
14.751000 0.8360 0.8360 0.8380 0.8380 0.8360
14.781919 0.8330 0.8320 0.8300 0.8290 0.8260
14.813000 0.8260 0.8290 0.8290 0.8290 0.8300
14.843919 0.8300 0.8300 0.8290 0.8290 0.8290
14.875000 0.8290 0.8290 0.8270 0.8260 0.8260
14.905919 0.8260 0.8240 0.8240 0.8240 0.8240
14.937000 0.8240 0.8210 0.8190 0.8150 0.8130
14.967919 0.8130 0.8120 0.8120 0.8120 0.8100
14.999000 0.8050 0.8020 0.7990 0.7990 0.7930
15.029919 0.7910 0.7870 0.7820 0.7820 0.7810
15.060000 0.7790 0.7790 0.7810 0.7810 0.7820
15.090919 0.7840 0.7850 0.7870 0.7950 0.7990
15.122000 0.8020 0.8020 0.8040 0.8070 0.8070
15.152919 0.8050 0.8050 0.8040 0.8040 0.8040
15.184000 0.8020 0.8020 0.8010 0.7990 0.7990
15.214919 0.7980 0.7980 0.7960 0.7960 0.7950
15.246000 0.7930 0.7910 0.7900 0.7880 0.7880
15.276919 0.7870 0.7840 0.7820 0.7810 0.7810
15.308000 0.7770 0.7730 0.7710 0.7710 0.7710
15.338919 0.7710 0.7710 0.7700 0.7700 0.7680
15.370000 0.7670 0.7670 0.7680 0.7680 0.7680
15.400919 0.7680 0.7670 0.7670 0.7670 0.7670
15.431000 0.7670 0.7650 0.7630 0.7630 0.7630
15.461919 0.7620 0.7620 0.7620 0.7620 0.7600
15.493000 0.7590 0.7590 0.7570 0.7540 0.7530
15.523919 0.7510 0.7500 0.7450 0.7430 0.7430
15.555000 0.7450 0.7450 0.7450 0.7430 0.7430
15.585919 0.7420 0.7400 0.7400 0.7390 0.7390
15.617000 0.7370 0.7370 0.7340 0.7340 0.7320
15.647919 0.7310 0.7290 0.7280 0.7280 0.7280
15.679000 0.7260 0.7260 0.7260 0.7280 0.7280
15.709919 0.7280 0.7280 0.7250 0.7220 0.7200
15.740000 0.7170 0.7140 0.7140 0.7120 0.7110
15.770919 0.7110 0.7120 0.7140 0.7120 0.7110
15.802000 0.7090 0.7080 0.7060 0.7060 0.7040
15.832919 0.7040 0.7040 0.7040 0.7060 0.7040
15.864000 0.7040 0.7040 0.7030 0.7030 0.7030
15.894919 0.7030 0.7010 0.7000 0.6980 0.6980
15.926000 0.6980 0.6980 0.6980 0.6980 0.6980
15.956919 0.6980 0.6980 0.6970 0.6980 0.6980
15.988000 0.6980 0.6970 0.6970
##END=
