##TITLE=POTASSIUM TUNGSTATE
$$ C.P.
##JCAMP-DX=4.24
##DATA TYPE=INFRARED SPECTRUM
##CLASS=COBLENTZ
##ORIGIN=MELLON INSTITUTE
##OWNER=COBLENTZ SOCIETY
Collection (C) 2018 copyright by the U.S. Secretary of Commerce
on behalf of the United States of America. All rights reserved.
##DATE=Not specified, most likely prior to 1970
##MOLFORM=K2 W O4
##SOURCE REFERENCE=COBLENTZ NO. 482
##$NIST ID=B6000482
##$NIST SOURCE=COBLENTZ
##$NIST IMAGE=cob482
##SPECTROMETER/DATA SYSTEM=Not specified, most likely a prism, grating, or hybrid spectrometer.
##STATE=SOLID (NUJOL MULL)
##PATH LENGTH=
$$SPECTRAL CONTAMINATION DUE TO OIL AROUND 2900, 1450, 1380 CM^-^1
##SAMPLING PROCEDURE=TRANSMISSION
##RESOLUTION=4
##DATA PROCESSING=DIGITIZED BY NIST FROM HARD COPY
##XUNITS=MICROMETERS
##YUNITS=TRANSMITTANCE
##XFACTOR=1.000000
##YFACTOR=1
##DELTAX=000.006807
##FIRSTX=2.013
##LASTX=15.9738
##FIRSTY=0.953
##MAXX=15.9738
##MINX=2.013
##MAXY=0.977
##MINY=0.108
##NPOINTS=2052
##XYDATA=(X++(Y..Y))
2.013000 0.9530 0.9530 0.9530 0.9530 0.9530
2.047051 0.9510 0.9510 0.9510 0.9500 0.9500
2.081000 0.9500 0.9480 0.9480 0.9460 0.9460
2.115051 0.9460 0.9460 0.9460 0.9460 0.9460
2.149000 0.9450 0.9450 0.9450 0.9430 0.9430
2.183051 0.9430 0.9410 0.9410 0.9410 0.9410
2.217000 0.9410 0.9410 0.9390 0.9390 0.9390
2.251051 0.9380 0.9380 0.9360 0.9360 0.9360
2.285000 0.9340 0.9340 0.9340 0.9320 0.9320
2.319051 0.9290 0.9290 0.9270 0.9270 0.9260
2.353000 0.9240 0.9220 0.9220 0.9220 0.9220
2.387051 0.9220 0.9220 0.9220 0.9220 0.9220
2.421000 0.9220 0.9220 0.9220 0.9220 0.9220
2.455051 0.9220 0.9220 0.9220 0.9220 0.9220
2.489000 0.9220 0.9220 0.9240 0.9240 0.9260
2.523051 0.9260 0.9270 0.9270 0.9270 0.9270
2.558000 0.9270 0.9270 0.9270 0.9270 0.9270
2.592051 0.9270 0.9270 0.9270 0.9270 0.9270
2.626000 0.9270 0.9290 0.9290 0.9290 0.9270
2.660051 0.9290 0.9290 0.9290 0.9290 0.9270
2.694000 0.9270 0.9260 0.9260 0.9260 0.9240
2.728051 0.9220 0.9190 0.9190 0.9170 0.9150
2.762000 0.9140 0.9100 0.9070 0.9050 0.9030
2.796051 0.9020 0.8960 0.8950 0.8910 0.8900
2.830000 0.8830 0.8740 0.8550 0.8500 0.8360
2.864051 0.8240 0.8190 0.8100 0.8020 0.7980
2.898000 0.7880 0.7800 0.7710 0.7620 0.7540
2.932051 0.7430 0.7370 0.7260 0.7180 0.7110
2.966000 0.6990 0.6890 0.6780 0.6680 0.6630
3.000051 0.6590 0.6580 0.6560 0.6540 0.6510
3.034000 0.6470 0.6440 0.6400 0.6390 0.6390
3.068051 0.6350 0.6340 0.6300 0.6270 0.6200
3.102000 0.6160 0.6110 0.6010 0.5990 0.5960
3.136051 0.5920 0.5910 0.5890 0.5870 0.5870
3.170000 0.5890 0.5910 0.5960 0.5970 0.6130
3.204051 0.6250 0.6400 0.6490 0.6640 0.6700
3.238000 0.6830 0.6920 0.7020 0.7140 0.7210
3.272051 0.7280 0.7330 0.7370 0.7380 0.7400
3.306000 0.7400 0.7400 0.7380 0.7370 0.6990
3.340051 0.6470 0.5970 0.5480 0.4650 0.4000
3.374000 0.3480 0.3040 0.3020 0.3050 0.3670
3.408051 0.4340 0.4670 0.4930 0.5180 0.5250
3.442000 0.5270 0.5220 0.5150 0.5080 0.5010
3.476051 0.4960 0.5000 0.5770 0.6640 0.6870
3.511000 0.7140 0.7710 0.7970 0.8070 0.8290
3.545051 0.8400 0.8470 0.8550 0.8620 0.8640
3.579000 0.8710 0.8780 0.8830 0.8840 0.8860
3.613051 0.8880 0.8900 0.8900 0.8910 0.8910
3.647000 0.8910 0.8930 0.8930 0.8930 0.8930
3.681051 0.8930 0.8950 0.8950 0.8950 0.8960
3.715000 0.8960 0.8960 0.8960 0.8960 0.8960
3.749051 0.8980 0.8980 0.8980 0.8980 0.8980
3.783000 0.8980 0.8980 0.8980 0.8960 0.8980
3.817051 0.8980 0.9000 0.8980 0.8980 0.8980
3.851000 0.8980 0.9000 0.9000 0.9000 0.9000
3.885051 0.9000 0.9000 0.9000 0.9020 0.9020
3.919000 0.9020 0.9020 0.9020 0.9020 0.9020
3.953051 0.9030 0.9030 0.9030 0.9030 0.9030
3.987000 0.9030 0.9030 0.9030 0.9030 0.9030
4.021051 0.9030 0.9030 0.9030 0.9030 0.9030
4.055000 0.9030 0.9030 0.9030 0.9030 0.9030
4.089051 0.9050 0.9050 0.9030 0.9030 0.9030
4.123000 0.9020 0.9020 0.9020 0.9020 0.9020
4.157051 0.9020 0.9020 0.9020 0.9020 0.9020
4.191000 0.9020 0.9020 0.9020 0.9020 0.9000
4.225051 0.9000 0.9000 0.9000 0.9000 0.9000
4.259000 0.9000 0.9000 0.9000 0.9000 0.9000
4.293051 0.8980 0.8980 0.8980 0.8980 0.9000
4.327000 0.9000 0.9000 0.9000 0.9000 0.9000
4.361051 0.9000 0.9000 0.9000 0.9000 0.9000
4.395000 0.9000 0.9000 0.9000 0.9000 0.9000
4.429051 0.9000 0.9000 0.9000 0.9000 0.9000
4.463000 0.9000 0.9000 0.9000 0.9000 0.9000
4.497051 0.9000 0.8980 0.8980 0.8980 0.8980
4.532000 0.8980 0.8980 0.9000 0.8980 0.8980
4.566051 0.8980 0.8980 0.8960 0.8960 0.8960
4.600000 0.8960 0.8960 0.8960 0.8980 0.8980
4.634051 0.8980 0.9000 0.8980 0.8980 0.8980
4.668000 0.8980 0.8980 0.8980 0.8980 0.8980
4.702051 0.8980 0.8980 0.9000 0.8980 0.8980
4.736000 0.8980 0.8980 0.9000 0.9020 0.9020
4.770051 0.9020 0.9020 0.9020 0.9030 0.9030
4.804000 0.9020 0.9030 0.9030 0.9030 0.9020
4.838051 0.9020 0.9020 0.9020 0.9020 0.9020
4.872000 0.9020 0.9020 0.9020 0.9020 0.9030
4.906051 0.9030 0.9030 0.9030 0.9020 0.9020
4.940000 0.9030 0.9030 0.9030 0.9030 0.9030
4.974051 0.9030 0.9030 0.9030 0.9030 0.9030
5.008000 0.9050 0.9050 0.9050 0.9070 0.9070
5.042051 0.9070 0.9070 0.9070 0.9080 0.9080
5.076000 0.9100 0.9100 0.9100 0.9080 0.9080
5.110051 0.9100 0.9100 0.9100 0.9100 0.9100
5.144000 0.9100 0.9120 0.9120 0.9120 0.9120
5.178051 0.9120 0.9140 0.9140 0.9150 0.9120
5.212000 0.9140 0.9140 0.9140 0.9120 0.9120
5.246051 0.9120 0.9120 0.9120 0.9120 0.9120
5.280000 0.9120 0.9120 0.9120 0.9140 0.9140
5.314051 0.9140 0.9140 0.9140 0.9140 0.9140
5.348000 0.9140 0.9140 0.9140 0.9150 0.9150
5.382051 0.9150 0.9170 0.9170 0.9170 0.9170
5.416000 0.9170 0.9170 0.9170 0.9170 0.9170
5.450051 0.9190 0.9190 0.9190 0.9190 0.9190
5.485000 0.9170 0.9170 0.9170 0.9170 0.9190
5.519051 0.9190 0.9200 0.9200 0.9200 0.9200
5.553000 0.9200 0.9200 0.9200 0.9220 0.9220
5.587051 0.9220 0.9220 0.9220 0.9220 0.9220
5.621000 0.9240 0.9220 0.9220 0.9220 0.9220
5.655051 0.9220 0.9220 0.9220 0.9220 0.9220
5.689000 0.9220 0.9220 0.9220 0.9220 0.9220
5.723051 0.9220 0.9220 0.9220 0.9220 0.9220
5.757000 0.9220 0.9200 0.9200 0.9200 0.9200
5.791051 0.9190 0.9190 0.9170 0.9170 0.9170
5.825000 0.9170 0.9150 0.9150 0.9140 0.9120
5.859051 0.9080 0.9030 0.9000 0.8860 0.8780
5.893000 0.8520 0.8470 0.8430 0.8380 0.8330
5.927051 0.8290 0.8280 0.8240 0.8240 0.8240
5.961000 0.8240 0.8240 0.8260 0.8280 0.8330
5.995051 0.8380 0.8430 0.8480 0.8530 0.8600
6.029000 0.8690 0.8720 0.8760 0.8790 0.8810
6.063051 0.8840 0.8860 0.8900 0.8930 0.8950
6.097000 0.8960 0.8980 0.9000 0.9020 0.9030
6.131051 0.9030 0.9050 0.9070 0.9080 0.9100
6.165000 0.9120 0.9120 0.9120 0.9140 0.9140
6.199051 0.9150 0.9190 0.9190 0.9190 0.9200
6.233000 0.9200 0.9200 0.9220 0.9220 0.9220
6.267051 0.9240 0.9240 0.9240 0.9240 0.9240
6.301000 0.9220 0.9220 0.9220 0.9220 0.9220
6.335051 0.9240 0.9240 0.9220 0.9220 0.9220
6.369000 0.9220 0.9220 0.9220 0.9220 0.9220
6.403051 0.9220 0.9220 0.9220 0.9220 0.9220
6.438000 0.9220 0.9220 0.9200 0.9200 0.9200
6.472051 0.9200 0.9200 0.9200 0.9200 0.9200
6.506000 0.9190 0.9190 0.9190 0.9170 0.9170
6.540051 0.9170 0.9170 0.9170 0.9170 0.9170
6.574000 0.9170 0.9170 0.9190 0.9200 0.9190
6.608051 0.9200 0.9200 0.9200 0.9200 0.9200
6.642000 0.9200 0.9220 0.9220 0.9220 0.9220
6.676051 0.9200 0.9200 0.9200 0.9190 0.9190
6.710000 0.9190 0.9190 0.9150 0.9140 0.9120
6.744051 0.9120 0.9050 0.9030 0.9000 0.8910
6.778000 0.8740 0.8590 0.8410 0.8280 0.8120
6.812051 0.8020 0.7950 0.7830 0.7760 0.7680
6.846000 0.7610 0.7570 0.7560 0.7560 0.7560
6.880051 0.7590 0.7610 0.7610 0.7660 0.7690
6.914000 0.7740 0.7830 0.7980 0.8040 0.8120
6.948051 0.8160 0.8210 0.8240 0.8290 0.8360
6.982000 0.8360 0.8450 0.8550 0.8670 0.8720
7.016051 0.8790 0.8810 0.8840 0.8860 0.8880
7.050000 0.8910 0.8950 0.8980 0.9030 0.9070
7.084051 0.9080 0.9120 0.9140 0.9150 0.9170
7.118000 0.9190 0.9190 0.9190 0.9190 0.9200
7.152051 0.9200 0.9200 0.9200 0.9190 0.9170
7.186000 0.9140 0.9070 0.9030 0.9000 0.8950
7.220051 0.8900 0.8810 0.8620 0.8520 0.8500
7.254000 0.8520 0.8530 0.8600 0.8690 0.8740
7.288051 0.8780 0.8810 0.8840 0.8860 0.8900
7.322000 0.8950 0.8980 0.9020 0.9030 0.9050
7.356051 0.9050 0.9070 0.9080 0.9120 0.9190
7.390000 0.9200 0.9240 0.9240 0.9260 0.9260
7.424051 0.9260 0.9270 0.9290 0.9290 0.9290
7.459000 0.9290 0.9290 0.9310 0.9310 0.9320
7.493051 0.9320 0.9340 0.9340 0.9360 0.9360
7.527000 0.9390 0.9410 0.9410 0.9410 0.9410
7.561051 0.9410 0.9430 0.9430 0.9430 0.9450
7.595000 0.9450 0.9450 0.9460 0.9460 0.9460
7.629051 0.9460 0.9460 0.9460 0.9460 0.9460
7.663000 0.9460 0.9460 0.9480 0.9480 0.9480
7.697051 0.9500 0.9500 0.9500 0.9500 0.9500
7.731000 0.9510 0.9510 0.9510 0.9510 0.9530
7.765051 0.9530 0.9530 0.9530 0.9550 0.9570
7.799000 0.9570 0.9580 0.9580 0.9580 0.9580
7.833051 0.9600 0.9600 0.9600 0.9600 0.9620
7.867000 0.9620 0.9620 0.9630 0.9630 0.9630
7.901051 0.9630 0.9630 0.9630 0.9630 0.9630
7.935000 0.9630 0.9630 0.9630 0.9650 0.9650
7.969051 0.9650 0.9650 0.9650 0.9670 0.9650
8.003000 0.9670 0.9670 0.9670 0.9690 0.9670
8.037051 0.9690 0.9690 0.9690 0.9690 0.9690
8.071000 0.9690 0.9690 0.9690 0.9690 0.9690
8.105051 0.9690 0.9690 0.9690 0.9690 0.9690
8.139000 0.9690 0.9690 0.9690 0.9700 0.9690
8.173051 0.9690 0.9670 0.9690 0.9690 0.9690
8.207000 0.9700 0.9700 0.9700 0.9700 0.9700
8.241051 0.9720 0.9720 0.9720 0.9720 0.9740
8.275000 0.9740 0.9740 0.9740 0.9740 0.9720
8.309051 0.9720 0.9740 0.9740 0.9740 0.9750
8.343000 0.9770 0.9750 0.9750 0.9750 0.9750
8.377051 0.9750 0.9750 0.9750 0.9750 0.9750
8.412000 0.9750 0.9750 0.9750 0.9770 0.9770
8.446051 0.9770 0.9770 0.9770 0.9770 0.9750
8.480000 0.9750 0.9770 0.9770 0.9750 0.9750
8.514051 0.9750 0.9750 0.9750 0.9750 0.9770
8.548000 0.9770 0.9770 0.9770 0.9770 0.9770
8.582051 0.9770 0.9770 0.9770 0.9770 0.9770
8.616000 0.9770 0.9770 0.9770 0.9770 0.9770
8.650051 0.9770 0.9770 0.9770 0.9750 0.9750
8.684000 0.9770 0.9770 0.9770 0.9770 0.9770
8.718051 0.9770 0.9770 0.9770 0.9770 0.9770
8.752000 0.9750 0.9750 0.9750 0.9750 0.9750
8.786051 0.9750 0.9750 0.9750 0.9750 0.9750
8.820000 0.9750 0.9740 0.9740 0.9740 0.9740
8.854051 0.9740 0.9740 0.9740 0.9740 0.9740
8.888000 0.9740 0.9740 0.9740 0.9740 0.9720
8.922051 0.9720 0.9720 0.9720 0.9720 0.9700
8.956000 0.9700 0.9690 0.9690 0.9690 0.9690
8.990051 0.9690 0.9690 0.9670 0.9670 0.9670
9.024000 0.9670 0.9650 0.9650 0.9650 0.9650
9.058051 0.9650 0.9650 0.9650 0.9650 0.9650
9.092000 0.9650 0.9650 0.9650 0.9650 0.9650
9.126051 0.9670 0.9670 0.9670 0.9670 0.9670
9.160000 0.9670 0.9670 0.9670 0.9670 0.9670
9.194051 0.9670 0.9670 0.9670 0.9670 0.9670
9.228000 0.9670 0.9670 0.9670 0.9670 0.9670
9.262051 0.9670 0.9670 0.9670 0.9650 0.9650
9.296000 0.9650 0.9650 0.9650 0.9650 0.9650
9.330051 0.9650 0.9650 0.9650 0.9670 0.9670
9.364000 0.9670 0.9650 0.9650 0.9650 0.9650
9.398051 0.9650 0.9650 0.9650 0.9650 0.9650
9.433000 0.9670 0.9670 0.9670 0.9670 0.9670
9.467051 0.9670 0.9670 0.9670 0.9670 0.9690
9.501000 0.9690 0.9690 0.9690 0.9690 0.9690
9.535051 0.9690 0.9690 0.9700 0.9690 0.9690
9.569000 0.9690 0.9690 0.9690 0.9690 0.9690
9.603051 0.9670 0.9670 0.9670 0.9670 0.9690
9.637000 0.9670 0.9670 0.9670 0.9670 0.9650
9.671051 0.9650 0.9650 0.9650 0.9650 0.9650
9.705000 0.9650 0.9650 0.9650 0.9650 0.9650
9.739051 0.9650 0.9650 0.9650 0.9650 0.9650
9.773000 0.9650 0.9650 0.9650 0.9650 0.9650
9.807051 0.9650 0.9650 0.9650 0.9650 0.9650
9.841000 0.9670 0.9670 0.9670 0.9670 0.9670
9.875051 0.9670 0.9670 0.9670 0.9670 0.9670
9.909000 0.9670 0.9670 0.9670 0.9670 0.9670
9.943051 0.9670 0.9670 0.9670 0.9670 0.9670
9.977000 0.9670 0.9670 0.9690 0.9700 0.9690
10.011051 0.9690 0.9690 0.9690 0.9690 0.9690
10.045000 0.9690 0.9690 0.9690 0.9690 0.9690
10.079051 0.9690 0.9690 0.9700 0.9700 0.9700
10.113000 0.9700 0.9700 0.9700 0.9700 0.9700
10.147051 0.9700 0.9700 0.9700 0.9700 0.9700
10.181000 0.9700 0.9700 0.9700 0.9700 0.9700
10.215051 0.9690 0.9690 0.9690 0.9690 0.9690
10.249000 0.9690 0.9690 0.9690 0.9690 0.9690
10.283051 0.9690 0.9670 0.9670 0.9670 0.9670
10.317000 0.9670 0.9670 0.9670 0.9670 0.9670
10.351051 0.9670 0.9670 0.9670 0.9670 0.9670
10.386000 0.9670 0.9670 0.9670 0.9670 0.9670
10.420051 0.9670 0.9670 0.9670 0.9670 0.9670
10.454000 0.9670 0.9670 0.9670 0.9670 0.9670
10.488051 0.9670 0.9670 0.9670 0.9670 0.9670
10.522000 0.9670 0.9670 0.9670 0.9690 0.9670
10.556051 0.9670 0.9690 0.9670 0.9670 0.9670
10.590000 0.9670 0.9670 0.9670 0.9670 0.9650
10.624051 0.9650 0.9630 0.9630 0.9630 0.9630
10.658000 0.9620 0.9620 0.9600 0.9580 0.9580
10.692051 0.9550 0.9550 0.9510 0.9500 0.9480
10.726000 0.9430 0.9410 0.9360 0.9310 0.9200
10.760051 0.9150 0.9020 0.8900 0.8840 0.8810
10.794000 0.8790 0.8790 0.8790 0.8810 0.8810
10.828051 0.8830 0.8840 0.8840 0.8860 0.8900
10.862000 0.8910 0.8930 0.8960 0.8980 0.9000
10.896051 0.9020 0.9070 0.9070 0.9080 0.9100
10.930000 0.9100 0.9120 0.9120 0.9120 0.9120
10.964051 0.9120 0.9120 0.9120 0.9120 0.9120
10.998000 0.9120 0.9140 0.9140 0.9140 0.9140
11.032051 0.9120 0.9120 0.9120 0.9120 0.9120
11.066000 0.9100 0.9100 0.9080 0.9070 0.9050
11.100051 0.9050 0.9020 0.9000 0.8950 0.8930
11.134000 0.8900 0.8840 0.8830 0.8740 0.8690
11.168051 0.8650 0.8570 0.8520 0.8470 0.8360
11.202000 0.8330 0.8290 0.8240 0.8190 0.8120
11.236051 0.8040 0.8040 0.8000 0.7900 0.7810
11.270000 0.7760 0.7660 0.7560 0.7490 0.7430
11.304051 0.7380 0.7330 0.7280 0.7180 0.7020
11.338000 0.7010 0.6970 0.6890 0.6850 0.6820
11.372051 0.6730 0.6640 0.6580 0.6540 0.6460
11.407000 0.6370 0.6280 0.6270 0.6230 0.6180
11.441051 0.6130 0.6030 0.5990 0.5940 0.5870
11.475000 0.5800 0.5700 0.5650 0.5580 0.5510
11.509051 0.5420 0.5370 0.5290 0.5240 0.5200
11.543000 0.5130 0.5030 0.4980 0.4940 0.4820
11.577051 0.4790 0.4740 0.4650 0.4580 0.4510
11.611000 0.4450 0.4360 0.4320 0.4270 0.4190
11.645051 0.4150 0.4030 0.4000 0.3980 0.3900
11.679000 0.3830 0.3760 0.3670 0.3620 0.3550
11.713051 0.3480 0.3450 0.3380 0.3330 0.3280
11.747000 0.3240 0.3160 0.3050 0.3020 0.2970
11.781051 0.2900 0.2830 0.2760 0.2690 0.2640
11.815000 0.2570 0.2500 0.2450 0.2400 0.2330
11.849051 0.2300 0.2250 0.2190 0.2130 0.2070
11.883000 0.1990 0.1940 0.1890 0.1830 0.1800
11.917051 0.1750 0.1700 0.1630 0.1590 0.1510
11.951000 0.1470 0.1460 0.1420 0.1390 0.1370
11.985051 0.1340 0.1320 0.1280 0.1250 0.1230
12.019000 0.1230 0.1210 0.1200 0.1180 0.1160
12.053051 0.1150 0.1130 0.1110 0.1110 0.1090
12.087000 0.1090 0.1090 0.1090 0.1090 0.1080
12.121051 0.1080 0.1080 0.1080 0.1090 0.1090
12.155000 0.1090 0.1090 0.1090 0.1090 0.1090
12.189051 0.1110 0.1110 0.1110 0.1130 0.1160
12.223000 0.1160 0.1180 0.1200 0.1200 0.1210
12.257051 0.1230 0.1250 0.1280 0.1300 0.1320
12.291000 0.1320 0.1340 0.1350 0.1390 0.1400
12.325051 0.1420 0.1440 0.1490 0.1520 0.1560
12.360000 0.1610 0.1660 0.1820 0.1950 0.1990
12.394051 0.2130 0.2250 0.2330 0.2450 0.2560
12.428000 0.2680 0.2810 0.2900 0.3040 0.3170
12.462051 0.3240 0.3310 0.3450 0.3530 0.3690
12.496000 0.3830 0.3910 0.4020 0.4140 0.4240
12.530051 0.4310 0.4390 0.4510 0.4570 0.4670
12.564000 0.4770 0.4820 0.4890 0.5010 0.5170
12.598051 0.5250 0.5340 0.5420 0.5490 0.5560
12.632000 0.5680 0.5800 0.5850 0.5960 0.6010
12.666051 0.6040 0.6040 0.6160 0.6200 0.6250
12.700000 0.6340 0.6390 0.6460 0.6510 0.6560
12.734051 0.6610 0.6640 0.6680 0.6750 0.6780
12.768000 0.6820 0.6870 0.6890 0.6920 0.6990
12.802051 0.7010 0.7020 0.7040 0.7070 0.7090
12.836000 0.7130 0.7160 0.7180 0.7190 0.7210
12.870051 0.7250 0.7260 0.7280 0.7300 0.7310
12.904000 0.7310 0.7350 0.7350 0.7370 0.7370
12.938051 0.7370 0.7380 0.7400 0.7400 0.7420
12.972000 0.7430 0.7430 0.7450 0.7470 0.7490
13.006051 0.7500 0.7520 0.7520 0.7520 0.7520
13.040000 0.7540 0.7560 0.7560 0.7570 0.7590
13.074051 0.7610 0.7610 0.7610 0.7610 0.7620
13.108000 0.7620 0.7620 0.7620 0.7620 0.7660
13.142051 0.7660 0.7660 0.7660 0.7660 0.7680
13.176000 0.7680 0.7680 0.7690 0.7690 0.7690
13.210051 0.7710 0.7710 0.7710 0.7730 0.7730
13.244000 0.7730 0.7730 0.7730 0.7740 0.7740
13.278051 0.7740 0.7740 0.7760 0.7780 0.7800
13.313000 0.7800 0.7800 0.7810 0.7810 0.7810
13.347051 0.7830 0.7830 0.7850 0.7850 0.7860
13.381000 0.7880 0.7900 0.7930 0.7950 0.7950
13.415051 0.7970 0.7980 0.7980 0.8000 0.8000
13.449000 0.8020 0.8020 0.8020 0.8040 0.8040
13.483051 0.8040 0.8090 0.8100 0.8120 0.8140
13.517000 0.8140 0.8140 0.8140 0.8160 0.8170
13.551051 0.8190 0.8190 0.8210 0.8230 0.8240
13.585000 0.8240 0.8260 0.8260 0.8290 0.8290
13.619051 0.8310 0.8310 0.8310 0.8310 0.8330
13.653000 0.8350 0.8350 0.8360 0.8380 0.8380
13.687051 0.8380 0.8400 0.8410 0.8410 0.8410
13.721000 0.8430 0.8430 0.8430 0.8430 0.8430
13.755051 0.8450 0.8470 0.8470 0.8470 0.8480
13.789000 0.8480 0.8500 0.8500 0.8520 0.8520
13.823051 0.8520 0.8530 0.8530 0.8530 0.8530
13.857000 0.8530 0.8530 0.8530 0.8550 0.8550
13.891051 0.8550 0.8550 0.8570 0.8570 0.8570
13.925000 0.8570 0.8570 0.8590 0.8590 0.8590
13.959051 0.8600 0.8620 0.8620 0.8640 0.8620
13.993000 0.8620 0.8600 0.8600 0.8600 0.8620
14.027051 0.8620 0.8620 0.8620 0.8620 0.8620
14.061000 0.8620 0.8620 0.8620 0.8620 0.8620
14.095051 0.8620 0.8620 0.8620 0.8620 0.8620
14.129000 0.8620 0.8620 0.8620 0.8600 0.8600
14.163051 0.8600 0.8590 0.8570 0.8570 0.8590
14.197000 0.8570 0.8570 0.8570 0.8550 0.8550
14.231051 0.8550 0.8550 0.8550 0.8550 0.8550
14.265000 0.8530 0.8520 0.8520 0.8520 0.8520
14.299051 0.8520 0.8520 0.8520 0.8520 0.8520
14.334000 0.8520 0.8520 0.8520 0.8500 0.8500
14.368051 0.8500 0.8500 0.8500 0.8500 0.8500
14.402000 0.8500 0.8500 0.8500 0.8500 0.8500
14.436051 0.8500 0.8480 0.8480 0.8480 0.8480
14.470000 0.8470 0.8470 0.8450 0.8450 0.8430
14.504051 0.8430 0.8430 0.8430 0.8410 0.8410
14.538000 0.8410 0.8400 0.8400 0.8400 0.8400
14.572051 0.8380 0.8380 0.8380 0.8360 0.8350
14.606000 0.8350 0.8330 0.8330 0.8310 0.8310
14.640051 0.8290 0.8290 0.8290 0.8280 0.8280
14.674000 0.8260 0.8240 0.8240 0.8240 0.8240
14.708051 0.8230 0.8230 0.8230 0.8230 0.8210
14.742000 0.8210 0.8190 0.8190 0.8170 0.8160
14.776051 0.8160 0.8140 0.8120 0.8100 0.8100
14.810000 0.8100 0.8100 0.8090 0.8090 0.8090
14.844051 0.8070 0.8070 0.8070 0.8050 0.8050
14.878000 0.8050 0.8040 0.8040 0.8040 0.8020
14.912051 0.8040 0.8020 0.8000 0.8000 0.8000
14.946000 0.7980 0.7970 0.7980 0.7980 0.7980
14.980051 0.7970 0.7970 0.7970 0.7950 0.7950
15.014000 0.7930 0.7930 0.7930 0.7930 0.7930
15.048051 0.7920 0.7920 0.7900 0.7900 0.7880
15.082000 0.7880 0.7880 0.7880 0.7850 0.7850
15.116051 0.7830 0.7830 0.7830 0.7810 0.7810
15.150000 0.7810 0.7810 0.7800 0.7800 0.7780
15.184051 0.7780 0.7760 0.7780 0.7760 0.7760
15.218000 0.7740 0.7740 0.7730 0.7730 0.7710
15.252051 0.7710 0.7690 0.7690 0.7690 0.7690
15.287000 0.7690 0.7680 0.7680 0.7660 0.7660
15.321051 0.7640 0.7640 0.7620 0.7620 0.7620
15.355000 0.7610 0.7610 0.7590 0.7570 0.7590
15.389051 0.7590 0.7570 0.7560 0.7540 0.7540
15.423000 0.7520 0.7520 0.7520 0.7500 0.7500
15.457051 0.7490 0.7490 0.7490 0.7470 0.7470
15.491000 0.7450 0.7450 0.7450 0.7430 0.7420
15.525051 0.7420 0.7420 0.7420 0.7400 0.7400
15.559000 0.7420 0.7400 0.7400 0.7400 0.7380
15.593051 0.7380 0.7370 0.7370 0.7370 0.7350
15.627000 0.7350 0.7330 0.7330 0.7330 0.7330
15.661051 0.7330 0.7330 0.7310 0.7300 0.7300
15.695000 0.7300 0.7300 0.7300 0.7300 0.7300
15.729051 0.7300 0.7280 0.7280 0.7280 0.7260
15.763000 0.7260 0.7260 0.7260 0.7250 0.7250
15.797051 0.7250 0.7250 0.7250 0.7230 0.7230
15.831000 0.7230 0.7230 0.7230 0.7230 0.7230
15.865051 0.7230 0.7230 0.7230 0.7230 0.7250
15.899000 0.7250 0.7250 0.7260 0.7250 0.7250
15.933051 0.7260 0.7250 0.7250 0.7250 0.7250
15.967000 0.7250 0.7250
##END=
