##TITLE=PHOSPHORIC ACID, DIBENZYL N,N-DIMETHYL CARBAMYL ESTER
##JCAMP-DX=4.24
##DATA TYPE=INFRARED SPECTRUM
##CLASS=COBLENTZ III
##ORIGIN=SOUTHERN RESEARCH INSTITUTE (W.C. COBURN, JR.)
##OWNER=COBLENTZ SOCIETY
Collection (C) 2018 copyright by the U.S. Secretary of Commerce
on behalf of the United States of America. All rights reserved.
##DATE=1957/10/09
##NAMES=dibenzyl (dimethylamino)carbonyl phosphate
##MOLFORM=C17 H20 N O5 P
##SOURCE REFERENCE=COBLENTZ NO. 9897
##$NIST ID=B6009897
##$NIST SOURCE=COBLENTZ
##$NIST IMAGE=cob9897
##SPECTROMETER/DATA SYSTEM=PERKIN-ELMER 21 (GRATING)
##INSTRUMENT PARAMETERS=NaCl PRISM, FILTER CHANGE AT 1090 CM^-^1
##STATE=LIQUID (NEAT)
##PATH LENGTH=CAPILLARY
##SAMPLING PROCEDURE=TRANSMISSION
##RESOLUTION=2
##DATA PROCESSING=DIGITIZED BY NIST FROM HARD COPY (FROM TWO SEGMENTS)
##XUNITS=1/CM
##YUNITS=TRANSMITTANCE
##XFACTOR=1.000000
##YFACTOR=1
##DELTAX=1.308258
##FIRSTX=613.567
##LASTX=4028.12
##FIRSTY=0.509
##MAXX=4028.12
##MINX=613.567
##MAXY=0.87
##MINY=0.041
##NPOINTS=2611
##XYDATA=(X++(Y..Y))
613.567000 0.5090 0.5090 0.5090 0.5090 0.5090
620.108290 0.5090 0.5090 0.5090 0.5090 0.5090
626.649580 0.5090 0.5090 0.5109 0.5110 0.5110
633.190870 0.5110 0.5119 0.5129 0.5139 0.5158
639.732160 0.5225 0.5322 0.5422 0.5540 0.5723
646.273450 0.5976 0.6081 0.6135 0.6176 0.6216
652.814740 0.6247 0.6259 0.6260 0.6269 0.6270
659.356030 0.6270 0.6270 0.6270 0.6270 0.6270
665.897320 0.6270 0.6270 0.6270 0.6270 0.6270
672.438610 0.6270 0.6270 0.6287 0.6290 0.6290
678.979900 0.6290 0.6290 0.6290 0.6290 0.6290
685.521190 0.6290 0.6290 0.6290 0.6290 0.6274
692.062480 0.6207 0.6049 0.5862 0.5386 0.4944
698.603770 0.4521 0.4055 0.3569 0.3074 0.2935
705.145060 0.2945 0.3362 0.3671 0.3900 0.4335
711.686350 0.4682 0.5217 0.5945 0.6239 0.6377
718.227640 0.6441 0.6478 0.6504 0.6482 0.6421
724.768930 0.6386 0.6332 0.6207 0.6140 0.6123
731.310220 0.5828 0.5399 0.4937 0.4459 0.3982
737.851510 0.3556 0.3145 0.2844 0.2760 0.2760
744.392800 0.2766 0.2770 0.2770 0.2776 0.2799
750.934090 0.2866 0.2962 0.3117 0.3257 0.3330
757.475380 0.3471 0.3635 0.3810 0.4153 0.4484
764.016670 0.4925 0.5335 0.5831 0.6474 0.6824
770.557960 0.6891 0.6957 0.7051 0.7146 0.7235
777.099250 0.7276 0.7280 0.7275 0.7270 0.7243
783.640540 0.7166 0.7099 0.7064 0.7034 0.7010
790.181830 0.6995 0.6975 0.6955 0.6950 0.6935
796.723120 0.6920 0.6920 0.6920 0.6925 0.6945
803.264410 0.6965 0.6980 0.6990 0.6990 0.6990
809.805700 0.6990 0.6990 0.6990 0.6981 0.6965
816.346990 0.6956 0.6950 0.6950 0.6950 0.6950
822.888280 0.6941 0.6930 0.6930 0.6930 0.6930
829.429570 0.6930 0.6930 0.6930 0.6930 0.6926
835.970860 0.6916 0.6894 0.6858 0.6825 0.6781
842.512150 0.6746 0.6736 0.6723 0.6703 0.6676
849.053440 0.6636 0.6592 0.6542 0.6486 0.6419
855.594730 0.6356 0.6290 0.6227 0.6154 0.6081
862.136020 0.6018 0.5951 0.5840 0.5621 0.5390
868.677310 0.5131 0.4794 0.4356 0.4110 0.3865
875.218600 0.3606 0.3268 0.2816 0.2558 0.2225
881.759890 0.1824 0.1764 0.1689 0.1572 0.1452
888.301180 0.1335 0.1323 0.1332 0.1345 0.1377
894.842470 0.1446 0.1537 0.1716 0.1948 0.2112
901.383760 0.2260 0.2392 0.2515 0.2701 0.2823
907.925050 0.3032 0.3287 0.3696 0.3975 0.4388
914.466340 0.4592 0.4769 0.4939 0.5129 0.5187
921.007630 0.5275 0.5300 0.5312 0.5392 0.5470
927.548920 0.5541 0.5622 0.5693 0.5751 0.6030
934.090210 0.6193 0.6422 0.6445 0.6489 0.6561
940.631500 0.6570 0.6570 0.6570 0.6570 0.6569
947.172790 0.6553 0.6476 0.6438 0.6412 0.6315
953.714080 0.6245 0.6170 0.6044 0.5965 0.5895
960.255370 0.5807 0.5586 0.5322 0.5162 0.4984
966.796660 0.4592 0.4371 0.4142 0.3641 0.3362
973.337950 0.3078 0.2989 0.2949 0.2889 0.2810
979.879240 0.2740 0.2680 0.2600 0.2550 0.2510
986.420530 0.2382 0.2262 0.2162 0.1985 0.1806
992.961820 0.1463 0.1169 0.1035 0.0905 0.0728
999.503110 0.0596 0.0533 0.0502 0.0500 0.0500
1006.044400 0.0500 0.0500 0.0472 0.0442 0.0412
1012.585690 0.0410 0.0410 0.0410 0.0410 0.0410
1019.126980 0.0410 0.0410 0.0410 0.0437 0.0484
1025.668270 0.0569 0.0589 0.0634 0.0692 0.0743
1032.209560 0.1085 0.1149 0.1176 0.1197 0.1208
1038.750850 0.1235 0.1248 0.1317 0.1388 0.1491
1045.292140 0.1600 0.1785 0.1878 0.1939 0.2015
1051.833430 0.2143 0.2267 0.2426 0.2508 0.2552
1058.374720 0.2576 0.2699 0.2793 0.2841 0.2889
1064.916010 0.2939 0.3004 0.3066 0.3141 0.3221
1071.457300 0.3308 0.3496 0.3648 0.3777 0.3914
1077.998590 0.4201 0.4422 0.4514 0.4581 0.4622
1084.539880 0.4680 0.4758 0.4837 0.4917 0.5060
1091.081170 0.5159 0.5236 0.5323 0.5405 0.5485
1097.622460 0.5565 0.5829 0.6069 0.6218 0.6341
1104.163750 0.6473 0.6533 0.6560 0.6590 0.6613
1110.705040 0.6639 0.6676 0.6696 0.6745 0.6802
1117.246330 0.6833 0.6859 0.6870 0.6889 0.6906
1123.787620 0.6910 0.6916 0.6920 0.6914 0.6892
1130.328910 0.6850 0.6824 0.6779 0.6738 0.6713
1136.870200 0.6677 0.6602 0.6462 0.6361 0.6227
1143.411490 0.6067 0.5960 0.5870 0.5616 0.5342
1149.952780 0.5158 0.4919 0.4623 0.4405 0.4255
1156.494070 0.4106 0.3967 0.3678 0.3460 0.3435
1163.035360 0.3385 0.3320 0.3255 0.3210 0.3180
1169.576650 0.3155 0.3155 0.3179 0.3205 0.3234
1176.117940 0.3288 0.3390 0.3531 0.3702 0.3912
1182.659230 0.4148 0.4354 0.4478 0.4599 0.4717
1189.200520 0.4976 0.5506 0.5893 0.5914 0.5933
1195.741810 0.5954 0.5964 0.6060 0.6271 0.6390
1202.283100 0.6394 0.6400 0.6400 0.6396 0.6359
1208.824390 0.6275 0.6186 0.6092 0.5997 0.5881
1215.365680 0.5718 0.5520 0.5276 0.5083 0.4950
1221.906970 0.4850 0.4837 0.4874 0.4947 0.5090
1228.448260 0.5489 0.6073 0.6422 0.6622 0.6733
1234.989550 0.6740 0.6737 0.6724 0.6704 0.6675
1241.530840 0.6631 0.6598 0.6558 0.6501 0.6396
1248.072130 0.6274 0.6150 0.6035 0.5921 0.5854
1254.613420 0.5779 0.5657 0.5529 0.5407 0.5278
1261.154710 0.5168 0.5118 0.5052 0.4935 0.4823
1267.696000 0.4704 0.4562 0.4339 0.4093 0.3831
1274.237290 0.3721 0.3552 0.3462 0.3355 0.3109
1280.778580 0.2634 0.2383 0.2142 0.1991 0.1856
1287.319870 0.1842 0.1852 0.1863 0.1882 0.1902
1293.861160 0.1976 0.2014 0.2046 0.2080 0.2096
1300.402450 0.2200 0.2281 0.2453 0.2696 0.2830
1306.943740 0.3035 0.3498 0.3883 0.4549 0.4797
1313.485030 0.4963 0.5190 0.5406 0.5701 0.6141
1320.026320 0.6308 0.6877 0.6961 0.6973 0.7016
1326.567610 0.7091 0.7102 0.7133 0.7195 0.7282
1333.108900 0.7321 0.7350 0.7361 0.7390 0.7401
1339.650190 0.7430 0.7430 0.7430 0.7441 0.7471
1346.191480 0.7541 0.7600 0.7650 0.7670 0.7690
1352.732770 0.7700 0.7700 0.7700 0.7700 0.7700
1359.274060 0.7700 0.7690 0.7690 0.7690 0.7671
1365.815350 0.7660 0.7631 0.7563 0.7503 0.7444
1372.356640 0.7290 0.7187 0.7105 0.7053 0.6957
1378.897930 0.6784 0.6650 0.6503 0.6117 0.5808
1385.439220 0.5509 0.5175 0.4824 0.4664 0.4525
1391.980510 0.4386 0.4308 0.4230 0.4106 0.3968
1398.521800 0.3829 0.3672 0.3633 0.3639 0.3743
1405.063090 0.3845 0.3945 0.4053 0.4263 0.4542
1411.604380 0.5064 0.5342 0.5563 0.5724 0.5890
1418.145670 0.5977 0.5998 0.6040 0.6090 0.6188
1424.686960 0.6210 0.6250 0.6308 0.6676 0.6927
1431.228250 0.7127 0.7178 0.7172 0.7155 0.7135
1437.769540 0.7107 0.7092 0.6931 0.6842 0.6800
1444.310830 0.6745 0.6648 0.6546 0.6366 0.6018
1450.852120 0.5620 0.5387 0.5239 0.5135 0.5038
1457.393410 0.4718 0.4451 0.4235 0.4156 0.4157
1463.934700 0.4188 0.4337 0.4469 0.4548 0.4625
1470.475990 0.4731 0.4871 0.5020 0.5083 0.5149
1477.017280 0.5232 0.5319 0.5402 0.5462 0.5654
1483.558570 0.5833 0.5880 0.5874 0.5851 0.5821
1490.099860 0.5785 0.5745 0.5687 0.5605 0.5515
1496.641150 0.5389 0.5258 0.5162 0.5083 0.4950
1503.182440 0.4874 0.4876 0.4892 0.5033 0.5170
1509.723730 0.5308 0.5729 0.6125 0.6319 0.6440
1516.265020 0.6502 0.6542 0.6571 0.6700 0.6865
1522.806310 0.6968 0.7052 0.7122 0.7181 0.7231
1529.347600 0.7260 0.7285 0.7305 0.7315 0.7330
1535.888890 0.7345 0.7355 0.7394 0.7454 0.7509
1542.430180 0.7554 0.7584 0.7609 0.7634 0.7655
1548.971470 0.7674 0.7695 0.7700 0.7714 0.7739
1555.512760 0.7754 0.7769 0.7789 0.7813 0.7847
1562.054050 0.7879 0.7898 0.7914 0.7920 0.7920
1568.595340 0.7916 0.7910 0.7910 0.7910 0.7910
1575.136630 0.7910 0.7910 0.7910 0.7910 0.7910
1581.677920 0.7910 0.7903 0.7886 0.7876 0.7855
1588.219210 0.7816 0.7776 0.7743 0.7733 0.7743
1594.760500 0.7753 0.7770 0.7800 0.7823 0.7830
1601.301790 0.7833 0.7843 0.7850 0.7850 0.7850
1607.843080 0.7856 0.7870 0.7870 0.7870 0.7870
1614.384370 0.7870 0.7870 0.7873 0.7880 0.7888
1620.925660 0.7910 0.7910 0.7902 0.7872 0.7845
1627.466950 0.7827 0.7820 0.7815 0.7800 0.7800
1634.008240 0.7800 0.7800 0.7800 0.7798 0.7790
1640.549530 0.7790 0.7790 0.7790 0.7790 0.7792
1647.090820 0.7804 0.7822 0.7832 0.7842 0.7856
1653.632110 0.7882 0.7890 0.7890 0.7890 0.7890
1660.173400 0.7880 0.7816 0.7735 0.7708 0.7699
1666.714690 0.7687 0.7670 0.7669 0.7656 0.7629
1673.255980 0.7618 0.7596 0.7564 0.7514 0.7461
1679.797270 0.7382 0.7315 0.7268 0.7246 0.7206
1686.338560 0.7166 0.7127 0.7084 0.7014 0.6941
1692.879850 0.6833 0.6736 0.6687 0.6635 0.6555
1699.421140 0.6477 0.6417 0.6347 0.6287 0.6216
1705.962430 0.6137 0.6066 0.5958 0.5908 0.5837
1712.503720 0.5689 0.5619 0.5516 0.4993 0.4469
1719.045010 0.4369 0.4200 0.4031 0.3683 0.3325
1725.586300 0.2868 0.2420 0.1855 0.1264 0.0686
1732.127590 0.0641 0.0640 0.0640 0.0640 0.0659
1738.668880 0.0660 0.0660 0.0660 0.0660 0.0660
1745.210170 0.0660 0.0660 0.0660 0.0669 0.1082
1751.751460 0.1357 0.1779 0.2217 0.2477 0.2698
1758.292750 0.2873 0.3667 0.4035 0.4167 0.4409
1764.834040 0.4668 0.5144 0.5427 0.5886 0.6193
1771.375330 0.6446 0.6806 0.6971 0.7075 0.7115
1777.916620 0.7179 0.7240 0.7300 0.7343 0.7392
1784.457910 0.7433 0.7473 0.7529 0.7564 0.7594
1790.999200 0.7608 0.7626 0.7630 0.7654 0.7684
1797.540490 0.7706 0.7734 0.7748 0.7758 0.7775
1804.081780 0.7788 0.7798 0.7815 0.7820 0.7820
1810.623070 0.7820 0.7820 0.7820 0.7820 0.7820
1817.164360 0.7827 0.7830 0.7837 0.7847 0.7865
1823.705650 0.7877 0.7887 0.7904 0.7917 0.7927
1830.246940 0.7944 0.7957 0.7960 0.7967 0.7970
1836.788230 0.7991 0.8007 0.8017 0.8033 0.8073
1843.329520 0.8090 0.8097 0.8100 0.8100 0.8100
1849.870810 0.8100 0.8100 0.8100 0.8094 0.8090
1856.412100 0.8090 0.8090 0.8090 0.8090 0.8090
1862.953390 0.8090 0.8090 0.8090 0.8090 0.8090
1869.494680 0.8090 0.8090 0.8084 0.8068 0.8060
1876.035970 0.8060 0.8060 0.8054 0.8050 0.8050
1882.577260 0.8050 0.8050 0.8050 0.8045 0.8040
1889.118550 0.8045 0.8055 0.8071 0.8080 0.8080
1895.659840 0.8080 0.8070 0.8060 0.8070 0.8085
1902.201130 0.8095 0.8105 0.8120 0.8135 0.8140
1908.742420 0.8140 0.8145 0.8145 0.8145 0.8150
1915.283710 0.8150 0.8150 0.8159 0.8170 0.8170
1921.825000 0.8170 0.8170 0.8170 0.8170 0.8174
1928.366290 0.8180 0.8180 0.8180 0.8180 0.8180
1934.907580 0.8180 0.8180 0.8180 0.8168 0.8150
1941.448870 0.8150 0.8150 0.8150 0.8158 0.8170
1947.990160 0.8170 0.8170 0.8163 0.8150 0.8146
1954.531450 0.8129 0.8099 0.8080 0.8080 0.8080
1961.072740 0.8080 0.8080 0.8080 0.8080 0.8080
1967.614030 0.8080 0.8083 0.8093 0.8103 0.8110
1974.155320 0.8110 0.8116 0.8130 0.8133 0.8140
1980.696610 0.8140 0.8140 0.8140 0.8140 0.8148
1987.237900 0.8181 0.8223 0.8260 0.8260 0.8260
1993.779190 0.8260 0.8260 0.8260 0.8260 0.8255
2000.320480 0.8240 0.8240 0.8245 0.8260 0.8260
2006.861770 0.8255 0.8245 0.8262 0.8277 0.8305
2013.403060 0.8330 0.8362 0.8370 0.8368 0.8362
2019.944350 0.8375 0.8390 0.8390 0.8390 0.8390
2026.485640 0.8392 0.8400 0.8398 0.8390 0.8390
2033.026930 0.8385 0.8370 0.8370 0.8370 0.8370
2039.568220 0.8370 0.8377 0.8400 0.8400 0.8400
2046.109510 0.8400 0.8400 0.8402 0.8410 0.8410
2052.650800 0.8410 0.8415 0.8430 0.8432 0.8442
2059.192090 0.8450 0.8450 0.8450 0.8448 0.8440
2065.733380 0.8438 0.8430 0.8430 0.8430 0.8430
2072.274670 0.8430 0.8432 0.8440 0.8440 0.8438
2078.815960 0.8430 0.8432 0.8440 0.8442 0.8452
2085.357250 0.8467 0.8497 0.8520 0.8510 0.8475
2091.898540 0.8458 0.8450 0.8450 0.8450 0.8452
2098.439830 0.8465 0.8480 0.8482 0.8490 0.8490
2104.981120 0.8490 0.8490 0.8490 0.8490 0.8490
2111.522410 0.8490 0.8490 0.8490 0.8490 0.8490
2118.063700 0.8488 0.8475 0.8458 0.8450 0.8450
2124.604990 0.8450 0.8450 0.8450 0.8450 0.8450
2131.146280 0.8448 0.8440 0.8440 0.8440 0.8442
2137.687570 0.8457 0.8482 0.8490 0.8490 0.8490
2144.228860 0.8490 0.8488 0.8480 0.8480 0.8480
2150.770150 0.8480 0.8480 0.8480 0.8480 0.8480
2157.311440 0.8480 0.8480 0.8482 0.8490 0.8490
2163.852730 0.8492 0.8500 0.8505 0.8520 0.8520
2170.394020 0.8520 0.8520 0.8520 0.8520 0.8515
2176.935310 0.8500 0.8498 0.8490 0.8488 0.8475
2183.476600 0.8460 0.8458 0.8450 0.8452 0.8460
2190.017890 0.8460 0.8458 0.8450 0.8450 0.8450
2196.559180 0.8450 0.8450 0.8450 0.8452 0.8460
2203.100470 0.8479 0.8547 0.8570 0.8570 0.8570
2209.641760 0.8568 0.8560 0.8553 0.8523 0.8490
2216.183050 0.8460 0.8460 0.8460 0.8460 0.8460
2222.724340 0.8460 0.8460 0.8460 0.8460 0.8460
2229.265630 0.8460 0.8460 0.8460 0.8460 0.8460
2235.806920 0.8460 0.8460 0.8460 0.8460 0.8460
2242.348210 0.8460 0.8460 0.8460 0.8460 0.8460
2248.889500 0.8460 0.8460 0.8460 0.8460 0.8460
2255.430790 0.8465 0.8482 0.8492 0.8500 0.8505
2261.972080 0.8520 0.8520 0.8520 0.8520 0.8515
2268.513370 0.8500 0.8498 0.8490 0.8488 0.8480
2275.054660 0.8475 0.8458 0.8450 0.8450 0.8450
2281.595950 0.8450 0.8450 0.8450 0.8450 0.8450
2288.137240 0.8450 0.8450 0.8450 0.8450 0.8450
2294.678530 0.8450 0.8450 0.8450 0.8450 0.8450
2301.219820 0.8450 0.8450 0.8452 0.8460 0.8465
2307.761110 0.8480 0.8480 0.8480 0.8480 0.8480
2314.302400 0.8480 0.8480 0.8482 0.8490 0.8490
2320.843690 0.8490 0.8490 0.8492 0.8500 0.8500
2327.384980 0.8507 0.8537 0.8562 0.8570 0.8570
2333.926270 0.8570 0.8572 0.8587 0.8615 0.8637
2340.467560 0.8667 0.8690 0.8690 0.8690 0.8690
2347.008850 0.8692 0.8700 0.8700 0.8700 0.8700
2353.550140 0.8700 0.8700 0.8700 0.8698 0.8690
2360.091430 0.8685 0.8670 0.8668 0.8653 0.8630
2366.632720 0.8630 0.8630 0.8628 0.8620 0.8618
2373.174010 0.8605 0.8588 0.8580 0.8578 0.8563
2379.715300 0.8538 0.8528 0.8515 0.8498 0.8483
2386.256590 0.8460 0.8460 0.8460 0.8458 0.8450
2392.797880 0.8450 0.8448 0.8440 0.8440 0.8440
2399.339170 0.8440 0.8440 0.8440 0.8440 0.8440
2405.880460 0.8440 0.8440 0.8440 0.8440 0.8440
2412.421750 0.8440 0.8440 0.8440 0.8440 0.8440
2418.963040 0.8438 0.8430 0.8423 0.8402 0.8410
2425.504330 0.8410 0.8410 0.8410 0.8410 0.8410
2432.045620 0.8410 0.8410 0.8410 0.8410 0.8410
2438.586910 0.8410 0.8410 0.8410 0.8410 0.8408
2445.128200 0.8398 0.8390 0.8390 0.8390 0.8390
2451.669490 0.8392 0.8400 0.8400 0.8407 0.8430
2458.210780 0.8423 0.8398 0.8385 0.8370 0.8370
2464.752070 0.8370 0.8368 0.8360 0.8358 0.8345
2471.293360 0.8330 0.8330 0.8330 0.8330 0.8335
2477.834650 0.8352 0.8362 0.8370 0.8370 0.8370
2484.375940 0.8370 0.8375 0.8390 0.8385 0.8370
2490.917230 0.8370 0.8370 0.8370 0.8370 0.8370
2497.458520 0.8368 0.8360 0.8360 0.8358 0.8350
2503.999810 0.8350 0.8352 0.8360 0.8358 0.8345
2510.541100 0.8335 0.8350 0.8350 0.8350 0.8350
2517.082390 0.8350 0.8350 0.8350 0.8352 0.8362
2523.623680 0.8375 0.8390 0.8390 0.8390 0.8390
2530.164970 0.8390 0.8390 0.8390 0.8390 0.8390
2536.706260 0.8390 0.8390 0.8392 0.8400 0.8400
2543.247550 0.8400 0.8398 0.8392 0.8400 0.8402
2549.788840 0.8410 0.8410 0.8410 0.8417 0.8442
2556.330130 0.8450 0.8450 0.8450 0.8450 0.8450
2562.871420 0.8452 0.8460 0.8460 0.8465 0.8475
2569.412710 0.8460 0.8460 0.8460 0.8458 0.8445
2575.954000 0.8423 0.8393 0.8368 0.8360 0.8360
2582.495290 0.8362 0.8375 0.8392 0.8407 0.8425
2589.036580 0.8410 0.8410 0.8410 0.8410 0.8415
2595.577870 0.8430 0.8430 0.8430 0.8430 0.8430
2602.119160 0.8430 0.8430 0.8430 0.8430 0.8430
2608.660450 0.8430 0.8430 0.8430 0.8420 0.8390
2615.201740 0.8385 0.8370 0.8370 0.8370 0.8375
2621.743030 0.8390 0.8392 0.8400 0.8400 0.8400
2628.284320 0.8400 0.8400 0.8402 0.8408 0.8398
2634.825610 0.8390 0.8390 0.8385 0.8368 0.8360
2641.366900 0.8360 0.8360 0.8360 0.8360 0.8360
2647.908190 0.8360 0.8360 0.8358 0.8350 0.8350
2654.449480 0.8350 0.8355 0.8370 0.8370 0.8370
2660.990770 0.8370 0.8370 0.8370 0.8370 0.8370
2667.532060 0.8368 0.8360 0.8360 0.8360 0.8360
2674.073350 0.8358 0.8352 0.8360 0.8358 0.8345
2680.614640 0.8330 0.8330 0.8330 0.8337 0.8362
2687.155930 0.8370 0.8368 0.8360 0.8360 0.8358
2693.697220 0.8350 0.8352 0.8360 0.8360 0.8358
2700.238510 0.8345 0.8330 0.8328 0.8320 0.8320
2706.779800 0.8320 0.8320 0.8320 0.8320 0.8318
2713.321090 0.8303 0.8278 0.8270 0.8270 0.8270
2719.862380 0.8270 0.8268 0.8255 0.8240 0.8240
2726.403670 0.8240 0.8245 0.8260 0.8260 0.8255
2732.944960 0.8240 0.8240 0.8240 0.8240 0.8238
2739.486250 0.8228 0.8220 0.8218 0.8210 0.8205
2746.027540 0.8190 0.8188 0.8178 0.8165 0.8150
2752.568830 0.8148 0.8140 0.8140 0.8140 0.8140
2759.110120 0.8138 0.8130 0.8130 0.8132 0.8140
2765.651410 0.8142 0.8150 0.8150 0.8150 0.8148
2772.192700 0.8140 0.8142 0.8155 0.8172 0.8187
2778.733990 0.8215 0.8237 0.8260 0.8260 0.8260
2785.275280 0.8255 0.8238 0.8228 0.8213 0.8188
2791.816570 0.8180 0.8180 0.8182 0.8190 0.8190
2798.357860 0.8188 0.8178 0.8170 0.8170 0.8170
2804.899150 0.8163 0.8138 0.8125 0.8110 0.8108
2811.440440 0.8100 0.8100 0.8100 0.8100 0.8100
2817.981730 0.8100 0.8100 0.8098 0.8088 0.8073
2824.523020 0.8043 0.8015 0.7993 0.7968 0.7958
2831.064310 0.7943 0.7920 0.7913 0.7890 0.7890
2837.605600 0.7890 0.7890 0.7890 0.7888 0.7878
2844.146890 0.7863 0.7830 0.7795 0.7770 0.7733
2850.688180 0.7708 0.7700 0.7700 0.7700 0.7698
2857.229470 0.7685 0.7670 0.7668 0.7660 0.7658
2863.770760 0.7650 0.7643 0.7618 0.7608 0.7595
2870.312050 0.7578 0.7568 0.7555 0.7540 0.7538
2876.853340 0.7520 0.7490 0.7488 0.7478 0.7470
2883.394630 0.7465 0.7448 0.7438 0.7430 0.7423
2889.935920 0.7390 0.7358 0.7348 0.7333 0.7308
2896.477210 0.7295 0.7275 0.7250 0.7220 0.7218
2903.018500 0.7205 0.7188 0.7173 0.7148 0.7138
2909.559790 0.7123 0.7095 0.7075 0.7058 0.7048
2916.101080 0.7035 0.7018 0.7005 0.6975 0.6923
2922.642370 0.6895 0.6878 0.6868 0.6853 0.6816
2929.183660 0.6760 0.6725 0.6705 0.6678 0.6633
2935.724950 0.6603 0.6578 0.6568 0.6555 0.6538
2942.266240 0.6528 0.6518 0.6510 0.6510 0.6510
2948.807530 0.6515 0.6537 0.6560 0.6562 0.6572
2955.348820 0.6585 0.6610 0.6647 0.6677 0.6707
2961.890110 0.6735 0.6757 0.6782 0.6800 0.6842
2968.431400 0.6900 0.6975 0.7027 0.7062 0.7107
2974.972690 0.7140 0.7172 0.7190 0.7227 0.7262
2981.513980 0.7310 0.7350 0.7385 0.7410 0.7447
2988.055270 0.7475 0.7502 0.7545 0.7562 0.7570
2994.596560 0.7570 0.7572 0.7585 0.7600 0.7600
3001.137850 0.7595 0.7575 0.7553 0.7520 0.7485
3007.679140 0.7472 0.7478 0.7470 0.7465 0.7448
3014.220430 0.7440 0.7440 0.7440 0.7440 0.7438
3020.761720 0.7430 0.7423 0.7398 0.7383 0.7350
3027.303010 0.7310 0.7273 0.7236 0.7180 0.7138
3033.844300 0.7090 0.7050 0.7008 0.6965 0.6940
3040.385590 0.6903 0.6878 0.6868 0.6855 0.6845
3046.926880 0.6865 0.6887 0.6925 0.6982 0.7027
3053.468170 0.7060 0.7097 0.7125 0.7150 0.7182
3060.009460 0.7190 0.7195 0.7210 0.7212 0.7220
3066.550750 0.7220 0.7222 0.7235 0.7252 0.7260
3073.092040 0.7260 0.7260 0.7262 0.7277 0.7302
3079.633330 0.7312 0.7330 0.7365 0.7382 0.7431
3086.174620 0.7570 0.7605 0.7622 0.7637 0.7667
3092.715910 0.7692 0.7702 0.7715 0.7732 0.7742
3099.257200 0.7752 0.7760 0.7765 0.7782 0.7792
3105.798490 0.7805 0.7822 0.7832 0.7842 0.7855
3112.339780 0.7872 0.7887 0.7915 0.7937 0.7965
3118.881070 0.7985 0.8000 0.8000 0.8005 0.8030
3125.422360 0.8060 0.8065 0.8082 0.8090 0.8090
3131.963650 0.8092 0.8102 0.8110 0.8115 0.8135
3138.504940 0.8155 0.8170 0.8172 0.8180 0.8182
3145.046230 0.8195 0.8210 0.8212 0.8220 0.8222
3151.587520 0.8230 0.8232 0.8245 0.8260 0.8260
3158.128810 0.8262 0.8270 0.8270 0.8270 0.8270
3164.670100 0.8270 0.8270 0.8270 0.8270 0.8268
3171.211390 0.8260 0.8255 0.8245 0.8255 0.8238
3177.752680 0.8225 0.8210 0.8210 0.8210 0.8210
3184.293970 0.8210 0.8210 0.8210 0.8210 0.8210
3190.835260 0.8210 0.8205 0.8190 0.8188 0.8178
3197.376550 0.8165 0.8148 0.8140 0.8140 0.8140
3203.917840 0.8140 0.8142 0.8157 0.8182 0.8197
3210.459130 0.8220 0.8222 0.8230 0.8232 0.8245
3217.000420 0.8260 0.8260 0.8260 0.8260 0.8260
3223.541710 0.8260 0.8253 0.8230 0.8228 0.8222
3230.083000 0.8230 0.8237 0.8260 0.8260 0.8260
3236.624290 0.8262 0.8270 0.8270 0.8270 0.8270
3243.165580 0.8270 0.8270 0.8270 0.8268 0.8262
3249.706870 0.8268 0.8253 0.8228 0.8220 0.8222
3256.248160 0.8230 0.8230 0.8232 0.8240 0.8247
3262.789450 0.8270 0.8270 0.8270 0.8270 0.8270
3269.330740 0.8270 0.8268 0.8260 0.8255 0.8238
3275.872030 0.8230 0.8228 0.8220 0.8220 0.8222
3282.413320 0.8230 0.8230 0.8230 0.8232 0.8238
3288.954610 0.8230 0.8230 0.8230 0.8230 0.8230
3295.495900 0.8228 0.8220 0.8220 0.8218 0.8210
3302.037190 0.8205 0.8190 0.8190 0.8190 0.8190
3308.578480 0.8190 0.8195 0.8205 0.8190 0.8185
3315.119770 0.8170 0.8170 0.8165 0.8150 0.8150
3321.661060 0.8155 0.8170 0.8170 0.8172 0.8180
3328.202350 0.8182 0.8195 0.8210 0.8210 0.8205
3334.743640 0.8190 0.8190 0.8188 0.8178 0.8170
3341.284930 0.8170 0.8170 0.8170 0.8172 0.8180
3347.826220 0.8178 0.8170 0.8170 0.8172 0.8180
3354.367510 0.8187 0.8217 0.8240 0.8240 0.8240
3360.908800 0.8245 0.8260 0.8255 0.8240 0.8240
3367.450090 0.8235 0.8210 0.8173 0.8148 0.8140
3373.991380 0.8138 0.8125 0.8110 0.8110 0.8110
3380.532670 0.8110 0.8110 0.8115 0.8130 0.8130
3387.073960 0.8125 0.8110 0.8110 0.8110 0.8110
3393.615250 0.8110 0.8110 0.8110 0.8110 0.8110
3400.156540 0.8110 0.8110 0.8110 0.8110 0.8110
3406.697830 0.8115 0.8132 0.8142 0.8148 0.8142
3413.239120 0.8150 0.8150 0.8150 0.8155 0.8165
3419.780410 0.8148 0.8138 0.8123 0.8100 0.8100
3426.321700 0.8100 0.8100 0.8100 0.8098 0.8080
3432.862990 0.8043 0.8020 0.8020 0.8020 0.8020
3439.404280 0.8018 0.8008 0.7995 0.7980 0.7980
3445.945570 0.7980 0.7980 0.7980 0.7978 0.7970
3452.486860 0.7968 0.7960 0.7958 0.7950 0.7945
3459.028150 0.7930 0.7925 0.7910 0.7910 0.7910
3465.569440 0.7910 0.7910 0.7910 0.7910 0.7910
3472.110730 0.7915 0.7930 0.7930 0.7930 0.7930
3478.652020 0.7930 0.7935 0.7950 0.7952 0.7960
3485.193310 0.7960 0.7960 0.7960 0.7960 0.7960
3491.734600 0.7960 0.7960 0.7960 0.7960 0.7960
3498.275890 0.7960 0.7962 0.7970 0.7970 0.7972
3504.817180 0.7985 0.8000 0.8000 0.8000 0.8000
3511.358470 0.8000 0.7995 0.7980 0.7978 0.7968
3517.899760 0.7960 0.7960 0.7958 0.7950 0.7950
3524.441050 0.7950 0.7950 0.7952 0.7960 0.7962
3530.982340 0.7970 0.7970 0.7977 0.8002 0.8012
3537.523630 0.8020 0.8025 0.8040 0.8042 0.8050
3544.064920 0.8050 0.8052 0.8058 0.8050 0.8050
3550.606210 0.8050 0.8050 0.8050 0.8048 0.8040
3557.147500 0.8040 0.8035 0.8020 0.8020 0.8018
3563.688790 0.8010 0.8008 0.8000 0.7995 0.7978
3570.230080 0.7970 0.7970 0.7970 0.7968 0.7962
3576.771370 0.7970 0.7970 0.7970 0.7972 0.7985
3583.312660 0.8002 0.8012 0.8020 0.8018 0.8012
3589.853950 0.8020 0.8020 0.8020 0.8020 0.8020
3596.395240 0.8020 0.8020 0.8020 0.8020 0.8025
3602.936530 0.8040 0.8040 0.8040 0.8040 0.8040
3609.477820 0.8040 0.8040 0.8040 0.8040 0.8040
3616.019110 0.8040 0.8040 0.8040 0.8040 0.8040
3622.560400 0.8040 0.8040 0.8045 0.8060 0.8060
3629.101690 0.8060 0.8065 0.8080 0.8082 0.8090
3635.642980 0.8092 0.8102 0.8115 0.8132 0.8142
3642.184270 0.8155 0.8172 0.8187 0.8212 0.8218
3648.725560 0.8212 0.8220 0.8220 0.8220 0.8222
3655.266850 0.8230 0.8230 0.8230 0.8228 0.8218
3661.808140 0.8205 0.8188 0.8170 0.8138 0.8125
3668.349430 0.8108 0.8100 0.8100 0.8100 0.8100
3674.890720 0.8100 0.8100 0.8102 0.8110 0.8110
3681.432010 0.8110 0.8108 0.8102 0.8110 0.8110
3687.973300 0.8115 0.8130 0.8130 0.8132 0.8142
3694.514590 0.8155 0.8170 0.8172 0.8180 0.8187
3701.055880 0.8215 0.8240 0.8270 0.8272 0.8287
3707.597170 0.8310 0.8310 0.8312 0.8320 0.8320
3714.138460 0.8320 0.8320 0.8320 0.8320 0.8322
3720.679750 0.8330 0.8330 0.8330 0.8330 0.8330
3727.221040 0.8330 0.8330 0.8330 0.8330 0.8335
3733.762330 0.8350 0.8350 0.8350 0.8350 0.8350
3740.303620 0.8350 0.8350 0.8350 0.8350 0.8350
3746.844910 0.8350 0.8350 0.8350 0.8350 0.8345
3753.386200 0.8330 0.8330 0.8328 0.8320 0.8320
3759.927490 0.8320 0.8320 0.8330 0.8362 0.8380
3766.468780 0.8415 0.8430 0.8430 0.8430 0.8425
3773.010070 0.8410 0.8408 0.8393 0.8368 0.8360
3779.551360 0.8358 0.8345 0.8328 0.8315 0.8295
3786.092650 0.8280 0.8278 0.8272 0.8278 0.8270
3792.633940 0.8270 0.8270 0.8270 0.8270 0.8270
3799.175230 0.8268 0.8260 0.8262 0.8270 0.8270
3805.716520 0.8270 0.8270 0.8270 0.8272 0.8285
3812.257810 0.8302 0.8308 0.8302 0.8310 0.8312
3818.799100 0.8320 0.8322 0.8337 0.8360 0.8360
3825.340390 0.8360 0.8360 0.8360 0.8360 0.8360
3831.881680 0.8360 0.8360 0.8360 0.8360 0.8360
3838.422970 0.8360 0.8362 0.8370 0.8370 0.8370
3844.964260 0.8375 0.8390 0.8385 0.8370 0.8368
3851.505550 0.8360 0.8360 0.8360 0.8360 0.8358
3858.046840 0.8350 0.8350 0.8345 0.8335 0.8350
3864.588130 0.8350 0.8352 0.8360 0.8360 0.8360
3871.129420 0.8362 0.8370 0.8370 0.8370 0.8370
3877.670710 0.8375 0.8390 0.8392 0.8402 0.8410
3884.212000 0.8410 0.8408 0.8400 0.8393 0.8368
3890.753290 0.8360 0.8360 0.8360 0.8360 0.8360
3897.294580 0.8360 0.8360 0.8360 0.8360 0.8362
3903.835870 0.8375 0.8392 0.8400 0.8400 0.8400
3910.377160 0.8400 0.8400 0.8398 0.8385 0.8368
3916.918450 0.8360 0.8358 0.8345 0.8328 0.8320
3923.459740 0.8320 0.8318 0.8310 0.8310 0.8312
3930.001030 0.8320 0.8322 0.8330 0.8330 0.8335
3936.542320 0.8352 0.8362 0.8370 0.8370 0.8370
3943.083610 0.8370 0.8370 0.8370 0.8370 0.8370
3949.624900 0.8375 0.8390 0.8390 0.8390 0.8392
3956.166190 0.8400 0.8400 0.8400 0.8400 0.8400
3962.707480 0.8400 0.8400 0.8400 0.8400 0.8400
3969.248770 0.8400 0.8400 0.8400 0.8400 0.8400
3975.790060 0.8398 0.8385 0.8368 0.8360 0.8358
3982.331350 0.8343 0.8318 0.8310 0.8308 0.8300
3988.872640 0.8295 0.8278 0.8270 0.8270 0.8272
3995.413930 0.8280 0.8280 0.8285 0.8300 0.8302
4001.955220 0.8308 0.8300 0.8300 0.8300 0.8300
4008.496510 0.8300 0.8302 0.8308 0.8300 0.8300
4015.037800 0.8300 0.8300 0.8300 0.8300 0.8302
4021.579090 0.8308 0.8300 0.8300 0.8300 0.8300
4028.120380 0.8300
##END=
