##TITLE=Carbanilide, 2,2'-ditertiary butyl-
##JCAMP-DX=4.24
##DATA TYPE=INFRARED SPECTRUM
##CLASS=COBLENTZ III
##ORIGIN=MONSANTO (J. FREEMAN)
##OWNER=Copyright (C) 1987 by the Coblentz Society
Collection (C) 2018 copyright by the U.S. Secretary of Commerce
on behalf of the United States of America. All rights reserved.
##DATE=1959/05/07
##NAMES=N,N'-bis(2-tert-butylphenyl)urea
##MOLFORM=C21 H28 N2 O
##SOURCE REFERENCE=COBLENTZ NO. 9307
##$NIST ID=B6009307
##$NIST SOURCE=COBLENTZ
##$NIST IMAGE=cob9307
##SPECTROMETER/DATA SYSTEM=BECKMAN IR-4 (HYBRID PRISM-GRATING)
##INSTRUMENT PARAMETERS=NaCl PRISM
##STATE=SOLID (OIL MULL)
$$SPECTRAL CONTAMINATION DUE TO OIL AROUND 2900, 1450, 720 CM^-^1
##SAMPLING PROCEDURE=TRANSMISSION
##RESOLUTION=2
##DATA PROCESSING=DIGITIZED BY COBLENTZ SOCIETY (BATCH II) FROM HARD COPY
##XUNITS=1/CM
##YUNITS=TRANSMITTANCE
##XFACTOR=1.0
##YFACTOR=1
##FIRSTX=626
##LASTX=4000
##FIRSTY=0.7351
##MAXX=4000
##MINX=626
##MAXY=0.9872
##MINY=0.0018
##NPOINTS=3375
##XYDATA=(X++(Y..Y))
626.000000 0.7351 0.7387 0.7418 0.7455 0.7488
631.000000 0.7515 0.7546 0.7587 0.7644 0.7671
636.000000 0.7685 0.7697 0.7706 0.7713 0.7703
641.000000 0.7687 0.7668 0.7641 0.7602 0.7564
646.000000 0.7522 0.7479 0.7435 0.7387 0.7325
651.000000 0.7252 0.7156 0.7049 0.6926 0.6784
656.000000 0.6643 0.6540 0.6466 0.6409 0.6364
661.000000 0.6338 0.6333 0.6335 0.6363 0.6398
666.000000 0.6438 0.6523 0.6625 0.6769 0.6916
671.000000 0.7086 0.7258 0.7372 0.7465 0.7542
676.000000 0.7617 0.7666 0.7686 0.7696 0.7707
681.000000 0.7733 0.7796 0.7928 0.8069 0.8148
686.000000 0.8227 0.8273 0.8316 0.8359 0.8403
691.000000 0.8448 0.8487 0.8509 0.8531 0.8548
696.000000 0.8556 0.8606 0.8515 0.8462 0.8329
701.000000 0.8131 0.7836 0.7415 0.7029 0.6738
706.000000 0.6605 0.6596 0.6864 0.7211 0.7558
711.000000 0.7766 0.7770 0.7785 0.7448 0.7244
716.000000 0.7040 0.6835 0.6668 0.6660 0.6749
721.000000 0.6974 0.7199 0.7423 0.7664 0.7808
726.000000 0.7926 0.8011 0.8061 0.8089 0.8100
731.000000 0.8108 0.8069 0.8005 0.7893 0.7732
736.000000 0.7460 0.7056 0.6087 0.4665 0.3138
741.000000 0.2796 0.2676 0.2648 0.3535 0.4318
746.000000 0.4978 0.4995 0.3457 0.2458 0.1461
751.000000 0.1257 0.1707 0.2720 0.3732 0.4740
756.000000 0.5746 0.6664 0.7106 0.7232 0.7290
761.000000 0.7363 0.7458 0.7722 0.7909 0.8095
766.000000 0.8294 0.8473 0.8614 0.8724 0.8851
771.000000 0.8939 0.9008 0.9060 0.9111 0.9156
776.000000 0.9193 0.9220 0.9238 0.9254 0.9269
781.000000 0.9282 0.9292 0.9298 0.9304 0.9307
786.000000 0.9305 0.9301 0.9289 0.9274 0.9249
791.000000 0.9221 0.9212 0.9227 0.9266 0.9324
796.000000 0.9372 0.9406 0.9427 0.9449 0.9467
801.000000 0.9484 0.9492 0.9499 0.9500 0.9497
806.000000 0.9503 0.9489 0.9480 0.9465 0.9451
811.000000 0.9430 0.9402 0.9364 0.9323 0.9295
816.000000 0.9285 0.9297 0.9313 0.9323 0.9331
821.000000 0.9338 0.9342 0.9344 0.9342 0.9337
826.000000 0.9332 0.9315 0.9293 0.9264 0.9228
831.000000 0.9187 0.9123 0.9050 0.8931 0.8801
836.000000 0.8808 0.8829 0.8915 0.9045 0.9162
841.000000 0.9247 0.9312 0.9349 0.9384 0.9407
846.000000 0.9421 0.9458 0.9412 0.9397 0.9366
851.000000 0.9322 0.9270 0.9204 0.9117 0.9059
856.000000 0.9071 0.9172 0.9279 0.9399 0.9492
861.000000 0.9506 0.9508 0.9498 0.9487 0.9469
866.000000 0.9451 0.9432 0.9413 0.9394 0.9378
871.000000 0.9371 0.9376 0.9386 0.9402 0.9431
876.000000 0.9460 0.9485 0.9510 0.9520 0.9513
881.000000 0.9516 0.9510 0.9505 0.9500 0.9494
886.000000 0.9483 0.9472 0.9461 0.9451 0.9439
891.000000 0.9429 0.9417 0.9406 0.9394 0.9382
896.000000 0.9371 0.9358 0.9337 0.9318 0.9297
901.000000 0.9277 0.9245 0.9208 0.9126 0.8967
906.000000 0.8714 0.8471 0.8233 0.8159 0.8161
911.000000 0.8225 0.8443 0.8660 0.8838 0.8929
916.000000 0.9012 0.9082 0.9106 0.9103 0.9077
921.000000 0.9048 0.9005 0.8963 0.8921 0.8881
926.000000 0.8865 0.8861 0.8883 0.8906 0.8937
931.000000 0.8962 0.8974 0.8956 0.8911 0.8865
936.000000 0.8831 0.8819 0.8828 0.8844 0.8880
941.000000 0.8906 0.8868 0.8834 0.8798 0.8810
946.000000 0.8874 0.8956 0.9047 0.9090 0.9128
951.000000 0.9159 0.9179 0.9191 0.9195 0.9200
956.000000 0.9203 0.9205 0.9204 0.9203 0.9203
961.000000 0.9192 0.9177 0.9163 0.9143 0.9104
966.000000 0.9065 0.9033 0.9043 0.9069 0.9085
971.000000 0.9105 0.9122 0.9136 0.9149 0.9159
976.000000 0.9167 0.9174 0.9182 0.9185 0.9187
981.000000 0.9191 0.9193 0.9192 0.9190 0.9188
986.000000 0.9186 0.9184 0.9184 0.9186 0.9188
991.000000 0.9190 0.9192 0.9194 0.9196 0.9196
996.000000 0.9196 0.9196 0.9196 0.9196 0.9196
1001.000000 0.9192 0.9187 0.9182 0.9177 0.9172
1006.000000 0.9157 0.9139 0.9121 0.9102 0.9058
1011.000000 0.9003 0.8941 0.8881 0.8835 0.8821
1016.000000 0.8814 0.8826 0.8855 0.8891 0.8935
1021.000000 0.8949 0.8963 0.8972 0.8980 0.8985
1026.000000 0.8988 0.8989 0.8989 0.8988 0.8987
1031.000000 0.8980 0.8968 0.8942 0.8880 0.8769
1036.000000 0.8654 0.8527 0.8362 0.8168 0.7917
1041.000000 0.7753 0.7638 0.7512 0.7346 0.7032
1046.000000 0.6718 0.6406 0.6093 0.5783 0.5476
1051.000000 0.5418 0.5423 0.5822 0.6758 0.7679
1056.000000 0.8140 0.8335 0.8420 0.8496 0.8534
1061.000000 0.8573 0.8611 0.8629 0.8647 0.8661
1066.000000 0.8665 0.8666 0.8669 0.8651 0.8633
1071.000000 0.8609 0.8568 0.8477 0.8389 0.8307
1076.000000 0.8224 0.7987 0.7652 0.7318 0.6986
1081.000000 0.6653 0.6321 0.6182 0.6173 0.6186
1086.000000 0.6845 0.7409 0.7873 0.8025 0.8157
1091.000000 0.8281 0.8362 0.8415 0.8466 0.8516
1096.000000 0.8565 0.8632 0.8715 0.8830 0.8871
1101.000000 0.8879 0.8881 0.8912 0.8880 0.8879
1106.000000 0.8877 0.8875 0.8872 0.8869 0.8866
1111.000000 0.8862 0.8858 0.8851 0.8841 0.8831
1116.000000 0.8822 0.8812 0.8797 0.8777 0.8733
1121.000000 0.8670 0.8591 0.8529 0.8476 0.8433
1126.000000 0.8428 0.8405 0.8438 0.8453 0.8483
1131.000000 0.8524 0.8584 0.8654 0.8726 0.8798
1136.000000 0.8828 0.8837 0.8844 0.8838 0.8834
1141.000000 0.8831 0.8824 0.8815 0.8806 0.8797
1146.000000 0.8786 0.8771 0.8755 0.8738 0.8713
1151.000000 0.8686 0.8655 0.8604 0.8537 0.8458
1156.000000 0.8383 0.8346 0.8321 0.8319 0.8316
1161.000000 0.8307 0.8316 0.8319 0.8334 0.8351
1166.000000 0.8375 0.8403 0.8428 0.8451 0.8470
1171.000000 0.8473 0.8473 0.8473 0.8471 0.8511
1176.000000 0.8466 0.8461 0.8454 0.8444 0.8431
1181.000000 0.8417 0.8403 0.8381 0.8350 0.8316
1186.000000 0.8261 0.8196 0.8116 0.8019 0.7903
1191.000000 0.7788 0.7671 0.7555 0.7439 0.7324
1196.000000 0.7209 0.7094 0.6979 0.6864 0.6749
1201.000000 0.6642 0.6578 0.6532 0.6498 0.6518
1206.000000 0.6581 0.6664 0.6748 0.6832 0.6915
1211.000000 0.6972 0.6970 0.6953 0.6925 0.6826
1216.000000 0.6605 0.6266 0.5928 0.5591 0.5254
1221.000000 0.4917 0.4581 0.4245 0.3911 0.3577
1226.000000 0.3242 0.2909 0.2576 0.2244 0.1986
1231.000000 0.1880 0.1901 0.1909 0.2052 0.2418
1236.000000 0.2784 0.3148 0.3513 0.3877 0.4241
1241.000000 0.4603 0.4943 0.4983 0.4987 0.4990
1246.000000 0.4958 0.4854 0.4743 0.4631 0.4520
1251.000000 0.4408 0.4297 0.4186 0.4121 0.4132
1256.000000 0.4280 0.4502 0.4723 0.4944 0.5165
1261.000000 0.5385 0.5606 0.5826 0.6049 0.6209
1266.000000 0.6247 0.6259 0.6263 0.6278 0.6244
1271.000000 0.6182 0.6096 0.6022 0.5950 0.5875
1276.000000 0.5783 0.5690 0.5613 0.5542 0.5400
1281.000000 0.5231 0.5073 0.4915 0.4757 0.4599
1286.000000 0.4441 0.4283 0.4189 0.4247 0.4506
1291.000000 0.4859 0.5211 0.5563 0.5914 0.6265
1296.000000 0.6615 0.6772 0.6900 0.7043 0.7196
1301.000000 0.7351 0.7544 0.7615 0.7666 0.7696
1306.000000 0.7717 0.7727 0.7733 0.7731 0.7722
1311.000000 0.7711 0.7687 0.7656 0.7637 0.7623
1316.000000 0.7627 0.7642 0.7672 0.7723 0.7814
1321.000000 0.7944 0.8129 0.8199 0.8235 0.8255
1326.000000 0.8272 0.8283 0.8291 0.8292 0.8293
1331.000000 0.8294 0.8261 0.8289 0.8285 0.8280
1336.000000 0.8274 0.8266 0.8256 0.8243 0.8229
1341.000000 0.8215 0.8200 0.8176 0.8152 0.8127
1346.000000 0.8096 0.8063 0.8027 0.7986 0.7929
1351.000000 0.7854 0.7725 0.7199 0.6486 0.5941
1356.000000 0.5837 0.5772 0.5708 0.5619 0.5470
1361.000000 0.5322 0.5173 0.5025 0.4828 0.4867
1366.000000 0.5044 0.5238 0.5432 0.5625 0.5735
1371.000000 0.5677 0.5525 0.5372 0.5221 0.5068
1376.000000 0.5027 0.5031 0.5170 0.5421 0.5672
1381.000000 0.5923 0.6174 0.6425 0.6674 0.6924
1386.000000 0.7131 0.7151 0.7137 0.7095 0.7050
1391.000000 0.7006 0.6961 0.6955 0.7349 0.8091
1396.000000 0.8208 0.8237 0.8256 0.8273 0.8283
1401.000000 0.8293 0.8300 0.8304 0.8307 0.8310
1406.000000 0.8313 0.8313 0.8307 0.8308 0.8301
1411.000000 0.8289 0.8271 0.8239 0.8204 0.8167
1416.000000 0.8106 0.8043 0.7977 0.7868 0.7773
1421.000000 0.7657 0.7434 0.7307 0.7184 0.7027
1426.000000 0.6796 0.6530 0.6263 0.5996 0.5730
1431.000000 0.5464 0.5199 0.4933 0.4669 0.4404
1436.000000 0.4141 0.3811 0.3410 0.3278 0.3212
1441.000000 0.3166 0.3120 0.3081 0.3058 0.3044
1446.000000 0.3029 0.3012 0.2990 0.2968 0.2942
1451.000000 0.2887 0.2808 0.2748 0.2688 0.2630
1456.000000 0.2569 0.2501 0.2433 0.2372 0.2331
1461.000000 0.2311 0.2302 0.2298 0.2293 0.2326
1466.000000 0.2418 0.2519 0.2621 0.2722 0.2823
1471.000000 0.2924 0.3002 0.3021 0.2965 0.2841
1476.000000 0.2712 0.2584 0.2456 0.2328 0.2273
1481.000000 0.2269 0.2284 0.2485 0.2819 0.3153
1486.000000 0.3486 0.3819 0.4152 0.4484 0.4816
1491.000000 0.5147 0.5470 0.5640 0.5644 0.5649
1496.000000 0.5652 0.5653 0.5612 0.5656 0.5647
1501.000000 0.5557 0.5374 0.5190 0.5006 0.4824
1506.000000 0.4641 0.4458 0.4275 0.4093 0.3912
1511.000000 0.3730 0.3578 0.3403 0.3243 0.3119
1516.000000 0.3019 0.2924 0.2857 0.2793 0.2728
1521.000000 0.2657 0.2560 0.2447 0.2267 0.2064
1526.000000 0.1903 0.1710 0.1450 0.1316 0.1230
1531.000000 0.1082 0.1046 0.1020 0.1006 0.0994
1536.000000 0.0988 0.0987 0.0984 0.1005 0.0994
1541.000000 0.1012 0.1030 0.1056 0.1136 0.1255
1546.000000 0.1376 0.1461 0.1517 0.1574 0.1670
1551.000000 0.1810 0.1956 0.2127 0.2475 0.3130
1556.000000 0.3641 0.4152 0.4662 0.5170 0.5679
1561.000000 0.6065 0.6191 0.6195 0.6197 0.6158
1566.000000 0.6071 0.5989 0.5961 0.5965 0.5969
1571.000000 0.6061 0.6208 0.6358 0.6508 0.6657
1576.000000 0.6806 0.6955 0.7377 0.7253 0.7332
1581.000000 0.7347 0.7235 0.7049 0.6851 0.6653
1586.000000 0.6455 0.6258 0.6061 0.5863 0.5667
1591.000000 0.5471 0.5365 0.5339 0.5347 0.5409
1596.000000 0.5594 0.5838 0.6082 0.6326 0.6569
1601.000000 0.6812 0.7056 0.7298 0.7468 0.7510
1606.000000 0.7510 0.7506 0.7502 0.7506 0.7362
1611.000000 0.7195 0.7029 0.6862 0.6696 0.6531
1616.000000 0.6366 0.6200 0.6035 0.5870 0.5705
1621.000000 0.5540 0.5376 0.5212 0.5048 0.4884
1626.000000 0.4721 0.4557 0.4425 0.4302 0.4078
1631.000000 0.3782 0.3486 0.3192 0.2898 0.2604
1636.000000 0.2310 0.2017 0.1724 0.1431 0.1139
1641.000000 0.0847 0.0642 0.0573 0.0546 0.0569
1646.000000 0.0569 0.0574 0.0582 0.0809 0.1252
1651.000000 0.1711 0.2171 0.2629 0.3087 0.3545
1656.000000 0.4002 0.4458 0.4914 0.5371 0.5826
1661.000000 0.6280 0.7484 0.7906 0.7993 0.8046
1666.000000 0.8099 0.8148 0.8189 0.8229 0.8269
1671.000000 0.8306 0.8338 0.8369 0.8399 0.8429
1676.000000 0.8459 0.8487 0.8511 0.8535 0.8559
1681.000000 0.8584 0.8608 0.8632 0.8657 0.8687
1686.000000 0.8723 0.8759 0.8795 0.8830 0.8866
1691.000000 0.8901 0.9194 0.9524 0.9538 0.9551
1696.000000 0.9564 0.9577 0.9590 0.9603 0.9616
1701.000000 0.9629 0.9642 0.9655 0.9669 0.9683
1706.000000 0.9700 0.9718 0.9731 0.9734 0.9736
1711.000000 0.9738 0.9740 0.9742 0.9743 0.9745
1716.000000 0.9747 0.9749 0.9751 0.9753 0.9755
1721.000000 0.9757 0.9759 0.9761 0.9762 0.9764
1726.000000 0.9765 0.9765 0.9763 0.9761 0.9760
1731.000000 0.9758 0.9756 0.9755 0.9753 0.9751
1736.000000 0.9749 0.9746 0.9742 0.9739 0.9737
1741.000000 0.9733 0.9730 0.9727 0.9725 0.9723
1746.000000 0.9721 0.9720 0.9718 0.9716 0.9714
1751.000000 0.9712 0.9710 0.9709 0.9707 0.9706
1756.000000 0.9704 0.9702 0.9700 0.9698 0.9696
1761.000000 0.9693 0.9691 0.9690 0.9687 0.9685
1766.000000 0.9683 0.9681 0.9679 0.9676 0.9674
1771.000000 0.9671 0.9669 0.9665 0.9663 0.9662
1776.000000 0.9661 0.9660 0.9660 0.9659 0.9658
1781.000000 0.9657 0.9656 0.9656 0.9686 0.9654
1786.000000 0.9653 0.9653 0.9653 0.9654 0.9655
1791.000000 0.9657 0.9658 0.9660 0.9661 0.9662
1796.000000 0.9664 0.9665 0.9667 0.9668 0.9669
1801.000000 0.9670 0.9672 0.9673 0.9674 0.9675
1806.000000 0.9677 0.9678 0.9680 0.9683 0.9686
1811.000000 0.9688 0.9691 0.9694 0.9696 0.9699
1816.000000 0.9702 0.9705 0.9707 0.9710 0.9713
1821.000000 0.9715 0.9718 0.9721 0.9724 0.9726
1826.000000 0.9728 0.9730 0.9733 0.9736 0.9738
1831.000000 0.9740 0.9743 0.9745 0.9747 0.9749
1836.000000 0.9751 0.9753 0.9753 0.9753 0.9753
1841.000000 0.9754 0.9754 0.9754 0.9755 0.9755
1846.000000 0.9755 0.9756 0.9755 0.9755 0.9753
1851.000000 0.9751 0.9749 0.9748 0.9746 0.9745
1856.000000 0.9743 0.9741 0.9740 0.9738 0.9737
1861.000000 0.9735 0.9733 0.9729 0.9726 0.9722
1866.000000 0.9718 0.9715 0.9711 0.9708 0.9704
1871.000000 0.9700 0.9697 0.9694 0.9691 0.9689
1876.000000 0.9686 0.9684 0.9683 0.9681 0.9679
1881.000000 0.9678 0.9676 0.9674 0.9672 0.9670
1886.000000 0.9669 0.9667 0.9665 0.9663 0.9662
1891.000000 0.9660 0.9658 0.9657 0.9656 0.9656
1896.000000 0.9656 0.9656 0.9656 0.9656 0.9655
1901.000000 0.9655 0.9655 0.9655 0.9655 0.9655
1906.000000 0.9654 0.9654 0.9654 0.9654 0.9654
1911.000000 0.9654 0.9654 0.9655 0.9655 0.9655
1916.000000 0.9655 0.9655 0.9656 0.9656 0.9656
1921.000000 0.9657 0.9657 0.9657 0.9659 0.9661
1926.000000 0.9663 0.9665 0.9668 0.9670 0.9673
1931.000000 0.9676 0.9679 0.9681 0.9684 0.9687
1936.000000 0.9689 0.9692 0.9694 0.9696 0.9700
1941.000000 0.9705 0.9711 0.9716 0.9721 0.9727
1946.000000 0.9733 0.9739 0.9745 0.9750 0.9756
1951.000000 0.9763 0.9769 0.9776 0.9782 0.9789
1956.000000 0.9795 0.9802 0.9809 0.9816 0.9822
1961.000000 0.9828 0.9832 0.9835 0.9838 0.9841
1966.000000 0.9844 0.9847 0.9849 0.9852 0.9854
1971.000000 0.9858 0.9861 0.9863 0.9866 0.9868
1976.000000 0.9871 0.9872 0.9872 0.9872 0.9871
1981.000000 0.9870 0.9870 0.9870 0.9870 0.9869
1986.000000 0.9868 0.9868 0.9867 0.9866 0.9866
1991.000000 0.9866 0.9866 0.9866 0.9866 0.9866
1996.000000 0.9865 0.9865 0.9865 0.9865 0.9865
2001.000000 0.9865 0.9865 0.9865 0.9864 0.9864
2006.000000 0.9864 0.9864 0.9864 0.9864 0.9864
2011.000000 0.9864 0.9863 0.9863 0.9863 0.9863
2016.000000 0.9863 0.9862 0.9861 0.9861 0.9860
2021.000000 0.9860 0.9859 0.9859 0.9859 0.9858
2026.000000 0.9857 0.9857 0.9856 0.9856 0.9855
2031.000000 0.9855 0.9855 0.9854 0.9854 0.9853
2036.000000 0.9852 0.9852 0.9851 0.9851 0.9851
2041.000000 0.9850 0.9850 0.9849 0.9849 0.9848
2046.000000 0.9847 0.9847 0.9847 0.9847 0.9846
2051.000000 0.9845 0.9845 0.9844 0.9844 0.9843
2056.000000 0.9843 0.9843 0.9842 0.9842 0.9841
2061.000000 0.9841 0.9840 0.9840 0.9840 0.9839
2066.000000 0.9839 0.9838 0.9837 0.9837 0.9836
2071.000000 0.9836 0.9836 0.9835 0.9834 0.9833
2076.000000 0.9832 0.9831 0.9831 0.9830 0.9828
2081.000000 0.9827 0.9826 0.9825 0.9824 0.9823
2086.000000 0.9821 0.9820 0.9819 0.9818 0.9817
2091.000000 0.9816 0.9815 0.9813 0.9812 0.9812
2096.000000 0.9811 0.9810 0.9809 0.9808 0.9806
2101.000000 0.9805 0.9804 0.9803 0.9802 0.9801
2106.000000 0.9800 0.9799 0.9797 0.9796 0.9795
2111.000000 0.9794 0.9793 0.9793 0.9792 0.9791
2116.000000 0.9789 0.9788 0.9787 0.9786 0.9786
2121.000000 0.9785 0.9784 0.9783 0.9783 0.9781
2126.000000 0.9780 0.9780 0.9779 0.9778 0.9777
2131.000000 0.9777 0.9776 0.9775 0.9774 0.9773
2136.000000 0.9772 0.9771 0.9770 0.9769 0.9769
2141.000000 0.9768 0.9767 0.9766 0.9766 0.9765
2146.000000 0.9763 0.9763 0.9762 0.9761 0.9760
2151.000000 0.9760 0.9759 0.9758 0.9757 0.9757
2156.000000 0.9756 0.9755 0.9754 0.9753 0.9752
2161.000000 0.9751 0.9751 0.9750 0.9749 0.9748
2166.000000 0.9746 0.9745 0.9744 0.9743 0.9742
2171.000000 0.9741 0.9740 0.9738 0.9737 0.9736
2176.000000 0.9735 0.9734 0.9733 0.9732 0.9731
2181.000000 0.9729 0.9728 0.9727 0.9726 0.9725
2186.000000 0.9724 0.9723 0.9722 0.9721 0.9720
2191.000000 0.9719 0.9718 0.9716 0.9715 0.9713
2196.000000 0.9712 0.9711 0.9710 0.9709 0.9708
2201.000000 0.9707 0.9706 0.9705 0.9704 0.9703
2206.000000 0.9702 0.9701 0.9699 0.9698 0.9697
2211.000000 0.9696 0.9694 0.9693 0.9692 0.9691
2216.000000 0.9689 0.9688 0.9687 0.9685 0.9684
2221.000000 0.9682 0.9681 0.9680 0.9679 0.9677
2226.000000 0.9676 0.9675 0.9674 0.9672 0.9671
2231.000000 0.9669 0.9668 0.9667 0.9666 0.9664
2236.000000 0.9663 0.9662 0.9661 0.9659 0.9658
2241.000000 0.9656 0.9655 0.9654 0.9653 0.9651
2246.000000 0.9650 0.9649 0.9648 0.9647 0.9647
2251.000000 0.9646 0.9646 0.9645 0.9645 0.9644
2256.000000 0.9644 0.9643 0.9643 0.9642 0.9642
2261.000000 0.9641 0.9641 0.9640 0.9640 0.9639
2266.000000 0.9638 0.9637 0.9637 0.9636 0.9636
2271.000000 0.9635 0.9635 0.9634 0.9634 0.9633
2276.000000 0.9633 0.9632 0.9632 0.9631 0.9631
2281.000000 0.9631 0.9630 0.9630 0.9629 0.9629
2286.000000 0.9628 0.9628 0.9627 0.9627 0.9627
2291.000000 0.9627 0.9627 0.9627 0.9627 0.9627
2296.000000 0.9627 0.9627 0.9627 0.9627 0.9627
2301.000000 0.9627 0.9627 0.9627 0.9627 0.9628
2306.000000 0.9628 0.9628 0.9628 0.9628 0.9628
2311.000000 0.9628 0.9628 0.9628 0.9628 0.9628
2316.000000 0.9628 0.9628 0.9628 0.9628 0.9628
2321.000000 0.9628 0.9628 0.9628 0.9628 0.9628
2326.000000 0.9628 0.9628 0.9628 0.9628 0.9629
2331.000000 0.9629 0.9630 0.9631 0.9632 0.9633
2336.000000 0.9633 0.9634 0.9635 0.9636 0.9637
2341.000000 0.9638 0.9639 0.9639 0.9640 0.9640
2346.000000 0.9641 0.9642 0.9643 0.9644 0.9645
2351.000000 0.9645 0.9646 0.9647 0.9647 0.9648
2356.000000 0.9649 0.9650 0.9650 0.9651 0.9652
2361.000000 0.9653 0.9653 0.9654 0.9654 0.9655
2366.000000 0.9656 0.9657 0.9658 0.9658 0.9659
2371.000000 0.9660 0.9661 0.9661 0.9661 0.9662
2376.000000 0.9663 0.9664 0.9664 0.9665 0.9666
2381.000000 0.9667 0.9667 0.9667 0.9668 0.9669
2386.000000 0.9670 0.9670 0.9670 0.9670 0.9670
2391.000000 0.9670 0.9670 0.9670 0.9670 0.9670
2396.000000 0.9670 0.9669 0.9669 0.9669 0.9669
2401.000000 0.9669 0.9669 0.9669 0.9668 0.9668
2406.000000 0.9668 0.9668 0.9668 0.9668 0.9668
2411.000000 0.9668 0.9668 0.9668 0.9667 0.9667
2416.000000 0.9666 0.9665 0.9664 0.9663 0.9662
2421.000000 0.9661 0.9660 0.9659 0.9658 0.9657
2426.000000 0.9656 0.9655 0.9654 0.9653 0.9652
2431.000000 0.9651 0.9650 0.9649 0.9648 0.9647
2436.000000 0.9646 0.9645 0.9644 0.9644 0.9642
2441.000000 0.9640 0.9638 0.9636 0.9634 0.9632
2446.000000 0.9630 0.9628 0.9626 0.9624 0.9622
2451.000000 0.9619 0.9617 0.9615 0.9613 0.9611
2456.000000 0.9609 0.9607 0.9605 0.9603 0.9601
2461.000000 0.9599 0.9597 0.9595 0.9593 0.9590
2466.000000 0.9588 0.9586 0.9584 0.9582 0.9579
2471.000000 0.9577 0.9574 0.9571 0.9568 0.9565
2476.000000 0.9562 0.9559 0.9557 0.9554 0.9551
2481.000000 0.9548 0.9545 0.9542 0.9539 0.9536
2486.000000 0.9533 0.9530 0.9527 0.9524 0.9522
2491.000000 0.9519 0.9516 0.9513 0.9510 0.9508
2496.000000 0.9503 0.9499 0.9495 0.9491 0.9487
2501.000000 0.9483 0.9479 0.9475 0.9471 0.9467
2506.000000 0.9462 0.9458 0.9454 0.9450 0.9446
2511.000000 0.9442 0.9438 0.9434 0.9430 0.9426
2516.000000 0.9422 0.9417 0.9413 0.9409 0.9405
2521.000000 0.9401 0.9397 0.9393 0.9389 0.9385
2526.000000 0.9382 0.9378 0.9374 0.9370 0.9366
2531.000000 0.9362 0.9359 0.9355 0.9351 0.9347
2536.000000 0.9344 0.9340 0.9337 0.9333 0.9329
2541.000000 0.9325 0.9321 0.9317 0.9314 0.9310
2546.000000 0.9307 0.9303 0.9299 0.9295 0.9292
2551.000000 0.9289 0.9285 0.9281 0.9278 0.9275
2556.000000 0.9273 0.9271 0.9268 0.9266 0.9264
2561.000000 0.9262 0.9260 0.9258 0.9256 0.9254
2566.000000 0.9252 0.9250 0.9248 0.9245 0.9243
2571.000000 0.9241 0.9240 0.9237 0.9235 0.9233
2576.000000 0.9231 0.9230 0.9228 0.9227 0.9225
2581.000000 0.9224 0.9222 0.9221 0.9219 0.9218
2586.000000 0.9216 0.9215 0.9213 0.9212 0.9211
2591.000000 0.9209 0.9207 0.9205 0.9201 0.9196
2596.000000 0.9191 0.9185 0.9180 0.9174 0.9169
2601.000000 0.9164 0.9158 0.9153 0.9147 0.9142
2606.000000 0.9137 0.9132 0.9126 0.9121 0.9115
2611.000000 0.9110 0.9105 0.9100 0.9094 0.9089
2616.000000 0.9084 0.9079 0.9073 0.9068 0.9062
2621.000000 0.9057 0.9052 0.9047 0.9042 0.9036
2626.000000 0.9031 0.9026 0.9021 0.9017 0.9014
2631.000000 0.9012 0.9009 0.9007 0.9004 0.9002
2636.000000 0.8999 0.8997 0.8994 0.8991 0.8988
2641.000000 0.8986 0.8983 0.8981 0.8979 0.8977
2646.000000 0.8975 0.8973 0.8971 0.8969 0.8967
2651.000000 0.8966 0.8964 0.8961 0.8959 0.8958
2656.000000 0.8956 0.8954 0.8952 0.8951 0.8947
2661.000000 0.8942 0.8938 0.8932 0.8927 0.8921
2666.000000 0.8916 0.8910 0.8905 0.8899 0.8894
2671.000000 0.8888 0.8880 0.8871 0.8863 0.8854
2676.000000 0.8846 0.8838 0.8831 0.8823 0.8816
2681.000000 0.8809 0.8801 0.8794 0.8786 0.8779
2686.000000 0.8771 0.8764 0.8757 0.8749 0.8742
2691.000000 0.8735 0.8732 0.8730 0.8727 0.8726
2696.000000 0.8724 0.8722 0.8721 0.8719 0.8717
2701.000000 0.8716 0.8714 0.8713 0.8713 0.8713
2706.000000 0.8712 0.8712 0.8711 0.8710 0.8710
2711.000000 0.8709 0.8708 0.8707 0.8706 0.8705
2716.000000 0.8703 0.8702 0.8701 0.8699 0.8698
2721.000000 0.8697 0.8695 0.8694 0.8692 0.8689
2726.000000 0.8686 0.8670 0.8649 0.8628 0.8607
2731.000000 0.8587 0.8566 0.8547 0.8527 0.8508
2736.000000 0.8491 0.8474 0.8457 0.8443 0.8429
2741.000000 0.8415 0.8398 0.8380 0.8362 0.8325
2746.000000 0.8283 0.8240 0.8205 0.8171 0.8138
2751.000000 0.8110 0.8085 0.8059 0.8034 0.8008
2756.000000 0.7982 0.7957 0.7931 0.7906 0.7874
2761.000000 0.7838 0.7801 0.7759 0.7713 0.7667
2766.000000 0.7624 0.7584 0.7544 0.7507 0.7474
2771.000000 0.7441 0.7408 0.7376 0.7343 0.7309
2776.000000 0.7271 0.7233 0.7193 0.7143 0.7094
2781.000000 0.7045 0.6994 0.6943 0.6881 0.6542
2786.000000 0.6202 0.5863 0.5798 0.5753 0.5708
2791.000000 0.5683 0.5662 0.5641 0.5620 0.5599
2796.000000 0.5577 0.5541 0.5494 0.5447 0.5376
2801.000000 0.5273 0.5170 0.5068 0.4965 0.4863
2806.000000 0.4761 0.4658 0.4556 0.4453 0.4351
2811.000000 0.4250 0.4148 0.4046 0.3944 0.3843
2816.000000 0.3741 0.3639 0.3537 0.3436 0.3335
2821.000000 0.3233 0.3132 0.3031 0.2930 0.2829
2826.000000 0.2728 0.2627 0.2526 0.2425 0.2325
2831.000000 0.2224 0.2124 0.2024 0.1923 0.1823
2836.000000 0.1723 0.1622 0.1522 0.1422 0.1322
2841.000000 0.1222 0.1123 0.1023 0.0924 0.0885
2846.000000 0.0856 0.0827 0.0815 0.0814 0.0813
2851.000000 0.0812 0.0810 0.0809 0.0807 0.0805
2856.000000 0.0802 0.0800 0.0797 0.0795 0.0793
2861.000000 0.0790 0.0788 0.0785 0.0782 0.0779
2866.000000 0.0775 0.0771 0.0767 0.0763 0.0760
2871.000000 0.0755 0.0751 0.0747 0.0742 0.0738
2876.000000 0.0733 0.0728 0.0721 0.0714 0.0708
2881.000000 0.0697 0.0686 0.0674 0.0661 0.0646
2886.000000 0.0630 0.0615 0.0598 0.0582 0.0565
2891.000000 0.0549 0.0532 0.0515 0.0498 0.0481
2896.000000 0.0464 0.0445 0.0414 0.0383 0.0352
2901.000000 0.0290 0.0220 0.0150 0.0102 0.0089
2906.000000 0.0076 0.0063 0.0060 0.0056 0.0052
2911.000000 0.0048 0.0044 0.0040 0.0037 0.0033
2916.000000 0.0029 0.0025 0.0023 0.0021 0.0019
2921.000000 0.0018 0.0019 0.0020 0.0021 0.0021
2926.000000 0.0022 0.0023 0.0025 0.0027 0.0029
2931.000000 0.0031 0.0034 0.0037 0.0040 0.0044
2936.000000 0.0048 0.0052 0.0059 0.0072 0.0085
2941.000000 0.0098 0.0144 0.0197 0.0250 0.0365
2946.000000 0.0594 0.0822 0.1050 0.1230 0.1404
2951.000000 0.1578 0.1752 0.1926 0.2099 0.2273
2956.000000 0.2446 0.2620 0.2793 0.2966 0.3139
2961.000000 0.3313 0.3486 0.3658 0.3831 0.4003
2966.000000 0.4176 0.4348 0.4520 0.4692 0.4863
2971.000000 0.5035 0.5207 0.5378 0.5549 0.5721
2976.000000 0.5892 0.6063 0.6234 0.6404 0.6574
2981.000000 0.6738 0.6902 0.7066 0.7139 0.7173
2986.000000 0.7207 0.7240 0.7264 0.7289 0.7313
2991.000000 0.7327 0.7334 0.7340 0.7346 0.7350
2996.000000 0.7354 0.7358 0.7361 0.7362 0.7363
3001.000000 0.7364 0.7365 0.7366 0.7368 0.7369
3006.000000 0.7370 0.7372 0.7373 0.7374 0.7375
3011.000000 0.7376 0.7377 0.7380 0.7383 0.7386
3016.000000 0.7390 0.7397 0.7403 0.7410 0.7420
3021.000000 0.7430 0.7441 0.7452 0.7467 0.7482
3026.000000 0.7498 0.7523 0.7566 0.7609 0.7652
3031.000000 0.7706 0.7764 0.7822 0.7879 0.7921
3036.000000 0.7963 0.8005 0.8044 0.8076 0.8107
3041.000000 0.8139 0.8161 0.8177 0.8193 0.8208
3046.000000 0.8224 0.8239 0.8255 0.8269 0.8282
3051.000000 0.8295 0.8308 0.8319 0.8329 0.8339
3056.000000 0.8349 0.8354 0.8357 0.8360 0.8363
3061.000000 0.8366 0.8369 0.8372 0.8375 0.8378
3066.000000 0.8381 0.8384 0.8386 0.8386 0.8386
3071.000000 0.8386 0.8405 0.8384 0.8383 0.8383
3076.000000 0.8381 0.8379 0.8378 0.8376 0.8372
3081.000000 0.8368 0.8364 0.8360 0.8355 0.8351
3086.000000 0.8346 0.8343 0.8339 0.8336 0.8332
3091.000000 0.8329 0.8325 0.8322 0.8319 0.8314
3096.000000 0.8310 0.8305 0.8301 0.8295 0.8289
3101.000000 0.8284 0.8278 0.8272 0.8267 0.8261
3106.000000 0.8254 0.8246 0.8238 0.8230 0.8222
3111.000000 0.8215 0.8207 0.8199 0.8191 0.8183
3116.000000 0.8175 0.8167 0.8159 0.8151 0.8143
3121.000000 0.8135 0.8127 0.8119 0.8111 0.8103
3126.000000 0.8095 0.8087 0.8079 0.8071 0.8062
3131.000000 0.8054 0.8046 0.8037 0.8027 0.8016
3136.000000 0.8006 0.7996 0.7986 0.7976 0.7966
3141.000000 0.7956 0.7946 0.7936 0.7926 0.7916
3146.000000 0.7904 0.7893 0.7881 0.7870 0.7858
3151.000000 0.7846 0.7834 0.7823 0.7811 0.7799
3156.000000 0.7787 0.7775 0.7764 0.7752 0.7740
3161.000000 0.7725 0.7704 0.7684 0.7664 0.7643
3166.000000 0.7623 0.7602 0.7581 0.7560 0.7538
3171.000000 0.7516 0.7494 0.7472 0.7448 0.7424
3176.000000 0.7400 0.7377 0.7353 0.7330 0.7306
3181.000000 0.7274 0.7224 0.7175 0.7126 0.7078
3186.000000 0.7034 0.6991 0.6947 0.6899 0.6835
3191.000000 0.6771 0.6708 0.6642 0.6567 0.6492
3196.000000 0.6416 0.6341 0.6266 0.6191 0.6116
3201.000000 0.6040 0.5965 0.5890 0.5815 0.5740
3206.000000 0.5665 0.5590 0.5516 0.5441 0.5366
3211.000000 0.5291 0.5217 0.5142 0.5067 0.4993
3216.000000 0.4918 0.4844 0.4770 0.4695 0.4621
3221.000000 0.4547 0.4473 0.4398 0.4324 0.4250
3226.000000 0.4173 0.4180 0.4172 0.4163 0.4154
3231.000000 0.4153 0.4152 0.4151 0.4150 0.4174
3236.000000 0.4202 0.4230 0.4259 0.4305 0.4360
3241.000000 0.4415 0.4471 0.4526 0.4581 0.4636
3246.000000 0.4691 0.4746 0.4801 0.4856 0.4911
3251.000000 0.4966 0.5021 0.5075 0.5130 0.5185
3256.000000 0.5225 0.5261 0.5296 0.5332 0.5335
3261.000000 0.5351 0.5353 0.5355 0.5353 0.5339
3266.000000 0.5325 0.5312 0.5298 0.5268 0.5239
3271.000000 0.5209 0.5180 0.5151 0.5122 0.5092
3276.000000 0.5063 0.5034 0.5005 0.4976 0.4947
3281.000000 0.4918 0.4889 0.4860 0.4831 0.4802
3286.000000 0.4773 0.4744 0.4715 0.4686 0.4657
3291.000000 0.4628 0.4600 0.4571 0.4542 0.4513
3296.000000 0.4484 0.4456 0.4427 0.4398 0.4370
3301.000000 0.4341 0.4312 0.4283 0.4255 0.4226
3306.000000 0.4198 0.4169 0.4140 0.4112 0.4083
3311.000000 0.4055 0.4037 0.4024 0.4010 0.3996
3316.000000 0.3988 0.3988 0.3989 0.3989 0.3989
3321.000000 0.3968 0.4236 0.4363 0.4489 0.4657
3326.000000 0.4862 0.5067 0.5272 0.5477 0.5681
3331.000000 0.5885 0.6089 0.6293 0.6497 0.6701
3336.000000 0.6904 0.7108 0.7322 0.7573 0.7824
3341.000000 0.8076 0.8327 0.8411 0.8440 0.8470
3346.000000 0.8499 0.8532 0.8574 0.8616 0.8657
3351.000000 0.8699 0.8735 0.8769 0.8804 0.8838
3356.000000 0.8867 0.8882 0.8897 0.8911 0.8926
3361.000000 0.8939 0.8951 0.8963 0.8976 0.8987
3366.000000 0.8995 0.9003 0.9011 0.9019 0.9027
3371.000000 0.9036 0.9044 0.9052 0.9060 0.9068
3376.000000 0.9076 0.9084 0.9092 0.9099 0.9104
3381.000000 0.9109 0.9115 0.9120 0.9124 0.9128
3386.000000 0.9133 0.9137 0.9142 0.9146 0.9150
3391.000000 0.9155 0.9159 0.9163 0.9168 0.9172
3396.000000 0.9176 0.9181 0.9185 0.9189 0.9194
3401.000000 0.9198 0.9201 0.9204 0.9207 0.9210
3406.000000 0.9213 0.9215 0.9217 0.9219 0.9221
3411.000000 0.9223 0.9225 0.9228 0.9230 0.9232
3416.000000 0.9234 0.9236 0.9238 0.9240 0.9243
3421.000000 0.9245 0.9247 0.9249 0.9251 0.9253
3426.000000 0.9255 0.9257 0.9260 0.9262 0.9263
3431.000000 0.9264 0.9265 0.9266 0.9267 0.9268
3436.000000 0.9270 0.9271 0.9272 0.9273 0.9274
3441.000000 0.9274 0.9275 0.9276 0.9277 0.9278
3446.000000 0.9279 0.9280 0.9281 0.9282 0.9283
3451.000000 0.9284 0.9285 0.9286 0.9287 0.9288
3456.000000 0.9289 0.9290 0.9291 0.9292 0.9293
3461.000000 0.9294 0.9295 0.9296 0.9297 0.9298
3466.000000 0.9299 0.9300 0.9301 0.9302 0.9303
3471.000000 0.9303 0.9304 0.9305 0.9306 0.9306
3476.000000 0.9307 0.9307 0.9308 0.9308 0.9309
3481.000000 0.9309 0.9310 0.9310 0.9310 0.9311
3486.000000 0.9311 0.9312 0.9312 0.9313 0.9314
3491.000000 0.9314 0.9315 0.9315 0.9315 0.9316
3496.000000 0.9316 0.9317 0.9317 0.9318 0.9318
3501.000000 0.9318 0.9358 0.9319 0.9320 0.9321
3506.000000 0.9321 0.9322 0.9322 0.9323 0.9323
3511.000000 0.9323 0.9324 0.9324 0.9325 0.9325
3516.000000 0.9325 0.9326 0.9327 0.9327 0.9328
3521.000000 0.9328 0.9329 0.9329 0.9330 0.9330
3526.000000 0.9330 0.9331 0.9331 0.9332 0.9332
3531.000000 0.9332 0.9333 0.9333 0.9334 0.9334
3536.000000 0.9334 0.9335 0.9335 0.9335 0.9335
3541.000000 0.9335 0.9335 0.9335 0.9335 0.9335
3546.000000 0.9335 0.9335 0.9335 0.9335 0.9335
3551.000000 0.9335 0.9335 0.9335 0.9335 0.9335
3556.000000 0.9335 0.9334 0.9334 0.9334 0.9334
3561.000000 0.9334 0.9334 0.9334 0.9334 0.9334
3566.000000 0.9334 0.9334 0.9334 0.9334 0.9334
3571.000000 0.9334 0.9334 0.9334 0.9334 0.9334
3576.000000 0.9334 0.9333 0.9333 0.9333 0.9333
3581.000000 0.9333 0.9333 0.9333 0.9333 0.9333
3586.000000 0.9333 0.9333 0.9333 0.9333 0.9333
3591.000000 0.9333 0.9333 0.9333 0.9333 0.9333
3596.000000 0.9333 0.9333 0.9332 0.9332 0.9332
3601.000000 0.9332 0.9332 0.9331 0.9331 0.9331
3606.000000 0.9331 0.9331 0.9330 0.9330 0.9330
3611.000000 0.9330 0.9330 0.9329 0.9329 0.9329
3616.000000 0.9329 0.9329 0.9328 0.9328 0.9328
3621.000000 0.9327 0.9327 0.9327 0.9326 0.9326
3626.000000 0.9326 0.9326 0.9326 0.9325 0.9325
3631.000000 0.9325 0.9325 0.9325 0.9324 0.9324
3636.000000 0.9324 0.9324 0.9324 0.9324 0.9323
3641.000000 0.9323 0.9322 0.9322 0.9322 0.9321
3646.000000 0.9321 0.9321 0.9321 0.9321 0.9320
3651.000000 0.9320 0.9320 0.9320 0.9320 0.9319
3656.000000 0.9319 0.9319 0.9319 0.9319 0.9319
3661.000000 0.9318 0.9318 0.9318 0.9317 0.9317
3666.000000 0.9316 0.9316 0.9316 0.9316 0.9316
3671.000000 0.9316 0.9315 0.9315 0.9315 0.9315
3676.000000 0.9315 0.9314 0.9314 0.9314 0.9314
3681.000000 0.9314 0.9313 0.9313 0.9313 0.9312
3686.000000 0.9312 0.9312 0.9311 0.9311 0.9311
3691.000000 0.9311 0.9311 0.9310 0.9310 0.9309
3696.000000 0.9309 0.9308 0.9308 0.9307 0.9306
3701.000000 0.9305 0.9305 0.9304 0.9303 0.9303
3706.000000 0.9302 0.9301 0.9300 0.9300 0.9299
3711.000000 0.9298 0.9297 0.9297 0.9296 0.9295
3716.000000 0.9295 0.9294 0.9293 0.9292 0.9292
3721.000000 0.9291 0.9290 0.9290 0.9289 0.9288
3726.000000 0.9287 0.9287 0.9286 0.9285 0.9284
3731.000000 0.9284 0.9283 0.9283 0.9282 0.9282
3736.000000 0.9281 0.9280 0.9280 0.9279 0.9278
3741.000000 0.9278 0.9277 0.9276 0.9275 0.9275
3746.000000 0.9274 0.9273 0.9273 0.9272 0.9271
3751.000000 0.9270 0.9270 0.9269 0.9268 0.9268
3756.000000 0.9267 0.9266 0.9265 0.9265 0.9264
3761.000000 0.9263 0.9262 0.9261 0.9260 0.9260
3766.000000 0.9259 0.9258 0.9257 0.9257 0.9256
3771.000000 0.9255 0.9254 0.9254 0.9253 0.9252
3776.000000 0.9251 0.9250 0.9249 0.9248 0.9247
3781.000000 0.9247 0.9246 0.9245 0.9244 0.9243
3786.000000 0.9242 0.9241 0.9240 0.9240 0.9239
3791.000000 0.9238 0.9237 0.9236 0.9235 0.9234
3796.000000 0.9233 0.9233 0.9232 0.9231 0.9230
3801.000000 0.9229 0.9228 0.9227 0.9227 0.9226
3806.000000 0.9225 0.9224 0.9223 0.9222 0.9221
3811.000000 0.9220 0.9220 0.9219 0.9218 0.9217
3816.000000 0.9216 0.9215 0.9214 0.9214 0.9213
3821.000000 0.9212 0.9211 0.9210 0.9209 0.9208
3826.000000 0.9208 0.9207 0.9206 0.9205 0.9204
3831.000000 0.9203 0.9203 0.9202 0.9201 0.9200
3836.000000 0.9199 0.9199 0.9198 0.9197 0.9197
3841.000000 0.9196 0.9195 0.9194 0.9193 0.9192
3846.000000 0.9192 0.9191 0.9190 0.9189 0.9188
3851.000000 0.9187 0.9187 0.9186 0.9185 0.9184
3856.000000 0.9183 0.9182 0.9182 0.9181 0.9180
3861.000000 0.9179 0.9178 0.9177 0.9176 0.9176
3866.000000 0.9175 0.9174 0.9173 0.9172 0.9171
3871.000000 0.9171 0.9170 0.9169 0.9168 0.9167
3876.000000 0.9166 0.9166 0.9165 0.9164 0.9163
3881.000000 0.9162 0.9161 0.9160 0.9159 0.9158
3886.000000 0.9157 0.9156 0.9155 0.9154 0.9153
3891.000000 0.9152 0.9151 0.9150 0.9149 0.9147
3896.000000 0.9146 0.9145 0.9144 0.9143 0.9142
3901.000000 0.9141 0.9140 0.9139 0.9138 0.9137
3906.000000 0.9136 0.9135 0.9133 0.9132 0.9131
3911.000000 0.9130 0.9129 0.9128 0.9127 0.9126
3916.000000 0.9125 0.9124 0.9123 0.9122 0.9121
3921.000000 0.9120 0.9119 0.9117 0.9116 0.9115
3926.000000 0.9114 0.9113 0.9112 0.9111 0.9109
3931.000000 0.9108 0.9107 0.9106 0.9105 0.9104
3936.000000 0.9103 0.9103 0.9101 0.9100 0.9099
3941.000000 0.9098 0.9097 0.9096 0.9095 0.9094
3946.000000 0.9093 0.9092 0.9091 0.9090 0.9089
3951.000000 0.9088 0.9087 0.9086 0.9084 0.9083
3956.000000 0.9082 0.9081 0.9080 0.9079 0.9078
3961.000000 0.9077 0.9076 0.9075 0.9074 0.9073
3966.000000 0.9072 0.9071 0.9070 0.9068 0.9067
3971.000000 0.9066 0.9064 0.9063 0.9061 0.9060
3976.000000 0.9058 0.9057 0.9056 0.9054 0.9053
3981.000000 0.9051 0.9050 0.9049 0.9047 0.9046
3986.000000 0.9044 0.9043 0.9041 0.9040 0.9039
3991.000000 0.9037 0.9036 0.9034 0.9033 0.9032
3996.000000 0.9030 0.9029 0.9027 0.9026 0.9025
##END=
