##TITLE=RESORCINOL, 2,4-DIBENZOYL-6-HEXYL-
##JCAMP-DX=4.24
##DATA TYPE=INFRARED SPECTRUM
##CLASS=COBLENTZ
##ORIGIN=TENNESSEE EASTMAN COMPANY, RESEARCH LABORATORIES
##OWNER=COBLENTZ SOCIETY
Collection (C) 2018 copyright by the U.S. Secretary of Commerce
on behalf of the United States of America. All rights reserved.
##DATE=1960
##MOLFORM=C26 H26 O4
##SOURCE REFERENCE=COBLENTZ NO. 809
##$NIST ID=B6000809
##$NIST SOURCE=COBLENTZ
##$NIST IMAGE=cob809
##SPECTROMETER/DATA SYSTEM=Not specified, most likely a prism, grating, or hybrid spectrometer.
##STATE=SOLID (OIL MULL)
##SAMPLING PROCEDURE=TRANSMISSION
##RESOLUTION=4
##DATA PROCESSING=DIGITIZED BY NIST FROM HARD COPY
##XUNITS=MICROMETERS
##YUNITS=TRANSMITTANCE
##XFACTOR=1.000000
##YFACTOR=1
##DELTAX=000.006853
##FIRSTX=2.021
##LASTX=16.0079
##FIRSTY=0.407
##MAXX=16.0079
##MINX=2.021
##MAXY=0.81
##MINY=0.029
##NPOINTS=2042
##XYDATA=(X++(Y..Y))
2.021000 0.4070 0.4080 0.4080 0.4100 0.4100
2.055281 0.4100 0.4100 0.4120 0.4120 0.4120
2.089000 0.4120 0.4140 0.4140 0.4120 0.4120
2.123281 0.4140 0.4140 0.4170 0.4170 0.4170
2.158000 0.4170 0.4170 0.4170 0.4170 0.4170
2.192281 0.4170 0.4170 0.4170 0.4170 0.4170
2.226000 0.4170 0.4150 0.4140 0.4140 0.4120
2.260281 0.4120 0.4120 0.4100 0.4080 0.4080
2.295000 0.4080 0.4080 0.4080 0.4080 0.4080
2.329281 0.4080 0.4080 0.4080 0.4080 0.4080
2.363000 0.4100 0.4120 0.4120 0.4120 0.4140
2.397281 0.4140 0.4140 0.4140 0.4140 0.4140
2.432000 0.4140 0.4140 0.4140 0.4140 0.4150
2.466281 0.4170 0.4200 0.4240 0.4290 0.4310
2.500000 0.4320 0.4360 0.4360 0.4360 0.4360
2.534281 0.4360 0.4360 0.4360 0.4360 0.4360
2.569000 0.4360 0.4360 0.4360 0.4360 0.4360
2.603281 0.4360 0.4360 0.4380 0.4360 0.4380
2.637000 0.4380 0.4380 0.4380 0.4380 0.4390
2.671281 0.4390 0.4390 0.4390 0.4390 0.4390
2.706000 0.4410 0.4430 0.4480 0.4500 0.4500
2.740281 0.4510 0.4550 0.4570 0.4580 0.4600
2.774000 0.4630 0.4670 0.4690 0.4720 0.4740
2.808281 0.4750 0.4750 0.4750 0.4750 0.4750
2.843000 0.4750 0.4770 0.4770 0.4770 0.4770
2.877281 0.4770 0.4790 0.4790 0.4810 0.4810
2.911000 0.4810 0.4820 0.4820 0.4820 0.4820
2.945281 0.4820 0.4820 0.4840 0.4840 0.4840
2.980000 0.4840 0.4840 0.4840 0.4840 0.4840
3.014281 0.4840 0.4820 0.4820 0.4820 0.4820
3.048000 0.4810 0.4790 0.4770 0.4750 0.4720
3.082281 0.4690 0.4690 0.4700 0.4700 0.4690
3.117000 0.4690 0.4620 0.4550 0.4460 0.4410
3.151281 0.4380 0.4340 0.4340 0.4340 0.4340
3.186000 0.4340 0.4320 0.4320 0.4320 0.4320
3.220281 0.4310 0.4290 0.4270 0.4220 0.4100
3.254000 0.4000 0.3880 0.3710 0.3550 0.3410
3.288281 0.3330 0.3260 0.3170 0.3020 0.2800
3.323000 0.2640 0.2470 0.2010 0.1370 0.0560
3.357281 0.0460 0.0360 0.0320 0.0300 0.0300
3.391000 0.0290 0.0290 0.0290 0.0290 0.0290
3.425281 0.0290 0.0290 0.0290 0.0290 0.0290
3.460000 0.0290 0.0290 0.0290 0.0290 0.0300
3.494281 0.0480 0.0890 0.1320 0.1730 0.2140
3.528000 0.2930 0.3280 0.3590 0.3860 0.4080
3.562281 0.4240 0.4310 0.4410 0.4480 0.4550
3.597000 0.4630 0.4740 0.4820 0.4840 0.4840
3.631281 0.4840 0.4840 0.4840 0.4820 0.4810
3.665000 0.4750 0.4740 0.4700 0.4690 0.4700
3.699281 0.4720 0.4720 0.4740 0.4740 0.4740
3.734000 0.4740 0.4740 0.4740 0.4740 0.4740
3.768281 0.4740 0.4740 0.4740 0.4740 0.4740
3.802000 0.4740 0.4740 0.4750 0.4770 0.4790
3.836281 0.4820 0.4870 0.4910 0.4960 0.5000
3.871000 0.5010 0.5030 0.5100 0.5120 0.5130
3.905281 0.5150 0.5180 0.5220 0.5250 0.5290
3.939000 0.5320 0.5360 0.5410 0.5440 0.5460
3.973281 0.5480 0.5490 0.5490 0.5510 0.5530
4.008000 0.5540 0.5560 0.5560 0.5560 0.5580
4.042281 0.5580 0.5580 0.5600 0.5600 0.5600
4.076000 0.5600 0.5610 0.5630 0.5650 0.5670
4.110281 0.5680 0.5720 0.5720 0.5700 0.5720
4.145000 0.5720 0.5720 0.5720 0.5730 0.5750
4.179281 0.5750 0.5770 0.5750 0.5770 0.5770
4.213000 0.5770 0.5790 0.5790 0.5790 0.5790
4.247281 0.5790 0.5790 0.5790 0.5790 0.5790
4.282000 0.5790 0.5790 0.5790 0.5790 0.5790
4.316281 0.5790 0.5790 0.5800 0.5870 0.5940
4.351000 0.5960 0.6010 0.6040 0.6080 0.6080
4.385281 0.6090 0.6110 0.6130 0.6150 0.6150
4.419000 0.6160 0.6180 0.6200 0.6210 0.6230
4.453281 0.6250 0.6250 0.6250 0.6270 0.6270
4.488000 0.6280 0.6280 0.6300 0.6300 0.6300
4.522281 0.6320 0.6340 0.6340 0.6340 0.6340
4.556000 0.6350 0.6350 0.6370 0.6370 0.6390
4.590281 0.6400 0.6440 0.6460 0.6460 0.6460
4.625000 0.6470 0.6470 0.6470 0.6490 0.6510
4.659281 0.6510 0.6560 0.6560 0.6580 0.6580
4.693000 0.6580 0.6590 0.6590 0.6610 0.6590
4.727281 0.6630 0.6630 0.6640 0.6640 0.6640
4.762000 0.6660 0.6660 0.6660 0.6680 0.6680
4.796281 0.6680 0.6680 0.6700 0.6700 0.6700
4.830000 0.6700 0.6710 0.6710 0.6700 0.6710
4.864281 0.6710 0.6710 0.6730 0.6750 0.6750
4.899000 0.6760 0.6760 0.6760 0.6760 0.6760
4.933281 0.6780 0.6800 0.6800 0.6800 0.6800
4.967000 0.6820 0.6820 0.6830 0.6870 0.6870
5.001281 0.6890 0.6890 0.6900 0.6920 0.6940
5.036000 0.6940 0.6950 0.6950 0.6950 0.6970
5.070281 0.6950 0.6950 0.6940 0.6920 0.6920
5.104000 0.6900 0.6900 0.6900 0.6920 0.6950
5.138281 0.6970 0.6990 0.7010 0.7020 0.7060
5.173000 0.7090 0.7110 0.7130 0.7130 0.7130
5.207281 0.7130 0.7130 0.7130 0.7130 0.7140
5.241000 0.7130 0.7130 0.7140 0.7130 0.7110
5.275281 0.7110 0.7110 0.7130 0.7160 0.7210
5.310000 0.7230 0.7280 0.7330 0.7370 0.7380
5.344281 0.7400 0.7420 0.7430 0.7450 0.7490
5.378000 0.7470 0.7520 0.7520 0.7500 0.7500
5.412281 0.7500 0.7500 0.7500 0.7500 0.7500
5.447000 0.7500 0.7500 0.7500 0.7500 0.7500
5.481281 0.7500 0.7500 0.7500 0.7500 0.7490
5.516000 0.7490 0.7490 0.7490 0.7490 0.7490
5.550281 0.7500 0.7520 0.7540 0.7560 0.7570
5.584000 0.7590 0.7610 0.7620 0.7640 0.7640
5.618281 0.7640 0.7620 0.7620 0.7620 0.7610
5.653000 0.7620 0.7660 0.7680 0.7710 0.7740
5.687281 0.7800 0.7800 0.7810 0.7810 0.7830
5.721000 0.7860 0.7900 0.7920 0.7930 0.7980
5.755281 0.8000 0.8000 0.8040 0.8050 0.8090
5.790000 0.8100 0.8100 0.8100 0.8100 0.8100
5.824281 0.8100 0.8100 0.8100 0.8100 0.8100
5.858000 0.8100 0.8100 0.8100 0.8090 0.8090
5.892281 0.8090 0.8090 0.8090 0.8090 0.8090
5.927000 0.8090 0.8090 0.8090 0.8070 0.8040
5.961281 0.8020 0.8020 0.7980 0.7900 0.7880
5.995000 0.7830 0.7780 0.7660 0.7520 0.7500
6.029281 0.7470 0.7420 0.7310 0.7140 0.6990
6.064000 0.6750 0.6470 0.6180 0.5850 0.5530
6.098281 0.5180 0.5010 0.4820 0.4450 0.4070
6.132000 0.3650 0.3240 0.2800 0.2640 0.2470
6.166281 0.2190 0.1950 0.1760 0.1590 0.1460
6.201000 0.1320 0.1200 0.1060 0.1040 0.1010
6.235281 0.1010 0.0990 0.0990 0.1010 0.1040
6.269000 0.1110 0.1210 0.1340 0.1490 0.1610
6.303281 0.1710 0.1800 0.1870 0.1920 0.1950
6.338000 0.1990 0.1990 0.2010 0.2130 0.2230
6.372281 0.2330 0.2430 0.2730 0.2900 0.3120
6.406000 0.3360 0.3640 0.3760 0.3840 0.3910
6.440281 0.3950 0.3980 0.4020 0.4070 0.4150
6.475000 0.4270 0.4450 0.4480 0.4570 0.4650
6.509281 0.4720 0.4770 0.4810 0.4820 0.4840
6.543000 0.4840 0.4910 0.4940 0.4980 0.5010
6.577281 0.5030 0.5050 0.5050 0.5060 0.5060
6.612000 0.5080 0.5080 0.5080 0.5080 0.5080
6.646281 0.5080 0.5060 0.5000 0.4960 0.4930
6.681000 0.4870 0.4840 0.4790 0.4720 0.4630
6.715281 0.4510 0.4360 0.4150 0.3900 0.3590
6.749000 0.3190 0.2730 0.2450 0.2160 0.1510
6.783281 0.1280 0.1080 0.0870 0.0800 0.0750
6.818000 0.0750 0.0730 0.0720 0.0720 0.0700
6.852281 0.0680 0.0630 0.0610 0.0610 0.0610
6.886000 0.0610 0.0630 0.0670 0.0720 0.0800
6.920281 0.0870 0.0970 0.1080 0.1200 0.1350
6.955000 0.1510 0.1680 0.1850 0.2060 0.2250
6.989281 0.2450 0.2800 0.2850 0.2900 0.3280
7.023000 0.3640 0.3840 0.4050 0.4240 0.4360
7.057281 0.4450 0.4510 0.4600 0.4720 0.4770
7.092000 0.4840 0.4910 0.4980 0.4980 0.4980
7.126281 0.4980 0.4980 0.4980 0.4930 0.4840
7.160000 0.4650 0.4500 0.4310 0.4080 0.3810
7.194281 0.3500 0.3120 0.2660 0.2500 0.2330
7.229000 0.2090 0.1940 0.1830 0.1730 0.1610
7.263281 0.1590 0.1590 0.1610 0.1760 0.1890
7.297000 0.2040 0.2180 0.2230 0.2230 0.2230
7.331281 0.2210 0.2210 0.2190 0.2190 0.2190
7.366000 0.2210 0.2250 0.2420 0.2690 0.2800
7.400281 0.2850 0.3070 0.3280 0.3450 0.3620
7.434000 0.3780 0.3910 0.4030 0.4150 0.4240
7.468281 0.4260 0.4240 0.4200 0.4050 0.3980
7.503000 0.3840 0.3690 0.3520 0.3380 0.3260
7.537281 0.3140 0.3050 0.2950 0.2880 0.2860
7.571000 0.2880 0.3230 0.3470 0.3590 0.3690
7.605281 0.3840 0.3900 0.3910 0.3900 0.3900
7.640000 0.3830 0.3760 0.3690 0.3640 0.3530
7.674281 0.3500 0.3470 0.3410 0.3350 0.3280
7.708000 0.3230 0.3170 0.3160 0.3160 0.3160
7.742281 0.3170 0.3170 0.3170 0.3170 0.3170
7.777000 0.3160 0.3120 0.3040 0.2930 0.2860
7.811281 0.2680 0.2570 0.2540 0.2520 0.2490
7.846000 0.2470 0.2470 0.2470 0.2490 0.2620
7.880281 0.2690 0.2780 0.2860 0.2970 0.3090
7.914000 0.3210 0.3330 0.3450 0.3480 0.3520
7.948281 0.3570 0.3590 0.3590 0.3590 0.3590
7.983000 0.3570 0.3530 0.3480 0.3430 0.3350
8.017281 0.3260 0.3160 0.3040 0.2880 0.2730
8.051000 0.2590 0.2500 0.2470 0.2420 0.2330
8.085281 0.2250 0.2190 0.2180 0.2180 0.2190
8.120000 0.2330 0.2490 0.2780 0.2900 0.3000
8.154281 0.3100 0.3210 0.3310 0.3400 0.3500
8.188000 0.3590 0.3670 0.3760 0.3840 0.3930
8.222281 0.4030 0.4120 0.4200 0.4290 0.4380
8.257000 0.4460 0.4530 0.4630 0.4690 0.4770
8.291281 0.4820 0.4860 0.4870 0.4870 0.4840
8.325000 0.4630 0.4480 0.4310 0.4170 0.3910
8.359281 0.3900 0.3910 0.3960 0.4030 0.4140
8.394000 0.4240 0.4320 0.4430 0.4580 0.4630
8.428281 0.4630 0.4530 0.4170 0.3860 0.3590
8.462000 0.3400 0.3380 0.3380 0.3470 0.3670
8.496281 0.3860 0.4070 0.4220 0.4360 0.4450
8.531000 0.4530 0.4620 0.4700 0.4860 0.4930
8.565281 0.4940 0.4940 0.4940 0.4960 0.4960
8.599000 0.4980 0.4980 0.5010 0.5050 0.5100
8.633281 0.5180 0.5290 0.5320 0.5390 0.5480
8.668000 0.5540 0.5580 0.5600 0.5630 0.5650
8.702281 0.5650 0.5670 0.5650 0.5650 0.5560
8.736000 0.5460 0.5250 0.5120 0.4980 0.4630
8.770281 0.4190 0.3670 0.3040 0.2950 0.2950
8.805000 0.2950 0.2980 0.3120 0.3280 0.3570
8.839281 0.3810 0.4020 0.4190 0.4360 0.4510
8.873000 0.4650 0.4790 0.4930 0.5170 0.5250
8.907281 0.5340 0.5390 0.5460 0.5510 0.5540
8.942000 0.5600 0.5630 0.5670 0.5700 0.5750
8.976281 0.5800 0.5800 0.5800 0.5800 0.5800
9.011000 0.5800 0.5800 0.5800 0.5800 0.5800
9.045281 0.5800 0.5790 0.5770 0.5750 0.5730
9.079000 0.5730 0.5730 0.5720 0.5720 0.5770
9.113281 0.5850 0.5920 0.5990 0.6060 0.6110
9.148000 0.6160 0.6210 0.6270 0.6300 0.6320
9.182281 0.6340 0.6340 0.6340 0.6340 0.6320
9.216000 0.6250 0.6150 0.5990 0.5870 0.5770
9.250281 0.5610 0.5600 0.5600 0.5600 0.5650
9.285000 0.5800 0.5910 0.5990 0.6060 0.6150
9.319281 0.6230 0.6320 0.6370 0.6420 0.6470
9.353000 0.6490 0.6510 0.6520 0.6540 0.6560
9.387281 0.6590 0.6630 0.6660 0.6700 0.6710
9.422000 0.6730 0.6750 0.6760 0.6780 0.6820
9.456281 0.6870 0.6890 0.6890 0.6890 0.6900
9.490000 0.6900 0.6940 0.6940 0.6950 0.6950
9.524281 0.6950 0.6950 0.6950 0.6940 0.6940
9.559000 0.6900 0.6870 0.6730 0.6590 0.6490
9.593281 0.6340 0.6150 0.5850 0.5680 0.5610
9.627000 0.5610 0.5610 0.5680 0.5890 0.6090
9.661281 0.6250 0.6400 0.6510 0.6590 0.6610
9.696000 0.6660 0.6680 0.6710 0.6730 0.6730
9.730281 0.6700 0.6630 0.6470 0.6230 0.5850
9.764000 0.5200 0.5060 0.4910 0.4530 0.4140
9.798281 0.3830 0.3410 0.3400 0.3430 0.3470
9.833000 0.3520 0.3550 0.3710 0.3860 0.4020
9.867281 0.4170 0.4310 0.4430 0.4530 0.4600
9.901000 0.4630 0.4690 0.4770 0.4790 0.4810
9.935281 0.4810 0.4790 0.4790 0.4790 0.4790
9.970000 0.4770 0.4770 0.4790 0.4870 0.4940
10.004281 0.5080 0.5170 0.5240 0.5300 0.5360
10.038000 0.5420 0.5490 0.5540 0.5600 0.5630
10.072281 0.5670 0.5700 0.5700 0.5720 0.5750
10.107000 0.5800 0.5820 0.5820 0.5840 0.5850
10.141281 0.5870 0.5870 0.5870 0.5870 0.5890
10.176000 0.5890 0.5910 0.5890 0.5910 0.5890
10.210281 0.5890 0.5870 0.5840 0.5750 0.5700
10.244000 0.5600 0.5490 0.5370 0.5250 0.5130
10.278281 0.5000 0.5000 0.4980 0.4980 0.4980
10.313000 0.5130 0.5240 0.5340 0.5420 0.5510
10.347281 0.5580 0.5630 0.5700 0.5750 0.5790
10.381000 0.5840 0.5890 0.5940 0.5990 0.6030
10.415281 0.6030 0.6110 0.6150 0.6180 0.6210
10.450000 0.6250 0.6270 0.6280 0.6320 0.6350
10.484281 0.6390 0.6420 0.6440 0.6470 0.6510
10.518000 0.6540 0.6560 0.6580 0.6590 0.6610
10.552281 0.6630 0.6640 0.6660 0.6680 0.6680
10.587000 0.6710 0.6710 0.6730 0.6730 0.6730
10.621281 0.6750 0.6750 0.6760 0.6760 0.6760
10.655000 0.6780 0.6780 0.6780 0.6800 0.6800
10.689281 0.6820 0.6820 0.6820 0.6820 0.6820
10.724000 0.6820 0.6820 0.6820 0.6820 0.6820
10.758281 0.6820 0.6820 0.6820 0.6820 0.6800
10.792000 0.6800 0.6780 0.6730 0.6700 0.6660
10.826281 0.6640 0.6630 0.6610 0.6610 0.6610
10.861000 0.6630 0.6630 0.6640 0.6640 0.6630
10.895281 0.6610 0.6560 0.6470 0.6370 0.6280
10.929000 0.6250 0.6250 0.6270 0.6270 0.6280
10.963281 0.6320 0.6390 0.6440 0.6540 0.6640
10.998000 0.6660 0.6710 0.6820 0.6870 0.6940
11.032281 0.6950 0.7010 0.7020 0.7090 0.7110
11.066000 0.7130 0.7130 0.7140 0.7160 0.7160
11.100281 0.7180 0.7190 0.7190 0.7190 0.7180
11.135000 0.7180 0.7180 0.7180 0.7160 0.7160
11.169281 0.7140 0.7140 0.7140 0.7140 0.7140
11.203000 0.7130 0.7130 0.7110 0.7110 0.7110
11.237281 0.7110 0.7110 0.7110 0.7110 0.7110
11.272000 0.7110 0.7110 0.7110 0.7110 0.7110
11.306281 0.7110 0.7110 0.7110 0.7110 0.7110
11.341000 0.7110 0.7110 0.7110 0.7110 0.7110
11.375281 0.7110 0.7110 0.7110 0.7110 0.7110
11.409000 0.7110 0.7130 0.7110 0.7110 0.7110
11.443281 0.7110 0.7110 0.7110 0.7110 0.7090
11.478000 0.7090 0.7070 0.7060 0.7010 0.6990
11.512281 0.6950 0.6940 0.6870 0.6830 0.6800
11.546000 0.6730 0.6710 0.6680 0.6630 0.6590
11.580281 0.6560 0.6520 0.6420 0.6280 0.6040
11.615000 0.5960 0.5840 0.5680 0.5530 0.5370
11.649281 0.5200 0.5030 0.4940 0.4840 0.4690
11.683000 0.4510 0.4360 0.4220 0.4120 0.4050
11.717281 0.3910 0.3790 0.3790 0.3810 0.3810
11.752000 0.3810 0.3830 0.3880 0.3980 0.4080
11.786281 0.4220 0.4410 0.4430 0.4430 0.4430
11.820000 0.4430 0.4410 0.4390 0.4380 0.4320
11.854281 0.4290 0.4260 0.4200 0.4070 0.4030
11.889000 0.3960 0.3880 0.3810 0.3780 0.3740
11.923281 0.3720 0.3720 0.3710 0.3710 0.3710
11.957000 0.3710 0.3710 0.3720 0.3760 0.3810
11.991281 0.3880 0.4020 0.4100 0.4190 0.4260
12.026000 0.4320 0.4390 0.4410 0.4430 0.4460
12.060281 0.4510 0.4570 0.4650 0.4740 0.4840
12.094000 0.4870 0.4910 0.4940 0.4980 0.5050
12.128281 0.5080 0.5100 0.5120 0.5130 0.5180
12.163000 0.5200 0.5200 0.5220 0.5240 0.5250
12.197281 0.5270 0.5270 0.5270 0.5270 0.5270
12.231000 0.5270 0.5270 0.5290 0.5270 0.5290
12.265281 0.5340 0.5410 0.5460 0.5510 0.5560
12.300000 0.5650 0.5750 0.5840 0.5920 0.6030
12.334281 0.6110 0.6210 0.6320 0.6370 0.6440
12.368000 0.6490 0.6490 0.6510 0.6510 0.6510
12.402281 0.6510 0.6490 0.6490 0.6460 0.6400
12.437000 0.6350 0.6270 0.6180 0.6090 0.5990
12.471281 0.5890 0.5790 0.5670 0.5540 0.5440
12.506000 0.5340 0.5220 0.5130 0.5030 0.5000
12.540281 0.4940 0.4910 0.4870 0.4840 0.4840
12.574000 0.4840 0.4820 0.4840 0.4870 0.4910
12.608281 0.4960 0.5060 0.5100 0.5170 0.5220
12.643000 0.5270 0.5340 0.5410 0.5480 0.5540
12.677281 0.5630 0.5700 0.5730 0.5800 0.5850
12.711000 0.5910 0.5960 0.6010 0.6030 0.6080
12.745281 0.6110 0.6110 0.6150 0.6150 0.6160
12.780000 0.6160 0.6160 0.6150 0.6150 0.6090
12.814281 0.6040 0.5910 0.5750 0.5540 0.5360
12.848000 0.5150 0.5050 0.4960 0.4870 0.4650
12.882281 0.4450 0.4270 0.4220 0.4150 0.4050
12.917000 0.4000 0.4000 0.3980 0.3980 0.4100
12.951281 0.4260 0.4410 0.4550 0.4690 0.4820
12.985000 0.4960 0.5180 0.5290 0.5370 0.5440
13.019281 0.5490 0.5560 0.5650 0.5700 0.5730
13.054000 0.5770 0.5800 0.5840 0.5870 0.5910
13.088281 0.5940 0.5970 0.5990 0.5990 0.6010
13.122000 0.6030 0.6060 0.6090 0.6110 0.6110
13.156281 0.6110 0.6110 0.6110 0.6110 0.6110
13.191000 0.6110 0.6090 0.6080 0.6080 0.6080
13.225281 0.6030 0.6010 0.5960 0.5870 0.5750
13.259000 0.5670 0.5560 0.5490 0.5440 0.5370
13.293281 0.5320 0.5290 0.5270 0.5270 0.5250
13.328000 0.5270 0.5270 0.5270 0.5270 0.5270
13.362281 0.5270 0.5270 0.5270 0.5270 0.5250
13.396000 0.5240 0.5220 0.5180 0.5130 0.5050
13.430281 0.5010 0.4980 0.4940 0.4890 0.4860
13.465000 0.4810 0.4750 0.4720 0.4700 0.4690
13.499281 0.4690 0.4690 0.4690 0.4690 0.4690
13.533000 0.4700 0.4740 0.4770 0.4820 0.4890
13.567281 0.4960 0.5060 0.5120 0.5180 0.5240
13.602000 0.5290 0.5320 0.5340 0.5370 0.5390
13.636281 0.5410 0.5440 0.5460 0.5480 0.5480
13.671000 0.5480 0.5490 0.5490 0.5490 0.5490
13.705281 0.5480 0.5480 0.5480 0.5480 0.5480
13.739000 0.5440 0.5410 0.5370 0.5300 0.5250
13.773281 0.5180 0.5130 0.5080 0.5010 0.4980
13.808000 0.4940 0.4890 0.4820 0.4790 0.4740
13.842281 0.4720 0.4690 0.4670 0.4650 0.4650
13.876000 0.4650 0.4650 0.4670 0.4690 0.4700
13.910281 0.4790 0.4910 0.4980 0.5130 0.5200
13.945000 0.5270 0.5340 0.5410 0.5480 0.5540
13.979281 0.5610 0.5670 0.5730 0.5790 0.5850
14.013000 0.5910 0.5960 0.5990 0.5990 0.6010
14.047281 0.6040 0.6080 0.6090 0.6090 0.6090
14.082000 0.6090 0.6090 0.6110 0.6110 0.6130
14.116281 0.6130 0.6130 0.6110 0.6110 0.6090
14.150000 0.6060 0.6030 0.5970 0.5910 0.5820
14.184281 0.5700 0.5540 0.5370 0.5150 0.5010
14.219000 0.4870 0.4860 0.4650 0.4480 0.4360
14.253281 0.4220 0.4070 0.3910 0.3760 0.3600
14.287000 0.3470 0.3350 0.3230 0.3160 0.3020
14.321281 0.2900 0.2760 0.2680 0.2640 0.2570
14.356000 0.2520 0.2500 0.2490 0.2430 0.2380
14.390281 0.2300 0.2250 0.2230 0.2230 0.2230
14.424000 0.2230 0.2230 0.2230 0.2230 0.2250
14.458281 0.2260 0.2280 0.2330 0.2380 0.2470
14.493000 0.2710 0.2860 0.2900 0.2970 0.3070
14.527281 0.3210 0.3350 0.3500 0.3670 0.3810
14.561000 0.3950 0.4050 0.4170 0.4260 0.4320
14.595281 0.4380 0.4430 0.4480 0.4530 0.4570
14.630000 0.4630 0.4690 0.4770 0.4860 0.4940
14.664281 0.4980 0.5010 0.5060 0.5100 0.5120
14.698000 0.5120 0.5130 0.5170 0.5200 0.5220
14.732281 0.5240 0.5250 0.5270 0.5290 0.5300
14.767000 0.5300 0.5320 0.5320 0.5340 0.5360
14.801281 0.5370 0.5370 0.5370 0.5390 0.5390
14.836000 0.5390 0.5390 0.5390 0.5390 0.5390
14.870281 0.5390 0.5390 0.5390 0.5370 0.5370
14.904000 0.5360 0.5340 0.5320 0.5300 0.5290
14.938281 0.5270 0.5270 0.5270 0.5270 0.5270
14.973000 0.5270 0.5290 0.5290 0.5290 0.5320
15.007281 0.5320 0.5320 0.5320 0.5320 0.5320
15.041000 0.5320 0.5320 0.5320 0.5320 0.5320
15.075281 0.5320 0.5320 0.5320 0.5300 0.5300
15.110000 0.5320 0.5320 0.5320 0.5320 0.5320
15.144281 0.5320 0.5340 0.5340 0.5340 0.5360
15.178000 0.5370 0.5360 0.5390 0.5390 0.5420
15.212281 0.5420 0.5420 0.5440 0.5440 0.5440
15.247000 0.5440 0.5460 0.5460 0.5460 0.5460
15.281281 0.5460 0.5440 0.5440 0.5440 0.5440
15.315000 0.5440 0.5440 0.5440 0.5440 0.5440
15.349281 0.5440 0.5440 0.5440 0.5420 0.5420
15.384000 0.5420 0.5420 0.5420 0.5420 0.5420
15.418281 0.5420 0.5420 0.5420 0.5420 0.5420
15.452000 0.5420 0.5420 0.5420 0.5420 0.5420
15.486281 0.5420 0.5410 0.5410 0.5410 0.5410
15.521000 0.5410 0.5370 0.5370 0.5360 0.5320
15.555281 0.5320 0.5320 0.5300 0.5290 0.5290
15.589000 0.5250 0.5250 0.5220 0.5180 0.5150
15.623281 0.5120 0.5060 0.5030 0.5000 0.4980
15.658000 0.4960 0.4930 0.4890 0.4820 0.4770
15.692281 0.4700 0.4630 0.4570 0.4500 0.4410
15.726000 0.4380 0.4360 0.4340 0.4320 0.4310
15.760281 0.4260 0.4240 0.4200 0.4150 0.4120
15.795000 0.4070 0.4020 0.3950 0.3900 0.3840
15.829281 0.3830 0.3810 0.3760 0.3740 0.3720
15.863000 0.3720 0.3720 0.3720 0.3720 0.3720
15.897281 0.3720 0.3720 0.3710 0.3710 0.3710
15.932000 0.3710 0.3710 0.3710 0.3720 0.3720
15.966281 0.3720 0.3720 0.3720 0.3720 0.3720
16.001000 0.3720 0.3720
##END=
