##TITLE=1,8-Octanediamine dihydrochloride
##JCAMP-DX=4.24
##DATA TYPE=INFRARED SPECTRUM
##CLASS=COBLENTZ III
##ORIGIN=BRITISH PETROLEUM CO. LTD., ENGLAND
##OWNER=Copyright (C) 1987 by the Coblentz Society
Collection (C) 2018 copyright by the U.S. Secretary of Commerce
on behalf of the United States of America. All rights reserved.
##DATE=1972/07/26
##MOLFORM=C8 H22 Cl2 N2
##SOURCE REFERENCE=COBLENTZ NO. 9388
##$NIST ID=B6009388
##$NIST SOURCE=COBLENTZ
##$NIST IMAGE=cob9388
##SPECTROMETER/DATA SYSTEM=PERKIN-ELMER 157
##STATE=SOLID (KBr DISC, 0.8% WT.)
$$ HCl RUN IN KBr MAY CONTAIN SOME HBr
$$ REF. Can. J. Spec., 18,4,101, '73 C. S. DOUSE and P. B. TOOKE
##SAMPLING PROCEDURE=TRANSMISSION
##RESOLUTION=2
##DATA PROCESSING=DIGITIZED BY COBLENTZ SOCIETY (BATCH II) FROM HARD COPY
##XUNITS=1/CM
##YUNITS=TRANSMITTANCE
##XFACTOR=1.0
##YFACTOR=1
##FIRSTX=668
##LASTX=4000
##FIRSTY=0.9701
##MAXX=4000
##MINX=668
##MAXY=0.9615
##MINY=0.0263
##NPOINTS=3333
##XYDATA=(X++(Y..Y))
668.000000 0.9701 0.9696 0.9679 0.9650 0.9624
673.000000 0.9597 0.9615 0.9523 0.9493 0.9480
678.000000 0.9469 0.9464 0.9459 0.9450 0.9437
683.000000 0.9416 0.9357 0.9296 0.9268 0.9248
688.000000 0.9233 0.9221 0.9212 0.9201 0.9189
693.000000 0.9165 0.9142 0.9113 0.9083 0.9051
698.000000 0.9012 0.8984 0.8961 0.8949 0.8936
703.000000 0.8921 0.8900 0.8870 0.8844 0.8827
708.000000 0.8813 0.8777 0.8733 0.8691 0.8650
713.000000 0.8607 0.8564 0.8521 0.8477 0.8415
718.000000 0.8323 0.8216 0.8104 0.7982 0.7858
723.000000 0.7734 0.7550 0.7340 0.7118 0.6698
728.000000 0.6150 0.5649 0.5470 0.5397 0.5390
733.000000 0.5541 0.6153 0.6765 0.7272 0.7611
738.000000 0.7752 0.7944 0.8095 0.8154 0.8171
743.000000 0.8173 0.8176 0.8169 0.8148 0.8115
748.000000 0.8077 0.8027 0.7966 0.7897 0.7734
753.000000 0.7573 0.7260 0.6920 0.6580 0.6240
758.000000 0.5902 0.5570 0.5418 0.5320 0.5307
763.000000 0.5352 0.5626 0.6066 0.6505 0.7036
768.000000 0.7348 0.7558 0.7856 0.7938 0.8011
773.000000 0.8083 0.8155 0.8219 0.8274 0.8320
778.000000 0.8339 0.8351 0.8359 0.8366 0.8371
783.000000 0.8373 0.8376 0.8376 0.8374 0.8372
788.000000 0.8369 0.8368 0.8367 0.8377 0.8365
793.000000 0.8364 0.8366 0.8367 0.8369 0.8370
798.000000 0.8370 0.8370 0.8370 0.8370 0.8369
803.000000 0.8362 0.8355 0.8349 0.8340 0.8328
808.000000 0.8317 0.8304 0.8291 0.8276 0.8260
813.000000 0.8244 0.8226 0.8207 0.8188 0.8168
818.000000 0.8146 0.8121 0.8095 0.8069 0.8045
823.000000 0.8021 0.7997 0.7976 0.7959 0.7924
828.000000 0.7874 0.7804 0.7734 0.7655 0.7574
833.000000 0.7480 0.7382 0.7257 0.7119 0.6948
838.000000 0.6643 0.6280 0.5947 0.5277 0.4848
843.000000 0.4539 0.4442 0.4439 0.5005 0.5572
848.000000 0.6138 0.6694 0.7095 0.7402 0.7564
853.000000 0.7666 0.7740 0.7813 0.7935 0.7972
858.000000 0.7989 0.8001 0.8011 0.8018 0.8024
863.000000 0.8040 0.8027 0.8025 0.8022 0.8019
868.000000 0.8015 0.8010 0.8006 0.7996 0.7991
873.000000 0.7992 0.7994 0.8000 0.8006 0.8011
878.000000 0.8014 0.8008 0.7998 0.7989 0.7976
883.000000 0.7963 0.7949 0.7935 0.7919 0.7897
888.000000 0.7859 0.7832 0.7813 0.7801 0.7787
893.000000 0.7773 0.7759 0.7745 0.7732 0.7720
898.000000 0.7707 0.7694 0.7678 0.7663 0.7647
903.000000 0.7630 0.7610 0.7581 0.7549 0.7506
908.000000 0.7463 0.7418 0.7370 0.7321 0.7267
913.000000 0.7212 0.7156 0.7099 0.7043 0.6987
918.000000 0.6931 0.6876 0.6824 0.6789 0.6729
923.000000 0.6628 0.6456 0.6246 0.6040 0.5837
928.000000 0.5633 0.5405 0.5266 0.5041 0.4896
933.000000 0.4833 0.4783 0.4733 0.4664 0.4502
938.000000 0.4141 0.3779 0.3538 0.3318 0.2929
943.000000 0.2580 0.2214 0.2195 0.2237 0.2603
948.000000 0.3017 0.3430 0.3842 0.4254 0.4664
953.000000 0.5074 0.5177 0.5192 0.5196 0.5136
958.000000 0.4942 0.4550 0.4159 0.3769 0.3381
963.000000 0.2992 0.2656 0.2611 0.2620 0.2734
968.000000 0.3162 0.3606 0.4049 0.4490 0.4931
973.000000 0.5276 0.5448 0.5698 0.5759 0.5777
978.000000 0.5789 0.5731 0.5497 0.5250 0.5004
983.000000 0.4758 0.4511 0.4266 0.4007 0.3899
988.000000 0.3899 0.4419 0.4848 0.5276 0.5613
993.000000 0.5797 0.5925 0.6026 0.6088 0.6122
998.000000 0.6141 0.6171 0.6213 0.6304 0.6532
1003.000000 0.6722 0.6787 0.6813 0.6823 0.6829
1008.000000 0.6829 0.6829 0.6829 0.6830 0.6834
1013.000000 0.6837 0.6843 0.6846 0.6847 0.6837
1018.000000 0.6812 0.6762 0.6662 0.6521 0.6345
1023.000000 0.6191 0.5584 0.5038 0.4494 0.3950
1028.000000 0.3408 0.2895 0.2769 0.2778 0.3131
1033.000000 0.3486 0.3840 0.4193 0.4490 0.4495
1038.000000 0.4484 0.4478 0.4485 0.4567 0.4838
1043.000000 0.5112 0.5385 0.5658 0.5931 0.6199
1048.000000 0.6364 0.6488 0.6566 0.6617 0.6636
1053.000000 0.6639 0.6637 0.6637 0.6638 0.6655
1058.000000 0.6701 0.6810 0.6891 0.6918 0.6920
1063.000000 0.6902 0.6888 0.6894 0.6914 0.6955
1068.000000 0.7034 0.7126 0.7186 0.7229 0.7258
1073.000000 0.7273 0.7286 0.7297 0.7304 0.7312
1078.000000 0.7315 0.7317 0.7318 0.7316 0.7313
1083.000000 0.7312 0.7311 0.7298 0.7310 0.7309
1088.000000 0.7308 0.7307 0.7307 0.7294 0.7271
1093.000000 0.7241 0.7209 0.7172 0.7093 0.7077
1098.000000 0.7066 0.7042 0.7010 0.6962 0.6908
1103.000000 0.6835 0.6773 0.6664 0.6552 0.6420
1108.000000 0.6307 0.6221 0.6137 0.6059 0.5982
1113.000000 0.5904 0.5816 0.5703 0.5607 0.5527
1118.000000 0.5448 0.5363 0.5268 0.5174 0.4958
1123.000000 0.4702 0.4474 0.4216 0.4008 0.3705
1128.000000 0.3371 0.3037 0.2704 0.2371 0.2039
1133.000000 0.1690 0.1553 0.1421 0.1361 0.1359
1138.000000 0.1375 0.1411 0.1509 0.1727 0.2039
1143.000000 0.2351 0.2662 0.2972 0.3282 0.3592
1148.000000 0.3901 0.4209 0.4517 0.4825 0.5131
1153.000000 0.5438 0.5734 0.5908 0.5999 0.6022
1158.000000 0.6027 0.6029 0.6041 0.6011 0.5967
1163.000000 0.5911 0.5854 0.5834 0.5832 0.5834
1168.000000 0.5826 0.6047 0.6255 0.6462 0.6669
1173.000000 0.6875 0.7057 0.7143 0.7189 0.7235
1178.000000 0.7280 0.7321 0.7353 0.7378 0.7396
1183.000000 0.7408 0.7417 0.7426 0.7433 0.7438
1188.000000 0.7444 0.7450 0.7454 0.7458 0.7462
1193.000000 0.7463 0.7451 0.7448 0.7439 0.7429
1198.000000 0.7417 0.7401 0.7376 0.7348 0.7318
1203.000000 0.7280 0.7223 0.7154 0.7093 0.7044
1208.000000 0.7004 0.6960 0.6845 0.6722 0.6599
1213.000000 0.6476 0.6354 0.6231 0.6109 0.5987
1218.000000 0.5865 0.5688 0.5582 0.5366 0.5274
1223.000000 0.5093 0.4867 0.4764 0.4587 0.4117
1228.000000 0.3624 0.3132 0.2823 0.2838 0.2831
1233.000000 0.3229 0.3886 0.4542 0.5197 0.5851
1238.000000 0.6207 0.6361 0.6573 0.6697 0.6793
1243.000000 0.6863 0.6898 0.6925 0.6944 0.6957
1248.000000 0.6968 0.6979 0.6982 0.6999 0.6979
1253.000000 0.6977 0.6974 0.6971 0.6964 0.6955
1258.000000 0.6944 0.6930 0.6913 0.6895 0.6874
1263.000000 0.6853 0.6827 0.6800 0.6774 0.6745
1268.000000 0.6715 0.6686 0.6652 0.6617 0.6582
1273.000000 0.6542 0.6498 0.6451 0.6396 0.6335
1278.000000 0.6217 0.6001 0.5776 0.5550 0.5325
1283.000000 0.5171 0.5130 0.5126 0.5127 0.5279
1288.000000 0.5400 0.5522 0.5643 0.5764 0.5872
1293.000000 0.5887 0.5900 0.5886 0.5880 0.5853
1298.000000 0.5723 0.5545 0.5368 0.5191 0.5014
1303.000000 0.4837 0.4661 0.4485 0.4309 0.4133
1308.000000 0.3957 0.3877 0.4002 0.4306 0.3877
1313.000000 0.4913 0.5217 0.5519 0.5784 0.5913
1318.000000 0.6005 0.6081 0.6154 0.6204 0.6255
1323.000000 0.6302 0.6339 0.6375 0.6406 0.6421
1328.000000 0.6431 0.6435 0.6437 0.6438 0.6438
1333.000000 0.6437 0.6433 0.6424 0.6402 0.6374
1338.000000 0.6341 0.6291 0.6276 0.6274 0.6275
1343.000000 0.6278 0.6285 0.6253 0.6373 0.6397
1348.000000 0.6415 0.6428 0.6432 0.6430 0.6438
1353.000000 0.6418 0.6407 0.6389 0.6364 0.6340
1358.000000 0.6314 0.6288 0.6211 0.6076 0.5938
1363.000000 0.5801 0.5663 0.5526 0.5389 0.5251
1368.000000 0.5115 0.5059 0.5058 0.5160 0.5263
1373.000000 0.5367 0.5470 0.5528 0.5518 0.5531
1378.000000 0.5233 0.5065 0.4897 0.4729 0.4561
1383.000000 0.4394 0.4226 0.4059 0.3893 0.3749
1388.000000 0.3711 0.3701 0.3873 0.4113 0.4352
1393.000000 0.4591 0.4829 0.5068 0.5306 0.5544
1398.000000 0.5781 0.5972 0.6019 0.6047 0.6061
1403.000000 0.6070 0.6075 0.6078 0.6077 0.6070
1408.000000 0.6060 0.6051 0.6041 0.6021 0.5996
1413.000000 0.5970 0.5945 0.5920 0.5895 0.5867
1418.000000 0.5839 0.5811 0.5787 0.5764 0.5741
1423.000000 0.5722 0.5704 0.5686 0.5669 0.5650
1428.000000 0.5614 0.5558 0.5485 0.5419 0.5348
1433.000000 0.5244 0.5176 0.5134 0.5092 0.5050
1438.000000 0.5006 0.4959 0.4909 0.4860 0.4810
1443.000000 0.4751 0.4680 0.4611 0.4546 0.4482
1448.000000 0.4419 0.4350 0.4264 0.4173 0.4105
1453.000000 0.4046 0.3987 0.3921 0.3845 0.3762
1458.000000 0.3639 0.3501 0.3398 0.3297 0.3193
1463.000000 0.3028 0.2851 0.2773 0.2719 0.2666
1468.000000 0.2611 0.2556 0.2502 0.2450 0.2399
1473.000000 0.2022 0.1802 0.1654 0.1505 0.1357
1478.000000 0.1210 0.1062 0.0994 0.0991 0.1027
1483.000000 0.1143 0.0965 0.1376 0.1493 0.1609
1488.000000 0.1725 0.1840 0.1916 0.1932 0.1916
1493.000000 0.1877 0.1782 0.1680 0.1642 0.1634
1498.000000 0.1617 0.1504 0.1377 0.1249 0.1122
1503.000000 0.0995 0.0944 0.0966 0.1014 0.0921
1508.000000 0.1115 0.1165 0.1215 0.1250 0.1264
1513.000000 0.1275 0.1287 0.1301 0.1317 0.1337
1518.000000 0.1364 0.1424 0.1488 0.1658 0.1953
1523.000000 0.2069 0.2098 0.2120 0.2136 0.2149
1528.000000 0.2158 0.2168 0.2171 0.2172 0.2173
1533.000000 0.2173 0.2172 0.2169 0.2173 0.2112
1538.000000 0.2004 0.1889 0.1774 0.1659 0.1544
1543.000000 0.1433 0.1364 0.1307 0.1240 0.1196
1548.000000 0.1151 0.1104 0.1055 0.1025 0.1006
1553.000000 0.0987 0.0969 0.0958 0.0954 0.0953
1558.000000 0.0952 0.0951 0.0950 0.0948 0.0938
1563.000000 0.0946 0.0946 0.0947 0.0949 0.0958
1568.000000 0.0977 0.0997 0.1019 0.1041 0.1058
1573.000000 0.1074 0.1087 0.1092 0.1093 0.1095
1578.000000 0.1096 0.1096 0.1096 0.1095 0.1095
1583.000000 0.1094 0.1093 0.1093 0.1092 0.1091
1588.000000 0.1096 0.1106 0.1119 0.1133 0.1148
1593.000000 0.1171 0.1207 0.1251 0.1296 0.1344
1598.000000 0.1394 0.1435 0.1469 0.1502 0.1529
1603.000000 0.1569 0.1629 0.1677 0.1757 0.1874
1608.000000 0.1944 0.2046 0.2164 0.2279 0.2402
1613.000000 0.2642 0.2789 0.2915 0.3031 0.3112
1618.000000 0.3185 0.3255 0.3320 0.3370 0.3416
1623.000000 0.3462 0.3512 0.3565 0.3617 0.3670
1628.000000 0.3734 0.3815 0.3895 0.3972 0.4034
1633.000000 0.4098 0.4193 0.4315 0.4403 0.4488
1638.000000 0.4573 0.4658 0.4744 0.4829 0.4983
1643.000000 0.5141 0.5202 0.5251 0.5302 0.5359
1648.000000 0.5416 0.5588 0.5671 0.5713 0.5748
1653.000000 0.5783 0.5815 0.5844 0.5871 0.5894
1658.000000 0.5907 0.5919 0.5932 0.5945 0.5958
1663.000000 0.5973 0.5996 0.6058 0.6153 0.6245
1668.000000 0.6314 0.6339 0.6363 0.6388 0.6410
1673.000000 0.6429 0.6442 0.6452 0.6459 0.6466
1678.000000 0.6474 0.6487 0.6503 0.6543 0.6568
1683.000000 0.6582 0.6593 0.6600 0.6603 0.6607
1688.000000 0.6609 0.6612 0.6623 0.6639 0.6680
1693.000000 0.6726 0.6743 0.6752 0.6762 0.6771
1698.000000 0.6780 0.6790 0.6799 0.6812 0.6827
1703.000000 0.6839 0.6849 0.6860 0.6870 0.6879
1708.000000 0.6888 0.6897 0.6907 0.6915 0.6923
1713.000000 0.6930 0.6937 0.6944 0.6949 0.6950
1718.000000 0.6953 0.6955 0.6957 0.6959 0.6961
1723.000000 0.6963 0.6964 0.6966 0.6968 0.6969
1728.000000 0.6971 0.6972 0.6972 0.6972 0.6973
1733.000000 0.6973 0.6974 0.6973 0.6973 0.6973
1738.000000 0.6972 0.6972 0.6971 0.6971 0.6971
1743.000000 0.6970 0.6969 0.6968 0.6966 0.6964
1748.000000 0.6962 0.6960 0.6959 0.6957 0.6955
1753.000000 0.6954 0.6952 0.6951 0.6949 0.6947
1758.000000 0.6945 0.6942 0.6939 0.6935 0.6931
1763.000000 0.6927 0.6923 0.6918 0.6914 0.6909
1768.000000 0.6904 0.6898 0.6893 0.6889 0.6886
1773.000000 0.6883 0.6879 0.6876 0.6873 0.6870
1778.000000 0.6867 0.6865 0.6863 0.6862 0.6860
1783.000000 0.6860 0.6852 0.6844 0.6835 0.6826
1788.000000 0.6812 0.6798 0.6784 0.6770 0.6757
1793.000000 0.6742 0.6726 0.6711 0.6695 0.6679
1798.000000 0.6661 0.6644 0.6627 0.6612 0.6597
1803.000000 0.6583 0.6569 0.6557 0.6548 0.6539
1808.000000 0.6529 0.6520 0.6510 0.6502 0.6494
1813.000000 0.6487 0.6481 0.6478 0.6477 0.6476
1818.000000 0.6475 0.6471 0.6467 0.6460 0.6454
1823.000000 0.6440 0.6425 0.6410 0.6395 0.6380
1828.000000 0.6365 0.6351 0.6337 0.6323 0.6311
1833.000000 0.6299 0.6288 0.6278 0.6268 0.6257
1838.000000 0.6247 0.6237 0.6228 0.6218 0.6208
1843.000000 0.6198 0.6188 0.6180 0.6172 0.6165
1848.000000 0.6159 0.6151 0.6145 0.6141 0.6137
1853.000000 0.6134 0.6131 0.6127 0.6124 0.6124
1858.000000 0.6124 0.6124 0.6124 0.6123 0.6109
1863.000000 0.6123 0.6123 0.6124 0.6126 0.6128
1868.000000 0.6131 0.6134 0.6136 0.6139 0.6142
1873.000000 0.6146 0.6150 0.6154 0.6159 0.6163
1878.000000 0.6167 0.6174 0.6184 0.6199 0.6224
1883.000000 0.6244 0.6259 0.6271 0.6280 0.6287
1888.000000 0.6290 0.6293 0.6295 0.6298 0.6301
1893.000000 0.6305 0.6315 0.6414 0.6454 0.6461
1898.000000 0.6467 0.6473 0.6480 0.6487 0.6497
1903.000000 0.6506 0.6516 0.6526 0.6537 0.6547
1908.000000 0.6557 0.6569 0.6580 0.6592 0.6603
1913.000000 0.6615 0.6627 0.6638 0.6650 0.6661
1918.000000 0.6673 0.6685 0.6696 0.6708 0.6719
1923.000000 0.6731 0.6745 0.6758 0.6772 0.6786
1928.000000 0.6801 0.6818 0.6834 0.6855 0.6880
1933.000000 0.6904 0.6922 0.6934 0.6938 0.6941
1938.000000 0.6945 0.6949 0.6952 0.6954 0.6956
1943.000000 0.6958 0.6960 0.6963 0.6965 0.6967
1948.000000 0.6969 0.6971 0.6972 0.6974 0.6976
1953.000000 0.6977 0.6979 0.6981 0.6982 0.6984
1958.000000 0.6985 0.6985 0.6985 0.6986 0.6986
1963.000000 0.6987 0.6987 0.6987 0.6988 0.6989
1968.000000 0.6989 0.6989 0.6989 0.6989 0.6990
1973.000000 0.6990 0.6990 0.6991 0.6997 0.7003
1978.000000 0.7009 0.7016 0.7024 0.7032 0.7041
1983.000000 0.7050 0.7060 0.7070 0.7080 0.7089
1988.000000 0.7098 0.7107 0.7116 0.7126 0.7135
1993.000000 0.7144 0.7153 0.7163 0.7172 0.7181
1998.000000 0.7191 0.7200 0.7211 0.7218 0.7225
2003.000000 0.7232 0.7239 0.7246 0.7253 0.7259
2008.000000 0.7265 0.7271 0.7276 0.7282 0.7287
2013.000000 0.7291 0.7294 0.7297 0.7300 0.7303
2018.000000 0.7306 0.7310 0.7313 0.7316 0.7318
2023.000000 0.7320 0.7323 0.7325 0.7327 0.7329
2028.000000 0.7332 0.7334 0.7336 0.7338 0.7340
2033.000000 0.7342 0.7344 0.7346 0.7349 0.7351
2038.000000 0.7354 0.7356 0.7358 0.7360 0.7362
2043.000000 0.7365 0.7367 0.7370 0.7372 0.7374
2048.000000 0.7377 0.7379 0.7381 0.7383 0.7385
2053.000000 0.7388 0.7390 0.7393 0.7396 0.7399
2058.000000 0.7403 0.7406 0.7410 0.7413 0.7417
2063.000000 0.7421 0.7428 0.7435 0.7442 0.7449
2068.000000 0.7457 0.7466 0.7473 0.7477 0.7479
2073.000000 0.7480 0.7480 0.7481 0.7480 0.7479
2078.000000 0.7479 0.7478 0.7476 0.7471 0.7467
2083.000000 0.7462 0.7457 0.7453 0.7448 0.7442
2088.000000 0.7435 0.7429 0.7427 0.7425 0.7424
2093.000000 0.7421 0.7419 0.7417 0.7416 0.7415
2098.000000 0.7414 0.7413 0.7411 0.7410 0.7410
2103.000000 0.7409 0.7408 0.7407 0.7406 0.7405
2108.000000 0.7403 0.7403 0.7402 0.7401 0.7400
2113.000000 0.7400 0.7399 0.7398 0.7396 0.7395
2118.000000 0.7395 0.7394 0.7392 0.7391 0.7390
2123.000000 0.7388 0.7387 0.7385 0.7384 0.7383
2128.000000 0.7381 0.7380 0.7379 0.7377 0.7375
2133.000000 0.7374 0.7372 0.7370 0.7369 0.7367
2138.000000 0.7365 0.7363 0.7361 0.7359 0.7357
2143.000000 0.7355 0.7354 0.7352 0.7349 0.7348
2148.000000 0.7346 0.7344 0.7344 0.7344 0.7343
2153.000000 0.7343 0.7343 0.7343 0.7343 0.7343
2158.000000 0.7342 0.7341 0.7340 0.7339 0.7338
2163.000000 0.7336 0.7334 0.7330 0.7324 0.7318
2168.000000 0.7311 0.7302 0.7293 0.7282 0.7272
2173.000000 0.7263 0.7254 0.7246 0.7238 0.7233
2178.000000 0.7228 0.7225 0.7221 0.7217 0.7212
2183.000000 0.7208 0.7204 0.7201 0.7197 0.7192
2188.000000 0.7188 0.7184 0.7179 0.7173 0.7167
2193.000000 0.7160 0.7153 0.7145 0.7138 0.7131
2198.000000 0.7125 0.7119 0.7114 0.7108 0.7101
2203.000000 0.7095 0.7090 0.7084 0.7079 0.7073
2208.000000 0.7067 0.7062 0.7056 0.7051 0.7045
2213.000000 0.7040 0.7034 0.7029 0.7024 0.7019
2218.000000 0.7014 0.7009 0.7004 0.7001 0.6998
2223.000000 0.6996 0.6993 0.6990 0.6988 0.6985
2228.000000 0.6983 0.6981 0.6979 0.6978 0.6977
2233.000000 0.6977 0.6977 0.6977 0.6977 0.6976
2238.000000 0.6976 0.6976 0.6976 0.6975 0.6975
2243.000000 0.6974 0.6974 0.6974 0.6974 0.6973
2248.000000 0.6973 0.6972 0.6972 0.6971 0.6971
2253.000000 0.6968 0.6965 0.6962 0.6959 0.6950
2258.000000 0.6938 0.6927 0.6916 0.6904 0.6892
2263.000000 0.6878 0.6862 0.6849 0.6838 0.6827
2268.000000 0.6816 0.6805 0.6795 0.6783 0.6770
2273.000000 0.6754 0.6730 0.6707 0.6692 0.6677
2278.000000 0.6665 0.6654 0.6642 0.6631 0.6619
2283.000000 0.6608 0.6597 0.6587 0.6577 0.6567
2288.000000 0.6557 0.6547 0.6539 0.6531 0.6525
2293.000000 0.6521 0.6517 0.6514 0.6512 0.6511
2298.000000 0.6510 0.6509 0.6507 0.6506 0.6505
2303.000000 0.6504 0.6504 0.6503 0.6502 0.6501
2308.000000 0.6500 0.6498 0.6495 0.6492 0.6487
2313.000000 0.6482 0.6476 0.6469 0.6460 0.6451
2318.000000 0.6437 0.6423 0.6408 0.6393 0.6378
2323.000000 0.6363 0.6348 0.6332 0.6317 0.6301
2328.000000 0.6280 0.6249 0.6217 0.6187 0.6157
2333.000000 0.6129 0.6102 0.6078 0.6055 0.6036
2338.000000 0.6022 0.6009 0.5999 0.5991 0.5988
2343.000000 0.5985 0.5981 0.5977 0.5974 0.5970
2348.000000 0.5966 0.5961 0.5952 0.5938 0.5924
2353.000000 0.5913 0.5902 0.5892 0.5881 0.5870
2358.000000 0.5857 0.5849 0.5843 0.5838 0.5833
2363.000000 0.5828 0.5827 0.5825 0.5824 0.5823
2368.000000 0.5822 0.5821 0.5820 0.5819 0.5818
2373.000000 0.5818 0.5818 0.5818 0.5818 0.5815
2378.000000 0.5811 0.5807 0.5803 0.5798 0.5793
2383.000000 0.5789 0.5780 0.5770 0.5757 0.5741
2388.000000 0.5724 0.5705 0.5687 0.5667 0.5646
2393.000000 0.5625 0.5604 0.5581 0.5553 0.5525
2398.000000 0.5484 0.5443 0.5402 0.5361 0.5321
2403.000000 0.5280 0.5239 0.5199 0.5158 0.5117
2408.000000 0.5077 0.5036 0.4996 0.4956 0.4916
2413.000000 0.4876 0.4835 0.4795 0.4758 0.4723
2418.000000 0.4692 0.4675 0.4658 0.4641 0.4624
2423.000000 0.4610 0.4598 0.4587 0.4575 0.4564
2428.000000 0.4553 0.4541 0.4533 0.4527 0.4522
2433.000000 0.4518 0.4514 0.4510 0.4507 0.4505
2438.000000 0.4502 0.4500 0.4498 0.4497 0.4496
2443.000000 0.4494 0.4491 0.4485 0.4479 0.4448
2448.000000 0.4412 0.4376 0.4341 0.4305 0.4269
2453.000000 0.4232 0.4197 0.4161 0.4125 0.4090
2458.000000 0.4054 0.4018 0.3982 0.3946 0.3911
2463.000000 0.3875 0.3853 0.3831 0.3815 0.3806
2468.000000 0.3795 0.3782 0.3768 0.3758 0.3750
2473.000000 0.3742 0.3734 0.3726 0.3717 0.3709
2478.000000 0.3701 0.3693 0.3686 0.3678 0.3670
2483.000000 0.3661 0.3653 0.3645 0.3636 0.3627
2488.000000 0.3617 0.3607 0.3597 0.3587 0.3577
2493.000000 0.3567 0.3558 0.3549 0.3540 0.3532
2498.000000 0.3524 0.3516 0.3508 0.3499 0.3491
2503.000000 0.3482 0.3474 0.3466 0.3459 0.3452
2508.000000 0.3445 0.3439 0.3432 0.3430 0.3428
2513.000000 0.3427 0.3426 0.3426 0.3428 0.3426
2518.000000 0.3427 0.3428 0.3428 0.3429 0.3429
2523.000000 0.3430 0.3431 0.3432 0.3434 0.3435
2528.000000 0.3437 0.3438 0.3440 0.3442 0.3445
2533.000000 0.3448 0.3450 0.3452 0.3455 0.3458
2538.000000 0.3460 0.3464 0.3468 0.3472 0.3477
2543.000000 0.3482 0.3493 0.3505 0.3516 0.3522
2548.000000 0.3528 0.3534 0.3540 0.3546 0.3552
2553.000000 0.3558 0.3564 0.3569 0.3575 0.3579
2558.000000 0.3583 0.3586 0.3589 0.3591 0.3588
2563.000000 0.3591 0.3590 0.3588 0.3587 0.3586
2568.000000 0.3585 0.3584 0.3581 0.3578 0.3575
2573.000000 0.3572 0.3569 0.3567 0.3564 0.3561
2578.000000 0.3556 0.3550 0.3543 0.3534 0.3525
2583.000000 0.3516 0.3507 0.3497 0.3488 0.3479
2588.000000 0.3470 0.3461 0.3451 0.3441 0.3430
2593.000000 0.3419 0.3400 0.3377 0.3354 0.3330
2598.000000 0.3306 0.3283 0.3262 0.3241 0.3217
2603.000000 0.3189 0.3162 0.3133 0.3103 0.3075
2608.000000 0.3052 0.3030 0.3008 0.2985 0.2963
2613.000000 0.2945 0.2930 0.2915 0.2900 0.2885
2618.000000 0.2870 0.2855 0.2839 0.2823 0.2806
2623.000000 0.2789 0.2773 0.2757 0.2740 0.2727
2628.000000 0.2714 0.2701 0.2688 0.2674 0.2661
2633.000000 0.2648 0.2634 0.2621 0.2608 0.2595
2638.000000 0.2582 0.2569 0.2556 0.2544 0.2531
2643.000000 0.2518 0.2505 0.2492 0.2479 0.2467
2648.000000 0.2455 0.2444 0.2433 0.2422 0.2411
2653.000000 0.2400 0.2389 0.2378 0.2367 0.2357
2658.000000 0.2346 0.2335 0.2324 0.2315 0.2305
2663.000000 0.2296 0.2288 0.2280 0.2271 0.2262
2668.000000 0.2253 0.2245 0.2236 0.2227 0.2218
2673.000000 0.2209 0.2201 0.2192 0.2183 0.2175
2678.000000 0.2166 0.2157 0.2149 0.2140 0.2132
2683.000000 0.2123 0.2114 0.2104 0.2094 0.2084
2688.000000 0.2073 0.2063 0.2053 0.2043 0.2033
2693.000000 0.2022 0.2012 0.2002 0.1992 0.1982
2698.000000 0.1970 0.1957 0.1944 0.1927 0.1910
2703.000000 0.1892 0.1875 0.1857 0.1838 0.1816
2708.000000 0.1793 0.1764 0.1728 0.1691 0.1667
2713.000000 0.1655 0.1644 0.1632 0.1621 0.1609
2718.000000 0.1597 0.1586 0.1575 0.1563 0.1552
2723.000000 0.1540 0.1529 0.1518 0.1507 0.1496
2728.000000 0.1485 0.1474 0.1464 0.1453 0.1442
2733.000000 0.1431 0.1421 0.1410 0.1399 0.1388
2738.000000 0.1377 0.1366 0.1356 0.1345 0.1336
2743.000000 0.1328 0.1319 0.1311 0.1302 0.1294
2748.000000 0.1285 0.1277 0.1269 0.1260 0.1252
2753.000000 0.1243 0.1235 0.1226 0.1217 0.1209
2758.000000 0.1201 0.1193 0.1184 0.1175 0.1165
2763.000000 0.1156 0.1147 0.1137 0.1128 0.1118
2768.000000 0.1109 0.1099 0.1090 0.1080 0.1071
2773.000000 0.1061 0.1052 0.1042 0.1032 0.1022
2778.000000 0.1012 0.1002 0.0991 0.0981 0.0971
2783.000000 0.0961 0.0951 0.0941 0.0931 0.0921
2788.000000 0.0909 0.0896 0.0883 0.0869 0.0855
2793.000000 0.0842 0.0828 0.0814 0.0800 0.0786
2798.000000 0.0772 0.0758 0.0744 0.0731 0.0717
2803.000000 0.0703 0.0688 0.0674 0.0659 0.0645
2808.000000 0.0630 0.0615 0.0601 0.0586 0.0572
2813.000000 0.0560 0.0549 0.0538 0.0528 0.0518
2818.000000 0.0507 0.0498 0.0488 0.0478 0.0469
2823.000000 0.0461 0.0453 0.0445 0.0439 0.0433
2828.000000 0.0428 0.0422 0.0416 0.0410 0.0404
2833.000000 0.0398 0.0392 0.0387 0.0381 0.0375
2838.000000 0.0370 0.0366 0.0361 0.0357 0.0354
2843.000000 0.0351 0.0348 0.0345 0.0342 0.0339
2848.000000 0.0336 0.0333 0.0330 0.0328 0.0326
2853.000000 0.0324 0.0322 0.0320 0.0319 0.0317
2858.000000 0.0315 0.0313 0.0311 0.0310 0.0309
2863.000000 0.0307 0.0306 0.0305 0.0304 0.0303
2868.000000 0.0302 0.0301 0.0300 0.0299 0.0298
2873.000000 0.0297 0.0296 0.0295 0.0294 0.0292
2878.000000 0.0291 0.0291 0.0290 0.0289 0.0288
2883.000000 0.0288 0.0287 0.0287 0.0286 0.0285
2888.000000 0.0285 0.0284 0.0284 0.0283 0.0282
2893.000000 0.0282 0.0281 0.0281 0.0280 0.0279
2898.000000 0.0279 0.0278 0.0278 0.0277 0.0276
2903.000000 0.0276 0.0276 0.0276 0.0276 0.0276
2908.000000 0.0276 0.0276 0.0276 0.0276 0.0276
2913.000000 0.0276 0.0276 0.0276 0.0276 0.0276
2918.000000 0.0276 0.0276 0.0276 0.0276 0.0276
2923.000000 0.0276 0.0276 0.0276 0.0276 0.0276
2928.000000 0.0263 0.0276 0.0276 0.0276 0.0276
2933.000000 0.0276 0.0276 0.0277 0.0277 0.0277
2938.000000 0.0277 0.0277 0.0277 0.0277 0.0278
2943.000000 0.0278 0.0278 0.0278 0.0278 0.0278
2948.000000 0.0278 0.0279 0.0279 0.0279 0.0279
2953.000000 0.0279 0.0279 0.0279 0.0280 0.0280
2958.000000 0.0280 0.0281 0.0281 0.0281 0.0281
2963.000000 0.0281 0.0281 0.0281 0.0282 0.0282
2968.000000 0.0282 0.0282 0.0282 0.0282 0.0282
2973.000000 0.0282 0.0282 0.0282 0.0282 0.0282
2978.000000 0.0282 0.0282 0.0282 0.0282 0.0282
2983.000000 0.0282 0.0282 0.0282 0.0282 0.0282
2988.000000 0.0282 0.0282 0.0282 0.0282 0.0282
2993.000000 0.0282 0.0282 0.0283 0.0283 0.0283
2998.000000 0.0283 0.0283 0.0283 0.0283 0.0283
3003.000000 0.0283 0.0283 0.0284 0.0284 0.0284
3008.000000 0.0284 0.0285 0.0285 0.0285 0.0285
3013.000000 0.0286 0.0286 0.0286 0.0287 0.0287
3018.000000 0.0287 0.0287 0.0288 0.0288 0.0288
3023.000000 0.0289 0.0289 0.0289 0.0289 0.0290
3028.000000 0.0290 0.0290 0.0290 0.0291 0.0291
3033.000000 0.0291 0.0292 0.0292 0.0293 0.0293
3038.000000 0.0294 0.0294 0.0294 0.0294 0.0295
3043.000000 0.0295 0.0296 0.0296 0.0297 0.0298
3048.000000 0.0298 0.0299 0.0299 0.0299 0.0299
3053.000000 0.0300 0.0300 0.0301 0.0301 0.0302
3058.000000 0.0302 0.0302 0.0303 0.0303 0.0304
3063.000000 0.0304 0.0305 0.0305 0.0305 0.0305
3068.000000 0.0306 0.0306 0.0307 0.0307 0.0308
3073.000000 0.0308 0.0308 0.0308 0.0309 0.0309
3078.000000 0.0309 0.0310 0.0310 0.0311 0.0311
3083.000000 0.0312 0.0312 0.0312 0.0312 0.0313
3088.000000 0.0313 0.0313 0.0313 0.0314 0.0314
3093.000000 0.0314 0.0314 0.0315 0.0316 0.0316
3098.000000 0.0317 0.0317 0.0317 0.0317 0.0318
3103.000000 0.0318 0.0319 0.0319 0.0320 0.0320
3108.000000 0.0321 0.0321 0.0322 0.0322 0.0323
3113.000000 0.0323 0.0324 0.0326 0.0327 0.0328
3118.000000 0.0330 0.0332 0.0334 0.0336 0.0338
3123.000000 0.0340 0.0342 0.0344 0.0347 0.0350
3128.000000 0.0353 0.0356 0.0360 0.0364 0.0368
3133.000000 0.0372 0.0377 0.0383 0.0388 0.0393
3138.000000 0.0399 0.0405 0.0411 0.0417 0.0424
3143.000000 0.0430 0.0436 0.0443 0.0449 0.0455
3148.000000 0.0462 0.0468 0.0475 0.0482 0.0489
3153.000000 0.0495 0.0502 0.0509 0.0516 0.0523
3158.000000 0.0530 0.0537 0.0544 0.0552 0.0561
3163.000000 0.0571 0.0580 0.0590 0.0601 0.0611
3168.000000 0.0622 0.0632 0.0641 0.0651 0.0661
3173.000000 0.0669 0.0676 0.0683 0.0690 0.0702
3178.000000 0.0721 0.0740 0.0759 0.0779 0.0802
3183.000000 0.0824 0.0846 0.0867 0.0881 0.0895
3188.000000 0.0909 0.0923 0.0932 0.0941 0.0950
3193.000000 0.0959 0.0966 0.0973 0.0981 0.0988
3198.000000 0.0995 0.1003 0.1010 0.1017 0.1033
3203.000000 0.1049 0.1065 0.1081 0.1159 0.1246
3208.000000 0.1333 0.1420 0.1454 0.1470 0.1487
3213.000000 0.1503 0.1520 0.1536 0.1553 0.1569
3218.000000 0.1586 0.1602 0.1618 0.1634 0.1650
3223.000000 0.1666 0.1682 0.1699 0.1716 0.1740
3228.000000 0.1764 0.1788 0.1812 0.1835 0.1859
3233.000000 0.1882 0.1905 0.1919 0.1932 0.1945
3238.000000 0.1958 0.1971 0.1984 0.1997 0.2010
3243.000000 0.2022 0.2035 0.2048 0.2061 0.2078
3248.000000 0.2109 0.2140 0.2171 0.2202 0.2237
3253.000000 0.2271 0.2305 0.2339 0.2377 0.2415
3258.000000 0.2454 0.2492 0.2538 0.2589 0.2641
3263.000000 0.2692 0.2735 0.2756 0.2777 0.2798
3268.000000 0.2819 0.2840 0.2862 0.2883 0.2904
3273.000000 0.2925 0.2946 0.2967 0.2988 0.3009
3278.000000 0.3030 0.3051 0.3072 0.3093 0.3114
3283.000000 0.3135 0.3155 0.3176 0.3197 0.3218
3288.000000 0.3239 0.3261 0.3281 0.3302 0.3323
3293.000000 0.3344 0.3364 0.3385 0.3406 0.3427
3298.000000 0.3447 0.3502 0.3563 0.3624 0.3685
3303.000000 0.3730 0.3758 0.3787 0.3815 0.3842
3308.000000 0.3859 0.3876 0.3894 0.3911 0.3923
3313.000000 0.3934 0.3945 0.3956 0.3966 0.3977
3318.000000 0.3988 0.3998 0.4009 0.4019 0.4028
3323.000000 0.4038 0.4048 0.4057 0.4065 0.4073
3328.000000 0.4080 0.4088 0.4096 0.4104 0.4112
3333.000000 0.4120 0.4128 0.4136 0.4143 0.4151
3338.000000 0.4159 0.4167 0.4175 0.4183 0.4192
3343.000000 0.4200 0.4208 0.4216 0.4224 0.4231
3348.000000 0.4238 0.4244 0.4251 0.4257 0.4263
3353.000000 0.4268 0.4274 0.4280 0.4285 0.4290
3358.000000 0.4296 0.4301 0.4306 0.4310 0.4314
3363.000000 0.4318 0.4322 0.4325 0.4329 0.4332
3368.000000 0.4336 0.4340 0.4343 0.4346 0.4349
3373.000000 0.4353 0.4356 0.4359 0.4363 0.4366
3378.000000 0.4369 0.4373 0.4376 0.4380 0.4383
3383.000000 0.4387 0.4390 0.4393 0.4396 0.4400
3388.000000 0.4403 0.4406 0.4410 0.4413 0.4416
3393.000000 0.4419 0.4422 0.4425 0.4427 0.4430
3398.000000 0.4433 0.4436 0.4439 0.4442 0.4445
3403.000000 0.4448 0.4451 0.4454 0.4457 0.4460
3408.000000 0.4463 0.4466 0.4469 0.4473 0.4476
3413.000000 0.4479 0.4482 0.4486 0.4489 0.4492
3418.000000 0.4496 0.4499 0.4503 0.4506 0.4509
3423.000000 0.4512 0.4515 0.4519 0.4522 0.4525
3428.000000 0.4529 0.4532 0.4536 0.4540 0.4544
3433.000000 0.4548 0.4552 0.4556 0.4560 0.4564
3438.000000 0.4567 0.4571 0.4576 0.4580 0.4584
3443.000000 0.4588 0.4603 0.4630 0.4657 0.4683
3448.000000 0.4710 0.4739 0.4770 0.4800 0.4830
3453.000000 0.4860 0.4875 0.4889 0.4902 0.4916
3458.000000 0.4929 0.4939 0.4948 0.4957 0.4967
3463.000000 0.4976 0.4985 0.4994 0.5004 0.5013
3468.000000 0.5022 0.5032 0.5041 0.5051 0.5060
3473.000000 0.5070 0.5080 0.5090 0.5099 0.5109
3478.000000 0.5119 0.5128 0.5138 0.5147 0.5156
3483.000000 0.5166 0.5175 0.5184 0.5194 0.5203
3488.000000 0.5211 0.5220 0.5229 0.5237 0.5246
3493.000000 0.5255 0.5263 0.5272 0.5281 0.5290
3498.000000 0.5299 0.5308 0.5318 0.5327 0.5341
3503.000000 0.5357 0.5374 0.5391 0.5407 0.5433
3508.000000 0.5463 0.5493 0.5523 0.5553 0.5576
3513.000000 0.5597 0.5618 0.5639 0.5660 0.5680
3518.000000 0.5699 0.5719 0.5738 0.5758 0.5782
3523.000000 0.5806 0.5831 0.5855 0.5879 0.5917
3528.000000 0.5956 0.5995 0.6034 0.6074 0.6101
3533.000000 0.6127 0.6154 0.6180 0.6207 0.6216
3538.000000 0.6223 0.6231 0.6238 0.6246 0.6254
3543.000000 0.6261 0.6269 0.6277 0.6285 0.6292
3548.000000 0.6300 0.6308 0.6316 0.6323 0.6331
3553.000000 0.6339 0.6346 0.6354 0.6361 0.6368
3558.000000 0.6376 0.6383 0.6390 0.6398 0.6405
3563.000000 0.6412 0.6419 0.6426 0.6433 0.6440
3568.000000 0.6447 0.6454 0.6461 0.6468 0.6476
3573.000000 0.6483 0.6490 0.6497 0.6505 0.6513
3578.000000 0.6522 0.6532 0.6541 0.6550 0.6560
3583.000000 0.6570 0.6579 0.6589 0.6599 0.6608
3588.000000 0.6618 0.6627 0.6637 0.6646 0.6656
3593.000000 0.6665 0.6675 0.6684 0.6694 0.6703
3598.000000 0.6712 0.6722 0.6731 0.6740 0.6749
3603.000000 0.6758 0.6767 0.6776 0.6786 0.6795
3608.000000 0.6804 0.6814 0.6823 0.6832 0.6842
3613.000000 0.6851 0.6861 0.6871 0.6881 0.6890
3618.000000 0.6900 0.6905 0.6909 0.6914 0.6919
3623.000000 0.6924 0.6927 0.6931 0.6934 0.6938
3628.000000 0.6941 0.6944 0.6948 0.6952 0.6955
3633.000000 0.6959 0.6962 0.6963 0.6965 0.6966
3638.000000 0.6967 0.6968 0.6970 0.6972 0.6973
3643.000000 0.6975 0.6976 0.6977 0.6978 0.6979
3648.000000 0.6980 0.6981 0.6982 0.6982 0.6983
3653.000000 0.6983 0.6984 0.6985 0.6985 0.6986
3658.000000 0.6987 0.6988 0.6988 0.6989 0.6989
3663.000000 0.6990 0.6991 0.6991 0.6992 0.6992
3668.000000 0.6993 0.6993 0.6994 0.6994 0.6995
3673.000000 0.6995 0.6996 0.6996 0.6996 0.6997
3678.000000 0.6997 0.6997 0.6998 0.6998 0.6999
3683.000000 0.6999 0.6999 0.6999 0.6999 0.6999
3688.000000 0.7000 0.7000 0.7000 0.7001 0.7001
3693.000000 0.7002 0.7002 0.7002 0.7002 0.7002
3698.000000 0.7002 0.7003 0.7003 0.7003 0.7003
3703.000000 0.7003 0.7004 0.7004 0.7004 0.7004
3708.000000 0.7004 0.7004 0.7005 0.7005 0.7005
3713.000000 0.7005 0.7005 0.7005 0.7005 0.7005
3718.000000 0.7005 0.7005 0.7005 0.7006 0.7006
3723.000000 0.7006 0.7006 0.7006 0.7013 0.7007
3728.000000 0.7007 0.7007 0.7007 0.7007 0.7007
3733.000000 0.7007 0.7007 0.7007 0.7007 0.7008
3738.000000 0.7008 0.7008 0.7008 0.7008 0.7008
3743.000000 0.7008 0.7008 0.7008 0.7008 0.7008
3748.000000 0.7008 0.7009 0.7009 0.7009 0.7009
3753.000000 0.7009 0.7009 0.7009 0.7009 0.7009
3758.000000 0.7009 0.7009 0.7009 0.7009 0.7009
3763.000000 0.7009 0.7009 0.7009 0.7009 0.7009
3768.000000 0.7009 0.7009 0.7009 0.7008 0.7008
3773.000000 0.7008 0.7008 0.7008 0.7008 0.7008
3778.000000 0.7008 0.7008 0.7008 0.7008 0.7008
3783.000000 0.7008 0.7008 0.7008 0.7008 0.7008
3788.000000 0.7007 0.7006 0.7005 0.7004 0.7002
3793.000000 0.7001 0.7000 0.6998 0.6997 0.6995
3798.000000 0.6994 0.6992 0.6990 0.6987 0.6984
3803.000000 0.6982 0.6979 0.6976 0.6973 0.6970
3808.000000 0.6968 0.6965 0.6962 0.6959 0.6957
3813.000000 0.6954 0.6952 0.6949 0.6947 0.6944
3818.000000 0.6941 0.6938 0.6936 0.6933 0.6930
3823.000000 0.6927 0.6925 0.6922 0.6919 0.6916
3828.000000 0.6913 0.6910 0.6907 0.6905 0.6902
3833.000000 0.6899 0.6896 0.6894 0.6891 0.6888
3838.000000 0.6886 0.6883 0.6880 0.6878 0.6876
3843.000000 0.6874 0.6872 0.6870 0.6868 0.6867
3848.000000 0.6866 0.6865 0.6864 0.6863 0.6862
3853.000000 0.6861 0.6860 0.6859 0.6858 0.6857
3858.000000 0.6857 0.6856 0.6855 0.6854 0.6852
3863.000000 0.6851 0.6850 0.6849 0.6848 0.6847
3868.000000 0.6846 0.6845 0.6844 0.6844 0.6843
3873.000000 0.6843 0.6842 0.6842 0.6841 0.6841
3878.000000 0.6840 0.6839 0.6839 0.6838 0.6837
3883.000000 0.6837 0.6836 0.6836 0.6835 0.6834
3888.000000 0.6834 0.6833 0.6833 0.6832 0.6832
3893.000000 0.6831 0.6831 0.6830 0.6829 0.6829
3898.000000 0.6828 0.6827 0.6827 0.6826 0.6826
3903.000000 0.6825 0.6825 0.6824 0.6824 0.6823
3908.000000 0.6822 0.6822 0.6821 0.6820 0.6820
3913.000000 0.6819 0.6819 0.6818 0.6818 0.6817
3918.000000 0.6817 0.6816 0.6816 0.6815 0.6815
3923.000000 0.6814 0.6814 0.6813 0.6813 0.6812
3928.000000 0.6812 0.6811 0.6811 0.6810 0.6810
3933.000000 0.6809 0.6809 0.6808 0.6808 0.6808
3938.000000 0.6807 0.6807 0.6806 0.6806 0.6805
3943.000000 0.6805 0.6804 0.6804 0.6803 0.6803
3948.000000 0.6802 0.6802 0.6801 0.6801 0.6800
3953.000000 0.6799 0.6799 0.6798 0.6797 0.6796
3958.000000 0.6796 0.6795 0.6794 0.6793 0.6792
3963.000000 0.6792 0.6791 0.6790 0.6789 0.6788
3968.000000 0.6788 0.6787 0.6786 0.6785 0.6785
3973.000000 0.6784 0.6783 0.6782 0.6781 0.6781
3978.000000 0.6780 0.6779 0.6778 0.6777 0.6777
3983.000000 0.6776 0.6776 0.6775 0.6774 0.6774
3988.000000 0.6773 0.6772 0.6771 0.6771 0.6770
3993.000000 0.6769 0.6768 0.6768 0.6768 0.6768
3998.000000 0.6768 0.6768 0.6768
##END=
