##TITLE=1,4-BUTANEDIAMINE DIHYDROCHLORIDE
##JCAMP-DX=4.24
##DATA TYPE=INFRARED SPECTRUM
##CLASS=COBLENTZ
##ORIGIN=WYANDOTTE CHEMICALS CORP., WYANDOTTE, MICHIGAN, USA
##OWNER=COBLENTZ SOCIETY
Collection (C) 2018 copyright by the U.S. Secretary of Commerce
on behalf of the United States of America. All rights reserved.
##DATE=Not specified, most likely prior to 1970
##MOLFORM=C4 H12 N2  * 2 H Cl
##SOURCE REFERENCE=COBLENTZ NO. 3884
##$NIST ID=B6003884
##$NIST SOURCE=COBLENTZ
##$NIST IMAGE=cob3884
##SPECTROMETER/DATA SYSTEM=Not specified, most likely a prism, grating, or hybrid spectrometer.
##STATE=SOLID (MINERAL OIL MULL)
##SAMPLING PROCEDURE=TRANSMISSION
##RESOLUTION=4
##DATA PROCESSING=DIGITIZED BY NIST FROM HARD COPY
##XUNITS=MICROMETERS
##YUNITS=TRANSMITTANCE
##XFACTOR=1.000000
##YFACTOR=1
##DELTAX=000.006206
##FIRSTX=2.019
##LASTX=15.9996
##FIRSTY=0.51
##MAXX=15.9996
##MINX=2.019
##MAXY=1.009
##MINY=0.018
##NPOINTS=2254
##XYDATA=(X++(Y..Y))
2.019000 0.5100 0.5090 0.5090 0.5040 0.5010
2.050042 0.5000 0.4980 0.4960 0.4920 0.4920
2.081000 0.4860 0.4820 0.4810 0.4810 0.4860
2.112042 0.4870 0.4900 0.4930 0.4950 0.4950
2.143000 0.4950 0.4960 0.4960 0.4960 0.4950
2.174042 0.4930 0.4930 0.4920 0.4920 0.4900
2.205000 0.4890 0.4870 0.4870 0.4870 0.4870
2.236042 0.4860 0.4840 0.4840 0.4840 0.4860
2.267000 0.4870 0.4900 0.4930 0.4960 0.5040
2.298042 0.5060 0.5060 0.5070 0.5090 0.5120
2.329000 0.5180 0.5240 0.5260 0.5270 0.5290
2.360042 0.5290 0.5320 0.5380 0.5460 0.5520
2.391000 0.5590 0.5600 0.5660 0.5710 0.5740
2.422042 0.5770 0.5800 0.5830 0.5850 0.5880
2.453000 0.5900 0.5930 0.5940 0.5970 0.6000
2.484042 0.6040 0.6100 0.6130 0.6140 0.6180
2.515000 0.6190 0.6220 0.6270 0.6300 0.6350
2.546042 0.6390 0.6450 0.6520 0.6560 0.6630
2.577000 0.6700 0.6830 0.6900 0.6940 0.6970
2.608042 0.6980 0.6980 0.7010 0.7030 0.7060
2.639000 0.7120 0.7230 0.7340 0.7450 0.7500
2.670042 0.7530 0.7560 0.7560 0.7590 0.7620
2.701000 0.7680 0.7730 0.7790 0.7820 0.7840
2.732042 0.7870 0.7880 0.7910 0.7950 0.7980
2.763000 0.8010 0.8040 0.8070 0.8150 0.8190
2.794042 0.8240 0.8270 0.8300 0.8330 0.8360
2.825000 0.8410 0.8440 0.8490 0.8550 0.8580
2.856042 0.8600 0.8630 0.8640 0.8660 0.8690
2.887000 0.8690 0.8710 0.8720 0.8740 0.8770
2.918042 0.8800 0.8830 0.8860 0.8890 0.8920
2.949000 0.8970 0.9000 0.9050 0.9080 0.9130
2.980042 0.9190 0.9250 0.9300 0.9370 0.9390
3.012000 0.9390 0.9370 0.9370 0.9310 0.9190
3.043042 0.9000 0.8690 0.8260 0.7700 0.6970
3.074000 0.6050 0.5260 0.4870 0.4480 0.2710
3.105042 0.1980 0.1550 0.1360 0.1280 0.1250
3.136000 0.1160 0.1070 0.1040 0.0910 0.0850
3.167042 0.0800 0.0740 0.0660 0.0590 0.0520
3.198000 0.0460 0.0430 0.0400 0.0370 0.0350
3.229042 0.0320 0.0310 0.0270 0.0260 0.0240
3.260000 0.0230 0.0240 0.0270 0.0290 0.0290
3.291042 0.0270 0.0260 0.0260 0.0260 0.0240
3.322000 0.0240 0.0240 0.0230 0.0230 0.0210
3.353042 0.0200 0.0180 0.0200 0.0200 0.0230
3.384000 0.0230 0.0240 0.0270 0.0270 0.0290
3.415042 0.0290 0.0320 0.0320 0.0310 0.0310
3.446000 0.0290 0.0270 0.0260 0.0260 0.0240
3.477042 0.0240 0.0240 0.0260 0.0260 0.0260
3.508000 0.0270 0.0270 0.0260 0.0260 0.0260
3.539042 0.0260 0.0260 0.0270 0.0310 0.0320
3.570000 0.0350 0.0380 0.0380 0.0450 0.0480
3.601042 0.0460 0.0460 0.0460 0.0480 0.0510
3.632000 0.0550 0.0550 0.0590 0.0600 0.0680
3.663042 0.0690 0.0690 0.0680 0.0650 0.0650
3.694000 0.0680 0.0740 0.0800 0.0860 0.0900
3.725042 0.0960 0.0990 0.1040 0.1110 0.1160
3.756000 0.1220 0.1280 0.1280 0.1270 0.1250
3.787042 0.1210 0.1190 0.1180 0.1180 0.1180
3.818000 0.1190 0.1250 0.1310 0.1420 0.1550
3.849042 0.1640 0.1750 0.1810 0.1870 0.1890
3.880000 0.1890 0.1860 0.1800 0.1750 0.1700
3.911042 0.1660 0.1560 0.1500 0.1470 0.1470
3.942000 0.1490 0.1610 0.1750 0.1860 0.1900
3.973042 0.1980 0.2090 0.2220 0.2360 0.2500
4.004000 0.2630 0.2730 0.2740 0.2730 0.2710
4.035042 0.2680 0.2680 0.2650 0.2620 0.2600
4.066000 0.2600 0.2620 0.2670 0.2730 0.2820
4.097042 0.2930 0.3010 0.3070 0.3210 0.3270
4.129000 0.3330 0.3350 0.3330 0.3260 0.3210
4.160042 0.3160 0.3120 0.3090 0.3050 0.3040
4.191000 0.2950 0.2850 0.2760 0.2710 0.2710
4.222042 0.2730 0.2870 0.2990 0.3130 0.3240
4.253000 0.3330 0.3380 0.3430 0.3470 0.3540
4.284042 0.3610 0.3690 0.3770 0.3830 0.3910
4.315000 0.3950 0.4020 0.4060 0.4130 0.4190
4.346042 0.4250 0.4330 0.4400 0.4480 0.4540
4.377000 0.4620 0.4680 0.4780 0.4900 0.4980
4.408042 0.5060 0.5090 0.5120 0.5130 0.5130
4.439000 0.5130 0.5130 0.5150 0.5150 0.5180
4.470042 0.5210 0.5230 0.5240 0.5260 0.5270
4.501000 0.5290 0.5340 0.5370 0.5380 0.5380
4.532042 0.5380 0.5400 0.5410 0.5460 0.5510
4.563000 0.5570 0.5620 0.5680 0.5690 0.5690
4.594042 0.5710 0.5740 0.5770 0.5790 0.5850
4.625000 0.5930 0.5970 0.6020 0.6040 0.6080
4.656042 0.6140 0.6210 0.6250 0.6310 0.6350
4.687000 0.6380 0.6390 0.6410 0.6420 0.6420
4.718042 0.6450 0.6470 0.6500 0.6520 0.6520
4.749000 0.6520 0.6500 0.6470 0.6440 0.6390
4.780042 0.6390 0.6380 0.6380 0.6360 0.6350
4.811000 0.6310 0.6300 0.6280 0.6220 0.6070
4.842042 0.5910 0.5550 0.5450 0.5150 0.5010
4.873000 0.4860 0.4680 0.4590 0.4540 0.4420
4.904042 0.4340 0.4230 0.4110 0.3860 0.3600
4.935000 0.3350 0.3050 0.2820 0.2620 0.2500
4.966042 0.2290 0.2110 0.1780 0.1690 0.1670
4.997000 0.1690 0.1980 0.2030 0.2170 0.2320
5.028042 0.2510 0.2710 0.2910 0.3100 0.3270
5.059000 0.3410 0.3500 0.3600 0.3860 0.4030
5.090042 0.4200 0.4400 0.4540 0.4700 0.4840
5.121000 0.5130 0.5290 0.5410 0.5540 0.5650
5.152042 0.5760 0.5820 0.5880 0.5900 0.5910
5.184000 0.5940 0.5990 0.6080 0.6130 0.6180
5.215042 0.6220 0.6300 0.6380 0.6410 0.6420
5.246000 0.6420 0.6440 0.6450 0.6470 0.6500
5.277042 0.6550 0.6610 0.6690 0.6700 0.6720
5.308000 0.6750 0.6770 0.6800 0.6810 0.6840
5.339042 0.6890 0.6940 0.6920 0.6900 0.6810
5.370000 0.6800 0.6800 0.6810 0.6950 0.7040
5.401042 0.7120 0.7150 0.7180 0.7180 0.7180
5.432000 0.7170 0.7060 0.6950 0.6900 0.6950
5.463042 0.6970 0.7040 0.7110 0.7060 0.7000
5.494000 0.7060 0.7120 0.7200 0.7310 0.7370
5.525042 0.7370 0.7340 0.7260 0.7230 0.7220
5.556000 0.7230 0.7220 0.7220 0.7200 0.7150
5.587042 0.7120 0.7110 0.7080 0.7060 0.7030
5.618000 0.6970 0.6950 0.6870 0.6860 0.6860
5.649042 0.6870 0.6900 0.6970 0.7040 0.7140
5.680000 0.7170 0.7180 0.7200 0.7180 0.7170
5.711042 0.7110 0.7140 0.7170 0.7140 0.7140
5.742000 0.7110 0.7110 0.7080 0.7080 0.7110
5.773042 0.7180 0.7200 0.7200 0.7220 0.7090
5.804000 0.7110 0.7250 0.7390 0.7480 0.7390
5.835042 0.7390 0.7390 0.7400 0.7400 0.7420
5.866000 0.7460 0.7530 0.7630 0.7790 0.7870
5.897042 0.7870 0.7820 0.7670 0.7560 0.7530
5.928000 0.7530 0.7530 0.7510 0.7510 0.7530
5.959042 0.7540 0.7570 0.7590 0.7650 0.7680
5.990000 0.7710 0.7700 0.7670 0.7600 0.7530
6.021042 0.7510 0.7530 0.7600 0.7760 0.7880
6.052000 0.7910 0.7960 0.7950 0.7870 0.7820
6.083042 0.7790 0.7810 0.7880 0.7880 0.7810
6.114000 0.7530 0.7280 0.6900 0.6280 0.5880
6.145042 0.5130 0.4160 0.3180 0.2600 0.2620
6.176000 0.3150 0.3860 0.4300 0.5510 0.5310
6.207042 0.5010 0.4720 0.3990 0.3950 0.3970
6.238000 0.4390 0.4960 0.5800 0.6080 0.6300
6.269042 0.6410 0.6470 0.6500 0.6610 0.6690
6.301000 0.6770 0.6890 0.6950 0.7040 0.7080
6.332042 0.7080 0.7080 0.7040 0.6980 0.6970
6.363000 0.6980 0.7060 0.7200 0.7290 0.7500
6.394042 0.7710 0.7870 0.7900 0.7880 0.7840
6.425000 0.7810 0.7790 0.7700 0.7680 0.7700
6.456042 0.7730 0.7820 0.7950 0.7980 0.7990
6.487000 0.8020 0.8070 0.8010 0.7960 0.7930
6.518042 0.7910 0.7930 0.7950 0.7980 0.8020
6.549000 0.8050 0.8090 0.8090 0.8070 0.8010
6.580042 0.7950 0.7870 0.7770 0.7650 0.7560
6.611000 0.7450 0.7310 0.7170 0.6980 0.6750
6.642042 0.6520 0.6250 0.5970 0.5680 0.5370
6.673000 0.5060 0.4820 0.4580 0.3770 0.3010
6.704042 0.2290 0.1640 0.1240 0.0910 0.0760
6.735000 0.0690 0.0620 0.0550 0.0510 0.0460
6.766042 0.0340 0.0290 0.0260 0.0230 0.0230
6.797000 0.0240 0.0290 0.0370 0.0450 0.0450
6.828042 0.0400 0.0370 0.0340 0.0340 0.0350
6.859000 0.0350 0.0290 0.0260 0.0210 0.0230
6.890042 0.0240 0.0260 0.0260 0.0260 0.0240
6.921000 0.0240 0.0290 0.0340 0.0410 0.0480
6.952042 0.0510 0.0600 0.0720 0.0830 0.0970
6.983000 0.1110 0.1280 0.1440 0.1610 0.1730
7.014042 0.1830 0.1900 0.1940 0.1980 0.1940
7.045000 0.1870 0.1770 0.1610 0.1470 0.1360
7.076042 0.1300 0.1270 0.1240 0.1210 0.1110
7.107000 0.1080 0.1070 0.1080 0.1160 0.1250
7.138042 0.1360 0.1470 0.1610 0.1800 0.1890
7.169000 0.1940 0.2000 0.1970 0.1800 0.1800
7.200042 0.1780 0.1590 0.1500 0.1250 0.1190
7.231000 0.1160 0.1070 0.1000 0.1000 0.1110
7.262042 0.1350 0.1700 0.1780 0.2040 0.2280
7.293000 0.2400 0.2460 0.2560 0.2670 0.2870
7.324042 0.3180 0.3470 0.3690 0.3880 0.4000
7.355000 0.4090 0.4110 0.4090 0.4020 0.3810
7.386042 0.3680 0.3520 0.3380 0.3290 0.3090
7.418000 0.2930 0.2910 0.2950 0.3100 0.3380
7.449042 0.3720 0.4000 0.4300 0.4470 0.4700
7.480000 0.4860 0.4980 0.5170 0.5240 0.5320
7.511042 0.5410 0.5540 0.5630 0.5690 0.5710
7.542000 0.5710 0.5690 0.5690 0.5710 0.5760
7.573042 0.5790 0.5850 0.5880 0.5910 0.5960
7.604000 0.5970 0.5970 0.5990 0.5990 0.5990
7.635042 0.5940 0.5910 0.5820 0.5760 0.5680
7.666000 0.5570 0.5410 0.5240 0.5030 0.4890
7.697042 0.4750 0.4440 0.4050 0.3630 0.3120
7.728000 0.2560 0.2040 0.1520 0.1050 0.0710
7.759042 0.0510 0.0380 0.0370 0.0380 0.0380
7.790000 0.0410 0.0480 0.0590 0.0710 0.0850
7.821042 0.0990 0.1180 0.1450 0.1720 0.1950
7.852000 0.2220 0.2540 0.2900 0.3190 0.3460
7.883042 0.3680 0.3860 0.4050 0.4200 0.4370
7.914000 0.4540 0.4670 0.4790 0.4890 0.4980
7.945042 0.5170 0.5240 0.5310 0.5380 0.5460
7.976000 0.5540 0.5600 0.5680 0.5760 0.5850
8.007042 0.5930 0.6000 0.6040 0.6080 0.6110
8.038000 0.6160 0.6210 0.6280 0.6360 0.6410
8.069042 0.6450 0.6500 0.6520 0.6580 0.6630
8.100000 0.6690 0.6720 0.6770 0.6780 0.6830
8.131042 0.6860 0.6890 0.6920 0.6950 0.6980
8.162000 0.7000 0.7030 0.7040 0.7060 0.7080
8.193042 0.7040 0.7010 0.7000 0.7010 0.7030
8.224000 0.7060 0.7090 0.7120 0.7140 0.7180
8.255042 0.7220 0.7230 0.7230 0.7250 0.7280
8.286000 0.7360 0.7400 0.7400 0.7420 0.7430
8.317042 0.7460 0.7530 0.7570 0.7630 0.7680
8.348000 0.7700 0.7710 0.7730 0.7760 0.7810
8.379042 0.7840 0.7870 0.7880 0.7910 0.7950
8.410000 0.7950 0.7930 0.7910 0.7910 0.7900
8.441042 0.7900 0.7880 0.7870 0.7850 0.7840
8.473000 0.7790 0.7740 0.7680 0.7630 0.7510
8.504042 0.7400 0.7320 0.7260 0.7180 0.7150
8.535000 0.7170 0.7200 0.7320 0.7390 0.7400
8.566042 0.7460 0.7510 0.7540 0.7590 0.7620
8.597000 0.7670 0.7700 0.7700 0.7700 0.7670
8.628042 0.7630 0.7620 0.7600 0.7590 0.7570
8.659000 0.7560 0.7560 0.7570 0.7600 0.7600
8.690042 0.7620 0.7620 0.7620 0.7620 0.7620
8.721000 0.7600 0.7570 0.7510 0.7450 0.7320
8.752042 0.7180 0.7060 0.7010 0.6840 0.6690
8.783000 0.6470 0.6240 0.5960 0.5680 0.5370
8.814042 0.5040 0.4870 0.4680 0.4300 0.3890
8.845000 0.3490 0.3090 0.2650 0.2320 0.1940
8.876042 0.1550 0.1190 0.0930 0.0770 0.0650
8.907000 0.0540 0.0430 0.0380 0.0290 0.0270
8.938042 0.0310 0.0320 0.0340 0.0370 0.0410
8.969000 0.0460 0.0540 0.0620 0.0720 0.0860
9.000042 0.1020 0.1180 0.1330 0.1490 0.1660
9.031000 0.1830 0.2000 0.2150 0.2310 0.2450
9.062042 0.2600 0.2760 0.2870 0.2960 0.3050
9.093000 0.3150 0.3240 0.3350 0.3440 0.3540
9.124042 0.3630 0.3710 0.3800 0.3890 0.3990
9.155000 0.4080 0.4160 0.4270 0.4360 0.4420
9.186042 0.4500 0.4560 0.4610 0.4670 0.4720
9.217000 0.4760 0.4820 0.4890 0.4950 0.5060
9.248042 0.5100 0.5170 0.5210 0.5270 0.5340
9.279000 0.5400 0.5450 0.5510 0.5570 0.5620
9.310042 0.5680 0.5720 0.5790 0.5830 0.5880
9.341000 0.5930 0.5960 0.5990 0.6020 0.6050
9.372042 0.6080 0.6110 0.6160 0.6250 0.6310
9.403000 0.6360 0.6380 0.6390 0.6410 0.6420
9.434042 0.6420 0.6440 0.6450 0.6470 0.6470
9.465000 0.6450 0.6450 0.6420 0.6390 0.6310
9.496042 0.6250 0.6140 0.6040 0.5990 0.5900
9.527000 0.5790 0.5660 0.5540 0.5400 0.5210
9.558042 0.5010 0.4890 0.4760 0.4450 0.4050
9.590000 0.3710 0.3290 0.2880 0.2430 0.2060
9.621042 0.1700 0.1520 0.1300 0.1250 0.1250
9.652000 0.1270 0.1330 0.1390 0.1470 0.1590
9.683042 0.1610 0.1640 0.1630 0.1560 0.1450
9.714000 0.1330 0.1160 0.1040 0.0910 0.0880
9.745042 0.0910 0.1000 0.1140 0.1350 0.1590
9.776000 0.1860 0.2170 0.2480 0.2790 0.3180
9.807042 0.3220 0.3550 0.3810 0.4090 0.4360
9.838000 0.4530 0.4700 0.4840 0.5120 0.5260
9.869042 0.5400 0.5520 0.5650 0.5790 0.5880
9.900000 0.5970 0.6040 0.6130 0.6210 0.6300
9.931042 0.6360 0.6470 0.6550 0.6640 0.6700
9.962000 0.6770 0.6830 0.6890 0.6970 0.7060
9.993042 0.7140 0.7180 0.7250 0.7290 0.7340
10.024000 0.7370 0.7390 0.7390 0.7400 0.7430
10.055042 0.7450 0.7500 0.7570 0.7630 0.7670
10.086000 0.7670 0.7670 0.7670 0.7680 0.7700
10.117042 0.7730 0.7740 0.7770 0.7810 0.7840
10.148000 0.7870 0.7900 0.7910 0.7930 0.7950
10.179042 0.7950 0.7980 0.7990 0.8010 0.8020
10.210000 0.8040 0.8050 0.8070 0.8100 0.8130
10.241042 0.8150 0.8150 0.8150 0.8150 0.8150
10.272000 0.8160 0.8160 0.8190 0.8210 0.8220
10.303042 0.8260 0.8290 0.8290 0.8300 0.8300
10.334000 0.8320 0.8350 0.8380 0.8430 0.8500
10.365042 0.8550 0.8600 0.8630 0.8680 0.8710
10.396000 0.8740 0.8750 0.8770 0.8770 0.8770
10.427042 0.8780 0.8780 0.8800 0.8810 0.8850
10.458000 0.8880 0.8890 0.8920 0.8950 0.8970
10.489042 0.8990 0.9020 0.9030 0.9030 0.9050
10.520000 0.9060 0.9080 0.9090 0.9110 0.9110
10.551042 0.9130 0.9140 0.9170 0.9190 0.9200
10.582000 0.9220 0.9230 0.9230 0.9230 0.9250
10.613042 0.9250 0.9250 0.9270 0.9270 0.9270
10.645000 0.9250 0.9250 0.9250 0.9250 0.9250
10.676042 0.9250 0.9230 0.9220 0.9170 0.9130
10.707000 0.9080 0.9030 0.9020 0.8970 0.8890
10.738042 0.8780 0.8660 0.8500 0.8320 0.8100
10.769000 0.7880 0.7620 0.7360 0.7040 0.6750
10.800042 0.6390 0.5000 0.4780 0.4560 0.3910
10.831000 0.3300 0.2530 0.1940 0.1410 0.1110
10.862042 0.0930 0.0820 0.0800 0.0820 0.0990
10.893000 0.1190 0.1410 0.1640 0.1870 0.2120
10.924042 0.2390 0.2670 0.2960 0.3240 0.3500
10.955000 0.3800 0.4030 0.4250 0.4450 0.4650
10.986042 0.4860 0.5240 0.5450 0.5650 0.5830
11.017000 0.5900 0.5970 0.6050 0.6130 0.6210
11.048042 0.6280 0.6380 0.6450 0.6520 0.6580
11.079000 0.6640 0.6690 0.6700 0.6730 0.6750
11.110042 0.6770 0.6780 0.6770 0.6780 0.6800
11.141000 0.6800 0.6810 0.6810 0.6780 0.6770
11.172042 0.6720 0.6690 0.6660 0.6610 0.6530
11.203000 0.6470 0.6380 0.6280 0.6190 0.6100
11.234042 0.5970 0.5860 0.5740 0.5600 0.5460
11.265000 0.5320 0.5180 0.5010 0.4930 0.4860
11.296042 0.4680 0.4510 0.4340 0.4160 0.3950
11.327000 0.3720 0.3360 0.3190 0.2910 0.2650
11.358042 0.2370 0.2140 0.1970 0.1840 0.1630
11.389000 0.1530 0.1210 0.0960 0.0830 0.0760
11.420042 0.0690 0.0630 0.0550 0.0510 0.0460
11.451000 0.0400 0.0370 0.0370 0.0410 0.0460
11.482042 0.0480 0.0510 0.0550 0.0630 0.0710
11.513000 0.0790 0.0880 0.0960 0.1000 0.1140
11.544042 0.1250 0.1380 0.1530 0.1730 0.1840
11.575000 0.1980 0.2140 0.2340 0.2500 0.2740
11.606042 0.2900 0.3020 0.3150 0.3300 0.3440
11.637000 0.3600 0.3750 0.3940 0.4140 0.4280
11.668042 0.4390 0.4480 0.4590 0.4720 0.4860
11.699000 0.4950 0.5180 0.5260 0.5350 0.5410
11.730042 0.5490 0.5650 0.5690 0.5760 0.5820
11.762000 0.5900 0.5960 0.5990 0.6020 0.6080
11.793042 0.6190 0.6270 0.6330 0.6390 0.6450
11.824000 0.6500 0.6560 0.6610 0.6660 0.6700
11.855042 0.6750 0.6800 0.6840 0.6890 0.6940
11.886000 0.6980 0.7030 0.7080 0.7110 0.7120
11.917042 0.7200 0.7280 0.7320 0.7360 0.7390
11.948000 0.7420 0.7460 0.7530 0.7570 0.7600
11.979042 0.7620 0.7620 0.7650 0.7680 0.7730
12.010000 0.7790 0.7870 0.7880 0.7910 0.7950
12.041042 0.7980 0.8010 0.8040 0.8040 0.8100
12.072000 0.8130 0.8160 0.8180 0.8190 0.8210
12.103042 0.8210 0.8220 0.8220 0.8220 0.8260
12.134000 0.8260 0.8300 0.8350 0.8400 0.8410
12.165042 0.8440 0.8490 0.8550 0.8630 0.8640
12.196000 0.8680 0.8710 0.8720 0.8740 0.8740
12.227042 0.8740 0.8750 0.8770 0.8800 0.8850
12.258000 0.8910 0.8950 0.8990 0.9030 0.9060
12.289042 0.9090 0.9110 0.9130 0.9140 0.9170
12.320000 0.9190 0.9220 0.9250 0.9270 0.9270
12.351042 0.9280 0.9280 0.9300 0.9310 0.9310
12.382000 0.9330 0.9340 0.9340 0.9360 0.9370
12.413042 0.9390 0.9390 0.9390 0.9390 0.9420
12.444000 0.9440 0.9450 0.9480 0.9500 0.9510
12.475042 0.9510 0.9540 0.9580 0.9610 0.9640
12.506000 0.9670 0.9670 0.9670 0.9680 0.9700
12.537042 0.9720 0.9730 0.9750 0.9760 0.9780
12.568000 0.9820 0.9840 0.9840 0.9860 0.9870
12.599042 0.9870 0.9890 0.9890 0.9890 0.9900
12.630000 0.9900 0.9900 0.9900 0.9900 0.9920
12.661042 0.9920 0.9930 0.9920 0.9920 0.9920
12.692000 0.9900 0.9920 0.9900 0.9890 0.9900
12.723042 0.9900 0.9900 0.9890 0.9890 0.9870
12.754000 0.9860 0.9840 0.9820 0.9810 0.9790
12.785042 0.9780 0.9760 0.9720 0.9680 0.9560
12.816000 0.9540 0.9470 0.9420 0.9370 0.9270
12.847042 0.9160 0.9050 0.8940 0.8810 0.8640
12.879000 0.8470 0.8220 0.8010 0.7820 0.7620
12.910042 0.7390 0.7040 0.6640 0.6270 0.5910
12.941000 0.5590 0.5240 0.5070 0.4900 0.4510
12.972042 0.4090 0.3600 0.3330 0.3050 0.2600
13.003000 0.2140 0.2080 0.1980 0.1690 0.1610
13.034042 0.1580 0.1580 0.1610 0.1660 0.1770
13.065000 0.1890 0.2060 0.2250 0.2460 0.2710
13.096042 0.2980 0.3210 0.3460 0.3690 0.3910
13.127000 0.4140 0.4360 0.4560 0.4760 0.4950
13.158042 0.5320 0.5490 0.5650 0.5790 0.5960
13.189000 0.6110 0.6250 0.6380 0.6520 0.6630
13.220042 0.6750 0.6840 0.6950 0.7040 0.7150
13.251000 0.7230 0.7310 0.7370 0.7430 0.7540
13.282042 0.7600 0.7650 0.7710 0.7790 0.7850
13.313000 0.7950 0.7990 0.8010 0.8040 0.8090
13.344042 0.8130 0.8180 0.8240 0.8260 0.8270
13.375000 0.8290 0.8290 0.8300 0.8330 0.8380
13.406042 0.8410 0.8430 0.8430 0.8440 0.8460
13.437000 0.8470 0.8490 0.8490 0.8490 0.8500
13.468042 0.8520 0.8520 0.8520 0.8500 0.8500
13.499000 0.8490 0.8470 0.8460 0.8460 0.8430
13.530042 0.8410 0.8380 0.8360 0.8360 0.8360
13.561000 0.8360 0.8360 0.8360 0.8380 0.8380
13.592042 0.8400 0.8400 0.8400 0.8410 0.8410
13.623000 0.8430 0.8440 0.8460 0.8460 0.8470
13.654042 0.8470 0.8470 0.8470 0.8470 0.8490
13.685000 0.8490 0.8490 0.8490 0.8490 0.8470
13.716042 0.8470 0.8460 0.8460 0.8460 0.8470
13.747000 0.8470 0.8470 0.8460 0.8440 0.8430
13.778042 0.8410 0.8400 0.8380 0.8360 0.8350
13.809000 0.8350 0.8330 0.8320 0.8320 0.8300
13.840042 0.8290 0.8270 0.8260 0.8260 0.8270
13.871000 0.8300 0.8320 0.8350 0.8360 0.8400
13.902042 0.8440 0.8490 0.8550 0.8610 0.8690
13.934000 0.8780 0.8880 0.8970 0.9050 0.9160
13.965042 0.9270 0.9300 0.9360 0.9370 0.9390
13.996000 0.9470 0.9510 0.9560 0.9620 0.9670
14.027042 0.9720 0.9790 0.9860 0.9900 0.9930
14.058000 0.9960 0.9960 0.9960 0.9960 0.9960
14.089042 0.9960 0.9980 0.9980 1.0000 1.0010
14.120000 1.0030 1.0030 1.0030 1.0030 1.0030
14.151042 1.0040 1.0060 1.0060 1.0060 1.0040
14.182000 1.0040 1.0030 1.0030 1.0030 1.0040
14.213042 1.0040 1.0040 1.0060 1.0060 1.0070
14.244000 1.0070 1.0060 1.0070 1.0070 1.0090
14.275042 1.0090 1.0090 1.0090 1.0090 1.0090
14.306000 1.0090 1.0090 1.0090 1.0090 1.0090
14.337042 1.0090 1.0090 1.0090 1.0090 1.0090
14.368000 1.0090 1.0090 1.0090 1.0090 1.0090
14.399042 1.0090 1.0090 1.0090 1.0090 1.0090
14.430000 1.0070 1.0070 1.0070 1.0060 1.0060
14.461042 1.0060 1.0030 1.0030 1.0030 1.0040
14.492000 1.0040 1.0040 1.0040 1.0040 1.0030
14.523042 1.0040 1.0040 1.0040 1.0030 1.0010
14.554000 1.0000 1.0000 1.0000 1.0000 1.0030
14.585042 1.0030 1.0010 1.0010 1.0000 1.0000
14.616000 1.0000 0.9980 0.9960 0.9980 0.9980
14.647042 0.9980 0.9950 0.9930 0.9920 0.9930
14.678000 0.9980 0.9980 0.9950 0.9950 0.9930
14.709042 0.9930 0.9930 0.9920 0.9900 0.9900
14.740000 0.9890 0.9870 0.9840 0.9840 0.9820
14.771042 0.9820 0.9810 0.9810 0.9810 0.9790
14.802000 0.9780 0.9760 0.9760 0.9760 0.9760
14.833042 0.9730 0.9730 0.9720 0.9700 0.9700
14.864000 0.9680 0.9670 0.9670 0.9670 0.9670
14.895042 0.9670 0.9670 0.9670 0.9650 0.9650
14.926000 0.9650 0.9640 0.9640 0.9610 0.9560
14.957042 0.9510 0.9450 0.9370 0.9310 0.9230
14.988000 0.9140 0.9050 0.8950 0.8830 0.8690
15.019042 0.8630 0.8460 0.8410 0.8260 0.8160
15.051000 0.8090 0.7990 0.7870 0.7820 0.7820
15.082042 0.7840 0.7840 0.7870 0.7880 0.7910
15.113000 0.7960 0.8010 0.8090 0.8180 0.8290
15.144042 0.8360 0.8410 0.8460 0.8470 0.8500
15.175000 0.8540 0.8540 0.8550 0.8570 0.8600
15.206042 0.8630 0.8640 0.8690 0.8770 0.8770
15.237000 0.8750 0.8720 0.8690 0.8680 0.8660
15.268042 0.8610 0.8600 0.8580 0.8550 0.8550
15.299000 0.8570 0.8580 0.8580 0.8580 0.8490
15.330042 0.8460 0.8430 0.8400 0.8360 0.8300
15.361000 0.8290 0.8270 0.8270 0.8270 0.8260
15.392042 0.8240 0.8240 0.8220 0.8190 0.8180
15.423000 0.8160 0.8120 0.8090 0.8050 0.8020
15.454042 0.8010 0.7910 0.7870 0.7840 0.7820
15.485000 0.7790 0.7760 0.7740 0.7710 0.7700
15.516042 0.7700 0.7700 0.7680 0.7670 0.7650
15.547000 0.7630 0.7590 0.7570 0.7540 0.7530
15.578042 0.7510 0.7480 0.7450 0.7430 0.7340
15.609000 0.7280 0.7260 0.7250 0.7220 0.7200
15.640042 0.7180 0.7150 0.7140 0.7110 0.7090
15.671000 0.7080 0.7040 0.7010 0.6980 0.6970
15.702042 0.6970 0.6950 0.6940 0.6890 0.6840
15.733000 0.6810 0.6780 0.6750 0.6720 0.6670
15.764042 0.6610 0.6580 0.6550 0.6550 0.6530
15.795000 0.6520 0.6490 0.6470 0.6470 0.6450
15.826042 0.6450 0.6420 0.6390 0.6330 0.6280
15.857000 0.6280 0.6270 0.6250 0.6210 0.6190
15.888042 0.6140 0.6110 0.6080 0.6080 0.6040
15.919000 0.6020 0.5990 0.5970 0.5960 0.5960
15.950042 0.5930 0.5900 0.5860 0.5820 0.5770
15.981000 0.5740 0.5690 0.5660 0.5690
##END=
