##TITLE=ANILINE, N,o-DI-sec-BUTYL-
##JCAMP-DX=4.24
$$ By DXEDIT 1.05 (RS McDonald)
##DATA TYPE=INFRARED SPECTRUM
##CLASS=COBLENTZ III
##ORIGIN=MONSANTO (J. FREEMAN)
##OWNER=COBLENTZ SOC.
Collection (C) 2018 copyright by the U.S. Secretary of Commerce
on behalf of the United States of America. All rights reserved.
##DATE=1959/02/11
##NAMES=N-(sec-butyl)-N-(2-sec-butylphenyl)amine
N,2-disec-butylaniline
ANILINE, N,2-DI-sec-BUTYL-
##MOLFORM=C14 H23 N
##SOURCE REFERENCE=COBLENTZ NO. 08492
##$NIST ID=B6008492
##$NIST SOURCE=COBLENTZ
##$NIST IMAGE=cob8492
##SPECTROMETER/DATA SYSTEM=BECKMAN IR-4 (HYBRID PRISM-GRATING)
##INSTRUMENT PARAMETERS=NaCl PRISM
##STATE=LIQUID (NEAT)
##PATH LENGTH=CAPILLARY
##SAMPLING PROCEDURE=TRANSMISSION
##RESOLUTION=2
##DATA PROCESSING=DIGITIZED BY COBLENTZ SOCIETY (BATCH I) FROM HARD COPY (ADJUSTED \addmicron\0.02um\)
##XUNITS=1/CM
##YUNITS=TRANSMITTANCE
##XLABEL=Wavenumbers (cm-1)
##YLABEL=Transmittance
##XFACTOR=1
##YFACTOR=1
##DELTAX=0.970509
##FIRSTX=3902.44
##LASTX=626.971
##FIRSTY=0.922
##MAXX=3902.44
##MINX=626.971
##MAXY=0.994477
##MINY=0.224904
##NPOINTS=3376
##XYDATA=(X++(Y..Y))
3902.439024 0.9220 0.9220 0.9221 0.9221 0.9223
3897.586478 0.9224 0.9225 0.9225 0.9227 0.9228
3892.733932 0.9228 0.9230 0.9231 0.9232 0.9233
3887.881387 0.9234 0.9235 0.9236 0.9236 0.9237
3883.028841 0.9238 0.9240 0.9241 0.9242 0.9243
3878.176295 0.9244 0.9245 0.9246 0.9247 0.9248
3873.323749 0.9249 0.9250 0.9251 0.9252 0.9253
3868.471203 0.9254 0.9255 0.9255 0.9256 0.9257
3863.618657 0.9258 0.9259 0.9260 0.9261 0.9262
3858.766111 0.9263 0.9264 0.9265 0.9266 0.9267
3853.913565 0.9268 0.9268 0.9270 0.9271 0.9272
3849.061019 0.9273 0.9274 0.9275 0.9276 0.9277
3844.208473 0.9278 0.9279 0.9280 0.9281 0.9282
3839.355927 0.9283 0.9284 0.9285 0.9286 0.9287
3834.503381 0.9288 0.9289 0.9290 0.9291 0.9292
3829.650835 0.9293 0.9294 0.9295 0.9296 0.9297
3824.798289 0.9298 0.9299 0.9300 0.9300 0.9301
3819.945743 0.9302 0.9303 0.9304 0.9305 0.9306
3815.093197 0.9307 0.9308 0.9309 0.9310 0.9310
3810.240651 0.9311 0.9312 0.9313 0.9314 0.9314
3805.388105 0.9315 0.9316 0.9317 0.9318 0.9319
3800.535559 0.9321 0.9321 0.9322 0.9324 0.9325
3795.683014 0.9325 0.9325 0.9326 0.9328 0.9328
3790.830468 0.9328 0.9330 0.9331 0.9332 0.9333
3785.977922 0.9334 0.9334 0.9335 0.9336 0.9336
3781.125376 0.9337 0.9338 0.9338 0.9339 0.9340
3776.272830 0.9340 0.9341 0.9342 0.9342 0.9343
3771.420284 0.9343 0.9344 0.9345 0.9345 0.9346
3766.567738 0.9346 0.9346 0.9346 0.9346 0.9346
3761.715192 0.9346 0.9346 0.9345 0.9345 0.9344
3756.862646 0.9343 0.9343 0.9343 0.9342 0.9342
3752.010100 0.9342 0.9341 0.9341 0.9340 0.9340
3747.157554 0.9339 0.9339 0.9338 0.9338 0.9338
3742.305008 0.9337 0.9337 0.9337 0.9336 0.9336
3737.452462 0.9336 0.9336 0.9336 0.9336 0.9335
3732.599916 0.9335 0.9335 0.9335 0.9335 0.9335
3727.747370 0.9334 0.9334 0.9334 0.9334 0.9334
3722.894824 0.9334 0.9333 0.9333 0.9333 0.9333
3718.042278 0.9333 0.9332 0.9332 0.9332 0.9332
3713.189732 0.9332 0.9332 0.9332 0.9332 0.9332
3708.337186 0.9332 0.9332 0.9332 0.9332 0.9332
3703.484641 0.9332 0.9332 0.9332 0.9332 0.9332
3698.632095 0.9332 0.9332 0.9332 0.9333 0.9333
3693.779549 0.9333 0.9333 0.9333 0.9333 0.9333
3688.927003 0.9333 0.9333 0.9333 0.9333 0.9333
3684.074457 0.9333 0.9333 0.9333 0.9333 0.9333
3679.221911 0.9334 0.9334 0.9334 0.9334 0.9334
3674.369365 0.9334 0.9334 0.9334 0.9334 0.9334
3669.516819 0.9334 0.9335 0.9335 0.9335 0.9335
3664.664273 0.9335 0.9336 0.9336 0.9336 0.9336
3659.811727 0.9336 0.9336 0.9337 0.9337 0.9337
3654.959181 0.9337 0.9337 0.9337 0.9338 0.9338
3650.106635 0.9338 0.9338 0.9338 0.9338 0.9338
3645.254089 0.9338 0.9338 0.9338 0.9338 0.9339
3640.401543 0.9339 0.9339 0.9339 0.9339 0.9340
3635.548997 0.9340 0.9340 0.9341 0.9341 0.9341
3630.696451 0.9342 0.9342 0.9342 0.9342 0.9342
3625.843905 0.9343 0.9343 0.9343 0.9344 0.9344
3620.991359 0.9345 0.9345 0.9345 0.9345 0.9345
3616.138813 0.9346 0.9346 0.9346 0.9347 0.9347
3611.286267 0.9347 0.9348 0.9348 0.9348 0.9348
3606.433722 0.9348 0.9349 0.9349 0.9349 0.9349
3601.581176 0.9349 0.9349 0.9348 0.9348 0.9348
3596.728630 0.9348 0.9348 0.9347 0.9347 0.9347
3591.876084 0.9347 0.9347 0.9346 0.9346 0.9346
3587.023538 0.9346 0.9346 0.9346 0.9346 0.9346
3582.170992 0.9346 0.9346 0.9346 0.9345 0.9345
3577.318446 0.9345 0.9344 0.9344 0.9344 0.9342
3572.465900 0.9341 0.9340 0.9339 0.9338 0.9337
3567.613354 0.9336 0.9335 0.9334 0.9333 0.9332
3562.760808 0.9331 0.9330 0.9328 0.9328 0.9328
3557.908262 0.9327 0.9325 0.9325 0.9324 0.9321
3553.055716 0.9321 0.9318 0.9318 0.9316 0.9315
3548.203170 0.9313 0.9312 0.9310 0.9309 0.9307
3543.350624 0.9306 0.9304 0.9303 0.9301 0.9300
3538.498078 0.9298 0.9296 0.9294 0.9292 0.9290
3533.645532 0.9289 0.9287 0.9286 0.9284 0.9282
3528.792986 0.9280 0.9278 0.9276 0.9273 0.9270
3523.940440 0.9267 0.9264 0.9261 0.9258 0.9254
3519.087894 0.9251 0.9248 0.9244 0.9240 0.9237
3514.235349 0.9233 0.9229 0.9226 0.9222 0.9219
3509.382803 0.9214 0.9209 0.9204 0.9199 0.9193
3504.530257 0.9186 0.9179 0.9171 0.9164 0.9155
3499.677711 0.9147 0.9139 0.9131 0.9121 0.9113
3494.825165 0.9097 0.9071 0.9045 0.9018 0.8993
3489.972619 0.8968 0.8946 0.8924 0.8904 0.8882
3485.120073 0.8864 0.8848 0.8834 0.8819 0.8803
3480.267527 0.8781 0.8749 0.8717 0.8685 0.8653
3475.414981 0.8612 0.8560 0.8507 0.8455 0.8403
3470.562435 0.8351 0.8299 0.8247 0.8195 0.8143
3465.709889 0.8090 0.8038 0.7986 0.7933 0.7881
3460.857343 0.7829 0.7776 0.7724 0.7672 0.7620
3456.004797 0.7596 0.7581 0.7564 0.7549 0.7533
3451.152251 0.7530 0.7528 0.7528 0.7525 0.7525
3446.299705 0.7525 0.7525 0.7525 0.7525 0.7525
3441.447159 0.7525 0.7525 0.7525 0.7525 0.7529
3436.594613 0.7542 0.7555 0.7567 0.7581 0.7596
3431.742067 0.7615 0.7634 0.7653 0.7672 0.7691
3426.889521 0.7709 0.7728 0.7747 0.7765 0.7785
3422.036975 0.7803 0.7822 0.7841 0.7859 0.7878
3417.184430 0.7897 0.7916 0.7935 0.7953 0.7972
3412.331884 0.7991 0.8010 0.8029 0.8048 0.8067
3407.479338 0.8086 0.8104 0.8122 0.8142 0.8161
3402.626792 0.8180 0.8199 0.8218 0.8237 0.8256
3397.774246 0.8275 0.8294 0.8313 0.8332 0.8352
3392.921700 0.8371 0.8390 0.8410 0.8429 0.8447
3388.069154 0.8467 0.8486 0.8505 0.8524 0.8544
3383.216608 0.8562 0.8581 0.8601 0.8620 0.8639
3378.364062 0.8659 0.8678 0.8697 0.8717 0.8736
3373.511516 0.8755 0.8773 0.8793 0.8812 0.8831
3368.658970 0.8851 0.8871 0.8890 0.8909 0.8928
3363.806424 0.8948 0.8967 0.8986 0.9006 0.9026
3358.953878 0.9045 0.9065 0.9085 0.9104 0.9121
3354.101332 0.9135 0.9146 0.9158 0.9170 0.9180
3349.248786 0.9188 0.9196 0.9205 0.9213 0.9219
3344.396240 0.9225 0.9231 0.9237 0.9244 0.9248
3339.543694 0.9253 0.9258 0.9262 0.9267 0.9272
3334.691148 0.9277 0.9282 0.9288 0.9293 0.9297
3329.838602 0.9302 0.9306 0.9309 0.9312 0.9314
3324.986057 0.9316 0.9318 0.9321 0.9324 0.9327
3320.133511 0.9328 0.9332 0.9334 0.9337 0.9339
3315.280965 0.9342 0.9345 0.9347 0.9350 0.9352
3310.428419 0.9354 0.9355 0.9356 0.9357 0.9358
3305.575873 0.9359 0.9360 0.9361 0.9362 0.9363
3300.723327 0.9364 0.9365 0.9365 0.9366 0.9367
3295.870781 0.9368 0.9369 0.9371 0.9371 0.9371
3291.018235 0.9372 0.9374 0.9375 0.9375 0.9376
3286.165689 0.9378 0.9378 0.9378 0.9378 0.9378
3281.313143 0.9378 0.9379 0.9380 0.9380 0.9381
3276.460597 0.9381 0.9381 0.9381 0.9381 0.9381
3271.608051 0.9381 0.9381 0.9381 0.9381 0.9381
3266.755505 0.9381 0.9380 0.9378 0.9378 0.9377
3261.902959 0.9375 0.9375 0.9374 0.9373 0.9371
3257.050413 0.9371 0.9370 0.9368 0.9367 0.9366
3252.197867 0.9365 0.9364 0.9363 0.9362 0.9360
3247.345321 0.9359 0.9358 0.9355 0.9352 0.9350
3242.492775 0.9347 0.9343 0.9338 0.9334 0.9329
3237.640229 0.9323 0.9319 0.9315 0.9310 0.9306
3232.787684 0.9301 0.9296 0.9291 0.9286 0.9281
3227.935138 0.9276 0.9271 0.9266 0.9262 0.9257
3223.082592 0.9252 0.9248 0.9243 0.9238 0.9232
3218.230046 0.9227 0.9222 0.9217 0.9211 0.9206
3213.377500 0.9201 0.9196 0.9190 0.9185 0.9179
3208.524954 0.9176 0.9172 0.9168 0.9164 0.9160
3203.672408 0.9156 0.9153 0.9149 0.9146 0.9142
3198.819862 0.9139 0.9135 0.9132 0.9130 0.9127
3193.967316 0.9125 0.9121 0.9120 0.9117 0.9115
3189.114770 0.9113 0.9111 0.9110 0.9108 0.9107
3184.262224 0.9105 0.9104 0.9103 0.9101 0.9100
3179.409678 0.9099 0.9098 0.9097 0.9096 0.9096
3174.557132 0.9095 0.9095 0.9094 0.9094 0.9093
3169.704586 0.9093 0.9093 0.9092 0.9092 0.9092
3164.852040 0.9092 0.9091 0.9090 0.9089 0.9089
3159.999494 0.9088 0.9088 0.9087 0.9086 0.9085
3155.146948 0.9084 0.9083 0.9082 0.9081 0.9079
3150.294402 0.9077 0.9076 0.9074 0.9072 0.9070
3145.441856 0.9069 0.9065 0.9061 0.9057 0.9052
3140.589310 0.9047 0.9041 0.9034 0.9027 0.9016
3135.736765 0.9004 0.8992 0.8979 0.8954 0.8923
3130.884219 0.8893 0.8862 0.8825 0.8785 0.8745
3126.031673 0.8705 0.8665 0.8623 0.8584 0.8544
3121.179127 0.8504 0.8463 0.8423 0.8382 0.8342
3116.326581 0.8301 0.8261 0.8220 0.8179 0.8138
3111.474035 0.8097 0.8056 0.8016 0.7976 0.7935
3106.621489 0.7894 0.7854 0.7813 0.7772 0.7731
3101.768943 0.7690 0.7648 0.7608 0.7567 0.7526
3096.916397 0.7485 0.7444 0.7402 0.7362 0.7321
3092.063851 0.7280 0.7239 0.7196 0.7156 0.7115
3087.211305 0.7074 0.7032 0.6990 0.6950 0.6909
3082.358759 0.6867 0.6825 0.6783 0.6744 0.6708
3077.506213 0.6673 0.6637 0.6615 0.6608 0.6603
3072.653667 0.6597 0.6593 0.6589 0.6585 0.6582
3067.801121 0.6579 0.6576 0.6573 0.6570 0.6568
3062.948575 0.6566 0.6563 0.6561 0.6558 0.6555
3058.096029 0.6552 0.6549 0.6545 0.6540 0.6536
3053.243483 0.6529 0.6520 0.6512 0.6502 0.6494
3048.390937 0.6485 0.6476 0.6466 0.6458 0.6448
3043.538392 0.6439 0.6429 0.6416 0.6401 0.6388
3038.685846 0.6374 0.6360 0.6346 0.6332 0.6321
3033.833300 0.6320 0.6319 0.6319 0.6320 0.6328
3028.980754 0.6335 0.6342 0.6350 0.6359 0.6368
3024.128208 0.6377 0.6386 0.6394 0.6403 0.6413
3019.275662 0.6421 0.6430 0.6440 0.6445 0.6447
3014.423116 0.6449 0.6450 0.6450 0.6450 0.6449
3009.570570 0.6441 0.6414 0.6382 0.6349 0.6306
3004.718024 0.6242 0.6178 0.6113 0.6048 0.5983
2999.865478 0.5919 0.5855 0.5790 0.5725 0.5661
2995.012932 0.5596 0.5531 0.5467 0.5402 0.5337
2990.160386 0.5272 0.5207 0.5141 0.5076 0.5011
2985.307840 0.4946 0.4881 0.4815 0.4750 0.4684
2980.455294 0.4619 0.4554 0.4489 0.4423 0.4358
2975.602748 0.4292 0.4226 0.4161 0.4095 0.4028
2970.750202 0.3962 0.3896 0.3831 0.3765 0.3698
2965.897656 0.3633 0.3567 0.3500 0.3434 0.3368
2961.045110 0.3302 0.3236 0.3170 0.3103 0.3037
2956.192564 0.2971 0.2903 0.2837 0.2770 0.2703
2951.340018 0.2637 0.2570 0.2503 0.2436 0.2370
2946.487473 0.2303 0.2276 0.2276 0.2276 0.2276
2941.634927 0.2276 0.2276 0.2276 0.2281 0.2293
2936.782381 0.2304 0.2318 0.2358 0.2402 0.2447
2931.929835 0.2490 0.2536 0.2581 0.2625 0.2670
2927.077289 0.2714 0.2760 0.2804 0.2849 0.2894
2922.224743 0.2934 0.2958 0.2973 0.2988 0.3000
2917.372197 0.3004 0.3009 0.3013 0.3018 0.3023
2912.519651 0.3028 0.3033 0.3039 0.3045 0.3055
2907.667105 0.3075 0.3101 0.3127 0.3167 0.3227
2902.814559 0.3288 0.3348 0.3409 0.3471 0.3531
2897.962013 0.3592 0.3653 0.3714 0.3772 0.3824
2893.109467 0.3874 0.3920 0.3941 0.3941 0.3941
2888.256921 0.3940 0.3938 0.3934 0.3929 0.3919
2883.404375 0.3906 0.3893 0.3881 0.3869 0.3855
2878.551829 0.3843 0.3831 0.3818 0.3806 0.3793
2873.699283 0.3781 0.3768 0.3754 0.3742 0.3730
2868.846737 0.3717 0.3704 0.3691 0.3679 0.3667
2863.994191 0.3655 0.3643 0.3635 0.3634 0.3634
2859.141645 0.3634 0.4403 0.5365 0.6331 0.6833
2854.289100 0.6934 0.6979 0.7024 0.7071 0.7119
2849.436554 0.7166 0.7207 0.7246 0.7284 0.7319
2844.584008 0.7349 0.7381 0.7411 0.7441 0.7470
2839.731462 0.7499 0.7526 0.7553 0.7578 0.7606
2834.878916 0.7634 0.7661 0.7689 0.7727 0.7764
2830.026370 0.7804 0.7846 0.7889 0.7932 0.7981
2825.173824 0.8033 0.8087 0.8138 0.8186 0.8234
2820.321278 0.8280 0.8320 0.8359 0.8396 0.8425
2815.468732 0.8450 0.8476 0.8500 0.8523 0.8547
2810.616186 0.8567 0.8584 0.8601 0.8618 0.8634
2805.763640 0.8650 0.8667 0.8687 0.8708 0.8728
2800.911094 0.8743 0.8755 0.8766 0.8776 0.8783
2796.058548 0.8791 0.8799 0.8807 0.8815 0.8823
2791.206002 0.8831 0.8840 0.8849 0.8855 0.8859
2786.353456 0.8864 0.8867 0.8870 0.8874 0.8876
2781.500910 0.8879 0.8882 0.8885 0.8888 0.8891
2776.648364 0.8894 0.8896 0.8898 0.8900 0.8900
2771.795818 0.8900 0.8899 0.8899 0.8899 0.8898
2766.943272 0.8898 0.8898 0.8898 0.8897 0.8895
2762.090727 0.8893 0.8891 0.8888 0.8885 0.8883
2757.238181 0.8880 0.8876 0.8874 0.8871 0.8868
2752.385635 0.8865 0.8862 0.8860 0.8857 0.8855
2747.533089 0.8853 0.8852 0.8850 0.8849 0.8849
2742.680543 0.8849 0.8849 0.8849 0.8850 0.8850
2737.827997 0.8850 0.8851 0.8851 0.8851 0.8856
2732.975451 0.8862 0.8869 0.8874 0.8881 0.8889
2728.122905 0.8897 0.8905 0.8913 0.8922 0.8931
2723.270359 0.8941 0.8951 0.8961 0.8970 0.8980
2718.417813 0.8989 0.8999 0.9008 0.9017 0.9027
2713.565267 0.9037 0.9047 0.9057 0.9067 0.9077
2708.712721 0.9089 0.9100 0.9113 0.9127 0.9139
2703.860175 0.9145 0.9151 0.9157 0.9161 0.9166
2699.007629 0.9170 0.9175 0.9178 0.9183 0.9187
2694.155083 0.9191 0.9194 0.9198 0.9202 0.9205
2689.302537 0.9205 0.9204 0.9203 0.9203 0.9202
2684.449991 0.9201 0.9201 0.9200 0.9199 0.9199
2679.597445 0.9198 0.9197 0.9197 0.9196 0.9195
2674.744899 0.9194 0.9193 0.9192 0.9191 0.9189
2669.892353 0.9188 0.9186 0.9184 0.9183 0.9181
2665.039808 0.9180 0.9178 0.9177 0.9175 0.9173
2660.187262 0.9171 0.9170 0.9168 0.9167 0.9165
2655.334716 0.9163 0.9162 0.9160 0.9158 0.9156
2650.482170 0.9155 0.9154 0.9152 0.9151 0.9150
2645.629624 0.9149 0.9148 0.9146 0.9145 0.9144
2640.777078 0.9143 0.9142 0.9141 0.9140 0.9139
2635.924532 0.9138 0.9137 0.9135 0.9134 0.9133
2631.071986 0.9132 0.9130 0.9128 0.9128 0.9126
2626.219440 0.9125 0.9125 0.9125 0.9125 0.9125
2621.366894 0.9125 0.9125 0.9125 0.9125 0.9125
2616.514348 0.9125 0.9125 0.9125 0.9125 0.9125
2611.661802 0.9124 0.9124 0.9124 0.9124 0.9124
2606.809256 0.9124 0.9126 0.9128 0.9130 0.9132
2601.956710 0.9134 0.9136 0.9139 0.9141 0.9143
2597.104164 0.9145 0.9147 0.9149 0.9151 0.9153
2592.251618 0.9155 0.9157 0.9159 0.9161 0.9164
2587.399072 0.9166 0.9168 0.9170 0.9173 0.9177
2582.546526 0.9181 0.9185 0.9189 0.9193 0.9197
2577.693980 0.9201 0.9204 0.9208 0.9212 0.9216
2572.841435 0.9220 0.9224 0.9227 0.9231 0.9235
2567.988889 0.9238 0.9242 0.9246 0.9249 0.9253
2563.136343 0.9257 0.9261 0.9265 0.9269 0.9273
2558.283797 0.9276 0.9280 0.9284 0.9289 0.9293
2553.431251 0.9298 0.9302 0.9306 0.9311 0.9315
2548.578705 0.9319 0.9323 0.9327 0.9332 0.9337
2543.726159 0.9341 0.9346 0.9350 0.9355 0.9359
2538.873613 0.9364 0.9369 0.9373 0.9377 0.9382
2534.021067 0.9387 0.9391 0.9396 0.9400 0.9405
2529.168521 0.9409 0.9413 0.9417 0.9420 0.9424
2524.315975 0.9429 0.9433 0.9437 0.9441 0.9445
2519.463429 0.9449 0.9453 0.9457 0.9461 0.9465
2514.610883 0.9469 0.9473 0.9477 0.9482 0.9486
2509.758337 0.9490 0.9494 0.9498 0.9502 0.9506
2504.905791 0.9510 0.9515 0.9518 0.9523 0.9527
2500.053245 0.9530 0.9533 0.9536 0.9538 0.9540
2495.200699 0.9541 0.9543 0.9544 0.9546 0.9548
2490.348153 0.9550 0.9551 0.9553 0.9553 0.9553
2485.495607 0.9552 0.9551 0.9549 0.9548 0.9547
2480.643061 0.9545 0.9544 0.9543 0.9542 0.9541
2475.790516 0.9539 0.9539 0.9538 0.9537 0.9536
2470.937970 0.9534 0.9534 0.9533 0.9532 0.9531
2466.085424 0.9531 0.9530 0.9528 0.9528 0.9527
2461.232878 0.9525 0.9525 0.9524 0.9523 0.9521
2456.380332 0.9518 0.9518 0.9517 0.9516 0.9514
2451.527786 0.9512 0.9511 0.9509 0.9508 0.9507
2446.675240 0.9505 0.9504 0.9502 0.9500 0.9499
2441.822694 0.9497 0.9496 0.9495 0.9493 0.9492
2436.970148 0.9490 0.9488 0.9487 0.9486 0.9486
2432.117602 0.9486 0.9486 0.9487 0.9487 0.9487
2427.265056 0.9488 0.9488 0.9489 0.9490 0.9491
2422.412510 0.9492 0.9494 0.9495 0.9497 0.9498
2417.559964 0.9500 0.9501 0.9502 0.9503 0.9504
2412.707418 0.9504 0.9504 0.9505 0.9506 0.9507
2407.854872 0.9507 0.9508 0.9508 0.9508 0.9508
2403.002326 0.9508 0.9508 0.9508 0.9508 0.9508
2398.149780 0.9508 0.9506 0.9504 0.9501 0.9498
2393.297234 0.9495 0.9491 0.9488 0.9484 0.9480
2388.444688 0.9477 0.9474 0.9471 0.9468 0.9465
2383.592143 0.9462 0.9459 0.9456 0.9455 0.9453
2378.739597 0.9451 0.9449 0.9447 0.9446 0.9445
2373.887051 0.9445 0.9445 0.9444 0.9444 0.9444
2369.034505 0.9444 0.9444 0.9444 0.9444 0.9447
2364.181959 0.9449 0.9452 0.9454 0.9457 0.9460
2359.329413 0.9462 0.9465 0.9468 0.9470 0.9472
2354.476867 0.9475 0.9477 0.9479 0.9482 0.9485
2349.624321 0.9487 0.9489 0.9492 0.9495 0.9497
2344.771775 0.9500 0.9503 0.9506 0.9509 0.9512
2339.919229 0.9515 0.9518 0.9521 0.9523 0.9526
2335.066683 0.9529 0.9533 0.9536 0.9539 0.9542
2330.214137 0.9545 0.9548 0.9551 0.9553 0.9556
2325.361591 0.9559 0.9561 0.9564 0.9566 0.9569
2320.509045 0.9572 0.9575 0.9578 0.9580 0.9583
2315.656499 0.9586 0.9589 0.9591 0.9594 0.9596
2310.803953 0.9599 0.9601 0.9603 0.9606 0.9608
2305.951407 0.9611 0.9613 0.9616 0.9619 0.9621
2301.098861 0.9623 0.9626 0.9628 0.9631 0.9633
2296.246315 0.9635 0.9637 0.9640 0.9642 0.9644
2291.393770 0.9647 0.9649 0.9651 0.9653 0.9655
2286.541224 0.9657 0.9660 0.9662 0.9664 0.9666
2281.688678 0.9668 0.9670 0.9671 0.9673 0.9675
2276.836132 0.9675 0.9677 0.9678 0.9680 0.9681
2271.983586 0.9682 0.9684 0.9685 0.9687 0.9688
2267.131040 0.9689 0.9691 0.9692 0.9694 0.9695
2262.278494 0.9697 0.9698 0.9699 0.9700 0.9700
2257.425948 0.9701 0.9701 0.9700 0.9700 0.9700
2252.573402 0.9700 0.9700 0.9700 0.9700 0.9700
2247.720856 0.9700 0.9700 0.9700 0.9699 0.9699
2242.868310 0.9699 0.9699 0.9699 0.9699 0.9699
2238.015764 0.9699 0.9699 0.9699 0.9698 0.9698
2233.163218 0.9698 0.9698 0.9698 0.9698 0.9698
2228.310672 0.9698 0.9698 0.9698 0.9698 0.9698
2223.458126 0.9697 0.9697 0.9697 0.9697 0.9697
2218.605580 0.9697 0.9697 0.9697 0.9697 0.9697
2213.753034 0.9696 0.9696 0.9696 0.9696 0.9697
2208.900488 0.9697 0.9698 0.9698 0.9698 0.9698
2204.047942 0.9699 0.9699 0.9700 0.9700 0.9700
2199.195396 0.9700 0.9701 0.9701 0.9701 0.9701
2194.342851 0.9702 0.9702 0.9703 0.9703 0.9703
2189.490305 0.9703 0.9704 0.9704 0.9705 0.9705
2184.637759 0.9705 0.9705 0.9705 0.9705 0.9706
2179.785213 0.9706 0.9706 0.9706 0.9707 0.9707
2174.932667 0.9706 0.9706 0.9705 0.9704 0.9703
2170.080121 0.9702 0.9701 0.9700 0.9698 0.9697
2165.227575 0.9696 0.9695 0.9694 0.9693 0.9692
2160.375029 0.9691 0.9690 0.9689 0.9688 0.9687
2155.522483 0.9686 0.9686 0.9686 0.9685 0.9685
2150.669937 0.9684 0.9684 0.9683 0.9682 0.9682
2145.817391 0.9681 0.9681 0.9680 0.9680 0.9680
2140.964845 0.9680 0.9678 0.9678 0.9678 0.9678
2136.112299 0.9678 0.9678 0.9678 0.9681 0.9682
2131.259753 0.9683 0.9684 0.9685 0.9686 0.9687
2126.407207 0.9688 0.9689 0.9689 0.9691 0.9692
2121.554661 0.9694 0.9696 0.9697 0.9699 0.9700
2116.702115 0.9701 0.9703 0.9704 0.9706 0.9708
2111.849569 0.9709 0.9711 0.9712 0.9713 0.9715
2106.997023 0.9717 0.9718 0.9720 0.9721 0.9723
2102.144478 0.9724 0.9725 0.9727 0.9728 0.9730
2097.291932 0.9731 0.9732 0.9733 0.9734 0.9735
2092.439386 0.9736 0.9737 0.9738 0.9739 0.9740
2087.586840 0.9741 0.9742 0.9743 0.9745 0.9746
2082.734294 0.9747 0.9748 0.9749 0.9750 0.9751
2077.881748 0.9752 0.9754 0.9755 0.9756 0.9756
2073.029202 0.9757 0.9757 0.9758 0.9758 0.9758
2068.176656 0.9759 0.9759 0.9759 0.9759 0.9760
2063.324110 0.9760 0.9760 0.9761 0.9761 0.9761
2058.471564 0.9761 0.9761 0.9762 0.9762 0.9762
2053.619018 0.9762 0.9763 0.9763 0.9763 0.9764
2048.766472 0.9764 0.9764 0.9764 0.9765 0.9765
2043.913926 0.9765 0.9766 0.9766 0.9766 0.9766
2039.061380 0.9766 0.9767 0.9767 0.9767 0.9767
2034.208834 0.9768 0.9768 0.9768 0.9768 0.9768
2029.356288 0.9768 0.9768 0.9768 0.9769 0.9770
2024.503742 0.9770 0.9770 0.9770 0.9770 0.9770
2019.651196 0.9770 0.9770 0.9770 0.9770 0.9770
2014.798650 0.9770 0.9771 0.9771 0.9771 0.9771
2009.946104 0.9771 0.9771 0.9771 0.9771 0.9771
2005.093559 0.9771 0.9770 0.9770 0.9769 0.9768
2000.241013 0.9768 0.9768 0.9768 0.9768 0.9768
1995.388467 0.9768 0.9768 0.9767 0.9767 0.9767
1990.535921 0.9766 0.9766 0.9766 0.9766 0.9766
1985.683375 0.9765 0.9765 0.9765 0.9764 0.9764
1980.830829 0.9764 0.9764 0.9763 0.9763 0.9763
1975.978283 0.9762 0.9761 0.9761 0.9761 0.9760
1971.125737 0.9760 0.9760 0.9760 0.9759 0.9758
1966.273191 0.9756 0.9754 0.9752 0.9750 0.9747
1961.420645 0.9745 0.9742 0.9739 0.9736 0.9734
1956.568099 0.9731 0.9727 0.9724 0.9720 0.9718
1951.715553 0.9715 0.9712 0.9709 0.9706 0.9703
1946.863007 0.9698 0.9693 0.9688 0.9683 0.9677
1942.010461 0.9673 0.9667 0.9663 0.9658 0.9653
1937.157915 0.9648 0.9642 0.9635 0.9627 0.9619
1932.305369 0.9610 0.9602 0.9594 0.9582 0.9567
1927.452823 0.9548 0.9527 0.9504 0.9474 0.9445
1922.600277 0.9416 0.9398 0.9383 0.9371 0.9366
1917.747731 0.9362 0.9361 0.9361 0.9361 0.9366
1912.895186 0.9371 0.9378 0.9387 0.9395 0.9402
1908.042640 0.9409 0.9416 0.9423 0.9430 0.9435
1903.190094 0.9438 0.9440 0.9440 0.9439 0.9435
1898.337548 0.9419 0.9397 0.9372 0.9347 0.9322
1893.485002 0.9297 0.9271 0.9246 0.9221 0.9196
1888.632456 0.9183 0.9164 0.9172 0.9181 0.9191
1883.779910 0.9206 0.9239 0.9270 0.9297 0.9321
1878.927364 0.9346 0.9371 0.9397 0.9424 0.9449
1874.074818 0.9466 0.9480 0.9492 0.9503 0.9516
1869.222272 0.9527 0.9535 0.9537 0.9537 0.9538
1864.369726 0.9539 0.9539 0.9539 0.9539 0.9539
1859.517180 0.9539 0.9539 0.9540 0.9541 0.9543
1854.664634 0.9546 0.9548 0.9551 0.9555 0.9560
1849.812088 0.9565 0.9571 0.9576 0.9581 0.9587
1844.959542 0.9592 0.9597 0.9601 0.9606 0.9611
1840.106996 0.9615 0.9620 0.9625 0.9630 0.9634
1835.254450 0.9639 0.9644 0.9648 0.9652 0.9655
1830.401904 0.9659 0.9663 0.9666 0.9669 0.9672
1825.549358 0.9674 0.9674 0.9672 0.9670 0.9668
1820.696813 0.9666 0.9664 0.9661 0.9659 0.9657
1815.844267 0.9655 0.9652 0.9648 0.9644 0.9640
1810.991721 0.9637 0.9634 0.9630 0.9626 0.9623
1806.139175 0.9619 0.9616 0.9612 0.9609 0.9606
1801.286629 0.9604 0.9601 0.9599 0.9596 0.9594
1796.434083 0.9591 0.9590 0.9588 0.9588 0.9588
1791.581537 0.9588 0.9590 0.9595 0.9599 0.9604
1786.728991 0.9609 0.9613 0.9613 0.9612 0.9610
1781.876445 0.9606 0.9595 0.9583 0.9570 0.9557
1777.023899 0.9544 0.9532 0.9521 0.9514 0.9507
1772.171353 0.9506 0.9504 0.9502 0.9501 0.9501
1767.318807 0.9505 0.9515 0.9524 0.9535 0.9546
1762.466261 0.9557 0.9568 0.9578 0.9587 0.9597
1757.613715 0.9607 0.9616 0.9626 0.9635 0.9645
1752.761169 0.9656 0.9670 0.9684 0.9697 0.9711
1747.908623 0.9722 0.9731 0.9741 0.9750 0.9759
1743.056077 0.9768 0.9778 0.9787 0.9794 0.9799
1738.203531 0.9805 0.9811 0.9816 0.9820 0.9823
1733.350985 0.9825 0.9826 0.9827 0.9827 0.9825
1728.498439 0.9822 0.9819 0.9816 0.9812 0.9804
1723.645894 0.9795 0.9785 0.9775 0.9765 0.9755
1718.793348 0.9745 0.9735 0.9726 0.9716 0.9706
1713.940802 0.9696 0.9687 0.9677 0.9667 0.9659
1709.088256 0.9650 0.9640 0.9631 0.9622 0.9614
1704.235710 0.9605 0.9595 0.9586 0.9576 0.9565
1699.383164 0.9555 0.9545 0.9534 0.9522 0.9512
1694.530618 0.9501 0.9491 0.9480 0.9469 0.9459
1689.678072 0.9449 0.9438 0.9428 0.9416 0.9406
1684.825526 0.9396 0.9385 0.9374 0.9362 0.9349
1679.972980 0.9336 0.9323 0.9310 0.9297 0.9283
1675.120434 0.9267 0.9250 0.9233 0.9213 0.9190
1670.267888 0.9170 0.9151 0.9134 0.9121 0.9121
1665.415342 0.9121 0.9123 0.9125 0.9127 0.9127
1660.562796 0.9127 0.9125 0.9124 0.9123 0.9118
1655.710250 0.9111 0.9104 0.9097 0.9090 0.9083
1650.857704 0.9075 0.9066 0.9057 0.9047 0.9038
1646.005158 0.9029 0.9017 0.9001 0.8983 0.8967
1641.152612 0.8947 0.8918 0.8881 0.8839 0.8785
1636.300066 0.8723 0.8647 0.8577 0.8518 0.8452
1631.447521 0.8366 0.8229 0.8076 0.7972 0.7898
1626.594975 0.7828 0.7765 0.7704 0.7638 0.7531
1621.742429 0.7406 0.7309 0.7225 0.7133 0.7031
1616.889883 0.6932 0.6834 0.6720 0.6584 0.6449
1612.037337 0.6337 0.6167 0.5771 0.5281 0.4958
1607.184791 0.4634 0.4311 0.3987 0.3661 0.3342
1602.332245 0.3119 0.3105 0.3174 0.3461 0.3724
1597.479699 0.3988 0.4253 0.4517 0.4795 0.5060
1592.627153 0.5060 0.5023 0.4908 0.4748 0.4588
1587.774607 0.4427 0.4267 0.4106 0.3954 0.3871
1582.922061 0.3877 0.3882 0.3985 0.4261 0.4570
1578.069515 0.4881 0.5191 0.5501 0.5812 0.6123
1573.216969 0.6435 0.6747 0.7060 0.7373 0.7633
1568.364423 0.7740 0.7808 0.7884 0.7976 0.8040
1563.511877 0.8086 0.8129 0.8171 0.8211 0.8240
1558.659331 0.8258 0.8271 0.8281 0.8296 0.8292
1553.806785 0.8286 0.8280 0.8268 0.8244 0.8204
1548.954239 0.8156 0.8100 0.7988 0.7825 0.7653
1544.101693 0.7484 0.7316 0.7209 0.7158 0.7117
1539.249147 0.7072 0.7023 0.6972 0.6919 0.6864
1534.396602 0.6806 0.6725 0.6586 0.6365 0.6096
1529.544056 0.5828 0.5560 0.5291 0.5021 0.4751
1524.691510 0.4481 0.4210 0.3939 0.3680 0.3473
1519.838964 0.3327 0.3185 0.3044 0.2902 0.2759
1514.986418 0.2617 0.2483 0.2387 0.2351 0.2342
1510.133872 0.2339 0.2340 0.2342 0.2352 0.2367
1505.281326 0.2395 0.2444 0.2529 0.2672 0.2839
1500.428780 0.3027 0.3250 0.3477 0.3707 0.3936
1495.576234 0.4165 0.4395 0.4624 0.4854 0.5084
1490.723688 0.5315 0.5546 0.5777 0.6009 0.6219
1485.871142 0.6292 0.6346 0.6374 0.6387 0.6385
1481.018596 0.6393 0.6389 0.6374 0.6340 0.6294
1476.166050 0.6234 0.6140 0.5775 0.5265 0.4754
1471.313504 0.4518 0.4318 0.4145 0.3996 0.3848
1466.460958 0.3699 0.3550 0.3400 0.3250 0.3101
1461.608412 0.2931 0.2797 0.2739 0.2710 0.2690
1456.755866 0.2681 0.2675 0.2673 0.2674 0.2678
1451.903320 0.2716 0.2805 0.2896 0.2969 0.3052
1447.050774 0.3125 0.3201 0.3324 0.3511 0.3722
1442.198229 0.3933 0.4145 0.4358 0.4556 0.4696
1437.345683 0.4780 0.4866 0.4951 0.5034 0.5133
1432.493137 0.5234 0.5334 0.5491 0.5709 0.5929
1427.640591 0.6149 0.6370 0.6590 0.6808 0.6993
1422.788045 0.7075 0.7142 0.7196 0.7245 0.7294
1417.935499 0.7355 0.7448 0.7561 0.7644 0.7694
1413.082953 0.7743 0.7795 0.7839 0.7879 0.7909
1408.230407 0.7936 0.7955 0.7970 0.7983 0.7991
1403.377861 0.7988 0.7989 0.7989 0.7977 0.7966
1398.525315 0.7954 0.7929 0.7902 0.7855 0.7774
1393.672769 0.7683 0.7590 0.7469 0.7319 0.7119
1388.820223 0.6865 0.6604 0.6341 0.6078 0.5815
1383.967677 0.5551 0.5287 0.5023 0.4758 0.4493
1379.115131 0.4228 0.4081 0.4059 0.4063 0.4076
1374.262585 0.4121 0.4195 0.4276 0.4369 0.4457
1369.410039 0.4536 0.4642 0.4824 0.5056 0.5230
1364.557493 0.5353 0.5466 0.5578 0.5691 0.5804
1359.704947 0.5916 0.6030 0.6143 0.6257 0.6357
1354.852401 0.6412 0.6438 0.6459 0.6487 0.6524
1349.999856 0.6593 0.6694 0.6800 0.6905 0.7010
1345.147310 0.7083 0.7123 0.7137 0.7132 0.7123
1340.294764 0.7108 0.7091 0.7079 0.7071 0.7068
1335.442218 0.7069 0.7071 0.7070 0.7064 0.7045
1330.589672 0.7012 0.6967 0.6876 0.6668 0.6375
1325.737126 0.6082 0.5788 0.5494 0.5203 0.4875
1320.884580 0.4541 0.4351 0.4218 0.4085 0.3952
1316.032034 0.3818 0.3684 0.3567 0.3502 0.3476
1311.179488 0.3464 0.3470 0.3484 0.3523 0.3592
1306.326942 0.3669 0.3748 0.3823 0.3898 0.3973
1301.474396 0.4049 0.4126 0.4210 0.4300 0.4398
1296.621850 0.4505 0.4608 0.4704 0.4831 0.4975
1291.769304 0.5120 0.5265 0.5409 0.5553 0.5698
1286.916758 0.5843 0.5987 0.6100 0.6075 0.6080
1282.064212 0.6043 0.5985 0.5926 0.5868 0.5809
1277.211666 0.5750 0.5691 0.5633 0.5573 0.5513
1272.359120 0.5455 0.5396 0.5336 0.5276 0.5196
1267.506574 0.5198 0.5212 0.5235 0.5267 0.5304
1262.654028 0.5325 0.5338 0.5352 0.5347 0.5339
1257.801482 0.5332 0.5320 0.5304 0.5287 0.5272
1252.948937 0.5257 0.5243 0.5232 0.5211 0.5219
1248.096391 0.5231 0.5250 0.5276 0.5330 0.5394
1243.243845 0.5465 0.5553 0.5717 0.5949 0.6201
1238.391299 0.6451 0.6719 0.6934 0.7064 0.7392
1233.538753 0.7678 0.7804 0.7970 0.8135 0.8261
1228.686207 0.8355 0.8429 0.8500 0.8569 0.8637
1223.833661 0.8699 0.8751 0.8796 0.8832 0.8859
1218.981115 0.8884 0.8909 0.8932 0.8951 0.8970
1214.128569 0.8988 0.9003 0.9017 0.9029 0.9051
1209.276023 0.9072 0.9049 0.9050 0.9051 0.9049
1204.423477 0.9042 0.9033 0.9013 0.8989 0.8963
1199.570931 0.8925 0.8874 0.8822 0.8754 0.8665
1194.718385 0.8575 0.8480 0.8388 0.8324 0.8281
1189.865839 0.8239 0.8196 0.8154 0.8109 0.8066
1185.013293 0.7990 0.7904 0.7820 0.7749 0.7680
1180.160747 0.7610 0.7526 0.7403 0.7237 0.6504
1175.308201 0.6063 0.5707 0.5356 0.5005 0.4652
1170.455655 0.4299 0.3972 0.3914 0.3891 0.3903
1165.603109 0.3956 0.4041 0.4132 0.4223 0.4314
1160.750564 0.4357 0.4375 0.4394 0.4424 0.4459
1155.898018 0.4500 0.4631 0.4923 0.5280 0.5614
1151.045472 0.5981 0.6293 0.6486 0.6585 0.6619
1146.192926 0.6627 0.6620 0.6600 0.6586 0.6597
1141.340380 0.6651 0.6749 0.6864 0.6979 0.7094
1136.487834 0.7209 0.7325 0.7432 0.7509 0.7560
1131.635288 0.7603 0.7635 0.7666 0.7700 0.7735
1126.782742 0.7770 0.7805 0.7842 0.7881 0.7918
1121.930196 0.7952 0.7985 0.8017 0.8053 0.8105
1117.077650 0.8159 0.8213 0.8267 0.8320 0.8372
1112.225104 0.8412 0.8411 0.8408 0.8382 0.8334
1107.372558 0.8262 0.8166 0.8031 0.7895 0.7759
1102.520012 0.7622 0.7459 0.7454 0.7503 0.7628
1097.667466 0.7758 0.7888 0.8018 0.8147 0.8263
1092.814920 0.8326 0.8379 0.8425 0.8467 0.8508
1087.962374 0.8528 0.8533 0.8531 0.8529 0.8528
1083.109828 0.8530 0.8542 0.8567 0.8591 0.8608
1078.257282 0.8622 0.8622 0.8606 0.8576 0.8499
1073.404736 0.8383 0.8261 0.8138 0.8016 0.7894
1068.552190 0.7788 0.7736 0.7751 0.7834 0.7968
1063.699645 0.8102 0.8237 0.8372 0.8500 0.8582
1058.847099 0.8596 0.8599 0.8531 0.8358 0.8178
1053.994553 0.7998 0.7818 0.7637 0.7457 0.7276
1049.142007 0.7094 0.6916 0.6776 0.6751 0.6767
1044.289461 0.6866 0.7045 0.7224 0.7404 0.7584
1039.436915 0.7764 0.7946 0.8127 0.8309 0.8332
1034.584369 0.8335 0.8336 0.8341 0.8350 0.8363
1029.731823 0.8383 0.8413 0.8453 0.8497 0.8534
1024.879277 0.8570 0.8570 0.8558 0.8524 0.8394
1020.026731 0.8192 0.7980 0.7770 0.7560 0.7349
1015.174185 0.7146 0.7031 0.6962 0.6895 0.6857
1010.321639 0.6851 0.6858 0.6876 0.6903 0.6936
1005.469093 0.6979 0.7022 0.7073 0.7141 0.7221
1000.616547 0.7285 0.7319 0.7334 0.7332 0.7314
995.764001 0.7301 0.7311 0.7367 0.7518 0.7686
990.911455 0.7866 0.8046 0.8226 0.8407 0.8588
986.058909 0.8769 0.8905 0.8952 0.8955 0.8974
981.206363 0.8968 0.8948 0.8918 0.8884 0.8846
976.353817 0.8794 0.8735 0.8676 0.8622 0.8594
971.501272 0.8589 0.8593 0.8596 0.8600 0.8605
966.648726 0.8597 0.8590 0.8616 0.8619 0.8624
961.796180 0.8628 0.8632 0.8637 0.8644 0.8651
956.943634 0.8659 0.8668 0.8681 0.8722 0.8776
952.091088 0.8834 0.8891 0.8950 0.9010 0.9068
947.238542 0.9122 0.9169 0.9206 0.9216 0.9208
942.385996 0.9165 0.9096 0.9038 0.8999 0.8979
937.533450 0.8984 0.9007 0.9033 0.9049 0.9042
932.680904 0.9011 0.8968 0.8914 0.8850 0.8771
927.828358 0.8686 0.8601 0.8521 0.8434 0.8341
922.975812 0.8212 0.8230 0.8248 0.8431 0.8663
918.123266 0.8841 0.9013 0.9185 0.9357 0.9493
913.270720 0.9582 0.9635 0.9676 0.9713 0.9748
908.418174 0.9782 0.9814 0.9841 0.9864 0.9883
903.565628 0.9899 0.9913 0.9925 0.9934 0.9941
898.713082 0.9944 0.9944 0.9945 0.9942 0.9931
893.860536 0.9916 0.9899 0.9879 0.9855 0.9829
889.007990 0.9805 0.9783 0.9766 0.9764 0.9763
884.155444 0.9785 0.9812 0.9838 0.9855 0.9865
879.302899 0.9875 0.9880 0.9877 0.9871 0.9861
874.450353 0.9849 0.9836 0.9820 0.9805 0.9788
869.597807 0.9769 0.9750 0.9727 0.9699 0.9669
864.745261 0.9638 0.9602 0.9562 0.9520 0.9477
859.892715 0.9436 0.9398 0.9369 0.9341 0.9318
855.040169 0.9303 0.9295 0.9295 0.9296 0.9297
850.187623 0.9298 0.9290 0.9265 0.9222 0.9162
845.335077 0.9097 0.9033 0.8970 0.8901 0.8832
840.482531 0.8777 0.8753 0.8771 0.8819 0.8866
835.629985 0.8906 0.8943 0.8971 0.8985 0.8995
830.777439 0.9001 0.8973 0.8961 0.8949 0.8924
825.924893 0.8890 0.8845 0.8764 0.8695 0.8649
821.072347 0.8609 0.8575 0.8545 0.8517 0.8490
816.219801 0.8457 0.8454 0.8457 0.8467 0.8501
811.367255 0.8553 0.8608 0.8655 0.8688 0.8710
806.514709 0.8722 0.8720 0.8700 0.8667 0.8644
801.662163 0.8649 0.8674 0.8709 0.8752 0.8801
796.809617 0.8849 0.8885 0.8907 0.8916 0.8899
791.957071 0.8873 0.8845 0.8820 0.8797 0.8773
787.104525 0.8752 0.8736 0.8721 0.8695 0.8653
782.251980 0.8586 0.8499 0.8392 0.8285 0.8194
777.399434 0.8114 0.8040 0.7985 0.7942 0.7935
772.546888 0.7959 0.7982 0.8023 0.8088 0.8168
767.694342 0.8241 0.8299 0.8336 0.8347 0.8338
762.841796 0.8295 0.8228 0.8122 0.7932 0.7744
757.989250 0.7538 0.7368 0.7156 0.6809 0.6310
753.136704 0.5877 0.5453 0.5027 0.4601 0.4172
748.284158 0.3743 0.3328 0.2917 0.2630 0.2470
743.431612 0.2370 0.2287 0.2249 0.2273 0.2344
738.579066 0.2460 0.2635 0.2853 0.3088 0.3426
733.726520 0.3780 0.4136 0.4491 0.4849 0.5207
728.873974 0.5566 0.5918 0.6203 0.6477 0.6816
724.021428 0.7056 0.7238 0.7428 0.7619 0.7811
719.168882 0.8003 0.8194 0.8387 0.8554 0.8687
714.316336 0.8802 0.8903 0.8985 0.9052 0.9102
709.463790 0.9143 0.9180 0.9213 0.9245 0.9277
704.611244 0.9303 0.9320 0.9335 0.9348 0.9358
699.758698 0.9366 0.9371 0.9374 0.9377 0.9377
694.906152 0.9375 0.9375 0.9371 0.9371 0.9371
690.053607 0.9356 0.9349 0.9344 0.9337 0.9333
685.201061 0.9329 0.9326 0.9324 0.9315 0.9299
680.348515 0.9281 0.9258 0.9239 0.9235 0.9235
675.495969 0.9232 0.9224 0.9213 0.9200 0.9178
670.643423 0.9146 0.9101 0.9048 0.9004 0.9003
665.790877 0.9003 0.9005 0.9004 0.9001 0.8989
660.938331 0.8973 0.8954 0.8918 0.8882 0.8839
656.085785 0.8794 0.8734 0.8674 0.8615 0.8554
651.233239 0.8490 0.8425 0.8360 0.8305 0.8262
646.380693 0.8225 0.8190 0.8162 0.8138 0.8113
641.528147 0.8090 0.8074 0.8065 0.8062 0.8066
636.675601 0.8075 0.8090 0.8099 0.8099 0.8095
631.823055 0.8081 0.8056 0.8029 0.8004 0.7974
626.970509 0.7942
##END=
