##TITLE=Aniline, 2-methyl-4-(1',1',3',3'-tetramethylbutyl)-
##JCAMP-DX=4.24
##DATA TYPE=INFRARED SPECTRUM
##CLASS=COBLENTZ III
##ORIGIN=MONSANTO (J. FREEMAN)
##OWNER=Copyright (C) 1987 by the Coblentz Society
Collection (C) 2018 copyright by the U.S. Secretary of Commerce
on behalf of the United States of America. All rights reserved.
##DATE=1959/06/10
##NAMES=2-methyl-4-(1,1,3,3-tetramethylbutyl)phenylamine
2-methyl-4-(1,1,3,3-tetramethylbutyl)aniline
##MOLFORM=C15 H25 N
##BP=158 C
##SOURCE REFERENCE=COBLENTZ NO. 9276
##$NIST ID=B6009276
##$NIST SOURCE=COBLENTZ
##$NIST IMAGE=cob9276
##SPECTROMETER/DATA SYSTEM=BECKMAN IR-4 (HYBRID PRISM-GRATING)
##INSTRUMENT PARAMETERS=NaCl PRISM
##STATE=LIQUID (NEAT)
##PATH LENGTH=CAPILLARY
##SAMPLING PROCEDURE=TRANSMISSION
##RESOLUTION=2
##DATA PROCESSING=DIGITIZED BY COBLENTZ SOCIETY (BATCH II) FROM HARD COPY
##XUNITS=1/CM
##YUNITS=TRANSMITTANCE
##XFACTOR=1.0
##YFACTOR=1
##FIRSTX=627
##LASTX=4000
##FIRSTY=0.4794
##MAXX=4000
##MINX=627
##MAXY=0.9557
##MINY=0.0366
##NPOINTS=3374
##XYDATA=(X++(Y..Y))
627.000000 0.4794 0.4750 0.4697 0.4636 0.4581
632.000000 0.4545 0.4510 0.4490 0.4493 0.4482
637.000000 0.4442 0.4395 0.4351 0.4306 0.4266
642.000000 0.4230 0.4194 0.4154 0.4116 0.4082
647.000000 0.4050 0.4028 0.4005 0.3990 0.3980
652.000000 0.3970 0.3969 0.3968 0.3915 0.3891
657.000000 0.3876 0.3865 0.3857 0.3848 0.3838
662.000000 0.3827 0.3816 0.3844 0.3789 0.3785
667.000000 0.3795 0.3845 0.3913 0.4008 0.4111
672.000000 0.4214 0.4317 0.4420 0.4507 0.4586
677.000000 0.4628 0.4672 0.4663 0.4666 0.4657
682.000000 0.4629 0.4603 0.4576 0.4547 0.4517
687.000000 0.4488 0.4465 0.4452 0.4445 0.4449
692.000000 0.4460 0.4488 0.4501 0.4529 0.4539
697.000000 0.4547 0.4554 0.4561 0.4568 0.4577
702.000000 0.4587 0.4594 0.4606 0.4618 0.4635
707.000000 0.4653 0.4686 0.4720 0.4754 0.4787
712.000000 0.4821 0.4858 0.4897 0.4936 0.4976
717.000000 0.5016 0.5066 0.5114 0.5161 0.5205
722.000000 0.5244 0.5283 0.5320 0.5320 0.5311
727.000000 0.5264 0.5130 0.4952 0.4730 0.4505
732.000000 0.4266 0.4025 0.3964 0.3964 0.3988
737.000000 0.3993 0.4036 0.4087 0.4130 0.4152
742.000000 0.4169 0.4178 0.4182 0.4187 0.4194
747.000000 0.4207 0.4224 0.4253 0.4296 0.4399
752.000000 0.4517 0.4634 0.4752 0.4869 0.4985
757.000000 0.5101 0.5217 0.5333 0.5448 0.5563
762.000000 0.5678 0.5788 0.5899 0.6000 0.6085
767.000000 0.6149 0.6217 0.6292 0.6366 0.6410
772.000000 0.6425 0.6429 0.6434 0.6435 0.6435
777.000000 0.6440 0.6446 0.6453 0.6460 0.6469
782.000000 0.6481 0.6491 0.6504 0.6516 0.6534
787.000000 0.6554 0.6575 0.6596 0.6618 0.6639
792.000000 0.6656 0.6673 0.6665 0.6676 0.6661
797.000000 0.6631 0.6579 0.6522 0.6448 0.6319
802.000000 0.6165 0.5980 0.5758 0.5514 0.5148
807.000000 0.4630 0.4112 0.3596 0.3082 0.2568
812.000000 0.2016 0.1531 0.1316 0.1226 0.1190
817.000000 0.1183 0.1169 0.1225 0.1277 0.1344
822.000000 0.1458 0.1745 0.2041 0.2335 0.2630
827.000000 0.2923 0.3216 0.3516 0.3796 0.4006
832.000000 0.4197 0.4405 0.4633 0.4934 0.5174
837.000000 0.5382 0.5580 0.5735 0.5879 0.6016
842.000000 0.6135 0.6248 0.6325 0.6400 0.6475
847.000000 0.6550 0.6636 0.6721 0.6802 0.6878
852.000000 0.6946 0.7000 0.7054 0.7097 0.7132
857.000000 0.7167 0.7194 0.7219 0.7241 0.7254
862.000000 0.7262 0.7275 0.7242 0.7202 0.7138
867.000000 0.7057 0.6967 0.6916 0.6881 0.6850
872.000000 0.6809 0.6717 0.6451 0.6027 0.5605
877.000000 0.5184 0.4764 0.4345 0.4015 0.3976
882.000000 0.3947 0.4123 0.4471 0.4819 0.5165
887.000000 0.5511 0.5855 0.6200 0.6544 0.6989
892.000000 0.7107 0.7126 0.7147 0.7041 0.6963
897.000000 0.6889 0.6821 0.6740 0.6717 0.6738
902.000000 0.6795 0.6898 0.7051 0.7266 0.7480
907.000000 0.7601 0.7652 0.7673 0.7683 0.7684
912.000000 0.7691 0.7639 0.7548 0.7380 0.7207
917.000000 0.7035 0.6864 0.6692 0.6521 0.6350
922.000000 0.6179 0.6102 0.6279 0.6437 0.6594
927.000000 0.6713 0.6808 0.6909 0.6987 0.7047
932.000000 0.7095 0.7137 0.7172 0.7190 0.7203
937.000000 0.7207 0.7205 0.7271 0.7187 0.7173
942.000000 0.7152 0.7130 0.7133 0.7137 0.7188
947.000000 0.7267 0.7383 0.7512 0.7649 0.7800
952.000000 0.7921 0.7998 0.8041 0.8077 0.8109
957.000000 0.8141 0.8164 0.8181 0.8197 0.8258
962.000000 0.8212 0.8210 0.8198 0.8178 0.8136
967.000000 0.8050 0.7941 0.7860 0.7787 0.7697
972.000000 0.7541 0.7364 0.7190 0.7015 0.6840
977.000000 0.6667 0.6532 0.6471 0.6455 0.6594
982.000000 0.6842 0.7091 0.7258 0.7278 0.7297
987.000000 0.7252 0.6993 0.6736 0.6478 0.6221
992.000000 0.5964 0.5707 0.5452 0.5349 0.5371
997.000000 0.5667 0.5971 0.6275 0.6579 0.6881
1002.000000 0.7182 0.7468 0.7524 0.7535 0.7544
1007.000000 0.7557 0.7582 0.7628 0.7721 0.7850
1012.000000 0.8030 0.8199 0.8309 0.8348 0.8382
1017.000000 0.8403 0.8413 0.8423 0.8425 0.8416
1022.000000 0.8416 0.8400 0.8340 0.8225 0.8110
1027.000000 0.7996 0.7881 0.7767 0.7653 0.7539
1032.000000 0.7426 0.7313 0.7211 0.7144 0.7121
1037.000000 0.7175 0.7334 0.7513 0.7691 0.7869
1042.000000 0.8054 0.8181 0.8240 0.8270 0.8287
1047.000000 0.8301 0.8304 0.8331 0.8299 0.8294
1052.000000 0.8283 0.8270 0.8248 0.8224 0.8196
1057.000000 0.8167 0.8138 0.8106 0.8067 0.8029
1062.000000 0.7990 0.7949 0.7905 0.7860 0.7816
1067.000000 0.7776 0.7736 0.7697 0.7661 0.7625
1072.000000 0.7601 0.7589 0.7579 0.7588 0.7599
1077.000000 0.7613 0.7633 0.7656 0.7682 0.7707
1082.000000 0.7731 0.7754 0.7778 0.7806 0.7833
1087.000000 0.7861 0.7895 0.7929 0.7962 0.7996
1092.000000 0.8020 0.8035 0.8035 0.8096 0.7991
1097.000000 0.7942 0.7895 0.7844 0.7791 0.7712
1102.000000 0.7640 0.7568 0.7595 0.7645 0.7865
1107.000000 0.8028 0.8175 0.8254 0.8290 0.8298
1112.000000 0.8299 0.8304 0.8282 0.8244 0.8143
1117.000000 0.8033 0.7933 0.7852 0.7772 0.7676
1122.000000 0.7563 0.7470 0.7392 0.7321 0.7278
1127.000000 0.7257 0.7252 0.7262 0.7313 0.7398
1132.000000 0.7490 0.7577 0.7663 0.7759 0.7814
1137.000000 0.7852 0.7879 0.7920 0.7868 0.7848
1142.000000 0.7792 0.7717 0.7641 0.7567 0.7459
1147.000000 0.7206 0.6936 0.6666 0.6396 0.6127
1152.000000 0.5858 0.5590 0.5323 0.5055 0.4789
1157.000000 0.4522 0.4281 0.4134 0.4001 0.3871
1162.000000 0.3645 0.3472 0.3379 0.3347 0.3328
1167.000000 0.3314 0.3325 0.3478 0.3823 0.4168
1172.000000 0.4513 0.4857 0.5200 0.5543 0.5885
1177.000000 0.6226 0.6567 0.6907 0.7207 0.7359
1182.000000 0.7425 0.7488 0.7537 0.7560 0.7566
1187.000000 0.7564 0.7570 0.7549 0.7534 0.7512
1192.000000 0.7484 0.7443 0.7396 0.7336 0.7268
1197.000000 0.7196 0.7115 0.7024 0.6925 0.6796
1202.000000 0.6301 0.6029 0.5613 0.5191 0.4769
1207.000000 0.4348 0.3928 0.3531 0.3434 0.3435
1212.000000 0.3441 0.3585 0.3904 0.4222 0.4539
1217.000000 0.4857 0.5174 0.5490 0.5806 0.6121
1222.000000 0.6436 0.6751 0.7064 0.7262 0.7423
1227.000000 0.7478 0.7517 0.7546 0.7555 0.7539
1232.000000 0.7553 0.7541 0.7518 0.7393 0.7207
1237.000000 0.7022 0.6835 0.6651 0.6465 0.6280
1242.000000 0.6096 0.5911 0.5728 0.5544 0.5360
1247.000000 0.5178 0.4995 0.4815 0.4694 0.4627
1252.000000 0.4563 0.4530 0.4513 0.4497 0.4482
1257.000000 0.4467 0.4455 0.4432 0.4384 0.4334
1262.000000 0.4270 0.4156 0.4026 0.3915 0.3832
1267.000000 0.3784 0.3748 0.3677 0.3443 0.3204
1272.000000 0.2964 0.2726 0.2487 0.2236 0.1954
1277.000000 0.1797 0.1685 0.1600 0.1538 0.1516
1282.000000 0.1497 0.1496 0.1480 0.1520 0.1609
1287.000000 0.1721 0.1833 0.1946 0.2017 0.2012
1292.000000 0.2007 0.1992 0.1972 0.1948 0.1923
1297.000000 0.1905 0.1905 0.1946 0.2198 0.2530
1302.000000 0.2861 0.3191 0.3521 0.3850 0.4178
1307.000000 0.4507 0.4835 0.5162 0.5489 0.5815
1312.000000 0.6140 0.6465 0.6642 0.6600 0.6416
1317.000000 0.6216 0.6016 0.5816 0.5617 0.5418
1322.000000 0.5219 0.5020 0.4822 0.4650 0.4642
1327.000000 0.4647 0.4809 0.4945 0.5079 0.5214
1332.000000 0.5267 0.5263 0.5241 0.5185 0.5127
1337.000000 0.5101 0.5171 0.5379 0.5601 0.5824
1342.000000 0.6045 0.6267 0.6488 0.6694 0.6794
1347.000000 0.6780 0.6715 0.6568 0.6421 0.6275
1352.000000 0.6129 0.5983 0.5837 0.5738 0.5743
1357.000000 0.5919 0.6077 0.6235 0.6393 0.6546
1362.000000 0.6618 0.6590 0.6173 0.5696 0.5220
1367.000000 0.4743 0.4269 0.3794 0.3320 0.2847
1372.000000 0.2375 0.1909 0.1639 0.1636 0.1635
1377.000000 0.1804 0.2254 0.2704 0.3153 0.3602
1382.000000 0.4050 0.4497 0.4944 0.5390 0.5548
1387.000000 0.5578 0.5571 0.5441 0.5140 0.4840
1392.000000 0.4539 0.4240 0.3950 0.3846 0.3840
1397.000000 0.3881 0.4020 0.4170 0.4319 0.4355
1402.000000 0.4277 0.4160 0.3965 0.3968 0.4009
1407.000000 0.4221 0.4444 0.4665 0.4887 0.5108
1412.000000 0.5330 0.5550 0.5752 0.5743 0.5649
1417.000000 0.5489 0.5329 0.5170 0.5030 0.4973
1422.000000 0.4997 0.5143 0.5298 0.5452 0.5607
1427.000000 0.5761 0.5915 0.6069 0.6167 0.6178
1432.000000 0.6161 0.6170 0.5980 0.5886 0.5792
1437.000000 0.5698 0.5605 0.5511 0.5418 0.5324
1442.000000 0.5232 0.5114 0.4528 0.3637 0.3388
1447.000000 0.3269 0.3149 0.3027 0.2946 0.2890
1452.000000 0.2836 0.2781 0.2727 0.2675 0.2633
1457.000000 0.2591 0.2550 0.2509 0.2468 0.2428
1462.000000 0.2389 0.2349 0.2311 0.2273 0.2227
1467.000000 0.2149 0.2074 0.2009 0.1941 0.1871
1472.000000 0.1796 0.1719 0.1649 0.1582 0.1518
1477.000000 0.1468 0.1439 0.1426 0.1419 0.1414
1482.000000 0.1418 0.1425 0.1460 0.1540 0.1628
1487.000000 0.1716 0.1803 0.1891 0.1979 0.2070
1492.000000 0.2161 0.2227 0.2280 0.2308 0.2331
1497.000000 0.2353 0.2371 0.2390 0.2407 0.2418
1502.000000 0.2428 0.2434 0.2436 0.2410 0.2316
1507.000000 0.2444 0.2112 0.2010 0.1909 0.1808
1512.000000 0.1706 0.1605 0.1504 0.1427 0.1343
1517.000000 0.1232 0.1161 0.1078 0.0937 0.0783
1522.000000 0.0725 0.0706 0.0697 0.0707 0.0716
1527.000000 0.0739 0.0848 0.0993 0.1140 0.1288
1532.000000 0.1435 0.1582 0.1765 0.2061 0.2370
1537.000000 0.2678 0.2986 0.3292 0.3599 0.3905
1542.000000 0.4212 0.4517 0.4823 0.5128 0.5432
1547.000000 0.5737 0.6021 0.6114 0.6197 0.6286
1552.000000 0.6408 0.6579 0.6766 0.6858 0.6927
1557.000000 0.6989 0.7045 0.7091 0.7137 0.7176
1562.000000 0.7202 0.7221 0.7240 0.7259 0.7278
1567.000000 0.7297 0.7316 0.7338 0.7363 0.7386
1572.000000 0.7404 0.7408 0.7407 0.7406 0.7401
1577.000000 0.7394 0.7413 0.7347 0.7299 0.7212
1582.000000 0.7076 0.6927 0.6778 0.6629 0.6481
1587.000000 0.6333 0.6185 0.6037 0.5889 0.5742
1592.000000 0.5594 0.5447 0.5300 0.5239 0.5237
1597.000000 0.5243 0.5304 0.5384 0.5465 0.5546
1602.000000 0.5606 0.5627 0.5589 0.5616 0.5363
1607.000000 0.5241 0.5118 0.4995 0.4873 0.4751
1612.000000 0.4629 0.4507 0.4385 0.4263 0.4142
1617.000000 0.4021 0.3899 0.3778 0.3658 0.3537
1622.000000 0.3416 0.3296 0.3176 0.3056 0.2964
1627.000000 0.2907 0.2839 0.2703 0.2500 0.2296
1632.000000 0.2093 0.1890 0.1688 0.1486 0.1284
1637.000000 0.1199 0.1188 0.1201 0.1205 0.1235
1642.000000 0.1284 0.1340 0.1389 0.1436 0.1480
1647.000000 0.1515 0.1552 0.1814 0.2075 0.2336
1652.000000 0.2596 0.2857 0.3117 0.3376 0.3619
1657.000000 0.3795 0.3866 0.3911 0.3956 0.4001
1662.000000 0.4045 0.4328 0.4530 0.4787 0.5158
1667.000000 0.5532 0.5906 0.6272 0.6584 0.6862
1672.000000 0.6966 0.7044 0.7116 0.7186 0.7252
1677.000000 0.7306 0.7345 0.7384 0.7423 0.7461
1682.000000 0.7504 0.7551 0.7598 0.7644 0.7694
1687.000000 0.7753 0.7819 0.7886 0.7953 0.8037
1692.000000 0.8126 0.8200 0.8251 0.8303 0.8354
1697.000000 0.8405 0.8442 0.8476 0.8510 0.8544
1702.000000 0.8578 0.8612 0.8645 0.8678 0.8711
1707.000000 0.8744 0.8777 0.8809 0.8842 0.8868
1712.000000 0.8891 0.8914 0.8937 0.8959 0.8981
1717.000000 0.9004 0.9026 0.9048 0.9068 0.9087
1722.000000 0.9106 0.9123 0.9142 0.9160 0.9178
1727.000000 0.9196 0.9213 0.9227 0.9239 0.9252
1732.000000 0.9265 0.9278 0.9291 0.9304 0.9316
1737.000000 0.9322 0.9326 0.9330 0.9335 0.9339
1742.000000 0.9339 0.9337 0.9334 0.9357 0.9328
1747.000000 0.9325 0.9318 0.9312 0.9305 0.9298
1752.000000 0.9291 0.9281 0.9271 0.9260 0.9249
1757.000000 0.9238 0.9226 0.9213 0.9201 0.9188
1762.000000 0.9175 0.9158 0.9140 0.9122 0.9104
1767.000000 0.9086 0.9067 0.9046 0.9024 0.9002
1772.000000 0.8980 0.8956 0.8945 0.8933 0.8945
1777.000000 0.8948 0.8951 0.8955 0.8960 0.8965
1782.000000 0.8971 0.8981 0.8991 0.9001 0.9011
1787.000000 0.9022 0.9032 0.9042 0.9054 0.9065
1792.000000 0.9076 0.9088 0.9098 0.9106 0.9115
1797.000000 0.9123 0.9132 0.9140 0.9149 0.9160
1802.000000 0.9173 0.9186 0.9199 0.9213 0.9225
1807.000000 0.9237 0.9249 0.9261 0.9273 0.9285
1812.000000 0.9294 0.9301 0.9309 0.9316 0.9320
1817.000000 0.9320 0.9320 0.9320 0.9319 0.9317
1822.000000 0.9316 0.9314 0.9313 0.9311 0.9310
1827.000000 0.9308 0.9306 0.9304 0.9302 0.9299
1832.000000 0.9325 0.9293 0.9290 0.9287 0.9284
1837.000000 0.9282 0.9282 0.9281 0.9281 0.9280
1842.000000 0.9280 0.9282 0.9287 0.9293 0.9301
1847.000000 0.9308 0.9314 0.9320 0.9326 0.9333
1852.000000 0.9339 0.9346 0.9352 0.9356 0.9357
1857.000000 0.9357 0.9358 0.9358 0.9352 0.9346
1862.000000 0.9340 0.9334 0.9328 0.9320 0.9310
1867.000000 0.9294 0.9279 0.9259 0.9233 0.9205
1872.000000 0.9178 0.9147 0.9109 0.9079 0.9055
1877.000000 0.9035 0.9023 0.9010 0.8999 0.8992
1882.000000 0.8987 0.8982 0.8977 0.8972 0.8966
1887.000000 0.8962 0.8957 0.8933 0.8948 0.8944
1892.000000 0.8944 0.8944 0.8944 0.8944 0.8948
1897.000000 0.8954 0.8967 0.8988 0.9009 0.9025
1902.000000 0.9042 0.9059 0.9078 0.9096 0.9116
1907.000000 0.9140 0.9165 0.9191 0.9217 0.9233
1912.000000 0.9247 0.9259 0.9266 0.9273 0.9279
1917.000000 0.9286 0.9293 0.9296 0.9296 0.9296
1922.000000 0.9295 0.9295 0.9294 0.9294 0.9294
1927.000000 0.9295 0.9296 0.9297 0.9298 0.9299
1932.000000 0.9301 0.9303 0.9307 0.9311 0.9315
1937.000000 0.9319 0.9323 0.9327 0.9330 0.9334
1942.000000 0.9338 0.9343 0.9347 0.9353 0.9358
1947.000000 0.9362 0.9368 0.9373 0.9378 0.9383
1952.000000 0.9387 0.9390 0.9394 0.9398 0.9401
1957.000000 0.9405 0.9408 0.9412 0.9414 0.9417
1962.000000 0.9420 0.9424 0.9427 0.9429 0.9432
1967.000000 0.9434 0.9436 0.9437 0.9439 0.9441
1972.000000 0.9442 0.9444 0.9446 0.9448 0.9450
1977.000000 0.9452 0.9454 0.9456 0.9458 0.9460
1982.000000 0.9461 0.9462 0.9464 0.9466 0.9468
1987.000000 0.9469 0.9470 0.9472 0.9473 0.9475
1992.000000 0.9476 0.9478 0.9479 0.9480 0.9481
1997.000000 0.9483 0.9484 0.9485 0.9487 0.9488
2002.000000 0.9489 0.9490 0.9491 0.9493 0.9494
2007.000000 0.9495 0.9495 0.9497 0.9498 0.9498
2012.000000 0.9499 0.9500 0.9500 0.9501 0.9502
2017.000000 0.9503 0.9504 0.9504 0.9505 0.9505
2022.000000 0.9506 0.9507 0.9507 0.9508 0.9510
2027.000000 0.9510 0.9511 0.9511 0.9512 0.9513
2032.000000 0.9513 0.9514 0.9514 0.9515 0.9517
2037.000000 0.9517 0.9518 0.9518 0.9519 0.9520
2042.000000 0.9520 0.9521 0.9521 0.9522 0.9523
2047.000000 0.9524 0.9525 0.9525 0.9525 0.9525
2052.000000 0.9525 0.9525 0.9525 0.9525 0.9526
2057.000000 0.9526 0.9526 0.9526 0.9526 0.9526
2062.000000 0.9526 0.9526 0.9526 0.9526 0.9526
2067.000000 0.9526 0.9527 0.9527 0.9528 0.9528
2072.000000 0.9528 0.9529 0.9529 0.9530 0.9530
2077.000000 0.9531 0.9531 0.9532 0.9533 0.9533
2082.000000 0.9533 0.9533 0.9534 0.9534 0.9535
2087.000000 0.9536 0.9536 0.9537 0.9537 0.9538
2092.000000 0.9538 0.9538 0.9539 0.9539 0.9540
2097.000000 0.9540 0.9541 0.9541 0.9542 0.9543
2102.000000 0.9543 0.9544 0.9544 0.9545 0.9545
2107.000000 0.9546 0.9546 0.9545 0.9543 0.9541
2112.000000 0.9540 0.9538 0.9536 0.9535 0.9533
2117.000000 0.9531 0.9530 0.9528 0.9526 0.9525
2122.000000 0.9524 0.9523 0.9523 0.9521 0.9520
2127.000000 0.9519 0.9518 0.9518 0.9517 0.9516
2132.000000 0.9515 0.9514 0.9513 0.9513 0.9513
2137.000000 0.9513 0.9513 0.9513 0.9513 0.9513
2142.000000 0.9513 0.9513 0.9513 0.9514 0.9514
2147.000000 0.9514 0.9514 0.9514 0.9515 0.9515
2152.000000 0.9516 0.9517 0.9518 0.9518 0.9519
2157.000000 0.9519 0.9521 0.9522 0.9522 0.9523
2162.000000 0.9524 0.9525 0.9525 0.9526 0.9526
2167.000000 0.9527 0.9528 0.9529 0.9529 0.9530
2172.000000 0.9531 0.9532 0.9533 0.9533 0.9534
2177.000000 0.9535 0.9536 0.9536 0.9537 0.9537
2182.000000 0.9538 0.9538 0.9539 0.9539 0.9540
2187.000000 0.9540 0.9541 0.9541 0.9541 0.9541
2192.000000 0.9542 0.9543 0.9543 0.9544 0.9544
2197.000000 0.9545 0.9545 0.9546 0.9546 0.9546
2202.000000 0.9546 0.9547 0.9547 0.9542 0.9548
2207.000000 0.9549 0.9549 0.9550 0.9550 0.9550
2212.000000 0.9550 0.9550 0.9550 0.9551 0.9551
2217.000000 0.9551 0.9551 0.9551 0.9551 0.9552
2222.000000 0.9552 0.9552 0.9552 0.9552 0.9552
2227.000000 0.9553 0.9553 0.9553 0.9553 0.9553
2232.000000 0.9553 0.9553 0.9553 0.9554 0.9554
2237.000000 0.9554 0.9554 0.9554 0.9554 0.9555
2242.000000 0.9555 0.9555 0.9555 0.9555 0.9555
2247.000000 0.9556 0.9556 0.9556 0.9556 0.9556
2252.000000 0.9556 0.9556 0.9556 0.9556 0.9556
2257.000000 0.9556 0.9556 0.9556 0.9556 0.9556
2262.000000 0.9556 0.9557 0.9557 0.9557 0.9557
2267.000000 0.9557 0.9557 0.9557 0.9557 0.9557
2272.000000 0.9557 0.9557 0.9557 0.9557 0.9557
2277.000000 0.9556 0.9555 0.9554 0.9553 0.9552
2282.000000 0.9550 0.9549 0.9548 0.9547 0.9545
2287.000000 0.9544 0.9543 0.9542 0.9541 0.9539
2292.000000 0.9538 0.9536 0.9535 0.9534 0.9533
2297.000000 0.9532 0.9530 0.9529 0.9528 0.9527
2302.000000 0.9526 0.9525 0.9524 0.9523 0.9523
2307.000000 0.9523 0.9523 0.9522 0.9522 0.9522
2312.000000 0.9522 0.9522 0.9522 0.9521 0.9521
2317.000000 0.9521 0.9521 0.9521 0.9521 0.9521
2322.000000 0.9521 0.9521 0.9521 0.9521 0.9522
2327.000000 0.9522 0.9523 0.9523 0.9524 0.9524
2332.000000 0.9524 0.9525 0.9525 0.9526 0.9526
2337.000000 0.9527 0.9527 0.9528 0.9528 0.9529
2342.000000 0.9529 0.9529 0.9529 0.9529 0.9530
2347.000000 0.9530 0.9530 0.9530 0.9531 0.9531
2352.000000 0.9531 0.9531 0.9531 0.9531 0.9531
2357.000000 0.9532 0.9532 0.9532 0.9532 0.9533
2362.000000 0.9533 0.9533 0.9533 0.9533 0.9533
2367.000000 0.9533 0.9533 0.9533 0.9532 0.9532
2372.000000 0.9531 0.9531 0.9531 0.9530 0.9530
2377.000000 0.9529 0.9529 0.9528 0.9528 0.9527
2382.000000 0.9527 0.9527 0.9526 0.9526 0.9525
2387.000000 0.9525 0.9524 0.9522 0.9521 0.9517
2392.000000 0.9514 0.9510 0.9507 0.9503 0.9500
2397.000000 0.9496 0.9493 0.9489 0.9486 0.9482
2402.000000 0.9479 0.9475 0.9471 0.9468 0.9464
2407.000000 0.9462 0.9460 0.9458 0.9457 0.9456
2412.000000 0.9455 0.9454 0.9453 0.9452 0.9451
2417.000000 0.9450 0.9448 0.9448 0.9448 0.9450
2422.000000 0.9452 0.9455 0.9458 0.9461 0.9464
2427.000000 0.9467 0.9470 0.9472 0.9475 0.9478
2432.000000 0.9481 0.9484 0.9487 0.9489 0.9492
2437.000000 0.9495 0.9498 0.9501 0.9505 0.9508
2442.000000 0.9511 0.9515 0.9518 0.9522 0.9526
2447.000000 0.9527 0.9528 0.9529 0.9530 0.9531
2452.000000 0.9531 0.9532 0.9533 0.9534 0.9535
2457.000000 0.9535 0.9536 0.9537 0.9538 0.9539
2462.000000 0.9539 0.9539 0.9540 0.9540 0.9541
2467.000000 0.9541 0.9542 0.9542 0.9542 0.9543
2472.000000 0.9543 0.9544 0.9544 0.9544 0.9545
2477.000000 0.9545 0.9546 0.9546 0.9546 0.9546
2482.000000 0.9546 0.9546 0.9546 0.9546 0.9545
2487.000000 0.9545 0.9545 0.9545 0.9545 0.9545
2492.000000 0.9545 0.9545 0.9545 0.9545 0.9544
2497.000000 0.9544 0.9544 0.9544 0.9544 0.9543
2502.000000 0.9543 0.9542 0.9542 0.9542 0.9541
2507.000000 0.9541 0.9540 0.9540 0.9540 0.9539
2512.000000 0.9539 0.9538 0.9537 0.9537 0.9536
2517.000000 0.9536 0.9535 0.9535 0.9535 0.9534
2522.000000 0.9534 0.9533 0.9533 0.9533 0.9532
2527.000000 0.9532 0.9531 0.9531 0.9530 0.9529
2532.000000 0.9528 0.9526 0.9525 0.9524 0.9523
2537.000000 0.9522 0.9521 0.9519 0.9518 0.9517
2542.000000 0.9516 0.9515 0.9514 0.9512 0.9511
2547.000000 0.9510 0.9509 0.9508 0.9507 0.9506
2552.000000 0.9504 0.9502 0.9499 0.9496 0.9493
2557.000000 0.9490 0.9488 0.9485 0.9482 0.9479
2562.000000 0.9476 0.9473 0.9470 0.9467 0.9464
2567.000000 0.9462 0.9459 0.9456 0.9453 0.9450
2572.000000 0.9447 0.9444 0.9441 0.9438 0.9435
2577.000000 0.9432 0.9429 0.9426 0.9423 0.9420
2582.000000 0.9417 0.9415 0.9412 0.9409 0.9406
2587.000000 0.9403 0.9400 0.9398 0.9396 0.9394
2592.000000 0.9392 0.9390 0.9388 0.9386 0.9385
2597.000000 0.9383 0.9381 0.9379 0.9377 0.9375
2602.000000 0.9373 0.9371 0.9369 0.9367 0.9365
2607.000000 0.9363 0.9361 0.9360 0.9358 0.9356
2612.000000 0.9355 0.9354 0.9352 0.9351 0.9349
2617.000000 0.9348 0.9347 0.9346 0.9345 0.9344
2622.000000 0.9342 0.9341 0.9340 0.9339 0.9338
2627.000000 0.9336 0.9335 0.9334 0.9333 0.9331
2632.000000 0.9329 0.9325 0.9321 0.9317 0.9314
2637.000000 0.9310 0.9306 0.9302 0.9298 0.9294
2642.000000 0.9290 0.9286 0.9283 0.9279 0.9276
2647.000000 0.9273 0.9269 0.9266 0.9263 0.9260
2652.000000 0.9257 0.9253 0.9250 0.9247 0.9243
2657.000000 0.9239 0.9234 0.9229 0.9224 0.9218
2662.000000 0.9213 0.9207 0.9201 0.9195 0.9189
2667.000000 0.9184 0.9178 0.9172 0.9167 0.9161
2672.000000 0.9156 0.9150 0.9144 0.9139 0.9133
2677.000000 0.9128 0.9122 0.9116 0.9111 0.9105
2682.000000 0.9100 0.9094 0.9089 0.9083 0.9078
2687.000000 0.9072 0.9066 0.9061 0.9055 0.9050
2692.000000 0.9044 0.9038 0.9032 0.9026 0.9020
2697.000000 0.9014 0.9008 0.9002 0.8996 0.8990
2702.000000 0.8984 0.8978 0.8972 0.8965 0.8959
2707.000000 0.8953 0.8947 0.8941 0.8935 0.8929
2712.000000 0.8922 0.8916 0.8910 0.8904 0.8898
2717.000000 0.8892 0.8885 0.8878 0.8870 0.8863
2722.000000 0.8856 0.8849 0.8842 0.8836 0.8829
2727.000000 0.8823 0.8816 0.8809 0.8802 0.8795
2732.000000 0.8788 0.8781 0.8774 0.8766 0.8759
2737.000000 0.8751 0.8743 0.8736 0.8728 0.8720
2742.000000 0.8713 0.8706 0.8698 0.8691 0.8683
2747.000000 0.8675 0.8668 0.8660 0.8652 0.8644
2752.000000 0.8636 0.8628 0.8620 0.8612 0.8604
2757.000000 0.8596 0.8588 0.8581 0.8573 0.8565
2762.000000 0.8558 0.8551 0.8545 0.8539 0.8536
2767.000000 0.8536 0.8535 0.8535 0.8537 0.8539
2772.000000 0.8541 0.8543 0.8545 0.8548 0.8552
2777.000000 0.8555 0.8560 0.8564 0.8569 0.8573
2782.000000 0.8579 0.8584 0.8590 0.8596 0.8603
2787.000000 0.8609 0.8615 0.8621 0.8626 0.8630
2792.000000 0.8634 0.8637 0.8638 0.8638 0.8638
2797.000000 0.8637 0.8636 0.8636 0.8635 0.8635
2802.000000 0.8634 0.8633 0.8631 0.8628 0.8626
2807.000000 0.8622 0.8619 0.8615 0.8611 0.8607
2812.000000 0.8602 0.8592 0.8582 0.8571 0.8546
2817.000000 0.8514 0.8482 0.8457 0.8437 0.8418
2822.000000 0.8394 0.8361 0.8328 0.8295 0.8267
2827.000000 0.8238 0.8209 0.8185 0.8161 0.8138
2832.000000 0.8119 0.8102 0.8085 0.8067 0.8050
2837.000000 0.8033 0.8016 0.7999 0.7982 0.7964
2842.000000 0.7932 0.7901 0.7870 0.7828 0.7784
2847.000000 0.7740 0.7678 0.7605 0.7532 0.7468
2852.000000 0.7419 0.7370 0.7322 0.7287 0.7251
2857.000000 0.7216 0.7064 0.6892 0.6721 0.6613
2862.000000 0.6550 0.6486 0.6426 0.6375 0.6324
2867.000000 0.6272 0.6226 0.6180 0.6135 0.6086
2872.000000 0.6037 0.5987 0.5933 0.5871 0.5809
2877.000000 0.5742 0.5641 0.5540 0.5438 0.5360
2882.000000 0.5287 0.5214 0.5093 0.4924 0.4756
2887.000000 0.4587 0.4418 0.4250 0.4082 0.3914
2892.000000 0.3746 0.3578 0.3410 0.3242 0.3075
2897.000000 0.2907 0.2739 0.2572 0.2404 0.2237
2902.000000 0.2071 0.1904 0.1782 0.1727 0.1673
2907.000000 0.1618 0.1551 0.1485 0.1418 0.1362
2912.000000 0.1310 0.1258 0.1209 0.1169 0.1128
2917.000000 0.1088 0.1062 0.1039 0.1015 0.0993
2922.000000 0.0972 0.0950 0.0929 0.0918 0.0906
2927.000000 0.0895 0.0885 0.0876 0.0867 0.0858
2932.000000 0.0849 0.0840 0.0831 0.0824 0.0817
2937.000000 0.0810 0.0804 0.0801 0.0797 0.0793
2942.000000 0.0791 0.0789 0.0788 0.0786 0.0786
2947.000000 0.0786 0.0786 0.0785 0.0785 0.0785
2952.000000 0.0784 0.0783 0.0782 0.0781 0.0767
2957.000000 0.0751 0.0736 0.0712 0.0676 0.0639
2962.000000 0.0603 0.0580 0.0559 0.0537 0.0518
2967.000000 0.0501 0.0484 0.0468 0.0453 0.0438
2972.000000 0.0423 0.0411 0.0404 0.0398 0.0391
2977.000000 0.0388 0.0386 0.0385 0.0383 0.0382
2982.000000 0.0382 0.0381 0.0381 0.0381 0.0381
2987.000000 0.0366 0.0382 0.0383 0.0384 0.0385
2992.000000 0.0387 0.0388 0.0389 0.0448 0.0506
2997.000000 0.0565 0.0626 0.0689 0.0752 0.0816
3002.000000 0.0879 0.0942 0.1005 0.1068 0.1131
3007.000000 0.1194 0.1257 0.1320 0.1382 0.1445
3012.000000 0.1507 0.1570 0.1633 0.1696 0.1758
3017.000000 0.1821 0.1883 0.1945 0.2008 0.2070
3022.000000 0.2133 0.2195 0.2257 0.2320 0.2382
3027.000000 0.2444 0.2506 0.2568 0.2630 0.2692
3032.000000 0.2754 0.2816 0.2878 0.2939 0.3001
3037.000000 0.3062 0.3124 0.3186 0.3247 0.3309
3042.000000 0.3371 0.3432 0.3493 0.3554 0.3616
3047.000000 0.3677 0.3739 0.3800 0.3861 0.3922
3052.000000 0.3984 0.4045 0.4106 0.4166 0.4227
3057.000000 0.4288 0.4349 0.4410 0.4471 0.4532
3062.000000 0.4592 0.4653 0.4704 0.4733 0.4761
3067.000000 0.4790 0.4827 0.4874 0.4920 0.4967
3072.000000 0.5023 0.5082 0.5141 0.5200 0.5258
3077.000000 0.5317 0.5376 0.5434 0.5493 0.5552
3082.000000 0.5610 0.5669 0.5727 0.5786 0.5844
3087.000000 0.5902 0.5961 0.6019 0.6078 0.6136
3092.000000 0.6194 0.6252 0.6310 0.6368 0.6426
3097.000000 0.6485 0.6543 0.6600 0.6658 0.6716
3102.000000 0.6807 0.6993 0.7179 0.7365 0.7488
3107.000000 0.7522 0.7556 0.7590 0.7622 0.7651
3112.000000 0.7680 0.7710 0.7735 0.7758 0.7781
3117.000000 0.7804 0.7827 0.7850 0.7872 0.7895
3122.000000 0.7920 0.7945 0.7970 0.7995 0.8024
3127.000000 0.8053 0.8083 0.8112 0.8140 0.8169
3132.000000 0.8197 0.8223 0.8235 0.8247 0.8259
3137.000000 0.8271 0.8283 0.8295 0.8307 0.8319
3142.000000 0.8331 0.8343 0.8356 0.8367 0.8377
3147.000000 0.8387 0.8397 0.8407 0.8416 0.8426
3152.000000 0.8435 0.8444 0.8452 0.8459 0.8467
3157.000000 0.8473 0.8476 0.8479 0.8482 0.8485
3162.000000 0.8487 0.8490 0.8493 0.8496 0.8498
3167.000000 0.8501 0.8504 0.8506 0.8508 0.8509
3172.000000 0.8511 0.8512 0.8513 0.8513 0.8514
3177.000000 0.8515 0.8515 0.8515 0.8515 0.8514
3182.000000 0.8512 0.8510 0.8508 0.8528 0.8481
3187.000000 0.8460 0.8440 0.8420 0.8400 0.8379
3192.000000 0.8359 0.8338 0.8318 0.8298 0.8277
3197.000000 0.8257 0.8237 0.8217 0.8196 0.8176
3202.000000 0.8156 0.8136 0.8116 0.8096 0.8076
3207.000000 0.8056 0.8036 0.8015 0.7995 0.7975
3212.000000 0.7955 0.7935 0.7915 0.7895 0.7875
3217.000000 0.7855 0.7835 0.7815 0.7795 0.7775
3222.000000 0.7756 0.7736 0.7716 0.7696 0.7676
3227.000000 0.7656 0.7636 0.7616 0.7596 0.7576
3232.000000 0.7557 0.7537 0.7517 0.7498 0.7478
3237.000000 0.7458 0.7438 0.7418 0.7399 0.7379
3242.000000 0.7359 0.7339 0.7320 0.7300 0.7280
3247.000000 0.7261 0.7241 0.7222 0.7202 0.7183
3252.000000 0.7163 0.7144 0.7124 0.7105 0.7085
3257.000000 0.7065 0.7046 0.7026 0.7010 0.6995
3262.000000 0.6980 0.6966 0.6956 0.6956 0.6956
3267.000000 0.6956 0.6945 0.6962 0.6968 0.6975
3272.000000 0.6981 0.6994 0.7009 0.7024 0.7038
3277.000000 0.7053 0.7068 0.7083 0.7098 0.7113
3282.000000 0.7128 0.7143 0.7158 0.7173 0.7188
3287.000000 0.7203 0.7218 0.7232 0.7247 0.7262
3292.000000 0.7277 0.7292 0.7306 0.7321 0.7336
3297.000000 0.7351 0.7365 0.7378 0.7390 0.7403
3302.000000 0.7415 0.7421 0.7421 0.7420 0.7420
3307.000000 0.7418 0.7409 0.7399 0.7390 0.7380
3312.000000 0.7404 0.7331 0.7305 0.7279 0.7252
3317.000000 0.7226 0.7200 0.7174 0.7148 0.7122
3322.000000 0.7095 0.7069 0.7043 0.7017 0.6991
3327.000000 0.6965 0.6939 0.6913 0.6887 0.6860
3332.000000 0.6834 0.6808 0.6782 0.6756 0.6731
3337.000000 0.6705 0.6679 0.6653 0.6627 0.6601
3342.000000 0.6575 0.6549 0.6523 0.6498 0.6472
3347.000000 0.6446 0.6420 0.6395 0.6369 0.6343
3352.000000 0.6317 0.6292 0.6266 0.6241 0.6215
3357.000000 0.6190 0.6164 0.6139 0.6114 0.6092
3362.000000 0.6071 0.6050 0.6029 0.6006 0.5976
3367.000000 0.5946 0.5916 0.5886 0.5811 0.5719
3372.000000 0.5627 0.5536 0.5444 0.5353 0.5261
3377.000000 0.5170 0.5079 0.4988 0.4897 0.4806
3382.000000 0.4715 0.4624 0.4533 0.4442 0.4352
3387.000000 0.4261 0.4197 0.4165 0.4133 0.4101
3392.000000 0.4069 0.4064 0.4064 0.4063 0.4063
3397.000000 0.4062 0.4062 0.4062 0.4062 0.4062
3402.000000 0.4061 0.4061 0.4061 0.4061 0.4061
3407.000000 0.4068 0.4076 0.4084 0.4092 0.4109
3412.000000 0.4144 0.4179 0.4213 0.4248 0.4283
3417.000000 0.4317 0.4352 0.4387 0.4421 0.4456
3422.000000 0.4491 0.4525 0.4560 0.4594 0.4629
3427.000000 0.4663 0.4698 0.4732 0.4767 0.4801
3432.000000 0.4835 0.4870 0.4904 0.4939 0.4973
3437.000000 0.5007 0.5041 0.5076 0.5110 0.5144
3442.000000 0.5178 0.5212 0.5246 0.5280 0.5314
3447.000000 0.5348 0.5382 0.5416 0.5450 0.5484
3452.000000 0.5518 0.5552 0.5586 0.5620 0.5654
3457.000000 0.5688 0.5717 0.5726 0.5734 0.5743
3462.000000 0.5751 0.5756 0.5753 0.5751 0.5748
3467.000000 0.5746 0.5740 0.5733 0.5726 0.5719
3472.000000 0.5712 0.5705 0.5698 0.5690 0.5683
3477.000000 0.5676 0.5669 0.5662 0.5655 0.5648
3482.000000 0.5641 0.5634 0.5626 0.5619 0.5612
3487.000000 0.5605 0.5598 0.5591 0.5584 0.5577
3492.000000 0.5570 0.5563 0.5555 0.5548 0.5541
3497.000000 0.5534 0.5527 0.5520 0.5513 0.5506
3502.000000 0.5502 0.5500 0.5498 0.5496 0.5494
3507.000000 0.5520 0.5559 0.5598 0.5637 0.5676
3512.000000 0.5724 0.5776 0.5827 0.5878 0.5929
3517.000000 0.5979 0.6030 0.6081 0.6131 0.6182
3522.000000 0.6233 0.6284 0.6334 0.6385 0.6436
3527.000000 0.6486 0.6537 0.6588 0.6638 0.6689
3532.000000 0.6739 0.6789 0.6840 0.6890 0.6940
3537.000000 0.6990 0.7041 0.7091 0.7141 0.7192
3542.000000 0.7242 0.7292 0.7342 0.7392 0.7442
3547.000000 0.7492 0.7542 0.7592 0.7642 0.7692
3552.000000 0.7742 0.7791 0.7841 0.7891 0.7941
3557.000000 0.8025 0.8116 0.8208 0.8299 0.8390
3562.000000 0.8442 0.8481 0.8519 0.8557 0.8596
3567.000000 0.8624 0.8647 0.8670 0.8693 0.8717
3572.000000 0.8730 0.8736 0.8743 0.8749 0.8755
3577.000000 0.8761 0.8767 0.8773 0.8779 0.8785
3582.000000 0.8792 0.8798 0.8804 0.8810 0.8817
3587.000000 0.8823 0.8828 0.8833 0.8838 0.8843
3592.000000 0.8848 0.8853 0.8858 0.8863 0.8868
3597.000000 0.8873 0.8878 0.8883 0.8888 0.8893
3602.000000 0.8898 0.8903 0.8908 0.8913 0.8918
3607.000000 0.8923 0.8927 0.8930 0.8934 0.8937
3612.000000 0.8940 0.8943 0.8945 0.8948 0.8950
3617.000000 0.8952 0.8955 0.8957 0.8959 0.8961
3622.000000 0.8963 0.8965 0.8967 0.8970 0.8972
3627.000000 0.8974 0.8976 0.8979 0.8981 0.8983
3632.000000 0.8986 0.8988 0.8990 0.8992 0.8994
3637.000000 0.8996 0.8998 0.9000 0.9002 0.9004
3642.000000 0.9006 0.9008 0.9010 0.9011 0.9012
3647.000000 0.9013 0.9014 0.9015 0.9016 0.9017
3652.000000 0.9018 0.9019 0.9020 0.9022 0.9022
3657.000000 0.9023 0.9024 0.9025 0.9026 0.9027
3662.000000 0.9028 0.9029 0.9031 0.9032 0.9033
3667.000000 0.9034 0.9035 0.9036 0.9037 0.9037
3672.000000 0.9038 0.9039 0.9040 0.9041 0.9042
3677.000000 0.9043 0.9044 0.9045 0.9046 0.9047
3682.000000 0.9048 0.9048 0.9049 0.9049 0.9050
3687.000000 0.9050 0.9051 0.9052 0.9052 0.9053
3692.000000 0.9054 0.9055 0.9055 0.9056 0.9056
3697.000000 0.9057 0.9057 0.9058 0.9059 0.9060
3702.000000 0.9060 0.9061 0.9062 0.9062 0.9063
3707.000000 0.9063 0.9064 0.9064 0.9065 0.9065
3712.000000 0.9066 0.9067 0.9067 0.9068 0.9068
3717.000000 0.9069 0.9069 0.9070 0.9070 0.9071
3722.000000 0.9071 0.9072 0.9073 0.9073 0.9074
3727.000000 0.9074 0.9075 0.9075 0.9076 0.9076
3732.000000 0.9077 0.9077 0.9078 0.9078 0.9079
3737.000000 0.9080 0.9080 0.9080 0.9081 0.9081
3742.000000 0.9081 0.9082 0.9082 0.9083 0.9083
3747.000000 0.9084 0.9084 0.9085 0.9085 0.9086
3752.000000 0.9087 0.9087 0.9088 0.9088 0.9088
3757.000000 0.9089 0.9089 0.9089 0.9090 0.9090
3762.000000 0.9090 0.9091 0.9091 0.9091 0.9092
3767.000000 0.9092 0.9092 0.9092 0.9092 0.9093
3772.000000 0.9093 0.9093 0.9093 0.9093 0.9093
3777.000000 0.9094 0.9094 0.9094 0.9094 0.9094
3782.000000 0.9094 0.9095 0.9095 0.9095 0.9096
3787.000000 0.9096 0.9097 0.9097 0.9097 0.9097
3792.000000 0.9097 0.9097 0.9098 0.9098 0.9098
3797.000000 0.9098 0.9098 0.9098 0.9127 0.9099
3802.000000 0.9099 0.9100 0.9100 0.9100 0.9101
3807.000000 0.9101 0.9101 0.9101 0.9101 0.9101
3812.000000 0.9101 0.9101 0.9101 0.9101 0.9101
3817.000000 0.9101 0.9101 0.9101 0.9101 0.9101
3822.000000 0.9101 0.9101 0.9101 0.9101 0.9101
3827.000000 0.9101 0.9101 0.9101 0.9101 0.9101
3832.000000 0.9101 0.9101 0.9101 0.9101 0.9101
3837.000000 0.9101 0.9101 0.9101 0.9101 0.9100
3842.000000 0.9100 0.9100 0.9100 0.9100 0.9100
3847.000000 0.9100 0.9100 0.9100 0.9100 0.9100
3852.000000 0.9100 0.9100 0.9100 0.9100 0.9100
3857.000000 0.9100 0.9100 0.9100 0.9100 0.9100
3862.000000 0.9100 0.9100 0.9099 0.9099 0.9099
3867.000000 0.9099 0.9099 0.9099 0.9098 0.9098
3872.000000 0.9098 0.9098 0.9098 0.9098 0.9097
3877.000000 0.9097 0.9097 0.9096 0.9096 0.9096
3882.000000 0.9095 0.9095 0.9095 0.9095 0.9094
3887.000000 0.9094 0.9094 0.9093 0.9093 0.9093
3892.000000 0.9092 0.9092 0.9092 0.9091 0.9091
3897.000000 0.9091 0.9090 0.9090 0.9090 0.9089
3902.000000 0.9089 0.9089 0.9089 0.9089 0.9089
3907.000000 0.9088 0.9088 0.9088 0.9087 0.9087
3912.000000 0.9087 0.9086 0.9085 0.9084 0.9084
3917.000000 0.9083 0.9082 0.9081 0.9080 0.9078
3922.000000 0.9077 0.9076 0.9074 0.9073 0.9072
3927.000000 0.9071 0.9070 0.9069 0.9067 0.9066
3932.000000 0.9065 0.9064 0.9062 0.9061 0.9060
3937.000000 0.9059 0.9057 0.9056 0.9055 0.9053
3942.000000 0.9052 0.9051 0.9049 0.9048 0.9046
3947.000000 0.9045 0.9044 0.9042 0.9041 0.9040
3952.000000 0.9038 0.9037 0.9036 0.9034 0.9033
3957.000000 0.9032 0.9030 0.9029 0.9027 0.9026
3962.000000 0.9024 0.9023 0.9022 0.9020 0.9019
3967.000000 0.9017 0.9016 0.9015 0.9013 0.9012
3972.000000 0.9011 0.9009 0.9008 0.9007 0.9005
3977.000000 0.9004 0.9003 0.9001 0.9000 0.8998
3982.000000 0.8997 0.8996 0.8994 0.8993 0.8991
3987.000000 0.8990 0.8988 0.8986 0.8985 0.8983
3992.000000 0.8981 0.8980 0.8978 0.8976 0.8974
3997.000000 0.8973 0.8971 0.8969 0.8968
##END=
