##TITLE=3-PHENYL-5-[2-DIETHYLAMINO]ETHYL-1,2,4-OXADIAZOLE, CITRATE
##JCAMP-DX=4.24
##DATA TYPE=INFRARED SPECTRUM
##CLASS=COBLENTZ III
##ORIGIN=SMITH KLINE & FRENCH LABS.
##OWNER=COBLENTZ SOCIETY
Collection (C) 2018 copyright by the U.S. Secretary of Commerce
on behalf of the United States of America. All rights reserved.
##DATE=1962/04/10
##MOLFORM=C20 H27 N3 O8
##SOURCE REFERENCE=COBLENTZ NO. 9129
##$NIST ID=B6009129
##$NIST SOURCE=COBLENTZ
##$NIST IMAGE=cob9129
##SPECTROMETER/DATA SYSTEM=Not specified, most likely a prism spectrometer.
##INSTRUMENT PARAMETERS=NaCl PRISM
##STATE=SOLID (KBr DISC)
##SAMPLING PROCEDURE=TRANSMISSION
##RESOLUTION=2
##DATA PROCESSING=DIGITIZED BY NIST FROM HARD COPY
##XUNITS=MICROMETERS
##YUNITS=TRANSMITTANCE
##XFACTOR=1.000000
##YFACTOR=1
##DELTAX=000.004858
##FIRSTX=1.98
##LASTX=15.7189
##FIRSTY=0.59
##MAXX=15.7189
##MINX=1.98
##MAXY=0.964
##MINY=0.1
##NPOINTS=2829
##XYDATA=(X++(Y..Y))
1.980000 0.5900 0.5900 0.5900 0.5900 0.5900
2.004300 0.5900 0.5900 0.5900 0.5900 0.5900
2.028000 0.5900 0.5900 0.5900 0.5900 0.5900
2.052300 0.5910 0.5900 0.5900 0.5900 0.5910
2.077000 0.5920 0.5940 0.5970 0.6010 0.6010
2.101300 0.6020 0.6030 0.6050 0.6060 0.6070
2.126000 0.6080 0.6080 0.6080 0.6080 0.6080
2.150300 0.6080 0.6080 0.6090 0.6110 0.6090
2.174000 0.6090 0.6110 0.6110 0.6110 0.6110
2.198300 0.6110 0.6120 0.6120 0.6120 0.6120
2.223000 0.6120 0.6120 0.6120 0.6120 0.6130
2.247300 0.6180 0.6200 0.6200 0.6190 0.6190
2.271000 0.6180 0.6170 0.6170 0.6170 0.6170
2.295300 0.6180 0.6230 0.6250 0.6280 0.6280
2.320000 0.6280 0.6280 0.6200 0.6190 0.6190
2.344300 0.6190 0.6190 0.6200 0.6230 0.6250
2.368000 0.6310 0.6330 0.6330 0.6330 0.6340
2.392300 0.6340 0.6350 0.6360 0.6370 0.6420
2.417000 0.6420 0.6410 0.6410 0.6410 0.6410
2.441300 0.6420 0.6420 0.6450 0.6470 0.6500
2.466000 0.6510 0.6500 0.6500 0.6500 0.6500
2.490300 0.6500 0.6500 0.6500 0.6500 0.6510
2.514000 0.6520 0.6520 0.6520 0.6510 0.6520
2.538300 0.6520 0.6600 0.6600 0.6600 0.6600
2.563000 0.6600 0.6600 0.6600 0.6600 0.6600
2.587300 0.6600 0.6600 0.6600 0.6620 0.6620
2.611000 0.6630 0.6630 0.6630 0.6640 0.6640
2.635300 0.6650 0.6680 0.6680 0.6680 0.6690
2.660000 0.6680 0.6680 0.6680 0.6680 0.6680
2.684300 0.6680 0.6680 0.6680 0.6680 0.6680
2.709000 0.6700 0.6700 0.6690 0.6690 0.6690
2.733300 0.6690 0.6690 0.6690 0.6690 0.6690
2.757000 0.6690 0.6690 0.6680 0.6680 0.6670
2.781300 0.6670 0.6650 0.6620 0.6570 0.6520
2.806000 0.6520 0.6510 0.6480 0.6420 0.6390
2.830300 0.6340 0.6280 0.6060 0.6000 0.5920
2.854000 0.5900 0.5880 0.5820 0.5780 0.5680
2.878300 0.5610 0.5570 0.5560 0.5510 0.5470
2.903000 0.5410 0.5370 0.5320 0.5290 0.5280
2.927300 0.5260 0.5210 0.5130 0.5070 0.5050
2.951000 0.5000 0.4960 0.4950 0.4950 0.4950
2.975300 0.4940 0.4930 0.4930 0.4940 0.4950
3.000000 0.4950 0.4980 0.5000 0.5030 0.5040
3.024300 0.5050 0.5050 0.5090 0.5110 0.5130
3.049000 0.5130 0.5150 0.5220 0.5230 0.5230
3.073300 0.5230 0.5270 0.5270 0.5270 0.5270
3.097000 0.5240 0.5160 0.5130 0.5110 0.5090
3.121300 0.5050 0.4920 0.4900 0.4840 0.4770
3.146000 0.4700 0.4650 0.4580 0.4530 0.4500
3.170300 0.4480 0.4420 0.4370 0.4310 0.4280
3.194000 0.4270 0.4250 0.4200 0.4050 0.3990
3.218300 0.3870 0.3790 0.3690 0.3630 0.3580
3.243000 0.3490 0.3420 0.3370 0.3210 0.3180
3.267300 0.3120 0.3110 0.3090 0.3040 0.2980
3.291000 0.2870 0.2840 0.2780 0.2730 0.2700
3.315300 0.2610 0.2500 0.2410 0.2400 0.2400
3.340000 0.2400 0.2400 0.2390 0.2390 0.2380
3.364300 0.2300 0.2210 0.2130 0.2050 0.1960
3.389000 0.1950 0.1940 0.1940 0.1940 0.1940
3.413300 0.1940 0.1940 0.1940 0.1960 0.2170
3.437000 0.2180 0.2180 0.2180 0.2180 0.2180
3.461300 0.2190 0.2190 0.2210 0.2210 0.2210
3.486000 0.2210 0.2210 0.2270 0.2280 0.2290
3.510300 0.2290 0.2300 0.2300 0.2300 0.2300
3.534000 0.2290 0.2280 0.2260 0.2260 0.2240
3.558300 0.2260 0.2260 0.2270 0.2270 0.2270
3.583000 0.2280 0.2280 0.2280 0.2280 0.2290
3.607300 0.2300 0.2320 0.2320 0.2320 0.2320
3.632000 0.2330 0.2330 0.2330 0.2330 0.2330
3.656300 0.2340 0.2340 0.2340 0.2340 0.2340
3.680000 0.2350 0.2340 0.2350 0.2350 0.2350
3.704300 0.2360 0.2380 0.2380 0.2380 0.2390
3.729000 0.2390 0.2410 0.2440 0.2460 0.2470
3.753300 0.2490 0.2490 0.2490 0.2490 0.2490
3.777000 0.2500 0.2500 0.2510 0.2520 0.2560
3.801300 0.2620 0.2640 0.2670 0.2680 0.2690
3.826000 0.2700 0.2730 0.2740 0.2810 0.2850
3.850300 0.2890 0.2910 0.3020 0.3090 0.3190
3.874000 0.3230 0.3250 0.3260 0.3280 0.3290
3.898300 0.3300 0.3310 0.3340 0.3350 0.3410
3.923000 0.3460 0.3490 0.3530 0.3570 0.3590
3.947300 0.3620 0.3640 0.3650 0.3680 0.3700
3.972000 0.3730 0.3740 0.3740 0.3750 0.3760
3.996300 0.3790 0.3830 0.3870 0.3900 0.3920
4.020000 0.3970 0.4000 0.4020 0.4050 0.4100
4.044300 0.4200 0.4260 0.4280 0.4330 0.4390
4.069000 0.4430 0.4470 0.4480 0.4520 0.4580
4.093300 0.4610 0.4670 0.4710 0.4790 0.4900
4.117000 0.4990 0.5000 0.5010 0.5060 0.5070
4.141300 0.5100 0.5120 0.5180 0.5210 0.5220
4.166000 0.5220 0.5220 0.5220 0.5230 0.5240
4.190300 0.5270 0.5350 0.5380 0.5470 0.5520
4.215000 0.5560 0.5570 0.5580 0.5600 0.5610
4.239300 0.5620 0.5630 0.5670 0.5690 0.5720
4.263000 0.5740 0.5780 0.5820 0.5840 0.5840
4.287300 0.5840 0.5830 0.5820 0.5820 0.5840
4.312000 0.5860 0.5920 0.5970 0.6030 0.6080
4.336300 0.6160 0.6170 0.6180 0.6230 0.6280
4.360000 0.6300 0.6390 0.6500 0.6600 0.6680
4.384300 0.6730 0.6750 0.6760 0.6780 0.6840
4.409000 0.6910 0.6970 0.6980 0.6990 0.7020
4.433300 0.7050 0.7080 0.7100 0.7100 0.7120
4.457000 0.7130 0.7140 0.7150 0.7180 0.7200
4.481300 0.7240 0.7250 0.7290 0.7330 0.7360
4.506000 0.7370 0.7380 0.7440 0.7480 0.7480
4.530300 0.7480 0.7480 0.7480 0.7490 0.7500
4.555000 0.7500 0.7500 0.7500 0.7500 0.7520
4.579300 0.7540 0.7610 0.7650 0.7670 0.7690
4.603000 0.7700 0.7700 0.7700 0.7700 0.7710
4.627300 0.7710 0.7710 0.7710 0.7710 0.7710
4.652000 0.7760 0.7800 0.7810 0.7820 0.7860
4.676300 0.7880 0.7890 0.7890 0.7890 0.7890
4.700000 0.7890 0.7890 0.7890 0.7890 0.7880
4.724300 0.7880 0.7890 0.7910 0.7910 0.7910
4.749000 0.7910 0.7910 0.7910 0.7910 0.7910
4.773300 0.7920 0.7920 0.7920 0.7920 0.7920
4.798000 0.7920 0.7920 0.7920 0.7890 0.7890
4.822300 0.7880 0.7890 0.7880 0.7880 0.7880
4.846000 0.7880 0.7870 0.7870 0.7860 0.7870
4.870300 0.7870 0.7880 0.7880 0.7880 0.7890
4.895000 0.7910 0.7920 0.7910 0.7910 0.7890
4.919300 0.7890 0.7890 0.7910 0.7910 0.7920
4.943000 0.7920 0.7920 0.7920 0.7910 0.7890
4.967300 0.7890 0.7880 0.7880 0.7880 0.7880
4.992000 0.7870 0.7870 0.7860 0.7840 0.7830
5.016300 0.7810 0.7780 0.7750 0.7710 0.7700
5.040000 0.7650 0.7640 0.7600 0.7590 0.7590
5.064300 0.7600 0.7610 0.7630 0.7630 0.7610
5.089000 0.7600 0.7590 0.7580 0.7580 0.7580
5.113300 0.7560 0.7560 0.7560 0.7560 0.7560
5.138000 0.7560 0.7550 0.7540 0.7530 0.7530
5.162300 0.7530 0.7530 0.7520 0.7500 0.7490
5.186000 0.7490 0.7480 0.7490 0.7500 0.7500
5.210300 0.7500 0.7500 0.7520 0.7520 0.7520
5.235000 0.7530 0.7530 0.7530 0.7530 0.7520
5.259300 0.7530 0.7540 0.7580 0.7600 0.7630
5.283000 0.7640 0.7640 0.7640 0.7650 0.7650
5.307300 0.7660 0.7670 0.7690 0.7700 0.7710
5.332000 0.7710 0.7710 0.7720 0.7720 0.7730
5.356300 0.7750 0.7750 0.7760 0.7770 0.7780
5.381000 0.7800 0.7800 0.7800 0.7780 0.7770
5.405300 0.7780 0.7780 0.7780 0.7780 0.7780
5.429000 0.7780 0.7770 0.7770 0.7760 0.7760
5.453300 0.7750 0.7750 0.7750 0.7730 0.7720
5.478000 0.7690 0.7690 0.7690 0.7690 0.7670
5.502300 0.7650 0.7640 0.7640 0.7640 0.7630
5.526000 0.7610 0.7520 0.7500 0.7480 0.7470
5.550300 0.7430 0.7430 0.7420 0.7390 0.7320
5.575000 0.7250 0.7240 0.7190 0.7130 0.7070
5.599300 0.7010 0.6990 0.6980 0.6960 0.6950
5.623000 0.6910 0.6870 0.6780 0.6750 0.6730
5.647300 0.6680 0.6530 0.6390 0.6010 0.5880
5.672000 0.5610 0.5390 0.5290 0.5130 0.5010
5.696300 0.4690 0.4600 0.4480 0.4410 0.4300
5.721000 0.4210 0.4130 0.4040 0.3860 0.3770
5.745300 0.3230 0.2980 0.2900 0.2630 0.2560
5.769000 0.2040 0.1780 0.1570 0.1370 0.1050
5.793300 0.1030 0.1030 0.1030 0.1050 0.1090
5.818000 0.1190 0.1250 0.1310 0.1450 0.1510
5.842300 0.1570 0.1590 0.1890 0.2490 0.3070
5.866000 0.3650 0.4240 0.4690 0.4870 0.5040
5.890300 0.5180 0.5370 0.5470 0.5540 0.5560
5.915000 0.5690 0.6050 0.6140 0.6170 0.6180
5.939300 0.6180 0.6180 0.6180 0.6180 0.6170
5.964000 0.6160 0.6140 0.6140 0.6130 0.6120
5.988300 0.6120 0.6120 0.6130 0.6130 0.6130
6.012000 0.6160 0.6180 0.6170 0.6170 0.6170
6.036300 0.6160 0.6140 0.6110 0.6090 0.6070
6.061000 0.6060 0.6020 0.6010 0.5970 0.5920
6.085300 0.5850 0.5780 0.5680 0.5600 0.5560
6.109000 0.5510 0.5500 0.5470 0.5400 0.5240
6.133300 0.5030 0.4930 0.4890 0.4840 0.4760
6.158000 0.4590 0.4480 0.4330 0.4270 0.4190
6.182300 0.4070 0.3880 0.3760 0.3480 0.3370
6.206000 0.3190 0.2740 0.2600 0.2500 0.2390
6.230300 0.2360 0.2320 0.2190 0.2070 0.2010
6.255000 0.2000 0.1990 0.1960 0.1880 0.1400
6.279300 0.1020 0.1000 0.1030 0.1060 0.1110
6.304000 0.1140 0.1150 0.1150 0.1190 0.1210
6.328300 0.1230 0.1230 0.1220 0.1220 0.1210
6.352000 0.1200 0.1190 0.1190 0.1190 0.1170
6.376300 0.1170 0.1170 0.1170 0.1200 0.1330
6.401000 0.1470 0.1780 0.1890 0.2270 0.2430
6.425300 0.2470 0.2490 0.2500 0.2500 0.2510
6.449000 0.2550 0.2690 0.3080 0.3390 0.3600
6.473300 0.3700 0.3800 0.3990 0.4030 0.4190
6.498000 0.4210 0.4370 0.4420 0.4480 0.4500
6.522300 0.4580 0.4710 0.4780 0.4810 0.4890
6.547000 0.4940 0.4950 0.4960 0.4980 0.4980
6.571300 0.4990 0.5000 0.5040 0.5070 0.5160
6.595000 0.5260 0.5350 0.5460 0.5570 0.5650
6.619300 0.5660 0.5730 0.5740 0.5740 0.5740
6.644000 0.5740 0.5730 0.5720 0.5690 0.5620
6.668300 0.5580 0.5560 0.5490 0.5380 0.5300
6.692000 0.5200 0.5070 0.4660 0.4420 0.4170
6.716300 0.4110 0.4080 0.4020 0.3960 0.3820
6.741000 0.3310 0.3020 0.2780 0.2570 0.2450
6.765300 0.2430 0.2400 0.2390 0.2390 0.2390
6.789000 0.2390 0.2390 0.2400 0.2410 0.2460
6.813300 0.2500 0.2680 0.2790 0.2870 0.3030
6.838000 0.3130 0.3240 0.3390 0.3430 0.3530
6.862300 0.3570 0.3660 0.3700 0.3710 0.3730
6.887000 0.3710 0.3710 0.3690 0.3630 0.3620
6.911300 0.3590 0.3390 0.3290 0.3080 0.2940
6.935000 0.2660 0.2600 0.2600 0.2720 0.2830
6.959300 0.3010 0.3180 0.3400 0.3540 0.3570
6.984000 0.3600 0.3600 0.3600 0.3600 0.3540
7.008300 0.3480 0.3430 0.3370 0.3300 0.3200
7.032000 0.3120 0.3030 0.2950 0.2920 0.2890
7.056300 0.2890 0.2900 0.2900 0.2920 0.2950
7.081000 0.2960 0.2960 0.2970 0.2980 0.3020
7.105300 0.3200 0.3200 0.3110 0.2940 0.2860
7.130000 0.2830 0.2780 0.2720 0.2680 0.2660
7.154300 0.2610 0.2570 0.2340 0.2330 0.2320
7.178000 0.2330 0.2430 0.2490 0.2550 0.2570
7.202300 0.2580 0.2620 0.2670 0.2690 0.2720
7.227000 0.2790 0.2840 0.2860 0.2860 0.2830
7.251300 0.2770 0.2700 0.2690 0.2680 0.2670
7.275000 0.2660 0.2660 0.2640 0.2640 0.2620
7.299300 0.2550 0.2400 0.2340 0.2320 0.2270
7.324000 0.2180 0.2110 0.2080 0.2060 0.2060
7.348300 0.2070 0.2080 0.2100 0.2110 0.2130
7.372000 0.2150 0.2170 0.2230 0.2240 0.2190
7.396300 0.2160 0.2110 0.2080 0.2080 0.2080
7.421000 0.2080 0.2070 0.2050 0.2040 0.2040
7.445300 0.2040 0.2020 0.2020 0.2050 0.2070
7.470000 0.2110 0.2130 0.2170 0.2210 0.2260
7.494300 0.2340 0.2390 0.2460 0.2490 0.2500
7.518000 0.2510 0.2530 0.2670 0.2740 0.2740
7.542300 0.2790 0.2800 0.2830 0.2830 0.2840
7.567000 0.2840 0.2840 0.2830 0.2830 0.2830
7.591300 0.2810 0.2790 0.2750 0.2690 0.2640
7.615000 0.2340 0.2350 0.2360 0.2390 0.2490
7.639300 0.2570 0.2670 0.2700 0.2780 0.2950
7.664000 0.3260 0.3400 0.3620 0.3730 0.3830
7.688300 0.4000 0.4300 0.4590 0.4700 0.4730
7.713000 0.4780 0.4840 0.4920 0.4990 0.5040
7.737300 0.5070 0.5270 0.5320 0.5410 0.5470
7.761000 0.5510 0.5560 0.5580 0.5580 0.5510
7.785300 0.5470 0.5280 0.5160 0.4840 0.4790
7.810000 0.4770 0.4770 0.4900 0.4950 0.5000
7.834300 0.5070 0.5150 0.5220 0.5290 0.5350
7.858000 0.5400 0.5460 0.5460 0.5460 0.5320
7.882300 0.5150 0.4770 0.4590 0.4390 0.4210
7.907000 0.4030 0.3850 0.3510 0.3490 0.3200
7.931300 0.2950 0.2940 0.2960 0.3180 0.3310
7.955000 0.3450 0.3580 0.3690 0.3740 0.3790
7.979300 0.3870 0.3970 0.4040 0.4040 0.4030
8.004000 0.3960 0.3130 0.3060 0.2980 0.2900
8.028300 0.2830 0.2740 0.2740 0.2770 0.2960
8.053000 0.3150 0.3350 0.3540 0.3740 0.3820
8.077300 0.3910 0.4110 0.4360 0.4650 0.4690
8.101000 0.4760 0.4780 0.4810 0.4830 0.4840
8.125300 0.4860 0.4870 0.4870 0.4860 0.4840
8.150000 0.4820 0.4710 0.4430 0.4270 0.4110
8.174300 0.4020 0.3880 0.3760 0.3340 0.3130
8.198000 0.3110 0.3070 0.2850 0.2510 0.2280
8.222300 0.2220 0.2180 0.2020 0.1880 0.1810
8.247000 0.1720 0.1640 0.1600 0.1550 0.1540
8.271300 0.1510 0.1490 0.1480 0.1450 0.1450
8.296000 0.1440 0.1440 0.1440 0.1450 0.1470
8.320300 0.1490 0.1500 0.1530 0.1550 0.1570
8.344000 0.1590 0.1730 0.1910 0.2010 0.2220
8.368300 0.2240 0.2320 0.2440 0.2460 0.2510
8.393000 0.2550 0.2860 0.2960 0.3310 0.3470
8.417300 0.3680 0.3790 0.3880 0.4040 0.4200
8.441000 0.4470 0.4590 0.4700 0.4860 0.4920
8.465300 0.4940 0.4940 0.4870 0.4830 0.4790
8.490000 0.4660 0.4600 0.4420 0.4130 0.3970
8.514300 0.3860 0.3370 0.3150 0.2890 0.2670
8.538000 0.2610 0.2570 0.2570 0.2570 0.2570
8.562300 0.2600 0.2700 0.2900 0.2910 0.2910
8.587000 0.2940 0.3180 0.3570 0.3940 0.4750
8.611300 0.4950 0.5030 0.5090 0.5380 0.5730
8.636000 0.5860 0.5910 0.5940 0.5940 0.5940
8.660300 0.5910 0.5880 0.5780 0.5720 0.5710
8.684000 0.5720 0.5780 0.5840 0.5990 0.6140
8.708300 0.6230 0.6310 0.6430 0.6500 0.6670
8.733000 0.6710 0.6800 0.6840 0.6840 0.6840
8.757300 0.6840 0.6840 0.6840 0.6810 0.6740
8.781000 0.6690 0.6680 0.6620 0.6530 0.6460
8.805300 0.6370 0.6340 0.6330 0.6310 0.6310
8.830000 0.6330 0.6330 0.6350 0.6420 0.6510
8.854300 0.6540 0.6590 0.6690 0.6790 0.6870
8.879000 0.6970 0.7050 0.7090 0.7130 0.7160
8.903300 0.7200 0.7220 0.7240 0.7250 0.7250
8.927000 0.7260 0.7250 0.7250 0.7250 0.7240
8.951300 0.7240 0.7240 0.7220 0.7220 0.7220
8.976000 0.7220 0.7250 0.7320 0.7370 0.7470
9.000300 0.7490 0.7520 0.7600 0.7660 0.7720
9.024000 0.7780 0.7780 0.7800 0.7810 0.7820
9.048300 0.7820 0.7830 0.7840 0.7860 0.7860
9.073000 0.7870 0.7880 0.7910 0.7990 0.8000
9.097300 0.8010 0.8030 0.8040 0.8050 0.8060
9.121000 0.8060 0.8120 0.8150 0.8170 0.8200
9.145300 0.8220 0.8250 0.8270 0.8280 0.8280
9.170000 0.8280 0.8280 0.8270 0.8270 0.8260
9.194300 0.8250 0.8230 0.8210 0.8110 0.8000
9.219000 0.7880 0.7520 0.7270 0.7100 0.6920
9.243300 0.6780 0.6580 0.6450 0.6350 0.6310
9.267000 0.6310 0.6340 0.6370 0.6450 0.6590
9.291300 0.6690 0.6800 0.6900 0.6920 0.6950
9.316000 0.6980 0.6980 0.6990 0.7020 0.6990
9.340300 0.6990 0.6990 0.6960 0.6920 0.6950
9.364000 0.6970 0.7010 0.7070 0.7100 0.7220
9.388300 0.7260 0.7290 0.7310 0.7320 0.7330
9.413000 0.7330 0.7330 0.7270 0.7190 0.7120
9.437300 0.7030 0.6930 0.6930 0.6810 0.6690
9.462000 0.6570 0.6540 0.6530 0.6510 0.6310
9.486300 0.6120 0.6060 0.6030 0.6020 0.6000
9.510000 0.5990 0.6000 0.5990 0.6010 0.6190
9.534300 0.6310 0.6430 0.6500 0.6630 0.6710
9.559000 0.6970 0.7180 0.7290 0.7330 0.7420
9.583300 0.7470 0.7490 0.7470 0.7460 0.7390
9.607000 0.7330 0.7310 0.7200 0.7120 0.7070
9.631300 0.7020 0.6960 0.6900 0.6820 0.6790
9.656000 0.6780 0.6780 0.6780 0.6780 0.6800
9.680300 0.6820 0.7020 0.7120 0.7250 0.7320
9.704000 0.7390 0.7420 0.7460 0.7470 0.7470
9.728300 0.7410 0.7370 0.7320 0.7260 0.7100
9.753000 0.7080 0.7080 0.7070 0.7070 0.7050
9.777300 0.7040 0.7040 0.7040 0.7040 0.7040
9.802000 0.6970 0.6970 0.6960 0.6960 0.6960
9.826300 0.6960 0.6970 0.6980 0.6980 0.7020
9.850000 0.7040 0.7050 0.7150 0.7210 0.7240
9.874300 0.7310 0.7420 0.7490 0.7490 0.7500
9.899000 0.7500 0.7520 0.7530 0.7530 0.7530
9.923300 0.7530 0.7460 0.7320 0.7190 0.7090
9.947000 0.6910 0.6760 0.6600 0.6460 0.6300
9.971300 0.6250 0.6060 0.6050 0.6050 0.6070
9.996000 0.6170 0.6230 0.6280 0.6480 0.6640
10.020300 0.6790 0.6990 0.7030 0.7070 0.7090
10.045000 0.7160 0.7190 0.7290 0.7380 0.7480
10.069300 0.7480 0.7480 0.7500 0.7530 0.7580
10.093000 0.7630 0.7660 0.7690 0.7700 0.7710
10.117300 0.7730 0.7730 0.7750 0.7760 0.7770
10.142000 0.7800 0.7800 0.7730 0.7690 0.7660
10.166300 0.7690 0.7750 0.7750 0.7750 0.7750
10.190000 0.7750 0.7730 0.7750 0.7730 0.7730
10.214300 0.7720 0.7720 0.7720 0.7710 0.7700
10.239000 0.7650 0.7610 0.7610 0.7600 0.7590
10.263300 0.7560 0.7540 0.7530 0.7500 0.7480
10.287000 0.7470 0.7440 0.7430 0.7420 0.7420
10.311300 0.7420 0.7430 0.7430 0.7440 0.7460
10.336000 0.7470 0.7470 0.7480 0.7480 0.7490
10.360300 0.7500 0.7500 0.7520 0.7560 0.7640
10.385000 0.7660 0.7720 0.7750 0.7750 0.7750
10.409300 0.7750 0.7730 0.7750 0.7760 0.7760
10.433000 0.7760 0.7760 0.7770 0.7780 0.7820
10.457300 0.7870 0.7910 0.7920 0.7920 0.7930
10.482000 0.7940 0.7950 0.7950 0.7950 0.7950
10.506300 0.7950 0.7950 0.7950 0.7940 0.7940
10.530000 0.7930 0.7930 0.7930 0.7930 0.7930
10.554300 0.7930 0.7920 0.7920 0.7910 0.7890
10.579000 0.7890 0.7880 0.7890 0.7860 0.7760
10.603300 0.7690 0.7660 0.7630 0.7580 0.7520
10.628000 0.7520 0.7550 0.7560 0.7580 0.7580
10.652300 0.7580 0.7590 0.7590 0.7590 0.7590
10.676000 0.7580 0.7580 0.7560 0.7550 0.7550
10.700300 0.7540 0.7530 0.7520 0.7330 0.7290
10.725000 0.7270 0.7270 0.7270 0.7260 0.7250
10.749300 0.7250 0.7240 0.7220 0.7220 0.7220
10.773000 0.7210 0.7190 0.7180 0.7160 0.7100
10.797300 0.7050 0.6910 0.6880 0.6870 0.6840
10.822000 0.6760 0.6700 0.6650 0.6630 0.6620
10.846300 0.6530 0.6500 0.6500 0.6480 0.6450
10.870000 0.6410 0.6400 0.6330 0.6300 0.6280
10.894300 0.6200 0.6180 0.6110 0.6030 0.6020
10.919000 0.5990 0.5900 0.5820 0.5790 0.5720
10.943300 0.5620 0.5550 0.5500 0.5490 0.5400
10.968000 0.5330 0.5320 0.5320 0.5320 0.5330
10.992300 0.5370 0.5390 0.5390 0.5400 0.5410
11.016000 0.5410 0.5400 0.5390 0.5270 0.5160
11.040300 0.5050 0.4940 0.4930 0.4880 0.4870
11.065000 0.4810 0.4730 0.4720 0.4750 0.4770
11.089300 0.4860 0.4900 0.4990 0.5060 0.5320
11.113000 0.5500 0.5720 0.5910 0.6000 0.6010
11.137300 0.6010 0.6050 0.6140 0.6250 0.6350
11.162000 0.6410 0.6420 0.6430 0.6480 0.6560
11.186300 0.6640 0.6740 0.6840 0.6960 0.6980
11.211000 0.6990 0.7010 0.7020 0.7040 0.7070
11.235300 0.7090 0.7120 0.7140 0.7160 0.7190
11.259000 0.7210 0.7220 0.7240 0.7260 0.7270
11.283300 0.7300 0.7320 0.7330 0.7350 0.7360
11.308000 0.7360 0.7360 0.7350 0.7320 0.7310
11.332300 0.7300 0.7290 0.7270 0.7270 0.7260
11.356000 0.7260 0.7260 0.7260 0.7270 0.7290
11.380300 0.7300 0.7330 0.7360 0.7390 0.7460
11.405000 0.7500 0.7630 0.7700 0.7780 0.7810
11.429300 0.7810 0.7810 0.7810 0.7810 0.7820
11.453000 0.7870 0.7990 0.8010 0.8030 0.8030
11.477300 0.8030 0.8040 0.8040 0.8040 0.8060
11.502000 0.8080 0.8080 0.8090 0.8100 0.8120
11.526300 0.8140 0.8150 0.8180 0.8180 0.8200
11.551000 0.8200 0.8200 0.8200 0.8210 0.8280
11.575300 0.8310 0.8320 0.8320 0.8320 0.8330
11.599000 0.8340 0.8370 0.8390 0.8400 0.8400
11.623300 0.8420 0.8430 0.8480 0.8550 0.8650
11.648000 0.8690 0.8710 0.8720 0.8720 0.8720
11.672300 0.8720 0.8730 0.8760 0.8780 0.8820
11.696000 0.8840 0.8860 0.8900 0.8900 0.8910
11.720300 0.8880 0.8860 0.8820 0.8790 0.8680
11.745000 0.8670 0.8710 0.8720 0.8740 0.8780
11.769300 0.8820 0.8880 0.8930 0.8940 0.8970
11.794000 0.8990 0.9000 0.9020 0.9080 0.9190
11.818300 0.9220 0.9230 0.9230 0.9230 0.9230
11.842000 0.9230 0.9230 0.9230 0.9230 0.9230
11.866300 0.9230 0.9230 0.9220 0.9220 0.9220
11.891000 0.9210 0.9190 0.9180 0.9120 0.9020
11.915300 0.8990 0.8970 0.8970 0.8990 0.9000
11.939000 0.9020 0.9060 0.9100 0.9130 0.9170
11.963300 0.9190 0.9210 0.9230 0.9230 0.9240
11.988000 0.9240 0.9270 0.9300 0.9330 0.9350
12.012300 0.9350 0.9340 0.9340 0.9330 0.9330
12.036000 0.9300 0.9280 0.9250 0.9230 0.9180
12.060300 0.9130 0.9060 0.9020 0.9000 0.8930
12.085000 0.8850 0.8780 0.8650 0.8600 0.8590
12.109300 0.8560 0.8520 0.8510 0.8510 0.8510
12.134000 0.8540 0.8550 0.8560 0.8590 0.8620
12.158300 0.8630 0.8650 0.8660 0.8660 0.8660
12.182000 0.8670 0.8670 0.8660 0.8650 0.8610
12.206300 0.8570 0.8560 0.8550 0.8520 0.8490
12.231000 0.8480 0.8480 0.8490 0.8500 0.8500
12.255300 0.8550 0.8590 0.8590 0.8590 0.8590
12.279000 0.8590 0.8590 0.8590 0.8570 0.8570
12.303300 0.8560 0.8540 0.8500 0.8490 0.8490
12.328000 0.8460 0.8450 0.8440 0.8400 0.8340
12.352300 0.8320 0.8290 0.8270 0.8260 0.8260
12.377000 0.8250 0.8250 0.8210 0.8160 0.8120
12.401300 0.8060 0.8050 0.8010 0.8000 0.7980
12.425000 0.7970 0.7940 0.7920 0.7890 0.7840
12.449300 0.7830 0.7800 0.7720 0.7640 0.7610
12.474000 0.7610 0.7600 0.7600 0.7590 0.7480
12.498300 0.7470 0.7460 0.7460 0.7440 0.7440
12.522000 0.7430 0.7420 0.7360 0.7330 0.7320
12.546300 0.7300 0.7290 0.7270 0.7260 0.7260
12.571000 0.7260 0.7250 0.7250 0.7270 0.7290
12.595300 0.7290 0.7310 0.7310 0.7300 0.7290
12.619000 0.7290 0.7250 0.7190 0.7050 0.6900
12.643300 0.6840 0.6790 0.6740 0.6710 0.6670
12.668000 0.6480 0.6310 0.6020 0.5880 0.5750
12.692300 0.5690 0.5690 0.5680 0.5670 0.5660
12.717000 0.5500 0.5340 0.5270 0.5240 0.5170
12.741300 0.5160 0.5160 0.5160 0.5170 0.5180
12.765000 0.5290 0.5340 0.5450 0.5660 0.5780
12.789300 0.5970 0.6170 0.6280 0.6370 0.6560
12.814000 0.6700 0.6910 0.6920 0.6970 0.7050
12.838300 0.7260 0.7350 0.7490 0.7530 0.7550
12.862000 0.7580 0.7640 0.7760 0.7800 0.7840
12.886300 0.7870 0.7910 0.7990 0.8050 0.8110
12.911000 0.8120 0.8140 0.8180 0.8290 0.8350
12.935300 0.8390 0.8400 0.8480 0.8540 0.8590
12.960000 0.8620 0.8620 0.8630 0.8660 0.8710
12.984300 0.8770 0.8820 0.8860 0.8930 0.8960
13.008000 0.8990 0.9000 0.9010 0.9010 0.9020
13.032300 0.9050 0.9070 0.9100 0.9110 0.9120
13.057000 0.9130 0.9140 0.9180 0.9220 0.9290
13.081300 0.9300 0.9310 0.9330 0.9330 0.9350
13.105000 0.9350 0.9360 0.9400 0.9410 0.9450
13.129300 0.9460 0.9470 0.9470 0.9480 0.9500
13.154000 0.9500 0.9500 0.9500 0.9500 0.9510
13.178300 0.9530 0.9560 0.9590 0.9620 0.9630
13.202000 0.9630 0.9640 0.9630 0.9630 0.9620
13.226300 0.9620 0.9610 0.9610 0.9610 0.9610
13.251000 0.9610 0.9590 0.9590 0.9590 0.9590
13.275300 0.9590 0.9590 0.9590 0.9590 0.9590
13.300000 0.9580 0.9570 0.9510 0.9500 0.9440
13.324300 0.9390 0.9300 0.9210 0.9180 0.9130
13.348000 0.9060 0.8840 0.8760 0.8560 0.8400
13.372300 0.8370 0.8320 0.8290 0.8280 0.8280
13.397000 0.8280 0.8280 0.8280 0.8280 0.8280
13.421300 0.8310 0.8330 0.8340 0.8370 0.8450
13.445000 0.8610 0.8680 0.8730 0.8770 0.8820
13.469300 0.8890 0.8960 0.9040 0.9070 0.9120
13.494000 0.9130 0.9140 0.9160 0.9140 0.9140
13.518300 0.9130 0.9120 0.9100 0.9060 0.9020
13.543000 0.8990 0.8940 0.8880 0.8790 0.8770
13.567300 0.8650 0.8600 0.8520 0.8520 0.8520
13.591000 0.8510 0.8500 0.8510 0.8510 0.8510
13.615300 0.8540 0.8550 0.8560 0.8550 0.8550
13.640000 0.8510 0.8480 0.8430 0.8370 0.8340
13.664300 0.8310 0.8280 0.8250 0.8200 0.8110
13.688000 0.8040 0.7990 0.7890 0.7860 0.7860
13.712300 0.7840 0.7830 0.7820 0.7810 0.7800
13.737000 0.7730 0.7710 0.7700 0.7600 0.7590
13.761300 0.7560 0.7540 0.7500 0.7200 0.7070
13.785000 0.7010 0.6960 0.6730 0.6600 0.6500
13.809300 0.5920 0.5800 0.5790 0.5620 0.5460
13.834000 0.5270 0.5110 0.4690 0.4600 0.4580
13.858300 0.4560 0.4550 0.4520 0.4520 0.4490
13.883000 0.4500 0.4590 0.4660 0.4860 0.4940
13.907300 0.5030 0.5170 0.5410 0.5800 0.6060
13.931000 0.6230 0.6310 0.6400 0.6580 0.6780
13.955300 0.7010 0.7250 0.7490 0.7530 0.7560
13.980000 0.7800 0.7920 0.8030 0.8080 0.8140
14.004300 0.8160 0.8260 0.8280 0.8430 0.8590
14.028000 0.8660 0.8670 0.8720 0.8760 0.8900
14.052300 0.9020 0.9080 0.9100 0.9120 0.9130
14.077000 0.9130 0.9140 0.9190 0.9230 0.9250
14.101300 0.9280 0.9300 0.9340 0.9400 0.9440
14.126000 0.9450 0.9470 0.9500 0.9500 0.9520
14.150300 0.9530 0.9550 0.9550 0.9560 0.9560
14.174000 0.9570 0.9570 0.9570 0.9580 0.9580
14.198300 0.9610 0.9610 0.9590 0.9590 0.9590
14.223000 0.9580 0.9570 0.9570 0.9570 0.9560
14.247300 0.9550 0.9530 0.9520 0.9480 0.9420
14.271000 0.9360 0.9330 0.9280 0.9130 0.9000
14.295300 0.8970 0.8940 0.8900 0.8790 0.8630
14.320000 0.8560 0.8480 0.8220 0.8200 0.8150
14.344300 0.7970 0.7720 0.7650 0.7560 0.7500
14.368000 0.7190 0.7070 0.6840 0.6760 0.6690
14.392300 0.6640 0.6520 0.6370 0.6070 0.5950
14.417000 0.5790 0.5670 0.5520 0.5380 0.5320
14.441300 0.5240 0.5230 0.5160 0.5130 0.5110
14.466000 0.5090 0.5070 0.5100 0.5220 0.5290
14.490300 0.5540 0.5780 0.6010 0.6200 0.6280
14.514000 0.6350 0.6570 0.6750 0.6930 0.7020
14.538300 0.7100 0.7320 0.7370 0.7490 0.7610
14.563000 0.7810 0.7890 0.7910 0.7930 0.7930
14.587300 0.7940 0.7980 0.8030 0.8090 0.8140
14.611000 0.8170 0.8210 0.8280 0.8310 0.8310
14.635300 0.8370 0.8420 0.8490 0.8510 0.8520
14.660000 0.8540 0.8550 0.8560 0.8590 0.8590
14.684300 0.8600 0.8600 0.8610 0.8650 0.8690
14.709000 0.8710 0.8720 0.8730 0.8730 0.8730
14.733300 0.8740 0.8760 0.8770 0.8790 0.8800
14.757000 0.8820 0.8820 0.8830 0.8840 0.8840
14.781300 0.8840 0.8840 0.8840 0.8840 0.8840
14.806000 0.8850 0.8850 0.8850 0.8850 0.8850
14.830300 0.8840 0.8840 0.8830 0.8820 0.8800
14.854000 0.8790 0.8780 0.8760 0.8720 0.8710
14.878300 0.8670 0.8650 0.8650 0.8620 0.8590
14.903000 0.8570 0.8550 0.8520 0.8450 0.8400
14.927300 0.8340 0.8210 0.8170 0.8150 0.8100
14.951000 0.8030 0.7930 0.7860 0.7840 0.7810
14.975300 0.7780 0.7610 0.7520 0.7250 0.7130
15.000000 0.7040 0.7010 0.6920 0.6880 0.6800
15.024300 0.6700 0.6620 0.6580 0.6520 0.6400
15.049000 0.6340 0.6280 0.6120 0.6020 0.5840
15.073300 0.5770 0.5660 0.5650 0.5660 0.5680
15.097000 0.5710 0.5730 0.5730 0.5730 0.5730
15.121300 0.5730 0.5730 0.5730 0.5740 0.5780
15.146000 0.5840 0.5890 0.5950 0.6020 0.6110
15.170300 0.6180 0.6250 0.6330 0.6370 0.6400
15.194000 0.6420 0.6520 0.6600 0.6750 0.6800
15.218300 0.6880 0.6990 0.7030 0.7240 0.7290
15.243000 0.7300 0.7330 0.7380 0.7470 0.7500
15.267300 0.7540 0.7580 0.7610 0.7650 0.7690
15.291000 0.7730 0.7830 0.7920 0.7970 0.7980
15.315300 0.7990 0.8000 0.8010 0.8000 0.8000
15.340000 0.8010 0.8030 0.8030 0.8040 0.8060
15.364300 0.8090 0.8110 0.8120 0.8120 0.8140
15.389000 0.8150 0.8150 0.8160 0.8160 0.8170
15.413300 0.8180 0.8200 0.8220 0.8230 0.8260
15.437000 0.8270 0.8270 0.8270 0.8280 0.8280
15.461300 0.8280 0.8280 0.8280 0.8290 0.8310
15.486000 0.8330 0.8370 0.8400 0.8420 0.8420
15.510300 0.8430 0.8430 0.8430 0.8430 0.8420
15.534000 0.8420 0.8400 0.8400 0.8400 0.8400
15.558300 0.8400 0.8400 0.8400 0.8400 0.8390
15.583000 0.8380 0.8380 0.8370 0.8350 0.8340
15.607300 0.8330 0.8320 0.8320 0.8310 0.8310
15.632000 0.8290 0.8290 0.8290 0.8290 0.8290
15.656300 0.8290 0.8290 0.8290 0.8290 0.8290
15.680000 0.8290 0.8280 0.8260 0.8230 0.8220
15.704300 0.8210 0.8210 0.8210 0.8210
##END=
