##TITLE=L-(+)-GLUTAMIC ACID
$$ E.K. (W.L.)
##JCAMP-DX=4.24
##DATA TYPE=INFRARED SPECTRUM
##CLASS=COBLENTZ
##ORIGIN=WYANDOTTE CHEMICALS CORP., WYANDOTTE, MICHIGAN, USA
##OWNER=COBLENTZ SOCIETY
Collection (C) 2018 copyright by the U.S. Secretary of Commerce
on behalf of the United States of America. All rights reserved.
##DATE=Not specified, most likely prior to 1970
##MOLFORM=C5 H9 O4
##MP=197 C DECOMPOSES
##SOURCE REFERENCE=COBLENTZ NO. 390
##$NIST ID=B6000390
##$NIST SOURCE=COBLENTZ
##$NIST IMAGE=cob390
##SPECTROMETER/DATA SYSTEM=Not specified, most likely a prism, grating, or hybrid spectrometer.
##STATE=SOLID (OIL MULL)
##SAMPLING PROCEDURE=TRANSMISSION
##RESOLUTION=4
##DATA PROCESSING=DIGITIZED BY NIST FROM HARD COPY
##XUNITS=MICROMETERS
##YUNITS=TRANSMITTANCE
##XFACTOR=1.000000
##YFACTOR=1
##DELTAX=000.006603
##FIRSTX=2.056
##LASTX=16.0078
##FIRSTY=0.838
##MAXX=16.0078
##MINX=2.056
##MAXY=0.951
##MINY=0.026
##NPOINTS=2114
##XYDATA=(X++(Y..Y))
2.056000 0.8380 0.8380 0.8400 0.8400 0.8420
2.089031 0.8400 0.8420 0.8430 0.8430 0.8450
2.122000 0.8470 0.8480 0.8500 0.8500 0.8500
2.155031 0.8530 0.8530 0.8520 0.8520 0.8520
2.188000 0.8480 0.8480 0.8480 0.8450 0.8420
2.221031 0.8420 0.8430 0.8450 0.8470 0.8450
2.254000 0.8450 0.8450 0.8470 0.8500 0.8550
2.287031 0.8600 0.8680 0.8720 0.8720 0.8700
2.320000 0.8700 0.8680 0.8680 0.8700 0.8750
2.353031 0.8800 0.8820 0.8820 0.8850 0.8870
2.386000 0.8920 0.8950 0.8970 0.8980 0.9000
2.419031 0.9000 0.9000 0.9010 0.9010 0.9010
2.452000 0.9010 0.9030 0.9050 0.9050 0.9060
2.485031 0.9060 0.9060 0.9060 0.9060 0.9060
2.518000 0.9080 0.9080 0.9080 0.9080 0.9130
2.551031 0.9180 0.9210 0.9260 0.9330 0.9380
2.584000 0.9380 0.9330 0.9160 0.9150 0.9160
2.617031 0.9210 0.9310 0.9380 0.9410 0.9450
2.650000 0.9460 0.9480 0.9480 0.9500 0.9500
2.683031 0.9510 0.9510 0.9510 0.9510 0.9510
2.716000 0.9500 0.9480 0.9460 0.9460 0.9460
2.749031 0.9430 0.9430 0.9450 0.9450 0.9400
2.782000 0.9380 0.9380 0.9360 0.9310 0.9280
2.815031 0.9230 0.9210 0.9210 0.9210 0.9200
2.848000 0.9200 0.9180 0.9130 0.9080 0.9030
2.881031 0.9000 0.8980 0.8970 0.8950 0.8950
2.914000 0.8930 0.8920 0.8900 0.8880 0.8830
2.947031 0.8780 0.8750 0.8730 0.8730 0.8730
2.980000 0.8730 0.8720 0.8680 0.8670 0.8630
3.013031 0.8530 0.8480 0.8430 0.8330 0.8250
3.046000 0.8120 0.7920 0.7720 0.7600 0.7490
3.079031 0.7400 0.7340 0.7220 0.7090 0.6970
3.112000 0.6820 0.6470 0.6310 0.6010 0.5590
3.145031 0.5190 0.4950 0.4680 0.4100 0.3620
3.178000 0.3270 0.2900 0.2670 0.2500 0.2340
3.211031 0.1840 0.1320 0.1290 0.1290 0.1370
3.244000 0.1510 0.1590 0.1660 0.1670 0.1670
3.277031 0.1670 0.1670 0.1690 0.1690 0.1640
3.310000 0.1570 0.1520 0.1260 0.1090 0.0940
3.343031 0.0780 0.0610 0.0430 0.0430 0.0290
3.376000 0.0290 0.0330 0.0330 0.0280 0.0260
3.409031 0.0260 0.0280 0.0290 0.0330 0.0340
3.442000 0.0360 0.0380 0.0410 0.0390 0.0380
3.475031 0.0340 0.0340 0.0340 0.0380 0.0430
3.508000 0.0480 0.0560 0.0660 0.0810 0.0990
3.541031 0.1190 0.1490 0.1570 0.1660 0.1720
3.574000 0.1810 0.1870 0.1910 0.1920 0.1970
3.607031 0.2000 0.2050 0.2070 0.2070 0.2000
3.640000 0.1870 0.1790 0.1760 0.1770 0.1860
3.673031 0.1960 0.2040 0.2140 0.2190 0.2240
3.707000 0.2320 0.2390 0.2390 0.2290 0.2170
3.740031 0.2040 0.1910 0.1770 0.1660 0.1520
3.773000 0.1510 0.1560 0.1690 0.1760 0.1870
3.806031 0.2020 0.2100 0.2140 0.2150 0.2170
3.839000 0.2190 0.2220 0.2270 0.2350 0.2470
3.872031 0.2590 0.2620 0.2690 0.2700 0.2740
3.905000 0.2800 0.2820 0.2820 0.2820 0.2800
3.938031 0.2800 0.2800 0.2800 0.2800 0.2870
3.971000 0.2940 0.2970 0.3000 0.3050 0.3080
4.004031 0.3100 0.3130 0.3180 0.3230 0.3270
4.037000 0.3270 0.3270 0.3280 0.3330 0.3380
4.070031 0.3470 0.3520 0.3570 0.3600 0.3630
4.103000 0.3650 0.3680 0.3700 0.3720 0.3720
4.136031 0.3720 0.3720 0.3730 0.3750 0.3800
4.169000 0.3870 0.3870 0.3880 0.3920 0.3950
4.202031 0.4000 0.4030 0.4050 0.4080 0.4150
4.235000 0.4150 0.4110 0.4100 0.4060 0.4050
4.268031 0.4060 0.4060 0.4100 0.4130 0.4180
4.301000 0.4230 0.4260 0.4310 0.4330 0.4380
4.334031 0.4410 0.4480 0.4530 0.4630 0.4730
4.367000 0.4860 0.5000 0.5160 0.5240 0.5280
4.400031 0.5290 0.5310 0.5310 0.5330 0.5340
4.433000 0.5340 0.5360 0.5380 0.5410 0.5460
4.466031 0.5530 0.5660 0.5710 0.5760 0.5790
4.499000 0.5810 0.5830 0.5860 0.5890 0.5940
4.532031 0.5990 0.6010 0.6060 0.6090 0.6110
4.565000 0.6110 0.6120 0.6140 0.6140 0.6160
4.598031 0.6170 0.6170 0.6190 0.6190 0.6210
4.631000 0.6210 0.6210 0.6190 0.6160 0.6120
4.664031 0.6090 0.6020 0.6010 0.6010 0.6010
4.697000 0.6010 0.5990 0.5940 0.5840 0.5680
4.730031 0.5510 0.5260 0.5060 0.4850 0.4800
4.763000 0.4800 0.4900 0.5390 0.5630 0.5730
4.796031 0.5760 0.5790 0.5810 0.5810 0.5810
4.829000 0.5810 0.5810 0.5790 0.5790 0.5790
4.862031 0.5840 0.5880 0.5890 0.5890 0.5910
4.895000 0.5910 0.5930 0.5940 0.5960 0.5960
4.928031 0.5960 0.5940 0.5930 0.5930 0.5890
4.961000 0.5840 0.5790 0.5740 0.5730 0.5690
4.994031 0.5660 0.5610 0.5560 0.5510 0.5510
5.027000 0.5490 0.5480 0.5460 0.5410 0.5330
5.060031 0.5260 0.5230 0.5140 0.5090 0.5030
5.093000 0.5000 0.4960 0.4810 0.4730 0.4680
5.126031 0.4560 0.4500 0.4450 0.4360 0.4330
5.159000 0.4310 0.4310 0.4300 0.4300 0.4280
5.192031 0.4300 0.4310 0.4360 0.4400 0.4450
5.225000 0.4460 0.4480 0.4500 0.4530 0.4630
5.258031 0.4730 0.4750 0.4810 0.4880 0.4950
5.291000 0.5000 0.5030 0.5030 0.5030 0.5030
5.324031 0.5030 0.5060 0.5080 0.5140 0.5180
5.357000 0.5180 0.5180 0.5180 0.5190 0.5280
5.390031 0.5360 0.5480 0.5490 0.5490 0.5480
5.423000 0.5480 0.5460 0.5460 0.5480 0.5580
5.456031 0.5660 0.5710 0.5760 0.5790 0.5810
5.489000 0.5830 0.5840 0.5840 0.5880 0.5910
5.522031 0.5910 0.5890 0.5880 0.5880 0.5880
5.555000 0.5860 0.5840 0.5790 0.5780 0.5780
5.588031 0.5760 0.5710 0.5680 0.5640 0.5610
5.621000 0.5540 0.5510 0.5480 0.5440 0.5390
5.654031 0.5380 0.5390 0.5390 0.5430 0.5430
5.687000 0.5410 0.5340 0.5290 0.5190 0.5160
5.720031 0.5060 0.5010 0.4900 0.4780 0.4630
5.753000 0.4380 0.4260 0.4230 0.4150 0.4050
5.786031 0.3900 0.3750 0.3600 0.3470 0.3350
5.820000 0.3250 0.2990 0.2820 0.2740 0.2690
5.853031 0.2520 0.2440 0.2340 0.2240 0.2140
5.886000 0.1940 0.1620 0.1470 0.1370 0.1360
5.919031 0.1290 0.1270 0.1270 0.1270 0.1290
5.952000 0.1360 0.1460 0.1640 0.1910 0.2090
5.985031 0.2170 0.2220 0.2570 0.2600 0.2640
6.018000 0.2640 0.2590 0.2500 0.2470 0.2440
6.051031 0.2200 0.2020 0.1770 0.1660 0.1640
6.084000 0.1620 0.1670 0.1820 0.1970 0.2170
6.117031 0.2290 0.2540 0.2540 0.2500 0.2400
6.150000 0.2300 0.2190 0.1890 0.1640 0.1460
6.183031 0.1340 0.1190 0.1110 0.0940 0.0760
6.216000 0.0680 0.0630 0.0540 0.0510 0.0490
6.249031 0.0480 0.0480 0.0480 0.0460 0.0460
6.282000 0.0460 0.0480 0.0490 0.0510 0.0530
6.315031 0.0540 0.0560 0.0580 0.0580 0.0580
6.348000 0.0590 0.0590 0.0610 0.0630 0.0660
6.381031 0.0680 0.0730 0.0760 0.0780 0.0790
6.414000 0.0810 0.0840 0.0860 0.0860 0.0880
6.447031 0.0880 0.0880 0.0860 0.0860 0.0860
6.480000 0.0840 0.0810 0.0740 0.0730 0.0730
6.513031 0.0730 0.0740 0.0860 0.0890 0.0940
6.546000 0.0990 0.1070 0.1140 0.1240 0.1340
6.579031 0.1390 0.1410 0.1420 0.1570 0.1720
6.612000 0.1860 0.1940 0.1970 0.1990 0.2000
6.645031 0.2040 0.2100 0.2220 0.2250 0.2340
6.678000 0.2400 0.2470 0.2650 0.2700 0.2700
6.711031 0.2690 0.2670 0.2670 0.2620 0.2570
6.744000 0.2500 0.2450 0.2390 0.2190 0.1960
6.777031 0.1770 0.1520 0.1390 0.1270 0.1120
6.810000 0.0990 0.0990 0.0990 0.1070 0.1160
6.843031 0.1220 0.1390 0.1540 0.1670 0.1820
6.876000 0.1990 0.2220 0.2490 0.2720 0.2790
6.909031 0.2890 0.2970 0.2990 0.2990 0.2970
6.942000 0.2940 0.2920 0.2900 0.2800 0.2720
6.975031 0.2620 0.2540 0.2440 0.2420 0.2420
7.008000 0.2440 0.2490 0.2540 0.2620 0.2750
7.041031 0.2900 0.3030 0.3150 0.3280 0.3400
7.074000 0.3520 0.3670 0.3820 0.4000 0.4230
7.107031 0.4400 0.4580 0.4850 0.4960 0.5090
7.140000 0.5140 0.5240 0.5280 0.5240 0.5110
7.173031 0.5040 0.4980 0.4830 0.4580 0.4310
7.206000 0.3800 0.3450 0.3070 0.2750 0.2550
7.239031 0.2340 0.2040 0.1720 0.1570 0.1570
7.272000 0.1610 0.1910 0.2100 0.2420 0.2790
7.305031 0.2890 0.2990 0.3050 0.3120 0.3220
7.338000 0.3250 0.3200 0.3080 0.3070 0.3020
7.371031 0.3000 0.2920 0.2820 0.2750 0.2650
7.404000 0.2590 0.2570 0.2520 0.2500 0.2490
7.437031 0.2350 0.2320 0.2320 0.2350 0.2390
7.470000 0.2440 0.2450 0.2450 0.2470 0.2540
7.503031 0.2520 0.2520 0.2500 0.2470 0.2390
7.536000 0.2300 0.2220 0.2050 0.1790 0.1570
7.569031 0.1410 0.1190 0.1010 0.0810 0.0690
7.602000 0.0660 0.0610 0.0560 0.0490 0.0490
7.635031 0.0510 0.0640 0.0760 0.0980 0.1320
7.668000 0.1440 0.1640 0.1890 0.2150 0.2390
7.701031 0.2490 0.2670 0.2670 0.2520 0.2400
7.734000 0.2290 0.2200 0.1990 0.1770 0.1610
7.767031 0.1490 0.1370 0.1270 0.1170 0.1070
7.800000 0.0980 0.0940 0.0930 0.0860 0.0830
7.833031 0.0810 0.0780 0.0780 0.0780 0.0790
7.866000 0.0810 0.0810 0.0810 0.0790 0.0790
7.899031 0.0790 0.0790 0.0810 0.0840 0.0880
7.933000 0.0890 0.0890 0.0890 0.0890 0.0890
7.966031 0.0890 0.0930 0.0990 0.1060 0.1120
7.999000 0.1170 0.1310 0.1460 0.1510 0.1520
8.032031 0.1490 0.1470 0.1460 0.1420 0.1410
8.065000 0.1410 0.1420 0.1440 0.1440 0.1470
8.098031 0.1490 0.1520 0.1560 0.1620 0.1710
8.131000 0.1820 0.1870 0.1970 0.2000 0.2050
8.164031 0.2140 0.2190 0.2220 0.2240 0.2270
8.197000 0.2320 0.2350 0.2390 0.2400 0.2420
8.230031 0.2440 0.2450 0.2540 0.2590 0.2620
8.263000 0.2670 0.2740 0.2820 0.2900 0.2990
8.296031 0.3030 0.3100 0.3130 0.3200 0.3320
8.329000 0.3400 0.3430 0.3450 0.3500 0.3550
8.362031 0.3630 0.3720 0.3750 0.3780 0.3800
8.395000 0.3800 0.3800 0.3800 0.3780 0.3680
8.428031 0.3570 0.3450 0.3420 0.3100 0.3100
8.461000 0.3120 0.3120 0.3230 0.3420 0.3620
8.494031 0.3670 0.3680 0.3700 0.3680 0.3520
8.527000 0.3350 0.2990 0.2740 0.2490 0.1920
8.560031 0.1670 0.1420 0.1310 0.1260 0.1260
8.593000 0.1310 0.1470 0.1560 0.1690 0.1960
8.626031 0.2140 0.2250 0.2370 0.2440 0.2570
8.659000 0.2640 0.2670 0.2770 0.2850 0.2940
8.692031 0.2970 0.2970 0.2920 0.2800 0.2740
8.725000 0.2600 0.2540 0.2450 0.2290 0.2100
8.758031 0.1990 0.1990 0.1990 0.2000 0.2200
8.791000 0.2290 0.2400 0.2470 0.2590 0.2550
8.824031 0.2540 0.2520 0.2500 0.2520 0.2550
8.857000 0.2620 0.2670 0.2770 0.2890 0.3000
8.890031 0.3150 0.3220 0.3330 0.3400 0.3500
8.923000 0.3600 0.3670 0.3720 0.3830 0.3900
8.956031 0.3930 0.3970 0.3980 0.4010 0.4110
8.989000 0.4180 0.4250 0.4280 0.4310 0.4350
9.022031 0.4410 0.4450 0.4480 0.4510 0.4510
9.055000 0.4510 0.4530 0.4530 0.4530 0.4530
9.088031 0.4530 0.4530 0.4510 0.4510 0.4480
9.121000 0.4480 0.4460 0.4450 0.4410 0.4380
9.154031 0.4330 0.4300 0.4280 0.4260 0.4260
9.187000 0.4110 0.4050 0.3930 0.3770 0.3580
9.220031 0.3420 0.3100 0.2850 0.2600 0.2540
9.253000 0.2470 0.2390 0.2370 0.2370 0.2440
9.286031 0.2920 0.3070 0.3180 0.3320 0.3420
9.319000 0.3520 0.3600 0.3720 0.3830 0.3950
9.352031 0.4010 0.4100 0.4180 0.4180 0.4160
9.385000 0.4160 0.4130 0.4080 0.3970 0.3950
9.418031 0.3880 0.3830 0.3830 0.3800 0.3770
9.451000 0.3770 0.3820 0.3850 0.3870 0.3880
9.484031 0.3900 0.3920 0.3970 0.4010 0.4080
9.517000 0.4100 0.4110 0.4130 0.4150 0.4150
9.550031 0.4150 0.4130 0.4050 0.4010 0.3970
9.583000 0.3930 0.3920 0.3900 0.3920 0.3930
9.616031 0.3930 0.3920 0.3900 0.3850 0.3820
9.649000 0.3750 0.3670 0.3600 0.3530 0.3480
9.682031 0.3420 0.3370 0.3280 0.3120 0.2970
9.715000 0.2900 0.2840 0.2750 0.2650 0.2500
9.748031 0.2490 0.2470 0.2470 0.2470 0.2470
9.781000 0.2470 0.2470 0.2470 0.2720 0.2800
9.814031 0.2900 0.2970 0.3070 0.3200 0.3330
9.847000 0.3480 0.3580 0.3670 0.3750 0.3820
9.880031 0.3880 0.3900 0.3920 0.3920 0.3900
9.913000 0.3900 0.3870 0.3850 0.3870 0.4030
9.946031 0.4100 0.4250 0.4360 0.4510 0.4650
9.979000 0.4730 0.4810 0.4950 0.5190 0.5310
10.012031 0.5380 0.5430 0.5490 0.5540 0.5630
10.045000 0.5680 0.5730 0.5780 0.5830 0.5860
10.078031 0.5860 0.5880 0.5880 0.5830 0.5780
10.112000 0.5680 0.5610 0.5560 0.5560 0.5610
10.145031 0.5730 0.5860 0.5980 0.6020 0.6090
10.178000 0.6120 0.6210 0.6260 0.6310 0.6340
10.211031 0.6390 0.6420 0.6470 0.6510 0.6520
10.244000 0.6520 0.6520 0.6540 0.6540 0.6560
10.277031 0.6570 0.6590 0.6590 0.6590 0.6590
10.310000 0.6610 0.6640 0.6640 0.6620 0.6620
10.343031 0.6570 0.6570 0.6620 0.6670 0.6710
10.376000 0.6720 0.6740 0.6760 0.6790 0.6820
10.409031 0.6840 0.6860 0.6870 0.6890 0.6920
10.442000 0.6940 0.6940 0.6960 0.6960 0.6990
10.475031 0.6990 0.6990 0.7000 0.7000 0.7000
10.508000 0.6990 0.6990 0.6940 0.6910 0.6860
10.541031 0.6790 0.6670 0.6520 0.6320 0.6160
10.574000 0.6040 0.5960 0.5810 0.5780 0.5810
10.607031 0.5990 0.6260 0.6390 0.6460 0.6510
10.640000 0.6640 0.6740 0.6810 0.6940 0.6990
10.673031 0.7000 0.7040 0.7100 0.7140 0.7170
10.706000 0.7190 0.7220 0.7250 0.7300 0.7320
10.739031 0.7340 0.7340 0.7340 0.7340 0.7370
10.772000 0.7400 0.7440 0.7450 0.7470 0.7490
10.805031 0.7500 0.7500 0.7500 0.7500 0.7500
10.838000 0.7500 0.7490 0.7470 0.7400 0.7300
10.871031 0.7200 0.7040 0.6710 0.6490 0.6390
10.904000 0.6290 0.6220 0.6120 0.6110 0.6110
10.937031 0.6110 0.6090 0.5990 0.5780 0.5630
10.970000 0.5440 0.5340 0.5330 0.5330 0.5440
11.003031 0.5590 0.5780 0.6010 0.6060 0.6220
11.036000 0.6410 0.6560 0.6660 0.6840 0.6960
11.069031 0.7040 0.7120 0.7220 0.7270 0.7370
11.102000 0.7440 0.7490 0.7570 0.7590 0.7620
11.135031 0.7650 0.7670 0.7700 0.7790 0.7870
11.168000 0.7920 0.7940 0.7950 0.8000 0.8020
11.201031 0.8020 0.8030 0.8050 0.8070 0.8130
11.234000 0.8150 0.8180 0.8220 0.8270 0.8280
11.267031 0.8300 0.8300 0.8320 0.8320 0.8320
11.300000 0.8320 0.8350 0.8400 0.8430 0.8450
11.333031 0.8480 0.8520 0.8520 0.8530 0.8550
11.366000 0.8580 0.8580 0.8550 0.8520 0.8520
11.399031 0.8550 0.8580 0.8620 0.8630 0.8630
11.432000 0.8580 0.8580 0.8550 0.8500 0.8470
11.465031 0.8430 0.8330 0.8250 0.8080 0.7940
11.498000 0.7600 0.7440 0.7250 0.6890 0.6570
11.531031 0.6290 0.6070 0.5890 0.5740 0.5630
11.564000 0.5530 0.5440 0.5410 0.5330 0.5260
11.597031 0.5160 0.5060 0.4950 0.4780 0.4550
11.630000 0.4410 0.4260 0.4180 0.4180 0.4210
11.663031 0.4280 0.4460 0.4660 0.4980 0.5480
11.696000 0.5730 0.5980 0.6110 0.6360 0.6560
11.729031 0.6660 0.6810 0.6970 0.7100 0.7220
11.762000 0.7320 0.7390 0.7450 0.7490 0.7640
11.795031 0.7700 0.7750 0.7840 0.7890 0.7900
11.828000 0.7920 0.8000 0.8020 0.8030 0.8050
11.861031 0.8070 0.8070 0.8120 0.8150 0.8180
11.894000 0.8220 0.8230 0.8250 0.8250 0.8250
11.927031 0.8250 0.8230 0.8200 0.8220 0.8220
11.960000 0.8230 0.8250 0.8250 0.8250 0.8230
11.993031 0.8230 0.8220 0.8250 0.8250 0.8280
12.026000 0.8300 0.8320 0.8330 0.8330 0.8320
12.059031 0.8300 0.8250 0.8220 0.8170 0.8150
12.092000 0.8150 0.8100 0.8020 0.7900 0.7790
12.125031 0.7670 0.7570 0.7500 0.7440 0.7250
12.158000 0.7040 0.6770 0.6410 0.6110 0.5880
12.191031 0.5480 0.5230 0.4980 0.4410 0.3920
12.225000 0.3670 0.3480 0.3270 0.3230 0.3280
12.258031 0.3550 0.3770 0.4050 0.4310 0.4560
12.291000 0.4780 0.5000 0.5330 0.5440 0.5530
12.324031 0.5580 0.5610 0.5630 0.5630 0.5610
12.357000 0.5540 0.5430 0.5330 0.5140 0.5030
12.390031 0.5000 0.4950 0.4880 0.4800 0.4760
12.423000 0.4730 0.4700 0.4700 0.4850 0.5160
12.456031 0.5260 0.5390 0.5560 0.5730 0.5890
12.489000 0.6020 0.6170 0.6290 0.6410 0.6510
12.522031 0.6620 0.6720 0.6810 0.6890 0.7000
12.555000 0.7100 0.7190 0.7220 0.7290 0.7390
12.588031 0.7400 0.7420 0.7470 0.7550 0.7570
12.621000 0.7590 0.7590 0.7640 0.7650 0.7670
12.654031 0.7670 0.7670 0.7670 0.7650 0.7640
12.687000 0.7590 0.7540 0.7490 0.7400 0.7370
12.720031 0.7220 0.6960 0.6660 0.6320 0.6010
12.753000 0.5710 0.5490 0.5380 0.5230 0.5110
12.786031 0.5090 0.5130 0.5280 0.5460 0.5660
12.819000 0.5830 0.5960 0.6090 0.6190 0.6290
12.852031 0.6360 0.6420 0.6470 0.6560 0.6610
12.885000 0.6660 0.6670 0.6720 0.6810 0.6910
12.918031 0.7000 0.7140 0.7240 0.7370 0.7470
12.951000 0.7570 0.7640 0.7670 0.7790 0.7850
12.984031 0.7890 0.7900 0.7940 0.8000 0.8050
13.017000 0.8050 0.8070 0.8120 0.8130 0.8130
13.050031 0.8150 0.8150 0.8150 0.8150 0.8150
13.083000 0.8150 0.8170 0.8180 0.8200 0.8220
13.116031 0.8250 0.8250 0.8250 0.8250 0.8230
13.149000 0.8220 0.8200 0.8150 0.8130 0.8130
13.182031 0.8150 0.8180 0.8180 0.8130 0.8130
13.215000 0.8180 0.8180 0.8200 0.8220 0.8230
13.248031 0.8270 0.8270 0.8300 0.8320 0.8300
13.281000 0.8230 0.8200 0.8150 0.8050 0.7990
13.314031 0.7870 0.7690 0.7570 0.7440 0.7240
13.347000 0.7050 0.6910 0.6670 0.6490 0.6410
13.380031 0.6370 0.6370 0.6390 0.6410 0.6420
13.413000 0.6460 0.6490 0.6510 0.6520 0.6510
13.446031 0.6490 0.6390 0.6320 0.6260 0.6210
13.479000 0.6170 0.6190 0.6220 0.6290 0.6390
13.512031 0.6510 0.6660 0.6820 0.7000 0.7170
13.545000 0.7350 0.7640 0.7740 0.7820 0.7920
13.578031 0.7990 0.8030 0.8070 0.8120 0.8170
13.611000 0.8180 0.8230 0.8280 0.8320 0.8330
13.644031 0.8330 0.8330 0.8350 0.8370 0.8400
13.677000 0.8420 0.8430 0.8430 0.8470 0.8480
13.710031 0.8500 0.8530 0.8530 0.8530 0.8530
13.743000 0.8530 0.8520 0.8480 0.8480 0.8480
13.776031 0.8480 0.8480 0.8470 0.8470 0.8450
13.809000 0.8450 0.8430 0.8400 0.8350 0.8300
13.842031 0.8280 0.8270 0.8230 0.8180 0.8170
13.875000 0.8150 0.8120 0.8070 0.8030 0.7970
13.908031 0.7900 0.7840 0.7750 0.7670 0.7540
13.941000 0.7490 0.7420 0.7370 0.7320 0.7250
13.974031 0.7100 0.6970 0.6890 0.6760 0.6610
14.007000 0.6490 0.6360 0.6240 0.6090 0.6040
14.040031 0.5980 0.5940 0.5940 0.5930 0.5930
14.073000 0.5930 0.5960 0.6040 0.6060 0.6160
14.106031 0.6270 0.6370 0.6470 0.6540 0.6610
14.139000 0.6660 0.6770 0.6920 0.6990 0.7020
14.172031 0.7050 0.7090 0.7140 0.7190 0.7240
14.205000 0.7290 0.7320 0.7340 0.7340 0.7340
14.238031 0.7300 0.7290 0.7270 0.7270 0.7240
14.271000 0.7200 0.7200 0.7200 0.7220 0.7250
14.304031 0.7270 0.7290 0.7300 0.7340 0.7400
14.337000 0.7540 0.7550 0.7590 0.7650 0.7720
14.370031 0.7770 0.7840 0.7890 0.7940 0.8000
14.404000 0.8050 0.8100 0.8130 0.8150 0.8170
14.437031 0.8180 0.8220 0.8250 0.8270 0.8280
14.470000 0.8320 0.8320 0.8330 0.8350 0.8350
14.503031 0.8350 0.8370 0.8370 0.8370 0.8380
14.536000 0.8380 0.8380 0.8380 0.8370 0.8350
14.569031 0.8350 0.8330 0.8330 0.8320 0.8320
14.602000 0.8300 0.8300 0.8280 0.8280 0.8270
14.635031 0.8250 0.8230 0.8230 0.8220 0.8200
14.668000 0.8180 0.8150 0.8130 0.8120 0.8070
14.701031 0.8050 0.8030 0.7970 0.7950 0.7940
14.734000 0.7920 0.7870 0.7820 0.7770 0.7720
14.767031 0.7640 0.7570 0.7540 0.7490 0.7400
14.800000 0.7320 0.7220 0.7140 0.7020 0.6920
14.833031 0.6820 0.6720 0.6610 0.6490 0.6320
14.866000 0.6190 0.6060 0.5960 0.5860 0.5760
14.899031 0.5660 0.5540 0.5380 0.5290 0.5230
14.932000 0.5160 0.5090 0.5040 0.5030 0.5010
14.965031 0.4980 0.4960 0.4950 0.4950 0.4960
14.998000 0.4980 0.4980 0.4980 0.5060 0.5090
15.031031 0.5130 0.5180 0.5240 0.5280 0.5340
15.064000 0.5460 0.5580 0.5740 0.5890 0.6060
15.097031 0.6210 0.6360 0.6470 0.6570 0.6610
15.130000 0.6660 0.6720 0.6790 0.6870 0.6940
15.163031 0.7040 0.7100 0.7150 0.7170 0.7170
15.196000 0.7170 0.7170 0.7190 0.7190 0.7220
15.229031 0.7250 0.7270 0.7290 0.7290 0.7290
15.262000 0.7290 0.7290 0.7270 0.7270 0.7270
15.295031 0.7270 0.7270 0.7250 0.7240 0.7240
15.328000 0.7190 0.7150 0.7140 0.7100 0.7120
15.361031 0.7200 0.7220 0.7220 0.7220 0.7200
15.394000 0.7200 0.7170 0.7150 0.7170 0.7170
15.427031 0.7170 0.7170 0.7170 0.7150 0.7150
15.460000 0.7140 0.7100 0.7070 0.7040 0.7020
15.493031 0.7020 0.7000 0.6990 0.6970 0.6970
15.526000 0.6970 0.6960 0.6960 0.6940 0.6920
15.559031 0.6920 0.6920 0.6910 0.6910 0.6890
15.592000 0.6870 0.6870 0.6870 0.6870 0.6870
15.625031 0.6840 0.6820 0.6810 0.6790 0.6770
15.658000 0.6770 0.6770 0.6760 0.6760 0.6760
15.691031 0.6760 0.6740 0.6740 0.6690 0.6670
15.724000 0.6640 0.6590 0.6570 0.6540 0.6520
15.757031 0.6520 0.6510 0.6510 0.6470 0.6460
15.790000 0.6440 0.6420 0.6410 0.6370 0.6360
15.823031 0.6360 0.6360 0.6360 0.6340 0.6320
15.856000 0.6310 0.6290 0.6270 0.6240 0.6220
15.889031 0.6190 0.6160 0.6120 0.6110 0.6090
15.922000 0.6090 0.6060 0.6060 0.6040 0.6020
15.955031 0.5990 0.5940 0.5930 0.5890 0.5890
15.988000 0.5860 0.5840 0.5890 0.5860
##END=
