##TITLE=2,6-PyridinediCarbamic acid, 4-chloro-, dibenzyl ester
##JCAMP-DX=4.24
##DATA TYPE=INFRARED SPECTRUM
##CLASS=COBLENTZ III
##ORIGIN=SOUTHERN RESEARCH INSTITUTE
##OWNER=Copyright (C) 1987 by the Coblentz Society
Collection (C) 2018 copyright by the U.S. Secretary of Commerce
on behalf of the United States of America. All rights reserved.
##DATE=1963/03/11
##MOLFORM=C21 H18 Cl N3 O4
##SOURCE REFERENCE=COBLENTZ NO. 8382
##$NIST ID=B6008382
##$NIST SOURCE=COBLENTZ
##$NIST IMAGE=cob8382
##SPECTROMETER/DATA SYSTEM=PERKIN-ELMER 221 (GRATING)
##INSTRUMENT PARAMETERS=FILTER AT 2490, 980 CM^-^1. GRATING 4000-1428 CM^-^1, NaCl PRISM 1428-650 CM^-^1
##STATE=SOLID (0.7 mg / 650 mg KBr DISC)
##SAMPLING PROCEDURE=TRANSMISSION
##RESOLUTION=2
##DATA PROCESSING=DIGITIZED BY COBLENTZ SOCIETY (BATCH II) FROM HARD COPY (ADJUSTED \addcm-1\15-12-3\)
##XUNITS=1/CM
##YUNITS=TRANSMITTANCE
##XFACTOR=1.0
##YFACTOR=1
##DELTAX=1.004734
##FIRSTX=621
##LASTX=4016
##FIRSTY=0.8237
##MAXX=4016
##MINX=621
##MAXY=0.96015
##MINY=0.0449828
##NPOINTS=3380
##XYDATA=(X++(Y..Y))
621.000000 0.8237 0.8246 0.8249 0.8253 0.8258
626.023669 0.8262 0.8267 0.8279 0.8296 0.8314
631.047337 0.8332 0.8351 0.8396 0.8441 0.8485
636.071006 0.8523 0.8565 0.8646 0.8587 0.8589
641.094675 0.8585 0.8579 0.8562 0.8545 0.8521
646.118343 0.8490 0.8428 0.8303 0.8142 0.8031
651.142012 0.7919 0.7814 0.7722 0.7632 0.7518
656.165680 0.7314 0.7264 0.7299 0.7296 0.7299
661.189349 0.7311 0.7338 0.7373 0.7414 0.7478
666.213018 0.7549 0.7627 0.7734 0.7870 0.8002
671.236686 0.8113 0.8191 0.8268 0.8332 0.8353
676.260355 0.8360 0.8358 0.8358 0.8354 0.8328
681.284024 0.8201 0.7791 0.7359 0.6926 0.6493
686.307692 0.6061 0.5628 0.5196 0.4827 0.4668
691.331361 0.4672 0.4755 0.5119 0.5757 0.6395
696.355030 0.6904 0.7076 0.7067 0.7058 0.7022
701.378698 0.6936 0.6846 0.6756 0.6666 0.6575
706.402367 0.6485 0.6396 0.6306 0.6215 0.6128
711.426036 0.6070 0.6142 0.6414 0.6699 0.7011
716.449704 0.7305 0.7283 0.7241 0.7042 0.6794
721.473373 0.6546 0.6298 0.6051 0.5844 0.5845
726.497041 0.5867 0.6008 0.6204 0.6399 0.6596
731.520710 0.6791 0.6987 0.7170 0.7217 0.7215
736.544379 0.7096 0.6956 0.6817 0.6678 0.6539
741.568047 0.6399 0.6260 0.6120 0.5982 0.5943
746.591716 0.5908 0.5882 0.5857 0.5841 0.5831
751.615385 0.5832 0.5811 0.5852 0.5870 0.5885
756.639053 0.5900 0.5929 0.5957 0.5984 0.6009
761.662722 0.6180 0.6448 0.6731 0.7013 0.7294
766.686391 0.7576 0.7858 0.8140 0.8422 0.8588
771.710059 0.8683 0.8767 0.8821 0.8859 0.8890
776.733728 0.8909 0.8924 0.8940 0.8956 0.8976
781.757396 0.9012 0.9060 0.9159 0.9225 0.9250
786.781065 0.9269 0.9287 0.9306 0.9329 0.9348
791.804734 0.9360 0.9369 0.9378 0.9387 0.9396
796.828402 0.9401 0.9404 0.9407 0.9410 0.9413
801.852071 0.9414 0.9415 0.9416 0.9416 0.9414
806.875740 0.9412 0.9411 0.9408 0.9403 0.9399
811.899408 0.9394 0.9384 0.9370 0.9346 0.9306
816.923077 0.9261 0.9194 0.9099 0.9013 0.8920
821.946746 0.8666 0.8092 0.7368 0.6691 0.6290
826.970414 0.6285 0.6377 0.6646 0.6939 0.7233
831.994083 0.7526 0.7820 0.8113 0.8349 0.8382
837.017751 0.8382 0.8371 0.8201 0.8120 0.8006
842.041420 0.7888 0.7769 0.7651 0.7535 0.7449
847.065089 0.7445 0.7513 0.8176 0.8903 0.9201
852.088757 0.9287 0.9354 0.9419 0.9460 0.9495
857.112426 0.9525 0.9537 0.9547 0.9557 0.9566
862.136095 0.9574 0.9577 0.9580 0.9601 0.9587
867.159763 0.9586 0.9585 0.9585 0.9584 0.9583
872.183432 0.9582 0.9581 0.9578 0.9573 0.9568
877.207101 0.9562 0.9557 0.9544 0.9529 0.9509
882.230769 0.9479 0.9448 0.9412 0.9361 0.9311
887.254438 0.9263 0.9215 0.9155 0.9068 0.8975
892.278107 0.8882 0.8788 0.8695 0.8609 0.8588
897.301775 0.8576 0.8670 0.8785 0.8887 0.8989
902.325444 0.9090 0.9192 0.9295 0.9354 0.9378
907.349112 0.9392 0.9401 0.9408 0.9415 0.9424
912.372781 0.9435 0.9450 0.9471 0.9492 0.9513
917.396450 0.9531 0.9544 0.9556 0.9564 0.9564
922.420118 0.9566 0.9566 0.9560 0.9557 0.9550
927.443787 0.9542 0.9534 0.9525 0.9516 0.9507
932.467456 0.9498 0.9489 0.9480 0.9468 0.9454
937.491124 0.9440 0.9426 0.9411 0.9397 0.9383
942.514793 0.9369 0.9353 0.9334 0.9310 0.9287
947.538462 0.9263 0.9240 0.9216 0.9191 0.9162
952.562130 0.9134 0.9111 0.9097 0.9083 0.9068
957.585799 0.9055 0.9046 0.9044 0.9042 0.9040
962.609467 0.9037 0.9033 0.9027 0.9021 0.9010
967.633136 0.8998 0.8984 0.8969 0.8946 0.8919
972.656805 0.8887 0.8846 0.8789 0.8723 0.8582
977.680473 0.8489 0.8412 0.8333 0.8251 0.8168
982.704142 0.8094 0.8044 0.7994 0.7944 0.7893
987.727811 0.7834 0.7776 0.7685 0.7177 0.6567
992.751479 0.5952 0.5338 0.5026 0.4997 0.4985
997.775148 0.5220 0.5677 0.6163 0.6650 0.7137
1002.798817 0.7624 0.8112 0.8430 0.8549 0.8670
1007.822485 0.8796 0.8900 0.9022 0.9085 0.9119
1012.846154 0.9136 0.9143 0.9150 0.9143 0.9143
1017.869822 0.9145 0.9138 0.9129 0.9118 0.9104
1022.893491 0.9082 0.9058 0.9036 0.9013 0.8996
1027.917160 0.8986 0.8977 0.8969 0.8965 0.8962
1032.940828 0.8959 0.8957 0.8954 0.8951 0.8949
1037.964497 0.8948 0.8940 0.8917 0.8891 0.8852
1042.988166 0.8796 0.8728 0.8675 0.8630 0.8570
1048.011834 0.8421 0.8136 0.7826 0.7515 0.7206
1053.035503 0.6929 0.6931 0.6911 0.6967 0.7108
1058.059172 0.7302 0.7495 0.7689 0.7883 0.8077
1063.082840 0.8271 0.8465 0.8659 0.8832 0.8862
1068.106509 0.8874 0.8899 0.8890 0.8886 0.8885
1073.130178 0.8881 0.8874 0.8866 0.8842 0.8808
1078.153846 0.8773 0.8738 0.8704 0.8669 0.8638
1083.177515 0.8609 0.8583 0.8551 0.8515 0.8475
1088.201183 0.8421 0.8349 0.8244 0.8131 0.8033
1093.224852 0.7910 0.7751 0.7580 0.7417 0.7240
1098.248521 0.6901 0.6335 0.5707 0.5078 0.4592
1103.272189 0.4432 0.4396 0.4384 0.4384 0.4398
1108.295858 0.4450 0.4583 0.4717 0.4851 0.4963
1113.319527 0.5015 0.5047 0.5084 0.5170 0.5461
1118.343195 0.5960 0.6460 0.6959 0.7459 0.7959
1123.366864 0.8396 0.8614 0.8703 0.8747 0.8791
1128.390533 0.8841 0.8906 0.8943 0.8970 0.8996
1133.414201 0.9015 0.9030 0.9044 0.9053 0.9057
1138.437870 0.9051 0.9047 0.9042 0.9037 0.9032
1143.461538 0.9026 0.9015 0.8998 0.8980 0.8958
1148.485207 0.8933 0.8906 0.8875 0.8836 0.8798
1153.508876 0.8767 0.8765 0.8773 0.8783 0.8795
1158.532544 0.8813 0.8827 0.8837 0.8839 0.8835
1163.556213 0.8826 0.8816 0.8805 0.8792 0.8777
1168.579882 0.8757 0.8735 0.8702 0.8662 0.8622
1173.603550 0.8582 0.8542 0.8497 0.8423 0.8348
1178.627219 0.8277 0.8206 0.8134 0.8061 0.7987
1183.650888 0.7896 0.7770 0.7668 0.7594 0.7520
1188.674556 0.7446 0.7368 0.7262 0.7159 0.7071
1193.698225 0.7009 0.6948 0.6893 0.6845 0.6797
1198.721893 0.6746 0.6694 0.6607 0.6337 0.5928
1203.745562 0.5519 0.5111 0.4701 0.4292 0.3883
1208.769231 0.3475 0.3065 0.2671 0.2448 0.2381
1213.792899 0.2315 0.2267 0.2230 0.2201 0.2180
1218.816568 0.2157 0.2084 0.1832 0.1581 0.1330
1223.840237 0.1084 0.0935 0.0956 0.0953 0.1078
1228.863905 0.1382 0.1688 0.1992 0.2290 0.2434
1233.887574 0.2477 0.2530 0.2620 0.2942 0.3265
1238.911243 0.3588 0.3910 0.4233 0.4555 0.4878
1243.934911 0.5200 0.5522 0.5846 0.6168 0.6490
1248.958580 0.6812 0.7084 0.7103 0.7090 0.7081
1253.982249 0.6991 0.6578 0.6166 0.5752 0.5339
1259.005917 0.4926 0.4513 0.4100 0.3686 0.3584
1264.029586 0.3581 0.3933 0.4370 0.4807 0.5245
1269.053254 0.5683 0.6121 0.6560 0.6998 0.7343
1274.076923 0.7644 0.7782 0.7905 0.7972 0.8037
1279.100592 0.8098 0.8142 0.8184 0.8227 0.8243
1284.124260 0.8256 0.8266 0.8282 0.8266 0.8262
1289.147929 0.8250 0.8237 0.8216 0.8189 0.8163
1294.171598 0.8130 0.8093 0.8057 0.8012 0.7945
1299.195266 0.7826 0.7638 0.7442 0.7247 0.7052
1304.218935 0.6856 0.6661 0.6466 0.6271 0.6075
1309.242604 0.5880 0.5677 0.5543 0.5463 0.5393
1314.266272 0.5329 0.5255 0.5167 0.4627 0.4028
1319.289941 0.3622 0.3593 0.3661 0.3735 0.3811
1324.313609 0.3886 0.3962 0.4015 0.3986 0.3760
1329.337278 0.3503 0.3248 0.3108 0.3093 0.3097
1334.360947 0.3549 0.3916 0.4254 0.4593 0.4931
1339.384615 0.5269 0.5607 0.5945 0.6283 0.6622
1344.408284 0.6960 0.7299 0.7637 0.7975 0.8217
1349.431953 0.8314 0.8362 0.8406 0.8428 0.8440
1354.455621 0.8444 0.8438 0.8436 0.8416 0.8393
1359.479290 0.8362 0.8330 0.8298 0.8205 0.8061
1364.502959 0.7907 0.7753 0.7600 0.7446 0.7292
1369.526627 0.7138 0.6984 0.6830 0.6684 0.6645
1374.550296 0.6654 0.6662 0.6743 0.6849 0.6956
1379.573964 0.7063 0.7169 0.7275 0.7362 0.7377
1384.597633 0.7368 0.7348 0.7295 0.7229 0.7126
1389.621302 0.6838 0.6489 0.6142 0.5794 0.5446
1394.644970 0.5098 0.4750 0.4402 0.4054 0.3727
1399.668639 0.3640 0.3651 0.3717 0.3891 0.4100
1404.692308 0.4308 0.4518 0.4726 0.4935 0.5143
1409.715976 0.5351 0.5558 0.5765 0.5973 0.6097
1414.739645 0.6142 0.6150 0.6165 0.6158 0.6145
1419.763314 0.6137 0.6130 0.6120 0.6110 0.6099
1424.786982 0.6088 0.6077 0.6065 0.6051 0.6035
1429.810651 0.6020 0.6005 0.5975 0.5930 0.5881
1434.834320 0.5819 0.5746 0.5591 0.5327 0.5048
1439.857988 0.4770 0.4491 0.4212 0.3933 0.3688
1444.881657 0.3571 0.3570 0.3654 0.3881 0.4114
1449.905325 0.4346 0.4578 0.4810 0.5043 0.5275
1454.928994 0.5507 0.5740 0.5972 0.6204 0.6436
1459.952663 0.6669 0.6901 0.7092 0.7146 0.7149
1464.976331 0.7155 0.7162 0.7140 0.7099 0.6882
1470.000000 0.6490 0.6098 0.5706 0.5314 0.4923
1475.023669 0.4530 0.4138 0.3792 0.3768 0.3769
1480.047337 0.3785 0.4197 0.4516 0.4835 0.5153
1485.071006 0.5471 0.5790 0.6109 0.6427 0.6745
1490.094675 0.7041 0.7046 0.7052 0.6968 0.6854
1495.118343 0.6740 0.6626 0.6512 0.6398 0.6284
1500.142012 0.6170 0.6133 0.6119 0.6121 0.6393
1505.165680 0.6830 0.7283 0.7735 0.7835 0.7861
1510.189349 0.7912 0.7888 0.7877 0.7871 0.7866
1515.213018 0.7858 0.7847 0.7836 0.7818 0.7796
1520.236686 0.7774 0.7740 0.7701 0.7662 0.7621
1525.260355 0.7578 0.7536 0.7487 0.7433 0.7378
1530.284024 0.7321 0.7237 0.7142 0.7046 0.6952
1535.307692 0.6860 0.6770 0.6663 0.6505 0.6317
1540.331361 0.6126 0.5946 0.5789 0.5642 0.5496
1545.355030 0.5348 0.5201 0.5054 0.4908 0.4761
1550.378698 0.4614 0.4467 0.4321 0.4174 0.4027
1555.402367 0.3880 0.3733 0.3648 0.3645 0.3634
1560.426036 0.3656 0.3744 0.3830 0.3916 0.4003
1565.449704 0.4089 0.4175 0.4261 0.4348 0.4434
1570.473373 0.4502 0.4523 0.4518 0.4507 0.4354
1575.497041 0.3901 0.3448 0.2995 0.2541 0.2088
1580.520710 0.1634 0.1233 0.1050 0.1047 0.1062
1585.544379 0.1239 0.1491 0.1742 0.1993 0.2245
1590.568047 0.2497 0.2748 0.3000 0.3251 0.3503
1595.591716 0.3754 0.4005 0.4257 0.4509 0.4760
1600.615385 0.5011 0.5262 0.5514 0.5766 0.6017
1605.639053 0.6260 0.6397 0.6618 0.6800 0.6970
1610.662722 0.7040 0.7108 0.7177 0.7236 0.7281
1615.686391 0.7327 0.7372 0.7417 0.7924 0.8135
1620.710059 0.8195 0.8228 0.8238 0.8246 0.8254
1625.733728 0.8262 0.8267 0.8271 0.8274 0.8276
1630.757396 0.8278 0.8282 0.8287 0.8292 0.8298
1635.781065 0.8303 0.8309 0.8314 0.8319 0.8325
1640.804734 0.8326 0.8327 0.8328 0.8329 0.8361
1645.828402 0.8343 0.8331 0.8332 0.8329 0.8322
1650.852071 0.8315 0.8309 0.8303 0.8296 0.8289
1655.875740 0.8283 0.8272 0.8257 0.8242 0.8227
1660.899408 0.8212 0.8190 0.8160 0.8129 0.8096
1665.923077 0.8060 0.8023 0.7986 0.7946 0.7897
1670.946746 0.7839 0.7781 0.7722 0.7633 0.7540
1675.970414 0.7491 0.7451 0.7411 0.7373 0.7335
1680.994083 0.7298 0.7260 0.7221 0.7184 0.7140
1686.017751 0.7087 0.7030 0.6974 0.6918 0.6857
1691.041420 0.6782 0.6702 0.6617 0.6500 0.6127
1696.065089 0.5390 0.5088 0.4791 0.4477 0.4165
1701.088757 0.3852 0.3539 0.3226 0.2914 0.2601
1706.112426 0.2288 0.1975 0.1662 0.1349 0.1036
1711.136095 0.0738 0.0545 0.0498 0.0470 0.0450
1716.159763 0.0487 0.0525 0.0695 0.1031 0.1369
1721.183432 0.1706 0.2043 0.2380 0.2717 0.3054
1726.207101 0.3391 0.3728 0.4065 0.4402 0.4739
1731.230769 0.5076 0.5413 0.5751 0.6038 0.6100
1736.254438 0.6130 0.6084 0.5956 0.5261 0.4476
1741.278107 0.3691 0.2907 0.2179 0.1783 0.1781
1746.301775 0.1772 0.1835 0.2435 0.3420 0.4404
1751.325444 0.5367 0.6088 0.6179 0.6261 0.6431
1756.349112 0.6854 0.7020 0.7165 0.7345 0.7573
1761.372781 0.7821 0.7912 0.8003 0.8095 0.8194
1766.396450 0.8299 0.8403 0.8495 0.8567 0.8639
1771.420118 0.8708 0.8763 0.8817 0.8870 0.8917
1776.443787 0.8947 0.8977 0.9007 0.9037 0.9067
1781.467456 0.9090 0.9107 0.9125 0.9142 0.9160
1786.491124 0.9177 0.9194 0.9211 0.9225 0.9237
1791.514793 0.9247 0.9253 0.9253 0.9252 0.9252
1796.538462 0.9252 0.9252 0.9252 0.9252 0.9252
1801.562130 0.9252 0.9251 0.9245 0.9240 0.9234
1806.585799 0.9229 0.9224 0.9221 0.9220 0.9219
1811.609467 0.9218 0.9216 0.9216 0.9218 0.9220
1816.633136 0.9223 0.9225 0.9229 0.9235 0.9245
1821.656805 0.9254 0.9264 0.9274 0.9285 0.9296
1826.680473 0.9308 0.9322 0.9336 0.9351 0.9365
1831.704142 0.9379 0.9393 0.9408 0.9422 0.9436
1836.727811 0.9451 0.9464 0.9476 0.9487 0.9495
1841.751479 0.9500 0.9505 0.9510 0.9515 0.9521
1846.775148 0.9526 0.9531 0.9534 0.9533 0.9530
1851.798817 0.9527 0.9525 0.9522 0.9518 0.9514
1856.822485 0.9510 0.9505 0.9500 0.9496 0.9491
1861.846154 0.9486 0.9482 0.9477 0.9474 0.9471
1866.869822 0.9468 0.9465 0.9463 0.9460 0.9457
1871.893491 0.9454 0.9465 0.9472 0.9457 0.9459
1876.917160 0.9461 0.9464 0.9466 0.9468 0.9470
1881.940828 0.9472 0.9476 0.9481 0.9487 0.9492
1886.964497 0.9498 0.9503 0.9509 0.9515 0.9520
1891.988166 0.9525 0.9529 0.9530 0.9532 0.9533
1897.011834 0.9535 0.9537 0.9538 0.9540 0.9541
1902.035503 0.9543 0.9544 0.9546 0.9546 0.9544
1907.059172 0.9543 0.9541 0.9540 0.9538 0.9536
1912.082840 0.9535 0.9533 0.9531 0.9529 0.9528
1917.106509 0.9527 0.9525 0.9522 0.9517 0.9512
1922.130178 0.9507 0.9501 0.9496 0.9491 0.9485
1927.153846 0.9480 0.9474 0.9469 0.9464 0.9458
1932.177515 0.9453 0.9448 0.9442 0.9435 0.9428
1937.201183 0.9421 0.9414 0.9407 0.9400 0.9393
1942.224852 0.9386 0.9379 0.9374 0.9371 0.9371
1947.248521 0.9370 0.9370 0.9369 0.9369 0.9368
1952.272189 0.9367 0.9367 0.9369 0.9372 0.9376
1957.295858 0.9379 0.9382 0.9385 0.9388 0.9391
1962.319527 0.9393 0.9396 0.9398 0.9401 0.9403
1967.343195 0.9405 0.9408 0.9410 0.9413 0.9415
1972.366864 0.9418 0.9420 0.9420 0.9420 0.9420
1977.390533 0.9421 0.9421 0.9421 0.9421 0.9422
1982.414201 0.9422 0.9422 0.9423 0.9423 0.9423
1987.437870 0.9423 0.9424 0.9424 0.9424 0.9424
1992.461538 0.9425 0.9425 0.9425 0.9425 0.9426
1997.485207 0.9426 0.9426 0.9427 0.9427 0.9427
2002.508876 0.9427 0.9427 0.9427 0.9427 0.9427
2007.532544 0.9427 0.9427 0.9427 0.9427 0.9427
2012.556213 0.9427 0.9427 0.9427 0.9428 0.9428
2017.579882 0.9428 0.9427 0.9427 0.9427 0.9427
2022.603550 0.9427 0.9427 0.9427 0.9427 0.9427
2027.627219 0.9427 0.9427 0.9427 0.9427 0.9427
2032.650888 0.9426 0.9426 0.9426 0.9426 0.9426
2037.674556 0.9426 0.9426 0.9426 0.9426 0.9426
2042.698225 0.9426 0.9426 0.9426 0.9425 0.9425
2047.721893 0.9425 0.9425 0.9425 0.9425 0.9425
2052.745562 0.9425 0.9424 0.9422 0.9421 0.9419
2057.769231 0.9418 0.9416 0.9415 0.9414 0.9412
2062.792899 0.9411 0.9409 0.9408 0.9407 0.9405
2067.816568 0.9404 0.9403 0.9401 0.9400 0.9399
2072.840237 0.9397 0.9396 0.9394 0.9393 0.9392
2077.863905 0.9391 0.9390 0.9390 0.9389 0.9389
2082.887574 0.9388 0.9387 0.9387 0.9386 0.9385
2087.911243 0.9385 0.9384 0.9383 0.9381 0.9380
2092.934911 0.9378 0.9376 0.9374 0.9373 0.9373
2097.958580 0.9373 0.9373 0.9372 0.9372 0.9372
2102.982249 0.9372 0.9371 0.9371 0.9371 0.9371
2108.005917 0.9370 0.9370 0.9370 0.9370 0.9369
2113.029586 0.9369 0.9369 0.9369 0.9368 0.9368
2118.053254 0.9368 0.9368 0.9367 0.9367 0.9367
2123.076923 0.9367 0.9366 0.9366 0.9366 0.9366
2128.100592 0.9365 0.9365 0.9365 0.9365 0.9364
2133.124260 0.9364 0.9364 0.9363 0.9363 0.9362
2138.147929 0.9362 0.9362 0.9361 0.9361 0.9360
2143.171598 0.9360 0.9359 0.9359 0.9358 0.9358
2148.195266 0.9357 0.9357 0.9357 0.9356 0.9356
2153.218935 0.9355 0.9355 0.9354 0.9354 0.9353
2158.242604 0.9353 0.9352 0.9352 0.9351 0.9351
2163.266272 0.9351 0.9350 0.9350 0.9349 0.9349
2168.289941 0.9348 0.9348 0.9347 0.9347 0.9346
2173.313609 0.9346 0.9345 0.9345 0.9345 0.9344
2178.337278 0.9344 0.9343 0.9343 0.9342 0.9342
2183.360947 0.9341 0.9341 0.9340 0.9340 0.9339
2188.384615 0.9339 0.9338 0.9338 0.9337 0.9336
2193.408284 0.9336 0.9335 0.9335 0.9334 0.9334
2198.431953 0.9333 0.9333 0.9332 0.9332 0.9331
2203.455621 0.9331 0.9330 0.9330 0.9329 0.9329
2208.479290 0.9328 0.9328 0.9327 0.9327 0.9326
2213.502959 0.9325 0.9325 0.9324 0.9324 0.9323
2218.526627 0.9323 0.9322 0.9322 0.9321 0.9321
2223.550296 0.9320 0.9320 0.9319 0.9319 0.9318
2228.573964 0.9317 0.9316 0.9315 0.9314 0.9313
2233.597633 0.9311 0.9310 0.9309 0.9308 0.9307
2238.621302 0.9306 0.9305 0.9303 0.9302 0.9301
2243.644970 0.9300 0.9299 0.9298 0.9297 0.9295
2248.668639 0.9294 0.9293 0.9292 0.9291 0.9290
2253.692308 0.9289 0.9287 0.9286 0.9285 0.9284
2258.715976 0.9283 0.9282 0.9281 0.9280 0.9278
2263.739645 0.9277 0.9276 0.9275 0.9274 0.9273
2268.763314 0.9272 0.9270 0.9270 0.9269 0.9268
2273.786982 0.9268 0.9267 0.9266 0.9266 0.9265
2278.810651 0.9265 0.9264 0.9263 0.9263 0.9262
2283.834320 0.9261 0.9261 0.9260 0.9260 0.9259
2288.857988 0.9258 0.9258 0.9257 0.9256 0.9256
2293.881657 0.9255 0.9255 0.9254 0.9253 0.9253
2298.905325 0.9252 0.9251 0.9251 0.9250 0.9250
2303.928994 0.9249 0.9248 0.9248 0.9247 0.9246
2308.952663 0.9246 0.9245 0.9245 0.9244 0.9244
2313.976331 0.9244 0.9243 0.9243 0.9243 0.9242
2319.000000 0.9242 0.9241 0.9241 0.9241 0.9240
2324.023669 0.9240 0.9240 0.9239 0.9239 0.9239
2329.047337 0.9239 0.9239 0.9240 0.9241 0.9241
2334.071006 0.9242 0.9242 0.9243 0.9243 0.9244
2339.094675 0.9244 0.9245 0.9246 0.9246 0.9246
2344.118343 0.9246 0.9246 0.9246 0.9246 0.9246
2349.142012 0.9246 0.9246 0.9246 0.9246 0.9246
2354.165680 0.9246 0.9246 0.9247 0.9247 0.9247
2359.189349 0.9247 0.9247 0.9247 0.9247 0.9247
2364.213018 0.9247 0.9247 0.9247 0.9247 0.9247
2369.236686 0.9247 0.9247 0.9247 0.9247 0.9247
2374.260355 0.9247 0.9247 0.9247 0.9248 0.9249
2379.284024 0.9251 0.9252 0.9253 0.9254 0.9255
2384.307692 0.9257 0.9258 0.9259 0.9260 0.9261
2389.331361 0.9262 0.9264 0.9265 0.9266 0.9267
2394.355030 0.9268 0.9269 0.9269 0.9270 0.9270
2399.378698 0.9271 0.9272 0.9272 0.9273 0.9273
2404.402367 0.9274 0.9275 0.9275 0.9276 0.9276
2409.426036 0.9277 0.9277 0.9278 0.9279 0.9279
2414.449704 0.9280 0.9280 0.9281 0.9282 0.9282
2419.473373 0.9282 0.9283 0.9283 0.9283 0.9283
2424.497041 0.9284 0.9284 0.9284 0.9284 0.9283
2429.520710 0.9282 0.9281 0.9279 0.9278 0.9277
2434.544379 0.9275 0.9274 0.9273 0.9271 0.9270
2439.568047 0.9269 0.9267 0.9266 0.9265 0.9263
2444.591716 0.9262 0.9262 0.9263 0.9263 0.9264
2449.615385 0.9265 0.9265 0.9266 0.9266 0.9267
2454.639053 0.9268 0.9268 0.9269 0.9270 0.9270
2459.662722 0.9271 0.9272 0.9272 0.9273 0.9274
2464.686391 0.9274 0.9275 0.9276 0.9277 0.9277
2469.710059 0.9278 0.9279 0.9279 0.9280 0.9281
2474.733728 0.9281 0.9279 0.9276 0.9274 0.9272
2479.757396 0.9270 0.9267 0.9265 0.9254 0.9234
2484.781065 0.9214 0.9196 0.9181 0.9166 0.9151
2489.804734 0.9142 0.9139 0.9135 0.9133 0.9131
2494.828402 0.9130 0.9129 0.9128 0.9127 0.9126
2499.852071 0.9125 0.9124 0.9123 0.9122 0.9122
2504.875740 0.9121 0.9120 0.9120 0.9119 0.9118
2509.899408 0.9118 0.9117 0.9117 0.9116 0.9115
2514.923077 0.9115 0.9114 0.9114 0.9114 0.9114
2519.946746 0.9113 0.9113 0.9113 0.9112 0.9112
2524.970414 0.9112 0.9112 0.9111 0.9111 0.9110
2529.994083 0.9109 0.9108 0.9107 0.9106 0.9105
2535.017751 0.9103 0.9102 0.9101 0.9100 0.9099
2540.041420 0.9097 0.9096 0.9095 0.9094 0.9093
2545.065089 0.9092 0.9090 0.9089 0.9088 0.9087
2550.088757 0.9086 0.9084 0.9083 0.9082 0.9081
2555.112426 0.9080 0.9079 0.9079 0.9078 0.9078
2560.136095 0.9078 0.9078 0.9078 0.9078 0.9078
2565.159763 0.9077 0.9077 0.9077 0.9077 0.9077
2570.183432 0.9077 0.9077 0.9077 0.9076 0.9076
2575.207101 0.9076 0.9075 0.9075 0.9074 0.9073
2580.230769 0.9072 0.9071 0.9070 0.9069 0.9068
2585.254438 0.9068 0.9067 0.9066 0.9065 0.9064
2590.278107 0.9063 0.9062 0.9061 0.9061 0.9060
2595.301775 0.9059 0.9058 0.9057 0.9056 0.9055
2600.325444 0.9054 0.9054 0.9053 0.9052 0.9051
2605.349112 0.9050 0.9049 0.9048 0.9047 0.9047
2610.372781 0.9046 0.9045 0.9045 0.9045 0.9044
2615.396450 0.9044 0.9043 0.9043 0.9043 0.9042
2620.420118 0.9042 0.9042 0.9041 0.9041 0.9040
2625.443787 0.9040 0.9040 0.9039 0.9039 0.9039
2630.467456 0.9038 0.9038 0.9037 0.9037 0.9037
2635.491124 0.9035 0.9034 0.9032 0.9031 0.9029
2640.514793 0.9027 0.9026 0.9024 0.9023 0.9021
2645.538462 0.9019 0.9018 0.9016 0.9014 0.9013
2650.562130 0.9011 0.9009 0.9008 0.9006 0.9004
2655.585799 0.9003 0.9001 0.9000 0.8998 0.8996
2660.609467 0.8995 0.8993 0.8992 0.8990 0.8988
2665.633136 0.8987 0.8985 0.8984 0.8982 0.8981
2670.656805 0.8979 0.8977 0.8976 0.8974 0.8973
2675.680473 0.8971 0.8970 0.8968 0.8966 0.8965
2680.704142 0.8963 0.8962 0.8960 0.8958 0.8957
2685.727811 0.8955 0.8954 0.8953 0.8951 0.8950
2690.751479 0.8948 0.8947 0.8946 0.8944 0.8943
2695.775148 0.8941 0.8940 0.8939 0.8937 0.8936
2700.798817 0.8934 0.8933 0.8931 0.8930 0.8929
2705.822485 0.8927 0.8926 0.8924 0.8923 0.8922
2710.846154 0.8921 0.8920 0.8919 0.8918 0.8917
2715.869822 0.8915 0.8914 0.8913 0.8912 0.8911
2720.893491 0.8910 0.8909 0.8908 0.8907 0.8906
2725.917160 0.8905 0.8904 0.8901 0.8898 0.8894
2730.940828 0.8891 0.8888 0.8885 0.8882 0.8879
2735.964497 0.8876 0.8872 0.8869 0.8866 0.8863
2740.988166 0.8860 0.8857 0.8854 0.8851 0.8849
2746.011834 0.8850 0.8850 0.8851 0.8851 0.8852
2751.035503 0.8852 0.8853 0.8853 0.8854 0.8854
2756.059172 0.8855 0.8855 0.8856 0.8856 0.8857
2761.082840 0.8857 0.8858 0.8858 0.8859 0.8860
2766.106509 0.8862 0.8863 0.8864 0.8866 0.8867
2771.130178 0.8868 0.8870 0.8871 0.8872 0.8874
2776.153846 0.8875 0.8876 0.8878 0.8879 0.8880
2781.177515 0.8882 0.8883 0.8883 0.8882 0.8882
2786.201183 0.8882 0.8882 0.8882 0.8881 0.8881
2791.224852 0.8881 0.8881 0.8880 0.8880 0.8880
2796.248521 0.8880 0.8880 0.8879 0.8879 0.8879
2801.272189 0.8879 0.8878 0.8878 0.8878 0.8878
2806.295858 0.8878 0.8875 0.8871 0.8868 0.8865
2811.319527 0.8861 0.8858 0.8855 0.8851 0.8848
2816.343195 0.8845 0.8841 0.8838 0.8834 0.8830
2821.366864 0.8824 0.8819 0.8814 0.8809 0.8804
2826.390533 0.8799 0.8793 0.8787 0.8782 0.8777
2831.414201 0.8772 0.8767 0.8762 0.8757 0.8751
2836.437870 0.8746 0.8741 0.8736 0.8731 0.8726
2841.461538 0.8721 0.8713 0.8705 0.8697 0.8689
2846.485207 0.8682 0.8674 0.8666 0.8658 0.8651
2851.508876 0.8643 0.8636 0.8630 0.8625 0.8620
2856.532544 0.8614 0.8609 0.8604 0.8599 0.8593
2861.556213 0.8588 0.8584 0.8580 0.8577 0.8573
2866.579882 0.8569 0.8566 0.8562 0.8559 0.8555
2871.603550 0.8552 0.8548 0.8545 0.8541 0.8538
2876.627219 0.8534 0.8530 0.8525 0.8520 0.8515
2881.650888 0.8510 0.8505 0.8500 0.8496 0.8491
2886.674556 0.8486 0.8481 0.8476 0.8471 0.8465
2891.698225 0.8460 0.8454 0.8449 0.8444 0.8438
2896.721893 0.8433 0.8427 0.8422 0.8417 0.8411
2901.745562 0.8406 0.8401 0.8396 0.8392 0.8387
2906.769231 0.8383 0.8378 0.8374 0.8369 0.8365
2911.792899 0.8360 0.8356 0.8352 0.8347 0.8343
2916.816568 0.8338 0.8334 0.8331 0.8329 0.8328
2921.840237 0.8326 0.8325 0.8323 0.8322 0.8320
2926.863905 0.8319 0.8317 0.8316 0.8314 0.8313
2931.887574 0.8311 0.8309 0.8307 0.8305 0.8303
2936.911243 0.8301 0.8299 0.8297 0.8295 0.8293
2941.934911 0.8291 0.8289 0.8287 0.8285 0.8283
2946.958580 0.8281 0.8278 0.8276 0.8274 0.8272
2951.982249 0.8270 0.8268 0.8266 0.8264 0.8262
2957.005917 0.8261 0.8260 0.8261 0.8263 0.8264
2962.029586 0.8265 0.8266 0.8267 0.8268 0.8269
2967.053254 0.8270 0.8271 0.8272 0.8273 0.8275
2972.076923 0.8276 0.8277 0.8278 0.8279 0.8280
2977.100592 0.8279 0.8277 0.8274 0.8272 0.8270
2982.124260 0.8267 0.8265 0.8263 0.8260 0.8258
2987.147929 0.8255 0.8249 0.8243 0.8236 0.8230
2992.171598 0.8224 0.8217 0.8210 0.8201 0.8190
2997.195266 0.8180 0.8169 0.8159 0.8148 0.8138
3002.218935 0.8124 0.8106 0.8087 0.8069 0.8050
3007.242604 0.8032 0.8013 0.7995 0.7976 0.7958
3012.266272 0.7938 0.7918 0.7898 0.7878 0.7858
3017.289941 0.7838 0.7818 0.7798 0.7778 0.7758
3022.313609 0.7738 0.7718 0.7698 0.7677 0.7655
3027.337278 0.7632 0.7609 0.7587 0.7563 0.7541
3032.360947 0.7518 0.7496 0.7474 0.7452 0.7430
3037.384615 0.7409 0.7387 0.7372 0.7371 0.7378
3042.408284 0.7386 0.7399 0.7415 0.7425 0.7429
3047.431953 0.7433 0.7437 0.7439 0.7434 0.7424
3052.455621 0.7415 0.7405 0.7393 0.7377 0.7361
3057.479290 0.7345 0.7329 0.7313 0.7298 0.7283
3062.502959 0.7268 0.7252 0.7237 0.7222 0.7207
3067.526627 0.7189 0.7168 0.7146 0.7125 0.7114
3072.550296 0.7113 0.7116 0.7128 0.7151 0.7181
3077.573964 0.7218 0.7258 0.7302 0.7349 0.7393
3082.597633 0.7418 0.7429 0.7439 0.7455 0.7454
3087.621302 0.7448 0.7447 0.7443 0.7437 0.7431
3092.644970 0.7425 0.7418 0.7412 0.7406 0.7400
3097.668639 0.7393 0.7386 0.7377 0.7368 0.7359
3102.692308 0.7351 0.7342 0.7333 0.7325 0.7313
3107.715976 0.7300 0.7285 0.7271 0.7257 0.7235
3112.739645 0.7207 0.7177 0.7144 0.7107 0.7070
3117.763314 0.7033 0.6996 0.6958 0.6874 0.6903
3122.786982 0.6919 0.6925 0.6935 0.6956 0.6994
3127.810651 0.7050 0.7111 0.7165 0.7211 0.7245
3132.834320 0.7258 0.7267 0.7274 0.7274 0.7273
3137.857988 0.7273 0.7272 0.7270 0.7267 0.7262
3142.881657 0.7258 0.7254 0.7248 0.7241 0.7233
3147.905325 0.7225 0.7221 0.7219 0.7217 0.7215
3152.928994 0.7212 0.7238 0.7214 0.7216 0.7221
3157.952663 0.7225 0.7230 0.7236 0.7242 0.7248
3162.976331 0.7254 0.7258 0.7254 0.7250 0.7241
3168.000000 0.7228 0.7215 0.7195 0.7176 0.7156
3173.023669 0.7136 0.7115 0.7096 0.7076 0.7056
3178.047337 0.7040 0.7028 0.7016 0.7004 0.6992
3183.071006 0.6980 0.6967 0.6955 0.6947 0.6939
3188.094675 0.6931 0.6924 0.6916 0.6909 0.6905
3193.118343 0.6901 0.6898 0.6893 0.6890 0.6886
3198.142012 0.6882 0.6875 0.6865 0.6855 0.6844
3203.165680 0.6824 0.6798 0.6768 0.6724 0.6678
3208.189349 0.6625 0.6571 0.6522 0.6472 0.6420
3213.213018 0.6356 0.6281 0.6169 0.6058 0.5951
3218.236686 0.5850 0.5754 0.5672 0.5586 0.5487
3223.260355 0.5367 0.5216 0.5106 0.5023 0.4965
3228.284024 0.4920 0.4876 0.4839 0.4820 0.4804
3233.307692 0.4794 0.4790 0.4788 0.4789 0.4793
3238.331361 0.4796 0.4803 0.4814 0.4824 0.4838
3243.355030 0.4860 0.4893 0.4954 0.5043 0.5137
3248.378698 0.5232 0.5325 0.5417 0.5502 0.5582
3253.402367 0.5661 0.5732 0.5791 0.5851 0.5911
3258.426036 0.5970 0.6028 0.6085 0.6142 0.6201
3263.449704 0.6263 0.6325 0.6387 0.6443 0.6494
3268.473373 0.6546 0.6597 0.6646 0.6691 0.6735
3273.497041 0.6778 0.6821 0.6859 0.6894 0.6929
3278.520710 0.6954 0.6968 0.6983 0.6997 0.7009
3283.544379 0.7016 0.7023 0.7030 0.7037 0.7044
3288.568047 0.7050 0.7055 0.7058 0.7061 0.7065
3293.591716 0.7068 0.7071 0.7074 0.7080 0.7082
3298.615385 0.7083 0.7084 0.7086 0.7087 0.7088
3303.639053 0.7090 0.7091 0.7092 0.7092 0.7093
3308.662722 0.7093 0.7093 0.7093 0.7094 0.7090
3313.686391 0.7085 0.7079 0.7073 0.7067 0.7052
3318.710059 0.7030 0.7005 0.6976 0.6945 0.6913
3323.733728 0.6873 0.6829 0.6783 0.6736 0.6683
3328.757396 0.6628 0.6574 0.6517 0.6446 0.6370
3333.781065 0.6288 0.6185 0.6076 0.5946 0.5788
3338.804734 0.5540 0.5268 0.4998 0.4728 0.4457
3343.828402 0.4186 0.3997 0.3961 0.3959 0.3962
3348.852071 0.3956 0.3991 0.4180 0.4394 0.4608
3353.875740 0.4823 0.5038 0.5252 0.5467 0.5682
3358.899408 0.5896 0.6116 0.6251 0.6362 0.6470
3363.923077 0.6776 0.6936 0.7001 0.7059 0.7105
3368.946746 0.7145 0.7167 0.7175 0.7182 0.7188
3373.970414 0.7192 0.7191 0.7189 0.7188 0.7186
3378.994083 0.7184 0.7183 0.7177 0.7172 0.7167
3384.017751 0.7161 0.7156 0.7151 0.7143 0.7134
3389.041420 0.7125 0.7116 0.7107 0.7097 0.7088
3394.065089 0.7077 0.7066 0.7055 0.7044 0.7033
3399.088757 0.7017 0.7000 0.6983 0.6967 0.6957
3404.112426 0.6951 0.6946 0.6941 0.6937 0.6934
3409.136095 0.6934 0.6935 0.6935 0.6937 0.6940
3414.159763 0.6943 0.6947 0.6951 0.6960 0.6973
3419.183432 0.6993 0.7018 0.7047 0.7075 0.7100
3424.207101 0.7117 0.7126 0.7135 0.7143 0.7150
3429.230769 0.7153 0.7156 0.7159 0.7162 0.7165
3434.254438 0.7168 0.7171 0.7173 0.7174 0.7176
3439.278107 0.7178 0.7180 0.7181 0.7183 0.7185
3444.301775 0.7187 0.7190 0.7192 0.7194 0.7197
3449.325444 0.7199 0.7202 0.7204 0.7206 0.7209
3454.349112 0.7211 0.7213 0.7215 0.7216 0.7217
3459.372781 0.7218 0.7219 0.7220 0.7221 0.7222
3464.396450 0.7223 0.7224 0.7224 0.7225 0.7226
3469.420118 0.7227 0.7228 0.7229 0.7230 0.7232
3474.443787 0.7233 0.7235 0.7237 0.7238 0.7240
3479.467456 0.7242 0.7244 0.7245 0.7247 0.7249
3484.491124 0.7250 0.7252 0.7254 0.7256 0.7259
3489.514793 0.7262 0.7264 0.7267 0.7270 0.7274
3494.538462 0.7278 0.7282 0.7286 0.7290 0.7294
3499.562130 0.7298 0.7302 0.7306 0.7310 0.7314
3504.585799 0.7318 0.7323 0.7329 0.7336 0.7342
3509.609467 0.7349 0.7355 0.7361 0.7368 0.7374
3514.633136 0.7381 0.7387 0.7393 0.7400 0.7407
3519.656805 0.7414 0.7423 0.7431 0.7440 0.7448
3524.680473 0.7457 0.7466 0.7475 0.7483 0.7492
3529.704142 0.7502 0.7515 0.7527 0.7539 0.7551
3534.727811 0.7562 0.7571 0.7578 0.7586 0.7594
3539.751479 0.7601 0.7609 0.7616 0.7624 0.7631
3544.775148 0.7638 0.7644 0.7651 0.7659 0.7666
3549.798817 0.7672 0.7679 0.7686 0.7693 0.7699
3554.822485 0.7706 0.7713 0.7720 0.7727 0.7733
3559.846154 0.7739 0.7746 0.7752 0.7758 0.7765
3564.869822 0.7771 0.7777 0.7784 0.7790 0.7796
3569.893491 0.7803 0.7809 0.7815 0.7822 0.7828
3574.917160 0.7834 0.7841 0.7848 0.7855 0.7862
3579.940828 0.7871 0.7878 0.7886 0.7894 0.7902
3584.964497 0.7910 0.7917 0.7925 0.7933 0.7941
3589.988166 0.7949 0.7956 0.7964 0.7972 0.7980
3595.011834 0.7987 0.7995 0.8003 0.8011 0.8019
3600.035503 0.8026 0.8034 0.8042 0.8051 0.8062
3605.059172 0.8074 0.8086 0.8097 0.8109 0.8121
3610.082840 0.8133 0.8144 0.8156 0.8168 0.8180
3615.106509 0.8191 0.8203 0.8215 0.8227 0.8239
3620.130178 0.8251 0.8262 0.8272 0.8282 0.8292
3625.153846 0.8303 0.8313 0.8323 0.8333 0.8343
3630.177515 0.8353 0.8363 0.8373 0.8383 0.8393
3635.201183 0.8403 0.8413 0.8422 0.8431 0.8440
3640.224852 0.8449 0.8458 0.8467 0.8476 0.8482
3645.248521 0.8489 0.8496 0.8502 0.8509 0.8515
3650.272189 0.8521 0.8528 0.8534 0.8539 0.8543
3655.295858 0.8546 0.8550 0.8554 0.8558 0.8562
3660.319527 0.8565 0.8569 0.8572 0.8574 0.8576
3665.343195 0.8578 0.8580 0.8582 0.8584 0.8585
3670.366864 0.8587 0.8588 0.8589 0.8589 0.8590
3675.390533 0.8590 0.8590 0.8590 0.8591 0.8591
3680.414201 0.8591 0.8592 0.8592 0.8592 0.8592
3685.437870 0.8593 0.8593 0.8593 0.8593 0.8593
3690.461538 0.8593 0.8593 0.8593 0.8593 0.8592
3695.485207 0.8592 0.8592 0.8592 0.8592 0.8592
3700.508876 0.8591 0.8591 0.8591 0.8591 0.8591
3705.532544 0.8591 0.8590 0.8590 0.8590 0.8590
3710.556213 0.8590 0.8590 0.8589 0.8589 0.8589
3715.579882 0.8589 0.8589 0.8589 0.8589 0.8590
3720.603550 0.8590 0.8590 0.8590 0.8590 0.8590
3725.627219 0.8590 0.8590 0.8591 0.8591 0.8591
3730.650888 0.8591 0.8591 0.8591 0.8591 0.8591
3735.674556 0.8591 0.8592 0.8592 0.8592 0.8592
3740.698225 0.8592 0.8592 0.8592 0.8593 0.8593
3745.721893 0.8593 0.8594 0.8594 0.8594 0.8594
3750.745562 0.8595 0.8595 0.8595 0.8595 0.8596
3755.769231 0.8596 0.8596 0.8596 0.8597 0.8597
3760.792899 0.8597 0.8598 0.8598 0.8598 0.8598
3765.816568 0.8599 0.8599 0.8599 0.8599 0.8600
3770.840237 0.8600 0.8600 0.8600 0.8601 0.8601
3775.863905 0.8601 0.8602 0.8602 0.8602 0.8602
3780.887574 0.8603 0.8603 0.8603 0.8604 0.8604
3785.911243 0.8604 0.8605 0.8605 0.8606 0.8606
3790.934911 0.8606 0.8607 0.8607 0.8607 0.8608
3795.958580 0.8608 0.8608 0.8609 0.8609 0.8609
3800.982249 0.8610 0.8610 0.8611 0.8611 0.8611
3806.005917 0.8612 0.8612 0.8612 0.8613 0.8613
3811.029586 0.8613 0.8614 0.8614 0.8614 0.8615
3816.053254 0.8615 0.8616 0.8616 0.8616 0.8617
3821.076923 0.8617 0.8617 0.8618 0.8618 0.8618
3826.100592 0.8618 0.8618 0.8618 0.8618 0.8618
3831.124260 0.8618 0.8618 0.8618 0.8618 0.8618
3836.147929 0.8618 0.8618 0.8617 0.8617 0.8617
3841.171598 0.8617 0.8617 0.8617 0.8617 0.8617
3846.195266 0.8617 0.8617 0.8617 0.8617 0.8617
3851.218935 0.8617 0.8617 0.8617 0.8617 0.8617
3856.242604 0.8617 0.8617 0.8617 0.8617 0.8616
3861.266272 0.8616 0.8616 0.8616 0.8616 0.8616
3866.289941 0.8616 0.8616 0.8616 0.8616 0.8616
3871.313609 0.8616 0.8616 0.8616 0.8616 0.8616
3876.337278 0.8616 0.8616 0.8616 0.8616 0.8616
3881.360947 0.8616 0.8616 0.8615 0.8615 0.8615
3886.384615 0.8615 0.8615 0.8615 0.8615 0.8615
3891.408284 0.8615 0.8615 0.8615 0.8615 0.8615
3896.431953 0.8615 0.8615 0.8615 0.8615 0.8615
3901.455621 0.8614 0.8614 0.8613 0.8612 0.8612
3906.479290 0.8611 0.8611 0.8610 0.8609 0.8609
3911.502959 0.8608 0.8607 0.8606 0.8606 0.8605
3916.526627 0.8605 0.8604 0.8603 0.8603 0.8602
3921.550296 0.8602 0.8601 0.8600 0.8600 0.8599
3926.573964 0.8599 0.8598 0.8597 0.8596 0.8595
3931.597633 0.8594 0.8593 0.8592 0.8590 0.8589
3936.621302 0.8588 0.8587 0.8586 0.8585 0.8584
3941.644970 0.8583 0.8582 0.8581 0.8580 0.8579
3946.668639 0.8578 0.8577 0.8576 0.8575 0.8574
3951.692308 0.8573 0.8572 0.8571 0.8570 0.8570
3956.715976 0.8569 0.8569 0.8569 0.8568 0.8568
3961.739645 0.8567 0.8567 0.8567 0.8566 0.8566
3966.763314 0.8566 0.8565 0.8565 0.8564 0.8564
3971.786982 0.8564 0.8563 0.8563 0.8563 0.8570
3976.810651 0.8564 0.8561 0.8561 0.8560 0.8559
3981.834320 0.8558 0.8557 0.8556 0.8555 0.8554
3986.857988 0.8553 0.8552 0.8550 0.8549 0.8548
3991.881657 0.8547 0.8546 0.8545 0.8544 0.8543
3996.905325 0.8542 0.8542 0.8542 0.8542 0.8542
4001.928994 0.8543 0.8543 0.8543 0.8543 0.8543
4006.952663 0.8543 0.8543 0.8543 0.8543 0.8543
4011.976331 0.8543 0.8543 0.8543 0.8543 0.8543
##END=
