##TITLE=FERROUS OXALATE
##JCAMP-DX=4.24
##DATA TYPE=INFRARED SPECTRUM
##CLASS=COBLENTZ
##OWNER=COBLENTZ SOCIETY
Collection (C) 2018 copyright by the U.S. Secretary of Commerce
on behalf of the United States of America. All rights reserved.
##DATE=Not specified, most likely prior to 1970
##MOLFORM=Fe C2 O4  * 2 H2 O
##SOURCE REFERENCE=COBLENTZ NO. 61
##$NIST ID=B6000061
##$NIST SOURCE=COBLENTZ
##$NIST IMAGE=cob61
##SPECTROMETER/DATA SYSTEM=Not specified, most likely a prism, grating, or hybrid spectrometer.
##STATE=SOLID (KBr DISC)
##SAMPLING PROCEDURE=TRANSMISSION
##RESOLUTION=4
##DATA PROCESSING=DIGITIZED BY NIST FROM HARD COPY
##XUNITS=MICROMETERS
##YUNITS=TRANSMITTANCE
##XFACTOR=1.000000
##YFACTOR=1
##DELTAX=000.007582
##FIRSTX=2.051
##LASTX=15.5175
##FIRSTY=0.917
##MAXX=15.5175
##MINX=2.051
##MAXY=0.976
##MINY=0.063
##NPOINTS=1777
##XYDATA=(X++(Y..Y))
2.051000 0.9170 0.9170 0.9170 0.9190 0.9190
2.088932 0.9190 0.9190 0.9200 0.9200 0.9200
2.127000 0.9220 0.9230 0.9250 0.9260 0.9270
2.164932 0.9290 0.9290 0.9300 0.9300 0.9320
2.203000 0.9320 0.9320 0.9320 0.9330 0.9330
2.240932 0.9330 0.9330 0.9350 0.9350 0.9350
2.279000 0.9350 0.9350 0.9350 0.9350 0.9360
2.316932 0.9360 0.9360 0.9360 0.9360 0.9360
2.355000 0.9360 0.9360 0.9360 0.9380 0.9390
2.392932 0.9390 0.9390 0.9390 0.9390 0.9390
2.430000 0.9390 0.9390 0.9390 0.9410 0.9410
2.467932 0.9410 0.9410 0.9410 0.9410 0.9410
2.506000 0.9410 0.9410 0.9410 0.9410 0.9410
2.543932 0.9410 0.9410 0.9410 0.9410 0.9410
2.582000 0.9410 0.9410 0.9410 0.9410 0.9410
2.619932 0.9410 0.9410 0.9410 0.9390 0.9390
2.658000 0.9390 0.9390 0.9390 0.9380 0.9360
2.695932 0.9350 0.9320 0.9290 0.9250 0.9170
2.734000 0.9020 0.8910 0.8720 0.8610 0.8470
2.771932 0.8320 0.7980 0.7420 0.7020 0.6610
2.810000 0.6260 0.5800 0.5390 0.5130 0.5020
2.847932 0.4910 0.4540 0.4350 0.4190 0.4040
2.885000 0.3800 0.3510 0.3360 0.3220 0.3070
2.922932 0.2790 0.2420 0.2300 0.2070 0.1980
2.961000 0.1920 0.1920 0.1910 0.1920 0.1940
2.998932 0.2160 0.2380 0.2510 0.2690 0.2920
3.037000 0.3220 0.3730 0.3880 0.4260 0.4420
3.074932 0.4610 0.4830 0.5220 0.5320 0.5500
3.113000 0.5660 0.5770 0.5850 0.5970 0.6110
3.150932 0.6220 0.6320 0.6440 0.6520 0.6600
3.189000 0.6730 0.6800 0.6850 0.6940 0.6980
3.226932 0.7050 0.7160 0.7250 0.7320 0.7450
3.265000 0.7540 0.7640 0.7730 0.7820 0.7880
3.302932 0.7950 0.8010 0.8050 0.8110 0.8160
3.340000 0.8200 0.8290 0.8380 0.8450 0.8510
3.377932 0.8550 0.8600 0.8660 0.8700 0.8730
3.416000 0.8790 0.8850 0.8890 0.8940 0.8970
3.453932 0.9000 0.9020 0.9050 0.9080 0.9110
3.492000 0.9130 0.9140 0.9140 0.9160 0.9170
3.529932 0.9170 0.9190 0.9190 0.9200 0.9220
3.568000 0.9220 0.9220 0.9230 0.9230 0.9250
3.605932 0.9270 0.9290 0.9300 0.9300 0.9320
3.644000 0.9350 0.9360 0.9360 0.9380 0.9390
3.681932 0.9410 0.9420 0.9420 0.9440 0.9450
3.719000 0.9450 0.9470 0.9470 0.9480 0.9480
3.756932 0.9480 0.9480 0.9500 0.9510 0.9510
3.795000 0.9510 0.9510 0.9520 0.9520 0.9520
3.832932 0.9520 0.9520 0.9520 0.9520 0.9540
3.871000 0.9540 0.9550 0.9550 0.9570 0.9570
3.908932 0.9580 0.9580 0.9580 0.9600 0.9600
3.947000 0.9600 0.9600 0.9610 0.9610 0.9610
3.984932 0.9610 0.9610 0.9630 0.9630 0.9610
4.023000 0.9610 0.9610 0.9610 0.9610 0.9610
4.060932 0.9610 0.9610 0.9610 0.9610 0.9610
4.099000 0.9610 0.9610 0.9610 0.9610 0.9610
4.136932 0.9610 0.9610 0.9610 0.9610 0.9610
4.174000 0.9630 0.9630 0.9610 0.9610 0.9610
4.211932 0.9610 0.9610 0.9610 0.9610 0.9600
4.250000 0.9600 0.9600 0.9600 0.9600 0.9600
4.287932 0.9600 0.9580 0.9580 0.9580 0.9580
4.326000 0.9600 0.9600 0.9600 0.9600 0.9600
4.363932 0.9600 0.9600 0.9600 0.9600 0.9600
4.402000 0.9600 0.9610 0.9600 0.9600 0.9600
4.439932 0.9600 0.9600 0.9600 0.9610 0.9610
4.478000 0.9600 0.9600 0.9600 0.9600 0.9600
4.515932 0.9600 0.9600 0.9600 0.9600 0.9600
4.553000 0.9600 0.9600 0.9600 0.9600 0.9600
4.590932 0.9600 0.9600 0.9600 0.9600 0.9610
4.629000 0.9610 0.9610 0.9610 0.9610 0.9610
4.666932 0.9610 0.9610 0.9610 0.9610 0.9610
4.705000 0.9610 0.9610 0.9610 0.9610 0.9630
4.742932 0.9630 0.9630 0.9630 0.9630 0.9630
4.781000 0.9630 0.9640 0.9640 0.9640 0.9640
4.818932 0.9640 0.9640 0.9640 0.9660 0.9670
4.857000 0.9670 0.9690 0.9690 0.9690 0.9690
4.894932 0.9690 0.9700 0.9700 0.9700 0.9720
4.933000 0.9720 0.9720 0.9720 0.9730 0.9730
4.970932 0.9730 0.9730 0.9750 0.9750 0.9750
5.008000 0.9750 0.9760 0.9760 0.9750 0.9750
5.045932 0.9750 0.9750 0.9750 0.9750 0.9750
5.084000 0.9750 0.9750 0.9730 0.9730 0.9730
5.121932 0.9730 0.9730 0.9730 0.9730 0.9720
5.160000 0.9720 0.9700 0.9700 0.9690 0.9690
5.197932 0.9690 0.9670 0.9670 0.9670 0.9640
5.236000 0.9610 0.9610 0.9600 0.9600 0.9600
5.273932 0.9600 0.9600 0.9600 0.9600 0.9600
5.312000 0.9600 0.9600 0.9610 0.9610 0.9610
5.349932 0.9610 0.9610 0.9610 0.9610 0.9610
5.388000 0.9610 0.9610 0.9600 0.9600 0.9600
5.425932 0.9600 0.9600 0.9600 0.9600 0.9600
5.463000 0.9580 0.9570 0.9550 0.9540 0.9520
5.500932 0.9510 0.9510 0.9510 0.9500 0.9480
5.539000 0.9470 0.9450 0.9440 0.9410 0.9380
5.576932 0.9330 0.9300 0.9270 0.9250 0.9230
5.615000 0.9220 0.9200 0.9170 0.9160 0.9080
5.652932 0.9020 0.9000 0.8970 0.8940 0.8920
5.691000 0.8890 0.8850 0.8790 0.8660 0.8610
5.728932 0.8330 0.8230 0.8130 0.7720 0.7570
5.767000 0.7470 0.7360 0.7220 0.6800 0.6720
5.804932 0.6630 0.6540 0.6470 0.6390 0.6250
5.842000 0.6100 0.5720 0.5450 0.5220 0.5000
5.879932 0.4910 0.4820 0.4410 0.4170 0.3940
5.918000 0.3640 0.3390 0.3190 0.2970 0.2700
5.955932 0.2450 0.2230 0.2130 0.1950 0.1880
5.994000 0.1760 0.1690 0.1600 0.1500 0.1320
6.031932 0.1160 0.1020 0.0970 0.0940 0.0890
6.070000 0.0850 0.0760 0.0690 0.0640 0.0640
6.107932 0.0630 0.0640 0.0640 0.0660 0.0730
6.146000 0.0790 0.1050 0.1220 0.1380 0.1600
6.183932 0.1660 0.2170 0.2380 0.2510 0.2690
6.222000 0.2800 0.2980 0.3230 0.3600 0.3760
6.259932 0.3970 0.4110 0.4260 0.4360 0.4450
6.297000 0.4550 0.4690 0.4770 0.4980 0.5260
6.334932 0.5420 0.5500 0.5550 0.5630 0.5660
6.373000 0.5690 0.5770 0.5880 0.6050 0.6260
6.410932 0.6330 0.6480 0.6540 0.6550 0.6570
6.449000 0.6610 0.6660 0.6820 0.6860 0.6950
6.486932 0.7070 0.7170 0.7230 0.7260 0.7290
6.525000 0.7330 0.7380 0.7420 0.7480 0.7510
6.562932 0.7550 0.7610 0.7630 0.7640 0.7660
6.601000 0.7670 0.7720 0.7760 0.7830 0.7880
6.638932 0.7940 0.7950 0.8010 0.8040 0.8040
6.676000 0.8050 0.8080 0.8110 0.8190 0.8200
6.713932 0.8220 0.8230 0.8230 0.8230 0.8250
6.752000 0.8250 0.8260 0.8260 0.8270 0.8290
6.789932 0.8300 0.8330 0.8350 0.8350 0.8350
6.828000 0.8360 0.8360 0.8380 0.8380 0.8390
6.865932 0.8390 0.8390 0.8390 0.8390 0.8390
6.904000 0.8390 0.8390 0.8390 0.8410 0.8410
6.941932 0.8410 0.8410 0.8410 0.8410 0.8420
6.980000 0.8410 0.8410 0.8410 0.8410 0.8410
7.017932 0.8410 0.8410 0.8410 0.8410 0.8410
7.056000 0.8410 0.8410 0.8410 0.8410 0.8410
7.093932 0.8410 0.8410 0.8390 0.8390 0.8390
7.131000 0.8390 0.8390 0.8390 0.8390 0.8390
7.168932 0.8390 0.8380 0.8380 0.8380 0.8360
7.207000 0.8350 0.8300 0.8260 0.8200 0.8100
7.244932 0.8010 0.7690 0.7470 0.6730 0.6570
7.283000 0.6390 0.6080 0.5910 0.5450 0.5260
7.320932 0.5190 0.5190 0.5260 0.5770 0.6040
7.359000 0.6260 0.6380 0.6500 0.6640 0.6880
7.396932 0.7020 0.7070 0.7160 0.7190 0.7200
7.435000 0.7220 0.7220 0.7270 0.7230 0.7200
7.472932 0.7130 0.7010 0.6800 0.6580 0.6250
7.511000 0.5570 0.5170 0.4760 0.4200 0.3950
7.548932 0.3750 0.3410 0.3410 0.3500 0.3720
7.586000 0.3880 0.3980 0.4420 0.4920 0.5190
7.623932 0.5470 0.5970 0.6200 0.6230 0.6540
7.662000 0.6850 0.6980 0.7160 0.7260 0.7360
7.699932 0.7480 0.7580 0.7690 0.7770 0.7860
7.738000 0.7970 0.8040 0.8080 0.8140 0.8170
7.775932 0.8220 0.8260 0.8300 0.8380 0.8390
7.814000 0.8470 0.8480 0.8500 0.8520 0.8540
7.851932 0.8550 0.8570 0.8570 0.8600 0.8610
7.890000 0.8630 0.8660 0.8670 0.8700 0.8720
7.927932 0.8720 0.8730 0.8750 0.8750 0.8760
7.965000 0.8770 0.8770 0.8790 0.8790 0.8800
8.002932 0.8820 0.8830 0.8850 0.8860 0.8880
8.041000 0.8880 0.8880 0.8890 0.8910 0.8910
8.078932 0.8920 0.8920 0.8920 0.8940 0.8940
8.117000 0.8950 0.8970 0.8970 0.8970 0.8980
8.154932 0.8980 0.8980 0.8980 0.8980 0.8980
8.193000 0.8980 0.9000 0.9020 0.9040 0.9040
8.230932 0.9040 0.9040 0.9040 0.9040 0.9050
8.269000 0.9050 0.9050 0.9050 0.9050 0.9050
8.306932 0.9070 0.9070 0.9070 0.9070 0.9070
8.345000 0.9070 0.9070 0.9070 0.9070 0.9070
8.382932 0.9070 0.9080 0.9080 0.9080 0.9080
8.420000 0.9100 0.9100 0.9110 0.9130 0.9130
8.457932 0.9140 0.9160 0.9160 0.9170 0.9170
8.496000 0.9190 0.9190 0.9190 0.9190 0.9190
8.533932 0.9190 0.9190 0.9200 0.9200 0.9200
8.572000 0.9200 0.9200 0.9200 0.9200 0.9200
8.609932 0.9200 0.9220 0.9220 0.9220 0.9220
8.648000 0.9220 0.9220 0.9220 0.9220 0.9220
8.685932 0.9230 0.9230 0.9230 0.9230 0.9230
8.724000 0.9250 0.9250 0.9260 0.9260 0.9260
8.761932 0.9260 0.9270 0.9260 0.9260 0.9260
8.799000 0.9260 0.9270 0.9270 0.9270 0.9270
8.836932 0.9270 0.9270 0.9290 0.9290 0.9290
8.875000 0.9290 0.9290 0.9300 0.9300 0.9300
8.912932 0.9300 0.9300 0.9300 0.9300 0.9320
8.951000 0.9320 0.9320 0.9320 0.9320 0.9320
8.988932 0.9320 0.9320 0.9320 0.9320 0.9330
9.027000 0.9330 0.9330 0.9320 0.9320 0.9320
9.064932 0.9320 0.9330 0.9330 0.9330 0.9330
9.103000 0.9350 0.9350 0.9350 0.9360 0.9360
9.140932 0.9360 0.9360 0.9360 0.9360 0.9360
9.179000 0.9380 0.9380 0.9380 0.9380 0.9380
9.216932 0.9380 0.9380 0.9380 0.9380 0.9380
9.254000 0.9380 0.9390 0.9390 0.9390 0.9390
9.291932 0.9390 0.9390 0.9390 0.9410 0.9410
9.330000 0.9410 0.9410 0.9410 0.9410 0.9410
9.367932 0.9410 0.9410 0.9420 0.9420 0.9420
9.406000 0.9420 0.9440 0.9440 0.9440 0.9440
9.443932 0.9440 0.9440 0.9450 0.9450 0.9450
9.482000 0.9450 0.9470 0.9470 0.9470 0.9470
9.519932 0.9470 0.9470 0.9470 0.9470 0.9470
9.558000 0.9470 0.9480 0.9480 0.9480 0.9480
9.595932 0.9480 0.9480 0.9480 0.9480 0.9480
9.634000 0.9480 0.9480 0.9480 0.9500 0.9500
9.671932 0.9500 0.9510 0.9510 0.9510 0.9510
9.709000 0.9500 0.9500 0.9510 0.9510 0.9510
9.746932 0.9510 0.9510 0.9510 0.9510 0.9510
9.785000 0.9510 0.9510 0.9510 0.9510 0.9510
9.822932 0.9510 0.9510 0.9510 0.9510 0.9510
9.861000 0.9510 0.9510 0.9510 0.9510 0.9510
9.898932 0.9510 0.9510 0.9510 0.9510 0.9510
9.937000 0.9510 0.9510 0.9510 0.9510 0.9510
9.974932 0.9510 0.9510 0.9510 0.9510 0.9510
10.013000 0.9510 0.9510 0.9510 0.9510 0.9510
10.050932 0.9510 0.9510 0.9510 0.9510 0.9510
10.088000 0.9510 0.9510 0.9510 0.9510 0.9510
10.125932 0.9510 0.9510 0.9510 0.9510 0.9510
10.164000 0.9510 0.9510 0.9510 0.9510 0.9510
10.201932 0.9510 0.9510 0.9510 0.9510 0.9510
10.240000 0.9510 0.9520 0.9520 0.9520 0.9520
10.277932 0.9520 0.9520 0.9520 0.9510 0.9510
10.316000 0.9510 0.9510 0.9510 0.9510 0.9520
10.353932 0.9520 0.9520 0.9520 0.9520 0.9540
10.392000 0.9520 0.9520 0.9520 0.9520 0.9520
10.429932 0.9520 0.9520 0.9520 0.9520 0.9520
10.468000 0.9520 0.9520 0.9520 0.9520 0.9520
10.505932 0.9520 0.9520 0.9520 0.9520 0.9520
10.543000 0.9520 0.9520 0.9520 0.9520 0.9520
10.580932 0.9520 0.9520 0.9520 0.9520 0.9520
10.619000 0.9520 0.9520 0.9520 0.9520 0.9520
10.656932 0.9520 0.9520 0.9520 0.9520 0.9520
10.695000 0.9520 0.9520 0.9520 0.9520 0.9520
10.732932 0.9520 0.9520 0.9520 0.9510 0.9510
10.771000 0.9510 0.9520 0.9520 0.9510 0.9510
10.808932 0.9510 0.9510 0.9520 0.9520 0.9510
10.847000 0.9510 0.9510 0.9510 0.9510 0.9510
10.884932 0.9510 0.9510 0.9510 0.9510 0.9510
10.922000 0.9510 0.9500 0.9500 0.9500 0.9500
10.959932 0.9500 0.9500 0.9500 0.9500 0.9480
10.998000 0.9480 0.9480 0.9480 0.9480 0.9480
11.035932 0.9470 0.9470 0.9470 0.9470 0.9470
11.074000 0.9470 0.9470 0.9470 0.9470 0.9470
11.111932 0.9470 0.9470 0.9450 0.9450 0.9440
11.150000 0.9440 0.9440 0.9440 0.9440 0.9440
11.187932 0.9440 0.9440 0.9440 0.9420 0.9420
11.226000 0.9420 0.9420 0.9410 0.9410 0.9420
11.263932 0.9420 0.9420 0.9420 0.9410 0.9410
11.302000 0.9410 0.9390 0.9390 0.9380 0.9360
11.339932 0.9360 0.9350 0.9350 0.9330 0.9330
11.377000 0.9330 0.9330 0.9330 0.9330 0.9330
11.414932 0.9330 0.9330 0.9320 0.9320 0.9300
11.453000 0.9270 0.9260 0.9230 0.9230 0.9230
11.490932 0.9230 0.9230 0.9230 0.9230 0.9220
11.529000 0.9220 0.9220 0.9200 0.9170 0.9160
11.566932 0.9130 0.9110 0.9100 0.9080 0.9070
11.605000 0.9040 0.9020 0.9020 0.9010 0.8980
11.642932 0.8950 0.8920 0.8910 0.8860 0.8850
11.681000 0.8830 0.8820 0.8800 0.8790 0.8770
11.718932 0.8760 0.8750 0.8730 0.8700 0.8690
11.757000 0.8660 0.8630 0.8580 0.8540 0.8480
11.794932 0.8440 0.8380 0.8350 0.8320 0.8270
11.832000 0.8230 0.8170 0.8110 0.8050 0.8010
11.869932 0.7910 0.7880 0.7800 0.7730 0.7630
11.908000 0.7550 0.7480 0.7420 0.7330 0.7250
11.945932 0.7190 0.7130 0.7020 0.6920 0.6760
11.984000 0.6720 0.6660 0.6570 0.6470 0.6410
12.021932 0.6320 0.6250 0.6200 0.6160 0.6080
12.060000 0.6040 0.6020 0.6010 0.5980 0.5970
12.097932 0.5950 0.5910 0.5890 0.5860 0.5830
12.136000 0.5830 0.5820 0.5800 0.5800 0.5790
12.173932 0.5790 0.5790 0.5790 0.5790 0.5800
12.211000 0.5830 0.5910 0.5970 0.6010 0.6080
12.248932 0.6110 0.6190 0.6230 0.6270 0.6320
12.287000 0.6360 0.6410 0.6480 0.6540 0.6580
12.324932 0.6630 0.6750 0.6770 0.6830 0.6880
12.363000 0.6910 0.6920 0.6970 0.6980 0.7010
12.400932 0.7020 0.7080 0.7100 0.7130 0.7140
12.439000 0.7160 0.7190 0.7200 0.7220 0.7230
12.476932 0.7250 0.7270 0.7290 0.7290 0.7300
12.515000 0.7330 0.7350 0.7360 0.7390 0.7410
12.552932 0.7420 0.7420 0.7420 0.7440 0.7440
12.591000 0.7440 0.7440 0.7440 0.7450 0.7450
12.628932 0.7450 0.7470 0.7470 0.7470 0.7480
12.666000 0.7500 0.7500 0.7500 0.7510 0.7510
12.703932 0.7510 0.7510 0.7510 0.7510 0.7510
12.742000 0.7510 0.7510 0.7510 0.7510 0.7520
12.779932 0.7510 0.7510 0.7520 0.7510 0.7510
12.818000 0.7510 0.7510 0.7510 0.7510 0.7510
12.855932 0.7500 0.7500 0.7500 0.7500 0.7500
12.894000 0.7500 0.7510 0.7510 0.7510 0.7510
12.931932 0.7510 0.7510 0.7510 0.7500 0.7500
12.970000 0.7510 0.7510 0.7510 0.7510 0.7510
13.007932 0.7510 0.7510 0.7520 0.7520 0.7520
13.045000 0.7520 0.7520 0.7520 0.7520 0.7510
13.082932 0.7510 0.7510 0.7510 0.7510 0.7510
13.121000 0.7510 0.7510 0.7510 0.7510 0.7510
13.158932 0.7510 0.7510 0.7510 0.7510 0.7510
13.197000 0.7510 0.7510 0.7510 0.7510 0.7510
13.234932 0.7500 0.7500 0.7500 0.7500 0.7500
13.273000 0.7500 0.7500 0.7500 0.7500 0.7500
13.310932 0.7500 0.7500 0.7500 0.7500 0.7480
13.349000 0.7480 0.7480 0.7480 0.7480 0.7470
13.386932 0.7470 0.7470 0.7470 0.7470 0.7470
13.425000 0.7470 0.7470 0.7450 0.7450 0.7440
13.462932 0.7420 0.7420 0.7420 0.7420 0.7440
13.500000 0.7440 0.7440 0.7420 0.7420 0.7420
13.537932 0.7410 0.7390 0.7390 0.7380 0.7380
13.576000 0.7380 0.7380 0.7380 0.7360 0.7360
13.613932 0.7350 0.7350 0.7350 0.7360 0.7360
13.652000 0.7360 0.7350 0.7350 0.7350 0.7350
13.689932 0.7350 0.7350 0.7350 0.7350 0.7350
13.728000 0.7330 0.7330 0.7330 0.7330 0.7330
13.765932 0.7330 0.7330 0.7330 0.7330 0.7330
13.804000 0.7330 0.7330 0.7350 0.7350 0.7350
13.841932 0.7350 0.7350 0.7350 0.7350 0.7350
13.880000 0.7350 0.7360 0.7360 0.7360 0.7360
13.917932 0.7360 0.7360 0.7360 0.7360 0.7380
13.955000 0.7380 0.7380 0.7380 0.7380 0.7380
13.992932 0.7380 0.7380 0.7380 0.7380 0.7380
14.031000 0.7380 0.7380 0.7380 0.7380 0.7380
14.068932 0.7380 0.7380 0.7380 0.7380 0.7380
14.107000 0.7390 0.7390 0.7410 0.7420 0.7420
14.144932 0.7420 0.7440 0.7420 0.7420 0.7420
14.183000 0.7420 0.7410 0.7420 0.7420 0.7440
14.220932 0.7440 0.7450 0.7480 0.7500 0.7520
14.259000 0.7520 0.7540 0.7540 0.7540 0.7550
14.296932 0.7550 0.7550 0.7550 0.7550 0.7550
14.334000 0.7550 0.7570 0.7570 0.7570 0.7580
14.371932 0.7580 0.7600 0.7610 0.7610 0.7610
14.410000 0.7610 0.7610 0.7630 0.7630 0.7630
14.447932 0.7640 0.7660 0.7670 0.7670 0.7670
14.486000 0.7670 0.7690 0.7690 0.7690 0.7700
14.523932 0.7700 0.7700 0.7700 0.7700 0.7700
14.562000 0.7720 0.7720 0.7720 0.7720 0.7730
14.599932 0.7750 0.7760 0.7760 0.7760 0.7770
14.638000 0.7770 0.7790 0.7790 0.7790 0.7790
14.675932 0.7790 0.7800 0.7800 0.7800 0.7800
14.714000 0.7800 0.7800 0.7800 0.7820 0.7820
14.751932 0.7820 0.7820 0.7830 0.7830 0.7820
14.789000 0.7820 0.7830 0.7830 0.7830 0.7830
14.826932 0.7850 0.7850 0.7850 0.7830 0.7850
14.865000 0.7850 0.7850 0.7850 0.7850 0.7860
14.902932 0.7880 0.7890 0.7910 0.7940 0.7940
14.941000 0.7940 0.7950 0.7950 0.7970 0.7980
14.978932 0.7980 0.7980 0.8000 0.8000 0.8000
15.017000 0.8000 0.8010 0.8010 0.8010 0.8010
15.054932 0.8010 0.8010 0.8010 0.8010 0.8010
15.093000 0.8010 0.8020 0.8020 0.8020 0.8020
15.130932 0.8020 0.8020 0.8020 0.8020 0.8040
15.168000 0.8040 0.8020 0.8020 0.8020 0.8020
15.205932 0.8020 0.8040 0.8040 0.8040 0.8040
15.244000 0.8040 0.8040 0.8040 0.8040 0.8050
15.281932 0.8050 0.8050 0.8050 0.8050 0.8050
15.320000 0.8050 0.8050 0.8050 0.8070 0.8070
15.357932 0.8070 0.8070 0.8070 0.8080 0.8080
15.396000 0.8080 0.8080 0.8080 0.8080 0.8080
15.433932 0.8080 0.8080 0.8080 0.8080 0.8080
15.472000 0.8080 0.8080 0.8100 0.8080 0.8080
15.509932 0.8080 0.8080
##END=
