##TITLE=CODEINE, SULFATE (PENTAHYDRATE)
##JCAMP-DX=4.24
$$ By DXEDIT 1.05 (RS McDonald)
##DATA TYPE=INFRARED SPECTRUM
##CLASS=COBLENTZ III
##ORIGIN=BUREAU OF CUSTOMS
##OWNER=COBLENTZ SOC.
Collection (C) 2018 copyright by the U.S. Secretary of Commerce
on behalf of the United States of America. All rights reserved.
##DATE=Not specified, most likely prior to 1970
##MOLFORM=C36 H44 N2 O10 S  * 5 H2 O
##SOURCE REFERENCE=COBLENTZ NO. 05014
##$NIST ID=B6005014
##$NIST SOURCE=COBLENTZ
##$NIST IMAGE=cob5014
##SPECTROMETER/DATA SYSTEM=PERKIN-ELMER 21 (GRATING)
##INSTRUMENT PARAMETERS=FILTER AT ABOUT 10 MICRONS
##STATE=SOLID (1.5 mg / 250 mg KBr DISC)
$$PURITY 99+
##SAMPLING PROCEDURE=TRANSMISSION
##RESOLUTION=2
##DATA PROCESSING=DIGITIZED BY COBLENTZ SOCIETY (BATCH I) FROM HARD COPY
##XUNITS=1/CM
##YUNITS=TRANSMITTANCE
##XLABEL=Wavenumbers (cm-1)
##YLABEL=Transmittance
##XFACTOR=1
##YFACTOR=1
##DELTAX=1
##FIRSTX=4000
##LASTX=651
##FIRSTY=0.8395
##MAXX=4000
##MINX=651
##MAXY=0.9814
##MINY=0.0755
##NPOINTS=3350
##XYDATA=(X++(Y..Y))
4000.000000 0.8395 0.8396 0.8397 0.8399 0.8400
3995.000000 0.8402 0.8403 0.8404 0.8406 0.8408
3990.000000 0.8409 0.8411 0.8412 0.8414 0.8415
3985.000000 0.8417 0.8418 0.8420 0.8421 0.8421
3980.000000 0.8424 0.8425 0.8427 0.8428 0.8428
3975.000000 0.8431 0.8432 0.8434 0.8436 0.8437
3970.000000 0.8439 0.8440 0.8442 0.8443 0.8445
3965.000000 0.8446 0.8448 0.8449 0.8450 0.8452
3960.000000 0.8454 0.8455 0.8457 0.8458 0.8460
3955.000000 0.8461 0.8463 0.8464 0.8465 0.8467
3950.000000 0.8468 0.8468 0.8470 0.8471 0.8473
3945.000000 0.8474 0.8475 0.8477 0.8478 0.8480
3940.000000 0.8481 0.8483 0.8484 0.8486 0.8487
3935.000000 0.8488 0.8489 0.8491 0.8492 0.8493
3930.000000 0.8495 0.8496 0.8497 0.8498 0.8500
3925.000000 0.8501 0.8502 0.8504 0.8505 0.8507
3920.000000 0.8508 0.8510 0.8511 0.8512 0.8514
3915.000000 0.8515 0.8516 0.8518 0.8518 0.8520
3910.000000 0.8521 0.8523 0.8524 0.8525 0.8527
3905.000000 0.8528 0.8530 0.8531 0.8533 0.8534
3900.000000 0.8536 0.8537 0.8538 0.8540 0.8541
3895.000000 0.8542 0.8544 0.8545 0.8546 0.8548
3890.000000 0.8549 0.8550 0.8552 0.8553 0.8555
3885.000000 0.8556 0.8557 0.8559 0.8560 0.8562
3880.000000 0.8563 0.8564 0.8566 0.8567 0.8568
3875.000000 0.8570 0.8571 0.8573 0.8574 0.8575
3870.000000 0.8577 0.8578 0.8580 0.8581 0.8583
3865.000000 0.8584 0.8585 0.8587 0.8588 0.8590
3860.000000 0.8592 0.8593 0.8595 0.8596 0.8597
3855.000000 0.8599 0.8600 0.8601 0.8603 0.8604
3850.000000 0.8605 0.8607 0.8608 0.8609 0.8611
3845.000000 0.8612 0.8614 0.8615 0.8617 0.8618
3840.000000 0.8620 0.8621 0.8623 0.8624 0.8625
3835.000000 0.8628 0.8628 0.8631 0.8633 0.8635
3830.000000 0.8637 0.8639 0.8641 0.8643 0.8645
3825.000000 0.8647 0.8649 0.8651 0.8653 0.8655
3820.000000 0.8657 0.8659 0.8661 0.8663 0.8665
3815.000000 0.8667 0.8668 0.8671 0.8673 0.8675
3810.000000 0.8678 0.8680 0.8682 0.8684 0.8686
3805.000000 0.8688 0.8691 0.8693 0.8696 0.8698
3800.000000 0.8701 0.8704 0.8706 0.8709 0.8712
3795.000000 0.8715 0.8717 0.8720 0.8723 0.8725
3790.000000 0.8728 0.8731 0.8734 0.8740 0.8746
3785.000000 0.8752 0.8758 0.8763 0.8770 0.8782
3780.000000 0.8794 0.8805 0.8817 0.8828 0.8837
3775.000000 0.8842 0.8847 0.8851 0.8856 0.8860
3770.000000 0.8865 0.8868 0.8874 0.8878 0.8882
3765.000000 0.8887 0.8888 0.8890 0.8892 0.8894
3760.000000 0.8895 0.8897 0.8899 0.8901 0.8903
3755.000000 0.8905 0.8907 0.8909 0.8911 0.8912
3750.000000 0.8914 0.8916 0.8918 0.8920 0.8921
3745.000000 0.8924 0.8925 0.8928 0.8928 0.8931
3740.000000 0.8933 0.8935 0.8937 0.8938 0.8940
3735.000000 0.8942 0.8943 0.8945 0.8946 0.8948
3730.000000 0.8949 0.8951 0.8952 0.8954 0.8955
3725.000000 0.8957 0.8958 0.8960 0.8962 0.8963
3720.000000 0.8965 0.8967 0.8968 0.8970 0.8971
3715.000000 0.8973 0.8974 0.8975 0.8975 0.8978
3710.000000 0.8978 0.8980 0.8981 0.8982 0.8983
3705.000000 0.8984 0.8985 0.8986 0.8988 0.8989
3700.000000 0.8990 0.8992 0.8993 0.8994 0.8995
3695.000000 0.8996 0.8997 0.8998 0.8999 0.9000
3690.000000 0.9002 0.9003 0.9004 0.9005 0.9006
3685.000000 0.9007 0.9008 0.9009 0.9010 0.9011
3680.000000 0.9013 0.9014 0.9015 0.9016 0.9017
3675.000000 0.9018 0.9018 0.9020 0.9021 0.9023
3670.000000 0.9023 0.9023 0.9023 0.9023 0.9023
3665.000000 0.9021 0.9021 0.9021 0.9021 0.9021
3660.000000 0.9021 0.9021 0.9021 0.9020 0.9020
3655.000000 0.9020 0.9016 0.9013 0.9009 0.9006
3650.000000 0.9003 0.8999 0.8994 0.8989 0.8984
3645.000000 0.8980 0.8975 0.8971 0.8966 0.8962
3640.000000 0.8957 0.8952 0.8944 0.8936 0.8928
3635.000000 0.8920 0.8912 0.8900 0.8888 0.8875
3630.000000 0.8863 0.8850 0.8837 0.8823 0.8809
3625.000000 0.8794 0.8780 0.8760 0.8714 0.8668
3620.000000 0.8621 0.8575 0.8528 0.8499 0.8468
3615.000000 0.8440 0.8410 0.8381 0.8351 0.8321
3610.000000 0.8293 0.8263 0.8234 0.8205 0.8175
3605.000000 0.8145 0.8115 0.8086 0.8056 0.8026
3600.000000 0.7997 0.7968 0.7938 0.7908 0.7878
3595.000000 0.7849 0.7818 0.7790 0.7760 0.7730
3590.000000 0.7700 0.7669 0.7640 0.7610 0.7581
3585.000000 0.7551 0.7521 0.7491 0.7461 0.7432
3580.000000 0.7401 0.7371 0.7341 0.7311 0.7281
3575.000000 0.7251 0.7221 0.7192 0.7161 0.7132
3570.000000 0.7101 0.7071 0.7041 0.7011 0.6980
3565.000000 0.6950 0.6919 0.6889 0.6858 0.6828
3560.000000 0.6799 0.6768 0.6738 0.6708 0.6678
3555.000000 0.6647 0.6617 0.6586 0.6556 0.6525
3550.000000 0.6495 0.6465 0.6434 0.6404 0.6373
3545.000000 0.6343 0.6312 0.6281 0.6251 0.6220
3540.000000 0.6189 0.6159 0.6128 0.6097 0.6066
3535.000000 0.6036 0.6005 0.5975 0.5944 0.5912
3530.000000 0.5882 0.5851 0.5820 0.5790 0.5759
3525.000000 0.5728 0.5697 0.5666 0.5635 0.5605
3520.000000 0.5573 0.5542 0.5510 0.5480 0.5449
3515.000000 0.5418 0.5387 0.5356 0.5324 0.5293
3510.000000 0.5262 0.5231 0.5200 0.5169 0.5138
3505.000000 0.5106 0.5075 0.5044 0.5012 0.4981
3500.000000 0.4950 0.4919 0.4887 0.4856 0.4825
3495.000000 0.4793 0.4762 0.4730 0.4698 0.4667
3490.000000 0.4636 0.4604 0.4573 0.4541 0.4510
3485.000000 0.4478 0.4446 0.4415 0.4383 0.4351
3480.000000 0.4319 0.4287 0.4256 0.4224 0.4192
3475.000000 0.4160 0.4129 0.4097 0.4064 0.4032
3470.000000 0.4000 0.3968 0.3937 0.3906 0.3874
3465.000000 0.3842 0.3809 0.3778 0.3746 0.3714
3460.000000 0.3682 0.3650 0.3616 0.3584 0.3553
3455.000000 0.3521 0.3489 0.3456 0.3424 0.3392
3450.000000 0.3359 0.3328 0.3296 0.3262 0.3230
3445.000000 0.3198 0.3166 0.3134 0.3101 0.3069
3440.000000 0.3037 0.3004 0.2972 0.2939 0.2907
3435.000000 0.2874 0.2842 0.2825 0.2808 0.2791
3430.000000 0.2774 0.2760 0.2753 0.2746 0.2740
3425.000000 0.2733 0.2726 0.2718 0.2711 0.2704
3420.000000 0.2697 0.2684 0.2672 0.2660 0.2648
3415.000000 0.2637 0.2627 0.2618 0.2609 0.2600
3410.000000 0.2593 0.2588 0.2583 0.2578 0.2574
3405.000000 0.2571 0.2568 0.2565 0.2562 0.2560
3400.000000 0.2560 0.2559 0.2559 0.2559 0.2558
3395.000000 0.2558 0.2557 0.2557 0.2556 0.2556
3390.000000 0.2556 0.2556 0.2556 0.2555 0.2555
3385.000000 0.2554 0.2554 0.2554 0.2553 0.2553
3380.000000 0.2553 0.2553 0.2553 0.2555 0.2556
3375.000000 0.2558 0.2559 0.2561 0.2563 0.2565
3370.000000 0.2567 0.2569 0.2571 0.2573 0.2574
3365.000000 0.2576 0.2578 0.2580 0.2582 0.2584
3360.000000 0.2587 0.2594 0.2602 0.2609 0.2616
3355.000000 0.2624 0.2631 0.2638 0.2645 0.2652
3350.000000 0.2659 0.2666 0.2673 0.2681 0.2688
3345.000000 0.2695 0.2702 0.2709 0.2717 0.2725
3340.000000 0.2734 0.2743 0.2752 0.2760 0.2769
3335.000000 0.2778 0.2787 0.2796 0.2806 0.2816
3330.000000 0.2826 0.2834 0.2846 0.2856 0.2867
3325.000000 0.2877 0.2887 0.2897 0.2907 0.2916
3320.000000 0.2926 0.2934 0.2944 0.2953 0.2962
3315.000000 0.2971 0.2980 0.2989 0.2998 0.3006
3310.000000 0.3012 0.3018 0.3025 0.3031 0.3037
3305.000000 0.3042 0.3048 0.3054 0.3059 0.3063
3300.000000 0.3067 0.3071 0.3075 0.3079 0.3083
3295.000000 0.3088 0.3092 0.3096 0.3101 0.3106
3290.000000 0.3111 0.3116 0.3122 0.3127 0.3133
3285.000000 0.3138 0.3144 0.3150 0.3156 0.3162
3280.000000 0.3167 0.3173 0.3178 0.3184 0.3194
3275.000000 0.3207 0.3220 0.3232 0.3246 0.3259
3270.000000 0.3274 0.3287 0.3300 0.3320 0.3339
3265.000000 0.3357 0.3376 0.3396 0.3416 0.3436
3260.000000 0.3456 0.3475 0.3492 0.3509 0.3526
3255.000000 0.3543 0.3559 0.3577 0.3594 0.3610
3250.000000 0.3628 0.3646 0.3662 0.3680 0.3697
3245.000000 0.3714 0.3732 0.3749 0.3766 0.3782
3240.000000 0.3800 0.3816 0.3834 0.3852 0.3868
3235.000000 0.3887 0.3904 0.3921 0.3939 0.3956
3230.000000 0.3973 0.3990 0.4008 0.4025 0.4042
3225.000000 0.4059 0.4077 0.4094 0.4110 0.4129
3220.000000 0.4147 0.4164 0.4182 0.4199 0.4217
3215.000000 0.4234 0.4251 0.4269 0.4286 0.4304
3210.000000 0.4321 0.4339 0.4357 0.4374 0.4392
3205.000000 0.4410 0.4427 0.4445 0.4462 0.4480
3200.000000 0.4498 0.4515 0.4533 0.4550 0.4568
3195.000000 0.4586 0.4604 0.4622 0.4639 0.4657
3190.000000 0.4675 0.4693 0.4710 0.4728 0.4746
3185.000000 0.4762 0.4781 0.4799 0.4817 0.4835
3180.000000 0.4853 0.4871 0.4889 0.4907 0.4925
3175.000000 0.4942 0.4960 0.4978 0.4996 0.5014
3170.000000 0.5032 0.5050 0.5068 0.5086 0.5104
3165.000000 0.5122 0.5141 0.5159 0.5177 0.5195
3160.000000 0.5212 0.5231 0.5249 0.5267 0.5285
3155.000000 0.5303 0.5322 0.5340 0.5358 0.5376
3150.000000 0.5394 0.5412 0.5431 0.5449 0.5467
3145.000000 0.5485 0.5504 0.5522 0.5541 0.5559
3140.000000 0.5577 0.5596 0.5614 0.5632 0.5650
3135.000000 0.5669 0.5687 0.5705 0.5724 0.5743
3130.000000 0.5760 0.5780 0.5798 0.5817 0.5835
3125.000000 0.5854 0.5872 0.5890 0.5909 0.5927
3120.000000 0.5946 0.5964 0.5983 0.6001 0.6020
3115.000000 0.6039 0.6058 0.6077 0.6095 0.6114
3110.000000 0.6132 0.6151 0.6170 0.6188 0.6207
3105.000000 0.6226 0.6245 0.6264 0.6283 0.6301
3100.000000 0.6320 0.6339 0.6358 0.6376 0.6395
3095.000000 0.6414 0.6433 0.6451 0.6471 0.6490
3090.000000 0.6508 0.6528 0.6547 0.6565 0.6584
3085.000000 0.6603 0.6621 0.6641 0.6660 0.6680
3080.000000 0.6699 0.6718 0.6737 0.6756 0.6775
3075.000000 0.6794 0.6798 0.6803 0.6807 0.6811
3070.000000 0.6811 0.6812 0.6815 0.6815 0.6817
3065.000000 0.6818 0.6819 0.6821 0.6821 0.6821
3060.000000 0.6821 0.6821 0.6821 0.6821 0.6821
3055.000000 0.6821 0.6821 0.6821 0.6819 0.6818
3050.000000 0.6815 0.6815 0.6812 0.6810 0.6808
3045.000000 0.6805 0.6803 0.6800 0.6797 0.6793
3040.000000 0.6787 0.6781 0.6775 0.6767 0.6758
3035.000000 0.6751 0.6743 0.6717 0.6691 0.6665
3030.000000 0.6637 0.6606 0.6575 0.6545 0.6514
3025.000000 0.6483 0.6451 0.6421 0.6390 0.6359
3020.000000 0.6328 0.6297 0.6266 0.6235 0.6204
3015.000000 0.6173 0.6142 0.6110 0.6080 0.6049
3010.000000 0.6018 0.5986 0.5955 0.5924 0.5893
3005.000000 0.5862 0.5830 0.5799 0.5768 0.5736
3000.000000 0.5705 0.5673 0.5642 0.5617 0.5597
2995.000000 0.5577 0.5557 0.5558 0.5559 0.5562
2990.000000 0.5562 0.5567 0.5571 0.5575 0.5582
2985.000000 0.5591 0.5599 0.5607 0.5616 0.5624
2980.000000 0.5633 0.5651 0.5672 0.5693 0.5712
2975.000000 0.5730 0.5748 0.5765 0.5778 0.5788
2970.000000 0.5798 0.5807 0.5812 0.5818 0.5823
2965.000000 0.5828 0.5831 0.5835 0.5839 0.5842
2960.000000 0.5844 0.5847 0.5850 0.5852 0.5854
2955.000000 0.5856 0.5856 0.5855 0.5854 0.5854
2950.000000 0.5853 0.5852 0.5851 0.5849 0.5847
2945.000000 0.5845 0.5841 0.5836 0.5831 0.5824
2940.000000 0.5810 0.5796 0.5782 0.5767 0.5752
2935.000000 0.5736 0.5719 0.5701 0.5682 0.5664
2930.000000 0.5646 0.5629 0.5612 0.5598 0.5588
2925.000000 0.5579 0.5570 0.5565 0.5560 0.5557
2920.000000 0.5556 0.5556 0.5556 0.5556 0.5556
2915.000000 0.5556 0.5545 0.5559 0.5562 0.5567
2910.000000 0.5577 0.5596 0.5616 0.5635 0.5666
2905.000000 0.5697 0.5728 0.5759 0.5790 0.5821
2900.000000 0.5852 0.5883 0.5914 0.5945 0.5976
2895.000000 0.6007 0.6038 0.6069 0.6100 0.6131
2890.000000 0.6162 0.6193 0.6225 0.6256 0.6288
2885.000000 0.6319 0.6350 0.6381 0.6412 0.6444
2880.000000 0.6475 0.6507 0.6538 0.6568 0.6601
2875.000000 0.6632 0.6664 0.6695 0.6726 0.6758
2870.000000 0.6784 0.6788 0.6793 0.6797 0.6799
2865.000000 0.6801 0.6801 0.6803 0.6803 0.6803
2860.000000 0.6801 0.6801 0.6800 0.6798 0.6797
2855.000000 0.6797 0.6796 0.6794 0.6793 0.6791
2850.000000 0.6789 0.6785 0.6782 0.6778 0.6775
2845.000000 0.6771 0.6768 0.6764 0.6760 0.6755
2840.000000 0.6746 0.6737 0.6726 0.6718 0.6708
2835.000000 0.6699 0.6690 0.6680 0.6669 0.6660
2830.000000 0.6651 0.6643 0.6634 0.6632 0.6630
2825.000000 0.6628 0.6625 0.6622 0.6621 0.6626
2820.000000 0.6636 0.6594 0.6658 0.6676 0.6696
2815.000000 0.6712 0.6728 0.6744 0.6758 0.6775
2810.000000 0.6794 0.6811 0.6830 0.6848 0.6865
2805.000000 0.6883 0.6899 0.6915 0.6922 0.6928
2800.000000 0.6934 0.6937 0.6939 0.6941 0.6942
2795.000000 0.6943 0.6945 0.6946 0.6946 0.6946
2790.000000 0.6947 0.6947 0.6947 0.6948 0.6948
2785.000000 0.6948 0.6948 0.6942 0.6936 0.6930
2780.000000 0.6915 0.6899 0.6883 0.6868 0.6854
2775.000000 0.6839 0.6825 0.6810 0.6796 0.6782
2770.000000 0.6768 0.6756 0.6742 0.6728 0.6715
2765.000000 0.6701 0.6684 0.6668 0.6654 0.6644
2760.000000 0.6634 0.6625 0.6617 0.6608 0.6601
2755.000000 0.6594 0.6586 0.6578 0.6571 0.6565
2750.000000 0.6558 0.6551 0.6544 0.6537 0.6530
2745.000000 0.6522 0.6515 0.6508 0.6501 0.6495
2740.000000 0.6488 0.6481 0.6472 0.6464 0.6455
2735.000000 0.6446 0.6437 0.6428 0.6418 0.6410
2730.000000 0.6400 0.6391 0.6382 0.6373 0.6364
2725.000000 0.6355 0.6346 0.6337 0.6328 0.6318
2720.000000 0.6309 0.6301 0.6292 0.6284 0.6276
2715.000000 0.6269 0.6260 0.6254 0.6247 0.6240
2710.000000 0.6232 0.6225 0.6217 0.6210 0.6203
2705.000000 0.6196 0.6188 0.6181 0.6173 0.6166
2700.000000 0.6158 0.6151 0.6143 0.6135 0.6128
2695.000000 0.6121 0.6114 0.6106 0.6099 0.6091
2690.000000 0.6083 0.6074 0.6066 0.6055 0.6045
2685.000000 0.6035 0.6024 0.6014 0.6003 0.5993
2680.000000 0.5982 0.5972 0.5962 0.5951 0.5940
2675.000000 0.5930 0.5919 0.5908 0.5896 0.5885
2670.000000 0.5874 0.5862 0.5852 0.5841 0.5830
2665.000000 0.5818 0.5804 0.5791 0.5777 0.5762
2660.000000 0.5749 0.5735 0.5721 0.5707 0.5695
2655.000000 0.5684 0.5673 0.5662 0.5653 0.5642
2650.000000 0.5632 0.5622 0.5612 0.5602 0.5592
2645.000000 0.5582 0.5572 0.5562 0.5554 0.5547
2640.000000 0.5539 0.5536 0.5507 0.5529 0.5526
2635.000000 0.5523 0.5519 0.5516 0.5512 0.5509
2630.000000 0.5507 0.5505 0.5502 0.5500 0.5497
2625.000000 0.5495 0.5493 0.5491 0.5491 0.5490
2620.000000 0.5489 0.5488 0.5488 0.5487 0.5487
2615.000000 0.5487 0.5487 0.5487 0.5487 0.5487
2610.000000 0.5487 0.5487 0.5487 0.5487 0.5487
2605.000000 0.5487 0.5486 0.5486 0.5486 0.5486
2600.000000 0.5486 0.5486 0.5487 0.5488 0.5489
2595.000000 0.5489 0.5490 0.5491 0.5492 0.5492
2590.000000 0.5493 0.5494 0.5495 0.5497 0.5498
2585.000000 0.5500 0.5501 0.5502 0.5503 0.5505
2580.000000 0.5506 0.5508 0.5509 0.5510 0.5510
2575.000000 0.5512 0.5512 0.5514 0.5515 0.5516
2570.000000 0.5517 0.5518 0.5519 0.5520 0.5521
2565.000000 0.5521 0.5522 0.5522 0.5522 0.5520
2560.000000 0.5515 0.5556 0.5503 0.5494 0.5484
2555.000000 0.5467 0.5451 0.5434 0.5418 0.5401
2550.000000 0.5385 0.5368 0.5352 0.5336 0.5319
2545.000000 0.5305 0.5291 0.5278 0.5266 0.5255
2540.000000 0.5247 0.5242 0.5237 0.5233 0.5228
2535.000000 0.5223 0.5219 0.5214 0.5210 0.5207
2530.000000 0.5203 0.5199 0.5195 0.5192 0.5188
2525.000000 0.5184 0.5179 0.5173 0.5167 0.5160
2520.000000 0.5154 0.5144 0.5134 0.5124 0.5112
2515.000000 0.5102 0.5091 0.5080 0.5068 0.5057
2510.000000 0.5045 0.5033 0.5021 0.5009 0.4998
2505.000000 0.4986 0.4975 0.4964 0.4954 0.4944
2500.000000 0.4935 0.4925 0.4915 0.4906 0.4896
2495.000000 0.4886 0.4877 0.4867 0.4858 0.4849
2490.000000 0.4840 0.4836 0.4831 0.4827 0.4822
2485.000000 0.4817 0.4812 0.4808 0.4804 0.4801
2480.000000 0.4798 0.4797 0.4795 0.4793 0.4792
2475.000000 0.4790 0.4788 0.4787 0.4786 0.4786
2470.000000 0.4785 0.4785 0.4785 0.4786 0.4786
2465.000000 0.4789 0.4793 0.4798 0.4805 0.4812
2460.000000 0.4819 0.4825 0.4832 0.4842 0.4851
2455.000000 0.4859 0.4868 0.4877 0.4886 0.4895
2450.000000 0.4904 0.4912 0.4922 0.4930 0.4939
2445.000000 0.4948 0.4957 0.4965 0.4973 0.4980
2440.000000 0.4985 0.4991 0.4996 0.5002 0.5005
2435.000000 0.5008 0.5010 0.5012 0.5012 0.5015
2430.000000 0.5016 0.5017 0.5019 0.5021 0.5022
2425.000000 0.5023 0.5025 0.5026 0.5027 0.5028
2420.000000 0.5030 0.5031 0.5033 0.5035 0.5037
2415.000000 0.5038 0.5039 0.5041 0.5042 0.5044
2410.000000 0.5046 0.5048 0.5049 0.5050 0.5052
2405.000000 0.5054 0.5055 0.5060 0.5065 0.5071
2400.000000 0.5077 0.5083 0.5089 0.5095 0.5103
2395.000000 0.5110 0.5121 0.5132 0.5143 0.5154
2390.000000 0.5165 0.5177 0.5188 0.5199 0.5210
2385.000000 0.5222 0.5234 0.5245 0.5256 0.5268
2380.000000 0.5280 0.5292 0.5304 0.5316 0.5327
2375.000000 0.5339 0.5351 0.5362 0.5374 0.5386
2370.000000 0.5398 0.5410 0.5422 0.5434 0.5446
2365.000000 0.5459 0.5472 0.5485 0.5498 0.5510
2360.000000 0.5524 0.5537 0.5550 0.5562 0.5576
2355.000000 0.5589 0.5602 0.5615 0.5628 0.5641
2350.000000 0.5655 0.5667 0.5679 0.5691 0.5703
2345.000000 0.5715 0.5726 0.5738 0.5749 0.5760
2340.000000 0.5772 0.5783 0.5795 0.5807 0.5819
2335.000000 0.5830 0.5842 0.5853 0.5865 0.5877
2330.000000 0.5888 0.5900 0.5912 0.5923 0.5935
2325.000000 0.5946 0.5957 0.5967 0.5977 0.5986
2320.000000 0.5996 0.6006 0.6015 0.6024 0.6034
2315.000000 0.6044 0.6053 0.6062 0.6073 0.6082
2310.000000 0.6092 0.6102 0.6110 0.6121 0.6130
2305.000000 0.6140 0.6150 0.6159 0.6169 0.6179
2300.000000 0.6189 0.6198 0.6207 0.6216 0.6226
2295.000000 0.6235 0.6244 0.6254 0.6262 0.6272
2290.000000 0.6282 0.6291 0.6301 0.6310 0.6319
2285.000000 0.6328 0.6338 0.6348 0.6357 0.6367
2280.000000 0.6376 0.6386 0.6395 0.6404 0.6414
2275.000000 0.6424 0.6433 0.6443 0.6451 0.6461
2270.000000 0.6471 0.6481 0.6490 0.6499 0.6508
2265.000000 0.6518 0.6526 0.6536 0.6544 0.6553
2260.000000 0.6561 0.6571 0.6580 0.6588 0.6597
2255.000000 0.6606 0.6615 0.6625 0.6634 0.6643
2250.000000 0.6651 0.6660 0.6668 0.6678 0.6687
2245.000000 0.6696 0.6705 0.6714 0.6724 0.6733
2240.000000 0.6742 0.6750 0.6758 0.6767 0.6775
2235.000000 0.6784 0.6793 0.6801 0.6810 0.6818
2230.000000 0.6826 0.6835 0.6844 0.6851 0.6861
2225.000000 0.6869 0.6878 0.6887 0.6895 0.6904
2220.000000 0.6911 0.6918 0.6925 0.6932 0.6939
2215.000000 0.6945 0.6951 0.6958 0.6964 0.6971
2210.000000 0.6976 0.6984 0.6991 0.6997 0.7004
2205.000000 0.7010 0.7015 0.7022 0.7030 0.7037
2200.000000 0.7043 0.7049 0.7056 0.7061 0.7068
2195.000000 0.7075 0.7083 0.7089 0.7096 0.7101
2190.000000 0.7108 0.7115 0.7121 0.7128 0.7135
2185.000000 0.7142 0.7148 0.7155 0.7161 0.7168
2180.000000 0.7175 0.7182 0.7189 0.7195 0.7201
2175.000000 0.7208 0.7215 0.7221 0.7228 0.7236
2170.000000 0.7242 0.7249 0.7256 0.7262 0.7268
2165.000000 0.7276 0.7284 0.7292 0.7300 0.7308
2160.000000 0.7315 0.7322 0.7331 0.7339 0.7346
2155.000000 0.7354 0.7361 0.7369 0.7376 0.7385
2150.000000 0.7393 0.7401 0.7410 0.7417 0.7425
2145.000000 0.7433 0.7441 0.7449 0.7457 0.7465
2140.000000 0.7472 0.7480 0.7488 0.7496 0.7504
2135.000000 0.7511 0.7519 0.7528 0.7536 0.7544
2130.000000 0.7551 0.7560 0.7568 0.7575 0.7584
2125.000000 0.7592 0.7600 0.7608 0.7618 0.7625
2120.000000 0.7634 0.7643 0.7651 0.7660 0.7668
2115.000000 0.7676 0.7685 0.7694 0.7703 0.7711
2110.000000 0.7719 0.7728 0.7737 0.7746 0.7755
2105.000000 0.7762 0.7771 0.7781 0.7790 0.7798
2100.000000 0.7807 0.7815 0.7825 0.7834 0.7843
2095.000000 0.7851 0.7861 0.7868 0.7878 0.7887
2090.000000 0.7896 0.7905 0.7915 0.7924 0.7934
2085.000000 0.7945 0.7956 0.7965 0.7975 0.7987
2080.000000 0.7998 0.8008 0.8018 0.8030 0.8041
2075.000000 0.8051 0.8061 0.8071 0.8080 0.8089
2070.000000 0.8098 0.8107 0.8115 0.8124 0.8131
2065.000000 0.8138 0.8144 0.8151 0.8158 0.8165
2060.000000 0.8171 0.8178 0.8185 0.8191 0.8198
2055.000000 0.8207 0.8217 0.8225 0.8234 0.8243
2050.000000 0.8253 0.8262 0.8271 0.8280 0.8289
2045.000000 0.8298 0.8308 0.8317 0.8325 0.8336
2040.000000 0.8344 0.8352 0.8360 0.8368 0.8375
2035.000000 0.8385 0.8393 0.8401 0.8409 0.8417
2030.000000 0.8425 0.8433 0.8442 0.8450 0.8458
2025.000000 0.8466 0.8475 0.8483 0.8491 0.8500
2020.000000 0.8508 0.8516 0.8524 0.8533 0.8541
2015.000000 0.8549 0.8557 0.8565 0.8574 0.8581
2010.000000 0.8589 0.8596 0.8604 0.8611 0.8618
2005.000000 0.8625 0.8632 0.8639 0.8647 0.8654
2000.000000 0.8661 0.8668 0.8675 0.8682 0.8690
1995.000000 0.8697 0.8704 0.8711 0.8718 0.8725
1990.000000 0.8733 0.8740 0.8747 0.8755 0.8762
1985.000000 0.8768 0.8775 0.8784 0.8791 0.8798
1980.000000 0.8806 0.8813 0.8820 0.8828 0.8836
1975.000000 0.8843 0.8850 0.8858 0.8865 0.8871
1970.000000 0.8880 0.8887 0.8895 0.8903 0.8912
1965.000000 0.8920 0.8928 0.8937 0.8945 0.8954
1960.000000 0.8962 0.8971 0.8978 0.8988 0.8996
1955.000000 0.9004 0.9012 0.9021 0.9028 0.9038
1950.000000 0.9046 0.9055 0.9063 0.9071 0.9080
1945.000000 0.9088 0.9096 0.9104 0.9111 0.9118
1940.000000 0.9127 0.9135 0.9143 0.9151 0.9159
1935.000000 0.9167 0.9175 0.9183 0.9191 0.9199
1930.000000 0.9208 0.9216 0.9224 0.9231 0.9239
1925.000000 0.9248 0.9256 0.9264 0.9273 0.9282
1920.000000 0.9291 0.9299 0.9308 0.9316 0.9324
1915.000000 0.9332 0.9340 0.9349 0.9357 0.9365
1910.000000 0.9373 0.9382 0.9390 0.9398 0.9406
1905.000000 0.9414 0.9421 0.9430 0.9434 0.9436
1900.000000 0.9437 0.9438 0.9439 0.9439 0.9436
1895.000000 0.9433 0.9430 0.9427 0.9424 0.9421
1890.000000 0.9427 0.9432 0.9437 0.9441 0.9447
1885.000000 0.9452 0.9457 0.9464 0.9468 0.9475
1880.000000 0.9482 0.9487 0.9493 0.9500 0.9505
1875.000000 0.9511 0.9517 0.9523 0.9528 0.9535
1870.000000 0.9542 0.9547 0.9553 0.9559 0.9565
1865.000000 0.9570 0.9575 0.9581 0.9586 0.9591
1860.000000 0.9597 0.9602 0.9608 0.9614 0.9618
1855.000000 0.9624 0.9630 0.9636 0.9643 0.9649
1850.000000 0.9656 0.9662 0.9668 0.9674 0.9678
1845.000000 0.9683 0.9687 0.9691 0.9695 0.9699
1840.000000 0.9703 0.9707 0.9711 0.9715 0.9718
1835.000000 0.9721 0.9725 0.9728 0.9731 0.9734
1830.000000 0.9737 0.9740 0.9744 0.9747 0.9750
1825.000000 0.9750 0.9751 0.9747 0.9743 0.9737
1820.000000 0.9732 0.9725 0.9714 0.9701 0.9688
1815.000000 0.9675 0.9662 0.9651 0.9645 0.9640
1810.000000 0.9636 0.9634 0.9639 0.9645 0.9651
1805.000000 0.9657 0.9662 0.9668 0.9674 0.9680
1800.000000 0.9686 0.9696 0.9706 0.9716 0.9727
1795.000000 0.9737 0.9748 0.9758 0.9767 0.9770
1790.000000 0.9773 0.9775 0.9778 0.9782 0.9786
1785.000000 0.9789 0.9792 0.9795 0.9814 0.9801
1780.000000 0.9801 0.9799 0.9797 0.9796 0.9794
1775.000000 0.9792 0.9790 0.9787 0.9786 0.9784
1770.000000 0.9782 0.9780 0.9778 0.9770 0.9762
1765.000000 0.9754 0.9745 0.9736 0.9727 0.9718
1760.000000 0.9709 0.9698 0.9685 0.9671 0.9659
1755.000000 0.9646 0.9634 0.9621 0.9612 0.9605
1750.000000 0.9598 0.9591 0.9585 0.9577 0.9571
1745.000000 0.9564 0.9557 0.9550 0.9543 0.9536
1740.000000 0.9527 0.9517 0.9505 0.9494 0.9484
1735.000000 0.9475 0.9468 0.9462 0.9455 0.9450
1730.000000 0.9449 0.9449 0.9448 0.9446 0.9445
1725.000000 0.9444 0.9443 0.9443 0.9443 0.9443
1720.000000 0.9444 0.9445 0.9447 0.9452 0.9456
1715.000000 0.9460 0.9463 0.9462 0.9454 0.9432
1710.000000 0.9389 0.9346 0.9304 0.9263 0.9221
1705.000000 0.9178 0.9136 0.9092 0.9047 0.9002
1700.000000 0.8957 0.8916 0.8877 0.8839 0.8801
1695.000000 0.8764 0.8725 0.8688 0.8650 0.8613
1690.000000 0.8578 0.8542 0.8508 0.8480 0.8452
1685.000000 0.8424 0.8404 0.8390 0.8381 0.8378
1680.000000 0.8377 0.8375 0.8375 0.8375 0.8375
1675.000000 0.8375 0.8375 0.8375 0.8375 0.8373
1670.000000 0.8365 0.8342 0.8318 0.8289 0.8258
1665.000000 0.8227 0.8195 0.8161 0.8128 0.8092
1660.000000 0.8054 0.7958 0.7689 0.7521 0.7383
1655.000000 0.7247 0.7131 0.7042 0.6962 0.6886
1650.000000 0.6817 0.6761 0.6704 0.6642 0.6575
1645.000000 0.6481 0.6257 0.5989 0.5720 0.5451
1640.000000 0.5181 0.4912 0.4692 0.4629 0.4624
1635.000000 0.4621 0.4618 0.4614 0.4620 0.4767
1630.000000 0.4939 0.5110 0.5283 0.5454 0.5627
1625.000000 0.5800 0.5972 0.6145 0.6318 0.6491
1620.000000 0.6665 0.6818 0.6862 0.6867 0.6874
1615.000000 0.6805 0.6542 0.6276 0.6010 0.5743
1610.000000 0.5487 0.5428 0.5423 0.5433 0.5409
1605.000000 0.5934 0.6230 0.6525 0.6822 0.7118
1600.000000 0.7375 0.7526 0.7611 0.7698 0.7789
1595.000000 0.7886 0.7972 0.8042 0.8101 0.8161
1590.000000 0.8220 0.8287 0.8371 0.8451 0.8513
1585.000000 0.8555 0.8596 0.8638 0.8683 0.8739
1580.000000 0.8802 0.8856 0.8886 0.8914 0.8934
1575.000000 0.8950 0.8965 0.8982 0.8997 0.9013
1570.000000 0.9027 0.9042 0.9056 0.9068 0.9082
1565.000000 0.9093 0.9105 0.9115 0.9125 0.9133
1560.000000 0.9141 0.9149 0.9156 0.9144 0.9168
1555.000000 0.9168 0.9170 0.9164 0.9158 0.9150
1550.000000 0.9139 0.9125 0.9114 0.9101 0.9089
1545.000000 0.9075 0.9061 0.9037 0.9014 0.8990
1540.000000 0.8959 0.8912 0.8859 0.8794 0.8647
1535.000000 0.8285 0.8025 0.7858 0.7637 0.7418
1530.000000 0.7240 0.7061 0.6833 0.6605 0.6464
1525.000000 0.6322 0.6182 0.6056 0.5923 0.5706
1520.000000 0.5444 0.5182 0.4921 0.4658 0.4396
1515.000000 0.4133 0.3868 0.3606 0.3342 0.3077
1510.000000 0.2813 0.2548 0.2282 0.2017 0.1963
1505.000000 0.1945 0.1949 0.1934 0.1943 0.2037
1500.000000 0.2301 0.2620 0.2940 0.3259 0.3582
1495.000000 0.3903 0.4225 0.4547 0.4870 0.5193
1490.000000 0.5516 0.5597 0.5606 0.5602 0.5612
1485.000000 0.5579 0.5499 0.5416 0.5333 0.5250
1480.000000 0.5167 0.5083 0.5000 0.4930 0.4895
1475.000000 0.4790 0.4602 0.4407 0.4212 0.4018
1470.000000 0.3824 0.3689 0.3671 0.3674 0.3723
1465.000000 0.3779 0.3836 0.3894 0.3950 0.4000
1460.000000 0.3993 0.3830 0.3466 0.3104 0.2738
1455.000000 0.2372 0.2007 0.1704 0.1599 0.1575
1450.000000 0.1575 0.1577 0.1592 0.1632 0.1679
1445.000000 0.1877 0.2087 0.2297 0.2508 0.2719
1440.000000 0.2930 0.3142 0.3353 0.3566 0.3778
1435.000000 0.3988 0.4162 0.4360 0.4607 0.4842
1430.000000 0.5078 0.5314 0.5550 0.5786 0.6024
1425.000000 0.6237 0.6342 0.6381 0.6417 0.6454
1420.000000 0.6518 0.6661 0.6834 0.7006 0.7178
1415.000000 0.7350 0.7519 0.7618 0.7686 0.7742
1410.000000 0.7795 0.7845 0.7887 0.7924 0.7961
1405.000000 0.7999 0.8035 0.8071 0.8106 0.8140
1400.000000 0.8165 0.8183 0.8200 0.8210 0.8218
1395.000000 0.8223 0.8204 0.8233 0.8234 0.8234
1390.000000 0.8225 0.8203 0.8174 0.8119 0.8082
1385.000000 0.8065 0.8065 0.8068 0.8071 0.8075
1380.000000 0.8075 0.8065 0.8037 0.7911 0.7730
1375.000000 0.7568 0.7408 0.7246 0.7084 0.6922
1370.000000 0.6761 0.6599 0.6436 0.6273 0.6121
1365.000000 0.6055 0.6072 0.6210 0.6367 0.6521
1360.000000 0.6678 0.6835 0.6992 0.7148 0.7305
1355.000000 0.7462 0.7619 0.7815 0.7843 0.7844
1350.000000 0.7844 0.7844 0.7835 0.7825 0.7815
1345.000000 0.7801 0.7785 0.7765 0.7739 0.7685
1340.000000 0.7578 0.7341 0.7014 0.6789 0.6565
1335.000000 0.6340 0.6125 0.6012 0.5899 0.5756
1330.000000 0.5612 0.5501 0.5395 0.5299 0.5210
1325.000000 0.5124 0.5035 0.4943 0.4847 0.4750
1320.000000 0.4671 0.4615 0.4604 0.4581 0.4647
1315.000000 0.4830 0.5034 0.5239 0.5444 0.5649
1310.000000 0.5854 0.6060 0.6266 0.6471 0.6678
1305.000000 0.6885 0.7093 0.7300 0.7501 0.7633
1300.000000 0.7618 0.7625 0.7625 0.7617 0.7583
1295.000000 0.7400 0.7025 0.6648 0.6269 0.5890
1290.000000 0.5510 0.5139 0.4979 0.4925 0.4875
1285.000000 0.4825 0.4747 0.4397 0.3966 0.3534
1280.000000 0.3102 0.2668 0.2234 0.1800 0.1426
1275.000000 0.1377 0.1377 0.1376 0.1563 0.1934
1270.000000 0.2308 0.2681 0.3055 0.3430 0.3805
1265.000000 0.4181 0.4394 0.4427 0.4456 0.4524
1260.000000 0.4678 0.4839 0.5001 0.5162 0.5325
1255.000000 0.5412 0.5424 0.5429 0.5362 0.5248
1250.000000 0.5133 0.5120 0.5128 0.5158 0.5238
1245.000000 0.5331 0.5451 0.5559 0.5633 0.5707
1240.000000 0.5837 0.6044 0.6284 0.6525 0.6765
1235.000000 0.7008 0.7250 0.7271 0.7276 0.7278
1230.000000 0.7278 0.7219 0.7074 0.6928 0.6782
1225.000000 0.6635 0.6492 0.6449 0.6449 0.6448
1220.000000 0.6569 0.6728 0.6886 0.7035 0.7051
1215.000000 0.7051 0.7051 0.6798 0.6537 0.6276
1210.000000 0.6014 0.5752 0.5489 0.5226 0.4998
1205.000000 0.4988 0.5079 0.5306 0.5533 0.5727
1200.000000 0.5770 0.5773 0.5547 0.5262 0.4975
1195.000000 0.4687 0.4400 0.4112 0.3823 0.3494
1190.000000 0.3462 0.3488 0.3736 0.4036 0.4337
1185.000000 0.4638 0.4939 0.5240 0.5541 0.5700
1180.000000 0.5730 0.5747 0.5743 0.5743 0.5716
1175.000000 0.5652 0.5446 0.5214 0.4981 0.4748
1170.000000 0.4514 0.4280 0.4046 0.3810 0.3576
1165.000000 0.3340 0.3104 0.2867 0.2630 0.2393
1160.000000 0.2155 0.1918 0.1820 0.1828 0.1870
1155.000000 0.1936 0.2010 0.2078 0.2117 0.2135
1150.000000 0.2142 0.2139 0.2107 0.2026 0.1902
1145.000000 0.1767 0.1639 0.1534 0.1442 0.1416
1140.000000 0.1411 0.1408 0.1398 0.1385 0.1373
1135.000000 0.1358 0.1334 0.1288 0.1240 0.1200
1130.000000 0.1163 0.1129 0.1103 0.1082 0.1063
1125.000000 0.1032 0.1038 0.1046 0.1102 0.1171
1120.000000 0.1287 0.1422 0.1557 0.1692 0.1827
1115.000000 0.1963 0.2099 0.2234 0.2371 0.2509
1110.000000 0.2645 0.2779 0.2845 0.2884 0.2917
1105.000000 0.2934 0.2935 0.2946 0.2929 0.2865
1100.000000 0.2676 0.2517 0.2359 0.2200 0.2040
1095.000000 0.1881 0.1719 0.1576 0.1462 0.1357
1090.000000 0.1270 0.1202 0.1164 0.1141 0.1118
1085.000000 0.1095 0.1071 0.1046 0.1024 0.0999
1080.000000 0.0974 0.0946 0.0921 0.0899 0.0878
1075.000000 0.0864 0.0887 0.0911 0.0936 0.0989
1070.000000 0.1050 0.1110 0.1172 0.1235 0.1292
1065.000000 0.1344 0.1394 0.1440 0.1486 0.1513
1060.000000 0.1535 0.1582 0.1569 0.1579 0.1580
1055.000000 0.1568 0.1553 0.1479 0.1324 0.1192
1050.000000 0.1084 0.0975 0.0867 0.0784 0.0758
1045.000000 0.0755 0.0761 0.0800 0.0846 0.0910
1040.000000 0.0976 0.1042 0.1156 0.1303 0.1432
1035.000000 0.1458 0.1486 0.1466 0.1469 0.1469
1030.000000 0.1468 0.1467 0.1466 0.1465 0.1470
1025.000000 0.1478 0.1529 0.1585 0.1671 0.1774
1020.000000 0.1885 0.2012 0.2142 0.2330 0.2516
1015.000000 0.2663 0.2805 0.2934 0.3058 0.3181
1010.000000 0.3320 0.3455 0.3556 0.3655 0.3768
1005.000000 0.3814 0.3820 0.3822 0.3825 0.3928
1000.000000 0.4038 0.4147 0.4256 0.4382 0.4508
995.000000 0.4637 0.4780 0.4923 0.5044 0.5162
990.000000 0.5252 0.5336 0.5419 0.5498 0.5551
985.000000 0.5588 0.5577 0.5595 0.5588 0.5414
980.000000 0.5196 0.5148 0.5105 0.5081 0.5062
975.000000 0.5049 0.5026 0.4942 0.4607 0.4227
970.000000 0.3847 0.3720 0.3718 0.3818 0.4075
965.000000 0.4330 0.4587 0.4845 0.5102 0.5360
960.000000 0.5619 0.5878 0.6003 0.6078 0.6138
955.000000 0.6183 0.6214 0.6235 0.6250 0.6226
950.000000 0.6193 0.6105 0.5851 0.5401 0.4950
945.000000 0.4499 0.4046 0.3606 0.3557 0.3616
940.000000 0.3923 0.4239 0.4556 0.4872 0.5191
935.000000 0.5509 0.5619 0.5632 0.5307 0.4746
930.000000 0.4202 0.4115 0.4116 0.4251 0.4562
925.000000 0.4873 0.5185 0.5497 0.5750 0.5788
920.000000 0.5803 0.5721 0.5200 0.4799 0.4765
915.000000 0.4794 0.4975 0.5253 0.5532 0.5812
910.000000 0.6086 0.6223 0.6279 0.6296 0.6305
905.000000 0.6411 0.6572 0.6715 0.6867 0.7037
900.000000 0.7189 0.7318 0.7424 0.7511 0.7594
895.000000 0.7650 0.7701 0.7751 0.7801 0.7849
890.000000 0.7885 0.7915 0.7938 0.7948 0.7957
885.000000 0.7938 0.7864 0.7651 0.7434 0.7397
880.000000 0.7387 0.7395 0.7445 0.7501 0.7494
875.000000 0.7236 0.6865 0.6492 0.6119 0.5745
870.000000 0.5481 0.5466 0.5649 0.6312 0.6946
865.000000 0.7180 0.7434 0.7614 0.7757 0.7858
860.000000 0.7942 0.8014 0.8078 0.8122 0.8165
855.000000 0.8204 0.8231 0.8252 0.8293 0.8266
850.000000 0.8258 0.8228 0.8121 0.7856 0.7406
845.000000 0.6845 0.6282 0.5717 0.5151 0.4862
840.000000 0.4877 0.4953 0.5348 0.5756 0.6165
835.000000 0.6574 0.6782 0.6993 0.7228 0.7421
830.000000 0.7584 0.7732 0.7875 0.7981 0.8078
825.000000 0.8160 0.8221 0.8271 0.8299 0.8325
820.000000 0.8349 0.8388 0.8390 0.8397 0.8394
815.000000 0.8380 0.8336 0.8267 0.8161 0.8051
810.000000 0.7936 0.7874 0.7838 0.7819 0.7796
805.000000 0.7755 0.7654 0.7540 0.7410 0.7254
800.000000 0.7033 0.6806 0.6553 0.6210 0.5809
795.000000 0.5249 0.4691 0.4131 0.3568 0.3006
790.000000 0.2378 0.2417 0.2419 0.2700 0.3185
785.000000 0.3740 0.4296 0.4853 0.5410 0.5906
780.000000 0.6186 0.6159 0.6182 0.5964 0.5591
775.000000 0.5217 0.4972 0.5044 0.5124 0.5628
770.000000 0.6201 0.6767 0.7055 0.7248 0.7393
765.000000 0.7521 0.7651 0.7733 0.7756 0.7769
760.000000 0.7753 0.7675 0.7528 0.6826 0.6171
755.000000 0.5514 0.4854 0.4055 0.4088 0.4427
750.000000 0.4984 0.5538 0.6049 0.6372 0.6647
745.000000 0.6864 0.7032 0.7151 0.7230 0.7306
740.000000 0.7362 0.7411 0.7442 0.7472 0.7486
735.000000 0.7486 0.7486 0.7486 0.7485 0.7469
730.000000 0.7447 0.7418 0.7376 0.7330 0.7271
725.000000 0.7210 0.7119 0.7024 0.6914 0.6778
720.000000 0.6601 0.6312 0.5983 0.5510 0.5224
715.000000 0.5005 0.5062 0.5158 0.5578 0.5912
710.000000 0.6094 0.6212 0.6280 0.6310 0.6379
705.000000 0.6339 0.6334 0.6282 0.6171 0.6015
700.000000 0.5725 0.5447 0.5168 0.4888 0.4645
695.000000 0.4637 0.4698 0.4836 0.4994 0.5110
690.000000 0.5219 0.5306 0.5366 0.5415 0.5442
685.000000 0.5481 0.5479 0.5465 0.5405 0.5322
680.000000 0.5225 0.5129 0.5037 0.4951 0.4859
675.000000 0.4860 0.4860 0.4879 0.4910 0.4942
670.000000 0.4964 0.4968 0.4969 0.5002 0.5033
665.000000 0.5053 0.5053 0.5054 0.5047 0.5018
660.000000 0.4987 0.4949 0.4905 0.4843 0.4771
655.000000 0.4695 0.4620 0.4565 0.4509 0.4445
##END=
