##TITLE=PHOSPHORIC ACID, ISOAMYL-ISOOCTYL ESTER
##JCAMP-DX=4.24
##DATA TYPE=INFRARED SPECTRUM
##CLASS=COBLENTZ
##ORIGIN=STANDARD OIL OF OHIO
##OWNER=COBLENTZ SOCIETY
Collection (C) 2018 copyright by the U.S. Secretary of Commerce
on behalf of the United States of America. All rights reserved.
##DATE=Not specified, most likely prior to 1970
##NAMES=isopentyl 6-methylheptyl hydrogen phosphate
##MOLFORM=C13 H29 O4 P
##SOURCE REFERENCE=COBLENTZ NO. 2065
##$NIST ID=B6002065
##$NIST SOURCE=COBLENTZ
##$NIST IMAGE=cob2065
##SPECTROMETER/DATA SYSTEM=PERKIN-ELMER
##STATE=LIQUID
##PATH LENGTH=0.0024 CM
##SAMPLING PROCEDURE=TRANSMISSION
##RESOLUTION=4
##DATA PROCESSING=DIGITIZED BY NIST FROM HARD COPY
##XUNITS=MICROMETERS
##YUNITS=TRANSMITTANCE
##XFACTOR=1.000000
##YFACTOR=1
##DELTAX=000.006764
##FIRSTX=2.02
##LASTX=15.3991
##FIRSTY=0.974
##MAXX=15.3991
##MINX=2.02
##MAXY=0.974
##MINY=0.003
##NPOINTS=1979
##XYDATA=(X++(Y..Y))
2.020000 0.9740 0.9740 0.9740 0.9740 0.9740
2.053836 0.9740 0.9740 0.9740 0.9740 0.9740
2.088000 0.9740 0.9740 0.9720 0.9720 0.9720
2.121836 0.9720 0.9720 0.9720 0.9720 0.9720
2.156000 0.9720 0.9720 0.9720 0.9720 0.9720
2.189836 0.9710 0.9710 0.9690 0.9690 0.9690
2.223000 0.9670 0.9670 0.9660 0.9640 0.9600
2.256836 0.9570 0.9540 0.9500 0.9470 0.9420
2.291000 0.9370 0.9330 0.9320 0.9300 0.9280
2.324836 0.9280 0.9280 0.9280 0.9280 0.9280
2.358000 0.9280 0.9300 0.9320 0.9330 0.9350
2.391836 0.9350 0.9370 0.9370 0.9370 0.9350
2.426000 0.9350 0.9350 0.9350 0.9330 0.9330
2.459836 0.9320 0.9320 0.9320 0.9320 0.9320
2.494000 0.9320 0.9330 0.9330 0.9350 0.9350
2.527836 0.9350 0.9370 0.9370 0.9370 0.9380
2.561000 0.9380 0.9380 0.9380 0.9380 0.9380
2.594836 0.9380 0.9380 0.9380 0.9380 0.9370
2.629000 0.9370 0.9370 0.9370 0.9370 0.9370
2.662836 0.9370 0.9370 0.9370 0.9370 0.9370
2.697000 0.9350 0.9330 0.9330 0.9320 0.9300
2.730836 0.9280 0.9260 0.9230 0.9200 0.9160
2.764000 0.9150 0.9110 0.9080 0.9030 0.9010
2.797836 0.8990 0.8980 0.8930 0.8870 0.8820
2.832000 0.8770 0.8700 0.8650 0.8590 0.8520
2.865836 0.8470 0.8400 0.8330 0.8280 0.8210
2.900000 0.8130 0.8030 0.7990 0.7920 0.7840
2.933836 0.7750 0.7670 0.7550 0.7500 0.7410
2.967000 0.7330 0.7240 0.7140 0.7060 0.7010
3.000836 0.6920 0.6820 0.6750 0.6670 0.6550
3.035000 0.6480 0.6380 0.6260 0.6140 0.6020
3.068836 0.5940 0.5850 0.5750 0.5630 0.5530
3.102000 0.5410 0.5310 0.5170 0.5050 0.5000
3.135836 0.4900 0.4820 0.4750 0.4680 0.4610
3.170000 0.4530 0.4430 0.4340 0.4260 0.4150
3.203836 0.4070 0.4000 0.3920 0.3870 0.3800
3.238000 0.3710 0.3650 0.3560 0.3480 0.3390
3.271836 0.3310 0.3190 0.3050 0.3020 0.2970
3.305000 0.2750 0.2490 0.2290 0.2050 0.1690
3.338836 0.1350 0.1030 0.0830 0.0620 0.0450
3.373000 0.0320 0.0250 0.0230 0.0220 0.0220
3.406836 0.0220 0.0220 0.0250 0.0280 0.0330
3.441000 0.0390 0.0490 0.0560 0.0610 0.0640
3.474836 0.0690 0.0760 0.0880 0.1050 0.1220
3.508000 0.1370 0.1570 0.1740 0.1850 0.1980
3.541836 0.2030 0.2130 0.2190 0.2220 0.2250
3.576000 0.2270 0.2290 0.2300 0.2300 0.2320
3.609836 0.2320 0.2340 0.2350 0.2340 0.2350
3.644000 0.2350 0.2350 0.2370 0.2390 0.2410
3.677836 0.2420 0.2440 0.2460 0.2460 0.2470
3.711000 0.2490 0.2510 0.2520 0.2540 0.2560
3.744836 0.2590 0.2630 0.2640 0.2660 0.2680
3.779000 0.2690 0.2710 0.2750 0.2760 0.2780
3.812836 0.2800 0.2810 0.2830 0.2860 0.2880
3.847000 0.2920 0.2970 0.3000 0.3000 0.3020
3.880836 0.3080 0.3120 0.3150 0.3170 0.3220
3.914000 0.3240 0.3290 0.3320 0.3360 0.3390
3.947836 0.3420 0.3490 0.3490 0.3510 0.3540
3.982000 0.3580 0.3590 0.3630 0.3650 0.3660
4.015836 0.3680 0.3710 0.3730 0.3750 0.3750
4.049000 0.3750 0.3750 0.3760 0.3760 0.3760
4.082836 0.3750 0.3750 0.3750 0.3750 0.3750
4.117000 0.3730 0.3730 0.3710 0.3710 0.3680
4.150836 0.3660 0.3650 0.3630 0.3610 0.3590
4.185000 0.3580 0.3560 0.3540 0.3530 0.3530
4.218836 0.3510 0.3510 0.3510 0.3510 0.3490
4.252000 0.3490 0.3460 0.3440 0.3410 0.3390
4.285836 0.3370 0.3360 0.3340 0.3310 0.3290
4.320000 0.3250 0.3240 0.3220 0.3220 0.3220
4.353836 0.3220 0.3220 0.3220 0.3240 0.3250
4.388000 0.3270 0.3290 0.3290 0.3320 0.3340
4.421836 0.3360 0.3390 0.3410 0.3460 0.3480
4.455000 0.3490 0.3510 0.3530 0.3540 0.3540
4.488836 0.3560 0.3580 0.3590 0.3610 0.3630
4.523000 0.3650 0.3650 0.3660 0.3680 0.3680
4.556836 0.3680 0.3700 0.3710 0.3710 0.3730
4.591000 0.3730 0.3750 0.3760 0.3780 0.3800
4.624836 0.3820 0.3830 0.3850 0.3880 0.3920
4.658000 0.3970 0.3980 0.4000 0.4020 0.4050
4.691836 0.4070 0.4090 0.4140 0.4150 0.4190
4.726000 0.4210 0.4240 0.4260 0.4290 0.4310
4.759836 0.4340 0.4360 0.4390 0.4410 0.4440
4.793000 0.4490 0.4490 0.4510 0.4550 0.4560
4.826836 0.4600 0.4610 0.4650 0.4660 0.4680
4.861000 0.4710 0.4730 0.4770 0.4780 0.4800
4.894836 0.4830 0.4850 0.4880 0.4900 0.4940
4.929000 0.4990 0.5000 0.5020 0.5020 0.5050
4.962836 0.5090 0.5110 0.5120 0.5140 0.5160
4.996000 0.5170 0.5190 0.5210 0.5220 0.5260
5.029836 0.5280 0.5290 0.5310 0.5310 0.5330
5.064000 0.5340 0.5360 0.5380 0.5390 0.5390
5.097836 0.5410 0.5410 0.5430 0.5430 0.5440
5.132000 0.5440 0.5460 0.5460 0.5460 0.5480
5.165836 0.5480 0.5480 0.5500 0.5500 0.5500
5.199000 0.5510 0.5510 0.5510 0.5510 0.5510
5.232836 0.5510 0.5510 0.5510 0.5500 0.5500
5.267000 0.5500 0.5500 0.5500 0.5500 0.5480
5.300836 0.5480 0.5460 0.5460 0.5460 0.5440
5.335000 0.5440 0.5430 0.5430 0.5410 0.5390
5.368836 0.5390 0.5380 0.5360 0.5360 0.5340
5.402000 0.5330 0.5330 0.5310 0.5290 0.5290
5.435836 0.5280 0.5260 0.5240 0.5220 0.5210
5.470000 0.5210 0.5190 0.5170 0.5160 0.5120
5.503836 0.5110 0.5110 0.5090 0.5070 0.5040
5.537000 0.5020 0.5000 0.4970 0.4950 0.4950
5.570836 0.4940 0.4900 0.4900 0.4870 0.4850
5.605000 0.4820 0.4780 0.4770 0.4730 0.4700
5.638836 0.4680 0.4660 0.4650 0.4610 0.4600
5.673000 0.4580 0.4560 0.4530 0.4510 0.4510
5.706836 0.4480 0.4460 0.4410 0.4390 0.4360
5.740000 0.4340 0.4320 0.4310 0.4270 0.4260
5.773836 0.4220 0.4210 0.4170 0.4150 0.4140
5.808000 0.4100 0.4090 0.4070 0.4050 0.4040
5.841836 0.4020 0.4000 0.4000 0.3980 0.3970
5.876000 0.3930 0.3920 0.3920 0.3900 0.3900
5.909836 0.3880 0.3880 0.3870 0.3870 0.3850
5.943000 0.3850 0.3830 0.3830 0.3830 0.3820
5.976836 0.3820 0.3820 0.3820 0.3820 0.3820
6.011000 0.3820 0.3820 0.3820 0.3820 0.3820
6.044836 0.3830 0.3830 0.3830 0.3850 0.3850
6.079000 0.3870 0.3870 0.3880 0.3900 0.3900
6.112836 0.3920 0.3930 0.3930 0.3970 0.4000
6.146000 0.4000 0.4000 0.4020 0.4040 0.4050
6.179836 0.4070 0.4090 0.4100 0.4120 0.4140
6.214000 0.4150 0.4170 0.4190 0.4190 0.4210
6.247836 0.4220 0.4240 0.4270 0.4310 0.4320
6.281000 0.4340 0.4340 0.4360 0.4380 0.4390
6.314836 0.4410 0.4430 0.4440 0.4460 0.4480
6.349000 0.4490 0.4510 0.4530 0.4550 0.4550
6.382836 0.4560 0.4580 0.4600 0.4610 0.4630
6.417000 0.4650 0.4660 0.4680 0.4700 0.4730
6.450836 0.4750 0.4770 0.4780 0.4820 0.4830
6.484000 0.4850 0.4870 0.4900 0.4920 0.4940
6.517836 0.4950 0.4970 0.4990 0.5000 0.5020
6.552000 0.5040 0.5040 0.5070 0.5070 0.5090
6.585836 0.5110 0.5120 0.5120 0.5140 0.5160
6.620000 0.5160 0.5170 0.5170 0.5190 0.5190
6.653836 0.5170 0.5170 0.5160 0.5140 0.5120
6.687000 0.5090 0.5040 0.5000 0.4920 0.4820
6.720836 0.4680 0.4530 0.4360 0.4140 0.4020
6.755000 0.3760 0.3340 0.3100 0.3030 0.2930
6.788836 0.2690 0.2440 0.2130 0.2080 0.2050
6.823000 0.2050 0.2080 0.2120 0.2240 0.2350
6.856836 0.2510 0.2950 0.3220 0.3420 0.3590
6.890000 0.3780 0.4050 0.4290 0.4460 0.4580
6.923836 0.4680 0.4750 0.4820 0.4870 0.4920
6.958000 0.4990 0.5000 0.5020 0.5050 0.5090
6.991836 0.5120 0.5170 0.5280 0.5380 0.5480
7.025000 0.5550 0.5630 0.5700 0.5730 0.5770
7.058836 0.5780 0.5800 0.5840 0.5840 0.5840
7.093000 0.5800 0.5780 0.5770 0.5730 0.5580
7.126836 0.5430 0.5240 0.5120 0.5040 0.4990
7.161000 0.4880 0.4800 0.4710 0.4580 0.4460
7.194836 0.4320 0.4190 0.4070 0.4000 0.4000
7.228000 0.4000 0.4000 0.4000 0.4070 0.4120
7.261836 0.4210 0.4340 0.4380 0.4360 0.4310
7.296000 0.4270 0.4270 0.4290 0.4360 0.4560
7.329836 0.4850 0.5050 0.5330 0.5500 0.5630
7.364000 0.5730 0.5800 0.5850 0.5890 0.5920
7.397836 0.5940 0.5970 0.5990 0.5990 0.6010
7.431000 0.6010 0.6010 0.6020 0.6020 0.6040
7.464836 0.6040 0.6060 0.6070 0.6070 0.6070
7.499000 0.6070 0.6090 0.6090 0.6090 0.6090
7.532836 0.6090 0.6090 0.6070 0.6060 0.6020
7.567000 0.5970 0.5950 0.5940 0.5890 0.5850
7.600836 0.5770 0.5720 0.5670 0.5600 0.5560
7.634000 0.5510 0.5480 0.5390 0.5340 0.5310
7.667836 0.5260 0.5220 0.5190 0.5160 0.5120
7.702000 0.5090 0.5040 0.5000 0.4990 0.4900
7.735836 0.4850 0.4800 0.4710 0.4630 0.4510
7.770000 0.4480 0.4390 0.4310 0.4220 0.4120
7.803836 0.4000 0.3870 0.3750 0.3560 0.3480
7.837000 0.3370 0.3290 0.3190 0.3100 0.3020
7.870836 0.2970 0.2860 0.2800 0.2710 0.2630
7.905000 0.2540 0.2490 0.2410 0.2340 0.2240
7.938836 0.2130 0.2000 0.1930 0.1850 0.1780
7.972000 0.1730 0.1680 0.1620 0.1590 0.1540
8.005836 0.1470 0.1400 0.1370 0.1340 0.1300
8.040000 0.1270 0.1220 0.1180 0.1150 0.1120
8.073836 0.1050 0.1030 0.1010 0.0950 0.0910
8.108000 0.0860 0.0810 0.0760 0.0730 0.0690
8.141836 0.0660 0.0640 0.0610 0.0590 0.0570
8.175000 0.0560 0.0540 0.0540 0.0520 0.0520
8.208836 0.0500 0.0500 0.0500 0.0500 0.0490
8.243000 0.0490 0.0490 0.0490 0.0490 0.0500
8.276836 0.0520 0.0520 0.0520 0.0540 0.0540
8.311000 0.0560 0.0560 0.0590 0.0610 0.0620
8.344836 0.0640 0.0660 0.0670 0.0690 0.0710
8.378000 0.0730 0.0740 0.0760 0.0780 0.0780
8.411836 0.0790 0.0810 0.0830 0.0840 0.0840
8.446000 0.0860 0.0880 0.0890 0.0910 0.0930
8.479836 0.0930 0.0960 0.0980 0.0980 0.1000
8.514000 0.1000 0.1000 0.1010 0.1010 0.1010
8.547836 0.1030 0.1030 0.1050 0.1050 0.1060
8.581000 0.1060 0.1060 0.1080 0.1080 0.1080
8.614836 0.1080 0.1100 0.1120 0.1120 0.1120
8.649000 0.1130 0.1150 0.1170 0.1180 0.1180
8.682836 0.1200 0.1200 0.1200 0.1220 0.1220
8.716000 0.1220 0.1220 0.1220 0.1220 0.1220
8.749836 0.1230 0.1250 0.1250 0.1270 0.1270
8.784000 0.1290 0.1300 0.1320 0.1340 0.1340
8.817836 0.1350 0.1370 0.1370 0.1370 0.1370
8.852000 0.1390 0.1390 0.1390 0.1400 0.1420
8.885836 0.1420 0.1420 0.1440 0.1470 0.1490
8.919000 0.1490 0.1510 0.1510 0.1520 0.1520
8.952836 0.1520 0.1520 0.1520 0.1540 0.1540
8.987000 0.1570 0.1570 0.1590 0.1590 0.1610
9.020836 0.1610 0.1590 0.1590 0.1590 0.1590
9.055000 0.1590 0.1570 0.1540 0.1520 0.1520
9.088836 0.1510 0.1470 0.1470 0.1460 0.1420
9.122000 0.1400 0.1390 0.1350 0.1320 0.1290
9.155836 0.1230 0.1170 0.1130 0.1100 0.1080
9.190000 0.1030 0.1010 0.0980 0.0840 0.0690
9.223836 0.0610 0.0540 0.0490 0.0470 0.0400
9.258000 0.0320 0.0250 0.0230 0.0200 0.0180
9.291836 0.0150 0.0110 0.0100 0.0060 0.0060
9.325000 0.0050 0.0050 0.0030 0.0030 0.0030
9.358836 0.0030 0.0030 0.0030 0.0030 0.0030
9.393000 0.0030 0.0030 0.0030 0.0030 0.0030
9.426836 0.0030 0.0030 0.0030 0.0030 0.0030
9.460000 0.0030 0.0030 0.0030 0.0030 0.0030
9.493836 0.0030 0.0030 0.0030 0.0030 0.0030
9.528000 0.0030 0.0030 0.0030 0.0030 0.0030
9.561836 0.0030 0.0030 0.0030 0.0030 0.0030
9.596000 0.0030 0.0030 0.0030 0.0030 0.0030
9.629836 0.0030 0.0030 0.0030 0.0030 0.0030
9.663000 0.0030 0.0030 0.0030 0.0030 0.0030
9.696836 0.0030 0.0030 0.0030 0.0030 0.0030
9.731000 0.0030 0.0030 0.0030 0.0030 0.0030
9.764836 0.0030 0.0030 0.0030 0.0030 0.0030
9.799000 0.0030 0.0030 0.0030 0.0030 0.0030
9.832836 0.0030 0.0030 0.0030 0.0030 0.0030
9.866000 0.0030 0.0030 0.0030 0.0030 0.0030
9.899836 0.0030 0.0030 0.0030 0.0030 0.0030
9.934000 0.0030 0.0030 0.0030 0.0030 0.0030
9.967836 0.0030 0.0030 0.0030 0.0050 0.0050
10.002000 0.0050 0.0050 0.0050 0.0050 0.0050
10.035836 0.0060 0.0060 0.0080 0.0080 0.0080
10.069000 0.0100 0.0100 0.0100 0.0110 0.0130
10.102836 0.0130 0.0150 0.0160 0.0160 0.0160
10.137000 0.0180 0.0180 0.0200 0.0220 0.0220
10.170836 0.0230 0.0250 0.0250 0.0270 0.0280
10.204000 0.0300 0.0320 0.0330 0.0350 0.0390
10.237836 0.0420 0.0440 0.0450 0.0500 0.0520
10.272000 0.0540 0.0560 0.0570 0.0610 0.0620
10.305836 0.0640 0.0660 0.0690 0.0710 0.0730
10.340000 0.0740 0.0780 0.0790 0.0810 0.0830
10.373836 0.0840 0.0860 0.0880 0.0890 0.0930
10.407000 0.1000 0.1010 0.1010 0.1030 0.1050
10.440836 0.1100 0.1120 0.1150 0.1180 0.1220
10.475000 0.1250 0.1290 0.1300 0.1320 0.1340
10.508836 0.1350 0.1370 0.1390 0.1400 0.1420
10.543000 0.1440 0.1470 0.1490 0.1510 0.1540
10.576836 0.1570 0.1610 0.1660 0.1690 0.1730
10.610000 0.1760 0.1790 0.1850 0.1880 0.1930
10.643836 0.2020 0.2030 0.2080 0.2130 0.2190
10.678000 0.2220 0.2250 0.2290 0.2320 0.2350
10.711836 0.2390 0.2420 0.2460 0.2490 0.2510
10.746000 0.2510 0.2520 0.2540 0.2560 0.2580
10.779836 0.2590 0.2630 0.2630 0.2640 0.2640
10.813000 0.2640 0.2660 0.2660 0.2680 0.2680
10.846836 0.2690 0.2710 0.2710 0.2730 0.2750
10.881000 0.2750 0.2760 0.2780 0.2800 0.2810
10.914836 0.2830 0.2850 0.2850 0.2860 0.2880
10.948000 0.2900 0.2920 0.2930 0.2950 0.2970
10.981836 0.2970 0.3000 0.3000 0.3020 0.3030
11.016000 0.3030 0.3050 0.3070 0.3080 0.3100
11.049836 0.3120 0.3140 0.3150 0.3170 0.3170
11.084000 0.3190 0.3200 0.3220 0.3220 0.3240
11.117836 0.3250 0.3270 0.3270 0.3290 0.3310
11.151000 0.3320 0.3320 0.3320 0.3340 0.3340
11.184836 0.3360 0.3360 0.3360 0.3360 0.3360
11.219000 0.3360 0.3360 0.3360 0.3360 0.3370
11.252836 0.3390 0.3390 0.3410 0.3410 0.3420
11.287000 0.3420 0.3440 0.3460 0.3480 0.3490
11.320836 0.3490 0.3510 0.3510 0.3530 0.3530
11.354000 0.3540 0.3560 0.3580 0.3590 0.3590
11.387836 0.3610 0.3610 0.3630 0.3630 0.3650
11.422000 0.3660 0.3660 0.3680 0.3680 0.3700
11.455836 0.3710 0.3710 0.3730 0.3750 0.3750
11.490000 0.3760 0.3780 0.3780 0.3800 0.3800
11.523836 0.3820 0.3830 0.3830 0.3850 0.3850
11.557000 0.3870 0.3870 0.3880 0.3880 0.3880
11.590836 0.3880 0.3880 0.3900 0.3900 0.3900
11.625000 0.3900 0.3900 0.3920 0.3930 0.3930
11.658836 0.3930 0.3930 0.3930 0.3930 0.3930
11.693000 0.3950 0.3950 0.3950 0.3950 0.3950
11.726836 0.3950 0.3950 0.3950 0.3970 0.3950
11.760000 0.3950 0.3970 0.3970 0.3970 0.3970
11.793836 0.3970 0.3980 0.3980 0.3980 0.3980
11.828000 0.3980 0.4000 0.4000 0.4000 0.4000
11.861836 0.4000 0.4000 0.4000 0.4000 0.4000
11.895000 0.4000 0.4000 0.4000 0.4000 0.4000
11.928836 0.4000 0.4000 0.4020 0.4020 0.4020
11.963000 0.4020 0.4040 0.4040 0.4040 0.4050
11.996836 0.4050 0.4070 0.4070 0.4090 0.4090
12.031000 0.4100 0.4100 0.4100 0.4100 0.4100
12.064836 0.4120 0.4120 0.4120 0.4140 0.4140
12.098000 0.4140 0.4150 0.4150 0.4170 0.4170
12.131836 0.4150 0.4150 0.4170 0.4170 0.4170
12.166000 0.4190 0.4190 0.4210 0.4210 0.4220
12.199836 0.4220 0.4240 0.4240 0.4240 0.4240
12.234000 0.4240 0.4260 0.4260 0.4270 0.4270
12.267836 0.4270 0.4270 0.4270 0.4270 0.4290
12.301000 0.4290 0.4290 0.4290 0.4290 0.4290
12.334836 0.4310 0.4310 0.4310 0.4310 0.4320
12.369000 0.4320 0.4320 0.4320 0.4320 0.4320
12.402836 0.4320 0.4320 0.4320 0.4320 0.4320
12.437000 0.4320 0.4320 0.4320 0.4320 0.4320
12.470836 0.4320 0.4320 0.4340 0.4340 0.4340
12.504000 0.4340 0.4360 0.4360 0.4360 0.4360
12.537836 0.4360 0.4360 0.4380 0.4380 0.4390
12.572000 0.4390 0.4390 0.4390 0.4410 0.4410
12.605836 0.4410 0.4410 0.4430 0.4430 0.4430
12.639000 0.4430 0.4430 0.4440 0.4440 0.4440
12.672836 0.4440 0.4460 0.4460 0.4460 0.4460
12.707000 0.4460 0.4460 0.4460 0.4460 0.4460
12.740836 0.4460 0.4460 0.4480 0.4480 0.4480
12.775000 0.4480 0.4480 0.4480 0.4480 0.4480
12.808836 0.4480 0.4480 0.4480 0.4480 0.4480
12.842000 0.4480 0.4480 0.4480 0.4480 0.4480
12.875836 0.4490 0.4490 0.4490 0.4510 0.4510
12.910000 0.4510 0.4530 0.4530 0.4530 0.4530
12.943836 0.4530 0.4550 0.4560 0.4560 0.4580
12.978000 0.4600 0.4600 0.4610 0.4610 0.4630
13.011836 0.4650 0.4650 0.4650 0.4660 0.4680
13.045000 0.4680 0.4700 0.4700 0.4710 0.4710
13.078836 0.4710 0.4730 0.4730 0.4730 0.4750
13.113000 0.4750 0.4750 0.4750 0.4770 0.4770
13.146836 0.4770 0.4780 0.4780 0.4800 0.4800
13.181000 0.4820 0.4820 0.4820 0.4830 0.4850
13.214836 0.4850 0.4850 0.4870 0.4870 0.4880
13.248000 0.4880 0.4900 0.4920 0.4920 0.4920
13.281836 0.4940 0.4950 0.4950 0.4950 0.4970
13.316000 0.4970 0.4990 0.4990 0.5000 0.5020
13.349836 0.5040 0.5050 0.5070 0.5070 0.5070
13.383000 0.5070 0.5090 0.5110 0.5120 0.5140
13.416836 0.5160 0.5170 0.5170 0.5190 0.5210
13.451000 0.5220 0.5220 0.5240 0.5240 0.5260
13.484836 0.5280 0.5280 0.5290 0.5310 0.5330
13.519000 0.5340 0.5360 0.5380 0.5390 0.5390
13.552836 0.5430 0.5430 0.5440 0.5460 0.5480
13.586000 0.5480 0.5480 0.5500 0.5500 0.5510
13.619836 0.5510 0.5530 0.5530 0.5550 0.5550
13.654000 0.5560 0.5580 0.5580 0.5600 0.5600
13.687836 0.5600 0.5610 0.5610 0.5610 0.5630
13.722000 0.5630 0.5630 0.5650 0.5650 0.5650
13.755836 0.5680 0.5700 0.5700 0.5720 0.5730
13.789000 0.5750 0.5770 0.5780 0.5780 0.5800
13.822836 0.5820 0.5850 0.5870 0.5890 0.5890
13.857000 0.5900 0.5900 0.5920 0.5950 0.5950
13.890836 0.5970 0.5970 0.5990 0.6010 0.6010
13.925000 0.6020 0.6020 0.6020 0.6040 0.6060
13.958836 0.6070 0.6090 0.6110 0.6110 0.6120
13.992000 0.6140 0.6160 0.6160 0.6170 0.6170
14.025836 0.6190 0.6190 0.6210 0.6210 0.6230
14.060000 0.6230 0.6230 0.6240 0.6260 0.6280
14.093836 0.6280 0.6290 0.6290 0.6310 0.6330
14.127000 0.6340 0.6340 0.6360 0.6360 0.6380
14.160836 0.6380 0.6400 0.6410 0.6410 0.6410
14.195000 0.6430 0.6430 0.6430 0.6450 0.6480
14.228836 0.6480 0.6480 0.6500 0.6500 0.6510
14.263000 0.6530 0.6530 0.6530 0.6530 0.6530
14.296836 0.6530 0.6530 0.6550 0.6570 0.6570
14.330000 0.6570 0.6580 0.6580 0.6580 0.6600
14.363836 0.6600 0.6600 0.6620 0.6620 0.6620
14.398000 0.6620 0.6630 0.6630 0.6630 0.6650
14.431836 0.6650 0.6670 0.6670 0.6670 0.6670
14.466000 0.6680 0.6680 0.6700 0.6700 0.6700
14.499836 0.6740 0.6740 0.6750 0.6750 0.6750
14.533000 0.6750 0.6750 0.6750 0.6750 0.6750
14.566836 0.6750 0.6740 0.6740 0.6740 0.6740
14.601000 0.6740 0.6740 0.6750 0.6750 0.6750
14.634836 0.6750 0.6750 0.6750 0.6750 0.6750
14.669000 0.6750 0.6770 0.6770 0.6770 0.6770
14.702836 0.6770 0.6770 0.6770 0.6770 0.6770
14.736000 0.6770 0.6790 0.6790 0.6790 0.6790
14.769836 0.6790 0.6790 0.6790 0.6790 0.6800
14.804000 0.6800 0.6800 0.6800 0.6800 0.6800
14.837836 0.6800 0.6800 0.6800 0.6800 0.6800
14.871000 0.6800 0.6800 0.6800 0.6790 0.6790
14.904836 0.6790 0.6790 0.6790 0.6800 0.6800
14.939000 0.6800 0.6800 0.6800 0.6820 0.6820
14.972836 0.6820 0.6820 0.6820 0.6820 0.6820
15.007000 0.6820 0.6820 0.6820 0.6820 0.6820
15.040836 0.6820 0.6820 0.6820 0.6820 0.6820
15.074000 0.6820 0.6820 0.6820 0.6840 0.6840
15.107836 0.6840 0.6840 0.6840 0.6840 0.6840
15.142000 0.6840 0.6840 0.6840 0.6840 0.6840
15.175836 0.6820 0.6820 0.6820 0.6820 0.6820
15.210000 0.6820 0.6800 0.6800 0.6800 0.6800
15.243836 0.6800 0.6790 0.6790 0.6790 0.6790
15.277000 0.6790 0.6790 0.6790 0.6790 0.6770
15.310836 0.6770 0.6770 0.6770 0.6770 0.6770
15.345000 0.6770 0.6770 0.6770 0.6770 0.6770
15.378836 0.6770 0.6750 0.6750 0.6750
##END=
