##TITLE=1,7-Heptanediamine, dihydrochloride
##JCAMP-DX=4.24
##DATA TYPE=INFRARED SPECTRUM
##CLASS=COBLENTZ III
##ORIGIN=BRITISH PETROLEUM CO. LTD., ENGLAND
##OWNER=Copyright (C) 1987 by the Coblentz Society
Collection (C) 2018 copyright by the U.S. Secretary of Commerce
on behalf of the United States of America. All rights reserved.
##DATE=1972/07/27
##MOLFORM=C7 H20 Cl2 N2
##SOURCE REFERENCE=COBLENTZ NO. 9335
##$NIST ID=B6009335
##$NIST SOURCE=COBLENTZ
##$NIST IMAGE=cob9335
##SPECTROMETER/DATA SYSTEM=PERKIN-ELMER 157
##STATE=SOLID (KBr DISC, 0.8% WT.)
$$ HCl RUN IN KBr MAY CONTAIN SOME HBr
$$ REF. Can. J. Spec., 18,4,101, '73 C. S. DOUSE and P. B. TOOKE
##SAMPLING PROCEDURE=TRANSMISSION
##RESOLUTION=2
##DATA PROCESSING=DIGITIZED BY COBLENTZ SOCIETY (BATCH II) FROM HARD COPY
##XUNITS=1/CM
##YUNITS=TRANSMITTANCE
##XFACTOR=1.0
##YFACTOR=1
##FIRSTX=668
##LASTX=4000
##FIRSTY=0.9312
##MAXX=4000
##MINX=668
##MAXY=0.9319
##MINY=0.0115
##NPOINTS=3333
##XYDATA=(X++(Y..Y))
668.000000 0.9312 0.9314 0.9315 0.9318 0.9319
673.000000 0.9307 0.9292 0.9257 0.9212 0.9165
678.000000 0.9154 0.9147 0.9142 0.9139 0.9125
683.000000 0.9100 0.9056 0.9022 0.9001 0.8985
688.000000 0.8968 0.8952 0.8936 0.8912 0.8877
693.000000 0.8846 0.8832 0.8821 0.8810 0.8799
698.000000 0.8782 0.8758 0.8728 0.8697 0.8674
703.000000 0.8656 0.8639 0.8630 0.8618 0.8591
708.000000 0.8575 0.8561 0.8546 0.8525 0.8501
713.000000 0.8468 0.8432 0.8392 0.8349 0.8314
718.000000 0.8300 0.8290 0.8217 0.8139 0.8083
723.000000 0.8025 0.7950 0.7838 0.7715 0.7576
728.000000 0.7381 0.7233 0.7086 0.6876 0.6679
733.000000 0.6481 0.6173 0.5399 0.4914 0.4430
738.000000 0.3971 0.3663 0.3677 0.4188 0.4882
743.000000 0.5574 0.6264 0.7024 0.7332 0.7541
748.000000 0.7651 0.7815 0.7836 0.7853 0.7866
753.000000 0.7878 0.7890 0.7901 0.7908 0.7912
758.000000 0.7917 0.7913 0.7901 0.7880 0.7850
763.000000 0.7810 0.7751 0.7685 0.7580 0.7460
768.000000 0.7297 0.7134 0.6919 0.6706 0.6436
773.000000 0.6118 0.5313 0.4733 0.4154 0.3576
778.000000 0.3162 0.3116 0.3431 0.4157 0.4881
783.000000 0.5603 0.6317 0.6825 0.7146 0.7400
788.000000 0.7565 0.7747 0.7883 0.7932 0.7953
793.000000 0.7964 0.7971 0.7973 0.7974 0.7975
798.000000 0.7989 0.7971 0.7970 0.7965 0.7958
803.000000 0.7940 0.7914 0.7888 0.7880 0.7883
808.000000 0.7865 0.7821 0.7749 0.7641 0.7478
813.000000 0.7305 0.7102 0.6916 0.6851 0.6852
818.000000 0.7066 0.7284 0.7502 0.7664 0.7804
823.000000 0.7866 0.7879 0.7889 0.7901 0.7905
828.000000 0.7907 0.7910 0.7912 0.7915 0.7917
833.000000 0.7918 0.7919 0.7931 0.7913 0.7909
838.000000 0.7905 0.7901 0.7897 0.7893 0.7889
843.000000 0.7885 0.7882 0.7878 0.7875 0.7871
848.000000 0.7867 0.7862 0.7858 0.7844 0.7831
853.000000 0.7822 0.7817 0.7820 0.7809 0.7785
858.000000 0.7756 0.7733 0.7722 0.7715 0.7704
863.000000 0.7667 0.7624 0.7582 0.7558 0.7546
868.000000 0.7526 0.7482 0.7419 0.7335 0.7235
873.000000 0.7138 0.7033 0.6914 0.6775 0.6601
878.000000 0.6368 0.5960 0.5676 0.5302 0.5013
883.000000 0.4628 0.3938 0.3225 0.2517 0.2005
888.000000 0.2004 0.2543 0.3221 0.3898 0.4573
893.000000 0.5246 0.5928 0.6635 0.6818 0.6974
898.000000 0.7115 0.7216 0.7261 0.7288 0.7300
903.000000 0.7306 0.7311 0.7304 0.7306 0.7294
908.000000 0.7278 0.7258 0.7222 0.7182 0.7136
913.000000 0.7088 0.7029 0.6968 0.6884 0.6798
918.000000 0.6685 0.6568 0.6448 0.6233 0.6067
923.000000 0.6006 0.5903 0.5456 0.4612 0.3953
928.000000 0.3671 0.3667 0.4155 0.4654 0.5169
933.000000 0.5307 0.5314 0.5297 0.5237 0.4880
938.000000 0.4484 0.4088 0.3709 0.3170 0.2667
943.000000 0.2164 0.1644 0.1164 0.1139 0.1240
948.000000 0.1493 0.2125 0.2759 0.3392 0.4053
953.000000 0.4219 0.4582 0.4962 0.5343 0.5722
958.000000 0.6154 0.6493 0.6623 0.6706 0.6790
963.000000 0.6894 0.6944 0.7003 0.7068 0.7119
968.000000 0.7166 0.7203 0.7221 0.7222 0.7218
973.000000 0.7208 0.7192 0.7166 0.7125 0.7069
978.000000 0.6998 0.6945 0.6898 0.6871 0.6856
983.000000 0.6852 0.6843 0.6834 0.6797 0.6726
988.000000 0.6636 0.6532 0.6428 0.6260 0.6082
993.000000 0.5902 0.5635 0.5390 0.5219 0.4990
998.000000 0.4442 0.3383 0.2504 0.1621 0.1207
1003.000000 0.1136 0.1145 0.1143 0.2280 0.2862
1008.000000 0.3443 0.3586 0.3627 0.3638 0.3640
1013.000000 0.3341 0.3090 0.2839 0.2623 0.2620
1018.000000 0.2993 0.3398 0.3803 0.4206 0.4609
1023.000000 0.5011 0.5412 0.5547 0.5548 0.5552
1028.000000 0.5020 0.4630 0.4241 0.3852 0.3465
1033.000000 0.3192 0.3176 0.3223 0.3286 0.3348
1038.000000 0.3388 0.3380 0.3310 0.3220 0.3130
1043.000000 0.3041 0.3038 0.3412 0.3888 0.4363
1048.000000 0.4837 0.5311 0.5784 0.6086 0.6085
1053.000000 0.6077 0.5661 0.5407 0.5152 0.4899
1058.000000 0.4646 0.4548 0.4533 0.5293 0.5742
1063.000000 0.6091 0.6235 0.6442 0.6595 0.6696
1068.000000 0.6774 0.6858 0.6923 0.6958 0.6976
1073.000000 0.6986 0.6993 0.6996 0.7000 0.7003
1078.000000 0.7004 0.7005 0.7006 0.7006 0.6998
1083.000000 0.7003 0.7001 0.7000 0.6998 0.6996
1088.000000 0.6992 0.6988 0.6983 0.6978 0.6973
1093.000000 0.6968 0.6962 0.6955 0.6949 0.6938
1098.000000 0.6928 0.6916 0.6903 0.6882 0.6859
1103.000000 0.6836 0.6812 0.6788 0.6763 0.6729
1108.000000 0.6694 0.6658 0.6620 0.6578 0.6537
1113.000000 0.6494 0.6425 0.6350 0.6271 0.6184
1118.000000 0.6099 0.5942 0.5803 0.5691 0.5576
1123.000000 0.5450 0.5318 0.5159 0.5004 0.4855
1128.000000 0.4583 0.4384 0.4171 0.3571 0.3139
1133.000000 0.2708 0.2278 0.1813 0.1579 0.1572
1138.000000 0.1569 0.1607 0.1815 0.2289 0.2761
1143.000000 0.3234 0.3705 0.4176 0.4645 0.5114
1148.000000 0.5582 0.5925 0.5977 0.5983 0.5973
1153.000000 0.5984 0.5924 0.5872 0.5794 0.5709
1158.000000 0.5598 0.5431 0.5304 0.4878 0.4448
1163.000000 0.4018 0.3627 0.3498 0.3389 0.3242
1168.000000 0.2766 0.2194 0.1624 0.1058 0.0759
1173.000000 0.0737 0.0743 0.0744 0.1543 0.2146
1178.000000 0.2749 0.3351 0.3700 0.3801 0.3874
1183.000000 0.3899 0.3916 0.3955 0.4169 0.4415
1188.000000 0.4660 0.4905 0.5150 0.5394 0.5513
1193.000000 0.5681 0.5959 0.6076 0.6156 0.6206
1198.000000 0.6254 0.6302 0.6345 0.6384 0.6422
1203.000000 0.6460 0.6498 0.6526 0.6551 0.6577
1208.000000 0.6598 0.6609 0.6618 0.6627 0.6629
1213.000000 0.6629 0.6642 0.6629 0.6627 0.6625
1218.000000 0.6623 0.6621 0.6614 0.6604 0.6582
1223.000000 0.6534 0.6477 0.6391 0.6207 0.6057
1228.000000 0.5973 0.5922 0.5883 0.5871 0.5866
1233.000000 0.5860 0.5847 0.5727 0.5515 0.5304
1238.000000 0.5109 0.5071 0.5080 0.5067 0.5760
1243.000000 0.6119 0.6447 0.6569 0.6606 0.6626
1248.000000 0.6646 0.6634 0.6630 0.6621 0.6610
1253.000000 0.6586 0.6564 0.6544 0.6524 0.6500
1258.000000 0.6468 0.6416 0.6327 0.6173 0.6018
1263.000000 0.5925 0.5699 0.5446 0.5147 0.4849
1268.000000 0.4550 0.4252 0.3955 0.3856 0.3859
1273.000000 0.3974 0.4073 0.4078 0.4077 0.3886
1278.000000 0.3646 0.3407 0.3168 0.2982 0.3128
1283.000000 0.2961 0.4084 0.4565 0.5048 0.5452
1288.000000 0.5565 0.5581 0.5584 0.5577 0.5550
1293.000000 0.5514 0.5505 0.5511 0.5526 0.5562
1298.000000 0.5608 0.5639 0.5649 0.5656 0.5658
1303.000000 0.5658 0.5657 0.5653 0.5653 0.5652
1308.000000 0.5653 0.5656 0.5658 0.5644 0.5593
1313.000000 0.5519 0.5462 0.5444 0.5444 0.5455
1318.000000 0.5510 0.5574 0.5626 0.5656 0.5678
1323.000000 0.5689 0.5693 0.5688 0.5685 0.5678
1328.000000 0.5666 0.5653 0.5619 0.5578 0.5543
1333.000000 0.5514 0.5489 0.5465 0.5438 0.5399
1338.000000 0.5352 0.5300 0.5203 0.5155 0.5144
1343.000000 0.5146 0.5147 0.5164 0.5262 0.5570
1348.000000 0.5729 0.5795 0.5821 0.5828 0.5830
1353.000000 0.5833 0.5834 0.5833 0.5848 0.5827
1358.000000 0.5823 0.5789 0.5756 0.5721 0.5679
1363.000000 0.5621 0.5547 0.5472 0.5401 0.5350
1368.000000 0.5314 0.5295 0.5290 0.5286 0.5282
1373.000000 0.5275 0.5268 0.5251 0.5217 0.5173
1378.000000 0.5120 0.5056 0.4973 0.4857 0.4667
1383.000000 0.4405 0.4144 0.3883 0.3623 0.3363
1388.000000 0.3122 0.3079 0.3077 0.3095 0.3137
1393.000000 0.3169 0.3169 0.3076 0.2933 0.2789
1398.000000 0.2646 0.2503 0.2448 0.2440 0.2483
1403.000000 0.2858 0.3281 0.3704 0.4125 0.4546
1408.000000 0.4842 0.4881 0.4901 0.4910 0.4909
1413.000000 0.4910 0.4905 0.4886 0.4857 0.4812
1418.000000 0.4761 0.4705 0.4628 0.4553 0.4502
1423.000000 0.4465 0.4426 0.4386 0.4343 0.4296
1428.000000 0.4198 0.4042 0.3891 0.3757 0.3683
1433.000000 0.3613 0.3544 0.3458 0.3346 0.3238
1438.000000 0.3155 0.3072 0.2990 0.2910 0.2818
1443.000000 0.2652 0.2476 0.2341 0.2208 0.2080
1448.000000 0.1968 0.1715 0.1432 0.1181 0.0953
1453.000000 0.0780 0.0709 0.0654 0.0608 0.0579
1458.000000 0.0579 0.0580 0.0585 0.0590 0.0594
1463.000000 0.0596 0.0593 0.0575 0.0542 0.0497
1468.000000 0.0389 0.0340 0.0313 0.0308 0.0307
1473.000000 0.0311 0.0327 0.0307 0.0502 0.0585
1478.000000 0.0667 0.0743 0.0835 0.0905 0.0979
1483.000000 0.1248 0.1524 0.1798 0.2053 0.2179
1488.000000 0.2213 0.2233 0.2236 0.2252 0.2220
1493.000000 0.2105 0.1918 0.1730 0.1542 0.1356
1498.000000 0.1168 0.0982 0.0796 0.0609 0.0497
1503.000000 0.0481 0.0483 0.0490 0.0479 0.0619
1508.000000 0.0986 0.1546 0.2107 0.2665 0.3234
1513.000000 0.3540 0.3661 0.3763 0.3858 0.3927
1518.000000 0.3987 0.4032 0.4072 0.4120 0.4164
1523.000000 0.4192 0.4209 0.4217 0.4222 0.4222
1528.000000 0.4212 0.4219 0.4213 0.4207 0.4193
1533.000000 0.4171 0.4141 0.4109 0.4064 0.3996
1538.000000 0.3922 0.3808 0.3667 0.3526 0.3385
1543.000000 0.3244 0.3103 0.2963 0.2823 0.2683
1548.000000 0.2543 0.2445 0.2412 0.2370 0.2333
1553.000000 0.2292 0.2205 0.2042 0.1879 0.1717
1558.000000 0.1555 0.1392 0.1187 0.1037 0.1029
1563.000000 0.1023 0.1020 0.1018 0.1017 0.1019
1568.000000 0.1021 0.1064 0.1170 0.1297 0.1425
1573.000000 0.1552 0.1679 0.1807 0.1933 0.2022
1578.000000 0.2061 0.2078 0.2087 0.2092 0.2093
1583.000000 0.2091 0.2108 0.2043 0.1991 0.1942
1588.000000 0.1898 0.1857 0.1808 0.1753 0.1701
1593.000000 0.1651 0.1599 0.1553 0.1519 0.1492
1598.000000 0.1444 0.1373 0.1297 0.1220 0.1145
1603.000000 0.1069 0.1024 0.1022 0.1020 0.1019
1608.000000 0.1016 0.1072 0.1286 0.1532 0.1777
1613.000000 0.2023 0.2268 0.2513 0.2757 0.3018
1618.000000 0.3176 0.3280 0.3549 0.3717 0.3804
1623.000000 0.3875 0.3945 0.4015 0.4084 0.4156
1628.000000 0.4234 0.4317 0.4398 0.4473 0.4546
1633.000000 0.4623 0.4718 0.4812 0.4884 0.4941
1638.000000 0.4995 0.5043 0.5080 0.5110 0.5140
1643.000000 0.5170 0.5197 0.5214 0.5230 0.5246
1648.000000 0.5263 0.5278 0.5294 0.5323 0.5357
1653.000000 0.5462 0.5568 0.5620 0.5637 0.5639
1658.000000 0.5642 0.5644 0.5646 0.5658 0.5686
1663.000000 0.5723 0.5753 0.5774 0.5794 0.5810
1668.000000 0.5820 0.5828 0.5833 0.5835 0.5836
1673.000000 0.5838 0.5839 0.5840 0.5841 0.5842
1678.000000 0.5843 0.5844 0.5844 0.5845 0.5846
1683.000000 0.5846 0.5847 0.5848 0.5848 0.5849
1688.000000 0.5849 0.5850 0.5851 0.5851 0.5852
1693.000000 0.5853 0.5853 0.5852 0.5852 0.5852
1698.000000 0.5852 0.5852 0.5851 0.5851 0.5851
1703.000000 0.5851 0.5851 0.5850 0.5850 0.5850
1708.000000 0.5850 0.5849 0.5849 0.5849 0.5849
1713.000000 0.5849 0.5849 0.5849 0.5849 0.5849
1718.000000 0.5849 0.5849 0.5849 0.5849 0.5849
1723.000000 0.5849 0.5849 0.5849 0.5849 0.5849
1728.000000 0.5868 0.5849 0.5849 0.5849 0.5849
1733.000000 0.5849 0.5849 0.5849 0.5849 0.5849
1738.000000 0.5849 0.5849 0.5848 0.5848 0.5848
1743.000000 0.5848 0.5848 0.5848 0.5848 0.5848
1748.000000 0.5847 0.5847 0.5847 0.5847 0.5847
1753.000000 0.5847 0.5846 0.5846 0.5846 0.5846
1758.000000 0.5846 0.5846 0.5846 0.5845 0.5845
1763.000000 0.5845 0.5845 0.5845 0.5845 0.5845
1768.000000 0.5845 0.5845 0.5846 0.5846 0.5846
1773.000000 0.5846 0.5846 0.5847 0.5847 0.5847
1778.000000 0.5847 0.5847 0.5847 0.5848 0.5848
1783.000000 0.5848 0.5848 0.5846 0.5842 0.5836
1788.000000 0.5830 0.5824 0.5815 0.5800 0.5780
1793.000000 0.5759 0.5739 0.5720 0.5701 0.5685
1798.000000 0.5674 0.5664 0.5654 0.5645 0.5635
1803.000000 0.5625 0.5615 0.5606 0.5598 0.5589
1808.000000 0.5581 0.5572 0.5564 0.5555 0.5547
1813.000000 0.5539 0.5531 0.5524 0.5517 0.5513
1818.000000 0.5508 0.5504 0.5499 0.5495 0.5490
1823.000000 0.5486 0.5481 0.5477 0.5472 0.5468
1828.000000 0.5462 0.5455 0.5448 0.5440 0.5432
1833.000000 0.5424 0.5416 0.5408 0.5401 0.5394
1838.000000 0.5387 0.5380 0.5372 0.5365 0.5358
1843.000000 0.5351 0.5344 0.5338 0.5335 0.5332
1848.000000 0.5329 0.5326 0.5323 0.5320 0.5317
1853.000000 0.5314 0.5311 0.5308 0.5305 0.5303
1858.000000 0.5300 0.5297 0.5294 0.5292 0.5290
1863.000000 0.5288 0.5286 0.5284 0.5282 0.5281
1868.000000 0.5274 0.5265 0.5256 0.5247 0.5238
1873.000000 0.5228 0.5218 0.5209 0.5200 0.5191
1878.000000 0.5184 0.5178 0.5173 0.5167 0.5162
1883.000000 0.5157 0.5152 0.5147 0.5142 0.5136
1888.000000 0.5132 0.5127 0.5123 0.5122 0.5120
1893.000000 0.5118 0.5116 0.5115 0.5114 0.5112
1898.000000 0.5110 0.5108 0.5107 0.5106 0.5104
1903.000000 0.5102 0.5101 0.5099 0.5097 0.5095
1908.000000 0.5093 0.5091 0.5089 0.5088 0.5086
1913.000000 0.5084 0.5082 0.5080 0.5078 0.5077
1918.000000 0.5075 0.5073 0.5071 0.5069 0.5067
1923.000000 0.5065 0.5063 0.5062 0.5060 0.5058
1928.000000 0.5055 0.5053 0.5050 0.5047 0.5045
1933.000000 0.5043 0.5040 0.5037 0.5035 0.5032
1938.000000 0.5030 0.5022 0.5013 0.5001 0.4991
1943.000000 0.4977 0.4961 0.4929 0.4900 0.4875
1948.000000 0.4852 0.4828 0.4804 0.4778 0.4751
1953.000000 0.4722 0.4693 0.4663 0.4630 0.4589
1958.000000 0.4547 0.4505 0.4463 0.4422 0.4380
1963.000000 0.4338 0.4296 0.4254 0.4213 0.4172
1968.000000 0.4130 0.4089 0.4047 0.4006 0.3964
1973.000000 0.3923 0.3882 0.3841 0.3800 0.3759
1978.000000 0.3717 0.3676 0.3636 0.3595 0.3554
1983.000000 0.3513 0.3472 0.3431 0.3390 0.3350
1988.000000 0.3309 0.3269 0.3228 0.3187 0.3147
1993.000000 0.3133 0.3126 0.3127 0.3100 0.3131
1998.000000 0.3134 0.3140 0.3149 0.3162 0.3175
2003.000000 0.3189 0.3208 0.3234 0.3284 0.3333
2008.000000 0.3383 0.3433 0.3483 0.3532 0.3582
2013.000000 0.3631 0.3681 0.3731 0.3780 0.3829
2018.000000 0.3878 0.3928 0.3977 0.4027 0.4076
2023.000000 0.4124 0.4173 0.4222 0.4271 0.4320
2028.000000 0.4369 0.4418 0.4466 0.4515 0.4564
2033.000000 0.4613 0.4661 0.4709 0.4758 0.4806
2038.000000 0.4854 0.4903 0.4951 0.4999 0.5047
2043.000000 0.5096 0.5144 0.5192 0.5240 0.5288
2048.000000 0.5325 0.5353 0.5375 0.5399 0.5437
2053.000000 0.5483 0.5539 0.5574 0.5604 0.5633
2058.000000 0.5658 0.5674 0.5690 0.5705 0.5721
2063.000000 0.5737 0.5752 0.5766 0.5780 0.5793
2068.000000 0.5805 0.5817 0.5825 0.5829 0.5834
2073.000000 0.5839 0.5843 0.5847 0.5852 0.5856
2078.000000 0.5859 0.5862 0.5865 0.5866 0.5868
2083.000000 0.5868 0.5868 0.5868 0.5868 0.5868
2088.000000 0.5868 0.5868 0.5868 0.5868 0.5868
2093.000000 0.5868 0.5867 0.5866 0.5865 0.5865
2098.000000 0.5864 0.5864 0.5862 0.5857 0.5861
2103.000000 0.5860 0.5860 0.5858 0.5857 0.5855
2108.000000 0.5852 0.5851 0.5849 0.5847 0.5845
2113.000000 0.5843 0.5841 0.5840 0.5837 0.5835
2118.000000 0.5830 0.5826 0.5821 0.5816 0.5811
2123.000000 0.5804 0.5798 0.5788 0.5778 0.5767
2128.000000 0.5759 0.5755 0.5750 0.5747 0.5742
2133.000000 0.5738 0.5734 0.5729 0.5725 0.5721
2138.000000 0.5717 0.5715 0.5712 0.5710 0.5707
2143.000000 0.5704 0.5702 0.5700 0.5697 0.5695
2148.000000 0.5692 0.5690 0.5687 0.5684 0.5681
2153.000000 0.5678 0.5676 0.5673 0.5670 0.5667
2158.000000 0.5664 0.5661 0.5657 0.5651 0.5638
2163.000000 0.5626 0.5614 0.5603 0.5592 0.5583
2168.000000 0.5575 0.5568 0.5561 0.5553 0.5546
2173.000000 0.5541 0.5537 0.5534 0.5531 0.5528
2178.000000 0.5525 0.5522 0.5520 0.5519 0.5518
2183.000000 0.5516 0.5515 0.5514 0.5512 0.5511
2188.000000 0.5510 0.5509 0.5507 0.5506 0.5504
2193.000000 0.5502 0.5501 0.5500 0.5499 0.5498
2198.000000 0.5497 0.5496 0.5496 0.5495 0.5495
2203.000000 0.5494 0.5493 0.5492 0.5492 0.5491
2208.000000 0.5491 0.5490 0.5489 0.5488 0.5488
2213.000000 0.5487 0.5485 0.5482 0.5478 0.5473
2218.000000 0.5469 0.5457 0.5443 0.5422 0.5398
2223.000000 0.5381 0.5367 0.5356 0.5346 0.5339
2228.000000 0.5332 0.5325 0.5318 0.5312 0.5305
2233.000000 0.5297 0.5290 0.5283 0.5276 0.5269
2238.000000 0.5261 0.5253 0.5246 0.5238 0.5230
2243.000000 0.5222 0.5215 0.5207 0.5199 0.5192
2248.000000 0.5185 0.5178 0.5172 0.5165 0.5158
2253.000000 0.5152 0.5145 0.5139 0.5133 0.5128
2258.000000 0.5124 0.5120 0.5116 0.5112 0.5109
2263.000000 0.5105 0.5101 0.5098 0.5094 0.5090
2268.000000 0.5085 0.5076 0.5058 0.5041 0.5025
2273.000000 0.5010 0.4996 0.4982 0.4970 0.4959
2278.000000 0.4953 0.4948 0.4943 0.4939 0.4934
2283.000000 0.4929 0.4926 0.4923 0.4921 0.4920
2288.000000 0.4918 0.4917 0.4916 0.4914 0.4913
2293.000000 0.4911 0.4910 0.4908 0.4907 0.4906
2298.000000 0.4903 0.4897 0.4891 0.4885 0.4879
2303.000000 0.4873 0.4866 0.4859 0.4852 0.4844
2308.000000 0.4836 0.4828 0.4820 0.4812 0.4803
2313.000000 0.4795 0.4787 0.4779 0.4771 0.4763
2318.000000 0.4755 0.4747 0.4739 0.4731 0.4723
2323.000000 0.4715 0.4707 0.4699 0.4691 0.4683
2328.000000 0.4675 0.4665 0.4656 0.4646 0.4635
2333.000000 0.4625 0.4615 0.4605 0.4595 0.4585
2338.000000 0.4575 0.4565 0.4555 0.4545 0.4535
2343.000000 0.4525 0.4501 0.4478 0.4454 0.4431
2348.000000 0.4402 0.4368 0.4326 0.4271 0.4222
2353.000000 0.4203 0.4184 0.4165 0.4147 0.4132
2358.000000 0.4120 0.4108 0.4097 0.4085 0.4074
2363.000000 0.4062 0.4051 0.4040 0.4028 0.4016
2368.000000 0.4004 0.3991 0.3978 0.3965 0.3951
2373.000000 0.3939 0.3926 0.3912 0.3899 0.3886
2378.000000 0.3873 0.3860 0.3845 0.3831 0.3816
2383.000000 0.3801 0.3786 0.3772 0.3757 0.3742
2388.000000 0.3727 0.3712 0.3697 0.3683 0.3669
2393.000000 0.3659 0.3651 0.3642 0.3634 0.3625
2398.000000 0.3617 0.3608 0.3600 0.3591 0.3582
2403.000000 0.3573 0.3563 0.3550 0.3536 0.3522
2408.000000 0.3509 0.3495 0.3480 0.3465 0.3449
2413.000000 0.3434 0.3418 0.3402 0.3384 0.3365
2418.000000 0.3345 0.3326 0.3306 0.3287 0.3268
2423.000000 0.3246 0.3221 0.3198 0.3181 0.3165
2428.000000 0.3155 0.3148 0.3140 0.3132 0.3125
2433.000000 0.3117 0.3110 0.3102 0.3094 0.3083
2438.000000 0.3067 0.3052 0.3033 0.3014 0.2992
2443.000000 0.2966 0.2936 0.2883 0.2830 0.2785
2448.000000 0.2742 0.2706 0.2680 0.2654 0.2646
2453.000000 0.2637 0.2629 0.2621 0.2614 0.2611
2458.000000 0.2608 0.2605 0.2602 0.2600 0.2597
2463.000000 0.2595 0.2592 0.2589 0.2587 0.2587
2468.000000 0.2586 0.2586 0.2585 0.2584 0.2584
2473.000000 0.2583 0.2583 0.2583 0.2582 0.2581
2478.000000 0.2580 0.2578 0.2577 0.2575 0.2573
2483.000000 0.2569 0.2561 0.2553 0.2544 0.2534
2488.000000 0.2518 0.2494 0.2469 0.2448 0.2427
2493.000000 0.2408 0.2392 0.2377 0.2361 0.2346
2498.000000 0.2330 0.2314 0.2298 0.2280 0.2263
2503.000000 0.2251 0.2244 0.2238 0.2236 0.2234
2508.000000 0.2234 0.2234 0.2234 0.2242 0.2251
2513.000000 0.2259 0.2267 0.2276 0.2290 0.2304
2518.000000 0.2317 0.2325 0.2333 0.2340 0.2348
2523.000000 0.2354 0.2361 0.2367 0.2370 0.2372
2528.000000 0.2373 0.2373 0.2372 0.2370 0.2366
2533.000000 0.2363 0.2358 0.2353 0.2336 0.2307
2538.000000 0.2278 0.2268 0.2260 0.2252 0.2246
2543.000000 0.2239 0.2235 0.2231 0.2227 0.2226
2548.000000 0.2225 0.2224 0.2223 0.2222 0.2222
2553.000000 0.2222 0.2222 0.2222 0.2222 0.2222
2558.000000 0.2222 0.2222 0.2222 0.2222 0.2221
2563.000000 0.2221 0.2221 0.2220 0.2220 0.2219
2568.000000 0.2219 0.2218 0.2215 0.2212 0.2209
2573.000000 0.2205 0.2202 0.2196 0.2185 0.2175
2578.000000 0.2158 0.2138 0.2118 0.2073 0.2028
2583.000000 0.1990 0.1968 0.1945 0.1921 0.1898
2588.000000 0.1874 0.1850 0.1827 0.1797 0.1755
2593.000000 0.1714 0.1670 0.1627 0.1583 0.1575
2598.000000 0.1569 0.1564 0.1560 0.1557 0.1554
2603.000000 0.1550 0.1547 0.1544 0.1541 0.1538
2608.000000 0.1535 0.1531 0.1528 0.1526 0.1523
2613.000000 0.1522 0.1520 0.1519 0.1517 0.1516
2618.000000 0.1514 0.1513 0.1511 0.1510 0.1509
2623.000000 0.1508 0.1507 0.1506 0.1505 0.1503
2628.000000 0.1502 0.1501 0.1500 0.1499 0.1498
2633.000000 0.1497 0.1496 0.1495 0.1494 0.1493
2638.000000 0.1492 0.1490 0.1489 0.1488 0.1487
2643.000000 0.1486 0.1484 0.1482 0.1480 0.1478
2648.000000 0.1475 0.1473 0.1471 0.1469 0.1466
2653.000000 0.1464 0.1461 0.1459 0.1457 0.1455
2658.000000 0.1451 0.1447 0.1442 0.1435 0.1428
2663.000000 0.1419 0.1408 0.1397 0.1381 0.1364
2668.000000 0.1347 0.1330 0.1313 0.1296 0.1279
2673.000000 0.1263 0.1247 0.1232 0.1216 0.1201
2678.000000 0.1186 0.1171 0.1159 0.1149 0.1139
2683.000000 0.1132 0.1126 0.1119 0.1113 0.1107
2688.000000 0.1101 0.1094 0.1087 0.1080 0.1072
2693.000000 0.1063 0.1055 0.1046 0.1037 0.1028
2698.000000 0.1016 0.1003 0.0991 0.0978 0.0965
2703.000000 0.0950 0.0927 0.0904 0.0880 0.0855
2708.000000 0.0830 0.0805 0.0780 0.0756 0.0731
2713.000000 0.0707 0.0683 0.0660 0.0637 0.0614
2718.000000 0.0597 0.0584 0.0572 0.0564 0.0559
2723.000000 0.0553 0.0548 0.0542 0.0537 0.0532
2728.000000 0.0527 0.0523 0.0520 0.0517 0.0514
2733.000000 0.0511 0.0509 0.0506 0.0504 0.0502
2738.000000 0.0500 0.0499 0.0498 0.0497 0.0496
2743.000000 0.0495 0.0495 0.0494 0.0493 0.0492
2748.000000 0.0490 0.0489 0.0487 0.0484 0.0481
2753.000000 0.0478 0.0474 0.0470 0.0467 0.0462
2758.000000 0.0457 0.0452 0.0444 0.0436 0.0428
2763.000000 0.0420 0.0412 0.0403 0.0395 0.0385
2768.000000 0.0376 0.0366 0.0356 0.0347 0.0337
2773.000000 0.0327 0.0317 0.0308 0.0301 0.0293
2778.000000 0.0286 0.0280 0.0274 0.0268 0.0262
2783.000000 0.0256 0.0250 0.0244 0.0238 0.0232
2788.000000 0.0226 0.0220 0.0214 0.0208 0.0203
2793.000000 0.0197 0.0193 0.0189 0.0185 0.0181
2798.000000 0.0177 0.0173 0.0169 0.0165 0.0161
2803.000000 0.0158 0.0157 0.0156 0.0154 0.0153
2808.000000 0.0152 0.0151 0.0151 0.0150 0.0149
2813.000000 0.0148 0.0147 0.0146 0.0145 0.0144
2818.000000 0.0143 0.0142 0.0142 0.0141 0.0140
2823.000000 0.0140 0.0139 0.0138 0.0138 0.0138
2828.000000 0.0138 0.0137 0.0137 0.0137 0.0136
2833.000000 0.0135 0.0135 0.0134 0.0134 0.0134
2838.000000 0.0133 0.0133 0.0133 0.0132 0.0132
2843.000000 0.0131 0.0131 0.0130 0.0130 0.0130
2848.000000 0.0129 0.0129 0.0129 0.0128 0.0128
2853.000000 0.0127 0.0126 0.0126 0.0126 0.0126
2858.000000 0.0125 0.0125 0.0125 0.0124 0.0124
2863.000000 0.0123 0.0123 0.0123 0.0123 0.0123
2868.000000 0.0123 0.0123 0.0123 0.0122 0.0122
2873.000000 0.0122 0.0122 0.0122 0.0122 0.0122
2878.000000 0.0122 0.0122 0.0122 0.0122 0.0122
2883.000000 0.0122 0.0121 0.0121 0.0121 0.0121
2888.000000 0.0121 0.0121 0.0121 0.0121 0.0121
2893.000000 0.0121 0.0120 0.0120 0.0120 0.0120
2898.000000 0.0120 0.0120 0.0120 0.0120 0.0120
2903.000000 0.0120 0.0120 0.0120 0.0120 0.0119
2908.000000 0.0119 0.0119 0.0119 0.0115 0.0119
2913.000000 0.0119 0.0119 0.0119 0.0119 0.0119
2918.000000 0.0118 0.0118 0.0118 0.0118 0.0118
2923.000000 0.0118 0.0118 0.0118 0.0118 0.0118
2928.000000 0.0118 0.0118 0.0118 0.0117 0.0117
2933.000000 0.0117 0.0117 0.0117 0.0117 0.0117
2938.000000 0.0117 0.0117 0.0117 0.0117 0.0117
2943.000000 0.0117 0.0117 0.0117 0.0117 0.0117
2948.000000 0.0117 0.0118 0.0118 0.0118 0.0118
2953.000000 0.0118 0.0118 0.0118 0.0119 0.0119
2958.000000 0.0119 0.0119 0.0119 0.0119 0.0119
2963.000000 0.0120 0.0120 0.0120 0.0120 0.0120
2968.000000 0.0120 0.0120 0.0120 0.0120 0.0120
2973.000000 0.0121 0.0121 0.0121 0.0121 0.0121
2978.000000 0.0121 0.0121 0.0122 0.0122 0.0122
2983.000000 0.0122 0.0122 0.0122 0.0122 0.0123
2988.000000 0.0123 0.0123 0.0123 0.0123 0.0123
2993.000000 0.0123 0.0123 0.0124 0.0124 0.0124
2998.000000 0.0124 0.0124 0.0125 0.0125 0.0126
3003.000000 0.0126 0.0126 0.0127 0.0127 0.0128
3008.000000 0.0128 0.0129 0.0129 0.0129 0.0129
3013.000000 0.0130 0.0131 0.0131 0.0132 0.0132
3018.000000 0.0132 0.0132 0.0133 0.0133 0.0134
3023.000000 0.0135 0.0135 0.0135 0.0135 0.0136
3028.000000 0.0136 0.0137 0.0137 0.0138 0.0138
3033.000000 0.0138 0.0139 0.0139 0.0140 0.0140
3038.000000 0.0141 0.0141 0.0141 0.0141 0.0142
3043.000000 0.0142 0.0142 0.0142 0.0143 0.0144
3048.000000 0.0144 0.0145 0.0145 0.0145 0.0145
3053.000000 0.0146 0.0146 0.0147 0.0147 0.0148
3058.000000 0.0148 0.0148 0.0149 0.0149 0.0150
3063.000000 0.0151 0.0152 0.0154 0.0156 0.0158
3068.000000 0.0160 0.0162 0.0164 0.0166 0.0168
3073.000000 0.0170 0.0172 0.0173 0.0176 0.0178
3078.000000 0.0180 0.0182 0.0185 0.0187 0.0190
3083.000000 0.0193 0.0195 0.0198 0.0200 0.0202
3088.000000 0.0204 0.0205 0.0206 0.0207 0.0208
3093.000000 0.0209 0.0210 0.0211 0.0213 0.0214
3098.000000 0.0215 0.0216 0.0217 0.0218 0.0219
3103.000000 0.0219 0.0220 0.0221 0.0222 0.0222
3108.000000 0.0222 0.0222 0.0223 0.0223 0.0224
3113.000000 0.0224 0.0225 0.0225 0.0226 0.0226
3118.000000 0.0227 0.0227 0.0227 0.0227 0.0228
3123.000000 0.0228 0.0229 0.0230 0.0231 0.0233
3128.000000 0.0235 0.0237 0.0242 0.0247 0.0251
3133.000000 0.0256 0.0261 0.0266 0.0271 0.0275
3138.000000 0.0279 0.0283 0.0287 0.0290 0.0294
3143.000000 0.0297 0.0300 0.0304 0.0307 0.0310
3148.000000 0.0313 0.0315 0.0316 0.0316 0.0317
3153.000000 0.0318 0.0319 0.0319 0.0320 0.0321
3158.000000 0.0321 0.0322 0.0322 0.0323 0.0324
3163.000000 0.0324 0.0325 0.0326 0.0326 0.0327
3168.000000 0.0327 0.0328 0.0329 0.0329 0.0330
3173.000000 0.0331 0.0332 0.0332 0.0333 0.0334
3178.000000 0.0335 0.0335 0.0336 0.0337 0.0337
3183.000000 0.0338 0.0339 0.0340 0.0340 0.0341
3188.000000 0.0342 0.0343 0.0344 0.0345 0.0346
3193.000000 0.0347 0.0350 0.0353 0.0356 0.0359
3198.000000 0.0362 0.0365 0.0368 0.0371 0.0393
3203.000000 0.0416 0.0438 0.0461 0.0473 0.0484
3208.000000 0.0495 0.0506 0.0517 0.0528 0.0539
3213.000000 0.0550 0.0561 0.0570 0.0580 0.0590
3218.000000 0.0599 0.0609 0.0619 0.0628 0.0638
3223.000000 0.0647 0.0657 0.0667 0.0687 0.0752
3228.000000 0.0817 0.0882 0.0946 0.0972 0.0998
3233.000000 0.1024 0.1050 0.1067 0.1083 0.1099
3238.000000 0.1115 0.1131 0.1147 0.1163 0.1179
3243.000000 0.1201 0.1231 0.1260 0.1290 0.1324
3248.000000 0.1372 0.1419 0.1466 0.1513 0.1528
3253.000000 0.1544 0.1559 0.1574 0.1590 0.1605
3258.000000 0.1620 0.1636 0.1653 0.1671 0.1689
3263.000000 0.1708 0.1726 0.1746 0.1766 0.1785
3268.000000 0.1805 0.1835 0.1866 0.1896 0.1926
3273.000000 0.1968 0.2014 0.2060 0.2107 0.2142
3278.000000 0.2166 0.2190 0.2214 0.2236 0.2255
3283.000000 0.2273 0.2291 0.2310 0.2322 0.2332
3288.000000 0.2343 0.2353 0.2364 0.2375 0.2385
3293.000000 0.2396 0.2407 0.2417 0.2428 0.2438
3298.000000 0.2449 0.2456 0.2463 0.2470 0.2477
3303.000000 0.2484 0.2490 0.2496 0.2502 0.2508
3308.000000 0.2513 0.2518 0.2522 0.2527 0.2530
3313.000000 0.2532 0.2535 0.2537 0.2539 0.2542
3318.000000 0.2544 0.2546 0.2548 0.2551 0.2553
3323.000000 0.2555 0.2557 0.2560 0.2562 0.2564
3328.000000 0.2566 0.2569 0.2571 0.2573 0.2575
3333.000000 0.2578 0.2580 0.2581 0.2583 0.2585
3338.000000 0.2587 0.2588 0.2588 0.2589 0.2590
3343.000000 0.2591 0.2592 0.2593 0.2594 0.2595
3348.000000 0.2596 0.2597 0.2597 0.2598 0.2599
3353.000000 0.2600 0.2602 0.2603 0.2604 0.2605
3358.000000 0.2606 0.2606 0.2607 0.2608 0.2609
3363.000000 0.2610 0.2611 0.2612 0.2613 0.2613
3368.000000 0.2614 0.2615 0.2616 0.2617 0.2618
3373.000000 0.2619 0.2620 0.2621 0.2622 0.2623
3378.000000 0.2624 0.2625 0.2626 0.2627 0.2628
3383.000000 0.2629 0.2629 0.2630 0.2631 0.2632
3388.000000 0.2633 0.2634 0.2635 0.2636 0.2636
3393.000000 0.2637 0.2638 0.2639 0.2640 0.2641
3398.000000 0.2642 0.2642 0.2643 0.2644 0.2645
3403.000000 0.2646 0.2647 0.2648 0.2649 0.2649
3408.000000 0.2650 0.2651 0.2652 0.2653 0.2653
3413.000000 0.2654 0.2655 0.2655 0.2656 0.2657
3418.000000 0.2658 0.2659 0.2660 0.2660 0.2661
3423.000000 0.2662 0.2663 0.2664 0.2665 0.2665
3428.000000 0.2666 0.2667 0.2668 0.2669 0.2669
3433.000000 0.2670 0.2670 0.2671 0.2672 0.2673
3438.000000 0.2674 0.2675 0.2676 0.2676 0.2677
3443.000000 0.2678 0.2679 0.2680 0.2681 0.2681
3448.000000 0.2682 0.2684 0.2687 0.2690 0.2693
3453.000000 0.2695 0.2698 0.2700 0.2703 0.2705
3458.000000 0.2708 0.2710 0.2713 0.2715 0.2718
3463.000000 0.2721 0.2723 0.2726 0.2729 0.2731
3468.000000 0.2734 0.2736 0.2739 0.2741 0.2744
3473.000000 0.2747 0.2749 0.2752 0.2755 0.2757
3478.000000 0.2760 0.2762 0.2765 0.2767 0.2770
3483.000000 0.2774 0.2777 0.2781 0.2785 0.2789
3488.000000 0.2793 0.2797 0.2802 0.2806 0.2810
3493.000000 0.2815 0.2819 0.2824 0.2828 0.2833
3498.000000 0.2837 0.2841 0.2845 0.2850 0.2854
3503.000000 0.2859 0.2863 0.2868 0.2872 0.2876
3508.000000 0.2881 0.2885 0.2889 0.2893 0.2898
3513.000000 0.2902 0.2906 0.2911 0.2915 0.2919
3518.000000 0.2924 0.2929 0.2933 0.2938 0.2943
3523.000000 0.2948 0.2954 0.2959 0.2964 0.2969
3528.000000 0.2974 0.2980 0.2985 0.2990 0.2995
3533.000000 0.3001 0.3006 0.3011 0.3016 0.3021
3538.000000 0.3026 0.3031 0.3036 0.3041 0.3046
3543.000000 0.3051 0.3057 0.3062 0.3067 0.3072
3548.000000 0.3077 0.3081 0.3086 0.3091 0.3095
3553.000000 0.3100 0.3104 0.3108 0.3113 0.3117
3558.000000 0.3121 0.3126 0.3130 0.3134 0.3139
3563.000000 0.3143 0.3148 0.3152 0.3157 0.3161
3568.000000 0.3166 0.3170 0.3174 0.3179 0.3183
3573.000000 0.3188 0.3193 0.3197 0.3202 0.3207
3578.000000 0.3212 0.3218 0.3223 0.3229 0.3234
3583.000000 0.3240 0.3245 0.3250 0.3255 0.3261
3588.000000 0.3266 0.3271 0.3277 0.3282 0.3288
3593.000000 0.3293 0.3299 0.3304 0.3309 0.3315
3598.000000 0.3320 0.3325 0.3330 0.3335 0.3340
3603.000000 0.3345 0.3350 0.3355 0.3360 0.3365
3608.000000 0.3370 0.3375 0.3380 0.3385 0.3390
3613.000000 0.3395 0.3400 0.3405 0.3410 0.3415
3618.000000 0.3420 0.3425 0.3429 0.3434 0.3439
3623.000000 0.3444 0.3448 0.3452 0.3456 0.3460
3628.000000 0.3465 0.3469 0.3473 0.3478 0.3482
3633.000000 0.3486 0.3491 0.3495 0.3499 0.3504
3638.000000 0.3508 0.3512 0.3515 0.3518 0.3521
3643.000000 0.3524 0.3527 0.3528 0.3530 0.3531
3648.000000 0.3532 0.3534 0.3535 0.3536 0.3538
3653.000000 0.3539 0.3540 0.3542 0.3543 0.3544
3658.000000 0.3545 0.3547 0.3548 0.3549 0.3550
3663.000000 0.3551 0.3553 0.3554 0.3555 0.3556
3668.000000 0.3558 0.3559 0.3560 0.3561 0.3563
3673.000000 0.3564 0.3565 0.3567 0.3568 0.3569
3678.000000 0.3569 0.3569 0.3570 0.3570 0.3567
3683.000000 0.3570 0.3570 0.3570 0.3570 0.3570
3688.000000 0.3569 0.3569 0.3569 0.3569 0.3569
3693.000000 0.3568 0.3568 0.3568 0.3567 0.3567
3698.000000 0.3567 0.3566 0.3566 0.3566 0.3566
3703.000000 0.3566 0.3565 0.3564 0.3563 0.3563
3708.000000 0.3562 0.3561 0.3560 0.3559 0.3558
3713.000000 0.3557 0.3556 0.3555 0.3554 0.3553
3718.000000 0.3552 0.3551 0.3550 0.3549 0.3548
3723.000000 0.3547 0.3546 0.3545 0.3544 0.3543
3728.000000 0.3542 0.3541 0.3540 0.3539 0.3538
3733.000000 0.3537 0.3536 0.3535 0.3534 0.3533
3738.000000 0.3532 0.3531 0.3530 0.3529 0.3528
3743.000000 0.3527 0.3526 0.3525 0.3524 0.3523
3748.000000 0.3522 0.3520 0.3518 0.3516 0.3515
3753.000000 0.3513 0.3511 0.3510 0.3508 0.3506
3758.000000 0.3505 0.3503 0.3502 0.3500 0.3498
3763.000000 0.3497 0.3495 0.3494 0.3492 0.3490
3768.000000 0.3488 0.3487 0.3485 0.3483 0.3482
3773.000000 0.3480 0.3478 0.3477 0.3475 0.3474
3778.000000 0.3472 0.3470 0.3468 0.3467 0.3465
3783.000000 0.3463 0.3461 0.3460 0.3458 0.3456
3788.000000 0.3454 0.3453 0.3451 0.3449 0.3447
3793.000000 0.3446 0.3444 0.3442 0.3440 0.3439
3798.000000 0.3437 0.3435 0.3433 0.3432 0.3430
3803.000000 0.3428 0.3427 0.3425 0.3423 0.3421
3808.000000 0.3419 0.3417 0.3415 0.3413 0.3412
3813.000000 0.3410 0.3408 0.3407 0.3405 0.3403
3818.000000 0.3401 0.3400 0.3398 0.3396 0.3395
3823.000000 0.3393 0.3391 0.3389 0.3388 0.3386
3828.000000 0.3384 0.3383 0.3381 0.3379 0.3378
3833.000000 0.3376 0.3374 0.3372 0.3370 0.3368
3838.000000 0.3365 0.3363 0.3361 0.3359 0.3357
3843.000000 0.3354 0.3352 0.3350 0.3348 0.3346
3848.000000 0.3343 0.3341 0.3339 0.3337 0.3335
3853.000000 0.3332 0.3330 0.3328 0.3326 0.3324
3858.000000 0.3322 0.3320 0.3318 0.3316 0.3313
3863.000000 0.3311 0.3309 0.3307 0.3305 0.3303
3868.000000 0.3301 0.3299 0.3296 0.3294 0.3292
3873.000000 0.3290 0.3288 0.3286 0.3283 0.3281
3878.000000 0.3279 0.3277 0.3275 0.3273 0.3270
3883.000000 0.3268 0.3266 0.3264 0.3262 0.3260
3888.000000 0.3258 0.3255 0.3253 0.3251 0.3249
3893.000000 0.3247 0.3245 0.3243 0.3241 0.3239
3898.000000 0.3237 0.3235 0.3233 0.3231 0.3229
3903.000000 0.3226 0.3224 0.3222 0.3220 0.3218
3908.000000 0.3216 0.3214 0.3212 0.3209 0.3207
3913.000000 0.3205 0.3202 0.3200 0.3198 0.3195
3918.000000 0.3193 0.3190 0.3187 0.3184 0.3181
3923.000000 0.3178 0.3174 0.3171 0.3168 0.3165
3928.000000 0.3162 0.3158 0.3155 0.3152 0.3149
3933.000000 0.3145 0.3142 0.3139 0.3136 0.3133
3938.000000 0.3131 0.3130 0.3128 0.3127 0.3125
3943.000000 0.3124 0.3123 0.3122 0.3122 0.3121
3948.000000 0.3120 0.3120 0.3119 0.3119 0.3118
3953.000000 0.3118 0.3117 0.3117 0.3116 0.3116
3958.000000 0.3115 0.3114 0.3114 0.3113 0.3112
3963.000000 0.3112 0.3112 0.3111 0.3111 0.3110
3968.000000 0.3110 0.3109 0.3108 0.3108 0.3107
3973.000000 0.3106 0.3106 0.3105 0.3105 0.3104
3978.000000 0.3103 0.3103 0.3102 0.3101 0.3101
3983.000000 0.3101 0.3100 0.3100 0.3099 0.3099
3988.000000 0.3098 0.3097 0.3097 0.3096 0.3096
3993.000000 0.3095 0.3094 0.3094 0.3093 0.3093
3998.000000 0.3092 0.3092 0.3092
##END=
