##TITLE=Purine, 6-chloro-2-hydrazino-
##JCAMP-DX=4.24
##DATA TYPE=INFRARED SPECTRUM
##CLASS=COBLENTZ III
##ORIGIN=SOUTHERN RESEARCH INSTITUTE
##OWNER=Copyright (C) 1987 by the Coblentz Society
Collection (C) 2018 copyright by the U.S. Secretary of Commerce
on behalf of the United States of America. All rights reserved.
##DATE=1955/09/30
##NAMES=6-chloro-2-hydrazino-7H-purine
##MOLFORM=C5 H5 Cl N6
##SOURCE REFERENCE=COBLENTZ NO. 8237
##$NIST ID=B6008237
##$NIST SOURCE=COBLENTZ
##$NIST IMAGE=cob8237
##SPECTROMETER/DATA SYSTEM=PERKIN-ELMER 21 (GRATING)
##INSTRUMENT PARAMETERS=FILTER CHANGE ABOUT 1075 CM^-^1
##STATE=SOLID (0.9 mg / 655 mg KBr DISC)
##SAMPLING PROCEDURE=TRANSMISSION
##RESOLUTION=2
##DATA PROCESSING=DIGITIZED BY COBLENTZ SOCIETY (BATCH II) FROM HARD COPY (ADJUSTED \addcm-1\10-8-2\)
##XUNITS=1/CM
##YUNITS=TRANSMITTANCE
##XFACTOR=1.0
##YFACTOR=1
##DELTAX=1.004131
##FIRSTX=634.72
##LASTX=3862
##FIRSTY=0.6079
##MAXX=3862
##MINX=634.72
##MAXY=0.8407
##MINY=0.0774141
##NPOINTS=3215
##XYDATA=(X++(Y..Y))
634.720000 0.6079 0.6108 0.6136 0.6168 0.6204
639.740653 0.6240 0.6263 0.6278 0.6292 0.6307
644.761306 0.6322 0.6329 0.6332 0.6336 0.6333
649.781960 0.6328 0.6324 0.6319 0.6314 0.6300
654.802613 0.6265 0.6214 0.6080 0.5980 0.5920
659.823266 0.5856 0.5785 0.5711 0.5640 0.5576
664.843919 0.5515 0.5455 0.5400 0.5356 0.5316
669.864572 0.5283 0.5263 0.5254 0.5247 0.5241
674.885226 0.5242 0.5250 0.5257 0.5270 0.5294
679.905879 0.5336 0.5425 0.5596 0.5841 0.5844
684.926532 0.5838 0.5828 0.5809 0.5786 0.5761
689.947185 0.5740 0.5718 0.5698 0.5691 0.5687
694.967838 0.5690 0.5705 0.5729 0.5753 0.5777
699.988491 0.5803 0.5833 0.5864 0.5887 0.5909
705.009145 0.5931 0.5963 0.5996 0.6029 0.6060
710.029798 0.6091 0.6122 0.6155 0.6189 0.6222
715.050451 0.6256 0.6288 0.6322 0.6343 0.6356
720.071104 0.6367 0.6379 0.6388 0.6394 0.6398
725.091757 0.6402 0.6406 0.6411 0.6415 0.6419
730.112411 0.6421 0.6423 0.6425 0.6428 0.6439
735.133064 0.6443 0.6435 0.6436 0.6435 0.6434
740.153717 0.6432 0.6429 0.6425 0.6422 0.6418
745.174370 0.6415 0.6412 0.6406 0.6400 0.6394
750.195023 0.6388 0.6382 0.6376 0.6369 0.6361
755.215677 0.6350 0.6339 0.6327 0.6316 0.6304
760.236330 0.6289 0.6273 0.6257 0.6240 0.6213
765.256983 0.6174 0.6133 0.6090 0.6047 0.6005
770.277636 0.5961 0.5911 0.5861 0.5810 0.5760
775.298289 0.5671 0.5542 0.5405 0.5268 0.5132
780.318942 0.4996 0.4859 0.4722 0.4585 0.4448
785.339596 0.4393 0.4386 0.4492 0.4761 0.5093
790.360249 0.5424 0.5675 0.5760 0.5761 0.5759
795.380902 0.5756 0.5749 0.5734 0.5716 0.5696
800.401555 0.5674 0.5654 0.5634 0.5615 0.5595
805.422208 0.5577 0.5560 0.5544 0.5526 0.5506
810.442862 0.5496 0.5495 0.5498 0.5503 0.5503
815.463515 0.5507 0.5512 0.5517 0.5525 0.5538
820.484168 0.5550 0.5563 0.5579 0.5597 0.5614
825.504821 0.5632 0.5652 0.5675 0.5698 0.5722
830.525474 0.5749 0.5780 0.5810 0.5841 0.5876
835.546128 0.5919 0.5964 0.6003 0.6028 0.6051
840.566781 0.6074 0.6095 0.6108 0.6119 0.6129
845.587434 0.6135 0.6137 0.6139 0.6141 0.6142
850.608087 0.6143 0.6144 0.6142 0.6138 0.6141
855.628740 0.6136 0.6131 0.6126 0.6120 0.6115
860.649393 0.6110 0.6104 0.6097 0.6090 0.6083
865.670047 0.6076 0.6068 0.6061 0.6050 0.6039
870.690700 0.6028 0.6016 0.6002 0.5986 0.5971
875.711353 0.5955 0.5936 0.5908 0.5880 0.5851
880.732006 0.5821 0.5783 0.5736 0.5689 0.5643
885.752659 0.5595 0.5543 0.5486 0.5430 0.5374
890.773313 0.5312 0.5248 0.5185 0.5121 0.5055
895.793966 0.4984 0.4914 0.4843 0.4759 0.4605
900.814619 0.4438 0.4242 0.4097 0.3930 0.3738
905.835272 0.3546 0.3353 0.3160 0.2968 0.2776
910.855925 0.2584 0.2391 0.2199 0.2006 0.1814
915.876579 0.1621 0.1430 0.1248 0.1144 0.1119
920.897232 0.1099 0.1108 0.1121 0.1156 0.1232
925.917885 0.1355 0.1479 0.1601 0.1724 0.1848
930.938538 0.1970 0.2093 0.2217 0.2339 0.2462
935.959191 0.2586 0.2709 0.2831 0.2955 0.3078
940.979844 0.3200 0.3324 0.3447 0.3569 0.3693
946.000498 0.3815 0.3912 0.3978 0.4067 0.4180
951.021151 0.4214 0.4243 0.4272 0.4298 0.4325
956.041804 0.4371 0.4512 0.4589 0.5314 0.5462
961.062457 0.5542 0.5612 0.5679 0.5739 0.5799
966.083110 0.5851 0.5899 0.5945 0.5997 0.6051
971.103764 0.6104 0.6171 0.6250 0.6334 0.6386
976.124417 0.6425 0.6464 0.6503 0.6541 0.6582
981.145070 0.6623 0.6665 0.6707 0.6748 0.6789
986.165723 0.6824 0.6854 0.6883 0.6912 0.6941
991.186376 0.6970 0.7000 0.7028 0.7055 0.7079
996.207030 0.7104 0.7129 0.7153 0.7178 0.7202
1001.227683 0.7227 0.7252 0.7276 0.7301 0.7324
1006.248336 0.7343 0.7358 0.7374 0.7389 0.7403
1011.268989 0.7411 0.7415 0.7419 0.7423 0.7424
1016.289642 0.7424 0.7436 0.7420 0.7419 0.7418
1021.310295 0.7416 0.7413 0.7410 0.7407 0.7404
1026.330949 0.7402 0.7399 0.7395 0.7387 0.7379
1031.351602 0.7370 0.7362 0.7351 0.7339 0.7327
1036.372255 0.7314 0.7302 0.7289 0.7276 0.7261
1041.392908 0.7242 0.7222 0.7202 0.7181 0.7161
1046.413561 0.7138 0.7114 0.7091 0.7067 0.7043
1051.434215 0.7019 0.6994 0.6968 0.6942 0.6917
1056.454868 0.6891 0.6861 0.6821 0.6777 0.6733
1061.475521 0.6688 0.6643 0.6599 0.6553 0.6501
1066.496174 0.6441 0.6239 0.5683 0.5301 0.4918
1071.516827 0.4536 0.4185 0.4015 0.4024 0.4037
1076.537481 0.4059 0.4123 0.4244 0.4372 0.4464
1081.558134 0.4538 0.4793 0.5129 0.5466 0.5802
1086.578787 0.6137 0.6364 0.6387 0.6393 0.6394
1091.599440 0.6370 0.6386 0.6386 0.6380 0.6368
1096.620093 0.6356 0.6341 0.6316 0.6283 0.6247
1101.640747 0.6210 0.6172 0.6133 0.6094 0.6054
1106.661400 0.6013 0.5973 0.5931 0.5886 0.5841
1111.682053 0.5796 0.5749 0.5702 0.5654 0.5607
1116.702706 0.5553 0.5484 0.5406 0.5298 0.5154
1121.723359 0.5034 0.4944 0.4839 0.4716 0.4584
1126.744012 0.4439 0.4260 0.4049 0.3781 0.3423
1131.764666 0.3174 0.2866 0.2443 0.2281 0.2259
1136.785319 0.2250 0.2260 0.2249 0.2268 0.2349
1141.805972 0.2578 0.2699 0.2791 0.2951 0.3081
1146.826625 0.3305 0.3642 0.3978 0.4315 0.4652
1151.847278 0.4987 0.5335 0.5554 0.5646 0.5693
1156.867932 0.5694 0.5689 0.5697 0.5673 0.5654
1161.888585 0.5626 0.5596 0.5559 0.5508 0.5452
1166.909238 0.5395 0.5337 0.5279 0.5213 0.5140
1171.929891 0.5063 0.4981 0.4895 0.4802 0.4700
1176.950544 0.4589 0.4472 0.4355 0.4122 0.3609
1181.971198 0.3241 0.3206 0.3189 0.3183 0.3188
1186.991851 0.3244 0.3387 0.3581 0.3775 0.3969
1192.012504 0.4162 0.4356 0.4550 0.4744 0.4938
1197.033157 0.5132 0.5326 0.5520 0.5681 0.5700
1202.053810 0.5711 0.5722 0.5717 0.5710 0.5704
1207.074463 0.5694 0.5681 0.5650 0.5534 0.5413
1212.095117 0.5292 0.5171 0.5049 0.4928 0.4807
1217.115770 0.4686 0.4565 0.4444 0.4322 0.4204
1222.136423 0.4112 0.4051 0.3993 0.3934 0.3871
1227.157076 0.3795 0.3713 0.3607 0.3445 0.3292
1232.177729 0.3168 0.3075 0.2990 0.2906 0.2814
1237.198383 0.2685 0.2546 0.2432 0.2332 0.2240
1242.219036 0.2159 0.2102 0.1893 0.1309 0.1239
1247.239689 0.1217 0.1229 0.1223 0.1259 0.1522
1252.260342 0.2194 0.2866 0.3538 0.4209 0.4881
1257.280995 0.5491 0.5851 0.5968 0.6032 0.6085
1262.301649 0.6111 0.6128 0.6136 0.6142 0.6144
1267.322302 0.6146 0.6147 0.6148 0.6148 0.6147
1272.342955 0.6147 0.6147 0.6141 0.6137 0.6132
1277.363608 0.6128 0.6122 0.6111 0.6098 0.6082
1282.384261 0.6059 0.6027 0.5973 0.5899 0.5823
1287.404914 0.5740 0.5638 0.5531 0.5421 0.5304
1292.425568 0.5186 0.5068 0.4950 0.4833 0.4716
1297.446221 0.4598 0.4480 0.4362 0.4245 0.4139
1302.466874 0.4037 0.3840 0.3572 0.3481 0.3405
1307.487527 0.3346 0.3321 0.3325 0.3331 0.3332
1312.508180 0.3369 0.3407 0.3449 0.3505 0.3564
1317.528834 0.3621 0.3669 0.3713 0.3758 0.3798
1322.549487 0.3838 0.3882 0.3927 0.3982 0.4036
1327.570140 0.4082 0.4117 0.4150 0.4166 0.4166
1332.590793 0.4171 0.4095 0.4031 0.3964 0.3893
1337.611446 0.3817 0.3745 0.3701 0.3699 0.3697
1342.632100 0.3786 0.3926 0.4120 0.4270 0.4402
1347.652753 0.4495 0.4584 0.4656 0.4716 0.4760
1352.673406 0.4768 0.4773 0.4764 0.4752 0.4738
1357.694059 0.4721 0.4693 0.4658 0.4621 0.4583
1362.714712 0.4544 0.4502 0.4458 0.4408 0.4344
1367.735365 0.4158 0.3936 0.3698 0.3462 0.3224
1372.756019 0.2987 0.2750 0.2513 0.2275 0.2039
1377.776672 0.1802 0.1594 0.1564 0.1559 0.1571
1382.797325 0.1608 0.1692 0.1814 0.2187 0.2573
1387.817978 0.2958 0.3343 0.3713 0.3889 0.3938
1392.838631 0.3946 0.3955 0.3936 0.3930 0.3920
1397.859285 0.3906 0.3886 0.3865 0.3841 0.3815
1402.879938 0.3789 0.3763 0.3735 0.3702 0.3666
1407.900591 0.3624 0.3574 0.3466 0.3319 0.3156
1412.921244 0.3012 0.2824 0.2621 0.2418 0.2214
1417.941897 0.2010 0.1807 0.1603 0.1406 0.1349
1422.962551 0.1344 0.1346 0.1350 0.1329 0.1363
1427.983204 0.1377 0.1412 0.1467 0.1530 0.1610
1433.003857 0.1734 0.1835 0.1926 0.2263 0.2631
1438.024510 0.3056 0.3121 0.3152 0.3231 0.3458
1443.045163 0.3687 0.3915 0.4144 0.4371 0.4485
1448.065816 0.4532 0.4572 0.4608 0.4635 0.4662
1453.086470 0.4698 0.4759 0.5093 0.5306 0.5375
1458.107123 0.5414 0.5448 0.5465 0.5479 0.5479
1463.127776 0.5483 0.5478 0.5474 0.5470 0.5458
1468.148429 0.5441 0.5401 0.5360 0.5321 0.5282
1473.169082 0.5243 0.5188 0.5127 0.5065 0.4975
1478.189736 0.4881 0.4803 0.4694 0.4685 0.4685
1483.210389 0.4662 0.4691 0.4745 0.4817 0.4879
1488.231042 0.4967 0.5070 0.5125 0.5157 0.5169
1493.251695 0.5176 0.5183 0.5191 0.5205 0.5234
1498.272348 0.5268 0.5303 0.5347 0.5379 0.5406
1503.293002 0.5425 0.5438 0.5451 0.5455 0.5453
1508.313655 0.5452 0.5450 0.5445 0.5422 0.5396
1513.334308 0.5370 0.5338 0.5296 0.5235 0.5015
1518.354961 0.4960 0.4936 0.4927 0.4927 0.4932
1523.375614 0.4939 0.4956 0.4975 0.5003 0.5030
1528.396267 0.5054 0.5077 0.5089 0.5088 0.5084
1533.416921 0.5077 0.5068 0.5042 0.5010 0.4986
1538.437574 0.4967 0.4955 0.4949 0.4945 0.4928
1543.458227 0.4893 0.4852 0.4791 0.4683 0.4591
1548.478880 0.4535 0.4485 0.4436 0.4394 0.4352
1553.499533 0.4311 0.4277 0.4247 0.4236 0.4229
1558.520187 0.4222 0.4215 0.4203 0.4173 0.4127
1563.540840 0.4076 0.4007 0.3934 0.3862 0.3790
1568.561493 0.3713 0.3633 0.3554 0.3455 0.3338
1573.582146 0.3233 0.3136 0.2925 0.2751 0.2635
1578.602799 0.2548 0.2479 0.2422 0.2359 0.2268
1583.623453 0.2170 0.2072 0.1974 0.1876 0.1778
1588.644106 0.1679 0.1582 0.1496 0.1425 0.1366
1593.664759 0.1309 0.1246 0.1179 0.1103 0.1042
1598.685412 0.0997 0.0968 0.0961 0.0959 0.0959
1603.706065 0.0959 0.0966 0.0975 0.0986 0.0996
1608.726719 0.1007 0.1021 0.1040 0.1064 0.1097
1613.747372 0.1134 0.1172 0.1209 0.1247 0.1346
1618.768025 0.1451 0.1541 0.1634 0.1738 0.1837
1623.788678 0.1915 0.1987 0.2061 0.2158 0.2263
1628.809331 0.2400 0.2562 0.2677 0.2712 0.2718
1633.829984 0.2729 0.2722 0.2714 0.2706 0.2694
1638.850638 0.2678 0.2616 0.2524 0.2428 0.2331
1643.871291 0.2235 0.2139 0.2042 0.1945 0.1849
1648.891944 0.1753 0.1656 0.1560 0.1463 0.1367
1653.912597 0.1270 0.1174 0.1077 0.0981 0.0884
1658.933250 0.0817 0.0784 0.0776 0.0774 0.0779
1663.953904 0.0786 0.0793 0.0823 0.0882 0.0976
1668.974557 0.1052 0.1117 0.1167 0.1255 0.1429
1673.995210 0.1726 0.1952 0.2634 0.3372 0.3939
1679.015863 0.4139 0.4622 0.4784 0.4892 0.4962
1684.036516 0.5028 0.5137 0.5280 0.5505 0.5759
1689.057170 0.6071 0.6260 0.6417 0.6514 0.6567
1694.077823 0.6611 0.6652 0.6691 0.6752 0.6799
1699.098476 0.6834 0.6876 0.6922 0.6951 0.6979
1704.119129 0.7008 0.7036 0.7063 0.7091 0.7119
1709.139782 0.7147 0.7169 0.7189 0.7209 0.7229
1714.160435 0.7248 0.7265 0.7282 0.7299 0.7316
1719.181089 0.7334 0.7353 0.7372 0.7391 0.7408
1724.201742 0.7426 0.7444 0.7462 0.7479 0.7498
1729.222395 0.7520 0.7541 0.7561 0.7581 0.7597
1734.243048 0.7608 0.7620 0.7631 0.7643 0.7655
1739.263701 0.7666 0.7678 0.7689 0.7700 0.7712
1744.284355 0.7724 0.7735 0.7747 0.7759 0.7771
1749.305008 0.7783 0.7795 0.7807 0.7819 0.7831
1754.325661 0.7843 0.7855 0.7867 0.7879 0.7892
1759.346314 0.7904 0.7916 0.7926 0.7937 0.7947
1764.366967 0.7958 0.7969 0.7979 0.7990 0.8000
1769.387621 0.8011 0.8021 0.8032 0.8043 0.8053
1774.408274 0.8064 0.8075 0.8085 0.8095 0.8105
1779.428927 0.8112 0.8120 0.8127 0.8135 0.8141
1784.449580 0.8145 0.8149 0.8153 0.8158 0.8162
1789.470233 0.8168 0.8168 0.8167 0.8167 0.8166
1794.490886 0.8166 0.8164 0.8162 0.8159 0.8156
1799.511540 0.8150 0.8138 0.8126 0.8113 0.8100
1804.532193 0.8084 0.8067 0.8047 0.8021 0.7997
1809.552846 0.7980 0.7967 0.7955 0.7952 0.7951
1814.573499 0.7950 0.7952 0.7960 0.7966 0.7975
1819.594152 0.7985 0.7996 0.8008 0.8021 0.8034
1824.614806 0.8048 0.8066 0.8084 0.8101 0.8117
1829.635459 0.8132 0.8147 0.8160 0.8169 0.8179
1834.656112 0.8188 0.8197 0.8205 0.8213 0.8220
1839.676765 0.8228 0.8235 0.8243 0.8250 0.8258
1844.697418 0.8264 0.8268 0.8272 0.8276 0.8281
1849.718072 0.8285 0.8289 0.8294 0.8298 0.8303
1854.738725 0.8307 0.8312 0.8316 0.8321 0.8325
1859.759378 0.8329 0.8332 0.8336 0.8339 0.8343
1864.780031 0.8346 0.8350 0.8353 0.8357 0.8360
1869.800684 0.8363 0.8366 0.8368 0.8370 0.8373
1874.821337 0.8375 0.8378 0.8380 0.8383 0.8385
1879.841991 0.8388 0.8390 0.8391 0.8392 0.8392
1884.862644 0.8393 0.8393 0.8394 0.8394 0.8395
1889.883297 0.8395 0.8396 0.8397 0.8397 0.8398
1894.903950 0.8398 0.8399 0.8399 0.8400 0.8400
1899.924603 0.8401 0.8401 0.8402 0.8403 0.8403
1904.945257 0.8404 0.8404 0.8405 0.8405 0.8406
1909.965910 0.8406 0.8407 0.8407 0.8407 0.8407
1914.986563 0.8407 0.8407 0.8407 0.8407 0.8407
1920.007216 0.8407 0.8407 0.8407 0.8407 0.8407
1925.027869 0.8407 0.8407 0.8407 0.8407 0.8407
1930.048523 0.8406 0.8406 0.8406 0.8406 0.8405
1935.069176 0.8405 0.8405 0.8405 0.8404 0.8404
1940.089829 0.8404 0.8403 0.8402 0.8400 0.8398
1945.110482 0.8396 0.8394 0.8392 0.8390 0.8389
1950.131135 0.8387 0.8385 0.8383 0.8381 0.8379
1955.151788 0.8377 0.8375 0.8374 0.8372 0.8370
1960.172442 0.8368 0.8366 0.8364 0.8362 0.8361
1965.193095 0.8358 0.8355 0.8351 0.8348 0.8345
1970.213748 0.8341 0.8338 0.8334 0.8331 0.8327
1975.234401 0.8324 0.8320 0.8317 0.8315 0.8314
1980.255054 0.8313 0.8313 0.8312 0.8311 0.8311
1985.275708 0.8310 0.8310 0.8310 0.8310 0.8311
1990.296361 0.8312 0.8313 0.8314 0.8315 0.8317
1995.317014 0.8318 0.8319 0.8320 0.8321 0.8322
2000.337667 0.8323 0.8324 0.8325 0.8326 0.8327
2005.358320 0.8328 0.8330 0.8331 0.8332 0.8333
2010.378974 0.8335 0.8336 0.8337 0.8338 0.8338
2015.399627 0.8339 0.8340 0.8341 0.8341 0.8342
2020.420280 0.8343 0.8343 0.8343 0.8344 0.8344
2025.440933 0.8344 0.8345 0.8345 0.8345 0.8345
2030.461586 0.8346 0.8346 0.8346 0.8347 0.8346
2035.482240 0.8345 0.8345 0.8344 0.8343 0.8342
2040.502893 0.8341 0.8341 0.8340 0.8340 0.8340
2045.523546 0.8339 0.8339 0.8339 0.8338 0.8337
2050.544199 0.8336 0.8335 0.8333 0.8332 0.8331
2055.564852 0.8330 0.8329 0.8327 0.8326 0.8325
2060.585505 0.8324 0.8323 0.8322 0.8321 0.8320
2065.606159 0.8319 0.8318 0.8318 0.8317 0.8317
2070.626812 0.8317 0.8317 0.8317 0.8317 0.8317
2075.647465 0.8317 0.8316 0.8316 0.8316 0.8316
2080.668118 0.8316 0.8315 0.8314 0.8313 0.8312
2085.688771 0.8310 0.8309 0.8308 0.8307 0.8305
2090.709425 0.8304 0.8303 0.8302 0.8301 0.8299
2095.730078 0.8298 0.8296 0.8295 0.8293 0.8292
2100.750731 0.8290 0.8289 0.8287 0.8286 0.8284
2105.771384 0.8283 0.8281 0.8280 0.8277 0.8275
2110.792037 0.8273 0.8271 0.8269 0.8267 0.8264
2115.812691 0.8262 0.8260 0.8258 0.8256 0.8254
2120.833344 0.8252 0.8249 0.8247 0.8245 0.8243
2125.853997 0.8241 0.8239 0.8236 0.8234 0.8233
2130.874650 0.8231 0.8229 0.8228 0.8226 0.8225
2135.895303 0.8223 0.8221 0.8220 0.8218 0.8216
2140.915956 0.8215 0.8213 0.8211 0.8210 0.8208
2145.936610 0.8207 0.8205 0.8203 0.8202 0.8200
2150.957263 0.8198 0.8197 0.8195 0.8194 0.8192
2155.977916 0.8191 0.8189 0.8188 0.8186 0.8184
2160.998569 0.8183 0.8181 0.8179 0.8177 0.8175
2166.019222 0.8173 0.8171 0.8169 0.8168 0.8166
2171.039876 0.8164 0.8162 0.8160 0.8158 0.8156
2176.060529 0.8155 0.8153 0.8152 0.8150 0.8148
2181.081182 0.8147 0.8145 0.8143 0.8137 0.8131
2186.101835 0.8126 0.8120 0.8114 0.8109 0.8104
2191.122488 0.8099 0.8095 0.8090 0.8086 0.8083
2196.143142 0.8082 0.8080 0.8079 0.8077 0.8076
2201.163795 0.8074 0.8073 0.8071 0.8070 0.8068
2206.184448 0.8067 0.8066 0.8064 0.8063 0.8061
2211.205101 0.8059 0.8057 0.8055 0.8053 0.8051
2216.225754 0.8049 0.8047 0.8044 0.8042 0.8040
2221.246407 0.8037 0.8034 0.8032 0.8029 0.8026
2226.267061 0.8023 0.8020 0.8018 0.8015 0.8013
2231.287714 0.8012 0.8014 0.8016 0.8018 0.8020
2236.308367 0.8022 0.8024 0.8026 0.8028 0.8030
2241.329020 0.8032 0.8033 0.8034 0.8034 0.8034
2246.349673 0.8035 0.8035 0.8035 0.8035 0.8036
2251.370327 0.8035 0.8033 0.8032 0.8030 0.8028
2256.390980 0.8026 0.8025 0.8023 0.8021 0.8020
2261.411633 0.8018 0.8016 0.8014 0.8010 0.8007
2266.432286 0.8003 0.8000 0.7997 0.7993 0.7990
2271.452939 0.7986 0.7983 0.7980 0.7976 0.7973
2276.473593 0.7969 0.7966 0.7963 0.7959 0.7955
2281.494246 0.7952 0.7949 0.7945 0.7940 0.7936
2286.514899 0.7932 0.7927 0.7923 0.7919 0.7914
2291.535552 0.7910 0.7906 0.7901 0.7897 0.7892
2296.556205 0.7888 0.7884 0.7879 0.7875 0.7871
2301.576858 0.7866 0.7862 0.7858 0.7853 0.7849
2306.597512 0.7845 0.7839 0.7833 0.7827 0.7821
2311.618165 0.7815 0.7809 0.7803 0.7797 0.7791
2316.638818 0.7785 0.7781 0.7778 0.7776 0.7773
2321.659471 0.7770 0.7768 0.7768 0.7767 0.7767
2326.680124 0.7767 0.7766 0.7766 0.7766 0.7765
2331.700778 0.7765 0.7765 0.7765 0.7764 0.7764
2336.721431 0.7764 0.7765 0.7766 0.7767 0.7768
2341.742084 0.7769 0.7769 0.7770 0.7771 0.7772
2346.762737 0.7773 0.7774 0.7775 0.7776 0.7776
2351.783390 0.7777 0.7778 0.7779 0.7780 0.7781
2356.804044 0.7781 0.7779 0.7775 0.7772 0.7768
2361.824697 0.7764 0.7760 0.7756 0.7753 0.7749
2366.845350 0.7746 0.7743 0.7740 0.7737 0.7734
2371.866003 0.7732 0.7730 0.7728 0.7725 0.7723
2376.886656 0.7721 0.7718 0.7715 0.7709 0.7704
2381.907309 0.7698 0.7692 0.7687 0.7681 0.7676
2386.927963 0.7668 0.7656 0.7643 0.7632 0.7629
2391.948616 0.7628 0.7628 0.7628 0.7628 0.7628
2396.969269 0.7628 0.7628 0.7627 0.7628 0.7629
2401.989922 0.7630 0.7630 0.7631 0.7632 0.7633
2407.010575 0.7634 0.7633 0.7631 0.7630 0.7629
2412.031229 0.7627 0.7626 0.7625 0.7624 0.7622
2417.051882 0.7620 0.7618 0.7617 0.7615 0.7613
2422.072535 0.7611 0.7609 0.7609 0.7608 0.7606
2427.093188 0.7599 0.7592 0.7585 0.7577 0.7570
2432.113841 0.7563 0.7555 0.7543 0.7531 0.7518
2437.134495 0.7504 0.7490 0.7476 0.7462 0.7448
2442.155148 0.7436 0.7426 0.7416 0.7407 0.7398
2447.175801 0.7388 0.7379 0.7369 0.7360 0.7350
2452.196454 0.7341 0.7332 0.7322 0.7313 0.7303
2457.217107 0.7294 0.7286 0.7278 0.7269 0.7261
2462.237760 0.7252 0.7244 0.7236 0.7228 0.7222
2467.258414 0.7218 0.7215 0.7211 0.7207 0.7203
2472.279067 0.7200 0.7196 0.7192 0.7188 0.7185
2477.299720 0.7181 0.7176 0.7172 0.7168 0.7164
2482.320373 0.7160 0.7155 0.7150 0.7146 0.7142
2487.341026 0.7139 0.7135 0.7132 0.7128 0.7125
2492.361680 0.7121 0.7118 0.7114 0.7109 0.7105
2497.382333 0.7101 0.7096 0.7092 0.7088 0.7083
2502.402986 0.7077 0.7070 0.7064 0.7057 0.7050
2507.423639 0.7043 0.7037 0.7030 0.7025 0.7019
2512.444292 0.7014 0.7008 0.7002 0.6997 0.6991
2517.464946 0.6986 0.6980 0.6975 0.6969 0.6963
2522.485599 0.6958 0.6954 0.6949 0.6945 0.6940
2527.506252 0.6936 0.6931 0.6927 0.6922 0.6918
2532.526905 0.6913 0.6909 0.6905 0.6902 0.6899
2537.547558 0.6896 0.6893 0.6890 0.6887 0.6884
2542.568212 0.6881 0.6878 0.6875 0.6873 0.6870
2547.588865 0.6868 0.6866 0.6864 0.6861 0.6860
2552.609518 0.6860 0.6860 0.6860 0.6859 0.6859
2557.630171 0.6859 0.6859 0.6857 0.6854 0.6850
2562.650824 0.6845 0.6839 0.6833 0.6828 0.6822
2567.671477 0.6815 0.6808 0.6801 0.6794 0.6787
2572.692131 0.6780 0.6773 0.6766 0.6759 0.6752
2577.712784 0.6745 0.6738 0.6732 0.6725 0.6718
2582.733437 0.6711 0.6704 0.6697 0.6690 0.6683
2587.754090 0.6677 0.6670 0.6663 0.6656 0.6649
2592.774743 0.6643 0.6636 0.6629 0.6623 0.6616
2597.795397 0.6610 0.6603 0.6597 0.6590 0.6583
2602.816050 0.6577 0.6570 0.6564 0.6557 0.6550
2607.836703 0.6544 0.6537 0.6531 0.6524 0.6518
2612.857356 0.6511 0.6505 0.6498 0.6492 0.6485
2617.878009 0.6479 0.6473 0.6466 0.6460 0.6454
2622.898663 0.6447 0.6441 0.6434 0.6428 0.6422
2627.919316 0.6415 0.6409 0.6403 0.6397 0.6390
2632.939969 0.6384 0.6378 0.6372 0.6365 0.6359
2637.960622 0.6352 0.6346 0.6339 0.6333 0.6327
2642.981275 0.6320 0.6313 0.6306 0.6299 0.6292
2648.001928 0.6285 0.6278 0.6271 0.6263 0.6255
2653.022582 0.6246 0.6238 0.6229 0.6221 0.6212
2658.043235 0.6204 0.6195 0.6187 0.6178 0.6170
2663.063888 0.6161 0.6152 0.6144 0.6135 0.6127
2668.084541 0.6118 0.6110 0.6101 0.6093 0.6084
2673.105194 0.6076 0.6067 0.6059 0.6050 0.6042
2678.125848 0.6033 0.6025 0.6016 0.6008 0.5999
2683.146501 0.5991 0.5982 0.5974 0.5965 0.5957
2688.167154 0.5948 0.5940 0.5930 0.5921 0.5911
2693.187807 0.5901 0.5891 0.5881 0.5872 0.5862
2698.208460 0.5852 0.5842 0.5833 0.5823 0.5813
2703.229114 0.5803 0.5794 0.5785 0.5776 0.5767
2708.249767 0.5758 0.5749 0.5740 0.5731 0.5723
2713.270420 0.5716 0.5710 0.5705 0.5700 0.5695
2718.291073 0.5692 0.5683 0.5669 0.5654 0.5639
2723.311726 0.5621 0.5603 0.5584 0.5566 0.5548
2728.332379 0.5531 0.5512 0.5493 0.5473 0.5453
2733.353033 0.5434 0.5414 0.5394 0.5373 0.5348
2738.373686 0.5322 0.5296 0.5270 0.5244 0.5220
2743.394339 0.5195 0.5171 0.5149 0.5129 0.5109
2748.414992 0.5089 0.5070 0.5049 0.5029 0.5009
2753.435645 0.4990 0.4967 0.4938 0.4907 0.4876
2758.456299 0.4845 0.4814 0.4782 0.4747 0.4710
2763.476952 0.4673 0.4637 0.4605 0.4580 0.4557
2768.497605 0.4534 0.4511 0.4488 0.4465 0.4438
2773.518258 0.4404 0.4370 0.4349 0.4336 0.4323
2778.538911 0.4310 0.4300 0.4292 0.4283 0.4275
2783.559565 0.4266 0.4258 0.4249 0.4240 0.4230
2788.580218 0.4220 0.4209 0.4198 0.4188 0.4177
2793.600871 0.4169 0.4163 0.4158 0.4153 0.4148
2798.621524 0.4143 0.4138 0.4133 0.4128 0.4127
2803.642177 0.4127 0.4138 0.4133 0.4126 0.4126
2808.662830 0.4126 0.4126 0.4125 0.4124 0.4124
2813.683484 0.4123 0.4122 0.4121 0.4120 0.4120
2818.704137 0.4119 0.4119 0.4118 0.4117 0.4116
2823.724790 0.4113 0.4110 0.4106 0.4103 0.4100
2828.745443 0.4092 0.4084 0.4076 0.4067 0.4059
2833.766096 0.4051 0.4041 0.4030 0.4018 0.4006
2838.786750 0.3994 0.3983 0.3970 0.3958 0.3946
2843.807403 0.3935 0.3923 0.3910 0.3896 0.3881
2848.828056 0.3865 0.3850 0.3832 0.3814 0.3795
2853.848709 0.3776 0.3758 0.3739 0.3720 0.3702
2858.869362 0.3684 0.3667 0.3650 0.3632 0.3616
2863.890016 0.3604 0.3593 0.3582 0.3571 0.3561
2868.910669 0.3550 0.3539 0.3528 0.3518 0.3509
2873.931322 0.3500 0.3490 0.3481 0.3471 0.3461
2878.951975 0.3451 0.3442 0.3433 0.3424 0.3415
2883.972628 0.3406 0.3397 0.3387 0.3378 0.3369
2888.993281 0.3360 0.3350 0.3338 0.3326 0.3315
2894.013935 0.3303 0.3291 0.3280 0.3268 0.3256
2899.034588 0.3243 0.3230 0.3216 0.3203 0.3190
2904.055241 0.3177 0.3164 0.3151 0.3138 0.3124
2909.075894 0.3110 0.3095 0.3081 0.3067 0.3053
2914.096547 0.3038 0.3024 0.3009 0.2994 0.2980
2919.117201 0.2964 0.2948 0.2932 0.2915 0.2899
2924.137854 0.2883 0.2867 0.2851 0.2835 0.2819
2929.158507 0.2806 0.2793 0.2780 0.2767 0.2753
2934.179160 0.2740 0.2727 0.2714 0.2700 0.2686
2939.199813 0.2673 0.2660 0.2647 0.2634 0.2622
2944.220467 0.2610 0.2598 0.2586 0.2574 0.2562
2949.241120 0.2550 0.2538 0.2526 0.2514 0.2502
2954.261773 0.2490 0.2478 0.2466 0.2453 0.2441
2959.282426 0.2429 0.2417 0.2405 0.2392 0.2380
2964.303079 0.2367 0.2355 0.2343 0.2331 0.2319
2969.323733 0.2308 0.2298 0.2288 0.2279 0.2269
2974.344386 0.2259 0.2249 0.2238 0.2228 0.2218
2979.365039 0.2209 0.2199 0.2189 0.2179 0.2169
2984.385692 0.2159 0.2149 0.2139 0.2129 0.2117
2989.406345 0.2106 0.2094 0.2083 0.2072 0.2060
2994.426998 0.2049 0.2038 0.2027 0.2015 0.2004
2999.447652 0.1993 0.1982 0.1970 0.1960 0.1950
3004.468305 0.1940 0.1931 0.1921 0.1911 0.1901
3009.488958 0.1892 0.1882 0.1872 0.1862 0.1852
3014.509611 0.1845 0.1839 0.1832 0.1826 0.1820
3019.530264 0.1814 0.1807 0.1801 0.1796 0.1792
3024.550918 0.1788 0.1785 0.1781 0.1778 0.1774
3029.571571 0.1771 0.1767 0.1763 0.1760 0.1756
3034.592224 0.1753 0.1749 0.1745 0.1741 0.1738
3039.612877 0.1734 0.1730 0.1726 0.1722 0.1718
3044.633530 0.1714 0.1710 0.1706 0.1702 0.1698
3049.654184 0.1694 0.1690 0.1685 0.1681 0.1676
3054.674837 0.1672 0.1667 0.1662 0.1658 0.1653
3059.695490 0.1649 0.1644 0.1639 0.1635 0.1630
3064.716143 0.1626 0.1622 0.1619 0.1615 0.1612
3069.736796 0.1609 0.1605 0.1602 0.1599 0.1595
3074.757449 0.1593 0.1593 0.1592 0.1592 0.1591
3079.778103 0.1591 0.1590 0.1590 0.1589 0.1590
3084.798756 0.1592 0.1594 0.1597 0.1599 0.1602
3089.819409 0.1604 0.1607 0.1610 0.1613 0.1617
3094.840062 0.1620 0.1623 0.1626 0.1630 0.1635
3099.860715 0.1639 0.1643 0.1647 0.1652 0.1657
3104.881369 0.1661 0.1668 0.1675 0.1683 0.1693
3109.902022 0.1702 0.1712 0.1721 0.1728 0.1736
3114.922675 0.1743 0.1751 0.1759 0.1765 0.1770
3119.943328 0.1776 0.1781 0.1786 0.1792 0.1793
3124.963981 0.1792 0.1791 0.1791 0.1789 0.1786
3129.984635 0.1783 0.1780 0.1777 0.1772 0.1766
3135.005288 0.1760 0.1754 0.1748 0.1742 0.1740
3140.025941 0.1738 0.1737 0.1735 0.1733 0.1731
3145.046594 0.1729 0.1727 0.1723 0.1719 0.1715
3150.067247 0.1711 0.1712 0.1716 0.1719 0.1723
3155.087900 0.1726 0.1730 0.1733 0.1737 0.1740
3160.108554 0.1744 0.1747 0.1750 0.1754 0.1758
3165.129207 0.1766 0.1775 0.1785 0.1795 0.1806
3170.149860 0.1817 0.1827 0.1837 0.1847 0.1857
3175.170513 0.1868 0.1879 0.1890 0.1902 0.1913
3180.191166 0.1925 0.1936 0.1948 0.1959 0.1971
3185.211820 0.1988 0.2005 0.2022 0.2040 0.2057
3190.232473 0.2077 0.2097 0.2117 0.2137 0.2156
3195.253126 0.2179 0.2203 0.2227 0.2251 0.2275
3200.273779 0.2298 0.2320 0.2341 0.2363 0.2385
3205.294432 0.2409 0.2436 0.2462 0.2489 0.2516
3210.315086 0.2544 0.2571 0.2599 0.2627 0.2655
3215.335739 0.2683 0.2712 0.2740 0.2769 0.2802
3220.356392 0.2834 0.2867 0.2900 0.2931 0.2961
3225.377045 0.2987 0.3013 0.3039 0.3065 0.3091
3230.397698 0.3117 0.3144 0.3173 0.3202 0.3231
3235.418351 0.3260 0.3291 0.3326 0.3362 0.3401
3240.439005 0.3450 0.3504 0.3559 0.3618 0.3678
3245.459658 0.3736 0.3793 0.3841 0.3872 0.3892
3250.480311 0.3907 0.3921 0.3936 0.3956 0.3984
3255.500964 0.4016 0.4063 0.4110 0.4142 0.4174
3260.521617 0.4206 0.4239 0.4272 0.4302 0.4325
3265.542271 0.4345 0.4365 0.4385 0.4405 0.4422
3270.562924 0.4438 0.4454 0.4471 0.4487 0.4503
3275.583577 0.4517 0.4528 0.4540 0.4552 0.4563
3280.604230 0.4573 0.4581 0.4589 0.4597 0.4604
3285.624883 0.4611 0.4617 0.4622 0.4627 0.4632
3290.645537 0.4637 0.4637 0.4635 0.4645 0.4636
3295.666190 0.4628 0.4625 0.4618 0.4610 0.4601
3300.686843 0.4592 0.4582 0.4571 0.4560 0.4548
3305.707496 0.4537 0.4525 0.4513 0.4497 0.4482
3310.728149 0.4466 0.4451 0.4435 0.4418 0.4400
3315.748802 0.4381 0.4362 0.4344 0.4325 0.4307
3320.769456 0.4290 0.4273 0.4256 0.4239 0.4222
3325.790109 0.4206 0.4189 0.4179 0.4173 0.4174
3330.810762 0.4169 0.4175 0.4182 0.4194 0.4208
3335.831415 0.4230 0.4254 0.4294 0.4337 0.4413
3340.852068 0.4492 0.4555 0.4599 0.4641 0.4690
3345.872722 0.4740 0.4792 0.4878 0.4958 0.5024
3350.893375 0.5087 0.5149 0.5210 0.5255 0.5294
3355.914028 0.5331 0.5365 0.5399 0.5434 0.5471
3360.934681 0.5507 0.5541 0.5565 0.5588 0.5606
3365.955334 0.5619 0.5632 0.5646 0.5660 0.5669
3370.975988 0.5677 0.5686 0.5695 0.5704 0.5713
3375.996641 0.5722 0.5731 0.5740 0.5749 0.5755
3381.017294 0.5762 0.5768 0.5774 0.5781 0.5787
3386.037947 0.5793 0.5800 0.5806 0.5812 0.5819
3391.058600 0.5825 0.5831 0.5838 0.5844 0.5850
3396.079253 0.5857 0.5864 0.5870 0.5876 0.5882
3401.099907 0.5888 0.5894 0.5901 0.5907 0.5913
3406.120560 0.5920 0.5928 0.5936 0.5944 0.5952
3411.141213 0.5959 0.5967 0.5975 0.5983 0.5991
3416.161866 0.5998 0.6006 0.6014 0.6023 0.6033
3421.182519 0.6042 0.6052 0.6061 0.6071 0.6080
3426.203173 0.6089 0.6097 0.6104 0.6112 0.6120
3431.223826 0.6128 0.6136 0.6143 0.6151 0.6160
3436.244479 0.6169 0.6179 0.6188 0.6195 0.6202
3441.265132 0.6208 0.6213 0.6216 0.6219 0.6222
3446.285785 0.6225 0.6231 0.6239 0.6248 0.6257
3451.306439 0.6270 0.6286 0.6302 0.6318 0.6333
3456.327092 0.6349 0.6364 0.6379 0.6394 0.6407
3461.347745 0.6419 0.6431 0.6442 0.6451 0.6459
3466.368398 0.6468 0.6477 0.6486 0.6495 0.6504
3471.389051 0.6513 0.6522 0.6531 0.6540 0.6549
3476.409705 0.6558 0.6565 0.6571 0.6577 0.6582
3481.430358 0.6587 0.6592 0.6597 0.6602 0.6608
3486.451011 0.6616 0.6625 0.6634 0.6643 0.6652
3491.471664 0.6661 0.6671 0.6684 0.6702 0.6719
3496.492317 0.6736 0.6754 0.6772 0.6789 0.6806
3501.512970 0.6823 0.6838 0.6849 0.6857 0.6866
3506.533624 0.6874 0.6882 0.6889 0.6894 0.6899
3511.554277 0.6905 0.6910 0.6915 0.6920 0.6924
3516.574930 0.6929 0.6934 0.6939 0.6943 0.6948
3521.595583 0.6953 0.6958 0.6962 0.6968 0.6973
3526.616236 0.6979 0.6984 0.6990 0.6996 0.7001
3531.636890 0.7007 0.7014 0.7023 0.7034 0.7045
3536.657543 0.7055 0.7066 0.7076 0.7088 0.7101
3541.678196 0.7114 0.7127 0.7140 0.7153 0.7166
3546.698849 0.7179 0.7192 0.7205 0.7218 0.7231
3551.719502 0.7244 0.7257 0.7270 0.7284 0.7297
3556.740156 0.7309 0.7322 0.7332 0.7341 0.7350
3561.760809 0.7359 0.7367 0.7376 0.7385 0.7393
3566.781462 0.7401 0.7408 0.7415 0.7421 0.7427
3571.802115 0.7434 0.7441 0.7451 0.7461 0.7471
3576.822768 0.7481 0.7491 0.7501 0.7513 0.7525
3581.843421 0.7537 0.7550 0.7562 0.7574 0.7587
3586.864075 0.7599 0.7611 0.7624 0.7637 0.7650
3591.884728 0.7662 0.7676 0.7689 0.7702 0.7714
3596.905381 0.7723 0.7732 0.7740 0.7749 0.7758
3601.926034 0.7767 0.7774 0.7777 0.7779 0.7782
3606.946687 0.7784 0.7786 0.7789 0.7791 0.7796
3611.967341 0.7801 0.7806 0.7811 0.7816 0.7821
3616.987994 0.7829 0.7845 0.7860 0.7876 0.7891
3622.008647 0.7901 0.7912 0.7922 0.7930 0.7930
3627.029300 0.7930 0.7931 0.7931 0.7931 0.7931
3632.049953 0.7930 0.7930 0.7929 0.7928 0.7928
3637.070607 0.7927 0.7926 0.7926 0.7926 0.7927
3642.091260 0.7928 0.7928 0.7929 0.7929 0.7930
3647.111913 0.7931 0.7931 0.7932 0.7932 0.7933
3652.132566 0.7934 0.7937 0.7939 0.7941 0.7943
3657.153219 0.7945 0.7948 0.7950 0.7952 0.7955
3662.173872 0.7957 0.7959 0.7961 0.7964 0.7966
3667.194526 0.7968 0.7970 0.7970 0.7971 0.7972
3672.215179 0.7972 0.7973 0.7974 0.7975 0.7975
3677.235832 0.7976 0.7977 0.7977 0.7978 0.7979
3682.256485 0.7980 0.7980 0.7981 0.7982 0.7984
3687.277138 0.7985 0.7987 0.7989 0.7991 0.7993
3692.297792 0.7995 0.7996 0.7998 0.8000 0.8002
3697.318445 0.8004 0.8006 0.8008 0.8009 0.8011
3702.339098 0.8013 0.8015 0.8017 0.8019 0.8022
3707.359751 0.8024 0.8026 0.8028 0.8030 0.8033
3712.380404 0.8035 0.8037 0.8039 0.8041 0.8043
3717.401058 0.8046 0.8048 0.8050 0.8052 0.8055
3722.421711 0.8057 0.8059 0.8061 0.8064 0.8066
3727.442364 0.8068 0.8071 0.8073 0.8075 0.8078
3732.463017 0.8080 0.8082 0.8084 0.8087 0.8089
3737.483670 0.8090 0.8091 0.8090 0.8088 0.8087
3742.504323 0.8086 0.8085 0.8084 0.8083 0.8082
3747.524977 0.8080 0.8079 0.8078 0.8077 0.8076
3752.545630 0.8075 0.8074 0.8073 0.8072 0.8070
3757.566283 0.8067 0.8065 0.8063 0.8060 0.8058
3762.586936 0.8056 0.8053 0.8051 0.8049 0.8046
3767.607589 0.8044 0.8042 0.8040 0.8038 0.8037
3772.628243 0.8035 0.8034 0.8032 0.8029 0.8028
3777.648896 0.8028 0.8027 0.8025 0.8024 0.8022
3782.669549 0.8021 0.8019 0.8018 0.8015 0.8013
3787.690202 0.8010 0.8008 0.8005 0.8002 0.8000
3792.710855 0.7997 0.7995 0.7992 0.7989 0.7987
3797.731509 0.7984 0.7982 0.7978 0.7974 0.7969
3802.752162 0.7964 0.7959 0.7954 0.7949 0.7944
3807.772815 0.7939 0.7937 0.7936 0.7935 0.7934
3812.793468 0.7933 0.7932 0.7931 0.7931 0.7930
3817.814121 0.7929 0.7929 0.7928 0.7927 0.7927
3822.834774 0.7926 0.7926 0.7926 0.7926 0.7926
3827.855428 0.7926 0.7925 0.7925 0.7925 0.7925
3832.876081 0.7925 0.7925 0.7926 0.7926 0.7927
3837.896734 0.7928 0.7928 0.7929 0.7930 0.7930
3842.917387 0.7931 0.7932 0.7931 0.7931 0.7930
3847.938040 0.7930 0.7930 0.7929 0.7929 0.7929
3852.958694 0.7928 0.7928 0.7927 0.7927 0.7927
3857.979347 0.7926 0.7926 0.7926 0.7925 0.7925
##END=
