##TITLE=3',3''-DICHLOROPHENOL SULFONEPHTHALEIN MONO SODIUM SALT
$$ E.K. (W.L.) NO. 6349
##JCAMP-DX=4.24
##DATA TYPE=INFRARED SPECTRUM
##CLASS=COBLENTZ
##ORIGIN=WYANDOTTE CHEMICALS CORP., WYANDOTTE, MICHIGAN, USA
##OWNER=COBLENTZ SOCIETY
Collection (C) 2018 copyright by the U.S. Secretary of Commerce
on behalf of the United States of America. All rights reserved.
##DATE=Not specified, most likely prior to 1970
##MOLFORM=C19 H11 Cl2 O5 S Na
##SOURCE REFERENCE=COBLENTZ NO. 230
##$NIST ID=B6000230
##$NIST SOURCE=COBLENTZ
##$NIST IMAGE=cob230
##SPECTROMETER/DATA SYSTEM=Not specified, most likely a prism, grating, or hybrid spectrometer.
##STATE=SOLID (MULL)
##SAMPLING PROCEDURE=TRANSMISSION
##RESOLUTION=4
##DATA PROCESSING=DIGITIZED BY NIST FROM HARD COPY
##XUNITS=MICROMETERS
##YUNITS=TRANSMITTANCE
##XFACTOR=1.000000
##YFACTOR=1
##DELTAX=000.006481
##FIRSTX=2.006
##LASTX=16.004
##FIRSTY=0.333
##MAXX=16.004
##MINX=2.006
##MAXY=0.943
##MINY=0.03
##NPOINTS=2161
##XYDATA=(X++(Y..Y))
2.006000 0.3330 0.3320 0.3290 0.3290 0.3290
2.038418 0.3290 0.3270 0.3270 0.3270 0.3270
2.071000 0.3250 0.3240 0.3250 0.3250 0.3250
2.103418 0.3250 0.3250 0.3250 0.3240 0.3220
2.136000 0.3220 0.3200 0.3200 0.3220 0.3220
2.168418 0.3240 0.3250 0.3250 0.3250 0.3250
2.201000 0.3250 0.3250 0.3270 0.3270 0.3270
2.233418 0.3270 0.3270 0.3270 0.3270 0.3270
2.266000 0.3270 0.3270 0.3270 0.3270 0.3270
2.298418 0.3270 0.3270 0.3270 0.3270 0.3290
2.331000 0.3330 0.3330 0.3350 0.3350 0.3370
2.363418 0.3380 0.3410 0.3410 0.3430 0.3430
2.395000 0.3460 0.3500 0.3510 0.3530 0.3540
2.427418 0.3560 0.3580 0.3580 0.3590 0.3590
2.460000 0.3610 0.3630 0.3640 0.3640 0.3660
2.492418 0.3660 0.3660 0.3660 0.3660 0.3660
2.525000 0.3660 0.3690 0.3720 0.3770 0.3800
2.557418 0.3850 0.3870 0.3880 0.3900 0.3920
2.590000 0.3920 0.3920 0.3920 0.3930 0.3930
2.622418 0.3950 0.4000 0.4010 0.4030 0.4050
2.655000 0.4060 0.4060 0.4060 0.4050 0.4030
2.687418 0.4010 0.3950 0.3870 0.3790 0.3690
2.719000 0.3580 0.3480 0.3380 0.3270 0.3170
2.751418 0.3060 0.2930 0.2860 0.2780 0.2730
2.784000 0.2700 0.2650 0.2590 0.2510 0.2440
2.816418 0.2380 0.2310 0.2280 0.2250 0.2220
2.849000 0.2180 0.2170 0.2130 0.2120 0.2090
2.881418 0.2040 0.2020 0.1990 0.1970 0.1960
2.914000 0.1920 0.1890 0.1860 0.1830 0.1810
2.946418 0.1810 0.1810 0.1830 0.1840 0.1860
2.979000 0.1860 0.1880 0.1880 0.1890 0.1910
3.011418 0.1910 0.1920 0.1920 0.1920 0.1940
3.043000 0.1940 0.1940 0.1940 0.1940 0.1940
3.075418 0.1940 0.1940 0.1920 0.1920 0.1920
3.108000 0.1910 0.1910 0.1910 0.1910 0.1890
3.140418 0.1880 0.1880 0.1880 0.1890 0.1910
3.173000 0.1920 0.1940 0.1970 0.1970 0.1960
3.205418 0.1910 0.1890 0.1880 0.1880 0.1880
3.238000 0.1860 0.1840 0.1840 0.1840 0.1830
3.270418 0.1810 0.1810 0.1780 0.1660 0.1520
3.303000 0.1340 0.1160 0.0970 0.0770 0.0610
3.335418 0.0450 0.0320 0.0300 0.0300 0.0300
3.367000 0.0300 0.0300 0.0320 0.0340 0.0340
3.399418 0.0340 0.0350 0.0350 0.0350 0.0350
3.432000 0.0370 0.0370 0.0350 0.0350 0.0350
3.464418 0.0350 0.0340 0.0340 0.0350 0.0430
3.497000 0.0610 0.0890 0.1260 0.1730 0.2300
3.529418 0.2650 0.2910 0.3120 0.3290 0.3430
3.562000 0.3580 0.3640 0.3670 0.3720 0.3760
3.594418 0.3790 0.3800 0.3820 0.3820 0.3800
3.627000 0.3800 0.3790 0.3770 0.3760 0.3740
3.659418 0.3720 0.3710 0.3710 0.3720 0.3790
3.691000 0.3800 0.3800 0.3800 0.3820 0.3820
3.723418 0.3820 0.3820 0.3820 0.3820 0.3840
3.756000 0.3870 0.3880 0.3900 0.3900 0.3900
3.788418 0.3920 0.3950 0.3980 0.4000 0.4000
3.821000 0.4010 0.4030 0.4080 0.4160 0.4180
3.853418 0.4180 0.4190 0.4190 0.4190 0.4190
3.886000 0.4190 0.4190 0.4190 0.4190 0.4230
3.918418 0.4260 0.4290 0.4320 0.4390 0.4450
3.951000 0.4520 0.4570 0.4580 0.4580 0.4600
3.983418 0.4650 0.4680 0.4740 0.4840 0.4860
4.015000 0.4860 0.4860 0.4840 0.4840 0.4820
4.047418 0.4820 0.4840 0.4840 0.4860 0.4870
4.080000 0.4890 0.4910 0.4910 0.4920 0.4920
4.112418 0.4920 0.4920 0.4940 0.4940 0.4940
4.145000 0.4940 0.4950 0.4990 0.5040 0.5070
4.177418 0.5120 0.5130 0.5130 0.5170 0.5170
4.210000 0.5180 0.5200 0.5200 0.5210 0.5210
4.242418 0.5230 0.5230 0.5230 0.5250 0.5250
4.275000 0.5280 0.5290 0.5330 0.5340 0.5360
4.307418 0.5360 0.5380 0.5390 0.5440 0.5470
4.339000 0.5520 0.5550 0.5600 0.5650 0.5680
4.371418 0.5730 0.5750 0.5780 0.5810 0.5860
4.404000 0.5890 0.5910 0.5910 0.5910 0.5930
4.436418 0.5940 0.5940 0.5960 0.5960 0.5980
4.469000 0.5980 0.5990 0.5990 0.6010 0.6010
4.501418 0.6040 0.6060 0.6070 0.6070 0.6070
4.534000 0.6090 0.6090 0.6090 0.6090 0.6110
4.566418 0.6110 0.6110 0.6110 0.6120 0.6140
4.599000 0.6190 0.6220 0.6250 0.6250 0.6270
4.631418 0.6270 0.6270 0.6270 0.6280 0.6320
4.664000 0.6330 0.6330 0.6350 0.6350 0.6360
4.696418 0.6380 0.6380 0.6400 0.6400 0.6410
4.728000 0.6430 0.6450 0.6450 0.6460 0.6480
4.760418 0.6530 0.6590 0.6660 0.6690 0.6700
4.793000 0.6720 0.6720 0.6740 0.6750 0.6790
4.825418 0.6800 0.6820 0.6830 0.6870 0.6880
4.858000 0.6900 0.6920 0.6920 0.6920 0.6920
4.890418 0.6930 0.6960 0.6980 0.7010 0.7030
4.923000 0.7030 0.7030 0.7030 0.7030 0.7030
4.955418 0.7050 0.7060 0.7090 0.7090 0.7130
4.988000 0.7140 0.7190 0.7220 0.7240 0.7260
5.020418 0.7270 0.7300 0.7320 0.7320 0.7340
5.052000 0.7340 0.7350 0.7370 0.7370 0.7390
5.084418 0.7400 0.7400 0.7430 0.7450 0.7450
5.117000 0.7470 0.7480 0.7500 0.7530 0.7560
5.149418 0.7580 0.7580 0.7600 0.7600 0.7610
5.182000 0.7630 0.7630 0.7660 0.7690 0.7710
5.214418 0.7760 0.7790 0.7810 0.7810 0.7820
5.247000 0.7860 0.7890 0.7900 0.7920 0.7990
5.279418 0.8000 0.8000 0.8020 0.8020 0.8030
5.312000 0.8070 0.8080 0.8100 0.8100 0.8110
5.344418 0.8130 0.8160 0.8200 0.8230 0.8260
5.376000 0.8290 0.8340 0.8360 0.8370 0.8370
5.408418 0.8390 0.8390 0.8390 0.8420 0.8420
5.441000 0.8420 0.8440 0.8460 0.8470 0.8490
5.473418 0.8520 0.8580 0.8600 0.8630 0.8650
5.506000 0.8670 0.8680 0.8700 0.8730 0.8750
5.538418 0.8760 0.8800 0.8810 0.8830 0.8840
5.571000 0.8880 0.8910 0.8960 0.9020 0.9020
5.603418 0.9040 0.9040 0.9040 0.9040 0.9070
5.636000 0.9100 0.9170 0.9230 0.9270 0.9280
5.668418 0.9300 0.9300 0.9300 0.9300 0.9300
5.700000 0.9300 0.9300 0.9310 0.9310 0.9330
5.732418 0.9360 0.9380 0.9430 0.9430 0.9380
5.765000 0.9220 0.9220 0.9230 0.9280 0.9350
5.797418 0.9360 0.9360 0.9350 0.9350 0.9280
5.830000 0.9270 0.9280 0.9330 0.9360 0.9400
5.862418 0.9430 0.9430 0.9360 0.9280 0.9220
5.895000 0.9180 0.9150 0.9140 0.9090 0.9010
5.927418 0.8910 0.8780 0.8630 0.8470 0.8290
5.960000 0.8110 0.7900 0.7690 0.7470 0.7240
5.992418 0.7010 0.6790 0.6560 0.6320 0.5800
6.024000 0.5420 0.5180 0.5080 0.4970 0.4780
6.056418 0.4520 0.4180 0.3690 0.2980 0.2800
6.089000 0.2640 0.2510 0.2360 0.2250 0.2100
6.121418 0.1970 0.1880 0.1860 0.1880 0.1890
6.154000 0.1940 0.1990 0.2000 0.2000 0.1940
6.186418 0.1840 0.1790 0.1700 0.1630 0.1620
6.219000 0.1630 0.1660 0.1710 0.1780 0.1860
6.251418 0.1960 0.2040 0.2130 0.2230 0.2310
6.284000 0.2350 0.2350 0.2350 0.2360 0.2390
6.316418 0.2430 0.2470 0.2490 0.2540 0.2570
6.348000 0.2620 0.2700 0.2850 0.3090 0.3430
6.380418 0.3690 0.3740 0.3900 0.3970 0.4030
6.413000 0.4100 0.4190 0.4310 0.4450 0.4610
6.445418 0.4820 0.4890 0.5000 0.5000 0.4990
6.478000 0.4920 0.4840 0.4730 0.4610 0.4470
6.510418 0.4310 0.4130 0.3970 0.3790 0.3610
6.543000 0.3430 0.3240 0.3170 0.3070 0.2990
6.575418 0.2860 0.2690 0.2570 0.2440 0.2330
6.608000 0.2220 0.2100 0.2000 0.1910 0.1880
6.640418 0.1860 0.1840 0.1830 0.1810 0.1810
6.672000 0.1810 0.1790 0.1790 0.1760 0.1680
6.704418 0.1620 0.1530 0.1440 0.1320 0.1180
6.737000 0.1020 0.0790 0.0690 0.0640 0.0560
6.769418 0.0530 0.0510 0.0510 0.0510 0.0530
6.802000 0.0590 0.0660 0.0690 0.0740 0.0850
6.834418 0.0950 0.1050 0.1160 0.1280 0.1370
6.867000 0.1490 0.1600 0.1710 0.1810 0.1920
6.899418 0.2040 0.2130 0.2230 0.2310 0.2380
6.932000 0.2410 0.2470 0.2570 0.2700 0.2780
6.964418 0.2850 0.2860 0.2860 0.2860 0.2860
6.997000 0.2900 0.2900 0.2910 0.2910 0.2930
7.029418 0.2910 0.2910 0.2910 0.2930 0.2940
7.061000 0.2960 0.2990 0.3030 0.3160 0.3270
7.093418 0.3330 0.3380 0.3450 0.3510 0.3580
7.126000 0.3630 0.3640 0.3640 0.3590 0.3380
7.158418 0.3070 0.2880 0.2670 0.2470 0.2260
7.191000 0.2050 0.1830 0.1710 0.1500 0.1490
7.223418 0.1500 0.1660 0.1860 0.1970 0.2130
7.256000 0.2280 0.2390 0.2430 0.2470 0.2520
7.288418 0.2570 0.2650 0.2670 0.2670 0.2650
7.321000 0.2540 0.2330 0.2100 0.1860 0.1680
7.353418 0.1580 0.1500 0.1490 0.1490 0.1520
7.385000 0.1580 0.1680 0.1790 0.1890 0.1990
7.417418 0.2070 0.2100 0.2100 0.2090 0.2090
7.450000 0.2090 0.2070 0.2050 0.2000 0.2000
7.482418 0.2020 0.2120 0.2170 0.2230 0.2350
7.515000 0.2460 0.2590 0.2720 0.2850 0.2940
7.547418 0.3010 0.3060 0.3120 0.3140 0.3120
7.580000 0.3060 0.3040 0.2990 0.2900 0.2860
7.612418 0.2780 0.2700 0.2590 0.2490 0.2410
7.645000 0.2360 0.2350 0.2350 0.2360 0.2380
7.677418 0.2430 0.2460 0.2470 0.2490 0.2510
7.709000 0.2540 0.2570 0.2640 0.2700 0.2770
7.741418 0.2860 0.2930 0.3030 0.3090 0.3170
7.774000 0.3240 0.3300 0.3370 0.3430 0.3480
7.806418 0.3530 0.3560 0.3580 0.3580 0.3560
7.839000 0.3540 0.3530 0.3510 0.3480 0.3450
7.871418 0.3400 0.3350 0.3300 0.3250 0.3200
7.904000 0.3140 0.3090 0.3030 0.2980 0.2910
7.936418 0.2850 0.2820 0.2780 0.2720 0.2670
7.969000 0.2640 0.2570 0.2540 0.2490 0.2410
8.001418 0.2330 0.2250 0.2170 0.2070 0.1960
8.033000 0.1840 0.1730 0.1680 0.1620 0.1550
8.065418 0.1530 0.1520 0.1520 0.1470 0.1470
8.098000 0.1440 0.1440 0.1440 0.1440 0.1450
8.130418 0.1450 0.1450 0.1470 0.1470 0.1470
8.163000 0.1470 0.1490 0.1490 0.1490 0.1500
8.195418 0.1500 0.1520 0.1530 0.1550 0.1570
8.228000 0.1570 0.1580 0.1580 0.1580 0.1580
8.260418 0.1570 0.1550 0.1530 0.1520 0.1530
8.293000 0.1530 0.1530 0.1500 0.1500 0.1500
8.325418 0.1500 0.1500 0.1500 0.1500 0.1490
8.357000 0.1490 0.1490 0.1490 0.1470 0.1450
8.389418 0.1420 0.1360 0.1340 0.1340 0.1360
8.422000 0.1390 0.1390 0.1410 0.1410 0.1420
8.454418 0.1440 0.1470 0.1470 0.1490 0.1500
8.487000 0.1500 0.1520 0.1530 0.1530 0.1570
8.519418 0.1600 0.1630 0.1660 0.1700 0.1750
8.552000 0.1810 0.1880 0.1940 0.2020 0.2020
8.584418 0.2090 0.2180 0.2260 0.2300 0.2310
8.617000 0.2330 0.2360 0.2390 0.2410 0.2430
8.649418 0.2410 0.2360 0.2310 0.2220 0.2120
8.681000 0.1970 0.1860 0.1810 0.1700 0.1620
8.713418 0.1530 0.1500 0.1490 0.1490 0.1500
8.746000 0.1500 0.1520 0.1530 0.1550 0.1580
8.778418 0.1600 0.1600 0.1620 0.1650 0.1680
8.811000 0.1730 0.1790 0.1860 0.1920 0.1990
8.843418 0.2070 0.2170 0.2260 0.2360 0.2490
8.876000 0.2640 0.2820 0.2990 0.3140 0.3250
8.908418 0.3330 0.3400 0.3460 0.3530 0.3590
8.941000 0.3690 0.3820 0.3980 0.4030 0.4140
8.973418 0.4230 0.4260 0.4340 0.4400 0.4530
9.005000 0.4550 0.4550 0.4550 0.4550 0.4530
9.037418 0.4370 0.4160 0.3900 0.3720 0.3500
9.070000 0.3300 0.3140 0.2990 0.2860 0.2700
9.102418 0.2570 0.2520 0.2460 0.2440 0.2430
9.135000 0.2440 0.2470 0.2540 0.2640 0.2720
9.167418 0.2800 0.2910 0.3030 0.3170 0.3300
9.200000 0.3450 0.3610 0.3760 0.3900 0.4030
9.232418 0.4140 0.4260 0.4340 0.4390 0.4480
9.265000 0.4550 0.4630 0.4700 0.4780 0.4860
9.297418 0.4940 0.5080 0.5100 0.5150 0.5170
9.330000 0.5200 0.5200 0.5210 0.5210 0.5200
9.362418 0.5080 0.5020 0.4940 0.4810 0.4650
9.394000 0.4500 0.4350 0.4270 0.4260 0.4260
9.426418 0.4270 0.4310 0.4350 0.4420 0.4480
9.459000 0.4550 0.4580 0.4600 0.4600 0.4580
9.491418 0.4500 0.4400 0.4340 0.4260 0.4180
9.524000 0.4110 0.4100 0.4110 0.4190 0.4310
9.556418 0.4480 0.4650 0.4810 0.4920 0.5100
9.589000 0.5200 0.5210 0.5210 0.5210 0.5200
9.621418 0.5170 0.5070 0.5000 0.4920 0.4730
9.654000 0.4500 0.4230 0.3880 0.3510 0.3090
9.686418 0.2620 0.2200 0.2170 0.1970 0.1780
9.718000 0.1570 0.1420 0.1390 0.1390 0.1390
9.750418 0.1410 0.1420 0.1420 0.1440 0.1440
9.783000 0.1470 0.1500 0.1550 0.1580 0.1780
9.815418 0.2000 0.2180 0.2330 0.2470 0.2640
9.848000 0.2830 0.3070 0.3400 0.3560 0.3690
9.880418 0.3840 0.3970 0.4110 0.4230 0.4350
9.913000 0.4470 0.4580 0.4700 0.4790 0.4890
9.945418 0.4970 0.5120 0.5180 0.5230 0.5260
9.978000 0.5310 0.5360 0.5420 0.5440 0.5520
10.010418 0.5620 0.5640 0.5650 0.5680 0.5700
10.042000 0.5730 0.5800 0.5850 0.5880 0.5890
10.074418 0.5910 0.5930 0.5940 0.5980 0.6020
10.107000 0.6020 0.6060 0.6060 0.6070 0.6090
10.139418 0.6110 0.6110 0.6140 0.6150 0.6170
10.172000 0.6150 0.6170 0.6170 0.6170 0.6190
10.204418 0.6190 0.6190 0.6190 0.6190 0.6170
10.237000 0.6140 0.6070 0.6060 0.5990 0.5890
10.269418 0.5760 0.5640 0.5490 0.5330 0.5170
10.302000 0.5040 0.4970 0.4910 0.4810 0.4730
10.334418 0.4650 0.4580 0.4530 0.4500 0.4450
10.366000 0.4370 0.4350 0.4350 0.4390 0.4420
10.398418 0.4450 0.4470 0.4480 0.4480 0.4480
10.431000 0.4470 0.4470 0.4470 0.4450 0.4450
10.463418 0.4450 0.4470 0.4470 0.4480 0.4480
10.496000 0.4480 0.4500 0.4500 0.4480 0.4480
10.528418 0.4480 0.4470 0.4450 0.4450 0.4470
10.561000 0.4550 0.4610 0.4680 0.4760 0.4860
10.593418 0.4990 0.5180 0.5230 0.5250 0.5260
10.626000 0.5260 0.5230 0.5210 0.5150 0.5070
10.658418 0.4990 0.4870 0.4740 0.4650 0.4530
10.690000 0.4450 0.4350 0.4290 0.4260 0.4190
10.722418 0.4140 0.4130 0.4140 0.4160 0.4180
10.755000 0.4190 0.4230 0.4260 0.4320 0.4400
10.787418 0.4470 0.4470 0.4480 0.4480 0.4500
10.820000 0.4500 0.4520 0.4530 0.4570 0.4610
10.852418 0.4650 0.4710 0.4760 0.4820 0.4940
10.885000 0.5130 0.5200 0.5230 0.5280 0.5330
10.917418 0.5380 0.5440 0.5510 0.5550 0.5600
10.950000 0.5640 0.5670 0.5680 0.5720 0.5730
10.982418 0.5750 0.5760 0.5780 0.5800 0.5810
11.014000 0.5810 0.5810 0.5800 0.5800 0.5780
11.046418 0.5760 0.5750 0.5730 0.5730 0.5730
11.079000 0.5720 0.5720 0.5720 0.5720 0.5720
11.111418 0.5720 0.5730 0.5730 0.5750 0.5760
11.144000 0.5800 0.5830 0.5850 0.5850 0.5860
11.176418 0.5880 0.5910 0.5980 0.5990 0.6010
11.209000 0.6010 0.6010 0.6020 0.6020 0.6040
11.241418 0.6040 0.6060 0.6060 0.6090 0.6090
11.274000 0.6110 0.6120 0.6140 0.6140 0.6140
11.306418 0.6150 0.6190 0.6220 0.6250 0.6280
11.338000 0.6320 0.6350 0.6360 0.6380 0.6400
11.370418 0.6410 0.6450 0.6480 0.6510 0.6560
11.403000 0.6590 0.6640 0.6700 0.6750 0.6800
11.435418 0.6820 0.6830 0.6830 0.6850 0.6870
11.468000 0.6880 0.6920 0.6930 0.6950 0.6960
11.500418 0.6960 0.6950 0.6950 0.6930 0.6920
11.533000 0.6920 0.6920 0.6880 0.6850 0.6800
11.565418 0.6750 0.6700 0.6660 0.6640 0.6620
11.598000 0.6580 0.6460 0.6430 0.6380 0.6350
11.630418 0.6280 0.6250 0.6230 0.6220 0.6190
11.663000 0.6140 0.6070 0.6060 0.6040 0.6020
11.695418 0.5990 0.5960 0.5940 0.5930 0.5930
11.727000 0.5930 0.5930 0.5930 0.5930 0.5930
11.759418 0.5930 0.5930 0.5930 0.5930 0.5930
11.792000 0.5930 0.5910 0.5890 0.5860 0.5850
11.824418 0.5810 0.5780 0.5750 0.5730 0.5680
11.857000 0.5620 0.5570 0.5510 0.5440 0.5380
11.889418 0.5330 0.5260 0.5200 0.5120 0.5020
11.922000 0.4990 0.4950 0.4840 0.4790 0.4740
11.954418 0.4700 0.4580 0.4500 0.4450 0.4390
11.987000 0.4350 0.4310 0.4270 0.4210 0.4140
12.019418 0.4050 0.4030 0.3950 0.3930 0.3950
12.051000 0.3950 0.3970 0.3970 0.3980 0.3980
12.083418 0.4000 0.4010 0.4060 0.4110 0.4180
12.116000 0.4240 0.4340 0.4390 0.4400 0.4450
12.148418 0.4530 0.4680 0.4920 0.4970 0.5170
12.181000 0.5200 0.5260 0.5360 0.5490 0.5620
12.213418 0.5730 0.5860 0.5960 0.6010 0.6070
12.246000 0.6140 0.6220 0.6280 0.6360 0.6410
12.278418 0.6480 0.6510 0.6540 0.6560 0.6610
12.311000 0.6670 0.6770 0.6800 0.6830 0.6880
12.343418 0.6930 0.6980 0.7000 0.7000 0.7010
12.375000 0.7030 0.7030 0.7030 0.7030 0.7030
12.407418 0.7030 0.7030 0.7050 0.7060 0.7060
12.440000 0.7080 0.7110 0.7160 0.7190 0.7210
12.472418 0.7240 0.7290 0.7320 0.7340 0.7370
12.505000 0.7370 0.7390 0.7400 0.7420 0.7420
12.537418 0.7420 0.7430 0.7450 0.7450 0.7480
12.570000 0.7480 0.7450 0.7450 0.7430 0.7430
12.602418 0.7430 0.7470 0.7470 0.7500 0.7500
12.635000 0.7500 0.7470 0.7450 0.7430 0.7400
12.667418 0.7390 0.7370 0.7350 0.7340 0.7320
12.699000 0.7300 0.7270 0.7220 0.7160 0.7090
12.731418 0.7030 0.6980 0.6930 0.6870 0.6830
12.764000 0.6790 0.6770 0.6740 0.6720 0.6670
12.796418 0.6610 0.6530 0.6450 0.6380 0.6330
12.829000 0.6270 0.6170 0.6110 0.6040 0.5990
12.861418 0.5930 0.5860 0.5760 0.5680 0.5600
12.894000 0.5540 0.5490 0.5440 0.5360 0.5330
12.926418 0.5280 0.5210 0.5170 0.5130 0.5080
12.959000 0.5040 0.5020 0.5000 0.4990 0.4950
12.991418 0.4940 0.4910 0.4860 0.4760 0.4730
13.023000 0.4700 0.4650 0.4610 0.4580 0.4570
13.055418 0.4500 0.4450 0.4400 0.4390 0.4370
13.088000 0.4370 0.4370 0.4370 0.4390 0.4390
13.120418 0.4420 0.4420 0.4470 0.4470 0.4480
13.153000 0.4480 0.4500 0.4500 0.4520 0.4550
13.185418 0.4610 0.4680 0.4740 0.4810 0.4840
13.218000 0.4860 0.4910 0.4940 0.4920 0.4910
13.250418 0.4890 0.4890 0.4870 0.4870 0.4890
13.283000 0.4890 0.4890 0.4890 0.4870 0.4870
13.315418 0.4890 0.4890 0.4920 0.4950 0.4990
13.347000 0.5040 0.5050 0.5050 0.5020 0.5000
13.379418 0.4990 0.4950 0.4940 0.4920 0.4920
13.412000 0.4910 0.4890 0.4870 0.4860 0.4820
13.444418 0.4790 0.4780 0.4780 0.4780 0.4780
13.477000 0.4760 0.4730 0.4700 0.4660 0.4660
13.509418 0.4700 0.4760 0.4810 0.4840 0.4870
13.542000 0.4870 0.4910 0.4940 0.5050 0.5100
13.574418 0.5120 0.5130 0.5130 0.5150 0.5150
13.607000 0.5180 0.5200 0.5200 0.5200 0.5200
13.639418 0.5200 0.5180 0.5170 0.5170 0.5150
13.671000 0.5130 0.5080 0.5050 0.5040 0.5020
13.703418 0.5020 0.5000 0.5000 0.5000 0.5000
13.736000 0.5000 0.4990 0.4990 0.5000 0.4990
13.768418 0.4950 0.4950 0.4970 0.5000 0.5020
13.801000 0.5020 0.5000 0.4990 0.4970 0.4950
13.833418 0.4950 0.4950 0.4950 0.4970 0.5040
13.866000 0.5040 0.5050 0.5080 0.5080 0.5100
13.898418 0.5120 0.5130 0.5150 0.5200 0.5210
13.931000 0.5210 0.5230 0.5250 0.5250 0.5250
13.963418 0.5250 0.5260 0.5280 0.5290 0.5310
13.996000 0.5330 0.5340 0.5360 0.5380 0.5390
14.028418 0.5410 0.5410 0.5390 0.5380 0.5380
14.060000 0.5380 0.5380 0.5390 0.5390 0.5410
14.092418 0.5420 0.5440 0.5440 0.5440 0.5440
14.125000 0.5440 0.5460 0.5460 0.5470 0.5460
14.157418 0.5440 0.5460 0.5470 0.5490 0.5490
14.190000 0.5510 0.5490 0.5510 0.5520 0.5540
14.222418 0.5570 0.5590 0.5620 0.5640 0.5620
14.255000 0.5640 0.5640 0.5640 0.5640 0.5650
14.287418 0.5650 0.5670 0.5700 0.5700 0.5680
14.320000 0.5680 0.5670 0.5670 0.5670 0.5680
14.352418 0.5680 0.5650 0.5620 0.5550 0.5520
14.384000 0.5510 0.5490 0.5460 0.5420 0.5390
14.416418 0.5380 0.5340 0.5330 0.5290 0.5260
14.449000 0.5230 0.5210 0.5200 0.5180 0.5150
14.481418 0.5100 0.5100 0.5100 0.5120 0.5120
14.514000 0.5120 0.5100 0.5100 0.5100 0.5080
14.546418 0.5070 0.5070 0.5070 0.5080 0.5080
14.579000 0.5120 0.5130 0.5150 0.5150 0.5170
14.611418 0.5170 0.5180 0.5200 0.5210 0.5250
14.644000 0.5260 0.5280 0.5290 0.5310 0.5340
14.676418 0.5340 0.5340 0.5340 0.5330 0.5330
14.708000 0.5310 0.5310 0.5310 0.5330 0.5360
14.740418 0.5390 0.5460 0.5490 0.5470 0.5440
14.773000 0.5420 0.5410 0.5380 0.5380 0.5360
14.805418 0.5360 0.5360 0.5360 0.5360 0.5360
14.838000 0.5360 0.5380 0.5390 0.5390 0.5380
14.870418 0.5380 0.5380 0.5390 0.5390 0.5410
14.903000 0.5410 0.5410 0.5410 0.5410 0.5390
14.935418 0.5390 0.5380 0.5360 0.5330 0.5310
14.968000 0.5280 0.5230 0.5170 0.5120 0.5070
15.000418 0.5040 0.5000 0.5000 0.4990 0.4940
15.032000 0.4910 0.4910 0.4890 0.4870 0.4870
15.064418 0.4860 0.4860 0.4870 0.4890 0.4920
15.097000 0.4950 0.4970 0.5040 0.5050 0.5080
15.129418 0.5100 0.5130 0.5170 0.5180 0.5210
15.162000 0.5230 0.5260 0.5280 0.5290 0.5310
15.194418 0.5330 0.5340 0.5380 0.5390 0.5410
15.227000 0.5420 0.5440 0.5460 0.5460 0.5460
15.259418 0.5440 0.5420 0.5410 0.5360 0.5360
15.292000 0.5360 0.5340 0.5330 0.5330 0.5290
15.324418 0.5280 0.5260 0.5260 0.5260 0.5260
15.356000 0.5260 0.5250 0.5230 0.5200 0.5180
15.388418 0.5180 0.5180 0.5180 0.5200 0.5200
15.421000 0.5210 0.5210 0.5210 0.5230 0.5250
15.453418 0.5260 0.5260 0.5280 0.5280 0.5280
15.486000 0.5260 0.5260 0.5250 0.5250 0.5250
15.518418 0.5230 0.5230 0.5230 0.5230 0.5200
15.551000 0.5200 0.5210 0.5210 0.5210 0.5210
15.583418 0.5210 0.5210 0.5210 0.5210 0.5230
15.616000 0.5230 0.5230 0.5230 0.5230 0.5210
15.648418 0.5210 0.5250 0.5250 0.5260 0.5260
15.680000 0.5260 0.5250 0.5250 0.5250 0.5230
15.712418 0.5230 0.5210 0.5200 0.5180 0.5180
15.745000 0.5180 0.5170 0.5150 0.5130 0.5120
15.777418 0.5080 0.5050 0.5050 0.5050 0.5050
15.810000 0.5040 0.5020 0.5000 0.5000 0.5000
15.842418 0.5000 0.4990 0.4970 0.4940 0.4920
15.875000 0.4910 0.4890 0.4840 0.4790 0.4780
15.907418 0.4760 0.4760 0.4760 0.4730 0.4730
15.940000 0.4710 0.4680 0.4660 0.4630 0.4610
15.972418 0.4570 0.4520 0.4480 0.4480 0.4500
16.004000 0.4520
##END=
