##TITLE=POTASSIUM NITRITE
$$ C.P.
##JCAMP-DX=4.24
##DATA TYPE=INFRARED SPECTRUM
##CLASS=COBLENTZ
##ORIGIN=MELLON INSTITUTE
##OWNER=COBLENTZ SOCIETY
Collection (C) 2018 copyright by the U.S. Secretary of Commerce
on behalf of the United States of America. All rights reserved.
##DATE=Not specified, most likely prior to 1970
##MOLFORM=K N O2
##SOURCE REFERENCE=COBLENTZ NO. 538
##$NIST ID=B6000538
##$NIST SOURCE=COBLENTZ
##$NIST IMAGE=cob538
##SPECTROMETER/DATA SYSTEM=Not specified, most likely a prism, grating, or hybrid spectrometer.
##STATE=SOLID (NUJOL MULL)
##PATH LENGTH=
$$SPECTRAL CONTAMINATION DUE TO OIL AROUND 2900, 1450 CM^-^1
##SAMPLING PROCEDURE=TRANSMISSION
##RESOLUTION=4
##DATA PROCESSING=DIGITIZED BY NIST FROM HARD COPY
##XUNITS=MICROMETERS
##YUNITS=TRANSMITTANCE
##XFACTOR=1.000000
##YFACTOR=1
##DELTAX=000.006659
##FIRSTX=2.048
##LASTX=16.0239
##FIRSTY=0.661
##MAXX=16.0239
##MINX=2.048
##MAXY=0.971
##MINY=0.031
##NPOINTS=2100
##XYDATA=(X++(Y..Y))
2.048000 0.6610 0.6610 0.6610 0.6610 0.6610
2.081309 0.6610 0.6610 0.6620 0.6620 0.6640
2.114000 0.6620 0.6640 0.6640 0.6640 0.6640
2.147309 0.6640 0.6640 0.6660 0.6660 0.6660
2.181000 0.6670 0.6670 0.6690 0.6710 0.6690
2.214309 0.6690 0.6710 0.6720 0.6720 0.6740
2.248000 0.6740 0.6740 0.6740 0.6760 0.6760
2.281309 0.6760 0.6770 0.6760 0.6770 0.6790
2.314000 0.6790 0.6810 0.6810 0.6810 0.6820
2.347309 0.6820 0.6820 0.6840 0.6840 0.6840
2.381000 0.6840 0.6860 0.6870 0.6890 0.6890
2.414309 0.6910 0.6920 0.6940 0.6940 0.6960
2.447000 0.6970 0.6970 0.6970 0.6970 0.6970
2.480309 0.6970 0.6990 0.6990 0.6990 0.6990
2.514000 0.7010 0.7010 0.7020 0.7020 0.7020
2.547309 0.7020 0.7040 0.7060 0.7060 0.7060
2.581000 0.7070 0.7070 0.7090 0.7090 0.7090
2.614309 0.7110 0.7110 0.7120 0.7120 0.7120
2.647000 0.7140 0.7140 0.7140 0.7160 0.7140
2.680309 0.7140 0.7140 0.7140 0.7140 0.7140
2.714000 0.7140 0.7140 0.7140 0.7140 0.7140
2.747309 0.7140 0.7120 0.7120 0.7110 0.7090
2.780000 0.7070 0.7070 0.7060 0.7060 0.7040
2.813309 0.7010 0.7010 0.6990 0.6990 0.6970
2.847000 0.6970 0.6970 0.6960 0.6940 0.6940
2.880309 0.6940 0.6940 0.6940 0.6940 0.6940
2.913000 0.6940 0.6940 0.6940 0.6940 0.6940
2.946309 0.6940 0.6940 0.6960 0.6970 0.6990
2.980000 0.6990 0.6990 0.7010 0.7010 0.7010
3.013309 0.7020 0.7020 0.7040 0.7040 0.7060
3.047000 0.7060 0.7060 0.7070 0.7090 0.7090
3.080309 0.7110 0.7110 0.7110 0.7120 0.7120
3.113000 0.7140 0.7160 0.7170 0.7190 0.7210
3.146309 0.7220 0.7220 0.7240 0.7240 0.7270
3.180000 0.7290 0.7290 0.7310 0.7320 0.7340
3.213309 0.7360 0.7370 0.7420 0.7440 0.7460
3.246000 0.7470 0.7490 0.7490 0.7490 0.7490
3.279309 0.7370 0.7220 0.7160 0.7060 0.6910
3.313000 0.6690 0.6420 0.6270 0.6120 0.5970
3.346309 0.5790 0.5690 0.5420 0.5370 0.5350
3.380000 0.5370 0.5440 0.5690 0.5800 0.5890
3.413309 0.5950 0.5990 0.5970 0.5940 0.5900
3.446000 0.5870 0.5870 0.5900 0.6010 0.6640
3.479309 0.6810 0.6940 0.7040 0.7140 0.7220
3.513000 0.7320 0.7440 0.7640 0.7690 0.7720
3.546309 0.7740 0.7760 0.7790 0.7820 0.7860
3.579000 0.7860 0.7870 0.7890 0.7910 0.7920
3.612309 0.7940 0.7940 0.7960 0.7970 0.7990
3.646000 0.8010 0.8010 0.8030 0.8030 0.8030
3.679309 0.8040 0.8040 0.8060 0.8060 0.8060
3.712000 0.8060 0.8060 0.8060 0.8060 0.8060
3.745309 0.8060 0.8060 0.8040 0.8030 0.8030
3.779000 0.8010 0.7990 0.7960 0.7920 0.7890
3.812309 0.7840 0.7790 0.7760 0.7720 0.7690
3.846000 0.7640 0.7620 0.7610 0.7590 0.7570
3.879309 0.7570 0.7590 0.7610 0.7610 0.7620
3.912000 0.7670 0.7710 0.7790 0.7840 0.7910
3.945309 0.7940 0.7960 0.7970 0.7990 0.8010
3.979000 0.8030 0.8040 0.8060 0.8080 0.8080
4.012309 0.8080 0.8080 0.8090 0.8090 0.8090
4.045000 0.8090 0.8090 0.8110 0.8110 0.8130
4.078309 0.8130 0.8130 0.8140 0.8130 0.8140
4.112000 0.8140 0.8160 0.8160 0.8160 0.8180
4.145309 0.8180 0.8180 0.8190 0.8190 0.8190
4.179000 0.8190 0.8190 0.8210 0.8210 0.8230
4.212309 0.8230 0.8230 0.8230 0.8230 0.8230
4.245000 0.8230 0.8240 0.8260 0.8280 0.8280
4.278309 0.8260 0.8280 0.8280 0.8280 0.8280
4.312000 0.8280 0.8290 0.8290 0.8290 0.8290
4.345309 0.8310 0.8310 0.8310 0.8330 0.8330
4.378000 0.8330 0.8330 0.8340 0.8330 0.8340
4.411309 0.8360 0.8380 0.8390 0.8390 0.8390
4.445000 0.8410 0.8410 0.8410 0.8410 0.8410
4.478309 0.8430 0.8440 0.8440 0.8440 0.8440
4.512000 0.8440 0.8440 0.8460 0.8460 0.8460
4.545309 0.8460 0.8480 0.8480 0.8480 0.8480
4.578000 0.8490 0.8490 0.8490 0.8510 0.8510
4.611309 0.8510 0.8510 0.8530 0.8530 0.8530
4.645000 0.8530 0.8530 0.8530 0.8530 0.8530
4.678309 0.8530 0.8530 0.8530 0.8530 0.8530
4.711000 0.8530 0.8530 0.8530 0.8530 0.8530
4.744309 0.8530 0.8530 0.8540 0.8540 0.8540
4.778000 0.8540 0.8560 0.8560 0.8560 0.8560
4.811309 0.8560 0.8580 0.8580 0.8580 0.8580
4.844000 0.8580 0.8580 0.8590 0.8590 0.8590
4.877309 0.8610 0.8590 0.8590 0.8590 0.8610
4.911000 0.8610 0.8610 0.8630 0.8630 0.8630
4.944309 0.8630 0.8640 0.8640 0.8660 0.8680
4.978000 0.8680 0.8680 0.8680 0.8680 0.8690
5.011309 0.8690 0.8690 0.8710 0.8710 0.8710
5.044000 0.8710 0.8730 0.8730 0.8730 0.8740
5.077309 0.8740 0.8740 0.8760 0.8780 0.8780
5.111000 0.8780 0.8790 0.8810 0.8810 0.8810
5.144309 0.8810 0.8840 0.8830 0.8830 0.8830
5.177000 0.8840 0.8840 0.8840 0.8860 0.8860
5.210309 0.8860 0.8860 0.8880 0.8860 0.8860
5.244000 0.8880 0.8860 0.8840 0.8840 0.8860
5.277309 0.8880 0.8880 0.8880 0.8890 0.8890
5.311000 0.8880 0.8880 0.8890 0.8890 0.8890
5.344309 0.8910 0.8910 0.8910 0.8930 0.8930
5.377000 0.8930 0.8940 0.8940 0.8940 0.8940
5.410309 0.8960 0.8960 0.8960 0.8980 0.8980
5.444000 0.8990 0.8980 0.8980 0.8990 0.8990
5.477309 0.8990 0.8990 0.9010 0.9010 0.9010
5.510000 0.9010 0.9030 0.9030 0.9040 0.9040
5.543309 0.9040 0.9060 0.9060 0.9060 0.9080
5.577000 0.9080 0.9080 0.9090 0.9090 0.9090
5.610309 0.9110 0.9110 0.9110 0.9130 0.9130
5.643000 0.9130 0.9110 0.9110 0.9130 0.9130
5.676309 0.9130 0.9130 0.9130 0.9130 0.9140
5.710000 0.9140 0.9140 0.9160 0.9180 0.9190
5.743309 0.9190 0.9190 0.9210 0.9210 0.9210
5.777000 0.9230 0.9230 0.9230 0.9230 0.9230
5.810309 0.9240 0.9240 0.9230 0.9240 0.9240
5.843000 0.9240 0.9280 0.9280 0.9290 0.9290
5.876309 0.9290 0.9310 0.9310 0.9290 0.9290
5.910000 0.9310 0.9310 0.9310 0.9330 0.9330
5.943309 0.9340 0.9340 0.9360 0.9380 0.9390
5.976000 0.9390 0.9390 0.9410 0.9410 0.9410
6.009309 0.9410 0.9410 0.9410 0.9410 0.9430
6.043000 0.9430 0.9440 0.9440 0.9440 0.9440
6.076309 0.9460 0.9460 0.9480 0.9460 0.9480
6.110000 0.9490 0.9490 0.9510 0.9510 0.9510
6.143309 0.9530 0.9530 0.9530 0.9530 0.9530
6.176000 0.9540 0.9540 0.9560 0.9580 0.9580
6.209309 0.9580 0.9580 0.9580 0.9580 0.9590
6.243000 0.9610 0.9610 0.9610 0.9630 0.9630
6.276309 0.9630 0.9630 0.9630 0.9630 0.9640
6.309000 0.9640 0.9640 0.9640 0.9640 0.9640
6.342309 0.9640 0.9660 0.9660 0.9660 0.9680
6.376000 0.9680 0.9680 0.9680 0.9690 0.9690
6.409309 0.9710 0.9690 0.9690 0.9690 0.9710
6.442000 0.9710 0.9710 0.9690 0.9690 0.9690
6.475309 0.9690 0.9690 0.9690 0.9710 0.9710
6.509000 0.9710 0.9690 0.9690 0.9690 0.9690
6.542309 0.9690 0.9690 0.9690 0.9690 0.9690
6.576000 0.9680 0.9680 0.9680 0.9660 0.9640
6.609309 0.9630 0.9640 0.9640 0.9630 0.9630
6.642000 0.9610 0.9610 0.9590 0.9580 0.9540
6.675309 0.9530 0.9510 0.9480 0.9430 0.9380
6.709000 0.9360 0.9310 0.9260 0.9190 0.9080
6.742309 0.8960 0.8780 0.8610 0.8440 0.8240
6.775000 0.8080 0.8030 0.7970 0.7870 0.7790
6.808309 0.7760 0.7760 0.7740 0.7740 0.7760
6.842000 0.7770 0.7790 0.7810 0.7860 0.7910
6.875309 0.7910 0.7920 0.7910 0.7910 0.7870
6.909000 0.7840 0.7790 0.7720 0.7660 0.7590
6.942309 0.7560 0.7520 0.7490 0.7420 0.7390
6.975000 0.7310 0.7220 0.7120 0.7020 0.6970
7.008309 0.6810 0.6670 0.6560 0.6410 0.6270
7.042000 0.6240 0.6190 0.6090 0.6010 0.5950
7.075309 0.5840 0.5770 0.5720 0.5670 0.5620
7.108000 0.5570 0.5540 0.5490 0.5470 0.5420
7.141309 0.5390 0.5350 0.5300 0.5290 0.5240
7.175000 0.5200 0.5170 0.5140 0.5140 0.5120
7.208309 0.5100 0.5100 0.5100 0.5100 0.5120
7.242000 0.5140 0.5150 0.5170 0.5200 0.5250
7.275309 0.5290 0.5350 0.5420 0.5470 0.5540
7.308000 0.5570 0.5640 0.5700 0.5740 0.5800
7.341309 0.5840 0.5890 0.5940 0.5970 0.6010
7.375000 0.6010 0.6010 0.6010 0.5990 0.5970
7.408309 0.5940 0.5900 0.5840 0.5740 0.5640
7.441000 0.5540 0.5390 0.5190 0.5040 0.4870
7.474309 0.4290 0.3800 0.3600 0.3380 0.3200
7.508000 0.3120 0.3080 0.3080 0.3100 0.3180
7.541309 0.3330 0.3470 0.3550 0.3630 0.3700
7.574000 0.3720 0.3780 0.3800 0.3800 0.3770
7.607309 0.3730 0.3680 0.3650 0.3580 0.3500
7.641000 0.3430 0.3320 0.3250 0.3100 0.2950
7.674309 0.2830 0.2700 0.2570 0.2520 0.2450
7.708000 0.2270 0.2080 0.1950 0.1760 0.1610
7.741309 0.1500 0.1380 0.1260 0.1250 0.1210
7.774000 0.1160 0.1110 0.1050 0.1010 0.1000
7.807309 0.0950 0.0910 0.0900 0.0850 0.0830
7.841000 0.0810 0.0800 0.0760 0.0750 0.0730
7.874309 0.0710 0.0700 0.0680 0.0660 0.0650
7.907000 0.0630 0.0610 0.0580 0.0550 0.0550
7.940309 0.0530 0.0510 0.0500 0.0480 0.0460
7.974000 0.0430 0.0430 0.0410 0.0400 0.0380
8.007309 0.0360 0.0360 0.0350 0.0350 0.0330
8.041000 0.0330 0.0310 0.0310 0.0310 0.0310
8.074309 0.0310 0.0310 0.0310 0.0310 0.0310
8.107000 0.0310 0.0310 0.0310 0.0330 0.0330
8.140309 0.0350 0.0350 0.0360 0.0360 0.0360
8.174000 0.0380 0.0380 0.0400 0.0410 0.0430
8.207309 0.0460 0.0480 0.0500 0.0510 0.0550
8.240000 0.0600 0.0630 0.0710 0.0780 0.0860
8.273309 0.0910 0.0980 0.1030 0.1080 0.1160
8.307000 0.1350 0.1480 0.1560 0.1650 0.1710
8.340309 0.1760 0.1860 0.1960 0.2020 0.2080
8.373000 0.2180 0.2250 0.2280 0.2400 0.2480
8.406309 0.2650 0.2680 0.2780 0.2850 0.2880
8.440000 0.2970 0.3020 0.3050 0.3120 0.3180
8.473309 0.3270 0.3350 0.3450 0.3530 0.3600
8.507000 0.3680 0.3850 0.3970 0.4040 0.4150
8.540309 0.4240 0.4290 0.4340 0.4390 0.4440
8.573000 0.4470 0.4540 0.4640 0.4670 0.4700
8.606309 0.4700 0.4720 0.4790 0.4870 0.4950
8.640000 0.4970 0.5040 0.5100 0.5150 0.5220
8.673309 0.5250 0.5290 0.5350 0.5390 0.5440
8.706000 0.5490 0.5500 0.5540 0.5570 0.5620
8.739309 0.5670 0.5700 0.5740 0.5790 0.5800
8.773000 0.5840 0.5850 0.5900 0.5950 0.5990
8.806309 0.6010 0.6020 0.6040 0.6070 0.6110
8.840000 0.6140 0.6160 0.6190 0.6210 0.6240
8.873309 0.6270 0.6290 0.6320 0.6340 0.6340
8.906000 0.6360 0.6370 0.6370 0.6390 0.6410
8.939309 0.6420 0.6420 0.6440 0.6440 0.6460
8.973000 0.6470 0.6470 0.6490 0.6490 0.6490
9.006309 0.6510 0.6520 0.6540 0.6560 0.6560
9.039000 0.6570 0.6610 0.6620 0.6660 0.6690
9.072309 0.6710 0.6740 0.6760 0.6790 0.6840
9.106000 0.6860 0.6910 0.6940 0.6990 0.7010
9.139309 0.7020 0.7040 0.7110 0.7140 0.7160
9.173000 0.7190 0.7210 0.7240 0.7260 0.7270
9.206309 0.7310 0.7340 0.7360 0.7370 0.7390
9.239000 0.7390 0.7410 0.7420 0.7440 0.7490
9.272309 0.7490 0.7520 0.7540 0.7560 0.7570
9.306000 0.7590 0.7610 0.7620 0.7640 0.7660
9.339309 0.7670 0.7690 0.7710 0.7720 0.7740
9.372000 0.7740 0.7810 0.7820 0.7840 0.7860
9.405309 0.7860 0.7870 0.7870 0.7910 0.7910
9.439000 0.7920 0.7920 0.7940 0.7940 0.7960
9.472309 0.7960 0.7970 0.7970 0.7990 0.7990
9.505000 0.8010 0.8010 0.8010 0.8030 0.8030
9.538309 0.8040 0.8060 0.8090 0.8130 0.8140
9.572000 0.8160 0.8180 0.8180 0.8190 0.8210
9.605309 0.8240 0.8260 0.8280 0.8290 0.8290
9.639000 0.8310 0.8330 0.8340 0.8360 0.8360
9.672309 0.8380 0.8410 0.8410 0.8430 0.8440
9.705000 0.8460 0.8460 0.8480 0.8510 0.8540
9.738309 0.8540 0.8560 0.8580 0.8590 0.8610
9.772000 0.8610 0.8630 0.8640 0.8660 0.8680
9.805309 0.8680 0.8690 0.8710 0.8730 0.8730
9.838000 0.8740 0.8740 0.8760 0.8760 0.8760
9.871309 0.8780 0.8810 0.8830 0.8830 0.8840
9.905000 0.8840 0.8840 0.8860 0.8860 0.8860
9.938309 0.8880 0.8890 0.8910 0.8910 0.8930
9.972000 0.8940 0.8940 0.8940 0.8960 0.8960
10.005309 0.8960 0.8960 0.8980 0.8980 0.8980
10.038000 0.8980 0.8990 0.8990 0.8990 0.8990
10.071309 0.8980 0.8980 0.8990 0.8990 0.8990
10.105000 0.8990 0.8990 0.9010 0.9010 0.9010
10.138309 0.9030 0.9030 0.9030 0.9030 0.9040
10.171000 0.9040 0.9040 0.9040 0.9040 0.9040
10.204309 0.9060 0.9060 0.9060 0.9060 0.9080
10.238000 0.9080 0.9080 0.9080 0.9090 0.9090
10.271309 0.9090 0.9090 0.9110 0.9110 0.9130
10.304000 0.9130 0.9130 0.9130 0.9140 0.9140
10.337309 0.9160 0.9160 0.9160 0.9160 0.9160
10.371000 0.9180 0.9160 0.9180 0.9190 0.9190
10.404309 0.9210 0.9210 0.9210 0.9210 0.9230
10.438000 0.9230 0.9230 0.9210 0.9210 0.9210
10.471309 0.9210 0.9210 0.9210 0.9210 0.9210
10.504000 0.9210 0.9210 0.9230 0.9230 0.9230
10.537309 0.9230 0.9230 0.9230 0.9240 0.9260
10.571000 0.9260 0.9260 0.9260 0.9260 0.9260
10.604309 0.9280 0.9280 0.9280 0.9280 0.9280
10.637000 0.9280 0.9280 0.9280 0.9280 0.9280
10.670309 0.9280 0.9280 0.9290 0.9290 0.9290
10.704000 0.9290 0.9290 0.9290 0.9290 0.9290
10.737309 0.9310 0.9310 0.9310 0.9290 0.9290
10.771000 0.9290 0.9290 0.9290 0.9310 0.9310
10.804309 0.9310 0.9310 0.9310 0.9310 0.9310
10.837000 0.9290 0.9310 0.9310 0.9310 0.9310
10.870309 0.9310 0.9310 0.9330 0.9330 0.9330
10.904000 0.9330 0.9340 0.9340 0.9340 0.9340
10.937309 0.9340 0.9340 0.9340 0.9340 0.9340
10.970000 0.9340 0.9360 0.9360 0.9360 0.9360
11.003309 0.9360 0.9360 0.9380 0.9380 0.9380
11.037000 0.9390 0.9390 0.9390 0.9390 0.9390
11.070309 0.9410 0.9410 0.9410 0.9410 0.9410
11.104000 0.9410 0.9430 0.9430 0.9430 0.9430
11.137309 0.9430 0.9430 0.9430 0.9440 0.9440
11.170000 0.9440 0.9440 0.9440 0.9440 0.9440
11.203309 0.9440 0.9440 0.9440 0.9440 0.9440
11.237000 0.9440 0.9440 0.9440 0.9440 0.9440
11.270309 0.9440 0.9440 0.9440 0.9440 0.9440
11.303000 0.9440 0.9440 0.9440 0.9460 0.9460
11.336309 0.9460 0.9460 0.9480 0.9480 0.9480
11.370000 0.9480 0.9480 0.9490 0.9490 0.9490
11.403309 0.9490 0.9490 0.9490 0.9510 0.9510
11.436000 0.9510 0.9510 0.9510 0.9510 0.9510
11.469309 0.9510 0.9510 0.9530 0.9530 0.9530
11.503000 0.9530 0.9530 0.9530 0.9530 0.9530
11.536309 0.9530 0.9530 0.9530 0.9530 0.9530
11.570000 0.9530 0.9530 0.9530 0.9530 0.9530
11.603309 0.9540 0.9530 0.9530 0.9530 0.9530
11.636000 0.9540 0.9540 0.9560 0.9540 0.9540
11.669309 0.9540 0.9540 0.9540 0.9540 0.9540
11.703000 0.9540 0.9540 0.9540 0.9540 0.9540
11.736309 0.9540 0.9540 0.9580 0.9580 0.9580
11.769000 0.9580 0.9580 0.9580 0.9580 0.9580
11.802309 0.9580 0.9580 0.9580 0.9580 0.9580
11.836000 0.9580 0.9580 0.9580 0.9560 0.9560
11.869309 0.9560 0.9540 0.9540 0.9530 0.9530
11.903000 0.9530 0.9510 0.9510 0.9510 0.9510
11.936309 0.9490 0.9460 0.9440 0.9410 0.9390
11.969000 0.9330 0.9080 0.8810 0.8690 0.8580
12.002309 0.8340 0.8110 0.7870 0.7610 0.7320
12.036000 0.6810 0.6470 0.6140 0.6120 0.6160
12.069309 0.6560 0.6960 0.7110 0.7220 0.7420
12.102000 0.7690 0.7820 0.7970 0.8080 0.8310
12.135309 0.8430 0.8590 0.8680 0.8830 0.8880
12.169000 0.8890 0.8930 0.9030 0.9060 0.9110
12.202309 0.9130 0.9140 0.9160 0.9160 0.9190
12.235000 0.9190 0.9230 0.9240 0.9240 0.9240
12.268309 0.9260 0.9280 0.9280 0.9290 0.9290
12.302000 0.9310 0.9310 0.9310 0.9330 0.9330
12.335309 0.9330 0.9340 0.9340 0.9340 0.9360
12.369000 0.9360 0.9360 0.9360 0.9380 0.9380
12.402309 0.9380 0.9380 0.9390 0.9390 0.9390
12.435000 0.9390 0.9390 0.9390 0.9390 0.9390
12.468309 0.9390 0.9390 0.9410 0.9410 0.9410
12.502000 0.9410 0.9410 0.9430 0.9410 0.9410
12.535309 0.9430 0.9410 0.9410 0.9410 0.9410
12.568000 0.9410 0.9410 0.9430 0.9430 0.9430
12.601309 0.9410 0.9410 0.9410 0.9410 0.9410
12.635000 0.9430 0.9410 0.9410 0.9390 0.9390
12.668309 0.9410 0.9410 0.9410 0.9410 0.9410
12.702000 0.9410 0.9410 0.9410 0.9410 0.9410
12.735309 0.9410 0.9410 0.9410 0.9410 0.9390
12.768000 0.9390 0.9390 0.9390 0.9390 0.9390
12.801309 0.9390 0.9360 0.9380 0.9380 0.9340
12.835000 0.9360 0.9360 0.9360 0.9360 0.9360
12.868309 0.9360 0.9340 0.9340 0.9340 0.9340
12.901000 0.9340 0.9330 0.9330 0.9330 0.9330
12.934309 0.9330 0.9310 0.9310 0.9310 0.9310
12.968000 0.9310 0.9290 0.9290 0.9290 0.9280
13.001309 0.9260 0.9240 0.9230 0.9230 0.9210
13.035000 0.9210 0.9190 0.9180 0.9140 0.9140
13.068309 0.9140 0.9130 0.9130 0.9130 0.9130
13.101000 0.9110 0.9110 0.9110 0.9090 0.9090
13.134309 0.9090 0.9090 0.9090 0.9090 0.9110
13.168000 0.9110 0.9130 0.9130 0.9130 0.9130
13.201309 0.9130 0.9110 0.9130 0.9110 0.9110
13.234000 0.9090 0.9090 0.9080 0.9090 0.9080
13.267309 0.9080 0.9080 0.9060 0.9060 0.9040
13.301000 0.9030 0.9030 0.9040 0.9030 0.9030
13.334309 0.9030 0.9010 0.8990 0.8990 0.8980
13.367000 0.8980 0.8960 0.8960 0.8940 0.8940
13.400309 0.8930 0.8930 0.8910 0.8890 0.8890
13.434000 0.8880 0.8880 0.8860 0.8860 0.8840
13.467309 0.8840 0.8840 0.8840 0.8830 0.8830
13.501000 0.8810 0.8810 0.8790 0.8790 0.8780
13.534309 0.8780 0.8760 0.8760 0.8760 0.8740
13.567000 0.8740 0.8730 0.8730 0.8710 0.8690
13.600309 0.8690 0.8690 0.8680 0.8680 0.8660
13.634000 0.8660 0.8640 0.8640 0.8640 0.8630
13.667309 0.8630 0.8610 0.8610 0.8590 0.8590
13.700000 0.8580 0.8580 0.8560 0.8560 0.8560
13.733309 0.8540 0.8510 0.8510 0.8490 0.8490
13.767000 0.8480 0.8480 0.8460 0.8440 0.8430
13.800309 0.8410 0.8390 0.8380 0.8360 0.8340
13.834000 0.8340 0.8340 0.8330 0.8310 0.8290
13.867309 0.8290 0.8280 0.8280 0.8260 0.8240
13.900000 0.8240 0.8230 0.8210 0.8210 0.8210
13.933309 0.8190 0.8190 0.8180 0.8180 0.8180
13.967000 0.8160 0.8140 0.8140 0.8130 0.8110
14.000309 0.8090 0.8080 0.8060 0.8040 0.8030
14.033000 0.8030 0.8010 0.8010 0.8010 0.7990
14.066309 0.7970 0.7960 0.7940 0.7940 0.7910
14.100000 0.7890 0.7890 0.7870 0.7870 0.7860
14.133309 0.7820 0.7790 0.7790 0.7770 0.7760
14.166000 0.7740 0.7720 0.7720 0.7720 0.7710
14.199309 0.7690 0.7670 0.7660 0.7640 0.7620
14.233000 0.7610 0.7590 0.7570 0.7570 0.7560
14.266309 0.7540 0.7520 0.7510 0.7510 0.7490
14.300000 0.7470 0.7470 0.7470 0.7440 0.7420
14.333309 0.7410 0.7390 0.7390 0.7370 0.7370
14.366000 0.7360 0.7340 0.7320 0.7320 0.7320
14.399309 0.7310 0.7290 0.7270 0.7270 0.7260
14.433000 0.7260 0.7220 0.7220 0.7210 0.7210
14.466309 0.7190 0.7170 0.7160 0.7160 0.7140
14.499000 0.7120 0.7120 0.7110 0.7110 0.7090
14.532309 0.7070 0.7060 0.7060 0.7040 0.7040
14.566000 0.7020 0.7020 0.7010 0.7010 0.6990
14.599309 0.6990 0.6970 0.6970 0.6960 0.6960
14.633000 0.6940 0.6940 0.6920 0.6920 0.6910
14.666309 0.6910 0.6910 0.6890 0.6870 0.6860
14.699000 0.6860 0.6840 0.6840 0.6840 0.6820
14.732309 0.6820 0.6810 0.6810 0.6790 0.6770
14.766000 0.6760 0.6760 0.6740 0.6740 0.6720
14.799309 0.6720 0.6710 0.6690 0.6670 0.6690
14.832000 0.6670 0.6670 0.6660 0.6640 0.6620
14.865309 0.6620 0.6610 0.6610 0.6590 0.6570
14.899000 0.6560 0.6540 0.6540 0.6520 0.6520
14.932309 0.6510 0.6510 0.6490 0.6490 0.6490
14.965000 0.6470 0.6460 0.6460 0.6460 0.6440
14.998309 0.6440 0.6420 0.6420 0.6420 0.6420
15.032000 0.6410 0.6390 0.6390 0.6390 0.6370
15.065309 0.6370 0.6370 0.6360 0.6360 0.6340
15.099000 0.6340 0.6340 0.6320 0.6320 0.6310
15.132309 0.6310 0.6310 0.6290 0.6290 0.6290
15.165000 0.6270 0.6270 0.6270 0.6270 0.6260
15.198309 0.6260 0.6240 0.6220 0.6220 0.6220
15.232000 0.6210 0.6210 0.6190 0.6210 0.6190
15.265309 0.6190 0.6190 0.6170 0.6170 0.6160
15.298000 0.6160 0.6160 0.6140 0.6140 0.6140
15.331309 0.6120 0.6120 0.6120 0.6110 0.6110
15.365000 0.6110 0.6090 0.6090 0.6090 0.6090
15.398309 0.6070 0.6070 0.6070 0.6070 0.6070
15.432000 0.6060 0.6070 0.6070 0.6070 0.6070
15.465309 0.6060 0.6060 0.6060 0.6060 0.6060
15.498000 0.6040 0.6040 0.6040 0.6040 0.6040
15.531309 0.6020 0.6020 0.6020 0.6020 0.6020
15.565000 0.6020 0.6020 0.6020 0.6020 0.6020
15.598309 0.6020 0.6020 0.6010 0.6020 0.6020
15.631000 0.6020 0.6020 0.6020 0.6020 0.6020
15.664309 0.6040 0.6040 0.6040 0.6040 0.6040
15.698000 0.6040 0.6040 0.6040 0.6040 0.6060
15.731309 0.6060 0.6070 0.6070 0.6070 0.6090
15.765000 0.6090 0.6090 0.6110 0.6110 0.6120
15.798309 0.6120 0.6120 0.6140 0.6140 0.6160
15.831000 0.6160 0.6160 0.6170 0.6170 0.6170
15.864309 0.6170 0.6170 0.6190 0.6190 0.6190
15.898000 0.6190 0.6210 0.6210 0.6210 0.6220
15.931309 0.6220 0.6240 0.6240 0.6240 0.6260
15.964000 0.6260 0.6270 0.6270 0.6270 0.6290
15.997309 0.7060 0.6260 0.6270 0.6270 0.6270
##END=
