##TITLE=CADMIUM OXALATE
##JCAMP-DX=4.24
##DATA TYPE=INFRARED SPECTRUM
##CLASS=COBLENTZ
##OWNER=COBLENTZ SOCIETY
Collection (C) 2018 copyright by the U.S. Secretary of Commerce
on behalf of the United States of America. All rights reserved.
##DATE=Not specified, most likely prior to 1970
##MOLFORM=Cd C2 O4  * 3 H2 O
##SOURCE REFERENCE=COBLENTZ NO. 70
##$NIST ID=B6000070
##$NIST SOURCE=COBLENTZ
##$NIST IMAGE=cob70
##SPECTROMETER/DATA SYSTEM=Not specified, most likely a prism, grating, or hybrid spectrometer.
##STATE=SOLID (KBr DISC)
##SAMPLING PROCEDURE=TRANSMISSION
##RESOLUTION=4
##DATA PROCESSING=DIGITIZED BY NIST FROM HARD COPY
##XUNITS=MICROMETERS
##YUNITS=TRANSMITTANCE
##XFACTOR=1.000000
##YFACTOR=1
##DELTAX=000.007640
##FIRSTX=1.998
##LASTX=14.9559
##FIRSTY=0.939
##MAXX=14.9559
##MINX=1.998
##MAXY=0.994
##MINY=0.094
##NPOINTS=1697
##XYDATA=(X++(Y..Y))
1.998000 0.9390 0.9390 0.9390 0.9390 0.9410
2.036223 0.9410 0.9420 0.9420 0.9420 0.9420
2.075000 0.9420 0.9430 0.9430 0.9450 0.9460
2.113223 0.9460 0.9460 0.9490 0.9510 0.9520
2.151000 0.9540 0.9540 0.9550 0.9550 0.9570
2.189223 0.9570 0.9580 0.9580 0.9600 0.9610
2.228000 0.9610 0.9630 0.9630 0.9640 0.9660
2.266223 0.9660 0.9670 0.9670 0.9670 0.9690
2.304000 0.9700 0.9710 0.9710 0.9710 0.9730
2.342223 0.9730 0.9730 0.9740 0.9740 0.9740
2.380000 0.9740 0.9740 0.9740 0.9760 0.9760
2.418223 0.9770 0.9770 0.9770 0.9770 0.9770
2.457000 0.9770 0.9770 0.9790 0.9790 0.9790
2.495223 0.9790 0.9800 0.9800 0.9800 0.9790
2.533000 0.9790 0.9800 0.9800 0.9800 0.9800
2.571223 0.9790 0.9790 0.9800 0.9800 0.9800
2.610000 0.9820 0.9820 0.9830 0.9830 0.9830
2.648223 0.9830 0.9830 0.9830 0.9830 0.9830
2.686000 0.9830 0.9830 0.9830 0.9830 0.9820
2.724223 0.9760 0.9730 0.9600 0.9510 0.9320
2.762000 0.9140 0.9020 0.8860 0.8650 0.8170
2.800223 0.7770 0.7530 0.7050 0.6340 0.6130
2.839000 0.5780 0.5320 0.5070 0.4950 0.4790
2.877223 0.4640 0.4450 0.4350 0.4230 0.4120
2.915000 0.4070 0.3950 0.3830 0.3760 0.3680
2.953223 0.3670 0.3650 0.3650 0.3670 0.3700
2.992000 0.3740 0.3840 0.3930 0.4020 0.4120
3.030223 0.4230 0.4290 0.4350 0.4360 0.4380
3.068000 0.4410 0.4430 0.4460 0.4480 0.4520
3.106223 0.4540 0.4570 0.4600 0.4660 0.4700
3.144000 0.4820 0.4920 0.5010 0.5110 0.5160
3.182223 0.5280 0.5350 0.5470 0.5600 0.5690
3.221000 0.5760 0.5880 0.5950 0.6040 0.6150
3.259223 0.6250 0.6310 0.6430 0.6510 0.6600
3.297000 0.6680 0.6790 0.6850 0.6970 0.7050
3.335223 0.7210 0.7280 0.7330 0.7400 0.7460
3.374000 0.7490 0.7550 0.7640 0.7680 0.7710
3.412223 0.7750 0.7780 0.7800 0.7830 0.7890
3.450000 0.7930 0.7990 0.8080 0.8180 0.8240
3.488223 0.8280 0.8330 0.8430 0.8460 0.8510
3.526000 0.8530 0.8590 0.8620 0.8670 0.8730
3.564223 0.8760 0.8790 0.8830 0.8870 0.8890
3.603000 0.8900 0.8930 0.8960 0.8980 0.9010
3.641223 0.9040 0.9050 0.9080 0.9110 0.9120
3.679000 0.9150 0.9180 0.9210 0.9230 0.9240
3.717223 0.9260 0.9300 0.9330 0.9360 0.9420
3.756000 0.9430 0.9450 0.9460 0.9480 0.9490
3.794223 0.9510 0.9510 0.9520 0.9520 0.9540
3.832000 0.9550 0.9570 0.9580 0.9580 0.9600
3.870223 0.9600 0.9610 0.9610 0.9630 0.9630
3.908000 0.9640 0.9640 0.9640 0.9660 0.9660
3.946223 0.9670 0.9670 0.9690 0.9690 0.9700
3.985000 0.9700 0.9710 0.9730 0.9740 0.9740
4.023223 0.9740 0.9740 0.9760 0.9760 0.9760
4.061000 0.9760 0.9770 0.9770 0.9790 0.9790
4.099223 0.9800 0.9820 0.9820 0.9830 0.9850
4.138000 0.9850 0.9860 0.9860 0.9860 0.9860
4.176223 0.9880 0.9880 0.9880 0.9880 0.9880
4.214000 0.9880 0.9880 0.9880 0.9880 0.9880
4.252223 0.9880 0.9880 0.9880 0.9880 0.9880
4.290000 0.9880 0.9880 0.9880 0.9880 0.9880
4.328223 0.9880 0.9880 0.9880 0.9890 0.9890
4.367000 0.9890 0.9880 0.9880 0.9880 0.9880
4.405223 0.9880 0.9880 0.9880 0.9880 0.9880
4.443000 0.9880 0.9880 0.9880 0.9880 0.9880
4.481223 0.9880 0.9880 0.9880 0.9880 0.9880
4.520000 0.9880 0.9880 0.9880 0.9880 0.9880
4.558223 0.9880 0.9880 0.9880 0.9880 0.9880
4.596000 0.9880 0.9880 0.9880 0.9880 0.9880
4.634223 0.9880 0.9880 0.9860 0.9880 0.9880
4.672000 0.9880 0.9880 0.9860 0.9860 0.9850
4.710223 0.9850 0.9830 0.9830 0.9830 0.9830
4.749000 0.9830 0.9830 0.9830 0.9830 0.9850
4.787223 0.9850 0.9850 0.9850 0.9850 0.9850
4.825000 0.9860 0.9860 0.9860 0.9860 0.9860
4.863223 0.9860 0.9880 0.9880 0.9880 0.9880
4.902000 0.9880 0.9890 0.9890 0.9890 0.9890
4.940223 0.9890 0.9890 0.9890 0.9910 0.9910
4.978000 0.9910 0.9910 0.9910 0.9910 0.9920
5.016223 0.9920 0.9920 0.9920 0.9920 0.9920
5.054000 0.9920 0.9920 0.9920 0.9940 0.9920
5.092223 0.9920 0.9920 0.9920 0.9920 0.9920
5.131000 0.9920 0.9920 0.9920 0.9920 0.9920
5.169223 0.9920 0.9920 0.9910 0.9910 0.9890
5.207000 0.9860 0.9850 0.9830 0.9830 0.9820
5.245223 0.9800 0.9790 0.9790 0.9790 0.9770
5.284000 0.9770 0.9770 0.9770 0.9770 0.9760
5.322223 0.9760 0.9760 0.9740 0.9740 0.9730
5.360000 0.9730 0.9730 0.9710 0.9700 0.9690
5.398223 0.9660 0.9640 0.9630 0.9630 0.9610
5.436000 0.9610 0.9600 0.9550 0.9540 0.9520
5.474223 0.9520 0.9510 0.9480 0.9430 0.9390
5.513000 0.9360 0.9360 0.9350 0.9300 0.9270
5.551223 0.9240 0.9230 0.9210 0.9210 0.9180
5.589000 0.9140 0.9080 0.9040 0.9020 0.8990
5.627223 0.8980 0.8960 0.8930 0.8870 0.8790
5.666000 0.8740 0.8700 0.8650 0.8580 0.8530
5.704223 0.8520 0.8510 0.8490 0.8450 0.8390
5.742000 0.8310 0.8250 0.8210 0.8170 0.8110
5.780223 0.8030 0.7870 0.7580 0.7490 0.7460
5.818000 0.7410 0.7340 0.7220 0.7000 0.6780
5.856223 0.6510 0.6320 0.6190 0.6070 0.5920
5.895000 0.5750 0.5570 0.5200 0.4890 0.4520
5.933223 0.4430 0.4120 0.4010 0.3730 0.3330
5.971000 0.3080 0.2940 0.2740 0.2550 0.2300
6.009223 0.2000 0.1810 0.1790 0.1750 0.1710
6.048000 0.1650 0.1570 0.1500 0.1370 0.1230
6.086223 0.1170 0.1150 0.1130 0.1090 0.1010
6.124000 0.0980 0.0970 0.0950 0.0940 0.0940
6.162223 0.0940 0.0940 0.0940 0.0940 0.0940
6.200000 0.0940 0.0940 0.0940 0.0940 0.0950
6.238223 0.0970 0.0980 0.1000 0.1040 0.1130
6.277000 0.1290 0.1400 0.1540 0.1680 0.1790
6.315223 0.1960 0.2190 0.2330 0.2460 0.2620
6.353000 0.2720 0.2860 0.3030 0.3200 0.3390
6.391223 0.3550 0.3700 0.3800 0.3920 0.4180
6.430000 0.4290 0.4460 0.4660 0.4760 0.4850
6.468223 0.4950 0.4980 0.5130 0.5250 0.5360
6.506000 0.5500 0.5610 0.5720 0.5790 0.5870
6.544223 0.5920 0.5980 0.6010 0.6070 0.6090
6.582000 0.6150 0.6230 0.6320 0.6370 0.6460
6.620223 0.6480 0.6540 0.6590 0.6630 0.6690
6.659000 0.6760 0.6810 0.6850 0.6900 0.6990
6.697223 0.7020 0.7060 0.7090 0.7120 0.7150
6.735000 0.7190 0.7210 0.7220 0.7240 0.7250
6.773223 0.7270 0.7270 0.7270 0.7270 0.7280
6.812000 0.7280 0.7280 0.7300 0.7310 0.7310
6.850223 0.7330 0.7340 0.7340 0.7350 0.7400
6.888000 0.7460 0.7490 0.7490 0.7520 0.7550
6.926223 0.7560 0.7580 0.7610 0.7640 0.7650
6.964000 0.7660 0.7710 0.7750 0.7770 0.7770
7.002223 0.7780 0.7800 0.7800 0.7830 0.7840
7.041000 0.7870 0.7870 0.7900 0.7930 0.7970
7.079223 0.8020 0.8030 0.8050 0.8060 0.8080
7.117000 0.8110 0.8120 0.8150 0.8180 0.8200
7.155223 0.8210 0.8210 0.8210 0.8230 0.8230
7.194000 0.8230 0.8230 0.8230 0.8210 0.8150
7.232223 0.8110 0.7970 0.7870 0.7710 0.7590
7.270000 0.7520 0.7490 0.7460 0.7410 0.7350
7.308223 0.7300 0.7240 0.7210 0.7190 0.7180
7.346000 0.7150 0.7090 0.7030 0.7000 0.6940
7.384223 0.6910 0.6850 0.6810 0.6740 0.6720
7.423000 0.6660 0.6630 0.6590 0.6530 0.6510
7.461223 0.6440 0.6410 0.6340 0.6290 0.6160
7.499000 0.5850 0.5690 0.5570 0.5280 0.5050
7.537223 0.4950 0.4540 0.4300 0.3860 0.3640
7.576000 0.3460 0.3330 0.3150 0.3020 0.2930
7.614223 0.2890 0.2860 0.2840 0.2860 0.2890
7.652000 0.3000 0.3180 0.3480 0.3700 0.3890
7.690223 0.4100 0.4300 0.4420 0.4690 0.4920
7.728000 0.5220 0.5470 0.5630 0.5760 0.5920
7.766223 0.6040 0.6230 0.6400 0.6600 0.6740
7.805000 0.6850 0.6990 0.7070 0.7130 0.7270
7.843223 0.7400 0.7490 0.7590 0.7620 0.7690
7.881000 0.7800 0.7840 0.7890 0.7900 0.7930
7.919223 0.7990 0.8050 0.8120 0.8170 0.8200
7.958000 0.8230 0.8270 0.8280 0.8300 0.8330
7.996223 0.8360 0.8400 0.8430 0.8460 0.8480
8.034000 0.8490 0.8510 0.8530 0.8550 0.8550
8.072223 0.8560 0.8560 0.8580 0.8580 0.8590
8.110000 0.8610 0.8620 0.8640 0.8650 0.8670
8.148223 0.8680 0.8680 0.8700 0.8700 0.8710
8.187000 0.8730 0.8730 0.8740 0.8740 0.8740
8.225223 0.8760 0.8770 0.8770 0.8770 0.8790
8.263000 0.8790 0.8790 0.8800 0.8820 0.8830
8.301223 0.8840 0.8860 0.8890 0.8900 0.8920
8.340000 0.8930 0.8930 0.8950 0.8960 0.8960
8.378223 0.8980 0.8980 0.8980 0.8980 0.8990
8.416000 0.8990 0.9010 0.9020 0.9040 0.9040
8.454223 0.9050 0.9050 0.9050 0.9050 0.9070
8.492000 0.9070 0.9070 0.9070 0.9070 0.9080
8.530223 0.9100 0.9110 0.9110 0.9120 0.9140
8.569000 0.9140 0.9150 0.9150 0.9150 0.9150
8.607223 0.9150 0.9170 0.9170 0.9170 0.9170
8.645000 0.9170 0.9170 0.9170 0.9170 0.9180
8.683223 0.9180 0.9180 0.9180 0.9200 0.9200
8.722000 0.9210 0.9210 0.9210 0.9230 0.9230
8.760223 0.9230 0.9240 0.9240 0.9240 0.9240
8.798000 0.9240 0.9260 0.9260 0.9270 0.9270
8.836223 0.9270 0.9270 0.9270 0.9290 0.9290
8.874000 0.9290 0.9300 0.9300 0.9300 0.9320
8.912223 0.9320 0.9320 0.9320 0.9320 0.9320
8.951000 0.9320 0.9320 0.9320 0.9320 0.9330
8.989223 0.9330 0.9330 0.9330 0.9330 0.9330
9.027000 0.9330 0.9330 0.9330 0.9330 0.9330
9.065223 0.9330 0.9330 0.9330 0.9330 0.9350
9.104000 0.9350 0.9350 0.9350 0.9350 0.9350
9.142223 0.9350 0.9360 0.9360 0.9360 0.9360
9.180000 0.9360 0.9380 0.9380 0.9380 0.9380
9.218223 0.9380 0.9380 0.9390 0.9380 0.9380
9.256000 0.9380 0.9380 0.9390 0.9390 0.9390
9.294223 0.9410 0.9410 0.9420 0.9420 0.9430
9.333000 0.9430 0.9430 0.9450 0.9450 0.9450
9.371223 0.9450 0.9450 0.9450 0.9450 0.9450
9.409000 0.9450 0.9460 0.9460 0.9460 0.9460
9.447223 0.9460 0.9460 0.9460 0.9460 0.9480
9.486000 0.9480 0.9480 0.9460 0.9480 0.9480
9.524223 0.9480 0.9480 0.9480 0.9480 0.9480
9.562000 0.9480 0.9480 0.9480 0.9490 0.9490
9.600223 0.9490 0.9480 0.9490 0.9490 0.9490
9.638000 0.9490 0.9490 0.9490 0.9490 0.9490
9.676223 0.9490 0.9490 0.9490 0.9510 0.9510
9.715000 0.9510 0.9510 0.9510 0.9510 0.9510
9.753223 0.9510 0.9520 0.9520 0.9520 0.9520
9.791000 0.9520 0.9520 0.9520 0.9520 0.9520
9.829223 0.9520 0.9520 0.9520 0.9520 0.9520
9.868000 0.9520 0.9520 0.9540 0.9540 0.9540
9.906223 0.9540 0.9540 0.9540 0.9540 0.9540
9.944000 0.9540 0.9540 0.9550 0.9550 0.9550
9.982223 0.9550 0.9550 0.9550 0.9550 0.9570
10.020000 0.9570 0.9570 0.9570 0.9570 0.9570
10.058223 0.9580 0.9580 0.9580 0.9580 0.9600
10.097000 0.9600 0.9600 0.9610 0.9610 0.9610
10.135223 0.9610 0.9610 0.9610 0.9610 0.9610
10.173000 0.9610 0.9610 0.9610 0.9610 0.9610
10.211223 0.9610 0.9610 0.9610 0.9600 0.9600
10.250000 0.9600 0.9610 0.9610 0.9610 0.9610
10.288223 0.9610 0.9630 0.9630 0.9630 0.9630
10.326000 0.9630 0.9630 0.9630 0.9630 0.9630
10.364223 0.9630 0.9630 0.9630 0.9630 0.9630
10.402000 0.9630 0.9610 0.9610 0.9610 0.9610
10.440223 0.9600 0.9600 0.9600 0.9600 0.9600
10.479000 0.9600 0.9600 0.9600 0.9600 0.9600
10.517223 0.9600 0.9600 0.9600 0.9610 0.9610
10.555000 0.9610 0.9610 0.9610 0.9610 0.9610
10.593223 0.9610 0.9600 0.9600 0.9600 0.9600
10.632000 0.9580 0.9580 0.9580 0.9580 0.9580
10.670223 0.9580 0.9580 0.9580 0.9580 0.9570
10.708000 0.9570 0.9550 0.9550 0.9550 0.9540
10.746223 0.9540 0.9540 0.9540 0.9540 0.9540
10.784000 0.9520 0.9520 0.9520 0.9510 0.9510
10.822223 0.9490 0.9490 0.9480 0.9460 0.9450
10.861000 0.9450 0.9450 0.9430 0.9430 0.9420
10.899223 0.9420 0.9420 0.9410 0.9410 0.9410
10.937000 0.9410 0.9410 0.9390 0.9390 0.9380
10.975223 0.9380 0.9380 0.9360 0.9350 0.9350
11.014000 0.9330 0.9330 0.9320 0.9320 0.9320
11.052223 0.9320 0.9300 0.9300 0.9300 0.9300
11.090000 0.9290 0.9290 0.9270 0.9270 0.9260
11.128223 0.9260 0.9260 0.9240 0.9240 0.9230
11.166000 0.9210 0.9210 0.9210 0.9210 0.9210
11.204223 0.9210 0.9210 0.9210 0.9210 0.9210
11.243000 0.9200 0.9200 0.9200 0.9200 0.9200
11.281223 0.9200 0.9200 0.9200 0.9210 0.9200
11.319000 0.9200 0.9200 0.9210 0.9200 0.9200
11.357223 0.9200 0.9200 0.9200 0.9200 0.9200
11.396000 0.9200 0.9200 0.9200 0.9200 0.9200
11.434223 0.9200 0.9200 0.9200 0.9200 0.9200
11.472000 0.9200 0.9200 0.9200 0.9200 0.9200
11.510223 0.9200 0.9180 0.9180 0.9170 0.9150
11.548000 0.9150 0.9140 0.9140 0.9120 0.9120
11.586223 0.9120 0.9120 0.9110 0.9110 0.9110
11.625000 0.9110 0.9100 0.9080 0.9050 0.9020
11.663223 0.9020 0.9010 0.8990 0.8980 0.8960
11.701000 0.8960 0.8960 0.8950 0.8950 0.8950
11.739223 0.8930 0.8920 0.8900 0.8900 0.8890
11.778000 0.8870 0.8870 0.8840 0.8830 0.8820
11.816223 0.8820 0.8800 0.8790 0.8770 0.8760
11.854000 0.8760 0.8740 0.8730 0.8730 0.8710
11.892223 0.8700 0.8680 0.8650 0.8640 0.8610
11.930000 0.8590 0.8580 0.8550 0.8550 0.8530
11.968223 0.8530 0.8530 0.8530 0.8530 0.8530
12.007000 0.8520 0.8520 0.8510 0.8490 0.8490
12.045223 0.8480 0.8460 0.8450 0.8450 0.8450
12.083000 0.8450 0.8430 0.8420 0.8420 0.8420
12.121223 0.8400 0.8390 0.8370 0.8360 0.8340
12.160000 0.8310 0.8300 0.8270 0.8250 0.8240
12.198223 0.8230 0.8230 0.8180 0.8140 0.8120
12.236000 0.8110 0.8090 0.8060 0.8020 0.7990
12.274223 0.7940 0.7890 0.7830 0.7750 0.7710
12.312000 0.7660 0.7610 0.7550 0.7490 0.7460
12.350223 0.7400 0.7300 0.7220 0.7120 0.7030
12.389000 0.6910 0.6780 0.6650 0.6590 0.6370
12.427223 0.6230 0.6030 0.5910 0.5820 0.5700
12.465000 0.5580 0.5500 0.5350 0.5320 0.5190
12.503223 0.5110 0.5050 0.4970 0.4920 0.4880
12.542000 0.4830 0.4760 0.4730 0.4700 0.4670
12.580223 0.4640 0.4640 0.4630 0.4630 0.4610
12.618000 0.4600 0.4600 0.4600 0.4600 0.4600
12.656223 0.4610 0.4630 0.4640 0.4670 0.4770
12.694000 0.4890 0.5050 0.5230 0.5320 0.5440
12.732223 0.5570 0.5640 0.5730 0.5810 0.5840
12.771000 0.5910 0.5970 0.6040 0.6100 0.6120
12.809223 0.6170 0.6230 0.6310 0.6340 0.6400
12.847000 0.6460 0.6510 0.6570 0.6620 0.6660
12.885223 0.6690 0.6710 0.6750 0.6790 0.6840
12.924000 0.6880 0.6910 0.6960 0.7000 0.7050
12.962223 0.7090 0.7130 0.7210 0.7220 0.7300
13.000000 0.7340 0.7410 0.7440 0.7470 0.7500
13.038223 0.7530 0.7560 0.7580 0.7610 0.7620
13.076000 0.7640 0.7650 0.7660 0.7680 0.7680
13.114223 0.7690 0.7710 0.7720 0.7720 0.7740
13.153000 0.7750 0.7750 0.7770 0.7770 0.7770
13.191223 0.7770 0.7770 0.7770 0.7780 0.7780
13.229000 0.7770 0.7770 0.7770 0.7770 0.7770
13.267223 0.7770 0.7770 0.7780 0.7780 0.7800
13.306000 0.7800 0.7800 0.7800 0.7810 0.7810
13.344223 0.7810 0.7800 0.7800 0.7800 0.7800
13.382000 0.7800 0.7800 0.7800 0.7780 0.7780
13.420223 0.7770 0.7750 0.7750 0.7740 0.7740
13.458000 0.7740 0.7740 0.7740 0.7720 0.7720
13.496223 0.7720 0.7710 0.7710 0.7690 0.7680
13.535000 0.7680 0.7660 0.7650 0.7650 0.7640
13.573223 0.7640 0.7620 0.7610 0.7590 0.7580
13.611000 0.7560 0.7560 0.7550 0.7530 0.7520
13.649223 0.7500 0.7490 0.7490 0.7490 0.7470
13.688000 0.7460 0.7460 0.7460 0.7440 0.7440
13.726223 0.7440 0.7430 0.7430 0.7430 0.7410
13.764000 0.7400 0.7380 0.7380 0.7370 0.7370
13.802223 0.7350 0.7340 0.7330 0.7330 0.7330
13.840000 0.7330 0.7330 0.7330 0.7330 0.7330
13.878223 0.7310 0.7310 0.7330 0.7330 0.7340
13.917000 0.7340 0.7340 0.7340 0.7340 0.7340
13.955223 0.7330 0.7330 0.7330 0.7330 0.7330
13.993000 0.7330 0.7330 0.7340 0.7340 0.7340
14.031223 0.7340 0.7340 0.7340 0.7340 0.7340
14.070000 0.7340 0.7340 0.7340 0.7340 0.7350
14.108223 0.7350 0.7350 0.7350 0.7370 0.7370
14.146000 0.7370 0.7370 0.7380 0.7380 0.7380
14.184223 0.7380 0.7380 0.7380 0.7400 0.7400
14.222000 0.7400 0.7410 0.7410 0.7430 0.7440
14.260223 0.7460 0.7460 0.7460 0.7470 0.7470
14.299000 0.7490 0.7490 0.7490 0.7500 0.7500
14.337223 0.7500 0.7520 0.7520 0.7520 0.7520
14.375000 0.7520 0.7520 0.7520 0.7520 0.7520
14.413223 0.7520 0.7520 0.7530 0.7530 0.7530
14.452000 0.7550 0.7550 0.7550 0.7550 0.7550
14.490223 0.7550 0.7560 0.7550 0.7550 0.7560
14.528000 0.7560 0.7560 0.7580 0.7590 0.7620
14.566223 0.7640 0.7640 0.7650 0.7650 0.7660
14.604000 0.7660 0.7660 0.7660 0.7660 0.7660
14.642223 0.7660 0.7660 0.7650 0.7650 0.7650
14.681000 0.7660 0.7660 0.7660 0.7660 0.7660
14.719223 0.7660 0.7660 0.7660 0.7680 0.7680
14.757000 0.7680 0.7680 0.7680 0.7680 0.7680
14.795223 0.7680 0.7680 0.7680 0.7680 0.7690
14.834000 0.7690 0.7690 0.7690 0.7690 0.7690
14.872223 0.7690 0.7690 0.7690 0.7680 0.7680
14.910000 0.7680 0.7690 0.7690 0.7690 0.7710
14.948223 0.7720 0.7720
##END=
