##TITLE=Benzenesulfonic acid, 2,4,6-trinitro-, nickel salt
##JCAMP-DX=4.24
$$ By DXEDIT 1.05 (RS McDonald)
##DATA TYPE=INFRARED SPECTRUM
##CLASS=COBLENTZ III
##ORIGIN=STANDARD OIL OF OHIO
##OWNER=COPYRIGHT (C) 1988 by COBLENTZ SOCIETY INC.
Collection (C) 2018 copyright by the U.S. Secretary of Commerce
on behalf of the United States of America. All rights reserved.
##DATE=1966/08/04
##MOLFORM=C12 H4 N6 O18 S2 Ni
##SOURCE REFERENCE=COBLENTZ NO. 08404
##$NIST ID=B6008404
##$NIST SOURCE=COBLENTZ
##$NIST IMAGE=cob8404
##SPECTROMETER/DATA SYSTEM=PERKIN-ELMER 521 (GRATING)
##STATE=SOLID (NUJOL MULL)
$$SPECTRAL CONTAMINATION DUE TO OIL AROUND 2850 CM^-^1
##SAMPLING PROCEDURE=TRANSMISSION
##RESOLUTION=2
##DATA PROCESSING=DIGITIZED BY COBLENTZ SOCIETY (BATCH I) FROM HARD COPY
##XUNITS=1/CM
##YUNITS=TRANSMITTANCE
##XFACTOR=1
##YFACTOR=1
##DELTAX=1
##FIRSTX=3896
##LASTX=504
##FIRSTY=0.7501
##MAXX=3896
##MINX=504
##MAXY=0.838
##MINY=0.1029
##NPOINTS=3393
##XYDATA=(X++(Y..Y))
3896.000000 0.7501 0.7500 0.7497 0.7497 0.7497
3891.000000 0.7495 0.7494 0.7493 0.7492 0.7490
3886.000000 0.7489 0.7488 0.7487 0.7486 0.7485
3881.000000 0.7483 0.7482 0.7482 0.7482 0.7483
3876.000000 0.7484 0.7484 0.7485 0.7486 0.7487
3871.000000 0.7487 0.7488 0.7492 0.7496 0.7500
3866.000000 0.7505 0.7508 0.7512 0.7517 0.7521
3861.000000 0.7525 0.7530 0.7534 0.7539 0.7543
3856.000000 0.7547 0.7551 0.7556 0.7560 0.7564
3851.000000 0.7569 0.7575 0.7582 0.7588 0.7594
3846.000000 0.7600 0.7605 0.7611 0.7617 0.7622
3841.000000 0.7628 0.7635 0.7640 0.7646 0.7650
3836.000000 0.7654 0.7657 0.7660 0.7662 0.7665
3831.000000 0.7668 0.7671 0.7675 0.7678 0.7680
3826.000000 0.7683 0.7686 0.7689 0.7692 0.7695
3821.000000 0.7698 0.7701 0.7704 0.7707 0.7710
3816.000000 0.7712 0.7714 0.7715 0.7715 0.7715
3811.000000 0.7715 0.7715 0.7715 0.7715 0.7715
3806.000000 0.7717 0.7717 0.7718 0.7718 0.7718
3801.000000 0.7718 0.7718 0.7718 0.7718 0.7719
3796.000000 0.7721 0.7721 0.7724 0.7725 0.7728
3791.000000 0.7728 0.7731 0.7733 0.7735 0.7736
3786.000000 0.7738 0.7740 0.7742 0.7743 0.7745
3781.000000 0.7747 0.7749 0.7751 0.7753 0.7757
3776.000000 0.7761 0.7765 0.7771 0.7775 0.7778
3771.000000 0.7783 0.7788 0.7792 0.7797 0.7801
3766.000000 0.7806 0.7810 0.7815 0.7818 0.7822
3761.000000 0.7828 0.7833 0.7838 0.7844 0.7849
3756.000000 0.7854 0.7858 0.7865 0.7869 0.7875
3751.000000 0.7880 0.7885 0.7890 0.7896 0.7901
3746.000000 0.7906 0.7911 0.7915 0.7921 0.7925
3741.000000 0.7930 0.7935 0.7940 0.7945 0.7950
3736.000000 0.7955 0.7958 0.7964 0.7965 0.7968
3731.000000 0.7971 0.7972 0.7974 0.7975 0.7976
3726.000000 0.7978 0.7980 0.7982 0.7983 0.7985
3721.000000 0.7986 0.7988 0.7988 0.7989 0.7989
3716.000000 0.7989 0.7989 0.7990 0.7990 0.7990
3711.000000 0.7990 0.7990 0.7989 0.7988 0.7986
3706.000000 0.7985 0.7983 0.7982 0.7980 0.7978
3701.000000 0.7978 0.7976 0.7975 0.7974 0.7971
3696.000000 0.7968 0.7964 0.7960 0.7955 0.7950
3691.000000 0.7945 0.7941 0.7936 0.7931 0.7924
3686.000000 0.7917 0.7908 0.7899 0.7890 0.7882
3681.000000 0.7872 0.7864 0.7855 0.7846 0.7834
3676.000000 0.7822 0.7806 0.7790 0.7772 0.7756
3671.000000 0.7739 0.7722 0.7696 0.7669 0.7628
3666.000000 0.7588 0.7549 0.7510 0.7472 0.7437
3661.000000 0.7400 0.7364 0.7325 0.7289 0.7251
3656.000000 0.7215 0.7168 0.7124 0.7061 0.6998
3651.000000 0.6931 0.6865 0.6786 0.6707 0.6611
3646.000000 0.6515 0.6425 0.6337 0.6272 0.6207
3641.000000 0.6037 0.5868 0.5749 0.5631 0.5512
3636.000000 0.5395 0.5276 0.5158 0.5039 0.4921
3631.000000 0.4803 0.4685 0.4566 0.4448 0.4329
3626.000000 0.4210 0.4092 0.3974 0.3856 0.3738
3621.000000 0.3618 0.3500 0.3382 0.3264 0.3145
3616.000000 0.3027 0.2909 0.2791 0.2682 0.2573
3611.000000 0.2510 0.2447 0.2384 0.2322 0.2283
3606.000000 0.2245 0.2206 0.2168 0.2128 0.2089
3601.000000 0.2051 0.2014 0.1986 0.1961 0.1937
3596.000000 0.1916 0.1903 0.1891 0.1882 0.1874
3591.000000 0.1866 0.1859 0.1851 0.1844 0.1834
3586.000000 0.1827 0.1819 0.1811 0.1802 0.1794
3581.000000 0.1787 0.1782 0.1775 0.1769 0.1762
3576.000000 0.1756 0.1749 0.1743 0.1736 0.1731
3571.000000 0.1724 0.1718 0.1711 0.1704 0.1696
3566.000000 0.1690 0.1683 0.1676 0.1665 0.1654
3561.000000 0.1644 0.1634 0.1628 0.1621 0.1615
3556.000000 0.1610 0.1610 0.1609 0.1610 0.1613
3551.000000 0.1620 0.1628 0.1636 0.1646 0.1660
3546.000000 0.1674 0.1686 0.1700 0.1712 0.1724
3541.000000 0.1734 0.1745 0.1756 0.1767 0.1778
3536.000000 0.1789 0.1796 0.1806 0.1813 0.1821
3531.000000 0.1828 0.1834 0.1842 0.1850 0.1854
3526.000000 0.1858 0.1860 0.1862 0.1864 0.1867
3521.000000 0.1868 0.1869 0.1869 0.1870 0.1870
3516.000000 0.1882 0.1866 0.1863 0.1859 0.1856
3511.000000 0.1849 0.1843 0.1834 0.1826 0.1817
3506.000000 0.1809 0.1799 0.1789 0.1778 0.1768
3501.000000 0.1758 0.1748 0.1740 0.1733 0.1725
3496.000000 0.1718 0.1711 0.1704 0.1702 0.1700
3491.000000 0.1698 0.1695 0.1694 0.1692 0.1691
3486.000000 0.1690 0.1689 0.1689 0.1687 0.1686
3481.000000 0.1684 0.1682 0.1679 0.1678 0.1676
3476.000000 0.1674 0.1670 0.1667 0.1660 0.1654
3471.000000 0.1645 0.1639 0.1628 0.1617 0.1606
3466.000000 0.1595 0.1583 0.1572 0.1559 0.1546
3461.000000 0.1534 0.1521 0.1502 0.1483 0.1464
3456.000000 0.1446 0.1429 0.1413 0.1398 0.1384
3451.000000 0.1370 0.1357 0.1346 0.1337 0.1327
3446.000000 0.1317 0.1308 0.1299 0.1290 0.1282
3441.000000 0.1273 0.1265 0.1258 0.1252 0.1250
3436.000000 0.1214 0.1246 0.1246 0.1245 0.1244
3431.000000 0.1244 0.1245 0.1246 0.1246 0.1248
3426.000000 0.1250 0.1251 0.1252 0.1255 0.1258
3421.000000 0.1262 0.1266 0.1270 0.1274 0.1281
3416.000000 0.1289 0.1296 0.1305 0.1313 0.1322
3411.000000 0.1332 0.1342 0.1353 0.1363 0.1366
3406.000000 0.1370 0.1373 0.1377 0.1380 0.1384
3401.000000 0.1386 0.1388 0.1389 0.1391 0.1392
3396.000000 0.1394 0.1395 0.1396 0.1398 0.1400
3391.000000 0.1401 0.1403 0.1404 0.1405 0.1406
3386.000000 0.1408 0.1410 0.1413 0.1415 0.1417
3381.000000 0.1419 0.1422 0.1424 0.1426 0.1428
3376.000000 0.1430 0.1434 0.1439 0.1444 0.1450
3371.000000 0.1455 0.1460 0.1466 0.1473 0.1479
3366.000000 0.1485 0.1491 0.1498 0.1504 0.1511
3361.000000 0.1517 0.1523 0.1529 0.1536 0.1542
3356.000000 0.1548 0.1554 0.1561 0.1568 0.1575
3351.000000 0.1583 0.1591 0.1599 0.1607 0.1615
3346.000000 0.1624 0.1632 0.1640 0.1648 0.1656
3341.000000 0.1664 0.1672 0.1679 0.1687 0.1695
3336.000000 0.1704 0.1712 0.1720 0.1728 0.1735
3331.000000 0.1743 0.1751 0.1758 0.1766 0.1773
3326.000000 0.1779 0.1786 0.1794 0.1802 0.1809
3321.000000 0.1816 0.1824 0.1831 0.1837 0.1844
3316.000000 0.1853 0.1859 0.1866 0.1872 0.1879
3311.000000 0.1884 0.1892 0.1898 0.1904 0.1911
3306.000000 0.1918 0.1924 0.1931 0.1936 0.1944
3301.000000 0.1950 0.1957 0.1963 0.1970 0.1976
3296.000000 0.1982 0.1987 0.1994 0.2000 0.2006
3291.000000 0.2012 0.2018 0.2023 0.2029 0.2034
3286.000000 0.2041 0.2045 0.2052 0.2057 0.2063
3281.000000 0.2068 0.2074 0.2079 0.2084 0.2090
3276.000000 0.2096 0.2101 0.2107 0.2112 0.2118
3271.000000 0.2123 0.2129 0.2134 0.2140 0.2145
3266.000000 0.2150 0.2155 0.2162 0.2164 0.2168
3261.000000 0.2171 0.2175 0.2176 0.2178 0.2179
3256.000000 0.2180 0.2181 0.2183 0.2184 0.2184
3251.000000 0.2184 0.2184 0.2182 0.2180 0.2178
3246.000000 0.2176 0.2174 0.2172 0.2171 0.2170
3241.000000 0.2167 0.2165 0.2161 0.2157 0.2152
3236.000000 0.2148 0.2144 0.2140 0.2135 0.2132
3231.000000 0.2128 0.2124 0.2120 0.2116 0.2112
3226.000000 0.2108 0.2104 0.2100 0.2096 0.2092
3221.000000 0.2088 0.2084 0.2080 0.2076 0.2072
3216.000000 0.2069 0.2067 0.2066 0.2064 0.2062
3211.000000 0.2060 0.2058 0.2056 0.2055 0.2053
3206.000000 0.2051 0.2049 0.2046 0.2044 0.2044
3201.000000 0.2042 0.2040 0.2037 0.2035 0.2033
3196.000000 0.2031 0.2029 0.2027 0.2024 0.2022
3191.000000 0.2019 0.2017 0.2014 0.2012 0.2009
3186.000000 0.2007 0.2004 0.2002 0.2000 0.1998
3181.000000 0.1995 0.1994 0.1992 0.1990 0.1987
3176.000000 0.1985 0.1984 0.1983 0.1981 0.1979
3171.000000 0.1977 0.1976 0.1974 0.1972 0.1970
3166.000000 0.1968 0.1966 0.1965 0.1965 0.1965
3161.000000 0.1965 0.1966 0.1967 0.1968 0.1968
3156.000000 0.1969 0.1970 0.1971 0.1971 0.1972
3151.000000 0.1974 0.1976 0.1981 0.1985 0.1991
3146.000000 0.1995 0.2001 0.2007 0.2014 0.2021
3141.000000 0.2031 0.2042 0.2052 0.2063 0.2077
3136.000000 0.2092 0.2107 0.2122 0.2137 0.2152
3131.000000 0.2169 0.2185 0.2203 0.2221 0.2238
3126.000000 0.2255 0.2272 0.2289 0.2307 0.2325
3121.000000 0.2342 0.2360 0.2378 0.2396 0.2414
3116.000000 0.2432 0.2449 0.2467 0.2483 0.2500
3111.000000 0.2516 0.2533 0.2547 0.2561 0.2574
3106.000000 0.2587 0.2598 0.2610 0.2618 0.2626
3101.000000 0.2633 0.2641 0.2648 0.2655 0.2661
3096.000000 0.2668 0.2674 0.2681 0.2683 0.2685
3091.000000 0.2688 0.2682 0.2693 0.2693 0.2694
3086.000000 0.2693 0.2687 0.2682 0.2593 0.2504
3081.000000 0.2366 0.2228 0.2089 0.1951 0.1812
3076.000000 0.1674 0.1536 0.1342 0.1375 0.1353
3071.000000 0.1377 0.1402 0.1470 0.1539 0.1607
3066.000000 0.1676 0.1744 0.1813 0.1881 0.1950
3061.000000 0.2018 0.2087 0.2162 0.2238 0.2289
3056.000000 0.2341 0.2417 0.2494 0.2559 0.2625
3051.000000 0.2693 0.2761 0.2800 0.2840 0.2866
3046.000000 0.2893 0.2915 0.2938 0.2961 0.2984
3041.000000 0.3005 0.3026 0.3044 0.3062 0.3079
3036.000000 0.3097 0.3115 0.3133 0.3150 0.3167
3031.000000 0.3184 0.3200 0.3216 0.3232 0.3248
3026.000000 0.3262 0.3280 0.3297 0.3318 0.3339
3021.000000 0.3355 0.3371 0.3398 0.3426 0.3452
3016.000000 0.3479 0.3498 0.3518 0.3534 0.3553
3011.000000 0.3566 0.3593 0.3582 0.3588 0.3588
3006.000000 0.3588 0.3587 0.3584 0.3577 0.3570
3001.000000 0.3558 0.3546 0.3532 0.3521 0.3512
2996.000000 0.3503 0.3494 0.3484 0.3479 0.3473
2991.000000 0.3466 0.3460 0.3455 0.3449 0.3442
2986.000000 0.3436 0.3427 0.3418 0.3409 0.3400
2981.000000 0.3378 0.3355 0.3323 0.3291 0.3258
2976.000000 0.3225 0.3153 0.3081 0.3006 0.2931
2971.000000 0.2856 0.2781 0.2706 0.2632 0.2557
2966.000000 0.2482 0.2407 0.2332 0.2257 0.2182
2961.000000 0.2107 0.2032 0.1957 0.1882 0.1807
2956.000000 0.1732 0.1710 0.1689 0.1674 0.1659
2951.000000 0.1648 0.1637 0.1635 0.1634 0.1634
2946.000000 0.1634 0.1641 0.1646 0.1662 0.1677
2941.000000 0.1687 0.1699 0.1703 0.1708 0.1700
2936.000000 0.1693 0.1636 0.1582 0.1526 0.1470
2931.000000 0.1414 0.1358 0.1302 0.1246 0.1192
2926.000000 0.1138 0.1112 0.1086 0.1066 0.1046
2921.000000 0.1037 0.1034 0.1029 0.1030 0.1039
2916.000000 0.1049 0.1064 0.1080 0.1153 0.1227
2911.000000 0.1318 0.1410 0.1462 0.1515 0.1567
2906.000000 0.1620 0.1672 0.1724 0.1776 0.1829
2901.000000 0.1881 0.1934 0.1985 0.2037 0.2090
2896.000000 0.2143 0.2195 0.2248 0.2300 0.2352
2891.000000 0.2404 0.2457 0.2509 0.2562 0.2614
2886.000000 0.2666 0.2718 0.2771 0.2823 0.2876
2881.000000 0.2928 0.2980 0.3017 0.3054 0.3058
2876.000000 0.3059 0.3060 0.3058 0.3051 0.3044
2871.000000 0.3012 0.2980 0.2883 0.2787 0.2755
2866.000000 0.2724 0.2709 0.2694 0.2681 0.2668
2861.000000 0.2650 0.2633 0.2564 0.2495 0.2419
2856.000000 0.2343 0.2268 0.2194 0.2187 0.2181
2851.000000 0.2178 0.2176 0.2185 0.2196 0.2260
2846.000000 0.2325 0.2528 0.2731 0.2934 0.3138
2841.000000 0.3341 0.3545 0.3748 0.3952 0.4155
2836.000000 0.4359 0.4562 0.4765 0.4959 0.5153
2831.000000 0.5254 0.5356 0.5449 0.5543 0.5634
2826.000000 0.5726 0.5825 0.5924 0.5994 0.6064
2821.000000 0.6123 0.6182 0.6236 0.6291 0.6342
2816.000000 0.6393 0.6454 0.6515 0.6545 0.6575
2811.000000 0.6595 0.6615 0.6632 0.6650 0.6661
2806.000000 0.6674 0.6686 0.6698 0.6708 0.6718
2801.000000 0.6728 0.6738 0.6748 0.6758 0.6765
2796.000000 0.6775 0.6782 0.6790 0.6797 0.6804
2791.000000 0.6811 0.6819 0.6830 0.6841 0.6865
2786.000000 0.6892 0.6908 0.6925 0.6948 0.6971
2781.000000 0.6990 0.7010 0.7028 0.7046 0.7064
2776.000000 0.7083 0.7100 0.7118 0.7130 0.7142
2771.000000 0.7154 0.7165 0.7176 0.7189 0.7196
2766.000000 0.7204 0.7208 0.7215 0.7219 0.7225
2761.000000 0.7230 0.7235 0.7238 0.7241 0.7244
2756.000000 0.7248 0.7251 0.7254 0.7257 0.7260
2751.000000 0.7262 0.7267 0.7267 0.7268 0.7268
2746.000000 0.7268 0.7268 0.7268 0.7268 0.7268
2741.000000 0.7268 0.7265 0.7262 0.7260 0.7257
2736.000000 0.7254 0.7250 0.7247 0.7243 0.7240
2731.000000 0.7236 0.7233 0.7228 0.7225 0.7221
2726.000000 0.7218 0.7215 0.7214 0.7211 0.7208
2721.000000 0.7207 0.7205 0.7203 0.7201 0.7201
2716.000000 0.7200 0.7201 0.7204 0.7207 0.7210
2711.000000 0.7215 0.7219 0.7225 0.7232 0.7238
2706.000000 0.7244 0.7251 0.7260 0.7268 0.7278
2701.000000 0.7282 0.7286 0.7289 0.7292 0.7294
2696.000000 0.7297 0.7296 0.7296 0.7293 0.7290
2691.000000 0.7287 0.7285 0.7285 0.7286 0.7287
2686.000000 0.7288 0.7295 0.7303 0.7311 0.7319
2681.000000 0.7334 0.7349 0.7362 0.7378 0.7384
2676.000000 0.7390 0.7395 0.7400 0.7399 0.7399
2671.000000 0.7398 0.7398 0.7398 0.7398 0.7399
2666.000000 0.7403 0.7408 0.7412 0.7418 0.7422
2661.000000 0.7428 0.7434 0.7444 0.7455 0.7458
2656.000000 0.7461 0.7464 0.7467 0.7468 0.7471
2651.000000 0.7474 0.7475 0.7476 0.7478 0.7480
2646.000000 0.7481 0.7482 0.7484 0.7485 0.7486
2641.000000 0.7487 0.7489 0.7490 0.7491 0.7493
2636.000000 0.7496 0.7499 0.7501 0.7505 0.7508
2631.000000 0.7511 0.7514 0.7517 0.7519 0.7522
2626.000000 0.7525 0.7531 0.7536 0.7542 0.7548
2621.000000 0.7554 0.7560 0.7565 0.7572 0.7578
2616.000000 0.7585 0.7590 0.7596 0.7600 0.7605
2611.000000 0.7610 0.7615 0.7617 0.7618 0.7619
2606.000000 0.7621 0.7621 0.7621 0.7622 0.7624
2601.000000 0.7625 0.7625 0.7625 0.7625 0.7625
2596.000000 0.7625 0.7621 0.7618 0.7615 0.7615
2591.000000 0.7615 0.7618 0.7619 0.7622 0.7625
2586.000000 0.7628 0.7630 0.7633 0.7636 0.7640
2581.000000 0.7643 0.7646 0.7649 0.7653 0.7656
2576.000000 0.7660 0.7662 0.7667 0.7669 0.7674
2571.000000 0.7675 0.7678 0.7678 0.7680 0.7681
2566.000000 0.7682 0.7683 0.7684 0.7684 0.7685
2561.000000 0.7686 0.7687 0.7688 0.7689 0.7690
2556.000000 0.7691 0.7692 0.7693 0.7694 0.7695
2551.000000 0.7696 0.7697 0.7698 0.7700 0.7701
2546.000000 0.7701 0.7703 0.7705 0.7706 0.7707
2541.000000 0.7708 0.7710 0.7711 0.7711 0.7712
2536.000000 0.7714 0.7715 0.7717 0.7718 0.7718
2531.000000 0.7719 0.7721 0.7722 0.7724 0.7724
2526.000000 0.7725 0.7725 0.7725 0.7724 0.7724
2521.000000 0.7724 0.7724 0.7724 0.7724 0.7724
2516.000000 0.7724 0.7724 0.7724 0.7724 0.7724
2511.000000 0.7722 0.7722 0.7721 0.7718 0.7717
2506.000000 0.7715 0.7711 0.7710 0.7707 0.7705
2501.000000 0.7703 0.7701 0.7698 0.7696 0.7692
2496.000000 0.7688 0.7684 0.7680 0.7675 0.7671
2491.000000 0.7668 0.7664 0.7660 0.7656 0.7651
2486.000000 0.7648 0.7644 0.7641 0.7637 0.7634
2481.000000 0.7630 0.7626 0.7622 0.7618 0.7617
2476.000000 0.7615 0.7615 0.7615 0.7614 0.7614
2471.000000 0.7614 0.7614 0.7615 0.7617 0.7618
2466.000000 0.7621 0.7622 0.7625 0.7628 0.7631
2461.000000 0.7633 0.7636 0.7636 0.7637 0.7637
2456.000000 0.7638 0.7638 0.7639 0.7640 0.7641
2451.000000 0.7641 0.7642 0.7639 0.7637 0.7634
2446.000000 0.7632 0.7630 0.7628 0.7625 0.7622
2441.000000 0.7619 0.7618 0.7615 0.7612 0.7611
2436.000000 0.7608 0.7606 0.7604 0.7601 0.7599
2431.000000 0.7596 0.7594 0.7591 0.7589 0.7587
2426.000000 0.7585 0.7583 0.7581 0.7578 0.7578
2421.000000 0.7575 0.7574 0.7571 0.7571 0.7568
2416.000000 0.7568 0.7565 0.7565 0.7562 0.7561
2411.000000 0.7560 0.7558 0.7558 0.7557 0.7555
2406.000000 0.7554 0.7554 0.7555 0.7555 0.7555
2401.000000 0.7555 0.7555 0.7555 0.7555 0.7555
2396.000000 0.7556 0.7556 0.7556 0.7556 0.7556
2391.000000 0.7556 0.7556 0.7556 0.7557 0.7558
2386.000000 0.7560 0.7561 0.7561 0.7562 0.7564
2381.000000 0.7565 0.7565 0.7567 0.7568 0.7569
2376.000000 0.7571 0.7571 0.7572 0.7575 0.7578
2371.000000 0.7583 0.7588 0.7592 0.7596 0.7600
2366.000000 0.7604 0.7608 0.7611 0.7615 0.7619
2361.000000 0.7621 0.7625 0.7625 0.7625 0.7625
2356.000000 0.7625 0.7625 0.7625 0.7625 0.7625
2351.000000 0.7625 0.7625 0.7624 0.7624 0.7622
2346.000000 0.7621 0.7621 0.7621 0.7621 0.7619
2341.000000 0.7618 0.7618 0.7617 0.7615 0.7614
2336.000000 0.7612 0.7611 0.7611 0.7611 0.7611
2331.000000 0.7610 0.7610 0.7610 0.7610 0.7610
2326.000000 0.7610 0.7611 0.7615 0.7618 0.7624
2321.000000 0.7628 0.7632 0.7636 0.7641 0.7645
2316.000000 0.7649 0.7655 0.7661 0.7668 0.7675
2311.000000 0.7678 0.7682 0.7685 0.7688 0.7691
2306.000000 0.7695 0.7697 0.7700 0.7701 0.7703
2301.000000 0.7704 0.7705 0.7705 0.7704 0.7704
2296.000000 0.7703 0.7701 0.7701 0.7701 0.7701
2291.000000 0.7703 0.7706 0.7708 0.7711 0.7715
2286.000000 0.7721 0.7726 0.7733 0.7738 0.7744
2281.000000 0.7749 0.7755 0.7761 0.7767 0.7769
2276.000000 0.7772 0.7775 0.7776 0.7778 0.7781
2271.000000 0.7781 0.7782 0.7783 0.7784 0.7784
2266.000000 0.7785 0.7785 0.7786 0.7786 0.7787
2261.000000 0.7787 0.7788 0.7789 0.7790 0.7790
2256.000000 0.7791 0.7792 0.7793 0.7793 0.7794
2251.000000 0.7796 0.7799 0.7801 0.7804 0.7806
2246.000000 0.7808 0.7811 0.7812 0.7815 0.7818
2241.000000 0.7821 0.7824 0.7832 0.7840 0.7848
2236.000000 0.7856 0.7864 0.7871 0.7880 0.7888
2231.000000 0.7895 0.7901 0.7907 0.7912 0.7918
2226.000000 0.7924 0.7928 0.7935 0.7940 0.7945
2221.000000 0.7950 0.7956 0.7958 0.7961 0.7965
2216.000000 0.7968 0.7971 0.7974 0.7976 0.7980
2211.000000 0.7983 0.7986 0.7989 0.7992 0.7995
2206.000000 0.7998 0.8001 0.8004 0.8007 0.8010
2201.000000 0.8012 0.8015 0.8017 0.8018 0.8018
2196.000000 0.8019 0.8019 0.8021 0.8021 0.8022
2191.000000 0.8022 0.8024 0.8025 0.8025 0.8026
2186.000000 0.8028 0.8028 0.8028 0.8030 0.8031
2181.000000 0.8031 0.8032 0.8032 0.8033 0.8033
2176.000000 0.8034 0.8034 0.8035 0.8035 0.8036
2171.000000 0.8036 0.8037 0.8037 0.8038 0.8038
2166.000000 0.8039 0.8040 0.8041 0.8041 0.8042
2161.000000 0.8042 0.8043 0.8044 0.8045 0.8045
2156.000000 0.8046 0.8046 0.8047 0.8048 0.8049
2151.000000 0.8049 0.8050 0.8050 0.8051 0.8051
2146.000000 0.8051 0.8051 0.8051 0.8051 0.8051
2141.000000 0.8051 0.8051 0.8051 0.8051 0.8051
2136.000000 0.8051 0.8051 0.8051 0.8049 0.8048
2131.000000 0.8046 0.8045 0.8043 0.8042 0.8040
2126.000000 0.8039 0.8037 0.8036 0.8032 0.8028
2121.000000 0.8025 0.8021 0.8017 0.8014 0.8010
2116.000000 0.8007 0.8003 0.8000 0.7994 0.7989
2111.000000 0.7983 0.7978 0.7971 0.7965 0.7960
2106.000000 0.7954 0.7947 0.7941 0.7936 0.7931
2101.000000 0.7928 0.7926 0.7925 0.7925 0.7924
2096.000000 0.7922 0.7921 0.7921 0.7921 0.7922
2091.000000 0.7925 0.7928 0.7930 0.7932 0.7934
2086.000000 0.7937 0.7939 0.7942 0.7944 0.7947
2081.000000 0.7949 0.7951 0.7951 0.7953 0.7953
2076.000000 0.7954 0.7954 0.7954 0.7954 0.7954
2071.000000 0.7951 0.7950 0.7948 0.7946 0.7944
2066.000000 0.7942 0.7940 0.7938 0.7935 0.7933
2061.000000 0.7930 0.7928 0.7925 0.7924 0.7921
2056.000000 0.7918 0.7915 0.7914 0.7911 0.7910
2051.000000 0.7907 0.7905 0.7901 0.7900 0.7898
2046.000000 0.7896 0.7893 0.7891 0.7887 0.7884
2041.000000 0.7880 0.7876 0.7872 0.7868 0.7865
2036.000000 0.7861 0.7858 0.7855 0.7851 0.7847
2031.000000 0.7844 0.7842 0.7841 0.7840 0.7839
2026.000000 0.7838 0.7837 0.7836 0.7835 0.7835
2021.000000 0.7837 0.7839 0.7841 0.7843 0.7844
2016.000000 0.7822 0.7848 0.7850 0.7851 0.7854
2011.000000 0.7856 0.7858 0.7861 0.7865 0.7868
2006.000000 0.7871 0.7872 0.7875 0.7878 0.7882
2001.000000 0.7888 0.7894 0.7900 0.7905 0.7910
1996.000000 0.7915 0.7921 0.7925 0.7931 0.7937
1991.000000 0.7942 0.7947 0.7951 0.7958 0.7962
1986.000000 0.7968 0.7972 0.7978 0.7984 0.7989
1981.000000 0.7994 0.8000 0.8005 0.8010 0.8015
1976.000000 0.8021 0.8025 0.8031 0.8036 0.8042
1971.000000 0.8047 0.8051 0.8058 0.8062 0.8068
1966.000000 0.8072 0.8078 0.8084 0.8089 0.8094
1961.000000 0.8100 0.8104 0.8108 0.8112 0.8117
1956.000000 0.8121 0.8125 0.8130 0.8134 0.8138
1951.000000 0.8142 0.8147 0.8151 0.8155 0.8158
1946.000000 0.8164 0.8168 0.8171 0.8175 0.8181
1941.000000 0.8185 0.8189 0.8193 0.8195 0.8197
1936.000000 0.8200 0.8202 0.8204 0.8206 0.8209
1931.000000 0.8211 0.8213 0.8215 0.8218 0.8220
1926.000000 0.8221 0.8223 0.8225 0.8225 0.8228
1921.000000 0.8228 0.8231 0.8287 0.8234 0.8236
1916.000000 0.8237 0.8239 0.8241 0.8242 0.8244
1911.000000 0.8245 0.8247 0.8249 0.8250 0.8252
1906.000000 0.8253 0.8255 0.8256 0.8257 0.8258
1901.000000 0.8259 0.8260 0.8261 0.8262 0.8263
1896.000000 0.8264 0.8265 0.8265 0.8266 0.8266
1891.000000 0.8267 0.8267 0.8268 0.8268 0.8268
1886.000000 0.8268 0.8267 0.8267 0.8267 0.8266
1881.000000 0.8264 0.8263 0.8261 0.8260 0.8259
1876.000000 0.8257 0.8256 0.8252 0.8244 0.8236
1871.000000 0.8221 0.8199 0.8175 0.8146 0.8115
1866.000000 0.8084 0.8056 0.8032 0.8021 0.8015
1861.000000 0.8012 0.8010 0.8006 0.7988 0.7969
1856.000000 0.7948 0.7908 0.7861 0.7787 0.7712
1851.000000 0.7638 0.7562 0.7530 0.7530 0.7548
1846.000000 0.7628 0.7708 0.7789 0.7869 0.7942
1841.000000 0.8005 0.8042 0.8076 0.8111 0.8145
1836.000000 0.8175 0.8206 0.8225 0.8242 0.8253
1831.000000 0.8255 0.8258 0.8260 0.8263 0.8265
1826.000000 0.8268 0.8271 0.8275 0.8280 0.8284
1821.000000 0.8288 0.8292 0.8296 0.8301 0.8305
1816.000000 0.8310 0.8315 0.8320 0.8325 0.8328
1811.000000 0.8334 0.8339 0.8343 0.8348 0.8353
1806.000000 0.8357 0.8362 0.8365 0.8368 0.8370
1801.000000 0.8373 0.8375 0.8377 0.8380 0.8378
1796.000000 0.8378 0.8377 0.8375 0.8373 0.8371
1791.000000 0.8368 0.8368 0.8366 0.8363 0.8359
1786.000000 0.8356 0.8352 0.8349 0.8346 0.8342
1781.000000 0.8339 0.8335 0.8332 0.8328 0.8325
1776.000000 0.8321 0.8318 0.8315 0.8312 0.8308
1771.000000 0.8304 0.8299 0.8294 0.8289 0.8284
1766.000000 0.8280 0.8275 0.8270 0.8264 0.8258
1761.000000 0.8253 0.8247 0.8241 0.8235 0.8230
1756.000000 0.8224 0.8216 0.8208 0.8199 0.8191
1751.000000 0.8182 0.8174 0.8165 0.8157 0.8146
1746.000000 0.8135 0.8122 0.8111 0.8100 0.8088
1741.000000 0.8074 0.8053 0.8033 0.8011 0.7992
1736.000000 0.7971 0.7951 0.7930 0.7910 0.7890
1731.000000 0.7869 0.7851 0.7831 0.7811 0.7792
1726.000000 0.7772 0.7753 0.7734 0.7715 0.7698
1721.000000 0.7678 0.7661 0.7641 0.7612 0.7575
1716.000000 0.7500 0.7454 0.7411 0.7378 0.7353
1711.000000 0.7326 0.7301 0.7275 0.7238 0.7200
1706.000000 0.7145 0.7069 0.6995 0.6908 0.6815
1701.000000 0.6737 0.6668 0.6604 0.6542 0.6481
1696.000000 0.6421 0.6360 0.6291 0.6217 0.6144
1691.000000 0.5994 0.5705 0.5659 0.5622 0.5600
1686.000000 0.5583 0.5288 0.5128 0.4969 0.4809
1681.000000 0.4492 0.4353 0.4246 0.4124 0.3980
1676.000000 0.3864 0.3752 0.3656 0.3600 0.3546
1671.000000 0.3491 0.3379 0.3279 0.3216 0.3174
1666.000000 0.3143 0.3119 0.3099 0.3084 0.3069
1661.000000 0.3058 0.3050 0.3048 0.3048 0.3048
1656.000000 0.3049 0.3056 0.3064 0.3072 0.3080
1651.000000 0.3097 0.3114 0.3132 0.3149 0.3167
1646.000000 0.3184 0.3216 0.3248 0.3280 0.3312
1641.000000 0.3350 0.3389 0.3409 0.3429 0.3449
1636.000000 0.3464 0.3480 0.3496 0.3518 0.3541
1631.000000 0.3564 0.3594 0.3625 0.3664 0.3704
1626.000000 0.3743 0.3798 0.3864 0.3932 0.3999
1621.000000 0.4066 0.4134 0.4197 0.4223 0.4237
1616.000000 0.4248 0.4240 0.4236 0.4216 0.4135
1611.000000 0.4003 0.3872 0.3740 0.3609 0.3508
1606.000000 0.3518 0.3532 0.3562 0.3734 0.4093
1601.000000 0.4453 0.4812 0.4912 0.4957 0.4993
1596.000000 0.5008 0.5015 0.5022 0.5026 0.5015
1591.000000 0.5015 0.5014 0.5002 0.4990 0.4979
1586.000000 0.4964 0.4942 0.4921 0.4900 0.4878
1581.000000 0.4843 0.4808 0.4767 0.4690 0.4574
1576.000000 0.4337 0.4183 0.4050 0.3927 0.3791
1571.000000 0.3642 0.3471 0.3307 0.3109 0.2911
1566.000000 0.2712 0.2514 0.2316 0.2117 0.1983
1561.000000 0.1977 0.1968 0.1949 0.1604 0.1286
1556.000000 0.1206 0.1146 0.1124 0.1107 0.1112
1551.000000 0.1098 0.1103 0.1121 0.1151 0.1192
1546.000000 0.1214 0.1218 0.1220 0.1224 0.1237
1541.000000 0.1263 0.1302 0.1415 0.1517 0.1608
1536.000000 0.1731 0.1787 0.1951 0.2109 0.2267
1531.000000 0.2425 0.2583 0.2741 0.2899 0.3057
1526.000000 0.3216 0.3374 0.3532 0.3638 0.3684
1521.000000 0.3747 0.3809 0.3886 0.3997 0.4233
1516.000000 0.4390 0.4500 0.4604 0.4701 0.4767
1511.000000 0.4819 0.4876 0.4889 0.4898 0.4929
1506.000000 0.5133 0.5474 0.5569 0.5624 0.5672
1501.000000 0.5719 0.5762 0.5807 0.5850 0.5893
1496.000000 0.5936 0.5982 0.6028 0.6081 0.6110
1491.000000 0.6140 0.6174 0.6199 0.6216 0.6229
1486.000000 0.6237 0.6243 0.6230 0.6248 0.6248
1481.000000 0.6236 0.6215 0.6187 0.6137 0.6065
1476.000000 0.5927 0.5707 0.5534 0.5265 0.5069
1471.000000 0.4917 0.4722 0.4510 0.4436 0.4389
1466.000000 0.4354 0.4319 0.4299 0.4287 0.4274
1461.000000 0.4280 0.4301 0.4339 0.4378 0.4456
1456.000000 0.4547 0.4636 0.4733 0.4849 0.4966
1451.000000 0.5037 0.5104 0.5170 0.5235 0.5300
1446.000000 0.5367 0.5437 0.5507 0.5589 0.5693
1441.000000 0.5816 0.5974 0.6084 0.6194 0.6334
1436.000000 0.6455 0.6521 0.6588 0.6654 0.6725
1431.000000 0.6791 0.6842 0.6892 0.6937 0.6976
1426.000000 0.7010 0.7041 0.7054 0.7068 0.7076
1421.000000 0.7080 0.7082 0.7087 0.7086 0.7072
1416.000000 0.7042 0.7007 0.6971 0.6918 0.6865
1411.000000 0.6807 0.6744 0.6685 0.6632 0.6581
1406.000000 0.6534 0.6498 0.6485 0.6486 0.6487
1401.000000 0.6489 0.6490 0.6486 0.6467 0.6449
1396.000000 0.6415 0.6375 0.6323 0.6254 0.6173
1391.000000 0.6047 0.5937 0.5838 0.5730 0.5557
1386.000000 0.5358 0.5160 0.4962 0.4764 0.4566
1381.000000 0.4368 0.4169 0.3950 0.3891 0.3862
1376.000000 0.3832 0.3799 0.3756 0.3698 0.3636
1371.000000 0.3518 0.3278 0.3037 0.2796 0.2555
1366.000000 0.2314 0.2073 0.1832 0.1591 0.1350
1361.000000 0.1202 0.1152 0.1145 0.1149 0.1178
1356.000000 0.1194 0.1194 0.1174 0.1100 0.1056
1351.000000 0.1055 0.1040 0.1040 0.1062 0.1173
1346.000000 0.1322 0.1531 0.1739 0.1946 0.2155
1341.000000 0.2363 0.2571 0.2779 0.2987 0.3196
1336.000000 0.3404 0.3612 0.3820 0.4028 0.4236
1331.000000 0.4444 0.4653 0.4860 0.5069 0.5277
1326.000000 0.5485 0.5595 0.5645 0.5714 0.5790
1321.000000 0.5857 0.5917 0.5969 0.6006 0.6035
1316.000000 0.6056 0.6072 0.6082 0.6092 0.6102
1311.000000 0.6107 0.6110 0.6115 0.6119 0.6122
1306.000000 0.6123 0.6139 0.6125 0.6127 0.6128
1301.000000 0.6128 0.6127 0.6127 0.6121 0.6110
1296.000000 0.6101 0.6078 0.6055 0.6016 0.5959
1291.000000 0.5902 0.5837 0.5772 0.5706 0.5583
1286.000000 0.5455 0.5353 0.5256 0.5154 0.5028
1281.000000 0.4874 0.4512 0.4423 0.4173 0.3914
1276.000000 0.3655 0.3397 0.3138 0.2879 0.2621
1271.000000 0.2362 0.2103 0.1844 0.1586 0.1379
1266.000000 0.1380 0.1380 0.1380 0.1414 0.1498
1261.000000 0.1644 0.1840 0.2018 0.2201 0.2368
1256.000000 0.2504 0.2599 0.2668 0.2694 0.2709
1251.000000 0.2725 0.2746 0.2772 0.2817 0.2879
1246.000000 0.2955 0.2988 0.3015 0.3037 0.3002
1241.000000 0.2984 0.2946 0.2874 0.2768 0.2658
1236.000000 0.2583 0.2506 0.2419 0.2331 0.2233
1231.000000 0.2140 0.2055 0.1992 0.1942 0.1910
1226.000000 0.1890 0.1878 0.1879 0.1879 0.1895
1221.000000 0.2043 0.2248 0.2390 0.2532 0.2674
1216.000000 0.2816 0.2958 0.3100 0.3242 0.3384
1211.000000 0.3526 0.3668 0.3809 0.3950 0.4093
1206.000000 0.4228 0.4246 0.4262 0.4275 0.4291
1201.000000 0.4310 0.4410 0.4504 0.4620 0.4919
1196.000000 0.5217 0.5388 0.5501 0.5608 0.5681
1191.000000 0.5751 0.5820 0.5891 0.5976 0.6060
1186.000000 0.6115 0.6162 0.6212 0.6260 0.6306
1181.000000 0.6349 0.6392 0.6433 0.6474 0.6514
1176.000000 0.6534 0.6554 0.6574 0.6595 0.6612
1171.000000 0.6630 0.6647 0.6665 0.6682 0.6697
1166.000000 0.6711 0.6725 0.6739 0.6750 0.6760
1161.000000 0.6768 0.6778 0.6787 0.6796 0.6784
1156.000000 0.6804 0.6804 0.6803 0.6800 0.6787
1151.000000 0.6769 0.6751 0.6701 0.6644 0.6538
1146.000000 0.6406 0.6276 0.6185 0.6112 0.5837
1141.000000 0.5503 0.5168 0.4834 0.4500 0.4166
1136.000000 0.3832 0.3498 0.3184 0.3168 0.3169
1131.000000 0.3322 0.3541 0.3759 0.3979 0.4198
1126.000000 0.4416 0.4635 0.4854 0.5073 0.5292
1121.000000 0.5510 0.5729 0.5948 0.6167 0.6370
1116.000000 0.6547 0.6641 0.6726 0.6812 0.6881
1111.000000 0.6940 0.7000 0.7047 0.7085 0.7122
1106.000000 0.7158 0.7189 0.7205 0.7221 0.7236
1101.000000 0.7245 0.7255 0.7261 0.7261 0.7261
1096.000000 0.7256 0.7250 0.7228 0.7208 0.7175
1091.000000 0.7125 0.7075 0.7010 0.6930 0.6839
1086.000000 0.6664 0.6484 0.6296 0.6107 0.5909
1081.000000 0.5378 0.4987 0.4596 0.4205 0.3814
1076.000000 0.3424 0.3033 0.2643 0.2619 0.2811
1071.000000 0.3284 0.3759 0.4233 0.4706 0.5180
1066.000000 0.5654 0.6128 0.6317 0.6441 0.6535
1061.000000 0.6608 0.6672 0.6734 0.6771 0.6804
1056.000000 0.6840 0.6868 0.6895 0.6905 0.6906
1051.000000 0.6907 0.6917 0.6917 0.6897 0.6858
1046.000000 0.6810 0.6782 0.6758 0.6698 0.6611
1041.000000 0.6476 0.5903 0.5330 0.4756 0.4183
1036.000000 0.3609 0.3035 0.2462 0.1972 0.1965
1031.000000 0.1958 0.2395 0.2925 0.3456 0.3987
1026.000000 0.4517 0.5048 0.5198 0.5507 0.5736
1021.000000 0.5898 0.6139 0.6238 0.6338 0.6486
1016.000000 0.6615 0.6701 0.6785 0.6845 0.6899
1011.000000 0.6951 0.6984 0.7015 0.7048 0.7078
1006.000000 0.7106 0.7134 0.7161 0.7191 0.7218
1001.000000 0.7240 0.7261 0.7283 0.7305 0.7325
996.000000 0.7342 0.7358 0.7372 0.7388 0.7400
991.000000 0.7406 0.7411 0.7418 0.7422 0.7422
986.000000 0.7421 0.7421 0.7421 0.7421 0.7419
981.000000 0.7418 0.7417 0.7415 0.7415 0.7415
976.000000 0.7415 0.7415 0.7415 0.7417 0.7418
971.000000 0.7418 0.7419 0.7421 0.7425 0.7428
966.000000 0.7432 0.7435 0.7440 0.7444 0.7449
961.000000 0.7453 0.7456 0.7455 0.7458 0.7457
956.000000 0.7456 0.7455 0.7451 0.7441 0.7430
951.000000 0.7403 0.7364 0.7325 0.7246 0.7149
946.000000 0.7003 0.6849 0.6535 0.6260 0.5984
941.000000 0.5708 0.5432 0.5368 0.5350 0.5310
936.000000 0.5247 0.5219 0.5252 0.5299 0.5319
931.000000 0.5005 0.4554 0.4103 0.3653 0.3202
926.000000 0.3056 0.3063 0.3334 0.4229 0.5122
921.000000 0.6015 0.6525 0.6697 0.6772 0.6828
916.000000 0.6871 0.6899 0.6922 0.6932 0.6941
911.000000 0.6949 0.6971 0.7028 0.7071 0.7111
906.000000 0.7151 0.7193 0.7211 0.7225 0.7238
901.000000 0.7251 0.7256 0.7257 0.7258 0.7255
896.000000 0.7251 0.7240 0.7228 0.7218 0.7207
891.000000 0.7197 0.7186 0.7184 0.7184 0.7184
886.000000 0.7184 0.7183 0.7181 0.7180 0.7178
881.000000 0.7175 0.7167 0.7156 0.7144 0.7133
876.000000 0.7121 0.7111 0.7099 0.7085 0.7065
871.000000 0.7048 0.7030 0.7011 0.6993 0.6975
866.000000 0.6957 0.6938 0.6918 0.6900 0.6880
861.000000 0.6861 0.6842 0.6821 0.6799 0.6775
856.000000 0.6753 0.6730 0.6706 0.6682 0.6645
851.000000 0.6608 0.6571 0.6534 0.6497 0.6461
846.000000 0.6424 0.6388 0.6352 0.6317 0.6281
841.000000 0.6246 0.6207 0.6160 0.6114 0.6062
836.000000 0.6007 0.5950 0.5857 0.5760 0.5605
831.000000 0.5090 0.4459 0.4470 0.4691 0.5026
826.000000 0.5360 0.5556 0.5580 0.5571 0.5566
821.000000 0.5553 0.5536 0.5506 0.5475 0.5444
816.000000 0.5414 0.5379 0.5341 0.5304 0.5267
811.000000 0.5230 0.5185 0.5139 0.5093 0.5047
806.000000 0.5001 0.4955 0.4907 0.4860 0.4812
801.000000 0.4772 0.4736 0.4699 0.4662 0.4627
796.000000 0.4593 0.4559 0.4525 0.4491 0.4457
791.000000 0.4424 0.4393 0.4362 0.4331 0.4300
786.000000 0.4269 0.4243 0.4217 0.4193 0.4176
781.000000 0.4160 0.4143 0.4126 0.4107 0.4088
776.000000 0.4071 0.4056 0.4042 0.4030 0.4018
771.000000 0.4007 0.3990 0.3964 0.3916 0.3775
766.000000 0.3464 0.3466 0.3526 0.3553 0.3403
761.000000 0.3181 0.2958 0.2735 0.2513 0.2291
756.000000 0.2068 0.1804 0.1802 0.1899 0.2193
751.000000 0.2453 0.2550 0.2633 0.2695 0.2743
746.000000 0.2766 0.2770 0.2804 0.2669 0.2538
741.000000 0.2406 0.2274 0.2174 0.2170 0.2278
736.000000 0.2388 0.2498 0.2608 0.2718 0.2829
731.000000 0.2902 0.2893 0.2908 0.2789 0.2617
726.000000 0.2445 0.2272 0.2100 0.1832 0.1832
721.000000 0.1834 0.1951 0.2120 0.2289 0.2458
716.000000 0.2627 0.2796 0.2965 0.3134 0.3302
711.000000 0.3388 0.3432 0.3460 0.3487 0.3495
706.000000 0.3492 0.3506 0.3508 0.3509 0.3503
701.000000 0.3495 0.3484 0.3468 0.3450 0.3432
696.000000 0.3409 0.3395 0.3388 0.3380 0.3379
691.000000 0.3377 0.3375 0.3371 0.3364 0.3355
686.000000 0.3334 0.3314 0.3290 0.3259 0.3244
681.000000 0.3236 0.3234 0.3232 0.3230 0.3229
676.000000 0.3220 0.3209 0.3194 0.3174 0.3153
671.000000 0.3130 0.3107 0.3090 0.3081 0.3071
666.000000 0.3066 0.3061 0.3047 0.3055 0.3052
661.000000 0.3076 0.3112 0.3146 0.3177 0.3198
656.000000 0.3218 0.3230 0.3240 0.3257 0.3256
651.000000 0.3250 0.3241 0.3229 0.3214 0.3196
646.000000 0.3176 0.3141 0.3096 0.3038 0.2974
641.000000 0.2875 0.2747 0.2618 0.2489 0.2360
636.000000 0.2231 0.2103 0.1974 0.1904 0.1920
631.000000 0.1912 0.1918 0.1944 0.1979 0.2029
626.000000 0.2082 0.2135 0.2191 0.2247 0.2304
621.000000 0.2356 0.2406 0.2451 0.2487 0.2523
616.000000 0.2553 0.2579 0.2605 0.2630 0.2652
611.000000 0.2662 0.2670 0.2678 0.2684 0.2690
606.000000 0.2694 0.2708 0.2723 0.2738 0.2754
601.000000 0.2765 0.2771 0.2776 0.2776 0.2776
596.000000 0.2776 0.2768 0.2760 0.2752 0.2742
591.000000 0.2730 0.2717 0.2704 0.2691 0.2678
586.000000 0.2665 0.2652 0.2638 0.2625 0.2611
581.000000 0.2593 0.2567 0.2542 0.2516 0.2484
576.000000 0.2443 0.2401 0.2351 0.2300 0.2248
571.000000 0.2158 0.2056 0.1958 0.1879 0.1814
566.000000 0.1754 0.1724 0.1698 0.1693 0.1683
561.000000 0.1686 0.1693 0.1703 0.1720 0.1737
556.000000 0.1754 0.1765 0.1775 0.1784 0.1793
551.000000 0.1803 0.1810 0.1818 0.1825 0.1833
546.000000 0.1835 0.1840 0.1846 0.1846 0.1844
541.000000 0.1840 0.1835 0.1832 0.1808 0.1783
536.000000 0.1758 0.1717 0.1673 0.1625 0.1569
531.000000 0.1514 0.1462 0.1423 0.1384 0.1366
526.000000 0.1349 0.1340 0.1335 0.1329 0.1324
521.000000 0.1319 0.1295 0.1313 0.1311 0.1308
516.000000 0.1305 0.1300 0.1295 0.1289 0.1284
511.000000 0.1279 0.1277 0.1274 0.1272 0.1269
506.000000 0.1265 0.1262 0.1260
##END=
