##TITLE=Toluene-3,4-diamine, dihydrochloride
##JCAMP-DX=4.24
##DATA TYPE=INFRARED SPECTRUM
##CLASS=COBLENTZ III
##ORIGIN=WYANDOTTE CHEMICALS CORP..
##OWNER=Copyright (C) 1987 by the Coblentz Society
Collection (C) 2018 copyright by the U.S. Secretary of Commerce
on behalf of the United States of America. All rights reserved.
##DATE=Not specified, most likely prior to 1970
##MOLFORM=C7 H12 Cl2 N2
##SOURCE REFERENCE=COBLENTZ NO. 7466
##$NIST ID=B6007466
##$NIST SOURCE=COBLENTZ
##$NIST IMAGE=cob7466
##SPECTROMETER/DATA SYSTEM=BAIRD (GRATING)
##INSTRUMENT PARAMETERS=NaCl PRISM
##STATE=SOLID (OIL MULL)
$$SPECTRAL CONTAMINATION DUE TO OIL AROUND 2900, 1470, 1380, 717 CM^-^1
##SAMPLING PROCEDURE=TRANSMISSION
##RESOLUTION=2
##DATA PROCESSING=DIGITIZED BY COBLENTZ SOCIETY (BATCH II) FROM HARD COPY
##XUNITS=1/CM
##YUNITS=TRANSMITTANCE
##XFACTOR=1.0
##YFACTOR=1
##FIRSTX=626
##LASTX=4000
##FIRSTY=0.7365
##MAXX=4000
##MINX=626
##MAXY=0.9735
##MINY=0.0159
##NPOINTS=3375
##XYDATA=(X++(Y..Y))
626.000000 0.7365 0.7422 0.7479 0.7533 0.7588
631.000000 0.7651 0.7714 0.7780 0.7846 0.7915
636.000000 0.7987 0.8054 0.8110 0.8165 0.8222
641.000000 0.8279 0.8337 0.8394 0.8457 0.8519
646.000000 0.8574 0.8629 0.8683 0.8736 0.8772
651.000000 0.8800 0.8828 0.8856 0.8883 0.8911
656.000000 0.8939 0.8950 0.8963 0.8974 0.8991
661.000000 0.9014 0.9036 0.9068 0.9117 0.9178
666.000000 0.9238 0.9281 0.9316 0.9337 0.9358
671.000000 0.9372 0.9375 0.9380 0.9382 0.9385
676.000000 0.9388 0.9392 0.9392 0.9390 0.9388
681.000000 0.9386 0.9384 0.9382 0.9384 0.9391
686.000000 0.9376 0.9457 0.9550 0.9626 0.9662
691.000000 0.9686 0.9710 0.9728 0.9730 0.9732
696.000000 0.9735 0.9730 0.9726 0.9722 0.9698
701.000000 0.9663 0.9627 0.9591 0.9538 0.9478
706.000000 0.9418 0.9343 0.9254 0.9145 0.9036
711.000000 0.8927 0.8788 0.8646 0.8516 0.8406
716.000000 0.8313 0.8267 0.8270 0.8295 0.8400
721.000000 0.8533 0.8654 0.8729 0.8804 0.8911
726.000000 0.8998 0.9036 0.9069 0.9097 0.9126
731.000000 0.9155 0.9178 0.9198 0.9220 0.9245
736.000000 0.9274 0.9304 0.9339 0.9375 0.9399
741.000000 0.9421 0.9426 0.9427 0.9428 0.9417
746.000000 0.9405 0.9393 0.9381 0.9369 0.9354
751.000000 0.9337 0.9321 0.9305 0.9296 0.9330
756.000000 0.9383 0.9440 0.9484 0.9487 0.9470
761.000000 0.9452 0.9432 0.9411 0.9387 0.9363
766.000000 0.9340 0.9321 0.9304 0.9287 0.9271
771.000000 0.9277 0.9236 0.9224 0.9211 0.9200
776.000000 0.9195 0.9193 0.9192 0.9191 0.9191
781.000000 0.9191 0.9190 0.9188 0.9187 0.9185
786.000000 0.9180 0.9149 0.9118 0.9083 0.9034
791.000000 0.8986 0.8938 0.8865 0.8785 0.8700
796.000000 0.8596 0.8491 0.8387 0.8265 0.8119
801.000000 0.7972 0.7756 0.7528 0.7092 0.6656
806.000000 0.6196 0.5736 0.5429 0.5355 0.5349
811.000000 0.5655 0.6272 0.6888 0.7501 0.8077
816.000000 0.8431 0.8735 0.8975 0.9150 0.9294
821.000000 0.9423 0.9517 0.9590 0.9617 0.9640
826.000000 0.9646 0.9652 0.9651 0.9648 0.9646
831.000000 0.9644 0.9641 0.9638 0.9636 0.9639
836.000000 0.9661 0.9704 0.9707 0.9714 0.9710
841.000000 0.9699 0.9689 0.9677 0.9667 0.9655
846.000000 0.9645 0.9634 0.9623 0.9613 0.9603
851.000000 0.9593 0.9582 0.9573 0.9556 0.9537
856.000000 0.9519 0.9496 0.9453 0.9409 0.9348
861.000000 0.9267 0.9188 0.9120 0.9059 0.9026
866.000000 0.9036 0.9004 0.9124 0.9221 0.9367
871.000000 0.9513 0.9635 0.9678 0.9693 0.9679
876.000000 0.9690 0.9684 0.9677 0.9666 0.9654
881.000000 0.9641 0.9629 0.9616 0.9603 0.9590
886.000000 0.9578 0.9566 0.9573 0.9582 0.9591
891.000000 0.9602 0.9613 0.9611 0.9605 0.9594
896.000000 0.9585 0.9575 0.9561 0.9549 0.9537
901.000000 0.9523 0.9509 0.9496 0.9482 0.9469
906.000000 0.9456 0.9446 0.9436 0.9424 0.9412
911.000000 0.9399 0.9387 0.9375 0.9363 0.9351
916.000000 0.9340 0.9328 0.9316 0.9305 0.9293
921.000000 0.9281 0.9269 0.9258 0.9247 0.9235
926.000000 0.9225 0.9213 0.9202 0.9200 0.9198
931.000000 0.9195 0.9193 0.9191 0.9197 0.9202
936.000000 0.9206 0.9204 0.9201 0.9198 0.9191
941.000000 0.9183 0.9174 0.9166 0.9157 0.9149
946.000000 0.9137 0.9127 0.9117 0.9106 0.9096
951.000000 0.9085 0.9075 0.9065 0.9054 0.9044
956.000000 0.9034 0.9023 0.9014 0.9004 0.8995
961.000000 0.8985 0.8977 0.8968 0.8959 0.8951
966.000000 0.8941 0.8933 0.8926 0.8920 0.8914
971.000000 0.8908 0.8902 0.8896 0.8892 0.8893
976.000000 0.8893 0.8896 0.8902 0.8906 0.8909
981.000000 0.8902 0.8890 0.8876 0.8857 0.8838
986.000000 0.8819 0.8800 0.8781 0.8760 0.8738
991.000000 0.8715 0.8693 0.8671 0.8648 0.8627
996.000000 0.8605 0.8580 0.8555 0.8530 0.8505
1001.000000 0.8480 0.8455 0.8430 0.8405 0.8377
1006.000000 0.8349 0.8321 0.8294 0.8266 0.8238
1011.000000 0.8211 0.8183 0.8156 0.8129 0.8104
1016.000000 0.8079 0.8055 0.8029 0.8005 0.7980
1021.000000 0.7956 0.7931 0.7907 0.7883 0.7863
1026.000000 0.7843 0.7823 0.7803 0.7782 0.7764
1031.000000 0.7746 0.7727 0.7710 0.7692 0.7674
1036.000000 0.7661 0.7657 0.7655 0.7654 0.7652
1041.000000 0.7651 0.7650 0.7647 0.7645 0.7643
1046.000000 0.7642 0.7645 0.7647 0.7649 0.7648
1051.000000 0.7640 0.7625 0.7594 0.7559 0.7522
1056.000000 0.7485 0.7449 0.7413 0.7376 0.7341
1061.000000 0.7309 0.7275 0.7242 0.7209 0.7176
1066.000000 0.7147 0.7120 0.7092 0.7065 0.7038
1071.000000 0.7011 0.6984 0.6955 0.6928 0.6907
1076.000000 0.6890 0.6872 0.6854 0.6836 0.6821
1081.000000 0.6806 0.6791 0.6776 0.6758 0.6740
1086.000000 0.6722 0.6705 0.6691 0.6678 0.6675
1091.000000 0.6697 0.6679 0.6680 0.6682 0.6687
1096.000000 0.6694 0.6702 0.6709 0.6716 0.6723
1101.000000 0.6729 0.6733 0.6738 0.6744 0.6749
1106.000000 0.6753 0.6758 0.6763 0.6767 0.6770
1111.000000 0.6754 0.6729 0.6698 0.6657 0.6613
1116.000000 0.6562 0.6498 0.6433 0.6364 0.6287
1121.000000 0.6210 0.6130 0.6040 0.5950 0.5860
1126.000000 0.5786 0.5716 0.5646 0.5582 0.5536
1131.000000 0.5492 0.5452 0.5437 0.5426 0.5418
1136.000000 0.5414 0.5410 0.5406 0.5402 0.5398
1141.000000 0.5405 0.5392 0.5385 0.5379 0.5372
1146.000000 0.5365 0.5364 0.5366 0.5379 0.5406
1151.000000 0.5458 0.5685 0.5914 0.6143 0.6372
1156.000000 0.6600 0.6762 0.6834 0.6873 0.6901
1161.000000 0.6909 0.6918 0.6925 0.6929 0.6934
1166.000000 0.6937 0.6941 0.6945 0.6962 0.6990
1171.000000 0.7023 0.7047 0.7049 0.7050 0.7051
1176.000000 0.7052 0.7050 0.7031 0.7041 0.7038
1181.000000 0.7029 0.7018 0.7006 0.6994 0.6982
1186.000000 0.6970 0.6959 0.6947 0.6935 0.6922
1191.000000 0.6910 0.6897 0.6884 0.6871 0.6859
1196.000000 0.6841 0.6820 0.6799 0.6778 0.6757
1201.000000 0.6737 0.6716 0.6693 0.6667 0.6642
1206.000000 0.6616 0.6591 0.6565 0.6533 0.6500
1211.000000 0.6466 0.6432 0.6398 0.6363 0.6325
1216.000000 0.6288 0.6250 0.6213 0.6177 0.6157
1221.000000 0.6154 0.6151 0.6156 0.6179 0.6199
1226.000000 0.6235 0.6288 0.6481 0.6719 0.6956
1231.000000 0.7192 0.7367 0.7422 0.7441 0.7455
1236.000000 0.7433 0.7420 0.7407 0.7391 0.7374
1241.000000 0.7357 0.7339 0.7322 0.7301 0.7273
1246.000000 0.7246 0.7219 0.7192 0.7165 0.7137
1251.000000 0.7101 0.7065 0.7030 0.6995 0.6960
1256.000000 0.6925 0.6889 0.6843 0.6796 0.6749
1261.000000 0.6704 0.6666 0.6630 0.6596 0.6586
1266.000000 0.6578 0.6541 0.6575 0.6587 0.6615
1271.000000 0.6658 0.6806 0.7030 0.7142 0.7197
1276.000000 0.7221 0.7223 0.7228 0.7204 0.7188
1281.000000 0.7171 0.7148 0.7120 0.7084 0.7044
1286.000000 0.6996 0.6945 0.6886 0.6824 0.6763
1291.000000 0.6706 0.6649 0.6592 0.6538 0.6492
1296.000000 0.6446 0.6403 0.6378 0.6360 0.6348
1301.000000 0.6348 0.6348 0.6349 0.6349 0.6349
1306.000000 0.6350 0.6351 0.6356 0.6348 0.6337
1311.000000 0.6326 0.6315 0.6304 0.6310 0.6323
1316.000000 0.6337 0.6353 0.6385 0.6433 0.6460
1321.000000 0.6483 0.6505 0.6525 0.6533 0.6537
1326.000000 0.6541 0.6539 0.6525 0.6512 0.6497
1331.000000 0.6479 0.6461 0.6443 0.6422 0.6392
1336.000000 0.6359 0.6326 0.6293 0.6260 0.6225
1341.000000 0.6183 0.6140 0.6098 0.6055 0.6013
1346.000000 0.5971 0.5928 0.5884 0.5841 0.5797
1351.000000 0.5754 0.5709 0.5665 0.5621 0.5577
1356.000000 0.5533 0.5488 0.5437 0.5384 0.5331
1361.000000 0.5247 0.5144 0.5042 0.4938 0.4821
1366.000000 0.4705 0.4588 0.4475 0.4363 0.4252
1371.000000 0.4136 0.4018 0.3903 0.3803 0.3707
1376.000000 0.3606 0.3456 0.3279 0.2904 0.2809
1381.000000 0.2758 0.2737 0.2723 0.2732 0.2761
1386.000000 0.3008 0.3286 0.3565 0.3842 0.4119
1391.000000 0.4396 0.4672 0.4948 0.5224 0.5455
1396.000000 0.5563 0.5650 0.5696 0.5727 0.5742
1401.000000 0.5742 0.5741 0.5739 0.5738 0.5736
1406.000000 0.5730 0.5724 0.5718 0.5712 0.5706
1411.000000 0.5699 0.5690 0.5679 0.5668 0.5657
1416.000000 0.5647 0.5641 0.5636 0.5630 0.5624
1421.000000 0.5617 0.5604 0.5592 0.5576 0.5549
1426.000000 0.5513 0.5473 0.5419 0.5365 0.5307
1431.000000 0.5241 0.5174 0.5103 0.5022 0.4929
1436.000000 0.4789 0.4643 0.4497 0.4351 0.4205
1441.000000 0.4060 0.3915 0.3770 0.3625 0.3480
1446.000000 0.3336 0.3192 0.3047 0.2904 0.2760
1451.000000 0.2667 0.2609 0.2546 0.2461 0.2364
1456.000000 0.2266 0.2168 0.2054 0.1939 0.1815
1461.000000 0.1649 0.1479 0.1384 0.1304 0.1264
1466.000000 0.1228 0.1193 0.1157 0.1133 0.1122
1471.000000 0.1115 0.1115 0.1118 0.1120 0.1132
1476.000000 0.1152 0.1214 0.1350 0.1513 0.1676
1481.000000 0.1839 0.2001 0.2163 0.2325 0.2487
1486.000000 0.2648 0.2810 0.2970 0.3183 0.3310
1491.000000 0.3367 0.3425 0.3482 0.3523 0.3544
1496.000000 0.3561 0.3578 0.3593 0.3595 0.3596
1501.000000 0.3594 0.3587 0.3581 0.3574 0.3566
1506.000000 0.3548 0.3530 0.3512 0.3492 0.3469
1511.000000 0.3446 0.3423 0.3400 0.3376 0.3353
1516.000000 0.3329 0.3301 0.3273 0.3246 0.3218
1521.000000 0.3188 0.3154 0.3119 0.3094 0.3078
1526.000000 0.3066 0.3064 0.3064 0.3064 0.3067
1531.000000 0.3071 0.3068 0.3078 0.3082 0.3088
1536.000000 0.3097 0.3105 0.3114 0.3121 0.3131
1541.000000 0.3143 0.3155 0.3167 0.3179 0.3191
1546.000000 0.3204 0.3225 0.3247 0.3269 0.3291
1551.000000 0.3316 0.3350 0.3386 0.3421 0.3455
1556.000000 0.3480 0.3493 0.3506 0.3520 0.3532
1561.000000 0.3541 0.3563 0.3622 0.3704 0.3786
1566.000000 0.3868 0.3949 0.4030 0.4112 0.4193
1571.000000 0.4274 0.4355 0.4436 0.4517 0.4584
1576.000000 0.4618 0.4641 0.4664 0.4687 0.4706
1581.000000 0.4720 0.4729 0.4732 0.4733 0.4734
1586.000000 0.4735 0.4736 0.4739 0.4747 0.4756
1591.000000 0.4772 0.4794 0.4846 0.4920 0.4999
1596.000000 0.5077 0.5156 0.5234 0.5312 0.5391
1601.000000 0.5469 0.5547 0.5625 0.5703 0.5781
1606.000000 0.5858 0.5936 0.6013 0.6091 0.6168
1611.000000 0.6245 0.6322 0.6399 0.6476 0.6553
1616.000000 0.6630 0.6707 0.6783 0.6869 0.6930
1621.000000 0.6976 0.7021 0.7050 0.7067 0.7082
1626.000000 0.7097 0.7110 0.7121 0.7131 0.7140
1631.000000 0.7156 0.7204 0.7316 0.7432 0.7548
1636.000000 0.7664 0.7781 0.7896 0.8012 0.8112
1641.000000 0.8172 0.8211 0.8247 0.8271 0.8284
1646.000000 0.8291 0.8295 0.8300 0.8303 0.8292
1651.000000 0.8303 0.8300 0.8298 0.8296 0.8293
1656.000000 0.8290 0.8287 0.8280 0.8274 0.8267
1661.000000 0.8253 0.8239 0.8225 0.8212 0.8197
1666.000000 0.8179 0.8160 0.8142 0.8123 0.8104
1671.000000 0.8083 0.8062 0.8041 0.8020 0.8003
1676.000000 0.7989 0.7975 0.7960 0.7946 0.7932
1681.000000 0.7918 0.7904 0.7890 0.7875 0.7861
1686.000000 0.7848 0.7836 0.7826 0.7816 0.7807
1691.000000 0.7797 0.7787 0.7778 0.7768 0.7760
1696.000000 0.7750 0.7741 0.7731 0.7721 0.7712
1701.000000 0.7701 0.7691 0.7680 0.7670 0.7660
1706.000000 0.7649 0.7639 0.7628 0.7618 0.7607
1711.000000 0.7590 0.7573 0.7556 0.7539 0.7521
1716.000000 0.7504 0.7487 0.7473 0.7461 0.7448
1721.000000 0.7435 0.7423 0.7410 0.7396 0.7384
1726.000000 0.7373 0.7363 0.7355 0.7347 0.7338
1731.000000 0.7329 0.7321 0.7312 0.7304 0.7296
1736.000000 0.7287 0.7279 0.7270 0.7262 0.7253
1741.000000 0.7245 0.7237 0.7229 0.7220 0.7211
1746.000000 0.7203 0.7195 0.7187 0.7178 0.7170
1751.000000 0.7162 0.7155 0.7149 0.7141 0.7135
1756.000000 0.7128 0.7121 0.7114 0.7107 0.7100
1761.000000 0.7093 0.7086 0.7079 0.7072 0.7065
1766.000000 0.7059 0.7052 0.7045 0.7038 0.7031
1771.000000 0.7024 0.7017 0.7011 0.7004 0.6997
1776.000000 0.6990 0.6983 0.6976 0.6970 0.6963
1781.000000 0.6956 0.6950 0.6944 0.6938 0.6932
1786.000000 0.6927 0.6920 0.6915 0.6909 0.6903
1791.000000 0.6897 0.6891 0.6886 0.6880 0.6874
1796.000000 0.6868 0.6862 0.6857 0.6851 0.6845
1801.000000 0.6839 0.6833 0.6828 0.6822 0.6816
1806.000000 0.6810 0.6805 0.6800 0.6796 0.6793
1811.000000 0.6789 0.6785 0.6782 0.6778 0.6775
1816.000000 0.6771 0.6767 0.6764 0.6760 0.6757
1821.000000 0.6753 0.6749 0.6746 0.6744 0.6742
1826.000000 0.6740 0.6738 0.6736 0.6734 0.6732
1831.000000 0.6730 0.6728 0.6726 0.6725 0.6723
1836.000000 0.6720 0.6718 0.6717 0.6715 0.6714
1841.000000 0.6712 0.6711 0.6709 0.6708 0.6707
1846.000000 0.6705 0.6704 0.6702 0.6702 0.6700
1851.000000 0.6699 0.6697 0.6696 0.6694 0.6693
1856.000000 0.6691 0.6688 0.6684 0.6680 0.6676
1861.000000 0.6672 0.6667 0.6663 0.6659 0.6655
1866.000000 0.6651 0.6647 0.6642 0.6638 0.6634
1871.000000 0.6630 0.6624 0.6617 0.6609 0.6601
1876.000000 0.6593 0.6586 0.6578 0.6570 0.6562
1881.000000 0.6555 0.6548 0.6540 0.6532 0.6524
1886.000000 0.6516 0.6508 0.6500 0.6492 0.6485
1891.000000 0.6477 0.6469 0.6462 0.6454 0.6452
1896.000000 0.6449 0.6447 0.6444 0.6442 0.6440
1901.000000 0.6438 0.6436 0.6433 0.6431 0.6429
1906.000000 0.6426 0.6424 0.6422 0.6421 0.6419
1911.000000 0.6419 0.6418 0.6416 0.6415 0.6414
1916.000000 0.6413 0.6412 0.6410 0.6409 0.6408
1921.000000 0.6407 0.6406 0.6405 0.6403 0.6402
1926.000000 0.6402 0.6400 0.6399 0.6398 0.6397
1931.000000 0.6396 0.6396 0.6396 0.6396 0.6396
1936.000000 0.6396 0.6395 0.6395 0.6395 0.6395
1941.000000 0.6395 0.6395 0.6395 0.6395 0.6395
1946.000000 0.6395 0.6395 0.6391 0.6386 0.6380
1951.000000 0.6374 0.6368 0.6361 0.6355 0.6349
1956.000000 0.6344 0.6338 0.6332 0.6325 0.6319
1961.000000 0.6313 0.6307 0.6302 0.6297 0.6291
1966.000000 0.6285 0.6279 0.6273 0.6268 0.6262
1971.000000 0.6257 0.6251 0.6245 0.6240 0.6235
1976.000000 0.6232 0.6228 0.6224 0.6220 0.6216
1981.000000 0.6212 0.6209 0.6205 0.6201 0.6197
1986.000000 0.6193 0.6190 0.6186 0.6182 0.6178
1991.000000 0.6174 0.6171 0.6167 0.6163 0.6159
1996.000000 0.6156 0.6152 0.6148 0.6144 0.6141
2001.000000 0.6137 0.6133 0.6129 0.6126 0.6122
2006.000000 0.6118 0.6114 0.6111 0.6107 0.6103
2011.000000 0.6100 0.6097 0.6093 0.6089 0.6086
2016.000000 0.6083 0.6079 0.6076 0.6073 0.6069
2021.000000 0.6066 0.6062 0.6059 0.6056 0.6052
2026.000000 0.6046 0.6039 0.6032 0.6025 0.6018
2031.000000 0.6012 0.6005 0.5998 0.5992 0.5985
2036.000000 0.5977 0.5971 0.5964 0.5958 0.5951
2041.000000 0.5944 0.5938 0.5931 0.5925 0.5917
2046.000000 0.5909 0.5902 0.5895 0.5887 0.5880
2051.000000 0.5872 0.5865 0.5857 0.5850 0.5843
2056.000000 0.5835 0.5828 0.5821 0.5813 0.5806
2061.000000 0.5799 0.5791 0.5783 0.5776 0.5769
2066.000000 0.5762 0.5755 0.5748 0.5744 0.5740
2071.000000 0.5736 0.5732 0.5728 0.5725 0.5721
2076.000000 0.5718 0.5714 0.5710 0.5707 0.5703
2081.000000 0.5700 0.5697 0.5695 0.5694 0.5693
2086.000000 0.5691 0.5688 0.5682 0.5676 0.5670
2091.000000 0.5665 0.5659 0.5653 0.5647 0.5642
2096.000000 0.5635 0.5628 0.5612 0.5593 0.5578
2101.000000 0.5563 0.5549 0.5535 0.5520 0.5506
2106.000000 0.5492 0.5478 0.5463 0.5449 0.5436
2111.000000 0.5425 0.5416 0.5408 0.5399 0.5390
2116.000000 0.5382 0.5373 0.5365 0.5357 0.5348
2121.000000 0.5340 0.5332 0.5324 0.5316 0.5308
2126.000000 0.5299 0.5291 0.5283 0.5274 0.5266
2131.000000 0.5258 0.5250 0.5242 0.5234 0.5226
2136.000000 0.5218 0.5209 0.5201 0.5193 0.5185
2141.000000 0.5177 0.5169 0.5161 0.5153 0.5145
2146.000000 0.5137 0.5129 0.5121 0.5114 0.5108
2151.000000 0.5103 0.5098 0.5093 0.5088 0.5083
2156.000000 0.5078 0.5074 0.5069 0.5064 0.5059
2161.000000 0.5054 0.5050 0.5045 0.5040 0.5035
2166.000000 0.5030 0.5026 0.5021 0.5016 0.5011
2171.000000 0.5006 0.5001 0.4996 0.4991 0.4982
2176.000000 0.4973 0.4963 0.4953 0.4943 0.4934
2181.000000 0.4924 0.4915 0.4905 0.4895 0.4885
2186.000000 0.4874 0.4861 0.4848 0.4835 0.4822
2191.000000 0.4809 0.4796 0.4783 0.4770 0.4757
2196.000000 0.4744 0.4732 0.4720 0.4711 0.4707
2201.000000 0.4703 0.4700 0.4696 0.4693 0.4689
2206.000000 0.4685 0.4681 0.4676 0.4671 0.4666
2211.000000 0.4661 0.4656 0.4651 0.4646 0.4642
2216.000000 0.4637 0.4632 0.4627 0.4622 0.4617
2221.000000 0.4611 0.4606 0.4599 0.4593 0.4586
2226.000000 0.4580 0.4573 0.4567 0.4560 0.4553
2231.000000 0.4547 0.4540 0.4534 0.4527 0.4519
2236.000000 0.4510 0.4501 0.4493 0.4484 0.4475
2241.000000 0.4466 0.4458 0.4449 0.4441 0.4432
2246.000000 0.4423 0.4415 0.4406 0.4397 0.4389
2251.000000 0.4380 0.4372 0.4363 0.4355 0.4346
2256.000000 0.4337 0.4329 0.4320 0.4312 0.4303
2261.000000 0.4291 0.4278 0.4264 0.4250 0.4237
2266.000000 0.4223 0.4210 0.4197 0.4185 0.4173
2271.000000 0.4162 0.4150 0.4138 0.4127 0.4115
2276.000000 0.4104 0.4092 0.4081 0.4070 0.4058
2281.000000 0.4047 0.4035 0.4024 0.4012 0.4001
2286.000000 0.3989 0.3978 0.3966 0.3955 0.3942
2291.000000 0.3927 0.3913 0.3898 0.3883 0.3869
2296.000000 0.3855 0.3841 0.3827 0.3812 0.3798
2301.000000 0.3784 0.3769 0.3748 0.3728 0.3698
2306.000000 0.3668 0.3637 0.3606 0.3575 0.3545
2311.000000 0.3519 0.3497 0.3481 0.3475 0.3469
2316.000000 0.3464 0.3458 0.3453 0.3447 0.3442
2321.000000 0.3436 0.3430 0.3424 0.3418 0.3413
2326.000000 0.3407 0.3402 0.3396 0.3391 0.3385
2331.000000 0.3380 0.3374 0.3368 0.3363 0.3357
2336.000000 0.3351 0.3345 0.3340 0.3334 0.3329
2341.000000 0.3324 0.3318 0.3313 0.3307 0.3302
2346.000000 0.3297 0.3292 0.3287 0.3282 0.3277
2351.000000 0.3272 0.3268 0.3263 0.3259 0.3254
2356.000000 0.3249 0.3244 0.3240 0.3235 0.3231
2361.000000 0.3226 0.3221 0.3216 0.3212 0.3207
2366.000000 0.3203 0.3198 0.3194 0.3189 0.3184
2371.000000 0.3180 0.3175 0.3170 0.3165 0.3161
2376.000000 0.3156 0.3152 0.3148 0.3143 0.3138
2381.000000 0.3133 0.3128 0.3124 0.3118 0.3113
2386.000000 0.3108 0.3103 0.3098 0.3094 0.3089
2391.000000 0.3084 0.3079 0.3074 0.3069 0.3064
2396.000000 0.3059 0.3054 0.3049 0.3045 0.3038
2401.000000 0.3031 0.3024 0.3015 0.3007 0.2999
2406.000000 0.2991 0.2983 0.2974 0.2966 0.2957
2411.000000 0.2948 0.2938 0.2928 0.2918 0.2908
2416.000000 0.2898 0.2888 0.2878 0.2869 0.2859
2421.000000 0.2849 0.2839 0.2829 0.2820 0.2810
2426.000000 0.2801 0.2791 0.2782 0.2772 0.2762
2431.000000 0.2754 0.2745 0.2736 0.2727 0.2718
2436.000000 0.2709 0.2700 0.2691 0.2682 0.2673
2441.000000 0.2664 0.2655 0.2646 0.2638 0.2629
2446.000000 0.2620 0.2611 0.2603 0.2594 0.2585
2451.000000 0.2576 0.2567 0.2558 0.2549 0.2540
2456.000000 0.2532 0.2523 0.2514 0.2506 0.2497
2461.000000 0.2488 0.2480 0.2471 0.2462 0.2454
2466.000000 0.2445 0.2436 0.2428 0.2419 0.2411
2471.000000 0.2402 0.2393 0.2385 0.2377 0.2369
2476.000000 0.2360 0.2351 0.2343 0.2334 0.2326
2481.000000 0.2317 0.2309 0.2300 0.2292 0.2284
2486.000000 0.2276 0.2267 0.2259 0.2250 0.2242
2491.000000 0.2233 0.2225 0.2217 0.2209 0.2201
2496.000000 0.2192 0.2184 0.2175 0.2167 0.2159
2501.000000 0.2150 0.2142 0.2133 0.2124 0.2116
2506.000000 0.2106 0.2097 0.2088 0.2080 0.2071
2511.000000 0.2062 0.2053 0.2045 0.2035 0.2026
2516.000000 0.2018 0.2009 0.2000 0.1992 0.1983
2521.000000 0.1974 0.1965 0.1956 0.1947 0.1939
2526.000000 0.1931 0.1923 0.1916 0.1911 0.1905
2531.000000 0.1900 0.1895 0.1890 0.1885 0.1879
2536.000000 0.1874 0.1868 0.1863 0.1857 0.1852
2541.000000 0.1847 0.1841 0.1836 0.1830 0.1825
2546.000000 0.1820 0.1814 0.1809 0.1804 0.1800
2551.000000 0.1797 0.1795 0.1794 0.1793 0.1792
2556.000000 0.1791 0.1790 0.1788 0.1787 0.1786
2561.000000 0.1785 0.1784 0.1783 0.1783 0.1781
2566.000000 0.1780 0.1779 0.1778 0.1777 0.1773
2571.000000 0.1775 0.1774 0.1772 0.1771 0.1770
2576.000000 0.1769 0.1769 0.1768 0.1768 0.1768
2581.000000 0.1769 0.1771 0.1772 0.1774 0.1776
2586.000000 0.1778 0.1780 0.1782 0.1783 0.1784
2591.000000 0.1786 0.1788 0.1790 0.1791 0.1793
2596.000000 0.1794 0.1796 0.1798 0.1800 0.1802
2601.000000 0.1804 0.1807 0.1812 0.1818 0.1823
2606.000000 0.1829 0.1834 0.1840 0.1846 0.1853
2611.000000 0.1861 0.1870 0.1878 0.1887 0.1895
2616.000000 0.1903 0.1912 0.1920 0.1928 0.1936
2621.000000 0.1944 0.1952 0.1960 0.1968 0.1975
2626.000000 0.1982 0.1990 0.1997 0.2005 0.2013
2631.000000 0.2020 0.2028 0.2035 0.2042 0.2049
2636.000000 0.2057 0.2065 0.2072 0.2080 0.2087
2641.000000 0.2094 0.2101 0.2108 0.2113 0.2118
2646.000000 0.2123 0.2127 0.2132 0.2137 0.2141
2651.000000 0.2146 0.2151 0.2155 0.2160 0.2164
2656.000000 0.2169 0.2173 0.2177 0.2181 0.2184
2661.000000 0.2185 0.2186 0.2187 0.2188 0.2189
2666.000000 0.2190 0.2191 0.2192 0.2194 0.2195
2671.000000 0.2197 0.2198 0.2199 0.2200 0.2201
2676.000000 0.2202 0.2203 0.2204 0.2205 0.2206
2681.000000 0.2206 0.2206 0.2205 0.2205 0.2205
2686.000000 0.2204 0.2204 0.2204 0.2203 0.2203
2691.000000 0.2203 0.2202 0.2202 0.2201 0.2201
2696.000000 0.2201 0.2200 0.2195 0.2190 0.2184
2701.000000 0.2179 0.2174 0.2169 0.2164 0.2159
2706.000000 0.2154 0.2148 0.2143 0.2138 0.2133
2711.000000 0.2128 0.2122 0.2114 0.2106 0.2098
2716.000000 0.2090 0.2083 0.2075 0.2067 0.2059
2721.000000 0.2051 0.2044 0.2036 0.2028 0.2021
2726.000000 0.2014 0.2006 0.1998 0.1990 0.1983
2731.000000 0.1975 0.1967 0.1958 0.1948 0.1939
2736.000000 0.1929 0.1918 0.1908 0.1898 0.1888
2741.000000 0.1878 0.1867 0.1856 0.1845 0.1834
2746.000000 0.1824 0.1813 0.1803 0.1792 0.1781
2751.000000 0.1771 0.1761 0.1752 0.1742 0.1733
2756.000000 0.1724 0.1714 0.1705 0.1695 0.1686
2761.000000 0.1677 0.1667 0.1658 0.1649 0.1639
2766.000000 0.1630 0.1621 0.1612 0.1602 0.1593
2771.000000 0.1583 0.1574 0.1565 0.1556 0.1547
2776.000000 0.1537 0.1528 0.1518 0.1509 0.1500
2781.000000 0.1491 0.1482 0.1473 0.1463 0.1453
2786.000000 0.1444 0.1434 0.1425 0.1415 0.1406
2791.000000 0.1397 0.1388 0.1378 0.1369 0.1359
2796.000000 0.1350 0.1340 0.1331 0.1322 0.1312
2801.000000 0.1303 0.1293 0.1284 0.1274 0.1265
2806.000000 0.1256 0.1247 0.1238 0.1228 0.1218
2811.000000 0.1207 0.1197 0.1187 0.1177 0.1167
2816.000000 0.1157 0.1147 0.1136 0.1126 0.1116
2821.000000 0.1105 0.1095 0.1085 0.1075 0.1065
2826.000000 0.1055 0.1045 0.1035 0.1025 0.1014
2831.000000 0.1004 0.0994 0.0984 0.0974 0.0962
2836.000000 0.0948 0.0934 0.0920 0.0904 0.0889
2841.000000 0.0873 0.0858 0.0843 0.0828 0.0812
2846.000000 0.0797 0.0781 0.0766 0.0751 0.0735
2851.000000 0.0720 0.0704 0.0689 0.0674 0.0659
2856.000000 0.0644 0.0629 0.0615 0.0601 0.0587
2861.000000 0.0574 0.0560 0.0547 0.0533 0.0520
2866.000000 0.0507 0.0493 0.0479 0.0466 0.0452
2871.000000 0.0439 0.0427 0.0414 0.0403 0.0393
2876.000000 0.0383 0.0373 0.0364 0.0354 0.0344
2881.000000 0.0335 0.0325 0.0315 0.0306 0.0296
2886.000000 0.0286 0.0276 0.0267 0.0258 0.0249
2891.000000 0.0243 0.0238 0.0233 0.0228 0.0223
2896.000000 0.0218 0.0213 0.0208 0.0203 0.0199
2901.000000 0.0195 0.0192 0.0188 0.0185 0.0182
2906.000000 0.0179 0.0176 0.0173 0.0170 0.0167
2911.000000 0.0164 0.0162 0.0160 0.0159 0.0159
2916.000000 0.0159 0.0159 0.0159 0.0159 0.0159
2921.000000 0.0159 0.0159 0.0159 0.0159 0.0159
2926.000000 0.0159 0.0159 0.0159 0.0159 0.0159
2931.000000 0.0160 0.0160 0.0161 0.0161 0.0162
2936.000000 0.0163 0.0163 0.0164 0.0164 0.0165
2941.000000 0.0165 0.0166 0.0167 0.0167 0.0168
2946.000000 0.0169 0.0170 0.0170 0.0171 0.0172
2951.000000 0.0172 0.0173 0.0173 0.0174 0.0174
2956.000000 0.0175 0.0176 0.0177 0.0178 0.0178
2961.000000 0.0179 0.0179 0.0180 0.0181 0.0181
2966.000000 0.0182 0.0183 0.0184 0.0184 0.0186
2971.000000 0.0189 0.0191 0.0193 0.0195 0.0197
2976.000000 0.0199 0.0201 0.0204 0.0206 0.0208
2981.000000 0.0210 0.0213 0.0215 0.0217 0.0219
2986.000000 0.0221 0.0223 0.0228 0.0233 0.0238
2991.000000 0.0244 0.0251 0.0257 0.0263 0.0270
2996.000000 0.0276 0.0283 0.0289 0.0295 0.0302
3001.000000 0.0308 0.0327 0.0349 0.0372 0.0397
3006.000000 0.0437 0.0477 0.0518 0.0558 0.0598
3011.000000 0.0638 0.0679 0.0719 0.0759 0.0799
3016.000000 0.0839 0.0879 0.0919 0.0960 0.0999
3021.000000 0.1039 0.1079 0.1119 0.1158 0.1198
3026.000000 0.1238 0.1278 0.1318 0.1358 0.1397
3031.000000 0.1437 0.1477 0.1517 0.1556 0.1596
3036.000000 0.1635 0.1674 0.1714 0.1753 0.1793
3041.000000 0.1832 0.1872 0.1911 0.1950 0.1990
3046.000000 0.2029 0.2069 0.2108 0.2147 0.2186
3051.000000 0.2225 0.2264 0.2303 0.2342 0.2381
3056.000000 0.2420 0.2459 0.2498 0.2537 0.2576
3061.000000 0.2611 0.2645 0.2680 0.2710 0.2732
3066.000000 0.2754 0.2776 0.2814 0.2868 0.2922
3071.000000 0.2976 0.3029 0.3083 0.3136 0.3190
3076.000000 0.3228 0.3266 0.3304 0.3340 0.3367
3081.000000 0.3394 0.3421 0.3447 0.3470 0.3494
3086.000000 0.3518 0.3541 0.3564 0.3588 0.3611
3091.000000 0.3631 0.3650 0.3669 0.3688 0.3700
3096.000000 0.3711 0.3722 0.3733 0.3744 0.3755
3101.000000 0.3766 0.3777 0.3788 0.3799 0.3810
3106.000000 0.3821 0.3832 0.3843 0.3854 0.3866
3111.000000 0.3880 0.3893 0.3907 0.3926 0.3946
3116.000000 0.3967 0.3988 0.4009 0.4030 0.4051
3121.000000 0.4071 0.4092 0.4113 0.4134 0.4156
3126.000000 0.4204 0.4252 0.4300 0.4348 0.4393
3131.000000 0.4439 0.4485 0.4527 0.4549 0.4570
3136.000000 0.4592 0.4614 0.4635 0.4657 0.4678
3141.000000 0.4700 0.4721 0.4743 0.4764 0.4784
3146.000000 0.4799 0.4813 0.4828 0.4840 0.4847
3151.000000 0.4854 0.4861 0.4869 0.4876 0.4883
3156.000000 0.4890 0.4898 0.4905 0.4912 0.4919
3161.000000 0.4927 0.4934 0.4941 0.4948 0.4956
3166.000000 0.4963 0.4970 0.4977 0.4985 0.4992
3171.000000 0.4999 0.5006 0.5013 0.5021 0.5028
3176.000000 0.5035 0.5042 0.5049 0.5056 0.5063
3181.000000 0.5070 0.5077 0.5084 0.5091 0.5099
3186.000000 0.5109 0.5118 0.5128 0.5138 0.5152
3191.000000 0.5165 0.5178 0.5192 0.5205 0.5218
3196.000000 0.5231 0.5244 0.5257 0.5270 0.5283
3201.000000 0.5296 0.5309 0.5322 0.5336 0.5349
3206.000000 0.5362 0.5375 0.5388 0.5401 0.5414
3211.000000 0.5428 0.5441 0.5454 0.5467 0.5480
3216.000000 0.5493 0.5506 0.5518 0.5528 0.5538
3221.000000 0.5549 0.5559 0.5568 0.5578 0.5588
3226.000000 0.5597 0.5607 0.5617 0.5626 0.5636
3231.000000 0.5645 0.5655 0.5664 0.5674 0.5683
3236.000000 0.5693 0.5702 0.5711 0.5721 0.5730
3241.000000 0.5740 0.5749 0.5757 0.5761 0.5766
3246.000000 0.5771 0.5776 0.5780 0.5785 0.5789
3251.000000 0.5794 0.5798 0.5803 0.5807 0.5812
3256.000000 0.5816 0.5820 0.5824 0.5829 0.5833
3261.000000 0.5837 0.5842 0.5846 0.5851 0.5855
3266.000000 0.5860 0.5864 0.5869 0.5873 0.5877
3271.000000 0.5881 0.5885 0.5887 0.5889 0.5891
3276.000000 0.5892 0.5894 0.5896 0.5898 0.5900
3281.000000 0.5902 0.5904 0.5906 0.5908 0.5910
3286.000000 0.5912 0.5914 0.5916 0.5918 0.5919
3291.000000 0.5921 0.5923 0.5924 0.5926 0.5926
3296.000000 0.5926 0.5926 0.5926 0.5926 0.5926
3301.000000 0.5926 0.5926 0.5926 0.5926 0.5926
3306.000000 0.5926 0.5927 0.5927 0.5927 0.5927
3311.000000 0.5927 0.5927 0.5927 0.5927 0.5927
3316.000000 0.5927 0.5927 0.5927 0.5927 0.5927
3321.000000 0.5926 0.5926 0.5925 0.5925 0.5924
3326.000000 0.5923 0.5923 0.5922 0.5921 0.5921
3331.000000 0.5920 0.5919 0.5919 0.5918 0.5917
3336.000000 0.5917 0.5916 0.5915 0.5915 0.5914
3341.000000 0.5913 0.5913 0.5912 0.5911 0.5911
3346.000000 0.5910 0.5909 0.5909 0.5908 0.5907
3351.000000 0.5907 0.5906 0.5905 0.5905 0.5904
3356.000000 0.5903 0.5901 0.5899 0.5898 0.5896
3361.000000 0.5894 0.5893 0.5892 0.5890 0.5889
3366.000000 0.5888 0.5887 0.5886 0.5885 0.5884
3371.000000 0.5883 0.5882 0.5881 0.5880 0.5879
3376.000000 0.5879 0.5878 0.5877 0.5876 0.5875
3381.000000 0.5874 0.5873 0.5872 0.5872 0.5871
3386.000000 0.5870 0.5869 0.5868 0.5866 0.5864
3391.000000 0.5862 0.5861 0.5859 0.5857 0.5855
3396.000000 0.5853 0.5851 0.5849 0.5847 0.5844
3401.000000 0.5842 0.5840 0.5839 0.5837 0.5835
3406.000000 0.5833 0.5832 0.5831 0.5830 0.5828
3411.000000 0.5827 0.5826 0.5824 0.5823 0.5822
3416.000000 0.5820 0.5819 0.5817 0.5816 0.5814
3421.000000 0.5813 0.5812 0.5811 0.5809 0.5808
3426.000000 0.5806 0.5805 0.5804 0.5802 0.5801
3431.000000 0.5799 0.5798 0.5797 0.5796 0.5794
3436.000000 0.5793 0.5792 0.5791 0.5789 0.5788
3441.000000 0.5788 0.5787 0.5786 0.5785 0.5785
3446.000000 0.5784 0.5783 0.5783 0.5782 0.5781
3451.000000 0.5781 0.5780 0.5780 0.5779 0.5778
3456.000000 0.5778 0.5777 0.5776 0.5776 0.5775
3461.000000 0.5775 0.5774 0.5773 0.5773 0.5772
3466.000000 0.5771 0.5771 0.5770 0.5770 0.5770
3471.000000 0.5770 0.5770 0.5769 0.5769 0.5768
3476.000000 0.5768 0.5768 0.5767 0.5767 0.5767
3481.000000 0.5767 0.5766 0.5766 0.5766 0.5766
3486.000000 0.5766 0.5765 0.5765 0.5765 0.5764
3491.000000 0.5764 0.5763 0.5763 0.5763 0.5763
3496.000000 0.5763 0.5762 0.5762 0.5761 0.5761
3501.000000 0.5761 0.5760 0.5760 0.5760 0.5760
3506.000000 0.5760 0.5759 0.5759 0.5759 0.5759
3511.000000 0.5759 0.5758 0.5758 0.5757 0.5757
3516.000000 0.5757 0.5756 0.5756 0.5756 0.5756
3521.000000 0.5756 0.5755 0.5755 0.5754 0.5754
3526.000000 0.5754 0.5753 0.5753 0.5752 0.5752
3531.000000 0.5752 0.5751 0.5751 0.5751 0.5751
3536.000000 0.5751 0.5750 0.5750 0.5749 0.5749
3541.000000 0.5749 0.5748 0.5748 0.5747 0.5747
3546.000000 0.5747 0.5746 0.5746 0.5745 0.5745
3551.000000 0.5745 0.5744 0.5744 0.5743 0.5743
3556.000000 0.5743 0.5742 0.5742 0.5742 0.5742
3561.000000 0.5742 0.5740 0.5739 0.5738 0.5736
3566.000000 0.5735 0.5734 0.5732 0.5731 0.5729
3571.000000 0.5728 0.5727 0.5726 0.5724 0.5723
3576.000000 0.5722 0.5721 0.5720 0.5718 0.5717
3581.000000 0.5715 0.5714 0.5713 0.5712 0.5711
3586.000000 0.5709 0.5708 0.5707 0.5706 0.5704
3591.000000 0.5703 0.5701 0.5700 0.5699 0.5698
3596.000000 0.5697 0.5696 0.5694 0.5693 0.5692
3601.000000 0.5691 0.5690 0.5689 0.5688 0.5686
3606.000000 0.5685 0.5684 0.5683 0.5682 0.5681
3611.000000 0.5679 0.5678 0.5677 0.5676 0.5674
3616.000000 0.5672 0.5671 0.5669 0.5668 0.5667
3621.000000 0.5665 0.5664 0.5663 0.5661 0.5660
3626.000000 0.5658 0.5657 0.5655 0.5654 0.5652
3631.000000 0.5651 0.5650 0.5648 0.5647 0.5646
3636.000000 0.5644 0.5643 0.5641 0.5640 0.5638
3641.000000 0.5637 0.5636 0.5634 0.5633 0.5631
3646.000000 0.5630 0.5628 0.5627 0.5625 0.5624
3651.000000 0.5623 0.5621 0.5620 0.5619 0.5617
3656.000000 0.5616 0.5614 0.5613 0.5611 0.5610
3661.000000 0.5608 0.5607 0.5606 0.5604 0.5603
3666.000000 0.5601 0.5600 0.5598 0.5597 0.5596
3671.000000 0.5595 0.5593 0.5592 0.5590 0.5589
3676.000000 0.5587 0.5586 0.5585 0.5583 0.5582
3681.000000 0.5581 0.5579 0.5578 0.5576 0.5575
3686.000000 0.5573 0.5572 0.5571 0.5569 0.5568
3691.000000 0.5567 0.5565 0.5564 0.5563 0.5561
3696.000000 0.5560 0.5558 0.5557 0.5556 0.5554
3701.000000 0.5553 0.5552 0.5550 0.5549 0.5548
3706.000000 0.5546 0.5545 0.5543 0.5542 0.5540
3711.000000 0.5539 0.5538 0.5537 0.5535 0.5534
3716.000000 0.5533 0.5532 0.5530 0.5529 0.5528
3721.000000 0.5527 0.5526 0.5525 0.5523 0.5522
3726.000000 0.5521 0.5520 0.5519 0.5518 0.5517
3731.000000 0.5516 0.5515 0.5514 0.5513 0.5512
3736.000000 0.5510 0.5509 0.5508 0.5507 0.5506
3741.000000 0.5504 0.5503 0.5502 0.5501 0.5500
3746.000000 0.5499 0.5498 0.5497 0.5496 0.5495
3751.000000 0.5493 0.5492 0.5491 0.5490 0.5489
3756.000000 0.5488 0.5487 0.5486 0.5485 0.5484
3761.000000 0.5483 0.5482 0.5481 0.5480 0.5479
3766.000000 0.5478 0.5476 0.5475 0.5474 0.5473
3771.000000 0.5472 0.5471 0.5470 0.5468 0.5467
3776.000000 0.5466 0.5465 0.5464 0.5463 0.5462
3781.000000 0.5461 0.5460 0.5459 0.5458 0.5457
3786.000000 0.5455 0.5454 0.5453 0.5452 0.5451
3791.000000 0.5450 0.5449 0.5448 0.5447 0.5446
3796.000000 0.5445 0.5444 0.5443 0.5442 0.5441
3801.000000 0.5440 0.5438 0.5437 0.5436 0.5435
3806.000000 0.5434 0.5433 0.5432 0.5431 0.5430
3811.000000 0.5428 0.5427 0.5426 0.5424 0.5423
3816.000000 0.5422 0.5420 0.5419 0.5417 0.5416
3821.000000 0.5414 0.5412 0.5411 0.5410 0.5408
3826.000000 0.5407 0.5406 0.5404 0.5403 0.5401
3831.000000 0.5400 0.5398 0.5397 0.5395 0.5394
3836.000000 0.5392 0.5391 0.5390 0.5388 0.5387
3841.000000 0.5385 0.5384 0.5382 0.5381 0.5379
3846.000000 0.5378 0.5376 0.5374 0.5372 0.5370
3851.000000 0.5368 0.5366 0.5363 0.5361 0.5358
3856.000000 0.5356 0.5353 0.5351 0.5348 0.5346
3861.000000 0.5344 0.5341 0.5339 0.5336 0.5334
3866.000000 0.5331 0.5329 0.5326 0.5324 0.5321
3871.000000 0.5319 0.5316 0.5314 0.5311 0.5309
3876.000000 0.5306 0.5304 0.5302 0.5299 0.5297
3881.000000 0.5295 0.5292 0.5290 0.5287 0.5285
3886.000000 0.5283 0.5280 0.5278 0.5275 0.5272
3891.000000 0.5270 0.5267 0.5264 0.5262 0.5259
3896.000000 0.5256 0.5253 0.5251 0.5248 0.5245
3901.000000 0.5242 0.5240 0.5237 0.5234 0.5232
3906.000000 0.5229 0.5227 0.5224 0.5221 0.5219
3911.000000 0.5216 0.5213 0.5211 0.5208 0.5205
3916.000000 0.5202 0.5200 0.5197 0.5194 0.5192
3921.000000 0.5189 0.5186 0.5184 0.5181 0.5178
3926.000000 0.5175 0.5172 0.5169 0.5165 0.5162
3931.000000 0.5159 0.5155 0.5152 0.5149 0.5145
3936.000000 0.5142 0.5139 0.5135 0.5132 0.5128
3941.000000 0.5125 0.5122 0.5118 0.5115 0.5111
3946.000000 0.5108 0.5104 0.5101 0.5097 0.5094
3951.000000 0.5090 0.5087 0.5084 0.5080 0.5077
3956.000000 0.5073 0.5070 0.5067 0.5063 0.5060
3961.000000 0.5057 0.5053 0.5050 0.5047 0.5043
3966.000000 0.5040 0.5037 0.5033 0.5030 0.5027
3971.000000 0.5023 0.5020 0.5017 0.5013 0.5010
3976.000000 0.5007 0.5003 0.5000 0.4996 0.4993
3981.000000 0.4989 0.4986 0.4983 0.4979 0.4976
3986.000000 0.4973 0.4969 0.4967 0.4964 0.4962
3991.000000 0.4960 0.4957 0.4955 0.4953 0.4951
3996.000000 0.4949 0.4947 0.4945 0.4943 0.4942
##END=
