##TITLE=Didecylamine hydrobromide
##JCAMP-DX=4.24
$$ By DXEDIT 1.05 (RS McDonald)
##DATA TYPE=INFRARED SPECTRUM
##CLASS=COBLENTZ III
##ORIGIN=DOW CHEMICAL COMPANY
##OWNER=COPYRIGHT (C) 1988 by COBLENTZ SOCIETY INC.
Collection (C) 2018 copyright by the U.S. Secretary of Commerce
on behalf of the United States of America. All rights reserved.
##DATE=1969/07/31
##CAS NAME=Decanamine, N-decyl-, hydrobromide
##NAMES=N,N-didecylamine hydrobromide
##MOLFORM=C20 H44 Br N
##SOURCE REFERENCE=COBLENTZ NO. 09686
##$NIST ID=B6009686
##$NIST SOURCE=COBLENTZ
##$NIST IMAGE=cob9686
##SPECTROMETER/DATA SYSTEM=DOW KBr FOREPRISM-GRATING
##INSTRUMENT PARAMETERS=BLAZED AT 3.5, 12.0, 20.0 MICRON AND CHANGED AT 5.0, 7.5, 14.9 MICRON
##STATE=SOLID (SPLIT MULL), FLUOROLUBE FOR 3800-1330 CM^-^1, NUJOL FOR 1330-500 CM^-^1
##SAMPLING PROCEDURE=TRANSMISSION
##RESOLUTION=2
##DATA PROCESSING=DIGITIZED BY COBLENTZ SOCIETY (BATCH I) FROM HARD COPY
##XUNITS=1/CM
##YUNITS=TRANSMITTANCE
##XFACTOR=1
##YFACTOR=1
##DELTAX=1
##FIRSTX=3800
##LASTX=468
##FIRSTY=0.7597
##MAXX=3800
##MINX=468
##MAXY=0.8941
##MINY=0.0255
##NPOINTS=3333
##XYDATA=(X++(Y..Y))
3800.000000 0.7597 0.7597 0.7598 0.7599 0.7600
3795.000000 0.7601 0.7601 0.7603 0.7604 0.7605
3790.000000 0.7606 0.7607 0.7608 0.7610 0.7611
3785.000000 0.7611 0.7612 0.7614 0.7615 0.7615
3780.000000 0.7617 0.7618 0.7618 0.7619 0.7621
3775.000000 0.7621 0.7624 0.7625 0.7625 0.7626
3770.000000 0.7628 0.7628 0.7630 0.7631 0.7632
3765.000000 0.7633 0.7634 0.7634 0.7635 0.7635
3760.000000 0.7636 0.7636 0.7636 0.7636 0.7636
3755.000000 0.7636 0.7636 0.7636 0.7637 0.7637
3750.000000 0.7637 0.7636 0.7636 0.7635 0.7635
3745.000000 0.7634 0.7634 0.7633 0.7633 0.7632
3740.000000 0.7632 0.7633 0.7634 0.7635 0.7636
3735.000000 0.7637 0.7638 0.7639 0.7640 0.7641
3730.000000 0.7642 0.7643 0.7644 0.7645 0.7646
3725.000000 0.7648 0.7651 0.7654 0.7657 0.7658
3720.000000 0.7661 0.7664 0.7667 0.7668 0.7671
3715.000000 0.7675 0.7678 0.7680 0.7683 0.7684
3710.000000 0.7685 0.7686 0.7687 0.7688 0.7690
3705.000000 0.7691 0.7692 0.7693 0.7694 0.7695
3700.000000 0.7715 0.7698 0.7699 0.7700 0.7701
3695.000000 0.7701 0.7704 0.7705 0.7706 0.7707
3690.000000 0.7708 0.7708 0.7710 0.7711 0.7711
3685.000000 0.7712 0.7714 0.7715 0.7717 0.7718
3680.000000 0.7718 0.7719 0.7721 0.7721 0.7722
3675.000000 0.7724 0.7725 0.7725 0.7726 0.7728
3670.000000 0.7728 0.7730 0.7731 0.7732 0.7733
3665.000000 0.7734 0.7735 0.7735 0.7736 0.7736
3660.000000 0.7737 0.7737 0.7738 0.7739 0.7740
3655.000000 0.7740 0.7741 0.7741 0.7742 0.7742
3650.000000 0.7743 0.7743 0.7744 0.7745 0.7746
3645.000000 0.7746 0.7747 0.7747 0.7748 0.7748
3640.000000 0.7749 0.7749 0.7750 0.7751 0.7751
3635.000000 0.7751 0.7753 0.7753 0.7754 0.7754
3630.000000 0.7755 0.7756 0.7757 0.7757 0.7758
3625.000000 0.7758 0.7758 0.7760 0.7761 0.7761
3620.000000 0.7761 0.7761 0.7762 0.7764 0.7765
3615.000000 0.7765 0.7765 0.7765 0.7767 0.7768
3610.000000 0.7768 0.7768 0.7769 0.7769 0.7771
3605.000000 0.7771 0.7772 0.7772 0.7774 0.7774
3600.000000 0.7775 0.7775 0.7776 0.7776 0.7778
3595.000000 0.7778 0.7778 0.7778 0.7780 0.7780
3590.000000 0.7780 0.7780 0.7781 0.7781 0.7781
3585.000000 0.7781 0.7782 0.7782 0.7782 0.7782
3580.000000 0.7783 0.7783 0.7783 0.7783 0.7784
3575.000000 0.7784 0.7785 0.7785 0.7785 0.7785
3570.000000 0.7786 0.7786 0.7786 0.7786 0.7787
3565.000000 0.7787 0.7787 0.7787 0.7788 0.7788
3560.000000 0.7788 0.7788 0.7789 0.7789 0.7789
3555.000000 0.7789 0.7790 0.7790 0.7790 0.7790
3550.000000 0.7791 0.7791 0.7792 0.7792 0.7792
3545.000000 0.7792 0.7793 0.7793 0.7793 0.7793
3540.000000 0.7794 0.7794 0.7794 0.7794 0.7795
3535.000000 0.7795 0.7796 0.7796 0.7796 0.7796
3530.000000 0.7797 0.7797 0.7797 0.7797 0.7798
3525.000000 0.7798 0.7798 0.7798 0.7799 0.7799
3520.000000 0.7799 0.7799 0.7800 0.7800 0.7801
3515.000000 0.7801 0.7801 0.7801 0.7801 0.7801
3510.000000 0.7801 0.7801 0.7803 0.7803 0.7803
3505.000000 0.7803 0.7804 0.7804 0.7805 0.7805
3500.000000 0.7805 0.7805 0.7806 0.7806 0.7806
3495.000000 0.7806 0.7807 0.7807 0.7807 0.7807
3490.000000 0.7808 0.7808 0.7808 0.7808 0.7808
3485.000000 0.7808 0.7808 0.7808 0.7808 0.7808
3480.000000 0.7808 0.7808 0.7808 0.7808 0.7808
3475.000000 0.7808 0.7808 0.7808 0.7808 0.7808
3470.000000 0.7810 0.7810 0.7810 0.7810 0.7810
3465.000000 0.7810 0.7810 0.7810 0.7810 0.7810
3460.000000 0.7811 0.7811 0.7811 0.7811 0.7811
3455.000000 0.7811 0.7811 0.7811 0.7811 0.7811
3450.000000 0.7811 0.7811 0.7811 0.7811 0.7811
3445.000000 0.7811 0.7811 0.7811 0.7811 0.7811
3440.000000 0.7812 0.7812 0.7812 0.7812 0.7812
3435.000000 0.7812 0.7812 0.7812 0.7812 0.7812
3430.000000 0.7814 0.7814 0.7814 0.7814 0.7814
3425.000000 0.7814 0.7814 0.7814 0.7815 0.7815
3420.000000 0.7815 0.7815 0.7815 0.7815 0.7815
3415.000000 0.7815 0.7815 0.7815 0.7815 0.7815
3410.000000 0.7815 0.7815 0.7815 0.7815 0.7815
3405.000000 0.7815 0.7817 0.7817 0.7817 0.7817
3400.000000 0.7817 0.7817 0.7817 0.7817 0.7818
3395.000000 0.7818 0.7818 0.7818 0.7818 0.7818
3390.000000 0.7819 0.7819 0.7819 0.7819 0.7821
3385.000000 0.7821 0.7821 0.7821 0.7822 0.7822
3380.000000 0.7824 0.7824 0.7825 0.7825 0.7825
3375.000000 0.7825 0.7825 0.7825 0.7826 0.7826
3370.000000 0.7828 0.7828 0.7828 0.7828 0.7830
3365.000000 0.7830 0.7831 0.7831 0.7832 0.7832
3360.000000 0.7832 0.7832 0.7833 0.7833 0.7834
3355.000000 0.7834 0.7835 0.7837 0.7839 0.7842
3350.000000 0.7846 0.7849 0.7853 0.7857 0.7861
3345.000000 0.7868 0.7875 0.7882 0.7890 0.7898
3340.000000 0.7906 0.7912 0.7921 0.7926 0.7933
3335.000000 0.7939 0.7946 0.7951 0.7958 0.7964
3330.000000 0.7971 0.7974 0.7978 0.7980 0.7983
3325.000000 0.7985 0.7987 0.7989 0.7991 0.7993
3320.000000 0.7995 0.7997 0.7999 0.8001 0.8003
3315.000000 0.8004 0.8006 0.8006 0.8007 0.8008
3310.000000 0.8008 0.8008 0.8010 0.8010 0.8011
3305.000000 0.8011 0.8011 0.8012 0.8014 0.8014
3300.000000 0.8015 0.8015 0.8015 0.8017 0.8018
3295.000000 0.8018 0.8019 0.8021 0.8022 0.8024
3290.000000 0.8025 0.8025 0.8028 0.8028 0.8030
3285.000000 0.8031 0.8033 0.8034 0.8036 0.8037
3280.000000 0.8038 0.8039 0.8041 0.8042 0.8044
3275.000000 0.8045 0.8046 0.8047 0.8049 0.8050
3270.000000 0.8051 0.8054 0.8056 0.8058 0.8060
3265.000000 0.8061 0.8064 0.8065 0.8068 0.8071
3260.000000 0.8072 0.8075 0.8076 0.8078 0.8081
3255.000000 0.8083 0.8085 0.8087 0.8089 0.8091
3250.000000 0.8093 0.8095 0.8097 0.8099 0.8101
3245.000000 0.8103 0.8105 0.8107 0.8108 0.8110
3240.000000 0.8111 0.8111 0.8111 0.8112 0.8114
3235.000000 0.8115 0.8115 0.8117 0.8118 0.8118
3230.000000 0.8119 0.8121 0.8121 0.8122 0.8124
3225.000000 0.8125 0.8125 0.8125 0.8126 0.8128
3220.000000 0.8128 0.8130 0.8131 0.8132 0.8133
3215.000000 0.8133 0.8133 0.8133 0.8134 0.8134
3210.000000 0.8135 0.8135 0.8136 0.8136 0.8137
3205.000000 0.8137 0.8138 0.8138 0.8139 0.8139
3200.000000 0.8140 0.8140 0.8141 0.8141 0.8142
3195.000000 0.8142 0.8143 0.8143 0.8144 0.8144
3190.000000 0.8144 0.8144 0.8144 0.8143 0.8143
3185.000000 0.8143 0.8143 0.8143 0.8143 0.8142
3180.000000 0.8141 0.8140 0.8139 0.8138 0.8137
3175.000000 0.8136 0.8135 0.8130 0.8125 0.8115
3170.000000 0.8107 0.8097 0.8088 0.8076 0.8065
3165.000000 0.8054 0.8042 0.8033 0.8024 0.8018
3160.000000 0.8011 0.8008 0.8006 0.8005 0.8004
3155.000000 0.8004 0.8004 0.8011 0.8019 0.8026
3150.000000 0.8035 0.8043 0.8051 0.8058 0.8067
3145.000000 0.8072 0.8080 0.8082 0.8085 0.8087
3140.000000 0.8090 0.8093 0.8096 0.8098 0.8101
3135.000000 0.8103 0.8106 0.8108 0.8111 0.8111
3130.000000 0.8112 0.8112 0.8114 0.8114 0.8115
3125.000000 0.8115 0.8115 0.8117 0.8118 0.8118
3120.000000 0.8118 0.8118 0.8119 0.8121 0.8121
3115.000000 0.8122 0.8124 0.8125 0.8125 0.8125
3110.000000 0.8126 0.8128 0.8128 0.8128 0.8128
3105.000000 0.8128 0.8128 0.8128 0.8128 0.8126
3100.000000 0.8126 0.8125 0.8125 0.8119 0.8115
3095.000000 0.8110 0.8105 0.8099 0.8094 0.8088
3090.000000 0.8083 0.8076 0.8071 0.8065 0.8060
3085.000000 0.8053 0.8046 0.8038 0.8030 0.8021
3080.000000 0.8015 0.8005 0.7995 0.7984 0.7974
3075.000000 0.7958 0.7943 0.7926 0.7911 0.7897
3070.000000 0.7883 0.7865 0.7850 0.7834 0.7818
3065.000000 0.7801 0.7785 0.7768 0.7751 0.7735
3060.000000 0.7718 0.7701 0.7686 0.7668 0.7653
3055.000000 0.7636 0.7618 0.7601 0.7586 0.7568
3050.000000 0.7553 0.7535 0.7518 0.7501 0.7484
3045.000000 0.7467 0.7450 0.7432 0.7415 0.7395
3040.000000 0.7375 0.7351 0.7330 0.7307 0.7284
3035.000000 0.7261 0.7238 0.7210 0.7182 0.7150
3030.000000 0.7118 0.7085 0.7053 0.7021 0.6989
3025.000000 0.6957 0.6925 0.6893 0.6861 0.6828
3020.000000 0.6797 0.6761 0.6726 0.6669 0.6614
3015.000000 0.6557 0.6500 0.6448 0.6397 0.6351
3010.000000 0.6306 0.6260 0.6214 0.6168 0.6123
3005.000000 0.6072 0.6022 0.5971 0.5921 0.5853
3000.000000 0.5786 0.5680 0.5575 0.5449 0.5323
2995.000000 0.5190 0.5058 0.4909 0.4760 0.4609
2990.000000 0.4458 0.4328 0.4198 0.4068 0.3939
2985.000000 0.3809 0.3680 0.3550 0.3421 0.3347
2980.000000 0.3274 0.3254 0.3234 0.3218 0.3204
2975.000000 0.3119 0.3034 0.2908 0.2781 0.2654
2970.000000 0.2527 0.2400 0.2273 0.2146 0.2019
2965.000000 0.1892 0.1765 0.1637 0.1511 0.1384
2960.000000 0.1257 0.1130 0.1003 0.0876 0.0749
2955.000000 0.0659 0.0533 0.0562 0.0555 0.0553
2950.000000 0.0552 0.0561 0.0571 0.0607 0.0643
2945.000000 0.0678 0.0714 0.0749 0.0785 0.0821
2940.000000 0.0857 0.0892 0.0928 0.0953 0.0978
2935.000000 0.0983 0.0989 0.0965 0.0941 0.0874
2930.000000 0.0808 0.0742 0.0676 0.0609 0.0543
2925.000000 0.0475 0.0410 0.0352 0.0294 0.0284
2920.000000 0.0255 0.0270 0.0266 0.0264 0.0262
2915.000000 0.0262 0.0263 0.0279 0.0296 0.0358
2910.000000 0.0421 0.0498 0.0576 0.0653 0.0730
2905.000000 0.0807 0.0885 0.0962 0.1039 0.1116
2900.000000 0.1194 0.1271 0.1349 0.1426 0.1503
2895.000000 0.1580 0.1658 0.1734 0.1812 0.1889
2890.000000 0.1967 0.2044 0.2121 0.2198 0.2276
2885.000000 0.2353 0.2430 0.2507 0.2584 0.2662
2880.000000 0.2739 0.2816 0.2894 0.2971 0.3048
2875.000000 0.3083 0.3174 0.3119 0.3119 0.2979
2870.000000 0.2839 0.2677 0.2515 0.2352 0.2190
2865.000000 0.2172 0.2155 0.2007 0.1860 0.1706
2860.000000 0.1553 0.1399 0.1246 0.1092 0.0939
2855.000000 0.0914 0.0850 0.0957 0.1025 0.1180
2850.000000 0.1336 0.1492 0.1648 0.1804 0.1960
2845.000000 0.2115 0.2271 0.2427 0.2583 0.2738
2840.000000 0.2894 0.3050 0.3206 0.3307 0.3445
2835.000000 0.3355 0.3303 0.3203 0.3103 0.3002
2830.000000 0.2902 0.2802 0.2702 0.2601 0.2501
2825.000000 0.2401 0.2301 0.2200 0.2100 0.2000
2820.000000 0.1900 0.1829 0.1761 0.1681 0.1602
2815.000000 0.1572 0.1542 0.1513 0.1484 0.1449
2810.000000 0.1414 0.1388 0.1363 0.1338 0.1314
2805.000000 0.1294 0.1275 0.1271 0.1267 0.1263
2800.000000 0.1259 0.1255 0.1252 0.1249 0.1246
2795.000000 0.1245 0.1242 0.1242 0.1244 0.1245
2790.000000 0.1248 0.1252 0.1257 0.1267 0.1278
2785.000000 0.1292 0.1309 0.1440 0.1572 0.1711
2780.000000 0.1851 0.1990 0.2130 0.2269 0.2409
2775.000000 0.2530 0.2652 0.2722 0.2792 0.2861
2770.000000 0.2930 0.2992 0.3054 0.3116 0.3178
2765.000000 0.3245 0.3312 0.3382 0.3453 0.3521
2760.000000 0.3590 0.3658 0.3726 0.3778 0.3830
2755.000000 0.3873 0.3916 0.3950 0.3986 0.4014
2750.000000 0.4043 0.4057 0.4071 0.4077 0.4082
2745.000000 0.4087 0.4091 0.4091 0.4091 0.4080
2740.000000 0.4071 0.4053 0.4036 0.4016 0.3999
2735.000000 0.3991 0.3984 0.3984 0.3984 0.3986
2730.000000 0.3988 0.4007 0.4027 0.4056 0.4084
2725.000000 0.4105 0.4126 0.4146 0.4166 0.4186
2720.000000 0.4207 0.4226 0.4245 0.4272 0.4300
2715.000000 0.4328 0.4356 0.4383 0.4410 0.4438
2710.000000 0.4466 0.4494 0.4522 0.4549 0.4577
2705.000000 0.4608 0.4640 0.4676 0.4712 0.4758
2700.000000 0.4804 0.4855 0.4906 0.4965 0.5024
2695.000000 0.5087 0.5151 0.5210 0.5269 0.5291
2690.000000 0.5312 0.5331 0.5350 0.5354 0.5359
2685.000000 0.5360 0.5362 0.5362 0.5365 0.5366
2680.000000 0.5368 0.5369 0.5371 0.5378 0.5386
2675.000000 0.5393 0.5400 0.5407 0.5415 0.5456
2670.000000 0.5497 0.5542 0.5588 0.5618 0.5648
2665.000000 0.5678 0.5708 0.5737 0.5767 0.5796
2660.000000 0.5826 0.5856 0.5886 0.5914 0.5943
2655.000000 0.5967 0.5991 0.6014 0.6038 0.6062
2650.000000 0.6086 0.6109 0.6133 0.6154 0.6176
2645.000000 0.6193 0.6210 0.6227 0.6244 0.6260
2640.000000 0.6278 0.6295 0.6312 0.6325 0.6338
2635.000000 0.6351 0.6364 0.6376 0.6389 0.6399
2630.000000 0.6408 0.6415 0.6422 0.6428 0.6436
2625.000000 0.6440 0.6445 0.6445 0.6445 0.6444
2620.000000 0.6444 0.6442 0.6440 0.6438 0.6437
2615.000000 0.6435 0.6433 0.6433 0.6434 0.6434
2610.000000 0.6435 0.6436 0.6437 0.6438 0.6439
2605.000000 0.6447 0.6455 0.6465 0.6475 0.6486
2600.000000 0.6497 0.6508 0.6521 0.6535 0.6548
2595.000000 0.6560 0.6572 0.6589 0.6606 0.6622
2590.000000 0.6640 0.6656 0.6671 0.6685 0.6699
2585.000000 0.6704 0.6710 0.6715 0.6721 0.6725
2580.000000 0.6732 0.6733 0.6733 0.6733 0.6746
2575.000000 0.6728 0.6724 0.6719 0.6715 0.6711
2570.000000 0.6708 0.6704 0.6700 0.6697 0.6694
2565.000000 0.6694 0.6694 0.6694 0.6694 0.6694
2560.000000 0.6689 0.6699 0.6705 0.6712 0.6721
2555.000000 0.6735 0.6750 0.6761 0.6775 0.6784
2550.000000 0.6793 0.6798 0.6804 0.6806 0.6808
2545.000000 0.6808 0.6810 0.6810 0.6808 0.6808
2540.000000 0.6805 0.6748 0.6691 0.6634 0.6576
2535.000000 0.6519 0.6462 0.6406 0.6349 0.6292
2530.000000 0.6235 0.6218 0.6195 0.6208 0.6214
2525.000000 0.6228 0.6243 0.6279 0.6316 0.6379
2520.000000 0.6443 0.6476 0.6511 0.6545 0.6580
2515.000000 0.6614 0.6648 0.6681 0.6714 0.6746
2510.000000 0.6778 0.6801 0.6824 0.6841 0.6858
2505.000000 0.6874 0.6891 0.6908 0.6925 0.6941
2500.000000 0.6958 0.6971 0.6987 0.7001 0.7015
2495.000000 0.7030 0.7044 0.7058 0.7072 0.7087
2490.000000 0.7101 0.7115 0.7128 0.7143 0.7158
2485.000000 0.7171 0.7186 0.7198 0.7210 0.7221
2480.000000 0.7235 0.7244 0.7254 0.7261 0.7268
2475.000000 0.7271 0.7276 0.7281 0.7285 0.7287
2470.000000 0.7290 0.7293 0.7326 0.7296 0.7296
2465.000000 0.7281 0.7265 0.7249 0.7232 0.7203
2460.000000 0.7174 0.7146 0.7118 0.7091 0.7062
2455.000000 0.6972 0.6883 0.6786 0.6690 0.6593
2450.000000 0.6497 0.6400 0.6304 0.6207 0.6110
2445.000000 0.6014 0.5918 0.5821 0.5725 0.5650
2440.000000 0.5575 0.5574 0.5573 0.5572 0.5578
2435.000000 0.5578 0.5577 0.5582 0.5587 0.5594
2430.000000 0.5602 0.5610 0.5620 0.5678 0.5736
2425.000000 0.5812 0.5889 0.5966 0.6043 0.6120
2420.000000 0.6197 0.6273 0.6350 0.6426 0.6504
2415.000000 0.6556 0.6608 0.6645 0.6682 0.6718
2410.000000 0.6755 0.6790 0.6825 0.6858 0.6891
2405.000000 0.6926 0.6964 0.7008 0.7053 0.7083
2400.000000 0.7114 0.7138 0.7162 0.7187 0.7211
2395.000000 0.7234 0.7257 0.7267 0.7276 0.7283
2390.000000 0.7290 0.7294 0.7299 0.7299 0.7300
2385.000000 0.7299 0.7297 0.7288 0.7280 0.7265
2380.000000 0.7250 0.7237 0.7225 0.7218 0.7211
2375.000000 0.7203 0.7196 0.7193 0.7192 0.7192
2370.000000 0.7194 0.7195 0.7196 0.7197 0.7199
2365.000000 0.7200 0.7201 0.7201 0.7204 0.7205
2360.000000 0.7207 0.7208 0.7208 0.7211 0.7215
2355.000000 0.7221 0.7226 0.7232 0.7238 0.7244
2350.000000 0.7250 0.7255 0.7261 0.7267 0.7272
2345.000000 0.7278 0.7285 0.7290 0.7296 0.7301
2340.000000 0.7308 0.7312 0.7318 0.7325 0.7331
2335.000000 0.7337 0.7344 0.7351 0.7358 0.7365
2330.000000 0.7372 0.7380 0.7388 0.7395 0.7401
2325.000000 0.7408 0.7417 0.7424 0.7431 0.7438
2320.000000 0.7446 0.7453 0.7460 0.7467 0.7475
2315.000000 0.7482 0.7489 0.7496 0.7503 0.7510
2310.000000 0.7517 0.7524 0.7531 0.7538 0.7545
2305.000000 0.7551 0.7558 0.7565 0.7572 0.7578
2300.000000 0.7586 0.7593 0.7600 0.7607 0.7614
2295.000000 0.7621 0.7628 0.7635 0.7642 0.7649
2290.000000 0.7656 0.7661 0.7668 0.7674 0.7678
2285.000000 0.7684 0.7689 0.7694 0.7699 0.7704
2280.000000 0.7708 0.7714 0.7718 0.7724 0.7728
2275.000000 0.7734 0.7739 0.7743 0.7748 0.7753
2270.000000 0.7758 0.7761 0.7767 0.7771 0.7776
2265.000000 0.7781 0.7786 0.7790 0.7795 0.7800
2260.000000 0.7805 0.7808 0.7812 0.7815 0.7819
2255.000000 0.7822 0.7826 0.7828 0.7832 0.7833
2250.000000 0.7834 0.7835 0.7837 0.7838 0.7839
2245.000000 0.7840 0.7841 0.7843 0.7845 0.7847
2240.000000 0.7850 0.7851 0.7855 0.7857 0.7860
2235.000000 0.7861 0.7865 0.7867 0.7869 0.7875
2230.000000 0.7880 0.7885 0.7891 0.7896 0.7901
2225.000000 0.7908 0.7915 0.7928 0.7942 0.7955
2220.000000 0.7968 0.7978 0.7989 0.7996 0.8004
2215.000000 0.8011 0.8018 0.8025 0.8034 0.8041
2210.000000 0.8049 0.8054 0.8058 0.8062 0.8067
2205.000000 0.8069 0.8074 0.8076 0.8081 0.8085
2200.000000 0.8089 0.8092 0.8096 0.8099 0.8103
2195.000000 0.8107 0.8111 0.8114 0.8118 0.8121
2190.000000 0.8125 0.8128 0.8132 0.8133 0.8134
2185.000000 0.8134 0.8135 0.8135 0.8136 0.8136
2180.000000 0.8137 0.8137 0.8138 0.8139 0.8140
2175.000000 0.8148 0.8157 0.8165 0.8175 0.8184
2170.000000 0.8193 0.8203 0.8213 0.8221 0.8232
2165.000000 0.8231 0.8230 0.8228 0.8228 0.8227
2160.000000 0.8225 0.8225 0.8224 0.8223 0.8223
2155.000000 0.8221 0.8221 0.8221 0.8221 0.8221
2150.000000 0.8221 0.8220 0.8220 0.8218 0.8218
2145.000000 0.8218 0.8218 0.8218 0.8218 0.8217
2140.000000 0.8217 0.8216 0.8216 0.8218 0.8221
2135.000000 0.8224 0.8228 0.8231 0.8234 0.8237
2130.000000 0.8240 0.8243 0.8246 0.8249 0.8253
2125.000000 0.8257 0.8262 0.8267 0.8271 0.8277
2120.000000 0.8282 0.8287 0.8292 0.8297 0.8302
2115.000000 0.8306 0.8311 0.8316 0.8321 0.8325
2110.000000 0.8331 0.8336 0.8341 0.8344 0.8347
2105.000000 0.8349 0.8352 0.8355 0.8358 0.8361
2100.000000 0.8364 0.8367 0.8370 0.8371 0.8375
2095.000000 0.8378 0.8381 0.8384 0.8387 0.8390
2090.000000 0.8393 0.8395 0.8398 0.8401 0.8404
2085.000000 0.8406 0.8409 0.8411 0.8413 0.8415
2080.000000 0.8418 0.8420 0.8423 0.8425 0.8427
2075.000000 0.8428 0.8432 0.8434 0.8437 0.8439
2070.000000 0.8442 0.8444 0.8446 0.8448 0.8451
2065.000000 0.8453 0.8456 0.8458 0.8460 0.8462
2060.000000 0.8465 0.8467 0.8470 0.8471 0.8473
2055.000000 0.8475 0.8477 0.8478 0.8480 0.8482
2050.000000 0.8484 0.8485 0.8487 0.8489 0.8491
2045.000000 0.8492 0.8494 0.8496 0.8498 0.8500
2040.000000 0.8502 0.8503 0.8505 0.8507 0.8509
2035.000000 0.8509 0.8510 0.8510 0.8511 0.8511
2030.000000 0.8512 0.8512 0.8513 0.8513 0.8514
2025.000000 0.8514 0.8515 0.8515 0.8515 0.8515
2020.000000 0.8515 0.8514 0.8513 0.8512 0.8512
2015.000000 0.8511 0.8510 0.8509 0.8509 0.8508
2010.000000 0.8507 0.8506 0.8505 0.8503 0.8502
2005.000000 0.8499 0.8496 0.8492 0.8489 0.8467
2000.000000 0.8446 0.8428 0.8414 0.8406 0.8406
1995.000000 0.8409 0.8418 0.8432 0.8446 0.8459
1990.000000 0.8470 0.8475 0.8482 0.8483 0.8485
1985.000000 0.8486 0.8488 0.8490 0.8492 0.8492
1980.000000 0.8492 0.8492 0.8492 0.8492 0.8492
1975.000000 0.8492 0.8493 0.8493 0.8493 0.8493
1970.000000 0.8493 0.8493 0.8493 0.8493 0.8494
1965.000000 0.8494 0.8494 0.8494 0.8494 0.8494
1960.000000 0.8494 0.8494 0.8494 0.8495 0.8495
1955.000000 0.8495 0.8495 0.8495 0.8495 0.8495
1950.000000 0.8495 0.8495 0.8496 0.8496 0.8496
1945.000000 0.8496 0.8496 0.8496 0.8496 0.8496
1940.000000 0.8497 0.8497 0.8497 0.8497 0.8497
1935.000000 0.8497 0.8497 0.8497 0.8497 0.8498
1930.000000 0.8498 0.8498 0.8498 0.8498 0.8498
1925.000000 0.8498 0.8498 0.8498 0.8499 0.8499
1920.000000 0.8499 0.8499 0.8499 0.8499 0.8499
1915.000000 0.8499 0.8499 0.8500 0.8500 0.8500
1910.000000 0.8500 0.8500 0.8500 0.8500 0.8500
1905.000000 0.8501 0.8501 0.8501 0.8501 0.8501
1900.000000 0.8501 0.8501 0.8501 0.8501 0.8502
1895.000000 0.8502 0.8502 0.8502 0.8502 0.8502
1890.000000 0.8502 0.8502 0.8502 0.8503 0.8503
1885.000000 0.8503 0.8503 0.8503 0.8503 0.8503
1880.000000 0.8503 0.8503 0.8504 0.8504 0.8504
1875.000000 0.8504 0.8504 0.8504 0.8504 0.8504
1870.000000 0.8505 0.8505 0.8505 0.8505 0.8505
1865.000000 0.8505 0.8505 0.8505 0.8505 0.8499
1860.000000 0.8494 0.8488 0.8482 0.8475 0.8468
1855.000000 0.8461 0.8454 0.8448 0.8438 0.8428
1850.000000 0.8417 0.8406 0.8396 0.8384 0.8371
1845.000000 0.8359 0.8347 0.8334 0.8321 0.8310
1840.000000 0.8299 0.8287 0.8275 0.8270 0.8257
1835.000000 0.8263 0.8262 0.8268 0.8273 0.8278
1830.000000 0.8284 0.8289 0.8294 0.8300 0.8304
1825.000000 0.8308 0.8312 0.8316 0.8320 0.8324
1820.000000 0.8328 0.8332 0.8336 0.8340 0.8344
1815.000000 0.8348 0.8352 0.8356 0.8359 0.8362
1810.000000 0.8365 0.8368 0.8371 0.8374 0.8378
1805.000000 0.8381 0.8384 0.8387 0.8390 0.8393
1800.000000 0.8396 0.8399 0.8401 0.8402 0.8404
1795.000000 0.8406 0.8408 0.8410 0.8411 0.8413
1790.000000 0.8415 0.8417 0.8418 0.8421 0.8421
1785.000000 0.8424 0.8427 0.8431 0.8435 0.8439
1780.000000 0.8443 0.8447 0.8466 0.8455 0.8459
1775.000000 0.8463 0.8467 0.8471 0.8475 0.8478
1770.000000 0.8483 0.8487 0.8491 0.8496 0.8500
1765.000000 0.8504 0.8508 0.8510 0.8510 0.8511
1760.000000 0.8511 0.8512 0.8508 0.8503 0.8497
1755.000000 0.8492 0.8486 0.8480 0.8475 0.8468
1750.000000 0.8461 0.8454 0.8447 0.8440 0.8433
1745.000000 0.8425 0.8421 0.8418 0.8417 0.8415
1740.000000 0.8413 0.8410 0.8411 0.8411 0.8413
1735.000000 0.8415 0.8416 0.8418 0.8420 0.8421
1730.000000 0.8423 0.8425 0.8427 0.8428 0.8431
1725.000000 0.8433 0.8434 0.8436 0.8437 0.8439
1720.000000 0.8440 0.8440 0.8441 0.8438 0.8435
1715.000000 0.8432 0.8428 0.8420 0.8412 0.8403
1710.000000 0.8395 0.8375 0.8352 0.8327 0.8299
1705.000000 0.8271 0.8245 0.8227 0.8217 0.8214
1700.000000 0.8214 0.8215 0.8225 0.8236 0.8245
1695.000000 0.8245 0.8245 0.8249 0.8239 0.8228
1690.000000 0.8220 0.8218 0.8215 0.8213 0.8213
1685.000000 0.8218 0.8225 0.8231 0.8237 0.8243
1680.000000 0.8249 0.8256 0.8264 0.8271 0.8280
1675.000000 0.8288 0.8296 0.8304 0.8310 0.8316
1670.000000 0.8321 0.8328 0.8334 0.8340 0.8346
1665.000000 0.8352 0.8358 0.8364 0.8370 0.8375
1660.000000 0.8382 0.8388 0.8394 0.8400 0.8406
1655.000000 0.8412 0.8417 0.8418 0.8421 0.8421
1650.000000 0.8424 0.8425 0.8427 0.8428 0.8431
1645.000000 0.8433 0.8433 0.8432 0.8430 0.8428
1640.000000 0.8427 0.8425 0.8424 0.8421 0.8418
1635.000000 0.8415 0.8412 0.8409 0.8406 0.8403
1630.000000 0.8397 0.8391 0.8386 0.8380 0.8375
1625.000000 0.8370 0.8365 0.8365 0.8365 0.8355
1620.000000 0.8354 0.8353 0.8356 0.8362 0.8367
1615.000000 0.8371 0.8375 0.8378 0.8382 0.8384
1610.000000 0.8386 0.8386 0.8386 0.8383 0.8380
1605.000000 0.8377 0.8374 0.8371 0.8366 0.8360
1600.000000 0.8354 0.8347 0.8338 0.8328 0.8314
1595.000000 0.8297 0.8273 0.8206 0.8133 0.8060
1590.000000 0.7932 0.7932 0.7932 0.7954 0.7987
1585.000000 0.8019 0.8048 0.8075 0.8104 0.8119
1580.000000 0.8133 0.8146 0.8160 0.8171 0.8180
1575.000000 0.8188 0.8196 0.8204 0.8212 0.8218
1570.000000 0.8227 0.8235 0.8243 0.8250 0.8258
1565.000000 0.8265 0.8271 0.8274 0.8275 0.8278
1560.000000 0.8281 0.8283 0.8285 0.8288 0.8289
1555.000000 0.8289 0.8289 0.8290 0.8290 0.8290
1550.000000 0.8290 0.8291 0.8291 0.8291 0.8292
1545.000000 0.8292 0.8292 0.8292 0.8293 0.8295
1540.000000 0.8296 0.8297 0.8298 0.8299 0.8300
1535.000000 0.8300 0.8300 0.8301 0.8302 0.8305
1530.000000 0.8308 0.8311 0.8316 0.8321 0.8325
1525.000000 0.8335 0.8347 0.8353 0.8356 0.8344
1520.000000 0.8331 0.8315 0.8298 0.8292 0.8285
1515.000000 0.8278 0.8278 0.8281 0.8284 0.8286
1510.000000 0.8288 0.8289 0.8290 0.8291 0.8293
1505.000000 0.8294 0.8295 0.8296 0.8296 0.8293
1500.000000 0.8289 0.8286 0.8283 0.8278 0.8270
1495.000000 0.8262 0.8254 0.8245 0.8228 0.8209
1490.000000 0.8183 0.8144 0.8104 0.8068 0.8031
1485.000000 0.7988 0.7939 0.7851 0.6441 0.6439
1480.000000 0.6465 0.6518 0.6571 0.6598 0.6524
1475.000000 0.5805 0.5085 0.4366 0.3117 0.3121
1470.000000 0.3308 0.3760 0.4214 0.4668 0.5121
1465.000000 0.5574 0.5992 0.6021 0.6039 0.6053
1460.000000 0.6058 0.6001 0.5927 0.5889 0.5905
1455.000000 0.5952 0.6044 0.6298 0.6439 0.6537
1450.000000 0.6628 0.6705 0.6748 0.6774 0.6803
1445.000000 0.6835 0.6884 0.6935 0.6986 0.7039
1440.000000 0.7095 0.7150 0.7205 0.7260 0.7315
1435.000000 0.7368 0.7414 0.7460 0.7495 0.7533
1430.000000 0.7569 0.7591 0.7605 0.7618 0.7628
1425.000000 0.7660 0.7640 0.7617 0.7585 0.7546
1420.000000 0.7503 0.7415 0.7326 0.7238 0.7150
1415.000000 0.7061 0.6974 0.6912 0.6907 0.6918
1410.000000 0.6984 0.7055 0.7125 0.7197 0.7268
1405.000000 0.7339 0.7385 0.7432 0.7468 0.7500
1400.000000 0.7530 0.7565 0.7599 0.7612 0.7618
1395.000000 0.7625 0.7626 0.7628 0.7631 0.7633
1390.000000 0.7661 0.7641 0.7646 0.7651 0.7656
1385.000000 0.7657 0.7657 0.7643 0.7624 0.7591
1380.000000 0.7558 0.7514 0.7465 0.7401 0.7328
1375.000000 0.7274 0.7258 0.7228 0.7242 0.7304
1370.000000 0.7375 0.7425 0.7464 0.7501 0.7533
1365.000000 0.7561 0.7583 0.7599 0.7608 0.7612
1360.000000 0.7642 0.7615 0.7614 0.7565 0.7478
1355.000000 0.7391 0.7304 0.7215 0.7125 0.7106
1350.000000 0.7115 0.7188 0.7332 0.7408 0.7457
1345.000000 0.7475 0.7493 0.7510 0.7528 0.7548
1340.000000 0.7568 0.7589 0.7608 0.7631 0.7653
1335.000000 0.7675 0.7698 0.7719 0.7743 0.7765
1330.000000 0.7789 0.7810 0.7830 0.7849 0.7867
1325.000000 0.7878 0.7890 0.7895 0.7899 0.7904
1320.000000 0.7908 0.7911 0.7911 0.7912 0.7908
1315.000000 0.7904 0.7896 0.7885 0.7872 0.7865
1310.000000 0.7858 0.7850 0.7851 0.7855 0.7857
1305.000000 0.7869 0.7884 0.7899 0.7908 0.7917
1300.000000 0.7925 0.7930 0.7935 0.7940 0.7945
1295.000000 0.7949 0.7954 0.7958 0.7961 0.7967
1290.000000 0.7969 0.7971 0.7971 0.7974 0.7980
1285.000000 0.7986 0.7993 0.7999 0.8011 0.8022
1280.000000 0.8036 0.8048 0.8060 0.8071 0.8084
1275.000000 0.8095 0.8107 0.8114 0.8121 0.8128
1270.000000 0.8136 0.8143 0.8149 0.8155 0.8161
1265.000000 0.8165 0.8171 0.8178 0.8184 0.8190
1260.000000 0.8197 0.8204 0.8210 0.8225 0.8241
1255.000000 0.8256 0.8268 0.8275 0.8281 0.8286
1250.000000 0.8286 0.8285 0.8285 0.8285 0.8284
1245.000000 0.8284 0.8285 0.8287 0.8288 0.8290
1240.000000 0.8294 0.8306 0.8318 0.8331 0.8344
1235.000000 0.8359 0.8374 0.8382 0.8386 0.8391
1230.000000 0.8396 0.8396 0.8396 0.8396 0.8396
1225.000000 0.8395 0.8395 0.8394 0.8392 0.8390
1220.000000 0.8388 0.8386 0.8384 0.8382 0.8378
1215.000000 0.8377 0.8374 0.8375 0.8380 0.8385
1210.000000 0.8389 0.8394 0.8400 0.8405 0.8411
1205.000000 0.8416 0.8418 0.8420 0.8421 0.8424
1200.000000 0.8425 0.8427 0.8428 0.8430 0.8432
1195.000000 0.8434 0.8434 0.8434 0.8434 0.8435
1190.000000 0.8435 0.8435 0.8435 0.8435 0.8435
1185.000000 0.8434 0.8433 0.8431 0.8430 0.8428
1180.000000 0.8428 0.8427 0.8425 0.8421 0.8417
1175.000000 0.8412 0.8406 0.8401 0.8396 0.8391
1170.000000 0.8386 0.8381 0.8375 0.8368 0.8362
1165.000000 0.8355 0.8348 0.8342 0.8333 0.8321
1160.000000 0.8311 0.8297 0.8273 0.8257 0.8247
1155.000000 0.8247 0.8264 0.8278 0.8293 0.8313
1150.000000 0.8316 0.8316 0.8316 0.8316 0.8314
1145.000000 0.8313 0.8313 0.8331 0.8349 0.8361
1140.000000 0.8371 0.8375 0.8377 0.8378 0.8380
1135.000000 0.8381 0.8382 0.8393 0.8405 0.8418
1130.000000 0.8436 0.8454 0.8459 0.8459 0.8459
1125.000000 0.8450 0.8441 0.8433 0.8428 0.8425
1120.000000 0.8421 0.8418 0.8418 0.8418 0.8423
1115.000000 0.8428 0.8445 0.8463 0.8475 0.8487
1110.000000 0.8492 0.8484 0.8499 0.8499 0.8499
1105.000000 0.8499 0.8495 0.8485 0.8475 0.8465
1100.000000 0.8457 0.8448 0.8439 0.8428 0.8416
1095.000000 0.8403 0.8388 0.8374 0.8364 0.8359
1090.000000 0.8361 0.8365 0.8368 0.8378 0.8385
1085.000000 0.8385 0.8385 0.8378 0.8364 0.8337
1080.000000 0.8274 0.8207 0.8140 0.8084 0.8075
1075.000000 0.8078 0.8068 0.8094 0.8124 0.8150
1070.000000 0.8171 0.8195 0.8217 0.8239 0.8262
1065.000000 0.8265 0.8268 0.8271 0.8274 0.8275
1060.000000 0.8278 0.8278 0.8281 0.8283 0.8285
1055.000000 0.8285 0.8285 0.8284 0.8282 0.8281
1050.000000 0.8278 0.8274 0.8256 0.8230 0.8060
1045.000000 0.7928 0.7861 0.7818 0.7780 0.7765
1040.000000 0.7787 0.7757 0.7765 0.7818 0.7861
1035.000000 0.7905 0.7947 0.7989 0.8031 0.8065
1030.000000 0.8096 0.8125 0.8143 0.8161 0.8176
1025.000000 0.8186 0.8194 0.8194 0.8195 0.8185
1020.000000 0.8172 0.8161 0.8149 0.8141 0.8153
1015.000000 0.8165 0.8178 0.8203 0.8228 0.8251
1010.000000 0.8255 0.8259 0.8263 0.8264 0.8260
1005.000000 0.8256 0.8252 0.8249 0.8248 0.8248
1000.000000 0.8252 0.8256 0.8260 0.8264 0.8266
995.000000 0.8266 0.8265 0.8265 0.8265 0.8266
990.000000 0.8270 0.8273 0.8275 0.8281 0.8290
985.000000 0.8299 0.8317 0.8339 0.8350 0.8360
980.000000 0.8360 0.8360 0.8358 0.8357 0.8355
975.000000 0.8353 0.8348 0.8343 0.8338 0.8333
970.000000 0.8334 0.8334 0.8335 0.8335 0.8339
965.000000 0.8347 0.8356 0.8364 0.8371 0.8380
960.000000 0.8388 0.8396 0.8404 0.8407 0.8407
955.000000 0.8403 0.8398 0.8392 0.8388 0.8385
950.000000 0.8382 0.8382 0.8382 0.8382 0.8383
945.000000 0.8383 0.8383 0.8383 0.8384 0.8386
940.000000 0.8388 0.8390 0.8392 0.8394 0.8396
935.000000 0.8398 0.8400 0.8401 0.8403 0.8404
930.000000 0.8405 0.8407 0.8408 0.8410 0.8411
925.000000 0.8412 0.8414 0.8415 0.8416 0.8418
920.000000 0.8418 0.8420 0.8421 0.8421 0.8423
915.000000 0.8424 0.8425 0.8425 0.8425 0.8424
910.000000 0.8423 0.8421 0.8421 0.8420 0.8418
905.000000 0.8416 0.8414 0.8412 0.8402 0.8392
900.000000 0.8382 0.8370 0.8359 0.8347 0.8333
895.000000 0.8315 0.8296 0.8283 0.8275 0.8268
890.000000 0.8265 0.8275 0.8291 0.8309 0.8328
885.000000 0.8348 0.8375 0.8394 0.8403 0.8405
880.000000 0.8405 0.8405 0.8398 0.8378 0.8333
875.000000 0.8290 0.8246 0.8187 0.8157 0.8151
870.000000 0.8149 0.8149 0.8168 0.8195 0.8230
865.000000 0.8265 0.8301 0.8344 0.8386 0.8415
860.000000 0.8415 0.8415 0.8414 0.8411 0.8409
855.000000 0.8405 0.8394 0.8358 0.8331 0.8311
850.000000 0.8300 0.8299 0.8302 0.8316 0.8336
845.000000 0.8362 0.8387 0.8407 0.8427 0.8443
840.000000 0.8450 0.8456 0.8463 0.8468 0.8468
835.000000 0.8468 0.8470 0.8471 0.8471 0.8471
830.000000 0.8473 0.8473 0.8473 0.8471 0.8471
825.000000 0.8471 0.8471 0.8471 0.8471 0.8473
820.000000 0.8475 0.8477 0.8478 0.8480 0.8482
815.000000 0.8484 0.8488 0.8493 0.8497 0.8501
810.000000 0.8506 0.8541 0.8514 0.8518 0.8523
805.000000 0.8528 0.8530 0.8531 0.8518 0.8505
800.000000 0.8486 0.8455 0.8389 0.8316 0.8126
795.000000 0.7930 0.7801 0.7790 0.7822 0.7918
790.000000 0.8014 0.8110 0.8206 0.8302 0.8334
785.000000 0.8347 0.8367 0.8367 0.8366 0.8284
780.000000 0.8095 0.7907 0.7718 0.7574 0.7574
775.000000 0.7615 0.7761 0.7907 0.8053 0.8194
770.000000 0.8235 0.8275 0.8300 0.8323 0.8346
765.000000 0.8368 0.8391 0.8409 0.8420 0.8425
760.000000 0.8431 0.8436 0.8461 0.8430 0.8417
755.000000 0.8405 0.8375 0.8340 0.8305 0.8237
750.000000 0.8164 0.8090 0.8015 0.7971 0.7958
745.000000 0.7978 0.8042 0.8105 0.8153 0.8155
740.000000 0.8156 0.8156 0.8156 0.8183 0.8151
735.000000 0.8144 0.8133 0.8117 0.8075 0.8024
730.000000 0.7968 0.7907 0.7844 0.7778 0.7541
725.000000 0.7021 0.6501 0.5982 0.5398 0.5383
720.000000 0.5385 0.5690 0.6209 0.6728 0.7249
715.000000 0.7701 0.7828 0.7983 0.8106 0.8165
710.000000 0.8225 0.8278 0.8312 0.8345 0.8378
705.000000 0.8403 0.8428 0.8454 0.8478 0.8502
700.000000 0.8518 0.8535 0.8552 0.8562 0.8568
695.000000 0.8575 0.8578 0.8580 0.8582 0.8582
690.000000 0.8582 0.8582 0.8582 0.8583 0.8588
685.000000 0.8594 0.8599 0.8605 0.8615 0.8630
680.000000 0.8645 0.8660 0.8675 0.8695 0.8714
675.000000 0.8728 0.8744 0.8759 0.8774 0.8791
670.000000 0.8791 0.8791 0.8790 0.8787 0.8784
665.000000 0.8780 0.8775 0.8768 0.8764 0.8760
660.000000 0.8756 0.8755 0.8754 0.8755 0.8758
655.000000 0.8768 0.8783 0.8797 0.8812 0.8827
650.000000 0.8843 0.8845 0.8847 0.8843 0.8839
645.000000 0.8833 0.8824 0.8814 0.8807 0.8801
640.000000 0.8796 0.8790 0.8785 0.8778 0.8771
635.000000 0.8765 0.8759 0.8753 0.8751 0.8748
630.000000 0.8749 0.8749 0.8755 0.8762 0.8768
625.000000 0.8775 0.8783 0.8790 0.8796 0.8801
620.000000 0.8806 0.8812 0.8816 0.8815 0.8815
615.000000 0.8813 0.8808 0.8803 0.8798 0.8793
610.000000 0.8786 0.8778 0.8768 0.8762 0.8764
605.000000 0.8766 0.8767 0.8768 0.8771 0.8771
600.000000 0.8774 0.8775 0.8777 0.8778 0.8780
595.000000 0.8782 0.8784 0.8786 0.8788 0.8790
590.000000 0.8792 0.8795 0.8797 0.8799 0.8801
585.000000 0.8803 0.8806 0.8808 0.8811 0.8813
580.000000 0.8816 0.8816 0.8816 0.8816 0.8816
575.000000 0.8815 0.8815 0.8815 0.8815 0.8814
570.000000 0.8812 0.8805 0.8786 0.8786 0.8786
565.000000 0.8781 0.8775 0.8768 0.8764 0.8759
560.000000 0.8754 0.8754 0.8754 0.8754 0.8755
555.000000 0.8755 0.8758 0.8764 0.8768 0.8775
550.000000 0.8781 0.8783 0.8785 0.8787 0.8789
545.000000 0.8790 0.8792 0.8794 0.8796 0.8798
540.000000 0.8800 0.8802 0.8804 0.8806 0.8807
535.000000 0.8809 0.8811 0.8811 0.8811 0.8811
530.000000 0.8811 0.8810 0.8810 0.8810 0.8810
525.000000 0.8809 0.8809 0.8809 0.8809 0.8810
520.000000 0.8810 0.8811 0.8811 0.8812 0.8813
515.000000 0.8813 0.8814 0.8814 0.8815 0.8815
510.000000 0.8816 0.8817 0.8820 0.8823 0.8827
505.000000 0.8830 0.8833 0.8837 0.8840 0.8844
500.000000 0.8848 0.8853 0.8858 0.8862 0.8867
495.000000 0.8871 0.8875 0.8881 0.8886 0.8890
490.000000 0.8895 0.8899 0.8902 0.8905 0.8908
485.000000 0.8911 0.8915 0.8918 0.8921 0.8924
480.000000 0.8927 0.8930 0.8933 0.8934 0.8936
475.000000 0.8937 0.8938 0.8940 0.8941 0.8941
470.000000 0.8941 0.8939 0.8936
##END=
