##TITLE=LEVARTERENOL BITARTRATE
##JCAMP-DX=4.24
$$ By DXEDIT 1.05 (RS McDonald)
##DATA TYPE=INFRARED SPECTRUM
##CLASS=COBLENTZ III
##OWNER=COBLENTZ SOC.
Collection (C) 2018 copyright by the U.S. Secretary of Commerce
on behalf of the United States of America. All rights reserved.
##DATE=1961/06/02
##NAMES=1-BENZYLALCOHOL, Alpha-(AMINOMETHYL)-3,4-DIHYDROXY-,HYDROGEN ACETATE(SALT)HYDRATE
##MOLFORM=C12 H17 N O9  * H2 O
##SOURCE REFERENCE=COBLENTZ NO. 05047
##$NIST ID=B6005047
##$NIST SOURCE=COBLENTZ
##$NIST IMAGE=cob5047
##SPECTROMETER/DATA SYSTEM=PERKIN-ELMER 21 (GRATING)
##INSTRUMENT PARAMETERS=FILTER AT ABOUT 10 MICRONS
##STATE=SOLID (1.0 mg / 200 mg KBr DISC)
##PATH LENGTH=
$$ THE SPLIT IN THE SPECTRAL FEATURE AT 1000 CM^-^1 IS AN ARTIFACT CAUSED BY FILTER CHANGE
##SAMPLING PROCEDURE=TRANSMISSION
##RESOLUTION=2
##DATA PROCESSING=DIGITIZED BY COBLENTZ SOCIETY (BATCH I) FROM HARD COPY
##XUNITS=1/CM
##YUNITS=TRANSMITTANCE
##XLABEL=Wavenumbers (cm-1)
##YLABEL=Transmittance
##XFACTOR=1
##YFACTOR=1
##DELTAX=1
##FIRSTX=4000
##LASTX=652
##FIRSTY=0.7688
##MAXX=4000
##MINX=652
##MAXY=0.7684
##MINY=0.0646
##NPOINTS=3349
##XYDATA=(X++(Y..Y))
4000.000000 0.7688 0.7687 0.7686 0.7685 0.7684
3995.000000 0.7684 0.7683 0.7682 0.7681 0.7680
3990.000000 0.7680 0.7678 0.7678 0.7676 0.7676
3985.000000 0.7675 0.7675 0.7675 0.7674 0.7674
3980.000000 0.7672 0.7671 0.7671 0.7669 0.7669
3975.000000 0.7668 0.7668 0.7667 0.7665 0.7665
3970.000000 0.7665 0.7664 0.7662 0.7662 0.7661
3965.000000 0.7661 0.7660 0.7658 0.7658 0.7658
3960.000000 0.7657 0.7656 0.7655 0.7655 0.7654
3955.000000 0.7653 0.7651 0.7651 0.7651 0.7650
3950.000000 0.7649 0.7648 0.7647 0.7647 0.7646
3945.000000 0.7645 0.7644 0.7643 0.7643 0.7642
3940.000000 0.7641 0.7640 0.7639 0.7638 0.7638
3935.000000 0.7637 0.7637 0.7636 0.7635 0.7635
3930.000000 0.7634 0.7633 0.7632 0.7631 0.7631
3925.000000 0.7630 0.7628 0.7628 0.7626 0.7626
3920.000000 0.7625 0.7625 0.7624 0.7622 0.7621
3915.000000 0.7621 0.7619 0.7618 0.7618 0.7617
3910.000000 0.7617 0.7615 0.7615 0.7614 0.7612
3905.000000 0.7611 0.7611 0.7610 0.7608 0.7608
3900.000000 0.7607 0.7607 0.7606 0.7605 0.7604
3895.000000 0.7603 0.7601 0.7601 0.7601 0.7600
3890.000000 0.7599 0.7598 0.7597 0.7596 0.7595
3885.000000 0.7594 0.7594 0.7593 0.7592 0.7591
3880.000000 0.7590 0.7589 0.7588 0.7587 0.7587
3875.000000 0.7586 0.7585 0.7584 0.7583 0.7582
3870.000000 0.7581 0.7580 0.7578 0.7578 0.7576
3865.000000 0.7575 0.7575 0.7575 0.7574 0.7572
3860.000000 0.7571 0.7571 0.7569 0.7568 0.7568
3855.000000 0.7567 0.7565 0.7565 0.7564 0.7564
3850.000000 0.7562 0.7561 0.7561 0.7560 0.7558
3845.000000 0.7558 0.7557 0.7556 0.7555 0.7553
3840.000000 0.7551 0.7551 0.7550 0.7549 0.7547
3835.000000 0.7546 0.7545 0.7544 0.7543 0.7541
3830.000000 0.7540 0.7539 0.7538 0.7537 0.7536
3825.000000 0.7534 0.7533 0.7532 0.7531 0.7530
3820.000000 0.7528 0.7526 0.7525 0.7525 0.7524
3815.000000 0.7521 0.7521 0.7519 0.7518 0.7518
3810.000000 0.7515 0.7515 0.7514 0.7512 0.7511
3805.000000 0.7510 0.7508 0.7508 0.7507 0.7505
3800.000000 0.7504 0.7503 0.7501 0.7501 0.7500
3795.000000 0.7499 0.7498 0.7497 0.7496 0.7494
3790.000000 0.7493 0.7492 0.7491 0.7489 0.7488
3785.000000 0.7487 0.7486 0.7485 0.7483 0.7482
3780.000000 0.7481 0.7480 0.7478 0.7476 0.7475
3775.000000 0.7475 0.7474 0.7471 0.7471 0.7469
3770.000000 0.7468 0.7465 0.7465 0.7462 0.7461
3765.000000 0.7458 0.7458 0.7456 0.7455 0.7453
3760.000000 0.7451 0.7450 0.7448 0.7446 0.7444
3755.000000 0.7443 0.7441 0.7439 0.7437 0.7436
3750.000000 0.7434 0.7432 0.7430 0.7428 0.7426
3745.000000 0.7425 0.7424 0.7421 0.7421 0.7418
3740.000000 0.7417 0.7415 0.7412 0.7411 0.7410
3735.000000 0.7408 0.7407 0.7405 0.7404 0.7401
3730.000000 0.7400 0.7398 0.7396 0.7395 0.7393
3725.000000 0.7391 0.7389 0.7387 0.7385 0.7383
3720.000000 0.7381 0.7378 0.7376 0.7375 0.7374
3715.000000 0.7371 0.7369 0.7368 0.7365 0.7364
3710.000000 0.7361 0.7360 0.7358 0.7356 0.7354
3705.000000 0.7351 0.7350 0.7348 0.7346 0.7344
3700.000000 0.7342 0.7340 0.7338 0.7336 0.7334
3695.000000 0.7333 0.7331 0.7328 0.7326 0.7325
3690.000000 0.7322 0.7321 0.7318 0.7317 0.7315
3685.000000 0.7312 0.7311 0.7308 0.7307 0.7304
3680.000000 0.7301 0.7299 0.7296 0.7294 0.7291
3675.000000 0.7287 0.7283 0.7280 0.7275 0.7271
3670.000000 0.7268 0.7264 0.7261 0.7257 0.7253
3665.000000 0.7249 0.7245 0.7241 0.7238 0.7234
3660.000000 0.7230 0.7225 0.7221 0.7218 0.7215
3655.000000 0.7211 0.7207 0.7203 0.7199 0.7196
3650.000000 0.7192 0.7188 0.7184 0.7180 0.7175
3645.000000 0.7171 0.7168 0.7164 0.7160 0.7156
3640.000000 0.7151 0.7147 0.7141 0.7135 0.7128
3635.000000 0.7122 0.7117 0.7111 0.7105 0.7100
3630.000000 0.7094 0.7088 0.7082 0.7075 0.7069
3625.000000 0.7064 0.7057 0.7051 0.7045 0.7040
3620.000000 0.7034 0.7028 0.7021 0.7015 0.7010
3615.000000 0.7004 0.6998 0.6992 0.6986 0.6980
3610.000000 0.6974 0.6968 0.6961 0.6955 0.6949
3605.000000 0.6943 0.6936 0.6930 0.6921 0.6908
3600.000000 0.6895 0.6882 0.6868 0.6856 0.6843
3595.000000 0.6830 0.6815 0.6803 0.6790 0.6776
3590.000000 0.6762 0.6750 0.6737 0.6722 0.6706
3585.000000 0.6687 0.6668 0.6649 0.6631 0.6611
3580.000000 0.6592 0.6572 0.6553 0.6534 0.6515
3575.000000 0.6497 0.6478 0.6461 0.6444 0.6426
3570.000000 0.6411 0.6397 0.6382 0.6367 0.6353
3565.000000 0.6338 0.6323 0.6308 0.6293 0.6278
3560.000000 0.6262 0.6248 0.6233 0.6218 0.6197
3555.000000 0.6150 0.6104 0.6058 0.6012 0.5967
3550.000000 0.5936 0.5904 0.5873 0.5842 0.5810
3545.000000 0.5785 0.5759 0.5733 0.5707 0.5681
3540.000000 0.5650 0.5619 0.5588 0.5557 0.5525
3535.000000 0.5468 0.5410 0.5354 0.5297 0.5242
3530.000000 0.5208 0.5174 0.5140 0.5105 0.5071
3525.000000 0.5039 0.5006 0.4974 0.4941 0.4892
3520.000000 0.4734 0.4576 0.4418 0.4260 0.4126
3515.000000 0.4106 0.4086 0.4066 0.4046 0.4026
3510.000000 0.4005 0.3984 0.3964 0.3944 0.3925
3505.000000 0.3907 0.3889 0.3871 0.3853 0.3837
3500.000000 0.3824 0.3810 0.3797 0.3784 0.3771
3495.000000 0.3757 0.3744 0.3730 0.3718 0.3702
3490.000000 0.3686 0.3668 0.3652 0.3636 0.3616
3485.000000 0.3596 0.3575 0.3555 0.3534 0.3514
3480.000000 0.3493 0.3473 0.3452 0.3430 0.3405
3475.000000 0.3379 0.3352 0.3326 0.3299 0.3266
3470.000000 0.3236 0.3205 0.3174 0.3135 0.3089
3465.000000 0.3042 0.2994 0.2947 0.2902 0.2859
3460.000000 0.2816 0.2773 0.2730 0.2680 0.2628
3455.000000 0.2577 0.2525 0.2474 0.2425 0.2376
3450.000000 0.2327 0.2279 0.2241 0.2230 0.2220
3445.000000 0.2209 0.2198 0.2185 0.2172 0.2158
3440.000000 0.2144 0.2130 0.2115 0.2098 0.2082
3435.000000 0.2066 0.2050 0.2034 0.2021 0.2006
3430.000000 0.1992 0.1978 0.1965 0.1953 0.1940
3425.000000 0.1928 0.1915 0.1903 0.1890 0.1877
3420.000000 0.1865 0.1854 0.1845 0.1835 0.1826
3415.000000 0.1817 0.1809 0.1802 0.1794 0.1785
3410.000000 0.1777 0.1768 0.1758 0.1749 0.1740
3405.000000 0.1728 0.1716 0.1704 0.1692 0.1679
3400.000000 0.1667 0.1654 0.1642 0.1629 0.1619
3395.000000 0.1610 0.1601 0.1592 0.1583 0.1574
3390.000000 0.1565 0.1557 0.1548 0.1539 0.1530
3385.000000 0.1521 0.1513 0.1504 0.1495 0.1486
3380.000000 0.1477 0.1468 0.1459 0.1450 0.1441
3375.000000 0.1432 0.1423 0.1414 0.1405 0.1396
3370.000000 0.1388 0.1379 0.1370 0.1361 0.1352
3365.000000 0.1342 0.1334 0.1325 0.1316 0.1307
3360.000000 0.1298 0.1289 0.1280 0.1271 0.1262
3355.000000 0.1253 0.1244 0.1235 0.1226 0.1217
3350.000000 0.1209 0.1201 0.1192 0.1186 0.1180
3345.000000 0.1175 0.1170 0.1164 0.1159 0.1154
3340.000000 0.1148 0.1142 0.1138 0.1131 0.1125
3335.000000 0.1118 0.1112 0.1105 0.1096 0.1090
3330.000000 0.1082 0.1074 0.1067 0.1059 0.1051
3325.000000 0.1044 0.1036 0.1028 0.1020 0.1013
3320.000000 0.1005 0.0996 0.0988 0.0979 0.0971
3315.000000 0.0962 0.0953 0.0945 0.0936 0.0926
3310.000000 0.0913 0.0901 0.0888 0.0875 0.0863
3305.000000 0.0852 0.0841 0.0829 0.0818 0.0808
3300.000000 0.0797 0.0786 0.0777 0.0770 0.0764
3295.000000 0.0758 0.0752 0.0746 0.0740 0.0734
3290.000000 0.0728 0.0722 0.0716 0.0710 0.0704
3285.000000 0.0698 0.0693 0.0688 0.0682 0.0677
3280.000000 0.0673 0.0670 0.0666 0.0662 0.0659
3275.000000 0.0656 0.0653 0.0666 0.0647 0.0647
3270.000000 0.0646 0.0646 0.0646 0.0646 0.0646
3265.000000 0.0647 0.0647 0.0648 0.0650 0.0651
3260.000000 0.0653 0.0654 0.0656 0.0657 0.0658
3255.000000 0.0660 0.0661 0.0663 0.0665 0.0666
3250.000000 0.0668 0.0669 0.0671 0.0672 0.0674
3245.000000 0.0677 0.0679 0.0681 0.0684 0.0688
3240.000000 0.0691 0.0694 0.0698 0.0701 0.0704
3235.000000 0.0707 0.0710 0.0715 0.0720 0.0725
3230.000000 0.0730 0.0736 0.0742 0.0748 0.0753
3225.000000 0.0759 0.0765 0.0771 0.0777 0.0783
3220.000000 0.0789 0.0795 0.0801 0.0807 0.0813
3215.000000 0.0819 0.0825 0.0831 0.0839 0.0846
3210.000000 0.0855 0.0862 0.0870 0.0878 0.0887
3205.000000 0.0895 0.0903 0.0911 0.0919 0.0926
3200.000000 0.0935 0.0942 0.0950 0.0958 0.0966
3195.000000 0.0974 0.0982 0.0989 0.0996 0.1002
3190.000000 0.1008 0.1014 0.1020 0.1026 0.1032
3185.000000 0.1038 0.1044 0.1050 0.1056 0.1061
3180.000000 0.1067 0.1073 0.1079 0.1085 0.1091
3175.000000 0.1096 0.1103 0.1109 0.1115 0.1121
3170.000000 0.1127 0.1133 0.1139 0.1145 0.1151
3165.000000 0.1157 0.1163 0.1168 0.1174 0.1180
3160.000000 0.1186 0.1192 0.1198 0.1204 0.1210
3155.000000 0.1216 0.1223 0.1229 0.1235 0.1242
3150.000000 0.1249 0.1256 0.1263 0.1270 0.1277
3145.000000 0.1284 0.1291 0.1298 0.1305 0.1311
3140.000000 0.1318 0.1325 0.1332 0.1339 0.1346
3135.000000 0.1353 0.1359 0.1366 0.1373 0.1380
3130.000000 0.1387 0.1394 0.1401 0.1408 0.1415
3125.000000 0.1422 0.1428 0.1435 0.1441 0.1448
3120.000000 0.1454 0.1460 0.1466 0.1472 0.1478
3115.000000 0.1484 0.1490 0.1495 0.1501 0.1507
3110.000000 0.1513 0.1519 0.1525 0.1531 0.1537
3105.000000 0.1542 0.1549 0.1556 0.1562 0.1568
3100.000000 0.1574 0.1580 0.1586 0.1592 0.1598
3095.000000 0.1604 0.1610 0.1616 0.1622 0.1628
3090.000000 0.1634 0.1640 0.1645 0.1652 0.1658
3085.000000 0.1664 0.1671 0.1677 0.1683 0.1687
3080.000000 0.1693 0.1698 0.1702 0.1707 0.1711
3075.000000 0.1716 0.1720 0.1725 0.1729 0.1734
3070.000000 0.1737 0.1743 0.1746 0.1752 0.1756
3065.000000 0.1761 0.1765 0.1770 0.1775 0.1779
3060.000000 0.1784 0.1789 0.1793 0.1798 0.1803
3055.000000 0.1807 0.1812 0.1816 0.1821 0.1825
3050.000000 0.1829 0.1834 0.1839 0.1844 0.1850
3045.000000 0.1854 0.1860 0.1866 0.1871 0.1876
3040.000000 0.1882 0.1886 0.1892 0.1896 0.1903
3035.000000 0.1908 0.1913 0.1919 0.1924 0.1929
3030.000000 0.1934 0.1941 0.1946 0.1952 0.1958
3025.000000 0.1964 0.1970 0.1975 0.1981 0.1986
3020.000000 0.1993 0.1999 0.2004 0.2011 0.2017
3015.000000 0.2022 0.2028 0.2034 0.2040 0.2048
3010.000000 0.2056 0.2064 0.2073 0.2084 0.2095
3005.000000 0.2105 0.2116 0.2127 0.2138 0.2149
3000.000000 0.2160 0.2170 0.2181 0.2192 0.2203
2995.000000 0.2214 0.2225 0.2235 0.2246 0.2257
2990.000000 0.2268 0.2279 0.2289 0.2300 0.2311
2985.000000 0.2322 0.2333 0.2344 0.2355 0.2366
2980.000000 0.2377 0.2385 0.2394 0.2403 0.2411
2975.000000 0.2419 0.2427 0.2435 0.2444 0.2452
2970.000000 0.2460 0.2468 0.2477 0.2484 0.2493
2965.000000 0.2500 0.2506 0.2512 0.2518 0.2524
2960.000000 0.2529 0.2534 0.2541 0.2547 0.2552
2955.000000 0.2558 0.2564 0.2569 0.2575 0.2581
2950.000000 0.2587 0.2592 0.2598 0.2605 0.2611
2945.000000 0.2618 0.2625 0.2632 0.2640 0.2647
2940.000000 0.2654 0.2662 0.2669 0.2677 0.2684
2935.000000 0.2692 0.2700 0.2708 0.2716 0.2724
2930.000000 0.2734 0.2744 0.2754 0.2763 0.2773
2925.000000 0.2783 0.2792 0.2802 0.2812 0.2822
2920.000000 0.2832 0.2842 0.2852 0.2862 0.2871
2915.000000 0.2880 0.2889 0.2898 0.2907 0.2916
2910.000000 0.2925 0.2934 0.2943 0.2952 0.2961
2905.000000 0.2970 0.2979 0.2988 0.2997 0.3006
2900.000000 0.3016 0.3024 0.3033 0.3041 0.3049
2895.000000 0.3056 0.3064 0.3072 0.3079 0.3087
2890.000000 0.3095 0.3102 0.3110 0.3117 0.3125
2885.000000 0.3132 0.3140 0.3147 0.3155 0.3163
2880.000000 0.3171 0.3178 0.3185 0.3194 0.3200
2875.000000 0.3209 0.3216 0.3224 0.3232 0.3241
2870.000000 0.3250 0.3259 0.3270 0.3279 0.3289
2865.000000 0.3299 0.3309 0.3318 0.3329 0.3339
2860.000000 0.3349 0.3358 0.3368 0.3378 0.3388
2855.000000 0.3398 0.3407 0.3418 0.3430 0.3443
2850.000000 0.3456 0.3470 0.3482 0.3497 0.3509
2845.000000 0.3523 0.3536 0.3550 0.3562 0.3576
2840.000000 0.3590 0.3604 0.3616 0.3629 0.3640
2835.000000 0.3652 0.3662 0.3672 0.3680 0.3691
2830.000000 0.3700 0.3709 0.3720 0.3730 0.3740
2825.000000 0.3750 0.3759 0.3770 0.3779 0.3789
2820.000000 0.3799 0.3809 0.3818 0.3829 0.3839
2815.000000 0.3849 0.3858 0.3868 0.3878 0.3888
2810.000000 0.3898 0.3907 0.3916 0.3927 0.3937
2805.000000 0.3950 0.3964 0.3979 0.3993 0.4007
2800.000000 0.4021 0.4034 0.4050 0.4064 0.4079
2795.000000 0.4093 0.4107 0.4122 0.4136 0.4150
2790.000000 0.4164 0.4179 0.4193 0.4207 0.4220
2785.000000 0.4233 0.4246 0.4257 0.4269 0.4280
2780.000000 0.4291 0.4303 0.4314 0.4325 0.4337
2775.000000 0.4348 0.4359 0.4371 0.4382 0.4393
2770.000000 0.4404 0.4416 0.4427 0.4438 0.4450
2765.000000 0.4460 0.4473 0.4484 0.4495 0.4506
2760.000000 0.4518 0.4529 0.4540 0.4551 0.4562
2755.000000 0.4574 0.4585 0.4596 0.4608 0.4619
2750.000000 0.4631 0.4642 0.4653 0.4664 0.4672
2745.000000 0.4681 0.4690 0.4698 0.4707 0.4715
2740.000000 0.4724 0.4733 0.4741 0.4750 0.4759
2735.000000 0.4767 0.4776 0.4785 0.4793 0.4799
2730.000000 0.4806 0.4812 0.4818 0.4823 0.4829
2725.000000 0.4834 0.4840 0.4845 0.4850 0.4854
2720.000000 0.4859 0.4862 0.4865 0.4868 0.4871
2715.000000 0.4874 0.4877 0.4880 0.4883 0.4886
2710.000000 0.4889 0.4892 0.4895 0.4898 0.4901
2705.000000 0.4904 0.4908 0.4910 0.4914 0.4917
2700.000000 0.4920 0.4923 0.4925 0.4928 0.4930
2695.000000 0.4932 0.4933 0.4935 0.4938 0.4940
2690.000000 0.4942 0.4944 0.4946 0.4948 0.4950
2685.000000 0.4952 0.4954 0.4956 0.4958 0.4960
2680.000000 0.4962 0.4965 0.4967 0.4969 0.4971
2675.000000 0.4974 0.4977 0.4980 0.4983 0.4986
2670.000000 0.4989 0.4993 0.4996 0.4999 0.5003
2665.000000 0.5006 0.5009 0.5012 0.5016 0.5021
2660.000000 0.5026 0.5031 0.5038 0.5045 0.5052
2655.000000 0.5058 0.5065 0.5072 0.5079 0.5086
2650.000000 0.5093 0.5100 0.5107 0.5114 0.5121
2645.000000 0.5128 0.5135 0.5142 0.5148 0.5155
2640.000000 0.5162 0.5168 0.5175 0.5181 0.5188
2635.000000 0.5195 0.5202 0.5208 0.5215 0.5221
2630.000000 0.5228 0.5234 0.5241 0.5248 0.5255
2625.000000 0.5260 0.5268 0.5274 0.5280 0.5285
2620.000000 0.5290 0.5295 0.5300 0.5306 0.5310
2615.000000 0.5316 0.5321 0.5326 0.5331 0.5336
2610.000000 0.5341 0.5345 0.5350 0.5354 0.5357
2605.000000 0.5359 0.5362 0.5365 0.5368 0.5371
2600.000000 0.5373 0.5376 0.5379 0.5382 0.5385
2595.000000 0.5387 0.5390 0.5392 0.5394 0.5396
2590.000000 0.5398 0.5399 0.5400 0.5402 0.5403
2585.000000 0.5405 0.5406 0.5407 0.5408 0.5410
2580.000000 0.5410 0.5412 0.5414 0.5416 0.5417
2575.000000 0.5419 0.5420 0.5421 0.5423 0.5423
2570.000000 0.5423 0.5424 0.5424 0.5424 0.5425
2565.000000 0.5425 0.5426 0.5426 0.5426 0.5427
2560.000000 0.5427 0.5427 0.5428 0.5428 0.5429
2555.000000 0.5429 0.5429 0.5429 0.5429 0.5430
2550.000000 0.5430 0.5430 0.5430 0.5430 0.5430
2545.000000 0.5430 0.5430 0.5430 0.5430 0.5430
2540.000000 0.5430 0.5430 0.5431 0.5432 0.5434
2535.000000 0.5435 0.5437 0.5438 0.5440 0.5442
2530.000000 0.5443 0.5445 0.5446 0.5448 0.5449
2525.000000 0.5451 0.5452 0.5454 0.5456 0.5457
2520.000000 0.5459 0.5460 0.5462 0.5464 0.5466
2515.000000 0.5468 0.5469 0.5471 0.5472 0.5474
2510.000000 0.5476 0.5477 0.5479 0.5480 0.5482
2505.000000 0.5484 0.5485 0.5487 0.5488 0.5490
2500.000000 0.5492 0.5493 0.5495 0.5497 0.5499
2495.000000 0.5501 0.5502 0.5504 0.5505 0.5507
2490.000000 0.5509 0.5510 0.5512 0.5512 0.5514
2485.000000 0.5516 0.5517 0.5518 0.5520 0.5521
2480.000000 0.5523 0.5524 0.5525 0.5526 0.5528
2475.000000 0.5529 0.5530 0.5531 0.5533 0.5534
2470.000000 0.5536 0.5537 0.5538 0.5540 0.5541
2465.000000 0.5543 0.5545 0.5548 0.5550 0.5553
2460.000000 0.5555 0.5558 0.5560 0.5562 0.5566
2455.000000 0.5568 0.5571 0.5573 0.5576 0.5578
2450.000000 0.5581 0.5584 0.5589 0.5594 0.5599
2445.000000 0.5605 0.5610 0.5616 0.5621 0.5627
2440.000000 0.5632 0.5638 0.5644 0.5649 0.5656
2435.000000 0.5662 0.5670 0.5678 0.5686 0.5694
2430.000000 0.5702 0.5709 0.5715 0.5720 0.5722
2425.000000 0.5724 0.5726 0.5728 0.5731 0.5733
2420.000000 0.5736 0.5737 0.5739 0.5741 0.5743
2415.000000 0.5744 0.5746 0.5748 0.5749 0.5751
2410.000000 0.5753 0.5755 0.5757 0.5759 0.5760
2405.000000 0.5764 0.5767 0.5770 0.5774 0.5777
2400.000000 0.5780 0.5783 0.5787 0.5790 0.5793
2395.000000 0.5796 0.5799 0.5802 0.5806 0.5809
2390.000000 0.5812 0.5822 0.5831 0.5841 0.5851
2385.000000 0.5860 0.5868 0.5876 0.5885 0.5893
2380.000000 0.5901 0.5910 0.5919 0.5927 0.5938
2375.000000 0.5950 0.5960 0.5972 0.5984 0.5989
2370.000000 0.5995 0.6000 0.6006 0.6012 0.6017
2365.000000 0.6022 0.6028 0.6033 0.6039 0.6045
2360.000000 0.6050 0.6056 0.6059 0.6060 0.6062
2355.000000 0.6065 0.6068 0.6070 0.6072 0.6074
2350.000000 0.6076 0.6078 0.6080 0.6082 0.6085
2345.000000 0.6087 0.6089 0.6091 0.6092 0.6094
2340.000000 0.6096 0.6098 0.6100 0.6101 0.6103
2335.000000 0.6105 0.6107 0.6109 0.6112 0.6115
2330.000000 0.6118 0.6121 0.6125 0.6128 0.6131
2325.000000 0.6134 0.6138 0.6141 0.6144 0.6147
2320.000000 0.6151 0.6154 0.6158 0.6162 0.6168
2315.000000 0.6174 0.6180 0.6186 0.6191 0.6197
2310.000000 0.6203 0.6208 0.6214 0.6219 0.6225
2305.000000 0.6231 0.6238 0.6250 0.6262 0.6274
2300.000000 0.6286 0.6297 0.6306 0.6315 0.6324
2295.000000 0.6332 0.6341 0.6349 0.6358 0.6366
2290.000000 0.6374 0.6383 0.6391 0.6400 0.6408
2285.000000 0.6417 0.6425 0.6434 0.6442 0.6450
2280.000000 0.6456 0.6462 0.6468 0.6475 0.6482
2275.000000 0.6488 0.6495 0.6501 0.6508 0.6514
2270.000000 0.6521 0.6528 0.6534 0.6540 0.6545
2265.000000 0.6549 0.6551 0.6556 0.6560 0.6565
2260.000000 0.6568 0.6572 0.6576 0.6581 0.6585
2255.000000 0.6589 0.6593 0.6597 0.6600 0.6604
2250.000000 0.6608 0.6611 0.6615 0.6621 0.6625
2245.000000 0.6628 0.6633 0.6637 0.6640 0.6642
2240.000000 0.6645 0.6648 0.6651 0.6653 0.6656
2235.000000 0.6658 0.6661 0.6664 0.6667 0.6668
2230.000000 0.6671 0.6675 0.6678 0.6680 0.6683
2225.000000 0.6684 0.6686 0.6687 0.6689 0.6690
2220.000000 0.6692 0.6693 0.6695 0.6696 0.6698
2215.000000 0.6700 0.6701 0.6701 0.6703 0.6705
2210.000000 0.6706 0.6708 0.6708 0.6711 0.6711
2205.000000 0.6714 0.6717 0.6719 0.6724 0.6728
2200.000000 0.6733 0.6738 0.6742 0.6746 0.6750
2195.000000 0.6755 0.6758 0.6760 0.6762 0.6765
2190.000000 0.6768 0.6771 0.6774 0.6776 0.6778
2185.000000 0.6781 0.6783 0.6784 0.6786 0.6788
2180.000000 0.6790 0.6791 0.6793 0.6795 0.6796
2175.000000 0.6798 0.6799 0.6801 0.6803 0.6804
2170.000000 0.6805 0.6805 0.6806 0.6806 0.6807
2165.000000 0.6807 0.6807 0.6807 0.6807 0.6807
2160.000000 0.6806 0.6805 0.6805 0.6804 0.6803
2155.000000 0.6801 0.6801 0.6801 0.6800 0.6799
2150.000000 0.6798 0.6797 0.6796 0.6795 0.6794
2145.000000 0.6792 0.6791 0.6790 0.6788 0.6786
2140.000000 0.6785 0.6782 0.6780 0.6778 0.6775
2135.000000 0.6774 0.6771 0.6769 0.6767 0.6765
2130.000000 0.6762 0.6760 0.6757 0.6755 0.6751
2125.000000 0.6750 0.6747 0.6744 0.6740 0.6735
2120.000000 0.6728 0.6722 0.6718 0.6711 0.6707
2115.000000 0.6701 0.6696 0.6690 0.6684 0.6678
2110.000000 0.6672 0.6668 0.6661 0.6656 0.6651
2105.000000 0.6645 0.6637 0.6625 0.6612 0.6600
2100.000000 0.6586 0.6571 0.6558 0.6546 0.6537
2095.000000 0.6526 0.6517 0.6507 0.6497 0.6487
2090.000000 0.6478 0.6471 0.6465 0.6458 0.6451
2085.000000 0.6445 0.6438 0.6431 0.6425 0.6418
2080.000000 0.6411 0.6405 0.6398 0.6387 0.6376
2075.000000 0.6364 0.6352 0.6341 0.6329 0.6318
2070.000000 0.6306 0.6294 0.6283 0.6271 0.6260
2065.000000 0.6249 0.6238 0.6227 0.6216 0.6204
2060.000000 0.6193 0.6182 0.6171 0.6160 0.6148
2055.000000 0.6138 0.6127 0.6116 0.6106 0.6096
2050.000000 0.6086 0.6076 0.6066 0.6055 0.6044
2045.000000 0.6034 0.6024 0.6017 0.6008 0.6000
2040.000000 0.5992 0.5984 0.5976 0.5968 0.5960
2035.000000 0.5952 0.5944 0.5936 0.5928 0.5920
2030.000000 0.5912 0.5904 0.5896 0.5888 0.5880
2025.000000 0.5874 0.5868 0.5862 0.5855 0.5848
2020.000000 0.5842 0.5836 0.5829 0.5823 0.5817
2015.000000 0.5810 0.5804 0.5797 0.5791 0.5785
2010.000000 0.5778 0.5771 0.5765 0.5759 0.5753
2005.000000 0.5746 0.5739 0.5733 0.5727 0.5720
2000.000000 0.5714 0.5707 0.5701 0.5694 0.5686
1995.000000 0.5679 0.5671 0.5662 0.5655 0.5648
1990.000000 0.5640 0.5633 0.5625 0.5617 0.5610
1985.000000 0.5602 0.5595 0.5587 0.5579 0.5572
1980.000000 0.5564 0.5556 0.5549 0.5541 0.5533
1975.000000 0.5526 0.5518 0.5510 0.5503 0.5495
1970.000000 0.5487 0.5480 0.5473 0.5465 0.5457
1965.000000 0.5449 0.5442 0.5434 0.5426 0.5418
1960.000000 0.5409 0.5400 0.5391 0.5382 0.5373
1955.000000 0.5364 0.5355 0.5345 0.5336 0.5327
1950.000000 0.5318 0.5309 0.5299 0.5290 0.5282
1945.000000 0.5273 0.5262 0.5254 0.5245 0.5236
1940.000000 0.5226 0.5217 0.5208 0.5198 0.5189
1935.000000 0.5180 0.5170 0.5160 0.5151 0.5141
1930.000000 0.5132 0.5122 0.5112 0.5104 0.5094
1925.000000 0.5084 0.5074 0.5065 0.5055 0.5045
1920.000000 0.5033 0.5022 0.5010 0.4998 0.4986
1915.000000 0.4974 0.4962 0.4951 0.4939 0.4928
1910.000000 0.4915 0.4905 0.4894 0.4884 0.4873
1905.000000 0.4862 0.4852 0.4841 0.4830 0.4820
1900.000000 0.4809 0.4798 0.4788 0.4780 0.4771
1895.000000 0.4762 0.4753 0.4745 0.4736 0.4727
1890.000000 0.4718 0.4709 0.4701 0.4692 0.4685
1885.000000 0.4678 0.4672 0.4665 0.4658 0.4652
1880.000000 0.4645 0.4638 0.4631 0.4624 0.4617
1875.000000 0.4610 0.4603 0.4597 0.4591 0.4585
1870.000000 0.4579 0.4573 0.4567 0.4560 0.4558
1865.000000 0.4555 0.4552 0.4549 0.4527 0.4545
1860.000000 0.4547 0.4547 0.4549 0.4550 0.4550
1855.000000 0.4552 0.4553 0.4555 0.4557 0.4562
1850.000000 0.4567 0.4573 0.4578 0.4583 0.4589
1845.000000 0.4595 0.4601 0.4608 0.4615 0.4622
1840.000000 0.4629 0.4635 0.4643 0.4651 0.4660
1835.000000 0.4669 0.4678 0.4687 0.4697 0.4704
1830.000000 0.4710 0.4716 0.4722 0.4729 0.4735
1825.000000 0.4741 0.4747 0.4753 0.4757 0.4760
1820.000000 0.4765 0.4768 0.4771 0.4775 0.4779
1815.000000 0.4782 0.4784 0.4785 0.4787 0.4788
1810.000000 0.4790 0.4790 0.4792 0.4792 0.4792
1805.000000 0.4791 0.4791 0.4790 0.4789 0.4788
1800.000000 0.4788 0.4787 0.4786 0.4783 0.4780
1795.000000 0.4776 0.4772 0.4768 0.4764 0.4760
1790.000000 0.4752 0.4741 0.4728 0.4717 0.4704
1785.000000 0.4692 0.4677 0.4658 0.4636 0.4614
1780.000000 0.4593 0.4573 0.4555 0.4537 0.4518
1775.000000 0.4502 0.4487 0.4472 0.4457 0.4442
1770.000000 0.4429 0.4416 0.4403 0.4390 0.4377
1765.000000 0.4365 0.4352 0.4338 0.4325 0.4304
1760.000000 0.4280 0.4255 0.4229 0.4202 0.4172
1755.000000 0.4142 0.4112 0.4080 0.4047 0.4014
1750.000000 0.3980 0.3947 0.3914 0.3888 0.3859
1745.000000 0.3830 0.3800 0.3774 0.3749 0.3724
1740.000000 0.3699 0.3675 0.3654 0.3634 0.3614
1735.000000 0.3595 0.3577 0.3559 0.3544 0.3532
1730.000000 0.3523 0.3512 0.3505 0.3496 0.3488
1725.000000 0.3482 0.3479 0.3475 0.3445 0.3470
1720.000000 0.3470 0.3470 0.3472 0.3480 0.3495
1715.000000 0.3525 0.3562 0.3600 0.3638 0.3674
1710.000000 0.3709 0.3742 0.3776 0.3809 0.3843
1705.000000 0.3875 0.3906 0.3937 0.3968 0.4000
1700.000000 0.4034 0.4070 0.4106 0.4141 0.4177
1695.000000 0.4212 0.4251 0.4290 0.4329 0.4368
1690.000000 0.4407 0.4445 0.4479 0.4510 0.4543
1685.000000 0.4576 0.4610 0.4645 0.4677 0.4702
1680.000000 0.4724 0.4743 0.4760 0.4781 0.4799
1675.000000 0.4810 0.4818 0.4846 0.4832 0.4832
1670.000000 0.4831 0.4828 0.4824 0.4821 0.4812
1665.000000 0.4797 0.4778 0.4747 0.4697 0.4655
1660.000000 0.4621 0.4582 0.4532 0.4500 0.4483
1655.000000 0.4472 0.4465 0.4460 0.4456 0.4450
1650.000000 0.4442 0.4432 0.4397 0.4345 0.4290
1645.000000 0.4235 0.4158 0.4079 0.4012 0.3954
1640.000000 0.3892 0.3825 0.3758 0.3690 0.3623
1635.000000 0.3555 0.3487 0.3418 0.3350 0.3298
1630.000000 0.3250 0.3204 0.3158 0.3112 0.3065
1625.000000 0.3015 0.2963 0.2912 0.2849 0.2761
1620.000000 0.2654 0.2497 0.2399 0.2329 0.2265
1615.000000 0.2224 0.2183 0.2141 0.2099 0.2052
1610.000000 0.2020 0.1994 0.1976 0.1967 0.1933
1605.000000 0.1958 0.1954 0.1951 0.1948 0.1946
1600.000000 0.1946 0.1950 0.1959 0.1967 0.1978
1595.000000 0.1994 0.2018 0.2041 0.2065 0.2088
1590.000000 0.2111 0.2131 0.2140 0.2147 0.2153
1585.000000 0.2159 0.2164 0.2165 0.2165 0.2166
1580.000000 0.2166 0.2167 0.2171 0.2175 0.2179
1575.000000 0.2184 0.2188 0.2193 0.2198 0.2208
1570.000000 0.2217 0.2225 0.2234 0.2243 0.2252
1565.000000 0.2261 0.2271 0.2284 0.2304 0.2322
1560.000000 0.2342 0.2368 0.2398 0.2427 0.2455
1555.000000 0.2481 0.2506 0.2530 0.2552 0.2574
1550.000000 0.2594 0.2612 0.2626 0.2635 0.2646
1545.000000 0.2655 0.2660 0.2669 0.2671 0.2675
1540.000000 0.2676 0.2671 0.2655 0.2606 0.2543
1535.000000 0.2488 0.2432 0.2374 0.2319 0.2267
1530.000000 0.2204 0.2131 0.2102 0.2075 0.2061
1525.000000 0.2048 0.2035 0.2026 0.2000 0.2019
1520.000000 0.2023 0.2028 0.2033 0.2042 0.2055
1515.000000 0.2069 0.2088 0.2125 0.2162 0.2202
1510.000000 0.2243 0.2284 0.2329 0.2376 0.2425
1505.000000 0.2472 0.2517 0.2561 0.2606 0.2653
1500.000000 0.2705 0.2759 0.2813 0.2851 0.2883
1495.000000 0.2915 0.2947 0.2978 0.3009 0.3037
1490.000000 0.3061 0.3084 0.3108 0.3128 0.3146
1485.000000 0.3165 0.3181 0.3197 0.3210 0.3226
1480.000000 0.3241 0.3257 0.3272 0.3282 0.3289
1475.000000 0.3297 0.3314 0.3307 0.3310 0.3314
1470.000000 0.3314 0.3312 0.3309 0.3296 0.3279
1465.000000 0.3254 0.3228 0.3200 0.3173 0.3137
1460.000000 0.3101 0.3063 0.3014 0.2957 0.2900
1455.000000 0.2802 0.2716 0.2659 0.2605 0.2551
1450.000000 0.2493 0.2435 0.2384 0.2340 0.2305
1445.000000 0.2278 0.2252 0.2221 0.2198 0.2170
1440.000000 0.2177 0.2178 0.2181 0.2184 0.2189
1435.000000 0.2207 0.2228 0.2249 0.2270 0.2292
1430.000000 0.2380 0.2324 0.2334 0.2341 0.2347
1425.000000 0.2344 0.2329 0.2312 0.2292 0.2270
1420.000000 0.2231 0.2178 0.2107 0.2026 0.1944
1415.000000 0.1864 0.1791 0.1742 0.1701 0.1661
1410.000000 0.1639 0.1619 0.1604 0.1595 0.1585
1405.000000 0.1578 0.1575 0.1561 0.1573 0.1573
1400.000000 0.1574 0.1579 0.1586 0.1592 0.1599
1395.000000 0.1604 0.1612 0.1619 0.1628 0.1639
1390.000000 0.1650 0.1669 0.1696 0.1725 0.1754
1385.000000 0.1798 0.1854 0.1913 0.1973 0.2034
1380.000000 0.2096 0.2149 0.2195 0.2240 0.2285
1375.000000 0.2335 0.2387 0.2437 0.2484 0.2529
1370.000000 0.2574 0.2620 0.2665 0.2709 0.2754
1365.000000 0.2795 0.2829 0.2862 0.2895 0.2927
1360.000000 0.2957 0.2985 0.3016 0.3045 0.3074
1355.000000 0.3091 0.3104 0.3116 0.3126 0.3135
1350.000000 0.3165 0.3149 0.3153 0.3131 0.3093
1345.000000 0.3032 0.2959 0.2871 0.2816 0.2777
1340.000000 0.2739 0.2705 0.2670 0.2634 0.2621
1335.000000 0.2611 0.2581 0.2602 0.2599 0.2607
1330.000000 0.2628 0.2660 0.2698 0.2739 0.2780
1325.000000 0.2834 0.2896 0.2950 0.3002 0.3051
1320.000000 0.3088 0.3129 0.3116 0.3116 0.3116
1315.000000 0.3072 0.2953 0.2739 0.2505 0.2272
1310.000000 0.2037 0.1804 0.1596 0.1509 0.1434
1305.000000 0.1332 0.1223 0.1119 0.1066 0.1029
1300.000000 0.0963 0.0963 0.0963 0.0963 0.0963
1295.000000 0.0963 0.0963 0.0967 0.0974 0.0981
1290.000000 0.0988 0.0997 0.1008 0.1019 0.1030
1285.000000 0.1040 0.1052 0.1065 0.1078 0.1090
1280.000000 0.1103 0.1117 0.1133 0.1151 0.1168
1275.000000 0.1185 0.1202 0.1218 0.1232 0.1246
1270.000000 0.1258 0.1269 0.1272 0.1276 0.1258
1265.000000 0.1185 0.1088 0.1029 0.0982 0.0946
1260.000000 0.0926 0.0913 0.0902 0.0902 0.0909
1255.000000 0.0920 0.0947 0.0975 0.1002 0.1039
1250.000000 0.1081 0.1132 0.1196 0.1249 0.1288
1245.000000 0.1326 0.1366 0.1405 0.1446 0.1491
1240.000000 0.1536 0.1581 0.1627 0.1674 0.1721
1235.000000 0.1772 0.1831 0.1890 0.1946 0.2004
1230.000000 0.2060 0.2114 0.2171 0.2230 0.2298
1225.000000 0.2352 0.2434 0.2409 0.2419 0.2421
1220.000000 0.2399 0.2318 0.2192 0.2048 0.1903
1215.000000 0.1758 0.1619 0.1504 0.1396 0.1330
1210.000000 0.1279 0.1246 0.1225 0.1221 0.1221
1205.000000 0.1231 0.1251 0.1314 0.1408 0.1526
1200.000000 0.1587 0.1637 0.1683 0.1727 0.1771
1195.000000 0.1812 0.1850 0.1889 0.1927 0.1972
1190.000000 0.2021 0.2071 0.2120 0.2166 0.2213
1185.000000 0.2260 0.2306 0.2354 0.2407 0.2461
1180.000000 0.2512 0.2556 0.2600 0.2644 0.2705
1175.000000 0.2762 0.2806 0.2849 0.2888 0.2922
1170.000000 0.2962 0.2999 0.3020 0.3039 0.3045
1165.000000 0.3044 0.3043 0.3033 0.3019 0.3009
1160.000000 0.3008 0.2967 0.3006 0.3007 0.3019
1155.000000 0.3066 0.3119 0.3173 0.3229 0.3303
1150.000000 0.3382 0.3468 0.3558 0.3716 0.3690
1145.000000 0.3699 0.3684 0.3646 0.3556 0.3448
1140.000000 0.3327 0.3237 0.3155 0.2780 0.2453
1135.000000 0.2171 0.1887 0.1666 0.1629 0.1628
1130.000000 0.1626 0.1677 0.1792 0.1894 0.1994
1125.000000 0.2094 0.2190 0.2282 0.2355 0.2397
1120.000000 0.2427 0.2452 0.2474 0.2497 0.2505
1115.000000 0.2504 0.2485 0.2468 0.2454 0.2457
1110.000000 0.2468 0.2491 0.2517 0.2560 0.2604
1105.000000 0.2668 0.2734 0.2825 0.2896 0.2962
1100.000000 0.3034 0.3120 0.3205 0.3280 0.3353
1095.000000 0.3426 0.3505 0.3590 0.3678 0.3775
1090.000000 0.3874 0.3959 0.4036 0.4082 0.4103
1085.000000 0.4096 0.4082 0.4059 0.4012 0.3936
1080.000000 0.3839 0.3571 0.3230 0.2891 0.2550
1075.000000 0.2296 0.2316 0.2393 0.2427 0.2440
1070.000000 0.2435 0.2380 0.2214 0.2043 0.1878
1065.000000 0.1694 0.1717 0.1728 0.1959 0.2194
1060.000000 0.2405 0.2599 0.2771 0.2895 0.2973
1055.000000 0.3048 0.3118 0.3185 0.3245 0.3299
1050.000000 0.3338 0.3375 0.3399 0.3422 0.3434
1045.000000 0.3436 0.3436 0.3430 0.3425 0.3426
1040.000000 0.3434 0.3447 0.3464 0.3488 0.3527
1035.000000 0.3580 0.3657 0.3716 0.3776 0.3832
1030.000000 0.3897 0.3974 0.4050 0.4127 0.4204
1025.000000 0.4281 0.4366 0.4483 0.4599 0.4682
1020.000000 0.4762 0.4842 0.4892 0.4928 0.4955
1015.000000 0.4975 0.4989 0.5002 0.5010 0.5020
1010.000000 0.5012 0.5005 0.4981 0.4944 0.4887
1005.000000 0.4822 0.4755 0.4674 0.4554 0.4429
1000.000000 0.4305 0.4137 0.4146 0.4582 0.4531
995.000000 0.4494 0.4465 0.4443 0.4448 0.4474
990.000000 0.4532 0.4603 0.4672 0.4736 0.4800
985.000000 0.4867 0.4939 0.5010 0.5090 0.5173
980.000000 0.5253 0.5314 0.5355 0.5385 0.5415
975.000000 0.5444 0.5472 0.5496 0.5518 0.5526
970.000000 0.5512 0.5490 0.5474 0.5478 0.5499
965.000000 0.5521 0.5542 0.5562 0.5589 0.5617
960.000000 0.5644 0.5672 0.5700 0.5722 0.5740
955.000000 0.5756 0.5773 0.5789 0.5797 0.5804
950.000000 0.5810 0.5818 0.5825 0.5828 0.5832
945.000000 0.5836 0.5840 0.5843 0.5846 0.5850
940.000000 0.5852 0.5853 0.5854 0.5856 0.5857
935.000000 0.5858 0.5859 0.5860 0.5860 0.5862
930.000000 0.5862 0.5864 0.5867 0.5874 0.5881
925.000000 0.5893 0.5917 0.5939 0.5965 0.5997
920.000000 0.6029 0.6060 0.6093 0.6125 0.6152
915.000000 0.6176 0.6193 0.6234 0.6201 0.6182
910.000000 0.6147 0.6099 0.5975 0.5771 0.5567
905.000000 0.5362 0.5156 0.4962 0.4875 0.4871
900.000000 0.4957 0.5175 0.5323 0.5429 0.5516
895.000000 0.5605 0.5692 0.5757 0.5797 0.5835
890.000000 0.5865 0.5892 0.5915 0.5929 0.5939
885.000000 0.5952 0.5912 0.5835 0.5743 0.5653
880.000000 0.5582 0.5519 0.5460 0.5404 0.5333
875.000000 0.5332 0.5331 0.5365 0.5418 0.5451
870.000000 0.5472 0.5486 0.5500 0.5514 0.5537
865.000000 0.5615 0.5633 0.5625 0.5628 0.5634
860.000000 0.5699 0.5799 0.5886 0.5960 0.6034
855.000000 0.6102 0.6152 0.6185 0.6195 0.6214
850.000000 0.6188 0.6155 0.6088 0.5978 0.5831
845.000000 0.5687 0.5526 0.5002 0.5041 0.5065
840.000000 0.5218 0.5366 0.5490 0.5581 0.5671
835.000000 0.5755 0.5826 0.5880 0.5929 0.5893
830.000000 0.5850 0.5817 0.5804 0.5785 0.5767
825.000000 0.5647 0.5562 0.5491 0.5414 0.5362
820.000000 0.5316 0.5275 0.5237 0.5210 0.5185
815.000000 0.5189 0.5162 0.5184 0.5212 0.5266
810.000000 0.5332 0.5412 0.5473 0.5532 0.5589
805.000000 0.5635 0.5648 0.5648 0.5648 0.5639
800.000000 0.5617 0.5585 0.5543 0.5488 0.5412
795.000000 0.5296 0.5055 0.4360 0.4094 0.3897
790.000000 0.3780 0.3708 0.3652 0.3812 0.4130
785.000000 0.4447 0.4760 0.4982 0.5144 0.5243
780.000000 0.5328 0.5398 0.5445 0.5448 0.5454
775.000000 0.5473 0.5490 0.5509 0.5533 0.5556
770.000000 0.5584 0.5610 0.5640 0.5668 0.5696
765.000000 0.5723 0.5720 0.5693 0.5671 0.5655
760.000000 0.5642 0.5625 0.5602 0.5571 0.5590
755.000000 0.5595 0.5625 0.5676 0.5744 0.5810
750.000000 0.5858 0.5889 0.5912 0.5931 0.5934
745.000000 0.5935 0.5935 0.5933 0.5930 0.5921
740.000000 0.5910 0.5902 0.5891 0.5878 0.5898
735.000000 0.5845 0.5829 0.5810 0.5791 0.5772
730.000000 0.5752 0.5732 0.5710 0.5689 0.5667
725.000000 0.5646 0.5626 0.5608 0.5589 0.5570
720.000000 0.5548 0.5526 0.5503 0.5480 0.5453
715.000000 0.5425 0.5395 0.5359 0.5322 0.5277
710.000000 0.5231 0.5177 0.5116 0.5051 0.4978
705.000000 0.4907 0.4835 0.4754 0.4653 0.4549
700.000000 0.4444 0.4335 0.4219 0.4089 0.3959
695.000000 0.3814 0.3671 0.3543 0.3416 0.3282
690.000000 0.3150 0.3016 0.2881 0.2747 0.2613
685.000000 0.2496 0.2395 0.2293 0.2185 0.2080
680.000000 0.1992 0.1942 0.1909 0.1859 0.1884
675.000000 0.1889 0.1927 0.2029 0.2164 0.2303
670.000000 0.2408 0.2539 0.2741 0.3110 0.3421
665.000000 0.3624 0.3862 0.4052 0.4216 0.4364
660.000000 0.4500 0.4609 0.4696 0.4775 0.4840
655.000000 0.4896 0.4949 0.5012 0.5041
##END=
