##TITLE=INDENE, 1,4,5,6,7,8,8-HEPTACHLORO-3Alpha,4,7,7Alpha-TETRAHYDRO-4,7-METHANO-
##JCAMP-DX=4.24
##DATA TYPE=INFRARED SPECTRUM
##CLASS=COBLENTZ III
##ORIGIN=DOW CHEMICAL COMPANY
##OWNER=COBLENTZ SOCIETY
Collection (C) 2018 copyright by the U.S. Secretary of Commerce
on behalf of the United States of America. All rights reserved.
##DATE=Not specified, most likely prior to 1970
##NAMES=3Alpha,4,5,6,7,8,8-HEPTACHLORO-3Alpha,4,7,7Alpha-TETRAHYDRO-4,7-METHANO-INDENE
##MOLFORM=C10 H5 Cl7
##MP=95 C
##SOURCE REFERENCE=COBLENTZ NO. 1022
##$NIST ID=B6001022
##$NIST SOURCE=COBLENTZ
##$NIST IMAGE=cob1022
##SPECTROMETER/DATA SYSTEM=DOW KBr FOREPRISM-GRATING
##INSTRUMENT PARAMETERS=BLAZED AT 3.5, 12.0, 20.0 MICRON AND CHANGED AT 5.0, 7.5, 14.9 MICRON
##STATE=SOLUTION (10% CCl4 FOR 3800-1330, 10% CS2 FOR 1330-450 CM^-^1)
##PATH LENGTH=0.011 CM, 0.011 CM
$$SPECTRAL CONTAMINATION CCl4 AROUND 1550 CM^-^1
##SAMPLING PROCEDURE=TRANSMISSION
##RESOLUTION=4
##DATA PROCESSING=DIGITIZED BY NIST FROM HARD COPY (FROM TWO SEGMENTS)
##XUNITS=1/CM
##YUNITS=TRANSMITTANCE
##XFACTOR=1.000000
##YFACTOR=1
##DELTAX=1.140689
##FIRSTX=450.951
##LASTX=3786.33
##FIRSTY=0.93
##MAXX=3786.33
##MINX=450.951
##MAXY=1.081
##MINY=0.115016
##NPOINTS=2925
##XYDATA=(X++(Y..Y))
450.951000 0.9300 0.9460 0.9620 0.9301 0.9460
456.654447 0.9619 0.9660 0.9690 0.9760 0.9780
462.357894 0.9840 0.9850 0.9920 0.9960 0.9980
468.061341 1.0000 1.0000 1.0010 1.0050 1.0070
473.764788 1.0080 1.0120 1.0140 1.0170 1.0190
479.468235 1.0210 1.0240 1.0260 1.0300 1.0310
485.171682 1.0350 1.0370 1.0420 1.0440 1.0460
490.875129 1.0470 1.0490 1.0490 1.0510 1.0530
496.578576 1.0550 1.0550 1.0560 1.0600 1.0620
502.282023 1.0620 1.0630 1.0630 1.0630 1.0630
507.985470 1.0630 1.0650 1.0650 1.0650 1.0650
513.688917 1.0650 1.0650 1.0650 1.0650 1.0630
519.392364 1.0630 1.0630 1.0630 1.0600 1.0580
525.095811 1.0560 1.0530 1.0420 1.0281 1.0240
530.799258 1.0260 1.0330 1.0420 1.0420 1.0420
536.502705 1.0400 1.0400 1.0330 1.0300 1.0260
542.206152 1.0230 0.9980 0.9760 0.9360 0.8931
547.909599 0.6676 0.5434 0.5390 0.5410 0.6663
553.613046 0.7261 0.7830 0.8130 0.8450 0.8959
559.316493 0.9818 0.9920 1.0030 1.0209 1.0300
565.019940 1.0390 1.0460 1.0510 1.0530 1.0550
570.723387 1.0620 1.0620 1.0650 1.0650 1.0650
576.426834 1.0670 1.0690 1.0690 1.0710 1.0740
582.130281 1.0740 1.0740 1.0760 1.0760 1.0780
587.833728 1.0780 1.0780 1.0790 1.0790 1.0790
593.537175 1.0810 1.0810 1.0810 1.0810 1.0810
599.240622 1.0810 1.0810 1.0810 1.0810 1.0810
604.944068 1.0810 1.0810 1.0810 1.0810 1.0810
610.647515 1.0810 1.0810 1.0810 1.0790 1.0760
616.350962 1.0720 1.0710 1.0670 1.0650 1.0630
622.054409 1.0550 1.0470 0.9530 0.9500 0.9530
627.757856 0.9690 1.0029 1.0369 1.0400 1.0509
633.461303 1.0510 1.0510 1.0510 1.0510 1.0470
639.164750 1.0400 1.0310 1.0260 1.0190 1.0100
644.868197 0.9920 0.9760 0.9590 0.9480 0.9320
650.571644 0.9160 0.8542 0.7932 0.6149 0.5484
656.275091 0.4629 0.3280 0.3250 0.3260 0.4308
661.978538 0.5357 0.5659 0.6666 0.7307 0.7927
667.681985 0.9000 0.9180 0.9800 0.9840 0.9850
673.385432 0.9870 0.9890 0.9890 0.9890 0.9781
679.088879 0.9750 0.9729 0.9019 0.5312 0.5270
684.792326 0.5290 0.6347 0.7486 0.8625 0.9386
690.495773 1.0140 1.0260 1.0280 1.0280 1.0310
696.199220 1.0310 1.0310 1.0310 1.0300 1.0300
701.902667 1.0300 1.0300 1.0280 1.0280 1.0260
707.606114 1.0260 1.0240 1.0230 1.0210 1.0170
713.309561 0.9920 0.9760 0.9460 0.9110 0.8701
719.013008 0.7762 0.6643 0.5684 0.5391 0.5131
724.716455 0.5131 0.5790 0.6440 0.6780 0.7099
730.419902 0.7738 0.8488 0.9018 0.9319 0.9320
736.123349 0.9320 0.9279 0.7281 0.7220 0.7220
741.826796 0.7669 0.8109 0.8558 0.8998 0.9547
747.530243 0.9820 0.9910 0.9910 0.9890 0.9890
753.233690 0.9870 0.9850 0.9820 0.9800 0.9780
758.937137 0.9680 0.9530 0.9500 0.9340 0.9090
764.640584 0.8222 0.3382 0.1197 0.1150 0.1170
770.344031 0.2932 0.4081 0.5230 0.5910 0.6569
776.047478 0.6899 0.7239 0.8924 0.8930 0.8930
781.750925 0.8800 0.8650 0.8520 0.8380 0.2967
787.454372 0.1243 0.1200 0.1220 0.2335 0.3455
793.157819 0.4011 0.4541 0.5770 0.6390 0.6989
798.861266 0.8197 0.8699 0.8999 0.9299 0.9589
804.564713 0.9710 0.9980 1.0000 1.0000 1.0000
810.268160 1.0010 1.0010 1.0030 1.0030 1.0030
815.971607 1.0030 0.9960 0.9870 0.9780 0.9660
821.675054 0.9620 0.9530 0.9281 0.8882 0.8651
827.378501 0.6618 0.5799 0.4929 0.3190 0.3160
833.081948 0.3160 0.3170 0.3798 0.4418 0.5814
838.785395 0.7210 0.7220 0.7540 0.7990 0.8410
844.488842 0.8410 0.8081 0.7771 0.6923 0.6502
850.192289 0.5840 0.5800 0.5820 0.6210 0.6600
855.895736 0.6800 0.6990 0.7369 0.7759 0.8108
861.599183 0.8310 0.8400 0.8500 0.8650 0.8680
867.302630 0.8750 0.8820 0.8860 0.8930 0.9020
873.006077 0.9050 0.9140 0.9180 0.9200 0.9200
878.709524 0.9180 0.9160 0.9120 0.9110 0.9090
884.412971 0.9050 0.9020 0.8950 0.8860 0.8650
890.116418 0.8500 0.8400 0.7971 0.7771 0.7631
895.819865 0.7600 0.7459 0.6670 0.6190 0.5711
901.523312 0.3804 0.2434 0.2390 0.2410 0.3315
907.226758 0.4042 0.4761 0.5591 0.6420 0.7260
912.930205 0.8089 0.8110 0.8130 0.8110 0.8180
918.633652 0.8471 0.8841 0.9250 0.9480 0.9840
924.337099 0.9850 0.9870 0.9890 0.9910 0.9940
930.040546 0.9960 0.9980 1.0000 1.0000 1.0010
935.743993 1.0030 1.0050 1.0070 1.0080 1.0100
941.447440 1.0100 1.0100 1.0100 0.9530 0.9500
947.150887 0.9520 0.9759 0.9890 0.9960 1.0010
952.854334 1.0120 1.0140 1.0140 1.0140 1.0140
958.557781 1.0140 1.0140 1.0120 1.0100 1.0100
964.261228 1.0070 0.9979 0.9550 0.9160 0.9120
969.964675 0.9160 0.9908 0.9980 1.0030 1.0030
975.668122 1.0030 1.0030 1.0030 0.9980 0.9940
981.371569 0.9910 0.9910 0.9800 0.9660 0.9600
987.075016 0.9410 0.9230 0.9040 0.8800 0.8310
992.778463 0.7791 0.6283 0.6250 0.6250 0.6569
998.481910 0.6870 0.7050 0.7221 0.7740 0.8170
1004.185357 0.8749 0.9159 0.9270 0.9549 0.9590
1009.888804 0.9600 0.9600 0.9600 0.9600 0.9600
1015.592251 0.9600 0.9590 0.9570 0.9530 0.9410
1021.295698 0.9339 0.9070 0.8930 0.8570 0.8430
1026.999145 0.8380 0.8380 0.8410 0.8410 0.8410
1032.702592 0.7947 0.6499 0.6030 0.5590 0.5310
1038.406039 0.3962 0.3760 0.3740 0.3760 0.4198
1044.109486 0.4630 0.4652 0.5521 0.6370 0.6410
1049.812933 0.6740 0.7100 0.7439 0.7440 0.7221
1055.516380 0.6849 0.6389 0.5959 0.5610 0.5310
1061.219827 0.5090 0.4950 0.4860 0.4840 0.4860
1066.923274 0.5021 0.5501 0.5841 0.6230 0.6670
1072.626721 0.7120 0.7529 0.8129 0.8379 0.8450
1078.330168 0.8450 0.8450 0.8450 0.8450 0.8220
1084.033615 0.8060 0.7860 0.6942 0.5933 0.4954
1089.737062 0.4920 0.4931 0.5451 0.6210 0.6210
1095.440509 0.6030 0.5980 0.5800 0.5641 0.5481
1101.143956 0.5450 0.5310 0.5130 0.5130 0.6110
1106.847403 0.7079 0.7699 0.8059 0.8658 0.8660
1112.550850 0.8650 0.8626 0.7030 0.6990 0.6990
1118.254297 0.7330 0.8079 0.9198 0.9370 0.9599
1123.957744 0.9820 0.9850 0.9910 0.9920 0.9940
1129.661191 0.9980 1.0000 1.0000 1.0010 1.0050
1135.364638 1.0070 1.0080 1.0080 1.0080 1.0080
1141.068085 1.0080 1.0080 1.0070 1.0070 1.0050
1146.771532 1.0030 1.0030 1.0000 0.9980 0.9920
1152.474979 0.9850 0.9750 0.9660 0.9590 0.9480
1158.178426 0.9429 0.9210 0.9000 0.8929 0.8290
1163.881873 0.7900 0.6372 0.5552 0.4792 0.4760
1169.585320 0.4771 0.5182 0.6321 0.6960 0.7370
1175.288767 0.7770 0.8060 0.8499 0.8949 0.9249
1180.992214 0.9530 0.9620 0.9750 0.9800 0.9920
1186.695661 0.9960 0.9980 1.0000 1.0010 1.0050
1192.399108 1.0100 1.0150 1.0170 1.0170 1.0190
1198.102555 1.0150 1.0100 1.0010 0.9980 0.9890
1203.806002 0.9839 0.9619 0.9229 0.8790 0.8720
1209.509448 0.8680 0.8720 0.9139 0.9389 0.9410
1215.212895 0.9430 0.9440 0.9480 0.9500 0.9520
1220.916342 0.9520 0.9520 0.9500 0.9460 0.9360
1226.619789 0.9119 0.8949 0.8539 0.7990 0.7810
1232.323236 0.7470 0.7460 0.7470 0.8428 0.8719
1238.026683 0.9460 0.9530 0.9550 0.9550 0.9550
1243.730130 0.9340 0.9230 0.8771 0.8451 0.8111
1249.433577 0.7786 0.6669 0.6278 0.5177 0.2480
1255.137024 0.2450 0.2460 0.3089 0.3958 0.4827
1260.840471 0.5984 0.7121 0.7582 0.8340 0.8330
1266.543918 0.8290 0.8250 0.8240 0.8490 0.8769
1272.247365 0.9321 0.9520 0.9550 0.9550 0.9550
1277.950812 0.9550 0.9570 0.9570 0.9570 0.9570
1283.654259 0.9550 0.9549 0.9359 0.8959 0.8630
1289.357706 0.8590 0.8610 0.8660 0.8800 0.8910
1295.061153 0.9211 0.9500 0.9500 0.9500 0.9500
1300.764600 0.9460 0.9370 0.9280 0.9051 0.8980
1306.468047 0.8559 0.8240 0.8150 0.8250 0.8430
1312.171494 0.8720 0.9319 0.9590 0.9620 0.9730
1317.874941 0.9890 0.9920 0.9960 0.9980 1.0000
1323.578388 1.0050 1.0080 1.0120 1.0140 1.0140
1329.281835 1.0150 1.0140 1.0140 1.0140 1.0080
1334.985282 1.0080 1.0070 1.0050 1.0050 1.0050
1340.688729 1.0029 0.9890 0.9780 0.9690 0.9590
1346.392176 0.9430 0.9280 0.9140 0.9000 0.8771
1352.095623 0.8176 0.7280 0.7240 0.7260 0.7441
1357.799070 0.8060 0.9340 0.9550 0.9760 0.9940
1363.502517 0.9980 1.0070 1.0140 1.0140 1.0150
1369.205964 1.0170 1.0170 1.0170 1.0170 1.0170
1374.909411 1.0170 1.0170 1.0170 1.0170 1.0170
1380.612858 1.0190 1.0230 1.0240 1.0240 1.0240
1386.316305 1.0260 1.0260 1.0260 1.0240 1.0240
1392.019752 1.0240 1.0240 1.0240 1.0240 1.0230
1397.723199 1.0230 1.0210 1.0210 1.0190 1.0190
1403.426646 1.0170 1.0170 1.0170 1.0170 1.0150
1409.130093 1.0150 1.0150 1.0150 1.0150 1.0150
1414.833540 1.0150 1.0150 1.0170 1.0170 1.0170
1420.536987 1.0170 1.0170 1.0170 1.0170 1.0190
1426.240434 1.0190 1.0210 1.0210 1.0210 1.0230
1431.943881 1.0230 1.0230 1.0240 1.0240 1.0240
1437.647328 1.0240 1.0240 1.0240 1.0240 1.0240
1443.350775 1.0240 1.0230 1.0230 1.0230 1.0230
1449.054222 1.0210 1.0190 1.0190 1.0190 1.0190
1454.757669 1.0170 1.0170 1.0170 1.0150 1.0150
1460.461116 1.0150 1.0140 1.0140 1.0140 1.0120
1466.164563 1.0120 1.0100 1.0100 1.0080 1.0070
1471.868010 1.0070 1.0050 1.0030 1.0030 1.0010
1477.571457 0.9980 0.9980 0.9960 0.9920 0.9910
1483.274904 0.9890 0.9870 0.9840 0.9760 0.9710
1488.978351 0.9620 0.9590 0.9550 0.9520 0.9370
1494.681798 0.9360 0.9320 0.9320 0.9300 0.9280
1500.385245 0.9209 0.9020 0.8950 0.8860 0.8820
1506.088692 0.8750 0.8450 0.8380 0.8340 0.8330
1511.792138 0.8310 0.8290 0.8170 0.8110 0.8080
1517.495585 0.7950 0.7900 0.7900 0.7860 0.7790
1523.199032 0.7600 0.7560 0.7540 0.7490 0.7460
1528.902479 0.7400 0.7240 0.7220 0.7190 0.6581
1534.605926 0.6479 0.6349 0.6109 0.5819 0.5540
1540.309373 0.5500 0.5470 0.5450 0.5430 0.5390
1546.012820 0.5360 0.5340 0.5320 0.5320 0.5340
1551.716267 0.5340 0.5410 0.5480 0.5550 0.5730
1557.419714 0.5911 0.6070 0.6070 0.6090 0.6110
1563.123161 0.6250 0.6370 0.6550 0.6620 0.6870
1568.826608 0.6890 0.6920 0.6960 0.6980 0.6990
1574.530055 0.6990 0.7050 0.7080 0.7100 0.7150
1580.233502 0.7170 0.7240 0.7260 0.7300 0.7400
1585.936949 0.7420 0.7470 0.7530 0.7540 0.7600
1591.640396 0.7650 0.7670 0.7670 0.7670 0.7670
1597.343843 0.7600 0.7540 0.7380 0.6191 0.3375
1603.047290 0.3096 0.2270 0.2230 0.2251 0.2551
1608.750737 0.2932 0.4930 0.6919 0.7349 0.7759
1614.454184 0.8561 0.8841 0.9231 0.9430 0.9480
1620.157631 0.9570 0.9640 0.9710 0.9820 0.9840
1625.861078 0.9850 0.9890 0.9890 0.9980 1.0010
1631.564525 1.0030 1.0030 1.0070 1.0120 1.0150
1637.267972 1.0170 1.0210 1.0260 1.0280 1.0280
1642.971419 1.0280 1.0300 1.0300 1.0310 1.0310
1648.674866 1.0300 1.0300 1.0300 1.0300 1.0300
1654.378313 1.0300 1.0330 1.0330 1.0330 1.0330
1660.081760 1.0330 1.0330 1.0330 1.0330 1.0330
1665.785207 1.0330 1.0330 1.0330 1.0330 1.0330
1671.488654 1.0330 1.0310 1.0310 1.0310 1.0310
1677.192101 1.0310 1.0330 1.0310 1.0310 1.0300
1682.895548 1.0300 1.0240 1.0240 1.0240 1.0240
1688.598995 1.0240 1.0240 1.0260 1.0260 1.0280
1694.302442 1.0260 1.0280 1.0280 1.0280 1.0280
1700.005889 1.0280 1.0260 1.0260 1.0230 1.0190
1705.709336 1.0170 1.0140 1.0080 1.0070 1.0050
1711.412783 1.0010 1.0010 1.0000 1.0010 1.0050
1717.116230 1.0100 1.0120 1.0140 1.0170 1.0190
1722.819677 1.0230 1.0240 1.0260 1.0260 1.0260
1728.523124 1.0260 1.0260 1.0280 1.0280 1.0280
1734.226571 1.0260 1.0260 1.0260 1.0260 1.0260
1739.930018 1.0240 1.0280 1.0280 1.0260 1.0240
1745.633465 1.0260 1.0260 1.0260 1.0260 1.0260
1751.336912 1.0260 1.0260 1.0260 1.0260 1.0260
1757.040359 1.0260 1.0260 1.0260 1.0260 1.0260
1762.743806 1.0260 1.0260 1.0260 1.0260 1.0260
1768.447253 1.0260 1.0260 1.0260 1.0240 1.0230
1774.150700 1.0190 1.0170 1.0170 1.0170 1.0170
1779.854147 1.0190 1.0190 1.0210 1.0210 1.0230
1785.557594 1.0240 1.0260 1.0260 1.0280 1.0280
1791.261041 1.0280 1.0280 1.0280 1.0280 1.0280
1796.964488 1.0260 1.0260 1.0240 1.0260 1.0260
1802.667935 1.0260 1.0260 1.0260 1.0260 1.0260
1808.371382 1.0260 1.0260 1.0260 1.0260 1.0260
1814.074828 1.0260 1.0260 1.0260 1.0260 1.0260
1819.778275 1.0240 1.0230 1.0230 1.0240 1.0240
1825.481722 1.0260 1.0260 1.0260 1.0260 1.0260
1831.185169 1.0260 1.0260 1.0260 1.0240 1.0240
1836.888616 1.0240 1.0240 1.0230 1.0230 1.0240
1842.592063 1.0240 1.0260 1.0260 1.0260 1.0260
1848.295510 1.0260 1.0260 1.0260 1.0260 1.0240
1853.998957 1.0230 1.0230 1.0240 1.0240 1.0240
1859.702404 1.0240 1.0230 1.0240 1.0240 1.0190
1865.405851 1.0190 1.0230 1.0260 1.0260 1.0240
1871.109298 1.0240 1.0240 1.0240 1.0240 1.0240
1876.812745 1.0240 1.0240 1.0240 1.0240 1.0230
1882.516192 1.0230 1.0210 1.0190 1.0150 1.0140
1888.219639 1.0140 1.0140 1.0140 1.0150 1.0150
1893.923086 1.0190 1.0230 1.0210 1.0230 1.0230
1899.626533 1.0230 1.0240 1.0240 1.0240 1.0260
1905.329980 1.0240 1.0230 1.0190 1.0170 1.0190
1911.033427 1.0190 1.0210 1.0230 1.0240 1.0240
1916.736874 1.0240 1.0260 1.0280 1.0280 1.0280
1922.440321 1.0280 1.0280 1.0280 1.0280 1.0260
1928.143768 1.0240 1.0230 1.0230 1.0240 1.0260
1933.847215 1.0260 1.0240 1.0260 1.0280 1.0280
1939.550662 1.0260 1.0240 1.0240 1.0230 1.0230
1945.254109 1.0240 1.0280 1.0310 1.0310 1.0300
1950.957556 1.0300 1.0300 1.0300 1.0300 1.0300
1956.661003 1.0300 1.0300 1.0280 1.0280 1.0280
1962.364450 1.0280 1.0230 1.0240 1.0240 1.0240
1968.067897 1.0240 1.0240 1.0240 1.0230 1.0280
1973.771344 1.0280 1.0240 1.0240 1.0240 1.0240
1979.474791 1.0230 1.0230 1.0230 1.0210 1.0210
1985.178238 1.0210 1.0210 1.0190 1.0170 1.0170
1990.881685 1.0210 1.0210 1.0230 1.0260 1.0260
1996.585132 1.0099 0.9800 0.9910 1.0000 1.0060
2002.288579 1.0120 1.0130 1.0140 1.0185 1.0230
2007.992026 1.0230 1.0230 1.0230 1.0230 1.0230
2013.695473 1.0230 1.0230 1.0230 1.0235 1.0240
2019.398920 1.0103 0.9964 0.9960 0.9960 1.0030
2025.102367 1.0100 1.0169 1.0239 1.0240 1.0240
2030.805814 1.0240 1.0240 1.0240 1.0240 1.0240
2036.509261 1.0240 1.0240 1.0240 1.0240 1.0240
2042.212708 1.0250 1.0260 1.0280 1.0300 1.0300
2047.916155 1.0300 1.0290 1.0280 1.0270 1.0260
2053.619602 1.0250 1.0240 1.0225 1.0210 1.0200
2059.323049 1.0190 1.0200 1.0210 1.0220 1.0230
2065.026496 1.0235 1.0240 1.0250 1.0260 1.0260
2070.729943 1.0260 1.0270 1.0280 1.0280 1.0280
2076.433390 1.0270 1.0260 1.0270 1.0280 1.0280
2082.136837 1.0280 1.0280 1.0280 1.0280 1.0280
2087.840284 1.0280 1.0280 1.0280 1.0280 1.0280
2093.543731 1.0280 1.0290 1.0300 1.0300 1.0300
2099.247178 1.0290 1.0280 1.0280 1.0280 1.0280
2104.950625 1.0280 1.0280 1.0280 1.0280 1.0280
2110.654072 1.0271 1.0261 1.0270 1.0280 1.0280
2116.357518 1.0280 1.0280 1.0280 1.0280 1.0280
2122.060965 1.0280 1.0280 1.0280 1.0280 1.0280
2127.764412 1.0280 1.0289 1.0299 1.0300 1.0300
2133.467859 1.0291 1.0281 1.0280 1.0280 1.0280
2139.171306 1.0280 1.0271 1.0261 1.0260 1.0260
2144.874753 1.0260 1.0260 1.0260 1.0260 1.0260
2150.578200 1.0260 1.0260 1.0260 1.0260 1.0260
2156.281647 1.0260 1.0260 1.0260 1.0260 1.0251
2161.985094 1.0241 1.0240 1.0240 1.0240 1.0240
2167.688541 1.0240 1.0240 1.0240 1.0240 1.0240
2173.391988 1.0240 1.0240 1.0240 1.0240 1.0240
2179.095435 1.0235 1.0231 1.0230 1.0230 1.0230
2184.798882 1.0230 1.0230 1.0230 1.0230 1.0230
2190.502329 1.0230 1.0230 1.0221 1.0211 1.0210
2196.205776 1.0210 1.0210 1.0210 1.0210 1.0210
2201.909223 1.0210 1.0210 1.0210 1.0210 1.0210
2207.612670 1.0210 1.0210 1.0210 1.0210 1.0210
2213.316117 1.0210 1.0210 1.0210 1.0210 1.0201
2219.019564 1.0191 1.0190 1.0190 1.0190 1.0190
2224.723011 1.0190 1.0190 1.0190 1.0190 1.0190
2230.426458 1.0190 1.0190 1.0190 1.0190 1.0190
2236.129905 1.0190 1.0190 1.0190 1.0190 1.0190
2241.833352 1.0190 1.0190 1.0190 1.0199 1.0209
2247.536799 1.0201 1.0191 1.0190 1.0190 1.0181
2253.240246 1.0171 1.0170 1.0170 1.0161 1.0151
2258.943693 1.0146 1.0141 1.0140 1.0140 1.0122
2264.647140 1.0102 1.0087 1.0072 1.0070 1.0070
2270.350587 1.0061 1.0051 1.0050 1.0050 1.0041
2276.054034 1.0031 1.0030 1.0030 1.0021 1.0011
2281.757481 1.0006 1.0001 0.9991 0.9981 0.9980
2287.460928 0.9980 0.9980 0.9980 0.9980 0.9980
2293.164375 0.9971 0.9961 0.9960 0.9960 0.9960
2298.867822 0.9960 0.9960 0.9960 0.9960 0.9960
2304.571269 0.9960 0.9960 0.9960 0.9960 0.9951
2310.274716 0.9941 0.9940 0.9940 0.9940 0.9940
2315.978163 0.9949 0.9959 0.9960 0.9960 0.9969
2321.681610 0.9979 0.9989 0.9999 1.0000 1.0000
2327.385057 1.0000 1.0000 1.0004 1.0009 1.0019
2333.088504 1.0029 1.0030 1.0030 1.0039 1.0049
2338.791951 1.0050 1.0050 1.0059 1.0069 1.0070
2344.495398 1.0070 1.0074 1.0079 1.0080 1.0080
2350.198845 1.0089 1.0099 1.0100 1.0100 1.0109
2355.902292 1.0118 1.0120 1.0120 1.0128 1.0138
2361.605739 1.0140 1.0140 1.0140 1.0140 1.0140
2367.309186 1.0140 1.0144 1.0149 1.0150 1.0150
2373.012633 1.0150 1.0150 1.0150 1.0150 1.0150
2378.716080 1.0150 1.0158 1.0168 1.0170 1.0170
2384.419527 1.0162 1.0152 1.0150 1.0150 1.0158
2390.122974 1.0168 1.0170 1.0170 1.0170 1.0170
2395.826421 1.0170 1.0170 1.0170 1.0170 1.0170
2401.529868 1.0170 1.0178 1.0188 1.0190 1.0190
2407.233315 1.0190 1.0190 1.0182 1.0172 1.0170
2412.936762 1.0170 1.0170 1.0170 1.0170 1.0170
2418.640208 1.0170 1.0170 1.0170 1.0170 1.0170
2424.343655 1.0170 1.0170 1.0170 1.0170 1.0170
2430.047102 1.0162 1.0152 1.0150 1.0150 1.0158
2435.750549 1.0168 1.0170 1.0170 1.0170 1.0170
2441.453996 1.0170 1.0170 1.0170 1.0170 1.0170
2447.157443 1.0170 1.0170 1.0170 1.0170 1.0170
2452.860890 1.0170 1.0170 1.0162 1.0152 1.0150
2458.564337 1.0150 1.0150 1.0150 1.0150 1.0150
2464.267784 1.0150 1.0150 1.0150 1.0150 1.0158
2469.971231 1.0168 1.0170 1.0170 1.0162 1.0152
2475.674678 1.0150 1.0150 1.0150 1.0150 1.0150
2481.378125 1.0150 1.0158 1.0168 1.0170 1.0170
2487.081572 1.0162 1.0152 1.0150 1.0150 1.0150
2492.785019 1.0150 1.0150 1.0150 1.0150 1.0150
2498.488466 1.0150 1.0150 1.0150 1.0150 1.0130
2504.191913 1.0105 1.0120 1.0145 1.0146 1.0141
2509.895360 1.0140 1.0140 1.0140 1.0140 1.0132
2515.598807 1.0122 1.0112 1.0102 1.0100 1.0100
2521.302254 1.0108 1.0118 1.0128 1.0138 1.0140
2527.005701 1.0140 1.0140 1.0140 1.0144 1.0149
2532.709148 1.0150 1.0150 1.0150 1.0150 1.0150
2538.412595 1.0150 1.0146 1.0141 1.0140 1.0140
2544.116042 1.0140 1.0140 1.0132 1.0122 1.0120
2549.819489 1.0120 1.0120 1.0120 1.0120 1.0120
2555.522936 1.0120 1.0120 1.0120 1.0120 1.0120
2561.226383 1.0120 1.0120 1.0120 1.0120 1.0120
2566.929830 1.0113 1.0103 1.0100 1.0100 1.0100
2572.633277 1.0100 1.0100 1.0100 1.0100 1.0100
2578.336724 1.0100 1.0100 1.0108 1.0117 1.0120
2584.040171 1.0120 1.0120 1.0120 1.0120 1.0120
2589.743618 1.0120 1.0120 1.0120 1.0120 1.0120
2595.447065 1.0120 1.0112 1.0103 1.0100 1.0100
2601.150512 1.0100 1.0100 1.0115 1.0135 1.0133
2606.853959 1.0123 1.0120 1.0120 1.0120 1.0120
2612.557406 1.0127 1.0137 1.0140 1.0140 1.0140
2618.260853 1.0140 1.0140 1.0140 1.0140 1.0140
2623.964300 1.0140 1.0140 1.0140 1.0140 1.0140
2629.667747 1.0140 1.0140 1.0140 1.0144 1.0149
2635.371194 1.0146 1.0141 1.0140 1.0140 1.0140
2641.074641 1.0140 1.0140 1.0140 1.0140 1.0140
2646.778088 1.0140 1.0140 1.0140 1.0140 1.0140
2652.481535 1.0140 1.0133 1.0123 1.0120 1.0120
2658.184982 1.0120 1.0120 1.0120 1.0120 1.0127
2663.888429 1.0137 1.0133 1.0123 1.0120 1.0120
2669.591876 1.0120 1.0120 1.0120 1.0120 1.0120
2675.295323 1.0120 1.0120 1.0120 1.0120 1.0120
2680.998770 1.0120 1.0120 1.0120 1.0120 1.0120
2686.702217 1.0120 1.0120 1.0120 1.0120 1.0120
2692.405664 1.0120 1.0120 1.0120 1.0120 1.0120
2698.109111 1.0120 1.0120 1.0120 1.0120 1.0120
2703.812558 1.0120 1.0120 1.0113 1.0103 1.0100
2709.516005 1.0100 1.0100 1.0100 1.0100 1.0100
2715.219452 1.0100 1.0100 1.0100 1.0100 1.0100
2720.922898 1.0100 1.0100 1.0100 1.0100 1.0100
2726.626345 1.0100 1.0100 1.0100 1.0100 1.0100
2732.329792 1.0100 1.0107 1.0117 1.0120 1.0120
2738.033239 1.0120 1.0120 1.0120 1.0120 1.0120
2743.736686 1.0120 1.0120 1.0120 1.0120 1.0120
2749.440133 1.0120 1.0120 1.0120 1.0120 1.0113
2755.143580 1.0103 1.0100 1.0100 1.0100 1.0100
2760.847027 1.0100 1.0100 1.0100 1.0100 1.0100
2766.550474 1.0100 1.0100 1.0100 1.0100 1.0100
2772.253921 1.0107 1.0117 1.0120 1.0120 1.0120
2777.957368 1.0120 1.0120 1.0120 1.0120 1.0120
2783.660815 1.0107 1.0087 1.0080 1.0080 1.0080
2789.364262 1.0080 1.0087 1.0097 1.0100 1.0100
2795.067709 1.0107 1.0117 1.0120 1.0120 1.0120
2800.771156 1.0120 1.0120 1.0120 1.0113 1.0103
2806.474603 1.0093 1.0083 1.0080 1.0080 1.0087
2812.178050 1.0097 1.0100 1.0100 1.0100 1.0100
2817.881497 1.0094 1.0084 1.0080 1.0080 1.0087
2823.584944 1.0097 1.0100 1.0100 1.0100 1.0100
2829.288391 1.0100 1.0100 1.0100 1.0100 1.0100
2834.991838 1.0100 1.0100 1.0100 1.0100 1.0100
2840.695285 1.0100 1.0100 1.0090 1.0075 1.0070
2846.398732 1.0070 1.0070 1.0070 1.0073 1.0078
2852.102179 1.0080 1.0080 1.0080 1.0080 1.0080
2857.805626 1.0080 1.0086 1.0096 1.0106 1.0116
2863.509073 1.0114 1.0104 1.0100 1.0100 1.0100
2869.212520 1.0100 1.0100 1.0100 1.0100 1.0100
2874.915967 1.0100 1.0100 1.0100 1.0100 1.0100
2880.619414 1.0100 1.0100 1.0100 1.0100 1.0100
2886.322861 1.0100 1.0100 1.0094 1.0084 1.0080
2892.026308 1.0080 1.0080 1.0080 1.0077 1.0072
2897.729755 1.0070 1.0070 1.0064 1.0054 1.0050
2903.433202 1.0050 1.0038 1.0018 1.0010 1.0010
2909.136649 1.0007 1.0002 1.0000 1.0000 0.9994
2914.840096 0.9984 0.9980 0.9980 0.9980 0.9980
2920.543543 0.9986 0.9996 1.0003 1.0008 1.0010
2926.246990 1.0010 0.9995 0.9970 0.9948 0.9928
2931.950437 0.9869 0.9784 0.9738 0.9718 0.9710
2937.653884 0.9710 0.9716 0.9726 0.9730 0.9730
2943.357331 0.9736 0.9746 0.9750 0.9750 0.9750
2949.060778 0.9750 0.9750 0.9750 0.9744 0.9734
2954.764225 0.9730 0.9730 0.9724 0.9714 0.9704
2960.467672 0.9694 0.9696 0.9706 0.9722 0.9742
2966.171119 0.9771 0.9806 0.9835 0.9860 0.9903
2971.874566 0.9957 0.9980 0.9980 0.9980 0.9980
2977.578013 0.9980 0.9980 0.9980 0.9980 0.9980
2983.281460 0.9980 0.9980 0.9980 0.9980 0.9980
2988.984907 0.9986 0.9996 1.0000 1.0000 1.0000
2994.688354 1.0000 1.0000 1.0000 1.0000 1.0000
3000.391801 1.0003 1.0008 1.0010 1.0010 1.0010
3006.095248 1.0010 1.0010 1.0010 1.0016 1.0026
3011.798695 1.0030 1.0030 1.0030 1.0030 1.0030
3017.502142 1.0030 1.0024 1.0014 1.0010 1.0010
3023.205588 1.0010 1.0010 1.0010 1.0010 1.0010
3028.909035 1.0010 1.0010 1.0010 1.0010 1.0010
3034.612482 1.0010 1.0010 1.0010 1.0010 1.0010
3040.315929 1.0010 1.0007 1.0002 1.0000 1.0000
3046.019376 1.0000 1.0000 0.9994 0.9984 0.9963
3051.722823 0.9933 0.9920 0.9920 0.9912 0.9897
3057.426270 0.9879 0.9859 0.9847 0.9842 0.9834
3063.129717 0.9824 0.9790 0.9735 0.9705 0.9695
3068.833164 0.9690 0.9690 0.9690 0.9690 0.9707
3074.536611 0.9737 0.9758 0.9773 0.9791 0.9811
3080.240058 0.9828 0.9843 0.9886 0.9951 0.9980
3085.943505 0.9980 0.9985 0.9995 1.0000 1.0000
3091.646952 1.0003 1.0008 1.0010 1.0010 1.0010
3097.350399 1.0010 1.0010 1.0010 1.0015 1.0025
3103.053846 1.0030 1.0030 1.0035 1.0045 1.0050
3108.757293 1.0050 1.0055 1.0065 1.0065 1.0055
3114.460740 1.0055 1.0065 1.0073 1.0078 1.0080
3120.164187 1.0080 1.0080 1.0080 1.0080 1.0080
3125.867634 1.0080 1.0080 1.0080 1.0080 1.0080
3131.571081 1.0080 1.0080 1.0080 1.0080 1.0080
3137.274528 1.0077 1.0072 1.0070 1.0070 1.0073
3142.977975 1.0078 1.0080 1.0080 1.0080 1.0080
3148.681422 1.0080 1.0080 1.0080 1.0080 1.0080
3154.384869 1.0080 1.0080 1.0080 1.0080 1.0080
3160.088316 1.0080 1.0080 1.0080 1.0080 1.0080
3165.791763 1.0080 1.0080 1.0080 1.0080 1.0080
3171.495210 1.0080 1.0080 1.0080 1.0080 1.0080
3177.198657 1.0080 1.0085 1.0095 1.0100 1.0100
3182.902104 1.0100 1.0100 1.0095 1.0085 1.0080
3188.605551 1.0080 1.0080 1.0080 1.0080 1.0080
3194.308998 1.0080 1.0080 1.0080 1.0080 1.0085
3200.012445 1.0095 1.0105 1.0115 1.0120 1.0120
3205.715892 1.0120 1.0120 1.0125 1.0135 1.0143
3211.419339 1.0148 1.0155 1.0165 1.0170 1.0170
3217.122786 1.0170 1.0170 1.0170 1.0170 1.0170
3222.826233 1.0170 1.0170 1.0170 1.0170 1.0170
3228.529680 1.0170 1.0170 1.0170 1.0170 1.0170
3234.233127 1.0170 1.0170 1.0170 1.0175 1.0185
3239.936574 1.0190 1.0190 1.0190 1.0190 1.0190
3245.640021 1.0190 1.0190 1.0190 1.0190 1.0190
3251.343468 1.0190 1.0190 1.0185 1.0175 1.0170
3257.046915 1.0170 1.0170 1.0170 1.0170 1.0170
3262.750362 1.0175 1.0185 1.0190 1.0190 1.0190
3268.453809 1.0190 1.0190 1.0190 1.0190 1.0190
3274.157256 1.0190 1.0190 1.0190 1.0190 1.0190
3279.860703 1.0190 1.0190 1.0190 1.0195 1.0205
3285.564150 1.0215 1.0225 1.0230 1.0230 1.0230
3291.267597 1.0230 1.0230 1.0230 1.0230 1.0230
3296.971044 1.0230 1.0230 1.0230 1.0230 1.0230
3302.674491 1.0230 1.0225 1.0215 1.0210 1.0210
3308.377938 1.0210 1.0210 1.0210 1.0210 1.0210
3314.081385 1.0210 1.0210 1.0210 1.0210 1.0210
3319.784832 1.0210 1.0210 1.0210 1.0210 1.0205
3325.488278 1.0195 1.0190 1.0190 1.0190 1.0190
3331.191725 1.0195 1.0205 1.0210 1.0210 1.0206
3336.895172 1.0196 1.0190 1.0190 1.0190 1.0190
3342.598619 1.0190 1.0190 1.0194 1.0204 1.0210
3348.302066 1.0210 1.0210 1.0210 1.0210 1.0210
3354.005513 1.0206 1.0196 1.0190 1.0190 1.0190
3359.708960 1.0190 1.0194 1.0204 1.0210 1.0210
3365.412407 1.0206 1.0196 1.0190 1.0190 1.0190
3371.115854 1.0190 1.0186 1.0176 1.0170 1.0170
3376.819301 1.0170 1.0170 1.0170 1.0170 1.0174
3382.522748 1.0184 1.0190 1.0190 1.0190 1.0190
3388.226195 1.0190 1.0190 1.0190 1.0190 1.0190
3393.929642 1.0190 1.0190 1.0190 1.0190 1.0190
3399.633089 1.0190 1.0190 1.0190 1.0190 1.0190
3405.336536 1.0190 1.0190 1.0190 1.0190 1.0190
3411.039983 1.0190 1.0190 1.0194 1.0204 1.0206
3416.743430 1.0196 1.0190 1.0190 1.0190 1.0190
3422.446877 1.0190 1.0190 1.0190 1.0190 1.0190
3428.150324 1.0190 1.0190 1.0190 1.0190 1.0190
3433.853771 1.0190 1.0190 1.0182 1.0162 1.0150
3439.557218 1.0150 1.0150 1.0150 1.0150 1.0150
3445.260665 1.0148 1.0143 1.0140 1.0140 1.0140
3450.964112 1.0140 1.0136 1.0126 1.0120 1.0120
3456.667559 1.0120 1.0120 1.0120 1.0120 1.0120
3462.371006 1.0120 1.0120 1.0120 1.0120 1.0120
3468.074453 1.0120 1.0120 1.0120 1.0120 1.0124
3473.777900 1.0134 1.0140 1.0140 1.0140 1.0140
3479.481347 1.0140 1.0140 1.0140 1.0140 1.0140
3485.184794 1.0140 1.0140 1.0140 1.0140 1.0140
3490.888241 1.0136 1.0126 1.0120 1.0120 1.0120
3496.591688 1.0120 1.0120 1.0120 1.0120 1.0120
3502.295135 1.0120 1.0120 1.0120 1.0120 1.0120
3507.998582 1.0120 1.0120 1.0120 1.0120 1.0120
3513.702029 1.0120 1.0120 1.0120 1.0120 1.0116
3519.405476 1.0106 1.0100 1.0100 1.0100 1.0100
3525.108923 1.0100 1.0100 1.0100 1.0100 1.0104
3530.812370 1.0114 1.0120 1.0120 1.0120 1.0120
3536.515817 1.0120 1.0120 1.0120 1.0120 1.0120
3542.219264 1.0120 1.0120 1.0120 1.0120 1.0120
3547.922711 1.0116 1.0107 1.0100 1.0100 1.0100
3553.626158 1.0100 1.0100 1.0100 1.0100 1.0100
3559.329605 1.0100 1.0100 1.0100 1.0100 1.0100
3565.033052 1.0100 1.0100 1.0100 1.0103 1.0113
3570.736499 1.0117 1.0107 1.0100 1.0100 1.0100
3576.439946 1.0100 1.0104 1.0114 1.0120 1.0120
3582.143393 1.0116 1.0107 1.0100 1.0100 1.0097
3587.846840 1.0087 1.0080 1.0080 1.0075 1.0060
3593.550287 1.0050 1.0050 1.0050 1.0050 1.0050
3599.253734 1.0050 1.0050 1.0050 1.0050 1.0050
3604.957181 1.0050 1.0050 1.0050 1.0050 1.0050
3610.660628 1.0050 1.0050 1.0050 1.0050 1.0050
3616.364075 1.0050 1.0050 1.0050 1.0050 1.0050
3622.067522 1.0050 1.0050 1.0050 1.0050 1.0050
3627.770968 1.0050 1.0050 1.0050 1.0050 1.0050
3633.474415 1.0050 1.0050 1.0050 1.0050 1.0050
3639.177862 1.0050 1.0050 1.0050 1.0050 1.0050
3644.881309 1.0050 1.0050 1.0050 1.0050 1.0050
3650.584756 1.0050 1.0050 1.0050 1.0050 1.0050
3656.288203 1.0050 1.0050 1.0050 1.0050 1.0050
3661.991650 1.0050 1.0050 1.0050 1.0050 1.0050
3667.695097 1.0050 1.0050 1.0050 1.0050 1.0050
3673.398544 1.0050 1.0050 1.0050 1.0050 1.0050
3679.101991 1.0050 1.0050 1.0050 1.0050 1.0050
3684.805438 1.0050 1.0050 1.0050 1.0050 1.0050
3690.508885 1.0050 1.0050 1.0050 1.0050 1.0050
3696.212332 1.0050 1.0050 1.0050 1.0050 1.0050
3701.915779 1.0050 1.0050 1.0050 1.0050 1.0050
3707.619226 1.0050 1.0050 1.0050 1.0050 1.0050
3713.322673 1.0050 1.0050 1.0050 1.0050 1.0050
3719.026120 1.0050 1.0050 1.0050 1.0050 1.0050
3724.729567 1.0050 1.0047 1.0037 1.0030 1.0030
3730.433014 1.0030 1.0030 1.0030 1.0030 1.0030
3736.136461 1.0030 1.0030 1.0030 1.0030 1.0030
3741.839908 1.0030 1.0030 1.0030 1.0030 1.0030
3747.543355 1.0030 1.0030 1.0030 1.0030 1.0030
3753.246802 1.0030 1.0030 1.0030 1.0030 1.0030
3758.950249 1.0030 1.0030 1.0030 1.0030 1.0030
3764.653696 1.0030 1.0030 1.0030 1.0030 1.0030
3770.357143 1.0030 1.0030 1.0030 1.0030 1.0030
3776.060590 1.0030 1.0030 1.0028 1.0017 1.0010
3781.764037 1.0010 1.0010 1.0010 1.0010 1.0010
##END=
