##TITLE=SODIUM PYROPHOSPHATE
##JCAMP-DX=4.24
##DATA TYPE=INFRARED SPECTRUM
##CLASS=COBLENTZ III
##ORIGIN=PROCTER AND GAMBLE CO.
##OWNER=COBLENTZ SOCIETY
Collection (C) 2018 copyright by the U.S. Secretary of Commerce
on behalf of the United States of America. All rights reserved.
##DATE=Not specified, most likely prior to 1970
##MOLFORM=O7 P2 Na4
##SOURCE REFERENCE=COBLENTZ NO. 2079
##$NIST ID=B6002079
##$NIST SOURCE=COBLENTZ
##$NIST IMAGE=cob2079
##SPECTROMETER/DATA SYSTEM=PERKIN-ELMER 421 (GRATING)
##INSTRUMENT PARAMETERS=GRATING CHANGE AT 1999 CM^-^1
##STATE=SOLID (1.3 mg / 400 mg KBr PELLET)
##SAMPLING PROCEDURE=TRANSMISSION
##RESOLUTION=4
##DATA PROCESSING=DIGITIZED BY NIST FROM HARD COPY (FROM TWO SEGMENTS)
##XUNITS=1/CM
##YUNITS=TRANSMITTANCE
##XFACTOR=1.000000
##YFACTOR=1
##DELTAX=0.903955
##FIRSTX=497.627
##LASTX=4004.07
##FIRSTY=0.764
##MAXX=4004.07
##MINX=497.627
##MAXY=0.908919
##MINY=0.00600922
##NPOINTS=3880
##XYDATA=(X++(Y..Y))
497.627000 0.7640 0.7640 0.7640 0.7640 0.7640
502.146777 0.7640 0.7630 0.7630 0.7620 0.7600
506.666555 0.7600 0.7590 0.7580 0.7580 0.7560
511.186332 0.7560 0.7580 0.7580 0.7590 0.7590
515.706109 0.7580 0.7580 0.7590 0.7590 0.7590
520.225887 0.7550 0.7540 0.7540 0.7520 0.7510
524.745664 0.7480 0.7450 0.7430 0.7400 0.7370
529.265442 0.7350 0.7320 0.7290 0.7250 0.7190
533.785219 0.7150 0.7130 0.7110 0.7010 0.6940
538.304996 0.6850 0.6740 0.6630 0.6451 0.6380
542.824774 0.6300 0.6100 0.5900 0.5591 0.5331
547.344551 0.5141 0.4851 0.4541 0.3993 0.3722
551.864328 0.3440 0.3190 0.2970 0.2840 0.2720
556.384106 0.2501 0.2251 0.2081 0.1941 0.1801
560.903883 0.1740 0.1730 0.1730 0.1730 0.1740
565.423661 0.1810 0.1850 0.1880 0.1920 0.1960
569.943438 0.1970 0.1970 0.1960 0.1940 0.1940
574.463215 0.1970 0.2010 0.2080 0.2199 0.2359
578.982993 0.2860 0.3220 0.3639 0.3810 0.4239
583.502770 0.4729 0.4939 0.5199 0.5469 0.5758
588.022547 0.5980 0.6629 0.6810 0.6920 0.6980
592.542325 0.7110 0.7289 0.7409 0.7549 0.7659
597.062102 0.7790 0.7950 0.7980 0.8070 0.8090
601.581880 0.8100 0.8100 0.8130 0.8130 0.8090
606.101657 0.8070 0.8030 0.7950 0.7711 0.7540
610.621434 0.7311 0.7061 0.7000 0.7000 0.7169
615.141212 0.7410 0.7600 0.7900 0.8339 0.8410
619.660989 0.8490 0.8560 0.8600 0.8650 0.8730
624.180766 0.8750 0.8760 0.8790 0.8800 0.8810
628.700544 0.8830 0.8840 0.8840 0.8850 0.8880
633.220321 0.8910 0.8910 0.8920 0.8920 0.8920
637.740098 0.8920 0.8930 0.8930 0.8930 0.8950
642.259876 0.8960 0.8960 0.8970 0.8970 0.8990
646.779653 0.8990 0.8990 0.9000 0.9000 0.8990
651.299431 0.8990 0.8990 0.8990 0.8990 0.9000
655.819208 0.9000 0.9000 0.9000 0.8990 0.8990
660.338985 0.9000 0.9000 0.8990 0.8990 0.8970
664.858763 0.8960 0.8960 0.8990 0.9000 0.9000
669.378540 0.9000 0.9000 0.9000 0.8990 0.8990
673.898317 0.8990 0.8990 0.8990 0.8970 0.8960
678.418095 0.8960 0.8960 0.8960 0.8960 0.8960
682.937872 0.8950 0.8950 0.8950 0.8930 0.8930
687.457650 0.8920 0.8880 0.8850 0.8810 0.8770
691.977427 0.8750 0.8700 0.8680 0.8680 0.8660
696.497204 0.8680 0.8680 0.8700 0.8720 0.8730
701.016982 0.8730 0.8750 0.8760 0.8760 0.8730
705.536759 0.8720 0.8700 0.8690 0.8680 0.8680
710.056536 0.8650 0.8570 0.8540 0.8480 0.8460
714.576314 0.8410 0.8340 0.8330 0.8270 0.8210
719.096091 0.8140 0.7951 0.7870 0.7780 0.7631
723.615869 0.7320 0.7050 0.6780 0.6501 0.6380
728.135646 0.6250 0.5762 0.4655 0.4162 0.3683
732.655423 0.3440 0.3410 0.3440 0.3770 0.4069
737.175201 0.4738 0.5099 0.5489 0.6625 0.7078
741.694978 0.7330 0.7560 0.7750 0.7930 0.8209
746.214755 0.8330 0.8420 0.8500 0.8540 0.8620
750.734533 0.8660 0.8660 0.8680 0.8720 0.8760
755.254310 0.8770 0.8800 0.8830 0.8830 0.8830
759.774088 0.8850 0.8880 0.8910 0.8910 0.8920
764.293865 0.8920 0.8920 0.8930 0.8930 0.8950
768.813642 0.8950 0.8950 0.8960 0.8960 0.8970
773.333420 0.8970 0.8970 0.8970 0.8970 0.8970
777.853197 0.8970 0.8970 0.8970 0.8970 0.8970
782.372974 0.8970 0.8970 0.8970 0.8970 0.8970
786.892752 0.8960 0.8960 0.8950 0.8950 0.8950
791.412529 0.8950 0.8950 0.8950 0.8950 0.8950
795.932306 0.8960 0.8960 0.8960 0.8960 0.8950
800.452084 0.8930 0.8930 0.8930 0.8920 0.8920
804.971861 0.8920 0.8920 0.8920 0.8930 0.8930
809.491639 0.8930 0.8930 0.8950 0.8960 0.8960
814.011416 0.8960 0.8960 0.8950 0.8930 0.8920
818.531193 0.8910 0.8910 0.8890 0.8890 0.8880
823.050971 0.8870 0.8850 0.8840 0.8840 0.8830
827.570748 0.8790 0.8770 0.8760 0.8760 0.8750
832.090525 0.8750 0.8730 0.8700 0.8690 0.8660
836.610303 0.8650 0.8620 0.8610 0.8610 0.8600
841.130080 0.8600 0.8540 0.8520 0.8460 0.8440
845.649858 0.8440 0.8420 0.8420 0.8410 0.8370
850.169635 0.8310 0.8290 0.8250 0.8220 0.8210
854.689412 0.8180 0.8170 0.8150 0.8150 0.8140
859.209190 0.8130 0.8110 0.8100 0.8050 0.7980
863.728967 0.7950 0.7870 0.7840 0.7820 0.7750
868.248744 0.7710 0.7660 0.7620 0.7580 0.7510
872.768522 0.7400 0.7330 0.7240 0.7131 0.7041
877.288299 0.6920 0.6770 0.6630 0.6450 0.6390
881.808077 0.6340 0.6290 0.6111 0.5951 0.5771
886.327854 0.5590 0.5410 0.5160 0.4861 0.4661
890.847631 0.4550 0.4430 0.4221 0.3951 0.3681
895.367409 0.3440 0.3250 0.2980 0.2800 0.2710
899.887186 0.2600 0.2201 0.2061 0.1931 0.1821
904.406963 0.1700 0.1580 0.1430 0.1310 0.1230
908.926741 0.1070 0.1000 0.0980 0.0950 0.0841
913.446518 0.0790 0.0690 0.0610 0.0550 0.0490
917.966295 0.0470 0.0440 0.0430 0.0410 0.0430
922.486073 0.0430 0.0450 0.0470 0.0560 0.0640
927.005850 0.0670 0.0720 0.0800 0.1118 0.1299
931.525628 0.1460 0.1620 0.1780 0.2040 0.2250
936.045405 0.2450 0.2859 0.3069 0.3259 0.3459
940.565182 0.3660 0.3870 0.4050 0.4260 0.4649
945.084960 0.4849 0.5039 0.5160 0.5299 0.5409
949.604737 0.5590 0.5800 0.6000 0.6180 0.6250
954.124514 0.6330 0.6430 0.6470 0.6530 0.6570
958.644292 0.6650 0.6730 0.6760 0.6780 0.6850
963.164069 0.6940 0.6980 0.7010 0.7080 0.7090
967.683847 0.7120 0.7150 0.7150 0.7160 0.7160
972.203624 0.7150 0.7150 0.7150 0.7130 0.7120
976.723401 0.7110 0.7090 0.6890 0.6620 0.5941
981.243179 0.5242 0.4542 0.3504 0.2474 0.2390
985.762956 0.3210 0.3950 0.5039 0.5489 0.5799
990.282733 0.5900 0.5920 0.6079 0.6796 0.7148
994.802511 0.7410 0.7620 0.7700 0.7780 0.7820
999.322288 0.7930 0.7940 0.7950 0.7950 0.7970
1003.842066 0.7970 0.7970 0.7970 0.7950 0.7950
1008.361843 0.7930 0.7880 0.7830 0.7820 0.7760
1012.881620 0.7710 0.7640 0.7630 0.7600 0.7580
1017.401398 0.7520 0.7350 0.7151 0.6901 0.6542
1021.921175 0.6160 0.4811 0.4350 0.3881 0.3271
1026.440952 0.2911 0.3309 0.3698 0.5293 0.5827
1030.960730 0.6530 0.6960 0.7170 0.7350 0.7520
1035.480507 0.7590 0.7660 0.7700 0.7750 0.7780
1040.000285 0.7790 0.7800 0.7800 0.7800 0.7800
1044.520062 0.7790 0.7780 0.7780 0.7780 0.7760
1049.039839 0.7740 0.7720 0.7710 0.7700 0.7660
1053.559617 0.7640 0.7620 0.7620 0.7600 0.7590
1058.079394 0.7580 0.7540 0.7470 0.7430 0.7390
1062.599171 0.7360 0.7330 0.7310 0.7270 0.7250
1067.118949 0.7240 0.7240 0.7230 0.7150 0.7090
1071.638726 0.6980 0.6900 0.6880 0.6840 0.6780
1076.158503 0.6730 0.6660 0.6590 0.6530 0.6460
1080.678281 0.6410 0.6350 0.6340 0.6230 0.6160
1085.198058 0.6060 0.5920 0.5800 0.5730 0.5630
1089.717836 0.5520 0.5400 0.5281 0.5131 0.4981
1094.237613 0.4850 0.4710 0.4650 0.4560 0.4400
1098.757390 0.4220 0.3791 0.3611 0.3481 0.3271
1103.277168 0.3030 0.2910 0.2790 0.2520 0.2251
1107.796945 0.1971 0.1701 0.1431 0.1181 0.1081
1112.316722 0.1000 0.0920 0.0720 0.0520 0.0370
1116.836500 0.0290 0.0200 0.0120 0.0080 0.0060
1121.356277 0.0090 0.0090 0.0100 0.0100 0.0100
1125.876055 0.0100 0.0100 0.0100 0.0100 0.0100
1130.395832 0.0100 0.0100 0.0100 0.0100 0.0100
1134.915609 0.0120 0.0120 0.0120 0.0120 0.0120
1139.435387 0.0120 0.0120 0.0120 0.0120 0.0120
1143.955164 0.0120 0.0120 0.0120 0.0120 0.0120
1148.474941 0.0120 0.0120 0.0120 0.0130 0.0130
1152.994719 0.0130 0.0140 0.0160 0.0170 0.0170
1157.514496 0.0170 0.0170 0.0170 0.0180 0.0200
1162.034274 0.0290 0.0320 0.0340 0.0469 0.0629
1166.554051 0.1000 0.1160 0.1250 0.1260 0.1270
1171.073828 0.1370 0.1679 0.1959 0.2269 0.2827
1175.593606 0.3090 0.3290 0.3490 0.3610 0.3890
1180.113383 0.4040 0.4190 0.4320 0.4469 0.4689
1184.633160 0.4790 0.4900 0.5010 0.5080 0.5220
1189.152938 0.5320 0.5440 0.5550 0.5630 0.5640
1193.672715 0.5650 0.5670 0.5710 0.5730 0.5860
1198.192492 0.6000 0.6179 0.6310 0.6489 0.6540
1202.712270 0.6630 0.6660 0.6720 0.6760 0.6800
1207.232047 0.6820 0.6850 0.6920 0.6960 0.6980
1211.751825 0.7010 0.7020 0.7080 0.7110 0.7130
1216.271602 0.7190 0.7230 0.7240 0.7250 0.7250
1220.791379 0.7270 0.7280 0.7310 0.7320 0.7330
1225.311157 0.7350 0.7360 0.7390 0.7410 0.7450
1229.830934 0.7470 0.7480 0.7500 0.7520 0.7540
1234.350711 0.7560 0.7560 0.7590 0.7590 0.7590
1238.870489 0.7600 0.7630 0.7660 0.7670 0.7670
1243.390266 0.7680 0.7700 0.7700 0.7720 0.7740
1247.910044 0.7750 0.7780 0.7780 0.7790 0.7800
1252.429821 0.7800 0.7830 0.7870 0.7880 0.7880
1256.949598 0.7900 0.7910 0.7930 0.7940 0.7950
1261.469376 0.7950 0.7970 0.7970 0.7980 0.7990
1265.989153 0.8010 0.8020 0.8020 0.8020 0.8020
1270.508930 0.8020 0.8020 0.8050 0.8060 0.8070
1275.028708 0.8090 0.8110 0.8130 0.8130 0.8140
1279.548485 0.8140 0.8150 0.8150 0.8150 0.8150
1284.068263 0.8140 0.8150 0.8150 0.8170 0.8170
1288.588040 0.8180 0.8210 0.8210 0.8220 0.8220
1293.107817 0.8220 0.8220 0.8220 0.8230 0.8230
1297.627595 0.8260 0.8270 0.8290 0.8290 0.8300
1302.147372 0.8300 0.8300 0.8300 0.8300 0.8310
1306.667149 0.8310 0.8300 0.8300 0.8310 0.8310
1311.186927 0.8330 0.8330 0.8330 0.8340 0.8360
1315.706704 0.8360 0.8360 0.8370 0.8370 0.8380
1320.226481 0.8370 0.8380 0.8380 0.8380 0.8380
1324.746259 0.8400 0.8400 0.8380 0.8370 0.8370
1329.266036 0.8370 0.8380 0.8380 0.8380 0.8400
1333.785814 0.8400 0.8410 0.8410 0.8410 0.8400
1338.305591 0.8410 0.8420 0.8420 0.8410 0.8420
1342.825368 0.8420 0.8440 0.8440 0.8440 0.8440
1347.345146 0.8440 0.8450 0.8420 0.8440 0.8440
1351.864923 0.8440 0.8440 0.8420 0.8440 0.8440
1356.384700 0.8440 0.8440 0.8440 0.8450 0.8450
1360.904478 0.8450 0.8450 0.8450 0.8450 0.8450
1365.424255 0.8450 0.8450 0.8450 0.8440 0.8420
1369.944033 0.8440 0.8420 0.8410 0.8410 0.8410
1374.463810 0.8420 0.8420 0.8440 0.8440 0.8440
1378.983587 0.8440 0.8440 0.8440 0.8440 0.8440
1383.503365 0.8450 0.8460 0.8480 0.8480 0.8490
1388.023142 0.8490 0.8490 0.8500 0.8500 0.8500
1392.542919 0.8490 0.8490 0.8500 0.8500 0.8500
1397.062697 0.8520 0.8520 0.8530 0.8530 0.8520
1401.582474 0.8520 0.8520 0.8530 0.8530 0.8530
1406.102252 0.8530 0.8530 0.8530 0.8530 0.8530
1410.622029 0.8530 0.8530 0.8520 0.8520 0.8520
1415.141806 0.8520 0.8530 0.8530 0.8530 0.8530
1419.661584 0.8530 0.8530 0.8520 0.8520 0.8520
1424.181361 0.8500 0.8520 0.8490 0.8480 0.8480
1428.701138 0.8500 0.8520 0.8500 0.8500 0.8490
1433.220916 0.8490 0.8490 0.8500 0.8500 0.8500
1437.740693 0.8520 0.8490 0.8480 0.8460 0.8450
1442.260471 0.8450 0.8440 0.8440 0.8420 0.8420
1446.780248 0.8410 0.8410 0.8410 0.8400 0.8400
1451.300025 0.8410 0.8410 0.8420 0.8440 0.8460
1455.819803 0.8480 0.8490 0.8500 0.8500 0.8520
1460.339580 0.8520 0.8520 0.8520 0.8520 0.8520
1464.859357 0.8520 0.8520 0.8520 0.8520 0.8500
1469.379135 0.8520 0.8520 0.8520 0.8530 0.8530
1473.898912 0.8530 0.8530 0.8530 0.8530 0.8520
1478.418689 0.8520 0.8520 0.8520 0.8520 0.8520
1482.938467 0.8520 0.8520 0.8520 0.8520 0.8520
1487.458244 0.8540 0.8540 0.8500 0.8500 0.8520
1491.978022 0.8520 0.8520 0.8530 0.8530 0.8540
1496.497799 0.8540 0.8560 0.8560 0.8580 0.8580
1501.017576 0.8560 0.8540 0.8530 0.8530 0.8530
1505.537354 0.8530 0.8540 0.8560 0.8560 0.8570
1510.057131 0.8570 0.8570 0.8570 0.8570 0.8570
1514.576908 0.8570 0.8580 0.8580 0.8580 0.8570
1519.096686 0.8580 0.8580 0.8580 0.8600 0.8600
1523.616463 0.8600 0.8600 0.8600 0.8580 0.8580
1528.136241 0.8580 0.8600 0.8610 0.8610 0.8620
1532.656018 0.8620 0.8620 0.8620 0.8600 0.8600
1537.175795 0.8610 0.8610 0.8610 0.8620 0.8620
1541.695573 0.8620 0.8620 0.8620 0.8620 0.8620
1546.215350 0.8620 0.8620 0.8620 0.8620 0.8610
1550.735127 0.8600 0.8600 0.8530 0.8420 0.8420
1555.254905 0.8580 0.8580 0.8570 0.8570 0.8560
1559.774682 0.8570 0.8570 0.8570 0.8570 0.8570
1564.294460 0.8570 0.8570 0.8570 0.8570 0.8570
1568.814237 0.8560 0.8570 0.8570 0.8570 0.8570
1573.334014 0.8560 0.8540 0.8540 0.8560 0.8570
1577.853792 0.8570 0.8570 0.8570 0.8560 0.8560
1582.373569 0.8560 0.8560 0.8540 0.8560 0.8560
1586.893346 0.8560 0.8540 0.8540 0.8520 0.8500
1591.413124 0.8460 0.8440 0.8420 0.8410 0.8410
1595.932901 0.8410 0.8410 0.8420 0.8420 0.8410
1600.452678 0.8410 0.8400 0.8400 0.8400 0.8380
1604.972456 0.8380 0.8370 0.8370 0.8360 0.8360
1609.492233 0.8340 0.8340 0.8340 0.8330 0.8340
1614.012011 0.8340 0.8340 0.8330 0.8330 0.8310
1618.531788 0.8310 0.8330 0.8340 0.8340 0.8360
1623.051565 0.8360 0.8360 0.8370 0.8370 0.8380
1627.571343 0.8400 0.8400 0.8410 0.8400 0.8400
1632.091120 0.8380 0.8380 0.8380 0.8400 0.8450
1636.610897 0.8460 0.8460 0.8460 0.8480 0.8480
1641.130675 0.8460 0.8460 0.8460 0.8460 0.8460
1645.650452 0.8460 0.8480 0.8490 0.8520 0.8530
1650.170230 0.8530 0.8540 0.8540 0.8540 0.8540
1654.690007 0.8540 0.8540 0.8530 0.8540 0.8540
1659.209784 0.8560 0.8570 0.8570 0.8570 0.8560
1663.729562 0.8570 0.8570 0.8580 0.8580 0.8580
1668.249339 0.8580 0.8580 0.8580 0.8580 0.8580
1672.769116 0.8580 0.8570 0.8580 0.8580 0.8580
1677.288894 0.8580 0.8580 0.8580 0.8600 0.8600
1681.808671 0.8600 0.8610 0.8640 0.8640 0.8650
1686.328449 0.8640 0.8640 0.8640 0.8650 0.8650
1690.848226 0.8650 0.8650 0.8650 0.8650 0.8650
1695.368003 0.8650 0.8650 0.8640 0.8640 0.8680
1699.887781 0.8680 0.8680 0.8680 0.8680 0.8660
1704.407558 0.8660 0.8650 0.8650 0.8650 0.8650
1708.927335 0.8640 0.8620 0.8610 0.8610 0.8610
1713.447113 0.8600 0.8600 0.8580 0.8580 0.8580
1717.966890 0.8580 0.8580 0.8580 0.8580 0.8600
1722.486667 0.8600 0.8610 0.8610 0.8610 0.8610
1727.006445 0.8610 0.8610 0.8620 0.8620 0.8620
1731.526222 0.8620 0.8620 0.8620 0.8620 0.8620
1736.046000 0.8640 0.8650 0.8660 0.8660 0.8680
1740.565777 0.8680 0.8680 0.8690 0.8690 0.8690
1745.085554 0.8700 0.8700 0.8720 0.8730 0.8730
1749.605332 0.8730 0.8720 0.8720 0.8720 0.8730
1754.125109 0.8730 0.8750 0.8770 0.8770 0.8790
1758.644886 0.8800 0.8800 0.8800 0.8810 0.8810
1763.164664 0.8810 0.8810 0.8830 0.8810 0.8800
1767.684441 0.8810 0.8810 0.8810 0.8810 0.8830
1772.204219 0.8830 0.8810 0.8830 0.8830 0.8830
1776.723996 0.8830 0.8840 0.8840 0.8840 0.8840
1781.243773 0.8840 0.8840 0.8840 0.8840 0.8840
1785.763551 0.8830 0.8810 0.8810 0.8810 0.8810
1790.283328 0.8810 0.8810 0.8810 0.8810 0.8810
1794.803105 0.8810 0.8810 0.8810 0.8830 0.8840
1799.322883 0.8840 0.8830 0.8840 0.8840 0.8840
1803.842660 0.8850 0.8850 0.8840 0.8840 0.8840
1808.362438 0.8840 0.8830 0.8840 0.8840 0.8830
1812.882215 0.8830 0.8810 0.8810 0.8810 0.8810
1817.401992 0.8810 0.8810 0.8810 0.8810 0.8810
1821.921770 0.8810 0.8810 0.8810 0.8810 0.8810
1826.441547 0.8810 0.8810 0.8810 0.8830 0.8840
1830.961324 0.8840 0.8840 0.8840 0.8840 0.8840
1835.481102 0.8840 0.8830 0.8830 0.8830 0.8810
1840.000879 0.8830 0.8830 0.8830 0.8830 0.8840
1844.520657 0.8840 0.8850 0.8850 0.8850 0.8850
1849.040434 0.8850 0.8850 0.8850 0.8850 0.8850
1853.560211 0.8840 0.8840 0.8840 0.8840 0.8840
1858.079989 0.8850 0.8850 0.8850 0.8850 0.8850
1862.599766 0.8850 0.8850 0.8850 0.8850 0.8850
1867.119543 0.8840 0.8840 0.8830 0.8840 0.8840
1871.639321 0.8840 0.8840 0.8840 0.8840 0.8850
1876.159098 0.8850 0.8850 0.8850 0.8850 0.8850
1880.678875 0.8850 0.8850 0.8850 0.8850 0.8850
1885.198653 0.8850 0.8840 0.8840 0.8840 0.8840
1889.718430 0.8840 0.8840 0.8840 0.8840 0.8840
1894.238208 0.8840 0.8850 0.8870 0.8870 0.8880
1898.757985 0.8880 0.8880 0.8870 0.8870 0.8870
1903.277762 0.8870 0.8870 0.8870 0.8870 0.8870
1907.797540 0.8850 0.8870 0.8870 0.8870 0.8870
1912.317317 0.8870 0.8870 0.8870 0.8850 0.8850
1916.837094 0.8840 0.8840 0.8850 0.8850 0.8870
1921.356872 0.8870 0.8870 0.8870 0.8870 0.8870
1925.876649 0.8870 0.8870 0.8870 0.8870 0.8870
1930.396427 0.8870 0.8870 0.8870 0.8870 0.8870
1934.916204 0.8850 0.8850 0.8850 0.8850 0.8850
1939.435981 0.8850 0.8850 0.8850 0.8850 0.8850
1943.955759 0.8850 0.8850 0.8870 0.8870 0.8870
1948.475536 0.8880 0.8880 0.8890 0.8890 0.8890
1952.995313 0.8890 0.8890 0.8890 0.8890 0.8890
1957.515091 0.8890 0.8890 0.8880 0.8880 0.8880
1962.034868 0.8880 0.8880 0.8880 0.8870 0.8870
1966.554646 0.8850 0.8850 0.8840 0.8840 0.8830
1971.074423 0.8840 0.8840 0.8850 0.8870 0.8870
1975.594200 0.8890 0.8890 0.8890 0.8890 0.8890
1980.113978 0.8890 0.8890 0.8880 0.8880 0.8880
1984.633755 0.8870 0.8870 0.8870 0.8870 0.8870
1989.153532 0.8870 0.8870 0.8870 0.8870 0.8870
1993.673310 0.8870 0.8870 0.8850 0.8850 0.8731
1998.193087 0.8560 0.8340 0.8290 0.8354 0.8418
2002.712864 0.8493 0.8577 0.8661 0.8737 0.8813
2007.232642 0.8854 0.8862 0.8870 0.8874 0.8878
2011.752419 0.8880 0.8880 0.8880 0.8884 0.8888
2016.272197 0.8894 0.8902 0.8910 0.8910 0.8910
2020.791974 0.8910 0.8910 0.8910 0.8910 0.8910
2025.311751 0.8910 0.8910 0.8910 0.8910 0.8910
2029.831529 0.8910 0.8910 0.8910 0.8910 0.8910
2034.351306 0.8910 0.8910 0.8910 0.8910 0.8910
2038.871083 0.8910 0.8910 0.8909 0.8901 0.8893
2043.390861 0.8890 0.8890 0.8890 0.8890 0.8890
2047.910638 0.8890 0.8890 0.8889 0.8885 0.8881
2052.430416 0.8877 0.8873 0.8868 0.8860 0.8852
2056.950193 0.8856 0.8864 0.8870 0.8870 0.8870
2061.469970 0.8864 0.8856 0.8850 0.8850 0.8850
2065.989748 0.8847 0.8843 0.8841 0.8845 0.8849
2070.509525 0.8847 0.8843 0.8840 0.8840 0.8840
2075.029302 0.8840 0.8840 0.8840 0.8840 0.8840
2079.549080 0.8840 0.8840 0.8839 0.8835 0.8831
2084.068857 0.8830 0.8830 0.8828 0.8820 0.8812
2088.588635 0.8810 0.8810 0.8810 0.8810 0.8810
2093.108412 0.8810 0.8810 0.8809 0.8805 0.8801
2097.628189 0.8800 0.8800 0.8800 0.8800 0.8800
2102.147967 0.8803 0.8807 0.8810 0.8810 0.8810
2106.667744 0.8810 0.8810 0.8813 0.8821 0.8829
2111.187521 0.8830 0.8830 0.8832 0.8836 0.8840
2115.707299 0.8840 0.8840 0.8840 0.8840 0.8840
2120.227076 0.8844 0.8848 0.8850 0.8850 0.8850
2124.746854 0.8850 0.8850 0.8850 0.8850 0.8850
2129.266631 0.8850 0.8850 0.8850 0.8850 0.8850
2133.786408 0.8850 0.8850 0.8854 0.8862 0.8870
2138.306186 0.8862 0.8854 0.8850 0.8850 0.8850
2142.825963 0.8850 0.8850 0.8850 0.8850 0.8850
2147.345740 0.8858 0.8866 0.8870 0.8870 0.8870
2151.865518 0.8870 0.8870 0.8872 0.8876 0.8880
2156.385295 0.8884 0.8888 0.8890 0.8890 0.8890
2160.905072 0.8890 0.8890 0.8890 0.8890 0.8890
2165.424850 0.8890 0.8890 0.8890 0.8890 0.8890
2169.944627 0.8890 0.8890 0.8895 0.8903 0.8910
2174.464405 0.8910 0.8910 0.8910 0.8910 0.8910
2178.984182 0.8910 0.8910 0.8910 0.8910 0.8910
2183.503959 0.8910 0.8910 0.8910 0.8910 0.8910
2188.023737 0.8910 0.8910 0.8910 0.8910 0.8910
2192.543514 0.8910 0.8910 0.8910 0.8910 0.8908
2197.063291 0.8900 0.8892 0.8899 0.8911 0.8920
2201.583069 0.8920 0.8920 0.8917 0.8913 0.8910
2206.102846 0.8910 0.8910 0.8910 0.8910 0.8910
2210.622624 0.8910 0.8910 0.8910 0.8910 0.8910
2215.142401 0.8910 0.8910 0.8910 0.8910 0.8910
2219.662178 0.8910 0.8910 0.8913 0.8917 0.8920
2224.181956 0.8920 0.8920 0.8920 0.8920 0.8920
2228.701733 0.8920 0.8920 0.8920 0.8920 0.8920
2233.221510 0.8920 0.8920 0.8920 0.8920 0.8920
2237.741288 0.8920 0.8920 0.8920 0.8920 0.8920
2242.261065 0.8920 0.8920 0.8920 0.8920 0.8920
2246.780843 0.8920 0.8920 0.8920 0.8920 0.8920
2251.300620 0.8920 0.8920 0.8920 0.8920 0.8920
2255.820397 0.8920 0.8920 0.8920 0.8920 0.8920
2260.340175 0.8920 0.8920 0.8908 0.8896 0.8890
2264.859952 0.8890 0.8890 0.8890 0.8890 0.8890
2269.379729 0.8890 0.8890 0.8890 0.8890 0.8890
2273.899507 0.8890 0.8890 0.8898 0.8906 0.8910
2278.419284 0.8910 0.8910 0.8914 0.8918 0.8920
2282.939061 0.8920 0.8920 0.8920 0.8920 0.8920
2287.458839 0.8920 0.8920 0.8920 0.8920 0.8920
2291.978616 0.8920 0.8920 0.8920 0.8920 0.8920
2296.498394 0.8920 0.8920 0.8920 0.8920 0.8920
2301.018171 0.8920 0.8920 0.8920 0.8920 0.8920
2305.537948 0.8920 0.8919 0.8915 0.8911 0.8910
2310.057726 0.8910 0.8911 0.8915 0.8919 0.8920
2314.577503 0.8920 0.8921 0.8925 0.8929 0.8930
2319.097280 0.8930 0.8929 0.8925 0.8921 0.8920
2323.617058 0.8920 0.8921 0.8925 0.8929 0.8930
2328.136835 0.8930 0.8930 0.8930 0.8930 0.8930
2332.656613 0.8930 0.8930 0.8930 0.8930 0.8930
2337.176390 0.8930 0.8930 0.8930 0.8930 0.8930
2341.696167 0.8930 0.8930 0.8930 0.8930 0.8930
2346.215945 0.8930 0.8930 0.8930 0.8930 0.8930
2350.735722 0.8930 0.8930 0.8930 0.8930 0.8930
2355.255499 0.8930 0.8930 0.8930 0.8930 0.8930
2359.775277 0.8930 0.8933 0.8941 0.8949 0.8950
2364.295054 0.8950 0.8950 0.8950 0.8950 0.8950
2368.814832 0.8950 0.8950 0.8950 0.8950 0.8950
2373.334609 0.8950 0.8950 0.8950 0.8950 0.8950
2377.854386 0.8950 0.8950 0.8950 0.8950 0.8950
2382.374164 0.8950 0.8950 0.8950 0.8950 0.8950
2386.893941 0.8950 0.8950 0.8950 0.8950 0.8950
2391.413718 0.8950 0.8950 0.8950 0.8950 0.8950
2395.933496 0.8950 0.8950 0.8950 0.8950 0.8950
2400.453273 0.8950 0.8950 0.8950 0.8950 0.8942
2404.973050 0.8934 0.8930 0.8930 0.8930 0.8930
2409.492828 0.8930 0.8930 0.8930 0.8930 0.8930
2414.012605 0.8930 0.8930 0.8930 0.8930 0.8930
2418.532383 0.8930 0.8930 0.8930 0.8930 0.8930
2423.052160 0.8930 0.8930 0.8930 0.8930 0.8930
2427.571937 0.8930 0.8928 0.8924 0.8920 0.8920
2432.091715 0.8920 0.8920 0.8920 0.8920 0.8925
2436.611492 0.8929 0.8930 0.8930 0.8930 0.8930
2441.131269 0.8930 0.8935 0.8943 0.8951 0.8955
2445.651047 0.8959 0.8960 0.8960 0.8961 0.8965
2450.170824 0.8969 0.8970 0.8970 0.8970 0.8970
2454.690602 0.8970 0.8976 0.8984 0.8990 0.8990
2459.210379 0.8990 0.8990 0.8990 0.8991 0.8995
2463.730156 0.8999 0.9000 0.9000 0.9001 0.9005
2468.249934 0.9009 0.9010 0.9010 0.9010 0.9010
2472.769711 0.9010 0.9016 0.9024 0.9032 0.9040
2477.289488 0.9048 0.9059 0.9071 0.9081 0.9085
2481.809266 0.9089 0.9087 0.9083 0.9075 0.9059
2486.329043 0.9043 0.9027 0.9011 0.8991 0.8963
2490.848821 0.8935 0.8917 0.8901 0.8890 0.8890
2495.368598 0.8890 0.8890 0.8890 0.8893 0.8901
2499.888375 0.8909 0.8913 0.8918 0.8920 0.8920
2504.408153 0.8920 0.8920 0.8920 0.8920 0.8920
2508.927930 0.8920 0.8920 0.8920 0.8918 0.8914
2513.447707 0.8910 0.8914 0.8918 0.8920 0.8920
2517.967485 0.8920 0.8920 0.8920 0.8920 0.8920
2522.487262 0.8920 0.8924 0.8928 0.8930 0.8930
2527.007040 0.8930 0.8926 0.8922 0.8920 0.8920
2531.526817 0.8920 0.8920 0.8920 0.8920 0.8920
2536.046594 0.8920 0.8920 0.8920 0.8920 0.8920
2540.566372 0.8920 0.8916 0.8912 0.8910 0.8910
2545.086149 0.8910 0.8910 0.8910 0.8910 0.8910
2549.605926 0.8910 0.8914 0.8918 0.8920 0.8920
2554.125704 0.8920 0.8920 0.8920 0.8922 0.8926
2558.645481 0.8930 0.8926 0.8922 0.8920 0.8920
2563.165258 0.8920 0.8920 0.8920 0.8920 0.8920
2567.685036 0.8920 0.8920 0.8920 0.8920 0.8920
2572.204813 0.8920 0.8920 0.8920 0.8917 0.8913
2576.724591 0.8910 0.8910 0.8910 0.8910 0.8910
2581.244368 0.8910 0.8910 0.8910 0.8905 0.8897
2585.764145 0.8890 0.8890 0.8890 0.8890 0.8890
2590.283923 0.8892 0.8900 0.8908 0.8913 0.8917
2594.803700 0.8920 0.8920 0.8920 0.8911 0.8899
2599.323477 0.8890 0.8890 0.8890 0.8890 0.8890
2603.843255 0.8890 0.8890 0.8890 0.8896 0.8904
2608.363032 0.8910 0.8910 0.8910 0.8910 0.8910
2612.882810 0.8910 0.8910 0.8910 0.8910 0.8910
2617.402587 0.8908 0.8900 0.8892 0.8890 0.8890
2621.922364 0.8890 0.8890 0.8890 0.8890 0.8890
2626.442142 0.8890 0.8890 0.8890 0.8897 0.8905
2630.961919 0.8910 0.8910 0.8910 0.8910 0.8910
2635.481696 0.8907 0.8899 0.8891 0.8890 0.8890
2640.001474 0.8890 0.8890 0.8890 0.8890 0.8890
2644.521251 0.8890 0.8890 0.8890 0.8890 0.8890
2649.041029 0.8890 0.8890 0.8890 0.8890 0.8890
2653.560806 0.8890 0.8890 0.8890 0.8890 0.8890
2658.080583 0.8890 0.8890 0.8890 0.8890 0.8890
2662.600361 0.8894 0.8902 0.8910 0.8910 0.8910
2667.120138 0.8912 0.8916 0.8920 0.8916 0.8912
2671.639915 0.8910 0.8910 0.8910 0.8910 0.8910
2676.159693 0.8912 0.8916 0.8920 0.8916 0.8912
2680.679470 0.8910 0.8910 0.8910 0.8902 0.8894
2685.199247 0.8894 0.8902 0.8910 0.8910 0.8910
2689.719025 0.8910 0.8910 0.8909 0.8901 0.8893
2694.238802 0.8890 0.8890 0.8891 0.8899 0.8907
2698.758580 0.8910 0.8910 0.8910 0.8910 0.8910
2703.278357 0.8905 0.8897 0.8890 0.8890 0.8890
2707.798134 0.8890 0.8890 0.8890 0.8890 0.8890
2712.317912 0.8890 0.8890 0.8890 0.8890 0.8890
2716.837689 0.8890 0.8890 0.8890 0.8890 0.8890
2721.357466 0.8890 0.8890 0.8890 0.8890 0.8890
2725.877244 0.8890 0.8890 0.8890 0.8890 0.8890
2730.397021 0.8890 0.8890 0.8890 0.8890 0.8890
2734.916799 0.8890 0.8890 0.8892 0.8900 0.8908
2739.436576 0.8910 0.8910 0.8910 0.8910 0.8910
2743.956353 0.8910 0.8910 0.8910 0.8910 0.8910
2748.476131 0.8910 0.8910 0.8910 0.8910 0.8910
2752.995908 0.8903 0.8895 0.8890 0.8890 0.8890
2757.515685 0.8887 0.8883 0.8880 0.8880 0.8880
2762.035463 0.8877 0.8873 0.8870 0.8870 0.8870
2766.555240 0.8870 0.8870 0.8870 0.8870 0.8870
2771.075018 0.8863 0.8855 0.8850 0.8850 0.8850
2775.594795 0.8850 0.8850 0.8850 0.8850 0.8850
2780.114572 0.8850 0.8850 0.8850 0.8850 0.8850
2784.634350 0.8850 0.8850 0.8850 0.8850 0.8850
2789.154127 0.8850 0.8850 0.8850 0.8850 0.8850
2793.673904 0.8850 0.8850 0.8850 0.8850 0.8850
2798.193682 0.8858 0.8866 0.8870 0.8870 0.8870
2802.713459 0.8870 0.8870 0.8866 0.8858 0.8850
2807.233236 0.8850 0.8850 0.8850 0.8850 0.8850
2811.753014 0.8850 0.8850 0.8848 0.8844 0.8840
2816.272791 0.8836 0.8832 0.8830 0.8830 0.8830
2820.792569 0.8830 0.8830 0.8825 0.8817 0.8809
2825.312346 0.8801 0.8793 0.8785 0.8777 0.8770
2829.832123 0.8766 0.8762 0.8753 0.8741 0.8728
2834.351901 0.8716 0.8704 0.8695 0.8687 0.8679
2838.871678 0.8671 0.8663 0.8657 0.8653 0.8648
2843.391455 0.8636 0.8624 0.8620 0.8620 0.8619
2847.911233 0.8615 0.8611 0.8613 0.8617 0.8620
2852.431010 0.8620 0.8620 0.8625 0.8634 0.8640
2856.950788 0.8640 0.8640 0.8643 0.8647 0.8650
2861.470565 0.8650 0.8650 0.8653 0.8657 0.8660
2865.990342 0.8660 0.8660 0.8660 0.8660 0.8662
2870.510120 0.8670 0.8678 0.8680 0.8680 0.8681
2875.029897 0.8685 0.8689 0.8690 0.8690 0.8690
2879.549674 0.8690 0.8690 0.8687 0.8683 0.8680
2884.069452 0.8680 0.8680 0.8680 0.8680 0.8676
2888.589229 0.8664 0.8652 0.8647 0.8643 0.8637
2893.109007 0.8629 0.8621 0.8617 0.8613 0.8609
2897.628784 0.8605 0.8601 0.8586 0.8570 0.8554
2902.148561 0.8538 0.8522 0.8506 0.8490 0.8471
2906.668339 0.8447 0.8422 0.8416 0.8412 0.8404
2911.188116 0.8388 0.8371 0.8359 0.8347 0.8340
2915.707893 0.8340 0.8340 0.8340 0.8340 0.8340
2920.227671 0.8340 0.8340 0.8340 0.8340 0.8340
2924.747448 0.8340 0.8340 0.8348 0.8356 0.8362
2929.267226 0.8366 0.8370 0.8374 0.8378 0.8392
2933.787003 0.8416 0.8440 0.8460 0.8480 0.8498
2938.306780 0.8514 0.8530 0.8542 0.8554 0.8564
2942.826558 0.8572 0.8580 0.8588 0.8596 0.8600
2947.346335 0.8600 0.8600 0.8604 0.8608 0.8610
2951.866112 0.8610 0.8610 0.8610 0.8610 0.8610
2956.385890 0.8610 0.8610 0.8610 0.8610 0.8612
2960.905667 0.8616 0.8621 0.8629 0.8637 0.8645
2965.425444 0.8653 0.8660 0.8660 0.8660 0.8665
2969.945222 0.8673 0.8681 0.8685 0.8689 0.8693
2974.464999 0.8697 0.8701 0.8709 0.8717 0.8720
2978.984777 0.8720 0.8720 0.8720 0.8720 0.8720
2983.504554 0.8720 0.8719 0.8711 0.8703 0.8700
2988.024331 0.8700 0.8700 0.8700 0.8700 0.8700
2992.544109 0.8700 0.8700 0.8700 0.8700 0.8697
2997.063886 0.8693 0.8690 0.8690 0.8690 0.8690
3001.583663 0.8690 0.8690 0.8690 0.8690 0.8690
3006.103441 0.8690 0.8690 0.8690 0.8690 0.8690
3010.623218 0.8690 0.8690 0.8690 0.8690 0.8690
3015.142996 0.8690 0.8690 0.8690 0.8690 0.8690
3019.662773 0.8690 0.8690 0.8690 0.8690 0.8690
3024.182550 0.8690 0.8690 0.8690 0.8690 0.8690
3028.702328 0.8690 0.8690 0.8690 0.8690 0.8690
3033.222105 0.8690 0.8690 0.8690 0.8690 0.8690
3037.741882 0.8690 0.8690 0.8690 0.8690 0.8690
3042.261660 0.8690 0.8690 0.8690 0.8690 0.8690
3046.781437 0.8690 0.8690 0.8690 0.8690 0.8690
3051.301215 0.8690 0.8690 0.8690 0.8690 0.8694
3055.820992 0.8698 0.8700 0.8700 0.8700 0.8700
3060.340769 0.8700 0.8698 0.8694 0.8690 0.8690
3064.860547 0.8690 0.8690 0.8690 0.8690 0.8686
3069.380324 0.8682 0.8680 0.8680 0.8680 0.8680
3073.900101 0.8680 0.8680 0.8680 0.8680 0.8680
3078.419879 0.8680 0.8680 0.8680 0.8680 0.8680
3082.939656 0.8680 0.8680 0.8680 0.8680 0.8680
3087.459433 0.8680 0.8675 0.8667 0.8660 0.8660
3091.979211 0.8660 0.8660 0.8660 0.8660 0.8660
3096.498988 0.8660 0.8660 0.8660 0.8660 0.8656
3101.018766 0.8652 0.8650 0.8650 0.8651 0.8655
3105.538543 0.8659 0.8660 0.8660 0.8659 0.8655
3110.058320 0.8651 0.8650 0.8650 0.8650 0.8650
3114.578098 0.8650 0.8650 0.8650 0.8650 0.8650
3119.097875 0.8650 0.8650 0.8650 0.8650 0.8650
3123.617652 0.8650 0.8650 0.8650 0.8650 0.8650
3128.137430 0.8650 0.8650 0.8650 0.8650 0.8650
3132.657207 0.8650 0.8650 0.8650 0.8650 0.8650
3137.176985 0.8650 0.8647 0.8643 0.8638 0.8630
3141.696762 0.8622 0.8620 0.8620 0.8619 0.8615
3146.216539 0.8611 0.8607 0.8603 0.8600 0.8600
3150.736317 0.8600 0.8600 0.8600 0.8600 0.8600
3155.256094 0.8600 0.8600 0.8600 0.8600 0.8600
3159.775871 0.8600 0.8600 0.8600 0.8600 0.8600
3164.295649 0.8600 0.8600 0.8600 0.8600 0.8600
3168.815426 0.8600 0.8593 0.8585 0.8580 0.8580
3173.335204 0.8580 0.8580 0.8580 0.8580 0.8580
3177.854981 0.8580 0.8576 0.8572 0.8570 0.8570
3182.374758 0.8570 0.8570 0.8570 0.8570 0.8570
3186.894536 0.8570 0.8570 0.8570 0.8570 0.8570
3191.414313 0.8570 0.8570 0.8570 0.8570 0.8570
3195.934090 0.8570 0.8570 0.8570 0.8570 0.8570
3200.453868 0.8570 0.8574 0.8578 0.8578 0.8574
3204.973645 0.8570 0.8566 0.8562 0.8556 0.8548
3209.493423 0.8540 0.8540 0.8540 0.8538 0.8534
3214.013200 0.8530 0.8530 0.8530 0.8532 0.8536
3218.532977 0.8540 0.8540 0.8540 0.8540 0.8540
3223.052755 0.8540 0.8540 0.8540 0.8540 0.8540
3227.572532 0.8540 0.8540 0.8540 0.8540 0.8540
3232.092309 0.8540 0.8536 0.8532 0.8530 0.8530
3236.612087 0.8530 0.8530 0.8530 0.8530 0.8530
3241.131864 0.8530 0.8530 0.8530 0.8527 0.8523
3245.651641 0.8520 0.8520 0.8520 0.8520 0.8520
3250.171419 0.8520 0.8520 0.8520 0.8520 0.8520
3254.691196 0.8520 0.8520 0.8520 0.8514 0.8506
3259.210974 0.8500 0.8500 0.8500 0.8500 0.8500
3263.730751 0.8499 0.8495 0.8491 0.8481 0.8469
3268.250528 0.8460 0.8460 0.8460 0.8457 0.8453
3272.770306 0.8450 0.8450 0.8450 0.8450 0.8450
3277.290083 0.8450 0.8450 0.8450 0.8450 0.8450
3281.809860 0.8450 0.8450 0.8450 0.8450 0.8450
3286.329638 0.8450 0.8450 0.8450 0.8447 0.8443
3290.849415 0.8440 0.8440 0.8440 0.8433 0.8425
3295.369193 0.8420 0.8420 0.8420 0.8420 0.8420
3299.888970 0.8419 0.8415 0.8411 0.8413 0.8417
3304.408747 0.8420 0.8420 0.8420 0.8420 0.8420
3308.928525 0.8418 0.8414 0.8410 0.8410 0.8410
3313.448302 0.8410 0.8410 0.8410 0.8410 0.8410
3317.968079 0.8410 0.8410 0.8410 0.8410 0.8410
3322.487857 0.8408 0.8404 0.8400 0.8392 0.8384
3327.007634 0.8378 0.8374 0.8370 0.8370 0.8370
3331.527412 0.8370 0.8370 0.8370 0.8370 0.8370
3336.047189 0.8370 0.8370 0.8370 0.8370 0.8370
3340.566966 0.8368 0.8364 0.8360 0.8360 0.8360
3345.086744 0.8360 0.8360 0.8360 0.8352 0.8344
3349.606521 0.8340 0.8340 0.8340 0.8336 0.8332
3354.126298 0.8330 0.8330 0.8330 0.8330 0.8330
3358.646076 0.8330 0.8330 0.8329 0.8321 0.8313
3363.165853 0.8310 0.8310 0.8310 0.8310 0.8310
3367.685630 0.8310 0.8310 0.8310 0.8310 0.8310
3372.205408 0.8310 0.8310 0.8310 0.8310 0.8310
3376.725185 0.8307 0.8303 0.8300 0.8300 0.8300
3381.244963 0.8300 0.8300 0.8300 0.8300 0.8300
3385.764740 0.8300 0.8300 0.8300 0.8300 0.8300
3390.284517 0.8300 0.8300 0.8300 0.8300 0.8300
3394.804295 0.8300 0.8300 0.8300 0.8300 0.8300
3399.324072 0.8303 0.8307 0.8309 0.8305 0.8301
3403.843849 0.8300 0.8300 0.8300 0.8300 0.8300
3408.363627 0.8300 0.8300 0.8300 0.8300 0.8300
3412.883404 0.8300 0.8300 0.8299 0.8295 0.8291
3417.403182 0.8290 0.8290 0.8290 0.8290 0.8290
3421.922959 0.8290 0.8290 0.8290 0.8290 0.8290
3426.442736 0.8290 0.8290 0.8291 0.8295 0.8299
3430.962514 0.8300 0.8300 0.8301 0.8305 0.8309
3435.482291 0.8310 0.8310 0.8310 0.8310 0.8310
3440.002068 0.8306 0.8302 0.8302 0.8306 0.8310
3444.521846 0.8310 0.8310 0.8310 0.8310 0.8310
3449.041623 0.8310 0.8310 0.8310 0.8310 0.8310
3453.561401 0.8318 0.8326 0.8326 0.8318 0.8310
3458.081178 0.8310 0.8310 0.8310 0.8310 0.8310
3462.600955 0.8310 0.8310 0.8314 0.8322 0.8330
3467.120733 0.8330 0.8330 0.8330 0.8330 0.8330
3471.640510 0.8330 0.8330 0.8330 0.8330 0.8330
3476.160287 0.8334 0.8338 0.8340 0.8340 0.8340
3480.680065 0.8340 0.8340 0.8344 0.8352 0.8360
3485.199842 0.8360 0.8360 0.8360 0.8360 0.8360
3489.719619 0.8360 0.8360 0.8360 0.8360 0.8360
3494.239397 0.8360 0.8360 0.8360 0.8360 0.8360
3498.759174 0.8360 0.8360 0.8362 0.8366 0.8370
3503.278952 0.8374 0.8378 0.8385 0.8393 0.8401
3507.798729 0.8405 0.8409 0.8418 0.8430 0.8441
3512.318506 0.8445 0.8449 0.8450 0.8450 0.8450
3516.838284 0.8450 0.8450 0.8450 0.8450 0.8451
3521.358061 0.8455 0.8459 0.8460 0.8460 0.8460
3525.877838 0.8460 0.8460 0.8466 0.8474 0.8480
3530.397616 0.8480 0.8480 0.8480 0.8480 0.8480
3534.917393 0.8480 0.8480 0.8480 0.8480 0.8480
3539.437171 0.8480 0.8480 0.8480 0.8480 0.8480
3543.956948 0.8480 0.8480 0.8480 0.8480 0.8480
3548.476725 0.8480 0.8480 0.8480 0.8480 0.8480
3552.996503 0.8480 0.8480 0.8480 0.8480 0.8480
3557.516280 0.8480 0.8480 0.8483 0.8487 0.8491
3562.036057 0.8495 0.8499 0.8507 0.8515 0.8520
3566.555835 0.8520 0.8520 0.8523 0.8527 0.8530
3571.075612 0.8530 0.8530 0.8530 0.8530 0.8530
3575.595390 0.8530 0.8530 0.8530 0.8530 0.8530
3580.115167 0.8530 0.8530 0.8530 0.8530 0.8532
3584.634944 0.8536 0.8540 0.8548 0.8556 0.8560
3589.154722 0.8560 0.8560 0.8568 0.8576 0.8578
3593.674499 0.8574 0.8570 0.8574 0.8578 0.8580
3598.194276 0.8580 0.8580 0.8588 0.8596 0.8600
3602.714054 0.8600 0.8600 0.8592 0.8584 0.8578
3607.233831 0.8574 0.8570 0.8574 0.8578 0.8578
3611.753609 0.8574 0.8570 0.8570 0.8570 0.8570
3616.273386 0.8570 0.8570 0.8570 0.8570 0.8570
3620.793163 0.8570 0.8570 0.8566 0.8562 0.8565
3625.312941 0.8573 0.8581 0.8593 0.8605 0.8610
3629.832718 0.8610 0.8610 0.8610 0.8610 0.8610
3634.352495 0.8610 0.8610 0.8610 0.8610 0.8608
3638.872273 0.8603 0.8599 0.8591 0.8583 0.8580
3643.392050 0.8580 0.8580 0.8580 0.8580 0.8580
3647.911827 0.8580 0.8580 0.8580 0.8580 0.8585
3652.431605 0.8594 0.8603 0.8619 0.8635 0.8643
3656.951382 0.8647 0.8650 0.8650 0.8650 0.8650
3661.471160 0.8650 0.8650 0.8650 0.8650 0.8647
3665.990937 0.8643 0.8638 0.8630 0.8622 0.8620
3670.510714 0.8620 0.8620 0.8620 0.8620 0.8620
3675.030492 0.8620 0.8622 0.8630 0.8638 0.8643
3679.550269 0.8647 0.8649 0.8645 0.8641 0.8640
3684.070046 0.8640 0.8640 0.8640 0.8640 0.8640
3688.589824 0.8640 0.8640 0.8640 0.8640 0.8633
3693.109601 0.8625 0.8619 0.8615 0.8611 0.8610
3697.629379 0.8610 0.8609 0.8605 0.8601 0.8590
3702.149156 0.8578 0.8571 0.8575 0.8580 0.8580
3706.668933 0.8580 0.8580 0.8580 0.8580 0.8580
3711.188711 0.8580 0.8578 0.8574 0.8570 0.8570
3715.708488 0.8570 0.8570 0.8570 0.8570 0.8570
3720.228265 0.8570 0.8570 0.8570 0.8570 0.8566
3724.748043 0.8562 0.8560 0.8560 0.8560 0.8560
3729.267820 0.8560 0.8560 0.8560 0.8560 0.8560
3733.787598 0.8560 0.8562 0.8566 0.8570 0.8570
3738.307375 0.8570 0.8572 0.8576 0.8580 0.8580
3742.827152 0.8580 0.8580 0.8580 0.8580 0.8588
3747.346930 0.8596 0.8600 0.8600 0.8600 0.8600
3751.866707 0.8600 0.8600 0.8600 0.8600 0.8600
3756.386484 0.8600 0.8595 0.8587 0.8580 0.8580
3760.906262 0.8580 0.8580 0.8580 0.8580 0.8580
3765.426039 0.8580 0.8585 0.8593 0.8602 0.8618
3769.945816 0.8634 0.8640 0.8640 0.8640 0.8640
3774.465594 0.8640 0.8640 0.8640 0.8640 0.8640
3778.985371 0.8640 0.8640 0.8640 0.8641 0.8645
3783.505149 0.8649 0.8650 0.8650 0.8650 0.8650
3788.024926 0.8650 0.8650 0.8650 0.8650 0.8650
3792.544703 0.8650 0.8647 0.8643 0.8640 0.8640
3797.064481 0.8640 0.8643 0.8647 0.8651 0.8655
3801.584258 0.8659 0.8666 0.8674 0.8680 0.8680
3806.104035 0.8680 0.8674 0.8666 0.8660 0.8660
3810.623813 0.8660 0.8660 0.8660 0.8659 0.8655
3815.143590 0.8651 0.8647 0.8643 0.8638 0.8630
3819.663368 0.8622 0.8617 0.8613 0.8609 0.8605
3824.183145 0.8601 0.8600 0.8600 0.8600 0.8600
3828.702922 0.8600 0.8600 0.8600 0.8601 0.8605
3833.222700 0.8609 0.8610 0.8610 0.8610 0.8610
3837.742477 0.8610 0.8610 0.8610 0.8608 0.8604
3842.262254 0.8600 0.8593 0.8585 0.8578 0.8574
3846.782032 0.8570 0.8570 0.8570 0.8575 0.8587
3851.301809 0.8599 0.8604 0.8608 0.8608 0.8604
3855.821587 0.8600 0.8600 0.8600 0.8600 0.8600
3860.341364 0.8600 0.8592 0.8584 0.8578 0.8574
3864.861141 0.8570 0.8566 0.8562 0.8562 0.8566
3869.380919 0.8570 0.8582 0.8594 0.8596 0.8588
3873.900696 0.8580 0.8580 0.8580 0.8580 0.8580
3878.420473 0.8580 0.8588 0.8596 0.8602 0.8606
3882.940251 0.8610 0.8610 0.8610 0.8610 0.8610
3887.460028 0.8610 0.8610 0.8610 0.8610 0.8610
3891.979805 0.8610 0.8606 0.8602 0.8600 0.8600
3896.499583 0.8600 0.8600 0.8600 0.8602 0.8606
3901.019360 0.8610 0.8610 0.8610 0.8610 0.8610
3905.539138 0.8610 0.8610 0.8610 0.8607 0.8603
3910.058915 0.8600 0.8600 0.8600 0.8603 0.8607
3914.578692 0.8610 0.8610 0.8610 0.8613 0.8617
3919.098470 0.8619 0.8615 0.8611 0.8607 0.8603
3923.618247 0.8598 0.8590 0.8582 0.8580 0.8580
3928.138024 0.8579 0.8575 0.8571 0.8570 0.8570
3932.657802 0.8570 0.8570 0.8570 0.8570 0.8570
3937.177579 0.8570 0.8570 0.8570 0.8570 0.8570
3941.697357 0.8570 0.8570 0.8570 0.8570 0.8570
3946.217134 0.8570 0.8570 0.8570 0.8567 0.8563
3950.736911 0.8560 0.8560 0.8560 0.8560 0.8560
3955.256689 0.8560 0.8560 0.8560 0.8560 0.8560
3959.776466 0.8560 0.8560 0.8560 0.8563 0.8567
3964.296243 0.8570 0.8570 0.8570 0.8570 0.8570
3968.816021 0.8570 0.8570 0.8570 0.8570 0.8570
3973.335798 0.8570 0.8570 0.8570 0.8570 0.8570
3977.855576 0.8568 0.8564 0.8560 0.8560 0.8560
3982.375353 0.8560 0.8560 0.8560 0.8560 0.8560
3986.895130 0.8560 0.8560 0.8560 0.8552 0.8544
3991.414908 0.8540 0.8540 0.8540 0.8540 0.8540
3995.934685 0.8544 0.8552 0.8560 0.8552 0.8544
4000.454462 0.8540 0.8540 0.8540 0.8540 0.8540
##END=
