##TITLE=POTASSIUM HEPTAFLUOZIRCONATE IV
$$ B+A REAGENT GRADE
##JCAMP-DX=4.24
##DATA TYPE=INFRARED SPECTRUM
##CLASS=COBLENTZ
##ORIGIN=WYANDOTTE CHEMICALS CORP., WYANDOTTE, MICHIGAN, USA
##OWNER=COBLENTZ SOCIETY
Collection (C) 2018 copyright by the U.S. Secretary of Commerce
on behalf of the United States of America. All rights reserved.
##DATE=Not specified, most likely prior to 1970
##MOLFORM=K3 Zr F7
##SOURCE REFERENCE=COBLENTZ NO. 1433
##$NIST ID=B6001433
##$NIST SOURCE=COBLENTZ
##$NIST IMAGE=cob1433
##SPECTROMETER/DATA SYSTEM=Not specified, most likely a prism, grating, or hybrid spectrometer.
##STATE=SOLID (MINERAL OIL MULL)
##PATH LENGTH=
$$SPECTRAL CONTAMINATION DUE TO OIL AROUND 2900, 1450, 1380 CM^-^1
##SAMPLING PROCEDURE=TRANSMISSION
##RESOLUTION=4
##DATA PROCESSING=DIGITIZED BY NIST FROM HARD COPY
##XUNITS=MICROMETERS
##YUNITS=TRANSMITTANCE
##XFACTOR=1.000000
##YFACTOR=1
##DELTAX=000.006829
##FIRSTX=2.007
##LASTX=15.9732
##FIRSTY=0.795
##MAXX=15.9732
##MINX=2.007
##MAXY=0.94
##MINY=0.04
##NPOINTS=2046
##XYDATA=(X++(Y..Y))
2.007000 0.7950 0.7970 0.7950 0.7970 0.7980
2.041163 0.7980 0.7980 0.7970 0.7980 0.7980
2.075000 0.8000 0.8020 0.8040 0.8050 0.8070
2.109163 0.8070 0.8090 0.8100 0.8100 0.8120
2.143000 0.8120 0.8120 0.8100 0.8070 0.8070
2.177163 0.8050 0.8040 0.8040 0.7980 0.7900
2.212000 0.7830 0.7810 0.7780 0.7750 0.7710
2.246163 0.7700 0.7680 0.7660 0.7660 0.7660
2.280000 0.7660 0.7660 0.7660 0.7660 0.7660
2.314163 0.7660 0.7660 0.7660 0.7660 0.7660
2.348000 0.7660 0.7660 0.7660 0.7660 0.7660
2.382163 0.7660 0.7700 0.7730 0.7750 0.7760
2.417000 0.7800 0.7810 0.7830 0.7850 0.7870
2.451163 0.7880 0.7900 0.7900 0.7950 0.7980
2.485000 0.8000 0.8020 0.8040 0.8070 0.8100
2.519163 0.8160 0.8170 0.8190 0.8190 0.8220
2.553000 0.8240 0.8260 0.8260 0.8270 0.8270
2.587163 0.8310 0.8310 0.8310 0.8330 0.8330
2.621000 0.8330 0.8340 0.8340 0.8360 0.8360
2.655163 0.8360 0.8360 0.8360 0.8360 0.8340
2.690000 0.8290 0.8270 0.8220 0.8160 0.8050
2.724163 0.8020 0.7950 0.7850 0.7760 0.7660
2.758000 0.7540 0.7510 0.7410 0.7340 0.7290
2.792163 0.7220 0.7130 0.7080 0.7010 0.6980
2.826000 0.6910 0.6860 0.6810 0.6790 0.6760
2.860163 0.6720 0.6600 0.6570 0.6570 0.6540
2.895000 0.6540 0.6520 0.6520 0.6520 0.6520
2.929163 0.6520 0.6520 0.6520 0.6520 0.6520
2.963000 0.6520 0.6540 0.6540 0.6550 0.6570
2.997163 0.6600 0.6640 0.6670 0.6690 0.6740
3.031000 0.6780 0.6790 0.6810 0.6860 0.6950
3.065163 0.6960 0.7000 0.7000 0.7010 0.7010
3.100000 0.7050 0.7050 0.7060 0.7080 0.7100
3.134163 0.7120 0.7130 0.7170 0.7180 0.7220
3.168000 0.7250 0.7270 0.7290 0.7300 0.7320
3.202163 0.7350 0.7370 0.7390 0.7390 0.7390
3.236000 0.7370 0.7340 0.7300 0.7240 0.7150
3.270163 0.7050 0.6950 0.6810 0.6400 0.6110
3.304000 0.5750 0.5110 0.4680 0.4050 0.3420
3.338163 0.2410 0.2020 0.1720 0.1460 0.1270
3.373000 0.1100 0.1000 0.0900 0.0830 0.0760
3.407163 0.0690 0.0640 0.0630 0.0590 0.0540
3.441000 0.0540 0.0470 0.0440 0.0420 0.0420
3.475163 0.0400 0.0400 0.0400 0.0400 0.0400
3.509000 0.0400 0.0400 0.0420 0.0560 0.0690
3.543163 0.0800 0.1200 0.1610 0.2060 0.2350
3.578000 0.2700 0.3110 0.3320 0.3500 0.3900
3.612163 0.4200 0.4490 0.4700 0.4900 0.5000
3.646000 0.5140 0.5220 0.5280 0.5290 0.5310
3.680163 0.5340 0.5410 0.5480 0.5530 0.5630
3.714000 0.5680 0.5740 0.5800 0.5860 0.5920
3.748163 0.5990 0.6010 0.6090 0.6130 0.6210
3.782000 0.6250 0.6280 0.6320 0.6330 0.6400
3.816163 0.6470 0.6500 0.6600 0.6660 0.6690
3.851000 0.6720 0.6780 0.6790 0.6840 0.6890
3.885163 0.6980 0.7030 0.7080 0.7130 0.7200
3.919000 0.7290 0.7340 0.7410 0.7470 0.7490
3.953163 0.7510 0.7540 0.7590 0.7630 0.7660
3.987000 0.7700 0.7730 0.7760 0.7810 0.7850
4.021163 0.7870 0.7880 0.7950 0.7980 0.8020
4.056000 0.8020 0.8050 0.8090 0.8090 0.8100
4.090163 0.8120 0.8120 0.8140 0.8160 0.8170
4.124000 0.8190 0.8210 0.8220 0.8220 0.8240
4.158163 0.8260 0.8260 0.8260 0.8270 0.8290
4.192000 0.8290 0.8290 0.8290 0.8290 0.8270
4.226163 0.8240 0.8240 0.8240 0.8240 0.8260
4.260000 0.8270 0.8270 0.8270 0.8270 0.8290
4.294163 0.8290 0.8310 0.8330 0.8340 0.8360
4.329000 0.8380 0.8390 0.8410 0.8440 0.8480
4.363163 0.8500 0.8510 0.8530 0.8560 0.8600
4.397000 0.8630 0.8670 0.8680 0.8700 0.8720
4.431163 0.8720 0.8720 0.8720 0.8720 0.8720
4.465000 0.8720 0.8720 0.8720 0.8730 0.8750
4.499163 0.8790 0.8790 0.8840 0.8890 0.8890
4.534000 0.8890 0.8900 0.8900 0.8900 0.8920
4.568163 0.8920 0.8920 0.8920 0.8940 0.8960
4.602000 0.9010 0.9010 0.9010 0.9010 0.9010
4.636163 0.9010 0.9010 0.9010 0.8990 0.8990
4.670000 0.8990 0.8990 0.9010 0.9010 0.9020
4.704163 0.9020 0.9040 0.9060 0.9080 0.9090
4.739000 0.9090 0.9090 0.9090 0.9110 0.9110
4.773163 0.9130 0.9130 0.9130 0.9130 0.9130
4.807000 0.9130 0.9130 0.9130 0.9130 0.9130
4.841163 0.9130 0.9130 0.9130 0.9130 0.9130
4.875000 0.9140 0.9140 0.9140 0.9160 0.9160
4.909163 0.9160 0.9180 0.9180 0.9180 0.9180
4.943000 0.9180 0.9190 0.9190 0.9180 0.9180
4.977163 0.9180 0.9180 0.9180 0.9180 0.9180
5.012000 0.9190 0.9180 0.9180 0.9190 0.9230
5.046163 0.9260 0.9260 0.9280 0.9280 0.9300
5.080000 0.9310 0.9310 0.9310 0.9310 0.9300
5.114163 0.9310 0.9310 0.9310 0.9310 0.9330
5.148000 0.9310 0.9350 0.9360 0.9380 0.9380
5.182163 0.9380 0.9380 0.9380 0.9360 0.9350
5.217000 0.9310 0.9310 0.9310 0.9330 0.9330
5.251163 0.9350 0.9350 0.9350 0.9360 0.9380
5.285000 0.9400 0.9400 0.9400 0.9360 0.9360
5.319163 0.9360 0.9360 0.9360 0.9360 0.9360
5.353000 0.9360 0.9360 0.9360 0.9380 0.9380
5.387163 0.9380 0.9360 0.9380 0.9380 0.9380
5.421000 0.9380 0.9380 0.9360 0.9350 0.9330
5.455163 0.9330 0.9330 0.9330 0.9330 0.9330
5.490000 0.9330 0.9330 0.9350 0.9350 0.9360
5.524163 0.9360 0.9380 0.9380 0.9380 0.9380
5.558000 0.9380 0.9380 0.9380 0.9380 0.9380
5.592163 0.9380 0.9360 0.9360 0.9360 0.9360
5.626000 0.9350 0.9350 0.9330 0.9310 0.9310
5.660163 0.9310 0.9310 0.9300 0.9300 0.9280
5.695000 0.9280 0.9260 0.9250 0.9210 0.9190
5.729163 0.9140 0.9080 0.9010 0.8990 0.8970
5.763000 0.8940 0.8890 0.8840 0.8730 0.8680
5.797163 0.8620 0.8580 0.8550 0.8550 0.8550
5.831000 0.8550 0.8550 0.8550 0.8550 0.8550
5.865163 0.8550 0.8550 0.8530 0.8500 0.8410
5.900000 0.8310 0.8170 0.8100 0.8040 0.8000
5.934163 0.8000 0.7970 0.7930 0.7870 0.7810
5.968000 0.7780 0.7760 0.7750 0.7710 0.7660
6.002163 0.7630 0.7580 0.7540 0.7520 0.7520
6.036000 0.7540 0.7540 0.7560 0.7560 0.7560
6.070163 0.7540 0.7540 0.7540 0.7560 0.7580
6.104000 0.7590 0.7640 0.7680 0.7730 0.7750
6.138163 0.7780 0.7800 0.7830 0.7970 0.7980
6.173000 0.8000 0.8020 0.8050 0.8090 0.8120
6.207163 0.8160 0.8170 0.8190 0.8220 0.8260
6.241000 0.8290 0.8290 0.8330 0.8390 0.8430
6.275163 0.8460 0.8480 0.8480 0.8500 0.8510
6.309000 0.8510 0.8510 0.8510 0.8550 0.8560
6.343163 0.8580 0.8580 0.8580 0.8580 0.8580
6.378000 0.8580 0.8580 0.8580 0.8580 0.8580
6.412163 0.8560 0.8560 0.8550 0.8550 0.8510
6.446000 0.8510 0.8510 0.8510 0.8510 0.8510
6.480163 0.8510 0.8510 0.8510 0.8510 0.8500
6.514000 0.8500 0.8480 0.8480 0.8440 0.8410
6.548163 0.8390 0.8380 0.8360 0.8270 0.8220
6.582000 0.8190 0.8170 0.8140 0.8050 0.8040
6.616163 0.8000 0.7980 0.7930 0.7870 0.7760
6.651000 0.7680 0.7590 0.7510 0.7420 0.7300
6.685163 0.7120 0.6960 0.6760 0.6300 0.6010
6.719000 0.5670 0.5210 0.4920 0.4590 0.4240
6.753163 0.3860 0.3470 0.2580 0.2090 0.1580
6.787000 0.1550 0.1310 0.0980 0.0690 0.0560
6.821163 0.0470 0.0450 0.0450 0.0450 0.0450
6.856000 0.0450 0.0450 0.0450 0.0470 0.0570
6.890163 0.0680 0.0760 0.0900 0.1030 0.1240
6.924000 0.1440 0.1700 0.2040 0.2410 0.2990
6.958163 0.3250 0.3500 0.3950 0.4340 0.4700
6.992000 0.5000 0.5260 0.5480 0.5680 0.5840
7.026163 0.5990 0.6090 0.6280 0.6380 0.6470
7.060000 0.6540 0.6620 0.6670 0.6710 0.6740
7.094163 0.6760 0.6780 0.6790 0.6810 0.6810
7.129000 0.6830 0.6830 0.6810 0.6780 0.6710
7.163163 0.6500 0.6280 0.6030 0.5720 0.5360
7.197000 0.4950 0.4530 0.4050 0.3620 0.2700
7.231163 0.2380 0.2040 0.1770 0.1530 0.1360
7.265000 0.1290 0.1290 0.1360 0.1580 0.1800
7.299163 0.1990 0.2210 0.2430 0.2690 0.2960
7.334000 0.3180 0.3400 0.3760 0.4050 0.4250
7.368163 0.4420 0.4560 0.4650 0.4710 0.4780
7.402000 0.4830 0.4900 0.4970 0.5000 0.5020
7.436163 0.5070 0.5090 0.5140 0.5240 0.5340
7.470000 0.5410 0.5480 0.5510 0.5600 0.5650
7.504163 0.5700 0.5770 0.5820 0.5870 0.5960
7.539000 0.5970 0.6010 0.6030 0.6030 0.6040
7.573163 0.6040 0.6060 0.6080 0.6080 0.6080
7.607000 0.6040 0.6040 0.6030 0.6010 0.6010
7.641163 0.5990 0.5970 0.5970 0.5960 0.5960
7.675000 0.5940 0.5940 0.5940 0.5940 0.5940
7.709163 0.5970 0.6010 0.6010 0.6080 0.6090
7.743000 0.6110 0.6130 0.6180 0.6180 0.6200
7.777163 0.6210 0.6250 0.6260 0.6280 0.6300
7.812000 0.6300 0.6320 0.6320 0.6330 0.6330
7.846163 0.6350 0.6350 0.6350 0.6350 0.6350
7.880000 0.6370 0.6380 0.6380 0.6420 0.6430
7.914163 0.6430 0.6430 0.6450 0.6450 0.6450
7.948000 0.6470 0.6470 0.6470 0.6490 0.6490
7.982163 0.6490 0.6500 0.6500 0.6500 0.6500
8.017000 0.6500 0.6490 0.6490 0.6490 0.6490
8.051163 0.6470 0.6450 0.6450 0.6430 0.6430
8.085000 0.6420 0.6400 0.6400 0.6400 0.6380
8.119163 0.6380 0.6380 0.6370 0.6370 0.6350
8.153000 0.6330 0.6330 0.6320 0.6300 0.6300
8.187163 0.6320 0.6320 0.6330 0.6330 0.6330
8.221000 0.6330 0.6330 0.6320 0.6280 0.6280
8.255163 0.6260 0.6260 0.6230 0.6210 0.6210
8.290000 0.6230 0.6250 0.6250 0.6260 0.6280
8.324163 0.6320 0.6330 0.6330 0.6350 0.6350
8.358000 0.6370 0.6370 0.6380 0.6380 0.6400
8.392163 0.6400 0.6400 0.6400 0.6400 0.6400
8.426000 0.6400 0.6380 0.6380 0.6370 0.6370
8.460163 0.6350 0.6330 0.6320 0.6300 0.6280
8.495000 0.6280 0.6260 0.6250 0.6230 0.6210
8.529163 0.6180 0.6130 0.6110 0.6090 0.6030
8.563000 0.6010 0.5990 0.5970 0.5960 0.5940
8.597163 0.5920 0.5910 0.5890 0.5890 0.5870
8.631000 0.5860 0.5840 0.5800 0.5790 0.5750
8.665163 0.5720 0.5700 0.5680 0.5700 0.5750
8.700000 0.5770 0.5790 0.5800 0.5820 0.5820
8.734163 0.5840 0.5860 0.5870 0.5940 0.5960
8.768000 0.5960 0.5970 0.5990 0.5990 0.5990
8.802163 0.6010 0.6010 0.6010 0.6010 0.6010
8.836000 0.6010 0.6030 0.6030 0.6040 0.6040
8.870163 0.6040 0.6080 0.6080 0.6060 0.6040
8.904000 0.6030 0.6030 0.5990 0.6010 0.5990
8.938163 0.5990 0.5970 0.5960 0.5960 0.5960
8.973000 0.5960 0.5960 0.5970 0.5970 0.5990
9.007163 0.6010 0.6030 0.6030 0.6040 0.6080
9.041000 0.6130 0.6160 0.6180 0.6180 0.6180
9.075163 0.6180 0.6160 0.6180 0.6180 0.6180
9.109000 0.6180 0.6180 0.6210 0.6230 0.6250
9.143163 0.6260 0.6280 0.6300 0.6330 0.6350
9.178000 0.6330 0.6330 0.6330 0.6320 0.6300
9.212163 0.6280 0.6300 0.6300 0.6300 0.6280
9.246000 0.6280 0.6260 0.6230 0.6210 0.6210
9.280163 0.6260 0.6300 0.6300 0.6300 0.6300
9.314000 0.6300 0.6280 0.6280 0.6260 0.6280
9.348163 0.6300 0.6320 0.6320 0.6330 0.6320
9.382000 0.6330 0.6330 0.6330 0.6350 0.6320
9.416163 0.6320 0.6320 0.6330 0.6330 0.6370
9.451000 0.6370 0.6370 0.6370 0.6370 0.6370
9.485163 0.6370 0.6370 0.6350 0.6350 0.6330
9.519000 0.6320 0.6320 0.6300 0.6300 0.6280
9.553163 0.6260 0.6260 0.6260 0.6250 0.6250
9.587000 0.6250 0.6230 0.6250 0.6250 0.6250
9.621163 0.6230 0.6230 0.6230 0.6210 0.6230
9.656000 0.6230 0.6230 0.6230 0.6230 0.6230
9.690163 0.6210 0.6210 0.6200 0.6200 0.6200
9.724000 0.6200 0.6200 0.6200 0.6210 0.6210
9.758163 0.6210 0.6210 0.6210 0.6200 0.6200
9.792000 0.6210 0.6230 0.6250 0.6260 0.6260
9.826163 0.6280 0.6260 0.6260 0.6250 0.6250
9.860000 0.6260 0.6280 0.6260 0.6260 0.6260
9.894163 0.6260 0.6260 0.6300 0.6330 0.6350
9.929000 0.6350 0.6350 0.6370 0.6350 0.6330
9.963163 0.6330 0.6350 0.6350 0.6350 0.6370
9.997000 0.6370 0.6400 0.6430 0.6420 0.6450
10.031163 0.6470 0.6490 0.6490 0.6470 0.6470
10.065000 0.6470 0.6470 0.6470 0.6430 0.6430
10.099163 0.6430 0.6430 0.6400 0.6400 0.6420
10.134000 0.6470 0.6470 0.6470 0.6400 0.6370
10.168163 0.6350 0.6300 0.6260 0.6280 0.6280
10.202000 0.6250 0.6250 0.6230 0.6210 0.6210
10.236163 0.6200 0.6180 0.6140 0.6080 0.6080
10.270000 0.6060 0.6040 0.6040 0.6040 0.6030
10.304163 0.6010 0.6010 0.5990 0.5990 0.5990
10.339000 0.5990 0.6010 0.5990 0.5970 0.5970
10.373163 0.5970 0.5970 0.5970 0.5970 0.5970
10.407000 0.5970 0.5970 0.5960 0.5960 0.5960
10.441163 0.5960 0.5960 0.5970 0.5970 0.5970
10.475000 0.5990 0.6010 0.6030 0.6040 0.6060
10.509163 0.6080 0.6080 0.6090 0.6090 0.6090
10.543000 0.6110 0.6130 0.6130 0.6140 0.6160
10.577163 0.6180 0.6180 0.6200 0.6200 0.6200
10.612000 0.6210 0.6200 0.6200 0.6180 0.6180
10.646163 0.6180 0.6140 0.6140 0.6140 0.6140
10.680000 0.6140 0.6130 0.6130 0.6110 0.6110
10.714163 0.6090 0.6080 0.6060 0.6060 0.6080
10.748000 0.6080 0.6090 0.6080 0.6090 0.6090
10.782163 0.6090 0.6110 0.6110 0.6130 0.6140
10.817000 0.6140 0.6140 0.6140 0.6140 0.6130
10.851163 0.6110 0.6110 0.6090 0.6090 0.6110
10.885000 0.6110 0.6110 0.6110 0.6110 0.6090
10.919163 0.6090 0.6090 0.6090 0.6090 0.6090
10.953000 0.6110 0.6110 0.6130 0.6110 0.6130
10.987163 0.6130 0.6130 0.6140 0.6160 0.6180
11.021000 0.6200 0.6180 0.6210 0.6210 0.6210
11.055163 0.6230 0.6230 0.6250 0.6260 0.6280
11.090000 0.6300 0.6300 0.6300 0.6300 0.6320
11.124163 0.6320 0.6320 0.6320 0.6320 0.6320
11.158000 0.6320 0.6300 0.6280 0.6280 0.6260
11.192163 0.6250 0.6230 0.6210 0.6210 0.6210
11.226000 0.6210 0.6200 0.6200 0.6200 0.6200
11.260163 0.6210 0.6200 0.6200 0.6180 0.6180
11.295000 0.6180 0.6180 0.6180 0.6160 0.6160
11.329163 0.6160 0.6160 0.6160 0.6160 0.6160
11.363000 0.6160 0.6180 0.6180 0.6180 0.6180
11.397163 0.6180 0.6200 0.6180 0.6180 0.6180
11.431000 0.6180 0.6180 0.6200 0.6200 0.6200
11.465163 0.6200 0.6200 0.6200 0.6200 0.6200
11.500000 0.6200 0.6200 0.6200 0.6200 0.6200
11.534163 0.6200 0.6200 0.6180 0.6180 0.6180
11.568000 0.6180 0.6200 0.6200 0.6180 0.6180
11.602163 0.6180 0.6160 0.6160 0.6160 0.6140
11.636000 0.6160 0.6160 0.6160 0.6160 0.6160
11.670163 0.6140 0.6130 0.6140 0.6140 0.6130
11.704000 0.6130 0.6110 0.6110 0.6110 0.6090
11.738163 0.6090 0.6090 0.6080 0.6080 0.6060
11.773000 0.6060 0.6040 0.6040 0.6030 0.6010
11.807163 0.6010 0.6010 0.5990 0.5970 0.5970
11.841000 0.5960 0.5960 0.5960 0.5960 0.5960
11.875163 0.5960 0.5960 0.5940 0.5940 0.5920
11.909000 0.5920 0.5910 0.5890 0.5890 0.5890
11.943163 0.5890 0.5890 0.5890 0.5890 0.5870
11.978000 0.5870 0.5860 0.5860 0.5860 0.5860
12.012163 0.5840 0.5840 0.5840 0.5820 0.5820
12.046000 0.5820 0.5820 0.5820 0.5820 0.5820
12.080163 0.5820 0.5820 0.5840 0.5860 0.5860
12.114000 0.5840 0.5840 0.5820 0.5820 0.5800
12.148163 0.5800 0.5790 0.5770 0.5770 0.5790
12.182000 0.5790 0.5800 0.5800 0.5800 0.5790
12.216163 0.5770 0.5770 0.5770 0.5750 0.5740
12.251000 0.5720 0.5720 0.5700 0.5680 0.5680
12.285163 0.5680 0.5650 0.5650 0.5630 0.5650
12.319000 0.5630 0.5620 0.5600 0.5600 0.5580
12.353163 0.5580 0.5580 0.5570 0.5570 0.5570
12.387000 0.5570 0.5570 0.5550 0.5510 0.5500
12.421163 0.5480 0.5460 0.5480 0.5480 0.5460
12.456000 0.5460 0.5460 0.5450 0.5410 0.5400
12.490163 0.5400 0.5400 0.5380 0.5360 0.5360
12.524000 0.5340 0.5340 0.5340 0.5330 0.5310
12.558163 0.5310 0.5280 0.5260 0.5240 0.5210
12.592000 0.5190 0.5160 0.5140 0.5110 0.5090
12.626163 0.5070 0.5070 0.5050 0.5040 0.5000
12.660000 0.5000 0.4990 0.4970 0.4950 0.4920
12.694163 0.4880 0.4880 0.4870 0.4820 0.4800
12.729000 0.4780 0.4800 0.4800 0.4780 0.4730
12.763163 0.4680 0.4610 0.4580 0.4510 0.4510
12.797000 0.4490 0.4490 0.4460 0.4410 0.4370
12.831163 0.4340 0.4290 0.4290 0.4270 0.4270
12.865000 0.4240 0.4200 0.4150 0.4120 0.4080
12.899163 0.4070 0.4050 0.4020 0.4000 0.4000
12.934000 0.3980 0.3960 0.3950 0.3880 0.3880
12.968163 0.3850 0.3810 0.3790 0.3780 0.3780
13.002000 0.3760 0.3740 0.3710 0.3710 0.3690
13.036163 0.3690 0.3670 0.3670 0.3670 0.3640
13.070000 0.3620 0.3610 0.3570 0.3560 0.3540
13.104163 0.3500 0.3490 0.3470 0.3470 0.3450
13.139000 0.3470 0.3450 0.3450 0.3440 0.3440
13.173163 0.3420 0.3420 0.3420 0.3420 0.3400
13.207000 0.3400 0.3390 0.3390 0.3390 0.3370
13.241163 0.3370 0.3370 0.3350 0.3330 0.3280
13.275000 0.3270 0.3270 0.3270 0.3270 0.3270
13.309163 0.3270 0.3250 0.3230 0.3210 0.3200
13.343000 0.3180 0.3180 0.3160 0.3160 0.3160
13.377163 0.3150 0.3130 0.3110 0.3100 0.3080
13.412000 0.3080 0.3060 0.3060 0.3040 0.3010
13.446163 0.2990 0.2980 0.2980 0.2980 0.2980
13.480000 0.2960 0.2960 0.2940 0.2930 0.2910
13.514163 0.2890 0.2870 0.2870 0.2870 0.2860
13.548000 0.2840 0.2840 0.2840 0.2860 0.2840
13.582163 0.2840 0.2820 0.2810 0.2810 0.2810
13.617000 0.2810 0.2820 0.2820 0.2810 0.2810
13.651163 0.2810 0.2810 0.2810 0.2810 0.2810
13.685000 0.2810 0.2810 0.2810 0.2810 0.2810
13.719163 0.2810 0.2810 0.2790 0.2790 0.2790
13.753000 0.2810 0.2810 0.2810 0.2810 0.2810
13.787163 0.2810 0.2790 0.2790 0.2770 0.2750
13.821000 0.2750 0.2750 0.2750 0.2750 0.2750
13.855163 0.2750 0.2750 0.2740 0.2740 0.2720
13.890000 0.2720 0.2740 0.2740 0.2740 0.2740
13.924163 0.2750 0.2770 0.2770 0.2770 0.2820
13.958000 0.2890 0.2960 0.2990 0.3010 0.3040
13.992163 0.3060 0.3100 0.3150 0.3210 0.3300
14.026000 0.3320 0.3330 0.3330 0.3390 0.3420
14.060163 0.3470 0.3490 0.3500 0.3590 0.3660
14.095000 0.3730 0.3740 0.3780 0.3790 0.3830
14.129163 0.3860 0.3880 0.3910 0.3950 0.3960
14.163000 0.3980 0.3980 0.4000 0.4020 0.4030
14.197163 0.4030 0.4050 0.4100 0.4120 0.4130
14.231000 0.4150 0.4170 0.4170 0.4190 0.4190
14.265163 0.4200 0.4250 0.4270 0.4290 0.4310
14.300000 0.4340 0.4360 0.4390 0.4390 0.4410
14.334163 0.4420 0.4420 0.4460 0.4480 0.4480
14.368000 0.4490 0.4490 0.4490 0.4490 0.4490
14.402163 0.4490 0.4490 0.4490 0.4490 0.4490
14.436000 0.4490 0.4490 0.4490 0.4510 0.4510
14.470163 0.4510 0.4510 0.4510 0.4510 0.4510
14.504000 0.4510 0.4510 0.4510 0.4510 0.4490
14.538163 0.4490 0.4490 0.4490 0.4490 0.4510
14.573000 0.4490 0.4510 0.4530 0.4530 0.4530
14.607163 0.4540 0.4540 0.4530 0.4530 0.4530
14.641000 0.4530 0.4510 0.4510 0.4510 0.4490
14.675163 0.4490 0.4490 0.4490 0.4490 0.4490
14.709000 0.4490 0.4490 0.4510 0.4490 0.4490
14.743163 0.4490 0.4490 0.4490 0.4490 0.4490
14.778000 0.4490 0.4490 0.4490 0.4490 0.4510
14.812163 0.4530 0.4530 0.4530 0.4530 0.4530
14.846000 0.4530 0.4530 0.4530 0.4530 0.4510
14.880163 0.4510 0.4510 0.4510 0.4510 0.4510
14.914000 0.4510 0.4510 0.4490 0.4490 0.4490
14.948163 0.4510 0.4510 0.4510 0.4510 0.4510
14.982000 0.4510 0.4510 0.4510 0.4490 0.4510
15.016163 0.4530 0.4560 0.4560 0.4580 0.4580
15.051000 0.4580 0.4580 0.4580 0.4590 0.4590
15.085163 0.4590 0.4590 0.4590 0.4590 0.4610
15.119000 0.4610 0.4610 0.4590 0.4590 0.4580
15.153163 0.4580 0.4560 0.4560 0.4560 0.4560
15.187000 0.4540 0.4540 0.4540 0.4540 0.4540
15.221163 0.4540 0.4540 0.4540 0.4540 0.4540
15.256000 0.4540 0.4540 0.4540 0.4540 0.4540
15.290163 0.4540 0.4540 0.4560 0.4560 0.4560
15.324000 0.4560 0.4580 0.4580 0.4580 0.4580
15.358163 0.4580 0.4590 0.4590 0.4590 0.4590
15.392000 0.4590 0.4610 0.4610 0.4590 0.4610
15.426163 0.4610 0.4610 0.4610 0.4610 0.4610
15.460000 0.4630 0.4630 0.4630 0.4650 0.4650
15.494163 0.4650 0.4650 0.4650 0.4660 0.4660
15.529000 0.4660 0.4660 0.4660 0.4660 0.4660
15.563163 0.4660 0.4660 0.4660 0.4660 0.4660
15.597000 0.4660 0.4680 0.4680 0.4700 0.4700
15.631163 0.4700 0.4700 0.4710 0.4710 0.4730
15.665000 0.4730 0.4730 0.4750 0.4750 0.4770
15.699163 0.4780 0.4800 0.4820 0.4820 0.4830
15.734000 0.4830 0.4830 0.4850 0.4850 0.4850
15.768163 0.4850 0.4850 0.4850 0.4850 0.4870
15.802000 0.4880 0.4900 0.4920 0.4950 0.4970
15.836163 0.4970 0.4990 0.4990 0.5000 0.5020
15.870000 0.5020 0.5040 0.5040 0.5040 0.5040
15.904163 0.5050 0.5050 0.5050 0.5050 0.5050
15.939000 0.5050 0.5050 0.5070 0.5070 0.5090
15.973163 0.5090
##END=
