##TITLE=Glycine, N-2-imidazolin-2-yl-
##JCAMP-DX=4.24
##DATA TYPE=INFRARED SPECTRUM
##CLASS=COBLENTZ III
##ORIGIN=SOUTHERN RESEARCH INSTITUTE
##OWNER=Copyright (C) 1987 by the Coblentz Society
Collection (C) 2018 copyright by the U.S. Secretary of Commerce
on behalf of the United States of America. All rights reserved.
##DATE=1956/12/31
##NAMES=(4,5-dihydro-1H-imidazol-2-ylamino)acetic acid
##MOLFORM=C5 H9 N3 O2
##SOURCE REFERENCE=COBLENTZ NO. 6896
##$NIST ID=B6006896
##$NIST SOURCE=COBLENTZ
##$NIST IMAGE=cob6896
##SPECTROMETER/DATA SYSTEM=PERKIN-ELMER 21 (GRATING)
##INSTRUMENT PARAMETERS=FILTER CHANGE ABOUT 1070 CM^-^1
##STATE=SOLID (0.5 mg / 650 mg KBr DISC)
$$ THE SPLIT IN THE SPECTRAL FEATURE AT 1071 CM^-^1 IS AN ARTIFACT CAUSED BY FILTER CHANGE
##RESOLUTION=2
##XUNITS=1/CM
##YUNITS=TRANSMITTANCE
##XFACTOR=1.0
##YFACTOR=1
##FIRSTX=610
##LASTX=3900
##FIRSTY=0.7876
##MAXX=3900
##MINX=610
##MAXY=0.9041
##MINY=0.2402
##NPOINTS=3291
##XYDATA=(X++(Y..Y))
610.000000 0.7876 0.7861 0.7846 0.7831 0.7817
615.000000 0.7802 0.7787 0.7773 0.7760 0.7747
620.000000 0.7733 0.7720 0.7707 0.7696 0.7684
625.000000 0.7673 0.7661 0.7649 0.7638 0.7626
630.000000 0.7615 0.7603 0.7586 0.7570 0.7554
635.000000 0.7538 0.7522 0.7505 0.7489 0.7473
640.000000 0.7457 0.7441 0.7424 0.7408 0.7392
645.000000 0.7375 0.7359 0.7343 0.7326 0.7310
650.000000 0.7294 0.7277 0.7260 0.7241 0.7222
655.000000 0.7203 0.7185 0.7166 0.7147 0.7128
660.000000 0.7109 0.7090 0.7071 0.7046 0.7022
665.000000 0.6997 0.6973 0.6948 0.6924 0.6899
670.000000 0.6873 0.6847 0.6820 0.6794 0.6768
675.000000 0.6741 0.6715 0.6689 0.6670 0.6650
680.000000 0.6630 0.6611 0.6591 0.6571 0.6563
685.000000 0.6555 0.6548 0.6541 0.6545 0.6551
690.000000 0.6558 0.6574 0.6588 0.6603 0.6626
695.000000 0.6653 0.6715 0.6784 0.6859 0.6943
700.000000 0.7037 0.7140 0.7253 0.7374 0.7490
705.000000 0.7569 0.7644 0.7684 0.7711 0.7714
710.000000 0.7718 0.7720 0.7714 0.7710 0.7702
715.000000 0.7697 0.7691 0.7685 0.7679 0.7673
720.000000 0.7667 0.7662 0.7656 0.7651 0.7646
725.000000 0.7641 0.7635 0.7630 0.7625 0.7619
730.000000 0.7614 0.7608 0.7601 0.7594 0.7587
735.000000 0.7581 0.7574 0.7567 0.7557 0.7547
740.000000 0.7536 0.7525 0.7515 0.7504 0.7494
745.000000 0.7483 0.7472 0.7462 0.7450 0.7438
750.000000 0.7425 0.7412 0.7400 0.7387 0.7375
755.000000 0.7362 0.7357 0.7358 0.7358 0.7359
760.000000 0.7360 0.7360 0.7353 0.7377 0.7388
765.000000 0.7399 0.7411 0.7422 0.7435 0.7450
770.000000 0.7466 0.7482 0.7497 0.7510 0.7523
775.000000 0.7537 0.7540 0.7541 0.7542 0.7542
780.000000 0.7543 0.7544 0.7545 0.7550 0.7554
785.000000 0.7559 0.7564 0.7568 0.7573 0.7578
790.000000 0.7583 0.7590 0.7597 0.7603 0.7610
795.000000 0.7623 0.7637 0.7651 0.7661 0.7671
800.000000 0.7681 0.7691 0.7700 0.7710 0.7720
805.000000 0.7730 0.7741 0.7754 0.7767 0.7780
810.000000 0.7792 0.7805 0.7818 0.7831 0.7844
815.000000 0.7857 0.7870 0.7883 0.7896 0.7909
820.000000 0.7925 0.7940 0.7956 0.7972 0.7987
825.000000 0.8003 0.8030 0.8050 0.8053 0.8056
830.000000 0.8056 0.8053 0.8050 0.8048 0.8045
835.000000 0.8058 0.8039 0.8038 0.8036 0.8035
840.000000 0.8034 0.8032 0.8027 0.8022 0.8016
845.000000 0.8011 0.8006 0.8000 0.7995 0.7990
850.000000 0.7985 0.7979 0.7971 0.7963 0.7954
855.000000 0.7945 0.7937 0.7928 0.7919 0.7911
860.000000 0.7899 0.7883 0.7868 0.7852 0.7837
865.000000 0.7821 0.7806 0.7784 0.7758 0.7732
870.000000 0.7705 0.7679 0.7653 0.7620 0.7582
875.000000 0.7545 0.7508 0.7470 0.7431 0.7392
880.000000 0.7353 0.7316 0.7282 0.7247 0.7230
885.000000 0.7219 0.7211 0.7213 0.7218 0.7235
890.000000 0.7275 0.7295 0.7300 0.7298 0.7294
895.000000 0.7289 0.7279 0.7269 0.7246 0.7215
900.000000 0.7184 0.7126 0.7070 0.7020 0.6970
905.000000 0.6927 0.6907 0.6921 0.6909 0.6919
910.000000 0.6937 0.7150 0.7307 0.7372 0.7424
915.000000 0.7472 0.7520 0.7566 0.7612 0.7651
920.000000 0.7680 0.7693 0.7706 0.7781 0.8090
925.000000 0.8156 0.8192 0.8214 0.8235 0.8253
930.000000 0.8266 0.8279 0.8294 0.8309 0.8313
935.000000 0.8313 0.8314 0.8315 0.8315 0.8316
940.000000 0.8316 0.8338 0.8314 0.8313 0.8312
945.000000 0.8310 0.8309 0.8307 0.8306 0.8305
950.000000 0.8303 0.8299 0.8294 0.8288 0.8283
955.000000 0.8270 0.8254 0.8238 0.8222 0.8207
960.000000 0.8189 0.8167 0.8144 0.8122 0.8097
965.000000 0.8070 0.8044 0.8017 0.8005 0.7995
970.000000 0.7985 0.7986 0.7988 0.8002 0.8021
975.000000 0.8045 0.8074 0.8094 0.8091 0.8088
980.000000 0.8086 0.8082 0.8070 0.8040 0.7999
985.000000 0.7965 0.7933 0.7901 0.7869 0.7837
990.000000 0.7805 0.7773 0.7741 0.7708 0.7683
995.000000 0.7666 0.7648 0.7631 0.7613 0.7601
1000.000000 0.7591 0.7581 0.7571 0.7562 0.7552
1005.000000 0.7550 0.7549 0.7549 0.7548 0.7548
1010.000000 0.7547 0.7539 0.7531 0.7523 0.7511
1015.000000 0.7493 0.7475 0.7466 0.7461 0.7455
1020.000000 0.7450 0.7444 0.7439 0.7435 0.7431
1025.000000 0.7427 0.7423 0.7419 0.7417 0.7415
1030.000000 0.7412 0.7396 0.7421 0.7441 0.7476
1035.000000 0.7519 0.7561 0.7586 0.7588 0.7590
1040.000000 0.7592 0.7611 0.7591 0.7589 0.7584
1045.000000 0.7579 0.7567 0.7552 0.7535 0.7510
1050.000000 0.7484 0.7440 0.7380 0.7293 0.7206
1055.000000 0.7118 0.7029 0.6921 0.6811 0.6717
1060.000000 0.6624 0.6539 0.6477 0.6435 0.6586
1065.000000 0.6871 0.7016 0.7006 0.6798 0.6590
1070.000000 0.6387 0.6383 0.6382 0.6380 0.6382
1075.000000 0.6384 0.6377 0.6401 0.6412 0.6424
1080.000000 0.6438 0.6453 0.6641 0.7015 0.7230
1085.000000 0.7261 0.7274 0.7291 0.7284 0.7284
1090.000000 0.7284 0.7271 0.7251 0.7230 0.7197
1095.000000 0.7165 0.7139 0.7113 0.7086 0.7061
1100.000000 0.7036 0.7012 0.6987 0.6961 0.6934
1105.000000 0.6913 0.6912 0.6916 0.6929 0.6914
1110.000000 0.6956 0.6971 0.6986 0.7001 0.7021
1115.000000 0.7042 0.7058 0.7067 0.7055 0.7043
1120.000000 0.7031 0.7021 0.7011 0.7010 0.7017
1125.000000 0.7024 0.7031 0.7059 0.7088 0.7117
1130.000000 0.7146 0.7175 0.7204 0.7254 0.7303
1135.000000 0.7334 0.7364 0.7388 0.7409 0.7429
1140.000000 0.7450 0.7459 0.7465 0.7471 0.7477
1145.000000 0.7481 0.7499 0.7480 0.7479 0.7479
1150.000000 0.7478 0.7477 0.7472 0.7467 0.7463
1155.000000 0.7458 0.7453 0.7449 0.7444 0.7438
1160.000000 0.7432 0.7425 0.7419 0.7412 0.7406
1165.000000 0.7400 0.7393 0.7385 0.7372 0.7358
1170.000000 0.7344 0.7331 0.7317 0.7303 0.7290
1175.000000 0.7275 0.7259 0.7242 0.7226 0.7210
1180.000000 0.7194 0.7177 0.7160 0.7142 0.7125
1185.000000 0.7108 0.7090 0.7073 0.7059 0.7045
1190.000000 0.7031 0.7017 0.7003 0.6989 0.6979
1195.000000 0.6970 0.6961 0.6952 0.6951 0.6951
1200.000000 0.6952 0.6953 0.6953 0.6954 0.6950
1205.000000 0.6944 0.6937 0.6926 0.6905 0.6885
1210.000000 0.6864 0.6836 0.6802 0.6769 0.6748
1215.000000 0.6728 0.6707 0.6686 0.6666 0.6645
1220.000000 0.6624 0.6603 0.6583 0.6562 0.6541
1225.000000 0.6520 0.6499 0.6482 0.6467 0.6451
1230.000000 0.6435 0.6425 0.6425 0.6422 0.6439
1235.000000 0.6447 0.6456 0.6465 0.6474 0.6482
1240.000000 0.6491 0.6499 0.6507 0.6510 0.6513
1245.000000 0.6517 0.6520 0.6519 0.6516 0.6514
1250.000000 0.6512 0.6504 0.6492 0.6476 0.6462
1255.000000 0.6447 0.6425 0.6403 0.6374 0.6339
1260.000000 0.6304 0.6269 0.6226 0.6181 0.6136
1265.000000 0.6091 0.6047 0.6002 0.5958 0.5913
1270.000000 0.5868 0.5823 0.5777 0.5712 0.5554
1275.000000 0.5426 0.5298 0.5170 0.5042 0.4914
1280.000000 0.4786 0.4695 0.4639 0.4624 0.4610
1285.000000 0.4614 0.4620 0.4631 0.4642 0.4664
1290.000000 0.4686 0.4713 0.4749 0.4818 0.4881
1295.000000 0.4944 0.4999 0.5054 0.5095 0.5128
1300.000000 0.5161 0.5195 0.5227 0.5250 0.5272
1305.000000 0.5294 0.5316 0.5329 0.5339 0.5350
1310.000000 0.5360 0.5360 0.5383 0.5356 0.5350
1315.000000 0.5343 0.5337 0.5310 0.5279 0.5248
1320.000000 0.5185 0.5123 0.5069 0.5016 0.4963
1325.000000 0.4912 0.4862 0.4832 0.4807 0.4806
1330.000000 0.4810 0.4839 0.4912 0.4986 0.5059
1335.000000 0.5133 0.5206 0.5280 0.5354 0.5427
1340.000000 0.5501 0.5574 0.5648 0.5757 0.5761
1345.000000 0.5764 0.5764 0.5764 0.5772 0.5763
1350.000000 0.5760 0.5756 0.5742 0.5699 0.5672
1355.000000 0.5638 0.5606 0.5587 0.5567 0.5545
1360.000000 0.5521 0.5410 0.5287 0.5165 0.5043
1365.000000 0.4920 0.4798 0.4676 0.4554 0.4431
1370.000000 0.4309 0.4187 0.4064 0.3942 0.3820
1375.000000 0.3698 0.3575 0.3453 0.3331 0.3220
1380.000000 0.3220 0.3220 0.3231 0.3283 0.3313
1385.000000 0.3339 0.3356 0.3368 0.3377 0.3385
1390.000000 0.3393 0.3400 0.3401 0.3402 0.3403
1395.000000 0.3402 0.3402 0.3401 0.3400 0.3400
1400.000000 0.3438 0.3507 0.3577 0.3646 0.3715
1405.000000 0.3784 0.3853 0.3923 0.3992 0.4061
1410.000000 0.4130 0.4199 0.4268 0.4495 0.4558
1415.000000 0.4641 0.4737 0.4799 0.4868 0.5045
1420.000000 0.5100 0.5156 0.5211 0.5253 0.5287
1425.000000 0.5321 0.5356 0.5390 0.5435 0.5480
1430.000000 0.5601 0.5691 0.5748 0.5758 0.5760
1435.000000 0.5760 0.5760 0.5760 0.5759 0.5782
1440.000000 0.5754 0.5751 0.5746 0.5736 0.5723
1445.000000 0.5703 0.5682 0.5662 0.5642 0.5619
1450.000000 0.5595 0.5570 0.5546 0.5538 0.5536
1455.000000 0.5534 0.5533 0.5534 0.5518 0.5552
1460.000000 0.5578 0.5602 0.5625 0.5648 0.5672
1465.000000 0.5691 0.5707 0.5724 0.5740 0.5749
1470.000000 0.5758 0.5785 0.5768 0.5770 0.5765
1475.000000 0.5753 0.5736 0.5706 0.5676 0.5645
1480.000000 0.5615 0.5577 0.5538 0.5495 0.5450
1485.000000 0.5405 0.5368 0.5332 0.5298 0.5269
1490.000000 0.5240 0.5210 0.5165 0.5121 0.5076
1495.000000 0.5033 0.4992 0.4951 0.4910 0.4870
1500.000000 0.4830 0.4790 0.4750 0.4713 0.4677
1505.000000 0.4640 0.4602 0.4563 0.4524 0.4493
1510.000000 0.4464 0.4435 0.4415 0.4405 0.4395
1515.000000 0.4385 0.4375 0.4366 0.4353 0.4332
1520.000000 0.4312 0.4291 0.4271 0.4243 0.4208
1525.000000 0.4172 0.4131 0.4084 0.4038 0.3984
1530.000000 0.3929 0.3885 0.3846 0.3807 0.3782
1535.000000 0.3764 0.3747 0.3715 0.3510 0.3407
1540.000000 0.3307 0.3238 0.3169 0.3099 0.2994
1545.000000 0.2887 0.2753 0.2620 0.2563 0.2505
1550.000000 0.2458 0.2426 0.2408 0.2402 0.2403
1555.000000 0.2407 0.2411 0.2415 0.2419 0.2430
1560.000000 0.2441 0.2452 0.2474 0.2510 0.2546
1565.000000 0.2587 0.2631 0.2675 0.2715 0.2754
1570.000000 0.2794 0.2834 0.2876 0.2918 0.2960
1575.000000 0.3002 0.3045 0.3100 0.3156 0.3212
1580.000000 0.3277 0.3343 0.3403 0.3461 0.3490
1585.000000 0.3505 0.3520 0.3521 0.3515 0.3508
1590.000000 0.3549 0.3489 0.3478 0.3467 0.3452
1595.000000 0.3432 0.3399 0.3359 0.3318 0.3271
1600.000000 0.3224 0.3179 0.3135 0.3091 0.3047
1605.000000 0.3009 0.2971 0.2933 0.2895 0.2846
1610.000000 0.2797 0.2795 0.2797 0.2802 0.2790
1615.000000 0.2821 0.2844 0.2879 0.2980 0.3106
1620.000000 0.3312 0.3436 0.3538 0.3617 0.3688
1625.000000 0.3733 0.3776 0.3795 0.3814 0.3824
1630.000000 0.3847 0.3835 0.3835 0.3833 0.3831
1635.000000 0.3828 0.3818 0.3807 0.3796 0.3786
1640.000000 0.3772 0.3750 0.3724 0.3692 0.3661
1645.000000 0.3626 0.3566 0.3508 0.3450 0.3390
1650.000000 0.3323 0.3256 0.3187 0.3112 0.3036
1655.000000 0.2960 0.2883 0.2800 0.2701 0.2601
1660.000000 0.2586 0.2572 0.2565 0.2558 0.2557
1665.000000 0.2556 0.2555 0.2547 0.2563 0.2568
1670.000000 0.2578 0.2590 0.2630 0.2676 0.2721
1675.000000 0.2764 0.2807 0.2850 0.2892 0.2936
1680.000000 0.2984 0.3032 0.3080 0.3128 0.3177
1685.000000 0.3219 0.3262 0.3305 0.3347 0.3390
1690.000000 0.3436 0.3488 0.3541 0.3666 0.3743
1695.000000 0.3798 0.3840 0.3882 0.3925 0.3977
1700.000000 0.4054 0.4122 0.4167 0.4212 0.4258
1705.000000 0.4309 0.4360 0.4411 0.4487 0.4579
1710.000000 0.4672 0.4769 0.4862 0.4937 0.5013
1715.000000 0.5088 0.5170 0.5254 0.5339 0.5425
1720.000000 0.5515 0.5605 0.5689 0.5771 0.5853
1725.000000 0.5938 0.6025 0.6112 0.6179 0.6243
1730.000000 0.6306 0.6370 0.6434 0.6495 0.6553
1735.000000 0.6611 0.6668 0.6726 0.6784 0.6829
1740.000000 0.6871 0.6912 0.6954 0.6995 0.7037
1745.000000 0.7070 0.7101 0.7132 0.7163 0.7194
1750.000000 0.7225 0.7256 0.7286 0.7317 0.7347
1755.000000 0.7376 0.7405 0.7435 0.7464 0.7493
1760.000000 0.7522 0.7547 0.7572 0.7596 0.7620
1765.000000 0.7644 0.7669 0.7693 0.7717 0.7742
1770.000000 0.7766 0.7788 0.7810 0.7833 0.7855
1775.000000 0.7878 0.7900 0.7923 0.7942 0.7961
1780.000000 0.7977 0.7992 0.8006 0.8020 0.8034
1785.000000 0.8048 0.8063 0.8080 0.8096 0.8110
1790.000000 0.8123 0.8137 0.8150 0.8163 0.8177
1795.000000 0.8190 0.8203 0.8216 0.8231 0.8245
1800.000000 0.8259 0.8274 0.8288 0.8303 0.8317
1805.000000 0.8332 0.8346 0.8358 0.8370 0.8382
1810.000000 0.8394 0.8406 0.8418 0.8431 0.8443
1815.000000 0.8455 0.8467 0.8479 0.8491 0.8503
1820.000000 0.8513 0.8521 0.8528 0.8535 0.8543
1825.000000 0.8550 0.8557 0.8564 0.8572 0.8580
1830.000000 0.8587 0.8595 0.8602 0.8610 0.8618
1835.000000 0.8625 0.8633 0.8640 0.8647 0.8654
1840.000000 0.8662 0.8669 0.8676 0.8683 0.8690
1845.000000 0.8697 0.8705 0.8712 0.8719 0.8726
1850.000000 0.8733 0.8739 0.8745 0.8752 0.8758
1855.000000 0.8764 0.8771 0.8777 0.8783 0.8790
1860.000000 0.8796 0.8803 0.8809 0.8816 0.8822
1865.000000 0.8829 0.8835 0.8842 0.8848 0.8855
1870.000000 0.8861 0.8868 0.8874 0.8880 0.8885
1875.000000 0.8890 0.8895 0.8900 0.8905 0.8910
1880.000000 0.8915 0.8920 0.8925 0.8930 0.8935
1885.000000 0.8939 0.8942 0.8945 0.8948 0.8951
1890.000000 0.8954 0.8957 0.8960 0.8963 0.8966
1895.000000 0.8970 0.8973 0.8976 0.8979 0.8982
1900.000000 0.8985 0.8987 0.8989 0.8990 0.8992
1905.000000 0.8993 0.8995 0.8996 0.8998 0.8999
1910.000000 0.9001 0.9002 0.9003 0.9005 0.9006
1915.000000 0.9007 0.9008 0.9010 0.9011 0.9012
1920.000000 0.9013 0.9006 0.9016 0.9017 0.9018
1925.000000 0.9020 0.9021 0.9022 0.9023 0.9024
1930.000000 0.9025 0.9026 0.9027 0.9028 0.9029
1935.000000 0.9030 0.9031 0.9032 0.9033 0.9034
1940.000000 0.9035 0.9036 0.9038 0.9039 0.9040
1945.000000 0.9041 0.9040 0.9040 0.9039 0.9039
1950.000000 0.9038 0.9038 0.9037 0.9037 0.9036
1955.000000 0.9036 0.9035 0.9035 0.9034 0.9034
1960.000000 0.9033 0.9033 0.9032 0.9031 0.9031
1965.000000 0.9031 0.9031 0.9030 0.9030 0.9030
1970.000000 0.9029 0.9029 0.9029 0.9028 0.9025
1975.000000 0.9022 0.9019 0.9016 0.9013 0.9009
1980.000000 0.9006 0.9003 0.9000 0.8997 0.8993
1985.000000 0.8990 0.8987 0.8984 0.8981 0.8977
1990.000000 0.8974 0.8971 0.8968 0.8965 0.8961
1995.000000 0.8958 0.8955 0.8951 0.8947 0.8942
2000.000000 0.8938 0.8934 0.8929 0.8925 0.8921
2005.000000 0.8916 0.8912 0.8908 0.8903 0.8899
2010.000000 0.8894 0.8890 0.8886 0.8881 0.8877
2015.000000 0.8873 0.8868 0.8864 0.8860 0.8855
2020.000000 0.8851 0.8847 0.8843 0.8838 0.8834
2025.000000 0.8830 0.8826 0.8821 0.8817 0.8813
2030.000000 0.8808 0.8804 0.8800 0.8796 0.8791
2035.000000 0.8787 0.8783 0.8779 0.8774 0.8770
2040.000000 0.8765 0.8760 0.8756 0.8751 0.8746
2045.000000 0.8742 0.8737 0.8732 0.8728 0.8723
2050.000000 0.8719 0.8714 0.8709 0.8705 0.8700
2055.000000 0.8695 0.8691 0.8686 0.8682 0.8679
2060.000000 0.8676 0.8672 0.8669 0.8666 0.8663
2065.000000 0.8660 0.8657 0.8654 0.8651 0.8648
2070.000000 0.8645 0.8642 0.8639 0.8636 0.8633
2075.000000 0.8630 0.8627 0.8624 0.8621 0.8619
2080.000000 0.8616 0.8613 0.8611 0.8608 0.8605
2085.000000 0.8603 0.8600 0.8597 0.8595 0.8592
2090.000000 0.8589 0.8587 0.8584 0.8581 0.8579
2095.000000 0.8576 0.8574 0.8571 0.8568 0.8567
2100.000000 0.8566 0.8565 0.8563 0.8562 0.8561
2105.000000 0.8560 0.8558 0.8557 0.8556 0.8555
2110.000000 0.8553 0.8552 0.8552 0.8554 0.8557
2115.000000 0.8555 0.8561 0.8563 0.8565 0.8568
2120.000000 0.8570 0.8572 0.8574 0.8577 0.8579
2125.000000 0.8581 0.8583 0.8585 0.8588 0.8591
2130.000000 0.8596 0.8602 0.8607 0.8612 0.8618
2135.000000 0.8623 0.8626 0.8630 0.8633 0.8636
2140.000000 0.8639 0.8643 0.8646 0.8649 0.8653
2145.000000 0.8656 0.8662 0.8669 0.8675 0.8681
2150.000000 0.8688 0.8694 0.8700 0.8707 0.8715
2155.000000 0.8723 0.8731 0.8738 0.8746 0.8752
2160.000000 0.8755 0.8758 0.8761 0.8764 0.8767
2165.000000 0.8770 0.8774 0.8777 0.8778 0.8778
2170.000000 0.8778 0.8778 0.8778 0.8778 0.8778
2175.000000 0.8778 0.8778 0.8778 0.8776 0.8775
2180.000000 0.8774 0.8773 0.8771 0.8770 0.8769
2185.000000 0.8750 0.8766 0.8765 0.8764 0.8763
2190.000000 0.8761 0.8759 0.8757 0.8754 0.8752
2195.000000 0.8749 0.8747 0.8744 0.8742 0.8739
2200.000000 0.8737 0.8734 0.8732 0.8729 0.8727
2205.000000 0.8724 0.8722 0.8720 0.8718 0.8717
2210.000000 0.8715 0.8713 0.8711 0.8709 0.8708
2215.000000 0.8706 0.8704 0.8702 0.8701 0.8699
2220.000000 0.8697 0.8695 0.8693 0.8692 0.8690
2225.000000 0.8688 0.8686 0.8684 0.8683 0.8681
2230.000000 0.8680 0.8678 0.8677 0.8675 0.8674
2235.000000 0.8672 0.8670 0.8669 0.8667 0.8664
2240.000000 0.8659 0.8655 0.8650 0.8645 0.8640
2245.000000 0.8635 0.8630 0.8626 0.8624 0.8622
2250.000000 0.8619 0.8617 0.8615 0.8613 0.8610
2255.000000 0.8608 0.8606 0.8604 0.8601 0.8599
2260.000000 0.8597 0.8595 0.8592 0.8591 0.8589
2265.000000 0.8588 0.8586 0.8585 0.8583 0.8582
2270.000000 0.8576 0.8569 0.8562 0.8556 0.8549
2275.000000 0.8543 0.8536 0.8529 0.8518 0.8508
2280.000000 0.8498 0.8487 0.8477 0.8467 0.8456
2285.000000 0.8446 0.8437 0.8428 0.8419 0.8410
2290.000000 0.8401 0.8392 0.8383 0.8374 0.8367
2295.000000 0.8362 0.8357 0.8352 0.8347 0.8342
2300.000000 0.8337 0.8332 0.8328 0.8326 0.8324
2305.000000 0.8321 0.8319 0.8317 0.8314 0.8312
2310.000000 0.8310 0.8306 0.8298 0.8290 0.8283
2315.000000 0.8275 0.8267 0.8260 0.8252 0.8246
2320.000000 0.8243 0.8240 0.8237 0.8234 0.8230
2325.000000 0.8227 0.8224 0.8222 0.8222 0.8222
2330.000000 0.8222 0.8223 0.8223 0.8223 0.8223
2335.000000 0.8223 0.8223 0.8223 0.8223 0.8223
2340.000000 0.8224 0.8224 0.8224 0.8225 0.8225
2345.000000 0.8225 0.8226 0.8226 0.8227 0.8227
2350.000000 0.8227 0.8228 0.8227 0.8227 0.8226
2355.000000 0.8225 0.8225 0.8224 0.8224 0.8223
2360.000000 0.8223 0.8222 0.8221 0.8220 0.8218
2365.000000 0.8216 0.8214 0.8212 0.8211 0.8209
2370.000000 0.8207 0.8205 0.8203 0.8201 0.8197
2375.000000 0.8192 0.8186 0.8181 0.8175 0.8170
2380.000000 0.8164 0.8159 0.8153 0.8147 0.8142
2385.000000 0.8136 0.8131 0.8125 0.8119 0.8110
2390.000000 0.8102 0.8093 0.8085 0.8076 0.8068
2395.000000 0.8059 0.8052 0.8044 0.8037 0.8030
2400.000000 0.8023 0.8015 0.8008 0.8001 0.7994
2405.000000 0.7986 0.7979 0.7972 0.7964 0.7957
2410.000000 0.7950 0.7943 0.7935 0.7928 0.7921
2415.000000 0.7914 0.7906 0.7899 0.7891 0.7884
2420.000000 0.7876 0.7869 0.7861 0.7854 0.7846
2425.000000 0.7839 0.7831 0.7824 0.7816 0.7809
2430.000000 0.7801 0.7794 0.7786 0.7779 0.7771
2435.000000 0.7765 0.7759 0.7753 0.7747 0.7741
2440.000000 0.7735 0.7729 0.7724 0.7718 0.7712
2445.000000 0.7706 0.7700 0.7694 0.7688 0.7682
2450.000000 0.7677 0.7671 0.7665 0.7659 0.7653
2455.000000 0.7647 0.7641 0.7635 0.7629 0.7624
2460.000000 0.7618 0.7612 0.7606 0.7600 0.7594
2465.000000 0.7588 0.7582 0.7576 0.7570 0.7564
2470.000000 0.7558 0.7553 0.7547 0.7541 0.7535
2475.000000 0.7529 0.7523 0.7517 0.7511 0.7505
2480.000000 0.7499 0.7493 0.7487 0.7481 0.7475
2485.000000 0.7469 0.7463 0.7457 0.7451 0.7445
2490.000000 0.7439 0.7433 0.7427 0.7422 0.7416
2495.000000 0.7410 0.7404 0.7398 0.7392 0.7386
2500.000000 0.7380 0.7374 0.7368 0.7362 0.7355
2505.000000 0.7349 0.7343 0.7337 0.7331 0.7325
2510.000000 0.7319 0.7313 0.7307 0.7301 0.7297
2515.000000 0.7295 0.7294 0.7293 0.7291 0.7290
2520.000000 0.7288 0.7287 0.7285 0.7284 0.7282
2525.000000 0.7281 0.7279 0.7278 0.7277 0.7276
2530.000000 0.7275 0.7274 0.7273 0.7272 0.7270
2535.000000 0.7267 0.7263 0.7259 0.7256 0.7252
2540.000000 0.7248 0.7244 0.7240 0.7236 0.7232
2545.000000 0.7226 0.7218 0.7210 0.7202 0.7195
2550.000000 0.7187 0.7179 0.7171 0.7163 0.7156
2555.000000 0.7148 0.7141 0.7134 0.7127 0.7120
2560.000000 0.7113 0.7107 0.7100 0.7093 0.7086
2565.000000 0.7079 0.7072 0.7065 0.7059 0.7053
2570.000000 0.7047 0.7042 0.7036 0.7030 0.7025
2575.000000 0.7019 0.7013 0.7008 0.7002 0.6997
2580.000000 0.6991 0.6986 0.6982 0.6978 0.6974
2585.000000 0.6971 0.6967 0.6963 0.6959 0.6956
2590.000000 0.6952 0.6948 0.6944 0.6941 0.6937
2595.000000 0.6933 0.6929 0.6926 0.6922 0.6918
2600.000000 0.6914 0.6911 0.6907 0.6904 0.6903
2605.000000 0.6903 0.6902 0.6902 0.6901 0.6900
2610.000000 0.6900 0.6899 0.6899 0.6898 0.6897
2615.000000 0.6897 0.6896 0.6895 0.6895 0.6895
2620.000000 0.6895 0.6896 0.6896 0.6897 0.6897
2625.000000 0.6898 0.6898 0.6899 0.6899 0.6894
2630.000000 0.6889 0.6883 0.6878 0.6872 0.6867
2635.000000 0.6862 0.6856 0.6851 0.6845 0.6840
2640.000000 0.6835 0.6824 0.6813 0.6802 0.6790
2645.000000 0.6779 0.6767 0.6754 0.6740 0.6727
2650.000000 0.6714 0.6701 0.6687 0.6674 0.6661
2655.000000 0.6651 0.6640 0.6630 0.6620 0.6610
2660.000000 0.6600 0.6590 0.6579 0.6569 0.6559
2665.000000 0.6549 0.6539 0.6530 0.6522 0.6515
2670.000000 0.6507 0.6500 0.6492 0.6484 0.6477
2675.000000 0.6469 0.6461 0.6454 0.6446 0.6439
2680.000000 0.6431 0.6423 0.6416 0.6407 0.6399
2685.000000 0.6390 0.6382 0.6373 0.6364 0.6356
2690.000000 0.6347 0.6339 0.6330 0.6321 0.6313
2695.000000 0.6304 0.6296 0.6287 0.6279 0.6271
2700.000000 0.6262 0.6254 0.6246 0.6238 0.6229
2705.000000 0.6221 0.6213 0.6205 0.6197 0.6188
2710.000000 0.6180 0.6175 0.6169 0.6164 0.6158
2715.000000 0.6153 0.6147 0.6142 0.6136 0.6130
2720.000000 0.6125 0.6119 0.6114 0.6108 0.6103
2725.000000 0.6096 0.6090 0.6083 0.6077 0.6071
2730.000000 0.6064 0.6058 0.6051 0.6045 0.6039
2735.000000 0.6032 0.6026 0.6019 0.6013 0.6006
2740.000000 0.5996 0.5987 0.5978 0.5969 0.5959
2745.000000 0.5950 0.5941 0.5932 0.5923 0.5913
2750.000000 0.5904 0.5893 0.5883 0.5872 0.5862
2755.000000 0.5852 0.5841 0.5831 0.5820 0.5810
2760.000000 0.5799 0.5789 0.5778 0.5768 0.5757
2765.000000 0.5747 0.5737 0.5726 0.5716 0.5705
2770.000000 0.5692 0.5680 0.5668 0.5656 0.5644
2775.000000 0.5632 0.5620 0.5608 0.5596 0.5584
2780.000000 0.5571 0.5559 0.5546 0.5533 0.5520
2785.000000 0.5507 0.5495 0.5482 0.5469 0.5456
2790.000000 0.5443 0.5431 0.5418 0.5405 0.5393
2795.000000 0.5381 0.5369 0.5358 0.5346 0.5334
2800.000000 0.5323 0.5311 0.5300 0.5288 0.5278
2805.000000 0.5273 0.5267 0.5262 0.5257 0.5252
2810.000000 0.5247 0.5242 0.5238 0.5235 0.5232
2815.000000 0.5229 0.5226 0.5223 0.5221 0.5218
2820.000000 0.5215 0.5212 0.5209 0.5206 0.5203
2825.000000 0.5201 0.5198 0.5195 0.5192 0.5189
2830.000000 0.5186 0.5183 0.5181 0.5178 0.5175
2835.000000 0.5173 0.5170 0.5168 0.5165 0.5163
2840.000000 0.5158 0.5152 0.5146 0.5140 0.5134
2845.000000 0.5128 0.5122 0.5116 0.5109 0.5101
2850.000000 0.5093 0.5085 0.5077 0.5068 0.5060
2855.000000 0.5052 0.5044 0.5037 0.5031 0.5026
2860.000000 0.5021 0.5015 0.5010 0.5005 0.5000
2865.000000 0.4994 0.4989 0.4984 0.4978 0.4973
2870.000000 0.4968 0.4963 0.4958 0.4953 0.4948
2875.000000 0.4943 0.4938 0.4933 0.4928 0.4924
2880.000000 0.4922 0.4920 0.4919 0.4917 0.4915
2885.000000 0.4913 0.4912 0.4910 0.4908 0.4907
2890.000000 0.4908 0.4909 0.4910 0.4911 0.4912
2895.000000 0.4913 0.4913 0.4914 0.4915 0.4915
2900.000000 0.4916 0.4916 0.4916 0.4916 0.4917
2905.000000 0.4917 0.4917 0.4918 0.4918 0.4918
2910.000000 0.4918 0.4919 0.4919 0.4919 0.4919
2915.000000 0.4920 0.4920 0.4919 0.4919 0.4919
2920.000000 0.4918 0.4918 0.4918 0.4917 0.4917
2925.000000 0.4915 0.4913 0.4910 0.4908 0.4906
2930.000000 0.4904 0.4902 0.4902 0.4901 0.4900
2935.000000 0.4899 0.4898 0.4898 0.4897 0.4896
2940.000000 0.4895 0.4895 0.4894 0.4893 0.4892
2945.000000 0.4891 0.4890 0.4890 0.4890 0.4890
2950.000000 0.4891 0.4891 0.4891 0.4892 0.4892
2955.000000 0.4893 0.4893 0.4893 0.4894 0.4894
2960.000000 0.4894 0.4893 0.4893 0.4893 0.4893
2965.000000 0.4892 0.4892 0.4892 0.4891 0.4891
2970.000000 0.4891 0.4890 0.4890 0.4890 0.4890
2975.000000 0.4889 0.4889 0.4889 0.4888 0.4887
2980.000000 0.4885 0.4883 0.4881 0.4879 0.4877
2985.000000 0.4875 0.4874 0.4872 0.4870 0.4868
2990.000000 0.4866 0.4864 0.4862 0.4860 0.4859
2995.000000 0.4856 0.4852 0.4848 0.4844 0.4840
3000.000000 0.4836 0.4832 0.4828 0.4824 0.4820
3005.000000 0.4816 0.4812 0.4808 0.4804 0.4800
3010.000000 0.4796 0.4792 0.4785 0.4777 0.4770
3015.000000 0.4763 0.4756 0.4748 0.4741 0.4734
3020.000000 0.4726 0.4719 0.4712 0.4705 0.4697
3025.000000 0.4690 0.4682 0.4673 0.4665 0.4657
3030.000000 0.4649 0.4640 0.4632 0.4624 0.4615
3035.000000 0.4607 0.4599 0.4591 0.4582 0.4574
3040.000000 0.4566 0.4558 0.4549 0.4543 0.4540
3045.000000 0.4538 0.4535 0.4533 0.4530 0.4530
3050.000000 0.4530 0.4530 0.4530 0.4530 0.4530
3055.000000 0.4530 0.4531 0.4532 0.4533 0.4534
3060.000000 0.4535 0.4536 0.4537 0.4538 0.4539
3065.000000 0.4540 0.4541 0.4543 0.4544 0.4545
3070.000000 0.4546 0.4547 0.4548 0.4549 0.4550
3075.000000 0.4551 0.4553 0.4554 0.4555 0.4556
3080.000000 0.4557 0.4559 0.4560 0.4561 0.4563
3085.000000 0.4564 0.4565 0.4561 0.4557 0.4552
3090.000000 0.4547 0.4542 0.4537 0.4525 0.4513
3095.000000 0.4501 0.4489 0.4477 0.4453 0.4428
3100.000000 0.4402 0.4366 0.4328 0.4290 0.4251
3105.000000 0.4212 0.4173 0.4134 0.4092 0.4043
3110.000000 0.3995 0.3948 0.3912 0.3877 0.3841
3115.000000 0.3806 0.3775 0.3745 0.3714 0.3684
3120.000000 0.3654 0.3623 0.3593 0.3575 0.3558
3125.000000 0.3541 0.3524 0.3507 0.3491 0.3478
3130.000000 0.3467 0.3456 0.3445 0.3434 0.3424
3135.000000 0.3413 0.3402 0.3399 0.3397 0.3394
3140.000000 0.3392 0.3389 0.3387 0.3384 0.3382
3145.000000 0.3380 0.3380 0.3379 0.3379 0.3378
3150.000000 0.3378 0.3378 0.3377 0.3417 0.3380
3155.000000 0.3382 0.3384 0.3385 0.3387 0.3389
3160.000000 0.3391 0.3394 0.3398 0.3403 0.3408
3165.000000 0.3414 0.3424 0.3434 0.3444 0.3455
3170.000000 0.3465 0.3475 0.3485 0.3495 0.3505
3175.000000 0.3514 0.3523 0.3533 0.3542 0.3551
3180.000000 0.3561 0.3570 0.3579 0.3588 0.3598
3185.000000 0.3607 0.3616 0.3625 0.3634 0.3643
3190.000000 0.3653 0.3662 0.3671 0.3679 0.3686
3195.000000 0.3693 0.3700 0.3708 0.3715 0.3722
3200.000000 0.3729 0.3736 0.3743 0.3749 0.3753
3205.000000 0.3758 0.3762 0.3767 0.3771 0.3776
3210.000000 0.3781 0.3785 0.3790 0.3794 0.3799
3215.000000 0.3803 0.3808 0.3811 0.3814 0.3817
3220.000000 0.3820 0.3823 0.3827 0.3830 0.3833
3225.000000 0.3836 0.3839 0.3842 0.3845 0.3848
3230.000000 0.3851 0.3855 0.3858 0.3861 0.3864
3235.000000 0.3867 0.3870 0.3873 0.3876 0.3879
3240.000000 0.3882 0.3886 0.3889 0.3892 0.3895
3245.000000 0.3898 0.3901 0.3904 0.3907 0.3910
3250.000000 0.3913 0.3916 0.3918 0.3921 0.3923
3255.000000 0.3926 0.3928 0.3931 0.3933 0.3936
3260.000000 0.3938 0.3941 0.3943 0.3946 0.3950
3265.000000 0.3954 0.3958 0.3962 0.3965 0.3969
3270.000000 0.3973 0.3977 0.3981 0.3985 0.3989
3275.000000 0.3993 0.3998 0.4002 0.4006 0.4008
3280.000000 0.4015 0.4023 0.4034 0.4044 0.4055
3285.000000 0.4065 0.4076 0.4086 0.4097 0.4107
3290.000000 0.4118 0.4128 0.4139 0.4146 0.4152
3295.000000 0.4158 0.4164 0.4170 0.4175 0.4178
3300.000000 0.4180 0.4183 0.4186 0.4199 0.4212
3305.000000 0.4230 0.4254 0.4277 0.4301 0.4332
3310.000000 0.4362 0.4393 0.4414 0.4432 0.4448
3315.000000 0.4460 0.4473 0.4486 0.4499 0.4512
3320.000000 0.4525 0.4538 0.4550 0.4566 0.4581
3325.000000 0.4596 0.4612 0.4627 0.4642 0.4658
3330.000000 0.4673 0.4689 0.4704 0.4720 0.4735
3335.000000 0.4751 0.4766 0.4782 0.4795 0.4807
3340.000000 0.4819 0.4831 0.4843 0.4855 0.4867
3345.000000 0.4879 0.4891 0.4902 0.4914 0.4926
3350.000000 0.4938 0.4950 0.4962 0.4974 0.4986
3355.000000 0.4999 0.5012 0.5025 0.5038 0.5051
3360.000000 0.5064 0.5077 0.5090 0.5103 0.5116
3365.000000 0.5130 0.5143 0.5156 0.5169 0.5182
3370.000000 0.5195 0.5208 0.5221 0.5234 0.5247
3375.000000 0.5260 0.5273 0.5286 0.5299 0.5311
3380.000000 0.5324 0.5337 0.5350 0.5363 0.5376
3385.000000 0.5389 0.5402 0.5415 0.5427 0.5440
3390.000000 0.5452 0.5463 0.5474 0.5485 0.5495
3395.000000 0.5506 0.5517 0.5528 0.5538 0.5549
3400.000000 0.5560 0.5571 0.5581 0.5592 0.5603
3405.000000 0.5614 0.5625 0.5635 0.5646 0.5655
3410.000000 0.5663 0.5671 0.5679 0.5688 0.5696
3415.000000 0.5704 0.5712 0.5720 0.5729 0.5737
3420.000000 0.5745 0.5753 0.5761 0.5770 0.5778
3425.000000 0.5786 0.5794 0.5802 0.5810 0.5817
3430.000000 0.5822 0.5826 0.5831 0.5836 0.5841
3435.000000 0.5846 0.5850 0.5855 0.5860 0.5865
3440.000000 0.5870 0.5874 0.5879 0.5884 0.5889
3445.000000 0.5894 0.5899 0.5903 0.5907 0.5911
3450.000000 0.5915 0.5919 0.5924 0.5928 0.5932
3455.000000 0.5936 0.5940 0.5944 0.5948 0.5952
3460.000000 0.5956 0.5960 0.5964 0.5968 0.5972
3465.000000 0.5976 0.5980 0.5985 0.5990 0.5994
3470.000000 0.5999 0.6004 0.6008 0.6013 0.6018
3475.000000 0.6022 0.6027 0.6032 0.6037 0.6042
3480.000000 0.6049 0.6056 0.6063 0.6070 0.6077
3485.000000 0.6084 0.6091 0.6098 0.6105 0.6116
3490.000000 0.6128 0.6139 0.6151 0.6162 0.6173
3495.000000 0.6188 0.6207 0.6225 0.6244 0.6263
3500.000000 0.6281 0.6300 0.6319 0.6338 0.6362
3505.000000 0.6386 0.6410 0.6434 0.6458 0.6482
3510.000000 0.6505 0.6529 0.6553 0.6576 0.6600
3515.000000 0.6623 0.6647 0.6670 0.6693 0.6717
3520.000000 0.6740 0.6764 0.6785 0.6805 0.6825
3525.000000 0.6845 0.6866 0.6886 0.6906 0.6926
3530.000000 0.6946 0.6966 0.6987 0.7007 0.7027
3535.000000 0.7048 0.7071 0.7093 0.7115 0.7137
3540.000000 0.7160 0.7182 0.7204 0.7223 0.7239
3545.000000 0.7255 0.7272 0.7288 0.7304 0.7321
3550.000000 0.7339 0.7358 0.7378 0.7398 0.7418
3555.000000 0.7438 0.7458 0.7475 0.7493 0.7510
3560.000000 0.7533 0.7561 0.7585 0.7606 0.7627
3565.000000 0.7647 0.7668 0.7689 0.7710 0.7731
3570.000000 0.7752 0.7773 0.7794 0.7815 0.7836
3575.000000 0.7857 0.7878 0.7897 0.7915 0.7934
3580.000000 0.7953 0.7970 0.7987 0.8005 0.8022
3585.000000 0.8039 0.8056 0.8073 0.8089 0.8105
3590.000000 0.8121 0.8137 0.8153 0.8169 0.8186
3595.000000 0.8201 0.8215 0.8230 0.8244 0.8259
3600.000000 0.8273 0.8286 0.8295 0.8305 0.8314
3605.000000 0.8324 0.8333 0.8343 0.8352 0.8362
3610.000000 0.8371 0.8381 0.8389 0.8397 0.8404
3615.000000 0.8411 0.8419 0.8426 0.8434 0.8441
3620.000000 0.8448 0.8456 0.8463 0.8469 0.8475
3625.000000 0.8482 0.8488 0.8494 0.8500 0.8506
3630.000000 0.8513 0.8519 0.8525 0.8531 0.8537
3635.000000 0.8542 0.8547 0.8551 0.8556 0.8561
3640.000000 0.8566 0.8570 0.8575 0.8580 0.8585
3645.000000 0.8589 0.8594 0.8599 0.8604 0.8609
3650.000000 0.8613 0.8617 0.8620 0.8624 0.8628
3655.000000 0.8632 0.8636 0.8639 0.8643 0.8647
3660.000000 0.8651 0.8655 0.8658 0.8662 0.8666
3665.000000 0.8670 0.8672 0.8673 0.8675 0.8676
3670.000000 0.8678 0.8680 0.8681 0.8683 0.8684
3675.000000 0.8686 0.8688 0.8689 0.8691 0.8693
3680.000000 0.8693 0.8694 0.8695 0.8696 0.8696
3685.000000 0.8697 0.8698 0.8699 0.8699 0.8700
3690.000000 0.8701 0.8701 0.8702 0.8703 0.8704
3695.000000 0.8704 0.8705 0.8706 0.8707 0.8707
3700.000000 0.8708 0.8709 0.8709 0.8710 0.8710
3705.000000 0.8711 0.8711 0.8711 0.8712 0.8712
3710.000000 0.8713 0.8713 0.8713 0.8714 0.8714
3715.000000 0.8715 0.8715 0.8716 0.8716 0.8716
3720.000000 0.8717 0.8717 0.8718 0.8718 0.8718
3725.000000 0.8719 0.8719 0.8720 0.8720 0.8721
3730.000000 0.8721 0.8722 0.8722 0.8723 0.8723
3735.000000 0.8723 0.8724 0.8724 0.8725 0.8725
3740.000000 0.8726 0.8726 0.8727 0.8727 0.8728
3745.000000 0.8728 0.8729 0.8729 0.8730 0.8730
3750.000000 0.8731 0.8732 0.8732 0.8733 0.8782
3755.000000 0.8734 0.8734 0.8735 0.8735 0.8735
3760.000000 0.8736 0.8736 0.8736 0.8736 0.8737
3765.000000 0.8737 0.8737 0.8737 0.8738 0.8738
3770.000000 0.8738 0.8738 0.8739 0.8739 0.8739
3775.000000 0.8739 0.8740 0.8740 0.8740 0.8741
3780.000000 0.8742 0.8742 0.8743 0.8743 0.8744
3785.000000 0.8745 0.8745 0.8746 0.8747 0.8747
3790.000000 0.8748 0.8749 0.8749 0.8750 0.8751
3795.000000 0.8751 0.8752 0.8753 0.8753 0.8754
3800.000000 0.8755 0.8755 0.8756 0.8757 0.8757
3805.000000 0.8757 0.8757 0.8758 0.8758 0.8758
3810.000000 0.8758 0.8758 0.8759 0.8759 0.8759
3815.000000 0.8759 0.8759 0.8760 0.8760 0.8760
3820.000000 0.8760 0.8761 0.8761 0.8761 0.8761
3825.000000 0.8761 0.8762 0.8762 0.8762 0.8762
3830.000000 0.8762 0.8762 0.8763 0.8763 0.8763
3835.000000 0.8763 0.8763 0.8763 0.8763 0.8763
3840.000000 0.8763 0.8763 0.8763 0.8763 0.8763
3845.000000 0.8764 0.8764 0.8764 0.8764 0.8764
3850.000000 0.8764 0.8765 0.8765 0.8765 0.8766
3855.000000 0.8766 0.8766 0.8767 0.8767 0.8767
3860.000000 0.8767 0.8768 0.8768 0.8768 0.8769
3865.000000 0.8771 0.8772 0.8773 0.8775 0.8776
3870.000000 0.8778 0.8779 0.8780 0.8782 0.8783
3875.000000 0.8784 0.8786 0.8787 0.8789 0.8790
3880.000000 0.8791 0.8793 0.8794 0.8796 0.8797
3885.000000 0.8798 0.8800 0.8801 0.8803 0.8804
3890.000000 0.8805 0.8807 0.8808 0.8810 0.8811
3895.000000 0.8812 0.8814 0.8815 0.8817 0.8818
3900.000000 0.8819
##END=
