##TITLE=N-ACETYL-N-(p-PHTHALIMIDOBENZE-SULFONYL)-2-AMINO-4,6-DIMETHYLPYRIMIDINE
##JCAMP-DX=4.24
##DATA TYPE=INFRARED SPECTRUM
##CLASS=COBLENTZ
##ORIGIN=ABBOTT LABORATORIES - WASHBURN
##OWNER=COBLENTZ SOCIETY
Collection (C) 2018 copyright by the U.S. Secretary of Commerce
on behalf of the United States of America. All rights reserved.
##DATE=Not specified, most likely prior to 1970
##NAMES=N-acetyl-N-(4,6-dimethyl-2-pyrimidinyl)-4-(1,3-dioxo-1,3-dihydro-2H-isoindol-2-yl)benzenesulfonamide
##MOLFORM=C22 H18 N4 O5 S
##SOURCE REFERENCE=COBLENTZ NO. 3524
##$NIST ID=B6003524
##$NIST SOURCE=COBLENTZ
##$NIST IMAGE=cob3524
##SPECTROMETER/DATA SYSTEM=PERKIN-ELMER
##STATE=SOLID (NUJOL MULL)
##PATH LENGTH=
$$SPECTRAL CONTAMINATION DUE TO OIL AROUND 2900 CM^-^1
##SAMPLING PROCEDURE=TRANSMISSION
##RESOLUTION=4
##DATA PROCESSING=DIGITIZED BY NIST FROM HARD COPY (FROM TWO SEGMENTS)
##XUNITS=MICROMETERS
##YUNITS=TRANSMITTANCE
##XFACTOR=1.000000
##YFACTOR=1
##DELTAX=0.006667
##FIRSTX=2.053
##LASTX=15.407
##FIRSTY=0.538
##MAXX=15.407
##MINX=2.053
##MAXY=0.85
##MINY=0.043
##NPOINTS=2004
##XYDATA=(X++(Y..Y))
2.053000 0.5380 0.5380 0.5380 0.5400 0.5400
2.086335 0.5400 0.5410 0.5430 0.5450 0.5460
2.119670 0.5498 0.5547 0.5559 0.5579 0.5608
2.153005 0.5610 0.5610 0.5610 0.5610 0.5601
2.186340 0.5600 0.5609 0.5610 0.5628 0.5648
2.219675 0.5659 0.5696 0.5700 0.5727 0.5748
2.253010 0.5750 0.5730 0.5730 0.5730 0.5730
2.286345 0.5700 0.5700 0.5710 0.5730 0.5759
2.319680 0.5779 0.5799 0.5828 0.5849 0.5878
2.353015 0.5908 0.5948 0.5959 0.5960 0.5979
2.386350 0.5980 0.5980 0.5998 0.6000 0.6000
2.419685 0.6000 0.6027 0.6030 0.6048 0.6059
2.453020 0.6100 0.6110 0.6130 0.6130 0.6150
2.486355 0.6150 0.6180 0.6200 0.6210 0.6210
2.519690 0.6229 0.6249 0.6250 0.6278 0.6299
2.553025 0.6309 0.6329 0.6349 0.6378 0.6399
2.586360 0.6400 0.6409 0.6410 0.6428 0.6430
2.619695 0.6430 0.6448 0.6450 0.6459 0.6478
2.653030 0.6500 0.6500 0.6500 0.6510 0.6510
2.686365 0.6530 0.6530 0.6510 0.6510 0.6530
2.719700 0.6530 0.6530 0.6549 0.6550 0.6578
2.753035 0.6599 0.6581 0.6561 0.6551 0.6550
2.786370 0.6550 0.6559 0.6596 0.6600 0.6582
2.819705 0.6553 0.6514 0.6501 0.6482 0.6480
2.853040 0.6510 0.6510 0.6530 0.6530 0.6550
2.886375 0.6550 0.6550 0.6550 0.6550 0.6550
2.919710 0.6560 0.6550 0.6550 0.6550 0.6550
2.953045 0.6503 0.6500 0.6547 0.6578 0.6627
2.986380 0.6694 0.6709 0.6710 0.6710 0.6701
3.019715 0.6700 0.6700 0.6700 0.6700 0.6709
3.053050 0.6750 0.6750 0.6750 0.6750 0.6730
3.086385 0.6730 0.6710 0.6710 0.6700 0.6680
3.119720 0.6632 0.6611 0.6581 0.6485 0.6319
3.153055 0.6282 0.6214 0.6201 0.6181 0.6199
3.186390 0.6227 0.6230 0.6212 0.6165 0.6160
3.219725 0.6133 0.6112 0.6110 0.6199 0.6166
3.253060 0.6049 0.5959 0.5799 0.5610 0.5450
3.286395 0.4911 0.4233 0.3882 0.3533 0.2907
3.319730 0.2400 0.1997 0.1646 0.1344 0.1026
3.353065 0.0934 0.0854 0.0784 0.0667 0.0613
3.386400 0.0537 0.0439 0.0502 0.0636 0.0704
3.419735 0.0773 0.0870 0.0987 0.1045 0.1050
3.453070 0.1101 0.1151 0.1212 0.1601 0.1933
3.486405 0.3559 0.4996 0.5348 0.5727 0.5799
3.519740 0.6118 0.6293 0.6444 0.6641 0.6774
3.553075 0.6904 0.6957 0.7073 0.7108 0.7148
3.586410 0.7150 0.7150 0.7159 0.7160 0.7160
3.619745 0.7160 0.7160 0.7160 0.7160 0.7151
3.653080 0.7100 0.7100 0.7150 0.7160 0.7210
3.686415 0.7160 0.7160 0.7160 0.7180 0.7180
3.719750 0.7180 0.7199 0.7229 0.7259 0.7279
3.753085 0.7280 0.7280 0.7280 0.7280 0.7299
3.786420 0.7300 0.7300 0.7309 0.7328 0.7330
3.819755 0.7330 0.7357 0.7396 0.7409 0.7455
3.853090 0.7460 0.7460 0.7480 0.7480 0.7500
3.886425 0.7510 0.7530 0.7530 0.7530 0.7560
3.919760 0.7579 0.7599 0.7610 0.7629 0.7630
3.953095 0.7649 0.7650 0.7659 0.7660 0.7660
3.986430 0.7660 0.7633 0.7630 0.7648 0.7659
4.019765 0.7678 0.7698 0.7682 0.7617 0.7601
4.053100 0.7610 0.7630 0.7630 0.7630 0.7650
4.086435 0.7650 0.7680 0.7680 0.7650 0.7650
4.119770 0.7631 0.7611 0.7629 0.7630 0.7659
4.153105 0.7698 0.7700 0.7662 0.7651 0.7612
4.186440 0.7601 0.7600 0.7609 0.7628 0.7648
4.219775 0.7650 0.7677 0.7680 0.7680 0.7680
4.253110 0.7750 0.7761 0.7811 0.7860 0.7880
4.286445 0.7900 0.7930 0.7930 0.7930 0.7900
4.319780 0.7881 0.7861 0.7860 0.7879 0.7880
4.353115 0.7899 0.7900 0.7910 0.7910 0.7929
4.386450 0.7930 0.7930 0.7930 0.7912 0.7910
4.419785 0.7928 0.7930 0.7975 0.7980 0.7953
4.453120 0.7950 0.7950 0.7950 0.7950 0.7950
4.486455 0.7960 0.8010 0.8010 0.8000 0.8000
4.519790 0.8000 0.7981 0.7961 0.7960 0.7950
4.553125 0.7950 0.7950 0.7960 0.7960 0.7960
4.586460 0.7978 0.7980 0.7998 0.8000 0.8000
4.619795 0.7982 0.7980 0.7980 0.8007 0.8046
4.653130 0.8100 0.8100 0.8110 0.8130 0.8130
4.686465 0.8130 0.8130 0.8130 0.8100 0.8100
4.719800 0.8081 0.8099 0.8110 0.8110 0.8129
4.753135 0.8111 0.8129 0.8130 0.8482 0.8500
4.786470 0.8186 0.8160 0.8160 0.8160 0.8160
4.819805 0.8160 0.8160 0.8151 0.8150 0.8159
4.853140 0.8160 0.8150 0.8130 0.8130 0.8150
4.886475 0.8150 0.8160 0.8160 0.8180 0.8180
4.919810 0.8199 0.8200 0.8210 0.8249 0.8211
4.953145 0.8200 0.8162 0.8160 0.8198 0.8210
4.986480 0.8210 0.8210 0.8229 0.8230 0.8230
5.019815 0.8230 0.8230 0.8212 0.8201 0.8200
5.053150 0.8183 0.8180 0.8180 0.8195 0.8200
5.086485 0.8185 0.8180 0.8159 0.8122 0.8110
5.119820 0.8103 0.8107 0.8110 0.8124 0.8144
5.153155 0.8171 0.8193 0.8220 0.8249 0.8254
5.186490 0.8250 0.8238 0.8213 0.8200 0.8200
5.219825 0.8200 0.8181 0.8160 0.8183 0.8227
5.253160 0.8250 0.8254 0.8260 0.8269 0.8280
5.286495 0.8289 0.8300 0.8300 0.8292 0.8280
5.319830 0.8272 0.8256 0.8237 0.8207 0.8200
5.353165 0.8200 0.8200 0.8196 0.8180 0.8174
5.386500 0.8150 0.8152 0.8163 0.8180 0.8186
5.419835 0.8214 0.8235 0.8252 0.8202 0.8160
5.453170 0.8159 0.8150 0.8148 0.8128 0.8060
5.486505 0.8030 0.7931 0.7784 0.7607 0.7297
5.519840 0.7065 0.6829 0.6629 0.6211 0.6200
5.553175 0.6371 0.6595 0.6785 0.6946 0.7095
5.586510 0.7110 0.7040 0.6944 0.6629 0.6358
5.619845 0.6112 0.5946 0.5866 0.5600 0.5052
5.653180 0.4578 0.4288 0.4058 0.3627 0.3243
5.686515 0.2643 0.2154 0.2152 0.2310 0.2471
5.719850 0.2868 0.3123 0.3001 0.2310 0.1538
5.753185 0.1154 0.0971 0.0842 0.0781 0.0760
5.786520 0.0769 0.0810 0.0875 0.1532 0.2519
5.819855 0.3028 0.3612 0.4099 0.4431 0.4725
5.853190 0.5069 0.5243 0.5472 0.5653 0.5796
5.886525 0.6157 0.6472 0.6566 0.6757 0.6784
5.919860 0.6802 0.6817 0.6860 0.6922 0.7007
5.953195 0.7106 0.7140 0.7189 0.7235 0.7266
5.986530 0.7312 0.7384 0.7412 0.7437 0.7501
6.019865 0.7550 0.7560 0.7560 0.7560 0.7579
6.053200 0.7580 0.7580 0.7562 0.7560 0.7501
6.086535 0.7413 0.7353 0.7265 0.7121 0.7019
6.119870 0.6920 0.6706 0.6225 0.5488 0.4647
6.153205 0.4221 0.3893 0.3155 0.2543 0.1955
6.186540 0.1780 0.1939 0.2342 0.2753 0.3107
6.219875 0.3388 0.3595 0.3650 0.3466 0.3380
6.253210 0.3446 0.4251 0.4919 0.5239 0.5548
6.286545 0.5863 0.6133 0.6365 0.6504 0.6591
6.319880 0.6692 0.6752 0.6793 0.6827 0.6872
6.353215 0.6900 0.6900 0.6891 0.6880 0.6872
6.386550 0.6856 0.6830 0.6762 0.6674 0.6620
6.419885 0.6580 0.6525 0.6502 0.6449 0.6339
6.453220 0.6268 0.6126 0.6011 0.5925 0.5876
6.486555 0.5719 0.5558 0.5480 0.5495 0.5569
6.519890 0.5613 0.5635 0.5670 0.5736 0.5790
6.553225 0.5881 0.5900 0.5910 0.5910 0.5900
6.586560 0.5900 0.5862 0.5709 0.5607 0.5381
6.619895 0.5232 0.5036 0.4723 0.4190 0.4067
6.653230 0.4060 0.4196 0.4469 0.4808 0.5006
6.686565 0.5294 0.5476 0.5510 0.5503 0.5412
6.719900 0.5358 0.5265 0.5077 0.4696 0.4323
6.753235 0.3995 0.3294 0.2682 0.2447 0.2369
6.786570 0.2344 0.2304 0.2265 0.2240 0.2244
6.819905 0.2295 0.2341 0.2402 0.2475 0.2500
6.853240 0.2514 0.2539 0.2586 0.2652 0.2714
6.886575 0.2787 0.2857 0.2986 0.3165 0.3209
6.919910 0.3252 0.3347 0.3483 0.3633 0.3841
6.953245 0.4045 0.4294 0.4407 0.4506 0.4609
6.986580 0.4725 0.4840 0.4970 0.5065 0.5144
7.019915 0.5213 0.5230 0.5215 0.5007 0.4626
7.053250 0.4124 0.3946 0.3759 0.3551 0.3697
7.086585 0.3893 0.4849 0.5351 0.5380 0.5380
7.119920 0.5360 0.5253 0.5164 0.5009 0.4702
7.153255 0.4432 0.4129 0.3931 0.3745 0.3470
7.186590 0.3126 0.2454 0.1922 0.1653 0.1402
7.219925 0.1164 0.1030 0.0971 0.0914 0.0862
7.253260 0.0820 0.0730 0.0629 0.0502 0.0453
7.286595 0.0437 0.0430 0.0430 0.0430 0.0430
7.319930 0.0441 0.0476 0.0515 0.0595 0.0768
7.353265 0.1056 0.1275 0.1369 0.1472 0.1561
7.386600 0.1694 0.1972 0.2563 0.3136 0.3322
7.419935 0.3435 0.3593 0.3677 0.3739 0.3800
7.453270 0.3741 0.3501 0.3156 0.2831 0.2601
7.486605 0.2464 0.2272 0.2139 0.2121 0.2205
7.519940 0.2414 0.2681 0.3052 0.3264 0.3533
7.553275 0.3639 0.3809 0.4532 0.4873 0.5032
7.586610 0.5072 0.5306 0.5450 0.5448 0.5231
7.619945 0.5151 0.5111 0.5081 0.5103 0.5210
7.653280 0.5210 0.5111 0.5003 0.4952 0.4903
7.686615 0.4900 0.5084 0.5185 0.5283 0.5390
7.719950 0.5563 0.5624 0.5723 0.5827 0.5873
7.753285 0.5954 0.6002 0.6026 0.6014 0.6010
7.786620 0.6002 0.5948 0.5857 0.5773 0.5687
7.819955 0.5626 0.5603 0.5432 0.5195 0.5020
7.853290 0.4792 0.4551 0.4417 0.4344 0.4219
7.886625 0.4041 0.3763 0.3417 0.3076 0.2848
7.919960 0.2749 0.2640 0.2541 0.2387 0.2187
7.953295 0.2091 0.2080 0.2088 0.2120 0.2193
7.986630 0.2338 0.2561 0.2757 0.3007 0.3170
8.019965 0.3245 0.3450 0.3721 0.3961 0.4291
8.053300 0.4503 0.4678 0.4789 0.4914 0.5066
8.086635 0.5220 0.5320 0.5426 0.5509 0.5492
8.119970 0.5393 0.5292 0.5141 0.4925 0.4758
8.153305 0.4610 0.4551 0.4628 0.4719 0.4915
8.186640 0.5065 0.5352 0.5727 0.5906 0.5997
8.219975 0.6057 0.6145 0.6196 0.6269 0.6297
8.253310 0.6325 0.6387 0.6440 0.6473 0.6518
8.286645 0.6553 0.6612 0.6666 0.6680 0.6656
8.319980 0.6635 0.6615 0.6588 0.6507 0.6250
8.353315 0.5913 0.5581 0.5160 0.4665 0.4283
8.386650 0.3941 0.3566 0.3197 0.2960 0.2900
8.419985 0.2951 0.3040 0.3167 0.3311 0.3414
8.453320 0.3418 0.3133 0.2705 0.2261 0.1957
8.486655 0.1818 0.1508 0.1234 0.1200 0.1393
8.519990 0.1810 0.2107 0.2600 0.2833 0.3071
8.553325 0.3336 0.3718 0.4047 0.4306 0.4492
8.586660 0.4576 0.4702 0.4876 0.5028 0.5205
8.619995 0.5269 0.5411 0.5616 0.5764 0.5913
8.653330 0.6041 0.6171 0.6312 0.6352 0.6402
8.686665 0.6461 0.6510 0.6579 0.6629 0.6675
8.720000 0.6680 0.6706 0.6727 0.6747 0.6750
8.753335 0.6758 0.6776 0.6764 0.6752 0.6716
8.786670 0.6710 0.6644 0.6549 0.6474 0.6381
8.820005 0.6352 0.6320 0.6250 0.6193 0.6092
8.853340 0.5960 0.5734 0.5396 0.5117 0.4777
8.886675 0.4491 0.4196 0.3964 0.3840 0.3723
8.920010 0.3662 0.3638 0.3630 0.3619 0.3605
8.953345 0.3589 0.3580 0.3605 0.3679 0.3810
8.986680 0.4045 0.4308 0.4400 0.4636 0.5204
9.020015 0.5530 0.5652 0.5749 0.5909 0.6069
9.053350 0.6226 0.6387 0.6473 0.6494 0.6471
9.086685 0.6444 0.6398 0.6277 0.6168 0.6113
9.120020 0.6044 0.6003 0.5954 0.5893 0.5737
9.153355 0.5515 0.5336 0.5143 0.5023 0.4877
9.186690 0.4775 0.4706 0.4455 0.4403 0.4455
9.220025 0.4561 0.4601 0.4661 0.4750 0.4809
9.253360 0.4810 0.4756 0.4688 0.4490 0.4290
9.286695 0.4193 0.4040 0.3904 0.3776 0.3656
9.320030 0.3571 0.3518 0.3510 0.3567 0.3684
9.353365 0.3789 0.4432 0.4755 0.5010 0.5191
9.386700 0.5278 0.5365 0.5482 0.5697 0.5806
9.420035 0.5840 0.5901 0.5987 0.6096 0.6182
9.453370 0.6262 0.6330 0.6408 0.6479 0.6545
9.486705 0.6607 0.6657 0.6706 0.6745 0.6780
9.520040 0.6804 0.6810 0.6806 0.6800 0.6782
9.553375 0.6743 0.6723 0.6707 0.6694 0.6674
9.586710 0.6642 0.6568 0.6466 0.6373 0.6344
9.620045 0.6292 0.6230 0.6125 0.5967 0.5925
9.653380 0.5899 0.5855 0.5823 0.5774 0.5728
9.686715 0.5705 0.5644 0.5461 0.5216 0.5000
9.720050 0.4791 0.4527 0.4232 0.4047 0.3889
9.753385 0.3720 0.3546 0.3460 0.3461 0.3550
9.786720 0.3629 0.3859 0.4489 0.5001 0.5121
9.820055 0.5216 0.5247 0.5292 0.5341 0.5559
9.853390 0.5808 0.5987 0.6256 0.6383 0.6548
9.886725 0.6645 0.6716 0.6785 0.6877 0.6938
9.920060 0.6950 0.6936 0.6910 0.6887 0.6849
9.953395 0.6799 0.6762 0.6727 0.6704 0.6678
9.986730 0.6660 0.6672 0.6728 0.6842 0.7044
10.020065 0.7184 0.7232 0.7293 0.7356 0.7421
10.053400 0.7480 0.7514 0.7542 0.7568 0.7588
10.086735 0.7604 0.7624 0.7650 0.7634 0.7609
10.120070 0.7630 0.7636 0.7654 0.7660 0.7657
10.153405 0.7644 0.7630 0.7630 0.7624 0.7610
10.186740 0.7610 0.7614 0.7627 0.7609 0.7595
10.220075 0.7559 0.7550 0.7550 0.7551 0.7561
10.253410 0.7580 0.7579 0.7551 0.7550 0.7550
10.286745 0.7559 0.7551 0.7514 0.7501 0.7465
10.320080 0.7391 0.7355 0.7259 0.7214 0.7095
10.353415 0.6966 0.6847 0.6661 0.6505 0.6439
10.386750 0.6390 0.6380 0.6468 0.6556 0.6628
10.420085 0.6772 0.6916 0.7025 0.7149 0.7206
10.453420 0.7222 0.7260 0.7312 0.7363 0.7399
10.486755 0.7441 0.7491 0.7540 0.7584 0.7606
10.520090 0.7610 0.7621 0.7655 0.7689 0.7704
10.553425 0.7710 0.7718 0.7730 0.7730 0.7730
10.586760 0.7737 0.7750 0.7754 0.7768 0.7780
10.620095 0.7772 0.7760 0.7756 0.7750 0.7743
10.653430 0.7736 0.7750 0.7750 0.7746 0.7730
10.686765 0.7730 0.7727 0.7708 0.7697 0.7677
10.720100 0.7659 0.7650 0.7648 0.7627 0.7601
10.753435 0.7543 0.7494 0.7442 0.7367 0.7242
10.786770 0.7151 0.7023 0.6896 0.6803 0.6752
10.820105 0.6337 0.6208 0.6109 0.6019 0.5877
10.853440 0.5659 0.5398 0.5275 0.5205 0.5110
10.886775 0.4966 0.4932 0.4956 0.5122 0.5284
10.920110 0.5475 0.5607 0.5726 0.5883 0.5980
10.953445 0.6215 0.6514 0.6703 0.6848 0.7060
10.986780 0.7213 0.7287 0.7382 0.7507 0.7583
11.020115 0.7632 0.7669 0.7711 0.7742 0.7756
11.053450 0.7783 0.7817 0.7847 0.7870 0.7889
11.086785 0.7900 0.7904 0.7910 0.7910 0.7910
11.120120 0.7910 0.7906 0.7900 0.7893 0.7872
11.153455 0.7860 0.7856 0.7850 0.7850 0.7836
11.186790 0.7800 0.7764 0.7715 0.7672 0.7631
11.220125 0.7548 0.7481 0.7379 0.7236 0.6994
11.253460 0.6881 0.6746 0.6626 0.6425 0.6330
11.286795 0.6069 0.5884 0.5055 0.4620 0.4141
11.320130 0.4051 0.3952 0.3850 0.3866 0.4200
11.353465 0.4803 0.5094 0.5482 0.5666 0.5752
11.386800 0.5885 0.5953 0.5995 0.6026 0.6030
11.420135 0.6048 0.6050 0.6050 0.6076 0.6183
11.453470 0.6309 0.6438 0.6582 0.6770 0.6862
11.486805 0.7079 0.7223 0.7339 0.7481 0.7550
11.520140 0.7586 0.7606 0.7653 0.7698 0.7736
11.553475 0.7770 0.7799 0.7823 0.7842 0.7856
11.586810 0.7872 0.7892 0.7900 0.7906 0.7920
11.620145 0.7930 0.7921 0.7910 0.7910 0.7910
11.653480 0.7906 0.7900 0.7881 0.7843 0.7822
11.686815 0.7798 0.7772 0.7709 0.7622 0.7610
11.720150 0.7617 0.7630 0.7630 0.7636 0.7650
11.753485 0.7650 0.7652 0.7660 0.7651 0.7608
11.786820 0.7600 0.7597 0.7561 0.7421 0.7334
11.820155 0.7176 0.7051 0.6990 0.6906 0.6733
11.853490 0.6579 0.6294 0.6114 0.5917 0.5718
11.886825 0.5486 0.5384 0.5162 0.4916 0.4697
11.920160 0.4571 0.4336 0.4169 0.4072 0.3966
11.953495 0.3855 0.3769 0.3885 0.4173 0.4477
11.986830 0.4731 0.5016 0.5363 0.5601 0.5739
12.020165 0.5977 0.6289 0.6429 0.6540 0.6702
12.053500 0.6826 0.6886 0.6919 0.6949 0.7015
12.086835 0.7078 0.7152 0.7240 0.7339 0.7477
12.120170 0.7569 0.7603 0.7665 0.7740 0.7801
12.153505 0.7865 0.7919 0.7939 0.7954 0.7960
12.186840 0.7968 0.7988 0.8000 0.8004 0.8010
12.220175 0.8017 0.8035 0.8053 0.8065 0.8080
12.253510 0.8084 0.8102 0.8110 0.8114 0.8130
12.286845 0.8130 0.8134 0.8152 0.8164 0.8180
12.320180 0.8180 0.8180 0.8183 0.8200 0.8200
12.353515 0.8200 0.8200 0.8200 0.8180 0.8180
12.386850 0.8161 0.8131 0.8130 0.8158 0.8178
12.420185 0.8180 0.8160 0.8131 0.8111 0.8101
12.453520 0.8082 0.7989 0.7908 0.7811 0.7695
12.486855 0.7534 0.7343 0.7223 0.7049 0.6852
12.520190 0.6640 0.6580 0.6671 0.6772 0.6820
12.553525 0.6830 0.6688 0.6501 0.6295 0.6182
12.586860 0.6092 0.6060 0.6086 0.6311 0.6543
12.620195 0.6837 0.7110 0.7273 0.7396 0.7495
12.653530 0.7569 0.7633 0.7669 0.7671 0.7660
12.686865 0.7656 0.7650 0.7655 0.7683 0.7728
12.720200 0.7763 0.7780 0.7760 0.7722 0.7706
12.753535 0.7693 0.7637 0.7536 0.7455 0.7300
12.786870 0.7174 0.7013 0.6804 0.6541 0.6088
12.820205 0.5526 0.4728 0.4430 0.4206 0.4020
12.853540 0.4079 0.4181 0.4312 0.4510 0.4723
12.886875 0.5022 0.5193 0.5324 0.5757 0.6133
12.920210 0.6755 0.6828 0.6898 0.7090 0.7203
12.953545 0.7349 0.7442 0.7548 0.7579 0.7609
12.986880 0.7629 0.7658 0.7660 0.7696 0.7727
13.020215 0.7748 0.7759 0.7800 0.7825 0.7845
13.053550 0.7857 0.7875 0.7894 0.7907 0.7924
13.086885 0.7930 0.7930 0.7944 0.7957 0.7960
13.120220 0.7939 0.7916 0.7910 0.7923 0.7930
13.153555 0.7943 0.7950 0.7967 0.7996 0.8010
13.186890 0.7995 0.7980 0.7966 0.7950 0.7950
13.220225 0.7941 0.7922 0.7910 0.7929 0.7941
13.253560 0.7930 0.7930 0.7922 0.7910 0.7898
13.286895 0.7880 0.7873 0.7860 0.7860 0.7865
13.320230 0.7880 0.7875 0.7858 0.7846 0.7826
13.353565 0.7808 0.7796 0.7776 0.7753 0.7726
13.386900 0.7708 0.7700 0.7700 0.7697 0.7677
13.420235 0.7653 0.7606 0.7575 0.7528 0.7459
13.453570 0.7410 0.7380 0.7331 0.7233 0.7201
13.486905 0.7115 0.6989 0.6843 0.6800 0.6372
13.520240 0.5851 0.5243 0.4837 0.4534 0.4193
13.553575 0.3847 0.3431 0.3423 0.3534 0.3638
13.586910 0.3752 0.4290 0.4681 0.4941 0.5202
13.620245 0.5433 0.5589 0.5697 0.5810 0.5970
13.653580 0.6112 0.6226 0.6296 0.6336 0.6411
13.686915 0.6480 0.6515 0.6497 0.6395 0.6293
13.720250 0.6229 0.6165 0.6066 0.5967 0.5893
13.753585 0.5692 0.5434 0.5265 0.5053 0.4867
13.786920 0.4739 0.4564 0.4457 0.4430 0.4372
13.820255 0.4337 0.4290 0.4242 0.4164 0.4101
13.853590 0.4061 0.4020 0.4057 0.4092 0.4134
13.886925 0.4181 0.4312 0.4358 0.4347 0.4326
13.920260 0.4279 0.4258 0.4222 0.4055 0.3927
13.953595 0.3799 0.3651 0.3454 0.2917 0.2653
13.986930 0.2472 0.2159 0.2050 0.1912 0.1929
14.020265 0.2045 0.2192 0.2620 0.3156 0.3634
14.053600 0.4249 0.4539 0.4724 0.4855 0.5012
14.086935 0.5286 0.5690 0.5984 0.6144 0.6389
14.120270 0.6497 0.6548 0.6628 0.6724 0.6845
14.153605 0.6901 0.6910 0.6944 0.6994 0.7022
14.186940 0.7013 0.6971 0.6900 0.6773 0.6610
14.220275 0.6489 0.6374 0.6207 0.6062 0.5959
14.253610 0.5905 0.5968 0.6066 0.6140 0.6228
14.286945 0.6317 0.6405 0.6526 0.6674 0.6834
14.320280 0.6960 0.7035 0.7166 0.7215 0.7264
14.353615 0.7316 0.7365 0.7385 0.7400 0.7402
14.386950 0.7410 0.7416 0.7435 0.7450 0.7450
14.420285 0.7450 0.7452 0.7460 0.7464 0.7480
14.453620 0.7478 0.7459 0.7449 0.7429 0.7410
14.486955 0.7410 0.7410 0.7380 0.7380 0.7361
14.520290 0.7310 0.7309 0.7280 0.7260 0.7250
14.553625 0.7211 0.7181 0.7161 0.7151 0.7132
14.586960 0.7104 0.7017 0.6984 0.6964 0.6920
14.620295 0.6887 0.6842 0.6777 0.6716 0.6649
14.653630 0.6575 0.6482 0.6337 0.6148 0.6026
14.686965 0.5788 0.5495 0.5015 0.4387 0.4058
14.720300 0.3875 0.3495 0.3022 0.2651 0.2346
14.753635 0.2114 0.1910 0.1714 0.1590 0.1502
14.786970 0.1440 0.1430 0.1430 0.1466 0.1600
14.820305 0.1850 0.2114 0.2377 0.2666 0.2979
14.853640 0.3279 0.3472 0.3666 0.3811 0.4031
14.886975 0.4432 0.4599 0.4726 0.4827 0.4934
14.920310 0.5034 0.5139 0.5252 0.5413 0.5590
14.953645 0.5704 0.5809 0.5942 0.6084 0.6195
14.986980 0.6276 0.6365 0.6412 0.6430 0.6429
15.020315 0.6409 0.6380 0.6380 0.6410 0.6430
15.053650 0.6450 0.6450 0.6451 0.6480 0.6500
15.086985 0.6530 0.6559 0.6579 0.6580 0.6580
15.120320 0.6580 0.6597 0.6600 0.6608 0.6642
15.153655 0.6650 0.6650 0.6635 0.6630 0.6615
15.186990 0.6625 0.6630 0.6630 0.6630 0.6615
15.220325 0.6610 0.6610 0.6603 0.6600 0.6607
15.253660 0.6610 0.6604 0.6588 0.6580 0.6580
15.286995 0.6580 0.6580 0.6580 0.6580 0.6570
15.320330 0.6555 0.6550 0.6550 0.6550 0.6550
15.353665 0.6540 0.6515 0.6490 0.6471 0.6460
15.387000 0.6456 0.6442 0.6423 0.6417
##END=
