##TITLE=1,2,5-SELENADIAZOLE-3-CARBOXYLIC ACID, 4-UREIDO POTASSIUM SALT
##JCAMP-DX=4.24
##DATA TYPE=INFRARED SPECTRUM
##CLASS=COBLENTZ III
##ORIGIN=SOUTHERN RES. INSTITUTE
##OWNER=COBLENTZ SOCIETY
Collection (C) 2018 copyright by the U.S. Secretary of Commerce
on behalf of the United States of America. All rights reserved.
##DATE=1963/11/15
##MOLFORM=C4 H3 K N4 O3 Se
##SOURCE REFERENCE=COBLENTZ NO. 7716
##$NIST ID=B6007716
##$NIST SOURCE=COBLENTZ
##$NIST IMAGE=cob7716
##SPECTROMETER/DATA SYSTEM=PERKIN-ELMER 221 (GRATING)
##INSTRUMENT PARAMETERS=FILTER CHANGE ABOUT 1100 CM ^-^1
##STATE=SOLID (0.7 mg / 500 mg KBr DISC)
##SAMPLING PROCEDURE=TRANSMISSION
##RESOLUTION=4
##DATA PROCESSING=DIGITIZED BY NIST FROM HARD COPY
##XUNITS=1/CM
##YUNITS=TRANSMITTANCE
##XFACTOR=1.000000
##YFACTOR=1
##DELTAX=001.538462
##FIRSTX=610.769
##LASTX=4000
##FIRSTY=0.794
##MAXX=4000
##MINX=610.769
##MAXY=0.892
##MINY=0.231
##NPOINTS=2204
##XYDATA=(X++(Y..Y))
610.769000 0.7940 0.7940 0.7930 0.7930 0.7920
618.464801 0.7910 0.7910 0.7910 0.7920 0.7930
626.154000 0.7930 0.7940 0.7960 0.7970 0.7980
633.849801 0.7980 0.8000 0.8020 0.8030 0.8060
641.538000 0.8070 0.8090 0.8110 0.8130 0.8130
649.233801 0.8150 0.8150 0.8160 0.8160 0.8180
656.923000 0.8190 0.8200 0.8210 0.8220 0.8240
664.618801 0.8260 0.8300 0.8330 0.8350 0.8370
672.308000 0.8450 0.8460 0.8450 0.8450 0.8440
680.003801 0.8440 0.8430 0.8430 0.8400 0.8360
687.692000 0.8340 0.8280 0.8220 0.8180 0.8170
695.387801 0.8160 0.8050 0.8020 0.7870 0.7680
703.077000 0.7550 0.7530 0.7540 0.7780 0.8010
710.772801 0.8050 0.8350 0.8540 0.8560 0.8560
718.462000 0.8560 0.8560 0.8560 0.8560 0.8560
726.157801 0.8560 0.8550 0.8540 0.8530 0.8500
733.846000 0.8490 0.8460 0.8430 0.8360 0.8330
741.541801 0.8280 0.8270 0.8230 0.8130 0.8010
749.231000 0.7900 0.7810 0.7770 0.7690 0.7360
756.926801 0.6760 0.6380 0.6380 0.6500 0.6530
764.615000 0.6800 0.7000 0.7020 0.7000 0.7000
772.310801 0.6840 0.6790 0.6740 0.6700 0.6650
780.000000 0.6600 0.6560 0.6520 0.6500 0.6500
787.695801 0.6510 0.6530 0.6630 0.6710 0.6800
795.385000 0.6870 0.6900 0.6900 0.6820 0.6380
803.080801 0.6000 0.5620 0.5250 0.5250 0.5480
810.769000 0.5710 0.5950 0.6180 0.6370 0.6760
818.464801 0.7140 0.7530 0.8000 0.8000 0.7850
826.154000 0.7600 0.7350 0.7100 0.6860 0.6860
833.849801 0.7160 0.7700 0.7880 0.8270 0.8450
841.538000 0.8610 0.8660 0.8700 0.8720 0.8720
849.233801 0.8720 0.8720 0.8720 0.8720 0.8730
856.923000 0.8740 0.8750 0.8760 0.8760 0.8760
864.618801 0.8780 0.8800 0.8820 0.8820 0.8830
872.308000 0.8830 0.8830 0.8830 0.8830 0.8820
880.003801 0.8820 0.8820 0.8820 0.8810 0.8810
887.692000 0.8800 0.8780 0.8760 0.8750 0.8730
895.387801 0.8720 0.8710 0.8700 0.8700 0.8690
903.077000 0.8670 0.8660 0.8630 0.8620 0.8580
910.772801 0.8540 0.8510 0.8500 0.8500 0.8500
918.462000 0.8500 0.8500 0.8510 0.8510 0.8530
926.157801 0.8540 0.8560 0.8580 0.8600 0.8630
933.846000 0.8650 0.8690 0.8700 0.8730 0.8740
941.541801 0.8750 0.8750 0.8750 0.8750 0.8760
949.231000 0.8760 0.8760 0.8760 0.8780 0.8780
956.926801 0.8790 0.8800 0.8800 0.8810 0.8820
964.615000 0.8820 0.8810 0.8790 0.8760 0.8750
972.310801 0.8730 0.8720 0.8710 0.8700 0.8680
980.000000 0.8620 0.8600 0.8570 0.8520 0.8460
987.695801 0.8260 0.8240 0.8200 0.8200 0.8420
995.385000 0.8540 0.8650 0.8670 0.8700 0.8730
1003.080801 0.8730 0.8730 0.8730 0.8730 0.8730
1010.769000 0.8730 0.8730 0.8720 0.8710 0.8710
1018.464801 0.8700 0.8700 0.8700 0.8700 0.8700
1026.154000 0.8700 0.8690 0.8690 0.8690 0.8680
1033.849801 0.8670 0.8660 0.8660 0.8660 0.8660
1041.538000 0.8660 0.8650 0.8650 0.8650 0.8650
1049.233801 0.8640 0.8640 0.8640 0.8640 0.8640
1056.923000 0.8640 0.8640 0.8640 0.8640 0.8630
1064.618801 0.8630 0.8630 0.8630 0.8630 0.8610
1072.308000 0.8590 0.8570 0.8570 0.8560 0.8560
1080.003801 0.8550 0.8550 0.8530 0.8520 0.8500
1087.692000 0.8480 0.8450 0.8370 0.8300 0.8240
1095.387801 0.8240 0.8420 0.8510 0.8520 0.8530
1103.077000 0.8530 0.8520 0.8460 0.8430 0.8390
1110.772801 0.8360 0.8360 0.8340 0.8330 0.8320
1118.462000 0.8310 0.8290 0.8280 0.8250 0.8200
1126.157801 0.8160 0.8110 0.8060 0.8000 0.7960
1133.846000 0.7900 0.7880 0.7860 0.7820 0.7760
1141.541801 0.7730 0.7700 0.7660 0.7640 0.7600
1149.231000 0.7570 0.7490 0.7470 0.7460 0.7450
1156.926801 0.7450 0.7460 0.7470 0.7520 0.7560
1164.615000 0.7600 0.7660 0.7730 0.7800 0.7870
1172.310801 0.7910 0.7940 0.7960 0.7980 0.8000
1180.000000 0.8030 0.8050 0.8070 0.8080 0.8100
1187.695801 0.8100 0.8120 0.8130 0.8130 0.8130
1195.385000 0.8130 0.8130 0.8130 0.8130 0.8120
1203.080801 0.8120 0.8120 0.8110 0.8110 0.8100
1210.769000 0.8100 0.8090 0.8080 0.8060 0.8060
1218.464801 0.8020 0.8000 0.7980 0.7960 0.7940
1226.154000 0.7910 0.7860 0.7820 0.7790 0.7770
1233.849801 0.7740 0.7710 0.7650 0.7560 0.7260
1241.538000 0.7070 0.6330 0.5960 0.5830 0.5450
1249.233801 0.5430 0.5450 0.5500 0.5700 0.5970
1256.923000 0.6290 0.6620 0.6940 0.7210 0.7540
1264.618801 0.7680 0.7870 0.7930 0.7950 0.7930
1272.308000 0.7920 0.7900 0.7870 0.7870 0.7860
1280.003801 0.7860 0.7850 0.7850 0.7850 0.7860
1287.692000 0.7860 0.7860 0.7860 0.7860 0.7860
1295.387801 0.7860 0.7850 0.7850 0.7840 0.7830
1303.077000 0.7820 0.7810 0.7800 0.7800 0.7790
1310.772801 0.7780 0.7760 0.7700 0.7660 0.7640
1318.462000 0.7630 0.7620 0.7600 0.7570 0.7520
1326.157801 0.7430 0.7300 0.7240 0.7180 0.7130
1333.846000 0.6910 0.6830 0.6810 0.6780 0.6630
1341.541801 0.6310 0.5710 0.5090 0.4560 0.4360
1349.231000 0.4000 0.3630 0.3260 0.3270 0.3290
1356.926801 0.3430 0.3590 0.3740 0.3900 0.4050
1364.615000 0.4200 0.4350 0.4500 0.4660 0.4790
1372.310801 0.4930 0.5110 0.5140 0.5300 0.5440
1380.000000 0.5570 0.5840 0.6000 0.6130 0.6240
1387.695801 0.6330 0.6390 0.6410 0.6500 0.6510
1395.385000 0.6510 0.6500 0.6470 0.6390 0.6370
1403.080801 0.6270 0.6100 0.5760 0.5380 0.5380
1410.769000 0.5420 0.5460 0.5500 0.5760 0.5850
1418.464801 0.5900 0.5930 0.5930 0.5920 0.5870
1426.154000 0.5600 0.5460 0.5270 0.5260 0.5260
1433.849801 0.5450 0.5630 0.5810 0.5860 0.5960
1441.538000 0.6180 0.6400 0.6630 0.6840 0.7030
1449.233801 0.7190 0.7260 0.7260 0.7260 0.7260
1456.923000 0.7260 0.7210 0.7130 0.7030 0.6920
1464.618801 0.6790 0.6630 0.6470 0.6300 0.6110
1472.308000 0.5920 0.5730 0.5530 0.5330 0.5130
1480.003801 0.4940 0.4790 0.4760 0.4740 0.4740
1487.692000 0.4750 0.4760 0.4800 0.4890 0.4970
1495.387801 0.5060 0.5150 0.5230 0.5310 0.5390
1503.077000 0.5470 0.5540 0.5620 0.5690 0.5760
1510.772801 0.5830 0.5900 0.5960 0.6020 0.6070
1518.462000 0.6130 0.6150 0.6160 0.6180 0.6200
1526.157801 0.6060 0.6020 0.5930 0.5930 0.5830
1533.846000 0.5710 0.5630 0.5540 0.5370 0.5290
1541.541801 0.5290 0.5460 0.5470 0.5660 0.5860
1549.231000 0.6030 0.6230 0.6250 0.6270 0.6390
1556.926801 0.6550 0.6850 0.6910 0.6920 0.6920
1564.615000 0.6910 0.6900 0.6880 0.6870 0.6850
1572.310801 0.6810 0.6730 0.6620 0.6480 0.6300
1580.000000 0.6110 0.5900 0.5680 0.5450 0.5210
1587.695801 0.4970 0.4730 0.4510 0.4300 0.4100
1595.385000 0.3930 0.3770 0.3660 0.3560 0.3430
1603.080801 0.3430 0.3420 0.3430 0.3460 0.3500
1610.769000 0.3580 0.3590 0.3600 0.3600 0.3590
1618.464801 0.3260 0.2760 0.2340 0.2330 0.2340
1626.154000 0.2500 0.2660 0.2810 0.2960 0.3120
1633.849801 0.3270 0.3430 0.3670 0.3680 0.4300
1641.538000 0.4720 0.5190 0.5530 0.5790 0.5960
1649.233801 0.6100 0.6220 0.6330 0.6490 0.6690
1656.923000 0.6800 0.6890 0.6980 0.7060 0.7140
1664.618801 0.7200 0.7210 0.7220 0.7220 0.7210
1672.308000 0.7160 0.7050 0.6960 0.6860 0.6760
1680.003801 0.6640 0.6490 0.6300 0.6070 0.5780
1687.692000 0.5460 0.4790 0.3960 0.3130 0.2530
1695.387801 0.2330 0.2320 0.2310 0.2320 0.2420
1703.077000 0.2530 0.2630 0.2730 0.2840 0.2950
1710.772801 0.3050 0.3160 0.3260 0.3390 0.3560
1718.462000 0.3990 0.4370 0.4720 0.5030 0.5310
1726.157801 0.5550 0.5760 0.5930 0.6060 0.6230
1733.846000 0.6370 0.6510 0.6640 0.6760 0.6870
1741.541801 0.6980 0.7070 0.7160 0.7240 0.7320
1749.231000 0.7400 0.7460 0.7520 0.7580 0.7640
1756.926801 0.7700 0.7750 0.7800 0.7850 0.7900
1764.615000 0.7930 0.8000 0.8050 0.8100 0.8130
1772.310801 0.8170 0.8210 0.8240 0.8280 0.8310
1780.000000 0.8340 0.8360 0.8380 0.8400 0.8430
1787.695801 0.8460 0.8490 0.8510 0.8520 0.8530
1795.385000 0.8540 0.8550 0.8560 0.8580 0.8600
1803.080801 0.8600 0.8630 0.8650 0.8660 0.8680
1810.769000 0.8690 0.8700 0.8700 0.8700 0.8700
1818.464801 0.8700 0.8700 0.8710 0.8720 0.8730
1826.154000 0.8740 0.8750 0.8760 0.8760 0.8760
1833.849801 0.8760 0.8760 0.8760 0.8760 0.8760
1841.538000 0.8760 0.8760 0.8760 0.8760 0.8760
1849.233801 0.8760 0.8760 0.8760 0.8760 0.8760
1856.923000 0.8760 0.8760 0.8760 0.8760 0.8760
1864.618801 0.8780 0.8790 0.8800 0.8800 0.8810
1872.308000 0.8810 0.8810 0.8810 0.8810 0.8810
1880.003801 0.8810 0.8810 0.8820 0.8820 0.8820
1887.692000 0.8830 0.8830 0.8830 0.8830 0.8820
1895.387801 0.8810 0.8810 0.8810 0.8810 0.8820
1903.077000 0.8820 0.8820 0.8820 0.8820 0.8820
1910.772801 0.8830 0.8830 0.8830 0.8830 0.8830
1918.462000 0.8830 0.8830 0.8830 0.8850 0.8850
1926.157801 0.8850 0.8850 0.8850 0.8850 0.8850
1933.846000 0.8850 0.8850 0.8840 0.8830 0.8830
1941.541801 0.8820 0.8820 0.8810 0.8810 0.8800
1949.231000 0.8800 0.8790 0.8790 0.8790 0.8790
1956.926801 0.8790 0.8780 0.8780 0.8790 0.8800
1964.615000 0.8810 0.8820 0.8830 0.8830 0.8850
1972.310801 0.8860 0.8890 0.8900 0.8900 0.8900
1980.000000 0.8910 0.8910 0.8910 0.8910 0.8910
1987.695801 0.8910 0.8910 0.8910 0.8910 0.8900
1995.385000 0.8900 0.8900 0.8900 0.8890 0.8880
2003.080801 0.8880 0.8870 0.8870 0.8870 0.8870
2010.769000 0.8860 0.8860 0.8860 0.8850 0.8850
2018.464801 0.8860 0.8860 0.8880 0.8900 0.8900
2026.154000 0.8900 0.8910 0.8910 0.8900 0.8900
2033.849801 0.8890 0.8880 0.8870 0.8870 0.8880
2041.538000 0.8890 0.8900 0.8900 0.8910 0.8910
2049.233801 0.8910 0.8910 0.8910 0.8900 0.8900
2056.923000 0.8900 0.8910 0.8920 0.8920 0.8920
2064.618801 0.8920 0.8920 0.8920 0.8920 0.8920
2072.308000 0.8920 0.8910 0.8910 0.8900 0.8900
2080.003801 0.8900 0.8900 0.8890 0.8890 0.8880
2087.692000 0.8880 0.8870 0.8860 0.8860 0.8860
2095.387801 0.8850 0.8850 0.8850 0.8850 0.8850
2103.077000 0.8860 0.8860 0.8860 0.8870 0.8880
2110.772801 0.8880 0.8880 0.8890 0.8890 0.8890
2118.462000 0.8890 0.8890 0.8880 0.8880 0.8870
2126.157801 0.8870 0.8860 0.8860 0.8860 0.8860
2133.846000 0.8860 0.8860 0.8860 0.8860 0.8860
2141.541801 0.8860 0.8860 0.8860 0.8860 0.8860
2149.231000 0.8860 0.8860 0.8860 0.8860 0.8860
2156.926801 0.8860 0.8860 0.8860 0.8860 0.8860
2164.615000 0.8850 0.8850 0.8850 0.8850 0.8850
2172.310801 0.8850 0.8850 0.8850 0.8850 0.8850
2180.000000 0.8850 0.8850 0.8850 0.8850 0.8840
2187.695801 0.8830 0.8830 0.8830 0.8830 0.8830
2195.385000 0.8830 0.8830 0.8830 0.8840 0.8840
2203.080801 0.8850 0.8860 0.8860 0.8860 0.8860
2210.769000 0.8860 0.8860 0.8860 0.8860 0.8860
2218.464801 0.8850 0.8850 0.8840 0.8830 0.8830
2226.154000 0.8830 0.8830 0.8830 0.8830 0.8830
2233.849801 0.8830 0.8810 0.8810 0.8800 0.8800
2241.539000 0.8800 0.8790 0.8780 0.8760 0.8760
2249.234801 0.8760 0.8760 0.8760 0.8760 0.8760
2256.923000 0.8760 0.8770 0.8770 0.8770 0.8770
2264.618801 0.8780 0.8790 0.8800 0.8800 0.8800
2272.308000 0.8800 0.8810 0.8810 0.8800 0.8800
2280.003801 0.8800 0.8790 0.8790 0.8780 0.8780
2287.692000 0.8780 0.8780 0.8780 0.8790 0.8800
2295.387801 0.8800 0.8800 0.8790 0.8790 0.8770
2303.077000 0.8760 0.8760 0.8740 0.8730 0.8730
2310.772801 0.8730 0.8730 0.8720 0.8720 0.8720
2318.462000 0.8720 0.8710 0.8710 0.8700 0.8700
2326.157801 0.8700 0.8710 0.8710 0.8710 0.8720
2333.846000 0.8720 0.8720 0.8720 0.8730 0.8730
2341.541801 0.8730 0.8730 0.8730 0.8730 0.8730
2349.231000 0.8730 0.8730 0.8730 0.8730 0.8730
2356.926801 0.8730 0.8730 0.8730 0.8730 0.8730
2364.615000 0.8730 0.8730 0.8730 0.8730 0.8730
2372.310801 0.8730 0.8730 0.8730 0.8730 0.8730
2380.000000 0.8730 0.8730 0.8720 0.8720 0.8720
2387.695801 0.8720 0.8720 0.8720 0.8720 0.8730
2395.385000 0.8730 0.8730 0.8730 0.8720 0.8720
2403.080801 0.8720 0.8720 0.8720 0.8720 0.8710
2410.769000 0.8710 0.8700 0.8700 0.8700 0.8700
2418.464801 0.8690 0.8690 0.8680 0.8680 0.8670
2426.154000 0.8670 0.8670 0.8660 0.8660 0.8660
2433.849801 0.8660 0.8660 0.8660 0.8650 0.8650
2441.539000 0.8650 0.8650 0.8650 0.8650 0.8650
2449.234801 0.8650 0.8650 0.8640 0.8640 0.8640
2456.923000 0.8640 0.8640 0.8630 0.8630 0.8630
2464.618801 0.8620 0.8610 0.8600 0.8600 0.8590
2472.308000 0.8590 0.8590 0.8590 0.8590 0.8580
2480.003801 0.8580 0.8580 0.8580 0.8580 0.8570
2487.692000 0.8570 0.8570 0.8570 0.8570 0.8570
2495.387801 0.8560 0.8560 0.8560 0.8560 0.8560
2503.077000 0.8560 0.8560 0.8560 0.8560 0.8560
2510.772801 0.8560 0.8560 0.8550 0.8550 0.8550
2518.462000 0.8550 0.8550 0.8550 0.8540 0.8540
2526.157801 0.8540 0.8540 0.8540 0.8540 0.8530
2533.846000 0.8530 0.8530 0.8530 0.8530 0.8520
2541.541801 0.8510 0.8500 0.8500 0.8500 0.8490
2549.231000 0.8490 0.8480 0.8480 0.8480 0.8480
2556.926801 0.8480 0.8480 0.8480 0.8480 0.8470
2564.615000 0.8470 0.8470 0.8460 0.8460 0.8460
2572.310801 0.8460 0.8460 0.8450 0.8450 0.8450
2580.000000 0.8460 0.8460 0.8460 0.8460 0.8460
2587.695801 0.8460 0.8460 0.8460 0.8460 0.8460
2595.385000 0.8460 0.8460 0.8460 0.8460 0.8450
2603.080801 0.8450 0.8440 0.8440 0.8440 0.8440
2610.769000 0.8440 0.8440 0.8440 0.8440 0.8440
2618.464801 0.8440 0.8440 0.8430 0.8430 0.8430
2626.154000 0.8420 0.8420 0.8420 0.8410 0.8410
2633.849801 0.8400 0.8400 0.8400 0.8400 0.8400
2641.539000 0.8400 0.8390 0.8390 0.8390 0.8380
2649.234801 0.8380 0.8380 0.8370 0.8370 0.8370
2656.923000 0.8360 0.8360 0.8360 0.8350 0.8350
2664.618801 0.8340 0.8340 0.8330 0.8330 0.8330
2672.308000 0.8330 0.8320 0.8320 0.8310 0.8310
2680.003801 0.8300 0.8300 0.8300 0.8300 0.8300
2687.692000 0.8290 0.8290 0.8280 0.8270 0.8260
2695.387801 0.8260 0.8260 0.8250 0.8250 0.8260
2703.077000 0.8260 0.8260 0.8270 0.8270 0.8270
2710.772801 0.8270 0.8260 0.8260 0.8260 0.8250
2718.462000 0.8240 0.8240 0.8230 0.8230 0.8230
2726.157801 0.8230 0.8220 0.8220 0.8220 0.8210
2733.846000 0.8200 0.8200 0.8200 0.8200 0.8190
2741.541801 0.8180 0.8180 0.8170 0.8160 0.8160
2749.231000 0.8160 0.8150 0.8150 0.8140 0.8130
2756.926801 0.8130 0.8130 0.8130 0.8120 0.8110
2764.615000 0.8100 0.8100 0.8100 0.8090 0.8080
2772.310801 0.8070 0.8070 0.8060 0.8060 0.8060
2780.000000 0.8060 0.8050 0.8050 0.8040 0.8040
2787.695801 0.8030 0.8010 0.8010 0.8000 0.8000
2795.385000 0.8000 0.7990 0.7980 0.7960 0.7960
2803.080801 0.7950 0.7940 0.7930 0.7930 0.7920
2810.769000 0.7910 0.7900 0.7900 0.7890 0.7880
2818.464801 0.7870 0.7870 0.7870 0.7860 0.7860
2826.154000 0.7860 0.7860 0.7860 0.7870 0.7870
2833.849801 0.7890 0.7900 0.7900 0.7900 0.7900
2841.539000 0.7890 0.7890 0.7880 0.7880 0.7870
2849.234801 0.7870 0.7860 0.7860 0.7850 0.7850
2856.923000 0.7850 0.7840 0.7840 0.7830 0.7830
2864.618801 0.7820 0.7800 0.7790 0.7770 0.7760
2872.308000 0.7750 0.7730 0.7720 0.7700 0.7700
2880.003801 0.7680 0.7670 0.7660 0.7660 0.7660
2887.692000 0.7650 0.7640 0.7630 0.7630 0.7620
2895.387801 0.7610 0.7600 0.7590 0.7570 0.7550
2903.077000 0.7530 0.7500 0.7460 0.7430 0.7410
2910.772801 0.7390 0.7370 0.7360 0.7340 0.7330
2918.462000 0.7320 0.7310 0.7300 0.7290 0.7280
2926.157801 0.7270 0.7260 0.7260 0.7240 0.7230
2933.846000 0.7220 0.7210 0.7200 0.7170 0.7160
2941.541801 0.7130 0.7100 0.7070 0.7070 0.7060
2949.231000 0.7060 0.7060 0.7060 0.7050 0.7050
2956.926801 0.7050 0.7040 0.7040 0.7030 0.7030
2964.615000 0.7030 0.7020 0.7020 0.7010 0.7010
2972.310801 0.7000 0.7000 0.7000 0.7000 0.6990
2980.000000 0.6990 0.6980 0.6980 0.6980 0.6960
2987.695801 0.6960 0.6950 0.6930 0.6930 0.6920
2995.385000 0.6900 0.6860 0.6840 0.6830 0.6800
3003.080801 0.6770 0.6760 0.6750 0.6730 0.6730
3010.769000 0.6720 0.6690 0.6660 0.6650 0.6590
3018.464801 0.6550 0.6530 0.6510 0.6500 0.6500
3026.154000 0.6490 0.6470 0.6460 0.6460 0.6460
3033.849801 0.6430 0.6410 0.6390 0.6360 0.6350
3041.539000 0.6340 0.6330 0.6310 0.6280 0.6200
3049.234801 0.6160 0.6110 0.6060 0.6030 0.5990
3056.923000 0.5950 0.5910 0.5880 0.5850 0.5810
3064.618801 0.5790 0.5760 0.5730 0.5700 0.5680
3072.308000 0.5660 0.5640 0.5630 0.5600 0.5540
3080.003801 0.5490 0.5440 0.5410 0.5390 0.5360
3087.692000 0.5350 0.5330 0.5310 0.5310 0.5300
3095.387801 0.5280 0.5260 0.5240 0.5230 0.5210
3103.077000 0.5200 0.5190 0.5180 0.5170 0.5170
3110.772801 0.5170 0.5180 0.5180 0.5200 0.5200
3118.462000 0.5220 0.5230 0.5250 0.5260 0.5400
3126.157801 0.5450 0.5500 0.5530 0.5560 0.5720
3133.846000 0.5730 0.5790 0.5830 0.5840 0.5850
3141.541801 0.5900 0.5940 0.6030 0.6080 0.6110
3149.231000 0.6160 0.6200 0.6280 0.6310 0.6330
3156.926801 0.6330 0.6350 0.6360 0.6370 0.6380
3164.615000 0.6390 0.6400 0.6430 0.6440 0.6480
3172.310801 0.6510 0.6550 0.6560 0.6580 0.6590
3180.000000 0.6600 0.6610 0.6610 0.6620 0.6630
3187.695801 0.6670 0.6690 0.6700 0.6710 0.6730
3195.385000 0.6740 0.6760 0.6770 0.6800 0.6810
3203.080801 0.6830 0.6840 0.6850 0.6860 0.6870
3210.769000 0.6900 0.6930 0.6960 0.7010 0.7060
3218.464801 0.7080 0.7090 0.7100 0.7100 0.7120
3226.154000 0.7130 0.7130 0.7140 0.7150 0.7150
3233.849801 0.7160 0.7160 0.7160 0.7170 0.7190
3241.539000 0.7200 0.7220 0.7240 0.7260 0.7260
3249.234801 0.7270 0.7270 0.7280 0.7280 0.7270
3256.923000 0.7270 0.7260 0.7260 0.7240 0.7230
3264.618801 0.7230 0.7230 0.7220 0.7210 0.7210
3272.308000 0.7200 0.7200 0.7200 0.7190 0.7190
3280.003801 0.7180 0.7170 0.7170 0.7160 0.7160
3287.692000 0.7160 0.7150 0.7150 0.7140 0.7130
3295.387801 0.7130 0.7130 0.7120 0.7110 0.7100
3303.077000 0.7100 0.7100 0.7090 0.7080 0.7080
3310.772801 0.7060 0.7060 0.7030 0.7000 0.6960
3318.462000 0.6930 0.6880 0.6830 0.6790 0.6750
3326.157801 0.6720 0.6690 0.6660 0.6630 0.6580
3333.846000 0.6530 0.6470 0.6420 0.6360 0.6300
3341.541801 0.6240 0.6180 0.6110 0.6040 0.5960
3349.231000 0.5890 0.5810 0.5730 0.5630 0.5540
3356.926801 0.5450 0.5340 0.5200 0.5090 0.5000
3364.615000 0.4910 0.4850 0.4800 0.4760 0.4730
3372.310801 0.4700 0.4660 0.4630 0.4620 0.4620
3380.000000 0.4630 0.4710 0.4790 0.4870 0.4920
3387.695801 0.4930 0.5150 0.5320 0.5470 0.5610
3395.385000 0.5760 0.5930 0.6130 0.6310 0.6460
3403.080801 0.6580 0.6680 0.6770 0.6840 0.6900
3410.769000 0.6930 0.6970 0.7000 0.7020 0.7030
3418.464801 0.7040 0.7060 0.7070 0.7100 0.7120
3426.154000 0.7180 0.7220 0.7240 0.7260 0.7270
3433.849801 0.7280 0.7310 0.7350 0.7400 0.7460
3441.539000 0.7490 0.7510 0.7520 0.7530 0.7530
3449.234801 0.7530 0.7530 0.7540 0.7550 0.7570
3456.923000 0.7590 0.7600 0.7610 0.7620 0.7630
3464.618801 0.7630 0.7630 0.7640 0.7650 0.7650
3472.308000 0.7690 0.7700 0.7720 0.7730 0.7740
3480.003801 0.7740 0.7750 0.7760 0.7760 0.7760
3487.692000 0.7770 0.7770 0.7780 0.7790 0.7800
3495.387801 0.7800 0.7820 0.7830 0.7830 0.7840
3503.077000 0.7860 0.7860 0.7870 0.7880 0.7880
3510.772801 0.7900 0.7900 0.7910 0.7920 0.7930
3518.462000 0.7930 0.7940 0.7950 0.7960 0.7960
3526.157801 0.7980 0.8000 0.8010 0.8030 0.8040
3533.846000 0.8040 0.8050 0.8050 0.8050 0.8050
3541.541801 0.8050 0.8050 0.8040 0.8040 0.8040
3549.231000 0.8040 0.8040 0.8040 0.8040 0.8040
3556.926801 0.8040 0.8050 0.8060 0.8060 0.8060
3564.615000 0.8060 0.8070 0.8070 0.8080 0.8090
3572.310801 0.8100 0.8100 0.8130 0.8160 0.8180
3580.000000 0.8190 0.8190 0.8190 0.8200 0.8200
3587.695801 0.8200 0.8200 0.8210 0.8220 0.8230
3595.385000 0.8230 0.8250 0.8250 0.8260 0.8260
3603.080801 0.8260 0.8270 0.8270 0.8280 0.8280
3610.769000 0.8290 0.8300 0.8300 0.8300 0.8300
3618.464801 0.8310 0.8310 0.8310 0.8310 0.8320
3626.154000 0.8330 0.8330 0.8330 0.8340 0.8350
3633.849801 0.8350 0.8360 0.8360 0.8360 0.8360
3641.539000 0.8350 0.8350 0.8350 0.8340 0.8340
3649.234801 0.8340 0.8340 0.8340 0.8340 0.8340
3656.923000 0.8350 0.8350 0.8350 0.8360 0.8360
3664.618801 0.8360 0.8360 0.8360 0.8370 0.8370
3672.308000 0.8380 0.8380 0.8380 0.8390 0.8390
3680.003801 0.8390 0.8390 0.8400 0.8400 0.8400
3687.692000 0.8400 0.8400 0.8400 0.8400 0.8400
3695.387801 0.8410 0.8410 0.8410 0.8410 0.8410
3703.077000 0.8410 0.8410 0.8410 0.8410 0.8410
3710.772801 0.8410 0.8410 0.8410 0.8410 0.8400
3718.462000 0.8400 0.8400 0.8400 0.8400 0.8400
3726.157801 0.8400 0.8390 0.8390 0.8390 0.8390
3733.846000 0.8380 0.8380 0.8380 0.8380 0.8380
3741.541801 0.8370 0.8370 0.8370 0.8370 0.8370
3749.231000 0.8370 0.8370 0.8360 0.8360 0.8360
3756.926801 0.8360 0.8350 0.8340 0.8330 0.8330
3764.615000 0.8310 0.8300 0.8300 0.8290 0.8290
3772.310801 0.8290 0.8290 0.8290 0.8300 0.8300
3780.000000 0.8300 0.8300 0.8300 0.8300 0.8300
3787.695801 0.8300 0.8300 0.8310 0.8310 0.8310
3795.385000 0.8310 0.8310 0.8310 0.8310 0.8310
3803.080801 0.8320 0.8320 0.8320 0.8310 0.8310
3810.769000 0.8310 0.8310 0.8310 0.8300 0.8300
3818.464801 0.8300 0.8300 0.8300 0.8300 0.8300
3826.154000 0.8300 0.8300 0.8300 0.8300 0.8300
3833.849801 0.8300 0.8300 0.8300 0.8300 0.8300
3841.539000 0.8300 0.8300 0.8300 0.8300 0.8300
3849.234801 0.8300 0.8300 0.8300 0.8300 0.8300
3856.923000 0.8300 0.8290 0.8290 0.8290 0.8280
3864.618801 0.8280 0.8280 0.8280 0.8270 0.8270
3872.308000 0.8270 0.8270 0.8260 0.8260 0.8260
3880.003801 0.8260 0.8260 0.8260 0.8260 0.8260
3887.692000 0.8260 0.8260 0.8260 0.8250 0.8250
3895.387801 0.8250 0.8250 0.8240 0.8240 0.8240
3903.077000 0.8240 0.8240 0.8240 0.8240 0.8230
3910.772801 0.8230 0.8230 0.8220 0.8220 0.8210
3918.462000 0.8210 0.8210 0.8210 0.8210 0.8210
3926.157801 0.8210 0.8210 0.8210 0.8210 0.8210
3933.846000 0.8210 0.8210 0.8210 0.8210 0.8210
3941.541801 0.8210 0.8210 0.8210 0.8210 0.8210
3949.231000 0.8210 0.8210 0.8210 0.8210 0.8210
3956.926801 0.8200 0.8200 0.8200 0.8200 0.8200
3964.615000 0.8200 0.8200 0.8190 0.8190 0.8180
3972.310801 0.8180 0.8180 0.8170 0.8170 0.8170
3980.000000 0.8160 0.8160 0.8150 0.8150 0.8140
3987.695801 0.8130 0.8130 0.8130 0.8120 0.8110
3995.385000 0.8110 0.8100 0.8100 0.8090
##END=
