##TITLE=MELEZITOSE, MONOHYDRATE
##JCAMP-DX=4.24
##DATA TYPE=INFRARED SPECTRUM
##CLASS=COBLENTZ III
##ORIGIN=DOW CHEMICAL COMPANY
##OWNER=COBLENTZ SOC.
Collection (C) 2018 copyright by the U.S. Secretary of Commerce
on behalf of the United States of America. All rights reserved.
##DATE=1966/03/17
##NAMES=TRISACCHARIDE BUILT FROM TWO MOLECULES OF GLUCOSE AND ONE MOLECULE OF FRUCTOSE
##MOLFORM=C18 H32 O16  * H2 O
##SOURCE REFERENCE=COBLENTZ NO. 07575
##$NIST ID=B6007575
##$NIST SOURCE=COBLENTZ
##$NIST IMAGE=cob7575
##SPECTROMETER/DATA SYSTEM=BECKMAN IR-9 (GRATING)
##INSTRUMENT PARAMETERS=ORDER CHANGES: 670, 1200, 2000 CM^-^1
##STATE=SOLID (SPLIT MULL), FLUOROLUBE FOR 3800-1330 CM^-^1, NUJOL FOR 1330-400 CM^-^1
$$ SPECTRAL FEATURE AT 1335 CM^-^1 IS AFFECTED BY A CHANGE IN SOLVENT
$$ PURITY : (Alpha)^2^1 D + 86
##SAMPLING PROCEDURE=TRANSMISSION
##RESOLUTION=2
##DATA PROCESSING=DIGITIZED BY COBLENTZ SOCIETY (BATCH I) FROM HARD COPY
##XUNITS=1/CM
##YUNITS=TRANSMITTANCE
##XLABEL=Wavenumbers (cm-1)
##YLABEL=% Transmission
##XFACTOR=1
##YFACTOR=1
##DELTAX=1
##FIRSTX=405
##LASTX=3802
##FIRSTY=0.6143
##MAXX=3802
##MINX=405
##MAXY=0.8918
##MINY=0.0521
##NPOINTS=3398
##XYDATA=(X++(Y..Y))
405.000000 0.6143 0.6143 0.6145 0.6148 0.6151
410.000000 0.6155 0.6160 0.6166 0.6172 0.6179
415.000000 0.6191 0.6202 0.6219 0.6243 0.6278
420.000000 0.6327 0.6385 0.6451 0.6542 0.6671
425.000000 0.6911 0.7058 0.7194 0.7297 0.7394
430.000000 0.7461 0.7528 0.7588 0.7625 0.7661
435.000000 0.7697 0.7733 0.7761 0.7786 0.7811
440.000000 0.7833 0.7844 0.7854 0.7861 0.7868
445.000000 0.7874 0.7881 0.7887 0.7887 0.7888
450.000000 0.7885 0.7882 0.7878 0.7871 0.7864
455.000000 0.7861 0.7892 0.7922 0.7968 0.8011
460.000000 0.8056 0.8107 0.8165 0.8199 0.8225
465.000000 0.8238 0.8252 0.8265 0.8273 0.8275
470.000000 0.8277 0.8278 0.8278 0.8278 0.8275
475.000000 0.8274 0.8271 0.8265 0.8256 0.8246
480.000000 0.8237 0.8215 0.8190 0.8165 0.8143
485.000000 0.8121 0.8098 0.8075 0.8054 0.8032
490.000000 0.8011 0.8003 0.7995 0.7984 0.7968
495.000000 0.7954 0.7938 0.7931 0.7931 0.7931
500.000000 0.7928 0.7904 0.7861 0.7806 0.7680
505.000000 0.7386 0.7319 0.7319 0.7325 0.7315
510.000000 0.7396 0.7471 0.7571 0.7651 0.7728
515.000000 0.7818 0.7911 0.7990 0.8010 0.8011
520.000000 0.8011 0.8001 0.7943 0.7865 0.7807
525.000000 0.7793 0.7780 0.7778 0.7790 0.7830
530.000000 0.7860 0.7886 0.7911 0.7933 0.7942
535.000000 0.7937 0.7933 0.7941 0.7901 0.7842
540.000000 0.7712 0.7617 0.7468 0.7389 0.7361
545.000000 0.7339 0.7343 0.7346 0.7349 0.7319
550.000000 0.7228 0.7091 0.6954 0.6780 0.6549
555.000000 0.6346 0.6216 0.6202 0.6218 0.6214
560.000000 0.6468 0.6739 0.7010 0.7280 0.7528
565.000000 0.7632 0.7708 0.7745 0.7780 0.7799
570.000000 0.7814 0.7825 0.7825 0.7837 0.7814
575.000000 0.7795 0.7760 0.7715 0.7655 0.7578
580.000000 0.7471 0.7348 0.7215 0.7162 0.7134
585.000000 0.7114 0.7094 0.7060 0.6993 0.6756
590.000000 0.6518 0.6328 0.6339 0.6337 0.6400
595.000000 0.6506 0.6612 0.6718 0.6825 0.6931
600.000000 0.7037 0.7144 0.7226 0.7261 0.7261
605.000000 0.7264 0.7253 0.7241 0.7225 0.7208
610.000000 0.7183 0.7145 0.7100 0.7056 0.7011
615.000000 0.6965 0.6921 0.6875 0.6832 0.6787
620.000000 0.6742 0.6697 0.6625 0.6558 0.6505
625.000000 0.6457 0.6411 0.6367 0.6325 0.6285
630.000000 0.6252 0.6243 0.6228 0.6286 0.6366
635.000000 0.6448 0.6530 0.6611 0.6693 0.6775
640.000000 0.6843 0.6855 0.6861 0.6868 0.6871
645.000000 0.6880 0.6868 0.6861 0.6854 0.6844
650.000000 0.6834 0.6821 0.6805 0.6787 0.6768
655.000000 0.6751 0.6731 0.6711 0.6693 0.6674
660.000000 0.6655 0.6637 0.6618 0.6601 0.6586
665.000000 0.6574 0.6561 0.6549 0.6517 0.6453
670.000000 0.6391 0.6344 0.6295 0.6239 0.6202
675.000000 0.6181 0.6172 0.6168 0.6167 0.6167
680.000000 0.6168 0.6171 0.6173 0.6176 0.6178
685.000000 0.6180 0.6180 0.6180 0.6178 0.6176
690.000000 0.6172 0.6168 0.6162 0.6158 0.6136
695.000000 0.6112 0.6085 0.6059 0.6030 0.5997
700.000000 0.5977 0.5960 0.5945 0.5935 0.5926
705.000000 0.5917 0.5908 0.5900 0.5892 0.5883
710.000000 0.5875 0.5862 0.5848 0.5834 0.5796
715.000000 0.5744 0.5696 0.5674 0.5660 0.5660
720.000000 0.5672 0.5678 0.5700 0.5732 0.5841
725.000000 0.5976 0.6110 0.6245 0.6349 0.6406
730.000000 0.6471 0.6544 0.6621 0.6706 0.6814
735.000000 0.6961 0.7057 0.7139 0.7215 0.7261
740.000000 0.7307 0.7351 0.7398 0.7431 0.7462
745.000000 0.7495 0.7526 0.7558 0.7591 0.7626
750.000000 0.7662 0.7698 0.7734 0.7768 0.7801
755.000000 0.7835 0.7868 0.7899 0.7931 0.7962
760.000000 0.7993 0.8014 0.8036 0.8058 0.8072
765.000000 0.8084 0.8095 0.8106 0.8117 0.8121
770.000000 0.8124 0.8125 0.8124 0.8124 0.8118
775.000000 0.8112 0.8104 0.8082 0.8060 0.8017
780.000000 0.7928 0.7815 0.7682 0.7544 0.7406
785.000000 0.7268 0.7131 0.7112 0.7114 0.7694
790.000000 0.7965 0.8026 0.8100 0.8168 0.8230
795.000000 0.8264 0.8296 0.8320 0.8333 0.8346
800.000000 0.8355 0.8359 0.8360 0.8360 0.8359
805.000000 0.8357 0.8354 0.8350 0.8346 0.8341
810.000000 0.8337 0.8332 0.8325 0.8317 0.8308
815.000000 0.8299 0.8288 0.8271 0.8251 0.8228
820.000000 0.8197 0.8150 0.8100 0.8024 0.7957
825.000000 0.7893 0.7830 0.7657 0.7461 0.7192
830.000000 0.6921 0.6756 0.6769 0.6962 0.7215
835.000000 0.7469 0.7661 0.7742 0.7790 0.7838
840.000000 0.7885 0.7932 0.7978 0.8022 0.8054
845.000000 0.8089 0.8075 0.8078 0.8071 0.8057
850.000000 0.8034 0.7994 0.7818 0.7643 0.7588
855.000000 0.7588 0.7692 0.7875 0.8058 0.8242
860.000000 0.8307 0.8388 0.8411 0.8424 0.8418
865.000000 0.8403 0.8383 0.8351 0.8212 0.8051
870.000000 0.7891 0.7731 0.7571 0.7490 0.7471
875.000000 0.7396 0.7296 0.7200 0.7211 0.7393
880.000000 0.7832 0.8227 0.8333 0.8384 0.8435
885.000000 0.8525 0.8578 0.8628 0.8659 0.8681
890.000000 0.8703 0.8715 0.8718 0.8721 0.8716
895.000000 0.8707 0.8695 0.8681 0.8658 0.8623
900.000000 0.8575 0.8515 0.8393 0.8313 0.8233
905.000000 0.8156 0.8080 0.8003 0.7796 0.7599
910.000000 0.7365 0.6915 0.6511 0.6108 0.5704
915.000000 0.5300 0.4896 0.4492 0.4193 0.4191
920.000000 0.4198 0.5167 0.5759 0.6220 0.6260
925.000000 0.6292 0.6288 0.6296 0.6144 0.5979
930.000000 0.5812 0.5721 0.5531 0.5341 0.5278
935.000000 0.5281 0.5610 0.6182 0.6751 0.7599
940.000000 0.7760 0.7899 0.8004 0.8108 0.8218
945.000000 0.8330 0.8402 0.8465 0.8489 0.8507
950.000000 0.8525 0.8534 0.8543 0.8537 0.8537
955.000000 0.8525 0.8510 0.8496 0.8474 0.8451
960.000000 0.8420 0.8384 0.8340 0.8295 0.8248
965.000000 0.8201 0.8154 0.8083 0.8012 0.7943
970.000000 0.7871 0.7798 0.7725 0.7621 0.7518
975.000000 0.7415 0.7298 0.7175 0.7053 0.6892
980.000000 0.6726 0.6448 0.6230 0.6079 0.5928
985.000000 0.5696 0.5370 0.5053 0.4889 0.4182
990.000000 0.3436 0.2913 0.2726 0.2552 0.2373
995.000000 0.2056 0.1567 0.1280 0.0996 0.0750
1000.000000 0.0678 0.0670 0.0688 0.0882 0.1242
1005.000000 0.1476 0.1536 0.1602 0.1686 0.1790
1010.000000 0.1998 0.2419 0.2841 0.3262 0.3684
1015.000000 0.4106 0.4528 0.4569 0.4574 0.4307
1020.000000 0.3828 0.3349 0.2870 0.2421 0.2268
1025.000000 0.2161 0.2028 0.1914 0.1843 0.1786
1030.000000 0.1767 0.1756 0.1796 0.1841 0.1913
1035.000000 0.1981 0.2171 0.2500 0.2828 0.3157
1040.000000 0.3486 0.3814 0.4064 0.4062 0.4044
1045.000000 0.3929 0.3573 0.3216 0.2861 0.2492
1050.000000 0.2480 0.2470 0.2465 0.2460 0.2455
1055.000000 0.2451 0.2272 0.2088 0.1904 0.1720
1060.000000 0.1575 0.1573 0.1628 0.1714 0.1778
1065.000000 0.1776 0.1645 0.1455 0.1366 0.1313
1070.000000 0.1317 0.1291 0.1374 0.2405 0.3046
1075.000000 0.3111 0.3168 0.3191 0.3212 0.3229
1080.000000 0.3241 0.3303 0.3762 0.3777 0.3779
1085.000000 0.3778 0.3778 0.3759 0.3741 0.3748
1090.000000 0.3857 0.3912 0.3934 0.3934 0.3939
1095.000000 0.3903 0.3696 0.3489 0.3282 0.3118
1100.000000 0.3097 0.3128 0.3180 0.3280 0.3379
1105.000000 0.3479 0.3518 0.3484 0.3445 0.3334
1110.000000 0.3223 0.3113 0.3002 0.2960 0.2952
1115.000000 0.2965 0.2970 0.3115 0.3327 0.3540
1120.000000 0.3752 0.3964 0.4177 0.4389 0.4601
1125.000000 0.4810 0.4959 0.5186 0.5440 0.5585
1130.000000 0.5660 0.5708 0.5737 0.5753 0.5775
1135.000000 0.5760 0.5754 0.5745 0.5707 0.5594
1140.000000 0.5324 0.5081 0.4839 0.4597 0.4355
1145.000000 0.4112 0.3871 0.3629 0.3384 0.3337
1150.000000 0.3287 0.3244 0.3207 0.3162 0.3101
1155.000000 0.3050 0.3050 0.3050 0.3041 0.3302
1160.000000 0.4078 0.4853 0.5410 0.6162 0.6319
1165.000000 0.6464 0.6553 0.6641 0.6730 0.6800
1170.000000 0.6865 0.6933 0.6999 0.7078 0.7162
1175.000000 0.7248 0.7333 0.7408 0.7481 0.7554
1180.000000 0.7618 0.7671 0.7725 0.7771 0.7811
1185.000000 0.7853 0.7875 0.7899 0.7915 0.7921
1190.000000 0.7926 0.7933 0.7941 0.7951 0.7981
1195.000000 0.8018 0.8065 0.8084 0.8094 0.8094
1200.000000 0.8094 0.8093 0.8092 0.8091 0.8117
1205.000000 0.8096 0.8100 0.8104 0.8107 0.8110
1210.000000 0.8081 0.8056 0.8033 0.7991 0.7938
1215.000000 0.7875 0.7800 0.7735 0.7672 0.7601
1220.000000 0.7501 0.7400 0.7247 0.6951 0.6926
1225.000000 0.6904 0.6894 0.6894 0.6871 0.6903
1230.000000 0.6918 0.6969 0.7188 0.7367 0.7508
1235.000000 0.7619 0.7689 0.7753 0.7814 0.7862
1240.000000 0.7911 0.7955 0.7972 0.7991 0.8057
1245.000000 0.7994 0.7981 0.7968 0.7937 0.7864
1250.000000 0.7811 0.7732 0.7601 0.7469 0.7256
1255.000000 0.7089 0.6921 0.6755 0.6588 0.6421
1260.000000 0.6248 0.6229 0.6214 0.6202 0.6210
1265.000000 0.6219 0.6368 0.6517 0.6665 0.6815
1270.000000 0.6962 0.7168 0.7245 0.7274 0.7293
1275.000000 0.7310 0.7326 0.7344 0.7360 0.7376
1280.000000 0.7460 0.7540 0.7585 0.7621 0.7626
1285.000000 0.7632 0.7631 0.7631 0.7625 0.7615
1290.000000 0.7524 0.7378 0.7234 0.7088 0.6943
1295.000000 0.6798 0.6684 0.6688 0.6665 0.6698
1300.000000 0.6730 0.6861 0.6981 0.7014 0.7026
1305.000000 0.7031 0.7031 0.7030 0.7022 0.7015
1310.000000 0.7001 0.6985 0.6958 0.6932 0.6906
1315.000000 0.6868 0.6824 0.6371 0.6153 0.5934
1320.000000 0.5716 0.5497 0.5282 0.5284 0.5386
1325.000000 0.5610 0.5834 0.6057 0.6085 0.6096
1330.000000 0.5851 0.5414 0.4978 0.4542 0.4106
1335.000000 0.3682 0.3700 0.3709 0.3718 0.3700
1340.000000 0.3646 0.3573 0.3482 0.3360 0.3323
1345.000000 0.3327 0.3308 0.3334 0.3338 0.3377
1350.000000 0.3447 0.3750 0.3812 0.3849 0.3882
1355.000000 0.3907 0.3930 0.3975 0.4026 0.4077
1360.000000 0.4136 0.4137 0.4139 0.4139 0.4135
1365.000000 0.4149 0.4210 0.4287 0.4374 0.4804
1370.000000 0.4976 0.5200 0.5333 0.5429 0.5525
1375.000000 0.5602 0.5677 0.5735 0.5792 0.5847
1380.000000 0.5889 0.5900 0.5910 0.5919 0.5928
1385.000000 0.5937 0.5964 0.5983 0.5994 0.5974
1390.000000 0.5952 0.5888 0.5751 0.5662 0.5629
1395.000000 0.5594 0.5547 0.5537 0.5530 0.5521
1400.000000 0.5545 0.5582 0.5620 0.5680 0.5757
1405.000000 0.5833 0.5875 0.5896 0.5922 0.5889
1410.000000 0.5873 0.5844 0.5816 0.5788 0.5749
1415.000000 0.5693 0.5629 0.5566 0.5499 0.5429
1420.000000 0.5356 0.5252 0.5160 0.5080 0.5015
1425.000000 0.5004 0.5000 0.5015 0.5048 0.5082
1430.000000 0.5115 0.5148 0.5181 0.5214 0.5248
1435.000000 0.5281 0.5314 0.5347 0.5381 0.5422
1440.000000 0.5462 0.5498 0.5509 0.5514 0.5496
1445.000000 0.5478 0.5457 0.5402 0.5332 0.5218
1450.000000 0.5130 0.5036 0.4937 0.4878 0.4821
1455.000000 0.4749 0.4655 0.4560 0.4466 0.4371
1460.000000 0.4370 0.4352 0.4617 0.4825 0.4904
1465.000000 0.4919 0.4919 0.4919 0.4919 0.4919
1470.000000 0.4923 0.4954 0.5043 0.5191 0.5351
1475.000000 0.5510 0.5670 0.5829 0.5989 0.6148
1480.000000 0.6338 0.6462 0.6580 0.6667 0.6747
1485.000000 0.6826 0.6933 0.7146 0.7261 0.7371
1490.000000 0.7465 0.7560 0.7632 0.7681 0.7731
1495.000000 0.7780 0.7830 0.7868 0.7904 0.7939
1500.000000 0.7974 0.8008 0.8044 0.8075 0.8095
1505.000000 0.8114 0.8133 0.8151 0.8171 0.8189
1510.000000 0.8208 0.8227 0.8246 0.8261 0.8271
1515.000000 0.8280 0.8290 0.8300 0.8309 0.8318
1520.000000 0.8328 0.8338 0.8348 0.8358 0.8367
1525.000000 0.8377 0.8385 0.8394 0.8402 0.8411
1530.000000 0.8420 0.8428 0.8437 0.8445 0.8454
1535.000000 0.8463 0.8471 0.8480 0.8489 0.8497
1540.000000 0.8502 0.8507 0.8512 0.8516 0.8521
1545.000000 0.8525 0.8531 0.8536 0.8541 0.8546
1550.000000 0.8551 0.8555 0.8556 0.8558 0.8560
1555.000000 0.8562 0.8564 0.8565 0.8567 0.8568
1560.000000 0.8571 0.8585 0.8574 0.8575 0.8578
1565.000000 0.8578 0.8580 0.8581 0.8582 0.8583
1570.000000 0.8584 0.8585 0.8586 0.8587 0.8588
1575.000000 0.8589 0.8585 0.8581 0.8575 0.8571
1580.000000 0.8567 0.8563 0.8558 0.8554 0.8550
1585.000000 0.8545 0.8541 0.8536 0.8528 0.8521
1590.000000 0.8514 0.8507 0.8500 0.8493 0.8485
1595.000000 0.8478 0.8471 0.8464 0.8457 0.8449
1600.000000 0.8439 0.8425 0.8410 0.8396 0.8381
1605.000000 0.8367 0.8352 0.8338 0.8323 0.8309
1610.000000 0.8294 0.8280 0.8265 0.8250 0.8231
1615.000000 0.8212 0.8193 0.8174 0.8155 0.8136
1620.000000 0.8115 0.8093 0.8068 0.8046 0.8024
1625.000000 0.8001 0.7981 0.7960 0.7939 0.7917
1630.000000 0.7895 0.7868 0.7840 0.7812 0.7786
1635.000000 0.7758 0.7728 0.7698 0.7667 0.7636
1640.000000 0.7605 0.7574 0.7535 0.7486 0.7438
1645.000000 0.7389 0.7331 0.7267 0.7207 0.7164
1650.000000 0.7158 0.7158 0.7161 0.7118 0.7168
1655.000000 0.7180 0.7201 0.7247 0.7286 0.7344
1660.000000 0.7443 0.7540 0.7619 0.7708 0.7798
1665.000000 0.7875 0.7948 0.8001 0.8054 0.8107
1670.000000 0.8160 0.8200 0.8239 0.8278 0.8317
1675.000000 0.8357 0.8390 0.8416 0.8442 0.8468
1680.000000 0.8495 0.8521 0.8542 0.8557 0.8573
1685.000000 0.8589 0.8604 0.8618 0.8628 0.8640
1690.000000 0.8651 0.8661 0.8671 0.8683 0.8694
1695.000000 0.8705 0.8715 0.8725 0.8734 0.8743
1700.000000 0.8752 0.8762 0.8771 0.8780 0.8789
1705.000000 0.8796 0.8803 0.8810 0.8817 0.8823
1710.000000 0.8830 0.8837 0.8844 0.8850 0.8855
1715.000000 0.8859 0.8863 0.8867 0.8871 0.8875
1720.000000 0.8880 0.8882 0.8884 0.8886 0.8888
1725.000000 0.8890 0.8892 0.8893 0.8895 0.8897
1730.000000 0.8899 0.8901 0.8902 0.8902 0.8902
1735.000000 0.8903 0.8903 0.8903 0.8903 0.8904
1740.000000 0.8904 0.8904 0.8904 0.8906 0.8907
1745.000000 0.8908 0.8909 0.8910 0.8911 0.8912
1750.000000 0.8913 0.8915 0.8916 0.8917 0.8918
1755.000000 0.8918 0.8918 0.8917 0.8917 0.8917
1760.000000 0.8917 0.8917 0.8917 0.8916 0.8916
1765.000000 0.8916 0.8916 0.8916 0.8916 0.8915
1770.000000 0.8915 0.8915 0.8915 0.8914 0.8914
1775.000000 0.8914 0.8913 0.8913 0.8913 0.8912
1780.000000 0.8912 0.8912 0.8911 0.8911 0.8911
1785.000000 0.8910 0.8910 0.8910 0.8909 0.8909
1790.000000 0.8909 0.8908 0.8908 0.8907 0.8907
1795.000000 0.8906 0.8905 0.8905 0.8904 0.8904
1800.000000 0.8903 0.8903 0.8902 0.8902 0.8901
1805.000000 0.8901 0.8900 0.8900 0.8899 0.8899
1810.000000 0.8898 0.8898 0.8898 0.8898 0.8898
1815.000000 0.8898 0.8898 0.8898 0.8898 0.8898
1820.000000 0.8898 0.8898 0.8898 0.8898 0.8898
1825.000000 0.8898 0.8898 0.8898 0.8898 0.8897
1830.000000 0.8897 0.8897 0.8897 0.8897 0.8897
1835.000000 0.8897 0.8897 0.8897 0.8897 0.8897
1840.000000 0.8898 0.8898 0.8898 0.8898 0.8898
1845.000000 0.8897 0.8897 0.8897 0.8897 0.8897
1850.000000 0.8897 0.8897 0.8897 0.8897 0.8896
1855.000000 0.8895 0.8894 0.8893 0.8892 0.8890
1860.000000 0.8889 0.8888 0.8887 0.8886 0.8885
1865.000000 0.8883 0.8882 0.8881 0.8878 0.8877
1870.000000 0.8875 0.8874 0.8873 0.8874 0.8874
1875.000000 0.8875 0.8875 0.8877 0.8878 0.8878
1880.000000 0.8880 0.8881 0.8882 0.8882 0.8882
1885.000000 0.8881 0.8881 0.8881 0.8881 0.8881
1890.000000 0.8881 0.8881 0.8880 0.8880 0.8880
1895.000000 0.8880 0.8880 0.8880 0.8880 0.8878
1900.000000 0.8878 0.8878 0.8878 0.8875 0.8874
1905.000000 0.8871 0.8870 0.8868 0.8867 0.8865
1910.000000 0.8863 0.8861 0.8859 0.8857 0.8855
1915.000000 0.8853 0.8851 0.8849 0.8847 0.8845
1920.000000 0.8843 0.8841 0.8839 0.8838 0.8836
1925.000000 0.8834 0.8832 0.8830 0.8828 0.8825
1930.000000 0.8824 0.8821 0.8820 0.8818 0.8816
1935.000000 0.8814 0.8812 0.8810 0.8808 0.8806
1940.000000 0.8804 0.8802 0.8801 0.8801 0.8801
1945.000000 0.8801 0.8802 0.8802 0.8802 0.8803
1950.000000 0.8805 0.8807 0.8808 0.8810 0.8811
1955.000000 0.8813 0.8814 0.8813 0.8812 0.8810
1960.000000 0.8809 0.8807 0.8805 0.8803 0.8802
1965.000000 0.8800 0.8798 0.8797 0.8794 0.8790
1970.000000 0.8786 0.8782 0.8778 0.8774 0.8770
1975.000000 0.8766 0.8762 0.8758 0.8754 0.8750
1980.000000 0.8746 0.8741 0.8735 0.8730 0.8724
1985.000000 0.8718 0.8713 0.8708 0.8702 0.8697
1990.000000 0.8690 0.8684 0.8677 0.8670 0.8664
1995.000000 0.8652 0.8640 0.8628 0.8617 0.8604
2000.000000 0.8587 0.8570 0.8553 0.8544 0.8536
2005.000000 0.8527 0.8518 0.8508 0.8499 0.8489
2010.000000 0.8480 0.8470 0.8461 0.8451 0.8442
2015.000000 0.8433 0.8424 0.8418 0.8412 0.8406
2020.000000 0.8400 0.8396 0.8393 0.8391 0.8390
2025.000000 0.8388 0.8387 0.8385 0.8384 0.8382
2030.000000 0.8381 0.8378 0.8378 0.8375 0.8375
2035.000000 0.8373 0.8371 0.8368 0.8367 0.8365
2040.000000 0.8364 0.8362 0.8360 0.8358 0.8357
2045.000000 0.8355 0.8353 0.8351 0.8350 0.8348
2050.000000 0.8346 0.8344 0.8342 0.8340 0.8339
2055.000000 0.8337 0.8335 0.8333 0.8332 0.8330
2060.000000 0.8328 0.8325 0.8324 0.8321 0.8321
2065.000000 0.8318 0.8317 0.8315 0.8314 0.8312
2070.000000 0.8310 0.8308 0.8306 0.8303 0.8301
2075.000000 0.8298 0.8296 0.8293 0.8291 0.8288
2080.000000 0.8286 0.8283 0.8281 0.8278 0.8275
2085.000000 0.8273 0.8271 0.8268 0.8266 0.8263
2090.000000 0.8261 0.8258 0.8256 0.8253 0.8251
2095.000000 0.8248 0.8246 0.8243 0.8241 0.8239
2100.000000 0.8237 0.8235 0.8233 0.8231 0.8230
2105.000000 0.8228 0.8228 0.8225 0.8225 0.8223
2110.000000 0.8221 0.8220 0.8218 0.8217 0.8216
2115.000000 0.8215 0.8214 0.8212 0.8211 0.8209
2120.000000 0.8208 0.8206 0.8205 0.8203 0.8202
2125.000000 0.8200 0.8199 0.8198 0.8197 0.8195
2130.000000 0.8194 0.8192 0.8191 0.8189 0.8188
2135.000000 0.8186 0.8185 0.8183 0.8182 0.8180
2140.000000 0.8178 0.8176 0.8175 0.8175 0.8174
2145.000000 0.8171 0.8171 0.8168 0.8168 0.8165
2150.000000 0.8165 0.8162 0.8161 0.8160 0.8158
2155.000000 0.8157 0.8156 0.8154 0.8153 0.8151
2160.000000 0.8150 0.8148 0.8147 0.8145 0.8144
2165.000000 0.8142 0.8141 0.8139 0.8138 0.8136
2170.000000 0.8135 0.8133 0.8132 0.8130 0.8128
2175.000000 0.8126 0.8125 0.8121 0.8119 0.8117
2180.000000 0.8114 0.8111 0.8108 0.8106 0.8104
2185.000000 0.8101 0.8099 0.8096 0.8094 0.8091
2190.000000 0.8089 0.8086 0.8083 0.8080 0.8078
2195.000000 0.8075 0.8072 0.8069 0.8068 0.8065
2200.000000 0.8062 0.8060 0.8058 0.8055 0.8051
2205.000000 0.8049 0.8047 0.8044 0.8042 0.8039
2210.000000 0.8037 0.8034 0.8032 0.8028 0.8026
2215.000000 0.8025 0.8022 0.8019 0.8018 0.8015
2220.000000 0.8012 0.8010 0.8008 0.8005 0.8003
2225.000000 0.8000 0.7998 0.7995 0.7993 0.7991
2230.000000 0.7989 0.7986 0.7984 0.7981 0.7978
2235.000000 0.7975 0.7974 0.7969 0.7965 0.7961
2240.000000 0.7958 0.7954 0.7950 0.7945 0.7941
2245.000000 0.7937 0.7933 0.7928 0.7925 0.7921
2250.000000 0.7917 0.7912 0.7908 0.7905 0.7901
2255.000000 0.7897 0.7893 0.7888 0.7884 0.7878
2260.000000 0.7874 0.7869 0.7867 0.7864 0.7861
2265.000000 0.7858 0.7855 0.7851 0.7849 0.7846
2270.000000 0.7843 0.7840 0.7838 0.7835 0.7832
2275.000000 0.7828 0.7825 0.7822 0.7819 0.7817
2280.000000 0.7814 0.7811 0.7808 0.7807 0.7805
2285.000000 0.7804 0.7803 0.7801 0.7800 0.7798
2290.000000 0.7797 0.7795 0.7794 0.7792 0.7791
2295.000000 0.7789 0.7788 0.7787 0.7786 0.7784
2300.000000 0.7783 0.7781 0.7780 0.7778 0.7776
2305.000000 0.7775 0.7775 0.7775 0.7775 0.7776
2310.000000 0.7778 0.7780 0.7781 0.7782 0.7783
2315.000000 0.7784 0.7785 0.7785 0.7785 0.7785
2320.000000 0.7785 0.7784 0.7784 0.7783 0.7782
2325.000000 0.7781 0.7781 0.7781 0.7781 0.7782
2330.000000 0.7784 0.7786 0.7788 0.7789 0.7791
2335.000000 0.7792 0.7794 0.7795 0.7796 0.7797
2340.000000 0.7798 0.7798 0.7799 0.7800 0.7801
2345.000000 0.7801 0.7803 0.7804 0.7805 0.7805
2350.000000 0.7806 0.7806 0.7807 0.7808 0.7808
2355.000000 0.7808 0.7810 0.7810 0.7811 0.7811
2360.000000 0.7811 0.7812 0.7814 0.7815 0.7817
2365.000000 0.7818 0.7819 0.7821 0.7824 0.7825
2370.000000 0.7826 0.7828 0.7828 0.7828 0.7828
2375.000000 0.7822 0.7818 0.7811 0.7807 0.7801
2380.000000 0.7795 0.7782 0.7768 0.7756 0.7743
2385.000000 0.7730 0.7717 0.7705 0.7693 0.7681
2390.000000 0.7669 0.7658 0.7647 0.7636 0.7625
2395.000000 0.7612 0.7601 0.7597 0.7593 0.7591
2400.000000 0.7589 0.7587 0.7585 0.7583 0.7581
2405.000000 0.7578 0.7578 0.7575 0.7574 0.7571
2410.000000 0.7569 0.7568 0.7567 0.7565 0.7562
2415.000000 0.7561 0.7558 0.7557 0.7556 0.7554
2420.000000 0.7551 0.7550 0.7548 0.7546 0.7545
2425.000000 0.7542 0.7539 0.7535 0.7532 0.7528
2430.000000 0.7525 0.7521 0.7518 0.7515 0.7512
2435.000000 0.7508 0.7504 0.7499 0.7495 0.7490
2440.000000 0.7486 0.7481 0.7476 0.7471 0.7468
2445.000000 0.7464 0.7460 0.7455 0.7451 0.7446
2450.000000 0.7442 0.7437 0.7433 0.7428 0.7424
2455.000000 0.7418 0.7415 0.7411 0.7407 0.7403
2460.000000 0.7399 0.7395 0.7391 0.7387 0.7383
2465.000000 0.7378 0.7375 0.7371 0.7368 0.7364
2470.000000 0.7360 0.7356 0.7351 0.7348 0.7344
2475.000000 0.7340 0.7336 0.7332 0.7328 0.7324
2480.000000 0.7319 0.7317 0.7314 0.7311 0.7308
2485.000000 0.7304 0.7301 0.7298 0.7295 0.7291
2490.000000 0.7288 0.7285 0.7282 0.7278 0.7275
2495.000000 0.7271 0.7268 0.7265 0.7262 0.7258
2500.000000 0.7256 0.7253 0.7250 0.7246 0.7243
2505.000000 0.7240 0.7237 0.7234 0.7231 0.7226
2510.000000 0.7224 0.7221 0.7218 0.7215 0.7212
2515.000000 0.7210 0.7207 0.7204 0.7201 0.7199
2520.000000 0.7197 0.7194 0.7191 0.7188 0.7186
2525.000000 0.7183 0.7181 0.7178 0.7175 0.7172
2530.000000 0.7169 0.7167 0.7165 0.7161 0.7160
2535.000000 0.7157 0.7155 0.7151 0.7149 0.7146
2540.000000 0.7144 0.7141 0.7139 0.7136 0.7134
2545.000000 0.7131 0.7128 0.7125 0.7121 0.7118
2550.000000 0.7115 0.7112 0.7110 0.7107 0.7104
2555.000000 0.7101 0.7098 0.7095 0.7092 0.7089
2560.000000 0.7086 0.7083 0.7080 0.7076 0.7074
2565.000000 0.7071 0.7068 0.7065 0.7061 0.7058
2570.000000 0.7056 0.7053 0.7050 0.7047 0.7044
2575.000000 0.7041 0.7038 0.7035 0.7032 0.7028
2580.000000 0.7025 0.7021 0.7018 0.7011 0.7004
2585.000000 0.6997 0.6990 0.6983 0.6976 0.6969
2590.000000 0.6962 0.6956 0.6949 0.6942 0.6935
2595.000000 0.6928 0.6921 0.6914 0.6907 0.6900
2600.000000 0.6893 0.6885 0.6878 0.6869 0.6862
2605.000000 0.6855 0.6848 0.6840 0.6833 0.6825
2610.000000 0.6817 0.6808 0.6801 0.6793 0.6784
2615.000000 0.6775 0.6765 0.6757 0.6748 0.6739
2620.000000 0.6730 0.6721 0.6712 0.6704 0.6695
2625.000000 0.6686 0.6678 0.6668 0.6660 0.6651
2630.000000 0.6643 0.6634 0.6625 0.6615 0.6608
2635.000000 0.6599 0.6591 0.6582 0.6572 0.6564
2640.000000 0.6556 0.6547 0.6538 0.6528 0.6521
2645.000000 0.6511 0.6504 0.6497 0.6490 0.6483
2650.000000 0.6476 0.6469 0.6464 0.6457 0.6450
2655.000000 0.6443 0.6437 0.6430 0.6424 0.6417
2660.000000 0.6410 0.6404 0.6398 0.6393 0.6388
2665.000000 0.6383 0.6378 0.6373 0.6368 0.6362
2670.000000 0.6358 0.6353 0.6348 0.6343 0.6338
2675.000000 0.6333 0.6328 0.6322 0.6317 0.6310
2680.000000 0.6306 0.6300 0.6294 0.6288 0.6283
2685.000000 0.6277 0.6271 0.6265 0.6259 0.6253
2690.000000 0.6248 0.6242 0.6236 0.6230 0.6224
2695.000000 0.6218 0.6212 0.6206 0.6201 0.6195
2700.000000 0.6189 0.6183 0.6177 0.6171 0.6165
2705.000000 0.6159 0.6154 0.6148 0.6142 0.6136
2710.000000 0.6130 0.6124 0.6119 0.6112 0.6107
2715.000000 0.6101 0.6095 0.6089 0.6083 0.6076
2720.000000 0.6070 0.6062 0.6056 0.6049 0.6043
2725.000000 0.6036 0.6029 0.6022 0.6016 0.6009
2730.000000 0.6003 0.5996 0.5989 0.5981 0.5974
2735.000000 0.5965 0.5957 0.5948 0.5939 0.5930
2740.000000 0.5922 0.5912 0.5905 0.5902 0.5899
2745.000000 0.5896 0.5894 0.5891 0.5889 0.5886
2750.000000 0.5884 0.5881 0.5879 0.5876 0.5874
2755.000000 0.5871 0.5869 0.5866 0.5864 0.5860
2760.000000 0.5858 0.5853 0.5849 0.5844 0.5840
2765.000000 0.5835 0.5831 0.5826 0.5822 0.5815
2770.000000 0.5809 0.5801 0.5794 0.5786 0.5778
2775.000000 0.5770 0.5762 0.5751 0.5740 0.5729
2780.000000 0.5718 0.5707 0.5696 0.5685 0.5674
2785.000000 0.5662 0.5650 0.5636 0.5623 0.5609
2790.000000 0.5596 0.5583 0.5570 0.5556 0.5543
2795.000000 0.5529 0.5516 0.5502 0.5489 0.5475
2800.000000 0.5462 0.5448 0.5435 0.5421 0.5408
2805.000000 0.5395 0.5382 0.5368 0.5355 0.5341
2810.000000 0.5328 0.5314 0.5301 0.5287 0.5274
2815.000000 0.5260 0.5248 0.5235 0.5222 0.5209
2820.000000 0.5196 0.5183 0.5170 0.5157 0.5144
2825.000000 0.5131 0.5118 0.5104 0.5091 0.5078
2830.000000 0.5065 0.5053 0.5041 0.5029 0.5017
2835.000000 0.5005 0.4994 0.4982 0.4970 0.4958
2840.000000 0.4946 0.4934 0.4923 0.4907 0.4892
2845.000000 0.4875 0.4859 0.4842 0.4826 0.4810
2850.000000 0.4794 0.4777 0.4760 0.4744 0.4728
2855.000000 0.4710 0.4695 0.4678 0.4662 0.4643
2860.000000 0.4625 0.4606 0.4588 0.4570 0.4552
2865.000000 0.4533 0.4514 0.4492 0.4471 0.4449
2870.000000 0.4428 0.4406 0.4385 0.4362 0.4342
2875.000000 0.4320 0.4298 0.4275 0.4252 0.4229
2880.000000 0.4206 0.4183 0.4160 0.4135 0.4110
2885.000000 0.4080 0.4052 0.4030 0.4009 0.3988
2890.000000 0.3966 0.3946 0.3925 0.3904 0.3882
2895.000000 0.3840 0.3797 0.3780 0.3764 0.3764
2900.000000 0.3762 0.3762 0.3762 0.3762 0.3762
2905.000000 0.3760 0.3760 0.3759 0.3759 0.3744
2910.000000 0.3730 0.3466 0.3202 0.3154 0.3106
2915.000000 0.3100 0.3094 0.3097 0.3105 0.3108
2920.000000 0.3115 0.3139 0.3163 0.3200 0.3237
2925.000000 0.3299 0.3360 0.3390 0.3418 0.3427
2930.000000 0.3434 0.3430 0.3427 0.3406 0.3384
2935.000000 0.3334 0.3286 0.3234 0.3184 0.3185
2940.000000 0.3188 0.3198 0.3209 0.3242 0.3275
2945.000000 0.3312 0.3350 0.3802 0.4254 0.4341
2950.000000 0.4428 0.4470 0.4512 0.4542 0.4572
2955.000000 0.4592 0.4612 0.4628 0.4645 0.4645
2960.000000 0.4645 0.4642 0.4640 0.4635 0.4630
2965.000000 0.4620 0.4610 0.4600 0.4590 0.4572
2970.000000 0.4554 0.4534 0.4514 0.4488 0.4462
2975.000000 0.4454 0.4445 0.4441 0.4438 0.4460
2980.000000 0.4484 0.4542 0.4600 0.4658 0.4717
2985.000000 0.4725 0.4734 0.4731 0.4728 0.4720
2990.000000 0.4712 0.4702 0.4692 0.4682 0.4681
2995.000000 0.4680 0.4689 0.4707 0.4726 0.4745
3000.000000 0.4764 0.4773 0.4741 0.4785 0.4786
3005.000000 0.4785 0.4785 0.4781 0.4777 0.4768
3010.000000 0.4759 0.4746 0.4733 0.4717 0.4702
3015.000000 0.4689 0.4677 0.4665 0.4654 0.4643
3020.000000 0.4632 0.4619 0.4607 0.4593 0.4580
3025.000000 0.4564 0.4549 0.4533 0.4518 0.4502
3030.000000 0.4487 0.4470 0.4453 0.4436 0.4419
3035.000000 0.4402 0.4385 0.4368 0.4351 0.4331
3040.000000 0.4310 0.4290 0.4269 0.4247 0.4225
3045.000000 0.4202 0.4179 0.4155 0.4132 0.4108
3050.000000 0.4084 0.4059 0.4034 0.4009 0.3984
3055.000000 0.3959 0.3934 0.3909 0.3884 0.3859
3060.000000 0.3834 0.3808 0.3782 0.3755 0.3728
3065.000000 0.3699 0.3670 0.3641 0.3612 0.3584
3070.000000 0.3557 0.3532 0.3509 0.3486 0.3462
3075.000000 0.3438 0.3414 0.3390 0.3366 0.3342
3080.000000 0.3318 0.3294 0.3268 0.3241 0.3212
3085.000000 0.3184 0.3158 0.3130 0.3102 0.3074
3090.000000 0.3046 0.3022 0.2998 0.2974 0.2950
3095.000000 0.2926 0.2903 0.2879 0.2855 0.2831
3100.000000 0.2807 0.2784 0.2763 0.2741 0.2720
3105.000000 0.2698 0.2677 0.2656 0.2634 0.2613
3110.000000 0.2592 0.2571 0.2550 0.2529 0.2509
3115.000000 0.2491 0.2473 0.2455 0.2438 0.2420
3120.000000 0.2402 0.2384 0.2367 0.2349 0.2331
3125.000000 0.2313 0.2296 0.2278 0.2260 0.2243
3130.000000 0.2227 0.2211 0.2195 0.2179 0.2163
3135.000000 0.2146 0.2130 0.2114 0.2098 0.2082
3140.000000 0.2066 0.2049 0.2033 0.2017 0.2001
3145.000000 0.1984 0.1970 0.1954 0.1939 0.1923
3150.000000 0.1908 0.1892 0.1877 0.1861 0.1845
3155.000000 0.1829 0.1815 0.1799 0.1784 0.1768
3160.000000 0.1753 0.1736 0.1722 0.1707 0.1693
3165.000000 0.1681 0.1669 0.1656 0.1644 0.1632
3170.000000 0.1620 0.1608 0.1596 0.1583 0.1571
3175.000000 0.1559 0.1546 0.1535 0.1523 0.1511
3180.000000 0.1499 0.1488 0.1478 0.1467 0.1457
3185.000000 0.1446 0.1436 0.1425 0.1415 0.1404
3190.000000 0.1392 0.1381 0.1370 0.1358 0.1346
3195.000000 0.1336 0.1325 0.1317 0.1309 0.1301
3200.000000 0.1294 0.1286 0.1278 0.1272 0.1267
3205.000000 0.1263 0.1259 0.1254 0.1250 0.1246
3210.000000 0.1242 0.1239 0.1236 0.1236 0.1237
3215.000000 0.1237 0.1237 0.1236 0.1236 0.1234
3220.000000 0.1232 0.1230 0.1228 0.1225 0.1223
3225.000000 0.1217 0.1212 0.1206 0.1201 0.1195
3230.000000 0.1190 0.1179 0.1169 0.1156 0.1144
3235.000000 0.1132 0.1120 0.1105 0.1090 0.1073
3240.000000 0.1056 0.1038 0.1021 0.1004 0.0987
3245.000000 0.0970 0.0953 0.0939 0.0926 0.0917
3250.000000 0.0907 0.0896 0.0887 0.0876 0.0868
3255.000000 0.0859 0.0850 0.0841 0.0833 0.0824
3260.000000 0.0816 0.0807 0.0798 0.0789 0.0780
3265.000000 0.0771 0.0762 0.0753 0.0744 0.0735
3270.000000 0.0726 0.0717 0.0708 0.0699 0.0691
3275.000000 0.0682 0.0674 0.0666 0.0658 0.0650
3280.000000 0.0642 0.0633 0.0625 0.0617 0.0609
3285.000000 0.0601 0.0594 0.0587 0.0581 0.0575
3290.000000 0.0569 0.0562 0.0556 0.0550 0.0544
3295.000000 0.0539 0.0534 0.0529 0.0525 0.0525
3300.000000 0.0526 0.0527 0.0528 0.0528 0.0521
3305.000000 0.0530 0.0531 0.0532 0.0533 0.0535
3310.000000 0.0538 0.0541 0.0545 0.0548 0.0552
3315.000000 0.0555 0.0559 0.0562 0.0566 0.0570
3320.000000 0.0574 0.0578 0.0582 0.0585 0.0589
3325.000000 0.0592 0.0596 0.0600 0.0604 0.0607
3330.000000 0.0611 0.0612 0.0613 0.0614 0.0615
3335.000000 0.0615 0.0616 0.0616 0.0617 0.0618
3340.000000 0.0619 0.0619 0.0620 0.0620 0.0620
3345.000000 0.0619 0.0619 0.0618 0.0617 0.0616
3350.000000 0.0616 0.0615 0.0615 0.0614 0.0614
3355.000000 0.0613 0.0613 0.0612 0.0612 0.0616
3360.000000 0.0621 0.0626 0.0631 0.0636 0.0642
3365.000000 0.0650 0.0659 0.0669 0.0679 0.0688
3370.000000 0.0698 0.0705 0.0713 0.0720 0.0727
3375.000000 0.0734 0.0742 0.0746 0.0750 0.0752
3380.000000 0.0754 0.0755 0.0757 0.0758 0.0759
3385.000000 0.0758 0.0758 0.0756 0.0755 0.0753
3390.000000 0.0752 0.0750 0.0749 0.0746 0.0744
3395.000000 0.0740 0.0736 0.0731 0.0727 0.0723
3400.000000 0.0720 0.0717 0.0714 0.0711 0.0709
3405.000000 0.0709 0.0709 0.0720 0.0732 0.0744
3410.000000 0.0756 0.0770 0.0785 0.0801 0.0818
3415.000000 0.0855 0.0892 0.0975 0.1058 0.1118
3420.000000 0.1179 0.1237 0.1296 0.1331 0.1366
3425.000000 0.1392 0.1420 0.1446 0.1474 0.1499
3430.000000 0.1525 0.1550 0.1576 0.1601 0.1627
3435.000000 0.1650 0.1673 0.1694 0.1718 0.1740
3440.000000 0.1763 0.1784 0.1808 0.1829 0.1852
3445.000000 0.1874 0.1895 0.1917 0.1939 0.1953
3450.000000 0.1967 0.1979 0.1994 0.2006 0.2018
3455.000000 0.2024 0.2029 0.2033 0.2036 0.2035
3460.000000 0.2035 0.2034 0.2067 0.2028 0.2023
3465.000000 0.2012 0.2001 0.1982 0.1963 0.1923
3470.000000 0.1883 0.1840 0.1796 0.1741 0.1685
3475.000000 0.1566 0.1446 0.1415 0.1384 0.1384
3480.000000 0.1384 0.1385 0.1386 0.1390 0.1348
3485.000000 0.1405 0.1416 0.1442 0.1471 0.1514
3490.000000 0.1558 0.1623 0.1689 0.1728 0.1768
3495.000000 0.1807 0.1845 0.1904 0.1964 0.2044
3500.000000 0.2127 0.2210 0.2294 0.2364 0.2434
3505.000000 0.2505 0.2575 0.2645 0.2716 0.2785
3510.000000 0.2857 0.2928 0.2999 0.3063 0.3127
3515.000000 0.3184 0.3244 0.3324 0.3404 0.3480
3520.000000 0.3559 0.3630 0.3700 0.3766 0.3830
3525.000000 0.3875 0.3920 0.3964 0.4009 0.4055
3530.000000 0.4100 0.4146 0.4192 0.4244 0.4296
3535.000000 0.4348 0.4400 0.4458 0.4517 0.4586
3540.000000 0.4656 0.4726 0.4796 0.4880 0.4965
3545.000000 0.5049 0.5134 0.5184 0.5235 0.5285
3550.000000 0.5336 0.5387 0.5438 0.5486 0.5534
3555.000000 0.5579 0.5624 0.5669 0.5714 0.5758
3560.000000 0.5802 0.5845 0.5888 0.5930 0.5973
3565.000000 0.6016 0.6059 0.6096 0.6134 0.6169
3570.000000 0.6205 0.6240 0.6276 0.6310 0.6344
3575.000000 0.6374 0.6404 0.6434 0.6465 0.6495
3580.000000 0.6525 0.6551 0.6578 0.6605 0.6632
3585.000000 0.6658 0.6684 0.6710 0.6737 0.6764
3590.000000 0.6792 0.6818 0.6847 0.6885 0.6922
3595.000000 0.6996 0.7069 0.7128 0.7187 0.7212
3600.000000 0.7239 0.7262 0.7288 0.7308 0.7331
3605.000000 0.7349 0.7367 0.7385 0.7403 0.7421
3610.000000 0.7439 0.7456 0.7472 0.7485 0.7497
3615.000000 0.7508 0.7521 0.7533 0.7545 0.7557
3620.000000 0.7569 0.7580 0.7591 0.7599 0.7608
3625.000000 0.7615 0.7624 0.7632 0.7640 0.7648
3630.000000 0.7656 0.7664 0.7672 0.7681 0.7689
3635.000000 0.7697 0.7705 0.7711 0.7718 0.7724
3640.000000 0.7730 0.7735 0.7741 0.7747 0.7753
3645.000000 0.7758 0.7765 0.7769 0.7775 0.7782
3650.000000 0.7788 0.7794 0.7800 0.7805 0.7811
3655.000000 0.7814 0.7818 0.7821 0.7825 0.7828
3660.000000 0.7832 0.7835 0.7839 0.7843 0.7847
3665.000000 0.7850 0.7854 0.7857 0.7861 0.7862
3670.000000 0.7865 0.7868 0.7869 0.7871 0.7875
3675.000000 0.7876 0.7878 0.7881 0.7884 0.7886
3680.000000 0.7888 0.7890 0.7892 0.7892 0.7892
3685.000000 0.7892 0.7892 0.7892 0.7892 0.7891
3690.000000 0.7891 0.7891 0.7891 0.7891 0.7891
3695.000000 0.7891 0.7891 0.7890 0.7889 0.7887
3700.000000 0.7885 0.7883 0.7881 0.7878 0.7876
3705.000000 0.7875 0.7874 0.7871 0.7869 0.7868
3710.000000 0.7865 0.7862 0.7860 0.7857 0.7854
3715.000000 0.7851 0.7849 0.7846 0.7843 0.7840
3720.000000 0.7837 0.7834 0.7831 0.7828 0.7825
3725.000000 0.7821 0.7819 0.7815 0.7811 0.7808
3730.000000 0.7804 0.7800 0.7796 0.7792 0.7788
3735.000000 0.7784 0.7780 0.7775 0.7771 0.7768
3740.000000 0.7764 0.7760 0.7756 0.7751 0.7748
3745.000000 0.7744 0.7740 0.7736 0.7732 0.7728
3750.000000 0.7724 0.7719 0.7715 0.7712 0.7710
3755.000000 0.7707 0.7704 0.7701 0.7698 0.7695
3760.000000 0.7692 0.7689 0.7686 0.7683 0.7680
3765.000000 0.7676 0.7674 0.7671 0.7668 0.7665
3770.000000 0.7662 0.7661 0.7658 0.7656 0.7654
3775.000000 0.7651 0.7650 0.7648 0.7646 0.7644
3780.000000 0.7642 0.7640 0.7638 0.7635 0.7633
3785.000000 0.7628 0.7625 0.7621 0.7618 0.7614
3790.000000 0.7610 0.7606 0.7603 0.7599 0.7595
3795.000000 0.7591 0.7588 0.7584 0.7580 0.7575
3800.000000 0.7572 0.7571 0.7571
##END=
