##TITLE=2,2-DIMETHYL-1-(2'-METHYL-Delta^2-PENTENYL)-3-PIPERAZINONE
##JCAMP-DX=4.24
##DATA TYPE=INFRARED SPECTRUM
##CLASS=COBLENTZ
##ORIGIN=ABBOTT LABORATORIES - WASHBURN
##OWNER=COBLENTZ SOCIETY
Collection (C) 2018 copyright by the U.S. Secretary of Commerce
on behalf of the United States of America. All rights reserved.
##DATE=Not specified, most likely prior to 1970
##NAMES=3,3-dimethyl-4-[(2E)-2-methyl-2-pentenyl]-2-piperazinone
##MOLFORM=C12 H22 N2 O
##SOURCE REFERENCE=COBLENTZ NO. 3441
##$NIST ID=B6003441
##$NIST SOURCE=COBLENTZ
##$NIST IMAGE=cob3441
##SPECTROMETER/DATA SYSTEM=PERKIN-ELMER
##STATE=SOLUTION (7% IN CHCl3)
##PATH LENGTH=0.010 CM
$$ INACTIVE (CHCl3) AROUND 750 CM^-^1
##SAMPLING PROCEDURE=TRANSMISSION
##RESOLUTION=4
##DATA PROCESSING=DIGITIZED BY NIST FROM HARD COPY (FROM TWO SEGMENTS)
##XUNITS=MICROMETERS
##YUNITS=TRANSMITTANCE
##XFACTOR=1.000000
##YFACTOR=1
##DELTAX=0.006831
##FIRSTX=2.022
##LASTX=15.4108
##FIRSTY=0.892
##MAXX=15.4108
##MINX=2.022
##MAXY=0.957
##MINY=0.022
##NPOINTS=1961
##XYDATA=(X++(Y..Y))
2.022000 0.8920 0.8920 0.8920 0.8920 0.8900
2.056155 0.8920 0.8920 0.8920 0.8940 0.8940
2.090310 0.8960 0.8960 0.8960 0.8960 0.8960
2.124465 0.8960 0.8960 0.8960 0.8970 0.8971
2.158620 0.8992 0.9011 0.9022 0.9042 0.9062
2.192775 0.9082 0.9112 0.9131 0.9141 0.9160
2.226930 0.9160 0.9160 0.9180 0.9180 0.9180
2.261085 0.9190 0.9190 0.9209 0.9210 0.9210
2.295240 0.9211 0.9230 0.9229 0.9210 0.9210
2.329395 0.9210 0.9190 0.9179 0.9140 0.9140
2.363550 0.9160 0.9160 0.9160 0.9161 0.9181
2.397705 0.9193 0.9232 0.9263 0.9310 0.9311
2.431860 0.9330 0.9310 0.9300 0.9281 0.9280
2.466015 0.9280 0.9280 0.9280 0.9280 0.9280
2.500170 0.9260 0.9260 0.9260 0.9280 0.9280
2.534325 0.9280 0.9280 0.9280 0.9300 0.9300
2.568480 0.9310 0.9311 0.9330 0.9331 0.9351
2.602635 0.9362 0.9401 0.9420 0.9421 0.9431
2.636790 0.9449 0.9450 0.9450 0.9421 0.9420
2.670945 0.9401 0.9400 0.9400 0.9381 0.9399
2.705100 0.9400 0.9400 0.9400 0.9380 0.9380
2.739255 0.9380 0.9360 0.9380 0.9360 0.9360
2.773410 0.9349 0.9330 0.9332 0.9363 0.9422
2.807565 0.9451 0.9482 0.9519 0.9499 0.9467
2.841720 0.9403 0.9352 0.9283 0.9213 0.9162
2.875875 0.9113 0.8978 0.8923 0.8845 0.8709
2.910030 0.8600 0.8530 0.8480 0.8360 0.8211
2.944185 0.8041 0.7683 0.7186 0.6480 0.6401
2.978340 0.6410 0.6625 0.7142 0.7399 0.7614
3.012495 0.7714 0.7810 0.7810 0.7810 0.7799
3.046650 0.7751 0.7651 0.7554 0.7488 0.7470
3.080805 0.7470 0.7473 0.7510 0.7506 0.7455
3.114960 0.7390 0.7301 0.7221 0.7102 0.7011
3.149115 0.6981 0.7009 0.7118 0.7237 0.7367
3.183270 0.7492 0.7544 0.7664 0.7782 0.7852
3.217425 0.7920 0.7931 0.7970 0.7970 0.7981
3.251580 0.8022 0.8040 0.8038 0.8018 0.8000
3.285735 0.8000 0.7999 0.7979 0.7967 0.7929
3.319890 0.7920 0.7881 0.7684 0.7309 0.6354
3.354045 0.5600 0.4726 0.3974 0.3602 0.3359
3.388200 0.3127 0.3023 0.2769 0.2740 0.2751
3.422355 0.2813 0.2991 0.3081 0.3150 0.3162
3.456510 0.3389 0.3903 0.4215 0.4431 0.4587
3.490665 0.4686 0.4773 0.4824 0.4885 0.4977
3.524820 0.5107 0.5285 0.5542 0.5714 0.5768
3.558975 0.5751 0.5740 0.5740 0.5625 0.5620
3.593130 0.5807 0.6190 0.6797 0.7295 0.7663
3.627285 0.7972 0.8211 0.8390 0.8510 0.8620
3.661440 0.8672 0.8702 0.8732 0.8772 0.8801
3.695595 0.8822 0.8850 0.8851 0.8870 0.8870
3.729750 0.8870 0.8870 0.8899 0.8938 0.8969
3.763905 0.9037 0.9135 0.9225 0.9296 0.9309
3.798060 0.9350 0.9401 0.9480 0.9540 0.9550
3.832215 0.9570 0.9570 0.9570 0.9570 0.9570
3.866370 0.9570 0.9568 0.9539 0.9519 0.9499
3.900525 0.9481 0.9502 0.9540 0.9540 0.9540
3.934680 0.9550 0.9552 0.9568 0.9549 0.9538
3.968835 0.9518 0.9498 0.9480 0.9482 0.9500
4.002990 0.9500 0.9470 0.9450 0.9450 0.9420
4.037145 0.9400 0.9361 0.9350 0.9311 0.9261
4.071300 0.9249 0.9229 0.9210 0.9209 0.9190
4.105455 0.9179 0.9159 0.9140 0.9140 0.9140
4.139610 0.9140 0.9148 0.9234 0.9282 0.9310
4.173765 0.9312 0.9332 0.9350 0.9355 0.9422
4.207920 0.9450 0.9499 0.9539 0.9540 0.9540
4.242075 0.9540 0.9520 0.9481 0.9480 0.9470
4.276230 0.9470 0.9482 0.9540 0.9540 0.9539
4.310385 0.9479 0.9450 0.9449 0.9419 0.9360
4.344540 0.9348 0.9330 0.9329 0.9308 0.9275
4.378695 0.9208 0.9180 0.9179 0.9159 0.9138
4.412850 0.9111 0.9061 0.9041 0.9059 0.9079
4.447005 0.9080 0.9090 0.9080 0.9080 0.9080
4.481160 0.9080 0.9080 0.9060 0.9040 0.9020
4.515315 0.9010 0.9010 0.9010 0.9010 0.9010
4.549470 0.8990 0.8990 0.8989 0.8970 0.8970
4.583625 0.8969 0.8960 0.8960 0.8959 0.8940
4.617780 0.8940 0.8940 0.8940 0.8940 0.8940
4.651935 0.8940 0.8938 0.8920 0.8920 0.8918
4.686090 0.8900 0.8900 0.8890 0.8840 0.8800
4.720245 0.8800 0.8800 0.8800 0.8800 0.8790
4.754400 0.8770 0.8771 0.8790 0.8790 0.8790
4.788555 0.8790 0.8790 0.8789 0.8769 0.8749
4.822710 0.8730 0.8729 0.8720 0.8720 0.8720
4.856865 0.8718 0.8700 0.8700 0.8700 0.8700
4.891020 0.8700 0.8700 0.8720 0.8720 0.8700
4.925175 0.8700 0.8700 0.8700 0.8700 0.8671
4.959330 0.8650 0.8650 0.8650 0.8650 0.8650
4.993485 0.8649 0.8630 0.8631 0.8650 0.8650
5.027640 0.8650 0.8650 0.8650 0.8650 0.8650
5.061795 0.8650 0.8650 0.8650 0.8650 0.8650
5.095950 0.8650 0.8650 0.8648 0.8629 0.8620
5.130105 0.8620 0.8620 0.8600 0.8580 0.8580
5.164260 0.8619 0.8620 0.8600 0.8600 0.8600
5.198415 0.8600 0.8600 0.8600 0.8600 0.8600
5.232570 0.8600 0.8600 0.8600 0.8600 0.8600
5.266725 0.8600 0.8600 0.8600 0.8600 0.8600
5.300880 0.8600 0.8600 0.8600 0.8600 0.8600
5.335035 0.8600 0.8600 0.8600 0.8600 0.8600
5.369190 0.8600 0.8580 0.8561 0.8531 0.8530
5.403345 0.8530 0.8531 0.8580 0.8560 0.8560
5.437500 0.8560 0.8560 0.8550 0.8549 0.8510
5.471655 0.8530 0.8510 0.8509 0.8500 0.8500
5.505810 0.8500 0.8500 0.8500 0.8501 0.8510
5.539965 0.8510 0.8510 0.8510 0.8500 0.8500
5.574120 0.8500 0.8500 0.8500 0.8510 0.8510
5.608275 0.8510 0.8499 0.8440 0.8410 0.8410
5.642430 0.8390 0.8410 0.8410 0.8380 0.8360
5.676585 0.8340 0.8310 0.8309 0.8290 0.8290
5.710740 0.8291 0.8310 0.8312 0.8340 0.8340
5.744895 0.8340 0.8330 0.8263 0.8222 0.8220
5.779050 0.8210 0.8172 0.8160 0.8122 0.8072
5.813205 0.8041 0.8000 0.7950 0.7950 0.7930
5.847360 0.7880 0.7830 0.7780 0.7750 0.7700
5.881515 0.7660 0.7605 0.7515 0.7391 0.6996
5.915670 0.6700 0.6480 0.6250 0.6026 0.5679
5.949825 0.4719 0.3968 0.3304 0.2720 0.2236
5.983980 0.1803 0.1393 0.0993 0.0546 0.0445
6.018135 0.0346 0.0231 0.0220 0.0220 0.0230
6.052290 0.0299 0.0369 0.0469 0.0608 0.0807
6.086445 0.1135 0.1584 0.2189 0.2929 0.3415
6.120600 0.3809 0.4331 0.4639 0.4908 0.5148
6.154755 0.5387 0.5616 0.5893 0.6191 0.6294
6.188910 0.6394 0.6540 0.6699 0.6868 0.7001
6.223065 0.7047 0.7099 0.7179 0.7268 0.7349
6.257220 0.7419 0.7489 0.7519 0.7540 0.7589
6.291375 0.7610 0.7682 0.7750 0.7761 0.7800
6.325530 0.7800 0.7811 0.7830 0.7850 0.7870
6.359685 0.7880 0.7899 0.7900 0.7919 0.7929
6.393840 0.7930 0.7930 0.7948 0.7950 0.7950
6.427995 0.7950 0.7979 0.7980 0.8019 0.8020
6.462150 0.8039 0.8050 0.8050 0.8069 0.8070
6.496305 0.8089 0.8100 0.8120 0.8120 0.8120
6.530460 0.8120 0.8120 0.8120 0.8100 0.8090
6.564615 0.8070 0.8042 0.8003 0.8000 0.7982
6.598770 0.7971 0.7924 0.7856 0.7722 0.7646
6.632925 0.7531 0.7462 0.7460 0.7393 0.7207
6.667080 0.6874 0.6534 0.6261 0.6049 0.5801
6.701235 0.5494 0.5014 0.4408 0.4129 0.3947
6.735390 0.3489 0.3330 0.3280 0.3331 0.3881
6.769545 0.4290 0.4647 0.4925 0.5013 0.5328
6.803700 0.5405 0.5410 0.5365 0.5072 0.4806
6.837855 0.4600 0.4447 0.4183 0.4103 0.4100
6.872010 0.4119 0.4215 0.4286 0.4527 0.4653
6.906165 0.4764 0.4950 0.5070 0.5190 0.5329
6.940320 0.5459 0.5599 0.5749 0.5869 0.5959
6.974475 0.6029 0.6103 0.6191 0.6290 0.6372
7.008630 0.6460 0.6515 0.6565 0.6588 0.6599
7.042785 0.6600 0.6619 0.6620 0.6601 0.6591
7.076940 0.6543 0.6474 0.6404 0.6372 0.6323
7.111095 0.6301 0.6280 0.6260 0.6211 0.6141
7.145250 0.6041 0.5873 0.5703 0.5602 0.5531
7.179405 0.5412 0.5365 0.5342 0.5296 0.5219
7.213560 0.5122 0.5075 0.5044 0.5022 0.5038
7.247715 0.4935 0.4836 0.4755 0.4638 0.4518
7.281870 0.4491 0.4509 0.4603 0.4693 0.4765
7.316025 0.4770 0.4584 0.4482 0.4529 0.4559
7.350180 0.4531 0.4511 0.4082 0.3788 0.3334
7.384335 0.3252 0.3250 0.3382 0.3654 0.3926
7.418490 0.4205 0.4537 0.4589 0.4590 0.4581
7.452645 0.4345 0.4089 0.3913 0.3743 0.3620
7.486800 0.3500 0.3205 0.3162 0.3178 0.3400
7.520955 0.3420 0.3555 0.3783 0.4090 0.4448
7.555110 0.4836 0.5206 0.5566 0.5878 0.6082
7.589265 0.6196 0.6358 0.6527 0.6697 0.6815
7.623420 0.6882 0.6925 0.6956 0.6960 0.6960
7.657575 0.6951 0.6868 0.6796 0.6717 0.6646
7.691730 0.6640 0.6685 0.6817 0.6921 0.6975
7.725885 0.7052 0.7117 0.7130 0.7130 0.7101
7.760040 0.7052 0.7031 0.7011 0.6981 0.6933
7.794195 0.6845 0.6770 0.6700 0.6664 0.6660
7.828350 0.6626 0.6603 0.6600 0.6600 0.6634
7.862505 0.6640 0.6622 0.6602 0.6528 0.6385
7.896660 0.6118 0.5722 0.5321 0.5065 0.4736
7.930815 0.4396 0.4294 0.4243 0.4240 0.4287
7.964970 0.4611 0.4856 0.5030 0.5247 0.5420
7.999125 0.5796 0.5940 0.6045 0.6085 0.6149
8.033280 0.6194 0.6225 0.6247 0.6250 0.6233
8.067435 0.6230 0.6212 0.6201 0.6164 0.6116
8.101590 0.6092 0.6090 0.6090 0.6108 0.6154
8.135745 0.6178 0.6204 0.6242 0.6258 0.6292
8.169900 0.6316 0.6320 0.6328 0.6346 0.6366
8.204055 0.6378 0.6397 0.6417 0.6445 0.6450
8.238210 0.6450 0.6467 0.6470 0.6495 0.6533
8.272365 0.6540 0.6549 0.6568 0.6596 0.6618
8.306520 0.6620 0.6620 0.6620 0.6620 0.6620
8.340675 0.6620 0.6516 0.6248 0.6102 0.5948
8.374830 0.5723 0.5468 0.5185 0.4888 0.4604
8.408985 0.4332 0.4090 0.3992 0.3964 0.3935
8.443140 0.3971 0.4054 0.4209 0.4388 0.4510
8.477295 0.4612 0.4794 0.4925 0.5053 0.5200
8.511450 0.5376 0.5547 0.5717 0.5870 0.6011
8.545605 0.6125 0.6266 0.6339 0.6350 0.6404
8.579760 0.6458 0.6493 0.6531 0.6548 0.6565
8.613915 0.6570 0.6570 0.6554 0.6550 0.6526
8.648070 0.6479 0.6389 0.6297 0.6215 0.6111
8.682225 0.6066 0.6034 0.5970 0.5943 0.5940
8.716380 0.5957 0.5969 0.6004 0.6053 0.6086
8.750535 0.6150 0.6160 0.6228 0.6273 0.6280
8.784690 0.6280 0.6257 0.6235 0.6207 0.6132
8.818845 0.6057 0.6032 0.6030 0.6030 0.6054
8.853000 0.6140 0.6240 0.6316 0.6386 0.6472
8.887155 0.6530 0.6582 0.6650 0.6702 0.6735
8.921310 0.6757 0.6785 0.6807 0.6827 0.6830
8.955465 0.6788 0.6765 0.6730 0.6720 0.6750
8.989620 0.6760 0.6708 0.6623 0.6555 0.6473
9.023775 0.6428 0.6349 0.6211 0.6061 0.5879
9.057930 0.5705 0.5559 0.5467 0.5411 0.5353
9.092085 0.5332 0.5297 0.5290 0.5349 0.5486
9.126240 0.5602 0.5745 0.5812 0.5837 0.5807
9.160395 0.5717 0.5647 0.5504 0.5349 0.5236
9.194550 0.5070 0.4873 0.4695 0.4562 0.4413
9.228705 0.4246 0.4007 0.3856 0.3485 0.3320
9.262860 0.3316 0.3328 0.3548 0.3742 0.4068
9.297015 0.4523 0.4967 0.5148 0.5328 0.5476
9.331170 0.5599 0.5661 0.5711 0.5761 0.5844
9.365325 0.5950 0.6023 0.6106 0.6203 0.6332
9.399480 0.6479 0.6629 0.6771 0.6897 0.7002
9.433635 0.7102 0.7168 0.7265 0.7329 0.7379
9.467790 0.7429 0.7455 0.7468 0.7485 0.7505
9.501945 0.7510 0.7494 0.7449 0.7424 0.7395
9.536100 0.7374 0.7313 0.7251 0.7094 0.7019
9.570255 0.6913 0.6816 0.6718 0.6625 0.6521
9.604410 0.6476 0.6484 0.6511 0.6577 0.6664
9.638565 0.6775 0.6900 0.7060 0.7230 0.7323
9.672720 0.7416 0.7531 0.7613 0.7691 0.7816
9.706875 0.7926 0.8030 0.8066 0.8110 0.8136
9.741030 0.8156 0.8208 0.8236 0.8240 0.8240
9.775185 0.8224 0.8220 0.8213 0.8210 0.8196
9.809340 0.8176 0.8170 0.8163 0.8146 0.8140
9.843495 0.8140 0.8125 0.8120 0.8120 0.8120
9.877650 0.8105 0.8093 0.8060 0.8013 0.7985
9.911805 0.7973 0.7938 0.7922 0.7864 0.7850
9.945960 0.7778 0.7736 0.7690 0.7664 0.7660
9.980115 0.7636 0.7601 0.7555 0.7519 0.7475
10.014270 0.7432 0.7413 0.7410 0.7417 0.7434
10.048425 0.7454 0.7496 0.7517 0.7535 0.7555
10.082580 0.7582 0.7642 0.7690 0.7700 0.7707
10.116735 0.7725 0.7746 0.7750 0.7758 0.7760
10.150890 0.7760 0.7760 0.7752 0.7719 0.7671
10.185045 0.7621 0.7546 0.7465 0.7337 0.7242
10.219200 0.7138 0.6984 0.6814 0.6644 0.6461
10.253355 0.6298 0.6164 0.6057 0.5949 0.5861
10.287510 0.5811 0.5800 0.5866 0.5977 0.6083
10.321665 0.6197 0.6337 0.6471 0.6554 0.6663
10.355820 0.6783 0.6849 0.6899 0.6949 0.6975
10.389975 0.6995 0.7007 0.7010 0.6990 0.6933
10.424130 0.6843 0.6776 0.6733 0.6680 0.6620
10.458285 0.6580 0.6556 0.6550 0.6564 0.6606
10.492440 0.6735 0.6888 0.6966 0.7037 0.7089
10.526595 0.7121 0.7213 0.7278 0.7336 0.7396
10.560750 0.7433 0.7455 0.7468 0.7470 0.7470
10.594905 0.7447 0.7419 0.7383 0.7350 0.7307
10.629060 0.7263 0.7217 0.7187 0.7173 0.7177
10.663215 0.7226 0.7264 0.7306 0.7356 0.7398
10.697370 0.7445 0.7552 0.7654 0.7715 0.7765
10.731525 0.7815 0.7882 0.7961 0.8025 0.8048
10.765680 0.8050 0.8065 0.8093 0.8115 0.8105
10.799835 0.8077 0.8036 0.7994 0.7973 0.7970
10.833990 0.7970 0.7970 0.7970 0.7970 0.7957
10.868145 0.7950 0.7950 0.7950 0.7950 0.7950
10.902300 0.7964 0.7991 0.8028 0.8047 0.8064
10.936455 0.8070 0.8085 0.8090 0.8097 0.8093
10.970610 0.8090 0.8075 0.8070 0.8070 0.8070
11.004765 0.8070 0.8070 0.8057 0.8050 0.8044
11.038920 0.8040 0.8027 0.8020 0.8020 0.8033
11.073075 0.8040 0.8040 0.8040 0.8047 0.8050
11.107230 0.8078 0.8097 0.8100 0.8114 0.8120
11.141385 0.8134 0.8140 0.8125 0.8120 0.8120
11.175540 0.8120 0.8120 0.8135 0.8140 0.8155
11.209695 0.8160 0.8160 0.8160 0.8160 0.8160
11.243850 0.8160 0.8147 0.8140 0.8140 0.8140
11.278005 0.8140 0.8113 0.8093 0.8076 0.8056
11.312160 0.8043 0.8040 0.8026 0.8020 0.8020
11.346315 0.8020 0.8020 0.8035 0.8040 0.8040
11.380470 0.8047 0.8050 0.8050 0.8050 0.8050
11.414625 0.8050 0.8030 0.8007 0.7987 0.7943
11.448780 0.7889 0.7845 0.7786 0.7698 0.7610
11.482935 0.7524 0.7425 0.7309 0.7203 0.7110
11.517090 0.7026 0.6940 0.6863 0.6807 0.6724
11.551245 0.6677 0.6670 0.6670 0.6684 0.6704
11.585400 0.6731 0.6754 0.6774 0.6787 0.6818
11.619555 0.6837 0.6840 0.6840 0.6840 0.6852
11.653710 0.6860 0.6848 0.6840 0.6822 0.6798
11.687865 0.6790 0.6790 0.6803 0.6843 0.6880
11.722020 0.6916 0.6943 0.6970 0.7000 0.7043
11.756175 0.7086 0.7135 0.7185 0.7228 0.7275
11.790330 0.7325 0.7375 0.7404 0.7431 0.7440
11.824485 0.7454 0.7466 0.7482 0.7490 0.7490
11.858640 0.7490 0.7490 0.7490 0.7502 0.7510
11.892795 0.7510 0.7516 0.7533 0.7540 0.7540
11.926950 0.7540 0.7553 0.7560 0.7573 0.7586
11.961105 0.7590 0.7590 0.7590 0.7604 0.7610
11.995260 0.7610 0.7624 0.7630 0.7630 0.7630
12.029415 0.7630 0.7630 0.7630 0.7630 0.7630
12.063570 0.7630 0.7630 0.7636 0.7640 0.7640
12.097725 0.7652 0.7672 0.7693 0.7700 0.7706
12.131880 0.7710 0.7723 0.7743 0.7756 0.7785
12.166035 0.7806 0.7823 0.7844 0.7864 0.7877
12.200190 0.7894 0.7920 0.7944 0.7970 0.7980
12.234345 0.7994 0.8000 0.8012 0.8032 0.8046
12.268500 0.8050 0.8050 0.8050 0.8050 0.8062
12.302655 0.8070 0.8058 0.8050 0.8063 0.8083
12.336810 0.8090 0.8109 0.8120 0.8107 0.8100
12.370965 0.8100 0.8093 0.8076 0.8056 0.8050
12.405120 0.8050 0.8050 0.8063 0.8070 0.8070
12.439275 0.8057 0.8050 0.8079 0.8111 0.8120
12.473430 0.8131 0.8140 0.8140 0.8140 0.8151
12.507585 0.8160 0.8166 0.8170 0.8170 0.8182
12.541740 0.8190 0.8209 0.8232 0.8252 0.8266
12.575895 0.8270 0.8270 0.8283 0.8290 0.8290
12.610050 0.8290 0.8290 0.8277 0.8270 0.8270
12.644205 0.8270 0.8270 0.8270 0.8270 0.8270
12.678360 0.8270 0.8270 0.8270 0.8270 0.8270
12.712515 0.8281 0.8290 0.8290 0.8290 0.8302
12.746670 0.8310 0.8310 0.8310 0.8310 0.8310
12.780825 0.8310 0.8310 0.8310 0.8310 0.8310
12.814980 0.8310 0.8310 0.8297 0.8290 0.8303
12.849135 0.8310 0.8310 0.8310 0.8310 0.8310
12.883290 0.8310 0.8310 0.8310 0.8310 0.8310
12.917445 0.8310 0.8310 0.8310 0.8310 0.8310
12.951600 0.8310 0.8310 0.8310 0.8310 0.8310
12.985755 0.8310 0.8310 0.8310 0.8310 0.8310
13.019910 0.8310 0.8310 0.8310 0.8310 0.8310
13.054065 0.8310 0.8310 0.8310 0.8310 0.8310
13.088220 0.8310 0.8310 0.8310 0.8310 0.8310
13.122375 0.8310 0.8310 0.8310 0.8310 0.8310
13.156530 0.8310 0.8310 0.8310 0.8310 0.8310
13.190685 0.8310 0.8310 0.8310 0.8310 0.8310
13.224840 0.8310 0.8310 0.8310 0.8310 0.8310
13.258995 0.8310 0.8310 0.8310 0.8310 0.8310
13.293150 0.8310 0.8310 0.8310 0.8310 0.8310
13.327305 0.8310 0.8310 0.8310 0.8310 0.8310
13.361460 0.8310 0.8310 0.8310 0.8310 0.8310
13.395615 0.8310 0.8310 0.8310 0.8310 0.8310
13.429770 0.8310 0.8310 0.8310 0.8310 0.8310
13.463925 0.8310 0.8310 0.8310 0.8310 0.8310
13.498080 0.8310 0.8310 0.8310 0.8310 0.8310
13.532235 0.8310 0.8310 0.8310 0.8310 0.8310
13.566390 0.8310 0.8310 0.8310 0.8321 0.8330
13.600545 0.8330 0.8330 0.8330 0.8330 0.8330
13.634700 0.8330 0.8330 0.8330 0.8330 0.8330
13.668855 0.8330 0.8330 0.8330 0.8330 0.8330
13.703010 0.8320 0.8310 0.8310 0.8310 0.8310
13.737165 0.8310 0.8310 0.8299 0.8301 0.8310
13.771320 0.8310 0.8310 0.8310 0.8310 0.8310
13.805475 0.8321 0.8330 0.8330 0.8330 0.8330
13.839630 0.8330 0.8330 0.8330 0.8330 0.8330
13.873785 0.8330 0.8330 0.8330 0.8335 0.8340
13.907940 0.8335 0.8330 0.8330 0.8330 0.8330
13.942095 0.8330 0.8335 0.8340 0.8340 0.8340
13.976250 0.8340 0.8340 0.8340 0.8340 0.8335
14.010405 0.8330 0.8330 0.8330 0.8330 0.8330
14.044560 0.8330 0.8321 0.8310 0.8319 0.8330
14.078715 0.8330 0.8330 0.8330 0.8330 0.8330
14.112870 0.8330 0.8330 0.8330 0.8320 0.8310
14.147025 0.8310 0.8310 0.8310 0.8321 0.8319
14.181180 0.8310 0.8310 0.8321 0.8330 0.8330
14.215335 0.8319 0.8310 0.8310 0.8310 0.8310
14.249490 0.8310 0.8310 0.8310 0.8310 0.8310
14.283645 0.8310 0.8310 0.8300 0.8290 0.8300
14.317800 0.8310 0.8310 0.8310 0.8310 0.8310
14.351955 0.8300 0.8280 0.8270 0.8270 0.8265
14.386110 0.8260 0.8260 0.8250 0.8230 0.8220
14.420265 0.8220 0.8206 0.8190 0.8181 0.8166
14.454420 0.8143 0.8112 0.8096 0.8082 0.8062
14.488575 0.8046 0.8031 0.8011 0.7991 0.7975
14.522730 0.7961 0.7950 0.7941 0.7930 0.7925
14.556885 0.7920 0.7925 0.7930 0.7930 0.7930
14.591040 0.7930 0.7930 0.7930 0.7930 0.7930
14.625195 0.7940 0.7950 0.7950 0.7950 0.7958
14.659350 0.7970 0.7970 0.7970 0.7970 0.7974
14.693505 0.7980 0.7980 0.7980 0.7980 0.7980
14.727660 0.7980 0.7980 0.7980 0.7980 0.7980
14.761815 0.7980 0.7980 0.7980 0.7980 0.7975
14.795970 0.7970 0.7960 0.7950 0.7950 0.7950
14.830125 0.7950 0.7950 0.7950 0.7950 0.7958
14.864280 0.7970 0.7974 0.7980 0.7988 0.8008
14.898435 0.8020 0.8028 0.8040 0.8040 0.8040
14.932590 0.8040 0.8040 0.8044 0.8050 0.8046
14.966745 0.8040 0.8040 0.8040 0.8040 0.8040
15.000900 0.8045 0.8050 0.8050 0.8050 0.8050
15.035055 0.8050 0.8050 0.8046 0.8032 0.8012
15.069210 0.7992 0.7980 0.7976 0.7954 0.7918
15.103365 0.7865 0.7785 0.7719 0.7649 0.7579
15.137520 0.7496 0.7418 0.7359 0.7311 0.7296
15.171675 0.7290 0.7272 0.7245 0.7240 0.7230
15.205830 0.7220 0.7220 0.7230 0.7240 0.7254
15.239985 0.7284 0.7309 0.7320 0.7328 0.7340
15.274140 0.7344 0.7358 0.7378 0.7398 0.7421
15.308295 0.7451 0.7478 0.7490 0.7499 0.7510
15.342450 0.7523 0.7549 0.7569 0.7580 0.7580
15.376605 0.7584 0.7590 0.7590 0.7600 0.7610
15.410760 0.7610
##END=
