##TITLE=1,2-CYCLOBUTANE, BIS-(METHYLAMINE)-
##JCAMP-DX=4.24
##DATA TYPE=INFRARED SPECTRUM
##CLASS=COBLENTZ III
##ORIGIN=DOW CHEMICAL COMPANY
##OWNER=COBLENTZ SOC.
Collection (C) 2018 copyright by the U.S. Secretary of Commerce
on behalf of the United States of America. All rights reserved.
##DATE=1966/02/04
##NAMES=[2-(aminomethyl)cyclobutyl]methylamine
##MOLFORM=C6 H14 N2
##SOURCE REFERENCE=COBLENTZ NO. 06704
##$NIST ID=B6006704
##$NIST SOURCE=COBLENTZ
##$NIST IMAGE=cob6704
##SPECTROMETER/DATA SYSTEM=DOW KBr FOREPRISM-GRATING
##INSTRUMENT PARAMETERS=BLAZED AT 3.5, 12.0, 20.0 MICRON AND CHANGED AT 5.0, 7.5, 14.9 MICRON
##STATE=SOLUTION (10% CCl4 FOR 3800-455 CM^-^1) VS SOLVENT
##PATH LENGTH=0.010 CM
$$SPECTRAL CONTAMINATION DUE TO CCl4 AROUND 700-850, AND H2O AROUND 3665 CM^-^1
##SAMPLING PROCEDURE=TRANSMISSION
##RESOLUTION=2
##DATA PROCESSING=DIGITIZED BY COBLENTZ SOCIETY (BATCH I) FROM HARD COPY
##XUNITS=1/CM
##YUNITS=TRANSMITTANCE
##XLABEL=Wavenumbers (cm-1)
##YLABEL=% Transmission
##XFACTOR=1
##YFACTOR=1
##DELTAX=1
##FIRSTX=457
##LASTX=3800
##FIRSTY=0.7739
##MAXX=3800
##MINX=457
##MAXY=0.9866
##MINY=0.0316
##NPOINTS=3344
##XYDATA=(X++(Y..Y))
457.000000 0.7739 0.7748 0.7753 0.7758 0.7764
462.000000 0.7767 0.7768 0.7771 0.7775 0.7778
467.000000 0.7778 0.7780 0.7780 0.7778 0.7778
472.000000 0.7778 0.7776 0.7775 0.7774 0.7771
477.000000 0.7771 0.7768 0.7767 0.7765 0.7761
482.000000 0.7757 0.7753 0.7749 0.7745 0.7741
487.000000 0.7741 0.7740 0.7740 0.7739 0.7739
492.000000 0.7739 0.7739 0.7740 0.7740 0.7741
497.000000 0.7742 0.7743 0.7748 0.7754 0.7758
502.000000 0.7765 0.7771 0.7782 0.7791 0.7801
507.000000 0.7810 0.7818 0.7828 0.7840 0.7854
512.000000 0.7868 0.7884 0.7898 0.7912 0.7928
517.000000 0.7943 0.7957 0.7971 0.7987 0.8001
522.000000 0.8017 0.8032 0.8047 0.8058 0.8067
527.000000 0.8075 0.8085 0.8094 0.8103 0.8110
532.000000 0.8114 0.8118 0.8121 0.8125 0.8128
537.000000 0.8133 0.8137 0.8138 0.8139 0.8139
542.000000 0.8140 0.8141 0.8142 0.8142 0.8141
547.000000 0.8140 0.8139 0.8138 0.8137 0.8136
552.000000 0.8135 0.8134 0.8133 0.8131 0.8121
557.000000 0.8112 0.8103 0.8094 0.8085 0.8075
562.000000 0.8058 0.8040 0.8021 0.8004 0.7986
567.000000 0.7967 0.7949 0.7930 0.7911 0.7895
572.000000 0.7887 0.7880 0.7874 0.7886 0.7898
577.000000 0.7910 0.7915 0.7921 0.7928 0.7935
582.000000 0.7941 0.7947 0.7947 0.7948 0.7943
587.000000 0.7932 0.7911 0.7893 0.7872 0.7851
592.000000 0.7824 0.7798 0.7771 0.7756 0.7747
597.000000 0.7737 0.7736 0.7739 0.7741 0.7743
602.000000 0.7745 0.7746 0.7748 0.7731 0.7712
607.000000 0.7695 0.7665 0.7637 0.7607 0.7531
612.000000 0.7425 0.7322 0.7315 0.7317 0.7321
617.000000 0.7340 0.7314 0.7384 0.7430 0.7495
622.000000 0.7530 0.7506 0.7507 0.7507 0.7491
627.000000 0.7465 0.7428 0.7404 0.7394 0.7408
632.000000 0.7432 0.7493 0.7553 0.7614 0.7675
637.000000 0.7736 0.7797 0.7857 0.7922 0.7941
642.000000 0.7956 0.7971 0.7960 0.7953 0.7945
647.000000 0.7936 0.7925 0.7915 0.7904 0.7896
652.000000 0.7887 0.7878 0.7868 0.7860 0.7858
657.000000 0.7858 0.7858 0.7858 0.7858 0.7858
662.000000 0.7851 0.7845 0.7838 0.7830 0.7819
667.000000 0.7803 0.7786 0.7781 0.7865 0.7918
672.000000 0.7951 0.7980 0.7975 0.7967 0.7958
677.000000 0.7949 0.7936 0.7921 0.7908 0.7886
682.000000 0.7861 0.7835 0.7808 0.7780 0.7746
687.000000 0.7712 0.7681 0.7651 0.7621 0.7591
692.000000 0.7561 0.7528 0.7496 0.7462 0.7431
697.000000 0.7398 0.7365 0.7333 0.7301 0.7269
702.000000 0.7238 0.7207 0.7169 0.7131 0.7093
707.000000 0.7055 0.7008 0.6955 0.6901 0.6848
712.000000 0.6794 0.6724 0.6651 0.6578 0.6332
717.000000 0.6146 0.6010 0.5877 0.5746 0.5599
722.000000 0.5430 0.5255 0.5072 0.4884 0.4697
727.000000 0.4523 0.4405 0.4287 0.3792 0.1792
732.000000 0.0755 0.0452 0.0349 0.0320 0.0316
737.000000 0.0316 0.0320 0.0323 0.0326 0.0333
742.000000 0.0340 0.0348 0.0359 0.0370 0.0381
747.000000 0.0392 0.0404 0.0416 0.0429 0.0441
752.000000 0.0455 0.0471 0.0487 0.0503 0.0520
757.000000 0.0537 0.0554 0.0570 0.0585 0.0600
762.000000 0.0614 0.0629 0.0644 0.0659 0.0674
767.000000 0.0688 0.0697 0.0707 0.0717 0.0727
772.000000 0.0736 0.0746 0.0756 0.0765 0.0774
777.000000 0.0783 0.0791 0.0800 0.0809 0.0818
782.000000 0.0826 0.0836 0.0843 0.0852 0.0859
787.000000 0.0867 0.0875 0.0883 0.0889 0.0897
792.000000 0.0906 0.0914 0.0922 0.0931 0.0939
797.000000 0.0949 0.0957 0.0966 0.0972 0.0979
802.000000 0.0984 0.0989 0.0996 0.1001 0.1007
807.000000 0.1013 0.1018 0.1024 0.1028 0.1032
812.000000 0.1036 0.1040 0.1044 0.1049 0.1053
817.000000 0.1056 0.1057 0.1059 0.1060 0.1061
822.000000 0.1062 0.1063 0.1065 0.1065 0.1065
827.000000 0.1068 0.1080 0.1092 0.1114 0.1138
832.000000 0.1173 0.1208 0.1245 0.1280 0.1315
837.000000 0.1350 0.1390 0.1431 0.1472 0.1513
842.000000 0.1563 0.1617 0.1672 0.1726 0.1779
847.000000 0.1828 0.1877 0.1926 0.1975 0.2025
852.000000 0.2082 0.2138 0.2195 0.2248 0.2298
857.000000 0.2348 0.2399 0.2449 0.2516 0.2584
862.000000 0.2654 0.2716 0.2778 0.2834 0.2883
867.000000 0.2925 0.2950 0.2974 0.2997 0.3021
872.000000 0.3049 0.3090 0.3127 0.3149 0.3160
877.000000 0.3170 0.3180 0.3189 0.3202 0.3230
882.000000 0.3258 0.3296 0.3334 0.3387 0.3437
887.000000 0.3475 0.3512 0.3550 0.3589 0.3630
892.000000 0.3679 0.3729 0.3778 0.3826 0.3872
897.000000 0.3918 0.3962 0.4006 0.4049 0.4092
902.000000 0.4112 0.4130 0.4140 0.4145 0.4150
907.000000 0.4155 0.4160 0.4166 0.4171 0.4182
912.000000 0.4193 0.4215 0.4255 0.4315 0.4379
917.000000 0.4488 0.4574 0.4652 0.4734 0.4801
922.000000 0.4824 0.4838 0.4837 0.4824 0.4809
927.000000 0.4794 0.4778 0.4770 0.4769 0.4768
932.000000 0.4774 0.4784 0.4806 0.4836 0.4871
937.000000 0.4910 0.4954 0.5002 0.5067 0.5146
942.000000 0.5248 0.5340 0.5422 0.5488 0.5549
947.000000 0.5655 0.5808 0.5877 0.5940 0.5992
952.000000 0.6038 0.6125 0.6204 0.6253 0.6289
957.000000 0.6325 0.6360 0.6397 0.6442 0.6492
962.000000 0.6542 0.6598 0.6656 0.6701 0.6749
967.000000 0.6790 0.6828 0.6868 0.6926 0.6986
972.000000 0.7058 0.7171 0.7274 0.7362 0.7440
977.000000 0.7511 0.7575 0.7621 0.7644 0.7668
982.000000 0.7691 0.7710 0.7725 0.7739 0.7749
987.000000 0.7756 0.7756 0.7761 0.7751 0.7750
992.000000 0.7742 0.7735 0.7728 0.7718 0.7707
997.000000 0.7696 0.7672 0.7644 0.7608 0.7565
1002.000000 0.7517 0.7456 0.7396 0.7337 0.7278
1007.000000 0.7233 0.7187 0.7141 0.7089 0.7031
1012.000000 0.6972 0.6912 0.6851 0.6788 0.6711
1017.000000 0.6618 0.6542 0.6475 0.6406 0.6336
1022.000000 0.6266 0.6176 0.6074 0.5973 0.5885
1027.000000 0.5783 0.5677 0.5603 0.5565 0.5566
1032.000000 0.5578 0.5692 0.5860 0.6028 0.6196
1037.000000 0.6364 0.6533 0.6701 0.6868 0.7036
1042.000000 0.7191 0.7287 0.7340 0.7374 0.7391
1047.000000 0.7392 0.7392 0.7396 0.7383 0.7375
1052.000000 0.7365 0.7356 0.7344 0.7332 0.7318
1057.000000 0.7304 0.7289 0.7275 0.7262 0.7251
1062.000000 0.7237 0.7222 0.7208 0.7193 0.7178
1067.000000 0.7164 0.7148 0.7133 0.7117 0.7093
1072.000000 0.7065 0.7028 0.6985 0.6947 0.6917
1077.000000 0.6898 0.6853 0.6875 0.6878 0.6885
1082.000000 0.6894 0.6905 0.6917 0.6930 0.6946
1087.000000 0.6962 0.6986 0.7008 0.7028 0.7047
1092.000000 0.7065 0.7075 0.7103 0.7091 0.7091
1097.000000 0.7091 0.7078 0.7062 0.7042 0.7021
1102.000000 0.6999 0.6969 0.6947 0.6933 0.6918
1107.000000 0.6921 0.6930 0.6931 0.6968 0.7001
1112.000000 0.7033 0.7071 0.7118 0.7164 0.7212
1117.000000 0.7261 0.7328 0.7412 0.7498 0.7551
1122.000000 0.7606 0.7665 0.7737 0.7833 0.7949
1127.000000 0.8033 0.8156 0.8197 0.8238 0.8281
1132.000000 0.8325 0.8355 0.8384 0.8408 0.8427
1137.000000 0.8446 0.8460 0.8468 0.8477 0.8486
1142.000000 0.8490 0.8494 0.8497 0.8501 0.8504
1147.000000 0.8508 0.8511 0.8514 0.8517 0.8521
1152.000000 0.8524 0.8527 0.8530 0.8535 0.8543
1157.000000 0.8551 0.8560 0.8575 0.8590 0.8604
1162.000000 0.8615 0.8625 0.8637 0.8643 0.8644
1167.000000 0.8646 0.8647 0.8649 0.8651 0.8651
1172.000000 0.8651 0.8651 0.8652 0.8654 0.8656
1177.000000 0.8658 0.8662 0.8678 0.8697 0.8718
1182.000000 0.8741 0.8762 0.8793 0.8825 0.8840
1187.000000 0.8852 0.8853 0.8854 0.8855 0.8857
1192.000000 0.8910 0.8863 0.8865 0.8865 0.8865
1197.000000 0.8862 0.8850 0.8838 0.8823 0.8808
1202.000000 0.8792 0.8775 0.8750 0.8724 0.8698
1207.000000 0.8668 0.8640 0.8610 0.8577 0.8523
1212.000000 0.8468 0.8407 0.8378 0.8375 0.8382
1217.000000 0.8398 0.8415 0.8439 0.8464 0.8489
1222.000000 0.8500 0.8506 0.8505 0.8499 0.8489
1227.000000 0.8471 0.8446 0.8423 0.8401 0.8383
1232.000000 0.8370 0.8361 0.8357 0.8356 0.8356
1237.000000 0.8358 0.8361 0.8364 0.8358 0.8343
1242.000000 0.8327 0.8310 0.8293 0.8277 0.8261
1247.000000 0.8246 0.8236 0.8225 0.8225 0.8225
1252.000000 0.8234 0.8243 0.8254 0.8286 0.8318
1257.000000 0.8349 0.8380 0.8410 0.8471 0.8504
1262.000000 0.8518 0.8518 0.8515 0.8534 0.8498
1267.000000 0.8488 0.8466 0.8440 0.8410 0.8365
1272.000000 0.8318 0.8284 0.8250 0.8215 0.8182
1277.000000 0.8151 0.8121 0.8090 0.8061 0.8032
1282.000000 0.8003 0.7974 0.7942 0.7906 0.7869
1287.000000 0.7834 0.7803 0.7775 0.7749 0.7721
1292.000000 0.7687 0.7675 0.7678 0.7680 0.7682
1297.000000 0.7685 0.7687 0.7691 0.7695 0.7699
1302.000000 0.7703 0.7707 0.7710 0.7714 0.7717
1307.000000 0.7721 0.7724 0.7726 0.7728 0.7730
1312.000000 0.7731 0.7733 0.7734 0.7736 0.7741
1317.000000 0.7745 0.7749 0.7754 0.7758 0.7761
1322.000000 0.7761 0.7761 0.7757 0.7753 0.7750
1327.000000 0.7731 0.7708 0.7683 0.7658 0.7633
1332.000000 0.7608 0.7574 0.7533 0.7493 0.7451
1337.000000 0.7411 0.7368 0.7324 0.7301 0.7296
1342.000000 0.7305 0.7315 0.7325 0.7335 0.7343
1347.000000 0.7350 0.7350 0.7351 0.7334 0.7311
1352.000000 0.7283 0.7254 0.7221 0.7190 0.7158
1357.000000 0.7114 0.7076 0.7074 0.7087 0.7101
1362.000000 0.7115 0.7136 0.7158 0.7178 0.7201
1367.000000 0.7219 0.7224 0.7133 0.7043 0.6945
1372.000000 0.6849 0.6754 0.6658 0.6562 0.6465
1377.000000 0.6367 0.6178 0.6022 0.5895 0.5816
1382.000000 0.5717 0.5697 0.5725 0.5770 0.5825
1387.000000 0.5891 0.5957 0.6035 0.6080 0.6157
1392.000000 0.6260 0.6345 0.6456 0.6587 0.6756
1397.000000 0.6892 0.7108 0.7708 0.8008 0.8411
1402.000000 0.8594 0.8714 0.8775 0.8821 0.8862
1407.000000 0.8881 0.8900 0.8913 0.8917 0.8921
1412.000000 0.8941 0.8923 0.8921 0.8912 0.8900
1417.000000 0.8888 0.8873 0.8852 0.8830 0.8809
1422.000000 0.8782 0.8755 0.8728 0.8695 0.8654
1427.000000 0.8612 0.8555 0.8491 0.8388 0.8270
1432.000000 0.8195 0.8118 0.8015 0.7858 0.7665
1437.000000 0.7285 0.6841 0.6400 0.6383 0.6686
1442.000000 0.7098 0.7212 0.7211 0.7246 0.7036
1447.000000 0.6854 0.6739 0.6644 0.6561 0.6491
1452.000000 0.6421 0.6349 0.6266 0.6165 0.6096
1457.000000 0.6043 0.6020 0.6010 0.6012 0.6005
1462.000000 0.6030 0.6066 0.6106 0.6189 0.6277
1467.000000 0.6384 0.6539 0.6690 0.7651 0.7786
1472.000000 0.7868 0.7958 0.8030 0.8104 0.8147
1477.000000 0.8190 0.8230 0.8250 0.8270 0.8290
1482.000000 0.8312 0.8324 0.8333 0.8337 0.8345
1487.000000 0.8345 0.8342 0.8338 0.8333 0.8328
1492.000000 0.8321 0.8316 0.8308 0.8298 0.8288
1497.000000 0.8275 0.8260 0.8245 0.8230 0.8213
1502.000000 0.8196 0.8178 0.8160 0.8142 0.8124
1507.000000 0.8106 0.8083 0.8057 0.8031 0.8005
1512.000000 0.7980 0.7954 0.7928 0.7901 0.7875
1517.000000 0.7850 0.7824 0.7799 0.7772 0.7745
1522.000000 0.7711 0.7678 0.7645 0.7611 0.7578
1527.000000 0.7546 0.7511 0.7475 0.7439 0.7403
1532.000000 0.7367 0.7331 0.7295 0.7261 0.7225
1537.000000 0.7192 0.7158 0.7122 0.7089 0.7050
1542.000000 0.7008 0.6968 0.6926 0.6886 0.6845
1547.000000 0.6803 0.6761 0.6721 0.6678 0.6637
1552.000000 0.6595 0.6553 0.6510 0.6468 0.6425
1557.000000 0.6384 0.6344 0.6306 0.6269 0.6231
1562.000000 0.6194 0.6156 0.6119 0.6081 0.6044
1567.000000 0.6005 0.5957 0.5910 0.5862 0.5815
1572.000000 0.5767 0.5720 0.5672 0.5623 0.5574
1577.000000 0.5524 0.5475 0.5426 0.5378 0.5339
1582.000000 0.5299 0.5260 0.5220 0.5181 0.5142
1587.000000 0.5110 0.5078 0.5046 0.5014 0.4982
1592.000000 0.4950 0.4918 0.4891 0.4862 0.4836
1597.000000 0.4809 0.4781 0.4754 0.4727 0.4706
1602.000000 0.4687 0.4669 0.4650 0.4631 0.4612
1607.000000 0.4593 0.4573 0.4552 0.4532 0.4514
1612.000000 0.4502 0.4540 0.4507 0.4516 0.4525
1617.000000 0.4538 0.4560 0.4593 0.4636 0.4707
1622.000000 0.4781 0.4870 0.4957 0.5041 0.5121
1627.000000 0.5198 0.5275 0.5368 0.5465 0.5560
1632.000000 0.5647 0.5734 0.5821 0.5888 0.5955
1637.000000 0.6021 0.6088 0.6160 0.6244 0.6328
1642.000000 0.6410 0.6488 0.6567 0.6645 0.6721
1647.000000 0.6797 0.6872 0.6951 0.7030 0.7089
1652.000000 0.7147 0.7201 0.7254 0.7281 0.7301
1657.000000 0.7321 0.7337 0.7353 0.7368 0.7403
1662.000000 0.7471 0.7644 0.7745 0.7831 0.7908
1667.000000 0.7978 0.8042 0.8140 0.8201 0.8249
1672.000000 0.8291 0.8332 0.8371 0.8412 0.8454
1677.000000 0.8502 0.8550 0.8597 0.8644 0.8683
1682.000000 0.8717 0.8751 0.8785 0.8812 0.8836
1687.000000 0.8859 0.8883 0.8906 0.8928 0.8951
1692.000000 0.8974 0.8997 0.9018 0.9043 0.9067
1697.000000 0.9090 0.9114 0.9138 0.9163 0.9188
1702.000000 0.9212 0.9236 0.9252 0.9268 0.9284
1707.000000 0.9296 0.9304 0.9312 0.9320 0.9328
1712.000000 0.9336 0.9344 0.9352 0.9360 0.9367
1717.000000 0.9375 0.9383 0.9391 0.9398 0.9406
1722.000000 0.9414 0.9421 0.9428 0.9437 0.9444
1727.000000 0.9452 0.9459 0.9467 0.9474 0.9482
1732.000000 0.9489 0.9496 0.9502 0.9509 0.9515
1737.000000 0.9521 0.9528 0.9535 0.9541 0.9548
1742.000000 0.9553 0.9558 0.9562 0.9567 0.9571
1747.000000 0.9575 0.9581 0.9585 0.9587 0.9590
1752.000000 0.9592 0.9595 0.9597 0.9600 0.9600
1757.000000 0.9600 0.9600 0.9600 0.9599 0.9599
1762.000000 0.9598 0.9597 0.9595 0.9594 0.9592
1767.000000 0.9590 0.9588 0.9586 0.9584 0.9583
1772.000000 0.9581 0.9578 0.9575 0.9571 0.9568
1777.000000 0.9564 0.9560 0.9556 0.9552 0.9548
1782.000000 0.9544 0.9541 0.9537 0.9533 0.9531
1787.000000 0.9528 0.9525 0.9524 0.9521 0.9518
1792.000000 0.9516 0.9514 0.9511 0.9509 0.9506
1797.000000 0.9504 0.9502 0.9499 0.9497 0.9494
1802.000000 0.9492 0.9488 0.9485 0.9481 0.9477
1807.000000 0.9474 0.9470 0.9466 0.9463 0.9459
1812.000000 0.9455 0.9451 0.9448 0.9445 0.9443
1817.000000 0.9441 0.9439 0.9437 0.9435 0.9432
1822.000000 0.9430 0.9428 0.9425 0.9424 0.9421
1827.000000 0.9420 0.9418 0.9416 0.9414 0.9412
1832.000000 0.9410 0.9408 0.9406 0.9404 0.9402
1837.000000 0.9400 0.9398 0.9396 0.9395 0.9395
1842.000000 0.9394 0.9393 0.9392 0.9392 0.9392
1847.000000 0.9392 0.9391 0.9391 0.9391 0.9390
1852.000000 0.9390 0.9390 0.9390 0.9391 0.9392
1857.000000 0.9394 0.9395 0.9396 0.9397 0.9399
1862.000000 0.9400 0.9401 0.9403 0.9404 0.9407
1867.000000 0.9409 0.9411 0.9413 0.9416 0.9418
1872.000000 0.9420 0.9420 0.9418 0.9418 0.9417
1877.000000 0.9416 0.9415 0.9415 0.9414 0.9413
1882.000000 0.9412 0.9411 0.9410 0.9410 0.9410
1887.000000 0.9410 0.9410 0.9410 0.9410 0.9411
1892.000000 0.9411 0.9411 0.9411 0.9411 0.9411
1897.000000 0.9411 0.9412 0.9412 0.9413 0.9414
1902.000000 0.9415 0.9416 0.9417 0.9418 0.9418
1907.000000 0.9420 0.9420 0.9421 0.9421 0.9423
1912.000000 0.9424 0.9425 0.9425 0.9425 0.9425
1917.000000 0.9425 0.9424 0.9424 0.9424 0.9423
1922.000000 0.9423 0.9421 0.9421 0.9421 0.9421
1927.000000 0.9421 0.9421 0.9420 0.9420 0.9420
1932.000000 0.9420 0.9421 0.9421 0.9421 0.9421
1937.000000 0.9423 0.9423 0.9424 0.9424 0.9425
1942.000000 0.9425 0.9425 0.9427 0.9427 0.9428
1947.000000 0.9428 0.9428 0.9430 0.9431 0.9432
1952.000000 0.9432 0.9433 0.9434 0.9434 0.9435
1957.000000 0.9435 0.9435 0.9436 0.9436 0.9436
1962.000000 0.9436 0.9436 0.9436 0.9436 0.9436
1967.000000 0.9437 0.9437 0.9437 0.9437 0.9437
1972.000000 0.9437 0.9437 0.9437 0.9438 0.9438
1977.000000 0.9438 0.9438 0.9438 0.9438 0.9438
1982.000000 0.9439 0.9440 0.9441 0.9442 0.9443
1987.000000 0.9444 0.9445 0.9446 0.9447 0.9455
1992.000000 0.9490 0.9527 0.9566 0.9605 0.9643
1997.000000 0.9665 0.9675 0.9677 0.9678 0.9678
2002.000000 0.9678 0.9680 0.9680 0.9678 0.9678
2007.000000 0.9677 0.9677 0.9675 0.9675 0.9675
2012.000000 0.9675 0.9674 0.9674 0.9674 0.9674
2017.000000 0.9671 0.9671 0.9668 0.9668 0.9666
2022.000000 0.9665 0.9664 0.9663 0.9661 0.9660
2027.000000 0.9658 0.9657 0.9656 0.9655 0.9654
2032.000000 0.9653 0.9652 0.9652 0.9651 0.9650
2037.000000 0.9649 0.9649 0.9648 0.9647 0.9646
2042.000000 0.9646 0.9645 0.9645 0.9644 0.9643
2047.000000 0.9642 0.9641 0.9640 0.9639 0.9637
2052.000000 0.9636 0.9635 0.9634 0.9633 0.9632
2057.000000 0.9630 0.9628 0.9628 0.9627 0.9625
2062.000000 0.9624 0.9623 0.9621 0.9620 0.9618
2067.000000 0.9618 0.9617 0.9616 0.9615 0.9613
2072.000000 0.9612 0.9611 0.9610 0.9609 0.9608
2077.000000 0.9606 0.9605 0.9604 0.9603 0.9602
2082.000000 0.9601 0.9599 0.9598 0.9597 0.9596
2087.000000 0.9594 0.9593 0.9592 0.9591 0.9589
2092.000000 0.9588 0.9586 0.9584 0.9582 0.9581
2097.000000 0.9578 0.9577 0.9575 0.9574 0.9571
2102.000000 0.9570 0.9568 0.9567 0.9565 0.9564
2107.000000 0.9562 0.9560 0.9558 0.9557 0.9555
2112.000000 0.9553 0.9551 0.9550 0.9548 0.9547
2117.000000 0.9545 0.9543 0.9542 0.9541 0.9540
2122.000000 0.9539 0.9537 0.9536 0.9535 0.9534
2127.000000 0.9533 0.9532 0.9531 0.9530 0.9528
2132.000000 0.9527 0.9525 0.9525 0.9524 0.9524
2137.000000 0.9523 0.9523 0.9523 0.9523 0.9523
2142.000000 0.9523 0.9521 0.9521 0.9521 0.9521
2147.000000 0.9521 0.9521 0.9521 0.9521 0.9521
2152.000000 0.9521 0.9521 0.9521 0.9521 0.9521
2157.000000 0.9524 0.9527 0.9528 0.9532 0.9534
2162.000000 0.9537 0.9540 0.9544 0.9547 0.9550
2167.000000 0.9553 0.9557 0.9560 0.9563 0.9566
2172.000000 0.9568 0.9571 0.9575 0.9577 0.9580
2177.000000 0.9583 0.9586 0.9587 0.9589 0.9589
2182.000000 0.9590 0.9590 0.9591 0.9591 0.9591
2187.000000 0.9591 0.9592 0.9592 0.9593 0.9593
2192.000000 0.9593 0.9592 0.9592 0.9591 0.9590
2197.000000 0.9589 0.9589 0.9588 0.9588 0.9587
2202.000000 0.9587 0.9586 0.9586 0.9586 0.9586
2207.000000 0.9586 0.9587 0.9587 0.9588 0.9588
2212.000000 0.9588 0.9588 0.9589 0.9589 0.9590
2217.000000 0.9590 0.9590 0.9590 0.9591 0.9592
2222.000000 0.9593 0.9594 0.9596 0.9598 0.9600
2227.000000 0.9601 0.9603 0.9604 0.9605 0.9606
2232.000000 0.9607 0.9608 0.9609 0.9610 0.9611
2237.000000 0.9612 0.9613 0.9614 0.9615 0.9616
2242.000000 0.9618 0.9618 0.9620 0.9621 0.9621
2247.000000 0.9623 0.9624 0.9625 0.9625 0.9628
2252.000000 0.9631 0.9634 0.9637 0.9639 0.9642
2257.000000 0.9644 0.9647 0.9650 0.9653 0.9655
2262.000000 0.9658 0.9659 0.9661 0.9661 0.9662
2267.000000 0.9663 0.9664 0.9664 0.9665 0.9666
2272.000000 0.9667 0.9667 0.9667 0.9667 0.9667
2277.000000 0.9665 0.9663 0.9661 0.9659 0.9657
2282.000000 0.9655 0.9653 0.9651 0.9648 0.9646
2287.000000 0.9644 0.9642 0.9639 0.9639 0.9639
2292.000000 0.9639 0.9643 0.9648 0.9657 0.9667
2297.000000 0.9675 0.9686 0.9694 0.9703 0.9711
2302.000000 0.9720 0.9728 0.9737 0.9745 0.9754
2307.000000 0.9762 0.9771 0.9774 0.9775 0.9775
2312.000000 0.9775 0.9774 0.9773 0.9771 0.9768
2317.000000 0.9766 0.9764 0.9761 0.9758 0.9754
2322.000000 0.9751 0.9746 0.9741 0.9736 0.9732
2327.000000 0.9727 0.9721 0.9717 0.9712 0.9707
2332.000000 0.9703 0.9698 0.9693 0.9689 0.9686
2337.000000 0.9682 0.9678 0.9675 0.9671 0.9667
2342.000000 0.9664 0.9660 0.9657 0.9653 0.9650
2347.000000 0.9646 0.9642 0.9638 0.9635 0.9631
2352.000000 0.9628 0.9625 0.9624 0.9621 0.9618
2357.000000 0.9617 0.9615 0.9612 0.9610 0.9608
2362.000000 0.9606 0.9603 0.9601 0.9599 0.9597
2367.000000 0.9594 0.9592 0.9590 0.9588 0.9585
2372.000000 0.9583 0.9581 0.9578 0.9575 0.9574
2377.000000 0.9571 0.9571 0.9568 0.9567 0.9565
2382.000000 0.9564 0.9562 0.9560 0.9558 0.9557
2387.000000 0.9555 0.9553 0.9551 0.9550 0.9548
2392.000000 0.9546 0.9544 0.9543 0.9541 0.9539
2397.000000 0.9537 0.9536 0.9533 0.9531 0.9528
2402.000000 0.9527 0.9524 0.9521 0.9518 0.9517
2407.000000 0.9515 0.9513 0.9510 0.9508 0.9505
2412.000000 0.9503 0.9501 0.9499 0.9496 0.9494
2417.000000 0.9492 0.9490 0.9487 0.9485 0.9482
2422.000000 0.9480 0.9478 0.9475 0.9473 0.9471
2427.000000 0.9468 0.9467 0.9465 0.9463 0.9461
2432.000000 0.9460 0.9458 0.9456 0.9454 0.9452
2437.000000 0.9450 0.9448 0.9446 0.9444 0.9442
2442.000000 0.9440 0.9438 0.9437 0.9435 0.9433
2447.000000 0.9431 0.9428 0.9427 0.9425 0.9423
2452.000000 0.9421 0.9418 0.9417 0.9415 0.9413
2457.000000 0.9411 0.9410 0.9408 0.9406 0.9404
2462.000000 0.9402 0.9400 0.9398 0.9396 0.9394
2467.000000 0.9392 0.9391 0.9389 0.9387 0.9385
2472.000000 0.9383 0.9381 0.9378 0.9377 0.9375
2477.000000 0.9373 0.9371 0.9370 0.9368 0.9366
2482.000000 0.9364 0.9362 0.9360 0.9358 0.9357
2487.000000 0.9355 0.9353 0.9351 0.9349 0.9347
2492.000000 0.9345 0.9343 0.9341 0.9339 0.9338
2497.000000 0.9336 0.9334 0.9332 0.9330 0.9327
2502.000000 0.9324 0.9321 0.9318 0.9316 0.9313
2507.000000 0.9310 0.9308 0.9305 0.9302 0.9299
2512.000000 0.9297 0.9294 0.9291 0.9288 0.9286
2517.000000 0.9283 0.9280 0.9277 0.9275 0.9271
2522.000000 0.9268 0.9266 0.9264 0.9261 0.9258
2527.000000 0.9255 0.9253 0.9250 0.9247 0.9244
2532.000000 0.9242 0.9239 0.9236 0.9232 0.9228
2537.000000 0.9224 0.9221 0.9217 0.9214 0.9210
2542.000000 0.9206 0.9202 0.9199 0.9195 0.9191
2547.000000 0.9187 0.9184 0.9180 0.9175 0.9171
2552.000000 0.9168 0.9165 0.9162 0.9158 0.9154
2557.000000 0.9150 0.9147 0.9143 0.9139 0.9135
2562.000000 0.9132 0.9128 0.9124 0.9120 0.9117
2567.000000 0.9112 0.9108 0.9103 0.9098 0.9093
2572.000000 0.9088 0.9083 0.9078 0.9074 0.9068
2577.000000 0.9064 0.9059 0.9054 0.9050 0.9045
2582.000000 0.9040 0.9035 0.9030 0.9025 0.9020
2587.000000 0.9015 0.9011 0.9006 0.9001 0.8995
2592.000000 0.8990 0.8983 0.8977 0.8970 0.8964
2597.000000 0.8957 0.8951 0.8944 0.8938 0.8931
2602.000000 0.8925 0.8918 0.8912 0.8905 0.8899
2607.000000 0.8892 0.8886 0.8878 0.8873 0.8864
2612.000000 0.8856 0.8846 0.8837 0.8828 0.8818
2617.000000 0.8809 0.8800 0.8790 0.8781 0.8771
2622.000000 0.8762 0.8752 0.8743 0.8733 0.8724
2627.000000 0.8714 0.8704 0.8689 0.8674 0.8659
2632.000000 0.8645 0.8630 0.8615 0.8600 0.8586
2637.000000 0.8571 0.8556 0.8541 0.8525 0.8511
2642.000000 0.8497 0.8480 0.8464 0.8447 0.8431
2647.000000 0.8415 0.8399 0.8382 0.8366 0.8349
2652.000000 0.8333 0.8316 0.8300 0.8286 0.8273
2657.000000 0.8274 0.8275 0.8277 0.8278 0.8281
2662.000000 0.8284 0.8287 0.8291 0.8297 0.8304
2667.000000 0.8310 0.8317 0.8323 0.8330 0.8335
2672.000000 0.8341 0.8346 0.8351 0.8355 0.8359
2677.000000 0.8358 0.8357 0.8356 0.8355 0.8353
2682.000000 0.8352 0.8349 0.8346 0.8341 0.8336
2687.000000 0.8331 0.8325 0.8320 0.8314 0.8306
2692.000000 0.8299 0.8284 0.8270 0.8255 0.8240
2697.000000 0.8225 0.8211 0.8189 0.8167 0.8145
2702.000000 0.8124 0.8101 0.8080 0.8054 0.8028
2707.000000 0.7997 0.7967 0.7937 0.7907 0.7881
2712.000000 0.7855 0.7830 0.7805 0.7780 0.7756
2717.000000 0.7731 0.7706 0.7681 0.7657 0.7632
2722.000000 0.7607 0.7578 0.7551 0.7522 0.7495
2727.000000 0.7467 0.7439 0.7411 0.7383 0.7354
2732.000000 0.7325 0.7290 0.7254 0.7217 0.7181
2737.000000 0.7144 0.7107 0.7069 0.7034 0.6971
2742.000000 0.6910 0.6858 0.6808 0.6806 0.6812
2747.000000 0.6808 0.6815 0.6821 0.6828 0.6835
2752.000000 0.6842 0.6860 0.6878 0.6914 0.6949
2757.000000 0.7011 0.7075 0.7146 0.7217 0.7239
2762.000000 0.7261 0.7268 0.7276 0.7274 0.7271
2767.000000 0.7268 0.7261 0.7258 0.7251 0.7244
2772.000000 0.7237 0.7224 0.7211 0.7180 0.7150
2777.000000 0.7111 0.7072 0.7022 0.6974 0.6926
2782.000000 0.6881 0.6839 0.6797 0.6751 0.6706
2787.000000 0.6648 0.6590 0.6528 0.6465 0.6400
2792.000000 0.6335 0.6276 0.6218 0.6166 0.6114
2797.000000 0.6060 0.6007 0.5910 0.5815 0.5679
2802.000000 0.5543 0.5407 0.5272 0.5136 0.5000
2807.000000 0.4864 0.4729 0.4593 0.4457 0.4321
2812.000000 0.4185 0.4049 0.3914 0.3654 0.3395
2817.000000 0.3278 0.3161 0.3029 0.2898 0.2716
2822.000000 0.2534 0.2469 0.2403 0.2339 0.2276
2827.000000 0.1989 0.1702 0.1667 0.1633 0.1622
2832.000000 0.1612 0.1610 0.1609 0.1607 0.1606
2837.000000 0.1604 0.1602 0.1596 0.1590 0.1574
2842.000000 0.1559 0.1515 0.1472 0.1361 0.1251
2847.000000 0.1133 0.1015 0.0932 0.0849 0.0798
2852.000000 0.0747 0.0730 0.0713 0.0715 0.0678
2857.000000 0.0727 0.0737 0.0763 0.0789 0.0822
2862.000000 0.0858 0.1069 0.1280 0.1365 0.1450
2867.000000 0.1489 0.1528 0.1531 0.1557 0.1536
2872.000000 0.1537 0.1530 0.1524 0.1496 0.1470
2877.000000 0.1431 0.1392 0.1354 0.1316 0.1275
2882.000000 0.1234 0.1189 0.1145 0.1101 0.1058
2887.000000 0.1010 0.0963 0.0900 0.0838 0.0751
2892.000000 0.0664 0.0610 0.0557 0.0529 0.0498
2897.000000 0.0499 0.0499 0.0499 0.0500 0.0501
2902.000000 0.0502 0.0503 0.0504 0.0505 0.0506
2907.000000 0.0506 0.0507 0.0507 0.0507 0.0507
2912.000000 0.0507 0.0507 0.0507 0.0506 0.0504
2917.000000 0.0496 0.0488 0.0479 0.0469 0.0459
2922.000000 0.0448 0.0437 0.0425 0.0421 0.0416
2927.000000 0.0415 0.0415 0.0417 0.0419 0.0421
2932.000000 0.0397 0.0431 0.0438 0.0444 0.0450
2937.000000 0.0589 0.0729 0.0780 0.0831 0.0846
2942.000000 0.0863 0.0861 0.0895 0.0850 0.0841
2947.000000 0.0815 0.0789 0.0760 0.0731 0.0714
2952.000000 0.0697 0.0680 0.0663 0.0644 0.0626
2957.000000 0.0607 0.0589 0.0580 0.0571 0.0563
2962.000000 0.0563 0.0562 0.0569 0.0579 0.0548
2967.000000 0.0604 0.0619 0.0636 0.0654 0.0735
2972.000000 0.0816 0.0900 0.0984 0.1066 0.1148
2977.000000 0.1273 0.1398 0.2275 0.3152 0.3328
2982.000000 0.3504 0.3705 0.3906 0.4128 0.4350
2987.000000 0.4515 0.4681 0.4820 0.4959 0.5099
2992.000000 0.5240 0.5357 0.5474 0.5548 0.5622
2997.000000 0.5679 0.5737 0.5858 0.5980 0.6228
3002.000000 0.6475 0.6630 0.6784 0.6893 0.7001
3007.000000 0.7060 0.7118 0.7167 0.7215 0.7344
3012.000000 0.7471 0.7503 0.7535 0.7555 0.7575
3017.000000 0.7595 0.7614 0.7633 0.7653 0.7671
3022.000000 0.7690 0.7708 0.7725 0.7744 0.7761
3027.000000 0.7778 0.7796 0.7812 0.7830 0.7841
3032.000000 0.7853 0.7862 0.7874 0.7884 0.7895
3037.000000 0.7905 0.7915 0.7919 0.7925 0.7928
3042.000000 0.7933 0.7937 0.7941 0.7945 0.7949
3047.000000 0.7951 0.7954 0.7956 0.7958 0.7961
3052.000000 0.7964 0.7965 0.7968 0.7969 0.7972
3057.000000 0.7975 0.7976 0.7978 0.7978 0.7978
3062.000000 0.7980 0.7981 0.7989 0.7983 0.7984
3067.000000 0.7984 0.7984 0.7984 0.7983 0.7982
3072.000000 0.7982 0.7981 0.7980 0.7978 0.7978
3077.000000 0.7975 0.7974 0.7971 0.7968 0.7965
3082.000000 0.7962 0.7960 0.7958 0.7955 0.7951
3087.000000 0.7947 0.7943 0.7939 0.7935 0.7930
3092.000000 0.7925 0.7921 0.7918 0.7912 0.7908
3097.000000 0.7901 0.7895 0.7888 0.7881 0.7872
3102.000000 0.7865 0.7858 0.7851 0.7844 0.7837
3107.000000 0.7828 0.7821 0.7814 0.7806 0.7798
3112.000000 0.7791 0.7783 0.7775 0.7764 0.7753
3117.000000 0.7742 0.7732 0.7721 0.7710 0.7699
3122.000000 0.7689 0.7676 0.7665 0.7649 0.7634
3127.000000 0.7618 0.7603 0.7588 0.7572 0.7557
3132.000000 0.7542 0.7525 0.7511 0.7494 0.7476
3137.000000 0.7458 0.7441 0.7422 0.7405 0.7387
3142.000000 0.7368 0.7351 0.7334 0.7315 0.7298
3147.000000 0.7278 0.7260 0.7240 0.7221 0.7201
3152.000000 0.7183 0.7164 0.7145 0.7125 0.7106
3157.000000 0.7086 0.7065 0.7045 0.7024 0.7003
3162.000000 0.6982 0.6961 0.6940 0.6921 0.6905
3167.000000 0.6890 0.6875 0.6861 0.6847 0.6839
3172.000000 0.6832 0.6832 0.6833 0.6834 0.6835
3177.000000 0.6836 0.6837 0.6837 0.6838 0.6839
3182.000000 0.6841 0.6845 0.6849 0.6853 0.6857
3187.000000 0.6864 0.6871 0.6880 0.6888 0.6894
3192.000000 0.6900 0.6905 0.6910 0.6915 0.6919
3197.000000 0.6919 0.6921 0.6921 0.6921 0.6922
3202.000000 0.6924 0.6919 0.6917 0.6910 0.6903
3207.000000 0.6896 0.6890 0.6883 0.6875 0.6867
3212.000000 0.6858 0.6845 0.6832 0.6818 0.6805
3217.000000 0.6791 0.6778 0.6761 0.6744 0.6726
3222.000000 0.6710 0.6693 0.6675 0.6658 0.6640
3227.000000 0.6621 0.6601 0.6582 0.6562 0.6544
3232.000000 0.6525 0.6506 0.6487 0.6458 0.6428
3237.000000 0.6400 0.6372 0.6343 0.6314 0.6285
3242.000000 0.6256 0.6225 0.6194 0.6162 0.6131
3247.000000 0.6099 0.6068 0.6037 0.6006 0.5973
3252.000000 0.5940 0.5906 0.5872 0.5838 0.5804
3257.000000 0.5773 0.5742 0.5717 0.5692 0.5667
3262.000000 0.5643 0.5618 0.5594 0.5575 0.5556
3267.000000 0.5539 0.5523 0.5520 0.5517 0.5515
3272.000000 0.5457 0.5512 0.5512 0.5515 0.5518
3277.000000 0.5522 0.5527 0.5534 0.5542 0.5550
3282.000000 0.5558 0.5567 0.5576 0.5590 0.5605
3287.000000 0.5619 0.5633 0.5653 0.5674 0.5695
3292.000000 0.5716 0.5734 0.5752 0.5769 0.5786
3297.000000 0.5820 0.5854 0.5884 0.5914 0.5942
3302.000000 0.5971 0.5999 0.6027 0.6055 0.6084
3307.000000 0.6112 0.6140 0.6169 0.6198 0.6226
3312.000000 0.6255 0.6282 0.6309 0.6336 0.6362
3317.000000 0.6386 0.6408 0.6426 0.6445 0.6462
3322.000000 0.6481 0.6498 0.6515 0.6524 0.6533
3327.000000 0.6538 0.6555 0.6544 0.6545 0.6537
3332.000000 0.6530 0.6518 0.6508 0.6494 0.6480
3337.000000 0.6462 0.6447 0.6425 0.6404 0.6380
3342.000000 0.6356 0.6328 0.6301 0.6272 0.6243
3347.000000 0.6214 0.6186 0.6157 0.6128 0.6099
3352.000000 0.6071 0.6047 0.6023 0.5999 0.5976
3357.000000 0.5952 0.5929 0.5905 0.5882 0.5858
3362.000000 0.5834 0.5809 0.5785 0.5760 0.5736
3367.000000 0.5710 0.5687 0.5674 0.5660 0.5648
3372.000000 0.5635 0.5630 0.5629 0.5630 0.5630
3377.000000 0.5638 0.5646 0.5655 0.5664 0.5675
3382.000000 0.5686 0.5708 0.5731 0.5765 0.5800
3387.000000 0.5916 0.6032 0.6118 0.6204 0.6352
3392.000000 0.6501 0.6608 0.6715 0.6795 0.6874
3397.000000 0.6953 0.7032 0.7136 0.7241 0.7305
3402.000000 0.7368 0.7401 0.7434 0.7465 0.7497
3407.000000 0.7526 0.7558 0.7591 0.7624 0.7650
3412.000000 0.7675 0.7688 0.7700 0.7711 0.7725
3417.000000 0.7737 0.7750 0.7761 0.7774 0.7786
3422.000000 0.7799 0.7810 0.7821 0.7833 0.7845
3427.000000 0.7858 0.7871 0.7887 0.7901 0.7917
3432.000000 0.7933 0.7949 0.7965 0.7983 0.8000
3437.000000 0.8014 0.8028 0.8042 0.8056 0.8068
3442.000000 0.8083 0.8097 0.8111 0.8124 0.8138
3447.000000 0.8151 0.8165 0.8178 0.8192 0.8205
3452.000000 0.8218 0.8232 0.8246 0.8259 0.8273
3457.000000 0.8286 0.8300 0.8314 0.8328 0.8341
3462.000000 0.8355 0.8368 0.8382 0.8396 0.8410
3467.000000 0.8423 0.8437 0.8448 0.8460 0.8470
3472.000000 0.8481 0.8492 0.8503 0.8514 0.8525
3477.000000 0.8535 0.8546 0.8557 0.8568 0.8578
3482.000000 0.8589 0.8600 0.8611 0.8621 0.8633
3487.000000 0.8643 0.8654 0.8665 0.8675 0.8686
3492.000000 0.8696 0.8705 0.8715 0.8724 0.8734
3497.000000 0.8743 0.8753 0.8763 0.8773 0.8782
3502.000000 0.8792 0.8801 0.8811 0.8820 0.8830
3507.000000 0.8840 0.8850 0.8859 0.8868 0.8878
3512.000000 0.8888 0.8898 0.8909 0.8918 0.8930
3517.000000 0.8941 0.8952 0.8962 0.8973 0.8983
3522.000000 0.8994 0.9005 0.9016 0.9025 0.9037
3527.000000 0.9048 0.9059 0.9068 0.9080 0.9091
3532.000000 0.9102 0.9112 0.9121 0.9132 0.9143
3537.000000 0.9153 0.9163 0.9173 0.9184 0.9194
3542.000000 0.9204 0.9214 0.9225 0.9235 0.9245
3547.000000 0.9255 0.9265 0.9274 0.9284 0.9291
3552.000000 0.9298 0.9305 0.9312 0.9318 0.9325
3557.000000 0.9333 0.9341 0.9348 0.9355 0.9362
3562.000000 0.9368 0.9375 0.9383 0.9388 0.9393
3567.000000 0.9398 0.9404 0.9409 0.9414 0.9418
3572.000000 0.9424 0.9428 0.9434 0.9439 0.9444
3577.000000 0.9449 0.9454 0.9459 0.9464 0.9468
3582.000000 0.9475 0.9481 0.9487 0.9493 0.9499
3587.000000 0.9505 0.9512 0.9518 0.9524 0.9530
3592.000000 0.9536 0.9542 0.9548 0.9552 0.9556
3597.000000 0.9559 0.9563 0.9566 0.9570 0.9573
3602.000000 0.9577 0.9580 0.9584 0.9587 0.9590
3607.000000 0.9591 0.9593 0.9595 0.9639 0.9599
3612.000000 0.9601 0.9602 0.9604 0.9606 0.9608
3617.000000 0.9609 0.9611 0.9611 0.9611 0.9611
3622.000000 0.9611 0.9611 0.9611 0.9611 0.9611
3627.000000 0.9611 0.9611 0.9610 0.9609 0.9608
3632.000000 0.9607 0.9605 0.9604 0.9597 0.9591
3637.000000 0.9581 0.9571 0.9552 0.9533 0.9517
3642.000000 0.9501 0.9484 0.9468 0.9449 0.9430
3647.000000 0.9409 0.9388 0.9365 0.9343 0.9318
3652.000000 0.9293 0.9268 0.9244 0.9217 0.9191
3657.000000 0.9156 0.9121 0.9085 0.9049 0.9025
3662.000000 0.9001 0.8999 0.8998 0.9007 0.8938
3667.000000 0.9028 0.9043 0.9081 0.9120 0.9161
3672.000000 0.9203 0.9237 0.9271 0.9334 0.9397
3677.000000 0.9447 0.9498 0.9530 0.9563 0.9586
3682.000000 0.9609 0.9618 0.9628 0.9639 0.9650
3687.000000 0.9662 0.9674 0.9683 0.9693 0.9703
3692.000000 0.9713 0.9718 0.9723 0.9727 0.9731
3697.000000 0.9735 0.9740 0.9744 0.9749 0.9753
3702.000000 0.9757 0.9761 0.9766 0.9768 0.9771
3707.000000 0.9773 0.9775 0.9775 0.9778 0.9780
3712.000000 0.9818 0.9783 0.9785 0.9786 0.9788
3717.000000 0.9789 0.9791 0.9791 0.9792 0.9793
3722.000000 0.9794 0.9794 0.9795 0.9795 0.9796
3727.000000 0.9797 0.9798 0.9798 0.9799 0.9799
3732.000000 0.9800 0.9800 0.9801 0.9801 0.9801
3737.000000 0.9801 0.9802 0.9802 0.9802 0.9802
3742.000000 0.9803 0.9803 0.9804 0.9804 0.9804
3747.000000 0.9804 0.9805 0.9805 0.9805 0.9805
3752.000000 0.9805 0.9805 0.9805 0.9805 0.9806
3757.000000 0.9806 0.9806 0.9806 0.9806 0.9807
3762.000000 0.9809 0.9811 0.9813 0.9814 0.9816
3767.000000 0.9817 0.9818 0.9820 0.9821 0.9823
3772.000000 0.9825 0.9825 0.9828 0.9828 0.9831
3777.000000 0.9833 0.9835 0.9836 0.9838 0.9839
3782.000000 0.9841 0.9842 0.9844 0.9845 0.9847
3787.000000 0.9848 0.9850 0.9851 0.9853 0.9854
3792.000000 0.9856 0.9858 0.9860 0.9861 0.9863
3797.000000 0.9864 0.9866 0.9866 0.9866
##END=
