##TITLE=Carbanilic acid, 2,4-di-tert-butyl-, ethyl ester
##JCAMP-DX=4.24
##DATA TYPE=INFRARED SPECTRUM
##CLASS=COBLENTZ III
##ORIGIN=MONSANTO (J. FREEMAN)
##OWNER=Copyright (C) 1987 by the Coblentz Society
Collection (C) 2018 copyright by the U.S. Secretary of Commerce
on behalf of the United States of America. All rights reserved.
##DATE=1959/03/31
##NAMES=ethyl 2,4-ditert-butylphenylcarbamate
##MOLFORM=C17 H27 N O2
##SOURCE REFERENCE=COBLENTZ NO. 9308
##$NIST ID=B6009308
##$NIST SOURCE=COBLENTZ
##$NIST IMAGE=cob9308
##SPECTROMETER/DATA SYSTEM=BECKMAN IR-4 (HYBRID PRISM-GRATING)
##INSTRUMENT PARAMETERS=NaCl PRISM
##STATE=SOLID (NUJOL MULL)
$$SPECTRAL CONTAMINATION DUE TO OIL AROUND 2900, 1450, 720 CM^-^1
##SAMPLING PROCEDURE=TRANSMISSION
##RESOLUTION=2
##DATA PROCESSING=DIGITIZED BY COBLENTZ SOCIETY (BATCH II) FROM HARD COPY
##XUNITS=1/CM
##YUNITS=TRANSMITTANCE
##XFACTOR=1.0
##YFACTOR=1
##FIRSTX=626
##LASTX=4000
##FIRSTY=0.7804
##MAXX=4000
##MINX=626
##MAXY=1.0024
##MINY=0.0043
##NPOINTS=3375
##XYDATA=(X++(Y..Y))
626.000000 0.7804 0.7755 0.7719 0.7686 0.7637
631.000000 0.7584 0.7548 0.7521 0.7501 0.7473
636.000000 0.7439 0.7395 0.7353 0.7315 0.7297
641.000000 0.7283 0.7275 0.7268 0.7259 0.7245
646.000000 0.7230 0.7212 0.7186 0.7159 0.7122
651.000000 0.7084 0.7049 0.7012 0.6971 0.6974
656.000000 0.6972 0.7080 0.7168 0.7259 0.7340
661.000000 0.7435 0.7543 0.7674 0.7765 0.7851
666.000000 0.7887 0.7903 0.7943 0.8013 0.8090
671.000000 0.8166 0.8243 0.8276 0.8288 0.8298
676.000000 0.8323 0.8401 0.8479 0.8553 0.8606
681.000000 0.8623 0.8647 0.8614 0.8592 0.8560
686.000000 0.8509 0.8441 0.8344 0.8233 0.8116
691.000000 0.7993 0.7878 0.7748 0.7585 0.7398
696.000000 0.7222 0.7090 0.6996 0.6966 0.7095
701.000000 0.7234 0.7345 0.7470 0.7647 0.7825
706.000000 0.8047 0.8243 0.8399 0.8522 0.8599
711.000000 0.8632 0.8633 0.8629 0.8622 0.8613
716.000000 0.8593 0.8572 0.8548 0.8520 0.8492
721.000000 0.8508 0.8565 0.8622 0.8675 0.8723
726.000000 0.8765 0.8778 0.8763 0.8716 0.8640
731.000000 0.8566 0.8491 0.8451 0.8562 0.8730
736.000000 0.8962 0.9165 0.9295 0.9368 0.9417
741.000000 0.9464 0.9500 0.9536 0.9561 0.9585
746.000000 0.9604 0.9620 0.9631 0.9640 0.9671
751.000000 0.9643 0.9628 0.9595 0.9532 0.9399
756.000000 0.9191 0.8982 0.8800 0.8623 0.8373
761.000000 0.8352 0.8673 0.8866 0.9037 0.9094
766.000000 0.9100 0.9085 0.9025 0.8912 0.8764
771.000000 0.8505 0.8109 0.7570 0.7317 0.7165
776.000000 0.7177 0.7529 0.7926 0.8181 0.8527
781.000000 0.8899 0.9153 0.9333 0.9470 0.9582
786.000000 0.9664 0.9738 0.9792 0.9842 0.9884
791.000000 0.9922 0.9951 0.9967 0.9978 0.9975
796.000000 0.9969 0.9959 0.9951 0.9940 0.9922
801.000000 0.9876 0.9795 0.9703 0.9617 0.9508
806.000000 0.9336 0.9093 0.8920 0.8903 0.8903
811.000000 0.9004 0.9028 0.9034 0.8929 0.8472
816.000000 0.7730 0.6978 0.6227 0.5478 0.5156
821.000000 0.5600 0.6433 0.7365 0.8100 0.8608
826.000000 0.8849 0.9025 0.9091 0.9112 0.9115
831.000000 0.9133 0.8930 0.8743 0.8638 0.8595
836.000000 0.8591 0.8936 0.9295 0.9477 0.9582
841.000000 0.9663 0.9722 0.9770 0.9802 0.9828
846.000000 0.9848 0.9867 0.9878 0.9890 0.9905
851.000000 0.9921 0.9942 0.9964 1.0001 1.0020
856.000000 1.0024 0.9990 1.0024 1.0023 1.0019
861.000000 1.0015 1.0012 1.0008 1.0006 1.0003
866.000000 0.9999 0.9995 0.9990 0.9984 0.9971
871.000000 0.9956 0.9941 0.9914 0.9885 0.9840
876.000000 0.9788 0.9720 0.9610 0.9362 0.8994
881.000000 0.8455 0.7916 0.7379 0.7215 0.7211
886.000000 0.7939 0.8507 0.8951 0.9003 0.9005
891.000000 0.8970 0.8896 0.8844 0.8861 0.9100
896.000000 0.9393 0.9523 0.9611 0.9668 0.9702
901.000000 0.9732 0.9750 0.9762 0.9771 0.9774
906.000000 0.9773 0.9771 0.9764 0.9750 0.9737
911.000000 0.9713 0.9684 0.9638 0.9587 0.9535
916.000000 0.9453 0.9377 0.9298 0.9243 0.9215
921.000000 0.9219 0.9231 0.9254 0.9287 0.9302
926.000000 0.9299 0.9292 0.9286 0.9288 0.9298
931.000000 0.9311 0.9343 0.9387 0.9430 0.9470
936.000000 0.9498 0.9527 0.9549 0.9565 0.9568
941.000000 0.9571 0.9561 0.9548 0.9527 0.9524
946.000000 0.9533 0.9552 0.9578 0.9609 0.9632
951.000000 0.9641 0.9644 0.9649 0.9652 0.9654
956.000000 0.9651 0.9645 0.9641 0.9635 0.9622
961.000000 0.9610 0.9595 0.9574 0.9549 0.9523
966.000000 0.9496 0.9463 0.9428 0.9405 0.9404
971.000000 0.9412 0.9439 0.9473 0.9514 0.9554
976.000000 0.9592 0.9624 0.9648 0.9657 0.9663
981.000000 0.9664 0.9664 0.9663 0.9662 0.9659
986.000000 0.9649 0.9632 0.9610 0.9587 0.9561
991.000000 0.9527 0.9494 0.9452 0.9423 0.9427
996.000000 0.9437 0.9475 0.9499 0.9520 0.9533
1001.000000 0.9545 0.9553 0.9560 0.9567 0.9573
1006.000000 0.9579 0.9584 0.9585 0.9580 0.9576
1011.000000 0.9564 0.9548 0.9532 0.9514 0.9494
1016.000000 0.9474 0.9442 0.9407 0.9367 0.9325
1021.000000 0.9288 0.9278 0.9297 0.9313 0.9325
1026.000000 0.9330 0.9328 0.9323 0.9316 0.9301
1031.000000 0.9284 0.9266 0.9249 0.9227 0.9199
1036.000000 0.9168 0.9130 0.9080 0.9020 0.8946
1041.000000 0.8870 0.8790 0.8703 0.8497 0.8320
1046.000000 0.8139 0.7975 0.7854 0.7732 0.7475
1051.000000 0.7173 0.6820 0.6528 0.5902 0.5265
1056.000000 0.4629 0.3994 0.3360 0.2678 0.1981
1061.000000 0.1763 0.1268 0.1142 0.1088 0.1092
1066.000000 0.1103 0.1536 0.2393 0.3249 0.4103
1071.000000 0.4955 0.5807 0.6655 0.7321 0.7634
1076.000000 0.7756 0.7825 0.7864 0.7892 0.7907
1081.000000 0.7921 0.7904 0.7883 0.7829 0.7739
1086.000000 0.7615 0.7421 0.7065 0.6662 0.6260
1091.000000 0.5858 0.5765 0.5769 0.5924 0.6117
1096.000000 0.6309 0.6357 0.6363 0.5666 0.5254
1101.000000 0.4842 0.4431 0.4028 0.3943 0.4043
1106.000000 0.4747 0.5536 0.6324 0.7110 0.7913
1111.000000 0.8118 0.8197 0.8241 0.8256 0.8249
1116.000000 0.8272 0.8076 0.7774 0.7472 0.7171
1121.000000 0.6870 0.6571 0.6272 0.6102 0.6171
1126.000000 0.6076 0.7338 0.7943 0.8310 0.8631
1131.000000 0.8869 0.8946 0.8985 0.9013 0.9030
1136.000000 0.9035 0.9037 0.9045 0.9032 0.9022
1141.000000 0.9006 0.8987 0.8955 0.8906 0.8833
1146.000000 0.8757 0.8676 0.8591 0.8465 0.8280
1151.000000 0.8183 0.8164 0.8174 0.8142 0.8423
1156.000000 0.8469 0.8507 0.8530 0.8540 0.8544
1161.000000 0.8538 0.8554 0.8459 0.8402 0.8339
1166.000000 0.8274 0.8044 0.7771 0.7497 0.7224
1171.000000 0.6952 0.6679 0.6407 0.6136 0.5890
1176.000000 0.5839 0.5835 0.6182 0.6638 0.7094
1181.000000 0.7549 0.7975 0.8133 0.8226 0.8275
1186.000000 0.8298 0.8311 0.8319 0.8313 0.8304
1191.000000 0.8287 0.8202 0.8015 0.7820 0.7625
1196.000000 0.7431 0.7237 0.7044 0.6850 0.6657
1201.000000 0.6464 0.6280 0.6207 0.6133 0.6110
1206.000000 0.6089 0.6131 0.6223 0.6459 0.6712
1211.000000 0.6918 0.7000 0.7063 0.7092 0.7115
1216.000000 0.7114 0.7097 0.7095 0.7078 0.7048
1221.000000 0.6991 0.6933 0.6881 0.6828 0.6752
1226.000000 0.6647 0.6459 0.6269 0.5658 0.5204
1231.000000 0.4447 0.4199 0.3829 0.3422 0.3015
1236.000000 0.2610 0.2204 0.1800 0.1396 0.1049
1241.000000 0.0886 0.0685 0.0599 0.0563 0.0542
1246.000000 0.0531 0.0535 0.0564 0.0493 0.0941
1251.000000 0.1169 0.1397 0.1625 0.1853 0.2080
1256.000000 0.2260 0.2296 0.2312 0.2330 0.2364
1261.000000 0.2420 0.2527 0.2757 0.2960 0.3163
1266.000000 0.3364 0.3566 0.3768 0.3969 0.4151
1271.000000 0.4205 0.4213 0.4215 0.4146 0.4071
1276.000000 0.3996 0.3920 0.3892 0.3966 0.4247
1281.000000 0.4549 0.4852 0.5094 0.5243 0.5372
1286.000000 0.5461 0.5534 0.5607 0.5680 0.5753
1291.000000 0.5894 0.6060 0.6261 0.6463 0.6545
1296.000000 0.6599 0.6662 0.6625 0.6634 0.6517
1301.000000 0.6327 0.6137 0.5947 0.5757 0.5568
1306.000000 0.5379 0.5190 0.5001 0.4939 0.5099
1311.000000 0.5424 0.5748 0.6071 0.6395 0.6718
1316.000000 0.7034 0.7245 0.7360 0.7467 0.7604
1321.000000 0.7756 0.7902 0.7964 0.8016 0.8040
1326.000000 0.8060 0.8080 0.8090 0.8100 0.8109
1331.000000 0.8115 0.8118 0.8121 0.8123 0.8125
1336.000000 0.8125 0.8137 0.8124 0.8122 0.8119
1341.000000 0.8115 0.8110 0.8098 0.8086 0.8074
1346.000000 0.8060 0.8045 0.8030 0.8013 0.7988
1351.000000 0.7963 0.7936 0.7894 0.7848 0.7797
1356.000000 0.7724 0.7627 0.7520 0.7439 0.7323
1361.000000 0.7131 0.6760 0.6377 0.5994 0.5612
1366.000000 0.5230 0.4849 0.4468 0.4088 0.3708
1371.000000 0.3330 0.2956 0.2921 0.3151 0.3832
1376.000000 0.4562 0.5198 0.5389 0.5417 0.5301
1381.000000 0.5181 0.5062 0.4943 0.4824 0.4705
1386.000000 0.4596 0.4558 0.4572 0.4723 0.4867
1391.000000 0.5011 0.5150 0.5254 0.5336 0.5490
1396.000000 0.6001 0.6167 0.6260 0.6309 0.6329
1401.000000 0.6343 0.6351 0.6345 0.6320 0.6280
1406.000000 0.6226 0.6192 0.6173 0.6170 0.6170
1411.000000 0.6184 0.6368 0.6753 0.7137 0.7521
1416.000000 0.7822 0.7922 0.7958 0.7989 0.8009
1421.000000 0.8024 0.8036 0.8046 0.8054 0.8044
1426.000000 0.8053 0.8046 0.8035 0.8000 0.7946
1431.000000 0.7884 0.7813 0.7726 0.7590 0.7419
1436.000000 0.7246 0.7073 0.6900 0.6727 0.6554
1441.000000 0.6382 0.6211 0.6039 0.5868 0.5696
1446.000000 0.5525 0.5338 0.5118 0.4972 0.4458
1451.000000 0.4166 0.3923 0.3680 0.3438 0.3196
1456.000000 0.2971 0.2872 0.2777 0.2672 0.2548
1461.000000 0.2427 0.2314 0.2196 0.2062 0.1936
1466.000000 0.1846 0.1772 0.1705 0.1676 0.1678
1471.000000 0.1682 0.1692 0.1712 0.1777 0.1936
1476.000000 0.2099 0.2261 0.2424 0.2587 0.2750
1481.000000 0.2912 0.3073 0.3224 0.3317 0.3376
1486.000000 0.3435 0.3493 0.3563 0.3637 0.3716
1491.000000 0.3807 0.3896 0.3982 0.4068 0.4167
1496.000000 0.4268 0.4359 0.4443 0.4500 0.4555
1501.000000 0.4629 0.4617 0.4622 0.4612 0.4599
1506.000000 0.4543 0.4474 0.4411 0.4350 0.4322
1511.000000 0.4317 0.4316 0.4317 0.4321 0.4324
1516.000000 0.4330 0.4339 0.4264 0.3918 0.3572
1521.000000 0.3227 0.2882 0.2538 0.2194 0.1851
1526.000000 0.1508 0.1185 0.1036 0.0961 0.0899
1531.000000 0.0845 0.0826 0.0821 0.0821 0.0824
1536.000000 0.0839 0.0858 0.1040 0.1384 0.1732
1541.000000 0.2081 0.2428 0.2775 0.3122 0.3468
1546.000000 0.3814 0.4159 0.4505 0.4849 0.5193
1551.000000 0.5537 0.5880 0.6223 0.6578 0.6887
1556.000000 0.6964 0.7028 0.7078 0.7128 0.7175
1561.000000 0.7218 0.7258 0.7297 0.7342 0.7394
1566.000000 0.7449 0.7509 0.7579 0.7653 0.7764
1571.000000 0.7920 0.8057 0.8158 0.8236 0.8309
1576.000000 0.8381 0.8455 0.8530 0.8606 0.8684
1581.000000 0.8766 0.8850 0.8913 0.8959 0.9002
1586.000000 0.9039 0.9069 0.9097 0.9123 0.9139
1591.000000 0.9150 0.9156 0.9155 0.9157 0.9154
1596.000000 0.9147 0.9122 0.9067 0.8981 0.8882
1601.000000 0.8783 0.8684 0.8586 0.8487 0.8388
1606.000000 0.8290 0.8192 0.8094 0.7996 0.7898
1611.000000 0.7800 0.7702 0.7610 0.7555 0.7573
1616.000000 0.7664 0.7918 0.8178 0.8436 0.8695
1621.000000 0.8944 0.9026 0.9049 0.9071 0.9091
1626.000000 0.9109 0.9127 0.9144 0.9158 0.9167
1631.000000 0.9173 0.9174 0.9176 0.9170 0.9175
1636.000000 0.9172 0.9169 0.9166 0.9160 0.9153
1641.000000 0.9145 0.9135 0.9124 0.9109 0.9092
1646.000000 0.9074 0.9053 0.9030 0.8997 0.8970
1651.000000 0.8946 0.8918 0.8884 0.8844 0.8793
1656.000000 0.8731 0.8663 0.8582 0.8455 0.8247
1661.000000 0.8037 0.7827 0.7618 0.7409 0.7197
1666.000000 0.7043 0.6975 0.6928 0.6887 0.6846
1671.000000 0.6807 0.6769 0.6730 0.6685 0.6631
1676.000000 0.6565 0.6458 0.6264 0.6017 0.5770
1681.000000 0.5523 0.5277 0.5031 0.4785 0.4540
1686.000000 0.4295 0.4049 0.3805 0.3589 0.3517
1691.000000 0.3384 0.3144 0.2742 0.2147 0.1500
1696.000000 0.0853 0.0442 0.0293 0.0248 0.0229
1701.000000 0.0217 0.0208 0.0198 0.0196 0.0193
1706.000000 0.0199 0.0200 0.0212 0.0241 0.0340
1711.000000 0.0492 0.0644 0.0795 0.0946 0.1097
1716.000000 0.1247 0.1399 0.1563 0.1880 0.2091
1721.000000 0.2195 0.2278 0.2340 0.2401 0.2465
1726.000000 0.2536 0.2661 0.2803 0.2883 0.3332
1731.000000 0.3821 0.4660 0.5208 0.5368 0.5644
1736.000000 0.5788 0.5904 0.6015 0.6127 0.6313
1741.000000 0.6681 0.6842 0.7013 0.7235 0.7510
1746.000000 0.7773 0.7832 0.7891 0.7950 0.8000
1751.000000 0.8044 0.8088 0.8131 0.8159 0.8185
1756.000000 0.8210 0.8235 0.8262 0.8293 0.8333
1761.000000 0.8399 0.8490 0.8561 0.8629 0.8692
1766.000000 0.8753 0.8814 0.8873 0.8906 0.8936
1771.000000 0.8957 0.8968 0.8979 0.8990 0.9002
1776.000000 0.9015 0.9030 0.9046 0.9068 0.9114
1781.000000 0.9166 0.9203 0.9239 0.9268 0.9296
1786.000000 0.9322 0.9340 0.9352 0.9365 0.9377
1791.000000 0.9388 0.9395 0.9402 0.9409 0.9415
1796.000000 0.9422 0.9429 0.9434 0.9439 0.9442
1801.000000 0.9444 0.9447 0.9450 0.9452 0.9455
1806.000000 0.9458 0.9460 0.9463 0.9466 0.9469
1811.000000 0.9472 0.9475 0.9478 0.9481 0.9483
1816.000000 0.9486 0.9489 0.9492 0.9495 0.9497
1821.000000 0.9498 0.9498 0.9498 0.9499 0.9500
1826.000000 0.9500 0.9500 0.9501 0.9502 0.9502
1831.000000 0.9507 0.9515 0.9524 0.9533 0.9541
1836.000000 0.9548 0.9554 0.9562 0.9569 0.9577
1841.000000 0.9586 0.9596 0.9605 0.9613 0.9620
1846.000000 0.9628 0.9636 0.9644 0.9652 0.9656
1851.000000 0.9661 0.9665 0.9670 0.9674 0.9678
1856.000000 0.9683 0.9687 0.9690 0.9692 0.9695
1861.000000 0.9698 0.9701 0.9704 0.9706 0.9709
1866.000000 0.9711 0.9714 0.9717 0.9719 0.9721
1871.000000 0.9722 0.9724 0.9725 0.9726 0.9728
1876.000000 0.9729 0.9731 0.9732 0.9734 0.9735
1881.000000 0.9736 0.9737 0.9738 0.9739 0.9739
1886.000000 0.9740 0.9742 0.9742 0.9743 0.9744
1891.000000 0.9745 0.9746 0.9747 0.9748 0.9748
1896.000000 0.9749 0.9751 0.9751 0.9752 0.9751
1901.000000 0.9751 0.9751 0.9751 0.9751 0.9751
1906.000000 0.9751 0.9751 0.9751 0.9750 0.9750
1911.000000 0.9750 0.9750 0.9749 0.9749 0.9747
1916.000000 0.9745 0.9744 0.9742 0.9741 0.9740
1921.000000 0.9738 0.9736 0.9734 0.9729 0.9723
1926.000000 0.9719 0.9713 0.9708 0.9704 0.9698
1931.000000 0.9693 0.9687 0.9683 0.9678 0.9673
1936.000000 0.9670 0.9667 0.9663 0.9660 0.9659
1941.000000 0.9659 0.9663 0.9666 0.9670 0.9675
1946.000000 0.9680 0.9685 0.9691 0.9696 0.9701
1951.000000 0.9706 0.9711 0.9714 0.9717 0.9721
1956.000000 0.9724 0.9727 0.9731 0.9735 0.9738
1961.000000 0.9741 0.9744 0.9748 0.9751 0.9754
1966.000000 0.9757 0.9761 0.9764 0.9767 0.9770
1971.000000 0.9773 0.9776 0.9778 0.9781 0.9783
1976.000000 0.9786 0.9788 0.9791 0.9793 0.9809
1981.000000 0.9797 0.9797 0.9796 0.9796 0.9795
1986.000000 0.9794 0.9794 0.9793 0.9792 0.9792
1991.000000 0.9792 0.9792 0.9792 0.9792 0.9792
1996.000000 0.9792 0.9793 0.9793 0.9793 0.9793
2001.000000 0.9793 0.9794 0.9797 0.9800 0.9803
2006.000000 0.9806 0.9809 0.9812 0.9815 0.9819
2011.000000 0.9822 0.9824 0.9827 0.9829 0.9830
2016.000000 0.9831 0.9833 0.9834 0.9835 0.9836
2021.000000 0.9837 0.9838 0.9837 0.9837 0.9837
2026.000000 0.9836 0.9836 0.9835 0.9835 0.9835
2031.000000 0.9834 0.9834 0.9834 0.9834 0.9833
2036.000000 0.9832 0.9832 0.9832 0.9832 0.9831
2041.000000 0.9830 0.9830 0.9830 0.9830 0.9829
2046.000000 0.9828 0.9828 0.9828 0.9828 0.9827
2051.000000 0.9826 0.9826 0.9826 0.9826 0.9825
2056.000000 0.9824 0.9824 0.9823 0.9823 0.9823
2061.000000 0.9823 0.9822 0.9821 0.9821 0.9821
2066.000000 0.9821 0.9820 0.9820 0.9820 0.9819
2071.000000 0.9819 0.9819 0.9818 0.9818 0.9818
2076.000000 0.9818 0.9817 0.9817 0.9817 0.9816
2081.000000 0.9816 0.9815 0.9814 0.9813 0.9813
2086.000000 0.9811 0.9810 0.9809 0.9808 0.9808
2091.000000 0.9807 0.9806 0.9805 0.9804 0.9803
2096.000000 0.9802 0.9802 0.9801 0.9801 0.9802
2101.000000 0.9803 0.9804 0.9805 0.9805 0.9806
2106.000000 0.9807 0.9808 0.9810 0.9811 0.9812
2111.000000 0.9812 0.9812 0.9812 0.9812 0.9812
2116.000000 0.9811 0.9811 0.9811 0.9811 0.9811
2121.000000 0.9810 0.9810 0.9810 0.9810 0.9810
2126.000000 0.9809 0.9809 0.9809 0.9809 0.9809
2131.000000 0.9809 0.9808 0.9808 0.9808 0.9807
2136.000000 0.9807 0.9807 0.9807 0.9807 0.9807
2141.000000 0.9806 0.9806 0.9806 0.9806 0.9806
2146.000000 0.9805 0.9805 0.9805 0.9805 0.9805
2151.000000 0.9805 0.9804 0.9804 0.9804 0.9804
2156.000000 0.9803 0.9803 0.9803 0.9803 0.9803
2161.000000 0.9802 0.9802 0.9802 0.9802 0.9801
2166.000000 0.9801 0.9801 0.9801 0.9801 0.9801
2171.000000 0.9800 0.9800 0.9800 0.9799 0.9799
2176.000000 0.9799 0.9799 0.9799 0.9799 0.9798
2181.000000 0.9798 0.9797 0.9796 0.9795 0.9794
2186.000000 0.9792 0.9791 0.9790 0.9789 0.9787
2191.000000 0.9786 0.9785 0.9783 0.9782 0.9780
2196.000000 0.9779 0.9778 0.9777 0.9776 0.9775
2201.000000 0.9773 0.9772 0.9771 0.9769 0.9768
2206.000000 0.9767 0.9766 0.9764 0.9763 0.9762
2211.000000 0.9761 0.9760 0.9759 0.9758 0.9757
2216.000000 0.9756 0.9755 0.9754 0.9753 0.9752
2221.000000 0.9751 0.9750 0.9749 0.9748 0.9747
2226.000000 0.9746 0.9745 0.9744 0.9743 0.9742
2231.000000 0.9741 0.9740 0.9739 0.9738 0.9737
2236.000000 0.9736 0.9734 0.9733 0.9732 0.9732
2241.000000 0.9732 0.9732 0.9732 0.9732 0.9732
2246.000000 0.9732 0.9733 0.9733 0.9733 0.9733
2251.000000 0.9733 0.9733 0.9733 0.9733 0.9733
2256.000000 0.9733 0.9733 0.9733 0.9734 0.9734
2261.000000 0.9734 0.9734 0.9734 0.9734 0.9734
2266.000000 0.9734 0.9734 0.9734 0.9734 0.9734
2271.000000 0.9734 0.9734 0.9733 0.9733 0.9733
2276.000000 0.9733 0.9733 0.9733 0.9733 0.9733
2281.000000 0.9733 0.9733 0.9733 0.9731 0.9729
2286.000000 0.9726 0.9723 0.9720 0.9718 0.9714
2291.000000 0.9711 0.9708 0.9705 0.9702 0.9699
2296.000000 0.9697 0.9694 0.9691 0.9688 0.9685
2301.000000 0.9683 0.9681 0.9679 0.9677 0.9677
2306.000000 0.9677 0.9678 0.9678 0.9679 0.9679
2311.000000 0.9680 0.9680 0.9680 0.9680 0.9681
2316.000000 0.9682 0.9683 0.9683 0.9684 0.9685
2321.000000 0.9686 0.9687 0.9688 0.9689 0.9690
2326.000000 0.9691 0.9692 0.9693 0.9694 0.9695
2331.000000 0.9695 0.9696 0.9697 0.9698 0.9699
2336.000000 0.9700 0.9702 0.9703 0.9705 0.9706
2341.000000 0.9708 0.9709 0.9710 0.9712 0.9714
2346.000000 0.9716 0.9717 0.9718 0.9720 0.9721
2351.000000 0.9722 0.9724 0.9726 0.9727 0.9728
2356.000000 0.9728 0.9729 0.9730 0.9731 0.9732
2361.000000 0.9733 0.9733 0.9734 0.9734 0.9735
2366.000000 0.9736 0.9736 0.9737 0.9738 0.9739
2371.000000 0.9739 0.9738 0.9738 0.9738 0.9737
2376.000000 0.9736 0.9735 0.9734 0.9733 0.9732
2381.000000 0.9731 0.9731 0.9730 0.9727 0.9725
2386.000000 0.9722 0.9718 0.9715 0.9712 0.9709
2391.000000 0.9705 0.9701 0.9696 0.9691 0.9686
2396.000000 0.9681 0.9676 0.9671 0.9666 0.9662
2401.000000 0.9658 0.9655 0.9651 0.9649 0.9649
2406.000000 0.9649 0.9650 0.9650 0.9650 0.9650
2411.000000 0.9649 0.9649 0.9649 0.9648 0.9648
2416.000000 0.9647 0.9647 0.9647 0.9647 0.9647
2421.000000 0.9648 0.9648 0.9649 0.9650 0.9651
2426.000000 0.9651 0.9651 0.9652 0.9652 0.9653
2431.000000 0.9653 0.9654 0.9654 0.9654 0.9655
2436.000000 0.9655 0.9656 0.9656 0.9656 0.9656
2441.000000 0.9656 0.9656 0.9656 0.9656 0.9656
2446.000000 0.9656 0.9656 0.9656 0.9656 0.9656
2451.000000 0.9656 0.9656 0.9656 0.9655 0.9654
2456.000000 0.9653 0.9653 0.9652 0.9651 0.9650
2461.000000 0.9649 0.9648 0.9648 0.9647 0.9646
2466.000000 0.9645 0.9644 0.9643 0.9643 0.9642
2471.000000 0.9641 0.9640 0.9639 0.9639 0.9638
2476.000000 0.9637 0.9636 0.9635 0.9634 0.9634
2481.000000 0.9633 0.9632 0.9631 0.9630 0.9630
2486.000000 0.9629 0.9628 0.9627 0.9626 0.9626
2491.000000 0.9625 0.9624 0.9623 0.9622 0.9622
2496.000000 0.9620 0.9619 0.9618 0.9617 0.9617
2501.000000 0.9616 0.9615 0.9614 0.9613 0.9612
2506.000000 0.9611 0.9610 0.9609 0.9608 0.9607
2511.000000 0.9606 0.9605 0.9604 0.9603 0.9602
2516.000000 0.9601 0.9600 0.9599 0.9598 0.9598
2521.000000 0.9597 0.9595 0.9594 0.9593 0.9593
2526.000000 0.9592 0.9590 0.9589 0.9589 0.9588
2531.000000 0.9586 0.9584 0.9581 0.9579 0.9577
2536.000000 0.9575 0.9573 0.9571 0.9568 0.9566
2541.000000 0.9564 0.9561 0.9559 0.9557 0.9554
2546.000000 0.9552 0.9550 0.9547 0.9545 0.9543
2551.000000 0.9541 0.9537 0.9534 0.9531 0.9528
2556.000000 0.9524 0.9521 0.9517 0.9514 0.9511
2561.000000 0.9507 0.9504 0.9500 0.9497 0.9493
2566.000000 0.9490 0.9487 0.9483 0.9480 0.9476
2571.000000 0.9472 0.9469 0.9465 0.9462 0.9458
2576.000000 0.9454 0.9451 0.9447 0.9443 0.9439
2581.000000 0.9436 0.9432 0.9428 0.9424 0.9420
2586.000000 0.9416 0.9412 0.9408 0.9404 0.9400
2591.000000 0.9396 0.9393 0.9389 0.9385 0.9380
2596.000000 0.9376 0.9370 0.9364 0.9358 0.9352
2601.000000 0.9345 0.9339 0.9333 0.9327 0.9322
2606.000000 0.9316 0.9310 0.9304 0.9297 0.9291
2611.000000 0.9285 0.9279 0.9274 0.9268 0.9262
2616.000000 0.9259 0.9256 0.9253 0.9250 0.9248
2621.000000 0.9245 0.9242 0.9239 0.9236 0.9234
2626.000000 0.9231 0.9228 0.9225 0.9222 0.9219
2631.000000 0.9216 0.9213 0.9210 0.9208 0.9205
2636.000000 0.9202 0.9199 0.9196 0.9193 0.9190
2641.000000 0.9188 0.9185 0.9183 0.9180 0.9177
2646.000000 0.9174 0.9172 0.9169 0.9167 0.9165
2651.000000 0.9163 0.9160 0.9158 0.9155 0.9153
2656.000000 0.9151 0.9149 0.9147 0.9145 0.9142
2661.000000 0.9140 0.9138 0.9135 0.9133 0.9131
2666.000000 0.9129 0.9127 0.9125 0.9122 0.9120
2671.000000 0.9117 0.9114 0.9111 0.9108 0.9105
2676.000000 0.9102 0.9099 0.9096 0.9093 0.9090
2681.000000 0.9087 0.9085 0.9082 0.9079 0.9076
2686.000000 0.9073 0.9070 0.9067 0.9064 0.9061
2691.000000 0.9059 0.9056 0.9053 0.9050 0.9045
2696.000000 0.9040 0.9035 0.9030 0.9025 0.9019
2701.000000 0.9014 0.9009 0.9004 0.8999 0.8994
2706.000000 0.8989 0.8983 0.8978 0.8973 0.8968
2711.000000 0.8963 0.8958 0.8952 0.8947 0.8941
2716.000000 0.8933 0.8926 0.8919 0.8913 0.8906
2721.000000 0.8899 0.8892 0.8885 0.8878 0.8871
2726.000000 0.8864 0.8857 0.8850 0.8843 0.8837
2731.000000 0.8830 0.8823 0.8816 0.8810 0.8803
2736.000000 0.8796 0.8789 0.8782 0.8774 0.8766
2741.000000 0.8757 0.8748 0.8739 0.8730 0.8720
2746.000000 0.8711 0.8702 0.8693 0.8683 0.8674
2751.000000 0.8665 0.8656 0.8646 0.8637 0.8628
2756.000000 0.8620 0.8611 0.8603 0.8595 0.8586
2761.000000 0.8578 0.8570 0.8562 0.8554 0.8546
2766.000000 0.8539 0.8533 0.8527 0.8521 0.8515
2771.000000 0.8508 0.8502 0.8496 0.8490 0.8485
2776.000000 0.8482 0.8480 0.8477 0.8474 0.8472
2781.000000 0.8469 0.8467 0.8465 0.8462 0.8460
2786.000000 0.8458 0.8456 0.8453 0.8451 0.8449
2791.000000 0.8447 0.8444 0.8442 0.8440 0.8437
2796.000000 0.8435 0.8432 0.8430 0.8428 0.8426
2801.000000 0.8423 0.8421 0.8419 0.8417 0.8414
2806.000000 0.8412 0.8409 0.8406 0.8402 0.8400
2811.000000 0.8397 0.8394 0.8388 0.8382 0.8376
2816.000000 0.8370 0.8364 0.8358 0.8351 0.8345
2821.000000 0.8338 0.8328 0.8313 0.8298 0.8282
2826.000000 0.8266 0.8250 0.8234 0.8195 0.8155
2831.000000 0.8115 0.8073 0.8032 0.7990 0.7951
2836.000000 0.7914 0.7877 0.7842 0.7810 0.7778
2841.000000 0.7746 0.7713 0.7680 0.7647 0.7613
2846.000000 0.7579 0.7545 0.7498 0.7445 0.7392
2851.000000 0.7331 0.7256 0.7181 0.7104 0.7006
2856.000000 0.6908 0.6810 0.6496 0.6146 0.5796
2861.000000 0.5630 0.5594 0.5558 0.5522 0.5487
2866.000000 0.5451 0.5411 0.5209 0.5007 0.4805
2871.000000 0.4558 0.4294 0.4031 0.3768 0.3505
2876.000000 0.3242 0.2979 0.2717 0.2455 0.2193
2881.000000 0.1931 0.1670 0.1408 0.1186 0.1004
2886.000000 0.0822 0.0669 0.0666 0.0662 0.0659
2891.000000 0.0655 0.0651 0.0648 0.0652 0.0667
2896.000000 0.0681 0.0695 0.0711 0.0726 0.0741
2901.000000 0.0756 0.0771 0.0786 0.0799 0.0808
2906.000000 0.0816 0.0824 0.0809 0.0793 0.0778
2911.000000 0.0763 0.0747 0.0731 0.0716 0.0700
2916.000000 0.0684 0.0668 0.0652 0.0637 0.0621
2921.000000 0.0606 0.0590 0.0575 0.0559 0.0543
2926.000000 0.0528 0.0512 0.0496 0.0481 0.0465
2931.000000 0.0450 0.0434 0.0418 0.0403 0.0387
2936.000000 0.0372 0.0357 0.0341 0.0326 0.0310
2941.000000 0.0294 0.0279 0.0264 0.0248 0.0233
2946.000000 0.0217 0.0202 0.0186 0.0171 0.0156
2951.000000 0.0141 0.0125 0.0110 0.0094 0.0079
2956.000000 0.0070 0.0062 0.0053 0.0048 0.0047
2961.000000 0.0046 0.0046 0.0045 0.0045 0.0045
2966.000000 0.0044 0.0044 0.0043 0.0043 0.0103
2971.000000 0.0172 0.0241 0.0317 0.0403 0.0490
2976.000000 0.0577 0.0664 0.0750 0.0837 0.0923
2981.000000 0.1009 0.1096 0.1182 0.1268 0.1354
2986.000000 0.1441 0.1527 0.1613 0.1699 0.1785
2991.000000 0.1870 0.1956 0.2042 0.2127 0.2213
2996.000000 0.2299 0.2384 0.2469 0.2555 0.2640
3001.000000 0.2725 0.2811 0.2896 0.2981 0.3066
3006.000000 0.3151 0.3236 0.3321 0.3405 0.3490
3011.000000 0.3575 0.3659 0.3744 0.3828 0.3913
3016.000000 0.3997 0.4082 0.4166 0.4250 0.4334
3021.000000 0.4418 0.4503 0.4587 0.4671 0.4754
3026.000000 0.4838 0.4922 0.5006 0.5089 0.5173
3031.000000 0.5257 0.5340 0.5424 0.5507 0.5590
3036.000000 0.5674 0.5757 0.5840 0.5923 0.6006
3041.000000 0.6089 0.6190 0.6300 0.6410 0.6520
3046.000000 0.6582 0.6640 0.6698 0.6755 0.6809
3051.000000 0.6863 0.6917 0.6972 0.7028 0.7084
3056.000000 0.7140 0.7213 0.7290 0.7367 0.7444
3061.000000 0.7515 0.7586 0.7656 0.7726 0.7793
3066.000000 0.7859 0.7926 0.7987 0.8042 0.8097
3071.000000 0.8153 0.8197 0.8237 0.8278 0.8318
3076.000000 0.8343 0.8366 0.8390 0.8414 0.8438
3081.000000 0.8461 0.8485 0.8506 0.8522 0.8539
3086.000000 0.8556 0.8569 0.8579 0.8590 0.8601
3091.000000 0.8612 0.8622 0.8633 0.8644 0.8655
3096.000000 0.8665 0.8676 0.8686 0.8695 0.8704
3101.000000 0.8712 0.8720 0.8727 0.8733 0.8740
3106.000000 0.8746 0.8753 0.8759 0.8766 0.8772
3111.000000 0.8777 0.8783 0.8789 0.8792 0.8795
3116.000000 0.8797 0.8800 0.8803 0.8805 0.8808
3121.000000 0.8810 0.8811 0.8812 0.8813 0.8814
3126.000000 0.8813 0.8812 0.8811 0.8808 0.8810
3131.000000 0.8809 0.8809 0.8808 0.8808 0.8807
3136.000000 0.8806 0.8805 0.8804 0.8803 0.8802
3141.000000 0.8801 0.8799 0.8797 0.8795 0.8792
3146.000000 0.8789 0.8786 0.8783 0.8779 0.8774
3151.000000 0.8770 0.8765 0.8760 0.8755 0.8749
3156.000000 0.8744 0.8738 0.8732 0.8726 0.8721
3161.000000 0.8715 0.8708 0.8702 0.8696 0.8690
3166.000000 0.8684 0.8677 0.8671 0.8664 0.8657
3171.000000 0.8649 0.8642 0.8634 0.8626 0.8618
3176.000000 0.8610 0.8602 0.8595 0.8587 0.8579
3181.000000 0.8571 0.8563 0.8554 0.8546 0.8538
3186.000000 0.8529 0.8521 0.8512 0.8503 0.8493
3191.000000 0.8483 0.8473 0.8463 0.8451 0.8440
3196.000000 0.8428 0.8416 0.8399 0.8382 0.8365
3201.000000 0.8348 0.8332 0.8315 0.8299 0.8283
3206.000000 0.8267 0.8251 0.8236 0.8220 0.8205
3211.000000 0.8189 0.8173 0.8157 0.8141 0.8124
3216.000000 0.8107 0.8090 0.8057 0.8007 0.7957
3221.000000 0.7908 0.7868 0.7846 0.7824 0.7802
3226.000000 0.7780 0.7759 0.7738 0.7717 0.7696
3231.000000 0.7675 0.7653 0.7632 0.7611 0.7589
3236.000000 0.7568 0.7546 0.7525 0.7505 0.7486
3241.000000 0.7468 0.7449 0.7430 0.7412 0.7394
3246.000000 0.7376 0.7357 0.7335 0.7313 0.7291
3251.000000 0.7269 0.7240 0.7211 0.7182 0.7154
3256.000000 0.7124 0.7094 0.7064 0.7034 0.7002
3261.000000 0.6970 0.6937 0.6904 0.6823 0.6627
3266.000000 0.6430 0.6234 0.6041 0.5987 0.5933
3271.000000 0.5879 0.5825 0.5753 0.5674 0.5596
3276.000000 0.5518 0.5432 0.5339 0.5245 0.5151
3281.000000 0.5044 0.4864 0.4685 0.4505 0.4326
3286.000000 0.4164 0.4005 0.3847 0.3689 0.3530
3291.000000 0.3373 0.3215 0.3057 0.2899 0.2742
3296.000000 0.2584 0.2426 0.2269 0.2112 0.1955
3301.000000 0.1798 0.1641 0.1546 0.1517 0.1488
3306.000000 0.1459 0.1434 0.1435 0.1435 0.1436
3311.000000 0.1437 0.1444 0.1441 0.1442 0.1444
3316.000000 0.1447 0.1449 0.1452 0.1455 0.1458
3321.000000 0.1535 0.1616 0.1697 0.1779 0.1863
3326.000000 0.1951 0.2039 0.2127 0.2215 0.2302
3331.000000 0.2390 0.2477 0.2564 0.2652 0.2739
3336.000000 0.2827 0.2914 0.3001 0.3089 0.3176
3341.000000 0.3263 0.3350 0.3437 0.3524 0.3611
3346.000000 0.3698 0.3785 0.3871 0.3958 0.4045
3351.000000 0.4132 0.4218 0.4304 0.4390 0.4477
3356.000000 0.4563 0.4649 0.4735 0.4822 0.4908
3361.000000 0.4994 0.5080 0.5166 0.5252 0.5338
3366.000000 0.5424 0.5510 0.5595 0.5681 0.5767
3371.000000 0.5852 0.5937 0.6023 0.6108 0.6193
3376.000000 0.6279 0.6364 0.6449 0.6534 0.6620
3381.000000 0.6705 0.6790 0.6875 0.6960 0.7044
3386.000000 0.7129 0.7214 0.7281 0.7328 0.7375
3391.000000 0.7422 0.7468 0.7495 0.7518 0.7541
3396.000000 0.7564 0.7598 0.7663 0.7728 0.7794
3401.000000 0.7859 0.7899 0.7926 0.7953 0.7979
3406.000000 0.8006 0.8022 0.8037 0.8053 0.8069
3411.000000 0.8086 0.8103 0.8119 0.8136 0.8153
3416.000000 0.8172 0.8190 0.8209 0.8227 0.8247
3421.000000 0.8301 0.8356 0.8410 0.8465 0.8509
3426.000000 0.8533 0.8557 0.8581 0.8605 0.8619
3431.000000 0.8627 0.8635 0.8644 0.8652 0.8659
3436.000000 0.8666 0.8673 0.8680 0.8687 0.8694
3441.000000 0.8700 0.8707 0.8714 0.8721 0.8727
3446.000000 0.8734 0.8741 0.8748 0.8753 0.8758
3451.000000 0.8763 0.8768 0.8773 0.8778 0.8783
3456.000000 0.8787 0.8792 0.8796 0.8801 0.8805
3461.000000 0.8809 0.8814 0.8818 0.8823 0.8827
3466.000000 0.8832 0.8837 0.8841 0.8844 0.8848
3471.000000 0.8851 0.8855 0.8858 0.8861 0.8864
3476.000000 0.8867 0.8870 0.8873 0.8877 0.8880
3481.000000 0.8883 0.8886 0.8889 0.8892 0.8895
3486.000000 0.8898 0.8901 0.8904 0.8907 0.8911
3491.000000 0.8914 0.8917 0.8919 0.8922 0.8925
3496.000000 0.8928 0.8931 0.8933 0.8936 0.8939
3501.000000 0.8941 0.8944 0.8947 0.8949 0.8952
3506.000000 0.8955 0.8957 0.8960 0.8962 0.8964
3511.000000 0.8967 0.8970 0.8972 0.8975 0.8977
3516.000000 0.8980 0.8982 0.8984 0.8986 0.8988
3521.000000 0.8990 0.8992 0.8993 0.8995 0.8996
3526.000000 0.8997 0.8999 0.9001 0.9002 0.9004
3531.000000 0.9005 0.9007 0.9009 0.9010 0.9012
3536.000000 0.9013 0.9015 0.9017 0.9018 0.9020
3541.000000 0.9021 0.9023 0.9025 0.9026 0.9028
3546.000000 0.9029 0.9031 0.9033 0.9034 0.9036
3551.000000 0.9037 0.9039 0.9040 0.9041 0.9043
3556.000000 0.9044 0.9045 0.9047 0.9048 0.9049
3561.000000 0.9050 0.9051 0.9052 0.9053 0.9054
3566.000000 0.9055 0.9056 0.9057 0.9058 0.9059
3571.000000 0.9060 0.9061 0.9062 0.9064 0.9065
3576.000000 0.9066 0.9067 0.9068 0.9068 0.9069
3581.000000 0.9070 0.9071 0.9071 0.9071 0.9072
3586.000000 0.9072 0.9073 0.9073 0.9073 0.9074
3591.000000 0.9074 0.9075 0.9075 0.9075 0.9076
3596.000000 0.9076 0.9076 0.9077 0.9077 0.9077
3601.000000 0.9077 0.9077 0.9078 0.9078 0.9079
3606.000000 0.9079 0.9079 0.9080 0.9080 0.9080
3611.000000 0.9081 0.9081 0.9082 0.9082 0.9082
3616.000000 0.9083 0.9083 0.9084 0.9084 0.9084
3621.000000 0.9085 0.9085 0.9085 0.9086 0.9086
3626.000000 0.9086 0.9086 0.9086 0.9087 0.9087
3631.000000 0.9087 0.9088 0.9088 0.9089 0.9089
3636.000000 0.9089 0.9090 0.9090 0.9090 0.9091
3641.000000 0.9091 0.9092 0.9092 0.9092 0.9093
3646.000000 0.9093 0.9093 0.9093 0.9093 0.9094
3651.000000 0.9094 0.9094 0.9095 0.9095 0.9096
3656.000000 0.9096 0.9096 0.9096 0.9096 0.9096
3661.000000 0.9097 0.9097 0.9097 0.9098 0.9098
3666.000000 0.9099 0.9099 0.9099 0.9100 0.9100
3671.000000 0.9100 0.9101 0.9101 0.9101 0.9101
3676.000000 0.9101 0.9102 0.9102 0.9102 0.9103
3681.000000 0.9103 0.9104 0.9104 0.9104 0.9105
3686.000000 0.9105 0.9105 0.9106 0.9106 0.9106
3691.000000 0.9106 0.9106 0.9107 0.9107 0.9107
3696.000000 0.9108 0.9108 0.9108 0.9109 0.9109
3701.000000 0.9110 0.9110 0.9110 0.9111 0.9111
3706.000000 0.9111 0.9112 0.9112 0.9112 0.9113
3711.000000 0.9113 0.9114 0.9114 0.9114 0.9115
3716.000000 0.9115 0.9115 0.9116 0.9116 0.9116
3721.000000 0.9117 0.9117 0.9117 0.9118 0.9118
3726.000000 0.9119 0.9119 0.9119 0.9119 0.9119
3731.000000 0.9119 0.9120 0.9120 0.9120 0.9121
3736.000000 0.9121 0.9122 0.9122 0.9122 0.9123
3741.000000 0.9123 0.9123 0.9124 0.9124 0.9124
3746.000000 0.9125 0.9125 0.9125 0.9188 0.9126
3751.000000 0.9127 0.9127 0.9127 0.9128 0.9128
3756.000000 0.9128 0.9129 0.9129 0.9129 0.9130
3761.000000 0.9130 0.9130 0.9131 0.9131 0.9131
3766.000000 0.9132 0.9132 0.9132 0.9132 0.9132
3771.000000 0.9133 0.9133 0.9133 0.9134 0.9134
3776.000000 0.9134 0.9135 0.9135 0.9135 0.9136
3781.000000 0.9136 0.9136 0.9137 0.9137 0.9137
3786.000000 0.9138 0.9138 0.9138 0.9138 0.9138
3791.000000 0.9138 0.9138 0.9138 0.9137 0.9137
3796.000000 0.9137 0.9137 0.9137 0.9137 0.9136
3801.000000 0.9136 0.9136 0.9136 0.9136 0.9136
3806.000000 0.9135 0.9135 0.9135 0.9135 0.9135
3811.000000 0.9134 0.9134 0.9134 0.9134 0.9134
3816.000000 0.9134 0.9133 0.9133 0.9133 0.9133
3821.000000 0.9133 0.9133 0.9132 0.9132 0.9132
3826.000000 0.9131 0.9131 0.9131 0.9130 0.9130
3831.000000 0.9130 0.9130 0.9130 0.9130 0.9129
3836.000000 0.9129 0.9129 0.9128 0.9128 0.9128
3841.000000 0.9127 0.9127 0.9126 0.9126 0.9125
3846.000000 0.9125 0.9124 0.9124 0.9123 0.9123
3851.000000 0.9122 0.9122 0.9121 0.9121 0.9120
3856.000000 0.9120 0.9119 0.9119 0.9118 0.9118
3861.000000 0.9117 0.9116 0.9116 0.9115 0.9115
3866.000000 0.9114 0.9114 0.9113 0.9113 0.9112
3871.000000 0.9112 0.9111 0.9111 0.9110 0.9110
3876.000000 0.9109 0.9109 0.9108 0.9108 0.9107
3881.000000 0.9107 0.9106 0.9106 0.9105 0.9105
3886.000000 0.9105 0.9104 0.9104 0.9103 0.9103
3891.000000 0.9102 0.9102 0.9101 0.9101 0.9100
3896.000000 0.9100 0.9099 0.9099 0.9098 0.9098
3901.000000 0.9097 0.9096 0.9096 0.9095 0.9094
3906.000000 0.9094 0.9093 0.9092 0.9091 0.9090
3911.000000 0.9090 0.9089 0.9088 0.9087 0.9086
3916.000000 0.9085 0.9084 0.9083 0.9082 0.9081
3921.000000 0.9080 0.9080 0.9079 0.9078 0.9077
3926.000000 0.9076 0.9075 0.9074 0.9073 0.9072
3931.000000 0.9071 0.9070 0.9069 0.9068 0.9067
3936.000000 0.9066 0.9066 0.9065 0.9064 0.9063
3941.000000 0.9062 0.9061 0.9061 0.9060 0.9059
3946.000000 0.9058 0.9057 0.9056 0.9055 0.9054
3951.000000 0.9053 0.9052 0.9052 0.9051 0.9050
3956.000000 0.9049 0.9048 0.9047 0.9046 0.9045
3961.000000 0.9044 0.9043 0.9043 0.9042 0.9041
3966.000000 0.9040 0.9039 0.9038 0.9037 0.9036
3971.000000 0.9035 0.9035 0.9034 0.9033 0.9032
3976.000000 0.9031 0.9030 0.9029 0.9028 0.9027
3981.000000 0.9026 0.9025 0.9024 0.9023 0.9022
3986.000000 0.9021 0.9020 0.9019 0.9018 0.9016
3991.000000 0.9015 0.9014 0.9013 0.9012 0.9011
3996.000000 0.9010 0.9009 0.9008 0.9007 0.9006
##END=
