##TITLE=Imidazole, 4-MorpholinoCarbonyl-5-Nitro-
##JCAMP-DX=4.24
##DATA TYPE=INFRARED SPECTRUM
##CLASS=COBLENTZ III
##ORIGIN=SOUTHERN RESEARCH INSTITUTE
##OWNER=Copyright (C) 1987 by the Coblentz Society
Collection (C) 2018 copyright by the U.S. Secretary of Commerce
on behalf of the United States of America. All rights reserved.
##DATE=1960/02/08
##NAMES=4-[(5-nitro-1H-imidazol-4-yl)carbonyl]morpholine
##MOLFORM=C8 H10 N4 O4
##SOURCE REFERENCE=COBLENTZ NO. 8241
##$NIST ID=B6008241
##$NIST SOURCE=COBLENTZ
##$NIST IMAGE=cob8241
##SPECTROMETER/DATA SYSTEM=PERKIN-ELMER 21 (GRATING)
##INSTRUMENT PARAMETERS=FILTER CHANGE ABOUT 1020 CM^-^1
##STATE=SOLID (0.7 mg / 650 mg KBr DISC)
##SAMPLING PROCEDURE=TRANSMISSION
##RESOLUTION=2
##DATA PROCESSING=DIGITIZED BY COBLENTZ SOCIETY (BATCH II) FROM HARD COPY (ADJUSTED \addcm-1\10-8-2\)
##XUNITS=1/CM
##YUNITS=TRANSMITTANCE
##XFACTOR=1.0
##YFACTOR=1
##DELTAX=1.002940
##FIRSTX=600
##LASTX=4010
##FIRSTY=0.7493
##MAXX=4010
##MINX=600
##MAXY=0.9881
##MINY=0.0516105
##NPOINTS=3401
##XYDATA=(X++(Y..Y))
600.000000 0.7493 0.7490 0.7489 0.7490 0.7488
605.014702 0.7485 0.7482 0.7480 0.7477 0.7473
610.029403 0.7460 0.7465 0.7460 0.7456 0.7452
615.044105 0.7446 0.7440 0.7433 0.7427 0.7420
620.058806 0.7411 0.7400 0.7389 0.7376 0.7359
625.073508 0.7342 0.7325 0.7306 0.7272 0.7236
630.088209 0.7200 0.7163 0.7117 0.7071 0.7022
635.102911 0.6972 0.6922 0.6871 0.6817 0.6750
640.117612 0.6684 0.6619 0.6562 0.6506 0.6447
645.132314 0.6373 0.6290 0.6207 0.6124 0.6041
650.147016 0.5958 0.5876 0.5783 0.5662 0.5681
655.161717 0.5719 0.5958 0.6319 0.6659 0.6863
660.176419 0.6888 0.6900 0.6902 0.6904 0.6908
665.191120 0.6890 0.6883 0.6873 0.6862 0.6851
670.205822 0.6835 0.6815 0.6784 0.6743 0.6698
675.220523 0.6640 0.6579 0.6509 0.6410 0.6268
680.235225 0.6118 0.5968 0.5818 0.5667 0.5517
685.249926 0.5367 0.5216 0.5084 0.5024 0.5024
690.264628 0.5074 0.5273 0.5515 0.5756 0.5996
695.279330 0.6237 0.6479 0.6719 0.6960 0.7202
700.294031 0.7433 0.7577 0.7571 0.7571 0.7573
705.308733 0.7558 0.7554 0.7550 0.7545 0.7538
710.323434 0.7530 0.7520 0.7507 0.7494 0.7479
715.338136 0.7461 0.7442 0.7420 0.7389 0.7359
720.352837 0.7329 0.7300 0.7270 0.7234 0.7194
725.367539 0.7154 0.7111 0.7061 0.7010 0.6960
730.382241 0.6908 0.6853 0.6796 0.6741 0.6689
735.396942 0.6635 0.6575 0.6509 0.6420 0.6248
740.411644 0.6028 0.5841 0.5665 0.5491 0.5317
745.426345 0.5143 0.4969 0.4822 0.4752 0.4802
750.441047 0.5053 0.5455 0.5840 0.6072 0.6076
755.455748 0.6080 0.6089 0.6102 0.6119 0.6141
760.470450 0.6166 0.6199 0.6240 0.6301 0.6381
765.485151 0.6436 0.6454 0.6493 0.6480 0.6389
770.499853 0.6232 0.6071 0.5911 0.5749 0.5588
775.514555 0.5428 0.5280 0.5234 0.5329 0.5483
780.529256 0.5646 0.5809 0.5972 0.6135 0.6297
785.543958 0.6460 0.6623 0.6786 0.6949 0.7088
790.558659 0.7155 0.7160 0.7166 0.7174 0.7182
795.573361 0.7170 0.7170 0.7170 0.7168 0.7164
800.588062 0.7157 0.7144 0.7128 0.7113 0.7096
805.602764 0.7072 0.7041 0.6996 0.6960 0.6920
810.617465 0.6864 0.6801 0.6732 0.6656 0.6574
815.632167 0.6269 0.5860 0.5439 0.5019 0.4599
820.646869 0.4178 0.3758 0.3310 0.3053 0.3022
825.661570 0.3355 0.4151 0.5065 0.5979 0.6853
830.676272 0.7384 0.7379 0.7353 0.7229 0.7079
835.690973 0.6929 0.6779 0.6630 0.6480 0.6330
840.705675 0.6180 0.6033 0.5967 0.5970 0.5978
845.720376 0.6150 0.5990 0.6547 0.6824 0.7050
850.735078 0.7241 0.7282 0.7287 0.7291 0.7296
855.749779 0.7308 0.7481 0.7939 0.8240 0.8305
860.764481 0.8308 0.8310 0.8310 0.8305 0.8292
865.779183 0.8271 0.8247 0.8219 0.8192 0.8167
870.793884 0.8142 0.8116 0.8090 0.8065 0.8045
875.808586 0.8025 0.8006 0.7988 0.7972 0.7958
880.823287 0.7944 0.7927 0.7908 0.7886 0.7863
885.837989 0.7838 0.7794 0.7732 0.7665 0.7598
890.852690 0.7531 0.7465 0.7398 0.7331 0.7264
895.867392 0.7197 0.7176 0.7180 0.8211 0.8773
900.882094 0.8777 0.8780 0.8782 0.8785 0.8781
905.896795 0.8775 0.8771 0.8767 0.8761 0.8751
910.911497 0.8740 0.8729 0.8717 0.8705 0.8690
915.926198 0.8675 0.8659 0.8642 0.8620 0.8595
920.940900 0.8558 0.8505 0.8441 0.8370 0.8233
925.955601 0.8064 0.7941 0.7857 0.7783 0.7688
930.970303 0.7400 0.7143 0.7003 0.6883 0.6722
935.985004 0.6476 0.6196 0.5917 0.5638 0.5358
940.999706 0.5079 0.4800 0.4676 0.4676 0.4650
946.014408 0.5065 0.5901 0.6777 0.7652 0.8342
951.029109 0.8636 0.8709 0.8746 0.8770 0.8784
956.043811 0.8789 0.8794 0.8799 0.8802 0.8800
961.058512 0.8800 0.8802 0.8801 0.8799 0.8798
966.073214 0.8796 0.8792 0.8783 0.8773 0.8761
971.087915 0.8748 0.8736 0.8722 0.8704 0.8685
976.102617 0.8667 0.8648 0.8629 0.8607 0.8579
981.117318 0.8548 0.8516 0.8481 0.8441 0.8402
986.132020 0.8365 0.8330 0.8294 0.8263 0.8240
991.146722 0.8222 0.8203 0.8186 0.8170 0.8154
996.161423 0.8138 0.8119 0.8094 0.8066 0.8019
1001.176125 0.7941 0.7795 0.7600 0.7444 0.7314
1006.190826 0.7181 0.7047 0.6928 0.6824 0.6708
1011.205528 0.6556 0.6369 0.6135 0.5890 0.5689
1016.220229 0.5493 0.5297 0.5101 0.4905 0.4708
1021.234931 0.4512 0.4316 0.4168 0.4548 0.5865
1026.249632 0.7532 0.8607 0.8745 0.8806 0.8836
1031.264334 0.8857 0.8867 0.8873 0.8872 0.8865
1036.279036 0.8861 0.8854 0.8843 0.8833 0.8823
1041.293737 0.8812 0.8796 0.8779 0.8760 0.8736
1046.308439 0.8703 0.8663 0.8615 0.8559 0.8488
1051.323140 0.8409 0.8309 0.8212 0.8137 0.8057
1056.337842 0.7970 0.7840 0.7620 0.7401 0.7181
1061.352543 0.6961 0.6742 0.6522 0.6303 0.6083
1066.367245 0.5900 0.5821 0.6354 0.7769 0.8077
1071.381946 0.8054 0.8053 0.8046 0.8018 0.7971
1076.396648 0.7917 0.7863 0.7813 0.7765 0.7717
1081.411350 0.7667 0.7610 0.7538 0.7414 0.7252
1086.426051 0.7078 0.6903 0.6729 0.6580 0.6523
1091.440753 0.6541 0.6609 0.6678 0.6747 0.6799
1096.455454 0.6740 0.6504 0.6220 0.5887 0.5435
1101.470156 0.5112 0.4794 0.4475 0.4156 0.3838
1106.484857 0.3520 0.3201 0.2883 0.2564 0.2296
1111.499559 0.2235 0.2259 0.2295 0.2423 0.3293
1116.514261 0.3735 0.4177 0.4619 0.5061 0.5503
1121.528962 0.5946 0.6388 0.6831 0.7273 0.7724
1126.543664 0.8133 0.8184 0.8221 0.8208 0.8205
1131.558365 0.8201 0.8189 0.8163 0.8101 0.8034
1136.573067 0.7966 0.7899 0.7831 0.7765 0.7698
1141.587768 0.7637 0.7618 0.7644 0.7991 0.8260
1146.602470 0.8528 0.8780 0.8917 0.8954 0.8971
1151.617171 0.8984 0.8992 0.8996 0.8999 0.9002
1156.631873 0.9001 0.8998 0.8988 0.8994 0.8991
1161.646575 0.8987 0.8983 0.8979 0.8975 0.8967
1166.661276 0.8957 0.8946 0.8936 0.8925 0.8915
1171.675978 0.8904 0.8892 0.8880 0.8868 0.8855
1176.690679 0.8841 0.8823 0.8806 0.8788 0.8771
1181.705381 0.8752 0.8729 0.8706 0.8684 0.8661
1186.720082 0.8638 0.8615 0.8584 0.8553 0.8521
1191.734784 0.8490 0.8459 0.8427 0.8393 0.8356
1196.749485 0.8319 0.8282 0.8244 0.8205 0.8165
1201.764187 0.8126 0.8087 0.8047 0.7991 0.7930
1206.778889 0.7869 0.7808 0.7725 0.7642 0.7558
1211.793590 0.7331 0.7219 0.7169 0.7132 0.7095
1216.808292 0.7038 0.6944 0.6852 0.6758 0.6665
1221.822993 0.6571 0.6535 0.6538 0.6604 0.6841
1226.837695 0.7083 0.7324 0.7565 0.7643 0.7645
1231.852396 0.7642 0.7640 0.7636 0.7629 0.7623
1236.867098 0.7614 0.7605 0.7595 0.7568 0.7540
1241.881799 0.7489 0.7428 0.7338 0.7263 0.7187
1246.896501 0.7086 0.6936 0.6362 0.5603 0.4831
1251.911203 0.4061 0.3667 0.3658 0.3900 0.4331
1256.925904 0.4775 0.5221 0.5666 0.6110 0.6556
1261.940606 0.6801 0.6801 0.6788 0.6773 0.6562
1266.955307 0.6089 0.5583 0.5078 0.4572 0.4066
1271.970009 0.3560 0.3257 0.3203 0.3386 0.3813
1276.984710 0.4278 0.4742 0.5207 0.5672 0.6092
1281.999412 0.6162 0.6141 0.6154 0.6003 0.5798
1287.014113 0.5591 0.5384 0.5177 0.4969 0.4762
1292.028815 0.4555 0.4348 0.4196 0.4157 0.4273
1297.043517 0.4692 0.5191 0.5690 0.6189 0.6397
1302.058218 0.6376 0.6301 0.6220 0.6136 0.6053
1307.072920 0.5971 0.5888 0.5746 0.5720 0.5773
1312.087621 0.6015 0.6329 0.6557 0.6614 0.6631
1317.102323 0.6498 0.6318 0.6147 0.5976 0.5805
1322.117024 0.5634 0.5463 0.5292 0.5121 0.4950
1327.131726 0.4779 0.4608 0.4437 0.4266 0.4095
1332.146428 0.3924 0.3698 0.3626 0.3673 0.3884
1337.161129 0.4191 0.4498 0.4805 0.5112 0.5418
1342.175831 0.5724 0.6031 0.6178 0.6188 0.6192
1347.190532 0.6040 0.5729 0.5388 0.5046 0.4705
1352.205234 0.4363 0.4022 0.3680 0.3339 0.2997
1357.219935 0.2656 0.2315 0.1973 0.1764 0.1689
1362.234637 0.1629 0.1567 0.1513 0.1487 0.1486
1367.249338 0.1497 0.1510 0.1622 0.1845 0.2074
1372.264040 0.2303 0.2532 0.2760 0.2990 0.3219
1377.278742 0.3448 0.3677 0.3906 0.4135 0.4364
1382.293443 0.4594 0.4823 0.5052 0.5281 0.5430
1387.308145 0.5454 0.5428 0.5365 0.5294 0.5223
1392.322846 0.5153 0.5110 0.5165 0.5321 0.5503
1397.337548 0.5685 0.5868 0.6064 0.6208 0.6223
1402.352249 0.6209 0.6138 0.6011 0.5885 0.5760
1407.366951 0.5635 0.5510 0.5386 0.5261 0.5069
1412.381652 0.4830 0.4889 0.4795 0.4796 0.4800
1417.396354 0.4820 0.4862 0.4904 0.4946 0.4988
1422.411056 0.5031 0.5080 0.5069 0.5061 0.4971
1427.425757 0.4806 0.4641 0.4475 0.4309 0.4144
1432.440459 0.4044 0.3944 0.3829 0.3769 0.3740
1437.455160 0.3714 0.3639 0.3529 0.3413 0.3290
1442.469862 0.3284 0.3364 0.3502 0.3654 0.3807
1447.484563 0.3959 0.4112 0.4265 0.4409 0.4477
1452.499265 0.4431 0.4308 0.4163 0.4018 0.3873
1457.513966 0.3728 0.3583 0.3438 0.3293 0.3171
1462.528668 0.3101 0.3062 0.3012 0.2964 0.2938
1467.543370 0.2922 0.2919 0.2924 0.2942 0.2970
1472.558071 0.2998 0.3026 0.3053 0.3075 0.3073
1477.572773 0.3052 0.2945 0.2775 0.2606 0.2436
1482.587474 0.2267 0.2097 0.1931 0.1817 0.1827
1487.602176 0.1975 0.2166 0.2357 0.2549 0.2739
1492.616877 0.2931 0.3122 0.3314 0.3504 0.3696
1497.631579 0.3887 0.4079 0.4269 0.4461 0.4627
1502.646281 0.4679 0.4481 0.4112 0.3708 0.3304
1507.660982 0.2900 0.2495 0.2091 0.1687 0.1283
1512.675684 0.1046 0.0995 0.0998 0.0989 0.1000
1517.690385 0.1030 0.1075 0.1159 0.1307 0.1535
1522.705087 0.1786 0.2037 0.2288 0.2539 0.2790
1527.719788 0.3041 0.3292 0.3543 0.3794 0.4045
1532.734490 0.4296 0.4547 0.4798 0.5051 0.5311
1537.749191 0.5584 0.5973 0.6757 0.6919 0.7044
1542.763893 0.7175 0.7314 0.7522 0.7542 0.7561
1547.778595 0.7579 0.7578 0.7577 0.7577 0.7576
1552.793296 0.7576 0.7575 0.7575 0.7574 0.7590
1557.807998 0.7577 0.7572 0.7569 0.7566 0.7563
1562.822699 0.7560 0.7551 0.7540 0.7524 0.7492
1567.837401 0.7452 0.7411 0.7373 0.7340 0.7309
1572.852102 0.7287 0.7270 0.7254 0.7238 0.7219
1577.866804 0.7184 0.7129 0.7056 0.6976 0.6907
1582.881505 0.6840 0.6775 0.6710 0.6645 0.6590
1587.896207 0.6550 0.6510 0.6471 0.6434 0.6405
1592.910909 0.6381 0.6356 0.6331 0.6306 0.6276
1597.925610 0.6231 0.6111 0.5748 0.5645 0.5543
1602.940312 0.5436 0.5277 0.5117 0.4973 0.4786
1607.955013 0.4554 0.4374 0.4172 0.3850 0.3522
1612.969715 0.3195 0.2868 0.2541 0.2214 0.1887
1617.984416 0.1560 0.1232 0.0905 0.0614 0.0573
1622.999118 0.0550 0.0537 0.0516 0.0537 0.0545
1628.013819 0.0555 0.0575 0.0638 0.0768 0.0898
1633.028521 0.1029 0.1158 0.1288 0.1419 0.1549
1638.043223 0.1679 0.1809 0.1939 0.2070 0.2197
1643.057924 0.2290 0.2336 0.2376 0.2416 0.2462
1648.072626 0.2527 0.2751 0.3103 0.3455 0.3807
1653.087327 0.4158 0.4505 0.4788 0.4869 0.4932
1658.102029 0.4991 0.5045 0.5100 0.5173 0.5351
1663.116730 0.5549 0.5680 0.5785 0.5881 0.5953
1668.131432 0.6029 0.6215 0.6925 0.7111 0.7219
1673.146133 0.7298 0.7347 0.7396 0.7444 0.7491
1678.160835 0.7537 0.7586 0.7646 0.7718 0.7820
1683.175537 0.7888 0.7915 0.7941 0.7968 0.7995
1688.190238 0.8021 0.8046 0.8070 0.8092 0.8115
1693.204940 0.8138 0.8161 0.8186 0.8229 0.8293
1698.219641 0.8397 0.8502 0.8557 0.8593 0.8623
1703.234343 0.8632 0.8638 0.8644 0.8650 0.8656
1708.249044 0.8663 0.8673 0.8683 0.8695 0.8713
1713.263746 0.8742 0.8774 0.8818 0.8853 0.8866
1718.278448 0.8874 0.8883 0.8899 0.8868 0.8863
1723.293149 0.8857 0.8851 0.8845 0.8840 0.8835
1728.307851 0.8831 0.8827 0.8824 0.8820 0.8816
1733.322552 0.8812 0.8808 0.8804 0.8801 0.8798
1738.337254 0.8795 0.8792 0.8791 0.8793 0.8796
1743.351955 0.8800 0.8804 0.8810 0.8821 0.8831
1748.366657 0.8842 0.8859 0.8884 0.8911 0.8939
1753.381358 0.8972 0.9011 0.9058 0.9104 0.9143
1758.396060 0.9171 0.9192 0.9212 0.9226 0.9238
1763.410762 0.9250 0.9262 0.9274 0.9285 0.9296
1768.425463 0.9305 0.9314 0.9323 0.9332 0.9339
1773.440165 0.9345 0.9351 0.9356 0.9362 0.9367
1778.454866 0.9373 0.9378 0.9384 0.9389 0.9395
1783.469568 0.9400 0.9406 0.9411 0.9417 0.9422
1788.484269 0.9428 0.9433 0.9439 0.9444 0.9449
1793.498971 0.9454 0.9460 0.9465 0.9470 0.9475
1798.513672 0.9480 0.9484 0.9489 0.9494 0.9499
1803.528374 0.9503 0.9507 0.9511 0.9515 0.9519
1808.543076 0.9523 0.9527 0.9531 0.9535 0.9539
1813.557777 0.9543 0.9547 0.9551 0.9554 0.9557
1818.572479 0.9560 0.9563 0.9565 0.9568 0.9574
1823.587180 0.9583 0.9592 0.9602 0.9611 0.9621
1828.601882 0.9630 0.9640 0.9649 0.9658 0.9668
1833.616583 0.9678 0.9687 0.9696 0.9704 0.9709
1838.631285 0.9714 0.9719 0.9723 0.9728 0.9733
1843.645986 0.9737 0.9739 0.9741 0.9743 0.9745
1848.660688 0.9747 0.9749 0.9751 0.9753 0.9755
1853.675390 0.9757 0.9759 0.9761 0.9763 0.9765
1858.690091 0.9767 0.9769 0.9771 0.9773 0.9775
1863.704793 0.9776 0.9778 0.9779 0.9781 0.9782
1868.719494 0.9783 0.9785 0.9786 0.9788 0.9789
1873.734196 0.9790 0.9792 0.9793 0.9795 0.9796
1878.748897 0.9797 0.9797 0.9797 0.9797 0.9797
1883.763599 0.9797 0.9797 0.9797 0.9797 0.9797
1888.778300 0.9797 0.9797 0.9797 0.9797 0.9797
1893.793002 0.9797 0.9796 0.9796 0.9795 0.9795
1898.807704 0.9794 0.9794 0.9793 0.9792 0.9792
1903.822405 0.9791 0.9791 0.9790 0.9790 0.9789
1908.837107 0.9792 0.9796 0.9799 0.9802 0.9805
1913.851808 0.9808 0.9811 0.9814 0.9818 0.9821
1918.866510 0.9824 0.9825 0.9826 0.9827 0.9828
1923.881211 0.9829 0.9830 0.9831 0.9832 0.9833
1928.895913 0.9833 0.9829 0.9825 0.9821 0.9817
1933.910615 0.9814 0.9810 0.9806 0.9802 0.9798
1938.925316 0.9794 0.9789 0.9785 0.9780 0.9776
1943.940018 0.9771 0.9767 0.9762 0.9758 0.9755
1948.954719 0.9753 0.9751 0.9749 0.9747 0.9745
1953.969421 0.9743 0.9743 0.9746 0.9748 0.9750
1958.984122 0.9753 0.9755 0.9760 0.9766 0.9772
1963.998824 0.9779 0.9785 0.9791 0.9798 0.9804
1969.013525 0.9811 0.9818 0.9826 0.9833 0.9840
1974.028227 0.9847 0.9854 0.9861 0.9867 0.9868
1979.042929 0.9870 0.9872 0.9873 0.9875 0.9875
1984.057630 0.9874 0.9873 0.9872 0.9871 0.9870
1989.072332 0.9869 0.9868 0.9867 0.9866 0.9865
1994.087033 0.9864 0.9863 0.9863 0.9863 0.9863
1999.101735 0.9863 0.9863 0.9863 0.9862 0.9862
2004.116436 0.9862 0.9862 0.9862 0.9862 0.9862
2009.131138 0.9862 0.9862 0.9862 0.9862 0.9861
2014.145839 0.9861 0.9861 0.9861 0.9861 0.9861
2019.160541 0.9862 0.9862 0.9862 0.9862 0.9863
2024.175243 0.9863 0.9863 0.9864 0.9864 0.9864
2029.189944 0.9864 0.9865 0.9865 0.9865 0.9865
2034.204646 0.9866 0.9866 0.9866 0.9867 0.9867
2039.219347 0.9868 0.9869 0.9869 0.9870 0.9870
2044.234049 0.9871 0.9871 0.9872 0.9873 0.9873
2049.248750 0.9874 0.9874 0.9875 0.9875 0.9876
2054.263452 0.9876 0.9877 0.9878 0.9878 0.9879
2059.278153 0.9879 0.9880 0.9880 0.9881 0.9881
2064.292855 0.9881 0.9880 0.9880 0.9880 0.9880
2069.307557 0.9880 0.9880 0.9880 0.9880 0.9880
2074.322258 0.9880 0.9879 0.9879 0.9879 0.9879
2079.336960 0.9879 0.9879 0.9879 0.9879 0.9879
2084.351661 0.9879 0.9878 0.9878 0.9878 0.9878
2089.366363 0.9878 0.9878 0.9878 0.9878 0.9878
2094.381064 0.9878 0.9877 0.9877 0.9876 0.9875
2099.395766 0.9875 0.9874 0.9873 0.9873 0.9872
2104.410468 0.9871 0.9871 0.9870 0.9870 0.9869
2109.425169 0.9865 0.9864 0.9867 0.9866 0.9866
2114.439871 0.9865 0.9864 0.9864 0.9863 0.9863
2119.454572 0.9862 0.9861 0.9861 0.9860 0.9860
2124.469274 0.9859 0.9858 0.9857 0.9856 0.9855
2129.483975 0.9854 0.9852 0.9851 0.9850 0.9849
2134.498677 0.9848 0.9848 0.9848 0.9847 0.9846
2139.513378 0.9846 0.9845 0.9845 0.9845 0.9844
2144.528080 0.9844 0.9843 0.9843 0.9843 0.9842
2149.542782 0.9842 0.9841 0.9841 0.9841 0.9840
2154.557483 0.9840 0.9839 0.9839 0.9839 0.9838
2159.572185 0.9838 0.9837 0.9837 0.9837 0.9836
2164.586886 0.9836 0.9835 0.9835 0.9835 0.9834
2169.601588 0.9834 0.9833 0.9833 0.9833 0.9832
2174.616289 0.9832 0.9831 0.9831 0.9830 0.9830
2179.630991 0.9830 0.9829 0.9829 0.9828 0.9828
2184.645692 0.9828 0.9827 0.9826 0.9825 0.9822
2189.660394 0.9819 0.9816 0.9813 0.9811 0.9810
2194.675096 0.9808 0.9807 0.9805 0.9802 0.9798
2199.689797 0.9795 0.9792 0.9789 0.9785 0.9781
2204.704499 0.9777 0.9773 0.9768 0.9764 0.9761
2209.719200 0.9758 0.9756 0.9753 0.9750 0.9748
2214.733902 0.9745 0.9742 0.9740 0.9737 0.9734
2219.748603 0.9733 0.9733 0.9733 0.9733 0.9733
2224.763305 0.9732 0.9732 0.9732 0.9732 0.9732
2229.778006 0.9732 0.9733 0.9733 0.9733 0.9733
2234.792708 0.9734 0.9734 0.9734 0.9734 0.9734
2239.807410 0.9734 0.9734 0.9734 0.9733 0.9733
2244.822111 0.9733 0.9733 0.9733 0.9733 0.9733
2249.836813 0.9732 0.9732 0.9732 0.9732 0.9732
2254.851514 0.9732 0.9732 0.9732 0.9732 0.9732
2259.866216 0.9732 0.9733 0.9733 0.9733 0.9734
2264.880917 0.9734 0.9734 0.9734 0.9735 0.9735
2269.895619 0.9735 0.9734 0.9733 0.9733 0.9732
2274.910320 0.9732 0.9731 0.9731 0.9730 0.9729
2279.925022 0.9727 0.9725 0.9722 0.9720 0.9718
2284.939724 0.9715 0.9713 0.9711 0.9709 0.9706
2289.954425 0.9704 0.9702 0.9699 0.9697 0.9695
2294.969127 0.9693 0.9690 0.9688 0.9686 0.9684
2299.983828 0.9682 0.9679 0.9677 0.9676 0.9675
2304.998530 0.9673 0.9672 0.9671 0.9670 0.9669
2310.013231 0.9667 0.9666 0.9665 0.9664 0.9663
2315.027933 0.9661 0.9662 0.9664 0.9667 0.9670
2320.042635 0.9673 0.9676 0.9678 0.9681 0.9684
2325.057336 0.9688 0.9692 0.9695 0.9699 0.9702
2330.072038 0.9706 0.9710 0.9712 0.9714 0.9715
2335.086739 0.9716 0.9717 0.9718 0.9720 0.9721
2340.101441 0.9722 0.9722 0.9723 0.9723 0.9723
2345.116142 0.9723 0.9724 0.9724 0.9724 0.9724
2350.130844 0.9725 0.9725 0.9725 0.9725 0.9724
2355.145545 0.9723 0.9722 0.9720 0.9719 0.9718
2360.160247 0.9716 0.9715 0.9714 0.9713 0.9711
2365.174949 0.9710 0.9709 0.9708 0.9705 0.9702
2370.189650 0.9699 0.9695 0.9692 0.9688 0.9683
2375.204352 0.9676 0.9670 0.9663 0.9656 0.9649
2380.219053 0.9642 0.9635 0.9628 0.9622 0.9616
2385.233755 0.9610 0.9605 0.9599 0.9593 0.9588
2390.248456 0.9582 0.9576 0.9571 0.9566 0.9561
2395.263158 0.9556 0.9551 0.9546 0.9540 0.9535
2400.277859 0.9530 0.9524 0.9519 0.9514 0.9511
2405.292561 0.9507 0.9504 0.9500 0.9497 0.9494
2410.307263 0.9490 0.9487 0.9484 0.9480 0.9477
2415.321964 0.9474 0.9472 0.9470 0.9469 0.9467
2420.336666 0.9466 0.9465 0.9463 0.9462 0.9461
2425.351367 0.9460 0.9458 0.9457 0.9456 0.9454
2430.366069 0.9453 0.9452 0.9450 0.9449 0.9445
2435.380770 0.9437 0.9429 0.9421 0.9412 0.9404
2440.395472 0.9396 0.9390 0.9383 0.9376 0.9370
2445.410173 0.9363 0.9357 0.9350 0.9345 0.9343
2450.424875 0.9341 0.9339 0.9337 0.9336 0.9336
2455.439577 0.9336 0.9337 0.9338 0.9339 0.9340
2460.454278 0.9341 0.9341 0.9341 0.9342 0.9342
2465.468980 0.9342 0.9342 0.9340 0.9338 0.9336
2470.483681 0.9334 0.9332 0.9330 0.9328 0.9326
2475.498383 0.9324 0.9321 0.9316 0.9312 0.9307
2480.513084 0.9302 0.9297 0.9292 0.9287 0.9282
2485.527786 0.9278 0.9273 0.9268 0.9263 0.9257
2490.542488 0.9252 0.9246 0.9240 0.9235 0.9229
2495.557189 0.9222 0.9216 0.9210 0.9203 0.9197
2500.571891 0.9190 0.9184 0.9179 0.9175 0.9171
2505.586592 0.9167 0.9163 0.9159 0.9155 0.9151
2510.601294 0.9147 0.9143 0.9139 0.9134 0.9127
2515.615995 0.9119 0.9111 0.9103 0.9095 0.9087
2520.630697 0.9080 0.9072 0.9064 0.9055 0.9045
2525.645398 0.9035 0.9024 0.9014 0.9008 0.9004
2530.660100 0.9000 0.8996 0.8992 0.8988 0.8984
2535.674802 0.8982 0.8980 0.8978 0.8976 0.8974
2540.689503 0.8972 0.8971 0.8969 0.8968 0.8966
2545.704205 0.8965 0.8963 0.8962 0.8961 0.8959
2550.718906 0.8960 0.8960 0.8960 0.8960 0.8961
2555.733608 0.8961 0.8961 0.8961 0.8962 0.8962
2560.748309 0.8962 0.8963 0.8963 0.8963 0.8963
2565.763011 0.8964 0.8964 0.8964 0.8964 0.8965
2570.777712 0.8965 0.8965 0.8965 0.8966 0.8966
2575.792414 0.8966 0.8966 0.8967 0.8967 0.8967
2580.807116 0.8968 0.8968 0.8968 0.8968 0.8969
2585.821817 0.8969 0.8969 0.8969 0.8967 0.8962
2590.836519 0.8957 0.8953 0.8948 0.8943 0.8939
2595.851220 0.8934 0.8929 0.8925 0.8920 0.8916
2600.865922 0.8913 0.8909 0.8906 0.8902 0.8898
2605.880623 0.8895 0.8891 0.8888 0.8884 0.8881
2610.895325 0.8877 0.8874 0.8869 0.8865 0.8861
2615.910026 0.8857 0.8853 0.8849 0.8844 0.8840
2620.924728 0.8836 0.8832 0.8828 0.8823 0.8821
2625.939430 0.8819 0.8817 0.8815 0.8813 0.8812
2630.954131 0.8810 0.8808 0.8806 0.8805 0.8803
2635.968833 0.8801 0.8799 0.8798 0.8796 0.8794
2640.983534 0.8792 0.8791 0.8791 0.8790 0.8790
2645.998236 0.8790 0.8789 0.8789 0.8789 0.8789
2651.012937 0.8790 0.8791 0.8791 0.8792 0.8793
2656.027639 0.8794 0.8794 0.8795 0.8796 0.8797
2661.042340 0.8798 0.8799 0.8800 0.8800 0.8800
2666.057042 0.8800 0.8800 0.8799 0.8799 0.8799
2671.071744 0.8798 0.8793 0.8788 0.8783 0.8778
2676.086445 0.8773 0.8767 0.8761 0.8754 0.8747
2681.101147 0.8740 0.8733 0.8726 0.8720 0.8715
2686.115848 0.8710 0.8705 0.8700 0.8695 0.8690
2691.130550 0.8685 0.8681 0.8676 0.8671 0.8666
2696.145251 0.8662 0.8658 0.8654 0.8650 0.8646
2701.159953 0.8642 0.8638 0.8634 0.8630 0.8626
2706.174655 0.8622 0.8618 0.8616 0.8614 0.8611
2711.189356 0.8609 0.8606 0.8604 0.8601 0.8599
2716.204058 0.8596 0.8594 0.8592 0.8590 0.8588
2721.218759 0.8587 0.8585 0.8583 0.8582 0.8580
2726.233461 0.8578 0.8578 0.8580 0.8581 0.8583
2731.248162 0.8585 0.8586 0.8586 0.8585 0.8585
2736.262864 0.8585 0.8583 0.8577 0.8569 0.8561
2741.277565 0.8553 0.8545 0.8537 0.8528 0.8515
2746.292267 0.8499 0.8483 0.8467 0.8451 0.8435
2751.306969 0.8420 0.8406 0.8392 0.8379 0.8365
2756.321670 0.8350 0.8336 0.8322 0.8308 0.8295
2761.336372 0.8282 0.8269 0.8257 0.8244 0.8231
2766.351073 0.8218 0.8206 0.8193 0.8182 0.8173
2771.365775 0.8164 0.8155 0.8146 0.8137 0.8128
2776.380476 0.8115 0.8097 0.8080 0.8062 0.8041
2781.395178 0.8017 0.7993 0.7969 0.7945 0.7922
2786.409879 0.7899 0.7876 0.7852 0.7829 0.7806
2791.424581 0.7785 0.7768 0.7751 0.7734 0.7716
2796.439283 0.7699 0.7681 0.7664 0.7651 0.7641
2801.453984 0.7631 0.7621 0.7611 0.7601 0.7592
2806.468686 0.7582 0.7572 0.7562 0.7553 0.7544
2811.483387 0.7537 0.7529 0.7522 0.7514 0.7507
2816.498089 0.7499 0.7491 0.7484 0.7476 0.7468
2821.512790 0.7461 0.7453 0.7446 0.7440 0.7434
2826.527492 0.7429 0.7423 0.7417 0.7411 0.7405
2831.542193 0.7399 0.7393 0.7389 0.7385 0.7382
2836.556895 0.7379 0.7376 0.7373 0.7364 0.7349
2841.571597 0.7334 0.7319 0.7302 0.7242 0.7137
2846.586298 0.7045 0.6944 0.6817 0.6725 0.6677
2851.601000 0.6642 0.6607 0.6573 0.6539 0.6506
2856.615701 0.6482 0.6463 0.6443 0.6423 0.6406
2861.630403 0.6391 0.6382 0.6377 0.6373 0.6368
2866.645104 0.6364 0.6354 0.6354 0.6358 0.6358
2871.659806 0.6360 0.6366 0.6373 0.6380 0.6388
2876.674507 0.6398 0.6407 0.6417 0.6427 0.6438
2881.689209 0.6451 0.6464 0.6483 0.6513 0.6542
2886.703911 0.6567 0.6590 0.6612 0.6628 0.6641
2891.718612 0.6650 0.6654 0.6657 0.6642 0.6656
2896.733314 0.6666 0.6668 0.6670 0.6672 0.6667
2901.748015 0.6660 0.6652 0.6645 0.6638 0.6622
2906.762717 0.6600 0.6578 0.6556 0.6534 0.6511
2911.777418 0.6489 0.6468 0.6448 0.6428 0.6407
2916.792120 0.6387 0.6369 0.6352 0.6335 0.6318
2921.806822 0.6300 0.6286 0.6272 0.6259 0.6246
2926.821523 0.6232 0.6224 0.6222 0.6221 0.6217
2931.836225 0.6226 0.6231 0.6235 0.6240 0.6248
2936.850926 0.6256 0.6264 0.6281 0.6303 0.6321
2941.865628 0.6338 0.6356 0.6375 0.6395 0.6416
2946.880329 0.6431 0.6444 0.6458 0.6471 0.6484
2951.895031 0.6495 0.6502 0.6510 0.6514 0.6514
2956.909732 0.6514 0.6507 0.6496 0.6483 0.6469
2961.924434 0.6450 0.6431 0.6413 0.6395 0.6379
2966.939136 0.6362 0.6345 0.6328 0.6311 0.6292
2971.953837 0.6272 0.6253 0.6238 0.6229 0.6225
2976.968539 0.6227 0.6229 0.6210 0.6242 0.6251
2981.983240 0.6261 0.6270 0.6279 0.6289 0.6298
2986.997942 0.6307 0.6324 0.6342 0.6359 0.6373
2992.012643 0.6386 0.6399 0.6412 0.6424 0.6431
2997.027345 0.6439 0.6447 0.6454 0.6462 0.6466
3002.042046 0.6464 0.6463 0.6461 0.6460 0.6457
3007.056748 0.6455 0.6453 0.6451 0.6449 0.6447
3012.071450 0.6445 0.6443 0.6441 0.6439 0.6437
3017.086151 0.6435 0.6434 0.6432 0.6430 0.6428
3022.100853 0.6427 0.6425 0.6423 0.6420 0.6415
3027.115554 0.6411 0.6406 0.6401 0.6394 0.6385
3032.130256 0.6375 0.6366 0.6356 0.6347 0.6336
3037.144957 0.6325 0.6314 0.6302 0.6291 0.6280
3042.159659 0.6269 0.6257 0.6246 0.6235 0.6225
3047.174360 0.6214 0.6204 0.6193 0.6183 0.6172
3052.189062 0.6162 0.6151 0.6141 0.6130 0.6117
3057.203764 0.6103 0.6089 0.6076 0.6062 0.6048
3062.218465 0.6032 0.6006 0.5975 0.5944 0.5911
3067.233167 0.5872 0.5832 0.5791 0.5750 0.5707
3072.247868 0.5664 0.5621 0.5579 0.5542 0.5504
3077.262570 0.5468 0.5431 0.5394 0.5359 0.5323
3082.277271 0.5288 0.5253 0.5217 0.5182 0.5147
3087.291973 0.5112 0.5077 0.5042 0.5008 0.4977
3092.306675 0.4945 0.4914 0.4883 0.4852 0.4821
3097.321376 0.4788 0.4752 0.4715 0.4678 0.4641
3102.336078 0.4604 0.4567 0.4531 0.4496 0.4462
3107.350779 0.4427 0.4393 0.4358 0.4324 0.4291
3112.365481 0.4257 0.4222 0.4188 0.4155 0.4119
3117.380182 0.4079 0.4038 0.3998 0.3957 0.3916
3122.394884 0.3875 0.3834 0.3793 0.3752 0.3712
3127.409585 0.3671 0.3630 0.3594 0.3562 0.3531
3132.424287 0.3500 0.3468 0.3435 0.3402 0.3381
3137.438989 0.3372 0.3368 0.3366 0.3365 0.3365
3142.453690 0.3366 0.3368 0.3372 0.3376 0.3378
3147.468392 0.3378 0.3378 0.3377 0.3376 0.3376
3152.483093 0.3374 0.3373 0.3372 0.3371 0.3367
3157.497795 0.3360 0.3352 0.3344 0.3337 0.3330
3162.512496 0.3323 0.3315 0.3306 0.3296 0.3286
3167.527198 0.3276 0.3265 0.3254 0.3243 0.3232
3172.541899 0.3225 0.3211 0.3211 0.3218 0.3216
3177.556601 0.3216 0.3222 0.3233 0.3250 0.3270
3182.571303 0.3292 0.3316 0.3343 0.3369 0.3395
3187.586004 0.3420 0.3445 0.3470 0.3495 0.3520
3192.600706 0.3547 0.3582 0.3619 0.3657 0.3695
3197.615407 0.3733 0.3771 0.3808 0.3846 0.3883
3202.630109 0.3921 0.3959 0.3997 0.4034 0.4072
3207.644810 0.4109 0.4147 0.4185 0.4223 0.4260
3212.659512 0.4298 0.4336 0.4373 0.4411 0.4449
3217.674213 0.4487 0.4524 0.4562 0.4599 0.4637
3222.688915 0.4674 0.4712 0.4750 0.4788 0.4826
3227.703617 0.4863 0.4901 0.4938 0.4976 0.5010
3232.718318 0.5042 0.5073 0.5104 0.5135 0.5165
3237.733020 0.5193 0.5220 0.5247 0.5274 0.5306
3242.747721 0.5339 0.5372 0.5404 0.5437 0.5479
3247.762423 0.5525 0.5570 0.5634 0.5716 0.5785
3252.777124 0.5844 0.5887 0.5926 0.5965 0.6004
3257.791826 0.6041 0.6077 0.6113 0.6146 0.6168
3262.806527 0.6189 0.6210 0.6230 0.6251 0.6271
3267.821229 0.6291 0.6310 0.6330 0.6349 0.6368
3272.835931 0.6387 0.6406 0.6431 0.6458 0.6485
3277.850632 0.6513 0.6544 0.6576 0.6607 0.6638
3282.865334 0.6669 0.6701 0.6749 0.6800 0.6840
3287.880035 0.6878 0.6915 0.6951 0.6988 0.7031
3292.894737 0.7083 0.7137 0.7183 0.7218 0.7252
3297.909438 0.7271 0.7286 0.7300 0.7314 0.7329
3302.924140 0.7341 0.7352 0.7362 0.7373 0.7383
3307.938842 0.7394 0.7405 0.7418 0.7431 0.7444
3312.953543 0.7457 0.7470 0.7483 0.7496 0.7509
3317.968245 0.7522 0.7535 0.7546 0.7557 0.7568
3322.982946 0.7579 0.7589 0.7600 0.7611 0.7622
3327.997648 0.7633 0.7644 0.7655 0.7666 0.7677
3333.012349 0.7688 0.7699 0.7710 0.7721 0.7732
3338.027051 0.7742 0.7751 0.7760 0.7769 0.7778
3343.041752 0.7787 0.7796 0.7805 0.7814 0.7823
3348.056454 0.7832 0.7838 0.7844 0.7850 0.7856
3353.071156 0.7862 0.7868 0.7873 0.7879 0.7885
3358.085857 0.7891 0.7895 0.7895 0.7896 0.7894
3363.100559 0.7871 0.7898 0.7899 0.7899 0.7900
3368.115260 0.7900 0.7900 0.7899 0.7898 0.7896
3373.129962 0.7895 0.7894 0.7893 0.7892 0.7891
3378.144663 0.7890 0.7888 0.7887 0.7885 0.7883
3383.159365 0.7881 0.7878 0.7876 0.7874 0.7872
3388.174066 0.7870 0.7868 0.7866 0.7864 0.7862
3393.188768 0.7859 0.7855 0.7851 0.7848 0.7844
3398.203470 0.7841 0.7837 0.7833 0.7830 0.7826
3403.218171 0.7823 0.7819 0.7815 0.7812 0.7808
3408.232873 0.7805 0.7801 0.7797 0.7794 0.7790
3413.247574 0.7786 0.7782 0.7779 0.7775 0.7771
3418.262276 0.7767 0.7764 0.7760 0.7756 0.7752
3423.276977 0.7749 0.7746 0.7744 0.7743 0.7741
3428.291679 0.7740 0.7738 0.7737 0.7735 0.7734
3433.306380 0.7732 0.7731 0.7730 0.7730 0.7730
3438.321082 0.7730 0.7731 0.7731 0.7731 0.7731
3443.335784 0.7732 0.7732 0.7732 0.7732 0.7733
3448.350485 0.7733 0.7733 0.7735 0.7737 0.7739
3453.365187 0.7741 0.7743 0.7745 0.7747 0.7739
3458.379888 0.7735 0.7753 0.7755 0.7757 0.7759
3463.394590 0.7761 0.7763 0.7766 0.7770 0.7774
3468.409291 0.7778 0.7782 0.7785 0.7789 0.7793
3473.423993 0.7797 0.7801 0.7805 0.7809 0.7813
3478.438695 0.7816 0.7820 0.7825 0.7831 0.7837
3483.453396 0.7843 0.7849 0.7855 0.7861 0.7867
3488.468098 0.7873 0.7880 0.7886 0.7892 0.7898
3493.482799 0.7904 0.7910 0.7917 0.7927 0.7936
3498.497501 0.7945 0.7955 0.7965 0.7974 0.7984
3503.512202 0.7993 0.8003 0.8012 0.8022 0.8033
3508.526904 0.8044 0.8055 0.8066 0.8077 0.8088
3513.541605 0.8098 0.8109 0.8120 0.8131 0.8141
3518.556307 0.8150 0.8159 0.8168 0.8178 0.8187
3523.571009 0.8196 0.8205 0.8214 0.8223 0.8233
3528.585710 0.8242 0.8251 0.8260 0.8269 0.8278
3533.600412 0.8287 0.8296 0.8305 0.8314 0.8324
3538.615113 0.8333 0.8342 0.8351 0.8360 0.8369
3543.629815 0.8378 0.8387 0.8394 0.8402 0.8410
3548.644516 0.8418 0.8426 0.8434 0.8441 0.8449
3553.659218 0.8457 0.8465 0.8473 0.8480 0.8486
3558.673919 0.8493 0.8500 0.8507 0.8514 0.8521
3563.688621 0.8528 0.8535 0.8541 0.8548 0.8555
3568.703323 0.8562 0.8569 0.8576 0.8583 0.8589
3573.718024 0.8596 0.8603 0.8610 0.8617 0.8624
3578.732726 0.8631 0.8638 0.8646 0.8653 0.8661
3583.747427 0.8668 0.8676 0.8683 0.8690 0.8698
3588.762129 0.8705 0.8713 0.8720 0.8727 0.8735
3593.776830 0.8743 0.8752 0.8760 0.8768 0.8777
3598.791532 0.8785 0.8793 0.8802 0.8810 0.8818
3603.806233 0.8827 0.8835 0.8843 0.8852 0.8863
3608.820935 0.8876 0.8891 0.8905 0.8918 0.8932
3613.835637 0.8946 0.8959 0.8973 0.8987 0.9000
3618.850338 0.9014 0.9028 0.9041 0.9056 0.9071
3623.865040 0.9086 0.9101 0.9116 0.9130 0.9143
3628.879741 0.9154 0.9165 0.9177 0.9187 0.9197
3633.894443 0.9207 0.9217 0.9227 0.9236 0.9254
3638.909144 0.9280 0.9300 0.9312 0.9319 0.9325
3643.923846 0.9331 0.9336 0.9342 0.9348 0.9354
3648.938547 0.9360 0.9366 0.9372 0.9378 0.9384
3653.953249 0.9390 0.9395 0.9399 0.9404 0.9409
3658.967951 0.9413 0.9418 0.9422 0.9427 0.9432
3663.982652 0.9436 0.9441 0.9446 0.9450 0.9455
3668.997354 0.9459 0.9461 0.9464 0.9466 0.9468
3674.012055 0.9470 0.9472 0.9473 0.9474 0.9475
3679.026757 0.9476 0.9477 0.9478 0.9479 0.9480
3684.041458 0.9481 0.9482 0.9483 0.9484 0.9485
3689.056160 0.9486 0.9487 0.9488 0.9489 0.9490
3694.070862 0.9490 0.9491 0.9492 0.9493 0.9494
3699.085563 0.9495 0.9495 0.9496 0.9497 0.9498
3704.100265 0.9499 0.9500 0.9500 0.9500 0.9500
3709.114966 0.9501 0.9501 0.9501 0.9501 0.9502
3714.129668 0.9502 0.9502 0.9502 0.9503 0.9503
3719.144369 0.9503 0.9504 0.9508 0.9511 0.9515
3724.159071 0.9519 0.9522 0.9526 0.9529 0.9533
3729.173772 0.9537 0.9540 0.9544 0.9547 0.9551
3734.188474 0.9555 0.9559 0.9563 0.9567 0.9571
3739.203176 0.9575 0.9579 0.9583 0.9586 0.9588
3744.217877 0.9589 0.9589 0.9590 0.9591 0.9591
3749.232579 0.9592 0.9592 0.9593 0.9593 0.9594
3754.247280 0.9594 0.9595 0.9595 0.9596 0.9596
3759.261982 0.9596 0.9596 0.9596 0.9596 0.9596
3764.276683 0.9596 0.9596 0.9596 0.9596 0.9596
3769.291385 0.9596 0.9596 0.9596 0.9597 0.9597
3774.306086 0.9597 0.9598 0.9602 0.9605 0.9608
3779.320788 0.9611 0.9615 0.9618 0.9621 0.9625
3784.335490 0.9628 0.9631 0.9634 0.9638 0.9643
3789.350191 0.9647 0.9651 0.9656 0.9660 0.9664
3794.364893 0.9669 0.9673 0.9677 0.9681 0.9686
3799.379594 0.9691 0.9695 0.9700 0.9705 0.9709
3804.394296 0.9714 0.9719 0.9724 0.9729 0.9733
3809.408997 0.9738 0.9743 0.9747 0.9749 0.9750
3814.423699 0.9751 0.9752 0.9753 0.9755 0.9756
3819.438400 0.9757 0.9758 0.9756 0.9755 0.9754
3824.453102 0.9752 0.9751 0.9750 0.9748 0.9747
3829.467804 0.9746 0.9744 0.9743 0.9740 0.9736
3834.482505 0.9731 0.9726 0.9721 0.9716 0.9711
3839.497207 0.9705 0.9699 0.9693 0.9686 0.9678
3844.511908 0.9671 0.9663 0.9655 0.9647 0.9640
3849.526610 0.9632 0.9623 0.9613 0.9603 0.9593
3854.541311 0.9583 0.9573 0.9564 0.9557 0.9552
3859.556013 0.9546 0.9541 0.9535 0.9530 0.9525
3864.570714 0.9521 0.9520 0.9518 0.9517 0.9516
3869.585416 0.9515 0.9514 0.9512 0.9513 0.9515
3874.600118 0.9516 0.9517 0.9519 0.9520 0.9521
3879.614819 0.9523 0.9524 0.9525 0.9527 0.9528
3884.629521 0.9529 0.9531 0.9532 0.9532 0.9532
3889.644222 0.9533 0.9533 0.9533 0.9533 0.9534
3894.658924 0.9534 0.9534 0.9534 0.9535 0.9535
3899.673625 0.9535 0.9535 0.9536 0.9536 0.9537
3904.688327 0.9537 0.9538 0.9538 0.9539 0.9539
3909.703029 0.9540 0.9540 0.9541 0.9541 0.9542
3914.717730 0.9542 0.9542 0.9543 0.9543 0.9544
3919.732432 0.9544 0.9543 0.9542 0.9541 0.9540
3924.747133 0.9539 0.9538 0.9537 0.9536 0.9535
3929.761835 0.9534 0.9533 0.9532 0.9531 0.9530
3934.776536 0.9529 0.9528 0.9527 0.9526 0.9524
3939.791238 0.9522 0.9519 0.9516 0.9513 0.9510
3944.805939 0.9507 0.9505 0.9502 0.9499 0.9496
3949.820641 0.9493 0.9490 0.9487 0.9484 0.9480
3954.835343 0.9478 0.9475 0.9473 0.9470 0.9467
3959.850044 0.9465 0.9462 0.9424 0.9452 0.9455
3964.864746 0.9452 0.9449 0.9447 0.9444 0.9442
3969.879447 0.9439 0.9438 0.9436 0.9434 0.9432
3974.894149 0.9431 0.9429 0.9427 0.9426 0.9424
3979.908850 0.9422 0.9420 0.9419 0.9417 0.9415
3984.923552 0.9414 0.9413 0.9412 0.9411 0.9410
3989.938253 0.9409 0.9408 0.9407 0.9406 0.9405
3994.952955 0.9404 0.9401 0.9396 0.9391 0.9386
3999.967657 0.9381 0.9376 0.9371 0.9366 0.9361
4004.982358 0.9356 0.9351 0.9347 0.9342 0.9337
4009.997060 0.9336
##END=
