##TITLE=FERROCENE
$$ BEACON CHEM. IND., COMM.
##JCAMP-DX=4.24
##DATA TYPE=INFRARED SPECTRUM
##CLASS=COBLENTZ
##ORIGIN=WYANDOTTE CHEMICALS CORP., WYANDOTTE, MICHIGAN, USA
##OWNER=COBLENTZ SOCIETY
Collection (C) 2018 copyright by the U.S. Secretary of Commerce
on behalf of the United States of America. All rights reserved.
##DATE=Not specified, most likely prior to 1970
##MOLFORM=C10 H10 Fe
##SOURCE REFERENCE=COBLENTZ NO. 428
##$NIST ID=B6000428
##$NIST SOURCE=COBLENTZ
##$NIST IMAGE=cob428
##SPECTROMETER/DATA SYSTEM=Not specified, most likely a prism, grating, or hybrid spectrometer.
##STATE=SOLID (MINERAL OIL MULL)
##SAMPLING PROCEDURE=TRANSMISSION
##RESOLUTION=4
##DATA PROCESSING=DIGITIZED BY NIST FROM HARD COPY
##XUNITS=MICROMETERS
##YUNITS=TRANSMITTANCE
##XFACTOR=1.000000
##YFACTOR=1
##DELTAX=000.006649
##FIRSTX=2.023
##LASTX=15.9916
##FIRSTY=0.328
##MAXX=15.9916
##MINX=2.023
##MAXY=1.006
##MINY=0.031
##NPOINTS=2102
##XYDATA=(X++(Y..Y))
2.023000 0.3280 0.3280 0.3300 0.3300 0.3310
2.056261 0.3310 0.3330 0.3330 0.3360 0.3360
2.089000 0.3360 0.3360 0.3360 0.3350 0.3310
2.122261 0.3300 0.3300 0.3300 0.3310 0.3310
2.156000 0.3330 0.3360 0.3380 0.3400 0.3400
2.189261 0.3400 0.3400 0.3400 0.3410 0.3410
2.222000 0.3410 0.3410 0.3400 0.3400 0.3400
2.255261 0.3410 0.3410 0.3410 0.3430 0.3460
2.289000 0.3500 0.3510 0.3530 0.3550 0.3550
2.322261 0.3550 0.3550 0.3530 0.3510 0.3510
2.355000 0.3510 0.3500 0.3500 0.3480 0.3460
2.388261 0.3460 0.3500 0.3530 0.3550 0.3580
2.422000 0.3580 0.3580 0.3600 0.3600 0.3610
2.455261 0.3610 0.3610 0.3630 0.3610 0.3610
2.488000 0.3600 0.3550 0.3500 0.3450 0.3430
2.521261 0.3450 0.3480 0.3510 0.3530 0.3530
2.555000 0.3560 0.3580 0.3630 0.3650 0.3660
2.588261 0.3680 0.3700 0.3730 0.3780 0.3810
2.621000 0.3850 0.3860 0.3880 0.3910 0.3930
2.654261 0.3980 0.4000 0.4010 0.4010 0.4030
2.687000 0.4030 0.4050 0.4030 0.4030 0.4010
2.720261 0.4010 0.4030 0.4030 0.4030 0.4030
2.754000 0.4030 0.4010 0.4010 0.4010 0.4000
2.787261 0.4000 0.4000 0.4000 0.3980 0.3980
2.820000 0.3980 0.4000 0.4000 0.4010 0.4010
2.853261 0.4010 0.4010 0.4000 0.3980 0.3960
2.887000 0.3950 0.3910 0.3880 0.3860 0.3860
2.920261 0.3860 0.3860 0.3860 0.3860 0.3880
2.953000 0.3880 0.3900 0.3900 0.3900 0.3910
2.986261 0.3910 0.3900 0.3900 0.3900 0.3900
3.020000 0.3900 0.3900 0.3900 0.3880 0.3880
3.053261 0.3880 0.3880 0.3900 0.3910 0.3930
3.086000 0.3950 0.3980 0.3980 0.4000 0.4000
3.119261 0.4000 0.4000 0.4000 0.3980 0.3980
3.153000 0.3960 0.3900 0.3880 0.3860 0.3850
3.186261 0.3780 0.3780 0.3760 0.3730 0.3700
3.219000 0.3630 0.3450 0.3180 0.2910 0.2730
3.252261 0.2680 0.2730 0.2830 0.3010 0.3160
3.286000 0.3260 0.3300 0.3300 0.3260 0.3180
3.319261 0.3060 0.2930 0.2730 0.2380 0.2100
3.352000 0.1780 0.1250 0.0960 0.0680 0.0550
3.385261 0.0410 0.0380 0.0350 0.0330 0.0330
3.419000 0.0310 0.0330 0.0350 0.0410 0.0450
3.452261 0.0460 0.0510 0.0600 0.0630 0.0710
3.485000 0.0760 0.0760 0.0750 0.0680 0.0660
3.518261 0.0700 0.0910 0.1300 0.1760 0.2530
3.552000 0.3100 0.3810 0.4380 0.4810 0.5080
3.585261 0.5280 0.5380 0.5450 0.5700 0.5810
3.618000 0.5830 0.5850 0.5860 0.5880 0.5900
3.651261 0.5880 0.5880 0.5880 0.5880 0.5860
3.685000 0.5810 0.5800 0.5780 0.5760 0.5750
3.718261 0.5730 0.5710 0.5710 0.5730 0.5750
3.751000 0.5760 0.5800 0.5830 0.5850 0.5850
3.784261 0.5850 0.5860 0.5880 0.5900 0.5900
3.818000 0.5910 0.5900 0.5900 0.5910 0.5930
3.851261 0.5960 0.5980 0.6000 0.6010 0.6030
3.884000 0.6030 0.6030 0.6050 0.6050 0.6060
3.917261 0.6080 0.6080 0.6100 0.6100 0.6130
3.951000 0.6150 0.6180 0.6200 0.6200 0.6210
3.984261 0.6230 0.6230 0.6250 0.6250 0.6260
4.017000 0.6300 0.6300 0.6300 0.6330 0.6350
4.050261 0.6360 0.6380 0.6380 0.6380 0.6380
4.084000 0.6380 0.6380 0.6360 0.6350 0.6310
4.117261 0.6280 0.6280 0.6310 0.6350 0.6360
4.150000 0.6380 0.6400 0.6400 0.6400 0.6400
4.183261 0.6400 0.6410 0.6410 0.6430 0.6430
4.217000 0.6430 0.6430 0.6410 0.6400 0.6400
4.250261 0.6430 0.6450 0.6450 0.6430 0.6410
4.283000 0.6410 0.6410 0.6430 0.6430 0.6450
4.316261 0.6450 0.6450 0.6450 0.6430 0.6450
4.350000 0.6450 0.6450 0.6450 0.6450 0.6460
4.383261 0.6500 0.6530 0.6560 0.6610 0.6650
4.416000 0.6680 0.6710 0.6730 0.6760 0.6780
4.449261 0.6800 0.6800 0.6810 0.6800 0.6810
4.483000 0.6810 0.6830 0.6830 0.6810 0.6760
4.516261 0.6710 0.6680 0.6680 0.6680 0.6680
4.549000 0.6680 0.6660 0.6680 0.6750 0.6800
4.582261 0.6830 0.6860 0.6880 0.6910 0.6930
4.616000 0.6950 0.6960 0.6980 0.7000 0.7010
4.649261 0.7010 0.7030 0.7060 0.7100 0.7100
4.682000 0.7110 0.7100 0.7100 0.7100 0.7110
4.715261 0.7150 0.7160 0.7180 0.7200 0.7200
4.749000 0.7210 0.7230 0.7250 0.7250 0.7250
4.782261 0.7230 0.7250 0.7250 0.7260 0.7280
4.815000 0.7300 0.7300 0.7280 0.7300 0.7300
4.848261 0.7310 0.7330 0.7350 0.7350 0.7360
4.882000 0.7350 0.7360 0.7360 0.7360 0.7380
4.915261 0.7400 0.7380 0.7350 0.7330 0.7330
4.948000 0.7330 0.7350 0.7400 0.7430 0.7480
4.981261 0.7480 0.7480 0.7500 0.7500 0.7510
5.015000 0.7510 0.7530 0.7550 0.7550 0.7550
5.048261 0.7530 0.7510 0.7500 0.7480 0.7480
5.081000 0.7500 0.7530 0.7580 0.7600 0.7600
5.114261 0.7610 0.7610 0.7610 0.7610 0.7650
5.148000 0.7650 0.7650 0.7650 0.7650 0.7650
5.181261 0.7650 0.7660 0.7660 0.7660 0.7680
5.214000 0.7680 0.7680 0.7680 0.7680 0.7680
5.247261 0.7700 0.7710 0.7710 0.7730 0.7730
5.281000 0.7750 0.7750 0.7760 0.7760 0.7780
5.314261 0.7780 0.7810 0.7830 0.7850 0.7860
5.347000 0.7880 0.7880 0.7880 0.7850 0.7830
5.380261 0.7810 0.7850 0.7860 0.7930 0.8000
5.414000 0.8000 0.8000 0.8000 0.7980 0.7980
5.447261 0.7960 0.7960 0.7960 0.7980 0.7980
5.480000 0.7980 0.8000 0.8000 0.8000 0.8010
5.513261 0.8030 0.8060 0.8100 0.8100 0.8100
5.547000 0.8100 0.8080 0.8030 0.8010 0.8000
5.580261 0.7960 0.7960 0.7900 0.7800 0.7660
5.613000 0.7500 0.7330 0.7160 0.7030 0.6980
5.646261 0.6910 0.6860 0.6830 0.6850 0.6860
5.680000 0.6930 0.6980 0.7000 0.7010 0.7030
5.713261 0.7030 0.7010 0.7000 0.6960 0.6900
5.746000 0.6850 0.6760 0.6710 0.6660 0.6630
5.779261 0.6550 0.6500 0.6460 0.6450 0.6450
5.813000 0.6480 0.6480 0.6480 0.6460 0.6430
5.846261 0.6360 0.6330 0.6300 0.6250 0.6230
5.879000 0.6230 0.6230 0.6250 0.6250 0.6230
5.912261 0.6200 0.6180 0.6200 0.6230 0.6250
5.945000 0.6260 0.6260 0.6260 0.6260 0.6250
5.978261 0.6260 0.6310 0.6310 0.6280 0.6230
6.012000 0.6180 0.6150 0.6050 0.6000 0.5980
6.045261 0.5930 0.5910 0.5880 0.5850 0.5830
6.078000 0.5830 0.5810 0.5810 0.5830 0.5830
6.111261 0.5850 0.5880 0.5930 0.6030 0.6210
6.145000 0.6280 0.6480 0.6610 0.6660 0.6700
6.178261 0.6710 0.6750 0.6760 0.6800 0.6810
6.211000 0.6830 0.6850 0.6860 0.6900 0.6930
6.244261 0.6950 0.6960 0.6980 0.6980 0.6980
6.278000 0.7000 0.7010 0.7030 0.7060 0.7060
6.311261 0.7110 0.7160 0.7200 0.7230 0.7230
6.344000 0.7250 0.7230 0.7210 0.7210 0.7210
6.377261 0.7230 0.7350 0.7450 0.7580 0.7700
6.411000 0.7700 0.7680 0.7660 0.7650 0.7600
6.444261 0.7580 0.7560 0.7560 0.7600 0.7680
6.477000 0.7710 0.7750 0.7760 0.7780 0.7760
6.510261 0.7710 0.7700 0.7660 0.7630 0.7600
6.544000 0.7560 0.7550 0.7550 0.7550 0.7550
6.577261 0.7550 0.7530 0.7510 0.7460 0.7430
6.610000 0.7350 0.7310 0.7260 0.7160 0.7080
6.643261 0.7010 0.6930 0.6850 0.6710 0.6580
6.677000 0.6460 0.6310 0.6130 0.5930 0.5750
6.710261 0.5530 0.5310 0.5100 0.4880 0.4650
6.743000 0.4400 0.4050 0.3610 0.3000 0.2460
6.776261 0.2050 0.2010 0.2000 0.1950 0.1930
6.810000 0.1930 0.1960 0.2010 0.2080 0.2160
6.843261 0.2280 0.2410 0.2550 0.2710 0.2860
6.876000 0.3050 0.3210 0.3400 0.3560 0.3730
6.909261 0.3930 0.4100 0.4310 0.4610 0.4880
6.943000 0.5150 0.5380 0.5600 0.5800 0.5950
6.976261 0.6080 0.6160 0.6250 0.6410 0.6430
7.009000 0.6410 0.6410 0.6280 0.6130 0.5760
7.042261 0.5300 0.4810 0.4250 0.3950 0.3630
7.076000 0.3600 0.3610 0.3880 0.4100 0.4560
7.109261 0.4830 0.5050 0.5310 0.5510 0.5710
7.142000 0.5950 0.6110 0.6300 0.6330 0.6310
7.175261 0.6230 0.6110 0.5850 0.5280 0.4880
7.209000 0.4580 0.4380 0.4210 0.4050 0.3850
7.242261 0.3800 0.3800 0.3910 0.4260 0.4660
7.275000 0.5100 0.5400 0.5560 0.5650 0.5710
7.308261 0.5800 0.6010 0.6210 0.6510 0.6660
7.342000 0.6780 0.6900 0.6930 0.6950 0.6950
7.375261 0.6960 0.7000 0.7050 0.7100 0.7160
7.408000 0.7200 0.7230 0.7250 0.7260 0.7260
7.441261 0.7280 0.7280 0.7300 0.7330 0.7360
7.475000 0.7410 0.7500 0.7550 0.7630 0.7780
7.508261 0.7900 0.7930 0.7980 0.7980 0.7980
7.541000 0.7980 0.7980 0.7980 0.7980 0.8000
7.574261 0.8000 0.8010 0.8010 0.8030 0.8010
7.608000 0.8010 0.8000 0.8000 0.7980 0.7960
7.641261 0.7960 0.7980 0.8010 0.8050 0.8080
7.674000 0.8100 0.8110 0.8130 0.8130 0.8150
7.707261 0.8150 0.8150 0.8150 0.8150 0.8160
7.741000 0.8200 0.8250 0.8300 0.8300 0.8280
7.774261 0.8230 0.8210 0.8210 0.8280 0.8280
7.807000 0.8260 0.8250 0.8210 0.8200 0.8180
7.840261 0.8160 0.8160 0.8160 0.8150 0.8080
7.874000 0.7960 0.7850 0.7710 0.7560 0.7450
7.907261 0.7360 0.7300 0.7250 0.7210 0.7200
7.940000 0.7200 0.7250 0.7430 0.7610 0.7750
7.973261 0.7860 0.7980 0.8110 0.8210 0.8250
8.007000 0.8260 0.8260 0.8280 0.8300 0.8310
8.040261 0.8350 0.8360 0.8400 0.8400 0.8400
8.073000 0.8400 0.8400 0.8400 0.8380 0.8310
8.106261 0.8280 0.8280 0.8260 0.8280 0.8310
8.140000 0.8380 0.8500 0.8560 0.8600 0.8630
8.173261 0.8650 0.8660 0.8680 0.8680 0.8700
8.206000 0.8700 0.8710 0.8750 0.8760 0.8780
8.239261 0.8810 0.8850 0.8860 0.8860 0.8880
8.273000 0.8910 0.8950 0.8960 0.8980 0.9000
8.306261 0.9010 0.9010 0.9030 0.9060 0.9060
8.339000 0.9080 0.9050 0.9000 0.8950 0.8860
8.372261 0.8760 0.8680 0.8610 0.8600 0.8610
8.406000 0.8660 0.8750 0.8830 0.8880 0.8910
8.439261 0.8980 0.9010 0.9030 0.9030 0.9050
8.472000 0.9050 0.9050 0.9010 0.9000 0.8980
8.505261 0.8960 0.8960 0.8950 0.8930 0.8930
8.539000 0.8930 0.8950 0.8950 0.8960 0.8980
8.572261 0.9000 0.9010 0.9010 0.9030 0.9030
8.605000 0.9060 0.9060 0.9100 0.9100 0.9110
8.638261 0.9130 0.9150 0.9160 0.9180 0.9180
8.672000 0.9200 0.9200 0.9210 0.9250 0.9300
8.705261 0.9360 0.9400 0.9430 0.9460 0.9480
8.738000 0.9510 0.9530 0.9550 0.9560 0.9560
8.771261 0.9580 0.9600 0.9600 0.9610 0.9630
8.805000 0.9630 0.9650 0.9650 0.9650 0.9650
8.838261 0.9650 0.9650 0.9630 0.9610 0.9600
8.871000 0.9560 0.9530 0.9510 0.9480 0.9430
8.904261 0.9360 0.9300 0.9250 0.9210 0.9160
8.938000 0.9060 0.8880 0.8510 0.7950 0.7100
8.971261 0.6180 0.5550 0.4660 0.3680 0.1910
9.004000 0.1010 0.1010 0.1410 0.2530 0.3080
9.037261 0.3960 0.4580 0.4980 0.5210 0.5350
9.070000 0.5430 0.5550 0.5710 0.6000 0.6210
9.103261 0.6400 0.6550 0.6710 0.6830 0.6930
9.137000 0.7000 0.7060 0.7110 0.7150 0.7180
9.170261 0.7230 0.7260 0.7300 0.7350 0.7380
9.203000 0.7410 0.7410 0.7430 0.7450 0.7460
9.236261 0.7500 0.7510 0.7530 0.7530 0.7530
9.270000 0.7530 0.7550 0.7530 0.7530 0.7530
9.303261 0.7530 0.7530 0.7530 0.7530 0.7510
9.336000 0.7510 0.7500 0.7500 0.7480 0.7460
9.369261 0.7450 0.7380 0.7350 0.7330 0.7280
9.403000 0.7250 0.7230 0.7210 0.7180 0.7150
9.436261 0.7150 0.7160 0.7180 0.7200 0.7210
9.469000 0.7210 0.7200 0.7160 0.7130 0.7110
9.502261 0.7030 0.7010 0.7010 0.7010 0.7010
9.536000 0.7010 0.7050 0.7030 0.7030 0.7030
9.569261 0.7010 0.7000 0.6980 0.6930 0.6900
9.602000 0.6880 0.6900 0.7010 0.7060 0.7180
9.635261 0.7230 0.7300 0.7330 0.7330 0.7330
9.669000 0.7350 0.7360 0.7380 0.7360 0.7360
9.702261 0.7330 0.7260 0.7180 0.7100 0.7010
9.735000 0.6910 0.6850 0.6800 0.6780 0.6800
9.768261 0.6900 0.6950 0.6950 0.6960 0.6980
9.802000 0.6930 0.6900 0.6860 0.6800 0.6730
9.835261 0.6580 0.6410 0.6260 0.6050 0.5760
9.868000 0.5410 0.5010 0.4560 0.4100 0.3600
9.901261 0.3080 0.2680 0.2050 0.1850 0.1350
9.935000 0.1080 0.0950 0.0810 0.0730 0.0710
9.968261 0.0730 0.0850 0.1100 0.1430 0.1850
10.001000 0.2300 0.2580 0.2860 0.3200 0.3530
10.034261 0.3900 0.4250 0.4600 0.4910 0.5230
10.068000 0.5510 0.5760 0.5950 0.6100 0.6330
10.101261 0.6410 0.6580 0.6660 0.6750 0.6860
10.134000 0.6980 0.7110 0.7230 0.7350 0.7450
10.167261 0.7530 0.7560 0.7610 0.7680 0.7750
10.201000 0.7810 0.7850 0.7880 0.7910 0.7960
10.234261 0.8000 0.8050 0.8100 0.8130 0.8150
10.267000 0.8250 0.8280 0.8310 0.8350 0.8410
10.300261 0.8450 0.8480 0.8510 0.8510 0.8550
10.334000 0.8560 0.8580 0.8600 0.8650 0.8680
10.367261 0.8680 0.8680 0.8700 0.8710 0.8730
10.400000 0.8760 0.8800 0.8830 0.8850 0.8880
10.433261 0.8880 0.8880 0.8900 0.8910 0.8910
10.467000 0.8910 0.8930 0.8950 0.8960 0.9000
10.500261 0.9000 0.9010 0.9010 0.9030 0.9050
10.533000 0.9060 0.9060 0.9080 0.9100 0.9110
10.566261 0.9110 0.9130 0.9130 0.9150 0.9150
10.600000 0.9150 0.9150 0.9150 0.9150 0.9160
10.633261 0.9160 0.9200 0.9230 0.9250 0.9250
10.666000 0.9230 0.9250 0.9250 0.9250 0.9260
10.699261 0.9280 0.9280 0.9250 0.9250 0.9230
10.733000 0.9210 0.9210 0.9230 0.9260 0.9250
10.766261 0.9250 0.9250 0.9260 0.9280 0.9300
10.799000 0.9300 0.9280 0.9230 0.9200 0.9160
10.832261 0.9130 0.9130 0.9150 0.9150 0.9150
10.866000 0.9160 0.9180 0.9200 0.9210 0.9230
10.899261 0.9260 0.9300 0.9310 0.9350 0.9360
10.932000 0.9400 0.9410 0.9430 0.9430 0.9450
10.965261 0.9450 0.9460 0.9480 0.9500 0.9500
10.999000 0.9510 0.9510 0.9530 0.9530 0.9560
11.032261 0.9600 0.9600 0.9610 0.9630 0.9630
11.065000 0.9630 0.9600 0.9580 0.9560 0.9550
11.098261 0.9550 0.9550 0.9530 0.9510 0.9510
11.132000 0.9480 0.9480 0.9460 0.9460 0.9460
11.165261 0.9460 0.9460 0.9450 0.9410 0.9400
11.198000 0.9400 0.9360 0.9330 0.9330 0.9310
11.231261 0.9300 0.9300 0.9300 0.9280 0.9260
11.265000 0.9260 0.9230 0.9210 0.9180 0.9130
11.298261 0.9100 0.9050 0.8980 0.8930 0.8850
11.331000 0.8780 0.8730 0.8700 0.8700 0.8680
11.364261 0.8680 0.8660 0.8660 0.8660 0.8760
11.398000 0.8810 0.8850 0.8910 0.8950 0.9000
11.431261 0.9000 0.9010 0.9030 0.9030 0.9010
11.464000 0.9000 0.8980 0.8960 0.8950 0.8930
11.497261 0.8910 0.8900 0.8880 0.8850 0.8800
11.531000 0.8780 0.8760 0.8750 0.8730 0.8730
11.564261 0.8710 0.8660 0.8610 0.8580 0.8530
11.597000 0.8480 0.8410 0.8360 0.8310 0.8280
11.630261 0.8250 0.8200 0.8150 0.8130 0.8100
11.664000 0.8010 0.7950 0.7850 0.7760 0.7660
11.697261 0.7600 0.7550 0.7530 0.7500 0.7480
11.730000 0.7460 0.7460 0.7500 0.7500 0.7530
11.763261 0.7560 0.7580 0.7600 0.7630 0.7660
11.797000 0.7700 0.7710 0.7730 0.7730 0.7730
11.830261 0.7710 0.7680 0.7630 0.7550 0.7500
11.863000 0.7480 0.7480 0.7480 0.7480 0.7480
11.896261 0.7500 0.7510 0.7530 0.7550 0.7580
11.930000 0.7600 0.7610 0.7630 0.7610 0.7550
11.963261 0.7530 0.7500 0.7460 0.7430 0.7380
11.996000 0.7330 0.7260 0.7160 0.7060 0.6930
12.029261 0.6800 0.6630 0.6480 0.6300 0.6110
12.063000 0.5800 0.5610 0.5380 0.5050 0.4900
12.096261 0.4610 0.4400 0.4130 0.3850 0.3550
12.129000 0.3250 0.2930 0.2630 0.2310 0.2030
12.162261 0.1760 0.1510 0.1300 0.1160 0.0980
12.195000 0.0810 0.0660 0.0560 0.0500 0.0460
12.228261 0.0450 0.0430 0.0360 0.0330 0.0310
12.262000 0.0330 0.0360 0.0380 0.0400 0.0360
12.295261 0.0360 0.0400 0.0510 0.0650 0.0750
12.328000 0.0860 0.1030 0.1180 0.1350 0.1480
12.361261 0.1710 0.1910 0.2100 0.2280 0.2450
12.395000 0.2610 0.2750 0.2900 0.3030 0.3280
12.428261 0.3430 0.3680 0.3780 0.3860 0.3910
12.461000 0.4060 0.4310 0.4430 0.4580 0.4660
12.494261 0.4730 0.4780 0.4850 0.4950 0.5010
12.528000 0.5030 0.5050 0.5080 0.5100 0.5110
12.561261 0.5130 0.5150 0.5160 0.5180 0.5180
12.594000 0.5200 0.5200 0.5200 0.5180 0.5130
12.627261 0.5060 0.5030 0.4980 0.4900 0.4850
12.661000 0.4800 0.4780 0.4780 0.4780 0.4800
12.694261 0.4830 0.4860 0.4910 0.4930 0.5000
12.727000 0.5050 0.5100 0.5130 0.5180 0.5230
12.760261 0.5330 0.5430 0.5550 0.5660 0.5800
12.794000 0.5950 0.6080 0.6230 0.6400 0.6560
12.827261 0.6710 0.6880 0.7000 0.7080 0.7180
12.860000 0.7260 0.7360 0.7450 0.7550 0.7610
12.893261 0.7700 0.7760 0.7850 0.7930 0.7980
12.927000 0.8010 0.8080 0.8130 0.8200 0.8260
12.960261 0.8310 0.8330 0.8360 0.8410 0.8460
12.993000 0.8510 0.8550 0.8610 0.8650 0.8680
13.026261 0.8700 0.8750 0.8760 0.8780 0.8850
13.060000 0.8880 0.8930 0.8950 0.8960 0.8980
13.093261 0.9000 0.9000 0.9010 0.9030 0.9050
13.126000 0.9060 0.9080 0.9100 0.9110 0.9130
13.159261 0.9150 0.9160 0.9180 0.9200 0.9210
13.193000 0.9230 0.9230 0.9230 0.9230 0.9250
13.226261 0.9260 0.9260 0.9300 0.9300 0.9350
13.259000 0.9350 0.9360 0.9380 0.9380 0.9400
13.292261 0.9400 0.9410 0.9430 0.9450 0.9460
13.326000 0.9480 0.9510 0.9530 0.9550 0.9550
13.359261 0.9600 0.9630 0.9650 0.9680 0.9680
13.392000 0.9680 0.9680 0.9650 0.9610 0.9610
13.425261 0.9560 0.9560 0.9550 0.9550 0.9530
13.459000 0.9530 0.9530 0.9530 0.9530 0.9530
13.492261 0.9530 0.9530 0.9530 0.9510 0.9480
13.525000 0.9450 0.9430 0.9410 0.9410 0.9410
13.558261 0.9410 0.9410 0.9430 0.9430 0.9430
13.592000 0.9430 0.9430 0.9450 0.9450 0.9460
13.625261 0.9460 0.9480 0.9480 0.9500 0.9500
13.658000 0.9510 0.9510 0.9530 0.9530 0.9550
13.691261 0.9560 0.9580 0.9600 0.9610 0.9650
13.725000 0.9660 0.9660 0.9660 0.9680 0.9700
13.758261 0.9700 0.9700 0.9700 0.9680 0.9660
13.791000 0.9650 0.9630 0.9610 0.9630 0.9650
13.824261 0.9680 0.9700 0.9680 0.9650 0.9630
13.858000 0.9610 0.9610 0.9610 0.9610 0.9660
13.891261 0.9730 0.9750 0.9780 0.9810 0.9830
13.924000 0.9880 0.9900 0.9910 0.9930 0.9950
13.957261 0.9980 0.9980 1.0000 1.0010 1.0010
13.991000 1.0010 1.0010 1.0030 1.0030 1.0050
14.024261 1.0050 1.0050 1.0060 1.0060 1.0060
14.057000 1.0060 1.0060 1.0060 1.0060 1.0060
14.090261 1.0060 1.0060 1.0060 1.0050 1.0050
14.124000 1.0050 1.0050 1.0050 1.0050 1.0030
14.157261 1.0030 1.0030 1.0030 1.0030 1.0030
14.190000 1.0030 1.0030 1.0030 1.0030 1.0030
14.223261 1.0030 1.0030 1.0030 1.0030 1.0030
14.257000 1.0030 1.0030 1.0030 1.0030 1.0030
14.290261 1.0030 1.0030 1.0030 1.0030 1.0030
14.323000 1.0030 1.0010 1.0030 1.0030 1.0030
14.356261 1.0030 1.0030 1.0030 1.0030 1.0030
14.390000 1.0030 1.0030 1.0030 1.0030 1.0030
14.423261 1.0030 1.0030 1.0030 1.0030 1.0030
14.456000 1.0030 1.0030 1.0030 1.0030 1.0030
14.489261 1.0030 1.0010 1.0010 1.0010 1.0010
14.523000 1.0010 1.0010 1.0010 1.0010 1.0010
14.556261 1.0010 1.0000 1.0000 1.0000 1.0000
14.589000 1.0000 0.9980 0.9960 0.9950 0.9950
14.622261 0.9950 0.9950 0.9950 0.9930 0.9930
14.656000 0.9930 0.9930 0.9930 0.9910 0.9910
14.689261 0.9910 0.9900 0.9900 0.9880 0.9880
14.722000 0.9880 0.9880 0.9880 0.9880 0.9880
14.755261 0.9880 0.9860 0.9860 0.9860 0.9860
14.789000 0.9850 0.9850 0.9850 0.9830 0.9830
14.822261 0.9810 0.9800 0.9780 0.9780 0.9780
14.855000 0.9760 0.9760 0.9760 0.9750 0.9750
14.888261 0.9750 0.9730 0.9710 0.9710 0.9700
14.922000 0.9680 0.9660 0.9630 0.9610 0.9550
14.955261 0.9500 0.9430 0.9410 0.9350 0.9310
14.988000 0.9230 0.9150 0.9100 0.8960 0.8780
15.021261 0.8660 0.8610 0.8550 0.8510 0.8500
15.055000 0.8430 0.8410 0.8410 0.8410 0.8450
15.088261 0.8480 0.8530 0.8580 0.8630 0.8700
15.121000 0.8760 0.8810 0.8880 0.8910 0.8950
15.154261 0.8980 0.9000 0.9010 0.9060 0.9110
15.188000 0.9110 0.9130 0.9130 0.9130 0.9130
15.221261 0.9130 0.9130 0.9130 0.9110 0.9080
15.254000 0.9050 0.9010 0.8980 0.8960 0.8950
15.287261 0.8930 0.8910 0.8900 0.8900 0.8900
15.320000 0.8900 0.8900 0.8900 0.8880 0.8860
15.353261 0.8850 0.8830 0.8800 0.8780 0.8750
15.387000 0.8730 0.8700 0.8700 0.8680 0.8680
15.420261 0.8660 0.8660 0.8660 0.8650 0.8630
15.453000 0.8580 0.8550 0.8510 0.8480 0.8460
15.486261 0.8430 0.8410 0.8400 0.8380 0.8360
15.520000 0.8360 0.8360 0.8360 0.8360 0.8350
15.553261 0.8350 0.8310 0.8310 0.8300 0.8280
15.586000 0.8280 0.8260 0.8260 0.8250 0.8210
15.619261 0.8200 0.8160 0.8150 0.8150 0.8130
15.653000 0.8110 0.8100 0.8050 0.8030 0.8030
15.686261 0.8010 0.7980 0.7960 0.7910 0.7880
15.719000 0.7860 0.7810 0.7780 0.7750 0.7710
15.752261 0.7680 0.7630 0.7600 0.7580 0.7560
15.786000 0.7550 0.7530 0.7510 0.7510 0.7460
15.819261 0.7460 0.7450 0.7430 0.7400 0.7400
15.852000 0.7360 0.7350 0.7300 0.7300 0.7260
15.885261 0.7250 0.7230 0.7210 0.7180 0.7160
15.919000 0.7130 0.7110 0.7100 0.7080 0.7060
15.952261 0.7030 0.6980 0.6880 0.6830 0.6800
15.985000 0.6800 0.6780
##END=
