##TITLE=NICKEL COMPLEX OF 2,2'-THIOBIS[4-(1,1,3,3-TETRAMETHYLBUTYL)PHENOL]
##JCAMP-DX=4.24
##DATA TYPE=INFRARED SPECTRUM
##CLASS=COBLENTZ
##ORIGIN=TENNESSEE EASTMAN COMPANY, RESEARCH LABORATORIES
##OWNER=COBLENTZ SOCIETY
Collection (C) 2018 copyright by the U.S. Secretary of Commerce
on behalf of the United States of America. All rights reserved.
##DATE=Not specified, most likely prior to 1970
##MOLFORM=C28 H42 O2 S Ni
##SOURCE REFERENCE=COBLENTZ NO. 1680
##$NIST ID=B6001680
##$NIST SOURCE=COBLENTZ
##$NIST IMAGE=cob1680
##SPECTROMETER/DATA SYSTEM=Not specified, most likely a prism, grating, or hybrid spectrometer.
##STATE=SOLID (KBr PELLET)
##SAMPLING PROCEDURE=TRANSMISSION
##RESOLUTION=4
##DATA PROCESSING=DIGITIZED BY NIST FROM HARD COPY
##XUNITS=MICROMETERS
##YUNITS=TRANSMITTANCE
##XFACTOR=1.000000
##YFACTOR=1
##DELTAX=000.006833
##FIRSTX=2.02
##LASTX=15.9932
##FIRSTY=0.924
##MAXX=15.9932
##MINX=2.02
##MAXY=0.981
##MINY=0.049
##NPOINTS=2046
##XYDATA=(X++(Y..Y))
2.020000 0.9240 0.9240 0.9240 0.9240 0.9220
2.054180 0.9220 0.9220 0.9240 0.9260 0.9270
2.089000 0.9270 0.9270 0.9270 0.9270 0.9270
2.123180 0.9270 0.9270 0.9290 0.9290 0.9310
2.157000 0.9330 0.9360 0.9360 0.9340 0.9340
2.191180 0.9360 0.9360 0.9360 0.9360 0.9360
2.225000 0.9360 0.9340 0.9340 0.9340 0.9330
2.259180 0.9290 0.9290 0.9290 0.9290 0.9290
2.294000 0.9290 0.9310 0.9330 0.9330 0.9330
2.328180 0.9340 0.9340 0.9340 0.9340 0.9360
2.362000 0.9360 0.9360 0.9360 0.9360 0.9360
2.396180 0.9380 0.9380 0.9390 0.9390 0.9390
2.430000 0.9390 0.9390 0.9390 0.9390 0.9390
2.464180 0.9410 0.9410 0.9430 0.9430 0.9450
2.499000 0.9450 0.9450 0.9480 0.9480 0.9480
2.533180 0.9500 0.9500 0.9480 0.9480 0.9480
2.567000 0.9480 0.9480 0.9480 0.9480 0.9500
2.601180 0.9510 0.9510 0.9530 0.9530 0.9530
2.635000 0.9530 0.9530 0.9550 0.9550 0.9550
2.669180 0.9550 0.9550 0.9530 0.9510 0.9510
2.704000 0.9500 0.9340 0.9190 0.9020 0.8930
2.738180 0.8860 0.8760 0.8690 0.8590 0.8520
2.772000 0.8470 0.8310 0.8280 0.8250 0.8180
2.806180 0.8040 0.7990 0.7890 0.7830 0.7710
2.840000 0.7660 0.7540 0.7490 0.7350 0.7230
2.874180 0.7110 0.7010 0.6960 0.6860 0.6790
2.909000 0.6750 0.6720 0.6720 0.6740 0.6840
2.943180 0.6890 0.6920 0.6990 0.7010 0.7030
2.977000 0.7040 0.7060 0.7100 0.7150 0.7200
3.011180 0.7270 0.7320 0.7390 0.7390 0.7400
3.045000 0.7400 0.7420 0.7460 0.7490 0.7490
3.079180 0.7510 0.7510 0.7510 0.7530 0.7530
3.114000 0.7530 0.7540 0.7560 0.7610 0.7660
3.148180 0.7700 0.7730 0.7770 0.7780 0.7780
3.182000 0.7820 0.7830 0.7870 0.7900 0.7920
3.216180 0.7940 0.7920 0.7900 0.7830 0.7660
3.250000 0.7510 0.7400 0.7350 0.7320 0.7250
3.284180 0.7150 0.6960 0.6680 0.6190 0.5690
3.319000 0.4810 0.3840 0.3120 0.2360 0.1440
3.353180 0.0700 0.0530 0.0490 0.0530 0.1490
3.387000 0.1900 0.2000 0.2070 0.2140 0.2120
3.421180 0.2000 0.1980 0.2000 0.2410 0.2670
3.455000 0.2980 0.3530 0.3920 0.4320 0.6290
3.489180 0.6580 0.6750 0.6960 0.7230 0.7510
3.524000 0.7680 0.7870 0.7920 0.7990 0.8020
3.558180 0.8130 0.8190 0.8230 0.8260 0.8280
3.592000 0.8310 0.8330 0.8330 0.8350 0.8350
3.626180 0.8370 0.8370 0.8370 0.8370 0.8370
3.660000 0.8380 0.8370 0.8370 0.8370 0.8370
3.694180 0.8370 0.8380 0.8400 0.8420 0.8420
3.729000 0.8420 0.8420 0.8430 0.8430 0.8430
3.763180 0.8450 0.8450 0.8490 0.8490 0.8490
3.797000 0.8500 0.8500 0.8520 0.8520 0.8520
3.831180 0.8540 0.8540 0.8540 0.8540 0.8540
3.865000 0.8540 0.8540 0.8520 0.8520 0.8520
3.899180 0.8500 0.8500 0.8500 0.8500 0.8500
3.934000 0.8500 0.8500 0.8500 0.8520 0.8540
3.968180 0.8540 0.8520 0.8540 0.8540 0.8570
4.002000 0.8590 0.8590 0.8590 0.8610 0.8620
4.036180 0.8620 0.8620 0.8640 0.8640 0.8640
4.070000 0.8660 0.8670 0.8670 0.8690 0.8690
4.104180 0.8710 0.8710 0.8710 0.8710 0.8730
4.139000 0.8730 0.8760 0.8780 0.8790 0.8790
4.173180 0.8790 0.8790 0.8810 0.8810 0.8810
4.207000 0.8790 0.8790 0.8730 0.8690 0.8670
4.241180 0.8640 0.8640 0.8640 0.8640 0.8640
4.275000 0.8640 0.8660 0.8670 0.8690 0.8710
4.309180 0.8740 0.8790 0.8830 0.8900 0.8950
4.344000 0.9020 0.9050 0.9100 0.9140 0.9150
4.378180 0.9190 0.9210 0.9210 0.9220 0.9240
4.412000 0.9240 0.9240 0.9240 0.9240 0.9260
4.446180 0.9260 0.9290 0.9310 0.9330 0.9330
4.480000 0.9340 0.9340 0.9340 0.9340 0.9340
4.514180 0.9360 0.9360 0.9360 0.9380 0.9380
4.549000 0.9360 0.9380 0.9380 0.9390 0.9410
4.583180 0.9410 0.9430 0.9430 0.9430 0.9430
4.617000 0.9430 0.9430 0.9430 0.9430 0.9430
4.651180 0.9430 0.9430 0.9430 0.9430 0.9430
4.685000 0.9430 0.9430 0.9450 0.9450 0.9450
4.719180 0.9460 0.9460 0.9460 0.9480 0.9480
4.754000 0.9480 0.9500 0.9500 0.9530 0.9550
4.788180 0.9580 0.9600 0.9600 0.9580 0.9580
4.822000 0.9580 0.9580 0.9580 0.9580 0.9580
4.856180 0.9580 0.9580 0.9580 0.9580 0.9580
4.890000 0.9580 0.9580 0.9580 0.9580 0.9580
4.924180 0.9580 0.9580 0.9570 0.9570 0.9570
4.959000 0.9570 0.9570 0.9580 0.9600 0.9620
4.993180 0.9620 0.9620 0.9600 0.9600 0.9600
5.027000 0.9600 0.9580 0.9580 0.9580 0.9570
5.061180 0.9580 0.9580 0.9580 0.9580 0.9580
5.095000 0.9580 0.9580 0.9580 0.9570 0.9570
5.129180 0.9570 0.9530 0.9530 0.9510 0.9510
5.163000 0.9500 0.9480 0.9460 0.9450 0.9430
5.197180 0.9390 0.9390 0.9380 0.9380 0.9360
5.232000 0.9340 0.9290 0.9290 0.9240 0.9220
5.266180 0.9220 0.9220 0.9220 0.9220 0.9220
5.300000 0.9220 0.9220 0.9240 0.9240 0.9260
5.334180 0.9270 0.9290 0.9290 0.9310 0.9330
5.368000 0.9340 0.9340 0.9340 0.9340 0.9330
5.402180 0.9330 0.9330 0.9330 0.9330 0.9310
5.437000 0.9310 0.9290 0.9290 0.9270 0.9270
5.471180 0.9290 0.9290 0.9310 0.9290 0.9290
5.505000 0.9270 0.9290 0.9270 0.9260 0.9240
5.539180 0.9220 0.9150 0.9140 0.9150 0.9150
5.573000 0.9150 0.9140 0.9140 0.9120 0.9100
5.607180 0.9000 0.8950 0.8900 0.8880 0.8860
5.642000 0.8860 0.8860 0.8860 0.8850 0.8850
5.676180 0.8830 0.8810 0.8790 0.8760 0.8760
5.710000 0.8740 0.8740 0.8760 0.8760 0.8730
5.744180 0.8740 0.8760 0.8790 0.8810 0.8850
5.778000 0.8850 0.8860 0.8860 0.8810 0.8790
5.812180 0.8780 0.8760 0.8760 0.8780 0.8760
5.847000 0.8740 0.8730 0.8690 0.8640 0.8640
5.881180 0.8620 0.8640 0.8620 0.8620 0.8590
5.915000 0.8570 0.8520 0.8500 0.8470 0.8470
5.949180 0.8450 0.8450 0.8430 0.8430 0.8420
5.983000 0.8420 0.8420 0.8420 0.8400 0.8400
6.017180 0.8380 0.8380 0.8350 0.8310 0.8280
6.052000 0.8230 0.8210 0.8210 0.8210 0.8210
6.086180 0.8210 0.8190 0.8190 0.8180 0.8180
6.120000 0.8210 0.8250 0.8230 0.8230 0.8190
6.154180 0.8140 0.8070 0.8070 0.8040 0.8020
6.188000 0.8010 0.7890 0.7700 0.7340 0.6910
6.222180 0.6410 0.5950 0.5570 0.5480 0.5480
6.257000 0.5520 0.6200 0.6600 0.6860 0.6990
6.291180 0.7150 0.7280 0.7350 0.7400 0.7440
6.325000 0.7530 0.7660 0.7820 0.7900 0.7970
6.359180 0.8010 0.8020 0.8010 0.8020 0.8040
6.393000 0.8060 0.8130 0.8190 0.8230 0.8230
6.427180 0.8210 0.8210 0.8190 0.8130 0.8110
6.462000 0.8090 0.8090 0.8090 0.8110 0.8110
6.496180 0.8110 0.8110 0.8090 0.8010 0.7950
6.530000 0.7820 0.7660 0.7460 0.7110 0.6890
6.564180 0.6620 0.6310 0.6070 0.5930 0.5790
6.598000 0.5500 0.4780 0.4180 0.3870 0.3610
6.632180 0.3430 0.3150 0.2810 0.2400 0.2090
6.667000 0.1900 0.1660 0.1370 0.1090 0.0680
6.701180 0.0600 0.0600 0.0610 0.0610 0.0680
6.735000 0.0730 0.0840 0.0970 0.1200 0.1470
6.769180 0.1640 0.1730 0.1810 0.1920 0.2070
6.803000 0.2170 0.2340 0.2650 0.2710 0.2830
6.837180 0.3080 0.3510 0.3700 0.3750 0.3850
6.872000 0.4030 0.4160 0.4300 0.4420 0.4540
6.906180 0.4660 0.4760 0.4870 0.4990 0.5110
6.940000 0.5230 0.5350 0.5400 0.5470 0.5520
6.974180 0.5590 0.5640 0.5690 0.5740 0.5780
7.008000 0.5790 0.5830 0.5860 0.5860 0.5880
7.042180 0.5880 0.5860 0.5810 0.5720 0.5660
7.077000 0.5590 0.5500 0.5420 0.5260 0.5060
7.111180 0.4930 0.4640 0.4390 0.4110 0.3800
7.145000 0.3750 0.3750 0.3790 0.3960 0.4060
7.179180 0.4180 0.4210 0.4280 0.4400 0.4800
7.213000 0.5190 0.5480 0.5710 0.5840 0.5980
7.247180 0.6000 0.6020 0.6000 0.5810 0.5640
7.282000 0.5300 0.4800 0.4160 0.3600 0.2790
7.316180 0.2590 0.2590 0.2600 0.3200 0.3750
7.350000 0.4510 0.5210 0.5690 0.6070 0.6360
7.384180 0.6580 0.6600 0.6600 0.6550 0.6360
7.418000 0.6260 0.6150 0.6030 0.5910 0.5880
7.452180 0.5880 0.5900 0.6120 0.6390 0.6500
7.487000 0.6500 0.6500 0.6390 0.6070 0.5950
7.521180 0.5710 0.5470 0.5190 0.5110 0.5110
7.555000 0.5110 0.5300 0.5590 0.5740 0.5780
7.589180 0.5710 0.5570 0.5430 0.5240 0.5060
7.623000 0.4850 0.4730 0.4590 0.4470 0.4320
7.657180 0.4180 0.4060 0.3920 0.3790 0.3670
7.692000 0.3550 0.3490 0.3410 0.3360 0.3290
7.726180 0.3270 0.3240 0.3220 0.3200 0.3200
7.760000 0.3220 0.3240 0.3290 0.3370 0.3510
7.794180 0.3680 0.3920 0.4060 0.4090 0.4200
7.828000 0.4250 0.4280 0.4300 0.4300 0.4300
7.862180 0.4300 0.4210 0.4060 0.3970 0.3850
7.897000 0.3700 0.3550 0.3390 0.3220 0.3080
7.931180 0.2960 0.2860 0.2770 0.2670 0.2620
7.965000 0.2530 0.2450 0.2400 0.2340 0.2260
7.999180 0.2170 0.2160 0.2170 0.2190 0.2360
8.033000 0.2410 0.2600 0.2810 0.3000 0.3120
8.067180 0.3240 0.3390 0.3530 0.3680 0.3850
8.102000 0.3990 0.4150 0.4270 0.4420 0.4570
8.136180 0.4750 0.4850 0.4930 0.4990 0.5040
8.170000 0.5090 0.5110 0.5120 0.5120 0.5110
8.204180 0.5110 0.5110 0.5090 0.5070 0.5070
8.238000 0.5060 0.5040 0.5040 0.5040 0.5040
8.272180 0.5040 0.5040 0.5040 0.5060 0.5060
8.306000 0.5070 0.5070 0.5090 0.5140 0.5140
8.340180 0.5140 0.5140 0.5140 0.5140 0.5120
8.375000 0.5110 0.5110 0.5110 0.5090 0.5070
8.409180 0.5060 0.5020 0.5020 0.5000 0.5000
8.443000 0.5060 0.5110 0.5180 0.5280 0.5350
8.477180 0.5420 0.5470 0.5540 0.5600 0.5620
8.511000 0.5620 0.5620 0.5640 0.5640 0.5640
8.545180 0.5660 0.5670 0.5690 0.5710 0.5780
8.580000 0.5780 0.5810 0.5830 0.5830 0.5830
8.614180 0.5810 0.5790 0.5740 0.5660 0.5570
8.648000 0.5520 0.5480 0.5420 0.5420 0.5400
8.682180 0.5420 0.5480 0.5600 0.5710 0.5760
8.716000 0.5840 0.5950 0.6050 0.6150 0.6260
8.750180 0.6340 0.6440 0.6530 0.6580 0.6630
8.785000 0.6680 0.6700 0.6740 0.6770 0.6790
8.819180 0.6790 0.6790 0.6790 0.6790 0.6770
8.853000 0.6750 0.6720 0.6720 0.6720 0.6720
8.887180 0.6770 0.6800 0.6840 0.6860 0.6870
8.921000 0.6870 0.6890 0.6910 0.6940 0.6960
8.955180 0.6980 0.6990 0.7010 0.7030 0.7040
8.990000 0.7040 0.7040 0.7030 0.6990 0.6920
9.024180 0.6840 0.6770 0.6680 0.6600 0.6550
9.058000 0.6500 0.6460 0.6460 0.6480 0.6550
9.092180 0.6560 0.6670 0.6750 0.6860 0.6890
9.126000 0.6960 0.6990 0.7010 0.7030 0.7030
9.160180 0.7080 0.7100 0.7100 0.7110 0.7110
9.195000 0.7130 0.7130 0.7160 0.7180 0.7180
9.229180 0.7180 0.7200 0.7200 0.7200 0.7200
9.263000 0.7200 0.7220 0.7220 0.7230 0.7230
9.297180 0.7230 0.7250 0.7250 0.7230 0.7230
9.331000 0.7220 0.7200 0.7130 0.7060 0.7010
9.365180 0.6890 0.6770 0.6670 0.6550 0.6460
9.400000 0.6360 0.6270 0.6170 0.6100 0.6070
9.434180 0.6070 0.6070 0.6080 0.6150 0.6260
9.468000 0.6360 0.6460 0.6560 0.6670 0.6770
9.502180 0.6840 0.6890 0.6960 0.7010 0.7030
9.536000 0.7100 0.7150 0.7180 0.7200 0.7220
9.570180 0.7230 0.7230 0.7250 0.7250 0.7250
9.605000 0.7250 0.7270 0.7270 0.7250 0.7250
9.639180 0.7230 0.7220 0.7220 0.7220 0.7220
9.673000 0.7220 0.7220 0.7220 0.7220 0.7200
9.707180 0.7200 0.7200 0.7200 0.7200 0.7220
9.741000 0.7220 0.7230 0.7250 0.7250 0.7280
9.775180 0.7280 0.7280 0.7280 0.7280 0.7280
9.810000 0.7280 0.7280 0.7280 0.7280 0.7280
9.844180 0.7280 0.7280 0.7280 0.7280 0.7280
9.878000 0.7280 0.7280 0.7280 0.7280 0.7280
9.912180 0.7280 0.7250 0.7250 0.7250 0.7270
9.946000 0.7270 0.7280 0.7300 0.7300 0.7320
9.980180 0.7340 0.7350 0.7350 0.7370 0.7370
10.015000 0.7370 0.7370 0.7390 0.7390 0.7390
10.049180 0.7390 0.7390 0.7390 0.7390 0.7370
10.083000 0.7370 0.7350 0.7350 0.7340 0.7300
10.117180 0.7270 0.7230 0.7220 0.7200 0.7180
10.151000 0.7160 0.7100 0.7030 0.7010 0.6980
10.185180 0.6940 0.6890 0.6870 0.6840 0.6820
10.220000 0.6820 0.6840 0.6860 0.6890 0.6910
10.254180 0.6920 0.6980 0.6990 0.6990 0.7010
10.288000 0.7030 0.7060 0.7100 0.7100 0.7110
10.322180 0.7110 0.7110 0.7130 0.7150 0.7160
10.356000 0.7180 0.7200 0.7220 0.7230 0.7250
10.390180 0.7250 0.7280 0.7280 0.7280 0.7280
10.425000 0.7230 0.7230 0.7230 0.7230 0.7250
10.459180 0.7250 0.7250 0.7250 0.7250 0.7230
10.493000 0.7230 0.7230 0.7230 0.7230 0.7230
10.527180 0.7230 0.7230 0.7230 0.7230 0.7230
10.561000 0.7230 0.7230 0.7230 0.7230 0.7230
10.595180 0.7230 0.7230 0.7230 0.7230 0.7230
10.630000 0.7230 0.7230 0.7230 0.7230 0.7230
10.664180 0.7230 0.7230 0.7230 0.7250 0.7270
10.698000 0.7270 0.7280 0.7280 0.7280 0.7280
10.732180 0.7300 0.7280 0.7280 0.7300 0.7300
10.766000 0.7300 0.7300 0.7300 0.7300 0.7280
10.800180 0.7250 0.7180 0.7150 0.7130 0.7110
10.835000 0.7080 0.7010 0.7010 0.7010 0.7010
10.869180 0.7010 0.7080 0.7110 0.7150 0.7200
10.903000 0.7230 0.7270 0.7280 0.7280 0.7320
10.937180 0.7370 0.7390 0.7400 0.7420 0.7460
10.971000 0.7510 0.7530 0.7530 0.7580 0.7590
11.005180 0.7610 0.7610 0.7630 0.7650 0.7650
11.040000 0.7680 0.7680 0.7680 0.7680 0.7680
11.074180 0.7680 0.7680 0.7680 0.7650 0.7630
11.108000 0.7590 0.7540 0.7470 0.7420 0.7400
11.142180 0.7370 0.7340 0.7280 0.7200 0.7100
11.176000 0.7010 0.6940 0.6860 0.6790 0.6700
11.210180 0.6630 0.6560 0.6500 0.6440 0.6390
11.245000 0.6310 0.6220 0.6200 0.6170 0.6170
11.279180 0.6170 0.6150 0.6150 0.6100 0.6070
11.313000 0.6070 0.6030 0.6030 0.6020 0.6020
11.347180 0.6000 0.6000 0.6000 0.6000 0.6000
11.381000 0.6000 0.6020 0.6030 0.6030 0.6050
11.415180 0.6050 0.6070 0.6120 0.6150 0.6190
11.449000 0.6220 0.6270 0.6320 0.6380 0.6460
11.483180 0.6510 0.6530 0.6550 0.6560 0.6560
11.518000 0.6580 0.6600 0.6600 0.6600 0.6620
11.552180 0.6650 0.6750 0.6790 0.6800 0.6860
11.586000 0.6910 0.6960 0.7030 0.7100 0.7150
11.620180 0.7220 0.7250 0.7280 0.7300 0.7320
11.654000 0.7340 0.7340 0.7350 0.7350 0.7370
11.688180 0.7390 0.7390 0.7390 0.7390 0.7390
11.723000 0.7390 0.7390 0.7400 0.7400 0.7400
11.757180 0.7390 0.7390 0.7350 0.7320 0.7270
11.791000 0.7200 0.7150 0.7080 0.7030 0.6960
11.825180 0.6940 0.6860 0.6820 0.6750 0.6700
11.859000 0.6630 0.6560 0.6530 0.6460 0.6320
11.893180 0.6200 0.6100 0.6050 0.5960 0.5880
11.928000 0.5720 0.5550 0.5400 0.5240 0.5070
11.962180 0.4900 0.4750 0.4570 0.4400 0.4210
11.996000 0.4040 0.3850 0.3580 0.3390 0.3290
12.030180 0.3200 0.3130 0.3030 0.2980 0.2910
12.064000 0.2890 0.2880 0.2890 0.2910 0.2950
12.098180 0.3000 0.3050 0.3130 0.3220 0.3310
12.133000 0.3410 0.3530 0.3630 0.3750 0.3850
12.167180 0.3970 0.4080 0.4230 0.4330 0.4400
12.201000 0.4450 0.4510 0.4780 0.4930 0.5110
12.235180 0.5260 0.5430 0.5600 0.5760 0.5880
12.269000 0.5980 0.6050 0.6290 0.6430 0.6550
12.303180 0.6620 0.6650 0.6720 0.6770 0.6860
12.338000 0.6990 0.7040 0.7130 0.7250 0.7320
12.372180 0.7390 0.7400 0.7460 0.7470 0.7560
12.406000 0.7660 0.7750 0.7830 0.7900 0.7970
12.440180 0.8010 0.8020 0.8020 0.8040 0.8070
12.474000 0.8090 0.8110 0.8110 0.8140 0.8160
12.508180 0.8180 0.8180 0.8190 0.8210 0.8250
12.543000 0.8280 0.8300 0.8300 0.8310 0.8310
12.577180 0.8310 0.8330 0.8350 0.8350 0.8370
12.611000 0.8380 0.8380 0.8380 0.8380 0.8380
12.645180 0.8380 0.8400 0.8400 0.8400 0.8400
12.679000 0.8420 0.8420 0.8430 0.8430 0.8450
12.713180 0.8470 0.8470 0.8470 0.8470 0.8470
12.748000 0.8470 0.8470 0.8490 0.8490 0.8490
12.782180 0.8490 0.8490 0.8500 0.8520 0.8520
12.816000 0.8520 0.8540 0.8540 0.8570 0.8570
12.850180 0.8570 0.8590 0.8590 0.8590 0.8590
12.884000 0.8590 0.8590 0.8590 0.8590 0.8590
12.918180 0.8590 0.8590 0.8590 0.8590 0.8590
12.953000 0.8590 0.8550 0.8550 0.8540 0.8540
12.987180 0.8540 0.8500 0.8470 0.8420 0.8380
13.021000 0.8380 0.8370 0.8350 0.8310 0.8260
13.055180 0.8190 0.8160 0.8110 0.8020 0.7970
13.089000 0.7920 0.7850 0.7780 0.7680 0.7610
13.123180 0.7530 0.7460 0.7350 0.7250 0.7080
13.158000 0.6960 0.6820 0.6790 0.6750 0.6740
13.192180 0.6740 0.6720 0.6720 0.6720 0.6720
13.226000 0.6720 0.6720 0.6770 0.6870 0.7030
13.260180 0.7110 0.7180 0.7220 0.7270 0.7350
13.294000 0.7420 0.7470 0.7510 0.7590 0.7590
13.328180 0.7630 0.7650 0.7660 0.7680 0.7680
13.363000 0.7680 0.7680 0.7680 0.7680 0.7660
13.397180 0.7660 0.7650 0.7630 0.7610 0.7590
13.431000 0.7590 0.7580 0.7580 0.7560 0.7540
13.465180 0.7530 0.7510 0.7490 0.7470 0.7400
13.499000 0.7390 0.7320 0.7320 0.7300 0.7230
13.533180 0.7200 0.7180 0.7160 0.7110 0.7040
13.568000 0.6990 0.6980 0.6960 0.6920 0.6910
13.602180 0.6860 0.6750 0.6720 0.6720 0.6720
13.636000 0.6720 0.6740 0.6740 0.6750 0.6750
13.670180 0.6770 0.6770 0.6770 0.6790 0.6840
13.704000 0.6940 0.7030 0.7200 0.7250 0.7350
13.738180 0.7400 0.7440 0.7470 0.7510 0.7560
13.773000 0.7680 0.7730 0.7750 0.7780 0.7820
13.807180 0.7890 0.7920 0.7950 0.8010 0.8060
13.841000 0.8130 0.8160 0.8190 0.8230 0.8280
13.875180 0.8310 0.8380 0.8420 0.8430 0.8490
13.909000 0.8500 0.8540 0.8590 0.8620 0.8640
13.943180 0.8670 0.8710 0.8730 0.8740 0.8760
13.978000 0.8780 0.8810 0.8850 0.8880 0.8910
14.012180 0.8950 0.8970 0.8980 0.9000 0.9020
14.046000 0.9030 0.9050 0.9070 0.9090 0.9100
14.080180 0.9120 0.9140 0.9190 0.9190 0.9210
14.114000 0.9240 0.9260 0.9270 0.9290 0.9270
14.148180 0.9310 0.9330 0.9340 0.9390 0.9390
14.183000 0.9410 0.9450 0.9460 0.9480 0.9500
14.217180 0.9500 0.9510 0.9530 0.9550 0.9550
14.251000 0.9570 0.9580 0.9580 0.9580 0.9580
14.285180 0.9580 0.9580 0.9580 0.9600 0.9600
14.319000 0.9600 0.9620 0.9620 0.9620 0.9630
14.353180 0.9630 0.9650 0.9650 0.9630 0.9650
14.388000 0.9650 0.9650 0.9670 0.9700 0.9700
14.422180 0.9700 0.9700 0.9720 0.9700 0.9700
14.456000 0.9700 0.9700 0.9700 0.9700 0.9700
14.490180 0.9700 0.9700 0.9700 0.9700 0.9700
14.524000 0.9700 0.9720 0.9720 0.9720 0.9720
14.558180 0.9720 0.9740 0.9740 0.9750 0.9750
14.592000 0.9750 0.9770 0.9770 0.9750 0.9750
14.626180 0.9750 0.9750 0.9750 0.9750 0.9770
14.661000 0.9770 0.9770 0.9790 0.9790 0.9790
14.695180 0.9790 0.9810 0.9810 0.9810 0.9810
14.729000 0.9790 0.9790 0.9790 0.9790 0.9790
14.763180 0.9770 0.9770 0.9770 0.9770 0.9770
14.797000 0.9770 0.9770 0.9770 0.9750 0.9740
14.831180 0.9740 0.9720 0.9700 0.9690 0.9630
14.866000 0.9600 0.9580 0.9580 0.9530 0.9510
14.900180 0.9500 0.9430 0.9340 0.9240 0.9210
14.934000 0.9190 0.9150 0.9140 0.9120 0.9120
14.968180 0.9100 0.9100 0.9100 0.9100 0.9100
15.002000 0.9100 0.9120 0.9120 0.9140 0.9150
15.036180 0.9210 0.9220 0.9240 0.9290 0.9310
15.071000 0.9330 0.9380 0.9380 0.9390 0.9390
15.105180 0.9410 0.9430 0.9430 0.9430 0.9430
15.139000 0.9430 0.9430 0.9450 0.9430 0.9430
15.173180 0.9430 0.9430 0.9430 0.9430 0.9430
15.207000 0.9430 0.9430 0.9410 0.9390 0.9390
15.241180 0.9360 0.9340 0.9310 0.9290 0.9270
15.276000 0.9260 0.9260 0.9240 0.9240 0.9240
15.310180 0.9210 0.9190 0.9170 0.9170 0.9150
15.344000 0.9140 0.9120 0.9100 0.9090 0.9090
15.378180 0.9030 0.9020 0.9020 0.9020 0.9000
15.412000 0.9000 0.8980 0.8970 0.8970 0.8930
15.446180 0.8930 0.8930 0.8930 0.8910 0.8910
15.481000 0.8900 0.8880 0.8850 0.8790 0.8780
15.515180 0.8730 0.8690 0.8670 0.8670 0.8670
15.549000 0.8670 0.8670 0.8670 0.8670 0.8670
15.583180 0.8660 0.8640 0.8620 0.8590 0.8570
15.617000 0.8550 0.8540 0.8540 0.8520 0.8500
15.651180 0.8490 0.8490 0.8450 0.8430 0.8400
15.686000 0.8400 0.8370 0.8330 0.8300 0.8300
15.720180 0.8250 0.8190 0.8160 0.8160 0.8140
15.754000 0.8130 0.8110 0.8090 0.8070 0.8040
15.788180 0.8040 0.8010 0.7970 0.7970 0.7950
15.822000 0.7920 0.7890 0.7890 0.7870 0.7870
15.856180 0.7850 0.7850 0.7850 0.7830 0.7830
15.891000 0.7830 0.7820 0.7820 0.7820 0.7800
15.925180 0.7780 0.7770 0.7770 0.7750 0.7710
15.959000 0.7710 0.7700 0.7680 0.7660 0.7660
15.993180 0.7650
##END=
