##TITLE=p-Toluenesulfonic acid, potassium salt
##JCAMP-DX=4.24
$$ By DXEDIT 1.05 (RS McDonald)
##DATA TYPE=INFRARED SPECTRUM
##CLASS=COBLENTZ III
##ORIGIN=DOW CHEMICAL COMPANY
##OWNER=COPYRIGHT (C) 1988 by COBLENTZ SOCIETY INC.
Collection (C) 2018 copyright by the U.S. Secretary of Commerce
on behalf of the United States of America. All rights reserved.
##DATE=1963/10/17
##MOLFORM=C7 H7 K O3 S
##SOURCE REFERENCE=COBLENTZ NO. 07606
##$NIST ID=B6007606
##$NIST SOURCE=COBLENTZ
##$NIST IMAGE=cob7606
##SPECTROMETER/DATA SYSTEM=DOW KBr FOREPRISM-GRATING
##INSTRUMENT PARAMETERS=BLAZED AT 3.5, 12.0, 20.0 MICRON AND CHANGED AT 5.0, 7.5, 14.9 MICRON
##STATE=SOLID (SPLIT MULL), FLUOROLUBE FOR 3800-1335 CM^-^1, NUJOL FOR 1335-400 CM^-^1
##SAMPLING PROCEDURE=TRANSMISSION
##RESOLUTION=2
##DATA PROCESSING=DIGITIZED BY COBLENTZ SOCIETY (BATCH I) FROM HARD COPY
##XUNITS=1/CM
##YUNITS=TRANSMITTANCE
##XFACTOR=1
##YFACTOR=1
##DELTAX=1
##FIRSTX=3792
##LASTX=381
##FIRSTY=0.5725
##MAXX=3792
##MINX=381
##MAXY=0.9158
##MINY=0.0085
##NPOINTS=3412
##XYDATA=(X++(Y..Y))
3792.000000 0.5725 0.5724 0.5723 0.5722 0.5722
3787.000000 0.5721 0.5721 0.5720 0.5720 0.5719
3782.000000 0.5719 0.5718 0.5718 0.5717 0.5716
3777.000000 0.5715 0.5715 0.5714 0.5714 0.5715
3772.000000 0.5716 0.5717 0.5718 0.5718 0.5719
3767.000000 0.5720 0.5721 0.5722 0.5723 0.5724
3762.000000 0.5725 0.5726 0.5728 0.5730 0.5732
3757.000000 0.5733 0.5735 0.5737 0.5739 0.5740
3752.000000 0.5742 0.5744 0.5746 0.5746 0.5747
3747.000000 0.5748 0.5749 0.5749 0.5750 0.5750
3742.000000 0.5751 0.5751 0.5752 0.5753 0.5754
3737.000000 0.5754 0.5755 0.5757 0.5759 0.5760
3732.000000 0.5764 0.5766 0.5768 0.5770 0.5772
3727.000000 0.5774 0.5777 0.5779 0.5781 0.5783
3722.000000 0.5785 0.5787 0.5790 0.5792 0.5794
3717.000000 0.5796 0.5798 0.5802 0.5807 0.5810
3712.000000 0.5816 0.5820 0.5825 0.5830 0.5835
3707.000000 0.5839 0.5844 0.5848 0.5853 0.5854
3702.000000 0.5854 0.5854 0.5854 0.5853 0.5853
3697.000000 0.5853 0.5853 0.5852 0.5852 0.5851
3692.000000 0.5851 0.5850 0.5850 0.5849 0.5849
3687.000000 0.5849 0.5849 0.5849 0.5849 0.5849
3682.000000 0.5849 0.5849 0.5849 0.5849 0.5849
3677.000000 0.5848 0.5848 0.5848 0.5848 0.5848
3672.000000 0.5848 0.5848 0.5848 0.5848 0.5848
3667.000000 0.5848 0.5848 0.5848 0.5849 0.5850
3662.000000 0.5852 0.5853 0.5855 0.5856 0.5858
3657.000000 0.5859 0.5860 0.5862 0.5864 0.5865
3652.000000 0.5867 0.5868 0.5870 0.5872 0.5874
3647.000000 0.5875 0.5877 0.5878 0.5880 0.5881
3642.000000 0.5882 0.5882 0.5882 0.5882 0.5883
3637.000000 0.5883 0.5884 0.5884 0.5885 0.5885
3632.000000 0.5885 0.5885 0.5886 0.5886 0.5887
3627.000000 0.5887 0.5888 0.5888 0.5888 0.5888
3622.000000 0.5889 0.5889 0.5890 0.5890 0.5891
3617.000000 0.5891 0.5891 0.5891 0.5892 0.5892
3612.000000 0.5893 0.5893 0.5893 0.5893 0.5893
3607.000000 0.5893 0.5893 0.5893 0.5894 0.5894
3602.000000 0.5894 0.5894 0.5894 0.5894 0.5894
3597.000000 0.5894 0.5894 0.5894 0.5894 0.5894
3592.000000 0.5894 0.5894 0.5894 0.5894 0.5894
3587.000000 0.5894 0.5894 0.5894 0.5894 0.5894
3582.000000 0.5894 0.5894 0.5894 0.5894 0.5894
3577.000000 0.5894 0.5894 0.5894 0.5894 0.5894
3572.000000 0.5894 0.5895 0.5896 0.5897 0.5898
3567.000000 0.5899 0.5901 0.5902 0.5903 0.5904
3562.000000 0.5905 0.5906 0.5907 0.5908 0.5910
3557.000000 0.5910 0.5912 0.5912 0.5914 0.5915
3552.000000 0.5916 0.5917 0.5919 0.5920 0.5921
3547.000000 0.5922 0.5923 0.5924 0.5925 0.5926
3542.000000 0.5928 0.5929 0.5930 0.5931 0.5932
3537.000000 0.5933 0.5934 0.5935 0.5937 0.5938
3532.000000 0.5939 0.5939 0.5940 0.5941 0.5942
3527.000000 0.5943 0.5944 0.5945 0.5946 0.5946
3522.000000 0.5947 0.5948 0.5949 0.5950 0.5951
3517.000000 0.5951 0.5952 0.5953 0.5954 0.5955
3512.000000 0.5956 0.5957 0.5958 0.5958 0.5959
3507.000000 0.5960 0.5960 0.5962 0.5962 0.5962
3502.000000 0.5964 0.5965 0.5966 0.5967 0.5968
3497.000000 0.5969 0.5970 0.5970 0.5971 0.5972
3492.000000 0.5974 0.5975 0.5977 0.5978 0.5980
3487.000000 0.5981 0.5983 0.5984 0.5986 0.5987
3482.000000 0.5989 0.5990 0.5992 0.5993 0.5994
3477.000000 0.5995 0.5997 0.5998 0.6000 0.6001
3472.000000 0.6003 0.6004 0.6006 0.6007 0.6009
3467.000000 0.6010 0.6012 0.6012 0.6015 0.6016
3462.000000 0.6018 0.6019 0.6021 0.6022 0.6023
3457.000000 0.6024 0.6026 0.6028 0.6030 0.6032
3452.000000 0.6034 0.6035 0.6037 0.6039 0.6041
3447.000000 0.6043 0.6045 0.6046 0.6048 0.6050
3442.000000 0.6052 0.6054 0.6056 0.6057 0.6059
3437.000000 0.6060 0.6062 0.6065 0.6067 0.6069
3432.000000 0.6071 0.6072 0.6074 0.6076 0.6078
3427.000000 0.6080 0.6082 0.6083 0.6085 0.6087
3422.000000 0.6089 0.6091 0.6093 0.6094 0.6096
3417.000000 0.6098 0.6100 0.6102 0.6104 0.6106
3412.000000 0.6108 0.6109 0.6110 0.6112 0.6114
3407.000000 0.6115 0.6116 0.6117 0.6119 0.6120
3402.000000 0.6122 0.6123 0.6124 0.6125 0.6127
3397.000000 0.6128 0.6130 0.6131 0.6132 0.6133
3392.000000 0.6135 0.6136 0.6138 0.6139 0.6140
3387.000000 0.6141 0.6143 0.6144 0.6145 0.6146
3382.000000 0.6148 0.6149 0.6151 0.6152 0.6153
3377.000000 0.6154 0.6156 0.6157 0.6159 0.6160
3372.000000 0.6160 0.6162 0.6164 0.6165 0.6167
3367.000000 0.6168 0.6169 0.6170 0.6172 0.6173
3362.000000 0.6174 0.6175 0.6177 0.6178 0.6180
3357.000000 0.6181 0.6182 0.6183 0.6185 0.6186
3352.000000 0.6187 0.6188 0.6190 0.6191 0.6193
3347.000000 0.6194 0.6195 0.6196 0.6198 0.6199
3342.000000 0.6200 0.6201 0.6203 0.6204 0.6206
3337.000000 0.6207 0.6208 0.6209 0.6210 0.6212
3332.000000 0.6212 0.6214 0.6216 0.6217 0.6219
3327.000000 0.6220 0.6221 0.6222 0.6224 0.6225
3322.000000 0.6227 0.6228 0.6229 0.6230 0.6232
3317.000000 0.6233 0.6235 0.6236 0.6238 0.6240
3312.000000 0.6242 0.6244 0.6246 0.6247 0.6249
3307.000000 0.6251 0.6253 0.6255 0.6257 0.6258
3302.000000 0.6260 0.6262 0.6264 0.6265 0.6267
3297.000000 0.6269 0.6271 0.6273 0.6275 0.6276
3292.000000 0.6278 0.6280 0.6282 0.6284 0.6286
3287.000000 0.6287 0.6289 0.6291 0.6293 0.6295
3282.000000 0.6297 0.6298 0.6300 0.6302 0.6304
3277.000000 0.6305 0.6307 0.6309 0.6310 0.6312
3272.000000 0.6315 0.6316 0.6318 0.6320 0.6322
3267.000000 0.6323 0.6325 0.6326 0.6328 0.6329
3262.000000 0.6330 0.6331 0.6333 0.6334 0.6335
3257.000000 0.6336 0.6338 0.6339 0.6340 0.6341
3252.000000 0.6343 0.6344 0.6345 0.6346 0.6348
3247.000000 0.6349 0.6351 0.6352 0.6353 0.6354
3242.000000 0.6356 0.6357 0.6358 0.6359 0.6360
3237.000000 0.6362 0.6362 0.6364 0.6366 0.6367
3232.000000 0.6368 0.6369 0.6371 0.6372 0.6374
3227.000000 0.6375 0.6376 0.6377 0.6379 0.6380
3222.000000 0.6381 0.6382 0.6384 0.6385 0.6387
3217.000000 0.6388 0.6390 0.6391 0.6393 0.6395
3212.000000 0.6397 0.6398 0.6400 0.6401 0.6403
3207.000000 0.6404 0.6406 0.6408 0.6410 0.6411
3202.000000 0.6412 0.6414 0.6415 0.6417 0.6418
3197.000000 0.6421 0.6422 0.6424 0.6425 0.6426
3192.000000 0.6428 0.6430 0.6432 0.6433 0.6435
3187.000000 0.6437 0.6439 0.6440 0.6442 0.6443
3182.000000 0.6445 0.6447 0.6449 0.6450 0.6451
3177.000000 0.6453 0.6455 0.6456 0.6458 0.6460
3172.000000 0.6461 0.6462 0.6465 0.6465 0.6468
3167.000000 0.6469 0.6471 0.6472 0.6475 0.6475
3162.000000 0.6478 0.6480 0.6482 0.6483 0.6485
3157.000000 0.6486 0.6488 0.6489 0.6491 0.6493
3152.000000 0.6495 0.6496 0.6498 0.6500 0.6501
3147.000000 0.6504 0.6506 0.6508 0.6510 0.6511
3142.000000 0.6515 0.6517 0.6518 0.6521 0.6524
3137.000000 0.6525 0.6528 0.6530 0.6532 0.6533
3132.000000 0.6535 0.6536 0.6537 0.6537 0.6538
3127.000000 0.6538 0.6539 0.6540 0.6541 0.6541
3122.000000 0.6542 0.6542 0.6543 0.6543 0.6544
3117.000000 0.6545 0.6546 0.6547 0.6548 0.6549
3112.000000 0.6550 0.6551 0.6551 0.6553 0.6554
3107.000000 0.6555 0.6556 0.6556 0.6557 0.6557
3102.000000 0.6558 0.6558 0.6558 0.6558 0.6558
3097.000000 0.6557 0.6557 0.6551 0.6548 0.6541
3092.000000 0.6535 0.6521 0.6508 0.6496 0.6483
3087.000000 0.6476 0.6471 0.6472 0.6474 0.6475
3082.000000 0.6476 0.6478 0.6480 0.6481 0.6482
3077.000000 0.6487 0.6492 0.6494 0.6497 0.6498
3072.000000 0.6500 0.6493 0.6487 0.6480 0.6474
3067.000000 0.6467 0.6461 0.6456 0.6451 0.6449
3062.000000 0.6448 0.6446 0.6444 0.6444 0.6445
3057.000000 0.6445 0.6446 0.6442 0.6439 0.6408
3052.000000 0.6377 0.6329 0.6282 0.6256 0.6231
3047.000000 0.6231 0.6231 0.6233 0.6235 0.6238
3042.000000 0.6245 0.6249 0.6257 0.6273 0.6289
3037.000000 0.6299 0.6309 0.6310 0.6312 0.6315
3032.000000 0.6317 0.6322 0.6327 0.6339 0.6351
3027.000000 0.6362 0.6374 0.6381 0.6389 0.6395
3022.000000 0.6401 0.6408 0.6415 0.6421 0.6426
3017.000000 0.6433 0.6439 0.6444 0.6450 0.6456
3012.000000 0.6461 0.6467 0.6472 0.6478 0.6485
3007.000000 0.6490 0.6495 0.6500 0.6505 0.6508
3002.000000 0.6514 0.6515 0.6515 0.6515 0.6515
2997.000000 0.6514 0.6514 0.6511 0.6515 0.6501
2992.000000 0.6495 0.6478 0.6464 0.6448 0.6433
2987.000000 0.6421 0.6411 0.6401 0.6392 0.6382
2982.000000 0.6373 0.6366 0.6360 0.6354 0.6348
2977.000000 0.6342 0.6337 0.6333 0.6329 0.6325
2972.000000 0.6321 0.6316 0.6312 0.6308 0.6304
2967.000000 0.6299 0.6295 0.6292 0.6289 0.6286
2962.000000 0.6284 0.6281 0.6278 0.6274 0.6271
2957.000000 0.6267 0.6262 0.6259 0.6256 0.6252
2952.000000 0.6248 0.6245 0.6242 0.6239 0.6237
2947.000000 0.6234 0.6231 0.6228 0.6226 0.6223
2942.000000 0.6221 0.6190 0.6159 0.6130 0.6102
2937.000000 0.6083 0.6064 0.6044 0.6025 0.6012
2932.000000 0.6000 0.5989 0.5979 0.5971 0.5964
2927.000000 0.5962 0.5962 0.5962 0.5958 0.5967
2922.000000 0.5970 0.5983 0.5997 0.6018 0.6040
2917.000000 0.6068 0.6097 0.6119 0.6141 0.6160
2912.000000 0.6181 0.6199 0.6218 0.6230 0.6243
2907.000000 0.6255 0.6268 0.6280 0.6293 0.6301
2902.000000 0.6310 0.6315 0.6321 0.6327 0.6333
2897.000000 0.6338 0.6344 0.6348 0.6353 0.6357
2892.000000 0.6362 0.6366 0.6371 0.6376 0.6381
2887.000000 0.6385 0.6404 0.6391 0.6392 0.6387
2882.000000 0.6382 0.6377 0.6372 0.6367 0.6362
2877.000000 0.6359 0.6356 0.6352 0.6349 0.6346
2872.000000 0.6343 0.6342 0.6342 0.6342 0.6342
2867.000000 0.6341 0.6341 0.6340 0.6339 0.6338
2862.000000 0.6338 0.6337 0.6337 0.6339 0.6342
2857.000000 0.6345 0.6349 0.6356 0.6365 0.6369
2852.000000 0.6376 0.6394 0.6411 0.6428 0.6447
2847.000000 0.6468 0.6492 0.6515 0.6541 0.6558
2842.000000 0.6575 0.6591 0.6607 0.6621 0.6637
2837.000000 0.6651 0.6668 0.6676 0.6687 0.6695
2832.000000 0.6704 0.6711 0.6719 0.6728 0.6737
2827.000000 0.6745 0.6753 0.6761 0.6768 0.6776
2822.000000 0.6786 0.6794 0.6801 0.6807 0.6812
2817.000000 0.6818 0.6822 0.6828 0.6833 0.6838
2812.000000 0.6843 0.6848 0.6853 0.6858 0.6862
2807.000000 0.6868 0.6872 0.6875 0.6878 0.6882
2802.000000 0.6885 0.6888 0.6891 0.6894 0.6897
2797.000000 0.6900 0.6904 0.6907 0.6910 0.6912
2792.000000 0.6915 0.6918 0.6922 0.6925 0.6930
2787.000000 0.6934 0.6938 0.6941 0.6945 0.6949
2782.000000 0.6953 0.6957 0.6961 0.6965 0.6968
2777.000000 0.6972 0.6976 0.6981 0.6985 0.6989
2772.000000 0.6993 0.6997 0.7001 0.7004 0.7008
2767.000000 0.7011 0.7015 0.7019 0.7024 0.7028
2762.000000 0.7032 0.7036 0.7040 0.7042 0.7045
2757.000000 0.7045 0.7046 0.7047 0.7048 0.7048
2752.000000 0.7049 0.7049 0.7050 0.7051 0.7051
2747.000000 0.7051 0.7053 0.7053 0.7054 0.7054
2742.000000 0.7055 0.7055 0.7056 0.7056 0.7056
2737.000000 0.7056 0.7056 0.7056 0.7057 0.7057
2732.000000 0.7057 0.7057 0.7058 0.7058 0.7058
2727.000000 0.7058 0.7058 0.7058 0.7058 0.7058
2722.000000 0.7060 0.7061 0.7064 0.7065 0.7068
2717.000000 0.7069 0.7071 0.7074 0.7075 0.7078
2712.000000 0.7081 0.7083 0.7085 0.7087 0.7089
2707.000000 0.7091 0.7093 0.7095 0.7097 0.7099
2702.000000 0.7101 0.7105 0.7108 0.7111 0.7115
2697.000000 0.7118 0.7121 0.7124 0.7126 0.7130
2692.000000 0.7134 0.7137 0.7140 0.7143 0.7146
2687.000000 0.7149 0.7153 0.7156 0.7158 0.7161
2682.000000 0.7165 0.7168 0.7171 0.7175 0.7178
2677.000000 0.7181 0.7185 0.7188 0.7191 0.7194
2672.000000 0.7198 0.7201 0.7204 0.7207 0.7211
2667.000000 0.7212 0.7215 0.7217 0.7218 0.7221
2662.000000 0.7222 0.7224 0.7225 0.7228 0.7230
2657.000000 0.7231 0.7233 0.7235 0.7237 0.7238
2652.000000 0.7240 0.7242 0.7244 0.7245 0.7247
2647.000000 0.7248 0.7249 0.7250 0.7251 0.7251
2642.000000 0.7251 0.7251 0.7253 0.7254 0.7255
2637.000000 0.7255 0.7256 0.7257 0.7258 0.7258
2632.000000 0.7258 0.7260 0.7261 0.7261 0.7261
2627.000000 0.7262 0.7264 0.7264 0.7265 0.7265
2622.000000 0.7267 0.7267 0.7268 0.7268 0.7268
2617.000000 0.7269 0.7271 0.7271 0.7271 0.7271
2612.000000 0.7272 0.7274 0.7275 0.7275 0.7275
2607.000000 0.7275 0.7276 0.7278 0.7278 0.7278
2602.000000 0.7280 0.7280 0.7280 0.7280 0.7280
2597.000000 0.7280 0.7280 0.7280 0.7280 0.7280
2592.000000 0.7281 0.7281 0.7281 0.7281 0.7281
2587.000000 0.7281 0.7281 0.7281 0.7281 0.7281
2582.000000 0.7282 0.7282 0.7282 0.7282 0.7283
2577.000000 0.7283 0.7283 0.7283 0.7284 0.7284
2572.000000 0.7284 0.7284 0.7285 0.7285 0.7286
2567.000000 0.7287 0.7288 0.7289 0.7291 0.7292
2562.000000 0.7294 0.7295 0.7297 0.7298 0.7299
2557.000000 0.7300 0.7301 0.7303 0.7305 0.7306
2552.000000 0.7308 0.7308 0.7310 0.7311 0.7312
2547.000000 0.7314 0.7315 0.7317 0.7318 0.7319
2542.000000 0.7321 0.7321 0.7321 0.7321 0.7322
2537.000000 0.7322 0.7324 0.7324 0.7325 0.7325
2532.000000 0.7325 0.7325 0.7326 0.7326 0.7328
2527.000000 0.7328 0.7330 0.7330 0.7331 0.7331
2522.000000 0.7332 0.7332 0.7333 0.7333 0.7334
2517.000000 0.7334 0.7335 0.7335 0.7336 0.7336
2512.000000 0.7337 0.7337 0.7338 0.7338 0.7339
2507.000000 0.7339 0.7340 0.7341 0.7342 0.7342
2502.000000 0.7342 0.7342 0.7342 0.7342 0.7342
2497.000000 0.7342 0.7342 0.7342 0.7342 0.7342
2492.000000 0.7342 0.7342 0.7342 0.7341 0.7341
2487.000000 0.7341 0.7341 0.7341 0.7341 0.7341
2482.000000 0.7341 0.7341 0.7341 0.7341 0.7341
2477.000000 0.7341 0.7341 0.7340 0.7340 0.7340
2472.000000 0.7340 0.7340 0.7340 0.7339 0.7339
2467.000000 0.7338 0.7338 0.7337 0.7336 0.7335
2462.000000 0.7335 0.7334 0.7334 0.7333 0.7332
2457.000000 0.7331 0.7331 0.7330 0.7330 0.7328
2452.000000 0.7328 0.7326 0.7326 0.7325 0.7325
2447.000000 0.7324 0.7322 0.7321 0.7318 0.7317
2442.000000 0.7315 0.7312 0.7311 0.7308 0.7307
2437.000000 0.7305 0.7303 0.7301 0.7299 0.7297
2432.000000 0.7295 0.7292 0.7290 0.7287 0.7284
2427.000000 0.7280 0.7276 0.7274 0.7271 0.7268
2422.000000 0.7265 0.7261 0.7258 0.7256 0.7253
2417.000000 0.7250 0.7247 0.7245 0.7244 0.7243
2412.000000 0.7243 0.7242 0.7242 0.7241 0.7240
2407.000000 0.7239 0.7239 0.7238 0.7238 0.7237
2402.000000 0.7236 0.7235 0.7235 0.7235 0.7235
2397.000000 0.7234 0.7234 0.7234 0.7234 0.7234
2392.000000 0.7234 0.7233 0.7233 0.7233 0.7233
2387.000000 0.7233 0.7233 0.7232 0.7232 0.7231
2382.000000 0.7231 0.7228 0.7228 0.7225 0.7224
2377.000000 0.7221 0.7221 0.7218 0.7218 0.7215
2372.000000 0.7215 0.7212 0.7211 0.7208 0.7206
2367.000000 0.7203 0.7201 0.7198 0.7196 0.7193
2362.000000 0.7191 0.7188 0.7185 0.7181 0.7178
2357.000000 0.7175 0.7171 0.7168 0.7165 0.7161
2352.000000 0.7158 0.7154 0.7150 0.7146 0.7143
2347.000000 0.7139 0.7136 0.7132 0.7128 0.7125
2342.000000 0.7121 0.7119 0.7118 0.7118 0.7117
2337.000000 0.7115 0.7115 0.7114 0.7112 0.7111
2332.000000 0.7110 0.7108 0.7106 0.7103 0.7101
2327.000000 0.7098 0.7096 0.7094 0.7093 0.7093
2322.000000 0.7095 0.7099 0.7104 0.7108 0.7095
2317.000000 0.7115 0.7121 0.7125 0.7128 0.7133
2312.000000 0.7138 0.7142 0.7147 0.7151 0.7155
2307.000000 0.7158 0.7164 0.7168 0.7172 0.7176
2302.000000 0.7182 0.7186 0.7191 0.7195 0.7200
2297.000000 0.7204 0.7208 0.7211 0.7214 0.7217
2292.000000 0.7221 0.7224 0.7226 0.7230 0.7234
2287.000000 0.7237 0.7240 0.7243 0.7247 0.7249
2282.000000 0.7251 0.7254 0.7257 0.7258 0.7261
2277.000000 0.7264 0.7265 0.7268 0.7271 0.7271
2272.000000 0.7274 0.7274 0.7274 0.7272 0.7272
2267.000000 0.7274 0.7275 0.7275 0.7276 0.7278
2262.000000 0.7278 0.7280 0.7281 0.7282 0.7283
2257.000000 0.7284 0.7285 0.7287 0.7289 0.7292
2252.000000 0.7295 0.7298 0.7301 0.7303 0.7306
2247.000000 0.7308 0.7311 0.7315 0.7318 0.7321
2242.000000 0.7324 0.7328 0.7334 0.7339 0.7345
2237.000000 0.7350 0.7355 0.7358 0.7364 0.7368
2232.000000 0.7372 0.7380 0.7387 0.7395 0.7403
2227.000000 0.7411 0.7419 0.7428 0.7436 0.7445
2222.000000 0.7454 0.7462 0.7471 0.7480 0.7489
2217.000000 0.7498 0.7507 0.7514 0.7521 0.7528
2212.000000 0.7534 0.7539 0.7545 0.7551 0.7557
2207.000000 0.7561 0.7568 0.7574 0.7580 0.7585
2202.000000 0.7591 0.7596 0.7601 0.7608 0.7614
2197.000000 0.7618 0.7625 0.7630 0.7636 0.7641
2192.000000 0.7647 0.7651 0.7658 0.7664 0.7669
2187.000000 0.7675 0.7681 0.7686 0.7692 0.7697
2182.000000 0.7701 0.7707 0.7711 0.7715 0.7721
2177.000000 0.7725 0.7731 0.7736 0.7741 0.7746
2172.000000 0.7751 0.7754 0.7757 0.7758 0.7761
2167.000000 0.7764 0.7767 0.7769 0.7772 0.7775
2162.000000 0.7778 0.7780 0.7782 0.7784 0.7787
2157.000000 0.7789 0.7791 0.7793 0.7796 0.7798
2152.000000 0.7800 0.7801 0.7805 0.7807 0.7808
2147.000000 0.7811 0.7814 0.7815 0.7818 0.7821
2142.000000 0.7825 0.7828 0.7831 0.7834 0.7837
2137.000000 0.7840 0.7843 0.7846 0.7849 0.7851
2132.000000 0.7855 0.7858 0.7861 0.7864 0.7867
2127.000000 0.7869 0.7874 0.7876 0.7880 0.7883
2122.000000 0.7886 0.7889 0.7892 0.7895 0.7898
2117.000000 0.7900 0.7903 0.7906 0.7908 0.7911
2112.000000 0.7914 0.7915 0.7918 0.7921 0.7924
2107.000000 0.7926 0.7930 0.7932 0.7935 0.7937
2102.000000 0.7940 0.7943 0.7946 0.7948 0.7950
2097.000000 0.7951 0.7954 0.7956 0.7958 0.7960
2092.000000 0.7962 0.7964 0.7965 0.7967 0.7968
2087.000000 0.7968 0.7968 0.7969 0.7971 0.7971
2082.000000 0.7971 0.7972 0.7974 0.7974 0.7975
2077.000000 0.7975 0.7976 0.7978 0.7980 0.7984
2072.000000 0.7988 0.7992 0.7996 0.8000 0.8005
2067.000000 0.8008 0.8012 0.8017 0.8021 0.8025
2062.000000 0.8030 0.8034 0.8039 0.8043 0.8048
2057.000000 0.8051 0.8056 0.8058 0.8061 0.8065
2052.000000 0.8068 0.8071 0.8074 0.8076 0.8080
2047.000000 0.8083 0.8086 0.8089 0.8092 0.8094
2042.000000 0.8097 0.8100 0.8103 0.8105 0.8108
2037.000000 0.8110 0.8112 0.8115 0.8118 0.8121
2032.000000 0.8124 0.8125 0.8128 0.8131 0.8133
2027.000000 0.8134 0.8136 0.8138 0.8140 0.8141
2022.000000 0.8143 0.8145 0.8147 0.8149 0.8151
2017.000000 0.8154 0.8157 0.8158 0.8161 0.8164
2012.000000 0.8167 0.8169 0.8172 0.8178 0.8184
2007.000000 0.8189 0.8195 0.8200 0.8206 0.8214
2002.000000 0.8223 0.8254 0.8286 0.8327 0.8374
1997.000000 0.8412 0.8436 0.8457 0.8461 0.8466
1992.000000 0.8470 0.8475 0.8478 0.8481 0.8483
1987.000000 0.8484 0.8486 0.8488 0.8489 0.8492
1982.000000 0.8495 0.8499 0.8504 0.8508 0.8513
1977.000000 0.8516 0.8517 0.8518 0.8518 0.8520
1972.000000 0.8521 0.8521 0.8523 0.8525 0.8528
1967.000000 0.8541 0.8566 0.8603 0.8639 0.8671
1962.000000 0.8686 0.8701 0.8698 0.8694 0.8680
1957.000000 0.8667 0.8653 0.8639 0.8625 0.8612
1952.000000 0.8602 0.8598 0.8595 0.8591 0.8588
1947.000000 0.8585 0.8583 0.8582 0.8580 0.8578
1942.000000 0.8577 0.8575 0.8575 0.8575 0.8575
1937.000000 0.8574 0.8574 0.8574 0.8573 0.8573
1932.000000 0.8571 0.8567 0.8564 0.8560 0.8552
1927.000000 0.8544 0.8518 0.8492 0.8454 0.8413
1922.000000 0.8364 0.8321 0.8316 0.8314 0.8320
1917.000000 0.8328 0.8339 0.8363 0.8387 0.8411
1912.000000 0.8430 0.8441 0.8452 0.8464 0.8470
1907.000000 0.8475 0.8481 0.8487 0.8493 0.8497
1902.000000 0.8502 0.8507 0.8511 0.8516 0.8521
1897.000000 0.8525 0.8530 0.8528 0.8528 0.8528
1892.000000 0.8528 0.8528 0.8528 0.8528 0.8528
1887.000000 0.8528 0.8528 0.8528 0.8530 0.8534
1882.000000 0.8537 0.8540 0.8543 0.8546 0.8549
1877.000000 0.8551 0.8554 0.8556 0.8559 0.8561
1872.000000 0.8562 0.8563 0.8565 0.8567 0.8568
1867.000000 0.8570 0.8571 0.8574 0.8575 0.8577
1862.000000 0.8578 0.8580 0.8582 0.8584 0.8585
1857.000000 0.8587 0.8589 0.8590 0.8592 0.8594
1852.000000 0.8595 0.8597 0.8599 0.8600 0.8602
1847.000000 0.8604 0.8606 0.8607 0.8609 0.8610
1842.000000 0.8612 0.8613 0.8615 0.8616 0.8618
1837.000000 0.8618 0.8620 0.8621 0.8623 0.8624
1832.000000 0.8625 0.8625 0.8625 0.8625 0.8627
1827.000000 0.8627 0.8628 0.8628 0.8628 0.8627
1822.000000 0.8627 0.8625 0.8625 0.8625 0.8624
1817.000000 0.8623 0.8621 0.8621 0.8621 0.8618
1812.000000 0.8616 0.8614 0.8612 0.8610 0.8608
1807.000000 0.8606 0.8604 0.8602 0.8599 0.8599
1802.000000 0.8599 0.8599 0.8600 0.8600 0.8600
1797.000000 0.8601 0.8601 0.8601 0.8602 0.8602
1792.000000 0.8604 0.8605 0.8607 0.8608 0.8609
1787.000000 0.8611 0.8612 0.8613 0.8615 0.8616
1782.000000 0.8617 0.8617 0.8617 0.8617 0.8617
1777.000000 0.8617 0.8617 0.8617 0.8617 0.8617
1772.000000 0.8615 0.8614 0.8612 0.8610 0.8609
1767.000000 0.8607 0.8605 0.8603 0.8602 0.8601
1762.000000 0.8601 0.8600 0.8599 0.8598 0.8597
1757.000000 0.8597 0.8596 0.8595 0.8593 0.8592
1752.000000 0.8590 0.8590 0.8590 0.8589 0.8588
1747.000000 0.8584 0.8581 0.8552 0.8521 0.8487
1742.000000 0.8448 0.8425 0.8427 0.8430 0.8435
1737.000000 0.8440 0.8445 0.8450 0.8456 0.8462
1732.000000 0.8471 0.8478 0.8487 0.8496 0.8503
1727.000000 0.8510 0.8517 0.8525 0.8532 0.8539
1722.000000 0.8546 0.8558 0.8568 0.8577 0.8587
1717.000000 0.8598 0.8610 0.8621 0.8634 0.8639
1712.000000 0.8641 0.8642 0.8642 0.8643 0.8642
1707.000000 0.8632 0.8614 0.8595 0.8571 0.8549
1702.000000 0.8542 0.8542 0.8542 0.8544 0.8548
1697.000000 0.8554 0.8559 0.8565 0.8570 0.8574
1692.000000 0.8575 0.8578 0.8581 0.8584 0.8570
1687.000000 0.8542 0.8516 0.8496 0.8475 0.8475
1682.000000 0.8477 0.8482 0.8487 0.8492 0.8495
1677.000000 0.8499 0.8502 0.8505 0.8505 0.8505
1672.000000 0.8503 0.8502 0.8501 0.8501 0.8495
1667.000000 0.8489 0.8483 0.8463 0.8425 0.8420
1662.000000 0.8418 0.8416 0.8403 0.8381 0.8330
1657.000000 0.8318 0.8339 0.8360 0.8381 0.8402
1652.000000 0.8423 0.8442 0.8455 0.8468 0.8481
1647.000000 0.8489 0.8496 0.8503 0.8511 0.8512
1642.000000 0.8512 0.8508 0.8505 0.8499 0.8493
1637.000000 0.8491 0.8496 0.8501 0.8506 0.8510
1632.000000 0.8515 0.8517 0.8518 0.8520 0.8525
1627.000000 0.8531 0.8536 0.8542 0.8547 0.8552
1622.000000 0.8558 0.8563 0.8568 0.8571 0.8575
1617.000000 0.8578 0.8582 0.8585 0.8587 0.8587
1612.000000 0.8588 0.8585 0.8580 0.8565 0.8417
1607.000000 0.8260 0.8101 0.7944 0.7787 0.7636
1602.000000 0.7628 0.7758 0.8039 0.8187 0.8289
1597.000000 0.8389 0.8445 0.8488 0.8528 0.8557
1592.000000 0.8583 0.8602 0.8621 0.8640 0.8654
1587.000000 0.8662 0.8668 0.8677 0.8680 0.8684
1582.000000 0.8683 0.8682 0.8671 0.8667 0.8668
1577.000000 0.8671 0.8674 0.8675 0.8681 0.8685
1572.000000 0.8690 0.8694 0.8698 0.8702 0.8706
1567.000000 0.8710 0.8717 0.8715 0.8704 0.8688
1562.000000 0.8667 0.8650 0.8657 0.8665 0.8671
1557.000000 0.8675 0.8680 0.8683 0.8687 0.8690
1552.000000 0.8694 0.8697 0.8699 0.8694 0.8690
1547.000000 0.8675 0.8655 0.8633 0.8611 0.8588
1542.000000 0.8563 0.8538 0.8589 0.8637 0.8677
1537.000000 0.8683 0.8688 0.8694 0.8701 0.8707
1532.000000 0.8713 0.8718 0.8723 0.8727 0.8714
1527.000000 0.8694 0.8678 0.8663 0.8653 0.8655
1522.000000 0.8656 0.8660 0.8664 0.8667 0.8671
1517.000000 0.8675 0.8678 0.8681 0.8675 0.8668
1512.000000 0.8642 0.8604 0.8561 0.8556 0.8555
1507.000000 0.8555 0.8557 0.8557 0.8558 0.8539
1502.000000 0.8378 0.7515 0.6834 0.6868 0.7039
1497.000000 0.7457 0.7875 0.8064 0.8126 0.8203
1492.000000 0.8289 0.8365 0.8414 0.8449 0.8462
1487.000000 0.8470 0.8478 0.8485 0.8488 0.8489
1482.000000 0.8490 0.8486 0.8478 0.8425 0.8344
1477.000000 0.8266 0.8203 0.8155 0.8107 0.8060
1472.000000 0.8015 0.7968 0.7899 0.7862 0.7825
1467.000000 0.7807 0.7799 0.7790 0.7781 0.7767
1462.000000 0.7753 0.7738 0.7731 0.7754 0.7780
1457.000000 0.7805 0.7830 0.7858 0.7885 0.7912
1452.000000 0.7941 0.7965 0.7983 0.8001 0.8019
1447.000000 0.8041 0.8061 0.8076 0.8085 0.8093
1442.000000 0.8099 0.8089 0.8075 0.8108 0.8083
1437.000000 0.8092 0.8098 0.8104 0.8110 0.8111
1432.000000 0.8111 0.8111 0.8104 0.8096 0.8056
1427.000000 0.8008 0.7958 0.7910 0.7868 0.7832
1422.000000 0.7833 0.7834 0.7848 0.7858 0.7865
1417.000000 0.7865 0.7865 0.7862 0.7858 0.7854
1412.000000 0.7834 0.7804 0.7758 0.7701 0.7636
1407.000000 0.7569 0.7504 0.7438 0.7368 0.7291
1402.000000 0.7201 0.7108 0.7015 0.6941 0.6946
1397.000000 0.6946 0.6947 0.7106 0.7246 0.7344
1392.000000 0.7414 0.7498 0.7518 0.7530 0.7556
1387.000000 0.7515 0.7472 0.7344 0.7168 0.6926
1382.000000 0.6931 0.6931 0.7100 0.7251 0.7345
1377.000000 0.7400 0.7455 0.7496 0.7533 0.7568
1372.000000 0.7594 0.7619 0.7636 0.7653 0.7657
1367.000000 0.7658 0.7658 0.7660 0.7661 0.7650
1362.000000 0.7635 0.7614 0.7583 0.7550 0.7511
1357.000000 0.7474 0.7426 0.7380 0.7319 0.7208
1352.000000 0.7076 0.6986 0.6908 0.6825 0.6730
1347.000000 0.6686 0.6651 0.6634 0.6624 0.6619
1342.000000 0.6610 0.6625 0.6647 0.6690 0.6733
1337.000000 0.6775 0.6817 0.6853 0.6886 0.6915
1332.000000 0.6930 0.6945 0.6957 0.6967 0.6976
1327.000000 0.6987 0.6992 0.6996 0.7000 0.7000
1322.000000 0.7000 0.6994 0.6987 0.6980 0.6965
1317.000000 0.6951 0.6934 0.6905 0.6876 0.6844
1312.000000 0.6796 0.6750 0.6690 0.6578 0.6533
1307.000000 0.6522 0.6515 0.6535 0.6553 0.6571
1302.000000 0.6590 0.6608 0.6618 0.6625 0.6635
1297.000000 0.6642 0.6646 0.6649 0.6653 0.6656
1292.000000 0.6660 0.6662 0.6667 0.6669 0.6671
1287.000000 0.6671 0.6671 0.6669 0.6667 0.6662
1282.000000 0.6660 0.6656 0.6651 0.6642 0.6632
1277.000000 0.6622 0.6608 0.6590 0.6571 0.6554
1272.000000 0.6536 0.6514 0.6492 0.6469 0.6447
1267.000000 0.6425 0.6401 0.6374 0.6346 0.6319
1262.000000 0.6293 0.6268 0.6242 0.6214 0.6182
1257.000000 0.6150 0.6118 0.6067 0.6012 0.5957
1252.000000 0.5902 0.5836 0.5785 0.5734 0.5683
1247.000000 0.5632 0.5580 0.5530 0.5481 0.5432
1242.000000 0.5369 0.5304 0.5239 0.5169 0.5069
1237.000000 0.4969 0.4854 0.4725 0.4534 0.4277
1232.000000 0.4007 0.3788 0.3493 0.3296 0.3018
1227.000000 0.2761 0.2500 0.2335 0.2062 0.1853
1222.000000 0.1614 0.1338 0.1146 0.1026 0.0820
1217.000000 0.0613 0.0469 0.0371 0.0305 0.0247
1212.000000 0.0202 0.0172 0.0163 0.0161 0.0160
1207.000000 0.0160 0.0159 0.0159 0.0160 0.0161
1202.000000 0.0162 0.0163 0.0164 0.0166 0.0161
1197.000000 0.0149 0.0137 0.0120 0.0113 0.0104
1192.000000 0.0094 0.0091 0.0086 0.0085 0.0098
1187.000000 0.0121 0.0162 0.0245 0.0338 0.0451
1182.000000 0.0570 0.0691 0.0815 0.0942 0.1196
1177.000000 0.1803 0.2067 0.2241 0.2456 0.2674
1172.000000 0.2831 0.2990 0.3150 0.3414 0.3628
1167.000000 0.3712 0.3798 0.3874 0.3950 0.4023
1162.000000 0.4097 0.4178 0.4232 0.4264 0.4288
1157.000000 0.4304 0.4316 0.4323 0.4331 0.4332
1152.000000 0.4337 0.4339 0.4339 0.4326 0.4299
1147.000000 0.4232 0.4162 0.4084 0.4045 0.4007
1142.000000 0.3959 0.3904 0.3809 0.3690 0.3537
1137.000000 0.2947 0.2446 0.1944 0.1442 0.0939
1132.000000 0.0439 0.0245 0.0244 0.0244 0.0292
1127.000000 0.0452 0.0622 0.0961 0.1296 0.1633
1122.000000 0.1968 0.2304 0.2640 0.2976 0.3243
1117.000000 0.3345 0.3380 0.3398 0.3397 0.3397
1112.000000 0.3339 0.3282 0.3277 0.3510 0.3859
1107.000000 0.4192 0.4514 0.4773 0.4922 0.5062
1102.000000 0.5207 0.5356 0.5491 0.5578 0.5664
1097.000000 0.5750 0.5828 0.5902 0.5976 0.6052
1092.000000 0.6135 0.6217 0.6285 0.6337 0.6389
1087.000000 0.6437 0.6485 0.6528 0.6564 0.6599
1082.000000 0.6626 0.6644 0.6661 0.6674 0.6685
1077.000000 0.6695 0.6706 0.6715 0.6725 0.6735
1072.000000 0.6744 0.6754 0.6761 0.6769 0.6778
1067.000000 0.6786 0.6794 0.6800 0.6805 0.6810
1062.000000 0.6808 0.6808 0.6818 0.6817 0.6815
1057.000000 0.6800 0.6778 0.6715 0.6635 0.6551
1052.000000 0.6465 0.6377 0.6289 0.6201 0.6067
1047.000000 0.5586 0.5323 0.4028 0.3329 0.2629
1042.000000 0.1929 0.1229 0.0529 0.0251 0.0450
1037.000000 0.1394 0.2338 0.3282 0.4226 0.4909
1032.000000 0.5448 0.5714 0.5964 0.6145 0.6304
1027.000000 0.6385 0.6441 0.6469 0.6492 0.6511
1022.000000 0.6525 0.6539 0.6528 0.6501 0.6399
1017.000000 0.5444 0.3800 0.2158 0.0515 0.0392
1012.000000 0.0803 0.2169 0.3534 0.4589 0.5112
1007.000000 0.5260 0.5404 0.5583 0.5806 0.6012
1002.000000 0.6204 0.6374 0.6518 0.6633 0.6733
997.000000 0.6803 0.6860 0.6917 0.6951 0.6985
992.000000 0.7018 0.7045 0.7069 0.7095 0.7115
987.000000 0.7134 0.7151 0.7169 0.7185 0.7199
982.000000 0.7212 0.7224 0.7233 0.7242 0.7250
977.000000 0.7251 0.7251 0.7244 0.7231 0.7204
972.000000 0.7180 0.7168 0.7168 0.7168 0.7176
967.000000 0.7186 0.7205 0.7224 0.7243 0.7262
962.000000 0.7282 0.7301 0.7319 0.7339 0.7358
957.000000 0.7384 0.7410 0.7436 0.7461 0.7494
952.000000 0.7525 0.7557 0.7589 0.7641 0.7699
947.000000 0.7755 0.7808 0.7857 0.7891 0.7911
942.000000 0.7931 0.7951 0.7969 0.7983 0.7990
937.000000 0.7996 0.8003 0.8010 0.8017 0.8022
932.000000 0.8030 0.8037 0.8043 0.8050 0.8057
927.000000 0.8062 0.8069 0.8076 0.8084 0.8090
922.000000 0.8097 0.8105 0.8114 0.8122 0.8132
917.000000 0.8140 0.8149 0.8158 0.8165 0.8174
912.000000 0.8181 0.8188 0.8194 0.8200 0.8205
907.000000 0.8211 0.8217 0.8221 0.8227 0.8231
902.000000 0.8235 0.8239 0.8243 0.8247 0.8248
897.000000 0.8249 0.8247 0.8245 0.8243 0.8237
892.000000 0.8228 0.8218 0.8211 0.8212 0.8212
887.000000 0.8213 0.8213 0.8216 0.8221 0.8228
882.000000 0.8235 0.8252 0.8271 0.8289 0.8304
877.000000 0.8317 0.8325 0.8325 0.8325 0.8327
872.000000 0.8328 0.8328 0.8328 0.8328 0.8328
867.000000 0.8328 0.8327 0.8327 0.8325 0.8325
862.000000 0.8324 0.8321 0.8320 0.8318 0.8297
857.000000 0.8268 0.8240 0.8198 0.8151 0.8104
852.000000 0.8032 0.7961 0.7689 0.6891 0.6754
847.000000 0.6736 0.7049 0.7382 0.7714 0.7968
842.000000 0.8042 0.8090 0.8130 0.8155 0.8172
837.000000 0.8188 0.8192 0.8196 0.8196 0.8197
832.000000 0.8205 0.8204 0.8203 0.8164 0.8005
827.000000 0.7788 0.7718 0.7650 0.7561 0.7440
822.000000 0.7236 0.6946 0.5897 0.4617 0.3336
817.000000 0.2056 0.1196 0.1181 0.1872 0.2882
812.000000 0.3892 0.4903 0.5912 0.6782 0.6944
807.000000 0.6981 0.7006 0.7017 0.7033 0.7065
802.000000 0.7291 0.7411 0.7558 0.7722 0.7867
797.000000 0.7997 0.8094 0.8156 0.8218 0.8252
792.000000 0.8280 0.8306 0.8328 0.8350 0.8368
787.000000 0.8385 0.8400 0.8413 0.8415 0.8417
782.000000 0.8418 0.8421 0.8424 0.8425 0.8428
777.000000 0.8428 0.8428 0.8428 0.8428 0.8428
772.000000 0.8428 0.8428 0.8428 0.8428 0.8425
767.000000 0.8421 0.8418 0.8417 0.8414 0.8411
762.000000 0.8408 0.8401 0.8389 0.8375 0.8364
757.000000 0.8347 0.8328 0.8311 0.8294 0.8277
752.000000 0.8261 0.8247 0.8234 0.8223 0.8228
747.000000 0.8235 0.8243 0.8247 0.8248 0.8248
742.000000 0.8225 0.8183 0.8134 0.8106 0.8078
737.000000 0.8053 0.8028 0.7993 0.7955 0.7915
732.000000 0.7867 0.7815 0.7761 0.7696 0.7615
727.000000 0.7540 0.7464 0.7389 0.7312 0.7251
722.000000 0.7212 0.7243 0.7312 0.7419 0.7526
717.000000 0.7635 0.7678 0.7671 0.7285 0.6728
712.000000 0.6181 0.6173 0.6342 0.6743 0.7143
707.000000 0.7544 0.7665 0.7735 0.7757 0.7772
702.000000 0.7762 0.7756 0.7689 0.6842 0.6052
697.000000 0.5262 0.4472 0.3682 0.2892 0.2102
692.000000 0.1312 0.0522 0.0238 0.0215 0.0224
687.000000 0.0248 0.0405 0.1296 0.2289 0.3282
682.000000 0.4275 0.5268 0.5487 0.5512 0.5552
677.000000 0.6415 0.7147 0.7426 0.7565 0.7753
672.000000 0.7958 0.8131 0.8263 0.8334 0.8350
667.000000 0.8365 0.8375 0.8387 0.8398 0.8408
662.000000 0.8417 0.8464 0.8503 0.8537 0.8571
657.000000 0.8599 0.8615 0.8632 0.8648 0.8655
652.000000 0.8663 0.8670 0.8677 0.8681 0.8686
647.000000 0.8691 0.8695 0.8700 0.8703 0.8707
642.000000 0.8710 0.8714 0.8717 0.8720 0.8714
637.000000 0.8723 0.8725 0.8709 0.8682 0.8656
632.000000 0.8646 0.8653 0.8660 0.8667 0.8675
627.000000 0.8668 0.8655 0.8556 0.7758 0.7721
622.000000 0.7698 0.7672 0.7417 0.7161 0.6948
617.000000 0.6945 0.7030 0.7291 0.7553 0.7814
612.000000 0.8025 0.8234 0.8459 0.8523 0.8571
607.000000 0.8587 0.8597 0.8606 0.8614 0.8628
602.000000 0.8617 0.8616 0.8608 0.8594 0.8528
597.000000 0.8437 0.8346 0.8260 0.8180 0.8107
592.000000 0.8043 0.7998 0.7955 0.7911 0.7839
587.000000 0.7747 0.7640 0.7504 0.7362 0.7075
582.000000 0.6938 0.6705 0.5819 0.5177 0.4534
577.000000 0.3892 0.3250 0.2607 0.1965 0.1322
572.000000 0.0680 0.0363 0.0367 0.1042 0.1772
567.000000 0.2502 0.3232 0.3962 0.4691 0.4714
562.000000 0.4707 0.4653 0.4476 0.4298 0.4121
557.000000 0.4129 0.4174 0.4645 0.5116 0.5587
552.000000 0.6058 0.6528 0.7134 0.7378 0.7518
547.000000 0.7625 0.7728 0.7800 0.7871 0.7941
542.000000 0.7999 0.8057 0.8115 0.8165 0.8217
537.000000 0.8246 0.8274 0.8302 0.8330 0.8358
532.000000 0.8386 0.8408 0.8428 0.8450 0.8471
527.000000 0.8492 0.8512 0.8528 0.8546 0.8563
522.000000 0.8580 0.8597 0.8614 0.8628 0.8641
517.000000 0.8654 0.8666 0.8678 0.8691 0.8704
512.000000 0.8718 0.8731 0.8744 0.8751 0.8757
507.000000 0.8764 0.8770 0.8778 0.8785 0.8790
502.000000 0.8790 0.8791 0.8790 0.8778 0.8660
497.000000 0.8473 0.8285 0.8098 0.7961 0.7964
492.000000 0.8155 0.8362 0.8568 0.8775 0.8864
487.000000 0.8927 0.8952 0.8975 0.8998 0.9018
482.000000 0.9037 0.9057 0.9077 0.9088 0.9094
477.000000 0.9101 0.9107 0.9114 0.9120 0.9127
472.000000 0.9128 0.9128 0.9128 0.9127 0.9127
467.000000 0.9127 0.9125 0.9125 0.9123 0.9121
462.000000 0.9120 0.9135 0.9117 0.9114 0.9110
457.000000 0.9106 0.9102 0.9098 0.9094 0.9090
452.000000 0.9088 0.9088 0.9087 0.9087 0.9086
447.000000 0.9086 0.9086 0.9085 0.9085 0.9085
442.000000 0.9084 0.9084 0.9086 0.9088 0.9090
437.000000 0.9092 0.9094 0.9096 0.9097 0.9099
432.000000 0.9101 0.9103 0.9105 0.9107 0.9109
427.000000 0.9111 0.9114 0.9117 0.9120 0.9123
422.000000 0.9125 0.9128 0.9132 0.9135 0.9138
417.000000 0.9141 0.9144 0.9147 0.9150 0.9152
412.000000 0.9153 0.9154 0.9154 0.9155 0.9156
407.000000 0.9157 0.9158 0.9158 0.9153 0.9149
402.000000 0.9144 0.9139 0.9131 0.9113 0.9094
397.000000 0.9071 0.9047 0.9028 0.9025 0.9023
392.000000 0.9020 0.9018 0.9018 0.9021 0.9024
387.000000 0.9027 0.9028 0.9031 0.9034 0.9038
382.000000 0.9041 0.9045
##END=
