##TITLE=Phthalimide, N-[3-(hydroxymethyl)Cyclopentyl]-, cis-
##JCAMP-DX=4.24
##DATA TYPE=INFRARED SPECTRUM
##CLASS=COBLENTZ III
##ORIGIN=SOUTHERN RESEARCH INSTITUTE
##OWNER=Copyright (C) 1987 by the Coblentz Society
Collection (C) 2018 copyright by the U.S. Secretary of Commerce
on behalf of the United States of America. All rights reserved.
##DATE=1961/05/19
##NAMES=2-[3-(hydroxymethyl)cyclopentyl]-1H-isoindole-1,3(2H)-dione
##MOLFORM=C14 H15 N O3
##SOURCE REFERENCE=COBLENTZ NO. 8666
##$NIST ID=B6008666
##$NIST SOURCE=COBLENTZ
##$NIST IMAGE=cob8666
##SPECTROMETER/DATA SYSTEM=PERKIN-ELMER 221 (GRATING)
##INSTRUMENT PARAMETERS=FILTER AT 980 CM^-^1. GRATING 4000-1428 CM^-^1, NaCl PRISM 1428-650 CM^-^1
##STATE=SOLID (1 mg / 650 mg KBr DISC)
##SAMPLING PROCEDURE=TRANSMISSION
##RESOLUTION=2
##DATA PROCESSING=DIGITIZED BY COBLENTZ SOCIETY (BATCH II) FROM HARD COPY (ADJUSTED \addcm-1\10-8-2\)
##XUNITS=1/CM
##YUNITS=TRANSMITTANCE
##XFACTOR=1.0
##YFACTOR=1
##DELTAX=1.002974
##FIRSTX=638
##LASTX=4010
##FIRSTY=0.8281
##MAXX=4010
##MINX=638
##MAXY=0.9751
##MINY=0.122277
##NPOINTS=3363
##XYDATA=(X++(Y..Y))
638.000000 0.8281 0.8489 0.8617 0.8730 0.8806
643.014868 0.8882 0.8959 0.9037 0.9170 0.9329
648.029735 0.9437 0.9474 0.9511 0.9541 0.9547
653.044603 0.9552 0.9557 0.9563 0.9566 0.9567
658.059471 0.9569 0.9571 0.9581 0.9567 0.9564
663.074338 0.9562 0.9559 0.9554 0.9550 0.9546
668.089206 0.9541 0.9537 0.9531 0.9524 0.9517
673.104074 0.9510 0.9503 0.9495 0.9488 0.9481
678.118941 0.9474 0.9467 0.9459 0.9452 0.9444
683.133809 0.9436 0.9428 0.9418 0.9387 0.9344
688.148677 0.9296 0.9212 0.9096 0.8990 0.8879
693.163544 0.8747 0.8718 0.8690 0.8664 0.8640
698.178412 0.8620 0.8598 0.8545 0.8334 0.7950
703.193280 0.7588 0.7227 0.6866 0.6505 0.6143
708.208147 0.5782 0.5421 0.5059 0.4698 0.4337
713.223015 0.3975 0.3634 0.3432 0.3454 0.3499
718.237883 0.3766 0.4407 0.5048 0.5690 0.6331
723.252751 0.6973 0.7668 0.8330 0.8432 0.8534
728.267618 0.8633 0.8720 0.8801 0.8883 0.8978
733.282486 0.9107 0.9240 0.9350 0.9422 0.9464
738.297354 0.9505 0.9547 0.9581 0.9598 0.9611
743.312221 0.9623 0.9636 0.9648 0.9657 0.9660
748.327089 0.9663 0.9666 0.9673 0.9681 0.9672
753.341957 0.9670 0.9668 0.9665 0.9663 0.9660
758.356824 0.9658 0.9655 0.9653 0.9650 0.9645
763.371692 0.9639 0.9633 0.9627 0.9621 0.9615
768.386560 0.9609 0.9602 0.9593 0.9585 0.9576
773.401427 0.9568 0.9559 0.9551 0.9541 0.9527
778.416295 0.9513 0.9499 0.9485 0.9471 0.9456
783.431163 0.9441 0.9423 0.9404 0.9386 0.9345
788.446030 0.9238 0.9086 0.8934 0.8782 0.8629
793.460898 0.8477 0.8353 0.8291 0.8338 0.8462
798.475766 0.8578 0.8695 0.8810 0.8925 0.9040
803.490633 0.9155 0.9270 0.9385 0.9500 0.9580
808.505501 0.9602 0.9610 0.9614 0.9618 0.9625
813.520369 0.9626 0.9626 0.9626 0.9626 0.9624
818.535236 0.9621 0.9619 0.9616 0.9611 0.9606
823.550104 0.9601 0.9596 0.9591 0.9585 0.9580
828.564972 0.9574 0.9568 0.9562 0.9556 0.9550
833.579839 0.9544 0.9534 0.9525 0.9515 0.9506
838.594707 0.9496 0.9485 0.9472 0.9457 0.9442
843.609575 0.9427 0.9412 0.9398 0.9383 0.9368
848.624442 0.9356 0.9345 0.9334 0.9323 0.9311
853.639310 0.9300 0.9293 0.9288 0.9282 0.9277
858.654178 0.9275 0.9274 0.9274 0.9273 0.9271
863.669045 0.9270 0.9269 0.9268 0.9267 0.9254
868.683913 0.9236 0.9198 0.9160 0.9090 0.9016
873.698781 0.8929 0.8839 0.8754 0.8668 0.8569
878.713649 0.8476 0.8404 0.8335 0.8269 0.8271
883.728516 0.8347 0.8430 0.8513 0.8596 0.8679
888.743384 0.8763 0.8845 0.8928 0.9012 0.9094
893.758252 0.9178 0.9261 0.9344 0.9427 0.9510
898.773119 0.9556 0.9564 0.9564 0.9563 0.9562
903.787987 0.9560 0.9564 0.9559 0.9553 0.9547
908.802855 0.9541 0.9535 0.9529 0.9521 0.9513
913.817722 0.9505 0.9496 0.9487 0.9478 0.9469
918.832590 0.9458 0.9447 0.9436 0.9425 0.9414
923.847458 0.9403 0.9391 0.9379 0.9367 0.9356
928.862325 0.9344 0.9332 0.9318 0.9303 0.9288
933.877193 0.9273 0.9258 0.9242 0.9221 0.9194
938.892061 0.9169 0.9143 0.9117 0.9090 0.9055
943.906928 0.9016 0.8976 0.8931 0.8878 0.8808
948.921796 0.8644 0.8503 0.8512 0.8524 0.8536
953.936664 0.8547 0.8561 0.8575 0.8589 0.8603
958.951531 0.8617 0.8630 0.8643 0.8657 0.8669
963.966399 0.8677 0.8684 0.8689 0.8688 0.8682
968.981267 0.8673 0.8658 0.8639 0.8617 0.8588
973.996134 0.8553 0.8503 0.8477 0.8687 0.9299
979.011002 0.9751 0.9729 0.9615 0.9427 0.9239
984.025870 0.9051 0.8869 0.8735 0.8717 0.8699
989.040737 0.8683 0.8666 0.8648 0.8629 0.8611
994.055605 0.8592 0.8571 0.8549 0.8529 0.8506
999.070473 0.8483 0.8458 0.8434 0.8409 0.8384
1004.085340 0.8357 0.8329 0.8303 0.8276 0.8248
1009.100208 0.8220 0.8186 0.8153 0.8121 0.8087
1014.115076 0.8054 0.8019 0.7984 0.7949 0.7914
1019.129944 0.7879 0.7844 0.7794 0.7744 0.7693
1024.144811 0.7634 0.7558 0.7482 0.7406 0.7330
1029.159679 0.7253 0.7200 0.7192 0.7194 0.7228
1034.174547 0.7284 0.7346 0.7394 0.7409 0.7417
1039.189414 0.7425 0.7425 0.7424 0.7423 0.7411
1044.204282 0.7358 0.7238 0.7104 0.6969 0.6834
1049.219150 0.6699 0.6564 0.6430 0.6295 0.6160
1054.234017 0.6095 0.6103 0.6090 0.6117 0.6287
1059.248885 0.6510 0.6734 0.6957 0.7113 0.7150
1064.263753 0.7144 0.7136 0.7124 0.7106 0.7080
1069.278620 0.7046 0.7013 0.6982 0.6951 0.6911
1074.293488 0.6865 0.6824 0.6791 0.6763 0.6748
1079.308356 0.6748 0.6753 0.6762 0.6781 0.6880
1084.323223 0.7056 0.7242 0.7429 0.7616 0.7802
1089.338091 0.7989 0.8144 0.8208 0.8210 0.8210
1094.352959 0.8169 0.8078 0.7978 0.7878 0.7779
1099.367826 0.7679 0.7579 0.7479 0.7379 0.7279
1104.382694 0.7179 0.7114 0.7106 0.7103 0.7140
1109.397562 0.7226 0.7330 0.7435 0.7539 0.7644
1114.412429 0.7748 0.7853 0.7957 0.8061 0.8166
1119.427297 0.8270 0.8374 0.8479 0.8584 0.8688
1124.442165 0.8796 0.8902 0.8953 0.8980 0.8991
1129.457032 0.9003 0.9009 0.9005 0.8984 0.9016
1134.471900 0.9013 0.9008 0.9003 0.8996 0.8982
1139.486768 0.8966 0.8950 0.8933 0.8911 0.8888
1144.501635 0.8845 0.8767 0.8702 0.8656 0.8630
1149.516503 0.8623 0.8622 0.8622 0.8627 0.8631
1154.531371 0.8635 0.8640 0.8644 0.8652 0.8665
1159.546238 0.8678 0.8691 0.8709 0.8729 0.8751
1164.561106 0.8796 0.8833 0.8853 0.8871 0.8878
1169.575974 0.8879 0.8879 0.8880 0.8875 0.8867
1174.590842 0.8858 0.8845 0.8831 0.8813 0.8717
1179.605709 0.8609 0.8500 0.8392 0.8335 0.8331
1184.620577 0.8335 0.8380 0.8439 0.8498 0.8557
1189.635445 0.8616 0.8675 0.8734 0.8793 0.8839
1194.650312 0.8864 0.8883 0.8897 0.8909 0.8920
1199.665180 0.8929 0.8937 0.8939 0.8939 0.8939
1204.680048 0.8937 0.8933 0.8928 0.8918 0.8906
1209.694915 0.8894 0.8881 0.8866 0.8850 0.8834
1214.709783 0.8816 0.8799 0.8781 0.8767 0.8756
1219.724651 0.8745 0.8734 0.8723 0.8717 0.8715
1224.739518 0.8714 0.8712 0.8711 0.8709 0.8708
1229.754386 0.8706 0.8705 0.8704 0.8704 0.8703
1234.769254 0.8703 0.8703 0.8702 0.8702 0.8700
1239.784121 0.8699 0.8698 0.8696 0.8695 0.8694
1244.798989 0.8692 0.8691 0.8689 0.8687 0.8685
1249.813857 0.8683 0.8682 0.8680 0.8678 0.8676
1254.828724 0.8674 0.8672 0.8670 0.8668 0.8665
1259.843592 0.8663 0.8660 0.8657 0.8654 0.8651
1264.858460 0.8649 0.8646 0.8643 0.8638 0.8630
1269.873327 0.8622 0.8614 0.8604 0.8583 0.8561
1274.888195 0.8538 0.8510 0.8480 0.8449 0.8421
1279.903063 0.8403 0.8388 0.8375 0.8370 0.8372
1284.917930 0.8374 0.8377 0.8380 0.8383 0.8385
1289.932798 0.8388 0.8392 0.8398 0.8404 0.8410
1294.947666 0.8417 0.8423 0.8429 0.8435 0.8441
1299.962533 0.8446 0.8452 0.8458 0.8463 0.8469
1304.977401 0.8472 0.8466 0.8460 0.8455 0.8444
1309.992269 0.8418 0.8393 0.8366 0.8337 0.8308
1315.007136 0.8281 0.8251 0.8210 0.8166 0.8122
1320.022004 0.8075 0.8025 0.7974 0.7923 0.7872
1325.036872 0.7776 0.7671 0.7587 0.7513 0.7440
1330.051740 0.7348 0.7253 0.7179 0.7149 0.7129
1335.066607 0.7136 0.7190 0.7253 0.7317 0.7380
1340.081475 0.7444 0.7508 0.7523 0.7517 0.7506
1345.096343 0.7490 0.7468 0.7438 0.7393 0.7331
1350.111210 0.7254 0.7163 0.7071 0.6987 0.6907
1355.126078 0.6829 0.6751 0.6673 0.6589 0.6493
1360.140946 0.6388 0.6273 0.6145 0.6007 0.5865
1365.155813 0.5724 0.5583 0.5441 0.5300 0.5159
1370.170681 0.5017 0.4876 0.4735 0.4593 0.4457
1375.185549 0.4338 0.4011 0.3627 0.3483 0.3412
1380.200416 0.3374 0.3354 0.3351 0.3338 0.3395
1385.215284 0.3596 0.3802 0.4009 0.4216 0.4423
1390.230152 0.4629 0.4836 0.5043 0.5250 0.5457
1395.245019 0.5663 0.5843 0.5950 0.6015 0.6113
1400.259887 0.6297 0.6510 0.6723 0.6936 0.7149
1405.274755 0.7342 0.7457 0.7508 0.7553 0.7586
1410.289622 0.7630 0.7752 0.7995 0.8239 0.8481
1415.304490 0.8691 0.8743 0.8769 0.8792 0.8815
1420.319358 0.8837 0.8858 0.8872 0.8885 0.8899
1425.334225 0.8913 0.8924 0.8931 0.8938 0.8945
1430.349093 0.8947 0.8949 0.8951 0.8954 0.8956
1435.363961 0.8958 0.8950 0.8905 0.8916 0.8897
1440.378828 0.8876 0.8854 0.8818 0.8780 0.8739
1445.393696 0.8688 0.8640 0.8595 0.8565 0.8538
1450.408564 0.8514 0.8493 0.8475 0.8460 0.8445
1455.423431 0.8253 0.8086 0.7948 0.7718 0.7457
1460.438299 0.7197 0.7074 0.7056 0.7060 0.7032
1465.453167 0.7146 0.7316 0.7476 0.7637 0.7798
1470.468034 0.7959 0.8120 0.8281 0.8441 0.8602
1475.482902 0.8763 0.8923 0.9084 0.9247 0.9346
1480.497770 0.9377 0.9396 0.9412 0.9427 0.9437
1485.512638 0.9444 0.9452 0.9429 0.9424 0.9462
1490.527505 0.9463 0.9463 0.9459 0.9453 0.9447
1495.542373 0.9441 0.9435 0.9429 0.9423 0.9417
1500.557241 0.9410 0.9404 0.9398 0.9391 0.9383
1505.572108 0.9376 0.9368 0.9361 0.9354 0.9345
1510.586976 0.9336 0.9327 0.9318 0.9309 0.9300
1515.601844 0.9290 0.9281 0.9270 0.9260 0.9249
1520.616711 0.9238 0.9227 0.9216 0.9205 0.9194
1525.631579 0.9185 0.9177 0.9169 0.9160 0.9151
1530.646447 0.9143 0.9134 0.9125 0.9117 0.9109
1535.661314 0.9101 0.9093 0.9086 0.9079 0.9071
1540.676182 0.9063 0.9056 0.9048 0.9040 0.9032
1545.691050 0.9023 0.9014 0.9005 0.8996 0.8987
1550.705917 0.8978 0.8968 0.8959 0.8950 0.8941
1555.720785 0.8932 0.8921 0.8910 0.8899 0.8888
1560.735653 0.8877 0.8866 0.8856 0.8845 0.8834
1565.750520 0.8823 0.8810 0.8796 0.8781 0.8766
1570.765388 0.8751 0.8736 0.8721 0.8707 0.8693
1575.780256 0.8678 0.8661 0.8640 0.8618 0.8596
1580.795123 0.8574 0.8552 0.8531 0.8507 0.8480
1585.809991 0.8451 0.8422 0.8393 0.8364 0.8335
1590.824859 0.8303 0.8272 0.8240 0.8209 0.8178
1595.839726 0.8148 0.8119 0.8090 0.8061 0.8032
1600.854594 0.8004 0.7975 0.7945 0.7916 0.7888
1605.869462 0.7863 0.7850 0.7840 0.7833 0.7832
1610.884329 0.7843 0.7871 0.7896 0.7917 0.7938
1615.899197 0.7955 0.7970 0.7983 0.7984 0.7983
1620.914065 0.7982 0.7979 0.7977 0.7972 0.7965
1625.928933 0.7956 0.7947 0.7937 0.7928 0.7916
1630.943800 0.7899 0.7882 0.7868 0.7853 0.7838
1635.958668 0.7823 0.7807 0.7790 0.7774 0.7758
1640.973536 0.7741 0.7724 0.7707 0.7690 0.7673
1645.988403 0.7655 0.7637 0.7619 0.7601 0.7582
1651.003271 0.7562 0.7534 0.7505 0.7476 0.7437
1656.018139 0.7394 0.7350 0.7306 0.7253 0.7194
1661.033006 0.7121 0.7035 0.6944 0.6879 0.6826
1666.047874 0.6774 0.6721 0.6668 0.6598 0.6517
1671.062742 0.6436 0.6355 0.6280 0.6208 0.6136
1676.077609 0.6064 0.5987 0.5904 0.5819 0.5733
1681.092477 0.5644 0.5526 0.5384 0.5253 0.5138
1686.107345 0.5029 0.4917 0.4799 0.4664 0.4514
1691.122212 0.4368 0.4121 0.3795 0.3675 0.3562
1696.137080 0.3368 0.3076 0.2785 0.2494 0.2203
1701.151948 0.1911 0.1620 0.1360 0.1231 0.1223
1706.166815 0.1234 0.1271 0.1246 0.1301 0.1502
1711.181683 0.1705 0.1908 0.2111 0.2314 0.2517
1716.196551 0.2720 0.2923 0.3126 0.3330 0.3532
1721.211418 0.3736 0.3939 0.4142 0.4345 0.4547
1726.226286 0.4751 0.4954 0.5157 0.5360 0.5563
1731.241154 0.5766 0.5969 0.6172 0.6375 0.6578
1736.256021 0.6791 0.7017 0.7190 0.7336 0.7427
1741.270889 0.7473 0.7511 0.7531 0.7549 0.7560
1746.285757 0.7564 0.7570 0.7571 0.7562 0.7552
1751.300624 0.7536 0.7507 0.7445 0.7323 0.7190
1756.315492 0.7057 0.6925 0.6792 0.6659 0.6526
1761.330360 0.6393 0.6261 0.6128 0.5995 0.5880
1766.345227 0.5829 0.5832 0.5834 0.5836 0.5897
1771.360095 0.6095 0.6347 0.6600 0.6853 0.7106
1776.374963 0.7358 0.7620 0.7854 0.7984 0.8054
1781.389831 0.8170 0.8395 0.8641 0.8886 0.9049
1786.404698 0.9082 0.9106 0.9130 0.9154 0.9179
1791.419566 0.9205 0.9238 0.9277 0.9314 0.9344
1796.434434 0.9369 0.9395 0.9414 0.9428 0.9443
1801.449301 0.9455 0.9465 0.9473 0.9481 0.9489
1806.464169 0.9497 0.9505 0.9512 0.9517 0.9522
1811.479037 0.9528 0.9533 0.9538 0.9544 0.9549
1816.493904 0.9554 0.9558 0.9564 0.9569 0.9574
1821.508772 0.9578 0.9582 0.9586 0.9610 0.9612
1826.523640 0.9596 0.9600 0.9603 0.9607 0.9610
1831.538507 0.9614 0.9617 0.9620 0.9623 0.9626
1836.553375 0.9629 0.9631 0.9633 0.9634 0.9635
1841.568243 0.9636 0.9637 0.9637 0.9637 0.9638
1846.583110 0.9638 0.9638 0.9639 0.9639 0.9638
1851.597978 0.9638 0.9638 0.9638 0.9637 0.9637
1856.612846 0.9637 0.9636 0.9634 0.9632 0.9630
1861.627713 0.9627 0.9625 0.9623 0.9621 0.9619
1866.642581 0.9617 0.9615 0.9615 0.9615 0.9615
1871.657449 0.9615 0.9615 0.9615 0.9615 0.9615
1876.672316 0.9615 0.9615 0.9615 0.9615 0.9614
1881.687184 0.9614 0.9614 0.9614 0.9614 0.9614
1886.702052 0.9614 0.9614 0.9613 0.9613 0.9613
1891.716919 0.9613 0.9613 0.9613 0.9613 0.9612
1896.731787 0.9612 0.9612 0.9612 0.9612 0.9611
1901.746655 0.9610 0.9610 0.9609 0.9608 0.9607
1906.761522 0.9607 0.9606 0.9605 0.9604 0.9604
1911.776390 0.9603 0.9602 0.9602 0.9601 0.9600
1916.791258 0.9599 0.9599 0.9598 0.9597 0.9596
1921.806125 0.9596 0.9595 0.9594 0.9594 0.9593
1926.820993 0.9592 0.9592 0.9591 0.9591 0.9590
1931.835861 0.9590 0.9589 0.9588 0.9588 0.9587
1936.850729 0.9587 0.9586 0.9586 0.9585 0.9584
1941.865596 0.9584 0.9583 0.9583 0.9582 0.9582
1946.880464 0.9581 0.9580 0.9580 0.9579 0.9579
1951.895332 0.9578 0.9578 0.9577 0.9577 0.9576
1956.910199 0.9575 0.9575 0.9574 0.9573 0.9572
1961.925067 0.9571 0.9571 0.9570 0.9569 0.9568
1966.939935 0.9567 0.9567 0.9566 0.9565 0.9564
1971.954802 0.9563 0.9563 0.9562 0.9561 0.9560
1976.969670 0.9559 0.9559 0.9558 0.9557 0.9556
1981.984538 0.9555 0.9555 0.9554 0.9553 0.9552
1986.999405 0.9551 0.9551 0.9550 0.9549 0.9548
1992.014273 0.9547 0.9546 0.9546 0.9545 0.9544
1997.029141 0.9543 0.9542 0.9542 0.9541 0.9540
2002.044008 0.9539 0.9538 0.9538 0.9537 0.9536
2007.058876 0.9535 0.9534 0.9533 0.9532 0.9531
2012.073744 0.9531 0.9530 0.9529 0.9528 0.9527
2017.088611 0.9526 0.9525 0.9524 0.9523 0.9522
2022.103479 0.9521 0.9520 0.9519 0.9519 0.9518
2027.118347 0.9517 0.9516 0.9515 0.9514 0.9513
2032.133214 0.9512 0.9511 0.9510 0.9509 0.9508
2037.148082 0.9507 0.9507 0.9506 0.9505 0.9504
2042.162950 0.9503 0.9502 0.9501 0.9500 0.9499
2047.177817 0.9498 0.9497 0.9496 0.9495 0.9495
2052.192685 0.9494 0.9493 0.9493 0.9492 0.9492
2057.207553 0.9491 0.9490 0.9490 0.9489 0.9488
2062.222420 0.9488 0.9487 0.9486 0.9486 0.9485
2067.237288 0.9484 0.9484 0.9483 0.9482 0.9482
2072.252156 0.9481 0.9480 0.9480 0.9479 0.9478
2077.267023 0.9478 0.9477 0.9476 0.9476 0.9475
2082.281891 0.9474 0.9474 0.9473 0.9472 0.9472
2087.296759 0.9471 0.9470 0.9470 0.9469 0.9468
2092.311627 0.9468 0.9467 0.9466 0.9466 0.9465
2097.326494 0.9465 0.9464 0.9464 0.9463 0.9463
2102.341362 0.9463 0.9462 0.9462 0.9461 0.9461
2107.356230 0.9460 0.9460 0.9459 0.9459 0.9458
2112.371097 0.9458 0.9457 0.9457 0.9456 0.9456
2117.385965 0.9455 0.9455 0.9454 0.9454 0.9453
2122.400833 0.9453 0.9453 0.9452 0.9452 0.9451
2127.415700 0.9451 0.9450 0.9450 0.9449 0.9449
2132.430568 0.9448 0.9448 0.9447 0.9447 0.9446
2137.445436 0.9446 0.9445 0.9445 0.9444 0.9444
2142.460303 0.9443 0.9443 0.9442 0.9442 0.9442
2147.475171 0.9441 0.9441 0.9440 0.9440 0.9439
2152.490039 0.9439 0.9438 0.9437 0.9437 0.9436
2157.504906 0.9436 0.9435 0.9434 0.9433 0.9432
2162.519774 0.9432 0.9431 0.9430 0.9429 0.9428
2167.534642 0.9428 0.9427 0.9426 0.9425 0.9425
2172.549509 0.9424 0.9423 0.9422 0.9421 0.9421
2177.564377 0.9420 0.9419 0.9418 0.9417 0.9417
2182.579245 0.9416 0.9415 0.9414 0.9413 0.9413
2187.594112 0.9412 0.9411 0.9410 0.9409 0.9409
2192.608980 0.9408 0.9407 0.9406 0.9405 0.9405
2197.623848 0.9404 0.9403 0.9402 0.9402 0.9401
2202.638715 0.9400 0.9399 0.9398 0.9398 0.9397
2207.653583 0.9396 0.9395 0.9394 0.9393 0.9392
2212.668451 0.9390 0.9389 0.9387 0.9385 0.9384
2217.683318 0.9382 0.9380 0.9379 0.9377 0.9375
2222.698186 0.9374 0.9372 0.9370 0.9369 0.9367
2227.713054 0.9365 0.9364 0.9362 0.9360 0.9358
2232.727921 0.9357 0.9355 0.9353 0.9352 0.9350
2237.742789 0.9348 0.9347 0.9345 0.9343 0.9341
2242.757657 0.9339 0.9338 0.9336 0.9334 0.9333
2247.772525 0.9331 0.9330 0.9329 0.9328 0.9326
2252.787392 0.9325 0.9324 0.9323 0.9322 0.9321
2257.802260 0.9319 0.9318 0.9317 0.9316 0.9315
2262.817128 0.9314 0.9312 0.9311 0.9310 0.9309
2267.831995 0.9308 0.9306 0.9305 0.9304 0.9303
2272.846863 0.9302 0.9301 0.9299 0.9298 0.9297
2277.861731 0.9296 0.9295 0.9294 0.9292 0.9291
2282.876598 0.9290 0.9289 0.9288 0.9286 0.9285
2287.891466 0.9284 0.9283 0.9282 0.9281 0.9280
2292.906334 0.9279 0.9278 0.9277 0.9277 0.9276
2297.921201 0.9275 0.9275 0.9274 0.9273 0.9273
2302.936069 0.9272 0.9271 0.9270 0.9270 0.9269
2307.950937 0.9268 0.9268 0.9267 0.9266 0.9265
2312.965804 0.9265 0.9264 0.9263 0.9263 0.9262
2317.980672 0.9261 0.9261 0.9260 0.9259 0.9258
2322.995540 0.9258 0.9257 0.9256 0.9256 0.9255
2328.010407 0.9254 0.9253 0.9252 0.9250 0.9248
2333.025275 0.9247 0.9245 0.9244 0.9242 0.9240
2338.040143 0.9239 0.9237 0.9236 0.9234 0.9232
2343.055010 0.9231 0.9229 0.9228 0.9226 0.9224
2348.069878 0.9223 0.9221 0.9219 0.9218 0.9216
2353.084746 0.9215 0.9213 0.9211 0.9210 0.9208
2358.099613 0.9207 0.9205 0.9203 0.9202 0.9200
2363.114481 0.9199 0.9197 0.9195 0.9194 0.9192
2368.129349 0.9191 0.9189 0.9187 0.9186 0.9184
2373.144216 0.9183 0.9181 0.9179 0.9176 0.9174
2378.159084 0.9172 0.9170 0.9168 0.9166 0.9164
2383.173952 0.9161 0.9159 0.9157 0.9155 0.9153
2388.188820 0.9151 0.9149 0.9147 0.9144 0.9142
2393.203687 0.9140 0.9138 0.9136 0.9134 0.9132
2398.218555 0.9130 0.9127 0.9125 0.9123 0.9121
2403.233423 0.9119 0.9117 0.9115 0.9113 0.9110
2408.248290 0.9107 0.9105 0.9103 0.9101 0.9099
2413.263158 0.9097 0.9095 0.9093 0.9090 0.9088
2418.278026 0.9086 0.9084 0.9082 0.9080 0.9078
2423.292893 0.9076 0.9074 0.9071 0.9069 0.9067
2428.307761 0.9065 0.9063 0.9061 0.9059 0.9057
2433.322629 0.9054 0.9052 0.9050 0.9048 0.9046
2438.337496 0.9044 0.9042 0.9040 0.9037 0.9035
2443.352364 0.9033 0.9031 0.9030 0.9029 0.9028
2448.367232 0.9026 0.9025 0.9024 0.9023 0.9022
2453.382099 0.9021 0.9020 0.9019 0.9018 0.9017
2458.396967 0.9016 0.9015 0.9013 0.9012 0.9011
2463.411835 0.9010 0.9009 0.9008 0.9007 0.9006
2468.426702 0.9005 0.9004 0.9003 0.9001 0.9000
2473.441570 0.8999 0.8998 0.8997 0.8996 0.8995
2478.456438 0.8994 0.8993 0.8992 0.8991 0.8990
2483.471305 0.8988 0.8987 0.8986 0.8985 0.8984
2488.486173 0.8983 0.8982 0.8981 0.8980 0.8979
2493.501041 0.8978 0.8976 0.8975 0.8973 0.8972
2498.515908 0.8971 0.8970 0.8968 0.8967 0.8966
2503.530776 0.8965 0.8964 0.8962 0.8961 0.8960
2508.545644 0.8959 0.8957 0.8956 0.8955 0.8954
2513.560511 0.8953 0.8951 0.8950 0.8949 0.8948
2518.575379 0.8946 0.8945 0.8944 0.8943 0.8942
2523.590247 0.8940 0.8939 0.8938 0.8937 0.8935
2528.605114 0.8934 0.8933 0.8932 0.8931 0.8929
2533.619982 0.8928 0.8927 0.8926 0.8924 0.8923
2538.634850 0.8921 0.8920 0.8918 0.8916 0.8915
2543.649718 0.8913 0.8911 0.8910 0.8908 0.8907
2548.664585 0.8905 0.8903 0.8902 0.8900 0.8899
2553.679453 0.8897 0.8895 0.8894 0.8892 0.8891
2558.694321 0.8889 0.8887 0.8886 0.8884 0.8883
2563.709188 0.8881 0.8879 0.8878 0.8876 0.8875
2568.724056 0.8873 0.8871 0.8870 0.8868 0.8867
2573.738924 0.8865 0.8863 0.8862 0.8860 0.8859
2578.753791 0.8856 0.8855 0.8853 0.8850 0.8848
2583.768659 0.8845 0.8843 0.8840 0.8838 0.8835
2588.783527 0.8832 0.8830 0.8827 0.8825 0.8822
2593.798394 0.8820 0.8817 0.8815 0.8812 0.8809
2598.813262 0.8807 0.8804 0.8802 0.8799 0.8797
2603.828130 0.8794 0.8792 0.8789 0.8786 0.8783
2608.842997 0.8781 0.8778 0.8776 0.8773 0.8771
2613.857865 0.8768 0.8765 0.8763 0.8760 0.8758
2618.872733 0.8756 0.8753 0.8751 0.8749 0.8747
2623.887600 0.8745 0.8743 0.8741 0.8739 0.8737
2628.902468 0.8735 0.8733 0.8731 0.8729 0.8727
2633.917336 0.8725 0.8723 0.8720 0.8718 0.8716
2638.932203 0.8714 0.8712 0.8710 0.8708 0.8706
2643.947071 0.8704 0.8702 0.8701 0.8701 0.8702
2648.961939 0.8702 0.8703 0.8703 0.8704 0.8704
2653.976806 0.8705 0.8705 0.8706 0.8706 0.8707
2658.991674 0.8708 0.8708 0.8709 0.8709 0.8710
2664.006542 0.8710 0.8711 0.8711 0.8712 0.8712
2669.021409 0.8713 0.8714 0.8714 0.8715 0.8715
2674.036277 0.8716 0.8716 0.8717 0.8717 0.8718
2679.051145 0.8718 0.8719 0.8719 0.8720 0.8721
2684.066012 0.8721 0.8722 0.8722 0.8723 0.8722
2689.080880 0.8720 0.8719 0.8717 0.8715 0.8714
2694.095748 0.8712 0.8711 0.8709 0.8707 0.8706
2699.110616 0.8704 0.8703 0.8701 0.8699 0.8698
2704.125483 0.8696 0.8694 0.8693 0.8691 0.8690
2709.140351 0.8689 0.8688 0.8687 0.8686 0.8685
2714.155219 0.8684 0.8683 0.8682 0.8681 0.8679
2719.170086 0.8678 0.8677 0.8676 0.8675 0.8674
2724.184954 0.8673 0.8672 0.8671 0.8670 0.8669
2729.199822 0.8667 0.8666 0.8665 0.8664 0.8663
2734.214689 0.8661 0.8659 0.8657 0.8655 0.8653
2739.229557 0.8651 0.8649 0.8647 0.8645 0.8643
2744.244425 0.8641 0.8639 0.8637 0.8634 0.8632
2749.259292 0.8630 0.8628 0.8626 0.8624 0.8622
2754.274160 0.8619 0.8615 0.8611 0.8606 0.8602
2759.289028 0.8597 0.8593 0.8589 0.8584 0.8579
2764.303895 0.8575 0.8571 0.8566 0.8562 0.8557
2769.318763 0.8553 0.8549 0.8544 0.8540 0.8535
2774.333631 0.8527 0.8518 0.8510 0.8501 0.8493
2779.348498 0.8484 0.8476 0.8467 0.8459 0.8450
2784.363366 0.8442 0.8437 0.8434 0.8431 0.8428
2789.378234 0.8425 0.8422 0.8419 0.8416 0.8414
2794.393101 0.8415 0.8418 0.8420 0.8422 0.8424
2799.407969 0.8427 0.8429 0.8431 0.8434 0.8436
2804.422837 0.8439 0.8441 0.8443 0.8445 0.8447
2809.437704 0.8448 0.8450 0.8452 0.8453 0.8450
2814.452572 0.8445 0.8440 0.8436 0.8431 0.8426
2819.467440 0.8418 0.8406 0.8394 0.8382 0.8370
2824.482307 0.8354 0.8334 0.8315 0.8296 0.8276
2829.497175 0.8257 0.8237 0.8217 0.8194 0.8169
2834.512043 0.8144 0.8119 0.8093 0.8068 0.8043
2839.526910 0.8016 0.7984 0.7949 0.7913 0.7877
2844.541778 0.7842 0.7804 0.7766 0.7726 0.7686
2849.556646 0.7646 0.7607 0.7564 0.7520 0.7476
2854.571514 0.7431 0.7387 0.7343 0.7283 0.7208
2859.586381 0.7129 0.7064 0.7014 0.6967 0.6920
2864.601249 0.6882 0.6853 0.6830 0.6820 0.6814
2869.616117 0.6817 0.6826 0.6834 0.6841 0.6855
2874.630984 0.6878 0.6912 0.6953 0.7005 0.7064
2879.645852 0.7131 0.7203 0.7261 0.7299 0.7330
2884.660720 0.7362 0.7394 0.7422 0.7449 0.7475
2889.675587 0.7499 0.7518 0.7534 0.7544 0.7551
2894.690455 0.7556 0.7555 0.7551 0.7547 0.7550
2899.705323 0.7537 0.7525 0.7515 0.7501 0.7484
2904.720190 0.7467 0.7450 0.7425 0.7399 0.7371
2909.735058 0.7343 0.7314 0.7285 0.7255 0.7226
2914.749926 0.7197 0.7168 0.7139 0.7109 0.7080
2919.764793 0.7051 0.7023 0.6994 0.6967 0.6941
2924.779661 0.6917 0.6895 0.6872 0.6851 0.6837
2929.794529 0.6826 0.6814 0.6803 0.6791 0.6783
2934.809396 0.6777 0.6772 0.6766 0.6761 0.6756
2939.824264 0.6753 0.6751 0.6750 0.6749 0.6748
2944.839132 0.6747 0.6746 0.6745 0.6744 0.6753
2949.853999 0.6747 0.6748 0.6749 0.6751 0.6753
2954.868867 0.6754 0.6756 0.6759 0.6763 0.6769
2959.883735 0.6775 0.6781 0.6788 0.6795 0.6802
2964.898602 0.6809 0.6842 0.6935 0.7036 0.7136
2969.913470 0.7236 0.7338 0.7438 0.7538 0.7639
2974.928338 0.7739 0.7839 0.7939 0.8041 0.8141
2979.943205 0.8226 0.8293 0.8348 0.8388 0.8427
2984.958073 0.8459 0.8483 0.8507 0.8523 0.8534
2989.972941 0.8543 0.8553 0.8563 0.8572 0.8574
2994.987809 0.8577 0.8580 0.8583 0.8586 0.8588
3000.002676 0.8636 0.8592 0.8591 0.8590 0.8588
3005.017544 0.8587 0.8586 0.8584 0.8583 0.8578
3010.032412 0.8573 0.8568 0.8562 0.8557 0.8552
3015.047279 0.8546 0.8539 0.8532 0.8526 0.8519
3020.062147 0.8512 0.8506 0.8500 0.8494 0.8488
3025.077015 0.8483 0.8477 0.8471 0.8466 0.8462
3030.091882 0.8458 0.8453 0.8449 0.8445 0.8441
3035.106750 0.8438 0.8435 0.8433 0.8431 0.8428
3040.121618 0.8426 0.8424 0.8424 0.8423 0.8422
3045.136485 0.8422 0.8421 0.8420 0.8420 0.8419
3050.151353 0.8420 0.8421 0.8421 0.8422 0.8423
3055.166221 0.8424 0.8425 0.8426 0.8427 0.8427
3060.181088 0.8428 0.8429 0.8430 0.8432 0.8435
3065.195956 0.8437 0.8440 0.8442 0.8445 0.8447
3070.210824 0.8450 0.8452 0.8452 0.8452 0.8452
3075.225691 0.8451 0.8451 0.8451 0.8451 0.8449
3080.240559 0.8445 0.8440 0.8435 0.8431 0.8426
3085.255427 0.8421 0.8418 0.8416 0.8414 0.8414
3090.270294 0.8415 0.8416 0.8418 0.8420 0.8426
3095.285162 0.8431 0.8436 0.8441 0.8445 0.8448
3100.300030 0.8451 0.8453 0.8456 0.8458 0.8461
3105.314897 0.8463 0.8465 0.8466 0.8467 0.8468
3110.329765 0.8469 0.8470 0.8471 0.8470 0.8470
3115.344633 0.8469 0.8469 0.8468 0.8468 0.8467
3120.359500 0.8467 0.8466 0.8466 0.8465 0.8464
3125.374368 0.8464 0.8463 0.8462 0.8461 0.8459
3130.389236 0.8458 0.8456 0.8454 0.8453 0.8451
3135.404103 0.8450 0.8448 0.8447 0.8445 0.8443
3140.418971 0.8441 0.8439 0.8437 0.8435 0.8433
3145.433839 0.8431 0.8429 0.8427 0.8424 0.8422
3150.448707 0.8420 0.8418 0.8416 0.8414 0.8412
3155.463574 0.8410 0.8407 0.8405 0.8402 0.8400
3160.478442 0.8397 0.8394 0.8392 0.8389 0.8386
3165.493310 0.8384 0.8381 0.8377 0.8375 0.8372
3170.508177 0.8369 0.8367 0.8364 0.8361 0.8359
3175.523045 0.8356 0.8353 0.8350 0.8348 0.8345
3180.537913 0.8342 0.8340 0.8337 0.8335 0.8332
3185.552780 0.8329 0.8327 0.8324 0.8321 0.8319
3190.567648 0.8316 0.8313 0.8311 0.8308 0.8305
3195.582516 0.8303 0.8300 0.8297 0.8295 0.8292
3200.597383 0.8289 0.8287 0.8284 0.8281 0.8278
3205.612251 0.8275 0.8272 0.8269 0.8265 0.8262
3210.627119 0.8259 0.8256 0.8253 0.8250 0.8247
3215.641986 0.8243 0.8240 0.8237 0.8234 0.8231
3220.656854 0.8228 0.8225 0.8222 0.8219 0.8215
3225.671722 0.8212 0.8209 0.8206 0.8203 0.8199
3230.686589 0.8195 0.8191 0.8186 0.8181 0.8176
3235.701457 0.8170 0.8165 0.8160 0.8156 0.8151
3240.716325 0.8146 0.8141 0.8136 0.8131 0.8126
3245.731192 0.8122 0.8117 0.8112 0.8107 0.8102
3250.746060 0.8097 0.8092 0.8088 0.8083 0.8078
3255.760928 0.8073 0.8068 0.8062 0.8056 0.8050
3260.775795 0.8045 0.8039 0.8033 0.8027 0.8021
3265.790663 0.8015 0.8009 0.8004 0.7998 0.7992
3270.805531 0.7986 0.7980 0.7974 0.7968 0.7963
3275.820398 0.7957 0.7951 0.7945 0.7939 0.7933
3280.835266 0.7927 0.7922 0.7916 0.7911 0.7905
3285.850134 0.7899 0.7894 0.7888 0.7882 0.7877
3290.865001 0.7871 0.7866 0.7860 0.7854 0.7849
3295.879869 0.7843 0.7837 0.7832 0.7826 0.7820
3300.894737 0.7815 0.7809 0.7803 0.7798 0.7792
3305.909605 0.7786 0.7781 0.7775 0.7769 0.7763
3310.924472 0.7758 0.7752 0.7746 0.7741 0.7735
3315.939340 0.7730 0.7724 0.7718 0.7713 0.7707
3320.954208 0.7702 0.7696 0.7690 0.7685 0.7679
3325.969075 0.7673 0.7668 0.7662 0.7657 0.7651
3330.983943 0.7645 0.7640 0.7634 0.7627 0.7620
3335.998811 0.7613 0.7607 0.7600 0.7593 0.7586
3341.013678 0.7579 0.7572 0.7565 0.7558 0.7552
3346.028546 0.7545 0.7538 0.7531 0.7524 0.7517
3351.043414 0.7510 0.7503 0.7496 0.7487 0.7478
3356.058281 0.7468 0.7459 0.7450 0.7441 0.7431
3361.073149 0.7422 0.7413 0.7404 0.7395 0.7386
3366.088017 0.7377 0.7367 0.7358 0.7349 0.7340
3371.102884 0.7331 0.7321 0.7311 0.7301 0.7291
3376.117752 0.7281 0.7270 0.7260 0.7250 0.7240
3381.132620 0.7230 0.7220 0.7210 0.7200 0.7190
3386.147487 0.7180 0.7171 0.7164 0.7156 0.7149
3391.162355 0.7141 0.7134 0.7126 0.7119 0.7111
3396.177223 0.7104 0.7097 0.7089 0.7082 0.7074
3401.192090 0.7066 0.7059 0.7052 0.7045 0.7038
3406.206958 0.7031 0.7024 0.7017 0.7009 0.7002
3411.221826 0.6995 0.6988 0.6981 0.6973 0.6966
3416.236693 0.6959 0.6951 0.6943 0.6935 0.6927
3421.251561 0.6919 0.6911 0.6903 0.6895 0.6887
3426.266429 0.6879 0.6872 0.6864 0.6856 0.6849
3431.281296 0.6842 0.6836 0.6830 0.6823 0.6817
3436.296164 0.6811 0.6804 0.6798 0.6793 0.6792
3441.311032 0.6790 0.6789 0.6787 0.6786 0.6784
3446.325899 0.6783 0.6781 0.6781 0.6782 0.6784
3451.340767 0.6786 0.6787 0.6789 0.6790 0.6792
3456.355635 0.6793 0.6794 0.6795 0.6796 0.6796
3461.370503 0.6797 0.6798 0.6798 0.6799 0.6799
3466.385370 0.6800 0.6800 0.6796 0.6791 0.6785
3471.400238 0.6780 0.6775 0.6770 0.6765 0.6760
3476.415106 0.6755 0.6749 0.6740 0.6726 0.6713
3481.429973 0.6700 0.6687 0.6674 0.6661 0.6648
3486.444841 0.6635 0.6622 0.6607 0.6591 0.6574
3491.459709 0.6558 0.6541 0.6525 0.6508 0.6491
3496.474576 0.6471 0.6448 0.6426 0.6404 0.6382
3501.489444 0.6360 0.6338 0.6316 0.6294 0.6272
3506.504312 0.6248 0.6219 0.6187 0.6155 0.6123
3511.519179 0.6091 0.6060 0.6028 0.5992 0.5950
3516.534047 0.5906 0.5862 0.5815 0.5756 0.5688
3521.548915 0.5621 0.5571 0.5534 0.5498 0.5475
3526.563782 0.5465 0.5464 0.5465 0.5475 0.5490
3531.578650 0.5500 0.5512 0.5523 0.5535 0.5546
3536.593518 0.5558 0.5569 0.5581 0.5592 0.5604
3541.608385 0.5617 0.5620 0.5617 0.5642 0.5624
3546.623253 0.5598 0.5591 0.5584 0.5577 0.5570
3551.638121 0.5564 0.5557 0.5549 0.5541 0.5531
3556.652988 0.5521 0.5515 0.5516 0.5520 0.5510
3561.667856 0.5524 0.5542 0.5556 0.5572 0.5587
3566.682724 0.5605 0.5626 0.5663 0.5718 0.5811
3571.697591 0.5955 0.6175 0.6385 0.6543 0.6686
3576.712459 0.6822 0.6958 0.7124 0.7231 0.7305
3581.727327 0.7370 0.7415 0.7452 0.7490 0.7527
3586.742194 0.7561 0.7589 0.7616 0.7644 0.7671
3591.757062 0.7697 0.7720 0.7742 0.7763 0.7785
3596.771930 0.7807 0.7829 0.7851 0.7873 0.7896
3601.786798 0.7919 0.7943 0.7966 0.7990 0.8013
3606.801665 0.8037 0.8062 0.8088 0.8114 0.8139
3611.816533 0.8165 0.8187 0.8207 0.8228 0.8249
3616.831401 0.8270 0.8291 0.8307 0.8319 0.8330
3621.846268 0.8341 0.8352 0.8363 0.8374 0.8385
3626.861136 0.8392 0.8397 0.8402 0.8408 0.8413
3631.876004 0.8418 0.8423 0.8428 0.8434 0.8439
3636.890871 0.8444 0.8449 0.8453 0.8456 0.8459
3641.905739 0.8462 0.8465 0.8468 0.8471 0.8474
3646.920607 0.8477 0.8480 0.8483 0.8486 0.8486
3651.935474 0.8487 0.8487 0.8488 0.8488 0.8489
3656.950342 0.8490 0.8490 0.8491 0.8491 0.8492
3661.965210 0.8492 0.8493 0.8493 0.8494 0.8494
3666.980077 0.8495 0.8495 0.8496 0.8496 0.8497
3671.994945 0.8497 0.8498 0.8498 0.8499 0.8499
3677.009813 0.8500 0.8500 0.8501 0.8501 0.8501
3682.024680 0.8500 0.8500 0.8499 0.8498 0.8497
3687.039548 0.8497 0.8496 0.8495 0.8494 0.8494
3692.054416 0.8493 0.8492 0.8492 0.8491 0.8490
3697.069283 0.8489 0.8489 0.8488 0.8487 0.8486
3702.084151 0.8486 0.8485 0.8484 0.8483 0.8482
3707.099019 0.8481 0.8481 0.8480 0.8479 0.8478
3712.113886 0.8477 0.8476 0.8476 0.8475 0.8473
3717.128754 0.8471 0.8469 0.8467 0.8465 0.8463
3722.143622 0.8460 0.8458 0.8456 0.8454 0.8452
3727.158489 0.8450 0.8448 0.8446 0.8443 0.8442
3732.173357 0.8442 0.8442 0.8441 0.8441 0.8440
3737.188225 0.8440 0.8439 0.8439 0.8438 0.8438
3742.203092 0.8438 0.8437 0.8437 0.8436 0.8436
3747.217960 0.8435 0.8436 0.8438 0.8440 0.8442
3752.232828 0.8443 0.8445 0.8447 0.8449 0.8450
3757.247696 0.8452 0.8455 0.8456 0.8458 0.8459
3762.262563 0.8459 0.8460 0.8460 0.8461 0.8462
3767.277431 0.8462 0.8463 0.8464 0.8464 0.8465
3772.292299 0.8465 0.8464 0.8463 0.8461 0.8460
3777.307166 0.8459 0.8458 0.8457 0.8456 0.8455
3782.322034 0.8454 0.8453 0.8451 0.8450 0.8449
3787.336902 0.8448 0.8447 0.8444 0.8439 0.8434
3792.351769 0.8429 0.8425 0.8420 0.8415 0.8410
3797.366637 0.8405 0.8400 0.8394 0.8389 0.8383
3802.381505 0.8377 0.8372 0.8366 0.8361 0.8355
3807.396372 0.8349 0.8344 0.8339 0.8336 0.8333
3812.411240 0.8329 0.8326 0.8323 0.8320 0.8317
3817.426108 0.8313 0.8310 0.8307 0.8304 0.8301
3822.440975 0.8299 0.8298 0.8297 0.8296 0.8295
3827.455843 0.8294 0.8293 0.8292 0.8291 0.8290
3832.470711 0.8289 0.8288 0.8287 0.8286 0.8285
3837.485578 0.8284 0.8283 0.8282 0.8281 0.8280
3842.500446 0.8280 0.8279 0.8279 0.8278 0.8278
3847.515314 0.8277 0.8277 0.8277 0.8276 0.8276
3852.530181 0.8275 0.8275 0.8274 0.8274 0.8273
3857.545049 0.8273 0.8273 0.8272 0.8272 0.8271
3862.559917 0.8271 0.8271 0.8271 0.8271 0.8272
3867.574784 0.8272 0.8272 0.8272 0.8273 0.8273
3872.589652 0.8273 0.8273 0.8274 0.8274 0.8274
3877.604520 0.8274 0.8275 0.8275 0.8275 0.8275
3882.619387 0.8276 0.8276 0.8276 0.8276 0.8277
3887.634255 0.8277 0.8277 0.8277 0.8278 0.8278
3892.649123 0.8278 0.8278 0.8279 0.8279 0.8279
3897.663990 0.8279 0.8280 0.8280 0.8280 0.8280
3902.678858 0.8281 0.8281 0.8281 0.8282 0.8282
3907.693726 0.8282 0.8283 0.8283 0.8284 0.8284
3912.708594 0.8285 0.8285 0.8285 0.8286 0.8286
3917.723461 0.8287 0.8306 0.8295 0.8288 0.8288
3922.738329 0.8289 0.8289 0.8290 0.8290 0.8291
3927.753197 0.8291 0.8291 0.8292 0.8293 0.8294
3932.768064 0.8294 0.8295 0.8296 0.8297 0.8297
3937.782932 0.8298 0.8299 0.8300 0.8301 0.8301
3942.797800 0.8302 0.8303 0.8304 0.8304 0.8305
3947.812667 0.8306 0.8307 0.8307 0.8308 0.8309
3952.827535 0.8309 0.8309 0.8309 0.8308 0.8308
3957.842403 0.8308 0.8308 0.8308 0.8307 0.8307
3962.857270 0.8307 0.8307 0.8306 0.8306 0.8306
3967.872138 0.8306 0.8306 0.8306 0.8307 0.8308
3972.887006 0.8309 0.8310 0.8311 0.8312 0.8313
3977.901873 0.8314 0.8315 0.8316 0.8317 0.8318
3982.916741 0.8319 0.8320 0.8321 0.8322 0.8322
3987.931609 0.8323 0.8324 0.8325 0.8326 0.8327
3992.946476 0.8328 0.8329 0.8330 0.8331 0.8332
3997.961344 0.8333 0.8334 0.8335 0.8336 0.8337
4002.976212 0.8338 0.8338 0.8339 0.8340 0.8341
4007.991079 0.8342 0.8343 0.8344
##END=
