##TITLE=1,3-Benzenediamine, N,N'-diphenyl-, monohydrochloride
##JCAMP-DX=4.24
##DATA TYPE=INFRARED SPECTRUM
##CLASS=COBLENTZ III
##ORIGIN=BRITISH PETROLEUM CO. LTD., ENGLAND
##OWNER=Copyright (C) 1987 by the Coblentz Society
Collection (C) 2018 copyright by the U.S. Secretary of Commerce
on behalf of the United States of America. All rights reserved.
##DATE=1972/07/06
##NAMES=N<1>,N<3>-diphenyl-1,3-benzenediamine hydrochloride
m-Phenylenediamine, N,N'-diphenyl-, monohydrochloride
##MOLFORM=C18 H17 Cl N2
##SOURCE REFERENCE=COBLENTZ NO. 9344
##$NIST ID=B6009344
##$NIST SOURCE=COBLENTZ
##$NIST IMAGE=cob9344
##SPECTROMETER/DATA SYSTEM=PERKIN-ELMER 157
##STATE=SOLID (KBr DISC, 0.8% WT.)
$$ HCl RUN IN KBr MAY CONTAIN SOME HBr
$$ REF. Can. J. Spec., 18,4,101, '73 C. S. DOUSE and P. B. TOOKE
##SAMPLING PROCEDURE=TRANSMISSION
##RESOLUTION=2
##DATA PROCESSING=DIGITIZED BY COBLENTZ SOCIETY (BATCH II) FROM HARD COPY
##XUNITS=1/CM
##YUNITS=TRANSMITTANCE
##XFACTOR=1.0
##YFACTOR=1
##FIRSTX=668
##LASTX=4000
##FIRSTY=0.3778
##MAXX=4000
##MINX=668
##MAXY=0.7214
##MINY=0.0181
##NPOINTS=3333
##XYDATA=(X++(Y..Y))
668.000000 0.3778 0.3770 0.3724 0.3649 0.3557
673.000000 0.3422 0.3135 0.2852 0.2558 0.2203
678.000000 0.1927 0.1350 0.0867 0.0586 0.0492
683.000000 0.0462 0.0452 0.0415 0.0334 0.0327
688.000000 0.0320 0.0353 0.0431 0.0684 0.1071
693.000000 0.1646 0.1991 0.2026 0.2034 0.1732
698.000000 0.1419 0.0893 0.0807 0.0817 0.1495
703.000000 0.2472 0.3504 0.5288 0.5652 0.5784
708.000000 0.5846 0.5878 0.5873 0.5873 0.5807
713.000000 0.5675 0.5557 0.5432 0.5287 0.5101
718.000000 0.4934 0.4752 0.4530 0.4235 0.3951
723.000000 0.3624 0.3342 0.2906 0.2471 0.2038
728.000000 0.1697 0.1159 0.0822 0.0558 0.0389
733.000000 0.0335 0.0327 0.0368 0.0452 0.0760
738.000000 0.1102 0.1219 0.1231 0.1061 0.0819
743.000000 0.0624 0.0470 0.0318 0.0217 0.0213
748.000000 0.0240 0.0265 0.0357 0.0651 0.0926
753.000000 0.1490 0.2106 0.2621 0.3136 0.3649
758.000000 0.4119 0.4442 0.4489 0.4487 0.4448
763.000000 0.3950 0.3645 0.3095 0.2410 0.1727
768.000000 0.1000 0.0802 0.0801 0.1007 0.1584
773.000000 0.2159 0.2740 0.3325 0.3347 0.3339
778.000000 0.3264 0.3049 0.2772 0.2514 0.2050
783.000000 0.1847 0.1856 0.2270 0.3586 0.4461
788.000000 0.5555 0.5931 0.6285 0.6578 0.7040
793.000000 0.7146 0.7196 0.7214 0.7164 0.7126
798.000000 0.7058 0.6949 0.6761 0.6546 0.6452
803.000000 0.6461 0.6556 0.6620 0.6668 0.6711
808.000000 0.6703 0.6675 0.6621 0.6535 0.6524
813.000000 0.6511 0.6638 0.6873 0.6971 0.6990
818.000000 0.6897 0.6827 0.6652 0.6524 0.6376
823.000000 0.6193 0.6013 0.5758 0.5476 0.5196
828.000000 0.4923 0.4582 0.4375 0.4133 0.3341
833.000000 0.3306 0.3329 0.4266 0.4965 0.5661
838.000000 0.6265 0.6406 0.6445 0.6461 0.6460
843.000000 0.6468 0.6414 0.6302 0.6189 0.6043
848.000000 0.5761 0.5554 0.5078 0.4603 0.4129
853.000000 0.3656 0.3196 0.2988 0.2784 0.2600
858.000000 0.1944 0.1188 0.1084 0.1085 0.1942
863.000000 0.2838 0.3732 0.4624 0.5459 0.5853
868.000000 0.6230 0.6567 0.6697 0.6768 0.6809
873.000000 0.6819 0.6826 0.6829 0.6831 0.6830
878.000000 0.6828 0.6826 0.6822 0.6813 0.6799
883.000000 0.6782 0.6745 0.6697 0.6635 0.6559
888.000000 0.6502 0.6484 0.6463 0.6388 0.6320
893.000000 0.6256 0.6173 0.6085 0.6011 0.5721
898.000000 0.5143 0.4764 0.4591 0.4360 0.4200
903.000000 0.4089 0.4004 0.3994 0.3987 0.4620
908.000000 0.5113 0.5607 0.6098 0.6441 0.6493
913.000000 0.6538 0.6549 0.6560 0.6527 0.6509
918.000000 0.6490 0.6472 0.6451 0.6423 0.6395
923.000000 0.6354 0.6314 0.6280 0.6247 0.6220
928.000000 0.6198 0.6176 0.6160 0.6146 0.6132
933.000000 0.6117 0.6101 0.6085 0.6063 0.6035
938.000000 0.6005 0.5969 0.5933 0.5897 0.5860
943.000000 0.5822 0.5785 0.5747 0.5702 0.5656
948.000000 0.5609 0.5558 0.5506 0.5455 0.5401
953.000000 0.5349 0.5286 0.5219 0.5137 0.4993
958.000000 0.4866 0.4781 0.4685 0.4572 0.4430
963.000000 0.4283 0.4085 0.3949 0.3856 0.3799
968.000000 0.3784 0.3793 0.4227 0.4761 0.5150
973.000000 0.5216 0.5236 0.5247 0.5188 0.5111
978.000000 0.4971 0.4788 0.4566 0.4414 0.4253
983.000000 0.3959 0.3891 0.3866 0.3848 0.3832
988.000000 0.3802 0.3486 0.3388 0.3225 0.2852
993.000000 0.2539 0.2127 0.1716 0.1305 0.0896
998.000000 0.0707 0.0693 0.0697 0.2310 0.3637
1003.000000 0.3663 0.3544 0.3227 0.2957 0.2956
1008.000000 0.4010 0.5437 0.5533 0.5564 0.5566
1013.000000 0.5536 0.5426 0.5236 0.5051 0.4867
1018.000000 0.4684 0.4501 0.4318 0.4136 0.3954
1023.000000 0.3850 0.3808 0.3729 0.3564 0.3291
1028.000000 0.2743 0.2172 0.1757 0.1752 0.2311
1033.000000 0.3300 0.4286 0.5270 0.5627 0.5673
1038.000000 0.5701 0.5730 0.5716 0.5711 0.5698
1043.000000 0.5678 0.5645 0.5595 0.5541 0.5491
1048.000000 0.5443 0.5407 0.5372 0.5333 0.5295
1053.000000 0.5256 0.5218 0.5180 0.5141 0.5099
1058.000000 0.5056 0.5012 0.4957 0.4894 0.4827
1063.000000 0.4755 0.4679 0.4578 0.4482 0.4402
1068.000000 0.4316 0.4216 0.4101 0.3956 0.3779
1073.000000 0.3282 0.2867 0.2747 0.2731 0.2729
1078.000000 0.2728 0.3111 0.3345 0.3578 0.3774
1083.000000 0.3859 0.3946 0.4030 0.4106 0.4282
1088.000000 0.4674 0.4692 0.4696 0.4696 0.4690
1093.000000 0.4719 0.4507 0.4421 0.4346 0.4268
1098.000000 0.4208 0.4197 0.4198 0.4325 0.4530
1103.000000 0.4643 0.4676 0.4687 0.4692 0.4694
1108.000000 0.4695 0.4695 0.4695 0.4694 0.4701
1113.000000 0.4690 0.4689 0.4687 0.4684 0.4681
1118.000000 0.4678 0.4673 0.4667 0.4641 0.4608
1123.000000 0.4575 0.4543 0.4511 0.4485 0.4461
1128.000000 0.4436 0.4413 0.4391 0.4369 0.4346
1133.000000 0.4320 0.4296 0.4270 0.4232 0.4191
1138.000000 0.4149 0.4099 0.4046 0.3993 0.3935
1143.000000 0.3874 0.3813 0.3690 0.3406 0.3286
1148.000000 0.3210 0.3143 0.3052 0.2954 0.2879
1153.000000 0.2755 0.2584 0.2414 0.2244 0.2075
1158.000000 0.1906 0.1736 0.1545 0.1352 0.1131
1163.000000 0.0909 0.0706 0.0659 0.0655 0.0665
1168.000000 0.1032 0.1687 0.2340 0.2979 0.3142
1173.000000 0.3143 0.3146 0.3107 0.3054 0.2903
1178.000000 0.2671 0.2441 0.2270 0.2276 0.2293
1183.000000 0.2338 0.2363 0.2366 0.2367 0.2466
1188.000000 0.2825 0.3197 0.3568 0.3939 0.4309
1193.000000 0.4622 0.4689 0.4719 0.4737 0.4755
1198.000000 0.4765 0.4767 0.4771 0.4744 0.4734
1203.000000 0.4723 0.4714 0.4703 0.4691 0.4633
1208.000000 0.4564 0.4507 0.4461 0.4403 0.4343
1213.000000 0.4282 0.4229 0.4182 0.4134 0.4089
1218.000000 0.4043 0.3999 0.3961 0.3922 0.3878
1223.000000 0.3833 0.3788 0.3733 0.3672 0.3612
1228.000000 0.3555 0.3498 0.3435 0.3331 0.3204
1233.000000 0.3088 0.3004 0.2613 0.2421 0.2421
1238.000000 0.2433 0.2624 0.2752 0.2881 0.3004
1243.000000 0.3039 0.3051 0.3062 0.3075 0.3094
1248.000000 0.3114 0.3142 0.3172 0.3212 0.3382
1253.000000 0.3458 0.3489 0.3489 0.3486 0.3482
1258.000000 0.3469 0.3500 0.3392 0.3346 0.3313
1263.000000 0.3281 0.3250 0.3221 0.3192 0.3163
1268.000000 0.3118 0.3046 0.2975 0.2903 0.2832
1273.000000 0.2738 0.2507 0.2418 0.2344 0.2280
1278.000000 0.2217 0.2157 0.2099 0.2048 0.2008
1283.000000 0.1980 0.1958 0.1941 0.1925 0.1909
1288.000000 0.1885 0.1818 0.1626 0.1543 0.1481
1293.000000 0.1360 0.1272 0.1177 0.1065 0.0954
1298.000000 0.0837 0.0811 0.0797 0.0791 0.0790
1303.000000 0.0798 0.0791 0.0796 0.0807 0.0855
1308.000000 0.0935 0.1015 0.1096 0.1176 0.1242
1313.000000 0.1260 0.1262 0.1263 0.1260 0.1260
1318.000000 0.1264 0.1335 0.1474 0.1612 0.1750
1323.000000 0.1888 0.2025 0.2162 0.2264 0.2290
1328.000000 0.2297 0.2302 0.2293 0.2211 0.2058
1333.000000 0.1907 0.1755 0.1639 0.1588 0.1549
1338.000000 0.1495 0.1334 0.1143 0.0961 0.0915
1343.000000 0.0935 0.1069 0.1263 0.1457 0.1651
1348.000000 0.1844 0.1993 0.2010 0.2001 0.2011
1353.000000 0.1736 0.1570 0.1405 0.1240 0.1075
1358.000000 0.0910 0.0716 0.0528 0.0451 0.0406
1363.000000 0.0380 0.0362 0.0350 0.0365 0.0355
1368.000000 0.0374 0.0401 0.0649 0.1129 0.1609
1373.000000 0.2087 0.2565 0.2936 0.3029 0.3081
1378.000000 0.3109 0.3120 0.3120 0.3116 0.3111
1383.000000 0.3072 0.2998 0.2925 0.2851 0.2777
1388.000000 0.2704 0.2672 0.2649 0.2635 0.2630
1393.000000 0.2629 0.2629 0.2630 0.2632 0.2633
1398.000000 0.2632 0.2627 0.2611 0.2578 0.2540
1403.000000 0.2496 0.2449 0.2404 0.2360 0.2273
1408.000000 0.2161 0.2048 0.1935 0.1823 0.1710
1413.000000 0.1598 0.1498 0.1427 0.1354 0.1271
1418.000000 0.1194 0.1126 0.1044 0.0946 0.0915
1423.000000 0.0905 0.0899 0.0900 0.0890 0.0912
1428.000000 0.0985 0.1128 0.1270 0.1413 0.1555
1433.000000 0.1696 0.1838 0.1980 0.2121 0.2252
1438.000000 0.2313 0.2313 0.2311 0.2305 0.2279
1443.000000 0.2223 0.2167 0.2111 0.2057 0.2015
1448.000000 0.1964 0.1909 0.1812 0.1755 0.1713
1453.000000 0.1677 0.1628 0.1577 0.1392 0.1075
1458.000000 0.0794 0.0667 0.0613 0.0562 0.0515
1463.000000 0.0468 0.0426 0.0386 0.0357 0.0334
1468.000000 0.0311 0.0289 0.0270 0.0257 0.0246
1473.000000 0.0243 0.0241 0.0240 0.0239 0.0238
1478.000000 0.0235 0.0232 0.0230 0.0228 0.0226
1483.000000 0.0229 0.0223 0.0223 0.0226 0.0230
1488.000000 0.0232 0.0236 0.0241 0.0248 0.0255
1493.000000 0.0265 0.0276 0.0287 0.0299 0.0317
1498.000000 0.0337 0.0362 0.0397 0.0461 0.0552
1503.000000 0.0651 0.0749 0.0813 0.0854 0.0897
1508.000000 0.0990 0.1266 0.1418 0.1435 0.1441
1513.000000 0.1442 0.1442 0.1440 0.1442 0.1292
1518.000000 0.1205 0.1119 0.1033 0.0947 0.0861
1523.000000 0.0775 0.0690 0.0604 0.0517 0.0482
1528.000000 0.0462 0.0425 0.0414 0.0406 0.0405
1533.000000 0.0405 0.0405 0.0407 0.0408 0.0420
1538.000000 0.0502 0.0646 0.0789 0.0932 0.1075
1543.000000 0.1218 0.1360 0.1503 0.1617 0.1675
1548.000000 0.1720 0.1747 0.1750 0.1753 0.1756
1553.000000 0.1756 0.1751 0.1752 0.1714 0.1584
1558.000000 0.1427 0.1270 0.1114 0.0958 0.0802
1563.000000 0.0651 0.0569 0.0550 0.0542 0.0537
1568.000000 0.0536 0.0523 0.0542 0.0597 0.0678
1573.000000 0.0760 0.0841 0.0922 0.1003 0.1083
1578.000000 0.1119 0.1123 0.1135 0.1095 0.1018
1583.000000 0.0923 0.0829 0.0735 0.0641 0.0548
1588.000000 0.0454 0.0341 0.0280 0.0249 0.0234
1593.000000 0.0227 0.0223 0.0222 0.0223 0.0224
1598.000000 0.0220 0.0227 0.0229 0.0233 0.0243
1603.000000 0.0259 0.0285 0.0328 0.0376 0.0409
1608.000000 0.0444 0.0486 0.0538 0.0604 0.0671
1613.000000 0.0737 0.0803 0.0869 0.0935 0.0994
1618.000000 0.1002 0.1004 0.1008 0.0946 0.0852
1623.000000 0.0751 0.0651 0.0550 0.0456 0.0410
1628.000000 0.0413 0.0417 0.0407 0.0434 0.0449
1633.000000 0.0477 0.0545 0.0603 0.0658 0.0941
1638.000000 0.1156 0.1347 0.1537 0.1727 0.1917
1643.000000 0.2107 0.2689 0.3720 0.3915 0.4071
1648.000000 0.4391 0.4504 0.4627 0.4811 0.5033
1653.000000 0.5192 0.5310 0.5425 0.5540 0.5695
1658.000000 0.5916 0.5972 0.6015 0.6058 0.6092
1663.000000 0.6122 0.6151 0.6187 0.6272 0.6407
1668.000000 0.6518 0.6581 0.6620 0.6655 0.6685
1673.000000 0.6713 0.6737 0.6759 0.6783 0.6807
1678.000000 0.6824 0.6837 0.6840 0.6842 0.6840
1683.000000 0.6836 0.6820 0.6790 0.6753 0.6722
1688.000000 0.6700 0.6679 0.6668 0.6658 0.6648
1693.000000 0.6639 0.6629 0.6621 0.6614 0.6607
1698.000000 0.6599 0.6591 0.6581 0.6564 0.6533
1703.000000 0.6483 0.6386 0.6317 0.6266 0.6237
1708.000000 0.6224 0.6211 0.6197 0.6185 0.6171
1713.000000 0.6156 0.6137 0.6113 0.6083 0.6053
1718.000000 0.6018 0.5983 0.5895 0.5805 0.5764
1723.000000 0.5738 0.5734 0.5731 0.5733 0.5737
1728.000000 0.5742 0.5750 0.5763 0.5778 0.5793
1733.000000 0.5808 0.5824 0.5840 0.5860 0.5881
1738.000000 0.5898 0.5911 0.5922 0.5930 0.5936
1743.000000 0.5943 0.5950 0.5956 0.5958 0.5960
1748.000000 0.5963 0.5965 0.5967 0.5969 0.5971
1753.000000 0.5971 0.5972 0.5971 0.5970 0.5969
1758.000000 0.5969 0.5967 0.5964 0.5960 0.5957
1763.000000 0.5953 0.5949 0.5940 0.5929 0.5916
1768.000000 0.5894 0.5872 0.5849 0.5823 0.5795
1773.000000 0.5767 0.5740 0.5712 0.5681 0.5647
1778.000000 0.5616 0.5588 0.5560 0.5533 0.5508
1783.000000 0.5490 0.5473 0.5455 0.5438 0.5420
1788.000000 0.5404 0.5389 0.5373 0.5358 0.5343
1793.000000 0.5329 0.5316 0.5302 0.5288 0.5275
1798.000000 0.5266 0.5259 0.5253 0.5251 0.5250
1803.000000 0.5249 0.5247 0.5247 0.5246 0.5245
1808.000000 0.5244 0.5243 0.5243 0.5242 0.5241
1813.000000 0.5240 0.5240 0.5239 0.5235 0.5228
1818.000000 0.5219 0.5205 0.5189 0.5173 0.5156
1823.000000 0.5139 0.5121 0.5103 0.5085 0.5067
1828.000000 0.5047 0.5023 0.4999 0.4977 0.4955
1833.000000 0.4935 0.4924 0.4917 0.4911 0.4906
1838.000000 0.4902 0.4900 0.4895 0.4886 0.4866
1843.000000 0.4838 0.4808 0.4780 0.4758 0.4740
1848.000000 0.4728 0.4722 0.4716 0.4711 0.4706
1853.000000 0.4703 0.4700 0.4696 0.4688 0.4651
1858.000000 0.4619 0.4592 0.4574 0.4556 0.4540
1863.000000 0.4527 0.4519 0.4511 0.4506 0.4505
1868.000000 0.4503 0.4503 0.4503 0.4504 0.4505
1873.000000 0.4506 0.4507 0.4508 0.4509 0.4509
1878.000000 0.4509 0.4510 0.4510 0.4510 0.4508
1883.000000 0.4507 0.4506 0.4505 0.4503 0.4500
1888.000000 0.4497 0.4494 0.4492 0.4489 0.4483
1893.000000 0.4476 0.4470 0.4462 0.4453 0.4444
1898.000000 0.4433 0.4423 0.4414 0.4404 0.4395
1903.000000 0.4386 0.4377 0.4368 0.4358 0.4348
1908.000000 0.4335 0.4323 0.4312 0.4300 0.4287
1913.000000 0.4273 0.4259 0.4245 0.4231 0.4216
1918.000000 0.4192 0.4168 0.4146 0.4131 0.4110
1923.000000 0.4079 0.4047 0.4014 0.3982 0.3949
1928.000000 0.3917 0.3884 0.3852 0.3819 0.3787
1933.000000 0.3755 0.3726 0.3700 0.3698 0.3696
1938.000000 0.3693 0.3691 0.3689 0.3687 0.3686
1943.000000 0.3685 0.3683 0.3681 0.3679 0.3677
1948.000000 0.3675 0.3673 0.3671 0.3669 0.3667
1953.000000 0.3665 0.3663 0.3659 0.3651 0.3642
1958.000000 0.3633 0.3622 0.3612 0.3602 0.3590
1963.000000 0.3578 0.3565 0.3547 0.3532 0.3519
1968.000000 0.3509 0.3500 0.3491 0.3485 0.3480
1973.000000 0.3475 0.3470 0.3465 0.3461 0.3455
1978.000000 0.3449 0.3442 0.3435 0.3428 0.3421
1983.000000 0.3414 0.3406 0.3397 0.3388 0.3379
1988.000000 0.3369 0.3359 0.3349 0.3339 0.3328
1993.000000 0.3318 0.3309 0.3300 0.3295 0.3290
1998.000000 0.3288 0.3287 0.3286 0.3284 0.3283
2003.000000 0.3282 0.3281 0.3280 0.3277 0.3273
2008.000000 0.3268 0.3263 0.3258 0.3251 0.3243
2013.000000 0.3233 0.3224 0.3215 0.3206 0.3196
2018.000000 0.3186 0.3176 0.3165 0.3155 0.3141
2023.000000 0.3128 0.3114 0.3099 0.3083 0.3060
2028.000000 0.3039 0.3022 0.3015 0.3011 0.3011
2033.000000 0.3011 0.3011 0.3000 0.3014 0.3020
2038.000000 0.3028 0.3040 0.3058 0.3079 0.3101
2043.000000 0.3122 0.3142 0.3162 0.3181 0.3196
2048.000000 0.3210 0.3222 0.3235 0.3247 0.3259
2053.000000 0.3270 0.3281 0.3289 0.3296 0.3297
2058.000000 0.3299 0.3299 0.3299 0.3299 0.3299
2063.000000 0.3298 0.3298 0.3296 0.3295 0.3292
2068.000000 0.3289 0.3285 0.3282 0.3279 0.3276
2073.000000 0.3273 0.3272 0.3271 0.3271 0.3270
2078.000000 0.3270 0.3269 0.3268 0.3268 0.3268
2083.000000 0.3269 0.3270 0.3271 0.3273 0.3274
2088.000000 0.3275 0.3276 0.3278 0.3279 0.3280
2093.000000 0.3282 0.3284 0.3285 0.3286 0.3286
2098.000000 0.3287 0.3288 0.3289 0.3295 0.3291
2103.000000 0.3292 0.3292 0.3293 0.3293 0.3294
2108.000000 0.3295 0.3294 0.3292 0.3290 0.3288
2113.000000 0.3286 0.3283 0.3280 0.3275 0.3271
2118.000000 0.3266 0.3261 0.3255 0.3247 0.3237
2123.000000 0.3229 0.3221 0.3214 0.3208 0.3202
2128.000000 0.3197 0.3192 0.3186 0.3180 0.3173
2133.000000 0.3166 0.3159 0.3152 0.3144 0.3136
2138.000000 0.3128 0.3119 0.3110 0.3101 0.3093
2143.000000 0.3084 0.3075 0.3067 0.3058 0.3049
2148.000000 0.3040 0.3030 0.3020 0.3007 0.2995
2153.000000 0.2982 0.2970 0.2958 0.2945 0.2933
2158.000000 0.2921 0.2908 0.2896 0.2884 0.2871
2163.000000 0.2859 0.2847 0.2834 0.2821 0.2809
2168.000000 0.2796 0.2783 0.2769 0.2756 0.2743
2173.000000 0.2731 0.2719 0.2710 0.2702 0.2693
2178.000000 0.2685 0.2677 0.2668 0.2659 0.2650
2183.000000 0.2642 0.2634 0.2625 0.2617 0.2608
2188.000000 0.2600 0.2591 0.2582 0.2574 0.2564
2193.000000 0.2554 0.2543 0.2533 0.2522 0.2512
2198.000000 0.2501 0.2490 0.2479 0.2468 0.2458
2203.000000 0.2448 0.2437 0.2426 0.2415 0.2404
2208.000000 0.2393 0.2382 0.2371 0.2360 0.2350
2213.000000 0.2339 0.2327 0.2317 0.2306 0.2295
2218.000000 0.2284 0.2274 0.2263 0.2252 0.2241
2223.000000 0.2229 0.2217 0.2205 0.2194 0.2182
2228.000000 0.2170 0.2159 0.2147 0.2135 0.2123
2233.000000 0.2112 0.2100 0.2089 0.2077 0.2066
2238.000000 0.2054 0.2043 0.2032 0.2021 0.2009
2243.000000 0.1998 0.1987 0.1976 0.1965 0.1954
2248.000000 0.1943 0.1926 0.1909 0.1890 0.1870
2253.000000 0.1851 0.1832 0.1813 0.1794 0.1775
2258.000000 0.1756 0.1738 0.1719 0.1701 0.1683
2263.000000 0.1664 0.1646 0.1625 0.1603 0.1575
2268.000000 0.1542 0.1514 0.1494 0.1475 0.1458
2273.000000 0.1442 0.1425 0.1408 0.1392 0.1375
2278.000000 0.1358 0.1342 0.1325 0.1308 0.1291
2283.000000 0.1274 0.1257 0.1241 0.1224 0.1207
2288.000000 0.1194 0.1183 0.1172 0.1161 0.1151
2293.000000 0.1140 0.1129 0.1118 0.1107 0.1096
2298.000000 0.1085 0.1074 0.1064 0.1053 0.1042
2303.000000 0.1031 0.1020 0.1008 0.0995 0.0983
2308.000000 0.0970 0.0958 0.0945 0.0933 0.0920
2313.000000 0.0907 0.0895 0.0882 0.0870 0.0857
2318.000000 0.0844 0.0832 0.0819 0.0806 0.0793
2323.000000 0.0779 0.0766 0.0753 0.0740 0.0726
2328.000000 0.0713 0.0700 0.0687 0.0672 0.0656
2333.000000 0.0641 0.0626 0.0610 0.0595 0.0581
2338.000000 0.0566 0.0553 0.0542 0.0531 0.0520
2343.000000 0.0509 0.0497 0.0486 0.0478 0.0471
2348.000000 0.0466 0.0461 0.0457 0.0453 0.0449
2353.000000 0.0445 0.0441 0.0437 0.0433 0.0430
2358.000000 0.0428 0.0425 0.0423 0.0421 0.0419
2363.000000 0.0416 0.0416 0.0415 0.0414 0.0413
2368.000000 0.0412 0.0411 0.0410 0.0409 0.0408
2373.000000 0.0408 0.0408 0.0407 0.0407 0.0406
2378.000000 0.0405 0.0404 0.0404 0.0403 0.0403
2383.000000 0.0403 0.0402 0.0402 0.0401 0.0400
2388.000000 0.0399 0.0397 0.0395 0.0392 0.0389
2393.000000 0.0382 0.0374 0.0366 0.0358 0.0350
2398.000000 0.0342 0.0334 0.0327 0.0319 0.0311
2403.000000 0.0305 0.0299 0.0292 0.0286 0.0281
2408.000000 0.0276 0.0271 0.0267 0.0263 0.0258
2413.000000 0.0254 0.0250 0.0246 0.0242 0.0238
2418.000000 0.0234 0.0231 0.0229 0.0226 0.0224
2423.000000 0.0221 0.0219 0.0217 0.0215 0.0212
2428.000000 0.0210 0.0208 0.0207 0.0206 0.0205
2433.000000 0.0205 0.0204 0.0203 0.0201 0.0200
2438.000000 0.0199 0.0199 0.0198 0.0197 0.0196
2443.000000 0.0195 0.0194 0.0193 0.0192 0.0191
2448.000000 0.0190 0.0189 0.0189 0.0188 0.0188
2453.000000 0.0188 0.0187 0.0187 0.0186 0.0186
2458.000000 0.0186 0.0185 0.0185 0.0184 0.0183
2463.000000 0.0183 0.0182 0.0182 0.0181 0.0181
2468.000000 0.0181 0.0181 0.0181 0.0181 0.0181
2473.000000 0.0181 0.0181 0.0181 0.0181 0.0181
2478.000000 0.0181 0.0181 0.0181 0.0181 0.0181
2483.000000 0.0181 0.0181 0.0181 0.0181 0.0181
2488.000000 0.0181 0.0181 0.0181 0.0181 0.0181
2493.000000 0.0181 0.0181 0.0181 0.0181 0.0181
2498.000000 0.0181 0.0181 0.0181 0.0181 0.0181
2503.000000 0.0181 0.0181 0.0181 0.0181 0.0181
2508.000000 0.0181 0.0181 0.0181 0.0181 0.0181
2513.000000 0.0181 0.0181 0.0181 0.0181 0.0181
2518.000000 0.0181 0.0181 0.0181 0.0181 0.0181
2523.000000 0.0203 0.0181 0.0181 0.0181 0.0181
2528.000000 0.0181 0.0181 0.0181 0.0182 0.0182
2533.000000 0.0183 0.0183 0.0183 0.0184 0.0184
2538.000000 0.0184 0.0185 0.0185 0.0186 0.0186
2543.000000 0.0186 0.0187 0.0187 0.0188 0.0188
2548.000000 0.0188 0.0189 0.0189 0.0189 0.0190
2553.000000 0.0190 0.0191 0.0191 0.0191 0.0192
2558.000000 0.0192 0.0193 0.0193 0.0193 0.0194
2563.000000 0.0194 0.0194 0.0195 0.0195 0.0196
2568.000000 0.0196 0.0196 0.0197 0.0197 0.0197
2573.000000 0.0198 0.0198 0.0199 0.0199 0.0199
2578.000000 0.0200 0.0200 0.0201 0.0201 0.0201
2583.000000 0.0202 0.0202 0.0202 0.0202 0.0202
2588.000000 0.0203 0.0203 0.0203 0.0204 0.0204
2593.000000 0.0204 0.0205 0.0205 0.0205 0.0206
2598.000000 0.0206 0.0207 0.0207 0.0207 0.0208
2603.000000 0.0208 0.0208 0.0209 0.0209 0.0210
2608.000000 0.0210 0.0210 0.0211 0.0211 0.0211
2613.000000 0.0212 0.0212 0.0212 0.0213 0.0213
2618.000000 0.0214 0.0214 0.0214 0.0215 0.0215
2623.000000 0.0215 0.0216 0.0216 0.0216 0.0216
2628.000000 0.0217 0.0218 0.0220 0.0221 0.0223
2633.000000 0.0225 0.0226 0.0227 0.0229 0.0230
2638.000000 0.0232 0.0233 0.0235 0.0236 0.0238
2643.000000 0.0240 0.0241 0.0243 0.0245 0.0248
2648.000000 0.0252 0.0255 0.0259 0.0262 0.0266
2653.000000 0.0270 0.0274 0.0280 0.0286 0.0292
2658.000000 0.0298 0.0304 0.0310 0.0316 0.0321
2663.000000 0.0327 0.0332 0.0337 0.0342 0.0346
2668.000000 0.0350 0.0353 0.0357 0.0360 0.0362
2673.000000 0.0365 0.0368 0.0369 0.0371 0.0372
2678.000000 0.0373 0.0374 0.0375 0.0377 0.0378
2683.000000 0.0379 0.0380 0.0381 0.0382 0.0382
2688.000000 0.0382 0.0382 0.0382 0.0382 0.0382
2693.000000 0.0382 0.0382 0.0382 0.0382 0.0383
2698.000000 0.0383 0.0383 0.0383 0.0383 0.0383
2703.000000 0.0384 0.0384 0.0384 0.0384 0.0384
2708.000000 0.0384 0.0385 0.0385 0.0385 0.0386
2713.000000 0.0386 0.0386 0.0386 0.0386 0.0386
2718.000000 0.0390 0.0395 0.0400 0.0407 0.0414
2723.000000 0.0422 0.0431 0.0442 0.0452 0.0462
2728.000000 0.0472 0.0483 0.0494 0.0505 0.0516
2733.000000 0.0527 0.0539 0.0550 0.0558 0.0565
2738.000000 0.0572 0.0577 0.0581 0.0585 0.0589
2743.000000 0.0593 0.0597 0.0601 0.0604 0.0607
2748.000000 0.0609 0.0612 0.0615 0.0617 0.0620
2753.000000 0.0623 0.0624 0.0625 0.0626 0.0627
2758.000000 0.0628 0.0629 0.0630 0.0631 0.0632
2763.000000 0.0633 0.0633 0.0633 0.0633 0.0633
2768.000000 0.0633 0.0632 0.0632 0.0632 0.0632
2773.000000 0.0632 0.0632 0.0632 0.0632 0.0632
2778.000000 0.0634 0.0642 0.0650 0.0658 0.0671
2783.000000 0.0684 0.0697 0.0709 0.0720 0.0732
2788.000000 0.0745 0.0759 0.0773 0.0786 0.0799
2793.000000 0.0813 0.0824 0.0834 0.0844 0.0851
2798.000000 0.0854 0.0858 0.0861 0.0864 0.0867
2803.000000 0.0870 0.0871 0.0872 0.0874 0.0874
2808.000000 0.0875 0.0876 0.0876 0.0877 0.0877
2813.000000 0.0878 0.0879 0.0879 0.0880 0.0881
2818.000000 0.0881 0.0882 0.0882 0.0882 0.0883
2823.000000 0.0883 0.0884 0.0885 0.0885 0.0885
2828.000000 0.0885 0.0886 0.0886 0.0886 0.0901
2833.000000 0.0920 0.0939 0.0958 0.0977 0.0996
2838.000000 0.1016 0.1035 0.1055 0.1074 0.1093
2843.000000 0.1113 0.1132 0.1151 0.1170 0.1189
2848.000000 0.1209 0.1228 0.1247 0.1267 0.1286
2853.000000 0.1305 0.1324 0.1343 0.1362 0.1382
2858.000000 0.1401 0.1420 0.1439 0.1458 0.1477
2863.000000 0.1495 0.1514 0.1534 0.1553 0.1572
2868.000000 0.1591 0.1610 0.1629 0.1647 0.1666
2873.000000 0.1685 0.1698 0.1704 0.1710 0.1715
2878.000000 0.1715 0.1715 0.1715 0.1715 0.1716
2883.000000 0.1716 0.1717 0.1717 0.1718 0.1719
2888.000000 0.1720 0.1721 0.1722 0.1739 0.1760
2893.000000 0.1780 0.1805 0.1835 0.1865 0.1894
2898.000000 0.1924 0.1954 0.1984 0.2013 0.2043
2903.000000 0.2073 0.2102 0.2132 0.2162 0.2192
2908.000000 0.2222 0.2251 0.2281 0.2310 0.2340
2913.000000 0.2369 0.2399 0.2428 0.2458 0.2487
2918.000000 0.2516 0.2546 0.2575 0.2600 0.2620
2923.000000 0.2640 0.2660 0.2664 0.2668 0.2673
2928.000000 0.2676 0.2679 0.2682 0.2685 0.2688
2933.000000 0.2691 0.2695 0.2698 0.2701 0.2704
2938.000000 0.2707 0.2711 0.2714 0.2717 0.2721
2943.000000 0.2724 0.2728 0.2733 0.2741 0.2749
2948.000000 0.2757 0.2766 0.2775 0.2784 0.2793
2953.000000 0.2803 0.2813 0.2823 0.2839 0.2856
2958.000000 0.2874 0.2887 0.2896 0.2904 0.2913
2963.000000 0.2914 0.2915 0.2915 0.2916 0.2916
2968.000000 0.2916 0.2916 0.2916 0.2914 0.2913
2973.000000 0.2912 0.2899 0.2889 0.2878 0.2863
2978.000000 0.2846 0.2829 0.2812 0.2796 0.2779
2983.000000 0.2762 0.2746 0.2729 0.2712 0.2695
2988.000000 0.2678 0.2662 0.2645 0.2628 0.2612
2993.000000 0.2595 0.2579 0.2562 0.2545 0.2529
2998.000000 0.2512 0.2495 0.2479 0.2462 0.2447
3003.000000 0.2433 0.2419 0.2406 0.2400 0.2394
3008.000000 0.2387 0.2381 0.2375 0.2370 0.2364
3013.000000 0.2361 0.2359 0.2357 0.2355 0.2354
3018.000000 0.2353 0.2352 0.2351 0.2350 0.2349
3023.000000 0.2348 0.2348 0.2348 0.2348 0.2353
3028.000000 0.2368 0.2384 0.2399 0.2339 0.2435
3033.000000 0.2453 0.2472 0.2490 0.2508 0.2526
3038.000000 0.2545 0.2563 0.2581 0.2600 0.2618
3043.000000 0.2637 0.2655 0.2673 0.2691 0.2709
3048.000000 0.2727 0.2746 0.2764 0.2782 0.2800
3053.000000 0.2819 0.2837 0.2855 0.2873 0.2883
3058.000000 0.2891 0.2898 0.2905 0.2904 0.2903
3063.000000 0.2902 0.2901 0.2900 0.2900 0.2899
3068.000000 0.2898 0.2896 0.2894 0.2892 0.2903
3073.000000 0.2888 0.2886 0.2885 0.2882 0.2879
3078.000000 0.2877 0.2874 0.2872 0.2869 0.2867
3083.000000 0.2864 0.2861 0.2857 0.2854 0.2850
3088.000000 0.2846 0.2842 0.2837 0.2833 0.2829
3093.000000 0.2824 0.2820 0.2816 0.2812 0.2808
3098.000000 0.2804 0.2800 0.2796 0.2792 0.2787
3103.000000 0.2783 0.2779 0.2774 0.2771 0.2769
3108.000000 0.2767 0.2765 0.2765 0.2765 0.2765
3113.000000 0.2765 0.2774 0.2769 0.2770 0.2772
3118.000000 0.2778 0.2784 0.2791 0.2798 0.2808
3123.000000 0.2819 0.2830 0.2842 0.2853 0.2864
3128.000000 0.2875 0.2886 0.2892 0.2897 0.2903
3133.000000 0.2908 0.2908 0.2908 0.2908 0.2907
3138.000000 0.2907 0.2906 0.2906 0.2902 0.2905
3143.000000 0.2904 0.2903 0.2899 0.2890 0.2880
3148.000000 0.2870 0.2859 0.2844 0.2828 0.2813
3153.000000 0.2798 0.2783 0.2767 0.2752 0.2737
3158.000000 0.2722 0.2707 0.2692 0.2677 0.2662
3163.000000 0.2647 0.2632 0.2617 0.2602 0.2587
3168.000000 0.2572 0.2557 0.2542 0.2527 0.2511
3173.000000 0.2496 0.2481 0.2467 0.2452 0.2437
3178.000000 0.2424 0.2411 0.2397 0.2388 0.2385
3183.000000 0.2382 0.2379 0.2377 0.2375 0.2373
3188.000000 0.2371 0.2369 0.2367 0.2365 0.2363
3193.000000 0.2361 0.2358 0.2355 0.2352 0.2349
3198.000000 0.2345 0.2341 0.2337 0.2333 0.2317
3203.000000 0.2301 0.2285 0.2270 0.2257 0.2244
3208.000000 0.2232 0.2220 0.2209 0.2199 0.2189
3213.000000 0.2179 0.2169 0.2159 0.2149 0.2139
3218.000000 0.2127 0.2114 0.2100 0.2087 0.2067
3223.000000 0.2034 0.2001 0.1968 0.1935 0.1902
3228.000000 0.1869 0.1837 0.1804 0.1771 0.1739
3233.000000 0.1706 0.1673 0.1641 0.1608 0.1575
3238.000000 0.1543 0.1510 0.1478 0.1445 0.1413
3243.000000 0.1381 0.1348 0.1316 0.1283 0.1250
3248.000000 0.1218 0.1186 0.1153 0.1121 0.1089
3253.000000 0.1056 0.1024 0.0992 0.0951 0.0907
3258.000000 0.0863 0.0819 0.0792 0.0778 0.0764
3263.000000 0.0750 0.0738 0.0729 0.0721 0.0712
3268.000000 0.0703 0.0696 0.0688 0.0680 0.0672
3273.000000 0.0664 0.0656 0.0648 0.0640 0.0633
3278.000000 0.0628 0.0623 0.0619 0.0614 0.0613
3283.000000 0.0611 0.0610 0.0609 0.0611 0.0609
3288.000000 0.0610 0.0610 0.0615 0.0624 0.0633
3293.000000 0.0641 0.0659 0.0711 0.0763 0.0815
3298.000000 0.0867 0.0919 0.0971 0.1023 0.1075
3303.000000 0.1127 0.1179 0.1231 0.1283 0.1335
3308.000000 0.1387 0.1438 0.1490 0.1542 0.1594
3313.000000 0.1646 0.1697 0.1749 0.1801 0.1852
3318.000000 0.1904 0.1955 0.2007 0.2058 0.2109
3323.000000 0.2160 0.2212 0.2263 0.2314 0.2365
3328.000000 0.2417 0.2468 0.2519 0.2570 0.2621
3333.000000 0.2672 0.2724 0.2775 0.2826 0.2877
3338.000000 0.2923 0.2955 0.2986 0.3017 0.3049
3343.000000 0.3065 0.3077 0.3089 0.3101 0.3111
3348.000000 0.3115 0.3120 0.3125 0.3130 0.3140
3353.000000 0.3136 0.3139 0.3141 0.3144 0.3144
3358.000000 0.3144 0.3144 0.3144 0.3143 0.3143
3363.000000 0.3143 0.3143 0.3142 0.3141 0.3141
3368.000000 0.3140 0.3139 0.3137 0.3135 0.3133
3373.000000 0.3130 0.3128 0.3126 0.3123 0.3121
3378.000000 0.3118 0.3116 0.3113 0.3111 0.3108
3383.000000 0.3105 0.3103 0.3100 0.3097 0.3094
3388.000000 0.3092 0.3090 0.3088 0.3086 0.3084
3393.000000 0.3082 0.3081 0.3080 0.3078 0.3077
3398.000000 0.3076 0.3075 0.3074 0.3073 0.3072
3403.000000 0.3071 0.3070 0.3069 0.3068 0.3068
3408.000000 0.3067 0.3066 0.3065 0.3064 0.3064
3413.000000 0.3063 0.3062 0.3062 0.3061 0.3060
3418.000000 0.3060 0.3059 0.3058 0.3058 0.3058
3423.000000 0.3057 0.3057 0.3056 0.3056 0.3056
3428.000000 0.3055 0.3055 0.3055 0.3055 0.3055
3433.000000 0.3055 0.3055 0.3056 0.3056 0.3056
3438.000000 0.3056 0.3056 0.3056 0.3056 0.3056
3443.000000 0.3056 0.3057 0.3057 0.3057 0.3057
3448.000000 0.3057 0.3057 0.3057 0.3057 0.3057
3453.000000 0.3057 0.3058 0.3058 0.3058 0.3058
3458.000000 0.3058 0.3058 0.3058 0.3058 0.3058
3463.000000 0.3059 0.3059 0.3059 0.3060 0.3060
3468.000000 0.3061 0.3061 0.3061 0.3061 0.3061
3473.000000 0.3062 0.3062 0.3063 0.3063 0.3063
3478.000000 0.3064 0.3064 0.3064 0.3064 0.3065
3483.000000 0.3065 0.3065 0.3066 0.3066 0.3067
3488.000000 0.3067 0.3067 0.3068 0.3068 0.3069
3493.000000 0.3069 0.3069 0.3070 0.3070 0.3071
3498.000000 0.3071 0.3072 0.3073 0.3073 0.3074
3503.000000 0.3075 0.3076 0.3076 0.3077 0.3078
3508.000000 0.3079 0.3079 0.3080 0.3080 0.3081
3513.000000 0.3082 0.3082 0.3083 0.3083 0.3084
3518.000000 0.3085 0.3085 0.3086 0.3086 0.3087
3523.000000 0.3088 0.3089 0.3090 0.3091 0.3092
3528.000000 0.3093 0.3094 0.3095 0.3096 0.3097
3533.000000 0.3098 0.3099 0.3100 0.3100 0.3101
3538.000000 0.3102 0.3103 0.3104 0.3105 0.3106
3543.000000 0.3107 0.3108 0.3109 0.3109 0.3110
3548.000000 0.3111 0.3112 0.3113 0.3114 0.3115
3553.000000 0.3116 0.3117 0.3118 0.3119 0.3120
3558.000000 0.3121 0.3122 0.3123 0.3124 0.3125
3563.000000 0.3126 0.3126 0.3127 0.3127 0.3128
3568.000000 0.3129 0.3130 0.3130 0.3131 0.3132
3573.000000 0.3132 0.3133 0.3134 0.3134 0.3135
3578.000000 0.3135 0.3135 0.3135 0.3135 0.3136
3583.000000 0.3136 0.3136 0.3137 0.3137 0.3138
3588.000000 0.3138 0.3138 0.3138 0.3138 0.3139
3593.000000 0.3139 0.3139 0.3139 0.3139 0.3139
3598.000000 0.3140 0.3140 0.3140 0.3140 0.3140
3603.000000 0.3140 0.3140 0.3140 0.3140 0.3140
3608.000000 0.3140 0.3140 0.3140 0.3140 0.3140
3613.000000 0.3146 0.3140 0.3140 0.3140 0.3140
3618.000000 0.3139 0.3139 0.3139 0.3139 0.3139
3623.000000 0.3139 0.3138 0.3138 0.3137 0.3137
3628.000000 0.3137 0.3136 0.3136 0.3135 0.3134
3633.000000 0.3134 0.3133 0.3133 0.3132 0.3132
3638.000000 0.3131 0.3131 0.3130 0.3129 0.3129
3643.000000 0.3128 0.3128 0.3127 0.3126 0.3125
3648.000000 0.3124 0.3123 0.3122 0.3121 0.3120
3653.000000 0.3119 0.3118 0.3116 0.3115 0.3113
3658.000000 0.3111 0.3110 0.3108 0.3106 0.3105
3663.000000 0.3103 0.3101 0.3100 0.3098 0.3096
3668.000000 0.3095 0.3093 0.3091 0.3090 0.3088
3673.000000 0.3086 0.3085 0.3083 0.3081 0.3080
3678.000000 0.3078 0.3076 0.3075 0.3073 0.3071
3683.000000 0.3070 0.3068 0.3066 0.3065 0.3063
3688.000000 0.3061 0.3060 0.3058 0.3056 0.3055
3693.000000 0.3053 0.3051 0.3050 0.3048 0.3047
3698.000000 0.3045 0.3043 0.3042 0.3040 0.3038
3703.000000 0.3037 0.3035 0.3033 0.3032 0.3030
3708.000000 0.3028 0.3027 0.3025 0.3024 0.3022
3713.000000 0.3021 0.3020 0.3018 0.3017 0.3015
3718.000000 0.3014 0.3012 0.3011 0.3009 0.3008
3723.000000 0.3006 0.3004 0.3003 0.3001 0.3000
3728.000000 0.2999 0.2997 0.2996 0.2995 0.2994
3733.000000 0.2993 0.2993 0.2992 0.2991 0.2990
3738.000000 0.2990 0.2989 0.2989 0.2988 0.2988
3743.000000 0.2987 0.2986 0.2986 0.2985 0.2984
3748.000000 0.2984 0.2983 0.2983 0.2982 0.2982
3753.000000 0.2982 0.2982 0.2982 0.2982 0.2982
3758.000000 0.2982 0.2982 0.2981 0.2981 0.2981
3763.000000 0.2981 0.2981 0.2981 0.2980 0.2979
3768.000000 0.2979 0.2978 0.2978 0.2977 0.2977
3773.000000 0.2977 0.2976 0.2976 0.2976 0.2975
3778.000000 0.2974 0.2973 0.2972 0.2971 0.2970
3783.000000 0.2968 0.2967 0.2965 0.2963 0.2962
3788.000000 0.2960 0.2959 0.2958 0.2956 0.2955
3793.000000 0.2953 0.2952 0.2950 0.2949 0.2947
3798.000000 0.2946 0.2944 0.2942 0.2940 0.2939
3803.000000 0.2937 0.2935 0.2933 0.2931 0.2929
3808.000000 0.2928 0.2926 0.2924 0.2922 0.2921
3813.000000 0.2919 0.2917 0.2916 0.2914 0.2912
3818.000000 0.2910 0.2908 0.2906 0.2904 0.2902
3823.000000 0.2899 0.2897 0.2894 0.2891 0.2889
3828.000000 0.2886 0.2883 0.2880 0.2878 0.2875
3833.000000 0.2872 0.2869 0.2866 0.2863 0.2860
3838.000000 0.2857 0.2854 0.2850 0.2847 0.2844
3843.000000 0.2841 0.2837 0.2834 0.2831 0.2828
3848.000000 0.2825 0.2822 0.2819 0.2816 0.2813
3853.000000 0.2810 0.2807 0.2804 0.2801 0.2798
3858.000000 0.2795 0.2792 0.2789 0.2787 0.2784
3863.000000 0.2781 0.2778 0.2776 0.2773 0.2770
3868.000000 0.2768 0.2765 0.2762 0.2760 0.2758
3873.000000 0.2756 0.2754 0.2752 0.2750 0.2749
3878.000000 0.2747 0.2745 0.2744 0.2742 0.2740
3883.000000 0.2739 0.2737 0.2736 0.2734 0.2732
3888.000000 0.2731 0.2729 0.2728 0.2726 0.2725
3893.000000 0.2723 0.2722 0.2721 0.2720 0.2719
3898.000000 0.2718 0.2717 0.2717 0.2716 0.2715
3903.000000 0.2714 0.2713 0.2713 0.2712 0.2711
3908.000000 0.2711 0.2711 0.2711 0.2711 0.2711
3913.000000 0.2710 0.2710 0.2710 0.2710 0.2710
3918.000000 0.2710 0.2709 0.2709 0.2709 0.2709
3923.000000 0.2709 0.2709 0.2708 0.2708 0.2708
3928.000000 0.2708 0.2708 0.2708 0.2707 0.2707
3933.000000 0.2707 0.2706 0.2706 0.2706 0.2706
3938.000000 0.2705 0.2705 0.2704 0.2704 0.2703
3943.000000 0.2703 0.2702 0.2702 0.2702 0.2701
3948.000000 0.2701 0.2701 0.2700 0.2700 0.2700
3953.000000 0.2699 0.2699 0.2699 0.2698 0.2698
3958.000000 0.2697 0.2697 0.2696 0.2696 0.2695
3963.000000 0.2695 0.2695 0.2694 0.2694 0.2693
3968.000000 0.2693 0.2692 0.2691 0.2689 0.2688
3973.000000 0.2687 0.2686 0.2685 0.2684 0.2683
3978.000000 0.2682 0.2681 0.2679 0.2678 0.2677
3983.000000 0.2676 0.2675 0.2674 0.2673 0.2672
3988.000000 0.2671 0.2669 0.2668 0.2667 0.2666
3993.000000 0.2664 0.2663 0.2662 0.2661 0.2660
3998.000000 0.2659 0.2658 0.2658
##END=
