##TITLE=LITHIUM SULFATE
##JCAMP-DX=4.24
##DATA TYPE=INFRARED SPECTRUM
##CLASS=COBLENTZ
##ORIGIN=MELLON INSTITUTE
##OWNER=COBLENTZ SOCIETY
Collection (C) 2018 copyright by the U.S. Secretary of Commerce
on behalf of the United States of America. All rights reserved.
##DATE=Not specified, most likely prior to 1970
##MOLFORM=Li2 S O4  * H2 O
##SOURCE REFERENCE=COBLENTZ NO. 541
##$NIST ID=B6000541
##$NIST SOURCE=COBLENTZ
##$NIST IMAGE=cob541
##SPECTROMETER/DATA SYSTEM=Not specified, most likely a prism, grating, or hybrid spectrometer.
##STATE=SOLID (NUJOL MULL)
$$PURITY UNKNOWN
##PATH LENGTH=
$$SPECTRAL CONTAMINATION DUE TO OIL AROUND 2900, 1450, 1380 CM^-^1
##SAMPLING PROCEDURE=TRANSMISSION
##RESOLUTION=4
##DATA PROCESSING=DIGITIZED BY NIST FROM HARD COPY
##XUNITS=MICROMETERS
##YUNITS=TRANSMITTANCE
##XFACTOR=1.000000
##YFACTOR=1
##DELTAX=000.006659
##FIRSTX=2.028
##LASTX=15.9973
##FIRSTY=0.714
##MAXX=15.9973
##MINX=2.028
##MAXY=0.998
##MINY=0.076
##NPOINTS=2099
##XYDATA=(X++(Y..Y))
2.028000 0.7140 0.7140 0.7160 0.7160 0.7160
2.061309 0.7140 0.7140 0.7160 0.7160 0.7160
2.094000 0.7160 0.7170 0.7170 0.7170 0.7170
2.127309 0.7170 0.7170 0.7160 0.7160 0.7160
2.161000 0.7160 0.7140 0.7140 0.7170 0.7190
2.194309 0.7210 0.7220 0.7220 0.7240 0.7240
2.228000 0.7260 0.7260 0.7260 0.7240 0.7240
2.261309 0.7240 0.7240 0.7240 0.7240 0.7240
2.294000 0.7240 0.7240 0.7260 0.7260 0.7260
2.327309 0.7260 0.7260 0.7260 0.7240 0.7240
2.361000 0.7220 0.7220 0.7220 0.7220 0.7220
2.394309 0.7220 0.7210 0.7210 0.7190 0.7190
2.427000 0.7190 0.7190 0.7190 0.7190 0.7190
2.460309 0.7190 0.7190 0.7190 0.7170 0.7170
2.494000 0.7190 0.7190 0.7190 0.7190 0.7190
2.527309 0.7190 0.7210 0.7190 0.7190 0.7190
2.561000 0.7190 0.7210 0.7210 0.7210 0.7210
2.594309 0.7210 0.7210 0.7210 0.7190 0.7170
2.627000 0.7110 0.7090 0.7040 0.7040 0.7040
2.660309 0.7020 0.7040 0.7040 0.7040 0.7020
2.694000 0.7020 0.7020 0.6990 0.6970 0.6890
2.727309 0.6810 0.6740 0.6690 0.6510 0.6440
2.760000 0.6360 0.6310 0.6210 0.6160 0.6020
2.793309 0.5890 0.5800 0.5700 0.5620 0.5520
2.827000 0.5400 0.5320 0.5240 0.5150 0.5120
2.860309 0.5100 0.5070 0.5050 0.5050 0.5050
2.893000 0.5070 0.5090 0.5100 0.5120 0.5140
2.926309 0.5150 0.5200 0.5250 0.5300 0.5370
2.960000 0.5440 0.5500 0.5520 0.5550 0.5600
2.993309 0.5640 0.5670 0.5700 0.5750 0.5840
3.027000 0.5890 0.5940 0.6010 0.6020 0.6090
3.060309 0.6120 0.6210 0.6260 0.6310 0.6340
3.093000 0.6360 0.6440 0.6470 0.6520 0.6540
3.126309 0.6570 0.6620 0.6640 0.6690 0.6720
3.160000 0.6770 0.6820 0.6840 0.6860 0.6910
3.193309 0.6940 0.6960 0.6970 0.7010 0.7020
3.226000 0.7040 0.7060 0.7110 0.7120 0.7140
3.259309 0.7140 0.7140 0.7140 0.7110 0.6820
3.293000 0.6590 0.6210 0.5240 0.5020 0.4900
3.326309 0.4770 0.4170 0.4000 0.3680 0.2920
3.360000 0.2780 0.2780 0.2730 0.2730 0.2780
3.393309 0.2830 0.2920 0.3000 0.3200 0.3400
3.426000 0.3430 0.3430 0.3430 0.3420 0.3420
3.459309 0.3480 0.3570 0.3730 0.4400 0.4690
3.493000 0.5900 0.6420 0.6660 0.6740 0.6910
3.526309 0.7090 0.7160 0.7240 0.7310 0.7370
3.559000 0.7440 0.7560 0.7610 0.7620 0.7660
3.592309 0.7670 0.7690 0.7710 0.7710 0.7710
3.626000 0.7710 0.7720 0.7720 0.7740 0.7740
3.659309 0.7760 0.7760 0.7760 0.7770 0.7770
3.692000 0.7790 0.7790 0.7790 0.7790 0.7790
3.725309 0.7790 0.7810 0.7810 0.7810 0.7810
3.759000 0.7810 0.7810 0.7820 0.7820 0.7820
3.792309 0.7820 0.7820 0.7840 0.7820 0.7840
3.826000 0.7840 0.7840 0.7840 0.7860 0.7860
3.859309 0.7860 0.7860 0.7860 0.7860 0.7860
3.892000 0.7860 0.7860 0.7860 0.7860 0.7860
3.925309 0.7870 0.7890 0.7890 0.7910 0.7910
3.959000 0.7910 0.7920 0.7920 0.7920 0.7940
3.992309 0.7940 0.7960 0.7960 0.7960 0.7960
4.025000 0.7970 0.7970 0.7970 0.7970 0.7970
4.058309 0.7990 0.7990 0.7990 0.8010 0.8010
4.092000 0.8010 0.8010 0.8010 0.8010 0.8010
4.125309 0.8010 0.7990 0.7990 0.7990 0.7990
4.159000 0.7970 0.7970 0.7970 0.7970 0.7960
4.192309 0.7940 0.7910 0.7890 0.7860 0.7860
4.225000 0.7860 0.7860 0.7860 0.7840 0.7840
4.258309 0.7840 0.7840 0.7840 0.7840 0.7840
4.292000 0.7840 0.7840 0.7860 0.7860 0.7860
4.325309 0.7860 0.7860 0.7870 0.7870 0.7910
4.358000 0.7910 0.7910 0.7920 0.7940 0.7940
4.391309 0.7940 0.7940 0.7960 0.7960 0.7960
4.425000 0.7960 0.7960 0.7960 0.7960 0.7940
4.458309 0.7960 0.7940 0.7940 0.7940 0.7920
4.492000 0.7920 0.7890 0.7870 0.7870 0.7870
4.525309 0.7860 0.7840 0.7840 0.7840 0.7840
4.558000 0.7840 0.7840 0.7840 0.7860 0.7840
4.591309 0.7840 0.7840 0.7840 0.7840 0.7860
4.625000 0.7840 0.7840 0.7820 0.7820 0.7810
4.658309 0.7810 0.7810 0.7810 0.7810 0.7810
4.691000 0.7810 0.7790 0.7790 0.7790 0.7770
4.724309 0.7770 0.7760 0.7760 0.7760 0.7760
4.758000 0.7740 0.7740 0.7760 0.7760 0.7770
4.791309 0.7790 0.7790 0.7810 0.7820 0.7820
4.824000 0.7820 0.7820 0.7820 0.7840 0.7860
4.857309 0.7860 0.7870 0.7870 0.7870 0.7870
4.891000 0.7870 0.7870 0.7870 0.7890 0.7890
4.924309 0.7910 0.7910 0.7910 0.7920 0.7920
4.958000 0.7960 0.7970 0.7970 0.7970 0.7970
4.991309 0.7970 0.7970 0.7970 0.7990 0.7990
5.024000 0.7990 0.7990 0.7990 0.8010 0.8010
5.057309 0.8010 0.8010 0.8030 0.8030 0.8030
5.091000 0.8030 0.8040 0.8040 0.8040 0.8060
5.124309 0.8060 0.8060 0.8060 0.8060 0.8060
5.157000 0.8060 0.8060 0.8060 0.8080 0.8080
5.190309 0.8080 0.8080 0.8080 0.8080 0.8080
5.224000 0.8080 0.8080 0.8080 0.8080 0.8080
5.257309 0.8080 0.8080 0.8080 0.8080 0.8080
5.291000 0.8080 0.8080 0.8080 0.8080 0.8080
5.324309 0.8080 0.8080 0.8080 0.8080 0.8080
5.357000 0.8080 0.8080 0.8080 0.8080 0.8080
5.390309 0.8090 0.8090 0.8090 0.8110 0.8110
5.424000 0.8110 0.8110 0.8110 0.8130 0.8130
5.457309 0.8110 0.8110 0.8110 0.8130 0.8130
5.490000 0.8130 0.8130 0.8130 0.8130 0.8130
5.523309 0.8130 0.8130 0.8130 0.8130 0.8130
5.557000 0.8130 0.8140 0.8140 0.8160 0.8160
5.590309 0.8180 0.8190 0.8210 0.8210 0.8210
5.623000 0.8230 0.8230 0.8240 0.8240 0.8240
5.656309 0.8230 0.8230 0.8240 0.8240 0.8240
5.690000 0.8230 0.8230 0.8230 0.8230 0.8210
5.723309 0.8210 0.8210 0.8210 0.8230 0.8230
5.757000 0.8240 0.8240 0.8240 0.8240 0.8260
5.790309 0.8260 0.8260 0.8280 0.8260 0.8260
5.823000 0.8240 0.8260 0.8260 0.8280 0.8280
5.856309 0.8260 0.8240 0.8230 0.8240 0.8230
5.890000 0.8230 0.8240 0.8230 0.8230 0.8190
5.923309 0.8160 0.8140 0.8140 0.8160 0.8160
5.956000 0.8190 0.8190 0.8190 0.8190 0.8180
5.989309 0.8160 0.8130 0.8090 0.8060 0.8040
6.023000 0.8030 0.8010 0.8010 0.7990 0.7940
6.056309 0.7910 0.7860 0.7790 0.7670 0.7510
6.090000 0.7460 0.7410 0.7170 0.6890 0.6720
6.123309 0.6540 0.6210 0.6090 0.6040 0.6040
6.156000 0.6040 0.6090 0.6190 0.6310 0.6490
6.189309 0.6610 0.6790 0.6910 0.7090 0.7320
6.223000 0.7440 0.7760 0.7840 0.7910 0.7920
6.256309 0.7960 0.7990 0.8010 0.8030 0.8090
6.289000 0.8090 0.8010 0.7960 0.7960 0.8010
6.322309 0.8010 0.8030 0.8040 0.8110 0.8110
6.356000 0.8110 0.8090 0.8030 0.8030 0.8080
6.389309 0.8080 0.8130 0.8160 0.8190 0.8230
6.423000 0.8240 0.8260 0.8280 0.8290 0.8290
6.456309 0.8280 0.8280 0.8280 0.8280 0.8280
6.489000 0.8260 0.8260 0.8260 0.8260 0.8260
6.522309 0.8260 0.8260 0.8260 0.8260 0.8260
6.556000 0.8240 0.8240 0.8230 0.8230 0.8230
6.589309 0.8230 0.8230 0.8240 0.8280 0.8290
6.622000 0.8290 0.8290 0.8290 0.8290 0.8280
6.655309 0.8280 0.8230 0.8210 0.8180 0.8160
6.689000 0.8140 0.8060 0.8030 0.8010 0.7910
6.722309 0.7790 0.7720 0.7640 0.7540 0.7470
6.755000 0.7410 0.7210 0.7140 0.6990 0.6760
6.788309 0.6540 0.6390 0.6320 0.6260 0.6240
6.822000 0.6220 0.6210 0.6210 0.6210 0.6210
6.855309 0.6240 0.6260 0.6270 0.6290 0.6310
6.889000 0.6340 0.6370 0.6410 0.6420 0.6460
6.922309 0.6510 0.6570 0.6620 0.6710 0.6890
6.955000 0.7010 0.7210 0.7340 0.7460 0.7490
6.988309 0.7490 0.7540 0.7560 0.7560 0.7560
7.022000 0.7560 0.7560 0.7560 0.7540 0.7540
7.055309 0.7540 0.7540 0.7540 0.7520 0.7510
7.088000 0.7510 0.7490 0.7460 0.7440 0.7390
7.121309 0.7360 0.7260 0.7210 0.7160 0.7120
7.155000 0.7040 0.6990 0.6810 0.6620 0.6560
7.188309 0.6220 0.6090 0.6010 0.5970 0.5900
7.222000 0.5870 0.5850 0.5850 0.5850 0.5840
7.255309 0.5840 0.5840 0.5840 0.5840 0.5840
7.288000 0.5870 0.5890 0.5920 0.5990 0.6010
7.321309 0.6060 0.6160 0.6210 0.6270 0.6360
7.355000 0.6610 0.6660 0.6740 0.6770 0.6840
7.388309 0.6890 0.7010 0.7060 0.7160 0.7220
7.421000 0.7270 0.7320 0.7360 0.7390 0.7440
7.454309 0.7540 0.7560 0.7570 0.7610 0.7620
7.488000 0.7640 0.7660 0.7670 0.7670 0.7690
7.521309 0.7690 0.7710 0.7710 0.7720 0.7740
7.554000 0.7760 0.7760 0.7760 0.7760 0.7760
7.587309 0.7760 0.7760 0.7760 0.7770 0.7770
7.621000 0.7770 0.7790 0.7810 0.7810 0.7810
7.654309 0.7810 0.7820 0.7820 0.7840 0.7840
7.688000 0.7840 0.7840 0.7840 0.7840 0.7840
7.721309 0.7820 0.7820 0.7820 0.7820 0.7810
7.754000 0.7810 0.7790 0.7790 0.7790 0.7790
7.787309 0.7790 0.7790 0.7790 0.7770 0.7770
7.821000 0.7770 0.7770 0.7760 0.7740 0.7740
7.854309 0.7740 0.7740 0.7740 0.7720 0.7720
7.887000 0.7720 0.7720 0.7710 0.7710 0.7690
7.920309 0.7690 0.7690 0.7670 0.7670 0.7660
7.954000 0.7640 0.7620 0.7620 0.7610 0.7610
7.987309 0.7590 0.7570 0.7560 0.7540 0.7520
8.021000 0.7520 0.7510 0.7490 0.7470 0.7440
8.054309 0.7410 0.7370 0.7340 0.7270 0.7260
8.087000 0.7210 0.7160 0.7090 0.7060 0.7020
8.120309 0.6920 0.6840 0.6790 0.6720 0.6660
8.154000 0.6610 0.6560 0.6540 0.6470 0.6390
8.187309 0.6260 0.6140 0.6040 0.6020 0.5950
8.220000 0.5900 0.5800 0.5720 0.5640 0.5400
8.253309 0.5320 0.5240 0.5140 0.5040 0.4950
8.287000 0.4850 0.4690 0.4520 0.4340 0.4270
8.320309 0.4170 0.4100 0.4000 0.3900 0.3720
8.354000 0.3570 0.3530 0.3300 0.3170 0.3070
8.387309 0.3030 0.2850 0.2750 0.2650 0.2580
8.420000 0.2520 0.2480 0.2450 0.2400 0.2370
8.453309 0.2300 0.2230 0.2170 0.2130 0.2080
8.487000 0.2050 0.2050 0.2030 0.2020 0.2020
8.520309 0.2020 0.2020 0.2020 0.2020 0.2020
8.553000 0.2020 0.2020 0.2030 0.2070 0.2080
8.586309 0.2100 0.2100 0.2100 0.2100 0.2100
8.620000 0.2100 0.2100 0.2070 0.2030 0.2030
8.653309 0.2020 0.2000 0.2000 0.1980 0.1980
8.686000 0.1980 0.1980 0.1960 0.1950 0.1930
8.719309 0.1900 0.1850 0.1810 0.1760 0.1760
8.753000 0.1730 0.1710 0.1700 0.1660 0.1610
8.786309 0.1560 0.1510 0.1460 0.1410 0.1380
8.820000 0.1350 0.1310 0.1260 0.1230 0.1160
8.853309 0.1100 0.1050 0.1030 0.1000 0.1000
8.886000 0.0950 0.0950 0.0930 0.0910 0.0900
8.919309 0.0860 0.0850 0.0850 0.0830 0.0810
8.953000 0.0800 0.0800 0.0780 0.0780 0.0780
8.986309 0.0780 0.0780 0.0780 0.0760 0.0760
9.019000 0.0760 0.0760 0.0780 0.0780 0.0800
9.052309 0.0800 0.0810 0.0830 0.0850 0.1000
9.086000 0.1030 0.1150 0.1200 0.1280 0.1360
9.119309 0.1430 0.1510 0.1880 0.2020 0.2100
9.153000 0.2200 0.2350 0.2450 0.2720 0.2830
9.186309 0.3020 0.3130 0.3250 0.3400 0.3500
9.219000 0.3630 0.3730 0.4140 0.4220 0.4400
9.252309 0.4490 0.4590 0.4720 0.4840 0.4920
9.286000 0.5070 0.5200 0.5340 0.5390 0.5500
9.319309 0.5550 0.5590 0.5650 0.5700 0.5750
9.352000 0.5840 0.5900 0.5940 0.6010 0.6020
9.385309 0.6160 0.6220 0.6260 0.6290 0.6320
9.419000 0.6420 0.6520 0.6560 0.6620 0.6670
9.452309 0.6720 0.6760 0.6840 0.6860 0.6910
9.485000 0.6940 0.6990 0.7020 0.7020 0.7040
9.518309 0.7060 0.7090 0.7120 0.7140 0.7160
9.552000 0.7210 0.7240 0.7310 0.7370 0.7410
9.585309 0.7460 0.7540 0.7570 0.7640 0.7660
9.619000 0.7670 0.7710 0.7720 0.7740 0.7760
9.652309 0.7770 0.7790 0.7810 0.7820 0.7820
9.685000 0.7840 0.7840 0.7860 0.7870 0.7870
9.718309 0.7870 0.7910 0.7910 0.7920 0.7920
9.752000 0.7920 0.7920 0.7920 0.7920 0.7920
9.785309 0.7920 0.7920 0.7920 0.7920 0.7920
9.818000 0.7920 0.7920 0.7920 0.7940 0.7960
9.851309 0.7970 0.7990 0.8010 0.8030 0.8030
9.885000 0.8040 0.8060 0.8060 0.8060 0.8080
9.918309 0.8110 0.8130 0.8140 0.8160 0.8180
9.952000 0.8190 0.8210 0.8240 0.8240 0.8260
9.985309 0.8280 0.8290 0.8310 0.8330 0.8340
10.018000 0.8360 0.8380 0.8390 0.8390 0.8410
10.051309 0.8430 0.8440 0.8440 0.8460 0.8480
10.085000 0.8480 0.8490 0.8510 0.8510 0.8530
10.118309 0.8530 0.8540 0.8540 0.8560 0.8580
10.151000 0.8580 0.8580 0.8580 0.8630 0.8630
10.184309 0.8630 0.8640 0.8660 0.8680 0.8690
10.218000 0.8690 0.8710 0.8730 0.8740 0.8740
10.251309 0.8740 0.8760 0.8760 0.8780 0.8790
10.285000 0.8810 0.8810 0.8830 0.8840 0.8860
10.318309 0.8880 0.8890 0.8910 0.8930 0.8930
10.351000 0.8940 0.8960 0.8960 0.8980 0.8980
10.384309 0.8980 0.8990 0.8990 0.8990 0.9010
10.418000 0.9010 0.9010 0.9030 0.9040 0.9040
10.451309 0.9060 0.9060 0.9080 0.9080 0.9090
10.484000 0.9090 0.9090 0.9110 0.9110 0.9110
10.517309 0.9130 0.9130 0.9130 0.9130 0.9130
10.551000 0.9130 0.9130 0.9130 0.9140 0.9160
10.584309 0.9160 0.9180 0.9180 0.9180 0.9190
10.617000 0.9190 0.9190 0.9210 0.9210 0.9230
10.650309 0.9230 0.9230 0.9240 0.9240 0.9240
10.684000 0.9260 0.9260 0.9260 0.9260 0.9260
10.717309 0.9260 0.9280 0.9280 0.9260 0.9260
10.751000 0.9280 0.9280 0.9280 0.9280 0.9280
10.784309 0.9280 0.9280 0.9280 0.9280 0.9280
10.817000 0.9290 0.9280 0.9280 0.9280 0.9280
10.850309 0.9280 0.9280 0.9290 0.9290 0.9310
10.884000 0.9310 0.9310 0.9310 0.9310 0.9310
10.917309 0.9310 0.9310 0.9330 0.9330 0.9310
10.950000 0.9330 0.9330 0.9330 0.9330 0.9340
10.983309 0.9340 0.9360 0.9360 0.9380 0.9380
11.017000 0.9390 0.9390 0.9390 0.9410 0.9410
11.050309 0.9430 0.9430 0.9430 0.9430 0.9430
11.084000 0.9440 0.9440 0.9460 0.9460 0.9460
11.117309 0.9460 0.9480 0.9480 0.9480 0.9490
11.150000 0.9510 0.9530 0.9530 0.9530 0.9530
11.183309 0.9530 0.9540 0.9540 0.9560 0.9560
11.217000 0.9560 0.9560 0.9560 0.9580 0.9580
11.250309 0.9580 0.9580 0.9580 0.9580 0.9580
11.283000 0.9580 0.9580 0.9580 0.9580 0.9580
11.316309 0.9610 0.9610 0.9610 0.9630 0.9630
11.350000 0.9630 0.9630 0.9630 0.9630 0.9640
11.383309 0.9640 0.9660 0.9660 0.9660 0.9660
11.416000 0.9660 0.9660 0.9680 0.9680 0.9680
11.449309 0.9690 0.9690 0.9690 0.9690 0.9690
11.483000 0.9690 0.9690 0.9710 0.9710 0.9710
11.516309 0.9710 0.9710 0.9730 0.9730 0.9730
11.550000 0.9730 0.9730 0.9730 0.9740 0.9740
11.583309 0.9740 0.9740 0.9740 0.9740 0.9740
11.616000 0.9740 0.9760 0.9760 0.9760 0.9760
11.649309 0.9780 0.9780 0.9780 0.9780 0.9780
11.683000 0.9780 0.9790 0.9790 0.9790 0.9790
11.716309 0.9810 0.9810 0.9810 0.9810 0.9810
11.749000 0.9810 0.9830 0.9830 0.9830 0.9840
11.782309 0.9860 0.9860 0.9880 0.9880 0.9880
11.816000 0.9890 0.9890 0.9890 0.9890 0.9890
11.849309 0.9880 0.9880 0.9880 0.9880 0.9890
11.883000 0.9890 0.9890 0.9910 0.9910 0.9930
11.916309 0.9930 0.9930 0.9930 0.9910 0.9910
11.949000 0.9910 0.9930 0.9930 0.9930 0.9930
11.982309 0.9930 0.9940 0.9940 0.9940 0.9940
12.016000 0.9940 0.9940 0.9940 0.9940 0.9960
12.049309 0.9960 0.9960 0.9960 0.9960 0.9940
12.082000 0.9940 0.9940 0.9960 0.9960 0.9960
12.115309 0.9960 0.9960 0.9960 0.9980 0.9980
12.149000 0.9960 0.9940 0.9940 0.9940 0.9910
12.182309 0.9880 0.9880 0.9840 0.9760 0.9740
12.215000 0.9730 0.9730 0.9710 0.9690 0.9690
12.248309 0.9710 0.9730 0.9760 0.9780 0.9780
12.282000 0.9830 0.9840 0.9860 0.9880 0.9880
12.315309 0.9880 0.9910 0.9910 0.9930 0.9930
12.349000 0.9930 0.9940 0.9940 0.9940 0.9940
12.382309 0.9940 0.9940 0.9960 0.9960 0.9960
12.415000 0.9960 0.9960 0.9960 0.9940 0.9940
12.448309 0.9940 0.9940 0.9940 0.9930 0.9930
12.482000 0.9930 0.9930 0.9930 0.9930 0.9930
12.515309 0.9930 0.9930 0.9930 0.9930 0.9930
12.548000 0.9930 0.9930 0.9930 0.9930 0.9930
12.581309 0.9930 0.9930 0.9930 0.9940 0.9940
12.615000 0.9940 0.9930 0.9930 0.9930 0.9930
12.648309 0.9930 0.9910 0.9910 0.9910 0.9910
12.682000 0.9910 0.9910 0.9910 0.9910 0.9910
12.715309 0.9910 0.9910 0.9910 0.9910 0.9910
12.748000 0.9930 0.9930 0.9930 0.9930 0.9930
12.781309 0.9930 0.9930 0.9930 0.9940 0.9930
12.815000 0.9930 0.9940 0.9940 0.9930 0.9930
12.848309 0.9890 0.9840 0.9830 0.9830 0.9810
12.881000 0.9810 0.9810 0.9810 0.9790 0.9780
12.914309 0.9760 0.9760 0.9730 0.9730 0.9710
12.948000 0.9710 0.9710 0.9690 0.9680 0.9680
12.981309 0.9680 0.9680 0.9680 0.9690 0.9690
13.015000 0.9680 0.9680 0.9680 0.9680 0.9680
13.048309 0.9660 0.9660 0.9660 0.9660 0.9640
13.081000 0.9640 0.9640 0.9640 0.9630 0.9610
13.114309 0.9590 0.9590 0.9580 0.9580 0.9580
13.148000 0.9580 0.9580 0.9560 0.9560 0.9560
13.181309 0.9540 0.9540 0.9540 0.9540 0.9540
13.214000 0.9540 0.9540 0.9540 0.9530 0.9530
13.247309 0.9530 0.9530 0.9530 0.9530 0.9530
13.281000 0.9530 0.9530 0.9530 0.9510 0.9480
13.314309 0.9480 0.9460 0.9440 0.9430 0.9430
13.347000 0.9430 0.9430 0.9430 0.9430 0.9440
13.380309 0.9440 0.9440 0.9440 0.9430 0.9430
13.414000 0.9410 0.9410 0.9390 0.9380 0.9360
13.447309 0.9340 0.9310 0.9280 0.9260 0.9240
13.481000 0.9210 0.9180 0.9140 0.9110 0.9060
13.514309 0.9060 0.9060 0.9040 0.9040 0.9040
13.547000 0.9040 0.9030 0.9030 0.9030 0.9030
13.580309 0.9030 0.9030 0.9030 0.9030 0.9030
13.614000 0.9030 0.9030 0.9030 0.9010 0.9010
13.647309 0.9010 0.9010 0.9010 0.9010 0.8990
13.680000 0.8980 0.8980 0.8980 0.8980 0.8980
13.713309 0.8980 0.8960 0.8960 0.8940 0.8940
13.747000 0.8930 0.8910 0.8910 0.8910 0.8890
13.780309 0.8880 0.8880 0.8880 0.8860 0.8840
13.814000 0.8830 0.8830 0.8830 0.8810 0.8810
13.847309 0.8810 0.8810 0.8810 0.8810 0.8810
13.880000 0.8810 0.8810 0.8810 0.8810 0.8790
13.913309 0.8790 0.8790 0.8780 0.8780 0.8780
13.947000 0.8760 0.8760 0.8760 0.8760 0.8780
13.980309 0.8780 0.8780 0.8780 0.8780 0.8760
14.013000 0.8760 0.8740 0.8730 0.8730 0.8730
14.046309 0.8730 0.8730 0.8710 0.8710 0.8710
14.080000 0.8710 0.8710 0.8680 0.8660 0.8660
14.113309 0.8640 0.8630 0.8630 0.8630 0.8610
14.146000 0.8580 0.8580 0.8560 0.8540 0.8530
14.179309 0.8530 0.8530 0.8490 0.8460 0.8460
14.213000 0.8440 0.8440 0.8430 0.8410 0.8390
14.246309 0.8390 0.8380 0.8360 0.8360 0.8340
14.280000 0.8330 0.8290 0.8280 0.8280 0.8260
14.313309 0.8240 0.8210 0.8180 0.8180 0.8160
14.346000 0.8160 0.8090 0.8060 0.8040 0.8030
14.379309 0.7990 0.7990 0.7970 0.7970 0.7970
14.413000 0.7960 0.7940 0.7920 0.7910 0.7890
14.446309 0.7870 0.7870 0.7860 0.7860 0.7860
14.479000 0.7820 0.7810 0.7770 0.7740 0.7720
14.512309 0.7690 0.7670 0.7660 0.7660 0.7620
14.546000 0.7610 0.7610 0.7570 0.7570 0.7560
14.579309 0.7560 0.7540 0.7540 0.7520 0.7510
14.613000 0.7490 0.7470 0.7470 0.7470 0.7470
14.646309 0.7460 0.7460 0.7440 0.7420 0.7420
14.679000 0.7420 0.7410 0.7370 0.7360 0.7340
14.712309 0.7320 0.7320 0.7290 0.7270 0.7260
14.746000 0.7260 0.7220 0.7210 0.7190 0.7190
14.779309 0.7170 0.7170 0.7160 0.7140 0.7120
14.812000 0.7120 0.7110 0.7090 0.7070 0.7070
14.845309 0.7060 0.7060 0.7040 0.7040 0.7010
14.879000 0.6940 0.6870 0.6820 0.6770 0.6740
14.912309 0.6720 0.6670 0.6620 0.6570 0.6560
14.946000 0.6540 0.6520 0.6490 0.6470 0.6460
14.979309 0.6460 0.6440 0.6420 0.6410 0.6370
15.012000 0.6370 0.6340 0.6320 0.6310 0.6310
15.045309 0.6290 0.6290 0.6270 0.6260 0.6260
15.079000 0.6240 0.6220 0.6220 0.6210 0.6190
15.112309 0.6190 0.6160 0.6160 0.6140 0.6120
15.145000 0.6110 0.6090 0.6070 0.6040 0.6040
15.178309 0.6040 0.6020 0.6020 0.6020 0.6020
15.212000 0.6010 0.6010 0.5950 0.5940 0.5900
15.245309 0.5890 0.5890 0.5870 0.5850 0.5850
15.278000 0.5820 0.5800 0.5790 0.5770 0.5770
15.311309 0.5770 0.5750 0.5750 0.5750 0.5740
15.345000 0.5720 0.5700 0.5700 0.5700 0.5700
15.378309 0.5690 0.5690 0.5690 0.5690 0.5700
15.412000 0.5700 0.5700 0.5720 0.5720 0.5740
15.445309 0.5740 0.5740 0.5740 0.5740 0.5740
15.478000 0.5740 0.5740 0.5750 0.5750 0.5770
15.511309 0.5770 0.5790 0.5790 0.5790 0.5800
15.545000 0.5800 0.5800 0.5800 0.5820 0.5820
15.578309 0.5820 0.5840 0.5850 0.5850 0.5850
15.611000 0.5870 0.5870 0.5870 0.5890 0.5900
15.644309 0.5920 0.5920 0.5940 0.5950 0.5950
15.678000 0.5970 0.5970 0.5990 0.6010 0.6010
15.711309 0.6010 0.6020 0.6020 0.6040 0.6040
15.745000 0.6060 0.6060 0.6060 0.6070 0.6070
15.778309 0.6090 0.6090 0.6110 0.6110 0.6120
15.811000 0.6120 0.6140 0.6140 0.6160 0.6170
15.844309 0.6170 0.6190 0.6190 0.6190 0.6210
15.878000 0.6210 0.6220 0.6220 0.6240 0.6240
15.911309 0.6260 0.6260 0.6270 0.6290 0.6290
15.944000 0.6290 0.6290 0.6310 0.6310 0.6320
15.977309 0.6340 0.6340 0.6320 0.6340
##END=
