##TITLE=2,2,3-TRICHLOROPROPIONIC ACID, 2,3,4,6-TETRACHLOROPHENYL ESTER
##JCAMP-DX=4.24
##DATA TYPE=INFRARED SPECTRUM
##CLASS=COBLENTZ
##ORIGIN=DOW CHEMICAL COMPANY
##OWNER=COBLENTZ SOCIETY
Collection (C) 2018 copyright by the U.S. Secretary of Commerce
on behalf of the United States of America. All rights reserved.
##DATE=Not specified, most likely prior to 1970
##NAMES=2,3,4,6-tetrachlorophenyl 2,2,3-trichloropropanoate
##MOLFORM=C9 H3 Cl7 O2
##SOURCE REFERENCE=COBLENTZ NO. 3927
##$NIST ID=B6003927
##$NIST SOURCE=COBLENTZ
##$NIST IMAGE=cob3927
##SPECTROMETER/DATA SYSTEM=Not specified, most likely a prism, grating, or hybrid spectrometer.
##STATE=SOLUTION (10% CCl4 FOR 5000-1300, 10% CS2 FOR 1300-625 CM^-^1)
##PATH LENGTH=0.01 CM, 0.01 CM
##SAMPLING PROCEDURE=TRANSMISSION
##RESOLUTION=4
##DATA PROCESSING=DIGITIZED BY NIST FROM HARD COPY
##XUNITS=MICROMETERS
##YUNITS=TRANSMITTANCE
##XFACTOR=1.000000
##YFACTOR=1
##DELTAX=000.006184
##FIRSTX=2.025
##LASTX=15.9317
##FIRSTY=0.848
##MAXX=15.9317
##MINX=2.025
##MAXY=0.938
##MINY=0.092
##NPOINTS=2250
##XYDATA=(X++(Y..Y))
2.025000 0.8480 0.8480 0.8480 0.8480 0.8500
2.055932 0.8520 0.8520 0.8520 0.8530 0.8530
2.087000 0.8530 0.8550 0.8550 0.8550 0.8560
2.117932 0.8580 0.8580 0.8590 0.8590 0.8590
2.148000 0.8610 0.8610 0.8610 0.8610 0.8610
2.178932 0.8610 0.8610 0.8610 0.8610 0.8590
2.210000 0.8590 0.8590 0.8610 0.8610 0.8620
2.240932 0.8620 0.8620 0.8640 0.8640 0.8640
2.272000 0.8640 0.8640 0.8640 0.8640 0.8640
2.302932 0.8640 0.8640 0.8640 0.8640 0.8650
2.334000 0.8650 0.8650 0.8650 0.8670 0.8670
2.364932 0.8690 0.8700 0.8700 0.8720 0.8730
2.396000 0.8750 0.8750 0.8750 0.8750 0.8750
2.426932 0.8730 0.8730 0.8730 0.8730 0.8750
2.458000 0.8750 0.8750 0.8750 0.8760 0.8760
2.488932 0.8760 0.8750 0.8750 0.8750 0.8720
2.519000 0.8720 0.8720 0.8730 0.8750 0.8760
2.549932 0.8780 0.8780 0.8780 0.8760 0.8750
2.581000 0.8720 0.8720 0.8730 0.8760 0.8780
2.611932 0.8780 0.8790 0.8790 0.8790 0.8780
2.643000 0.8780 0.8780 0.8760 0.8760 0.8750
2.673932 0.8730 0.8750 0.8780 0.8780 0.8790
2.705000 0.8790 0.8790 0.8780 0.8750 0.8730
2.735932 0.8720 0.8700 0.8720 0.8720 0.8690
2.767000 0.8650 0.8620 0.8610 0.8590 0.8580
2.797932 0.8560 0.8560 0.8560 0.8580 0.8590
2.829000 0.8620 0.8640 0.8650 0.8670 0.8670
2.859932 0.8690 0.8700 0.8700 0.8690 0.8690
2.890000 0.8670 0.8650 0.8670 0.8700 0.8720
2.920932 0.8730 0.8730 0.8720 0.8690 0.8670
2.952000 0.8650 0.8650 0.8670 0.8690 0.8690
2.982932 0.8690 0.8690 0.8690 0.8670 0.8670
3.014000 0.8670 0.8670 0.8650 0.8650 0.8620
3.044932 0.8620 0.8620 0.8610 0.8610 0.8610
3.076000 0.8610 0.8590 0.8580 0.8560 0.8530
3.106932 0.8520 0.8520 0.8500 0.8500 0.8480
3.138000 0.8440 0.8410 0.8390 0.8380 0.8360
3.168932 0.8350 0.8330 0.8320 0.8300 0.8250
3.200000 0.8220 0.8190 0.8180 0.8160 0.8160
3.230932 0.8180 0.8220 0.8240 0.8250 0.8280
3.261000 0.8350 0.8390 0.8390 0.8410 0.8410
3.291932 0.8420 0.8420 0.8440 0.8450 0.8480
3.323000 0.8500 0.8500 0.8470 0.8440 0.8420
3.353932 0.8420 0.8450 0.8520 0.8560 0.8620
3.385000 0.8700 0.8730 0.8750 0.8760 0.8790
3.415932 0.8810 0.8820 0.8820 0.8820 0.8820
3.447000 0.8810 0.8790 0.8790 0.8810 0.8820
3.477932 0.8870 0.8870 0.8870 0.8850 0.8850
3.509000 0.8840 0.8840 0.8850 0.8850 0.8870
3.539932 0.8890 0.8900 0.8920 0.8920 0.8920
3.571000 0.8920 0.8900 0.8900 0.8920 0.8950
3.601932 0.8960 0.8980 0.9010 0.9010 0.9010
3.633000 0.9010 0.9010 0.9010 0.9010 0.9010
3.663932 0.9010 0.9020 0.9020 0.9020 0.9040
3.694000 0.9040 0.9060 0.9060 0.9060 0.9060
3.724932 0.9060 0.9060 0.9070 0.9070 0.9090
3.756000 0.9120 0.9130 0.9180 0.9180 0.9190
3.786932 0.9190 0.9190 0.9190 0.9190 0.9210
3.818000 0.9210 0.9210 0.9210 0.9210 0.9210
3.848932 0.9220 0.9220 0.9220 0.9220 0.9220
3.880000 0.9220 0.9240 0.9240 0.9240 0.9240
3.910932 0.9240 0.9260 0.9260 0.9260 0.9260
3.942000 0.9260 0.9260 0.9260 0.9260 0.9260
3.972932 0.9260 0.9270 0.9270 0.9270 0.9270
4.004000 0.9270 0.9270 0.9270 0.9270 0.9270
4.034932 0.9290 0.9290 0.9290 0.9290 0.9290
4.065000 0.9290 0.9290 0.9290 0.9290 0.9290
4.095932 0.9290 0.9290 0.9290 0.9290 0.9270
4.127000 0.9270 0.9270 0.9270 0.9260 0.9260
4.157932 0.9260 0.9240 0.9240 0.9220 0.9210
4.189000 0.9190 0.9180 0.9120 0.9090 0.9060
4.219932 0.9020 0.8990 0.8960 0.8960 0.8950
4.251000 0.8950 0.8950 0.8950 0.8950 0.8960
4.281932 0.8960 0.8960 0.8980 0.8980 0.8980
4.313000 0.8980 0.8980 0.8990 0.8990 0.8990
4.343932 0.9020 0.9020 0.9060 0.9100 0.9100
4.375000 0.9120 0.9120 0.9130 0.9180 0.9240
4.405932 0.9260 0.9270 0.9270 0.9300 0.9300
4.436000 0.9320 0.9330 0.9350 0.9350 0.9360
4.466932 0.9360 0.9380 0.9380 0.9380 0.9380
4.498000 0.9380 0.9380 0.9360 0.9360 0.9360
4.528932 0.9360 0.9350 0.9350 0.9350 0.9350
4.560000 0.9350 0.9350 0.9330 0.9330 0.9330
4.590932 0.9330 0.9330 0.9330 0.9330 0.9330
4.622000 0.9330 0.9330 0.9330 0.9320 0.9320
4.652932 0.9320 0.9320 0.9320 0.9320 0.9320
4.684000 0.9320 0.9320 0.9330 0.9330 0.9330
4.714932 0.9320 0.9320 0.9320 0.9320 0.9330
4.746000 0.9380 0.9380 0.9380 0.9350 0.9350
4.776932 0.9330 0.9330 0.9320 0.9320 0.9300
4.807000 0.9300 0.9300 0.9300 0.9300 0.9300
4.837932 0.9290 0.9290 0.9290 0.9290 0.9290
4.869000 0.9290 0.9290 0.9290 0.9290 0.9270
4.899932 0.9270 0.9270 0.9270 0.9270 0.9270
4.931000 0.9270 0.9270 0.9260 0.9260 0.9260
4.961932 0.9260 0.9260 0.9260 0.9260 0.9260
4.993000 0.9260 0.9260 0.9260 0.9260 0.9260
5.023932 0.9270 0.9270 0.9290 0.9290 0.9290
5.055000 0.9300 0.9300 0.9300 0.9300 0.9300
5.085932 0.9300 0.9300 0.9300 0.9300 0.9300
5.117000 0.9300 0.9320 0.9320 0.9320 0.9320
5.147932 0.9320 0.9320 0.9320 0.9320 0.9320
5.178000 0.9300 0.9300 0.9300 0.9320 0.9320
5.208932 0.9330 0.9330 0.9330 0.9330 0.9320
5.240000 0.9300 0.9300 0.9290 0.9270 0.9270
5.270932 0.9240 0.9220 0.9210 0.9210 0.9210
5.302000 0.9210 0.9210 0.9190 0.9180 0.9180
5.332932 0.9160 0.9160 0.9180 0.9210 0.9220
5.364000 0.9220 0.9220 0.9220 0.9190 0.9150
5.394932 0.9040 0.8990 0.8980 0.8920 0.8850
5.426000 0.8820 0.8790 0.8670 0.8560 0.8450
5.456932 0.8320 0.8070 0.7760 0.7410 0.6970
5.488000 0.6500 0.5960 0.5260 0.4930 0.4570
5.518932 0.4170 0.4060 0.3790 0.3400 0.3400
5.549000 0.3550 0.3600 0.3600 0.3320 0.3050
5.579932 0.2630 0.2600 0.2010 0.2010 0.2440
5.611000 0.2780 0.3660 0.4510 0.6160 0.6940
5.641932 0.7700 0.8010 0.8220 0.8280 0.8300
5.673000 0.8320 0.8330 0.8380 0.8420 0.8470
5.703932 0.8500 0.8530 0.8530 0.8590 0.8590
5.735000 0.8620 0.8670 0.8690 0.8690 0.8690
5.765932 0.8690 0.8670 0.8670 0.8670 0.8670
5.797000 0.8730 0.8790 0.8870 0.8930 0.8980
5.827932 0.8990 0.9010 0.9020 0.9040 0.9040
5.859000 0.9040 0.9060 0.9060 0.9060 0.9060
5.889932 0.9060 0.9060 0.9070 0.9070 0.9090
5.920000 0.9090 0.9090 0.9090 0.9090 0.9070
5.950932 0.9040 0.9020 0.9020 0.9010 0.9010
5.982000 0.9010 0.9010 0.8990 0.8990 0.9060
6.012932 0.9060 0.9010 0.8980 0.8960 0.8930
6.044000 0.8920 0.8930 0.8960 0.8990 0.8960
6.074932 0.8960 0.8930 0.8920 0.8890 0.8820
6.106000 0.8790 0.8780 0.8760 0.8730 0.8700
6.136932 0.8640 0.8610 0.8590 0.8550 0.8500
6.168000 0.8450 0.8320 0.8180 0.8080 0.8020
6.198932 0.7910 0.7760 0.7500 0.7410 0.7250
6.230000 0.7100 0.6940 0.6760 0.6650 0.6510
6.260932 0.6400 0.6310 0.6190 0.6100 0.6000
6.292000 0.5930 0.5850 0.5770 0.5680 0.5560
6.322932 0.5460 0.5370 0.5250 0.5140 0.5000
6.353000 0.4960 0.4910 0.4820 0.4730 0.4650
6.383932 0.4560 0.4450 0.4310 0.4160 0.4050
6.415000 0.3940 0.3880 0.3860 0.3850 0.3860
6.445932 0.3970 0.4030 0.4250 0.4510 0.4760
6.477000 0.4990 0.5450 0.5560 0.5710 0.5790
6.507932 0.5850 0.5930 0.5960 0.5970 0.5990
6.539000 0.6040 0.6130 0.6220 0.6340 0.6450
6.569932 0.6590 0.6710 0.6810 0.6910 0.7010
6.601000 0.7130 0.7240 0.7390 0.7550 0.7610
6.631932 0.7750 0.7820 0.7880 0.7910 0.7980
6.663000 0.8040 0.8120 0.8220 0.8320 0.8390
6.693932 0.8420 0.8450 0.8470 0.8480 0.8500
6.724000 0.8500 0.8500 0.8440 0.8420 0.8390
6.754932 0.8330 0.8300 0.8300 0.8280 0.8280
6.786000 0.8300 0.8300 0.8280 0.8240 0.8180
6.816932 0.8070 0.8040 0.7960 0.7810 0.7670
6.848000 0.7560 0.7480 0.7420 0.7360 0.7300
6.878932 0.7210 0.7070 0.6970 0.6850 0.6680
6.910000 0.6500 0.6270 0.5960 0.5570 0.5030
6.940932 0.4770 0.4510 0.3880 0.3050 0.2410
6.972000 0.1810 0.1210 0.0920 0.0920 0.1090
7.002932 0.1520 0.2030 0.2610 0.3230 0.3860
7.034000 0.4460 0.5560 0.5960 0.6250 0.6560
7.064932 0.6810 0.7050 0.7190 0.7240 0.7280
7.095000 0.7300 0.7300 0.7300 0.7280 0.7210
7.125932 0.7050 0.6960 0.6790 0.6650 0.6480
7.157000 0.6300 0.6050 0.5900 0.5560 0.5450
7.187932 0.5310 0.5110 0.5020 0.5020 0.5100
7.219000 0.5170 0.5340 0.5460 0.5570 0.5600
7.249932 0.5590 0.5460 0.5250 0.5110 0.4970
7.281000 0.4530 0.3490 0.3400 0.3060 0.2610
7.311932 0.2290 0.2230 0.2310 0.2630 0.3200
7.343000 0.3920 0.4570 0.5670 0.6050 0.6470
7.373932 0.6730 0.7050 0.7250 0.7360 0.7590
7.405000 0.7820 0.7910 0.8010 0.8020 0.8120
7.435932 0.8210 0.8300 0.8350 0.8390 0.8390
7.466000 0.8390 0.8390 0.8390 0.8390 0.8410
7.496932 0.8440 0.8500 0.8520 0.8530 0.8550
7.528000 0.8560 0.8550 0.8520 0.8500 0.8440
7.558932 0.8390 0.8350 0.8300 0.8280 0.8240
7.590000 0.8220 0.8210 0.8180 0.8160 0.8130
7.620932 0.8120 0.8080 0.8050 0.8020 0.7990
7.652000 0.7960 0.7950 0.7900 0.7810 0.7700
7.682932 0.7550 0.7360 0.7220 0.7050 0.6900
7.714000 0.6710 0.6540 0.6360 0.6170 0.5970
7.744932 0.5800 0.5670 0.5560 0.5420 0.5390
7.776000 0.5370 0.5390 0.5600 0.5910 0.6340
7.806932 0.6840 0.7130 0.7410 0.7590 0.7610
7.837000 0.7620 0.7590 0.7500 0.7420 0.7380
7.867932 0.7300 0.7160 0.7040 0.6850 0.6650
7.899000 0.6400 0.6160 0.5850 0.5620 0.5310
7.929932 0.5140 0.4970 0.4570 0.4140 0.3630
7.961000 0.3150 0.2610 0.2260 0.2030 0.1750
7.991932 0.1630 0.1630 0.1670 0.1920 0.2090
8.023000 0.2240 0.2370 0.2520 0.2690 0.2800
8.053932 0.2950 0.3050 0.3230 0.3460 0.3710
8.085000 0.3970 0.4260 0.4540 0.4800 0.5280
8.115932 0.5460 0.5620 0.5700 0.5700 0.5680
8.147000 0.5600 0.5510 0.5400 0.5200 0.5000
8.177932 0.4890 0.4770 0.4590 0.4420 0.4310
8.208000 0.4160 0.4050 0.4050 0.4110 0.4260
8.238932 0.4600 0.4860 0.5450 0.5600 0.5830
8.270000 0.5960 0.6000 0.6100 0.6140 0.6190
8.300932 0.6190 0.6140 0.6110 0.6040 0.5960
8.332000 0.5760 0.5560 0.5280 0.5110 0.4940
8.362932 0.4590 0.4230 0.3710 0.3400 0.3060
8.394000 0.2770 0.2550 0.2230 0.2200 0.2200
8.424932 0.2490 0.2860 0.3030 0.3250 0.3380
8.456000 0.3490 0.3490 0.3450 0.3400 0.3260
8.486932 0.3080 0.2830 0.2650 0.2430 0.2290
8.518000 0.2030 0.2010 0.2030 0.2110 0.2340
8.548932 0.2680 0.2950 0.3280 0.3550 0.3820
8.580000 0.4030 0.4250 0.4450 0.4660 0.4880
8.610932 0.5220 0.5390 0.5400 0.5400 0.5390
8.641000 0.5300 0.5190 0.5080 0.4970 0.4800
8.671932 0.4460 0.4050 0.3600 0.3180 0.2850
8.703000 0.2460 0.2150 0.1810 0.1610 0.1470
8.733932 0.1400 0.1400 0.1490 0.1750 0.2030
8.765000 0.2370 0.2800 0.3090 0.3490 0.3660
8.795932 0.3800 0.4200 0.4510 0.4660 0.4830
8.827000 0.4850 0.4890 0.4930 0.4990 0.4990
8.857932 0.4990 0.4910 0.4800 0.4710 0.4540
8.889000 0.4340 0.4160 0.3970 0.3800 0.3790
8.919932 0.3800 0.4000 0.4200 0.4600 0.5500
8.951000 0.5990 0.6360 0.6710 0.7050 0.7310
8.981932 0.7510 0.7610 0.7650 0.7780 0.7870
9.012000 0.7900 0.7930 0.7990 0.8010 0.8020
9.042932 0.8080 0.8120 0.8120 0.8130 0.8120
9.074000 0.8100 0.8020 0.8010 0.7980 0.7900
9.104932 0.7810 0.7710 0.7620 0.7480 0.7410
9.136000 0.7270 0.7130 0.7010 0.6870 0.6710
9.166932 0.6560 0.6360 0.6110 0.5930 0.5820
9.198000 0.5540 0.5260 0.5130 0.4990 0.4680
9.228932 0.4560 0.4400 0.4260 0.4140 0.4120
9.260000 0.4140 0.4360 0.4510 0.4790 0.5370
9.290932 0.5760 0.5970 0.6070 0.6310 0.6470
9.322000 0.6620 0.6870 0.7020 0.7190 0.7360
9.352932 0.7440 0.7550 0.7610 0.7680 0.7730
9.383000 0.7810 0.7870 0.7910 0.7990 0.8100
9.413932 0.8210 0.8250 0.8300 0.8320 0.8350
9.445000 0.8390 0.8410 0.8440 0.8500 0.8520
9.475932 0.8550 0.8610 0.8620 0.8650 0.8700
9.507000 0.8720 0.8730 0.8750 0.8750 0.8750
9.537932 0.8750 0.8760 0.8760 0.8760 0.8780
9.569000 0.8790 0.8810 0.8820 0.8820 0.8840
9.599932 0.8840 0.8840 0.8850 0.8820 0.8840
9.631000 0.8840 0.8840 0.8840 0.8840 0.8850
9.661932 0.8850 0.8870 0.8890 0.8890 0.8890
9.693000 0.8900 0.8900 0.8900 0.8900 0.8900
9.723932 0.8900 0.8900 0.8900 0.8900 0.8900
9.754000 0.8900 0.8900 0.8900 0.8900 0.8890
9.784932 0.8890 0.8870 0.8850 0.8840 0.8810
9.816000 0.8790 0.8790 0.8780 0.8760 0.8750
9.846932 0.8730 0.8720 0.8700 0.8690 0.8640
9.878000 0.8610 0.8590 0.8530 0.8470 0.8330
9.908932 0.8210 0.8100 0.7960 0.7810 0.7580
9.940000 0.7360 0.7110 0.6910 0.6530 0.6220
9.970932 0.5910 0.5650 0.5400 0.5160 0.4970
10.002000 0.4770 0.4260 0.3890 0.3510 0.3250
10.032932 0.3000 0.2850 0.2810 0.2800 0.2800
10.064000 0.2830 0.2850 0.2880 0.2940 0.2980
10.094932 0.3050 0.3200 0.3310 0.3480 0.3750
10.125000 0.3950 0.4260 0.4660 0.4910 0.5510
10.155932 0.5870 0.6160 0.6340 0.6590 0.6960
10.187000 0.7160 0.7310 0.7420 0.7480 0.7590
10.217932 0.7610 0.7610 0.7610 0.7610 0.7590
10.249000 0.7550 0.7510 0.7500 0.7480 0.7470
10.279932 0.7470 0.7470 0.7480 0.7530 0.7610
10.311000 0.7640 0.7680 0.7710 0.7780 0.7840
10.341932 0.7910 0.7990 0.8020 0.8050 0.8080
10.373000 0.8100 0.8080 0.8050 0.8020 0.7960
10.403932 0.7930 0.7880 0.7820 0.7810 0.7810
10.435000 0.7810 0.7810 0.7810 0.7820 0.7900
10.465932 0.7980 0.8020 0.8100 0.8130 0.8190
10.496000 0.8240 0.8300 0.8320 0.8390 0.8440
10.526932 0.8520 0.8560 0.8620 0.8700 0.8720
10.558000 0.8730 0.8750 0.8750 0.8750 0.8760
10.588932 0.8760 0.8760 0.8760 0.8750 0.8730
10.620000 0.8700 0.8650 0.8620 0.8590 0.8530
10.650932 0.8520 0.8500 0.8420 0.8410 0.8350
10.682000 0.8300 0.8280 0.8220 0.8210 0.8150
10.712932 0.8120 0.8050 0.8010 0.7990 0.7950
10.744000 0.7910 0.7900 0.7900 0.7910 0.7950
10.774932 0.8020 0.8130 0.8220 0.8300 0.8330
10.806000 0.8380 0.8420 0.8480 0.8520 0.8530
10.836932 0.8550 0.8560 0.8580 0.8580 0.8590
10.867000 0.8590 0.8590 0.8590 0.8590 0.8580
10.897932 0.8530 0.8500 0.8480 0.8420 0.8410
10.929000 0.8390 0.8390 0.8380 0.8380 0.8380
10.959932 0.8380 0.8380 0.8380 0.8390 0.8420
10.991000 0.8470 0.8470 0.8500 0.8530 0.8590
11.021932 0.8610 0.8610 0.8610 0.8590 0.8590
11.053000 0.8590 0.8590 0.8580 0.8530 0.8520
11.083932 0.8520 0.8500 0.8480 0.8480 0.8440
11.115000 0.8420 0.8410 0.8360 0.8320 0.8300
11.145932 0.8280 0.8220 0.8210 0.8190 0.8120
11.177000 0.8100 0.8020 0.7980 0.7950 0.7910
11.207932 0.7780 0.7620 0.7500 0.7380 0.7300
11.239000 0.7070 0.7010 0.6910 0.6740 0.6650
11.269932 0.6470 0.6310 0.6220 0.6130 0.6080
11.300000 0.6050 0.6040 0.6040 0.6070 0.6100
11.330932 0.6140 0.6240 0.6280 0.6330 0.6500
11.362000 0.6540 0.6620 0.6710 0.6740 0.6790
11.392932 0.6810 0.6810 0.6820 0.6820 0.6820
11.424000 0.6820 0.6810 0.6810 0.6790 0.6730
11.454932 0.6710 0.6650 0.6620 0.6540 0.6510
11.486000 0.6440 0.6330 0.6240 0.6130 0.6020
11.516932 0.5900 0.5760 0.5560 0.5420 0.5170
11.548000 0.5080 0.4970 0.4820 0.4570 0.4310
11.578932 0.4060 0.3950 0.3800 0.3690 0.3680
11.610000 0.3690 0.3890 0.4050 0.4170 0.4450
11.640932 0.4660 0.4830 0.4990 0.5230 0.5330
11.671000 0.5430 0.5530 0.5600 0.5630 0.5670
11.701932 0.5700 0.5710 0.5730 0.5730 0.5740
11.733000 0.5740 0.5740 0.5730 0.5710 0.5700
11.763932 0.5670 0.5620 0.5600 0.5530 0.5500
11.795000 0.5460 0.5370 0.5300 0.5220 0.5130
11.825932 0.5110 0.5030 0.5020 0.4990 0.4940
11.857000 0.4910 0.4890 0.4890 0.4880 0.4880
11.887932 0.4890 0.4890 0.4910 0.4930 0.4940
11.919000 0.4960 0.5000 0.5000 0.4990 0.4990
11.949932 0.4940 0.4910 0.4830 0.4760 0.4660
11.981000 0.4560 0.4460 0.4390 0.4280 0.4140
12.011932 0.3940 0.3770 0.3690 0.3620 0.3570
12.042000 0.3540 0.3520 0.3540 0.3630 0.3720
12.072932 0.3880 0.4050 0.4200 0.4390 0.4570
12.104000 0.4730 0.4930 0.5260 0.5460 0.5620
12.134932 0.5770 0.5940 0.6000 0.6100 0.6170
12.166000 0.6300 0.6340 0.6420 0.6510 0.6560
12.196932 0.6620 0.6810 0.6910 0.6990 0.7070
12.228000 0.7140 0.7190 0.7220 0.7250 0.7300
12.258932 0.7330 0.7360 0.7390 0.7420 0.7440
12.290000 0.7450 0.7470 0.7480 0.7480 0.7500
12.320932 0.7500 0.7500 0.7500 0.7500 0.7500
12.352000 0.7500 0.7500 0.7480 0.7470 0.7450
12.382932 0.7440 0.7420 0.7410 0.7390 0.7380
12.413000 0.7330 0.7300 0.7270 0.7240 0.7210
12.443932 0.7140 0.7100 0.7020 0.6960 0.6880
12.475000 0.6790 0.6700 0.6590 0.6470 0.6340
12.505932 0.6200 0.6050 0.5960 0.5760 0.5560
12.537000 0.5400 0.5230 0.5060 0.4990 0.4910
12.567932 0.4740 0.4570 0.4390 0.4200 0.4020
12.599000 0.3970 0.3800 0.3520 0.3490 0.3420
12.629932 0.3320 0.3290 0.3220 0.3180 0.3150
12.661000 0.3140 0.3140 0.3120 0.3120 0.3110
12.691932 0.3110 0.3110 0.3120 0.3150 0.3180
12.723000 0.3220 0.3260 0.3320 0.3400 0.3490
12.753932 0.3570 0.3660 0.3770 0.3860 0.3950
12.784000 0.4050 0.4200 0.4340 0.4510 0.4660
12.814932 0.4800 0.4940 0.5190 0.5260 0.5420
12.846000 0.5560 0.5700 0.5800 0.5910 0.5970
12.876932 0.6020 0.6110 0.6160 0.6220 0.6310
12.908000 0.6450 0.6530 0.6610 0.6680 0.6740
12.938932 0.6820 0.6880 0.6910 0.6940 0.6990
12.970000 0.7010 0.7010 0.7010 0.7020 0.7020
13.000932 0.7020 0.7020 0.7020 0.7020 0.7010
13.032000 0.6990 0.6990 0.6970 0.6930 0.6910
13.062932 0.6870 0.6810 0.6790 0.6710 0.6670
13.094000 0.6610 0.6540 0.6480 0.6400 0.6300
13.124932 0.6200 0.6080 0.5960 0.5830 0.5700
13.155000 0.5560 0.5450 0.5230 0.5140 0.5050
13.185932 0.4960 0.4820 0.4710 0.4490 0.4310
13.217000 0.4160 0.3970 0.3950 0.3880 0.3800
13.247932 0.3770 0.3720 0.3710 0.3710 0.3720
13.279000 0.3820 0.3940 0.4020 0.4140 0.4250
13.309932 0.4390 0.4510 0.4650 0.4760 0.4850
13.341000 0.4970 0.5250 0.5400 0.5510 0.5620
13.371932 0.5730 0.5800 0.5900 0.5960 0.6020
13.403000 0.6050 0.6100 0.6140 0.6200 0.6220
13.433932 0.6220 0.6240 0.6250 0.6250 0.6250
13.465000 0.6240 0.6220 0.6200 0.6190 0.6160
13.495932 0.6130 0.6110 0.6100 0.6100 0.6080
13.527000 0.6080 0.6100 0.6130 0.6190 0.6220
13.557932 0.6250 0.6300 0.6330 0.6400 0.6450
13.588000 0.6500 0.6530 0.6560 0.6590 0.6610
13.618932 0.6620 0.6640 0.6620 0.6620 0.6590
13.650000 0.6530 0.6510 0.6440 0.6340 0.6300
13.680932 0.6220 0.6140 0.6110 0.6040 0.6000
13.712000 0.5970 0.5910 0.5900 0.5830 0.5800
13.742932 0.5800 0.5760 0.5740 0.5710 0.5700
13.774000 0.5680 0.5650 0.5630 0.5620 0.5600
13.804932 0.5560 0.5540 0.5510 0.5500 0.5480
13.836000 0.5460 0.5450 0.5430 0.5430 0.5450
13.866932 0.5460 0.5500 0.5530 0.5590 0.5630
13.898000 0.5700 0.5740 0.5820 0.5870 0.5930
13.928932 0.5960 0.6020 0.6100 0.6130 0.6190
13.959000 0.6220 0.6280 0.6310 0.6340 0.6400
13.989932 0.6440 0.6470 0.6480 0.6510 0.6560
14.021000 0.6560 0.6570 0.6570 0.6570 0.6570
14.051932 0.6560 0.6560 0.6540 0.6540 0.6530
14.083000 0.6510 0.6500 0.6500 0.6450 0.6420
14.113932 0.6400 0.6360 0.6330 0.6300 0.6240
14.145000 0.6200 0.6170 0.6130 0.6080 0.6070
14.175932 0.6040 0.6020 0.6000 0.5990 0.5940
14.207000 0.5900 0.5820 0.5770 0.5760 0.5730
14.237932 0.5700 0.5630 0.5600 0.5560 0.5530
14.269000 0.5510 0.5480 0.5430 0.5400 0.5390
14.299932 0.5330 0.5310 0.5300 0.5300 0.5300
14.330000 0.5300 0.5310 0.5330 0.5340 0.5360
14.360932 0.5390 0.5400 0.5420 0.5430 0.5450
14.392000 0.5460 0.5460 0.5480 0.5500 0.5500
14.422932 0.5500 0.5480 0.5480 0.5460 0.5430
14.454000 0.5420 0.5400 0.5390 0.5340 0.5310
14.484932 0.5300 0.5260 0.5220 0.5190 0.5140
14.516000 0.5110 0.5050 0.5020 0.5000 0.4990
14.546932 0.4960 0.4890 0.4830 0.4800 0.4740
14.578000 0.4690 0.4630 0.4590 0.4560 0.4510
14.608932 0.4460 0.4340 0.4260 0.4230 0.4190
14.640000 0.4120 0.4090 0.4020 0.3990 0.3890
14.670932 0.3850 0.3800 0.3720 0.3680 0.3620
14.701000 0.3590 0.3510 0.3480 0.3420 0.3380
14.731932 0.3340 0.3310 0.3290 0.3280 0.3250
14.763000 0.3250 0.3230 0.3230 0.3230 0.3250
14.793932 0.3260 0.3290 0.3310 0.3320 0.3350
14.825000 0.3400 0.3400 0.3430 0.3480 0.3490
14.855932 0.3490 0.3510 0.3520 0.3540 0.3540
14.887000 0.3590 0.3590 0.3600 0.3620 0.3650
14.917932 0.3690 0.3710 0.3750 0.3800 0.3830
14.949000 0.3890 0.3950 0.4000 0.4090 0.4160
14.979932 0.4220 0.4280 0.4310 0.4360 0.4400
15.011000 0.4430 0.4460 0.4480 0.4510 0.4530
15.041932 0.4540 0.4560 0.4560 0.4570 0.4570
15.072000 0.4590 0.4590 0.4600 0.4620 0.4630
15.102932 0.4650 0.4680 0.4680 0.4690 0.4690
15.134000 0.4710 0.4710 0.4730 0.4730 0.4740
15.164932 0.4740 0.4740 0.4740 0.4760 0.4760
15.196000 0.4760 0.4770 0.4770 0.4770 0.4770
15.226932 0.4790 0.4790 0.4790 0.4790 0.4790
15.258000 0.4790 0.4790 0.4790 0.4770 0.4770
15.288932 0.4760 0.4760 0.4740 0.4740 0.4740
15.320000 0.4730 0.4730 0.4710 0.4710 0.4690
15.350932 0.4690 0.4680 0.4680 0.4680 0.4660
15.382000 0.4650 0.4650 0.4630 0.4620 0.4600
15.412932 0.4600 0.4590 0.4560 0.4540 0.4530
15.443000 0.4490 0.4490 0.4480 0.4460 0.4430
15.473932 0.4400 0.4390 0.4370 0.4340 0.4320
15.505000 0.4310 0.4290 0.4290 0.4280 0.4280
15.535932 0.4280 0.4260 0.4250 0.4250 0.4230
15.567000 0.4220 0.4220 0.4220 0.4220 0.4220
15.597932 0.4220 0.4200 0.4200 0.4190 0.4170
15.629000 0.4170 0.4170 0.4170 0.4160 0.4160
15.659932 0.4140 0.4140 0.4120 0.4110 0.4090
15.691000 0.4090 0.4080 0.4080 0.4060 0.4060
15.721932 0.4050 0.4030 0.4020 0.4020 0.4000
15.753000 0.4000 0.3990 0.3970 0.3950 0.3940
15.783932 0.3910 0.3890 0.3880 0.3860 0.3850
15.814000 0.3820 0.3800 0.3790 0.3790 0.3770
15.844932 0.3770 0.3770 0.3790 0.3790 0.3820
15.876000 0.3830 0.3880 0.3890 0.3910 0.3920
15.906932 0.3950 0.3970 0.3990 0.3990 0.4000
##END=
