##TITLE=Cyclohexanamine, 3-aminoethyl-3,5,5-trimethyl-, dihydrochloride
##JCAMP-DX=4.24
##DATA TYPE=INFRARED SPECTRUM
##CLASS=COBLENTZ III
##ORIGIN=BRITISH PETROLEUM CO. LTD., ENGLAND
##OWNER=Copyright (C) 1987 by the Coblentz Society
Collection (C) 2018 copyright by the U.S. Secretary of Commerce
on behalf of the United States of America. All rights reserved.
##DATE=1972/06/07
##NAMES=Cyclohexylamine, 3-(2-aminoethyl)-3,5,5-trimethyl-, dihydrochloride
##MOLFORM=C11 H26 Cl2 N2
##SOURCE REFERENCE=COBLENTZ NO. 9349
##$NIST ID=B6009349
##$NIST SOURCE=COBLENTZ
##$NIST IMAGE=cob9349
##SPECTROMETER/DATA SYSTEM=PERKIN-ELMER 157
##STATE=SOLID (KBr DISC, 0.8% WT.)
$$ HCl RUN IN KBr MAY CONTAIN SOME HBr
$$ REF. Can. J. Spec., 18,4,101, '73 C. S. DOUSE and P. B. TOOKE
##SAMPLING PROCEDURE=TRANSMISSION
##RESOLUTION=2
##DATA PROCESSING=DIGITIZED BY COBLENTZ SOCIETY (BATCH II) FROM HARD COPY
##XUNITS=1/CM
##YUNITS=TRANSMITTANCE
##XFACTOR=1.0
##YFACTOR=1
##FIRSTX=668
##LASTX=4000
##FIRSTY=0.7834
##MAXX=4000
##MINX=668
##MAXY=0.814
##MINY=0.0318
##NPOINTS=3333
##XYDATA=(X++(Y..Y))
668.000000 0.7834 0.7833 0.7836 0.7831 0.7799
673.000000 0.7772 0.7765 0.7761 0.7757 0.7753
678.000000 0.7751 0.7752 0.7749 0.7745 0.7741
683.000000 0.7737 0.7733 0.7730 0.7727 0.7726
688.000000 0.7725 0.7724 0.7721 0.7716 0.7712
693.000000 0.7707 0.7702 0.7699 0.7696 0.7694
698.000000 0.7697 0.7690 0.7678 0.7670 0.7669
703.000000 0.7668 0.7667 0.7667 0.7667 0.7671
708.000000 0.7666 0.7664 0.7663 0.7661 0.7656
713.000000 0.7651 0.7644 0.7635 0.7625 0.7618
718.000000 0.7618 0.7618 0.7634 0.7650 0.7662
723.000000 0.7663 0.7663 0.7669 0.7691 0.7710
728.000000 0.7723 0.7732 0.7740 0.7751 0.7761
733.000000 0.7769 0.7775 0.7780 0.7785 0.7788
738.000000 0.7784 0.7780 0.7777 0.7774 0.7770
743.000000 0.7765 0.7761 0.7757 0.7754 0.7751
748.000000 0.7748 0.7744 0.7741 0.7737 0.7734
753.000000 0.7732 0.7732 0.7736 0.7743 0.7754
758.000000 0.7770 0.7782 0.7800 0.7819 0.7838
763.000000 0.7843 0.7832 0.7802 0.7763 0.7737
768.000000 0.7711 0.7701 0.7694 0.7692 0.7695
773.000000 0.7700 0.7709 0.7717 0.7682 0.7602
778.000000 0.7516 0.7490 0.7480 0.7477 0.7472
783.000000 0.7563 0.7793 0.7875 0.7920 0.7929
788.000000 0.7971 0.8035 0.8076 0.8100 0.8107
793.000000 0.8114 0.8120 0.8124 0.8128 0.8130
798.000000 0.8131 0.8133 0.8135 0.8135 0.8133
803.000000 0.8132 0.8131 0.8129 0.8128 0.8126
808.000000 0.8140 0.8122 0.8120 0.8118 0.8115
813.000000 0.8113 0.8110 0.8108 0.8105 0.8099
818.000000 0.8094 0.8088 0.8082 0.8077 0.8071
823.000000 0.8065 0.8056 0.8049 0.8041 0.8033
828.000000 0.8022 0.8011 0.7999 0.7983 0.7961
833.000000 0.7941 0.7913 0.7879 0.7845 0.7811
838.000000 0.7777 0.7743 0.7709 0.7674 0.7633
843.000000 0.7592 0.7551 0.7501 0.7446 0.7391
848.000000 0.7325 0.7253 0.7181 0.7115 0.7053
853.000000 0.6991 0.6927 0.6863 0.6799 0.6731
858.000000 0.6660 0.6577 0.6482 0.6464 0.6458
863.000000 0.6465 0.6580 0.6638 0.6659 0.6742
868.000000 0.6930 0.6995 0.7002 0.7011 0.6906
873.000000 0.6773 0.6638 0.6505 0.6327 0.6301
878.000000 0.6341 0.6420 0.6478 0.6492 0.6512
883.000000 0.6477 0.6394 0.6192 0.6029 0.6007
888.000000 0.6125 0.6383 0.6641 0.6899 0.7156
893.000000 0.7363 0.7452 0.7490 0.7491 0.7471
898.000000 0.7454 0.7434 0.7410 0.7379 0.7349
903.000000 0.7320 0.7291 0.7252 0.7212 0.7156
908.000000 0.7098 0.7034 0.6995 0.6987 0.6994
913.000000 0.7013 0.7130 0.7449 0.7580 0.7632
918.000000 0.7645 0.7665 0.7611 0.7568 0.7500
923.000000 0.7420 0.7252 0.7030 0.6808 0.6588
928.000000 0.6371 0.6194 0.6063 0.6032 0.6031
933.000000 0.6036 0.6078 0.6212 0.6423 0.6508
938.000000 0.6517 0.6517 0.6522 0.6493 0.6468
943.000000 0.6428 0.6364 0.6297 0.6224 0.6129
948.000000 0.5997 0.5921 0.5913 0.5954 0.5997
953.000000 0.6254 0.6620 0.6995 0.7200 0.7266
958.000000 0.7282 0.7281 0.7258 0.7029 0.6814
963.000000 0.6711 0.6612 0.6558 0.6535 0.6517
968.000000 0.6627 0.6761 0.6841 0.6913 0.6959
973.000000 0.6965 0.6962 0.6906 0.6819 0.6709
978.000000 0.6589 0.6471 0.6351 0.6233 0.6113
983.000000 0.6072 0.6065 0.6061 0.6058 0.6055
988.000000 0.6054 0.5977 0.5885 0.5808 0.5744
993.000000 0.5686 0.5628 0.5576 0.5542 0.5505
998.000000 0.5460 0.5383 0.5278 0.5142 0.5007
1003.000000 0.4932 0.4896 0.4876 0.4912 0.4987
1008.000000 0.5078 0.5169 0.5259 0.5349 0.5441
1013.000000 0.5508 0.5565 0.5618 0.5666 0.5691
1018.000000 0.5703 0.5727 0.5705 0.5702 0.5696
1023.000000 0.5669 0.5614 0.5517 0.5427 0.5420
1028.000000 0.5402 0.5482 0.5560 0.5687 0.5852
1033.000000 0.6022 0.6385 0.6574 0.6652 0.6767
1038.000000 0.6831 0.6870 0.6886 0.6881 0.6878
1043.000000 0.6839 0.6799 0.6751 0.6701 0.6629
1048.000000 0.6514 0.6370 0.6186 0.6073 0.5888
1053.000000 0.5740 0.5620 0.5531 0.5512 0.5512
1058.000000 0.5491 0.5573 0.5685 0.5878 0.5904
1063.000000 0.5917 0.5929 0.5911 0.5895 0.5851
1068.000000 0.5777 0.5748 0.5722 0.5660 0.5614
1073.000000 0.5604 0.5637 0.5671 0.5751 0.5930
1078.000000 0.6035 0.6069 0.6062 0.6078 0.6069
1083.000000 0.6036 0.5981 0.5917 0.5840 0.5720
1088.000000 0.5618 0.5472 0.5314 0.5155 0.4998
1093.000000 0.4841 0.4683 0.4568 0.4394 0.4277
1098.000000 0.4180 0.4092 0.3989 0.3954 0.3953
1103.000000 0.3963 0.3959 0.4071 0.4290 0.4520
1108.000000 0.4749 0.4978 0.5206 0.5434 0.5662
1113.000000 0.5950 0.6152 0.6302 0.6457 0.6530
1118.000000 0.6566 0.6592 0.6605 0.6616 0.6624
1123.000000 0.6629 0.6634 0.6630 0.6609 0.6563
1128.000000 0.6507 0.6429 0.6323 0.6136 0.5996
1133.000000 0.5897 0.5804 0.5685 0.5579 0.5554
1138.000000 0.5546 0.5546 0.5606 0.5667 0.5735
1143.000000 0.5789 0.5810 0.5814 0.5813 0.5811
1148.000000 0.5812 0.5887 0.5994 0.6102 0.6210
1153.000000 0.6316 0.6423 0.6530 0.6637 0.6743
1158.000000 0.6850 0.6956 0.7042 0.7077 0.7095
1163.000000 0.7110 0.7115 0.7120 0.7122 0.7127
1168.000000 0.7119 0.7112 0.7101 0.7087 0.7067
1173.000000 0.7041 0.7010 0.6975 0.6929 0.6868
1178.000000 0.6748 0.6600 0.6451 0.6303 0.6155
1183.000000 0.6008 0.5861 0.5714 0.5566 0.5431
1188.000000 0.5310 0.5237 0.5219 0.5213 0.5212
1193.000000 0.5205 0.5221 0.5228 0.5243 0.5265
1198.000000 0.5294 0.5321 0.5353 0.5525 0.5734
1203.000000 0.5942 0.6150 0.6357 0.6556 0.6651
1208.000000 0.6725 0.6752 0.6754 0.6751 0.6767
1213.000000 0.6728 0.6672 0.6603 0.6533 0.6463
1218.000000 0.6382 0.6297 0.6189 0.6086 0.5931
1223.000000 0.5735 0.5538 0.5342 0.5146 0.4951
1228.000000 0.4756 0.4561 0.4366 0.4233 0.4237
1233.000000 0.4227 0.4446 0.4616 0.4656 0.4661
1238.000000 0.4664 0.4667 0.4680 0.4773 0.4954
1243.000000 0.5132 0.5308 0.5485 0.5661 0.5831
1248.000000 0.5928 0.5963 0.5977 0.6002 0.5981
1253.000000 0.5980 0.5967 0.5956 0.5946 0.5943
1258.000000 0.5947 0.6058 0.6185 0.6314 0.6441
1263.000000 0.6569 0.6696 0.6823 0.7066 0.7105
1268.000000 0.7133 0.7155 0.7174 0.7188 0.7194
1273.000000 0.7208 0.7187 0.7162 0.7115 0.7085
1278.000000 0.7064 0.7053 0.7043 0.7032 0.7020
1283.000000 0.7003 0.6973 0.6869 0.6763 0.6658
1288.000000 0.6552 0.6447 0.6341 0.6236 0.6156
1293.000000 0.6050 0.5998 0.5979 0.5972 0.5967
1298.000000 0.5965 0.5968 0.5972 0.5956 0.6043
1303.000000 0.6089 0.6126 0.6151 0.6170 0.6180
1308.000000 0.6184 0.6185 0.6185 0.6178 0.6174
1313.000000 0.6170 0.6160 0.6149 0.6128 0.6091
1318.000000 0.6047 0.5994 0.5925 0.5798 0.5629
1323.000000 0.5470 0.5311 0.5151 0.4993 0.4835
1328.000000 0.4676 0.4518 0.4361 0.4203 0.4050
1333.000000 0.3975 0.3977 0.4097 0.4259 0.4420
1338.000000 0.4581 0.4742 0.4902 0.5063 0.5223
1343.000000 0.5383 0.5542 0.5568 0.5493 0.5580
1348.000000 0.5297 0.5199 0.5101 0.5004 0.4906
1353.000000 0.4808 0.4712 0.4615 0.4518 0.4421
1358.000000 0.4324 0.4228 0.4131 0.4035 0.3940
1363.000000 0.3844 0.3790 0.3793 0.3837 0.3971
1368.000000 0.4114 0.4256 0.4393 0.4453 0.4454
1373.000000 0.4401 0.4452 0.4261 0.4191 0.4121
1378.000000 0.4051 0.3982 0.3913 0.3869 0.3843
1383.000000 0.3815 0.3710 0.3549 0.3388 0.3228
1388.000000 0.3068 0.2908 0.2762 0.2670 0.2620
1393.000000 0.2603 0.2601 0.2604 0.2597 0.2734
1398.000000 0.2998 0.3262 0.3525 0.3788 0.4051
1403.000000 0.4313 0.4575 0.4836 0.5097 0.5347
1408.000000 0.5502 0.5572 0.5610 0.5645 0.5661
1413.000000 0.5672 0.5673 0.5669 0.5664 0.5653
1418.000000 0.5641 0.5622 0.5591 0.5555 0.5515
1423.000000 0.5472 0.5431 0.5390 0.5286 0.5149
1428.000000 0.5012 0.4875 0.4738 0.4601 0.4464
1433.000000 0.4328 0.4192 0.4095 0.4032 0.3977
1438.000000 0.3940 0.3904 0.3860 0.3788 0.3535
1443.000000 0.3440 0.3387 0.3335 0.3251 0.3155
1448.000000 0.3061 0.2966 0.2871 0.2776 0.2682
1453.000000 0.2588 0.2494 0.2400 0.2305 0.2212
1458.000000 0.2061 0.1848 0.1763 0.1698 0.1650
1463.000000 0.1605 0.1537 0.1460 0.1423 0.1404
1468.000000 0.1385 0.1380 0.1374 0.1370 0.1366
1473.000000 0.1363 0.1361 0.1357 0.1355 0.1353
1478.000000 0.1352 0.1352 0.1351 0.1351 0.1350
1483.000000 0.1349 0.1341 0.1328 0.1313 0.1285
1488.000000 0.1241 0.1193 0.1183 0.1173 0.1162
1493.000000 0.1156 0.1153 0.1148 0.1141 0.1135
1498.000000 0.1124 0.1111 0.1098 0.1087 0.1080
1503.000000 0.1072 0.1064 0.1060 0.1059 0.1058
1508.000000 0.1063 0.1062 0.1075 0.1093 0.1126
1513.000000 0.1174 0.1229 0.1283 0.1348 0.1417
1518.000000 0.1493 0.1569 0.1641 0.1717 0.1818
1523.000000 0.1915 0.1990 0.2060 0.2127 0.2224
1528.000000 0.2333 0.2442 0.2551 0.2660 0.2768
1533.000000 0.2877 0.2983 0.3068 0.3126 0.3177
1538.000000 0.3219 0.3248 0.3271 0.3290 0.3298
1543.000000 0.3304 0.3310 0.3315 0.3320 0.3319
1548.000000 0.3330 0.3314 0.3311 0.3306 0.3280
1553.000000 0.3170 0.2993 0.2819 0.2742 0.2686
1558.000000 0.2637 0.2588 0.2537 0.2485 0.2445
1563.000000 0.2421 0.2408 0.2367 0.2286 0.2193
1568.000000 0.2116 0.2054 0.1994 0.1934 0.1869
1573.000000 0.1803 0.1738 0.1674 0.1628 0.1595
1578.000000 0.1565 0.1535 0.1504 0.1472 0.1440
1583.000000 0.1405 0.1363 0.1331 0.1309 0.1292
1588.000000 0.1281 0.1273 0.1265 0.1258 0.1254
1593.000000 0.1253 0.1251 0.1250 0.1248 0.1264
1598.000000 0.1249 0.1250 0.1253 0.1257 0.1264
1603.000000 0.1277 0.1298 0.1331 0.1383 0.1436
1608.000000 0.1473 0.1521 0.1581 0.1638 0.1679
1613.000000 0.1717 0.1756 0.1793 0.1832 0.1881
1618.000000 0.1929 0.1977 0.2033 0.2097 0.2163
1623.000000 0.2211 0.2248 0.2283 0.2318 0.2351
1628.000000 0.2380 0.2409 0.2439 0.2471 0.2513
1633.000000 0.2607 0.3298 0.3382 0.3466 0.3550
1638.000000 0.3633 0.3717 0.3800 0.3884 0.3967
1643.000000 0.4051 0.4134 0.4217 0.4300 0.4383
1648.000000 0.4466 0.4549 0.4632 0.4714 0.4804
1653.000000 0.4884 0.4946 0.4995 0.5035 0.5070
1658.000000 0.5106 0.5146 0.5185 0.5225 0.5270
1663.000000 0.5316 0.5410 0.5557 0.5704 0.5821
1668.000000 0.5927 0.5981 0.6036 0.6112 0.6197
1673.000000 0.6272 0.6336 0.6396 0.6456 0.6516
1678.000000 0.6564 0.6592 0.6621 0.6634 0.6643
1683.000000 0.6650 0.6657 0.6664 0.6672 0.6682
1688.000000 0.6715 0.6763 0.6814 0.6853 0.6885
1693.000000 0.6925 0.6970 0.6994 0.7003 0.7012
1698.000000 0.7020 0.7030 0.7041 0.7055 0.7068
1703.000000 0.7081 0.7094 0.7107 0.7120 0.7134
1708.000000 0.7146 0.7157 0.7168 0.7177 0.7186
1713.000000 0.7191 0.7195 0.7199 0.7203 0.7207
1718.000000 0.7217 0.7228 0.7241 0.7253 0.7267
1723.000000 0.7282 0.7298 0.7314 0.7326 0.7334
1728.000000 0.7338 0.7342 0.7346 0.7350 0.7354
1733.000000 0.7356 0.7356 0.7355 0.7355 0.7355
1738.000000 0.7354 0.7354 0.7354 0.7339 0.7353
1743.000000 0.7351 0.7350 0.7349 0.7347 0.7346
1748.000000 0.7344 0.7342 0.7341 0.7339 0.7337
1753.000000 0.7336 0.7334 0.7333 0.7332 0.7330
1758.000000 0.7329 0.7327 0.7325 0.7324 0.7322
1763.000000 0.7321 0.7319 0.7317 0.7316 0.7314
1768.000000 0.7313 0.7311 0.7309 0.7308 0.7306
1773.000000 0.7306 0.7304 0.7302 0.7301 0.7299
1778.000000 0.7298 0.7296 0.7295 0.7294 0.7292
1783.000000 0.7291 0.7289 0.7283 0.7274 0.7263
1788.000000 0.7254 0.7249 0.7244 0.7240 0.7236
1793.000000 0.7232 0.7230 0.7229 0.7228 0.7228
1798.000000 0.7227 0.7226 0.7225 0.7225 0.7223
1803.000000 0.7222 0.7221 0.7221 0.7219 0.7218
1808.000000 0.7217 0.7215 0.7213 0.7211 0.7209
1813.000000 0.7207 0.7205 0.7194 0.7181 0.7168
1818.000000 0.7157 0.7146 0.7135 0.7124 0.7115
1823.000000 0.7112 0.7110 0.7108 0.7106 0.7104
1828.000000 0.7102 0.7100 0.7096 0.7091 0.7086
1833.000000 0.7081 0.7075 0.7069 0.7059 0.7045
1838.000000 0.7030 0.7007 0.6979 0.6949 0.6926
1843.000000 0.6915 0.6910 0.6905 0.6900 0.6895
1848.000000 0.6891 0.6888 0.6884 0.6881 0.6878
1853.000000 0.6875 0.6872 0.6869 0.6865 0.6862
1858.000000 0.6858 0.6850 0.6835 0.6819 0.6800
1863.000000 0.6779 0.6759 0.6739 0.6720 0.6705
1868.000000 0.6689 0.6673 0.6657 0.6642 0.6626
1873.000000 0.6611 0.6595 0.6581 0.6567 0.6554
1878.000000 0.6540 0.6525 0.6511 0.6497 0.6483
1883.000000 0.6469 0.6454 0.6440 0.6425 0.6410
1888.000000 0.6396 0.6379 0.6363 0.6347 0.6330
1893.000000 0.6314 0.6298 0.6282 0.6268 0.6254
1898.000000 0.6239 0.6225 0.6210 0.6196 0.6181
1903.000000 0.6167 0.6152 0.6138 0.6123 0.6110
1908.000000 0.6097 0.6084 0.6071 0.6057 0.6044
1913.000000 0.6030 0.6017 0.6004 0.5991 0.5977
1918.000000 0.5964 0.5950 0.5934 0.5919 0.5903
1923.000000 0.5888 0.5872 0.5857 0.5841 0.5826
1928.000000 0.5810 0.5795 0.5779 0.5759 0.5737
1933.000000 0.5715 0.5692 0.5669 0.5648 0.5630
1938.000000 0.5612 0.5595 0.5578 0.5561 0.5544
1943.000000 0.5527 0.5511 0.5498 0.5487 0.5477
1948.000000 0.5466 0.5456 0.5446 0.5436 0.5426
1953.000000 0.5417 0.5413 0.5409 0.5406 0.5403
1958.000000 0.5400 0.5396 0.5393 0.5390 0.5387
1963.000000 0.5384 0.5382 0.5381 0.5379 0.5377
1968.000000 0.5375 0.5374 0.5373 0.5373 0.5374
1973.000000 0.5374 0.5376 0.5351 0.5377 0.5378
1978.000000 0.5380 0.5382 0.5385 0.5388 0.5391
1983.000000 0.5395 0.5399 0.5403 0.5408 0.5411
1988.000000 0.5415 0.5419 0.5425 0.5431 0.5437
1993.000000 0.5444 0.5450 0.5457 0.5463 0.5470
1998.000000 0.5480 0.5493 0.5507 0.5520 0.5533
2003.000000 0.5547 0.5566 0.5589 0.5620 0.5651
2008.000000 0.5682 0.5712 0.5740 0.5765 0.5786
2013.000000 0.5806 0.5826 0.5845 0.5865 0.5883
2018.000000 0.5901 0.5919 0.5937 0.5955 0.5975
2023.000000 0.5996 0.6019 0.6042 0.6065 0.6088
2028.000000 0.6111 0.6133 0.6154 0.6175 0.6196
2033.000000 0.6217 0.6238 0.6258 0.6279 0.6300
2038.000000 0.6320 0.6340 0.6355 0.6370 0.6386
2043.000000 0.6401 0.6416 0.6431 0.6446 0.6458
2048.000000 0.6469 0.6480 0.6491 0.6502 0.6513
2053.000000 0.6523 0.6534 0.6551 0.6569 0.6588
2058.000000 0.6607 0.6625 0.6635 0.6642 0.6650
2063.000000 0.6658 0.6665 0.6672 0.6679 0.6683
2068.000000 0.6686 0.6687 0.6688 0.6690 0.6692
2073.000000 0.6694 0.6695 0.6696 0.6698 0.6700
2078.000000 0.6701 0.6703 0.6706 0.6714 0.6723
2083.000000 0.6733 0.6743 0.6754 0.6765 0.6776
2088.000000 0.6786 0.6795 0.6802 0.6807 0.6813
2093.000000 0.6819 0.6825 0.6830 0.6835 0.6841
2098.000000 0.6846 0.6851 0.6857 0.6862 0.6866
2103.000000 0.6870 0.6873 0.6877 0.6880 0.6883
2108.000000 0.6886 0.6889 0.6892 0.6895 0.6897
2113.000000 0.6898 0.6899 0.6900 0.6902 0.6903
2118.000000 0.6904 0.6905 0.6906 0.6907 0.6908
2123.000000 0.6909 0.6910 0.6911 0.6912 0.6912
2128.000000 0.6913 0.6913 0.6914 0.6915 0.6916
2133.000000 0.6916 0.6917 0.6918 0.6918 0.6919
2138.000000 0.6919 0.6920 0.6920 0.6921 0.6921
2143.000000 0.6922 0.6922 0.6923 0.6923 0.6923
2148.000000 0.6924 0.6924 0.6924 0.6924 0.6924
2153.000000 0.6924 0.6925 0.6925 0.6925 0.6925
2158.000000 0.6928 0.6930 0.6932 0.6935 0.6938
2163.000000 0.6941 0.6945 0.6949 0.6953 0.6957
2168.000000 0.6961 0.6965 0.6969 0.6973 0.6977
2173.000000 0.6981 0.6984 0.6987 0.6990 0.6993
2178.000000 0.6996 0.7000 0.7003 0.7006 0.7009
2183.000000 0.7011 0.7013 0.7015 0.7017 0.7018
2188.000000 0.7020 0.7021 0.7023 0.7025 0.7027
2193.000000 0.7029 0.7030 0.7031 0.7032 0.7033
2198.000000 0.7033 0.7034 0.7034 0.7035 0.7035
2203.000000 0.7036 0.7036 0.7037 0.7037 0.7038
2208.000000 0.7038 0.7039 0.7039 0.7040 0.7040
2213.000000 0.7040 0.7040 0.7041 0.7041 0.7041
2218.000000 0.7041 0.7041 0.7041 0.7042 0.7042
2223.000000 0.7042 0.7042 0.7042 0.7042 0.7041
2228.000000 0.7040 0.7038 0.7037 0.7036 0.7035
2233.000000 0.7034 0.7033 0.7031 0.7030 0.7029
2238.000000 0.7028 0.7027 0.7026 0.7024 0.7023
2243.000000 0.7029 0.7019 0.7016 0.7014 0.7012
2248.000000 0.7010 0.7008 0.7005 0.7003 0.7001
2253.000000 0.6999 0.6997 0.6995 0.6992 0.6989
2258.000000 0.6987 0.6983 0.6980 0.6977 0.6974
2263.000000 0.6971 0.6968 0.6965 0.6962 0.6958
2268.000000 0.6953 0.6949 0.6944 0.6939 0.6934
2273.000000 0.6929 0.6924 0.6920 0.6915 0.6911
2278.000000 0.6906 0.6901 0.6896 0.6891 0.6883
2283.000000 0.6876 0.6869 0.6862 0.6855 0.6848
2288.000000 0.6840 0.6833 0.6825 0.6815 0.6806
2293.000000 0.6796 0.6786 0.6777 0.6767 0.6757
2298.000000 0.6747 0.6736 0.6724 0.6713 0.6702
2303.000000 0.6690 0.6678 0.6664 0.6649 0.6631
2308.000000 0.6613 0.6595 0.6576 0.6558 0.6540
2313.000000 0.6524 0.6509 0.6494 0.6481 0.6468
2318.000000 0.6455 0.6442 0.6429 0.6417 0.6404
2323.000000 0.6391 0.6378 0.6365 0.6351 0.6335
2328.000000 0.6319 0.6303 0.6287 0.6271 0.6255
2333.000000 0.6239 0.6224 0.6205 0.6185 0.6165
2338.000000 0.6145 0.6124 0.6103 0.6082 0.6059
2343.000000 0.6037 0.6008 0.5979 0.5950 0.5921
2348.000000 0.5893 0.5867 0.5842 0.5821 0.5799
2353.000000 0.5778 0.5757 0.5751 0.5747 0.5743
2358.000000 0.5740 0.5737 0.5734 0.5732 0.5729
2363.000000 0.5726 0.5723 0.5720 0.5720 0.5720
2368.000000 0.5719 0.5719 0.5718 0.5718 0.5717
2373.000000 0.5717 0.5717 0.5716 0.5716 0.5716
2378.000000 0.5716 0.5715 0.5715 0.5714 0.5714
2383.000000 0.5714 0.5713 0.5713 0.5712 0.5712
2388.000000 0.5711 0.5711 0.5711 0.5710 0.5710
2393.000000 0.5709 0.5708 0.5707 0.5706 0.5704
2398.000000 0.5703 0.5702 0.5701 0.5699 0.5697
2403.000000 0.5695 0.5692 0.5688 0.5683 0.5674
2408.000000 0.5664 0.5654 0.5644 0.5632 0.5612
2413.000000 0.5592 0.5557 0.5520 0.5491 0.5471
2418.000000 0.5450 0.5430 0.5410 0.5389 0.5369
2423.000000 0.5348 0.5327 0.5307 0.5287 0.5266
2428.000000 0.5251 0.5236 0.5222 0.5208 0.5193
2433.000000 0.5179 0.5165 0.5151 0.5137 0.5124
2438.000000 0.5110 0.5096 0.5082 0.5068 0.5055
2443.000000 0.5041 0.5028 0.5014 0.5000 0.4987
2448.000000 0.4975 0.4962 0.4950 0.4937 0.4925
2453.000000 0.4912 0.4900 0.4887 0.4875 0.4863
2458.000000 0.4850 0.4838 0.4825 0.4813 0.4802
2463.000000 0.4791 0.4780 0.4769 0.4758 0.4746
2468.000000 0.4735 0.4724 0.4712 0.4701 0.4690
2473.000000 0.4679 0.4667 0.4655 0.4642 0.4629
2478.000000 0.4617 0.4604 0.4591 0.4578 0.4565
2483.000000 0.4553 0.4540 0.4528 0.4506 0.4484
2488.000000 0.4461 0.4438 0.4415 0.4392 0.4369
2493.000000 0.4346 0.4323 0.4300 0.4267 0.4234
2498.000000 0.4188 0.4130 0.4072 0.4038 0.4004
2503.000000 0.3923 0.3796 0.3669 0.3623 0.3578
2508.000000 0.3543 0.3519 0.3495 0.3472 0.3448
2513.000000 0.3424 0.3400 0.3376 0.3353 0.3331
2518.000000 0.3308 0.3286 0.3263 0.3234 0.3204
2523.000000 0.3177 0.3157 0.3137 0.3122 0.3109
2528.000000 0.3096 0.3083 0.3070 0.3057 0.3044
2533.000000 0.3032 0.3018 0.3005 0.2991 0.2977
2538.000000 0.2963 0.2950 0.2936 0.2922 0.2908
2543.000000 0.2894 0.2878 0.2862 0.2845 0.2826
2548.000000 0.2807 0.2789 0.2770 0.2751 0.2734
2553.000000 0.2716 0.2699 0.2681 0.2664 0.2646
2558.000000 0.2629 0.2611 0.2592 0.2573 0.2555
2563.000000 0.2537 0.2518 0.2508 0.2498 0.2489
2568.000000 0.2484 0.2479 0.2474 0.2469 0.2464
2573.000000 0.2462 0.2461 0.2460 0.2460 0.2460
2578.000000 0.2459 0.2459 0.2458 0.2458 0.2457
2583.000000 0.2456 0.2456 0.2456 0.2455 0.2455
2588.000000 0.2454 0.2454 0.2453 0.2452 0.2452
2593.000000 0.2452 0.2451 0.2451 0.2451 0.2450
2598.000000 0.2449 0.2448 0.2448 0.2447 0.2446
2603.000000 0.2445 0.2445 0.2444 0.2442 0.2441
2608.000000 0.2441 0.2440 0.2439 0.2438 0.2438
2613.000000 0.2437 0.2436 0.2436 0.2431 0.2427
2618.000000 0.2423 0.2418 0.2414 0.2410 0.2405
2623.000000 0.2401 0.2396 0.2391 0.2387 0.2381
2628.000000 0.2376 0.2370 0.2362 0.2353 0.2345
2633.000000 0.2337 0.2329 0.2321 0.2313 0.2306
2638.000000 0.2293 0.2280 0.2266 0.2253 0.2239
2643.000000 0.2225 0.2211 0.2197 0.2181 0.2164
2648.000000 0.2147 0.2130 0.2113 0.2095 0.2082
2653.000000 0.2069 0.2056 0.2044 0.2033 0.2022
2658.000000 0.2010 0.1999 0.1989 0.1981 0.1974
2663.000000 0.1968 0.1963 0.1958 0.1953 0.1948
2668.000000 0.1943 0.1938 0.1933 0.1928 0.1924
2673.000000 0.1919 0.1915 0.1910 0.1905 0.1900
2678.000000 0.1895 0.1890 0.1885 0.1880 0.1875
2683.000000 0.1869 0.1862 0.1855 0.1846 0.1838
2688.000000 0.1829 0.1819 0.1810 0.1800 0.1787
2693.000000 0.1773 0.1759 0.1745 0.1731 0.1717
2698.000000 0.1708 0.1698 0.1689 0.1679 0.1670
2703.000000 0.1661 0.1652 0.1643 0.1634 0.1625
2708.000000 0.1616 0.1607 0.1598 0.1589 0.1580
2713.000000 0.1571 0.1562 0.1553 0.1545 0.1537
2718.000000 0.1528 0.1520 0.1511 0.1503 0.1495
2723.000000 0.1486 0.1478 0.1469 0.1461 0.1453
2728.000000 0.1445 0.1437 0.1429 0.1421 0.1413
2733.000000 0.1402 0.1390 0.1377 0.1354 0.1327
2738.000000 0.1300 0.1274 0.1250 0.1225 0.1203
2743.000000 0.1181 0.1159 0.1140 0.1121 0.1103
2748.000000 0.1089 0.1077 0.1064 0.1051 0.1038
2753.000000 0.1025 0.1013 0.1000 0.0988 0.0976
2758.000000 0.0965 0.0954 0.0943 0.0933 0.0923
2763.000000 0.0913 0.0903 0.0893 0.0883 0.0873
2768.000000 0.0863 0.0853 0.0843 0.0834 0.0824
2773.000000 0.0814 0.0803 0.0794 0.0784 0.0774
2778.000000 0.0764 0.0754 0.0744 0.0734 0.0725
2783.000000 0.0715 0.0705 0.0695 0.0685 0.0675
2788.000000 0.0665 0.0655 0.0645 0.0636 0.0626
2793.000000 0.0616 0.0607 0.0597 0.0587 0.0577
2798.000000 0.0567 0.0557 0.0547 0.0537 0.0527
2803.000000 0.0517 0.0507 0.0497 0.0487 0.0477
2808.000000 0.0467 0.0456 0.0451 0.0445 0.0439
2813.000000 0.0435 0.0431 0.0428 0.0424 0.0421
2818.000000 0.0417 0.0414 0.0410 0.0406 0.0402
2823.000000 0.0398 0.0395 0.0391 0.0388 0.0384
2828.000000 0.0381 0.0378 0.0376 0.0374 0.0373
2833.000000 0.0371 0.0370 0.0369 0.0367 0.0366
2838.000000 0.0364 0.0363 0.0362 0.0360 0.0359
2843.000000 0.0357 0.0356 0.0355 0.0354 0.0354
2848.000000 0.0353 0.0353 0.0353 0.0352 0.0352
2853.000000 0.0351 0.0350 0.0350 0.0350 0.0350
2858.000000 0.0349 0.0348 0.0348 0.0347 0.0347
2863.000000 0.0347 0.0346 0.0346 0.0345 0.0344
2868.000000 0.0344 0.0344 0.0344 0.0343 0.0342
2873.000000 0.0342 0.0341 0.0341 0.0341 0.0340
2878.000000 0.0340 0.0339 0.0339 0.0338 0.0338
2883.000000 0.0338 0.0337 0.0337 0.0337 0.0336
2888.000000 0.0336 0.0336 0.0336 0.0335 0.0335
2893.000000 0.0335 0.0334 0.0334 0.0334 0.0333
2898.000000 0.0333 0.0333 0.0333 0.0332 0.0332
2903.000000 0.0332 0.0331 0.0331 0.0331 0.0330
2908.000000 0.0330 0.0330 0.0330 0.0329 0.0329
2913.000000 0.0329 0.0329 0.0329 0.0329 0.0329
2918.000000 0.0328 0.0328 0.0328 0.0327 0.0327
2923.000000 0.0327 0.0326 0.0326 0.0326 0.0326
2928.000000 0.0325 0.0325 0.0325 0.0325 0.0325
2933.000000 0.0325 0.0325 0.0325 0.0325 0.0325
2938.000000 0.0325 0.0325 0.0325 0.0325 0.0318
2943.000000 0.0326 0.0326 0.0327 0.0327 0.0327
2948.000000 0.0327 0.0328 0.0328 0.0328 0.0328
2953.000000 0.0328 0.0328 0.0328 0.0329 0.0329
2958.000000 0.0329 0.0330 0.0330 0.0330 0.0330
2963.000000 0.0331 0.0331 0.0331 0.0331 0.0331
2968.000000 0.0331 0.0331 0.0332 0.0332 0.0332
2973.000000 0.0333 0.0333 0.0333 0.0333 0.0334
2978.000000 0.0334 0.0334 0.0334 0.0334 0.0334
2983.000000 0.0334 0.0335 0.0335 0.0335 0.0336
2988.000000 0.0336 0.0337 0.0337 0.0338 0.0338
2993.000000 0.0339 0.0339 0.0340 0.0341 0.0341
2998.000000 0.0342 0.0343 0.0343 0.0344 0.0345
3003.000000 0.0345 0.0346 0.0347 0.0347 0.0348
3008.000000 0.0348 0.0349 0.0350 0.0351 0.0351
3013.000000 0.0352 0.0353 0.0353 0.0354 0.0354
3018.000000 0.0355 0.0355 0.0356 0.0357 0.0358
3023.000000 0.0359 0.0359 0.0360 0.0360 0.0361
3028.000000 0.0361 0.0362 0.0362 0.0363 0.0364
3033.000000 0.0365 0.0366 0.0366 0.0367 0.0367
3038.000000 0.0368 0.0369 0.0369 0.0370 0.0371
3043.000000 0.0373 0.0374 0.0375 0.0377 0.0378
3048.000000 0.0379 0.0381 0.0382 0.0383 0.0385
3053.000000 0.0386 0.0388 0.0389 0.0390 0.0392
3058.000000 0.0393 0.0394 0.0396 0.0397 0.0398
3063.000000 0.0400 0.0401 0.0404 0.0407 0.0409
3068.000000 0.0413 0.0418 0.0423 0.0427 0.0432
3073.000000 0.0437 0.0442 0.0446 0.0452 0.0457
3078.000000 0.0463 0.0469 0.0474 0.0480 0.0485
3083.000000 0.0491 0.0497 0.0502 0.0508 0.0514
3088.000000 0.0521 0.0527 0.0534 0.0540 0.0547
3093.000000 0.0553 0.0559 0.0565 0.0572 0.0578
3098.000000 0.0584 0.0590 0.0597 0.0603 0.0609
3103.000000 0.0615 0.0622 0.0628 0.0634 0.0641
3108.000000 0.0647 0.0654 0.0660 0.0666 0.0672
3113.000000 0.0678 0.0685 0.0691 0.0697 0.0703
3118.000000 0.0709 0.0716 0.0722 0.0728 0.0734
3123.000000 0.0741 0.0747 0.0754 0.0760 0.0766
3128.000000 0.0772 0.0778 0.0784 0.0790 0.0796
3133.000000 0.0803 0.0809 0.0815 0.0821 0.0827
3138.000000 0.0833 0.0840 0.0846 0.0853 0.0862
3143.000000 0.0871 0.0881 0.0890 0.0898 0.0907
3148.000000 0.0916 0.0925 0.0933 0.0941 0.0950
3153.000000 0.0958 0.0966 0.0973 0.0981 0.0989
3158.000000 0.0997 0.1005 0.1013 0.1021 0.1029
3163.000000 0.1036 0.1044 0.1052 0.1060 0.1068
3168.000000 0.1076 0.1084 0.1093 0.1102 0.1110
3173.000000 0.1119 0.1128 0.1136 0.1145 0.1154
3178.000000 0.1162 0.1171 0.1180 0.1189 0.1197
3183.000000 0.1206 0.1215 0.1225 0.1238 0.1251
3188.000000 0.1264 0.1277 0.1291 0.1305 0.1319
3193.000000 0.1334 0.1355 0.1377 0.1398 0.1420
3198.000000 0.1442 0.1464 0.1486 0.1508 0.1530
3203.000000 0.1552 0.1574 0.1597 0.1622 0.1647
3208.000000 0.1673 0.1698 0.1711 0.1721 0.1730
3213.000000 0.1739 0.1747 0.1755 0.1762 0.1770
3218.000000 0.1777 0.1784 0.1792 0.1799 0.1806
3223.000000 0.1812 0.1818 0.1824 0.1831 0.1837
3228.000000 0.1843 0.1849 0.1856 0.1859 0.1862
3233.000000 0.1865 0.1868 0.1871 0.1873 0.1876
3238.000000 0.1879 0.1880 0.1882 0.1883 0.1885
3243.000000 0.1886 0.1886 0.1886 0.1886 0.1886
3248.000000 0.1886 0.1886 0.1886 0.1885 0.1885
3253.000000 0.1884 0.1883 0.1883 0.1882 0.1879
3258.000000 0.1877 0.1875 0.1873 0.1869 0.1866
3263.000000 0.1863 0.1859 0.1856 0.1852 0.1848
3268.000000 0.1844 0.1839 0.1834 0.1828 0.1823
3273.000000 0.1818 0.1813 0.1808 0.1803 0.1798
3278.000000 0.1794 0.1790 0.1785 0.1781 0.1776
3283.000000 0.1771 0.1767 0.1762 0.1758 0.1753
3288.000000 0.1748 0.1744 0.1739 0.1735 0.1731
3293.000000 0.1727 0.1723 0.1718 0.1714 0.1710
3298.000000 0.1705 0.1701 0.1696 0.1692 0.1688
3303.000000 0.1683 0.1677 0.1672 0.1666 0.1661
3308.000000 0.1654 0.1647 0.1641 0.1634 0.1627
3313.000000 0.1621 0.1614 0.1607 0.1600 0.1594
3318.000000 0.1587 0.1580 0.1574 0.1567 0.1561
3323.000000 0.1554 0.1548 0.1541 0.1534 0.1527
3328.000000 0.1521 0.1514 0.1507 0.1500 0.1494
3333.000000 0.1487 0.1479 0.1472 0.1464 0.1456
3338.000000 0.1448 0.1438 0.1427 0.1417 0.1406
3343.000000 0.1395 0.1383 0.1371 0.1360 0.1348
3348.000000 0.1335 0.1323 0.1310 0.1297 0.1285
3353.000000 0.1274 0.1262 0.1251 0.1241 0.1235
3358.000000 0.1230 0.1224 0.1219 0.1214 0.1209
3363.000000 0.1204 0.1199 0.1195 0.1192 0.1190
3368.000000 0.1188 0.1185 0.1183 0.1181 0.1179
3373.000000 0.1176 0.1174 0.1174 0.1174 0.1174
3378.000000 0.1174 0.1173 0.1173 0.1173 0.1173
3383.000000 0.1172 0.1172 0.1172 0.1172 0.1172
3388.000000 0.1172 0.1172 0.1172 0.1172 0.1172
3393.000000 0.1172 0.1172 0.1172 0.1172 0.1173
3398.000000 0.1173 0.1173 0.1173 0.1173 0.1174
3403.000000 0.1175 0.1175 0.1176 0.1177 0.1177
3408.000000 0.1177 0.1178 0.1178 0.1174 0.1179
3413.000000 0.1180 0.1181 0.1181 0.1182 0.1183
3418.000000 0.1183 0.1184 0.1185 0.1186 0.1187
3423.000000 0.1188 0.1189 0.1190 0.1193 0.1195
3428.000000 0.1198 0.1201 0.1204 0.1207 0.1211
3433.000000 0.1215 0.1218 0.1223 0.1228 0.1233
3438.000000 0.1238 0.1244 0.1249 0.1254 0.1259
3443.000000 0.1264 0.1271 0.1280 0.1288 0.1297
3448.000000 0.1306 0.1313 0.1320 0.1327 0.1334
3453.000000 0.1340 0.1347 0.1354 0.1360 0.1367
3458.000000 0.1374 0.1382 0.1391 0.1399 0.1407
3463.000000 0.1416 0.1424 0.1432 0.1441 0.1449
3468.000000 0.1458 0.1466 0.1475 0.1483 0.1492
3473.000000 0.1500 0.1509 0.1518 0.1526 0.1535
3478.000000 0.1544 0.1552 0.1561 0.1570 0.1578
3483.000000 0.1587 0.1596 0.1605 0.1614 0.1623
3488.000000 0.1631 0.1640 0.1649 0.1657 0.1666
3493.000000 0.1674 0.1683 0.1692 0.1700 0.1709
3498.000000 0.1717 0.1725 0.1734 0.1742 0.1751
3503.000000 0.1759 0.1767 0.1776 0.1784 0.1794
3508.000000 0.1804 0.1815 0.1825 0.1836 0.1848
3513.000000 0.1860 0.1872 0.1883 0.1895 0.1907
3518.000000 0.1919 0.1931 0.1943 0.1955 0.1967
3523.000000 0.1979 0.1991 0.2003 0.2014 0.2070
3528.000000 0.2129 0.2189 0.2248 0.2308 0.2327
3533.000000 0.2343 0.2359 0.2375 0.2391 0.2418
3538.000000 0.2446 0.2474 0.2502 0.2529 0.2558
3543.000000 0.2587 0.2616 0.2646 0.2675 0.2697
3548.000000 0.2719 0.2741 0.2763 0.2785 0.2803
3553.000000 0.2819 0.2835 0.2851 0.2867 0.2879
3558.000000 0.2890 0.2900 0.2911 0.2922 0.2951
3563.000000 0.2987 0.3022 0.3058 0.3094 0.3133
3568.000000 0.3175 0.3216 0.3258 0.3300 0.3341
3573.000000 0.3382 0.3424 0.3465 0.3506 0.3548
3578.000000 0.3589 0.3630 0.3671 0.3712 0.3753
3583.000000 0.3794 0.3836 0.3877 0.3918 0.3954
3588.000000 0.3974 0.3994 0.4014 0.4034 0.4055
3593.000000 0.4082 0.4110 0.4138 0.4165 0.4193
3598.000000 0.4219 0.4244 0.4269 0.4294 0.4319
3603.000000 0.4333 0.4342 0.4351 0.4360 0.4369
3608.000000 0.4378 0.4387 0.4396 0.4405 0.4414
3613.000000 0.4423 0.4432 0.4441 0.4450 0.4459
3618.000000 0.4468 0.4479 0.4490 0.4501 0.4512
3623.000000 0.4523 0.4573 0.4632 0.4691 0.4750
3628.000000 0.4809 0.4857 0.4895 0.4934 0.4972
3633.000000 0.5011 0.5045 0.5068 0.5091 0.5114
3638.000000 0.5136 0.5159 0.5179 0.5198 0.5217
3643.000000 0.5236 0.5255 0.5273 0.5290 0.5307
3648.000000 0.5324 0.5341 0.5357 0.5374 0.5390
3653.000000 0.5406 0.5422 0.5438 0.5461 0.5484
3658.000000 0.5507 0.5529 0.5552 0.5566 0.5576
3663.000000 0.5585 0.5595 0.5605 0.5613 0.5617
3668.000000 0.5622 0.5626 0.5631 0.5635 0.5638
3673.000000 0.5640 0.5643 0.5645 0.5647 0.5650
3678.000000 0.5652 0.5654 0.5656 0.5659 0.5661
3683.000000 0.5662 0.5663 0.5664 0.5665 0.5666
3688.000000 0.5667 0.5667 0.5668 0.5669 0.5669
3693.000000 0.5670 0.5670 0.5671 0.5671 0.5672
3698.000000 0.5672 0.5673 0.5673 0.5674 0.5675
3703.000000 0.5675 0.5676 0.5676 0.5676 0.5677
3708.000000 0.5677 0.5677 0.5678 0.5678 0.5678
3713.000000 0.5678 0.5678 0.5679 0.5679 0.5679
3718.000000 0.5680 0.5680 0.5680 0.5681 0.5681
3723.000000 0.5681 0.5681 0.5681 0.5682 0.5682
3728.000000 0.5682 0.5682 0.5682 0.5682 0.5682
3733.000000 0.5682 0.5682 0.5682 0.5682 0.5682
3738.000000 0.5682 0.5682 0.5682 0.5682 0.5682
3743.000000 0.5683 0.5683 0.5683 0.5683 0.5683
3748.000000 0.5683 0.5684 0.5684 0.5684 0.5684
3753.000000 0.5684 0.5685 0.5685 0.5685 0.5685
3758.000000 0.5685 0.5685 0.5686 0.5686 0.5686
3763.000000 0.5686 0.5686 0.5686 0.5687 0.5687
3768.000000 0.5687 0.5687 0.5687 0.5688 0.5688
3773.000000 0.5688 0.5689 0.5689 0.5689 0.5690
3778.000000 0.5690 0.5690 0.5690 0.5690 0.5690
3783.000000 0.5690 0.5690 0.5690 0.5690 0.5690
3788.000000 0.5691 0.5691 0.5691 0.5691 0.5691
3793.000000 0.5691 0.5692 0.5692 0.5692 0.5692
3798.000000 0.5692 0.5692 0.5697 0.5692 0.5692
3803.000000 0.5692 0.5692 0.5692 0.5693 0.5693
3808.000000 0.5693 0.5693 0.5693 0.5693 0.5693
3813.000000 0.5693 0.5693 0.5693 0.5693 0.5693
3818.000000 0.5693 0.5693 0.5693 0.5693 0.5693
3823.000000 0.5693 0.5693 0.5693 0.5693 0.5693
3828.000000 0.5693 0.5693 0.5693 0.5693 0.5693
3833.000000 0.5693 0.5693 0.5693 0.5693 0.5693
3838.000000 0.5693 0.5693 0.5693 0.5693 0.5693
3843.000000 0.5693 0.5693 0.5693 0.5693 0.5693
3848.000000 0.5693 0.5693 0.5693 0.5693 0.5693
3853.000000 0.5693 0.5693 0.5693 0.5693 0.5693
3858.000000 0.5693 0.5693 0.5693 0.5693 0.5693
3863.000000 0.5693 0.5693 0.5693 0.5693 0.5693
3868.000000 0.5693 0.5693 0.5693 0.5693 0.5693
3873.000000 0.5693 0.5693 0.5693 0.5693 0.5693
3878.000000 0.5693 0.5693 0.5693 0.5693 0.5693
3883.000000 0.5693 0.5693 0.5693 0.5693 0.5693
3888.000000 0.5693 0.5693 0.5693 0.5693 0.5693
3893.000000 0.5693 0.5693 0.5694 0.5694 0.5694
3898.000000 0.5694 0.5694 0.5694 0.5694 0.5694
3903.000000 0.5694 0.5694 0.5694 0.5694 0.5694
3908.000000 0.5694 0.5694 0.5694 0.5694 0.5694
3913.000000 0.5694 0.5694 0.5694 0.5694 0.5694
3918.000000 0.5694 0.5694 0.5694 0.5694 0.5694
3923.000000 0.5694 0.5694 0.5694 0.5694 0.5694
3928.000000 0.5694 0.5694 0.5694 0.5695 0.5695
3933.000000 0.5695 0.5695 0.5695 0.5695 0.5695
3938.000000 0.5695 0.5695 0.5695 0.5695 0.5695
3943.000000 0.5695 0.5695 0.5695 0.5695 0.5695
3948.000000 0.5695 0.5695 0.5695 0.5695 0.5695
3953.000000 0.5695 0.5695 0.5695 0.5695 0.5695
3958.000000 0.5695 0.5695 0.5695 0.5695 0.5695
3963.000000 0.5695 0.5695 0.5695 0.5695 0.5695
3968.000000 0.5695 0.5696 0.5696 0.5696 0.5696
3973.000000 0.5696 0.5696 0.5696 0.5696 0.5696
3978.000000 0.5696 0.5696 0.5696 0.5696 0.5696
3983.000000 0.5696 0.5696 0.5696 0.5696 0.5696
3988.000000 0.5696 0.5696 0.5696 0.5696 0.5696
3993.000000 0.5696 0.5696 0.5696 0.5696 0.5696
3998.000000 0.5696 0.5696 0.5696
##END=
