##TITLE=POTASSIUM PHOSPHATE, TRIBASIC
$$ C.P.
##JCAMP-DX=4.24
##DATA TYPE=INFRARED SPECTRUM
##CLASS=COBLENTZ
##ORIGIN=MELLON INSTITUTE
##OWNER=COBLENTZ SOCIETY
Collection (C) 2018 copyright by the U.S. Secretary of Commerce
on behalf of the United States of America. All rights reserved.
##DATE=Not specified, most likely prior to 1970
##MOLFORM=K3 P O4
##SOURCE REFERENCE=COBLENTZ NO. 574
##$NIST ID=B6000574
##$NIST SOURCE=COBLENTZ
##$NIST IMAGE=cob574
##SPECTROMETER/DATA SYSTEM=Not specified, most likely a prism, grating, or hybrid spectrometer.
##STATE=SOLID (NUJOL MULL)
##PATH LENGTH=
$$SPECTRAL CONTAMINATION DUE TO OIL AROUND 2900, 1450, 1380 CM^-^1
##SAMPLING PROCEDURE=TRANSMISSION
##RESOLUTION=4
##DATA PROCESSING=DIGITIZED BY NIST FROM HARD COPY
##XUNITS=MICROMETERS
##YUNITS=TRANSMITTANCE
##XFACTOR=1.000000
##YFACTOR=1
##DELTAX=000.006651
##FIRSTX=2.029
##LASTX=15.995
##FIRSTY=0.908
##MAXX=15.995
##MINX=2.029
##MAXY=1.008
##MINY=0.083
##NPOINTS=2101
##XYDATA=(X++(Y..Y))
2.029000 0.9080 0.9080 0.9080 0.9080 0.9090
2.062269 0.9090 0.9110 0.9110 0.9110 0.9110
2.096000 0.9130 0.9110 0.9110 0.9130 0.9130
2.129269 0.9140 0.9180 0.9180 0.9190 0.9210
2.162000 0.9230 0.9230 0.9240 0.9260 0.9280
2.195269 0.9290 0.9310 0.9310 0.9330 0.9340
2.229000 0.9360 0.9360 0.9360 0.9380 0.9380
2.262269 0.9380 0.9360 0.9360 0.9360 0.9340
2.295000 0.9330 0.9310 0.9290 0.9280 0.9280
2.328269 0.9290 0.9310 0.9330 0.9330 0.9330
2.362000 0.9330 0.9360 0.9360 0.9360 0.9380
2.395269 0.9360 0.9380 0.9380 0.9360 0.9360
2.428000 0.9360 0.9340 0.9330 0.9330 0.9310
2.461269 0.9330 0.9330 0.9340 0.9340 0.9360
2.495000 0.9360 0.9360 0.9360 0.9340 0.9330
2.528269 0.9330 0.9330 0.9310 0.9310 0.9290
2.561000 0.9280 0.9260 0.9240 0.9230 0.9230
2.594269 0.9230 0.9230 0.9210 0.9190 0.9190
2.628000 0.9190 0.9190 0.9180 0.9160 0.9140
2.661269 0.9130 0.9090 0.9030 0.9010 0.9010
2.694000 0.9010 0.9010 0.9010 0.8990 0.8980
2.727269 0.8930 0.8880 0.8840 0.8730 0.8680
2.761000 0.8560 0.8490 0.8260 0.8180 0.8040
2.794269 0.7770 0.7560 0.7140 0.6960 0.6790
2.827000 0.6710 0.6610 0.6310 0.6090 0.5990
2.860269 0.5620 0.5400 0.5090 0.4990 0.4720
2.894000 0.4500 0.4290 0.4090 0.4000 0.3820
2.927269 0.3700 0.3600 0.3550 0.3470 0.3380
2.960000 0.3330 0.3280 0.3200 0.3170 0.3130
2.993269 0.3100 0.3050 0.2930 0.2850 0.2820
3.027000 0.2820 0.2800 0.2750 0.2720 0.2700
3.060269 0.2680 0.2620 0.2600 0.2580 0.2580
3.093000 0.2570 0.2520 0.2520 0.2480 0.2450
3.126269 0.2430 0.2420 0.2420 0.2420 0.2420
3.160000 0.2400 0.2400 0.2400 0.2400 0.2400
3.193269 0.2400 0.2400 0.2400 0.2400 0.2400
3.226000 0.2420 0.2420 0.2420 0.2420 0.2420
3.259269 0.2420 0.2420 0.2450 0.2470 0.2480
3.293000 0.2480 0.2480 0.2480 0.2470 0.2420
3.326269 0.2380 0.2320 0.2070 0.1750 0.1360
3.359000 0.1260 0.1160 0.1050 0.0950 0.0850
3.392269 0.0830 0.0860 0.0950 0.1000 0.1060
3.426000 0.1230 0.1410 0.1600 0.1700 0.1780
3.459269 0.1780 0.1780 0.1780 0.1780 0.1800
3.492000 0.1980 0.2200 0.2480 0.2900 0.3680
3.525269 0.3850 0.4150 0.4320 0.4420 0.4570
3.559000 0.4700 0.4820 0.4970 0.5020 0.5100
3.592269 0.5220 0.5290 0.5420 0.5540 0.5590
3.625000 0.5650 0.5750 0.5790 0.5840 0.5970
3.658269 0.5990 0.6020 0.6120 0.6210 0.6260
3.692000 0.6320 0.6370 0.6420 0.6470 0.6520
3.725269 0.6590 0.6660 0.6790 0.6860 0.6870
3.758000 0.6970 0.6990 0.7020 0.7070 0.7110
3.791269 0.7140 0.7190 0.7260 0.7310 0.7340
3.825000 0.7370 0.7390 0.7470 0.7510 0.7520
3.858269 0.7540 0.7570 0.7590 0.7640 0.7710
3.891000 0.7720 0.7740 0.7770 0.7790 0.7810
3.924269 0.7820 0.7840 0.7860 0.7870 0.7890
3.958000 0.7910 0.7920 0.7940 0.7960 0.7970
3.991269 0.7990 0.7990 0.7990 0.7990 0.7990
4.024000 0.7990 0.7990 0.7990 0.7990 0.7990
4.057269 0.7990 0.7990 0.7990 0.7990 0.7990
4.091000 0.7990 0.7990 0.7990 0.7990 0.7990
4.124269 0.7990 0.7990 0.7990 0.7970 0.7970
4.157000 0.7960 0.7960 0.7940 0.7920 0.7910
4.190269 0.7870 0.7870 0.7860 0.7860 0.7840
4.224000 0.7820 0.7810 0.7790 0.7790 0.7790
4.257269 0.7770 0.7770 0.7770 0.7770 0.7770
4.290000 0.7760 0.7740 0.7720 0.7720 0.7720
4.323269 0.7720 0.7720 0.7720 0.7740 0.7760
4.357000 0.7770 0.7790 0.7790 0.7840 0.7870
4.390269 0.7990 0.8010 0.8030 0.8040 0.8060
4.423000 0.8060 0.8080 0.8090 0.8110 0.8130
4.456269 0.8130 0.8140 0.8140 0.8160 0.8190
4.490000 0.8190 0.8230 0.8240 0.8260 0.8260
4.523269 0.8280 0.8290 0.8310 0.8330 0.8340
4.556000 0.8360 0.8380 0.8380 0.8390 0.8390
4.589269 0.8430 0.8480 0.8490 0.8540 0.8580
4.623000 0.8580 0.8610 0.8640 0.8710 0.8760
4.656269 0.8780 0.8810 0.8840 0.8840 0.8880
4.689000 0.8910 0.8930 0.8940 0.8980 0.8990
4.722269 0.8990 0.9010 0.9030 0.9040 0.9060
4.756000 0.9080 0.9080 0.9090 0.9130 0.9140
4.789269 0.9160 0.9180 0.9190 0.9210 0.9210
4.822000 0.9210 0.9230 0.9230 0.9230 0.9230
4.855269 0.9240 0.9240 0.9260 0.9260 0.9280
4.889000 0.9280 0.9290 0.9290 0.9310 0.9330
4.922269 0.9340 0.9340 0.9340 0.9360 0.9360
4.955000 0.9380 0.9380 0.9390 0.9410 0.9410
4.988269 0.9430 0.9430 0.9440 0.9440 0.9460
5.022000 0.9480 0.9480 0.9490 0.9490 0.9490
5.055269 0.9490 0.9490 0.9490 0.9510 0.9510
5.088000 0.9510 0.9510 0.9510 0.9510 0.9510
5.121269 0.9510 0.9510 0.9510 0.9510 0.9510
5.155000 0.9510 0.9510 0.9510 0.9510 0.9490
5.188269 0.9490 0.9480 0.9490 0.9490 0.9490
5.221000 0.9490 0.9510 0.9510 0.9510 0.9490
5.254269 0.9510 0.9510 0.9510 0.9510 0.9510
5.288000 0.9510 0.9510 0.9510 0.9510 0.9510
5.321269 0.9510 0.9510 0.9490 0.9490 0.9490
5.354000 0.9510 0.9510 0.9510 0.9510 0.9510
5.387269 0.9490 0.9490 0.9490 0.9480 0.9490
5.421000 0.9490 0.9480 0.9460 0.9460 0.9440
5.454269 0.9440 0.9430 0.9410 0.9410 0.9390
5.487000 0.9410 0.9410 0.9430 0.9430 0.9410
5.520269 0.9390 0.9390 0.9380 0.9380 0.9360
5.554000 0.9380 0.9380 0.9380 0.9380 0.9380
5.587269 0.9380 0.9380 0.9360 0.9340 0.9340
5.620000 0.9330 0.9330 0.9310 0.9310 0.9290
5.653269 0.9280 0.9240 0.9230 0.9210 0.9190
5.687000 0.9190 0.9180 0.9180 0.9160 0.9160
5.720269 0.9140 0.9130 0.9130 0.9110 0.9090
5.753000 0.9060 0.9040 0.9030 0.9030 0.9030
5.786269 0.9030 0.9010 0.9010 0.8990 0.8980
5.820000 0.8980 0.8960 0.8930 0.8910 0.8890
5.853269 0.8890 0.8880 0.8880 0.8880 0.8840
5.886000 0.8830 0.8810 0.8790 0.8780 0.8740
5.919269 0.8730 0.8690 0.8660 0.8630 0.8590
5.953000 0.8540 0.8530 0.8480 0.8460 0.8440
5.986269 0.8430 0.8430 0.8380 0.8360 0.8360
6.019000 0.8340 0.8330 0.8330 0.8310 0.8290
6.052269 0.8280 0.8260 0.8260 0.8260 0.8260
6.086000 0.8240 0.8240 0.8230 0.8230 0.8230
6.119269 0.8230 0.8230 0.8230 0.8230 0.8230
6.152000 0.8210 0.8210 0.8210 0.8210 0.8210
6.185269 0.8210 0.8210 0.8210 0.8210 0.8210
6.219000 0.8210 0.8210 0.8210 0.8210 0.8210
6.252269 0.8210 0.8210 0.8190 0.8190 0.8180
6.285000 0.8180 0.8160 0.8140 0.8140 0.8160
6.318269 0.8160 0.8160 0.8140 0.8140 0.8130
6.352000 0.8130 0.8130 0.8130 0.8140 0.8140
6.385269 0.8160 0.8140 0.8140 0.8130 0.8140
6.418000 0.8130 0.8130 0.8110 0.8110 0.8140
6.451269 0.8140 0.8180 0.8210 0.8210 0.8230
6.485000 0.8240 0.8240 0.8240 0.8240 0.8240
6.518269 0.8240 0.8240 0.8240 0.8230 0.8230
6.551000 0.8240 0.8240 0.8280 0.8280 0.8290
6.584269 0.8290 0.8310 0.8310 0.8330 0.8330
6.618000 0.8340 0.8330 0.8340 0.8360 0.8390
6.651269 0.8390 0.8390 0.8390 0.8390 0.8390
6.684000 0.8390 0.8410 0.8410 0.8390 0.8360
6.717269 0.8360 0.8340 0.8310 0.8280 0.8210
6.751000 0.8180 0.8090 0.8010 0.7920 0.7870
6.784269 0.7720 0.7560 0.7340 0.7060 0.6920
6.817000 0.6860 0.6670 0.6620 0.6570 0.6490
6.850269 0.6420 0.6410 0.6390 0.6340 0.6320
6.884000 0.6310 0.6310 0.6290 0.6290 0.6310
6.917269 0.6340 0.6370 0.6390 0.6440 0.6510
6.950000 0.6520 0.6610 0.6640 0.6770 0.6860
6.983269 0.6970 0.7060 0.7140 0.7220 0.7310
7.017000 0.7320 0.7370 0.7410 0.7420 0.7470
7.050269 0.7510 0.7570 0.7660 0.7720 0.7810
7.083000 0.7890 0.7920 0.7940 0.7960 0.7990
7.116269 0.8080 0.8130 0.8180 0.8190 0.8190
7.150000 0.8190 0.8190 0.8210 0.8210 0.8210
7.183269 0.8190 0.8190 0.8160 0.8040 0.8010
7.216000 0.7970 0.7840 0.7740 0.7670 0.7660
7.249269 0.7660 0.7640 0.7660 0.7670 0.7710
7.283000 0.7740 0.7770 0.7770 0.7820 0.7960
7.316269 0.7990 0.8080 0.8180 0.8280 0.8380
7.349000 0.8480 0.8510 0.8580 0.8640 0.8710
7.382269 0.8780 0.8880 0.8930 0.8960 0.9010
7.416000 0.9030 0.9040 0.9060 0.9090 0.9090
7.449269 0.9110 0.9130 0.9140 0.9210 0.9240
7.482000 0.9280 0.9290 0.9310 0.9330 0.9380
7.515269 0.9410 0.9430 0.9460 0.9490 0.9510
7.549000 0.9510 0.9530 0.9540 0.9560 0.9580
7.582269 0.9590 0.9590 0.9610 0.9630 0.9630
7.615000 0.9630 0.9630 0.9630 0.9630 0.9640
7.648269 0.9640 0.9640 0.9640 0.9640 0.9680
7.682000 0.9690 0.9710 0.9730 0.9730 0.9730
7.715269 0.9740 0.9780 0.9780 0.9810 0.9810
7.748000 0.9830 0.9830 0.9830 0.9840 0.9860
7.781269 0.9880 0.9890 0.9910 0.9910 0.9910
7.815000 0.9930 0.9930 0.9940 0.9960 0.9960
7.848269 0.9980 0.9980 0.9980 0.9960 0.9980
7.881000 0.9980 1.0010 1.0010 1.0010 1.0030
7.914269 1.0030 1.0010 1.0030 1.0030 1.0030
7.948000 1.0050 1.0010 1.0030 1.0030 1.0030
7.981269 1.0010 1.0030 1.0030 1.0030 1.0050
8.015000 1.0050 1.0050 1.0050 1.0050 1.0050
8.048269 1.0050 1.0050 1.0030 1.0050 1.0050
8.081000 1.0060 1.0060 1.0060 1.0060 1.0060
8.114269 1.0050 1.0060 1.0060 1.0060 1.0060
8.148000 1.0060 1.0080 1.0060 1.0050 1.0050
8.181269 1.0030 1.0050 1.0050 1.0050 1.0050
8.214000 1.0030 1.0030 1.0010 1.0010 1.0010
8.247269 1.0010 1.0010 1.0010 1.0010 1.0010
8.281000 1.0010 1.0010 1.0030 1.0030 1.0030
8.314269 1.0010 1.0030 1.0030 1.0030 1.0010
8.347000 1.0010 1.0010 1.0000 1.0000 1.0000
8.380269 0.9980 0.9960 0.9960 0.9960 1.0000
8.414000 1.0000 0.9980 0.9960 0.9940 0.9910
8.447269 0.9890 0.9890 0.9880 0.9840 0.9830
8.480000 0.9810 0.9790 0.9780 0.9740 0.9730
8.513269 0.9710 0.9710 0.9690 0.9680 0.9660
8.547000 0.9640 0.9640 0.9630 0.9590 0.9580
8.580269 0.9540 0.9530 0.9530 0.9530 0.9530
8.613000 0.9510 0.9490 0.9460 0.9430 0.9410
8.646269 0.9410 0.9390 0.9360 0.9330 0.9310
8.680000 0.9290 0.9280 0.9260 0.9260 0.9240
8.713269 0.9240 0.9210 0.9180 0.9130 0.9130
8.746000 0.9130 0.9110 0.9090 0.9080 0.9040
8.779269 0.9010 0.9010 0.8960 0.8960 0.8930
8.813000 0.8910 0.8910 0.8890 0.8860 0.8830
8.846269 0.8790 0.8760 0.8740 0.8690 0.8660
8.879000 0.8630 0.8630 0.8590 0.8530 0.8510
8.912269 0.8490 0.8430 0.8390 0.8360 0.8330
8.946000 0.8310 0.8260 0.8210 0.8180 0.8160
8.979269 0.8130 0.8040 0.8010 0.7970 0.7890
9.012000 0.7860 0.7820 0.7770 0.7640 0.7590
9.045269 0.7520 0.7510 0.7440 0.7390 0.7340
9.079000 0.7270 0.7190 0.7090 0.7020 0.6990
9.112269 0.6920 0.6870 0.6810 0.6690 0.6660
9.145000 0.6620 0.6540 0.6510 0.6390 0.6320
9.178269 0.6270 0.6220 0.6160 0.6010 0.5970
9.212000 0.5870 0.5800 0.5750 0.5690 0.5600
9.245269 0.5520 0.5490 0.5300 0.5270 0.5220
9.278000 0.5190 0.5040 0.5020 0.4990 0.4920
9.311269 0.4820 0.4740 0.4690 0.4640 0.4590
9.345000 0.4540 0.4490 0.4420 0.4370 0.4340
9.378269 0.4300 0.4290 0.4220 0.4170 0.4070
9.411000 0.4040 0.4020 0.4000 0.3900 0.3850
9.444269 0.3780 0.3730 0.3700 0.3630 0.3600
9.478000 0.3530 0.3480 0.3430 0.3420 0.3350
9.511269 0.3330 0.3320 0.3300 0.3250 0.3170
9.544000 0.3130 0.3070 0.3030 0.3030 0.3000
9.577269 0.2970 0.2950 0.2880 0.2780 0.2750
9.611000 0.2700 0.2670 0.2630 0.2600 0.2550
9.644269 0.2550 0.2530 0.2530 0.2520 0.2500
9.677000 0.2480 0.2450 0.2430 0.2420 0.2400
9.710269 0.2370 0.2350 0.2320 0.2300 0.2300
9.744000 0.2280 0.2270 0.2230 0.2230 0.2220
9.777269 0.2220 0.2200 0.2180 0.2180 0.2170
9.810000 0.2170 0.2170 0.2170 0.2170 0.2170
9.843269 0.2170 0.2150 0.2150 0.2150 0.2150
9.877000 0.2150 0.2130 0.2150 0.2130 0.2130
9.910269 0.2130 0.2130 0.2130 0.2130 0.2130
9.943000 0.2130 0.2130 0.2130 0.2130 0.2130
9.976269 0.2100 0.2080 0.2100 0.2080 0.2080
10.010000 0.2070 0.2070 0.2070 0.2070 0.2050
10.043269 0.2070 0.2070 0.2050 0.2050 0.2050
10.076000 0.2050 0.2030 0.2050 0.2050 0.2050
10.109269 0.2030 0.2030 0.2030 0.2030 0.2030
10.143000 0.2030 0.2030 0.2030 0.2030 0.2030
10.176269 0.2030 0.2030 0.2050 0.2050 0.2050
10.209000 0.2070 0.2070 0.2070 0.2070 0.2070
10.242269 0.2070 0.2080 0.2100 0.2100 0.2120
10.276000 0.2130 0.2130 0.2150 0.2180 0.2200
10.309269 0.2220 0.2230 0.2270 0.2270 0.2280
10.342000 0.2300 0.2320 0.2350 0.2380 0.2430
10.375269 0.2470 0.2520 0.2580 0.2620 0.2670
10.409000 0.2730 0.2820 0.2880 0.2900 0.2980
10.442269 0.3050 0.3120 0.3130 0.3200 0.3270
10.475000 0.3320 0.3420 0.3520 0.3550 0.3620
10.508269 0.3680 0.3770 0.3830 0.3930 0.3980
10.542000 0.3980 0.4090 0.4220 0.4270 0.4300
10.575269 0.4370 0.4420 0.4450 0.4490 0.4520
10.608000 0.4590 0.4600 0.4620 0.4640 0.4690
10.641269 0.4720 0.4770 0.4800 0.4820 0.4840
10.675000 0.4900 0.4940 0.5000 0.5040 0.5100
10.708269 0.5140 0.5200 0.5240 0.5300 0.5340
10.741000 0.5370 0.5420 0.5490 0.5520 0.5540
10.774269 0.5570 0.5600 0.5640 0.5690 0.5720
10.808000 0.5750 0.5790 0.5820 0.5850 0.5900
10.841269 0.5920 0.5990 0.5990 0.6010 0.6020
10.874000 0.6040 0.6110 0.6140 0.6170 0.6220
10.907269 0.6290 0.6320 0.6340 0.6370 0.6420
10.941000 0.6440 0.6490 0.6510 0.6520 0.6560
10.974269 0.6560 0.6610 0.6640 0.6720 0.6740
11.007000 0.6760 0.6810 0.6820 0.6840 0.6860
11.040269 0.6920 0.6990 0.6990 0.6990 0.7010
11.074000 0.7020 0.7020 0.7040 0.7060 0.7110
11.107269 0.7120 0.7140 0.7160 0.7170 0.7170
11.140000 0.7190 0.7210 0.7210 0.7210 0.7220
11.173269 0.7240 0.7240 0.7240 0.7270 0.7310
11.207000 0.7320 0.7340 0.7340 0.7340 0.7360
11.240269 0.7370 0.7370 0.7390 0.7390 0.7410
11.273000 0.7420 0.7420 0.7420 0.7420 0.7440
11.306269 0.7440 0.7440 0.7490 0.7510 0.7510
11.340000 0.7510 0.7510 0.7510 0.7510 0.7510
11.373269 0.7510 0.7510 0.7510 0.7520 0.7520
11.406000 0.7520 0.7520 0.7520 0.7520 0.7520
11.439269 0.7520 0.7540 0.7540 0.7520 0.7520
11.473000 0.7520 0.7520 0.7520 0.7520 0.7520
11.506269 0.7540 0.7540 0.7540 0.7540 0.7540
11.539000 0.7540 0.7540 0.7540 0.7540 0.7540
11.572269 0.7540 0.7540 0.7540 0.7540 0.7540
11.606000 0.7540 0.7540 0.7540 0.7540 0.7540
11.639269 0.7540 0.7540 0.7540 0.7540 0.7520
11.672000 0.7520 0.7520 0.7520 0.7520 0.7540
11.705269 0.7520 0.7520 0.7520 0.7520 0.7520
11.739000 0.7520 0.7510 0.7510 0.7510 0.7510
11.772269 0.7510 0.7490 0.7490 0.7490 0.7490
11.805000 0.7460 0.7490 0.7440 0.7440 0.7440
11.838269 0.7440 0.7440 0.7440 0.7440 0.7440
11.872000 0.7440 0.7440 0.7420 0.7420 0.7420
11.905269 0.7420 0.7420 0.7420 0.7420 0.7420
11.938000 0.7420 0.7420 0.7420 0.7420 0.7420
11.971269 0.7420 0.7420 0.7420 0.7420 0.7420
12.005000 0.7420 0.7420 0.7420 0.7420 0.7420
12.038269 0.7420 0.7440 0.7440 0.7440 0.7440
12.071000 0.7440 0.7440 0.7440 0.7440 0.7440
12.104269 0.7420 0.7420 0.7440 0.7440 0.7420
12.138000 0.7420 0.7440 0.7440 0.7440 0.7420
12.171269 0.7420 0.7420 0.7420 0.7420 0.7420
12.204000 0.7440 0.7440 0.7440 0.7420 0.7420
12.237269 0.7420 0.7420 0.7420 0.7420 0.7420
12.271000 0.7420 0.7420 0.7420 0.7420 0.7420
12.304269 0.7420 0.7420 0.7420 0.7410 0.7410
12.337000 0.7390 0.7390 0.7370 0.7370 0.7360
12.370269 0.7360 0.7340 0.7340 0.7340 0.7340
12.404000 0.7320 0.7320 0.7320 0.7320 0.7320
12.437269 0.7320 0.7310 0.7310 0.7310 0.7310
12.470000 0.7310 0.7310 0.7310 0.7310 0.7310
12.503269 0.7310 0.7310 0.7310 0.7310 0.7310
12.537000 0.7310 0.7310 0.7310 0.7310 0.7310
12.570269 0.7320 0.7310 0.7310 0.7290 0.7290
12.603000 0.7290 0.7270 0.7260 0.7270 0.7270
12.636269 0.7270 0.7270 0.7260 0.7240 0.7240
12.670000 0.7220 0.7220 0.7220 0.7220 0.7220
12.703269 0.7210 0.7210 0.7210 0.7210 0.7210
12.736000 0.7190 0.7190 0.7190 0.7170 0.7170
12.769269 0.7190 0.7170 0.7170 0.7170 0.7170
12.803000 0.7170 0.7170 0.7190 0.7170 0.7170
12.836269 0.7170 0.7170 0.7170 0.7170 0.7160
12.869000 0.7160 0.7160 0.7160 0.7160 0.7160
12.902269 0.7160 0.7160 0.7160 0.7160 0.7160
12.936000 0.7160 0.7160 0.7160 0.7160 0.7160
12.969269 0.7160 0.7160 0.7170 0.7160 0.7160
13.002000 0.7160 0.7140 0.7140 0.7140 0.7140
13.035269 0.7140 0.7140 0.7140 0.7140 0.7140
13.069000 0.7140 0.7140 0.7140 0.7140 0.7140
13.102269 0.7140 0.7140 0.7140 0.7140 0.7140
13.135000 0.7140 0.7140 0.7120 0.7120 0.7140
13.168269 0.7140 0.7140 0.7140 0.7140 0.7140
13.202000 0.7140 0.7140 0.7140 0.7140 0.7120
13.235269 0.7120 0.7140 0.7140 0.7140 0.7140
13.268000 0.7140 0.7140 0.7140 0.7140 0.7140
13.301269 0.7140 0.7160 0.7160 0.7140 0.7140
13.335000 0.7140 0.7120 0.7120 0.7140 0.7140
13.368269 0.7140 0.7140 0.7140 0.7160 0.7160
13.401000 0.7140 0.7140 0.7140 0.7140 0.7140
13.434269 0.7140 0.7140 0.7140 0.7140 0.7140
13.468000 0.7140 0.7120 0.7120 0.7110 0.7090
13.501269 0.7090 0.7060 0.7070 0.7060 0.7060
13.534000 0.7040 0.7040 0.7020 0.7020 0.7020
13.567269 0.7020 0.7020 0.7020 0.7020 0.7020
13.601000 0.7020 0.7020 0.7020 0.7020 0.7020
13.634269 0.7020 0.7040 0.7040 0.7040 0.7020
13.667000 0.7020 0.7020 0.7020 0.7020 0.7020
13.700269 0.7020 0.7020 0.7020 0.7020 0.7020
13.734000 0.7020 0.7020 0.7020 0.7040 0.7020
13.767269 0.7020 0.7020 0.7010 0.7010 0.7010
13.800000 0.7010 0.7010 0.7020 0.7010 0.7010
13.833269 0.7010 0.6990 0.6990 0.6970 0.6970
13.867000 0.6960 0.7010 0.6990 0.6990 0.6990
13.900269 0.6960 0.6940 0.6940 0.6960 0.6960
13.933000 0.6960 0.6960 0.6940 0.6960 0.6960
13.966269 0.6960 0.6940 0.6940 0.6920 0.6920
14.000000 0.6920 0.6920 0.6910 0.6910 0.6910
14.033269 0.6910 0.6910 0.6910 0.6910 0.6910
14.067000 0.6910 0.6890 0.6890 0.6890 0.6890
14.100269 0.6890 0.6890 0.6890 0.6890 0.6890
14.133000 0.6890 0.6890 0.6890 0.6890 0.6890
14.166269 0.6890 0.6890 0.6890 0.6890 0.6870
14.200000 0.6890 0.6890 0.6890 0.6910 0.6910
14.233269 0.6910 0.6910 0.6910 0.6910 0.6910
14.266000 0.6910 0.6910 0.6910 0.6910 0.6910
14.299269 0.6920 0.6920 0.6920 0.6920 0.6920
14.333000 0.6920 0.6920 0.6940 0.6940 0.6960
14.366269 0.6970 0.6970 0.6990 0.6970 0.6990
14.399000 0.6990 0.6990 0.6990 0.6990 0.7010
14.432269 0.7020 0.7020 0.7020 0.7020 0.7020
14.466000 0.7020 0.7020 0.7020 0.7040 0.7040
14.499269 0.7040 0.7060 0.7060 0.7070 0.7070
14.532000 0.7090 0.7090 0.7110 0.7110 0.7120
14.565269 0.7120 0.7120 0.7140 0.7140 0.7140
14.599000 0.7140 0.7140 0.7140 0.7140 0.7140
14.632269 0.7140 0.7160 0.7160 0.7170 0.7160
14.665000 0.7160 0.7140 0.7140 0.7140 0.7140
14.698269 0.7140 0.7160 0.7160 0.7160 0.7160
14.732000 0.7160 0.7160 0.7160 0.7160 0.7160
14.765269 0.7160 0.7160 0.7160 0.7160 0.7120
14.798000 0.7110 0.7110 0.7110 0.7110 0.7090
14.831269 0.7090 0.7090 0.7070 0.7070 0.7060
14.865000 0.7070 0.7070 0.7090 0.7110 0.7110
14.898269 0.7110 0.7110 0.7110 0.7120 0.7120
14.931000 0.7120 0.7110 0.7110 0.7110 0.7110
14.964269 0.7110 0.7110 0.7110 0.7110 0.7110
14.998000 0.7090 0.7090 0.7070 0.7090 0.7090
15.031269 0.7090 0.7110 0.7090 0.7090 0.7090
15.064000 0.7090 0.7090 0.7070 0.7070 0.7060
15.097269 0.7070 0.7060 0.7060 0.7070 0.7060
15.131000 0.7060 0.7060 0.7040 0.7020 0.7010
15.164269 0.7010 0.7010 0.7010 0.7010 0.7010
15.197000 0.7010 0.7010 0.7010 0.7010 0.7010
15.230269 0.7020 0.7020 0.7020 0.7020 0.7020
15.264000 0.7020 0.7020 0.7020 0.7010 0.7010
15.297269 0.6990 0.6990 0.7010 0.7010 0.7010
15.330000 0.7010 0.7010 0.7010 0.6990 0.6990
15.363269 0.6990 0.6990 0.7010 0.7010 0.7010
15.397000 0.6990 0.6990 0.6990 0.6990 0.6990
15.430269 0.6990 0.6990 0.6990 0.6990 0.6970
15.463000 0.6970 0.6970 0.6970 0.6970 0.6970
15.496269 0.6960 0.6960 0.6960 0.6960 0.6960
15.530000 0.6960 0.6940 0.6940 0.6940 0.6940
15.563269 0.6940 0.6920 0.6920 0.6920 0.6920
15.596000 0.6920 0.6910 0.6910 0.6910 0.6910
15.629269 0.6910 0.6910 0.6910 0.6910 0.6910
15.663000 0.6910 0.6910 0.6910 0.6890 0.6890
15.696269 0.6890 0.6890 0.6890 0.6890 0.6870
15.729000 0.6870 0.6870 0.6870 0.6870 0.6870
15.762269 0.6870 0.6870 0.6870 0.6870 0.6870
15.796000 0.6870 0.6870 0.6870 0.6870 0.6890
15.829269 0.6890 0.6890 0.6890 0.6890 0.6890
15.862000 0.6890 0.6890 0.6890 0.6890 0.6890
15.895269 0.6890 0.6890 0.6890 0.6890 0.6890
15.929000 0.6890 0.6870 0.6870 0.6870 0.6870
15.962269 0.6870 0.6870 0.6870 0.6860 0.6870
15.995000 0.6870
##END=
