##TITLE=SUN YELLOW C
##JCAMP-DX=4.24
##DATA TYPE=INFRARED SPECTRUM
##CLASS=COBLENTZ
##ORIGIN=DESOTO CHEMICAL COATINGS, INC.
##OWNER=COBLENTZ SOCIETY
Collection (C) 2018 copyright by the U.S. Secretary of Commerce
on behalf of the United States of America. All rights reserved.
##DATE=Not specified, most likely prior to 1970
##MOLFORM=Ti O2
$$ TiO2 80%, Sb2O3 15%, NiO 5%
##SOURCE REFERENCE=COBLENTZ NO. 4696
##$NIST ID=B6004696
##$NIST SOURCE=COBLENTZ
##$NIST IMAGE=cob4696
##SPECTROMETER/DATA SYSTEM=Not specified, most likely a grating spectrometer.
##STATE=SOLID (0.6 mg / 300 mg CsI DISC)
##SAMPLING PROCEDURE=TRANSMISSION
##RESOLUTION=4
##DATA PROCESSING=DIGITIZED BY NIST FROM HARD COPY (FROM TWO SEGMENTS)
##XUNITS=1/CM
##YUNITS=TRANSMITTANCE
##XFACTOR=1.000000
##YFACTOR=1
##DELTAX=1.330379
##FIRSTX=200
##LASTX=3991.58
##FIRSTY=0.738
##MAXX=3991.58
##MINX=200
##MAXY=0.984
##MINY=0.098
##NPOINTS=2851
##XYDATA=(X++(Y..Y))
200.000000 0.7380 0.7380 0.7400 0.7420 0.7420
206.651896 0.7430 0.7430 0.7440 0.7470 0.7470
213.303792 0.7470 0.7470 0.7460 0.7460 0.7460
219.955688 0.7440 0.7440 0.7440 0.7440 0.7440
226.607584 0.7440 0.7440 0.7430 0.7430 0.7420
233.259480 0.7390 0.7390 0.7380 0.7360 0.7360
239.911377 0.7350 0.7320 0.7320 0.7300 0.7280
246.563273 0.7270 0.7230 0.7220 0.7160 0.7160
253.215169 0.7110 0.7100 0.7080 0.7030 0.7000
259.867065 0.6980 0.6920 0.6870 0.6830 0.6800
266.518961 0.6780 0.6720 0.6670 0.6600 0.6560
273.170857 0.6510 0.6480 0.6430 0.6390 0.6350
279.822753 0.6310 0.6270 0.6220 0.6180 0.6110
286.474649 0.6090 0.6010 0.5930 0.5811 0.5671
293.126545 0.5580 0.5420 0.5380 0.5260 0.5140
299.778441 0.5010 0.4980 0.4980 0.4920 0.4920
306.430337 0.4880 0.4820 0.4720 0.4660 0.4580
313.082234 0.4490 0.4410 0.4291 0.4171 0.4021
319.734130 0.3850 0.3690 0.3520 0.3490 0.3410
326.386026 0.3290 0.3190 0.3120 0.3001 0.2911
333.037922 0.2810 0.2720 0.2690 0.2610 0.2590
339.689818 0.2520 0.2470 0.2420 0.2400 0.2350
346.341714 0.2270 0.2200 0.2120 0.2100 0.2060
352.993610 0.2020 0.1990 0.1980 0.1980 0.1990
359.645506 0.2020 0.2030 0.2040 0.2070 0.2120
366.297402 0.2200 0.2230 0.2320 0.2419 0.2500
372.949298 0.2520 0.2530 0.2530 0.2530 0.2520
379.601195 0.2510 0.2500 0.2460 0.2420 0.2390
386.253091 0.2320 0.2300 0.2230 0.2150 0.2080
392.904987 0.2060 0.1990 0.1980 0.1950 0.1940
399.556883 0.1900 0.1840 0.1820 0.1800 0.1790
406.208779 0.1790 0.1780 0.1780 0.1780 0.1790
412.860675 0.1820 0.1840 0.1840 0.1880 0.1880
419.512571 0.1920 0.1990 0.2040 0.2080 0.2100
426.164467 0.2120 0.2200 0.2260 0.2310 0.2320
432.816363 0.2420 0.2430 0.2480 0.2510 0.2530
439.468259 0.2570 0.2590 0.2590 0.2600 0.2610
446.120155 0.2640 0.2640 0.2670 0.2680 0.2680
452.772052 0.2670 0.2650 0.2640 0.2640 0.2630
459.423948 0.2610 0.2600 0.2590 0.2570 0.2550
466.075844 0.2530 0.2520 0.2520 0.2500 0.2460
472.727740 0.2420 0.2400 0.2400 0.2390 0.2380
479.379636 0.2350 0.2310 0.2300 0.2280 0.2280
486.031532 0.2240 0.2220 0.2200 0.2180 0.2120
492.683428 0.2120 0.2080 0.2020 0.1990 0.1950
499.335324 0.1880 0.1870 0.1830 0.1820 0.1790
505.987220 0.1790 0.1740 0.1700 0.1660 0.1620
512.639116 0.1590 0.1540 0.1510 0.1500 0.1480
519.291012 0.1440 0.1420 0.1400 0.1400 0.1400
525.942909 0.1390 0.1390 0.1380 0.1380 0.1380
532.594805 0.1360 0.1350 0.1340 0.1340 0.1320
539.246701 0.1320 0.1310 0.1310 0.1310 0.1310
545.898597 0.1310 0.1310 0.1310 0.1300 0.1300
552.550493 0.1300 0.1300 0.1300 0.1300 0.1300
559.202389 0.1300 0.1300 0.1280 0.1280 0.1280
565.854285 0.1280 0.1300 0.1300 0.1300 0.1300
572.506181 0.1300 0.1300 0.1300 0.1280 0.1280
579.158077 0.1270 0.1260 0.1260 0.1260 0.1270
585.809973 0.1270 0.1270 0.1280 0.1280 0.1300
592.461870 0.1300 0.1300 0.1300 0.1300 0.1300
599.113766 0.1300 0.1310 0.1310 0.1310 0.1310
605.765662 0.1310 0.1300 0.1300 0.1280 0.1260
612.417558 0.1250 0.1230 0.1220 0.1190 0.1190
619.069454 0.1190 0.1170 0.1150 0.1140 0.1140
625.721350 0.1130 0.1110 0.1110 0.1100 0.1100
632.373246 0.1100 0.1100 0.1090 0.1090 0.1090
639.025142 0.1090 0.1100 0.1100 0.1100 0.1100
645.677038 0.1090 0.1090 0.1090 0.1090 0.1070
652.328934 0.1030 0.1020 0.1020 0.1010 0.1010
658.980830 0.1010 0.1010 0.0990 0.0990 0.0990
665.632727 0.0990 0.0990 0.0990 0.0980 0.0980
672.284623 0.0980 0.0990 0.0990 0.1010 0.1010
678.936519 0.1020 0.1020 0.1050 0.1060 0.1070
685.588415 0.1090 0.1130 0.1180 0.1210 0.1230
692.240311 0.1230 0.1260 0.1300 0.1310 0.1340
698.892207 0.1360 0.1390 0.1400 0.1420 0.1460
705.544103 0.1500 0.1510 0.1520 0.1520 0.1580
712.195999 0.1600 0.1640 0.1700 0.1710 0.1760
718.847895 0.1790 0.1820 0.1870 0.1920 0.1980
725.499791 0.1990 0.2000 0.2020 0.2100 0.2140
732.151687 0.2190 0.2220 0.2310 0.2420 0.2510
738.803584 0.2600 0.2680 0.2809 0.2880 0.2989
745.455480 0.3010 0.3120 0.3120 0.3250 0.3390
752.107376 0.3510 0.3649 0.3710 0.3809 0.3919
758.759272 0.4010 0.4080 0.4210 0.4290 0.4370
765.411168 0.4480 0.4600 0.4620 0.4720 0.4809
772.063064 0.4970 0.5030 0.5170 0.5210 0.5290
778.714960 0.5300 0.5390 0.5500 0.5580 0.5610
785.366856 0.5690 0.5710 0.5810 0.5860 0.5900
792.018752 0.5970 0.6010 0.6090 0.6110 0.6130
798.670648 0.6150 0.6230 0.6310 0.6390 0.6400
805.322544 0.6470 0.6500 0.6510 0.6600 0.6699
811.974441 0.6760 0.6800 0.6840 0.6880 0.6910
818.626337 0.6950 0.6980 0.7020 0.7060 0.7100
825.278233 0.7120 0.7190 0.7220 0.7300 0.7380
831.930129 0.7430 0.7460 0.7500 0.7560 0.7590
838.582025 0.7600 0.7610 0.7690 0.7720 0.7750
845.233921 0.7790 0.7810 0.7870 0.7930 0.7970
851.885817 0.8000 0.8010 0.8040 0.8050 0.8090
858.537713 0.8120 0.8150 0.8190 0.8230 0.8280
865.189609 0.8320 0.8360 0.8390 0.8400 0.8430
871.841505 0.8470 0.8490 0.8490 0.8520 0.8520
878.493402 0.8560 0.8600 0.8630 0.8640 0.8650
885.145298 0.8690 0.8690 0.8710 0.8720 0.8730
891.797194 0.8760 0.8780 0.8800 0.8810 0.8820
898.449090 0.8850 0.8880 0.8900 0.8900 0.8920
905.100986 0.8930 0.8930 0.8930 0.8940 0.8970
911.752882 0.8980 0.9000 0.9010 0.9010 0.9020
918.404778 0.9020 0.9020 0.9020 0.9050 0.9060
925.056674 0.9080 0.9090 0.9090 0.9090 0.9100
931.708570 0.9120 0.9130 0.9140 0.9160 0.9160
938.360466 0.9160 0.9160 0.9170 0.9200 0.9200
945.012362 0.9200 0.9210 0.9220 0.9240 0.9240
951.664259 0.9250 0.9250 0.9250 0.9250 0.9250
958.316155 0.9250 0.9250 0.9260 0.9280 0.9300
964.968051 0.9300 0.9300 0.9300 0.9300 0.9320
971.619947 0.9330 0.9330 0.9330 0.9330 0.9330
978.271843 0.9330 0.9340 0.9340 0.9370 0.9380
984.923739 0.9380 0.9380 0.9400 0.9400 0.9400
991.575635 0.9400 0.9410 0.9410 0.9410 0.9410
998.227531 0.9420 0.9440 0.9440 0.9450 0.9450
1004.879427 0.9450 0.9450 0.9450 0.9450 0.9440
1011.531323 0.9440 0.9440 0.9420 0.9420 0.9420
1018.183219 0.9420 0.9420 0.9410 0.9410 0.9400
1024.835116 0.9400 0.9400 0.9380 0.9380 0.9370
1031.487012 0.9360 0.9340 0.9330 0.9320 0.9300
1038.138908 0.9300 0.9300 0.9290 0.9290 0.9290
1044.790804 0.9290 0.9290 0.9300 0.9300 0.9300
1051.442700 0.9290 0.9290 0.9300 0.9300 0.9300
1058.094596 0.9320 0.9320 0.9330 0.9340 0.9340
1064.746492 0.9340 0.9340 0.9360 0.9360 0.9360
1071.398388 0.9370 0.9400 0.9400 0.9400 0.9410
1078.050284 0.9410 0.9410 0.9420 0.9450 0.9450
1084.702180 0.9450 0.9460 0.9480 0.9480 0.9480
1091.354076 0.9490 0.9490 0.9490 0.9490 0.9490
1098.005973 0.9490 0.9490 0.9500 0.9500 0.9500
1104.657869 0.9500 0.9500 0.9520 0.9540 0.9560
1111.309765 0.9570 0.9570 0.9570 0.9570 0.9570
1117.961661 0.9570 0.9570 0.9580 0.9580 0.9600
1124.613557 0.9610 0.9620 0.9620 0.9620 0.9620
1131.265453 0.9640 0.9640 0.9640 0.9650 0.9650
1137.917349 0.9650 0.9650 0.9650 0.9660 0.9660
1144.569245 0.9660 0.9660 0.9660 0.9660 0.9690
1151.221141 0.9700 0.9730 0.9730 0.9730 0.9730
1157.873037 0.9730 0.9730 0.9730 0.9740 0.9730
1164.524934 0.9730 0.9730 0.9730 0.9730 0.9740
1171.176830 0.9760 0.9770 0.9770 0.9770 0.9770
1177.828726 0.9770 0.9770 0.9770 0.9770 0.9770
1184.480622 0.9770 0.9780 0.9800 0.9800 0.9800
1191.132518 0.9800 0.9810 0.9810 0.9810 0.9810
1197.784414 0.9810 0.9810 0.9820 0.9820 0.9840
1204.436310 0.9840 0.9820 0.9820 0.9820 0.9820
1211.088206 0.9810 0.9820 0.9820 0.9820 0.9840
1217.740102 0.9840 0.9820 0.9820 0.9820 0.9820
1224.391998 0.9820 0.9840 0.9840 0.9820 0.9820
1231.043894 0.9820 0.9820 0.9810 0.9810 0.9810
1237.695791 0.9820 0.9820 0.9820 0.9810 0.9810
1244.347687 0.9810 0.9820 0.9810 0.9810 0.9810
1250.999583 0.9820 0.9810 0.9800 0.9800 0.9800
1257.651479 0.9800 0.9810 0.9820 0.9820 0.9820
1264.303375 0.9820 0.9820 0.9820 0.9820 0.9820
1270.955271 0.9820 0.9810 0.9800 0.9800 0.9800
1277.607167 0.9810 0.9820 0.9820 0.9840 0.9840
1284.259063 0.9820 0.9820 0.9820 0.9820 0.9820
1290.910959 0.9820 0.9810 0.9800 0.9800 0.9800
1297.562855 0.9800 0.9810 0.9810 0.9820 0.9820
1304.214751 0.9820 0.9820 0.9820 0.9810 0.9810
1310.866648 0.9810 0.9810 0.9810 0.9810 0.9820
1317.518544 0.9820 0.9820 0.9820 0.9810 0.9810
1324.170440 0.9810 0.9810 0.9820 0.9840 0.9840
1330.822336 0.9840 0.9810 0.9810 0.9810 0.9810
1337.474232 0.9800 0.9800 0.9800 0.9810 0.9810
1344.126128 0.9800 0.9800 0.9800 0.9800 0.9780
1350.778024 0.9770 0.9760 0.9760 0.9760 0.9760
1357.429920 0.9760 0.9740 0.9740 0.9730 0.9730
1364.081816 0.9730 0.9730 0.9730 0.9730 0.9730
1370.733712 0.9720 0.9720 0.9730 0.9730 0.9730
1377.385609 0.9740 0.9730 0.9730 0.9720 0.9700
1384.037505 0.9700 0.9700 0.9720 0.9720 0.9700
1390.689401 0.9700 0.9690 0.9690 0.9690 0.9680
1397.341297 0.9660 0.9680 0.9690 0.9700 0.9700
1403.993193 0.9700 0.9700 0.9720 0.9720 0.9720
1410.645089 0.9720 0.9700 0.9690 0.9680 0.9680
1417.296985 0.9680 0.9680 0.9680 0.9680 0.9680
1423.948881 0.9660 0.9660 0.9660 0.9660 0.9680
1430.600777 0.9680 0.9680 0.9660 0.9650 0.9650
1437.252673 0.9650 0.9650 0.9660 0.9650 0.9650
1443.904569 0.9650 0.9650 0.9650 0.9650 0.9650
1450.556466 0.9650 0.9650 0.9650 0.9650 0.9650
1457.208362 0.9640 0.9640 0.9620 0.9620 0.9620
1463.860258 0.9610 0.9610 0.9600 0.9600 0.9600
1470.512154 0.9600 0.9600 0.9600 0.9600 0.9600
1477.164050 0.9600 0.9600 0.9610 0.9610 0.9620
1483.815946 0.9610 0.9610 0.9610 0.9610 0.9610
1490.467842 0.9610 0.9600 0.9600 0.9600 0.9610
1497.119738 0.9610 0.9610 0.9610 0.9610 0.9610
1503.771634 0.9600 0.9600 0.9600 0.9600 0.9580
1510.423530 0.9580 0.9570 0.9560 0.9560 0.9560
1517.075426 0.9560 0.9560 0.9570 0.9570 0.9560
1523.727323 0.9560 0.9560 0.9540 0.9540 0.9530
1530.379219 0.9530 0.9530 0.9500 0.9500 0.9500
1537.031115 0.9490 0.9490 0.9480 0.9460 0.9450
1543.683011 0.9440 0.9420 0.9410 0.9410 0.9410
1550.334907 0.9410 0.9410 0.9380 0.9380 0.9370
1556.986803 0.9360 0.9360 0.9330 0.9320 0.9320
1563.638699 0.9300 0.9300 0.9300 0.9300 0.9290
1570.290595 0.9290 0.9300 0.9300 0.9290 0.9290
1576.942491 0.9280 0.9260 0.9260 0.9260 0.9250
1583.594387 0.9250 0.9220 0.9220 0.9210 0.9180
1590.246283 0.9180 0.9160 0.9120 0.9100 0.9090
1596.898180 0.9060 0.9060 0.9020 0.9000 0.9000
1603.550076 0.8980 0.8940 0.8920 0.8890 0.8890
1610.201972 0.8880 0.8840 0.8820 0.8810 0.8810
1616.853868 0.8800 0.8800 0.8780 0.8780 0.8780
1623.505764 0.8780 0.8800 0.8800 0.8810 0.8810
1630.157660 0.8820 0.8840 0.8840 0.8850 0.8860
1636.809556 0.8890 0.8900 0.8930 0.8940 0.8960
1643.461452 0.8970 0.8980 0.9000 0.9000 0.9010
1650.113348 0.9010 0.9010 0.9010 0.9010 0.9010
1656.765244 0.9020 0.9020 0.9040 0.9040 0.9060
1663.417141 0.9060 0.9060 0.9060 0.9080 0.9090
1670.069037 0.9100 0.9100 0.9100 0.9100 0.9100
1676.720933 0.9100 0.9120 0.9120 0.9130 0.9130
1683.372829 0.9120 0.9120 0.9100 0.9100 0.9100
1690.024725 0.9100 0.9100 0.9120 0.9120 0.9120
1696.676621 0.9100 0.9100 0.9100 0.9090 0.9060
1703.328517 0.9060 0.9050 0.9050 0.9050 0.9050
1709.980413 0.9060 0.9060 0.9060 0.9080 0.9080
1716.632309 0.9090 0.9100 0.9100 0.9100 0.9100
1723.284205 0.9100 0.9100 0.9100 0.9090 0.9080
1729.936101 0.9080 0.9060 0.9060 0.9050 0.9050
1736.587998 0.9050 0.9060 0.9060 0.9080 0.9090
1743.239894 0.9090 0.9090 0.9090 0.9080 0.9060
1749.891790 0.9050 0.9050 0.9040 0.9040 0.9040
1756.543686 0.9040 0.9040 0.9040 0.9040 0.9020
1763.195582 0.9020 0.9020 0.9020 0.9020 0.9020
1769.847478 0.9020 0.9010 0.9010 0.9010 0.9010
1776.499374 0.9000 0.9000 0.9000 0.8980 0.8980
1783.151270 0.8980 0.8970 0.8970 0.8960 0.8960
1789.803166 0.8960 0.8960 0.8960 0.8960 0.8960
1796.455062 0.8960 0.8960 0.8940 0.8940 0.8940
1803.106958 0.8940 0.8940 0.8930 0.8930 0.8930
1809.758855 0.8930 0.8930 0.8930 0.8920 0.8900
1816.410751 0.8900 0.8900 0.8900 0.8900 0.8900
1823.062647 0.8900 0.8900 0.8890 0.8890 0.8890
1829.714543 0.8890 0.8890 0.8860 0.8850 0.8850
1836.366439 0.8850 0.8840 0.8840 0.8840 0.8840
1843.018335 0.8840 0.8840 0.8840 0.8820 0.8810
1849.670231 0.8800 0.8770 0.8760 0.8760 0.8760
1856.322127 0.8770 0.8780 0.8780 0.8780 0.8770
1862.974023 0.8770 0.8760 0.8750 0.8750 0.8750
1869.625919 0.8750 0.8750 0.8730 0.8730 0.8730
1876.277816 0.8720 0.8720 0.8720 0.8710 0.8710
1882.929712 0.8690 0.8690 0.8680 0.8680 0.8680
1889.581608 0.8670 0.8650 0.8650 0.8640 0.8640
1896.233504 0.8640 0.8640 0.8630 0.8610 0.8600
1902.885400 0.8600 0.8590 0.8590 0.8590 0.8590
1909.537296 0.8590 0.8590 0.8570 0.8570 0.8570
1916.189192 0.8560 0.8560 0.8560 0.8550 0.8530
1922.841088 0.8530 0.8530 0.8530 0.8530 0.8530
1929.492984 0.8520 0.8490 0.8490 0.8490 0.8490
1936.144880 0.8490 0.8490 0.8480 0.8480 0.8480
1942.796776 0.8480 0.8450 0.8450 0.8440 0.8440
1949.448673 0.8440 0.8430 0.8410 0.8410 0.8400
1956.100569 0.8400 0.8400 0.8410 0.8410 0.8400
1962.752465 0.8400 0.8400 0.8400 0.8400 0.8400
1969.404361 0.8410 0.8400 0.8400 0.8390 0.8390
1976.056257 0.8390 0.8390 0.8390 0.8370 0.8360
1982.708153 0.8360 0.8350 0.8330 0.8330 0.8330
1989.360049 0.8320 0.8310 0.8290 0.8290 0.8290
1996.011945 0.8280 0.8280 0.8270 0.8250 0.8240
2002.663841 0.8230 0.8230 0.8230 0.8230 0.8230
2009.315737 0.8220 0.8210 0.8210 0.8210 0.8210
2015.967633 0.8210 0.8205 0.8200 0.8195 0.8190
2022.619530 0.8175 0.8160 0.8155 0.8150 0.8140
2029.271426 0.8130 0.8125 0.8120 0.8120 0.8120
2035.923322 0.8120 0.8120 0.8115 0.8110 0.8110
2042.575218 0.8110 0.8100 0.8090 0.8090 0.8090
2049.227114 0.8090 0.8090 0.8090 0.8090 0.8090
2055.879010 0.8090 0.8085 0.8080 0.8060 0.8040
2062.530906 0.8035 0.8030 0.8020 0.8010 0.8010
2069.182802 0.8010 0.8005 0.8000 0.8000 0.8000
2075.834698 0.8000 0.8000 0.8000 0.8000 0.8000
2082.486594 0.8000 0.7995 0.7990 0.7980 0.7970
2089.138490 0.7960 0.7950 0.7950 0.7950 0.7940
2095.790387 0.7930 0.7930 0.7930 0.7930 0.7930
2102.442283 0.7925 0.7920 0.7915 0.7910 0.7900
2109.094179 0.7890 0.7890 0.7890 0.7885 0.7880
2115.746075 0.7880 0.7880 0.7880 0.7880 0.7875
2122.397971 0.7870 0.7860 0.7849 0.7830 0.7810
2129.049867 0.7810 0.7810 0.7805 0.7800 0.7800
2135.701763 0.7800 0.7800 0.7800 0.7795 0.7790
2142.353659 0.7780 0.7770 0.7765 0.7760 0.7755
2149.005555 0.7750 0.7740 0.7730 0.7725 0.7720
2155.657451 0.7720 0.7720 0.7715 0.7710 0.7710
2162.309348 0.7710 0.7710 0.7710 0.7710 0.7709
2168.961244 0.7700 0.7690 0.7690 0.7690 0.7690
2175.613140 0.7690 0.7685 0.7680 0.7675 0.7670
2182.265036 0.7660 0.7650 0.7645 0.7640 0.7635
2188.916932 0.7629 0.7614 0.7600 0.7600 0.7600
2195.568828 0.7600 0.7600 0.7600 0.7600 0.7595
2202.220724 0.7590 0.7590 0.7589 0.7574 0.7560
2208.872620 0.7560 0.7560 0.7555 0.7549 0.7534
2215.524516 0.7520 0.7515 0.7510 0.7505 0.7500
2222.176412 0.7500 0.7500 0.7500 0.7500 0.7500
2228.828308 0.7499 0.7489 0.7480 0.7480 0.7480
2235.480205 0.7480 0.7480 0.7480 0.7479 0.7469
2242.132101 0.7459 0.7449 0.7440 0.7435 0.7430
2248.783997 0.7425 0.7420 0.7420 0.7420 0.7420
2255.435893 0.7420 0.7420 0.7420 0.7420 0.7419
2262.087789 0.7404 0.7390 0.7390 0.7390 0.7390
2268.739685 0.7389 0.7374 0.7360 0.7360 0.7360
2275.391581 0.7360 0.7360 0.7360 0.7360 0.7355
2282.043477 0.7350 0.7350 0.7350 0.7350 0.7350
2288.695373 0.7350 0.7350 0.7350 0.7350 0.7345
2295.347269 0.7339 0.7329 0.7319 0.7309 0.7299
2301.999165 0.7289 0.7280 0.7280 0.7280 0.7280
2308.651062 0.7280 0.7280 0.7278 0.7258 0.7240
2315.302958 0.7235 0.7230 0.7225 0.7220 0.7220
2321.954854 0.7219 0.7209 0.7200 0.7200 0.7200
2328.606750 0.7200 0.7200 0.7200 0.7200 0.7200
2335.258646 0.7200 0.7200 0.7200 0.7200 0.7200
2341.910542 0.7195 0.7190 0.7190 0.7189 0.7184
2348.562438 0.7180 0.7180 0.7179 0.7169 0.7160
2355.214334 0.7160 0.7160 0.7160 0.7159 0.7154
2361.866230 0.7150 0.7150 0.7148 0.7133 0.7120
2368.518126 0.7120 0.7120 0.7120 0.7120 0.7120
2375.170023 0.7119 0.7114 0.7108 0.7093 0.7077
2381.821919 0.7052 0.7028 0.7013 0.6999 0.6994
2388.473815 0.6989 0.6984 0.6980 0.6980 0.6979
2395.125711 0.6969 0.6959 0.6954 0.6947 0.6927
2401.777607 0.6909 0.6904 0.6899 0.6889 0.6879
2408.429503 0.6874 0.6870 0.6870 0.6870 0.6870
2415.081399 0.6870 0.6870 0.6869 0.6864 0.6860
2421.733295 0.6860 0.6859 0.6849 0.6840 0.6840
2428.385191 0.6840 0.6840 0.6839 0.6834 0.6829
2435.037087 0.6824 0.6819 0.6809 0.6799 0.6794
2441.688983 0.6790 0.6790 0.6790 0.6790 0.6790
2448.340880 0.6790 0.6790 0.6790 0.6789 0.6784
2454.992776 0.6778 0.6768 0.6759 0.6749 0.6738
2461.644672 0.6723 0.6710 0.6710 0.6709 0.6704
2468.296568 0.6699 0.6689 0.6677 0.6657 0.6639
2474.948464 0.6629 0.6620 0.6620 0.6618 0.6608
2481.600360 0.6599 0.6594 0.6589 0.6584 0.6580
2488.252256 0.6580 0.6580 0.6580 0.6580 0.6580
2494.904152 0.6580 0.6580 0.6580 0.6580 0.6578
2501.556048 0.6563 0.6548 0.6533 0.6519 0.6514
2508.207944 0.6510 0.6510 0.6510 0.6510 0.6510
2514.859840 0.6510 0.6509 0.6504 0.6498 0.6483
2521.511737 0.6468 0.6453 0.6440 0.6440 0.6439
2528.163633 0.6434 0.6429 0.6424 0.6420 0.6420
2534.815529 0.6420 0.6420 0.6418 0.6408 0.6399
2541.467425 0.6394 0.6389 0.6384 0.6380 0.6380
2548.119321 0.6380 0.6380 0.6380 0.6380 0.6380
2554.771217 0.6380 0.6378 0.6368 0.6356 0.6336
2561.423113 0.6319 0.6314 0.6309 0.6304 0.6300
2568.075009 0.6300 0.6298 0.6288 0.6280 0.6280
2574.726905 0.6280 0.6280 0.6277 0.6262 0.6250
2581.378801 0.6250 0.6248 0.6238 0.6229 0.6224
2588.030697 0.6220 0.6220 0.6219 0.6214 0.6210
2594.682594 0.6210 0.6210 0.6210 0.6210 0.6210
2601.334490 0.6207 0.6192 0.6180 0.6180 0.6180
2607.986386 0.6180 0.6180 0.6180 0.6180 0.6180
2614.638282 0.6179 0.6174 0.6167 0.6152 0.6139
2621.290178 0.6134 0.6128 0.6118 0.6109 0.6104
2627.942074 0.6099 0.6094 0.6090 0.6090 0.6088
2634.593970 0.6078 0.6070 0.6070 0.6069 0.6064
2641.245866 0.6059 0.6054 0.6048 0.6038 0.6028
2647.897762 0.6018 0.6010 0.6010 0.6010 0.6010
2654.549658 0.6008 0.5998 0.5990 0.5990 0.5989
2661.201555 0.5984 0.5979 0.5974 0.5967 0.5952
2667.853451 0.5939 0.5934 0.5928 0.5918 0.5910
2674.505347 0.5910 0.5909 0.5904 0.5899 0.5894
2681.157243 0.5890 0.5890 0.5890 0.5890 0.5888
2687.809139 0.5878 0.5870 0.5870 0.5870 0.5870
2694.461035 0.5869 0.5864 0.5859 0.5854 0.5848
2701.112931 0.5838 0.5829 0.5824 0.5817 0.5802
2707.764827 0.5789 0.5784 0.5776 0.5756 0.5739
2714.416723 0.5734 0.5730 0.5730 0.5728 0.5718
2721.068619 0.5710 0.5710 0.5709 0.5704 0.5700
2727.720515 0.5700 0.5700 0.5700 0.5699 0.5694
2734.372412 0.5690 0.5690 0.5688 0.5678 0.5668
2741.024308 0.5658 0.5648 0.5638 0.5630 0.5630
2747.676204 0.5630 0.5630 0.5630 0.5630 0.5630
2754.328100 0.5630 0.5630 0.5630 0.5629 0.5624
2760.979996 0.5620 0.5620 0.5616 0.5601 0.5590
2767.631892 0.5590 0.5589 0.5584 0.5576 0.5561
2774.283788 0.5549 0.5544 0.5539 0.5534 0.5530
2780.935684 0.5530 0.5527 0.5517 0.5510 0.5510
2787.587580 0.5510 0.5510 0.5510 0.5510 0.5510
2794.239476 0.5510 0.5509 0.5504 0.5500 0.5500
2800.891372 0.5499 0.5494 0.5490 0.5490 0.5487
2807.543269 0.5477 0.5467 0.5457 0.5450 0.5450
2814.195165 0.5450 0.5450 0.5446 0.5431 0.5416
2820.847061 0.5401 0.5389 0.5384 0.5380 0.5380
2827.498957 0.5379 0.5374 0.5366 0.5351 0.5339
2834.150853 0.5334 0.5327 0.5317 0.5310 0.5310
2840.802749 0.5310 0.5310 0.5309 0.5304 0.5299
2847.454645 0.5294 0.5287 0.5277 0.5267 0.5257
2854.106541 0.5247 0.5237 0.5229 0.5224 0.5219
2860.758437 0.5214 0.5210 0.5210 0.5207 0.5197
2867.410333 0.5190 0.5190 0.5189 0.5184 0.5180
2874.062229 0.5180 0.5179 0.5174 0.5166 0.5151
2880.714126 0.5139 0.5134 0.5130 0.5130 0.5130
2887.366022 0.5130 0.5130 0.5130 0.5130 0.5130
2894.017918 0.5130 0.5130 0.5127 0.5117 0.5109
2900.669814 0.5104 0.5099 0.5094 0.5085 0.5070
2907.321710 0.5058 0.5053 0.5047 0.5037 0.5029
2913.973606 0.5024 0.5020 0.5020 0.5019 0.5014
2920.625502 0.5009 0.5004 0.4997 0.4987 0.4979
2927.277398 0.4974 0.4970 0.4970 0.4968 0.4963
2933.929294 0.4957 0.4947 0.4940 0.4940 0.4938
2940.581190 0.4933 0.4930 0.4930 0.4930 0.4930
2947.233087 0.4928 0.4923 0.4917 0.4907 0.4900
2953.884983 0.4900 0.4900 0.4900 0.4900 0.4900
2960.536879 0.4898 0.4893 0.4888 0.4883 0.4880
2967.188775 0.4880 0.4880 0.4880 0.4880 0.4880
2973.840671 0.4880 0.4880 0.4877 0.4867 0.4858
2980.492567 0.4853 0.4850 0.4850 0.4850 0.4850
2987.144463 0.4845 0.4830 0.4818 0.4813 0.4810
2993.796359 0.4810 0.4810 0.4810 0.4808 0.4803
3000.448255 0.4797 0.4787 0.4780 0.4780 0.4778
3007.100151 0.4773 0.4765 0.4750 0.4740 0.4740
3013.752047 0.4740 0.4740 0.4738 0.4733 0.4725
3020.403944 0.4710 0.4698 0.4693 0.4690 0.4690
3027.055840 0.4688 0.4683 0.4680 0.4680 0.4680
3033.707736 0.4680 0.4680 0.4680 0.4680 0.4680
3040.359632 0.4677 0.4667 0.4658 0.4653 0.4650
3047.011528 0.4650 0.4648 0.4643 0.4637 0.4627
3053.663424 0.4618 0.4613 0.4608 0.4603 0.4597
3060.315320 0.4587 0.4580 0.4580 0.4580 0.4580
3066.967216 0.4580 0.4580 0.4578 0.4573 0.4565
3073.619112 0.4550 0.4540 0.4540 0.4537 0.4527
3080.271008 0.4517 0.4507 0.4500 0.4500 0.4500
3086.922904 0.4500 0.4500 0.4500 0.4500 0.4500
3093.574801 0.4500 0.4500 0.4500 0.4500 0.4498
3100.226697 0.4493 0.4488 0.4483 0.4480 0.4480
3106.878593 0.4476 0.4466 0.4460 0.4460 0.4456
3113.530489 0.4446 0.4435 0.4419 0.4410 0.4410
3120.182385 0.4408 0.4403 0.4400 0.4400 0.4400
3126.834281 0.4400 0.4400 0.4400 0.4396 0.4386
3133.486177 0.4378 0.4373 0.4368 0.4363 0.4353
3140.138073 0.4333 0.4315 0.4299 0.4290 0.4290
3146.789969 0.4288 0.4283 0.4280 0.4280 0.4280
3153.441865 0.4280 0.4280 0.4280 0.4280 0.4280
3160.093762 0.4276 0.4266 0.4260 0.4260 0.4260
3166.745658 0.4260 0.4258 0.4253 0.4250 0.4250
3173.397554 0.4248 0.4243 0.4234 0.4219 0.4208
3180.049450 0.4203 0.4200 0.4200 0.4196 0.4186
3186.701346 0.4178 0.4173 0.4170 0.4170 0.4168
3193.353242 0.4163 0.4152 0.4132 0.4116 0.4106
3200.005138 0.4100 0.4100 0.4100 0.4100 0.4100
3206.657034 0.4100 0.4098 0.4093 0.4088 0.4083
3213.308930 0.4080 0.4080 0.4080 0.4080 0.4076
3219.960826 0.4066 0.4058 0.4053 0.4050 0.4050
3226.612722 0.4048 0.4043 0.4034 0.4019 0.4010
3233.264619 0.4010 0.4010 0.4010 0.4008 0.4003
3239.916515 0.3996 0.3986 0.3978 0.3973 0.3970
3246.568411 0.3970 0.3970 0.3970 0.3959 0.3935
3253.220307 0.3920 0.3920 0.3916 0.3906 0.3900
3259.872203 0.3900 0.3898 0.3893 0.3884 0.3869
3266.524099 0.3860 0.3860 0.3858 0.3853 0.3850
3273.175995 0.3850 0.3848 0.3843 0.3836 0.3826
3279.827891 0.3818 0.3813 0.3808 0.3803 0.3796
3286.479787 0.3786 0.3780 0.3780 0.3780 0.3780
3293.131683 0.3780 0.3780 0.3778 0.3773 0.3768
3299.783579 0.3763 0.3752 0.3731 0.3720 0.3720
3306.435476 0.3720 0.3720 0.3718 0.3713 0.3706
3313.087372 0.3696 0.3690 0.3690 0.3688 0.3683
3319.739268 0.3665 0.3630 0.3610 0.3610 0.3608
3326.391164 0.3603 0.3598 0.3593 0.3586 0.3576
3333.043060 0.3570 0.3570 0.3570 0.3570 0.3568
3339.694956 0.3563 0.3553 0.3538 0.3526 0.3516
3346.346852 0.3510 0.3510 0.3506 0.3496 0.3488
3352.998748 0.3483 0.3480 0.3480 0.3473 0.3458
3359.650644 0.3441 0.3421 0.3410 0.3410 0.3408
3366.302540 0.3403 0.3398 0.3393 0.3383 0.3368
3372.954436 0.3351 0.3331 0.3318 0.3313 0.3306
3379.606333 0.3296 0.3288 0.3283 0.3278 0.3273
3386.258229 0.3270 0.3270 0.3263 0.3248 0.3233
3392.910125 0.3218 0.3210 0.3210 0.3205 0.3195
3399.562021 0.3183 0.3168 0.3153 0.3138 0.3128
3406.213917 0.3123 0.3120 0.3120 0.3118 0.3113
3412.865813 0.3105 0.3095 0.3090 0.3090 0.3088
3419.517709 0.3083 0.3078 0.3073 0.3065 0.3055
3426.169605 0.3048 0.3043 0.3040 0.3040 0.3038
3432.821501 0.3033 0.3030 0.3030 0.3025 0.3015
3439.473397 0.3008 0.3003 0.2998 0.2993 0.2985
3446.125294 0.2975 0.2970 0.2970 0.2968 0.2963
3452.777190 0.2958 0.2953 0.2950 0.2950 0.2945
3459.429086 0.2935 0.2928 0.2923 0.2918 0.2913
3466.080982 0.2910 0.2910 0.2905 0.2895 0.2890
3472.732878 0.2890 0.2890 0.2890 0.2890 0.2890
3479.384774 0.2890 0.2890 0.2890 0.2890 0.2890
3486.036670 0.2890 0.2888 0.2883 0.2880 0.2880
3492.688566 0.2880 0.2880 0.2880 0.2880 0.2878
3499.340462 0.2873 0.2870 0.2870 0.2872 0.2877
3505.992358 0.2880 0.2880 0.2880 0.2880 0.2880
3512.644254 0.2880 0.2880 0.2880 0.2880 0.2880
3519.296151 0.2880 0.2880 0.2880 0.2880 0.2880
3525.948047 0.2880 0.2880 0.2880 0.2878 0.2873
3532.599943 0.2870 0.2870 0.2870 0.2870 0.2870
3539.251839 0.2870 0.2870 0.2870 0.2873 0.2878
3545.903735 0.2880 0.2880 0.2880 0.2880 0.2880
3552.555631 0.2880 0.2880 0.2880 0.2880 0.2880
3559.207527 0.2880 0.2880 0.2880 0.2880 0.2880
3565.859423 0.2880 0.2880 0.2880 0.2880 0.2880
3572.511319 0.2883 0.2888 0.2890 0.2890 0.2895
3579.163215 0.2905 0.2910 0.2910 0.2913 0.2918
3585.815111 0.2920 0.2920 0.2923 0.2928 0.2935
3592.467008 0.2945 0.2953 0.2958 0.2960 0.2960
3599.118904 0.2960 0.2960 0.2957 0.2952 0.2950
3605.770800 0.2950 0.2945 0.2935 0.2930 0.2930
3612.422696 0.2930 0.2930 0.2930 0.2930 0.2935
3619.074592 0.2945 0.2950 0.2950 0.2950 0.2950
3625.726488 0.2945 0.2935 0.2930 0.2930 0.2927
3632.378384 0.2922 0.2920 0.2920 0.2923 0.2928
3639.030280 0.2930 0.2930 0.2930 0.2930 0.2935
3645.682176 0.2945 0.2950 0.2950 0.2950 0.2950
3652.334072 0.2950 0.2950 0.2944 0.2935 0.2930
3658.985969 0.2930 0.2927 0.2922 0.2920 0.2920
3665.637865 0.2917 0.2912 0.2910 0.2910 0.2910
3672.289761 0.2910 0.2910 0.2910 0.2910 0.2910
3678.941657 0.2910 0.2910 0.2904 0.2894 0.2890
3685.593553 0.2890 0.2887 0.2882 0.2880 0.2880
3692.245449 0.2880 0.2880 0.2877 0.2872 0.2870
3698.897345 0.2870 0.2864 0.2854 0.2847 0.2842
3705.549241 0.2840 0.2840 0.2837 0.2832 0.2830
3712.201137 0.2830 0.2830 0.2830 0.2830 0.2830
3718.853033 0.2824 0.2814 0.2810 0.2810 0.2810
3725.504929 0.2810 0.2807 0.2802 0.2800 0.2800
3732.156826 0.2800 0.2800 0.2797 0.2792 0.2790
3738.808722 0.2790 0.2790 0.2790 0.2784 0.2774
3745.460618 0.2770 0.2770 0.2770 0.2770 0.2770
3752.112514 0.2770 0.2767 0.2762 0.2760 0.2760
3758.764410 0.2760 0.2760 0.2757 0.2752 0.2750
3765.416306 0.2750 0.2744 0.2734 0.2730 0.2730
3772.068202 0.2727 0.2722 0.2720 0.2720 0.2717
3778.720098 0.2712 0.2710 0.2710 0.2704 0.2694
3785.371994 0.2690 0.2690 0.2687 0.2682 0.2680
3792.023890 0.2680 0.2677 0.2672 0.2664 0.2654
3798.675786 0.2647 0.2642 0.2637 0.2632 0.2630
3805.327683 0.2630 0.2624 0.2614 0.2610 0.2610
3811.979579 0.2610 0.2610 0.2607 0.2602 0.2600
3818.631475 0.2600 0.2597 0.2592 0.2590 0.2590
3825.283371 0.2584 0.2574 0.2570 0.2570 0.2567
3831.935267 0.2562 0.2560 0.2560 0.2560 0.2560
3838.587163 0.2560 0.2560 0.2557 0.2552 0.2550
3845.239059 0.2550 0.2550 0.2550 0.2550 0.2550
3851.890955 0.2544 0.2534 0.2530 0.2530 0.2527
3858.542851 0.2522 0.2520 0.2520 0.2520 0.2520
3865.194747 0.2517 0.2512 0.2507 0.2502 0.2500
3871.846643 0.2500 0.2500 0.2500 0.2500 0.2500
3878.498540 0.2500 0.2500 0.2494 0.2484 0.2480
3885.150436 0.2480 0.2480 0.2480 0.2480 0.2480
3891.802332 0.2477 0.2472 0.2470 0.2470 0.2470
3898.454228 0.2470 0.2467 0.2462 0.2460 0.2460
3905.106124 0.2454 0.2444 0.2440 0.2440 0.2437
3911.758020 0.2432 0.2430 0.2430 0.2427 0.2422
3918.409916 0.2420 0.2420 0.2414 0.2404 0.2400
3925.061812 0.2400 0.2400 0.2400 0.2397 0.2392
3931.713708 0.2390 0.2390 0.2390 0.2390 0.2390
3938.365604 0.2390 0.2387 0.2382 0.2380 0.2380
3945.017501 0.2380 0.2380 0.2380 0.2380 0.2380
3951.669397 0.2380 0.2380 0.2380 0.2380 0.2380
3958.321293 0.2380 0.2380 0.2374 0.2364 0.2360
3964.973189 0.2360 0.2360 0.2360 0.2360 0.2360
3971.625085 0.2360 0.2360 0.2360 0.2360 0.2353
3978.276981 0.2343 0.2340 0.2340 0.2330 0.2315
3984.928877 0.2310 0.2310 0.2307 0.2302 0.2300
3991.580773 0.2300
##END=
