##TITLE=2-Methoxy-4-(2-nitropropenyl)phenol
##JCAMP-DX=4.24
$$ By DXEDIT 1.05 (RS McDonald)
##DATA TYPE=INFRARED SPECTRUM
##CLASS=COBLENTZ III
##ORIGIN=DOW CHEMICAL COMPANY
##OWNER=COPYRIGHT (C) 1988 by COBLENTZ SOCIETY INC.
Collection (C) 2018 copyright by the U.S. Secretary of Commerce
on behalf of the United States of America. All rights reserved.
##DATE=1964/05/27
##NAMES=2-methoxy-4-[(1Z)-2-nitro-1-propenyl]phenol
##MOLFORM=C10 H11 N O4
##SOURCE REFERENCE=COBLENTZ NO. 06708
##$NIST ID=B6006708
##$NIST SOURCE=COBLENTZ
##$NIST IMAGE=cob6708
##SPECTROMETER/DATA SYSTEM=DOW KBr FOREPRISM-GRATING
##INSTRUMENT PARAMETERS=BLAZED AT 3.5, 12.0, 20.0 MICRON AND CHANGED AT 5.0, 7.5, 14.9 MICRON
##STATE=SOLID (SPLIT MULL)
##SAMPLING PROCEDURE=TRANSMISSION
##RESOLUTION=2
##DATA PROCESSING=DIGITIZED BY COBLENTZ SOCIETY (BATCH I) FROM HARD COPY
##XUNITS=1/CM
##YUNITS=TRANSMITTANCE
##XFACTOR=1
##YFACTOR=1
##DELTAX=1
##FIRSTX=3800
##LASTX=387
##FIRSTY=0.6578
##MAXX=3800
##MINX=387
##MAXY=1.0494
##MINY=0.0125
##NPOINTS=3414
##XYDATA=(X++(Y..Y))
3800.000000 0.6578 0.6578 0.6578 0.6578 0.6578
3795.000000 0.6578 0.6580 0.6580 0.6580 0.6580
3790.000000 0.6581 0.6581 0.6582 0.6582 0.6582
3785.000000 0.6582 0.6583 0.6583 0.6584 0.6584
3780.000000 0.6584 0.6584 0.6585 0.6585 0.6586
3775.000000 0.6586 0.6586 0.6586 0.6587 0.6587
3770.000000 0.6588 0.6588 0.6588 0.6588 0.6589
3765.000000 0.6589 0.6590 0.6590 0.6590 0.6590
3760.000000 0.6591 0.6591 0.6592 0.6593 0.6594
3755.000000 0.6595 0.6596 0.6596 0.6597 0.6598
3750.000000 0.6599 0.6600 0.6601 0.6601 0.6603
3745.000000 0.6604 0.6605 0.6605 0.6606 0.6608
3740.000000 0.6610 0.6611 0.6614 0.6615 0.6618
3735.000000 0.6619 0.6621 0.6624 0.6625 0.6628
3730.000000 0.6630 0.6632 0.6634 0.6636 0.6638
3725.000000 0.6640 0.6642 0.6644 0.6646 0.6648
3720.000000 0.6650 0.6651 0.6655 0.6657 0.6660
3715.000000 0.6661 0.6664 0.6665 0.6668 0.6671
3710.000000 0.6674 0.6675 0.6678 0.6680 0.6683
3705.000000 0.6685 0.6688 0.6690 0.6692 0.6694
3700.000000 0.6697 0.6699 0.6701 0.6704 0.6706
3695.000000 0.6708 0.6711 0.6712 0.6715 0.6718
3690.000000 0.6721 0.6724 0.6728 0.6731 0.6734
3685.000000 0.6737 0.6740 0.6743 0.6747 0.6751
3680.000000 0.6756 0.6760 0.6765 0.6768 0.6774
3675.000000 0.6778 0.6783 0.6788 0.6793 0.6798
3670.000000 0.6803 0.6807 0.6811 0.6817 0.6821
3665.000000 0.6825 0.6831 0.6835 0.6839 0.6842
3660.000000 0.6846 0.6849 0.6853 0.6856 0.6860
3655.000000 0.6864 0.6868 0.6871 0.6874 0.6875
3650.000000 0.6878 0.6881 0.6884 0.6887 0.6890
3645.000000 0.6892 0.6895 0.6897 0.6900 0.6901
3640.000000 0.6904 0.6906 0.6908 0.6911 0.6912
3635.000000 0.6915 0.6917 0.6918 0.6921 0.6924
3630.000000 0.6926 0.6930 0.6933 0.6936 0.6939
3625.000000 0.6942 0.6945 0.6948 0.6951 0.6954
3620.000000 0.6958 0.6961 0.6967 0.6971 0.6975
3615.000000 0.6978 0.6983 0.6988 0.6994 0.6999
3610.000000 0.7005 0.7010 0.7015 0.7021 0.7026
3605.000000 0.7032 0.7038 0.7042 0.7046 0.7050
3600.000000 0.7054 0.7058 0.7061 0.7065 0.7069
3595.000000 0.7072 0.7076 0.7080 0.7083 0.7086
3590.000000 0.7089 0.7091 0.7094 0.7096 0.7098
3585.000000 0.7099 0.7101 0.7101 0.7103 0.7104
3580.000000 0.7105 0.7105 0.7106 0.7108 0.7110
3575.000000 0.7115 0.7121 0.7125 0.7132 0.7137
3570.000000 0.7142 0.7150 0.7158 0.7165 0.7174
3565.000000 0.7182 0.7191 0.7199 0.7208 0.7218
3560.000000 0.7228 0.7238 0.7248 0.7257 0.7267
3555.000000 0.7276 0.7288 0.7299 0.7310 0.7319
3550.000000 0.7331 0.7341 0.7351 0.7361 0.7371
3545.000000 0.7382 0.7392 0.7401 0.7412 0.7418
3540.000000 0.7425 0.7432 0.7438 0.7440 0.7441
3535.000000 0.7442 0.7442 0.7426 0.7412 0.7349
3530.000000 0.7286 0.6648 0.6010 0.5383 0.4756
3525.000000 0.4128 0.3500 0.2872 0.2245 0.1617
3520.000000 0.0263 0.0618 0.0248 0.0280 0.0312
3515.000000 0.0509 0.0707 0.0949 0.1191 0.1433
3510.000000 0.1675 0.1917 0.2160 0.2402 0.2644
3505.000000 0.2885 0.3129 0.3371 0.3612 0.3853
3500.000000 0.4094 0.4232 0.4370 0.4444 0.4518
3495.000000 0.4589 0.4660 0.4728 0.4796 0.4862
3490.000000 0.4930 0.4998 0.5067 0.5135 0.5204
3485.000000 0.5250 0.5297 0.5333 0.5369 0.5404
3480.000000 0.5440 0.5471 0.5503 0.5532 0.5560
3475.000000 0.5590 0.5619 0.5647 0.5676 0.5705
3470.000000 0.5734 0.5759 0.5785 0.5807 0.5829
3465.000000 0.5851 0.5873 0.5894 0.5916 0.5938
3460.000000 0.5960 0.5981 0.6003 0.6025 0.6047
3455.000000 0.6064 0.6081 0.6097 0.6114 0.6131
3450.000000 0.6148 0.6165 0.6182 0.6198 0.6215
3445.000000 0.6227 0.6239 0.6250 0.6260 0.6272
3440.000000 0.6283 0.6294 0.6306 0.6317 0.6328
3435.000000 0.6339 0.6350 0.6360 0.6372 0.6383
3430.000000 0.6394 0.6403 0.6411 0.6421 0.6430
3425.000000 0.6439 0.6448 0.6457 0.6465 0.6475
3420.000000 0.6484 0.6493 0.6501 0.6511 0.6519
3415.000000 0.6528 0.6538 0.6547 0.6556 0.6562
3410.000000 0.6571 0.6578 0.6586 0.6593 0.6600
3405.000000 0.6607 0.6615 0.6621 0.6630 0.6637
3400.000000 0.6644 0.6651 0.6658 0.6665 0.6674
3395.000000 0.6681 0.6688 0.6695 0.6703 0.6710
3390.000000 0.6718 0.6725 0.6732 0.6737 0.6743
3385.000000 0.6748 0.6754 0.6758 0.6764 0.6768
3380.000000 0.6774 0.6778 0.6785 0.6790 0.6795
3375.000000 0.6800 0.6806 0.6811 0.6815 0.6821
3370.000000 0.6825 0.6831 0.6837 0.6842 0.6847
3365.000000 0.6851 0.6857 0.6861 0.6868 0.6872
3360.000000 0.6878 0.6882 0.6887 0.6891 0.6895
3355.000000 0.6899 0.6903 0.6907 0.6911 0.6915
3350.000000 0.6918 0.6922 0.6926 0.6931 0.6935
3345.000000 0.6939 0.6943 0.6947 0.6951 0.6956
3340.000000 0.6960 0.6964 0.6968 0.6971 0.6975
3335.000000 0.6980 0.6984 0.6987 0.6991 0.6993
3330.000000 0.6996 0.6998 0.7001 0.7004 0.7007
3325.000000 0.7008 0.7011 0.7014 0.7017 0.7018
3320.000000 0.7021 0.7024 0.7026 0.7030 0.7033
3315.000000 0.7035 0.7038 0.7040 0.7043 0.7045
3310.000000 0.7048 0.7050 0.7053 0.7056 0.7058
3305.000000 0.7061 0.7064 0.7065 0.7068 0.7071
3300.000000 0.7074 0.7075 0.7078 0.7081 0.7083
3295.000000 0.7085 0.7087 0.7089 0.7091 0.7093
3290.000000 0.7095 0.7097 0.7099 0.7101 0.7103
3285.000000 0.7105 0.7107 0.7108 0.7111 0.7112
3280.000000 0.7115 0.7117 0.7118 0.7121 0.7122
3275.000000 0.7125 0.7126 0.7128 0.7131 0.7133
3270.000000 0.7135 0.7137 0.7139 0.7140 0.7142
3265.000000 0.7143 0.7145 0.7146 0.7148 0.7149
3260.000000 0.7151 0.7153 0.7155 0.7156 0.7158
3255.000000 0.7158 0.7161 0.7161 0.7164 0.7165
3250.000000 0.7168 0.7168 0.7171 0.7171 0.7174
3245.000000 0.7175 0.7176 0.7178 0.7180 0.7181
3240.000000 0.7182 0.7183 0.7185 0.7186 0.7188
3235.000000 0.7189 0.7191 0.7192 0.7193 0.7194
3230.000000 0.7196 0.7197 0.7199 0.7200 0.7201
3225.000000 0.7203 0.7205 0.7206 0.7208 0.7210
3220.000000 0.7211 0.7214 0.7215 0.7217 0.7218
3215.000000 0.7221 0.7222 0.7224 0.7225 0.7228
3210.000000 0.7230 0.7232 0.7234 0.7234 0.7234
3205.000000 0.7232 0.7230 0.7225 0.7222 0.7219
3200.000000 0.7217 0.7212 0.7208 0.7203 0.7198
3195.000000 0.7193 0.7188 0.7182 0.7176 0.7172
3190.000000 0.7171 0.7171 0.7175 0.7180 0.7184
3185.000000 0.7188 0.7192 0.7195 0.7199 0.7203
3180.000000 0.7208 0.7211 0.7217 0.7221 0.7225
3175.000000 0.7230 0.7235 0.7239 0.7244 0.7249
3170.000000 0.7254 0.7258 0.7262 0.7267 0.7271
3165.000000 0.7275 0.7281 0.7285 0.7290 0.7294
3160.000000 0.7298 0.7301 0.7305 0.7308 0.7312
3155.000000 0.7315 0.7319 0.7324 0.7328 0.7330
3150.000000 0.7333 0.7335 0.7338 0.7340 0.7343
3145.000000 0.7345 0.7348 0.7350 0.7351 0.7354
3140.000000 0.7357 0.7358 0.7361 0.7364 0.7367
3135.000000 0.7368 0.7369 0.7371 0.7371 0.7371
3130.000000 0.7372 0.7374 0.7375 0.7375 0.7376
3125.000000 0.7378 0.7378 0.7381 0.7383 0.7385
3120.000000 0.7387 0.7389 0.7391 0.7393 0.7395
3115.000000 0.7397 0.7399 0.7403 0.7408 0.7411
3110.000000 0.7417 0.7421 0.7425 0.7430 0.7435
3105.000000 0.7439 0.7443 0.7446 0.7450 0.7453
3100.000000 0.7457 0.7461 0.7465 0.7468 0.7471
3095.000000 0.7472 0.7475 0.7478 0.7481 0.7484
3090.000000 0.7487 0.7489 0.7492 0.7494 0.7496
3085.000000 0.7496 0.7496 0.7496 0.7496 0.7495
3080.000000 0.7495 0.7495 0.7494 0.7493 0.7492
3075.000000 0.7486 0.7481 0.7465 0.7451 0.7432
3070.000000 0.7412 0.7401 0.7392 0.7391 0.7391
3065.000000 0.7391 0.7391 0.7391 0.7391 0.7387
3060.000000 0.7383 0.7369 0.7357 0.7280 0.7204
3055.000000 0.7168 0.7078 0.7134 0.7136 0.7158
3050.000000 0.7182 0.7225 0.7271 0.7300 0.7328
3045.000000 0.7350 0.7371 0.7388 0.7406 0.7421
3040.000000 0.7436 0.7445 0.7454 0.7458 0.7465
3035.000000 0.7467 0.7496 0.7468 0.7469 0.7465
3030.000000 0.7461 0.7442 0.6693 0.7067 0.6711
3025.000000 0.6717 0.6724 0.6775 0.6825 0.6878
3020.000000 0.6931 0.6980 0.7028 0.7081 0.7134
3015.000000 0.7191 0.7248 0.7285 0.7321 0.7338
3010.000000 0.7355 0.7371 0.7389 0.7403 0.7418
3005.000000 0.7428 0.7440 0.7446 0.7453 0.7457
3000.000000 0.7461 0.7462 0.7485 0.7465 0.7467
2995.000000 0.7467 0.7465 0.7465 0.7464 0.7458
2990.000000 0.7453 0.7255 0.7058 0.6898 0.6739
2985.000000 0.6733 0.6714 0.6776 0.6828 0.6901
2980.000000 0.6976 0.7051 0.7125 0.7188 0.7251
2975.000000 0.7268 0.7286 0.7301 0.7318 0.7333
2970.000000 0.7348 0.7358 0.7371 0.7378 0.7386
2965.000000 0.7390 0.7394 0.7394 0.7395 0.7401
2960.000000 0.7403 0.7399 0.7396 0.7388 0.7381
2955.000000 0.7356 0.7331 0.7284 0.7237 0.7178
2950.000000 0.7121 0.7045 0.6968 0.6958 0.6941
2945.000000 0.6942 0.6942 0.6951 0.6960 0.6986
2940.000000 0.7011 0.7041 0.7069 0.7094 0.7118
2935.000000 0.7143 0.7167 0.7188 0.7210 0.7228
2930.000000 0.7246 0.7262 0.7281 0.7297 0.7312
2925.000000 0.7328 0.7346 0.7351 0.7357 0.7358
2920.000000 0.7360 0.7361 0.7362 0.7364 0.7365
2915.000000 0.7367 0.7368 0.7371 0.7372 0.7375
2910.000000 0.7378 0.7381 0.7385 0.7389 0.7393
2905.000000 0.7397 0.7401 0.7406 0.7411 0.7417
2900.000000 0.7422 0.7430 0.7438 0.7445 0.7453
2895.000000 0.7461 0.7471 0.7480 0.7489 0.7498
2890.000000 0.7507 0.7515 0.7522 0.7528 0.7533
2885.000000 0.7533 0.7533 0.7533 0.7533 0.7532
2880.000000 0.7531 0.7531 0.7531 0.7531 0.7534
2875.000000 0.7538 0.7543 0.7549 0.7556 0.7561
2870.000000 0.7568 0.7575 0.7583 0.7591 0.7600
2865.000000 0.7608 0.7618 0.7625 0.7633 0.7636
2860.000000 0.7639 0.7642 0.7645 0.7648 0.7651
2855.000000 0.7654 0.7658 0.7658 0.7658 0.7658
2850.000000 0.7660 0.7660 0.7660 0.7658 0.7657
2845.000000 0.7654 0.7651 0.7647 0.7647 0.7648
2840.000000 0.7651 0.7665 0.7680 0.7694 0.7708
2835.000000 0.7722 0.7737 0.7751 0.7765 0.7775
2830.000000 0.7785 0.7794 0.7804 0.7814 0.7824
2825.000000 0.7833 0.7842 0.7849 0.7857 0.7865
2820.000000 0.7872 0.7880 0.7888 0.7895 0.7903
2815.000000 0.7906 0.7908 0.7911 0.7915 0.7918
2810.000000 0.7921 0.7925 0.7928 0.7930 0.7933
2805.000000 0.7935 0.7938 0.7940 0.7940 0.7941
2800.000000 0.7941 0.7940 0.7939 0.7938 0.7938
2795.000000 0.7935 0.7933 0.7928 0.7925 0.7908
2790.000000 0.7893 0.7883 0.7874 0.7867 0.7860
2785.000000 0.7853 0.7846 0.7839 0.7833 0.7828
2780.000000 0.7824 0.7818 0.7815 0.7811 0.7808
2775.000000 0.7806 0.7804 0.7801 0.7799 0.7798
2770.000000 0.7798 0.7797 0.7796 0.7795 0.7795
2765.000000 0.7795 0.7795 0.7793 0.7792 0.7792
2760.000000 0.7792 0.7792 0.7794 0.7801 0.7808
2755.000000 0.7817 0.7825 0.7837 0.7848 0.7858
2750.000000 0.7869 0.7881 0.7893 0.7904 0.7915
2745.000000 0.7926 0.7939 0.7948 0.7957 0.7964
2740.000000 0.7971 0.7978 0.7986 0.7993 0.8000
2735.000000 0.8007 0.8015 0.8021 0.8026 0.8033
2730.000000 0.8039 0.8045 0.8051 0.8057 0.8062
2725.000000 0.8068 0.8074 0.8080 0.8086 0.8092
2720.000000 0.8098 0.8103 0.8108 0.8114 0.8119
2715.000000 0.8125 0.8131 0.8136 0.8142 0.8147
2710.000000 0.8153 0.8158 0.8162 0.8167 0.8171
2705.000000 0.8174 0.8178 0.8182 0.8186 0.8190
2700.000000 0.8194 0.8197 0.8201 0.8202 0.8204
2695.000000 0.8206 0.8208 0.8209 0.8211 0.8212
2690.000000 0.8214 0.8215 0.8217 0.8218 0.8221
2685.000000 0.8221 0.8221 0.8221 0.8221 0.8221
2680.000000 0.8223 0.8223 0.8223 0.8223 0.8224
2675.000000 0.8224 0.8225 0.8225 0.8225 0.8225
2670.000000 0.8227 0.8227 0.8228 0.8228 0.8228
2665.000000 0.8230 0.8231 0.8231 0.8232 0.8232
2660.000000 0.8233 0.8233 0.8234 0.8235 0.8236
2655.000000 0.8238 0.8240 0.8241 0.8243 0.8245
2650.000000 0.8247 0.8249 0.8251 0.8253 0.8255
2645.000000 0.8257 0.8259 0.8261 0.8263 0.8266
2640.000000 0.8268 0.8271 0.8275 0.8278 0.8281
2635.000000 0.8283 0.8286 0.8289 0.8292 0.8295
2630.000000 0.8298 0.8301 0.8304 0.8307 0.8311
2625.000000 0.8314 0.8317 0.8320 0.8324 0.8327
2620.000000 0.8330 0.8333 0.8337 0.8340 0.8344
2615.000000 0.8347 0.8350 0.8353 0.8357 0.8360
2610.000000 0.8363 0.8366 0.8370 0.8373 0.8375
2605.000000 0.8378 0.8383 0.8386 0.8389 0.8392
2600.000000 0.8395 0.8398 0.8402 0.8405 0.8408
2595.000000 0.8411 0.8414 0.8416 0.8418 0.8421
2590.000000 0.8423 0.8425 0.8428 0.8430 0.8433
2585.000000 0.8435 0.8437 0.8439 0.8442 0.8444
2580.000000 0.8447 0.8449 0.8451 0.8452 0.8454
2575.000000 0.8455 0.8457 0.8458 0.8460 0.8461
2570.000000 0.8463 0.8464 0.8465 0.8466 0.8468
2565.000000 0.8468 0.8470 0.8470 0.8470 0.8470
2560.000000 0.8470 0.8470 0.8470 0.8468 0.8467
2555.000000 0.8462 0.8458 0.8450 0.8442 0.8432
2550.000000 0.8421 0.8411 0.8401 0.8390 0.8380
2545.000000 0.8368 0.8359 0.8352 0.8346 0.8348
2540.000000 0.8350 0.8351 0.8353 0.8355 0.8357
2535.000000 0.8358 0.8360 0.8364 0.8368 0.8373
2530.000000 0.8378 0.8382 0.8387 0.8391 0.8396
2525.000000 0.8400 0.8405 0.8409 0.8414 0.8418
2520.000000 0.8423 0.8427 0.8431 0.8434 0.8438
2515.000000 0.8441 0.8445 0.8449 0.8453 0.8456
2510.000000 0.8460 0.8463 0.8467 0.8470 0.8474
2505.000000 0.8475 0.8478 0.8482 0.8485 0.8488
2500.000000 0.8491 0.8494 0.8497 0.8500 0.8503
2495.000000 0.8506 0.8509 0.8512 0.8515 0.8517
2490.000000 0.8518 0.8521 0.8523 0.8525 0.8527
2485.000000 0.8528 0.8530 0.8532 0.8534 0.8535
2480.000000 0.8537 0.8539 0.8541 0.8542 0.8544
2475.000000 0.8545 0.8547 0.8548 0.8550 0.8551
2470.000000 0.8552 0.8553 0.8555 0.8556 0.8557
2465.000000 0.8557 0.8557 0.8557 0.8557 0.8556
2460.000000 0.8556 0.8556 0.8557 0.8557 0.8557
2455.000000 0.8557 0.8558 0.8558 0.8559 0.8560
2450.000000 0.8561 0.8563 0.8566 0.8568 0.8571
2445.000000 0.8574 0.8577 0.8578 0.8582 0.8584
2440.000000 0.8587 0.8591 0.8595 0.8599 0.8604
2435.000000 0.8608 0.8612 0.8615 0.8618 0.8621
2430.000000 0.8625 0.8628 0.8631 0.8632 0.8633
2425.000000 0.8633 0.8634 0.8634 0.8635 0.8635
2420.000000 0.8635 0.8634 0.8634 0.8633 0.8633
2415.000000 0.8632 0.8631 0.8630 0.8630 0.8628
2410.000000 0.8627 0.8625 0.8625 0.8624 0.8623
2405.000000 0.8621 0.8620 0.8618 0.8616 0.8613
2400.000000 0.8611 0.8609 0.8608 0.8606 0.8604
2395.000000 0.8602 0.8600 0.8598 0.8597 0.8611
2390.000000 0.8625 0.8640 0.8655 0.8668 0.8683
2385.000000 0.8688 0.8693 0.8690 0.8687 0.8684
2380.000000 0.8681 0.8678 0.8675 0.8671 0.8668
2375.000000 0.8666 0.8663 0.8660 0.8658 0.8655
2370.000000 0.8652 0.8649 0.8647 0.8645 0.8643
2365.000000 0.8642 0.8642 0.8641 0.8641 0.8640
2360.000000 0.8640 0.8640 0.8640 0.8639 0.8639
2355.000000 0.8639 0.8640 0.8641 0.8642 0.8643
2350.000000 0.8644 0.8645 0.8646 0.8647 0.8649
2345.000000 0.8651 0.8653 0.8657 0.8661 0.8665
2340.000000 0.8668 0.8673 0.8677 0.8681 0.8686
2335.000000 0.8690 0.8695 0.8700 0.8705 0.8710
2330.000000 0.8715 0.8718 0.8721 0.8725 0.8728
2325.000000 0.8728 0.8731 0.8727 0.8724 0.8718
2320.000000 0.8715 0.8710 0.8705 0.8701 0.8697
2315.000000 0.8698 0.8699 0.8699 0.8700 0.8702
2310.000000 0.8705 0.8707 0.8710 0.8713 0.8716
2305.000000 0.8718 0.8721 0.8724 0.8727 0.8730
2300.000000 0.8733 0.8735 0.8738 0.8741 0.8744
2295.000000 0.8747 0.8750 0.8753 0.8756 0.8758
2290.000000 0.8761 0.8764 0.8767 0.8770 0.8773
2285.000000 0.8775 0.8780 0.8784 0.8788 0.8791
2280.000000 0.8795 0.8798 0.8802 0.8806 0.8810
2275.000000 0.8813 0.8817 0.8821 0.8825 0.8827
2270.000000 0.8830 0.8832 0.8835 0.8837 0.8840
2265.000000 0.8842 0.8845 0.8847 0.8850 0.8852
2260.000000 0.8855 0.8857 0.8860 0.8862 0.8864
2255.000000 0.8866 0.8868 0.8870 0.8871 0.8874
2250.000000 0.8877 0.8878 0.8881 0.8883 0.8885
2245.000000 0.8887 0.8889 0.8891 0.8893 0.8895
2240.000000 0.8897 0.8899 0.8901 0.8903 0.8905
2235.000000 0.8907 0.8909 0.8911 0.8913 0.8915
2230.000000 0.8917 0.8918 0.8921 0.8924 0.8925
2225.000000 0.8928 0.8930 0.8932 0.8934 0.8936
2220.000000 0.8938 0.8940 0.8942 0.8944 0.8947
2215.000000 0.8949 0.8951 0.8953 0.8955 0.8957
2210.000000 0.8959 0.8961 0.8963 0.8965 0.8967
2205.000000 0.8968 0.8971 0.8974 0.8975 0.8978
2200.000000 0.8980 0.8983 0.8986 0.8988 0.8991
2195.000000 0.8994 0.8997 0.8999 0.9002 0.9005
2190.000000 0.9008 0.9010 0.9013 0.9016 0.9018
2185.000000 0.9021 0.9025 0.9027 0.9030 0.9033
2180.000000 0.9036 0.9038 0.9041 0.9044 0.9047
2175.000000 0.9050 0.9053 0.9056 0.9059 0.9062
2170.000000 0.9066 0.9068 0.9073 0.9075 0.9080
2165.000000 0.9083 0.9087 0.9090 0.9094 0.9097
2160.000000 0.9101 0.9104 0.9108 0.9111 0.9115
2155.000000 0.9118 0.9121 0.9124 0.9128 0.9132
2150.000000 0.9136 0.9139 0.9143 0.9146 0.9150
2145.000000 0.9154 0.9158 0.9161 0.9165 0.9168
2140.000000 0.9173 0.9175 0.9180 0.9183 0.9187
2135.000000 0.9190 0.9193 0.9196 0.9199 0.9202
2130.000000 0.9206 0.9209 0.9212 0.9213 0.9215
2125.000000 0.9216 0.9218 0.9218 0.9221 0.9221
2120.000000 0.9224 0.9225 0.9227 0.9228 0.9230
2115.000000 0.9232 0.9234 0.9235 0.9237 0.9238
2110.000000 0.9240 0.9242 0.9244 0.9245 0.9247
2105.000000 0.9248 0.9250 0.9252 0.9254 0.9255
2100.000000 0.9257 0.9258 0.9260 0.9262 0.9264
2095.000000 0.9266 0.9268 0.9271 0.9274 0.9275
2090.000000 0.9278 0.9281 0.9284 0.9286 0.9289
2085.000000 0.9291 0.9294 0.9296 0.9298 0.9300
2080.000000 0.9302 0.9304 0.9307 0.9309 0.9311
2075.000000 0.9313 0.9315 0.9318 0.9321 0.9323
2070.000000 0.9325 0.9328 0.9331 0.9333 0.9336
2065.000000 0.9339 0.9342 0.9344 0.9346 0.9347
2060.000000 0.9349 0.9351 0.9353 0.9355 0.9357
2055.000000 0.9358 0.9360 0.9362 0.9364 0.9365
2050.000000 0.9367 0.9368 0.9371 0.9374 0.9375
2045.000000 0.9378 0.9380 0.9382 0.9384 0.9386
2040.000000 0.9388 0.9390 0.9392 0.9394 0.9396
2035.000000 0.9398 0.9400 0.9402 0.9405 0.9408
2030.000000 0.9412 0.9415 0.9418 0.9421 0.9424
2025.000000 0.9427 0.9431 0.9434 0.9437 0.9441
2020.000000 0.9445 0.9448 0.9452 0.9455 0.9459
2015.000000 0.9460 0.9462 0.9464 0.9466 0.9467
2010.000000 0.9468 0.9471 0.9473 0.9473 0.9474
2005.000000 0.9473 0.9471 0.9463 0.9455 0.9441
2000.000000 0.9427 0.9414 0.9404 0.9398 0.9391
1995.000000 0.9385 0.9378 0.9374 0.9368 0.9365
1990.000000 0.9364 0.9363 0.9361 0.9360 0.9359
1985.000000 0.9359 0.9358 0.9357 0.9357 0.9357
1980.000000 0.9359 0.9361 0.9363 0.9366 0.9370
1975.000000 0.9375 0.9381 0.9387 0.9395 0.9404
1970.000000 0.9412 0.9420 0.9425 0.9431 0.9437
1965.000000 0.9443 0.9448 0.9452 0.9455 0.9459
1960.000000 0.9462 0.9466 0.9468 0.9471 0.9474
1955.000000 0.9475 0.9478 0.9480 0.9482 0.9484
1950.000000 0.9486 0.9488 0.9490 0.9492 0.9494
1945.000000 0.9495 0.9497 0.9499 0.9501 0.9502
1940.000000 0.9504 0.9506 0.9508 0.9510 0.9513
1935.000000 0.9516 0.9518 0.9521 0.9524 0.9527
1930.000000 0.9530 0.9532 0.9535 0.9539 0.9542
1925.000000 0.9546 0.9549 0.9553 0.9556 0.9560
1920.000000 0.9563 0.9567 0.9571 0.9574 0.9578
1915.000000 0.9582 0.9587 0.9591 0.9595 0.9600
1910.000000 0.9604 0.9608 0.9612 0.9617 0.9621
1905.000000 0.9625 0.9628 0.9633 0.9637 0.9641
1900.000000 0.9644 0.9647 0.9650 0.9654 0.9657
1895.000000 0.9660 0.9663 0.9666 0.9668 0.9671
1890.000000 0.9675 0.9678 0.9680 0.9681 0.9683
1885.000000 0.9685 0.9686 0.9686 0.9687 0.9680
1880.000000 0.9674 0.9665 0.9655 0.9646 0.9636
1875.000000 0.9628 0.9621 0.9613 0.9606 0.9607
1870.000000 0.9608 0.9610 0.9612 0.9614 0.9616
1865.000000 0.9618 0.9620 0.9621 0.9624 0.9624
1860.000000 0.9624 0.9624 0.9624 0.9623 0.9623
1855.000000 0.9621 0.9621 0.9620 0.9618 0.9608
1850.000000 0.9597 0.9585 0.9574 0.9562 0.9549
1845.000000 0.9536 0.9521 0.9508 0.9499 0.9490
1840.000000 0.9490 0.9502 0.9514 0.9525 0.9537
1835.000000 0.9551 0.9565 0.9580 0.9594 0.9608
1830.000000 0.9621 0.9636 0.9650 0.9663 0.9675
1825.000000 0.9689 0.9702 0.9714 0.9721 0.9728
1820.000000 0.9736 0.9743 0.9750 0.9757 0.9763
1815.000000 0.9768 0.9773 0.9778 0.9784 0.9789
1810.000000 0.9794 0.9799 0.9804 0.9809 0.9814
1805.000000 0.9818 0.9824 0.9828 0.9834 0.9840
1800.000000 0.9845 0.9850 0.9854 0.9856 0.9858
1795.000000 0.9860 0.9863 0.9865 0.9867 0.9870
1790.000000 0.9871 0.9871 0.9871 0.9871 0.9871
1785.000000 0.9865 0.9858 0.9850 0.9843 0.9833
1780.000000 0.9823 0.9814 0.9805 0.9797 0.9790
1775.000000 0.9785 0.9780 0.9780 0.9780 0.9786
1770.000000 0.9792 0.9798 0.9804 0.9813 0.9823
1765.000000 0.9833 0.9843 0.9854 0.9864 0.9875
1760.000000 0.9886 0.9897 0.9908 0.9918 0.9928
1755.000000 0.9940 0.9951 0.9961 0.9970 0.9973
1750.000000 0.9975 0.9978 0.9982 0.9985 0.9988
1745.000000 0.9992 0.9995 0.9997 0.9998 0.9999
1740.000000 1.0000 1.0001 1.0002 1.0003 1.0004
1735.000000 1.0006 1.0007 1.0008 1.0009 1.0010
1730.000000 1.0011 1.0013 1.0014 1.0015 1.0016
1725.000000 1.0017 1.0018 1.0020 1.0021 1.0023
1720.000000 1.0024 1.0025 1.0028 1.0030 1.0031
1715.000000 1.0033 1.0035 1.0037 1.0038 1.0040
1710.000000 1.0041 1.0042 1.0044 1.0045 1.0046
1705.000000 1.0047 1.0048 1.0049 1.0049 1.0050
1700.000000 1.0050 1.0047 1.0043 1.0028 1.0004
1695.000000 0.9978 0.9951 0.9921 0.9893 0.9864
1690.000000 0.9834 0.9804 0.9775 0.9756 0.9760
1685.000000 0.9770 0.9780 0.9790 0.9802 0.9813
1680.000000 0.9824 0.9836 0.9845 0.9853 0.9861
1675.000000 0.9868 0.9875 0.9882 0.9882 0.9883
1670.000000 0.9884 0.9884 0.9884 0.9883 0.9881
1665.000000 0.9878 0.9877 0.9871 0.9864 0.9856
1660.000000 0.9839 0.9821 0.9799 0.9766 0.9732
1655.000000 0.9699 0.9652 0.9588 0.9524 0.9437
1650.000000 0.9347 0.9253 0.8965 0.8739 0.7283
1645.000000 0.5132 0.5133 0.5136 0.5248 0.5721
1640.000000 0.6194 0.6418 0.6431 0.6449 0.6478
1635.000000 0.6558 0.6868 0.7217 0.7567 0.7915
1630.000000 0.8266 0.8616 0.8757 0.8859 0.8984
1625.000000 0.9047 0.9118 0.9188 0.9231 0.9289
1620.000000 0.9289 0.9289 0.9281 0.9265 0.9236
1615.000000 0.9206 0.9158 0.9109 0.9046 0.8943
1610.000000 0.8786 0.8566 0.8220 0.7511 0.6726
1605.000000 0.5943 0.5446 0.5454 0.5875 0.6382
1600.000000 0.6890 0.7256 0.7264 0.7250 0.7241
1595.000000 0.6605 0.5877 0.5148 0.4420 0.3692
1590.000000 0.2963 0.2234 0.2209 0.2249 0.2754
1585.000000 0.3258 0.3762 0.4267 0.4772 0.5277
1580.000000 0.5781 0.6286 0.6781 0.6968 0.7133
1575.000000 0.7376 0.7695 0.7815 0.7919 0.8068
1570.000000 0.8204 0.8389 0.8650 0.8774 0.8883
1565.000000 0.8953 0.9003 0.9045 0.9077 0.9109
1560.000000 0.9133 0.9157 0.9178 0.9196 0.9215
1555.000000 0.9227 0.9239 0.9286 0.9261 0.9270
1550.000000 0.9267 0.9249 0.9231 0.9213 0.9180
1545.000000 0.9130 0.9080 0.9027 0.8974 0.8920
1540.000000 0.8870 0.8820 0.8771 0.8728 0.8685
1535.000000 0.8641 0.8497 0.8346 0.8168 0.7921
1530.000000 0.6703 0.6003 0.5303 0.4603 0.3903
1525.000000 0.3203 0.2503 0.1802 0.1102 0.0918
1520.000000 0.1228 0.1728 0.2228 0.2728 0.3228
1515.000000 0.3727 0.4227 0.4635 0.4633 0.4593
1510.000000 0.4047 0.3500 0.2954 0.2407 0.1861
1505.000000 0.1314 0.0768 0.0660 0.0615 0.0708
1500.000000 0.1155 0.1601 0.2046 0.2493 0.2939
1495.000000 0.3384 0.3832 0.4278 0.4724 0.5170
1490.000000 0.5599 0.6034 0.6218 0.6571 0.6728
1485.000000 0.6881 0.7033 0.7185 0.7337 0.7489
1480.000000 0.7640 0.7792 0.7944 0.8096 0.8145
1475.000000 0.8150 0.8183 0.8187 0.8158 0.8126
1470.000000 0.8062 0.7951 0.7587 0.7269 0.6657
1465.000000 0.5478 0.4300 0.3262 0.3268 0.3716
1460.000000 0.4162 0.4609 0.5055 0.5502 0.5587
1455.000000 0.5603 0.5618 0.5628 0.5790 0.6054
1450.000000 0.6319 0.6734 0.6733 0.6738 0.6583
1445.000000 0.6139 0.5695 0.5251 0.5218 0.5229
1440.000000 0.5810 0.6391 0.6971 0.7228 0.7254
1435.000000 0.7275 0.7275 0.7194 0.6657 0.6121
1430.000000 0.5584 0.5280 0.5294 0.5297 0.5491
1425.000000 0.5685 0.5878 0.6072 0.6265 0.6458
1420.000000 0.6653 0.6846 0.6948 0.7105 0.7265
1415.000000 0.7424 0.7584 0.7743 0.7903 0.8062
1410.000000 0.8221 0.8382 0.8541 0.8701 0.8807
1405.000000 0.8842 0.8866 0.8895 0.8894 0.8885
1400.000000 0.8871 0.8855 0.8817 0.8780 0.8700
1395.000000 0.8582 0.8405 0.8195 0.7968 0.7292
1390.000000 0.6826 0.6635 0.6525 0.6453 0.6398
1385.000000 0.6353 0.6310 0.6275 0.6248 0.6223
1380.000000 0.6198 0.6179 0.6180 0.6208 0.6279
1375.000000 0.6351 0.6587 0.6858 0.7128 0.7401
1370.000000 0.7671 0.7943 0.8214 0.8486 0.8718
1365.000000 0.8767 0.8811 0.8818 0.8818 0.8781
1360.000000 0.8273 0.6991 0.7015 0.7028 0.7236
1355.000000 0.7444 0.7651 0.7858 0.8065 0.8274
1350.000000 0.8482 0.8605 0.8604 0.8615 0.8575
1345.000000 0.8553 0.8537 0.8525 0.8518 0.8516
1340.000000 0.8510 0.8450 0.8391 0.8331 0.8271
1335.000000 0.8211 0.8151 0.8092 0.8032 0.7971
1330.000000 0.7908 0.7841 0.7707 0.7507 0.7253
1325.000000 0.6872 0.6642 0.6515 0.5938 0.5269
1320.000000 0.4600 0.3930 0.3260 0.2592 0.1691
1315.000000 0.1662 0.1879 0.2139 0.2398 0.2649
1310.000000 0.2674 0.2377 0.2002 0.1627 0.1269
1305.000000 0.1210 0.1181 0.1159 0.1142 0.1128
1300.000000 0.1071 0.0969 0.0771 0.0597 0.0627
1295.000000 0.0618 0.0616 0.0639 0.0804 0.1016
1290.000000 0.1229 0.1551 0.1521 0.1521 0.1512
1285.000000 0.1442 0.1111 0.0902 0.0692 0.0482
1280.000000 0.0273 0.0187 0.0167 0.0154 0.0125
1275.000000 0.0141 0.0159 0.0189 0.0347 0.0475
1270.000000 0.0676 0.1005 0.2299 0.2653 0.3006
1265.000000 0.3359 0.3714 0.4068 0.4421 0.4775
1260.000000 0.5042 0.5436 0.5690 0.5888 0.6026
1255.000000 0.6112 0.6203 0.6299 0.6385 0.6480
1250.000000 0.6565 0.6553 0.6574 0.6349 0.6116
1245.000000 0.5884 0.5652 0.5550 0.5527 0.5844
1240.000000 0.6065 0.6286 0.6482 0.6606 0.6738
1235.000000 0.6851 0.6925 0.6972 0.7001 0.7017
1230.000000 0.6995 0.7035 0.7037 0.7025 0.7005
1225.000000 0.6968 0.6907 0.6798 0.6641 0.6444
1220.000000 0.6283 0.6221 0.6169 0.6128 0.6087
1215.000000 0.6044 0.6000 0.5956 0.5887 0.5815
1210.000000 0.5709 0.5601 0.5496 0.5383 0.5269
1205.000000 0.5120 0.4875 0.4530 0.4097 0.3001
1200.000000 0.2289 0.1578 0.1426 0.1454 0.1515
1195.000000 0.1576 0.1636 0.1642 0.1546 0.1389
1190.000000 0.1230 0.1094 0.1065 0.1014 0.0950
1185.000000 0.0832 0.0762 0.0749 0.0739 0.1064
1180.000000 0.1281 0.1506 0.1794 0.2082 0.2370
1175.000000 0.2658 0.2946 0.3234 0.3522 0.3809
1170.000000 0.4099 0.4133 0.4141 0.3868 0.3404
1165.000000 0.2940 0.2476 0.2284 0.2247 0.2797
1160.000000 0.3364 0.3932 0.4501 0.4924 0.5065
1155.000000 0.5292 0.5601 0.5815 0.6006 0.6193
1150.000000 0.6391 0.6571 0.6664 0.6714 0.6765
1145.000000 0.6831 0.6896 0.6975 0.7055 0.7171
1140.000000 0.7325 0.7437 0.7428 0.7428 0.7428
1135.000000 0.7408 0.7378 0.6294 0.4828 0.3362
1130.000000 0.1990 0.1978 0.2256 0.2803 0.3350
1125.000000 0.3896 0.4443 0.4990 0.5537 0.6084
1120.000000 0.6630 0.7171 0.7310 0.7497 0.7633
1115.000000 0.7746 0.7838 0.7914 0.7961 0.7981
1110.000000 0.7978 0.7996 0.7971 0.7781 0.7497
1105.000000 0.7212 0.6928 0.6645 0.6360 0.6327
1100.000000 0.6294 0.6346 0.6422 0.6528 0.6658
1095.000000 0.6824 0.6964 0.7103 0.7243 0.7383
1090.000000 0.7522 0.7662 0.7803 0.7943 0.8083
1085.000000 0.8194 0.8278 0.8377 0.8465 0.8543
1080.000000 0.8618 0.8667 0.8712 0.8758 0.8796
1075.000000 0.8825 0.8850 0.8867 0.8884 0.8900
1070.000000 0.8913 0.8925 0.8939 0.8952 0.8965
1065.000000 0.8978 0.8991 0.9003 0.9014 0.9025
1060.000000 0.9038 0.9050 0.9061 0.9071 0.9082
1055.000000 0.9092 0.9101 0.9110 0.9118 0.9128
1050.000000 0.9134 0.9140 0.9147 0.9152 0.9152
1045.000000 0.9152 0.9158 0.9138 0.9125 0.9109
1040.000000 0.9093 0.9054 0.9012 0.8914 0.8754
1035.000000 0.8561 0.8368 0.8048 0.6367 0.5252
1030.000000 0.4137 0.3022 0.2469 0.2476 0.3073
1025.000000 0.3712 0.4350 0.4989 0.5627 0.6265
1020.000000 0.6904 0.7542 0.8180 0.8473 0.8584
1015.000000 0.8660 0.8728 0.8778 0.8816 0.8847
1010.000000 0.8865 0.8897 0.8889 0.8889 0.8885
1005.000000 0.8863 0.8828 0.8791 0.8743 0.8665
1000.000000 0.8563 0.7868 0.6943 0.6019 0.5747
995.000000 0.5600 0.5582 0.5626 0.5716 0.6045
990.000000 0.6241 0.6468 0.6696 0.6922 0.7150
985.000000 0.7378 0.7605 0.7833 0.8060 0.8287
980.000000 0.8505 0.8595 0.8646 0.8695 0.8743
975.000000 0.8774 0.8798 0.8823 0.8847 0.8868
970.000000 0.8887 0.8906 0.8925 0.8943 0.8959
965.000000 0.8975 0.8992 0.9008 0.9024 0.9037
960.000000 0.9051 0.9061 0.9070 0.9078 0.9088
955.000000 0.9096 0.9104 0.9110 0.9114 0.9107
950.000000 0.9101 0.9080 0.9059 0.9024 0.8982
945.000000 0.8940 0.8882 0.8812 0.8743 0.8665
940.000000 0.8583 0.8498 0.8396 0.8292 0.8175
935.000000 0.8030 0.7724 0.7037 0.7003 0.6964
930.000000 0.6918 0.6854 0.6714 0.5799 0.4581
925.000000 0.3364 0.2563 0.2541 0.2557 0.3153
920.000000 0.3749 0.4345 0.4941 0.5537 0.6132
915.000000 0.6728 0.7324 0.7636 0.7882 0.8101
910.000000 0.8278 0.8436 0.8574 0.8698 0.8828
905.000000 0.8925 0.8981 0.9018 0.9053 0.9087
900.000000 0.9118 0.9145 0.9167 0.9190 0.9213
895.000000 0.9217 0.9220 0.9220 0.9220 0.9220
890.000000 0.9225 0.9231 0.9251 0.9271 0.9303
885.000000 0.9335 0.9367 0.9399 0.9432 0.9468
880.000000 0.9492 0.9513 0.9530 0.9545 0.9560
875.000000 0.9567 0.9571 0.9542 0.9567 0.9557
870.000000 0.9524 0.9406 0.9223 0.8789 0.7961
865.000000 0.7118 0.6274 0.4581 0.4601 0.4762
860.000000 0.5494 0.6224 0.6955 0.7686 0.8309
855.000000 0.8200 0.7168 0.6135 0.5103 0.4312
850.000000 0.4409 0.5510 0.6901 0.8292 0.9021
845.000000 0.9184 0.9296 0.9427 0.9553 0.9632
840.000000 0.9686 0.9737 0.9780 0.9816 0.9851
835.000000 0.9871 0.9890 0.9908 0.9925 0.9893
830.000000 0.9939 0.9944 0.9943 0.9937 0.9930
825.000000 0.9904 0.9860 0.9813 0.9757 0.9693
820.000000 0.9593 0.9446 0.9308 0.8407 0.7543
815.000000 0.6515 0.5490 0.4770 0.4733 0.5398
810.000000 0.6076 0.6755 0.7433 0.8111 0.8955
805.000000 0.8938 0.8727 0.8440 0.8366 0.8312
800.000000 0.9252 0.9518 0.9564 0.9598 0.9632
795.000000 0.9642 0.9642 0.9641 0.9634 0.9566
790.000000 0.7910 0.6335 0.6812 0.7628 0.8443
785.000000 0.9302 0.9436 0.9559 0.9675 0.9782
780.000000 0.9884 0.9924 0.9959 0.9993 1.0027
775.000000 1.0051 1.0068 1.0086 1.0103 1.0120
770.000000 1.0138 1.0150 1.0158 1.0166 1.0173
765.000000 1.0181 1.0187 1.0193 1.0200 1.0199
760.000000 1.0199 1.0213 1.0215 1.0215 1.0215
755.000000 1.0215 1.0209 1.0202 1.0196 1.0186
750.000000 1.0174 1.0162 1.0150 1.0132 1.0105
745.000000 1.0078 1.0049 1.0011 0.9973 0.9915
740.000000 0.9838 0.8240 0.8458 0.8911 0.9316
735.000000 0.9409 0.9474 0.9516 0.9542 0.9571
730.000000 0.9568 0.9567 0.9524 0.9466 0.9395
725.000000 0.9253 0.8863 0.8830 0.8955 0.9264
720.000000 0.9466 0.9625 0.9743 0.9838 0.9918
715.000000 0.9990 1.0059 1.0102 1.0143 1.0170
710.000000 1.0198 1.0225 1.0251 1.0271 1.0287
705.000000 1.0304 1.0320 1.0337 1.0354 1.0363
700.000000 1.0370 1.0378 1.0382 1.0382 1.0373
695.000000 1.0378 1.0375 1.0368 1.0359 1.0334
690.000000 1.0286 1.0241 1.0257 1.0256 1.0287
685.000000 1.0321 1.0349 1.0373 1.0397 1.0411
680.000000 1.0425 1.0439 1.0448 1.0456 1.0462
675.000000 1.0466 1.0468 1.0471 1.0473 1.0475
670.000000 1.0477 1.0480 1.0482 1.0459 1.0486
665.000000 1.0488 1.0490 1.0492 1.0492 1.0492
660.000000 1.0493 1.0493 1.0493 1.0493 1.0494
655.000000 1.0494 1.0493 1.0490 1.0487 1.0484
650.000000 1.0481 1.0478 1.0475 1.0471 1.0468
645.000000 1.0465 1.0462 1.0458 1.0455 1.0452
640.000000 1.0448 1.0445 1.0442 1.0439 1.0435
635.000000 1.0430 1.0421 1.0415 1.0407 1.0399
630.000000 1.0391 1.0381 1.0371 1.0361 1.0348
625.000000 1.0336 1.0323 1.0303 1.0273 1.0236
620.000000 1.0199 1.0144 1.0075 0.9998 0.9880
615.000000 0.9704 0.9325 0.8727 0.8012 0.7300
610.000000 0.6586 0.6388 0.6931 0.7484 0.8037
605.000000 0.8589 0.9142 0.9561 0.9715 0.9823
600.000000 0.9904 0.9964 1.0018 1.0052 1.0065
595.000000 1.0061 1.0075 1.0074 1.0053 1.0007
590.000000 0.9921 0.7496 0.7519 0.7515 0.7651
585.000000 0.7980 0.8309 0.8638 0.8968 0.9297
580.000000 0.9625 0.9805 0.9888 0.9933 0.9965
575.000000 0.9997 1.0018 1.0033 1.0061 1.0047
570.000000 1.0035 1.0003 0.9931 0.9854 0.9285
565.000000 0.8618 0.7951 0.7601 0.7591 0.7598
560.000000 0.8253 0.8598 0.8943 0.9255 0.9364
555.000000 0.9424 0.9481 0.9511 0.9538 0.9551
550.000000 0.9571 0.9568 0.9566 0.9555 0.9527
545.000000 0.9493 0.9435 0.9368 0.9283 0.9136
540.000000 0.8936 0.8737 0.8538 0.8338 0.8191
535.000000 0.8182 0.8244 0.8421 0.8592 0.8699
530.000000 0.8765 0.8825 0.8859 0.8870 0.8897
525.000000 0.8828 0.8786 0.8725 0.8648 0.8542
520.000000 0.8440 0.8335 0.8183 0.7946 0.7685
515.000000 0.7425 0.7164 0.6904 0.6643 0.6383
510.000000 0.6122 0.5929 0.5855 0.5793 0.5734
505.000000 0.5667 0.5605 0.5557 0.5530 0.5521
500.000000 0.5469 0.5616 0.5775 0.5944 0.6112
495.000000 0.6281 0.6450 0.6618 0.6788 0.6956
490.000000 0.7125 0.7294 0.7462 0.7631 0.7800
485.000000 0.7906 0.7994 0.8068 0.8130 0.8184
480.000000 0.8234 0.8283 0.8318 0.8347 0.8375
475.000000 0.8399 0.8417 0.8435 0.8454 0.8471
470.000000 0.8486 0.8502 0.8517 0.8531 0.8544
465.000000 0.8558 0.8570 0.8583 0.8594 0.8601
460.000000 0.8606 0.8609 0.8603 0.8575 0.8532
455.000000 0.8475 0.8412 0.8343 0.8265 0.8194
450.000000 0.8137 0.8076 0.8011 0.7941 0.7886
445.000000 0.7850 0.7832 0.7818 0.7751 0.7910
440.000000 0.7990 0.8087 0.8178 0.8231 0.8283
435.000000 0.8323 0.8359 0.8395 0.8432 0.8460
430.000000 0.8484 0.8509 0.8533 0.8558 0.8578
425.000000 0.8596 0.8612 0.8625 0.8637 0.8648
420.000000 0.8659 0.8666 0.8703 0.8677 0.8683
415.000000 0.8688 0.8690 0.8690 0.8689 0.8687
410.000000 0.8684 0.8682 0.8678 0.8677 0.8671
405.000000 0.8665 0.8658 0.8652 0.8646 0.8640
400.000000 0.8633 0.8625 0.8618 0.8612 0.8606
395.000000 0.8599 0.8591 0.8582 0.8571 0.8562
390.000000 0.8552 0.8543 0.8534 0.8525
##END=
