##TITLE=SODIUM BICARBONATE
$$ C.P.
##JCAMP-DX=4.24
##DATA TYPE=INFRARED SPECTRUM
##CLASS=COBLENTZ
##ORIGIN=MELLON INSTITUTE
##OWNER=COBLENTZ SOCIETY
Collection (C) 2018 copyright by the U.S. Secretary of Commerce
on behalf of the United States of America. All rights reserved.
##DATE=Not specified, most likely prior to 1970
##MOLFORM=Na H C O3
##SOURCE REFERENCE=COBLENTZ NO. 512
##$NIST ID=B6000512
##$NIST SOURCE=COBLENTZ
##$NIST IMAGE=cob512
##SPECTROMETER/DATA SYSTEM=Not specified, most likely a prism, grating, or hybrid spectrometer.
##STATE=SOLID (NUJOL AND FLUOROLUBE MULLS)
##SAMPLING PROCEDURE=TRANSMISSION
##RESOLUTION=4
##DATA PROCESSING=DIGITIZED BY NIST FROM HARD COPY
##XUNITS=MICROMETERS
##YUNITS=TRANSMITTANCE
##XFACTOR=1.000000
##YFACTOR=1
##DELTAX=000.006799
##FIRSTX=2.035
##LASTX=15.9856
##FIRSTY=0.96
##MAXX=15.9856
##MINX=2.035
##MAXY=0.994
##MINY=0.063
##NPOINTS=2053
##XYDATA=(X++(Y..Y))
2.035000 0.9600 0.9600 0.9620 0.9600 0.9600
2.069009 0.9600 0.9620 0.9620 0.9620 0.9630
2.103000 0.9630 0.9630 0.9650 0.9670 0.9670
2.137009 0.9670 0.9670 0.9670 0.9690 0.9700
2.171000 0.9700 0.9700 0.9700 0.9700 0.9720
2.205009 0.9720 0.9740 0.9740 0.9740 0.9750
2.239000 0.9750 0.9770 0.9770 0.9770 0.9790
2.273009 0.9810 0.9810 0.9810 0.9810 0.9810
2.307000 0.9810 0.9820 0.9820 0.9840 0.9840
2.341009 0.9840 0.9840 0.9860 0.9860 0.9860
2.375000 0.9860 0.9860 0.9870 0.9890 0.9870
2.409009 0.9870 0.9890 0.9870 0.9870 0.9870
2.443000 0.9890 0.9890 0.9890 0.9890 0.9890
2.477009 0.9890 0.9890 0.9910 0.9910 0.9910
2.511000 0.9910 0.9910 0.9910 0.9930 0.9930
2.545009 0.9940 0.9940 0.9940 0.9940 0.9940
2.578000 0.9940 0.9940 0.9930 0.9930 0.9930
2.612009 0.9930 0.9930 0.9910 0.9910 0.9910
2.646000 0.9910 0.9910 0.9910 0.9910 0.9910
2.680009 0.9910 0.9910 0.9910 0.9910 0.9910
2.714000 0.9910 0.9930 0.9910 0.9910 0.9910
2.748009 0.9910 0.9910 0.9910 0.9910 0.9910
2.782000 0.9910 0.9910 0.9910 0.9910 0.9910
2.816009 0.9910 0.9910 0.9890 0.9890 0.9890
2.850000 0.9890 0.9890 0.9890 0.9890 0.9890
2.884009 0.9870 0.9870 0.9870 0.9870 0.9860
2.918000 0.9860 0.9840 0.9840 0.9820 0.9810
2.952009 0.9810 0.9790 0.9790 0.9790 0.9770
2.986000 0.9770 0.9770 0.9740 0.9720 0.9720
3.020009 0.9720 0.9720 0.9700 0.9700 0.9690
3.054000 0.9670 0.9670 0.9650 0.9630 0.9620
3.088009 0.9620 0.9600 0.9570 0.9530 0.9510
3.122000 0.9500 0.9460 0.9390 0.9340 0.9290
3.156009 0.9150 0.9000 0.8970 0.8860 0.8810
3.190000 0.8760 0.8690 0.8640 0.8590 0.8520
3.224009 0.8490 0.8450 0.8420 0.8380 0.8310
3.258000 0.8260 0.8210 0.8160 0.8110 0.8040
3.292009 0.7990 0.7890 0.7820 0.7700 0.7560
3.326000 0.7440 0.7250 0.7110 0.7010 0.6890
3.360009 0.6790 0.6680 0.6620 0.6550 0.6480
3.394000 0.6410 0.6360 0.6340 0.6320 0.6320
3.428009 0.6320 0.6340 0.6340 0.6360 0.6380
3.462000 0.6390 0.6430 0.6460 0.6480 0.6500
3.496009 0.6510 0.6550 0.6560 0.6600 0.6600
3.530000 0.6600 0.6620 0.6620 0.6620 0.6620
3.564009 0.6600 0.6560 0.6560 0.6550 0.6510
3.598000 0.6460 0.6340 0.6290 0.6240 0.6200
3.632009 0.6080 0.6030 0.5980 0.5910 0.5740
3.666000 0.5640 0.5540 0.5420 0.5300 0.5230
3.700009 0.5120 0.5060 0.5000 0.4930 0.4830
3.734000 0.4750 0.4660 0.4590 0.4510 0.4450
3.768009 0.4370 0.4330 0.4270 0.4210 0.4150
3.802000 0.4040 0.3990 0.3960 0.3890 0.3840
3.836009 0.3790 0.3750 0.3720 0.3670 0.3610
3.870000 0.3580 0.3550 0.3490 0.3480 0.3430
3.904009 0.3430 0.3430 0.3410 0.3390 0.3390
3.938000 0.3390 0.3390 0.3370 0.3370 0.3370
3.972009 0.3370 0.3370 0.3360 0.3360 0.3360
4.006000 0.3360 0.3360 0.3360 0.3360 0.3370
4.040009 0.3370 0.3390 0.3410 0.3410 0.3410
4.074000 0.3430 0.3460 0.3490 0.3510 0.3530
4.108009 0.3580 0.3610 0.3670 0.3700 0.3730
4.142000 0.3790 0.3800 0.3820 0.3820 0.3840
4.176009 0.3840 0.3850 0.3850 0.3850 0.3850
4.210000 0.3870 0.3870 0.3870 0.3870 0.3890
4.244009 0.3890 0.3890 0.3890 0.3910 0.3910
4.278000 0.3910 0.3920 0.3960 0.3960 0.3970
4.312009 0.3990 0.4090 0.4160 0.4180 0.4270
4.346000 0.4320 0.4370 0.4420 0.4510 0.4590
4.380009 0.4680 0.4730 0.4780 0.4900 0.4970
4.414000 0.5060 0.5140 0.5230 0.5300 0.5360
4.448009 0.5470 0.5500 0.5520 0.5600 0.5660
4.482000 0.5710 0.5740 0.5790 0.5810 0.5840
4.516009 0.5900 0.5980 0.6000 0.6030 0.6100
4.550000 0.6140 0.6200 0.6240 0.6310 0.6340
4.584009 0.6390 0.6440 0.6480 0.6510 0.6530
4.618000 0.6600 0.6630 0.6680 0.6740 0.6750
4.652009 0.6800 0.6820 0.6840 0.6870 0.6890
4.686000 0.6910 0.6910 0.6920 0.6940 0.6940
4.720009 0.6940 0.6960 0.6980 0.6980 0.6990
4.754000 0.6990 0.6990 0.6990 0.6990 0.6990
4.788009 0.6990 0.6990 0.6990 0.7010 0.6990
4.822000 0.6990 0.6990 0.6980 0.6980 0.6980
4.856009 0.6960 0.6940 0.6920 0.6910 0.6910
4.890000 0.6910 0.6910 0.6890 0.6890 0.6890
4.924009 0.6890 0.6890 0.6890 0.6910 0.6920
4.958000 0.6920 0.6940 0.6940 0.6960 0.6980
4.992009 0.6990 0.6990 0.7010 0.7030 0.7040
5.026000 0.7080 0.7100 0.7130 0.7130 0.7130
5.060009 0.7160 0.7180 0.7180 0.7180 0.7160
5.094000 0.7150 0.7130 0.7100 0.7060 0.7010
5.128009 0.6980 0.6820 0.6700 0.6670 0.6630
5.162000 0.6500 0.6270 0.6240 0.6050 0.5930
5.196009 0.5780 0.5720 0.5670 0.5640 0.5590
5.230000 0.5520 0.5520 0.5500 0.5480 0.5470
5.264009 0.5470 0.5450 0.5470 0.5470 0.5500
5.298000 0.5500 0.5520 0.5570 0.5640 0.5740
5.332009 0.5880 0.5980 0.6070 0.6170 0.6240
5.366000 0.6320 0.6380 0.6480 0.6530 0.6620
5.400009 0.6750 0.6820 0.6940 0.6960 0.6980
5.434000 0.7010 0.7060 0.7100 0.7100 0.7100
5.468009 0.7110 0.7110 0.7110 0.7130 0.7160
5.502000 0.7200 0.7230 0.7280 0.7340 0.7420
5.536009 0.7490 0.7590 0.7680 0.7770 0.7870
5.570000 0.7920 0.7990 0.8060 0.8130 0.8190
5.604009 0.8260 0.8330 0.8380 0.8470 0.8540
5.638000 0.8590 0.8640 0.8710 0.8740 0.8790
5.672009 0.8810 0.8860 0.8900 0.8910 0.8910
5.706000 0.8910 0.8930 0.8910 0.8900 0.8880
5.740009 0.8860 0.8830 0.8790 0.8740 0.8690
5.774000 0.8690 0.8590 0.8470 0.8450 0.8310
5.808009 0.8190 0.8110 0.8040 0.7900 0.7630
5.842000 0.7460 0.7080 0.6800 0.6630 0.6460
5.876009 0.6170 0.5950 0.5660 0.5280 0.4920
5.910000 0.4680 0.4420 0.4160 0.4010 0.3850
5.944009 0.3580 0.3360 0.3250 0.3150 0.2960
5.978000 0.2790 0.2360 0.2050 0.1880 0.1760
6.012009 0.1680 0.1660 0.1660 0.1680 0.1680
6.046000 0.1680 0.1660 0.1660 0.1610 0.1560
6.080009 0.1490 0.1450 0.1380 0.1320 0.1250
6.114000 0.1200 0.1160 0.1080 0.0990 0.1090
6.148009 0.1230 0.1370 0.1690 0.1980 0.2050
6.182000 0.3050 0.3600 0.4610 0.4660 0.5710
6.216009 0.5910 0.6190 0.6340 0.6460 0.6600
6.250000 0.7010 0.7180 0.7370 0.7590 0.7680
6.284009 0.7770 0.7800 0.7830 0.7920 0.7990
6.318000 0.8060 0.8160 0.8310 0.8470 0.8520
6.352009 0.8590 0.8610 0.8610 0.8620 0.8620
6.386000 0.8640 0.8690 0.8740 0.8860 0.9000
6.420009 0.9030 0.9090 0.9140 0.9150 0.9150
6.454000 0.9150 0.9150 0.9150 0.9140 0.9170
6.488009 0.9190 0.9210 0.9210 0.9220 0.9240
6.522000 0.9290 0.9330 0.9340 0.9380 0.9380
6.556009 0.9340 0.9310 0.9290 0.9290 0.9330
6.590000 0.9340 0.9360 0.9390 0.9450 0.9450
6.624009 0.9480 0.9480 0.9480 0.9480 0.9480
6.658000 0.9460 0.9450 0.9410 0.9380 0.9310
6.692009 0.9270 0.9220 0.9190 0.9150 0.9100
6.726000 0.9030 0.8980 0.8900 0.8810 0.8690
6.760009 0.8610 0.8470 0.8350 0.8190 0.8040
6.794000 0.7780 0.7530 0.7130 0.6800 0.6480
6.828009 0.6000 0.5470 0.4920 0.4920 0.5000
6.862000 0.5140 0.5210 0.5260 0.5300 0.5420
6.896009 0.5520 0.5570 0.5670 0.5760 0.5810
6.930000 0.5860 0.5860 0.5810 0.5780 0.5720
6.964009 0.5590 0.5500 0.5420 0.5330 0.5210
6.998000 0.5110 0.4990 0.4880 0.4760 0.4660
7.032009 0.4640 0.4420 0.4010 0.3600 0.3170
7.066000 0.2890 0.2760 0.2600 0.2460 0.2330
7.100009 0.2310 0.2290 0.2290 0.2290 0.2290
7.133000 0.2310 0.2360 0.2380 0.2400 0.2410
7.167009 0.2430 0.2430 0.2430 0.2430 0.2410
7.201000 0.2380 0.2360 0.2340 0.2330 0.2280
7.235009 0.2220 0.2170 0.2140 0.2100 0.2050
7.269000 0.1980 0.1970 0.1900 0.1860 0.1810
7.303009 0.1780 0.1710 0.1680 0.1620 0.1590
7.337000 0.1520 0.1520 0.1490 0.1450 0.1420
7.371009 0.1380 0.1350 0.1320 0.1260 0.1250
7.405000 0.1230 0.1200 0.1160 0.1130 0.1110
7.439009 0.1090 0.1020 0.1010 0.0990 0.0990
7.473000 0.0970 0.0960 0.0920 0.0920 0.0900
7.507009 0.0890 0.0870 0.0850 0.0820 0.0800
7.541000 0.0800 0.0770 0.0770 0.0730 0.0730
7.575009 0.0720 0.0720 0.0700 0.0680 0.0680
7.609000 0.0700 0.0700 0.0680 0.0680 0.0680
7.643009 0.0660 0.0650 0.0650 0.0650 0.0650
7.677000 0.0630 0.0630 0.0630 0.0630 0.0630
7.711009 0.0630 0.0630 0.0630 0.0630 0.0630
7.745000 0.0650 0.0650 0.0650 0.0680 0.0700
7.779009 0.0720 0.0720 0.0730 0.0770 0.0780
7.813000 0.0800 0.0840 0.0850 0.0890 0.0960
7.847009 0.0990 0.1040 0.1090 0.1130 0.1260
7.881000 0.1320 0.1420 0.1490 0.1570 0.1680
7.915009 0.1740 0.1810 0.1950 0.2000 0.2090
7.949000 0.2140 0.2280 0.2360 0.2450 0.2520
7.983009 0.2590 0.2670 0.2760 0.2910 0.3010
8.017000 0.3030 0.3070 0.3120 0.3200 0.3320
8.051009 0.3510 0.3560 0.3650 0.3720 0.3800
8.085000 0.3850 0.3960 0.4030 0.4080 0.4160
8.119009 0.4230 0.4300 0.4350 0.4400 0.4450
8.153000 0.4510 0.4520 0.4590 0.4640 0.4680
8.187009 0.4730 0.4780 0.4870 0.4970 0.5000
8.221000 0.5020 0.5040 0.5120 0.5140 0.5210
8.255009 0.5240 0.5280 0.5330 0.5360 0.5400
8.289000 0.5430 0.5480 0.5520 0.5550 0.5570
8.323009 0.5600 0.5640 0.5690 0.5720 0.5740
8.357000 0.5790 0.5810 0.5830 0.5860 0.5930
8.391009 0.5960 0.5980 0.6030 0.6070 0.6100
8.425000 0.6120 0.6140 0.6190 0.6220 0.6240
8.459009 0.6270 0.6310 0.6340 0.6380 0.6390
8.493000 0.6430 0.6460 0.6480 0.6500 0.6510
8.527009 0.6530 0.6580 0.6600 0.6620 0.6630
8.561000 0.6680 0.6700 0.6700 0.6740 0.6770
8.595009 0.6790 0.6820 0.6840 0.6860 0.6870
8.629000 0.6890 0.6910 0.6920 0.6940 0.6960
8.663009 0.6980 0.6990 0.7010 0.7010 0.7010
8.697000 0.7030 0.7080 0.7080 0.7100 0.7110
8.731009 0.7130 0.7130 0.7150 0.7160 0.7160
8.765000 0.7160 0.7180 0.7200 0.7200 0.7200
8.799009 0.7220 0.7220 0.7220 0.7230 0.7230
8.833000 0.7250 0.7250 0.7250 0.7270 0.7270
8.867009 0.7280 0.7280 0.7300 0.7300 0.7300
8.901000 0.7320 0.7320 0.7320 0.7340 0.7340
8.935009 0.7350 0.7350 0.7370 0.7370 0.7390
8.969000 0.7390 0.7400 0.7420 0.7420 0.7440
9.003009 0.7440 0.7460 0.7460 0.7470 0.7470
9.037000 0.7470 0.7470 0.7490 0.7510 0.7510
9.071009 0.7530 0.7530 0.7530 0.7530 0.7530
9.105000 0.7540 0.7540 0.7560 0.7580 0.7580
9.139009 0.7580 0.7580 0.7590 0.7590 0.7590
9.173000 0.7590 0.7590 0.7610 0.7610 0.7610
9.207009 0.7630 0.7630 0.7630 0.7630 0.7630
9.241000 0.7650 0.7650 0.7660 0.7660 0.7680
9.275009 0.7680 0.7680 0.7680 0.7700 0.7710
9.309000 0.7710 0.7730 0.7730 0.7750 0.7750
9.343009 0.7780 0.7780 0.7780 0.7800 0.7800
9.377000 0.7820 0.7800 0.7820 0.7830 0.7830
9.411009 0.7820 0.7820 0.7820 0.7800 0.7780
9.445000 0.7770 0.7730 0.7700 0.7650 0.7560
9.479009 0.7460 0.7230 0.7100 0.6960 0.6840
9.513000 0.6700 0.6560 0.6460 0.6260 0.6220
9.547009 0.6140 0.6190 0.6200 0.6240 0.6310
9.581000 0.6380 0.6430 0.6550 0.6550 0.6510
9.615009 0.6510 0.6440 0.6320 0.6290 0.6270
9.649000 0.6200 0.6240 0.6270 0.6290 0.6340
9.683009 0.6410 0.6430 0.6460 0.6480 0.6480
9.717000 0.6500 0.6500 0.6500 0.6480 0.6480
9.751009 0.6440 0.6430 0.6390 0.6340 0.6320
9.785000 0.6270 0.6140 0.6070 0.6020 0.5960
9.819009 0.5900 0.5790 0.5780 0.5710 0.5690
9.853000 0.5590 0.5500 0.5450 0.5380 0.5330
9.887009 0.5280 0.5210 0.5180 0.5090 0.5000
9.921000 0.4930 0.4850 0.4760 0.4750 0.4660
9.955009 0.4630 0.4610 0.4610 0.4570 0.4570
9.989000 0.4560 0.4560 0.4560 0.4560 0.4560
10.023009 0.4560 0.4570 0.4590 0.4610 0.4630
10.057000 0.4660 0.4690 0.4730 0.4800 0.4870
10.091009 0.4920 0.5020 0.5110 0.5140 0.5210
10.125000 0.5300 0.5330 0.5450 0.5500 0.5570
10.159009 0.5670 0.5720 0.5790 0.5860 0.5910
10.193000 0.5980 0.6020 0.6100 0.6170 0.6220
10.227009 0.6260 0.6310 0.6320 0.6380 0.6410
10.261000 0.6480 0.6510 0.6580 0.6620 0.6750
10.295009 0.6790 0.6870 0.6910 0.6980 0.7010
10.329000 0.7060 0.7110 0.7180 0.7220 0.7230
10.363009 0.7300 0.7340 0.7340 0.7370 0.7400
10.397000 0.7440 0.7460 0.7490 0.7510 0.7530
10.431009 0.7530 0.7530 0.7580 0.7580 0.7590
10.465000 0.7610 0.7630 0.7650 0.7660 0.7680
10.499009 0.7700 0.7710 0.7730 0.7730 0.7750
10.533000 0.7750 0.7770 0.7780 0.7780 0.7780
10.567009 0.7800 0.7820 0.7830 0.7830 0.7870
10.601000 0.7870 0.7890 0.7890 0.7900 0.7920
10.635009 0.7920 0.7940 0.7950 0.7970 0.7990
10.669000 0.7990 0.8010 0.8010 0.8020 0.8020
10.703009 0.8020 0.8020 0.8040 0.8070 0.8090
10.737000 0.8110 0.8130 0.8140 0.8140 0.8160
10.771009 0.8180 0.8190 0.8190 0.8190 0.8230
10.805000 0.8250 0.8260 0.8280 0.8280 0.8300
10.839009 0.8310 0.8330 0.8330 0.8350 0.8370
10.873000 0.8380 0.8400 0.8400 0.8430 0.8430
10.907009 0.8450 0.8470 0.8490 0.8500 0.8500
10.941000 0.8520 0.8540 0.8550 0.8570 0.8570
10.975009 0.8590 0.8590 0.8610 0.8620 0.8640
11.009000 0.8660 0.8670 0.8690 0.8690 0.8710
11.043009 0.8710 0.8730 0.8740 0.8760 0.8780
11.077000 0.8780 0.8790 0.8810 0.8830 0.8830
11.111009 0.8850 0.8850 0.8860 0.8860 0.8880
11.145000 0.8900 0.8910 0.8910 0.8930 0.8930
11.179009 0.8950 0.8930 0.8950 0.8970 0.8970
11.213000 0.8980 0.8980 0.8980 0.8980 0.9000
11.247009 0.9000 0.9000 0.9000 0.9020 0.9020
11.281000 0.9030 0.9030 0.9030 0.9030 0.9030
11.315009 0.9050 0.9050 0.9050 0.9090 0.9090
11.349000 0.9090 0.9100 0.9100 0.9100 0.9100
11.383009 0.9120 0.9140 0.9140 0.9150 0.9150
11.417000 0.9150 0.9150 0.9150 0.9170 0.9170
11.451009 0.9190 0.9190 0.9190 0.9210 0.9210
11.485000 0.9220 0.9220 0.9220 0.9220 0.9220
11.519009 0.9220 0.9220 0.9220 0.9220 0.9220
11.553000 0.9220 0.9240 0.9240 0.9220 0.9220
11.587009 0.9240 0.9220 0.9240 0.9240 0.9240
11.621000 0.9240 0.9240 0.9240 0.9240 0.9240
11.655009 0.9220 0.9220 0.9220 0.9210 0.9190
11.689000 0.9170 0.9150 0.9140 0.9120 0.9100
11.723009 0.9030 0.9020 0.8980 0.8930 0.8900
11.756000 0.8830 0.8780 0.8710 0.8660 0.8610
11.790009 0.8330 0.7940 0.7650 0.7370 0.7200
11.824000 0.7110 0.6670 0.6480 0.6290 0.5980
11.858009 0.5660 0.5380 0.5120 0.4990 0.4750
11.892000 0.4330 0.4090 0.3970 0.3850 0.3790
11.926009 0.3750 0.3730 0.3720 0.3720 0.3850
11.960000 0.4010 0.4080 0.4150 0.4250 0.4330
11.994009 0.4870 0.5240 0.5900 0.6080 0.6240
12.028000 0.6380 0.6630 0.7010 0.7180 0.7300
12.062009 0.7440 0.7580 0.7680 0.7800 0.7890
12.096000 0.7990 0.8090 0.8190 0.8300 0.8380
12.130009 0.8430 0.8490 0.8520 0.8590 0.8640
12.164000 0.8690 0.8710 0.8710 0.8740 0.8780
12.198009 0.8810 0.8850 0.8860 0.8900 0.8910
12.232000 0.8930 0.8950 0.8980 0.9000 0.9020
12.266009 0.9030 0.9030 0.9050 0.9100 0.9120
12.300000 0.9120 0.9140 0.9140 0.9170 0.9190
12.334009 0.9210 0.9210 0.9220 0.9240 0.9260
12.368000 0.9270 0.9270 0.9290 0.9310 0.9330
12.402009 0.9340 0.9340 0.9380 0.9380 0.9390
12.436000 0.9390 0.9410 0.9430 0.9450 0.9450
12.470009 0.9450 0.9460 0.9480 0.9500 0.9510
12.504000 0.9510 0.9510 0.9530 0.9530 0.9530
12.538009 0.9530 0.9550 0.9550 0.9550 0.9550
12.572000 0.9550 0.9570 0.9580 0.9600 0.9600
12.606009 0.9600 0.9600 0.9600 0.9600 0.9600
12.640000 0.9600 0.9620 0.9620 0.9620 0.9620
12.674009 0.9620 0.9620 0.9620 0.9620 0.9620
12.708000 0.9620 0.9620 0.9620 0.9620 0.9620
12.742009 0.9620 0.9620 0.9620 0.9620 0.9620
12.776000 0.9600 0.9600 0.9600 0.9600 0.9600
12.810009 0.9600 0.9620 0.9620 0.9620 0.9620
12.844000 0.9620 0.9620 0.9620 0.9620 0.9620
12.878009 0.9620 0.9620 0.9620 0.9620 0.9620
12.912000 0.9600 0.9600 0.9600 0.9600 0.9620
12.946009 0.9620 0.9600 0.9600 0.9600 0.9600
12.980000 0.9600 0.9600 0.9600 0.9600 0.9600
13.014009 0.9580 0.9580 0.9580 0.9580 0.9580
13.048000 0.9570 0.9580 0.9570 0.9550 0.9550
13.082009 0.9550 0.9550 0.9550 0.9550 0.9550
13.116000 0.9550 0.9550 0.9530 0.9530 0.9530
13.150009 0.9550 0.9550 0.9530 0.9530 0.9530
13.184000 0.9530 0.9510 0.9510 0.9510 0.9510
13.218009 0.9500 0.9500 0.9480 0.9480 0.9480
13.252000 0.9480 0.9460 0.9460 0.9450 0.9450
13.286009 0.9450 0.9450 0.9430 0.9430 0.9410
13.320000 0.9410 0.9390 0.9390 0.9390 0.9390
13.354009 0.9390 0.9380 0.9380 0.9380 0.9380
13.388000 0.9360 0.9360 0.9330 0.9330 0.9330
13.422009 0.9310 0.9290 0.9290 0.9270 0.9260
13.456000 0.9240 0.9240 0.9220 0.9220 0.9210
13.490009 0.9210 0.9190 0.9150 0.9150 0.9140
13.524000 0.9120 0.9100 0.9100 0.9090 0.9030
13.558009 0.9030 0.9030 0.9020 0.9000 0.8980
13.592000 0.8970 0.8950 0.8910 0.8910 0.8910
13.626009 0.8880 0.8860 0.8830 0.8810 0.8790
13.660000 0.8760 0.8740 0.8710 0.8690 0.8640
13.694009 0.8610 0.8550 0.8520 0.8490 0.8430
13.728000 0.8380 0.8330 0.8280 0.8230 0.8180
13.762009 0.8130 0.8070 0.8020 0.7950 0.7890
13.796000 0.7830 0.7750 0.7660 0.7560 0.7510
13.830009 0.7460 0.7370 0.7320 0.7230 0.7160
13.864000 0.7080 0.6980 0.6890 0.6840 0.6700
13.898009 0.6680 0.6650 0.6550 0.6460 0.6320
13.932000 0.6190 0.6120 0.5980 0.5900 0.5740
13.966009 0.5710 0.5550 0.5400 0.5240 0.5090
14.000000 0.4830 0.4690 0.4610 0.4510 0.4450
14.034009 0.4300 0.4270 0.4130 0.4030 0.3990
14.068000 0.3870 0.3770 0.3680 0.3580 0.3460
14.102009 0.3370 0.3340 0.3310 0.3250 0.3200
14.136000 0.3130 0.3070 0.3000 0.2910 0.2880
14.170009 0.2810 0.2760 0.2720 0.2690 0.2640
14.204000 0.2590 0.2550 0.2530 0.2520 0.2500
14.238009 0.2480 0.2450 0.2430 0.2410 0.2410
14.272000 0.2400 0.2380 0.2380 0.2380 0.2380
14.306009 0.2380 0.2380 0.2380 0.2380 0.2380
14.340000 0.2380 0.2380 0.2380 0.2380 0.2400
14.374009 0.2430 0.2430 0.2460 0.2500 0.2530
14.408000 0.2620 0.2710 0.2770 0.2840 0.2950
14.442009 0.3030 0.3100 0.3170 0.3220 0.3320
14.476000 0.3530 0.3650 0.3800 0.3970 0.4030
14.510009 0.4130 0.4200 0.4280 0.4330 0.4470
14.544000 0.4520 0.4610 0.4710 0.4760 0.4830
14.578009 0.4880 0.4920 0.4990 0.5020 0.5070
14.612000 0.5120 0.5160 0.5230 0.5300 0.5330
14.646009 0.5400 0.5430 0.5480 0.5540 0.5540
14.680000 0.5590 0.5640 0.5670 0.5690 0.5710
14.714009 0.5720 0.5760 0.5780 0.5790 0.5790
14.748000 0.5790 0.5810 0.5810 0.5830 0.5830
14.782009 0.5840 0.5840 0.5880 0.5880 0.5910
14.816000 0.5930 0.5930 0.5950 0.6000 0.6020
14.850009 0.6140 0.6200 0.6240 0.6260 0.6260
14.884000 0.6260 0.6260 0.6260 0.6240 0.6240
14.918009 0.6200 0.6190 0.6150 0.6120 0.6020
14.952000 0.5980 0.5950 0.5930 0.5900 0.5880
14.986009 0.5840 0.5810 0.5720 0.5670 0.5600
15.020000 0.5590 0.5570 0.5540 0.5520 0.5520
15.054009 0.5520 0.5520 0.5540 0.5540 0.5540
15.088000 0.5570 0.5590 0.5600 0.5620 0.5640
15.122009 0.5670 0.5710 0.5740 0.5780 0.5810
15.156000 0.5810 0.5830 0.5840 0.5840 0.5860
15.190009 0.5860 0.5900 0.5910 0.5910 0.5910
15.224000 0.5930 0.5930 0.5950 0.5980 0.5980
15.258009 0.5980 0.5980 0.6000 0.6000 0.6000
15.292000 0.6000 0.6000 0.6000 0.6000 0.6020
15.326009 0.6020 0.6020 0.6020 0.6030 0.6050
15.360000 0.6050 0.6050 0.6070 0.6050 0.6070
15.394009 0.6070 0.6080 0.6080 0.6100 0.6100
15.428000 0.6120 0.6120 0.6120 0.6120 0.6140
15.462009 0.6140 0.6140 0.6140 0.6140 0.6140
15.496000 0.6140 0.6150 0.6150 0.6150 0.6150
15.530009 0.6150 0.6150 0.6150 0.6150 0.6170
15.564000 0.6170 0.6170 0.6170 0.6190 0.6190
15.598009 0.6190 0.6190 0.6190 0.6190 0.6200
15.632000 0.6200 0.6200 0.6200 0.6200 0.6200
15.666009 0.6220 0.6220 0.6220 0.6240 0.6240
15.700000 0.6240 0.6240 0.6240 0.6240 0.6240
15.734009 0.6240 0.6260 0.6260 0.6260 0.6260
15.768000 0.6270 0.6270 0.6290 0.6290 0.6290
15.802009 0.6290 0.6310 0.6310 0.6310 0.6310
15.836000 0.6310 0.6320 0.6320 0.6320 0.6320
15.870009 0.6320 0.6320 0.6320 0.6320 0.6320
15.904000 0.6320 0.6340 0.6340 0.6340 0.6360
15.938009 0.6360 0.6360 0.6360 0.6380 0.6380
15.972000 0.6380 0.6380 0.6380
##END=
