##TITLE=2-(M-PHENOXYPHENOXY)-3-(2-TRIMETHYLSILYLETHYL) PYRAZINE
##JCAMP-DX=4.24
##DATA TYPE=INFRARED SPECTRUM
##CLASS=COBLENTZ
##ORIGIN=WYANDOTTE CHEMICALS CORP., WYANDOTTE, MICHIGAN, USA
##OWNER=COBLENTZ SOCIETY
Collection (C) 2018 copyright by the U.S. Secretary of Commerce
on behalf of the United States of America. All rights reserved.
##DATE=Not specified, most likely prior to 1970
##NAMES=2-(3-phenoxyphenoxy)-3-[2-(trimethylsilyl)ethyl]pyrazine
##MOLFORM=C21 H24 N2 O2 Si
##SOURCE REFERENCE=COBLENTZ NO. 2916
##$NIST ID=B6002916
##$NIST SOURCE=COBLENTZ
##$NIST IMAGE=cob2916
##SPECTROMETER/DATA SYSTEM=Not specified, most likely a prism, grating, or hybrid spectrometer.
##STATE=LIQUID
##PATH LENGTH=CAPILLARY
##SAMPLING PROCEDURE=TRANSMISSION
##RESOLUTION=4
##DATA PROCESSING=DIGITIZED BY NIST FROM HARD COPY
##XUNITS=MICROMETERS
##YUNITS=TRANSMITTANCE
##XFACTOR=1.000000
##YFACTOR=1
##DELTAX=000.006626
##FIRSTX=2.033
##LASTX=15.9868
##FIRSTY=0.973
##MAXX=15.9868
##MINX=2.033
##MAXY=0.975
##MINY=0.046
##NPOINTS=2107
##XYDATA=(X++(Y..Y))
2.033000 0.9730 0.9730 0.9730 0.9730 0.9710
2.066144 0.9710 0.9700 0.9680 0.9680 0.9660
2.099000 0.9660 0.9680 0.9680 0.9730 0.9730
2.132144 0.9750 0.9750 0.9730 0.9710 0.9660
2.166000 0.9610 0.9600 0.9560 0.9560 0.9550
2.199144 0.9510 0.9510 0.9510 0.9530 0.9550
2.232000 0.9600 0.9600 0.9610 0.9610 0.9600
2.265144 0.9600 0.9580 0.9560 0.9550 0.9530
2.298000 0.9510 0.9500 0.9480 0.9480 0.9460
2.331144 0.9460 0.9450 0.9450 0.9450 0.9450
2.364000 0.9450 0.9460 0.9460 0.9500 0.9510
2.397144 0.9530 0.9550 0.9580 0.9580 0.9600
2.431000 0.9600 0.9600 0.9600 0.9600 0.9600
2.464144 0.9600 0.9600 0.9600 0.9600 0.9580
2.497000 0.9580 0.9580 0.9560 0.9560 0.9550
2.530144 0.9550 0.9530 0.9510 0.9480 0.9460
2.563000 0.9460 0.9480 0.9480 0.9500 0.9500
2.596144 0.9530 0.9560 0.9600 0.9600 0.9600
2.629000 0.9600 0.9580 0.9560 0.9550 0.9530
2.662144 0.9530 0.9510 0.9500 0.9480 0.9480
2.696000 0.9480 0.9480 0.9460 0.9450 0.9430
2.729144 0.9400 0.9380 0.9360 0.9350 0.9350
2.762000 0.9330 0.9310 0.9310 0.9330 0.9330
2.795144 0.9330 0.9350 0.9350 0.9350 0.9350
2.828000 0.9330 0.9330 0.9330 0.9310 0.9310
2.861144 0.9300 0.9280 0.9260 0.9250 0.9250
2.894000 0.9250 0.9250 0.9250 0.9230 0.9200
2.927144 0.9180 0.9160 0.9150 0.9150 0.9130
2.961000 0.9110 0.9100 0.9100 0.9110 0.9130
2.994144 0.9130 0.9130 0.9130 0.9110 0.9100
3.027000 0.9050 0.9030 0.9010 0.9000 0.9000
3.060144 0.9000 0.8980 0.8950 0.8930 0.8910
3.093000 0.8850 0.8810 0.8760 0.8730 0.8700
3.126144 0.8680 0.8650 0.8630 0.8610 0.8600
3.159000 0.8600 0.8530 0.8510 0.8410 0.8100
3.192144 0.7800 0.7430 0.7050 0.6850 0.6650
3.226000 0.5750 0.5420 0.5400 0.5420 0.5800
3.259144 0.6120 0.6620 0.7350 0.7550 0.7600
3.292000 0.7580 0.7270 0.6800 0.6500 0.6200
3.325144 0.5540 0.4600 0.3920 0.3220 0.3210
3.358000 0.3220 0.4420 0.4800 0.5020 0.5140
3.391144 0.5170 0.5170 0.5170 0.5170 0.5190
3.425000 0.5190 0.5200 0.5590 0.5950 0.6320
3.458144 0.6650 0.7130 0.7250 0.7380 0.7550
3.491000 0.7650 0.7770 0.8000 0.8130 0.8200
3.524144 0.8230 0.8280 0.8300 0.8310 0.8360
3.557000 0.8400 0.8460 0.8560 0.8630 0.8710
3.590144 0.8750 0.8810 0.8830 0.8830 0.8810
3.623000 0.8810 0.8810 0.8850 0.8860 0.8860
3.656144 0.8900 0.8910 0.8910 0.8910 0.8910
3.690000 0.8960 0.9000 0.9010 0.9010 0.9000
3.723144 0.8980 0.8980 0.9000 0.9000 0.9010
3.756000 0.9010 0.9010 0.9050 0.9050 0.9060
3.789144 0.9060 0.9060 0.9060 0.9060 0.9060
3.822000 0.9050 0.9050 0.9030 0.8980 0.8950
3.855144 0.8930 0.8950 0.8960 0.9000 0.9000
3.888000 0.9010 0.9010 0.9010 0.9030 0.9030
3.921144 0.9060 0.9060 0.9080 0.9080 0.9050
3.955000 0.9030 0.9000 0.8980 0.8980 0.8960
3.988144 0.8950 0.8950 0.8950 0.8930 0.8930
4.021000 0.8910 0.8900 0.8900 0.8880 0.8860
4.054144 0.8860 0.8860 0.8850 0.8830 0.8810
4.087000 0.8780 0.8760 0.8760 0.8730 0.8710
4.120144 0.8680 0.8650 0.8630 0.8580 0.8560
4.153000 0.8530 0.8510 0.8510 0.8530 0.8600
4.186144 0.8650 0.8650 0.8650 0.8610 0.8560
4.220000 0.8530 0.8510 0.8530 0.8600 0.8650
4.253144 0.8730 0.8800 0.8860 0.8900 0.8910
4.286000 0.8910 0.8910 0.8930 0.8980 0.8980
4.319144 0.9030 0.9050 0.9100 0.9100 0.9100
4.352000 0.9110 0.9110 0.9150 0.9160 0.9160
4.385144 0.9180 0.9180 0.9160 0.9130 0.9130
4.418000 0.9130 0.9130 0.9130 0.9150 0.9150
4.451144 0.9160 0.9160 0.9160 0.9160 0.9160
4.485000 0.9160 0.9150 0.9130 0.9110 0.9080
4.518144 0.9060 0.9030 0.8980 0.8980 0.8960
4.551000 0.8960 0.8980 0.8980 0.9000 0.9010
4.584144 0.9100 0.9110 0.9130 0.9130 0.9130
4.617000 0.9130 0.9100 0.9100 0.9100 0.9060
4.650144 0.9060 0.9050 0.9050 0.9050 0.9030
4.683000 0.9030 0.9030 0.9030 0.9050 0.9060
4.716144 0.9060 0.9060 0.9080 0.9100 0.9130
4.750000 0.9130 0.9110 0.9110 0.9100 0.9100
4.783144 0.9080 0.9030 0.8980 0.8930 0.8910
4.816000 0.8910 0.8930 0.8950 0.8960 0.8980
4.849144 0.9000 0.9000 0.9000 0.9000 0.9010
4.882000 0.9010 0.9000 0.8980 0.8960 0.8930
4.915144 0.8860 0.8850 0.8830 0.8830 0.8830
4.948000 0.8860 0.8900 0.8910 0.8910 0.8910
4.981144 0.8950 0.8950 0.8930 0.8910 0.8910
5.015000 0.8910 0.8910 0.8900 0.8880 0.8880
5.048144 0.8900 0.8900 0.8900 0.8900 0.8850
5.081000 0.8810 0.8800 0.8780 0.8780 0.8760
5.114144 0.8750 0.8750 0.8730 0.8660 0.8600
5.147000 0.8510 0.8460 0.8330 0.8310 0.8310
5.180144 0.8330 0.8330 0.8350 0.8360 0.8380
5.213000 0.8400 0.8410 0.8430 0.8450 0.8460
5.246144 0.8500 0.8550 0.8560 0.8580 0.8580
5.280000 0.8600 0.8650 0.8750 0.8800 0.8850
5.313144 0.8880 0.8880 0.8830 0.8750 0.8710
5.346000 0.8650 0.8610 0.8600 0.8580 0.8550
5.379144 0.8480 0.8480 0.8500 0.8550 0.8610
5.412000 0.8680 0.8700 0.8700 0.8700 0.8710
5.445144 0.8710 0.8730 0.8760 0.8810 0.8810
5.478000 0.8830 0.8830 0.8830 0.8830 0.8830
5.511144 0.8830 0.8810 0.8800 0.8780 0.8780
5.545000 0.8780 0.8760 0.8700 0.8510 0.8500
5.578144 0.8480 0.8480 0.8480 0.8510 0.8560
5.611000 0.8560 0.8580 0.8610 0.8610 0.8610
5.644144 0.8610 0.8610 0.8610 0.8650 0.8650
5.677000 0.8610 0.8600 0.8550 0.8510 0.8450
5.710144 0.8410 0.8380 0.8360 0.8360 0.8360
5.743000 0.8360 0.8360 0.8350 0.8350 0.8350
5.776144 0.8350 0.8330 0.8330 0.8330 0.8330
5.810000 0.8330 0.8330 0.8330 0.8330 0.8310
5.843144 0.8310 0.8280 0.8260 0.8230 0.8200
5.876000 0.8200 0.8180 0.8180 0.8200 0.8200
5.909144 0.8200 0.8200 0.8200 0.8150 0.8130
5.942000 0.8130 0.8150 0.8150 0.8100 0.8010
5.975144 0.7970 0.7950 0.7930 0.7930 0.7920
6.009000 0.7870 0.7780 0.7650 0.7600 0.7580
6.042144 0.7570 0.7570 0.7570 0.7500 0.7120
6.075000 0.6920 0.6700 0.6600 0.6480 0.6230
6.108144 0.5950 0.5540 0.4950 0.3440 0.3010
6.141000 0.2560 0.2020 0.1890 0.1810 0.1710
6.174144 0.1560 0.1340 0.1010 0.0790 0.0680
6.207000 0.0490 0.0480 0.0490 0.0690 0.1010
6.240144 0.1330 0.1580 0.1740 0.1960 0.2220
6.274000 0.2520 0.2840 0.3190 0.3920 0.4250
6.307144 0.4600 0.4900 0.5100 0.5350 0.5520
6.340000 0.5740 0.5950 0.6150 0.6300 0.6320
6.373144 0.6300 0.6180 0.6070 0.5900 0.5470
6.406000 0.4850 0.4470 0.4050 0.3510 0.2810
6.439144 0.2110 0.2070 0.2110 0.2440 0.2710
6.472000 0.3020 0.3260 0.3910 0.4200 0.4520
6.505144 0.4850 0.5150 0.5420 0.5570 0.5700
6.539000 0.5770 0.5790 0.5820 0.5840 0.5870
6.572144 0.5820 0.5550 0.5170 0.4800 0.4520
6.605000 0.4240 0.3910 0.3360 0.2790 0.1690
6.638144 0.1260 0.1010 0.0840 0.0710 0.0610
6.671000 0.0510 0.0480 0.0460 0.0460 0.0490
6.704144 0.0560 0.0660 0.0840 0.1090 0.1380
6.737000 0.1710 0.2060 0.2410 0.2710 0.2990
6.770144 0.3210 0.3360 0.3340 0.3320 0.3290
6.804000 0.3190 0.3110 0.3020 0.3010 0.3010
6.837144 0.2990 0.2990 0.2910 0.2810 0.2710
6.870000 0.2620 0.2610 0.2620 0.2710 0.2790
6.903144 0.2960 0.3060 0.3260 0.3460 0.3510
6.936000 0.3520 0.3510 0.3390 0.3310 0.3220
6.969144 0.3060 0.2960 0.2870 0.2710 0.2490
7.002000 0.2240 0.1940 0.1660 0.1430 0.1210
7.035144 0.1060 0.0960 0.0780 0.0640 0.0610
7.069000 0.0540 0.0490 0.0480 0.0480 0.0480
7.102144 0.0490 0.0490 0.0490 0.0510 0.0540
7.135000 0.0590 0.0610 0.0690 0.0740 0.0830
7.168144 0.0990 0.1210 0.1490 0.1780 0.2040
7.201000 0.2290 0.2490 0.2610 0.2910 0.3190
7.234144 0.3670 0.3910 0.4100 0.4370 0.4520
7.267000 0.4640 0.4720 0.4840 0.4970 0.5070
7.300144 0.5150 0.5190 0.5220 0.5220 0.5190
7.334000 0.5100 0.5020 0.4900 0.4740 0.4520
7.367144 0.4220 0.3910 0.3710 0.3590 0.3310
7.400000 0.3020 0.2640 0.2260 0.2070 0.1960
7.433144 0.1830 0.1730 0.1630 0.1610 0.1610
7.466000 0.1660 0.1790 0.1960 0.2070 0.2270
7.499144 0.2460 0.2570 0.2760 0.2920 0.3020
7.532000 0.3160 0.3210 0.3210 0.3190 0.3160
7.565144 0.3070 0.2960 0.2760 0.2640 0.2560
7.599000 0.2270 0.2110 0.2060 0.1960 0.1840
7.632144 0.1760 0.1680 0.1640 0.1580 0.1540
7.665000 0.1530 0.1510 0.1490 0.1480 0.1480
7.698144 0.1480 0.1480 0.1480 0.1490 0.1530
7.731000 0.1540 0.1590 0.1630 0.1660 0.1630
7.764144 0.1610 0.1540 0.1490 0.1440 0.1360
7.797000 0.1210 0.1080 0.0990 0.0910 0.0780
7.830144 0.0680 0.0610 0.0590 0.0580 0.0560
7.864000 0.0540 0.0530 0.0530 0.0510 0.0510
7.897144 0.0510 0.0510 0.0510 0.0510 0.0510
7.930000 0.0510 0.0510 0.0510 0.0510 0.0510
7.963144 0.0510 0.0510 0.0510 0.0530 0.0610
7.996000 0.0740 0.0880 0.1010 0.1160 0.1310
8.029144 0.1480 0.1630 0.1790 0.1940 0.2110
8.062000 0.2320 0.2460 0.2610 0.2760 0.2920
8.095144 0.2990 0.3090 0.3110 0.3110 0.3020
8.129000 0.2910 0.2660 0.2410 0.2140 0.1840
8.162144 0.1560 0.1290 0.1090 0.0940 0.0730
8.195000 0.0560 0.0490 0.0480 0.0480 0.0480
8.228144 0.0480 0.0480 0.0490 0.0610 0.0710
8.261000 0.0810 0.0980 0.1160 0.1390 0.1630
8.294144 0.1830 0.2010 0.2140 0.2190 0.2210
8.327000 0.2220 0.2220 0.2220 0.2210 0.2190
8.360144 0.2140 0.2090 0.2070 0.2060 0.2040
8.394000 0.2040 0.2040 0.2060 0.2070 0.2090
8.427144 0.2090 0.2090 0.2070 0.1990 0.1880
8.460000 0.1790 0.1710 0.1590 0.1460 0.1360
8.493144 0.1240 0.1060 0.0980 0.0840 0.0730
8.526000 0.0690 0.0610 0.0580 0.0580 0.0580
8.559144 0.0580 0.0590 0.0610 0.0640 0.0710
8.593000 0.0780 0.0880 0.0990 0.1030 0.1090
8.626144 0.1180 0.1460 0.1680 0.1840 0.1960
8.659000 0.2040 0.2260 0.2460 0.2640 0.2840
8.692144 0.3010 0.3170 0.3290 0.3510 0.3590
8.725000 0.3620 0.3670 0.3690 0.3690 0.3610
8.758144 0.3440 0.3290 0.3140 0.2840 0.2690
8.791000 0.2340 0.1910 0.1740 0.1610 0.1490
8.824144 0.1360 0.1280 0.1190 0.1090 0.1060
8.858000 0.1060 0.1080 0.1130 0.1240 0.1440
8.891144 0.1710 0.2010 0.2360 0.2740 0.3120
8.924000 0.3890 0.4250 0.4590 0.4870 0.5100
8.957144 0.5250 0.5400 0.5500 0.5570 0.5620
8.990000 0.5700 0.5790 0.5900 0.6050 0.6100
9.023144 0.6130 0.6200 0.6270 0.6370 0.6450
9.056000 0.6500 0.6500 0.6430 0.6350 0.6320
9.089144 0.6300 0.6200 0.6050 0.5870 0.5800
9.123000 0.5790 0.5790 0.5800 0.5820 0.5900
9.156144 0.5970 0.6000 0.6030 0.6100 0.6120
9.189000 0.6130 0.6130 0.6020 0.5850 0.5740
9.222144 0.5570 0.5350 0.5070 0.4990 0.4870
9.255000 0.4620 0.4590 0.4520 0.4500 0.4490
9.288144 0.4490 0.4600 0.4770 0.4970 0.5320
9.321000 0.5620 0.5940 0.6170 0.6380 0.6550
9.354144 0.6870 0.7000 0.7130 0.7300 0.7370
9.388000 0.7420 0.7470 0.7500 0.7520 0.7530
9.421144 0.7620 0.7720 0.7750 0.7750 0.7770
9.454000 0.7800 0.7820 0.7820 0.7830 0.7830
9.487144 0.7830 0.7820 0.7800 0.7800 0.7800
9.520000 0.7800 0.7780 0.7780 0.7780 0.7780
9.553144 0.7800 0.7800 0.7800 0.7800 0.7800
9.586000 0.7770 0.7730 0.7700 0.7670 0.7630
9.619144 0.7600 0.7550 0.7500 0.7480 0.7450
9.653000 0.7400 0.7400 0.7330 0.7180 0.7000
9.686144 0.6770 0.6650 0.6520 0.6230 0.5970
9.719000 0.5700 0.5350 0.5070 0.4800 0.4690
9.752144 0.4690 0.4720 0.4870 0.5090 0.5270
9.785000 0.5450 0.5620 0.5800 0.5950 0.6070
9.818144 0.6120 0.6120 0.6130 0.6200 0.6230
9.851000 0.6230 0.6200 0.6100 0.6030 0.6020
9.884144 0.6000 0.5970 0.5970 0.5950 0.5950
9.918000 0.5920 0.5800 0.5650 0.5450 0.5250
9.951144 0.5120 0.5120 0.5270 0.5570 0.5800
9.984000 0.6050 0.6180 0.6280 0.6320 0.6350
10.017144 0.6350 0.6320 0.6270 0.6130 0.6120
10.050000 0.6120 0.6130 0.6130 0.6150 0.6120
10.083144 0.6120 0.6130 0.6180 0.6180 0.6180
10.116000 0.6180 0.6130 0.6070 0.6020 0.5990
10.149144 0.5890 0.5750 0.5650 0.5520 0.5440
10.183000 0.5370 0.5170 0.4950 0.4800 0.4690
10.216144 0.4500 0.4200 0.3910 0.3610 0.3340
10.249000 0.3210 0.3070 0.2840 0.2610 0.2410
10.282144 0.2220 0.2110 0.1890 0.1760 0.1630
10.315000 0.1490 0.1390 0.1310 0.1260 0.1230
10.348144 0.1210 0.1210 0.1230 0.1260 0.1310
10.381000 0.1380 0.1460 0.1610 0.1790 0.1990
10.414144 0.2120 0.2270 0.2470 0.2690 0.2920
10.448000 0.3160 0.3740 0.3960 0.4150 0.4350
10.481144 0.4550 0.4770 0.4990 0.5170 0.5320
10.514000 0.5400 0.5500 0.5600 0.5720 0.5850
10.547144 0.5990 0.6050 0.6120 0.6220 0.6350
10.580000 0.6470 0.6580 0.6650 0.6900 0.6970
10.613144 0.6980 0.7000 0.7080 0.7120 0.7180
10.646000 0.7220 0.7230 0.7250 0.7280 0.7300
10.679144 0.7330 0.7330 0.7350 0.7370 0.7370
10.713000 0.7380 0.7380 0.7380 0.7380 0.7380
10.746144 0.7380 0.7370 0.7350 0.7330 0.7320
10.779000 0.7300 0.7300 0.7280 0.7180 0.7080
10.812144 0.6970 0.6800 0.6720 0.6670 0.6600
10.845000 0.6430 0.6220 0.6100 0.5970 0.5820
10.878144 0.5670 0.5520 0.5400 0.5270 0.5140
10.911000 0.5000 0.4890 0.4790 0.4540 0.4250
10.944144 0.4070 0.3970 0.3870 0.3710 0.3590
10.978000 0.3490 0.3440 0.3420 0.3420 0.3420
11.011144 0.3420 0.3460 0.3490 0.3570 0.3660
11.044000 0.3790 0.3820 0.3890 0.3970 0.3990
11.077144 0.4000 0.3990 0.3920 0.3910 0.3860
11.110000 0.3760 0.3690 0.3590 0.3510 0.3420
11.143144 0.3370 0.3340 0.3310 0.3270 0.3190
11.177000 0.3160 0.3140 0.3140 0.3160 0.3190
11.210144 0.3260 0.3290 0.3320 0.3470 0.3540
11.243000 0.3620 0.3670 0.3740 0.3790 0.3810
11.276144 0.3820 0.3870 0.3870 0.3890 0.3890
11.309000 0.3870 0.3840 0.3810 0.3790 0.3760
11.342144 0.3720 0.3710 0.3640 0.3590 0.3520
11.375000 0.3470 0.3340 0.3270 0.3190 0.3110
11.408144 0.3020 0.2960 0.2720 0.2510 0.2390
11.442000 0.2310 0.2220 0.2120 0.2020 0.1910
11.475144 0.1790 0.1710 0.1640 0.1590 0.1480
11.508000 0.1330 0.1290 0.1240 0.1190 0.1110
11.541144 0.1090 0.1040 0.0990 0.0930 0.0910
11.574000 0.0890 0.0890 0.0840 0.0810 0.0760
11.607144 0.0730 0.0730 0.0730 0.0730 0.0730
11.640000 0.0730 0.0730 0.0730 0.0730 0.0730
11.673144 0.0730 0.0740 0.0740 0.0740 0.0760
11.707000 0.0760 0.0790 0.0790 0.0790 0.0760
11.740144 0.0740 0.0740 0.0740 0.0740 0.0790
11.773000 0.0810 0.0830 0.0830 0.0830 0.0790
11.806144 0.0790 0.0760 0.0760 0.0780 0.0780
11.839000 0.0790 0.0790 0.0790 0.0790 0.0780
11.872144 0.0760 0.0760 0.0760 0.0740 0.0730
11.905000 0.0730 0.0710 0.0690 0.0690 0.0710
11.938144 0.0710 0.0710 0.0730 0.0730 0.0730
11.972000 0.0730 0.0740 0.0740 0.0760 0.0790
12.005144 0.0840 0.0890 0.0910 0.0930 0.0960
12.038000 0.0980 0.0990 0.1010 0.1040 0.1060
12.071144 0.1090 0.1190 0.1330 0.1410 0.1490
12.104000 0.1530 0.1560 0.1640 0.1740 0.1830
12.137144 0.1910 0.2020 0.2160 0.2290 0.2340
12.170000 0.2410 0.2520 0.2640 0.2670 0.2810
12.203144 0.2910 0.3090 0.3140 0.3210 0.3310
12.237000 0.3520 0.3670 0.3860 0.3940 0.4000
12.270144 0.4100 0.4200 0.4320 0.4400 0.4490
12.303000 0.4590 0.4640 0.4670 0.4720 0.4800
12.336144 0.4890 0.4920 0.5000 0.5090 0.5120
12.369000 0.5190 0.5190 0.5200 0.5220 0.5220
12.402144 0.5250 0.5270 0.5320 0.5350 0.5390
12.435000 0.5390 0.5400 0.5440 0.5450 0.5470
12.468144 0.5500 0.5500 0.5500 0.5500 0.5470
12.502000 0.5470 0.5440 0.5400 0.5390 0.5340
12.535144 0.5300 0.5200 0.5190 0.5190 0.5140
12.568000 0.5040 0.5000 0.4990 0.4920 0.4850
12.601144 0.4740 0.4620 0.4550 0.4420 0.4300
12.634000 0.4170 0.4090 0.3970 0.3820 0.3660
12.667144 0.3520 0.3410 0.3370 0.3320 0.3270
12.700000 0.3210 0.3210 0.3190 0.3120 0.3090
12.733144 0.3090 0.3090 0.3090 0.3110 0.3110
12.767000 0.3120 0.3140 0.3120 0.3070 0.3070
12.800144 0.3090 0.3120 0.3160 0.3170 0.3170
12.833000 0.3160 0.3160 0.3140 0.3140 0.3120
12.866144 0.3110 0.3090 0.3090 0.3090 0.3110
12.899000 0.3120 0.3120 0.3110 0.3110 0.3090
12.932144 0.3070 0.3040 0.3020 0.3010 0.2990
12.965000 0.2970 0.2970 0.2960 0.2960 0.2960
12.998144 0.2940 0.2920 0.2920 0.2890 0.2870
13.032000 0.2840 0.2820 0.2790 0.2770 0.2760
13.065144 0.2740 0.2720 0.2720 0.2710 0.2710
13.098000 0.2710 0.2710 0.2690 0.2690 0.2670
13.131144 0.2670 0.2610 0.2570 0.2520 0.2490
13.164000 0.2410 0.2390 0.2390 0.2390 0.2390
13.197144 0.2370 0.2340 0.2310 0.2290 0.2270
13.230000 0.2270 0.2240 0.2240 0.2220 0.2220
13.263144 0.2210 0.2210 0.2210 0.2210 0.2210
13.297000 0.2210 0.2220 0.2270 0.2310 0.2340
13.330144 0.2390 0.2440 0.2490 0.2520 0.2540
13.363000 0.2610 0.2720 0.2810 0.2870 0.2990
13.396144 0.3020 0.3090 0.3120 0.3210 0.3320
13.429000 0.3420 0.3440 0.3490 0.3520 0.3540
13.462144 0.3570 0.3690 0.3790 0.3860 0.3870
13.496000 0.3890 0.3960 0.3990 0.4020 0.4090
13.529144 0.4100 0.4170 0.4220 0.4290 0.4320
13.562000 0.4390 0.4420 0.4490 0.4520 0.4620
13.595144 0.4750 0.4870 0.4970 0.5000 0.5100
13.628000 0.5170 0.5270 0.5450 0.5540 0.5600
13.661144 0.5640 0.5720 0.5800 0.5870 0.5940
13.694000 0.6020 0.6130 0.6220 0.6270 0.6280
13.727144 0.6320 0.6350 0.6400 0.6430 0.6520
13.761000 0.6600 0.6620 0.6630 0.6720 0.6730
13.794144 0.6750 0.6780 0.6820 0.6850 0.6870
13.827000 0.6880 0.6900 0.6900 0.6900 0.6900
13.860144 0.6900 0.6930 0.6950 0.6970 0.7000
13.893000 0.7000 0.6980 0.6970 0.6950 0.6950
13.926144 0.6950 0.6970 0.6980 0.6970 0.6920
13.959000 0.6900 0.6870 0.6870 0.6870 0.6870
13.992144 0.6850 0.6830 0.6820 0.6800 0.6750
14.026000 0.6730 0.6700 0.6670 0.6670 0.6670
14.059144 0.6650 0.6650 0.6650 0.6630 0.6620
14.092000 0.6600 0.6570 0.6550 0.6520 0.6520
14.125144 0.6470 0.6420 0.6350 0.6330 0.6300
14.158000 0.6250 0.6220 0.6200 0.6120 0.6050
14.191144 0.5940 0.5840 0.5800 0.5740 0.5700
14.224000 0.5640 0.5570 0.5390 0.5300 0.5240
14.257144 0.5150 0.5040 0.4970 0.4840 0.4740
14.291000 0.4620 0.4470 0.4300 0.4170 0.4100
14.324144 0.4000 0.3910 0.3790 0.3660 0.3510
14.357000 0.3340 0.3260 0.3160 0.3020 0.2940
14.390144 0.2870 0.2820 0.2610 0.2470 0.2410
14.423000 0.2340 0.2310 0.2290 0.2220 0.2210
14.456144 0.2210 0.2210 0.2190 0.2190 0.2190
14.489000 0.2190 0.2190 0.2190 0.2190 0.2190
14.522144 0.2210 0.2260 0.2320 0.2390 0.2410
14.556000 0.2420 0.2490 0.2510 0.2560 0.2590
14.589144 0.2610 0.2640 0.2670 0.2710 0.2710
14.622000 0.2740 0.2810 0.2910 0.2990 0.3010
14.655144 0.3040 0.3140 0.3210 0.3270 0.3410
14.688000 0.3440 0.3490 0.3620 0.3790 0.3960
14.721144 0.4050 0.4190 0.4300 0.4400 0.4540
14.754000 0.4690 0.4820 0.4970 0.5070 0.5220
14.787144 0.5320 0.5490 0.5670 0.5820 0.5950
14.821000 0.5970 0.6030 0.6170 0.6280 0.6400
14.854144 0.6430 0.6480 0.6550 0.6620 0.6720
14.887000 0.6780 0.6880 0.6950 0.6970 0.6980
14.920144 0.7020 0.7030 0.7050 0.7070 0.7100
14.953000 0.7130 0.7150 0.7170 0.7180 0.7170
14.986144 0.7150 0.7130 0.7120 0.7070 0.7070
15.019000 0.7050 0.7050 0.7030 0.7030 0.7000
15.052144 0.6950 0.6920 0.6850 0.6780 0.6750
15.086000 0.6730 0.6720 0.6700 0.6700 0.6720
15.119144 0.6750 0.6820 0.6830 0.6850 0.6850
15.152000 0.6880 0.6880 0.6920 0.6950 0.7000
15.185144 0.7050 0.7200 0.7270 0.7300 0.7300
15.218000 0.7300 0.7300 0.7350 0.7420 0.7430
15.251144 0.7450 0.7470 0.7470 0.7480 0.7480
15.284000 0.7520 0.7530 0.7550 0.7550 0.7580
15.317144 0.7600 0.7620 0.7650 0.7670 0.7680
15.351000 0.7700 0.7720 0.7720 0.7720 0.7700
15.384144 0.7680 0.7680 0.7680 0.7680 0.7680
15.417000 0.7700 0.7700 0.7700 0.7720 0.7730
15.450144 0.7750 0.7750 0.7770 0.7800 0.7820
15.483000 0.7800 0.7780 0.7730 0.7730 0.7730
15.516144 0.7730 0.7730 0.7750 0.7750 0.7770
15.549000 0.7770 0.7770 0.7770 0.7770 0.7770
15.582144 0.7770 0.7800 0.7820 0.7820 0.7780
15.616000 0.7770 0.7770 0.7770 0.7770 0.7780
15.649144 0.7780 0.7800 0.7800 0.7800 0.7820
15.682000 0.7820 0.7800 0.7800 0.7780 0.7780
15.715144 0.7780 0.7800 0.7800 0.7800 0.7800
15.748000 0.7800 0.7800 0.7800 0.7770 0.7770
15.781144 0.7750 0.7730 0.7730 0.7720 0.7700
15.814000 0.7700 0.7700 0.7720 0.7720 0.7720
15.847144 0.7750 0.7750 0.7730 0.7720 0.7700
15.881000 0.7680 0.7630 0.7620 0.7620 0.7620
15.914144 0.7600 0.7600 0.7580 0.7580 0.7570
15.947000 0.7570 0.7570 0.7570 0.7550 0.7530
15.980144 0.7570 0.7550
##END=
