##TITLE=1,1'-BIS(CARBAZIDO) FERROCENE
##JCAMP-DX=4.24
##DATA TYPE=INFRARED SPECTRUM
##CLASS=COBLENTZ
##ORIGIN=WYANDOTTE CHEMICALS CORP., WYANDOTTE, MICHIGAN, USA
##OWNER=COBLENTZ SOCIETY
Collection (C) 2018 copyright by the U.S. Secretary of Commerce
on behalf of the United States of America. All rights reserved.
##DATE=Not specified, most likely prior to 1970
##MOLFORM=C12 H8 Fe N6 O2
##SOURCE REFERENCE=COBLENTZ NO. 3136
##$NIST ID=B6003136
##$NIST SOURCE=COBLENTZ
##$NIST IMAGE=cob3136
##SPECTROMETER/DATA SYSTEM=Not specified, most likely a prism, grating, or hybrid spectrometer.
##STATE=SOLID (MINERAL OIL MULL)
##PATH LENGTH=
$$SPECTRAL CONTAMINATION DUE TO OIL AROUND 2900 CM^-^1
##SAMPLING PROCEDURE=TRANSMISSION
##RESOLUTION=4
##DATA PROCESSING=DIGITIZED BY NIST FROM HARD COPY
##XUNITS=MICROMETERS
##YUNITS=TRANSMITTANCE
##XFACTOR=1.000000
##YFACTOR=1
##DELTAX=000.006803
##FIRSTX=2.027
##LASTX=15.9798
##FIRSTY=0.716
##MAXX=15.9798
##MINX=2.027
##MAXY=0.953
##MINY=0.052
##NPOINTS=2052
##XYDATA=(X++(Y..Y))
2.027000 0.7160 0.7190 0.7230 0.7260 0.7280
2.061030 0.7280 0.7290 0.7290 0.7310 0.7310
2.095000 0.7350 0.7350 0.7360 0.7360 0.7360
2.129030 0.7380 0.7380 0.7380 0.7350 0.7350
2.163000 0.7410 0.7430 0.7470 0.7470 0.7470
2.197030 0.7470 0.7450 0.7450 0.7430 0.7410
2.231000 0.7410 0.7410 0.7450 0.7480 0.7470
2.265030 0.7480 0.7480 0.7520 0.7530 0.7550
2.299000 0.7550 0.7520 0.7530 0.7580 0.7620
2.333030 0.7640 0.7670 0.7720 0.7720 0.7640
2.367000 0.7650 0.7700 0.8060 0.7960 0.7770
2.401030 0.7570 0.7520 0.7650 0.7770 0.7790
2.435000 0.7790 0.7770 0.7770 0.7770 0.7740
2.469030 0.7720 0.7690 0.7720 0.7700 0.7690
2.503000 0.7650 0.7650 0.7720 0.7790 0.7810
2.537030 0.7820 0.7790 0.7760 0.7760 0.7790
2.571000 0.7790 0.7820 0.7860 0.7960 0.8060
2.605030 0.8080 0.8050 0.8000 0.7960 0.7910
2.639000 0.7910 0.7960 0.8050 0.8100 0.8150
2.673030 0.8180 0.8180 0.8130 0.8000 0.8050
2.707000 0.8110 0.8220 0.8220 0.8180 0.8110
2.741030 0.8100 0.8100 0.8170 0.8170 0.8110
2.776000 0.8060 0.8000 0.8050 0.8110 0.8150
2.810030 0.8170 0.8150 0.8130 0.8130 0.8110
2.844000 0.8110 0.8100 0.8000 0.7980 0.8000
2.878030 0.8050 0.8050 0.8030 0.8010 0.8010
2.912000 0.8010 0.8010 0.8000 0.7980 0.7960
2.946030 0.7960 0.7960 0.8000 0.8000 0.7930
2.980000 0.7860 0.7820 0.7810 0.7810 0.7770
3.014030 0.7740 0.7650 0.7620 0.7620 0.7860
3.048000 0.7860 0.7700 0.7700 0.7760 0.7810
3.082030 0.7810 0.7810 0.7810 0.7820 0.7840
3.116000 0.7840 0.7840 0.7840 0.7820 0.7820
3.150030 0.7810 0.7810 0.7810 0.7790 0.7790
3.184000 0.7770 0.7770 0.7760 0.7670 0.7600
3.218030 0.7530 0.7260 0.6750 0.6630 0.6630
3.252000 0.7110 0.7820 0.7880 0.7650 0.7720
3.286030 0.7720 0.7720 0.7700 0.7600 0.7570
3.320000 0.7470 0.7280 0.7070 0.6870 0.6660
3.354030 0.6340 0.4800 0.4390 0.3790 0.3190
3.388000 0.2590 0.2000 0.1980 0.1930 0.1880
3.422030 0.1760 0.1550 0.1550 0.1880 0.2050
3.456000 0.2470 0.2730 0.3110 0.3470 0.3860
3.490030 0.3910 0.3910 0.3770 0.3570 0.3480
3.524000 0.3450 0.3480 0.4590 0.5330 0.6050
3.558030 0.6900 0.7570 0.7960 0.8050 0.8050
3.592000 0.8250 0.8410 0.8470 0.8540 0.8590
3.626030 0.8630 0.8640 0.8630 0.8640 0.8700
3.660000 0.8700 0.8640 0.8590 0.8590 0.8590
3.694030 0.8590 0.8640 0.8510 0.8510 0.8660
3.728000 0.8660 0.8590 0.8590 0.8590 0.8590
3.762030 0.8610 0.8630 0.8640 0.8680 0.8700
3.796000 0.8700 0.8750 0.8780 0.8820 0.8820
3.830030 0.8800 0.8820 0.8820 0.8850 0.8850
3.864000 0.8900 0.8900 0.8940 0.8950 0.8950
3.898030 0.8970 0.8970 0.8970 0.8950 0.8950
3.932000 0.9070 0.9070 0.8990 0.9000 0.9000
3.966030 0.9040 0.9020 0.9020 0.8990 0.8990
4.000000 0.8990 0.8990 0.8990 0.8990 0.9000
4.034030 0.9050 0.9050 0.9000 0.9000 0.9000
4.068000 0.9000 0.9000 0.9000 0.9000 0.9000
4.102030 0.9000 0.9000 0.9000 0.9000 0.9000
4.136000 0.9000 0.9020 0.9070 0.9070 0.9090
4.170030 0.9090 0.9070 0.9070 0.9070 0.9070
4.204000 0.9050 0.9040 0.9020 0.9000 0.8990
4.238030 0.8990 0.8990 0.8870 0.8710 0.8630
4.272000 0.8560 0.8540 0.8520 0.8520 0.8510
4.306030 0.8510 0.8520 0.8540 0.8540 0.8520
4.340000 0.8540 0.8540 0.8580 0.8630 0.8700
4.374030 0.8750 0.8800 0.8850 0.8950 0.9040
4.408000 0.9070 0.9090 0.9090 0.9090 0.9070
4.442030 0.9070 0.9070 0.9040 0.9040 0.9000
4.476000 0.8970 0.8920 0.8880 0.8820 0.8750
4.510030 0.8710 0.8630 0.8540 0.8410 0.8370
4.544000 0.8370 0.8420 0.8590 0.8730 0.8760
4.578030 0.8760 0.8780 0.8700 0.8560 0.8520
4.612000 0.8490 0.8540 0.8510 0.8410 0.8220
4.646030 0.7760 0.7310 0.6660 0.6250 0.5860
4.680000 0.5770 0.5770 0.5810 0.6270 0.6270
4.714030 0.5410 0.4110 0.3070 0.1980 0.1620
4.748000 0.1620 0.2660 0.3960 0.4990 0.5890
4.782030 0.6640 0.6950 0.7380 0.7740 0.7820
4.816000 0.7910 0.8030 0.8170 0.8220 0.8220
4.850030 0.8230 0.8230 0.8250 0.8320 0.8390
4.884000 0.8490 0.8610 0.8700 0.8700 0.8710
4.918030 0.8710 0.8750 0.8800 0.8800 0.8820
4.952000 0.8830 0.8880 0.8920 0.8940 0.8970
4.986030 0.8990 0.8990 0.9000 0.9020 0.9090
5.020000 0.9090 0.9050 0.9050 0.9050 0.9040
5.054030 0.9050 0.9070 0.9090 0.9090 0.9090
5.088000 0.9050 0.9040 0.9070 0.9120 0.9140
5.122030 0.9160 0.9170 0.9190 0.9210 0.9260
5.156000 0.9280 0.9290 0.9280 0.9260 0.9260
5.190030 0.9260 0.9280 0.9310 0.9350 0.9350
5.224000 0.9330 0.9350 0.9350 0.9360 0.9360
5.258030 0.9330 0.9360 0.9430 0.9450 0.9500
5.293000 0.9500 0.9500 0.9500 0.9450 0.9430
5.327030 0.9430 0.9410 0.9350 0.9240 0.9230
5.361000 0.9240 0.9360 0.9380 0.9360 0.9310
5.395030 0.9310 0.9360 0.9430 0.9500 0.9520
5.429000 0.9520 0.9520 0.9520 0.9500 0.9450
5.463030 0.9450 0.9470 0.9530 0.9500 0.9480
5.497000 0.9430 0.9410 0.9350 0.9290 0.9260
5.531030 0.9230 0.9280 0.9240 0.9210 0.9190
5.565000 0.9210 0.9210 0.9160 0.9110 0.9000
5.599030 0.8990 0.8990 0.8990 0.9000 0.9020
5.633000 0.9050 0.9050 0.9040 0.9040 0.8990
5.667030 0.8990 0.9050 0.9280 0.9170 0.9110
5.701000 0.9000 0.9050 0.9050 0.9070 0.9090
5.735030 0.9090 0.9090 0.9070 0.8990 0.8900
5.769000 0.8880 0.8870 0.8850 0.8800 0.8710
5.803030 0.8520 0.8350 0.8320 0.8300 0.8170
5.837000 0.8060 0.7980 0.7890 0.7810 0.7670
5.871030 0.7520 0.7280 0.6970 0.6410 0.5450
5.905000 0.4490 0.3860 0.2540 0.1530 0.1170
5.939030 0.1120 0.1090 0.1050 0.1050 0.1110
5.973000 0.1600 0.2440 0.2950 0.3930 0.4820
6.007030 0.5520 0.5820 0.6060 0.6230 0.6390
6.041000 0.6510 0.6710 0.6900 0.7110 0.7190
6.075030 0.7210 0.7240 0.7360 0.7600 0.7910
6.109000 0.8110 0.8220 0.8220 0.8170 0.8170
6.143030 0.8180 0.8270 0.8320 0.8340 0.8340
6.177000 0.8320 0.8340 0.8370 0.8390 0.8410
6.211030 0.8420 0.8420 0.8420 0.8390 0.8390
6.245000 0.8420 0.8510 0.8540 0.8590 0.8630
6.279030 0.8630 0.8640 0.8680 0.8680 0.8700
6.313000 0.8700 0.8710 0.8710 0.8700 0.8700
6.347030 0.8730 0.8780 0.8800 0.8800 0.8780
6.381000 0.8800 0.8800 0.8820 0.8880 0.8880
6.415030 0.8880 0.8870 0.8850 0.8780 0.8710
6.449000 0.8640 0.8640 0.8660 0.8680 0.8700
6.483030 0.8710 0.8710 0.8710 0.8700 0.8700
6.517000 0.8680 0.8660 0.8640 0.8630 0.8610
6.551030 0.8630 0.8640 0.8700 0.8710 0.8730
6.585000 0.8710 0.8640 0.8580 0.8520 0.8510
6.619030 0.8510 0.8540 0.8540 0.8520 0.8350
6.653000 0.8180 0.8030 0.7940 0.7910 0.7910
6.687030 0.7940 0.8030 0.8230 0.8340 0.8340
6.721000 0.8200 0.8050 0.8000 0.7940 0.7760
6.755030 0.7550 0.7290 0.7000 0.6320 0.5690
6.789000 0.5470 0.5290 0.5120 0.5090 0.4340
6.823030 0.4250 0.3960 0.3640 0.3160 0.2660
6.857000 0.1980 0.1580 0.1600 0.1880 0.2250
6.891030 0.2700 0.3160 0.3600 0.4060 0.4540
6.925000 0.5000 0.5470 0.5930 0.6370 0.6800
6.959030 0.7090 0.7360 0.7600 0.7820 0.7880
6.993000 0.7980 0.8130 0.8220 0.8250 0.8270
7.027030 0.8250 0.8220 0.8200 0.8200 0.8230
7.061000 0.8230 0.8230 0.8200 0.8180 0.8130
7.095030 0.8050 0.7860 0.7480 0.7140 0.6900
7.129000 0.6610 0.6510 0.6560 0.7000 0.7280
7.163030 0.7550 0.7720 0.7740 0.7740 0.7740
7.197000 0.7670 0.7500 0.7260 0.6950 0.6640
7.231030 0.6230 0.5740 0.5350 0.4660 0.4200
7.265000 0.3890 0.3880 0.3910 0.4150 0.4370
7.299030 0.4660 0.5260 0.6050 0.6590 0.6850
7.333000 0.7050 0.7260 0.7500 0.7720 0.7810
7.367030 0.7810 0.7760 0.7760 0.7760 0.7740
7.401000 0.7700 0.7690 0.7690 0.7720 0.7760
7.435030 0.7720 0.7720 0.7720 0.7760 0.7790
7.469000 0.7820 0.7940 0.8050 0.8150 0.8170
7.503030 0.8150 0.8150 0.8150 0.8110 0.8130
7.537000 0.8180 0.8170 0.8130 0.8110 0.8080
7.571030 0.8060 0.8100 0.8110 0.8130 0.8180
7.605000 0.8180 0.8110 0.8150 0.8150 0.8170
7.639030 0.8180 0.8170 0.8130 0.8100 0.8100
7.673000 0.8050 0.8030 0.8010 0.8000 0.7910
7.707030 0.7740 0.7690 0.7620 0.7720 0.7670
7.741000 0.7600 0.7500 0.7360 0.7290 0.7170
7.775030 0.7050 0.6870 0.6750 0.6640 0.6520
7.810000 0.6300 0.5880 0.5620 0.5350 0.4870
7.844030 0.4370 0.4000 0.3700 0.3160 0.2640
7.878000 0.1550 0.1160 0.0900 0.0610 0.0520
7.912030 0.0520 0.0580 0.0640 0.0850 0.1110
7.946000 0.1410 0.1760 0.2130 0.2520 0.2950
7.980030 0.3360 0.3770 0.4370 0.5160 0.5620
8.014000 0.5930 0.6100 0.6220 0.6320 0.6460
8.048030 0.6660 0.6800 0.6880 0.6920 0.6990
8.082000 0.7090 0.7110 0.7090 0.7050 0.7020
8.116030 0.6940 0.6820 0.6680 0.6470 0.6230
8.150000 0.5890 0.5360 0.4940 0.4580 0.4320
8.184030 0.4200 0.4180 0.4180 0.4300 0.4590
8.218000 0.4710 0.4850 0.4900 0.4730 0.4520
8.252030 0.4250 0.3960 0.3570 0.3160 0.2780
8.286000 0.2580 0.2420 0.2200 0.1960 0.1760
8.320030 0.1570 0.1470 0.1280 0.1170 0.1000
8.354000 0.0940 0.0940 0.1000 0.1040 0.1050
8.388030 0.1050 0.1070 0.1110 0.1360 0.1430
8.422000 0.1450 0.1480 0.1550 0.1620 0.1820
8.456030 0.2130 0.2470 0.2710 0.3160 0.3620
8.490000 0.4030 0.4370 0.4700 0.4970 0.5230
8.524030 0.5430 0.5620 0.5770 0.5960 0.6150
8.558000 0.6220 0.6300 0.6340 0.6390 0.6440
8.592030 0.6460 0.6470 0.6490 0.6460 0.6460
8.626000 0.6420 0.6350 0.6270 0.6220 0.6230
8.660030 0.6320 0.6390 0.6420 0.6520 0.6660
8.694000 0.6820 0.6880 0.6990 0.7170 0.7280
8.728030 0.7350 0.7360 0.7400 0.7480 0.7550
8.762000 0.7600 0.7640 0.7690 0.7770 0.7840
8.796030 0.7880 0.7890 0.7910 0.7910 0.7930
8.830000 0.7940 0.7960 0.7980 0.7980 0.7980
8.864030 0.7980 0.7960 0.7700 0.7450 0.7190
8.898000 0.7090 0.6820 0.6520 0.6270 0.5930
8.932030 0.5880 0.5880 0.6000 0.6320 0.6610
8.966000 0.6820 0.6990 0.7110 0.7190 0.7240
9.000030 0.7280 0.7330 0.7400 0.7480 0.7530
9.034000 0.7570 0.7620 0.7650 0.7690 0.7720
9.068030 0.7760 0.7770 0.7770 0.7770 0.7770
9.102000 0.7770 0.7770 0.7770 0.7790 0.7790
9.136030 0.7770 0.7760 0.7760 0.7740 0.7740
9.170000 0.7720 0.7720 0.7720 0.7720 0.7720
9.204030 0.7700 0.7700 0.7690 0.7690 0.7670
9.238000 0.7650 0.7640 0.7640 0.7640 0.7640
9.272030 0.7620 0.7600 0.7600 0.7570 0.7500
9.306000 0.7430 0.7280 0.7160 0.6950 0.6640
9.340030 0.6250 0.5810 0.5260 0.4800 0.4290
9.374000 0.3790 0.3760 0.3700 0.3690 0.3670
9.408030 0.3190 0.2560 0.2220 0.1810 0.1760
9.442000 0.1770 0.1880 0.2130 0.2410 0.2710
9.476030 0.3090 0.3410 0.3890 0.4410 0.4950
9.510000 0.5450 0.5890 0.6200 0.6410 0.6580
9.544030 0.6730 0.6820 0.6880 0.6880 0.6880
9.578000 0.6820 0.6490 0.6340 0.6220 0.6050
9.612030 0.6000 0.6080 0.6300 0.6460 0.6580
9.646000 0.6680 0.6700 0.6700 0.6700 0.6610
9.680030 0.6590 0.6610 0.6660 0.6710 0.6830
9.714000 0.6950 0.7070 0.7170 0.7290 0.7400
9.748030 0.7500 0.7550 0.7600 0.7690 0.7700
9.782000 0.7770 0.7770 0.7790 0.7810 0.7820
9.816030 0.7820 0.7860 0.7890 0.7940 0.8000
9.850000 0.8050 0.8080 0.8100 0.8100 0.8110
9.884030 0.8110 0.8130 0.8110 0.8170 0.8180
9.918000 0.8180 0.8200 0.8200 0.8200 0.8200
9.952030 0.8200 0.8180 0.8080 0.8010 0.7960
9.986000 0.7880 0.7720 0.7430 0.7160 0.6940
10.020030 0.6750 0.6540 0.6320 0.6010 0.5620
10.054000 0.5290 0.5040 0.4750 0.4440 0.4010
10.088030 0.3600 0.3290 0.3050 0.2850 0.2750
10.122000 0.2680 0.2680 0.2710 0.2950 0.3190
10.156030 0.3450 0.3720 0.4000 0.4250 0.4520
10.190000 0.4780 0.5020 0.5430 0.5670 0.5820
10.224030 0.5930 0.6000 0.6050 0.6220 0.6340
10.259000 0.6460 0.6540 0.6700 0.6800 0.6880
10.293030 0.7000 0.7140 0.7210 0.7310 0.7410
10.327000 0.7500 0.7580 0.7670 0.7700 0.7720
10.361030 0.7720 0.7740 0.7810 0.7890 0.7940
10.395000 0.7980 0.8000 0.8010 0.8050 0.8110
10.429030 0.8130 0.8130 0.8170 0.8170 0.8180
10.463000 0.8180 0.8180 0.8200 0.8200 0.8200
10.497030 0.8200 0.8220 0.8220 0.8230 0.8230
10.531000 0.8250 0.8270 0.8290 0.8290 0.8300
10.565030 0.8320 0.8340 0.8350 0.8370 0.8390
10.599000 0.8390 0.8410 0.8410 0.8420 0.8440
10.633030 0.8490 0.8510 0.8520 0.8540 0.8520
10.667000 0.8510 0.8520 0.8560 0.8560 0.8580
10.701030 0.8580 0.8580 0.8580 0.8580 0.8560
10.735000 0.8540 0.8520 0.8510 0.8520 0.8520
10.769030 0.8540 0.8580 0.8590 0.8590 0.8560
10.803000 0.8560 0.8520 0.8520 0.8520 0.8510
10.837030 0.8490 0.8440 0.8390 0.8300 0.8220
10.871000 0.8200 0.8220 0.8340 0.8370 0.8420
10.905030 0.8490 0.8520 0.8520 0.8520 0.8520
10.939000 0.8560 0.8560 0.8520 0.8470 0.8390
10.973030 0.8340 0.8220 0.8100 0.8060 0.8030
11.007000 0.8050 0.8060 0.8130 0.8180 0.8200
11.041030 0.8180 0.8050 0.7980 0.7910 0.7790
11.075000 0.7620 0.7360 0.7040 0.6630 0.6100
11.109030 0.5650 0.5210 0.4870 0.4590 0.4520
11.143000 0.4520 0.4560 0.4610 0.4640 0.4610
11.177030 0.4520 0.4420 0.4320 0.4320 0.4370
11.211000 0.4850 0.5240 0.5600 0.5910 0.6220
11.245030 0.6510 0.6730 0.6900 0.7040 0.7210
11.279000 0.7310 0.7410 0.7500 0.7580 0.7640
11.313030 0.7700 0.7770 0.7790 0.7810 0.7790
11.347000 0.7810 0.7810 0.7820 0.7840 0.7860
11.381030 0.7840 0.7820 0.7740 0.7690 0.7530
11.415000 0.7360 0.7090 0.6900 0.6660 0.6440
11.449030 0.6220 0.6170 0.6170 0.6220 0.6520
11.483000 0.6780 0.7120 0.7450 0.7640 0.7700
11.517030 0.7760 0.7820 0.7890 0.7980 0.8100
11.551000 0.8130 0.8130 0.8150 0.8180 0.8220
11.585030 0.8290 0.8300 0.8300 0.8290 0.8290
11.619000 0.8270 0.8230 0.8150 0.8080 0.8030
11.653030 0.7960 0.7840 0.7600 0.7450 0.7240
11.687000 0.7000 0.6870 0.6700 0.6520 0.6510
11.721030 0.6540 0.6750 0.6940 0.7120 0.7350
11.755000 0.7470 0.7550 0.7620 0.7690 0.7690
11.789030 0.7740 0.7740 0.7670 0.7530 0.7410
11.823000 0.7310 0.7260 0.7210 0.7160 0.7090
11.857030 0.7000 0.6900 0.6730 0.6560 0.6390
11.891000 0.6150 0.5880 0.5500 0.5290 0.5050
11.925030 0.4850 0.4660 0.4560 0.4520 0.4580
11.959000 0.4680 0.4780 0.4940 0.5160 0.5470
11.993030 0.5790 0.6150 0.6490 0.6710 0.6950
12.027000 0.7000 0.7070 0.7090 0.7090 0.7090
12.061030 0.7070 0.7040 0.6950 0.6870 0.6700
12.095000 0.6320 0.5930 0.5550 0.5160 0.4920
12.129030 0.4640 0.4520 0.4510 0.4520 0.4610
12.163000 0.4710 0.4780 0.4780 0.4630 0.4440
12.197030 0.4180 0.3980 0.3700 0.3520 0.3520
12.231000 0.3700 0.4150 0.4640 0.5140 0.5570
12.265030 0.5980 0.6300 0.6540 0.6800 0.7040
12.299000 0.7160 0.7330 0.7410 0.7480 0.7550
12.333030 0.7700 0.8080 0.8100 0.8030 0.7810
12.367000 0.7790 0.7810 0.8050 0.8180 0.8220
12.401030 0.8220 0.8200 0.8200 0.8200 0.8220
12.435000 0.8270 0.8340 0.8320 0.8320 0.8300
12.469030 0.8300 0.8290 0.8290 0.8270 0.8250
12.503000 0.8270 0.8270 0.8270 0.8270 0.8270
12.537030 0.8250 0.8230 0.8220 0.8220 0.8200
12.571000 0.8200 0.8200 0.8200 0.8200 0.8200
12.605030 0.8200 0.8220 0.8220 0.8230 0.8250
12.639000 0.8250 0.8250 0.8250 0.8290 0.8320
12.673030 0.8420 0.8470 0.8490 0.8520 0.8520
12.707000 0.8520 0.8540 0.8540 0.8580 0.8590
12.741030 0.8610 0.8630 0.8630 0.8630 0.8660
12.776000 0.8660 0.8660 0.8660 0.8660 0.8630
12.810030 0.8610 0.8610 0.8610 0.8580 0.8580
12.844000 0.8590 0.8640 0.8700 0.8700 0.8660
12.878030 0.8660 0.8660 0.8660 0.8630 0.8590
12.912000 0.8580 0.8590 0.8630 0.8630 0.8660
12.946030 0.8660 0.8660 0.8660 0.8660 0.8660
12.980000 0.8660 0.8660 0.8640 0.8630 0.8610
13.014030 0.8610 0.8580 0.8580 0.8580 0.8660
13.048000 0.8660 0.8630 0.8580 0.8560 0.8590
13.082030 0.8590 0.8590 0.8590 0.8490 0.8490
13.116000 0.8540 0.8580 0.8610 0.8590 0.8580
13.150030 0.8560 0.8520 0.8510 0.8490 0.8460
13.184000 0.8460 0.8410 0.8390 0.8410 0.8470
13.218030 0.8470 0.8470 0.8420 0.8370 0.8290
13.252000 0.8200 0.8110 0.8010 0.7930 0.7840
13.286030 0.7700 0.7550 0.7350 0.7160 0.6900
13.320000 0.6580 0.6230 0.5880 0.5530 0.5190
13.354030 0.4920 0.4680 0.4540 0.4460 0.4440
13.388000 0.4440 0.4560 0.4710 0.4900 0.5120
13.422030 0.5380 0.5650 0.5910 0.6130 0.6320
13.456000 0.6440 0.6590 0.6850 0.7110 0.7330
13.490030 0.7450 0.7570 0.7720 0.7790 0.7860
13.524000 0.7960 0.8050 0.8110 0.8180 0.8200
13.558030 0.8220 0.8220 0.8250 0.8290 0.8370
13.592000 0.8410 0.8440 0.8460 0.8490 0.8520
13.626030 0.8540 0.8540 0.8580 0.8580 0.8580
13.660000 0.8580 0.8540 0.8540 0.8520 0.8520
13.694030 0.8520 0.8540 0.8540 0.8560 0.8590
13.728000 0.8590 0.8580 0.8540 0.8510 0.8540
13.762030 0.8630 0.8630 0.8590 0.8560 0.8580
13.796000 0.8590 0.8610 0.8660 0.8680 0.8680
13.830030 0.8680 0.8640 0.8610 0.8610 0.8640
13.864000 0.8680 0.8700 0.8700 0.8680 0.8660
13.898030 0.8680 0.8640 0.8640 0.8630 0.8640
13.932000 0.8680 0.8710 0.8710 0.8730 0.8730
13.966030 0.8750 0.8750 0.8750 0.8760 0.8760
14.000000 0.8780 0.8780 0.8800 0.8800 0.8800
14.034030 0.8820 0.8820 0.8830 0.8830 0.8830
14.068000 0.8830 0.8830 0.8850 0.8850 0.8850
14.102030 0.8850 0.8850 0.8850 0.8850 0.8870
14.136000 0.8870 0.8880 0.8900 0.8880 0.8880
14.170030 0.8880 0.8880 0.8880 0.8880 0.8880
14.204000 0.8900 0.8880 0.8880 0.8870 0.8850
14.238030 0.8820 0.8820 0.8800 0.8800 0.8800
14.272000 0.8800 0.8870 0.8870 0.8830 0.8780
14.306030 0.8780 0.8800 0.8820 0.8800 0.8780
14.340000 0.8760 0.8780 0.8780 0.8780 0.8760
14.374030 0.8760 0.8760 0.8760 0.8750 0.8710
14.408000 0.8700 0.8700 0.8700 0.8700 0.8710
14.442030 0.8760 0.8760 0.8750 0.8730 0.8710
14.476000 0.8700 0.8710 0.8710 0.8710 0.8700
14.510030 0.8680 0.8640 0.8660 0.8680 0.8660
14.544000 0.8660 0.8590 0.8560 0.8560 0.8590
14.578030 0.8630 0.8660 0.8680 0.8680 0.8680
14.612000 0.8640 0.8640 0.8630 0.8610 0.8610
14.646030 0.8610 0.8590 0.8580 0.8560 0.8560
14.680000 0.8560 0.8580 0.8590 0.8610 0.8630
14.714030 0.8640 0.8660 0.8640 0.8610 0.8590
14.748000 0.8540 0.8510 0.8470 0.8460 0.8460
14.782030 0.8460 0.8460 0.8460 0.8470 0.8470
14.816000 0.8490 0.8490 0.8470 0.8460 0.8440
14.850030 0.8440 0.8420 0.8410 0.8410 0.8410
14.884000 0.8410 0.8420 0.8420 0.8410 0.8390
14.918030 0.8390 0.8370 0.8370 0.8350 0.8350
14.952000 0.8340 0.8320 0.8300 0.8290 0.8230
14.986030 0.8170 0.8080 0.8010 0.7930 0.7860
15.020000 0.7840 0.7810 0.7770 0.7690 0.7600
15.054030 0.7580 0.7530 0.7520 0.7480 0.7450
15.088000 0.7450 0.7470 0.7500 0.7550 0.7620
15.122030 0.7690 0.7770 0.7790 0.7820 0.7860
15.156000 0.7880 0.7910 0.7980 0.8000 0.8010
15.190030 0.8010 0.8000 0.8000 0.7930 0.7930
15.224000 0.8000 0.8000 0.8000 0.8000 0.7980
15.258030 0.7980 0.7960 0.7940 0.7930 0.7880
15.293000 0.7880 0.7910 0.7910 0.7930 0.7930
15.327030 0.7910 0.7840 0.7820 0.7810 0.7810
15.361000 0.7790 0.7790 0.7790 0.7820 0.7810
15.395030 0.7790 0.7770 0.7760 0.7740 0.7700
15.429000 0.7670 0.7640 0.7620 0.7640 0.7620
15.463030 0.7620 0.7600 0.7580 0.7600 0.7580
15.497000 0.7550 0.7520 0.7530 0.7520 0.7500
15.531030 0.7480 0.7480 0.7480 0.7480 0.7480
15.565000 0.7470 0.7450 0.7450 0.7430 0.7450
15.599030 0.7450 0.7480 0.7470 0.7430 0.7400
15.633000 0.7360 0.7350 0.7330 0.7330 0.7350
15.667030 0.7330 0.7290 0.7260 0.7240 0.7240
15.701000 0.7260 0.7280 0.7290 0.7310 0.7280
15.735030 0.7240 0.7230 0.7210 0.7160 0.7120
15.769000 0.7110 0.7120 0.7120 0.7110 0.7090
15.803030 0.7040 0.7040 0.7020 0.6970 0.6970
15.837000 0.6940 0.6970 0.6970 0.6940 0.6900
15.871030 0.6880 0.6920 0.6970 0.6990 0.6990
15.905000 0.6990 0.6940 0.6900 0.6870 0.6830
15.939030 0.6830 0.6870 0.6870 0.6870 0.6850
15.973000 0.6830 0.6820
##END=
