##TITLE=CODEINE, HYDROBROMIDE (DIHYDRATE)
##JCAMP-DX=4.24
$$ By DXEDIT 1.05 (RS McDonald)
##DATA TYPE=INFRARED SPECTRUM
##CLASS=COBLENTZ III
##ORIGIN=BUREAU OF CUSTOMS
##OWNER=COBLENTZ SOC.
Collection (C) 2018 copyright by the U.S. Secretary of Commerce
on behalf of the United States of America. All rights reserved.
##DATE=Not specified, most likely prior to 1970
##NAMES=CODEINE HYDROBROMIDE
##MOLFORM=C18 H22 Br N O3  * 2 H2 O
##MP=190-192 C
##SOURCE REFERENCE=COBLENTZ NO. 05003
##$NIST ID=B6005003
##$NIST SOURCE=COBLENTZ
##$NIST IMAGE=cob5003
##SPECTROMETER/DATA SYSTEM=PERKIN-ELMER 21 (GRATING)
##INSTRUMENT PARAMETERS=FILTER AT ABOUT 10 MICRONS
##STATE=SOLID (1.2 mg / 250 mg KBr DISC)
$$PURITY 99+
##SAMPLING PROCEDURE=TRANSMISSION
##RESOLUTION=2
##DATA PROCESSING=DIGITIZED BY COBLENTZ SOCIETY (BATCH I) FROM HARD COPY
##XUNITS=1/CM
##YUNITS=TRANSMITTANCE
##XLABEL=Wavenumbers (cm-1)
##YLABEL=Transmittance
##XFACTOR=1
##YFACTOR=1
##DELTAX=1
##FIRSTX=4000
##LASTX=652
##FIRSTY=0.8245
##MAXX=4000
##MINX=652
##MAXY=0.9575
##MINY=0.1209
##NPOINTS=3349
##XYDATA=(X++(Y..Y))
4000.000000 0.8245 0.8246 0.8248 0.8250 0.8251
3995.000000 0.8253 0.8255 0.8257 0.8259 0.8260
3990.000000 0.8262 0.8264 0.8266 0.8268 0.8270
3985.000000 0.8271 0.8273 0.8275 0.8277 0.8278
3980.000000 0.8280 0.8282 0.8284 0.8285 0.8287
3975.000000 0.8289 0.8290 0.8292 0.8294 0.8296
3970.000000 0.8297 0.8299 0.8301 0.8303 0.8304
3965.000000 0.8306 0.8308 0.8310 0.8311 0.8313
3960.000000 0.8315 0.8317 0.8318 0.8321 0.8323
3955.000000 0.8325 0.8325 0.8328 0.8330 0.8332
3950.000000 0.8334 0.8335 0.8337 0.8338 0.8340
3945.000000 0.8342 0.8343 0.8345 0.8346 0.8348
3940.000000 0.8349 0.8351 0.8352 0.8354 0.8355
3935.000000 0.8356 0.8358 0.8359 0.8361 0.8362
3930.000000 0.8364 0.8365 0.8367 0.8368 0.8370
3925.000000 0.8371 0.8371 0.8374 0.8375 0.8377
3920.000000 0.8378 0.8380 0.8381 0.8383 0.8384
3915.000000 0.8386 0.8387 0.8389 0.8390 0.8392
3910.000000 0.8393 0.8394 0.8396 0.8397 0.8399
3905.000000 0.8400 0.8402 0.8403 0.8405 0.8406
3900.000000 0.8408 0.8409 0.8410 0.8412 0.8413
3895.000000 0.8414 0.8416 0.8417 0.8418 0.8420
3890.000000 0.8421 0.8423 0.8425 0.8425 0.8428
3885.000000 0.8428 0.8430 0.8432 0.8433 0.8435
3880.000000 0.8436 0.8438 0.8439 0.8441 0.8442
3875.000000 0.8444 0.8445 0.8447 0.8448 0.8450
3870.000000 0.8451 0.8453 0.8454 0.8456 0.8457
3865.000000 0.8459 0.8460 0.8462 0.8463 0.8465
3860.000000 0.8467 0.8468 0.8470 0.8471 0.8473
3855.000000 0.8474 0.8475 0.8477 0.8478 0.8480
3850.000000 0.8482 0.8483 0.8485 0.8486 0.8488
3845.000000 0.8489 0.8490 0.8492 0.8493 0.8494
3840.000000 0.8496 0.8498 0.8500 0.8502 0.8503
3835.000000 0.8505 0.8507 0.8509 0.8511 0.8513
3830.000000 0.8515 0.8517 0.8518 0.8521 0.8523
3825.000000 0.8525 0.8527 0.8528 0.8531 0.8533
3820.000000 0.8534 0.8536 0.8538 0.8540 0.8542
3815.000000 0.8544 0.8546 0.8548 0.8550 0.8552
3810.000000 0.8554 0.8556 0.8558 0.8560 0.8562
3805.000000 0.8564 0.8566 0.8568 0.8570 0.8571
3800.000000 0.8574 0.8575 0.8578 0.8580 0.8582
3795.000000 0.8584 0.8586 0.8588 0.8590 0.8592
3790.000000 0.8594 0.8596 0.8598 0.8600 0.8602
3785.000000 0.8604 0.8606 0.8608 0.8610 0.8612
3780.000000 0.8614 0.8616 0.8618 0.8620 0.8621
3775.000000 0.8624 0.8625 0.8628 0.8630 0.8632
3770.000000 0.8634 0.8636 0.8638 0.8640 0.8642
3765.000000 0.8644 0.8645 0.8647 0.8648 0.8650
3760.000000 0.8652 0.8653 0.8655 0.8657 0.8659
3755.000000 0.8660 0.8662 0.8664 0.8665 0.8667
3750.000000 0.8668 0.8670 0.8671 0.8673 0.8675
3745.000000 0.8677 0.8678 0.8680 0.8681 0.8683
3740.000000 0.8685 0.8687 0.8689 0.8690 0.8692
3735.000000 0.8694 0.8695 0.8697 0.8698 0.8700
3730.000000 0.8702 0.8703 0.8705 0.8707 0.8708
3725.000000 0.8709 0.8710 0.8711 0.8711 0.8712
3720.000000 0.8713 0.8713 0.8714 0.8715 0.8716
3715.000000 0.8716 0.8717 0.8718 0.8718 0.8718
3710.000000 0.8720 0.8721 0.8721 0.8721 0.8721
3705.000000 0.8721 0.8721 0.8721 0.8721 0.8720
3700.000000 0.8718 0.8718 0.8718 0.8718 0.8718
3695.000000 0.8717 0.8717 0.8717 0.8716 0.8716
3690.000000 0.8715 0.8714 0.8714 0.8713 0.8713
3685.000000 0.8713 0.8712 0.8712 0.8712 0.8709
3680.000000 0.8705 0.8702 0.8699 0.8695 0.8692
3675.000000 0.8688 0.8685 0.8681 0.8678 0.8674
3670.000000 0.8671 0.8668 0.8664 0.8661 0.8658
3665.000000 0.8654 0.8651 0.8647 0.8643 0.8640
3660.000000 0.8636 0.8630 0.8624 0.8618 0.8612
3655.000000 0.8606 0.8578 0.8553 0.8525 0.8499
3650.000000 0.8471 0.8446 0.8418 0.8393 0.8367
3645.000000 0.8341 0.8308 0.8262 0.8216 0.8171
3640.000000 0.8125 0.8078 0.8032 0.7986 0.7939
3635.000000 0.7892 0.7846 0.7799 0.7751 0.7705
3630.000000 0.7658 0.7611 0.7565 0.7518 0.7471
3625.000000 0.7424 0.7376 0.7330 0.7283 0.7235
3620.000000 0.7188 0.7141 0.7094 0.7047 0.7000
3615.000000 0.6953 0.6906 0.6858 0.6811 0.6764
3610.000000 0.6717 0.6668 0.6621 0.6575 0.6526
3605.000000 0.6480 0.6432 0.6385 0.6337 0.6289
3600.000000 0.6242 0.6194 0.6146 0.6099 0.6051
3595.000000 0.6003 0.5955 0.5907 0.5860 0.5812
3590.000000 0.5764 0.5716 0.5668 0.5620 0.5572
3585.000000 0.5524 0.5476 0.5428 0.5380 0.5332
3580.000000 0.5283 0.5235 0.5187 0.5139 0.5090
3575.000000 0.5042 0.4994 0.4945 0.4897 0.4849
3570.000000 0.4800 0.4752 0.4703 0.4655 0.4606
3565.000000 0.4558 0.4509 0.4460 0.4412 0.4362
3560.000000 0.4314 0.4266 0.4217 0.4168 0.4119
3555.000000 0.4070 0.4022 0.3973 0.3924 0.3875
3550.000000 0.3826 0.3777 0.3728 0.3679 0.3630
3545.000000 0.3580 0.3530 0.3482 0.3432 0.3384
3540.000000 0.3334 0.3284 0.3236 0.3185 0.3137
3535.000000 0.3088 0.3038 0.2989 0.2939 0.2890
3530.000000 0.2840 0.2791 0.2741 0.2691 0.2642
3525.000000 0.2592 0.2542 0.2493 0.2443 0.2393
3520.000000 0.2343 0.2293 0.2244 0.2194 0.2144
3515.000000 0.2094 0.2044 0.1994 0.1944 0.1894
3510.000000 0.1844 0.1793 0.1743 0.1693 0.1643
3505.000000 0.1592 0.1542 0.1492 0.1442 0.1395
3500.000000 0.1354 0.1313 0.1273 0.1232 0.1211
3495.000000 0.1211 0.1210 0.1209 0.1209 0.1209
3490.000000 0.1209 0.1210 0.1211 0.1211 0.1242
3485.000000 0.1286 0.1328 0.1371 0.1413 0.1481
3480.000000 0.1552 0.1624 0.1694 0.1766 0.1837
3475.000000 0.1909 0.1979 0.2052 0.2123 0.2195
3470.000000 0.2267 0.2338 0.2410 0.2482 0.2554
3465.000000 0.2625 0.2697 0.2769 0.2841 0.2913
3460.000000 0.2984 0.3057 0.3129 0.3200 0.3274
3455.000000 0.3346 0.3418 0.3489 0.3539 0.3588
3450.000000 0.3637 0.3705 0.3723 0.3723 0.3723
3445.000000 0.3723 0.3723 0.3716 0.3703 0.3691
3440.000000 0.3679 0.3666 0.3642 0.3614 0.3587
3435.000000 0.3559 0.3532 0.3504 0.3476 0.3448
3430.000000 0.3420 0.3393 0.3364 0.3337 0.3309
3425.000000 0.3280 0.3260 0.3246 0.3230 0.3214
3420.000000 0.3199 0.3197 0.3196 0.3195 0.3194
3415.000000 0.3197 0.3210 0.3224 0.3237 0.3250
3410.000000 0.3270 0.3293 0.3314 0.3338 0.3359
3405.000000 0.3382 0.3406 0.3429 0.3452 0.3474
3400.000000 0.3494 0.3512 0.3532 0.3553 0.3559
3395.000000 0.3559 0.3559 0.3559 0.3559 0.3550
3390.000000 0.3541 0.3532 0.3522 0.3498 0.3460
3385.000000 0.3424 0.3387 0.3350 0.3312 0.3276
3380.000000 0.3239 0.3202 0.3165 0.3128 0.3091
3375.000000 0.3054 0.3017 0.2980 0.2943 0.2906
3370.000000 0.2869 0.2831 0.2794 0.2757 0.2720
3365.000000 0.2682 0.2645 0.2607 0.2570 0.2532
3360.000000 0.2494 0.2457 0.2420 0.2382 0.2345
3355.000000 0.2307 0.2269 0.2232 0.2194 0.2161
3350.000000 0.2147 0.2132 0.2117 0.2103 0.2098
3345.000000 0.2097 0.2097 0.2097 0.2098 0.2109
3340.000000 0.2121 0.2132 0.2143 0.2169 0.2198
3335.000000 0.2228 0.2258 0.2287 0.2317 0.2346
3330.000000 0.2376 0.2405 0.2434 0.2465 0.2494
3325.000000 0.2524 0.2553 0.2583 0.2613 0.2642
3320.000000 0.2672 0.2702 0.2732 0.2762 0.2792
3315.000000 0.2822 0.2852 0.2882 0.2911 0.2941
3310.000000 0.2970 0.2999 0.3028 0.3057 0.3076
3305.000000 0.3093 0.3110 0.3127 0.3144 0.3161
3300.000000 0.3179 0.3196 0.3212 0.3230 0.3248
3295.000000 0.3264 0.3282 0.3299 0.3314 0.3330
3290.000000 0.3347 0.3362 0.3379 0.3394 0.3409
3285.000000 0.3426 0.3441 0.3457 0.3472 0.3488
3280.000000 0.3502 0.3516 0.3530 0.3545 0.3559
3275.000000 0.3572 0.3584 0.3598 0.3610 0.3624
3270.000000 0.3637 0.3650 0.3662 0.3676 0.3688
3265.000000 0.3700 0.3714 0.3725 0.3737 0.3748
3260.000000 0.3759 0.3771 0.3782 0.3793 0.3805
3255.000000 0.3816 0.3827 0.3837 0.3848 0.3859
3250.000000 0.3870 0.3880 0.3891 0.3902 0.3909
3245.000000 0.3918 0.3925 0.3932 0.3940 0.3945
3240.000000 0.3950 0.3957 0.3962 0.3966 0.3970
3235.000000 0.3974 0.3976 0.3968 0.3962 0.3954
3230.000000 0.3947 0.3939 0.3932 0.3924 0.3916
3225.000000 0.3909 0.3902 0.3895 0.3887 0.3880
3220.000000 0.3872 0.3864 0.3857 0.3850 0.3847
3215.000000 0.3842 0.3837 0.3837 0.3842 0.3848
3210.000000 0.3853 0.3860 0.3873 0.3886 0.3898
3205.000000 0.3910 0.3925 0.3940 0.3954 0.3968
3200.000000 0.3982 0.3998 0.4012 0.4028 0.4044
3195.000000 0.4059 0.4074 0.4089 0.4104 0.4119
3190.000000 0.4134 0.4149 0.4162 0.4177 0.4191
3185.000000 0.4205 0.4220 0.4234 0.4248 0.4262
3180.000000 0.4277 0.4291 0.4305 0.4319 0.4334
3175.000000 0.4349 0.4364 0.4379 0.4396 0.4412
3170.000000 0.4430 0.4447 0.4464 0.4481 0.4499
3165.000000 0.4516 0.4533 0.4550 0.4567 0.4584
3160.000000 0.4603 0.4625 0.4646 0.4667 0.4690
3155.000000 0.4714 0.4738 0.4762 0.4786 0.4810
3150.000000 0.4834 0.4858 0.4881 0.4903 0.4924
3145.000000 0.4946 0.4966 0.4986 0.5006 0.5026
3140.000000 0.5046 0.5066 0.5086 0.5106 0.5126
3135.000000 0.5145 0.5165 0.5185 0.5204 0.5224
3130.000000 0.5243 0.5262 0.5281 0.5300 0.5319
3125.000000 0.5338 0.5356 0.5375 0.5394 0.5412
3120.000000 0.5431 0.5449 0.5468 0.5486 0.5504
3115.000000 0.5522 0.5540 0.5559 0.5580 0.5600
3110.000000 0.5620 0.5641 0.5660 0.5682 0.5702
3105.000000 0.5719 0.5733 0.5747 0.5762 0.5768
3100.000000 0.5772 0.5775 0.5779 0.5780 0.5781
3095.000000 0.5783 0.5784 0.5785 0.5786 0.5836
3090.000000 0.5789 0.5790 0.5792 0.5794 0.5790
3085.000000 0.5779 0.5768 0.5757 0.5728 0.5689
3080.000000 0.5650 0.5610 0.5571 0.5532 0.5493
3075.000000 0.5453 0.5414 0.5375 0.5336 0.5296
3070.000000 0.5257 0.5217 0.5178 0.5138 0.5099
3065.000000 0.5060 0.5020 0.4981 0.4941 0.4901
3060.000000 0.4860 0.4822 0.4782 0.4742 0.4702
3055.000000 0.4662 0.4623 0.4583 0.4543 0.4503
3050.000000 0.4462 0.4423 0.4388 0.4353 0.4269
3045.000000 0.4286 0.4284 0.4282 0.4281 0.4281
3040.000000 0.4290 0.4298 0.4306 0.4330 0.4360
3035.000000 0.4393 0.4425 0.4457 0.4489 0.4520
3030.000000 0.4552 0.4584 0.4616 0.4648 0.4680
3025.000000 0.4712 0.4744 0.4776 0.4808 0.4840
3020.000000 0.4872 0.4904 0.4936 0.4968 0.5000
3015.000000 0.5032 0.5065 0.5097 0.5129 0.5160
3010.000000 0.5194 0.5226 0.5258 0.5291 0.5323
3005.000000 0.5355 0.5388 0.5420 0.5453 0.5482
3000.000000 0.5498 0.5512 0.5552 0.5536 0.5537
2995.000000 0.5538 0.5539 0.5539 0.5540 0.5541
2990.000000 0.5542 0.5542 0.5543 0.5543 0.5525
2985.000000 0.5504 0.5483 0.5455 0.5407 0.5360
2980.000000 0.5312 0.5265 0.5218 0.5170 0.5124
2975.000000 0.5084 0.5045 0.5005 0.4988 0.4982
2970.000000 0.4976 0.4970 0.4962 0.4957 0.4951
2965.000000 0.4947 0.4944 0.4941 0.4938 0.4938
2960.000000 0.4938 0.4938 0.4937 0.4937 0.4914
2955.000000 0.4935 0.4935 0.4934 0.4934 0.4934
2950.000000 0.4934 0.4934 0.4934 0.4938 0.4942
2945.000000 0.4946 0.4950 0.4955 0.4959 0.4964
2940.000000 0.4973 0.4982 0.4991 0.5004 0.5018
2935.000000 0.5032 0.5049 0.5071 0.5093 0.5115
2930.000000 0.5146 0.5180 0.5212 0.5247 0.5281
2925.000000 0.5314 0.5348 0.5381 0.5414 0.5448
2920.000000 0.5481 0.5515 0.5549 0.5583 0.5616
2915.000000 0.5650 0.5683 0.5717 0.5751 0.5785
2910.000000 0.5819 0.5853 0.5887 0.5921 0.5954
2905.000000 0.5988 0.6022 0.6056 0.6090 0.6124
2900.000000 0.6154 0.6171 0.6187 0.6203 0.6210
2895.000000 0.6217 0.6223 0.6228 0.6234 0.6240
2890.000000 0.6245 0.6247 0.6249 0.6257 0.6256
2885.000000 0.6255 0.6257 0.6259 0.6260 0.6262
2880.000000 0.6264 0.6264 0.6264 0.6264 0.6244
2875.000000 0.6221 0.6198 0.6168 0.6131 0.6094
2870.000000 0.6058 0.6021 0.5984 0.5947 0.5909
2865.000000 0.5872 0.5835 0.5798 0.5760 0.5723
2860.000000 0.5686 0.5649 0.5610 0.5574 0.5537
2855.000000 0.5499 0.5462 0.5432 0.5403 0.5374
2850.000000 0.5362 0.5360 0.5360 0.5359 0.5358
2845.000000 0.5357 0.5356 0.5355 0.5354 0.5353
2840.000000 0.5351 0.5350 0.5349 0.5346 0.5343
2835.000000 0.5340 0.5337 0.5334 0.5331 0.5328
2830.000000 0.5325 0.5321 0.5318 0.5315 0.5312
2825.000000 0.5309 0.5304 0.5300 0.5295 0.5288
2820.000000 0.5280 0.5272 0.5264 0.5256 0.5248
2815.000000 0.5240 0.5232 0.5223 0.5215 0.5207
2810.000000 0.5199 0.5191 0.5182 0.5173 0.5164
2805.000000 0.5147 0.5128 0.5109 0.5090 0.5071
2800.000000 0.5052 0.5031 0.5008 0.4986 0.4949
2795.000000 0.4893 0.4837 0.4781 0.4723 0.4666
2790.000000 0.4608 0.4550 0.4492 0.4435 0.4377
2785.000000 0.4319 0.4260 0.4202 0.4144 0.4086
2780.000000 0.4028 0.3970 0.3910 0.3853 0.3795
2775.000000 0.3736 0.3678 0.3618 0.3560 0.3518
2770.000000 0.3488 0.3457 0.3442 0.3439 0.3432
2765.000000 0.3432 0.3432 0.3432 0.3430 0.3437
2760.000000 0.3444 0.3464 0.3510 0.3557 0.3603
2755.000000 0.3650 0.3696 0.3743 0.3789 0.3836
2750.000000 0.3882 0.3929 0.3975 0.4021 0.4068
2745.000000 0.4115 0.4162 0.4208 0.4255 0.4302
2740.000000 0.4349 0.4395 0.4442 0.4489 0.4536
2735.000000 0.4583 0.4631 0.4678 0.4723 0.4765
2730.000000 0.4807 0.4837 0.4837 0.4837 0.4836
2725.000000 0.4836 0.4836 0.4835 0.4833 0.4832
2720.000000 0.4827 0.4815 0.4804 0.4793 0.4782
2715.000000 0.4771 0.4760 0.4748 0.4737 0.4726
2710.000000 0.4715 0.4703 0.4692 0.4680 0.4669
2705.000000 0.4669 0.4670 0.4673 0.4678 0.4683
2700.000000 0.4687 0.4692 0.4697 0.4702 0.4716
2695.000000 0.4732 0.4748 0.4770 0.4793 0.4817
2690.000000 0.4849 0.4881 0.4912 0.4936 0.4960
2685.000000 0.4982 0.4998 0.5015 0.5031 0.5048
2680.000000 0.5065 0.5081 0.5098 0.5114 0.5129
2675.000000 0.5144 0.5159 0.5172 0.5185 0.5197
2670.000000 0.5209 0.5221 0.5234 0.5246 0.5258
2665.000000 0.5271 0.5283 0.5295 0.5308 0.5320
2660.000000 0.5332 0.5345 0.5357 0.5369 0.5388
2655.000000 0.5408 0.5428 0.5449 0.5469 0.5490
2650.000000 0.5510 0.5531 0.5554 0.5582 0.5610
2645.000000 0.5639 0.5667 0.5696 0.5725 0.5753
2640.000000 0.5782 0.5810 0.5840 0.5868 0.5897
2635.000000 0.5927 0.5956 0.5984 0.6012 0.6042
2630.000000 0.6071 0.6100 0.6129 0.6159 0.6188
2625.000000 0.6217 0.6246 0.6275 0.6304 0.6333
2620.000000 0.6362 0.6392 0.6421 0.6451 0.6480
2615.000000 0.6508 0.6539 0.6568 0.6595 0.6618
2610.000000 0.6643 0.6655 0.6660 0.6664 0.6665
2605.000000 0.6665 0.6667 0.6667 0.6667 0.6667
2600.000000 0.6665 0.6665 0.6662 0.6660 0.6657
2595.000000 0.6650 0.6642 0.6635 0.6626 0.6619
2590.000000 0.6612 0.6606 0.6600 0.6592 0.6585
2585.000000 0.6578 0.6571 0.6562 0.6557 0.6551
2580.000000 0.6546 0.6546 0.6547 0.6550 0.6557
2575.000000 0.6564 0.6571 0.6578 0.6587 0.6594
2570.000000 0.6601 0.6610 0.6621 0.6631 0.6640
2565.000000 0.6649 0.6658 0.6665 0.6674 0.6680
2560.000000 0.6685 0.6690 0.6693 0.6696 0.6697
2555.000000 0.6697 0.6695 0.6692 0.6689 0.6685
2550.000000 0.6684 0.6683 0.6682 0.6681 0.6680
2545.000000 0.6678 0.6676 0.6676 0.6682 0.6686
2540.000000 0.6694 0.6705 0.6715 0.6734 0.6751
2535.000000 0.6771 0.6796 0.6819 0.6844 0.6867
2530.000000 0.6891 0.6912 0.6936 0.6958 0.6981
2525.000000 0.7003 0.7025 0.7049 0.7071 0.7094
2520.000000 0.7115 0.7139 0.7161 0.7183 0.7201
2515.000000 0.7221 0.7240 0.7258 0.7278 0.7298
2510.000000 0.7317 0.7337 0.7356 0.7375 0.7395
2505.000000 0.7414 0.7433 0.7453 0.7471 0.7491
2500.000000 0.7510 0.7528 0.7548 0.7567 0.7586
2495.000000 0.7606 0.7625 0.7644 0.7662 0.7682
2490.000000 0.7701 0.7721 0.7740 0.7756 0.7768
2485.000000 0.7782 0.7794 0.7807 0.7818 0.7832
2480.000000 0.7845 0.7857 0.7869 0.7882 0.7895
2475.000000 0.7908 0.7919 0.7933 0.7946 0.7960
2470.000000 0.7972 0.7987 0.8000 0.8014 0.8026
2465.000000 0.8041 0.8055 0.8068 0.8083 0.8096
2460.000000 0.8110 0.8124 0.8137 0.8150 0.8162
2455.000000 0.8175 0.8187 0.8199 0.8211 0.8223
2450.000000 0.8235 0.8247 0.8260 0.8271 0.8283
2445.000000 0.8293 0.8303 0.8312 0.8321 0.8330
2440.000000 0.8338 0.8347 0.8356 0.8364 0.8373
2435.000000 0.8381 0.8390 0.8398 0.8406 0.8412
2430.000000 0.8418 0.8424 0.8430 0.8437 0.8443
2425.000000 0.8449 0.8455 0.8461 0.8468 0.8474
2420.000000 0.8480 0.8485 0.8490 0.8494 0.8498
2415.000000 0.8502 0.8507 0.8511 0.8515 0.8520
2410.000000 0.8524 0.8528 0.8532 0.8536 0.8540
2405.000000 0.8544 0.8548 0.8551 0.8555 0.8558
2400.000000 0.8562 0.8565 0.8568 0.8571 0.8574
2395.000000 0.8575 0.8575 0.8577 0.8578 0.8578
2390.000000 0.8581 0.8582 0.8583 0.8583 0.8583
2385.000000 0.8582 0.8582 0.8581 0.8581 0.8581
2380.000000 0.8580 0.8580 0.8583 0.8588 0.8593
2375.000000 0.8600 0.8607 0.8613 0.8618 0.8628
2370.000000 0.8637 0.8648 0.8662 0.8675 0.8689
2365.000000 0.8702 0.8717 0.8732 0.8746 0.8760
2360.000000 0.8770 0.8777 0.8780 0.8778 0.8778
2355.000000 0.8777 0.8775 0.8775 0.8775 0.8775
2350.000000 0.8775 0.8778 0.8782 0.8786 0.8793
2345.000000 0.8799 0.8806 0.8813 0.8818 0.8825
2340.000000 0.8833 0.8840 0.8847 0.8854 0.8861
2335.000000 0.8867 0.8874 0.8881 0.8887 0.8891
2330.000000 0.8894 0.8898 0.8902 0.8906 0.8910
2325.000000 0.8914 0.8917 0.8921 0.8925 0.8928
2320.000000 0.8933 0.8937 0.8941 0.8944 0.8949
2315.000000 0.8953 0.8957 0.8960 0.8964 0.8968
2310.000000 0.8971 0.8975 0.8980 0.8983 0.8986
2305.000000 0.8989 0.8992 0.8995 0.8999 0.9001
2300.000000 0.9004 0.9008 0.9011 0.9014 0.9017
2295.000000 0.9020 0.9023 0.9025 0.9028 0.9032
2290.000000 0.9035 0.9039 0.9041 0.9044 0.9048
2285.000000 0.9051 0.9054 0.9057 0.9060 0.9064
2280.000000 0.9066 0.9068 0.9073 0.9075 0.9078
2275.000000 0.9082 0.9085 0.9089 0.9091 0.9094
2270.000000 0.9095 0.9097 0.9099 0.9101 0.9102
2265.000000 0.9104 0.9105 0.9107 0.9108 0.9110
2260.000000 0.9111 0.9113 0.9114 0.9116 0.9118
2255.000000 0.9118 0.9121 0.9121 0.9124 0.9125
2250.000000 0.9127 0.9128 0.9130 0.9131 0.9132
2245.000000 0.9132 0.9132 0.9132 0.9133 0.9133
2240.000000 0.9133 0.9133 0.9134 0.9134 0.9134
2235.000000 0.9134 0.9135 0.9135 0.9135 0.9135
2230.000000 0.9136 0.9136 0.9137 0.9137 0.9137
2225.000000 0.9137 0.9138 0.9138 0.9138 0.9138
2220.000000 0.9138 0.9138 0.9138 0.9138 0.9138
2215.000000 0.9138 0.9138 0.9138 0.9138 0.9138
2210.000000 0.9138 0.9138 0.9138 0.9138 0.9138
2205.000000 0.9138 0.9138 0.9140 0.9141 0.9142
2200.000000 0.9144 0.9145 0.9146 0.9147 0.9149
2195.000000 0.9150 0.9151 0.9152 0.9154 0.9156
2190.000000 0.9157 0.9158 0.9159 0.9161 0.9162
2185.000000 0.9163 0.9164 0.9165 0.9165 0.9166
2180.000000 0.9166 0.9167 0.9167 0.9168 0.9168
2175.000000 0.9168 0.9168 0.9170 0.9171 0.9171
2170.000000 0.9173 0.9173 0.9174 0.9174 0.9174
2165.000000 0.9174 0.9174 0.9174 0.9173 0.9173
2160.000000 0.9171 0.9171 0.9171 0.9170 0.9170
2155.000000 0.9170 0.9170 0.9168 0.9168 0.9168
2150.000000 0.9168 0.9167 0.9167 0.9166 0.9166
2145.000000 0.9164 0.9163 0.9163 0.9162 0.9162
2140.000000 0.9161 0.9160 0.9159 0.9159 0.9158
2135.000000 0.9158 0.9156 0.9155 0.9152 0.9149
2130.000000 0.9146 0.9142 0.9139 0.9135 0.9132
2125.000000 0.9128 0.9125 0.9121 0.9117 0.9112
2120.000000 0.9106 0.9100 0.9095 0.9089 0.9083
2115.000000 0.9075 0.9065 0.9055 0.9044 0.9033
2110.000000 0.9023 0.9012 0.9000 0.8986 0.8971
2105.000000 0.8958 0.8943 0.8928 0.8914 0.8898
2100.000000 0.8878 0.8860 0.8842 0.8824 0.8809
2095.000000 0.8793 0.8777 0.8762 0.8748 0.8738
2090.000000 0.8728 0.8721 0.8716 0.8714 0.8713
2085.000000 0.8713 0.8713 0.8714 0.8715 0.8716
2080.000000 0.8717 0.8718 0.8721 0.8724 0.8728
2075.000000 0.8731 0.8735 0.8738 0.8742 0.8746
2070.000000 0.8750 0.8753 0.8757 0.8759 0.8762
2065.000000 0.8764 0.8766 0.8768 0.8771 0.8773
2060.000000 0.8775 0.8777 0.8777 0.8778 0.8774
2055.000000 0.8801 0.8759 0.8750 0.8737 0.8721
2050.000000 0.8704 0.8687 0.8671 0.8657 0.8643
2045.000000 0.8628 0.8616 0.8606 0.8597 0.8589
2040.000000 0.8582 0.8575 0.8571 0.8568 0.8566
2035.000000 0.8563 0.8561 0.8559 0.8558 0.8558
2030.000000 0.8558 0.8558 0.8558 0.8560 0.8565
2025.000000 0.8577 0.8590 0.8603 0.8616 0.8628
2020.000000 0.8647 0.8664 0.8682 0.8700 0.8717
2015.000000 0.8735 0.8753 0.8770 0.8789 0.8807
2010.000000 0.8825 0.8845 0.8863 0.8881 0.8899
2005.000000 0.8917 0.8933 0.8948 0.8963 0.8977
2000.000000 0.8992 0.9007 0.9021 0.9037 0.9049
1995.000000 0.9060 0.9070 0.9078 0.9088 0.9097
1990.000000 0.9107 0.9116 0.9124 0.9131 0.9134
1985.000000 0.9138 0.9142 0.9146 0.9150 0.9153
1980.000000 0.9157 0.9161 0.9165 0.9168 0.9173
1975.000000 0.9177 0.9182 0.9187 0.9192 0.9197
1970.000000 0.9202 0.9207 0.9212 0.9217 0.9221
1965.000000 0.9227 0.9232 0.9239 0.9246 0.9256
1960.000000 0.9265 0.9274 0.9283 0.9292 0.9301
1955.000000 0.9310 0.9318 0.9327 0.9334 0.9340
1950.000000 0.9347 0.9353 0.9359 0.9365 0.9371
1945.000000 0.9378 0.9384 0.9388 0.9392 0.9394
1940.000000 0.9398 0.9401 0.9403 0.9406 0.9409
1935.000000 0.9412 0.9415 0.9418 0.9421 0.9424
1930.000000 0.9427 0.9430 0.9432 0.9435 0.9438
1925.000000 0.9440 0.9442 0.9444 0.9446 0.9448
1920.000000 0.9450 0.9453 0.9455 0.9457 0.9459
1915.000000 0.9461 0.9463 0.9465 0.9468 0.9470
1910.000000 0.9471 0.9473 0.9474 0.9475 0.9477
1905.000000 0.9478 0.9480 0.9481 0.9482 0.9484
1900.000000 0.9484 0.9485 0.9485 0.9485 0.9485
1895.000000 0.9485 0.9485 0.9485 0.9485 0.9485
1890.000000 0.9485 0.9485 0.9484 0.9482 0.9478
1885.000000 0.9475 0.9473 0.9470 0.9467 0.9463
1880.000000 0.9460 0.9457 0.9453 0.9450 0.9447
1875.000000 0.9444 0.9440 0.9437 0.9434 0.9434
1870.000000 0.9435 0.9437 0.9440 0.9443 0.9445
1865.000000 0.9447 0.9450 0.9454 0.9459 0.9464
1860.000000 0.9470 0.9475 0.9481 0.9486 0.9491
1855.000000 0.9497 0.9503 0.9508 0.9514 0.9518
1850.000000 0.9524 0.9528 0.9532 0.9535 0.9538
1845.000000 0.9541 0.9543 0.9546 0.9549 0.9551
1840.000000 0.9554 0.9557 0.9560 0.9562 0.9565
1835.000000 0.9568 0.9570 0.9573 0.9575 0.9575
1830.000000 0.9575 0.9575 0.9575 0.9574 0.9573
1825.000000 0.9573 0.9571 0.9568 0.9564 0.9560
1820.000000 0.9556 0.9553 0.9549 0.9546 0.9542
1815.000000 0.9538 0.9535 0.9532 0.9528 0.9527
1810.000000 0.9524 0.9523 0.9521 0.9520 0.9518
1805.000000 0.9517 0.9516 0.9515 0.9514 0.9512
1800.000000 0.9512 0.9510 0.9509 0.9507 0.9507
1795.000000 0.9505 0.9502 0.9500 0.9497 0.9495
1790.000000 0.9493 0.9490 0.9488 0.9486 0.9483
1785.000000 0.9481 0.9478 0.9475 0.9471 0.9468
1780.000000 0.9464 0.9460 0.9456 0.9452 0.9448
1775.000000 0.9444 0.9440 0.9436 0.9432 0.9428
1770.000000 0.9424 0.9420 0.9416 0.9411 0.9404
1765.000000 0.9397 0.9390 0.9383 0.9377 0.9370
1760.000000 0.9363 0.9356 0.9349 0.9342 0.9336
1755.000000 0.9328 0.9323 0.9316 0.9310 0.9303
1750.000000 0.9297 0.9290 0.9284 0.9277 0.9271
1745.000000 0.9265 0.9259 0.9252 0.9246 0.9240
1740.000000 0.9234 0.9228 0.9221 0.9215 0.9209
1735.000000 0.9202 0.9196 0.9196 0.9196 0.9197
1730.000000 0.9198 0.9198 0.9199 0.9200 0.9200
1725.000000 0.9200 0.9196 0.9192 0.9187 0.9182
1720.000000 0.9178 0.9173 0.9168 0.9162 0.9155
1715.000000 0.9147 0.9140 0.9133 0.9125 0.9117
1710.000000 0.9107 0.9096 0.9084 0.9071 0.9061
1705.000000 0.9049 0.9037 0.9025 0.9013 0.8997
1700.000000 0.8981 0.8965 0.8948 0.8932 0.8915
1695.000000 0.8898 0.8877 0.8854 0.8832 0.8810
1690.000000 0.8788 0.8767 0.8747 0.8725 0.8707
1685.000000 0.8687 0.8667 0.8646 0.8625 0.8604
1680.000000 0.8580 0.8557 0.8533 0.8510 0.8485
1675.000000 0.8451 0.8412 0.8373 0.8333 0.8290
1670.000000 0.8241 0.8193 0.8144 0.8096 0.8032
1665.000000 0.7961 0.7881 0.7738 0.7518 0.7375
1660.000000 0.7230 0.6951 0.6674 0.6396 0.6116
1655.000000 0.5837 0.5557 0.5278 0.4997 0.4724
1650.000000 0.4514 0.4510 0.4519 0.4582 0.4729
1645.000000 0.4884 0.5038 0.5193 0.5349 0.5504
1640.000000 0.5659 0.5815 0.5971 0.6127 0.6283
1635.000000 0.6439 0.6596 0.6753 0.6910 0.7067
1630.000000 0.7151 0.7156 0.7168 0.7168 0.7083
1625.000000 0.6915 0.6736 0.6557 0.6377 0.6197
1620.000000 0.6017 0.5837 0.5656 0.5475 0.5296
1615.000000 0.5195 0.5183 0.5185 0.5312 0.5609
1610.000000 0.5930 0.6252 0.6572 0.6896 0.7218
1605.000000 0.7541 0.7805 0.7950 0.8033 0.8103
1600.000000 0.8167 0.8231 0.8292 0.8348 0.8398
1595.000000 0.8448 0.8494 0.8530 0.8566 0.8601
1590.000000 0.8633 0.8657 0.8682 0.8705 0.8727
1585.000000 0.8746 0.8765 0.8782 0.8798 0.8814
1580.000000 0.8828 0.8840 0.8847 0.8854 0.8861
1575.000000 0.8867 0.8873 0.8878 0.8883 0.8887
1570.000000 0.8891 0.8894 0.8897 0.8916 0.8902
1565.000000 0.8901 0.8897 0.8892 0.8887 0.8882
1560.000000 0.8875 0.8865 0.8853 0.8840 0.8825
1555.000000 0.8811 0.8794 0.8778 0.8763 0.8747
1550.000000 0.8728 0.8709 0.8690 0.8671 0.8647
1545.000000 0.8623 0.8600 0.8573 0.8533 0.8486
1540.000000 0.8439 0.8352 0.8186 0.8017 0.7872
1535.000000 0.7733 0.7594 0.7435 0.7258 0.7074
1530.000000 0.6933 0.6842 0.6641 0.6387 0.6132
1525.000000 0.5878 0.5623 0.5367 0.5110 0.4855
1520.000000 0.4599 0.4342 0.4084 0.3990 0.3909
1515.000000 0.3702 0.3356 0.3010 0.2663 0.2316
1510.000000 0.1969 0.1633 0.1633 0.1629 0.1896
1505.000000 0.2284 0.2674 0.3063 0.3453 0.3843
1500.000000 0.4234 0.4625 0.5016 0.5409 0.5802
1495.000000 0.6195 0.6568 0.6765 0.6784 0.6788
1490.000000 0.6692 0.6390 0.6062 0.5735 0.5406
1485.000000 0.5077 0.4748 0.4568 0.4560 0.4551
1480.000000 0.4675 0.4801 0.4927 0.5053 0.5179
1475.000000 0.5302 0.5295 0.5285 0.5170 0.4910
1470.000000 0.4651 0.4392 0.4132 0.3872 0.3610
1465.000000 0.3350 0.3089 0.2827 0.2566 0.2348
1460.000000 0.2337 0.2370 0.2521 0.2726 0.2930
1455.000000 0.3135 0.3316 0.3405 0.3444 0.3480
1450.000000 0.3522 0.3634 0.3827 0.4020 0.4214
1445.000000 0.4408 0.4602 0.4797 0.4992 0.5187
1440.000000 0.5382 0.5578 0.5775 0.5955 0.6035
1435.000000 0.6094 0.6160 0.6234 0.6303 0.6327
1430.000000 0.6342 0.6355 0.6383 0.6215 0.5990
1425.000000 0.5762 0.5537 0.5310 0.5176 0.5175
1420.000000 0.5202 0.5272 0.5346 0.5418 0.5453
1415.000000 0.5434 0.5351 0.5257 0.5162 0.5068
1410.000000 0.4974 0.4879 0.4785 0.4690 0.4597
1405.000000 0.4599 0.4619 0.4790 0.4976 0.5160
1400.000000 0.5346 0.5532 0.5718 0.5904 0.6091
1395.000000 0.6277 0.6465 0.6567 0.6561 0.6511
1390.000000 0.6461 0.6411 0.6389 0.6433 0.6546
1385.000000 0.6658 0.6771 0.6885 0.6998 0.7111
1380.000000 0.7225 0.7311 0.7361 0.7398 0.7412
1375.000000 0.7389 0.7365 0.7226 0.7088 0.6949
1370.000000 0.6810 0.6669 0.6530 0.6389 0.6249
1365.000000 0.6108 0.5934 0.5924 0.6008 0.6240
1360.000000 0.6481 0.6721 0.6964 0.7206 0.7601
1355.000000 0.7587 0.7588 0.7589 0.7565 0.7528
1350.000000 0.7481 0.7428 0.7471 0.7518 0.7572
1345.000000 0.7618 0.7661 0.7704 0.7747 0.7783
1340.000000 0.7817 0.7815 0.7821 0.7810 0.7638
1335.000000 0.7448 0.7258 0.7067 0.6875 0.6685
1330.000000 0.6493 0.6302 0.6109 0.6007 0.6037
1325.000000 0.6257 0.6550 0.6843 0.7138 0.7432
1320.000000 0.7726 0.7931 0.8021 0.8088 0.8151
1315.000000 0.8211 0.8240 0.8260 0.8275 0.8275
1310.000000 0.8266 0.8239 0.8200 0.8138 0.8058
1305.000000 0.7951 0.7817 0.7624 0.7401 0.7135
1300.000000 0.7053 0.7000 0.6948 0.6883 0.6795
1295.000000 0.6465 0.6135 0.5803 0.5471 0.5138
1290.000000 0.4805 0.4471 0.4137 0.3802 0.3468
1285.000000 0.3379 0.3445 0.3538 0.3630 0.3696
1280.000000 0.3700 0.3604 0.3472 0.3340 0.3207
1275.000000 0.3066 0.3071 0.3300 0.3730 0.4162
1270.000000 0.4595 0.5028 0.5460 0.5890 0.6360
1265.000000 0.6606 0.6678 0.6728 0.6755 0.6755
1260.000000 0.6751 0.6668 0.6586 0.6503 0.6419
1255.000000 0.6355 0.6302 0.6249 0.6196 0.6143
1250.000000 0.6109 0.6098 0.6117 0.6332 0.6590
1245.000000 0.6847 0.7087 0.7288 0.7468 0.7534
1240.000000 0.7586 0.7628 0.7678 0.7665 0.7641
1235.000000 0.7562 0.7483 0.7404 0.7325 0.7183
1230.000000 0.7191 0.7287 0.7432 0.7578 0.7724
1225.000000 0.7868 0.7986 0.8003 0.8008 0.7969
1220.000000 0.7887 0.7803 0.7733 0.7701 0.7668
1215.000000 0.7628 0.7578 0.7422 0.7212 0.7001
1210.000000 0.6791 0.6580 0.6283 0.6286 0.6394
1205.000000 0.6555 0.6715 0.6876 0.7058 0.7043
1200.000000 0.7011 0.6721 0.6362 0.6002 0.5641
1195.000000 0.5280 0.4918 0.4556 0.4193 0.3829
1190.000000 0.3464 0.3290 0.3394 0.3893 0.4392
1185.000000 0.4891 0.5392 0.5838 0.5925 0.5976
1180.000000 0.6158 0.6352 0.6546 0.6740 0.6935
1175.000000 0.7130 0.7321 0.7395 0.7408 0.7319
1170.000000 0.6992 0.6658 0.6324 0.5989 0.5653
1165.000000 0.5317 0.4980 0.4643 0.4305 0.4095
1160.000000 0.4110 0.4492 0.4876 0.5259 0.5644
1155.000000 0.6029 0.6415 0.6643 0.6758 0.6854
1150.000000 0.6918 0.6968 0.6993 0.7004 0.7001
1145.000000 0.6999 0.6980 0.6928 0.6858 0.6725
1140.000000 0.6453 0.6006 0.5558 0.5109 0.4659
1135.000000 0.4208 0.3757 0.3277 0.3286 0.3504
1130.000000 0.3762 0.3902 0.3950 0.4129 0.4338
1125.000000 0.4546 0.4756 0.5082 0.5086 0.4993
1120.000000 0.4686 0.4378 0.4070 0.3802 0.3912
1115.000000 0.4457 0.5001 0.5545 0.6088 0.6445
1110.000000 0.6611 0.6760 0.6901 0.7011 0.7094
1105.000000 0.7154 0.7189 0.7206 0.7225 0.7146
1100.000000 0.7076 0.6971 0.6861 0.6699 0.6511
1095.000000 0.6307 0.5981 0.5640 0.5299 0.4957
1090.000000 0.4615 0.4272 0.3812 0.3825 0.3907
1085.000000 0.4190 0.4475 0.4760 0.4910 0.4901
1080.000000 0.4353 0.4007 0.3659 0.3310 0.2963
1075.000000 0.2717 0.2532 0.2442 0.2390 0.2416
1070.000000 0.2456 0.2574 0.2781 0.3028 0.3277
1065.000000 0.3526 0.3775 0.4024 0.4274 0.4525
1060.000000 0.4776 0.5028 0.5209 0.5221 0.5198
1055.000000 0.4874 0.4504 0.4134 0.3762 0.3392
1050.000000 0.3019 0.2646 0.2311 0.2307 0.2457
1045.000000 0.2867 0.3278 0.3690 0.4102 0.4516
1040.000000 0.4930 0.5345 0.5760 0.6294 0.6300
1035.000000 0.6174 0.5955 0.5734 0.5570 0.5695
1030.000000 0.5881 0.6067 0.6254 0.6442 0.6572
1025.000000 0.6598 0.6259 0.5893 0.5527 0.5160
1020.000000 0.4793 0.4424 0.4335 0.4723 0.5206
1015.000000 0.5690 0.6089 0.6251 0.6442 0.6778
1010.000000 0.7124 0.7321 0.7499 0.7658 0.7753
1005.000000 0.7768 0.7785 0.7801 0.7831 0.7865
1000.000000 0.7893 0.7918 0.7941 0.7957 0.7975
995.000000 0.7986 0.7986 0.7985 0.7978 0.7971
990.000000 0.7954 0.7934 0.7875 0.7748 0.7578
985.000000 0.7242 0.6715 0.6170 0.5623 0.4639
980.000000 0.4641 0.4723 0.5109 0.5503 0.5897
975.000000 0.6149 0.6004 0.5717 0.5428 0.5254
970.000000 0.5445 0.5797 0.6151 0.6504 0.6608
965.000000 0.6544 0.6438 0.6439 0.6814 0.7197
960.000000 0.7465 0.7632 0.7764 0.7839 0.7897
955.000000 0.7946 0.7974 0.7994 0.7998 0.7997
950.000000 0.7967 0.7886 0.7769 0.7587 0.7121
945.000000 0.6451 0.5778 0.5104 0.4762 0.5151
940.000000 0.5625 0.6099 0.6574 0.7047 0.7175
935.000000 0.7078 0.6978 0.6925 0.7061 0.7349
930.000000 0.7608 0.7768 0.7891 0.7957 0.7978
925.000000 0.7969 0.7811 0.7383 0.6926 0.6468
920.000000 0.6010 0.5553 0.5092 0.4631 0.4157
915.000000 0.4150 0.4634 0.5323 0.6015 0.6665
910.000000 0.7065 0.7369 0.7605 0.7788 0.7925
905.000000 0.8042 0.8118 0.8149 0.8228 0.8324
900.000000 0.8410 0.8475 0.8525 0.8563 0.8602
895.000000 0.8634 0.8656 0.8678 0.8693 0.8707
890.000000 0.8718 0.8720 0.8721 0.8724 0.8714
885.000000 0.8697 0.8667 0.8601 0.8435 0.8251
880.000000 0.7990 0.7998 0.8042 0.8111 0.8151
875.000000 0.8194 0.7983 0.7464 0.6943 0.6421
870.000000 0.5818 0.5882 0.6397 0.6926 0.7458
865.000000 0.7925 0.8147 0.8289 0.8408 0.8503
860.000000 0.8561 0.8605 0.8639 0.8673 0.8692
855.000000 0.8705 0.8745 0.8713 0.8713 0.8696
850.000000 0.8668 0.8621 0.8543 0.8400 0.8167
845.000000 0.7717 0.7075 0.6414 0.5752 0.5088
840.000000 0.4346 0.4384 0.5022 0.5704 0.6382
835.000000 0.6878 0.7135 0.7340 0.7525 0.7700
830.000000 0.7898 0.8062 0.8201 0.8317 0.8400
825.000000 0.8459 0.8509 0.8543 0.8571 0.8612
820.000000 0.8606 0.8608 0.8567 0.8494 0.8361
815.000000 0.8220 0.7976 0.8001 0.8068 0.8186
810.000000 0.8268 0.8257 0.8178 0.8001 0.7750
805.000000 0.7301 0.7050 0.6935 0.6708 0.6343
800.000000 0.4941 0.3925 0.3195 0.2776 0.3248
795.000000 0.3921 0.4596 0.5305 0.5042 0.4405
790.000000 0.3476 0.3475 0.4050 0.4680 0.5310
785.000000 0.5899 0.6434 0.6846 0.7350 0.7656
780.000000 0.7889 0.8056 0.8169 0.8240 0.8257
775.000000 0.8263 0.8139 0.7878 0.7638 0.7582
770.000000 0.7580 0.7786 0.8001 0.8195 0.8325
765.000000 0.8435 0.8486 0.8518 0.8541 0.8528
760.000000 0.8506 0.8441 0.8325 0.8151 0.7831
755.000000 0.7140 0.6293 0.5741 0.6166 0.6744
750.000000 0.7294 0.7688 0.7876 0.8022 0.8111
745.000000 0.8171 0.8216 0.8248 0.8268 0.8286
740.000000 0.8304 0.8316 0.8325 0.8336 0.8354
735.000000 0.8347 0.8347 0.8339 0.8332 0.8318
730.000000 0.8301 0.8273 0.8236 0.8186 0.8125
725.000000 0.8051 0.7944 0.7757 0.7353 0.7012
720.000000 0.6739 0.6619 0.6618 0.6618 0.6792
715.000000 0.6955 0.7108 0.7243 0.7325 0.7389
710.000000 0.7426 0.7449 0.7462 0.7458 0.7448
705.000000 0.7430 0.7405 0.7364 0.7318 0.7250
700.000000 0.7168 0.7068 0.6907 0.6669 0.6371
695.000000 0.5920 0.5586 0.5396 0.5250 0.5337
690.000000 0.5732 0.6046 0.6312 0.6540 0.6683
685.000000 0.6790 0.6754 0.6761 0.6743 0.6698
680.000000 0.6622 0.6528 0.6425 0.6253 0.6078
675.000000 0.5925 0.5804 0.5803 0.5866 0.6057
670.000000 0.6196 0.6289 0.6350 0.6496 0.6700
665.000000 0.6858 0.6908 0.6887 0.6861 0.6849
660.000000 0.6865 0.6883 0.6898 0.6911 0.6919
655.000000 0.6919 0.6915 0.6896 0.6887
##END=
