##TITLE=3-AMINO-P-TOLUENE SULFONIC ACID
$$ E.K. (W.L.)
##JCAMP-DX=4.24
##DATA TYPE=INFRARED SPECTRUM
##CLASS=COBLENTZ
##ORIGIN=WYANDOTTE CHEMICALS CORP., WYANDOTTE, MICHIGAN, USA
##OWNER=COBLENTZ SOCIETY
Collection (C) 2018 copyright by the U.S. Secretary of Commerce
on behalf of the United States of America. All rights reserved.
##DATE=Not specified, most likely prior to 1970
##MOLFORM=C7 H9 O3 S
##SOURCE REFERENCE=COBLENTZ NO. 1362
##$NIST ID=B6001362
##$NIST SOURCE=COBLENTZ
##$NIST IMAGE=cob1362
##SPECTROMETER/DATA SYSTEM=Not specified, most likely a prism, grating, or hybrid spectrometer.
##STATE=SOLID (MINERAL OIL MULL)
##SAMPLING PROCEDURE=TRANSMISSION
##RESOLUTION=4
##DATA PROCESSING=DIGITIZED BY NIST FROM HARD COPY
##XUNITS=MICROMETERS
##YUNITS=TRANSMITTANCE
##XFACTOR=1.000000
##YFACTOR=1
##DELTAX=000.006806
##FIRSTX=2.014
##LASTX=15.9796
##FIRSTY=0.563
##MAXX=15.9796
##MINX=2.014
##MAXY=0.93
##MINY=0.027
##NPOINTS=2053
##XYDATA=(X++(Y..Y))
2.014000 0.5630 0.5630 0.5630 0.5660 0.5680
2.048047 0.5700 0.5700 0.5710 0.5730 0.5730
2.082000 0.5730 0.5760 0.5760 0.5780 0.5780
2.116047 0.5800 0.5800 0.5820 0.5820 0.5820
2.150000 0.5820 0.5830 0.5830 0.5830 0.5830
2.184047 0.5830 0.5820 0.5830 0.5830 0.5850
2.218000 0.5850 0.5870 0.5870 0.5870 0.5870
2.252047 0.5880 0.5880 0.5900 0.5900 0.5920
2.286000 0.5980 0.6000 0.6020 0.6040 0.6070
2.320047 0.6090 0.6090 0.6100 0.6140 0.6170
2.354000 0.6190 0.6190 0.6190 0.6200 0.6220
2.388047 0.6270 0.6290 0.6310 0.6320 0.6340
2.422000 0.6370 0.6390 0.6410 0.6420 0.6420
2.456047 0.6480 0.6490 0.6510 0.6530 0.6530
2.490000 0.6580 0.6580 0.6590 0.6610 0.6640
2.524047 0.6660 0.6680 0.6710 0.6730 0.6780
2.558000 0.6800 0.6860 0.6880 0.6900 0.6920
2.592047 0.6930 0.6950 0.6970 0.6980 0.7000
2.626000 0.7020 0.7080 0.7100 0.7140 0.7170
2.660047 0.7190 0.7190 0.7190 0.7220 0.7240
2.694000 0.7270 0.7270 0.7270 0.7270 0.7200
2.728047 0.7170 0.7120 0.7050 0.6980 0.6880
2.762000 0.6750 0.6420 0.6240 0.6050 0.5850
2.796047 0.5630 0.5440 0.5320 0.5220 0.5160
2.830000 0.5140 0.5140 0.5140 0.5120 0.5120
2.864047 0.5100 0.5090 0.5020 0.4990 0.4900
2.898000 0.4830 0.4800 0.4730 0.4720 0.4700
2.932047 0.4650 0.4600 0.4530 0.4500 0.4450
2.966000 0.4410 0.4380 0.4360 0.4380 0.4500
3.000047 0.4560 0.4670 0.4770 0.4890 0.5000
3.035000 0.5140 0.5260 0.5310 0.5320 0.5320
3.069047 0.5290 0.5260 0.5170 0.5100 0.5020
3.103000 0.5000 0.5020 0.5020 0.5040 0.5040
3.137047 0.5040 0.5040 0.5020 0.5020 0.4990
3.171000 0.4940 0.4920 0.4900 0.4870 0.4830
3.205047 0.4770 0.4680 0.4580 0.4380 0.4070
3.239000 0.3900 0.3620 0.3400 0.3110 0.3020
3.273047 0.2960 0.2850 0.2750 0.2600 0.2380
3.307000 0.2300 0.2160 0.1970 0.1770 0.1520
3.341047 0.1260 0.1010 0.0770 0.0620 0.0470
3.375000 0.0350 0.0320 0.0300 0.0280 0.0270
3.409047 0.0270 0.0270 0.0270 0.0270 0.0280
3.443000 0.0300 0.0320 0.0330 0.0380 0.0400
3.477047 0.0420 0.0400 0.0400 0.0350 0.0330
3.511000 0.0350 0.0490 0.0650 0.1030 0.1520
3.545047 0.1990 0.2430 0.2750 0.2990 0.3140
3.579000 0.3260 0.3330 0.3380 0.3410 0.3510
3.613047 0.3630 0.3650 0.3700 0.3750 0.3790
3.647000 0.3800 0.3820 0.3870 0.3940 0.3970
3.681047 0.3990 0.4010 0.4040 0.4090 0.4140
3.715000 0.4170 0.4190 0.4190 0.4170 0.4040
3.749047 0.3950 0.3850 0.3750 0.3650 0.3550
3.783000 0.3460 0.3410 0.3360 0.3310 0.3290
3.817047 0.3310 0.3350 0.3360 0.3410 0.3480
3.851000 0.3510 0.3550 0.3580 0.3650 0.3680
3.885047 0.3720 0.3750 0.3820 0.3890 0.3970
3.919000 0.4040 0.4110 0.4160 0.4210 0.4290
3.953047 0.4390 0.4500 0.4550 0.4610 0.4650
3.987000 0.4720 0.4780 0.4900 0.4990 0.5040
4.021047 0.5090 0.5120 0.5160 0.5210 0.5260
4.055000 0.5310 0.5320 0.5380 0.5440 0.5490
4.089047 0.5560 0.5600 0.5610 0.5650 0.5660
4.123000 0.5680 0.5700 0.5730 0.5780 0.5780
4.157047 0.5820 0.5830 0.5870 0.5880 0.5880
4.192000 0.5920 0.5970 0.5980 0.6000 0.6040
4.226047 0.6100 0.6150 0.6190 0.6190 0.6170
4.260000 0.6150 0.6140 0.6120 0.6120 0.6140
4.294047 0.6150 0.6190 0.6200 0.6220 0.6220
4.328000 0.6220 0.6260 0.6290 0.6360 0.6460
4.362047 0.6490 0.6540 0.6610 0.6640 0.6680
4.396000 0.6700 0.6760 0.6810 0.6850 0.6880
4.430047 0.6920 0.6950 0.6950 0.6950 0.6970
4.464000 0.6970 0.6980 0.7000 0.7000 0.7020
4.498047 0.7020 0.7020 0.7020 0.7020 0.7020
4.532000 0.7030 0.7030 0.7030 0.7030 0.7050
4.566047 0.7050 0.7050 0.7070 0.7070 0.7070
4.600000 0.7080 0.7080 0.7100 0.7100 0.7120
4.634047 0.7150 0.7200 0.7250 0.7290 0.7300
4.668000 0.7340 0.7360 0.7370 0.7390 0.7410
4.702047 0.7420 0.7440 0.7460 0.7470 0.7490
4.736000 0.7490 0.7520 0.7590 0.7640 0.7690
4.770047 0.7690 0.7690 0.7690 0.7660 0.7640
4.804000 0.7640 0.7630 0.7610 0.7590 0.7580
4.838047 0.7560 0.7490 0.7470 0.7440 0.7410
4.872000 0.7390 0.7360 0.7340 0.7320 0.7300
4.906047 0.7270 0.7250 0.7220 0.7200 0.7200
4.940000 0.7200 0.7200 0.7220 0.7220 0.7240
4.974047 0.7250 0.7270 0.7290 0.7300 0.7360
5.008000 0.7410 0.7440 0.7490 0.7520 0.7580
5.042047 0.7610 0.7660 0.7710 0.7740 0.7800
5.076000 0.7850 0.7900 0.7950 0.8000 0.8030
5.110047 0.8080 0.8120 0.8170 0.8180 0.8180
5.144000 0.8220 0.8290 0.8320 0.8320 0.8340
5.178047 0.8350 0.8370 0.8400 0.8420 0.8460
5.212000 0.8490 0.8520 0.8570 0.8640 0.8680
5.246047 0.8680 0.8690 0.8690 0.8680 0.8660
5.281000 0.8660 0.8660 0.8680 0.8730 0.8790
5.315047 0.8830 0.8860 0.8880 0.8900 0.8910
5.349000 0.8950 0.8960 0.8980 0.8980 0.9000
5.383047 0.9000 0.9010 0.9010 0.9050 0.9050
5.417000 0.9060 0.9080 0.9080 0.9080 0.9060
5.451047 0.9060 0.9060 0.9080 0.9100 0.9120
5.485000 0.9120 0.9120 0.9130 0.9150 0.9170
5.519047 0.9200 0.9220 0.9230 0.9270 0.9280
5.553000 0.9280 0.9300 0.9300 0.9230 0.9170
5.587047 0.9120 0.9060 0.9010 0.8960 0.8910
5.621000 0.8860 0.8860 0.8910 0.9010 0.9080
5.655047 0.9120 0.9130 0.9150 0.9170 0.9220
5.689000 0.9270 0.9270 0.9230 0.9230 0.9220
5.723047 0.9180 0.9180 0.9170 0.9180 0.9180
5.757000 0.9180 0.9170 0.9150 0.9150 0.9130
5.791047 0.9130 0.9130 0.9130 0.9120 0.9100
5.825000 0.9100 0.9100 0.9080 0.9060 0.9050
5.859047 0.9030 0.8960 0.8950 0.8950 0.8950
5.893000 0.8950 0.8900 0.8860 0.8840 0.8760
5.927047 0.8730 0.8690 0.8690 0.8680 0.8680
5.961000 0.8660 0.8640 0.8620 0.8610 0.8560
5.995047 0.8510 0.8440 0.8340 0.8250 0.8150
6.029000 0.8070 0.7980 0.7900 0.7850 0.7690
6.063047 0.7560 0.7390 0.7200 0.7030 0.6900
6.097000 0.6700 0.6410 0.6200 0.6070 0.6000
6.131047 0.5970 0.5900 0.5900 0.5880 0.5900
6.165000 0.6000 0.6290 0.6540 0.6660 0.6760
6.199047 0.6970 0.7150 0.7320 0.7440 0.7560
6.233000 0.7680 0.7760 0.7850 0.7900 0.7950
6.267047 0.7980 0.8000 0.8020 0.8020 0.8000
6.301000 0.7960 0.7960 0.7900 0.7880 0.7880
6.335047 0.7900 0.7950 0.7980 0.8000 0.8000
6.369000 0.7980 0.7980 0.7960 0.7950 0.7900
6.403047 0.7800 0.7610 0.7510 0.7320 0.7100
6.438000 0.6830 0.6260 0.5980 0.5750 0.5530
6.472047 0.5190 0.4900 0.4670 0.4650 0.4700
6.506000 0.4820 0.4990 0.5210 0.5480 0.5780
6.540047 0.6100 0.6460 0.6610 0.6750 0.7030
6.574000 0.7270 0.7410 0.7470 0.7490 0.7510
6.608047 0.7540 0.7580 0.7580 0.7490 0.7100
6.642000 0.6980 0.6800 0.6680 0.6220 0.6000
6.676047 0.5850 0.5800 0.5870 0.6020 0.6120
6.710000 0.6200 0.6220 0.6200 0.6140 0.6040
6.744047 0.5880 0.5680 0.5430 0.4950 0.3580
6.778000 0.3380 0.2940 0.2700 0.2480 0.2260
6.812047 0.2230 0.2210 0.2250 0.2310 0.2380
6.846000 0.2430 0.2670 0.2920 0.3110 0.3240
6.880047 0.3360 0.3580 0.3850 0.4230 0.4530
6.914000 0.4800 0.5070 0.5360 0.5650 0.6000
6.948047 0.6410 0.6640 0.6880 0.7200 0.7460
6.982000 0.7680 0.7850 0.8020 0.8150 0.8250
7.016047 0.8290 0.8300 0.8290 0.8270 0.8240
7.050000 0.8150 0.8050 0.7930 0.7800 0.7590
7.084047 0.7580 0.7580 0.7590 0.7640 0.7760
7.118000 0.7830 0.7880 0.7930 0.7960 0.8030
7.152047 0.8100 0.8200 0.8220 0.8220 0.8180
7.186000 0.8080 0.7980 0.7710 0.7360 0.6930
7.220047 0.6240 0.5800 0.5380 0.5050 0.4770
7.254000 0.4700 0.4700 0.4800 0.5530 0.6040
7.288047 0.6410 0.6640 0.6730 0.6800 0.6920
7.322000 0.7050 0.7200 0.7440 0.7730 0.7910
7.356047 0.8100 0.8180 0.8200 0.8200 0.8200
7.390000 0.8200 0.8240 0.8300 0.8350 0.8390
7.424047 0.8440 0.8470 0.8470 0.8490 0.8490
7.458000 0.8490 0.8510 0.8560 0.8610 0.8660
7.492047 0.8690 0.8710 0.8730 0.8730 0.8740
7.526000 0.8740 0.8740 0.8740 0.8740 0.8710
7.560047 0.8680 0.8660 0.8620 0.8610 0.8590
7.595000 0.8540 0.8490 0.8400 0.8300 0.8200
7.629047 0.8080 0.7960 0.7810 0.7630 0.7440
7.663000 0.7240 0.7030 0.6660 0.6680 0.6700
7.697047 0.6850 0.6970 0.7140 0.7340 0.7510
7.731000 0.7610 0.7690 0.7740 0.7780 0.7800
7.765047 0.7800 0.7800 0.7800 0.7800 0.7800
7.799000 0.7810 0.7800 0.7800 0.7780 0.7760
7.833047 0.7640 0.7590 0.7510 0.7420 0.7340
7.867000 0.7270 0.7200 0.7140 0.7030 0.6920
7.901047 0.6750 0.6530 0.6420 0.6290 0.6150
7.935000 0.6020 0.5880 0.5780 0.5660 0.5540
7.969047 0.5390 0.5240 0.5050 0.4890 0.4610
8.003000 0.4530 0.4380 0.4310 0.4120 0.3900
8.037047 0.3700 0.3480 0.3010 0.2800 0.2580
8.071000 0.2410 0.2230 0.2060 0.1960 0.1870
8.105047 0.1820 0.1790 0.1740 0.1690 0.1620
8.139000 0.1550 0.1470 0.1430 0.1400 0.1380
8.173047 0.1370 0.1380 0.1400 0.1430 0.1470
8.207000 0.1530 0.1640 0.1670 0.1740 0.1810
8.241047 0.1890 0.1960 0.1990 0.1990 0.2010
8.275000 0.2040 0.2040 0.2060 0.2090 0.2110
8.309047 0.2090 0.2040 0.2010 0.1990 0.1960
8.343000 0.1870 0.1810 0.1720 0.1650 0.1590
8.377047 0.1520 0.1500 0.1500 0.1480 0.1480
8.411000 0.1480 0.1500 0.1530 0.1570 0.1590
8.445047 0.1590 0.1570 0.1500 0.1500 0.1500
8.479000 0.1500 0.1500 0.1520 0.1520 0.1530
8.513047 0.1570 0.1590 0.1590 0.1570 0.1570
8.547000 0.1600 0.1690 0.1750 0.1820 0.1860
8.581047 0.1870 0.1910 0.1970 0.2010 0.2040
8.615000 0.2040 0.2090 0.2130 0.2180 0.2210
8.649047 0.2260 0.2310 0.2330 0.2350 0.2380
8.684000 0.2410 0.2480 0.2550 0.2630 0.2720
8.718047 0.2790 0.2850 0.2910 0.2960 0.3040
8.752000 0.3090 0.3130 0.3190 0.3290 0.3350
8.786047 0.3380 0.3400 0.3460 0.3530 0.3620
8.820000 0.3720 0.3770 0.3820 0.3870 0.4060
8.854047 0.4160 0.4190 0.4210 0.4230 0.4240
8.888000 0.4280 0.4290 0.4290 0.4310 0.4290
8.922047 0.4170 0.4060 0.3950 0.3890 0.3800
8.956000 0.3670 0.3510 0.3090 0.2960 0.2820
8.990047 0.2650 0.2570 0.2400 0.2300 0.2300
9.024000 0.2360 0.2520 0.2700 0.2920 0.3180
9.058047 0.3310 0.3430 0.3680 0.3940 0.4160
9.092000 0.4330 0.4500 0.4630 0.4750 0.4870
9.126047 0.4970 0.5090 0.5190 0.5290 0.5360
9.160000 0.5380 0.5390 0.5390 0.5410 0.5410
9.194047 0.5440 0.5540 0.5610 0.5650 0.5680
9.228000 0.5700 0.5700 0.5710 0.5710 0.5710
9.262047 0.5730 0.5730 0.5750 0.5780 0.5800
9.296000 0.5830 0.5850 0.5850 0.5870 0.5870
9.330047 0.5870 0.5870 0.5830 0.5800 0.5780
9.364000 0.5730 0.5680 0.5630 0.5610 0.5540
9.398047 0.5480 0.5380 0.5270 0.5160 0.5100
9.432000 0.5040 0.4970 0.4900 0.4820 0.4700
9.466047 0.4580 0.4430 0.4240 0.4070 0.3890
9.500000 0.3700 0.3480 0.2960 0.2630 0.2380
9.534047 0.2130 0.1920 0.1720 0.1570 0.1450
9.568000 0.1350 0.1280 0.1250 0.1300 0.1370
9.602047 0.1480 0.1650 0.1810 0.1940 0.2030
9.636000 0.2160 0.2330 0.2430 0.2500 0.2550
9.670047 0.2630 0.2740 0.2820 0.2910 0.3020
9.704000 0.3140 0.3290 0.3360 0.3430 0.3580
9.738047 0.3720 0.3870 0.4010 0.4140 0.4240
9.772000 0.4380 0.4510 0.4650 0.4770 0.4890
9.806047 0.5020 0.5140 0.5240 0.5360 0.5460
9.841000 0.5540 0.5630 0.5710 0.5780 0.5830
9.875047 0.5930 0.5950 0.6020 0.6040 0.6070
9.909000 0.6040 0.5980 0.5930 0.5830 0.5730
9.943047 0.5630 0.5540 0.5440 0.5360 0.5270
9.977000 0.5260 0.5260 0.5310 0.5380 0.5460
10.011047 0.5600 0.5680 0.5760 0.5830 0.5920
10.045000 0.5980 0.6050 0.6100 0.6170 0.6240
10.079047 0.6320 0.6370 0.6440 0.6480 0.6490
10.113000 0.6530 0.6530 0.6540 0.6540 0.6540
10.147047 0.6530 0.6530 0.6510 0.6490 0.6490
10.181000 0.6490 0.6490 0.6490 0.6490 0.6490
10.215047 0.6490 0.6490 0.6490 0.6490 0.6510
10.249000 0.6540 0.6580 0.6610 0.6680 0.6730
10.283047 0.6780 0.6860 0.6900 0.6900 0.6930
10.317000 0.6980 0.7030 0.7080 0.7140 0.7190
10.351047 0.7240 0.7290 0.7290 0.7320 0.7340
10.385000 0.7360 0.7370 0.7390 0.7390 0.7420
10.419047 0.7410 0.7420 0.7420 0.7440 0.7460
10.453000 0.7470 0.7490 0.7510 0.7560 0.7580
10.487047 0.7590 0.7590 0.7610 0.7610 0.7630
10.521000 0.7630 0.7640 0.7640 0.7660 0.7660
10.555047 0.7680 0.7690 0.7710 0.7710 0.7730
10.589000 0.7730 0.7740 0.7740 0.7760 0.7760
10.623047 0.7780 0.7780 0.7800 0.7800 0.7810
10.657000 0.7810 0.7830 0.7850 0.7860 0.7860
10.691047 0.7860 0.7860 0.7880 0.7880 0.7880
10.725000 0.7880 0.7910 0.7950 0.7960 0.7980
10.759047 0.8000 0.8030 0.8070 0.8080 0.8080
10.793000 0.8100 0.8100 0.8120 0.8120 0.8120
10.827047 0.8120 0.8120 0.8130 0.8130 0.8130
10.861000 0.8150 0.8150 0.8150 0.8170 0.8170
10.895047 0.8180 0.8180 0.8200 0.8200 0.8200
10.930000 0.8220 0.8240 0.8240 0.8270 0.8300
10.964047 0.8300 0.8320 0.8320 0.8350 0.8350
10.998000 0.8340 0.8320 0.8290 0.8200 0.8120
11.032047 0.7980 0.7830 0.7630 0.7470 0.7290
11.066000 0.6970 0.6880 0.6880 0.6950 0.7140
11.100047 0.7290 0.7440 0.7660 0.7740 0.7830
11.134000 0.7910 0.7910 0.7900 0.7880 0.7860
11.168047 0.7800 0.7760 0.7690 0.7660 0.7660
11.202000 0.7690 0.7730 0.7740 0.7780 0.7810
11.236047 0.7830 0.7860 0.7900 0.7950 0.7980
11.270000 0.8030 0.8080 0.8120 0.8130 0.8170
11.304047 0.8170 0.8150 0.8130 0.8120 0.8100
11.338000 0.8080 0.8080 0.8100 0.8150 0.8170
11.372047 0.8170 0.8180 0.8180 0.8200 0.8200
11.406000 0.8180 0.8200 0.8200 0.8200 0.8220
11.440047 0.8220 0.8240 0.8250 0.8250 0.8250
11.474000 0.8270 0.8270 0.8290 0.8290 0.8290
11.508047 0.8300 0.8300 0.8290 0.8290 0.8270
11.542000 0.8270 0.8270 0.8290 0.8300 0.8300
11.576047 0.8320 0.8320 0.8320 0.8320 0.8300
11.610000 0.8300 0.8290 0.8270 0.8290 0.8270
11.644047 0.8270 0.8250 0.8250 0.8250 0.8270
11.678000 0.8270 0.8270 0.8250 0.8250 0.8250
11.712047 0.8250 0.8250 0.8270 0.8270 0.8290
11.746000 0.8290 0.8290 0.8300 0.8300 0.8300
11.780047 0.8290 0.8290 0.8300 0.8300 0.8340
11.814000 0.8320 0.8340 0.8340 0.8340 0.8350
11.848047 0.8350 0.8350 0.8370 0.8370 0.8370
11.882000 0.8390 0.8390 0.8390 0.8390 0.8390
11.916047 0.8400 0.8400 0.8400 0.8390 0.8390
11.950000 0.8390 0.8370 0.8350 0.8340 0.8340
11.984047 0.8300 0.8270 0.8200 0.8150 0.8030
12.018000 0.7980 0.7900 0.7800 0.7690 0.7580
12.052047 0.7460 0.7320 0.7190 0.7030 0.6860
12.087000 0.6710 0.6360 0.6170 0.5980 0.5880
12.121047 0.5730 0.5630 0.5580 0.5580 0.5600
12.155000 0.5660 0.5730 0.5850 0.5970 0.6120
12.189047 0.6360 0.6510 0.6660 0.6800 0.6970
12.223000 0.7100 0.7250 0.7390 0.7510 0.7630
12.257047 0.7740 0.7850 0.7930 0.8020 0.8150
12.291000 0.8220 0.8270 0.8290 0.8300 0.8320
12.325047 0.8340 0.8350 0.8370 0.8390 0.8400
12.359000 0.8420 0.8440 0.8460 0.8460 0.8460
12.393047 0.8470 0.8470 0.8490 0.8490 0.8510
12.427000 0.8510 0.8510 0.8520 0.8520 0.8520
12.461047 0.8520 0.8520 0.8520 0.8520 0.8520
12.495000 0.8520 0.8520 0.8520 0.8520 0.8510
12.529047 0.8510 0.8510 0.8510 0.8490 0.8490
12.563000 0.8490 0.8490 0.8470 0.8470 0.8460
12.597047 0.8460 0.8420 0.8400 0.8390 0.8390
12.631000 0.8370 0.8370 0.8370 0.8350 0.8340
12.665047 0.8340 0.8320 0.8300 0.8290 0.8290
12.699000 0.8270 0.8250 0.8250 0.8240 0.8200
12.733047 0.8200 0.8180 0.8170 0.8170 0.8150
12.767000 0.8150 0.8130 0.8130 0.8120 0.8100
12.801047 0.8080 0.8070 0.8070 0.8050 0.8050
12.835000 0.8030 0.8030 0.8020 0.8020 0.8000
12.869047 0.7980 0.7950 0.7930 0.7900 0.7880
12.903000 0.7860 0.7860 0.7860 0.7850 0.7850
12.937047 0.7830 0.7830 0.7810 0.7810 0.7800
12.971000 0.7780 0.7760 0.7740 0.7740 0.7740
13.005047 0.7730 0.7730 0.7710 0.7710 0.7680
13.039000 0.7680 0.7680 0.7660 0.7660 0.7660
13.073047 0.7660 0.7660 0.7680 0.7680 0.7680
13.107000 0.7680 0.7680 0.7680 0.7680 0.7680
13.141047 0.7680 0.7680 0.7680 0.7680 0.7680
13.175000 0.7660 0.7660 0.7660 0.7640 0.7640
13.209047 0.7630 0.7590 0.7590 0.7590 0.7590
13.244000 0.7590 0.7590 0.7580 0.7580 0.7560
13.278047 0.7540 0.7520 0.7520 0.7510 0.7490
13.312000 0.7470 0.7460 0.7390 0.7320 0.7270
13.346047 0.7240 0.7190 0.7170 0.7150 0.7120
13.380000 0.7100 0.7080 0.7100 0.7140 0.7170
13.414047 0.7200 0.7250 0.7270 0.7270 0.7290
13.448000 0.7290 0.7300 0.7320 0.7360 0.7370
13.482047 0.7370 0.7370 0.7370 0.7320 0.7320
13.516000 0.7340 0.7340 0.7340 0.7340 0.7340
13.550047 0.7340 0.7360 0.7360 0.7360 0.7360
13.584000 0.7360 0.7360 0.7360 0.7360 0.7360
13.618047 0.7360 0.7360 0.7360 0.7360 0.7340
13.652000 0.7340 0.7320 0.7320 0.7300 0.7300
13.686047 0.7300 0.7290 0.7290 0.7320 0.7320
13.720000 0.7340 0.7340 0.7340 0.7300 0.7290
13.754047 0.7290 0.7270 0.7270 0.7270 0.7240
13.788000 0.7250 0.7220 0.7220 0.7220 0.7200
13.822047 0.7200 0.7190 0.7190 0.7170 0.7170
13.856000 0.7150 0.7150 0.7150 0.7140 0.7120
13.890047 0.7100 0.7070 0.7050 0.7030 0.7050
13.924000 0.7070 0.7080 0.7140 0.7170 0.7200
13.958047 0.7220 0.7250 0.7270 0.7300 0.7320
13.992000 0.7360 0.7370 0.7370 0.7390 0.7390
14.026047 0.7410 0.7410 0.7410 0.7410 0.7390
14.060000 0.7390 0.7390 0.7390 0.7390 0.7370
14.094047 0.7340 0.7340 0.7300 0.7300 0.7300
14.128000 0.7250 0.7200 0.7150 0.7080 0.7020
14.162047 0.6950 0.6860 0.6780 0.6680 0.6560
14.196000 0.6480 0.6370 0.6260 0.6140 0.5980
14.230047 0.5880 0.5880 0.5830 0.5830 0.5850
14.264000 0.5870 0.5880 0.5880 0.5900 0.5950
14.298047 0.5980 0.6020 0.6100 0.6150 0.6170
14.333000 0.6190 0.6200 0.6270 0.6270 0.6290
14.367047 0.6310 0.6320 0.6320 0.6320 0.6320
14.401000 0.6310 0.6290 0.6270 0.6220 0.6150
14.435047 0.6070 0.6050 0.6040 0.6020 0.5980
14.469000 0.5930 0.5880 0.5820 0.5760 0.5730
14.503047 0.5680 0.5610 0.5540 0.5460 0.5380
14.537000 0.5240 0.5190 0.5100 0.5040 0.4950
14.571047 0.4890 0.4800 0.4700 0.4610 0.4530
14.605000 0.4430 0.4330 0.4240 0.4140 0.4040
14.639047 0.3950 0.3870 0.3770 0.3680 0.3600
14.673000 0.3510 0.3430 0.3350 0.3230 0.3190
14.707047 0.3160 0.3160 0.3110 0.3040 0.3010
14.741000 0.3010 0.3010 0.3010 0.3020 0.3020
14.775047 0.3060 0.3090 0.3130 0.3160 0.3210
14.809000 0.3240 0.3290 0.3330 0.3350 0.3410
14.843047 0.3480 0.3570 0.3630 0.3680 0.3750
14.877000 0.3820 0.3900 0.4010 0.4110 0.4210
14.911047 0.4290 0.4390 0.4460 0.4530 0.4580
14.945000 0.4610 0.4680 0.4730 0.4800 0.4850
14.979047 0.4900 0.4920 0.4940 0.4950 0.4970
15.013000 0.4990 0.4990 0.5000 0.5000 0.5020
15.047047 0.5040 0.5070 0.5100 0.5160 0.5210
15.081000 0.5260 0.5340 0.5430 0.5530 0.5600
15.115047 0.5610 0.5680 0.5760 0.5780 0.5820
15.149000 0.5850 0.5880 0.5900 0.5930 0.5970
15.183047 0.5980 0.5980 0.5980 0.5980 0.5980
15.217000 0.5980 0.5980 0.5980 0.5980 0.5980
15.251047 0.5980 0.5980 0.6000 0.6000 0.6000
15.285000 0.6000 0.6020 0.6020 0.6020 0.6020
15.319047 0.6020 0.6020 0.6040 0.6040 0.6050
15.353000 0.6050 0.6050 0.6050 0.6050 0.6040
15.387047 0.6040 0.6020 0.6000 0.6000 0.6000
15.421000 0.5980 0.5970 0.5970 0.5950 0.5930
15.455047 0.5930 0.5920 0.5900 0.5900 0.5900
15.490000 0.5900 0.5900 0.5900 0.5880 0.5880
15.524047 0.5880 0.5880 0.5880 0.5880 0.5880
15.558000 0.5870 0.5870 0.5870 0.5870 0.5870
15.592047 0.5870 0.5850 0.5830 0.5830 0.5820
15.626000 0.5820 0.5800 0.5780 0.5760 0.5750
15.660047 0.5730 0.5710 0.5700 0.5700 0.5680
15.694000 0.5680 0.5660 0.5660 0.5650 0.5630
15.728047 0.5630 0.5610 0.5600 0.5600 0.5600
15.762000 0.5600 0.5580 0.5580 0.5560 0.5540
15.796047 0.5540 0.5540 0.5540 0.5530 0.5510
15.830000 0.5490 0.5480 0.5460 0.5430 0.5410
15.864047 0.5410 0.5390 0.5390 0.5380 0.5360
15.898000 0.5340 0.5340 0.5320 0.5310 0.5310
15.932047 0.5290 0.5290 0.5270 0.5260 0.5260
15.966000 0.5240 0.5240 0.5210
##END=
