##TITLE=Propionitrile, 3-amino-, fumarate
##JCAMP-DX=4.24
##DATA TYPE=INFRARED SPECTRUM
##CLASS=COBLENTZ III
##ORIGIN=ABBOTT LABORATORIES
##OWNER=Copyright (C) 1987 by the Coblentz Society
Collection (C) 2018 copyright by the U.S. Secretary of Commerce
on behalf of the United States of America. All rights reserved.
##DATE=1962/05/17
##MOLFORM=C10 H16 N4 O4
##SOURCE REFERENCE=COBLENTZ NO. 5341
##$NIST ID=B6005341
##$NIST SOURCE=COBLENTZ
##$NIST IMAGE=cob5341
##SPECTROMETER/DATA SYSTEM=PERKIN-ELMER 21 (GRATING)
$$SPECTRAL CONTAMINATION DUE TO OIL AROUND 1460 AND 2900 CM^-^1
##INSTRUMENT PARAMETERS=FILTER AT ABOUT 10 MICRONS
$$ SPECTRAL FEATURE AT 1067 CM^-^1 IS AN ARTIFACT CAUSED BY FILTER CHANGE
##STATE=SOLID (NUJOL MULL)
##RESOLUTION=2
##XUNITS=1/CM
##YUNITS=TRANSMITTANCE
##XFACTOR=1.0
##YFACTOR=1
##FIRSTX=667
##LASTX=4000
##FIRSTY=0.4897
##MAXX=4000
##MINX=667
##MAXY=0.7913
##MINY=0.0138
##NPOINTS=3334
##XYDATA=(X++(Y..Y))
667.000000 0.4897 0.4805 0.4577 0.4036 0.3442
672.000000 0.2849 0.2257 0.1880 0.1687 0.1655
677.000000 0.1827 0.2310 0.2803 0.3295 0.3860
682.000000 0.4449 0.4991 0.5272 0.5588 0.5989
687.000000 0.6341 0.6564 0.6721 0.6836 0.6934
692.000000 0.7020 0.7076 0.7132 0.7158 0.7181
697.000000 0.7198 0.7203 0.7208 0.7216 0.7225
702.000000 0.7239 0.7263 0.7289 0.7290 0.7260
707.000000 0.7219 0.7182 0.7172 0.7164 0.7156
712.000000 0.7130 0.7098 0.7062 0.7028 0.6995
717.000000 0.6960 0.6937 0.6937 0.6941 0.6962
722.000000 0.6999 0.7043 0.7095 0.7144 0.7159
727.000000 0.7169 0.7175 0.7181 0.7187 0.7199
732.000000 0.7231 0.7284 0.7294 0.7294 0.7302
737.000000 0.7323 0.7347 0.7371 0.7410 0.7453
742.000000 0.7473 0.7473 0.7487 0.7492 0.7494
747.000000 0.7496 0.7497 0.7498 0.7498 0.7498
752.000000 0.7498 0.7498 0.7496 0.7495 0.7493
757.000000 0.7492 0.7490 0.7489 0.7487 0.7486
762.000000 0.7484 0.7482 0.7480 0.7477 0.7475
767.000000 0.7473 0.7469 0.7459 0.7450 0.7437
772.000000 0.7416 0.7385 0.7335 0.7250 0.7145
777.000000 0.7032 0.6903 0.6760 0.6605 0.6421
782.000000 0.6165 0.5998 0.5991 0.5963 0.6302
787.000000 0.6628 0.6840 0.7001 0.7079 0.7147
792.000000 0.7202 0.7249 0.7285 0.7300 0.7310
797.000000 0.7244 0.7146 0.7010 0.6790 0.5969
802.000000 0.5140 0.4313 0.3612 0.3640 0.5229
807.000000 0.6373 0.7103 0.7359 0.7526 0.7669
812.000000 0.7728 0.7741 0.7747 0.7759 0.7765
817.000000 0.7771 0.7775 0.7777 0.7779 0.7781
822.000000 0.7780 0.7778 0.7776 0.7774 0.7772
827.000000 0.7770 0.7769 0.7768 0.7766 0.7765
832.000000 0.7763 0.7762 0.7761 0.7760 0.7758
837.000000 0.7754 0.7752 0.7748 0.7745 0.7743
842.000000 0.7741 0.7739 0.7737 0.7735 0.7733
847.000000 0.7732 0.7733 0.7734 0.7735 0.7737
852.000000 0.7738 0.7739 0.7741 0.7742 0.7744
857.000000 0.7745 0.7745 0.7742 0.7739 0.7737
862.000000 0.7732 0.7726 0.7721 0.7713 0.7703
867.000000 0.7693 0.7684 0.7673 0.7657 0.7641
872.000000 0.7625 0.7609 0.7594 0.7581 0.7577
877.000000 0.7577 0.7577 0.7577 0.7577 0.7578
882.000000 0.7579 0.7580 0.7579 0.7573 0.7567
887.000000 0.7552 0.7533 0.7508 0.7483 0.7464
892.000000 0.7460 0.7456 0.7456 0.7456 0.7456
897.000000 0.7456 0.7456 0.7445 0.7404 0.7357
902.000000 0.7312 0.7267 0.7222 0.7175 0.7128
907.000000 0.7076 0.7021 0.6966 0.6914 0.6864
912.000000 0.6828 0.6806 0.6791 0.6781 0.6771
917.000000 0.6759 0.6730 0.6670 0.6603 0.6529
922.000000 0.6479 0.6441 0.6407 0.6368 0.6320
927.000000 0.6273 0.6287 0.6317 0.6373 0.6470
932.000000 0.6609 0.6733 0.6831 0.6887 0.6915
937.000000 0.6918 0.6919 0.6911 0.6896 0.6868
942.000000 0.6825 0.6776 0.6721 0.6650 0.6560
947.000000 0.6420 0.6174 0.5923 0.5672 0.5421
952.000000 0.5197 0.5176 0.5176 0.5430 0.5788
957.000000 0.6145 0.6283 0.6324 0.6344 0.6344
962.000000 0.6335 0.6273 0.6073 0.5772 0.5473
967.000000 0.5173 0.4875 0.4576 0.4433 0.4441
972.000000 0.4583 0.4878 0.5171 0.5465 0.5744
977.000000 0.5836 0.5885 0.5929 0.5979 0.6064
982.000000 0.6167 0.6297 0.6570 0.6752 0.6841
987.000000 0.6890 0.6917 0.6942 0.6953 0.6963
992.000000 0.6963 0.6959 0.6933 0.6893 0.6850
997.000000 0.6789 0.6717 0.6616 0.6505 0.6395
1002.000000 0.6284 0.6174 0.6064 0.5955 0.5845
1007.000000 0.5736 0.5627 0.5518 0.5399 0.5284
1012.000000 0.5109 0.5036 0.5012 0.5087 0.5269
1017.000000 0.5512 0.5755 0.5998 0.6240 0.6476
1022.000000 0.6616 0.6703 0.6749 0.6791 0.6814
1027.000000 0.6826 0.6821 0.6825 0.6810 0.6771
1032.000000 0.6674 0.6587 0.6560 0.6571 0.6539
1037.000000 0.6722 0.6811 0.6905 0.6979 0.7037
1042.000000 0.7084 0.7113 0.7137 0.7153 0.7168
1047.000000 0.7182 0.7192 0.7200 0.7207 0.7210
1052.000000 0.7214 0.7216 0.7214 0.7212 0.7211
1057.000000 0.7209 0.7196 0.7201 0.7196 0.7192
1062.000000 0.7185 0.7177 0.7169 0.7158 0.7082
1067.000000 0.6994 0.6998 0.7084 0.7182 0.7192
1072.000000 0.7195 0.7194 0.7191 0.7188 0.7184
1077.000000 0.7180 0.7176 0.7171 0.7166 0.7160
1082.000000 0.7155 0.7150 0.7146 0.7142 0.7137
1087.000000 0.7132 0.7127 0.7122 0.7116 0.7111
1092.000000 0.7105 0.7100 0.7094 0.7089 0.7082
1097.000000 0.7074 0.7068 0.7061 0.7054 0.7046
1102.000000 0.7040 0.7033 0.7026 0.7020 0.7015
1107.000000 0.7010 0.7004 0.6998 0.6993 0.6987
1112.000000 0.6982 0.6976 0.6969 0.6962 0.6956
1117.000000 0.6949 0.6940 0.6925 0.6909 0.6892
1122.000000 0.6861 0.6824 0.6769 0.6727 0.6694
1127.000000 0.6660 0.6640 0.6625 0.6610 0.6595
1132.000000 0.6584 0.6588 0.6595 0.6599 0.6599
1137.000000 0.6585 0.6556 0.6526 0.6493 0.6459
1142.000000 0.6424 0.6390 0.6342 0.6292 0.6243
1147.000000 0.6193 0.6134 0.6051 0.5950 0.5821
1152.000000 0.5692 0.5568 0.5459 0.5353 0.5246
1157.000000 0.5133 0.4993 0.4854 0.4722 0.4591
1162.000000 0.4466 0.4348 0.4214 0.4057 0.3844
1167.000000 0.3799 0.3787 0.3828 0.3903 0.4112
1172.000000 0.4354 0.4595 0.4835 0.5075 0.5314
1177.000000 0.5524 0.5751 0.6033 0.6146 0.6225
1182.000000 0.6285 0.6330 0.6372 0.6405 0.6435
1187.000000 0.6461 0.6476 0.6491 0.6498 0.6500
1192.000000 0.6503 0.6483 0.6496 0.6491 0.6480
1197.000000 0.6466 0.6442 0.6417 0.6383 0.6343
1202.000000 0.6290 0.6217 0.6086 0.5937 0.5735
1207.000000 0.5470 0.5207 0.4943 0.4681 0.4419
1212.000000 0.4157 0.4026 0.4030 0.4061 0.4842
1217.000000 0.5531 0.6219 0.6692 0.6760 0.6809
1222.000000 0.6847 0.6875 0.6894 0.6909 0.6906
1227.000000 0.6915 0.6914 0.6912 0.6910 0.6904
1232.000000 0.6895 0.6884 0.6871 0.6860 0.6846
1237.000000 0.6833 0.6819 0.6804 0.6788 0.6772
1242.000000 0.6755 0.6739 0.6723 0.6706 0.6689
1247.000000 0.6672 0.6656 0.6639 0.6619 0.6597
1252.000000 0.6576 0.6554 0.6533 0.6514 0.6496
1257.000000 0.6478 0.6461 0.6443 0.6425 0.6408
1262.000000 0.6389 0.6369 0.6350 0.6330 0.6310
1267.000000 0.6283 0.6252 0.6221 0.6191 0.6137
1272.000000 0.6068 0.6014 0.5980 0.5965 0.5958
1277.000000 0.5953 0.5948 0.5942 0.5938 0.5929
1282.000000 0.5920 0.5910 0.5897 0.5883 0.5868
1287.000000 0.5845 0.5804 0.5766 0.5728 0.5677
1292.000000 0.5622 0.5554 0.5485 0.5410 0.5335
1297.000000 0.5256 0.5171 0.5083 0.4984 0.4868
1302.000000 0.4686 0.4614 0.4599 0.4569 0.4614
1307.000000 0.4636 0.4668 0.4706 0.4744 0.4782
1312.000000 0.4815 0.4834 0.4825 0.4841 0.4766
1317.000000 0.4689 0.4616 0.4551 0.4488 0.4429
1322.000000 0.4371 0.4312 0.4253 0.4196 0.4141
1327.000000 0.4088 0.4036 0.3981 0.3918 0.3852
1332.000000 0.3758 0.3654 0.3436 0.3269 0.3111
1337.000000 0.2953 0.2796 0.2638 0.2480 0.2323
1342.000000 0.2166 0.2009 0.1874 0.1807 0.1729
1347.000000 0.1649 0.1569 0.1482 0.1376 0.1271
1352.000000 0.1173 0.1090 0.1037 0.1001 0.0990
1357.000000 0.0991 0.0994 0.1006 0.1027 0.1052
1362.000000 0.1067 0.1073 0.1074 0.1074 0.1078
1367.000000 0.1083 0.1089 0.1100 0.1116 0.1142
1372.000000 0.1177 0.1228 0.1293 0.1395 0.1542
1377.000000 0.1693 0.1844 0.1994 0.2145 0.2294
1382.000000 0.2375 0.2383 0.2420 0.2549 0.2704
1387.000000 0.2857 0.3010 0.3165 0.3286 0.3313
1392.000000 0.3317 0.3259 0.3150 0.3049 0.3050
1397.000000 0.3119 0.3240 0.3360 0.3481 0.3601
1402.000000 0.3721 0.3840 0.3961 0.4074 0.4176
1407.000000 0.4265 0.4336 0.4387 0.4438 0.4468
1412.000000 0.4506 0.4508 0.4511 0.4508 0.4507
1417.000000 0.4497 0.4483 0.4468 0.4447 0.4418
1422.000000 0.4379 0.4265 0.4128 0.3991 0.3855
1427.000000 0.3718 0.3582 0.3446 0.3329 0.3244
1432.000000 0.3164 0.3075 0.2987 0.2899 0.2817
1437.000000 0.2739 0.2655 0.2557 0.2450 0.2341
1442.000000 0.2242 0.2145 0.2047 0.1949 0.1852
1447.000000 0.1754 0.1657 0.1562 0.1493 0.1449
1452.000000 0.1409 0.1379 0.1351 0.1324 0.1308
1457.000000 0.1295 0.1284 0.1280 0.1279 0.1282
1462.000000 0.1292 0.1317 0.1348 0.1385 0.1581
1467.000000 0.1889 0.2197 0.2505 0.2812 0.3105
1472.000000 0.3265 0.3341 0.3385 0.3412 0.3425
1477.000000 0.3431 0.3454 0.3418 0.3411 0.3398
1482.000000 0.3377 0.3351 0.3307 0.3257 0.3210
1487.000000 0.3169 0.3127 0.3076 0.3020 0.2957
1492.000000 0.2866 0.2761 0.2681 0.2637 0.2615
1497.000000 0.2603 0.2513 0.2351 0.2189 0.2027
1502.000000 0.1866 0.1744 0.1676 0.1625 0.1576
1507.000000 0.1522 0.1463 0.1404 0.1334 0.1264
1512.000000 0.1201 0.1155 0.1122 0.1096 0.1073
1517.000000 0.1059 0.1052 0.1045 0.1033 0.1044
1522.000000 0.1044 0.1048 0.1054 0.1065 0.1079
1527.000000 0.1095 0.1127 0.1168 0.1222 0.1300
1532.000000 0.1354 0.1414 0.1487 0.1575 0.1659
1537.000000 0.1708 0.1762 0.1803 0.1827 0.1854
1542.000000 0.1884 0.1914 0.1948 0.1978 0.2007
1547.000000 0.2038 0.2069 0.2106 0.2143 0.2179
1552.000000 0.2217 0.2254 0.2292 0.2334 0.2386
1557.000000 0.2441 0.2498 0.2558 0.2619 0.2674
1562.000000 0.2734 0.2823 0.3038 0.3240 0.3423
1567.000000 0.3564 0.3634 0.3704 0.3767 0.3821
1572.000000 0.3873 0.3925 0.3977 0.4031 0.4091
1577.000000 0.4153 0.4215 0.4297 0.4394 0.4489
1582.000000 0.4556 0.4614 0.4671 0.4725 0.4776
1587.000000 0.4825 0.4864 0.4900 0.4928 0.4947
1592.000000 0.4964 0.4978 0.4990 0.5000 0.5005
1597.000000 0.5005 0.5003 0.4994 0.4993 0.4985
1602.000000 0.4976 0.4965 0.4949 0.4926 0.4902
1607.000000 0.4877 0.4846 0.4814 0.4779 0.4744
1612.000000 0.4707 0.4650 0.4593 0.4538 0.4483
1617.000000 0.4390 0.4291 0.4160 0.4025 0.3890
1622.000000 0.3755 0.3621 0.3487 0.3352 0.3218
1627.000000 0.3085 0.2950 0.2817 0.2684 0.2550
1632.000000 0.2417 0.2281 0.2106 0.2039 0.2008
1637.000000 0.1987 0.1981 0.1980 0.2001 0.1993
1642.000000 0.2008 0.2032 0.2060 0.2089 0.2118
1647.000000 0.2159 0.2263 0.2398 0.2533 0.2668
1652.000000 0.2803 0.2937 0.3072 0.3206 0.3340
1657.000000 0.3474 0.3608 0.3742 0.3875 0.4008
1662.000000 0.4141 0.4274 0.4407 0.4540 0.4661
1667.000000 0.4755 0.4825 0.4918 0.5052 0.5286
1672.000000 0.5504 0.5792 0.5967 0.6051 0.6123
1677.000000 0.6192 0.6253 0.6297 0.6334 0.6370
1682.000000 0.6404 0.6436 0.6467 0.6498 0.6529
1687.000000 0.6559 0.6589 0.6620 0.6650 0.6680
1692.000000 0.6711 0.6741 0.6771 0.6800 0.6823
1697.000000 0.6846 0.6869 0.6892 0.6915 0.6938
1702.000000 0.6961 0.6984 0.7003 0.7021 0.7038
1707.000000 0.7055 0.7072 0.7090 0.7107 0.7125
1712.000000 0.7142 0.7159 0.7176 0.7193 0.7210
1717.000000 0.7225 0.7237 0.7249 0.7261 0.7273
1722.000000 0.7285 0.7297 0.7310 0.7322 0.7335
1727.000000 0.7348 0.7363 0.7377 0.7390 0.7404
1732.000000 0.7418 0.7433 0.7446 0.7460 0.7474
1737.000000 0.7483 0.7491 0.7499 0.7507 0.7515
1742.000000 0.7522 0.7530 0.7538 0.7546 0.7553
1747.000000 0.7561 0.7569 0.7577 0.7584 0.7591
1752.000000 0.7598 0.7605 0.7612 0.7619 0.7626
1757.000000 0.7633 0.7640 0.7646 0.7653 0.7660
1762.000000 0.7667 0.7674 0.7681 0.7687 0.7693
1767.000000 0.7699 0.7704 0.7710 0.7715 0.7721
1772.000000 0.7727 0.7732 0.7738 0.7743 0.7749
1777.000000 0.7754 0.7760 0.7766 0.7771 0.7776
1782.000000 0.7780 0.7783 0.7787 0.7791 0.7795
1787.000000 0.7799 0.7802 0.7806 0.7810 0.7814
1792.000000 0.7817 0.7821 0.7825 0.7829 0.7833
1797.000000 0.7836 0.7840 0.7843 0.7845 0.7847
1802.000000 0.7849 0.7851 0.7853 0.7855 0.7857
1807.000000 0.7859 0.7861 0.7864 0.7865 0.7867
1812.000000 0.7869 0.7872 0.7872 0.7873 0.7874
1817.000000 0.7874 0.7874 0.7849 0.7875 0.7875
1822.000000 0.7875 0.7875 0.7876 0.7876 0.7876
1827.000000 0.7876 0.7877 0.7877 0.7877 0.7876
1832.000000 0.7875 0.7874 0.7874 0.7873 0.7872
1837.000000 0.7871 0.7871 0.7870 0.7869 0.7868
1842.000000 0.7868 0.7867 0.7866 0.7866 0.7865
1847.000000 0.7864 0.7862 0.7861 0.7860 0.7859
1852.000000 0.7857 0.7856 0.7855 0.7854 0.7852
1857.000000 0.7851 0.7850 0.7848 0.7848 0.7846
1862.000000 0.7844 0.7841 0.7838 0.7835 0.7832
1867.000000 0.7829 0.7826 0.7823 0.7820 0.7817
1872.000000 0.7814 0.7811 0.7808 0.7805 0.7802
1877.000000 0.7799 0.7796 0.7793 0.7791 0.7788
1882.000000 0.7784 0.7781 0.7778 0.7775 0.7771
1887.000000 0.7766 0.7762 0.7757 0.7753 0.7748
1892.000000 0.7744 0.7739 0.7735 0.7730 0.7726
1897.000000 0.7722 0.7717 0.7712 0.7708 0.7703
1902.000000 0.7700 0.7696 0.7693 0.7689 0.7686
1907.000000 0.7682 0.7680 0.7676 0.7673 0.7670
1912.000000 0.7666 0.7663 0.7659 0.7656 0.7654
1917.000000 0.7650 0.7647 0.7643 0.7640 0.7637
1922.000000 0.7634 0.7633 0.7631 0.7630 0.7629
1927.000000 0.7627 0.7626 0.7625 0.7623 0.7622
1932.000000 0.7620 0.7618 0.7617 0.7615 0.7614
1937.000000 0.7613 0.7611 0.7610 0.7609 0.7607
1942.000000 0.7606 0.7605 0.7604 0.7602 0.7600
1947.000000 0.7599 0.7596 0.7593 0.7591 0.7588
1952.000000 0.7585 0.7583 0.7580 0.7578 0.7575
1957.000000 0.7571 0.7568 0.7564 0.7561 0.7557
1962.000000 0.7554 0.7550 0.7546 0.7543 0.7539
1967.000000 0.7535 0.7531 0.7527 0.7521 0.7516
1972.000000 0.7510 0.7505 0.7500 0.7495 0.7490
1977.000000 0.7484 0.7479 0.7474 0.7468 0.7461
1982.000000 0.7456 0.7450 0.7443 0.7437 0.7431
1987.000000 0.7425 0.7419 0.7413 0.7406 0.7400
1992.000000 0.7395 0.7388 0.7382 0.7377 0.7371
1997.000000 0.7364 0.7358 0.7352 0.7347 0.7340
2002.000000 0.7334 0.7328 0.7322 0.7315 0.7309
2007.000000 0.7303 0.7298 0.7292 0.7285 0.7279
2012.000000 0.7273 0.7267 0.7261 0.7254 0.7248
2017.000000 0.7242 0.7236 0.7230 0.7224 0.7218
2022.000000 0.7212 0.7206 0.7199 0.7192 0.7184
2027.000000 0.7175 0.7167 0.7158 0.7150 0.7142
2032.000000 0.7134 0.7126 0.7118 0.7110 0.7101
2037.000000 0.7093 0.7085 0.7077 0.7068 0.7058
2042.000000 0.7047 0.7036 0.7025 0.7014 0.7004
2047.000000 0.6993 0.6982 0.6971 0.6960 0.6949
2052.000000 0.6938 0.6928 0.6917 0.6906 0.6895
2057.000000 0.6884 0.6873 0.6861 0.6849 0.6836
2062.000000 0.6823 0.6810 0.6798 0.6785 0.6772
2067.000000 0.6759 0.6746 0.6733 0.6721 0.6709
2072.000000 0.6696 0.6683 0.6670 0.6658 0.6645
2077.000000 0.6632 0.6619 0.6607 0.6595 0.6582
2082.000000 0.6569 0.6557 0.6544 0.6531 0.6519
2087.000000 0.6507 0.6492 0.6478 0.6465 0.6451
2092.000000 0.6436 0.6422 0.6408 0.6394 0.6380
2097.000000 0.6366 0.6352 0.6338 0.6324 0.6311
2102.000000 0.6300 0.6290 0.6282 0.6275 0.6267
2107.000000 0.6260 0.6253 0.6248 0.6243 0.6239
2112.000000 0.6235 0.6233 0.6249 0.6236 0.6238
2117.000000 0.6240 0.6242 0.6244 0.6247 0.6249
2122.000000 0.6251 0.6254 0.6256 0.6259 0.6261
2127.000000 0.6264 0.6267 0.6273 0.6279 0.6286
2132.000000 0.6294 0.6302 0.6312 0.6322 0.6331
2137.000000 0.6339 0.6346 0.6352 0.6358 0.6364
2142.000000 0.6371 0.6376 0.6381 0.6385 0.6389
2147.000000 0.6393 0.6396 0.6400 0.6404 0.6407
2152.000000 0.6409 0.6411 0.6413 0.6415 0.6417
2157.000000 0.6419 0.6423 0.6427 0.6436 0.6445
2162.000000 0.6458 0.6469 0.6479 0.6489 0.6499
2167.000000 0.6502 0.6502 0.6500 0.6499 0.6498
2172.000000 0.6497 0.6495 0.6493 0.6492 0.6491
2177.000000 0.6490 0.6489 0.6488 0.6487 0.6487
2182.000000 0.6486 0.6485 0.6484 0.6484 0.6483
2187.000000 0.6483 0.6522 0.6481 0.6480 0.6480
2192.000000 0.6480 0.6479 0.6479 0.6479 0.6479
2197.000000 0.6478 0.6478 0.6478 0.6478 0.6477
2202.000000 0.6477 0.6476 0.6476 0.6474 0.6471
2207.000000 0.6468 0.6465 0.6462 0.6459 0.6456
2212.000000 0.6453 0.6450 0.6445 0.6439 0.6432
2217.000000 0.6422 0.6411 0.6397 0.6382 0.6367
2222.000000 0.6351 0.6317 0.6278 0.6239 0.6200
2227.000000 0.6162 0.6123 0.6084 0.6045 0.6007
2232.000000 0.5968 0.5929 0.5891 0.5852 0.5814
2237.000000 0.5775 0.5737 0.5699 0.5661 0.5635
2242.000000 0.5611 0.5603 0.5598 0.5627 0.5595
2247.000000 0.5599 0.5605 0.5634 0.5668 0.5758
2252.000000 0.5866 0.5972 0.6079 0.6186 0.6293
2257.000000 0.6348 0.6379 0.6392 0.6396 0.6400
2262.000000 0.6405 0.6406 0.6406 0.6405 0.6404
2267.000000 0.6402 0.6400 0.6398 0.6395 0.6404
2272.000000 0.6389 0.6386 0.6383 0.6379 0.6374
2277.000000 0.6369 0.6361 0.6354 0.6346 0.6338
2282.000000 0.6330 0.6321 0.6311 0.6301 0.6287
2287.000000 0.6273 0.6259 0.6245 0.6230 0.6216
2292.000000 0.6201 0.6186 0.6171 0.6157 0.6141
2297.000000 0.6125 0.6108 0.6091 0.6074 0.6056
2302.000000 0.6039 0.6016 0.5993 0.5969 0.5946
2307.000000 0.5926 0.5906 0.5889 0.5874 0.5859
2312.000000 0.5844 0.5829 0.5815 0.5802 0.5794
2317.000000 0.5785 0.5777 0.5769 0.5761 0.5753
2322.000000 0.5744 0.5736 0.5728 0.5719 0.5711
2327.000000 0.5703 0.5696 0.5688 0.5681 0.5676
2332.000000 0.5670 0.5665 0.5660 0.5654 0.5649
2337.000000 0.5643 0.5638 0.5632 0.5627 0.5622
2342.000000 0.5617 0.5612 0.5608 0.5605 0.5602
2347.000000 0.5599 0.5596 0.5593 0.5590 0.5588
2352.000000 0.5585 0.5582 0.5580 0.5576 0.5573
2357.000000 0.5571 0.5568 0.5565 0.5562 0.5560
2362.000000 0.5558 0.5555 0.5553 0.5551 0.5547
2367.000000 0.5542 0.5537 0.5530 0.5523 0.5517
2372.000000 0.5510 0.5503 0.5497 0.5490 0.5483
2377.000000 0.5477 0.5470 0.5461 0.5448 0.5434
2382.000000 0.5416 0.5398 0.5379 0.5361 0.5339
2387.000000 0.5311 0.5282 0.5251 0.5220 0.5189
2392.000000 0.5157 0.5134 0.5115 0.5098 0.5082
2397.000000 0.5065 0.5050 0.5034 0.5018 0.5002
2402.000000 0.4986 0.4971 0.4955 0.4939 0.4923
2407.000000 0.4906 0.4889 0.4872 0.4855 0.4838
2412.000000 0.4821 0.4804 0.4787 0.4770 0.4753
2417.000000 0.4736 0.4719 0.4702 0.4685 0.4666
2422.000000 0.4647 0.4627 0.4608 0.4588 0.4569
2427.000000 0.4549 0.4530 0.4511 0.4492 0.4472
2432.000000 0.4453 0.4436 0.4418 0.4403 0.4388
2437.000000 0.4373 0.4359 0.4344 0.4329 0.4314
2442.000000 0.4300 0.4285 0.4271 0.4256 0.4242
2447.000000 0.4230 0.4218 0.4208 0.4199 0.4190
2452.000000 0.4182 0.4173 0.4164 0.4155 0.4147
2457.000000 0.4143 0.4138 0.4135 0.4134 0.4132
2462.000000 0.4130 0.4128 0.4126 0.4124 0.4122
2467.000000 0.4120 0.4118 0.4117 0.4115 0.4113
2472.000000 0.4111 0.4109 0.4108 0.4106 0.4105
2477.000000 0.4103 0.4102 0.4100 0.4099 0.4097
2482.000000 0.4096 0.4095 0.4093 0.4092 0.4090
2487.000000 0.4089 0.4088 0.4087 0.4086 0.4084
2492.000000 0.4082 0.4081 0.4080 0.4079 0.4075
2497.000000 0.4071 0.4066 0.4062 0.4058 0.4053
2502.000000 0.4048 0.4043 0.4038 0.4034 0.4029
2507.000000 0.4024 0.4019 0.4014 0.4010 0.4005
2512.000000 0.4000 0.3995 0.3991 0.3986 0.3979
2517.000000 0.3973 0.3966 0.3958 0.3950 0.3942
2522.000000 0.3934 0.3926 0.3918 0.3910 0.3903
2527.000000 0.3895 0.3888 0.3880 0.3872 0.3864
2532.000000 0.3856 0.3848 0.3838 0.3828 0.3819
2537.000000 0.3809 0.3799 0.3789 0.3780 0.3770
2542.000000 0.3760 0.3751 0.3741 0.3731 0.3721
2547.000000 0.3707 0.3693 0.3679 0.3664 0.3650
2552.000000 0.3635 0.3620 0.3604 0.3587 0.3570
2557.000000 0.3553 0.3536 0.3519 0.3502 0.3485
2562.000000 0.3469 0.3453 0.3436 0.3420 0.3404
2567.000000 0.3390 0.3383 0.3375 0.3369 0.3363
2572.000000 0.3358 0.3352 0.3347 0.3342 0.3337
2577.000000 0.3333 0.3332 0.3332 0.3332 0.3332
2582.000000 0.3332 0.3333 0.3334 0.3335 0.3336
2587.000000 0.3337 0.3338 0.3338 0.3339 0.3340
2592.000000 0.3340 0.3341 0.3342 0.3342 0.3342
2597.000000 0.3343 0.3344 0.3345 0.3345 0.3345
2602.000000 0.3345 0.3343 0.3342 0.3339 0.3335
2607.000000 0.3332 0.3329 0.3326 0.3323 0.3320
2612.000000 0.3317 0.3313 0.3309 0.3305 0.3297
2617.000000 0.3289 0.3281 0.3273 0.3265 0.3256
2622.000000 0.3246 0.3236 0.3224 0.3213 0.3201
2627.000000 0.3191 0.3180 0.3170 0.3161 0.3152
2632.000000 0.3143 0.3134 0.3126 0.3119 0.3114
2637.000000 0.3108 0.3103 0.3098 0.3093 0.3088
2642.000000 0.3083 0.3078 0.3075 0.3071 0.3068
2647.000000 0.3066 0.3063 0.3061 0.3058 0.3055
2652.000000 0.3053 0.3050 0.3048 0.3047 0.3045
2657.000000 0.3043 0.3041 0.3040 0.3038 0.3036
2662.000000 0.3034 0.3032 0.3030 0.3027 0.3025
2667.000000 0.3022 0.3020 0.3017 0.3014 0.3011
2672.000000 0.3008 0.3004 0.3001 0.2997 0.2993
2677.000000 0.2989 0.2985 0.2981 0.2976 0.2971
2682.000000 0.2966 0.2961 0.2954 0.2947 0.2940
2687.000000 0.2933 0.2926 0.2916 0.2907 0.2897
2692.000000 0.2889 0.2880 0.2872 0.2865 0.2858
2697.000000 0.2851 0.2846 0.2841 0.2836 0.2832
2702.000000 0.2829 0.2826 0.2823 0.2820 0.2818
2707.000000 0.2816 0.2814 0.2813 0.2812 0.2810
2712.000000 0.2809 0.2808 0.2808 0.2808 0.2808
2717.000000 0.2808 0.2809 0.2810 0.2810 0.2811
2722.000000 0.2811 0.2811 0.2812 0.2813 0.2814
2727.000000 0.2817 0.2820 0.2823 0.2826 0.2829
2732.000000 0.2832 0.2835 0.2837 0.2840 0.2843
2737.000000 0.2846 0.2850 0.2855 0.2860 0.2865
2742.000000 0.2870 0.2874 0.2878 0.2882 0.2884
2747.000000 0.2887 0.2889 0.2892 0.2895 0.2897
2752.000000 0.2899 0.2902 0.2903 0.2904 0.2904
2757.000000 0.2905 0.2905 0.2905 0.2901 0.2895
2762.000000 0.2890 0.2884 0.2878 0.2872 0.2862
2767.000000 0.2851 0.2839 0.2825 0.2809 0.2793
2772.000000 0.2776 0.2757 0.2737 0.2719 0.2705
2777.000000 0.2691 0.2676 0.2663 0.2649 0.2636
2782.000000 0.2622 0.2609 0.2595 0.2579 0.2563
2787.000000 0.2547 0.2530 0.2514 0.2497 0.2482
2792.000000 0.2466 0.2450 0.2436 0.2422 0.2407
2797.000000 0.2394 0.2380 0.2366 0.2352 0.2338
2802.000000 0.2323 0.2308 0.2289 0.2269 0.2227
2807.000000 0.2066 0.1905 0.1745 0.1694 0.1642
2812.000000 0.1591 0.1540 0.1488 0.1437 0.1385
2817.000000 0.1334 0.1283 0.1231 0.1180 0.1129
2822.000000 0.1078 0.1027 0.0975 0.0924 0.0873
2827.000000 0.0822 0.0771 0.0720 0.0669 0.0619
2832.000000 0.0568 0.0517 0.0466 0.0415 0.0365
2837.000000 0.0314 0.0277 0.0271 0.0264 0.0258
2842.000000 0.0256 0.0255 0.0253 0.0251 0.0250
2847.000000 0.0248 0.0246 0.0245 0.0243 0.0241
2852.000000 0.0239 0.0237 0.0235 0.0233 0.0232
2857.000000 0.0230 0.0228 0.0226 0.0223 0.0221
2862.000000 0.0219 0.0216 0.0214 0.0211 0.0207
2867.000000 0.0204 0.0201 0.0198 0.0195 0.0192
2872.000000 0.0190 0.0187 0.0184 0.0181 0.0178
2877.000000 0.0175 0.0172 0.0169 0.0166 0.0163
2882.000000 0.0161 0.0158 0.0155 0.0152 0.0149
2887.000000 0.0146 0.0144 0.0141 0.0139 0.0138
2892.000000 0.0138 0.0138 0.0138 0.0138 0.0138
2897.000000 0.0138 0.0138 0.0138 0.0138 0.0138
2902.000000 0.0139 0.0139 0.0140 0.0141 0.0142
2907.000000 0.0143 0.0143 0.0144 0.0145 0.0146
2912.000000 0.0147 0.0149 0.0150 0.0153 0.0156
2917.000000 0.0159 0.0162 0.0165 0.0168 0.0171
2922.000000 0.0174 0.0177 0.0180 0.0183 0.0187
2927.000000 0.0191 0.0195 0.0199 0.0204 0.0208
2932.000000 0.0214 0.0219 0.0225 0.0231 0.0237
2937.000000 0.0242 0.0248 0.0254 0.0260 0.0266
2942.000000 0.0283 0.0303 0.0322 0.0351 0.0398
2947.000000 0.0444 0.0490 0.0537 0.0583 0.0630
2952.000000 0.0676 0.0722 0.0769 0.0815 0.0861
2957.000000 0.0907 0.0953 0.0999 0.1045 0.1091
2962.000000 0.1137 0.1183 0.1229 0.1275 0.1321
2967.000000 0.1367 0.1412 0.1458 0.1504 0.1549
2972.000000 0.1595 0.1640 0.1686 0.1731 0.1777
2977.000000 0.1883 0.2004 0.2125 0.2226 0.2273
2982.000000 0.2320 0.2367 0.2396 0.2418 0.2440
2987.000000 0.2463 0.2484 0.2505 0.2526 0.2547
2992.000000 0.2567 0.2588 0.2608 0.2629 0.2649
2997.000000 0.2669 0.2687 0.2699 0.2712 0.2725
3002.000000 0.2737 0.2748 0.2760 0.2772 0.2783
3007.000000 0.2794 0.2806 0.2820 0.2837 0.2855
3012.000000 0.2872 0.2889 0.2906 0.2923 0.2939
3017.000000 0.2954 0.2970 0.2985 0.2999 0.3013
3022.000000 0.3027 0.3041 0.3053 0.3064 0.3076
3027.000000 0.3087 0.3097 0.3107 0.3117 0.3126
3032.000000 0.3135 0.3143 0.3152 0.3157 0.3163
3037.000000 0.3169 0.3173 0.3176 0.3179 0.3182
3042.000000 0.3184 0.3187 0.3190 0.3193 0.3196
3047.000000 0.3199 0.3201 0.3204 0.3207 0.3209
3052.000000 0.3212 0.3219 0.3229 0.3239 0.3249
3057.000000 0.3292 0.3344 0.3397 0.3449 0.3481
3062.000000 0.3512 0.3544 0.3570 0.3581 0.3593
3067.000000 0.3605 0.3616 0.3628 0.3639 0.3651
3072.000000 0.3668 0.3686 0.3705 0.3724 0.3744
3077.000000 0.3764 0.3784 0.3804 0.3824 0.3844
3082.000000 0.3864 0.3884 0.3904 0.3924 0.3944
3087.000000 0.3964 0.3984 0.4003 0.4023 0.4043
3092.000000 0.4063 0.4082 0.4102 0.4122 0.4142
3097.000000 0.4162 0.4182 0.4201 0.4221 0.4241
3102.000000 0.4261 0.4280 0.4300 0.4320 0.4339
3107.000000 0.4359 0.4378 0.4398 0.4417 0.4437
3112.000000 0.4456 0.4476 0.4496 0.4515 0.4535
3117.000000 0.4554 0.4574 0.4594 0.4613 0.4633
3122.000000 0.4652 0.4671 0.4690 0.4710 0.4729
3127.000000 0.4748 0.4768 0.4787 0.4807 0.4826
3132.000000 0.4845 0.4865 0.4884 0.4903 0.4923
3137.000000 0.4942 0.4961 0.4981 0.5000 0.5019
3142.000000 0.5038 0.5057 0.5076 0.5095 0.5114
3147.000000 0.5134 0.5153 0.5172 0.5191 0.5210
3152.000000 0.5229 0.5248 0.5268 0.5287 0.5306
3157.000000 0.5325 0.5344 0.5363 0.5382 0.5401
3162.000000 0.5420 0.5438 0.5457 0.5476 0.5494
3167.000000 0.5513 0.5532 0.5547 0.5559 0.5570
3172.000000 0.5582 0.5597 0.5616 0.5636 0.5655
3177.000000 0.5674 0.5691 0.5708 0.5725 0.5741
3182.000000 0.5756 0.5771 0.5785 0.5800 0.5814
3187.000000 0.5829 0.5843 0.5857 0.5870 0.5883
3192.000000 0.5896 0.5908 0.5920 0.5932 0.5944
3197.000000 0.5956 0.5968 0.5980 0.5991 0.6003
3202.000000 0.6016 0.6029 0.6042 0.6055 0.6074
3207.000000 0.6093 0.6113 0.6133 0.6152 0.6172
3212.000000 0.6192 0.6211 0.6231 0.6252 0.6272
3217.000000 0.6292 0.6314 0.6336 0.6358 0.6380
3222.000000 0.6402 0.6424 0.6446 0.6468 0.6489
3227.000000 0.6506 0.6524 0.6541 0.6559 0.6571
3232.000000 0.6583 0.6595 0.6608 0.6620 0.6632
3237.000000 0.6644 0.6656 0.6669 0.6682 0.6695
3242.000000 0.6708 0.6721 0.6736 0.6751 0.6766
3247.000000 0.6781 0.6796 0.6811 0.6826 0.6841
3252.000000 0.6856 0.6871 0.6886 0.6900 0.6915
3257.000000 0.6928 0.6942 0.6956 0.6970 0.6984
3262.000000 0.6998 0.7012 0.7025 0.7035 0.7045
3267.000000 0.7055 0.7066 0.7076 0.7086 0.7096
3272.000000 0.7106 0.7116 0.7126 0.7135 0.7145
3277.000000 0.7154 0.7162 0.7170 0.7178 0.7186
3282.000000 0.7194 0.7202 0.7209 0.7217 0.7225
3287.000000 0.7233 0.7240 0.7248 0.7254 0.7260
3292.000000 0.7265 0.7270 0.7275 0.7280 0.7284
3297.000000 0.7288 0.7293 0.7297 0.7302 0.7307
3302.000000 0.7311 0.7316 0.7320 0.7325 0.7329
3307.000000 0.7334 0.7339 0.7343 0.7348 0.7352
3312.000000 0.7357 0.7361 0.7366 0.7371 0.7375
3317.000000 0.7380 0.7384 0.7389 0.7393 0.7398
3322.000000 0.7402 0.7407 0.7411 0.7416 0.7420
3327.000000 0.7424 0.7429 0.7433 0.7437 0.7442
3332.000000 0.7446 0.7450 0.7454 0.7459 0.7463
3337.000000 0.7468 0.7472 0.7477 0.7481 0.7485
3342.000000 0.7489 0.7494 0.7498 0.7503 0.7507
3347.000000 0.7512 0.7516 0.7521 0.7526 0.7531
3352.000000 0.7535 0.7540 0.7545 0.7549 0.7554
3357.000000 0.7559 0.7563 0.7568 0.7572 0.7577
3362.000000 0.7582 0.7586 0.7591 0.7596 0.7600
3367.000000 0.7603 0.7607 0.7611 0.7614 0.7617
3372.000000 0.7619 0.7622 0.7624 0.7626 0.7629
3377.000000 0.7631 0.7634 0.7636 0.7638 0.7641
3382.000000 0.7643 0.7646 0.7648 0.7650 0.7653
3387.000000 0.7655 0.7658 0.7660 0.7662 0.7665
3392.000000 0.7667 0.7669 0.7670 0.7672 0.7673
3397.000000 0.7675 0.7676 0.7678 0.7679 0.7681
3402.000000 0.7682 0.7684 0.7685 0.7687 0.7689
3407.000000 0.7690 0.7692 0.7694 0.7695 0.7697
3412.000000 0.7699 0.7700 0.7702 0.7703 0.7704
3417.000000 0.7705 0.7706 0.7707 0.7709 0.7709
3422.000000 0.7710 0.7711 0.7712 0.7713 0.7713
3427.000000 0.7714 0.7715 0.7715 0.7716 0.7717
3432.000000 0.7718 0.7719 0.7719 0.7720 0.7721
3437.000000 0.7721 0.7722 0.7723 0.7723 0.7724
3442.000000 0.7725 0.7725 0.7726 0.7727 0.7728
3447.000000 0.7728 0.7729 0.7730 0.7731 0.7731
3452.000000 0.7732 0.7732 0.7733 0.7734 0.7734
3457.000000 0.7735 0.7736 0.7736 0.7736 0.7737
3462.000000 0.7737 0.7738 0.7738 0.7738 0.7739
3467.000000 0.7739 0.7740 0.7740 0.7741 0.7741
3472.000000 0.7741 0.7742 0.7742 0.7743 0.7743
3477.000000 0.7743 0.7744 0.7744 0.7744 0.7744
3482.000000 0.7745 0.7745 0.7745 0.7746 0.7746
3487.000000 0.7747 0.7747 0.7747 0.7748 0.7748
3492.000000 0.7749 0.7749 0.7749 0.7750 0.7750
3497.000000 0.7751 0.7751 0.7752 0.7752 0.7752
3502.000000 0.7753 0.7753 0.7753 0.7753 0.7753
3507.000000 0.7754 0.7754 0.7755 0.7755 0.7755
3512.000000 0.7756 0.7756 0.7756 0.7756 0.7756
3517.000000 0.7757 0.7757 0.7757 0.7757 0.7757
3522.000000 0.7758 0.7758 0.7758 0.7758 0.7758
3527.000000 0.7759 0.7759 0.7760 0.7760 0.7760
3532.000000 0.7762 0.7764 0.7766 0.7768 0.7769
3537.000000 0.7771 0.7773 0.7774 0.7776 0.7777
3542.000000 0.7779 0.7781 0.7783 0.7785 0.7786
3547.000000 0.7789 0.7791 0.7793 0.7796 0.7798
3552.000000 0.7801 0.7805 0.7808 0.7812 0.7815
3557.000000 0.7818 0.7822 0.7825 0.7828 0.7832
3562.000000 0.7835 0.7837 0.7840 0.7843 0.7846
3567.000000 0.7848 0.7851 0.7854 0.7857 0.7859
3572.000000 0.7862 0.7865 0.7868 0.7870 0.7873
3577.000000 0.7875 0.7877 0.7879 0.7881 0.7883
3582.000000 0.7885 0.7886 0.7888 0.7889 0.7890
3587.000000 0.7892 0.7893 0.7895 0.7896 0.7898
3592.000000 0.7900 0.7901 0.7901 0.7902 0.7903
3597.000000 0.7904 0.7905 0.7905 0.7906 0.7906
3602.000000 0.7906 0.7907 0.7907 0.7907 0.7907
3607.000000 0.7907 0.7908 0.7908 0.7908 0.7909
3612.000000 0.7909 0.7910 0.7910 0.7910 0.7911
3617.000000 0.7911 0.7912 0.7912 0.7912 0.7913
3622.000000 0.7913 0.7913 0.7913 0.7913 0.7913
3627.000000 0.7913 0.7913 0.7912 0.7912 0.7912
3632.000000 0.7911 0.7911 0.7910 0.7910 0.7910
3637.000000 0.7909 0.7909 0.7909 0.7908 0.7908
3642.000000 0.7908 0.7908 0.7908 0.7907 0.7907
3647.000000 0.7906 0.7906 0.7906 0.7905 0.7905
3652.000000 0.7905 0.7904 0.7904 0.7903 0.7903
3657.000000 0.7903 0.7902 0.7902 0.7902 0.7901
3662.000000 0.7901 0.7901 0.7900 0.7900 0.7899
3667.000000 0.7899 0.7899 0.7898 0.7898 0.7898
3672.000000 0.7897 0.7896 0.7896 0.7895 0.7895
3677.000000 0.7894 0.7893 0.7892 0.7891 0.7890
3682.000000 0.7889 0.7888 0.7888 0.7887 0.7886
3687.000000 0.7885 0.7884 0.7883 0.7882 0.7881
3692.000000 0.7880 0.7879 0.7878 0.7877 0.7876
3697.000000 0.7875 0.7874 0.7873 0.7872 0.7871
3702.000000 0.7870 0.7869 0.7868 0.7867 0.7866
3707.000000 0.7866 0.7865 0.7864 0.7863 0.7862
3712.000000 0.7860 0.7859 0.7858 0.7857 0.7855
3717.000000 0.7854 0.7852 0.7851 0.7849 0.7847
3722.000000 0.7846 0.7844 0.7842 0.7841 0.7839
3727.000000 0.7838 0.7836 0.7834 0.7833 0.7831
3732.000000 0.7829 0.7828 0.7826 0.7824 0.7822
3737.000000 0.7820 0.7819 0.7817 0.7816 0.7814
3742.000000 0.7812 0.7811 0.7809 0.7808 0.7806
3747.000000 0.7804 0.7803 0.7801 0.7800 0.7798
3752.000000 0.7796 0.7795 0.7793 0.7791 0.7790
3757.000000 0.7788 0.7786 0.7784 0.7783 0.7781
3762.000000 0.7779 0.7778 0.7776 0.7775 0.7773
3767.000000 0.7771 0.7769 0.7768 0.7766 0.7764
3772.000000 0.7762 0.7761 0.7759 0.7757 0.7755
3777.000000 0.7754 0.7753 0.7752 0.7751 0.7750
3782.000000 0.7749 0.7748 0.7747 0.7747 0.7746
3787.000000 0.7745 0.7744 0.7744 0.7743 0.7743
3792.000000 0.7742 0.7742 0.7741 0.7741 0.7740
3797.000000 0.7739 0.7738 0.7738 0.7737 0.7736
3802.000000 0.7736 0.7735 0.7734 0.7734 0.7734
3807.000000 0.7734 0.7734 0.7735 0.7735 0.7736
3812.000000 0.7736 0.7736 0.7737 0.7737 0.7737
3817.000000 0.7738 0.7738 0.7738 0.7739 0.7739
3822.000000 0.7739 0.7740 0.7740 0.7741 0.7741
3827.000000 0.7742 0.7742 0.7743 0.7743 0.7743
3832.000000 0.7743 0.7743 0.7743 0.7744 0.7744
3837.000000 0.7744 0.7744 0.7744 0.7744 0.7744
3842.000000 0.7744 0.7744 0.7744 0.7744 0.7744
3847.000000 0.7744 0.7744 0.7744 0.7744 0.7744
3852.000000 0.7744 0.7743 0.7742 0.7741 0.7740
3857.000000 0.7739 0.7739 0.7738 0.7737 0.7736
3862.000000 0.7734 0.7733 0.7732 0.7731 0.7730
3867.000000 0.7729 0.7728 0.7727 0.7726 0.7725
3872.000000 0.7723 0.7721 0.7720 0.7718 0.7716
3877.000000 0.7715 0.7713 0.7711 0.7710 0.7708
3882.000000 0.7706 0.7705 0.7703 0.7702 0.7701
3887.000000 0.7699 0.7698 0.7695 0.7693 0.7691
3892.000000 0.7689 0.7687 0.7685 0.7682 0.7680
3897.000000 0.7678 0.7675 0.7673 0.7671 0.7669
3902.000000 0.7667 0.7664 0.7662 0.7660 0.7658
3907.000000 0.7656 0.7653 0.7651 0.7649 0.7647
3912.000000 0.7644 0.7642 0.7640 0.7637 0.7635
3917.000000 0.7633 0.7631 0.7628 0.7626 0.7623
3922.000000 0.7621 0.7619 0.7616 0.7614 0.7612
3927.000000 0.7610 0.7608 0.7606 0.7604 0.7602
3932.000000 0.7601 0.7600 0.7599 0.7598 0.7597
3937.000000 0.7596 0.7594 0.7593 0.7592 0.7590
3942.000000 0.7589 0.7588 0.7587 0.7585 0.7584
3947.000000 0.7583 0.7582 0.7581 0.7580 0.7579
3952.000000 0.7577 0.7576 0.7575 0.7573 0.7572
3957.000000 0.7571 0.7570 0.7569 0.7568 0.7567
3962.000000 0.7565 0.7564 0.7563 0.7562 0.7561
3967.000000 0.7560 0.7559 0.7558 0.7556 0.7555
3972.000000 0.7554 0.7552 0.7551 0.7550 0.7549
3977.000000 0.7548 0.7547 0.7546 0.7544 0.7543
3982.000000 0.7542 0.7541 0.7540 0.7539 0.7538
3987.000000 0.7537 0.7536 0.7534 0.7533 0.7532
3992.000000 0.7531 0.7529 0.7528 0.7528 0.7527
3997.000000 0.7526 0.7526 0.7525 0.7525
##END=
