##TITLE=PENICILLIN G, POTASSIUM SALT
##JCAMP-DX=4.24
##DATA TYPE=INFRARED SPECTRUM
##CLASS=COBLENTZ III
##ORIGIN=SOUTHERN RESEARCH INSTITUTE, W.C. Coburn, Jr.
##OWNER=Copyright (C) 1987 by the Coblentz Society
Collection (C) 2018 copyright by the U.S. Secretary of Commerce
on behalf of the United States of America. All rights reserved.
##DATE=1956/04/04
##NAMES=4-thia-1-azabicyclo[3.2.0]heptane-2-carboxylic acid, 3,3-dimethyl-7-oxo-6-(2-phenylacetamide)-, potassium salt
##MOLFORM=C16 H17 N2 O4 S K
##SOURCE REFERENCE=COBLENTZ NO. 9224
##$NIST ID=B6009224
##$NIST SOURCE=COBLENTZ
##$NIST IMAGE=cob9224
##SPECTROMETER/DATA SYSTEM=PERKIN-ELMER 21 (GRATING)
##INSTRUMENT PARAMETERS=FILTER CHANGE AT 1075 CM^-^1
##STATE=SOLID (0.8 mg / 650 mg KBr DISC)
##SAMPLING PROCEDURE=TRANSMISSION
##RESOLUTION=2
##DATA PROCESSING=DIGITIZED BY COBLENTZ SOCIETY (BATCH II) FROM HARD COPY (ADJUSTED \addcm-1\20-15-3\)
##XUNITS=1/CM
##YUNITS=TRANSMITTANCE
##XFACTOR=1.0
##YFACTOR=1
##DELTAX=1.005140
##FIRSTX=637.7
##LASTX=4019.99
##FIRSTY=1.0232
##MAXX=4019.99
##MINX=637.7
##MAXY=1.03406
##MINY=0.0380633
##NPOINTS=3366
##XYDATA=(X++(Y..Y))
637.700000 1.0232 1.0195 1.0152 1.0105 1.0059
642.725698 1.0011 0.9957 0.9903 0.9848 0.9773
647.751396 0.9687 0.9599 0.9401 0.9260 0.9191
652.777094 0.9167 0.9150 0.9135 0.9132 0.9117
657.802793 0.9866 1.0199 1.0229 1.0250 1.0263
662.828491 1.0272 1.0277 1.0281 1.0280 1.0274
667.854189 1.0268 1.0262 1.0252 1.0235 1.0209
672.879887 1.0176 1.0123 1.0051 0.9983 0.9920
677.905585 0.9855 0.9785 0.9714 0.9626 0.9514
682.931283 0.9399 0.9282 0.9095 0.8744 0.8354
687.956982 0.7963 0.7573 0.7183 0.6793 0.6403
692.982680 0.6013 0.5658 0.5491 0.5497 0.5500
698.008378 0.5927 0.9098 0.9108 0.9101 0.9082
703.034076 0.9106 0.9011 0.8902 0.8738 0.8575
708.059774 0.8411 0.8247 0.8084 0.7920 0.7756
713.085472 0.7593 0.7429 0.7265 0.7185 0.7165
718.111171 0.7133 0.7157 0.9135 0.9367 0.9381
723.136869 0.9392 0.9389 0.9385 0.9378 0.9363
728.162567 0.9345 0.9323 0.9301 0.9275 0.9245
733.188265 0.9214 0.9175 0.9131 0.9058 0.8919
738.213963 0.8763 0.8608 0.8453 0.8297 0.8142
743.239661 0.8079 0.8054 0.8032 0.8013 0.7999
748.265359 0.7907 0.7629 0.7282 0.6934 0.6586
753.291058 0.6238 0.5891 0.5543 0.5196 0.4989
758.316756 0.4964 0.7512 0.9349 0.9497 0.9571
763.342454 0.9602 0.9627 0.9654 0.9676 0.9695
768.368152 0.9713 0.9733 0.9757 0.9784 0.9813
773.393850 0.9912 1.0022 1.0047 1.0048 1.0045
778.419548 1.0041 1.0039 1.0029 1.0012 0.9994
783.445247 0.9973 0.9946 0.9919 0.9891 0.9864
788.470945 0.9836 0.9806 0.9773 0.9740 0.9706
793.496643 0.9672 0.9640 0.9608 0.9578 0.9557
798.522341 0.9543 0.9533 0.9534 0.9536 0.9529
803.548039 0.9516 0.9557 0.9589 0.9710 0.9961
808.573737 1.0103 1.0181 1.0188 1.0190 1.0193
813.599436 1.0196 1.0195 1.0197 1.0196 1.0195
818.625134 1.0193 1.0184 1.0174 1.0163 1.0154
823.650832 1.0144 1.0135 1.0127 1.0121 1.0116
828.676530 1.0111 1.0105 1.0101 1.0107 1.0118
833.702228 1.0134 1.0149 1.0157 1.0163 1.0170
838.727926 1.0176 1.0172 1.0167 1.0161 1.0156
843.753624 1.0150 1.0141 1.0129 1.0117 1.0106
848.779323 1.0095 1.0082 1.0068 1.0053 1.0039
853.805021 1.0025 1.0011 0.9992 0.9971 0.9950
858.830719 0.9929 0.9908 0.9880 0.9851 0.9821
863.856417 0.9791 0.9762 0.9731 0.9701 0.9671
868.882115 0.9639 0.9607 0.9577 0.9555 0.9535
873.907813 0.9516 0.9499 0.9478 0.9394 0.9285
878.933512 0.9141 0.8999 0.8897 0.8828 0.8770
883.959210 0.8740 0.8729 0.8733 0.8846 0.9286
888.984908 0.9723 0.9852 0.9853 0.9867 0.9859
894.010606 0.9835 0.9827 0.9812 0.9794 0.9773
899.036304 0.9741 0.9696 0.9652 0.9613 0.9574
904.062002 0.9541 0.9519 0.9507 0.9494 0.9477
909.087701 0.9449 0.9412 0.9379 0.9358 0.9349
914.113399 0.9340 0.9333 0.9326 0.9315 0.9291
919.139097 0.9249 0.9193 0.9142 0.9105 0.9085
924.164795 0.9078 0.9074 0.9074 0.9109 0.9179
929.190493 0.9280 0.9386 0.9526 0.9639 0.9707
934.216191 0.9741 0.9765 0.9776 0.9784 0.9792
939.241889 0.9799 0.9801 0.9800 0.9799 0.9791
944.267588 0.9799 0.9797 0.9794 0.9791 0.9788
949.293286 0.9786 0.9784 0.9783 0.9782 0.9783
954.318984 0.9806 0.9833 0.9855 0.9873 0.9885
959.344682 0.9885 0.9882 0.9872 0.9862 0.9852
964.370380 0.9841 0.9822 0.9804 0.9786 0.9768
969.396078 0.9749 0.9731 0.9714 0.9696 0.9679
974.421777 0.9662 0.9649 0.9636 0.9624 0.9624
979.447475 0.9629 0.9635 0.9638 0.9640 0.9636
984.473173 0.9628 0.9619 0.9606 0.9591 0.9575
989.498871 0.9527 0.9453 0.9375 0.9296 0.9217
994.524569 0.9138 0.9059 0.8980 0.8899 0.8935
999.550267 0.9041 0.9152 0.9264 0.9376 0.9447
1004.575966 0.9471 0.9466 0.9460 0.9454 0.9444
1009.601664 0.9431 0.9415 0.9397 0.9372 0.9329
1014.627362 0.9267 0.9191 0.9109 0.9067 0.9067
1019.653060 0.9068 0.9056 0.9075 0.9135 0.9193
1024.678758 0.9269 0.9318 0.9367 0.9417 0.9463
1029.704456 0.9499 0.9527 0.9548 0.9556 0.9566
1034.730154 0.9548 0.9544 0.9540 0.9535 0.9527
1039.755853 0.9515 0.9504 0.9492 0.9481 0.9466
1044.781551 0.9450 0.9434 0.9417 0.9401 0.9384
1049.807249 0.9367 0.9351 0.9333 0.9315 0.9298
1054.832947 0.9279 0.9255 0.9230 0.9205 0.9182
1059.858645 0.9155 0.9126 0.9097 0.9067 0.9037
1064.884343 0.9002 0.8958 0.8912 0.8896 0.8891
1069.910042 0.8893 0.8902 0.8945 0.9018 0.9084
1074.935740 0.9113 0.9125 0.9125 0.9123 0.9113
1079.961438 0.9095 0.9065 0.9028 0.8987 0.8945
1084.987136 0.8901 0.8856 0.8804 0.8744 0.8665
1090.012834 0.8547 0.8364 0.8192 0.7923 0.7748
1095.038532 0.7726 0.7713 0.7706 0.7699 0.7823
1100.064231 0.7815 0.8059 0.8629 0.8849 0.8935
1105.089929 0.8930 0.8930 0.8921 0.8887 0.8856
1110.115627 0.8822 0.8785 0.8745 0.8700 0.8655
1115.141325 0.8609 0.8564 0.8505 0.8415 0.8329
1120.167023 0.8257 0.8213 0.8193 0.8200 0.8205
1125.192721 0.8218 0.8239 0.8292 0.8396 0.8500
1130.218419 0.8604 0.8704 0.8769 0.8772 0.8804
1135.244118 0.8766 0.8756 0.8742 0.8686 0.8639
1140.269816 0.8577 0.8500 0.8445 0.8395 0.8345
1145.295514 0.8287 0.8212 0.8142 0.8112 0.8085
1150.321212 0.8069 0.8065 0.8061 0.8172 0.8270
1155.346910 0.8361 0.8452 0.8544 0.8618 0.8638
1160.372608 0.8644 0.8652 0.8644 0.8638 0.8636
1165.398307 0.8624 0.8606 0.8583 0.8553 0.8519
1170.424005 0.8483 0.8440 0.8386 0.8349 0.8323
1175.449703 0.8302 0.8291 0.8284 0.8278 0.8272
1180.475401 0.8268 0.8264 0.8259 0.8254 0.8250
1185.501099 0.8244 0.8215 0.8159 0.8104 0.8050
1190.526797 0.8000 0.7959 0.7940 0.7933 0.7925
1195.552496 0.7918 0.7911 0.7904 0.7896 0.7868
1200.578194 0.7793 0.7693 0.7589 0.7525 0.7458
1205.603892 0.7379 0.7281 0.7156 0.7037 0.6997
1210.629590 0.6961 0.6958 0.6970 0.6991 0.7031
1215.655288 0.7090 0.6978 0.7272 0.7326 0.7353
1220.680986 0.7380 0.7406 0.7425 0.7441 0.7458
1225.706684 0.7473 0.7495 0.7523 0.7554 0.7589
1230.732383 0.7637 0.7655 0.7667 0.7669 0.7647
1235.758081 0.7617 0.7500 0.7260 0.6996 0.6733
1240.783779 0.6470 0.6208 0.5944 0.5667 0.5547
1245.809477 0.5518 0.5508 0.5503 0.5514 0.5499
1250.835175 0.5723 0.5976 0.6177 0.6379 0.6569
1255.860873 0.6656 0.6682 0.6728 0.6902 0.7161
1260.886572 0.7421 0.7681 0.7941 0.8170 0.8279
1265.912270 0.8299 0.8313 0.8325 0.8329 0.8319
1270.937968 0.8318 0.8316 0.8314 0.8309 0.8299
1275.963666 0.8288 0.8277 0.8261 0.8241 0.8221
1280.989364 0.8198 0.8166 0.8125 0.8079 0.8032
1286.015062 0.7988 0.7947 0.7902 0.7847 0.7793
1291.040761 0.7731 0.7640 0.7539 0.7453 0.7373
1296.066459 0.7290 0.7195 0.7076 0.6954 0.6784
1301.092157 0.6583 0.6489 0.6397 0.6305 0.6212
1306.117855 0.6121 0.6030 0.5706 0.5645 0.5588
1311.143553 0.5296 0.4217 0.3607 0.3554 0.3585
1316.169251 0.3622 0.3660 0.3698 0.3736 0.3775
1321.194949 0.3784 0.3755 0.3625 0.3470 0.3315
1326.220648 0.3161 0.3006 0.2850 0.2744 0.2703
1331.246346 0.2694 0.2685 0.2694 0.2714 0.2813
1336.272044 0.3034 0.3301 0.3568 0.3835 0.4103
1341.297742 0.4370 0.4637 0.4904 0.5171 0.5439
1346.323440 0.5706 0.5973 0.6240 0.6507 0.6775
1351.349138 0.7042 0.7245 0.7331 0.7353 0.7353
1356.374837 0.7354 0.7354 0.7366 0.7367 0.7319
1361.400535 0.7289 0.7228 0.7120 0.7012 0.6917
1366.426233 0.6896 0.6898 0.6906 0.6923 0.6941
1371.451931 0.6960 0.6968 0.6964 0.6955 0.6946
1376.477629 0.6931 0.6872 0.6736 0.6597 0.6099
1381.503327 0.5554 0.5035 0.4867 0.4787 0.4714
1386.529026 0.4665 0.4619 0.4587 0.4506 0.4167
1391.554724 0.3824 0.3480 0.3296 0.3281 0.3277
1396.580422 0.3273 0.3285 0.3302 0.3361 0.3752
1401.606120 0.4197 0.4642 0.5087 0.5330 0.5375
1406.631818 0.5380 0.5384 0.5380 0.5374 0.5368
1411.657516 0.5367 0.5367 0.5369 0.5380 0.5401
1416.683214 0.5564 0.5797 0.6031 0.6264 0.6498
1421.708913 0.6731 0.6965 0.7205 0.7361 0.7424
1426.734611 0.7457 0.7481 0.7492 0.7494 0.7502
1431.760309 0.7500 0.7488 0.7485 0.7481 0.7470
1436.786007 0.7453 0.7434 0.7416 0.7396 0.7377
1441.811705 0.7358 0.7338 0.7319 0.7301 0.7281
1446.837403 0.7201 0.6994 0.6740 0.6487 0.6293
1451.863102 0.6244 0.6254 0.6262 0.6269 0.6341
1456.888800 0.6371 0.6402 0.6433 0.6464 0.6495
1461.914498 0.6526 0.6557 0.6587 0.6614 0.6620
1466.940196 0.6617 0.6615 0.6616 0.6589 0.6569
1471.965894 0.6517 0.6435 0.6259 0.5636 0.5470
1476.991592 0.5365 0.5260 0.5108 0.4541 0.4000
1482.017291 0.3459 0.2920 0.2379 0.1787 0.1711
1487.042989 0.1656 0.1620 0.1616 0.1625 0.1616
1492.068687 0.1617 0.1628 0.1680 0.2053 0.2470
1497.094385 0.2889 0.3307 0.3725 0.4143 0.4560
1502.120083 0.4978 0.5297 0.5400 0.5502 0.5565
1507.145781 0.5607 0.5646 0.5708 0.5783 0.5851
1512.171480 0.5934 0.6106 0.6239 0.6345 0.6451
1517.197178 0.6558 0.6667 0.6776 0.6889 0.7004
1522.222876 0.7133 0.7200 0.7224 0.7248 0.7274
1527.248574 0.7302 0.7329 0.7369 0.7427 0.7497
1532.274272 0.7575 0.7660 0.7739 0.7781 0.7795
1537.299970 0.7809 0.7824 0.7836 0.7840 0.7831
1542.325668 0.7826 0.7830 0.7827 0.7824 0.7821
1547.351367 0.7817 0.7812 0.7804 0.7796 0.7787
1552.377065 0.7774 0.7760 0.7746 0.7732 0.7718
1557.402763 0.7704 0.7690 0.7674 0.7655 0.7636
1562.428461 0.7608 0.7557 0.7497 0.7418 0.7335
1567.454159 0.7288 0.7251 0.7215 0.7177 0.7129
1572.479857 0.7063 0.6885 0.6430 0.6421 0.6412
1577.505556 0.6401 0.6386 0.6360 0.6305 0.6018
1582.531254 0.5939 0.5858 0.5779 0.5685 0.5598
1587.556952 0.5531 0.5463 0.5397 0.4957 0.4464
1592.582650 0.3956 0.3448 0.2940 0.2432 0.1924
1597.608348 0.1543 0.0926 0.0748 0.0621 0.0463
1602.634046 0.0401 0.0385 0.0381 0.0384 0.0389
1607.659745 0.0392 0.0423 0.0511 0.0780 0.1005
1612.685443 0.1139 0.1236 0.1406 0.1554 0.1643
1617.711141 0.1907 0.2378 0.2903 0.3450 0.3727
1622.736839 0.3884 0.4033 0.4233 0.4563 0.4754
1627.762537 0.4882 0.4998 0.5111 0.5425 0.5863
1632.788235 0.5994 0.6019 0.6034 0.6039 0.6031
1637.813933 0.6023 0.6009 0.5977 0.5927 0.5873
1642.839632 0.5814 0.5749 0.5678 0.5582 0.5475
1647.865330 0.5378 0.5285 0.5193 0.5124 0.5063
1652.891028 0.5002 0.4941 0.4881 0.4741 0.4215
1657.916726 0.3381 0.2526 0.2345 0.2284 0.2273
1662.942424 0.2254 0.2292 0.2315 0.2368 0.2477
1667.968122 0.2640 0.2936 0.3248 0.3559 0.3872
1672.993821 0.4183 0.4494 0.4806 0.5117 0.5428
1678.019519 0.5740 0.6586 0.6780 0.6970 0.7170
1683.045217 0.7299 0.7362 0.7421 0.7479 0.7580
1688.070915 0.7803 0.7971 0.8108 0.8207 0.8267
1693.096613 0.8307 0.8325 0.8334 0.8339 0.8344
1698.122311 0.8349 0.8317 0.8358 0.8352 0.8346
1703.148010 0.8337 0.8327 0.8317 0.8306 0.8296
1708.173708 0.8286 0.8275 0.8264 0.8254 0.8240
1713.199406 0.8226 0.8210 0.8193 0.8177 0.8158
1718.225104 0.8125 0.8084 0.8042 0.7990 0.7922
1723.250802 0.7852 0.7754 0.7606 0.7515 0.7421
1728.276500 0.7295 0.7104 0.7006 0.6927 0.6847
1733.302198 0.6722 0.6307 0.5859 0.5413 0.4965
1738.327897 0.4517 0.4064 0.3618 0.3392 0.3234
1743.353595 0.3115 0.3037 0.3001 0.2979 0.2958
1748.379293 0.2936 0.2914 0.2892 0.2872 0.2856
1753.404991 0.2843 0.2830 0.2818 0.2807 0.2795
1758.430689 0.2687 0.2252 0.1806 0.1372 0.1056
1763.456387 0.1001 0.0961 0.0958 0.0968 0.0987
1768.482086 0.1109 0.1358 0.1606 0.1855 0.2103
1773.507784 0.2352 0.2600 0.2849 0.3097 0.3386
1778.533482 0.3678 0.3776 0.3934 0.4158 0.4397
1783.559180 0.4653 0.4939 0.5132 0.5284 0.5814
1788.584878 0.6757 0.6891 0.6974 0.7054 0.7121
1793.610576 0.7168 0.7215 0.7263 0.7311 0.7359
1798.636275 0.7502 0.7748 0.7877 0.7968 0.8054
1803.661973 0.8128 0.8203 0.8302 0.8457 0.8604
1808.687671 0.8698 0.8786 0.8862 0.8933 0.8990
1813.713369 0.9024 0.9051 0.9078 0.9105 0.9133
1818.739067 0.9164 0.9196 0.9228 0.9261 0.9295
1823.764765 0.9327 0.9351 0.9371 0.9391 0.9407
1828.790463 0.9418 0.9426 0.9434 0.9442 0.9450
1833.816162 0.9458 0.9466 0.9474 0.9481 0.9486
1838.841860 0.9490 0.9494 0.9498 0.9500 0.9500
1843.867558 0.9500 0.9501 0.9501 0.9501 0.9501
1848.893256 0.9500 0.9499 0.9497 0.9495 0.9494
1853.918954 0.9492 0.9490 0.9489 0.9490 0.9493
1858.944652 0.9496 0.9499 0.9501 0.9504 0.9509
1863.970351 0.9520 0.9534 0.9549 0.9566 0.9583
1868.996049 0.9601 0.9618 0.9636 0.9653 0.9671
1874.021747 0.9690 0.9699 0.9703 0.9706 0.9709
1879.047445 0.9712 0.9714 0.9715 0.9716 0.9717
1884.073143 0.9718 0.9723 0.9729 0.9735 0.9741
1889.098841 0.9747 0.9753 0.9759 0.9765 0.9772
1894.124540 0.9780 0.9787 0.9795 0.9803 0.9811
1899.150238 0.9819 0.9828 0.9836 0.9845 0.9854
1904.175936 0.9862 0.9871 0.9880 0.9888 0.9897
1909.201634 0.9906 0.9915 0.9924 0.9932 0.9938
1914.227332 0.9943 0.9947 0.9952 0.9954 0.9955
1919.253030 0.9956 0.9957 0.9957 0.9958 0.9959
1924.278728 0.9960 0.9961 0.9958 0.9956 0.9954
1929.304427 0.9952 0.9949 0.9947 0.9945 0.9943
1934.330125 0.9940 0.9941 0.9944 0.9946 0.9949
1939.355823 0.9951 0.9954 0.9965 0.9978 0.9991
1944.381521 1.0004 1.0011 1.0017 1.0022 1.0023
1949.407219 1.0025 1.0026 1.0029 1.0032 1.0036
1954.432917 1.0039 1.0046 1.0054 1.0062 1.0070
1959.458616 1.0078 1.0086 1.0094 1.0102 1.0110
1964.484314 1.0118 1.0126 1.0132 1.0138 1.0144
1969.510012 1.0150 1.0156 1.0162 1.0168 1.0170
1974.535710 1.0172 1.0174 1.0175 1.0177 1.0179
1979.561408 1.0181 1.0182 1.0184 1.0186 1.0187
1984.587106 1.0189 1.0191 1.0192 1.0194 1.0196
1989.612805 1.0198 1.0199 1.0199 1.0199 1.0198
1994.638503 1.0198 1.0198 1.0197 1.0197 1.0197
1999.664201 1.0196 1.0196 1.0196 1.0195 1.0195
2004.689899 1.0195 1.0195 1.0194 1.0194 1.0194
2009.715597 1.0194 1.0194 1.0193 1.0193 1.0193
2014.741295 1.0193 1.0193 1.0192 1.0192 1.0192
2019.766993 1.0192 1.0192 1.0191 1.0191 1.0191
2024.792692 1.0191 1.0191 1.0190 1.0190 1.0190
2029.818390 1.0190 1.0190 1.0189 1.0189 1.0189
2034.844088 1.0189 1.0189 1.0189 1.0189 1.0189
2039.869786 1.0189 1.0189 1.0189 1.0189 1.0189
2044.895484 1.0189 1.0189 1.0189 1.0189 1.0189
2049.921182 1.0189 1.0189 1.0189 1.0189 1.0189
2054.946881 1.0189 1.0189 1.0189 1.0189 1.0189
2059.972579 1.0189 1.0189 1.0189 1.0189 1.0189
2064.998277 1.0188 1.0188 1.0188 1.0188 1.0188
2070.023975 1.0188 1.0188 1.0188 1.0188 1.0188
2075.049673 1.0189 1.0189 1.0190 1.0190 1.0191
2080.075371 1.0192 1.0192 1.0193 1.0193 1.0194
2085.101070 1.0194 1.0195 1.0195 1.0196 1.0196
2090.126768 1.0197 1.0197 1.0198 1.0198 1.0199
2095.152466 1.0199 1.0200 1.0200 1.0201 1.0203
2100.178164 1.0203 1.0204 1.0205 1.0206 1.0207
2105.203862 1.0208 1.0208 1.0209 1.0210 1.0211
2110.229560 1.0212 1.0213 1.0213 1.0214 1.0215
2115.255258 1.0216 1.0216 1.0218 1.0218 1.0219
2120.280957 1.0220 1.0221 1.0222 1.0223 1.0224
2125.306655 1.0225 1.0226 1.0227 1.0227 1.0228
2130.332353 1.0229 1.0230 1.0231 1.0232 1.0233
2135.358051 1.0234 1.0235 1.0236 1.0237 1.0238
2140.383749 1.0239 1.0240 1.0241 1.0242 1.0243
2145.409447 1.0244 1.0245 1.0246 1.0246 1.0247
2150.435146 1.0248 1.0250 1.0251 1.0253 1.0255
2155.460844 1.0257 1.0259 1.0260 1.0262 1.0264
2160.486542 1.0266 1.0268 1.0269 1.0271 1.0274
2165.512240 1.0276 1.0277 1.0278 1.0277 1.0276
2170.537938 1.0275 1.0274 1.0272 1.0271 1.0270
2175.563636 1.0269 1.0269 1.0269 1.0269 1.0269
2180.589335 1.0269 1.0269 1.0269 1.0269 1.0269
2185.615033 1.0269 1.0270 1.0271 1.0272 1.0273
2190.640731 1.0274 1.0275 1.0275 1.0275 1.0274
2195.666429 1.0274 1.0274 1.0273 1.0273 1.0272
2200.692127 1.0272 1.0272 1.0271 1.0271 1.0271
2205.717825 1.0270 1.0270 1.0270 1.0269 1.0268
2210.743523 1.0266 1.0263 1.0261 1.0259 1.0257
2215.769222 1.0255 1.0253 1.0251 1.0249 1.0246
2220.794920 1.0244 1.0242 1.0241 1.0240 1.0239
2225.820618 1.0238 1.0237 1.0236 1.0235 1.0234
2230.846316 1.0233 1.0232 1.0231 1.0230 1.0229
2235.872014 1.0229 1.0228 1.0227 1.0227 1.0226
2240.897712 1.0224 1.0223 1.0222 1.0221 1.0220
2245.923411 1.0218 1.0217 1.0216 1.0215 1.0214
2250.949109 1.0212 1.0211 1.0212 1.0213 1.0215
2255.974807 1.0216 1.0217 1.0219 1.0220 1.0221
2261.000505 1.0222 1.0224 1.0225 1.0226 1.0227
2266.026203 1.0229 1.0230 1.0231 1.0233 1.0234
2271.051901 1.0235 1.0236 1.0237 1.0238 1.0239
2276.077600 1.0239 1.0240 1.0241 1.0242 1.0243
2281.103298 1.0244 1.0245 1.0246 1.0248 1.0249
2286.128996 1.0257 1.0260 1.0264 1.0267 1.0270
2291.154694 1.0273 1.0275 1.0278 1.0281 1.0284
2296.180392 1.0287 1.0291 1.0294 1.0298 1.0300
2301.206090 1.0302 1.0302 1.0302 1.0303 1.0303
2306.231788 1.0303 1.0304 1.0304 1.0304 1.0305
2311.257487 1.0307 1.0308 1.0309 1.0310 1.0312
2316.283185 1.0313 1.0314 1.0315 1.0316 1.0318
2321.308883 1.0319 1.0320 1.0321 1.0323 1.0324
2326.334581 1.0325 1.0326 1.0327 1.0329 1.0330
2331.360279 1.0331 1.0332 1.0333 1.0334 1.0335
2336.385977 1.0336 1.0336 1.0337 1.0338 1.0339
2341.411676 1.0339 1.0340 1.0341 1.0340 1.0338
2346.437374 1.0336 1.0334 1.0333 1.0331 1.0329
2351.463072 1.0327 1.0326 1.0324 1.0322 1.0320
2356.488770 1.0318 1.0317 1.0315 1.0313 1.0311
2361.514468 1.0310 1.0308 1.0306 1.0304 1.0299
2366.540166 1.0292 1.0285 1.0278 1.0271 1.0264
2371.565865 1.0258 1.0252 1.0248 1.0247 1.0245
2376.591563 1.0244 1.0242 1.0240 1.0239 1.0237
2381.617261 1.0236 1.0234 1.0233 1.0231 1.0231
2386.642959 1.0232 1.0234 1.0235 1.0236 1.0236
2391.668657 1.0236 1.0237 1.0237 1.0237 1.0238
2396.694355 1.0238 1.0238 1.0239 1.0239 1.0240
2401.720053 1.0241 1.0241 1.0242 1.0243 1.0243
2406.745752 1.0244 1.0245 1.0246 1.0246 1.0247
2411.771450 1.0248 1.0250 1.0253 1.0255 1.0258
2416.797148 1.0260 1.0263 1.0265 1.0265 1.0264
2421.822846 1.0262 1.0261 1.0259 1.0258 1.0255
2426.848544 1.0250 1.0245 1.0239 1.0233 1.0228
2431.874242 1.0222 1.0216 1.0211 1.0207 1.0204
2436.899941 1.0200 1.0196 1.0193 1.0192 1.0191
2441.925639 1.0191 1.0191 1.0191 1.0190 1.0190
2446.951337 1.0190 1.0190 1.0189 1.0189 1.0189
2451.977035 1.0189 1.0190 1.0191 1.0193 1.0195
2457.002733 1.0196 1.0198 1.0199 1.0201 1.0202
2462.028431 1.0204 1.0206 1.0207 1.0209 1.0210
2467.054130 1.0212 1.0213 1.0215 1.0215 1.0215
2472.079828 1.0215 1.0215 1.0215 1.0214 1.0214
2477.105526 1.0214 1.0214 1.0214 1.0214 1.0214
2482.131224 1.0214 1.0214 1.0214 1.0214 1.0214
2487.156922 1.0214 1.0214 1.0213 1.0213 1.0212
2492.182620 1.0212 1.0212 1.0211 1.0211 1.0211
2497.208318 1.0210 1.0210 1.0210 1.0209 1.0208
2502.234017 1.0206 1.0205 1.0204 1.0203 1.0202
2507.259715 1.0201 1.0200 1.0199 1.0198 1.0196
2512.285413 1.0195 1.0194 1.0194 1.0195 1.0195
2517.311111 1.0195 1.0196 1.0196 1.0196 1.0197
2522.336809 1.0197 1.0197 1.0198 1.0198 1.0199
2527.362507 1.0199 1.0199 1.0200 1.0202 1.0204
2532.388206 1.0205 1.0207 1.0209 1.0211 1.0213
2537.413904 1.0215 1.0217 1.0219 1.0221 1.0223
2542.439602 1.0225 1.0226 1.0228 1.0230 1.0230
2547.465300 1.0230 1.0231 1.0231 1.0231 1.0231
2552.490998 1.0232 1.0232 1.0232 1.0232 1.0232
2557.516696 1.0233 1.0233 1.0233 1.0233 1.0233
2562.542395 1.0234 1.0234 1.0234 1.0234 1.0234
2567.568093 1.0234 1.0235 1.0235 1.0235 1.0235
2572.593791 1.0235 1.0236 1.0235 1.0235 1.0235
2577.619489 1.0235 1.0235 1.0235 1.0234 1.0234
2582.645187 1.0234 1.0234 1.0234 1.0234 1.0234
2587.670885 1.0233 1.0233 1.0231 1.0226 1.0222
2592.696583 1.0217 1.0213 1.0208 1.0204 1.0199
2597.722282 1.0195 1.0191 1.0186 1.0182 1.0178
2602.747980 1.0176 1.0173 1.0171 1.0168 1.0166
2607.773678 1.0163 1.0161 1.0158 1.0156 1.0153
2612.799376 1.0150 1.0149 1.0148 1.0148 1.0148
2617.825074 1.0148 1.0149 1.0149 1.0149 1.0149
2622.850772 1.0149 1.0149 1.0149 1.0149 1.0149
2627.876471 1.0149 1.0149 1.0150 1.0150 1.0151
2632.902169 1.0151 1.0152 1.0152 1.0152 1.0153
2637.927867 1.0153 1.0153 1.0154 1.0154 1.0154
2642.953565 1.0155 1.0155 1.0155 1.0156 1.0156
2647.979263 1.0156 1.0155 1.0153 1.0152 1.0151
2653.004961 1.0150 1.0149 1.0148 1.0145 1.0141
2658.030660 1.0138 1.0135 1.0132 1.0128 1.0125
2663.056358 1.0122 1.0118 1.0115 1.0112 1.0109
2668.082056 1.0105 1.0102 1.0099 1.0095 1.0093
2673.107754 1.0091 1.0090 1.0090 1.0089 1.0089
2678.133452 1.0088 1.0088 1.0087 1.0087 1.0086
2683.159150 1.0085 1.0085 1.0084 1.0083 1.0082
2688.184848 1.0081 1.0079 1.0078 1.0077 1.0075
2693.210547 1.0074 1.0073 1.0071 1.0070 1.0069
2698.236245 1.0067 1.0066 1.0064 1.0063 1.0062
2703.261943 1.0060 1.0059 1.0058 1.0057 1.0056
2708.287641 1.0055 1.0054 1.0053 1.0052 1.0051
2713.313339 1.0050 1.0049 1.0048 1.0047 1.0046
2718.339037 1.0045 1.0044 1.0043 1.0042 1.0040
2723.364736 1.0039 1.0038 1.0037 1.0037 1.0036
2728.390434 1.0036 1.0035 1.0035 1.0035 1.0034
2733.416132 1.0034 1.0033 1.0033 1.0032 1.0032
2738.441830 1.0031 1.0031 1.0030 1.0030 1.0029
2743.467528 1.0029 1.0028 1.0028 1.0027 1.0027
2748.493226 1.0027 1.0026 1.0024 1.0018 1.0011
2753.518925 1.0004 0.9997 0.9990 0.9983 0.9970
2758.544623 0.9957 0.9945 0.9928 0.9921 0.9919
2763.570321 0.9916 0.9913 0.9910 0.9908 0.9905
2768.596019 0.9903 0.9901 0.9899 0.9897 0.9895
2773.621717 0.9893 0.9891 0.9889 0.9888 0.9886
2778.647415 0.9882 0.9878 0.9874 0.9871 0.9867
2783.673113 0.9863 0.9858 0.9854 0.9848 0.9842
2788.698812 0.9835 0.9829 0.9818 0.9802 0.9786
2793.724510 0.9770 0.9755 0.9742 0.9729 0.9715
2798.750208 0.9702 0.9689 0.9676 0.9663 0.9650
2803.775906 0.9631 0.9609 0.9587 0.9565 0.9542
2808.801604 0.9520 0.9501 0.9484 0.9468 0.9452
2813.827302 0.9436 0.9419 0.9403 0.9387 0.9371
2818.853001 0.9359 0.9349 0.9338 0.9327 0.9317
2823.878699 0.9306 0.9296 0.9285 0.9274 0.9264
2828.904397 0.9253 0.9243 0.9233 0.9228 0.9225
2833.930095 0.9221 0.9218 0.9214 0.9210 0.9207
2838.955793 0.9203 0.9200 0.9196 0.9193 0.9189
2843.981491 0.9186 0.9182 0.9179 0.9176 0.9172
2849.007190 0.9169 0.9166 0.9163 0.9159 0.9156
2854.032888 0.9150 0.9143 0.9135 0.9127 0.9119
2859.058586 0.9111 0.9104 0.9096 0.9088 0.9079
2864.084284 0.9065 0.9048 0.9030 0.9012 0.8994
2869.109982 0.8976 0.8958 0.8940 0.8921 0.8902
2874.135680 0.8882 0.8864 0.8845 0.8826 0.8807
2879.161378 0.8788 0.8769 0.8749 0.8724 0.8696
2884.187077 0.8668 0.8641 0.8613 0.8581 0.8546
2889.212775 0.8511 0.8476 0.8442 0.8408 0.8376
2894.238473 0.8344 0.8312 0.8282 0.8258 0.8235
2899.264171 0.8214 0.8198 0.8190 0.8182 0.8176
2904.289869 0.8173 0.8172 0.8170 0.8169 0.8171
2909.315567 0.8174 0.8176 0.8181 0.8187 0.8193
2914.341266 0.8199 0.8204 0.8210 0.8214 0.8216
2919.366964 0.8216 0.8211 0.8185 0.8138 0.8087
2924.392662 0.8024 0.7955 0.7896 0.7841 0.7787
2929.418360 0.7735 0.7685 0.7636 0.7587 0.7551
2934.444058 0.7526 0.7501 0.7475 0.7458 0.7451
2939.469756 0.7448 0.7445 0.7448 0.7458 0.7465
2944.495455 0.7469 0.7480 0.7512 0.7555 0.7602
2949.521153 0.7652 0.7710 0.7773 0.7880 0.8014
2954.546851 0.8123 0.8210 0.8288 0.8360 0.8429
2959.572549 0.8493 0.8553 0.8612 0.8654 0.8687
2964.598247 0.8719 0.8744 0.8760 0.8775 0.8790
2969.623945 0.8802 0.8811 0.8820 0.8829 0.8838
2974.649643 0.8847 0.8855 0.8858 0.8860 0.8862
2979.675342 0.8865 0.8867 0.8869 0.8871 0.8874
2984.701040 0.8877 0.8879 0.8880 0.8879 0.8878
2989.726738 0.8877 0.8876 0.8875 0.8874 0.8873
2994.752436 0.8872 0.8871 0.8870 0.8869 0.8867
2999.778134 0.8862 0.8858 0.8854 0.8850 0.8845
3004.803832 0.8842 0.8839 0.8837 0.8835 0.8832
3009.829531 0.8837 0.8846 0.8857 0.8868 0.8885
3014.855229 0.8905 0.8925 0.8952 0.8984 0.9015
3019.880927 0.9047 0.9079 0.9110 0.9135 0.9161
3024.906625 0.9186 0.9211 0.9236 0.9257 0.9265
3029.932323 0.9270 0.9276 0.9282 0.9288 0.9287
3034.958021 0.9287 0.9286 0.9286 0.9286 0.9285
3039.983720 0.9284 0.9283 0.9282 0.9281 0.9280
3045.009418 0.9279 0.9278 0.9278 0.9277 0.9278
3050.035116 0.9280 0.9281 0.9282 0.9284 0.9285
3055.060814 0.9286 0.9288 0.9293 0.9297 0.9302
3060.086512 0.9307 0.9312 0.9317 0.9323 0.9328
3065.112210 0.9333 0.9339 0.9354 0.9369 0.9384
3070.137908 0.9397 0.9407 0.9416 0.9426 0.9435
3075.163607 0.9445 0.9461 0.9479 0.9496 0.9514
3080.189305 0.9531 0.9548 0.9561 0.9574 0.9587
3085.215003 0.9600 0.9612 0.9624 0.9630 0.9636
3090.240701 0.9642 0.9647 0.9654 0.9659 0.9665
3095.266399 0.9671 0.9676 0.9677 0.9678 0.9679
3100.292097 0.9680 0.9680 0.9681 0.9686 0.9692
3105.317796 0.9683 0.9681 0.9680 0.9678 0.9676
3110.343494 0.9674 0.9672 0.9671 0.9669 0.9667
3115.369192 0.9664 0.9660 0.9656 0.9653 0.9649
3120.394890 0.9646 0.9642 0.9639 0.9635 0.9632
3125.420588 0.9628 0.9624 0.9621 0.9615 0.9605
3130.446286 0.9596 0.9585 0.9575 0.9565 0.9555
3135.471985 0.9546 0.9537 0.9528 0.9519 0.9511
3140.497683 0.9502 0.9493 0.9487 0.9483 0.9479
3145.523381 0.9475 0.9471 0.9467 0.9463 0.9459
3150.549079 0.9455 0.9451 0.9448 0.9444 0.9441
3155.574777 0.9438 0.9435 0.9431 0.9428 0.9425
3160.600475 0.9421 0.9418 0.9415 0.9411 0.9408
3165.626173 0.9405 0.9402 0.9399 0.9396 0.9393
3170.651872 0.9389 0.9386 0.9383 0.9380 0.9377
3175.677570 0.9374 0.9371 0.9368 0.9364 0.9361
3180.703268 0.9356 0.9351 0.9345 0.9339 0.9334
3185.728966 0.9328 0.9323 0.9317 0.9312 0.9306
3190.754664 0.9300 0.9294 0.9289 0.9283 0.9278
3195.780362 0.9272 0.9267 0.9261 0.9255 0.9249
3200.806061 0.9242 0.9236 0.9230 0.9223 0.9217
3205.831759 0.9211 0.9204 0.9198 0.9192 0.9185
3210.857457 0.9179 0.9173 0.9166 0.9160 0.9154
3215.883155 0.9147 0.9141 0.9135 0.9128 0.9120
3220.908853 0.9111 0.9101 0.9092 0.9083 0.9074
3225.934551 0.9064 0.9055 0.9045 0.9036 0.9027
3230.960250 0.9017 0.9008 0.8999 0.8990 0.8980
3235.985948 0.8971 0.8962 0.8953 0.8944 0.8934
3241.011646 0.8925 0.8916 0.8907 0.8897 0.8888
3246.037344 0.8879 0.8870 0.8860 0.8850 0.8840
3251.063042 0.8830 0.8821 0.8811 0.8801 0.8792
3256.088740 0.8782 0.8772 0.8763 0.8753 0.8743
3261.114439 0.8734 0.8724 0.8714 0.8705 0.8695
3266.140137 0.8685 0.8676 0.8666 0.8656 0.8646
3271.165835 0.8636 0.8626 0.8617 0.8607 0.8597
3276.191533 0.8586 0.8573 0.8561 0.8549 0.8536
3281.217231 0.8523 0.8511 0.8499 0.8486 0.8474
3286.242929 0.8462 0.8449 0.8437 0.8425 0.8412
3291.268627 0.8400 0.8387 0.8375 0.8363 0.8348
3296.294326 0.8328 0.8307 0.8286 0.8264 0.8242
3301.320024 0.8221 0.8200 0.8178 0.8157 0.8136
3306.345722 0.8114 0.8093 0.8070 0.8045 0.8015
3311.371420 0.7985 0.7956 0.7926 0.7896 0.7866
3316.397118 0.7836 0.7807 0.7773 0.7733 0.7690
3321.422816 0.7648 0.7606 0.7564 0.7522 0.7479
3326.448515 0.7438 0.7396 0.7356 0.7315 0.7274
3331.474213 0.7233 0.7192 0.7152 0.7111 0.7069
3336.499911 0.7024 0.6976 0.6928 0.6879 0.6831
3341.525609 0.6783 0.6735 0.6686 0.6636 0.6584
3346.551307 0.6529 0.6474 0.6420 0.6369 0.6325
3351.577005 0.6298 0.6288 0.6286 0.6286 0.6275
3356.602704 0.6282 0.6293 0.6296 0.6300 0.6303
3361.628402 0.6308 0.6315 0.6331 0.6352 0.6375
3366.654100 0.6401 0.6426 0.6454 0.6487 0.6521
3371.679798 0.6555 0.6619 0.6710 0.6817 0.6931
3376.705496 0.7034 0.7106 0.7167 0.7243 0.7363
3381.731194 0.7430 0.7469 0.7503 0.7519 0.7530
3386.756892 0.7540 0.7551 0.7561 0.7571 0.7578
3391.782591 0.7582 0.7587 0.7592 0.7597 0.7601
3396.808289 0.7606 0.7611 0.7616 0.7620 0.7625
3401.833987 0.7629 0.7634 0.7639 0.7643 0.7648
3406.859685 0.7653 0.7657 0.7661 0.7665 0.7670
3411.885383 0.7675 0.7679 0.7683 0.7687 0.7691
3416.911081 0.7695 0.7699 0.7703 0.7708 0.7712
3421.936780 0.7716 0.7720 0.7724 0.7728 0.7733
3426.962478 0.7737 0.7741 0.7746 0.7750 0.7754
3431.988176 0.7758 0.7763 0.7772 0.7789 0.7806
3437.013874 0.7823 0.7840 0.7857 0.7857 0.7858
3442.039572 0.7860 0.7864 0.7868 0.7872 0.7875
3447.065270 0.7879 0.7883 0.7887 0.7891 0.7895
3452.090969 0.7899 0.7904 0.7913 0.7922 0.7931
3457.116667 0.7941 0.7950 0.7959 0.7968 0.7978
3462.142365 0.7987 0.7996 0.8007 0.8019 0.8032
3467.168063 0.8044 0.8057 0.8069 0.8082 0.8094
3472.193761 0.8106 0.8118 0.8130 0.8143 0.8155
3477.219459 0.8167 0.8179 0.8191 0.8203 0.8215
3482.245157 0.8227 0.8239 0.8251 0.8263 0.8276
3487.270856 0.8289 0.8302 0.8314 0.8327 0.8340
3492.296554 0.8353 0.8365 0.8378 0.8390 0.8403
3497.322252 0.8416 0.8430 0.8443 0.8457 0.8470
3502.347950 0.8484 0.8498 0.8511 0.8525 0.8538
3507.373648 0.8552 0.8565 0.8579 0.8592 0.8606
3512.399346 0.8620 0.8633 0.8647 0.8660 0.8674
3517.425045 0.8688 0.8701 0.8714 0.8727 0.8739
3522.450743 0.8751 0.8762 0.8775 0.8786 0.8798
3527.476441 0.8809 0.8821 0.8833 0.8844 0.8854
3532.502139 0.8863 0.8869 0.8876 0.8883 0.8890
3537.527837 0.8897 0.8905 0.8915 0.8925 0.8934
3542.553535 0.8945 0.8954 0.8964 0.8976 0.8991
3547.579234 0.9006 0.9021 0.9035 0.9050 0.9065
3552.604932 0.9081 0.9100 0.9120 0.9139 0.9159
3557.630630 0.9177 0.9193 0.9208 0.9223 0.9238
3562.656328 0.9253 0.9268 0.9283 0.9298 0.9313
3567.682026 0.9328 0.9343 0.9358 0.9374 0.9390
3572.707724 0.9405 0.9420 0.9438 0.9455 0.9472
3577.733422 0.9489 0.9507 0.9524 0.9541 0.9557
3582.759121 0.9570 0.9582 0.9594 0.9606 0.9618
3587.784819 0.9629 0.9641 0.9654 0.9666 0.9677
3592.810517 0.9689 0.9701 0.9712 0.9722 0.9733
3597.836215 0.9743 0.9753 0.9763 0.9774 0.9784
3602.861913 0.9794 0.9805 0.9815 0.9825 0.9835
3607.887611 0.9846 0.9854 0.9862 0.9869 0.9877
3612.913310 0.9884 0.9891 0.9899 0.9907 0.9914
3617.939008 0.9922 0.9930 0.9937 0.9943 0.9949
3622.964706 0.9955 0.9961 0.9967 0.9973 0.9980
3627.990404 0.9986 0.9992 0.9998 1.0002 1.0004
3633.016102 1.0006 1.0009 1.0011 1.0013 1.0015
3638.041800 1.0018 1.0020 1.0022 1.0024 1.0026
3643.067499 1.0029 1.0031 1.0033 1.0039 1.0053
3648.093197 1.0067 1.0081 1.0092 1.0098 1.0104
3653.118895 1.0109 1.0115 1.0121 1.0126 1.0132
3658.144593 1.0138 1.0143 1.0147 1.0151 1.0155
3663.170291 1.0158 1.0160 1.0162 1.0163 1.0164
3668.195989 1.0165 1.0167 1.0168 1.0169 1.0170
3673.221687 1.0172 1.0173 1.0174 1.0176 1.0177
3678.247386 1.0180 1.0183 1.0185 1.0187 1.0189
3683.273084 1.0191 1.0193 1.0195 1.0197 1.0200
3688.298782 1.0202 1.0204 1.0206 1.0208 1.0210
3693.324480 1.0212 1.0215 1.0217 1.0219 1.0221
3698.350178 1.0223 1.0225 1.0226 1.0227 1.0228
3703.375876 1.0230 1.0231 1.0232 1.0233 1.0234
3708.401575 1.0236 1.0237 1.0238 1.0239 1.0240
3713.427273 1.0241 1.0243 1.0244 1.0245 1.0246
3718.452971 1.0248 1.0249 1.0251 1.0252 1.0253
3723.478669 1.0254 1.0255 1.0255 1.0256 1.0256
3728.504367 1.0257 1.0257 1.0258 1.0258 1.0259
3733.530065 1.0259 1.0260 1.0260 1.0261 1.0262
3738.555764 1.0263 1.0263 1.0264 1.0264 1.0265
3743.581462 1.0266 1.0266 1.0267 1.0267 1.0268
3748.607160 1.0268 1.0269 1.0270 1.0270 1.0271
3753.632858 1.0271 1.0272 1.0272 1.0273 1.0274
3758.658556 1.0274 1.0275 1.0275 1.0274 1.0273
3763.684254 1.0272 1.0271 1.0269 1.0268 1.0267
3768.709952 1.0265 1.0264 1.0263 1.0261 1.0260
3773.735651 1.0258 1.0257 1.0256 1.0255 1.0253
3778.761349 1.0252 1.0251 1.0250 1.0248 1.0247
3783.787047 1.0245 1.0244 1.0243 1.0243 1.0242
3788.812745 1.0241 1.0241 1.0240 1.0240 1.0239
3793.838443 1.0239 1.0238 1.0238 1.0237 1.0237
3798.864141 1.0236 1.0236 1.0235 1.0235 1.0234
3803.889840 1.0234 1.0233 1.0232 1.0232 1.0231
3808.915538 1.0231 1.0230 1.0230 1.0229 1.0229
3813.941236 1.0228 1.0227 1.0227 1.0226 1.0225
3818.966934 1.0224 1.0224 1.0223 1.0222 1.0222
3823.992632 1.0221 1.0220 1.0219 1.0219 1.0218
3829.018330 1.0217 1.0217 1.0216 1.0215 1.0214
3834.044029 1.0214 1.0213 1.0212 1.0211 1.0210
3839.069727 1.0209 1.0208 1.0206 1.0205 1.0204
3844.095425 1.0203 1.0202 1.0201 1.0200 1.0198
3849.121123 1.0197 1.0196 1.0195 1.0194 1.0193
3854.146821 1.0188 1.0166 1.0189 1.0188 1.0187
3859.172519 1.0186 1.0185 1.0184 1.0182 1.0181
3864.198217 1.0181 1.0180 1.0179 1.0179 1.0178
3869.223916 1.0178 1.0177 1.0176 1.0176 1.0175
3874.249614 1.0174 1.0174 1.0173 1.0173 1.0172
3879.275312 1.0171 1.0171 1.0170 1.0169 1.0169
3884.301010 1.0169 1.0169 1.0169 1.0169 1.0169
3889.326708 1.0169 1.0170 1.0170 1.0170 1.0170
3894.352406 1.0170 1.0170 1.0171 1.0171 1.0171
3899.378105 1.0171 1.0171 1.0172 1.0172 1.0172
3904.403803 1.0172 1.0172 1.0172 1.0173 1.0174
3909.429501 1.0175 1.0176 1.0177 1.0178 1.0179
3914.455199 1.0180 1.0182 1.0183 1.0184 1.0185
3919.480897 1.0186 1.0188 1.0189 1.0190 1.0191
3924.506595 1.0192 1.0193 1.0194 1.0195 1.0196
3929.532294 1.0197 1.0198 1.0200 1.0201 1.0203
3934.557992 1.0205 1.0207 1.0208 1.0210 1.0211
3939.583690 1.0213 1.0215 1.0216 1.0218 1.0220
3944.609388 1.0221 1.0223 1.0224 1.0226 1.0228
3949.635086 1.0229 1.0231 1.0233 1.0234 1.0236
3954.660784 1.0238 1.0239 1.0241 1.0243 1.0245
3959.686482 1.0246 1.0248 1.0250 1.0251 1.0253
3964.712181 1.0255 1.0257 1.0258 1.0260 1.0263
3969.737879 1.0264 1.0266 1.0267 1.0268 1.0270
3974.763577 1.0271 1.0272 1.0273 1.0275 1.0276
3979.789275 1.0277 1.0279 1.0280 1.0281 1.0282
3984.814973 1.0283 1.0284 1.0285 1.0286 1.0287
3989.840671 1.0288 1.0289 1.0289 1.0290 1.0291
3994.866370 1.0292 1.0293 1.0294 1.0294 1.0294
3999.892068 1.0293 1.0293 1.0293 1.0292 1.0290
4004.917766 1.0287 1.0285 1.0282 1.0277 1.0273
4009.943464 1.0268 1.0263 1.0258 1.0254 1.0249
4014.969162 1.0244 1.0239 1.0235 1.0230 1.0225
4019.994860 1.0225
##END=
