##TITLE=SODIUM METAVANADATE
##JCAMP-DX=4.24
##DATA TYPE=INFRARED SPECTRUM
##CLASS=COBLENTZ
##ORIGIN=MELLON INSTITUTE
##OWNER=COBLENTZ SOCIETY
Collection (C) 2018 copyright by the U.S. Secretary of Commerce
on behalf of the United States of America. All rights reserved.
##DATE=Not specified, most likely prior to 1970
##MOLFORM=Na V O3  * 4 H2 O
##SOURCE REFERENCE=COBLENTZ NO. 470
##$NIST ID=B6000470
##$NIST SOURCE=COBLENTZ
##$NIST IMAGE=cob470
##SPECTROMETER/DATA SYSTEM=Not specified, most likely a prism, grating, or hybrid spectrometer.
##STATE=SOLID (NUJOL MULL)
$$PURITY UNKNOWN
##PATH LENGTH=
$$SPECTRAL CONTAMINATION DUE TO OIL AROUND 2900, 1450, 1380 CM^-^1
##SAMPLING PROCEDURE=TRANSMISSION
##RESOLUTION=4
##DATA PROCESSING=DIGITIZED BY NIST FROM HARD COPY
##XUNITS=MICROMETERS
##YUNITS=TRANSMITTANCE
##XFACTOR=1.000000
##YFACTOR=1
##DELTAX=000.006828
##FIRSTX=2.024
##LASTX=15.994
##FIRSTY=0.76
##MAXX=15.994
##MINX=2.024
##MAXY=0.977
##MINY=0.227
##NPOINTS=2047
##XYDATA=(X++(Y..Y))
2.024000 0.7600 0.7600 0.7620 0.7620 0.7620
2.058157 0.7640 0.7640 0.7650 0.7670 0.7670
2.092000 0.7690 0.7710 0.7710 0.7720 0.7720
2.126157 0.7740 0.7760 0.7760 0.7770 0.7790
2.160000 0.7810 0.7810 0.7830 0.7830 0.7840
2.194157 0.7840 0.7840 0.7860 0.7860 0.7860
2.228000 0.7880 0.7880 0.7900 0.7900 0.7900
2.262157 0.7910 0.7930 0.7930 0.7930 0.7930
2.297000 0.7950 0.7960 0.7980 0.7980 0.7980
2.331157 0.8000 0.8000 0.8000 0.8000 0.8000
2.365000 0.8000 0.8020 0.8020 0.8020 0.8020
2.399157 0.8030 0.8030 0.8030 0.8070 0.8070
2.433000 0.8080 0.8100 0.8120 0.8120 0.8140
2.467157 0.8150 0.8150 0.8150 0.8170 0.8170
2.502000 0.8190 0.8190 0.8190 0.8200 0.8200
2.536157 0.8200 0.8220 0.8220 0.8240 0.8240
2.570000 0.8260 0.8270 0.8270 0.8290 0.8310
2.604157 0.8310 0.8330 0.8330 0.8340 0.8340
2.638000 0.8340 0.8340 0.8360 0.8360 0.8380
2.672157 0.8380 0.8380 0.8380 0.8390 0.8390
2.706000 0.8390 0.8390 0.8390 0.8390 0.8380
2.740157 0.8380 0.8380 0.8360 0.8340 0.8330
2.775000 0.8310 0.8290 0.8270 0.8260 0.8240
2.809157 0.8190 0.8120 0.8050 0.8030 0.8030
2.843000 0.7960 0.7910 0.7860 0.7840 0.7810
2.877157 0.7790 0.7770 0.7760 0.7740 0.7740
2.911000 0.7740 0.7740 0.7740 0.7740 0.7740
2.945157 0.7740 0.7740 0.7740 0.7740 0.7740
2.980000 0.7740 0.7760 0.7760 0.7740 0.7760
3.014157 0.7760 0.7770 0.7770 0.7770 0.7790
3.048000 0.7810 0.7810 0.7810 0.7830 0.7840
3.082157 0.7840 0.7840 0.7860 0.7860 0.7880
3.116000 0.7900 0.7900 0.7910 0.7910 0.7930
3.150157 0.7950 0.7960 0.7980 0.7980 0.7980
3.184000 0.8000 0.8000 0.8020 0.8020 0.8020
3.218157 0.8050 0.8070 0.8070 0.8080 0.8080
3.253000 0.8080 0.8070 0.8070 0.8030 0.8000
3.287157 0.7930 0.7840 0.7720 0.7590 0.7380
3.321000 0.7140 0.6190 0.5310 0.4260 0.3990
3.355157 0.3640 0.3210 0.2710 0.2540 0.2320
3.389000 0.2270 0.2280 0.2780 0.3300 0.3820
3.423157 0.4490 0.4620 0.4540 0.4440 0.4370
3.457000 0.4180 0.4130 0.4130 0.4130 0.4520
3.491157 0.5190 0.6380 0.7070 0.7380 0.7880
3.526000 0.8170 0.8310 0.8450 0.8510 0.8620
3.560157 0.8690 0.8740 0.8770 0.8810 0.8840
3.594000 0.8860 0.8880 0.8890 0.8910 0.8910
3.628157 0.8930 0.8930 0.8950 0.8960 0.8960
3.662000 0.8980 0.8980 0.9000 0.9000 0.9000
3.696157 0.9000 0.9010 0.9010 0.9010 0.9030
3.731000 0.9030 0.9030 0.9030 0.9050 0.9050
3.765157 0.9050 0.9070 0.9070 0.9070 0.9080
3.799000 0.9080 0.9080 0.9080 0.9100 0.9100
3.833157 0.9100 0.9100 0.9120 0.9120 0.9130
3.867000 0.9130 0.9130 0.9150 0.9150 0.9150
3.901157 0.9150 0.9170 0.9170 0.9170 0.9170
3.935000 0.9190 0.9190 0.9190 0.9200 0.9200
3.969157 0.9200 0.9200 0.9200 0.9200 0.9220
4.004000 0.9240 0.9240 0.9240 0.9240 0.9240
4.038157 0.9240 0.9240 0.9240 0.9250 0.9250
4.072000 0.9250 0.9250 0.9270 0.9270 0.9270
4.106157 0.9270 0.9290 0.9270 0.9270 0.9270
4.140000 0.9290 0.9290 0.9310 0.9310 0.9290
4.174157 0.9290 0.9310 0.9310 0.9310 0.9310
4.209000 0.9310 0.9310 0.9310 0.9310 0.9320
4.243157 0.9320 0.9320 0.9320 0.9320 0.9320
4.277000 0.9320 0.9320 0.9320 0.9320 0.9320
4.311157 0.9320 0.9320 0.9320 0.9320 0.9320
4.345000 0.9320 0.9320 0.9320 0.9320 0.9320
4.379157 0.9320 0.9320 0.9320 0.9320 0.9320
4.413000 0.9320 0.9320 0.9320 0.9310 0.9310
4.447157 0.9310 0.9320 0.9320 0.9320 0.9310
4.482000 0.9310 0.9310 0.9310 0.9310 0.9310
4.516157 0.9310 0.9290 0.9290 0.9290 0.9290
4.550000 0.9290 0.9290 0.9290 0.9290 0.9290
4.584157 0.9290 0.9290 0.9290 0.9290 0.9290
4.618000 0.9290 0.9290 0.9290 0.9290 0.9290
4.652157 0.9290 0.9290 0.9290 0.9290 0.9310
4.687000 0.9310 0.9310 0.9310 0.9310 0.9310
4.721157 0.9310 0.9310 0.9310 0.9310 0.9310
4.755000 0.9320 0.9320 0.9320 0.9320 0.9340
4.789157 0.9340 0.9340 0.9340 0.9360 0.9360
4.823000 0.9360 0.9360 0.9340 0.9340 0.9360
4.857157 0.9360 0.9360 0.9380 0.9380 0.9380
4.891000 0.9390 0.9390 0.9390 0.9390 0.9390
4.925157 0.9390 0.9410 0.9410 0.9410 0.9410
4.960000 0.9410 0.9410 0.9430 0.9430 0.9430
4.994157 0.9430 0.9430 0.9410 0.9440 0.9440
5.028000 0.9440 0.9440 0.9440 0.9440 0.9440
5.062157 0.9440 0.9440 0.9460 0.9460 0.9460
5.096000 0.9460 0.9480 0.9480 0.9480 0.9480
5.130157 0.9500 0.9500 0.9500 0.9500 0.9510
5.164000 0.9500 0.9500 0.9510 0.9500 0.9500
5.198157 0.9500 0.9500 0.9510 0.9510 0.9510
5.233000 0.9510 0.9510 0.9510 0.9510 0.9510
5.267157 0.9510 0.9510 0.9510 0.9500 0.9500
5.301000 0.9500 0.9500 0.9500 0.9500 0.9500
5.335157 0.9500 0.9500 0.9500 0.9500 0.9500
5.369000 0.9500 0.9500 0.9500 0.9500 0.9500
5.403157 0.9500 0.9500 0.9500 0.9500 0.9510
5.438000 0.9510 0.9500 0.9500 0.9510 0.9510
5.472157 0.9510 0.9510 0.9510 0.9510 0.9510
5.506000 0.9510 0.9510 0.9530 0.9530 0.9530
5.540157 0.9530 0.9530 0.9530 0.9530 0.9530
5.574000 0.9550 0.9550 0.9550 0.9530 0.9530
5.608157 0.9530 0.9530 0.9530 0.9530 0.9550
5.642000 0.9550 0.9530 0.9530 0.9530 0.9530
5.676157 0.9530 0.9530 0.9530 0.9530 0.9530
5.711000 0.9530 0.9530 0.9510 0.9510 0.9510
5.745157 0.9510 0.9510 0.9510 0.9510 0.9510
5.779000 0.9510 0.9510 0.9510 0.9510 0.9500
5.813157 0.9500 0.9500 0.9500 0.9480 0.9480
5.847000 0.9480 0.9480 0.9480 0.9480 0.9480
5.881157 0.9480 0.9460 0.9460 0.9460 0.9460
5.916000 0.9460 0.9460 0.9460 0.9460 0.9460
5.950157 0.9460 0.9460 0.9460 0.9480 0.9480
5.984000 0.9480 0.9480 0.9480 0.9500 0.9500
6.018157 0.9500 0.9500 0.9500 0.9500 0.9510
6.052000 0.9510 0.9510 0.9510 0.9510 0.9510
6.086157 0.9530 0.9530 0.9530 0.9550 0.9550
6.120000 0.9550 0.9560 0.9560 0.9580 0.9580
6.154157 0.9600 0.9600 0.9620 0.9620 0.9630
6.189000 0.9630 0.9630 0.9650 0.9670 0.9670
6.223157 0.9690 0.9690 0.9700 0.9700 0.9720
6.257000 0.9720 0.9720 0.9740 0.9740 0.9750
6.291157 0.9750 0.9750 0.9770 0.9750 0.9750
6.325000 0.9750 0.9750 0.9750 0.9750 0.9750
6.359157 0.9750 0.9750 0.9750 0.9740 0.9740
6.394000 0.9740 0.9740 0.9740 0.9740 0.9740
6.428157 0.9740 0.9740 0.9720 0.9720 0.9720
6.462000 0.9720 0.9720 0.9720 0.9720 0.9720
6.496157 0.9720 0.9700 0.9700 0.9700 0.9700
6.530000 0.9700 0.9690 0.9690 0.9690 0.9670
6.564157 0.9670 0.9670 0.9670 0.9670 0.9670
6.598000 0.9650 0.9650 0.9630 0.9630 0.9630
6.632157 0.9620 0.9620 0.9620 0.9600 0.9600
6.667000 0.9560 0.9550 0.9530 0.9530 0.9510
6.701157 0.9440 0.9410 0.9380 0.9320 0.9270
6.735000 0.9200 0.9120 0.9010 0.8950 0.8820
6.769157 0.8670 0.8510 0.8410 0.8270 0.8050
6.803000 0.7760 0.7480 0.6900 0.6830 0.6780
6.837157 0.6740 0.6710 0.6690 0.6670 0.6690
6.872000 0.6710 0.6740 0.6760 0.6810 0.6900
6.906157 0.7070 0.7220 0.7400 0.7590 0.7760
6.940000 0.7860 0.8020 0.8170 0.8260 0.8410
6.974157 0.8530 0.8650 0.8740 0.8860 0.8960
7.008000 0.9010 0.9050 0.9150 0.9190 0.9200
7.042157 0.9240 0.9270 0.9310 0.9320 0.9340
7.076000 0.9380 0.9390 0.9390 0.9410 0.9410
7.110157 0.9430 0.9430 0.9410 0.9410 0.9390
7.145000 0.9380 0.9360 0.9320 0.9310 0.9240
7.179157 0.9150 0.9100 0.9030 0.8950 0.8910
7.213000 0.8820 0.8720 0.8570 0.8310 0.8190
7.247157 0.8150 0.8190 0.8240 0.8290 0.8380
7.281000 0.8450 0.8500 0.8530 0.8580 0.8640
7.315157 0.8670 0.8690 0.8700 0.8740 0.8820
7.349000 0.8930 0.9010 0.9070 0.9130 0.9150
7.383157 0.9170 0.9190 0.9190 0.9220 0.9220
7.418000 0.9240 0.9240 0.9250 0.9270 0.9270
7.452157 0.9290 0.9290 0.9290 0.9310 0.9310
7.486000 0.9320 0.9320 0.9340 0.9360 0.9360
7.520157 0.9360 0.9360 0.9380 0.9390 0.9390
7.554000 0.9390 0.9390 0.9390 0.9410 0.9410
7.588157 0.9410 0.9410 0.9410 0.9410 0.9410
7.623000 0.9410 0.9410 0.9410 0.9410 0.9430
7.657157 0.9430 0.9430 0.9410 0.9410 0.9410
7.691000 0.9410 0.9410 0.9410 0.9410 0.9410
7.725157 0.9410 0.9430 0.9430 0.9430 0.9430
7.759000 0.9430 0.9430 0.9430 0.9430 0.9430
7.793157 0.9440 0.9440 0.9440 0.9440 0.9440
7.827000 0.9440 0.9440 0.9440 0.9440 0.9440
7.861157 0.9440 0.9440 0.9440 0.9440 0.9440
7.896000 0.9440 0.9440 0.9440 0.9440 0.9440
7.930157 0.9440 0.9440 0.9440 0.9440 0.9440
7.964000 0.9440 0.9440 0.9440 0.9440 0.9440
7.998157 0.9460 0.9460 0.9440 0.9440 0.9430
8.032000 0.9430 0.9430 0.9430 0.9430 0.9430
8.066157 0.9430 0.9430 0.9430 0.9410 0.9410
8.101000 0.9410 0.9390 0.9390 0.9390 0.9390
8.135157 0.9390 0.9380 0.9380 0.9380 0.9380
8.169000 0.9380 0.9380 0.9380 0.9380 0.9380
8.203157 0.9360 0.9360 0.9360 0.9360 0.9360
8.237000 0.9360 0.9360 0.9360 0.9360 0.9360
8.271157 0.9360 0.9360 0.9360 0.9360 0.9360
8.305000 0.9360 0.9360 0.9360 0.9360 0.9360
8.339157 0.9360 0.9360 0.9340 0.9340 0.9340
8.374000 0.9340 0.9340 0.9340 0.9340 0.9340
8.408157 0.9320 0.9320 0.9320 0.9320 0.9320
8.442000 0.9320 0.9310 0.9310 0.9310 0.9290
8.476157 0.9290 0.9290 0.9270 0.9270 0.9250
8.510000 0.9240 0.9240 0.9220 0.9220 0.9220
8.544157 0.9200 0.9200 0.9200 0.9190 0.9190
8.579000 0.9170 0.9170 0.9170 0.9150 0.9150
8.613157 0.9150 0.9130 0.9130 0.9130 0.9120
8.647000 0.9120 0.9120 0.9120 0.9120 0.9100
8.681157 0.9100 0.9100 0.9100 0.9080 0.9080
8.715000 0.9080 0.9070 0.9070 0.9070 0.9050
8.749157 0.9050 0.9050 0.9070 0.9050 0.9050
8.783000 0.9050 0.9050 0.9050 0.9030 0.9030
8.817157 0.9030 0.9030 0.9030 0.9030 0.9030
8.852000 0.9030 0.9030 0.9030 0.9030 0.9030
8.886157 0.9030 0.9030 0.9030 0.9050 0.9050
8.920000 0.9050 0.9050 0.9050 0.9050 0.9050
8.954157 0.9050 0.9050 0.9050 0.9070 0.9070
8.988000 0.9070 0.9070 0.9080 0.9080 0.9100
9.022157 0.9100 0.9100 0.9100 0.9120 0.9120
9.056000 0.9130 0.9130 0.9130 0.9130 0.9130
9.090157 0.9130 0.9130 0.9130 0.9150 0.9150
9.125000 0.9150 0.9150 0.9150 0.9150 0.9150
9.159157 0.9150 0.9150 0.9150 0.9150 0.9150
9.193000 0.9150 0.9130 0.9130 0.9130 0.9130
9.227157 0.9130 0.9130 0.9130 0.9130 0.9130
9.261000 0.9130 0.9130 0.9130 0.9130 0.9130
9.295157 0.9130 0.9130 0.9130 0.9130 0.9130
9.330000 0.9130 0.9130 0.9130 0.9130 0.9130
9.364157 0.9130 0.9130 0.9130 0.9130 0.9130
9.398000 0.9130 0.9150 0.9150 0.9150 0.9150
9.432157 0.9150 0.9150 0.9170 0.9170 0.9170
9.466000 0.9170 0.9170 0.9170 0.9190 0.9190
9.500157 0.9190 0.9190 0.9200 0.9200 0.9200
9.534000 0.9200 0.9200 0.9220 0.9220 0.9220
9.568157 0.9220 0.9220 0.9220 0.9220 0.9240
9.603000 0.9240 0.9240 0.9240 0.9240 0.9240
9.637157 0.9240 0.9240 0.9240 0.9240 0.9240
9.671000 0.9240 0.9240 0.9240 0.9240 0.9240
9.705157 0.9240 0.9220 0.9220 0.9220 0.9220
9.739000 0.9220 0.9220 0.9220 0.9220 0.9220
9.773157 0.9200 0.9200 0.9200 0.9200 0.9190
9.808000 0.9190 0.9190 0.9190 0.9190 0.9170
9.842157 0.9170 0.9170 0.9170 0.9150 0.9150
9.876000 0.9150 0.9130 0.9130 0.9130 0.9130
9.910157 0.9130 0.9130 0.9120 0.9120 0.9120
9.944000 0.9080 0.9080 0.9080 0.9080 0.9070
9.978157 0.9070 0.9070 0.9050 0.9050 0.9030
10.012000 0.9030 0.9010 0.9000 0.8960 0.8960
10.046157 0.8950 0.8930 0.8910 0.8890 0.8840
10.081000 0.8820 0.8760 0.8700 0.8670 0.8640
10.115157 0.8580 0.8530 0.8340 0.8150 0.7910
10.149000 0.7740 0.7690 0.7520 0.7430 0.7330
10.183157 0.7210 0.7070 0.6930 0.6710 0.6590
10.217000 0.6470 0.6290 0.6210 0.6070 0.6020
10.251157 0.5860 0.5730 0.5540 0.5450 0.5350
10.286000 0.5240 0.5120 0.4970 0.4850 0.4760
10.320157 0.4690 0.4640 0.4570 0.4500 0.4450
10.354000 0.4380 0.4320 0.4190 0.4130 0.4020
10.388157 0.4010 0.3940 0.3920 0.3870 0.3850
10.422000 0.3830 0.3820 0.3800 0.3800 0.3780
10.456157 0.3780 0.3760 0.3760 0.3760 0.3760
10.490000 0.3780 0.3780 0.3800 0.3800 0.3820
10.524157 0.3830 0.3850 0.3870 0.3900 0.3920
10.559000 0.3940 0.3970 0.3990 0.4010 0.4010
10.593157 0.4010 0.4010 0.4010 0.4010 0.4010
10.627000 0.3990 0.3990 0.3990 0.3990 0.3970
10.661157 0.3950 0.3950 0.3950 0.3950 0.3950
10.695000 0.3950 0.3950 0.3950 0.3990 0.3990
10.729157 0.4020 0.4020 0.4040 0.4040 0.4060
10.764000 0.4140 0.4180 0.4210 0.4250 0.4320
10.798157 0.4370 0.4450 0.4500 0.4570 0.4610
10.832000 0.4680 0.4750 0.4800 0.4850 0.4930
10.866157 0.5060 0.5190 0.5420 0.5620 0.5670
10.900000 0.5800 0.5880 0.6000 0.6040 0.6160
10.934157 0.6240 0.6280 0.6260 0.6260 0.6260
10.968000 0.6230 0.6190 0.6190 0.6160 0.6160
11.002157 0.6190 0.6260 0.6350 0.6410 0.6520
11.037000 0.6550 0.6690 0.6790 0.6900 0.7000
11.071157 0.7070 0.7160 0.7260 0.7330 0.7400
11.105000 0.7450 0.7520 0.7550 0.7650 0.7710
11.139157 0.7740 0.7790 0.7810 0.7840 0.7880
11.173000 0.7900 0.7930 0.7950 0.7950 0.8000
11.207157 0.8030 0.8050 0.8070 0.8120 0.8140
11.241000 0.8150 0.8150 0.8170 0.8170 0.8190
11.275157 0.8190 0.8190 0.8190 0.8190 0.8190
11.310000 0.8190 0.8190 0.8190 0.8190 0.8190
11.344157 0.8190 0.8170 0.8170 0.8170 0.8150
11.378000 0.8150 0.8140 0.8120 0.8100 0.8100
11.412157 0.8100 0.8070 0.8080 0.8070 0.8070
11.446000 0.8050 0.8030 0.8030 0.8030 0.8020
11.480157 0.8000 0.7960 0.7950 0.7930 0.7880
11.515000 0.7860 0.7830 0.7810 0.7760 0.7710
11.549157 0.7670 0.7620 0.7570 0.7520 0.7500
11.583000 0.7460 0.7430 0.7380 0.7310 0.7240
11.617157 0.7240 0.7190 0.7140 0.7050 0.7030
11.651000 0.6970 0.6910 0.6860 0.6790 0.6720
11.685157 0.6660 0.6550 0.6450 0.6350 0.6290
11.719000 0.6210 0.6140 0.6040 0.6020 0.5920
11.753157 0.5810 0.5710 0.5610 0.5540 0.5430
11.788000 0.5380 0.5330 0.5230 0.5160 0.5090
11.822157 0.5040 0.4990 0.4950 0.4900 0.4830
11.856000 0.4750 0.4710 0.4660 0.4610 0.4560
11.890157 0.4500 0.4470 0.4420 0.4380 0.4370
11.924000 0.4330 0.4280 0.4250 0.4210 0.4190
11.958157 0.4160 0.4140 0.4130 0.4110 0.4110
11.993000 0.4090 0.4090 0.4070 0.4060 0.4060
12.027157 0.4060 0.4060 0.4040 0.4040 0.4020
12.061000 0.4020 0.4010 0.4010 0.4010 0.4020
12.095157 0.4020 0.4040 0.4040 0.4040 0.4060
12.129000 0.4060 0.4110 0.4140 0.4180 0.4210
12.163157 0.4230 0.4260 0.4320 0.4370 0.4440
12.197000 0.4500 0.4590 0.4660 0.4760 0.4800
12.231157 0.4900 0.4950 0.5000 0.5070 0.5260
12.266000 0.5330 0.5420 0.5500 0.5550 0.5640
12.300157 0.5760 0.5880 0.6000 0.6020 0.6120
12.334000 0.6190 0.6260 0.6310 0.6380 0.6430
12.368157 0.6520 0.6550 0.6570 0.6620 0.6660
12.402000 0.6740 0.6780 0.6830 0.6850 0.6880
12.436157 0.6900 0.6930 0.6950 0.6980 0.7000
12.471000 0.7000 0.7020 0.7030 0.7050 0.7050
12.505157 0.7070 0.7090 0.7090 0.7100 0.7100
12.539000 0.7100 0.7120 0.7120 0.7120 0.7120
12.573157 0.7120 0.7140 0.7140 0.7140 0.7140
12.607000 0.7140 0.7140 0.7140 0.7140 0.7140
12.641157 0.7120 0.7120 0.7100 0.7090 0.7090
12.675000 0.7070 0.7070 0.7030 0.7030 0.7030
12.709157 0.7030 0.7020 0.7020 0.7000 0.6980
12.744000 0.6970 0.6950 0.6930 0.6910 0.6900
12.778157 0.6860 0.6850 0.6850 0.6830 0.6790
12.812000 0.6790 0.6760 0.6740 0.6720 0.6720
12.846157 0.6710 0.6690 0.6670 0.6660 0.6640
12.880000 0.6620 0.6600 0.6590 0.6570 0.6550
12.914157 0.6540 0.6520 0.6500 0.6480 0.6470
12.948000 0.6450 0.6430 0.6410 0.6400 0.6380
12.982157 0.6360 0.6350 0.6290 0.6280 0.6260
13.017000 0.6240 0.6210 0.6190 0.6170 0.6140
13.051157 0.6120 0.6090 0.6040 0.6040 0.6040
13.085000 0.6020 0.6020 0.6020 0.5980 0.5970
13.119157 0.5930 0.5900 0.5880 0.5860 0.5850
13.153000 0.5810 0.5780 0.5760 0.5740 0.5730
13.187157 0.5710 0.5690 0.5660 0.5640 0.5620
13.222000 0.5620 0.5610 0.5570 0.5550 0.5540
13.256157 0.5520 0.5500 0.5490 0.5450 0.5430
13.290000 0.5420 0.5400 0.5380 0.5350 0.5330
13.324157 0.5310 0.5300 0.5260 0.5240 0.5230
13.358000 0.5210 0.5190 0.5180 0.5160 0.5140
13.392157 0.5120 0.5110 0.5060 0.5040 0.5040
13.426000 0.5020 0.5000 0.4970 0.4950 0.4920
13.460157 0.4900 0.4880 0.4850 0.4830 0.4830
13.495000 0.4800 0.4760 0.4760 0.4730 0.4710
13.529157 0.4680 0.4660 0.4640 0.4620 0.4590
13.563000 0.4570 0.4540 0.4520 0.4500 0.4490
13.597157 0.4470 0.4440 0.4420 0.4400 0.4380
13.631000 0.4370 0.4350 0.4330 0.4320 0.4320
13.665157 0.4300 0.4280 0.4260 0.4230 0.4210
13.700000 0.4210 0.4190 0.4180 0.4160 0.4160
13.734157 0.4140 0.4110 0.4110 0.4090 0.4040
13.768000 0.4040 0.4040 0.4020 0.4020 0.3990
13.802157 0.3970 0.3970 0.3950 0.3950 0.3940
13.836000 0.3920 0.3920 0.3900 0.3880 0.3870
13.870157 0.3850 0.3850 0.3830 0.3800 0.3760
13.904000 0.3760 0.3750 0.3730 0.3710 0.3700
13.938157 0.3700 0.3680 0.3660 0.3640 0.3630
13.973000 0.3630 0.3610 0.3610 0.3610 0.3590
14.007157 0.3580 0.3580 0.3560 0.3540 0.3540
14.041000 0.3540 0.3540 0.3520 0.3520 0.3520
14.075157 0.3510 0.3490 0.3490 0.3490 0.3470
14.109000 0.3470 0.3470 0.3450 0.3450 0.3450
14.143157 0.3450 0.3440 0.3440 0.3420 0.3420
14.178000 0.3420 0.3400 0.3400 0.3400 0.3390
14.212157 0.3390 0.3390 0.3390 0.3370 0.3350
14.246000 0.3350 0.3330 0.3330 0.3330 0.3320
14.280157 0.3320 0.3320 0.3320 0.3300 0.3300
14.314000 0.3320 0.3320 0.3300 0.3300 0.3300
14.348157 0.3300 0.3300 0.3300 0.3300 0.3300
14.382000 0.3280 0.3280 0.3280 0.3280 0.3300
14.416157 0.3280 0.3280 0.3280 0.3280 0.3280
14.451000 0.3280 0.3300 0.3300 0.3300 0.3300
14.485157 0.3300 0.3320 0.3320 0.3320 0.3320
14.519000 0.3330 0.3320 0.3320 0.3320 0.3320
14.553157 0.3330 0.3330 0.3330 0.3330 0.3350
14.587000 0.3350 0.3350 0.3350 0.3350 0.3370
14.621157 0.3390 0.3400 0.3400 0.3400 0.3420
14.655000 0.3420 0.3440 0.3450 0.3470 0.3490
14.689157 0.3490 0.3510 0.3510 0.3520 0.3520
14.724000 0.3540 0.3540 0.3560 0.3560 0.3560
14.758157 0.3590 0.3590 0.3610 0.3610 0.3630
14.792000 0.3630 0.3630 0.3630 0.3660 0.3660
14.826157 0.3680 0.3680 0.3680 0.3700 0.3700
14.860000 0.3710 0.3710 0.3730 0.3730 0.3750
14.894157 0.3750 0.3760 0.3780 0.3780 0.3800
14.929000 0.3800 0.3820 0.3820 0.3820 0.3820
14.963157 0.3830 0.3830 0.3850 0.3870 0.3870
14.997000 0.3880 0.3880 0.3900 0.3900 0.3920
15.031157 0.3920 0.3920 0.3940 0.3940 0.3950
15.065000 0.3950 0.3990 0.3990 0.4010 0.4010
15.099157 0.4010 0.4020 0.4020 0.4040 0.4040
15.133000 0.4040 0.4040 0.4060 0.4090 0.4090
15.167157 0.4110 0.4110 0.4110 0.4130 0.4140
15.202000 0.4140 0.4160 0.4160 0.4180 0.4180
15.236157 0.4190 0.4210 0.4210 0.4230 0.4250
15.270000 0.4250 0.4260 0.4280 0.4280 0.4300
15.304157 0.4320 0.4320 0.4330 0.4350 0.4350
15.338000 0.4370 0.4380 0.4400 0.4420 0.4440
15.372157 0.4440 0.4440 0.4450 0.4450 0.4490
15.407000 0.4500 0.4500 0.4520 0.4520 0.4540
15.441157 0.4560 0.4570 0.4570 0.4610 0.4610
15.475000 0.4620 0.4640 0.4660 0.4680 0.4690
15.509157 0.4690 0.4710 0.4730 0.4750 0.4760
15.543000 0.4760 0.4780 0.4800 0.4810 0.4830
15.577157 0.4830 0.4870 0.4880 0.4880 0.4920
15.611000 0.4930 0.4950 0.4970 0.4990 0.5000
15.645157 0.5000 0.5020 0.5040 0.5040 0.5070
15.680000 0.5090 0.5090 0.5110 0.5140 0.5140
15.714157 0.5180 0.5190 0.5210 0.5210 0.5230
15.748000 0.5240 0.5260 0.5260 0.5300 0.5310
15.782157 0.5330 0.5350 0.5380 0.5380 0.5420
15.816000 0.5420 0.5430 0.5450 0.5450 0.5470
15.850157 0.5490 0.5500 0.5520 0.5540 0.5550
15.885000 0.5570 0.5590 0.5610 0.5620 0.5640
15.919157 0.5640 0.5660 0.5690 0.5690 0.5710
15.953000 0.5730 0.5730 0.5740 0.5780 0.5800
15.987157 0.5810 0.5810
##END=
