##TITLE=1-Pyrrolidinecarbodithioic acid, ammonuim salt
##JCAMP-DX=4.24
$$ By DXEDIT 1.05 (RS McDonald)
##DATA TYPE=INFRARED SPECTRUM
##CLASS=COBLENTZ III
##ORIGIN=DOW CHEMICAL COMPANY
##OWNER=COPYRIGHT (C) 1988 by COBLENTZ SOCIETY INC.
Collection (C) 2018 copyright by the U.S. Secretary of Commerce
on behalf of the United States of America. All rights reserved.
##DATE=1965/01/21
##NAMES=1-pyrrolidinecarbodithioic acid ammoniate
##MOLFORM=C5 H12 N2 S2
##SOURCE REFERENCE=COBLENTZ NO. 06031
##$NIST ID=B6006031
##$NIST SOURCE=COBLENTZ
##$NIST IMAGE=cob6031
##SPECTROMETER/DATA SYSTEM=DOW KBr FOREPRISM-GRATING
##INSTRUMENT PARAMETERS=BLAZED AT 3.5, 12.0, 20.0 MICRON AND CHANGED AT 5.0, 7.5, 14.9 MICRON
##STATE=SOLID (SPLIT MULL)
##SAMPLING PROCEDURE=TRANSMISSION
##RESOLUTION=2
##DATA PROCESSING=DIGITIZED BY COBLENTZ SOCIETY (BATCH I) FROM HARD COPY
##XUNITS=1/CM
##YUNITS=TRANSMITTANCE
##XFACTOR=1
##YFACTOR=1
##DELTAX=1
##FIRSTX=3788
##LASTX=382
##FIRSTY=0.6886
##MAXX=3788
##MINX=382
##MAXY=0.8673
##MINY=0.0637
##NPOINTS=3407
##XYDATA=(X++(Y..Y))
3788.000000 0.6886 0.6887 0.6888 0.6890 0.6892
3783.000000 0.6894 0.6896 0.6898 0.6901 0.6903
3778.000000 0.6905 0.6907 0.6908 0.6911 0.6912
3773.000000 0.6915 0.6917 0.6918 0.6921 0.6922
3768.000000 0.6925 0.6926 0.6928 0.6931 0.6933
3763.000000 0.6935 0.6938 0.6940 0.6942 0.6944
3758.000000 0.6946 0.6948 0.6950 0.6951 0.6954
3753.000000 0.6956 0.6958 0.6960 0.6961 0.6964
3748.000000 0.6965 0.6968 0.6969 0.6971 0.6975
3743.000000 0.6978 0.6982 0.6985 0.6988 0.6991
3738.000000 0.6994 0.6997 0.7000 0.7003 0.7007
3733.000000 0.7010 0.7012 0.7015 0.7018 0.7021
3728.000000 0.7025 0.7026 0.7030 0.7031 0.7033
3723.000000 0.7034 0.7036 0.7037 0.7039 0.7040
3718.000000 0.7042 0.7043 0.7045 0.7046 0.7048
3713.000000 0.7049 0.7051 0.7051 0.7051 0.7051
3708.000000 0.7051 0.7051 0.7051 0.7051 0.7051
3703.000000 0.7051 0.7051 0.7050 0.7050 0.7050
3698.000000 0.7050 0.7049 0.7049 0.7049 0.7049
3693.000000 0.7049 0.7050 0.7051 0.7051 0.7053
3688.000000 0.7054 0.7055 0.7056 0.7057 0.7058
3683.000000 0.7061 0.7064 0.7068 0.7074 0.7078
3678.000000 0.7085 0.7090 0.7096 0.7101 0.7106
3673.000000 0.7111 0.7117 0.7118 0.7121 0.7121
3668.000000 0.7122 0.7122 0.7122 0.7122 0.7124
3663.000000 0.7124 0.7124 0.7124 0.7125 0.7125
3658.000000 0.7126 0.7128 0.7130 0.7131 0.7132
3653.000000 0.7133 0.7134 0.7135 0.7136 0.7137
3648.000000 0.7139 0.7140 0.7141 0.7142 0.7143
3643.000000 0.7146 0.7150 0.7153 0.7156 0.7158
3638.000000 0.7161 0.7165 0.7168 0.7171 0.7175
3633.000000 0.7178 0.7181 0.7184 0.7187 0.7190
3628.000000 0.7193 0.7195 0.7198 0.7199 0.7200
3623.000000 0.7200 0.7201 0.7201 0.7203 0.7203
3618.000000 0.7204 0.7205 0.7206 0.7207 0.7208
3613.000000 0.7208 0.7208 0.7210 0.7211 0.7211
3608.000000 0.7211 0.7212 0.7214 0.7214 0.7215
3603.000000 0.7215 0.7215 0.7215 0.7215 0.7215
3598.000000 0.7215 0.7215 0.7215 0.7215 0.7217
3593.000000 0.7217 0.7217 0.7217 0.7217 0.7217
3588.000000 0.7217 0.7217 0.7218 0.7218 0.7218
3583.000000 0.7218 0.7218 0.7218 0.7218 0.7219
3578.000000 0.7221 0.7222 0.7224 0.7225 0.7226
3573.000000 0.7228 0.7230 0.7231 0.7232 0.7233
3568.000000 0.7235 0.7236 0.7237 0.7238 0.7240
3563.000000 0.7241 0.7243 0.7244 0.7245 0.7246
3558.000000 0.7248 0.7249 0.7251 0.7251 0.7253
3553.000000 0.7254 0.7256 0.7257 0.7258 0.7258
3548.000000 0.7261 0.7262 0.7265 0.7267 0.7269
3543.000000 0.7271 0.7274 0.7275 0.7278 0.7281
3538.000000 0.7283 0.7285 0.7288 0.7290 0.7292
3533.000000 0.7294 0.7296 0.7298 0.7301 0.7303
3528.000000 0.7305 0.7307 0.7310 0.7311 0.7314
3523.000000 0.7315 0.7318 0.7321 0.7322 0.7325
3518.000000 0.7326 0.7328 0.7332 0.7334 0.7336
3513.000000 0.7338 0.7341 0.7343 0.7345 0.7347
3508.000000 0.7350 0.7351 0.7354 0.7356 0.7358
3503.000000 0.7361 0.7362 0.7365 0.7367 0.7368
3498.000000 0.7371 0.7374 0.7375 0.7378 0.7381
3493.000000 0.7383 0.7385 0.7387 0.7389 0.7391
3488.000000 0.7394 0.7396 0.7398 0.7400 0.7401
3483.000000 0.7404 0.7406 0.7408 0.7410 0.7411
3478.000000 0.7414 0.7415 0.7418 0.7419 0.7422
3473.000000 0.7425 0.7426 0.7428 0.7431 0.7433
3468.000000 0.7435 0.7437 0.7439 0.7441 0.7443
3463.000000 0.7445 0.7448 0.7450 0.7451 0.7454
3458.000000 0.7456 0.7458 0.7460 0.7461 0.7464
3453.000000 0.7465 0.7468 0.7469 0.7472 0.7475
3448.000000 0.7476 0.7478 0.7481 0.7483 0.7485
3443.000000 0.7487 0.7489 0.7491 0.7493 0.7495
3438.000000 0.7498 0.7499 0.7501 0.7503 0.7505
3433.000000 0.7507 0.7508 0.7510 0.7511 0.7514
3428.000000 0.7515 0.7518 0.7519 0.7521 0.7524
3423.000000 0.7525 0.7526 0.7528 0.7531 0.7533
3418.000000 0.7535 0.7536 0.7538 0.7540 0.7542
3413.000000 0.7544 0.7546 0.7548 0.7550 0.7551
3408.000000 0.7553 0.7555 0.7557 0.7558 0.7561
3403.000000 0.7561 0.7564 0.7565 0.7568 0.7569
3398.000000 0.7571 0.7574 0.7575 0.7576 0.7578
3393.000000 0.7580 0.7582 0.7584 0.7586 0.7587
3388.000000 0.7589 0.7590 0.7592 0.7593 0.7595
3383.000000 0.7597 0.7599 0.7600 0.7601 0.7603
3378.000000 0.7605 0.7606 0.7608 0.7610 0.7611
3373.000000 0.7612 0.7615 0.7615 0.7618 0.7618
3368.000000 0.7621 0.7622 0.7625 0.7625 0.7628
3363.000000 0.7628 0.7631 0.7632 0.7634 0.7635
3358.000000 0.7636 0.7637 0.7638 0.7638 0.7639
3353.000000 0.7640 0.7641 0.7641 0.7642 0.7643
3348.000000 0.7644 0.7644 0.7645 0.7646 0.7647
3343.000000 0.7647 0.7648 0.7649 0.7650 0.7650
3338.000000 0.7651 0.7651 0.7653 0.7653 0.7654
3333.000000 0.7655 0.7656 0.7656 0.7657 0.7658
3328.000000 0.7658 0.7658 0.7660 0.7661 0.7661
3323.000000 0.7661 0.7662 0.7664 0.7665 0.7665
3318.000000 0.7664 0.7664 0.7661 0.7660 0.7658
3313.000000 0.7657 0.7655 0.7653 0.7651 0.7649
3308.000000 0.7661 0.7645 0.7643 0.7641 0.7639
3303.000000 0.7638 0.7637 0.7635 0.7634 0.7632
3298.000000 0.7631 0.7628 0.7628 0.7626 0.7625
3293.000000 0.7624 0.7622 0.7621 0.7619 0.7618
3288.000000 0.7618 0.7614 0.7611 0.7607 0.7603
3283.000000 0.7599 0.7596 0.7592 0.7589 0.7585
3278.000000 0.7581 0.7576 0.7574 0.7569 0.7567
3273.000000 0.7561 0.7556 0.7547 0.7539 0.7530
3268.000000 0.7521 0.7512 0.7504 0.7495 0.7487
3263.000000 0.7478 0.7469 0.7461 0.7451 0.7440
3258.000000 0.7428 0.7411 0.7397 0.7381 0.7365
3253.000000 0.7349 0.7334 0.7318 0.7305 0.7290
3248.000000 0.7275 0.7260 0.7246 0.7226 0.7208
3243.000000 0.7188 0.7168 0.7147 0.7126 0.7098
3238.000000 0.7069 0.7039 0.7008 0.6976 0.6947
3233.000000 0.6915 0.6884 0.6851 0.6818 0.6786
3228.000000 0.6753 0.6719 0.6688 0.6649 0.6611
3223.000000 0.6571 0.6532 0.6492 0.6453 0.6412
3218.000000 0.6374 0.6338 0.6302 0.6271 0.6240
3213.000000 0.6208 0.6177 0.6146 0.6115 0.6084
3208.000000 0.6053 0.6021 0.5990 0.5953 0.5917
3203.000000 0.5859 0.5802 0.5744 0.5687 0.5622
3198.000000 0.5558 0.5493 0.5429 0.5364 0.5299
3193.000000 0.5257 0.5216 0.5177 0.5139 0.5100
3188.000000 0.5062 0.5023 0.4985 0.4945 0.4905
3183.000000 0.4860 0.4817 0.4773 0.4729 0.4685
3178.000000 0.4641 0.4576 0.4510 0.4414 0.4317
3173.000000 0.4253 0.4190 0.4129 0.4068 0.4018
3168.000000 0.3966 0.3932 0.3897 0.3860 0.3826
3163.000000 0.3790 0.3755 0.3720 0.3684 0.3645
3158.000000 0.3606 0.3566 0.3527 0.3487 0.3448
3153.000000 0.3408 0.3368 0.3332 0.3295 0.3258
3148.000000 0.3222 0.3190 0.3158 0.3127 0.3096
3143.000000 0.3065 0.3034 0.2978 0.2923 0.2890
3138.000000 0.2857 0.2823 0.2790 0.2757 0.2724
3133.000000 0.2691 0.2658 0.2625 0.2592 0.2559
3128.000000 0.2526 0.2493 0.2460 0.2426 0.2393
3123.000000 0.2360 0.2327 0.2294 0.2261 0.2222
3118.000000 0.2183 0.2141 0.2099 0.2075 0.2051
3113.000000 0.2027 0.2003 0.1979 0.1958 0.1935
3108.000000 0.1915 0.1898 0.1882 0.1872 0.1863
3103.000000 0.1858 0.1854 0.1850 0.1845 0.1844
3098.000000 0.1843 0.1841 0.1840 0.1840 0.1840
3093.000000 0.1843 0.1845 0.1851 0.1856 0.1863
3088.000000 0.1871 0.1878 0.1885 0.1893 0.1900
3083.000000 0.1906 0.1913 0.1919 0.1925 0.1929
3078.000000 0.1935 0.1937 0.1974 0.1940 0.1940
3073.000000 0.1939 0.1939 0.1937 0.1936 0.1919
3068.000000 0.1902 0.1881 0.1860 0.1841 0.1823
3063.000000 0.1804 0.1785 0.1767 0.1748 0.1731
3058.000000 0.1715 0.1700 0.1684 0.1669 0.1654
3053.000000 0.1640 0.1626 0.1616 0.1607 0.1596
3048.000000 0.1587 0.1580 0.1574 0.1569 0.1565
3043.000000 0.1561 0.1557 0.1552 0.1548 0.1542
3038.000000 0.1539 0.1534 0.1529 0.1523 0.1518
3033.000000 0.1512 0.1507 0.1501 0.1496 0.1491
3028.000000 0.1486 0.1480 0.1475 0.1469 0.1464
3023.000000 0.1454 0.1444 0.1434 0.1424 0.1414
3018.000000 0.1405 0.1395 0.1385 0.1375 0.1365
3013.000000 0.1354 0.1342 0.1331 0.1320 0.1309
3008.000000 0.1298 0.1286 0.1275 0.1262 0.1249
3003.000000 0.1235 0.1222 0.1208 0.1194 0.1180
2998.000000 0.1167 0.1153 0.1139 0.1125 0.1111
2993.000000 0.1096 0.1083 0.1069 0.1055 0.1042
2988.000000 0.1032 0.1022 0.1015 0.1006 0.0997
2983.000000 0.0992 0.0988 0.0983 0.0979 0.0975
2978.000000 0.0972 0.0970 0.0969 0.0968 0.0967
2973.000000 0.0966 0.0965 0.0964 0.0963 0.0961
2968.000000 0.0960 0.0959 0.0959 0.0958 0.0958
2963.000000 0.0956 0.0955 0.0953 0.0952 0.0949
2958.000000 0.0946 0.0938 0.0916 0.0929 0.0929
2953.000000 0.0929 0.0930 0.0935 0.0941 0.0947
2948.000000 0.0956 0.0963 0.0971 0.0983 0.0996
2943.000000 0.1014 0.1033 0.1051 0.1069 0.1087
2938.000000 0.1105 0.1123 0.1141 0.1158 0.1175
2933.000000 0.1190 0.1205 0.1220 0.1236 0.1251
2928.000000 0.1266 0.1281 0.1296 0.1312 0.1327
2923.000000 0.1342 0.1357 0.1367 0.1377 0.1386
2918.000000 0.1396 0.1406 0.1416 0.1425 0.1435
2913.000000 0.1444 0.1454 0.1464 0.1474 0.1483
2908.000000 0.1492 0.1501 0.1509 0.1516 0.1524
2903.000000 0.1532 0.1540 0.1546 0.1555 0.1562
2898.000000 0.1570 0.1578 0.1587 0.1595 0.1604
2893.000000 0.1613 0.1622 0.1631 0.1640 0.1644
2888.000000 0.1649 0.1653 0.1657 0.1660 0.1664
2883.000000 0.1667 0.1670 0.1672 0.1674 0.1675
2878.000000 0.1677 0.1678 0.1679 0.1681 0.1683
2873.000000 0.1684 0.1686 0.1695 0.1706 0.1718
2868.000000 0.1731 0.1743 0.1756 0.1768 0.1781
2863.000000 0.1793 0.1804 0.1816 0.1828 0.1839
2858.000000 0.1851 0.1862 0.1874 0.1893 0.1913
2853.000000 0.1940 0.1968 0.2003 0.2037 0.2073
2848.000000 0.2109 0.2134 0.2160 0.2184 0.2210
2843.000000 0.2231 0.2252 0.2270 0.2288 0.2305
2838.000000 0.2323 0.2339 0.2355 0.2367 0.2379
2833.000000 0.2390 0.2401 0.2407 0.2414 0.2421
2828.000000 0.2428 0.2430 0.2433 0.2434 0.2435
2823.000000 0.2437 0.2439 0.2440 0.2442 0.2443
2818.000000 0.2445 0.2447 0.2449 0.2453 0.2457
2813.000000 0.2461 0.2465 0.2473 0.2481 0.2494
2808.000000 0.2508 0.2523 0.2539 0.2556 0.2573
2803.000000 0.2590 0.2608 0.2625 0.2642 0.2659
2798.000000 0.2676 0.2693 0.2711 0.2729 0.2748
2793.000000 0.2764 0.2780 0.2794 0.2808 0.2820
2788.000000 0.2833 0.2838 0.2844 0.2847 0.2851
2783.000000 0.2849 0.2885 0.2844 0.2841 0.2834
2778.000000 0.2828 0.2820 0.2812 0.2790 0.2769
2773.000000 0.2729 0.2689 0.2577 0.2465 0.2425
2768.000000 0.2384 0.2371 0.2357 0.2343 0.2330
2763.000000 0.2320 0.2311 0.2304 0.2297 0.2292
2758.000000 0.2287 0.2283 0.2248 0.2277 0.2276
2753.000000 0.2274 0.2272 0.2271 0.2271 0.2334
2748.000000 0.2399 0.2448 0.2498 0.2538 0.2579
2743.000000 0.2618 0.2657 0.2689 0.2721 0.2752
2738.000000 0.2784 0.2816 0.2848 0.2890 0.2932
2733.000000 0.2975 0.3018 0.3061 0.3104 0.3146
2728.000000 0.3188 0.3220 0.3252 0.3284 0.3316
2723.000000 0.3349 0.3380 0.3412 0.3446 0.3478
2718.000000 0.3510 0.3539 0.3568 0.3595 0.3623
2713.000000 0.3650 0.3678 0.3705 0.3732 0.3759
2708.000000 0.3787 0.3814 0.3842 0.3868 0.3896
2703.000000 0.3924 0.3953 0.3980 0.4009 0.4039
2698.000000 0.4068 0.4097 0.4126 0.4155 0.4184
2693.000000 0.4212 0.4241 0.4270 0.4299 0.4326
2688.000000 0.4353 0.4378 0.4403 0.4428 0.4453
2683.000000 0.4477 0.4502 0.4527 0.4552 0.4577
2678.000000 0.4602 0.4627 0.4652 0.4677 0.4702
2673.000000 0.4728 0.4754 0.4780 0.4806 0.4832
2668.000000 0.4858 0.4884 0.4910 0.4937 0.4962
2663.000000 0.4989 0.5015 0.5041 0.5067 0.5087
2658.000000 0.5107 0.5123 0.5140 0.5156 0.5173
2653.000000 0.5189 0.5205 0.5221 0.5238 0.5254
2648.000000 0.5271 0.5287 0.5304 0.5320 0.5337
2643.000000 0.5353 0.5369 0.5387 0.5405 0.5423
2638.000000 0.5442 0.5460 0.5479 0.5498 0.5517
2633.000000 0.5535 0.5554 0.5572 0.5591 0.5610
2628.000000 0.5629 0.5644 0.5659 0.5673 0.5688
2623.000000 0.5702 0.5717 0.5731 0.5746 0.5760
2618.000000 0.5775 0.5789 0.5804 0.5818 0.5833
2613.000000 0.5847 0.5862 0.5874 0.5887 0.5899
2608.000000 0.5910 0.5923 0.5936 0.5948 0.5960
2603.000000 0.5972 0.5984 0.5996 0.6009 0.6020
2598.000000 0.6031 0.6042 0.6053 0.6064 0.6076
2593.000000 0.6087 0.6098 0.6109 0.6120 0.6131
2588.000000 0.6143 0.6154 0.6165 0.6176 0.6187
2583.000000 0.6198 0.6210 0.6224 0.6239 0.6254
2578.000000 0.6269 0.6284 0.6299 0.6314 0.6329
2573.000000 0.6344 0.6359 0.6373 0.6388 0.6403
2568.000000 0.6418 0.6432 0.6446 0.6460 0.6475
2563.000000 0.6489 0.6504 0.6518 0.6533 0.6547
2558.000000 0.6561 0.6571 0.6584 0.6595 0.6607
2553.000000 0.6618 0.6630 0.6641 0.6653 0.6664
2548.000000 0.6675 0.6686 0.6696 0.6705 0.6714
2543.000000 0.6722 0.6733 0.6742 0.6751 0.6760
2538.000000 0.6768 0.6778 0.6788 0.6797 0.6806
2533.000000 0.6815 0.6824 0.6833 0.6842 0.6851
2528.000000 0.6861 0.6869 0.6878 0.6888 0.6898
2523.000000 0.6907 0.6915 0.6925 0.6934 0.6943
2518.000000 0.6951 0.6960 0.6968 0.6976 0.6986
2513.000000 0.6994 0.7003 0.7011 0.7019 0.7028
2508.000000 0.7038 0.7046 0.7054 0.7060 0.7067
2503.000000 0.7072 0.7078 0.7085 0.7092 0.7098
2498.000000 0.7104 0.7110 0.7115 0.7121 0.7128
2493.000000 0.7135 0.7141 0.7147 0.7153 0.7157
2488.000000 0.7161 0.7167 0.7171 0.7175 0.7181
2483.000000 0.7185 0.7190 0.7194 0.7199 0.7203
2478.000000 0.7208 0.7211 0.7217 0.7221 0.7225
2473.000000 0.7230 0.7235 0.7239 0.7244 0.7248
2468.000000 0.7253 0.7258 0.7262 0.7267 0.7271
2463.000000 0.7276 0.7282 0.7287 0.7292 0.7297
2458.000000 0.7301 0.7306 0.7311 0.7315 0.7321
2453.000000 0.7325 0.7331 0.7335 0.7340 0.7345
2448.000000 0.7350 0.7354 0.7358 0.7362 0.7367
2443.000000 0.7371 0.7375 0.7378 0.7383 0.7387
2438.000000 0.7392 0.7396 0.7400 0.7404 0.7408
2433.000000 0.7411 0.7415 0.7419 0.7424 0.7428
2428.000000 0.7433 0.7437 0.7441 0.7445 0.7449
2423.000000 0.7453 0.7457 0.7461 0.7465 0.7468
2418.000000 0.7471 0.7475 0.7480 0.7484 0.7488
2413.000000 0.7492 0.7496 0.7500 0.7504 0.7507
2408.000000 0.7511 0.7515 0.7518 0.7522 0.7526
2403.000000 0.7531 0.7535 0.7539 0.7543 0.7546
2398.000000 0.7550 0.7554 0.7558 0.7561 0.7565
2393.000000 0.7568 0.7572 0.7576 0.7581 0.7585
2388.000000 0.7589 0.7593 0.7597 0.7600 0.7604
2383.000000 0.7605 0.7606 0.7606 0.7607 0.7607
2378.000000 0.7608 0.7608 0.7608 0.7608 0.7608
2373.000000 0.7608 0.7610 0.7611 0.7611 0.7612
2368.000000 0.7614 0.7615 0.7615 0.7615 0.7615
2363.000000 0.7614 0.7614 0.7612 0.7611 0.7611
2358.000000 0.7611 0.7610 0.7608 0.7608 0.7608
2353.000000 0.7607 0.7606 0.7604 0.7603 0.7601
2348.000000 0.7601 0.7601 0.7604 0.7606 0.7608
2343.000000 0.7610 0.7611 0.7614 0.7615 0.7617
2338.000000 0.7617 0.7618 0.7618 0.7618 0.7618
2333.000000 0.7617 0.7617 0.7615 0.7615 0.7615
2328.000000 0.7615 0.7618 0.7621 0.7624 0.7626
2323.000000 0.7628 0.7632 0.7634 0.7637 0.7639
2318.000000 0.7642 0.7644 0.7647 0.7649 0.7651
2313.000000 0.7655 0.7658 0.7660 0.7662 0.7665
2308.000000 0.7667 0.7668 0.7671 0.7674 0.7676
2303.000000 0.7678 0.7682 0.7684 0.7687 0.7689
2298.000000 0.7691 0.7693 0.7696 0.7698 0.7701
2293.000000 0.7703 0.7706 0.7708 0.7711 0.7714
2288.000000 0.7717 0.7719 0.7724 0.7728 0.7732
2283.000000 0.7735 0.7739 0.7742 0.7745 0.7747
2278.000000 0.7750 0.7751 0.7755 0.7758 0.7761
2273.000000 0.7762 0.7765 0.7768 0.7771 0.7772
2268.000000 0.7775 0.7778 0.7781 0.7784 0.7787
2263.000000 0.7789 0.7792 0.7795 0.7799 0.7801
2258.000000 0.7806 0.7810 0.7814 0.7818 0.7821
2253.000000 0.7825 0.7828 0.7833 0.7837 0.7841
2248.000000 0.7845 0.7848 0.7851 0.7856 0.7860
2243.000000 0.7862 0.7867 0.7871 0.7875 0.7878
2238.000000 0.7883 0.7885 0.7888 0.7890 0.7893
2233.000000 0.7895 0.7898 0.7900 0.7903 0.7905
2228.000000 0.7908 0.7910 0.7912 0.7915 0.7917
2223.000000 0.7918 0.7921 0.7924 0.7926 0.7928
2218.000000 0.7932 0.7934 0.7937 0.7940 0.7943
2213.000000 0.7945 0.7948 0.7951 0.7954 0.7956
2208.000000 0.7958 0.7961 0.7965 0.7967 0.7969
2203.000000 0.7972 0.7975 0.7978 0.7981 0.7984
2198.000000 0.7987 0.7989 0.7992 0.7995 0.7998
2193.000000 0.8000 0.8003 0.8005 0.8007 0.8008
2188.000000 0.8010 0.8011 0.8012 0.8014 0.8015
2183.000000 0.8015 0.8018 0.8018 0.8021 0.8021
2178.000000 0.8024 0.8025 0.8025 0.8026 0.8028
2173.000000 0.8030 0.8032 0.8033 0.8035 0.8036
2168.000000 0.8038 0.8039 0.8040 0.8041 0.8043
2163.000000 0.8044 0.8045 0.8046 0.8048 0.8049
2158.000000 0.8051 0.8051 0.8053 0.8054 0.8056
2153.000000 0.8057 0.8058 0.8060 0.8061 0.8062
2148.000000 0.8065 0.8065 0.8068 0.8068 0.8071
2143.000000 0.8071 0.8074 0.8075 0.8076 0.8078
2138.000000 0.8081 0.8082 0.8084 0.8085 0.8087
2133.000000 0.8088 0.8090 0.8090 0.8090 0.8089
2128.000000 0.8088 0.8086 0.8085 0.8084 0.8106
2123.000000 0.8081 0.8080 0.8078 0.8078 0.8075
2118.000000 0.8072 0.8068 0.8065 0.8061 0.8058
2113.000000 0.8055 0.8051 0.8048 0.8045 0.8041
2108.000000 0.8038 0.8032 0.8026 0.8018 0.8011
2103.000000 0.8005 0.7998 0.7991 0.7984 0.7976
2098.000000 0.7969 0.7962 0.7956 0.7946 0.7936
2093.000000 0.7925 0.7917 0.7907 0.7897 0.7888
2088.000000 0.7878 0.7869 0.7861 0.7853 0.7845
2083.000000 0.7836 0.7826 0.7818 0.7808 0.7799
2078.000000 0.7790 0.7781 0.7772 0.7764 0.7756
2073.000000 0.7747 0.7739 0.7732 0.7725 0.7718
2068.000000 0.7661 0.7703 0.7696 0.7688 0.7680
2063.000000 0.7678 0.7678 0.7676 0.7675 0.7680
2058.000000 0.7685 0.7689 0.7694 0.7698 0.7703
2053.000000 0.7707 0.7711 0.7715 0.7721 0.7725
2048.000000 0.7730 0.7735 0.7740 0.7744 0.7749
2043.000000 0.7751 0.7756 0.7758 0.7761 0.7765
2038.000000 0.7768 0.7771 0.7775 0.7778 0.7782
2033.000000 0.7786 0.7790 0.7794 0.7798 0.7801
2028.000000 0.7807 0.7811 0.7815 0.7818 0.7824
2023.000000 0.7828 0.7832 0.7836 0.7840 0.7844
2018.000000 0.7848 0.7851 0.7855 0.7858 0.7862
2013.000000 0.7867 0.7871 0.7872 0.7875 0.7878
2008.000000 0.7882 0.7884 0.7886 0.7888 0.7890
2003.000000 0.7891 0.7893 0.7884 0.7875 0.7861
1998.000000 0.7849 0.7840 0.7835 0.7835 0.7834
1993.000000 0.7839 0.7842 0.7845 0.7847 0.7848
1988.000000 0.7848 0.7849 0.7850 0.7850 0.7851
1983.000000 0.7854 0.7855 0.7857 0.7858 0.7860
1978.000000 0.7862 0.7865 0.7867 0.7869 0.7869
1973.000000 0.7869 0.7869 0.7868 0.7868 0.7868
1968.000000 0.7867 0.7867 0.7868 0.7871 0.7872
1963.000000 0.7880 0.7892 0.7908 0.7933 0.7949
1958.000000 0.7964 0.7975 0.7976 0.7980 0.7964
1953.000000 0.7951 0.7945 0.7940 0.7939 0.7938
1948.000000 0.7937 0.7936 0.7936 0.7937 0.7937
1943.000000 0.7938 0.7938 0.7939 0.7940 0.7942
1938.000000 0.7945 0.7948 0.7951 0.7953 0.7953
1933.000000 0.7951 0.7950 0.7950 0.7951 0.7953
1928.000000 0.7954 0.7955 0.7956 0.7958 0.7965
1923.000000 0.7969 0.7974 0.7978 0.7982 0.7987
1918.000000 0.7991 0.7995 0.7999 0.8003 0.8007
1913.000000 0.8011 0.8015 0.8018 0.8021 0.8025
1908.000000 0.8030 0.8033 0.8036 0.8039 0.8041
1903.000000 0.8044 0.8047 0.8050 0.8053 0.8055
1898.000000 0.8058 0.8060 0.8062 0.8065 0.8068
1893.000000 0.8069 0.8071 0.8072 0.8074 0.8075
1888.000000 0.8076 0.8078 0.8078 0.8074 0.8068
1883.000000 0.8065 0.8061 0.8057 0.8053 0.8047
1878.000000 0.8040 0.8034 0.8028 0.8021 0.8015
1873.000000 0.8008 0.8003 0.7997 0.7991 0.7985
1868.000000 0.7978 0.7971 0.7961 0.7951 0.7943
1863.000000 0.7934 0.7925 0.7915 0.7906 0.7897
1858.000000 0.7882 0.7867 0.7851 0.7837 0.7825
1853.000000 0.7817 0.7808 0.7799 0.7790 0.7781
1848.000000 0.7774 0.7768 0.7761 0.7756 0.7751
1843.000000 0.7746 0.7742 0.7739 0.7735 0.7732
1838.000000 0.7728 0.7725 0.7721 0.7718 0.7715
1833.000000 0.7712 0.7710 0.7706 0.7703 0.7700
1828.000000 0.7697 0.7694 0.7691 0.7688 0.7685
1823.000000 0.7682 0.7678 0.7675 0.7672 0.7669
1818.000000 0.7667 0.7664 0.7661 0.7658 0.7655
1813.000000 0.7651 0.7649 0.7646 0.7642 0.7638
1808.000000 0.7634 0.7631 0.7626 0.7622 0.7618
1803.000000 0.7615 0.7611 0.7608 0.7606 0.7603
1798.000000 0.7601 0.7598 0.7596 0.7593 0.7591
1793.000000 0.7588 0.7586 0.7585 0.7584 0.7583
1788.000000 0.7582 0.7581 0.7580 0.7578 0.7578
1783.000000 0.7575 0.7574 0.7571 0.7569 0.7568
1778.000000 0.7565 0.7562 0.7561 0.7558 0.7557
1773.000000 0.7554 0.7550 0.7546 0.7542 0.7538
1768.000000 0.7534 0.7530 0.7525 0.7521 0.7518
1763.000000 0.7514 0.7511 0.7508 0.7505 0.7501
1758.000000 0.7499 0.7494 0.7490 0.7485 0.7481
1753.000000 0.7475 0.7471 0.7467 0.7461 0.7458
1748.000000 0.7456 0.7453 0.7450 0.7447 0.7444
1743.000000 0.7441 0.7437 0.7432 0.7424 0.7417
1738.000000 0.7411 0.7406 0.7401 0.7397 0.7393
1733.000000 0.7388 0.7383 0.7380 0.7378 0.7378
1728.000000 0.7375 0.7375 0.7376 0.7376 0.7378
1723.000000 0.7378 0.7378 0.7378 0.7380 0.7380
1718.000000 0.7381 0.7381 0.7382 0.7382 0.7382
1713.000000 0.7381 0.7380 0.7378 0.7378 0.7381
1708.000000 0.7383 0.7384 0.7388 0.7393 0.7398
1703.000000 0.7404 0.7408 0.7415 0.7419 0.7425
1698.000000 0.7434 0.7443 0.7451 0.7460 0.7468
1693.000000 0.7478 0.7486 0.7495 0.7508 0.7522
1688.000000 0.7536 0.7550 0.7562 0.7575 0.7588
1683.000000 0.7601 0.7611 0.7624 0.7636 0.7649
1678.000000 0.7661 0.7675 0.7689 0.7701 0.7715
1673.000000 0.7736 0.7760 0.7784 0.7811 0.7844
1668.000000 0.7860 0.7867 0.7875 0.7882 0.7889
1663.000000 0.7897 0.7904 0.7911 0.7919 0.7928
1658.000000 0.7938 0.7947 0.7955 0.7964 0.7974
1653.000000 0.7983 0.7993 0.8001 0.8008 0.8011
1648.000000 0.8015 0.8019 0.8024 0.8028 0.8032
1643.000000 0.8036 0.8040 0.8044 0.8049 0.8057
1638.000000 0.8065 0.8072 0.8081 0.8089 0.8097
1633.000000 0.8105 0.8112 0.8119 0.8126 0.8134
1628.000000 0.8141 0.8148 0.8155 0.8162 0.8169
1623.000000 0.8175 0.8182 0.8188 0.8194 0.8200
1618.000000 0.8206 0.8212 0.8218 0.8224 0.8230
1613.000000 0.8238 0.8246 0.8254 0.8263 0.8271
1608.000000 0.8280 0.8288 0.8296 0.8305 0.8313
1603.000000 0.8321 0.8328 0.8334 0.8340 0.8347
1598.000000 0.8353 0.8359 0.8365 0.8371 0.8377
1593.000000 0.8383 0.8389 0.8395 0.8401 0.8406
1588.000000 0.8412 0.8418 0.8424 0.8430 0.8436
1583.000000 0.8442 0.8447 0.8451 0.8455 0.8458
1578.000000 0.8461 0.8464 0.8464 0.8463 0.8462
1573.000000 0.8461 0.8458 0.8455 0.8453 0.8453
1568.000000 0.8453 0.8456 0.8463 0.8470 0.8475
1563.000000 0.8490 0.8506 0.8521 0.8537 0.8552
1558.000000 0.8567 0.8582 0.8596 0.8610 0.8615
1553.000000 0.8616 0.8617 0.8618 0.8620 0.8620
1548.000000 0.8620 0.8618 0.8618 0.8620 0.8621
1543.000000 0.8625 0.8628 0.8636 0.8646 0.8656
1538.000000 0.8667 0.8668 0.8664 0.8655 0.8641
1533.000000 0.8627 0.8643 0.8658 0.8673 0.8671
1528.000000 0.8665 0.8656 0.8644 0.8632 0.8621
1523.000000 0.8611 0.8600 0.8597 0.8606 0.8615
1518.000000 0.8624 0.8634 0.8638 0.8639 0.8640
1513.000000 0.8641 0.8655 0.8632 0.8632 0.8637
1508.000000 0.8642 0.8648 0.8649 0.8649 0.8641
1503.000000 0.8589 0.8566 0.8575 0.8592 0.8608
1498.000000 0.8617 0.8621 0.8621 0.8621 0.8621
1493.000000 0.8621 0.8613 0.8604 0.8595 0.8585
1488.000000 0.8565 0.8544 0.8521 0.8483 0.8425
1483.000000 0.8368 0.8316 0.8264 0.8212 0.8157
1478.000000 0.8093 0.8028 0.7944 0.7845 0.7737
1473.000000 0.7621 0.7375 0.6961 0.6969 0.6975
1468.000000 0.7034 0.7092 0.7150 0.7207 0.7218
1463.000000 0.7197 0.6953 0.6681 0.6408 0.6262
1458.000000 0.6243 0.6221 0.6194 0.5931 0.5505
1453.000000 0.5168 0.5180 0.5312 0.5452 0.5591
1448.000000 0.5679 0.5676 0.5562 0.5426 0.5290
1443.000000 0.5153 0.5017 0.4881 0.4574 0.4260
1438.000000 0.3947 0.3632 0.3320 0.3006 0.2692
1433.000000 0.2379 0.2065 0.1751 0.1517 0.1451
1428.000000 0.1399 0.1345 0.1277 0.1210 0.1144
1423.000000 0.1077 0.1013 0.0956 0.0899 0.0842
1418.000000 0.0787 0.0739 0.0697 0.0667 0.0649
1413.000000 0.0642 0.0637 0.0659 0.0839 0.1090
1408.000000 0.1207 0.1317 0.1428 0.1538 0.1648
1403.000000 0.1759 0.1869 0.1945 0.1939 0.1962
1398.000000 0.1934 0.1775 0.1614 0.1453 0.1303
1393.000000 0.1233 0.1205 0.1194 0.1211 0.1532
1388.000000 0.1704 0.1839 0.1972 0.2106 0.2194
1383.000000 0.2332 0.2404 0.2434 0.2447 0.2445
1378.000000 0.2427 0.2402 0.2393 0.2399 0.2411
1373.000000 0.2527 0.2951 0.3375 0.3799 0.4034
1368.000000 0.4156 0.4512 0.4716 0.4840 0.4964
1363.000000 0.5105 0.5244 0.5304 0.5362 0.5423
1358.000000 0.5486 0.5556 0.5627 0.5693 0.5755
1353.000000 0.5815 0.5857 0.5900 0.5937 0.5970
1348.000000 0.5995 0.6008 0.6017 0.6026 0.6032
1343.000000 0.6064 0.6043 0.6046 0.6047 0.6047
1338.000000 0.6047 0.6048 0.6047 0.6045 0.6034
1333.000000 0.6014 0.5677 0.5217 0.4756 0.4295
1328.000000 0.3834 0.3373 0.2944 0.2959 0.3013
1323.000000 0.3341 0.3670 0.3999 0.4458 0.4737
1318.000000 0.4933 0.5110 0.5262 0.5426 0.5602
1313.000000 0.5739 0.5860 0.5956 0.6051 0.6118
1308.000000 0.6183 0.6248 0.6317 0.6410 0.6492
1303.000000 0.6537 0.6582 0.6615 0.6638 0.6661
1298.000000 0.6684 0.6706 0.6726 0.6740 0.6753
1293.000000 0.6765 0.6778 0.6791 0.6804 0.6815
1288.000000 0.6826 0.6838 0.6849 0.6860 0.6871
1283.000000 0.6882 0.6891 0.6900 0.6908 0.6917
1278.000000 0.6925 0.6934 0.6943 0.6951 0.6955
1273.000000 0.6958 0.6962 0.6967 0.6971 0.6975
1268.000000 0.6978 0.7006 0.6983 0.6985 0.6987
1263.000000 0.6989 0.6991 0.6993 0.6993 0.6990
1258.000000 0.6987 0.6983 0.6968 0.6946 0.6908
1253.000000 0.6845 0.6776 0.6560 0.6308 0.6056
1248.000000 0.5804 0.5552 0.5300 0.5048 0.4846
1243.000000 0.4796 0.4797 0.4798 0.4990 0.5389
1238.000000 0.5787 0.6028 0.6105 0.6206 0.6354
1233.000000 0.6458 0.6567 0.6687 0.6765 0.6822
1228.000000 0.6874 0.6904 0.6921 0.6932 0.6942
1223.000000 0.6969 0.6951 0.6944 0.6926 0.6876
1218.000000 0.6615 0.6291 0.5966 0.5641 0.5315
1213.000000 0.5266 0.5266 0.5272 0.5789 0.6205
1208.000000 0.6379 0.6517 0.6590 0.6656 0.6745
1203.000000 0.6832 0.6898 0.6967 0.7028 0.7058
1198.000000 0.7071 0.7075 0.7078 0.7090 0.7071
1193.000000 0.7065 0.7055 0.7044 0.7030 0.7011
1188.000000 0.6981 0.6930 0.6853 0.6661 0.6465
1183.000000 0.6327 0.6220 0.6112 0.5718 0.5286
1178.000000 0.4855 0.4424 0.4099 0.4129 0.4117
1173.000000 0.4121 0.4283 0.4473 0.4662 0.4853
1168.000000 0.5043 0.5215 0.5241 0.5262 0.5249
1163.000000 0.5233 0.5168 0.4827 0.4414 0.4000
1158.000000 0.3588 0.3552 0.3550 0.3714 0.3975
1153.000000 0.4271 0.4567 0.4862 0.5159 0.6150
1148.000000 0.6243 0.6320 0.6415 0.6521 0.6622
1143.000000 0.6721 0.6806 0.6876 0.6949 0.6995
1138.000000 0.7035 0.7075 0.7112 0.7149 0.7180
1133.000000 0.7211 0.7226 0.7242 0.7257 0.7271
1128.000000 0.7286 0.7300 0.7314 0.7326 0.7341
1123.000000 0.7355 0.7367 0.7374 0.7381 0.7388
1118.000000 0.7394 0.7400 0.7406 0.7411 0.7417
1113.000000 0.7422 0.7428 0.7434 0.7434 0.7434
1108.000000 0.7446 0.7448 0.7449 0.7451 0.7453
1103.000000 0.7453 0.7441 0.7308 0.7101 0.6894
1098.000000 0.6686 0.6593 0.6593 0.6571 0.6578
1093.000000 0.6604 0.6854 0.6958 0.7071 0.7180
1088.000000 0.7262 0.7301 0.7340 0.7378 0.7410
1083.000000 0.7439 0.7468 0.7494 0.7507 0.7518
1078.000000 0.7531 0.7543 0.7554 0.7564 0.7574
1073.000000 0.7585 0.7595 0.7605 0.7615 0.7624
1068.000000 0.7630 0.7637 0.7643 0.7650 0.7657
1063.000000 0.7662 0.7669 0.7676 0.7685 0.7692
1058.000000 0.7700 0.7708 0.7714 0.7718 0.7724
1053.000000 0.7728 0.7734 0.7738 0.7742 0.7746
1048.000000 0.7750 0.7732 0.7753 0.7750 0.7747
1043.000000 0.7740 0.7733 0.7725 0.7704 0.7667
1038.000000 0.7608 0.7546 0.7482 0.7418 0.7333
1033.000000 0.7222 0.7233 0.7226 0.7340 0.7504
1028.000000 0.7568 0.7603 0.7621 0.7639 0.7651
1023.000000 0.7660 0.7668 0.7676 0.7686 0.7711
1018.000000 0.7701 0.7704 0.7704 0.7705 0.7698
1013.000000 0.7691 0.7680 0.7668 0.7658 0.7633
1008.000000 0.7603 0.7533 0.7425 0.7345 0.7186
1003.000000 0.7065 0.6400 0.5520 0.4641 0.3199
998.000000 0.3206 0.3350 0.3824 0.4298 0.4772
993.000000 0.5245 0.5495 0.5459 0.5462 0.4745
988.000000 0.3674 0.3662 0.3698 0.4533 0.5368
983.000000 0.6501 0.6753 0.6982 0.7053 0.7124
978.000000 0.7218 0.7299 0.7361 0.7418 0.7465
973.000000 0.7488 0.7510 0.7522 0.7535 0.7544
968.000000 0.7551 0.7557 0.7564 0.7569 0.7575
963.000000 0.7580 0.7590 0.7585 0.7586 0.7578
958.000000 0.7572 0.7564 0.7546 0.7528 0.7510
953.000000 0.7471 0.7411 0.7321 0.7217 0.7100
948.000000 0.6976 0.6778 0.6622 0.5480 0.4584
943.000000 0.3687 0.2369 0.2364 0.2542 0.2904
938.000000 0.3033 0.3073 0.3035 0.2808 0.2306
933.000000 0.2350 0.2317 0.3226 0.5333 0.5802
928.000000 0.6216 0.6333 0.6445 0.6549 0.6651
923.000000 0.6750 0.6858 0.6915 0.6994 0.6951
918.000000 0.6961 0.6758 0.6320 0.5881 0.5695
913.000000 0.5669 0.5443 0.5165 0.4881 0.4881
908.000000 0.4892 0.4936 0.5310 0.5541 0.5787
903.000000 0.6110 0.6312 0.6469 0.6619 0.7019
898.000000 0.7503 0.7551 0.7591 0.7628 0.7651
893.000000 0.7668 0.7686 0.7704 0.7721 0.7733
888.000000 0.7744 0.7755 0.7765 0.7775 0.7788
883.000000 0.7799 0.7810 0.7821 0.7832 0.7841
878.000000 0.7846 0.7851 0.7855 0.7854 0.7854
873.000000 0.7846 0.7846 0.7846 0.7810 0.7796
868.000000 0.7765 0.7733 0.7703 0.7672 0.7649
863.000000 0.7637 0.7624 0.7615 0.7607 0.7600
858.000000 0.7595 0.7612 0.7601 0.7603 0.7618
853.000000 0.7668 0.7741 0.7782 0.7814 0.7825
848.000000 0.7835 0.7845 0.7856 0.7858 0.7861
843.000000 0.7864 0.7867 0.7869 0.7871 0.7871
838.000000 0.7871 0.7872 0.7868 0.7861 0.7838
833.000000 0.7808 0.7764 0.7705 0.7632 0.7510
828.000000 0.7389 0.7265 0.7180 0.7164 0.7139
823.000000 0.7161 0.7168 0.7331 0.7444 0.7539
818.000000 0.7607 0.7661 0.7708 0.7753 0.7795
813.000000 0.7832 0.7868 0.7905 0.7930 0.7948
808.000000 0.7965 0.7985 0.8003 0.8021 0.8039
803.000000 0.8051 0.8061 0.8072 0.8083 0.8093
798.000000 0.8101 0.8108 0.8115 0.8124 0.8132
793.000000 0.8139 0.8147 0.8155 0.8161 0.8165
788.000000 0.8169 0.8174 0.8178 0.8181 0.8185
783.000000 0.8189 0.8189 0.8189 0.8188 0.8186
778.000000 0.8185 0.8184 0.8183 0.8183 0.8185
773.000000 0.8188 0.8190 0.8193 0.8195 0.8198
768.000000 0.8201 0.8203 0.8206 0.8209 0.8213
763.000000 0.8216 0.8218 0.8221 0.8225 0.8227
758.000000 0.8228 0.8233 0.8233 0.8234 0.8235
753.000000 0.8237 0.8238 0.8240 0.8241 0.8241
748.000000 0.8241 0.8234 0.8227 0.8221 0.8215
743.000000 0.8209 0.8204 0.8198 0.8192 0.8187
738.000000 0.8182 0.8176 0.8172 0.8168 0.8162
733.000000 0.8156 0.8148 0.8140 0.8131 0.8115
728.000000 0.8098 0.8076 0.8051 0.8024 0.7996
723.000000 0.7968 0.7943 0.7922 0.7924 0.7924
718.000000 0.7946 0.8018 0.8082 0.8124 0.8162
713.000000 0.8191 0.8209 0.8214 0.8218 0.8218
708.000000 0.8218 0.8216 0.8201 0.8178 0.8151
703.000000 0.8108 0.7982 0.7791 0.7599 0.7407
698.000000 0.7300 0.7317 0.7321 0.7347 0.7451
693.000000 0.7582 0.7711 0.7842 0.7971 0.8103
688.000000 0.8168 0.8225 0.8270 0.8305 0.8339
683.000000 0.8373 0.8393 0.8406 0.8420 0.8434
678.000000 0.8448 0.8456 0.8464 0.8471 0.8480
673.000000 0.8488 0.8485 0.8480 0.8475 0.8471
668.000000 0.8455 0.8454 0.8453 0.8445 0.8438
663.000000 0.8436 0.8444 0.8451 0.8462 0.8477
658.000000 0.8491 0.8506 0.8520 0.8532 0.8528
653.000000 0.8527 0.8524 0.8521 0.8517 0.8508
648.000000 0.8500 0.8491 0.8482 0.8474 0.8466
643.000000 0.8459 0.8452 0.8445 0.8438 0.8434
638.000000 0.8430 0.8425 0.8421 0.8418 0.8414
633.000000 0.8410 0.8406 0.8402 0.8397 0.8393
628.000000 0.8389 0.8385 0.8380 0.8374 0.8367
623.000000 0.8361 0.8354 0.8348 0.8341 0.8335
618.000000 0.8328 0.8321 0.8315 0.8308 0.8301
613.000000 0.8294 0.8288 0.8281 0.8274 0.8267
608.000000 0.8260 0.8253 0.8245 0.8237 0.8228
603.000000 0.8221 0.8213 0.8205 0.8196 0.8187
598.000000 0.8178 0.8169 0.8161 0.8151 0.8134
593.000000 0.8115 0.8098 0.8081 0.8062 0.8045
588.000000 0.8028 0.8010 0.7999 0.7999 0.8001
583.000000 0.8005 0.8008 0.8011 0.8015 0.8018
578.000000 0.8025 0.8032 0.8040 0.8047 0.8048
573.000000 0.8049 0.8050 0.8051 0.8039 0.8021
568.000000 0.8005 0.7985 0.7969 0.7971 0.7972
563.000000 0.7974 0.7975 0.7978 0.7978 0.7981
558.000000 0.7984 0.7986 0.7989 0.7991 0.7994
553.000000 0.7996 0.7999 0.8001 0.8004 0.8006
548.000000 0.8008 0.8008 0.8008 0.8007 0.8006
543.000000 0.8006 0.8005 0.8004 0.8004 0.8003
538.000000 0.8003 0.8001 0.8001 0.8001 0.7998
533.000000 0.7994 0.7991 0.7987 0.7984 0.7980
528.000000 0.7975 0.7972 0.7968 0.7965 0.7961
523.000000 0.7958 0.7955 0.7951 0.7948 0.7946
518.000000 0.7944 0.7942 0.7940 0.7938 0.7936
513.000000 0.7934 0.7932 0.7928 0.7926 0.7925
508.000000 0.7922 0.7921 0.7918 0.7917 0.7912
503.000000 0.7910 0.7907 0.7903 0.7900 0.7897
498.000000 0.7893 0.7890 0.7887 0.7884 0.7880
493.000000 0.7876 0.7871 0.7867 0.7861 0.7857
488.000000 0.7851 0.7847 0.7842 0.7837 0.7832
483.000000 0.7826 0.7861 0.7817 0.7811 0.7806
478.000000 0.7799 0.7793 0.7787 0.7781 0.7775
473.000000 0.7768 0.7761 0.7755 0.7746 0.7736
468.000000 0.7726 0.7717 0.7708 0.7698 0.7689
463.000000 0.7678 0.7665 0.7651 0.7639 0.7625
458.000000 0.7611 0.7598 0.7581 0.7564 0.7547
453.000000 0.7524 0.7496 0.7461 0.7437 0.7162
448.000000 0.6828 0.6494 0.5742 0.5825 0.5769
443.000000 0.5806 0.5928 0.6051 0.6174 0.6296
438.000000 0.6418 0.6486 0.6531 0.6572 0.6614
433.000000 0.6651 0.6665 0.6682 0.6711 0.6685
428.000000 0.6662 0.6631 0.6521 0.6405 0.6309
423.000000 0.6202 0.6065 0.5983 0.5959 0.5936
418.000000 0.5914 0.5915 0.5920 0.5925 0.5930
413.000000 0.5934 0.5938 0.5942 0.5947 0.5951
408.000000 0.5954 0.5954 0.5954 0.5955 0.5955
403.000000 0.5955 0.5956 0.5956 0.5956 0.5957
398.000000 0.5957 0.5957 0.5957 0.5956 0.5956
393.000000 0.5956 0.5956 0.5955 0.5954 0.5953
388.000000 0.5952 0.5951 0.5950 0.5949 0.5945
383.000000 0.5943 0.5941
##END=
