##TITLE=m-ACETOTOLUIDINE, 4'-tert-BUTYL-
##JCAMP-DX=4.24
$$ By DXEDIT 1.05 (RS McDonald)
##DATA TYPE=INFRARED SPECTRUM
##CLASS=COBLENTZ III
##ORIGIN=MONSANTO (J. FREEMAN)
##OWNER=COBLENTZ SOC.
Collection (C) 2018 copyright by the U.S. Secretary of Commerce
on behalf of the United States of America. All rights reserved.
##DATE=1959/02/05
##NAMES=N-(4-tert-butyl-3-methylphenyl)acetamide
ACETANILIDE, 4'-tert-BUTYL-3'-METHYL-
##MOLFORM=C13 H19 N O
##SOURCE REFERENCE=COBLENTZ NO. 08480
##$NIST ID=B6008480
##$NIST SOURCE=COBLENTZ
##$NIST IMAGE=cob8480
##SPECTROMETER/DATA SYSTEM=BECKMAN IR-4 (HYBRID PRISM-GRATING)
##INSTRUMENT PARAMETERS=NaCl PRISM
##STATE=SOLID (MULL)
$$SPECTRAL CONTAMINATION DUE TO OIL AROUND 2900, 1450, 1380 CM^-^1
##SAMPLING PROCEDURE=TRANSMISSION
##RESOLUTION=2
##DATA PROCESSING=DIGITIZED BY COBLENTZ SOCIETY (BATCH I) FROM HARD COPY (ADJUSTED \addmicron\0.02um\)
##XUNITS=1/CM
##YUNITS=TRANSMITTANCE
##XLABEL=Wavenumbers (cm-1)
##YLABEL=Transmittance
##XFACTOR=1
##YFACTOR=1
##DELTAX=0.987963
##FIRSTX=3960.4
##LASTX=627.01
##FIRSTY=0.8186
##MAXX=3960.4
##MINX=627.01
##MAXY=0.971675
##MINY=0.0068
##NPOINTS=3375
##XYDATA=(X++(Y..Y))
3960.396040 0.8186 0.8187 0.8188 0.8190 0.8191
3955.456226 0.8193 0.8194 0.8195 0.8197 0.8198
3950.516412 0.8200 0.8201 0.8202 0.8204 0.8205
3945.576599 0.8206 0.8207 0.8208 0.8208 0.8209
3940.636785 0.8210 0.8211 0.8212 0.8213 0.8214
3935.696971 0.8215 0.8216 0.8217 0.8218 0.8218
3930.757158 0.8218 0.8220 0.8221 0.8222 0.8223
3925.817344 0.8224 0.8225 0.8225 0.8226 0.8227
3920.877531 0.8228 0.8229 0.8230 0.8231 0.8232
3915.937717 0.8233 0.8234 0.8235 0.8236 0.8237
3910.997903 0.8238 0.8239 0.8240 0.8241 0.8242
3906.058090 0.8243 0.8244 0.8245 0.8246 0.8247
3901.118276 0.8248 0.8249 0.8250 0.8251 0.8251
3896.178462 0.8253 0.8254 0.8255 0.8256 0.8257
3891.238649 0.8258 0.8259 0.8260 0.8261 0.8262
3886.298835 0.8263 0.8264 0.8265 0.8265 0.8266
3881.359022 0.8267 0.8268 0.8268 0.8269 0.8271
3876.419208 0.8271 0.8272 0.8274 0.8275 0.8275
3871.479394 0.8276 0.8278 0.8278 0.8279 0.8281
3866.539581 0.8282 0.8283 0.8284 0.8285 0.8286
3861.599767 0.8286 0.8287 0.8288 0.8288 0.8289
3856.659953 0.8290 0.8290 0.8290 0.8291 0.8291
3851.720140 0.8291 0.8292 0.8292 0.8293 0.8293
3846.780326 0.8293 0.8294 0.8294 0.8295 0.8295
3841.840513 0.8296 0.8296 0.8297 0.8297 0.8298
3836.900699 0.8298 0.8299 0.8299 0.8300 0.8300
3831.960885 0.8301 0.8301 0.8302 0.8302 0.8303
3827.021072 0.8303 0.8304 0.8304 0.8305 0.8305
3822.081258 0.8305 0.8306 0.8306 0.8307 0.8307
3817.141444 0.8308 0.8308 0.8309 0.8309 0.8310
3812.201631 0.8310 0.8311 0.8311 0.8312 0.8312
3807.261817 0.8313 0.8313 0.8314 0.8314 0.8315
3802.322004 0.8315 0.8316 0.8316 0.8317 0.8317
3797.382190 0.8318 0.8318 0.8318 0.8318 0.8318
3792.442376 0.8319 0.8320 0.8320 0.8320 0.8320
3787.502563 0.8320 0.8320 0.8320 0.8320 0.8320
3782.562749 0.8320 0.8320 0.8320 0.8321 0.8321
3777.622935 0.8321 0.8321 0.8321 0.8321 0.8321
3772.683122 0.8321 0.8321 0.8321 0.8321 0.8321
3767.743308 0.8321 0.8321 0.8321 0.8321 0.8321
3762.803494 0.8321 0.8321 0.8321 0.8321 0.8321
3757.863681 0.8322 0.8323 0.8323 0.8323 0.8323
3752.923867 0.8323 0.8323 0.8323 0.8323 0.8323
3747.984054 0.8323 0.8324 0.8324 0.8324 0.8324
3743.044240 0.8324 0.8324 0.8325 0.8325 0.8325
3738.104426 0.8325 0.8325 0.8325 0.8325 0.8325
3733.164613 0.8325 0.8325 0.8325 0.8325 0.8325
3728.224799 0.8325 0.8325 0.8325 0.8325 0.8325
3723.284985 0.8325 0.8325 0.8325 0.8325 0.8325
3718.345172 0.8327 0.8327 0.8327 0.8327 0.8327
3713.405358 0.8327 0.8327 0.8327 0.8327 0.8327
3708.465545 0.8327 0.8328 0.8328 0.8328 0.8328
3703.525731 0.8328 0.8328 0.8327 0.8327 0.8327
3698.585917 0.8327 0.8327 0.8325 0.8325 0.8325
3693.646104 0.8325 0.8325 0.8325 0.8325 0.8325
3688.706290 0.8325 0.8325 0.8325 0.8324 0.8324
3683.766476 0.8324 0.8324 0.8324 0.8324 0.8324
3678.826663 0.8324 0.8324 0.8324 0.8324 0.8323
3673.886849 0.8323 0.8323 0.8323 0.8323 0.8323
3668.947036 0.8321 0.8321 0.8321 0.8321 0.8321
3664.007222 0.8321 0.8321 0.8321 0.8321 0.8321
3659.067408 0.8321 0.8320 0.8320 0.8320 0.8320
3654.127595 0.8320 0.8318 0.8318 0.8318 0.8318
3649.187781 0.8318 0.8318 0.8318 0.8320 0.8320
3644.247967 0.8321 0.8321 0.8321 0.8321 0.8322
3639.308154 0.8323 0.8323 0.8324 0.8324 0.8325
3634.368340 0.8325 0.8325 0.8326 0.8327 0.8327
3629.428527 0.8328 0.8328 0.8328 0.8328 0.8329
3624.488713 0.8330 0.8330 0.8331 0.8331 0.8332
3619.548899 0.8332 0.8333 0.8333 0.8333 0.8334
3614.609086 0.8334 0.8335 0.8336 0.8336 0.8337
3609.669272 0.8337 0.8337 0.8338 0.8338 0.8339
3604.729458 0.8339 0.8339 0.8339 0.8339 0.8339
3599.789645 0.8339 0.8339 0.8339 0.8339 0.8338
3594.849831 0.8338 0.8338 0.8338 0.8338 0.8337
3589.910018 0.8337 0.8337 0.8337 0.8337 0.8337
3584.970204 0.8336 0.8336 0.8336 0.8336 0.8336
3580.030390 0.8335 0.8335 0.8335 0.8335 0.8335
3575.090577 0.8334 0.8334 0.8334 0.8334 0.8334
3570.150763 0.8333 0.8333 0.8333 0.8333 0.8333
3565.210949 0.8332 0.8332 0.8332 0.8332 0.8332
3560.271136 0.8332 0.8331 0.8331 0.8331 0.8331
3555.331322 0.8331 0.8330 0.8328 0.8328 0.8328
3550.391508 0.8327 0.8325 0.8325 0.8324 0.8324
3545.451695 0.8323 0.8321 0.8321 0.8321 0.8320
3540.511881 0.8318 0.8318 0.8317 0.8317 0.8316
3535.572068 0.8315 0.8314 0.8313 0.8313 0.8312
3530.632254 0.8311 0.8310 0.8309 0.8308 0.8307
3525.692440 0.8306 0.8305 0.8305 0.8304 0.8303
3520.752627 0.8302 0.8301 0.8301 0.8300 0.8299
3515.812813 0.8298 0.8297 0.8297 0.8296 0.8295
3510.872999 0.8294 0.8293 0.8290 0.8288 0.8285
3505.933186 0.8282 0.8278 0.8275 0.8273 0.8270
3500.993372 0.8266 0.8263 0.8260 0.8256 0.8253
3496.053559 0.8250 0.8246 0.8242 0.8239 0.8235
3491.113745 0.8231 0.8228 0.8225 0.8222 0.8218
3486.173931 0.8215 0.8212 0.8208 0.8205 0.8202
3481.234118 0.8198 0.8195 0.8191 0.8188 0.8185
3476.294304 0.8181 0.8174 0.8164 0.8153 0.8142
3471.354490 0.8132 0.8121 0.8111 0.8100 0.8089
3466.414677 0.8079 0.8068 0.8057 0.8046 0.8035
3461.474863 0.8025 0.8014 0.8002 0.7991 0.7980
3456.535050 0.7967 0.7952 0.7935 0.7918 0.7901
3451.595236 0.7880 0.7852 0.7824 0.7795 0.7767
3446.655422 0.7737 0.7708 0.7679 0.7651 0.7622
3441.715609 0.7593 0.7562 0.7532 0.7501 0.7464
3436.775795 0.7407 0.7336 0.7265 0.7194 0.7105
3431.835981 0.6980 0.6839 0.6699 0.6560 0.6465
3426.896168 0.6428 0.6401 0.6373 0.6347 0.6325
3421.956354 0.6307 0.6290 0.6271 0.6253 0.6236
3417.016541 0.6218 0.6201 0.6183 0.6165 0.6147
3412.076727 0.6129 0.6112 0.6094 0.6073 0.6050
3407.136913 0.6026 0.6002 0.5977 0.5946 0.5912
3402.197100 0.5878 0.5844 0.5808 0.5766 0.5721
3397.257286 0.5676 0.5632 0.5587 0.5542 0.5497
3392.317472 0.5452 0.5407 0.5363 0.5317 0.5272
3387.377659 0.5226 0.5181 0.5136 0.5091 0.5046
3382.437845 0.5001 0.4957 0.4911 0.4865 0.4820
3377.498032 0.4774 0.4729 0.4684 0.4638 0.4593
3372.558218 0.4548 0.4502 0.4456 0.4411 0.4365
3367.618404 0.4320 0.4274 0.4228 0.4183 0.4138
3362.678591 0.4091 0.4045 0.3999 0.3954 0.3908
3357.738777 0.3862 0.3816 0.3769 0.3725 0.3679
3352.798963 0.3632 0.3586 0.3540 0.3494 0.3448
3347.859150 0.3401 0.3355 0.3310 0.3264 0.3217
3342.919336 0.3170 0.3124 0.3078 0.3032 0.2985
3337.979522 0.2938 0.2893 0.2846 0.2800 0.2753
3333.039709 0.2707 0.2660 0.2614 0.2567 0.2520
3328.099895 0.2473 0.2427 0.2380 0.2333 0.2285
3323.160082 0.2249 0.2246 0.2244 0.2241 0.2238
3318.220268 0.2238 0.2238 0.2238 0.2238 0.2238
3313.280454 0.2238 0.2238 0.2238 0.2237 0.2237
3308.340641 0.2237 0.2235 0.2235 0.2234 0.2234
3303.400827 0.2234 0.2234 0.2255 0.2466 0.2699
3298.461013 0.2933 0.3171 0.3439 0.3738 0.4036
3293.521200 0.4334 0.4610 0.4781 0.4952 0.5124
3288.581386 0.5278 0.5329 0.5330 0.5330 0.5331
3283.641573 0.5332 0.5333 0.5334 0.5335 0.5336
3278.701759 0.5338 0.5339 0.5340 0.5341 0.5335
3273.761945 0.5323 0.5312 0.5300 0.5287 0.5269
3268.822132 0.5251 0.5234 0.5215 0.5197 0.5179
3263.882318 0.5161 0.5143 0.5125 0.5107 0.5089
3258.942504 0.5071 0.5053 0.5035 0.5017 0.4999
3254.002691 0.4980 0.4962 0.4944 0.4926 0.4908
3249.062877 0.4890 0.4871 0.4853 0.4836 0.4822
3244.123064 0.4811 0.4802 0.4792 0.4793 0.4813
3239.183250 0.4833 0.4854 0.4927 0.5108 0.5324
3234.243436 0.5539 0.5717 0.5788 0.5788 0.5788
3229.303623 0.5788 0.5789 0.5789 0.5789 0.5789
3224.363809 0.5789 0.5790 0.5790 0.5790 0.5790
3219.423995 0.5791 0.5791 0.5791 0.5788 0.5780
3214.484182 0.5768 0.5758 0.5747 0.5735 0.5723
3209.544368 0.5710 0.5698 0.5685 0.5673 0.5661
3204.604555 0.5649 0.5637 0.5624 0.5612 0.5600
3199.664741 0.5587 0.5575 0.5562 0.5549 0.5537
3194.724927 0.5525 0.5512 0.5500 0.5488 0.5475
3189.785114 0.5463 0.5449 0.5437 0.5425 0.5412
3184.845300 0.5400 0.5387 0.5375 0.5363 0.5350
3179.905486 0.5338 0.5325 0.5313 0.5300 0.5287
3174.965673 0.5278 0.5271 0.5263 0.5256 0.5255
3170.025859 0.5256 0.5257 0.5258 0.5275 0.5302
3165.086046 0.5331 0.5360 0.5389 0.5419 0.5449
3160.146232 0.5479 0.5509 0.5539 0.5569 0.5598
3155.206418 0.5628 0.5658 0.5688 0.5719 0.5749
3150.266605 0.5780 0.5810 0.5840 0.5870 0.5900
3145.326791 0.5930 0.5960 0.5986 0.6006 0.6024
3140.386977 0.6055 0.6057 0.6056 0.6057 0.6058
3135.447164 0.6059 0.6060 0.6060 0.6060 0.6062
3130.507350 0.6062 0.6064 0.6065 0.6066 0.6067
3125.567537 0.6068 0.6069 0.6070 0.6070 0.6070
3120.627723 0.6070 0.6069 0.6069 0.6068 0.6068
3115.687909 0.6060 0.6050 0.6039 0.6027 0.5999
3110.748096 0.5964 0.5928 0.5892 0.5855 0.5819
3105.808282 0.5783 0.5747 0.5711 0.5675 0.5639
3100.868468 0.5602 0.5565 0.5529 0.5493 0.5457
3095.928655 0.5421 0.5384 0.5348 0.5311 0.5275
3090.988841 0.5238 0.5202 0.5166 0.5129 0.5092
3086.049027 0.5056 0.5018 0.4981 0.4945 0.4908
3081.109214 0.4872 0.4835 0.4799 0.4761 0.4724
3076.169400 0.4688 0.4651 0.4614 0.4578 0.4541
3071.229587 0.4504 0.4467 0.4430 0.4392 0.4355
3066.289773 0.4318 0.4281 0.4244 0.4207 0.4170
3061.349959 0.4133 0.4095 0.4057 0.4021 0.3984
3056.410146 0.3946 0.3908 0.3872 0.3834 0.3796
3051.470332 0.3757 0.3721 0.3684 0.3646 0.3609
3046.530518 0.3572 0.3534 0.3496 0.3458 0.3421
3041.590705 0.3383 0.3346 0.3308 0.3271 0.3233
3036.650891 0.3194 0.3156 0.3119 0.3080 0.3043
3031.711078 0.3005 0.2967 0.2929 0.2891 0.2853
3026.771264 0.2815 0.2777 0.2739 0.2701 0.2663
3021.831450 0.2625 0.2587 0.2548 0.2510 0.2472
3016.891637 0.2433 0.2395 0.2356 0.2318 0.2279
3011.951823 0.2241 0.2202 0.2164 0.2126 0.2087
3007.012009 0.2049 0.2010 0.1971 0.1933 0.1895
3002.072196 0.1856 0.1817 0.1777 0.1740 0.1701
2997.132382 0.1662 0.1622 0.1583 0.1545 0.1506
2992.192569 0.1467 0.1428 0.1389 0.1351 0.1312
2987.252755 0.1272 0.1233 0.1194 0.1155 0.1116
2982.312941 0.1077 0.1038 0.0998 0.0959 0.0919
2977.373128 0.0879 0.0840 0.0801 0.0762 0.0723
2972.433314 0.0683 0.0644 0.0604 0.0564 0.0525
2967.493500 0.0486 0.0446 0.0406 0.0367 0.0326
2962.553687 0.0287 0.0247 0.0207 0.0167 0.0128
2957.613873 0.0097 0.0088 0.0085 0.0081 0.0079
2952.674060 0.0077 0.0076 0.0075 0.0074 0.0073
2947.734246 0.0072 0.0071 0.0071 0.0070 0.0070
2942.794432 0.0069 0.0069 0.0068 0.0068 0.0070
2937.854619 0.0072 0.0074 0.0076 0.0078 0.0080
2932.914805 0.0082 0.0084 0.0086 0.0089 0.0091
2927.974991 0.0093 0.0095 0.0100 0.0108 0.0116
2923.035178 0.0123 0.0130 0.0138 0.0146 0.0154
2918.095364 0.0162 0.0169 0.0179 0.0192 0.0206
2913.155551 0.0220 0.0235 0.0250 0.0264 0.0278
2908.215737 0.0292 0.0306 0.0320 0.0334 0.0349
2903.275923 0.0364 0.0380 0.0398 0.0415 0.0432
2898.336110 0.0449 0.0465 0.0482 0.0498 0.0513
2893.396296 0.0528 0.0542 0.0556 0.0569 0.0583
2888.456482 0.0596 0.0610 0.0623 0.0633 0.0641
2883.516669 0.0649 0.0656 0.0664 0.0671 0.0679
2878.576855 0.0686 0.0694 0.0701 0.0709 0.0716
2873.637041 0.0724 0.0732 0.0740 0.0749 0.0757
2868.697228 0.0767 0.0776 0.0786 0.0795 0.0804
2863.757414 0.0812 0.0819 0.0826 0.0833 0.1049
2858.817601 0.2337 0.4240 0.6142 0.7054 0.7181
2853.877787 0.7212 0.7244 0.7279 0.7314 0.7350
2848.937973 0.7390 0.7430 0.7470 0.7508 0.7544
2843.998160 0.7582 0.7616 0.7649 0.7681 0.7711
2839.058346 0.7743 0.7775 0.7809 0.7856 0.7911
2834.118532 0.7966 0.7997 0.8014 0.8030 0.8046
2829.178719 0.8062 0.8077 0.8089 0.8092 0.8092
2824.238905 0.8093 0.8093 0.8093 0.8093 0.8093
2819.299092 0.8093 0.8093 0.8093 0.8093 0.8093
2814.359278 0.8093 0.8093 0.8093 0.8093 0.8093
2809.419464 0.8093 0.8094 0.8094 0.8094 0.8094
2804.479651 0.8095 0.8095 0.8095 0.8096 0.8096
2799.539837 0.8096 0.8097 0.8097 0.8097 0.8098
2794.600023 0.8098 0.8099 0.8100 0.8101 0.8103
2789.660210 0.8105 0.8106 0.8108 0.8110 0.8112
2784.720396 0.8114 0.8117 0.8118 0.8120 0.8123
2779.780583 0.8125 0.8126 0.8128 0.8131 0.8135
2774.840769 0.8140 0.8144 0.8149 0.8154 0.8157
2769.900955 0.8163 0.8167 0.8171 0.8177 0.8181
2764.961142 0.8186 0.8189 0.8192 0.8194 0.8195
2760.021328 0.8195 0.8195 0.8196 0.8196 0.8196
2755.081514 0.8197 0.8197 0.8197 0.8198 0.8198
2750.141701 0.8198 0.8199 0.8199 0.8199 0.8200
2745.201887 0.8200 0.8200 0.8202 0.8204 0.8206
2740.262074 0.8210 0.8213 0.8216 0.8218 0.8221
2735.322260 0.8224 0.8228 0.8231 0.8234 0.8237
2730.382446 0.8240 0.8243 0.8246 0.8249 0.8252
2725.442633 0.8255 0.8258 0.8261 0.8264 0.8267
2720.502819 0.8270 0.8273 0.8275 0.8278 0.8282
2715.563005 0.8285 0.8288 0.8291 0.8294 0.8297
2710.623192 0.8300 0.8304 0.8307 0.8310 0.8313
2705.683378 0.8316 0.8318 0.8321 0.8325 0.8328
2700.743565 0.8332 0.8335 0.8338 0.8341 0.8345
2695.803751 0.8348 0.8351 0.8355 0.8358 0.8362
2690.863937 0.8365 0.8368 0.8371 0.8375 0.8378
2685.924124 0.8382 0.8385 0.8389 0.8392 0.8396
2680.984310 0.8399 0.8403 0.8406 0.8409 0.8413
2676.044496 0.8416 0.8420 0.8423 0.8427 0.8430
2671.104683 0.8434 0.8437 0.8441 0.8444 0.8447
2666.164869 0.8451 0.8454 0.8458 0.8461 0.8465
2661.225055 0.8468 0.8471 0.8475 0.8478 0.8482
2656.285242 0.8486 0.8489 0.8493 0.8496 0.8500
2651.345428 0.8503 0.8507 0.8510 0.8514 0.8517
2646.405615 0.8520 0.8524 0.8527 0.8530 0.8534
2641.465801 0.8537 0.8541 0.8544 0.8547 0.8550
2636.525987 0.8553 0.8557 0.8560 0.8564 0.8567
2631.586174 0.8570 0.8574 0.8577 0.8581 0.8584
2626.646360 0.8587 0.8591 0.8594 0.8597 0.8600
2621.706546 0.8604 0.8607 0.8611 0.8614 0.8617
2616.766733 0.8621 0.8624 0.8627 0.8630 0.8634
2611.826919 0.8637 0.8640 0.8643 0.8647 0.8650
2606.887106 0.8653 0.8656 0.8659 0.8662 0.8665
2601.947292 0.8668 0.8671 0.8675 0.8678 0.8682
2597.007478 0.8685 0.8688 0.8692 0.8695 0.8698
2592.067665 0.8701 0.8704 0.8707 0.8710 0.8714
2587.127851 0.8717 0.8720 0.8724 0.8727 0.8730
2582.188037 0.8734 0.8737 0.8740 0.8744 0.8748
2577.248224 0.8752 0.8756 0.8760 0.8763 0.8767
2572.308410 0.8771 0.8774 0.8778 0.8783 0.8787
2567.368597 0.8790 0.8794 0.8798 0.8802 0.8805
2562.428783 0.8809 0.8813 0.8817 0.8821 0.8825
2557.488969 0.8828 0.8833 0.8837 0.8838 0.8840
2552.549156 0.8842 0.8844 0.8846 0.8848 0.8849
2547.609342 0.8851 0.8853 0.8855 0.8856 0.8858
2542.669528 0.8860 0.8862 0.8864 0.8866 0.8867
2537.729715 0.8868 0.8870 0.8871 0.8873 0.8873
2532.789901 0.8873 0.8874 0.8874 0.8874 0.8875
2527.850088 0.8875 0.8875 0.8875 0.8875 0.8875
2522.910274 0.8875 0.8877 0.8877 0.8877 0.8877
2517.970460 0.8877 0.8877 0.8878 0.8878 0.8878
2513.030647 0.8878 0.8878 0.8878 0.8878 0.8880
2508.090833 0.8880 0.8880 0.8881 0.8881 0.8881
2503.151019 0.8881 0.8881 0.8882 0.8882 0.8883
2498.211206 0.8883 0.8883 0.8883 0.8883 0.8884
2493.271392 0.8884 0.8884 0.8885 0.8885 0.8886
2488.331579 0.8886 0.8886 0.8887 0.8887 0.8888
2483.391765 0.8888 0.8888 0.8889 0.8889 0.8890
2478.451951 0.8890 0.8890 0.8891 0.8891 0.8892
2473.512138 0.8892 0.8893 0.8894 0.8894 0.8895
2468.572324 0.8895 0.8895 0.8896 0.8896 0.8897
2463.632510 0.8897 0.8897 0.8898 0.8898 0.8899
2458.692697 0.8899 0.8899 0.8900 0.8901 0.8902
2453.752883 0.8902 0.8902 0.8903 0.8903 0.8904
2448.813069 0.8904 0.8905 0.8905 0.8905 0.8906
2443.873256 0.8906 0.8907 0.8908 0.8908 0.8909
2438.933442 0.8909 0.8910 0.8910 0.8910 0.8911
2433.993629 0.8911 0.8912 0.8912 0.8913 0.8913
2429.053815 0.8913 0.8914 0.8914 0.8915 0.8916
2424.114001 0.8917 0.8917 0.8918 0.8918 0.8920
2419.174188 0.8921 0.8921 0.8921 0.8923 0.8924
2414.234374 0.8925 0.8925 0.8927 0.8928 0.8928
2409.294560 0.8928 0.8930 0.8931 0.8932 0.8933
2404.354747 0.8933 0.8934 0.8935 0.8936 0.8937
2399.414933 0.8938 0.8939 0.8939 0.8940 0.8941
2394.475120 0.8942 0.8943 0.8944 0.8945 0.8946
2389.535306 0.8946 0.8947 0.8948 0.8949 0.8950
2384.595492 0.8951 0.8952 0.8952 0.8953 0.8954
2379.655679 0.8955 0.8955 0.8956 0.8957 0.8958
2374.715865 0.8958 0.8959 0.8961 0.8962 0.8963
2369.776051 0.8964 0.8965 0.8966 0.8966 0.8967
2364.836238 0.8968 0.8968 0.8970 0.8971 0.8971
2359.896424 0.8973 0.8974 0.8975 0.8975 0.8977
2354.956611 0.8978 0.8978 0.8980 0.8981 0.8982
2350.016797 0.8983 0.8983 0.8985 0.8986 0.8987
2345.076983 0.8988 0.8989 0.8990 0.8991 0.8992
2340.137170 0.8993 0.8993 0.8994 0.8996 0.8997
2335.197356 0.8998 0.8999 0.9000 0.9001 0.9002
2330.257542 0.9003 0.9004 0.9004 0.9005 0.9007
2325.317729 0.9008 0.9009 0.9011 0.9012 0.9014
2320.377915 0.9016 0.9017 0.9018 0.9020 0.9021
2315.438102 0.9023 0.9024 0.9025 0.9027 0.9028
2310.498288 0.9030 0.9031 0.9032 0.9034 0.9035
2305.558474 0.9037 0.9038 0.9039 0.9041 0.9042
2300.618661 0.9044 0.9045 0.9046 0.9048 0.9049
2295.678847 0.9051 0.9052 0.9053 0.9055 0.9057
2290.739033 0.9059 0.9060 0.9062 0.9063 0.9064
2285.799220 0.9066 0.9067 0.9068 0.9070 0.9071
2280.859406 0.9073 0.9074 0.9075 0.9077 0.9078
2275.919593 0.9081 0.9082 0.9084 0.9086 0.9088
2270.979779 0.9090 0.9092 0.9094 0.9096 0.9097
2266.039965 0.9099 0.9101 0.9102 0.9104 0.9106
2261.100152 0.9108 0.9110 0.9112 0.9114 0.9116
2256.160338 0.9118 0.9118 0.9121 0.9123 0.9125
2251.220524 0.9125 0.9128 0.9130 0.9132 0.9134
2246.280711 0.9136 0.9137 0.9139 0.9141 0.9143
2241.340897 0.9145 0.9147 0.9149 0.9151 0.9153
2236.401083 0.9154 0.9156 0.9157 0.9159 0.9160
2231.461270 0.9162 0.9163 0.9165 0.9166 0.9168
2226.521456 0.9168 0.9171 0.9171 0.9174 0.9175
2221.581643 0.9177 0.9178 0.9180 0.9181 0.9183
2216.641829 0.9184 0.9186 0.9187 0.9189 0.9190
2211.702015 0.9192 0.9193 0.9195 0.9196 0.9197
2206.762202 0.9198 0.9200 0.9201 0.9202 0.9203
2201.822388 0.9204 0.9206 0.9207 0.9208 0.9209
2196.882574 0.9210 0.9211 0.9213 0.9214 0.9215
2191.942761 0.9216 0.9217 0.9218 0.9220 0.9221
2187.002947 0.9221 0.9223 0.9224 0.9225 0.9227
2182.063134 0.9228 0.9228 0.9231 0.9232 0.9233
2177.123320 0.9235 0.9236 0.9237 0.9238 0.9239
2172.183506 0.9241 0.9242 0.9243 0.9244 0.9246
2167.243693 0.9247 0.9248 0.9249 0.9250 0.9252
2162.303879 0.9253 0.9254 0.9256 0.9257 0.9258
2157.364065 0.9259 0.9260 0.9260 0.9261 0.9262
2152.424252 0.9263 0.9263 0.9264 0.9264 0.9265
2147.484438 0.9266 0.9267 0.9268 0.9268 0.9270
2142.544625 0.9270 0.9271 0.9271 0.9271 0.9273
2137.604811 0.9274 0.9274 0.9275 0.9275 0.9277
2132.664997 0.9278 0.9278 0.9278 0.9280 0.9281
2127.725184 0.9281 0.9282 0.9283 0.9284 0.9284
2122.785370 0.9285 0.9286 0.9287 0.9288 0.9288
2117.845556 0.9289 0.9289 0.9290 0.9291 0.9292
2112.905743 0.9293 0.9294 0.9295 0.9295 0.9296
2107.965929 0.9296 0.9297 0.9298 0.9299 0.9300
2103.026116 0.9301 0.9302 0.9302 0.9303 0.9303
2098.086302 0.9304 0.9304 0.9305 0.9306 0.9306
2093.146488 0.9307 0.9308 0.9309 0.9309 0.9310
2088.206675 0.9311 0.9311 0.9312 0.9312 0.9313
2083.266861 0.9313 0.9314 0.9315 0.9315 0.9316
2078.327047 0.9316 0.9317 0.9318 0.9318 0.9320
2073.387234 0.9320 0.9321 0.9321 0.9321 0.9321
2068.447420 0.9323 0.9324 0.9324 0.9325 0.9325
2063.507607 0.9325 0.9327 0.9328 0.9328 0.9328
2058.567793 0.9330 0.9330 0.9331 0.9332 0.9332
2053.627979 0.9333 0.9333 0.9334 0.9335 0.9335
2048.688166 0.9336 0.9337 0.9338 0.9338 0.9339
2043.748352 0.9340 0.9340 0.9340 0.9340 0.9341
2038.808538 0.9342 0.9342 0.9343 0.9343 0.9343
2033.868725 0.9344 0.9344 0.9345 0.9345 0.9346
2028.928911 0.9346 0.9346 0.9347 0.9347 0.9348
2023.989097 0.9349 0.9349 0.9349 0.9349 0.9350
2019.049284 0.9351 0.9351 0.9352 0.9352 0.9352
2014.109470 0.9353 0.9353 0.9354 0.9355 0.9355
2009.169657 0.9355 0.9355 0.9356 0.9357 0.9357
2004.229843 0.9358 0.9358 0.9358 0.9359 0.9359
1999.290029 0.9360 0.9360 0.9360 0.9361 0.9361
1994.350216 0.9361 0.9362 0.9362 0.9362 0.9363
1989.410402 0.9363 0.9364 0.9364 0.9364 0.9365
1984.470588 0.9365 0.9365 0.9366 0.9366 0.9366
1979.530775 0.9366 0.9367 0.9368 0.9368 0.9368
1974.590961 0.9368 0.9368 0.9368 0.9368 0.9369
1969.651148 0.9371 0.9371 0.9371 0.9372 0.9373
1964.711334 0.9373 0.9374 0.9374 0.9375 0.9375
1959.771520 0.9375 0.9376 0.9377 0.9378 0.9378
1954.831707 0.9378 0.9379 0.9381 0.9381 0.9382
1949.891893 0.9382 0.9380 0.9374 0.9368 0.9362
1944.952079 0.9357 0.9351 0.9344 0.9335 0.9322
1940.012266 0.9308 0.9294 0.9280 0.9266 0.9254
1935.072452 0.9243 0.9233 0.9223 0.9213 0.9204
1930.132639 0.9197 0.9192 0.9189 0.9185 0.9182
1925.192825 0.9179 0.9177 0.9178 0.9179 0.9181
1920.253011 0.9183 0.9189 0.9201 0.9218 0.9235
1915.313198 0.9250 0.9264 0.9278 0.9292 0.9302
1910.373384 0.9309 0.9314 0.9319 0.9323 0.9327
1905.433570 0.9332 0.9337 0.9341 0.9346 0.9351
1900.493757 0.9354 0.9357 0.9359 0.9361 0.9363
1895.553943 0.9365 0.9367 0.9369 0.9370 0.9372
1890.614130 0.9374 0.9376 0.9379 0.9381 0.9382
1885.674316 0.9384 0.9386 0.9387 0.9388 0.9388
1880.734502 0.9388 0.9388 0.9388 0.9388 0.9388
1875.794689 0.9388 0.9388 0.9389 0.9389 0.9389
1870.854875 0.9389 0.9389 0.9389 0.9389 0.9389
1865.915061 0.9389 0.9388 0.9388 0.9386 0.9385
1860.975248 0.9384 0.9383 0.9381 0.9379 0.9378
1856.035434 0.9377 0.9375 0.9375 0.9374 0.9372
1851.095621 0.9371 0.9369 0.9368 0.9368 0.9366
1846.155807 0.9365 0.9363 0.9362 0.9360 0.9358
1841.215993 0.9356 0.9355 0.9353 0.9351 0.9349
1836.276180 0.9347 0.9345 0.9344 0.9342 0.9340
1831.336366 0.9338 0.9337 0.9335 0.9333 0.9330
1826.396552 0.9328 0.9327 0.9325 0.9323 0.9320
1821.456739 0.9318 0.9317 0.9315 0.9313 0.9311
1816.516925 0.9308 0.9305 0.9303 0.9301 0.9299
1811.577111 0.9296 0.9294 0.9291 0.9289 0.9286
1806.637298 0.9284 0.9282 0.9280 0.9277 0.9275
1801.697484 0.9273 0.9270 0.9267 0.9265 0.9263
1796.757671 0.9261 0.9260 0.9258 0.9257 0.9255
1791.817857 0.9254 0.9252 0.9251 0.9250 0.9249
1786.878043 0.9247 0.9245 0.9244 0.9242 0.9241
1781.938230 0.9239 0.9238 0.9238 0.9238 0.9237
1776.998416 0.9236 0.9236 0.9235 0.9235 0.9235
1772.058602 0.9234 0.9234 0.9234 0.9238 0.9242
1767.118789 0.9246 0.9252 0.9259 0.9266 0.9273
1762.178975 0.9278 0.9287 0.9295 0.9303 0.9311
1757.239162 0.9318 0.9325 0.9334 0.9341 0.9349
1752.299348 0.9357 0.9364 0.9370 0.9370 0.9388
1747.359534 0.9373 0.9374 0.9374 0.9367 0.9354
1742.419721 0.9339 0.9325 0.9311 0.9298 0.9287
1737.479907 0.9276 0.9265 0.9253 0.9241 0.9222
1732.540093 0.9193 0.9164 0.9135 0.9105 0.9067
1727.600280 0.8998 0.8925 0.8843 0.8745 0.8631
1722.660466 0.8519 0.8439 0.8367 0.8296 0.8224
1717.720653 0.8141 0.8033 0.7919 0.7596 0.7402
1712.780839 0.7287 0.7160 0.6986 0.6773 0.6553
1707.841025 0.6332 0.6111 0.5890 0.5668 0.5447
1702.901212 0.5225 0.5002 0.4779 0.4555 0.4333
1697.961398 0.4111 0.3887 0.3663 0.3438 0.3214
1693.021584 0.2989 0.2764 0.2539 0.2313 0.2087
1688.081771 0.1862 0.1636 0.1409 0.1249 0.1243
1683.141957 0.1326 0.2117 0.2040 0.2127 0.2311
1678.202144 0.2372 0.2379 0.2362 0.2288 0.2137
1673.262330 0.1963 0.1787 0.1612 0.1438 0.1262
1668.322516 0.1086 0.0910 0.0734 0.0506 0.0400
1663.382703 0.0387 0.0387 0.0520 0.0913 0.1454
1658.442889 0.2022 0.2590 0.3159 0.3729 0.4300
1653.503075 0.4871 0.5473 0.5695 0.5687 0.5685
1648.563262 0.5661 0.5572 0.5414 0.5232 0.5050
1643.623448 0.4868 0.4686 0.4504 0.4321 0.4139
1638.683635 0.3956 0.3773 0.3589 0.3405 0.3222
1633.743821 0.3038 0.2854 0.2668 0.2484 0.2300
1628.804007 0.2115 0.1930 0.1745 0.1559 0.1373
1623.864194 0.1186 0.1000 0.0856 0.0804 0.0803
1618.924380 0.0805 0.0860 0.0990 0.1146 0.1302
1613.984566 0.1459 0.1615 0.1771 0.1928 0.2085
1609.044753 0.2242 0.2400 0.2558 0.2689 0.2744
1604.104939 0.2736 0.2719 0.2704 0.2864 0.3362
1599.165126 0.4016 0.4692 0.5437 0.6127 0.6433
1594.225312 0.6497 0.6544 0.6574 0.6596 0.6611
1589.285498 0.6630 0.6645 0.6638 0.6634 0.6604
1584.345685 0.6553 0.6503 0.6452 0.6402 0.6351
1579.405871 0.6301 0.6250 0.6197 0.6119 0.5937
1574.466057 0.5635 0.5334 0.5032 0.4730 0.4427
1569.526244 0.4124 0.3821 0.3517 0.3213 0.2908
1564.586430 0.2602 0.2298 0.1992 0.1686 0.1379
1559.646616 0.1078 0.0828 0.0714 0.0700 0.0692
1554.706803 0.0675 0.0638 0.0698 0.0788 0.1256
1549.766989 0.2040 0.2854 0.3386 0.3371 0.3303
1544.827176 0.3223 0.3141 0.3061 0.2980 0.2899
1539.887362 0.2818 0.2736 0.2656 0.2592 0.2573
1534.947548 0.2575 0.2620 0.2785 0.2944 0.3104
1530.007735 0.3264 0.3424 0.3583 0.3744 0.3898
1525.067921 0.3991 0.4003 0.3997 0.3949 0.3797
1520.128107 0.3646 0.3495 0.3342 0.3189 0.3037
1515.188294 0.2883 0.2727 0.2490 0.2491 0.2482
1510.248480 0.2483 0.2542 0.2706 0.2871 0.3037
1505.308667 0.3204 0.3370 0.3536 0.3704 0.3870
1500.368853 0.4035 0.4171 0.4139 0.4143 0.4124
1495.429039 0.4046 0.3945 0.3839 0.3738 0.3634
1490.489226 0.3530 0.3425 0.3322 0.3217 0.3114
1485.549412 0.3009 0.2904 0.2799 0.2695 0.2589
1480.609598 0.2485 0.2379 0.2274 0.2168 0.2063
1475.669785 0.1956 0.1850 0.1744 0.1654 0.1616
1470.729971 0.1610 0.1614 0.1621 0.1628 0.1640
1465.790158 0.1666 0.1698 0.1766 0.1870 0.1971
1460.850344 0.2065 0.2148 0.2224 0.2293 0.2381
1455.910530 0.2532 0.2699 0.2868 0.3036 0.3205
1450.970717 0.3373 0.3542 0.3711 0.3881 0.4051
1446.030903 0.4221 0.4391 0.4561 0.4732 0.4903
1441.091089 0.5074 0.5246 0.5418 0.5590 0.5762
1436.151276 0.5935 0.6107 0.6272 0.6396 0.6469
1431.211462 0.6524 0.6567 0.6602 0.6633 0.6651
1426.271649 0.6661 0.6667 0.6668 0.6663 0.6658
1421.331835 0.6640 0.6603 0.6553 0.6490 0.6412
1416.392021 0.6269 0.6085 0.5895 0.5698 0.5499
1411.452208 0.5301 0.5103 0.4904 0.4705 0.4505
1406.512394 0.4305 0.4106 0.3906 0.3706 0.3505
1401.572580 0.3304 0.3102 0.2901 0.2699 0.2497
1396.632767 0.2294 0.2091 0.1909 0.1814 0.1794
1391.692953 0.1775 0.1757 0.1742 0.1730 0.1722
1386.753140 0.1715 0.1712 0.1717 0.1736 0.1805
1381.813326 0.1998 0.2289 0.2580 0.2870 0.3161
1376.873512 0.3453 0.3745 0.4038 0.4291 0.4408
1371.933699 0.4404 0.4403 0.4484 0.4822 0.5348
1366.993885 0.5875 0.6404 0.6799 0.6878 0.6907
1362.054071 0.6928 0.6946 0.6959 0.6965 0.6955
1357.114258 0.6943 0.6930 0.6907 0.6858 0.6779
1352.174444 0.6668 0.6557 0.6402 0.6214 0.6026
1347.234630 0.5838 0.5649 0.5460 0.5270 0.5081
1342.294817 0.4891 0.4701 0.4511 0.4325 0.4177
1337.355003 0.4144 0.4212 0.4319 0.4423 0.4486
1332.415190 0.4481 0.4421 0.4266 0.4110 0.3960
1327.475376 0.3870 0.3877 0.4049 0.4476 0.4935
1322.535562 0.5396 0.5856 0.6318 0.6779 0.7232
1317.595749 0.7495 0.7558 0.7620 0.7679 0.7719
1312.655935 0.7743 0.7757 0.7764 0.7769 0.7771
1307.716121 0.7563 0.7309 0.7052 0.6796 0.6539
1302.776308 0.6282 0.6025 0.5767 0.5508 0.5249
1297.836494 0.4990 0.4757 0.4747 0.4859 0.5213
1292.896681 0.5607 0.6004 0.6401 0.6799 0.7195
1287.956867 0.7348 0.7398 0.7326 0.7288 0.7241
1283.017053 0.7184 0.7042 0.6741 0.6412 0.6083
1278.077240 0.5753 0.5423 0.5093 0.4762 0.4430
1273.137426 0.4098 0.3766 0.3480 0.3375 0.3377
1268.197612 0.3403 0.3478 0.3942 0.4539 0.5142
1263.257799 0.5746 0.6350 0.6829 0.7086 0.7248
1258.317985 0.7395 0.7525 0.7651 0.7774 0.7897
1253.378172 0.8016 0.8123 0.8207 0.8258 0.8290
1248.438358 0.8316 0.8342 0.8369 0.8394 0.8417
1243.498544 0.8439 0.8460 0.8481 0.8503 0.8525
1238.558731 0.8545 0.8566 0.8587 0.8607 0.8627
1233.618917 0.8647 0.8667 0.8687 0.8707 0.8728
1228.679103 0.8750 0.8772 0.8794 0.8815 0.8835
1223.739290 0.8856 0.8872 0.8881 0.8888 0.8894
1218.799476 0.8886 0.8883 0.8891 0.8877 0.8853
1213.859663 0.8821 0.8775 0.8705 0.8616 0.8529
1208.919849 0.8442 0.8343 0.8273 0.8277 0.8307
1203.980035 0.8374 0.8446 0.8514 0.8565 0.8564
1199.040222 0.8511 0.8467 0.8423 0.8378 0.8345
1194.100408 0.8347 0.8399 0.8500 0.8605 0.8710
1189.160594 0.8816 0.8912 0.8980 0.9017 0.9036
1184.220781 0.9047 0.9047 0.9046 0.9043 0.9035
1179.280967 0.9026 0.9016 0.9010 0.9006 0.9003
1174.341154 0.8998 0.8994 0.8991 0.8990 0.8996
1169.401340 0.9004 0.9013 0.9023 0.9038 0.9054
1164.461526 0.9070 0.9082 0.9089 0.9095 0.9103
1159.521713 0.9109 0.9116 0.9122 0.9129 0.9138
1154.581899 0.9148 0.9183 0.9156 0.9159 0.9161
1149.642085 0.9155 0.9147 0.9138 0.9097 0.9046
1144.702272 0.8960 0.8809 0.8508 0.8195 0.7879
1139.762458 0.7566 0.7437 0.7408 0.7581 0.7815
1134.822644 0.8053 0.8291 0.8530 0.8768 0.8967
1129.882831 0.9083 0.9159 0.9225 0.9270 0.9304
1124.943017 0.9326 0.9340 0.9352 0.9365 0.9376
1120.003204 0.9383 0.9391 0.9399 0.9407 0.9415
1115.063390 0.9422 0.9429 0.9434 0.9438 0.9442
1110.123576 0.9446 0.9450 0.9452 0.9452 0.9451
1105.183763 0.9451 0.9451 0.9450 0.9449 0.9446
1100.243949 0.9441 0.9435 0.9430 0.9425 0.9420
1095.304135 0.9411 0.9400 0.9387 0.9374 0.9355
1090.364322 0.9330 0.9305 0.9276 0.9245 0.9201
1085.424508 0.9131 0.9003 0.8826 0.8636 0.8446
1080.484695 0.8320 0.8281 0.8368 0.8561 0.8778
1075.544881 0.8967 0.9084 0.9136 0.9163 0.9183
1070.605067 0.9191 0.9195 0.9198 0.9192 0.9184
1065.665254 0.9176 0.9165 0.9153 0.9139 0.9126
1060.725440 0.9112 0.9098 0.9084 0.9067 0.9041
1055.785626 0.9007 0.8962 0.8905 0.8843 0.8780
1050.845813 0.8717 0.8650 0.8565 0.8454 0.8326
1045.905999 0.8148 0.7925 0.7748 0.7594 0.7451
1040.966186 0.7315 0.7187 0.7109 0.7071 0.7051
1036.026372 0.7040 0.7035 0.7035 0.7038 0.7052
1031.086558 0.7091 0.7169 0.7263 0.7427 0.7676
1026.146745 0.7936 0.8176 0.8328 0.8456 0.8574
1021.206931 0.8661 0.8716 0.8751 0.8764 0.8776
1016.267117 0.8741 0.8689 0.8586 0.8427 0.8289
1011.327304 0.8162 0.8001 0.7850 0.7719 0.7504
1006.387490 0.7356 0.7326 0.7343 0.7411 0.7528
1001.447677 0.7663 0.7800 0.7962 0.8135 0.8260
996.507863 0.8364 0.8468 0.8572 0.8666 0.8756
991.568049 0.8830 0.8878 0.8915 0.8948 0.8963
986.628236 0.8968 0.8971 0.8991 0.8977 0.8968
981.688422 0.8947 0.8908 0.8860 0.8789 0.8729
976.748608 0.8680 0.8626 0.8583 0.8547 0.8549
971.808795 0.8628 0.8727 0.8803 0.8872 0.8942
966.868981 0.9009 0.9070 0.9129 0.9177 0.9213
961.929168 0.9247 0.9270 0.9284 0.9295 0.9301
956.989354 0.9303 0.9297 0.9283 0.9268 0.9254
952.049540 0.9250 0.9250 0.9262 0.9280 0.9290
947.109727 0.9295 0.9300 0.9306 0.9312 0.9319
942.169913 0.9325 0.9329 0.9332 0.9349 0.9342
937.230099 0.9324 0.9317 0.9305 0.9281 0.9230
932.290286 0.9154 0.9068 0.8975 0.8873 0.8762
927.350472 0.8636 0.8538 0.8507 0.8507 0.8540
922.410658 0.8613 0.8684 0.8755 0.8831 0.8917
917.470845 0.9008 0.9092 0.9168 0.9242 0.9306
912.531031 0.9357 0.9398 0.9421 0.9436 0.9445
907.591218 0.9453 0.9458 0.9463 0.9467 0.9471
902.651404 0.9474 0.9475 0.9475 0.9475 0.9475
897.711590 0.9475 0.9474 0.9469 0.9467 0.9462
892.771777 0.9458 0.9453 0.9447 0.9441 0.9432
887.831963 0.9422 0.9412 0.9401 0.9376 0.9342
882.892149 0.9298 0.9219 0.9119 0.8955 0.8628
877.952336 0.8270 0.7916 0.7135 0.6325 0.5516
873.012522 0.4797 0.4768 0.4813 0.4886 0.4989
868.072709 0.5285 0.5927 0.6570 0.7215 0.7860
863.132895 0.8490 0.8765 0.8923 0.9051 0.9150
858.193081 0.9234 0.9287 0.9334 0.9369 0.9393
853.253268 0.9418 0.9436 0.9451 0.9464 0.9477
848.313454 0.9485 0.9489 0.9494 0.9498 0.9490
843.373640 0.9493 0.9491 0.9488 0.9482 0.9476
838.433827 0.9469 0.9464 0.9450 0.9431 0.9399
833.494013 0.9321 0.9198 0.8991 0.8721 0.8435
828.554200 0.7939 0.7365 0.6960 0.6844 0.6456
823.614386 0.5887 0.5308 0.4626 0.4384 0.4793
818.674572 0.5458 0.6147 0.6839 0.7532 0.8131
813.734759 0.8475 0.8661 0.8833 0.8999 0.9125
808.794945 0.9205 0.9263 0.9308 0.9337 0.9356
803.855131 0.9366 0.9378 0.9384 0.9381 0.9378
798.915318 0.9371 0.9365 0.9358 0.9351 0.9340
793.975504 0.9323 0.9304 0.9286 0.9268 0.9247
789.035691 0.9215 0.9174 0.9121 0.9045 0.8945
784.095877 0.8814 0.8656 0.8479 0.8286 0.8092
779.156063 0.7926 0.7835 0.7825 0.7859 0.7987
774.216250 0.8143 0.8254 0.8328 0.8362 0.8327
769.276436 0.8277 0.8222 0.8150 0.8066 0.7966
764.336622 0.7860 0.7737 0.7586 0.7393 0.7161
759.396809 0.6874 0.6567 0.6339 0.6117 0.5964
754.456995 0.5802 0.5638 0.5474 0.5310 0.5153
749.517182 0.5023 0.5017 0.5030 0.5074 0.5186
744.577368 0.5319 0.5467 0.5670 0.5892 0.6112
739.637554 0.6336 0.6557 0.6782 0.7007 0.7232
734.697741 0.7490 0.7505 0.7487 0.7297 0.6714
729.757927 0.6420 0.6334 0.6354 0.6448 0.6561
724.818113 0.6688 0.6818 0.6943 0.7067 0.7193
719.878300 0.7338 0.7484 0.7623 0.7760 0.7900
714.938486 0.8040 0.8181 0.8315 0.8447 0.8579
709.998672 0.8688 0.8787 0.8882 0.8969 0.9053
705.058859 0.9127 0.9190 0.9249 0.9306 0.9350
700.119045 0.9388 0.9419 0.9443 0.9468 0.9495
695.179232 0.9517 0.9538 0.9559 0.9578 0.9593
690.239418 0.9600 0.9601 0.9593 0.9563 0.9533
685.299604 0.9517 0.9502 0.9487 0.9477 0.9490
680.359791 0.9523 0.9553 0.9579 0.9596 0.9600
675.419977 0.9601 0.9603 0.9601 0.9594 0.9588
670.480163 0.9584 0.9587 0.9601 0.9638 0.9682
665.540350 0.9717 0.9717 0.9683 0.9642 0.9610
660.600536 0.9598 0.9592 0.9577 0.9561 0.9539
655.660723 0.9523 0.9506 0.9492 0.9480 0.9469
650.720909 0.9460 0.9455 0.9454 0.9453 0.9453
645.781095 0.9453 0.9453 0.9453 0.9453 0.9453
640.841282 0.9453 0.9453 0.9454 0.9454 0.9455
635.901468 0.9456 0.9460 0.9475 0.9489 0.9500
630.961654 0.9502 0.9504 0.9498 0.9493 0.9492
##END=
