##TITLE=Butyramide, 2,2,3,3,4,4,4-heptafluoro-,
##JCAMP-DX=4.24
##DATA TYPE=INFRARED SPECTRUM
##CLASS=COBLENTZ III
##ORIGIN=WYANDOTTE CHEMICALS CORP.
##OWNER=Copyright (C) 1987 by the Coblentz Society
Collection (C) 2018 copyright by the U.S. Secretary of Commerce
on behalf of the United States of America. All rights reserved.
##DATE=Not specified, most likely prior to 1970
##MOLFORM=C3 H2 F7 N O
##SOURCE REFERENCE=COBLENTZ NO. 5860
##$NIST ID=B6005860
##$NIST SOURCE=COBLENTZ
##$NIST IMAGE=cob5860
##SPECTROMETER/DATA SYSTEM=BAIRD (GRATING)
##INSTRUMENT PARAMETERS=NaCl PRISM
##STATE=SOLID (OIL MULL)
##PATH LENGTH=CAPILLARY
$$SPECTRAL CONTAMINATION DUE TO OIL AROUND 1470 AND 2900 CM^-^1
##RESOLUTION=2
##XUNITS=1/CM
##YUNITS=TRANSMITTANCE
##XFACTOR=1.0
##YFACTOR=1
##FIRSTX=626
##LASTX=4000
##FIRSTY=0.5773
##MAXX=4000
##MINX=626
##MAXY=0.9289
##MINY=0.0373
##NPOINTS=3375
##XYDATA=(X++(Y..Y))
626.000000 0.5773 0.5726 0.5691 0.5657 0.5618
631.000000 0.5576 0.5530 0.5484 0.5428 0.5406
636.000000 0.5393 0.5317 0.5234 0.5200 0.5181
641.000000 0.5230 0.5201 0.5218 0.5237 0.5254
646.000000 0.5299 0.5346 0.5392 0.5442 0.5501
651.000000 0.5559 0.5620 0.5694 0.5767 0.5852
656.000000 0.5954 0.6053 0.6158 0.6264 0.6308
661.000000 0.6325 0.6332 0.6375 0.6350 0.6364
666.000000 0.6382 0.6405 0.6431 0.6439 0.6382
671.000000 0.6195 0.6029 0.5865 0.5711 0.5668
676.000000 0.5801 0.6095 0.6396 0.6696 0.7002
681.000000 0.7262 0.7497 0.7628 0.7720 0.7817
686.000000 0.7969 0.8038 0.8075 0.8128 0.8213
691.000000 0.8282 0.8317 0.8335 0.8374 0.8412
696.000000 0.8448 0.8472 0.8487 0.8491 0.8494
701.000000 0.8514 0.8499 0.8495 0.8491 0.8487
706.000000 0.8470 0.8454 0.8437 0.8414 0.8376
711.000000 0.8337 0.8293 0.8241 0.8182 0.8112
716.000000 0.8041 0.7941 0.7841 0.7753 0.7734
721.000000 0.7714 0.7729 0.7747 0.7768 0.7789
726.000000 0.7800 0.7764 0.7712 0.7653 0.7585
731.000000 0.7511 0.7434 0.7320 0.7185 0.7040
736.000000 0.6834 0.6589 0.6347 0.6105 0.5863
741.000000 0.5622 0.5382 0.5142 0.4903 0.4648
746.000000 0.4510 0.4472 0.4443 0.4519 0.4593
751.000000 0.4774 0.5067 0.5357 0.5647 0.5935
756.000000 0.6198 0.6383 0.6483 0.6506 0.6525
761.000000 0.6612 0.6920 0.7222 0.7471 0.7884
766.000000 0.8029 0.8076 0.8075 0.8118 0.8035
771.000000 0.7996 0.7946 0.7867 0.7773 0.7675
776.000000 0.7588 0.7390 0.7153 0.6918 0.6684
781.000000 0.6450 0.6216 0.5983 0.5751 0.5519
786.000000 0.5287 0.5104 0.5017 0.4968 0.4961
791.000000 0.5027 0.5127 0.5245 0.5368 0.5479
796.000000 0.5598 0.5720 0.5842 0.5969 0.6101
801.000000 0.6236 0.6381 0.6521 0.6652 0.6788
806.000000 0.6952 0.7066 0.7165 0.7248 0.7289
811.000000 0.7322 0.7353 0.7382 0.7411 0.7443
816.000000 0.7475 0.7520 0.7565 0.7619 0.7701
821.000000 0.7782 0.7896 0.8020 0.8134 0.8242
826.000000 0.8338 0.8434 0.8520 0.8603 0.8681
831.000000 0.8759 0.8821 0.8865 0.8909 0.8948
836.000000 0.8977 0.9006 0.9034 0.9057 0.9077
841.000000 0.9098 0.9118 0.9129 0.9139 0.9149
846.000000 0.9159 0.9167 0.9171 0.9176 0.9180
851.000000 0.9185 0.9189 0.9194 0.9198 0.9200
856.000000 0.9202 0.9203 0.9205 0.9206 0.9208
861.000000 0.9211 0.9213 0.9217 0.9239 0.9222
866.000000 0.9226 0.9232 0.9238 0.9244 0.9250
871.000000 0.9257 0.9268 0.9278 0.9289 0.9287
876.000000 0.9274 0.9262 0.9251 0.9243 0.9236
881.000000 0.9230 0.9234 0.9244 0.9254 0.9262
886.000000 0.9263 0.9251 0.9215 0.9164 0.9135
891.000000 0.9119 0.9117 0.9114 0.9115 0.9117
896.000000 0.9111 0.9092 0.9067 0.9039 0.8994
901.000000 0.8940 0.8878 0.8813 0.8742 0.8663
906.000000 0.8558 0.8455 0.8341 0.8221 0.8093
911.000000 0.7915 0.7727 0.7531 0.7329 0.7118
916.000000 0.6740 0.6316 0.5629 0.4944 0.4260
921.000000 0.3578 0.2904 0.2127 0.1896 0.1782
926.000000 0.1754 0.1733 0.1853 0.2149 0.2735
931.000000 0.3318 0.3901 0.4483 0.5045 0.5336
936.000000 0.5568 0.6459 0.6673 0.6866 0.7059
941.000000 0.7207 0.7337 0.7443 0.7510 0.7546
946.000000 0.7561 0.7573 0.7583 0.7667 0.7584
951.000000 0.7578 0.7571 0.7555 0.7528 0.7499
956.000000 0.7438 0.7370 0.7265 0.7192 0.7147
961.000000 0.7263 0.7323 0.7394 0.7473 0.7538
966.000000 0.7576 0.7588 0.7600 0.7617 0.7671
971.000000 0.7746 0.7855 0.7976 0.8059 0.8098
976.000000 0.8131 0.8163 0.8193 0.8219 0.8245
981.000000 0.8271 0.8297 0.8320 0.8343 0.8361
986.000000 0.8369 0.8377 0.8384 0.8433 0.8398
991.000000 0.8398 0.8381 0.8357 0.8331 0.8307
996.000000 0.8282 0.8261 0.8262 0.8265 0.8267
1001.000000 0.8267 0.8268 0.8259 0.8238 0.8215
1006.000000 0.8188 0.8160 0.8132 0.8095 0.8055
1011.000000 0.8017 0.7978 0.7940 0.7901 0.7863
1016.000000 0.7826 0.7787 0.7746 0.7705 0.7664
1021.000000 0.7629 0.7608 0.7586 0.7563 0.7541
1026.000000 0.7509 0.7462 0.7429 0.7428 0.7365
1031.000000 0.7444 0.7459 0.7485 0.7513 0.7540
1036.000000 0.7561 0.7564 0.7566 0.7560 0.7553
1041.000000 0.7546 0.7538 0.7530 0.7576 0.7516
1046.000000 0.7508 0.7501 0.7493 0.7486 0.7478
1051.000000 0.7472 0.7464 0.7453 0.7439 0.7427
1056.000000 0.7413 0.7400 0.7386 0.7359 0.7333
1061.000000 0.7307 0.7279 0.7238 0.7197 0.7156
1066.000000 0.7116 0.7068 0.7000 0.6932 0.6865
1071.000000 0.6799 0.6738 0.6676 0.6615 0.6554
1076.000000 0.6493 0.6425 0.6357 0.6288 0.6221
1081.000000 0.6154 0.6083 0.5969 0.5845 0.5720
1086.000000 0.5543 0.5331 0.5198 0.5086 0.4943
1091.000000 0.4782 0.4626 0.4472 0.4318 0.4164
1096.000000 0.4011 0.3857 0.3705 0.3552 0.3396
1101.000000 0.3133 0.2938 0.2812 0.2718 0.2650
1106.000000 0.2583 0.2516 0.2450 0.2399 0.2352
1111.000000 0.2328 0.2307 0.2265 0.2133 0.2020
1116.000000 0.1900 0.1737 0.1603 0.1501 0.1373
1121.000000 0.1207 0.0833 0.0721 0.0648 0.0621
1126.000000 0.0590 0.0584 0.0566 0.0587 0.0591
1131.000000 0.0599 0.0622 0.0681 0.0774 0.0911
1136.000000 0.1071 0.1232 0.1374 0.1505 0.1610
1141.000000 0.1706 0.1770 0.1800 0.1803 0.1804
1146.000000 0.1840 0.1744 0.1645 0.1557 0.1469
1151.000000 0.1381 0.1293 0.1202 0.1098 0.0995
1156.000000 0.0923 0.0917 0.0910 0.0934 0.0963
1161.000000 0.0999 0.1044 0.1122 0.1206 0.1273
1166.000000 0.1287 0.1281 0.1317 0.1262 0.1225
1171.000000 0.1165 0.1108 0.1033 0.0947 0.0864
1176.000000 0.0795 0.0724 0.0655 0.0597 0.0550
1181.000000 0.0584 0.0596 0.0637 0.0690 0.0743
1186.000000 0.0804 0.0878 0.1012 0.1179 0.1349
1191.000000 0.1518 0.1687 0.1857 0.2025 0.2194
1196.000000 0.2362 0.2530 0.2698 0.2788 0.2782
1201.000000 0.2793 0.2726 0.2553 0.2382 0.2210
1206.000000 0.2038 0.1867 0.1696 0.1525 0.1355
1211.000000 0.1185 0.1017 0.0898 0.0824 0.0775
1216.000000 0.0693 0.0613 0.0546 0.0492 0.0452
1221.000000 0.0432 0.0413 0.0400 0.0392 0.0384
1226.000000 0.0378 0.0376 0.0373 0.0374 0.0379
1231.000000 0.0387 0.0397 0.0411 0.0426 0.0441
1236.000000 0.0455 0.0470 0.0485 0.0500 0.0515
1241.000000 0.0536 0.0561 0.0586 0.0634 0.0687
1246.000000 0.0742 0.0811 0.0884 0.0980 0.1097
1251.000000 0.1208 0.1307 0.1404 0.1511 0.1657
1256.000000 0.1804 0.1947 0.2087 0.2206 0.2312
1261.000000 0.2419 0.2526 0.2643 0.2760 0.2864
1266.000000 0.2948 0.3030 0.3104 0.3172 0.3237
1271.000000 0.3288 0.3329 0.3352 0.3356 0.3369
1276.000000 0.3351 0.3300 0.3227 0.3080 0.2901
1281.000000 0.2723 0.2544 0.2366 0.2188 0.2011
1286.000000 0.1834 0.1657 0.1481 0.1313 0.1264
1291.000000 0.1250 0.1426 0.1616 0.1805 0.1994
1296.000000 0.2183 0.2372 0.2560 0.2748 0.2936
1301.000000 0.3218 0.3358 0.3448 0.3531 0.3612
1306.000000 0.3694 0.3793 0.3909 0.3981 0.4037
1311.000000 0.4094 0.4150 0.4206 0.4261 0.4313
1316.000000 0.4350 0.4385 0.4411 0.4426 0.4434
1321.000000 0.4434 0.4435 0.4432 0.4420 0.4424
1326.000000 0.4416 0.4394 0.4365 0.4314 0.4249
1331.000000 0.4185 0.4120 0.4028 0.3939 0.3856
1336.000000 0.3739 0.3526 0.3299 0.3072 0.2846
1341.000000 0.2620 0.2395 0.2169 0.1944 0.1719
1346.000000 0.1495 0.1275 0.1257 0.1254 0.1218
1351.000000 0.1281 0.1327 0.1400 0.1483 0.1728
1356.000000 0.2082 0.2436 0.2791 0.3144 0.3496
1361.000000 0.3849 0.4200 0.4489 0.4653 0.4725
1366.000000 0.4783 0.4825 0.4855 0.4885 0.4904
1371.000000 0.4913 0.4914 0.4932 0.4878 0.4783
1376.000000 0.4693 0.4611 0.4548 0.4505 0.4479
1381.000000 0.4467 0.4463 0.4711 0.4871 0.5031
1386.000000 0.5190 0.5349 0.5509 0.5667 0.5825
1391.000000 0.5984 0.6141 0.6300 0.6457 0.6614
1396.000000 0.6699 0.6733 0.6752 0.6766 0.6762
1401.000000 0.6772 0.6766 0.6754 0.6742 0.6727
1406.000000 0.6711 0.6694 0.6677 0.6661 0.6644
1411.000000 0.6628 0.6611 0.6595 0.6578 0.6552
1416.000000 0.6526 0.6500 0.6465 0.6422 0.6376
1421.000000 0.6322 0.6239 0.6123 0.5948 0.5861
1426.000000 0.5796 0.5726 0.5572 0.5408 0.5245
1431.000000 0.5082 0.4920 0.4757 0.4595 0.4433
1436.000000 0.4275 0.4207 0.4160 0.4141 0.4133
1441.000000 0.4133 0.4133 0.4134 0.4137 0.4145
1446.000000 0.4154 0.4160 0.4166 0.4172 0.4173
1451.000000 0.4171 0.4166 0.4151 0.4113 0.4056
1456.000000 0.3992 0.3934 0.3881 0.3828 0.3769
1461.000000 0.3701 0.3630 0.3559 0.3503 0.3464
1466.000000 0.3430 0.3400 0.3383 0.3393 0.3403
1471.000000 0.3423 0.3460 0.3509 0.3579 0.3648
1476.000000 0.3813 0.4066 0.4320 0.4572 0.4824
1481.000000 0.5076 0.5318 0.5498 0.5639 0.5860
1486.000000 0.6067 0.6204 0.6306 0.6391 0.6477
1491.000000 0.6560 0.6639 0.6716 0.6792 0.6868
1496.000000 0.6957 0.7050 0.7142 0.7214 0.7269
1501.000000 0.7323 0.7363 0.7391 0.7419 0.7446
1506.000000 0.7472 0.7494 0.7517 0.7540 0.7563
1511.000000 0.7587 0.7621 0.7662 0.7684 0.7691
1516.000000 0.7696 0.7701 0.7706 0.7714 0.7733
1521.000000 0.7755 0.7794 0.7846 0.7885 0.7915
1526.000000 0.7945 0.7975 0.7999 0.8019 0.8038
1531.000000 0.8058 0.8071 0.8078 0.8085 0.8093
1536.000000 0.8099 0.8104 0.8108 0.8112 0.8105
1541.000000 0.8089 0.8089 0.8056 0.8039 0.8022
1546.000000 0.8004 0.7985 0.7966 0.7948 0.7930
1551.000000 0.7913 0.7897 0.7887 0.7886 0.7885
1556.000000 0.7884 0.7882 0.7880 0.7877 0.7873
1561.000000 0.7869 0.7865 0.7860 0.7857 0.7849
1566.000000 0.7835 0.7813 0.7785 0.7755 0.7729
1571.000000 0.7709 0.7691 0.7673 0.7663 0.7659
1576.000000 0.7656 0.7653 0.7650 0.7647 0.7643
1581.000000 0.7636 0.7629 0.7622 0.7610 0.7594
1586.000000 0.7576 0.7554 0.7520 0.7483 0.7456
1591.000000 0.7436 0.7418 0.7408 0.7401 0.7393
1596.000000 0.7386 0.7373 0.7355 0.7335 0.7310
1601.000000 0.7282 0.7250 0.7214 0.7175 0.7132
1606.000000 0.7087 0.7033 0.6955 0.6860 0.6768
1611.000000 0.6698 0.6642 0.6585 0.6529 0.6472
1616.000000 0.6344 0.6209 0.6065 0.5918 0.5769
1621.000000 0.5508 0.5213 0.4917 0.4622 0.4327
1626.000000 0.4033 0.3739 0.3445 0.3152 0.2859
1631.000000 0.2610 0.2540 0.2549 0.2654 0.2840
1636.000000 0.2508 0.3212 0.3397 0.3583 0.3768
1641.000000 0.3953 0.4137 0.4321 0.4505 0.4689
1646.000000 0.4873 0.5056 0.5239 0.5340 0.5350
1651.000000 0.5351 0.5348 0.5337 0.5269 0.5175
1656.000000 0.5082 0.4988 0.4895 0.4802 0.4709
1661.000000 0.4616 0.4523 0.4421 0.4359 0.4321
1666.000000 0.4286 0.4256 0.4226 0.4189 0.4103
1671.000000 0.3929 0.3754 0.3580 0.3406 0.3232
1676.000000 0.3059 0.2885 0.2712 0.2539 0.2366
1681.000000 0.2193 0.2066 0.1969 0.1886 0.1808
1686.000000 0.1723 0.1617 0.1498 0.1390 0.1293
1691.000000 0.1198 0.1130 0.1085 0.1043 0.1000
1696.000000 0.0958 0.0925 0.0894 0.0865 0.0837
1701.000000 0.0813 0.0793 0.0773 0.0754 0.0744
1706.000000 0.0736 0.0728 0.0723 0.0725 0.0701
1711.000000 0.0729 0.0735 0.0743 0.0751 0.0759
1716.000000 0.0767 0.0778 0.0797 0.0822 0.0851
1721.000000 0.0883 0.0916 0.0952 0.0994 0.1039
1726.000000 0.1079 0.1137 0.1221 0.1321 0.1420
1731.000000 0.1520 0.1619 0.1718 0.1817 0.1916
1736.000000 0.2015 0.2113 0.2212 0.2310 0.2408
1741.000000 0.2507 0.2605 0.2694 0.2759 0.2811
1746.000000 0.2862 0.2915 0.2999 0.3103 0.3231
1751.000000 0.3388 0.3583 0.3846 0.3941 0.4005
1756.000000 0.4069 0.4141 0.4256 0.4421 0.4790
1761.000000 0.5100 0.5209 0.5316 0.5385 0.5445
1766.000000 0.5504 0.5562 0.5621 0.5687 0.5759
1771.000000 0.5832 0.5904 0.5970 0.6023 0.6076
1776.000000 0.6128 0.6180 0.6232 0.6282 0.6331
1781.000000 0.6378 0.6426 0.6474 0.6521 0.6568
1786.000000 0.6615 0.6661 0.6708 0.6748 0.6780
1791.000000 0.6804 0.6828 0.6851 0.6874 0.6898
1796.000000 0.6921 0.6944 0.6968 0.6992 0.7014
1801.000000 0.7035 0.7055 0.7075 0.7095 0.7115
1806.000000 0.7135 0.7155 0.7175 0.7193 0.7207
1811.000000 0.7222 0.7236 0.7251 0.7265 0.7280
1816.000000 0.7294 0.7309 0.7323 0.7337 0.7350
1821.000000 0.7363 0.7375 0.7387 0.7399 0.7411
1826.000000 0.7423 0.7434 0.7444 0.7452 0.7460
1831.000000 0.7468 0.7477 0.7486 0.7494 0.7502
1836.000000 0.7510 0.7519 0.7532 0.7546 0.7561
1841.000000 0.7576 0.7592 0.7609 0.7627 0.7647
1846.000000 0.7666 0.7683 0.7700 0.7716 0.7731
1851.000000 0.7747 0.7765 0.7792 0.7820 0.7844
1856.000000 0.7864 0.7880 0.7896 0.7912 0.7927
1861.000000 0.7940 0.7951 0.7960 0.7969 0.7978
1866.000000 0.7988 0.7997 0.8006 0.8014 0.8023
1871.000000 0.8031 0.8040 0.8048 0.8057 0.8065
1876.000000 0.8073 0.8080 0.8085 0.8090 0.8095
1881.000000 0.8100 0.8105 0.8110 0.8115 0.8120
1886.000000 0.8125 0.8131 0.8135 0.8140 0.8145
1891.000000 0.8150 0.8155 0.8159 0.8161 0.8163
1896.000000 0.8166 0.8169 0.8171 0.8174 0.8176
1901.000000 0.8178 0.8181 0.8183 0.8185 0.8188
1906.000000 0.8191 0.8194 0.8196 0.8198 0.8201
1911.000000 0.8203 0.8205 0.8208 0.8210 0.8213
1916.000000 0.8215 0.8217 0.8220 0.8222 0.8224
1921.000000 0.8227 0.8229 0.8231 0.8233 0.8236
1926.000000 0.8238 0.8240 0.8242 0.8244 0.8247
1931.000000 0.8250 0.8252 0.8254 0.8257 0.8260
1936.000000 0.8262 0.8265 0.8268 0.8270 0.8273
1941.000000 0.8276 0.8278 0.8281 0.8283 0.8285
1946.000000 0.8288 0.8290 0.8293 0.8296 0.8298
1951.000000 0.8300 0.8302 0.8304 0.8306 0.8308
1956.000000 0.8310 0.8312 0.8314 0.8316 0.8318
1961.000000 0.8320 0.8322 0.8324 0.8327 0.8329
1966.000000 0.8331 0.8333 0.8335 0.8336 0.8338
1971.000000 0.8340 0.8343 0.8345 0.8347 0.8349
1976.000000 0.8351 0.8353 0.8356 0.8358 0.8360
1981.000000 0.8362 0.8363 0.8366 0.8368 0.8371
1986.000000 0.8374 0.8378 0.8381 0.8384 0.8387
1991.000000 0.8390 0.8393 0.8397 0.8400 0.8403
1996.000000 0.8405 0.8408 0.8411 0.8413 0.8415
2001.000000 0.8416 0.8418 0.8419 0.8420 0.8422
2006.000000 0.8423 0.8425 0.8426 0.8427 0.8428
2011.000000 0.8428 0.8427 0.8427 0.8427 0.8426
2016.000000 0.8426 0.8426 0.8425 0.8425 0.8425
2021.000000 0.8425 0.8424 0.8424 0.8424 0.8423
2026.000000 0.8423 0.8423 0.8423 0.8423 0.8422
2031.000000 0.8420 0.8420 0.8419 0.8419 0.8418
2036.000000 0.8416 0.8416 0.8415 0.8415 0.8414
2041.000000 0.8413 0.8412 0.8411 0.8411 0.8427
2046.000000 0.8409 0.8409 0.8408 0.8407 0.8406
2051.000000 0.8405 0.8405 0.8405 0.8405 0.8404
2056.000000 0.8403 0.8403 0.8402 0.8402 0.8401
2061.000000 0.8401 0.8401 0.8400 0.8400 0.8399
2066.000000 0.8399 0.8398 0.8397 0.8397 0.8397
2071.000000 0.8397 0.8396 0.8395 0.8395 0.8394
2076.000000 0.8394 0.8393 0.8393 0.8391 0.8389
2081.000000 0.8388 0.8387 0.8386 0.8385 0.8384
2086.000000 0.8382 0.8381 0.8380 0.8379 0.8378
2091.000000 0.8377 0.8376 0.8374 0.8372 0.8371
2096.000000 0.8370 0.8369 0.8368 0.8367 0.8365
2101.000000 0.8364 0.8363 0.8362 0.8361 0.8360
2106.000000 0.8359 0.8357 0.8355 0.8354 0.8353
2111.000000 0.8352 0.8351 0.8350 0.8349 0.8348
2116.000000 0.8346 0.8345 0.8344 0.8342 0.8340
2121.000000 0.8339 0.8337 0.8335 0.8334 0.8332
2126.000000 0.8330 0.8329 0.8327 0.8325 0.8324
2131.000000 0.8323 0.8321 0.8320 0.8318 0.8316
2136.000000 0.8315 0.8313 0.8311 0.8310 0.8308
2141.000000 0.8307 0.8305 0.8303 0.8302 0.8300
2146.000000 0.8298 0.8297 0.8296 0.8294 0.8293
2151.000000 0.8291 0.8290 0.8290 0.8289 0.8289
2156.000000 0.8288 0.8288 0.8287 0.8286 0.8286
2161.000000 0.8286 0.8286 0.8285 0.8285 0.8284
2166.000000 0.8284 0.8283 0.8283 0.8282 0.8282
2171.000000 0.8281 0.8281 0.8280 0.8279 0.8279
2176.000000 0.8279 0.8279 0.8278 0.8276 0.8275
2181.000000 0.8273 0.8270 0.8268 0.8267 0.8265
2186.000000 0.8263 0.8261 0.8259 0.8257 0.8255
2191.000000 0.8253 0.8251 0.8248 0.8247 0.8245
2196.000000 0.8243 0.8241 0.8239 0.8237 0.8235
2201.000000 0.8233 0.8231 0.8229 0.8227 0.8226
2206.000000 0.8224 0.8222 0.8219 0.8217 0.8215
2211.000000 0.8213 0.8211 0.8210 0.8208 0.8206
2216.000000 0.8204 0.8202 0.8200 0.8198 0.8196
2221.000000 0.8194 0.8192 0.8190 0.8187 0.8185
2226.000000 0.8183 0.8180 0.8178 0.8175 0.8173
2231.000000 0.8171 0.8169 0.8166 0.8164 0.8162
2236.000000 0.8160 0.8157 0.8155 0.8152 0.8150
2241.000000 0.8148 0.8146 0.8143 0.8141 0.8138
2246.000000 0.8136 0.8134 0.8132 0.8130 0.8127
2251.000000 0.8125 0.8123 0.8120 0.8117 0.8114
2256.000000 0.8111 0.8107 0.8105 0.8102 0.8099
2261.000000 0.8095 0.8092 0.8089 0.8086 0.8083
2266.000000 0.8079 0.8076 0.8073 0.8070 0.8067
2271.000000 0.8064 0.8061 0.8058 0.8055 0.8052
2276.000000 0.8048 0.8045 0.8042 0.8039 0.8036
2281.000000 0.8033 0.8030 0.8027 0.8023 0.8020
2286.000000 0.8016 0.8012 0.8006 0.8001 0.7995
2291.000000 0.7989 0.7984 0.7978 0.7972 0.7966
2296.000000 0.7961 0.7955 0.7949 0.7944 0.7938
2301.000000 0.7932 0.7927 0.7921 0.7915 0.7910
2306.000000 0.7904 0.7899 0.7894 0.7888 0.7883
2311.000000 0.7878 0.7874 0.7869 0.7864 0.7859
2316.000000 0.7853 0.7848 0.7843 0.7838 0.7833
2321.000000 0.7829 0.7827 0.7826 0.7825 0.7824
2326.000000 0.7823 0.7822 0.7821 0.7820 0.7819
2331.000000 0.7819 0.7818 0.7817 0.7816 0.7816
2336.000000 0.7816 0.7816 0.7818 0.7819 0.7821
2341.000000 0.7823 0.7825 0.7826 0.7828 0.7830
2346.000000 0.7832 0.7834 0.7836 0.7837 0.7839
2351.000000 0.7842 0.7844 0.7848 0.7851 0.7855
2356.000000 0.7859 0.7859 0.7859 0.7857 0.7854
2361.000000 0.7851 0.7847 0.7844 0.7841 0.7838
2366.000000 0.7835 0.7831 0.7827 0.7824 0.7820
2371.000000 0.7817 0.7813 0.7809 0.7805 0.7802
2376.000000 0.7798 0.7794 0.7791 0.7787 0.7783
2381.000000 0.7779 0.7775 0.7771 0.7767 0.7763
2386.000000 0.7760 0.7756 0.7752 0.7748 0.7744
2391.000000 0.7739 0.7735 0.7731 0.7727 0.7723
2396.000000 0.7719 0.7715 0.7713 0.7710 0.7708
2401.000000 0.7705 0.7702 0.7699 0.7696 0.7694
2406.000000 0.7691 0.7688 0.7685 0.7682 0.7680
2411.000000 0.7677 0.7674 0.7672 0.7669 0.7666
2416.000000 0.7663 0.7661 0.7658 0.7657 0.7657
2421.000000 0.7657 0.7657 0.7657 0.7657 0.7657
2426.000000 0.7657 0.7657 0.7657 0.7657 0.7657
2431.000000 0.7657 0.7657 0.7657 0.7657 0.7658
2436.000000 0.7658 0.7658 0.7658 0.7658 0.7658
2441.000000 0.7658 0.7658 0.7658 0.7658 0.7659
2446.000000 0.7659 0.7661 0.7662 0.7663 0.7664
2451.000000 0.7666 0.7667 0.7668 0.7669 0.7671
2456.000000 0.7672 0.7673 0.7674 0.7675 0.7677
2461.000000 0.7678 0.7679 0.7680 0.7681 0.7681
2466.000000 0.7681 0.7681 0.7681 0.7681 0.7681
2471.000000 0.7681 0.7681 0.7681 0.7681 0.7681
2476.000000 0.7682 0.7682 0.7682 0.7682 0.7682
2481.000000 0.7682 0.7682 0.7682 0.7682 0.7682
2486.000000 0.7681 0.7681 0.7680 0.7678 0.7677
2491.000000 0.7675 0.7673 0.7672 0.7670 0.7669
2496.000000 0.7667 0.7665 0.7664 0.7662 0.7661
2501.000000 0.7659 0.7657 0.7654 0.7649 0.7645
2506.000000 0.7640 0.7636 0.7631 0.7627 0.7623
2511.000000 0.7618 0.7614 0.7610 0.7605 0.7601
2516.000000 0.7596 0.7591 0.7586 0.7580 0.7575
2521.000000 0.7570 0.7565 0.7560 0.7555 0.7550
2526.000000 0.7546 0.7543 0.7540 0.7539 0.7537
2531.000000 0.7536 0.7534 0.7532 0.7531 0.7529
2536.000000 0.7528 0.7526 0.7525 0.7523 0.7521
2541.000000 0.7519 0.7517 0.7516 0.7515 0.7514
2546.000000 0.7513 0.7513 0.7512 0.7511 0.7510
2551.000000 0.7510 0.7509 0.7508 0.7507 0.7506
2556.000000 0.7506 0.7505 0.7504 0.7503 0.7503
2561.000000 0.7503 0.7502 0.7501 0.7501 0.7500
2566.000000 0.7499 0.7498 0.7498 0.7497 0.7496
2571.000000 0.7495 0.7495 0.7493 0.7491 0.7489
2576.000000 0.7487 0.7485 0.7483 0.7481 0.7479
2581.000000 0.7478 0.7476 0.7474 0.7472 0.7470
2586.000000 0.7468 0.7466 0.7464 0.7463 0.7461
2591.000000 0.7459 0.7457 0.7454 0.7451 0.7448
2596.000000 0.7445 0.7441 0.7438 0.7435 0.7431
2601.000000 0.7428 0.7425 0.7421 0.7418 0.7414
2606.000000 0.7410 0.7406 0.7401 0.7396 0.7392
2611.000000 0.7387 0.7382 0.7377 0.7372 0.7367
2616.000000 0.7362 0.7357 0.7353 0.7348 0.7343
2621.000000 0.7338 0.7333 0.7328 0.7323 0.7318
2626.000000 0.7313 0.7308 0.7303 0.7298 0.7292
2631.000000 0.7287 0.7282 0.7277 0.7272 0.7267
2636.000000 0.7262 0.7256 0.7251 0.7246 0.7241
2641.000000 0.7236 0.7231 0.7226 0.7219 0.7213
2646.000000 0.7206 0.7200 0.7194 0.7188 0.7182
2651.000000 0.7175 0.7169 0.7162 0.7156 0.7150
2656.000000 0.7143 0.7137 0.7131 0.7124 0.7118
2661.000000 0.7111 0.7105 0.7099 0.7092 0.7086
2666.000000 0.7080 0.7073 0.7067 0.7057 0.7046
2671.000000 0.7036 0.7025 0.7015 0.7004 0.6994
2676.000000 0.6984 0.6974 0.6963 0.6953 0.6943
2681.000000 0.6933 0.6923 0.6912 0.6901 0.6890
2686.000000 0.6879 0.6867 0.6856 0.6845 0.6834
2691.000000 0.6822 0.6811 0.6800 0.6789 0.6777
2696.000000 0.6764 0.6753 0.6752 0.6750 0.6748
2701.000000 0.6747 0.6745 0.6744 0.6743 0.6742
2706.000000 0.6741 0.6741 0.6740 0.6739 0.6739
2711.000000 0.6738 0.6737 0.6737 0.6737 0.6736
2716.000000 0.6735 0.6735 0.6734 0.6732 0.6731
2721.000000 0.6730 0.6729 0.6728 0.6727 0.6725
2726.000000 0.6724 0.6723 0.6722 0.6721 0.6720
2731.000000 0.6718 0.6717 0.6712 0.6706 0.6700
2736.000000 0.6691 0.6682 0.6673 0.6664 0.6655
2741.000000 0.6646 0.6634 0.6622 0.6610 0.6594
2746.000000 0.6576 0.6558 0.6540 0.6522 0.6504
2751.000000 0.6485 0.6466 0.6447 0.6428 0.6410
2756.000000 0.6391 0.6369 0.6346 0.6323 0.6299
2761.000000 0.6274 0.6249 0.6225 0.6202 0.6179
2766.000000 0.6156 0.6133 0.6110 0.6087 0.6064
2771.000000 0.6042 0.6018 0.5994 0.5970 0.5940
2776.000000 0.5894 0.5848 0.5802 0.5757 0.5711
2781.000000 0.5662 0.5590 0.5519 0.5448 0.5406
2786.000000 0.5365 0.5323 0.5288 0.5253 0.5218
2791.000000 0.5160 0.5097 0.5034 0.4867 0.4656
2796.000000 0.4445 0.4278 0.4144 0.4009 0.3874
2801.000000 0.3739 0.3605 0.3470 0.3336 0.3202
2806.000000 0.3068 0.2934 0.2800 0.2666 0.2532
2811.000000 0.2398 0.2264 0.2131 0.1998 0.1865
2816.000000 0.1731 0.1598 0.1465 0.1379 0.1339
2821.000000 0.1298 0.1283 0.1274 0.1277 0.1280
2826.000000 0.1294 0.1307 0.1321 0.1335 0.1349
2831.000000 0.1364 0.1378 0.1392 0.1407 0.1421
2836.000000 0.1435 0.1450 0.1460 0.1463 0.1465
2841.000000 0.1467 0.1459 0.1451 0.1443 0.1423
2846.000000 0.1401 0.1379 0.1357 0.1335 0.1313
2851.000000 0.1291 0.1270 0.1248 0.1226 0.1204
2856.000000 0.1182 0.1161 0.1139 0.1118 0.1096
2861.000000 0.1075 0.1053 0.1031 0.1010 0.0988
2866.000000 0.0967 0.0945 0.0923 0.0902 0.0880
2871.000000 0.0859 0.0837 0.0816 0.0794 0.0773
2876.000000 0.0751 0.0730 0.0708 0.0687 0.0665
2881.000000 0.0646 0.0626 0.0606 0.0591 0.0579
2886.000000 0.0567 0.0555 0.0548 0.0541 0.0534
2891.000000 0.0532 0.0530 0.0529 0.0528 0.0527
2896.000000 0.0526 0.0525 0.0525 0.0525 0.0525
2901.000000 0.0526 0.0528 0.0529 0.0530 0.0533
2906.000000 0.0535 0.0538 0.0540 0.0543 0.0546
2911.000000 0.0549 0.0553 0.0557 0.0562 0.0568
2916.000000 0.0574 0.0581 0.0594 0.0609 0.0624
2921.000000 0.0643 0.0668 0.0692 0.0717 0.0738
2926.000000 0.0758 0.0779 0.0801 0.0823 0.0846
2931.000000 0.0878 0.0960 0.1041 0.1122 0.1204
2936.000000 0.1285 0.1367 0.1448 0.1529 0.1610
2941.000000 0.1691 0.1772 0.1853 0.1934 0.2015
2946.000000 0.2096 0.2176 0.2257 0.2338 0.2418
2951.000000 0.2499 0.2579 0.2660 0.2740 0.2821
2956.000000 0.2901 0.2981 0.3061 0.3141 0.3221
2961.000000 0.3301 0.3381 0.3461 0.3541 0.3621
2966.000000 0.3700 0.3780 0.3859 0.3939 0.4018
2971.000000 0.4098 0.4178 0.4257 0.4336 0.4415
2976.000000 0.4494 0.4573 0.4652 0.4731 0.4810
2981.000000 0.4889 0.4968 0.5047 0.5126 0.5205
2986.000000 0.5283 0.5362 0.5440 0.5519 0.5598
2991.000000 0.5676 0.5754 0.5832 0.5911 0.5959
2996.000000 0.6007 0.6055 0.6090 0.6106 0.6123
3001.000000 0.6139 0.6146 0.6150 0.6155 0.6159
3006.000000 0.6161 0.6164 0.6166 0.6165 0.6168
3011.000000 0.6168 0.6168 0.6168 0.6168 0.6168
3016.000000 0.6167 0.6165 0.6163 0.6161 0.6159
3021.000000 0.6157 0.6155 0.6152 0.6148 0.6144
3026.000000 0.6140 0.6136 0.6131 0.6127 0.6122
3031.000000 0.6117 0.6113 0.6109 0.6104 0.6100
3036.000000 0.6095 0.6091 0.6086 0.6081 0.6076
3041.000000 0.6071 0.6066 0.6061 0.6056 0.6051
3046.000000 0.6046 0.6041 0.6036 0.6031 0.6026
3051.000000 0.6021 0.6016 0.6011 0.6005 0.6000
3056.000000 0.5995 0.5989 0.5983 0.5977 0.5971
3061.000000 0.5961 0.5951 0.5941 0.5930 0.5919
3066.000000 0.5907 0.5896 0.5884 0.5872 0.5860
3071.000000 0.5848 0.5835 0.5823 0.5811 0.5799
3076.000000 0.5785 0.5771 0.5757 0.5743 0.5729
3081.000000 0.5715 0.5701 0.5687 0.5673 0.5659
3086.000000 0.5645 0.5631 0.5615 0.5600 0.5584
3091.000000 0.5560 0.5533 0.5506 0.5479 0.5452
3096.000000 0.5425 0.5398 0.5372 0.5343 0.5315
3101.000000 0.5287 0.5257 0.5223 0.5188 0.5154
3106.000000 0.5119 0.5085 0.5051 0.5016 0.4971
3111.000000 0.4918 0.4865 0.4812 0.4747 0.4678
3116.000000 0.4608 0.4538 0.4465 0.4391 0.4318
3121.000000 0.4244 0.4170 0.4097 0.4023 0.3950
3126.000000 0.3876 0.3803 0.3729 0.3656 0.3583
3131.000000 0.3510 0.3437 0.3364 0.3291 0.3218
3136.000000 0.3145 0.3072 0.2999 0.2927 0.2854
3141.000000 0.2781 0.2708 0.2636 0.2563 0.2490
3146.000000 0.2418 0.2345 0.2273 0.2209 0.2159
3151.000000 0.2109 0.2059 0.2029 0.2028 0.2028
3156.000000 0.2027 0.2026 0.2025 0.2025 0.2024
3161.000000 0.2027 0.2034 0.2042 0.2049 0.2030
3166.000000 0.2081 0.2100 0.2119 0.2138 0.2157
3171.000000 0.2175 0.2194 0.2213 0.2232 0.2250
3176.000000 0.2269 0.2288 0.2306 0.2325 0.2344
3181.000000 0.2363 0.2382 0.2400 0.2419 0.2438
3186.000000 0.2455 0.2473 0.2491 0.2508 0.2522
3191.000000 0.2536 0.2550 0.2563 0.2573 0.2583
3196.000000 0.2592 0.2602 0.2612 0.2621 0.2631
3201.000000 0.2640 0.2651 0.2662 0.2673 0.2684
3206.000000 0.2697 0.2709 0.2722 0.2734 0.2747
3211.000000 0.2759 0.2772 0.2784 0.2796 0.2809
3216.000000 0.2821 0.2833 0.2845 0.2858 0.2870
3221.000000 0.2882 0.2894 0.2906 0.2918 0.2930
3226.000000 0.2943 0.2958 0.2974 0.2989 0.3005
3231.000000 0.3028 0.3050 0.3073 0.3095 0.3118
3236.000000 0.3140 0.3162 0.3185 0.3207 0.3230
3241.000000 0.3252 0.3274 0.3297 0.3319 0.3341
3246.000000 0.3364 0.3385 0.3402 0.3419 0.3437
3251.000000 0.3454 0.3454 0.3454 0.3454 0.3454
3256.000000 0.3453 0.3453 0.3452 0.3452 0.3465
3261.000000 0.3430 0.3416 0.3401 0.3380 0.3339
3266.000000 0.3299 0.3259 0.3218 0.3178 0.3138
3271.000000 0.3098 0.3058 0.3017 0.2977 0.2937
3276.000000 0.2897 0.2857 0.2817 0.2778 0.2738
3281.000000 0.2698 0.2658 0.2618 0.2578 0.2539
3286.000000 0.2499 0.2459 0.2419 0.2379 0.2340
3291.000000 0.2300 0.2260 0.2221 0.2181 0.2141
3296.000000 0.2102 0.2062 0.2023 0.1983 0.1944
3301.000000 0.1904 0.1865 0.1825 0.1786 0.1746
3306.000000 0.1707 0.1668 0.1628 0.1589 0.1550
3311.000000 0.1511 0.1479 0.1451 0.1422 0.1394
3316.000000 0.1376 0.1376 0.1376 0.1376 0.1376
3321.000000 0.1398 0.1421 0.1444 0.1467 0.1358
3326.000000 0.1552 0.1600 0.1648 0.1697 0.1745
3331.000000 0.1793 0.1842 0.1890 0.1939 0.1987
3336.000000 0.2035 0.2083 0.2131 0.2179 0.2227
3341.000000 0.2275 0.2324 0.2372 0.2419 0.2467
3346.000000 0.2515 0.2563 0.2611 0.2658 0.2706
3351.000000 0.2754 0.2801 0.2849 0.2897 0.2945
3356.000000 0.2993 0.3040 0.3087 0.3135 0.3182
3361.000000 0.3230 0.3277 0.3325 0.3372 0.3421
3366.000000 0.3472 0.3522 0.3573 0.3624 0.3651
3371.000000 0.3670 0.3689 0.3708 0.3727 0.3746
3376.000000 0.3765 0.3784 0.3802 0.3830 0.3864
3381.000000 0.3898 0.3932 0.3965 0.4003 0.4041
3386.000000 0.4079 0.4117 0.4163 0.4217 0.4272
3391.000000 0.4326 0.4380 0.4461 0.4545 0.4629
3396.000000 0.4713 0.4791 0.4850 0.4909 0.4968
3401.000000 0.5027 0.5077 0.5121 0.5165 0.5210
3406.000000 0.5254 0.5277 0.5301 0.5324 0.5347
3411.000000 0.5371 0.5394 0.5418 0.5441 0.5464
3416.000000 0.5490 0.5517 0.5543 0.5570 0.5596
3421.000000 0.5633 0.5669 0.5705 0.5741 0.5770
3426.000000 0.5788 0.5805 0.5823 0.5840 0.5854
3431.000000 0.5866 0.5879 0.5891 0.5903 0.5915
3436.000000 0.5927 0.5939 0.5951 0.5963 0.5975
3441.000000 0.5986 0.5998 0.6009 0.6020 0.6029
3446.000000 0.6039 0.6048 0.6058 0.6067 0.6076
3451.000000 0.6086 0.6095 0.6104 0.6113 0.6123
3456.000000 0.6132 0.6141 0.6150 0.6159 0.6169
3461.000000 0.6178 0.6187 0.6196 0.6205 0.6214
3466.000000 0.6224 0.6233 0.6242 0.6251 0.6260
3471.000000 0.6269 0.6278 0.6287 0.6294 0.6302
3476.000000 0.6310 0.6318 0.6325 0.6332 0.6339
3481.000000 0.6346 0.6353 0.6360 0.6367 0.6374
3486.000000 0.6380 0.6387 0.6394 0.6401 0.6408
3491.000000 0.6414 0.6421 0.6428 0.6435 0.6442
3496.000000 0.6449 0.6456 0.6463 0.6469 0.6476
3501.000000 0.6483 0.6490 0.6497 0.6503 0.6510
3506.000000 0.6517 0.6524 0.6531 0.6538 0.6544
3511.000000 0.6551 0.6557 0.6563 0.6569 0.6575
3516.000000 0.6580 0.6586 0.6591 0.6596 0.6602
3521.000000 0.6607 0.6612 0.6617 0.6623 0.6628
3526.000000 0.6633 0.6638 0.6643 0.6649 0.6654
3531.000000 0.6659 0.6664 0.6670 0.6675 0.6680
3536.000000 0.6685 0.6690 0.6696 0.6701 0.6706
3541.000000 0.6711 0.6716 0.6721 0.6727 0.6732
3546.000000 0.6737 0.6742 0.6747 0.6752 0.6758
3551.000000 0.6763 0.6767 0.6771 0.6775 0.6780
3556.000000 0.6784 0.6787 0.6789 0.6792 0.6794
3561.000000 0.6797 0.6799 0.6802 0.6804 0.6806
3566.000000 0.6809 0.6811 0.6814 0.6816 0.6819
3571.000000 0.6821 0.6824 0.6826 0.6829 0.6831
3576.000000 0.6833 0.6836 0.6838 0.6840 0.6843
3581.000000 0.6845 0.6847 0.6850 0.6852 0.6855
3586.000000 0.6857 0.6860 0.6862 0.6864 0.6866
3591.000000 0.6868 0.6870 0.6871 0.6871 0.6872
3596.000000 0.6873 0.6874 0.6875 0.6876 0.6877
3601.000000 0.6878 0.6879 0.6880 0.6881 0.6882
3606.000000 0.6882 0.6883 0.6884 0.6885 0.6886
3611.000000 0.6887 0.6888 0.6889 0.6890 0.6891
3616.000000 0.6892 0.6893 0.6894 0.6894 0.6895
3621.000000 0.6896 0.6897 0.6897 0.6898 0.6899
3626.000000 0.6900 0.6901 0.6902 0.6903 0.6903
3631.000000 0.6904 0.6905 0.6905 0.6906 0.6906
3636.000000 0.6906 0.6907 0.6907 0.6907 0.6908
3641.000000 0.6909 0.6909 0.6910 0.6910 0.6911
3646.000000 0.6911 0.6912 0.6913 0.6913 0.6914
3651.000000 0.6914 0.6914 0.6915 0.6915 0.6916
3656.000000 0.6916 0.6917 0.6917 0.6918 0.6918
3661.000000 0.6919 0.6919 0.6920 0.6921 0.6921
3666.000000 0.6962 0.6922 0.6922 0.6923 0.6923
3671.000000 0.6923 0.6924 0.6925 0.6925 0.6926
3676.000000 0.6926 0.6927 0.6927 0.6927 0.6928
3681.000000 0.6928 0.6929 0.6929 0.6930 0.6930
3686.000000 0.6931 0.6931 0.6932 0.6932 0.6932
3691.000000 0.6932 0.6932 0.6933 0.6933 0.6933
3696.000000 0.6933 0.6933 0.6933 0.6932 0.6932
3701.000000 0.6932 0.6932 0.6932 0.6932 0.6932
3706.000000 0.6932 0.6932 0.6932 0.6932 0.6932
3711.000000 0.6932 0.6932 0.6932 0.6932 0.6932
3716.000000 0.6932 0.6932 0.6932 0.6932 0.6932
3721.000000 0.6931 0.6931 0.6931 0.6931 0.6931
3726.000000 0.6931 0.6931 0.6931 0.6931 0.6931
3731.000000 0.6931 0.6931 0.6931 0.6931 0.6931
3736.000000 0.6931 0.6931 0.6931 0.6931 0.6931
3741.000000 0.6931 0.6931 0.6930 0.6930 0.6930
3746.000000 0.6930 0.6930 0.6930 0.6930 0.6930
3751.000000 0.6930 0.6930 0.6930 0.6930 0.6930
3756.000000 0.6930 0.6930 0.6930 0.6930 0.6929
3761.000000 0.6929 0.6929 0.6929 0.6929 0.6929
3766.000000 0.6929 0.6929 0.6929 0.6929 0.6929
3771.000000 0.6929 0.6929 0.6929 0.6929 0.6929
3776.000000 0.6929 0.6929 0.6929 0.6929 0.6929
3781.000000 0.6929 0.6929 0.6928 0.6928 0.6928
3786.000000 0.6928 0.6928 0.6927 0.6927 0.6926
3791.000000 0.6926 0.6925 0.6925 0.6924 0.6924
3796.000000 0.6923 0.6923 0.6922 0.6922 0.6921
3801.000000 0.6921 0.6920 0.6920 0.6919 0.6919
3806.000000 0.6918 0.6918 0.6917 0.6917 0.6916
3811.000000 0.6915 0.6915 0.6914 0.6914 0.6913
3816.000000 0.6913 0.6912 0.6912 0.6911 0.6910
3821.000000 0.6910 0.6909 0.6908 0.6908 0.6907
3826.000000 0.6907 0.6906 0.6906 0.6905 0.6905
3831.000000 0.6904 0.6904 0.6903 0.6903 0.6902
3836.000000 0.6902 0.6901 0.6901 0.6900 0.6900
3841.000000 0.6899 0.6899 0.6898 0.6898 0.6897
3846.000000 0.6897 0.6896 0.6895 0.6895 0.6894
3851.000000 0.6893 0.6893 0.6892 0.6892 0.6891
3856.000000 0.6891 0.6890 0.6890 0.6889 0.6889
3861.000000 0.6888 0.6887 0.6887 0.6886 0.6886
3866.000000 0.6885 0.6885 0.6884 0.6884 0.6883
3871.000000 0.6883 0.6882 0.6882 0.6881 0.6881
3876.000000 0.6880 0.6880 0.6879 0.6878 0.6877
3881.000000 0.6876 0.6875 0.6875 0.6874 0.6874
3886.000000 0.6873 0.6872 0.6872 0.6871 0.6870
3891.000000 0.6869 0.6868 0.6867 0.6867 0.6866
3896.000000 0.6865 0.6865 0.6864 0.6863 0.6863
3901.000000 0.6862 0.6861 0.6860 0.6859 0.6859
3906.000000 0.6858 0.6857 0.6856 0.6856 0.6855
3911.000000 0.6854 0.6854 0.6853 0.6852 0.6851
3916.000000 0.6851 0.6850 0.6849 0.6848 0.6847
3921.000000 0.6846 0.6846 0.6845 0.6844 0.6843
3926.000000 0.6843 0.6842 0.6841 0.6841 0.6840
3931.000000 0.6839 0.6839 0.6838 0.6837 0.6836
3936.000000 0.6835 0.6835 0.6834 0.6833 0.6833
3941.000000 0.6832 0.6831 0.6831 0.6830 0.6829
3946.000000 0.6828 0.6827 0.6827 0.6826 0.6825
3951.000000 0.6825 0.6824 0.6823 0.6823 0.6822
3956.000000 0.6821 0.6820 0.6820 0.6819 0.6818
3961.000000 0.6817 0.6816 0.6816 0.6815 0.6815
3966.000000 0.6814 0.6813 0.6813 0.6812 0.6811
3971.000000 0.6810 0.6810 0.6809 0.6808 0.6807
3976.000000 0.6807 0.6806 0.6805 0.6805 0.6804
3981.000000 0.6803 0.6803 0.6802 0.6801 0.6800
3986.000000 0.6799 0.6799 0.6798 0.6797 0.6796
3991.000000 0.6796 0.6795 0.6794 0.6793 0.6792
3996.000000 0.6792 0.6791 0.6790 0.6789 0.6789
##END=
