##TITLE=FORMIC ACID, THALLOUS SALT
$$ E. K. CO. (WHITE LABEL)
##JCAMP-DX=4.24
##DATA TYPE=INFRARED SPECTRUM
##CLASS=COBLENTZ
##ORIGIN=WYANDOTTE CHEMICALS CORP., WYANDOTTE, MICHIGAN, USA
##OWNER=COBLENTZ SOCIETY
Collection (C) 2018 copyright by the U.S. Secretary of Commerce
on behalf of the United States of America. All rights reserved.
##DATE=Not specified, most likely prior to 1970
##MOLFORM=C H O2 Tl
##SOURCE REFERENCE=COBLENTZ NO. 2893
##$NIST ID=B6002893
##$NIST SOURCE=COBLENTZ
##$NIST IMAGE=cob2893
##SPECTROMETER/DATA SYSTEM=Not specified, most likely a prism, grating, or hybrid spectrometer.
##STATE=SOLID (MINERAL OIL MULL)
##PATH LENGTH=
$$SPECTRAL CONTAMINATION DUE TO OIL AROUND 2900, 1450, 1380 CM^-^1
##SAMPLING PROCEDURE=TRANSMISSION
##RESOLUTION=4
##DATA PROCESSING=DIGITIZED BY NIST FROM HARD COPY
##XUNITS=MICROMETERS
##YUNITS=TRANSMITTANCE
##XFACTOR=1.000000
##YFACTOR=1
##DELTAX=000.006638
##FIRSTX=2.027
##LASTX=16.0002
##FIRSTY=0.686
##MAXX=16.0002
##MINX=2.027
##MAXY=0.93
##MINY=0.023
##NPOINTS=2106
##XYDATA=(X++(Y..Y))
2.027000 0.6860 0.6860 0.6860 0.6870 0.6870
2.060207 0.6870 0.6890 0.6890 0.6910 0.6910
2.093000 0.6910 0.6910 0.6910 0.6910 0.6910
2.126207 0.6920 0.6920 0.6920 0.6920 0.6920
2.159000 0.6920 0.6920 0.6920 0.6920 0.6910
2.192207 0.6860 0.6820 0.6790 0.6760 0.6720
2.226000 0.6670 0.6640 0.6620 0.6590 0.6560
2.259207 0.6540 0.6540 0.6520 0.6520 0.6520
2.292000 0.6540 0.6540 0.6570 0.6590 0.6590
2.325207 0.6590 0.6590 0.6590 0.6590 0.6570
2.358000 0.6560 0.6560 0.6560 0.6560 0.6570
2.391207 0.6570 0.6590 0.6590 0.6590 0.6610
2.425000 0.6620 0.6640 0.6660 0.6660 0.6670
2.458207 0.6670 0.6690 0.6710 0.6720 0.6740
2.491000 0.6760 0.6760 0.6770 0.6770 0.6770
2.524207 0.6770 0.6770 0.6770 0.6770 0.6770
2.558000 0.6790 0.6790 0.6790 0.6810 0.6820
2.591207 0.6820 0.6820 0.6820 0.6840 0.6840
2.624000 0.6840 0.6860 0.6860 0.6870 0.6870
2.657207 0.6890 0.6890 0.6910 0.6910 0.6920
2.690000 0.6940 0.6940 0.6940 0.6940 0.6940
2.723207 0.6940 0.6940 0.6940 0.6940 0.6940
2.757000 0.6940 0.6940 0.6940 0.6940 0.6920
2.790207 0.6920 0.6920 0.6910 0.6910 0.6890
2.823000 0.6890 0.6870 0.6870 0.6860 0.6860
2.856207 0.6860 0.6860 0.6860 0.6860 0.6860
2.890000 0.6860 0.6860 0.6860 0.6860 0.6840
2.923207 0.6840 0.6820 0.6820 0.6820 0.6810
2.956000 0.6790 0.6790 0.6770 0.6770 0.6760
2.989207 0.6760 0.6760 0.6740 0.6740 0.6740
3.022000 0.6760 0.6760 0.6760 0.6760 0.6760
3.055207 0.6760 0.6760 0.6760 0.6760 0.6760
3.089000 0.6760 0.6760 0.6760 0.6760 0.6760
3.122207 0.6760 0.6760 0.6760 0.6760 0.6740
3.155000 0.6740 0.6740 0.6740 0.6740 0.6740
3.188207 0.6740 0.6720 0.6720 0.6720 0.6710
3.221000 0.6690 0.6690 0.6670 0.6670 0.6640
3.254207 0.6640 0.6610 0.6560 0.6510 0.6490
3.288000 0.6460 0.6410 0.6370 0.6320 0.6220
3.321207 0.6040 0.5760 0.5310 0.4910 0.3930
3.354000 0.2770 0.0840 0.0240 0.0230 0.0230
3.387207 0.0230 0.0260 0.0310 0.0330 0.0330
3.421000 0.0330 0.0330 0.0340 0.0340 0.0380
3.454207 0.0390 0.0430 0.0430 0.0440 0.0440
3.487000 0.0440 0.0440 0.0430 0.0430 0.0430
3.520207 0.0460 0.0810 0.1160 0.1620 0.2190
3.553000 0.2720 0.3180 0.3480 0.3730 0.3780
3.586207 0.3800 0.3780 0.3570 0.3550 0.3550
3.620000 0.3550 0.3570 0.3600 0.3650 0.3720
3.653207 0.3800 0.3830 0.3850 0.3900 0.3920
3.686000 0.3920 0.3930 0.3950 0.3980 0.4000
3.719207 0.4030 0.4030 0.4050 0.4050 0.4000
3.752000 0.3980 0.3980 0.4000 0.4030 0.4050
3.785207 0.4100 0.4130 0.4200 0.4250 0.4280
3.819000 0.4280 0.4300 0.4300 0.4310 0.4330
3.852207 0.4350 0.4380 0.4400 0.4410 0.4450
3.885000 0.4500 0.4510 0.4530 0.4560 0.4600
3.918207 0.4600 0.4610 0.4630 0.4650 0.4660
3.952000 0.4660 0.4680 0.4680 0.4700 0.4700
3.985207 0.4710 0.4750 0.4780 0.4800 0.4810
4.018000 0.4830 0.4850 0.4860 0.4860 0.4880
4.051207 0.4880 0.4880 0.4900 0.4900 0.4910
4.084000 0.4910 0.4910 0.4950 0.4960 0.4980
4.117207 0.5000 0.5000 0.5000 0.5000 0.5010
4.151000 0.5010 0.5010 0.5010 0.5030 0.5030
4.184207 0.5040 0.5040 0.5060 0.5060 0.5080
4.217000 0.5080 0.5080 0.5090 0.5090 0.5110
4.250207 0.5110 0.5130 0.5140 0.5140 0.5160
4.284000 0.5160 0.5180 0.5190 0.5210 0.5230
4.317207 0.5240 0.5280 0.5280 0.5280 0.5290
4.350000 0.5290 0.5290 0.5310 0.5310 0.5310
4.383207 0.5310 0.5330 0.5340 0.5380 0.5390
4.416000 0.5390 0.5390 0.5390 0.5410 0.5410
4.449207 0.5410 0.5430 0.5430 0.5430 0.5440
4.483000 0.5460 0.5480 0.5490 0.5510 0.5540
4.516207 0.5560 0.5590 0.5610 0.5610 0.5630
4.549000 0.5630 0.5640 0.5640 0.5660 0.5660
4.582207 0.5680 0.5680 0.5710 0.5730 0.5730
4.615000 0.5730 0.5740 0.5760 0.5760 0.5760
4.648207 0.5780 0.5780 0.5780 0.5790 0.5810
4.682000 0.5830 0.5880 0.5890 0.5910 0.5930
4.715207 0.5980 0.5990 0.5990 0.6010 0.6010
4.748000 0.6020 0.6020 0.6040 0.6040 0.6070
4.781207 0.6070 0.6090 0.6110 0.6140 0.6160
4.815000 0.6190 0.6210 0.6220 0.6240 0.6270
4.848207 0.6290 0.6290 0.6310 0.6310 0.6310
4.881000 0.6320 0.6320 0.6320 0.6340 0.6340
4.914207 0.6370 0.6390 0.6410 0.6420 0.6440
4.947000 0.6460 0.6460 0.6460 0.6470 0.6470
4.980207 0.6490 0.6490 0.6510 0.6510 0.6520
5.014000 0.6560 0.6590 0.6610 0.6640 0.6660
5.047207 0.6670 0.6670 0.6690 0.6690 0.6690
5.080000 0.6690 0.6690 0.6720 0.6760 0.6790
5.113207 0.6860 0.6910 0.6940 0.6960 0.6970
5.147000 0.6990 0.6990 0.6990 0.7000 0.7020
5.180207 0.7020 0.7050 0.7090 0.7140 0.7170
5.213000 0.7190 0.7190 0.7190 0.7200 0.7220
5.246207 0.7250 0.7290 0.7320 0.7350 0.7390
5.279000 0.7400 0.7440 0.7470 0.7500 0.7500
5.312207 0.7520 0.7520 0.7540 0.7550 0.7590
5.346000 0.7620 0.7690 0.7690 0.7700 0.7740
5.379207 0.7750 0.7790 0.7800 0.7840 0.7870
5.412000 0.7900 0.7940 0.7950 0.7990 0.8000
5.445207 0.8020 0.8020 0.8030 0.8050 0.8070
5.478000 0.8100 0.8150 0.8200 0.8230 0.8270
5.511207 0.8300 0.8320 0.8370 0.8400 0.8430
5.545000 0.8450 0.8480 0.8520 0.8550 0.8580
5.578207 0.8600 0.8620 0.8630 0.8630 0.8670
5.611000 0.8680 0.8730 0.8780 0.8820 0.8830
5.644207 0.8870 0.8900 0.8920 0.8930 0.8970
5.678000 0.9000 0.9050 0.9110 0.9130 0.9150
5.711207 0.9150 0.9150 0.9160 0.9180 0.9200
5.744000 0.9200 0.9200 0.9230 0.9250 0.9250
5.777207 0.9260 0.9300 0.9300 0.9300 0.9300
5.810000 0.9300 0.9260 0.9230 0.9230 0.9210
5.843207 0.9210 0.9200 0.9200 0.9160 0.9130
5.877000 0.9130 0.9110 0.9110 0.9110 0.9110
5.910207 0.9110 0.9100 0.9060 0.8950 0.8880
5.943000 0.8870 0.8830 0.8770 0.8680 0.8600
5.976207 0.8520 0.8430 0.8330 0.8230 0.8100
6.009000 0.7940 0.7750 0.7520 0.7390 0.7290
6.042207 0.7120 0.6960 0.6820 0.6660 0.6510
6.076000 0.6360 0.6270 0.6160 0.6010 0.5860
6.109207 0.5710 0.5540 0.5410 0.5290 0.5210
6.142000 0.5030 0.4910 0.4760 0.4630 0.4480
6.175207 0.4330 0.4200 0.4060 0.3920 0.3800
6.209000 0.3680 0.3570 0.3450 0.3370 0.3320
6.242207 0.3250 0.3170 0.3130 0.3130 0.3100
6.275000 0.3070 0.3020 0.3000 0.2990 0.2970
6.308207 0.2940 0.2920 0.2890 0.2900 0.2890
6.341000 0.2850 0.2840 0.2820 0.2820 0.2800
6.374207 0.2790 0.2790 0.2740 0.2690 0.2640
6.408000 0.2570 0.2570 0.2540 0.2540 0.2540
6.441207 0.2550 0.2570 0.2570 0.2540 0.2540
6.474000 0.2500 0.2470 0.2440 0.2420 0.2400
6.507207 0.2390 0.2390 0.2390 0.2400 0.2420
6.541000 0.2420 0.2400 0.2400 0.2390 0.2350
6.574207 0.2350 0.2350 0.2340 0.2320 0.2300
6.607000 0.2300 0.2320 0.2320 0.2320 0.2320
6.640207 0.2290 0.2270 0.2250 0.2240 0.2240
6.673000 0.2220 0.2220 0.2200 0.2190 0.2170
6.706207 0.2120 0.2100 0.2070 0.2040 0.2020
6.740000 0.1920 0.1870 0.1790 0.1610 0.1440
6.773207 0.1140 0.0940 0.0890 0.0830 0.0790
6.806000 0.0790 0.0810 0.0810 0.0840 0.0860
6.839207 0.0890 0.0930 0.0960 0.1020 0.1070
6.872000 0.1120 0.1170 0.1270 0.1370 0.1470
6.905207 0.1570 0.1690 0.1820 0.1940 0.2050
6.939000 0.2190 0.2320 0.2450 0.2570 0.2700
6.972207 0.2820 0.2950 0.3050 0.3150 0.3250
7.005000 0.3320 0.3380 0.3420 0.3470 0.3500
7.038207 0.3530 0.3570 0.3630 0.3720 0.3770
7.072000 0.3820 0.3820 0.3870 0.3950 0.4010
7.105207 0.4030 0.4060 0.4110 0.4160 0.4210
7.138000 0.4280 0.4330 0.4360 0.4400 0.4410
7.171207 0.4430 0.4450 0.4410 0.4350 0.4230
7.204000 0.4060 0.3870 0.3570 0.3400 0.3350
7.237207 0.3030 0.2900 0.2850 0.2840 0.2850
7.271000 0.3000 0.3170 0.3400 0.3530 0.3800
7.304207 0.3830 0.3830 0.3800 0.3670 0.3570
7.337000 0.3430 0.3250 0.3050 0.2840 0.2640
7.370207 0.2500 0.2390 0.2290 0.2220 0.2190
7.404000 0.2150 0.2140 0.2140 0.2170 0.2170
7.437207 0.2200 0.2200 0.2200 0.2170 0.2140
7.470000 0.2100 0.2070 0.2040 0.2000 0.1960
7.503207 0.1940 0.1920 0.1920 0.1940 0.1960
7.536000 0.1990 0.2020 0.2040 0.2090 0.2120
7.569207 0.2140 0.2150 0.2170 0.2200 0.2250
7.603000 0.2250 0.2290 0.2290 0.2300 0.2300
7.636207 0.2350 0.2370 0.2390 0.2420 0.2450
7.669000 0.2470 0.2490 0.2490 0.2500 0.2540
7.702207 0.2590 0.2640 0.2650 0.2690 0.2700
7.735000 0.2720 0.2740 0.2800 0.2840 0.2850
7.768207 0.2870 0.2900 0.2920 0.2940 0.2950
7.802000 0.2950 0.2990 0.3000 0.3020 0.3030
7.835207 0.3070 0.3080 0.3120 0.3130 0.3130
7.868000 0.3180 0.3200 0.3220 0.3230 0.3270
7.901207 0.3300 0.3300 0.3320 0.3330 0.3330
7.935000 0.3370 0.3400 0.3420 0.3430 0.3470
7.968207 0.3500 0.3500 0.3520 0.3530 0.3530
8.001000 0.3550 0.3550 0.3600 0.3620 0.3620
8.034207 0.3620 0.3630 0.3630 0.3670 0.3700
8.067000 0.3720 0.3730 0.3730 0.3780 0.3800
8.100207 0.3800 0.3820 0.3820 0.3830 0.3850
8.134000 0.3870 0.3880 0.3880 0.3880 0.3900
8.167207 0.3920 0.3920 0.3930 0.3950 0.3970
8.200000 0.3970 0.3980 0.4000 0.4010 0.4010
8.233207 0.4030 0.4050 0.4050 0.4060 0.4080
8.266000 0.4080 0.4100 0.4110 0.4130 0.4130
8.299207 0.4160 0.4160 0.4200 0.4210 0.4230
8.333000 0.4280 0.4300 0.4300 0.4300 0.4300
8.366207 0.4300 0.4310 0.4310 0.4310 0.4310
8.399000 0.4330 0.4360 0.4380 0.4400 0.4410
8.432207 0.4410 0.4410 0.4430 0.4430 0.4450
8.466000 0.4450 0.4460 0.4480 0.4480 0.4480
8.499207 0.4480 0.4480 0.4500 0.4500 0.4510
8.532000 0.4510 0.4510 0.4530 0.4530 0.4550
8.565207 0.4550 0.4560 0.4560 0.4580 0.4580
8.598000 0.4580 0.4600 0.4610 0.4630 0.4650
8.631207 0.4660 0.4660 0.4680 0.4700 0.4710
8.665000 0.4730 0.4750 0.4760 0.4760 0.4800
8.698207 0.4830 0.4880 0.4900 0.4930 0.4960
8.731000 0.4980 0.5000 0.5010 0.5010 0.5030
8.764207 0.5030 0.5060 0.5060 0.5110 0.5130
8.798000 0.5130 0.5140 0.5140 0.5140 0.5160
8.831207 0.5160 0.5180 0.5180 0.5190 0.5210
8.864000 0.5210 0.5230 0.5230 0.5240 0.5260
8.897207 0.5260 0.5260 0.5260 0.5280 0.5280
8.930000 0.5280 0.5290 0.5290 0.5290 0.5290
8.963207 0.5310 0.5310 0.5330 0.5340 0.5340
8.997000 0.5360 0.5380 0.5390 0.5410 0.5430
9.030207 0.5440 0.5460 0.5460 0.5460 0.5480
9.063000 0.5480 0.5480 0.5480 0.5480 0.5480
9.096207 0.5480 0.5480 0.5460 0.5460 0.5460
9.129000 0.5460 0.5480 0.5490 0.5490 0.5510
9.162207 0.5510 0.5530 0.5540 0.5540 0.5540
9.196000 0.5530 0.5530 0.5530 0.5530 0.5530
9.229207 0.5530 0.5530 0.5530 0.5530 0.5530
9.262000 0.5540 0.5540 0.5540 0.5540 0.5540
9.295207 0.5540 0.5540 0.5560 0.5560 0.5560
9.329000 0.5580 0.5580 0.5590 0.5590 0.5590
9.362207 0.5610 0.5610 0.5610 0.5630 0.5630
9.395000 0.5630 0.5640 0.5660 0.5660 0.5660
9.428207 0.5660 0.5660 0.5640 0.5590 0.5560
9.461000 0.5530 0.5510 0.5510 0.5530 0.5580
9.494207 0.5610 0.5660 0.5690 0.5710 0.5730
9.528000 0.5730 0.5730 0.5740 0.5740 0.5740
9.561207 0.5740 0.5760 0.5760 0.5760 0.5780
9.594000 0.5780 0.5780 0.5790 0.5790 0.5810
9.627207 0.5810 0.5810 0.5810 0.5830 0.5830
9.661000 0.5830 0.5840 0.5840 0.5860 0.5860
9.694207 0.5880 0.5880 0.5890 0.5890 0.5910
9.727000 0.5910 0.5930 0.5930 0.5940 0.5960
9.760207 0.5960 0.5960 0.5960 0.5980 0.5980
9.793000 0.5980 0.5980 0.5980 0.5990 0.5990
9.826207 0.5990 0.6010 0.6010 0.6010 0.6020
9.860000 0.6040 0.6040 0.6060 0.6060 0.6070
9.893207 0.6090 0.6110 0.6110 0.6120 0.6120
9.926000 0.6140 0.6160 0.6170 0.6170 0.6190
9.959207 0.6190 0.6210 0.6210 0.6220 0.6240
9.992000 0.6260 0.6270 0.6290 0.6310 0.6310
10.025207 0.6310 0.6310 0.6310 0.6310 0.6310
10.059000 0.6310 0.6310 0.6320 0.6340 0.6360
10.092207 0.6360 0.6360 0.6360 0.6360 0.6360
10.125000 0.6360 0.6360 0.6360 0.6360 0.6360
10.158207 0.6360 0.6360 0.6360 0.6360 0.6360
10.192000 0.6360 0.6360 0.6360 0.6360 0.6360
10.225207 0.6360 0.6360 0.6360 0.6340 0.6340
10.258000 0.6340 0.6340 0.6340 0.6360 0.6360
10.291207 0.6360 0.6370 0.6370 0.6370 0.6390
10.324000 0.6390 0.6390 0.6390 0.6390 0.6410
10.357207 0.6410 0.6410 0.6410 0.6410 0.6440
10.391000 0.6460 0.6470 0.6470 0.6490 0.6490
10.424207 0.6510 0.6510 0.6520 0.6520 0.6520
10.457000 0.6520 0.6540 0.6540 0.6540 0.6540
10.490207 0.6560 0.6560 0.6560 0.6560 0.6560
10.523000 0.6570 0.6570 0.6610 0.6620 0.6640
10.556207 0.6640 0.6640 0.6640 0.6620 0.6620
10.590000 0.6620 0.6620 0.6640 0.6660 0.6660
10.623207 0.6670 0.6670 0.6670 0.6690 0.6690
10.656000 0.6710 0.6710 0.6710 0.6710 0.6710
10.689207 0.6720 0.6720 0.6720 0.6720 0.6720
10.723000 0.6720 0.6720 0.6720 0.6740 0.6740
10.756207 0.6760 0.6760 0.6770 0.6770 0.6790
10.789000 0.6790 0.6810 0.6820 0.6840 0.6860
10.822207 0.6870 0.6890 0.6910 0.6910 0.6910
10.855000 0.6910 0.6920 0.6920 0.6920 0.6920
10.888207 0.6920 0.6920 0.6940 0.6940 0.6940
10.922000 0.6940 0.6940 0.6960 0.6960 0.6970
10.955207 0.6990 0.6990 0.7000 0.7000 0.7020
10.988000 0.7020 0.7040 0.7040 0.7050 0.7070
11.021207 0.7070 0.7090 0.7090 0.7090 0.7100
11.055000 0.7100 0.7120 0.7140 0.7150 0.7190
11.088207 0.7190 0.7190 0.7190 0.7200 0.7200
11.121000 0.7200 0.7200 0.7220 0.7220 0.7220
11.154207 0.7220 0.7220 0.7220 0.7220 0.7220
11.187000 0.7240 0.7240 0.7250 0.7250 0.7270
11.220207 0.7270 0.7270 0.7270 0.7270 0.7270
11.254000 0.7270 0.7270 0.7290 0.7290 0.7300
11.287207 0.7300 0.7320 0.7320 0.7340 0.7340
11.320000 0.7350 0.7350 0.7350 0.7370 0.7370
11.353207 0.7390 0.7390 0.7400 0.7400 0.7420
11.386000 0.7420 0.7420 0.7440 0.7440 0.7440
11.419207 0.7450 0.7450 0.7450 0.7470 0.7490
11.453000 0.7490 0.7500 0.7500 0.7500 0.7500
11.486207 0.7500 0.7520 0.7520 0.7520 0.7520
11.519000 0.7540 0.7550 0.7550 0.7570 0.7570
11.552207 0.7590 0.7590 0.7590 0.7590 0.7600
11.586000 0.7600 0.7600 0.7620 0.7640 0.7650
11.619207 0.7650 0.7650 0.7650 0.7650 0.7650
11.652000 0.7650 0.7650 0.7650 0.7650 0.7650
11.685207 0.7670 0.7690 0.7690 0.7690 0.7670
11.718000 0.7670 0.7690 0.7700 0.7700 0.7700
11.751207 0.7700 0.7700 0.7700 0.7720 0.7720
11.785000 0.7740 0.7740 0.7740 0.7750 0.7750
11.818207 0.7750 0.7750 0.7750 0.7750 0.7750
11.851000 0.7750 0.7750 0.7750 0.7770 0.7770
11.884207 0.7770 0.7790 0.7800 0.7800 0.7820
11.917000 0.7820 0.7820 0.7840 0.7850 0.7870
11.950207 0.7890 0.7900 0.7920 0.7920 0.7920
11.984000 0.7940 0.7940 0.7950 0.7970 0.7970
12.017207 0.7990 0.7990 0.8000 0.8000 0.8020
12.050000 0.8020 0.8030 0.8030 0.8050 0.8050
12.083207 0.8050 0.8070 0.8070 0.8070 0.8080
12.117000 0.8080 0.8080 0.8100 0.8100 0.8100
12.150207 0.8120 0.8120 0.8120 0.8120 0.8120
12.183000 0.8130 0.8130 0.8130 0.8130 0.8150
12.216207 0.8150 0.8150 0.8170 0.8170 0.8170
12.249000 0.8180 0.8200 0.8200 0.8200 0.8200
12.282207 0.8200 0.8200 0.8200 0.8220 0.8220
12.316000 0.8230 0.8230 0.8230 0.8230 0.8230
12.349207 0.8250 0.8250 0.8250 0.8250 0.8270
12.382000 0.8280 0.8280 0.8280 0.8300 0.8300
12.415207 0.8320 0.8330 0.8330 0.8330 0.8350
12.449000 0.8350 0.8350 0.8370 0.8370 0.8380
12.482207 0.8380 0.8400 0.8430 0.8430 0.8450
12.515000 0.8450 0.8470 0.8470 0.8480 0.8480
12.548207 0.8500 0.8520 0.8520 0.8530 0.8550
12.581000 0.8570 0.8580 0.8580 0.8580 0.8580
12.614207 0.8580 0.8580 0.8600 0.8600 0.8600
12.648000 0.8600 0.8600 0.8620 0.8630 0.8630
12.681207 0.8670 0.8680 0.8700 0.8700 0.8700
12.714000 0.8700 0.8720 0.8720 0.8720 0.8720
12.747207 0.8720 0.8720 0.8720 0.8720 0.8720
12.780000 0.8720 0.8720 0.8720 0.8720 0.8720
12.813207 0.8700 0.8700 0.8670 0.8670 0.8650
12.847000 0.8620 0.8580 0.8480 0.8470 0.8370
12.880207 0.8270 0.8200 0.8070 0.7990 0.7890
12.913000 0.7770 0.7650 0.7540 0.7450 0.7370
12.946207 0.7300 0.7270 0.7270 0.7290 0.7300
12.980000 0.7340 0.7350 0.7390 0.7400 0.7420
13.013207 0.7420 0.7420 0.7390 0.7270 0.7150
13.046000 0.7000 0.6820 0.6610 0.6390 0.6140
13.079207 0.5890 0.5610 0.5340 0.5060 0.4800
13.112000 0.4510 0.4300 0.4060 0.3870 0.3670
13.145207 0.3520 0.3380 0.3270 0.3170 0.3100
13.179000 0.3030 0.2990 0.2970 0.2970 0.2970
13.212207 0.2990 0.3030 0.3120 0.3200 0.3300
13.245000 0.3470 0.3650 0.3780 0.3900 0.4010
13.278207 0.4130 0.4230 0.4350 0.4430 0.4510
13.312000 0.4610 0.4710 0.4800 0.4900 0.5000
13.345207 0.5090 0.5160 0.5230 0.5290 0.5390
13.378000 0.5480 0.5540 0.5630 0.5680 0.5730
13.411207 0.5790 0.5840 0.5880 0.5890 0.5930
13.444000 0.5940 0.5980 0.6010 0.6020 0.6040
13.477207 0.6070 0.6110 0.6140 0.6160 0.6170
13.511000 0.6170 0.6190 0.6210 0.6240 0.6290
13.544207 0.6290 0.6320 0.6340 0.6370 0.6390
13.577000 0.6420 0.6440 0.6460 0.6490 0.6490
13.610207 0.6510 0.6540 0.6590 0.6590 0.6610
13.643000 0.6620 0.6640 0.6660 0.6670 0.6690
13.676207 0.6710 0.6740 0.6790 0.6810 0.6820
13.710000 0.6840 0.6840 0.6840 0.6890 0.6890
13.743207 0.6910 0.6940 0.6940 0.6960 0.6960
13.776000 0.6970 0.6970 0.6990 0.6990 0.6990
13.809207 0.7000 0.7020 0.7050 0.7070 0.7070
13.843000 0.7090 0.7090 0.7090 0.7100 0.7100
13.876207 0.7120 0.7120 0.7120 0.7150 0.7190
13.909000 0.7200 0.7200 0.7220 0.7220 0.7240
13.942207 0.7270 0.7290 0.7300 0.7350 0.7390
13.975000 0.7420 0.7440 0.7450 0.7470 0.7500
14.008207 0.7540 0.7570 0.7590 0.7600 0.7620
14.042000 0.7650 0.7670 0.7690 0.7690 0.7700
14.075207 0.7700 0.7720 0.7770 0.7820 0.7820
14.108000 0.7840 0.7840 0.7840 0.7840 0.7840
14.141207 0.7850 0.7890 0.7890 0.7900 0.7900
14.174000 0.7920 0.7920 0.7940 0.7970 0.7970
14.207207 0.7990 0.8000 0.8020 0.8020 0.8020
14.241000 0.8030 0.8030 0.8030 0.8030 0.8030
14.274207 0.8030 0.8030 0.8030 0.8050 0.8050
14.307000 0.8050 0.8070 0.8070 0.8070 0.8080
14.340207 0.8080 0.8100 0.8120 0.8120 0.8130
14.374000 0.8150 0.8150 0.8150 0.8130 0.8120
14.407207 0.8100 0.8100 0.8120 0.8120 0.8120
14.440000 0.8120 0.8130 0.8130 0.8130 0.8120
14.473207 0.8120 0.8120 0.8120 0.8120 0.8120
14.506000 0.8120 0.8120 0.8120 0.8100 0.8100
14.539207 0.8100 0.8100 0.8100 0.8120 0.8120
14.573000 0.8120 0.8120 0.8120 0.8120 0.8120
14.606207 0.8120 0.8130 0.8130 0.8130 0.8130
14.639000 0.8130 0.8130 0.8130 0.8130 0.8120
14.672207 0.8120 0.8120 0.8120 0.8120 0.8120
14.706000 0.8100 0.8100 0.8100 0.8100 0.8080
14.739207 0.8080 0.8080 0.8050 0.8050 0.8030
14.772000 0.8030 0.8030 0.8030 0.8020 0.8020
14.805207 0.8020 0.8020 0.8020 0.8020 0.8020
14.838000 0.8020 0.8020 0.8000 0.8000 0.8000
14.871207 0.8000 0.7990 0.7990 0.7990 0.7990
14.905000 0.7970 0.7970 0.7970 0.7970 0.7970
14.938207 0.7970 0.7970 0.7970 0.7950 0.7950
14.971000 0.7940 0.7920 0.7890 0.7840 0.7820
15.004207 0.7790 0.7740 0.7690 0.7600 0.7540
15.037000 0.7470 0.7390 0.7320 0.7270 0.7220
15.070207 0.7190 0.7170 0.7170 0.7190 0.7200
15.104000 0.7220 0.7250 0.7300 0.7390 0.7450
15.137207 0.7540 0.7600 0.7670 0.7700 0.7720
15.170000 0.7740 0.7750 0.7770 0.7770 0.7770
15.203207 0.7770 0.7750 0.7750 0.7740 0.7720
15.237000 0.7690 0.7650 0.7650 0.7650 0.7640
15.270207 0.7620 0.7590 0.7590 0.7550 0.7500
15.303000 0.7470 0.7440 0.7420 0.7420 0.7400
15.336207 0.7390 0.7390 0.7370 0.7350 0.7340
15.369000 0.7320 0.7300 0.7290 0.7270 0.7250
15.402207 0.7240 0.7220 0.7200 0.7190 0.7190
15.436000 0.7170 0.7170 0.7150 0.7140 0.7120
15.469207 0.7100 0.7090 0.7070 0.7050 0.7040
15.502000 0.7040 0.7020 0.7000 0.6990 0.6970
15.535207 0.6940 0.6920 0.6910 0.6890 0.6870
15.569000 0.6860 0.6860 0.6840 0.6840 0.6820
15.602207 0.6820 0.6820 0.6820 0.6820 0.6820
15.635000 0.6820 0.6810 0.6810 0.6790 0.6770
15.668207 0.6770 0.6760 0.6740 0.6740 0.6720
15.701000 0.6710 0.6690 0.6670 0.6640 0.6620
15.734207 0.6590 0.6570 0.6560 0.6520 0.6520
15.768000 0.6510 0.6510 0.6490 0.6460 0.6460
15.801207 0.6420 0.6390 0.6360 0.6340 0.6310
15.834000 0.6290 0.6260 0.6240 0.6240 0.6220
15.867207 0.6210 0.6210 0.6190 0.6170 0.6160
15.900000 0.6120 0.6110 0.6090 0.6070 0.6060
15.933207 0.6020 0.6020 0.6010 0.5990 0.5980
15.967000 0.5960 0.5930 0.5930 0.5910 0.5930
16.000207 0.5930
##END=
