##TITLE=2-NONADECANONE-1-OL, ACETATE
##JCAMP-DX=4.24
##DATA TYPE=INFRARED SPECTRUM
##CLASS=COBLENTZ
##ORIGIN=HORMEL INSTITUTE
##OWNER=COBLENTZ SOCIETY
Collection (C) 2018 copyright by the U.S. Secretary of Commerce
on behalf of the United States of America. All rights reserved.
##DATE=Not specified, most likely prior to 1970
##NAMES=2-oxononadecyl acetate
##MOLFORM=C21 H40 O3
##MP=69.5-70.5 C
##SOURCE REFERENCE=COBLENTZ NO. 2029
##$NIST ID=B6002029
##$NIST SOURCE=COBLENTZ
##$NIST IMAGE=cob2029
##SPECTROMETER/DATA SYSTEM=PERKIN-ELMER
##STATE=SOLID (KBr PELLET)
##SAMPLING PROCEDURE=TRANSMISSION
##RESOLUTION=4
##DATA PROCESSING=DIGITIZED BY NIST FROM HARD COPY
##XUNITS=MICROMETERS
##YUNITS=TRANSMITTANCE
##XFACTOR=1.000000
##YFACTOR=1
##DELTAX=000.006767
##FIRSTX=2.02
##LASTX=15.0749
##FIRSTY=0.896
##MAXX=15.0749
##MINX=2.02
##MAXY=0.917
##MINY=0.033
##NPOINTS=1930
##XYDATA=(X++(Y..Y))
2.020000 0.8960 0.8960 0.8980 0.8980 0.8980
2.053854 0.8980 0.8980 0.8980 0.8980 0.8980
2.088000 0.8980 0.8980 0.8980 0.8980 0.8980
2.121854 0.8980 0.8980 0.8980 0.8980 0.8980
2.156000 0.8980 0.8980 0.8980 0.8980 0.8980
2.189854 0.8980 0.8980 0.8980 0.8980 0.8980
2.223000 0.8980 0.8980 0.8980 0.9000 0.8980
2.256854 0.8980 0.8980 0.8980 0.8960 0.8980
2.291000 0.8910 0.8860 0.8830 0.8810 0.8810
2.324854 0.8810 0.8810 0.8830 0.8830 0.8840
2.359000 0.8840 0.8830 0.8830 0.8830 0.8830
2.392854 0.8830 0.8790 0.8790 0.8790 0.8780
2.426000 0.8780 0.8780 0.8780 0.8790 0.8810
2.459854 0.8830 0.8830 0.8880 0.8880 0.8880
2.494000 0.8900 0.8900 0.8900 0.8900 0.8900
2.527854 0.8900 0.8910 0.8930 0.8930 0.8930
2.562000 0.8900 0.8900 0.8900 0.8900 0.8900
2.595854 0.8910 0.8930 0.8950 0.8950 0.8950
2.629000 0.8950 0.8960 0.8960 0.8930 0.8930
2.662854 0.8910 0.8900 0.8900 0.8880 0.8880
2.697000 0.8880 0.8900 0.8880 0.8880 0.8880
2.730854 0.8840 0.8830 0.8780 0.8710 0.8640
2.765000 0.8560 0.8490 0.8460 0.8340 0.8220
2.798854 0.8100 0.8020 0.7910 0.7850 0.7740
2.832000 0.7690 0.7660 0.7560 0.7470 0.7460
2.865854 0.7340 0.7290 0.7270 0.7200 0.7140
2.900000 0.7100 0.7030 0.7000 0.7000 0.7000
2.933854 0.7030 0.7070 0.7140 0.7220 0.7250
2.968000 0.7390 0.7460 0.7540 0.7610 0.7690
3.001854 0.7780 0.7860 0.7950 0.8020 0.8050
3.035000 0.8100 0.8180 0.8220 0.8250 0.8270
3.068854 0.8290 0.8320 0.8350 0.8390 0.8440
3.103000 0.8470 0.8490 0.8490 0.8490 0.8510
3.136854 0.8540 0.8590 0.8610 0.8610 0.8610
3.171000 0.8610 0.8610 0.8610 0.8610 0.8590
3.204854 0.8590 0.8560 0.8540 0.8520 0.8510
3.238000 0.8510 0.8490 0.8470 0.8460 0.8440
3.271854 0.8420 0.8400 0.8370 0.8320 0.8290
3.306000 0.8220 0.8180 0.8070 0.7880 0.7690
3.339854 0.7660 0.7490 0.7240 0.6640 0.5610
3.374000 0.5040 0.4140 0.3620 0.3020 0.2140
3.407854 0.1380 0.1010 0.0990 0.1010 0.1520
3.441000 0.2030 0.2550 0.2800 0.4020 0.4190
3.474854 0.4190 0.3510 0.2790 0.2450 0.2330
3.509000 0.2430 0.4550 0.6310 0.6930 0.7070
3.542854 0.7300 0.7590 0.7780 0.7900 0.7980
3.577000 0.8070 0.8170 0.8250 0.8350 0.8420
3.610854 0.8490 0.8490 0.8540 0.8570 0.8590
3.644000 0.8590 0.8590 0.8610 0.8610 0.8620
3.677854 0.8640 0.8690 0.8710 0.8740 0.8790
3.712000 0.8790 0.8810 0.8830 0.8830 0.8830
3.745854 0.8830 0.8840 0.8840 0.8840 0.8840
3.780000 0.8840 0.8840 0.8840 0.8840 0.8860
3.813854 0.8860 0.8860 0.8880 0.8880 0.8900
3.847000 0.8900 0.8910 0.8900 0.8900 0.8910
3.880854 0.8910 0.8950 0.8950 0.8950 0.8950
3.915000 0.8950 0.8960 0.8960 0.8960 0.8960
3.948854 0.8980 0.8980 0.8980 0.8980 0.9000
3.983000 0.9000 0.9000 0.9000 0.9000 0.9000
4.016854 0.9000 0.9000 0.9000 0.9000 0.9000
4.050000 0.9000 0.9000 0.9000 0.9000 0.9000
4.083854 0.9000 0.9000 0.9000 0.9000 0.9000
4.118000 0.9000 0.9000 0.9000 0.9010 0.9010
4.151854 0.9010 0.9010 0.9010 0.9010 0.9010
4.186000 0.9010 0.9010 0.9010 0.9010 0.9010
4.219854 0.9010 0.9010 0.9010 0.9010 0.9010
4.254000 0.9010 0.9010 0.9010 0.9010 0.9010
4.287854 0.9010 0.9010 0.9010 0.9010 0.9010
4.321000 0.9010 0.9010 0.9010 0.9010 0.9010
4.354854 0.9010 0.9010 0.9010 0.9010 0.9010
4.389000 0.9010 0.9010 0.9010 0.9010 0.9010
4.422854 0.9010 0.9010 0.9000 0.9000 0.9000
4.457000 0.9000 0.9000 0.9000 0.9000 0.9000
4.490854 0.9000 0.9000 0.9000 0.9000 0.9000
4.524000 0.9000 0.9000 0.9000 0.9000 0.9000
4.557854 0.9000 0.9000 0.9000 0.9000 0.9000
4.592000 0.9000 0.9000 0.9000 0.9000 0.9000
4.625854 0.9000 0.9000 0.9000 0.9000 0.9000
4.660000 0.8980 0.8980 0.8980 0.8960 0.8960
4.693854 0.8960 0.8960 0.8950 0.8950 0.8950
4.727000 0.8930 0.8930 0.8910 0.8900 0.8900
4.760854 0.8900 0.8900 0.8880 0.8880 0.8880
4.795000 0.8860 0.8860 0.8860 0.8840 0.8860
4.828854 0.8860 0.8860 0.8860 0.8860 0.8860
4.863000 0.8880 0.8880 0.8880 0.8880 0.8880
4.896854 0.8880 0.8880 0.8880 0.8880 0.8900
4.930000 0.8880 0.8880 0.8880 0.8880 0.8900
4.963854 0.8900 0.8910 0.8910 0.8910 0.8930
4.998000 0.8950 0.8950 0.8950 0.8960 0.8960
5.031854 0.8960 0.8960 0.8980 0.8980 0.8980
5.066000 0.8980 0.9000 0.9000 0.9000 0.9000
5.099854 0.9000 0.9000 0.9000 0.9000 0.9000
5.133000 0.9000 0.9000 0.8980 0.8980 0.8980
5.166854 0.8980 0.8980 0.8980 0.8980 0.8960
5.201000 0.8960 0.8960 0.8960 0.8960 0.8950
5.234854 0.8950 0.8950 0.8930 0.8930 0.8930
5.269000 0.8930 0.8930 0.8910 0.8910 0.8930
5.302854 0.8930 0.8950 0.8950 0.8930 0.8930
5.336000 0.8930 0.8910 0.8910 0.8910 0.8900
5.369854 0.8900 0.8900 0.8900 0.8900 0.8880
5.404000 0.8880 0.8860 0.8860 0.8840 0.8840
5.437854 0.8830 0.8830 0.8830 0.8810 0.8790
5.472000 0.8790 0.8780 0.8780 0.8760 0.8730
5.505854 0.8730 0.8710 0.8690 0.8660 0.8640
5.539000 0.8610 0.8590 0.8590 0.8560 0.8540
5.572854 0.8520 0.8510 0.8440 0.8350 0.8300
5.607000 0.8250 0.8120 0.8020 0.7900 0.7800
5.640854 0.7320 0.6730 0.5800 0.5140 0.4210
5.675000 0.3670 0.3060 0.2520 0.1810 0.1300
5.708854 0.1210 0.1260 0.2400 0.3040 0.3580
5.742000 0.3850 0.3850 0.3620 0.3090 0.2600
5.775854 0.1790 0.1370 0.1030 0.0960 0.0960
5.810000 0.2910 0.3900 0.5090 0.5900 0.6290
5.843854 0.6440 0.7000 0.7170 0.7290 0.7390
5.878000 0.7510 0.7660 0.7730 0.7780 0.7810
5.911854 0.7810 0.7830 0.8000 0.8050 0.8130
5.945000 0.8290 0.8340 0.8390 0.8390 0.8420
5.978854 0.8420 0.8420 0.8400 0.8400 0.8400
6.013000 0.8390 0.8390 0.8320 0.8320 0.8290
6.046854 0.8250 0.8220 0.8200 0.8180 0.8130
6.081000 0.8120 0.8130 0.8130 0.8150 0.8170
6.114854 0.8170 0.8180 0.8200 0.8220 0.8250
6.148000 0.8290 0.8300 0.8300 0.8320 0.8340
6.181854 0.8370 0.8400 0.8440 0.8470 0.8490
6.216000 0.8560 0.8570 0.8590 0.8590 0.8640
6.249854 0.8680 0.8690 0.8710 0.8730 0.8730
6.284000 0.8730 0.8740 0.8760 0.8780 0.8780
6.317854 0.8780 0.8810 0.8810 0.8810 0.8830
6.351000 0.8830 0.8830 0.8830 0.8830 0.8830
6.384854 0.8830 0.8830 0.8830 0.8830 0.8810
6.419000 0.8810 0.8810 0.8810 0.8810 0.8790
6.452854 0.8790 0.8790 0.8790 0.8790 0.8790
6.487000 0.8790 0.8810 0.8810 0.8790 0.8790
6.520854 0.8790 0.8790 0.8790 0.8790 0.8790
6.554000 0.8790 0.8790 0.8790 0.8790 0.8760
6.587854 0.8740 0.8730 0.8710 0.8690 0.8690
6.622000 0.8680 0.8660 0.8640 0.8590 0.8540
6.655854 0.8540 0.8520 0.8510 0.8510 0.8470
6.690000 0.8440 0.8370 0.8290 0.8200 0.8120
6.723854 0.7880 0.7640 0.7360 0.7340 0.7000
6.757000 0.6220 0.5220 0.3840 0.2480 0.2430
6.790854 0.2480 0.3400 0.4360 0.5310 0.5610
6.825000 0.5930 0.6070 0.6260 0.6410 0.6710
6.858854 0.6980 0.7050 0.7120 0.7200 0.7300
6.893000 0.7320 0.7370 0.7390 0.7360 0.7320
6.926854 0.7300 0.7290 0.7250 0.7200 0.7100
6.960000 0.6970 0.6920 0.6800 0.6750 0.6560
6.993854 0.6390 0.6150 0.5870 0.5610 0.5320
7.028000 0.5040 0.4700 0.4380 0.4110 0.4040
7.061854 0.3990 0.3990 0.4010 0.4510 0.4750
7.096000 0.5050 0.5340 0.5380 0.5600 0.5710
7.129854 0.5830 0.5950 0.6050 0.6100 0.5700
7.163000 0.5480 0.5320 0.4900 0.4610 0.4390
7.196854 0.4360 0.4380 0.4580 0.4830 0.5210
7.231000 0.5380 0.5430 0.5540 0.5630 0.5710
7.264854 0.5760 0.5850 0.5920 0.6020 0.6170
7.299000 0.6340 0.6490 0.6610 0.6750 0.6900
7.332854 0.7020 0.7200 0.7340 0.7470 0.7610
7.366000 0.7640 0.7710 0.7850 0.7900 0.8020
7.399854 0.8120 0.8220 0.8300 0.8300 0.8320
7.434000 0.8340 0.8390 0.8400 0.8420 0.8440
7.467854 0.8460 0.8470 0.8510 0.8510 0.8460
7.502000 0.8420 0.8370 0.8340 0.8340 0.8340
7.535854 0.8350 0.8400 0.8460 0.8460 0.8420
7.569000 0.8400 0.8370 0.8350 0.8290 0.8180
7.602854 0.8030 0.8000 0.7910 0.7850 0.7810
7.637000 0.7760 0.7690 0.7580 0.7490 0.7470
7.670854 0.7470 0.7510 0.7510 0.7470 0.7390
7.705000 0.7340 0.7300 0.7300 0.7300 0.7320
7.738854 0.7370 0.7370 0.7320 0.7080 0.7020
7.773000 0.6930 0.6830 0.6730 0.6710 0.6750
7.806854 0.6800 0.6800 0.6510 0.6410 0.6000
7.840000 0.5980 0.6000 0.6200 0.6290 0.6490
7.873854 0.6590 0.6730 0.6730 0.6640 0.6510
7.908000 0.6340 0.6200 0.6090 0.6090 0.6100
7.941854 0.6290 0.6290 0.6200 0.6020 0.5800
7.976000 0.5610 0.5490 0.5210 0.4850 0.4360
8.009854 0.3550 0.2890 0.2630 0.2230 0.1960
8.043000 0.1810 0.1250 0.0710 0.0600 0.0420
8.076854 0.0330 0.0330 0.0370 0.0600 0.0860
8.111000 0.1080 0.1400 0.1620 0.2190 0.2430
8.144854 0.3280 0.3900 0.4430 0.4940 0.5320
8.179000 0.5760 0.6140 0.6320 0.6610 0.6850
8.212854 0.7000 0.7030 0.7100 0.7080 0.6930
8.246000 0.6760 0.6710 0.6710 0.6920 0.7200
8.279854 0.7370 0.7490 0.7520 0.7730 0.7900
8.314000 0.7960 0.8000 0.8000 0.8050 0.8120
8.347854 0.8130 0.8170 0.8180 0.8180 0.8150
8.382000 0.8120 0.8070 0.8020 0.8000 0.8020
8.415854 0.8030 0.8120 0.8200 0.8240 0.8300
8.449000 0.8340 0.8390 0.8390 0.8390 0.8390
8.482854 0.8390 0.8400 0.8400 0.8420 0.8420
8.517000 0.8420 0.8420 0.8420 0.8420 0.8420
8.550854 0.8420 0.8420 0.8440 0.8440 0.8440
8.585000 0.8460 0.8460 0.8470 0.8470 0.8470
8.618854 0.8470 0.8490 0.8490 0.8490 0.8490
8.652000 0.8510 0.8510 0.8510 0.8510 0.8510
8.685854 0.8510 0.8510 0.8510 0.8490 0.8490
8.720000 0.8490 0.8490 0.8490 0.8510 0.8510
8.753854 0.8490 0.8490 0.8470 0.8460 0.8440
8.788000 0.8390 0.8340 0.8270 0.8130 0.8020
8.821854 0.7900 0.7880 0.7880 0.7950 0.8020
8.855000 0.8080 0.8130 0.8170 0.8180 0.8180
8.888854 0.8180 0.8180 0.8170 0.8170 0.8150
8.923000 0.8170 0.8180 0.8200 0.8220 0.8220
8.956854 0.8220 0.8150 0.8130 0.8100 0.8100
8.991000 0.8120 0.8150 0.8150 0.8150 0.8130
9.024854 0.8120 0.8100 0.8050 0.7950 0.7690
9.058000 0.7560 0.7410 0.7190 0.7020 0.6950
9.091854 0.6730 0.6710 0.6730 0.6830 0.7030
9.126000 0.7200 0.7370 0.7490 0.7590 0.7660
9.159854 0.7710 0.7730 0.7740 0.7730 0.7690
9.194000 0.7640 0.7520 0.7370 0.7080 0.7070
9.227854 0.7000 0.6830 0.6640 0.5920 0.5360
9.261000 0.4970 0.4550 0.4380 0.4290 0.4290
9.294854 0.4610 0.5140 0.5510 0.5970 0.6240
9.329000 0.6530 0.6630 0.6900 0.7100 0.7150
9.362854 0.7200 0.7290 0.7300 0.7320 0.7320
9.397000 0.7300 0.7220 0.7170 0.7120 0.6920
9.430854 0.6810 0.6750 0.6560 0.6390 0.6200
9.464000 0.6040 0.5920 0.5800 0.5730 0.5680
9.497854 0.5650 0.5610 0.5580 0.5530 0.5510
9.532000 0.5390 0.5290 0.5270 0.5260 0.5290
9.565854 0.5490 0.5710 0.6000 0.6150 0.6480
9.600000 0.6830 0.6970 0.7100 0.7190 0.7270
9.633854 0.7290 0.7300 0.7340 0.7420 0.7460
9.667000 0.7490 0.7590 0.7680 0.7680 0.7660
9.700854 0.7610 0.7580 0.7520 0.7390 0.7240
9.735000 0.7170 0.7140 0.7140 0.7150 0.7150
9.768854 0.7190 0.7200 0.7200 0.7200 0.7190
9.803000 0.7190 0.7150 0.7150 0.7190 0.7270
9.836854 0.7390 0.7520 0.7610 0.7690 0.7780
9.870000 0.7810 0.7830 0.7880 0.7910 0.7950
9.903854 0.7980 0.8000 0.8000 0.8020 0.8050
9.938000 0.8120 0.8200 0.8250 0.8300 0.8320
9.971854 0.8390 0.8390 0.8400 0.8420 0.8400
10.006000 0.8350 0.8300 0.8250 0.8200 0.8170
10.039854 0.8120 0.8100 0.8100 0.8120 0.8120
10.073000 0.8120 0.8120 0.8000 0.7910 0.7810
10.106854 0.7680 0.7520 0.7410 0.7200 0.7050
10.141000 0.6920 0.6860 0.6880 0.6920 0.7080
10.174854 0.7290 0.7420 0.7590 0.7760 0.7860
10.209000 0.7930 0.8000 0.8100 0.8120 0.8130
10.242854 0.8100 0.8050 0.8020 0.8000 0.7880
10.276000 0.7810 0.7800 0.7690 0.7590 0.7490
10.309854 0.7390 0.7390 0.7390 0.7420 0.7490
10.344000 0.7610 0.7760 0.7910 0.8020 0.8100
10.377854 0.8200 0.8320 0.8390 0.8440 0.8490
10.412000 0.8540 0.8560 0.8590 0.8640 0.8690
10.445854 0.8730 0.8780 0.8810 0.8830 0.8830
10.479000 0.8860 0.8860 0.8880 0.8880 0.8880
10.512854 0.8900 0.8900 0.8910 0.8910 0.8930
10.547000 0.8930 0.8930 0.8930 0.8930 0.8930
10.580854 0.8930 0.8930 0.8910 0.8910 0.8910
10.615000 0.8900 0.8900 0.8880 0.8860 0.8840
10.648854 0.8810 0.8790 0.8760 0.8740 0.8730
10.682000 0.8690 0.8690 0.8690 0.8710 0.8710
10.715854 0.8710 0.8730 0.8740 0.8790 0.8810
10.750000 0.8830 0.8830 0.8860 0.8880 0.8900
10.783854 0.8900 0.8930 0.8950 0.8960 0.8980
10.818000 0.8980 0.8980 0.9000 0.9000 0.9000
10.851854 0.9010 0.9010 0.9010 0.9010 0.9010
10.885000 0.9010 0.9010 0.9010 0.9010 0.9010
10.918854 0.9010 0.9010 0.9010 0.9010 0.9010
10.953000 0.9010 0.9010 0.9000 0.8980 0.8980
10.986854 0.8980 0.8980 0.8980 0.8980 0.8980
11.021000 0.8980 0.8960 0.8960 0.8950 0.8950
11.054854 0.8910 0.8910 0.8900 0.8900 0.8880
11.088000 0.8880 0.8880 0.8880 0.8880 0.8900
11.121854 0.8900 0.8910 0.8930 0.8930 0.8950
11.156000 0.8950 0.8950 0.8950 0.8950 0.8930
11.189854 0.8910 0.8900 0.8900 0.8810 0.8810
11.224000 0.8790 0.8790 0.8790 0.8810 0.8810
11.257854 0.8830 0.8830 0.8830 0.8840 0.8860
11.292000 0.8840 0.8860 0.8880 0.8880 0.8880
11.325854 0.8880 0.8880 0.8880 0.8880 0.8880
11.359000 0.8880 0.8840 0.8810 0.8790 0.8790
11.392854 0.8780 0.8780 0.8740 0.8710 0.8690
11.427000 0.8680 0.8660 0.8620 0.8590 0.8540
11.460854 0.8520 0.8510 0.8440 0.8400 0.8350
11.495000 0.8320 0.8300 0.8250 0.8220 0.8080
11.528854 0.8070 0.8070 0.8070 0.8080 0.8150
11.562000 0.8250 0.8290 0.8390 0.8440 0.8490
11.595854 0.8520 0.8590 0.8640 0.8690 0.8760
11.630000 0.8780 0.8790 0.8830 0.8860 0.8880
11.663854 0.8880 0.8880 0.8880 0.8860 0.8860
11.698000 0.8840 0.8830 0.8810 0.8810 0.8790
11.731854 0.8780 0.8760 0.8760 0.8710 0.8690
11.765000 0.8690 0.8640 0.8590 0.8560 0.8470
11.798854 0.8400 0.8270 0.8200 0.8080 0.7910
11.833000 0.7810 0.7680 0.7580 0.7340 0.7300
11.866854 0.7300 0.7300 0.7340 0.7460 0.7680
11.901000 0.7910 0.8080 0.8170 0.8370 0.8490
11.934854 0.8520 0.8570 0.8610 0.8710 0.8730
11.968000 0.8780 0.8790 0.8790 0.8810 0.8810
12.001854 0.8840 0.8840 0.8840 0.8840 0.8840
12.036000 0.8840 0.8830 0.8790 0.8780 0.8760
12.069854 0.8710 0.8690 0.8690 0.8640 0.8590
12.104000 0.8540 0.8510 0.8400 0.8300 0.8290
12.137854 0.8270 0.8220 0.8220 0.8220 0.8270
12.171000 0.8300 0.8340 0.8350 0.8400 0.8510
12.204854 0.8660 0.8740 0.8790 0.8810 0.8840
12.239000 0.8900 0.8930 0.8960 0.8980 0.9000
12.272854 0.9010 0.9010 0.9030 0.9030 0.9030
12.307000 0.9030 0.9050 0.9050 0.9050 0.9060
12.340854 0.9060 0.9120 0.9130 0.9130 0.9130
12.374000 0.9130 0.9130 0.9130 0.9130 0.9130
12.407854 0.9130 0.9130 0.9130 0.9150 0.9150
12.442000 0.9150 0.9150 0.9150 0.9150 0.9170
12.475854 0.9170 0.9170 0.9170 0.9170 0.9170
12.510000 0.9170 0.9170 0.9150 0.9150 0.9130
12.543854 0.9150 0.9150 0.9130 0.9130 0.9130
12.577000 0.9120 0.9120 0.9120 0.9120 0.9120
12.610854 0.9130 0.9130 0.9130 0.9130 0.9130
12.645000 0.9130 0.9120 0.9120 0.9120 0.9120
12.678854 0.9130 0.9130 0.9130 0.9120 0.9120
12.713000 0.9120 0.9120 0.9120 0.9120 0.9120
12.746854 0.9120 0.9120 0.9120 0.9100 0.9100
12.780000 0.9100 0.9100 0.9100 0.9100 0.9100
12.813854 0.9100 0.9080 0.9060 0.9060 0.9060
12.848000 0.9080 0.9080 0.9100 0.9100 0.9100
12.881854 0.9100 0.9080 0.9060 0.9050 0.9010
12.916000 0.9010 0.9010 0.9010 0.9000 0.9000
12.949854 0.9000 0.9000 0.8980 0.9000 0.9000
12.983000 0.9000 0.8980 0.8960 0.8960 0.8960
13.016854 0.8960 0.8980 0.8980 0.8980 0.8980
13.051000 0.8980 0.8980 0.8980 0.9010 0.9010
13.084854 0.9010 0.9010 0.9010 0.9010 0.9010
13.119000 0.9010 0.9000 0.8980 0.8980 0.8960
13.152854 0.8960 0.8960 0.8960 0.8980 0.8980
13.186000 0.9000 0.9000 0.9000 0.9000 0.8980
13.219854 0.8980 0.8980 0.8960 0.8950 0.8950
13.254000 0.8930 0.8910 0.8900 0.8900 0.8900
13.287854 0.8900 0.8910 0.8910 0.8910 0.8930
13.322000 0.8930 0.8930 0.8910 0.8910 0.8910
13.355854 0.8910 0.8910 0.8980 0.8980 0.8980
13.389000 0.8980 0.8980 0.8980 0.8980 0.8980
13.422854 0.8980 0.8980 0.8960 0.8950 0.8930
13.457000 0.8880 0.8880 0.8860 0.8840 0.8840
13.490854 0.8840 0.8830 0.8810 0.8790 0.8780
13.525000 0.8730 0.8710 0.8710 0.8730 0.8730
13.558854 0.8710 0.8690 0.8690 0.8690 0.8690
13.592000 0.8690 0.8680 0.8620 0.8610 0.8570
13.625854 0.8570 0.8560 0.8540 0.8510 0.8420
13.660000 0.8400 0.8390 0.8370 0.8350 0.8340
13.693854 0.8320 0.8300 0.8220 0.8180 0.8100
13.728000 0.8080 0.8000 0.7910 0.7810 0.7740
13.761854 0.7630 0.7520 0.7490 0.7390 0.7360
13.795000 0.7170 0.7020 0.6930 0.6780 0.6710
13.828854 0.6610 0.6540 0.6440 0.6370 0.6220
13.863000 0.6000 0.5950 0.5820 0.5700 0.5440
13.896854 0.5290 0.5000 0.4730 0.4510 0.4460
13.931000 0.4460 0.4500 0.4600 0.4990 0.5410
13.964854 0.5680 0.5920 0.6290 0.6530 0.6710
13.998000 0.7000 0.7170 0.7340 0.7490 0.7590
14.031854 0.7690 0.7830 0.7880 0.8000 0.8030
14.066000 0.8080 0.8080 0.8120 0.8180 0.8200
14.099854 0.8250 0.8250 0.8250 0.8250 0.8250
14.134000 0.8220 0.8220 0.8200 0.8200 0.8180
14.167854 0.8130 0.8080 0.8020 0.8000 0.7980
14.201000 0.7910 0.7880 0.7800 0.7730 0.7690
14.234854 0.7680 0.7660 0.7660 0.7640 0.7640
14.269000 0.7640 0.7640 0.7640 0.7680 0.7760
14.302854 0.7830 0.7910 0.7950 0.8000 0.8000
14.337000 0.8080 0.8080 0.8180 0.8200 0.8220
14.370854 0.8240 0.8340 0.8350 0.8390 0.8420
14.404000 0.8460 0.8490 0.8510 0.8520 0.8560
14.437854 0.8570 0.8590 0.8610 0.8640 0.8660
14.472000 0.8680 0.8680 0.8690 0.8710 0.8730
14.505854 0.8740 0.8740 0.8760 0.8760 0.8780
14.540000 0.8780 0.8790 0.8790 0.8790 0.8790
14.573854 0.8790 0.8810 0.8810 0.8810 0.8810
14.607000 0.8810 0.8810 0.8810 0.8810 0.8790
14.640854 0.8790 0.8790 0.8810 0.8810 0.8830
14.675000 0.8830 0.8830 0.8830 0.8840 0.8860
14.708854 0.8860 0.8860 0.8880 0.8880 0.8880
14.743000 0.8880 0.8880 0.8880 0.8910 0.8910
14.776854 0.8910 0.8910 0.8910 0.8910 0.8900
14.811000 0.8900 0.8900 0.8910 0.8930 0.8930
14.844854 0.8930 0.8910 0.8910 0.8910 0.8910
14.878000 0.8910 0.8910 0.8910 0.8910 0.8900
14.911854 0.8880 0.8830 0.8830 0.8810 0.8810
14.946000 0.8780 0.8780 0.8760 0.8760 0.8780
14.979854 0.8780 0.8790 0.8810 0.8830 0.8860
15.014000 0.8910 0.8910 0.8930 0.8930 0.8930
15.047854 0.8930 0.8930 0.8930 0.8910 0.8910
##END=
