##TITLE=Beta-ETHOXYETHYL SEBACATE
##JCAMP-DX=4.24
##DATA TYPE=INFRARED SPECTRUM
##CLASS=COBLENTZ
##ORIGIN=DOW CHEMICAL COMPANY
##OWNER=COBLENTZ SOCIETY
Collection (C) 2018 copyright by the U.S. Secretary of Commerce
on behalf of the United States of America. All rights reserved.
##DATE=Not specified, most likely prior to 1970
##MOLFORM=C18 H24 O6
##SOURCE REFERENCE=COBLENTZ NO. 250
##$NIST ID=B6000250
##$NIST SOURCE=COBLENTZ
##$NIST IMAGE=cob250
##SPECTROMETER/DATA SYSTEM=Not specified, most likely a prism, grating, or hybrid spectrometer.
##STATE=SOLUTION (10% CCl4 FOR 2.5-7.5, 10% CS2 FOR 7.5-16 MICRON)
##PATH LENGTH=0.01 CM, 0.01 CM
$$SPECTRAL CONTAMINATION DUE TO CCl4 AROUND 1550 CM^-^1
##SAMPLING PROCEDURE=TRANSMISSION
##RESOLUTION=4
##DATA PROCESSING=DIGITIZED BY NIST FROM HARD COPY
##XUNITS=MICROMETERS
##YUNITS=TRANSMITTANCE
##XFACTOR=1.000000
##YFACTOR=1
##DELTAX=000.006498
##FIRSTX=2.032
##LASTX=15.8785
##FIRSTY=0.911
##MAXX=15.8785
##MINX=2.032
##MAXY=0.913
##MINY=0.022
##NPOINTS=2132
##XYDATA=(X++(Y..Y))
2.032000 0.9110 0.9110 0.9110 0.9110 0.9090
2.064504 0.9090 0.9090 0.9090 0.9080 0.9060
2.097000 0.9060 0.9050 0.9050 0.9030 0.9050
2.129504 0.9050 0.9050 0.9030 0.9030 0.9010
2.162000 0.9010 0.9010 0.9010 0.9010 0.9010
2.194504 0.9010 0.9010 0.9000 0.9000 0.9000
2.227000 0.9000 0.8970 0.8920 0.8890 0.8820
2.259504 0.8810 0.8790 0.8760 0.8720 0.8710
2.292000 0.8690 0.8690 0.8690 0.8690 0.8710
2.324504 0.8710 0.8710 0.8720 0.8720 0.8770
2.357000 0.8790 0.8790 0.8790 0.8810 0.8820
2.389504 0.8820 0.8820 0.8820 0.8820 0.8820
2.422000 0.8820 0.8820 0.8820 0.8820 0.8840
2.454504 0.8840 0.8840 0.8850 0.8890 0.8890
2.487000 0.8870 0.8870 0.8870 0.8870 0.8870
2.519504 0.8870 0.8870 0.8890 0.8900 0.8920
2.552000 0.8930 0.8950 0.8970 0.8970 0.8980
2.584504 0.8980 0.8980 0.9000 0.9010 0.9010
2.617000 0.9030 0.9060 0.9090 0.9090 0.9130
2.649504 0.9130 0.9130 0.9090 0.9080 0.9060
2.682000 0.9030 0.9010 0.9010 0.9010 0.9010
2.714504 0.9010 0.9010 0.9010 0.9010 0.9010
2.747000 0.9000 0.9000 0.9000 0.9000 0.9000
2.779504 0.9000 0.9000 0.9000 0.9000 0.9000
2.812000 0.9000 0.9010 0.9010 0.9010 0.9000
2.844504 0.8980 0.8980 0.8930 0.8930 0.8900
2.877000 0.8870 0.8820 0.8790 0.8760 0.8740
2.909504 0.8720 0.8740 0.8760 0.8770 0.8790
2.942000 0.8840 0.8900 0.8920 0.8930 0.8930
2.974504 0.8970 0.8950 0.8970 0.8970 0.8950
3.006000 0.8970 0.8970 0.8970 0.8980 0.8980
3.038504 0.8980 0.9000 0.9000 0.9000 0.9010
3.071000 0.9010 0.9000 0.9000 0.9000 0.8980
3.103504 0.8980 0.8980 0.8970 0.8980 0.8980
3.136000 0.8980 0.9000 0.9000 0.9000 0.9010
3.168504 0.9010 0.9010 0.9010 0.9010 0.9010
3.201000 0.9000 0.8980 0.8980 0.8980 0.8980
3.233504 0.8980 0.8970 0.8930 0.8900 0.8870
3.266000 0.8820 0.8810 0.8790 0.8720 0.8610
3.298504 0.8560 0.8470 0.8270 0.8160 0.7990
3.331000 0.7790 0.7490 0.7130 0.6840 0.6590
3.363504 0.5090 0.4480 0.3600 0.3270 0.2970
3.396000 0.2370 0.1960 0.1570 0.1460 0.1390
3.428504 0.1350 0.1230 0.1230 0.1430 0.1590
3.461000 0.1810 0.1990 0.2100 0.2100 0.2020
3.493504 0.2020 0.1780 0.1800 0.2020 0.2600
3.526000 0.3290 0.4080 0.5190 0.5880 0.6170
3.558504 0.6350 0.6410 0.6590 0.6750 0.6890
3.591000 0.7120 0.7340 0.7550 0.7840 0.7870
3.623504 0.7940 0.7950 0.7990 0.8070 0.8100
3.656000 0.8110 0.8130 0.8180 0.8190 0.8290
3.688504 0.8310 0.8320 0.8370 0.8390 0.8420
3.721000 0.8470 0.8520 0.8580 0.8600 0.8710
3.753504 0.8770 0.8820 0.8890 0.8890 0.8890
3.786000 0.8890 0.8870 0.8890 0.8890 0.8890
3.818504 0.8890 0.8890 0.8890 0.8900 0.8900
3.851000 0.8900 0.8920 0.8930 0.8930 0.8980
3.883504 0.9010 0.9050 0.9050 0.9060 0.9080
3.916000 0.9080 0.9080 0.9060 0.9080 0.9080
3.948504 0.9080 0.9080 0.9090 0.9090 0.9090
3.981000 0.9090 0.9090 0.9110 0.9110 0.9090
4.013504 0.9110 0.9110 0.9130 0.9130 0.9130
4.046000 0.9130 0.9130 0.9130 0.9130 0.9130
4.078504 0.9130 0.9130 0.9130 0.9130 0.9130
4.111000 0.9130 0.9130 0.9130 0.9130 0.9110
4.143504 0.9110 0.9090 0.9090 0.9080 0.9030
4.176000 0.9010 0.9010 0.9000 0.8980 0.8920
4.208504 0.8920 0.8930 0.8930 0.8980 0.8980
4.241000 0.9000 0.9000 0.8980 0.9000 0.9000
4.273504 0.9000 0.9000 0.9000 0.9000 0.9010
4.306000 0.9030 0.9030 0.9000 0.8980 0.8970
4.338504 0.8970 0.8920 0.8920 0.8900 0.8900
4.371000 0.8900 0.8900 0.8900 0.8900 0.8920
4.403504 0.8920 0.8930 0.8950 0.8970 0.8970
4.436000 0.8980 0.9000 0.9000 0.9000 0.9010
4.468504 0.9010 0.9050 0.9050 0.9060 0.9080
4.501000 0.9080 0.9090 0.9090 0.9090 0.9090
4.533504 0.9110 0.9110 0.9110 0.9110 0.9110
4.566000 0.9110 0.9110 0.9110 0.9110 0.9110
4.598504 0.9110 0.9110 0.9110 0.9110 0.9110
4.631000 0.9110 0.9110 0.9110 0.9110 0.9110
4.663504 0.9110 0.9110 0.9110 0.9110 0.9110
4.696000 0.9110 0.9110 0.9110 0.9110 0.9130
4.728504 0.9130 0.9130 0.9130 0.9130 0.9130
4.761000 0.9130 0.9110 0.9090 0.9080 0.9060
4.793504 0.9050 0.9030 0.9060 0.9060 0.9060
4.826000 0.9080 0.9080 0.9080 0.9080 0.9080
4.858504 0.9050 0.9030 0.9010 0.9010 0.9010
4.891000 0.9010 0.9010 0.9010 0.9010 0.9010
4.923504 0.9010 0.9010 0.9010 0.9010 0.9010
4.956000 0.9000 0.9000 0.8980 0.8980 0.8970
4.988504 0.8930 0.8900 0.8870 0.8850 0.8840
5.021000 0.8850 0.8850 0.8870 0.8890 0.8890
5.053504 0.8890 0.8890 0.8890 0.8870 0.8850
5.086000 0.8850 0.8870 0.8870 0.8870 0.8870
5.118504 0.8890 0.8900 0.8900 0.8900 0.8900
5.151000 0.8920 0.8930 0.8950 0.8950 0.8970
5.183504 0.8950 0.8970 0.8970 0.8980 0.8980
5.216000 0.9000 0.9000 0.9000 0.9010 0.9010
5.248504 0.9010 0.9030 0.9010 0.9010 0.9010
5.281000 0.9010 0.9010 0.9010 0.9010 0.9010
5.313504 0.9010 0.9030 0.9030 0.9010 0.9010
5.346000 0.9010 0.9010 0.9010 0.9010 0.9010
5.378504 0.9010 0.9000 0.9000 0.8980 0.8980
5.411000 0.8980 0.8970 0.8930 0.8920 0.8900
5.443504 0.8900 0.8890 0.8890 0.8870 0.8820
5.476000 0.8810 0.8770 0.8740 0.8720 0.8690
5.508504 0.8660 0.8600 0.8520 0.8500 0.8470
5.541000 0.8400 0.8370 0.8320 0.8290 0.8270
5.573504 0.8260 0.8180 0.8130 0.8100 0.7940
5.606000 0.7840 0.7730 0.7600 0.7500 0.7440
5.638504 0.7280 0.7150 0.6810 0.6630 0.6490
5.671000 0.6250 0.5570 0.5240 0.4910 0.4090
5.703504 0.3950 0.3370 0.2990 0.2650 0.2120
5.736000 0.1680 0.1230 0.1090 0.0850 0.0720
5.768504 0.0590 0.0570 0.0590 0.0610 0.0880
5.801000 0.1150 0.1410 0.1700 0.2260 0.2780
5.833504 0.3310 0.3820 0.4350 0.4690 0.5200
5.865000 0.5690 0.6090 0.6300 0.6460 0.6630
5.897504 0.6750 0.6880 0.7100 0.7290 0.7440
5.930000 0.7540 0.7660 0.7760 0.7870 0.7990
5.962504 0.8070 0.8150 0.8240 0.8320 0.8400
5.995000 0.8450 0.8520 0.8520 0.8580 0.8600
6.027504 0.8610 0.8610 0.8610 0.8610 0.8630
6.060000 0.8680 0.8690 0.8770 0.8790 0.8820
6.092504 0.8840 0.8840 0.8840 0.8840 0.8840
6.125000 0.8840 0.8840 0.8810 0.8770 0.8710
6.157504 0.8680 0.8660 0.8630 0.8550 0.8480
6.190000 0.8420 0.8270 0.8180 0.8080 0.7990
6.222504 0.7890 0.7780 0.7680 0.7490 0.7470
6.255000 0.7290 0.7150 0.6990 0.6970 0.6840
6.287504 0.6750 0.6670 0.6620 0.6520 0.6510
6.320000 0.6470 0.6410 0.6380 0.6330 0.6300
6.352504 0.6270 0.6200 0.6100 0.6090 0.6020
6.385000 0.5940 0.5900 0.5770 0.5650 0.5570
6.417504 0.5460 0.5450 0.5400 0.5300 0.5170
6.450000 0.5120 0.5110 0.5110 0.5090 0.5090
6.482504 0.5110 0.5170 0.5240 0.5380 0.5510
6.515000 0.5700 0.5880 0.5960 0.6010 0.6070
6.547504 0.6100 0.6150 0.6180 0.6280 0.6380
6.580000 0.6470 0.6490 0.6670 0.6780 0.6830
6.612504 0.6880 0.6920 0.6990 0.7050 0.7180
6.645000 0.7250 0.7370 0.7410 0.7490 0.7490
6.677504 0.7490 0.7490 0.7410 0.7340 0.7150
6.710000 0.7050 0.6960 0.6890 0.6800 0.6780
6.742504 0.6780 0.6760 0.6750 0.6700 0.6670
6.775000 0.6470 0.6280 0.6100 0.5530 0.5320
6.807504 0.5080 0.4800 0.4670 0.4540 0.4460
6.840000 0.4430 0.4370 0.4320 0.4320 0.4320
6.872504 0.4320 0.4320 0.4370 0.4370 0.4380
6.905000 0.4380 0.4400 0.4420 0.4460 0.4580
6.937504 0.4710 0.4820 0.5060 0.5320 0.5530
6.970000 0.5610 0.5670 0.5860 0.5880 0.5880
7.002504 0.5860 0.5800 0.5770 0.5770 0.5750
7.035000 0.5730 0.5770 0.5900 0.5960 0.6070
7.067504 0.6200 0.6310 0.6440 0.6550 0.6570
7.100000 0.6600 0.6570 0.6550 0.6470 0.6350
7.132504 0.6230 0.6010 0.5770 0.5530 0.5200
7.165000 0.5080 0.4880 0.4640 0.4380 0.4090
7.197504 0.3820 0.3560 0.3320 0.3130 0.3190
7.230000 0.3270 0.3400 0.3480 0.3600 0.3710
7.262504 0.3820 0.3970 0.4190 0.4340 0.4530
7.295000 0.4710 0.4830 0.4960 0.4960 0.4980
7.327504 0.4960 0.4960 0.4870 0.4800 0.4690
7.360000 0.4610 0.4530 0.4480 0.4450 0.4380
7.392504 0.4220 0.4190 0.4190 0.4240 0.4300
7.425000 0.4340 0.4500 0.4610 0.4750 0.4900
7.457504 0.5030 0.5270 0.5450 0.5490 0.5570
7.490000 0.5650 0.5650 0.5670 0.5670 0.5590
7.522504 0.5560 0.5490 0.5450 0.5380 0.5270
7.555000 0.5190 0.5140 0.5060 0.5030 0.5010
7.587504 0.4980 0.4900 0.4870 0.4770 0.4750
7.620000 0.4710 0.4630 0.4590 0.4510 0.4450
7.652504 0.4320 0.4290 0.4210 0.4110 0.4060
7.685000 0.4030 0.4010 0.3980 0.3980 0.3970
7.717504 0.3920 0.3900 0.3870 0.3840 0.3820
7.750000 0.3810 0.3790 0.3740 0.3720 0.3690
7.782504 0.3660 0.3630 0.3580 0.3530 0.3500
7.815000 0.3470 0.3440 0.3390 0.3360 0.3290
7.847504 0.3260 0.3210 0.3190 0.3180 0.3160
7.880000 0.3150 0.3130 0.3130 0.3110 0.3070
7.912504 0.3020 0.2990 0.2970 0.2860 0.2790
7.945000 0.2710 0.2650 0.2570 0.2390 0.2370
7.977504 0.2330 0.2260 0.2200 0.2130 0.2050
8.010000 0.2040 0.2020 0.2020 0.2020 0.2000
8.042504 0.1990 0.1990 0.1990 0.2000 0.2000
8.075000 0.2000 0.2040 0.2090 0.2170 0.2260
8.107504 0.2290 0.2410 0.2490 0.2550 0.2600
8.140000 0.2620 0.2660 0.2680 0.2700 0.2710
8.172504 0.2710 0.2730 0.2730 0.2740 0.2740
8.205000 0.2760 0.2760 0.2760 0.2760 0.2760
8.237504 0.2760 0.2740 0.2710 0.2680 0.2660
8.270000 0.2580 0.2550 0.2470 0.2450 0.2410
8.302504 0.2360 0.2290 0.2210 0.2180 0.2130
8.335000 0.2070 0.1990 0.1960 0.1880 0.1810
8.367504 0.1780 0.1750 0.1730 0.1680 0.1550
8.400000 0.1470 0.1380 0.1280 0.1230 0.1150
8.432504 0.1120 0.1070 0.1010 0.0980 0.0900
8.465000 0.0810 0.0810 0.0780 0.0720 0.0700
8.497504 0.0690 0.0650 0.0650 0.0620 0.0620
8.530000 0.0620 0.0620 0.0640 0.0640 0.0670
8.562504 0.0690 0.0700 0.0720 0.0750 0.0780
8.595000 0.0810 0.0940 0.0960 0.0990 0.0990
8.627504 0.1020 0.1090 0.1180 0.1220 0.1280
8.660000 0.1300 0.1310 0.1380 0.1390 0.1410
8.692504 0.1410 0.1390 0.1390 0.1360 0.1300
8.724000 0.1270 0.1180 0.1120 0.1070 0.0990
8.756504 0.0980 0.0880 0.0810 0.0800 0.0700
8.789000 0.0640 0.0540 0.0530 0.0510 0.0480
8.821504 0.0480 0.0450 0.0430 0.0400 0.0400
8.854000 0.0360 0.0350 0.0320 0.0300 0.0300
8.886504 0.0280 0.0250 0.0250 0.0220 0.0220
8.919000 0.0220 0.0240 0.0240 0.0270 0.0320
8.951504 0.0320 0.0360 0.0460 0.0480 0.0650
8.984000 0.0720 0.0800 0.0960 0.1120 0.1250
9.016504 0.1270 0.1360 0.1390 0.1410 0.1470
9.049000 0.1510 0.1520 0.1540 0.1550 0.1570
9.081504 0.1590 0.1600 0.1600 0.1630 0.1630
9.114000 0.1680 0.1720 0.1800 0.1910 0.1960
9.146504 0.2000 0.2020 0.2120 0.2180 0.2250
9.179000 0.2310 0.2410 0.2520 0.2700 0.2900
9.211504 0.3070 0.3190 0.3320 0.3440 0.3560
9.244000 0.3690 0.3840 0.4010 0.4030 0.4260
9.276504 0.4370 0.4430 0.4460 0.4560 0.4590
9.309000 0.4660 0.4670 0.4720 0.4750 0.4770
9.341504 0.4790 0.4790 0.4790 0.4790 0.4770
9.374000 0.4750 0.4720 0.4710 0.4670 0.4630
9.406504 0.4530 0.4450 0.4380 0.4320 0.4240
9.439000 0.4050 0.3950 0.3890 0.3740 0.3560
9.471504 0.3450 0.3390 0.3180 0.3050 0.3000
9.504000 0.2970 0.2920 0.2900 0.2890 0.2900
9.536504 0.2920 0.2920 0.2940 0.2970 0.2990
9.569000 0.3000 0.3080 0.3230 0.3340 0.3440
9.601504 0.3530 0.3610 0.3710 0.3810 0.3900
9.634000 0.4000 0.4110 0.4210 0.4320 0.4430
9.666504 0.4500 0.4540 0.4640 0.4710 0.4770
9.699000 0.4800 0.4870 0.4960 0.5000 0.5040
9.731504 0.5170 0.5200 0.5270 0.5350 0.5460
9.764000 0.5490 0.5540 0.5690 0.5750 0.5860
9.796504 0.5880 0.6040 0.6060 0.6120 0.6170
9.829000 0.6180 0.6270 0.6310 0.6440 0.6470
9.861504 0.6520 0.6590 0.6600 0.6670 0.6750
9.894000 0.6780 0.6810 0.6860 0.6890 0.6940
9.926504 0.6970 0.6990 0.7040 0.7050 0.7090
9.959000 0.7100 0.7130 0.7150 0.7180 0.7200
9.991504 0.7210 0.7250 0.7260 0.7280 0.7290
10.024000 0.7290 0.7310 0.7310 0.7330 0.7330
10.056504 0.7360 0.7370 0.7390 0.7390 0.7410
10.089000 0.7420 0.7440 0.7450 0.7470 0.7490
10.121504 0.7490 0.7500 0.7500 0.7520 0.7540
10.154000 0.7540 0.7540 0.7550 0.7550 0.7570
10.186504 0.7570 0.7580 0.7580 0.7600 0.7600
10.219000 0.7600 0.7600 0.7600 0.7600 0.7600
10.251504 0.7580 0.7570 0.7540 0.7500 0.7490
10.284000 0.7450 0.7440 0.7370 0.7310 0.7280
10.316504 0.7250 0.7180 0.7170 0.7100 0.7070
10.349000 0.7000 0.6990 0.6940 0.6910 0.6860
10.381504 0.6810 0.6750 0.6700 0.6670 0.6650
10.414000 0.6620 0.6600 0.6590 0.6570 0.6510
10.446504 0.6490 0.6470 0.6460 0.6440 0.6430
10.479000 0.6430 0.6430 0.6430 0.6430 0.6430
10.511504 0.6440 0.6440 0.6470 0.6490 0.6510
10.544000 0.6540 0.6540 0.6570 0.6620 0.6630
10.576504 0.6650 0.6650 0.6720 0.6780 0.6810
10.609000 0.6840 0.6880 0.6890 0.6910 0.6940
10.641504 0.6970 0.6990 0.7000 0.7040 0.7050
10.674000 0.7090 0.7090 0.7100 0.7120 0.7170
10.706504 0.7170 0.7180 0.7230 0.7250 0.7280
10.739000 0.7290 0.7290 0.7340 0.7360 0.7390
10.771504 0.7410 0.7410 0.7420 0.7420 0.7440
10.804000 0.7440 0.7450 0.7470 0.7470 0.7470
10.836504 0.7470 0.7470 0.7470 0.7470 0.7490
10.869000 0.7490 0.7490 0.7500 0.7520 0.7540
10.901504 0.7550 0.7570 0.7580 0.7580 0.7600
10.934000 0.7620 0.7660 0.7700 0.7700 0.7700
10.966504 0.7710 0.7740 0.7760 0.7780 0.7790
10.999000 0.7810 0.7820 0.7860 0.7890 0.7890
11.031504 0.7900 0.7970 0.7970 0.7990 0.7990
11.064000 0.7990 0.7990 0.8000 0.8000 0.8000
11.096504 0.8000 0.8000 0.8000 0.7990 0.7990
11.129000 0.7990 0.7990 0.7970 0.7970 0.7970
11.161504 0.7970 0.7950 0.7950 0.7920 0.7900
11.194000 0.7890 0.7870 0.7860 0.7820 0.7790
11.226504 0.7780 0.7760 0.7740 0.7680 0.7620
11.259000 0.7600 0.7580 0.7570 0.7500 0.7490
11.291504 0.7470 0.7450 0.7410 0.7370 0.7360
11.324000 0.7290 0.7280 0.7200 0.7170 0.7090
11.356504 0.7070 0.6990 0.6960 0.6920 0.6840
11.389000 0.6780 0.6700 0.6670 0.6620 0.6570
11.421504 0.6490 0.6470 0.6390 0.6330 0.6300
11.454000 0.6270 0.6170 0.6100 0.6040 0.5990
11.486504 0.5980 0.5880 0.5850 0.5770 0.5670
11.519000 0.5670 0.5640 0.5560 0.5530 0.5490
11.551504 0.5490 0.5460 0.5460 0.5400 0.5380
11.583000 0.5350 0.5320 0.5300 0.5300 0.5300
11.615504 0.5300 0.5300 0.5300 0.5300 0.5300
11.648000 0.5300 0.5320 0.5350 0.5380 0.5400
11.680504 0.5410 0.5490 0.5510 0.5560 0.5610
11.713000 0.5620 0.5690 0.5750 0.5800 0.5860
11.745504 0.5960 0.5980 0.5990 0.6020 0.6060
11.778000 0.6120 0.6220 0.6360 0.6470 0.6550
11.810504 0.6620 0.6630 0.6650 0.6670 0.6750
11.843000 0.6800 0.6860 0.6920 0.6960 0.6970
11.875504 0.7000 0.7050 0.7090 0.7100 0.7130
11.908000 0.7150 0.7150 0.7170 0.7180 0.7180
11.940504 0.7200 0.7230 0.7260 0.7260 0.7280
11.973000 0.7290 0.7360 0.7420 0.7420 0.7440
12.005504 0.7450 0.7450 0.7470 0.7490 0.7500
12.038000 0.7520 0.7550 0.7570 0.7570 0.7580
12.070504 0.7600 0.7600 0.7620 0.7620 0.7650
12.103000 0.7650 0.7650 0.7660 0.7660 0.7680
12.135504 0.7680 0.7680 0.7660 0.7660 0.7680
12.168000 0.7660 0.7660 0.7680 0.7680 0.7660
12.200504 0.7680 0.7680 0.7680 0.7680 0.7680
12.233000 0.7680 0.7700 0.7700 0.7700 0.7700
12.265504 0.7700 0.7700 0.7700 0.7710 0.7710
12.298000 0.7760 0.7780 0.7790 0.7790 0.7810
12.330504 0.7810 0.7840 0.7870 0.7900 0.7900
12.363000 0.7920 0.7940 0.7970 0.7970 0.7970
12.395504 0.7970 0.7970 0.7990 0.7990 0.8000
12.428000 0.8000 0.8000 0.8000 0.8000 0.8000
12.460504 0.8000 0.8000 0.7990 0.7990 0.7990
12.493000 0.7970 0.7970 0.7950 0.7940 0.7940
12.525504 0.7920 0.7900 0.7890 0.7890 0.7870
12.558000 0.7870 0.7870 0.7870 0.7870 0.7870
12.590504 0.7870 0.7890 0.7890 0.7900 0.7900
12.623000 0.7900 0.7920 0.7920 0.7920 0.7940
12.655504 0.7970 0.7970 0.7990 0.7990 0.7990
12.688000 0.8000 0.8000 0.8020 0.8030 0.8050
12.720504 0.8050 0.8070 0.8070 0.8080 0.8080
12.753000 0.8080 0.8080 0.8080 0.8080 0.8080
12.785504 0.8080 0.8100 0.8110 0.8110 0.8150
12.818000 0.8150 0.8150 0.8150 0.8150 0.8160
12.850504 0.8180 0.8160 0.8160 0.8160 0.8160
12.883000 0.8160 0.8160 0.8160 0.8160 0.8150
12.915504 0.8150 0.8150 0.8150 0.8150 0.8150
12.948000 0.8150 0.8150 0.8160 0.8160 0.8160
12.980504 0.8160 0.8160 0.8160 0.8150 0.8130
13.013000 0.8130 0.8130 0.8130 0.8130 0.8110
13.045504 0.8110 0.8130 0.8130 0.8110 0.8110
13.078000 0.8130 0.8130 0.8130 0.8110 0.8110
13.110504 0.8110 0.8110 0.8110 0.8110 0.8100
13.143000 0.8110 0.8110 0.8110 0.8110 0.8110
13.175504 0.8110 0.8110 0.8100 0.8100 0.8100
13.208000 0.8080 0.8080 0.8070 0.8070 0.8070
13.240504 0.8070 0.8050 0.8050 0.8050 0.8050
13.273000 0.8050 0.8030 0.8030 0.8050 0.8050
13.305504 0.8050 0.8050 0.8050 0.8050 0.8030
13.338000 0.8000 0.8000 0.7990 0.7990 0.7970
13.370504 0.7970 0.7970 0.7970 0.7950 0.7950
13.403000 0.7950 0.7940 0.7940 0.7940 0.7920
13.435504 0.7920 0.7920 0.7900 0.7900 0.7890
13.468000 0.7890 0.7860 0.7860 0.7860 0.7860
13.500504 0.7840 0.7820 0.7820 0.7810 0.7810
13.533000 0.7790 0.7780 0.7740 0.7710 0.7700
13.565504 0.7700 0.7680 0.7650 0.7630 0.7600
13.598000 0.7580 0.7570 0.7550 0.7540 0.7540
13.630504 0.7520 0.7520 0.7500 0.7490 0.7470
13.663000 0.7410 0.7390 0.7370 0.7360 0.7310
13.695504 0.7290 0.7280 0.7260 0.7210 0.7180
13.728000 0.7170 0.7120 0.7120 0.7100 0.7090
13.760504 0.7020 0.7020 0.7000 0.7000 0.6990
13.793000 0.6990 0.6990 0.6970 0.6990 0.6990
13.825504 0.6990 0.6970 0.6970 0.6970 0.6970
13.858000 0.6970 0.6990 0.7000 0.7000 0.7020
13.890504 0.7040 0.7090 0.7100 0.7120 0.7120
13.923000 0.7130 0.7180 0.7180 0.7200 0.7210
13.955504 0.7210 0.7210 0.7230 0.7230 0.7250
13.988000 0.7250 0.7260 0.7260 0.7260 0.7260
14.020504 0.7260 0.7260 0.7260 0.7260 0.7260
14.053000 0.7260 0.7260 0.7260 0.7260 0.7260
14.085504 0.7260 0.7260 0.7260 0.7280 0.7280
14.118000 0.7280 0.7260 0.7260 0.7260 0.7260
14.150504 0.7280 0.7260 0.7260 0.7260 0.7260
14.183000 0.7250 0.7250 0.7250 0.7250 0.7250
14.215504 0.7250 0.7250 0.7230 0.7230 0.7230
14.248000 0.7210 0.7200 0.7200 0.7200 0.7180
14.280504 0.7180 0.7170 0.7170 0.7170 0.7170
14.313000 0.7170 0.7150 0.7150 0.7130 0.7130
14.345504 0.7130 0.7100 0.7090 0.7090 0.7090
14.378000 0.7090 0.7090 0.7070 0.7070 0.7070
14.410504 0.7050 0.7040 0.7000 0.6990 0.6990
14.442000 0.6990 0.6990 0.6990 0.6970 0.6970
14.474504 0.6970 0.6970 0.6960 0.6940 0.6920
14.507000 0.6920 0.6910 0.6910 0.6890 0.6890
14.539504 0.6880 0.6860 0.6840 0.6830 0.6810
14.572000 0.6810 0.6800 0.6800 0.6780 0.6780
14.604504 0.6760 0.6760 0.6760 0.6750 0.6730
14.637000 0.6720 0.6700 0.6680 0.6680 0.6670
14.669504 0.6670 0.6650 0.6620 0.6600 0.6600
14.702000 0.6590 0.6590 0.6570 0.6570 0.6550
14.734504 0.6510 0.6510 0.6510 0.6490 0.6470
14.767000 0.6470 0.6440 0.6430 0.6430 0.6410
14.799504 0.6390 0.6410 0.6390 0.6390 0.6380
14.832000 0.6360 0.6360 0.6310 0.6310 0.6300
14.864504 0.6300 0.6270 0.6250 0.6220 0.6220
14.897000 0.6220 0.6200 0.6200 0.6180 0.6150
14.929504 0.6140 0.6120 0.6120 0.6120 0.6120
14.962000 0.6120 0.6120 0.6120 0.6100 0.6090
14.994504 0.6070 0.6060 0.5990 0.5980 0.5980
15.027000 0.5960 0.5940 0.5900 0.5900 0.5880
15.059504 0.5860 0.5810 0.5810 0.5800 0.5780
15.092000 0.5770 0.5730 0.5700 0.5690 0.5690
15.124504 0.5670 0.5670 0.5620 0.5620 0.5570
15.157000 0.5560 0.5530 0.5530 0.5510 0.5510
15.189504 0.5510 0.5490 0.5480 0.5480 0.5430
15.222000 0.5400 0.5400 0.5360 0.5330 0.5330
15.254504 0.5320 0.5300 0.5280 0.5280 0.5270
15.287000 0.5250 0.5240 0.5220 0.5220 0.5220
15.319504 0.5200 0.5200 0.5190 0.5190 0.5170
15.352000 0.5160 0.5140 0.5120 0.5110 0.5090
15.384504 0.5080 0.5080 0.5080 0.5060 0.5060
15.417000 0.5040 0.5040 0.5030 0.5030 0.5010
15.449504 0.5010 0.5000 0.5000 0.4980 0.4980
15.482000 0.4960 0.4960 0.4950 0.4910 0.4910
15.514504 0.4900 0.4870 0.4870 0.4870 0.4850
15.547000 0.4830 0.4820 0.4820 0.4800 0.4770
15.579504 0.4770 0.4770 0.4770 0.4770 0.4770
15.612000 0.4770 0.4770 0.4790 0.4770 0.4770
15.644504 0.4770 0.4770 0.4770 0.4770 0.4750
15.677000 0.4740 0.4740 0.4720 0.4720 0.4710
15.709504 0.4710 0.4690 0.4710 0.4710 0.4710
15.742000 0.4690 0.4690 0.4690 0.4670 0.4670
15.774504 0.4670 0.4660 0.4660 0.4640 0.4640
15.807000 0.4630 0.4630 0.4610 0.4610 0.4590
15.839504 0.4590 0.4580 0.4580 0.4560 0.4560
15.872000 0.4540 0.4540
##END=
