##TITLE=BIS(1-AMINO-2-PROPYL) DISULFIDE DIHYDROCHLORIDE
##JCAMP-DX=4.24
##DATA TYPE=INFRARED SPECTRUM
##CLASS=COBLENTZ
##ORIGIN=ARTHUR D. LITTLE, INC.
##OWNER=COBLENTZ SOCIETY
Collection (C) 2018 copyright by the U.S. Secretary of Commerce
on behalf of the United States of America. All rights reserved.
##DATE=Not specified, most likely prior to 1970
##MOLFORM=C6 H16 N2 S2  * 2 H Cl
##MP=222-224 C
##SOURCE REFERENCE=COBLENTZ NO. 4592
##$NIST ID=B6004592
##$NIST SOURCE=COBLENTZ
##$NIST IMAGE=cob4592
##SPECTROMETER/DATA SYSTEM=Not specified, most likely a prism, grating, or hybrid spectrometer.
##STATE=SOLID (MINERAL OIL MULL)
##SAMPLING PROCEDURE=TRANSMISSION
##RESOLUTION=4
##DATA PROCESSING=DIGITIZED BY NIST FROM HARD COPY
##XUNITS=MICROMETERS
##YUNITS=TRANSMITTANCE
##XFACTOR=1.000000
##YFACTOR=1
##DELTAX=000.005472
##FIRSTX=2.486
##LASTX=15.0113
##FIRSTY=0.819
##MAXX=15.0113
##MINX=2.486
##MAXY=0.975
##MINY=0.251
##NPOINTS=2290
##XYDATA=(X++(Y..Y))
2.486000 0.8190 0.8200 0.8210 0.8190 0.8200
2.513372 0.8210 0.8210 0.8220 0.8230 0.8230
2.540000 0.8260 0.8270 0.8270 0.8280 0.8290
2.567372 0.8300 0.8300 0.8310 0.8320 0.8330
2.595000 0.8330 0.8340 0.8350 0.8350 0.8350
2.622372 0.8360 0.8360 0.8380 0.8390 0.8390
2.650000 0.8400 0.8410 0.8410 0.8420 0.8430
2.677372 0.8430 0.8430 0.8440 0.8440 0.8440
2.705000 0.8450 0.8450 0.8450 0.8450 0.8460
2.732372 0.8460 0.8470 0.8480 0.8500 0.8500
2.759000 0.8510 0.8520 0.8520 0.8530 0.8540
2.786372 0.8550 0.8560 0.8560 0.8570 0.8580
2.814000 0.8590 0.8590 0.8600 0.8600 0.8610
2.841372 0.8610 0.8610 0.8610 0.8630 0.8630
2.869000 0.8630 0.8640 0.8640 0.8640 0.8650
2.896372 0.8650 0.8650 0.8650 0.8650 0.8650
2.923000 0.8650 0.8650 0.8640 0.8630 0.8630
2.950372 0.8610 0.8590 0.8580 0.8570 0.8530
2.978000 0.8530 0.8510 0.8480 0.8470 0.8440
3.005372 0.8410 0.8340 0.8300 0.8200 0.8060
3.033000 0.7900 0.7810 0.7600 0.7510 0.7410
3.060372 0.7300 0.7210 0.7110 0.7030 0.6930
3.088000 0.6840 0.6720 0.6630 0.6590 0.6470
3.115372 0.6330 0.6290 0.6180 0.6080 0.5970
3.142000 0.5880 0.5780 0.5670 0.5570 0.5330
3.169372 0.5200 0.5060 0.4940 0.4800 0.4670
3.197000 0.4530 0.4420 0.4300 0.4170 0.4040
3.224372 0.3890 0.3750 0.3600 0.3470 0.3340
3.252000 0.3110 0.2920 0.2810 0.2660 0.2590
3.279372 0.2580 0.2540 0.2530 0.2520 0.2520
3.306000 0.2510 0.2510 0.2520 0.2680 0.2820
3.333372 0.2960 0.3090 0.3150 0.3210 0.3270
3.361000 0.3400 0.3560 0.3800 0.4290 0.4410
3.388372 0.4540 0.4700 0.5040 0.5270 0.5290
3.416000 0.5320 0.5320 0.5310 0.5290 0.5260
3.443372 0.5210 0.5180 0.5130 0.5070 0.5010
3.471000 0.4930 0.4830 0.4720 0.4630 0.4420
3.498372 0.3570 0.3320 0.3150 0.3100 0.3090
3.525000 0.3090 0.3110 0.3220 0.3280 0.3330
3.552372 0.3450 0.3640 0.3800 0.3830 0.3890
3.580000 0.3930 0.4000 0.4070 0.4130 0.4160
3.607372 0.4230 0.4280 0.4350 0.4450 0.4580
3.635000 0.4670 0.4730 0.4760 0.4800 0.4880
3.662372 0.4970 0.5000 0.5020 0.5060 0.5110
3.689000 0.5160 0.5230 0.5290 0.5300 0.5310
3.716372 0.5310 0.5300 0.5270 0.5230 0.5220
3.744000 0.5210 0.5210 0.5230 0.5290 0.5310
3.771372 0.5340 0.5380 0.5420 0.5440 0.5470
3.799000 0.5500 0.5520 0.5530 0.5540 0.5540
3.826372 0.5530 0.5460 0.5440 0.5410 0.5400
3.854000 0.5420 0.5510 0.5580 0.5730 0.5910
3.881372 0.6030 0.6130 0.6270 0.6300 0.6330
3.908000 0.6390 0.6420 0.6440 0.6470 0.6510
3.935372 0.6540 0.6550 0.6570 0.6580 0.6610
3.963000 0.6630 0.6660 0.6700 0.6730 0.6770
3.990372 0.6790 0.6910 0.7010 0.7100 0.7230
4.018000 0.7270 0.7290 0.7330 0.7360 0.7380
4.045372 0.7400 0.7440 0.7470 0.7500 0.7540
4.073000 0.7560 0.7590 0.7600 0.7600 0.7610
4.100372 0.7610 0.7610 0.7610 0.7630 0.7630
4.127000 0.7640 0.7640 0.7650 0.7660 0.7680
4.154372 0.7690 0.7710 0.7720 0.7750 0.7760
4.182000 0.7760 0.7780 0.7800 0.7820 0.7840
4.209372 0.7850 0.7850 0.7850 0.7840 0.7840
4.237000 0.7850 0.7860 0.7890 0.7900 0.7910
4.264372 0.7930 0.7950 0.7980 0.8010 0.8070
4.291000 0.8180 0.8220 0.8250 0.8270 0.8290
4.318372 0.8320 0.8340 0.8380 0.8390 0.8400
4.346000 0.8430 0.8430 0.8440 0.8440 0.8450
4.373372 0.8460 0.8460 0.8460 0.8460 0.8450
4.401000 0.8450 0.8450 0.8440 0.8430 0.8420
4.428372 0.8420 0.8410 0.8410 0.8410 0.8400
4.456000 0.8400 0.8400 0.8400 0.8410 0.8410
4.483372 0.8410 0.8420 0.8430 0.8430 0.8440
4.510000 0.8440 0.8450 0.8450 0.8460 0.8460
4.537372 0.8470 0.8470 0.8480 0.8500 0.8500
4.565000 0.8520 0.8530 0.8540 0.8550 0.8550
4.592372 0.8560 0.8580 0.8590 0.8600 0.8630
4.620000 0.8640 0.8650 0.8660 0.8670 0.8670
4.647372 0.8680 0.8680 0.8690 0.8700 0.8700
4.674000 0.8700 0.8710 0.8720 0.8720 0.8710
4.701372 0.8710 0.8700 0.8690 0.8660 0.8630
4.729000 0.8600 0.8550 0.8500 0.8470 0.8460
4.756372 0.8450 0.8420 0.8380 0.8310 0.8260
4.784000 0.8210 0.8190 0.8150 0.8140 0.8130
4.811372 0.8090 0.8070 0.8050 0.8030 0.8010
4.839000 0.8000 0.7980 0.7960 0.7950 0.7940
4.866372 0.7920 0.7910 0.7900 0.7890 0.7860
4.893000 0.7850 0.7840 0.7830 0.7820 0.7820
4.920372 0.7810 0.7800 0.7790 0.7780 0.7770
4.948000 0.7760 0.7750 0.7730 0.7730 0.7720
4.975372 0.7710 0.7710 0.7700 0.7700 0.7700
5.003000 0.7700 0.7700 0.7710 0.7720 0.7730
5.030372 0.7750 0.7760 0.7770 0.7800 0.7820
5.057000 0.7900 0.7920 0.7950 0.8000 0.8020
5.084372 0.8050 0.8080 0.8100 0.8110 0.8140
5.112000 0.8160 0.8180 0.8190 0.8210 0.8230
5.139372 0.8260 0.8290 0.8300 0.8310 0.8330
5.167000 0.8350 0.8360 0.8390 0.8410 0.8420
5.194372 0.8430 0.8440 0.8450 0.8480 0.8500
5.222000 0.8510 0.8530 0.8550 0.8550 0.8570
5.249372 0.8580 0.8590 0.8610 0.8630 0.8640
5.276000 0.8640 0.8650 0.8670 0.8680 0.8690
5.303372 0.8700 0.8710 0.8720 0.8730 0.8750
5.331000 0.8750 0.8760 0.8760 0.8760 0.8770
5.358372 0.8780 0.8780 0.8780 0.8790 0.8790
5.386000 0.8790 0.8800 0.8800 0.8810 0.8830
5.413372 0.8860 0.8880 0.8880 0.8900 0.8900
5.440000 0.8910 0.8910 0.8910 0.8920 0.8920
5.467372 0.8920 0.8920 0.8920 0.8920 0.8920
5.495000 0.8920 0.8920 0.8920 0.8920 0.8920
5.522372 0.8920 0.8920 0.8920 0.8910 0.8910
5.550000 0.8910 0.8910 0.8900 0.8900 0.8900
5.577372 0.8890 0.8890 0.8890 0.8890 0.8890
5.605000 0.8890 0.8890 0.8880 0.8880 0.8890
5.632372 0.8890 0.8890 0.8890 0.8880 0.8880
5.659000 0.8880 0.8880 0.8880 0.8860 0.8860
5.686372 0.8860 0.8850 0.8840 0.8820 0.8820
5.714000 0.8810 0.8810 0.8800 0.8790 0.8790
5.741372 0.8780 0.8780 0.8780 0.8780 0.8790
5.769000 0.8790 0.8800 0.8810 0.8810 0.8820
5.796372 0.8830 0.8830 0.8840 0.8850 0.8860
5.824000 0.8860 0.8880 0.8880 0.8880 0.8880
5.851372 0.8880 0.8880 0.8880 0.8880 0.8880
5.878000 0.8880 0.8880 0.8880 0.8890 0.8890
5.905372 0.8890 0.8890 0.8900 0.8900 0.8900
5.933000 0.8900 0.8910 0.8910 0.8910 0.8920
5.960372 0.8920 0.8920 0.8930 0.8930 0.8940
5.988000 0.8940 0.8940 0.8940 0.8940 0.8940
6.015372 0.8930 0.8930 0.8930 0.8930 0.8930
6.042000 0.8920 0.8920 0.8910 0.8760 0.8700
6.069372 0.8660 0.8630 0.8590 0.8580 0.8560
6.097000 0.8540 0.8480 0.8380 0.8260 0.7980
6.124372 0.7850 0.7460 0.7250 0.7140 0.6830
6.152000 0.6670 0.6360 0.6160 0.6040 0.5850
6.179372 0.5650 0.5570 0.5090 0.4960 0.4770
6.207000 0.4570 0.4350 0.4230 0.4230 0.4320
6.234372 0.4350 0.4390 0.4390 0.4400 0.4400
6.261000 0.4410 0.4430 0.4760 0.5080 0.5430
6.288372 0.5780 0.6110 0.6610 0.6980 0.7690
6.316000 0.7730 0.7750 0.7760 0.7770 0.7770
6.343372 0.7770 0.7770 0.7770 0.7770 0.7780
6.371000 0.7780 0.7780 0.7790 0.7800 0.7810
6.398372 0.7820 0.7850 0.7860 0.7900 0.7910
6.425000 0.7930 0.7930 0.7950 0.7950 0.7940
6.452372 0.7930 0.7780 0.7760 0.7660 0.7550
6.480000 0.7250 0.7050 0.6860 0.6680 0.6520
6.507372 0.6340 0.6190 0.6030 0.5860 0.5690
6.535000 0.5550 0.5430 0.5420 0.5410 0.5390
6.562372 0.5380 0.5360 0.5310 0.5100 0.4900
6.590000 0.4660 0.4470 0.4360 0.4300 0.4260
6.617372 0.4210 0.4200 0.4210 0.4270 0.4450
6.644000 0.4680 0.4880 0.5060 0.5250 0.5430
6.671372 0.5520 0.5600 0.5800 0.6000 0.6210
6.699000 0.6530 0.6720 0.6960 0.7070 0.7310
6.726372 0.7500 0.7680 0.7760 0.7830 0.7970
6.754000 0.8210 0.8380 0.8530 0.8670 0.8760
6.781372 0.8900 0.8920 0.8940 0.8960 0.8920
6.808000 0.8790 0.8660 0.8550 0.8440 0.8390
6.835372 0.8260 0.8180 0.8110 0.8020 0.7410
6.863000 0.7400 0.7390 0.7390 0.7390 0.7400
6.890372 0.7410 0.7440 0.7470 0.7510 0.7530
6.918000 0.7550 0.7560 0.7580 0.7580 0.7590
6.945372 0.7610 0.7630 0.7650 0.7710 0.7750
6.973000 0.7770 0.7880 0.7910 0.8180 0.8220
7.000372 0.8260 0.8280 0.8300 0.8340 0.8440
7.027000 0.8480 0.8510 0.8540 0.8550 0.8560
7.054372 0.8570 0.8580 0.8580 0.8590 0.8590
7.082000 0.8590 0.8590 0.8580 0.8570 0.8550
7.109372 0.8500 0.8430 0.8380 0.8330 0.8230
7.137000 0.8170 0.8070 0.8050 0.7840 0.7610
7.164372 0.7510 0.7460 0.7420 0.7410 0.7420
7.192000 0.7660 0.7890 0.8050 0.8110 0.8170
7.219372 0.8350 0.8570 0.8680 0.8690 0.8700
7.246000 0.8720 0.8730 0.8750 0.8770 0.8780
7.273372 0.8790 0.8810 0.8820 0.8830 0.8880
7.301000 0.8890 0.8890 0.8900 0.8910 0.8960
7.328372 0.8980 0.9020 0.9060 0.9090 0.9130
7.356000 0.9160 0.9170 0.9180 0.9190 0.9190
7.383372 0.9180 0.9180 0.9170 0.9150 0.9090
7.410000 0.9050 0.8960 0.8940 0.8920 0.8900
7.437372 0.8890 0.8880 0.8820 0.8800 0.8770
7.465000 0.8730 0.8710 0.8650 0.8630 0.8600
7.492372 0.8560 0.8390 0.8360 0.8340 0.8320
7.520000 0.8320 0.8310 0.8310 0.8310 0.8320
7.547372 0.8320 0.8350 0.8360 0.8380 0.8380
7.575000 0.8400 0.8410 0.8410 0.8410 0.8410
7.602372 0.8410 0.8410 0.8410 0.8420 0.8440
7.629000 0.8460 0.8530 0.8570 0.8630 0.8670
7.656372 0.8700 0.8710 0.8750 0.8790 0.8880
7.684000 0.8890 0.8910 0.8930 0.8970 0.9010
7.711372 0.9030 0.9050 0.9060 0.9130 0.9150
7.739000 0.9160 0.9180 0.9190 0.9190 0.9190
7.766372 0.9200 0.9200 0.9200 0.9200 0.9200
7.793000 0.9200 0.9200 0.9200 0.9200 0.9200
7.820372 0.9200 0.9200 0.9200 0.9200 0.9200
7.848000 0.9190 0.9190 0.9170 0.9170 0.9150
7.875372 0.9140 0.9110 0.9090 0.9070 0.9020
7.903000 0.8960 0.8920 0.8880 0.8820 0.8790
7.930372 0.8780 0.8730 0.8700 0.8690 0.8690
7.958000 0.8690 0.8680 0.8670 0.8610 0.8570
7.985372 0.8540 0.8470 0.8350 0.8270 0.8210
8.012000 0.8160 0.7900 0.7510 0.7360 0.7300
8.039372 0.7210 0.7160 0.7110 0.7060 0.7050
8.067000 0.7060 0.7080 0.7160 0.7220 0.7290
8.094372 0.7600 0.7820 0.8040 0.8080 0.8350
8.122000 0.8510 0.8560 0.8590 0.8640 0.8690
8.149372 0.8710 0.8730 0.8760 0.8770 0.8790
8.176000 0.8820 0.8840 0.8860 0.8880 0.8890
8.203372 0.8900 0.8920 0.8930 0.8950 0.8970
8.231000 0.9000 0.9020 0.9030 0.9040 0.9060
8.258372 0.9080 0.9090 0.9100 0.9100 0.9110
8.286000 0.9110 0.9130 0.9130 0.9110 0.9110
8.313372 0.9110 0.9110 0.9100 0.9100 0.9080
8.341000 0.9040 0.9030 0.9030 0.9020 0.9020
8.368372 0.9020 0.9030 0.9030 0.9040 0.9040
8.395000 0.9040 0.9040 0.9040 0.9040 0.9030
8.422372 0.9030 0.9030 0.9020 0.8980 0.8900
8.450000 0.8830 0.8790 0.8750 0.8700 0.8670
8.477372 0.8610 0.8590 0.8500 0.8390 0.8230
8.505000 0.8100 0.7970 0.7950 0.7850 0.7640
8.532372 0.7560 0.7510 0.7480 0.7480 0.7510
8.560000 0.7530 0.7640 0.7690 0.7720 0.7760
8.587372 0.7830 0.7880 0.7890 0.7900 0.7910
8.614000 0.7910 0.7890 0.7810 0.7640 0.7560
8.641372 0.7540 0.7530 0.7540 0.7650 0.7710
8.669000 0.7730 0.7760 0.7790 0.7840 0.8200
8.696372 0.8350 0.8430 0.8510 0.8600 0.8630
8.724000 0.8660 0.8710 0.8760 0.8800 0.8900
8.751372 0.8960 0.9010 0.9020 0.9030 0.9030
8.778000 0.9030 0.9030 0.9040 0.9040 0.9130
8.805372 0.9150 0.9160 0.9170 0.9170 0.9180
8.833000 0.9180 0.9180 0.9180 0.9190 0.9190
8.860372 0.9170 0.9150 0.9090 0.9060 0.8950
8.888000 0.8900 0.8770 0.8710 0.8670 0.8650
8.915372 0.8610 0.8600 0.8590 0.8560 0.8550
8.943000 0.8540 0.8550 0.8570 0.8600 0.8630
8.970372 0.8650 0.8680 0.8690 0.8710 0.8710
8.997000 0.8730 0.8760 0.8770 0.8770 0.8780
9.024372 0.8780 0.8780 0.8750 0.8730 0.8700
9.052000 0.8670 0.8520 0.8470 0.8440 0.8390
9.079372 0.8340 0.8270 0.8220 0.8220 0.8250
9.107000 0.8260 0.8280 0.8300 0.8310 0.8320
9.134372 0.8330 0.8350 0.8360 0.8380 0.8390
9.161000 0.8390 0.8380 0.8360 0.8340 0.8310
9.188372 0.8270 0.8150 0.8080 0.8050 0.8000
9.216000 0.7780 0.7580 0.7570 0.7580 0.7600
9.243372 0.7630 0.7670 0.7750 0.7810 0.7850
9.271000 0.7920 0.7930 0.7940 0.8010 0.8480
9.298372 0.8540 0.8660 0.8810 0.8930 0.8960
9.326000 0.9000 0.9020 0.9040 0.9050 0.9060
9.353372 0.9070 0.9080 0.9080 0.9090 0.9100
9.380000 0.9110 0.9110 0.9130 0.9140 0.9140
9.407372 0.9150 0.9150 0.9160 0.9170 0.9170
9.435000 0.9180 0.9200 0.9210 0.9210 0.9220
9.462372 0.9230 0.9230 0.9180 0.9110 0.9040
9.490000 0.8970 0.8930 0.8850 0.8650 0.8450
9.517372 0.8440 0.8440 0.8430 0.8420 0.8410
9.544000 0.8320 0.8150 0.8070 0.8060 0.8060
9.571372 0.8050 0.8050 0.8040 0.8010 0.7970
9.599000 0.7970 0.8000 0.8040 0.8070 0.8110
9.626372 0.8160 0.8200 0.8280 0.8320 0.8360
9.654000 0.8390 0.8410 0.8450 0.8470 0.8470
9.681372 0.8460 0.8460 0.8450 0.8440 0.8440
9.709000 0.8430 0.8410 0.8400 0.8380 0.8360
9.736372 0.8300 0.8280 0.8180 0.8050 0.8010
9.763000 0.7930 0.7760 0.7580 0.7470 0.7430
9.790372 0.7400 0.7390 0.7380 0.7330 0.7300
9.818000 0.7250 0.7250 0.7210 0.7200 0.7200
9.845372 0.7200 0.7190 0.7190 0.7180 0.7160
9.873000 0.7110 0.7100 0.7090 0.7090 0.7110
9.900372 0.7150 0.7170 0.7250 0.7310 0.7430
9.927000 0.7570 0.7690 0.7800 0.7850 0.8080
9.954372 0.8130 0.8160 0.8170 0.8180 0.8190
9.982000 0.8250 0.8320 0.8360 0.8400 0.8420
10.009372 0.8440 0.8470 0.8500 0.8510 0.8530
10.037000 0.8530 0.8520 0.8510 0.8480 0.8440
10.064372 0.8410 0.8360 0.8320 0.8280 0.8270
10.092000 0.8260 0.8250 0.8070 0.8020 0.7970
10.119372 0.7940 0.7930 0.7930 0.7940 0.7950
10.146000 0.8000 0.8040 0.8090 0.8150 0.8200
10.173372 0.8250 0.8300 0.8340 0.8410 0.8460
10.201000 0.8460 0.8470 0.8470 0.8470 0.8470
10.228372 0.8470 0.8470 0.8470 0.8480 0.8480
10.256000 0.8480 0.8480 0.8480 0.8480 0.8480
10.283372 0.8500 0.8500 0.8520 0.8520 0.8530
10.311000 0.8540 0.8550 0.8560 0.8570 0.8570
10.338372 0.8580 0.8580 0.8600 0.8610 0.8650
10.365000 0.8670 0.8680 0.8690 0.8730 0.8760
10.392372 0.8790 0.8840 0.8900 0.8930 0.8970
10.420000 0.9030 0.9050 0.9070 0.9100 0.9110
10.447372 0.9150 0.9200 0.9230 0.9230 0.9270
10.475000 0.9280 0.9290 0.9300 0.9310 0.9320
10.502372 0.9330 0.9380 0.9410 0.9440 0.9450
10.529000 0.9460 0.9460 0.9470 0.9500 0.9510
10.556372 0.9520 0.9520 0.9530 0.9530 0.9530
10.584000 0.9530 0.9530 0.9530 0.9520 0.9520
10.611372 0.9520 0.9510 0.9510 0.9510 0.9510
10.639000 0.9510 0.9510 0.9510 0.9510 0.9510
10.666372 0.9510 0.9510 0.9510 0.9520 0.9520
10.694000 0.9520 0.9520 0.9520 0.9520 0.9530
10.721372 0.9530 0.9530 0.9530 0.9530 0.9530
10.748000 0.9530 0.9530 0.9530 0.9530 0.9540
10.775372 0.9540 0.9540 0.9540 0.9540 0.9540
10.803000 0.9540 0.9540 0.9540 0.9540 0.9540
10.830372 0.9550 0.9550 0.9550 0.9550 0.9550
10.858000 0.9550 0.9550 0.9550 0.9550 0.9550
10.885372 0.9550 0.9550 0.9550 0.9550 0.9540
10.912000 0.9540 0.9540 0.9540 0.9540 0.9540
10.939372 0.9540 0.9540 0.9530 0.9530 0.9530
10.967000 0.9530 0.9530 0.9530 0.9540 0.9540
10.994372 0.9540 0.9540 0.9540 0.9540 0.9530
11.022000 0.9530 0.9530 0.9530 0.9520 0.9520
11.049372 0.9510 0.9510 0.9500 0.9500 0.9480
11.077000 0.9480 0.9470 0.9470 0.9460 0.9460
11.104372 0.9460 0.9450 0.9450 0.9450 0.9440
11.131000 0.9440 0.9430 0.9420 0.9410 0.9360
11.158372 0.9340 0.9290 0.9220 0.9190 0.9140
11.186000 0.9100 0.8950 0.8840 0.8800 0.8770
11.213372 0.8710 0.8640 0.8570 0.8530 0.8470
11.241000 0.8420 0.8410 0.8400 0.8390 0.8390
11.268372 0.8380 0.8380 0.8380 0.8380 0.8380
11.295000 0.8380 0.8380 0.8390 0.8390 0.8400
11.322372 0.8400 0.8400 0.8400 0.8380 0.8360
11.350000 0.8330 0.8320 0.8320 0.8310 0.8310
11.377372 0.8300 0.8300 0.8300 0.8300 0.8300
11.405000 0.8310 0.8310 0.8320 0.8320 0.8330
11.432372 0.8340 0.8350 0.8350 0.8360 0.8380
11.460000 0.8380 0.8400 0.8400 0.8410 0.8430
11.487372 0.8500 0.8520 0.8530 0.8540 0.8570
11.514000 0.8580 0.8600 0.8640 0.8720 0.8750
11.541372 0.8780 0.8840 0.8950 0.8980 0.9050
11.569000 0.9070 0.9090 0.9100 0.9110 0.9140
11.596372 0.9160 0.9180 0.9190 0.9210 0.9230
11.624000 0.9260 0.9270 0.9290 0.9300 0.9310
11.651372 0.9320 0.9330 0.9350 0.9360 0.9360
11.679000 0.9380 0.9380 0.9390 0.9390 0.9400
11.706372 0.9410 0.9410 0.9410 0.9420 0.9420
11.733000 0.9430 0.9430 0.9440 0.9440 0.9440
11.760372 0.9440 0.9440 0.9440 0.9440 0.9440
11.788000 0.9440 0.9440 0.9440 0.9430 0.9430
11.815372 0.9420 0.9420 0.9400 0.9380 0.9350
11.843000 0.9330 0.9300 0.9200 0.9180 0.9130
11.870372 0.9040 0.9010 0.8970 0.8920 0.8900
11.897000 0.8820 0.8770 0.8690 0.8630 0.8590
11.924372 0.8580 0.8510 0.8480 0.8470 0.8450
11.952000 0.8440 0.8430 0.8430 0.8420 0.8420
11.979372 0.8430 0.8440 0.8500 0.8570 0.8600
12.007000 0.8610 0.8640 0.8720 0.8790 0.8820
12.034372 0.8860 0.8890 0.8940 0.9000 0.9020
12.062000 0.9040 0.9080 0.9110 0.9150 0.9180
12.089372 0.9200 0.9210 0.9230 0.9260 0.9290
12.116000 0.9330 0.9340 0.9360 0.9380 0.9400
12.143372 0.9420 0.9430 0.9440 0.9440 0.9450
12.171000 0.9450 0.9460 0.9460 0.9460 0.9460
12.198372 0.9460 0.9460 0.9460 0.9460 0.9460
12.226000 0.9460 0.9460 0.9460 0.9460 0.9460
12.253372 0.9460 0.9460 0.9470 0.9470 0.9470
12.280000 0.9460 0.9460 0.9460 0.9460 0.9460
12.307372 0.9460 0.9460 0.9460 0.9460 0.9460
12.335000 0.9460 0.9460 0.9460 0.9460 0.9460
12.362372 0.9460 0.9460 0.9460 0.9470 0.9470
12.390000 0.9480 0.9480 0.9480 0.9500 0.9500
12.417372 0.9500 0.9510 0.9510 0.9510 0.9510
12.445000 0.9520 0.9520 0.9530 0.9530 0.9530
12.472372 0.9530 0.9530 0.9540 0.9530 0.9530
12.499000 0.9530 0.9530 0.9530 0.9530 0.9530
12.526372 0.9540 0.9540 0.9540 0.9530 0.9530
12.554000 0.9530 0.9530 0.9530 0.9530 0.9530
12.581372 0.9530 0.9530 0.9530 0.9540 0.9540
12.609000 0.9540 0.9530 0.9530 0.9540 0.9540
12.636372 0.9540 0.9540 0.9540 0.9540 0.9540
12.663000 0.9540 0.9540 0.9540 0.9550 0.9550
12.690372 0.9550 0.9550 0.9540 0.9550 0.9550
12.718000 0.9550 0.9550 0.9550 0.9550 0.9550
12.745372 0.9550 0.9550 0.9550 0.9550 0.9550
12.773000 0.9550 0.9550 0.9550 0.9560 0.9560
12.800372 0.9560 0.9560 0.9560 0.9560 0.9570
12.828000 0.9570 0.9570 0.9570 0.9570 0.9570
12.855372 0.9570 0.9570 0.9570 0.9570 0.9570
12.882000 0.9580 0.9570 0.9570 0.9570 0.9570
12.909372 0.9570 0.9570 0.9570 0.9570 0.9570
12.937000 0.9570 0.9570 0.9570 0.9570 0.9570
12.964372 0.9570 0.9570 0.9570 0.9570 0.9570
12.992000 0.9580 0.9580 0.9580 0.9580 0.9570
13.019372 0.9580 0.9580 0.9580 0.9570 0.9570
13.047000 0.9570 0.9570 0.9570 0.9570 0.9570
13.074372 0.9570 0.9570 0.9560 0.9560 0.9560
13.101000 0.9570 0.9570 0.9570 0.9570 0.9570
13.128372 0.9570 0.9570 0.9560 0.9560 0.9560
13.156000 0.9560 0.9560 0.9560 0.9560 0.9560
13.183372 0.9560 0.9560 0.9560 0.9560 0.9560
13.211000 0.9560 0.9560 0.9560 0.9560 0.9560
13.238372 0.9560 0.9560 0.9560 0.9560 0.9560
13.265000 0.9560 0.9570 0.9570 0.9570 0.9570
13.292372 0.9570 0.9570 0.9570 0.9570 0.9570
13.320000 0.9570 0.9570 0.9570 0.9570 0.9570
13.347372 0.9570 0.9570 0.9570 0.9570 0.9570
13.375000 0.9570 0.9570 0.9570 0.9570 0.9570
13.402372 0.9570 0.9570 0.9570 0.9570 0.9560
13.430000 0.9560 0.9560 0.9560 0.9560 0.9560
13.457372 0.9560 0.9570 0.9570 0.9570 0.9580
13.484000 0.9590 0.9590 0.9590 0.9590 0.9590
13.511372 0.9590 0.9590 0.9600 0.9600 0.9600
13.539000 0.9590 0.9590 0.9590 0.9590 0.9600
13.566372 0.9600 0.9600 0.9600 0.9600 0.9600
13.594000 0.9600 0.9600 0.9600 0.9610 0.9610
13.621372 0.9610 0.9610 0.9610 0.9610 0.9610
13.648000 0.9610 0.9610 0.9610 0.9630 0.9630
13.675372 0.9630 0.9630 0.9640 0.9640 0.9640
13.703000 0.9640 0.9650 0.9650 0.9650 0.9660
13.730372 0.9660 0.9670 0.9680 0.9680 0.9690
13.758000 0.9690 0.9700 0.9700 0.9700 0.9710
13.785372 0.9710 0.9710 0.9710 0.9710 0.9710
13.813000 0.9710 0.9710 0.9720 0.9720 0.9720
13.840372 0.9720 0.9720 0.9720 0.9720 0.9720
13.867000 0.9720 0.9730 0.9730 0.9730 0.9730
13.894372 0.9730 0.9730 0.9730 0.9730 0.9730
13.922000 0.9730 0.9730 0.9750 0.9750 0.9750
13.949372 0.9730 0.9730 0.9730 0.9730 0.9750
13.977000 0.9750 0.9750 0.9750 0.9750 0.9730
14.004372 0.9730 0.9730 0.9730 0.9730 0.9730
14.031000 0.9720 0.9710 0.9710 0.9700 0.9690
14.058372 0.9690 0.9680 0.9670 0.9670 0.9660
14.086000 0.9650 0.9630 0.9610 0.9590 0.9580
14.113372 0.9570 0.9560 0.9550 0.9550 0.9540
14.141000 0.9540 0.9530 0.9530 0.9520 0.9520
14.168372 0.9510 0.9500 0.9480 0.9480 0.9470
14.196000 0.9460 0.9450 0.9440 0.9430 0.9420
14.223372 0.9420 0.9410 0.9410 0.9400 0.9400
14.250000 0.9400 0.9400 0.9410 0.9410 0.9410
14.277372 0.9400 0.9400 0.9400 0.9400 0.9400
14.305000 0.9390 0.9390 0.9390 0.9390 0.9400
14.332372 0.9400 0.9400 0.9400 0.9400 0.9400
14.360000 0.9400 0.9400 0.9400 0.9400 0.9400
14.387372 0.9410 0.9410 0.9410 0.9410 0.9410
14.415000 0.9410 0.9410 0.9420 0.9420 0.9420
14.442372 0.9430 0.9430 0.9430 0.9430 0.9430
14.469000 0.9430 0.9420 0.9420 0.9420 0.9420
14.496372 0.9420 0.9420 0.9420 0.9420 0.9420
14.524000 0.9420 0.9420 0.9420 0.9430 0.9430
14.551372 0.9430 0.9420 0.9420 0.9420 0.9420
14.579000 0.9420 0.9420 0.9420 0.9420 0.9420
14.606372 0.9430 0.9430 0.9430 0.9430 0.9430
14.633000 0.9430 0.9430 0.9430 0.9430 0.9430
14.660372 0.9430 0.9420 0.9420 0.9420 0.9420
14.688000 0.9420 0.9420 0.9420 0.9410 0.9410
14.715372 0.9410 0.9410 0.9410 0.9410 0.9410
14.743000 0.9410 0.9410 0.9410 0.9410 0.9410
14.770372 0.9410 0.9410 0.9410 0.9410 0.9410
14.798000 0.9410 0.9410 0.9410 0.9410 0.9410
14.825372 0.9420 0.9420 0.9420 0.9410 0.9410
14.852000 0.9410 0.9410 0.9410 0.9410 0.9410
14.879372 0.9410 0.9410 0.9410 0.9410 0.9410
14.907000 0.9410 0.9410 0.9410 0.9410 0.9410
14.934372 0.9410 0.9410 0.9410 0.9410 0.9410
14.962000 0.9410 0.9410 0.9410 0.9410 0.9400
14.989372 0.9400 0.9400 0.9400 0.9390 0.9390
##END=
