##TITLE=SODIUM PERBORATE
$$ C.P.
##JCAMP-DX=4.24
##DATA TYPE=INFRARED SPECTRUM
##CLASS=COBLENTZ
##ORIGIN=MELLON INSTITUTE
##OWNER=COBLENTZ SOCIETY
Collection (C) 2018 copyright by the U.S. Secretary of Commerce
on behalf of the United States of America. All rights reserved.
##DATE=Not specified, most likely prior to 1970
##MOLFORM=Na B O3  * 4 H2 O
##SOURCE REFERENCE=COBLENTZ NO. 2382
##$NIST ID=B6002382
##$NIST SOURCE=COBLENTZ
##$NIST IMAGE=cob2382
##SPECTROMETER/DATA SYSTEM=Not specified, most likely a prism, grating, or hybrid spectrometer.
##STATE=SOLID (NUJOL MULL)
##PATH LENGTH=
$$SPECTRAL CONTAMINATION DUE TO OIL AROUND 2900, 1450, 1380 CM^-^1
##SAMPLING PROCEDURE=TRANSMISSION
##RESOLUTION=4
##DATA PROCESSING=DIGITIZED BY NIST FROM HARD COPY
##XUNITS=MICROMETERS
##YUNITS=TRANSMITTANCE
##XFACTOR=1.000000
##YFACTOR=1
##DELTAX=000.006638
##FIRSTX=2.013
##LASTX=15.9872
##FIRSTY=0.64
##MAXX=15.9872
##MINX=2.013
##MAXY=0.95
##MINY=0.159
##NPOINTS=2106
##XYDATA=(X++(Y..Y))
2.013000 0.6400 0.6400 0.6420 0.6430 0.6430
2.046207 0.6450 0.6450 0.6470 0.6470 0.6470
2.080000 0.6470 0.6480 0.6480 0.6500 0.6500
2.113207 0.6520 0.6520 0.6520 0.6530 0.6530
2.146000 0.6530 0.6530 0.6530 0.6550 0.6550
2.179207 0.6570 0.6570 0.6570 0.6580 0.6580
2.212000 0.6580 0.6600 0.6600 0.6600 0.6620
2.245207 0.6620 0.6630 0.6630 0.6630 0.6630
2.279000 0.6650 0.6650 0.6650 0.6650 0.6670
2.312207 0.6670 0.6680 0.6680 0.6700 0.6700
2.345000 0.6700 0.6720 0.6720 0.6720 0.6720
2.378207 0.6750 0.6770 0.6770 0.6770 0.6800
2.412000 0.6800 0.6800 0.6820 0.6820 0.6820
2.445207 0.6820 0.6850 0.6870 0.6870 0.6870
2.478000 0.6880 0.6900 0.6920 0.6920 0.6950
2.511207 0.6950 0.6970 0.6970 0.6980 0.6980
2.544000 0.7000 0.7000 0.7020 0.7020 0.7020
2.577207 0.7020 0.7030 0.7050 0.7050 0.7080
2.611000 0.7100 0.7120 0.7120 0.7120 0.7150
2.644207 0.7170 0.7180 0.7180 0.7200 0.7220
2.677000 0.7220 0.7220 0.7230 0.7250 0.7250
2.710207 0.7250 0.7250 0.7250 0.7250 0.7200
2.743000 0.7180 0.7170 0.7130 0.7070 0.6780
2.776207 0.6630 0.6380 0.5990 0.5290 0.5050
2.810000 0.4690 0.4540 0.4350 0.4220 0.3990
2.843207 0.3860 0.3640 0.3540 0.3310 0.3160
2.876000 0.3110 0.2970 0.2860 0.2670 0.2610
2.909207 0.2490 0.2360 0.2290 0.2260 0.2170
2.943000 0.2110 0.2040 0.1980 0.1860 0.1780
2.976207 0.1760 0.1710 0.1690 0.1680 0.1640
3.009000 0.1630 0.1610 0.1610 0.1610 0.1630
3.042207 0.1630 0.1630 0.1660 0.1660 0.1690
3.075000 0.1710 0.1730 0.1830 0.1830 0.1880
3.108207 0.1980 0.2040 0.2090 0.2160 0.2210
3.142000 0.2270 0.2360 0.2390 0.2470 0.2570
3.175207 0.2710 0.2910 0.3010 0.3070 0.3110
3.208000 0.3210 0.3260 0.3270 0.3410 0.3510
3.241207 0.3660 0.3790 0.3890 0.3990 0.4000
3.275000 0.4020 0.4070 0.4100 0.4170 0.4170
3.308207 0.4190 0.4190 0.4190 0.4140 0.4120
3.341000 0.4000 0.3970 0.3810 0.3710 0.3510
3.374207 0.3460 0.3420 0.3420 0.3440 0.3570
3.407000 0.3710 0.3820 0.3960 0.4290 0.4450
3.440207 0.4470 0.4550 0.4570 0.4670 0.4720
3.474000 0.4790 0.4820 0.4900 0.5240 0.5700
3.507207 0.5950 0.6070 0.6270 0.6370 0.6480
3.540000 0.6580 0.6670 0.6770 0.6870 0.6950
3.573207 0.7000 0.7050 0.7080 0.7120 0.7170
3.606000 0.7250 0.7300 0.7350 0.7370 0.7380
3.639207 0.7400 0.7420 0.7470 0.7480 0.7500
3.673000 0.7530 0.7530 0.7570 0.7580 0.7600
3.706207 0.7620 0.7630 0.7630 0.7670 0.7670
3.739000 0.7680 0.7680 0.7700 0.7720 0.7730
3.772207 0.7730 0.7730 0.7730 0.7770 0.7780
3.806000 0.7780 0.7800 0.7800 0.7800 0.7800
3.839207 0.7820 0.7820 0.7830 0.7870 0.7880
3.872000 0.7900 0.7900 0.7920 0.7950 0.7950
3.905207 0.7970 0.7970 0.7970 0.7970 0.7970
3.938000 0.7970 0.7970 0.7980 0.7980 0.7980
3.971207 0.8000 0.8000 0.8000 0.8000 0.8010
4.005000 0.8010 0.8010 0.8010 0.8010 0.8010
4.038207 0.8030 0.8030 0.8050 0.8050 0.8050
4.071000 0.8060 0.8060 0.8080 0.8080 0.8080
4.104207 0.8100 0.8100 0.8100 0.8100 0.8100
4.138000 0.8100 0.8100 0.8100 0.8100 0.8100
4.171207 0.8080 0.8060 0.8060 0.8030 0.7980
4.204000 0.7970 0.7930 0.7900 0.7870 0.7830
4.237207 0.7820 0.7800 0.7800 0.7800 0.7820
4.270000 0.7820 0.7820 0.7830 0.7830 0.7830
4.303207 0.7850 0.7850 0.7870 0.7880 0.7880
4.337000 0.7870 0.7880 0.7880 0.7900 0.7920
4.370207 0.7920 0.7930 0.7930 0.7930 0.7930
4.403000 0.7930 0.7930 0.7930 0.7930 0.7930
4.436207 0.7930 0.7930 0.7930 0.7930 0.7930
4.469000 0.7930 0.7950 0.7950 0.7970 0.7970
4.502207 0.7970 0.7970 0.7980 0.7980 0.7980
4.536000 0.8000 0.8000 0.8010 0.8010 0.8010
4.569207 0.8010 0.8010 0.8010 0.8010 0.8010
4.602000 0.8010 0.8010 0.8010 0.8010 0.8010
4.635207 0.8010 0.8010 0.8030 0.8030 0.8030
4.669000 0.8050 0.8050 0.8050 0.8050 0.8060
4.702207 0.8060 0.8080 0.8100 0.8110 0.8110
4.735000 0.8130 0.8130 0.8160 0.8160 0.8180
4.768207 0.8180 0.8180 0.8200 0.8200 0.8210
4.801000 0.8210 0.8210 0.8230 0.8250 0.8260
4.834207 0.8260 0.8280 0.8280 0.8300 0.8310
4.868000 0.8310 0.8310 0.8330 0.8360 0.8380
4.901207 0.8380 0.8380 0.8410 0.8410 0.8430
4.934000 0.8430 0.8450 0.8450 0.8460 0.8460
4.967207 0.8480 0.8500 0.8510 0.8510 0.8530
5.000000 0.8530 0.8560 0.8560 0.8580 0.8600
5.033207 0.8600 0.8600 0.8610 0.8610 0.8610
5.067000 0.8630 0.8630 0.8630 0.8630 0.8650
5.100207 0.8660 0.8660 0.8680 0.8680 0.8700
5.133000 0.8710 0.8710 0.8730 0.8750 0.8760
5.166207 0.8800 0.8810 0.8810 0.8850 0.8860
5.200000 0.8900 0.8910 0.8910 0.8930 0.8950
5.233207 0.8950 0.8960 0.8980 0.9000 0.9000
5.266000 0.9010 0.9010 0.9010 0.9010 0.9030
5.299207 0.9060 0.9060 0.9080 0.9080 0.9100
5.332000 0.9100 0.9100 0.9110 0.9130 0.9130
5.365207 0.9150 0.9160 0.9160 0.9160 0.9160
5.399000 0.9160 0.9180 0.9180 0.9180 0.9180
5.432207 0.9180 0.9180 0.9180 0.9180 0.9180
5.465000 0.9180 0.9180 0.9180 0.9180 0.9180
5.498207 0.9180 0.9180 0.9200 0.9200 0.9210
5.532000 0.9230 0.9230 0.9230 0.9260 0.9280
5.565207 0.9300 0.9310 0.9310 0.9330 0.9330
5.598000 0.9360 0.9360 0.9360 0.9380 0.9400
5.631207 0.9400 0.9410 0.9430 0.9430 0.9450
5.664000 0.9450 0.9450 0.9460 0.9460 0.9480
5.697207 0.9480 0.9480 0.9480 0.9480 0.9480
5.731000 0.9480 0.9480 0.9500 0.9500 0.9500
5.764207 0.9500 0.9500 0.9500 0.9500 0.9500
5.797000 0.9500 0.9500 0.9500 0.9500 0.9500
5.830207 0.9460 0.9460 0.9450 0.9430 0.9410
5.863000 0.9380 0.9360 0.9350 0.9300 0.9280
5.896207 0.9250 0.9200 0.9160 0.9150 0.9130
5.930000 0.9050 0.8960 0.8800 0.8730 0.8710
5.963207 0.8680 0.8610 0.8550 0.8500 0.8450
5.996000 0.8380 0.8310 0.8280 0.8200 0.8000
6.029207 0.7970 0.7950 0.7950 0.7950 0.7970
6.063000 0.7980 0.8000 0.8030 0.8130 0.8200
6.096207 0.8260 0.8350 0.8450 0.8500 0.8550
6.129000 0.8650 0.8660 0.8760 0.8780 0.8810
6.162207 0.8880 0.8950 0.8960 0.9010 0.9060
6.195000 0.9060 0.9100 0.9130 0.9130 0.9160
6.228207 0.9180 0.9180 0.9180 0.9200 0.9210
6.262000 0.9230 0.9230 0.9230 0.9230 0.9230
6.295207 0.9230 0.9230 0.9230 0.9210 0.9210
6.328000 0.9200 0.9200 0.9200 0.9210 0.9230
6.361207 0.9250 0.9250 0.9250 0.9250 0.9250
6.394000 0.9230 0.9210 0.9210 0.9200 0.9200
6.427207 0.9200 0.9210 0.9230 0.9230 0.9250
6.461000 0.9260 0.9280 0.9280 0.9280 0.9280
6.494207 0.9280 0.9260 0.9260 0.9230 0.9210
6.527000 0.9210 0.9210 0.9210 0.9230 0.9230
6.560207 0.9230 0.9230 0.9210 0.9210 0.9210
6.594000 0.9180 0.9160 0.9160 0.9180 0.9180
6.627207 0.9180 0.9180 0.9180 0.9150 0.9150
6.660000 0.9150 0.9130 0.9100 0.9060 0.9050
6.693207 0.9010 0.8980 0.8960 0.8960 0.8950
6.726000 0.8880 0.8830 0.8730 0.8650 0.8600
6.759207 0.8510 0.8450 0.8330 0.8260 0.8200
6.793000 0.8000 0.7780 0.7620 0.7470 0.7380
6.826207 0.7330 0.7300 0.7230 0.7220 0.7200
6.859000 0.7180 0.7180 0.7180 0.7200 0.7230
6.892207 0.7250 0.7270 0.7330 0.7420 0.7430
6.926000 0.7520 0.7580 0.7650 0.7700 0.7800
6.959207 0.7850 0.7930 0.7970 0.8000 0.8050
6.992000 0.8100 0.8150 0.8180 0.8210 0.8230
7.025207 0.8250 0.8260 0.8280 0.8300 0.8300
7.058000 0.8300 0.8310 0.8310 0.8330 0.8350
7.091207 0.8360 0.8380 0.8410 0.8450 0.8460
7.125000 0.8460 0.8480 0.8480 0.8500 0.8500
7.158207 0.8500 0.8500 0.8500 0.8480 0.8460
7.191000 0.8450 0.8430 0.8400 0.8360 0.8310
7.224207 0.8300 0.8300 0.8310 0.8310 0.8310
7.257000 0.8330 0.8330 0.8360 0.8380 0.8400
7.290207 0.8400 0.8410 0.8430 0.8460 0.8500
7.324000 0.8500 0.8510 0.8530 0.8530 0.8550
7.357207 0.8550 0.8560 0.8560 0.8580 0.8580
7.390000 0.8580 0.8610 0.8610 0.8630 0.8630
7.423207 0.8650 0.8650 0.8660 0.8660 0.8680
7.457000 0.8700 0.8710 0.8710 0.8730 0.8750
7.490207 0.8760 0.8780 0.8800 0.8800 0.8810
7.523000 0.8810 0.8810 0.8830 0.8850 0.8860
7.556207 0.8860 0.8860 0.8860 0.8860 0.8860
7.589000 0.8860 0.8860 0.8850 0.8810 0.8800
7.622207 0.8800 0.8800 0.8800 0.8800 0.8800
7.656000 0.8800 0.8800 0.8800 0.8800 0.8760
7.689207 0.8760 0.8730 0.8680 0.8650 0.8610
7.722000 0.8550 0.8530 0.8450 0.8430 0.8350
7.755207 0.8250 0.8230 0.8150 0.8080 0.8030
7.789000 0.7950 0.7900 0.7820 0.7730 0.7650
7.822207 0.7550 0.7470 0.7370 0.7250 0.7130
7.855000 0.7020 0.6870 0.6680 0.6570 0.6450
7.888207 0.6320 0.6130 0.6000 0.5770 0.5690
7.921000 0.5570 0.5450 0.5250 0.5150 0.5040
7.954207 0.4870 0.4700 0.4640 0.4470 0.4390
7.988000 0.4250 0.4140 0.4070 0.4040 0.4000
8.021207 0.4000 0.3990 0.3990 0.3970 0.3970
8.054000 0.3970 0.3970 0.3970 0.3990 0.4000
8.087207 0.4000 0.4040 0.4070 0.4100 0.4150
8.120000 0.4240 0.4270 0.4340 0.4390 0.4440
8.153207 0.4470 0.4570 0.4590 0.4600 0.4650
8.187000 0.4690 0.4690 0.4720 0.4740 0.4770
8.220207 0.4790 0.4800 0.4800 0.4840 0.4840
8.253000 0.4840 0.4850 0.4850 0.4850 0.4850
8.286207 0.4850 0.4850 0.4840 0.4840 0.4840
8.320000 0.4820 0.4800 0.4790 0.4750 0.4720
8.353207 0.4670 0.4650 0.4590 0.4550 0.4540
8.386000 0.4540 0.4490 0.4400 0.4370 0.4340
8.419207 0.4300 0.4270 0.4240 0.4200 0.4190
8.452000 0.4170 0.4150 0.4150 0.4120 0.4100
8.485207 0.4100 0.4090 0.4070 0.4070 0.4050
8.519000 0.4050 0.4050 0.4070 0.4070 0.4090
8.552207 0.4100 0.4150 0.4170 0.4190 0.4220
8.585000 0.4250 0.4290 0.4320 0.4420 0.4540
8.618207 0.4650 0.4800 0.4850 0.4940 0.4990
8.651000 0.5050 0.5140 0.5190 0.5220 0.5340
8.684207 0.5390 0.5420 0.5450 0.5540 0.5640
8.718000 0.5670 0.5740 0.5750 0.5790 0.5850
8.751207 0.5870 0.5890 0.5950 0.5970 0.5970
8.784000 0.5990 0.6030 0.6070 0.6080 0.6100
8.817207 0.6120 0.6120 0.6130 0.6150 0.6150
8.851000 0.6150 0.6150 0.6150 0.6150 0.6130
8.884207 0.6130 0.6130 0.6100 0.6080 0.6050
8.917000 0.6050 0.6030 0.6030 0.6030 0.6030
8.950207 0.6030 0.6030 0.6030 0.6030 0.6030
8.983000 0.6030 0.6030 0.6020 0.6000 0.5990
9.016207 0.5950 0.5940 0.5940 0.5900 0.5890
9.050000 0.5890 0.5840 0.5770 0.5740 0.5670
9.083207 0.5650 0.5590 0.5550 0.5520 0.5490
9.116000 0.5440 0.5390 0.5320 0.5270 0.5220
9.149207 0.5150 0.5070 0.5000 0.4940 0.4840
9.183000 0.4770 0.4770 0.4720 0.4650 0.4640
9.216207 0.4590 0.4550 0.4540 0.4540 0.4520
9.249000 0.4500 0.4490 0.4490 0.4490 0.4490
9.282207 0.4470 0.4450 0.4450 0.4440 0.4440
9.315000 0.4440 0.4420 0.4420 0.4400 0.4400
9.348207 0.4390 0.4390 0.4390 0.4370 0.4350
9.382000 0.4340 0.4340 0.4320 0.4300 0.4290
9.415207 0.4270 0.4250 0.4250 0.4240 0.4240
9.448000 0.4220 0.4190 0.4190 0.4140 0.4140
9.481207 0.4070 0.3990 0.3960 0.3920 0.3870
9.514000 0.3790 0.3760 0.3670 0.3620 0.3560
9.547207 0.3470 0.3460 0.3370 0.3360 0.3290
9.581000 0.3260 0.3220 0.3190 0.3140 0.3110
9.614207 0.3090 0.3090 0.3070 0.3060 0.3040
9.647000 0.2990 0.2990 0.2970 0.2960 0.2940
9.680207 0.2910 0.2870 0.2840 0.2810 0.2790
9.714000 0.2770 0.2720 0.2690 0.2670 0.2640
9.747207 0.2640 0.2610 0.2570 0.2560 0.2540
9.780000 0.2540 0.2520 0.2520 0.2510 0.2510
9.813207 0.2510 0.2510 0.2510 0.2510 0.2510
9.846000 0.2510 0.2510 0.2510 0.2510 0.2510
9.879207 0.2510 0.2510 0.2510 0.2510 0.2510
9.913000 0.2510 0.2510 0.2510 0.2510 0.2510
9.946207 0.2510 0.2510 0.2510 0.2510 0.2520
9.979000 0.2520 0.2520 0.2520 0.2520 0.2520
10.012207 0.2520 0.2520 0.2520 0.2520 0.2520
10.046000 0.2520 0.2540 0.2540 0.2540 0.2540
10.079207 0.2540 0.2510 0.2510 0.2490 0.2490
10.112000 0.2470 0.2460 0.2440 0.2420 0.2410
10.145207 0.2410 0.2390 0.2370 0.2370 0.2370
10.178000 0.2360 0.2340 0.2320 0.2320 0.2310
10.211207 0.2310 0.2290 0.2270 0.2260 0.2240
10.245000 0.2210 0.2210 0.2190 0.2190 0.2170
10.278207 0.2160 0.2160 0.2140 0.2110 0.2090
10.311000 0.2070 0.2060 0.2040 0.2040 0.2020
10.344207 0.2020 0.2020 0.2010 0.1990 0.1980
10.377000 0.1960 0.1960 0.1930 0.1910 0.1910
10.410207 0.1910 0.1890 0.1890 0.1890 0.1880
10.444000 0.1860 0.1860 0.1840 0.1830 0.1810
10.477207 0.1790 0.1780 0.1780 0.1760 0.1760
10.510000 0.1740 0.1740 0.1730 0.1730 0.1710
10.543207 0.1710 0.1710 0.1710 0.1690 0.1690
10.577000 0.1680 0.1680 0.1680 0.1680 0.1680
10.610207 0.1660 0.1660 0.1640 0.1640 0.1640
10.643000 0.1630 0.1610 0.1590 0.1590 0.1590
10.676207 0.1590 0.1590 0.1590 0.1590 0.1590
10.709000 0.1590 0.1610 0.1610 0.1610 0.1610
10.742207 0.1610 0.1630 0.1630 0.1660 0.1660
10.776000 0.1680 0.1690 0.1710 0.1710 0.1760
10.809207 0.1790 0.1890 0.1960 0.2040 0.2160
10.842000 0.2210 0.2260 0.2360 0.2460 0.2540
10.875207 0.2620 0.2690 0.2840 0.2970 0.3090
10.908000 0.3190 0.3270 0.3390 0.3490 0.3620
10.941207 0.3740 0.3890 0.4020 0.4040 0.4250
10.975000 0.4340 0.4440 0.4540 0.4640 0.4740
11.008207 0.4840 0.4990 0.5070 0.5150 0.5240
11.041000 0.5320 0.5400 0.5490 0.5570 0.5650
11.074207 0.5720 0.5790 0.5850 0.5970 0.6020
11.108000 0.6080 0.6230 0.6270 0.6330 0.6380
11.141207 0.6470 0.6480 0.6550 0.6630 0.6670
11.174000 0.6750 0.6770 0.6800 0.6850 0.6870
11.207207 0.6930 0.6970 0.7020 0.7050 0.7070
11.240000 0.7080 0.7120 0.7120 0.7130 0.7130
11.273207 0.7130 0.7130 0.7130 0.7130 0.7120
11.307000 0.7080 0.7070 0.7000 0.6980 0.6950
11.340207 0.6880 0.6820 0.6750 0.6720 0.6670
11.373000 0.6620 0.6580 0.6570 0.6530 0.6520
11.406207 0.6520 0.6520 0.6530 0.6530 0.6570
11.440000 0.6580 0.6580 0.6600 0.6630 0.6650
11.473207 0.6670 0.6670 0.6680 0.6680 0.6700
11.506000 0.6700 0.6680 0.6680 0.6670 0.6670
11.539207 0.6650 0.6630 0.6600 0.6580 0.6570
11.572000 0.6550 0.6520 0.6520 0.6480 0.6430
11.605207 0.6420 0.6370 0.6330 0.6320 0.6280
11.639000 0.6250 0.6230 0.6200 0.6180 0.6170
11.672207 0.6130 0.6130 0.6100 0.6080 0.6070
11.705000 0.6070 0.6030 0.6030 0.6020 0.6020
11.738207 0.6020 0.6020 0.6020 0.6020 0.6020
11.771000 0.6020 0.6030 0.6050 0.6070 0.6070
11.804207 0.6080 0.6100 0.6130 0.6130 0.6130
11.838000 0.6130 0.6130 0.6130 0.6130 0.6120
11.871207 0.6120 0.6120 0.6120 0.6130 0.6150
11.904000 0.6150 0.6170 0.6170 0.6170 0.6170
11.937207 0.6170 0.6170 0.6170 0.6150 0.6130
11.971000 0.6120 0.6120 0.6100 0.6100 0.6080
12.004207 0.6080 0.6080 0.6080 0.6100 0.6100
12.037000 0.6120 0.6130 0.6130 0.6150 0.6180
12.070207 0.6180 0.6220 0.6270 0.6330 0.6350
12.103000 0.6380 0.6450 0.6500 0.6550 0.6580
12.136207 0.6600 0.6650 0.6670 0.6720 0.6750
12.170000 0.6780 0.6800 0.6830 0.6870 0.6880
12.203207 0.6950 0.6970 0.7000 0.7030 0.7070
12.236000 0.7100 0.7150 0.7170 0.7180 0.7250
12.269207 0.7250 0.7280 0.7300 0.7350 0.7370
12.303000 0.7400 0.7420 0.7450 0.7480 0.7500
12.336207 0.7500 0.7550 0.7550 0.7570 0.7600
12.369000 0.7600 0.7620 0.7620 0.7650 0.7650
12.402207 0.7670 0.7680 0.7700 0.7700 0.7720
12.435000 0.7720 0.7750 0.7750 0.7750 0.7770
12.468207 0.7780 0.7780 0.7780 0.7800 0.7800
12.502000 0.7820 0.7820 0.7820 0.7820 0.7850
12.535207 0.7850 0.7850 0.7870 0.7870 0.7870
12.568000 0.7870 0.7870 0.7870 0.7880 0.7880
12.601207 0.7880 0.7880 0.7880 0.7880 0.7880
12.634000 0.7880 0.7880 0.7880 0.7880 0.7880
12.667207 0.7880 0.7880 0.7880 0.7870 0.7870
12.701000 0.7830 0.7780 0.7750 0.7730 0.7700
12.734207 0.7680 0.7670 0.7650 0.7650 0.7630
12.767000 0.7600 0.7600 0.7580 0.7580 0.7570
12.800207 0.7550 0.7520 0.7500 0.7480 0.7480
12.834000 0.7470 0.7450 0.7430 0.7430 0.7430
12.867207 0.7420 0.7400 0.7400 0.7400 0.7380
12.900000 0.7380 0.7380 0.7370 0.7370 0.7370
12.933207 0.7370 0.7370 0.7370 0.7380 0.7380
12.966000 0.7380 0.7380 0.7400 0.7400 0.7400
12.999207 0.7400 0.7400 0.7380 0.7380 0.7380
13.033000 0.7370 0.7350 0.7350 0.7350 0.7350
13.066207 0.7370 0.7370 0.7370 0.7380 0.7380
13.099000 0.7380 0.7400 0.7400 0.7400 0.7400
13.132207 0.7420 0.7420 0.7420 0.7420 0.7430
13.165000 0.7430 0.7450 0.7450 0.7450 0.7450
13.198207 0.7450 0.7450 0.7470 0.7470 0.7470
13.232000 0.7450 0.7450 0.7470 0.7470 0.7470
13.265207 0.7470 0.7470 0.7480 0.7480 0.7480
13.298000 0.7480 0.7480 0.7500 0.7500 0.7500
13.331207 0.7500 0.7500 0.7520 0.7520 0.7530
13.365000 0.7530 0.7550 0.7550 0.7550 0.7550
13.398207 0.7550 0.7550 0.7550 0.7550 0.7530
13.431000 0.7530 0.7520 0.7500 0.7480 0.7470
13.464207 0.7470 0.7470 0.7470 0.7470 0.7450
13.497000 0.7450 0.7450 0.7450 0.7450 0.7470
13.530207 0.7470 0.7470 0.7470 0.7470 0.7470
13.564000 0.7470 0.7470 0.7470 0.7470 0.7470
13.597207 0.7470 0.7470 0.7470 0.7470 0.7470
13.630000 0.7470 0.7450 0.7450 0.7430 0.7430
13.663207 0.7420 0.7400 0.7400 0.7400 0.7400
13.697000 0.7400 0.7400 0.7380 0.7380 0.7370
13.730207 0.7350 0.7330 0.7300 0.7300 0.7300
13.763000 0.7280 0.7280 0.7270 0.7250 0.7250
13.796207 0.7220 0.7200 0.7200 0.7180 0.7170
13.829000 0.7150 0.7130 0.7130 0.7100 0.7080
13.862207 0.7080 0.7070 0.7050 0.7050 0.7020
13.896000 0.7020 0.7020 0.7020 0.7000 0.7000
13.929207 0.7000 0.6980 0.6970 0.6970 0.6950
13.962000 0.6950 0.6930 0.6930 0.6930 0.6930
13.995207 0.6920 0.6920 0.6900 0.6880 0.6880
14.028000 0.6850 0.6830 0.6830 0.6830 0.6820
14.061207 0.6800 0.6800 0.6780 0.6780 0.6770
14.095000 0.6770 0.6750 0.6730 0.6730 0.6700
14.128207 0.6700 0.6680 0.6680 0.6670 0.6650
14.161000 0.6650 0.6630 0.6630 0.6630 0.6630
14.194207 0.6620 0.6600 0.6600 0.6600 0.6580
14.228000 0.6580 0.6580 0.6580 0.6570 0.6570
14.261207 0.6550 0.6530 0.6520 0.6500 0.6500
14.294000 0.6480 0.6470 0.6450 0.6450 0.6420
14.327207 0.6400 0.6380 0.6370 0.6350 0.6350
14.360000 0.6350 0.6330 0.6300 0.6300 0.6300
14.393207 0.6280 0.6270 0.6250 0.6230 0.6200
14.427000 0.6200 0.6180 0.6170 0.6150 0.6130
14.460207 0.6100 0.6100 0.6080 0.6070 0.6070
14.493000 0.6050 0.6030 0.6030 0.6020 0.6020
14.526207 0.6000 0.6000 0.6000 0.5990 0.5990
14.560000 0.5990 0.5970 0.5950 0.5950 0.5950
14.593207 0.5940 0.5940 0.5920 0.5900 0.5890
14.626000 0.5870 0.5870 0.5850 0.5850 0.5850
14.659207 0.5840 0.5800 0.5800 0.5790 0.5750
14.692000 0.5750 0.5750 0.5740 0.5720 0.5720
14.725207 0.5720 0.5700 0.5700 0.5700 0.5690
14.759000 0.5690 0.5690 0.5670 0.5650 0.5650
14.792207 0.5640 0.5640 0.5640 0.5650 0.5650
14.825000 0.5650 0.5650 0.5670 0.5670 0.5690
14.858207 0.5690 0.5690 0.5690 0.5670 0.5650
14.891000 0.5620 0.5600 0.5590 0.5570 0.5550
14.924207 0.5540 0.5520 0.5520 0.5500 0.5450
14.958000 0.5440 0.5440 0.5420 0.5420 0.5420
14.991207 0.5420 0.5400 0.5400 0.5390 0.5350
15.024000 0.5340 0.5320 0.5300 0.5300 0.5300
15.057207 0.5300 0.5300 0.5300 0.5300 0.5300
15.091000 0.5300 0.5320 0.5340 0.5340 0.5350
15.124207 0.5350 0.5350 0.5350 0.5340 0.5340
15.157000 0.5320 0.5320 0.5300 0.5300 0.5320
15.190207 0.5320 0.5320 0.5320 0.5320 0.5320
15.223000 0.5340 0.5340 0.5340 0.5340 0.5340
15.256207 0.5340 0.5320 0.5300 0.5300 0.5300
15.290000 0.5300 0.5300 0.5290 0.5290 0.5270
15.323207 0.5270 0.5270 0.5270 0.5270 0.5270
15.356000 0.5270 0.5270 0.5270 0.5270 0.5270
15.389207 0.5270 0.5270 0.5270 0.5290 0.5290
15.422000 0.5300 0.5300 0.5300 0.5320 0.5320
15.455207 0.5320 0.5320 0.5320 0.5320 0.5320
15.489000 0.5320 0.5320 0.5340 0.5350 0.5350
15.522207 0.5350 0.5350 0.5350 0.5350 0.5350
15.555000 0.5350 0.5370 0.5370 0.5370 0.5370
15.588207 0.5370 0.5390 0.5390 0.5390 0.5390
15.622000 0.5390 0.5400 0.5400 0.5400 0.5420
15.655207 0.5420 0.5420 0.5440 0.5440 0.5450
15.688000 0.5470 0.5470 0.5470 0.5470 0.5490
15.721207 0.5490 0.5500 0.5500 0.5520 0.5520
15.754000 0.5540 0.5540 0.5550 0.5550 0.5570
15.787207 0.5570 0.5590 0.5590 0.5600 0.5600
15.821000 0.5620 0.5620 0.5620 0.5640 0.5640
15.854207 0.5650 0.5670 0.5670 0.5690 0.5690
15.887000 0.5700 0.5720 0.5720 0.5720 0.5750
15.920207 0.5750 0.5770 0.5770 0.5790 0.5790
15.954000 0.5790 0.5800 0.5820 0.5840 0.5840
15.987207 0.5850
##END=
