##TITLE=Octadecane-1-sulfonic acid, sodium salt
##JCAMP-DX=4.24
##DATA TYPE=INFRARED SPECTRUM
##CLASS=COBLENTZ III
##ORIGIN=COLGATE-PALMOLIVE COMPANY (KELLENBACH)
##OWNER=Copyright (C) 1987 by the Coblentz Society
Collection (C) 2018 copyright by the U.S. Secretary of Commerce
on behalf of the United States of America. All rights reserved.
##DATE=1974/04/03
##MOLFORM=C18 H37 O3 S Na
##SOURCE REFERENCE=COBLENTZ NO. 9744
##$NIST ID=B6009744
##$NIST SOURCE=COBLENTZ
##$NIST IMAGE=cob9744
##SPECTROMETER/DATA SYSTEM=BECKMAN IR-12 (GRATING)
##INSTRUMENT PARAMETERS=GRATING
##STATE=SOLID (1 mg / 100 mg KBr DISC)
$$ SEE SPECTRUM NO. 9742 FOR "SPLIT MULL" RUN
$$SPECTRAL CONTAMINATION DUE TO H2O AROUND 3457, 1654 (H2O VAPOR), AND UNKNOWNS AROUND 2363, 200 CM^-^1
##SAMPLING PROCEDURE=TRANSMISSION
##RESOLUTION=2
##DATA PROCESSING=DIGITIZED BY COBLENTZ SOCIETY (BATCH II) FROM HARD COPY
##XUNITS=1/CM
##YUNITS=TRANSMITTANCE
##XFACTOR=1.0
##YFACTOR=1
##FIRSTX=202
##LASTX=4002
##FIRSTY=0.0487
##MAXX=4002
##MINX=202
##MAXY=0.9298
##MINY=0.0111
##NPOINTS=3801
##XYDATA=(X++(Y..Y))
202.000000 0.0487 0.0490 0.0493 0.0496 0.0497
207.000000 0.0498 0.0501 0.0504 0.0508 0.0513
212.000000 0.0521 0.0528 0.0536 0.0544 0.0558
217.000000 0.0579 0.0600 0.0636 0.0681 0.0727
222.000000 0.0772 0.0816 0.0861 0.0906 0.0976
227.000000 0.1062 0.1176 0.1348 0.1520 0.1692
232.000000 0.1864 0.2036 0.2208 0.2380 0.2552
237.000000 0.2724 0.2895 0.3067 0.3239 0.3411
242.000000 0.3584 0.3756 0.3928 0.3995 0.4030
247.000000 0.4070 0.4175 0.4301 0.4426 0.4552
252.000000 0.4678 0.4803 0.4929 0.5055 0.5181
257.000000 0.5306 0.5416 0.5515 0.5629 0.5752
262.000000 0.5876 0.5999 0.6122 0.6245 0.6368
267.000000 0.6491 0.6614 0.6737 0.6861 0.6984
272.000000 0.7107 0.7209 0.7285 0.7325 0.7352
277.000000 0.7359 0.7363 0.7367 0.7368 0.7370
282.000000 0.7383 0.7433 0.7483 0.7533 0.7583
287.000000 0.7632 0.7682 0.7732 0.7782 0.7832
292.000000 0.7881 0.7931 0.7981 0.8012 0.8044
297.000000 0.8050 0.8056 0.8062 0.8062 0.8056
302.000000 0.8049 0.8043 0.8036 0.8032 0.8055
307.000000 0.8077 0.8103 0.8135 0.8166 0.8197
312.000000 0.8228 0.8262 0.8297 0.8333 0.8368
317.000000 0.8404 0.8439 0.8489 0.8539 0.8588
322.000000 0.8638 0.8671 0.8701 0.8731 0.8761
327.000000 0.8773 0.8779 0.8785 0.8791 0.8797
332.000000 0.8803 0.8828 0.8865 0.8883 0.8882
337.000000 0.8880 0.8877 0.8874 0.8872 0.8869
342.000000 0.8864 0.8859 0.8854 0.8849 0.8844
347.000000 0.8839 0.8834 0.8829 0.8821 0.8812
352.000000 0.8803 0.8794 0.8785 0.8776 0.8767
357.000000 0.8753 0.8739 0.8736 0.8736 0.8743
362.000000 0.8750 0.8757 0.8763 0.8779 0.8800
367.000000 0.8815 0.8829 0.8844 0.8858 0.8868
372.000000 0.8873 0.8878 0.8879 0.8879 0.8880
377.000000 0.8880 0.8881 0.8882 0.8882 0.8883
382.000000 0.8884 0.8885 0.8888 0.8892 0.8895
387.000000 0.8898 0.8901 0.8912 0.8926 0.8940
392.000000 0.8959 0.8979 0.9000 0.9021 0.9026
397.000000 0.9022 0.9018 0.9014 0.9006 0.8999
402.000000 0.8992 0.8999 0.9021 0.9063 0.9106
407.000000 0.9151 0.9194 0.9230 0.9267 0.9277
412.000000 0.9284 0.9291 0.9294 0.9294 0.9294
417.000000 0.9293 0.9290 0.9287 0.9284 0.9280
422.000000 0.9278 0.9276 0.9291 0.9273 0.9271
427.000000 0.9271 0.9271 0.9272 0.9272 0.9273
432.000000 0.9273 0.9273 0.9270 0.9267 0.9264
437.000000 0.9260 0.9257 0.9254 0.9253 0.9254
442.000000 0.9254 0.9254 0.9259 0.9264 0.9269
447.000000 0.9274 0.9279 0.9282 0.9284 0.9286
452.000000 0.9289 0.9291 0.9293 0.9295 0.9298
457.000000 0.9298 0.9297 0.9297 0.9296 0.9296
462.000000 0.9285 0.9271 0.9256 0.9242 0.9227
467.000000 0.9211 0.9193 0.9176 0.9158 0.9141
472.000000 0.9123 0.9106 0.9088 0.9070 0.9050
477.000000 0.9031 0.9011 0.8993 0.8978 0.8963
482.000000 0.8948 0.8937 0.8926 0.8925 0.8935
487.000000 0.8945 0.8955 0.8966 0.8977 0.8987
492.000000 0.8998 0.8992 0.8981 0.8969 0.8959
497.000000 0.8948 0.8937 0.8926 0.8915 0.8904
502.000000 0.8892 0.8881 0.8870 0.8854 0.8835
507.000000 0.8816 0.8797 0.8775 0.8738 0.8702
512.000000 0.8665 0.8628 0.8591 0.8545 0.8499
517.000000 0.8453 0.8408 0.8348 0.8285 0.8210
522.000000 0.8135 0.8060 0.7985 0.7910 0.7835
527.000000 0.7760 0.7685 0.7610 0.7535 0.7460
532.000000 0.7386 0.7311 0.7236 0.7168 0.7129
537.000000 0.7095 0.7084 0.7065 0.7081 0.7085
542.000000 0.7090 0.7102 0.7118 0.7137 0.7155
547.000000 0.7159 0.7156 0.7174 0.7138 0.7122
552.000000 0.7100 0.7087 0.7080 0.7075 0.7079
557.000000 0.7077 0.7117 0.7154 0.7194 0.7237
562.000000 0.7374 0.7442 0.7503 0.7565 0.7626
567.000000 0.7689 0.7753 0.7816 0.7879 0.7930
572.000000 0.7970 0.8010 0.8050 0.8073 0.8096
577.000000 0.8120 0.8141 0.8159 0.8177 0.8194
582.000000 0.8206 0.8219 0.8232 0.8238 0.8243
587.000000 0.8248 0.8253 0.8253 0.8250 0.8291
592.000000 0.8243 0.8238 0.8221 0.8204 0.8187
597.000000 0.8164 0.8141 0.8119 0.8093 0.8061
602.000000 0.8030 0.7998 0.7944 0.7880 0.7817
607.000000 0.7729 0.7599 0.7500 0.7408 0.7256
612.000000 0.6997 0.6737 0.6478 0.6219 0.5960
617.000000 0.5700 0.5441 0.5182 0.4922 0.4663
622.000000 0.4279 0.4275 0.4281 0.4394 0.4650
627.000000 0.4905 0.5161 0.5417 0.5673 0.5929
632.000000 0.6185 0.6440 0.6696 0.6952 0.7208
637.000000 0.7464 0.7613 0.7662 0.7706 0.7748
642.000000 0.7791 0.7833 0.7874 0.7912 0.7951
647.000000 0.7985 0.8002 0.8019 0.8032 0.8032
652.000000 0.8032 0.8032 0.8021 0.8010 0.8000
657.000000 0.7986 0.7950 0.7921 0.7904 0.7896
662.000000 0.7894 0.7891 0.7892 0.7892 0.7892
667.000000 0.7893 0.7893 0.7894 0.7894 0.7894
672.000000 0.7896 0.7899 0.7936 0.7904 0.7906
677.000000 0.7909 0.7912 0.7914 0.7917 0.7919
682.000000 0.7920 0.7921 0.7922 0.7923 0.7924
687.000000 0.7925 0.7927 0.7927 0.7926 0.7924
692.000000 0.7923 0.7921 0.7919 0.7918 0.7916
697.000000 0.7910 0.7903 0.7895 0.7888 0.7880
702.000000 0.7872 0.7865 0.7857 0.7850 0.7842
707.000000 0.7831 0.7813 0.7795 0.7777 0.7759
712.000000 0.7742 0.7724 0.7662 0.7588 0.7449
717.000000 0.7193 0.6937 0.6681 0.6425 0.6169
722.000000 0.5914 0.5710 0.5688 0.5792 0.5954
727.000000 0.6117 0.6280 0.6442 0.6605 0.6767
732.000000 0.6930 0.7092 0.7255 0.7342 0.7379
737.000000 0.7414 0.7440 0.7466 0.7491 0.7523
742.000000 0.7581 0.7627 0.7660 0.7679 0.7676
747.000000 0.7673 0.7671 0.7666 0.7658 0.7650
752.000000 0.7642 0.7641 0.7649 0.7683 0.7715
757.000000 0.7745 0.7758 0.7765 0.7771 0.7772
762.000000 0.7766 0.7760 0.7755 0.7749 0.7743
767.000000 0.7738 0.7746 0.7727 0.7721 0.7718
772.000000 0.7717 0.7715 0.7713 0.7712 0.7712
777.000000 0.7717 0.7722 0.7659 0.7595 0.7530
782.000000 0.7465 0.7400 0.7335 0.7271 0.7206
787.000000 0.7141 0.7076 0.7012 0.6947 0.6882
792.000000 0.6817 0.6752 0.6688 0.6623 0.6558
797.000000 0.6493 0.6429 0.6364 0.6299 0.6234
802.000000 0.6247 0.6224 0.6287 0.6399 0.6511
807.000000 0.6623 0.6735 0.6848 0.6960 0.7072
812.000000 0.7184 0.7296 0.7409 0.7521 0.7633
817.000000 0.7745 0.7795 0.7801 0.7808 0.7814
822.000000 0.7820 0.7825 0.7829 0.7834 0.7838
827.000000 0.7842 0.7845 0.7849 0.7852 0.7855
832.000000 0.7858 0.7861 0.7864 0.7866 0.7868
837.000000 0.7870 0.7872 0.7874 0.7876 0.7877
842.000000 0.7875 0.7873 0.7870 0.7868 0.7866
847.000000 0.7864 0.7862 0.7860 0.7860 0.7859
852.000000 0.7859 0.7858 0.7858 0.7858 0.7864
857.000000 0.7870 0.7876 0.7882 0.7885 0.7886
862.000000 0.7886 0.7884 0.7888 0.7889 0.7890
867.000000 0.7891 0.7891 0.7892 0.7893 0.7890
872.000000 0.7884 0.7879 0.7874 0.7869 0.7863
877.000000 0.7858 0.7853 0.7844 0.7834 0.7825
882.000000 0.7816 0.7807 0.7798 0.7789 0.7779
887.000000 0.7771 0.7776 0.7780 0.7785 0.7790
892.000000 0.7795 0.7801 0.7809 0.7817 0.7824
897.000000 0.7829 0.7826 0.7823 0.7820 0.7817
902.000000 0.7815 0.7812 0.7809 0.7806 0.7803
907.000000 0.7801 0.7798 0.7795 0.7792 0.7789
912.000000 0.7786 0.7784 0.7781 0.7778 0.7775
917.000000 0.7772 0.7769 0.7765 0.7761 0.7757
922.000000 0.7754 0.7750 0.7746 0.7743 0.7743
927.000000 0.7743 0.7744 0.7744 0.7744 0.7745
932.000000 0.7745 0.7745 0.7746 0.7746 0.7748
937.000000 0.7750 0.7753 0.7756 0.7759 0.7762
942.000000 0.7765 0.7768 0.7770 0.7773 0.7775
947.000000 0.7777 0.7779 0.7782 0.7782 0.7782
952.000000 0.7782 0.7782 0.7782 0.7769 0.7754
957.000000 0.7738 0.7728 0.7720 0.7713 0.7705
962.000000 0.7698 0.7695 0.7695 0.7696 0.7696
967.000000 0.7697 0.7697 0.7695 0.7692 0.7689
972.000000 0.7686 0.7682 0.7678 0.7671 0.7663
977.000000 0.7656 0.7641 0.7623 0.7606 0.7588
982.000000 0.7577 0.7571 0.7565 0.7567 0.7573
987.000000 0.7579 0.7585 0.7590 0.7592 0.7587
992.000000 0.7574 0.7560 0.7541 0.7528 0.7523
997.000000 0.7517 0.7511 0.7516 0.7526 0.7539
1002.000000 0.7553 0.7558 0.7562 0.7566 0.7570
1007.000000 0.7560 0.7550 0.7540 0.7537 0.7536
1012.000000 0.7542 0.7549 0.7557 0.7566 0.7575
1017.000000 0.7576 0.7565 0.7548 0.7530 0.7511
1022.000000 0.7494 0.7478 0.7462 0.7446 0.7414
1027.000000 0.7375 0.7336 0.7298 0.7249 0.7189
1032.000000 0.7125 0.7052 0.6980 0.6894 0.6806
1037.000000 0.6711 0.6613 0.6516 0.6430 0.6344
1042.000000 0.6185 0.6015 0.5846 0.5676 0.5506
1047.000000 0.5336 0.5166 0.4997 0.4827 0.4657
1052.000000 0.4487 0.4318 0.4148 0.3978 0.3808
1057.000000 0.3682 0.3513 0.3247 0.2981 0.2714
1062.000000 0.2448 0.2182 0.1916 0.1748 0.1707
1067.000000 0.1713 0.1693 0.1703 0.2015 0.2437
1072.000000 0.2860 0.3282 0.3705 0.4128 0.4550
1077.000000 0.4973 0.5133 0.5349 0.5572 0.5694
1082.000000 0.5784 0.5875 0.5969 0.6065 0.6157
1087.000000 0.6246 0.6378 0.6472 0.6515 0.6553
1092.000000 0.6575 0.6597 0.6619 0.6641 0.6663
1097.000000 0.6685 0.6708 0.6731 0.6753 0.6769
1102.000000 0.6782 0.6796 0.6809 0.6824 0.6840
1107.000000 0.6857 0.6906 0.6956 0.6972 0.6976
1112.000000 0.6976 0.6972 0.6965 0.6951 0.6933
1117.000000 0.6940 0.6920 0.6920 0.6920 0.6920
1122.000000 0.6914 0.6906 0.6888 0.6868 0.6844
1127.000000 0.6820 0.6792 0.6765 0.6738 0.6714
1132.000000 0.6695 0.6684 0.6673 0.6662 0.6650
1137.000000 0.6633 0.6603 0.6560 0.6520 0.6479
1142.000000 0.6398 0.6321 0.6266 0.6210 0.6151
1147.000000 0.6077 0.5891 0.5705 0.5519 0.5333
1152.000000 0.5147 0.4961 0.4775 0.4589 0.4403
1157.000000 0.4230 0.4121 0.3912 0.3703 0.3494
1162.000000 0.3285 0.3076 0.2867 0.2658 0.2449
1167.000000 0.2240 0.2031 0.1822 0.1616 0.1478
1172.000000 0.1379 0.1335 0.1290 0.1245 0.1205
1177.000000 0.1176 0.1146 0.1117 0.1098 0.1084
1182.000000 0.1070 0.1065 0.1075 0.1063 0.1070
1187.000000 0.1077 0.1086 0.1115 0.1143 0.1175
1192.000000 0.1207 0.1239 0.1267 0.1295 0.1323
1197.000000 0.1351 0.1364 0.1378 0.1389 0.1395
1202.000000 0.1402 0.1408 0.1414 0.1420 0.1426
1207.000000 0.1432 0.1442 0.1454 0.1466 0.1479
1212.000000 0.1492 0.1505 0.1625 0.1778 0.1930
1217.000000 0.2082 0.2234 0.2386 0.2489 0.2533
1222.000000 0.2579 0.2626 0.2655 0.2682 0.2710
1227.000000 0.2729 0.2748 0.2767 0.2872 0.3012
1232.000000 0.3153 0.3293 0.3433 0.3574 0.3714
1237.000000 0.3854 0.3995 0.4122 0.4149 0.4168
1242.000000 0.4182 0.4197 0.4212 0.4228 0.4304
1247.000000 0.4408 0.4512 0.4616 0.4719 0.4823
1252.000000 0.4927 0.5031 0.5134 0.5238 0.5342
1257.000000 0.5446 0.5507 0.5507 0.5507 0.5507
1262.000000 0.5507 0.5568 0.5652 0.5737 0.5821
1267.000000 0.5906 0.5990 0.6075 0.6159 0.6232
1272.000000 0.6225 0.6218 0.6210 0.6199 0.6183
1277.000000 0.6163 0.6147 0.6140 0.6137 0.6155
1282.000000 0.6186 0.6216 0.6247 0.6278 0.6308
1287.000000 0.6323 0.6333 0.6337 0.6341 0.6345
1292.000000 0.6352 0.6359 0.6337 0.6304 0.6283
1297.000000 0.6276 0.6270 0.6276 0.6306 0.6336
1302.000000 0.6366 0.6396 0.6426 0.6456 0.6487
1307.000000 0.6517 0.6547 0.6577 0.6599 0.6617
1312.000000 0.6634 0.6652 0.6670 0.6686 0.6702
1317.000000 0.6718 0.6734 0.6750 0.6771 0.6793
1322.000000 0.6814 0.6836 0.6857 0.6879 0.6892
1327.000000 0.6905 0.6911 0.6916 0.6921 0.6918
1332.000000 0.6915 0.6909 0.6902 0.6895 0.6888
1337.000000 0.6881 0.6872 0.6864 0.6913 0.6848
1342.000000 0.6842 0.6844 0.6850 0.6856 0.6865
1347.000000 0.6874 0.6883 0.6888 0.6892 0.6896
1352.000000 0.6896 0.6896 0.6896 0.6896 0.6895
1357.000000 0.6895 0.6894 0.6893 0.6892 0.6891
1362.000000 0.6889 0.6886 0.6884 0.6881 0.6878
1367.000000 0.6875 0.6872 0.6868 0.6862 0.6856
1372.000000 0.6850 0.6836 0.6817 0.6791 0.6758
1377.000000 0.6707 0.6666 0.6642 0.6635 0.6675
1382.000000 0.6715 0.6755 0.6794 0.6834 0.6866
1387.000000 0.6887 0.6907 0.6924 0.6934 0.6940
1392.000000 0.6956 0.6945 0.6948 0.6941 0.6934
1397.000000 0.6926 0.6913 0.6898 0.6882 0.6866
1402.000000 0.6848 0.6829 0.6811 0.6792 0.6774
1407.000000 0.6754 0.6733 0.6713 0.6693 0.6673
1412.000000 0.6657 0.6644 0.6630 0.6617 0.6603
1417.000000 0.6591 0.6579 0.6568 0.6556 0.6553
1422.000000 0.6622 0.6672 0.6721 0.6770 0.6777
1427.000000 0.6776 0.6802 0.6771 0.6768 0.6765
1432.000000 0.6752 0.6733 0.6713 0.6694 0.6674
1437.000000 0.6654 0.6635 0.6615 0.6604 0.6595
1442.000000 0.6586 0.6579 0.6575 0.6572 0.6567
1447.000000 0.6536 0.6502 0.6465 0.6429 0.6392
1452.000000 0.6347 0.6301 0.6255 0.6209 0.6150
1457.000000 0.6085 0.6021 0.5956 0.5797 0.5610
1462.000000 0.5433 0.5241 0.4991 0.4706 0.4421
1467.000000 0.4135 0.3850 0.3564 0.3355 0.3340
1472.000000 0.3564 0.3835 0.4106 0.4377 0.4647
1477.000000 0.4918 0.5189 0.5460 0.5731 0.6002
1482.000000 0.6273 0.6431 0.6530 0.6622 0.6650
1487.000000 0.6665 0.6680 0.6694 0.6709 0.6720
1492.000000 0.6730 0.6740 0.6751 0.6760 0.6770
1497.000000 0.6780 0.6786 0.6782 0.6776 0.6774
1502.000000 0.6770 0.6766 0.6760 0.6750 0.6741
1507.000000 0.6733 0.6747 0.6760 0.6766 0.6762
1512.000000 0.6759 0.6756 0.6753 0.6749 0.6746
1517.000000 0.6743 0.6736 0.6724 0.6713 0.6701
1522.000000 0.6690 0.6682 0.6700 0.6718 0.6737
1527.000000 0.6756 0.6775 0.6794 0.6813 0.6815
1532.000000 0.6808 0.6793 0.6778 0.6763 0.6748
1537.000000 0.6733 0.6718 0.6701 0.6680 0.6660
1542.000000 0.6653 0.6664 0.6675 0.6686 0.6697
1547.000000 0.6708 0.6722 0.6738 0.6753 0.6769
1552.000000 0.6785 0.6801 0.6816 0.6797 0.6759
1557.000000 0.6722 0.6694 0.6669 0.6645 0.6629
1562.000000 0.6646 0.6663 0.6681 0.6700 0.6719
1567.000000 0.6738 0.6751 0.6755 0.6759 0.6764
1572.000000 0.6770 0.6776 0.6783 0.6787 0.6787
1577.000000 0.6787 0.6787 0.6787 0.6787 0.6786
1582.000000 0.6785 0.6784 0.6784 0.6783 0.6782
1587.000000 0.6781 0.6780 0.6779 0.6778 0.6777
1592.000000 0.6777 0.6773 0.6768 0.6763 0.6757
1597.000000 0.6752 0.6747 0.6742 0.6737 0.6731
1602.000000 0.6724 0.6715 0.6707 0.6699 0.6690
1607.000000 0.6682 0.6674 0.6665 0.6657 0.6648
1612.000000 0.6640 0.6632 0.6623 0.6615 0.6606
1617.000000 0.6597 0.6589 0.6580 0.6571 0.6563
1622.000000 0.6554 0.6545 0.6535 0.6524 0.6512
1627.000000 0.6501 0.6491 0.6485 0.6479 0.6472
1632.000000 0.6466 0.6459 0.6452 0.6441 0.6429
1637.000000 0.6418 0.6407 0.6398 0.6393 0.6388
1642.000000 0.6383 0.6378 0.6374 0.6366 0.6351
1647.000000 0.6337 0.6322 0.6304 0.6281 0.6259
1652.000000 0.6253 0.6248 0.6242 0.6250 0.6260
1657.000000 0.6287 0.6315 0.6342 0.6360 0.6377
1662.000000 0.6393 0.6409 0.6425 0.6442 0.6459
1667.000000 0.6477 0.6494 0.6507 0.6519 0.6532
1672.000000 0.6544 0.6557 0.6569 0.6579 0.6589
1677.000000 0.6599 0.6609 0.6606 0.6602 0.6598
1682.000000 0.6594 0.6590 0.6586 0.6584 0.6592
1687.000000 0.6600 0.6607 0.6614 0.6619 0.6623
1692.000000 0.6628 0.6632 0.6637 0.6642 0.6643
1697.000000 0.6631 0.6620 0.6609 0.6597 0.6586
1702.000000 0.6580 0.6585 0.6591 0.6597 0.6608
1707.000000 0.6620 0.6632 0.6644 0.6656 0.6664
1712.000000 0.6645 0.6628 0.6610 0.6593 0.6582
1717.000000 0.6575 0.6568 0.6563 0.6582 0.6601
1722.000000 0.6621 0.6640 0.6660 0.6680 0.6688
1727.000000 0.6695 0.6702 0.6709 0.6713 0.6708
1732.000000 0.6704 0.6699 0.6695 0.6690 0.6685
1737.000000 0.6679 0.6674 0.6669 0.6665 0.6665
1742.000000 0.6666 0.6666 0.6666 0.6667 0.6667
1747.000000 0.6668 0.6668 0.6669 0.6669 0.6670
1752.000000 0.6670 0.6671 0.6672 0.6675 0.6679
1757.000000 0.6682 0.6686 0.6689 0.6693 0.6696
1762.000000 0.6697 0.6695 0.6693 0.6691 0.6690
1767.000000 0.6688 0.6686 0.6679 0.6672 0.6665
1772.000000 0.6657 0.6650 0.6643 0.6636 0.6643
1777.000000 0.6660 0.6682 0.6696 0.6705 0.6714
1782.000000 0.6723 0.6729 0.6733 0.6738 0.6743
1787.000000 0.6737 0.6731 0.6725 0.6719 0.6713
1792.000000 0.6707 0.6702 0.6705 0.6707 0.6709
1797.000000 0.6712 0.6713 0.6707 0.6702 0.6696
1802.000000 0.6689 0.6682 0.6675 0.6669 0.6668
1807.000000 0.6666 0.6665 0.6665 0.6666 0.6667
1812.000000 0.6667 0.6667 0.6667 0.6667 0.6667
1817.000000 0.6666 0.6665 0.6664 0.6663 0.6662
1822.000000 0.6661 0.6660 0.6658 0.6648 0.6637
1827.000000 0.6627 0.6616 0.6606 0.6596 0.6587
1832.000000 0.6583 0.6593 0.6602 0.6609 0.6617
1837.000000 0.6624 0.6632 0.6638 0.6644 0.6650
1842.000000 0.6652 0.6653 0.6652 0.6646 0.6640
1847.000000 0.6633 0.6628 0.6628 0.6629 0.6629
1852.000000 0.6629 0.6630 0.6630 0.6631 0.6631
1857.000000 0.6632 0.6633 0.6633 0.6634 0.6632
1862.000000 0.6631 0.6630 0.6629 0.6627 0.6625
1867.000000 0.6623 0.6620 0.6618 0.6620 0.6627
1872.000000 0.6634 0.6641 0.6644 0.6645 0.6647
1877.000000 0.6648 0.6649 0.6645 0.6640 0.6636
1882.000000 0.6633 0.6629 0.6626 0.6623 0.6621
1887.000000 0.6618 0.6616 0.6614 0.6611 0.6609
1892.000000 0.6608 0.6607 0.6606 0.6605 0.6604
1897.000000 0.6602 0.6601 0.6600 0.6599 0.6597
1902.000000 0.6596 0.6594 0.6593 0.6591 0.6590
1907.000000 0.6589 0.6589 0.6589 0.6590 0.6590
1912.000000 0.6590 0.6590 0.6591 0.6591 0.6591
1917.000000 0.6591 0.6592 0.6592 0.6592 0.6593
1922.000000 0.6593 0.6593 0.6594 0.6594 0.6594
1927.000000 0.6594 0.6595 0.6595 0.6595 0.6595
1932.000000 0.6595 0.6594 0.6593 0.6593 0.6592
1937.000000 0.6591 0.6590 0.6589 0.6588 0.6586
1942.000000 0.6584 0.6583 0.6581 0.6580 0.6578
1947.000000 0.6577 0.6575 0.6573 0.6572 0.6570
1952.000000 0.6569 0.6567 0.6565 0.6564 0.6562
1957.000000 0.6560 0.6558 0.6556 0.6554 0.6552
1962.000000 0.6551 0.6549 0.6547 0.6545 0.6543
1967.000000 0.6542 0.6541 0.6540 0.6539 0.6537
1972.000000 0.6536 0.6535 0.6534 0.6533 0.6531
1977.000000 0.6529 0.6527 0.6525 0.6523 0.6521
1982.000000 0.6519 0.6518 0.6516 0.6514 0.6512
1987.000000 0.6511 0.6509 0.6508 0.6506 0.6504
1992.000000 0.6503 0.6502 0.6500 0.6499 0.6498
1997.000000 0.6496 0.6495 0.6493 0.6491 0.6486
2002.000000 0.6482 0.6480 0.6478 0.6475 0.6473
2007.000000 0.6470 0.6468 0.6465 0.6463 0.6461
2012.000000 0.6459 0.6457 0.6456 0.6455 0.6455
2017.000000 0.6454 0.6453 0.6452 0.6452 0.6452
2022.000000 0.6453 0.6454 0.6455 0.6456 0.6457
2027.000000 0.6458 0.6460 0.6463 0.6467 0.6470
2032.000000 0.6474 0.6473 0.6473 0.6471 0.6469
2037.000000 0.6467 0.6465 0.6463 0.6461 0.6459
2042.000000 0.6457 0.6454 0.6452 0.6449 0.6446
2047.000000 0.6443 0.6441 0.6438 0.6436 0.6433
2052.000000 0.6431 0.6428 0.6425 0.6422 0.6420
2057.000000 0.6417 0.6415 0.6412 0.6410 0.6407
2062.000000 0.6404 0.6401 0.6399 0.6396 0.6394
2067.000000 0.6393 0.6392 0.6393 0.6394 0.6395
2072.000000 0.6397 0.6398 0.6400 0.6402 0.6404
2077.000000 0.6405 0.6407 0.6409 0.6411 0.6410
2082.000000 0.6410 0.6409 0.6408 0.6407 0.6406
2087.000000 0.6405 0.6404 0.6403 0.6402 0.6400
2092.000000 0.6399 0.6398 0.6397 0.6395 0.6394
2097.000000 0.6392 0.6391 0.6390 0.6389 0.6387
2102.000000 0.6386 0.6384 0.6382 0.6379 0.6377
2107.000000 0.6375 0.6373 0.6371 0.6369 0.6366
2112.000000 0.6364 0.6362 0.6360 0.6358 0.6356
2117.000000 0.6353 0.6351 0.6349 0.6347 0.6345
2122.000000 0.6343 0.6341 0.6339 0.6336 0.6334
2127.000000 0.6332 0.6330 0.6328 0.6326 0.6324
2132.000000 0.6323 0.6321 0.6320 0.6319 0.6318
2137.000000 0.6316 0.6315 0.6313 0.6312 0.6311
2142.000000 0.6310 0.6308 0.6307 0.6306 0.6305
2147.000000 0.6303 0.6302 0.6301 0.6300 0.6298
2152.000000 0.6297 0.6295 0.6294 0.6293 0.6292
2157.000000 0.6290 0.6289 0.6287 0.6286 0.6285
2162.000000 0.6284 0.6282 0.6281 0.6279 0.6278
2167.000000 0.6277 0.6276 0.6274 0.6273 0.6271
2172.000000 0.6270 0.6269 0.6268 0.6267 0.6266
2177.000000 0.6264 0.6263 0.6262 0.6261 0.6259
2182.000000 0.6258 0.6257 0.6256 0.6254 0.6253
2187.000000 0.6252 0.6251 0.6249 0.6248 0.6246
2192.000000 0.6245 0.6244 0.6243 0.6241 0.6240
2197.000000 0.6238 0.6237 0.6236 0.6235 0.6234
2202.000000 0.6234 0.6233 0.6233 0.6232 0.6231
2207.000000 0.6230 0.6230 0.6229 0.6229 0.6228
2212.000000 0.6228 0.6227 0.6227 0.6229 0.6231
2217.000000 0.6233 0.6235 0.6237 0.6239 0.6241
2222.000000 0.6243 0.6242 0.6242 0.6240 0.6238
2227.000000 0.6235 0.6232 0.6229 0.6226 0.6220
2232.000000 0.6215 0.6209 0.6203 0.6197 0.6192
2237.000000 0.6188 0.6185 0.6181 0.6178 0.6175
2242.000000 0.6172 0.6168 0.6165 0.6162 0.6159
2247.000000 0.6158 0.6158 0.6158 0.6158 0.6157
2252.000000 0.6157 0.6156 0.6156 0.6155 0.6155
2257.000000 0.6155 0.6155 0.6156 0.6157 0.6157
2262.000000 0.6158 0.6158 0.6159 0.6159 0.6160
2267.000000 0.6157 0.6154 0.6151 0.6148 0.6144
2272.000000 0.6141 0.6138 0.6135 0.6132 0.6129
2277.000000 0.6125 0.6122 0.6118 0.6115 0.6111
2282.000000 0.6108 0.6105 0.6102 0.6100 0.6098
2287.000000 0.6096 0.6094 0.6092 0.6090 0.6088
2292.000000 0.6087 0.6087 0.6087 0.6087 0.6087
2297.000000 0.6087 0.6087 0.6087 0.6087 0.6087
2302.000000 0.6087 0.6086 0.6085 0.6083 0.6082
2307.000000 0.6080 0.6079 0.6077 0.6076 0.6070
2312.000000 0.6064 0.6058 0.6053 0.6047 0.6042
2317.000000 0.6036 0.6030 0.6023 0.6016 0.6009
2322.000000 0.6002 0.5995 0.5989 0.5982 0.5975
2327.000000 0.5968 0.5961 0.5954 0.5947 0.5940
2332.000000 0.5933 0.5926 0.5919 0.5912 0.5906
2337.000000 0.5899 0.5892 0.5885 0.5878 0.5870
2342.000000 0.5863 0.5855 0.5848 0.5840 0.5833
2347.000000 0.5825 0.5817 0.5810 0.5803 0.5797
2352.000000 0.5791 0.5784 0.5778 0.5772 0.5766
2357.000000 0.5761 0.5757 0.5756 0.5755 0.5754
2362.000000 0.5754 0.5753 0.5752 0.5753 0.5754
2367.000000 0.5772 0.5791 0.5809 0.5827 0.5845
2372.000000 0.5864 0.5882 0.5901 0.5919 0.5938
2377.000000 0.5956 0.5975 0.5991 0.6007 0.6019
2382.000000 0.6031 0.6034 0.6037 0.6039 0.6042
2387.000000 0.6043 0.6045 0.6045 0.6045 0.6045
2392.000000 0.6045 0.6044 0.6044 0.6044 0.6044
2397.000000 0.6043 0.6043 0.6042 0.6041 0.6040
2402.000000 0.6039 0.6038 0.6038 0.6036 0.6035
2407.000000 0.6032 0.6029 0.6026 0.6024 0.6021
2412.000000 0.6019 0.6015 0.6012 0.6008 0.6004
2417.000000 0.6000 0.5997 0.5998 0.6000 0.6006
2422.000000 0.6012 0.6018 0.6024 0.6030 0.6036
2427.000000 0.6040 0.6045 0.6046 0.6047 0.6045
2432.000000 0.6044 0.6042 0.6041 0.6039 0.6037
2437.000000 0.6035 0.6033 0.6031 0.6030 0.6028
2442.000000 0.6026 0.6024 0.6022 0.6020 0.6018
2447.000000 0.6016 0.6014 0.6012 0.6010 0.6008
2452.000000 0.6006 0.6003 0.6001 0.5998 0.5996
2457.000000 0.5994 0.5992 0.5989 0.5987 0.5984
2462.000000 0.5982 0.5980 0.5978 0.5976 0.5974
2467.000000 0.5972 0.5970 0.5968 0.5966 0.5964
2472.000000 0.5962 0.5960 0.5958 0.5956 0.5954
2477.000000 0.5952 0.5951 0.5949 0.5947 0.5945
2482.000000 0.5943 0.5941 0.5940 0.5938 0.5936
2487.000000 0.5934 0.5933 0.5931 0.5929 0.5927
2492.000000 0.5926 0.5925 0.5924 0.5922 0.5921
2497.000000 0.5920 0.5919 0.5918 0.5917 0.5916
2502.000000 0.5915 0.5914 0.5913 0.5911 0.5910
2507.000000 0.5909 0.5908 0.5907 0.5906 0.5905
2512.000000 0.5905 0.5904 0.5904 0.5903 0.5903
2517.000000 0.5902 0.5902 0.5901 0.5901 0.5900
2522.000000 0.5900 0.5899 0.5899 0.5898 0.5898
2527.000000 0.5898 0.5898 0.5898 0.5898 0.5898
2532.000000 0.5898 0.5898 0.5898 0.5898 0.5898
2537.000000 0.5898 0.5898 0.5897 0.5897 0.5896
2542.000000 0.5896 0.5895 0.5895 0.5894 0.5893
2547.000000 0.5892 0.5892 0.5891 0.5891 0.5890
2552.000000 0.5890 0.5889 0.5888 0.5886 0.5884
2557.000000 0.5882 0.5880 0.5878 0.5877 0.5875
2562.000000 0.5873 0.5871 0.5870 0.5868 0.5866
2567.000000 0.5864 0.5862 0.5860 0.5859 0.5856
2572.000000 0.5854 0.5851 0.5849 0.5846 0.5844
2577.000000 0.5841 0.5838 0.5835 0.5833 0.5830
2582.000000 0.5828 0.5825 0.5823 0.5820 0.5817
2587.000000 0.5814 0.5812 0.5809 0.5806 0.5803
2592.000000 0.5800 0.5796 0.5793 0.5790 0.5787
2597.000000 0.5784 0.5781 0.5777 0.5774 0.5771
2602.000000 0.5768 0.5765 0.5762 0.5758 0.5755
2607.000000 0.5752 0.5749 0.5746 0.5744 0.5741
2612.000000 0.5738 0.5735 0.5733 0.5730 0.5727
2617.000000 0.5724 0.5721 0.5718 0.5716 0.5713
2622.000000 0.5710 0.5708 0.5706 0.5704 0.5703
2627.000000 0.5702 0.5701 0.5700 0.5699 0.5698
2632.000000 0.5697 0.5696 0.5695 0.5694 0.5693
2637.000000 0.5692 0.5691 0.5690 0.5689 0.5688
2642.000000 0.5688 0.5688 0.5688 0.5688 0.5688
2647.000000 0.5687 0.5687 0.5687 0.5687 0.5686
2652.000000 0.5686 0.5686 0.5687 0.5688 0.5689
2657.000000 0.5690 0.5691 0.5692 0.5693 0.5694
2662.000000 0.5695 0.5696 0.5697 0.5698 0.5699
2667.000000 0.5701 0.5704 0.5706 0.5708 0.5710
2672.000000 0.5712 0.5714 0.5716 0.5716 0.5716
2677.000000 0.5716 0.5716 0.5716 0.5716 0.5715
2682.000000 0.5715 0.5714 0.5713 0.5712 0.5711
2687.000000 0.5710 0.5709 0.5708 0.5707 0.5705
2692.000000 0.5704 0.5703 0.5702 0.5700 0.5698
2697.000000 0.5695 0.5693 0.5690 0.5688 0.5685
2702.000000 0.5683 0.5680 0.5678 0.5675 0.5673
2707.000000 0.5670 0.5668 0.5666 0.5664 0.5661
2712.000000 0.5659 0.5657 0.5655 0.5653 0.5651
2717.000000 0.5648 0.5646 0.5644 0.5642 0.5639
2722.000000 0.5637 0.5635 0.5633 0.5630 0.5628
2727.000000 0.5626 0.5624 0.5622 0.5620 0.5618
2732.000000 0.5617 0.5615 0.5613 0.5611 0.5609
2737.000000 0.5607 0.5605 0.5603 0.5602 0.5600
2742.000000 0.5598 0.5596 0.5594 0.5592 0.5590
2747.000000 0.5588 0.5587 0.5585 0.5583 0.5581
2752.000000 0.5579 0.5577 0.5575 0.5573 0.5571
2757.000000 0.5569 0.5568 0.5565 0.5562 0.5559
2762.000000 0.5557 0.5554 0.5552 0.5549 0.5547
2767.000000 0.5544 0.5541 0.5538 0.5536 0.5533
2772.000000 0.5531 0.5528 0.5525 0.5521 0.5517
2777.000000 0.5512 0.5507 0.5502 0.5497 0.5492
2782.000000 0.5487 0.5482 0.5478 0.5469 0.5461
2787.000000 0.5450 0.5440 0.5430 0.5420 0.5409
2792.000000 0.5399 0.5388 0.5378 0.5367 0.5356
2797.000000 0.5345 0.5334 0.5323 0.5312 0.5298
2802.000000 0.5285 0.5271 0.5258 0.5243 0.5229
2807.000000 0.5211 0.5193 0.5175 0.5158 0.5140
2812.000000 0.5123 0.5096 0.5070 0.5043 0.5016
2817.000000 0.4987 0.4958 0.4922 0.4887 0.4851
2822.000000 0.4815 0.4772 0.4730 0.4679 0.4628
2827.000000 0.4564 0.4501 0.4420 0.4340 0.4174
2832.000000 0.4009 0.3837 0.3666 0.3494 0.3323
2837.000000 0.3151 0.2980 0.2808 0.2637 0.2465
2842.000000 0.2294 0.2122 0.1951 0.1779 0.1608
2847.000000 0.1436 0.1265 0.1093 0.0922 0.0750
2852.000000 0.0578 0.0479 0.0381 0.0383 0.0377
2857.000000 0.0595 0.0804 0.1026 0.1248 0.1470
2862.000000 0.1692 0.1914 0.2136 0.2358 0.2580
2867.000000 0.2681 0.2783 0.2807 0.2832 0.2849
2872.000000 0.2866 0.2880 0.2894 0.2904 0.2915
2877.000000 0.2924 0.2934 0.2941 0.2981 0.2884
2882.000000 0.2821 0.2751 0.2682 0.2612 0.2543
2887.000000 0.2473 0.2404 0.2334 0.2265 0.2195
2892.000000 0.2126 0.2056 0.1987 0.1917 0.1848
2897.000000 0.1778 0.1709 0.1639 0.1570 0.1500
2902.000000 0.1431 0.1361 0.1292 0.1222 0.1153
2907.000000 0.1083 0.1014 0.0944 0.0875 0.0805
2912.000000 0.0736 0.0666 0.0597 0.0527 0.0458
2917.000000 0.0388 0.0319 0.0249 0.0180 0.0151
2922.000000 0.0122 0.0125 0.0129 0.0133 0.0111
2927.000000 0.0148 0.0159 0.0174 0.0189 0.0211
2932.000000 0.0233 0.0299 0.0365 0.0583 0.0802
2937.000000 0.0998 0.1195 0.1391 0.1587 0.1783
2942.000000 0.1980 0.2176 0.2373 0.2471 0.2604
2947.000000 0.2572 0.2574 0.2533 0.2493 0.2452
2952.000000 0.2412 0.2371 0.2330 0.2292 0.2255
2957.000000 0.2255 0.2256 0.2314 0.2255 0.2470
2962.000000 0.2568 0.2666 0.2764 0.2861 0.2959
2967.000000 0.3057 0.3155 0.3252 0.3350 0.3448
2972.000000 0.3546 0.3831 0.4116 0.4197 0.4279
2977.000000 0.4355 0.4431 0.4477 0.4523 0.4560
2982.000000 0.4597 0.4611 0.4625 0.4639 0.4654
2987.000000 0.4668 0.4683 0.4697 0.4712 0.4725
2992.000000 0.4739 0.4752 0.4765 0.4778 0.4791
2997.000000 0.4804 0.4817 0.4829 0.4841 0.4850
3002.000000 0.4859 0.4868 0.4878 0.4887 0.4896
3007.000000 0.4905 0.4915 0.4924 0.4933 0.4939
3012.000000 0.4945 0.4950 0.4955 0.4959 0.4964
3017.000000 0.4969 0.4974 0.4978 0.4983 0.4988
3022.000000 0.4993 0.4998 0.5003 0.5006 0.5010
3027.000000 0.5013 0.5016 0.5019 0.5023 0.5026
3032.000000 0.5030 0.5033 0.5036 0.5039 0.5043
3037.000000 0.5045 0.5048 0.5050 0.5053 0.5055
3042.000000 0.5058 0.5060 0.5063 0.5065 0.5067
3047.000000 0.5069 0.5072 0.5074 0.5077 0.5079
3052.000000 0.5081 0.5083 0.5085 0.5087 0.5090
3057.000000 0.5092 0.5094 0.5096 0.5099 0.5101
3062.000000 0.5104 0.5106 0.5109 0.5111 0.5113
3067.000000 0.5115 0.5118 0.5120 0.5123 0.5125
3072.000000 0.5128 0.5130 0.5133 0.5134 0.5136
3077.000000 0.5137 0.5139 0.5141 0.5143 0.5144
3082.000000 0.5146 0.5147 0.5149 0.5150 0.5152
3087.000000 0.5154 0.5156 0.5157 0.5159 0.5159
3092.000000 0.5160 0.5159 0.5159 0.5158 0.5158
3097.000000 0.5157 0.5157 0.5156 0.5156 0.5155
3102.000000 0.5155 0.5156 0.5158 0.5160 0.5162
3107.000000 0.5163 0.5165 0.5166 0.5168 0.5169
3112.000000 0.5170 0.5171 0.5172 0.5172 0.5172
3117.000000 0.5171 0.5170 0.5169 0.5169 0.5168
3122.000000 0.5167 0.5166 0.5166 0.5165 0.5164
3127.000000 0.5163 0.5163 0.5162 0.5161 0.5160
3132.000000 0.5160 0.5159 0.5159 0.5158 0.5157
3137.000000 0.5156 0.5156 0.5155 0.5154 0.5153
3142.000000 0.5153 0.5152 0.5151 0.5150 0.5150
3147.000000 0.5149 0.5148 0.5147 0.5147 0.5146
3152.000000 0.5145 0.5144 0.5144 0.5143 0.5143
3157.000000 0.5142 0.5141 0.5140 0.5140 0.5139
3162.000000 0.5138 0.5136 0.5135 0.5133 0.5131
3167.000000 0.5129 0.5128 0.5126 0.5124 0.5122
3172.000000 0.5121 0.5119 0.5117 0.5115 0.5114
3177.000000 0.5112 0.5110 0.5108 0.5107 0.5105
3182.000000 0.5104 0.5102 0.5100 0.5098 0.5097
3187.000000 0.5095 0.5093 0.5091 0.5090 0.5088
3192.000000 0.5086 0.5083 0.5081 0.5079 0.5077
3197.000000 0.5075 0.5073 0.5071 0.5069 0.5066
3202.000000 0.5064 0.5062 0.5060 0.5058 0.5056
3207.000000 0.5054 0.5052 0.5050 0.5048 0.5045
3212.000000 0.5043 0.5041 0.5039 0.5037 0.5035
3217.000000 0.5033 0.5031 0.5028 0.5026 0.5024
3222.000000 0.5022 0.5020 0.5018 0.5016 0.5014
3227.000000 0.5011 0.5009 0.5007 0.5005 0.5002
3232.000000 0.5000 0.4998 0.4996 0.4993 0.4991
3237.000000 0.4989 0.4987 0.4984 0.4982 0.4980
3242.000000 0.4978 0.4975 0.4973 0.4970 0.4968
3247.000000 0.4966 0.4964 0.4961 0.4959 0.4957
3252.000000 0.4955 0.4952 0.4950 0.4947 0.4945
3257.000000 0.4942 0.4940 0.4937 0.4935 0.4932
3262.000000 0.4930 0.4927 0.4925 0.4922 0.4920
3267.000000 0.4917 0.4914 0.4911 0.4909 0.4906
3272.000000 0.4904 0.4901 0.4899 0.4896 0.4893
3277.000000 0.4889 0.4886 0.4882 0.4879 0.4875
3282.000000 0.4872 0.4868 0.4865 0.4861 0.4858
3287.000000 0.4854 0.4851 0.4847 0.4844 0.4840
3292.000000 0.4837 0.4833 0.4830 0.4826 0.4822
3297.000000 0.4818 0.4815 0.4811 0.4807 0.4803
3302.000000 0.4799 0.4795 0.4791 0.4787 0.4784
3307.000000 0.4780 0.4776 0.4772 0.4768 0.4764
3312.000000 0.4760 0.4756 0.4752 0.4748 0.4744
3317.000000 0.4739 0.4735 0.4730 0.4726 0.4722
3322.000000 0.4718 0.4713 0.4709 0.4704 0.4700
3327.000000 0.4695 0.4691 0.4686 0.4682 0.4678
3332.000000 0.4674 0.4669 0.4665 0.4660 0.4656
3337.000000 0.4651 0.4647 0.4642 0.4638 0.4634
3342.000000 0.4630 0.4625 0.4620 0.4615 0.4610
3347.000000 0.4605 0.4600 0.4595 0.4590 0.4584
3352.000000 0.4579 0.4574 0.4569 0.4564 0.4559
3357.000000 0.4554 0.4549 0.4544 0.4539 0.4534
3362.000000 0.4529 0.4524 0.4519 0.4514 0.4509
3367.000000 0.4503 0.4498 0.4492 0.4487 0.4481
3372.000000 0.4475 0.4469 0.4464 0.4458 0.4453
3377.000000 0.4447 0.4441 0.4435 0.4430 0.4424
3382.000000 0.4419 0.4413 0.4408 0.4402 0.4397
3387.000000 0.4390 0.4384 0.4377 0.4370 0.4363
3392.000000 0.4356 0.4349 0.4342 0.4335 0.4328
3397.000000 0.4321 0.4314 0.4307 0.4300 0.4293
3402.000000 0.4287 0.4280 0.4273 0.4267 0.4261
3407.000000 0.4255 0.4249 0.4243 0.4237 0.4231
3412.000000 0.4225 0.4219 0.4214 0.4208 0.4202
3417.000000 0.4198 0.4194 0.4191 0.4188 0.4185
3422.000000 0.4182 0.4179 0.4176 0.4172 0.4169
3427.000000 0.4166 0.4163 0.4160 0.4157 0.4154
3432.000000 0.4151 0.4148 0.4145 0.4142 0.4139
3437.000000 0.4137 0.4136 0.4134 0.4132 0.4130
3442.000000 0.4129 0.4127 0.4125 0.4123 0.4122
3447.000000 0.4120 0.4118 0.4116 0.4115 0.4113
3452.000000 0.4111 0.4110 0.4109 0.4107 0.4106
3457.000000 0.4105 0.4104 0.4103 0.4102 0.4104
3462.000000 0.4106 0.4108 0.4110 0.4112 0.4114
3467.000000 0.4116 0.4118 0.4120 0.4122 0.4124
3472.000000 0.4127 0.4129 0.4131 0.4133 0.4136
3477.000000 0.4138 0.4140 0.4142 0.4144 0.4145
3482.000000 0.4147 0.4148 0.4150 0.4153 0.4157
3487.000000 0.4160 0.4163 0.4166 0.4169 0.4172
3492.000000 0.4176 0.4179 0.4182 0.4185 0.4189
3497.000000 0.4192 0.4195 0.4198 0.4202 0.4205
3502.000000 0.4209 0.4212 0.4216 0.4219 0.4223
3507.000000 0.4226 0.4229 0.4232 0.4236 0.4239
3512.000000 0.4243 0.4246 0.4250 0.4253 0.4256
3517.000000 0.4259 0.4263 0.4266 0.4270 0.4273
3522.000000 0.4277 0.4280 0.4283 0.4286 0.4290
3527.000000 0.4293 0.4297 0.4300 0.4304 0.4307
3532.000000 0.4311 0.4315 0.4319 0.4323 0.4328
3537.000000 0.4332 0.4336 0.4340 0.4345 0.4349
3542.000000 0.4353 0.4357 0.4361 0.4365 0.4370
3547.000000 0.4374 0.4378 0.4382 0.4387 0.4391
3552.000000 0.4395 0.4399 0.4404 0.4408 0.4412
3557.000000 0.4416 0.4420 0.4424 0.4428 0.4432
3562.000000 0.4436 0.4440 0.4444 0.4448 0.4453
3567.000000 0.4457 0.4461 0.4465 0.4469 0.4473
3572.000000 0.4477 0.4481 0.4485 0.4489 0.4494
3577.000000 0.4498 0.4502 0.4506 0.4510 0.4513
3582.000000 0.4516 0.4519 0.4522 0.4525 0.4528
3587.000000 0.4531 0.4534 0.4537 0.4540 0.4543
3592.000000 0.4547 0.4550 0.4553 0.4556 0.4559
3597.000000 0.4562 0.4565 0.4568 0.4571 0.4574
3602.000000 0.4577 0.4580 0.4583 0.4586 0.4590
3607.000000 0.4593 0.4596 0.4599 0.4602 0.4605
3612.000000 0.4608 0.4611 0.4614 0.4618 0.4622
3617.000000 0.4625 0.4629 0.4632 0.4636 0.4640
3622.000000 0.4644 0.4647 0.4651 0.4654 0.4658
3627.000000 0.4662 0.4666 0.4669 0.4673 0.4676
3632.000000 0.4680 0.4682 0.4685 0.4688 0.4691
3637.000000 0.4694 0.4697 0.4699 0.4702 0.4705
3642.000000 0.4708 0.4710 0.4713 0.4716 0.4719
3647.000000 0.4717 0.4716 0.4715 0.4714 0.4712
3652.000000 0.4711 0.4709 0.4708 0.4706 0.4705
3657.000000 0.4704 0.4704 0.4703 0.4703 0.4703
3662.000000 0.4703 0.4702 0.4702 0.4699 0.4697
3667.000000 0.4694 0.4691 0.4688 0.4685 0.4682
3672.000000 0.4679 0.4676 0.4674 0.4672 0.4670
3677.000000 0.4675 0.4681 0.4688 0.4696 0.4708
3682.000000 0.4720 0.4732 0.4745 0.4753 0.4761
3687.000000 0.4764 0.4768 0.4767 0.4767 0.4764
3692.000000 0.4762 0.4760 0.4758 0.4756 0.4754
3697.000000 0.4751 0.4748 0.4744 0.4741 0.4737
3702.000000 0.4734 0.4730 0.4727 0.4722 0.4718
3707.000000 0.4711 0.4704 0.4697 0.4690 0.4688
3712.000000 0.4686 0.4691 0.4696 0.4701 0.4706
3717.000000 0.4711 0.4716 0.4721 0.4726 0.4729
3722.000000 0.4732 0.4732 0.4732 0.4732 0.4732
3727.000000 0.4730 0.4728 0.4723 0.4718 0.4713
3732.000000 0.4708 0.4703 0.4698 0.4693 0.4688
3737.000000 0.4682 0.4677 0.4672 0.4667 0.4661
3742.000000 0.4656 0.4654 0.4653 0.4651 0.4649
3747.000000 0.4647 0.4646 0.4644 0.4642 0.4643
3752.000000 0.4644 0.4645 0.4646 0.4647 0.4648
3757.000000 0.4649 0.4650 0.4654 0.4659 0.4664
3762.000000 0.4670 0.4675 0.4681 0.4688 0.4695
3767.000000 0.4702 0.4709 0.4710 0.4711 0.4710
3772.000000 0.4710 0.4709 0.4709 0.4708 0.4707
3777.000000 0.4707 0.4708 0.4709 0.4711 0.4712
3782.000000 0.4714 0.4714 0.4715 0.4715 0.4715
3787.000000 0.4714 0.4714 0.4713 0.4713 0.4712
3792.000000 0.4712 0.4710 0.4708 0.4706 0.4704
3797.000000 0.4702 0.4701 0.4699 0.4697 0.4695
3802.000000 0.4693 0.4690 0.4688 0.4684 0.4680
3807.000000 0.4676 0.4673 0.4669 0.4665 0.4661
3812.000000 0.4658 0.4654 0.4650 0.4646 0.4643
3817.000000 0.4639 0.4636 0.4633 0.4631 0.4629
3822.000000 0.4628 0.4626 0.4624 0.4622 0.4620
3827.000000 0.4618 0.4617 0.4615 0.4613 0.4611
3832.000000 0.4610 0.4608 0.4606 0.4604 0.4603
3837.000000 0.4602 0.4602 0.4601 0.4601 0.4600
3842.000000 0.4600 0.4599 0.4599 0.4599 0.4599
3847.000000 0.4598 0.4598 0.4597 0.4597 0.4597
3852.000000 0.4597 0.4597 0.4598 0.4598 0.4599
3857.000000 0.4600 0.4601 0.4601 0.4602 0.4602
3862.000000 0.4603 0.4603 0.4604 0.4605 0.4606
3867.000000 0.4605 0.4604 0.4603 0.4603 0.4602
3872.000000 0.4601 0.4600 0.4600 0.4599 0.4598
3877.000000 0.4597 0.4596 0.4595 0.4595 0.4592
3882.000000 0.4590 0.4587 0.4585 0.4582 0.4580
3887.000000 0.4577 0.4575 0.4572 0.4570 0.4567
3892.000000 0.4564 0.4558 0.4553 0.4547 0.4542
3897.000000 0.4536 0.4530 0.4524 0.4519 0.4514
3902.000000 0.4509 0.4507 0.4506 0.4509 0.4512
3907.000000 0.4515 0.4518 0.4522 0.4527 0.4533
3912.000000 0.4539 0.4545 0.4551 0.4556 0.4562
3917.000000 0.4565 0.4569 0.4572 0.4576 0.4579
3922.000000 0.4583 0.4586 0.4590 0.4592 0.4594
3927.000000 0.4596 0.4599 0.4601 0.4604 0.4605
3932.000000 0.4607 0.4607 0.4608 0.4608 0.4608
3937.000000 0.4608 0.4609 0.4609 0.4610 0.4610
3942.000000 0.4610 0.4610 0.4610 0.4609 0.4609
3947.000000 0.4609 0.4609 0.4608 0.4608 0.4608
3952.000000 0.4608 0.4607 0.4606 0.4604 0.4603
3957.000000 0.4601 0.4600 0.4598 0.4597 0.4595
3962.000000 0.4594 0.4592 0.4578 0.4589 0.4588
3967.000000 0.4586 0.4584 0.4582 0.4581 0.4579
3972.000000 0.4577 0.4575 0.4573 0.4571 0.4570
3977.000000 0.4568 0.4566 0.4564 0.4562 0.4560
3982.000000 0.4558 0.4555 0.4553 0.4550 0.4548
3987.000000 0.4545 0.4543 0.4541 0.4539 0.4537
3992.000000 0.4535 0.4532 0.4530 0.4528 0.4526
3997.000000 0.4524 0.4522 0.4520 0.4518 0.4517
4002.000000 0.4517
##END=
