##TITLE=4'-CHLORO-2-HYDROXY-5-t-OCTYLBENZOPHENONE
##JCAMP-DX=4.24
##DATA TYPE=INFRARED SPECTRUM
##CLASS=COBLENTZ
##ORIGIN=DOW CHEMICAL COMPANY
##OWNER=COBLENTZ SOCIETY
Collection (C) 2018 copyright by the U.S. Secretary of Commerce
on behalf of the United States of America. All rights reserved.
##DATE=Not specified, most likely prior to 1970
##NAMES=(4-chlorophenyl)[5-(1,1-dimethylhexyl)-2-hydroxyphenyl]methanone
##MOLFORM=C21 H25 Cl O2
##SOURCE REFERENCE=COBLENTZ NO. 4170
##$NIST ID=B6004170
##$NIST SOURCE=COBLENTZ
##$NIST IMAGE=cob4170
##SPECTROMETER/DATA SYSTEM=Not specified, most likely a prism, grating, or hybrid spectrometer.
##STATE=SOLID (MINERAL OIL MULL)
##PATH LENGTH=
$$SPECTRAL CONTAMINATION DUE TO OIL AROUND 2930 CM^-^1
##SAMPLING PROCEDURE=TRANSMISSION
##RESOLUTION=4
##DATA PROCESSING=DIGITIZED BY NIST FROM HARD COPY
##XUNITS=MICROMETERS
##YUNITS=TRANSMITTANCE
##XFACTOR=1.000000
##YFACTOR=1
##DELTAX=000.006536
##FIRSTX=2.02
##LASTX=15.9021
##FIRSTY=0.354
##MAXX=15.9021
##MINX=2.02
##MAXY=0.817
##MINY=0.112
##NPOINTS=2125
##XYDATA=(X++(Y..Y))
2.020000 0.3540 0.3540 0.3540 0.3560 0.3560
2.052695 0.3560 0.3570 0.3590 0.3600 0.3620
2.085000 0.3640 0.3650 0.3670 0.3670 0.3690
2.117695 0.3700 0.3720 0.3730 0.3750 0.3770
2.150000 0.3780 0.3820 0.3830 0.3850 0.3860
2.182695 0.3880 0.3900 0.3910 0.3930 0.3950
2.216000 0.3960 0.3960 0.4000 0.4010 0.4010
2.248695 0.4030 0.4040 0.4040 0.4060 0.4060
2.281000 0.4080 0.4080 0.4090 0.4110 0.4110
2.313695 0.4130 0.4140 0.4160 0.4170 0.4190
2.346000 0.4210 0.4220 0.4240 0.4270 0.4270
2.378695 0.4290 0.4300 0.4340 0.4350 0.4370
2.412000 0.4390 0.4400 0.4400 0.4400 0.4420
2.444695 0.4430 0.4430 0.4450 0.4450 0.4470
2.477000 0.4470 0.4480 0.4500 0.4530 0.4550
2.509695 0.4560 0.4580 0.4600 0.4610 0.4630
2.542000 0.4650 0.4650 0.4650 0.4660 0.4660
2.574695 0.4680 0.4680 0.4680 0.4690 0.4710
2.608000 0.4730 0.4740 0.4790 0.4820 0.4840
2.640695 0.4860 0.4860 0.4870 0.4890 0.4910
2.673000 0.4920 0.4920 0.4950 0.4970 0.5040
2.705695 0.5080 0.5100 0.5120 0.5120 0.5120
2.739000 0.5130 0.5130 0.5150 0.5150 0.5150
2.771695 0.5170 0.5180 0.5200 0.5230 0.5260
2.804000 0.5280 0.5310 0.5340 0.5390 0.5430
2.836695 0.5440 0.5470 0.5490 0.5510 0.5510
2.869000 0.5470 0.5440 0.5360 0.5280 0.5180
2.901695 0.5100 0.5050 0.4990 0.4860 0.4690
2.935000 0.4500 0.4260 0.3950 0.3690 0.3330
2.967695 0.2940 0.2690 0.2520 0.2430 0.2350
3.000000 0.2210 0.2060 0.2040 0.2080 0.2260
3.032695 0.2390 0.2610 0.2710 0.2810 0.2910
3.065000 0.2990 0.3070 0.3150 0.3230 0.3300
3.097695 0.3360 0.3440 0.3510 0.3560 0.3620
3.131000 0.3690 0.3750 0.3830 0.3900 0.3960
3.163695 0.4030 0.4080 0.4130 0.4160 0.4210
3.196000 0.4260 0.4290 0.4320 0.4350 0.4390
3.228695 0.4400 0.4420 0.4420 0.4430 0.4430
3.261000 0.4450 0.4450 0.4450 0.4450 0.4430
3.293695 0.4430 0.4420 0.4400 0.4350 0.4340
3.327000 0.4260 0.4160 0.4000 0.3780 0.3460
3.359695 0.3050 0.2500 0.2270 0.2040 0.1770
3.392000 0.1490 0.1310 0.1130 0.1120 0.1130
3.424695 0.1170 0.1230 0.1360 0.1570 0.1750
3.458000 0.1930 0.2060 0.2160 0.2190 0.2190
3.490695 0.2220 0.2240 0.2350 0.2820 0.3180
3.523000 0.3590 0.4080 0.4600 0.4910 0.5300
3.555695 0.5410 0.5490 0.5520 0.5560 0.5590
3.588000 0.5600 0.5650 0.5720 0.5750 0.5780
3.620695 0.5800 0.5800 0.5820 0.5820 0.5800
3.654000 0.5780 0.5770 0.5750 0.5750 0.5730
3.686695 0.5730 0.5750 0.5750 0.5780 0.5820
3.719000 0.5820 0.5830 0.5830 0.5830 0.5830
3.751695 0.5830 0.5850 0.5850 0.5860 0.5880
3.784000 0.5910 0.5930 0.5950 0.5960 0.5960
3.816695 0.5980 0.5980 0.5980 0.6000 0.6000
3.850000 0.6000 0.6010 0.6010 0.6010 0.6030
3.882695 0.6030 0.6040 0.6080 0.6110 0.6130
3.915000 0.6140 0.6160 0.6160 0.6170 0.6170
3.947695 0.6190 0.6210 0.6210 0.6220 0.6220
3.980000 0.6240 0.6240 0.6260 0.6270 0.6290
4.012695 0.6320 0.6370 0.6390 0.6400 0.6420
4.046000 0.6450 0.6470 0.6450 0.6430 0.6390
4.078695 0.6340 0.6300 0.6270 0.6270 0.6260
4.111000 0.6260 0.6290 0.6320 0.6370 0.6430
4.143695 0.6450 0.6480 0.6480 0.6480 0.6470
4.176000 0.6450 0.6420 0.6400 0.6390 0.6370
4.208695 0.6350 0.6350 0.6370 0.6420 0.6450
4.242000 0.6470 0.6500 0.6530 0.6560 0.6610
4.274695 0.6680 0.6740 0.6810 0.6860 0.6890
4.307000 0.6940 0.6950 0.6950 0.6950 0.6950
4.339695 0.6940 0.6940 0.6940 0.6920 0.6920
4.373000 0.6920 0.6940 0.6940 0.6970 0.6970
4.405695 0.6990 0.7020 0.7020 0.7040 0.7040
4.438000 0.7040 0.7040 0.7040 0.7040 0.7050
4.470695 0.7050 0.7070 0.7070 0.7070 0.7080
4.503000 0.7100 0.7130 0.7130 0.7150 0.7170
4.535695 0.7170 0.7180 0.7200 0.7200 0.7200
4.569000 0.7200 0.7200 0.7200 0.7210 0.7210
4.601695 0.7230 0.7230 0.7250 0.7260 0.7280
4.634000 0.7300 0.7310 0.7310 0.7330 0.7330
4.666695 0.7330 0.7330 0.7330 0.7330 0.7330
4.699000 0.7330 0.7330 0.7330 0.7340 0.7340
4.731695 0.7340 0.7340 0.7360 0.7360 0.7380
4.765000 0.7380 0.7390 0.7410 0.7410 0.7430
4.797695 0.7440 0.7440 0.7460 0.7460 0.7460
4.830000 0.7460 0.7460 0.7460 0.7470 0.7470
4.862695 0.7470 0.7490 0.7490 0.7490 0.7510
4.895000 0.7510 0.7520 0.7520 0.7520 0.7520
4.927695 0.7520 0.7520 0.7520 0.7520 0.7540
4.961000 0.7540 0.7540 0.7540 0.7560 0.7560
4.993695 0.7560 0.7560 0.7570 0.7590 0.7600
5.026000 0.7600 0.7620 0.7640 0.7650 0.7650
5.058695 0.7650 0.7650 0.7650 0.7670 0.7670
5.092000 0.7690 0.7690 0.7690 0.7690 0.7700
5.124695 0.7700 0.7700 0.7700 0.7690 0.7650
5.157000 0.7650 0.7640 0.7620 0.7600 0.7590
5.189695 0.7570 0.7570 0.7570 0.7590 0.7590
5.222000 0.7600 0.7620 0.7650 0.7720 0.7730
5.254695 0.7770 0.7770 0.7780 0.7800 0.7820
5.288000 0.7830 0.7860 0.7880 0.7900 0.7900
5.320695 0.7900 0.7900 0.7880 0.7880 0.7900
5.353000 0.7930 0.7950 0.7960 0.7960 0.7950
5.385695 0.7930 0.7950 0.7950 0.7960 0.7980
5.418000 0.7960 0.7950 0.7930 0.7950 0.7980
5.450695 0.7980 0.7980 0.7980 0.8010 0.8010
5.484000 0.8030 0.8040 0.8030 0.8010 0.8000
5.516695 0.7960 0.7950 0.7950 0.7930 0.7910
5.549000 0.7910 0.7900 0.7900 0.7900 0.7880
5.581695 0.7880 0.7880 0.7880 0.7880 0.7880
5.614000 0.7900 0.7910 0.7930 0.7980 0.8010
5.646695 0.8040 0.8060 0.8080 0.8080 0.8030
5.680000 0.8010 0.7980 0.7960 0.7960 0.7960
5.712695 0.7960 0.7960 0.7980 0.8000 0.8010
5.745000 0.8030 0.8040 0.8090 0.8130 0.8140
5.777695 0.8160 0.8140 0.8130 0.8090 0.8040
5.810000 0.8010 0.8000 0.8000 0.8010 0.8060
5.842695 0.8060 0.8040 0.8030 0.8010 0.8000
5.876000 0.8000 0.8000 0.8000 0.7980 0.7980
5.908695 0.7950 0.7910 0.7860 0.7820 0.7750
5.941000 0.7650 0.7590 0.7510 0.7490 0.7460
5.973695 0.7380 0.7300 0.7170 0.7000 0.6790
6.007000 0.6600 0.6370 0.6110 0.5800 0.5440
6.039695 0.5000 0.4400 0.3780 0.3570 0.3390
6.072000 0.3120 0.3120 0.3250 0.3600 0.3880
6.104695 0.4710 0.6000 0.6420 0.6680 0.6710
6.137000 0.6710 0.6680 0.6500 0.6390 0.6190
6.169695 0.6010 0.5780 0.5510 0.5180 0.5000
6.203000 0.4810 0.4400 0.3930 0.3440 0.2890
6.235695 0.2860 0.2690 0.2660 0.2690 0.3080
6.268000 0.3300 0.3490 0.3510 0.3510 0.3430
6.300695 0.3120 0.2910 0.2690 0.2500 0.2420
6.333000 0.2340 0.2160 0.2110 0.2080 0.2060
6.365695 0.2060 0.2090 0.2190 0.2270 0.2320
6.399000 0.2820 0.3050 0.3230 0.3410 0.3570
6.431695 0.3700 0.3850 0.3960 0.4090 0.4220
6.464000 0.4370 0.4520 0.4660 0.4840 0.5260
6.496695 0.5510 0.5690 0.5770 0.5860 0.5910
6.529000 0.5950 0.5960 0.5960 0.5860 0.5770
6.561695 0.5670 0.5560 0.5440 0.5380 0.5080
6.595000 0.5000 0.4910 0.4760 0.4710 0.4710
6.627695 0.5200 0.5280 0.5460 0.5590 0.5750
6.660000 0.5900 0.5930 0.5950 0.5950 0.5930
6.692695 0.5880 0.5830 0.5800 0.5780 0.5750
6.725000 0.5750 0.5730 0.5730 0.5700 0.5690
6.757695 0.5540 0.5330 0.5130 0.5050 0.4950
6.791000 0.4780 0.4610 0.4430 0.4350 0.4290
6.823695 0.4270 0.4290 0.4320 0.4350 0.4500
6.856000 0.4600 0.4710 0.4810 0.4920 0.5170
6.888695 0.5300 0.5430 0.5570 0.5730 0.5880
6.922000 0.6040 0.6220 0.6400 0.6580 0.6840
6.954695 0.7020 0.7130 0.7200 0.7250 0.7260
6.987000 0.7280 0.7300 0.7330 0.7380 0.7430
7.019695 0.7440 0.7460 0.7470 0.7490 0.7490
7.052000 0.7490 0.7470 0.7440 0.7430 0.7410
7.084695 0.7380 0.7340 0.7300 0.7230 0.7170
7.118000 0.7080 0.6990 0.6890 0.6790 0.6660
7.150695 0.6550 0.6480 0.6450 0.6390 0.6320
7.183000 0.6290 0.6210 0.6110 0.5910 0.5750
7.215695 0.5700 0.5590 0.5520 0.5410 0.5390
7.248000 0.5410 0.5590 0.5700 0.5750 0.5850
7.280695 0.5910 0.5950 0.5950 0.5950 0.5930
7.314000 0.5930 0.5910 0.5880 0.5860 0.5830
7.346695 0.5820 0.5830 0.5950 0.6010 0.6080
7.379000 0.6170 0.6270 0.6400 0.6550 0.6660
7.411695 0.6690 0.6690 0.6680 0.6560 0.6480
7.444000 0.6390 0.6290 0.6220 0.6210 0.6170
7.476695 0.6170 0.6160 0.6160 0.6130 0.6060
7.510000 0.5930 0.5720 0.5470 0.5150 0.4970
7.542695 0.4790 0.4390 0.3910 0.3430 0.2870
7.575000 0.2520 0.2370 0.2210 0.2170 0.2210
7.607695 0.3150 0.3330 0.3410 0.3620 0.3850
7.641000 0.4110 0.4270 0.4270 0.4240 0.4160
7.673695 0.4000 0.3820 0.3560 0.3390 0.3100
7.706000 0.2910 0.2710 0.2580 0.2500 0.2420
7.738695 0.2400 0.2430 0.2710 0.2860 0.3040
7.771000 0.3200 0.3340 0.3430 0.3490 0.3510
7.803695 0.3490 0.3460 0.3380 0.3280 0.3230
7.837000 0.3080 0.3070 0.3080 0.3200 0.3310
7.869695 0.3470 0.3620 0.3770 0.3880 0.4000
7.902000 0.4110 0.4210 0.4300 0.4390 0.4480
7.934695 0.4580 0.4680 0.4780 0.4910 0.5100
7.967000 0.5180 0.5250 0.5310 0.5390 0.5470
7.999695 0.5560 0.5600 0.5620 0.5620 0.5640
8.033000 0.5640 0.5620 0.5600 0.5590 0.5540
8.065695 0.5510 0.5410 0.5300 0.5170 0.5100
8.098000 0.5020 0.4920 0.4650 0.4320 0.3960
8.130695 0.3570 0.3210 0.2890 0.2610 0.2520
8.163000 0.2400 0.2110 0.2010 0.2010 0.2110
8.195695 0.2210 0.2350 0.2730 0.2920 0.3100
8.229000 0.3280 0.3460 0.3650 0.3820 0.4000
8.261695 0.4160 0.4320 0.4470 0.4610 0.4760
8.294000 0.4890 0.5120 0.5200 0.5300 0.5380
8.326695 0.5470 0.5560 0.5640 0.5700 0.5730
8.359000 0.5780 0.5820 0.5860 0.5860 0.5900
8.391695 0.5930 0.5960 0.5980 0.6010 0.6030
8.425000 0.6060 0.6080 0.6110 0.6110 0.6140
8.457695 0.6140 0.6130 0.6040 0.5960 0.5900
8.490000 0.5690 0.5490 0.5300 0.5100 0.5000
8.522695 0.5000 0.4990 0.5130 0.5380 0.5620
8.556000 0.5860 0.6010 0.6090 0.6190 0.6210
8.588695 0.6040 0.5930 0.5700 0.5380 0.5020
8.621000 0.4820 0.4610 0.4110 0.3650 0.3250
8.653695 0.2860 0.2580 0.2530 0.2480 0.2470
8.686000 0.2860 0.3200 0.3490 0.3750 0.4000
8.718695 0.4210 0.4400 0.4560 0.4710 0.4840
8.752000 0.4970 0.5170 0.5260 0.5360 0.5460
8.784695 0.5560 0.5650 0.5750 0.5850 0.5910
8.817000 0.5980 0.6010 0.6060 0.6110 0.6140
8.849695 0.6190 0.6220 0.6260 0.6290 0.6320
8.882000 0.6350 0.6390 0.6420 0.6430 0.6450
8.914695 0.6470 0.6480 0.6480 0.6470 0.6430
8.948000 0.6400 0.6340 0.6260 0.6160 0.6080
8.980695 0.5980 0.5880 0.5770 0.5650 0.5560
9.013000 0.5520 0.5520 0.5560 0.5620 0.5690
9.045695 0.5770 0.5830 0.5910 0.6000 0.6040
9.078000 0.6110 0.6140 0.6170 0.6190 0.6170
9.110695 0.6110 0.6030 0.5950 0.5800 0.5600
9.144000 0.5460 0.5260 0.5000 0.4950 0.4890
9.176695 0.4710 0.4600 0.4580 0.4600 0.4840
9.209000 0.5460 0.5770 0.6040 0.6300 0.6500
9.241695 0.6630 0.6760 0.6910 0.6970 0.7040
9.275000 0.7120 0.7130 0.7150 0.7150 0.7170
9.307695 0.7170 0.7180 0.7180 0.7200 0.7210
9.340000 0.7250 0.7260 0.7280 0.7300 0.7310
9.372695 0.7330 0.7340 0.7340 0.7360 0.7390
9.405000 0.7410 0.7440 0.7460 0.7470 0.7470
9.437695 0.7490 0.7490 0.7510 0.7520 0.7540
9.471000 0.7560 0.7570 0.7590 0.7590 0.7600
9.503695 0.7600 0.7620 0.7620 0.7620 0.7620
9.536000 0.7620 0.7620 0.7620 0.7620 0.7620
9.568695 0.7620 0.7640 0.7650 0.7650 0.7650
9.601000 0.7650 0.7650 0.7670 0.7670 0.7690
9.633695 0.7690 0.7700 0.7720 0.7750 0.7770
9.667000 0.7780 0.7800 0.7800 0.7820 0.7820
9.699695 0.7830 0.7830 0.7860 0.7880 0.7900
9.732000 0.7900 0.7910 0.7910 0.7910 0.7900
9.764695 0.7900 0.7860 0.7830 0.7520 0.7460
9.797000 0.7380 0.7230 0.7070 0.6920 0.6760
9.829695 0.6610 0.6450 0.6170 0.6140 0.6170
9.863000 0.6470 0.6790 0.7130 0.7440 0.7770
9.895695 0.7780 0.7780 0.7780 0.7780 0.7780
9.928000 0.7770 0.7770 0.7770 0.7800 0.7850
9.960695 0.7880 0.7910 0.7930 0.7950 0.7980
9.993000 0.8000 0.8010 0.8030 0.8040 0.8080
10.025695 0.8080 0.8090 0.8090 0.8110 0.8110
10.059000 0.8110 0.8110 0.8110 0.8110 0.8110
10.091695 0.8110 0.8110 0.8110 0.8110 0.8130
10.124000 0.8130 0.8140 0.8140 0.8160 0.8160
10.156695 0.8160 0.8170 0.8170 0.8140 0.8140
10.190000 0.8110 0.8090 0.8030 0.7980 0.7910
10.222695 0.7860 0.7820 0.7800 0.7770 0.7640
10.255000 0.7570 0.7560 0.7510 0.7510 0.7520
10.287695 0.7570 0.7620 0.7670 0.7690 0.7700
10.320000 0.7690 0.7690 0.7670 0.7650 0.7650
10.352695 0.7670 0.7750 0.7800 0.7820 0.7830
10.386000 0.7860 0.7830 0.7730 0.7570 0.7490
10.418695 0.7410 0.7260 0.7100 0.6970 0.6810
10.451000 0.6790 0.6810 0.6890 0.6970 0.7050
10.483695 0.7120 0.7410 0.7780 0.7830 0.7880
10.516000 0.7880 0.7900 0.7900 0.7910 0.7910
10.548695 0.7910 0.7910 0.7910 0.7880 0.7880
10.582000 0.7850 0.7820 0.7780 0.7730 0.7650
10.614695 0.7640 0.7600 0.7540 0.7510 0.7490
10.647000 0.7470 0.7410 0.7340 0.7250 0.7120
10.679695 0.6940 0.6780 0.6500 0.6240 0.5950
10.712000 0.5640 0.5380 0.5080 0.4940 0.4790
10.744695 0.4530 0.4340 0.4210 0.4190 0.4220
10.778000 0.4480 0.4840 0.5390 0.5690 0.5960
10.810695 0.6220 0.6430 0.6600 0.6790 0.6940
10.843000 0.7080 0.7180 0.7250 0.7280 0.7310
10.875695 0.7360 0.7410 0.7460 0.7490 0.7520
10.908000 0.7570 0.7590 0.7600 0.7620 0.7670
10.940695 0.7690 0.7700 0.7720 0.7730 0.7750
10.974000 0.7750 0.7770 0.7780 0.7780 0.7800
11.006695 0.7800 0.7820 0.7830 0.7830 0.7830
11.039000 0.7830 0.7850 0.7850 0.7850 0.7850
11.071695 0.7850 0.7850 0.7860 0.7860 0.7860
11.105000 0.7860 0.7860 0.7860 0.7860 0.7860
11.137695 0.7860 0.7860 0.7860 0.7860 0.7850
11.170000 0.7850 0.7830 0.7830 0.7830 0.7820
11.202695 0.7820 0.7820 0.7820 0.7820 0.7830
11.235000 0.7830 0.7830 0.7850 0.7850 0.7850
11.267695 0.7850 0.7860 0.7860 0.7880 0.7880
11.301000 0.7900 0.7900 0.7900 0.7900 0.7900
11.333695 0.7900 0.7900 0.7880 0.7880 0.7880
11.366000 0.7860 0.7860 0.7860 0.7860 0.7860
11.398695 0.7860 0.7860 0.7860 0.7860 0.7860
11.431000 0.7850 0.7850 0.7850 0.7830 0.7830
11.463695 0.7820 0.7820 0.7800 0.7800 0.7780
11.497000 0.7780 0.7770 0.7750 0.7750 0.7720
11.529695 0.7690 0.7670 0.7670 0.7620 0.7570
11.562000 0.7540 0.7520 0.7490 0.7440 0.7390
11.594695 0.7300 0.7180 0.7050 0.6860 0.6630
11.627000 0.6340 0.6110 0.5830 0.5560 0.5250
11.659695 0.5120 0.4970 0.4710 0.4430 0.4090
11.693000 0.3960 0.3850 0.3780 0.3770 0.3780
11.725695 0.3980 0.4210 0.4560 0.4870 0.5510
11.758000 0.5820 0.6060 0.6240 0.6350 0.6450
11.790695 0.6530 0.6650 0.6780 0.6820 0.6890
11.824000 0.6910 0.6890 0.6780 0.6710 0.6650
11.856695 0.6530 0.6390 0.6110 0.5960 0.5750
11.889000 0.5570 0.5390 0.5100 0.4990 0.4860
11.921695 0.4550 0.4320 0.4060 0.3950 0.3830
11.954000 0.3720 0.3700 0.3720 0.3910 0.4000
11.986695 0.4220 0.4400 0.4580 0.4710 0.4840
12.020000 0.4940 0.4970 0.5020 0.5020 0.5040
12.052695 0.5070 0.5120 0.5150 0.5180 0.5250
12.085000 0.5260 0.5310 0.5380 0.5440 0.5470
12.117695 0.5490 0.5520 0.5590 0.5670 0.5750
12.150000 0.5800 0.5860 0.5930 0.6010 0.6090
12.182695 0.6190 0.6270 0.6370 0.6450 0.6550
12.216000 0.6630 0.6710 0.6790 0.6870 0.6920
12.248695 0.6990 0.7020 0.7040 0.7050 0.7100
12.281000 0.7120 0.7130 0.7130 0.7150 0.7170
12.313695 0.7170 0.7170 0.7180 0.7200 0.7200
12.346000 0.7210 0.7210 0.7230 0.7250 0.7260
12.378695 0.7260 0.7260 0.7280 0.7280 0.7280
12.412000 0.7300 0.7300 0.7300 0.7300 0.7310
12.444695 0.7310 0.7310 0.7310 0.7310 0.7310
12.477000 0.7330 0.7340 0.7360 0.7360 0.7380
12.509695 0.7380 0.7380 0.7380 0.7380 0.7380
12.542000 0.7380 0.7380 0.7380 0.7380 0.7380
12.574695 0.7380 0.7380 0.7380 0.7390 0.7390
12.608000 0.7410 0.7410 0.7410 0.7410 0.7410
12.640695 0.7410 0.7390 0.7390 0.7390 0.7390
12.673000 0.7390 0.7390 0.7410 0.7410 0.7410
12.705695 0.7410 0.7410 0.7410 0.7410 0.7410
12.739000 0.7410 0.7430 0.7430 0.7430 0.7440
12.771695 0.7440 0.7440 0.7430 0.7430 0.7430
12.804000 0.7410 0.7410 0.7410 0.7410 0.7390
12.836695 0.7380 0.7380 0.7380 0.7360 0.7330
12.869000 0.7310 0.7280 0.7250 0.7200 0.7150
12.901695 0.7080 0.6990 0.6870 0.6760 0.6600
12.935000 0.6420 0.6210 0.5930 0.5670 0.5410
12.967695 0.5180 0.5050 0.4920 0.4650 0.4350
13.000000 0.4000 0.3590 0.3340 0.3170 0.3080
13.032695 0.3070 0.3100 0.3330 0.3620 0.3900
13.065000 0.4190 0.4500 0.4780 0.5330 0.5570
13.097695 0.5800 0.5960 0.6040 0.6160 0.6270
13.131000 0.6370 0.6430 0.6500 0.6560 0.6600
13.163695 0.6650 0.6690 0.6740 0.6780 0.6810
13.196000 0.6840 0.6860 0.6870 0.6890 0.6910
13.228695 0.6920 0.6940 0.6950 0.6970 0.7000
13.261000 0.7000 0.7020 0.7020 0.7020 0.7020
13.293695 0.7020 0.7020 0.7020 0.7020 0.7000
13.327000 0.6990 0.6950 0.6920 0.6890 0.6840
13.359695 0.6780 0.6710 0.6660 0.6600 0.6550
13.392000 0.6470 0.6390 0.6290 0.6240 0.6210
13.424695 0.6190 0.6190 0.6210 0.6260 0.6300
13.458000 0.6390 0.6450 0.6500 0.6560 0.6650
13.490695 0.6690 0.6740 0.6780 0.6820 0.6860
13.523000 0.6910 0.6940 0.6950 0.6970 0.6970
13.555695 0.6990 0.6990 0.6990 0.6990 0.6970
13.588000 0.6950 0.6940 0.6920 0.6920 0.6920
13.620695 0.6920 0.6920 0.6920 0.6920 0.6910
13.654000 0.6910 0.6890 0.6890 0.6870 0.6860
13.686695 0.6860 0.6840 0.6810 0.6810 0.6790
13.719000 0.6780 0.6740 0.6710 0.6680 0.6660
13.751695 0.6650 0.6600 0.6520 0.6450 0.6420
13.784000 0.6370 0.6300 0.6240 0.6160 0.6090
13.816695 0.6030 0.5980 0.5930 0.5900 0.5880
13.850000 0.5860 0.5880 0.5910 0.5950 0.6000
13.882695 0.6060 0.6160 0.6260 0.6350 0.6430
13.915000 0.6500 0.6550 0.6630 0.6680 0.6710
13.947695 0.6730 0.6760 0.6780 0.6790 0.6790
13.980000 0.6810 0.6810 0.6790 0.6780 0.6780
14.012695 0.6760 0.6760 0.6760 0.6740 0.6730
14.046000 0.6710 0.6710 0.6690 0.6680 0.6660
14.078695 0.6610 0.6600 0.6580 0.6530 0.6530
14.111000 0.6500 0.6480 0.6480 0.6450 0.6400
14.143695 0.6390 0.6370 0.6320 0.6300 0.6290
14.176000 0.6270 0.6240 0.6220 0.6170 0.6140
14.208695 0.6090 0.6090 0.6040 0.6030 0.6010
14.242000 0.6000 0.5980 0.5960 0.5910 0.5880
14.274695 0.5850 0.5820 0.5780 0.5750 0.5720
14.307000 0.5690 0.5650 0.5620 0.5590 0.5540
14.339695 0.5510 0.5460 0.5410 0.5360 0.5300
14.373000 0.5230 0.5170 0.5080 0.5020 0.4990
14.405695 0.4940 0.4840 0.4760 0.4690 0.4630
14.438000 0.4560 0.4450 0.4390 0.4300 0.4240
14.470695 0.4160 0.4130 0.4090 0.4060 0.4030
14.503000 0.3980 0.3960 0.3930 0.3910 0.3910
14.535695 0.3930 0.3960 0.4000 0.4060 0.4110
14.569000 0.4190 0.4260 0.4340 0.4420 0.4500
14.601695 0.4580 0.4660 0.4730 0.4780 0.4820
14.634000 0.4870 0.4910 0.4950 0.4990 0.5070
14.666695 0.5100 0.5130 0.5150 0.5170 0.5180
14.699000 0.5180 0.5180 0.5180 0.5170 0.5150
14.731695 0.5120 0.5100 0.5080 0.5070 0.5040
14.765000 0.5000 0.5000 0.4990 0.4970 0.4940
14.797695 0.4920 0.4860 0.4780 0.4740 0.4710
14.830000 0.4680 0.4650 0.4600 0.4530 0.4500
14.862695 0.4470 0.4420 0.4390 0.4350 0.4300
14.895000 0.4270 0.4220 0.4160 0.4110 0.4040
14.927695 0.3980 0.3930 0.3860 0.3800 0.3730
14.961000 0.3670 0.3600 0.3540 0.3520 0.3460
14.993695 0.3380 0.3340 0.3310 0.3300 0.3280
15.026000 0.3230 0.3210 0.3200 0.3180 0.3180
15.058695 0.3200 0.3210 0.3250 0.3280 0.3310
15.092000 0.3340 0.3380 0.3430 0.3460 0.3490
15.124695 0.3520 0.3560 0.3590 0.3620 0.3650
15.157000 0.3690 0.3720 0.3750 0.3770 0.3800
15.189695 0.3830 0.3860 0.3880 0.3910 0.3930
15.222000 0.3960 0.3980 0.4010 0.4030 0.4060
15.254695 0.4080 0.4090 0.4110 0.4130 0.4140
15.288000 0.4160 0.4170 0.4170 0.4170 0.4190
15.320695 0.4190 0.4210 0.4210 0.4220 0.4220
15.353000 0.4220 0.4210 0.4210 0.4190 0.4170
15.385695 0.4160 0.4140 0.4130 0.4080 0.4060
15.418000 0.4010 0.4000 0.3980 0.3950 0.3900
15.450695 0.3860 0.3820 0.3780 0.3750 0.3720
15.484000 0.3700 0.3690 0.3670 0.3670 0.3650
15.516695 0.3650 0.3650 0.3670 0.3690 0.3700
15.549000 0.3730 0.3770 0.3800 0.3820 0.3850
15.581695 0.3880 0.3910 0.3930 0.3960 0.4000
15.614000 0.4010 0.4030 0.4040 0.4060 0.4090
15.646695 0.4110 0.4130 0.4160 0.4170 0.4170
15.680000 0.4190 0.4190 0.4210 0.4210 0.4220
15.712695 0.4240 0.4260 0.4260 0.4260 0.4270
15.745000 0.4270 0.4270 0.4290 0.4290 0.4290
15.777695 0.4300 0.4300 0.4300 0.4320 0.4320
15.810000 0.4320 0.4300 0.4300 0.4300 0.4290
15.842695 0.4290 0.4290 0.4290 0.4290 0.4290
15.876000 0.4270 0.4270 0.4270 0.4290 0.4270
##END=
