##TITLE=MORPHINE, HYDROCHLORIDE (TRIHYDRATE)
##JCAMP-DX=4.24
$$ By DXEDIT 1.05 (RS McDonald)
##DATA TYPE=INFRARED SPECTRUM
##CLASS=COBLENTZ III
##ORIGIN=BUREAU OF CUSTOMS
##OWNER=COBLENTZ SOC.
Collection (C) 2018 copyright by the U.S. Secretary of Commerce
on behalf of the United States of America. All rights reserved.
##DATE=Not specified, most likely prior to 1970
##NAMES=MORPHINE, HYDROCHLORIDE
##MOLFORM=C17 H20 Cl N O3  * 3 H2 O
##MP=ABOUT 200 C DECOMP.
##SOURCE REFERENCE=COBLENTZ NO. 05008
##$NIST ID=B6005008
##$NIST SOURCE=COBLENTZ
##$NIST IMAGE=cob5008
##SPECTROMETER/DATA SYSTEM=PERKIN-ELMER 21 (GRATING)
##INSTRUMENT PARAMETERS=FILTER AT ABOUT 10 MICRONS
##STATE=SOLID (1.2 mg / 250 mg KBr DISC)
$$PURITY 99+
##SAMPLING PROCEDURE=TRANSMISSION
##RESOLUTION=2
##DATA PROCESSING=DIGITIZED BY COBLENTZ SOCIETY (BATCH I) FROM HARD COPY
##XUNITS=1/CM
##YUNITS=TRANSMITTANCE
##XLABEL=Wavenumbers (cm-1)
##YLABEL=Transmittance
##XFACTOR=1
##YFACTOR=1
##DELTAX=1
##FIRSTX=4000
##LASTX=651
##FIRSTY=0.9625
##MAXX=4000
##MINX=651
##MAXY=0.9712
##MINY=0.1514
##NPOINTS=3350
##XYDATA=(X++(Y..Y))
4000.000000 0.9625 0.9625 0.9625 0.9625 0.9627
3995.000000 0.9627 0.9627 0.9628 0.9628 0.9628
3990.000000 0.9628 0.9630 0.9630 0.9631 0.9631
3985.000000 0.9631 0.9632 0.9632 0.9632 0.9632
3980.000000 0.9633 0.9633 0.9634 0.9634 0.9635
3975.000000 0.9635 0.9636 0.9636 0.9637 0.9637
3970.000000 0.9638 0.9638 0.9639 0.9639 0.9639
3965.000000 0.9640 0.9640 0.9640 0.9640 0.9641
3960.000000 0.9641 0.9642 0.9642 0.9643 0.9643
3955.000000 0.9644 0.9644 0.9644 0.9645 0.9645
3950.000000 0.9645 0.9646 0.9646 0.9647 0.9647
3945.000000 0.9648 0.9648 0.9649 0.9649 0.9649
3940.000000 0.9650 0.9650 0.9650 0.9651 0.9651
3935.000000 0.9651 0.9652 0.9652 0.9653 0.9653
3930.000000 0.9654 0.9654 0.9655 0.9655 0.9656
3925.000000 0.9656 0.9657 0.9657 0.9658 0.9658
3920.000000 0.9659 0.9659 0.9660 0.9660 0.9661
3915.000000 0.9661 0.9662 0.9662 0.9663 0.9663
3910.000000 0.9664 0.9665 0.9665 0.9666 0.9667
3905.000000 0.9667 0.9668 0.9668 0.9668 0.9668
3900.000000 0.9670 0.9670 0.9671 0.9671 0.9671
3895.000000 0.9671 0.9673 0.9673 0.9674 0.9675
3890.000000 0.9675 0.9675 0.9677 0.9677 0.9678
3885.000000 0.9678 0.9678 0.9678 0.9678 0.9680
3880.000000 0.9680 0.9681 0.9681 0.9682 0.9682
3875.000000 0.9683 0.9684 0.9684 0.9685 0.9686
3870.000000 0.9686 0.9687 0.9687 0.9688 0.9688
3865.000000 0.9689 0.9689 0.9690 0.9690 0.9691
3860.000000 0.9692 0.9692 0.9693 0.9693 0.9694
3855.000000 0.9695 0.9695 0.9696 0.9697 0.9697
3850.000000 0.9698 0.9698 0.9699 0.9699 0.9700
3845.000000 0.9700 0.9700 0.9701 0.9701 0.9701
3840.000000 0.9702 0.9702 0.9702 0.9703 0.9703
3835.000000 0.9703 0.9704 0.9704 0.9704 0.9705
3830.000000 0.9705 0.9705 0.9706 0.9706 0.9706
3825.000000 0.9707 0.9707 0.9707 0.9708 0.9708
3820.000000 0.9708 0.9709 0.9709 0.9709 0.9710
3815.000000 0.9710 0.9710 0.9711 0.9711 0.9711
3810.000000 0.9712 0.9712 0.9712 0.9712 0.9712
3805.000000 0.9711 0.9711 0.9711 0.9710 0.9710
3800.000000 0.9710 0.9709 0.9709 0.9708 0.9708
3795.000000 0.9707 0.9707 0.9706 0.9706 0.9706
3790.000000 0.9705 0.9705 0.9705 0.9704 0.9704
3785.000000 0.9703 0.9702 0.9702 0.9701 0.9700
3780.000000 0.9698 0.9697 0.9695 0.9693 0.9691
3775.000000 0.9689 0.9686 0.9683 0.9681 0.9678
3770.000000 0.9675 0.9673 0.9670 0.9667 0.9664
3765.000000 0.9661 0.9659 0.9656 0.9653 0.9650
3760.000000 0.9647 0.9644 0.9642 0.9639 0.9636
3755.000000 0.9633 0.9630 0.9625 0.9621 0.9616
3750.000000 0.9611 0.9606 0.9600 0.9592 0.9584
3745.000000 0.9575 0.9568 0.9560 0.9552 0.9544
3740.000000 0.9536 0.9528 0.9520 0.9512 0.9504
3735.000000 0.9496 0.9488 0.9480 0.9471 0.9464
3730.000000 0.9456 0.9448 0.9439 0.9431 0.9423
3725.000000 0.9413 0.9402 0.9391 0.9381 0.9370
3720.000000 0.9359 0.9347 0.9335 0.9323 0.9311
3715.000000 0.9299 0.9287 0.9275 0.9264 0.9252
3710.000000 0.9240 0.9228 0.9216 0.9204 0.9193
3705.000000 0.9181 0.9168 0.9157 0.9145 0.9133
3700.000000 0.9121 0.9110 0.9097 0.9080 0.9063
3695.000000 0.9046 0.9028 0.9012 0.8994 0.8977
3690.000000 0.8959 0.8942 0.8924 0.8907 0.8890
3685.000000 0.8871 0.8855 0.8838 0.8820 0.8788
3680.000000 0.8754 0.8718 0.8685 0.8651 0.8600
3675.000000 0.8530 0.8460 0.8391 0.8321 0.8253
3670.000000 0.8199 0.8145 0.8092 0.8038 0.7984
3665.000000 0.7935 0.7888 0.7841 0.7794 0.7746
3660.000000 0.7705 0.7675 0.7645 0.7615 0.7584
3655.000000 0.7554 0.7524 0.7494 0.7464 0.7434
3650.000000 0.7404 0.7375 0.7345 0.7315 0.7286
3645.000000 0.7256 0.7225 0.7197 0.7167 0.7138
3640.000000 0.7108 0.7078 0.7050 0.7019 0.6991
3635.000000 0.6961 0.6932 0.6900 0.6867 0.6834
3630.000000 0.6801 0.6768 0.6724 0.6665 0.6608
3625.000000 0.6549 0.6491 0.6440 0.6419 0.6401
3620.000000 0.6381 0.6360 0.6342 0.6328 0.6315
3615.000000 0.6302 0.6289 0.6276 0.6262 0.6250
3610.000000 0.6237 0.6224 0.6210 0.6198 0.6185
3605.000000 0.6171 0.6158 0.6145 0.6131 0.6118
3600.000000 0.6105 0.6092 0.6079 0.6066 0.6050
3595.000000 0.6035 0.6020 0.6004 0.5989 0.5967
3590.000000 0.5944 0.5921 0.5898 0.5875 0.5832
3585.000000 0.5785 0.5738 0.5690 0.5643 0.5595
3580.000000 0.5547 0.5500 0.5452 0.5405 0.5357
3575.000000 0.5309 0.5260 0.5214 0.5166 0.5118
3570.000000 0.5070 0.5022 0.4974 0.4926 0.4878
3565.000000 0.4830 0.4782 0.4734 0.4686 0.4638
3560.000000 0.4590 0.4542 0.4494 0.4446 0.4397
3555.000000 0.4349 0.4301 0.4253 0.4204 0.4156
3550.000000 0.4107 0.4059 0.4010 0.3962 0.3914
3545.000000 0.3864 0.3816 0.3768 0.3718 0.3671
3540.000000 0.3622 0.3573 0.3525 0.3476 0.3427
3535.000000 0.3378 0.3329 0.3280 0.3232 0.3183
3530.000000 0.3134 0.3084 0.3037 0.2988 0.2942
3525.000000 0.2930 0.2917 0.2905 0.2892 0.2880
3520.000000 0.2868 0.2857 0.2845 0.2833 0.2821
3515.000000 0.2810 0.2798 0.2787 0.2775 0.2756
3510.000000 0.2713 0.2669 0.2625 0.2582 0.2546
3505.000000 0.2527 0.2509 0.2491 0.2472 0.2454
3500.000000 0.2435 0.2417 0.2399 0.2381 0.2366
3495.000000 0.2355 0.2344 0.2333 0.2322 0.2311
3490.000000 0.2301 0.2290 0.2280 0.2269 0.2258
3485.000000 0.2248 0.2237 0.2226 0.2216 0.2205
3480.000000 0.2194 0.2183 0.2172 0.2161 0.2149
3475.000000 0.2137 0.2125 0.2113 0.2101 0.2089
3470.000000 0.2077 0.2065 0.2054 0.2042 0.2029
3465.000000 0.2017 0.2004 0.1993 0.1982 0.1971
3460.000000 0.1960 0.1949 0.1939 0.1929 0.1920
3455.000000 0.1911 0.1902 0.1893 0.1884 0.1875
3450.000000 0.1865 0.1856 0.1846 0.1837 0.1828
3445.000000 0.1819 0.1810 0.1801 0.1791 0.1782
3440.000000 0.1773 0.1763 0.1753 0.1743 0.1733
3435.000000 0.1722 0.1712 0.1700 0.1687 0.1676
3430.000000 0.1664 0.1652 0.1641 0.1629 0.1618
3425.000000 0.1606 0.1599 0.1592 0.1587 0.1581
3420.000000 0.1576 0.1570 0.1565 0.1559 0.1553
3415.000000 0.1548 0.1544 0.1540 0.1536 0.1532
3410.000000 0.1529 0.1526 0.1523 0.1520 0.1517
3405.000000 0.1516 0.1515 0.1515 0.1514 0.1514
3400.000000 0.1514 0.1514 0.1514 0.1514 0.1514
3395.000000 0.1514 0.1515 0.1515 0.1516 0.1518
3390.000000 0.1520 0.1522 0.1524 0.1527 0.1529
3385.000000 0.1530 0.1532 0.1534 0.1539 0.1542
3380.000000 0.1546 0.1552 0.1557 0.1563 0.1570
3375.000000 0.1576 0.1582 0.1589 0.1595 0.1601
3370.000000 0.1607 0.1613 0.1620 0.1626 0.1632
3365.000000 0.1639 0.1645 0.1652 0.1659 0.1666
3360.000000 0.1674 0.1684 0.1695 0.1706 0.1717
3355.000000 0.1728 0.1739 0.1749 0.1760 0.1771
3350.000000 0.1781 0.1792 0.1803 0.1814 0.1824
3345.000000 0.1834 0.1845 0.1857 0.1868 0.1879
3340.000000 0.1890 0.1901 0.1912 0.1923 0.1934
3335.000000 0.1945 0.1957 0.1968 0.1979 0.1990
3330.000000 0.2001 0.2012 0.2021 0.2029 0.2039
3325.000000 0.2048 0.2057 0.2065 0.2074 0.2082
3320.000000 0.2091 0.2100 0.2108 0.2117 0.2125
3315.000000 0.2134 0.2143 0.2152 0.2161 0.2170
3310.000000 0.2178 0.2187 0.2196 0.2204 0.2213
3305.000000 0.2221 0.2229 0.2237 0.2243 0.2247
3300.000000 0.2251 0.2256 0.2260 0.2265 0.2269
3295.000000 0.2273 0.2278 0.2282 0.2285 0.2290
3290.000000 0.2294 0.2299 0.2303 0.2307 0.2312
3285.000000 0.2316 0.2320 0.2324 0.2328 0.2332
3280.000000 0.2334 0.2339 0.2342 0.2346 0.2349
3275.000000 0.2353 0.2356 0.2360 0.2363 0.2367
3270.000000 0.2370 0.2373 0.2376 0.2380 0.2383
3265.000000 0.2387 0.2390 0.2394 0.2398 0.2401
3260.000000 0.2405 0.2409 0.2413 0.2417 0.2422
3255.000000 0.2427 0.2434 0.2441 0.2448 0.2455
3250.000000 0.2462 0.2469 0.2476 0.2483 0.2490
3245.000000 0.2497 0.2504 0.2511 0.2518 0.2525
3240.000000 0.2532 0.2539 0.2546 0.2553 0.2560
3235.000000 0.2567 0.2575 0.2584 0.2593 0.2602
3230.000000 0.2611 0.2621 0.2631 0.2641 0.2652
3225.000000 0.2662 0.2672 0.2683 0.2693 0.2703
3220.000000 0.2713 0.2723 0.2733 0.2744 0.2754
3215.000000 0.2765 0.2775 0.2784 0.2795 0.2806
3210.000000 0.2816 0.2826 0.2838 0.2850 0.2861
3205.000000 0.2873 0.2885 0.2899 0.2912 0.2925
3200.000000 0.2938 0.2951 0.2964 0.2977 0.2990
3195.000000 0.3003 0.3016 0.3029 0.3043 0.3056
3190.000000 0.3069 0.3082 0.3095 0.3108 0.3121
3185.000000 0.3134 0.3147 0.3160 0.3174 0.3187
3180.000000 0.3200 0.3216 0.3230 0.3246 0.3260
3175.000000 0.3276 0.3291 0.3306 0.3321 0.3336
3170.000000 0.3350 0.3366 0.3380 0.3396 0.3412
3165.000000 0.3427 0.3442 0.3457 0.3472 0.3488
3160.000000 0.3504 0.3520 0.3536 0.3552 0.3568
3155.000000 0.3584 0.3600 0.3616 0.3632 0.3649
3150.000000 0.3666 0.3682 0.3699 0.3714 0.3732
3145.000000 0.3749 0.3766 0.3784 0.3802 0.3820
3140.000000 0.3836 0.3850 0.3864 0.3880 0.3890
3135.000000 0.3899 0.3907 0.3916 0.3925 0.3934
3130.000000 0.3943 0.3952 0.3958 0.3962 0.3968
3125.000000 0.3975 0.3980 0.3984 0.3991 0.3996
3120.000000 0.4000 0.4007 0.4012 0.4016 0.4020
3115.000000 0.4023 0.4026 0.4029 0.4030 0.4032
3110.000000 0.4034 0.4034 0.4034 0.4034 0.4032
3105.000000 0.4032 0.4030 0.4030 0.4030 0.4027
3100.000000 0.4024 0.4021 0.4018 0.4009 0.4000
3095.000000 0.3992 0.3982 0.3972 0.3960 0.3950
3090.000000 0.3939 0.3923 0.3907 0.3892 0.3876
3085.000000 0.3860 0.3846 0.3830 0.3816 0.3802
3080.000000 0.3788 0.3774 0.3764 0.3756 0.3747
3075.000000 0.3738 0.3737 0.3736 0.3734 0.3734
3070.000000 0.3732 0.3732 0.3730 0.3730 0.3729
3065.000000 0.3727 0.3726 0.3730 0.3739 0.3747
3060.000000 0.3754 0.3779 0.3805 0.3830 0.3860
3055.000000 0.3909 0.3958 0.4006 0.4043 0.4068
3050.000000 0.4095 0.4121 0.4145 0.4169 0.4193
3045.000000 0.4217 0.4241 0.4264 0.4288 0.4308
3040.000000 0.4322 0.4336 0.4351 0.4365 0.4379
3035.000000 0.4394 0.4408 0.4423 0.4437 0.4451
3030.000000 0.4466 0.4479 0.4493 0.4507 0.4518
3025.000000 0.4529 0.4540 0.4551 0.4562 0.4573
3020.000000 0.4584 0.4593 0.4599 0.4606 0.4612
3015.000000 0.4617 0.4621 0.4625 0.4630 0.4632
3010.000000 0.4635 0.4658 0.4639 0.4639 0.4639
3005.000000 0.4639 0.4637 0.4635 0.4634 0.4631
3000.000000 0.4621 0.4612 0.4602 0.4593 0.4583
2995.000000 0.4573 0.4562 0.4538 0.4512 0.4487
2990.000000 0.4460 0.4431 0.4402 0.4373 0.4344
2985.000000 0.4316 0.4288 0.4258 0.4227 0.4195
2980.000000 0.4164 0.4126 0.4087 0.4047 0.4012
2975.000000 0.3995 0.3978 0.3927 0.3953 0.3950
2970.000000 0.3947 0.3945 0.3945 0.3946 0.3946
2965.000000 0.3947 0.3947 0.3947 0.3948 0.3957
2960.000000 0.3964 0.3974 0.3987 0.4005 0.4022
2955.000000 0.4040 0.4066 0.4095 0.4122 0.4152
2950.000000 0.4184 0.4215 0.4247 0.4279 0.4310
2945.000000 0.4342 0.4371 0.4398 0.4424 0.4451
2940.000000 0.4475 0.4499 0.4523 0.4547 0.4571
2935.000000 0.4596 0.4620 0.4644 0.4668 0.4692
2930.000000 0.4710 0.4729 0.4747 0.4764 0.4782
2925.000000 0.4799 0.4816 0.4833 0.4850 0.4867
2920.000000 0.4884 0.4902 0.4919 0.4936 0.4954
2915.000000 0.4971 0.4989 0.5009 0.5030 0.5050
2910.000000 0.5071 0.5092 0.5112 0.5286 0.5155
2905.000000 0.5177 0.5200 0.5223 0.5248 0.5273
2900.000000 0.5292 0.5292 0.5292 0.5292 0.5293
2895.000000 0.5293 0.5293 0.5293 0.5293 0.5293
2890.000000 0.5292 0.5292 0.5292 0.5292 0.5286
2885.000000 0.5279 0.5273 0.5262 0.5250 0.5238
2880.000000 0.5225 0.5214 0.5202 0.5191 0.5180
2875.000000 0.5170 0.5159 0.5149 0.5138 0.5127
2870.000000 0.5117 0.5106 0.5096 0.5086 0.5078
2865.000000 0.5070 0.5062 0.5057 0.5053 0.5050
2860.000000 0.5046 0.5043 0.5039 0.5036 0.5032
2855.000000 0.5029 0.5025 0.5025 0.5025 0.5025
2850.000000 0.5025 0.5027 0.5028 0.5029 0.5030
2845.000000 0.5031 0.5033 0.5034 0.5035 0.5036
2840.000000 0.5038 0.5038 0.5038 0.5038 0.5034
2835.000000 0.5030 0.5023 0.5012 0.5004 0.4993
2830.000000 0.4981 0.4968 0.4956 0.4938 0.4920
2825.000000 0.4902 0.4884 0.4866 0.4848 0.4831
2820.000000 0.4812 0.4795 0.4777 0.4758 0.4739
2815.000000 0.4718 0.4694 0.4670 0.4646 0.4622
2810.000000 0.4598 0.4574 0.4550 0.4526 0.4501
2805.000000 0.4477 0.4451 0.4426 0.4401 0.4376
2800.000000 0.4352 0.4326 0.4299 0.4273 0.4244
2795.000000 0.4212 0.4182 0.4158 0.4149 0.4141
2790.000000 0.4132 0.4123 0.4115 0.4106 0.4104
2785.000000 0.4103 0.4084 0.4099 0.4097 0.4096
2780.000000 0.4094 0.4092 0.4090 0.4090 0.4091
2775.000000 0.4091 0.4096 0.4103 0.4110 0.4117
2770.000000 0.4124 0.4130 0.4137 0.4144 0.4151
2765.000000 0.4158 0.4165 0.4172 0.4178 0.4185
2760.000000 0.4192 0.4199 0.4205 0.4210 0.4218
2755.000000 0.4224 0.4231 0.4237 0.4244 0.4250
2750.000000 0.4256 0.4262 0.4270 0.4276 0.4282
2745.000000 0.4289 0.4295 0.4302 0.4308 0.4315
2740.000000 0.4321 0.4328 0.4334 0.4341 0.4347
2735.000000 0.4354 0.4360 0.4367 0.4373 0.4379
2730.000000 0.4386 0.4392 0.4399 0.4405 0.4410
2725.000000 0.4418 0.4424 0.4430 0.4437 0.4443
2720.000000 0.4450 0.4456 0.4462 0.4468 0.4474
2715.000000 0.4481 0.4487 0.4494 0.4500 0.4507
2710.000000 0.4512 0.4520 0.4525 0.4529 0.4533
2705.000000 0.4537 0.4542 0.4546 0.4550 0.4555
2700.000000 0.4559 0.4562 0.4567 0.4571 0.4575
2695.000000 0.4579 0.4583 0.4588 0.4592 0.4597
2690.000000 0.4601 0.4605 0.4609 0.4612 0.4618
2685.000000 0.4622 0.4626 0.4630 0.4634 0.4638
2680.000000 0.4643 0.4646 0.4650 0.4653 0.4657
2675.000000 0.4660 0.4665 0.4668 0.4672 0.4675
2670.000000 0.4679 0.4683 0.4687 0.4691 0.4695
2665.000000 0.4699 0.4703 0.4708 0.4714 0.4721
2660.000000 0.4728 0.4736 0.4743 0.4751 0.4758
2655.000000 0.4766 0.4773 0.4780 0.4788 0.4797
2650.000000 0.4824 0.4850 0.4880 0.4920 0.4959
2645.000000 0.5003 0.5051 0.5099 0.5139 0.5175
2640.000000 0.5210 0.5243 0.5276 0.5309 0.5342
2635.000000 0.5374 0.5403 0.5426 0.5448 0.5470
2630.000000 0.5492 0.5512 0.5535 0.5557 0.5579
2625.000000 0.5600 0.5622 0.5644 0.5664 0.5685
2620.000000 0.5701 0.5712 0.5725 0.5737 0.5749
2615.000000 0.5760 0.5773 0.5785 0.5796 0.5809
2610.000000 0.5821 0.5833 0.5845 0.5857 0.5869
2605.000000 0.5881 0.5894 0.5906 0.5918 0.5930
2600.000000 0.5943 0.5955 0.5968 0.5981 0.5993
2595.000000 0.6006 0.6019 0.6032 0.6045 0.6057
2590.000000 0.6070 0.6083 0.6096 0.6109 0.6122
2585.000000 0.6134 0.6147 0.6159 0.6171 0.6183
2580.000000 0.6194 0.6206 0.6218 0.6230 0.6242
2575.000000 0.6254 0.6265 0.6277 0.6289 0.6301
2570.000000 0.6312 0.6325 0.6337 0.6348 0.6360
2565.000000 0.6373 0.6385 0.6398 0.6411 0.6424
2560.000000 0.6438 0.6451 0.6465 0.6480 0.6494
2555.000000 0.6508 0.6521 0.6536 0.6550 0.6564
2550.000000 0.6578 0.6591 0.6605 0.6619 0.6634
2545.000000 0.6651 0.6668 0.6688 0.6717 0.6746
2540.000000 0.6775 0.6805 0.6835 0.6864 0.6893
2535.000000 0.6921 0.6950 0.6978 0.7003 0.7025
2530.000000 0.7050 0.7072 0.7097 0.7121 0.7145
2525.000000 0.7167 0.7186 0.7204 0.7219 0.7234
2520.000000 0.7249 0.7264 0.7278 0.7294 0.7308
2515.000000 0.7324 0.7338 0.7353 0.7368 0.7383
2510.000000 0.7398 0.7412 0.7426 0.7445 0.7464
2505.000000 0.7484 0.7505 0.7526 0.7549 0.7571
2500.000000 0.7593 0.7615 0.7637 0.7658 0.7680
2495.000000 0.7701 0.7731 0.7760 0.7790 0.7819
2490.000000 0.7851 0.7881 0.7911 0.7942 0.7972
2485.000000 0.8003 0.8028 0.8053 0.8071 0.8084
2480.000000 0.8098 0.8111 0.8125 0.8139 0.8151
2475.000000 0.8165 0.8178 0.8193 0.8206 0.8220
2470.000000 0.8233 0.8246 0.8259 0.8271 0.8282
2465.000000 0.8293 0.8303 0.8314 0.8325 0.8336
2460.000000 0.8347 0.8358 0.8368 0.8380 0.8391
2455.000000 0.8402 0.8412 0.8421 0.8431 0.8440
2450.000000 0.8449 0.8459 0.8468 0.8477 0.8486
2445.000000 0.8495 0.8504 0.8512 0.8520 0.8527
2440.000000 0.8533 0.8540 0.8546 0.8552 0.8559
2435.000000 0.8565 0.8571 0.8578 0.8584 0.8590
2430.000000 0.8597 0.8604 0.8613 0.8621 0.8630
2425.000000 0.8639 0.8648 0.8658 0.8668 0.8684
2420.000000 0.8698 0.8713 0.8728 0.8743 0.8758
2415.000000 0.8771 0.8780 0.8789 0.8797 0.8804
2410.000000 0.8811 0.8818 0.8823 0.8827 0.8830
2405.000000 0.8834 0.8837 0.8838 0.8839 0.8840
2400.000000 0.8840 0.8840 0.8840 0.8840 0.8839
2395.000000 0.8839 0.8837 0.8836 0.8831 0.8821
2390.000000 0.8812 0.8795 0.8777 0.8764 0.8754
2385.000000 0.8745 0.8739 0.8733 0.8728 0.8724
2380.000000 0.8721 0.8718 0.8718 0.8718 0.8718
2375.000000 0.8721 0.8723 0.8728 0.8735 0.8741
2370.000000 0.8747 0.8753 0.8759 0.8765 0.8771
2365.000000 0.8778 0.8783 0.8789 0.8798 0.8807
2360.000000 0.8816 0.8825 0.8834 0.8844 0.8853
2355.000000 0.8862 0.8871 0.8880 0.8890 0.8899
2350.000000 0.8908 0.8917 0.8925 0.8935 0.8945
2345.000000 0.8954 0.8964 0.8973 0.8981 0.8990
2340.000000 0.8999 0.9007 0.9016 0.9025 0.9034
2335.000000 0.9043 0.9052 0.9061 0.9068 0.9078
2330.000000 0.9087 0.9096 0.9105 0.9114 0.9123
2325.000000 0.9132 0.9140 0.9149 0.9158 0.9167
2320.000000 0.9175 0.9183 0.9192 0.9201 0.9210
2315.000000 0.9218 0.9227 0.9236 0.9244 0.9253
2310.000000 0.9262 0.9271 0.9280 0.9288 0.9296
2305.000000 0.9302 0.9307 0.9310 0.9314 0.9317
2300.000000 0.9321 0.9325 0.9328 0.9332 0.9335
2295.000000 0.9339 0.9343 0.9347 0.9351 0.9354
2290.000000 0.9357 0.9361 0.9365 0.9368 0.9371
2285.000000 0.9375 0.9378 0.9383 0.9387 0.9391
2280.000000 0.9392 0.9394 0.9397 0.9399 0.9401
2275.000000 0.9403 0.9405 0.9407 0.9409 0.9411
2270.000000 0.9413 0.9415 0.9417 0.9418 0.9421
2265.000000 0.9423 0.9424 0.9425 0.9428 0.9430
2260.000000 0.9432 0.9434 0.9436 0.9438 0.9440
2255.000000 0.9442 0.9444 0.9447 0.9449 0.9451
2250.000000 0.9453 0.9454 0.9456 0.9456 0.9457
2245.000000 0.9458 0.9459 0.9460 0.9461 0.9461
2240.000000 0.9462 0.9463 0.9464 0.9465 0.9466
2235.000000 0.9466 0.9467 0.9468 0.9468 0.9470
2230.000000 0.9471 0.9471 0.9471 0.9473 0.9474
2225.000000 0.9475 0.9475 0.9475 0.9477 0.9478
2220.000000 0.9478 0.9480 0.9481 0.9481 0.9481
2215.000000 0.9481 0.9481 0.9481 0.9481 0.9481
2210.000000 0.9481 0.9481 0.9481 0.9481 0.9481
2205.000000 0.9481 0.9482 0.9482 0.9482 0.9482
2200.000000 0.9482 0.9482 0.9482 0.9482 0.9482
2195.000000 0.9482 0.9482 0.9482 0.9482 0.9482
2190.000000 0.9482 0.9483 0.9483 0.9483 0.9483
2185.000000 0.9483 0.9483 0.9483 0.9483 0.9482
2180.000000 0.9480 0.9478 0.9475 0.9474 0.9473
2175.000000 0.9471 0.9468 0.9467 0.9464 0.9462
2170.000000 0.9460 0.9459 0.9457 0.9455 0.9453
2165.000000 0.9451 0.9448 0.9446 0.9444 0.9442
2160.000000 0.9440 0.9439 0.9437 0.9434 0.9432
2155.000000 0.9430 0.9428 0.9424 0.9417 0.9409
2150.000000 0.9401 0.9393 0.9385 0.9378 0.9370
2145.000000 0.9364 0.9358 0.9353 0.9347 0.9341
2140.000000 0.9335 0.9330 0.9324 0.9318 0.9312
2135.000000 0.9307 0.9301 0.9295 0.9289 0.9284
2130.000000 0.9278 0.9275 0.9271 0.9270 0.9267
2125.000000 0.9264 0.9260 0.9258 0.9255 0.9252
2120.000000 0.9249 0.9246 0.9244 0.9243 0.9241
2115.000000 0.9239 0.9238 0.9237 0.9236 0.9235
2110.000000 0.9234 0.9233 0.9232 0.9230 0.9228
2105.000000 0.9228 0.9228 0.9228 0.9228 0.9230
2100.000000 0.9234 0.9234 0.9234 0.9235 0.9236
2095.000000 0.9237 0.9238 0.9239 0.9241 0.9242
2090.000000 0.9243 0.9244 0.9245 0.9246 0.9247
2085.000000 0.9249 0.9251 0.9253 0.9256 0.9260
2080.000000 0.9263 0.9267 0.9270 0.9273 0.9277
2075.000000 0.9280 0.9284 0.9286 0.9290 0.9293
2070.000000 0.9297 0.9300 0.9304 0.9307 0.9310
2065.000000 0.9313 0.9317 0.9320 0.9324 0.9328
2060.000000 0.9331 0.9335 0.9339 0.9343 0.9347
2055.000000 0.9351 0.9354 0.9359 0.9363 0.9367
2050.000000 0.9371 0.9374 0.9378 0.9383 0.9387
2045.000000 0.9390 0.9394 0.9398 0.9403 0.9407
2040.000000 0.9410 0.9414 0.9418 0.9423 0.9427
2035.000000 0.9431 0.9434 0.9438 0.9441 0.9445
2030.000000 0.9449 0.9452 0.9456 0.9459 0.9462
2025.000000 0.9466 0.9470 0.9473 0.9477 0.9481
2020.000000 0.9484 0.9488 0.9491 0.9494 0.9498
2015.000000 0.9502 0.9505 0.9509 0.9513 0.9516
2010.000000 0.9518 0.9523 0.9527 0.9530 0.9534
2005.000000 0.9538 0.9542 0.9545 0.9548 0.9550
2000.000000 0.9553 0.9555 0.9558 0.9560 0.9563
1995.000000 0.9565 0.9568 0.9570 0.9573 0.9575
1990.000000 0.9578 0.9580 0.9583 0.9585 0.9588
1985.000000 0.9590 0.9593 0.9595 0.9598 0.9600
1980.000000 0.9603 0.9606 0.9608 0.9611 0.9613
1975.000000 0.9616 0.9618 0.9621 0.9623 0.9625
1970.000000 0.9627 0.9628 0.9631 0.9633 0.9635
1965.000000 0.9637 0.9639 0.9641 0.9643 0.9645
1960.000000 0.9647 0.9649 0.9652 0.9654 0.9656
1955.000000 0.9658 0.9660 0.9662 0.9664 0.9666
1950.000000 0.9668 0.9670 0.9673 0.9675 0.9677
1945.000000 0.9678 0.9681 0.9683 0.9684 0.9685
1940.000000 0.9686 0.9687 0.9687 0.9687 0.9688
1935.000000 0.9688 0.9688 0.9689 0.9689 0.9689
1930.000000 0.9690 0.9690 0.9690 0.9691 0.9691
1925.000000 0.9691 0.9692 0.9692 0.9692 0.9693
1920.000000 0.9693 0.9693 0.9694 0.9695 0.9695
1915.000000 0.9695 0.9696 0.9696 0.9696 0.9697
1910.000000 0.9697 0.9697 0.9698 0.9698 0.9699
1905.000000 0.9699 0.9700 0.9700 0.9700 0.9700
1900.000000 0.9700 0.9699 0.9697 0.9696 0.9694
1895.000000 0.9693 0.9691 0.9689 0.9687 0.9685
1890.000000 0.9682 0.9680 0.9677 0.9675 0.9671
1885.000000 0.9668 0.9667 0.9664 0.9661 0.9658
1880.000000 0.9655 0.9653 0.9650 0.9647 0.9643
1875.000000 0.9639 0.9635 0.9631 0.9627 0.9623
1870.000000 0.9618 0.9614 0.9608 0.9602 0.9596
1865.000000 0.9591 0.9585 0.9578 0.9571 0.9567
1860.000000 0.9561 0.9556 0.9551 0.9546 0.9541
1855.000000 0.9543 0.9547 0.9550 0.9554 0.9557
1850.000000 0.9560 0.9564 0.9568 0.9570 0.9571
1845.000000 0.9575 0.9577 0.9578 0.9581 0.9581
1840.000000 0.9580 0.9578 0.9577 0.9575 0.9574
1835.000000 0.9573 0.9571 0.9570 0.9568 0.9567
1830.000000 0.9565 0.9564 0.9562 0.9561 0.9559
1825.000000 0.9558 0.9556 0.9555 0.9553 0.9551
1820.000000 0.9548 0.9545 0.9543 0.9540 0.9537
1815.000000 0.9534 0.9532 0.9562 0.9525 0.9523
1810.000000 0.9521 0.9518 0.9515 0.9512 0.9509
1805.000000 0.9506 0.9503 0.9501 0.9498 0.9495
1800.000000 0.9492 0.9490 0.9487 0.9484 0.9481
1795.000000 0.9478 0.9475 0.9473 0.9470 0.9467
1790.000000 0.9465 0.9462 0.9459 0.9457 0.9454
1785.000000 0.9451 0.9448 0.9446 0.9443 0.9440
1780.000000 0.9438 0.9435 0.9432 0.9428 0.9427
1775.000000 0.9424 0.9421 0.9418 0.9415 0.9413
1770.000000 0.9410 0.9408 0.9404 0.9402 0.9399
1765.000000 0.9396 0.9393 0.9389 0.9384 0.9380
1760.000000 0.9375 0.9371 0.9366 0.9361 0.9356
1755.000000 0.9351 0.9347 0.9343 0.9338 0.9333
1750.000000 0.9328 0.9323 0.9318 0.9314 0.9309
1745.000000 0.9305 0.9298 0.9291 0.9284 0.9277
1740.000000 0.9270 0.9264 0.9257 0.9249 0.9243
1735.000000 0.9235 0.9228 0.9221 0.9215 0.9207
1730.000000 0.9201 0.9192 0.9183 0.9173 0.9163
1725.000000 0.9153 0.9144 0.9134 0.9124 0.9114
1720.000000 0.9105 0.9094 0.9084 0.9071 0.9055
1715.000000 0.9037 0.9018 0.9002 0.8984 0.8966
1710.000000 0.8949 0.8931 0.8913 0.8895 0.8873
1705.000000 0.8848 0.8820 0.8792 0.8763 0.8735
1700.000000 0.8706 0.8675 0.8640 0.8594 0.8549
1695.000000 0.8502 0.8456 0.8410 0.8363 0.8316
1690.000000 0.8268 0.8221 0.8174 0.8125 0.8075
1685.000000 0.8024 0.7972 0.7921 0.7858 0.7765
1680.000000 0.7644 0.7568 0.7508 0.7447 0.7376
1675.000000 0.7286 0.7147 0.6962 0.6768 0.6575
1670.000000 0.6380 0.6186 0.5992 0.5797 0.5601
1665.000000 0.5406 0.5210 0.5015 0.4846 0.4777
1660.000000 0.4764 0.4762 0.4762 0.4764 0.4810
1655.000000 0.4873 0.4934 0.4995 0.5059 0.5123
1650.000000 0.5190 0.5271 0.5358 0.5432 0.5505
1645.000000 0.5551 0.5605 0.5605 0.5606 0.5612
1640.000000 0.5612 0.5614 0.5578 0.5506 0.5412
1635.000000 0.5406 0.5406 0.5405 0.5459 0.5540
1630.000000 0.5625 0.5744 0.5893 0.6050 0.6164
1625.000000 0.6245 0.6326 0.6411 0.6514 0.6641
1620.000000 0.6819 0.7138 0.7249 0.7360 0.7471
1615.000000 0.7593 0.7715 0.7828 0.7906 0.7981
1610.000000 0.8057 0.8133 0.8194 0.8242 0.8285
1605.000000 0.8328 0.8371 0.8403 0.8425 0.8449
1600.000000 0.8471 0.8493 0.8516 0.8539 0.8561
1595.000000 0.8583 0.8605 0.8628 0.8650 0.8671
1590.000000 0.8690 0.8709 0.8727 0.8745 0.8760
1585.000000 0.8775 0.8786 0.8793 0.8799 0.8805
1580.000000 0.8806 0.8801 0.8796 0.8790 0.8780
1575.000000 0.8770 0.8771 0.8771 0.8778 0.8821
1570.000000 0.8794 0.8804 0.8812 0.8813 0.8814
1565.000000 0.8810 0.8798 0.8786 0.8773 0.8760
1560.000000 0.8745 0.8723 0.8695 0.8680 0.8675
1555.000000 0.8671 0.8668 0.8665 0.8662 0.8648
1550.000000 0.8620 0.8591 0.8556 0.8403 0.8236
1545.000000 0.8028 0.7851 0.7757 0.7661 0.7571
1540.000000 0.7498 0.7448 0.7397 0.7346 0.7295
1535.000000 0.7235 0.7135 0.7018 0.6858 0.6575
1530.000000 0.6272 0.5969 0.5666 0.5362 0.5058
1525.000000 0.4753 0.4448 0.4142 0.3837 0.3530
1520.000000 0.3224 0.2917 0.2610 0.2532 0.2539
1515.000000 0.2570 0.2784 0.3026 0.3268 0.3512
1510.000000 0.3755 0.3999 0.4243 0.4487 0.4731
1505.000000 0.4976 0.5221 0.5467 0.5712 0.6097
1500.000000 0.6074 0.6081 0.5966 0.5767 0.5562
1495.000000 0.5355 0.5149 0.4943 0.4737 0.4530
1490.000000 0.4322 0.4114 0.3907 0.3706 0.3589
1485.000000 0.3572 0.3596 0.3618 0.3662 0.3709
1480.000000 0.3768 0.3864 0.3959 0.4060 0.4188
1475.000000 0.4324 0.4460 0.4538 0.4589 0.4636
1470.000000 0.4686 0.4733 0.4762 0.4792 0.4814
1465.000000 0.4799 0.4785 0.4774 0.4770 0.4810
1460.000000 0.4972 0.5175 0.5379 0.5564 0.5585
1455.000000 0.5572 0.5518 0.5460 0.5403 0.5345
1450.000000 0.5324 0.5323 0.5345 0.5416 0.5501
1445.000000 0.5586 0.5669 0.5729 0.5754 0.5768
1440.000000 0.5789 0.5764 0.5724 0.5652 0.5576
1435.000000 0.5430 0.5319 0.5272 0.5225 0.5179
1430.000000 0.5142 0.5115 0.5086 0.5058 0.5032
1425.000000 0.5012 0.4993 0.4973 0.4954 0.4946
1420.000000 0.4946 0.4946 0.4931 0.4943 0.4965
1415.000000 0.5008 0.5054 0.5126 0.5202 0.5294
1410.000000 0.5402 0.5522 0.5677 0.5945 0.6062
1405.000000 0.6105 0.6143 0.6176 0.6196 0.6202
1400.000000 0.6201 0.6188 0.6210 0.6108 0.6042
1395.000000 0.5991 0.5952 0.5919 0.5899 0.5886
1390.000000 0.5879 0.5877 0.5890 0.5903 0.5912
1385.000000 0.5923 0.5928 0.5929 0.5929 0.5914
1380.000000 0.5820 0.5688 0.5589 0.5488 0.5391
1375.000000 0.5339 0.5316 0.5300 0.5295 0.5297
1370.000000 0.5291 0.5352 0.5423 0.5522 0.5674
1365.000000 0.5856 0.5943 0.5978 0.5984 0.5987
1360.000000 0.6005 0.5989 0.5985 0.5943 0.5581
1355.000000 0.5340 0.5241 0.5095 0.5109 0.5112
1350.000000 0.5197 0.5366 0.5597 0.5722 0.5844
1345.000000 0.5962 0.6067 0.6162 0.6198 0.6233
1340.000000 0.6202 0.6176 0.6102 0.6006 0.5834
1335.000000 0.5565 0.5296 0.5027 0.4757 0.4487
1330.000000 0.4217 0.3946 0.3675 0.3403 0.3212
1325.000000 0.3097 0.3114 0.3109 0.3130 0.3175
1320.000000 0.3246 0.3364 0.3521 0.3684 0.3850
1315.000000 0.4014 0.4180 0.4346 0.4510 0.4678
1310.000000 0.4844 0.5010 0.5177 0.5344 0.5510
1305.000000 0.5678 0.5847 0.6015 0.6177 0.6256
1300.000000 0.6291 0.6329 0.6317 0.6296 0.6253
1295.000000 0.6210 0.6120 0.5995 0.5869 0.5753
1290.000000 0.5657 0.5562 0.5468 0.5391 0.5339
1285.000000 0.5290 0.5264 0.5260 0.5260 0.5374
1280.000000 0.5541 0.5710 0.5935 0.6176 0.6305
1275.000000 0.6405 0.6501 0.6562 0.6611 0.6639
1270.000000 0.6656 0.6665 0.6682 0.6684 0.6685
1265.000000 0.6678 0.6621 0.6499 0.6369 0.6256
1260.000000 0.6154 0.6053 0.5954 0.5874 0.5806
1255.000000 0.5777 0.5764 0.5760 0.5742 0.5832
1250.000000 0.5955 0.6058 0.6160 0.6248 0.6326
1245.000000 0.6386 0.6434 0.6407 0.6412 0.6374
1240.000000 0.6279 0.6173 0.6066 0.5959 0.5853
1235.000000 0.5660 0.5660 0.5657 0.5678 0.5818
1230.000000 0.5992 0.6166 0.6339 0.6511 0.6685
1225.000000 0.6860 0.7034 0.7208 0.7384 0.7451
1220.000000 0.7475 0.7498 0.7514 0.7561 0.7534
1215.000000 0.7544 0.7547 0.7547 0.7531 0.7468
1210.000000 0.7381 0.7254 0.7145 0.7099 0.7068
1205.000000 0.7043 0.7058 0.7090 0.7167 0.7264
1200.000000 0.7365 0.7438 0.7497 0.7575 0.7534
1195.000000 0.7534 0.7439 0.7217 0.6988 0.6758
1190.000000 0.6526 0.6297 0.6066 0.5835 0.5603
1185.000000 0.5371 0.5026 0.5039 0.5068 0.5283
1180.000000 0.5500 0.5717 0.5934 0.6152 0.6370
1175.000000 0.6588 0.6807 0.7032 0.7036 0.7037
1170.000000 0.6857 0.6664 0.6471 0.6278 0.6084
1165.000000 0.5891 0.5696 0.5502 0.5307 0.5112
1160.000000 0.4982 0.5048 0.5482 0.5917 0.6353
1155.000000 0.6789 0.7092 0.7176 0.7245 0.7299
1150.000000 0.7353 0.7392 0.7421 0.7436 0.7469
1145.000000 0.7444 0.7415 0.7345 0.7231 0.7008
1140.000000 0.6684 0.6358 0.6031 0.5705 0.5377
1135.000000 0.5049 0.4720 0.4391 0.4265 0.4231
1130.000000 0.4199 0.4169 0.4155 0.4175 0.4231
1125.000000 0.4317 0.4416 0.4469 0.4458 0.4307
1120.000000 0.4122 0.3938 0.3834 0.3897 0.4030
1115.000000 0.4341 0.5385 0.6421 0.6721 0.6868
1110.000000 0.7018 0.7169 0.7319 0.7393 0.7446
1105.000000 0.7468 0.7461 0.7464 0.7422 0.7371
1100.000000 0.7265 0.7147 0.7028 0.6910 0.6790
1095.000000 0.6665 0.6439 0.6192 0.5814 0.5378
1090.000000 0.4941 0.4504 0.4134 0.4101 0.4118
1085.000000 0.4182 0.4266 0.4312 0.4327 0.4135
1080.000000 0.3862 0.3588 0.3314 0.3043 0.2962
1075.000000 0.2950 0.2975 0.3039 0.3122 0.3221
1070.000000 0.3359 0.3530 0.3823 0.4112 0.4371
1065.000000 0.4609 0.5117 0.5625 0.6135 0.6593
1060.000000 0.6840 0.6960 0.7068 0.7154 0.7230
1055.000000 0.7282 0.7319 0.7355 0.7390 0.7428
1050.000000 0.7474 0.7518 0.7562 0.7599 0.7632
1045.000000 0.7651 0.7636 0.7648 0.7598 0.7519
1040.000000 0.7332 0.6994 0.6654 0.6314 0.5974
1035.000000 0.5768 0.5890 0.6094 0.6298 0.6439
1030.000000 0.6448 0.6242 0.5959 0.5675 0.5390
1025.000000 0.5105 0.4819 0.4288 0.4288 0.4312
1020.000000 0.4812 0.5396 0.5981 0.6665 0.7074
1015.000000 0.7482 0.7662 0.7796 0.7917 0.8030
1010.000000 0.8091 0.8143 0.8193 0.8242 0.8292
1005.000000 0.8347 0.8393 0.8431 0.8468 0.8484
1000.000000 0.8489 0.8478 0.8462 0.8446 0.8428
995.000000 0.8389 0.8318 0.8209 0.8014 0.7639
990.000000 0.7262 0.6887 0.6510 0.6296 0.6304
985.000000 0.6382 0.6511 0.6624 0.6754 0.6787
980.000000 0.6783 0.6515 0.6112 0.5710 0.5155
975.000000 0.5208 0.5202 0.5342 0.5424 0.5441
970.000000 0.5440 0.5405 0.5444 0.5641 0.5847
965.000000 0.6052 0.6292 0.6168 0.5956 0.5743
960.000000 0.5530 0.5317 0.5102 0.4888 0.4651
955.000000 0.4662 0.4832 0.5106 0.5380 0.5657
950.000000 0.5932 0.6264 0.6122 0.5736 0.5348
945.000000 0.4960 0.4226 0.4253 0.4517 0.5175
940.000000 0.5835 0.6501 0.6644 0.6708 0.6730
935.000000 0.6718 0.6592 0.6461 0.6386 0.6528
930.000000 0.7196 0.7435 0.7596 0.7696 0.7751
925.000000 0.7775 0.7768 0.7724 0.7674 0.7643
920.000000 0.7625 0.7688 0.7846 0.8038 0.8251
915.000000 0.8351 0.8411 0.8438 0.8465 0.8492
910.000000 0.8518 0.8538 0.8554 0.8571 0.8587
905.000000 0.8604 0.8618 0.8623 0.8631 0.8632
900.000000 0.8632 0.8627 0.8609 0.8588 0.8562
895.000000 0.8532 0.8491 0.8452 0.8414 0.8413
890.000000 0.8427 0.8444 0.8451 0.8458 0.8458
885.000000 0.8458 0.8452 0.8440 0.8408 0.8366
880.000000 0.8271 0.8115 0.7908 0.7611 0.7168
875.000000 0.6507 0.5844 0.5500 0.5990 0.6735
870.000000 0.7195 0.7441 0.7707 0.7950 0.8069
865.000000 0.8183 0.8263 0.8313 0.8325 0.8335
860.000000 0.8335 0.8336 0.8330 0.8317 0.8302
855.000000 0.8289 0.8262 0.8228 0.8180 0.8089
850.000000 0.7978 0.7826 0.7641 0.7384 0.6784
845.000000 0.6194 0.5637 0.5078 0.4518 0.4310
840.000000 0.4391 0.4867 0.5345 0.5823 0.6651
835.000000 0.6985 0.7193 0.7365 0.7499 0.7576
830.000000 0.7651 0.7705 0.7733 0.7726 0.7691
825.000000 0.7528 0.7386 0.7312 0.7203 0.7247
820.000000 0.7225 0.7330 0.7451 0.7555 0.7615
815.000000 0.7650 0.7635 0.7596 0.7426 0.7125
810.000000 0.6822 0.6519 0.6216 0.5978 0.5991
805.000000 0.6168 0.6308 0.6334 0.6233 0.5785
800.000000 0.5338 0.4888 0.4912 0.5214 0.5486
795.000000 0.5368 0.4729 0.4088 0.3446 0.2801
790.000000 0.2243 0.2265 0.2667 0.3816 0.4960
785.000000 0.5576 0.6247 0.6581 0.6767 0.6868
780.000000 0.6942 0.6931 0.6919 0.6867 0.6798
775.000000 0.6745 0.6707 0.6660 0.6739 0.6843
770.000000 0.6982 0.7134 0.7224 0.7271 0.7307
765.000000 0.7297 0.7224 0.7007 0.6695 0.6383
760.000000 0.6069 0.5410 0.5460 0.5452 0.5894
755.000000 0.6207 0.6572 0.6841 0.7014 0.7147
750.000000 0.7250 0.7311 0.7341 0.7361 0.7380
745.000000 0.7397 0.7414 0.7430 0.7440 0.7450
740.000000 0.7460 0.7467 0.7514 0.7481 0.7488
735.000000 0.7497 0.7505 0.7507 0.7507 0.7506
730.000000 0.7475 0.7436 0.7388 0.7311 0.7190
725.000000 0.7032 0.6837 0.6634 0.6571 0.6524
720.000000 0.6565 0.6608 0.6660 0.6705 0.6746
715.000000 0.6806 0.6775 0.6764 0.6708 0.6594
710.000000 0.6440 0.6193 0.5949 0.5705 0.5460
705.000000 0.5215 0.4994 0.5139 0.5485 0.5748
700.000000 0.6032 0.6265 0.6421 0.6511 0.6578
695.000000 0.6605 0.6622 0.6649 0.6608 0.6601
690.000000 0.6587 0.6558 0.6528 0.6499 0.6468
685.000000 0.6436 0.6403 0.6371 0.6330 0.6286
680.000000 0.6242 0.6187 0.6108 0.5970 0.5802
675.000000 0.5632 0.5539 0.5499 0.5527 0.5575
670.000000 0.5671 0.5810 0.5941 0.6027 0.6001
665.000000 0.5985 0.5965 0.5927 0.5890 0.5854
660.000000 0.5838 0.5856 0.5854 0.5878 0.5901
655.000000 0.5919 0.5918 0.5917 0.5894 0.5867
##END=
