##TITLE=VANADYL OXALATE
##JCAMP-DX=4.24
##DATA TYPE=INFRARED SPECTRUM
##CLASS=COBLENTZ
##OWNER=COBLENTZ SOCIETY
Collection (C) 2018 copyright by the U.S. Secretary of Commerce
on behalf of the United States of America. All rights reserved.
##DATE=Not specified, most likely prior to 1970
##MOLFORM=V O C2 O4  * 3 H2 O
##SOURCE REFERENCE=COBLENTZ NO. 75
##$NIST ID=B6000075
##$NIST SOURCE=COBLENTZ
##$NIST IMAGE=cob75
##SPECTROMETER/DATA SYSTEM=Not specified, most likely a prism, grating, or hybrid spectrometer.
##STATE=SOLID (KBr DISC)
##SAMPLING PROCEDURE=TRANSMISSION
##RESOLUTION=4
##DATA PROCESSING=DIGITIZED BY NIST FROM HARD COPY
##XUNITS=MICROMETERS
##YUNITS=TRANSMITTANCE
##XFACTOR=1.000000
##YFACTOR=1
##DELTAX=000.007582
##FIRSTX=1.976
##LASTX=15.0017
##FIRSTY=0.712
##MAXX=15.0017
##MINX=1.976
##MAXY=0.919
##MINY=0.048
##NPOINTS=1719
##XYDATA=(X++(Y..Y))
1.976000 0.7120 0.7150 0.7190 0.7190 0.7120
2.013933 0.7150 0.7190 0.7190 0.7210 0.7220
2.051000 0.7240 0.7240 0.7250 0.7270 0.7270
2.088933 0.7280 0.7290 0.7310 0.7320 0.7350
2.127000 0.7350 0.7380 0.7400 0.7400 0.7400
2.164933 0.7400 0.7410 0.7430 0.7440 0.7460
2.203000 0.7470 0.7470 0.7490 0.7500 0.7520
2.240933 0.7530 0.7530 0.7550 0.7550 0.7560
2.279000 0.7580 0.7590 0.7590 0.7610 0.7620
2.316933 0.7620 0.7620 0.7640 0.7640 0.7650
2.355000 0.7670 0.7670 0.7680 0.7680 0.7680
2.392933 0.7700 0.7700 0.7710 0.7720 0.7750
2.430000 0.7750 0.7770 0.7780 0.7780 0.7800
2.467933 0.7800 0.7810 0.7830 0.7830 0.7830
2.506000 0.7840 0.7840 0.7840 0.7840 0.7840
2.543933 0.7860 0.7860 0.7860 0.7870 0.7870
2.582000 0.7870 0.7870 0.7870 0.7870 0.7870
2.619933 0.7890 0.7900 0.7900 0.7920 0.7900
2.658000 0.7900 0.7900 0.7920 0.7920 0.7920
2.695933 0.7920 0.7920 0.7900 0.7900 0.7860
2.734000 0.7710 0.7640 0.7530 0.7380 0.7250
2.771933 0.7130 0.6880 0.6760 0.6320 0.6180
2.810000 0.6000 0.5890 0.5690 0.5500 0.4640
2.847933 0.4300 0.3940 0.3570 0.3420 0.3240
2.885000 0.3210 0.3200 0.3210 0.3240 0.3270
2.922933 0.3300 0.3320 0.3320 0.3320 0.3320
2.961000 0.3320 0.3320 0.3320 0.3330 0.3330
2.998933 0.3350 0.3380 0.3420 0.3480 0.3560
3.037000 0.3630 0.3690 0.3750 0.3790 0.3960
3.074933 0.4030 0.4060 0.4060 0.4080 0.4090
3.113000 0.4090 0.4100 0.4130 0.4250 0.4330
3.150933 0.4450 0.4490 0.4560 0.4650 0.4740
3.189000 0.4850 0.4910 0.4980 0.5020 0.5070
3.226933 0.5140 0.5190 0.5260 0.5340 0.5410
3.265000 0.5450 0.5500 0.5570 0.5630 0.5690
3.302933 0.5750 0.5800 0.5840 0.5870 0.5900
3.340000 0.5940 0.5970 0.6030 0.6080 0.6110
3.377933 0.6150 0.6180 0.6210 0.6230 0.6270
3.416000 0.6320 0.6360 0.6430 0.6460 0.6510
3.453933 0.6550 0.6580 0.6600 0.6630 0.6660
3.492000 0.6670 0.6690 0.6730 0.6780 0.6810
3.529933 0.6820 0.6820 0.6850 0.6860 0.6890
3.568000 0.6940 0.6970 0.6980 0.7030 0.7060
3.605933 0.7090 0.7100 0.7120 0.7150 0.7190
3.644000 0.7220 0.7270 0.7290 0.7320 0.7350
3.681933 0.7400 0.7430 0.7460 0.7490 0.7500
3.719000 0.7520 0.7530 0.7560 0.7580 0.7610
3.756933 0.7640 0.7680 0.7700 0.7710 0.7720
3.795000 0.7720 0.7740 0.7740 0.7740 0.7740
3.832933 0.7750 0.7750 0.7750 0.7750 0.7770
3.871000 0.7770 0.7770 0.7780 0.7780 0.7800
3.908933 0.7810 0.7810 0.7830 0.7840 0.7860
3.947000 0.7860 0.7870 0.7890 0.7900 0.7920
3.984933 0.7920 0.7930 0.7930 0.7950 0.7960
4.023000 0.7980 0.7960 0.7980 0.7990 0.8010
4.060933 0.8010 0.8010 0.8010 0.8020 0.8020
4.099000 0.8020 0.8040 0.8040 0.8040 0.8050
4.136933 0.8050 0.8070 0.8100 0.8110 0.8110
4.174000 0.8130 0.8130 0.8140 0.8140 0.8140
4.211933 0.8140 0.8160 0.8160 0.8160 0.8160
4.250000 0.8160 0.8160 0.8160 0.8160 0.8160
4.287933 0.8160 0.8160 0.8160 0.8160 0.8170
4.326000 0.8180 0.8200 0.8230 0.8320 0.8350
4.363933 0.8360 0.8390 0.8420 0.8440 0.8480
4.402000 0.8510 0.8510 0.8530 0.8540 0.8560
4.439933 0.8570 0.8570 0.8590 0.8590 0.8590
4.478000 0.8590 0.8590 0.8600 0.8620 0.8620
4.515933 0.8630 0.8630 0.8630 0.8630 0.8660
4.553000 0.8690 0.8700 0.8700 0.8720 0.8720
4.590933 0.8730 0.8750 0.8760 0.8760 0.8780
4.629000 0.8780 0.8780 0.8780 0.8790 0.8790
4.666933 0.8790 0.8810 0.8810 0.8810 0.8810
4.705000 0.8820 0.8820 0.8840 0.8850 0.8870
4.742933 0.8880 0.8900 0.8910 0.8910 0.8930
4.781000 0.8930 0.8940 0.8960 0.8960 0.8970
4.818933 0.8990 0.8990 0.8990 0.9000 0.9000
4.857000 0.9020 0.9020 0.9030 0.9050 0.9060
4.894933 0.9080 0.9090 0.9100 0.9100 0.9120
4.933000 0.9120 0.9130 0.9130 0.9150 0.9160
4.970933 0.9160 0.9160 0.9160 0.9160 0.9160
5.008000 0.9180 0.9180 0.9180 0.9190 0.9190
5.045933 0.9190 0.9190 0.9180 0.9180 0.9150
5.084000 0.9120 0.9050 0.9020 0.8960 0.8940
5.121933 0.8930 0.8910 0.8930 0.8930 0.8930
5.160000 0.8930 0.8930 0.8940 0.8960 0.8960
5.197933 0.8970 0.8970 0.8990 0.8990 0.9000
5.236000 0.9000 0.9000 0.9000 0.9000 0.9000
5.273933 0.9000 0.9020 0.9020 0.9030 0.9020
5.312000 0.9020 0.9020 0.9000 0.8990 0.8960
5.349933 0.8930 0.8910 0.8880 0.8850 0.8840
5.388000 0.8810 0.8780 0.8760 0.8730 0.8720
5.425933 0.8690 0.8660 0.8630 0.8600 0.8570
5.463000 0.8530 0.8470 0.8410 0.8380 0.8200
5.500933 0.8160 0.8100 0.8040 0.7930 0.7900
5.539000 0.7860 0.7800 0.7750 0.7650 0.7560
5.576933 0.7460 0.7350 0.7250 0.7130 0.7040
5.615000 0.6950 0.6890 0.6760 0.6390 0.6330
5.652933 0.6170 0.6030 0.5910 0.5690 0.5470
5.691000 0.5220 0.5010 0.4020 0.3630 0.3510
5.728933 0.2750 0.2490 0.2190 0.1760 0.1510
5.767000 0.1390 0.1300 0.1230 0.1180 0.1170
5.804933 0.1150 0.1170 0.1200 0.1290 0.1430
5.842000 0.1550 0.1660 0.1690 0.1700 0.1750
5.879933 0.1750 0.1760 0.1760 0.1760 0.1760
5.918000 0.1760 0.1750 0.1730 0.1720 0.1700
5.955933 0.1690 0.1550 0.1490 0.1390 0.1260
5.994000 0.1120 0.1090 0.1080 0.1060 0.1060
6.031933 0.1050 0.1030 0.1020 0.1000 0.1000
6.070000 0.0990 0.0970 0.0910 0.0890 0.0830
6.107933 0.0710 0.0650 0.0630 0.0560 0.0500
6.146000 0.0500 0.0480 0.0480 0.0480 0.0480
6.183933 0.0500 0.0510 0.0620 0.0710 0.0910
6.222000 0.1090 0.1300 0.1510 0.1700 0.2010
6.259933 0.2250 0.2490 0.2870 0.3110 0.3300
6.297000 0.3470 0.3630 0.3780 0.3990 0.4160
6.334933 0.4210 0.4340 0.4400 0.4510 0.4560
6.373000 0.4670 0.4710 0.4790 0.4980 0.5050
6.410933 0.5110 0.5250 0.5290 0.5410 0.5500
6.449000 0.5530 0.5570 0.5590 0.5690 0.5840
6.486933 0.5960 0.5990 0.6060 0.6110 0.6140
6.525000 0.6200 0.6230 0.6240 0.6270 0.6290
6.562933 0.6300 0.6350 0.6360 0.6400 0.6420
6.601000 0.6420 0.6420 0.6420 0.6420 0.6390
6.638933 0.6320 0.6240 0.6150 0.6030 0.5970
6.676000 0.5870 0.5780 0.5750 0.5660 0.5560
6.713933 0.5430 0.5370 0.5320 0.5260 0.5230
6.752000 0.5160 0.5110 0.5070 0.5000 0.4850
6.789933 0.4770 0.4760 0.4740 0.4740 0.4760
6.828000 0.4770 0.4800 0.4950 0.5110 0.5260
6.865933 0.5470 0.5570 0.5720 0.5890 0.5960
6.904000 0.5990 0.6020 0.6050 0.6090 0.6140
6.941933 0.6180 0.6210 0.6240 0.6270 0.6290
6.980000 0.6290 0.6290 0.6300 0.6300 0.6320
7.017933 0.6320 0.6320 0.6320 0.6320 0.6330
7.056000 0.6320 0.6320 0.6320 0.6320 0.6300
7.093933 0.6300 0.6300 0.6300 0.6300 0.6300
7.131000 0.6300 0.6300 0.6300 0.6320 0.6330
7.168933 0.6360 0.6460 0.6520 0.6600 0.6640
7.207000 0.6690 0.6720 0.6760 0.6790 0.6860
7.244933 0.6940 0.6980 0.7030 0.7090 0.7130
7.283000 0.7190 0.7210 0.7220 0.7220 0.7240
7.320933 0.7220 0.7160 0.7090 0.6980 0.6790
7.359000 0.6700 0.6050 0.5830 0.5590 0.5320
7.396933 0.5170 0.4490 0.4220 0.4020 0.3790
7.435000 0.3630 0.3510 0.3500 0.3480 0.3510
7.472933 0.3590 0.3930 0.4390 0.4460 0.4620
7.511000 0.4680 0.4820 0.4890 0.4970 0.4980
7.548933 0.5000 0.5010 0.5020 0.5040 0.5050
7.586000 0.5050 0.5050 0.5050 0.5050 0.5040
7.623933 0.5040 0.5020 0.5000 0.4890 0.4850
7.662000 0.4760 0.4610 0.4540 0.4510 0.4480
7.699933 0.4480 0.4430 0.4400 0.4450 0.4580
7.738000 0.4680 0.4860 0.4970 0.5050 0.5130
7.775933 0.5280 0.5450 0.5500 0.5650 0.5770
7.814000 0.5870 0.5940 0.6030 0.6060 0.6140
7.851933 0.6200 0.6210 0.6240 0.6300 0.6350
7.890000 0.6390 0.6400 0.6430 0.6450 0.6490
7.927933 0.6520 0.6550 0.6550 0.6580 0.6580
7.965000 0.6600 0.6610 0.6630 0.6630 0.6660
8.002933 0.6670 0.6670 0.6690 0.6720 0.6760
8.041000 0.6810 0.6820 0.6830 0.6850 0.6860
8.078933 0.6880 0.6890 0.6910 0.6920 0.6940
8.117000 0.6950 0.6970 0.6980 0.7000 0.7010
8.154933 0.7030 0.7040 0.7060 0.7090 0.7100
8.193000 0.7120 0.7120 0.7120 0.7130 0.7130
8.230933 0.7130 0.7130 0.7130 0.7130 0.7130
8.269000 0.7130 0.7130 0.7130 0.7130 0.7130
8.306933 0.7130 0.7130 0.7130 0.7130 0.7150
8.345000 0.7160 0.7160 0.7160 0.7190 0.7190
8.382933 0.7210 0.7240 0.7250 0.7270 0.7290
8.420000 0.7340 0.7350 0.7380 0.7400 0.7430
8.457933 0.7460 0.7490 0.7520 0.7530 0.7530
8.496000 0.7550 0.7580 0.7590 0.7620 0.7640
8.533933 0.7640 0.7650 0.7670 0.7680 0.7700
8.572000 0.7710 0.7720 0.7740 0.7750 0.7750
8.609933 0.7770 0.7780 0.7800 0.7800 0.7810
8.648000 0.7810 0.7830 0.7830 0.7830 0.7840
8.685933 0.7840 0.7840 0.7840 0.7840 0.7840
8.724000 0.7840 0.7860 0.7860 0.7860 0.7860
8.761933 0.7870 0.7870 0.7870 0.7870 0.7870
8.799000 0.7870 0.7870 0.7870 0.7870 0.7870
8.836933 0.7870 0.7870 0.7870 0.7870 0.7870
8.875000 0.7870 0.7870 0.7870 0.7870 0.7870
8.912933 0.7870 0.7890 0.7890 0.7890 0.7870
8.951000 0.7870 0.7870 0.7870 0.7870 0.7870
8.988933 0.7870 0.7870 0.7860 0.7860 0.7860
9.027000 0.7860 0.7860 0.7860 0.7840 0.7840
9.064933 0.7860 0.7860 0.7860 0.7860 0.7860
9.103000 0.7860 0.7870 0.7870 0.7870 0.7870
9.140933 0.7890 0.7890 0.7900 0.7900 0.7920
9.179000 0.7920 0.7930 0.7930 0.7950 0.7960
9.216933 0.7960 0.7960 0.7980 0.7980 0.7980
9.254000 0.7990 0.7990 0.7990 0.7990 0.8010
9.291933 0.8010 0.8010 0.8010 0.8010 0.8010
9.330000 0.8010 0.8010 0.8020 0.8020 0.8020
9.367933 0.8020 0.8020 0.8020 0.8040 0.8040
9.406000 0.8040 0.8040 0.8040 0.8040 0.8040
9.443933 0.8040 0.8040 0.8040 0.8050 0.8050
9.482000 0.8050 0.8050 0.8070 0.8070 0.8080
9.519933 0.8080 0.8080 0.8100 0.8110 0.8130
9.558000 0.8140 0.8160 0.8160 0.8170 0.8180
9.595933 0.8180 0.8180 0.8200 0.8200 0.8210
9.634000 0.8210 0.8230 0.8230 0.8230 0.8230
9.671933 0.8240 0.8240 0.8240 0.8260 0.8260
9.709000 0.8270 0.8260 0.8260 0.8260 0.8260
9.746933 0.8260 0.8240 0.8180 0.8140 0.8130
9.785000 0.8050 0.8010 0.7960 0.7900 0.7840
9.822933 0.7770 0.7710 0.7670 0.7590 0.7530
9.861000 0.7460 0.7350 0.7250 0.7120 0.7010
9.898933 0.6920 0.6730 0.6360 0.6180 0.6090
9.937000 0.5970 0.5870 0.5770 0.5570 0.5400
9.974933 0.5260 0.5010 0.4670 0.4450 0.4280
10.013000 0.4050 0.3750 0.3590 0.3410 0.3140
10.050933 0.3080 0.3050 0.3050 0.3040 0.3040
10.088000 0.3040 0.3040 0.3040 0.3040 0.3040
10.125933 0.3040 0.3040 0.2990 0.2930 0.2890
10.164000 0.2780 0.2700 0.2580 0.2460 0.2320
10.201933 0.2190 0.2120 0.2070 0.2010 0.1970
10.240000 0.1940 0.1950 0.1970 0.2190 0.2490
10.277933 0.2720 0.3050 0.3330 0.3620 0.3940
10.316000 0.4080 0.4330 0.4550 0.4700 0.4830
10.353933 0.4920 0.5000 0.5130 0.5200 0.5380
10.392000 0.5480 0.5620 0.5720 0.5830 0.5930
10.429933 0.5990 0.6060 0.6170 0.6230 0.6290
10.468000 0.6330 0.6360 0.6430 0.6490 0.6570
10.505933 0.6610 0.6640 0.6670 0.6690 0.6730
10.543000 0.6780 0.6830 0.6880 0.6920 0.6940
10.580933 0.6950 0.6980 0.7030 0.7070 0.7120
10.619000 0.7150 0.7160 0.7160 0.7160 0.7180
10.656933 0.7190 0.7210 0.7220 0.7220 0.7240
10.695000 0.7240 0.7250 0.7250 0.7250 0.7250
10.732933 0.7250 0.7250 0.7250 0.7270 0.7270
10.771000 0.7270 0.7270 0.7250 0.7250 0.7250
10.808933 0.7250 0.7250 0.7270 0.7270 0.7270
10.847000 0.7270 0.7280 0.7290 0.7320 0.7340
10.884933 0.7370 0.7400 0.7400 0.7410 0.7430
10.922000 0.7440 0.7460 0.7460 0.7470 0.7490
10.959933 0.7500 0.7500 0.7520 0.7530 0.7550
10.998000 0.7550 0.7550 0.7560 0.7580 0.7580
11.035933 0.7590 0.7590 0.7610 0.7610 0.7620
11.074000 0.7640 0.7650 0.7650 0.7670 0.7680
11.111933 0.7700 0.7700 0.7700 0.7710 0.7720
11.150000 0.7720 0.7740 0.7750 0.7770 0.7780
11.187933 0.7780 0.7800 0.7800 0.7810 0.7810
11.226000 0.7830 0.7830 0.7840 0.7860 0.7870
11.263933 0.7890 0.7900 0.7920 0.7930 0.7930
11.302000 0.7950 0.7950 0.7960 0.7980 0.7980
11.339933 0.7980 0.7980 0.7990 0.7990 0.7990
11.377000 0.7990 0.8010 0.7990 0.7990 0.7990
11.414933 0.7990 0.7990 0.7990 0.7990 0.7990
11.453000 0.7990 0.7990 0.7990 0.7990 0.7990
11.490933 0.8010 0.8010 0.8010 0.8010 0.8010
11.529000 0.8010 0.8010 0.8010 0.8010 0.7990
11.566933 0.7990 0.7990 0.7960 0.7950 0.7950
11.605000 0.7950 0.7930 0.7920 0.7900 0.7870
11.642933 0.7860 0.7830 0.7780 0.7770 0.7720
11.681000 0.7700 0.7650 0.7610 0.7560 0.7520
11.718933 0.7440 0.7370 0.7280 0.7220 0.7180
11.757000 0.7120 0.7060 0.6950 0.6850 0.6790
11.794933 0.6690 0.6510 0.6430 0.6370 0.6370
11.832000 0.6370 0.6370 0.6390 0.6390 0.6400
11.869933 0.6420 0.6420 0.6420 0.6400 0.6370
11.908000 0.6330 0.6260 0.6170 0.6080 0.5970
11.945933 0.5860 0.5750 0.5630 0.5510 0.5410
11.984000 0.5280 0.5160 0.5050 0.4820 0.4700
12.021933 0.4580 0.4490 0.4400 0.4340 0.4310
12.060000 0.4250 0.4190 0.4150 0.4130 0.4130
12.097933 0.4130 0.4130 0.4130 0.4120 0.4120
12.136000 0.4120 0.4130 0.4160 0.4210 0.4220
12.173933 0.4280 0.4300 0.4340 0.4390 0.4420
12.211000 0.4450 0.4460 0.4490 0.4520 0.4550
12.248933 0.4580 0.4610 0.4620 0.4650 0.4670
12.287000 0.4680 0.4700 0.4700 0.4710 0.4740
12.324933 0.4790 0.4800 0.4820 0.4850 0.4880
12.363000 0.4910 0.4920 0.4950 0.4980 0.5000
12.400933 0.5080 0.5190 0.5260 0.5320 0.5380
12.439000 0.5440 0.5470 0.5510 0.5560 0.5600
12.476933 0.5650 0.5710 0.5750 0.5800 0.5840
12.515000 0.5870 0.5930 0.5960 0.5990 0.6050
12.552933 0.6080 0.6110 0.6170 0.6210 0.6240
12.591000 0.6270 0.6290 0.6300 0.6350 0.6360
12.628933 0.6390 0.6430 0.6460 0.6510 0.6550
12.666000 0.6570 0.6580 0.6610 0.6640 0.6660
12.703933 0.6670 0.6720 0.6760 0.6790 0.6820
12.742000 0.6830 0.6860 0.6880 0.6910 0.6940
12.779933 0.6950 0.7000 0.7030 0.7060 0.7090
12.818000 0.7100 0.7130 0.7150 0.7180 0.7210
12.855933 0.7220 0.7240 0.7250 0.7250 0.7270
12.894000 0.7280 0.7280 0.7290 0.7290 0.7290
12.931933 0.7310 0.7320 0.7370 0.7380 0.7380
12.970000 0.7410 0.7410 0.7430 0.7430 0.7440
13.007933 0.7440 0.7440 0.7440 0.7460 0.7440
13.045000 0.7460 0.7460 0.7470 0.7470 0.7470
13.082933 0.7490 0.7490 0.7500 0.7500 0.7500
13.121000 0.7520 0.7520 0.7520 0.7530 0.7530
13.158933 0.7530 0.7530 0.7530 0.7550 0.7550
13.197000 0.7550 0.7550 0.7550 0.7550 0.7550
13.234933 0.7550 0.7550 0.7550 0.7550 0.7550
13.273000 0.7550 0.7560 0.7560 0.7580 0.7580
13.310933 0.7580 0.7580 0.7580 0.7580 0.7580
13.349000 0.7590 0.7590 0.7590 0.7590 0.7590
13.386933 0.7590 0.7590 0.7590 0.7590 0.7590
13.425000 0.7590 0.7590 0.7590 0.7590 0.7590
13.462933 0.7590 0.7590 0.7590 0.7590 0.7590
13.500000 0.7590 0.7590 0.7590 0.7590 0.7590
13.537933 0.7590 0.7590 0.7590 0.7590 0.7590
13.576000 0.7580 0.7580 0.7580 0.7550 0.7530
13.613933 0.7520 0.7520 0.7500 0.7500 0.7500
13.652000 0.7500 0.7500 0.7490 0.7470 0.7470
13.689933 0.7460 0.7460 0.7440 0.7430 0.7430
13.728000 0.7430 0.7430 0.7410 0.7400 0.7370
13.765933 0.7320 0.7320 0.7280 0.7280 0.7280
13.804000 0.7280 0.7280 0.7280 0.7270 0.7250
13.841933 0.7240 0.7210 0.7190 0.7180 0.7160
13.880000 0.7150 0.7120 0.7100 0.7090 0.7060
13.917933 0.7040 0.7000 0.6980 0.6940 0.6890
13.955000 0.6890 0.6890 0.6860 0.6860 0.6850
13.992933 0.6850 0.6820 0.6810 0.6790 0.6760
14.031000 0.6750 0.6730 0.6720 0.6700 0.6690
14.068933 0.6670 0.6640 0.6640 0.6630 0.6630
14.107000 0.6630 0.6610 0.6600 0.6580 0.6580
14.144933 0.6570 0.6550 0.6550 0.6570 0.6550
14.183000 0.6550 0.6550 0.6550 0.6550 0.6550
14.220933 0.6550 0.6570 0.6570 0.6570 0.6570
14.259000 0.6570 0.6570 0.6570 0.6570 0.6570
14.296933 0.6570 0.6580 0.6580 0.6580 0.6600
14.334000 0.6600 0.6610 0.6630 0.6630 0.6640
14.371933 0.6640 0.6660 0.6670 0.6670 0.6670
14.410000 0.6690 0.6700 0.6700 0.6720 0.6720
14.447933 0.6720 0.6720 0.6730 0.6730 0.6750
14.486000 0.6750 0.6750 0.6760 0.6760 0.6780
14.523933 0.6790 0.6810 0.6810 0.6820 0.6820
14.562000 0.6830 0.6830 0.6850 0.6850 0.6850
14.599933 0.6860 0.6860 0.6860 0.6860 0.6860
14.638000 0.6860 0.6880 0.6880 0.6890 0.6910
14.675933 0.6910 0.6910 0.6910 0.6910 0.6910
14.714000 0.6910 0.6910 0.6920 0.6920 0.6940
14.751933 0.6940 0.6950 0.6950 0.6970 0.6970
14.789000 0.6980 0.7000 0.7000 0.7010 0.7010
14.826933 0.7030 0.7030 0.7030 0.7030 0.7030
14.865000 0.7040 0.7040 0.7040 0.7060 0.7060
14.902933 0.7090 0.7100 0.7100 0.7100 0.7120
14.941000 0.7120 0.7130 0.7130 0.7130 0.7150
14.978933 0.7160 0.7160 0.7160 0.7160
##END=
